"Displacements:0","Displacements:1","Displacements:2","Stress/Strain:0","Stress/Strain:1","Stress/Strain:2","Stress/Strain:3","Stress/Strain:4","Stress/Strain:5","Stress/Strain:6","Stress/Strain:7","Stress/Strain:8","Stress/Strain:9","Stress/Strain:10","Stress/Strain:11","Stress/Strain:12","Stress/Strain:13","Stress/Strain:14","Principal Stress:0","Principal Stress:1","Principal Stress:2","Principal Stress:3","Principal Stress:4","Principal Stress:5","Principal Stress:6","nodes:0","nodes:1","nodes:2"
0.001752,0.0011922,0.0011846,0.040263,0.010868,0.010861,0.0066915,-7.5788e-05,0.0066401,0.067488,-0.0089382,-0.008957,0.034796,-0.0003941,0.034528,0,0,0,0.043453,0.011063,0.007475,0.017989,0.020664,0.034355,2.1267e-06,0,0,0
0.0033744,0.0021433,0.0021296,0.035571,0.0061286,0.0061181,0.0047797,-9.7858e-06,0.0047364,0.063794,-0.012756,-0.012784,0.024855,-5.0886e-05,0.024629,0,0,0,0.037487,0.0063673,0.003964,0.016761,0.015939,0.032418,1.8204e-06,0.05,0,0
0.0063794,0.0036972,0.003676,0.028701,0.0010501,0.0010371,0.0019885,0.00015276,0.0019634,0.05615,-0.015743,-0.015776,0.01034,0.00079436,0.01021,0,0,0,0.029084,0.001288,0.00041607,0.014334,0.010263,0.028246,1.2147e-06,0.1,0,0
0.0089894,0.0047243,0.0047061,0.025229,0.0003936,0.0003818,0.00080009,0.00023255,0.00079573,0.049992,-0.014579,-0.01461,0.0041605,0.0012093,0.0041378,0,0,0,0.025305,0.00059365,0.00010499,0.0126,0.008668,0.02496,8.1093e-07,0.15,0,0
0.011379,0.0054513,0.0054484,0.023439,1.3385e-05,2.4781e-06,0.0003366,0.00019603,0.00035359,0.046869,-0.014038,-0.014067,0.0017503,0.0010194,0.0018387,0,0,0,0.023456,0.00020536,-0.00020614,0.011831,0.0078184,0.023459,6.6723e-07,0.2,0,0
0.013676,0.0059699,0.0059945,0.022781,-7.2314e-05,-8.2122e-05,9.8955e-05,0.00015717,0.00013576,0.045655,-0.013764,-0.01379,0.00051456,0.00081727,0.00070597,0,0,0,0.022784,8.6917e-05,-0.00024435,0.011514,0.0075423,0.022865,6.1585e-07,0.25,0,0
0.015944,0.0063368,0.0063994,0.022643,-9.8042e-05,-0.00010597,-3.2473e-05,0.0001219,2.0998e-05,0.045408,-0.013718,-0.013739,-0.00016886,0.00063386,0.00010919,0,0,0,0.022643,2.5934e-05,-0.00023048,0.011437,0.0074796,0.022747,6.0563e-07,0.3,0,0
0.018217,0.00659,0.0066986,0.022792,-9.8253e-05,-0.0001032,-0.00010749,9.1966e-05,-4.2304e-05,0.045705,-0.01381,-0.013823,-0.00055893,0.00047822,-0.00021998,0,0,0,0.022793,-4.9677e-06,-0.00019726,0.011495,0.0075302,0.022895,6.1718e-07,0.35,0,0
0.020515,0.0067589,0.006918,0.023093,-9.1125e-05,-9.1977e-05,-0.00014617,6.6421e-05,-7.5984e-05,0.046296,-0.013983,-0.013985,-0.00076008,0.00034539,-0.00039512,0,0,0,0.023095,-2.3391e-05,-0.00016107,0.011628,0.0076367,0.023187,6.4094e-07,0.4,0,0
0.022847,0.0068675,0.0070776,0.023464,-8.2191e-05,-7.8202e-05,-0.00015844,4.4647e-05,-9.1258e-05,0.047024,-0.014196,-0.014185,-0.00082391,0.00023216,-0.00047454,0,0,0,0.023466,-3.5106e-05,-0.00012692,0.011796,0.0077679,0.023547,6.7106e-07,0.45,0,0
0.025217,0.0069356,0.0071931,0.023847,-7.3476e-05,-6.4643e-05,-0.00015028,2.6548e-05,-9.4427e-05,0.047777,-0.014416,-0.014394,-0.00078148,0.00013805,-0.00049102,0,0,0,0.023849,-4.175e-05,-9.7905e-05,0.011973,0.007903,0.023919,7.032e-07,0.5,0,0
0.027624,0.0069797,0.007277,0.024202,-6.5234e-05,-5.2541e-05,-0.00012676,1.2431e-05,-8.9525e-05,0.048474,-0.01462,-0.014587,-0.00065917,6.4639e-05,-0.00046553,0,0,0,0.024203,-4.2529e-05,-7.6427e-05,0.01214,0.008028,0.024263,7.3383e-07,0.55,0,0
0.030064,0.0070126,0.0073391,0.0245,-5.7083e-05,-4.246e-05,-9.3317e-05,2.6895e-06,-7.9508e-05,0.04906,-0.014789,-0.014751,-0.00048525,1.3986e-05,-0.00041344,0,0,0,0.024501,-3.8097e-05,-6.2199e-05,0.012282,0.0081335,0.024551,7.602e-07,0.6,0,0
0.03253,0.007043,0.0073867,0.024727,-4.8623e-05,-3.4596e-05,-5.5924e-05,-2.5349e-06,-6.6761e-05,0.049503,-0.014912,-0.014876,-0.00029081,-1.3181e-05,-0.00034716,0,0,0,0.024727,-3.1877e-05,-5.1738e-05,0.012389,0.0082145,0.024769,7.8052e-07,0.65,0,0
0.035015,0.0070758,0.0074247,0.024878,-3.9802e-05,-2.8917e-05,-2.0552e-05,-3.5907e-06,-5.3234e-05,0.049797,-0.014989,-0.014961,-0.00010687,-1.8672e-05,-0.00027681,0,0,0,0.024878,-2.6708e-05,-4.2194e-05,0.01246,0.0082696,0.024912,7.9412e-07,0.7,0,0
0.03751,0.0071122,0.0074561,0.02496,-3.1001e-05,-2.5236e-05,7.7617e-06,-1.3536e-06,-4.0381e-05,0.049954,-0.015023,-0.015008,4.0361e-05,-7.0387e-06,-0.00020998,0,0,0,0.02496,-2.2963e-05,-3.3368e-05,0.012497,0.0083014,0.024989,8.0141e-07,0.75,0,0
0.04001,0.0071503,0.0074822,0.024989,-2.2867e-05,-2.3222e-05,2.5722e-05,2.9289e-06,-2.9094e-05,0.050007,-0.015025,-0.015026,0.00013375,1.523e-05,-0.00015129,0,0,0,0.02499,-1.8127e-05,-2.8037e-05,0.012509,0.0083145,0.025013,8.0372e-07,0.8,0,0
0.042511,0.0071866,0.0075033,0.024984,-1.6053e-05,-2.2433e-05,3.2196e-05,7.9011e-06,-1.9696e-05,0.049991,-0.015009,-0.015026,0.00016742,4.1085e-05,-0.00010242,0,0,0,0.024984,-1.044e-05,-2.8114e-05,0.012506,0.0083152,0.025003,8.0284e-07,0.85,0,0
0.045009,0.0072166,0.0075191,0.024964,-1.1016e-05,-2.2368e-05,2.8143e-05,1.2353e-05,-1.2043e-05,0.049947,-0.014987,-0.015016,0.00014634,6.4235e-05,-6.2622e-05,0,0,0,0.024964,-2.6723e-06,-3.0757e-05,0.012497,0.0083101,0.02498,8.0062e-07,0.9,0,0
0.047505,0.0072364,0.0075289,0.024944,-7.9655e-06,-2.2555e-05,2.3086e-05,1.5382e-05,-2.4474e-06,0.049906,-0.014969,-0.015007,0.00012005,7.9986e-05,-1.2726e-05,0,0,0,0.024944,2.3554e-06,-3.2904e-05,0.012489,0.0083045,0.024959,7.9861e-07,0.95,0,0
0.048753,0.0072433,0.0075322,0.024936,-6.9493e-06,-2.2658e-05,2.2447e-05,1.645e-05,3.7155e-06,0.04989,-0.014962,-0.015003,0.00011672,8.5542e-05,1.9321e-05,0,0,0,0.024936,4.0738e-06,-3.3707e-05,0.012485,0.0083022,0.024951,7.9782e-07,1,0,0
0.0016029,0.0010044,0.0011832,0.037579,0.010635,0.010012,0.0060365,-4.0266e-05,0.0066461,0.06277,-0.0072838,-0.008905,0.03139,-0.00020938,0.03456,0,0,0,0.040654,0.010619,0.006953,0.016851,0.019409,0.032053,1.7336e-06,0,0.05,0
0.0031385,0.0018619,0.0021336,0.03391,0.0064267,0.0056874,0.0046357,1.1574e-05,0.004752,0.060551,-0.010905,-0.012827,0.024106,6.0187e-05,0.02471,0,0,0,0.035821,0.0063987,0.0038035,0.016009,0.015341,0.030836,1.5495e-06,0.05,0.05,0
0.0060551,0.0033255,0.0036922,0.028551,0.0016479,0.0010438,0.0024136,0.0001381,0.0019807,0.055488,-0.014461,-0.016032,0.012551,0.00071814,0.0103,0,0,0,0.02902,0.0016414,0.00058157,0.014219,0.010414,0.027935,1.1515e-06,0.1,0.05,0
0.0086873,0.0043617,0.0047294,0.025701,0.00070606,0.00043743,0.0011841,0.0002095,0.00079594,0.050715,-0.014271,-0.014969,0.0061572,0.0010894,0.0041389,0,0,0,0.025819,0.0007803,0.00024475,0.012787,0.008948,0.025312,8.426e-07,0.15,0.05,0
0.011127,0.0050986,0.0054705,0.024022,0.0002164,7.589e-05,0.00055248,0.00019158,0.00034444,0.047868,-0.014026,-0.014391,0.0028729,0.00099624,0.0017911,0,0,0,0.024051,0.00034649,-8.3575e-05,0.012067,0.0081047,0.023923,7.0731e-07,0.2,0.05,0
0.013474,0.0056229,0.006013,0.023302,4.6878e-05,-2.9227e-05,0.00020002,0.00016005,0.00012755,0.046593,-0.01387,-0.014068,0.0010401,0.00083226,0.00066325,0,0,0,0.023308,0.00017796,-0.00016622,0.011737,0.0077732,0.023304,6.5223e-07,0.25,0.05,0
0.015786,0.0059908,0.0064135,0.023079,-2.5712e-05,-6.8428e-05,-6.168e-06,0.00012727,1.4451e-05,0.046214,-0.013858,-0.013969,-3.2074e-05,0.00066183,7.5147e-05,0,0,0,0.02308,8.6544e-05,-0.00018167,0.011631,0.0076615,0.023128,6.3686e-07,0.3,0.05,0
0.018095,0.006242,0.0067082,0.023143,-5.5559e-05,-7.706e-05,-0.00012759,9.6989e-05,-4.7613e-05,0.046365,-0.013951,-0.014007,-0.00066346,0.00050434,-0.00024759,0,0,0,0.023144,3.3746e-05,-0.00016752,0.011656,0.0076701,0.023212,6.4335e-07,0.35,0.05,0
0.020422,0.006407,0.0069232,0.023367,-6.8302e-05,-7.3743e-05,-0.00019304,6.9614e-05,-8.0456e-05,0.04682,-0.014113,-0.014127,-0.0010038,0.00036199,-0.00041837,0,0,0,0.023369,-5.8957e-07,-0.00014363,0.011757,0.0077418,0.023442,6.6241e-07,0.4,0.05,0
0.022777,0.0065106,0.0070785,0.023671,-7.3682e-05,-6.5541e-05,-0.0002176,4.5304e-05,-9.4932e-05,0.047426,-0.014311,-0.014289,-0.0011315,0.00023558,-0.00049365,0,0,0,0.023674,-2.3622e-05,-0.00011835,0.011896,0.0078439,0.023745,6.882e-07,0.45,0.05,0
0.025165,0.0065736,0.0071903,0.023998,-7.5509e-05,-5.5964e-05,-0.00021068,2.4567e-05,-9.7064e-05,0.048074,-0.014516,-0.014465,-0.0010955,0.00012775,-0.00050473,0,0,0,0.024,-3.6846e-05,-9.7254e-05,0.012049,0.0079554,0.024067,7.1643e-07,0.5,0.05,0
0.027585,0.0066129,0.0072713,0.024307,-7.4658e-05,-4.6731e-05,-0.00018015,8.2486e-06,-9.0776e-05,0.048686,-0.014705,-0.014633,-0.00093679,4.2892e-05,-0.00047203,0,0,0,0.024309,-3.9776e-05,-8.3623e-05,0.012196,0.0080618,0.024371,7.4368e-07,0.55,0.05,0
0.030034,0.0066418,0.0073316,0.024571,-7.0854e-05,-3.8702e-05,-0.00013426,-2.8076e-06,-7.9097e-05,0.049207,-0.014861,-0.014777,-0.00069814,-1.46e-05,-0.0004113,0,0,0,0.024572,-3.5127e-05,-7.5664e-05,0.012324,0.0081538,0.024627,7.6732e-07,0.6,0.05,0
0.032506,0.0066694,0.0073785,0.024774,-6.3778e-05,-3.2267e-05,-8.1898e-05,-8.1983e-06,-6.4645e-05,0.049605,-0.014972,-0.014891,-0.00042587,-4.2631e-05,-0.00033615,0,0,0,0.024774,-2.8688e-05,-6.795e-05,0.012421,0.0082259,0.024823,7.8563e-07,0.65,0.05,0
0.034994,0.0067005,0.0074171,0.024911,-5.3721e-05,-2.7554e-05,-3.1864e-05,-8.2667e-06,-4.967e-05,0.049871,-0.015038,-0.01497,-0.00016569,-4.2987e-05,-0.00025828,0,0,0,0.024911,-2.4284e-05,-5.7214e-05,0.012484,0.0082766,0.024952,7.9793e-07,0.7,0.05,0
0.037493,0.0067361,0.0074499,0.024988,-4.1746e-05,-2.4509e-05,8.4617e-06,-4.1391e-06,-3.5897e-05,0.050016,-0.015062,-0.015017,4.4001e-05,-2.1524e-05,-0.00018666,0,0,0,0.024988,-2.2107e-05,-4.4245e-05,0.012516,0.0083073,0.025021,8.0458e-07,0.75,0.05,0
0.039996,0.0067743,0.007478,0.025018,-2.9408e-05,-2.2919e-05,3.4268e-05,2.5143e-06,-2.4374e-05,0.050067,-0.015056,-0.015039,0.0001782,1.3074e-05,-0.00012675,0,0,0,0.025018,-1.8147e-05,-3.4276e-05,0.012526,0.0083218,0.025044,8.0675e-07,0.8,0.05,0
0.042499,0.006811,0.0075013,0.025016,-1.8299e-05,-2.2425e-05,4.389e-05,9.8684e-06,-1.5442e-05,0.050057,-0.015033,-0.015044,0.00022823,5.1316e-05,-8.0297e-05,0,0,0,0.025016,-8.9063e-06,-3.1925e-05,0.012524,0.0083251,0.025037,8.0604e-07,0.85,0.05,0
0.045001,0.0068416,0.0075189,0.025,-9.6609e-06,-2.2566e-05,3.8666e-05,1.6305e-05,-8.8538e-06,0.05002,-0.015006,-0.01504,0.00020107,8.4787e-05,-4.604e-05,0,0,0,0.025,2.0861e-06,-3.4393e-05,0.012517,0.0083227,0.025017,8.0412e-07,0.9,0.05,0
0.047501,0.0068619,0.0075299,0.024985,-4.2497e-06,-2.2881e-05,2.9389e-05,2.0633e-05,-3.0663e-07,0.049986,-0.014986,-0.015034,0.00015282,0.00010729,-1.5945e-06,0,0,0,0.024985,9.783e-06,-3.6959e-05,0.012511,0.0083192,0.024998,8.0236e-07,0.95,0.05,0
0.048751,0.006869,0.0075337,0.024979,-2.415e-06,-2.3028e-05,2.6093e-05,2.2151e-05,5.4712e-06,0.049972,-0.014978,-0.015032,0.00013568,0.00011519,2.845e-05,0,0,0,0.024979,1.246e-05,-3.7938e-05,0.012508,0.0083177,0.024991,8.0167e-07,1,0.05,0
0.0014216,0.00072296,0.0011861,0.034265,0.010819,0.0090827,0.0049822,3.4944e-06,0.0066859,0.056589,-0.004371,-0.0088849,0.025907,1.8171e-05,0.034767,0,0,0,0.037151,0.010544,0.0064718,0.01534,0.018056,0.028876,1.217e-06,0,0.1,0
0.0028295,0.0014092,0.0021486,0.031704,0.0073662,0.0052511,0.0043312,3.7763e-05,0.0048026,0.055838,-0.0074409,-0.01294,0.022522,0.00019637,0.024973,0,0,0,0.033602,0.007007,0.0037131,0.014944,0.014774,0.028419,1.1586e-06,0.05,0.1,0
0.0055838,0.0026665,0.0037335,0.028029,0.0028835,0.0010551,0.0030104,0.00011875,0.0020279,0.053695,-0.011683,-0.016437,0.015654,0.00061749,0.010545,0,0,0,0.028636,0.0025577,0.00077413,0.013931,0.010656,0.027042,1.0075e-06,0.1,0.1,0
0.0081989,0.0036636,0.0047883,0.026055,0.0013331,0.00044831,0.0018281,0.00018011,0.00080877,0.051041,-0.013236,-0.015536,0.009506,0.00093657,0.0042056,0,0,0,0.026256,0.0012217,0.00035873,0.012949,0.0092788,0.025481,8.5131e-07,0.15,0.1,0
0.010688,0.0043979,0.0055308,0.024736,0.0005875,0.00013124,0.00098076,0.00018997,0.00033177,0.04904,-0.013745,-0.014931,0.0051,0.00098784,0.0017252,0,0,0,0.024797,0.00061764,4.0152e-05,0.012378,0.0084848,0.024474,7.5408e-07,0.2,0.1,0
0.013103,0.0049241,0.0060669,0.024052,0.00025144,2.1791e-05,0.00043169,0.00017265,0.00010931,0.04794,-0.013941,-0.014538,0.0022448,0.0008978,0.00056839,0,0,0,0.024067,0.0003398,-8.1313e-05,0.012074,0.0081084,0.023941,7.0555e-07,0.25,0.1,0
0.015482,0.005291,0.0064574,0.023762,8.4138e-05,-2.6812e-05,8.1498e-05,0.00014483,-3.3633e-06,0.04749,-0.014073,-0.014361,0.00042379,0.00075313,-1.7489e-05,0,0,0,0.023765,0.00018566,-0.00013092,0.011948,0.0079399,0.023739,6.8775e-07,0.3,0.1,0
0.017852,0.0055375,0.0067406,0.023727,-3.0052e-06,-4.5104e-05,-0.0001367,0.00011342,-6.3759e-05,0.047482,-0.014215,-0.014324,-0.00071082,0.0005898,-0.00033155,0,0,0,0.023728,9.2101e-05,-0.00014198,0.011935,0.0078928,0.023754,6.8899e-07,0.35,0.1,0
0.02023,0.0056949,0.0069437,0.023846,-5.1894e-05,-4.9644e-05,-0.00026186,8.1325e-05,-9.4865e-05,0.047753,-0.014382,-0.014376,-0.0013617,0.00042289,-0.0004933,0,0,0,0.02385,3.0508e-05,-0.00013565,0.011993,0.0079149,0.023903,7.0194e-07,0.4,0.1,0
0.022627,0.0057894,0.0070876,0.024052,-8.1391e-05,-4.7588e-05,-0.00031697,5.0397e-05,-0.00010734,0.048182,-0.014565,-0.014478,-0.0016482,0.00026206,-0.00055817,0,0,0,0.024057,-9.5638e-06,-0.00012434,0.012091,0.0079744,0.024124,7.2153e-07,0.45,0.1,0
0.025048,0.0058428,0.0071891,0.024293,-9.967e-05,-4.2776e-05,-0.00031748,2.2642e-05,-0.00010678,0.048671,-0.014749,-0.014602,-0.0016509,0.00011774,-0.00055523,0,0,0,0.024298,-3.0268e-05,-0.00011708,0.012208,0.0080502,0.024372,7.4385e-07,0.5,0.1,0
0.027494,0.0058734,0.007262,0.024531,-0.00010939,-3.7218e-05,-0.00027674,3.3563e-07,-9.6881e-05,0.049149,-0.014915,-0.014727,-0.0014391,1.7453e-06,-0.00050378,0,0,0,0.024534,-3.3798e-05,-0.00011661,0.012326,0.008128,0.02461,7.6574e-07,0.55,0.1,0
0.029963,0.0058952,0.0073171,0.024738,-0.0001108,-3.1961e-05,-0.00020868,-1.4458e-05,-8.0889e-05,0.049561,-0.015045,-0.01484,-0.0010851,-7.5183e-05,-0.00042062,0,0,0,0.02474,-2.7817e-05,-0.00011724,0.012429,0.0081983,0.024813,7.8474e-07,0.6,0.1,0
0.032451,0.0059177,0.007362,0.024898,-0.00010392,-2.7539e-05,-0.0001283,-2.0605e-05,-6.2006e-05,0.049875,-0.01513,-0.014932,-0.00066716,-0.00010715,-0.00032243,0,0,0,0.024899,-2.1276e-05,-0.00011121,0.012505,0.0082555,0.024965,7.9924e-07,0.65,0.1,0
0.034951,0.0059462,0.0074015,0.025006,-8.9755e-05,-2.4237e-05,-5.0344e-05,-1.8419e-05,-4.3255e-05,0.05008,-0.015168,-0.014998,-0.00026179,-9.5778e-05,-0.00022493,0,0,0,0.025006,-1.8553e-05,-9.5755e-05,0.012551,0.0082972,0.025063,8.0862e-07,0.7,0.1,0
0.037459,0.0059811,0.0074378,0.025064,-7.0708e-05,-2.2197e-05,1.2882e-05,-9.6869e-06,-2.7029e-05,0.050184,-0.015167,-0.01504,6.6986e-05,-5.0372e-05,-0.00014055,0,0,0,0.025064,-1.9136e-05,-7.3885e-05,0.012569,0.0083237,0.025111,8.1323e-07,0.75,0.1,0
0.039969,0.00602,0.0074709,0.025084,-5.0018e-05,-2.1385e-05,5.3421e-05,2.8086e-06,-1.4725e-05,0.050211,-0.015138,-0.015063,0.00027779,1.4605e-05,-7.6572e-05,0,0,0,0.025084,-1.6979e-05,-5.4589e-05,0.012569,0.0083375,0.02512,8.1413e-07,0.8,0.1,0
0.04248,0.0060582,0.0074995,0.025079,-3.0902e-05,-2.1546e-05,6.8539e-05,1.6029e-05,-6.6555e-06,0.05019,-0.015097,-0.015072,0.0003564,8.335e-05,-3.4609e-05,0,0,0,0.02508,-5.9974e-06,-4.6667e-05,0.012563,0.0083423,0.025106,8.1276e-07,0.85,0.1,0
0.044988,0.0060904,0.0075218,0.025064,-1.5843e-05,-2.223e-05,6.0379e-05,2.7332e-05,-2.261e-06,0.050151,-0.015057,-0.015073,0.00031397,0.00014213,-1.1757e-05,0,0,0,0.025064,9.9929e-06,-4.8238e-05,0.012556,0.0083421,0.025084,8.1058e-07,0.9,0.1,0
0.047495,0.0061118,0.0075359,0.02505,-6.35e-06,-2.2918e-05,4.2323e-05,3.4828e-05,4.3085e-06,0.050118,-0.015029,-0.015072,0.00022008,0.00018111,2.2404e-05,0,0,0,0.02505,2.2405e-05,-5.1764e-05,0.012551,0.0083403,0.025065,8.0877e-07,0.95,0.1,0
0.048748,0.0061193,0.0075408,0.025045,-3.123e-06,-2.32e-05,3.3621e-05,3.7441e-05,9.4859e-06,0.050105,-0.015019,-0.015071,0.00017483,0.00019469,4.9327e-05,0,0,0,0.025045,2.6846e-05,-5.3225e-05,0.012549,0.0083394,0.025058,8.0808e-07,1,0.1,0
0.0013752,0.00056734,0.001195,0.033335,0.011356,0.0089519,0.0041719,1.1211e-05,0.0067544,0.054484,-0.0026592,-0.0089107,0.021694,5.8295e-05,0.035123,0,0,0,0.036061,0.011071,0.0065108,0.014775,0.017881,0.027564,1.0363e-06,0,0.15,0
0.0027242,0.0011178,0.002171,0.030897,0.0083083,0.0052464,0.0038565,3.9449e-05,0.0048715,0.053661,-0.0050694,-0.01303,0.020054,0.00020514,0.025332,0,0,0,0.03272,0.0079236,0.0038082,0.014456,0.014817,0.027111,9.7516e-07,0.05,0.15,0
0.0053661,0.0021572,0.0037842,0.027435,0.0039877,0.0010921,0.0030687,0.00010498,0.002087,0.051823,-0.0091409,-0.01667,0.015957,0.00054592,0.010853,0,0,0,0.028077,0.0036042,0.00083347,0.013622,0.010838,0.026,8.6789e-07,0.1,0.15,0
0.0079065,0.0030381,0.0048613,0.025775,0.002016,0.0004002,0.0021302,0.00016173,0.00083927,0.0501,-0.011673,-0.015874,0.011077,0.00084098,0.0043642,0,0,0,0.026027,0.0018276,0.00033648,0.012845,0.0093969,0.024987,7.9286e-07,0.15,0.15,0
0.010376,0.0037241,0.0056118,0.024819,0.00098108,9.5578e-05,0.0012943,0.000184,0.00033307,0.048991,-0.012986,-0.015289,0.0067306,0.0009568,0.001732,0,0,0,0.02491,0.00094565,3.9716e-05,0.012435,0.0086317,0.024433,7.4697e-07,0.2,0.15,0
0.012806,0.0042287,0.0061444,0.024336,0.00046603,7.1212e-06,0.00065873,0.00017915,9.5231e-05,0.048388,-0.013674,-0.014867,0.0034254,0.00093156,0.0004952,0,0,0,0.024363,0.00051599,-6.9294e-05,0.012216,0.0082698,0.024145,7.225e-07,0.25,0.15,0
0.015215,0.0045835,0.0065246,0.024122,0.00018892,-2.9338e-05,0.00021054,0.00015784,-2.3589e-05,0.048149,-0.014078,-0.014645,0.0010948,0.00082077,-0.00012266,0,0,0,0.024128,0.00027604,-0.00012187,0.012125,0.008094,0.024053,7.1477e-07,0.3,0.15,0
0.01762,0.0048205,0.0067935,0.024095,3.5357e-05,-4.1624e-05,-8.9157e-05,0.00012714,-8.597e-05,0.048195,-0.014362,-0.014562,-0.00046362,0.00066114,-0.00044704,0,0,0,0.024098,0.0001334,-0.00014177,0.01212,0.0080297,0.024103,7.194e-07,0.35,0.15,0
0.020034,0.0049688,0.0069805,0.024192,-5.3675e-05,-4.3552e-05,-0.00027283,9.124e-05,-0.00011714,0.048443,-0.014597,-0.01457,-0.0014187,0.00047445,-0.00060914,0,0,0,0.024196,4.4672e-05,-0.0001461,0.012171,0.0080317,0.024248,7.325e-07,0.4,0.15,0
0.022465,0.0050541,0.0071079,0.024363,-0.00010755,-4.0705e-05,-0.00036365,5.3552e-05,-0.00012819,0.048815,-0.014809,-0.014635,-0.001891,0.00027847,-0.0006666,0,0,0,0.024369,-6.9481e-06,-0.00014762,0.012259,0.0080716,0.024447,7.5071e-07,0.45,0.15,0
0.024916,0.0050986,0.0071944,0.024566,-0.00014047,-3.611e-05,-0.00037941,1.7889e-05,-0.00012445,0.049239,-0.014999,-0.014728,-0.0019729,9.3022e-05,-0.00064715,0,0,0,0.024573,-2.7787e-05,-0.00015544,0.012364,0.00813,0.024665,7.7089e-07,0.5,0.15,0
0.027389,0.0051214,0.0072551,0.024767,-0.00015822,-3.1276e-05,-0.00033699,-1.1474e-05,-0.0001095,0.049649,-0.015158,-0.014828,-0.0017524,-5.9666e-05,-0.00056938,0,0,0,0.024773,-2.6893e-05,-0.00016787,0.01247,0.0081927,0.02487,7.9023e-07,0.55,0.15,0
0.029881,0.0051373,0.007302,0.02494,-0.00016249,-2.687e-05,-0.00025506,-3.0639e-05,-8.6995e-05,0.049993,-0.015273,-0.01492,-0.0013263,-0.00015932,-0.00045237,0,0,0,0.024943,-1.805e-05,-0.00017448,0.012559,0.0082501,0.025039,8.0635e-07,0.6,0.15,0
0.032388,0.0051564,0.0073436,0.025066,-0.00015417,-2.3187e-05,-0.00015429,-3.731e-05,-6.1209e-05,0.050239,-0.015334,-0.014994,-0.00080231,-0.00019401,-0.00031829,0,0,0,0.025067,-1.1547e-05,-0.00016717,0.012617,0.0082963,0.025157,8.1773e-07,0.65,0.15,0
0.034905,0.0051836,0.0073844,0.025142,-0.00013534,-2.0468e-05,-5.5168e-05,-3.1698e-05,-3.6489e-05,0.050377,-0.015343,-0.015045,-0.00028688,-0.00016483,-0.00018974,0,0,0,0.025142,-1.088e-05,-0.0001453,0.012644,0.0083286,0.02522,8.2388e-07,0.7,0.15,0
0.037426,0.0052195,0.0074258,0.025171,-0.00010979,-1.8966e-05,2.5234e-05,-1.6527e-05,-1.6332e-05,0.050418,-0.01531,-0.015074,0.00013122,-8.5941e-05,-8.4928e-05,0,0,0,0.025171,-1.4264e-05,-0.00011465,0.012643,0.0083472,0.025235,8.2536e-07,0.75,0.15,0
0.039946,0.0052605,0.0074662,0.025165,-8.2299e-05,-1.8796e-05,7.6053e-05,3.8485e-06,-2.6384e-06,0.050391,-0.015252,-0.015087,0.00039548,2.0012e-05,-1.3719e-05,0,0,0,0.025165,-1.4182e-05,-8.7209e-05,0.012626,0.0083547,0.025216,8.235e-07,0.8,0.15,0
0.042465,0.0053014,0.0075026,0.025141,-5.7329e-05,-1.9745e-05,9.3726e-05,2.475e-05,4.4353e-06,0.050327,-0.015187,-0.015089,0.00048738,0.0001287,2.3064e-05,0,0,0,0.025141,-3.1984e-06,-7.4264e-05,0.012608,0.0083545,0.02518,8.1993e-07,0.85,0.15,0
0.044979,0.0053359,0.0075316,0.025112,-3.803e-05,-2.1243e-05,8.1282e-05,4.2258e-05,6.0321e-06,0.050259,-0.01513,-0.015087,0.00042267,0.00021974,3.1367e-05,0,0,0,0.025112,1.5267e-05,-7.4843e-05,0.012593,0.0083508,0.025142,8.1621e-07,0.9,0.15,0
0.047491,0.005359,0.0075504,0.025089,-2.6064e-05,-2.2555e-05,5.4612e-05,5.371e-05,1.0305e-05,0.050208,-0.015092,-0.015083,0.00028398,0.00027929,5.3584e-05,0,0,0,0.02509,3.0666e-05,-7.9438e-05,0.012585,0.0083469,0.025114,8.1351e-07,0.95,0.15,0
0.048745,0.0053671,0.0075568,0.025081,-2.2037e-05,-2.3071e-05,4.095e-05,5.7673e-05,1.4944e-05,0.05019,-0.015079,-0.015082,0.00021294,0.0002999,7.7711e-05,0,0,0,0.025081,3.6322e-05,-8.1517e-05,0.012581,0.0083454,0.025104,8.1253e-07,1,0.15,0
0.0013554,0.00045705,0.001205,0.032901,0.011535,0.0088778,0.0034178,1.132e-05,0.0068242,0.053554,-0.0019974,-0.0089056,0.017773,5.8864e-05,0.035486,0,0,0,0.035479,0.011321,0.0065127,0.014483,0.017771,0.0269,9.5043e-07,0,0.2,0
0.0026777,0.00090229,0.0021941,0.030499,0.0087612,0.0052458,0.0032413,3.4982e-05,0.0049377,0.052593,-0.0039244,-0.013064,0.016855,0.00018191,0.025676,0,0,0,0.032201,0.0084612,0.0038435,0.014179,0.014835,0.026371,8.7681e-07,0.05,0.2,0
0.0052593,0.0017524,0.0038347,0.027073,0.0047341,0.0011422,0.0027569,8.9606e-05,0.0021429,0.05062,-0.0074609,-0.0168,0.014336,0.00046595,0.011143,0,0,0,0.02766,0.0044081,0.0008811,0.01339,0.010983,0.025227,7.7003e-07,0.1,0.2,0
0.0077397,0.0024963,0.0049349,0.025479,0.0026731,0.00040389,0.0020882,0.00013983,0.00087581,0.049111,-0.010183,-0.016083,0.010859,0.00072712,0.0045542,0,0,0,0.025728,0.0024792,0.00034808,0.01269,0.0095186,0.024395,7.2645e-07,0.15,0.2,0
0.01017,0.0030993,0.0056969,0.024683,0.0014301,7.2505e-05,0.0013944,0.00016592,0.00034683,0.048463,-0.011993,-0.015523,0.0072509,0.00086277,0.0018035,0,0,0,0.024785,0.0013602,3.9553e-05,0.012373,0.0087284,0.024118,7.1391e-07,0.2,0.2,0
0.012586,0.0035567,0.0062298,0.024365,0.00074327,-1.53e-05,0.00079222,0.00016939,9.1961e-05,0.048292,-0.013123,-0.015095,0.0041195,0.00088084,0.00047819,0,0,0,0.024399,0.00075527,-6.1919e-05,0.012231,0.0083642,0.024065,7.137e-07,0.25,0.2,0
0.015,0.0038832,0.0066016,0.024261,0.00034529,-4.389e-05,0.00032233,0.00015502,-3.7853e-05,0.048342,-0.01384,-0.014852,0.0016761,0.00080612,-0.00019684,0,0,0,0.02427,0.00040183,-0.00010878,0.012189,0.0081876,0.024128,7.2087e-07,0.3,0.2,0
0.01742,0.0041013,0.0068562,0.024295,0.00011181,-4.888e-05,-1.6619e-05,0.00012726,-0.00010701,0.048551,-0.014324,-0.014742,-8.6417e-05,0.00066173,-0.00055643,0,0,0,0.024297,0.00018934,-0.00012879,0.012213,0.0081192,0.024268,7.341e-07,0.35,0.2,0
0.019855,0.0042352,0.0070249,0.024419,-2.793e-05,-4.5545e-05,-0.00023863,8.9846e-05,-0.00014198,0.048882,-0.01468,-0.014726,-0.0012409,0.0004672,-0.00073831,0,0,0,0.024423,6.115e-05,-0.00013861,0.012281,0.0081151,0.024462,7.52e-07,0.4,0.2,0
0.022308,0.0043085,0.0071328,0.024599,-0.00011305,-3.9467e-05,-0.00035855,4.6968e-05,-0.00015396,0.049289,-0.014962,-0.01477,-0.0018645,0.00024423,-0.00080061,0,0,0,0.024605,-6.1963e-06,-0.00015284,0.012379,0.0081488,0.024685,7.7278e-07,0.45,0.2,0
0.024784,0.0043429,0.0072005,0.024801,-0.00016467,-3.3306e-05,-0.000391,4.1383e-06,-0.00014779,0.049721,-0.01519,-0.014849,-0.0020332,2.1519e-05,-0.00076851,0,0,0,0.024808,-2.5483e-05,-0.00017971,0.012494,0.0082011,0.024911,7.9413e-07,0.5,0.2,0
0.027281,0.0043576,0.0072457,0.024994,-0.00019296,-2.8019e-05,-0.0003528,-3.1977e-05,-0.00012685,0.05012,-0.015365,-0.014936,-0.0018346,-0.00016628,-0.00065962,0,0,0,0.025,-1.7483e-05,-0.00020933,0.012604,0.0082576,0.025114,8.135e-07,0.55,0.2,0
0.029796,0.0043679,0.0072824,0.02515,-0.0002023,-2.3649e-05,-0.0002651,-5.5032e-05,-9.5577e-05,0.050435,-0.01548,-0.015016,-0.0013785,-0.00028616,-0.000497,0,0,0,0.025153,-4.4278e-06,-0.00022498,0.012689,0.0083079,0.025268,8.2854e-07,0.6,0.2,0
0.032324,0.0043843,0.0073201,0.025252,-0.00019533,-2.0022e-05,-0.0001528,-6.11e-05,-6.002e-05,0.050633,-0.01553,-0.015074,-0.00079457,-0.00031772,-0.0003121,0,0,0,0.025253,2.1603e-06,-0.0002189,0.012736,0.0083455,0.025362,8.3776e-07,0.65,0.2,0
0.034859,0.0044118,0.0073635,0.025296,-0.0001756,-1.7261e-05,-4.1258e-05,-5.0214e-05,-2.6757e-05,0.050707,-0.015518,-0.015107,-0.00021454,-0.00026112,-0.00013914,0,0,0,0.025296,-2.2994e-07,-0.000193,0.012745,0.0083677,0.025393,8.4087e-07,0.7,0.2,0
0.037395,0.0044501,0.0074123,0.02529,-0.00014835,-1.5832e-05,4.8438e-05,-2.6382e-05,-1.0828e-06,0.050678,-0.015461,-0.015117,0.00025188,-0.00013719,-5.6305e-06,0,0,0,0.02529,-7.8706e-06,-0.00015658,0.012723,0.0083752,0.025373,8.3887e-07,0.75,0.2,0
0.039927,0.0044948,0.0074632,0.02525,-0.00011952,-1.6129e-05,0.00010321,3.9581e-06,1.4367e-05,0.050582,-0.01538,-0.015111,0.00053667,2.0582e-05,7.4708e-05,0,0,0,0.025251,-1.0693e-05,-0.00012548,0.012688,0.0083715,0.025319,8.3359e-07,0.8,0.2,0
0.042453,0.0045395,0.0075106,0.025196,-9.4128e-05,-1.8009e-05,0.00011923,3.4099e-05,1.9795e-05,0.05046,-0.015295,-0.015097,0.00061999,0.00017732,0.00010293,0,0,0,0.025197,-2.9401e-07,-0.00011248,0.012655,0.0083614,0.025253,8.2713e-07,0.85,0.2,0
0.044973,0.0045773,0.007549,0.025145,-7.522e-05,-2.0661e-05,0.00010064,5.8739e-05,1.7343e-05,0.050348,-0.015225,-0.015083,0.00052335,0.00030544,9.0183e-05,0,0,0,0.025146,1.8928e-05,-0.00011528,0.012631,0.0083498,0.025194,8.2129e-07,0.9,0.2,0
0.047488,0.0046026,0.007574,0.02511,-6.3893e-05,-2.2924e-05,6.5694e-05,7.457e-05,1.8409e-05,0.050272,-0.01518,-0.015073,0.00034161,0.00038776,9.5725e-05,0,0,0,0.02511,3.5225e-05,-0.00012227,0.012616,0.008341,0.025154,8.1733e-07,0.95,0.2,0
0.048744,0.0046114,0.0075827,0.025097,-6.016e-05,-2.3806e-05,4.7751e-05,7.9996e-05,2.2322e-05,0.050245,-0.015164,-0.01507,0.0002483,0.00041598,0.00011607,0,0,0,0.025097,4.1252e-05,-0.00012535,0.012611,0.0083378,0.02514,8.1595e-07,1,0.2,0
0.0013479,0.00036759,0.0012157,0.032717,0.011632,0.0088488,0.002772,1.2526e-05,0.0068948,0.053145,-0.0016763,-0.0089114,0.014414,6.5135e-05,0.035853,0,0,0,0.035188,0.011483,0.0065261,0.014331,0.017732,0.026553,9.0668e-07,0,0.25,0
0.0026573,0.00072537,0.0022172,0.030305,0.0090055,0.0052476,0.00266,3.3236e-05,0.005001,0.052057,-0.0033202,-0.013091,0.013832,0.00017283,0.026005,0,0,0,0.031903,0.0087917,0.003863,0.01402,0.014853,0.025947,8.2158e-07,0.05,0.25,0
0.0052057,0.0014111,0.0038829,0.026848,0.0051862,0.0011708,0.0023384,7.9704e-05,0.0021936,0.049882,-0.0064389,-0.016879,0.01216,0.00041446,0.011407,0,0,0,0.027359,0.0049424,0.00090424,0.013227,0.011068,0.024705,7.0563e-07,0.1,0.25,0
0.0076455,0.0020198,0.0050047,0.025248,0.0031604,0.00041684,0.001863,0.00012327,0.00091244,0.04835,-0.0090782,-0.016212,0.0096874,0.00064098,0.0047447,0,0,0,0.025464,0.0030002,0.00036136,0.012551,0.0096085,0.023903,6.7236e-07,0.15,0.25,0
0.010041,0.0025248,0.0057792,0.02451,0.0018319,6.6263e-05,0.0013259,0.00014936,0.00036666,0.047882,-0.011082,-0.015673,0.0068944,0.00077665,0.0019066,0,0,0,0.024606,0.0017603,4.2792e-05,0.012281,0.0088029,0.023757,6.7695e-07,0.2,0.25,0
0.012434,0.0029164,0.0063146,0.024285,0.0010264,-2.9878e-05,0.00081353,0.00015691,9.6866e-05,0.047971,-0.0125,-0.015246,0.0042304,0.00081595,0.0005037,0,0,0,0.02432,0.0010199,-5.8963e-05,0.01219,0.0084271,0.023861,6.9355e-07,0.25,0.25,0
0.014838,0.0031995,0.0066799,0.024271,0.00052584,-5.7426e-05,0.00037847,0.00014719,-4.5152e-05,0.048261,-0.013476,-0.014993,0.0019681,0.00076539,-0.00023479,0,0,0,0.024281,0.00055845,-9.9831e-05,0.01219,0.0082465,0.024059,7.1404e-07,0.3,0.25,0
0.01726,0.0033882,0.0069206,0.024374,0.00021709,-5.7875e-05,4.1631e-05,0.00012174,-0.00012407,0.048652,-0.014155,-0.01487,0.00021648,0.00063304,-0.00064518,0,0,0,0.024376,0.00026949,-0.00011294,0.012245,0.0081776,0.024301,7.3685e-07,0.35,0.25,0
0.019703,0.0035009,0.0070703,0.024548,2.7302e-05,-4.9861e-05,-0.000193,8.2768e-05,-0.00016627,0.049109,-0.014644,-0.014845,-0.0010036,0.00043039,-0.00086463,0,0,0,0.024551,9.1331e-05,-0.00011751,0.012334,0.0081751,0.024565,7.6152e-07,0.4,0.25,0
0.022171,0.0035579,0.0071562,0.024764,-8.8544e-05,-4.0466e-05,-0.00032854,3.4385e-05,-0.000182,0.049604,-0.015011,-0.014886,-0.0017084,0.0001788,-0.00094639,0,0,0,0.02477,3.6737e-07,-0.00013552,0.012453,0.0082115,0.024838,7.8715e-07,0.45,0.25,0
0.024664,0.0035796,0.0072023,0.02499,-0.00015785,-3.2748e-05,-0.00037258,-1.642e-05,-0.00017479,0.050095,-0.01529,-0.014965,-0.0019374,-8.5382e-05,-0.00090889,0,0,0,0.024997,-1.831e-05,-0.00017931,0.012588,0.0082666,0.025097,8.1193e-07,0.5,0.25,0
0.02718,0.0035849,0.0072293,0.025196,-0.00019607,-2.7216e-05,-0.00033882,-6.0218e-05,-0.00014739,0.050526,-0.015493,-0.015054,-0.0017618,-0.00031313,-0.00076642,0,0,0,0.025202,-1.094e-06,-0.00022788,0.012715,0.0083243,0.025317,8.3333e-07,0.55,0.25,0
0.029716,0.0035893,0.0072542,0.025351,-0.00021153,-2.297e-05,-0.00024862,-8.753e-05,-0.00010521,0.050844,-0.01562,-0.01513,-0.0012928,-0.00045515,-0.00054709,0,0,0,0.025355,1.7131e-05,-0.00025487,0.012805,0.0083723,0.025475,8.4885e-07,0.6,0.25,0
0.032265,0.0036034,0.0072883,0.025438,-0.0002096,-1.9039e-05,-0.00012975,-9.2268e-05,-5.696e-05,0.051013,-0.015671,-0.015175,-0.00067471,-0.00047979,-0.00029619,0,0,0,0.025439,2.3094e-05,-0.00025292,0.012846,0.0084031,0.025555,8.569e-07,0.65,0.25,0
0.034817,0.0036318,0.007336,0.025453,-0.00019556,-1.5435e-05,-1.152e-05,-7.4283e-05,-1.2609e-05,0.051033,-0.015654,-0.015185,-5.9905e-05,-0.00038627,-6.5568e-05,0,0,0,0.025453,1.5343e-05,-0.00022668,0.01284,0.008414,0.02556,8.5743e-07,0.7,0.25,0
0.037368,0.0036733,0.0073957,0.02541,-0.00017551,-1.3188e-05,8.1675e-05,-3.9388e-05,1.989e-05,0.050932,-0.015589,-0.015167,0.00042471,-0.00020482,0.00010343,0,0,0,0.02541,7.2496e-07,-0.00018991,0.0128,0.008407,0.025505,8.5202e-07,0.75,0.25,0
0.039911,0.0037226,0.0074609,0.025331,-0.00015537,-1.3399e-05,0.00013529,3.1648e-06,3.6971e-05,0.050763,-0.015501,-0.015132,0.0007035,1.6457e-05,0.00019225,0,0,0,0.025332,-6.4518e-06,-0.00016322,0.012747,0.0083873,0.025417,8.4324e-07,0.8,0.25,0
0.042444,0.0037718,0.007523,0.025242,-0.00013929,-1.617e-05,0.00014596,4.4128e-05,3.9601e-05,0.050577,-0.015414,-0.015094,0.000759,0.00022946,0.00020593,0,0,0,0.025243,3.0057e-06,-0.00015946,0.012701,0.0083622,0.025322,8.3378e-07,0.85,0.25,0
0.044968,0.0038134,0.0075738,0.025165,-0.00012881,-2.0309e-05,0.00011935,7.672e-05,3.1544e-05,0.050419,-0.015344,-0.015062,0.00062063,0.00039894,0.00016403,0,0,0,0.025166,2.1959e-05,-0.00017178,0.012669,0.0083386,0.025241,8.2579e-07,0.9,0.25,0
0.047486,0.003841,0.007607,0.025114,-0.00012339,-2.3914e-05,7.5987e-05,9.722e-05,2.8499e-05,0.050316,-0.015301,-0.015042,0.00039513,0.00050555,0.00014819,0,0,0,0.025114,3.7481e-05,-0.00018511,0.01265,0.0083221,0.025189,8.206e-07,0.95,0.25,0
0.048743,0.0038507,0.0076184,0.025096,-0.00012177,-2.533e-05,5.409e-05,0.00010416,3.1584e-05,0.05028,-0.015286,-0.015035,0.00028127,0.00054165,0.00016424,0,0,0,0.025096,4.3088e-05,-0.00019037,0.012643,0.0083163,0.025171,8.1882e-07,1,0.25,0
0.001346,0.00028942,0.0012266,0.032663,0.011703,0.0088482,0.0021921,1.3529e-05,0.0069645,0.052996,-0.0015009,-0.0089234,0.011399,7.0351e-05,0.036216,0,0,0,0.035061,0.011606,0.0065479,0.014256,0.017738,0.026375,8.8387e-07,0,0.3,0
0.0026498,0.00057027,0.0022398,0.030229,0.009157,0.0052574,0.0021168,3.2595e-05,0.0050615,0.051809,-0.0029777,-0.013116,0.011007,0.00016949,0.02632,0,0,0,0.031747,0.009016,0.0038804,0.013933,0.014881,0.025706,7.8975e-07,0.05,0.3,0
0.0051809,0.0011085,0.0039283,0.02672,0.0054632,0.0011887,0.0018947,7.3697e-05,0.0022398,0.049449,-0.0058189,-0.016933,0.0098526,0.00038322,0.011647,0,0,0,0.027158,0.0052978,0.00091618,0.013121,0.011124,0.024366,6.6406e-07,0.1,0.3,0
0.0075947,0.0015885,0.0050693,0.025086,0.0034864,0.0004268,0.0015552,0.00011173,0.00094758,0.047823,-0.0083347,-0.01629,0.0080868,0.000581,0.0049274,0,0,0,0.025258,0.0033715,0.00036944,0.012444,0.0096663,0.023542,6.3315e-07,0.15,0.3,0
0.0099632,0.0019911,0.0058559,0.024358,0.002134,6.5921e-05,0.0011529,0.00013645,0.00038965,0.047397,-0.010387,-0.015764,0.0059949,0.00070957,0.0020262,0,0,0,0.024435,0.0020777,4.5878e-05,0.012194,0.0088527,0.023446,6.4559e-07,0.2,0.3,0
0.012334,0.0023067,0.0063947,0.024176,0.0012641,-3.6855e-05,0.00074429,0.00014605,0.00010776,0.047615,-0.011955,-0.015338,0.0038703,0.00075946,0.00056035,0,0,0,0.024206,0.0012545,-5.7405e-05,0.012132,0.0084676,0.023638,6.7196e-07,0.25,0.3,0
0.014725,0.0025355,0.0067545,0.024219,0.0006936,-6.5601e-05,0.00037392,0.00013934,-4.6077e-05,0.048061,-0.013105,-0.015079,0.0019444,0.00072456,-0.0002396,0,0,0,0.024228,0.00071383,-9.4949e-05,0.012162,0.0082824,0.023931,7.0176e-07,0.3,0.3,0
0.017141,0.0026858,0.0069819,0.024379,0.00032835,-6.3593e-05,6.9248e-05,0.00011531,-0.00013642,0.0486,-0.013933,-0.014952,0.00036009,0.00059963,-0.00070936,0,0,0,0.024382,0.00036258,-0.00010054,0.012241,0.0082147,0.024255,7.3246e-07,0.35,0.3,0
0.019585,0.0027708,0.0071118,0.024606,0.00010085,-5.228e-05,-0.00015478,7.4215e-05,-0.00018868,0.049183,-0.014531,-0.014929,-0.00080484,0.00038592,-0.00098113,0,0,0,0.024609,0.00013863,-9.3451e-05,0.012351,0.0082182,0.024588,7.6361e-07,0.4,0.3,0
0.022059,0.0028074,0.007174,0.024869,-3.5933e-05,-4.0882e-05,-0.00029087,1.9516e-05,-0.00021103,0.049783,-0.014968,-0.014981,-0.0015125,0.00010149,-0.0010974,0,0,0,0.024874,2.2126e-05,-0.00010465,0.012489,0.0082639,0.024916,7.9465e-07,0.45,0.3,0
0.024563,0.0028139,0.0071958,0.025135,-0.0001147,-3.3328e-05,-0.00033859,-4.0502e-05,-0.0002045,0.050359,-0.01529,-0.015079,-0.0017607,-0.00021061,-0.0010634,0,0,0,0.025142,2.4175e-06,-0.00015699,0.012649,0.008329,0.025219,8.2388e-07,0.5,0.3,0
0.027095,0.0028082,0.0072023,0.025369,-0.00015704,-2.9438e-05,-0.00030666,-9.3291e-05,-0.0001704,0.05085,-0.015518,-0.015186,-0.0015947,-0.00048511,-0.00088606,0,0,0,0.025374,2.914e-05,-0.00022082,0.012797,0.0083941,0.025471,8.4854e-07,0.55,0.3,0
0.029648,0.0028059,0.0072143,0.025536,-0.00017677,-2.6562e-05,-0.00021501,-0.00012559,-0.00011516,0.051193,-0.015659,-0.015268,-0.0011181,-0.00065305,-0.00059881,0,0,0,0.025538,5.2443e-05,-0.00025855,0.012899,0.0084441,0.025643,8.6566e-07,0.6,0.3,0
0.032214,0.0028173,0.0072453,0.025614,-0.00018312,-2.2241e-05,-9.2865e-05,-0.00012866,-5.1161e-05,0.051351,-0.015721,-0.015303,-0.0004829,-0.00066904,-0.00026604,0,0,0,0.025615,5.573e-05,-0.000262,0.012938,0.0084695,0.025719,8.7338e-07,0.65,0.3,0
0.034783,0.0028464,0.0073001,0.025602,-0.00018312,-1.6412e-05,2.7599e-05,-0.00010221,6.8158e-06,0.051324,-0.015718,-0.015284,0.00014352,-0.00053151,3.5442e-05,0,0,0,0.025603,3.8419e-05,-0.00023836,0.01292,0.0084676,0.025704,8.7189e-07,0.7,0.3,0
0.037346,0.0028912,0.0073745,0.02552,-0.00018242,-1.1448e-05,0.00011962,-5.4398e-05,4.7143e-05,0.051156,-0.01567,-0.015225,0.00062201,-0.00028287,0.00024515,0,0,0,0.025521,1.2583e-05,-0.00020735,0.012864,0.008442,0.025619,8.6343e-07,0.75,0.3,0
0.039899,0.0029447,0.0074584,0.025399,-0.00018482,-1.0106e-05,0.00016806,1.9835e-06,6.5204e-05,0.050916,-0.015603,-0.015149,0.0008739,1.0314e-05,0.00033906,0,0,0,0.025401,-8.6809e-07,-0.0001955,0.012798,0.0084015,0.025499,8.5144e-07,0.8,0.3,0
0.042438,0.0029981,0.0075393,0.025274,-0.0001913,-1.321e-05,0.00017077,5.4665e-05,6.3401e-05,0.05067,-0.015539,-0.015076,0.00088799,0.00028426,0.00032969,0,0,0,0.025275,7.3316e-06,-0.00021328,0.012744,0.0083564,0.025379,8.3935e-07,0.85,0.3,0
0.044966,0.0030429,0.0076056,0.025169,-0.00019995,-1.901e-05,0.00013533,9.5396e-05,4.7995e-05,0.05047,-0.01549,-0.01502,0.0007037,0.00049606,0.00024957,0,0,0,0.02517,2.515e-05,-0.00024506,0.012708,0.0083168,0.025281,8.296e-07,0.9,0.3,0
0.047485,0.0030725,0.0076487,0.025102,-0.00020729,-2.4366e-05,8.4266e-05,0.0001204,4.011e-05,0.050343,-0.015461,-0.014986,0.00043818,0.0006261,0.00020857,0,0,0,0.025103,3.8495e-05,-0.00027059,0.012687,0.0082901,0.02522,8.2348e-07,0.95,0.3,0
0.048743,0.0030828,0.0076636,0.025079,-0.00021015,-2.6511e-05,5.9065e-05,0.00012875,4.2435e-05,0.0503,-0.015452,-0.014974,0.00030714,0.00066952,0.00022066,0,0,0,0.025079,4.3031e-05,-0.00027994,0.01268,0.0082808,0.025199,8.2142e-07,1,0.3,0
0.0013472,0.00021751,0.0012372,0.032682,0.01176,0.0088634,0.0016522,1.4081e-05,0.0070314,0.052989,-0.0014065,-0.0089384,0.0085915,7.3222e-05,0.036563,0,0,0,0.03503,0.011703,0.0065722,0.014229,0.017768,0.0263,8.7343e-07,0,0.35,0
0.0026495,0.0004276,0.002261,0.030222,0.0092541,0.0052726,0.001601,3.1823e-05,0.0051185,0.051728,-0.0027885,-0.01314,0.0083251,0.00016548,0.026616,0,0,0,0.031682,0.0091702,0.0038962,0.013893,0.014916,0.025582,7.7243e-07,0.05,0.35,0
0.0051728,0.00082919,0.00397,0.026659,0.0056279,0.0012014,0.0014476,6.8723e-05,0.0022822,0.049221,-0.0054607,-0.01697,0.0075275,0.00035736,0.011868,0,0,0,0.027038,0.0055279,0.00092269,0.013058,0.011163,0.02416,6.3848e-07,0.1,0.35,0
0.0075716,0.0011863,0.0051281,0.024982,0.0036864,0.00043365,0.0012093,0.00010221,0.0009812,0.047492,-0.0078767,-0.016334,0.0062884,0.0005315,0.0051022,0,0,0,0.025113,0.0036151,0.00037377,0.01237,0.0097008,0.023298,6.071e-07,0.15,0.35,0
0.009922,0.0014861,0.0059255,0.024243,0.002331,6.7097e-05,0.00091947,0.00012529,0.00041474,0.047047,-0.0099238,-0.01581,0.0047813,0.00065149,0.0021567,0,0,0,0.024297,0.0022952,4.8141e-05,0.012125,0.0088803,0.023215,6.2268e-07,0.2,0.35,0
0.012276,0.0017209,0.0064677,0.024073,0.0014304,-3.9027e-05,0.00061208,0.00013605,0.0001236,0.047312,-0.01156,-0.01538,0.0031828,0.00070747,0.00064274,0,0,0,0.024095,0.0014251,-5.5301e-05,0.012075,0.0084883,0.023449,6.54e-07,0.25,0.35,0
0.014653,0.001889,0.0068228,0.024147,0.00082032,-6.7981e-05,0.00031896,0.00013171,-4.0943e-05,0.047842,-0.012807,-0.015116,0.0016586,0.00068488,-0.0002129,0,0,0,0.024154,0.00083581,-9.0307e-05,0.012122,0.0082997,0.023796,6.892e-07,0.3,0.35,0
0.01706,0.0019949,0.0070372,0.024346,0.00042246,-6.3784e-05,6.5151e-05,0.00010898,-0.00014353,0.048477,-0.013725,-0.014989,0.00033878,0.00056669,-0.00074636,0,0,0,0.024349,0.00044657,-9.0347e-05,0.012219,0.0082349,0.024176,7.2507e-07,0.35,0.35,0
0.019501,0.0020478,0.0071468,0.024618,0.00017674,-5.0159e-05,-0.00013037,6.5974e-05,-0.0002082,0.049159,-0.014387,-0.014977,-0.00067792,0.00034306,-0.0010827,0,0,0,0.024621,0.000197,-7.3738e-05,0.012347,0.0082481,0.024561,7.6107e-07,0.4,0.35,0
0.021976,0.0020611,0.0071838,0.024928,3.6075e-05,-3.8812e-05,-0.00025352,5.1649e-06,-0.00024003,0.049857,-0.014861,-0.015056,-0.0013183,2.6857e-05,-0.0012481,0,0,0,0.024933,6.7158e-05,-7.5329e-05,0.012504,0.0083083,0.024938,7.9676e-07,0.45,0.35,0
0.024487,0.0020506,0.0071792,0.02524,-3.7412e-05,-3.4742e-05,-0.00029684,-6.4091e-05,-0.00023613,0.050523,-0.015198,-0.015191,-0.0015436,-0.00033328,-0.0012279,0,0,0,0.025246,4.8113e-05,-0.00012637,0.012686,0.0083893,0.025286,8.304e-07,0.5,0.35,0
0.027029,0.0020331,0.0071631,0.02551,-7.2908e-05,-3.6294e-05,-0.0002638,-0.00012604,-0.00019532,0.051086,-0.01543,-0.015335,-0.0013717,-0.00065541,-0.0010157,0,0,0,0.025515,8.2876e-05,-0.00019674,0.012856,0.008467,0.025573,8.5871e-07,0.55,0.35,0
0.029595,0.0020234,0.0071612,0.025696,-9.1709e-05,-3.741e-05,-0.00017176,-0.00016343,-0.00012503,0.05147,-0.015579,-0.015437,-0.00089315,-0.00084985,-0.00065018,0,0,0,0.025698,0.00011009,-0.00024149,0.01297,0.0085224,0.025766,8.7803e-07,0.6,0.35,0
0.032176,0.0020313,0.0071902,0.025771,-0.0001083,-3.2777e-05,-4.9983e-05,-0.00016481,-4.2397e-05,0.051627,-0.01566,-0.015463,-0.00025991,-0.000857,-0.00022046,0,0,0,0.025772,0.00010684,-0.0002486,0.01301,0.0085433,0.025845,8.8604e-07,0.65,0.35,0
0.034758,0.00206,0.0072547,0.025735,-0.00013121,-2.2296e-05,6.8066e-05,-0.00012976,3.1476e-05,0.051561,-0.01569,-0.015407,0.00035394,-0.00067473,0.00016368,0,0,0,0.025735,7.2913e-05,-0.00022705,0.012981,0.0085271,0.025814,8.8305e-07,0.7,0.35,0
0.037332,0.0021063,0.007348,0.025614,-0.00016376,-1.1134e-05,0.0001546,-6.8966e-05,8.0191e-05,0.051333,-0.015689,-0.015292,0.00080393,-0.00035863,0.000417,0,0,0,0.025615,2.9214e-05,-0.00020557,0.01291,0.0084797,0.025704,8.7205e-07,0.75,0.35,0
0.039891,0.0021623,0.007455,0.025451,-0.00020471,-5.4374e-06,0.00019487,9.3149e-07,9.807e-05,0.051028,-0.015677,-0.015159,0.0010133,4.8435e-06,0.00050996,0,0,0,0.025453,6.8874e-06,-0.0002191,0.012836,0.0084136,0.02556,8.5746e-07,0.8,0.35,0
0.042435,0.002218,0.0075585,0.025289,-0.00024888,-7.5969e-06,0.0001885,6.4509e-05,8.9864e-05,0.050731,-0.015666,-0.015039,0.0009802,0.00033544,0.00046729,0,0,0,0.025291,1.3393e-05,-0.00027178,0.012781,0.0083441,0.025421,8.4341e-07,0.85,0.35,0
0.044964,0.0022644,0.007643,0.025159,-0.00028866,-1.5054e-05,0.00014514,0.00011225,6.5428e-05,0.050499,-0.015663,-0.014952,0.00075472,0.00058369,0.00034023,0,0,0,0.02516,2.8838e-05,-0.00033374,0.012747,0.0082849,0.025314,8.3258e-07,0.9,0.35,0
0.047485,0.0022949,0.0076978,0.025077,-0.00031629,-2.2629e-05,8.8584e-05,0.00014079,5.2362e-05,0.050357,-0.015665,-0.014901,0.00046064,0.00073211,0.00027228,0,0,0,0.025077,3.8428e-05,-0.00037788,0.012728,0.0082459,0.02525,8.2604e-07,0.95,0.35,0
0.048743,0.0023055,0.0077167,0.025049,-0.00032616,-2.5743e-05,6.1331e-05,0.00015017,5.4235e-05,0.050309,-0.015666,-0.014885,0.00031892,0.00078086,0.00028202,0,0,0,0.025049,4.1238e-05,-0.00039346,0.012721,0.0082324,0.025228,8.2389e-07,1,0.35,0
0.00135,0.00014877,0.001247,0.032739,0.011806,0.0088866,0.0011327,1.3856e-05,0.0070926,0.053062,-0.001364,-0.0089534,0.0058901,7.2053e-05,0.036881,0,0,0,0.035059,0.011777,0.0065956,0.014232,0.01781,0.026291,8.7085e-07,0,0.4,0
0.0026531,0.00029142,0.0022803,0.030256,0.0093139,0.0052904,0.0010996,2.9925e-05,0.0051703,0.051749,-0.0026999,-0.013161,0.0057181,0.00015561,0.026885,0,0,0,0.031678,0.0092717,0.0039101,0.013884,0.014953,0.025536,7.6488e-07,0.05,0.4,0
0.0051749,0.00056246,0.0040071,0.026645,0.0057144,0.001211,0.00099935,6.2349e-05,0.0023207,0.049135,-0.0052849,-0.016994,0.0051966,0.00032422,0.012067,0,0,0,0.02698,0.0056638,0.00092635,0.013027,0.01119,0.024053,6.2466e-07,0.1,0.4,0
0.0075666,0.00080079,0.0051795,0.024927,0.0037896,0.00043848,0.00084268,9.1279e-05,0.001013,0.047318,-0.0076403,-0.016353,0.0043819,0.00047465,0.0052676,0,0,0,0.025026,0.0037535,0.000376,0.012325,0.0097185,0.023156,5.9204e-07,0.15,0.4,0
0.0099067,0.00099869,0.0059863,0.024167,0.0024341,6.8891e-05,0.00064948,0.00011229,0.00044115,0.046832,-0.0096733,-0.015823,0.0033773,0.00058393,0.002294,0,0,0,0.024203,0.0024169,5.0246e-05,0.012076,0.0088899,0.023068,6.0851e-07,0.2,0.4,0
0.01225,0.0011507,0.0065314,0.023994,0.0015193,-3.78e-05,0.00043765,0.00012364,0.00014358,0.047099,-0.011335,-0.015383,0.0022758,0.00064292,0.00074662,0,0,0,0.024007,0.0015199,-5.1353e-05,0.012029,0.0084918,0.023316,6.4178e-07,0.25,0.4,0
0.014617,0.0012549,0.0068822,0.024077,0.00089146,-6.4945e-05,0.00022667,0.00012148,-3.0063e-05,0.047658,-0.012624,-0.015111,0.0011787,0.00063168,-0.00015633,0,0,0,0.024081,0.00090518,-8.2736e-05,0.012082,0.0083012,0.023688,6.7933e-07,0.3,0.4,0
0.017016,0.0013133,0.0070842,0.024298,0.00048298,-5.756e-05,3.5238e-05,0.00010072,-0.00014497,0.048341,-0.013578,-0.014984,0.00018324,0.00052376,-0.00075385,0,0,0,0.0243,0.00050147,-7.8034e-05,0.012189,0.0082412,0.024095,7.1766e-07,0.35,0.4,0
0.019451,0.0013321,0.0071738,0.024602,0.00024016,-4.2014e-05,-0.00011848,5.7486e-05,-0.00022375,0.049086,-0.014256,-0.01499,-0.00061609,0.00029893,-0.0011635,0,0,0,0.024606,0.00025251,-5.7685e-05,0.012332,0.0082668,0.02451,7.5634e-07,0.4,0.4,0
0.021924,0.0013213,0.0071848,0.024954,0.00011565,-3.3219e-05,-0.00021743,-6.9536e-06,-0.00026755,0.049859,-0.014721,-0.015108,-0.0011306,-3.6158e-05,-0.0013912,0,0,0,0.024959,0.00013274,-5.5613e-05,0.012507,0.0083455,0.024921,7.9519e-07,0.45,0.4,0
0.024437,0.0012941,0.0071524,0.025311,6.5355e-05,-3.7371e-05,-0.00024945,-8.2554e-05,-0.00026824,0.050605,-0.015033,-0.015301,-0.0012971,-0.00042928,-0.0013949,0,0,0,0.025317,0.00012435,-0.00010214,0.012709,0.0084463,0.025307,8.3238e-07,0.5,0.4,0
0.026985,0.0012652,0.0071125,0.02562,5.0478e-05,-4.9808e-05,-0.00021349,-0.00015095,-0.00022107,0.051239,-0.015241,-0.015502,-0.0011102,-0.00078492,-0.0011496,0,0,0,0.025624,0.00016825,-0.00017179,0.012898,0.0085402,0.025628,8.6405e-07,0.55,0.4,0
0.02956,0.001248,0.0070964,0.025828,4.0029e-05,-5.8568e-05,-0.00012382,-0.00019177,-0.00013445,0.051667,-0.015382,-0.015638,-0.00064388,-0.00099719,-0.00069914,0,0,0,0.02583,0.00019838,-0.00021881,0.013024,0.0086031,0.025843,8.8564e-07,0.6,0.4,0
0.032151,0.0012513,0.0071243,0.025902,1.2961e-05,-5.3756e-05,-7.9032e-06,-0.00019161,-3.1166e-05,0.051829,-0.015483,-0.015657,-4.1096e-05,-0.00099636,-0.00016206,0,0,0,0.025903,0.00018398,-0.00022539,0.013064,0.0086204,0.025926,8.9425e-07,0.65,0.4,0
0.034743,0.0012775,0.0072012,0.025843,-4.0451e-05,-3.5277e-05,0.00010182,-0.00015002,6.0048e-05,0.051732,-0.015566,-0.015552,0.00052946,-0.00078009,0.00031225,0,0,0,0.025844,0.00012402,-0.00020072,0.013022,0.0085892,0.025884,8.9022e-07,0.7,0.4,0
0.037325,0.0013223,0.0073166,0.025686,-0.00011915,-1.2866e-05,0.00017846,-7.9541e-05,0.00011712,0.05145,-0.015642,-0.015366,0.00092797,-0.00041361,0.00060903,0,0,0,0.025688,5.2783e-05,-0.00018687,0.012937,0.0085179,0.025756,8.7727e-07,0.75,0.4,0
0.039888,0.001377,0.0074503,0.025483,-0.00021375,1.4502e-06,0.0002086,1.5443e-07,0.00013333,0.051093,-0.015718,-0.015158,0.0010847,8.0276e-07,0.00069331,0,0,0,0.025485,1.7694e-05,-0.00023264,0.012859,0.0084234,0.025594,8.6081e-07,0.8,0.4,0
0.042434,0.0014314,0.0075792,0.025287,-0.00030983,2.2632e-06,0.0001938,7.104e-05,0.00011677,0.050758,-0.015793,-0.014982,0.0010078,0.00036941,0.00060718,0,0,0,0.025289,2.1777e-05,-0.00033159,0.01281,0.0083264,0.025446,8.4566e-07,0.85,0.4,0
0.044964,0.0014766,0.0076839,0.025134,-0.00039173,-6.7146e-06,0.00014537,0.0001228,8.2055e-05,0.050506,-0.01586,-0.014859,0.00075594,0.00063853,0.00042669,0,0,0,0.025135,3.3181e-05,-0.00043294,0.012784,0.0082451,0.025338,8.3458e-07,0.9,0.4,0
0.047485,0.001506,0.0077513,0.02504,-0.00044636,-1.7071e-05,8.7061e-05,0.00015289,6.4038e-05,0.050358,-0.015906,-0.01479,0.00045271,0.00079503,0.000333,0,0,0,0.025041,3.7228e-05,-0.00050125,0.012771,0.0081922,0.025277,8.2824e-07,0.95,0.4,0
0.048743,0.0015162,0.0077745,0.025009,-0.00046548,-2.1455e-05,5.9584e-05,0.0001626,6.6014e-05,0.05031,-0.015923,-0.014769,0.00030984,0.00084551,0.00034327,0,0,0,0.025009,3.7625e-05,-0.00052493,0.012767,0.008174,0.025258,8.2623e-07,1,0.4,0
0.0013534,8.1105e-05,0.0012553,0.032814,0.011839,0.0089126,0.00061928,1.2545e-05,0.0071448,0.053176,-0.0013575,-0.0089664,0.0032203,6.5232e-05,0.037153,0,0,0,0.035121,0.011828,0.0066155,0.014253,0.017855,0.026323,8.7349e-07,0,0.45,0
0.0026588,0.00015761,0.0022965,0.030311,0.0093448,0.0053083,0.00060139,2.6076e-05,0.0052144,0.051831,-0.0026823,-0.013177,0.0031272,0.0001356,0.027115,0,0,0,0.031714,0.0093291,0.0039214,0.013896,0.014988,0.025546,7.6429e-07,0.05,0.45,0
0.0051831,0.0003007,0.0040377,0.026662,0.0057432,0.0012185,0.00054631,5.26e-05,0.0023537,0.049147,-0.005242,-0.017006,0.0028408,0.00027352,0.012239,0,0,0,0.026971,0.0057247,0.00092835,0.013021,0.011208,0.024021,6.199e-07,0.1,0.45,0
0.0075735,0.00042226,0.0052216,0.024912,0.0038181,0.00044206,0.00046063,7.5863e-05,0.0010417,0.047268,-0.0075763,-0.016354,0.0023953,0.00039449,0.0054169,0,0,0,0.024989,0.0038055,0.00037728,0.012306,0.009724,0.023099,5.8612e-07,0.15,0.45,0
0.0099099,0.00051881,0.0060358,0.024129,0.0024583,7.1234e-05,0.0003546,9.367e-05,0.00046731,0.046741,-0.0096038,-0.01581,0.0018439,0.00048708,0.00243,0,0,0,0.024152,0.0024538,5.2886e-05,0.01205,0.0088863,0.023,6.0244e-07,0.2,0.45,0
0.012248,0.00058741,0.0065833,0.023944,0.0015364,-3.3864e-05,0.0002343,0.00010455,0.00016607,0.046986,-0.011273,-0.015356,0.0012183,0.00054366,0.00086355,0,0,0,0.02395,0.0015406,-4.4831e-05,0.011998,0.0084821,0.023248,6.3588e-07,0.25,0.45,0
0.014608,0.00062659,0.0069301,0.024023,0.00090451,-5.7153e-05,0.00010822,0.00010426,-1.4604e-05,0.047538,-0.012571,-0.015071,0.00056274,0.00054214,-7.5938e-05,0,0,0,0.024025,0.00091605,-7.0617e-05,0.012048,0.0082903,0.02362,6.7359e-07,0.3,0.45,0
0.017001,0.00063704,0.0071208,0.024252,0.00050241,-4.5167e-05,-1.2678e-05,8.6657e-05,-0.00014099,0.048229,-0.013519,-0.014943,-6.5924e-05,0.00045062,-0.00073316,0,0,0,0.024253,0.00051618,-6.0521e-05,0.012157,0.0082363,0.024032,7.1209e-07,0.35,0.45,0
0.019431,0.00062223,0.0071914,0.024575,0.00028066,-2.7848e-05,-0.00011412,4.6451e-05,-0.00023444,0.048999,-0.014167,-0.014969,-0.00059343,0.00024155,-0.0012191,0,0,0,0.024579,0.00028922,-3.9746e-05,0.012309,0.008276,0.024456,7.5133e-07,0.4,0.45,0
0.021901,0.00058894,0.0071773,0.024958,0.00019018,-2.4397e-05,-0.00017951,-1.6166e-05,-0.00029167,0.049817,-0.01458,-0.015138,-0.00093347,-8.4064e-05,-0.0015167,0,0,0,0.024963,0.00020167,-4.1103e-05,0.012502,0.0083746,0.024884,7.9157e-07,0.45,0.45,0
0.024413,0.00054724,0.0071178,0.025353,0.00017918,-4.1902e-05,-0.00019484,-9.1172e-05,-0.00029835,0.050624,-0.014828,-0.015403,-0.0010132,-0.00047409,-0.0015514,0,0,0,0.025358,0.00021971,-8.7967e-05,0.012723,0.0084967,0.025294,8.3101e-07,0.5,0.45,0
0.026964,0.00050902,0.0070544,0.025697,0.00019755,-7.0447e-05,-0.00015605,-0.00015928,-0.00024554,0.051317,-0.014981,-0.015677,-0.00081148,-0.00082827,-0.0012768,0,0,0,0.025701,0.00027957,-0.00015636,0.012928,0.0086079,0.025642,8.6518e-07,0.55,0.45,0
0.029545,0.00048524,0.0070246,0.025926,0.00020302,-8.9901e-05,-7.3818e-05,-0.0001994,-0.00014271,0.051784,-0.015096,-0.015857,-0.00038385,-0.0010369,-0.0007421,0,0,0,0.025927,0.0003142,-0.00020273,0.013065,0.0086797,0.025876,8.8866e-07,0.6,0.45,0
0.032142,0.00048296,0.0070526,0.026001,0.00016695,-8.5037e-05,2.8447e-05,-0.00019801,-1.873e-05,0.051952,-0.015215,-0.015871,0.00014793,-0.0010296,-9.7394e-05,0,0,0,0.026001,0.00028676,-0.00020548,0.013103,0.0086942,0.025964,8.9788e-07,0.65,0.45,0
0.03474,0.00050345,0.0071431,0.025922,7.8813e-05,-5.5792e-05,0.00012235,-0.00015467,8.9698e-05,0.05183,-0.015362,-0.015712,0.00063622,-0.00080431,0.00046643,0,0,0,0.025923,0.00019359,-0.0001719,0.013048,0.0086483,0.025915,8.932e-07,0.7,0.45,0
0.037325,0.00054215,0.0072824,0.025731,-5.4201e-05,-1.724e-05,0.00018437,-8.2083e-05,0.00015445,0.051505,-0.015537,-0.015441,0.00095872,-0.00042683,0.00080313,0,0,0,0.025734,8.5075e-05,-0.00015908,0.012946,0.0085533,0.025772,8.7892e-07,0.75,0.45,0
0.039891,0.00059046,0.007444,0.025493,-0.00021229,1.0504e-05,0.00020345,-6.7091e-07,0.00016769,0.051107,-0.015727,-0.015147,0.001058,-3.4887e-06,0.00087198,0,0,0,0.025496,3.2027e-05,-0.00023681,0.012866,0.0084304,0.0256,8.6134e-07,0.8,0.45,0
0.042436,0.00063865,0.0075992,0.025268,-0.00036952,1.6898e-05,0.00018262,7.059e-05,0.00014146,0.050748,-0.01591,-0.014906,0.0009496,0.00036707,0.00073559,0,0,0,0.025271,3.2391e-05,-0.00038739,0.012829,0.0083053,0.025451,8.4594e-07,0.85,0.45,0
0.044965,0.00067844,0.0077244,0.025097,-0.00050057,6.728e-06,0.00013373,0.00012136,9.6069e-05,0.050491,-0.016064,-0.014745,0.00069541,0.00063105,0.00049956,0,0,0,0.025099,3.8181e-05,-0.00053333,0.012816,0.0082012,0.025351,8.354e-07,0.9,0.45,0
0.047485,0.00070426,0.0078044,0.024995,-0.00058633,-6.9834e-06,7.8519e-05,0.00015008,7.3904e-05,0.050347,-0.016166,-0.014659,0.0004083,0.00078043,0.0003843,0,0,0,0.024996,3.5119e-05,-0.00062903,0.012812,0.008134,0.0253,8.2982e-07,0.95,0.45,0
0.048743,0.00071316,0.0078319,0.024962,-0.00061603,-1.2951e-05,5.2978e-05,0.00015918,7.6655e-05,0.050301,-0.016201,-0.014633,0.00027548,0.00082772,0.00039861,0,0,0,0.024962,3.253e-05,-0.00066192,0.012812,0.008111,0.025284,8.2816e-07,1,0.45,0
0.0013568,1.3018e-05,0.0012616,0.03289,0.01186,0.008937,0.00010141,9.9527e-06,0.0071843,0.053303,-0.0013766,-0.0089763,0.00052734,5.1754e-05,0.037358,0,0,0,0.035201,0.011857,0.0066299,0.014285,0.017896,0.026382,8.7961e-07,0,0.5,0
0.0026651,2.3196e-05,0.0023085,0.030375,0.0093517,0.0053241,9.7341e-05,1.9769e-05,0.0052478,0.051944,-0.0027157,-0.013187,0.00050617,0.0001028,0.027289,0,0,0,0.031774,0.0093474,0.0039293,0.013922,0.015017,0.025593,7.6886e-07,0.05,0.5,0
0.0051944,3.8255e-05,0.00406,0.0267,0.0057282,0.0012237,8.3967e-05,3.8207e-05,0.002379,0.049229,-0.0052979,-0.017009,0.00043663,0.00019868,0.012371,0,0,0,0.026999,0.0057231,0.00092922,0.013035,0.011217,0.024049,6.2243e-07,0.1,0.5,0
0.007588,4.3161e-05,0.0052517,0.024928,0.0037891,0.00044456,6.4504e-05,5.383e-05,0.0010649,0.047316,-0.0076455,-0.016341,0.00033542,0.00027992,0.0055376,0,0,0,0.024998,0.003786,0.00037811,0.01231,0.0097206,0.023115,5.879e-07,0.15,0.5,0
0.009926,3.8308e-05,0.0060708,0.024127,0.0024195,7.3837e-05,4.1387e-05,6.6472e-05,0.00049041,0.046758,-0.0096817,-0.01578,0.00021521,0.00034566,0.0025501,0,0,0,0.024145,0.0024193,5.6093e-05,0.012044,0.0088735,0.023006,6.0361e-07,0.2,0.5,0
0.012264,2.3368e-05,0.0066196,0.023926,0.0014932,-2.8218e-05,1.1341e-05,7.515e-05,0.00018803,0.046973,-0.011352,-0.015308,5.8975e-05,0.00039078,0.00097776,0,0,0,0.02393,0.0014967,-3.6239e-05,0.011983,0.0084636,0.023243,6.3612e-07,0.25,0.5,0
0.014623,-2.214e-06,0.006963,0.023994,0.00086576,-4.6226e-05,-2.6871e-05,7.5945e-05,2.7419e-06,0.047495,-0.012637,-0.015008,-0.00013973,0.00039492,1.4258e-05,0,0,0,0.023995,0.0008729,-5.4623e-05,0.012025,0.008271,0.023602,6.7245e-07,0.3,0.5,0
0.017013,-3.859e-05,0.0071442,0.024217,0.00048157,-2.8724e-05,-7.0474e-05,6.282e-05,-0.00013321,0.048162,-0.01355,-0.014877,-0.00036646,0.00032666,-0.00069269,0,0,0,0.024219,0.00048963,-3.8308e-05,0.012128,0.0082233,0.023998,7.0937e-07,0.35,0.5,0
0.019439,-8.4582e-05,0.0071986,0.024547,0.00029301,-1.015e-05,-0.00011101,3.0191e-05,-0.00024015,0.048924,-0.014136,-0.014924,-0.00057726,0.00015699,-0.0012488,0,0,0,0.02455,0.000298,-1.8452e-05,0.012284,0.0082767,0.024412,7.474e-07,0.4,0.5,0
0.021906,-0.0001367,0.0071626,0.024948,0.00024774,-1.4418e-05,-0.00013528,-2.2472e-05,-0.0003103,0.049757,-0.014465,-0.015147,-0.00070343,-0.00011686,-0.0016136,0,0,0,0.024954,0.00025549,-2.7255e-05,0.01249,0.0083939,0.024841,7.8737e-07,0.45,0.5,0
0.024415,-0.00018876,0.0070791,0.02537,0.00028546,-4.8309e-05,-0.00013032,-8.634e-05,-0.0003231,0.050597,-0.014622,-0.01549,-0.00067766,-0.00044897,-0.0016801,0,0,0,0.025375,0.00031126,-7.9458e-05,0.012727,0.0085357,0.025262,8.2758e-07,0.5,0.5,0
0.026966,-0.00023287,0.0069952,0.02574,0.00034459,-9.4771e-05,-9.0664e-05,-0.00014415,-0.0002657,0.05133,-0.014698,-0.01584,-0.00047145,-0.00074958,-0.0013816,0,0,0,0.025744,0.0003947,-0.0001486,0.012946,0.0086632,0.025625,8.6305e-07,0.55,0.5,0
0.029548,-0.00026154,0.0069539,0.025986,0.00037132,-0.00012526,-2.2761e-05,-0.00017758,-0.00014883,0.051824,-0.014774,-0.016065,-0.00011836,-0.00092341,-0.00077392,0,0,0,0.025987,0.00043801,-0.00019351,0.01309,0.008744,0.025871,8.8763e-07,0.6,0.5,0
0.032148,-0.00027022,0.0069827,0.026061,0.0003292,-0.00012048,5.6537e-05,-0.00017531,-6.91e-06,0.051996,-0.014906,-0.016075,0.00029399,-0.00091161,-3.5932e-05,0,0,0,0.026061,0.00040012,-0.00019212,0.013127,0.0087565,0.025963,8.9727e-07,0.65,0.5,0
0.034748,-0.00025874,0.0070866,0.025966,0.00020729,-8.0369e-05,0.0001262,-0.00013699,0.00011642,0.051855,-0.015117,-0.015864,0.00065625,-0.00071234,0.0006054,0,0,0,0.025967,0.00027408,-0.00014873,0.013058,0.0086975,0.025907,8.9224e-07,0.7,0.5,0
0.037333,-0.00023143,0.0072484,0.025748,1.9911e-05,-2.4099e-05,0.00016877,-7.326e-05,0.00018753,0.051499,-0.015395,-0.015509,0.00087762,-0.00038095,0.00097517,0,0,0,0.025751,0.00012465,-0.00013163,0.012941,0.0085814,0.025756,8.7724e-07,0.75,0.5,0
0.039898,-0.00019569,0.0074362,0.025482,-0.00020195,1.9924e-05,0.00017659,-1.9457e-06,0.00019732,0.051074,-0.015705,-0.015128,0.00091827,-1.0117e-05,0.001026,0,0,0,0.025485,4.8911e-05,-0.00023399,0.01286,0.0084334,0.025579,8.5924e-07,0.8,0.5,0
0.042441,-0.0001596,0.0076157,0.025236,-0.00042056,3.424e-05,0.00015333,5.9893e-05,0.00016154,0.050704,-0.016003,-0.014821,0.0007973,0.00031145,0.00084003,0,0,0,0.025238,4.3709e-05,-0.00043229,0.012835,0.0082833,0.025437,8.4422e-07,0.85,0.5,0
0.044968,-0.0001298,0.0077595,0.025053,-0.00060079,2.366e-05,0.00010965,0.00010309,0.0001063,0.050452,-0.016248,-0.014624,0.00057017,0.00053608,0.00055274,0,0,0,0.025054,4.3472e-05,-0.00062176,0.012838,0.0081586,0.02535,8.3477e-07,0.9,0.5,0
0.047486,-0.00011055,0.0078509,0.024946,-0.00071753,6.3951e-06,6.2809e-05,0.00012694,8.1128e-05,0.050319,-0.016406,-0.014524,0.00032661,0.00066008,0.00042187,0,0,0,0.024947,3.2744e-05,-0.00074442,0.012845,0.0080783,0.025311,8.3031e-07,0.95,0.5,0
0.048743,-0.00010393,0.007882,0.024912,-0.00075768,-1.3446e-06,4.1364e-05,0.00013435,8.5178e-05,0.050279,-0.016462,-0.014495,0.00021509,0.00069862,0.00044292,0,0,0,0.024912,2.6959e-05,-0.00078642,0.012849,0.0080509,0.025302,8.2912e-07,1,0.5,0
0.0013597,-5.6553e-05,0.0012652,0.032959,0.011868,0.0089568,-0.00042833,6.1121e-06,0.0072072,0.053423,-0.0014142,-0.0089824,-0.0022273,3.1783e-05,0.037478,0,0,0,0.035285,0.011861,0.0066369,0.014324,0.017928,0.026458,8.8815e-07,0,0.55,0
0.0026712,-0.00011396,0.0023152,0.030436,0.009338,0.0053361,-0.00041876,1.0976e-05,0.0052671,0.052068,-0.0027873,-0.013192,-0.0021776,5.7074e-05,0.027389,0,0,0,0.031849,0.0093287,0.0039328,0.013958,0.015037,0.02567,7.7755e-07,0.05,0.55,0
0.0052068,-0.00022909,0.0040719,0.026751,0.0056785,0.0012263,-0.00039068,1.8908e-05,0.0023938,0.049359,-0.0054292,-0.017005,-0.0020315,9.8324e-05,0.012448,0,0,0,0.02706,0.005667,0.00092906,0.013065,0.011219,0.024129,6.3122e-07,0.1,0.55,0
0.007607,-0.0003423,0.0052669,0.02497,0.0037152,0.00044561,-0.00034403,2.4539e-05,0.0010796,0.047444,-0.0078191,-0.01632,-0.0017889,0.0001276,0.0056138,0,0,0,0.025047,0.0037062,0.00037834,0.012334,0.0097104,0.023194,5.964e-07,0.15,0.55,0
0.0099512,-0.00044935,0.0060878,0.024157,0.0023318,7.5894e-05,-0.00028386,2.9667e-05,0.00050672,0.04687,-0.0098765,-0.015742,-0.0014761,0.00015427,0.0026349,0,0,0,0.02418,0.0023264,5.8895e-05,0.01206,0.008855,0.023079,6.1121e-07,0.2,0.55,0
0.012294,-0.00054781,0.0066365,0.02394,0.0014031,-2.2582e-05,-0.00022193,3.4015e-05,0.00020528,0.047053,-0.011544,-0.015251,-0.001154,0.00017688,0.0010675,0,0,0,0.023948,0.0014014,-2.7995e-05,0.011988,0.0084403,0.023298,6.4198e-07,0.25,0.55,0
0.014656,-0.0006371,0.0069769,0.023991,0.00078644,-3.5112e-05,-0.00016862,3.4806e-05,1.7969e-05,0.047531,-0.012801,-0.014937,-0.0008768,0.00018099,9.3438e-05,0,0,0,0.023994,0.00078774,-3.894e-05,0.012016,0.0082475,0.023632,6.7581e-07,0.3,0.55,0
0.017047,-0.00071794,0.0071512,0.024201,0.00042715,-1.247e-05,-0.00012935,2.7441e-05,-0.00012445,0.048153,-0.013659,-0.014802,-0.00067264,0.00014269,-0.00064712,0,0,0,0.024203,0.00042978,-1.7035e-05,0.01211,0.0082052,0.024,7.099e-07,0.35,0.55,0
0.019472,-0.00079139,0.0071939,0.024525,0.00027677,6.4423e-06,-0.00010263,7.4227e-06,-0.00024149,0.04888,-0.014165,-0.014868,-0.00053366,3.8598e-05,-0.0012558,0,0,0,0.024528,0.00027904,9.1413e-07,0.012264,0.0082694,0.02439,7.454e-07,0.4,0.55,0
0.021935,-0.00085756,0.0071422,0.02493,0.00027868,-5.9598e-06,-8.0777e-05,-2.6122e-05,-0.00032159,0.049697,-0.014397,-0.015137,-0.00042004,-0.00013584,-0.0016723,0,0,0,0.024935,0.0002834,-1.5603e-05,0.012475,0.008401,0.024803,7.837e-07,0.45,0.55,0
0.024441,-0.00091496,0.0070414,0.025364,0.00036495,-5.476e-05,-5.4222e-05,-6.7243e-05,-0.00033918,0.050542,-0.014456,-0.015547,-0.00028196,-0.00034967,-0.0017637,0,0,0,0.025369,0.00037821,-7.3269e-05,0.012721,0.008558,0.02522,8.2323e-07,0.5,0.55,0
0.026989,-0.00096077,0.0069427,0.025749,0.00046443,-0.00011586,-1.7152e-05,-0.0001042,-0.00027859,0.051288,-0.014451,-0.01596,-8.919e-05,-0.00054181,-0.0014487,0,0,0,0.025752,0.000488,-0.00014313,0.012948,0.0086991,0.025586,8.5867e-07,0.55,0.55,0
0.02957,-0.00099213,0.0068935,0.026004,0.00051361,-0.00015462,2.9013e-05,-0.00012487,-0.00015189,0.051793,-0.014483,-0.01622,0.00015087,-0.00064933,-0.00078981,0,0,0,0.026006,0.00054378,-0.0001864,0.013096,0.0087878,0.025835,8.8338e-07,0.6,0.55,0
0.032169,-0.0010076,0.0069239,0.026078,0.00046937,-0.00015006,7.6275e-05,-0.00012205,2.4998e-06,0.051965,-0.014618,-0.016229,0.00039663,-0.00063465,1.2999e-05,0,0,0,0.026079,0.00050085,-0.00018235,0.013131,0.0087993,0.025927,8.9307e-07,0.65,0.55,0
0.034767,-0.0010082,0.007039,0.025971,0.00032083,-0.00010213,0.0001138,-9.5502e-05,0.00013626,0.051811,-0.01488,-0.015979,0.00059177,-0.00049661,0.00070855,0,0,0,0.025973,0.00034996,-0.0001329,0.013053,0.00873,0.025868,8.8794e-07,0.7,0.55,0
0.03735,-0.00099732,0.0072187,0.025736,8.9063e-05,-3.1613e-05,0.00013256,-5.2067e-05,0.00021176,0.051437,-0.015244,-0.015558,0.00068929,-0.00027075,0.0011012,0,0,0,0.025739,0.00016504,-0.00011035,0.012924,0.0085977,0.025713,8.7277e-07,0.75,0.55,0
0.039911,-0.00098006,0.007427,0.025452,-0.00018507,2.7093e-05,0.00012923,-3.6169e-06,0.00021859,0.050998,-0.015657,-0.015106,0.000672,-1.8808e-05,0.0011367,0,0,0,0.025455,6.5297e-05,-0.00022613,0.01284,0.0084313,0.025537,8.549e-07,0.8,0.55,0
0.04245,-0.00096169,0.0076253,0.025193,-0.00045401,4.9709e-05,0.00010734,3.8095e-05,0.00017522,0.050628,-0.016053,-0.014744,0.00055815,0.0001981,0.00091116,0,0,0,0.025195,5.3125e-05,-0.00045941,0.012827,0.0082628,0.025402,8.4062e-07,0.85,0.55,0
0.044973,-0.00094631,0.0077834,0.025003,-0.00067459,3.9729e-05,7.4439e-05,6.6739e-05,0.00011241,0.050387,-0.016375,-0.014518,0.00038708,0.00034704,0.00058455,0,0,0,0.025004,4.8228e-05,-0.00068404,0.012844,0.0081227,0.02533,8.3239e-07,0.9,0.55,0
0.047488,-0.00093639,0.0078834,0.024894,-0.00081677,1.9527e-05,4.0819e-05,8.2177e-05,8.5466e-05,0.050267,-0.016582,-0.014408,0.00021226,0.00042732,0.00044442,0,0,0,0.024895,3.1039e-05,-0.00082875,0.012862,0.0080324,0.025305,8.2908e-07,0.95,0.55,0
0.048745,-0.00093299,0.0079174,0.02486,-0.00086552,1.0164e-05,2.5341e-05,8.6891e-05,9.0924e-05,0.050233,-0.016653,-0.014376,0.00013177,0.00045183,0.00047281,0,0,0,0.02486,2.2474e-05,-0.00087827,0.012869,0.0080015,0.0253,8.2836e-07,1,0.55,0
0.001362,-0.0001284,0.0012658,0.033014,0.011862,0.0089704,-0.00097515,1.3304e-06,0.0072107,0.053529,-0.0014674,-0.0089848,-0.0050708,6.918e-06,0.037496,0,0,0,0.03537,0.011841,0.0066356,0.014367,0.017949,0.026549,8.9875e-07,0,0.6,0
0.0026765,-0.00025553,0.0023158,0.030492,0.0093047,0.0053429,-0.00095085,2.2604e-07,0.0052697,0.052195,-0.0028915,-0.013192,-0.0049444,1.1754e-06,0.027402,0,0,0,0.031935,0.0092731,0.0039314,0.014002,0.015047,0.025774,7.9006e-07,0.05,0.6,0
0.0052195,-0.00050467,0.0040716,0.026812,0.005598,0.0012256,-0.00087804,-4.4299e-06,0.0023955,0.049529,-0.0056264,-0.016995,-0.0045658,-2.3036e-05,0.012457,0,0,0,0.027149,0.0055587,0.00092765,0.013111,0.011212,0.024257,6.4601e-07,0.1,0.6,0
0.0076294,-0.00073875,0.0052649,0.025036,0.0036028,0.0004445,-0.00076037,-1.09e-05,0.0010826,0.047643,-0.0080826,-0.016294,-0.0039539,-5.6677e-05,0.0056295,0,0,0,0.025134,0.0035719,0.00037731,0.012378,0.0096944,0.023335,6.1124e-07,0.15,0.6,0
0.0099839,-0.00094934,0.0060838,0.024218,0.0022042,7.6339e-05,-0.00061164,-1.5317e-05,0.00051257,0.047068,-0.010168,-0.015701,-0.0031805,-7.9648e-05,0.0026653,0,0,0,0.024255,0.0021847,5.948e-05,0.012098,0.0088329,0.023214,6.2471e-07,0.2,0.6,0
0.012336,-0.0011311,0.0066305,0.023987,0.0012779,-1.892e-05,-0.00045308,-1.7048e-05,0.00021367,0.047218,-0.011825,-0.015197,-0.002356,-8.865e-05,0.0011111,0,0,0,0.024001,0.0012687,-2.434e-05,0.012013,0.0084152,0.02341,6.5286e-07,0.25,0.6,0
0.014706,-0.0012823,0.0069685,0.024017,0.00067868,-2.7263e-05,-0.00030446,-1.7101e-05,2.7057e-05,0.047642,-0.013036,-0.014872,-0.0015832,-8.8924e-05,0.0001407,0,0,0,0.024022,0.0006777,-3.1907e-05,0.012027,0.0082226,0.023709,6.832e-07,0.3,0.6,0
0.0171,-0.0014045,0.0071392,0.024204,0.00034865,-1.1938e-06,-0.00017919,-1.7567e-05,-0.00011754,0.0482,-0.013825,-0.014734,-0.00093177,-9.1347e-05,-0.00061122,0,0,0,0.024207,0.00035312,-8.389e-06,0.012108,0.008184,0.024037,7.1349e-07,0.35,0.6,0
0.019526,-0.0015011,0.0071764,0.024511,0.00023538,1.7551e-05,-8.2733e-05,-2.074e-05,-0.00023923,0.04887,-0.014246,-0.014813,-0.00043021,-0.00010785,-0.001244,0,0,0,0.024514,0.00024095,8.7714e-06,0.012253,0.0082546,0.02439,7.4551e-07,0.4,0.6,0
0.021987,-0.0015764,0.0071175,0.024906,0.00027773,-3.0471e-07,-1.3787e-05,-2.7692e-05,-0.00032429,0.049645,-0.014388,-0.015111,-7.1693e-05,-0.000144,-0.0016863,0,0,0,0.02491,0.00028196,-9.3531e-06,0.01246,0.0083943,0.024776,7.8109e-07,0.45,0.6,0
0.02449,-0.0016343,0.0070089,0.025336,0.00040267,-5.7995e-05,3.2854e-05,-3.703e-05,-0.00034437,0.050464,-0.014361,-0.015559,0.00017084,-0.00019256,-0.0017907,0,0,0,0.025341,0.00040741,-6.8098e-05,0.012705,0.0085601,0.025175,8.187e-07,0.5,0.6,0
0.027034,-0.0016779,0.006904,0.025721,0.00053347,-0.00012703,6.3024e-05,-4.531e-05,-0.00028246,0.051199,-0.01429,-0.016007,0.00032772,-0.00023561,-0.0014688,0,0,0,0.025725,0.00054043,-0.00013794,0.012932,0.0087093,0.025531,8.5288e-07,0.55,0.6,0
0.02961,-0.0017098,0.006852,0.025979,0.00060115,-0.00017,8.107e-05,-4.8921e-05,-0.00015144,0.051699,-0.014283,-0.016288,0.00042156,-0.00025439,-0.00078747,0,0,0,0.025981,0.00060973,-0.00018039,0.01308,0.0088033,0.025775,8.7683e-07,0.6,0.6,0
0.032204,-0.001732,0.0068846,0.026051,0.00055907,-0.00016582,8.9372e-05,-4.5755e-05,8.3958e-06,0.051866,-0.014413,-0.016298,0.00046474,-0.00023793,4.3658e-05,0,0,0,0.026052,0.00056792,-0.00017557,0.013114,0.0088147,0.025864,8.8619e-07,0.65,0.6,0
0.034797,-0.0017467,0.0070067,0.025937,0.00039686,-0.00011441,8.903e-05,-3.5763e-05,0.00014668,0.051706,-0.0147,-0.016029,0.00046296,-0.00018597,0.00076275,0,0,0,0.025939,0.00040499,-0.0001241,0.013032,0.00874,0.025803,8.8105e-07,0.7,0.6,0
0.037374,-0.0017559,0.0071969,0.025694,0.0001402,-3.6578e-05,8.0907e-05,-2.1019e-05,0.00022392,0.051326,-0.015114,-0.015574,0.00042072,-0.0001093,0.0011644,0,0,0,0.025697,0.00019739,-9.6322e-05,0.012896,0.0085992,0.025648,8.6612e-07,0.75,0.6,0
0.039929,-0.0017614,0.0074167,0.025403,-0.00016381,3.0599e-05,6.6676e-05,-5.2404e-06,0.00022887,0.050887,-0.015588,-0.015083,0.00034671,-2.725e-05,0.0011901,0,0,0,0.025406,7.7625e-05,-0.00021341,0.01281,0.0084234,0.025475,8.4876e-07,0.8,0.6,0
0.042463,-0.0017649,0.0076254,0.02514,-0.0004617,5.8637e-05,4.9104e-05,7.8482e-06,0.0001813,0.050523,-0.016043,-0.01469,0.00025534,4.0811e-05,0.00094274,0,0,0,0.025142,5.8666e-05,-0.00046345,0.012803,0.0082458,0.025349,8.3529e-07,0.85,0.6,0
0.044982,-0.0017673,0.0077913,0.02495,-0.00070563,4.9527e-05,3.1217e-05,1.6385e-05,0.00011453,0.050293,-0.016411,-0.014447,0.00016233,8.52e-05,0.00059557,0,0,0,0.024951,5.1674e-05,-0.00070854,0.01283,0.0080979,0.025288,8.2804e-07,0.9,0.6,0
0.047492,-0.0017687,0.0078959,0.024842,-0.0008626,2.7742e-05,1.4367e-05,2.0692e-05,8.7054e-05,0.050185,-0.016647,-0.014332,7.471e-05,0.0001076,0.00045268,0,0,0,0.024842,3.0981e-05,-0.00086625,0.012854,0.0080023,0.025272,8.2559e-07,0.95,0.6,0
0.048746,-0.0017692,0.0079314,0.024808,-0.00091636,1.7405e-05,6.1865e-06,2.1941e-05,9.3575e-05,0.050155,-0.016728,-0.0143,3.217e-05,0.00011409,0.00048659,0,0,0,0.024808,2.0831e-05,-0.00092024,0.012864,0.0079696,0.025271,8.252e-07,1,0.6,0
0.0013637,-0.00020329,0.0012631,0.03306,0.011842,0.0089784,-0.0015436,-3.8394e-06,0.0071933,0.053628,-0.0015389,-0.0089844,-0.0080265,-1.9965e-05,0.037405,0,0,0,0.035462,0.011793,0.0066258,0.014418,0.01796,0.026658,9.121e-07,0,0.65,0
0.0026814,-0.00040311,0.0023098,0.030545,0.0092499,0.0053446,-0.0015015,-1.149e-05,0.005254,0.052334,-0.0030342,-0.013188,-0.007808,-5.9747e-05,0.027321,0,0,0,0.032038,0.0091773,0.0039249,0.014056,0.015047,0.02591,8.0718e-07,0.05,0.65,0
0.0052334,-0.00079173,0.0040585,0.026886,0.0054824,0.0012209,-0.0013757,-3.0052e-05,0.0023824,0.049749,-0.0058991,-0.016979,-0.0071535,-0.00015627,0.012389,0,0,0,0.027271,0.0053935,0.00092443,0.013173,0.011196,0.024439,6.6756e-07,0.1,0.65,0
0.0076563,-0.0011506,0.0052443,0.025127,0.0034486,0.00044044,-0.0011754,-4.9965e-05,0.001072,0.04792,-0.0084433,-0.016264,-0.0061123,-0.00025982,0.0055745,0,0,0,0.025261,0.0033808,0.00037404,0.012444,0.009672,0.023539,6.3281e-07,0.15,0.65,0
0.010025,-0.0014662,0.0060571,0.024309,0.0020378,7.4446e-05,-0.00092702,-6.4921e-05,0.00050569,0.047351,-0.010555,-0.015659,-0.0048205,-0.00033759,0.0026296,0,0,0,0.024368,0.001998,5.5857e-05,0.012156,0.0088071,0.023409,6.4394e-07,0.2,0.65,0
0.012391,-0.0017303,0.0065997,0.024062,0.0011237,-1.8285e-05,-0.00066464,-7.3276e-05,0.00021073,0.04746,-0.012179,-0.015148,-0.0034561,-0.00038103,0.0010958,0,0,0,0.024087,0.00111,-3.0017e-05,0.012059,0.0083891,0.023572,6.6814e-07,0.25,0.65,0
0.014772,-0.0019407,0.006936,0.024066,0.00055234,-2.4695e-05,-0.00041844,-7.415e-05,2.771e-05,0.047814,-0.01332,-0.01482,-0.0021759,-0.00038558,0.00014409,0,0,0,0.024075,0.00056161,-4.3647e-05,0.012059,0.0081977,0.023824,6.9376e-07,0.3,0.65,0
0.017173,-0.0021004,0.0071068,0.024223,0.000256,2.2829e-06,-0.00020869,-6.686e-05,-0.00011399,0.048292,-0.014023,-0.014683,-0.0010852,-0.00034767,-0.00059277,0,0,0,0.024227,0.00028112,-2.6439e-05,0.012127,0.0081605,0.024101,7.1934e-07,0.35,0.65,0
0.019601,-0.002216,0.0071458,0.024501,0.00017534,2.1056e-05,-4.6129e-05,-5.1163e-05,-0.00023367,0.048884,-0.014362,-0.014764,-0.00023987,-0.00026605,-0.0012151,0,0,0,0.024504,0.00019845,-5.2326e-06,0.012255,0.0082324,0.024408,7.4717e-07,0.4,0.65,0
0.022061,-0.0022963,0.0070898,0.024871,0.00024553,2.7733e-06,6.5476e-05,-2.8364e-05,-0.00031768,0.049594,-0.014433,-0.015065,0.00034048,-0.00014749,-0.001652,0,0,0,0.024876,0.00025467,-1.1313e-05,0.012444,0.0083732,0.024756,7.7924e-07,0.45,0.65,0
0.02456,-0.0023511,0.0069847,0.025283,0.00039222,-5.5421e-05,0.00012757,-2.3698e-06,-0.00033774,0.050364,-0.014352,-0.015516,0.00066336,-1.2323e-05,-0.0017562,0,0,0,0.025289,0.00039452,-6.3537e-05,0.012676,0.0085399,0.025127,8.1403e-07,0.5,0.65,0
0.027098,-0.0023897,0.0068833,0.025656,0.00053875,-0.00012489,0.00014633,2.0935e-05,-0.00027676,0.051065,-0.014241,-0.015967,0.00076092,0.00010886,-0.0014391,0,0,0,0.025661,0.00054282,-0.00013347,0.012897,0.0086901,0.025463,8.4607e-07,0.55,0.65,0
0.029667,-0.0024204,0.0068345,0.025907,0.00061682,-0.00016827,0.00013217,3.5937e-05,-0.00014739,0.051545,-0.01421,-0.016251,0.00068729,0.00018687,-0.00076645,0,0,0,0.025909,0.00062344,-0.0001771,0.013043,0.0087851,0.025695,8.6863e-07,0.6,0.65,0
0.032252,-0.0024489,0.0068698,0.025977,0.00058074,-0.00016459,9.8202e-05,3.9376e-05,1.0435e-05,0.051704,-0.014326,-0.016264,0.00051065,0.00020476,5.4263e-05,0,0,0,0.025978,0.00058833,-0.00017316,0.013075,0.0087977,0.025779,8.7736e-07,0.65,0.65,0
0.034837,-0.0024782,0.0069938,0.025865,0.00042123,-0.00011372,5.7777e-05,3.1116e-05,0.00014683,0.051545,-0.014608,-0.015999,0.00030044,0.0001618,0.0007635,0,0,0,0.025866,0.00042797,-0.00012188,0.012994,0.0087241,0.025718,8.7226e-07,0.7,0.65,0
0.037407,-0.0025087,0.0071852,0.025625,0.00016501,-3.6365e-05,2.1925e-05,1.4098e-05,0.00022264,0.051173,-0.015023,-0.015547,0.00011401,7.331e-05,0.0011577,0,0,0,0.025628,0.00021471,-8.8378e-05,0.012858,0.0085846,0.025566,8.5785e-07,0.75,0.65,0
0.039954,-0.0025389,0.0074057,0.025339,-0.00013985,3.0517e-05,-2.6985e-06,-6.5008e-06,0.00022681,0.050744,-0.015502,-0.015059,-1.4033e-05,-3.3804e-05,0.0011794,0,0,0,0.025342,8.3637e-05,-0.00019534,0.012769,0.00841,0.025399,8.4119e-07,0.8,0.65,0
0.042481,-0.002566,0.0076147,0.025081,-0.0004391,5.8459e-05,-1.4416e-05,-2.5336e-05,0.00017913,0.050391,-0.015962,-0.014668,-7.4965e-05,-0.00013175,0.00093146,0,0,0,0.025083,5.9824e-05,-0.00044206,0.012762,0.0082335,0.025278,8.2838e-07,0.85,0.65,0
0.044993,-0.0025874,0.0077807,0.024895,-0.00068434,4.9386e-05,-1.5361e-05,-3.9089e-05,0.00011278,0.05017,-0.016335,-0.014427,-7.9879e-05,-0.00020326,0.00058646,0,0,0,0.024895,5.3615e-05,-0.00068929,0.012792,0.0080865,0.025222,8.2165e-07,0.9,0.65,0
0.047498,-0.0026011,0.0078853,0.024789,-0.00084223,2.7675e-05,-1.3922e-05,-4.6979e-05,8.6073e-05,0.050067,-0.016574,-0.014313,-7.2395e-05,-0.00024429,0.00044758,0,0,0,0.024789,3.3375e-05,-0.00084833,0.012819,0.0079915,0.025209,8.1951e-07,0.95,0.65,0
0.048749,-0.0026058,0.0079208,0.024756,-0.00089631,1.7372e-05,-1.4258e-05,-4.9497e-05,9.304e-05,0.050039,-0.016657,-0.014281,-7.4144e-05,-0.00025738,0.00048381,0,0,0,0.024756,2.3381e-05,-0.00090277,0.01283,0.007959,0.025209,8.1922e-07,1,0.65,0
0.0013656,-0.0002823,0.0012574,0.033112,0.011808,0.0089845,-0.0021395,-8.6982e-06,0.0071559,0.053748,-0.0016416,-0.0089829,-0.011126,-4.5231e-05,0.03721,0,0,0,0.035577,0.011718,0.0066092,0.014484,0.017968,0.026805,9.3034e-07,0,0.7,0
0.0026874,-0.00055896,0.0022975,0.030611,0.0091663,0.0053425,-0.0020735,-2.2979e-05,0.0052204,0.052516,-0.0032395,-0.013181,-0.010782,-0.00011949,0.027146,0,0,0,0.032172,0.0090336,0.0039136,0.014129,0.01504,0.026098,8.3125e-07,0.05,0.7,0
0.0052516,-0.0010946,0.0040325,0.026984,0.0053152,0.001211,-0.0018778,-5.5914e-05,0.0023542,0.050052,-0.0062866,-0.016958,-0.0097646,-0.00029075,0.012242,0,0,0,0.027436,0.005156,0.00091822,0.013259,0.01117,0.024693,6.9812e-07,0.1,0.7,0
0.0076926,-0.0015831,0.0052053,0.02525,0.003236,0.00043267,-0.0015735,-8.9661e-05,0.0010475,0.048299,-0.0089379,-0.016226,-0.0081824,-0.00046624,0.0054472,0,0,0,0.025431,0.0031203,0.00036727,0.012532,0.0096397,0.023819,6.6246e-07,0.15,0.7,0
0.010082,-0.0020048,0.0060079,0.024431,0.0018239,7.0462e-05,-0.0012074,-0.00011469,0.00048621,0.047725,-0.011053,-0.015612,-0.0062786,-0.00059637,0.0025283,0,0,0,0.024515,0.0017632,4.6543e-05,0.012234,0.008775,0.023664,6.6907e-07,0.2,0.7,0
0.012465,-0.0023489,0.0065447,0.02416,0.00094154,-1.9718e-05,-0.00083317,-0.00012849,0.00019692,0.047766,-0.012601,-0.0151,-0.0043325,-0.00066814,0.001024,0,0,0,0.024196,0.00093308,-4.8136e-05,0.012122,0.0083605,0.023772,6.869e-07,0.25,0.7,0
0.014858,-0.0026143,0.0068799,0.024127,0.00041479,-2.6389e-05,-0.00049183,-0.00012897,2.0528e-05,0.048021,-0.013631,-0.014778,-0.0025575,-0.00067063,0.00010675,0,0,0,0.02414,0.00045389,-7.8706e-05,0.012109,0.0081718,0.023958,7.0597e-07,0.3,0.7,0
0.017267,-0.0028068,0.007055,0.024245,0.00015894,-1.3545e-06,-0.00020701,-0.00011344,-0.00011323,0.048395,-0.014228,-0.014645,-0.0010764,-0.0005899,-0.00058881,0,0,0,0.024249,0.00022792,-7.4436e-05,0.012162,0.0081341,0.024174,7.258e-07,0.35,0.7,0
0.019698,-0.0029374,0.0071031,0.024483,0.00010575,1.7279e-05,9.7888e-06,-7.9765e-05,-0.00022436,0.048893,-0.014489,-0.014719,5.0902e-05,-0.00041478,-0.0011667,0,0,0,0.024487,0.00016213,-4.2337e-05,0.012265,0.0082022,0.024428,7.4889e-07,0.4,0.7,0
0.022157,-0.0030198,0.0070599,0.024819,0.00018905,3.3408e-06,0.00015328,-2.957e-05,-0.00030151,0.049523,-0.014515,-0.014998,0.00079705,-0.00015377,-0.0015678,0,0,0,0.024825,0.0002092,-2.2251e-05,0.012423,0.0083372,0.024732,7.7703e-07,0.45,0.7,0
0.02465,-0.0030695,0.0069693,0.025201,0.0003381,-4.7125e-05,0.00022318,2.8669e-05,-0.00031914,0.050228,-0.014416,-0.015418,0.0011605,0.00014908,-0.0016595,0,0,0,0.025208,0.00034452,-6.0247e-05,0.012634,0.0084974,0.025069,8.0853e-07,0.5,0.7,0
0.027179,-0.0031021,0.0068812,0.025552,0.0004825,-0.00010959,0.00022659,8.0842e-05,-0.00026141,0.05088,-0.014301,-0.01584,0.0011782,0.00042038,-0.0013593,0,0,0,0.025557,0.00049735,-0.00012981,0.012844,0.0086417,0.02538,8.38e-07,0.55,0.7,0
0.029738,-0.0031308,0.0068415,0.02579,0.00056107,-0.0001496,0.00017948,0.00011295,-0.0001397,0.051333,-0.014262,-0.01611,0.00093329,0.00058733,-0.00072646,0,0,0,0.025793,0.00058461,-0.00017585,0.012984,0.0087338,0.025597,8.5891e-07,0.6,0.7,0
0.032313,-0.0031646,0.0068797,0.025859,0.00053368,-0.00014645,0.00010463,0.0001167,8.6873e-06,0.051486,-0.01436,-0.016128,0.00054406,0.00060684,4.5174e-05,0,0,0,0.02586,0.00055992,-0.00017375,0.013017,0.0087487,0.025675,8.6695e-07,0.65,0.7,0
0.034887,-0.0032075,0.0070005,0.025757,0.00039257,-0.00010007,2.6422e-05,9.1826e-05,0.00013678,0.051338,-0.014609,-0.01589,0.00013739,0.0004775,0.00071125,0,0,0,0.025758,0.00041511,-0.00012385,0.012941,0.008683,0.025617,8.6205e-07,0.7,0.7,0
0.037446,-0.0032582,0.007184,0.025532,0.00016193,-3.0941e-05,-3.5066e-05,4.6039e-05,0.00020802,0.050986,-0.014977,-0.015478,-0.00018234,0.0002394,0.0010817,0,0,0,0.025534,0.00021328,-8.4398e-05,0.012809,0.0085544,0.025471,8.4836e-07,0.75,0.7,0
0.039985,-0.0033116,0.0073945,0.025262,-0.00011465,2.6863e-05,-6.893e-05,-7.3175e-06,0.00021254,0.050577,-0.015403,-0.015035,-0.00035844,-3.8051e-05,0.0011052,0,0,0,0.025264,8.2019e-05,-0.00017211,0.012718,0.0083914,0.025311,8.3249e-07,0.8,0.7,0
0.042504,-0.0033611,0.0075938,0.025016,-0.00038739,4.9132e-05,-7.4773e-05,-5.4853e-05,0.00016881,0.050236,-0.015814,-0.014679,-0.00038882,-0.00028524,0.00087783,0,0,0,0.025018,5.6867e-05,-0.00039677,0.012707,0.008226,0.025192,8.2009e-07,0.85,0.7,0
0.045009,-0.0034008,0.0077523,0.024837,-0.00061156,3.9195e-05,-5.9577e-05,-8.8765e-05,0.00010724,0.050018,-0.016149,-0.014457,-0.0003098,-0.00046158,0.00055765,0,0,0,0.024838,5.4372e-05,-0.00062754,0.012733,0.0080883,0.025132,8.1329e-07,0.9,0.7,0
0.047506,-0.0034262,0.0078524,0.024736,-0.00075619,1.916e-05,-4.0835e-05,-0.00010781,8.2612e-05,0.049913,-0.016365,-0.014349,-0.00021234,-0.00056062,0.00042958,0,0,0,0.024736,3.8481e-05,-0.00077595,0.012756,0.0079995,0.025115,8.1086e-07,0.95,0.7,0
0.048753,-0.0034349,0.0078864,0.024703,-0.0008058,9.8799e-06,-3.3777e-05,-0.0001138,8.943e-05,0.049884,-0.01644,-0.014319,-0.00017564,-0.00059177,0.00046504,0,0,0,0.024704,3.0349e-05,-0.00082673,0.012765,0.0079692,0.025113,8.1042e-07,1,0.7,0
0.0013691,-0.00036745,0.0012491,0.033204,0.011757,0.0089968,-0.002774,-1.2545e-05,0.0071016,0.053955,-0.0018061,-0.0089831,-0.014425,-6.5235e-05,0.036928,0,0,0,0.035757,0.011611,0.0065898,0.014584,0.017986,0.027027,9.5821e-07,0,0.75,0
0.0026978,-0.00072706,0.0022798,0.030718,0.0090359,0.0053397,-0.0026706,-3.3211e-05,0.0051711,0.052811,-0.0035628,-0.013173,-0.013887,-0.0001727,0.02689,0,0,0,0.032371,0.0088243,0.0038981,0.014237,0.015031,0.026376,8.6724e-07,0.05,0.75,0
0.0052811,-0.0014204,0.0039954,0.027129,0.0050599,0.0011938,-0.0023724,-8.0496e-05,0.0023118,0.050505,-0.0068738,-0.016926,-0.012336,-0.00041858,0.012021,0,0,0,0.027662,0.0048141,0.0009064,0.013378,0.011127,0.025055,7.4207e-07,0.1,0.75,0
0.0077483,-0.0020443,0.0051497,0.025418,0.0029327,0.0004206,-0.0019272,-0.00012764,0.0010107,0.048824,-0.0096377,-0.016169,-0.010022,-0.00066375,0.0052558,0,0,0,0.025649,0.0027665,0.00035534,0.012647,0.0095904,0.02419,7.0242e-07,0.15,0.75,0
0.010163,-0.0025715,0.0059388,0.024581,0.0015472,6.6356e-05,-0.0014189,-0.00016062,0.00045688,0.048193,-0.011694,-0.015544,-0.0073784,-0.00083525,0.0023758,0,0,0,0.024689,0.0014748,3.0824e-05,0.012329,0.0087314,0.023974,6.9984e-07,0.2,0.75,0
0.012568,-0.0029904,0.0064686,0.024264,0.0007319,-1.9737e-05,-0.00092914,-0.00017689,0.00017583,0.048101,-0.013083,-0.015037,-0.0048315,-0.00091981,0.00091429,0,0,0,0.024309,0.00074582,-7.8235e-05,0.012194,0.0083255,0.023988,7.0715e-07,0.25,0.75,0
0.014974,-0.0033038,0.0068042,0.024177,0.00027466,-2.845e-05,-0.00050583,-0.00017463,9.0127e-06,0.048207,-0.01394,-0.014728,-0.0026303,-0.00090806,4.6866e-05,0,0,0,0.024192,0.00036171,-0.00013002,0.012161,0.0081411,0.02408,7.1702e-07,0.3,0.75,0
0.017388,-0.0035232,0.0069872,0.024244,6.8516e-05,-8.4096e-06,-0.00016711,-0.00015076,-0.00011282,0.048451,-0.014404,-0.014604,-0.00086895,-0.00078394,-0.00058668,0,0,0,0.024248,0.00019266,-0.0001365,0.012192,0.0081012,0.024221,7.2997e-07,0.35,0.75,0
0.019819,-0.0036649,0.0070506,0.024438,3.8296e-05,8.5332e-06,8.2343e-05,-0.00010256,-0.00021048,0.048848,-0.014591,-0.014669,0.00042818,-0.00053329,-0.0010945,0,0,0,0.024442,0.0001328,-8.9445e-05,0.012266,0.0081617,0.024421,7.4817e-07,0.4,0.75,0
0.022273,-0.0037479,0.0070285,0.024735,0.00012091,1.0681e-06,0.00024071,-3.2101e-05,-0.00027626,0.049397,-0.0146,-0.014911,0.0012517,-0.00016692,-0.0014366,0,0,0,0.024741,0.00015544,-3.9747e-05,0.012391,0.0082857,0.024684,7.7256e-07,0.45,0.75,0
0.024758,-0.0037927,0.0069613,0.025084,0.00025477,-3.5882e-05,0.00030858,4.9377e-05,-0.00028955,0.050036,-0.014519,-0.015275,0.0016046,0.00025676,-0.0015056,0,0,0,0.025091,0.00027065,-5.9529e-05,0.012575,0.0084341,0.024988,8.0095e-07,0.5,0.75,0
0.027277,-0.0038198,0.0068941,0.025409,0.00038137,-8.4714e-05,0.00029428,0.00012247,-0.00023708,0.05064,-0.014432,-0.015644,0.0015302,0.00063684,-0.0012328,0,0,0,0.025415,0.00041613,-0.00012573,0.01277,0.0085685,0.025275,8.2801e-07,0.55,0.75,0
0.029822,-0.0038466,0.006868,0.025633,0.0004515,-0.00011723,0.00021784,0.00016719,-0.0001285,0.051066,-0.014407,-0.015885,0.0011328,0.00086938,-0.00066821,0,0,0,0.025636,0.00050393,-0.00017287,0.012905,0.0086558,0.025478,8.4746e-07,0.6,0.75,0
0.032383,-0.0038849,0.0069095,0.025705,0.00043372,-0.00011461,0.00010909,0.00017134,3.5923e-06,0.051218,-0.014487,-0.015912,0.00056726,0.00089097,1.868e-05,0,0,0,0.025706,0.00049064,-0.00017267,0.012939,0.0086747,0.025554,8.5511e-07,0.65,0.75,0
0.034944,-0.0039391,0.0070231,0.025619,0.00032216,-7.6908e-05,6.0159e-07,0.00013461,0.00011767,0.051092,-0.014681,-0.015719,3.1284e-06,0.0007,0.00061191,0,0,0,0.02562,0.00037004,-0.00012584,0.012873,0.0086216,0.025502,8.5074e-07,0.7,0.75,0
0.037492,-0.0040064,0.0071916,0.02542,0.00013597,-2.2887e-05,-8.0994e-05,6.8569e-05,0.00018184,0.050771,-0.014966,-0.015379,-0.00042117,0.00035656,0.00094555,0,0,0,0.025421,0.00019309,-8.191e-05,0.012752,0.0085109,0.025367,8.3806e-07,0.75,0.75,0
0.040021,-0.0040791,0.0073836,0.025174,-8.9608e-05,1.9514e-05,-0.00012197,-7.5126e-06,0.00018785,0.050389,-0.015295,-0.015011,-0.00063424,-3.9065e-05,0.00097681,0,0,0,0.025176,7.2509e-05,-0.00014488,0.01266,0.0083678,0.025213,8.2299e-07,0.8,0.75,0
0.042531,-0.0041474,0.0075655,0.024946,-0.00031359,3.3014e-05,-0.00012318,-7.4956e-05,0.00015147,0.05006,-0.015615,-0.014713,-0.00064053,-0.00038977,0.00078765,0,0,0,0.024948,5.0508e-05,-0.00033285,0.01264,0.0082218,0.025092,8.1065e-07,0.85,0.75,0
0.045027,-0.0042023,0.0077106,0.024777,-0.00049867,2.2243e-05,-9.526e-05,-0.00012318,9.817e-05,0.04984,-0.015877,-0.014523,-0.00049535,-0.00064053,0.00051048,0,0,0,0.024778,5.4301e-05,-0.00053167,0.012655,0.0081002,0.025022,8.0319e-07,0.9,0.75,0
0.047515,-0.0042376,0.0078026,0.024679,-0.00061862,5.0616e-06,-6.2859e-05,-0.00015044,7.6813e-05,0.049726,-0.016048,-0.014426,-0.00032687,-0.00078227,0.00039943,0,0,0,0.02468,4.5467e-05,-0.00065952,0.01267,0.0080218,0.024994,7.9992e-07,0.95,0.75,0
0.048758,-0.0042497,0.007834,0.024648,-0.00065989,-2.6139e-06,-5.0003e-05,-0.00015905,8.3162e-05,0.049693,-0.016107,-0.014398,-0.00026001,-0.00082707,0.00043244,0,0,0,0.024648,4.0275e-05,-0.00070323,0.012676,0.0079951,0.024988,7.9911e-07,1,0.75,0
0.0013772,-0.0004629,0.0012394,0.033403,0.011678,0.0090304,-0.0034658,-1.4765e-05,0.0070359,0.054382,-0.0021037,-0.0089882,-0.018022,-7.6779e-05,0.036586,0,0,0,0.036074,0.011463,0.0065751,0.01475,0.018037,0.027397,1.0053e-06,0,0.8,0
0.0027191,-0.00091524,0.0022585,0.030924,0.0088169,0.0053403,-0.003296,-4.1764e-05,0.0051096,0.053353,-0.0041246,-0.013164,-0.017139,-0.00021717,0.02657,0,0,0,0.032691,0.0085118,0.0038783,0.014406,0.015027,0.026815,9.2497e-07,0.05,0.8,0
0.0053353,-0.001782,0.0039495,0.027355,0.0046455,0.0011644,-0.0028297,-0.00010356,0.0022573,0.051225,-0.0078209,-0.016872,-0.014714,-0.00053853,0.011738,0,0,0,0.027973,0.0043091,0.00088285,0.013545,0.011055,0.025577,8.0697e-07,0.1,0.8,0
0.0078416,-0.0025469,0.0050811,0.025642,0.0024927,0.00040489,-0.0021836,-0.00016266,0.00096492,0.049545,-0.010643,-0.016071,-0.011355,-0.00084582,0.0050176,0,0,0,0.025913,0.0022905,0.00033627,0.012788,0.0095131,0.024668,7.5492e-07,0.15,0.8,0
0.01029,-0.0031742,0.0058547,0.024744,0.0012009,6.7759e-05,-0.0015098,-0.00019949,0.00042295,0.048727,-0.012485,-0.015431,-0.0078512,-0.0010373,0.0021993,0,0,0,0.024862,0.0011406,9.7298e-06,0.012426,0.0086709,0.024311,7.3383e-07,0.2,0.8,0
0.012714,-0.0036572,0.0063778,0.024339,0.00050763,-1.3054e-05,-0.00091943,-0.00021355,0.00015336,0.048382,-0.013581,-0.014934,-0.004781,-0.0011104,0.00079747,0,0,0,0.024384,0.00056533,-0.00011499,0.012249,0.008278,0.024167,7.2418e-07,0.25,0.8,0
0.015128,-0.0040083,0.0067156,0.024172,0.00014733,-2.6962e-05,-0.00044778,-0.00020545,-1.6761e-06,0.048271,-0.014192,-0.014645,-0.0023284,-0.0010684,-8.716e-06,0,0,0,0.024184,0.00028905,-0.00018132,0.012183,0.0080974,0.024134,7.2195e-07,0.3,0.8,0
0.017541,-0.0042472,0.0069096,0.024181,-1.6817e-06,-1.5089e-05,-9.1469e-05,-0.00017369,-0.00010971,0.048371,-0.014503,-0.014538,-0.00047564,-0.00090317,-0.00057052,0,0,0,0.024184,0.00016822,-0.00018823,0.012186,0.0080546,0.024196,7.2757e-07,0.35,0.8,0
0.019965,-0.0043965,0.0069924,0.024335,-1.3786e-05,-2.0549e-06,0.00015996,-0.00011623,-0.00019185,0.048681,-0.014628,-0.014597,0.00083178,-0.00060437,-0.00099763,0,0,0,0.024339,0.00010889,-0.00012861,0.012234,0.0081066,0.02435,7.4165e-07,0.4,0.8,0
0.022409,-0.0044798,0.0069962,0.024602,5.6931e-05,-3.663e-06,0.00031204,-3.556e-05,-0.00024432,0.049172,-0.014645,-0.014803,0.0016226,-0.00018491,-0.0012705,0,0,0,0.024609,0.00010517,-5.901e-05,0.012334,0.0082184,0.024587,7.6348e-07,0.45,0.8,0
0.024882,-0.0045214,0.0069575,0.024925,0.00016275,-2.5316e-05,0.00036785,5.6423e-05,-0.00025241,0.049768,-0.014614,-0.015103,0.0019128,0.0002934,-0.0013126,0,0,0,0.024933,0.00019049,-6.153e-05,0.012498,0.0083542,0.02487,7.8993e-07,0.5,0.8,0
0.027386,-0.0045453,0.0069154,0.025231,0.00026071,-5.6826e-05,0.00033652,0.00013884,-0.00020655,0.050341,-0.014583,-0.015409,0.0017499,0.00072197,-0.001074,0,0,0,0.025238,0.00031669,-0.00011954,0.012679,0.0084784,0.025143,8.1556e-07,0.55,0.8,0
0.029916,-0.0045714,0.0069055,0.025449,0.00031593,-7.8722e-05,0.00023961,0.00018939,-0.00011478,0.050755,-0.01459,-0.015616,0.0012459,0.00098482,-0.00059687,0,0,0,0.025452,0.00039819,-0.00016443,0.012808,0.008562,0.02534,8.3436e-07,0.6,0.8,0
0.032462,-0.0046133,0.0069505,0.025529,0.00030678,-7.6568e-05,0.00011001,0.00019398,-3.6845e-06,0.05092,-0.014658,-0.015655,0.00057206,0.0010087,-1.9159e-05,0,0,0,0.02553,0.00039466,-0.00016559,0.012848,0.0085864,0.02542,8.423e-07,0.65,0.8,0
0.035008,-0.0046757,0.0070547,0.025466,0.00022929,-5.0533e-05,-1.5851e-05,0.00015237,9.2708e-05,0.050825,-0.014791,-0.015518,-8.2423e-05,0.00079234,0.00048208,0,0,0,0.025467,0.00030196,-0.00012405,0.012795,0.0085483,0.025381,8.3892e-07,0.7,0.8,0
0.037544,-0.0047548,0.0072043,0.025296,9.6743e-05,-1.5275e-05,-0.00010842,7.8173e-05,0.00014846,0.050543,-0.014975,-0.015266,-0.0005638,0.0004065,0.00077197,0,0,0,0.025298,0.00015834,-7.8516e-05,0.012688,0.0084591,0.025259,8.2742e-07,0.75,0.8,0
0.040063,-0.0048411,0.0073735,0.025078,-6.5876e-05,9.728e-06,-0.00015305,-6.8482e-06,0.0001568,0.050189,-0.015184,-0.014988,-0.00079588,-3.5611e-05,0.00081535,0,0,0,0.02508,5.7095e-05,-0.00011538,0.012598,0.0083405,0.025109,8.1298e-07,0.8,0.8,0
0.042563,-0.0049226,0.007534,0.024869,-0.00022886,1.4303e-05,-0.00015154,-8.2331e-05,0.00012968,0.049867,-0.015388,-0.014756,-0.000788,-0.00042812,0.00067434,0,0,0,0.024871,4.206e-05,-0.00025841,0.012565,0.0082182,0.024981,8.0025e-07,0.85,0.8,0
0.045049,-0.0049885,0.0076626,0.02471,-0.00036471,3.1852e-06,-0.00011636,-0.00013681,8.6548e-05,0.049636,-0.015557,-0.014601,-0.00060505,-0.0007114,0.00045005,0,0,0,0.024711,5.3027e-05,-0.00041556,0.012563,0.008116,0.024896,7.9158e-07,0.9,0.8,0
0.047527,-0.005031,0.0077447,0.024614,-0.00045342,-1.09e-05,-7.6472e-05,-0.000168,6.9302e-05,0.049506,-0.015669,-0.014518,-0.00039765,-0.0008736,0.00036037,0,0,0,0.024614,5.1808e-05,-0.00051665,0.012566,0.0080499,0.024852,7.8704e-07,0.95,0.8,0
0.048764,-0.0050456,0.0077728,0.024583,-0.00048408,-1.6954e-05,-6.065e-05,-0.00017795,7.5192e-05,0.049466,-0.015707,-0.014493,-0.00031538,-0.00092535,0.000391,0,0,0,0.024583,4.9708e-05,-0.00055118,0.012567,0.0080272,0.024839,7.857e-07,1,0.8,0
0.0013973,-0.00057782,0.0012297,0.033844,0.011514,0.0091056,-0.0042532,-1.6061e-05,0.0069657,0.055316,-0.0027417,-0.0090035,-0.022117,-8.3517e-05,0.036221,0,0,0,0.036671,0.011222,0.0065705,0.01505,0.018155,0.028073,1.095e-06,0,0.85,0
0.0027658,-0.0011395,0.0022355,0.031325,0.0083874,0.0053406,-0.0039407,-4.9177e-05,0.0050407,0.054413,-0.0052244,-0.013146,-0.020492,-0.00025572,0.026212,0,0,0,0.033219,0.0079921,0.0038413,0.014689,0.015018,0.027561,1.0261e-06,0.05,0.85,0
0.0054413,-0.0022025,0.0038984,0.027712,0.00394,0.001112,-0.0031616,-0.00012485,0.002194,0.052393,-0.0094143,-0.016767,-0.016441,-0.00064921,0.011409,0,0,0,0.028389,0.003542,0.00083309,0.013778,0.010921,0.026338,9.0472e-07,0.1,0.85,0
0.0080051,-0.0031086,0.0050049,0.025925,0.0018929,0.00039829,-0.0022357,-0.0001927,0.00091596,0.050475,-0.012008,-0.015894,-0.011626,-0.0010021,0.004763,0,0,0,0.026199,0.0017009,0.00031604,0.012941,0.0094053,0.025227,8.1813e-07,0.15,0.85,0
0.010489,-0.00382,0.0057635,0.024865,0.00082137,8.6405e-05,-0.0014115,-0.00022668,0.00039213,0.049186,-0.013328,-0.015239,-0.0073396,-0.0011788,0.0020391,0,0,0,0.024971,0.00081146,-9.3576e-06,0.01249,0.008591,0.024582,7.6214e-07,0.2,0.85,0
0.012924,-0.0043484,0.006282,0.024302,0.00030317,2.0952e-06,-0.00078018,-0.000232,0.00013659,0.04842,-0.013976,-0.014759,-0.0040569,-0.0012064,0.00071027,0,0,0,0.024336,0.00041789,-0.00014698,0.012241,0.0082023,0.024206,7.2857e-07,0.25,0.85,0
0.015331,-0.004723,0.0066244,0.024036,5.4595e-05,-2.3389e-05,-0.00032304,-0.00021518,-6.9169e-06,0.048054,-0.014298,-0.014501,-0.0016798,-0.0011189,-3.5968e-05,0,0,0,0.024044,0.00023569,-0.00021284,0.012129,0.0080224,0.024036,7.1338e-07,0.3,0.85,0
0.017729,-0.0049735,0.0068313,0.024,-3.8774e-05,-2.1897e-05,7.6797e-07,-0.00017746,-0.00010271,0.048037,-0.014465,-0.014421,3.9928e-06,-0.00092278,-0.00053411,0,0,0,0.024003,0.00014738,-0.00021045,0.012107,0.0079799,0.024037,7.1336e-07,0.35,0.85,0
0.020134,-0.0051277,0.0069346,0.024141,-3.9861e-05,-1.3478e-05,0.00021906,-0.00011771,-0.00017105,0.048313,-0.014556,-0.014487,0.0011391,-0.00061208,-0.00088948,0,0,0,0.024145,8.9142e-05,-0.00014664,0.012146,0.0080291,0.024175,7.2581e-07,0.4,0.85,0
0.02256,-0.0052124,0.0069647,0.024404,1.1119e-05,-1.0364e-05,0.00034416,-3.8274e-05,-0.0002114,0.048808,-0.014614,-0.01467,0.0017896,-0.00019903,-0.0010993,0,0,0,0.024411,6.652e-05,-7.2943e-05,0.012242,0.0081349,0.024415,7.477e-07,0.45,0.85,0
0.025015,-0.0052541,0.0069543,0.024726,8.2279e-05,-1.8103e-05,0.00038098,5.0282e-05,-0.00021475,0.049414,-0.01466,-0.014921,0.0019811,0.00026147,-0.0011167,0,0,0,0.024734,0.00011899,-6.2924e-05,0.012399,0.0082634,0.024707,7.7466e-07,0.5,0.85,0
0.027502,-0.0052781,0.0069372,0.025033,0.00014681,-3.2643e-05,0.00033805,0.00012919,-0.00017557,0.049998,-0.014707,-0.015173,0.0017579,0.00067177,-0.00091296,0,0,0,0.02504,0.0002165,-0.0001086,0.012574,0.0083825,0.024988,8.0092e-07,0.55,0.85,0
0.030015,-0.0053056,0.0069433,0.025257,0.00018385,-4.3297e-05,0.00023525,0.00017778,-0.00010087,0.05043,-0.014761,-0.015351,0.0012233,0.00092446,-0.00052452,0,0,0,0.025261,0.00028501,-0.00014765,0.012704,0.008466,0.025195,8.2063e-07,0.6,0.85,0
0.032545,-0.0053507,0.0069917,0.025354,0.0001808,-4.1325e-05,0.00010372,0.00018264,-1.1149e-05,0.050625,-0.014826,-0.015404,0.00053934,0.00094975,-5.7976e-05,0,0,0,0.025355,0.00028786,-0.00014939,0.012752,0.0084979,0.025289,8.298e-07,0.65,0.85,0
0.035077,-0.0054182,0.0070867,0.025316,0.00013538,-2.6994e-05,-2.1638e-05,0.00014369,6.7538e-05,0.050568,-0.014903,-0.015325,-0.00011252,0.00074718,0.0003512,0,0,0,0.025317,0.00022275,-0.00011498,0.012716,0.0084749,0.025265,8.2777e-07,0.7,0.85,0
0.037601,-0.0055039,0.0072179,0.025174,5.5292e-05,-9.5118e-06,-0.00011265,7.4153e-05,0.00011527,0.050321,-0.014988,-0.015157,-0.00058577,0.00038559,0.00059941,0,0,0,0.025175,0.00011608,-7.1573e-05,0.012624,0.0084066,0.025154,8.1726e-07,0.75,0.85,0
0.04011,-0.0055975,0.0073647,0.024979,-4.4618e-05,3.1198e-08,-0.0001558,-5.491e-06,0.00012627,0.049984,-0.015077,-0.01496,-0.00081013,-2.8554e-05,0.00065662,0,0,0,0.024981,3.9309e-05,-8.5665e-05,0.012533,0.0083114,0.025004,8.0287e-07,0.8,0.85,0
0.0426,-0.0056862,0.0075042,0.024784,-0.00014621,-3.0202e-06,-0.00015335,-7.6562e-05,0.00010835,0.049657,-0.015161,-0.014788,-0.00079743,-0.00039812,0.00056341,0,0,0,0.024785,3.2466e-05,-0.00018326,0.012484,0.0082114,0.024861,7.8906e-07,0.85,0.85,0
0.045075,-0.005758,0.0076169,0.024627,-0.00023205,-1.4648e-05,-0.0001176,-0.00012841,7.51e-05,0.049402,-0.015232,-0.014666,-0.00061154,-0.00066772,0.00039052,0,0,0,0.024628,4.8498e-05,-0.00029613,0.012462,0.0081268,0.024754,7.7859e-07,0.9,0.85,0
0.04754,-0.0058045,0.0076893,0.024529,-0.00028877,-2.6487e-05,-7.8551e-05,-0.00015847,6.1863e-05,0.049248,-0.015279,-0.014597,-0.00040846,-0.00082407,0.00032169,0,0,0,0.02453,5.2953e-05,-0.0003687,0.012449,0.0080714,0.024691,7.7241e-07,0.95,0.85,0
0.048771,-0.0058205,0.0077142,0.024496,-0.00030852,-3.134e-05,-6.3804e-05,-0.00016815,6.7336e-05,0.049197,-0.015296,-0.014575,-0.00033178,-0.00087439,0.00035015,0,0,0,0.024497,5.3215e-05,-0.00039347,0.012445,0.0080522,0.02467,7.7042e-07,1,0.85,0
0.0014446,-0.00073708,0.0012212,0.03479,0.010982,0.0092383,-0.0050829,-7.382e-06,0.0068981,0.057448,-0.0044536,-0.0089863,-0.026431,-3.8387e-05,0.03587,0,0,0,0.03778,0.010701,0.0065288,0.015626,0.018337,0.029405,1.2841e-06,0,0.9,0
0.0028724,-0.0014377,0.0022137,0.032142,0.0074562,0.0053446,-0.0044265,-4.6215e-05,0.0049703,0.056603,-0.0075794,-0.01307,-0.023018,-0.00024032,0.025846,0,0,0,0.034112,0.0070879,0.0037427,0.015185,0.014981,0.028877,1.216e-06,0.05,0.9,0
0.0056603,-0.0027234,0.0038478,0.028303,0.0028662,0.0010729,-0.0030994,-0.00013701,0.0021286,0.054242,-0.011893,-0.016555,-0.016117,-0.00071247,0.011069,0,0,0,0.028942,0.002531,0.00076915,0.014086,0.010747,0.027362,1.0454e-06,0.1,0.9,0
0.0082966,-0.0037477,0.0049301,0.026189,0.0012632,0.00044445,-0.0019188,-0.0002088,0.00087454,0.051353,-0.013454,-0.015582,-0.0099779,-0.0010857,0.0045476,0,0,0,0.026408,0.0011586,0.00033046,0.013039,0.0092989,0.025677,8.7249e-07,0.15,0.9,0
0.010796,-0.004507,0.0056777,0.024759,0.00049422,0.00011821,-0.0010769,-0.00022859,0.00037528,0.04915,-0.013938,-0.014915,-0.0056,-0.0011887,0.0019515,0,0,0,0.02483,0.00055945,-1.7841e-05,0.012424,0.0084571,0.024565,7.6337e-07,0.2,0.9,0
0.013212,-0.0050548,0.0061958,0.023997,0.00015743,1.0413e-05,-0.00052938,-0.00021928,0.00013164,0.047894,-0.01409,-0.014472,-0.0027528,-0.0011403,0.00068451,0,0,0,0.024017,0.00030771,-0.00015932,0.012088,0.008055,0.023946,7.0645e-07,0.25,0.9,0
0.015585,-0.0054381,0.006545,0.023668,8.6807e-06,-2.9848e-05,-0.00017014,-0.00019435,-6.1972e-06,0.047349,-0.014166,-0.014266,-0.00088474,-0.0010106,-3.2225e-05,0,0,0,0.023672,0.00018518,-0.00021033,0.011941,0.0078823,0.023687,6.8335e-07,0.3,0.9,0
0.017946,-0.0056937,0.0067644,0.023641,-4.2116e-05,-3.6133e-05,6.9667e-05,-0.00015609,-9.6061e-05,0.047329,-0.014247,-0.014232,0.00036227,-0.00081165,-0.00049952,0,0,0,0.023643,0.0001174,-0.00019738,0.01192,0.0078542,0.023684,6.8289e-07,0.35,0.9,0
0.020318,-0.0058521,0.0068852,0.023821,-4.0273e-05,-2.9192e-05,0.0002249,-0.00010328,-0.0001562,0.047684,-0.014356,-0.014327,0.0011695,-0.00053705,-0.00081225,0,0,0,0.023825,6.6626e-05,-0.00013982,0.011982,0.0079173,0.023862,6.9834e-07,0.4,0.9,0
0.022715,-0.0059412,0.0069367,0.024132,-1.1413e-05,-2.0553e-05,0.00030908,-3.7199e-05,-0.00018828,0.048283,-0.01449,-0.014513,0.0016072,-0.00019343,-0.00097907,0,0,0,0.024138,3.7671e-05,-7.5504e-05,0.012107,0.0080332,0.024157,7.2444e-07,0.45,0.9,0
0.025146,-0.0059874,0.0069491,0.024496,2.6567e-05,-1.6325e-05,0.00032655,3.4547e-05,-0.00018787,0.048986,-0.014635,-0.014746,0.001698,0.00017965,-0.00097692,0,0,0,0.024502,6.2525e-05,-5.8524e-05,0.012281,0.0081688,0.024501,7.5565e-07,0.5,0.9,0
0.027614,-0.0060159,0.0069519,0.024839,6.0231e-05,-1.6667e-05,0.00028344,9.7931e-05,-0.00015305,0.049651,-0.014773,-0.014973,0.0014739,0.00050924,-0.00079586,0,0,0,0.024843,0.00012784,-8.8951e-05,0.012466,0.0082941,0.024825,7.8569e-07,0.55,0.9,0
0.030111,-0.0060475,0.0069708,0.025092,7.9925e-05,-1.7531e-05,0.00019481,0.00013715,-9.0543e-05,0.050147,-0.014885,-0.015138,0.001013,0.00071317,-0.00047082,0,0,0,0.025094,0.00017859,-0.00011853,0.012606,0.0083848,0.025066,8.0852e-07,0.6,0.9,0
0.032628,-0.0060959,0.0070222,0.025215,8.0036e-05,-1.5102e-05,8.5071e-05,0.00014175,-1.6314e-05,0.05039,-0.01496,-0.015207,0.00044237,0.00073709,-8.4834e-05,0,0,0,0.025215,0.00018425,-0.00012003,0.012668,0.0084265,0.025185,8.2e-07,0.65,0.9,0
0.03515,-0.0061659,0.0071104,0.025199,5.9465e-05,-9.6563e-06,-1.8062e-05,0.00011179,4.9879e-05,0.050368,-0.014995,-0.015174,-9.3922e-05,0.00058132,0.00025937,0,0,0,0.0252,0.00014373,-9.4315e-05,0.012647,0.0084163,0.025176,8.1928e-07,0.7,0.9,0
0.037665,-0.0062536,0.0072275,0.025073,2.1441e-05,-5.5758e-06,-9.23e-05,5.7864e-05,9.2634e-05,0.050136,-0.014997,-0.015068,-0.00047996,0.00030089,0.0004817,0,0,0,0.025073,7.3328e-05,-5.8323e-05,0.012566,0.0083628,0.025066,8.0885e-07,0.75,0.9,0
0.040164,-0.0063488,0.0073574,0.024884,-2.7462e-05,-7.5881e-06,-0.00012725,-4.0483e-06,0.00010648,0.049788,-0.014981,-0.014929,-0.00066173,-2.1051e-05,0.00055371,0,0,0,0.024885,2.2085e-05,-5.8377e-05,0.012472,0.0082829,0.024903,7.9325e-07,0.8,0.9,0
0.042644,-0.0064387,0.0074812,0.024685,-7.8618e-05,-1.6723e-05,-0.00012512,-5.9545e-05,9.5673e-05,0.049426,-0.014958,-0.014797,-0.00065063,-0.00030963,0.0004975,0,0,0,0.024686,2.113e-05,-0.0001176,0.012402,0.0081964,0.024734,7.7719e-07,0.85,0.9,0
0.045107,-0.0065116,0.0075819,0.024518,-0.00012297,-2.9522e-05,-9.5938e-05,-0.00010032,6.9289e-05,0.049127,-0.014939,-0.014696,-0.00049888,-0.00052165,0.0003603,0,0,0,0.024518,3.7066e-05,-0.00019024,0.012354,0.0081218,0.024596,7.641e-07,0.9,0.9,0
0.047557,-0.0065589,0.007647,0.024409,-0.00015286,-4.0384e-05,-6.729e-05,-0.00012414,5.7894e-05,0.048935,-0.014927,-0.014635,-0.00034991,-0.00064552,0.00030105,0,0,0,0.02441,4.3234e-05,-0.00023686,0.012323,0.0080721,0.024508,7.5584e-07,0.95,0.9,0
0.048779,-0.0065752,0.0076695,0.024372,-0.00016337,-4.4599e-05,-5.8465e-05,-0.00013184,6.2345e-05,0.048869,-0.014923,-0.014614,-0.00030402,-0.00068559,0.00032419,0,0,0,0.024373,4.4446e-05,-0.00025276,0.012313,0.0080547,0.024478,7.5305e-07,1,0.9,0
0.0016296,-0.0010232,0.0012199,0.038173,0.010808,0.010189,-0.0061507,3.9191e-05,0.0068677,0.063748,-0.0074013,-0.0090114,-0.031984,0.00020379,0.035712,0,0,0,0.041353,0.010794,0.0070227,0.017165,0.019723,0.032637,1.8286e-06,0,0.95,0
0.0031874,-0.0018975,0.0022013,0.034392,0.0065211,0.0057927,-0.0047282,-1.6534e-05,0.0049268,0.061396,-0.011069,-0.012962,-0.024587,-8.5977e-05,0.02562,0,0,0,0.036374,0.0064953,0.0038365,0.016269,0.015569,0.031328,1.626e-06,0.05,0.95,0
0.0061396,-0.0033918,0.0038104,0.02883,0.0016454,0.0010644,-0.0024771,-0.00015217,0.0020834,0.056035,-0.014646,-0.016157,-0.012881,-0.00079127,0.010834,0,0,0,0.029324,0.0016442,0.00057171,0.014376,0.010513,0.028243,1.1927e-06,0.1,0.95,0
0.0087909,-0.004454,0.0048748,0.025814,0.00067341,0.00043557,-0.0012413,-0.00023232,0.00085788,0.050964,-0.014403,-0.015022,-0.0064549,-0.001208,0.004461,0,0,0,0.025944,0.00076533,0.00021434,0.012865,0.0089745,0.025459,8.5898e-07,0.15,0.95,0
0.011236,-0.0052138,0.0056193,0.024013,0.00017,6.3116e-05,-0.00061325,-0.00022097,0.00037738,0.047886,-0.014106,-0.014383,-0.0031889,-0.0011491,0.0019624,0,0,0,0.024047,0.00033416,-0.00013535,0.012091,0.0080819,0.023951,7.1071e-07,0.2,0.95,0
0.013579,-0.0057574,0.0061407,0.023214,8.7466e-07,-4.1628e-05,-0.00026337,-0.00019443,0.00013258,0.046452,-0.013902,-0.014012,-0.0013695,-0.0010111,0.0006894,0,0,0,0.023222,0.00017739,-0.00022593,0.011724,0.0077243,0.023248,6.4806e-07,0.25,0.95,0
0.015881,-0.0061396,0.0064961,0.022958,-6.1325e-05,-7.4272e-05,-5.2992e-05,-0.00016306,-1.0659e-05,0.045997,-0.013853,-0.013887,-0.00027556,-0.00084793,-5.5427e-05,0,0,0,0.022959,9.9578e-05,-0.00023658,0.011598,0.0076075,0.02303,6.2899e-07,0.3,0.95,0
0.018179,-0.0063982,0.0067234,0.023045,-7.2346e-05,-7.2825e-05,8.1172e-05,-0.00012748,-0.00010398,0.046178,-0.013928,-0.013929,0.00042209,-0.0006629,-0.0005407,0,0,0,0.023047,5.7406e-05,-0.00020388,0.011625,0.0076334,0.023121,6.3597e-07,0.35,0.95,0
0.020499,-0.0065632,0.0068538,0.02335,-6.022e-05,-5.9015e-05,0.00016545,-8.5376e-05,-0.00016382,0.046772,-0.014095,-0.014092,0.00086036,-0.00044396,-0.00085184,0,0,0,0.023353,2.5663e-05,-0.00014771,0.01175,0.0077436,0.023415,6.602e-07,0.4,0.95,0
0.022856,-0.0066613,0.0069166,0.02378,-3.8357e-05,-4.2941e-05,0.00020892,-3.6616e-05,-0.00019269,0.047609,-0.014319,-0.014331,0.0010864,-0.0001904,-0.001002,0,0,0,0.023784,3.8208e-06,-8.9089e-05,0.011937,0.0078997,0.023827,6.9547e-07,0.45,0.95,0
0.02526,-0.0067176,0.0069408,0.02425,-1.5107e-05,-2.9907e-05,0.00021377,1.4424e-05,-0.00018846,0.048527,-0.014562,-0.014601,0.0011116,7.5004e-05,-0.00098001,0,0,0,0.024254,1.2952e-05,-6.1919e-05,0.012158,0.0080684,0.024279,7.3551e-07,0.5,0.95,0
0.027709,-0.0067554,0.0069542,0.024677,4.227e-06,-2.1174e-05,0.00018311,5.8927e-05,-0.00015146,0.049365,-0.014785,-0.014851,0.00095219,0.00030642,-0.00078761,0,0,0,0.02468,5.3192e-05,-7.2965e-05,0.012377,0.0082201,0.02469,7.7326e-07,0.55,0.95,0
0.030196,-0.0067941,0.0069801,0.024992,1.6434e-05,-1.5388e-05,0.00012564,8.672e-05,-8.9106e-05,0.049983,-0.014953,-0.015036,0.00065331,0.00045094,-0.00046335,0,0,0,0.024993,8.9634e-05,-8.9945e-05,0.012542,0.008331,0.024994,8.0187e-07,0.6,0.95,0
0.032707,-0.0068467,0.0070336,0.02515,1.987e-05,-1.0943e-05,5.6053e-05,9.1026e-05,-1.6148e-05,0.050295,-0.015044,-0.015124,0.00029148,0.00047334,-8.3968e-05,0,0,0,0.025151,9.7996e-05,-8.9478e-05,0.01262,0.0083864,0.025147,8.1659e-07,0.65,0.95,0
0.035226,-0.0069176,0.0071189,0.025146,1.423e-05,-7.9287e-06,-8.6941e-06,7.2018e-05,4.9715e-05,0.050289,-0.015055,-0.015112,-4.5209e-05,0.00037449,0.00025852,0,0,0,0.025147,7.7026e-05,-7.1008e-05,0.012609,0.0083842,0.025144,8.1637e-07,0.7,0.95,0
0.037736,-0.0070036,0.0072297,0.025011,4.8009e-07,-8.1449e-06,-5.5036e-05,3.6834e-05,9.4304e-05,0.050026,-0.015001,-0.015023,-0.00028619,0.00019153,0.00049038,0,0,0,0.025012,3.6628e-05,-4.4923e-05,0.012528,0.0083344,0.025016,8.0405e-07,0.75,0.95,0
0.040228,-0.0070956,0.0073519,0.024798,-1.9155e-05,-1.3287e-05,-7.6836e-05,-3.8864e-06,0.00011151,0.049615,-0.014909,-0.014894,-0.00039954,-2.021e-05,0.00057984,0,0,0,0.024798,7.5818e-06,-4.0919e-05,0.01242,0.008255,0.024815,7.8493e-07,0.8,0.95,0
0.042698,-0.007182,0.0074687,0.024566,-4.1187e-05,-2.2961e-05,-7.5714e-05,-4.0599e-05,0.0001035,0.049171,-0.014808,-0.014761,-0.00039371,-0.00021112,0.00053822,0,0,0,0.024567,1.0039e-05,-7.5006e-05,0.012321,0.0081674,0.0246,7.6468e-07,0.85,0.95,0
0.045146,-0.0072519,0.0075642,0.024368,-6.1294e-05,-3.431e-05,-5.8036e-05,-6.773e-05,7.7356e-05,0.048793,-0.014723,-0.014653,-0.00030179,-0.0003522,0.00040225,0,0,0,0.024368,2.2488e-05,-0.0001186,0.012243,0.0080908,0.024417,7.4772e-07,0.9,0.95,0
0.047577,-0.0072972,0.0076264,0.024237,-7.5326e-05,-4.3345e-05,-4.6375e-05,-8.3665e-05,6.2113e-05,0.048545,-0.014667,-0.014584,-0.00024115,-0.00043506,0.00032299,0,0,0,0.024237,2.7636e-05,-0.00014662,0.012192,0.0080393,0.024297,7.3674e-07,0.95,0.95,0
0.04879,-0.0073128,0.0076479,0.024191,-8.0352e-05,-4.6775e-05,-4.6734e-05,-8.8835e-05,6.3435e-05,0.048459,-0.014647,-0.01456,-0.00024301,-0.00046194,0.00032986,0,0,0,0.024191,2.8775e-05,-0.0001562,0.012174,0.0080213,0.024256,7.3299e-07,1,0.95,0
0.0017818,-0.0012139,0.0012224,0.040913,0.011051,0.011057,-0.0068131,7.6421e-05,0.0068697,0.068562,-0.0090806,-0.0090647,-0.035428,0.00039739,0.035722,0,0,0,0.044208,0.011254,0.0075587,0.018325,0.021007,0.03498,2.2437e-06,0,1,0
0.0034281,-0.0021829,0.0021993,0.03609,0.0062267,0.0062352,-0.0048688,6.631e-06,0.0049181,0.064703,-0.012942,-0.01292,-0.025318,3.4481e-05,0.025574,0,0,0,0.038074,0.0064754,0.0040028,0.017035,0.016184,0.032936,1.9112e-06,0.05,1,0
0.0064703,-0.0037679,0.0037974,0.028985,0.0010515,0.0010614,-0.0020351,-0.00016521,0.0020703,0.056702,-0.015925,-0.015899,-0.010582,-0.00085911,0.010765,0,0,0,0.029389,0.0013041,0.00040422,0.014493,0.010366,0.02855,1.2582e-06,0.1,1,0
0.0090983,-0.0048196,0.0048552,0.025331,0.00037417,0.00038248,-0.00083774,-0.00025312,0.00085833,0.050208,-0.01468,-0.014658,-0.0043562,-0.0013162,0.0044633,0,0,0,0.025416,0.0005969,7.5162e-05,0.01267,0.0086959,0.025084,8.2472e-07,0.15,1,0
0.011491,-0.005568,0.0056004,0.023412,-1.6394e-05,-8.2499e-06,-0.00037817,-0.00022137,0.00038282,0.046839,-0.014075,-0.014054,-0.0019665,-0.0011511,0.0019907,0,0,0,0.023432,0.00020771,-0.00025188,0.011842,0.0077958,0.023457,6.6786e-07,0.2,1,0
0.013782,-0.0061048,0.0061242,0.022673,-0.00010148,-9.2583e-05,-0.00014438,-0.00018594,0.00013243,0.045463,-0.013751,-0.013728,-0.00075075,-0.00096689,0.00068862,0,0,0,0.022677,9.5289e-05,-0.00029315,0.011485,0.007493,0.022778,6.0928e-07,0.25,1,0
0.016037,-0.006485,0.0064817,0.022504,-0.00012019,-0.00011065,-1.1982e-05,-0.00015126,-1.6635e-05,0.045147,-0.013676,-0.013652,-6.2304e-05,-0.00078657,-8.6504e-05,0,0,0,0.022505,4.2069e-05,-0.0002736,0.011389,0.0074244,0.022622,5.9594e-07,0.3,1,0
0.018297,-0.0067454,0.0067112,0.022682,-0.00010815,-9.9191e-05,7.0385e-05,-0.00011669,-0.00011414,0.045488,-0.013766,-0.013743,0.000366,-0.00060681,-0.00059354,0,0,0,0.022683,1.6864e-05,-0.00022537,0.011454,0.0074915,0.022788,6.0878e-07,0.35,1,0
0.020586,-0.0069148,0.0068439,0.023074,-8.5324e-05,-7.9172e-05,0.00012132,-7.9192e-05,-0.00017591,0.046246,-0.013967,-0.013951,0.00063086,-0.0004118,-0.00091474,0,0,0,0.023076,-1.9475e-06,-0.00016491,0.01162,0.0076364,0.02316,6.3886e-07,0.4,1,0
0.022921,-0.0070187,0.0069092,0.023584,-5.9704e-05,-5.8981e-05,0.00014675,-3.799e-05,-0.00020448,0.04724,-0.014235,-0.014233,0.00076311,-0.00019755,-0.0010633,0,0,0,0.023587,-1.7133e-05,-0.00010467,0.011846,0.0078218,0.023648,6.7998e-07,0.45,1,0
0.02531,-0.0070814,0.006936,0.024125,-3.6132e-05,-4.2739e-05,0.00014775,3.9508e-06,-0.00019809,0.048297,-0.014521,-0.014539,0.00076833,2.0544e-05,-0.0010301,0,0,0,0.024128,-1.2284e-05,-6.9562e-05,0.012099,0.0080153,0.024169,7.2564e-07,0.5,1,0
0.027751,-0.0071251,0.0069518,0.024609,-1.7361e-05,-3.1206e-05,0.00012598,4.0129e-05,-0.00015771,0.049247,-0.014781,-0.014817,0.00065511,0.00020867,-0.00082008,0,0,0,0.024611,1.8924e-05,-6.9535e-05,0.01234,0.0081868,0.024636,7.683e-07,0.55,1,0
0.030235,-0.0071682,0.0069794,0.024963,-4.7761e-06,-2.3135e-05,8.6912e-05,6.2924e-05,-9.1372e-05,0.049943,-0.014973,-0.015021,0.00045194,0.0003272,-0.00047513,0,0,0,0.024964,5.0769e-05,-7.9614e-05,0.012522,0.0083117,0.024979,8.0051e-07,0.6,1,0
0.032745,-0.0072231,0.0070336,0.025142,1.1065e-06,-1.7119e-05,4.0149e-05,6.7259e-05,-1.4302e-05,0.050293,-0.015073,-0.01512,0.00020877,0.00034975,-7.4371e-05,0,0,0,0.025142,6.123e-05,-7.7521e-05,0.01261,0.0083752,0.025151,8.1703e-07,0.65,1,0
0.035264,-0.0072942,0.0071187,0.02514,3.257e-07,-1.3076e-05,-3.1399e-06,5.3351e-05,5.5427e-05,0.050288,-0.015076,-0.01511,-1.6327e-05,0.00027743,0.00028822,0,0,0,0.025141,4.8524e-05,-6.1546e-05,0.012601,0.0083758,0.025147,8.1674e-07,0.7,1,0
0.037774,-0.0073787,0.0072285,0.024992,-6.5412e-06,-1.2258e-05,-3.4039e-05,2.6738e-05,0.00010318,0.049996,-0.015001,-0.015016,-0.000177,0.00013904,0.00053653,0,0,0,0.024993,2.0648e-05,-4.005e-05,0.012516,0.0083245,0.025003,8.0282e-07,0.75,1,0
0.040264,-0.007468,0.0073496,0.024757,-1.8158e-05,-1.5848e-05,-4.8621e-05,-4.3772e-06,0.00012225,0.049535,-0.014881,-0.014875,-0.00025283,-2.2761e-05,0.00063567,0,0,0,0.024758,1.2849e-06,-3.6122e-05,0.012397,0.0082411,0.024776,7.8121e-07,0.8,1,0
0.042728,-0.0075516,0.0074655,0.024501,-3.2206e-05,-2.3417e-05,-4.8123e-05,-3.2619e-05,0.00011425,0.049036,-0.014751,-0.014728,-0.00025024,-0.00016962,0.0005941,0,0,0,0.024502,5.2358e-06,-6.1611e-05,0.012282,0.0081486,0.02453,7.5826e-07,0.85,1,0
0.045167,-0.0076191,0.0075604,0.024281,-4.5584e-05,-3.2579e-05,-3.6879e-05,-5.3615e-05,8.6041e-05,0.048609,-0.01464,-0.014606,-0.00019177,-0.0002788,0.00044741,0,0,0,0.024282,1.5874e-05,-9.4501e-05,0.012188,0.0080676,0.024321,7.3899e-07,0.9,1,0
0.047589,-0.0076628,0.0076223,0.024135,-5.5153e-05,-3.9978e-05,-3.4528e-05,-6.6009e-05,6.6918e-05,0.048327,-0.014567,-0.014528,-0.00017955,-0.00034325,0.00034797,0,0,0,0.024135,2.0335e-05,-0.00011576,0.012126,0.0080133,0.024183,7.2648e-07,0.95,1,0
0.048796,-0.0076779,0.0076438,0.024084,-5.862e-05,-4.2804e-05,-3.9841e-05,-7.0043e-05,6.5903e-05,0.048229,-0.014542,-0.014501,-0.00020717,-0.00036422,0.0003427,0,0,0,0.024084,2.1349e-05,-0.00012306,0.012104,0.0079943,0.024136,7.2218e-07,1,1,0
0.0016026,0.0011893,0.00099626,0.037567,0.010016,0.010622,0.0066871,-4.0589e-05,0.0059786,0.062752,-0.0088816,-0.0073055,0.034773,-0.00021106,0.031089,0,0,0,0.040638,0.010615,0.0069527,0.016843,0.019402,0.03204,1.7319e-06,0,0,0.05
0.0031376,0.0021444,0.0018474,0.033893,0.005695,0.0064078,0.0047864,1.0806e-05,0.0045858,0.060524,-0.01279,-0.010937,0.024889,5.6191e-05,0.023846,0,0,0,0.0358,0.0063915,0.0038034,0.015999,0.015332,0.030819,1.5474e-06,0.05,0,0.05
0.0060524,0.0037084,0.0033033,0.028525,0.0010539,0.0016221,0.0020003,0.00013653,0.0023836,0.055444,-0.01598,-0.014503,0.010402,0.00070997,0.012395,0,0,0,0.028991,0.0016283,0.00058174,0.014205,0.0104,0.027912,1.149e-06,0.1,0,0.05
0.008682,0.0047414,0.0043426,0.025669,0.00044612,0.00067907,0.00079867,0.0002075,0.0011795,0.050662,-0.014916,-0.014311,0.0041531,0.001079,0.0061336,0,0,0,0.025787,0.0007633,0.00024405,0.012771,0.0089313,0.025288,8.4037e-07,0.15,0,0.05
0.011119,0.0054672,0.0050949,0.02399,8.3714e-05,0.00019011,0.00032982,0.00018955,0.00057482,0.047816,-0.014341,-0.014064,0.0017151,0.00098564,0.0029891,0,0,0,0.02402,0.00032993,-8.5974e-05,0.012053,0.0080881,0.023901,7.0543e-07,0.2,0,0.05
0.013464,0.0059836,0.0056467,0.023275,-2.2147e-05,2.3168e-05,9.6762e-05,0.00015819,0.00024787,0.046549,-0.014023,-0.013905,0.00050317,0.00082258,0.0012889,0,0,0,0.023281,0.00016437,-0.00016983,0.011726,0.0077586,0.023286,6.5073e-07,0.25,0,0.05
0.015774,0.0063485,0.0060528,0.023059,-6.2584e-05,-4.4568e-05,-2.9942e-05,0.00012578,6.3426e-05,0.046182,-0.013934,-0.013887,-0.0001557,0.00065403,0.00032982,0,0,0,0.02306,7.6927e-05,-0.00018524,0.011623,0.0076505,0.023115,6.3577e-07,0.3,0,0.05
0.018082,0.0066004,0.0063502,0.023132,-7.3309e-05,-6.7051e-05,-0.00010155,9.6035e-05,-4.253e-05,0.046348,-0.013986,-0.013969,-0.00052806,0.00049938,-0.00022115,0,0,0,0.023133,2.8614e-05,-0.00016979,0.011651,0.0076639,0.023204,6.4273e-07,0.35,0,0.05
0.020408,0.0067686,0.0065661,0.023366,-7.3032e-05,-7.0158e-05,-0.00013842,6.9376e-05,-0.00010121,0.046818,-0.014124,-0.014116,-0.00071977,0.00036075,-0.00052629,0,0,0,0.023368,-1.2101e-06,-0.00014345,0.011756,0.007741,0.02344,6.6228e-07,0.4,0,0.05
0.022764,0.0068767,0.0067211,0.023679,-6.8565e-05,-6.4548e-05,-0.00015034,4.5892e-05,-0.00012949,0.047439,-0.014306,-0.014296,-0.00078179,0.00023864,-0.00067335,0,0,0,0.023681,-2.0694e-05,-0.00011433,0.011898,0.0078487,0.023749,6.8856e-07,0.45,0,0.05
0.025152,0.0069446,0.0068318,0.024014,-6.2816e-05,-5.5639e-05,-0.0001431,2.5977e-05,-0.00013729,0.0481,-0.014501,-0.014482,-0.00074414,0.00013508,-0.00071392,0,0,0,0.024016,-3.2753e-05,-8.7613e-05,0.012052,0.0079653,0.024076,7.1725e-07,0.5,0,0.05
0.027574,0.0069885,0.0069112,0.02433,-5.6675e-05,-4.6323e-05,-0.00012148,1.0329e-05,-0.0001312,0.048721,-0.014683,-0.014656,-0.00063171,5.3709e-05,-0.00068222,0,0,0,0.024331,-3.654e-05,-6.8023e-05,0.0122,0.0080755,0.024383,7.4488e-07,0.55,0,0.05
0.030024,0.007021,0.0069695,0.024597,-5.0187e-05,-3.8221e-05,-9.0548e-05,-3.5877e-07,-0.00011618,0.049247,-0.014836,-0.014805,-0.00047085,-1.8656e-06,-0.00060412,0,0,0,0.024598,-3.2749e-05,-5.6737e-05,0.012327,0.0081695,0.024643,7.6877e-07,0.6,0,0.05
0.032498,0.0070508,0.0070141,0.0248,-4.3222e-05,-3.2175e-05,-5.5856e-05,-5.7728e-06,-9.6355e-05,0.049646,-0.014947,-0.014919,-0.00029045,-3.0018e-05,-0.00050105,0,0,0,0.024801,-2.6748e-05,-4.928e-05,0.012425,0.0082417,0.024839,7.8719e-07,0.65,0,0.05
0.034989,0.0070829,0.0070501,0.024935,-3.5877e-05,-2.8485e-05,-2.2938e-05,-6.2555e-06,-7.516e-05,0.049909,-0.015016,-0.014997,-0.00011928,-3.2529e-05,-0.00039083,0,0,0,0.024936,-2.2883e-05,-4.1805e-05,0.012489,0.0082903,0.024968,7.9946e-07,0.7,0,0.05
0.037489,0.0071183,0.0070804,0.025008,-2.8578e-05,-2.7036e-05,3.5522e-06,-2.8383e-06,-5.5205e-05,0.050049,-0.015046,-0.015042,1.8472e-05,-1.4759e-05,-0.00028707,0,0,0,0.025008,-2.1036e-05,-3.4741e-05,0.012521,0.0083173,0.025036,8.0597e-07,0.75,0,0.05
0.039994,0.0071554,0.0071061,0.025031,-2.1932e-05,-2.7381e-05,2.059e-05,2.9634e-06,-3.8128e-05,0.050092,-0.015046,-0.01506,0.00010707,1.541e-05,-0.00019827,0,0,0,0.025031,-1.7651e-05,-3.1757e-05,0.012531,0.0083272,0.025056,8.079e-07,0.8,0,0.05
0.042498,0.0071907,0.0071272,0.025023,-1.649e-05,-2.884e-05,2.7159e-05,9.4881e-06,-2.4563e-05,0.050073,-0.015029,-0.015062,0.00014122,4.9338e-05,-0.00012773,0,0,0,0.025023,-1.0721e-05,-3.4675e-05,0.012529,0.0083259,0.025046,8.0693e-07,0.85,0,0.05
0.045001,0.0072199,0.0071431,0.025002,-1.2574e-05,-3.0638e-05,2.4156e-05,1.5251e-05,-1.4292e-05,0.050029,-0.015008,-0.015055,0.00012561,7.9305e-05,-7.4318e-05,0,0,0,0.025002,-3.3518e-06,-3.99e-05,0.012521,0.0083194,0.025023,8.0476e-07,0.9,0,0.05
0.047501,0.0072391,0.0071531,0.024982,-1.0261e-05,-3.2056e-05,2.07e-05,1.9146e-05,-3.1629e-06,0.049989,-0.01499,-0.015047,0.00010764,9.9558e-05,-1.6447e-05,0,0,0,0.024982,1.4593e-06,-4.3801e-05,0.012513,0.0083132,0.025003,8.0283e-07,0.95,0,0.05
0.048751,0.0072459,0.0071565,0.024974,-9.5018e-06,-3.2589e-05,2.0914e-05,2.0516e-05,3.5798e-06,0.049974,-0.014984,-0.015044,0.00010876,0.00010668,1.8615e-05,0,0,0,0.024974,3.1054e-06,-4.5221e-05,0.01251,0.0083107,0.024995,8.0208e-07,1,0,0.05
0.0014526,0.0010024,0.00099564,0.03485,0.0097523,0.0097425,0.0060294,-1.7676e-05,0.0059819,0.058002,-0.0072507,-0.0072761,0.031353,-9.1914e-05,0.031106,0,0,0,0.037782,0.010038,0.0065242,0.015629,0.018115,0.029682,1.394e-06,0,0.05,0.05
0.0029001,0.001862,0.0018502,0.032214,0.0059817,0.0059663,0.0046344,2.6906e-05,0.0045936,0.057259,-0.010945,-0.010985,0.024099,0.00013991,0.023887,0,0,0,0.034107,0.0063017,0.0037528,0.015177,0.014721,0.029196,1.3142e-06,0.05,0.05,0.05
0.0057259,0.0033313,0.0033138,0.028397,0.0016854,0.0016635,0.0024153,0.0001339,0.0023912,0.054785,-0.014666,-0.014723,0.012559,0.00069627,0.012434,0,0,0,0.028948,0.0019441,0.00085404,0.014047,0.010582,0.027578,1.0952e-06,0.1,0.05,0.05
0.0083786,0.0043711,0.0043578,0.026181,0.00080945,0.00078661,0.0011797,0.00020225,0.0011768,0.051405,-0.014562,-0.014621,0.0061344,0.0010517,0.0061196,0,0,0,0.026339,0.00098511,0.00045324,0.012943,0.0092591,0.025625,8.7187e-07,0.15,0.05,0.05
0.010866,0.0051074,0.0051094,0.024605,0.00032337,0.00030115,0.00054758,0.00019783,0.0005671,0.048836,-0.014297,-0.014355,0.0028474,0.0010287,0.0029489,0,0,0,0.024647,0.00050735,7.523e-05,0.012286,0.00841,0.024359,7.4647e-07,0.2,0.05,0.05
0.013262,0.0056304,0.0056586,0.023818,0.00012244,0.00010229,0.00020101,0.00017198,0.00024181,0.047501,-0.014107,-0.01416,0.0010452,0.00089431,0.0012574,0,0,0,0.023827,0.00028798,-7.2536e-05,0.01195,0.0080142,0.023722,6.8809e-07,0.25,0.05,0.05
0.015616,0.0059974,0.0060614,0.023508,2.6688e-05,1.0522e-05,4.289e-07,0.00014023,5.9379e-05,0.046994,-0.014058,-0.0141,2.2302e-06,0.00072922,0.00030877,0,0,0,0.02351,0.00016263,-0.00012701,0.011818,0.0078485,0.023493,6.6769e-07,0.3,0.05,0.05
0.017962,0.0062482,0.0063554,0.023491,-1.9238e-05,-2.9214e-05,-0.0001171,0.00010821,-4.5264e-05,0.047012,-0.014116,-0.014142,-0.00060893,0.0005627,-0.00023537,0,0,0,0.023492,8.5781e-05,-0.00013535,0.011814,0.0078143,0.023518,6.6931e-07,0.35,0.05,0.05
0.020318,0.0064133,0.0065677,0.023645,-4.2528e-05,-4.4247e-05,-0.00018063,7.7665e-05,-0.0001032,0.047342,-0.014245,-0.01425,-0.00093929,0.00040386,-0.00053664,0,0,0,0.023647,3.4344e-05,-0.00012326,0.011885,0.0078527,0.023692,6.8392e-07,0.4,0.05,0.05
0.022696,0.0065172,0.0067194,0.023888,-5.4862e-05,-4.7025e-05,-0.00020511,4.9577e-05,-0.00013089,0.047837,-0.014414,-0.014394,-0.0010666,0.0002578,-0.00068063,0,0,0,0.023891,-1.3683e-06,-0.00010338,0.011997,0.0079288,0.023944,7.0568e-07,0.45,0.05,0.05
0.025101,0.0065806,0.0068272,0.024164,-6.1376e-05,-4.41e-05,-0.00019971,2.5117e-05,-0.00013792,0.048392,-0.014595,-0.01455,-0.0010385,0.00013061,-0.00071718,0,0,0,0.024167,-2.3792e-05,-8.4536e-05,0.012126,0.0080197,0.024222,7.3032e-07,0.5,0.05,0.05
0.027535,0.0066202,0.0069044,0.024433,-6.3842e-05,-3.9068e-05,-0.00017196,5.7184e-06,-0.00013071,0.048928,-0.014764,-0.0147,-0.00089417,2.9736e-05,-0.00067969,0,0,0,0.024435,-3.1627e-05,-7.357e-05,0.012254,0.00811,0.024488,7.5449e-07,0.55,0.05,0.05
0.029994,0.0066491,0.0069613,0.024665,-6.2563e-05,-3.3964e-05,-0.0001296,-7.2979e-06,-0.00011429,0.049388,-0.014904,-0.014829,-0.00067394,-3.7949e-05,-0.0005943,0,0,0,0.024667,-2.812e-05,-6.9906e-05,0.012368,0.0081895,0.024716,7.7561e-07,0.6,0.05,0.05
0.032474,0.0066764,0.0070056,0.024845,-5.7583e-05,-2.9908e-05,-8.1004e-05,-1.3258e-05,-9.3003e-05,0.049742,-0.015004,-0.014932,-0.00042122,-6.8941e-05,-0.00048362,0,0,0,0.024846,-2.2328e-05,-6.5962e-05,0.012456,0.0082524,0.02489,7.9202e-07,0.65,0.05,0.05
0.034968,0.0067069,0.0070423,0.024966,-4.9417e-05,-2.7434e-05,-3.4378e-05,-1.2513e-05,-7.0591e-05,0.049979,-0.015062,-0.015005,-0.00017876,-6.5068e-05,-0.00036707,0,0,0,0.024967,-1.9966e-05,-5.7236e-05,0.012512,0.0082965,0.025005,8.0304e-07,0.7,0.05,0.05
0.037472,0.0067417,0.007074,0.025034,-3.9244e-05,-2.6654e-05,3.3936e-06,-6.4743e-06,-4.994e-05,0.050107,-0.015083,-0.01505,1.7647e-05,-3.3666e-05,-0.00025969,0,0,0,0.025034,-2.0508e-05,-4.5545e-05,0.01254,0.0083226,0.025067,8.0898e-07,0.75,0.05,0.05
0.039979,0.0067789,0.0071016,0.025058,-2.8641e-05,-2.7335e-05,2.7855e-05,2.7129e-06,-3.284e-05,0.05015,-0.015076,-0.015072,0.00014484,1.4107e-05,-0.00017077,0,0,0,0.025058,-1.8143e-05,-3.7936e-05,0.012548,0.0083341,0.025086,8.1087e-07,0.8,0.05,0.05
0.042487,0.0068146,0.0071247,0.025055,-1.9126e-05,-2.8961e-05,3.749e-05,1.2686e-05,-1.9933e-05,0.050139,-0.015054,-0.015079,0.00019495,6.5965e-05,-0.00010365,0,0,0,0.025055,-8.7289e-06,-3.945e-05,0.012547,0.0083356,0.025079,8.1016e-07,0.85,0.05,0.05
0.044993,0.0068443,0.0071423,0.025039,-1.1802e-05,-3.0851e-05,3.3561e-05,2.1345e-05,-1.0883e-05,0.050104,-0.015029,-0.015078,0.00017452,0.00011099,-5.659e-05,0,0,0,0.025039,2.8776e-06,-4.5595e-05,0.012542,0.0083321,0.025061,8.0836e-07,0.9,0.05,0.05
0.047497,0.0068641,0.0071535,0.025024,-7.2638e-06,-3.2323e-05,2.6363e-05,2.7144e-05,-9.6081e-07,0.050072,-0.015009,-0.015075,0.00013709,0.00014115,-4.9962e-06,0,0,0,0.025024,1.087e-05,-5.0495e-05,0.012537,0.0083281,0.025044,8.0673e-07,0.95,0.05,0.05
0.048749,0.006871,0.0071573,0.025018,-5.736e-06,-3.2876e-05,2.4205e-05,2.9175e-05,5.3066e-06,0.050059,-0.015002,-0.015073,0.00012587,0.00015171,2.7594e-05,0,0,0,0.025018,1.3641e-05,-5.2283e-05,0.012535,0.0083264,0.025037,8.061e-07,1,0.05,0.05
0.0012697,0.00072139,0.00099868,0.031486,0.0098921,0.0087773,0.0049678,1.2627e-05,0.0060161,0.051769,-0.0043735,-0.007272,0.025833,6.566e-05,0.031284,0,0,0,0.034191,0.0097431,0.0062206,0.013985,0.016718,0.026402,9.5109e-07,0,0.1,0.05
0.0025885,0.001407,0.0018623,0.029985,0.0069097,0.0055203,0.0043163,4.9502e-05,0.0046344,0.052511,-0.0074835,-0.011096,0.022445,0.00025741,0.024099,0,0,0,0.031846,0.0067002,0.0038683,0.013989,0.014138,0.026704,9.7618e-07,0.05,0.1,0.05
0.0052511,0.0026637,0.0033455,0.027908,0.0029821,0.0017236,0.0029961,0.00013348,0.002428,0.052992,-0.011815,-0.015087,0.01558,0.00069407,0.012626,0,0,0,0.028598,0.0027772,0.0012388,0.013679,0.010871,0.026645,9.6646e-07,0.1,0.1,0.05
0.0078877,0.0036607,0.0044032,0.0266,0.001529,0.00087113,0.0018174,0.00019974,0.0011875,0.051761,-0.013425,-0.015135,0.0094507,0.0010386,0.0061751,0,0,0,0.026839,0.0014736,0.00068832,0.013075,0.0096669,0.02577,8.7995e-07,0.15,0.1,0.05
0.010427,0.0043947,0.0051566,0.025378,0.00076835,0.00041495,0.00097736,0.00021699,0.00055712,0.050046,-0.013939,-0.014858,0.0050823,0.0011283,0.002897,0,0,0,0.02545,0.00084098,0.00026991,0.01259,0.0088537,0.024901,7.9419e-07,0.2,0.1,0.05
0.012892,0.0049208,0.0057009,0.024612,0.00038218,0.0001964,0.00043743,0.00020273,0.00022632,0.048878,-0.014121,-0.014604,0.0022746,0.0010542,0.0011768,0,0,0,0.02463,0.00050983,5.0873e-05,0.01229,0.008397,0.024354,7.4284e-07,0.25,0.1,0.05
0.015315,0.0052883,0.0060957,0.024222,0.00017608,8.2525e-05,9.5127e-05,0.0001733,4.3916e-05,0.04829,-0.014231,-0.014474,0.00049466,0.00090115,0.00022836,0,0,0,0.024226,0.00031081,-5.5379e-05,0.012141,0.0081604,0.0241,7.1975e-07,0.3,0.1,0.05
0.017721,0.0055359,0.00638,0.024095,6.1429e-05,2.3868e-05,-0.00011776,0.00013703,-5.9498e-05,0.048138,-0.014348,-0.014446,-0.00061238,0.00071256,-0.00030939,0,0,0,0.024096,0.00018142,-9.7742e-05,0.012097,0.00806,0.024056,7.1566e-07,0.35,0.1,0.05
0.020129,0.0056949,0.0065822,0.024135,-6.2951e-06,-5.7854e-06,-0.00024046,9.8108e-05,-0.00011611,0.048277,-0.01449,-0.014489,-0.0012504,0.00051016,-0.00060376,0,0,0,0.024138,9.1284e-05,-0.0001067,0.012122,0.0080409,0.024147,7.237e-07,0.4,0.1,0.05
0.022549,0.0057911,0.0067239,0.024274,-4.8845e-05,-1.9741e-05,-0.00029582,5.9486e-05,-0.00014211,0.048588,-0.01465,-0.014574,-0.0015383,0.00030933,-0.00073898,0,0,0,0.024278,2.7938e-05,-0.00010126,0.01219,0.0080684,0.024315,7.3887e-07,0.45,0.1,0.05
0.024988,0.0058461,0.0068227,0.024459,-7.6388e-05,-2.5373e-05,-0.00029899,2.4248e-05,-0.00014656,0.048979,-0.014813,-0.01468,-0.0015547,0.00012609,-0.00076209,0,0,0,0.024464,-9.6854e-06,-9.6936e-05,0.01228,0.0081191,0.024517,7.5729e-07,0.5,0.1,0.05
0.027447,0.0058779,0.0068928,0.024652,-9.2844e-05,-2.6812e-05,-0.00026276,-4.2444e-06,-0.00013559,0.049376,-0.014961,-0.014789,-0.0013664,-2.2071e-05,-0.00070505,0,0,0,0.024656,-2.1354e-05,-0.00010218,0.012379,0.0081775,0.024718,7.7588e-07,0.55,0.1,0.05
0.029925,0.0059005,0.0069453,0.024825,-9.9229e-05,-2.6379e-05,-0.00020037,-2.2997e-05,-0.00011447,0.049726,-0.015078,-0.014888,-0.0010419,-0.00011958,-0.00059523,0,0,0,0.024828,-1.7338e-05,-0.00011072,0.012469,0.0082332,0.024892,7.9226e-07,0.6,0.1,0.05
0.032419,0.0059233,0.0069881,0.024962,-9.6022e-05,-2.5405e-05,-0.00012597,-3.0332e-05,-8.8271e-05,0.049996,-0.015154,-0.01497,-0.00065504,-0.00015773,-0.00045901,0,0,0,0.024963,-1.2279e-05,-0.00011032,0.012537,0.00828,0.025024,8.0489e-07,0.65,0.1,0.05
0.034925,0.0059514,0.0070261,0.025054,-8.4632e-05,-2.4711e-05,-5.344e-05,-2.6584e-05,-6.169e-05,0.050174,-0.015187,-0.015031,-0.00027789,-0.00013824,-0.00032079,0,0,0,0.025055,-1.2913e-05,-9.6846e-05,0.012576,0.0083149,0.02511,8.1312e-07,0.7,0.1,0.05
0.037437,0.0059857,0.0070614,0.025105,-6.7789e-05,-2.48e-05,5.6805e-06,-1.4121e-05,-3.8432e-05,0.050266,-0.015184,-0.015072,2.9539e-05,-7.3427e-05,-0.00019985,0,0,0,0.025105,-1.786e-05,-7.4874e-05,0.01259,0.0083375,0.025152,8.1721e-07,0.75,0.1,0.05
0.039951,0.0060236,0.0070939,0.025123,-4.8992e-05,-2.5849e-05,4.3988e-05,3.3175e-06,-2.0701e-05,0.05029,-0.015156,-0.015096,0.00022874,1.7251e-05,-0.00010765,0,0,0,0.025123,-1.7519e-05,-5.746e-05,0.01259,0.0083493,0.02516,8.1807e-07,0.8,0.1,0.05
0.042466,0.0060607,0.0071222,0.025119,-3.156e-05,-2.7656e-05,5.8986e-05,2.1624e-05,-9.0796e-06,0.050274,-0.015118,-0.015108,0.00030673,0.00011245,-4.7214e-05,0,0,0,0.025119,-3.9773e-06,-5.5407e-05,0.012587,0.0083533,0.025149,8.1695e-07,0.85,0.1,0.05
0.044979,0.0060919,0.0071444,0.025106,-1.7908e-05,-2.9692e-05,5.2701e-05,3.7223e-05,-2.8342e-06,0.050241,-0.015082,-0.015112,0.00027405,0.00019356,-1.4738e-05,0,0,0,0.025106,1.5412e-05,-6.3145e-05,0.012585,0.0083528,0.02513,8.151e-07,0.9,0.1,0.05
0.04749,0.0061126,0.0071585,0.025094,-9.3732e-06,-3.1285e-05,3.7823e-05,4.7551e-05,4.3576e-06,0.050212,-0.015056,-0.015113,0.00019668,0.00024726,2.2659e-05,0,0,0,0.025094,2.9642e-05,-7.0373e-05,0.012582,0.0083511,0.025115,8.1356e-07,0.95,0.1,0.05
0.048745,0.0061199,0.0071634,0.025089,-6.4882e-06,-3.1886e-05,3.0901e-05,5.1148e-05,9.6122e-06,0.050201,-0.015047,-0.015113,0.00016068,0.00026597,4.9984e-05,0,0,0,0.025089,3.4657e-05,-7.3079e-05,0.012581,0.0083503,0.025109,8.1297e-07,1,0.1,0.05
0.0012218,0.00056503,0.0010071,0.030521,0.01041,0.008631,0.0041499,2.0452e-05,0.0060831,0.049617,-0.0026714,-0.0072964,0.021579,0.00010635,0.031632,0,0,0,0.033042,0.010159,0.0063606,0.013341,0.016521,0.02501,7.9652e-07,0,0.15,0.05
0.0024809,0.0011136,0.0018825,0.02916,0.007852,0.0055116,0.0038327,5.4473e-05,0.0047031,0.050301,-0.0050987,-0.011184,0.01993,0.00028326,0.024456,0,0,0,0.030937,0.0075086,0.0040783,0.013429,0.014174,0.02534,8.147e-07,0.05,0.15,0.05
0.0050301,0.0021498,0.0033904,0.027333,0.0041309,0.0017809,0.0030453,0.00012927,0.002489,0.051118,-0.0092064,-0.015316,0.015836,0.00067222,0.012943,0,0,0,0.02806,0.0037806,0.0014035,0.013329,0.011082,0.025578,8.3546e-07,0.1,0.15,0.05
0.0075927,0.0030286,0.0044676,0.026364,0.0022827,0.00085785,0.0021141,0.0001936,0.0012212,0.050844,-0.011768,-0.015473,0.010993,0.0010067,0.0063502,0,0,0,0.026654,0.0021136,0.0007373,0.012958,0.009835,0.025265,8.2069e-07,0.15,0.15,0.05
0.010115,0.0037135,0.0052284,0.02551,0.0012301,0.00041353,0.0012898,0.00022228,0.00056132,0.050035,-0.013094,-0.015217,0.0067069,0.0011559,0.0029188,0,0,0,0.025613,0.0012191,0.00032221,0.012645,0.0090513,0.024857,7.8673e-07,0.2,0.15,0.05
0.012596,0.0042183,0.00577,0.024941,0.00065464,0.00021081,0.00066664,0.00021957,0.00021318,0.049362,-0.013782,-0.014936,0.0034665,0.0011418,0.0011086,0,0,0,0.02497,0.00073566,0.00010034,0.012435,0.0086021,0.024559,7.6035e-07,0.25,0.15,0.05
0.015051,0.0045743,0.0061556,0.024617,0.00032711,0.00010302,0.00022892,0.00019566,2.271e-05,0.048976,-0.014178,-0.01476,0.0011904,0.0010174,0.00011809,0,0,0,0.024623,0.00044534,-2.1262e-05,0.012322,0.008349,0.024415,7.4749e-07,0.3,0.15,0.05
0.017494,0.0048134,0.0064269,0.024487,0.00013545,4.4836e-05,-6.3604e-05,0.00015838,-8.4148e-05,0.048866,-0.014448,-0.014684,-0.00033074,0.00082358,-0.00043757,0,0,0,0.024489,0.0002583,-8.0015e-05,0.012285,0.0082225,0.024402,7.4654e-07,0.35,0.15,0.05
0.019937,0.0049643,0.006614,0.024495,1.8455e-05,1.2995e-05,-0.00024383,0.00011304,-0.00014179,0.048971,-0.014668,-0.014682,-0.0012679,0.0005878,-0.00073733,0,0,0,0.024499,0.00013013,-0.00010255,0.012301,0.0081754,0.024486,7.5435e-07,0.4,0.15,0.05
0.022391,0.0050522,0.0067403,0.02459,-5.6275e-05,-4.3287e-06,-0.0003349,6.4363e-05,-0.00016675,0.049216,-0.014864,-0.014729,-0.0017415,0.00033469,-0.00086711,0,0,0,0.024596,4.3949e-05,-0.00011055,0.012353,0.0081765,0.02463,7.6771e-07,0.45,0.15,0.05
0.024859,0.0050993,0.0068248,0.02473,-0.00010506,-1.3736e-05,-0.00035421,1.7739e-05,-0.00016766,0.049532,-0.01504,-0.014803,-0.0018419,9.2241e-05,-0.00087182,0,0,0,0.024737,-8.3445e-07,-0.00012441,0.012431,0.0082039,0.0248,7.8364e-07,0.5,0.15,0.05
0.027344,0.0051241,0.0068834,0.024881,-0.00013483,-1.8749e-05,-0.00031792,-2.0803e-05,-0.00015046,0.049855,-0.015187,-0.014885,-0.0016532,-0.00010817,-0.00078238,0,0,0,0.024887,-9.6334e-06,-0.00014919,0.012518,0.0082426,0.024966,7.994e-07,0.55,0.15,0.05
0.029845,0.0051413,0.0069283,0.025016,-0.00014786,-2.1134e-05,-0.00024373,-4.5765e-05,-0.00012102,0.050134,-0.015293,-0.014963,-0.0012674,-0.00023798,-0.00062932,0,0,0,0.025019,-3.0124e-06,-0.00016924,0.012594,0.0082824,0.025106,8.1278e-07,0.6,0.15,0.05
0.032357,0.005161,0.0069682,0.025118,-0.00014539,-2.1877e-05,-0.00015115,-5.3887e-05,-8.5877e-05,0.050336,-0.015348,-0.015027,-0.000786,-0.00028021,-0.00044656,0,0,0,0.02512,1.0421e-06,-0.00016978,0.012645,0.0083169,0.025204,8.223e-07,0.65,0.15,0.05
0.034878,0.0051882,0.0070079,0.02518,-0.00013001,-2.1819e-05,-5.9501e-05,-4.5376e-05,-5.1545e-05,0.050451,-0.015355,-0.015074,-0.00030941,-0.00023596,-0.00026804,0,0,0,0.025181,-2.9665e-06,-0.00014931,0.012665,0.0083428,0.025257,8.2747e-07,0.7,0.15,0.05
0.037403,0.0052233,0.0070485,0.025205,-0.00010628,-2.1837e-05,1.5216e-05,-2.3926e-05,-2.3252e-05,0.050487,-0.015323,-0.015103,7.9122e-05,-0.00012442,-0.00012091,0,0,0,0.025205,-1.2247e-05,-0.00011602,0.012661,0.008359,0.02527,8.2873e-07,0.75,0.15,0.05
0.039927,0.0052632,0.0070886,0.025202,-7.9771e-05,-2.2608e-05,6.2914e-05,4.5143e-06,-3.8855e-06,0.050465,-0.015267,-0.015119,0.00032715,2.3474e-05,-2.0204e-05,0,0,0,0.025202,-1.3968e-05,-8.8633e-05,0.012645,0.0083665,0.025254,8.2718e-07,0.8,0.15,0.05
0.042449,0.0053028,0.0071249,0.025183,-5.5509e-05,-2.4287e-05,8.0395e-05,3.3545e-05,6.1926e-06,0.050414,-0.015206,-0.015125,0.00041805,0.00017443,3.2201e-05,0,0,0,0.025183,2.5499e-06,-8.2641e-05,0.012633,0.0083678,0.025224,8.2421e-07,0.85,0.15,0.05
0.044968,0.0053362,0.0071539,0.02516,-3.6852e-05,-2.6422e-05,7.055e-05,5.7804e-05,8.5158e-06,0.050358,-0.015154,-0.015127,0.00036686,0.00030058,4.4282e-05,0,0,0,0.02516,2.8332e-05,-9.184e-05,0.012626,0.0083656,0.025192,8.2112e-07,0.9,0.15,0.05
0.047485,0.0053584,0.0071727,0.025143,-2.5388e-05,-2.8204e-05,4.8352e-05,7.3652e-05,1.196e-05,0.050317,-0.015119,-0.015127,0.00025143,0.00038299,6.2191e-05,0,0,0,0.025143,4.8063e-05,-0.00010178,0.012622,0.008363,0.02517,8.1889e-07,0.95,0.15,0.05
0.048743,0.0053662,0.0071791,0.025136,-2.1553e-05,-2.8895e-05,3.7214e-05,7.9133e-05,1.59e-05,0.050302,-0.015107,-0.015126,0.00019351,0.00041149,8.2682e-05,0,0,0,0.025136,5.5089e-05,-0.00010561,0.012621,0.0083619,0.025162,8.1808e-07,1,0.15,0.05
0.0012004,0.00045426,0.0010171,0.030051,0.010575,0.0085396,0.0033917,2.1057e-05,0.0061565,0.048633,-0.0020036,-0.0072968,0.017637,0.0001095,0.032014,0,0,0,0.032408,0.010375,0.0063833,0.013012,0.016389,0.02429,7.2171e-07,0,0.2,0.05
0.0024317,0.00089713,0.0019047,0.028741,0.0083047,0.0055022,0.0032132,5.1412e-05,0.0047742,0.049197,-0.0039364,-0.011223,0.016709,0.00026734,0.024826,0,0,0,0.030391,0.0080209,0.0041362,0.013127,0.014183,0.024562,7.2629e-07,0.05,0.2,0.05
0.0049197,0.0017431,0.0034375,0.026982,0.0049043,0.0018401,0.0027296,0.00011701,0.0025512,0.049916,-0.0074845,-0.015451,0.014194,0.00060847,0.013266,0,0,0,0.027658,0.004593,0.001475,0.013091,0.011242,0.024794,7.4207e-07,0.1,0.2,0.05
0.0074233,0.002484,0.0045357,0.026103,0.0029869,0.00088194,0.0020694,0.00017575,0.0012637,0.049885,-0.010217,-0.01569,0.010761,0.00091392,0.0065713,0,0,0,0.026393,0.0028036,0.00077573,0.012808,0.0099907,0.024675,7.5386e-07,0.15,0.2,0.05
0.0099083,0.0030853,0.0053073,0.025418,0.001732,0.00041272,0.0013889,0.00020843,0.00057922,0.049548,-0.012034,-0.015464,0.0072223,0.0010838,0.003012,0,0,0,0.025532,0.0016766,0.00035373,0.012589,0.0091874,0.024548,7.5311e-07,0.2,0.2,0.05
0.012378,0.0035426,0.0058494,0.025011,0.00098217,0.00020928,0.00080116,0.00021416,0.00021125,0.049307,-0.013168,-0.015177,0.0041661,0.0011136,0.0010985,0,0,0,0.025048,0.0010154,0.00013835,0.012455,0.0087341,0.024485,7.5167e-07,0.25,0.2,0.05
0.014839,0.0038705,0.0062272,0.02479,0.00052753,0.00010653,0.00034376,0.00019709,7.0849e-06,0.0492,-0.013883,-0.014978,0.0017875,0.0010249,3.6842e-05,0,0,0,0.024799,0.00060831,1.661e-05,0.012391,0.0084748,0.024493,7.5401e-07,0.3,0.2,0.05
0.017298,0.0040911,0.0064848,0.024712,0.0002482,5.2274e-05,1.3671e-05,0.00016193,-0.00010886,0.049243,-0.014362,-0.014871,7.1088e-05,0.00084205,-0.00056607,0,0,0,0.024714,0.00034597,-4.7946e-05,0.012381,0.0083373,0.024568,7.6154e-07,0.35,0.2,0.05
0.019763,0.0042282,0.0066545,0.024737,7.2197e-05,2.21e-05,-0.00020388,0.00011321,-0.00017206,0.049416,-0.014711,-0.014841,-0.0010602,0.00058867,-0.00089473,0,0,0,0.02474,0.00016911,-7.86e-05,0.012409,0.0082769,0.024696,7.738e-07,0.4,0.2,0.05
0.02224,0.0043047,0.0067617,0.024831,-4.2124e-05,4.2804e-06,-0.00032392,5.6442e-05,-0.00019885,0.049684,-0.014985,-0.014865,-0.0016844,0.0002935,-0.001034,0,0,0,0.024837,5.6769e-05,-0.00010089,0.012469,0.0082643,0.02486,7.893e-07,0.45,0.2,0.05
0.024732,0.0043421,0.006828,0.024961,-0.00011747,-7.2152e-06,-0.00036064,-7.7035e-07,-0.00019701,0.049997,-0.015207,-0.014921,-0.0018754,-4.0059e-06,-0.0010245,0,0,0,0.024968,8.2958e-06,-0.00014005,0.012554,0.0082788,0.025034,8.0597e-07,0.5,0.2,0.05
0.027239,0.0043592,0.0068714,0.025096,-0.0001645,-1.4947e-05,-0.00033001,-4.9155e-05,-0.00017217,0.0503,-0.015378,-0.014989,-0.0017161,-0.0002556,-0.00089529,0,0,0,0.025102,6.5174e-06,-0.00019179,0.012647,0.0083055,0.025195,8.2144e-07,0.55,0.2,0.05
0.029762,0.0043712,0.0069064,0.02521,-0.00018734,-1.9549e-05,-0.0002519,-7.9823e-05,-0.0001312,0.050545,-0.015489,-0.015053,-0.0013099,-0.00041508,-0.00068222,0,0,0,0.025214,1.7254e-05,-0.00022769,0.012721,0.0083345,0.02532,8.3356e-07,0.6,0.2,0.05
0.032294,0.0043885,0.0069428,0.025287,-0.00018849,-2.1187e-05,-0.00014981,-8.7241e-05,-8.3071e-05,0.0507,-0.015537,-0.015102,-0.000779,-0.00045366,-0.00043197,0,0,0,0.025289,2.0061e-05,-0.00023123,0.01276,0.0083591,0.025395,8.4095e-07,0.65,0.2,0.05
0.034832,0.0044159,0.0069854,0.025321,-0.0001721,-2.062e-05,-4.7621e-05,-7.14e-05,-3.7396e-05,0.050757,-0.015524,-0.01513,-0.00024763,-0.00037128,-0.00019446,0,0,0,0.025321,1.1264e-05,-0.00020439,0.012763,0.008376,0.025418,8.433e-07,0.7,0.2,0.05
0.03737,0.0044534,0.0070341,0.025316,-0.00014484,-1.9347e-05,3.4894e-05,-3.7835e-05,-1.8666e-06,0.05073,-0.015468,-0.015141,0.00018145,-0.00019674,-9.7061e-06,0,0,0,0.025316,-3.9215e-06,-0.00016048,0.012738,0.0083839,0.025399,8.4144e-07,0.75,0.2,0.05
0.039905,0.0044969,0.007085,0.025285,-0.00011439,-1.891e-05,8.5702e-05,4.5384e-06,1.9634e-05,0.050651,-0.015389,-0.01514,0.00044565,2.36e-05,0.0001021,0,0,0,0.025286,-8.3856e-06,-0.00012532,0.012706,0.008384,0.025353,8.3693e-07,0.8,0.2,0.05
0.042435,0.00454,0.0071326,0.025244,-8.7175e-05,-2.0022e-05,0.00010153,4.646e-05,2.7267e-05,0.050552,-0.015309,-0.015134,0.00052797,0.00024159,0.00014179,0,0,0,0.025244,1.0841e-05,-0.00011854,0.012681,0.0083788,0.025298,8.3152e-07,0.85,0.2,0.05
0.04496,0.0045765,0.0071713,0.025204,-6.695e-05,-2.224e-05,8.6406e-05,8.0644e-05,2.3954e-05,0.050462,-0.015243,-0.015127,0.00044931,0.00041935,0.00012456,0,0,0,0.025205,4.2012e-05,-0.00013158,0.012668,0.0083717,0.02525,8.267e-07,0.9,0.2,0.05
0.047481,0.0046007,0.0071965,0.025177,-5.4937e-05,-2.4369e-05,5.7416e-05,0.00010257,2.2239e-05,0.050402,-0.015202,-0.015122,0.00029856,0.00053339,0.00011564,0,0,0,0.025177,6.5918e-05,-0.00014541,0.012661,0.008366,0.025218,8.2348e-07,0.95,0.2,0.05
0.048741,0.0046092,0.0072052,0.025168,-5.1005e-05,-2.5237e-05,4.2847e-05,0.00011009,2.4437e-05,0.050381,-0.015187,-0.01512,0.00022281,0.00057244,0.00012707,0,0,0,0.025168,7.4396e-05,-0.00015075,0.012659,0.0083638,0.025207,8.2235e-07,1,0.2,0.05
0.0011913,0.00036468,0.0010278,0.029834,0.010662,0.0084982,0.0027453,2.1379e-05,0.0062312,0.048173,-0.0016763,-0.0073013,0.014275,0.00011117,0.032402,0,0,0,0.032074,0.010519,0.006401,0.012837,0.016331,0.0239,6.8256e-07,0,0.25,0.05
0.0024086,0.00071998,0.0019273,0.028527,0.0085474,0.0054977,0.0026317,4.8973e-05,0.0048441,0.048627,-0.0033199,-0.011249,0.013685,0.00025466,0.025189,0,0,0,0.03007,0.008342,0.0041597,0.012955,0.014191,0.024111,6.7583e-07,0.05,0.25,0.05
0.0048627,0.0014014,0.0034837,0.026763,0.0053722,0.0018736,0.0023113,0.00010725,0.0026107,0.049179,-0.0064378,-0.015534,0.012019,0.00055772,0.013576,0,0,0,0.027368,0.0051377,0.0015034,0.012932,0.011336,0.024271,6.8041e-07,0.1,0.25,0.05
0.0073266,0.0020069,0.004602,0.025901,0.0035041,0.00090707,0.0018446,0.00016006,0.0013084,0.049155,-0.0090764,-0.015829,0.009592,0.00083231,0.0068035,0,0,0,0.02616,0.0033519,0.00080023,0.01268,0.010104,0.024194,6.9982e-07,0.15,0.25,0.05
0.0097781,0.0025101,0.0053855,0.025283,0.0021711,0.0004216,0.0013211,0.00019304,0.00060499,0.04901,-0.01108,-0.015629,0.0068696,0.0010038,0.003146,0,0,0,0.025391,0.0021097,0.00037522,0.012508,0.0092919,0.0242,7.1593e-07,0.2,0.25,0.05
0.012228,0.0029015,0.00593,0.024969,0.0013044,0.00021011,0.00082393,0.00020335,0.00021916,0.049029,-0.012499,-0.015344,0.0042844,0.0010574,0.0011396,0,0,0,0.025008,0.001313,0.00016256,0.012423,0.0088279,0.024293,7.3169e-07,0.25,0.25,0.05
0.014681,0.003186,0.0063016,0.024834,0.000745,0.0001074,0.00040252,0.00019127,-3.7706e-07,0.049156,-0.013475,-0.015132,0.0020931,0.00099459,-1.9609e-06,0,0,0,0.024844,0.00079617,4.545e-05,0.012399,0.008562,0.024433,7.4757e-07,0.3,0.25,0.05
0.017143,0.0033772,0.0065458,0.024816,0.00038545,5.5759e-05,7.572e-05,0.000158,-0.00012916,0.049367,-0.014152,-0.015009,0.00039375,0.00082161,-0.00067165,0,0,0,0.024819,0.00045423,-1.5972e-05,0.012417,0.008419,0.024604,7.6458e-07,0.35,0.25,0.05
0.019618,0.0034932,0.0066967,0.02488,0.00015251,2.7434e-05,-0.00015373,0.00010603,-0.00020225,0.049653,-0.01464,-0.014965,-0.00079942,0.00055135,-0.0010517,0,0,0,0.024884,0.00022096,-4.4685e-05,0.012464,0.0083534,0.024797,7.8324e-07,0.4,0.25,0.05
0.022108,0.0035537,0.0067822,0.024999,-7.3466e-07,9.2162e-06,-0.0002894,4.0695e-05,-0.00023448,0.049992,-0.015006,-0.01498,-0.0015049,0.00021161,-0.0012193,0,0,0,0.025005,7.7257e-05,-7.4933e-05,0.01254,0.0083357,0.025004,8.031e-07,0.45,0.25,0.05
0.024617,0.0035786,0.0068269,0.025142,-0.00010236,-4.9839e-06,-0.00033852,-2.8451e-05,-0.00023171,0.050349,-0.015287,-0.015034,-0.0017603,-0.00014795,-0.0012049,0,0,0,0.025149,2.5745e-05,-0.0001402,0.012645,0.0083449,0.025207,8.2267e-07,0.5,0.25,0.05
0.027143,0.0035863,0.0068521,0.025281,-0.00016699,-1.6463e-05,-0.00031369,-8.8266e-05,-0.00019853,0.050673,-0.015493,-0.015102,-0.0016312,-0.00045898,-0.0010323,0,0,0,0.025287,3.2666e-05,-0.00022196,0.012755,0.008366,0.025383,8.3975e-07,0.55,0.25,0.05
0.029684,0.0035924,0.0068754,0.02539,-0.00020123,-2.3877e-05,-0.00023477,-0.00012538,-0.00014306,0.050915,-0.015622,-0.015161,-0.0012208,-0.00065197,-0.00074392,0,0,0,0.025393,4.7526e-05,-0.00027603,0.012835,0.0083882,0.025509,8.5212e-07,0.6,0.25,0.05
0.032235,0.0036073,0.0069086,0.02545,-0.00020936,-2.5873e-05,-0.00012789,-0.00013114,-7.7944e-05,0.051042,-0.015673,-0.015196,-0.00066501,-0.00068191,-0.00040531,0,0,0,0.025452,4.7904e-05,-0.00028442,0.012868,0.0084051,0.025572,8.5835e-07,0.65,0.25,0.05
0.034788,0.0036358,0.0069562,0.025459,-0.00019728,-2.3092e-05,-2.0727e-05,-0.0001053,-1.7457e-05,0.05105,-0.015656,-0.015203,-0.00010778,-0.00054755,-9.0779e-05,0,0,0,0.025459,3.1574e-05,-0.00025229,0.012856,0.0084129,0.025571,8.584e-07,0.7,0.25,0.05
0.03734,0.0036765,0.0070163,0.025424,-0.00017348,-1.8321e-05,6.3868e-05,-5.6063e-05,2.7047e-05,0.050964,-0.015591,-0.015187,0.00033212,-0.00029153,0.00014064,0,0,0,0.025425,7.3799e-06,-0.00019958,0.012812,0.0084108,0.025522,8.5361e-07,0.75,0.25,0.05
0.039885,0.0037244,0.0070822,0.025364,-0.00014706,-1.4841e-05,0.0001127,3.5535e-06,5.0457e-05,0.050825,-0.015504,-0.01516,0.00058604,1.8478e-05,0.00026237,0,0,0,0.025365,-1.1796e-06,-0.00016146,0.012763,0.0084006,0.025446,8.4617e-07,0.8,0.25,0.05
0.042422,0.0037719,0.0071451,0.025297,-0.00012485,-1.4425e-05,0.00012322,6.0663e-05,5.4059e-05,0.050677,-0.015419,-0.015132,0.00064077,0.00031545,0.00028111,0,0,0,0.025298,2.1008e-05,-0.0001611,0.012729,0.0083858,0.025368,8.3835e-07,0.85,0.25,0.05
0.044953,0.0038118,0.0071965,0.025239,-0.00010981,-1.6556e-05,0.00010107,0.00010594,4.3043e-05,0.050554,-0.015353,-0.015111,0.00052557,0.00055086,0.00022382,0,0,0,0.02524,5.7006e-05,-0.00018394,0.012712,0.0083709,0.025304,8.3189e-07,0.9,0.25,0.05
0.047478,0.0038383,0.00723,0.025201,-0.00010176,-1.9221e-05,6.539e-05,0.00013434,3.4862e-05,0.050475,-0.015313,-0.015098,0.00034003,0.00069856,0.00018128,0,0,0,0.025201,8.3602e-05,-0.00020486,0.012703,0.00836,0.025263,8.2775e-07,0.95,0.25,0.05
0.048739,0.0038475,0.0072416,0.025188,-9.9315e-05,-2.0386e-05,4.7861e-05,0.00014395,3.5056e-05,0.050448,-0.015299,-0.015094,0.00024887,0.00074852,0.00018229,0,0,0,0.025188,9.2813e-05,-0.00021267,0.0127,0.008356,0.02525,8.2635e-07,1,0.25,0.05
0.0011879,0.00028663,0.0010385,0.029751,0.010724,0.0084881,0.002167,2.1605e-05,0.0063049,0.047976,-0.0014964,-0.007309,0.011268,0.00011235,0.032786,0,0,0,0.031911,0.01063,0.0064225,0.012744,0.016321,0.023689,6.6134e-07,0,0.3,0.05
0.0023988,0.00056514,0.0019493,0.028434,0.0086966,0.0055035,0.0020906,4.7361e-05,0.0049115,0.048347,-0.0029691,-0.011271,0.010871,0.00024628,0.02554,0,0,0,0.029896,0.0085602,0.0041772,0.01286,0.014211,0.023851,6.4631e-07,0.05,0.3,0.05
0.0048347,0.0010993,0.0035277,0.026642,0.0056602,0.0018958,0.0018705,0.00010035,0.0026669,0.04875,-0.0058022,-0.01559,0.0097264,0.00052183,0.013868,0,0,0,0.027179,0.0055006,0.0015176,0.012831,0.011399,0.023936,6.4072e-07,0.1,0.3,0.05
0.0072738,0.0015763,0.0046646,0.025762,0.0038511,0.00092594,0.0015397,0.00014805,0.001353,0.048658,-0.0083107,-0.015916,0.0080062,0.00076984,0.0070359,0,0,0,0.025982,0.0037422,0.00081506,0.012584,0.01018,0.023848,6.6104e-07,0.15,0.3,0.05
0.0097006,0.0019773,0.0054597,0.025165,0.0025007,0.00043277,0.0011506,0.00018007,0.00063575,0.048569,-0.010357,-0.015734,0.0059833,0.00093636,0.0033059,0,0,0,0.025255,0.002452,0.00039044,0.012433,0.009366,0.023907,6.8478e-07,0.2,0.3,0.05
0.012131,0.0022928,0.0060075,0.024896,0.0015724,0.00021575,0.00075724,0.00019306,0.00023524,0.048719,-0.011922,-0.01545,0.0039376,0.0010039,0.0012233,0,0,0,0.02493,0.0015744,0.00017964,0.012375,0.0088947,0.024087,7.1052e-07,0.25,0.3,0.05
0.014573,0.002523,0.0063739,0.024814,0.00094265,0.00011195,0.00040093,0.00018459,7.307e-07,0.048996,-0.013071,-0.01523,0.0020849,0.00095988,3.7993e-06,0,0,0,0.024825,0.00097787,6.6441e-05,0.012379,0.008623,0.024317,7.3583e-07,0.3,0.3,0.05
0.01703,0.0026759,0.0066049,0.024847,0.0005233,6.1766e-05,0.00010684,0.00015263,-0.00014303,0.049342,-0.013898,-0.015098,0.00055557,0.0007937,-0.00074377,0,0,0,0.02485,0.00057168,1.0212e-05,0.01242,0.0084773,0.024565,7.6056e-07,0.35,0.3,0.05
0.019507,0.0027642,0.006736,0.024953,0.00024665,3.4213e-05,-0.00011177,9.6982e-05,-0.00022973,0.049737,-0.014499,-0.015051,-0.00058121,0.0005043,-0.0011946,0,0,0,0.024956,0.00028924,-1.2109e-05,0.012484,0.0084112,0.02482,7.8527e-07,0.4,0.3,0.05
0.022004,0.0028041,0.0067976,0.025104,6.426e-05,1.3675e-05,-0.00024838,2.2006e-05,-0.00027131,0.050162,-0.014942,-0.015074,-0.0012916,0.00011443,-0.0014108,0,0,0,0.025111,0.00011634,-4.4512e-05,0.012578,0.0083941,0.025075,8.0995e-07,0.45,0.3,0.05
0.024523,0.0028134,0.0068176,0.025274,-5.6114e-05,-6.3991e-06,-0.00030217,-6.1017e-05,-0.00027003,0.050585,-0.015273,-0.015144,-0.0015713,-0.00031729,-0.0014042,0,0,0,0.025281,6.0824e-05,-0.00013037,0.012706,0.0084038,0.025317,8.3336e-07,0.5,0.3,0.05
0.027063,0.0028099,0.0068219,0.02543,-0.00013337,-2.5268e-05,-0.00028052,-0.00013447,-0.00022832,0.050955,-0.01551,-0.015228,-0.0014587,-0.00069924,-0.0011872,0,0,0,0.025436,7.4501e-05,-0.00023879,0.012837,0.0084238,0.02552,8.5316e-07,0.55,0.3,0.05
0.029618,0.002809,0.0068322,0.025543,-0.00017754,-3.7903e-05,-0.00020158,-0.00017935,-0.00015554,0.051216,-0.015658,-0.015295,-0.0010482,-0.0009326,-0.00080882,0,0,0,0.025546,9.1869e-05,-0.00031038,0.012928,0.0084426,0.025658,8.6682e-07,0.6,0.3,0.05
0.032184,0.0028211,0.0068625,0.025595,-0.00019536,-4e-05,-9.286e-05,-0.00018299,-6.9373e-05,0.051331,-0.015724,-0.01532,-0.00048287,-0.00095156,-0.00036074,0,0,0,0.025596,8.7433e-05,-0.00032382,0.01296,0.0084532,0.025717,8.7274e-07,0.65,0.3,0.05
0.034752,0.0028503,0.0069178,0.025583,-0.00019443,-3.2096e-05,1.5107e-05,-0.00014496,9.2428e-06,0.051301,-0.015719,-0.015297,7.8558e-05,-0.00075378,4.8063e-05,0,0,0,0.025583,5.9475e-05,-0.00028639,0.012935,0.0084521,0.025699,8.7109e-07,0.7,0.3,0.05
0.037314,0.0028944,0.0069937,0.02552,-0.0001841,-1.9723e-05,9.7242e-05,-7.7064e-05,6.3898e-05,0.051162,-0.015668,-0.015241,0.00050566,-0.00040073,0.00033227,0,0,0,0.025521,2.2274e-05,-0.00022688,0.012874,0.0084387,0.025624,8.6384e-07,0.75,0.3,0.05
0.039868,0.0029465,0.0070793,0.02543,-0.00017332,-9.7019e-06,0.00014009,2.3438e-06,8.8175e-05,0.050971,-0.015599,-0.015174,0.00072844,1.2188e-05,0.00045851,0,0,0,0.025432,8.3307e-06,-0.00019261,0.012812,0.0084158,0.025525,8.5393e-07,0.8,0.3,0.05
0.042411,0.0029981,0.0071618,0.025339,-0.00016745,-5.826e-06,0.00014267,7.601e-05,8.5498e-05,0.050782,-0.015535,-0.015114,0.00074187,0.00039525,0.00044459,0,0,0,0.02534,3.3914e-05,-0.00020844,0.012774,0.0083885,0.025428,8.4421e-07,0.85,0.3,0.05
0.044946,0.0030412,0.0072292,0.025264,-0.000167,-7.3814e-06,0.00011272,0.00013262,6.4551e-05,0.050632,-0.015488,-0.015073,0.00058614,0.00068962,0.00033567,0,0,0,0.025265,7.3868e-05,-0.00024905,0.012757,0.0083631,0.025354,8.3661e-07,0.9,0.3,0.05
0.047475,0.0030694,0.007273,0.025216,-0.00016904,-1.0787e-05,7.1193e-05,0.00016722,4.8996e-05,0.05054,-0.015461,-0.01505,0.0003702,0.00086953,0.00025478,0,0,0,0.025216,0.00010126,-0.00028146,0.012749,0.0083454,0.025309,8.3197e-07,0.95,0.3,0.05
0.048738,0.0030793,0.0072882,0.0252,-0.0001702,-1.2412e-05,5.1437e-05,0.00017874,4.7251e-05,0.050509,-0.015453,-0.015043,0.00026747,0.00092946,0.00024571,0,0,0,0.0252,0.00011034,-0.00029317,0.012747,0.0083391,0.025294,8.3043e-07,1,0.3,0.05
0.0011878,0.00021503,0.0010489,0.029745,0.010773,0.0084962,0.0016302,2.1443e-05,0.0063755,0.047928,-0.0013987,-0.0073183,0.0084769,0.0001115,0.033153,0,0,0,0.031852,0.010717,0.0064449,0.012704,0.016338,0.023589,6.5079e-07,0,0.35,0.05
0.0023964,0.00042307,0.0019701,0.028413,0.0087921,0.0055166,0.0015784,4.5518e-05,0.0049754,0.048241,-0.0027737,-0.01129,0.0082076,0.00023669,0.025872,0,0,0,0.029819,0.0087105,0.0041923,0.012814,0.014241,0.023714,6.2988e-07,0.05,0.35,0.05
0.0048241,0.00082114,0.0035686,0.026588,0.005834,0.0019131,0.0014276,9.3932e-05,0.0027199,0.048528,-0.0054329,-0.015627,0.0074236,0.00048844,0.014144,0,0,0,0.027072,0.0057374,0.0015257,0.012773,0.011445,0.023737,6.1653e-07,0.1,0.35,0.05
0.0072492,0.0011758,0.004722,0.025682,0.004068,0.00094065,0.0011981,0.00013712,0.0013973,0.048359,-0.0078376,-0.015969,0.00623,0.00071301,0.0072659,0,0,0,0.025865,0.0040008,0.00082467,0.01252,0.01023,0.023622,6.3571e-07,0.15,0.35,0.05
0.00966,0.0014744,0.0055279,0.025081,0.0027196,0.00044408,0.00092103,0.00016783,0.00067036,0.048263,-0.0098758,-0.015792,0.0047893,0.0008727,0.0034859,0,0,0,0.025152,0.0026897,0.00040243,0.012375,0.0094148,0.023695,6.625e-07,0.2,0.35,0.05
0.012076,0.0017093,0.0060792,0.024829,0.0017632,0.00022536,0.00062833,0.00018275,0.00025876,0.048464,-0.011506,-0.015504,0.0032673,0.00095029,0.0013456,0,0,0,0.024855,0.0017673,0.00019487,0.01233,0.008939,0.023916,6.9332e-07,0.25,0.35,0.05
0.014506,0.0018789,0.0064409,0.024775,0.001094,0.00012239,0.0003491,0.00017755,1.081e-05,0.04882,-0.01275,-0.015276,0.0018153,0.00092324,5.621e-05,0,0,0,0.024783,0.0011223,8.5822e-05,0.012349,0.0086637,0.024198,7.2403e-07,0.3,0.35,0.05
0.016958,0.0019874,0.0066591,0.024839,0.00063928,7.417e-05,0.00010582,0.00014721,-0.00014887,0.04925,-0.013669,-0.015139,0.00055026,0.00076548,-0.00077413,0,0,0,0.024842,0.00067635,3.4118e-05,0.012404,0.0085176,0.024495,7.5368e-07,0.35,0.35,0.05
0.019431,0.0020433,0.0067699,0.024978,0.00033867,4.6456e-05,-8.4577e-05,8.8508e-05,-0.00025223,0.049725,-0.014337,-0.015097,-0.0004398,0.00046024,-0.0013116,0,0,0,0.024982,0.00036582,1.5414e-05,0.012483,0.0084544,0.024794,7.8271e-07,0.4,0.35,0.05
0.02193,0.0020595,0.0068056,0.025162,0.00014387,2.0352e-05,-0.000209,4.2143e-06,-0.00030707,0.050226,-0.014822,-0.015143,-0.0010868,2.1915e-05,-0.0015968,0,0,0,0.025168,0.00017757,-1.9608e-05,0.012594,0.0084421,0.02509,8.1135e-07,0.45,0.35,0.05
0.024454,0.0020513,0.0067983,0.025361,1.871e-05,-1.1456e-05,-0.00025952,-9.3033e-05,-0.00031021,0.050717,-0.015172,-0.015251,-0.0013495,-0.00048377,-0.0016131,0,0,0,0.025368,0.00011932,-0.00011916,0.012744,0.008456,0.025369,8.3843e-07,0.5,0.35,0.05
0.027002,0.0020354,0.0067791,0.025539,-6.0943e-05,-4.4548e-05,-0.00023793,-0.00018086,-0.00026032,0.051142,-0.015419,-0.015376,-0.0012372,-0.00094045,-0.0013537,0,0,0,0.025545,0.00013603,-0.00024702,0.012896,0.008478,0.025603,8.6127e-07,0.55,0.35,0.05
0.029568,0.0020266,0.0067749,0.025664,-0.00011003,-6.7038e-05,-0.00015963,-0.00023402,-0.00016794,0.051433,-0.015578,-0.015466,-0.00083008,-0.0012169,-0.00087328,0,0,0,0.025666,0.00015336,-0.00033318,0.013,0.0084955,0.02576,8.7676e-07,0.6,0.35,0.05
0.032145,0.002035,0.0068034,0.025712,-0.00013892,-6.9171e-05,-5.2187e-05,-0.00023549,-5.7171e-05,0.051549,-0.015663,-0.015482,-0.00027137,-0.0012245,-0.00029729,0,0,0,0.025713,0.00014064,-0.00034957,0.013031,0.0085012,0.025821,8.8297e-07,0.65,0.35,0.05
0.034723,0.0020638,0.0068695,0.025683,-0.00015665,-5.1394e-05,5.2415e-05,-0.00018468,4.226e-05,0.05149,-0.015692,-0.015418,0.00027256,-0.00096032,0.00021975,0,0,0,0.025683,9.5811e-05,-0.00030447,0.012994,0.0084916,0.025791,8.8022e-07,0.7,0.35,0.05
0.037294,0.0021097,0.0069656,0.025595,-0.0001717,-2.4531e-05,0.00012808,-9.75e-05,0.00010746,0.051308,-0.015686,-0.015303,0.000666,-0.000507,0.00055879,0,0,0,0.025597,4.1243e-05,-0.00023887,0.012918,0.0084664,0.025697,8.7112e-07,0.75,0.35,0.05
0.039854,0.0021645,0.0070758,0.02548,-0.00019043,-2.1499e-06,0.000162,1.6787e-06,0.00013078,0.051076,-0.015668,-0.015178,0.00084239,8.7288e-06,0.00068005,0,0,0,0.025482,2.1185e-05,-0.00021571,0.012849,0.0084292,0.02558,8.5946e-07,0.8,0.35,0.05
0.042402,0.0022185,0.0071819,0.025368,-0.00021427,8.2685e-06,0.00015544,9.0898e-05,0.00011915,0.050859,-0.015654,-0.015076,0.00080829,0.00047267,0.00061957,0,0,0,0.02537,5.0441e-05,-0.00025818,0.012814,0.0083873,0.025475,8.4869e-07,0.85,0.35,0.05
0.04494,0.0022631,0.0072683,0.025279,-0.00023915,8.005e-06,0.00011848,0.00015722,8.6278e-05,0.050697,-0.015651,-0.015008,0.00061608,0.00081756,0.00044865,0,0,0,0.02528,9.2445e-05,-0.00032463,0.012802,0.0083493,0.025399,8.4078e-07,0.9,0.35,0.05
0.047471,0.0022921,0.007324,0.025224,-0.00025813,3.511e-06,7.3188e-05,0.00019657,6.322e-05,0.050602,-0.015653,-0.014973,0.00038058,0.0010222,0.00032874,0,0,0,0.025225,0.00011797,-0.00037305,0.012799,0.0083233,0.025356,8.3625e-07,0.95,0.35,0.05
0.048736,0.0023022,0.0073432,0.025206,-0.00026522,1.1622e-06,5.2405e-05,0.00020944,6.0077e-05,0.050571,-0.015655,-0.014962,0.00027251,0.0010891,0.0003124,0,0,0,0.025206,0.00012578,-0.00039013,0.012798,0.008314,0.025343,8.3482e-07,1,0.35,0.05
0.0011895,0.00014676,0.0010584,0.029782,0.010812,0.0085146,0.001115,2.0384e-05,0.0064401,0.047968,-0.0013536,-0.0073275,0.0057978,0.000106,0.033489,0,0,0,0.031859,0.010784,0.006466,0.012697,0.01637,0.023561,6.4717e-07,0,0.4,0.05
0.0023984,0.00028777,0.001989,0.028437,0.0088512,0.0055339,0.0010818,4.2199e-05,0.0050338,0.048244,-0.0026804,-0.011305,0.0056254,0.00021943,0.026176,0,0,0,0.029807,0.0088099,0.0042053,0.012801,0.014274,0.02366,6.2237e-07,0.05,0.4,0.05
0.0048244,0.00055603,0.0036051,0.026583,0.0059288,0.0019279,0.00098464,8.5241e-05,0.0027688,0.048451,-0.0052489,-0.015651,0.0051201,0.00044325,0.014398,0,0,0,0.027028,0.0058799,0.0015311,0.012749,0.01148,0.023638,6.0376e-07,0.1,0.4,0.05
0.0072436,0.00079256,0.0047728,0.02565,0.0041856,0.00095306,0.0008364,0.00012342,0.0014403,0.048217,-0.0075906,-0.015995,0.0043493,0.00064177,0.0074893,0,0,0,0.025805,0.0041522,0.00083184,0.012486,0.010263,0.023498,6.2161e-07,0.15,0.4,0.05
0.009646,0.00098969,0.0055881,0.025036,0.002841,0.00045572,0.00065514,0.00015211,0.00070774,0.048093,-0.0096128,-0.015814,0.0034067,0.00079099,0.0036803,0,0,0,0.02509,0.0028284,0.00041362,0.012338,0.0094441,0.023568,6.4933e-07,0.2,0.4,0.05
0.012053,0.0011422,0.0061427,0.024783,0.0018726,0.00023867,0.00045702,0.00016831,0.00028886,0.048299,-0.011268,-0.015516,0.0023765,0.00087519,0.0015021,0,0,0,0.024801,0.0018809,0.00021168,0.012295,0.0089647,0.023803,6.8219e-07,0.25,0.4,0.05
0.014476,0.001248,0.0065004,0.024738,0.0011856,0.00013949,0.00025913,0.00016641,2.9919e-05,0.04868,-0.012555,-0.015275,0.0013475,0.00086534,0.00015558,0,0,0,0.024743,0.0012107,0.00010885,0.012317,0.0086876,0.024105,7.1519e-07,0.3,0.4,0.05
0.016921,0.0013089,0.0067063,0.024817,0.00071769,9.5103e-05,7.7563e-05,0.00013897,-0.00014539,0.049147,-0.013512,-0.015131,0.00040333,0.00072263,-0.00075604,0,0,0,0.02482,0.00074825,6.2053e-05,0.012379,0.0085434,0.024423,7.4693e-07,0.35,0.4,0.05
0.019391,0.0013305,0.0067966,0.024976,0.00041421,6.6906e-05,-7.1815e-05,7.9766e-05,-0.00026741,0.049664,-0.014198,-0.015101,-0.00037344,0.00041478,-0.0013906,0,0,0,0.02498,0.00043438,4.2713e-05,0.012469,0.0084859,0.024745,7.7799e-07,0.4,0.4,0.05
0.021887,0.0013219,0.0068054,0.025185,0.00022676,3.1241e-05,-0.00017302,-1.0448e-05,-0.00033889,0.050215,-0.014676,-0.015184,-0.00089971,-5.4329e-05,-0.0017622,0,0,0,0.025191,0.0002516,-1.3825e-07,0.012596,0.0084809,0.025067,8.0898e-07,0.45,0.4,0.05
0.024412,0.0012962,0.0067689,0.025409,0.00011428,-2.0408e-05,-0.00021316,-0.00011816,-0.00034946,0.050762,-0.015005,-0.015355,-0.0011084,-0.00061445,-0.0018172,0,0,0,0.025416,0.00019831,-0.00011176,0.012764,0.008501,0.025375,8.3881e-07,0.5,0.4,0.05
0.026964,0.001268,0.0067243,0.025609,4.5633e-05,-7.7562e-05,-0.00018928,-0.00021683,-0.00029254,0.051238,-0.015228,-0.015548,-0.00098426,-0.0011275,-0.0015212,0,0,0,0.025615,0.00021668,-0.00025411,0.012934,0.0085257,0.025637,8.6435e-07,0.55,0.4,0.05
0.029536,0.0012512,0.006705,0.025746,-9.498e-07,-0.00011672,-0.00011368,-0.00027606,-0.00017951,0.051562,-0.015379,-0.01568,-0.00059114,-0.0014355,-0.00093347,0,0,0,0.025748,0.00023116,-0.00035137,0.01305,0.0085427,0.025814,8.8174e-07,0.6,0.4,0.05
0.03212,0.0012548,0.0067326,0.025794,-4.0643e-05,-0.00011888,-1.2302e-05,-0.00027557,-4.2152e-05,0.051683,-0.015486,-0.01569,-6.397e-05,-0.001433,-0.00021919,0,0,0,0.025794,0.00020669,-0.00036699,0.013081,0.0085447,0.02588,8.8855e-07,0.65,0.4,0.05
0.034704,0.0012811,0.0068123,0.025752,-8.3597e-05,-8.4461e-05,8.376e-05,-0.00021472,7.9339e-05,0.051605,-0.015568,-0.01557,0.00043555,-0.0011166,0.00041256,0,0,0,0.025753,0.00014016,-0.00030923,0.013031,0.008528,0.025841,8.8518e-07,0.7,0.4,0.05
0.03728,0.0013258,0.0069325,0.025645,-0.00013553,-3.3379e-05,0.00014917,-0.00011253,0.0001544,0.051392,-0.015638,-0.015373,0.00077569,-0.00058514,0.0008029,0,0,0,0.025647,6.4477e-05,-0.00023553,0.012941,0.0084921,0.025735,8.7488e-07,0.75,0.4,0.05
0.039843,0.0013797,0.0070711,0.02551,-0.00019739,9.36e-06,0.00017254,1.6029e-06,0.00017443,0.051133,-0.015707,-0.015169,0.0008972,8.3351e-06,0.00090701,0,0,0,0.025513,3.8262e-05,-0.00022895,0.012871,0.0084407,0.025609,8.6232e-07,0.8,0.4,0.05
0.042394,0.0014327,0.0072041,0.025383,-0.00026387,3.0327e-05,0.0001574,0.00010156,0.0001513,0.050906,-0.015776,-0.015011,0.00081848,0.00052812,0.00078677,0,0,0,0.025385,7.0914e-05,-0.00030662,0.012846,0.0083831,0.025505,8.5149e-07,0.85,0.4,0.05
0.044934,0.0014761,0.0073114,0.025286,-0.00032417,3.2046e-05,0.00011589,0.00017341,0.00010531,0.050747,-0.015839,-0.014913,0.00060264,0.00090172,0.00054761,0,0,0,0.025287,0.00011176,-0.00040509,0.012846,0.0083313,0.025438,8.4427e-07,0.9,0.4,0.05
0.047468,0.0015041,0.0073802,0.025228,-0.00036627,2.5801e-05,7.0036e-05,0.00021465,7.5705e-05,0.050661,-0.015885,-0.014866,0.00036419,0.0011162,0.00039367,0,0,0,0.025229,0.00013199,-0.000473,0.012851,0.0082959,0.025405,8.4058e-07,0.95,0.4,0.05
0.048734,0.0015138,0.0074038,0.025209,-0.00038136,2.2323e-05,4.9762e-05,0.00022786,7.2223e-05,0.050634,-0.015902,-0.014852,0.00025876,0.0011849,0.00037556,0,0,0,0.02521,0.00013722,-0.00049661,0.012853,0.0082834,0.025396,8.3951e-07,1,0.4,0.05
0.0011921,7.9679e-05,0.0010666,0.029843,0.010842,0.0085377,0.0006068,1.7921e-05,0.0064954,0.048058,-0.0013451,-0.0073354,0.0031554,9.319e-05,0.033776,0,0,0,0.031907,0.010831,0.0064838,0.012712,0.016407,0.023581,6.4828e-07,0,0.45,0.05
0.0024029,0.00015503,0.0020049,0.028487,0.0088824,0.0055527,0.00058921,3.6264e-05,0.0050839,0.048314,-0.0026592,-0.011316,0.0030639,0.00018857,0.026436,0,0,0,0.029839,0.0088671,0.004216,0.012812,0.014307,0.023665,6.213e-07,0.05,0.45,0.05
0.0048314,0.00029625,0.0036354,0.02661,0.0059652,0.0019407,0.00053745,7.1791e-05,0.0028115,0.048476,-0.0052,-0.015664,0.0027947,0.00037331,0.01462,0,0,0,0.027033,0.0059475,0.001535,0.012749,0.011505,0.023617,5.9978e-07,0.1,0.45,0.05
0.0072505,0.00041674,0.0048148,0.025656,0.0042264,0.00096396,0.0004594,0.00010315,0.0014799,0.048198,-0.0075191,-0.016001,0.0023889,0.00053636,0.0076953,0,0,0,0.025793,0.0042154,0.00083802,0.012477,0.010282,0.023458,6.168e-07,0.15,0.45,0.05
0.0096511,0.00051309,0.0056378,0.025027,0.0028805,0.00046771,0.00036381,0.00012806,0.00074552,0.048044,-0.0095355,-0.015809,0.0018918,0.00066593,0.0038767,0,0,0,0.02507,0.0028794,0.00042527,0.012322,0.0094583,0.02352,6.4455e-07,0.2,0.45,0.05
0.012055,0.00058249,0.0061951,0.024765,0.0019066,0.00025507,0.00025545,0.00014406,0.00032325,0.048233,-0.011199,-0.015493,0.0013283,0.00074912,0.0016809,0,0,0,0.024778,0.0019169,0.00023165,0.012273,0.0089755,0.023753,6.7767e-07,0.25,0.45,0.05
0.014474,0.00062341,0.0065492,0.024716,0.0012153,0.0001627,0.00014078,0.00014511,5.6506e-05,0.048605,-0.012496,-0.015233,0.00073206,0.00075458,0.00029383,0,0,0,0.024719,0.0012364,0.0001382,0.012291,0.0086979,0.024053,7.1069e-07,0.3,0.45,0.05
0.016915,0.00063614,0.006744,0.024796,0.00075116,0.0001245,2.829e-05,0.00012229,-0.00013278,0.049068,-0.01345,-0.01508,0.00014711,0.00063591,-0.00069045,0,0,0,0.024798,0.00077554,9.8172e-05,0.01235,0.0085574,0.02437,7.4215e-07,0.35,0.45,0.05
0.019381,0.00062357,0.0068149,0.024962,0.0004632,9.603e-05,-7.0076e-05,6.7133e-05,-0.00027379,0.049589,-0.014109,-0.015063,-0.00036439,0.00034909,-0.0014237,0,0,0,0.024966,0.000479,7.6195e-05,0.012445,0.0085072,0.024692,7.7302e-07,0.4,0.45,0.05
0.021874,0.00059186,0.0067974,0.025184,0.00030136,4.6687e-05,-0.00013859,-2.1485e-05,-0.00036385,0.050159,-0.014536,-0.015198,-0.00072066,-0.00011172,-0.001892,0,0,0,0.025191,0.00032122,2.0045e-05,0.012585,0.0085106,0.025022,8.0453e-07,0.45,0.45,0.05
0.024397,0.00055082,0.0067317,0.025425,0.00021793,-3.364e-05,-0.00016218,-0.00012989,-0.00038413,0.05074,-0.014799,-0.015453,-0.00084335,-0.00067541,-0.0019975,0,0,0,0.025433,0.00028423,-0.00010755,0.01277,0.0085365,0.025347,8.3581e-07,0.5,0.45,0.05
0.026948,0.00051259,0.0066617,0.025641,0.00017307,-0.00012463,-0.00013497,-0.00022948,-0.00032175,0.051253,-0.014964,-0.015738,-0.00070186,-0.0011933,-0.0016731,0,0,0,0.025647,0.00030639,-0.00026355,0.012955,0.0085632,0.025631,8.6324e-07,0.55,0.45,0.05
0.029522,0.00048864,0.0066275,0.025788,0.00013676,-0.00018638,-6.6167e-05,-0.00028834,-0.00018915,0.051605,-0.015087,-0.015927,-0.00034407,-0.0014994,-0.00098358,0,0,0,0.02579,0.00031657,-0.00036866,0.013079,0.0085793,0.025824,8.8217e-07,0.6,0.45,0.05
0.032109,0.00048636,0.0066553,0.025836,8.8154e-05,-0.00018856,2.2148e-05,-0.0002863,-2.617e-05,0.051733,-0.015212,-0.015932,0.00011517,-0.0014888,-0.00013608,0,0,0,0.025837,0.00027913,-0.00038038,0.013109,0.0085786,0.025895,8.8961e-07,0.65,0.45,0.05
0.034696,0.00050705,0.0067501,0.025787,1.6336e-05,-0.00013159,0.00010316,-0.00022272,0.00011632,0.051643,-0.015361,-0.015745,0.00053644,-0.0011582,0.00060484,0,0,0,0.025788,0.00018914,-0.00030588,0.013047,0.0085572,0.025851,8.8598e-07,0.7,0.45,0.05
0.037273,0.00054588,0.0068964,0.025667,-8.0058e-05,-4.6642e-05,0.00015474,-0.00011657,0.00019973,0.051411,-0.015533,-0.015446,0.00080464,-0.00060618,0.0010386,0,0,0,0.02567,9.1045e-05,-0.0002206,0.012945,0.0085135,0.025737,8.7506e-07,0.75,0.45,0.05
0.039837,0.00059381,0.0070653,0.02552,-0.00019447,2.5202e-05,0.00016738,1.1901e-06,0.00021435,0.051141,-0.015716,-0.015145,0.0008704,6.1884e-06,0.0011146,0,0,0,0.025523,5.9416e-05,-0.00023193,0.012877,0.0084502,0.025611,8.6237e-07,0.8,0.45,0.05
0.042387,0.00064088,0.0072262,0.025384,-0.00031264,6.0972e-05,0.0001461,0.00010238,0.00017808,0.05092,-0.015892,-0.014921,0.00075972,0.00053238,0.00092602,0,0,0,0.025387,9.4395e-05,-0.00034849,0.012868,0.0083775,0.025517,8.524e-07,0.85,0.45,0.05
0.044929,0.00067914,0.0073548,0.025285,-0.00041523,6.5083e-05,0.00010398,0.00017286,0.00011903,0.05078,-0.016041,-0.014792,0.00054068,0.00089888,0.00061898,0,0,0,0.025286,0.00013014,-0.00048154,0.012884,0.0083116,0.025468,8.4678e-07,0.9,0.45,0.05
0.047465,0.00070365,0.0074366,0.025228,-0.00048442,5.6144e-05,6.1303e-05,0.00021193,8.4808e-05,0.050713,-0.016139,-0.014734,0.00031878,0.001102,0.000441,0,0,0,0.025229,0.00014162,-0.00057045,0.0129,0.0082666,0.025451,8.4459e-07,0.95,0.45,0.05
0.048733,0.00071204,0.0074644,0.02521,-0.00050877,5.1009e-05,4.3071e-05,0.00022414,8.2354e-05,0.050695,-0.016174,-0.014719,0.00022397,0.0011655,0.00042824,0,0,0,0.02521,0.00014299,-0.00060114,0.012906,0.0082508,0.025448,8.4413e-07,1,0.45,0.05
0.001195,1.2256e-05,0.0010727,0.029912,0.010861,0.0085612,9.4889e-05,1.3723e-05,0.0065373,0.048171,-0.0013628,-0.0073412,0.00049342,7.136e-05,0.033994,0,0,0,0.03198,0.010858,0.0064965,0.012742,0.016445,0.023635,6.5273e-07,0,0.5,0.05
0.0024086,2.185e-05,0.0020168,0.028549,0.0088906,0.0055703,9.1451e-05,2.6972e-05,0.005122,0.048421,-0.0026904,-0.011323,0.00047554,0.00014025,0.026634,0,0,0,0.0299,0.0088865,0.0042236,0.012838,0.014337,0.023714,6.2508e-07,0.05,0.5,0.05
0.0048421,3.6037e-05,0.0036576,0.026658,0.0059565,0.001951,8.123e-05,5.1914e-05,0.0028448,0.048571,-0.005252,-0.015666,0.0004224,0.00026995,0.014793,0,0,0,0.027075,0.0059521,0.0015379,0.012769,0.011522,0.023655,6.0284e-07,0.1,0.5,0.05
0.0072656,4.065e-05,0.0048451,0.025691,0.004207,0.00097293,6.7917e-05,7.3567e-05,0.0015126,0.048273,-0.0075841,-0.015993,0.00035317,0.00038255,0.0078654,0,0,0,0.025822,0.004205,0.00084349,0.012489,0.01029,0.023488,6.1972e-07,0.15,0.5,0.05
0.0096695,3.6144e-05,0.0056734,0.025049,0.0028534,0.00047901,5.2847e-05,9.1827e-05,0.0007795,0.048098,-0.0096097,-0.015783,0.00027481,0.0004775,0.0040534,0,0,0,0.025089,0.0028555,0.00043696,0.012326,0.0094604,0.023542,6.4714e-07,0.2,0.5,0.05
0.012075,2.2264e-05,0.0062326,0.024775,0.0018759,0.00027251,3.185e-05,0.00010504,0.00035734,0.04826,-0.011277,-0.015445,0.00016562,0.00054621,0.0018581,0,0,0,0.024786,0.0018835,0.00025358,0.012266,0.0089743,0.023764,6.7942e-07,0.25,0.5,0.05
0.014496,-1.6511e-06,0.0065838,0.024714,0.0011887,0.00018899,2.2075e-06,0.00010777,8.6305e-05,0.048601,-0.012564,-0.015163,1.1479e-05,0.00056038,0.00044879,0,0,0,0.024716,0.0012024,0.00017247,0.012272,0.0086971,0.024048,7.1089e-07,0.3,0.5,0.05
0.016935,-3.6091e-05,0.0067692,0.024785,0.00074007,0.00015876,-3.5407e-05,9.1176e-05,-0.000114,0.04903,-0.013486,-0.014997,-0.00018412,0.00047411,-0.0005928,0,0,0,0.024786,0.00075574,0.00014136,0.012323,0.0085612,0.024345,7.4025e-07,0.35,0.5,0.05
0.019398,-8.0417e-05,0.0068235,0.024946,0.00048068,0.00013004,-7.448e-05,4.6221e-05,-0.00027221,0.049526,-0.014084,-0.014996,-0.0003873,0.00024035,-0.0014155,0,0,0,0.02495,0.00049103,0.00011574,0.012417,0.0085189,0.024649,7.6914e-07,0.4,0.5,0.05
0.021888,-0.00013165,0.0067828,0.025169,0.00035681,6.3374e-05,-0.00010221,-2.9295e-05,-0.00038023,0.050085,-0.014426,-0.015189,-0.0005315,-0.00015233,-0.0019772,0,0,0,0.025176,0.00037126,4.2055e-05,0.012567,0.0085297,0.024971,7.9956e-07,0.45,0.5,0.05
0.024407,-0.00018373,0.006691,0.025416,0.00031295,-5.1307e-05,-0.00010445,-0.00012292,-0.00041026,0.050675,-0.014593,-0.01554,-0.00054315,-0.00063919,-0.0021334,0,0,0,0.025424,0.00035847,-0.00010465,0.012764,0.0085592,0.025301,8.3093e-07,0.5,0.5,0.05
0.026955,-0.00022833,0.0065982,0.02564,0.00030056,-0.00017878,-7.4466e-05,-0.00020804,-0.00034377,0.051206,-0.014675,-0.015922,-0.00038722,-0.0010818,-0.0017876,0,0,0,0.025645,0.00038796,-0.00027192,0.012959,0.0085872,0.025595,8.5913e-07,0.55,0.5,0.05
0.029528,-0.00025751,0.0065512,0.025792,0.00028094,-0.00026233,-1.8113e-05,-0.00025689,-0.00019534,0.051573,-0.014756,-0.016169,-9.4186e-05,-0.0013358,-0.0010158,0,0,0,0.025795,0.00039603,-0.00037992,0.013087,0.0086036,0.025796,8.7882e-07,0.6,0.5,0.05
0.032113,-0.00026644,0.0065799,0.025842,0.00022665,-0.00026454,4.8964e-05,-0.00025379,-1.1847e-05,0.051706,-0.014893,-0.01617,0.00025461,-0.0013197,-6.1606e-05,0,0,0,0.025842,0.00034794,-0.00038679,0.013115,0.0086012,0.025871,8.867e-07,0.65,0.5,0.05
0.034698,-0.00025493,0.0066896,0.025788,0.0001264,-0.00018585,0.00010775,-0.00019818,0.00014768,0.051611,-0.015108,-0.01592,0.00056028,-0.0010306,0.00076793,0,0,0,0.02579,0.00023648,-0.0002978,0.013044,0.0085761,0.025825,8.8314e-07,0.7,0.5,0.05
0.037274,-0.00022747,0.0068607,0.025662,-1.5224e-05,-6.4448e-05,0.00014203,-0.00010477,0.00023771,0.051371,-0.015389,-0.015517,0.00073853,-0.00054478,0.0012361,0,0,0,0.025665,0.00011757,-0.00020061,0.012933,0.0085273,0.025708,8.7215e-07,0.75,0.5,0.05
0.039835,-0.00019186,0.0070582,0.025509,-0.00018324,4.212e-05,0.00014483,-5.6704e-07,0.00024642,0.051103,-0.015697,-0.015111,0.0007531,-2.9485e-06,0.0012814,0,0,0,0.025513,8.1603e-05,-0.00022629,0.012869,0.008456,0.025587,8.5987e-07,0.8,0.5,0.05
0.042384,-0.00015653,0.007245,0.025372,-0.00035432,9.6431e-05,0.00012125,8.805e-05,0.00019716,0.050899,-0.01599,-0.014818,0.00063053,0.00045786,0.0010252,0,0,0,0.025374,0.00011786,-0.00037822,0.012876,0.0083713,0.025509,8.5133e-07,0.85,0.5,0.05
0.044925,-0.00012795,0.007393,0.025275,-0.00050011,0.00010331,8.3363e-05,0.00014817,0.00012647,0.050788,-0.016227,-0.014658,0.00043349,0.00077047,0.00065764,0,0,0,0.025276,0.00014572,-0.00054369,0.01291,0.0082928,0.025483,8.4785e-07,0.9,0.5,0.05
0.047463,-0.0001098,0.0074863,0.025222,-0.00059665,9.0833e-05,4.7535e-05,0.00018035,8.9856e-05,0.050748,-0.016381,-0.014594,0.00024718,0.00093784,0.00046725,0,0,0,0.025223,0.00014621,-0.00065254,0.012938,0.0082388,0.025485,8.4754e-07,0.95,0.5,0.05
0.048732,-0.00010362,0.007518,0.025206,-0.00063023,8.3607e-05,3.258e-05,0.00019016,8.9576e-05,0.05074,-0.016434,-0.014578,0.00016942,0.00098881,0.0004658,0,0,0,0.025206,0.00014294,-0.00068999,0.012948,0.0082198,0.02549,8.4782e-07,1,0.5,0.05
0.0011977,-5.6605e-05,0.0010763,0.029979,0.010868,0.0085819,-0.00042848,7.7819e-06,0.0065616,0.048289,-0.0014001,-0.0073448,-0.0022281,4.0466e-05,0.03412,0,0,0,0.032065,0.010863,0.0065025,0.012781,0.016477,0.023713,6.5965e-07,0,0.55,0.05
0.0024144,-0.000114,0.0020234,0.028613,0.0088786,0.0055845,-0.00041803,1.4244e-05,0.0051442,0.048548,-0.0027612,-0.011326,-0.0021737,7.4066e-05,0.02675,0,0,0,0.029979,0.00887,0.0042272,0.012876,0.014359,0.023794,6.328e-07,0.05,0.55,0.05
0.0048548,-0.00022895,0.0036696,0.026717,0.0059112,0.0019575,-0.00038727,2.5282e-05,0.0028648,0.048713,-0.0053824,-0.015662,-0.0020138,0.00013147,0.014897,0,0,0,0.027145,0.0059006,0.0015397,0.012803,0.011529,0.023742,6.1187e-07,0.1,0.55,0.05
0.0072857,-0.00034167,0.0048608,0.025746,0.004139,0.0009787,-0.00033664,3.394e-05,0.0015339,0.048422,-0.0077571,-0.015974,-0.0017505,0.00017649,0.0079761,0,0,0,0.025885,0.004131,0.00084744,0.012519,0.010288,0.023577,6.2926e-07,0.15,0.55,0.05
0.009697,-0.00044789,0.0056914,0.025096,0.0027723,0.00048747,-0.00027182,4.2135e-05,0.0008041,0.048236,-0.0098053,-0.015746,-0.0014135,0.0002191,0.0041813,0,0,0,0.025141,0.0027683,0.00044634,0.012347,0.0094518,0.023626,6.5611e-07,0.2,0.55,0.05
0.012109,-0.00054516,0.0062509,0.024809,0.0017927,0.00028723,-0.00020497,4.934e-05,0.00038458,0.048369,-0.011472,-0.015386,-0.0010658,0.00025657,0.0019998,0,0,0,0.024823,0.0017931,0.00027262,0.012275,0.0089629,0.023831,6.867e-07,0.25,0.55,0.05
0.014534,-0.00063302,0.0065996,0.024731,0.0011156,0.00021248,-0.00014717,5.1798e-05,0.00011258,0.048665,-0.012735,-0.015083,-0.00076527,0.00026935,0.00058539,0,0,0,0.024735,0.0011201,0.00020388,0.012266,0.0086863,0.024088,7.1546e-07,0.3,0.55,0.05
0.016976,-0.00071245,0.0067783,0.024785,0.00069026,0.00019018,-0.0001052,4.2753e-05,-9.4709e-05,0.049041,-0.013604,-0.014905,-0.00054703,0.00022232,-0.00049249,0,0,0,0.024787,0.00069655,0.00018183,0.012302,0.008555,0.024352,7.4147e-07,0.35,0.55,0.05
0.019438,-0.00078486,0.0068205,0.024932,0.00046603,0.00016065,-7.8699e-05,1.4908e-05,-0.00026588,0.049487,-0.014123,-0.014917,-0.00040924,7.7522e-05,-0.0013826,0,0,0,0.024936,0.00047109,0.00015173,0.012392,0.0085195,0.024626,7.6716e-07,0.4,0.55,0.05
0.021925,-0.00085071,0.0067627,0.025145,0.00038402,7.5765e-05,-6.0004e-05,-3.404e-05,-0.00038779,0.050014,-0.014364,-0.015166,-0.00031202,-0.00017701,-0.0020165,0,0,0,0.025152,0.00039287,6.0096e-05,0.012546,0.0085349,0.024927,7.9534e-07,0.45,0.55,0.05
0.024439,-0.00090847,0.0066518,0.025388,0.0003818,-7.0515e-05,-3.8571e-05,-9.5331e-05,-0.0004249,0.050589,-0.014427,-0.015603,-0.00020057,-0.00049572,-0.0022095,0,0,0,0.025396,0.00040608,-0.00010271,0.012749,0.0085663,0.025248,8.2559e-07,0.5,0.55,0.05
0.026983,-0.00095496,0.0065426,0.025612,0.00040426,-0.00022577,-8.0765e-06,-0.00014993,-0.00035546,0.051116,-0.014423,-0.016061,-4.1998e-05,-0.00077963,-0.0018484,0,0,0,0.025618,0.00044703,-0.00027439,0.012946,0.0085968,0.02554,8.5328e-07,0.55,0.55,0.05
0.029551,-0.00098696,0.0064866,0.025766,0.00040484,-0.00032238,2.9946e-05,-0.0001797,-0.00019712,0.051483,-0.014457,-0.016347,0.00015572,-0.00093442,-0.001025,0,0,0,0.025769,0.00045891,-0.00037902,0.013074,0.0086163,0.02574,8.7273e-07,0.6,0.55,0.05
0.032132,-0.0010029,0.006517,0.025816,0.00034897,-0.00032473,6.8488e-05,-0.00017597,-1.3662e-06,0.051617,-0.014597,-0.016348,0.00035614,-0.00091504,-7.1044e-06,0,0,0,0.025817,0.00040527,-0.0003821,0.013099,0.0086133,0.025815,8.8071e-07,0.65,0.55,0.05
0.034713,-0.0010038,0.0066388,0.025759,0.0002254,-0.00023323,9.8627e-05,-0.00013837,0.00016893,0.051522,-0.014865,-0.016057,0.00051286,-0.00071952,0.00087844,0,0,0,0.025761,0.00027691,-0.00028681,0.013024,0.0085836,0.025771,8.775e-07,0.7,0.55,0.05
0.037284,-0.00099299,0.0068297,0.02563,4.5967e-05,-8.4118e-05,0.00011232,-7.493e-05,0.00026367,0.051284,-0.015236,-0.015574,0.00058404,-0.00038964,0.0013711,0,0,0,0.025634,0.0001401,-0.00018182,0.012908,0.0085308,0.025657,8.6691e-07,0.75,0.55,0.05
0.039841,-0.00097591,0.0070497,0.025479,-0.00016632,5.4378e-05,0.00010619,-3.469e-06,0.00026798,0.051025,-0.015652,-0.015079,0.00055221,-1.8039e-05,0.0013935,0,0,0,0.025482,9.9576e-05,-0.00021514,0.012849,0.0084556,0.025542,8.5534e-07,0.8,0.55,0.05
0.042386,-0.00095808,0.0072567,0.025345,-0.00038127,0.00012801,8.4419e-05,5.6931e-05,0.00020836,0.050842,-0.016046,-0.014722,0.00043898,0.00029604,0.0010835,0,0,0,0.025347,0.00013672,-0.00039233,0.01287,0.0083639,0.02548,8.4828e-07,0.85,0.55,0.05
0.044925,-0.00094358,0.0074198,0.025253,-0.00056329,0.0001381,5.5668e-05,9.6992e-05,0.00012873,0.050762,-0.016361,-0.014538,0.00028947,0.00050436,0.00066942,0,0,0,0.025254,0.00015714,-0.00058334,0.012919,0.008276,0.025476,8.4687e-07,0.9,0.55,0.05
0.047463,-0.00093446,0.0075218,0.025205,-0.00068274,0.00012204,2.9866e-05,0.00011773,9.1501e-05,0.050747,-0.016562,-0.01447,0.0001553,0.00061221,0.00047581,0,0,0,0.025206,0.00014714,-0.00070832,0.012957,0.0082149,0.025497,8.4839e-07,0.95,0.55,0.05
0.048731,-0.00093138,0.0075564,0.025191,-0.00072398,0.00011278,1.9032e-05,0.00012386,9.3738e-05,0.05075,-0.01663,-0.014455,9.8969e-05,0.00064409,0.00048744,0,0,0,0.025192,0.0001396,-0.00075124,0.012972,0.0081934,0.025509,8.4939e-07,1,0.55,0.05
0.0012001,-0.00012775,0.0010768,0.03004,0.010865,0.0085981,-0.00096893,4.7591e-07,0.0065652,0.048403,-0.0014539,-0.0073465,-0.0050384,2.4748e-06,0.034139,0,0,0,0.032158,0.010844,0.0065008,0.012828,0.016501,0.02381,6.6882e-07,0,0.6,0.05
0.0024201,-0.00025427,0.002024,0.028674,0.0088471,0.0055939,-0.00094351,-1.2302e-06,0.0051474,0.048684,-0.0028668,-0.011325,-0.0049063,-6.397e-06,0.026766,0,0,0,0.030072,0.0088171,0.0042264,0.012923,0.014372,0.023904,6.4421e-07,0.05,0.6,0.05
0.0048684,-0.00050221,0.0036696,0.026784,0.0058319,0.0019591,-0.00086872,-6.8734e-06,0.002868,0.048894,-0.0055821,-0.015651,-0.0045173,-3.5742e-05,0.014914,0,0,0,0.027241,0.0057947,0.0015398,0.01285,0.011525,0.023874,6.2655e-07,0.1,0.6,0.05
0.0073095,-0.00073506,0.0048594,0.025818,0.0040271,0.00097957,-0.00074975,-1.4038e-05,0.0015395,0.048632,-0.0080243,-0.015948,-0.0038987,-7.2999e-05,0.0080052,0,0,0,0.025978,0.003998,0.00084834,0.012565,0.010275,0.023722,6.449e-07,0.15,0.6,0.05
0.0097316,-0.00094439,0.0056884,0.025163,0.0026447,0.00049045,-0.00060054,-1.8789e-05,0.00081386,0.048444,-0.010102,-0.015704,-0.0031228,-9.7704e-05,0.004232,0,0,0,0.025222,0.0026267,0.00044958,0.012386,0.0094326,0.023765,6.7071e-07,0.2,0.6,0.05
0.012154,-0.0011249,0.0062463,0.024862,0.001667,0.00029486,-0.00044213,-2.0277e-05,0.00039839,0.048546,-0.01176,-0.015327,-0.0022991,-0.00010544,0.0020716,0,0,0,0.024884,0.0016595,0.00028056,0.012301,0.0089412,0.023948,6.9868e-07,0.25,0.6,0.05
0.014586,-0.0012751,0.0065929,0.024763,0.0010068,0.00022626,-0.00029402,-1.974e-05,0.00012826,0.048787,-0.01298,-0.015009,-0.0015289,-0.00010265,0.00066696,0,0,0,0.024771,0.0010082,0.00021742,0.012277,0.0086654,0.02417,7.237e-07,0.3,0.6,0.05
0.017033,-0.0013965,0.0067681,0.024794,0.00061005,0.00020937,-0.00016975,-2.0117e-05,-8.1018e-05,0.049096,-0.013782,-0.014824,-0.0008827,-0.00010461,-0.0004213,0,0,0,0.024797,0.00061787,0.00019861,0.012299,0.0085377,0.024392,7.455e-07,0.35,0.6,0.05
0.019496,-0.0014928,0.0068045,0.024919,0.00042196,0.00017903,-7.5032e-05,-2.4894e-05,-0.0002583,0.049478,-0.014215,-0.014847,-0.00039017,-0.00012945,-0.0013431,0,0,0,0.024923,0.00043091,0.00016625,0.012378,0.0085068,0.024626,7.6727e-07,0.4,0.6,0.05
0.02198,-0.0015681,0.0067388,0.025115,0.00037812,8.1868e-05,-8.4433e-06,-3.5883e-05,-0.00038715,0.049954,-0.014362,-0.015132,-4.3905e-05,-0.00018659,-0.0020132,0,0,0,0.025122,0.00038535,6.7927e-05,0.012527,0.008525,0.024897,7.9243e-07,0.45,0.6,0.05
0.024491,-0.0016264,0.006619,0.025345,0.00041148,-8.3276e-05,3.5558e-05,-5.083e-05,-0.00042757,0.050494,-0.014334,-0.015621,0.0001849,-0.00026431,-0.0022233,0,0,0,0.025353,0.00042042,-0.00010021,0.012727,0.0085578,0.025198,8.2057e-07,0.5,0.6,0.05
0.02703,-0.0016706,0.0065025,0.025564,0.00046352,-0.00025173,6.2853e-05,-6.3728e-05,-0.00035681,0.051,-0.01426,-0.01612,0.00032683,-0.00033139,-0.0018554,0,0,0,0.02557,0.00047669,-0.00027094,0.01292,0.0085918,0.025475,8.4671e-07,0.55,0.6,0.05
0.029591,-0.0017032,0.0064433,0.025716,0.00048284,-0.000352,7.7601e-05,-6.9184e-05,-0.0001949,0.051354,-0.014253,-0.016424,0.00040352,-0.00035976,-0.0010135,0,0,0,0.025719,0.0004988,-0.00037068,0.013045,0.0086158,0.025667,8.6512e-07,0.6,0.6,0.05
0.032165,-0.0017261,0.0064758,0.025764,0.00042975,-0.00035467,8.2585e-05,-6.5102e-05,4.7688e-06,0.051484,-0.014386,-0.016426,0.00042944,-0.00033853,2.4798e-05,0,0,0,0.025766,0.00044623,-0.0003723,0.013069,0.0086132,0.025739,8.7281e-07,0.65,0.6,0.05
0.03474,-0.0017414,0.0066052,0.025706,0.0002935,-0.00026,7.9703e-05,-5.1351e-05,0.00017899,0.051392,-0.014681,-0.01612,0.00041446,-0.00026703,0.00093072,0,0,0,0.025708,0.00030876,-0.00027734,0.012993,0.0085799,0.025698,8.6997e-07,0.7,0.6,0.05
0.037304,-0.0017511,0.0068074,0.025579,9.2067e-05,-9.7875e-05,7.0195e-05,-2.9903e-05,0.00027571,0.051161,-0.015104,-0.015598,0.00036501,-0.0001555,0.0014337,0,0,0,0.025582,0.00015861,-0.00016795,0.012875,0.0085242,0.025589,8.6001e-07,0.75,0.6,0.05
0.039856,-0.0017571,0.00704,0.025431,-0.00014597,5.9615e-05,5.5551e-05,-6.3189e-06,0.00027769,0.050913,-0.015586,-0.015052,0.00028886,-3.2858e-05,0.001444,0,0,0,0.025434,0.00011101,-0.00020088,0.012818,0.0084481,0.025481,8.4922e-07,0.8,0.6,0.05
0.042396,-0.0017612,0.0072583,0.025302,-0.00038673,0.00014615,3.865e-05,1.2972e-05,0.00021238,0.050749,-0.016042,-0.014657,0.00020098,6.7452e-05,0.0011044,0,0,0,0.025304,0.00014747,-0.00039024,0.012847,0.0083539,0.025431,8.4332e-07,0.85,0.6,0.05
0.044931,-0.0017641,0.0074295,0.025216,-0.00059046,0.00015867,2.2919e-05,2.5074e-05,0.00012798,0.05069,-0.016406,-0.014458,0.00011918,0.00013038,0.0006655,0,0,0,0.025217,0.000164,-0.00059669,0.012907,0.0082613,0.025442,8.4338e-07,0.9,0.6,0.05
0.047465,-0.001766,0.0075363,0.025172,-0.00072375,0.00014029,9.5614e-06,3.0866e-05,9.115e-05,0.050695,-0.016635,-0.014389,4.9719e-05,0.0001605,0.00047398,0,0,0,0.025173,0.00014776,-0.00073164,0.012952,0.0081963,0.025476,8.4613e-07,0.95,0.6,0.05
0.048732,-0.0017667,0.0075724,0.02516,-0.0007696,0.00012975,3.3907e-06,3.2457e-05,9.5252e-05,0.050704,-0.016713,-0.014375,1.7632e-05,0.00016878,0.00049531,0,0,0,0.025161,0.00013769,-0.00077799,0.012969,0.0081734,0.025493,8.4761e-07,1,0.6,0.05
0.0012024,-0.000202,0.0010741,0.030098,0.010849,0.0086104,-0.0015315,-7.4826e-06,0.0065465,0.04852,-0.0015276,-0.007347,-0.0079635,-3.891e-05,0.034042,0,0,0,0.032264,0.010802,0.0064912,0.012886,0.016519,0.023934,6.8081e-07,0,0.65,0.05
0.002426,-0.00040068,0.0020181,0.028737,0.0087939,0.0055984,-0.0014881,-1.8113e-05,0.0051297,0.048838,-0.0030134,-0.011322,-0.007738,-9.4186e-05,0.026675,0,0,0,0.030184,0.0087244,0.0042205,0.012982,0.014376,0.02405,6.6002e-07,0.05,0.65,0.05
0.0048838,-0.00078716,0.0036568,0.026861,0.0057137,0.0019545,-0.0013609,-4.2039e-05,0.0028524,0.04912,-0.0058617,-0.015636,-0.0070769,-0.00021861,0.014832,0,0,0,0.027363,0.0056286,0.0015374,0.012913,0.01151,0.024058,6.4758e-07,0.1,0.65,0.05
0.007338,-0.0011441,0.0048396,0.025906,0.0038669,0.00097397,-0.0011622,-6.6618e-05,0.0015266,0.048907,-0.0083942,-0.015916,-0.0060435,-0.00034641,0.0079386,0,0,0,0.0261,0.0038024,0.00084431,0.012628,0.010249,0.023924,6.6695e-07,0.15,0.65,0.05
0.0097746,-0.0014581,0.0056628,0.025247,0.00247,0.00048603,-0.00091776,-8.5618e-05,0.00080542,0.048721,-0.0105,-0.015658,-0.0047724,-0.00044521,0.0041882,0,0,0,0.025327,0.0024335,0.00044267,0.012442,0.009401,0.023958,6.9068e-07,0.2,0.65,0.05
0.01221,-0.0017212,0.0062169,0.024929,0.0015031,0.00029251,-0.00066086,-9.6678e-05,0.00039476,0.04878,-0.012127,-0.015274,-0.0034365,-0.00050273,0.0020528,0,0,0,0.024961,0.0014944,0.00026868,0.012346,0.0089081,0.024107,7.1455e-07,0.25,0.65,0.05
0.014653,-0.001931,0.0065617,0.024804,0.00087038,0.0002258,-0.0004203,-9.8324e-05,0.00012911,0.04895,-0.013277,-0.014953,-0.0021856,-0.00051129,0.00067137,0,0,0,0.024816,0.00088788,0.00019666,0.012309,0.0086334,0.024282,7.3458e-07,0.3,0.65,0.05
0.017105,-0.0020906,0.0067371,0.024805,0.00050801,0.00021008,-0.00021517,-8.9107e-05,-7.6521e-05,0.049179,-0.013993,-0.014768,-0.0011189,-0.00046336,-0.00039791,0,0,0,0.024809,0.00054434,0.00016976,0.01232,0.0085078,0.024455,7.5145e-07,0.35,0.65,0.05
0.019571,-0.0022064,0.0067753,0.024903,0.00035404,0.00018027,-5.5539e-05,-6.8001e-05,-0.00025123,0.049486,-0.014342,-0.014794,-0.0002888,-0.0003536,-0.0013064,0,0,0,0.024907,0.00038736,0.00014314,0.012382,0.0084793,0.024643,7.6889e-07,0.4,0.65,0.05
0.022054,-0.0022869,0.0067123,0.025077,0.0003401,8.3408e-05,5.4788e-05,-3.6217e-05,-0.00037873,0.049899,-0.014416,-0.015083,0.0002849,-0.00018833,-0.0019694,0,0,0,0.025083,0.00035454,6.2276e-05,0.01251,0.0085,0.024876,7.905e-07,0.45,0.65,0.05
0.02456,-0.0023419,0.0065959,0.02529,0.00039747,-8.1339e-05,0.00011679,6.6494e-07,-0.00041908,0.050391,-0.01433,-0.015575,0.0006073,3.4576e-06,-0.0021792,0,0,0,0.025298,0.00040291,-9.5021e-05,0.012697,0.0085354,0.025149,8.1584e-07,0.5,0.65,0.05
0.027093,-0.002381,0.0064829,0.025497,0.00046728,-0.00024933,0.00013645,3.3326e-05,-0.00034951,0.050864,-0.014214,-0.016078,0.00070954,0.00017329,-0.0018174,0,0,0,0.025504,0.00047626,-0.00026472,0.012884,0.0085718,0.025407,8.3989e-07,0.55,0.65,0.05
0.029647,-0.0024123,0.0064268,0.025645,0.00049847,-0.00034943,0.0001243,5.364e-05,-0.00018976,0.0512,-0.01418,-0.016385,0.00064638,0.00027893,-0.00098673,0,0,0,0.025648,0.00051168,-0.00036565,0.013007,0.0085979,0.025586,8.5695e-07,0.6,0.65,0.05
0.032213,-0.0024416,0.0064619,0.025691,0.00045207,-0.00035244,9.3076e-05,5.8001e-05,7.3181e-06,0.051323,-0.014299,-0.016391,0.00048399,0.0003016,3.8054e-05,0,0,0,0.025692,0.00046671,-0.0003683,0.01303,0.0085969,0.025654,8.6406e-07,0.65,0.65,0.05
0.034779,-0.0024718,0.0065931,0.025635,0.0003184,-0.00025853,5.533e-05,4.6249e-05,0.00017911,0.051233,-0.014589,-0.016089,0.00028772,0.0002405,0.00093135,0,0,0,0.025636,0.00033146,-0.00027357,0.012955,0.0085648,0.025614,8.613e-07,0.7,0.65,0.05
0.037336,-0.0025034,0.0067964,0.025511,0.00011659,-9.7325e-05,2.1676e-05,2.1577e-05,0.00027403,0.05101,-0.015015,-0.015571,0.00011272,0.0001122,0.0014249,0,0,0,0.025514,0.00017516,-0.00015924,0.012837,0.00851,0.025508,8.5187e-07,0.75,0.65,0.05
0.03988,-0.0025345,0.0070296,0.025367,-0.00012357,5.9356e-05,-1.1351e-06,-8.508e-06,0.00027505,0.050773,-0.015503,-0.015027,-5.9028e-06,-4.4241e-05,0.0014302,0,0,0,0.025371,0.00011678,-0.00018433,0.012777,0.0084343,0.025406,8.4179e-07,0.8,0.65,0.05
0.042413,-0.0025623,0.0072481,0.025243,-0.00036709,0.00014533,-1.1627e-05,-3.5452e-05,0.0002096,0.050619,-0.015967,-0.014635,-6.0462e-05,-0.00018435,0.0010899,0,0,0,0.025245,0.00014911,-0.00037295,0.012809,0.0083405,0.025362,8.3656e-07,0.85,0.65,0.05
0.044942,-0.0025841,0.0074194,0.02516,-0.00057338,0.00015753,-1.2427e-05,-5.4473e-05,0.00012575,0.05057,-0.016337,-0.014437,-6.462e-05,-0.00028326,0.00065389,0,0,0,0.025161,0.00016671,-0.0005834,0.012872,0.0082481,0.025378,8.3712e-07,0.9,0.65,0.05
0.04747,-0.002598,0.0075262,0.025119,-0.00070841,0.00013901,-1.2082e-05,-6.501e-05,8.99e-05,0.05058,-0.016572,-0.014368,-6.2827e-05,-0.00033805,0.00046748,0,0,0,0.025119,0.00015108,-0.0007209,0.01292,0.0081832,0.025416,8.4019e-07,0.95,0.65,0.05
0.048735,-0.0026027,0.0075622,0.025108,-0.00075488,0.00012843,-1.3271e-05,-6.8283e-05,9.457e-05,0.050591,-0.016651,-0.014355,-6.9008e-05,-0.00035507,0.00049176,0,0,0,0.025108,0.00014122,-0.00076813,0.012938,0.0081604,0.025434,8.4177e-07,1,0.65,0.05
0.0012052,-0.00028051,0.0010683,0.030168,0.01082,0.0086227,-0.0021227,-1.5194e-05,0.0065061,0.04867,-0.0016341,-0.0073473,-0.011038,-7.9007e-05,0.033832,0,0,0,0.032402,0.010733,0.0064747,0.012964,0.016537,0.024103,6.9747e-07,0,0.7,0.05
0.0024335,-0.00055561,0.0020059,0.028814,0.0087112,0.0055994,-0.0020549,-3.4758e-05,0.0050916,0.049042,-0.0032257,-0.011316,-0.010686,-0.00018074,0.026476,0,0,0,0.030331,0.0085837,0.0042097,0.013061,0.014375,0.024251,6.8231e-07,0.05,0.7,0.05
0.0049042,-0.0010884,0.0036314,0.026958,0.0055391,0.0019425,-0.0018586,-7.7169e-05,0.0028176,0.049426,-0.0062618,-0.015613,-0.0096645,-0.00040128,0.014652,0,0,0,0.027522,0.0053862,0.0015309,0.012996,0.01148,0.024312,6.7714e-07,0.1,0.7,0.05
0.0073761,-0.0015745,0.0048016,0.026017,0.0036404,0.00096069,-0.0015584,-0.00011918,0.0014953,0.049273,-0.0089057,-0.015873,-0.0081034,-0.00061975,0.0077756,0,0,0,0.026254,0.0035304,0.0008333,0.01271,0.010206,0.024195,6.9682e-07,0.15,0.7,0.05
0.0098314,-0.0019944,0.005615,0.025349,0.0022376,0.00047381,-0.0012002,-0.00015158,0.00077905,0.049071,-0.011018,-0.015604,-0.0062412,-0.00078822,0.0040511,0,0,0,0.025453,0.0021846,0.00042264,0.012515,0.0093534,0.024204,7.1617e-07,0.2,0.7,0.05
0.012283,-0.0023376,0.0061632,0.025003,0.0013002,0.00028052,-0.00083609,-0.00017059,0.0003743,0.049057,-0.01257,-0.015221,-0.0043477,-0.00088708,0.0019463,0,0,0,0.025046,0.001305,0.00023222,0.012407,0.0088612,0.024298,7.3338e-07,0.25,0.7,0.05
0.014737,-0.0026028,0.0065069,0.024841,0.00071222,0.0002116,-0.00050468,-0.00017274,0.00011584,0.049129,-0.013607,-0.014909,-0.0026243,-0.00089826,0.00060235,0,0,0,0.024857,0.00077168,0.00013687,0.01236,0.0085884,0.02441,7.4658e-07,0.3,0.7,0.05
0.017196,-0.0027958,0.0066862,0.024806,0.00039266,0.00019264,-0.00022738,-0.00015331,-8.0564e-05,0.049261,-0.014214,-0.014734,-0.0011824,-0.00079724,-0.00041893,0,0,0,0.024811,0.00048592,9.4725e-05,0.012358,0.0084637,0.024523,7.5766e-07,0.35,0.7,0.05
0.019663,-0.002927,0.0067336,0.024872,0.00027056,0.00016451,-1.432e-05,-0.00010784,-0.0002442,0.049484,-0.014481,-0.014757,-7.4464e-05,-0.00056076,-0.0012698,0,0,0,0.024876,0.00034665,8.4586e-05,0.012396,0.0084358,0.024662,7.7055e-07,0.4,0.7,0.05
0.022144,-0.0030097,0.0066841,0.025021,0.00027652,8.0371e-05,0.00012911,-3.7215e-05,-0.00036224,0.049828,-0.014508,-0.015018,0.00067137,-0.00019352,-0.0018836,0,0,0,0.025028,0.00030672,4.3281e-05,0.012492,0.0084593,0.024854,7.8844e-07,0.45,0.7,0.05
0.024646,-0.0030594,0.0065831,0.025217,0.00034421,-6.4837e-05,0.00020145,4.6445e-05,-0.00039931,0.050267,-0.014403,-0.015467,0.0010475,0.00024151,-0.0020764,0,0,0,0.025226,0.00035935,-8.8705e-05,0.012657,0.0084989,0.025094,8.1071e-07,0.5,0.7,0.05
0.027171,-0.0030921,0.0064841,0.025412,0.00041804,-0.00021878,0.00020915,0.00012092,-0.00033349,0.050704,-0.01428,-0.015936,0.0010876,0.00062879,-0.0017341,0,0,0,0.025419,0.00044876,-0.00025647,0.012838,0.0085371,0.025331,8.3254e-07,0.55,0.7,0.05
0.029716,-0.0031212,0.0064374,0.025552,0.00045269,-0.00031478,0.00016831,0.00016553,-0.0001816,0.051021,-0.014237,-0.016232,0.0008752,0.00086075,-0.0009443,0,0,0,0.025555,0.00049777,-0.00036326,0.012959,0.0085633,0.025499,8.4828e-07,0.6,0.7,0.05
0.032273,-0.003156,0.0064754,0.025598,0.00041582,-0.00031796,0.00010084,0.0001702,6.4106e-06,0.051138,-0.014336,-0.016244,0.00052439,0.00088506,3.3335e-05,0,0,0,0.025599,0.00046475,-0.0003682,0.012984,0.0085653,0.025562,8.5474e-07,0.65,0.7,0.05
0.03483,-0.0032003,0.0066027,0.025547,0.00029924,-0.00022863,2.9405e-05,0.00013456,0.00016944,0.051052,-0.014593,-0.015965,0.00015291,0.0006997,0.00088108,0,0,0,0.025549,0.00034137,-0.00027255,0.012911,0.0085392,0.025521,8.5188e-07,0.7,0.7,0.05
0.037378,-0.0032525,0.0067971,0.02543,0.00011828,-8.2269e-05,-2.6813e-05,6.7829e-05,0.00025877,0.050838,-0.014972,-0.015493,-0.00013943,0.00035271,0.0013456,0,0,0,0.025433,0.00018624,-0.00015328,0.012793,0.0084885,0.025418,8.4287e-07,0.75,0.7,0.05
0.039914,-0.0033074,0.0070189,0.025291,-0.00010044,5.3708e-05,-5.6816e-05,-1.0224e-05,0.0002602,0.050609,-0.015408,-0.015007,-0.00029544,-5.3166e-05,0.0013531,0,0,0,0.025294,0.00011572,-0.00016561,0.01273,0.0084146,0.02532,8.3334e-07,0.8,0.7,0.05
0.042439,-0.0033579,0.0072269,0.025169,-0.00032356,0.00012551,-6.0898e-05,-7.8376e-05,0.00020019,0.050457,-0.015824,-0.014656,-0.00031667,-0.00040755,0.001041,0,0,0,0.025171,0.00014183,-0.00034194,0.012757,0.0083237,0.025275,8.282e-07,0.85,0.7,0.05
0.04496,-0.0033978,0.0073902,0.025087,-0.000513,0.0001345,-4.727e-05,-0.00012543,0.00012216,0.050401,-0.016159,-0.014475,-0.0002458,-0.00065225,0.00063525,0,0,0,0.025088,0.00016523,-0.00054462,0.012816,0.0082362,0.025286,8.2824e-07,0.9,0.7,0.05
0.047479,-0.0034232,0.0074924,0.025046,-0.00063749,0.00011789,-3.3504e-05,-0.00015096,8.7869e-05,0.050403,-0.016373,-0.014409,-0.00017422,-0.000785,0.00045692,0,0,0,0.025046,0.00015673,-0.00067678,0.012861,0.0081753,0.025316,8.3062e-07,0.95,0.7,0.05
0.04874,-0.0034318,0.0075269,0.025034,-0.00068051,0.00010846,-2.9693e-05,-0.00015878,9.182e-05,0.050411,-0.016446,-0.014395,-0.00015441,-0.00082568,0.00047746,0,0,0,0.025034,0.00014968,-0.00072218,0.012878,0.0081539,0.025332,8.3191e-07,1,0.7,0.05
0.0012098,-0.00036541,0.00106,0.030284,0.010776,0.0086433,-0.0027543,-2.174e-05,0.0064474,0.048916,-0.0018045,-0.0073492,-0.014323,-0.00011305,0.033526,0,0,0,0.032613,0.010636,0.0064542,0.013079,0.016568,0.024355,7.2274e-07,0,0.75,0.05
0.0024458,-0.00072325,0.0019884,0.028936,0.0085807,0.0056003,-0.0026489,-4.9621e-05,0.0050356,0.049363,-0.0035602,-0.011309,-0.013774,-0.00025803,0.026185,0,0,0,0.030545,0.0083779,0.0041934,0.013176,0.014372,0.024546,7.155e-07,0.05,0.75,0.05
0.0049363,-0.0014133,0.0035951,0.027097,0.0052707,0.0019212,-0.0023502,-0.00010959,0.0027658,0.049879,-0.0068696,-0.015578,-0.012221,-0.00056986,0.014382,0,0,0,0.027737,0.0050346,0.0015169,0.01311,0.01143,0.024671,7.1947e-07,0.1,0.75,0.05
0.0074337,-0.0020347,0.0047476,0.026162,0.0033135,0.0009387,-0.001911,-0.00016762,0.0014481,0.049773,-0.0096336,-0.015808,-0.0099373,-0.00087162,0.0075303,0,0,0,0.026446,0.0031563,0.00081259,0.012816,0.010138,0.024555,7.3688e-07,0.15,0.75,0.05
0.0099136,-0.00256,0.0055478,0.025466,0.0019303,0.0004555,-0.0014136,-0.00021036,0.00073892,0.049501,-0.011692,-0.015527,-0.0073509,-0.0010939,0.0038424,0,0,0,0.025592,0.0018727,0.00038767,0.012602,0.009284,0.0245,7.4713e-07,0.2,0.75,0.05
0.012384,-0.0029781,0.0060889,0.02507,0.0010569,0.0002628,-0.00093702,-0.00023331,0.00034235,0.049348,-0.013086,-0.015151,-0.0048725,-0.0012132,0.0017802,0,0,0,0.02512,0.0010965,0.00017278,0.012474,0.0087966,0.024501,7.5333e-07,0.25,0.75,0.05
0.014848,-0.0032918,0.0064325,0.024855,0.00053941,0.00018894,-0.00052612,-0.00023267,9.4063e-05,0.049272,-0.013947,-0.014859,-0.0027358,-0.0012099,0.00048913,0,0,0,0.024871,0.00066128,5.0597e-05,0.01241,0.0085277,0.024522,7.5702e-07,0.3,0.75,0.05
0.017311,-0.003512,0.0066195,0.024774,0.00027409,0.00016339,-0.00019645,-0.00020282,-8.8568e-05,0.049285,-0.014414,-0.014702,-0.0010216,-0.0010547,-0.00046055,0,0,0,0.024778,0.00043464,-1.686e-06,0.01239,0.0084038,0.024565,7.6135e-07,0.35,0.75,0.05
0.019777,-0.0036545,0.0066822,0.024807,0.00018268,0.00013641,4.9034e-05,-0.00013813,-0.00023496,0.049423,-0.014601,-0.014721,0.00025498,-0.00071826,-0.0012218,0,0,0,0.024811,0.00030412,1.1056e-05,0.0124,0.0083755,0.024655,7.6979e-07,0.4,0.75,0.05
0.022253,-0.0037377,0.0066548,0.024934,0.00019901,7.0802e-05,0.00020849,-3.9761e-05,-0.00033723,0.049707,-0.014605,-0.014938,0.0010842,-0.00020676,-0.0017536,0,0,0,0.024942,0.00024825,1.4236e-05,0.012464,0.0084013,0.024811,7.8441e-07,0.45,0.75,0.05
0.024748,-0.0037822,0.0065787,0.025117,0.00026433,-4.2151e-05,0.00028092,7.6602e-05,-0.00036764,0.0501,-0.014516,-0.015313,0.0014608,0.00039833,-0.0019117,0,0,0,0.025126,0.00029796,-8.5074e-05,0.012605,0.0084463,0.025022,8.0396e-07,0.5,0.75,0.05
0.027263,-0.0038089,0.0065022,0.025303,0.00033106,-0.00016742,0.00027328,0.00018145,-0.00030729,0.050507,-0.014419,-0.015715,0.001421,0.00094352,-0.0015979,0,0,0,0.02531,0.000399,-0.00024288,0.012777,0.0084888,0.025239,8.2381e-07,0.55,0.75,0.05
0.029798,-0.003836,0.0064699,0.025439,0.00036317,-0.00024974,0.00020521,0.00024482,-0.00016944,0.05081,-0.014387,-0.015981,0.0010671,0.0012731,-0.00088108,0,0,0,0.025443,0.00046015,-0.00035047,0.012897,0.0085174,0.025398,8.3847e-07,0.6,0.75,0.05
0.032344,-0.0038752,0.0065109,0.025488,0.00033701,-0.00025296,0.00010573,0.00024987,1.4477e-06,0.050926,-0.014467,-0.016001,0.00054982,0.0012993,7.5285e-06,0,0,0,0.02549,0.00044011,-0.00035739,0.012924,0.0085242,0.025459,8.4455e-07,0.65,0.75,0.05
0.034891,-0.0039311,0.0066298,0.025446,0.00024617,-0.00017761,5.9245e-06,0.00019613,0.00014914,0.05085,-0.014669,-0.01577,3.0807e-05,0.0010199,0.00077554,0,0,0,0.025447,0.00033255,-0.0002655,0.012856,0.0085048,0.02542,8.4185e-07,0.7,0.75,0.05
0.037429,-0.0040006,0.0068072,0.025337,0.00010092,-6.0834e-05,-6.8404e-05,9.9499e-05,0.00023038,0.05065,-0.014964,-0.015384,-0.0003557,0.00051739,0.001198,0,0,0,0.025339,0.00018413,-0.00014672,0.012743,0.008459,0.025323,8.3341e-07,0.75,0.75,0.05
0.039956,-0.0040753,0.0070085,0.025203,-7.7987e-05,4.1203e-05,-0.00010395,-1.1096e-05,0.00023439,0.050428,-0.015303,-0.014993,-0.00054056,-5.7697e-05,0.0012189,0,0,0,0.025206,0.00010499,-0.0001447,0.012675,0.0083888,0.025227,8.2425e-07,0.8,0.75,0.05
0.042472,-0.0041447,0.0071975,0.025083,-0.00026217,9.1957e-05,-0.00010298,-0.00010719,0.00018445,0.050268,-0.015629,-0.014709,-0.00053548,-0.00055737,0.00095916,0,0,0,0.025085,0.00012654,-0.00029882,0.012692,0.0083043,0.025175,8.1854e-07,0.85,0.75,0.05
0.044983,-0.0042,0.0073468,0.024999,-0.00041953,9.6484e-05,-7.7681e-05,-0.000174,0.00011626,0.050192,-0.015896,-0.014555,-0.00040394,-0.00090477,0.00060454,0,0,0,0.025,0.00015849,-0.00048253,0.012741,0.0082254,0.025169,8.1715e-07,0.9,0.75,0.05
0.047491,-0.0042353,0.0074407,0.024954,-0.00052379,8.2714e-05,-5.2542e-05,-0.00021073,8.4387e-05,0.050173,-0.01607,-0.014493,-0.00027322,-0.0010958,0.00043881,0,0,0,0.024955,0.00016043,-0.00060199,0.012778,0.008171,0.025184,8.1809e-07,0.95,0.75,0.05
0.048746,-0.0042473,0.0074725,0.024941,-0.00056005,7.5084e-05,-4.4294e-05,-0.00022213,8.6935e-05,0.050172,-0.016129,-0.014478,-0.00023033,-0.0011551,0.00045206,0,0,0,0.024941,0.00015758,-0.000643,0.012792,0.0081519,0.025193,8.1878e-07,1,0.75,0.05
0.0012194,-0.00046097,0.0010501,0.030512,0.010705,0.0086878,-0.0034463,-2.6235e-05,0.0063762,0.049388,-0.0021106,-0.007354,-0.017921,-0.00013642,0.033156,0,0,0,0.032968,0.010502,0.0064336,0.013267,0.016635,0.024765,7.647e-07,0,0.8,0.05
0.0024694,-0.00091163,0.0019672,0.029157,0.0083597,0.005606,-0.0032743,-6.1508e-05,0.0049664,0.049935,-0.0041384,-0.011298,-0.017026,-0.00031984,0.025825,0,0,0,0.030883,0.0080711,0.0041687,0.013357,0.014374,0.025011,7.6823e-07,0.05,0.8,0.05
0.0049935,-0.0017753,0.0035507,0.027314,0.0048354,0.0018852,-0.0028074,-0.00013747,0.0027006,0.050596,-0.0078489,-0.015519,-0.014599,-0.00071486,0.014043,0,0,0,0.028034,0.0045143,0.0014869,0.013273,0.011345,0.025194,7.8187e-07,0.1,0.8,0.05
0.007529,-0.0025378,0.0046817,0.026355,0.0028367,0.00090743,-0.0021682,-0.00020872,0.0013904,0.050464,-0.010684,-0.0157,-0.011275,-0.0010853,0.00723,0,0,0,0.026673,0.0026486,0.00077738,0.012948,0.010033,0.025022,7.8959e-07,0.15,0.8,0.05
0.01004,-0.0031636,0.0054668,0.025586,0.0015382,0.00043607,-0.0015065,-0.00025658,0.00069246,0.049987,-0.012537,-0.015402,-0.0078338,-0.0013342,0.0036008,0,0,0,0.02572,0.0015035,0.00033691,0.012691,0.0091867,0.024823,7.8135e-07,0.2,0.8,0.05
0.012528,-0.0036462,0.0060009,0.025097,0.00078432,0.00024531,-0.00092991,-0.00027761,0.00030748,0.049576,-0.013637,-0.015038,-0.0048355,-0.0014436,0.0015989,0,0,0,0.025146,0.0008826,9.7671e-05,0.012524,0.0087089,0.024667,7.6992e-07,0.25,0.8,0.05
0.014997,-0.0039976,0.0063461,0.024803,0.00036668,0.00016393,-0.0004707,-0.00027027,7.1889e-05,0.049289,-0.014247,-0.014774,-0.0024476,-0.0014054,0.00037382,0,0,0,0.024818,0.00055678,-4.0473e-05,0.012429,0.0084447,0.024566,7.6115e-07,0.3,0.8,0.05
0.017457,-0.0042373,0.0065436,0.024673,0.00016586,0.00012984,-0.00012307,-0.00023065,-9.458e-05,0.049169,-0.01455,-0.014644,-0.00063998,-0.0011994,-0.00049182,0,0,0,0.024677,0.00038116,-8.911e-05,0.012383,0.008323,0.024535,7.5837e-07,0.35,0.8,0.05
0.019914,-0.0043871,0.0066257,0.024682,0.00010375,0.00010301,0.00012498,-0.00015421,-0.00022119,0.04924,-0.014663,-0.014665,0.00064991,-0.00080187,-0.0011502,0,0,0,0.024686,0.00025748,-5.4839e-05,0.01237,0.0082962,0.024587,7.633e-07,0.4,0.8,0.05
0.022381,-0.0044702,0.0066251,0.024798,0.00012273,5.561e-05,0.00027899,-4.2835e-05,-0.00030485,0.04949,-0.014667,-0.014841,0.0014507,-0.00022274,-0.0015852,0,0,0,0.024806,0.00018861,-1.8052e-05,0.012412,0.0083256,0.024722,7.7602e-07,0.45,0.8,0.05
0.024863,-0.004511,0.0065793,0.024979,0.00017632,-2.1505e-05,0.00034036,8.7185e-05,-0.00032645,0.049864,-0.014622,-0.015136,0.0017698,0.00045336,-0.0016976,0,0,0,0.024988,0.00022943,-8.418e-05,0.012536,0.0083778,0.024918,7.9414e-07,0.5,0.8,0.05
0.027367,-0.004534,0.0065296,0.025166,0.00022878,-0.00010875,0.00031633,0.00020502,-0.00027249,0.050261,-0.014577,-0.015455,0.0016449,0.0010661,-0.0014169,0,0,0,0.025174,0.00033262,-0.00022023,0.012697,0.0084288,0.025123,8.1294e-07,0.55,0.8,0.05
0.029889,-0.0045599,0.0065145,0.025308,0.00025475,-0.0001682,0.0002275,0.00027712,-0.00015372,0.050564,-0.014574,-0.015674,0.001183,0.001441,-0.00079935,0,0,0,0.025312,0.00040084,-0.00031814,0.012815,0.0084648,0.025279,8.2722e-07,0.6,0.8,0.05
0.032423,-0.0046027,0.0065587,0.025366,0.00023862,-0.00017131,0.00010631,0.00028255,-7.0211e-06,0.050692,-0.01464,-0.015706,0.00055282,0.0014693,-3.651e-05,0,0,0,0.025368,0.00039186,-0.00032583,0.012847,0.0084779,0.025343,8.3356e-07,0.65,0.8,0.05
0.034959,-0.0046671,0.0066667,0.025335,0.00017587,-0.00011884,-1.1337e-05,0.00022095,0.00012026,0.050636,-0.014778,-0.015544,-5.8951e-05,0.0011489,0.00062535,0,0,0,0.025336,0.00030133,-0.00024547,0.012791,0.0084641,0.025314,8.3158e-07,0.7,0.8,0.05
0.037487,-0.0047489,0.0068228,0.025236,7.2608e-05,-4.0671e-05,-9.635e-05,0.00011244,0.00019239,0.050454,-0.014972,-0.015267,-0.00050102,0.00058471,0.0010004,0,0,0,0.025239,0.00016578,-0.00013603,0.012687,0.0084228,0.025226,8.239e-07,0.75,0.8,0.05
0.040004,-0.0048377,0.0069988,0.025108,-5.701e-05,2.3992e-05,-0.00013507,-1.0263e-05,0.00020096,0.050236,-0.015193,-0.014983,-0.00070235,-5.337e-05,0.001045,0,0,0,0.025111,8.5688e-05,-0.00012131,0.012616,0.0083583,0.025129,8.1479e-07,0.8,0.8,0.05
0.042511,-0.0049208,0.0071647,0.024987,-0.00019227,5.3643e-05,-0.00013117,-0.00011718,0.00016366,0.050058,-0.015409,-0.01477,-0.0006821,-0.00060933,0.00085105,0,0,0,0.024989,0.00010542,-0.00024605,0.012618,0.0082829,0.025062,8.0789e-07,0.85,0.8,0.05
0.04501,-0.0049875,0.0072967,0.024898,-0.00030936,5.3357e-05,-9.8667e-05,-0.00019267,0.00010743,0.04995,-0.01559,-0.014647,-0.00051307,-0.0010019,0.00055863,0,0,0,0.024899,0.00014476,-0.00040181,0.012651,0.0082141,0.025033,8.0442e-07,0.9,0.8,0.05
0.047506,-0.0050301,0.0073804,0.024847,-0.00038794,4.1845e-05,-6.6209e-05,-0.00023506,7.9064e-05,0.049901,-0.015709,-0.014592,-0.00034429,-0.0012223,0.00041113,0,0,0,0.024847,0.00015619,-0.0005028,0.012675,0.0081669,0.025028,8.0344e-07,0.95,0.8,0.05
0.048753,-0.0050448,0.007409,0.02483,-0.0004155,3.5871e-05,-5.51e-05,-0.00024843,8.0282e-05,0.049889,-0.015751,-0.014577,-0.00028652,-0.0012919,0.00041747,0,0,0,0.024831,0.00015736,-0.00053742,0.012684,0.0081503,0.025029,8.0337e-07,1,0.8,0.05
0.001241,-0.00057647,0.0010401,0.030984,0.01055,0.0087789,-0.0042386,-2.7682e-05,0.0063008,0.05037,-0.0027569,-0.0073627,-0.022041,-0.00014395,0.032764,0,0,0,0.033612,0.010295,0.0064061,0.013603,0.016771,0.025496,8.4281e-07,0,0.85,0.05
0.0025185,-0.0011371,0.0019448,0.029575,0.0079263,0.0056133,-0.0039239,-6.8769e-05,0.0048907,0.051026,-0.0052603,-0.011274,-0.020404,-0.0003576,0.025431,0,0,0,0.031434,0.007573,0.0041073,0.013663,0.014372,0.025793,8.5918e-07,0.05,0.85,0.05
0.0051026,-0.0021982,0.0035023,0.027655,0.0040963,0.0018211,-0.0031441,-0.000158,0.0026279,0.05176,-0.0094933,-0.015409,-0.01635,-0.00082162,0.013665,0,0,0,0.028429,0.0037334,0.0014099,0.01351,0.011191,0.025963,8.7536e-07,0.1,0.85,0.05
0.0076945,-0.0031031,0.0046102,0.026597,0.0021805,0.00087589,-0.0022239,-0.00023791,0.0013303,0.05136,-0.012122,-0.015515,-0.011564,-0.0012371,0.0069176,0,0,0,0.026915,0.002016,0.0007221,0.013096,0.0098844,0.025578,8.5338e-07,0.15,0.85,0.05
0.010239,-0.0038137,0.0053807,0.025654,0.0010946,0.00042556,-0.00141,-0.00028312,0.00064968,0.050397,-0.013459,-0.015198,-0.0073318,-0.0014722,0.0033784,0,0,0,0.025774,0.0011268,0.00027342,0.01275,0.0090581,0.025087,8.1003e-07,0.2,0.85,0.05
0.012734,-0.0043418,0.0059098,0.025005,0.00051725,0.00022977,-0.00079046,-0.00029502,0.00027902,0.049562,-0.014106,-0.014854,-0.0041104,-0.0015341,0.0014509,0,0,0,0.025044,0.00068782,2.0335e-05,0.012512,0.008584,0.024697,7.7373e-07,0.25,0.85,0.05
0.015195,-0.0047165,0.0062587,0.024618,0.00021809,0.00013677,-0.00034345,-0.000278,5.6026e-05,0.049023,-0.014417,-0.014628,-0.0017859,-0.0014456,0.00029134,0,0,0,0.024628,0.00045765,-0.00011242,0.01237,0.0083244,0.024461,7.5167e-07,0.3,0.85,0.05
0.017637,-0.004967,0.0064682,0.024454,8.3405e-05,9.421e-05,-2.6199e-05,-0.00023154,-9.5713e-05,0.048801,-0.014562,-0.014534,-0.00013623,-0.001204,-0.00049771,0,0,0,0.024457,0.00032007,-0.00014506,0.012301,0.0082105,0.024373,7.4356e-07,0.35,0.85,0.05
0.020075,-0.0051208,0.0065706,0.024464,4.6095e-05,6.851e-05,0.00019009,-0.00015287,-0.00020432,0.048859,-0.014627,-0.014569,0.00098849,-0.00079492,-0.0010625,0,0,0,0.024468,0.00020765,-9.7357e-05,0.012283,0.0081928,0.024415,7.4753e-07,0.4,0.85,0.05
0.022522,-0.0052044,0.0065968,0.024598,6.1901e-05,3.7765e-05,0.00031753,-4.4347e-05,-0.00027077,0.049135,-0.014657,-0.01472,0.0016511,-0.00023061,-0.001408,0,0,0,0.024605,0.00013571,-4.3779e-05,0.012325,0.0082324,0.02456,7.6102e-07,0.45,0.85,0.05
0.024988,-0.0052444,0.0065807,0.024799,9.8579e-05,-6.8978e-06,0.00035946,7.9527e-05,-0.00028383,0.049543,-0.014678,-0.014952,0.0018692,0.00041354,-0.0014759,0,0,0,0.024808,0.0001635,-8.0799e-05,0.012444,0.0082969,0.024768,7.8019e-07,0.5,0.85,0.05
0.027477,-0.0052666,0.0065575,0.025008,0.00013327,-5.6939e-05,0.0003225,0.00019139,-0.00023613,0.04997,-0.014704,-0.015198,0.001677,0.00099524,-0.0012279,0,0,0,0.025015,0.00025584,-0.00018652,0.012601,0.0083614,0.024984,7.9998e-07,0.55,0.85,0.05
0.029985,-0.0052934,0.0065593,0.025168,0.00015088,-9.1646e-05,0.00022543,0.00026031,-0.00013742,0.050301,-0.014744,-0.015375,0.0011722,0.0013536,-0.0007146,0,0,0,0.025172,0.00032205,-0.00026632,0.012719,0.0084091,0.02515,8.1532e-07,0.6,0.85,0.05
0.032507,-0.0053392,0.0066065,0.025244,0.00014254,-9.4296e-05,9.9431e-05,0.00026592,-1.6605e-05,0.050459,-0.014805,-0.01542,0.00051704,0.0013828,-8.6346e-05,0,0,0,0.025245,0.00032062,-0.00027347,0.012759,0.0084307,0.025228,8.2286e-07,0.65,0.85,0.05
0.035031,-0.0054089,0.0067037,0.025227,0.00010548,-6.5716e-05,-2.0164e-05,0.00020805,8.9566e-05,0.05043,-0.014886,-0.015331,-0.00010485,0.0010819,0.00046574,0,0,0,0.025228,0.00024894,-0.00021,0.012719,0.0084223,0.025212,8.22e-07,0.7,0.85,0.05
0.03755,-0.0054978,0.006839,0.025137,4.2624e-05,-2.4257e-05,-0.00010519,0.00010663,0.00015327,0.050263,-0.014983,-0.015156,-0.00054698,0.00055447,0.00079702,0,0,0,0.025139,0.00013453,-0.00011783,0.012628,0.0083852,0.025132,8.1489e-07,0.75,0.85,0.05
0.040058,-0.0055946,0.0069905,0.025011,-3.8189e-05,7.6156e-06,-0.00014321,-7.8576e-06,0.00016702,0.050039,-0.015087,-0.014968,-0.00074472,-4.086e-05,0.00086852,0,0,0,0.025013,6.2582e-05,-9.5297e-05,0.012554,0.0083267,0.02503,8.0524e-07,0.8,0.85,0.05
0.042554,-0.0056856,0.007134,0.024884,-0.00012442,1.8727e-05,-0.00013838,-0.00010841,0.00014223,0.049831,-0.01519,-0.014818,-0.00071958,-0.00056373,0.0007396,0,0,0,0.024886,8.0685e-05,-0.00018815,0.012537,0.0082594,0.024941,7.9648e-07,0.85,0.85,0.05
0.045041,-0.005759,0.0072492,0.024783,-0.00020066,1.2958e-05,-0.0001043,-0.00018062,9.7813e-05,0.049679,-0.015279,-0.014724,-0.00054236,-0.00093923,0.00050863,0,0,0,0.024784,0.00012168,-0.00031036,0.012547,0.0081986,0.024882,7.9043e-07,0.9,0.85,0.05
0.047522,-0.0058062,0.007323,0.024721,-0.0002527,2.1498e-06,-7.0928e-05,-0.00022196,7.3261e-05,0.049593,-0.015339,-0.014677,-0.00036883,-0.0011542,0.00038096,0,0,0,0.024722,0.0001382,-0.00038924,0.012556,0.0081569,0.024852,7.8725e-07,0.95,0.85,0.05
0.048761,-0.0058224,0.0073483,0.024701,-0.00027112,-2.8496e-06,-5.9934e-05,-0.00023517,7.3433e-05,0.049566,-0.015361,-0.014663,-0.00031165,-0.0012229,0.00038185,0,0,0,0.024701,0.00014184,-0.00041621,0.012559,0.0081422,0.024843,7.8631e-07,1,0.85,0.05
0.0012895,-0.00073666,0.001032,0.03196,0.010036,0.0089259,-0.0050773,-1.8751e-05,0.0062333,0.052544,-0.0044604,-0.0073459,-0.026402,-9.7507e-05,0.032413,0,0,0,0.034778,0.0098835,0.0062608,0.014258,0.016974,0.026905,1.0046e-06,0,0.9,0.05
0.0026272,-0.0014377,0.0019248,0.030406,0.0069916,0.0056199,-0.0044199,-6.2276e-05,0.004819,0.053245,-0.0076323,-0.011199,-0.022983,-0.00032383,0.025059,0,0,0,0.032351,0.0067752,0.003891,0.01423,0.014339,0.027164,1.0264e-06,0.05,0.9,0.05
0.0053245,-0.0027247,0.003457,0.028223,0.0029714,0.001759,-0.0030918,-0.00016015,0.0025583,0.053608,-0.012047,-0.015199,-0.016077,-0.00083277,0.013303,0,0,0,0.028956,0.0027619,0.0012361,0.01386,0.010985,0.027011,1.0075e-06,0.1,0.9,0.05
0.007988,-0.0037501,0.0045434,0.026811,0.0014709,0.00088294,-0.0019128,-0.00024094,0.0012813,0.052209,-0.013674,-0.015203,-0.0099464,-0.0012529,0.0066625,0,0,0,0.027072,0.0014341,0.00065833,0.013207,0.0097215,0.026038,9.0864e-07,0.15,0.9,0.05
0.010545,-0.0045095,0.0053033,0.025489,0.00068847,0.00041692,-0.0010762,-0.00027227,0.00062296,0.050315,-0.014167,-0.014873,-0.0055963,-0.0014158,0.0032394,0,0,0,0.025574,0.00081556,0.00020503,0.012684,0.0088649,0.02507,8.1125e-07,0.2,0.9,0.05
0.01302,-0.0050568,0.0058309,0.024644,0.00030193,0.00020051,-0.00053633,-0.00026949,0.00026379,0.048987,-0.014303,-0.014567,-0.0027889,-0.0014013,0.0013717,0,0,0,0.024668,0.00051511,-3.6232e-05,0.012352,0.0083822,0.024433,7.5048e-07,0.25,0.9,0.05
0.015444,-0.0054392,0.0061853,0.024202,0.0001144,9.6693e-05,-0.00018367,-0.00024435,4.6962e-05,0.048278,-0.014351,-0.014397,-0.00095508,-0.0012706,0.0002442,0,0,0,0.024207,0.00034883,-0.00014263,0.012175,0.0081378,0.024108,7.2042e-07,0.3,0.9,0.05
0.017847,-0.0056935,0.006406,0.024058,3.4962e-05,5.1125e-05,5.2369e-05,-0.00019857,-9.714e-05,0.048065,-0.014396,-0.014354,0.00027232,-0.0010325,-0.00050513,0,0,0,0.02406,0.00024128,-0.00015706,0.012109,0.0080482,0.024021,7.1236e-07,0.35,0.9,0.05
0.020251,-0.0058498,0.0065251,0.024123,1.4417e-05,3.1024e-05,0.00020709,-0.00013022,-0.00019431,0.048219,-0.014464,-0.01442,0.0010769,-0.00067714,-0.0010104,0,0,0,0.024127,0.00015018,-0.0001088,0.012118,0.0080562,0.024108,7.2005e-07,0.4,0.9,0.05
0.022669,-0.0059359,0.0065726,0.024322,2.3418e-05,1.6809e-05,0.00029348,-4.1014e-05,-0.00024842,0.04862,-0.014556,-0.014574,0.0015261,-0.00021327,-0.0012918,0,0,0,0.024329,8.8597e-05,-5.5008e-05,0.012192,0.0081207,0.024312,7.3844e-07,0.45,0.9,0.05
0.025113,-0.0059789,0.0065798,0.024585,4.2732e-05,-9.8298e-07,0.00031451,5.8256e-05,-0.00025444,0.049145,-0.014665,-0.014779,0.0016355,0.00030293,-0.0013231,0,0,0,0.024592,0.00010362,-6.9103e-05,0.012331,0.0082089,0.024576,7.6242e-07,0.5,0.9,0.05
0.027584,-0.0060044,0.0065774,0.024845,6.0298e-05,-2.1206e-05,0.00027475,0.00014713,-0.00021029,0.049667,-0.014774,-0.014986,0.0014287,0.00076508,-0.0010935,0,0,0,0.02485,0.00017383,-0.00014018,0.012495,0.0082947,0.024836,7.8634e-07,0.55,0.9,0.05
0.030079,-0.0060343,0.0065924,0.025045,6.923e-05,-3.5592e-05,0.00018852,0.00020204,-0.0001258,0.050069,-0.014867,-0.015139,0.0009803,0.0010506,-0.00065414,0,0,0,0.025047,0.0002279,-0.00019694,0.012622,0.0083594,0.025035,8.0497e-07,0.6,0.9,0.05
0.032591,-0.0060832,0.0066423,0.025147,6.5807e-05,-3.6974e-05,8.0674e-05,0.00020718,-2.3789e-05,0.050276,-0.014934,-0.015201,0.00041951,0.0010773,-0.0001237,0,0,0,0.025148,0.00023037,-0.00020234,0.012675,0.0083918,0.025137,8.1477e-07,0.65,0.9,0.05
0.035107,-0.0061557,0.0067313,0.025144,4.8549e-05,-2.6136e-05,-2.0067e-05,0.00016254,6.7558e-05,0.050274,-0.014973,-0.015168,-0.00010435,0.00084522,0.0003513,0,0,0,0.025144,0.00017982,-0.00015796,0.012651,0.0083887,0.025136,8.1497e-07,0.7,0.9,0.05
0.037618,-0.0062472,0.0068509,0.025055,1.7985e-05,-1.1878e-05,-9.0989e-05,8.3916e-05,0.00012643,0.050106,-0.01499,-0.015067,-0.00047314,0.00043637,0.00065745,0,0,0,0.025056,9.4907e-05,-8.9996e-05,0.012573,0.0083536,0.025054,8.0752e-07,0.75,0.9,0.05
0.040117,-0.0063464,0.006984,0.024917,-2.3044e-05,-4.4636e-06,-0.00012243,-5.1325e-06,0.00014528,0.049851,-0.014994,-0.014945,-0.00063666,-2.6689e-05,0.00075543,0,0,0,0.024919,3.9036e-05,-6.8172e-05,0.012493,0.0082965,0.024934,7.9609e-07,0.8,0.9,0.05
0.042603,-0.0064399,0.0071106,0.024771,-6.8604e-05,-8.1984e-06,-0.00011807,-8.3967e-05,0.00013026,0.049587,-0.014995,-0.014838,-0.00061395,-0.00043663,0.00067737,0,0,0,0.024772,5.2841e-05,-0.00013106,0.012452,0.0082313,0.024812,7.8442e-07,0.85,0.9,0.05
0.045076,-0.0065154,0.0072134,0.024648,-0.00011021,-1.9597e-05,-8.9062e-05,-0.00014125,9.4142e-05,0.049374,-0.014997,-0.014762,-0.00046312,-0.00073449,0.00048954,0,0,0,0.024649,8.6677e-05,-0.00021732,0.012433,0.0081727,0.024716,7.7511e-07,0.9,0.9,0.05
0.04754,-0.0065641,0.0072798,0.024568,-0.00013928,-3.1055e-05,-6.3516e-05,-0.00017442,7.1005e-05,0.049238,-0.015001,-0.014719,-0.00033028,-0.000907,0.00036923,0,0,0,0.024569,0.00010186,-0.00027263,0.012421,0.0081326,0.024657,7.6939e-07,0.95,0.9,0.05
0.048771,-0.0065809,0.0073027,0.024541,-0.0001497,-3.5758e-05,-5.7014e-05,-0.0001851,6.9489e-05,0.049193,-0.015002,-0.014706,-0.00029647,-0.00096252,0.00036134,0,0,0,0.024541,0.00010568,-0.0002915,0.012416,0.0081184,0.024637,7.6749e-07,1,0.9,0.05
0.0014761,-0.0010225,0.0010304,0.035394,0.0099059,0.0099133,-0.0061535,1.4552e-05,0.0062088,0.058897,-0.0073727,-0.0073534,-0.031998,7.5668e-05,0.032286,0,0,0,0.03844,0.010197,0.0065766,0.015932,0.018404,0.030241,1.4718e-06,0,0.95,0.05
0.0029448,-0.0019003,0.0019152,0.03268,0.0060669,0.0060782,-0.0047359,-3.5268e-05,0.0047856,0.058073,-0.011121,-0.011092,-0.024627,-0.00018339,0.024885,0,0,0,0.034654,0.0063933,0.0037778,0.015438,0.014942,0.029689,1.3812e-06,0.05,0.95,0.05
0.0058073,-0.0034029,0.0034291,0.028715,0.0016852,0.0017006,-0.0024856,-0.00015382,0.0025233,0.055399,-0.014879,-0.014839,-0.012925,-0.00079988,0.013121,0,0,0,0.029301,0.0019546,0.00084486,0.014228,0.0107,0.027932,1.139e-06,0.1,0.95,0.05
0.0084847,-0.0044705,0.0045015,0.026366,0.00078181,0.00079761,-0.0012411,-0.00023354,0.0012648,0.051783,-0.014734,-0.014693,-0.0064536,-0.0012144,0.0065771,0,0,0,0.02654,0.00098418,0.00042126,0.013059,0.009315,0.025842,8.9547e-07,0.15,0.95,0.05
0.010986,-0.0052303,0.0052578,0.024676,0.00028279,0.00029946,-0.00060996,-0.00023853,0.00061807,0.049003,-0.01442,-0.014376,-0.0031718,-0.0012404,0.003214,0,0,0,0.024725,0.0005147,1.8552e-05,0.012353,0.0084195,0.024463,7.5689e-07,0.2,0.95,0.05
0.013385,-0.0057721,0.0057872,0.023806,8.2036e-05,0.00010006,-0.00026387,-0.00021987,0.0002552,0.047502,-0.014179,-0.014132,-0.0013721,-0.0011433,0.0013271,0,0,0,0.023817,0.00030979,-0.00013944,0.011978,0.0079959,0.023736,6.898e-07,0.25,0.95,0.05
0.015736,-0.0061515,0.0061456,0.02345,-3.4572e-06,1.5154e-05,-5.7102e-05,-0.00019024,3.1262e-05,0.046893,-0.014086,-0.014037,-0.00029693,-0.00098927,0.00016256,0,0,0,0.023452,0.00019872,-0.00018916,0.011821,0.0078205,0.02345,6.6418e-07,0.3,0.95,0.05
0.018074,-0.0064066,0.0063724,0.023432,-3.0813e-05,-1.408e-05,7.5275e-05,-0.00015091,-0.00011699,0.046891,-0.014112,-0.014069,0.00039143,-0.00078474,-0.00060834,0,0,0,0.023434,0.0001299,-0.00017641,0.011805,0.0077958,0.023459,6.6431e-07,0.35,0.95,0.05
0.020425,-0.0065672,0.0064994,0.023634,-3.0124e-05,-1.9337e-05,0.00015974,-9.971e-05,-0.00021313,0.047298,-0.014229,-0.014201,0.00083066,-0.00051849,-0.0011083,0,0,0,0.023638,7.3578e-05,-0.0001267,0.011882,0.0078616,0.023665,6.8161e-07,0.4,0.95,0.05
0.022804,-0.00666,0.006557,0.023967,-1.7227e-05,-1.7077e-05,0.00020468,-3.7043e-05,-0.00026193,0.047954,-0.014404,-0.014404,0.0010643,-0.00019262,-0.001362,0,0,0,0.023972,3.4163e-05,-7.384e-05,0.012023,0.0079775,0.023992,7.0996e-07,0.45,0.95,0.05
0.02522,-0.0067108,0.0065751,0.02435,-1.7516e-06,-1.561e-05,0.00021116,3.0603e-05,-0.00026136,0.04871,-0.014604,-0.01464,0.001098,0.00015914,-0.0013591,0,0,0,0.024355,4.1903e-05,-6.4716e-05,0.01221,0.0081108,0.024367,7.4342e-07,0.5,0.95,0.05
0.027675,-0.006744,0.0065827,0.024707,1.0957e-05,-1.6629e-05,0.00018119,9.045e-05,-0.00021252,0.049418,-0.014793,-0.014864,0.00094218,0.00047034,-0.0011051,0,0,0,0.024711,8.9659e-05,-9.9229e-05,0.012405,0.0082339,0.024717,7.7554e-07,0.55,0.95,0.05
0.030162,-0.0067801,0.0066043,0.024975,1.8475e-05,-1.7626e-05,0.00012316,0.00012762,-0.00012635,0.04995,-0.014938,-0.015032,0.00064044,0.00066361,-0.00065704,0,0,0,0.024977,0.00013033,-0.0001313,0.012554,0.0083254,0.024979,8.0018e-07,0.6,0.95,0.05
0.03267,-0.0068326,0.0066557,0.025114,1.9814e-05,-1.5935e-05,5.2483e-05,0.00013206,-2.4227e-05,0.050226,-0.015019,-0.015112,0.00027291,0.00068674,-0.00012598,0,0,0,0.025115,0.0001364,-0.00013306,0.012624,0.0083726,0.025114,8.1316e-07,0.65,0.95,0.05
0.035185,-0.0069062,0.0067413,0.025116,1.4432e-05,-1.2038e-05,-1.2762e-05,0.00010392,6.8378e-05,0.050231,-0.015034,-0.015102,-6.636e-05,0.00054039,0.00035556,0,0,0,0.025117,0.00010686,-0.00010494,0.012611,0.0083729,0.025117,8.1353e-07,0.7,0.95,0.05
0.037693,-0.0069968,0.0068541,0.025007,2.1267e-06,-9.6398e-06,-5.8313e-05,5.3483e-05,0.00013113,0.050018,-0.014994,-0.015025,-0.00030323,0.00027811,0.00068187,0,0,0,0.025008,5.3599e-05,-6.2185e-05,0.012535,0.0083332,0.025013,8.0367e-07,0.75,0.95,0.05
0.040187,-0.0070939,0.0069793,0.024832,-1.6264e-05,-1.2663e-05,-7.8316e-05,-4.043e-06,0.00015535,0.049681,-0.014924,-0.014915,-0.00040724,-2.1023e-05,0.00080784,0,0,0,0.024833,1.7612e-05,-4.8012e-05,0.012441,0.0082677,0.024849,7.8809e-07,0.8,0.95,0.05
0.042661,-0.0071851,0.007099,0.024642,-3.8028e-05,-2.1915e-05,-7.5362e-05,-5.5311e-05,0.00014421,0.04932,-0.014848,-0.014806,-0.00039188,-0.00028762,0.00074991,0,0,0,0.024643,2.6331e-05,-8.759e-05,0.012365,0.008194,0.024674,7.7158e-07,0.85,0.95,0.05
0.045119,-0.0072587,0.0071969,0.024479,-5.8738e-05,-3.4316e-05,-5.6735e-05,-9.2816e-05,0.00010774,0.049014,-0.014784,-0.014721,-0.00029502,-0.00048264,0.00056023,0,0,0,0.02448,4.8334e-05,-0.00014218,0.012311,0.0081286,0.024527,7.5785e-07,0.9,0.95,0.05
0.047563,-0.0073063,0.0072605,0.024372,-7.3579e-05,-4.4753e-05,-4.603e-05,-0.00011466,7.8606e-05,0.048814,-0.014743,-0.014668,-0.00023936,-0.00059625,0.00040875,0,0,0,0.024372,5.8355e-05,-0.00017711,0.012275,0.0080844,0.024432,7.4903e-07,0.95,0.95,0.05
0.048782,-0.0073226,0.0072825,0.024334,-7.8961e-05,-4.88e-05,-4.7511e-05,-0.00012172,7.2572e-05,0.048745,-0.014729,-0.014651,-0.00024706,-0.00063293,0.00037738,0,0,0,0.024335,6.0915e-05,-0.00018902,0.012262,0.0080688,0.0244,7.4602e-07,1,0.95,0.05
0.0016293,-0.0012125,0.0010321,0.038171,0.010181,0.010814,-0.0068191,3.91e-05,0.0062141,0.063745,-0.0090284,-0.0073831,-0.035459,0.00020332,0.032313,0,0,0,0.041354,0.010792,0.00702,0.017167,0.019722,0.032641,1.8289e-06,0,1,0.05
0.0031872,-0.0021872,0.0019144,0.034396,0.0057843,0.0065327,-0.0048848,-1.6937e-05,0.0047855,0.061403,-0.012989,-0.011043,-0.025401,-8.8071e-05,0.024885,0,0,0,0.036383,0.0064959,0.0038347,0.016274,0.015571,0.031338,1.627e-06,0.05,1,0.05
0.0061403,-0.0037852,0.0034219,0.028847,0.001056,0.0016628,-0.0020537,-0.00015325,0.0025207,0.056062,-0.016194,-0.014616,-0.010679,-0.00079689,0.013108,0,0,0,0.029345,0.0016498,0.00057111,0.014387,0.010522,0.028261,1.1946e-06,0.1,1,0.05
0.0087935,-0.0048448,0.0044901,0.025839,0.00042907,0.00069166,-0.00084012,-0.00023392,0.0012681,0.051005,-0.01506,-0.014377,-0.0043686,-0.0012164,0.006594,0,0,0,0.02597,0.00077485,0.00021467,0.012878,0.0089865,0.025481,8.6107e-07,0.15,1,0.05
0.011241,-0.0055928,0.0052468,0.024039,5.6959e-05,0.00018925,-0.0003724,-0.00022285,0.00062084,0.047931,-0.014423,-0.014079,-0.0019365,-0.0011588,0.0032284,0,0,0,0.024074,0.00034504,-0.00013364,0.012104,0.0080951,0.023972,7.1255e-07,0.2,1,0.05
0.013587,-0.0061267,0.0057774,0.023238,-4.8697e-05,2.1219e-05,-0.0001409,-0.00019647,0.00025036,0.046492,-0.014053,-0.013871,-0.00073267,-0.0010216,0.0013019,0,0,0,0.023246,0.00018793,-0.00022317,0.011734,0.0077368,0.023266,6.4952e-07,0.25,1,0.05
0.01589,-0.006503,0.006137,0.022976,-8.2405e-05,-4.0993e-05,-1.102e-05,-0.00016512,1.889e-05,0.046027,-0.013926,-0.013818,-5.7306e-05,-0.00085861,9.8228e-05,0,0,0,0.022978,0.0001088,-0.00023359,0.011606,0.0076176,0.023042,6.2999e-07,0.3,1,0.05
0.018189,-0.0067586,0.0063647,0.023055,-8.1015e-05,-5.4768e-05,7.0178e-05,-0.00012928,-0.00013475,0.046191,-0.013962,-0.013894,0.00036492,-0.00067225,-0.00070069,0,0,0,0.023057,6.4214e-05,-0.00020164,0.011629,0.0076397,0.023127,6.3641e-07,0.35,1,0.05
0.020509,-0.0069222,0.0064929,0.023349,-6.5169e-05,-4.9602e-05,0.00012136,-8.6473e-05,-0.00023331,0.046768,-0.01411,-0.01407,0.00063106,-0.00044966,-0.0012132,0,0,0,0.023353,2.8738e-05,-0.00014708,0.01175,0.0077449,0.023413,6.6002e-07,0.4,1,0.05
0.022866,-0.0070196,0.0065519,0.023769,-4.4421e-05,-3.9292e-05,0.00014774,-3.6467e-05,-0.00028141,0.047587,-0.014326,-0.014313,0.00076827,-0.00018963,-0.0014633,0,0,0,0.023774,2.6589e-06,-9.1334e-05,0.011932,0.0078949,0.023818,6.9466e-07,0.45,1,0.05
0.025268,-0.0070758,0.0065717,0.024229,-2.4637e-05,-3.0613e-05,0.00014939,1.6259e-05,-0.00027739,0.04849,-0.014568,-0.014584,0.00077685,8.4548e-05,-0.0014425,0,0,0,0.024234,8.7069e-06,-6.8799e-05,0.012151,0.0080578,0.024264,7.3413e-07,0.5,1,0.05
0.027715,-0.0071139,0.006581,0.024649,-8.987e-06,-2.5131e-05,0.00012712,6.247e-05,-0.00022322,0.049318,-0.014792,-0.014834,0.00066105,0.00032485,-0.0011608,0,0,0,0.024652,4.734e-05,-8.4798e-05,0.012368,0.0082049,0.024671,7.7144e-07,0.55,1,0.05
0.0302,-0.0071538,0.0066039,0.02496,1.2204e-06,-2.1326e-05,8.6286e-05,9.1338e-05,-0.00013078,0.049932,-0.014961,-0.015019,0.00044869,0.00047496,-0.00068004,0,0,0,0.024961,8.3064e-05,-0.00010466,0.012533,0.0083133,0.024973,7.9983e-07,0.6,1,0.05
0.032708,-0.0072084,0.0066558,0.025119,5.6007e-06,-1.7454e-05,3.7235e-05,9.5574e-05,-2.215e-05,0.050246,-0.01505,-0.01511,0.00019362,0.00049698,-0.00011518,0,0,0,0.02512,9.1645e-05,-0.00010393,0.012612,0.0083692,0.025127,8.1458e-07,0.65,1,0.05
0.035224,-0.0072823,0.006741,0.025121,4.0243e-06,-1.3755e-05,-7.7201e-06,7.5353e-05,7.6536e-05,0.050248,-0.015056,-0.015102,-4.0145e-05,0.00039184,0.00039799,0,0,0,0.025121,7.2003e-05,-8.2247e-05,0.012602,0.0083704,0.025127,8.1468e-07,0.7,1,0.05
0.037733,-0.0073717,0.006853,0.024994,-3.4184e-06,-1.2504e-05,-3.8909e-05,3.8333e-05,0.0001442,0.049998,-0.014996,-0.015019,-0.00020233,0.00019933,0.00074987,0,0,0,0.024995,3.3746e-05,-5.0823e-05,0.012523,0.0083261,0.025004,8.0291e-07,0.75,1,0.05
0.040224,-0.0074668,0.0069774,0.024792,-1.5885e-05,-1.6047e-05,-5.2487e-05,-4.2042e-06,0.00017127,0.049603,-0.014897,-0.014898,-0.00027293,-2.1862e-05,0.00089058,0,0,0,0.024794,7.8704e-06,-4.1367e-05,0.012418,0.0082534,0.02481,7.8448e-07,0.8,1,0.05
0.042693,-0.0075557,0.0070966,0.024573,-3.1191e-05,-2.4527e-05,-5.0422e-05,-4.2308e-05,0.0001601,0.049179,-0.014791,-0.014774,-0.00026219,-0.00022,0.00083252,0,0,0,0.024574,1.4582e-05,-7.17e-05,0.012323,0.0081723,0.024603,7.6494e-07,0.85,1,0.05
0.045142,-0.0076275,0.0071943,0.024384,-4.596e-05,-3.5272e-05,-3.784e-05,-7.0307e-05,0.00012052,0.048817,-0.014701,-0.014674,-0.00019677,-0.0003656,0.00062669,0,0,0,0.024385,3.0779e-05,-0.00011287,0.012249,0.008101,0.024427,7.4861e-07,0.9,1,0.05
0.047575,-0.0076738,0.0072579,0.02426,-5.6606e-05,-4.4132e-05,-3.5613e-05,-8.6676e-05,8.5769e-05,0.048581,-0.014643,-0.01461,-0.00018519,-0.00045071,0.000446,0,0,0,0.024261,3.808e-05,-0.00013926,0.0122,0.0080531,0.024312,7.3808e-07,0.95,1,0.05
0.048789,-0.0076898,0.00728,0.024217,-6.0477e-05,-4.7544e-05,-4.1578e-05,-9.1972e-05,7.6421e-05,0.048499,-0.014623,-0.014589,-0.00021621,-0.00047825,0.00039739,0,0,0,0.024217,3.9912e-05,-0.00014829,0.012183,0.0080363,0.024272,7.3447e-07,1,1,0.05
0.0014198,0.0011892,0.00071356,0.034213,0.0090759,0.010788,0.0067079,2.5618e-06,0.0049118,0.056508,-0.0088486,-0.0043984,0.034881,1.3322e-05,0.025541,0,0,0,0.037088,0.010523,0.0064655,0.015311,0.018026,0.028825,1.2112e-06,0,0,0.1
0.0028254,0.0021537,0.0013929,0.031645,0.005251,0.0073265,0.0048216,3.5628e-05,0.0042687,0.055744,-0.012881,-0.0074849,0.025072,0.00018526,0.022197,0,0,0,0.033531,0.0069811,0.0037104,0.014911,0.014741,0.028361,1.1524e-06,0.05,0,0.1
0.0055744,0.0037397,0.0026418,0.027956,0.0010615,0.0028314,0.0020389,0.00011441,0.0029715,0.053577,-0.01635,-0.011748,0.010603,0.00059495,0.015452,0,0,0,0.028556,0.0025178,0.00077586,0.01389,0.010616,0.026979,1.0013e-06,0.1,0,0.1
0.0081831,0.0047883,0.003642,0.025975,0.00045432,0.0012759,0.00080901,0.00017445,0.0018229,0.050912,-0.015442,-0.013306,0.0042069,0.00090716,0.0094792,0,0,0,0.026175,0.0011706,0.00036035,0.012907,0.0092351,0.025423,8.4611e-07,0.15,0,0.1
0.010666,0.0055158,0.0043918,0.024659,0.00013697,0.00053079,0.00032046,0.000184,0.0010125,0.048918,-0.01484,-0.013816,0.0016664,0.00095679,0.0052648,0,0,0,0.024722,0.00056671,3.85e-05,0.012342,0.0084423,0.024424,7.4988e-07,0.2,0,0.1
0.013075,0.0060283,0.0049457,0.023988,2.7205e-05,0.00019993,8.7127e-05,0.00016698,0.00049953,0.047839,-0.014458,-0.014009,0.00045306,0.00086828,0.0025975,0,0,0,0.024004,0.00029729,-8.6957e-05,0.012046,0.0080716,0.023902,7.0233e-07,0.25,0,0.1
0.01545,0.0063879,0.0053511,0.023716,-2.2149e-05,4.3067e-05,-3.4661e-05,0.00014004,0.00018094,0.047419,-0.0143,-0.01413,-0.00018024,0.00072823,0.00094089,0,0,0,0.023719,0.00015585,-0.00013846,0.011929,0.0079123,0.023712,6.8552e-07,0.3,0,0.1
0.017817,0.0066346,0.0056444,0.023702,-4.2017e-05,-2.8152e-05,-0.00010135,0.0001102,-1.4145e-05,0.047446,-0.014288,-0.014252,-0.000527,0.00057306,-7.3556e-05,0,0,0,0.023703,7.6425e-05,-0.00014773,0.011925,0.0078772,0.023739,6.8775e-07,0.35,0,0.1
0.020194,0.0067983,0.0058537,0.023844,-4.9101e-05,-5.6276e-05,-0.00013493,8.0375e-05,-0.00012854,0.047751,-0.014371,-0.014389,-0.00070162,0.00041795,-0.0006684,0,0,0,0.023845,2.769e-05,-0.00013479,0.01199,0.0079128,0.023899,7.0165e-07,0.4,0,0.1
0.022592,0.0069025,0.0060008,0.02407,-5.0356e-05,-6.2173e-05,-0.0001454,5.2251e-05,-0.00018822,0.048208,-0.014506,-0.014536,-0.00075608,0.00027171,-0.00097872,0,0,0,0.024073,-4.3342e-06,-0.00011072,0.012092,0.0079859,0.024131,7.2211e-07,0.45,0,0.1
0.025015,0.0069671,0.0061033,0.024329,-4.9049e-05,-5.7435e-05,-0.00013827,2.7427e-05,-0.00020976,0.048721,-0.014661,-0.014683,-0.00071898,0.00014262,-0.0010908,0,0,0,0.024331,-2.5097e-05,-8.4163e-05,0.012208,0.0080741,0.024386,7.4517e-07,0.5,0,0.1
0.027464,0.0070081,0.0061749,0.024579,-4.6376e-05,-4.8989e-05,-0.00011788,7.5789e-06,-0.00020482,0.049215,-0.014811,-0.014818,-0.00061297,3.941e-05,-0.0010651,0,0,0,0.024581,-3.3158e-05,-6.4662e-05,0.012323,0.0081612,0.02463,7.6768e-07,0.55,0,0.1
0.029936,0.0070382,0.0062266,0.024794,-4.2567e-05,-4.1103e-05,-8.8855e-05,-5.842e-06,-0.00018253,0.049637,-0.014937,-0.014933,-0.00046204,-3.0378e-05,-0.00094916,0,0,0,0.024795,-2.902e-05,-5.6471e-05,0.012426,0.0082366,0.024838,7.8717e-07,0.6,0,0.1
0.032428,0.0070661,0.0062661,0.024956,-3.7624e-05,-3.6227e-05,-5.6333e-05,-1.2095e-05,-0.00015063,0.049956,-0.015027,-0.015023,-0.00029293,-6.2894e-05,-0.00078329,0,0,0,0.024957,-2.1987e-05,-5.302e-05,0.012505,0.008294,0.024995,8.0206e-07,0.65,0,0.1
0.034932,0.0070964,0.0062985,0.02506,-3.1791e-05,-3.539e-05,-2.5473e-05,-1.15e-05,-0.00011565,0.050161,-0.015079,-0.015088,-0.00013246,-5.9801e-05,-0.00060139,0,0,0,0.025061,-1.9286e-05,-4.8533e-05,0.012555,0.0083311,0.025095,8.1174e-07,0.7,0,0.1
0.037444,0.0071305,0.0063266,0.025112,-2.5669e-05,-3.8465e-05,-5.9862e-07,-5.4602e-06,-8.2617e-05,0.050262,-0.015095,-0.015129,-3.1128e-06,-2.8393e-05,-0.00042961,0,0,0,0.025112,-1.9369e-05,-4.5081e-05,0.012579,0.0083493,0.025144,8.1652e-07,0.75,0,0.1
0.039958,0.0071664,0.0063514,0.025122,-2.0022e-05,-4.4436e-05,1.5552e-05,3.8619e-06,-5.4756e-05,0.050283,-0.015087,-0.01515,8.0869e-05,2.0082e-05,-0.00028473,0,0,0,0.025122,-1.6783e-05,-4.7827e-05,0.012585,0.0083525,0.025154,8.1748e-07,0.8,0,0.1
0.042472,0.0072008,0.0063723,0.025106,-1.5477e-05,-5.1731e-05,2.2151e-05,1.4057e-05,-3.3411e-05,0.050253,-0.015064,-0.015158,0.00011518,7.3098e-05,-0.00017374,0,0,0,0.025106,-9.7249e-06,-5.7558e-05,0.012582,0.0083463,0.02514,8.1607e-07,0.85,0,0.1
0.044984,0.0072293,0.0063885,0.025081,-1.2326e-05,-5.8585e-05,2.0135e-05,2.2957e-05,-1.8284e-05,0.050205,-0.015038,-0.015158,0.0001047,0.00011938,-9.5075e-05,0,0,0,0.025081,-2.0214e-06,-6.8926e-05,0.012575,0.0083367,0.025117,8.1378e-07,0.9,0,0.1
0.047493,0.0072481,0.0063987,0.02506,-1.0545e-05,-6.3423e-05,1.8309e-05,2.894e-05,-4.4211e-06,0.050164,-0.015019,-0.015156,9.5209e-05,0.00015049,-2.299e-05,0,0,0,0.02506,3.0984e-06,-7.7088e-05,0.012568,0.0083286,0.025097,8.1187e-07,0.95,0,0.1
0.048746,0.0072547,0.0064023,0.025052,-9.9782e-06,-6.5163e-05,1.9429e-05,3.1039e-05,3.3045e-06,0.050149,-0.015012,-0.015155,0.00010103,0.0001614,1.7183e-05,0,0,0,0.025052,4.8577e-06,-8.0022e-05,0.012566,0.0083256,0.02509,8.1114e-07,1,0,0.1
0.0012684,0.0010027,0.00071328,0.031449,0.0087764,0.009866,0.0060452,1.2034e-05,0.0049076,0.051712,-0.007236,-0.004403,0.031435,6.2578e-05,0.025519,0,0,0,0.034147,0.0097282,0.0062157,0.013966,0.016697,0.026366,9.4747e-07,0,0.05,0.1
0.0025856,0.0018689,0.0013931,0.029944,0.0055275,0.0068754,0.0046596,4.8053e-05,0.0042632,0.052447,-0.011037,-0.0075323,0.02423,0.00024987,0.022169,0,0,0,0.031799,0.0066815,0.003867,0.013966,0.014116,0.026666,9.723e-07,0.05,0.05,0.1
0.0052447,0.0033539,0.0026431,0.027861,0.0017405,0.0029359,0.0024427,0.00013038,0.0029636,0.052916,-0.014997,-0.011889,0.012702,0.00067796,0.015411,0,0,0,0.028546,0.0027487,0.0012428,0.013652,0.010846,0.026604,9.626e-07,0.1,0.05,0.1
0.0078772,0.0044055,0.0036441,0.02655,0.00088999,0.0014782,0.0011876,0.00019553,0.0018139,0.05168,-0.015037,-0.013508,0.0061758,0.0010167,0.0094324,0,0,0,0.026788,0.0014373,0.00069378,0.013047,0.0096395,0.025734,8.7671e-07,0.15,0.05,0.1
0.010413,0.0051439,0.0043934,0.025331,0.00043399,0.00071773,0.00054173,0.0002124,0.0010053,0.04997,-0.014761,-0.014023,0.002817,0.0011045,0.0052275,0,0,0,0.025404,0.00080511,0.00027315,0.012566,0.0088275,0.02487,7.9162e-07,0.2,0.05,0.1
0.012874,0.0056644,0.004946,0.024573,0.00021412,0.00033592,0.00019609,0.00019824,0.0004962,0.048816,-0.014517,-0.014201,0.0010197,0.0010309,0.0025802,0,0,0,0.024593,0.0004803,5.0456e-05,0.012271,0.0083744,0.02433,7.4092e-07,0.25,0.05,0.1
0.015294,0.0060277,0.0053499,0.024194,9.7059e-05,0.00013889,1.0721e-06,0.00016942,0.00018088,0.048247,-0.014406,-0.014297,5.5748e-06,0.00088099,0.00094057,0,0,0,0.024198,0.00029027,-5.8215e-05,0.012128,0.0081435,0.024084,7.1845e-07,0.3,0.05,0.1
0.017699,0.006275,0.0056416,0.02408,3.3009e-05,3.8358e-05,-0.0001112,0.00013436,-1.2268e-05,0.048117,-0.014405,-0.014391,-0.00057824,0.0006987,-6.3792e-05,0,0,0,0.024081,0.00017052,-0.00010049,0.012091,0.0080503,0.024047,7.1496e-07,0.35,0.05,0.1
0.020106,0.0064369,0.0058491,0.024133,-4.2066e-06,-1.0674e-05,-0.00017147,9.7295e-05,-0.00012577,0.048275,-0.014482,-0.014499,-0.00089167,0.00050593,-0.00065401,0,0,0,0.024135,8.8983e-05,-0.00010608,0.012121,0.0080394,0.024145,7.2354e-07,0.4,0.05,0.1
0.022527,0.0065381,0.0059945,0.024284,-2.7206e-05,-3.1709e-05,-0.00019494,6.1039e-05,-0.00018508,0.048604,-0.014606,-0.014618,-0.0010137,0.0003174,-0.00096239,0,0,0,0.024287,3.0574e-05,-9.2743e-05,0.01219,0.0080751,0.024319,7.3918e-07,0.45,0.05,0.1
0.024966,0.0065991,0.0060954,0.024479,-4.1974e-05,-3.8053e-05,-0.00019042,2.8324e-05,-0.0002063,0.049007,-0.014749,-0.014739,-0.00099019,0.00014729,-0.0010728,0,0,0,0.024483,-8.5276e-06,-7.5013e-05,0.012279,0.0081331,0.024525,7.5799e-07,0.5,0.05,0.1
0.027427,0.0066367,0.006166,0.02468,-5.0786e-05,-3.7642e-05,-0.00016489,1.9725e-06,-0.00020081,0.049413,-0.014887,-0.014853,-0.00085742,1.0257e-05,-0.0010442,0,0,0,0.024683,-2.4656e-05,-6.6794e-05,0.012375,0.0081971,0.024729,7.7691e-07,0.55,0.05,0.1
0.029908,0.0066638,0.0062172,0.024857,-5.4167e-05,-3.5317e-05,-0.00012553,-1.5581e-05,-0.00017773,0.049768,-0.015002,-0.014953,-0.00065276,-8.1023e-05,-0.00092422,0,0,0,0.024859,-2.1909e-05,-6.9717e-05,0.012465,0.0082559,0.024905,7.9357e-07,0.6,0.05,0.1
0.032404,0.0066896,0.0062569,0.024995,-5.2315e-05,-3.3921e-05,-8.0178e-05,-2.3026e-05,-0.00014498,0.050042,-0.015081,-0.015034,-0.00041693,-0.00011973,-0.00075392,0,0,0,0.024996,-1.5976e-05,-7.1527e-05,0.012534,0.008303,0.02504,8.0646e-07,0.65,0.05,0.1
0.034912,0.0067189,0.0062903,0.025087,-4.6009e-05,-3.4883e-05,-3.66e-05,-2.0703e-05,-0.00010937,0.050222,-0.015123,-0.015094,-0.00019032,-0.00010766,-0.00056874,0,0,0,0.025087,-1.628e-05,-6.5246e-05,0.012576,0.0083353,0.025128,8.1495e-07,0.7,0.05,0.1
0.037426,0.0067526,0.0063198,0.025134,-3.6831e-05,-3.8542e-05,-1.2586e-06,-1.0633e-05,-7.6182e-05,0.050314,-0.015131,-0.015136,-6.5446e-06,-5.5292e-05,-0.00039615,0,0,0,0.025135,-2.0244e-05,-5.5417e-05,0.012595,0.008353,0.025173,8.1927e-07,0.75,0.05,0.1
0.039943,0.0067889,0.0063463,0.025147,-2.6796e-05,-4.4373e-05,2.1763e-05,4.0023e-06,-4.8762e-05,0.050337,-0.015115,-0.015161,0.00011317,2.0812e-05,-0.00025356,0,0,0,0.025148,-1.8449e-05,-5.2863e-05,0.0126,0.0083587,0.025183,8.203e-07,0.8,0.05,0.1
0.04246,0.0068238,0.0063689,0.025138,-1.7732e-05,-5.1225e-05,3.1216e-05,1.9658e-05,-2.8425e-05,0.050318,-0.015088,-0.015175,0.00016233,0.00010222,-0.00014781,0,0,0,0.025138,-6.4649e-06,-6.258e-05,0.0126,0.0083564,0.025173,8.1927e-07,0.85,0.05,0.1
0.044975,0.006853,0.0063865,0.02512,-1.0842e-05,-5.7626e-05,2.8427e-05,3.3168e-05,-1.474e-05,0.050281,-0.015059,-0.015181,0.00014782,0.00017247,-7.6649e-05,0,0,0,0.02512,7.9602e-06,-7.648e-05,0.012598,0.0083505,0.025155,8.1747e-07,0.9,0.05,0.1
0.047488,0.0068723,0.0063977,0.025104,-6.6503e-06,-6.2153e-05,2.3335e-05,4.219e-05,-2.2633e-06,0.05025,-0.015039,-0.015183,0.00012134,0.00021939,-1.1769e-05,0,0,0,0.025104,1.7617e-05,-8.6452e-05,0.012595,0.0083452,0.025139,8.1593e-07,0.95,0.05,0.1
0.048744,0.006879,0.0064016,0.025098,-5.2572e-06,-6.3786e-05,2.239e-05,4.5347e-05,4.8855e-06,0.050238,-0.015031,-0.015183,0.00011643,0.00023581,2.5405e-05,0,0,0,0.025098,2.0952e-05,-9.0022e-05,0.012594,0.008343,0.025133,8.1534e-07,1,0.05,0.1
0.0010837,0.00072151,0.00071572,0.028027,0.0088707,0.0088568,0.0049712,2.8827e-05,0.0049283,0.045418,-0.0043889,-0.0044252,0.02585,0.0001499,0.025627,0,0,0,0.030433,0.0090453,0.006276,0.012079,0.015252,0.022909,6.0575e-07,0,0.1,0.1
0.0022709,0.0014093,0.0013997,0.02769,0.0064505,0.0064265,0.0043225,7.0885e-05,0.004285,0.047654,-0.0075691,-0.0076315,0.022477,0.0003686,0.022282,0,0,0,0.029485,0.0066662,0.0044163,0.012534,0.013522,0.024042,7.1181e-07,0.05,0.1,0.1
0.0047654,0.0026717,0.0026587,0.027421,0.003124,0.0030855,0.0030035,0.00016041,0.0029814,0.051116,-0.012056,-0.012156,0.015618,0.00083412,0.015503,0,0,0,0.028249,0.0033369,0.0020449,0.013102,0.01121,0.025596,8.6084e-07,0.1,0.1,0.1
0.0073825,0.0036739,0.0036665,0.027065,0.0017412,0.0016967,0.0018196,0.00023445,0.0018186,0.052068,-0.013775,-0.013891,0.0094617,0.0012192,0.0094568,0,0,0,0.027382,0.0019289,0.0011928,0.013094,0.010168,0.025832,8.8453e-07,0.15,0.1,0.1
0.0099722,0.0044098,0.0044174,0.026197,0.00099161,0.00094589,0.00097674,0.00026516,0.00099848,0.051232,-0.014303,-0.014422,0.005079,0.0013788,0.0051921,0,0,0,0.0263,0.0012157,0.00061919,0.01284,0.0093783,0.025389,8.3981e-07,0.2,0.1,0.1
0.012506,0.0049356,0.0049675,0.025446,0.00056185,0.00051905,0.00044147,0.00025845,0.00048546,0.050243,-0.014455,-0.014566,0.0022956,0.001344,0.0025244,0,0,0,0.025473,0.00079796,0.00025545,0.012609,0.0088422,0.024951,7.9739e-07,0.25,0.1,0.1
0.014997,0.0053021,0.0053663,0.024966,0.00031221,0.000277,0.00010658,0.000228,0.00017008,0.049578,-0.014521,-0.014613,0.00055423,0.0011856,0.00088441,0,0,0,0.024971,0.00052515,5.8676e-05,0.012456,0.0085183,0.024683,7.722e-07,0.3,0.1,0.1
0.017464,0.0055489,0.0056516,0.024721,0.00016181,0.00013938,-0.00010012,0.00018379,-2.2339e-05,0.049262,-0.014593,-0.014651,-0.00052064,0.00095573,-0.00011616,0,0,0,0.024723,0.00033493,-3.5424e-05,0.012379,0.0083409,0.024576,7.6242e-07,0.35,0.1,0.1
0.019923,0.0057072,0.0058521,0.024646,6.6227e-05,6.1593e-05,-0.00021957,0.0001323,-0.00013514,0.049216,-0.014692,-0.014704,-0.0011418,0.00068798,-0.00070274,0,0,0,0.024649,0.00019435,-6.9639e-05,0.012359,0.008258,0.024588,7.6376e-07,0.4,0.1,0.1
0.022385,0.0058028,0.0059903,0.02468,1.7363e-06,1.8318e-05,-0.00027486,7.8785e-05,-0.00019333,0.049348,-0.014816,-0.014772,-0.0014293,0.00040968,-0.0010053,0,0,0,0.024685,8.8325e-05,-7.305e-05,0.012379,0.0082333,0.024678,7.7219e-07,0.45,0.1,0.1
0.024858,0.0058572,0.0060847,0.024774,-4.3286e-05,-5.2416e-06,-0.00028058,2.867e-05,-0.00021227,0.049578,-0.014948,-0.014849,-0.001459,0.00014909,-0.0011038,0,0,0,0.02478,1.928e-05,-7.3005e-05,0.012426,0.008242,0.024807,7.8434e-07,0.5,0.1,0.1
0.027343,0.0058885,0.0061503,0.024892,-7.3332e-05,-1.7858e-05,-0.0002487,-1.2315e-05,-0.0002029,0.049839,-0.015071,-0.014927,-0.0012933,-6.404e-05,-0.0010551,0,0,0,0.024897,-6.597e-06,-8.8966e-05,0.012493,0.008267,0.024945,7.9739e-07,0.55,0.1,0.1
0.029841,0.0059105,0.0061985,0.025007,-8.9411e-05,-2.4741e-05,-0.00019159,-3.916e-05,-0.00017462,0.050082,-0.015168,-0.015,-0.00099629,-0.00020363,-0.00090802,0,0,0,0.025009,-4.7481e-06,-0.00011233,0.012561,0.0082975,0.025068,8.0919e-07,0.6,0.1,0.1
0.032351,0.0059329,0.0062377,0.0251,-9.2007e-05,-2.9031e-05,-0.00012271,-4.9e-05,-0.00013629,0.050272,-0.015226,-0.015063,-0.00063808,-0.0002548,-0.00070871,0,0,0,0.025101,-1.2771e-06,-0.00012131,0.012611,0.0083262,0.025163,8.1831e-07,0.65,0.1,0.1
0.034869,0.0059605,0.0062729,0.025164,-8.3018e-05,-3.269e-05,-5.532e-05,-4.2161e-05,-9.599e-05,0.050397,-0.015245,-0.015114,-0.00028766,-0.00021924,-0.00049915,0,0,0,0.025164,-7.4103e-06,-0.00010893,0.012637,0.0083493,0.025223,8.2415e-07,0.7,0.1,0.1
0.037391,0.0059943,0.0063062,0.025198,-6.6213e-05,-3.6895e-05,-3.8919e-07,-2.2175e-05,-6.0077e-05,0.050458,-0.015229,-0.015153,-2.0238e-06,-0.00011531,-0.0003124,0,0,0,0.025198,-1.9432e-05,-8.3905e-05,0.012641,0.008365,0.02525,8.2685e-07,0.75,0.1,0.1
0.039914,0.0060317,0.0063374,0.025209,-4.6348e-05,-4.2085e-05,3.5264e-05,5.2648e-06,-3.2405e-05,0.05047,-0.015193,-0.015182,0.00018338,2.7377e-05,-0.0001685,0,0,0,0.025209,-2.001e-05,-6.8556e-05,0.012639,0.0083734,0.025253,8.2715e-07,0.8,0.1,0.1
0.042438,0.0060682,0.006365,0.025204,-2.7749e-05,-4.7923e-05,4.9619e-05,3.3878e-05,-1.4154e-05,0.050453,-0.015149,-0.015201,0.00025802,0.00017617,-7.3601e-05,0,0,0,0.025204,1.7219e-06,-7.7521e-05,0.012641,0.008376,0.025242,8.2602e-07,0.85,0.1,0.1
0.04496,0.0060989,0.0063868,0.025193,-1.3328e-05,-5.3444e-05,4.4862e-05,5.8183e-05,-4.3328e-06,0.050425,-0.01511,-0.015214,0.00023328,0.00030255,-2.253e-05,0,0,0,0.025193,3.0321e-05,-9.7189e-05,0.012645,0.0083753,0.025226,8.2445e-07,0.9,0.1,0.1
0.04748,0.0061194,0.0064008,0.025183,-4.4504e-06,-5.7427e-05,3.3231e-05,7.4252e-05,4.1538e-06,0.050402,-0.015084,-0.015222,0.0001728,0.00038611,2.16e-05,0,0,0,0.025183,4.97e-05,-0.00011163,0.012647,0.0083736,0.025214,8.2319e-07,0.95,0.1,0.1
0.04874,0.0061265,0.0064056,0.025179,-1.4821e-06,-5.8881e-05,2.8255e-05,7.9846e-05,9.6014e-06,0.050394,-0.015075,-0.015224,0.00014693,0.0004152,4.9927e-05,0,0,0,0.025179,5.6395e-05,-0.0001168,0.012648,0.0083728,0.025209,8.2272e-07,1,0.1,0.1
0.0010348,0.00056379,0.00072298,0.027037,0.0093722,0.0086969,0.0041391,3.8277e-05,0.0049895,0.043232,-0.0026957,-0.0044516,0.021523,0.00019904,0.025946,0,0,0,0.029212,0.0092309,0.0066627,0.011275,0.015035,0.02139,4.9e-07,0,0.15,0.1
0.0021616,0.001112,0.0014156,0.026856,0.0074021,0.0064198,0.0038225,8.3123e-05,0.0043492,0.045419,-0.0051613,-0.0077153,0.019877,0.00043224,0.022616,0,0,0,0.028545,0.0071988,0.0049341,0.011805,0.013559,0.022579,5.8632e-07,0.05,0.15,0.1
0.0045419,0.0021483,0.0026922,0.026875,0.0043418,0.0031813,0.0030371,0.0001742,0.0030412,0.049237,-0.0093503,-0.012368,0.015793,0.00090583,0.015814,0,0,0,0.027745,0.0041247,0.0025283,0.012609,0.011466,0.024473,7.4865e-07,0.1,0.15,0.1
0.0070853,0.003028,0.003714,0.02689,0.0026023,0.0017457,0.0021093,0.0002508,0.001856,0.051171,-0.011977,-0.014204,0.010969,0.0013042,0.0096509,0,0,0,0.02726,0.0025181,0.0014599,0.0129,0.010413,0.025294,8.269e-07,0.15,0.15,0.1
0.009659,0.0037136,0.0044711,0.026401,0.0015592,0.0010066,0.0012916,0.00029104,0.0010085,0.051262,-0.013326,-0.014763,0.0067163,0.0015134,0.005244,0,0,0,0.026534,0.001627,0.00080582,0.012864,0.0096555,0.025329,8.3174e-07,0.2,0.15,0.1
0.012211,0.0042189,0.0050198,0.025841,0.00092589,0.00058725,0.00067844,0.00029363,0.00047589,0.050775,-0.014005,-0.014886,0.0035279,0.0015269,0.0024746,0,0,0,0.025881,0.0010881,0.00038587,0.012747,0.0091182,0.025151,8.1533e-07,0.25,0.15,0.1
0.014736,0.0045756,0.0054118,0.025415,0.00053796,0.00034127,0.00025091,0.00026653,0.00014908,0.050303,-0.014378,-0.01489,0.0013047,0.0013859,0.00077522,0,0,0,0.025424,0.00072837,0.00014253,0.012641,0.0087649,0.024994,8.0082e-07,0.3,0.15,0.1
0.017242,0.0048157,0.0056866,0.025154,0.00029427,0.00019455,-3.4178e-05,0.00021812,-4.9772e-05,0.050015,-0.014621,-0.01488,-0.00017773,0.0011342,-0.00025881,0,0,0,0.025156,0.00047127,1.5515e-05,0.01257,0.0085476,0.024916,7.9395e-07,0.35,0.15,0.1
0.019738,0.0049676,0.0058743,0.025031,0.00013439,0.000106,-0.0002112,0.00015552,-0.0001658,0.049917,-0.014813,-0.014887,-0.0010983,0.00080872,-0.00086216,0,0,0,0.025034,0.0002759,-3.9041e-05,0.012537,0.0084237,0.024918,7.9453e-07,0.4,0.15,0.1
0.022234,0.0050565,0.0059991,0.025007,2.3858e-05,5.1737e-05,-0.00030335,8.5991e-05,-0.00022403,0.049968,-0.014987,-0.014915,-0.0015774,0.00044715,-0.0011649,0,0,0,0.025013,0.00012817,-5.8474e-05,0.012536,0.0083608,0.024978,8.006e-07,0.45,0.15,0.1
0.024735,0.0051043,0.006081,0.025044,-5.4917e-05,1.7754e-05,-0.00032713,1.8102e-05,-0.00023906,0.050111,-0.015147,-0.014958,-0.0017011,9.4133e-05,-0.0012431,0,0,0,0.025051,4.0314e-05,-8.4148e-05,0.012568,0.0083357,0.025073,8.0977e-07,0.5,0.15,0.1
0.027245,0.0051295,0.0061362,0.025111,-0.00010869,-3.8736e-06,-0.00029744,-3.8479e-05,-0.00022153,0.050289,-0.015282,-0.015009,-0.0015467,-0.00020009,-0.0011519,0,0,0,0.025117,1.5374e-05,-0.00013358,0.012625,0.0083328,0.025176,8.1967e-07,0.55,0.15,0.1
0.029764,0.0051471,0.006178,0.025181,-0.00013867,-1.7431e-05,-0.0002308,-7.4926e-05,-0.00018174,0.050456,-0.015376,-0.015061,-0.0012002,-0.00038961,-0.00094504,0,0,0,0.025185,1.9608e-05,-0.00017937,0.012682,0.0083418,0.025266,8.2831e-07,0.6,0.15,0.1
0.03229,0.005167,0.0062151,0.025239,-0.00014544,-2.547e-05,-0.0001459,-8.5933e-05,-0.00013078,0.05058,-0.015419,-0.015107,-0.00075869,-0.00044685,-0.00068008,0,0,0,0.02524,2.0062e-05,-0.00019274,0.012717,0.0083559,0.025328,8.3434e-07,0.65,0.15,0.1
0.034822,0.0051944,0.0062527,0.025274,-0.00013225,-3.0101e-05,-6.146e-05,-7.1656e-05,-7.9532e-05,0.050646,-0.015411,-0.015145,-0.00031959,-0.00037261,-0.00041357,0,0,0,0.025275,7.7051e-06,-0.00017066,0.012723,0.0083707,0.025357,8.3728e-07,0.7,0.15,0.1
0.037355,0.0052297,0.0062919,0.025288,-0.00010581,-3.3376e-05,7.1961e-06,-3.773e-05,-3.6637e-05,0.05066,-0.015364,-0.015176,3.742e-05,-0.0001962,-0.00019051,0,0,0,0.025288,-1.2719e-05,-0.00012664,0.012707,0.008383,0.025358,8.3747e-07,0.75,0.15,0.1
0.039888,0.0052696,0.0063311,0.025285,-7.4427e-05,-3.6895e-05,5.0837e-05,6.689e-06,-6.9616e-06,0.050636,-0.015298,-0.0152,0.00026435,3.4783e-05,-3.62e-05,0,0,0,0.025285,-1.641e-05,-9.5073e-05,0.01269,0.0083912,0.025341,8.3577e-07,0.8,0.15,0.1
0.042419,0.0053089,0.0063668,0.025272,-4.5417e-05,-4.1239e-05,6.7092e-05,5.1762e-05,8.6794e-06,0.050596,-0.015229,-0.015218,0.00034888,0.00026916,4.5133e-05,0,0,0,0.025272,1.4483e-05,-0.00010135,0.012687,0.0083951,0.025316,8.3326e-07,0.85,0.15,0.1
0.044947,0.0053419,0.0063955,0.025257,-2.3341e-05,-4.5835e-05,5.924e-05,8.9291e-05,1.2504e-05,0.050556,-0.015174,-0.015232,0.00030805,0.00046431,6.502e-05,0,0,0,0.025257,5.7702e-05,-0.00012704,0.012692,0.008396,0.025293,8.3086e-07,0.9,0.15,0.1
0.047474,0.0053639,0.0064141,0.025246,-9.9991e-06,-4.9412e-05,4.1724e-05,0.00011375,1.4603e-05,0.050528,-0.015138,-0.01524,0.00021696,0.00059152,7.5933e-05,0,0,0,0.025246,8.7492e-05,-0.00014699,0.012697,0.0083956,0.025277,8.2921e-07,0.95,0.15,0.1
0.048737,0.0053716,0.0064206,0.025242,-5.5896e-06,-5.0766e-05,3.3461e-05,0.00012221,1.7324e-05,0.050518,-0.015126,-0.015243,0.000174,0.00063547,9.0083e-05,0,0,0,0.025242,9.7748e-05,-0.00015417,0.012698,0.0083952,0.025271,8.2863e-07,1,0.15,0.1
0.001012,0.00045193,0.0007327,0.026537,0.009528,0.0085872,0.0033712,4.0406e-05,0.0050657,0.042205,-0.0020186,-0.0044647,0.01753,0.00021011,0.026341,0,0,0,0.028517,0.0093663,0.0067696,0.010873,0.014884,0.020582,4.3233e-07,0,0.2,0.1
0.0021103,0.00089315,0.0014357,0.026423,0.0078633,0.0064029,0.0031925,8.3887e-05,0.0044255,0.044287,-0.0039691,-0.0077662,0.016601,0.00043621,0.023013,0,0,0,0.02797,0.0076235,0.0050957,0.011437,0.013563,0.021735,5.1531e-07,0.05,0.2,0.1
0.0044287,0.0017367,0.0027324,0.026546,0.0051647,0.0032584,0.0027117,0.00017001,0.0031115,0.048038,-0.0075532,-0.01251,0.014101,0.00088405,0.01618,0,0,0,0.027368,0.0048857,0.002715,0.012327,0.011656,0.023659,6.6635e-07,0.1,0.2,0.1
0.0069141,0.0024762,0.0037708,0.02668,0.0033873,0.0018055,0.0020602,0.00024322,0.0019074,0.050243,-0.010316,-0.014429,0.010713,0.0012647,0.0099185,0,0,0,0.027053,0.0032236,0.0015955,0.012729,0.010624,0.024693,7.6208e-07,0.15,0.2,0.1
0.009453,0.0030772,0.004537,0.026371,0.0021502,0.0010444,0.0013926,0.00028738,0.0010341,0.050825,-0.012149,-0.015024,0.0072416,0.0014944,0.0053774,0,0,0,0.026517,0.0021298,0.0009182,0.0128,0.0098551,0.025019,7.9764e-07,0.2,0.2,0.1
0.011997,0.003535,0.0050864,0.025974,0.001338,0.00062209,0.00081969,0.00029778,0.00047806,0.050772,-0.013282,-0.015143,0.0042624,0.0015485,0.0024859,0,0,0,0.026022,0.0014229,0.00048914,0.012766,0.0093113,0.02508,8.0651e-07,0.25,0.2,0.1
0.01453,0.0038643,0.005472,0.025643,0.00081254,0.00037665,0.00037543,0.00027666,0.00013307,0.050572,-0.013986,-0.01512,0.0019523,0.0014386,0.00069197,0,0,0,0.025654,0.00094908,0.00022838,0.012713,0.0089439,0.025074,8.0761e-07,0.3,0.2,0.1
0.017054,0.0040868,0.0057348,0.025418,0.00046824,0.00022859,5.4077e-05,0.00022843,-7.9223e-05,0.050418,-0.014452,-0.015075,0.0002812,0.0011878,-0.00041196,0,0,0,0.025421,0.00061167,8.2473e-05,0.012669,0.008705,0.025078,8.0911e-07,0.35,0.2,0.1
0.019572,0.0042259,0.0059067,0.025296,0.00023498,0.00013597,-0.00016051,0.00015865,-0.00020438,0.05037,-0.014789,-0.015047,-0.00083463,0.00082499,-0.0010628,0,0,0,0.0253,0.00035401,1.3324e-05,0.012643,0.0085558,0.025118,8.1367e-07,0.4,0.2,0.1
0.022091,0.004304,0.0060138,0.025255,6.9596e-05,7.5106e-05,-0.00028311,7.5296e-05,-0.00026652,0.050424,-0.015059,-0.015045,-0.0014722,0.00039154,-0.0013859,0,0,0,0.025262,0.00016361,-2.5242e-05,0.012643,0.0084667,0.025193,8.2132e-07,0.45,0.2,0.1
0.024614,0.0043425,0.0060783,0.025268,-5.0915e-05,3.2852e-05,-0.00032651,-1.0011e-05,-0.00027868,0.050547,-0.015282,-0.015065,-0.0016978,-5.2056e-05,-0.0014491,0,0,0,0.025276,6.4047e-05,-8.9562e-05,0.012683,0.0084167,0.025289,8.3074e-07,0.5,0.2,0.1
0.027145,0.0043604,0.0061193,0.025308,-0.00013522,2.9684e-06,-0.00030473,-8.2671e-05,-0.00025078,0.050695,-0.015457,-0.015098,-0.0015846,-0.00042989,-0.0013041,0,0,0,0.025314,4.6405e-05,-0.000185,0.01275,0.0083919,0.025385,8.4e-07,0.55,0.2,0.1
0.029684,0.004373,0.0061519,0.025352,-0.00018423,-1.6731e-05,-0.00023612,-0.00012851,-0.00019458,0.050824,-0.015569,-0.015134,-0.0012278,-0.00066824,-0.0010118,0,0,0,0.025356,5.4449e-05,-0.00025939,0.012807,0.0083835,0.02546,8.4722e-07,0.6,0.2,0.1
0.032228,0.004391,0.0061864,0.025382,-0.00019826,-2.7302e-05,-0.00014342,-0.00013858,-0.00012488,0.0509,-0.01561,-0.015165,-0.00074576,-0.00072063,-0.00064936,0,0,0,0.025384,5.1045e-05,-0.00027836,0.012831,0.0083856,0.0255,8.5114e-07,0.65,0.2,0.1
0.034774,0.0044194,0.0062277,0.025393,-0.00018225,-3.0821e-05,-5.0182e-05,-0.00011276,-5.7256e-05,0.050915,-0.015582,-0.015188,-0.00026095,-0.00058636,-0.00029773,0,0,0,0.025394,3.0507e-05,-0.00024408,0.012819,0.0083934,0.025502,8.5149e-07,0.7,0.2,0.1
0.037319,0.0044578,0.0062757,0.025385,-0.00014673,-3.0741e-05,2.4414e-05,-5.9733e-05,-4.1284e-06,0.050877,-0.015506,-0.015205,0.00012695,-0.00031061,-2.1467e-05,0,0,0,0.025385,1.9141e-07,-0.00017784,0.012782,0.0084026,0.025475,8.4898e-07,0.75,0.2,0.1
0.039862,0.0045019,0.0063265,0.025365,-0.00010453,-3.0597e-05,6.9538e-05,6.5027e-06,2.8203e-05,0.050811,-0.01541,-0.015217,0.0003616,3.3814e-05,0.00014666,0,0,0,0.025365,-7.0161e-06,-0.00012841,0.012747,0.0084099,0.025433,8.4488e-07,0.8,0.2,0.1
0.0424,0.0045453,0.0063741,0.02534,-6.6396e-05,-3.235e-05,8.3352e-05,7.1558e-05,3.9825e-05,0.050739,-0.015317,-0.015229,0.00043343,0.0003721,0.00020709,0,0,0,0.02534,3.2832e-05,-0.00013195,0.012736,0.0084138,0.02539,8.4057e-07,0.85,0.2,0.1
0.044936,0.0045816,0.0064128,0.025318,-3.8297e-05,-3.5748e-05,7.0718e-05,0.0001243,3.512e-05,0.050681,-0.015246,-0.015239,0.00036773,0.00064637,0.00018262,0,0,0,0.025318,9.0368e-05,-0.0001647,0.012742,0.0084147,0.025357,8.3704e-07,0.9,0.2,0.1
0.047468,0.0046056,0.0064379,0.025304,-2.1859e-05,-3.9049e-05,4.8196e-05,0.000158,2.8597e-05,0.050644,-0.015203,-0.015247,0.00025062,0.00082161,0.00014871,0,0,0,0.025304,0.00013021,-0.00019126,0.012748,0.0084143,0.025336,8.3482e-07,0.95,0.2,0.1
0.048734,0.0046139,0.0064466,0.025299,-1.654e-05,-4.0405e-05,3.7683e-05,0.00016952,2.7784e-05,0.050632,-0.015188,-0.01525,0.00019595,0.00088149,0.00014447,0,0,0,0.025299,0.0001438,-0.00020083,0.01275,0.0084139,0.025329,8.3408e-07,1,0.2,0.1
0.0010015,0.00036193,0.0007432,0.026293,0.0096084,0.0085345,0.0027212,4.0024e-05,0.005146,0.0417,-0.0016797,-0.0044719,0.01415,0.00020813,0.026759,0,0,0,0.028135,0.0094811,0.0068201,0.010657,0.014812,0.020128,4.0102e-07,0,0.25,0.1
0.002085,0.00071509,0.0014569,0.026197,0.0081131,0.0063941,0.0026075,8.1403e-05,0.0045045,0.043689,-0.0033282,-0.0077977,0.013559,0.0004233,0.023424,0,0,0,0.027629,0.0079246,0.0051502,0.011239,0.013568,0.021241,4.7393e-07,0.05,0.25,0.1
0.0043689,0.001393,0.0027743,0.026346,0.0056662,0.003302,0.002291,0.00016214,0.0031841,0.04731,-0.0064562,-0.012603,0.011913,0.00084313,0.016557,0,0,0,0.027102,0.0054437,0.0027684,0.012167,0.011771,0.023126,6.1172e-07,0.1,0.25,0.1
0.0068161,0.0019964,0.0038297,0.026521,0.0039603,0.0018518,0.0018357,0.00023109,0.0019652,0.049554,-0.009103,-0.014585,0.0095455,0.0012017,0.010219,0,0,0,0.02687,0.0038174,0.001646,0.012612,0.010778,0.024219,7.1017e-07,0.15,0.25,0.1
0.0093243,0.0024987,0.0046062,0.026293,0.0026567,0.0010786,0.0013286,0.0002763,0.001071,0.050345,-0.01111,-0.015213,0.0069085,0.0014367,0.0055694,0,0,0,0.026436,0.0026158,0.00097665,0.01273,0.01001,0.024685,7.6069e-07,0.2,0.25,0.1
0.011851,0.0028907,0.005158,0.025991,0.0017295,0.00064858,0.00084956,0.00029199,0.00049313,0.050555,-0.012525,-0.015335,0.0044177,0.0015183,0.0025643,0,0,0,0.026042,0.0017726,0.00055506,0.012743,0.0094564,0.024902,7.8666e-07,0.25,0.25,0.1
0.01438,0.0031769,0.005538,0.025738,0.001095,0.00040185,0.00044372,0.00027617,0.00012772,0.050577,-0.013494,-0.015296,0.0023074,0.0014361,0.00066414,0,0,0,0.025752,0.0011884,0.00029452,0.012729,0.0090782,0.025023,8.0142e-07,0.3,0.25,0.1
0.016908,0.0033705,0.0057884,0.025561,0.00066168,0.0002538,0.00012666,0.0002288,-0.00010285,0.050574,-0.014166,-0.015226,0.00065863,0.0011897,-0.00053482,0,0,0,0.025565,0.00076804,0.00014392,0.012711,0.0088256,0.025116,8.1214e-07,0.35,0.25,0.1
0.019437,0.0034887,0.0059424,0.025462,0.00035914,0.00015898,-0.00010048,0.00015226,-0.000243,0.050613,-0.014654,-0.015175,-0.00052248,0.00079178,-0.0012636,0,0,0,0.025466,0.00044423,7.0065e-05,0.012698,0.00866,0.025211,8.2253e-07,0.4,0.25,0.1
0.02197,0.0035506,0.0060285,0.025426,0.00013958,9.1978e-05,-0.0002408,5.3914e-05,-0.00031423,0.050714,-0.015032,-0.015156,-0.0012521,0.00028035,-0.001634,0,0,0,0.025433,0.00021049,1.4434e-05,0.012709,0.0085527,0.025321,8.3385e-07,0.45,0.25,0.1
0.024509,0.003576,0.0060717,0.025435,-2.3925e-05,3.9995e-05,-0.00029931,-5.1808e-05,-0.00032627,0.050861,-0.015333,-0.015167,-0.0015564,-0.0002694,-0.0016966,0,0,0,0.025443,0.00010261,-9.4475e-05,0.012769,0.0084838,0.02544,8.4556e-07,0.5,0.25,0.1
0.027056,0.0035838,0.0060947,0.025466,-0.00014121,-5.4813e-07,-0.00028572,-0.00014412,-0.00028714,0.051016,-0.015561,-0.015196,-0.0014858,-0.00074941,-0.0014931,0,0,0,0.025472,9.3008e-05,-0.00024147,0.012857,0.0084413,0.025549,8.5601e-07,0.55,0.25,0.1
0.02961,0.0035901,0.0061159,0.025495,-0.00021218,-2.7882e-05,-0.00021789,-0.00020131,-0.00021025,0.051135,-0.015705,-0.015226,-0.001133,-0.0010468,-0.0010933,0,0,0,0.025499,0.00010337,-0.00034741,0.012923,0.0084185,0.025625,8.6326e-07,0.6,0.25,0.1
0.032169,0.003606,0.0061477,0.025509,-0.00023642,-4.0074e-05,-0.00012151,-0.00020912,-0.00011592,0.051184,-0.015754,-0.015244,-0.00063183,-0.0010874,-0.0006028,0,0,0,0.025511,9.4399e-05,-0.00037243,0.012942,0.0084109,0.025653,8.6607e-07,0.65,0.25,0.1
0.034729,0.0036362,0.0061951,0.025501,-0.00022063,-3.9069e-05,-2.4653e-05,-0.00016707,-2.6952e-05,0.051158,-0.015719,-0.015246,-0.0001282,-0.00086875,-0.00014015,0,0,0,0.025502,6.2285e-05,-0.00032238,0.012912,0.0084138,0.025634,8.6442e-07,0.7,0.25,0.1
0.037285,0.0036791,0.0062559,0.025475,-0.00017967,-3.1055e-05,5.0093e-05,-8.8561e-05,3.8704e-05,0.051076,-0.015626,-0.015239,0.00026048,-0.00046052,0.00020126,0,0,0,0.025475,1.8525e-05,-0.00022961,0.012852,0.0084214,0.025582,8.5954e-07,0.75,0.25,0.1
0.039836,0.0037287,0.0063228,0.025439,-0.00013132,-2.3273e-05,9.1238e-05,5.3674e-06,7.3068e-05,0.050971,-0.015512,-0.015231,0.00047444,2.791e-05,0.00037995,0,0,0,0.02544,6.896e-06,-0.00016212,0.012801,0.0084282,0.025518,8.533e-07,0.8,0.25,0.1
0.042382,0.0037772,0.0063866,0.025404,-8.9415e-05,-2.0111e-05,9.8656e-05,9.437e-05,7.8205e-05,0.050874,-0.015409,-0.015229,0.00051301,0.00049073,0.00040666,0,0,0,0.025405,5.6867e-05,-0.00016707,0.012786,0.0084316,0.025461,8.4748e-07,0.85,0.25,0.1
0.044924,0.0038173,0.0064386,0.025377,-6.0395e-05,-2.158e-05,7.959e-05,0.00016424,6.2083e-05,0.050804,-0.015334,-0.015233,0.00041387,0.00085404,0.00032283,0,0,0,0.025378,0.00012859,-0.00021102,0.012794,0.0084317,0.025421,8.4316e-07,0.9,0.25,0.1
0.047463,0.0038436,0.0064723,0.025361,-4.4527e-05,-2.4698e-05,5.273e-05,0.00020775,4.5172e-05,0.050763,-0.015291,-0.015239,0.0002742,0.0010803,0.00023489,0,0,0,0.025361,0.000177,-0.00024645,0.012804,0.0084305,0.025398,8.4065e-07,0.95,0.25,0.1
0.048731,0.0038527,0.006484,0.025355,-3.9629e-05,-2.6191e-05,4.0829e-05,0.0002224,4.0442e-05,0.05075,-0.015277,-0.015242,0.00021231,0.0011565,0.0002103,0,0,0,0.025355,0.00019317,-0.00025913,0.012807,0.0084298,0.025391,8.3985e-07,1,0.25,0.1
0.00099691,0.00028396,0.00075379,0.026187,0.0096653,0.0085172,0.0021439,3.9093e-05,0.0052261,0.041464,-0.0014916,-0.0044768,0.011148,0.00020328,0.027176,0,0,0,0.027934,0.0095776,0.006857,0.010539,0.01479,0.019871,3.8327e-07,0,0.3,0.1
0.0020732,0.00056033,0.001478,0.026093,0.0082673,0.0063988,0.0020678,7.8413e-05,0.0045828,0.043387,-0.0029608,-0.0078189,0.010752,0.00040775,0.023831,0,0,0,0.027441,0.0081375,0.0051806,0.01113,0.013587,0.020953,4.4938e-07,0.05,0.3,0.1
0.0043387,0.001091,0.0028154,0.026242,0.0059785,0.0033329,0.0018528,0.00015426,0.0032564,0.046897,-0.005788,-0.012666,0.0096348,0.00080215,0.016933,0,0,0,0.026938,0.0058242,0.0027911,0.012074,0.011851,0.022794,5.769e-07,0.1,0.3,0.1
0.0067629,0.0015659,0.0038874,0.026424,0.0043475,0.0018856,0.0015352,0.00021922,0.0020264,0.049108,-0.0082907,-0.014692,0.0079829,0.00114,0.010537,0,0,0,0.02674,0.0042447,0.0016724,0.012534,0.010886,0.023893,6.7364e-07,0.15,0.3,0.1
0.0092496,0.0019662,0.0046745,0.02623,0.0030367,0.0011083,0.0011648,0.00026462,0.0011169,0.049972,-0.01033,-0.015343,0.0060567,0.001376,0.005808,0,0,0,0.026359,0.0030026,0.0010126,0.012673,0.010125,0.024417,7.3059e-07,0.2,0.3,0.1
0.01176,0.0022825,0.0052294,0.025976,0.0020522,0.00067467,0.00079167,0.00028448,0.0005211,0.050316,-0.011886,-0.015468,0.0041167,0.0014793,0.0027097,0,0,0,0.026023,0.0020801,0.00059952,0.012712,0.0095676,0.024719,7.663e-07,0.25,0.3,0.1
0.014281,0.0025149,0.0056048,0.025771,0.0013463,0.00042758,0.00045265,0.00027365,0.000136,0.050477,-0.013026,-0.015415,0.0023538,0.001423,0.00070717,0,0,0,0.025785,0.0014158,0.000344,0.01272,0.0091815,0.024924,7.903e-07,0.3,0.3,0.1
0.016808,0.0026702,0.0058426,0.025631,0.00084756,0.00028024,0.00016879,0.00022751,-0.00011551,0.050585,-0.013852,-0.015327,0.00087771,0.0011831,-0.00060066,0,0,0,0.025635,0.00092883,0.00019487,0.01272,0.0089196,0.025082,8.0821e-07,0.35,0.3,0.1
0.01934,0.0027604,0.0059774,0.025554,0.00049093,0.00018293,-4.876e-05,0.00014419,-0.00027582,0.050704,-0.01446,-0.015261,-0.00025355,0.00074977,-0.0014343,0,0,0,0.025558,0.00055001,0.0001196,0.012719,0.0087426,0.025227,8.238e-07,0.4,0.3,0.1
0.021878,0.0028009,0.0060393,0.02553,0.00022744,0.00010686,-0.00019289,2.8991e-05,-0.00036203,0.050859,-0.014927,-0.015241,-0.001003,0.00015075,-0.0018825,0,0,0,0.025537,0.00028038,4.6773e-05,0.012745,0.0086214,0.025375,8.3899e-07,0.45,0.3,0.1
0.024426,0.0028092,0.0060572,0.025543,2.7646e-05,3.9114e-05,-0.00025951,-0.00010125,-0.00037809,0.051046,-0.015294,-0.015264,-0.0013494,-0.00052648,-0.0019661,0,0,0,0.025552,0.00016424,-0.00010601,0.012829,0.0085366,0.025524,8.5372e-07,0.5,0.3,0.1
0.026983,0.0028042,0.0060584,0.025573,-0.00011891,-1.927e-05,-0.00025179,-0.00021821,-0.0003281,0.051229,-0.01557,-0.015311,-0.0013093,-0.0011347,-0.0017061,0,0,0,0.02558,0.00015808,-0.00030329,0.012942,0.0084782,0.025656,8.6631e-07,0.55,0.3,0.1
0.029548,0.0028025,0.006066,0.025598,-0.00021093,-5.8954e-05,-0.00018527,-0.00029001,-0.00022692,0.051358,-0.015745,-0.01535,-0.0009634,-0.001508,-0.00118,0,0,0,0.025602,0.00016755,-0.00044132,0.013022,0.0084426,0.025745,8.7456e-07,0.6,0.3,0.1
0.032119,0.0028155,0.0060957,0.025603,-0.00024734,-7.2217e-05,-8.7636e-05,-0.0002949,-0.00010246,0.051397,-0.015813,-0.015358,-0.00045571,-0.0015335,-0.00053279,0,0,0,0.025604,0.00015041,-0.00047126,0.013038,0.0084277,0.025771,8.7712e-07,0.65,0.3,0.1
0.034688,0.0028475,0.0061523,0.025583,-0.00023646,-6.0828e-05,8.9819e-06,-0.0002321,1.2189e-05,0.051344,-0.015786,-0.015329,4.6706e-05,-0.0012069,6.338e-05,0,0,0,0.025583,0.00010257,-0.0004003,0.012992,0.0084284,0.025736,8.7422e-07,0.7,0.3,0.1
0.037253,0.0028953,0.0062308,0.025545,-0.00019703,-3.644e-05,7.9187e-05,-0.00012191,9.1417e-05,0.051229,-0.015699,-0.015281,0.00041177,-0.00063395,0.00047537,0,0,0,0.025545,4.1679e-05,-0.00027594,0.012911,0.008437,0.025664,8.6766e-07,0.75,0.3,0.1
0.039811,0.0029507,0.0063194,0.025501,-0.0001511,-1.3628e-05,0.00011188,4.8525e-06,0.00012569,0.051101,-0.015595,-0.015237,0.00058177,2.5233e-05,0.00065359,0,0,0,0.025502,2.5707e-05,-0.00019166,0.012847,0.0084454,0.025586,8.6004e-07,0.8,0.3,0.1
0.042363,0.0030044,0.0064041,0.025463,-0.00011458,-1.2869e-06,0.00010994,0.00012042,0.00012087,0.050995,-0.015506,-0.015212,0.00057169,0.00062621,0.00062852,0,0,0,0.025464,8.7635e-05,-0.00020463,0.012834,0.008449,0.025524,8.5359e-07,0.85,0.3,0.1
0.044911,0.0030482,0.0064729,0.025436,-9.2751e-05,5.2608e-07,8.382e-05,0.0002078,9.0479e-05,0.050928,-0.015448,-0.015205,0.00043586,0.0010806,0.00047049,0,0,0,0.025437,0.00017229,-0.00026521,0.012851,0.008448,0.025486,8.4936e-07,0.9,0.3,0.1
0.047456,0.0030765,0.0065173,0.025422,-8.2997e-05,-2.5398e-06,5.4121e-05,0.00026052,6.2487e-05,0.050895,-0.015417,-0.015208,0.00028143,0.0013547,0.00032493,0,0,0,0.025422,0.0002261,-0.00031195,0.012867,0.0084454,0.025469,8.4723e-07,0.95,0.3,0.1
0.048728,0.0030863,0.0065326,0.025417,-8.0483e-05,-4.3973e-06,4.2005e-05,0.00027795,5.4217e-05,0.050885,-0.015409,-0.015211,0.00021843,0.0014453,0.00028193,0,0,0,0.025417,0.00024343,-0.00032851,0.012873,0.0084441,0.025465,8.4663e-07,1,0.3,0.1
0.0009957,0.00021278,0.000764,0.026162,0.009711,0.0085217,0.0016109,3.7529e-05,0.0053032,0.041385,-0.0013883,-0.0044804,0.0083769,0.00019515,0.027577,0,0,0,0.027849,0.0096571,0.0068884,0.01048,0.014798,0.019738,3.7375e-07,0,0.35,0.1
0.0020692,0.00041901,0.0014981,0.026068,0.0083671,0.0064137,0.00156,7.447e-05,0.0046581,0.043267,-0.0027548,-0.0078337,0.0081122,0.00038725,0.024222,0,0,0,0.027358,0.0082875,0.0052029,0.011078,0.013616,0.0208,4.3559e-07,0.05,0.35,0.1
0.0043267,0.0008142,0.0028544,0.026209,0.0061712,0.0033593,0.0014157,0.00014513,0.003327,0.0467,-0.0053986,-0.012709,0.0073616,0.00075465,0.0173,0,0,0,0.026859,0.0060765,0.0028041,0.012027,0.011913,0.022607,5.5628e-07,0.1,0.35,0.1
0.0067392,0.0011673,0.0039418,0.026386,0.0045949,0.0019131,0.0012007,0.00020601,0.00209,0.048867,-0.0077895,-0.014762,0.0062434,0.0010713,0.010868,0,0,0,0.026672,0.004532,0.0016898,0.012491,0.010965,0.023696,6.5078e-07,0.15,0.35,0.1
0.0092134,0.0014658,0.0047392,0.026201,0.0032941,0.0011357,0.00094368,0.00025125,0.0011708,0.049744,-0.0098138,-0.015426,0.0049071,0.0013065,0.0060884,0,0,0,0.026315,0.0032756,0.0010397,0.012638,0.01021,0.024239,7.1022e-07,0.2,0.35,0.1
0.011714,0.0017021,0.0052978,0.025967,0.0022856,0.00070338,0.00067279,0.00027506,0.00056239,0.050141,-0.011431,-0.015545,0.0034985,0.0014303,0.0029244,0,0,0,0.026009,0.0023111,0.00063636,0.012686,0.0096521,0.024581,7.5079e-07,0.25,0.35,0.1
0.014228,0.0018743,0.0056691,0.025785,0.0015405,0.0004598,0.00041202,0.00026986,0.00016048,0.05037,-0.012666,-0.015476,0.0021425,0.0014033,0.0008345,0,0,0,0.025798,0.0015992,0.00038839,0.012705,0.0092618,0.024828,7.7983e-07,0.3,0.35,0.1
0.016751,0.0019853,0.0058947,0.025664,0.0010024,0.0003155,0.00017911,0.00022658,-0.00011249,0.050537,-0.013583,-0.015369,0.00093135,0.0011782,-0.00058494,0,0,0,0.025668,0.0010707,0.00024299,0.012713,0.0089939,0.025023,8.018e-07,0.35,0.35,0.1
0.019281,0.0020427,0.006009,0.025598,0.00061287,0.00021514,-1.1873e-05,0.00013814,-0.0002969,0.0507,-0.014262,-0.015296,-6.174e-05,0.00071832,-0.0015439,0,0,0,0.025603,0.0006592,0.00016414,0.012719,0.0088088,0.025196,8.2047e-07,0.4,0.35,0.1
0.021821,0.0020579,0.0060441,0.02558,0.000323,0.00012451,-0.00014718,6.4521e-06,-0.00040404,0.050891,-0.014776,-0.015293,-0.00076532,3.3551e-05,-0.002101,0,0,0,0.025587,0.00036896,7.0725e-05,0.012758,0.0086757,0.025369,8.3829e-07,0.45,0.35,0.1
0.02437,0.0020466,0.0060328,0.025595,0.00010124,2.9941e-05,-0.00021447,-0.00015013,-0.00042946,0.05111,-0.015172,-0.015358,-0.0011153,-0.00078066,-0.0022332,0,0,0,0.025604,0.0002454,-0.00012355,0.012864,0.0085753,0.025546,8.5553e-07,0.5,0.35,0.1
0.026932,0.0020268,0.0060082,0.025624,-6.3971e-05,-5.9881e-05,-0.00020976,-0.00029498,-0.00037065,0.051322,-0.015466,-0.015456,-0.0010907,-0.0015339,-0.0019274,0,0,0,0.025632,0.00023716,-0.00036852,0.013,0.0085001,0.025704,8.703e-07,0.55,0.35,0.1
0.029503,0.0020156,0.0060001,0.025647,-0.00017137,-0.00012138,-0.00014514,-0.00038386,-0.00024313,0.05147,-0.015658,-0.015528,-0.00075473,-0.0019961,-0.0012643,0,0,0,0.025651,0.00024231,-0.00053891,0.013095,0.0084515,0.025809,8.7994e-07,0.6,0.35,0.1
0.032079,0.0020248,0.0060284,0.025649,-0.00022045,-0.00013542,-4.916e-05,-0.00038574,-8.4516e-05,0.051511,-0.015749,-0.015528,-0.00025563,-0.0020059,-0.00043948,0,0,0,0.02565,0.00021425,-0.00057128,0.01311,0.0084309,0.025838,8.8288e-07,0.65,0.35,0.1
0.034654,0.0020576,0.006098,0.025625,-0.00022091,-0.00010357,4.3166e-05,-0.00029961,5.8429e-05,0.051445,-0.015755,-0.01545,0.00022446,-0.001558,0.00030383,0,0,0,0.025626,0.0001476,-0.00047281,0.013049,0.0084336,0.025795,8.7951e-07,0.7,0.35,0.1
0.037223,0.0021092,0.0061999,0.025586,-0.00019345,-4.8552e-05,0.00010467,-0.0001546,0.00015036,0.051317,-0.015709,-0.015333,0.00054428,-0.00080392,0.00078186,0,0,0,0.025588,6.8561e-05,-0.0003121,0.01295,0.008448,0.025712,8.7224e-07,0.75,0.35,0.1
0.039785,0.0021692,0.0063159,0.025546,-0.00016221,1.1355e-06,0.0001257,6.4495e-06,0.00018088,0.051188,-0.015652,-0.015228,0.00065362,3.3537e-05,0.0009406,0,0,0,0.025548,5.1013e-05,-0.00021409,0.012881,0.0084615,0.02563,8.6439e-07,0.8,0.35,0.1
0.042342,0.0022266,0.0064263,0.025515,-0.00014309,2.9047e-05,0.00011307,0.00014753,0.00016216,0.051098,-0.015613,-0.015165,0.00058796,0.00076718,0.00084322,0,0,0,0.025517,0.00012628,-0.00024198,0.012879,0.0084669,0.025577,8.5864e-07,0.85,0.35,0.1
0.044895,0.0022726,0.0065151,0.025498,-0.00013846,3.5804e-05,8.0878e-05,0.00024977,0.00011551,0.051057,-0.015597,-0.015144,0.00042057,0.0012988,0.00060065,0,0,0,0.025499,0.00021992,-0.00032349,0.012911,0.0084651,0.025555,8.5579e-07,0.9,0.35,0.1
0.047448,0.0023019,0.0065718,0.025491,-0.00014135,3.2237e-05,5.095e-05,0.00030915,7.7653e-05,0.051048,-0.015597,-0.015146,0.00026494,0.0016076,0.0004038,0,0,0,0.025492,0.00027374,-0.00038325,0.012937,0.0084608,0.025553,8.5501e-07,0.95,0.35,0.1
0.048724,0.0023119,0.0065913,0.02549,-0.00014346,2.9549e-05,4.0144e-05,0.00032833,6.7349e-05,0.051048,-0.015599,-0.015149,0.00020875,0.0017073,0.00035021,0,0,0,0.02549,0.00029003,-0.0004042,0.012947,0.0084587,0.025555,8.5496e-07,1,0.35,0.1
0.00099657,0.00014513,0.00077336,0.026188,0.0097484,0.0085396,0.0011013,3.4609e-05,0.0053741,0.041404,-0.0013401,-0.0044829,0.0057267,0.00017997,0.027945,0,0,0,0.02784,0.0097203,0.0069157,0.010462,0.014825,0.019689,3.6973e-07,0,0.4,0.1
0.0020702,0.00028485,0.0015165,0.026093,0.0084305,0.0064351,0.0010696,6.8055e-05,0.0047277,0.043266,-0.0026556,-0.0078437,0.0055618,0.00035389,0.024584,0,0,0,0.027348,0.0083893,0.005221,0.011063,0.013653,0.02074,4.2924e-07,0.05,0.4,0.1
0.0043266,0.00055118,0.0028896,0.026227,0.0062812,0.0033839,0.00097977,0.00013164,0.0033939,0.046654,-0.0052039,-0.012737,0.0050948,0.00068451,0.017648,0,0,0,0.026846,0.0062329,0.0028133,0.012016,0.011964,0.022528,5.4622e-07,0.1,0.4,0.1
0.0067356,0.000787,0.003991,0.026397,0.0047361,0.0019377,0.00084676,0.00018701,0.002154,0.048789,-0.0075285,-0.014804,0.0044031,0.00097246,0.011201,0,0,0,0.026661,0.0047059,0.0017038,0.012478,0.011023,0.023606,6.3937e-07,0.15,0.4,0.1
0.0092055,0.00098482,0.0047978,0.026211,0.0034448,0.0011631,0.00068619,0.00023084,0.0012313,0.049658,-0.0095351,-0.015468,0.0035682,0.0012004,0.0064027,0,0,0,0.026313,0.0034415,0.0010646,0.012624,0.010273,0.024152,6.9975e-07,0.2,0.4,0.1
0.011701,0.0011394,0.0053603,0.025983,0.0024274,0.00073684,0.00051053,0.00025796,0.00061645,0.050067,-0.011177,-0.015572,0.0026548,0.0013414,0.0032055,0,0,0,0.026019,0.0024543,0.00067417,0.012672,0.0097157,0.024506,7.4235e-07,0.25,0.4,0.1
0.014212,0.0012483,0.0057284,0.025806,0.0016647,0.00050199,0.00033166,0.00025916,0.0002026,0.050311,-0.012455,-0.015478,0.0017247,0.0013476,0.0010535,0,0,0,0.025817,0.0017178,0.00043793,0.012689,0.0093241,0.024765,7.732e-07,0.3,0.4,0.1
0.016733,0.001312,0.0059424,0.025686,0.0011099,0.00036471,0.0001603,0.00022148,-8.9861e-05,0.050488,-0.013411,-0.015348,0.00083358,0.0011517,-0.00046728,0,0,0,0.02569,0.0011717,0.00029906,0.012695,0.0090536,0.024967,7.9615e-07,0.35,0.4,0.1
0.019261,0.0013342,0.006036,0.025617,0.0007097,0.00026162,8.7103e-06,0.00013243,-0.00030003,0.050651,-0.014108,-0.015273,4.5293e-05,0.00068862,-0.0015602,0,0,0,0.025622,0.0007514,0.0002151,0.012703,0.0088627,0.025144,8.1519e-07,0.4,0.4,0.1
0.021798,0.0013232,0.0060424,0.02559,0.00041482,0.00014959,-0.00010652,-1.0681e-05,-0.00043277,0.050842,-0.014614,-0.015304,-0.00055392,-5.5541e-05,-0.0022504,0,0,0,0.025599,0.0004587,9.7308e-05,0.012751,0.0087183,0.025323,8.3353e-07,0.45,0.4,0.1
0.024345,0.001292,0.0059984,0.025596,0.00019052,1.217e-05,-0.00016693,-0.00018899,-0.00047282,0.05107,-0.014984,-0.015448,-0.00086805,-0.00098276,-0.0024586,0,0,0,0.025606,0.00033249,-0.00013995,0.012873,0.0085996,0.025514,8.519e-07,0.5,0.4,0.1
0.026905,0.0012576,0.0059446,0.025617,2.2716e-05,-0.00012952,-0.00016238,-0.00035777,-0.0004087,0.051299,-0.015247,-0.015643,-0.00084439,-0.0018604,-0.0021252,0,0,0,0.025625,0.00031794,-0.0004328,0.013029,0.0085035,0.025693,8.6817e-07,0.55,0.4,0.1
0.029475,0.0012366,0.0059188,0.025636,-8.9942e-05,-0.00022703,-0.00010168,-0.00046109,-0.00025649,0.051462,-0.015425,-0.015782,-0.00052874,-0.0023977,-0.0013338,0,0,0,0.02564,0.00031409,-0.00063496,0.013137,0.0084397,0.025815,8.791e-07,0.6,0.4,0.1
0.032051,0.0012407,0.0059465,0.025638,-0.00015062,-0.00024163,-1.2431e-05,-0.00046027,-6.4544e-05,0.051511,-0.015539,-0.015776,-6.4643e-05,-0.0023934,-0.00033563,0,0,0,0.025639,0.00027314,-0.00066655,0.013153,0.0084152,0.02585,8.8275e-07,0.65,0.4,0.1
0.034626,0.0012721,0.0060329,0.02562,-0.00017004,-0.00017476,7.045e-05,-0.00035419,0.00010539,0.051448,-0.015608,-0.01562,0.00036634,-0.0018418,0.00054805,0,0,0,0.025622,0.00018867,-0.00053468,0.013078,0.0084252,0.025804,8.7963e-07,0.7,0.4,0.1
0.037196,0.0013243,0.0061635,0.025594,-0.0001671,-6.8337e-05,0.00011996,-0.00017938,0.00020722,0.051329,-0.01565,-0.015393,0.00062378,-0.00093275,0.0010776,0,0,0,0.025596,9.673e-05,-0.0003346,0.012965,0.0084528,0.025719,8.7266e-07,0.75,0.4,0.1
0.039759,0.0013855,0.0063122,0.025571,-0.00016459,2.473e-05,0.00012813,9.8731e-06,0.00022989,0.051226,-0.015687,-0.015195,0.00066628,5.134e-05,0.0011954,0,0,0,0.025574,8.4382e-05,-0.00022706,0.012901,0.0084771,0.025647,8.6594e-07,0.8,0.4,0.1
0.042318,0.0014431,0.0064521,0.025561,-0.000176,7.5933e-05,0.0001056,0.00016948,0.00019408,0.051183,-0.015734,-0.015079,0.00054913,0.00088129,0.0010092,0,0,0,0.025563,0.0001726,-0.00027474,0.012919,0.0084871,0.025618,8.6247e-07,0.85,0.4,0.1
0.044877,0.0014885,0.006563,0.025564,-0.00019869,8.8854e-05,6.9895e-05,0.00027989,0.00013122,0.051195,-0.015789,-0.015042,0.00036346,0.0014554,0.00068232,0,0,0,0.025565,0.0002677,-0.00037858,0.012972,0.0084849,0.025627,8.6254e-07,0.9,0.4,0.1
0.047438,0.0015168,0.0066331,0.025572,-0.00022035,8.3467e-05,4.2813e-05,0.00034118,8.7227e-05,0.051227,-0.015834,-0.015044,0.00022263,0.0017741,0.00045358,0,0,0,0.025573,0.00031425,-0.00045157,0.013012,0.0084785,0.025651,8.642e-07,0.95,0.4,0.1
0.048719,0.0015264,0.006657,0.025576,-0.00022913,7.9104e-05,3.4735e-05,0.00036041,7.7648e-05,0.051243,-0.015852,-0.01505,0.00018062,0.0018741,0.00040377,0,0,0,0.025577,0.00032664,-0.00047698,0.013027,0.0084755,0.025662,8.6509e-07,1,0.4,0.1
0.00099866,7.8765e-05,0.00078137,0.026245,0.0097776,0.0085645,0.00059942,2.952e-05,0.0054351,0.041485,-0.0013305,-0.0044844,0.003117,0.00015351,0.028262,0,0,0,0.027882,0.0097668,0.006938,0.010472,0.014862,0.0197,3.6962e-07,0,0.45,0.1
0.0020742,0.00015345,0.0015321,0.026148,0.008466,0.0064594,0.00058369,5.7527e-05,0.0047881,0.043341,-0.0026325,-0.0078496,0.0030352,0.00029914,0.024898,0,0,0,0.027387,0.0084504,0.0052357,0.011076,0.013691,0.020748,4.2835e-07,0.05,0.45,0.1
0.0043341,0.00029381,0.0029194,0.026279,0.0063297,0.0034066,0.0005396,0.00011045,0.0034537,0.046716,-0.005152,-0.012752,0.0028059,0.00057436,0.017959,0,0,0,0.026882,0.0063124,0.002821,0.01203,0.012005,0.022529,5.4428e-07,0.1,0.45,0.1
0.0067459,0.00041447,0.0040323,0.026445,0.0047945,0.0019606,0.00047631,0.00015712,0.002215,0.048837,-0.0074544,-0.014823,0.0024768,0.00081703,0.011518,0,0,0,0.026697,0.0047862,0.0017168,0.01249,0.011067,0.023602,6.3736e-07,0.15,0.45,0.1
0.0092178,0.00051228,0.0048474,0.026257,0.0035056,0.0011909,0.00040054,0.00019653,0.0012943,0.049697,-0.0094578,-0.015476,0.0020828,0.0010219,0.0067302,0,0,0,0.026352,0.003512,0.0010902,0.012631,0.010318,0.024147,6.9831e-07,0.2,0.45,0.1
0.011716,0.00058443,0.0054136,0.026026,0.0024841,0.00077496,0.00031372,0.00022456,0.00067963,0.050097,-0.011112,-0.015556,0.0016313,0.0011677,0.0035341,0,0,0,0.026058,0.0025098,0.00071701,0.012671,0.0097617,0.024497,7.4138e-07,0.25,0.45,0.1
0.014227,0.00062878,0.0057795,0.025844,0.0017164,0.00055421,0.00021737,0.00023163,0.00026014,0.050325,-0.012406,-0.015427,0.0011303,0.0012045,0.0013527,0,0,0,0.025853,0.0017625,0.00049851,0.012677,0.0093714,0.024749,7.7182e-07,0.3,0.45,0.1
0.016748,0.00064427,0.0059832,0.025713,0.001162,0.00042879,0.00011426,0.00020241,-4.7252e-05,0.050471,-0.013361,-0.015267,0.00059417,0.0010525,-0.00024571,0,0,0,0.025716,0.0012169,0.00037062,0.012673,0.0091011,0.024934,7.9319e-07,0.35,0.45,0.1
0.019275,0.0006319,0.006057,0.025625,0.00077084,0.00032381,1.2195e-05,0.00011982,-0.00028157,0.050593,-0.014028,-0.01519,6.3416e-05,0.00062305,-0.0014642,0,0,0,0.02563,0.00080907,0.00028097,0.012674,0.0089066,0.025089,8.1001e-07,0.4,0.45,0.1
0.021807,0.00059647,0.0060346,0.025576,0.00049231,0.00018367,-7.2324e-05,-2.3703e-05,-0.00044111,0.050746,-0.014471,-0.015274,-0.00037609,-0.00012326,-0.0022938,0,0,0,0.025584,0.00053284,0.0001346,0.012725,0.0087507,0.025253,8.2654e-07,0.45,0.45,0.1
0.024349,0.00054824,0.0059566,0.025558,0.00028613,-1.3059e-05,-0.00011724,-0.00020886,-0.00049916,0.050952,-0.014755,-0.015532,-0.00060964,-0.0010861,-0.0025956,0,0,0,0.025568,0.00041102,-0.00014855,0.012858,0.0086103,0.025443,8.4431e-07,0.5,0.45,0.1
0.026903,0.00050209,0.0058718,0.025558,0.000132,-0.00022942,-0.00010946,-0.00038387,-0.00043483,0.051174,-0.014933,-0.015873,-0.00056919,-0.0019961,-0.0022611,0,0,0,0.025566,0.00038321,-0.00048904,0.013028,0.0084868,0.025632,8.6109e-07,0.55,0.45,0.1
0.029467,0.00047308,0.0058276,0.025564,2.3908e-05,-0.00037966,-5.656e-05,-0.00048839,-0.00026437,0.051342,-0.015063,-0.016112,-0.00029411,-0.0025396,-0.0013747,0,0,0,0.025568,0.00036085,-0.00072054,0.013144,0.0084028,0.025767,8.729e-07,0.6,0.45,0.1
0.032037,0.00047086,0.0058556,0.025568,-4.5771e-05,-0.00039452,1.7776e-05,-0.00048546,-4.6238e-05,0.0514,-0.015196,-0.016102,9.2437e-05,-0.0025244,-0.00024044,0,0,0,0.025569,0.00030668,-0.0007482,0.013159,0.0083759,0.025808,8.7733e-07,0.65,0.45,0.1
0.034607,0.00049687,0.0059612,0.025568,-8.8479e-05,-0.0002755,8.4837e-05,-0.00037397,0.00014423,0.051354,-0.015352,-0.015839,0.00044115,-0.0019446,0.00075001,0,0,0,0.025569,0.00021401,-0.0005797,0.013075,0.0084012,0.025763,8.749e-07,0.7,0.45,0.1
0.037172,0.00054424,0.0061239,0.025569,-0.00011992,-9.4766e-05,0.00012093,-0.00018871,0.00025098,0.051266,-0.015524,-0.015459,0.00062882,-0.00098131,0.0013051,0,0,0,0.025572,0.00012282,-0.00034071,0.012956,0.0084513,0.025685,8.6904e-07,0.75,0.45,0.1
0.039733,0.00060053,0.0063082,0.025578,-0.0001588,5.8418e-05,0.00011819,1.162e-05,0.00026278,0.051217,-0.0157,-0.015135,0.00061459,6.0426e-05,0.0013665,0,0,0,0.025582,0.00012449,-0.00022828,0.012905,0.0084926,0.025636,8.6465e-07,0.8,0.45,0.1
0.042294,0.00065314,0.0064794,0.025602,-0.00021213,0.00014041,8.8868e-05,0.00017581,0.00020939,0.051246,-0.015869,-0.014953,0.00046211,0.0009142,0.0010888,0,0,0,0.025604,0.00022308,-0.00029709,0.01295,0.00851,0.025645,8.6493e-07,0.85,0.45,0.1
0.044858,0.00069365,0.0066129,0.025634,-0.0002699,0.00016015,5.3053e-05,0.0002838,0.00013295,0.051334,-0.016016,-0.014898,0.00027588,0.0014757,0.00069136,0,0,0,0.025635,0.00031029,-0.00042109,0.013028,0.008508,0.025699,8.6928e-07,0.9,0.45,0.1
0.047427,0.00071846,0.0066961,0.025662,-0.00031456,0.00015075,3.1097e-05,0.00034062,8.8624e-05,0.051422,-0.016117,-0.014907,0.00016171,0.0017712,0.00046084,0,0,0,0.025662,0.00034165,-0.0005059,0.013084,0.0084993,0.025755,8.7435e-07,0.95,0.45,0.1
0.048713,0.00072673,0.0067242,0.025673,-0.00033129,0.00014353,2.6334e-05,0.00035781,8.3284e-05,0.051458,-0.016152,-0.014918,0.00013694,0.0018606,0.00043308,0,0,0,0.025673,0.00034722,-0.00053533,0.013104,0.008495,0.025779,8.7654e-07,1,0.45,0.1
0.0010014,1.2075e-05,0.00078741,0.026316,0.0097979,0.0085916,9.3841e-05,2.1713e-05,0.0054814,0.041598,-0.0013488,-0.0044851,0.00048798,0.00011291,0.028503,0,0,0,0.027956,0.0097952,0.006954,0.010501,0.014902,0.019753,3.7242e-07,0,0.5,0.1
0.0020799,2.1608e-05,0.0015438,0.026219,0.0084783,0.0064832,9.2391e-05,4.1765e-05,0.0048345,0.043462,-0.0026649,-0.0078521,0.00048043,0.00021718,0.025139,0,0,0,0.02746,0.0084746,0.0052465,0.011107,0.013727,0.020804,4.3163e-07,0.05,0.5,0.1
0.0043462,3.5981e-05,0.0029415,0.026351,0.0063296,0.0034259,8.9226e-05,7.9228e-05,0.0035014,0.046849,-0.0052071,-0.012757,0.00046398,0.00041198,0.018207,0,0,0,0.026953,0.0063262,0.0028276,0.012063,0.012036,0.02259,5.4873e-07,0.1,0.5,0.1
0.0067648,4.1552e-05,0.0040629,0.026518,0.0047866,0.0019803,8.856e-05,0.0001125,0.0022667,0.048976,-0.0075259,-0.014822,0.00046051,0.00058502,0.011787,0,0,0,0.026769,0.0047871,0.0017291,0.01252,0.011095,0.023666,6.4298e-07,0.15,0.5,0.1
0.0092438,3.9039e-05,0.0048841,0.026329,0.0034915,0.001217,9.0174e-05,0.0001426,0.0013525,0.049832,-0.0095444,-0.015458,0.00046891,0.00074152,0.0070329,0,0,0,0.026423,0.003499,0.0011158,0.012653,0.010346,0.024208,7.0453e-07,0.2,0.5,0.1
0.011748,2.8174e-05,0.0054534,0.026092,0.0024664,0.00081385,8.7272e-05,0.00016691,0.00074363,0.050216,-0.011211,-0.015507,0.00045382,0.00086795,0.0038669,0,0,0,0.026124,0.0024848,0.00076317,0.012681,0.0097907,0.024549,7.4718e-07,0.25,0.5,0.1
0.014265,7.7196e-06,0.0058178,0.025898,0.001701,0.0006109,7.2978e-05,0.00017705,0.00032485,0.050408,-0.012503,-0.015337,0.00037948,0.00092068,0.0016892,0,0,0,0.025907,0.0017337,0.00056855,0.012669,0.0094032,0.024779,7.7571e-07,0.3,0.5,0.1
0.016789,-2.4126e-05,0.0060133,0.025747,0.001159,0.00050118,4.2673e-05,0.00015798,8.6089e-06,0.050497,-0.013431,-0.015141,0.0002219,0.00082151,4.4767e-05,0,0,0,0.02575,0.0012,0.00045702,0.012646,0.0091356,0.024931,7.9362e-07,0.35,0.5,0.1
0.019315,-6.8546e-05,0.0060701,0.025631,0.00079224,0.00039546,-1.4298e-06,9.0659e-05,-0.00024544,0.050548,-0.014031,-0.015063,-7.4347e-06,0.00047143,-0.0012763,0,0,0,0.025635,0.00082273,0.00036075,0.012637,0.0089394,0.025047,8.062e-07,0.4,0.5,0.1
0.021844,-0.0001239,0.0060212,0.025548,0.00054675,0.00022028,-4.4846e-05,-3.5734e-05,-0.00042946,0.050635,-0.014367,-0.015216,-0.0002332,-0.00018582,-0.0022332,0,0,0,0.025556,0.0005798,0.000179,0.012688,0.0087715,0.025179,8.1921e-07,0.45,0.5,0.1
0.024379,-0.00018344,0.0059115,0.025493,0.00037312,-5.0387e-05,-6.5233e-05,-0.00020108,-0.00050497,0.050792,-0.014519,-0.01562,-0.00033921,-0.0010456,-0.0026258,0,0,0,0.025504,0.00046562,-0.00015341,0.012828,0.0086052,0.025354,8.3515e-07,0.5,0.5,0.1
0.026923,-0.00023575,0.0057981,0.02546,0.00024456,-0.00034813,-5.1086e-05,-0.00035158,-0.00044297,0.050983,-0.014578,-0.016119,-0.00026565,-0.0018282,-0.0023034,0,0,0,0.025469,0.00041844,-0.00053038,0.013,0.0084523,0.02554,8.5119e-07,0.55,0.5,0.1
0.029477,-0.00026964,0.0057376,0.025449,0.00015082,-0.00054477,-1.0708e-05,-0.0004358,-0.00026386,0.051134,-0.014641,-0.016449,-5.5683e-05,-0.0022662,-0.0013721,0,0,0,0.025453,0.00037464,-0.00077245,0.013113,0.0083517,0.025673,8.6277e-07,0.6,0.5,0.1
0.032036,-0.00027889,0.0057667,0.025455,7.5979e-05,-0.00055958,3.9726e-05,-0.00043151,-3.4153e-05,0.0512,-0.014785,-0.016438,0.00020658,-0.0022439,-0.0001776,0,0,0,0.025456,0.00030928,-0.00079418,0.013125,0.0083238,0.025718,8.6778e-07,0.65,0.5,0.1
0.034597,-0.00026316,0.0058908,0.025477,8.0769e-06,-0.00039439,8.4614e-05,-0.00033767,0.00016688,0.051186,-0.015033,-0.01608,0.00043999,-0.0017559,0.00086777,0,0,0,0.025479,0.00021515,-0.00060352,0.013041,0.0083635,0.025685,8.6673e-07,0.7,0.5,0.1
0.037155,-0.00022809,0.0060845,0.025516,-6.091e-05,-0.00013255,0.00010719,-0.00017457,0.00027544,0.051147,-0.015352,-0.015538,0.00055737,-0.00090776,0.0014323,0,0,0,0.025519,0.00013797,-0.00033509,0.012927,0.0084407,0.025622,8.6263e-07,0.75,0.5,0.1
0.039712,-0.00018451,0.0063035,0.025567,-0.00014555,9.5539e-05,9.8015e-05,7.5984e-06,0.00027626,0.051165,-0.015689,-0.015062,0.00050968,3.9511e-05,0.0014365,0,0,0,0.025571,0.0001643,-0.00021798,0.012895,0.0085058,0.0256,8.6099e-07,0.8,0.5,0.1
0.042271,-0.00014383,0.0065042,0.025631,-0.00024602,0.00021565,6.7082e-05,0.00015527,0.00020697,0.05128,-0.016,-0.0148,0.00034883,0.00080739,0.0010762,0,0,0,0.025633,0.00027149,-0.00030413,0.012969,0.0085335,0.025655,8.6563e-07,0.85,0.5,0.1
0.04484,-0.00011315,0.0066584,0.025697,-0.0003421,0.00024185,3.4792e-05,0.00024754,0.00012103,0.051454,-0.016247,-0.014729,0.00018092,0.0012872,0.00062935,0,0,0,0.025698,0.00034274,-0.00044394,0.013071,0.0085322,0.025758,8.7503e-07,0.9,0.5,0.1
0.047417,-9.4837e-05,0.0067532,0.025747,-0.00041069,0.00022607,1.8611e-05,0.00029311,8.2007e-05,0.051604,-0.016405,-0.01475,9.6778e-05,0.0015242,0.00042644,0,0,0,0.025747,0.00035302,-0.00053805,0.013143,0.0085207,0.025851,8.8403e-07,0.95,0.5,0.1
0.048708,-8.8829e-05,0.006785,0.025765,-0.0004355,0.00021483,1.6444e-05,0.00030632,8.3849e-05,0.051663,-0.016459,-0.014768,8.5509e-05,0.0015929,0.00043602,0,0,0,0.025766,0.0003497,-0.00057074,0.013168,0.0085149,0.025889,8.877e-07,1,0.5,0.1
0.0010042,-5.6119e-05,0.00079091,0.02639,0.0098082,0.0086169,-0.0004238,1.1145e-05,0.0055085,0.041726,-0.001388,-0.0044854,-0.0022037,5.7953e-05,0.028644,0,0,0,0.02805,0.0098036,0.0069617,0.010544,0.014939,0.019838,3.7753e-07,0,0.55,0.1
0.0020863,-0.00011304,0.0015504,0.026295,0.0084696,0.0065033,-0.0004115,2.065e-05,0.004862,0.043605,-0.0027395,-0.0078519,-0.0021398,0.00010738,0.025282,0,0,0,0.027552,0.0084627,0.0052523,0.01115,0.013756,0.020896,4.3829e-07,0.05,0.55,0.1
0.0043605,-0.00022691,0.0029537,0.026431,0.0062886,0.0034395,-0.00037528,3.7575e-05,0.0035311,0.047026,-0.0053453,-0.012753,-0.0019514,0.00019539,0.018362,0,0,0,0.027047,0.0062802,0.0028326,0.012107,0.012053,0.022698,5.5839e-07,0.1,0.55,0.1
0.0067888,-0.00033812,0.0040794,0.026603,0.0047232,0.0019941,-0.0003159,5.2268e-05,0.0023019,0.049175,-0.0077118,-0.014807,-0.0016427,0.00027179,0.01197,0,0,0,0.026864,0.0047177,0.0017389,0.012562,0.011107,0.023783,6.5477e-07,0.15,0.55,0.1
0.0092781,-0.00044216,0.0049039,0.026412,0.0034146,0.0012366,-0.0002401,6.731e-05,0.0013961,0.050034,-0.0097601,-0.015423,-0.0012485,0.00035001,0.0072595,0,0,0,0.026513,0.003414,0.0011366,0.012688,0.010355,0.024323,7.1686e-07,0.2,0.55,0.1
0.011792,-0.00053664,0.0054748,0.026168,0.0023861,0.00084569,-0.00016165,8.1934e-05,0.00079601,0.050397,-0.011436,-0.015441,-0.00084058,0.00042606,0.0041393,0,0,0,0.026204,0.0023921,0.00080314,0.012701,0.0097999,0.024649,7.5831e-07,0.25,0.55,0.1
0.014318,-0.00062153,0.0058381,0.025958,0.0016289,0.00066011,-9.431e-05,9.0515e-05,0.00038243,0.050542,-0.012713,-0.015232,-0.00049041,0.00047068,0.0019887,0,0,0,0.02597,0.0016432,0.00063383,0.012668,0.0094156,0.024849,7.8382e-07,0.3,0.55,0.1
0.016846,-0.00069879,0.0060279,0.025781,0.0011076,0.00056604,-4.857e-05,8.1755e-05,6.3058e-05,0.050558,-0.013593,-0.015001,-0.00025256,0.00042513,0.0003279,0,0,0,0.025785,0.0011284,0.00054145,0.012622,0.0091517,0.024957,7.9705e-07,0.35,0.55,0.1
0.019374,-0.00077121,0.0060721,0.025633,0.00077511,0.00046065,-2.7537e-05,3.9615e-05,-0.0002046,0.050524,-0.014106,-0.014924,-0.00014319,0.000206,-0.0010639,0,0,0,0.025637,0.00079322,0.00043854,0.012599,0.0089562,0.025023,8.0436e-07,0.4,0.55,0.1
0.021899,-0.00084025,0.006003,0.025513,0.00057031,0.000246,-2.1158e-05,-4.6042e-05,-0.00040827,0.050535,-0.014314,-0.015158,-0.00011002,-0.00023942,-0.002123,0,0,0,0.02552,0.00059214,0.00021637,0.012652,0.0087763,0.025119,8.1333e-07,0.45,0.55,0.1
0.024427,-0.0009037,0.0058688,0.025415,0.00043217,-0.00010382,-1.1597e-05,-0.00015808,-0.00049556,0.050632,-0.014322,-0.015716,-6.0305e-05,-0.00082199,-0.0025769,0,0,0,0.025425,0.00048384,-0.00016566,0.012795,0.008581,0.025273,8.2694e-07,0.5,0.55,0.1
0.026962,-0.00095573,0.0057344,0.025349,0.00033596,-0.00045775,8.9008e-06,-0.00025373,-0.00043212,0.050771,-0.014263,-0.016326,4.6284e-05,-0.0013194,-0.002247,0,0,0,0.025357,0.00042341,-0.00055321,0.012955,0.008409,0.025437,8.4082e-07,0.55,0.55,0.1
0.029504,-0.00099101,0.0056629,0.025327,0.00026844,-0.00065775,3.3594e-05,-0.00030146,-0.00025384,0.050887,-0.014265,-0.016673,0.00017469,-0.0015676,-0.00132,0,0,0,0.02533,0.0003749,-0.00076786,0.013049,0.0083125,0.025547,8.5038e-07,0.6,0.55,0.1
0.032051,-0.0010077,0.0056936,0.025334,0.00019288,-0.00067276,5.6061e-05,-0.00029646,-3.1301e-05,0.050956,-0.014411,-0.016662,0.00029152,-0.0015416,-0.00016277,0,0,0,0.025335,0.00030311,-0.00078433,0.01306,0.0082847,0.025595,8.5565e-07,0.65,0.55,0.1
0.0346,-0.0010065,0.0058321,0.025369,9.7285e-05,-0.00050449,7.4912e-05,-0.0002378,0.00017035,0.050983,-0.014724,-0.016289,0.00038954,-0.0012366,0.00088584,0,0,0,0.025371,0.00019909,-0.00060851,0.01299,0.0083207,0.025588,8.5703e-07,0.7,0.55,0.1
0.037149,-0.00099093,0.0060502,0.025443,-5.5957e-06,-0.00018625,8.25e-05,-0.00012893,0.00028334,0.051001,-0.015165,-0.015635,0.000429,-0.00067046,0.0014734,0,0,0,0.025447,0.00013527,-0.00033093,0.012889,0.0084171,0.025549,8.5528e-07,0.75,0.55,0.1
0.0397,-0.00096836,0.0062971,0.025539,-0.00012717,0.00012223,7.0142e-05,-9.5601e-07,0.000277,0.051081,-0.015651,-0.015003,0.00036474,-4.9715e-06,0.0014404,0,0,0,0.025543,0.00019366,-0.0002023,0.012873,0.0085114,0.02555,8.5583e-07,0.8,0.55,0.1
0.042257,-0.00094685,0.0065217,0.02564,-0.00026943,0.00028466,4.3535e-05,0.00010306,0.00019433,0.05127,-0.016093,-0.014653,0.00022638,0.00053591,0.0010105,0,0,0,0.025642,0.00031003,-0.00029699,0.012969,0.0085516,0.025641,8.6414e-07,0.85,0.55,0.1
0.044827,-0.00093108,0.0066919,0.025736,-0.00040034,0.00031577,1.884e-05,0.00016509,0.00010253,0.051522,-0.016432,-0.01457,9.7967e-05,0.00085847,0.00053316,0,0,0,0.025737,0.00036291,-0.00044833,0.013093,0.0085504,0.025789,8.782e-07,0.9,0.55,0.1
0.04741,-0.00092205,0.0067953,0.025806,-0.00048956,0.00029298,7.8721e-06,0.00019367,7.1329e-05,0.051731,-0.016639,-0.014604,4.0935e-05,0.0010071,0.00037091,0,0,0,0.025807,0.00035213,-0.00054911,0.013178,0.0085366,0.025917,8.9087e-07,0.95,0.55,0.1
0.048704,-0.00091918,0.0068297,0.025832,-0.00052122,0.00027742,6.638e-06,0.00020158,8.1036e-05,0.05181,-0.016708,-0.014632,3.4518e-05,0.0010482,0.00042139,0,0,0,0.025832,0.00034006,-0.00058427,0.013208,0.0085293,0.025967,8.9589e-07,1,0.55,0.1
0.0010071,-0.00012672,0.00079139,0.026462,0.0098076,0.0086381,-0.00095958,-1.6116e-06,0.0055126,0.041857,-0.001445,-0.0044856,-0.0049898,-8.3805e-06,0.028665,0,0,0,0.028158,0.0097902,0.0069595,0.010599,0.014969,0.01995,3.8479e-07,0,0.6,0.1
0.0020928,-0.00025234,0.0015511,0.026368,0.00844,0.0065175,-0.0009327,-4.7339e-06,0.0048665,0.043761,-0.0028511,-0.0078497,-0.00485,-2.4616e-05,0.025306,0,0,0,0.02766,0.0084135,0.005252,0.011204,0.013775,0.021021,4.4809e-07,0.05,0.6,0.1
0.0043761,-0.00049855,0.0029542,0.026511,0.0062084,0.0034449,-0.00085472,-1.2461e-05,0.0035377,0.04723,-0.0055567,-0.012742,-0.0044446,-6.4795e-05,0.018396,0,0,0,0.027155,0.0061747,0.0028349,0.01216,0.012055,0.022845,5.7276e-07,0.1,0.6,0.1
0.0068158,-0.00072963,0.0040793,0.026689,0.0046079,0.0019984,-0.00073227,-2.063e-05,0.0023134,0.049414,-0.0079964,-0.014781,-0.0038078,-0.00010728,0.01203,0,0,0,0.026971,0.0045814,0.001743,0.012614,0.011098,0.023943,6.7182e-07,0.15,0.6,0.1
0.0093175,-0.00093697,0.0049031,0.026496,0.0032814,0.0012443,-0.00057978,-2.5416e-05,0.0014153,0.050276,-0.010081,-0.015378,-0.0030149,-0.00013216,0.0073594,0,0,0,0.02661,0.0032661,0.0011446,0.012733,0.01034,0.02448,7.3393e-07,0.2,0.6,0.1
0.011843,-0.0011154,0.0054734,0.026239,0.0022527,0.00086124,-0.00041872,-2.5587e-05,0.0008238,0.05061,-0.011755,-0.015373,-0.0021774,-0.00013305,0.0042838,0,0,0,0.026284,0.0022493,0.00081968,0.012732,0.0097844,0.024784,7.731e-07,0.25,0.6,0.1
0.014378,-0.0012636,0.0058356,0.026009,0.0015109,0.00068713,-0.0002691,-2.2801e-05,0.00041687,0.050699,-0.012996,-0.015138,-0.0013993,-0.00011857,0.0021677,0,0,0,0.026025,0.0015202,0.00066172,0.012682,0.0094024,0.024947,7.9452e-07,0.3,0.6,0.1
0.016913,-0.0013834,0.0060225,0.025805,0.0010174,0.0006034,-0.00014551,-2.1659e-05,9.8787e-05,0.050637,-0.01381,-0.014887,-0.00075664,-0.00011263,0.00051369,0,0,0,0.02581,0.0010392,0.0005763,0.012617,0.0091419,0.025006,8.0252e-07,0.35,0.6,0.1
0.019442,-0.0014791,0.0060605,0.025626,0.00072269,0.00049852,-5.4881e-05,-2.9367e-05,-0.00017475,0.050519,-0.014229,-0.014812,-0.00028538,-0.00015271,-0.00090872,0,0,0,0.02563,0.00074727,0.0004699,0.01258,0.008949,0.025023,8.0455e-07,0.4,0.6,0.1
0.021965,-0.0015554,0.0059811,0.025473,0.00055747,0.00025511,5.3953e-06,-5.1217e-05,-0.00038911,0.050458,-0.014322,-0.015108,2.8056e-05,-0.00026633,-0.0020234,0,0,0,0.02548,0.00057625,0.00022885,0.012626,0.0087618,0.02508,8.0964e-07,0.45,0.6,0.1
0.024488,-0.0016157,0.0058349,0.02534,0.00045188,-0.00014812,4.3812e-05,-8.1551e-05,-0.00048094,0.050497,-0.014211,-0.015771,0.00022782,-0.00042407,-0.0025009,0,0,0,0.025349,0.00047191,-0.00017798,0.012764,0.0085478,0.02521,8.207e-07,0.5,0.6,0.1
0.027015,-0.001662,0.0056909,0.025251,0.0003871,-0.00052187,6.6242e-05,-0.00010529,-0.00041417,0.050582,-0.014063,-0.016426,0.00034446,-0.00054753,-0.0021537,0,0,0,0.025258,0.00041457,-0.00055702,0.012908,0.008372,0.025345,8.3176e-07,0.55,0.6,0.1
0.029546,-0.0016961,0.0056153,0.025225,0.00034734,-0.0006989,7.4177e-05,-0.00011362,-0.00024104,0.050661,-0.014021,-0.016741,0.00038572,-0.00059081,-0.0012534,0,0,0,0.025228,0.00037919,-0.00073425,0.012981,0.0082911,0.025425,8.3865e-07,0.6,0.6,0.1
0.032081,-0.00172,0.0056481,0.025232,0.00027558,-0.00071459,7.1067e-05,-0.00010814,-3.2369e-05,0.050728,-0.01416,-0.016734,0.00036955,-0.00056233,-0.00016832,0,0,0,0.025234,0.0003084,-0.00074877,0.012991,0.0082645,0.025472,8.4377e-07,0.65,0.6,0.1
0.034619,-0.0017356,0.0057947,0.025271,0.00016039,-0.00056985,6.3095e-05,-8.8352e-05,0.00016493,0.050788,-0.0145,-0.016399,0.0003281,-0.00045943,0.00085763,0,0,0,0.025273,0.00019158,-0.00060328,0.012938,0.0082872,0.02549,8.4742e-07,0.7,0.6,0.1
0.03716,-0.0017446,0.0060263,0.025366,3.5609e-05,-0.0002311,5.1887e-05,-5.2106e-05,0.00028257,0.050849,-0.01501,-0.015703,0.00026981,-0.00027095,0.0014693,0,0,0,0.02537,0.00013028,-0.00032958,0.01285,0.0083901,0.025474,8.4774e-07,0.75,0.6,0.1
0.039704,-0.0017496,0.006289,0.025493,-0.00010719,0.00013205,3.6042e-05,-8.6417e-06,0.0002735,0.050971,-0.015589,-0.014967,0.00018742,-4.4937e-05,0.0014222,0,0,0,0.025496,0.00020883,-0.00018762,0.012842,0.0085059,0.025489,8.4968e-07,0.8,0.6,0.1
0.042257,-0.0017532,0.0065271,0.025618,-0.00027564,0.00032516,1.8439e-05,2.6045e-05,0.00018261,0.051206,-0.016117,-0.014555,9.5883e-05,0.00013543,0.00094957,0,0,0,0.02562,0.00033181,-0.00028438,0.012952,0.0085557,0.025602,8.6018e-07,0.85,0.6,0.1
0.044825,-0.0017563,0.0067061,0.025733,-0.00042942,0.00035912,5.5279e-06,4.5216e-05,8.8057e-05,0.051508,-0.016514,-0.014464,2.8745e-05,0.00023512,0.00045789,0,0,0,0.025734,0.00037334,-0.00044444,0.013089,0.0085543,0.025779,8.7723e-07,0.9,0.6,0.1
0.047408,-0.0017587,0.0068141,0.025817,-0.0005319,0.00033162,-7.262e-07,5.2968e-05,6.2826e-05,0.051754,-0.016753,-0.014508,-3.7762e-06,0.00027543,0.0003267,0,0,0,0.025818,0.00034975,-0.00055044,0.013184,0.008539,0.02593,8.9228e-07,0.95,0.6,0.1
0.048703,-0.0017596,0.0068499,0.025847,-0.00056795,0.00031315,-2.5414e-06,5.488e-05,7.7948e-05,0.051847,-0.016832,-0.014541,-1.3215e-05,0.00028538,0.00040533,0,0,0,0.025847,0.00033231,-0.00058755,0.013217,0.0085307,0.025987,8.9816e-07,1,0.6,0.1
0.0010099,-0.00020062,0.00078862,0.026534,0.0097951,0.0086556,-0.001519,-1.5452e-05,0.0054916,0.041997,-0.0015232,-0.0044861,-0.0078986,-8.0352e-05,0.028556,0,0,0,0.028285,0.0097533,0.0069462,0.010669,0.014995,0.020097,3.9464e-07,0,0.65,0.1
0.0020998,-0.00039815,0.0015453,0.02644,0.0083864,0.0065251,-0.0014745,-3.2261e-05,0.0048458,0.043934,-0.0030064,-0.0078458,-0.0076677,-0.00016776,0.025198,0,0,0,0.027785,0.0083229,0.0052443,0.01127,0.013784,0.021184,4.6155e-07,0.05,0.65,0.1
0.0043934,-0.00078257,0.0029422,0.02659,0.0060829,0.0034401,-0.0013467,-6.6744e-05,0.0035181,0.047467,-0.0058524,-0.012724,-0.007003,-0.00034707,0.018294,0,0,0,0.027277,0.006003,0.0028328,0.012222,0.012038,0.023035,5.9234e-07,0.1,0.65,0.1
0.0068465,-0.0011378,0.0040612,0.026772,0.0044344,0.0019901,-0.0011501,-9.9848e-05,0.0022971,0.04969,-0.0083886,-0.014744,-0.0059806,-0.00051921,0.011945,0,0,0,0.027086,0.0043736,0.0017376,0.012674,0.011066,0.024146,6.9421e-07,0.15,0.65,0.1
0.0093624,-0.0014503,0.0048799,0.026571,0.0030892,0.0012356,-0.00091059,-0.00012645,0.0014042,0.050546,-0.010505,-0.015325,-0.0047351,-0.00065752,0.007302,0,0,0,0.026705,0.0030586,0.0011314,0.012787,0.010298,0.024672,7.5507e-07,0.2,0.65,0.1
0.011901,-0.0017121,0.0054469,0.026294,0.0020693,0.00085401,-0.00066058,-0.0001432,0.00081891,0.050835,-0.01215,-0.01531,-0.003435,-0.00074465,0.0042583,0,0,0,0.02635,0.0020733,0.00079414,0.012778,0.0097392,0.024944,7.9015e-07,0.25,0.65,0.1
0.014446,-0.0019211,0.0058074,0.026037,0.0013548,0.00068173,-0.00042695,-0.00014745,0.00041787,0.050853,-0.013322,-0.015072,-0.0022201,-0.00076674,0.0021729,0,0,0,0.026058,0.0013979,0.00061777,0.01272,0.0093579,0.025061,8.0617e-07,0.3,0.65,0.1
0.016986,-0.0020798,0.0059945,0.025805,0.00089745,0.00059959,-0.00022677,-0.00013606,0.00010468,0.050711,-0.014048,-0.014822,-0.0011792,-0.00070751,0.00054435,0,0,0,0.025812,0.00097478,0.00051543,0.012648,0.0091006,0.02507,8.0877e-07,0.35,0.65,0.1
0.019517,-0.0021941,0.006034,0.0256,0.00064006,0.00049603,-6.8519e-05,-0.00010485,-0.00016535,0.050519,-0.014378,-0.014752,-0.0003563,-0.00054521,-0.00085984,0,0,0,0.025604,0.00071455,0.00041734,0.012594,0.0089121,0.02504,8.0616e-07,0.4,0.65,0.1
0.022038,-0.0022724,0.0059572,0.025427,0.00050885,0.00025415,4.2688e-05,-5.2669e-05,-0.00037779,0.050396,-0.014391,-0.015053,0.00022198,-0.00027388,-0.0019645,0,0,0,0.025434,0.00054539,0.00021028,0.012612,0.00873,0.025059,8.076e-07,0.45,0.65,0.1
0.024557,-0.0023248,0.0058141,0.025279,0.00043169,-0.00014686,0.00010465,9.8409e-06,-0.00046945,0.050388,-0.014216,-0.01572,0.0005442,5.1172e-05,-0.0024411,0,0,0,0.025289,0.00044696,-0.00017193,0.012731,0.0085214,0.025159,8.1584e-07,0.5,0.65,0.1
0.027077,-0.002362,0.0056734,0.025182,0.00038865,-0.00051834,0.00012339,6.2369e-05,-0.00040433,0.050442,-0.014021,-0.016379,0.0006416,0.00032432,-0.0021025,0,0,0,0.02519,0.00040913,-0.00054659,0.012868,0.0083508,0.025273,8.2482e-07,0.55,0.65,0.1
0.029601,-0.0023931,0.0056009,0.025152,0.00036351,-0.00069432,0.00011259,9.1808e-05,-0.0002342,0.050503,-0.013948,-0.016698,0.00058545,0.0004774,-0.0012178,0,0,0,0.025156,0.00039099,-0.00072542,0.012941,0.0082738,0.025342,8.304e-07,0.6,0.65,0.1
0.032127,-0.0024236,0.005636,0.025159,0.00029971,-0.00071038,8.5093e-05,9.7818e-05,-2.9009e-05,0.050565,-0.01407,-0.016696,0.00044249,0.00050866,-0.00015084,0,0,0,0.025161,0.00032944,-0.00074154,0.012951,0.0082495,0.025385,8.3501e-07,0.65,0.65,0.1
0.034657,-0.0024565,0.0057841,0.0252,0.00018682,-0.00056694,4.9806e-05,8.0264e-05,0.00016508,0.050628,-0.014406,-0.016366,0.00025899,0.00041737,0.00085842,0,0,0,0.025202,0.00021419,-0.0005965,0.012899,0.0082733,0.025405,8.3882e-07,0.7,0.65,0.1
0.03719,-0.0024919,0.0060167,0.025299,6.0028e-05,-0.00023001,1.7229e-05,3.8963e-05,0.00028034,0.0507,-0.014921,-0.015675,8.9591e-05,0.00020261,0.0014578,0,0,0,0.025303,0.0001457,-0.00031937,0.012811,0.0083763,0.025394,8.3976e-07,0.75,0.65,0.1
0.039727,-0.0025273,0.0062798,0.02543,-8.7377e-05,0.00013135,-2.9575e-06,-1.4001e-05,0.00027002,0.050834,-0.015512,-0.014943,-1.5379e-05,-7.2804e-05,0.0014041,0,0,0,0.025434,0.00021441,-0.00017397,0.012804,0.0084914,0.025416,8.4248e-07,0.8,0.65,0.1
0.042274,-0.0025586,0.0065181,0.025559,-0.00026131,0.00032311,-9.414e-06,-5.966e-05,0.00017896,0.051081,-0.016052,-0.014533,-4.8953e-05,-0.00031023,0.00093059,0,0,0,0.025561,0.0003348,-0.00027502,0.012918,0.0085403,0.025538,8.5368e-07,0.85,0.65,0.1
0.044835,-0.0025825,0.0066971,0.025678,-0.00042003,0.00035621,-8.0688e-06,-8.8704e-05,8.5118e-05,0.051394,-0.016461,-0.014442,-4.1958e-05,-0.00046126,0.00044261,0,0,0,0.025679,0.00037817,-0.00044276,0.013061,0.008538,0.025721,8.7126e-07,0.9,0.65,0.1
0.047413,-0.0025974,0.006805,0.025764,-0.00052589,0.00032824,-9.1656e-06,-0.00010323,6.1182e-05,0.051647,-0.016707,-0.014486,-4.7661e-05,-0.00053682,0.00031815,0,0,0,0.025764,0.00035559,-0.00055364,0.013159,0.0085221,0.025875,8.8663e-07,0.95,0.65,0.1
0.048705,-0.0026024,0.0068408,0.025794,-0.00056312,0.00030961,-1.1896e-05,-0.00010755,7.7054e-05,0.051741,-0.016789,-0.01452,-6.1857e-05,-0.00055927,0.00040068,0,0,0,0.025795,0.00033852,-0.00059247,0.013194,0.0085137,0.025934,8.9262e-07,1,0.65,0.1
0.0010135,-0.00027905,0.00078272,0.026619,0.0097697,0.0086733,-0.0021092,-2.8963e-05,0.0054463,0.042173,-0.0016362,-0.0044869,-0.010968,-0.00015061,0.028321,0,0,0,0.028449,0.0096921,0.0069212,0.010764,0.015021,0.020298,4.0843e-07,0,0.7,0.1
0.0021087,-0.00055299,0.0015333,0.026526,0.0083006,0.0065281,-0.0020408,-5.9236e-05,0.0048002,0.044154,-0.0032311,-0.0078396,-0.010612,-0.00030802,0.024961,0,0,0,0.027943,0.0081833,0.0052278,0.011358,0.013785,0.021405,4.8033e-07,0.05,0.7,0.1
0.0044154,-0.0010838,0.002918,0.026679,0.0058931,0.0034238,-0.0018458,-0.00012006,0.0034726,0.047768,-0.0062756,-0.012696,-0.009598,-0.00062431,0.018057,0,0,0,0.027425,0.0057479,0.0028236,0.0123,0.011999,0.02329,6.1907e-07,0.1,0.7,0.1
0.0068855,-0.0015685,0.0040256,0.026859,0.0041826,0.0019671,-0.0015524,-0.00017735,0.0022531,0.050029,-0.0089307,-0.014691,-0.0080722,-0.0009222,0.011716,0,0,0,0.027212,0.0040788,0.0017188,0.012746,0.011003,0.024407,7.2326e-07,0.15,0.7,0.1
0.0094183,-0.0019875,0.0048351,0.026637,0.0028249,0.0012092,-0.0012059,-0.00022405,0.0013635,0.050853,-0.011058,-0.015259,-0.0062707,-0.0011651,0.00709,0,0,0,0.026793,0.0027873,0.0010901,0.012852,0.010224,0.024903,7.8041e-07,0.2,0.7,0.1
0.011971,-0.0023305,0.0053961,0.026326,0.001832,0.00082318,-0.00085628,-0.00025469,0.00078217,0.051058,-0.012625,-0.015248,-0.0044527,-0.0013244,0.0040673,0,0,0,0.026392,0.0018711,0.00071813,0.012837,0.0096603,0.025119,8.085e-07,0.25,0.7,0.1
0.014524,-0.0025958,0.0057548,0.026031,0.001164,0.00064348,-0.00053826,-0.00026306,0.00038637,0.050977,-0.013677,-0.01503,-0.0027989,-0.0013679,0.0020091,0,0,0,0.026055,0.0012825,0.00050051,0.012777,0.0092794,0.025174,8.1722e-07,0.3,0.7,0.1
0.017068,-0.0027882,0.0059451,0.025768,0.00075438,0.00055428,-0.00026881,-0.0002399,8.1597e-05,0.050751,-0.014285,-0.014805,-0.0013978,-0.0012475,0.00042431,0,0,0,0.025775,0.00092683,0.00037428,0.012701,0.0090255,0.02513,8.1415e-07,0.35,0.7,0.1
0.019599,-0.0029169,0.0059939,0.025545,0.00053431,0.00045296,-5.4568e-05,-0.00017269,-0.00017575,0.050497,-0.01453,-0.014741,-0.00028375,-0.00089799,-0.00091392,0,0,0,0.025549,0.00068128,0.00030177,0.012623,0.0088439,0.02506,8.0777e-07,0.4,0.7,0.1
0.022118,-0.0029944,0.0059322,0.025366,0.00043051,0.00024289,9.6329e-05,-5.5783e-05,-0.00037389,0.050328,-0.014504,-0.014992,0.00050091,-0.00029007,-0.0019442,0,0,0,0.025374,0.00049877,0.00016722,0.012603,0.0086799,0.025043,8.061e-07,0.45,0.7,0.1
0.024632,-0.0030373,0.0058073,0.025229,0.00037607,-0.0001007,0.00017484,8.8623e-05,-0.00046081,0.050293,-0.014325,-0.015564,0.00090915,0.00046084,-0.0023962,0,0,0,0.025239,0.00041658,-0.0001514,0.012695,0.0085015,0.025113,8.1162e-07,0.5,0.7,0.1
0.027147,-0.0030641,0.0056825,0.02514,0.00034361,-0.00044796,0.00018605,0.00021287,-0.00040224,0.050343,-0.014128,-0.016186,0.00096746,0.0011069,-0.0020916,0,0,0,0.025149,0.00041205,-0.0005248,0.012837,0.0083453,0.02522,8.196e-07,0.55,0.7,0.1
0.029666,-0.0030909,0.0056197,0.025109,0.00031887,-0.0006441,0.00015187,0.0002816,-0.00023289,0.050412,-0.014041,-0.016545,0.00078975,0.0014643,-0.001211,0,0,0,0.025113,0.00041173,-0.00074103,0.012927,0.0082611,0.025298,8.255e-07,0.6,0.7,0.1
0.032189,-0.003127,0.0056573,0.025116,0.0002662,-0.0006595,9.4571e-05,0.00028814,-2.0925e-05,0.050469,-0.014142,-0.016549,0.00049177,0.0014983,-0.00010881,0,0,0,0.025118,0.00036505,-0.00075987,0.012939,0.008241,0.025336,8.2943e-07,0.65,0.7,0.1
0.034713,-0.0031762,0.0058006,0.025159,0.00017656,-0.00049501,3.0201e-05,0.00023179,0.00017096,0.05051,-0.014445,-0.016192,0.00015705,0.0012053,0.00088901,0,0,0,0.025161,0.00026374,-0.00058427,0.012873,0.0082803,0.025334,8.3145e-07,0.7,0.7,0.1
0.03724,-0.0032367,0.0060217,0.025245,6.696e-05,-0.00018237,-2.1781e-05,0.00011785,0.00027678,0.050559,-0.014903,-0.015552,-0.00011326,0.00061284,0.0014393,0,0,0,0.025248,0.00017864,-0.00029755,0.012773,0.0083764,0.025312,8.3161e-07,0.75,0.7,0.1
0.039769,-0.0033008,0.00627,0.025353,-6.8822e-05,0.0001205,-4.4784e-05,-1.9754e-05,0.00026668,0.050676,-0.015422,-0.01493,-0.00023287,-0.00010272,0.0013868,0,0,0,0.025357,0.00020974,-0.00016145,0.012759,0.0084684,0.025335,8.345e-07,0.8,0.7,0.1
0.042307,-0.0033584,0.0064952,0.025466,-0.00022767,0.00027854,-4.0716e-05,-0.00013498,0.00018354,0.050901,-0.015902,-0.014586,-0.00021172,-0.00070188,0.0009544,0,0,0,0.025468,0.00031892,-0.00027004,0.012869,0.0085055,0.025449,8.4489e-07,0.85,0.7,0.1
0.044859,-0.0034024,0.0066655,0.025571,-0.00037334,0.0003067,-2.5618e-05,-0.00020712,9.3866e-05,0.051182,-0.016273,-0.014505,-0.00013321,-0.001077,0.0004881,0,0,0,0.025572,0.00037608,-0.00044349,0.013008,0.0085014,0.025615,8.605e-07,0.9,0.7,0.1
0.047425,-0.0034294,0.0067689,0.025647,-0.00047255,0.00028222,-2.0157e-05,-0.00024264,6.6532e-05,0.051408,-0.016503,-0.01454,-0.00010482,-0.0012617,0.00034597,0,0,0,0.025647,0.00036732,-0.00055803,0.013103,0.0084856,0.025755,8.7411e-07,0.95,0.7,0.1
0.048711,-0.0034385,0.0068033,0.025674,-0.00050772,0.00026612,-2.2674e-05,-0.000253,7.8492e-05,0.051494,-0.01658,-0.014568,-0.00011791,-0.0013156,0.00040816,0,0,0,0.025675,0.00035595,-0.00059798,0.013136,0.0084776,0.025809,8.7945e-07,1,0.7,0.1
0.0010191,-0.00036424,0.00077423,0.026753,0.0097282,0.0087004,-0.0027429,-4.0631e-05,0.0053805,0.042449,-0.0018157,-0.0044877,-0.014263,-0.00021128,0.027978,0,0,0,0.028691,0.0096064,0.0068836,0.010904,0.01506,0.020593,4.2908e-07,0,0.75,0.1
0.0021224,-0.00072126,0.0015161,0.026653,0.0081634,0.0065305,-0.002637,-8.2867e-05,0.0047335,0.044491,-0.0035836,-0.0078291,-0.013713,-0.00043091,0.024614,0,0,0,0.028169,0.00798,0.0051986,0.011485,0.013782,0.021727,5.0796e-07,0.05,0.75,0.1
0.0044491,-0.0014101,0.0028836,0.026801,0.0055994,0.0033939,-0.002341,-0.0001672,0.0034048,0.048206,-0.006918,-0.012652,-0.012173,-0.00086946,0.017705,0,0,0,0.027616,0.0053767,0.0028011,0.012408,0.011931,0.023647,6.5687e-07,0.1,0.75,0.1
0.006943,-0.0020308,0.0039753,0.026964,0.0038147,0.0019277,-0.0019111,-0.0002453,0.0021865,0.050482,-0.0097055,-0.014612,-0.0099379,-0.0012756,0.01137,0,0,0,0.027356,0.0036697,0.0016808,0.012837,0.010902,0.024749,7.6159e-07,0.15,0.75,0.1
0.0094973,-0.002556,0.0047723,0.026696,0.0024671,0.0011661,-0.0014289,-0.00030703,0.0013003,0.051211,-0.011783,-0.015165,-0.0074303,-0.0015966,0.0067617,0,0,0,0.02687,0.0024429,0.001016,0.012927,0.01011,0.025174,8.1035e-07,0.2,0.75,0.1
0.012064,-0.0029746,0.0053257,0.026325,0.0015357,0.00077366,-0.00097034,-0.00034507,0.00072346,0.051264,-0.013188,-0.015169,-0.0050458,-0.0017944,0.003762,0,0,0,0.026396,0.0016407,0.00059755,0.012899,0.0095447,0.025294,8.2684e-07,0.25,0.75,0.1
0.014624,-0.0032888,0.005683,0.025975,0.00094174,0.00058126,-0.00057537,-0.00035161,0.00033428,0.051036,-0.01405,-0.014988,-0.0029919,-0.0018284,0.0017383,0,0,0,0.026,0.0011572,0.00034108,0.012829,0.009166,0.025261,8.2556e-07,0.3,0.75,0.1
0.017168,-0.0035083,0.0058795,0.025678,0.00059478,0.00047978,-0.000254,-0.00031485,4.1733e-05,0.050711,-0.014505,-0.014804,-0.0013208,-0.0016372,0.00021701,0,0,0,0.025685,0.00086069,0.00020695,0.012739,0.0089175,0.025158,8.1629e-07,0.35,0.75,0.1
0.019695,-0.0036471,0.0059435,0.025444,0.00041526,0.00038137,-5.4271e-06,-0.00022007,-0.00019601,0.05041,-0.014665,-0.014753,-2.822e-05,-0.0011444,-0.0010192,0,0,0,0.025448,0.00062216,0.00017036,0.012639,0.0087468,0.025055,8.07e-07,0.4,0.75,0.1
0.022209,-0.0037229,0.0059065,0.025276,0.00033371,0.00021442,0.00016602,-6.1242e-05,-0.00037165,0.050223,-0.014627,-0.014937,0.00086328,-0.00031846,-0.0019326,0,0,0,0.025284,0.00043224,0.00010805,0.012588,0.0086081,0.025016,8.0352e-07,0.45,0.75,0.1
0.024717,-0.0037573,0.0058112,0.025168,0.00029398,-4.5976e-05,0.00025064,0.00013651,-0.00044701,0.050187,-0.014485,-0.015369,0.0013033,0.00070984,-0.0023244,0,0,0,0.025179,0.00037501,-0.00013786,0.012658,0.0084719,0.025065,8.0728e-07,0.5,0.75,0.1
0.027227,-0.0037749,0.0057128,0.025107,0.00026651,-0.00033275,0.00025081,0.00031492,-0.00039299,0.050254,-0.014332,-0.01589,0.0013042,0.0016376,-0.0020435,0,0,0,0.025116,0.00041296,-0.00048835,0.012802,0.008347,0.025168,8.1472e-07,0.55,0.75,0.1
0.029743,-0.0037972,0.0056661,0.025088,0.00024008,-0.0005219,0.00018949,0.00041944,-0.00022836,0.050345,-0.014259,-0.016241,0.00098535,0.0021811,-0.0011875,0,0,0,0.025092,0.00043876,-0.00072511,0.012909,0.0082687,0.025257,8.2119e-07,0.6,0.75,0.1
0.032262,-0.0038378,0.0057064,0.0251,0.00020014,-0.00053598,9.7634e-05,0.00042632,-1.6067e-05,0.050401,-0.014338,-0.016252,0.0005077,0.0022169,-8.3548e-05,0,0,0,0.025101,0.0004079,-0.00074532,0.012923,0.0082546,0.025292,8.2464e-07,0.65,0.75,0.1
0.034783,-0.003901,0.0058387,0.025137,0.0001394,-0.00037666,4.4512e-06,0.00033472,0.00016879,0.050415,-0.014577,-0.015919,2.3146e-05,0.0017405,0.00087773,0,0,0,0.025138,0.00031425,-0.00055338,0.012846,0.0082998,0.025271,8.2502e-07,0.7,0.75,0.1
0.037303,-0.0039822,0.0060377,0.025194,5.7239e-05,-0.00012448,-6.2388e-05,0.00016667,0.00026557,0.050429,-0.014927,-0.0154,-0.00032442,0.0008667,0.0013809,0,0,0,0.025197,0.00020329,-0.00027378,0.012736,0.0083756,0.025237,8.2421e-07,0.75,0.75,0.1
0.039826,-0.0040695,0.0062598,0.025265,-5.2089e-05,9.3502e-05,-8.6424e-05,-2.4973e-05,0.00026026,0.050506,-0.015319,-0.014941,-0.00044941,-0.00012986,0.0013534,0,0,0,0.025268,0.00018931,-0.00015117,0.01271,0.0084355,0.025252,8.2635e-07,0.8,0.75,0.1
0.042354,-0.0041487,0.0064623,0.025345,-0.00018036,0.00020515,-7.4739e-05,-0.00018371,0.00019018,0.050675,-0.015691,-0.014689,-0.00038864,-0.00095527,0.00098896,0,0,0,0.025347,0.00028521,-0.00026246,0.012805,0.0084566,0.025341,8.3432e-07,0.85,0.75,0.1
0.044893,-0.0042098,0.0066174,0.025423,-0.00030065,0.00022527,-4.8397e-05,-0.00028592,0.00010761,0.050892,-0.01599,-0.014623,-0.00025167,-0.0014868,0.00055956,0,0,0,0.025424,0.00036022,-0.00043644,0.01293,0.0084493,0.025472,8.4615e-07,0.9,0.75,0.1
0.047443,-0.0042476,0.0067127,0.025481,-0.00038536,0.00020589,-3.4715e-05,-0.00033826,7.4768e-05,0.051069,-0.016183,-0.014645,-0.00018052,-0.0017589,0.00038879,0,0,0,0.025481,0.00037103,-0.0005509,0.013016,0.0084338,0.025584,8.5661e-07,0.95,0.75,0.1
0.048721,-0.0042604,0.0067446,0.025502,-0.00041579,0.00019347,-3.5117e-05,-0.00035386,8.0255e-05,0.051137,-0.016249,-0.014665,-0.00018261,-0.00184,0.00041733,0,0,0,0.025502,0.0003678,-0.00059053,0.013046,0.0084265,0.025627,8.6077e-07,1,0.75,0.1
0.0010297,-0.00046061,0.00076415,0.026999,0.0096588,0.0087538,-0.0034415,-4.8723e-05,0.0053012,0.04295,-0.002134,-0.004487,-0.017896,-0.00025336,0.027566,0,0,0,0.029087,0.0094974,0.0068267,0.01113,0.015137,0.021062,4.6252e-07,0,0.8,0.1
0.0021475,-0.00091135,0.0014956,0.026879,0.0079314,0.0065383,-0.0032694,-0.00010018,0.0046525,0.045077,-0.0041879,-0.0078097,-0.017001,-0.00052095,0.024193,0,0,0,0.02852,0.0076883,0.0051406,0.01169,0.013783,0.02223,5.5129e-07,0.05,0.8,0.1
0.0045077,-0.0017756,0.0028423,0.026991,0.0051255,0.0033446,-0.0028054,-0.00020311,0.003322,0.048901,-0.0079506,-0.012581,-0.014588,-0.0010561,0.017274,0,0,0,0.02788,0.0048392,0.002742,0.012569,0.011821,0.024174,7.1231e-07,0.1,0.8,0.1
0.0070376,-0.002539,0.0039153,0.027101,0.0032756,0.0018689,-0.0021749,-0.00029658,0.0021067,0.051114,-0.01083,-0.014488,-0.011309,-0.0015422,0.010955,0,0,0,0.027521,0.0031189,0.0016053,0.012958,0.010748,0.025201,8.1202e-07,0.15,0.8,0.1
0.0096191,-0.0031658,0.0046981,0.02674,0.0020006,0.0011103,-0.001527,-0.00036582,0.0012271,0.051613,-0.012709,-0.015024,-0.0079406,-0.0019022,0.006381,0,0,0,0.026918,0.0020313,0.00090109,0.013009,0.0099502,0.025473,8.4335e-07,0.2,0.8,0.1
0.012199,-0.0036492,0.0052438,0.026267,0.0011877,0.00071292,-0.00096696,-0.00040286,0.00065783,0.051394,-0.013813,-0.015047,-0.0050282,-0.0020949,0.0034207,0,0,0,0.026335,0.001388,0.00044511,0.012945,0.0093893,0.025432,8.4144e-07,0.25,0.8,0.1
0.014759,-0.0040008,0.005601,0.025841,0.00070027,0.00050631,-0.0005217,-0.00040131,0.00027833,0.050958,-0.014408,-0.014912,-0.0027128,-0.0020868,0.0014473,0,0,0,0.025862,0.0010109,0.00017477,0.012844,0.0090159,0.02528,8.2726e-07,0.3,0.8,0.1
0.017295,-0.0042387,0.0058061,0.025509,0.00042998,0.00039232,-0.00018011,-0.00035096,1.4744e-06,0.050525,-0.014681,-0.014779,-0.00093656,-0.001825,7.6666e-06,0,0,0,0.025514,0.00076212,5.4955e-05,0.01273,0.0087771,0.025114,8.1165e-07,0.35,0.8,0.1
0.019811,-0.0043834,0.0058891,0.025278,0.00029547,0.0002992,7.2937e-05,-0.00023964,-0.00021269,0.050199,-0.014755,-0.014746,0.00037927,-0.0012461,-0.001106,0,0,0,0.025282,0.00053578,5.4713e-05,0.012614,0.0086242,0.024991,8.0066e-07,0.4,0.8,0.1
0.022315,-0.0044571,0.0058811,0.025139,0.00023432,0.00017316,0.00024081,-6.4288e-05,-0.00036243,0.050034,-0.014719,-0.014878,0.0012522,-0.0003343,-0.0018847,0,0,0,0.025148,0.00035242,4.6566e-05,0.012551,0.0085155,0.02495,7.9726e-07,0.45,0.8,0.1
0.024814,-0.0044858,0.0058208,0.025074,0.00020261,-7.1442e-06,0.00031707,0.00015147,-0.00042106,0.050031,-0.014635,-0.01518,0.0016488,0.00078766,-0.0021895,0,0,0,0.025086,0.00031877,-0.00013467,0.01261,0.0084232,0.024998,8.0108e-07,0.5,0.8,0.1
0.027318,-0.0044973,0.0057546,0.025059,0.00017869,-0.00020718,0.000302,0.00035212,-0.00036735,0.050135,-0.014554,-0.015557,0.0015704,0.001831,-0.0019102,0,0,0,0.025068,0.00039465,-0.0004326,0.01275,0.0083434,0.0251,8.0857e-07,0.55,0.8,0.1
0.029828,-0.0045168,0.005728,0.02507,0.00015593,-0.00034601,0.00021591,0.00047491,-0.00021551,0.050255,-0.014523,-0.015828,0.0011227,0.0024695,-0.0011206,0,0,0,0.025075,0.00045102,-0.00064581,0.01286,0.0082934,0.025192,8.1539e-07,0.6,0.8,0.1
0.032343,-0.0045608,0.0057709,0.025092,0.00012848,-0.00035877,9.5085e-05,0.00048197,-1.9762e-05,0.050322,-0.014583,-0.01585,0.00049444,0.0025063,-0.00010276,0,0,0,0.025093,0.00043335,-0.00066516,0.012879,0.0082872,0.025229,8.1898e-07,0.65,0.8,0.1
0.03486,-0.0046339,0.0058881,0.025115,9.1004e-05,-0.00024749,-2.02e-05,0.00037264,0.00014986,0.050324,-0.014739,-0.015619,-0.00010504,0.0019377,0.00077928,0,0,0,0.025117,0.00033702,-0.00049511,0.012806,0.0083196,0.025208,8.1912e-07,0.7,0.8,0.1
0.037376,-0.0047295,0.0060594,0.02514,3.8176e-05,-8.09e-05,-9.7153e-05,0.0001833,0.00024142,0.050306,-0.014959,-0.015269,-0.0005052,0.00095316,0.0012554,0,0,0,0.025143,0.00020304,-0.00024869,0.012696,0.0083659,0.025171,8.1776e-07,0.75,0.8,0.1
0.039891,-0.0048327,0.00625,0.025171,-3.6335e-05,5.6396e-05,-0.00012252,-2.4957e-05,0.00024535,0.05033,-0.015209,-0.014968,-0.00063709,-0.00012978,0.0012758,0,0,0,0.025174,0.0001556,-0.00013869,0.012656,0.008397,0.025168,8.1824e-07,0.8,0.8,0.1
0.042409,-0.0049275,0.0064255,0.02521,-0.00012801,0.00012421,-0.00010706,-0.00019827,0.00019077,0.050422,-0.015457,-0.014801,-0.00055673,-0.001031,0.00099199,0,0,0,0.025212,0.00023811,-0.00024404,0.012728,0.0084021,0.02522,8.2262e-07,0.85,0.8,0.1
0.044933,-0.0050014,0.0065621,0.025252,-0.00021818,0.00013326,-7.2609e-05,-0.00031426,0.00011809,0.050556,-0.015668,-0.014754,-0.00037757,-0.0016341,0.00061406,0,0,0,0.025253,0.00032463,-0.00041053,0.012832,0.0083891,0.025305,8.2987e-07,0.9,0.8,0.1
0.047464,-0.0050477,0.0066472,0.025286,-0.00028396,0.00011733,-5.0431e-05,-0.00037639,8.1106e-05,0.050671,-0.01581,-0.014766,-0.00026224,-0.0019572,0.00042175,0,0,0,0.025286,0.000352,-0.00051907,0.012903,0.008373,0.025381,8.3662e-07,0.95,0.8,0.1
0.048731,-0.0050634,0.0066759,0.025298,-0.00030796,0.00010794,-4.7513e-05,-0.00039541,8.0259e-05,0.050716,-0.01586,-0.014778,-0.00024707,-0.0020562,0.00041735,0,0,0,0.025299,0.00035599,-0.00055642,0.012927,0.008366,0.025412,8.3936e-07,1,0.8,0.1
0.0010522,-0.00057764,0.00075406,0.02749,0.0095099,0.0088597,-0.0042469,-5.0091e-05,0.0052199,0.043959,-0.0027903,-0.0044807,-0.022084,-0.00026047,0.027144,0,0,0,0.029784,0.0093658,0.00671,0.011537,0.015287,0.021877,5.2282e-07,0,0.85,0.1
0.0021979,-0.00114,0.0014747,0.0273,0.0074841,0.0065498,-0.0039329,-0.00010633,0.0045678,0.04618,-0.0053416,-0.0077709,-0.020451,-0.00055289,0.023752,0,0,0,0.02909,0.0072735,0.0049706,0.01206,0.013778,0.023071,6.2444e-07,0.05,0.85,0.1
0.004618,-0.0022052,0.0027998,0.027298,0.0043291,0.0032576,-0.0031549,-0.00022049,0.0032348,0.050043,-0.009675,-0.012461,-0.016405,-0.0011466,0.016821,0,0,0,0.028236,0.0041073,0.0025405,0.012848,0.011628,0.024964,7.9465e-07,0.1,0.85,0.1
0.0072023,-0.0031139,0.0038534,0.027274,0.002528,0.0017932,-0.0022379,-0.00032199,0.0020263,0.051954,-0.012384,-0.014295,-0.011637,-0.0016744,0.010537,0,0,0,0.027688,0.0024724,0.0014344,0.013127,0.010532,0.025755,8.7336e-07,0.15,0.85,0.1
0.0098134,-0.0038269,0.0046229,0.026721,0.0014557,0.0010483,-0.001431,-0.00038925,0.0011586,0.05194,-0.01375,-0.01481,-0.007441,-0.0020241,0.0060249,0,0,0,0.026882,0.0016101,0.00073335,0.013074,0.0097418,0.025722,8.711e-07,0.2,0.85,0.1
0.012396,-0.0043559,0.0051623,0.026082,0.00082369,0.00064213,-0.00082188,-0.00041691,0.00060009,0.051285,-0.014387,-0.014859,-0.0042738,-0.0021679,0.0031205,0,0,0,0.026136,0.0011324,0.00027925,0.012929,0.0091827,0.025442,8.4328e-07,0.25,0.85,0.1
0.014942,-0.0047296,0.0055209,0.025568,0.00046635,0.00042167,-0.00038379,-0.00040379,0.00023143,0.050604,-0.014661,-0.014777,-0.0019957,-0.0020997,0.0012034,0,0,0,0.025583,0.00084168,3.1878e-05,0.012775,0.0088188,0.025156,8.1545e-07,0.3,0.85,0.1
0.017457,-0.0049763,0.0057358,0.02522,0.00027821,0.0003,-6.875e-05,-0.00034419,-2.9438e-05,0.050093,-0.014755,-0.014699,-0.0003575,-0.0017898,-0.00015308,0,0,0,0.025223,0.00063184,-5.7079e-05,0.01264,0.0085993,0.024944,7.9545e-07,0.35,0.85,0.1
0.019951,-0.0051227,0.0058381,0.02502,0.00018838,0.00021672,0.00015435,-0.0002301,-0.00022022,0.049797,-0.014765,-0.014692,0.00080264,-0.0011965,-0.0011451,0,0,0,0.025024,0.00042954,-2.8907e-05,0.012527,0.008475,0.024828,7.8525e-07,0.4,0.85,0.1
0.022436,-0.0051948,0.0058583,0.024938,0.00014691,0.000129,0.00029519,-6.173e-05,-0.00034425,0.04971,-0.014746,-0.014793,0.001535,-0.00032099,-0.0017901,0,0,0,0.024947,0.00026899,-1.948e-06,0.012474,0.0084046,0.024815,7.8452e-07,0.45,0.85,0.1
0.024922,-0.0052208,0.0058315,0.024938,0.0001222,1.8316e-05,0.00035028,0.00013969,-0.00038564,0.049791,-0.014729,-0.014999,0.0018214,0.00072641,-0.0020053,0,0,0,0.024949,0.0002546,-0.00012519,0.012537,0.0083594,0.024887,7.9085e-07,0.5,0.85,0.1
0.027415,-0.0052302,0.0057964,0.024982,0.00010154,-9.8701e-05,0.0003192,0.00032737,-0.00033243,0.049962,-0.014727,-0.015247,0.0016598,0.0017023,-0.0017286,0,0,0,0.024991,0.00034809,-0.00035418,0.012672,0.0083282,0.025003,8.0018e-07,0.55,0.85,0.1
0.029918,-0.0052495,0.0057894,0.025036,8.3473e-05,-0.00017966,0.00021918,0.00044414,-0.00019877,0.05013,-0.014747,-0.015431,0.0011397,0.0023095,-0.0010336,0,0,0,0.025041,0.00042027,-0.00052086,0.012781,0.0083133,0.025106,8.0841e-07,0.6,0.85,0.1
0.032428,-0.0052961,0.0058347,0.025075,6.6705e-05,-0.0001907,8.6269e-05,0.00045115,-2.895e-05,0.050225,-0.014797,-0.015467,0.0004486,0.002346,-0.00015054,0,0,0,0.025077,0.00041198,-0.00053731,0.012807,0.0083171,0.025155,8.1308e-07,0.65,0.85,0.1
0.034941,-0.0053749,0.0059368,0.02509,4.7759e-05,-0.00013386,-3.6694e-05,0.00034802,0.00012044,0.050232,-0.014878,-0.015351,-0.00019081,0.0018097,0.00062627,0,0,0,0.025092,0.0003199,-0.00040726,0.012749,0.0083348,0.025145,8.1374e-07,0.7,0.85,0.1
0.037452,-0.0054782,0.0060812,0.025087,2.0557e-05,-4.715e-05,-0.00011677,0.00017264,0.00020729,0.050189,-0.014983,-0.015159,-0.00060723,0.00089771,0.0010779,0,0,0,0.025089,0.00018174,-0.00021081,0.01265,0.0083534,0.025107,8.1187e-07,0.75,0.85,0.1
0.03996,-0.0055904,0.0062417,0.025077,-2.2234e-05,2.2521e-05,-0.00014324,-1.9045e-05,0.00022195,0.050153,-0.015104,-0.014988,-0.00074487,-9.9037e-05,0.0011542,0,0,0,0.025079,0.0001165,-0.0001191,0.012599,0.008359,0.025082,8.1008e-07,0.8,0.85,0.1
0.042467,-0.0056944,0.0063916,0.02507,-8.0141e-05,5.1875e-05,-0.00012722,-0.00018138,0.00018411,0.050157,-0.015234,-0.01489,-0.00066154,-0.00094318,0.00095737,0,0,0,0.025072,0.000182,-0.00021241,0.012642,0.0083473,0.025091,8.1042e-07,0.85,0.85,0.1
0.044976,-0.0057766,0.0065102,0.025071,-0.00014073,4.778e-05,-8.8931e-05,-0.00029382,0.00012307,0.050198,-0.015353,-0.014863,-0.00046244,-0.0015279,0.00063994,0,0,0,0.025072,0.00026692,-0.00036095,0.012717,0.0083261,0.025126,8.1293e-07,0.9,0.85,0.1
0.047487,-0.0058286,0.0065852,0.025076,-0.00018643,3.1813e-05,-6.1625e-05,-0.0003562,8.4478e-05,0.050244,-0.015437,-0.01487,-0.00032045,-0.0018522,0.00043929,0,0,0,0.025076,0.00030156,-0.00045668,0.012767,0.0083071,0.025163,8.1587e-07,0.95,0.85,0.1
0.048743,-0.0058463,0.0066107,0.025078,-0.00020337,2.3884e-05,-5.6454e-05,-0.00037574,7.8708e-05,0.050264,-0.015468,-0.014877,-0.00029356,-0.0019539,0.00040928,0,0,0,0.025079,0.00030955,-0.00048945,0.012784,0.0082996,0.025179,8.1715e-07,1,0.85,0.1
0.0011014,-0.00073964,0.0007467,0.028483,0.0090072,0.0090171,-0.0051024,-3.9412e-05,0.0051558,0.046152,-0.0044859,-0.0044601,-0.026533,-0.00020494,0.02681,0,0,0,0.031013,0.0091824,0.0063121,0.012351,0.015503,0.023409,6.4425e-07,0,0.9,0.1
0.0023076,-0.0014455,0.0014584,0.02813,0.0065344,0.0065508,-0.0044471,-9.2335e-05,0.0044976,0.04841,-0.00774,-0.0076972,-0.023125,-0.00048014,0.023388,0,0,0,0.030026,0.0067488,0.0044402,0.012793,0.013739,0.024534,7.5461e-07,0.05,0.9,0.1
0.004841,-0.0027431,0.0027649,0.027823,0.0031263,0.0031519,-0.0031186,-0.00020408,0.0031611,0.05188,-0.012333,-0.012266,-0.016217,-0.0010612,0.016438,0,0,0,0.028714,0.0033464,0.0020409,0.013337,0.011367,0.026059,9.0761e-07,0.1,0.9,0.1
0.0074956,-0.0037774,0.0038022,0.027409,0.0016994,0.0017297,-0.0019325,-0.00030121,0.0019638,0.052761,-0.014085,-0.014006,-0.010049,-0.0015663,0.010212,0,0,0,0.027762,0.0019296,0.0011468,0.013308,0.010279,0.026235,9.2636e-07,0.15,0.9,0.1
0.010117,-0.0045408,0.0045618,0.026462,0.00093056,0.00096552,-0.0010917,-0.00035496,0.0011104,0.051785,-0.014595,-0.014504,-0.005677,-0.0018458,0.0057742,0,0,0,0.026584,0.0012459,0.00052775,0.013028,0.0094525,0.025705,8.7133e-07,0.2,0.9,0.1
0.012674,-0.005088,0.0050979,0.025625,0.00050251,0.00054236,-0.00055488,-0.00036784,0.00055942,0.050623,-0.014695,-0.014592,-0.0028854,-0.0019128,0.002909,0,0,0,0.025662,0.00086983,0.0001384,0.012762,0.00889,0.025166,8.1754e-07,0.25,0.9,0.1
0.015179,-0.0054669,0.0054589,0.025067,0.00027362,0.00031642,-0.00020612,-0.00034598,0.00019544,0.049779,-0.014683,-0.014571,-0.0010718,-0.0017991,0.0010163,0,0,0,0.025075,0.00063651,-5.482e-05,0.012565,0.0085522,0.024792,7.816e-07,0.3,0.9,0.1
0.017652,-0.0057143,0.0056822,0.024759,0.00015885,0.00019899,3.0674e-05,-0.00028815,-5.6366e-05,0.049303,-0.014657,-0.014553,0.00015951,-0.0014984,-0.0002931,0,0,0,0.024761,0.00046606,-0.00011059,0.012436,0.0083722,0.024589,7.6283e-07,0.35,0.9,0.1
0.02011,-0.0058599,0.0057994,0.024643,0.00010594,0.0001336,0.00019252,-0.00018976,-0.00023056,0.049142,-0.014654,-0.014582,0.0010011,-0.00098678,-0.0011989,0,0,0,0.024647,0.00030581,-7.0908e-05,0.012359,0.0082941,0.024533,7.5807e-07,0.4,0.9,0.1
0.022566,-0.0059318,0.005841,0.024661,8.0771e-05,8.3597e-05,0.00028979,-5.231e-05,-0.00033402,0.049223,-0.014685,-0.014678,0.0015069,-0.00027201,-0.0017369,0,0,0,0.024669,0.00018488,-2.8893e-05,0.012349,0.0082751,0.024592,7.6389e-07,0.45,0.9,0.1
0.025032,-0.0059587,0.0058392,0.024759,6.3319e-05,3.0873e-05,0.00031964,0.00010728,-0.00036028,0.049461,-0.014747,-0.014832,0.0016621,0.00055784,-0.0018734,0,0,0,0.024769,0.00018435,-9.9849e-05,0.012434,0.0082844,0.024728,7.7624e-07,0.5,0.9,0.1
0.027512,-0.00597,0.0058275,0.024886,4.6813e-05,-2.2431e-05,0.00028106,0.00025401,-0.00030622,0.049757,-0.014824,-0.015004,0.0014615,0.0013208,-0.0015923,0,0,0,0.024893,0.00027094,-0.00025403,0.012574,0.0083034,0.02489,7.9049e-07,0.55,0.9,0.1
0.030008,-0.0059915,0.0058354,0.024997,3.2988e-05,-6.0105e-05,0.00018731,0.00034526,-0.00018676,0.050011,-0.014896,-0.015138,0.00097399,0.0017953,-0.00097116,0,0,0,0.025001,0.00033781,-0.00036853,0.012685,0.0083233,0.025025,8.0237e-07,0.6,0.9,0.1
0.032513,-0.0060405,0.0058825,0.025064,2.4044e-05,-6.8221e-05,6.81e-05,0.00035147,-3.7848e-05,0.050154,-0.014949,-0.015189,0.00035412,0.0018276,-0.00019681,0,0,0,0.025065,0.00033524,-0.00038047,0.012723,0.0083398,0.025096,8.0918e-07,0.65,0.9,0.1
0.035023,-0.0061218,0.0059732,0.025076,1.7972e-05,-4.8683e-05,-4.0409e-05,0.00027248,9.5968e-05,0.05017,-0.01498,-0.015154,-0.00021013,0.0014169,0.00049903,0,0,0,0.025077,0.00026105,-0.00029271,0.012685,0.0083484,0.025098,8.1032e-07,0.7,0.9,0.1
0.03753,-0.0062277,0.0060975,0.025043,8.3237e-06,-1.9379e-05,-0.00011074,0.00013745,0.00018083,0.050094,-0.014998,-0.01507,-0.00057584,0.00071473,0.00094029,0,0,0,0.025045,0.00014294,-0.00015601,0.012601,0.0083441,0.025054,8.0711e-07,0.75,0.9,0.1
0.040032,-0.0063431,0.0062359,0.024987,-1.1821e-05,-1.279e-06,-0.00013433,-1.1576e-05,0.00020621,0.049982,-0.015015,-0.014988,-0.00069849,-6.0193e-05,0.0010723,0,0,0,0.02499,7.6971e-05,-9.2612e-05,0.012541,0.0083247,0.024998,8.0215e-07,0.8,0.9,0.1
0.042529,-0.0064508,0.0063667,0.024928,-4.3232e-05,-3.6853e-06,-0.00012029,-0.00014006,0.00018291,0.049885,-0.015041,-0.014938,-0.00062553,-0.00072829,0.00095112,0,0,0,0.02493,0.00011983,-0.0001688,0.01255,0.0082938,0.024957,7.9787e-07,0.85,0.9,0.1
0.045021,-0.0065367,0.006472,0.024881,-7.8404e-05,-2.0994e-05,-8.5286e-05,-0.00023105,0.00013077,0.049822,-0.015073,-0.014924,-0.00044349,-0.0012015,0.00068,0,0,0,0.024882,0.00018661,-0.00028714,0.012585,0.0082606,0.024937,7.9539e-07,0.9,0.9,0.1
0.047511,-0.0065914,0.0065396,0.024852,-0.00010587,-3.9701e-05,-6.1396e-05,-0.00028262,8.9573e-05,0.049792,-0.015099,-0.014927,-0.00031926,-0.0014696,0.00046578,0,0,0,0.024853,0.0002166,-0.00036271,0.012608,0.0082355,0.024931,7.9448e-07,0.95,0.9,0.1
0.048755,-0.0066102,0.0065628,0.024842,-0.0001162,-4.7521e-05,-5.8094e-05,-0.000299,7.9056e-05,0.049783,-0.015109,-0.014931,-0.00030209,-0.0015548,0.00041109,0,0,0,0.024843,0.00022433,-0.00038846,0.012616,0.0082262,0.024931,7.9431e-07,1,0.9,0.1
0.00129,-0.0010262,0.0007456,0.031977,0.0089228,0.01005,-0.0061928,-1.9064e-05,0.005145,0.05257,-0.0073709,-0.0044391,-0.032203,-9.9133e-05,0.026754,0,0,0,0.034801,0.0098876,0.0062624,0.014269,0.016984,0.026925,1.0066e-06,0,0.95,0.1
0.0026285,-0.001914,0.0014541,0.030428,0.0056121,0.0070124,-0.0047822,-6.3221e-05,0.0044837,0.053282,-0.01124,-0.0075995,-0.024868,-0.00032875,0.023315,0,0,0,0.032381,0.0067809,0.0038911,0.014245,0.014351,0.027191,1.0292e-06,0.05,0.95,0.1
0.0053282,-0.0034384,0.002753,0.028257,0.0017458,0.0030003,-0.0025299,-0.00016249,0.0031444,0.053666,-0.015263,-0.012001,-0.013155,-0.00084493,0.016351,0,0,0,0.028996,0.0027736,0.0012332,0.013881,0.011001,0.027048,1.0112e-06,0.1,0.95,0.1
0.0079951,-0.0045223,0.0037833,0.026852,0.00086846,0.0015032,-0.0012623,-0.00024459,0.001949,0.05228,-0.015276,-0.013626,-0.006564,-0.0012718,0.010135,0,0,0,0.027117,0.0014525,0.00065396,0.013231,0.0097411,0.026076,9.1229e-07,0.15,0.95,0.1
0.010556,-0.0052864,0.0045393,0.025531,0.00040061,0.00072361,-0.00061447,-0.00027697,0.0010929,0.050387,-0.014951,-0.014112,-0.0031952,-0.0014403,0.0056833,0,0,0,0.025617,0.00083655,0.00020148,0.012708,0.008885,0.025105,8.1438e-07,0.2,0.95,0.1
0.013034,-0.0058255,0.0050745,0.02468,0.00018172,0.00033964,-0.00026644,-0.00027521,0.00053103,0.049048,-0.014649,-0.014238,-0.0013855,-0.0014311,0.0027614,0,0,0,0.024704,0.00053537,-3.7744e-05,0.012371,0.0084006,0.024461,7.5281e-07,0.25,0.95,0.1
0.015461,-0.0061978,0.0054362,0.024227,7.6142e-05,0.00015256,-6.0974e-05,-0.0002508,0.00015486,0.048318,-0.014476,-0.014277,-0.00031706,-0.0013041,0.00080525,0,0,0,0.024232,0.00036647,-0.00014261,0.012187,0.008152,0.024125,7.2178e-07,0.3,0.95,0.1
0.017866,-0.006442,0.0056619,0.024069,3.1635e-05,6.8561e-05,7.2721e-05,-0.00020488,-0.00010392,0.048078,-0.014419,-0.014323,0.00037815,-0.0010654,-0.0005404,0,0,0,0.024071,0.00025482,-0.00015688,0.012114,0.0080563,0.024025,7.1266e-07,0.35,0.95,0.1
0.020269,-0.0065881,0.0057839,0.024117,1.7618e-05,3.5617e-05,0.00016237,-0.00013477,-0.00027657,0.048203,-0.014457,-0.01441,0.00084431,-0.00070083,-0.0014381,0,0,0,0.024122,0.00015774,-0.00010965,0.012116,0.0080568,0.0241,7.1929e-07,0.4,0.95,0.1
0.022686,-0.0066633,0.0058331,0.024301,1.5705e-05,2.3272e-05,0.00021412,-4.156e-05,-0.00037065,0.048578,-0.014563,-0.014543,0.0011134,-0.00021611,-0.0019274,0,0,0,0.024309,8.9272e-05,-5.8514e-05,0.012184,0.0081133,0.024294,7.3677e-07,0.45,0.95,0.1
0.025127,-0.0066955,0.0058411,0.024552,1.517e-05,1.4834e-05,0.00022477,6.3816e-05,-0.00038389,0.049085,-0.01471,-0.01471,0.0011688,0.00033184,-0.0019962,0,0,0,0.02456,9.986e-05,-7.8592e-05,0.012319,0.0081939,0.024551,7.6005e-07,0.5,0.95,0.1
0.027594,-0.0067127,0.0058388,0.024804,1.2558e-05,5.3365e-06,0.00019261,0.00015932,-0.0003185,0.049597,-0.014861,-0.014879,0.0010016,0.00082845,-0.0016562,0,0,0,0.02481,0.00016923,-0.00015768,0.012484,0.008274,0.024807,7.8355e-07,0.55,0.95,0.1
0.030086,-0.0067391,0.0058529,0.025001,9.3935e-06,-2.4532e-06,0.00012567,0.00021859,-0.00019202,0.049997,-0.01498,-0.015011,0.00065349,0.0011367,-0.00099852,0,0,0,0.025004,0.00022385,-0.00021982,0.012612,0.0083359,0.025006,8.02e-07,0.6,0.95,0.1
0.032594,-0.006791,0.0059007,0.025105,7.6525e-06,-5.1045e-06,4.3216e-05,0.00022353,-3.8513e-05,0.050208,-0.015044,-0.015078,0.00022472,0.0011623,-0.00020027,0,0,0,0.025105,0.00022673,-0.00022502,0.012665,0.008369,0.025108,8.1188e-07,0.65,0.95,0.1
0.035107,-0.0068729,0.0059867,0.025107,6.4795e-06,-3.9867e-06,-3.0935e-05,0.00017414,0.00010148,0.050213,-0.015049,-0.015076,-0.00016086,0.00090554,0.0005277,0,0,0,0.025108,0.00017667,-0.00017512,0.012642,0.0083699,0.02511,8.1242e-07,0.7,0.95,0.1
0.037615,-0.006978,0.0061028,0.025029,2.0888e-06,-5.4627e-06,-7.8701e-05,8.8536e-05,0.00019592,0.05006,-0.01501,-0.015029,-0.00040925,0.00046039,0.0010188,0,0,0,0.025031,9.279e-05,-9.827e-05,0.012565,0.0083418,0.025035,8.0559e-07,0.75,0.95,0.1
0.040113,-0.0070919,0.0062325,0.024905,-9.2676e-06,-1.6047e-05,-9.4546e-05,-7.004e-06,0.00023162,0.049826,-0.014952,-0.01497,-0.00049164,-3.6421e-05,0.0012044,0,0,0,0.024908,3.9977e-05,-6.8072e-05,0.012488,0.0082933,0.024922,7.9501e-07,0.8,0.95,0.1
0.042598,-0.0071985,0.0063564,0.024775,-2.7501e-05,-3.67e-05,-8.4623e-05,-9.0356e-05,0.00021413,0.049588,-0.014898,-0.014922,-0.00044004,-0.00046985,0.0011135,0,0,0,0.024777,5.9189e-05,-0.00012579,0.012452,0.0082369,0.024811,7.8433e-07,0.85,0.95,0.1
0.045072,-0.0072839,0.0064574,0.024667,-4.791e-05,-6.1593e-05,-6.0129e-05,-0.00015009,0.00015931,0.049399,-0.014859,-0.014894,-0.00031267,-0.00078049,0.00082841,0,0,0,0.024668,9.7686e-05,-0.00020861,0.012438,0.0081857,0.024725,7.7598e-07,0.9,0.95,0.1
0.047538,-0.0073385,0.0065229,0.024597,-6.381e-05,-8.1672e-05,-4.8802e-05,-0.00018429,0.0001061,0.049282,-0.014837,-0.014883,-0.00025377,-0.0009583,0.00055174,0,0,0,0.024598,0.00011515,-0.0002613,0.01243,0.0081506,0.024674,7.7095e-07,0.95,0.95,0.1
0.048769,-0.0073573,0.0065455,0.024573,-6.9787e-05,-8.9331e-05,-5.1909e-05,-0.00019521,8.7352e-05,0.049242,-0.01483,-0.014881,-0.00026993,-0.0010151,0.00045423,0,0,0,0.024574,0.00011964,-0.00027922,0.012427,0.0081381,0.024657,7.6931e-07,1,0.95,0.1
0.0014449,-0.0012161,0.00074705,0.034808,0.0092362,0.010997,-0.0068642,-7.8531e-06,0.0051589,0.057476,-0.0090101,-0.0044333,-0.035694,-4.0836e-05,0.026826,0,0,0,0.037807,0.010705,0.0065284,0.015639,0.018347,0.029431,1.2869e-06,0,1,0.1
0.0028738,-0.0022039,0.0014561,0.03217,0.0053398,0.0074783,-0.0049408,-4.7561e-05,0.0044984,0.05665,-0.01311,-0.0075496,-0.025692,-0.00024731,0.023392,0,0,0,0.034152,0.0070945,0.0037417,0.015205,0.014996,0.028915,1.2202e-06,0.05,1,0.1
0.005665,-0.0038308,0.0027552,0.028352,0.0010661,0.002898,-0.0021073,-0.0001402,0.0031584,0.054326,-0.016618,-0.011855,-0.010958,-0.00072905,0.016424,0,0,0,0.029002,0.0025474,0.000767,0.014118,0.010772,0.027416,1.051e-06,0.1,1,0.1
0.0083064,-0.0049108,0.0037853,0.026253,0.00043869,0.0012991,-0.00086111,-0.00021355,0.0019582,0.051463,-0.015654,-0.013417,-0.0044778,-0.0011105,0.010182,0,0,0,0.026477,0.0011851,0.00032836,0.013074,0.0093303,0.025735,8.7801e-07,0.15,1,0.1
0.010811,-0.0056627,0.0045415,0.024825,0.00011211,0.00053297,-0.00037025,-0.00023447,0.0010925,0.049263,-0.014991,-0.013896,-0.0019253,-0.0012193,0.0056812,0,0,0,0.024898,0.00059023,-1.7845e-05,0.012458,0.0084901,0.024618,7.681e-07,0.2,1,0.1
0.013233,-0.0061922,0.0050767,0.024055,2.6883e-06,0.00019815,-0.00013532,-0.00022616,0.0005181,0.04799,-0.014547,-0.014039,-0.00070364,-0.001176,0.0026941,0,0,0,0.024075,0.00033771,-0.0001564,0.012116,0.0080854,0.023988,7.1002e-07,0.25,1,0.1
0.01561,-0.0065594,0.0054378,0.023709,-3.9356e-05,4.8743e-05,-6.1647e-06,-0.00020184,0.00013018,0.047413,-0.014334,-0.014104,-3.2056e-05,-0.0010496,0.00067692,0,0,0,0.023713,0.00021111,-0.00020559,0.011959,0.0079062,0.023713,6.8549e-07,0.3,1,0.1
0.017974,-0.0068019,0.0056625,0.023659,-4.6141e-05,-8.0845e-06,7.5976e-05,-0.00016319,-0.00013722,0.047351,-0.014283,-0.014184,0.00039507,-0.00084861,-0.00071354,0,0,0,0.023661,0.00013663,-0.00019332,0.011927,0.0078683,0.023692,6.8344e-07,0.35,1,0.1
0.020345,-0.0069489,0.0057835,0.023813,-3.6938e-05,-2.0137e-05,0.00013084,-0.00010818,-0.00031392,0.047661,-0.01435,-0.014306,0.00068039,-0.00056256,-0.0016324,0,0,0,0.023819,7.6253e-05,-0.00013898,0.011979,0.0079187,0.023851,6.973e-07,0.4,1,0.1
0.02274,-0.007027,0.0058322,0.024099,-2.2424e-05,-1.3572e-05,0.00016176,-3.7467e-05,-0.00040682,0.048219,-0.014496,-0.014473,0.00084118,-0.00019483,-0.0021154,0,0,0,0.024107,3.6221e-05,-8.0787e-05,0.012094,0.0080209,0.02413,7.22e-07,0.45,1,0.1
0.025167,-0.0070632,0.0058403,0.024443,-9.364e-06,-3.251e-06,0.00016543,4.1081e-05,-0.00041398,0.048894,-0.014683,-0.014667,0.00086022,0.00021362,-0.0021527,0,0,0,0.024452,5.2715e-05,-7.4093e-05,0.012263,0.0081435,0.024463,7.5213e-07,0.5,1,0.1
0.027629,-0.0070843,0.0058385,0.024773,-5.1813e-07,4.3399e-06,0.00013984,0.00011167,-0.00033896,0.049543,-0.014867,-0.014855,0.00072717,0.00058066,-0.0017626,0,0,0,0.024779,0.00011406,-0.0001164,0.012448,0.0082588,0.024781,7.815e-07,0.55,1,0.1
0.030122,-0.0071139,0.005853,0.025021,4.5179e-06,8.2995e-06,9.0261e-05,0.00015554,-0.00020097,0.050034,-0.015008,-0.014999,0.00046936,0.00080883,-0.0010451,0,0,0,0.025024,0.00016353,-0.00015344,0.012589,0.0083446,0.02502,8.0404e-07,0.6,1,0.1
0.032633,-0.0071674,0.0059008,0.025146,6.8811e-06,9.2864e-06,3.0221e-05,0.0001599,-3.549e-05,0.050282,-0.015079,-0.015073,0.00015715,0.0008315,-0.00018455,0,0,0,0.025147,0.00016987,-0.0001545,0.012651,0.0083874,0.025141,8.1564e-07,0.65,1,0.1
0.03515,-0.0072494,0.0059863,0.025141,6.2385e-06,6.3228e-06,-2.3332e-05,0.00012483,0.00011567,0.050274,-0.015076,-0.015075,-0.00012133,0.00064912,0.00060151,0,0,0,0.025142,0.00013234,-0.00012085,0.012631,0.0083844,0.025137,8.1545e-07,0.7,1,0.1
0.03766,-0.0073532,0.0061019,0.025032,7.6589e-07,-3.3674e-06,-5.7555e-05,6.3275e-05,0.00021903,0.050065,-0.015015,-0.015026,-0.00029929,0.00032903,0.001139,0,0,0,0.025034,6.6753e-05,-7.1762e-05,0.012553,0.008343,0.025037,8.0597e-07,0.75,1,0.1
0.040156,-0.0074655,0.0062314,0.024866,-1.078e-05,-2.1692e-05,-6.8649e-05,-5.8891e-06,0.00025973,0.049751,-0.014928,-0.014956,-0.00035697,-3.0623e-05,0.0013506,0,0,0,0.024869,2.2556e-05,-5.8222e-05,0.012464,0.0082778,0.024887,7.9171e-07,0.8,1,0.1
0.042635,-0.0075704,0.0063556,0.024693,-2.699e-05,-4.6828e-05,-6.119e-05,-6.6584e-05,0.00024203,0.04943,-0.014842,-0.014893,-0.00031819,-0.00034624,0.0012585,0,0,0,0.024696,3.0832e-05,-0.00010745,0.012402,0.0082064,0.024735,7.7719e-07,0.85,1,0.1
0.045099,-0.0076545,0.0064572,0.02455,-4.3838e-05,-7.2949e-05,-4.3336e-05,-0.0001103,0.00018159,0.04917,-0.014774,-0.01485,-0.00022535,-0.00057354,0.00094426,0,0,0,0.024552,5.4576e-05,-0.00017305,0.012362,0.0081444,0.024612,7.6557e-07,0.9,1,0.1
0.047552,-0.0077084,0.0065233,0.024459,-5.6457e-05,-9.2617e-05,-4.0029e-05,-0.00013541,0.0001187,0.049007,-0.014732,-0.014827,-0.00020815,-0.00070412,0.00061725,0,0,0,0.024459,6.4963e-05,-0.00021481,0.012337,0.0081032,0.024536,7.5838e-07,0.95,1,0.1
0.048777,-0.0077269,0.0065461,0.024427,-6.1118e-05,-9.991e-05,-4.7188e-05,-0.00014345,9.4365e-05,0.048951,-0.014719,-0.01482,-0.00024538,-0.00074592,0.0004907,0,0,0,0.024428,6.7478e-05,-0.00022901,0.012328,0.0080888,0.02451,7.5599e-07,1,1,0.1
0.0013709,0.0011951,0.00055642,0.033224,0.0089287,0.0113,0.0067587,9.38e-06,0.0040893,0.054311,-0.0088567,-0.0026922,0.035145,4.8776e-05,0.021265,0,0,0,0.035933,0.011026,0.0064931,0.01472,0.017817,0.027464,1.0257e-06,0,0,0.15
0.0027155,0.0021705,0.0010989,0.030786,0.0052367,0.0082434,0.0048772,3.552e-05,0.0037828,0.053485,-0.012944,-0.005127,0.025362,0.0001847,0.019671,0,0,0,0.032593,0.0078736,0.0037996,0.014397,0.014755,0.02701,9.6527e-07,0.05,0,0.15
0.0053485,0.0037806,0.0021285,0.027324,0.0010972,0.0039085,0.0020918,9.7187e-05,0.0030219,0.051644,-0.016545,-0.0092356,0.010877,0.00050537,0.015714,0,0,0,0.027955,0.0035374,0.00083667,0.013559,0.010776,0.025905,8.5979e-07,0.1,0,0.15
0.0078799,0.0048495,0.003012,0.025666,0.00040755,0.001929,0.00083732,0.00015131,0.0021223,0.049929,-0.015742,-0.011786,0.0043541,0.00078682,0.011036,0,0,0,0.025915,0.0017438,0.00034316,0.012786,0.009334,0.02491,7.8676e-07,0.15,0,0.15
0.010341,0.0055852,0.0037133,0.024721,0.00010397,0.0008941,0.00032269,0.00017246,0.0013297,0.048843,-0.015161,-0.013107,0.001678,0.00089681,0.0069147,0,0,0,0.024815,0.00085871,4.5645e-05,0.012384,0.008573,0.024375,7.4252e-07,0.2,0,0.15
0.012764,0.0060966,0.0042458,0.024258,1.542e-05,0.00038638,7.6805e-05,0.00016763,0.00073786,0.048275,-0.014756,-0.013791,0.00039938,0.0008717,0.0038369,0,0,0,0.024288,0.00043955,-6.7828e-05,0.012178,0.0082199,0.024107,7.1949e-07,0.25,0,0.15
0.015169,0.0064502,0.0046398,0.024069,-2.2255e-05,0.00012476,-4.8581e-05,0.00014767,0.00032922,0.048076,-0.014561,-0.014178,-0.00025262,0.00076787,0.001712,0,0,0,0.024077,0.00022038,-0.00012553,0.012101,0.0080571,0.024031,7.1301e-07,0.3,0,0.15
0.017572,0.006689,0.004925,0.024069,-3.7187e-05,-4.7127e-06,-0.00011514,0.00011997,5.9773e-05,0.048162,-0.014513,-0.014428,-0.00059874,0.00062385,0.00031082,0,0,0,0.024071,0.00010317,-0.00014701,0.012109,0.0080089,0.024094,7.1864e-07,0.35,0,0.15
0.019985,0.0068439,0.0051271,0.02419,-4.3237e-05,-6.1938e-05,-0.00014745,8.8912e-05,-0.00010832,0.048444,-0.014564,-0.014612,-0.00076676,0.00046234,-0.00056328,0,0,0,0.024192,3.6971e-05,-0.00014402,0.012168,0.0080284,0.024246,7.3241e-07,0.4,0,0.15
0.022416,0.0069397,0.0052675,0.024382,-4.5577e-05,-7.9314e-05,-0.00015632,5.7604e-05,-0.00020281,0.048839,-0.014673,-0.014761,-0.00081288,0.00029954,-0.0010546,0,0,0,0.024385,-3.6187e-06,-0.00012417,0.012255,0.0080858,0.024449,7.5092e-07,0.45,0,0.15
0.024869,0.0069965,0.0053635,0.024601,-4.6342e-05,-7.6362e-05,-0.00014729,2.8882e-05,-0.00024372,0.049276,-0.014807,-0.014886,-0.00076592,0.00015019,-0.0012673,0,0,0,0.024604,-2.8814e-05,-9.7316e-05,0.012351,0.0081594,0.024668,7.7117e-07,0.5,0,0.15
0.027344,0.007031,0.0054295,0.024813,-4.5853e-05,-6.5602e-05,-0.0001246,5.487e-06,-0.00024632,0.049692,-0.01494,-0.014991,-0.00064794,2.8532e-05,-0.0012809,0,0,0,0.024816,-3.777e-05,-7.6869e-05,0.012446,0.0082337,0.024873,7.9054e-07,0.55,0,0.15
0.029838,0.007056,0.0054762,0.024992,-4.3638e-05,-5.5165e-05,-9.2937e-05,-1.0307e-05,-0.00022323,0.050043,-0.015049,-0.015079,-0.00048327,-5.3595e-05,-0.0011608,0,0,0,0.024994,-3.2043e-05,-6.9206e-05,0.012532,0.0082976,0.025045,8.0695e-07,0.6,0,0.15
0.032348,0.0070805,0.0055118,0.025123,-3.9267e-05,-4.9889e-05,-5.7746e-05,-1.7273e-05,-0.00018535,0.050299,-0.015122,-0.01515,-0.00030028,-8.9818e-05,-0.00096385,0,0,0,0.025124,-2.3728e-05,-6.702e-05,0.012596,0.0083446,0.02517,8.1905e-07,0.65,0,0.15
0.034868,0.0071091,0.0055413,0.025201,-3.2924e-05,-5.1856e-05,-2.463e-05,-1.5654e-05,-0.00014199,0.050453,-0.015155,-0.015205,-0.00012808,-8.1401e-05,-0.00073836,0,0,0,0.025202,-2.0945e-05,-6.4728e-05,0.012633,0.0083721,0.025245,8.2636e-07,0.7,0,0.15
0.037393,0.0071427,0.0055675,0.025231,-2.5499e-05,-6.0834e-05,1.7283e-06,-7.1668e-06,-0.00010037,0.050514,-0.015153,-0.015245,8.9871e-06,-3.7267e-05,-0.00052192,0,0,0,0.025232,-2.0363e-05,-6.6415e-05,0.012649,0.0083816,0.025275,8.293e-07,0.75,0,0.15
0.03992,0.0071792,0.0055911,0.025225,-1.8228e-05,-7.4826e-05,1.8461e-05,5.4402e-06,-6.5207e-05,0.050505,-0.015126,-0.015273,9.5998e-05,2.8289e-05,-0.00033908,0,0,0,0.025225,-1.5863e-05,-7.7398e-05,0.012651,0.0083772,0.025271,8.2894e-07,0.8,0,0.15
0.042444,0.0072145,0.0056114,0.025197,-1.2176e-05,-9.0758e-05,2.4865e-05,1.9067e-05,-3.8595e-05,0.050455,-0.015088,-0.015292,0.0001293,9.915e-05,-0.00020069,0,0,0,0.025197,-6.9662e-06,-9.6065e-05,0.012647,0.0083646,0.025249,8.2667e-07,0.85,0,0.15
0.044965,0.0072439,0.0056273,0.025164,-7.9026e-06,-0.00010524,2.214e-05,3.0906e-05,-2.0314e-05,0.050395,-0.015051,-0.015304,0.00011513,0.00016071,-0.00010563,0,0,0,0.025164,1.9961e-06,-0.00011518,0.012639,0.0083502,0.025221,8.2389e-07,0.9,0,0.15
0.047483,0.0072635,0.0056375,0.025138,-5.4643e-06,-0.00011529,1.9615e-05,3.8848e-05,-4.9816e-06,0.050349,-0.015025,-0.01531,0.000102,0.00020201,-2.5904e-05,0,0,0,0.025138,7.954e-06,-0.00012873,0.012633,0.0083391,0.025199,8.2174e-07,0.95,0,0.15
0.048742,0.0072703,0.005641,0.025129,-4.6856e-06,-0.00011887,2.048e-05,4.1634e-05,3.137e-06,0.050331,-0.015015,-0.015312,0.0001065,0.0002165,1.6313e-05,0,0,0,0.025129,1.0001e-05,-0.00013358,0.012631,0.008335,0.025191,8.2094e-07,1,0,0.15
0.0012184,0.0010084,0.00055534,0.030431,0.008615,0.010361,0.0060955,1.8777e-05,0.0040773,0.049477,-0.0072457,-0.0027053,0.031697,9.7643e-05,0.021202,0,0,0,0.032939,0.010122,0.0063461,0.013297,0.016469,0.024931,7.8923e-07,0,0.05,0.15
0.0024739,0.0018841,0.001097,0.029071,0.0055095,0.0077949,0.004715,5.0734e-05,0.0037682,0.05016,-0.011101,-0.0051586,0.024518,0.00026382,0.019595,0,0,0,0.030836,0.0074664,0.0040733,0.013381,0.014125,0.02526,8.0761e-07,0.05,0.05,0.15
0.005016,0.0033899,0.0021249,0.027245,0.0017961,0.0040594,0.0024962,0.00012154,0.0030048,0.050977,-0.015191,-0.0093059,0.01298,0.00063202,0.015625,0,0,0,0.027965,0.0037226,0.0014131,0.013276,0.011034,0.025503,8.2929e-07,0.1,0.05,0.15
0.0075716,0.0044591,0.003007,0.026281,0.00087797,0.0022038,0.0012186,0.00018287,0.0021074,0.050712,-0.015335,-0.011888,0.0063367,0.00095091,0.010958,0,0,0,0.026568,0.0020405,0.0007537,0.012907,0.0097875,0.025204,8.1594e-07,0.15,0.05,0.15
0.010087,0.005205,0.003707,0.025437,0.00043552,0.0011508,0.00054728,0.00021004,0.0013204,0.049922,-0.015082,-0.013222,0.0028458,0.0010922,0.0068661,0,0,0,0.025541,0.0011438,0.00033851,0.012601,0.0090078,0.024812,7.8333e-07,0.2,0.05,0.15
0.012564,0.0057251,0.0042385,0.024883,0.00023199,0.00058148,0.00018812,0.00020708,0.0007349,0.049278,-0.014815,-0.013906,0.00097822,0.0010768,0.0038215,0,0,0,0.024915,0.00066994,0.00011129,0.012402,0.0085654,0.02453,7.5813e-07,0.25,0.05,0.15
0.015015,0.0060834,0.0046317,0.024578,0.00012062,0.00026754,-1.1513e-05,0.00018444,0.00033132,0.048922,-0.014666,-0.014284,-5.9867e-05,0.00095911,0.0017229,0,0,0,0.024586,0.00039718,-1.6976e-05,0.012301,0.0083219,0.024398,7.4627e-07,0.3,0.05,0.15
0.017456,0.0063236,0.0049163,0.024468,5.5759e-05,9.7539e-05,-0.0001244,0.00015039,6.5026e-05,0.048843,-0.014628,-0.014519,-0.00064689,0.00078202,0.00033813,0,0,0,0.02447,0.00023124,-8.0089e-05,0.012275,0.0082069,0.024396,7.4608e-07,0.35,0.05,0.15
0.019899,0.0064777,0.0051179,0.024493,1.4267e-05,9.7153e-06,-0.00018397,0.00011046,-0.00010154,0.048972,-0.014673,-0.014685,-0.00095663,0.00057442,-0.00052799,0,0,0,0.024495,0.00012243,-0.00010082,0.012298,0.0081724,0.024486,7.5435e-07,0.4,0.05,0.15
0.022353,0.006571,0.0052577,0.024603,-1.4733e-05,-3.0977e-05,-0.00020622,6.9065e-05,-0.00019553,0.049233,-0.014773,-0.014815,-0.0010724,0.00035914,-0.0010167,0,0,0,0.024606,4.5886e-05,-9.5199e-05,0.012351,0.0081857,0.024631,7.6787e-07,0.45,0.05,0.15
0.024823,0.0066248,0.0053533,0.024754,-3.5987e-05,-4.5819e-05,-0.00019994,3.0441e-05,-0.00023641,0.049556,-0.014897,-0.014922,-0.0010397,0.00015829,-0.0012293,0,0,0,0.024758,-5.1863e-06,-8.0745e-05,0.012419,0.0082239,0.024801,7.8376e-07,0.5,0.05,0.15
0.027309,0.0066562,0.0054191,0.024912,-5.058e-05,-4.8306e-05,-0.00017192,-1.1819e-06,-0.00023906,0.049882,-0.015019,-0.015013,-0.00089397,-6.1457e-06,-0.0012431,0,0,0,0.024915,-2.641e-05,-7.6182e-05,0.012496,0.0082709,0.024967,7.995e-07,0.55,0.05,0.15
0.029811,0.0066788,0.005466,0.025051,-5.7944e-05,-4.7069e-05,-0.00012943,-2.2239e-05,-0.00021594,0.050166,-0.015118,-0.01509,-0.00067302,-0.00011564,-0.0011229,0,0,0,0.025054,-2.3974e-05,-8.376e-05,0.012569,0.0083154,0.025108,8.1307e-07,0.6,0.05,0.15
0.032325,0.0067016,0.0055023,0.025157,-5.7596e-05,-4.7338e-05,-8.078e-05,-3.0741e-05,-0.00017805,0.050377,-0.015181,-0.015154,-0.00042006,-0.00015985,-0.00092584,0,0,0,0.025159,-1.8098e-05,-8.8499e-05,0.012624,0.0083507,0.025212,8.2317e-07,0.65,0.05,0.15
0.034849,0.0067296,0.0055329,0.025223,-5.0313e-05,-5.1746e-05,-3.4415e-05,-2.6945e-05,-0.00013485,0.050507,-0.015203,-0.015207,-0.00017896,-0.00014011,-0.0007012,0,0,0,0.025224,-1.9713e-05,-8.3211e-05,0.012653,0.0083735,0.025275,8.2932e-07,0.7,0.05,0.15
0.037376,0.0067634,0.0055604,0.02525,-3.8344e-05,-6.0853e-05,2.6662e-06,-1.3347e-05,-9.3745e-05,0.05056,-0.01519,-0.015249,1.3864e-05,-6.9404e-05,-0.00048748,0,0,0,0.025251,-2.3662e-05,-7.5944e-05,0.012663,0.0083837,0.025301,8.3182e-07,0.75,0.05,0.15
0.039905,0.0068006,0.0055855,0.025249,-2.4725e-05,-7.3585e-05,2.6206e-05,6.0015e-06,-5.951e-05,0.050556,-0.015154,-0.015281,0.00013627,3.1207e-05,-0.00030945,0,0,0,0.025249,-1.8496e-05,-8.0017e-05,0.012664,0.0083834,0.025298,8.3156e-07,0.8,0.05,0.15
0.042432,0.0068369,0.0056072,0.025229,-1.2247e-05,-8.7728e-05,3.5157e-05,2.6553e-05,-3.4151e-05,0.050519,-0.015109,-0.015306,0.00018282,0.00013807,-0.00017759,0,0,0,0.025229,-1.776e-06,-9.8316e-05,0.012664,0.0083765,0.02528,8.2972e-07,0.85,0.05,0.15
0.044956,0.0068674,0.0056243,0.025205,-2.7361e-06,-0.00010055,3.1244e-05,4.4231e-05,-1.7309e-05,0.050472,-0.015068,-0.015322,0.00016247,0.00023,-9.0007e-05,0,0,0,0.025205,1.6456e-05,-0.00011981,0.012662,0.0083673,0.025257,8.2746e-07,0.9,0.05,0.15
0.047479,0.0068876,0.0056352,0.025186,3.0365e-06,-0.00010947,2.5092e-05,5.602e-05,-3.2246e-06,0.050436,-0.01504,-0.015332,0.00013048,0.00029131,-1.6768e-05,0,0,0,0.025186,2.8503e-05,-0.00013497,0.012661,0.0083599,0.02524,8.2572e-07,0.95,0.05,0.15
0.04874,0.0068947,0.0056389,0.025179,4.9503e-06,-0.00011266,2.3749e-05,6.0143e-05,4.393e-06,0.050423,-0.01503,-0.015336,0.0001235,0.00031274,2.2843e-05,0,0,0,0.025179,3.265e-05,-0.00014039,0.01266,0.0083571,0.025233,8.2507e-07,1,0.05,0.15
0.0010331,0.00072668,0.00055616,0.026991,0.0086966,0.0093387,0.0050178,3.6825e-05,0.0040824,0.04316,-0.0044044,-0.0027349,0.026093,0.00019149,0.021229,0,0,0,0.02916,0.0092108,0.0066548,0.011253,0.015009,0.021351,4.8744e-07,0,0.1,0.15
0.002158,0.0014213,0.0010991,0.026811,0.0064342,0.0073576,0.004374,7.9988e-05,0.0037725,0.045347,-0.0076327,-0.0052318,0.022745,0.00041594,0.019617,0,0,0,0.028495,0.0071744,0.0049338,0.01178,0.013534,0.02254,5.8359e-07,0.05,0.1,0.15
0.0045347,0.0026981,0.0021299,0.026833,0.0032174,0.0042798,0.0030551,0.00016775,0.003006,0.049167,-0.012233,-0.0094704,0.015886,0.00087231,0.015631,0,0,0,0.027699,0.0040884,0.0025424,0.012578,0.011443,0.024435,7.4592e-07,0.1,0.1,0.15
0.0070747,0.0037127,0.0030141,0.026851,0.0017922,0.0025308,0.0018541,0.00024165,0.0021037,0.051108,-0.014045,-0.012124,0.0096414,0.0012566,0.010939,0,0,0,0.027219,0.0024709,0.0014835,0.012868,0.010391,0.025262,8.2467e-07,0.15,0.1,0.15
0.0096455,0.0044549,0.0037144,0.026368,0.0010571,0.001485,0.00098972,0.00028026,0.0013132,0.051211,-0.014598,-0.013485,0.0051466,0.0014573,0.0068288,0,0,0,0.026501,0.0015783,0.00083051,0.012835,0.0096367,0.025307,8.3018e-07,0.2,0.1,0.15
0.012196,0.0049814,0.0042443,0.025816,0.00063614,0.00085557,0.00044059,0.00028234,0.00072758,0.050738,-0.014731,-0.01416,0.0022911,0.0014682,0.0037834,0,0,0,0.025857,0.0010458,0.0004056,0.012726,0.0091027,0.025137,8.144e-07,0.25,0.1,0.15
0.014719,0.0053449,0.0046344,0.025399,0.00038233,0.00047896,9.9411e-05,0.00025621,0.00032531,0.050281,-0.014762,-0.014511,0.00051694,0.0013323,0.0016916,0,0,0,0.025408,0.00069667,0.0001553,0.012627,0.0087535,0.024987,8.0042e-07,0.3,0.1,0.15
0.017224,0.0055865,0.0049149,0.025146,0.00022085,0.00025527,-0.00010973,0.00021067,6.0116e-05,0.050006,-0.014799,-0.01471,-0.0005706,0.0010955,0.0003126,0,0,0,0.025148,0.00045209,2.1623e-05,0.012563,0.0085407,0.024914,7.9392e-07,0.35,0.1,0.15
0.01972,0.0057385,0.0051117,0.02503,0.00011073,0.00012409,-0.00023019,0.00015315,-0.0001059,0.049919,-0.014871,-0.014836,-0.001197,0.00079635,-0.00055068,0,0,0,0.025033,0.00026954,-3.7924e-05,0.012535,0.0084215,0.024919,7.9468e-07,0.4,0.1,0.15
0.022216,0.0058274,0.0052466,0.025011,3.0045e-05,4.8661e-05,-0.0002857,9.0574e-05,-0.00019922,0.049975,-0.014976,-0.014927,-0.0014856,0.00047099,-0.001036,0,0,0,0.025016,0.0001294,-5.5792e-05,0.012536,0.0083632,0.02498,8.0075e-07,0.45,0.1,0.15
0.024717,0.0058755,0.0053378,0.025052,-3.1135e-05,6.187e-06,-0.00029047,3.045e-05,-0.00023834,0.050119,-0.015097,-0.015,-0.0015105,0.00015834,-0.0012394,0,0,0,0.025058,3.6161e-05,-6.6906e-05,0.012562,0.0083423,0.025073,8.0981e-07,0.5,0.1,0.15
0.027228,0.0059013,0.0054001,0.025121,-7.511e-05,-1.7545e-05,-0.00025604,-1.9359e-05,-0.00023756,0.050297,-0.015212,-0.015062,-0.0013314,-0.00010067,-0.0012353,0,0,0,0.025126,-8.6783e-07,-9.6818e-05,0.012611,0.0083427,0.025175,8.1961e-07,0.55,0.1,0.15
0.029747,0.0059194,0.0054453,0.025193,-0.0001006,-3.1348e-05,-0.00019492,-5.1973e-05,-0.00020953,0.050465,-0.015298,-0.015118,-0.0010136,-0.00027026,-0.0010896,0,0,0,0.025196,-2.1864e-06,-0.00013321,0.012665,0.0083537,0.025265,8.283e-07,0.6,0.1,0.15
0.032274,0.0059396,0.0054818,0.025252,-0.00010661,-4.0684e-05,-0.00012147,-6.3378e-05,-0.00016627,0.050593,-0.01534,-0.015169,-0.00063164,-0.00032956,-0.00086461,0,0,0,0.025254,-1.2956e-06,-0.00014787,0.012701,0.0083684,0.025329,8.3463e-07,0.65,0.1,0.15
0.034806,0.005967,0.0055147,0.025291,-9.5123e-05,-4.895e-05,-5.0233e-05,-5.3782e-05,-0.00011866,0.050668,-0.015335,-0.015215,-0.00026121,-0.00027967,-0.00061703,0,0,0,0.025292,-1.1687e-05,-0.00013319,0.012713,0.0083823,0.025365,8.3811e-07,0.7,0.1,0.15
0.037341,0.006002,0.0055461,0.025308,-7.1572e-05,-5.8084e-05,6.8514e-06,-2.7612e-05,-7.526e-05,0.050693,-0.015293,-0.015258,3.5627e-05,-0.00014358,-0.00039135,0,0,0,0.025308,-2.6616e-05,-0.00010336,0.012706,0.0083927,0.025373,8.3899e-07,0.75,0.1,0.15
0.039876,0.0060415,0.0055757,0.025307,-4.3174e-05,-6.8679e-05,4.2707e-05,7.8805e-06,-4.1337e-05,0.050681,-0.015229,-0.015296,0.00022208,4.0979e-05,-0.00021495,0,0,0,0.025307,-2.2784e-05,-8.9262e-05,0.012698,0.0083984,0.025363,8.3803e-07,0.8,0.1,0.15
0.042409,0.0060804,0.0056021,0.025296,-1.6536e-05,-8.0016e-05,5.577e-05,4.469e-05,-1.8669e-05,0.050651,-0.015163,-0.015328,0.00029,0.00023239,-9.708e-05,0,0,0,0.025296,9.9666e-06,-0.00010668,0.012702,0.0083999,0.025345,8.3615e-07,0.85,0.1,0.15
0.044941,0.0061131,0.0056229,0.025283,4.0042e-06,-9.0381e-05,4.8999e-05,7.5855e-05,-6.2168e-06,0.050617,-0.015107,-0.015353,0.00025479,0.00039445,-3.2327e-05,0,0,0,0.025283,4.8738e-05,-0.00013523,0.012709,0.0083987,0.025327,8.3421e-07,0.9,0.1,0.15
0.047471,0.0061348,0.0056363,0.025272,1.6552e-05,-9.7709e-05,3.5697e-05,9.6418e-05,3.3789e-06,0.050592,-0.015071,-0.015368,0.00018562,0.00050138,1.757e-05,0,0,0,0.025272,7.4016e-05,-0.00015524,0.012714,0.0083969,0.025313,8.3283e-07,0.95,0.1,0.15
0.048736,0.0061424,0.005641,0.025268,2.0725e-05,-0.00010036,3.0138e-05,0.00010357,9.0279e-06,0.050584,-0.015059,-0.015374,0.00015672,0.00053856,4.6945e-05,0,0,0,0.025268,8.2668e-05,-0.00016235,0.012715,0.0083961,0.025309,8.3234e-07,1,0.1,0.15
0.0009851,0.00056797,0.00056193,0.026018,0.009202,0.0091829,0.0041766,4.9213e-05,0.0041314,0.041005,-0.0027163,-0.0027662,0.021718,0.00025591,0.021483,0,0,0,0.027916,0.0092121,0.0072743,0.010321,0.014801,0.019749,3.9028e-07,0,0.15,0.15
0.0020502,0.0011209,0.001111,0.025994,0.0073985,0.0073634,0.0038638,9.9411e-05,0.003824,0.043132,-0.0052177,-0.0053089,0.020092,0.00051693,0.019885,0,0,0,0.02755,0.0074282,0.005778,0.010886,0.013585,0.021004,4.7957e-07,0.05,0.15,0.15
0.0043132,0.0021667,0.0021536,0.026309,0.0044731,0.004412,0.0030802,0.00019631,0.0030553,0.047286,-0.0094863,-0.009645,0.016017,0.0010208,0.015887,0,0,0,0.027217,0.0045519,0.0034252,0.011896,0.011731,0.023256,6.5092e-07,0.1,0.15,0.15
0.0067789,0.0030547,0.0030472,0.026705,0.0027124,0.0026359,0.0021433,0.00027586,0.0021379,0.0502,-0.01218,-0.012378,0.011145,0.0014345,0.011117,0,0,0,0.02713,0.0028666,0.0020568,0.012536,0.010684,0.024681,7.723e-07,0.15,0.15,0.15
0.0093332,0.0037453,0.0037521,0.026608,0.0016872,0.0016038,0.001312,0.00032223,0.0013269,0.051241,-0.013552,-0.013769,0.0068224,0.0016756,0.0069001,0,0,0,0.026773,0.0019279,0.0011977,0.012788,0.0099662,0.025219,8.2192e-07,0.2,0.15,0.15
0.011903,0.004252,0.0042814,0.026252,0.001058,0.00097601,0.0006883,0.00033074,0.00072376,0.051284,-0.014221,-0.014434,0.0035792,0.0017199,0.0037636,0,0,0,0.026305,0.0013461,0.00063533,0.012835,0.0094287,0.025322,8.3172e-07,0.25,0.15,0.15
0.014462,0.0046072,0.0046666,0.025886,0.00065814,0.00058741,0.00025435,0.00030546,0.00030903,0.051024,-0.014568,-0.014751,0.0013226,0.0015884,0.001607,0,0,0,0.025898,0.00093698,0.00029623,0.012801,0.0090437,0.025288,8.2882e-07,0.3,0.15,0.15
0.017005,0.0048437,0.0049389,0.025608,0.00039405,0.00034636,-3.5069e-05,0.00025316,3.5316e-05,0.050771,-0.014784,-0.014908,-0.00018236,0.0013164,0.00018364,0,0,0,0.02561,0.00062926,0.00010853,0.012751,0.0087826,0.025245,8.2535e-07,0.35,0.15,0.15
0.019539,0.0049906,0.0051253,0.025433,0.00020894,0.00019663,-0.00021582,0.00018126,-0.000136,0.050623,-0.01496,-0.014992,-0.0011222,0.00094253,-0.00070719,0,0,0,0.025437,0.00038402,1.8052e-05,0.012709,0.008613,0.025238,8.2524e-07,0.4,0.15,0.15
0.022068,0.0050735,0.0052488,0.025347,7.0277e-05,0.00010307,-0.00031095,9.8525e-05,-0.00023085,0.05059,-0.015129,-0.015044,-0.0016169,0.00051233,-0.0012004,0,0,0,0.025353,0.00019071,-2.3553e-05,0.012688,0.0085068,0.02527,8.2884e-07,0.45,0.15,0.15
0.024598,0.0051151,0.005329,0.025323,-3.6987e-05,4.3776e-05,-0.00033581,1.6047e-05,-0.0002666,0.050642,-0.015294,-0.015084,-0.0017462,8.3446e-05,-0.0013863,0,0,0,0.02533,7.1044e-05,-7.1583e-05,0.012701,0.0084432,0.025331,8.349e-07,0.5,0.15,0.15
0.027132,0.005135,0.0053825,0.025335,-0.00011562,5.6374e-06,-0.00030424,-5.3431e-05,-0.00025704,0.050735,-0.015435,-0.01512,-0.0015821,-0.00027784,-0.0013366,0,0,0,0.025341,3.2241e-05,-0.00014858,0.012745,0.0084082,0.0254,8.4162e-07,0.55,0.15,0.15
0.029671,0.005149,0.0054222,0.025359,-0.00016232,-1.8835e-05,-0.00023292,-9.8131e-05,-0.00021594,0.050828,-0.015529,-0.015156,-0.0012112,-0.00051028,-0.0011229,0,0,0,0.025364,3.139e-05,-0.00021672,0.01279,0.0083928,0.025457,8.4719e-07,0.6,0.15,0.15
0.032215,0.0051676,0.0054575,0.025382,-0.00017464,-3.4248e-05,-0.00014211,-0.00011085,-0.00015806,0.050889,-0.015558,-0.015193,-0.00073895,-0.00057643,-0.00082193,0,0,0,0.025384,2.684e-05,-0.00023776,0.012811,0.0083909,0.02549,8.5042e-07,0.65,0.15,0.15
0.03476,0.005196,0.0054933,0.025393,-0.000156,-4.4259e-05,-5.2734e-05,-9.1594e-05,-9.7773e-05,0.050906,-0.015521,-0.015231,-0.00027422,-0.00047629,-0.00050842,0,0,0,0.025393,7.4454e-06,-0.00020841,0.012801,0.0083975,0.025495,8.5093e-07,0.7,0.15,0.15
0.037305,0.0052341,0.0055309,0.025391,-0.00011638,-5.2172e-05,1.8196e-05,-4.7575e-05,-4.6477e-05,0.050884,-0.015436,-0.015269,9.4621e-05,-0.00024739,-0.00024168,0,0,0,0.025392,-2.0433e-05,-0.00014836,0.01277,0.0084076,0.025476,8.492e-07,0.75,0.15,0.15
0.039848,0.0052777,0.0055685,0.025381,-6.8955e-05,-6.0362e-05,6.118e-05,9.4274e-06,-1.0619e-05,0.050839,-0.01533,-0.015308,0.00031813,4.9023e-05,-5.5218e-05,0,0,0,0.025381,-2.1211e-05,-0.00010833,0.012745,0.0084172,0.025446,8.4622e-07,0.8,0.15,0.15
0.042389,0.0053207,0.005603,0.025367,-2.5304e-05,-6.9503e-05,7.4847e-05,6.6855e-05,8.5638e-06,0.050791,-0.015229,-0.015344,0.0003892,0.00034764,4.4532e-05,0,0,0,0.025367,2.7463e-05,-0.00012253,0.012745,0.008424,0.025415,8.4304e-07,0.85,0.15,0.15
0.044927,0.0053566,0.0056307,0.025354,7.5767e-06,-7.848e-05,6.3911e-05,0.0001144,1.3676e-05,0.050751,-0.01515,-0.015374,0.00033234,0.00059488,7.1117e-05,0,0,0,0.025354,8.9075e-05,-0.00016018,0.012757,0.0084277,0.025391,8.4044e-07,0.9,0.15,0.15
0.047464,0.0053804,0.0056486,0.025345,2.7229e-05,-8.5177e-05,4.4399e-05,0.00014526,1.5312e-05,0.050725,-0.015102,-0.015394,0.00023087,0.00075536,7.9622e-05,0,0,0,0.025345,0.00012898,-0.00018703,0.012766,0.0084291,0.025376,8.3881e-07,0.95,0.15,0.15
0.048732,0.0053888,0.0056548,0.025342,3.3676e-05,-8.7664e-05,3.5631e-05,0.0001559,1.7405e-05,0.050717,-0.015085,-0.015401,0.00018528,0.00081069,9.0507e-05,0,0,0,0.025342,0.00014249,-0.00019655,0.012769,0.0084295,0.025371,8.3827e-07,1,0.15,0.15
0.00096318,0.00045505,0.00057062,0.025537,0.009366,0.0090753,0.0033988,5.3801e-05,0.0042011,0.04001,-0.0020358,-0.0027913,0.017674,0.00027977,0.021846,0,0,0,0.027206,0.0092601,0.0075127,0.0098466,0.01466,0.018884,3.4145e-07,0,0.2,0.15
0.0020005,0.00089951,0.0011281,0.025581,0.0078756,0.0073518,0.003223,0.00010562,0.0038945,0.042026,-0.0040086,-0.0053704,0.01676,0.00054921,0.020252,0,0,0,0.026973,0.0077076,0.0061278,0.010423,0.013603,0.020109,4.2016e-07,0.05,0.2,0.15
0.0042026,0.0017495,0.0021866,0.026003,0.0053333,0.0045077,0.0027455,0.00020296,0.0031221,0.046101,-0.0076398,-0.0097862,0.014277,0.0010554,0.016235,0,0,0,0.026858,0.0051259,0.0038595,0.011499,0.011948,0.022401,5.8026e-07,0.1,0.2,0.15
0.0066106,0.0024948,0.0030928,0.026524,0.0035543,0.0027277,0.002092,0.00028192,0.0021901,0.049278,-0.010442,-0.012591,0.010879,0.001466,0.011388,0,0,0,0.026954,0.0034479,0.002404,0.012275,0.010935,0.024051,7.1298e-07,0.15,0.2,0.15
0.0091304,0.0030997,0.0038049,0.026611,0.0023412,0.0016768,0.0014196,0.00033177,0.0013573,0.050811,-0.01229,-0.014018,0.0073817,0.0017252,0.0070581,0,0,0,0.026792,0.0023866,0.0014501,0.012671,0.01021,0.024889,7.8867e-07,0.2,0.2,0.15
0.011692,0.0035593,0.0043351,0.02642,0.0015308,0.0010444,0.00084177,0.00034628,0.00073181,0.051294,-0.013417,-0.014681,0.0043772,0.0018007,0.0038054,0,0,0,0.026482,0.0016873,0.00082517,0.012829,0.0096649,0.025238,8.2239e-07,0.25,0.2,0.15
0.01426,0.0038881,0.0047152,0.026145,0.00098724,0.00065281,0.00039289,0.00032498,0.00029756,0.051306,-0.014104,-0.014974,0.0020431,0.0016899,0.0015473,0,0,0,0.026161,0.0011878,0.00043609,0.012862,0.0092616,0.025358,8.3496e-07,0.3,0.2,0.15
0.016822,0.0041081,0.0049773,0.025897,0.00061384,0.00040629,6.5963e-05,0.00027049,7.7769e-06,0.051181,-0.014554,-0.015094,0.00034301,0.0014065,4.0439e-05,0,0,0,0.0259,0.00080582,0.00021108,0.012844,0.0089722,0.025397,8.398e-07,0.35,0.2,0.15
0.019378,0.0042425,0.0051498,0.025714,0.00034412,0.00024807,-0.0001556,0.00018793,-0.00017558,0.051072,-0.014889,-0.015139,-0.0008091,0.00097725,-0.00091303,0,0,0,0.025717,0.00049255,9.6216e-05,0.012811,0.0087687,0.025426,8.4354e-07,0.4,0.2,0.15
0.02193,0.0043145,0.0052572,0.0256,0.00013672,0.00014312,-0.00028522,8.6394e-05,-0.00027668,0.051033,-0.015173,-0.015156,-0.0014831,0.00044925,-0.0014387,0,0,0,0.025607,0.00024684,2.6408e-05,0.01279,0.0086268,0.025471,8.4865e-07,0.45,0.2,0.15
0.024481,0.0043461,0.0053215,0.025543,-2.7816e-05,7.0505e-05,-0.00033302,-1.9545e-05,-0.00031051,0.05106,-0.015424,-0.015168,-0.0017317,-0.00010163,-0.0016146,0,0,0,0.025551,0.00011035,-7.5868e-05,0.012813,0.0085285,0.025534,8.5505e-07,0.5,0.2,0.15
0.027036,0.0043578,0.0053616,0.025521,-0.00015147,1.9351e-05,-0.00031078,-0.00011078,-0.00028966,0.051122,-0.015627,-0.015183,-0.0016161,-0.00057605,-0.0015062,0,0,0,0.025528,7.7532e-05,-0.00021682,0.012873,0.008463,0.0256,8.6131e-07,0.55,0.2,0.15
0.029593,0.0043665,0.005393,0.025515,-0.00022695,-1.4869e-05,-0.0002368,-0.00016831,-0.00022953,0.051176,-0.015754,-0.015203,-0.0012313,-0.00087522,-0.0011935,0,0,0,0.02552,7.8701e-05,-0.00032505,0.012923,0.0084246,0.025646,8.6563e-07,0.6,0.2,0.15
0.032153,0.0043839,0.0054263,0.02551,-0.0002489,-3.4596e-05,-0.00013639,-0.00017998,-0.00014952,0.051191,-0.015783,-0.015226,-0.00070922,-0.00093587,-0.00077751,0,0,0,0.025512,6.8016e-05,-0.00035348,0.012933,0.008409,0.025658,8.6677e-07,0.65,0.2,0.15
0.034712,0.0044149,0.0054666,0.025498,-0.0002224,-4.3493e-05,-3.6946e-05,-0.00014543,-6.9978e-05,0.051156,-0.015718,-0.015253,-0.00019212,-0.00075622,-0.00036388,0,0,0,0.025499,3.8069e-05,-0.00030453,0.012902,0.0084108,0.025634,8.6461e-07,0.7,0.2,0.15
0.037269,0.0044584,0.0055136,0.025479,-0.00016401,-4.7022e-05,3.9642e-05,-7.6211e-05,-6.9878e-06,0.051085,-0.015587,-0.015283,0.00020614,-0.0003963,-3.6337e-05,0,0,0,0.02548,-3.7565e-06,-0.00020753,0.012844,0.0084228,0.025586,8.6008e-07,0.75,0.2,0.15
0.039821,0.0045085,0.0055632,0.025458,-9.5158e-05,-5.0439e-05,8.24e-05,9.1918e-06,3.1357e-05,0.051003,-0.015435,-0.015319,0.00042848,4.7797e-05,0.00016305,0,0,0,0.025458,-9.5674e-06,-0.00013643,0.012797,0.0084374,0.025532,8.5474e-07,0.8,0.2,0.15
0.042369,0.0045575,0.0056097,0.025439,-3.3675e-05,-5.6376e-05,9.1553e-05,9.2147e-05,4.517e-05,0.050932,-0.015297,-0.015356,0.00047608,0.00047917,0.00023488,0,0,0,0.02544,5.4734e-05,-0.00014525,0.012792,0.0084497,0.025486,8.4998e-07,0.85,0.2,0.15
0.044914,0.0045981,0.0056474,0.025426,1.0952e-05,-6.4087e-05,7.4541e-05,0.00015872,3.9903e-05,0.050884,-0.015195,-0.01539,0.00038761,0.00082534,0.0002075,0,0,0,0.025426,0.00013921,-0.00019267,0.012809,0.0084576,0.025455,8.4658e-07,0.9,0.2,0.15
0.047457,0.0046247,0.0056717,0.025419,3.6688e-05,-7.0686e-05,5.0202e-05,0.00020091,3.1003e-05,0.050858,-0.015135,-0.015415,0.00026105,0.0010447,0.00016122,0,0,0,0.025419,0.00019359,-0.00022775,0.012823,0.0084616,0.025439,8.4469e-07,0.95,0.2,0.15
0.048729,0.0046339,0.0056802,0.025417,4.4941e-05,-7.3277e-05,3.9698e-05,0.00021527,2.8613e-05,0.05085,-0.015116,-0.015423,0.00020643,0.0011194,0.00014879,0,0,0,0.025417,0.00021173,-0.00024017,0.012828,0.0084627,0.025434,8.4411e-07,1,0.2,0.15
0.00095343,0.00036439,0.00058056,0.025313,0.0094573,0.0090266,0.002743,5.4397e-05,0.0042793,0.039535,-0.0016888,-0.0028088,0.014264,0.00028287,0.022253,0,0,0,0.026819,0.0093466,0.0076311,0.0095938,0.014599,0.018394,3.1487e-07,0,0.25,0.15
0.0019767,0.00071999,0.0011475,0.025375,0.0081425,0.0073478,0.0026319,0.00010554,0.0039727,0.041456,-0.0033487,-0.0054149,0.013686,0.00054882,0.020658,0,0,0,0.026636,0.0079693,0.0062598,0.010188,0.013622,0.019584,3.855e-07,0.05,0.25,0.15
0.0041456,0.0014027,0.0022234,0.025827,0.0058668,0.0045621,0.0023201,0.00020051,0.0031963,0.045398,-0.0065002,-0.0098924,0.012065,0.0010426,0.016621,0,0,0,0.026613,0.0056496,0.0039936,0.01131,0.012085,0.021847,5.3333e-07,0.1,0.25,0.15
0.0065165,0.0020104,0.0031435,0.026396,0.0041737,0.0027926,0.0018681,0.00027759,0.0022524,0.048612,-0.0091658,-0.012757,0.009714,0.0014435,0.011712,0,0,0,0.026803,0.004035,0.0025247,0.012139,0.011121,0.023566,6.6575e-07,0.15,0.25,0.15
0.0090068,0.0025162,0.0038642,0.026569,0.0029016,0.0017328,0.0013631,0.00032951,0.0014015,0.050357,-0.011178,-0.014217,0.0070884,0.0017135,0.0072877,0,0,0,0.026749,0.0028836,0.0015707,0.012589,0.010401,0.024551,7.5332e-07,0.2,0.25,0.15
0.011552,0.0029103,0.0043965,0.026473,0.0019775,0.001093,0.00088505,0.00034953,0.00075491,0.051103,-0.012584,-0.014884,0.0046023,0.0018175,0.0039255,0,0,0,0.02654,0.0020604,0.00094312,0.012798,0.0098477,0.025058,8.0268e-07,0.25,0.25,0.15
0.014117,0.0031968,0.004772,0.026272,0.0013219,0.00069936,0.00047745,0.00033329,0.00029902,0.05133,-0.013539,-0.015157,0.0024827,0.0017331,0.0015549,0,0,0,0.026291,0.0014605,0.00054153,0.012875,0.0094309,0.025303,8.2828e-07,0.3,0.25,0.15
0.016685,0.0033883,0.0050232,0.026062,0.00085323,0.00045141,0.00015428,0.0002784,-1.1798e-05,0.051342,-0.014202,-0.015247,0.00080228,0.0014477,-6.1352e-05,0,0,0,0.026067,0.00099896,0.00030141,0.012883,0.0091224,0.025424,8.4186e-07,0.35,0.25,0.15
0.019251,0.0035017,0.0051792,0.02589,0.00050426,0.00028863,-8.333e-05,0.00018574,-0.00021382,0.051305,-0.014699,-0.015259,-0.00043332,0.00096585,-0.0011119,0,0,0,0.025894,0.00061417,0.00017514,0.012859,0.0088944,0.025503,8.5097e-07,0.4,0.25,0.15
0.021816,0.0035562,0.0052667,0.02577,0.00022837,0.00017377,-0.00023585,6.2919e-05,-0.00032758,0.051299,-0.015109,-0.015251,-0.0012264,0.00032718,-0.0017034,0,0,0,0.025777,0.00031593,7.9314e-05,0.012849,0.008724,0.02558,8.5948e-07,0.45,0.25,0.15
0.024381,0.0035727,0.0053102,0.025697,3.0671e-06,8.6224e-05,-0.00030349,-7.2202e-05,-0.00036336,0.051341,-0.015464,-0.015248,-0.0015781,-0.00037545,-0.0018895,0,0,0,0.025706,0.00016646,-8.6028e-05,0.012896,0.0085955,0.025667,8.6822e-07,0.5,0.25,0.15
0.02695,0.0035723,0.0053325,0.025658,-0.00017119,1.8815e-05,-0.00029167,-0.00019199,-0.00033072,0.051408,-0.015749,-0.015255,-0.0015167,-0.00099834,-0.0017198,0,0,0,0.025666,0.00014062,-0.00030071,0.012983,0.0085019,0.025749,8.7589e-07,0.55,0.25,0.15
0.029522,0.0035735,0.0053529,0.025634,-0.00028066,-2.723e-05,-0.00021769,-0.00026648,-0.00024672,0.051454,-0.015926,-0.015267,-0.001132,-0.0013857,-0.0012829,0,0,0,0.025639,0.00014269,-0.00045519,0.013047,0.0084422,0.025801,8.8047e-07,0.6,0.25,0.15
0.032095,0.0035893,0.0053842,0.025612,-0.00031511,-4.9944e-05,-0.00011129,-0.00027559,-0.00013767,0.051443,-0.015967,-0.015278,-0.00057868,-0.0014331,-0.0007159,0,0,0,0.025614,0.00012455,-0.00049135,0.013053,0.0084157,0.025803,8.8059e-07,0.65,0.25,0.15
0.034666,0.0036243,0.0054315,0.025585,-0.00028134,-5.2853e-05,-6.7748e-06,-0.00021859,-3.318e-05,0.05137,-0.015882,-0.015288,-3.5229e-05,-0.0011366,-0.00017253,0,0,0,0.025585,8.0615e-05,-0.00041529,0.013,0.0084168,0.025757,8.7639e-07,0.7,0.25,0.15
0.037232,0.0036754,0.0054923,0.025555,-0.00020434,-4.5548e-05,6.9032e-05,-0.00011416,4.3689e-05,0.051259,-0.015714,-0.015301,0.00035897,-0.00059365,0.00022718,0,0,0,0.025555,2.1942e-05,-0.00027232,0.012914,0.0084349,0.025682,8.6951e-07,0.75,0.25,0.15
0.039792,0.0037342,0.005559,0.025528,-0.00011591,-3.877e-05,0.00010492,8.7526e-06,8.3123e-05,0.051149,-0.015525,-0.015325,0.00054559,4.5514e-05,0.00043224,0,0,0,0.025529,1.1653e-05,-0.00016714,0.012848,0.0084578,0.025607,8.6227e-07,0.8,0.25,0.15
0.042347,0.003791,0.0056222,0.025511,-4.0602e-05,-3.8588e-05,0.00010469,0.00012314,8.8274e-05,0.051069,-0.015364,-0.015359,0.00054437,0.00064035,0.00045903,0,0,0,0.025512,9.318e-05,-0.00017317,0.012842,0.0084772,0.025553,8.5654e-07,0.85,0.25,0.15
0.044899,0.0038371,0.0056732,0.025503,1.087e-05,-4.4392e-05,7.9935e-05,0.00021136,6.941e-05,0.051026,-0.015253,-0.015397,0.00041566,0.0010991,0.00036093,0,0,0,0.025503,0.00019974,-0.00023377,0.012869,0.0084898,0.025523,8.5307e-07,0.9,0.25,0.15
0.04745,0.0038669,0.0057061,0.025501,3.8759e-05,-5.131e-05,5.2449e-05,0.0002655,4.8509e-05,0.05101,-0.015192,-0.015426,0.00027273,0.0013806,0.00025225,0,0,0,0.025501,0.00026641,-0.00027919,0.01289,0.0084962,0.025512,8.5149e-07,0.95,0.25,0.15
0.048725,0.0038771,0.0057175,0.025501,4.7326e-05,-5.4301e-05,4.1814e-05,0.00028358,4.1552e-05,0.051006,-0.015173,-0.015438,0.00021743,0.0014746,0.00021607,0,0,0,0.025501,0.00028809,-0.00029521,0.012898,0.008498,0.02551,8.5108e-07,1,0.25,0.15
0.00094956,0.00028617,0.00059083,0.025227,0.0095255,0.0090152,0.0021636,5.3309e-05,0.0043597,0.039329,-0.0014941,-0.0028209,0.01125,0.00027721,0.02267,0,0,0,0.026621,0.0094403,0.007706,0.0094575,0.014589,0.018114,2.999e-07,0,0.3,0.15
0.0019664,0.00056464,0.0011674,0.025294,0.0083121,0.0073583,0.0020903,0.0001028,0.004053,0.041186,-0.0029673,-0.0054471,0.010869,0.00053454,0.021075,0,0,0,0.026459,0.0081822,0.006323,0.010068,0.013655,0.01928,3.652e-07,0.05,0.3,0.15
0.0041186,0.0010994,0.0022611,0.025752,0.0062044,0.0046012,0.0018816,0.00019427,0.0032737,0.04502,-0.005803,-0.0099712,0.0097843,0.0010102,0.017023,0,0,0,0.026475,0.0060451,0.0040369,0.011219,0.012186,0.021512,5.0393e-07,0.1,0.3,0.15
0.0064685,0.0015782,0.0031954,0.026334,0.0045964,0.0028385,0.0015715,0.00026932,0.002322,0.048207,-0.0083109,-0.012881,0.0081718,0.0014004,0.012074,0,0,0,0.02671,0.0044925,0.0025665,0.012072,0.011256,0.023246,6.333e-07,0.15,0.3,0.15
0.0089394,0.0019819,0.0039253,0.026545,0.0033238,0.0017772,0.0012093,0.00032329,0.0014586,0.050029,-0.010346,-0.014367,0.0062882,0.0016811,0.0075849,0,0,0,0.026715,0.0033027,0.0016285,0.012543,0.010549,0.024296,7.2553e-07,0.2,0.3,0.15
0.011471,0.0023009,0.0044608,0.026498,0.0023457,0.0011353,0.00084277,0.00034932,0.00079564,0.050907,-0.011889,-0.015035,0.0043824,0.0018165,0.0041374,0,0,0,0.026564,0.0024008,0.0010141,0.012775,0.0099929,0.024887,7.8346e-07,0.25,0.3,0.15
0.01403,0.0025342,0.0048324,0.02634,0.0016186,0.00074244,0.0005056,0.00033975,0.00031977,0.051263,-0.013012,-0.01529,0.0026291,0.0017667,0.0016628,0,0,0,0.02636,0.0017241,0.0006162,0.012872,0.0095669,0.025209,8.1741e-07,0.3,0.3,0.15
0.016598,0.0026879,0.0050722,0.026156,0.0010811,0.00049581,0.00021599,0.00028655,-1.4286e-05,0.051366,-0.013829,-0.015351,0.0011231,0.0014901,-7.4289e-05,0,0,0,0.026161,0.0011978,0.00037384,0.012894,0.0092443,0.025386,8.372e-07,0.35,0.3,0.15
0.019167,0.0027726,0.0052099,0.025991,0.00067043,0.0003294,-1.5405e-05,0.00018443,-0.0002407,0.051382,-0.014451,-0.015338,-8.0105e-05,0.00095904,-0.0012516,0,0,0,0.025995,0.00075321,0.00024261,0.012876,0.0089969,0.025502,8.5049e-07,0.4,0.3,0.15
0.021736,0.0028035,0.0052736,0.025865,0.00033749,0.00020125,-0.00017781,3.7216e-05,-0.00037462,0.051406,-0.014965,-0.015319,-0.0009246,0.00019352,-0.001948,0,0,0,0.025872,0.00040979,0.0001216,0.012875,0.0088012,0.025608,8.6211e-07,0.45,0.3,0.15
0.024307,0.0027997,0.0052912,0.025781,5.7766e-05,9.0473e-05,-0.00025989,-0.00013483,-0.00041856,0.051472,-0.015407,-0.015322,-0.0013514,-0.0007011,-0.0021765,0,0,0,0.02579,0.00024645,-0.0001078,0.012949,0.0086429,0.025723,8.7352e-07,0.5,0.3,0.15
0.026883,0.0027829,0.0052908,0.025729,-0.00016502,-3.4887e-06,-0.00025764,-0.00029316,-0.00037602,0.051559,-0.015765,-0.015345,-0.0013397,-0.0015244,-0.0019553,0,0,0,0.025737,0.00022319,-0.00039997,0.013069,0.0085201,0.025832,8.8334e-07,0.55,0.3,0.15
0.029463,0.0027739,0.0052971,0.025694,-0.00030901,-6.8196e-05,-0.00018485,-0.00039153,-0.00026493,0.051615,-0.015994,-0.015367,-0.00096121,-0.0020359,-0.0013776,0,0,0,0.025699,0.00022411,-0.00060593,0.013152,0.008439,0.025901,8.8907e-07,0.6,0.3,0.15
0.032045,0.0027871,0.0053268,0.025663,-0.00035764,-9.307e-05,-7.5077e-05,-0.0003974,-0.00012113,0.051596,-0.016057,-0.015369,-0.0003904,-0.0020665,-0.00062987,0,0,0,0.025664,0.00019634,-0.00064857,0.013157,0.0084041,0.025902,8.8909e-07,0.65,0.3,0.15
0.034623,0.0028268,0.0053849,0.025631,-0.00031927,-8.1401e-05,3.0038e-05,-0.0003096,1.242e-05,0.051502,-0.015968,-0.01535,0.0001562,-0.0016099,6.4584e-05,0,0,0,0.025631,0.00013373,-0.00053498,0.013083,0.00841,0.025839,8.8382e-07,0.7,0.3,0.15
0.037195,0.002887,0.0054655,0.025602,-0.00022828,-5.0952e-05,9.8986e-05,-0.00015855,0.00010303,0.051371,-0.015787,-0.015326,0.00051473,-0.00082446,0.00053574,0,0,0,0.025603,5.481e-05,-0.00033508,0.012969,0.0084409,0.025746,8.7564e-07,0.75,0.3,0.15
0.03976,0.002956,0.0055556,0.025584,-0.00012762,-2.3348e-05,0.00012204,1.1026e-05,0.0001398,0.051259,-0.015592,-0.015321,0.00063463,5.7337e-05,0.00072694,0,0,0,0.025586,4.2233e-05,-0.00019464,0.01289,0.0084778,0.025663,8.6776e-07,0.8,0.3,0.15
0.042321,0.003021,0.0056406,0.025582,-4.7692e-05,-1.1146e-05,0.0001088,0.00016127,0.00013177,0.051199,-0.015438,-0.015343,0.00056576,0.00083861,0.00068519,0,0,0,0.025583,0.00014399,-0.00020406,0.012894,0.0085076,0.025615,8.6256e-07,0.85,0.3,0.15
0.04488,0.0030727,0.0057087,0.025591,1.6287e-06,-1.3503e-05,7.6307e-05,0.00027161,9.6654e-05,0.051188,-0.015343,-0.015382,0.0003968,0.0014124,0.0005026,0,0,0,0.025591,0.00026998,-0.00028254,0.012937,0.0085263,0.025603,8.6048e-07,0.9,0.3,0.15
0.047439,0.0031054,0.0057522,0.025602,2.5172e-05,-2.1287e-05,4.8962e-05,0.00033656,6.4482e-05,0.051202,-0.015298,-0.015419,0.0002546,0.0017501,0.00033531,0,0,0,0.025602,0.00034372,-0.00034013,0.012971,0.0085353,0.025608,8.6033e-07,0.95,0.3,0.15
0.04872,0.0031166,0.0057671,0.025607,3.1703e-05,-2.5135e-05,4.0501e-05,0.00035773,5.4296e-05,0.05121,-0.015286,-0.015434,0.0002106,0.0018602,0.00028234,0,0,0,0.025607,0.00036668,-0.0003603,0.012984,0.0085379,0.025612,8.6052e-07,1,0.3,0.15
0.00094919,0.00021498,0.00060086,0.025225,0.0095819,0.0090274,0.0016306,5.0868e-05,0.0044383,0.039285,-0.0013878,-0.0028295,0.0084793,0.00026451,0.023079,0,0,0,0.026546,0.0095264,0.0077626,0.0093915,0.014611,0.017971,2.9208e-07,0,0.35,0.15
0.0019642,0.00042326,0.0011868,0.025294,0.0084249,0.0073804,0.0015829,9.769e-05,0.004132,0.041105,-0.0027547,-0.0054705,0.0082313,0.00050799,0.021486,0,0,0,0.026393,0.0083416,0.0063642,0.010015,0.0137,0.019124,3.5422e-07,0.05,0.35,0.15
0.0041105,0.00082238,0.0022977,0.02575,0.0064158,0.0046352,0.0014466,0.0001842,0.0033522,0.04487,-0.0053996,-0.010029,0.0075223,0.00095785,0.017431,0,0,0,0.026427,0.0063155,0.004059,0.011184,0.012267,0.021336,4.8736e-07,0.1,0.35,0.15
0.0064512,0.0011793,0.0032458,0.026336,0.004869,0.0028755,0.0012429,0.00025658,0.0023976,0.048025,-0.0077888,-0.012972,0.0064632,0.0013342,0.012467,0,0,0,0.026684,0.0048052,0.0025907,0.012047,0.01136,0.023071,6.1426e-07,0.15,0.35,0.15
0.0089129,0.0014817,0.0039853,0.026563,0.0036116,0.0018162,0.00099956,0.00031254,0.0015288,0.049869,-0.009804,-0.014472,0.0051977,0.0016252,0.00795,0,0,0,0.02672,0.0036031,0.001667,0.012527,0.010663,0.024147,7.083e-07,0.2,0.35,0.15
0.011438,0.0017214,0.0045247,0.026538,0.0026126,0.0011783,0.00074107,0.00034553,0.00085665,0.050801,-0.011404,-0.015134,0.0038536,0.0017968,0.0044546,0,0,0,0.026601,0.0026607,0.001067,0.012767,0.010109,0.024777,7.7042e-07,0.25,0.35,0.15
0.013993,0.0018956,0.0048934,0.026397,0.0018476,0.00079217,0.00048679,0.0003451,0.00036597,0.051211,-0.012618,-0.015363,0.0025313,0.0017945,0.001903,0,0,0,0.026418,0.0019398,0.00067882,0.01287,0.009679,0.025134,8.0849e-07,0.3,0.35,0.15
0.016559,0.0020054,0.0051222,0.02622,0.0012699,0.00055141,0.00024991,0.00029729,9.9848e-06,0.051346,-0.013523,-0.015391,0.0012995,0.0015459,5.192e-05,0,0,0,0.026226,0.0013751,0.00044,0.012893,0.009347,0.025332,8.3094e-07,0.35,0.35,0.15
0.019128,0.0020565,0.0052402,0.026046,0.00082157,0.00038186,4.2952e-05,0.00018889,-0.00024417,0.05137,-0.014214,-0.015357,0.00022335,0.00098224,-0.0012697,0,0,0,0.026051,0.00089467,0.00030434,0.012873,0.0090832,0.025457,8.456e-07,0.4,0.35,0.15
0.021696,0.0020597,0.0052763,0.0259,0.00045183,0.00023295,-0.0001164,1.7246e-05,-0.00040546,0.05139,-0.014776,-0.015345,-0.00060527,8.9678e-05,-0.0021084,0,0,0,0.025908,0.00052081,0.00015619,0.012876,0.0088617,0.025572,8.5823e-07,0.45,0.35,0.15
0.024267,0.002032,0.0052625,0.025792,0.00013405,8.2051e-05,-0.00020619,-0.00019714,-0.00046552,0.051455,-0.015256,-0.015392,-0.0010722,-0.0010251,-0.0024207,0,0,0,0.025803,0.00034288,-0.00013705,0.01297,0.0086694,0.025704,8.7095e-07,0.5,0.35,0.15
0.026842,0.0019958,0.0052335,0.02572,-0.00012434,-5.9117e-05,-0.00021224,-0.00040314,-0.00041812,0.05155,-0.015645,-0.015476,-0.0011036,-0.0020963,-0.0021742,0,0,0,0.025729,0.00031782,-0.00051008,0.013119,0.0085122,0.025837,8.8224e-07,0.55,0.35,0.15
0.029422,0.0019742,0.0052221,0.025673,-0.00029463,-0.00015619,-0.0001439,-0.00053241,-0.00028094,0.051617,-0.015899,-0.015539,-0.00074829,-0.0027685,-0.0014609,0,0,0,0.025678,0.00031697,-0.00077242,0.013225,0.0084074,0.025924,8.8908e-07,0.6,0.35,0.15
0.032003,0.0019836,0.0052506,0.02564,-0.00035753,-0.00018277,-3.6879e-05,-0.00053498,-0.0001013,0.051603,-0.015989,-0.015535,-0.00019177,-0.0027819,-0.00052677,0,0,0,0.025641,0.00027733,-0.00081905,0.01323,0.0083664,0.025931,8.897e-07,0.65,0.35,0.15
0.034582,0.0020275,0.0053245,0.025616,-0.0003227,-0.00014184,6.2086e-05,-0.00040931,6.1063e-05,0.051511,-0.01593,-0.01546,0.00032285,-0.0021284,0.00031753,0,0,0,0.025617,0.00019136,-0.0006568,0.013137,0.0083839,0.025862,8.8471e-07,0.7,0.35,0.15
0.037154,0.0020967,0.0054323,0.025609,-0.00022962,-6.6386e-05,0.0001184,-0.00020259,0.00016186,0.051396,-0.015785,-0.015361,0.00061567,-0.0010535,0.00084166,0,0,0,0.025611,9.2375e-05,-0.00039015,0.013001,0.0084377,0.025764,8.77e-07,0.75,0.35,0.15
0.039722,0.002175,0.005553,0.025623,-0.00013013,4.5302e-07,0.00012471,1.8814e-05,0.00019019,0.051324,-0.015634,-0.015295,0.00064851,9.783e-05,0.00098901,0,0,0,0.025625,8.4386e-05,-0.00021617,0.012921,0.0084978,0.025693,8.7059e-07,0.8,0.35,0.15
0.042287,0.0022472,0.0056654,0.025656,-5.9386e-05,3.4035e-05,9.7528e-05,0.00020451,0.00016449,0.051328,-0.015533,-0.01529,0.00050714,0.0010634,0.00085537,0,0,0,0.025658,0.00020839,-0.0002353,0.012947,0.0085436,0.025675,8.6819e-07,0.85,0.35,0.15
0.044854,0.0023028,0.0057538,0.025698,-2.4236e-05,3.6934e-05,5.9933e-05,0.00033326,0.00011276,0.051388,-0.015489,-0.01533,0.00031165,0.0017329,0.00058637,0,0,0,0.025699,0.00034636,-0.00033445,0.013017,0.0085702,0.0257,8.6966e-07,0.9,0.35,0.15
0.047426,0.0023371,0.0058095,0.025732,-1.3055e-05,2.6875e-05,3.7748e-05,0.00040515,7.3808e-05,0.051457,-0.015482,-0.015378,0.00019629,0.0021068,0.0003838,0,0,0,0.025733,0.00041829,-0.00040479,0.013069,0.0085821,0.025736,8.7249e-07,0.95,0.35,0.15
0.048712,0.0023486,0.0058284,0.025746,-1.1343e-05,2.1246e-05,3.4312e-05,0.0004278,6.386e-05,0.051486,-0.015483,-0.015398,0.00017842,0.0022245,0.00033207,0,0,0,0.025746,0.00043894,-0.00042926,0.013088,0.0085852,0.025752,8.7384e-07,1,0.35,0.15
0.00095097,0.00014739,0.00061015,0.025277,0.0096294,0.0090542,0.0011215,4.6409e-05,0.0045115,0.039344,-0.00134,-0.0028354,0.005832,0.00024133,0.02346,0,0,0,0.026552,0.0095991,0.0078091,0.0093716,0.014654,0.017921,2.891e-07,0,0.4,0.15
0.0019672,0.00028917,0.0012046,0.025346,0.0084989,0.00741,0.0010934,8.885e-05,0.0042064,0.041148,-0.002656,-0.0054872,0.0056855,0.00046202,0.021873,0,0,0,0.026405,0.0084542,0.0063962,0.010004,0.013752,0.01907,3.4979e-07,0.05,0.4,0.15
0.0041148,0.00055947,0.0023314,0.025803,0.0065386,0.0046674,0.001013,0.00016744,0.0034288,0.044883,-0.0052051,-0.01007,0.0052675,0.00087068,0.01783,0,0,0,0.026449,0.0064864,0.0040742,0.011187,0.012336,0.021278,4.8051e-07,0.1,0.4,0.15
0.0064555,0.0007993,0.0032924,0.026392,0.0050262,0.0029089,0.00089438,0.00023492,0.0024768,0.048023,-0.007528,-0.013033,0.0046508,0.0012216,0.012879,0,0,0,0.026721,0.0049964,0.0026096,0.012056,0.011442,0.023016,6.0664e-07,0.15,0.4,0.15
0.008917,0.0010015,0.0040414,0.026627,0.0037812,0.0018545,0.00075203,0.00029132,0.0016107,0.049873,-0.0095269,-0.014536,0.0039106,0.0015148,0.0083755,0,0,0,0.026776,0.0037868,0.0017005,0.012538,0.010754,0.024103,7.0192e-07,0.2,0.4,0.15
0.011443,0.0011604,0.0045855,0.026611,0.0027748,0.0012269,0.00059437,0.00033097,0.0009386,0.050822,-0.011153,-0.015178,0.0030907,0.0017211,0.0048807,0,0,0,0.026672,0.0028225,0.0011188,0.012777,0.010204,0.024747,7.6607e-07,0.25,0.4,0.15
0.013999,0.0012724,0.0049526,0.026474,0.0019931,0.00085546,0.00042745,0.00034171,0.00044183,0.051238,-0.012411,-0.015369,0.0022227,0.0017769,0.0022975,0,0,0,0.026495,0.0020807,0.00074643,0.012874,0.0097741,0.025109,8.0528e-07,0.3,0.4,0.15
0.016567,0.0013356,0.0051715,0.026285,0.0013992,0.00062771,0.00025574,0.00030405,6.9738e-05,0.051354,-0.013349,-0.015355,0.0013298,0.001581,0.00036264,0,0,0,0.026292,0.0015037,0.00051638,0.012888,0.0094374,0.025298,8.271e-07,0.35,0.4,0.15
0.019135,0.0013513,0.0052693,0.026085,0.0009384,0.00045641,8.8519e-05,0.00019576,-0.00021097,0.051332,-0.014048,-0.015301,0.0004603,0.001018,-0.001097,0,0,0,0.026089,0.0010136,0.00037661,0.012856,0.0091598,0.025401,8.3975e-07,0.4,0.4,0.15
0.0217,0.0013259,0.005275,0.025897,0.00055692,0.00027692,-5.3706e-05,5.8769e-06,-0.00040274,0.051294,-0.014591,-0.015319,-0.00027927,3.056e-05,-0.0020942,0,0,0,0.025905,0.00062734,0.00019879,0.012853,0.0089103,0.025495,8.5024e-07,0.45,0.4,0.15
0.024264,0.0012741,0.0052241,0.02574,0.00022627,6.1843e-05,-0.00014204,-0.00024683,-0.00048604,0.051307,-0.015029,-0.015456,-0.00073861,-0.0012835,-0.0025274,0,0,0,0.02575,0.00043885,-0.00016111,0.012956,0.008676,0.025618,8.6154e-07,0.5,0.4,0.15
0.026831,0.0012184,0.00516,0.025622,-4.2588e-05,-0.00015941,-0.00015496,-0.00049956,-0.00044326,0.051365,-0.015363,-0.015666,-0.00080581,-0.0025977,-0.002305,0,0,0,0.025631,0.00040914,-0.00062007,0.013125,0.0084733,0.025754,8.7195e-07,0.55,0.4,0.15
0.029401,0.001184,0.0051268,0.025547,-0.00022068,-0.00031286,-9.7675e-05,-0.00066012,-0.00028952,0.051415,-0.015582,-0.015822,-0.00050791,-0.0034326,-0.0015055,0,0,0,0.025552,0.0004042,-0.00094229,0.013247,0.008338,0.025849,8.7847e-07,0.6,0.4,0.15
0.031972,0.0011882,0.0051551,0.025516,-0.00029622,-0.00034072,-4.5777e-06,-0.00065979,-8.3373e-05,0.051414,-0.015698,-0.015813,-2.3804e-05,-0.0034309,-0.00043354,0,0,0,0.025517,0.00035122,-0.00098954,0.013253,0.008293,0.025865,8.8009e-07,0.65,0.4,0.15
0.034542,0.0012337,0.0052503,0.025525,-0.00027992,-0.00024582,7.838e-05,-0.0004968,9.8713e-05,0.051366,-0.015728,-0.015639,0.00040758,-0.0025833,0.0005133,0,0,0,0.025527,0.00024203,-0.00076901,0.013148,0.0083332,0.025808,8.7751e-07,0.7,0.4,0.15
0.037109,0.0013085,0.0053932,0.025572,-0.00020555,-9.1867e-05,0.00011712,-0.0002366,0.00020119,0.051323,-0.015699,-0.015404,0.00060901,-0.0012303,0.0010462,0,0,0,0.025575,0.00013088,-0.00043063,0.013003,0.0084249,0.025731,8.7306e-07,0.75,0.4,0.15
0.039674,0.0013925,0.0055517,0.025648,-0.00012628,3.9296e-05,0.0001068,3.0973e-05,0.00021558,0.051349,-0.015665,-0.015235,0.00055535,0.00016106,0.001121,0,0,0,0.025651,0.00013919,-0.00022866,0.01294,0.0085204,0.025698,8.7088e-07,0.8,0.4,0.15
0.042244,0.0014678,0.0056961,0.025742,-8.1034e-05,0.0001058,6.8956e-05,0.00024388,0.00017129,0.051468,-0.01567,-0.015185,0.00035857,0.0012682,0.00089071,0,0,0,0.025743,0.00028469,-0.00026158,0.013002,0.0085888,0.025737,8.7403e-07,0.85,0.4,0.15
0.044821,0.0015238,0.0058072,0.025833,-7.2903e-05,0.00011519,3.1149e-05,0.00038233,0.00010699,0.05164,-0.015715,-0.015226,0.00016198,0.0019881,0.00055634,0,0,0,0.025834,0.00042182,-0.00038029,0.013107,0.008625,0.025823,8.8147e-07,0.9,0.4,0.15
0.047408,0.0015573,0.0058757,0.0259,-8.196e-05,9.979e-05,1.9243e-05,0.00045444,7.0586e-05,0.051789,-0.015764,-0.015291,0.00010006,0.0023631,0.00036705,0,0,0,0.0259,0.00047982,-0.00046232,0.013181,0.0086392,0.025905,8.8896e-07,0.95,0.4,0.15
0.048703,0.0015683,0.0058987,0.025925,-8.7605e-05,9.0704e-05,2.3143e-05,0.00047608,6.6726e-05,0.051847,-0.015784,-0.015321,0.00012034,0.0024756,0.00034698,0,0,0,0.025925,0.00049351,-0.00049067,0.013208,0.0086426,0.025938,8.9207e-07,1,0.4,0.15
0.00095403,8.0979e-05,0.00061814,0.02536,0.0096677,0.0090888,0.00061922,3.9025e-05,0.004575,0.039466,-0.0013339,-0.0028392,0.00322,0.00020293,0.02379,0,0,0,0.026614,0.0096556,0.007847,0.0093835,0.014706,0.017937,2.8956e-07,0,0.45,0.15
0.0019733,0.00015766,0.00122,0.025431,0.0085426,0.007443,0.0006071,7.4478e-05,0.0042718,0.041271,-0.0026392,-0.0054982,0.0031569,0.00038728,0.022213,0,0,0,0.02647,0.0085252,0.0064218,0.010024,0.013806,0.01909,3.5016e-07,0.05,0.45,0.15
0.0041271,0.00030187,0.0023602,0.025892,0.0065945,0.0046979,0.00057295,0.00014032,0.003499,0.04501,-0.0051652,-0.010096,0.0029793,0.00072965,0.018195,0,0,0,0.026522,0.0065758,0.0040867,0.011218,0.012395,0.021307,4.8112e-07,0.1,0.45,0.15
0.0064743,0.00042654,0.0033325,0.026489,0.0050924,0.0029402,0.00052556,0.00019852,0.0025546,0.048158,-0.0074724,-0.013068,0.0027329,0.0010323,0.013284,0,0,0,0.026808,0.0050861,0.0026273,0.01209,0.011507,0.023055,6.084e-07,0.15,0.45,0.15
0.0089429,0.00052899,0.0040902,0.026733,0.0038497,0.0018938,0.00047069,0.00025114,0.0016988,0.05002,-0.0094766,-0.014562,0.0024476,0.0013059,0.0088338,0,0,0,0.026877,0.0038643,0.0017351,0.012571,0.010826,0.024151,7.0542e-07,0.2,0.45,0.15
0.011476,0.00060611,0.0046395,0.026723,0.0028385,0.0012823,0.00040585,0.00029411,0.0010369,0.050973,-0.011126,-0.015172,0.0021104,0.0015294,0.0053917,0,0,0,0.026782,0.0028834,0.0011776,0.012802,0.010281,0.024798,7.7081e-07,0.25,0.45,0.15
0.01404,0.00065447,0.0050065,0.026581,0.0020513,0.00093412,0.0003264,0.00031523,0.00054517,0.05137,-0.012406,-0.015311,0.0016973,0.0016392,0.0028349,0,0,0,0.026603,0.0021326,0.00083007,0.012887,0.0098553,0.025149,8.0947e-07,0.3,0.45,0.15
0.016613,0.00067048,0.0052173,0.026372,0.0014584,0.00072765,0.00022757,0.00029156,0.00016723,0.051432,-0.013343,-0.015243,0.0011834,0.0015161,0.0008696,0,0,0,0.02638,0.0015626,0.00061551,0.012882,0.0095194,0.025305,8.2824e-07,0.35,0.45,0.15
0.019183,0.00065177,0.0052959,0.02613,0.0010075,0.0005558,0.00011253,0.00019245,-0.00013214,0.051322,-0.013996,-0.015171,0.00058516,0.0010007,-0.00068714,0,0,0,0.026134,0.0010876,0.00047097,0.012832,0.009231,0.025362,8.3602e-07,0.4,0.45,0.15
0.021745,0.00060069,0.0052701,0.025877,0.00064039,0.00033432,1.639e-06,-3.0714e-06,-0.00034927,0.051169,-0.014446,-0.015242,8.5226e-06,-1.5971e-05,-0.0018162,0,0,0,0.025884,0.00071127,0.00025648,0.012814,0.0089505,0.025403,8.4101e-07,0.45,0.45,0.15
0.0243,0.00052916,0.0051785,0.025634,0.00032523,2.6926e-05,-7.2337e-05,-0.00027679,-0.0004509,0.051057,-0.014746,-0.015522,-0.00037615,-0.0014393,-0.0023447,0,0,0,0.025644,0.00052017,-0.00017749,0.012911,0.0086622,0.025482,8.4711e-07,0.5,0.45,0.15
0.026851,0.00045949,0.0050744,0.025433,7.5541e-05,-0.00031134,-8.5966e-05,-0.00054964,-0.00041629,0.051008,-0.014922,-0.015928,-0.00044702,-0.0028581,-0.0021647,0,0,0,0.025442,0.00047491,-0.00071904,0.01308,0.0083992,0.025588,8.5341e-07,0.55,0.45,0.15
0.029401,0.00041595,0.0050163,0.025311,-8.6789e-05,-0.00054402,-4.6845e-05,-0.00071621,-0.00027437,0.051,-0.015034,-0.016222,-0.0002436,-0.0037243,-0.0014267,0,0,0,0.025315,0.00045178,-0.0010868,0.013201,0.0082267,0.025669,8.5785e-07,0.6,0.45,0.15
0.031951,0.00041379,0.005045,0.025284,-0.00017168,-0.00057241,1.6297e-05,-0.00071382,-8.5332e-05,0.051014,-0.01517,-0.016212,8.4746e-05,-0.0037118,-0.00044373,0,0,0,0.025285,0.0003855,-0.0011312,0.013208,0.0081798,0.025694,8.6058e-07,0.65,0.45,0.15
0.034502,0.00045469,0.0051663,0.02535,-0.00019076,-0.00039975,7.3351e-05,-0.00054047,8.8124e-05,0.051054,-0.015352,-0.015895,0.00038142,-0.0028105,0.00045824,0,0,0,0.025352,0.00026856,-0.00086099,0.013106,0.0082532,0.02567,8.6228e-07,0.7,0.45,0.15
0.037057,0.00052673,0.0053505,0.025491,-0.00015751,-0.00013038,9.536e-05,-0.0002553,0.0001891,0.051155,-0.015531,-0.015461,0.00049587,-0.0013276,0.0009833,0,0,0,0.025494,0.00016606,-0.00045666,0.012975,0.008401,0.025647,8.6412e-07,0.75,0.45,0.15
0.039618,0.00060853,0.0055518,0.025667,-0.00011844,9.3636e-05,7.3879e-05,3.8613e-05,0.00019523,0.051348,-0.015693,-0.015142,0.00038417,0.00020079,0.0010152,0,0,0,0.025669,0.00020247,-0.00022979,0.01295,0.0085473,0.025686,8.6947e-07,0.8,0.45,0.15
0.042191,0.00068014,0.0057309,0.025843,-0.00011472,0.00020607,3.0996e-05,0.00026266,0.00013869,0.051632,-0.015859,-0.015025,0.00016118,0.0013658,0.00072119,0,0,0,0.025845,0.00036468,-0.00027494,0.01306,0.0086449,0.025807,8.8076e-07,0.85,0.45,0.15
0.044781,0.00073135,0.005865,0.025996,-0.00014449,0.00022326,-2.5074e-06,0.00039742,7.1644e-05,0.051944,-0.01602,-0.015064,-1.3038e-05,0.0020666,0.00037255,0,0,0,0.025996,0.00048642,-0.00040841,0.013202,0.0086915,0.02597,8.961e-07,0.9,0.45,0.15
0.047386,0.00076072,0.0059459,0.026101,-0.00017932,0.00019817,-2.0737e-06,0.0004613,5.0899e-05,0.05219,-0.016138,-0.015156,-1.0783e-05,0.0023988,0.00026467,0,0,0,0.026101,0.00051779,-0.00049931,0.0133,0.0087065,0.026107,9.0956e-07,0.95,0.45,0.15
0.048692,0.00077013,0.0059727,0.026138,-0.00019383,0.00018324,9.2313e-06,0.00047917,6.0389e-05,0.052283,-0.01618,-0.0152,4.8003e-05,0.0024917,0.00031402,0,0,0,0.026138,0.00051973,-0.00053065,0.013335,0.0087092,0.02616,9.149e-07,1,0.45,0.15
0.00095766,1.4003e-05,0.0006242,0.025456,0.0096956,0.0091249,0.00011103,2.8081e-05,0.0046238,0.03962,-0.0013576,-0.0028413,0.00057735,0.00014602,0.024044,0,0,0,0.026709,0.0096928,0.0078746,0.0094175,0.014759,0.018,2.9257e-07,0,0.5,0.15
0.001981,2.5254e-05,0.0012316,0.02553,0.0085604,0.007475,0.00011277,5.33e-05,0.0043228,0.041438,-0.002682,-0.0055041,0.00058642,0.00027716,0.022479,0,0,0,0.026567,0.0085568,0.0064408,0.010063,0.013855,0.019163,3.5413e-07,0.05,0.5,0.15
0.0041438,4.2951e-05,0.002382,0.026,0.006597,0.0047243,0.00011867,0.00010016,0.0035564,0.045206,-0.0052404,-0.010109,0.0006171,0.00052081,0.018493,0,0,0,0.026629,0.0065944,0.0040974,0.011266,0.01244,0.021399,4.8745e-07,0.1,0.5,0.15
0.0065016,5.206e-05,0.0033629,0.026608,0.0050853,0.0029679,0.00013296,0.0001428,0.0026228,0.048384,-0.0075749,-0.01308,0.00069137,0.00074256,0.013639,0,0,0,0.026928,0.0050886,0.0026445,0.012142,0.011554,0.023164,6.1752e-07,0.15,0.5,0.15
0.0089822,5.3841e-05,0.0041276,0.026863,0.0038341,0.0019311,0.00015479,0.00018466,0.0017826,0.050267,-0.0096084,-0.014556,0.00080488,0.00096023,0.0092697,0,0,0,0.027009,0.0038484,0.0017707,0.012619,0.010876,0.024271,7.1693e-07,0.2,0.5,0.15
0.011528,4.7861e-05,0.0046819,0.026858,0.0028162,0.0013394,0.00017421,0.00022368,0.0011387,0.051224,-0.011286,-0.015126,0.00090587,0.0011631,0.0059214,0,0,0,0.026921,0.0028499,0.001243,0.012839,0.010338,0.024916,7.8335e-07,0.25,0.5,0.15
0.014105,3.1758e-05,0.00505,0.026711,0.0020287,0.0010205,0.00017881,0.00024972,0.00066261,0.051593,-0.012582,-0.015203,0.00092979,0.0012986,0.0034456,0,0,0,0.026737,0.002093,0.00093068,0.012903,0.0099202,0.025247,8.2055e-07,0.3,0.5,0.15
0.016688,1.3025e-06,0.0052551,0.026479,0.0014485,0.00084236,0.00015605,0.00024025,0.00029092,0.051584,-0.013496,-0.015072,0.00081146,0.0012493,0.0015128,0,0,0,0.026489,0.0015402,0.00074054,0.012874,0.00959,0.025359,8.348e-07,0.35,0.5,0.15
0.019263,-4.8372e-05,0.0053172,0.026186,0.0010245,0.00066956,0.00010227,0.00016109,-1.501e-05,0.051356,-0.014064,-0.014987,0.0005318,0.00083764,-7.8055e-05,0,0,0,0.026192,0.001102,0.00058679,0.012802,0.0092935,0.025352,8.357e-07,0.4,0.5,0.15
0.021823,-0.00011868,0.0052611,0.025846,0.00069239,0.00038282,3.442e-05,-2.0048e-05,-0.00024251,0.051047,-0.014352,-0.015157,0.00017899,-0.00010425,-0.001261,0,0,0,0.025852,0.00075868,0.00031003,0.012771,0.0089737,0.025322,8.3288e-07,0.45,0.5,0.15
0.024368,-0.00020055,0.0051289,0.025488,0.00041544,-4.9833e-05,-9.7307e-06,-0.0002816,-0.00034341,0.050758,-0.014432,-0.015642,-5.06e-05,-0.0014643,-0.0017857,0,0,0,0.025497,0.00057106,-0.00021429,0.012856,0.008618,0.025331,8.3138e-07,0.5,0.5,0.15
0.026899,-0.00027379,0.0049863,0.025185,0.00020979,-0.0004988,-1.0319e-05,-0.00051712,-0.00031744,0.050543,-0.014392,-0.016234,-5.3658e-05,-0.002689,-0.0016507,0,0,0,0.025193,0.0004973,-0.00079416,0.012993,0.0082986,0.025369,8.3081e-07,0.55,0.5,0.15
0.029422,-0.00031938,0.0049062,0.025007,8.2988e-05,-0.00077271,7.2874e-06,-0.00063553,-0.00022814,0.050427,-0.014374,-0.016599,3.7894e-05,-0.0033048,-0.0011863,0,0,0,0.025011,0.00044253,-0.0011363,0.013074,0.0081057,0.025396,8.3067e-07,0.6,0.5,0.15
0.031942,-0.00032881,0.0049361,0.024984,-6.9225e-06,-0.0008014,2.4931e-05,-0.00063211,-0.00011707,0.050453,-0.014523,-0.016589,0.00012964,-0.003287,-0.00060875,0,0,0,0.024987,0.00036484,-0.0011757,0.013081,0.0080585,0.025429,8.3436e-07,0.65,0.5,0.15
0.034467,-0.00030142,0.0050816,0.025115,-7.2057e-05,-0.00058852,5.0847e-05,-0.00050466,6.704e-06,0.050627,-0.01486,-0.016203,0.0002644,-0.0026242,3.4861e-05,0,0,0,0.025119,0.00025705,-0.00092161,0.01302,0.0081515,0.025475,8.4244e-07,0.7,0.5,0.15
0.037004,-0.00024462,0.0053069,0.025369,-9.5073e-05,-0.00020971,6.587e-05,-0.00025406,0.00010529,0.050921,-0.015286,-0.015584,0.00034253,-0.0013211,0.00054752,0,0,0,0.025373,0.00018324,-0.0004923,0.012933,0.0083548,0.025537,8.5272e-07,0.75,0.5,0.15
0.039559,-0.0001768,0.005552,0.025672,-0.00010849,0.00014064,4.2801e-05,3.0204e-05,0.00012166,0.051324,-0.015704,-0.015057,0.00022256,0.00015706,0.00063261,0,0,0,0.025675,0.00025885,-0.00022977,0.012952,0.008568,0.025664,8.6709e-07,0.8,0.5,0.15
0.042137,-0.00011815,0.005765,0.02595,-0.00015545,0.0003234,-4.1015e-07,0.00024089,6.7251e-05,0.051799,-0.016075,-0.01483,-2.1328e-06,0.0012526,0.0003497,0,0,0,0.025952,0.00043533,-0.00026928,0.013111,0.008706,0.025877,8.8778e-07,0.85,0.5,0.15
0.044739,-7.8227e-05,0.0059201,0.026168,-0.00022852,0.0003503,-2.7617e-05,0.00035508,9.4397e-06,0.052263,-0.016368,-0.014863,-0.00014361,0.0018464,4.9086e-05,0,0,0,0.026169,0.00053127,-0.00041054,0.01329,0.0087634,0.026122,9.1194e-07,0.9,0.5,0.15
0.047363,-5.6524e-05,0.0060114,0.02631,-0.00029057,0.00031073,-1.8404e-05,0.0004033,1.6703e-05,0.052608,-0.016554,-0.01499,-9.5703e-05,0.0020972,8.6856e-05,0,0,0,0.026311,0.00052692,-0.00050732,0.013409,0.0087767,0.026316,9.3187e-07,0.95,0.5,0.15
0.04868,-4.9789e-05,0.0060412,0.02636,-0.00031391,0.0002876,-3.1256e-06,0.00041545,4.5537e-05,0.052735,-0.016616,-0.015052,-1.6253e-05,0.0021604,0.00023679,0,0,0,0.02636,0.00051392,-0.00054066,0.01345,0.0087778,0.026389,9.3958e-07,1,0.5,0.15
0.00096126,-5.4785e-05,0.00062774,0.025551,0.009711,0.0091576,-0.00041196,1.3575e-05,0.0046526,0.03978,-0.001403,-0.0028418,-0.0021422,7.059e-05,0.024194,0,0,0,0.026823,0.0097076,0.0078889,0.009467,0.014806,0.018099,2.9754e-07,0,0.55,0.15
0.001989,-0.00011054,0.0012382,0.025627,0.0085542,0.0075016,-0.00039744,2.5271e-05,0.0043538,0.04162,-0.0027685,-0.0055053,-0.0020667,0.00013141,0.02264,0,0,0,0.026682,0.008549,0.0064514,0.010115,0.013894,0.019274,3.6089e-07,0.05,0.55,0.15
0.004162,-0.00022217,0.0023943,0.026107,0.0065542,0.0047434,-0.00035465,4.6683e-05,0.0035935,0.045435,-0.0054018,-0.01011,-0.0018442,0.00024275,0.018686,0,0,0,0.026751,0.0065481,0.0041055,0.011323,0.012468,0.021535,4.9813e-07,0.1,0.55,0.15
0.0065325,-0.00033095,0.0033801,0.026729,0.0050168,0.0029876,-0.00028408,6.6881e-05,0.002671,0.048656,-0.0077965,-0.013072,-0.0014772,0.00034778,0.013889,0,0,0,0.027061,0.005014,0.0026587,0.012201,0.011578,0.02332,6.3204e-07,0.15,0.55,0.15
0.0090275,-0.00043185,0.0041491,0.026995,0.0037486,0.0019597,-0.00019285,8.9688e-05,0.0018474,0.050564,-0.0098753,-0.014526,-0.0010028,0.00046638,0.0096064,0,0,0,0.02715,0.0037523,0.0018007,0.012675,0.010901,0.024436,7.34e-07,0.2,0.55,0.15
0.011589,-0.00052252,0.0047068,0.026994,0.0027233,0.0013866,-9.689e-05,0.00011501,0.0012239,0.051521,-0.011582,-0.015057,-0.00050383,0.00059804,0.0063644,0,0,0,0.027063,0.0027379,0.0013023,0.01288,0.010368,0.025077,8.0093e-07,0.25,0.55,0.15
0.01418,-0.00060369,0.0050764,0.026839,0.0019402,0.0010959,-1.387e-05,0.00013648,0.00076838,0.051856,-0.01288,-0.015076,-7.2124e-05,0.00070968,0.0039956,0,0,0,0.02687,0.0019747,0.0010307,0.012919,0.0099583,0.025382,8.359e-07,0.3,0.55,0.15
0.016775,-0.00067912,0.0052782,0.026583,0.0013806,0.00094682,3.9152e-05,0.00013711,0.00041098,0.051769,-0.013756,-0.014884,0.00020359,0.00071296,0.0021371,0,0,0,0.026596,0.0014418,0.00087212,0.012862,0.0096367,0.025445,8.4482e-07,0.35,0.55,0.15
0.019357,-0.00075468,0.0053281,0.026234,0.00099343,0.0007701,5.3727e-05,8.8679e-05,0.00010723,0.05141,-0.014216,-0.014796,0.00027938,0.00046113,0.0005576,0,0,0,0.026241,0.0010553,0.00070123,0.01277,0.0093325,0.025365,8.3781e-07,0.4,0.55,0.15
0.021916,-0.00083456,0.005247,0.025799,0.00070642,0.00039379,4.0418e-05,-4.3356e-05,-0.00011581,0.050938,-0.014303,-0.015116,0.00021017,-0.00022545,-0.00060223,0,0,0,0.025807,0.00075832,0.00033429,0.012736,0.0089664,0.025264,8.2718e-07,0.45,0.55,0.15
0.02445,-0.00091407,0.0050802,0.025338,0.00048157,-0.00017341,3.5843e-05,-0.00023635,-0.00020819,0.050491,-0.014136,-0.015839,0.00018638,-0.001229,-0.0010826,0,0,0,0.025348,0.00057637,-0.00027831,0.012813,0.0085487,0.025213,8.1923e-07,0.5,0.55,0.15
0.026965,-0.0009797,0.0049099,0.024948,0.00033205,-0.0006641,5.2843e-05,-0.00037989,-0.00020517,0.050096,-0.013906,-0.016496,0.00027478,-0.0019754,-0.0010669,0,0,0,0.024956,0.00048225,-0.00082251,0.012889,0.0082054,0.025154,8.1023e-07,0.55,0.55,0.15
0.02946,-0.0010215,0.0048194,0.024714,0.00024294,-0.00088941,5.3689e-05,-0.00042219,-0.00018086,0.049815,-0.013809,-0.016753,0.00027918,-0.0021954,-0.00094046,0,0,0,0.024718,0.0004089,-0.0010593,0.012888,0.0080224,0.025076,8.0187e-07,0.6,0.55,0.15
0.031946,-0.0010385,0.0048508,0.024694,0.00015293,-0.00091949,3.3534e-05,-0.00041814,-0.00015005,0.049848,-0.013959,-0.016747,0.00017438,-0.0021743,-0.00078028,0,0,0,0.024697,0.0003243,-0.0010943,0.012896,0.0079758,0.025114,8.061e-07,0.65,0.55,0.15
0.034445,-0.0010313,0.0050099,0.024888,4.9678e-05,-0.00075717,3.208e-05,-0.00036577,-8.9014e-05,0.050201,-0.014379,-0.016477,0.00016682,-0.001902,-0.00046287,0,0,0,0.024895,0.00021926,-0.00093347,0.012914,0.0080602,0.025275,8.2344e-07,0.7,0.55,0.15
0.036966,-0.0010018,0.0052662,0.025235,-3.0418e-05,-0.00033641,4.2307e-05,-0.00020658,-8.7673e-06,0.05069,-0.015,-0.015796,0.00022,-0.0010742,-4.5589e-05,0,0,0,0.025243,0.00016689,-0.00054146,0.012892,0.0082893,0.02544,8.4283e-07,0.75,0.55,0.15
0.039514,-0.00096191,0.0055494,0.025648,-9.7641e-05,0.00015123,2.3672e-05,8.3502e-06,2.31e-05,0.051264,-0.015675,-0.015028,0.0001231,4.3421e-05,0.00012012,0,0,0,0.025653,0.00028506,-0.00023655,0.012945,0.0085672,0.025634,8.6388e-07,0.8,0.55,0.15
0.042093,-0.00092736,0.0057915,0.026028,-0.0001921,0.00042873,-1.3201e-05,0.00016607,-1.7363e-05,0.051914,-0.016258,-0.014644,-6.8646e-05,0.00086359,-9.029e-05,0,0,0,0.026031,0.00048237,-0.00024853,0.01314,0.0087549,0.025922,8.9257e-07,0.85,0.55,0.15
0.044705,-0.00090547,0.0059628,0.026309,-0.00030459,0.0004678,-3.2935e-05,0.00024228,-6.0504e-05,0.052521,-0.016675,-0.014667,-0.00017126,0.0012598,-0.00031462,0,0,0,0.026311,0.00055393,-0.00039245,0.013352,0.0088241,0.026243,9.2505e-07,0.9,0.55,0.15
0.047345,-0.00089464,0.0060614,0.026481,-0.00039023,0.00041195,-2.2867e-05,0.00027063,-2.1394e-05,0.05295,-0.016916,-0.014831,-0.00011891,0.0014073,-0.00011125,0,0,0,0.026482,0.00051432,-0.00049348,0.013488,0.0088343,0.026486,9.5072e-07,0.95,0.55,0.15
0.04867,-0.00089149,0.0060932,0.026541,-0.0004208,0.00038031,-9.9013e-06,0.00027679,2.7581e-05,0.053106,-0.016994,-0.014911,-5.1487e-05,0.0014393,0.00014342,0,0,0,0.026541,0.00048717,-0.00052823,0.013535,0.0088334,0.026576,9.6048e-07,1,0.55,0.15
0.00096451,-0.00012629,0.00062824,0.025634,0.0097123,0.0091833,-0.00095583,-3.7004e-06,0.0046574,0.03993,-0.0014658,-0.002841,-0.0049703,-1.9242e-05,0.024219,0,0,0,0.026946,0.0096971,0.0078865,0.0095297,0.014843,0.018227,3.0426e-07,0,0.6,0.15
0.0019965,-0.0002516,0.001239,0.025712,0.0085238,0.0075197,-0.00092813,-8.1026e-06,0.0043599,0.041798,-0.0028914,-0.0055021,-0.0048263,-4.2133e-05,0.022671,0,0,0,0.026804,0.0084999,0.0064513,0.010176,0.013919,0.019416,3.7007e-07,0.05,0.6,0.15
0.0041798,-0.00049723,0.0023955,0.026201,0.0064684,0.0047517,-0.00084736,-1.7247e-05,0.0036038,0.045671,-0.005635,-0.010099,-0.0044063,-8.9685e-05,0.01874,0,0,0,0.026876,0.0064368,0.0041091,0.011383,0.012474,0.021704,5.1238e-07,0.1,0.6,0.15
0.0065636,-0.00072758,0.0033813,0.026834,0.0048918,0.0029944,-0.00071963,-2.5064e-05,0.0026894,0.048937,-0.0081138,-0.013047,-0.0037421,-0.00013033,0.013985,0,0,0,0.027189,0.0048667,0.002665,0.012262,0.011574,0.023507,6.5046e-07,0.15,0.6,0.15
0.0090735,-0.00093369,0.0041506,0.027103,0.0036019,0.0019713,-0.0005598,-2.8163e-05,0.0018783,0.050862,-0.010241,-0.01448,-0.002911,-0.00014645,0.0097673,0,0,0,0.027274,0.003589,0.0018129,0.012731,0.010892,0.024626,7.5418e-07,0.2,0.6,0.15
0.01165,-0.0011103,0.0047091,0.027097,0.0025729,0.0014095,-0.00039053,-2.502e-05,0.0012706,0.051805,-0.011958,-0.014983,-0.0020307,-0.0001301,0.0066074,0,0,0,0.027177,0.0025753,0.001327,0.012925,0.01036,0.025253,8.2016e-07,0.25,0.6,0.15
0.014254,-0.0012563,0.0050791,0.026928,0.0018027,0.0011366,-0.00023353,-1.73e-05,0.00083181,0.052092,-0.013233,-0.014965,-0.0012144,-8.9959e-05,0.0043254,0,0,0,0.026965,0.0018291,0.0010731,0.012946,0.0099557,0.025524,8.5158e-07,0.3,0.6,0.15
0.016859,-0.0013743,0.0052795,0.026645,0.0012712,0.0010066,-0.00010622,-1.1636e-05,0.00048768,0.051924,-0.014049,-0.014737,-0.00055236,-6.0509e-05,0.0025359,0,0,0,0.026662,0.0013357,0.00092495,0.012869,0.009641,0.025535,8.548e-07,0.35,0.6,0.15
0.019446,-0.0014699,0.0053233,0.026248,0.00092405,0.0008248,-1.7941e-05,-1.9936e-05,0.00018842,0.051447,-0.014396,-0.014654,-9.3292e-05,-0.00010367,0.00097978,0,0,0,0.026257,0.0010005,0.00073943,0.012759,0.0093323,0.025388,8.4058e-07,0.4,0.6,0.15
0.022004,-0.001549,0.005228,0.025744,0.00068301,0.00037975,3.367e-05,-5.8699e-05,-2.7962e-05,0.050851,-0.014308,-0.015097,0.00017508,-0.00030523,-0.0001454,0,0,0,0.025754,0.00073079,0.00032263,0.012715,0.0089357,0.025231,8.2391e-07,0.45,0.6,0.15
0.024531,-0.0016141,0.0050419,0.025223,0.00050958,-0.00027157,6.605e-05,-0.00011918,-0.00011963,0.050303,-0.013951,-0.015982,0.00034346,-0.00061974,-0.00062206,0,0,0,0.025235,0.00054877,-0.00032278,0.012779,0.0084869,0.025136,8.1165e-07,0.5,0.6,0.15
0.027034,-0.0016644,0.0048599,0.024783,0.00040721,-0.00075134,8.6689e-05,-0.00015455,-0.00014373,0.049773,-0.013605,-0.016617,0.00045078,-0.00080364,-0.00074738,0,0,0,0.024792,0.00045646,-0.00080913,0.0128,0.0081463,0.024994,7.9566e-07,0.55,0.6,0.15
0.029509,-0.0017003,0.0047692,0.024506,0.00034292,-0.00090675,8.1559e-05,-0.00015171,-0.00015731,0.049351,-0.013474,-0.016723,0.00042411,-0.00078887,-0.00081799,0,0,0,0.02451,0.00038996,-0.00095733,0.012734,0.0079808,0.024822,7.7971e-07,0.6,0.6,0.15
0.031969,-0.0017247,0.0048024,0.024488,0.00025789,-0.00093883,5.6221e-05,-0.00014654,-0.00016076,0.049385,-0.013614,-0.016725,0.00029235,-0.00076199,-0.00083595,0,0,0,0.024492,0.0003065,-0.00099099,0.012741,0.0079358,0.02486,7.8395e-07,0.65,0.6,0.15
0.034447,-0.0017393,0.0049653,0.024727,0.00013968,-0.00084893,3.781e-05,-0.00013802,-0.00013632,0.04988,-0.014048,-0.016618,0.00019661,-0.0007177,-0.00070887,0,0,0,0.024735,0.00019449,-0.00091184,0.012824,0.008006,0.025115,8.0883e-07,0.7,0.6,0.15
0.036957,-0.0017446,0.0052371,0.025125,2.3007e-05,-0.00043788,2.896e-05,-8.8087e-05,-8.105e-05,0.050499,-0.014766,-0.015965,0.00015059,-0.00045805,-0.00042146,0,0,0,0.025136,0.00014296,-0.00056859,0.012852,0.0082368,0.025359,8.3483e-07,0.75,0.6,0.15
0.039497,-0.0017443,0.0055433,0.025599,-8.3641e-05,0.00013742,1.1781e-05,-9.9679e-06,-4.5535e-05,0.051165,-0.015609,-0.015034,6.126e-05,-5.1833e-05,-0.00023678,0,0,0,0.025606,0.00028574,-0.0002392,0.012923,0.0085508,0.025588,8.5923e-07,0.8,0.6,0.15
0.042074,-0.001744,0.0058028,0.026044,-0.00021086,0.0004876,-9.4196e-06,4.6356e-05,-7.518e-05,0.051923,-0.016341,-0.014525,-4.8982e-05,0.00024105,-0.00039094,0,0,0,0.026048,0.00050256,-0.00022951,0.013139,0.0087737,0.02592,8.9253e-07,0.85,0.6,0.15
0.044689,-0.0017458,0.0059831,0.026368,-0.00034939,0.00053718,-1.8993e-05,7.0095e-05,-0.00010806,0.052624,-0.016842,-0.014537,-9.8762e-05,0.0003645,-0.00056193,0,0,0,0.026371,0.00056258,-0.00037714,0.013374,0.0088521,0.026291,9.3042e-07,0.9,0.6,0.15
0.047336,-0.0017482,0.0060855,0.026559,-0.00045034,0.00047056,-1.5266e-05,7.7101e-05,-4.7273e-05,0.053106,-0.017119,-0.014724,-7.9386e-05,0.00040093,-0.00024582,0,0,0,0.02656,0.00050178,-0.00048271,0.013522,0.0088598,0.026565,9.5967e-07,0.95,0.6,0.15
0.048666,-0.0017492,0.0061182,0.026625,-0.0004855,0.00043349,-1.0642e-05,7.8083e-05,1.4975e-05,0.05328,-0.017206,-0.014816,-5.5337e-05,0.00040603,7.7873e-05,0,0,0,0.026625,0.00046637,-0.00051907,0.013572,0.0088575,0.026665,9.7069e-07,1,0.6,0.15
0.00096743,-0.00020137,0.00062549,0.025706,0.0096979,0.0092018,-0.0015255,-2.2237e-05,0.004636,0.040072,-0.0015489,-0.0028387,-0.0079329,-0.00011563,0.024107,0,0,0,0.027082,0.0096597,0.0078644,0.0096086,0.014869,0.01839,3.1306e-07,0,0.65,0.15
0.0020036,-0.00039968,0.0012335,0.025785,0.0084657,0.0075281,-0.0014819,-4.3921e-05,0.0043385,0.041973,-0.0030563,-0.0054941,-0.007706,-0.00022839,0.02256,0,0,0,0.026935,0.0084056,0.0064376,0.010249,0.013926,0.019594,3.8202e-07,0.05,0.65,0.15
0.0041973,-0.00078568,0.0023845,0.02628,0.0063331,0.0047462,-0.0013555,-8.5959e-05,0.0035834,0.045912,-0.0059493,-0.010075,-0.0070486,-0.00044698,0.018634,0,0,0,0.027,0.006254,0.004105,0.011448,0.012453,0.021907,5.3039e-07,0.1,0.65,0.15
0.0065948,-0.0011423,0.0033652,0.026915,0.0047038,0.0029836,-0.0011601,-0.00012422,0.0026723,0.049218,-0.0085317,-0.013004,-0.0060326,-0.00064594,0.013896,0,0,0,0.027303,0.0046428,0.0026573,0.012323,0.011534,0.023722,6.7237e-07,0.15,0.65,0.15
0.0091191,-0.0014559,0.0041303,0.027174,0.003392,0.0019589,-0.00092213,-0.00015594,0.0018664,0.051137,-0.010696,-0.014421,-0.0047951,-0.00081089,0.0097053,0,0,0,0.027366,0.0033666,0.001792,0.012787,0.010842,0.024829,7.7598e-07,0.2,0.65,0.15
0.011708,-0.0017183,0.0046859,0.027146,0.0023704,0.001398,-0.00067444,-0.00017809,0.001265,0.052031,-0.012386,-0.014914,-0.0035071,-0.00092605,0.0065782,0,0,0,0.027238,0.0023926,0.0012837,0.012977,0.010305,0.025421,8.3834e-07,0.25,0.65,0.15
0.014322,-0.001927,0.0050546,0.026949,0.0016281,0.0011269,-0.00044333,-0.00018741,0.00083242,0.052245,-0.013589,-0.014893,-0.0023053,-0.00097456,0.0043286,0,0,0,0.026992,0.0017161,0.00099584,0.012998,0.0099013,0.025645,8.6419e-07,0.3,0.65,0.15
0.016933,-0.002084,0.0052549,0.026638,0.001135,0.00099878,-0.00024382,-0.00017832,0.00049349,0.051995,-0.014312,-0.014666,-0.0012678,-0.00092726,0.0025662,0,0,0,0.026657,0.0012963,0.000818,0.01292,0.0095905,0.025604,8.6154e-07,0.35,0.65,0.15
0.019522,-0.0021942,0.0053,0.026216,0.00082861,0.00081901,-8.2744e-05,-0.0001418,0.00019795,0.051443,-0.014564,-0.014588,-0.00043027,-0.00073739,0.0010293,0,0,0,0.026225,0.00099253,0.00064567,0.01279,0.0092877,0.025408,8.4228e-07,0.4,0.65,0.15
0.022077,-0.0022654,0.005207,0.025692,0.00062581,0.0003771,3.4345e-05,-6.5409e-05,-1.6515e-05,0.050783,-0.01439,-0.015037,0.0001786,-0.00034013,-8.5878e-05,0,0,0,0.025702,0.00070927,0.00028428,0.012709,0.0088984,0.025209,8.2178e-07,0.45,0.65,0.15
0.0246,-0.0023092,0.0050238,0.025158,0.00048501,-0.00026978,9.607e-05,3.5286e-05,-0.00010827,0.050186,-0.013963,-0.015925,0.00049957,0.00018349,-0.000563,0,0,0,0.02517,0.00052083,-0.00031764,0.012744,0.0084577,0.025082,8.0666e-07,0.5,0.65,0.15
0.027096,-0.0023402,0.004845,0.024711,0.00040782,-0.00074583,0.00010759,0.00010483,-0.00013425,0.049624,-0.013563,-0.016563,0.00055947,0.00054513,-0.00069812,0,0,0,0.024719,0.00044762,-0.00079415,0.012757,0.0081243,0.024917,7.886e-07,0.55,0.65,0.15
0.029563,-0.0023689,0.004757,0.024431,0.00036066,-0.00090006,0.00010024,0.00012546,-0.00015073,0.049186,-0.013397,-0.016675,0.00052123,0.00065241,-0.00078381,0,0,0,0.024435,0.00040203,-0.00094498,0.01269,0.007964,0.024735,7.7146e-07,0.6,0.65,0.15
0.032014,-0.0023999,0.0047923,0.024414,0.00028485,-0.0009328,8.6805e-05,0.00013224,-0.00015726,0.049217,-0.013519,-0.016685,0.00045138,0.00068762,-0.00081774,0,0,0,0.024418,0.00032919,-0.0009808,0.012699,0.007922,0.02477,7.7525e-07,0.65,0.65,0.15
0.034484,-0.0024361,0.0049564,0.024656,0.0001687,-0.00084466,5.5989e-05,0.00012492,-0.00013563,0.049718,-0.013949,-0.016584,0.00029114,0.00064957,-0.00070528,0,0,0,0.024664,0.00021794,-0.00090206,0.012783,0.0079934,0.025027,8.0025e-07,0.7,0.65,0.15
0.036986,-0.0024785,0.0052289,0.025058,4.843e-05,-0.00043627,1.7606e-05,6.8266e-05,-8.2709e-05,0.050349,-0.014676,-0.015936,9.1552e-05,0.00035498,-0.00043009,0,0,0,0.025069,0.00015898,-0.00055756,0.012813,0.0082234,0.025279,8.2685e-07,0.75,0.65,0.15
0.039519,-0.0025228,0.0055353,0.025536,-6.5347e-05,0.00013619,-1.8278e-06,-2.0936e-05,-4.8712e-05,0.05103,-0.015534,-0.01501,-9.5046e-06,-0.00010887,-0.0002533,0,0,0,0.025543,0.00029319,-0.00022955,0.012886,0.0085357,0.025517,8.5209e-07,0.8,0.65,0.15
0.042089,-0.0025614,0.0057949,0.025986,-0.00020084,0.00048425,-2.3415e-06,-8.9783e-05,-7.8735e-05,0.051802,-0.016284,-0.014503,-1.2176e-05,-0.00046687,-0.00040942,0,0,0,0.02599,0.00050775,-0.00022801,0.013109,0.0087565,0.025859,8.8618e-07,0.85,0.65,0.15
0.044699,-0.0025897,0.0059752,0.026314,-0.00034672,0.00053258,7.4547e-07,-0.00012486,-0.00011099,0.052516,-0.016801,-0.014515,3.8765e-06,-0.00064925,-0.00057713,0,0,0,0.026316,0.00056936,-0.00038583,0.013351,0.0088332,0.026238,9.2467e-07,0.9,0.65,0.15
0.047341,-0.0026065,0.0060775,0.026507,-0.00045264,0.00046531,-3.7625e-06,-0.00013966,-4.8921e-05,0.053006,-0.017089,-0.014702,-1.9565e-05,-0.00072622,-0.00025439,0,0,0,0.026508,0.00050983,-0.00049831,0.013503,0.0088399,0.026517,9.5431e-07,0.95,0.65,0.15
0.048668,-0.0026121,0.0061102,0.026573,-0.00048955,0.00042803,-9.5484e-06,-0.00014341,1.4082e-05,0.053183,-0.01718,-0.014794,-4.9651e-05,-0.00074571,7.3228e-05,0,0,0,0.026574,0.00047489,-0.0005371,0.013555,0.0088372,0.026619,9.6547e-07,1,0.65,0.15
0.00097059,-0.00028119,0.00061962,0.025781,0.0096664,0.009217,-0.0021278,-4.0073e-05,0.0045894,0.040232,-0.001666,-0.0028345,-0.011065,-0.00020838,0.023865,0,0,0,0.027249,0.0095965,0.007819,0.0097149,0.014888,0.018609,3.2508e-07,0,0.7,0.15
0.0020116,-0.00055723,0.0012219,0.025858,0.0083712,0.0075285,-0.0020617,-7.8431e-05,0.0042905,0.042176,-0.0032894,-0.0054803,-0.010721,-0.00040784,0.022311,0,0,0,0.027091,0.0082603,0.0064058,0.010343,0.013919,0.01983,3.9814e-07,0.05,0.7,0.15
0.0042176,-0.0010922,0.0023619,0.026351,0.0061285,0.0047254,-0.0018717,-0.00015216,0.0035331,0.04619,-0.006389,-0.010037,-0.0097327,-0.00079121,0.018372,0,0,0,0.027133,0.0059836,0.0040881,0.011523,0.012402,0.022167,5.538e-07,0.1,0.7,0.15
0.0066306,-0.0015808,0.0033325,0.026977,0.0044313,0.0029522,-0.0015844,-0.00021928,0.0026201,0.049524,-0.0090951,-0.012941,-0.008239,-0.0011402,0.013625,0,0,0,0.027404,0.0043281,0.0026284,0.012388,0.011454,0.023978,6.9893e-07,0.15,0.7,0.15
0.00917,-0.0020032,0.0040891,0.027205,0.003104,0.0019199,-0.001246,-0.00027698,0.0018124,0.051396,-0.011267,-0.014346,-0.006479,-0.0014403,0.0094246,0,0,0,0.027419,0.0030843,0.0017254,0.012847,0.010743,0.025046,7.9944e-07,0.2,0.7,0.15
0.01177,-0.0023489,0.0046384,0.027134,0.0021103,0.0013499,-0.00090607,-0.00032038,0.0012081,0.052191,-0.01287,-0.014846,-0.0047116,-0.001666,0.0062821,0,0,0,0.027235,0.0021983,0.0011601,0.013038,0.010198,0.025573,8.544e-07,0.25,0.7,0.15
0.014389,-0.0026152,0.0050039,0.026891,0.0014185,0.0010652,-0.00059708,-0.00034179,0.00077128,0.052293,-0.013937,-0.014856,-0.0031048,-0.0017773,0.0040106,0,0,0,0.026937,0.0016283,0.00080957,0.013064,0.0097917,0.025729,8.7208e-07,0.3,0.7,0.15
0.016999,-0.0028055,0.0052058,0.026548,0.00097763,0.00092223,-0.00033041,-0.00032573,0.00042951,0.051956,-0.014527,-0.014671,-0.0017181,-0.0016938,0.0022334,0,0,0,0.026567,0.001282,0.00059903,0.012984,0.0094826,0.025634,8.634e-07,0.35,0.7,0.15
0.019585,-0.0029263,0.0052594,0.026125,0.00071367,0.00075196,-0.00010824,-0.00024748,0.00013687,0.051371,-0.014699,-0.014599,-0.00056286,-0.0012869,0.00071173,0,0,0,0.026133,0.00098665,0.00047097,0.012831,0.0091969,0.025409,8.4155e-07,0.4,0.7,0.15
0.022137,-0.002988,0.0051849,0.025635,0.00054062,0.00038447,5.989e-05,-7.735e-05,-8.0364e-05,0.050714,-0.01453,-0.014936,0.00031143,-0.00040222,-0.00041789,0,0,0,0.025642,0.0006827,0.00023489,0.012704,0.0088533,0.025188,8.1969e-07,0.45,0.7,0.15
0.024656,-0.0030104,0.0050266,0.025138,0.00041271,-0.00017044,0.00014604,0.00015519,-0.00017287,0.05013,-0.014155,-0.015671,0.00075939,0.00080699,-0.00089891,0,0,0,0.025148,0.00050226,-0.00027019,0.012709,0.00846,0.025044,8.0344e-07,0.5,0.7,0.15
0.02715,-0.0030208,0.0048655,0.024729,0.0003381,-0.0006495,0.00015118,0.00033222,-0.00017555,0.049644,-0.013771,-0.016339,0.00078613,0.0017275,-0.00091286,0,0,0,0.024737,0.00046351,-0.00078328,0.01276,0.0081391,0.024923,7.8847e-07,0.55,0.7,0.15
0.029621,-0.00304,0.004783,0.024488,0.00029949,-0.00086937,0.00012996,0.00039775,-0.00016035,0.049318,-0.013572,-0.016611,0.00067577,0.0020683,-0.00083379,0,0,0,0.024492,0.00044772,-0.0010217,0.012757,0.0079727,0.024813,7.7658e-07,0.6,0.7,0.15
0.032081,-0.0030766,0.0048205,0.024472,0.00023589,-0.00090031,0.00010506,0.00040578,-0.00013942,0.049343,-0.013671,-0.016625,0.0005463,0.00211,-0.00072497,0,0,0,0.024476,0.0003916,-0.0010597,0.012768,0.0079359,0.024843,7.7961e-07,0.65,0.7,0.15
0.034555,-0.0031343,0.0049835,0.024676,0.00013749,-0.0007433,5.3029e-05,0.00035513,-8.7458e-05,0.049716,-0.014085,-0.016375,0.00027575,0.0018467,-0.00045478,0,0,0,0.024683,0.00028694,-0.00089954,0.012791,0.0080234,0.025013,7.9764e-07,0.7,0.7,0.15
0.037053,-0.0032122,0.0052419,0.025036,4.5462e-05,-0.00033087,-6.4062e-06,0.00018973,-1.4501e-05,0.050243,-0.014732,-0.01571,-3.3312e-05,0.00098661,-7.5404e-05,0,0,0,0.025043,0.00021181,-0.00050485,0.012774,0.0082501,0.025201,8.191e-07,0.75,0.7,0.15
0.039579,-0.0032977,0.005526,0.025463,-4.3851e-05,0.00014808,-2.4378e-05,-3.6293e-05,1.3052e-05,0.050863,-0.015454,-0.014955,-0.00012677,-0.00018872,6.7869e-05,0,0,0,0.025468,0.00030535,-0.00020606,0.012837,0.0085223,0.025423,8.4276e-07,0.8,0.7,0.15
0.042139,-0.0033724,0.0057683,0.025855,-0.00016342,0.00041886,-7.6378e-06,-0.0002071,-2.823e-05,0.051557,-0.016091,-0.014577,-3.9716e-05,-0.0010769,-0.0001468,0,0,0,0.025858,0.00049621,-0.00024348,0.013051,0.0087035,0.025741,8.7383e-07,0.85,0.7,0.15
0.044735,-0.0034259,0.0059397,0.026147,-0.00029797,0.00045357,8.2439e-06,-0.00029528,-6.9321e-05,0.0522,-0.016556,-0.014602,4.2868e-05,-0.0015354,-0.00036047,0,0,0,0.026148,0.00057095,-0.00041701,0.013283,0.0087674,0.026086,9.0815e-07,0.9,0.7,0.15
0.047359,-0.003457,0.0060383,0.026325,-0.00039841,0.0003953,1.5061e-07,-0.00033185,-2.6295e-05,0.052652,-0.016829,-0.014765,7.8317e-07,-0.0017256,-0.00013673,0,0,0,0.026326,0.00053322,-0.0005372,0.013432,0.008774,0.026344,9.3499e-07,0.95,0.7,0.15
0.048677,-0.0034672,0.0060701,0.026387,-0.00043416,0.00036289,-1.2723e-05,-0.00034092,2.4985e-05,0.052816,-0.016918,-0.014846,-6.6159e-05,-0.0017728,0.00012992,0,0,0,0.026387,0.00050677,-0.00057864,0.013483,0.0087718,0.02644,9.4516e-07,1,0.7,0.15
0.00097543,-0.00036796,0.00061123,0.025893,0.0096149,0.0092388,-0.002775,-5.5009e-05,0.0045221,0.040474,-0.0018494,-0.0028272,-0.01443,-0.00028605,0.023515,0,0,0,0.02749,0.0095141,0.0077425,0.0098738,0.014916,0.018928,3.4283e-07,0,0.75,0.15
0.0020237,-0.00072862,0.0012055,0.025962,0.0082208,0.0075257,-0.0026727,-0.00010754,0.0042207,0.042476,-0.0036509,-0.0054582,-0.013898,-0.00055921,0.021947,0,0,0,0.027308,0.0080581,0.0063428,0.010482,0.013903,0.020169,4.2147e-07,0.05,0.75,0.15
0.0042476,-0.0014246,0.0023299,0.026441,0.0058133,0.0046869,-0.0023837,-0.00020821,0.0034582,0.046583,-0.0070504,-0.009979,-0.012395,-0.0010827,0.017983,0,0,0,0.027299,0.0056019,0.004041,0.011629,0.012314,0.022527,5.8619e-07,0.1,0.75,0.15
0.006682,-0.0020518,0.0032865,0.027038,0.0040335,0.0028974,-0.0019616,-0.00029898,0.0025404,0.049918,-0.0098944,-0.012848,-0.0102,-0.0015547,0.01321,0,0,0,0.027505,0.0039028,0.002561,0.012472,0.011323,0.024307,7.3285e-07,0.15,0.75,0.15
0.0092394,-0.0025826,0.0040313,0.027207,0.0027128,0.001855,-0.0014886,-0.00037547,0.0017272,0.051673,-0.012012,-0.014242,-0.0077409,-0.0019524,0.0089814,0,0,0,0.027437,0.0027372,0.0016007,0.012918,0.010592,0.025289,8.2558e-07,0.2,0.75,0.15
0.011849,-0.0030053,0.004572,0.027062,0.0017828,0.0012715,-0.0010409,-0.00043054,0.0011156,0.052291,-0.013434,-0.014764,-0.0054126,-0.0022388,0.0058011,0,0,0,0.027166,0.0019792,0.0009706,0.013098,0.010039,0.025707,8.682e-07,0.25,0.75,0.15
0.014468,-0.0033207,0.0049337,0.026755,0.0011713,0.00096404,-0.00065486,-0.00045346,0.00067059,0.05223,-0.014289,-0.014828,-0.0034053,-0.002358,0.0034871,0,0,0,0.026798,0.0015161,0.00057626,0.013111,0.0096303,0.025765,8.7485e-07,0.3,0.75,0.15
0.017072,-0.0035367,0.005139,0.026376,0.00079909,0.00079724,-0.00033396,-0.00042417,0.00032454,0.051795,-0.014706,-0.014711,-0.0017366,-0.0022057,0.0016876,0,0,0,0.026392,0.0012169,0.00036421,0.013014,0.0093242,0.025612,8.5997e-07,0.35,0.75,0.15
0.019648,-0.0036641,0.005207,0.025967,0.00058143,0.00063658,-7.2531e-05,-0.00031282,3.6698e-05,0.051203,-0.014799,-0.014656,-0.00037716,-0.0016267,0.00019083,0,0,0,0.025972,0.0009224,0.00028985,0.012841,0.0090616,0.025373,8.3722e-07,0.4,0.75,0.15
0.022192,-0.0037184,0.0051611,0.025545,0.00043576,0.0003648,0.00012156,-9.2825e-05,-0.00018118,0.050609,-0.014674,-0.014859,0.0006321,-0.00048269,-0.00094216,0,0,0,0.025551,0.00061997,0.00017438,0.012688,0.0087817,0.025157,8.168e-07,0.45,0.75,0.15
0.024709,-0.0037247,0.0050418,0.025138,0.0003161,-4.8629e-05,0.00022292,0.00020743,-0.00028176,0.050116,-0.014422,-0.01537,0.0011592,0.0010786,-0.0014651,0,0,0,0.025147,0.00047191,-0.00021361,0.012681,0.0084686,0.025028,8.0248e-07,0.5,0.75,0.15
0.027204,-0.0037173,0.0049132,0.024812,0.000232,-0.00047768,0.00022666,0.00047502,-0.00026473,0.049771,-0.014137,-0.015982,0.0011786,0.0024701,-0.0013766,0,0,0,0.02482,0.00048624,-0.0007404,0.01278,0.0081888,0.024974,7.9284e-07,0.55,0.75,0.15
0.029686,-0.0037261,0.0048459,0.024631,0.00018635,-0.00073892,0.00017466,0.00061545,-0.00019113,0.049593,-0.013962,-0.016368,0.00090824,0.0032003,-0.00099385,0,0,0,0.024635,0.00051381,-0.0010709,0.012853,0.0080261,0.024954,7.8741e-07,0.6,0.75,0.15
0.032163,-0.0037671,0.0048857,0.024619,0.00013686,-0.00076631,0.00010207,0.00062371,-9.8184e-05,0.049615,-0.014038,-0.016386,0.00053078,0.0032433,-0.00051055,0,0,0,0.024621,0.00047491,-0.0011072,0.012864,0.0079964,0.024977,7.8968e-07,0.65,0.75,0.15
0.034647,-0.0038445,0.0050379,0.024769,7.5972e-05,-0.00056211,1.6628e-05,0.00049848,8.907e-06,0.049829,-0.014372,-0.016031,8.6464e-05,0.0025921,4.6317e-05,0,0,0,0.024773,0.0003637,-0.00085381,0.012813,0.0080942,0.025044,7.9963e-07,0.7,0.75,0.15
0.037146,-0.0039517,0.0052672,0.025045,2.9782e-05,-0.00019798,-4.9899e-05,0.00024222,9.5043e-05,0.050191,-0.014849,-0.015441,-0.00025947,0.0012595,0.00049422,0,0,0,0.025049,0.0002525,-0.00042482,0.012737,0.0082923,0.025145,8.1388e-07,0.75,0.75,0.15
0.039667,-0.0040682,0.0055144,0.02537,-2.2455e-05,0.00013687,-6.2433e-05,-5.3271e-05,0.00010484,0.050671,-0.015349,-0.014935,-0.00032465,-0.00027701,0.00054514,0,0,0,0.025373,0.0002895,-0.00017799,0.012775,0.0084948,0.025321,8.3281e-07,0.8,0.75,0.15
0.042213,-0.0041706,0.0057287,0.025667,-0.00011192,0.0003068,-3.5898e-05,-0.00027756,4.9626e-05,0.051217,-0.015808,-0.01472,-0.00018667,-0.0014433,0.00025806,0,0,0,0.025669,0.00045393,-0.00026082,0.012965,0.0086207,0.025581,8.5755e-07,0.85,0.75,0.15
0.044788,-0.0042453,0.0058845,0.0259,-0.00022149,0.00032457,-7.7095e-06,-0.00040416,-4.6243e-06,0.051737,-0.016177,-0.014758,-4.009e-05,-0.0021016,-2.4046e-05,0,0,0,0.025901,0.00054994,-0.00044781,0.013174,0.0086676,0.025864,8.8477e-07,0.9,0.75,0.15
0.047387,-0.0042894,0.0059761,0.02605,-0.00030766,0.00027961,-1.0379e-05,-0.00046085,9.1098e-06,0.052117,-0.016413,-0.014886,-5.3969e-05,-0.0023964,4.7371e-05,0,0,0,0.026051,0.00054399,-0.00057258,0.013312,0.008674,0.026083,9.0658e-07,0.95,0.75,0.15
0.048692,-0.0043039,0.006006,0.026103,-0.00033938,0.00025471,-2.3619e-05,-0.00047598,4.1745e-05,0.052256,-0.016493,-0.014949,-0.00012282,-0.0024751,0.00021707,0,0,0,0.026103,0.00053041,-0.00061554,0.013359,0.0086727,0.026165,9.1493e-07,1,0.75,0.15
0.00098485,-0.00046613,0.00060144,0.026109,0.0095329,0.0092852,-0.0034888,-6.4434e-05,0.0044428,0.040928,-0.002171,-0.0028148,-0.018141,-0.00033506,0.023102,0,0,0,0.027884,0.0094306,0.0076124,0.010136,0.014976,0.019432,3.7138e-07,0,0.8,0.15
0.0020464,-0.00092232,0.0011863,0.026156,0.0079718,0.0075263,-0.003321,-0.00012668,0.0041376,0.043012,-0.0042657,-0.0054237,-0.017269,-0.00065873,0.021516,0,0,0,0.027646,0.0078057,0.006202,0.010722,0.013885,0.020697,4.5786e-07,0.05,0.8,0.15
0.0043012,-0.0017972,0.0022926,0.026591,0.0053097,0.0046238,-0.0028644,-0.00024634,0.0033685,0.047222,-0.0081095,-0.0098931,-0.014895,-0.001281,0.017516,0,0,0,0.027528,0.0051075,0.0038896,0.011819,0.012175,0.023061,6.3344e-07,0.1,0.8,0.15
0.0067686,-0.0025702,0.0032329,0.02712,0.003452,0.0028141,-0.0022385,-0.00035304,0.0024458,0.050481,-0.011057,-0.012715,-0.01164,-0.0018358,0.012718,0,0,0,0.027615,0.0033804,0.0023913,0.012612,0.011129,0.024748,7.7725e-07,0.15,0.8,0.15
0.0093494,-0.0032044,0.0039644,0.027182,0.0021994,0.001767,-0.0015948,-0.00043862,0.0016282,0.051984,-0.01297,-0.014095,-0.0082931,-0.0022808,0.0084668,0,0,0,0.027412,0.0023442,0.001392,0.01301,0.010383,0.025559,8.5398e-07,0.2,0.8,0.15
0.011967,-0.0036923,0.0044962,0.026922,0.0013911,0.0011715,-0.0010399,-0.00049405,0.0010111,0.052306,-0.014074,-0.014645,-0.0054077,-0.0025691,0.0052578,0,0,0,0.027018,0.0017311,0.00073511,0.013142,0.0098281,0.0258,8.7771e-07,0.25,0.8,0.15
0.01458,-0.0040441,0.0048549,0.026531,0.00089319,0.00084058,-0.00059765,-0.00050821,0.0005612,0.052022,-0.014637,-0.014774,-0.0031078,-0.0026427,0.0029182,0,0,0,0.026566,0.0013546,0.0003442,0.013111,0.0094217,0.025732,8.7079e-07,0.3,0.8,0.15
0.017169,-0.0042761,0.0050657,0.026121,0.00060459,0.00065234,-0.00025043,-0.00046212,0.00021675,0.051488,-0.014855,-0.014731,-0.0013023,-0.002403,0.0011271,0,0,0,0.026131,0.001085,0.00016169,0.012985,0.009126,0.025521,8.5017e-07,0.35,0.8,0.15
0.019729,-0.0044062,0.0051512,0.025738,0.00043854,0.00050164,2.0569e-05,-0.00033002,-5.937e-05,0.050911,-0.014866,-0.014702,0.00010696,-0.0017161,-0.00030873,0,0,0,0.025742,0.00079928,0.00013663,0.012803,0.0088926,0.025282,8.2788e-07,0.4,0.8,0.15
0.02226,-0.0044554,0.0051374,0.025399,0.00032206,0.00030548,0.00021375,-9.6578e-05,-0.00026411,0.050422,-0.014779,-0.014822,0.0011115,-0.00050221,-0.0013734,0,0,0,0.025406,0.00052,0.00010057,0.012653,0.0086756,0.025099,8.1123e-07,0.45,0.8,0.15
0.024771,-0.0044526,0.0050612,0.025115,0.00021592,2.7348e-05,0.00031134,0.00021366,-0.00036483,0.050085,-0.014654,-0.015144,0.001619,0.0011111,-0.0018971,0,0,0,0.025126,0.00041735,-0.0001845,0.012655,0.0084529,0.025017,8.0196e-07,0.5,0.8,0.15
0.027269,-0.0044344,0.004974,0.024905,0.00012714,-0.00028165,0.00030416,0.00051597,-0.00034113,0.049902,-0.01452,-0.015582,0.0015816,0.0026831,-0.0017739,0,0,0,0.024914,0.00048772,-0.00065169,0.012783,0.0082501,0.025019,7.9779e-07,0.55,0.8,0.15
0.029761,-0.0044363,0.0049318,0.024794,7.1166e-05,-0.00049375,0.0002149,0.00070227,-0.00022,0.049841,-0.014438,-0.015906,0.0011175,0.0036518,-0.001144,0,0,0,0.024799,0.00055908,-0.00098662,0.012893,0.0081237,0.025051,7.9657e-07,0.6,0.8,0.15
0.032253,-0.0044804,0.0049737,0.02479,3.6172e-05,-0.00051762,8.7822e-05,0.00071015,-5.6363e-05,0.04987,-0.014491,-0.015931,0.00045667,0.0036928,-0.00029309,0,0,0,0.024792,0.00053423,-0.0010175,0.012905,0.008103,0.025072,7.986e-07,0.65,0.8,0.15
0.034748,-0.0045715,0.0051048,0.024887,1.6534e-05,-0.00035667,-3.2406e-05,0.00053869,9.3634e-05,0.049978,-0.014685,-0.015655,-0.00016851,0.0028012,0.00048689,0,0,0,0.024889,0.00040816,-0.00075022,0.01282,0.0081822,0.025084,8.0383e-07,0.7,0.8,0.15
0.037251,-0.0046971,0.0052959,0.025058,1.219e-05,-0.00010926,-0.00010526,0.0002482,0.00017797,0.050174,-0.014945,-0.015261,-0.00054737,0.0012906,0.00092542,0,0,0,0.025061,0.00025663,-0.0003564,0.012709,0.0083203,0.025119,8.1169e-07,0.75,0.8,0.15
0.039766,-0.0048326,0.005502,0.02526,-5.7976e-06,9.0246e-05,-0.00011547,-5.6239e-05,0.00017593,0.050469,-0.015222,-0.014972,-0.00060044,-0.00029244,0.00091481,0,0,0,0.025263,0.00024202,-0.00016012,0.012711,0.0084481,0.025225,8.235e-07,0.8,0.8,0.15
0.042298,-0.0049532,0.0056846,0.025456,-6.1736e-05,0.00018095,-8.3522e-05,-0.00029275,0.00011855,0.050841,-0.015506,-0.014875,-0.00043432,-0.0015223,0.00061648,0,0,0,0.025458,0.00038229,-0.00026469,0.012861,0.0085252,0.025407,8.4029e-07,0.85,0.8,0.15
0.04485,-0.0050436,0.0058213,0.025622,-0.00014114,0.00018172,-4.2999e-05,-0.00043857,5.5801e-05,0.051219,-0.015764,-0.014925,-0.0002236,-0.0022806,0.00029016,0,0,0,0.025622,0.00049472,-0.00045485,0.013039,0.0085541,0.025616,8.5958e-07,0.9,0.8,0.15
0.04742,-0.0050983,0.0059038,0.025733,-0.00020803,0.0001466,-3.2469e-05,-0.00050981,4.2872e-05,0.051504,-0.015944,-0.015022,-0.00016884,-0.002651,0.00022293,0,0,0,0.025734,0.00051683,-0.00057865,0.013156,0.0085573,0.025783,8.7539e-07,0.95,0.8,0.15
0.048708,-0.0051165,0.0059311,0.025773,-0.00023354,0.0001283,-4.0235e-05,-0.00053022,5.7046e-05,0.05161,-0.016008,-0.015067,-0.00020922,-0.0027572,0.00029664,0,0,0,0.025774,0.00051545,-0.00062109,0.013197,0.008556,0.025845,8.815e-07,1,0.8,0.15
0.0010059,-0.00058506,0.00059208,0.026567,0.0093725,0.0093844,-0.0043106,-6.4607e-05,0.0043652,0.041879,-0.0028256,-0.0027946,-0.022415,-0.00033596,0.022699,0,0,0,0.028585,0.0093816,0.007357,0.010614,0.015108,0.020297,4.2261e-07,0,0.85,0.15
0.0020939,-0.0011552,0.0011677,0.02654,0.0075068,0.0075283,-0.0040018,-0.00012967,0.0040551,0.04406,-0.0054276,-0.0053717,-0.020809,-0.00067428,0.021086,0,0,0,0.028204,0.0075347,0.0058364,0.011184,0.013858,0.021578,5.1908e-07,0.05,0.85,0.15
0.004406,-0.0022355,0.0022563,0.026853,0.0044758,0.0045134,-0.0032291,-0.00025686,0.0032784,0.048312,-0.0098681,-0.0097703,-0.016791,-0.0013357,0.017048,0,0,0,0.027844,0.0045673,0.0034303,0.012207,0.011947,0.023873,7.0341e-07,0.1,0.85,0.15
0.0069251,-0.0031575,0.0031807,0.027235,0.0026484,0.002699,-0.0023085,-0.00036979,0.0023529,0.051262,-0.012664,-0.012532,-0.012004,-0.0019229,0.012235,0,0,0,0.027721,0.0028646,0.0019972,0.012862,0.010861,0.025304,8.3131e-07,0.15,0.85,0.15
0.0095321,-0.0038797,0.0038998,0.027091,0.0015942,0.0016585,-0.0014949,-0.0004539,0.001535,0.05223,-0.014061,-0.013894,-0.0077733,-0.0023603,0.0079819,0,0,0,0.027298,0.001969,0.0010767,0.013111,0.010115,0.025788,8.7744e-07,0.2,0.85,0.15
0.012148,-0.0044126,0.0044238,0.026653,0.00097094,0.0010498,-0.00088153,-0.00050018,0.00091645,0.052094,-0.01468,-0.014475,-0.004584,-0.0026009,0.0047655,0,0,0,0.026731,0.0014637,0.00047931,0.013126,0.009558,0.025774,8.7519e-07,0.25,0.85,0.15
0.014742,-0.0047844,0.0047809,0.026173,0.00061017,0.00070066,-0.00043861,-0.00050076,0.0004663,0.051559,-0.014904,-0.014668,-0.0022808,-0.0026039,0.0024248,0,0,0,0.026197,0.0011421,0.00014446,0.013026,0.0091611,0.025568,8.5444e-07,0.3,0.85,0.15
0.017304,-0.0050222,0.0049983,0.025756,0.00041101,0.00050176,-0.00011178,-0.00044177,0.00012944,0.050964,-0.014932,-0.014696,-0.00058126,-0.0022972,0.00067308,0,0,0,0.025762,0.00089649,1.0259e-05,0.012876,0.0088895,0.02532,8.3056e-07,0.35,0.85,0.15
0.019838,-0.0051508,0.0051014,0.025429,0.00029818,0.00036703,0.00013288,-0.00030559,-0.00012766,0.050459,-0.014881,-0.014702,0.00069098,-0.0015891,-0.00066381,0,0,0,0.025433,0.00063687,2.4176e-05,0.012705,0.0086981,0.02511,8.1136e-07,0.4,0.85,0.15
0.02235,-0.0051963,0.0051175,0.025193,0.00021421,0.00023088,0.00030001,-8.5285e-05,-0.0003069,0.050119,-0.014826,-0.014783,0.0015601,-0.00044348,-0.0015959,0,0,0,0.025202,0.00040313,3.335e-05,0.012584,0.008546,0.024986,8.0048e-07,0.45,0.85,0.15
0.02485,-0.0051901,0.0050807,0.025037,0.00012909,6.2389e-05,0.00037466,0.00019597,-0.00038898,0.04996,-0.014802,-0.014975,0.0019483,0.001019,-0.0020227,0,0,0,0.025049,0.00034808,-0.00016855,0.012609,0.0084096,0.024965,7.9753e-07,0.5,0.85,0.15
0.027346,-0.0051693,0.0050328,0.024949,4.8382e-05,-0.00011595,0.00034558,0.00047139,-0.00035667,0.049939,-0.014803,-0.01523,0.001797,0.0024512,-0.0018547,0,0,0,0.024959,0.00045067,-0.00052841,0.012744,0.0082939,0.025016,7.9902e-07,0.55,0.85,0.15
0.029844,-0.0051699,0.0050162,0.024918,-7.0139e-06,-0.00024007,0.00022889,0.00064697,-0.00022361,0.049984,-0.014821,-0.015427,0.0011902,0.0033642,-0.0011628,0,0,0,0.024923,0.00054119,-0.00079337,0.012858,0.0082235,0.025078,8.0168e-07,0.6,0.85,0.15
0.032344,-0.0052162,0.0050599,0.024931,-2.909e-05,-0.00026054,7.1122e-05,0.00065442,-4.3319e-05,0.050037,-0.014861,-0.015463,0.00036983,0.003403,-0.00022526,0,0,0,0.024933,0.00052653,-0.00081767,0.012875,0.0082139,0.025108,8.0448e-07,0.65,0.85,0.15
0.034847,-0.005313,0.0051686,0.024981,-2.1637e-05,-0.00018098,-6.9997e-05,0.00049319,0.0001148,0.050084,-0.014923,-0.015338,-0.00036399,0.0025646,0.00059695,0,0,0,0.024983,0.00040245,-0.00060652,0.012795,0.0082595,0.025103,8.0721e-07,0.7,0.85,0.15
0.037353,-0.0054462,0.0053231,0.025059,-5.1014e-07,-5.8103e-05,-0.00015132,0.00023004,0.00020051,0.050153,-0.015001,-0.015151,-0.00078685,0.0011962,0.0010426,0,0,0,0.025062,0.00023536,-0.00029675,0.012679,0.0083334,0.025098,8.1022e-07,0.75,0.85,0.15
0.039863,-0.0055904,0.0054918,0.025154,4.4342e-06,3.6262e-05,-0.00016353,-4.3425e-05,0.00020667,0.050284,-0.015105,-0.015023,-0.00085034,-0.00022581,0.0010747,0,0,0,0.025157,0.00018298,-0.00014529,0.012651,0.0083982,0.025141,8.1547e-07,0.8,0.85,0.15
0.042381,-0.0057211,0.005645,0.025256,-2.4458e-05,6.8503e-05,-0.00012874,-0.00026281,0.00016084,0.050485,-0.015243,-0.015002,-0.00066947,-0.0013666,0.00083639,0,0,0,0.025258,0.00029209,-0.00025006,0.012754,0.0084333,0.025242,8.2454e-07,0.85,0.85,0.15
0.044911,-0.0058217,0.005763,0.025348,-7.5747e-05,5.1185e-05,-7.8822e-05,-0.00040642,9.8846e-05,0.050711,-0.015391,-0.015061,-0.00040988,-0.0021134,0.000514,0,0,0,0.025349,0.00040384,-0.00042932,0.012889,0.0084412,0.025373,8.3594e-07,0.9,0.85,0.15
0.047452,-0.0058838,0.005836,0.025414,-0.0001221,1.9148e-05,-5.4981e-05,-0.00048157,6.7887e-05,0.050889,-0.015504,-0.015137,-0.0002859,-0.0025042,0.00035301,0,0,0,0.025414,0.00044097,-0.00054435,0.012979,0.0084369,0.02548,8.4561e-07,0.95,0.85,0.15
0.048725,-0.0059047,0.0058606,0.025437,-0.00014034,4.4425e-06,-5.6098e-05,-0.00050419,6.771e-05,0.050956,-0.015546,-0.015169,-0.00029171,-0.0026218,0.00035209,0,0,0,0.025438,0.0004473,-0.00058359,0.013011,0.0084338,0.025522,8.4942e-07,1,0.85,0.15
0.0010537,-0.00074869,0.00058596,0.027528,0.0088609,0.0095329,-0.0051786,-5.1065e-05,0.0043111,0.04402,-0.0045148,-0.0027676,-0.026929,-0.00026554,0.022418,0,0,0,0.029825,0.0093776,0.0067191,0.011553,0.015307,0.021907,5.2511e-07,0,0.9,0.15
0.002201,-0.0014651,0.0011551,0.027338,0.0065402,0.0075122,-0.0045281,-0.00010855,0.0039948,0.046244,-0.0078296,-0.0053024,-0.023546,-0.00056449,0.020773,0,0,0,0.029131,0.0072848,0.0049739,0.012079,0.013797,0.023105,6.2727e-07,0.05,0.9,0.15
0.0046244,-0.002784,0.0022304,0.027336,0.0032322,0.0043655,-0.0032003,-0.00022549,0.00321,0.050114,-0.012557,-0.00961,-0.016642,-0.0011725,0.016692,0,0,0,0.028279,0.0041219,0.0025327,0.012873,0.011645,0.025005,7.9825e-07,0.1,0.9,0.15
0.0072124,-0.0038366,0.0031428,0.027313,0.0017583,0.002571,-0.0019995,-0.00033006,0.0022836,0.052028,-0.014414,-0.0123,-0.010398,-0.0017163,0.011875,0,0,0,0.027731,0.0024941,0.0014174,0.013157,0.010547,0.025797,8.7712e-07,0.15,0.9,0.15
0.0098272,-0.0046105,0.0038528,0.026758,0.0010046,0.0015058,-0.0011407,-0.00040062,0.0014662,0.052009,-0.014949,-0.013646,-0.0059316,-0.0020832,0.0076245,0,0,0,0.026921,0.0016361,0.00071146,0.013105,0.0097561,0.02576,8.7451e-07,0.2,0.9,0.15
0.012413,-0.0051603,0.0043718,0.026112,0.00058969,0.00088169,-0.00059202,-0.00043182,0.00084476,0.051342,-0.015017,-0.014258,-0.0030785,-0.0022455,0.0043928,0,0,0,0.026168,0.0011596,0.00025635,0.012956,0.0091946,0.025472,8.4593e-07,0.25,0.9,0.15
0.014961,-0.0055345,0.0047281,0.025589,0.00036352,0.00053012,-0.00023394,-0.00042172,0.00039182,0.050642,-0.014945,-0.014511,-0.0012165,-0.0021929,0.0020375,0,0,0,0.025604,0.00086834,1.0325e-05,0.012797,0.0088276,0.025176,8.1705e-07,0.3,0.9,0.15
0.017478,-0.0057694,0.0049507,0.025228,0.00024438,0.0003402,1.661e-05,-0.00036282,5.9893e-05,0.050106,-0.014852,-0.014603,8.637e-05,-0.0018867,0.00031144,0,0,0,0.025232,0.00065631,-7.5342e-05,0.012654,0.0086043,0.02495,7.958e-07,0.35,0.9,0.15
0.019972,-0.0058943,0.0050669,0.025014,0.00017787,0.00023407,0.00019899,-0.00024475,-0.00018008,0.049782,-0.014793,-0.014647,0.0010347,-0.0012727,-0.00093643,0,0,0,0.025019,0.00044857,-4.1283e-05,0.01253,0.0084755,0.02482,7.8434e-07,0.4,0.9,0.15
0.022456,-0.005938,0.0051049,0.024918,0.00012532,0.00015669,0.00031882,-6.5474e-05,-0.0003336,0.049668,-0.014794,-0.014713,0.0016579,-0.00034047,-0.0017347,0,0,0,0.024928,0.00028069,-7.9578e-06,0.012468,0.0084001,0.024793,7.8242e-07,0.45,0.9,0.15
0.024939,-0.0059327,0.0050966,0.024907,6.6654e-05,7.8307e-05,0.00036262,0.00015445,-0.00039104,0.049726,-0.014858,-0.014827,0.0018856,0.00080316,-0.0020334,0,0,0,0.024918,0.00026637,-0.00013306,0.012526,0.0083505,0.024855,7.8769e-07,0.5,0.9,0.15
0.027428,-0.0059147,0.005077,0.024944,5.8456e-06,1.0276e-07,0.00031946,0.00036418,-0.00034639,0.049884,-0.014955,-0.01497,0.0016612,0.0018937,-0.0018012,0,0,0,0.024953,0.0003711,-0.00037451,0.012664,0.0083166,0.024965,7.9618e-07,0.55,0.9,0.15
0.029927,-0.0059183,0.0050786,0.024996,-3.766e-05,-5.5677e-05,0.00020208,0.00049642,-0.00021711,0.050048,-0.015039,-0.015086,0.0010508,0.0025814,-0.001129,0,0,0,0.025,0.0004546,-0.00055245,0.012776,0.0083008,0.025066,8.0395e-07,0.6,0.9,0.15
0.032433,-0.0059664,0.0051234,0.025037,-4.9849e-05,-7.1388e-05,5.0977e-05,0.00050289,-4.8251e-05,0.050146,-0.015079,-0.015135,0.00026508,0.002615,-0.0002509,0,0,0,0.025038,0.00044684,-0.00056938,0.012804,0.0083051,0.025116,8.0871e-07,0.65,0.9,0.15
0.034942,-0.0060638,0.0052159,0.025056,-3.295e-05,-5.0375e-05,-8.2074e-05,0.00038327,0.00010387,0.050163,-0.015069,-0.015115,-0.00042678,0.001993,0.00054013,0,0,0,0.025058,0.00034455,-0.00042924,0.012743,0.0083244,0.025111,8.1006e-07,0.7,0.9,0.15
0.037449,-0.0061973,0.0053439,0.025062,-5.5483e-06,-1.7234e-05,-0.00015903,0.00018493,0.00019727,0.050138,-0.015038,-0.015068,-0.00082695,0.00096163,0.0010258,0,0,0,0.025065,0.00019356,-0.00021912,0.012642,0.0083464,0.025082,8.0925e-07,0.75,0.9,0.15
0.039955,-0.0063431,0.0054852,0.025065,7.7766e-06,-2.3537e-06,-0.00017208,-2.6316e-05,0.00022075,0.050126,-0.015022,-0.015048,-0.00089482,-0.00013684,0.0011479,0,0,0,0.025068,0.00012318,-0.000121,0.012595,0.0083567,0.025068,8.0871e-07,0.8,0.9,0.15
0.042462,-0.0064775,0.0056168,0.025072,-4.1444e-06,-1.8552e-05,-0.0001403,-0.00020109,0.00019055,0.050158,-0.015041,-0.015078,-0.00072956,-0.0010457,0.00099088,0,0,0,0.025075,0.00019207,-0.00021719,0.012646,0.0083499,0.025091,8.1035e-07,0.85,0.9,0.15
0.044971,-0.0065828,0.005721,0.025085,-3.3024e-05,-5.5145e-05,-9.0972e-05,-0.00031976,0.0001325,0.050224,-0.015084,-0.015142,-0.00047305,-0.0016627,0.000689,0,0,0,0.025087,0.00028019,-0.00036959,0.012728,0.0083324,0.025138,8.1402e-07,0.9,0.9,0.15
0.047484,-0.0066487,0.0057871,0.025098,-6.0918e-05,-9.0057e-05,-6.4419e-05,-0.0003844,8.8207e-05,0.050287,-0.015127,-0.015203,-0.00033498,-0.0019989,0.00045868,0,0,0,0.025099,0.00031497,-0.00046651,0.012783,0.0083158,0.025184,8.1778e-07,0.95,0.9,0.15
0.048742,-0.0066711,0.0058096,0.025104,-7.2182e-05,-0.00010411,-6.37e-05,-0.00040439,7.6751e-05,0.050313,-0.015144,-0.015227,-0.00033124,-0.0021028,0.0003991,0,0,0,0.025104,0.00032273,-0.00049947,0.012802,0.0083091,0.025203,8.1937e-07,1,0.9,0.15
0.0012432,-0.0010365,0.00058646,0.031044,0.008788,0.01058,-0.0062737,-2.8809e-05,0.0043159,0.050467,-0.0073986,-0.0027389,-0.032623,-0.0001498,0.022443,0,0,0,0.033682,0.010313,0.0064176,0.013632,0.016804,0.025551,8.4825e-07,0,0.95,0.15
0.0025234,-0.0019381,0.0011552,0.029638,0.0056126,0.0079598,-0.004865,-7.1445e-05,0.0039982,0.051133,-0.011334,-0.0052308,-0.025298,-0.00037151,0.02079,0,0,0,0.031508,0.0075901,0.004112,0.013698,0.014404,0.025856,8.6545e-07,0.05,0.95,0.15
0.0051133,-0.0034912,0.002229,0.027726,0.0018083,0.0041362,-0.0026065,-0.00016401,0.0032083,0.051886,-0.015501,-0.0094483,-0.013554,-0.00085288,0.016683,0,0,0,0.028511,0.003756,0.0014035,0.013554,0.011224,0.026038,8.8246e-07,0.1,0.95,0.15
0.0077119,-0.0045989,0.0031389,0.026672,0.00085855,0.0022249,-0.0013157,-0.00024734,0.0022724,0.051494,-0.015621,-0.012069,-0.0068419,-0.0012862,0.011817,0,0,0,0.026998,0.0020495,0.00070861,0.013144,0.0099186,0.025652,8.6015e-07,0.15,0.95,0.15
0.010263,-0.0053746,0.0038466,0.025726,0.00040382,0.0011429,-0.00064326,-0.00029597,0.0014396,0.050524,-0.015314,-0.013392,-0.003345,-0.001539,0.0074857,0,0,0,0.025849,0.0011669,0.00025653,0.012796,0.0090908,0.025152,8.1575e-07,0.2,0.95,0.15
0.012764,-0.0059144,0.0043634,0.025063,0.0002036,0.00056935,-0.00028136,-0.00031142,0.00079733,0.049662,-0.014972,-0.014021,-0.0014631,-0.0016194,0.0041461,0,0,0,0.025103,0.00072918,3.8925e-06,0.01255,0.008612,0.024745,7.7785e-07,0.25,0.95,0.15
0.015229,-0.0062788,0.0047179,0.024655,0.00010779,0.00027133,-6.7015e-05,-0.0002973,0.00032436,0.049083,-0.01474,-0.014315,-0.00034848,-0.0015459,0.0016867,0,0,0,0.024665,0.00049566,-0.00012625,0.012396,0.0083447,0.024487,7.5378e-07,0.3,0.95,0.15
0.017673,-0.0065074,0.00494,0.024464,6.6872e-05,0.00013132,7.7438e-05,-0.00025121,-2.0044e-05,0.04881,-0.014624,-0.014456,0.00040268,-0.0013063,-0.00010423,0,0,0,0.024467,0.00035139,-0.00015615,0.012312,0.0082208,0.024374,7.4348e-07,0.35,0.95,0.15
0.02011,-0.0066301,0.0050585,0.024447,5.0387e-05,7.8093e-05,0.00018174,-0.00016778,-0.00026024,0.048816,-0.014614,-0.014542,0.00094505,-0.00087246,-0.0013532,0,0,0,0.024452,0.00022837,-0.0001055,0.012279,0.0081917,0.024393,7.4542e-07,0.4,0.95,0.15
0.022554,-0.0066757,0.0051026,0.024557,3.8177e-05,6.552e-05,0.00024833,-4.7128e-05,-0.00040133,0.049052,-0.014697,-0.014626,0.0012913,-0.00024507,-0.0020869,0,0,0,0.024567,0.00014376,-5.0007e-05,0.012308,0.0082202,0.024521,7.5733e-07,0.45,0.95,0.15
0.025015,-0.0066759,0.005104,0.024743,1.9292e-05,6.4534e-05,0.00026644,9.6114e-05,-0.00043878,0.049435,-0.014846,-0.014728,0.0013855,0.00049979,-0.0022816,0,0,0,0.024754,0.00016591,-9.3396e-05,0.012424,0.0082755,0.024719,7.7551e-07,0.5,0.95,0.15
0.027498,-0.0066647,0.0050947,0.024944,-4.9346e-06,6.1899e-05,0.00022762,0.00022969,-0.00037408,0.049854,-0.015013,-0.01484,0.0011836,0.0011944,-0.0019452,0,0,0,0.024952,0.00026311,-0.00021463,0.012584,0.0083336,0.024933,7.9483e-07,0.55,0.95,0.15
0.03,-0.0066738,0.0051032,0.025103,-2.3508e-05,5.6134e-05,0.00013967,0.00031319,-0.0002288,0.050187,-0.015143,-0.014936,0.0007263,0.0016286,-0.0011898,0,0,0,0.025107,0.0003358,-0.00030708,0.012707,0.0083786,0.0251,8.1008e-07,0.6,0.95,0.15
0.032516,-0.0067241,0.005148,0.025182,-2.6705e-05,4.8681e-05,3.007e-05,0.00031822,-4.6565e-05,0.05035,-0.015192,-0.014996,0.00015636,0.0016548,-0.00024214,0,0,0,0.025183,0.00033532,-0.00031448,0.012749,0.0084012,0.02518,8.1779e-07,0.65,0.95,0.15
0.035035,-0.00682,0.0052337,0.025171,-1.5493e-05,3.6906e-05,-6.5447e-05,0.00024466,0.00012035,0.05033,-0.015156,-0.01502,-0.00034032,0.0012722,0.00062581,0,0,0,0.025173,0.00025934,-0.00023938,0.012706,0.0083975,0.025168,8.1737e-07,0.7,0.95,0.15
0.037549,-0.00695,0.0053511,0.025093,-1.5021e-06,1.3808e-05,-0.00012073,0.00012051,0.00023126,0.050179,-0.015067,-0.015027,-0.0006278,0.00062663,0.0012025,0,0,0,0.025096,0.00013938,-0.0001302,0.012613,0.0083685,0.025094,8.1107e-07,0.75,0.95,0.15
0.040053,-0.0070926,0.0054823,0.024985,2.2399e-06,-2.5939e-05,-0.00013058,-1.4498e-05,0.00027073,0.049984,-0.014971,-0.015044,-0.00067902,-7.5389e-05,0.0014078,0,0,0,0.024989,6.7248e-05,-9.4885e-05,0.012542,0.0083205,0.025004,8.0269e-07,0.8,0.95,0.15
0.042548,-0.0072252,0.0056068,0.024882,-8.499e-06,-7.9143e-05,-0.00010787,-0.00012878,0.00024743,0.049816,-0.014899,-0.015082,-0.00056094,-0.00066964,0.0012866,0,0,0,0.024885,9.1647e-05,-0.00018254,0.012534,0.0082647,0.024932,7.9559e-07,0.85,0.95,0.15
0.045035,-0.0073301,0.0057074,0.024804,-2.7857e-05,-0.00013371,-7.1286e-05,-0.00020803,0.00018214,0.049705,-0.014858,-0.015133,-0.00037069,-0.0010818,0.00094713,0,0,0,0.024806,0.00013808,-0.00030149,0.012554,0.0082142,0.024891,7.9126e-07,0.9,0.95,0.15
0.047518,-0.0073965,0.0057722,0.024759,-4.5418e-05,-0.0001744,-5.612e-05,-0.00025203,0.00011701,0.04965,-0.014842,-0.015177,-0.00029182,-0.0013105,0.00060844,0,0,0,0.02476,0.00015626,-0.0003769,0.012568,0.0081797,0.024875,7.8938e-07,0.95,0.95,0.15
0.048759,-0.0074191,0.0057944,0.024745,-5.2374e-05,-0.0001894,-6.0454e-05,-0.00026581,9.2126e-05,0.049634,-0.014838,-0.015194,-0.00031436,-0.0013822,0.00047906,0,0,0,0.024745,0.00016017,-0.00040249,0.012574,0.0081676,0.024872,7.8894e-07,1,0.95,0.15
0.0013997,-0.001227,0.0005888,0.03391,0.0091168,0.011546,-0.0069458,-1.73e-05,0.0043386,0.055423,-0.0090401,-0.0027248,-0.036118,-8.9962e-05,0.022561,0,0,0,0.03675,0.011241,0.0065812,0.015085,0.018191,0.028138,1.1023e-06,0,1,0.15
0.0027712,-0.0022303,0.0011595,0.031397,0.0053432,0.0084234,-0.0050221,-5.1984e-05,0.0040228,0.054535,-0.013206,-0.0051975,-0.026115,-0.00027032,0.020918,0,0,0,0.033307,0.0080108,0.003846,0.014731,0.015055,0.027637,1.0342e-06,0.05,1,0.15
0.0054535,-0.0038896,0.0022364,0.027798,0.0011055,0.0039834,-0.0021787,-0.00013086,0.0032319,0.052543,-0.016858,-0.0093752,-0.011329,-0.00068045,0.016806,0,0,0,0.028489,0.0035678,0.00082961,0.01383,0.010962,0.026429,9.1356e-07,0.1,1,0.15
0.0080254,-0.0049961,0.0031485,0.02602,0.00039008,0.0019414,-0.00090612,-0.00020172,0.0022868,0.050641,-0.015997,-0.011963,-0.0047118,-0.001049,0.011891,0,0,0,0.026303,0.0017396,0.00030873,0.012997,0.0094504,0.025317,8.2625e-07,0.15,1,0.15
0.010518,-0.0057601,0.0038571,0.024956,7.5804e-05,0.00087348,-0.000389,-0.00023854,0.0014388,0.049343,-0.015346,-0.013272,-0.0020228,-0.0012404,0.007482,0,0,0,0.025066,0.00085813,-1.826e-05,0.012542,0.0086352,0.02466,7.6889e-07,0.2,1,0.15
0.01296,-0.0062893,0.0043736,0.024376,-1.147e-05,0.00035785,-0.00014052,-0.00024676,0.00077903,0.048544,-0.014863,-0.013903,-0.00073068,-0.0012831,0.004051,0,0,0,0.024411,0.00046566,-0.00015435,0.012283,0.0082408,0.024262,7.3332e-07,0.25,1,0.15
0.015372,-0.0066471,0.0047266,0.024083,-3.9343e-05,0.00010851,-3.749e-06,-0.0002322,0.00028952,0.048124,-0.014593,-0.014209,-1.9495e-05,-0.0012075,0.0015055,0,0,0,0.024091,0.00027803,-0.00021704,0.012154,0.0080506,0.024064,7.1566e-07,0.3,1,0.15
0.017772,-0.0068725,0.0049464,0.024012,-3.7664e-05,7.5556e-06,8.6697e-05,-0.00019452,-6.7639e-05,0.048042,-0.014487,-0.01437,0.00045083,-0.0010115,-0.00035172,0,0,0,0.024015,0.00017987,-0.00021297,0.012114,0.007994,0.024034,7.1303e-07,0.35,1,0.15
0.020176,-0.006995,0.0050623,0.024117,-2.4346e-05,-1.1138e-05,0.00015241,-0.0001303,-0.00031442,0.048256,-0.014512,-0.014478,0.00079254,-0.00067758,-0.001635,0,0,0,0.024124,0.00010799,-0.00014985,0.012137,0.0080272,0.024146,7.2313e-07,0.4,1,0.15
0.022598,-0.0070429,0.0051046,0.024351,-1.0569e-05,1.1467e-05,0.00019384,-4.007e-05,-0.00045444,0.048702,-0.014639,-0.014582,0.001008,-0.00020836,-0.0023631,0,0,0,0.024362,6.9302e-05,-7.913e-05,0.012221,0.0081174,0.024367,7.4332e-07,0.45,1,0.15
0.025046,-0.007047,0.005105,0.024655,-3.5314e-06,4.7246e-05,0.00020188,6.5173e-05,-0.00048333,0.049284,-0.014828,-0.014696,0.0010498,0.0003389,-0.0025133,0,0,0,0.024667,0.00011053,-7.8495e-05,0.012373,0.0082329,0.024651,7.6942e-07,0.5,1,0.15
0.027526,-0.0070403,0.0050956,0.024955,-3.6795e-06,7.8228e-05,0.00016964,0.00016216,-0.00040449,0.049865,-0.015027,-0.014814,0.00088212,0.00084323,-0.0021034,0,0,0,0.024963,0.00020571,-0.00013963,0.012551,0.0083431,0.024933,7.9554e-07,0.55,1,0.15
0.030033,-0.0070527,0.005104,0.025179,-5.545e-06,9.4862e-05,0.00010255,0.00022261,-0.00024208,0.050304,-0.015175,-0.014914,0.00053327,0.0011576,-0.0012588,0,0,0,0.025183,0.00027575,-0.00019021,0.012686,0.0084227,0.025144,8.1543e-07,0.6,1,0.15
0.032556,-0.0071042,0.0051485,0.025279,-3.7986e-06,9.2775e-05,2.0453e-05,0.00022695,-4.193e-05,0.050505,-0.015231,-0.01498,0.00010636,0.0011802,-0.00021804,0,0,0,0.02528,0.00027986,-0.00019201,0.012736,0.008456,0.02524,8.248e-07,0.65,1,0.15
0.035083,-0.0071992,0.0052335,0.025248,1.192e-06,6.9854e-05,-5.0731e-05,0.00017517,0.00014174,0.050454,-0.015188,-0.01501,-0.0002638,0.00091087,0.00073703,0,0,0,0.02525,0.0002162,-0.0001468,0.012698,0.0084398,0.025218,8.2298e-07,0.7,1,0.15
0.037602,-0.0073267,0.0053504,0.025119,3.4308e-06,2.5975e-05,-9.1944e-05,8.6633e-05,0.000266,0.050221,-0.01508,-0.015022,-0.00047811,0.00045049,0.0013832,0,0,0,0.025123,0.00011214,-8.6327e-05,0.012605,0.0083828,0.025111,8.1301e-07,0.75,1,0.15
0.040105,-0.0074667,0.0054817,0.024946,-3.1422e-06,-3.4942e-05,-9.9265e-05,-1.0704e-05,0.00031281,0.049915,-0.014953,-0.015036,-0.00051618,-5.5661e-05,0.0016266,0,0,0,0.024951,4.1024e-05,-8.3731e-05,0.012517,0.0083026,0.024972,7.9979e-07,0.8,1,0.15
0.042593,-0.0075972,0.0056072,0.02478,-1.8878e-05,-0.00010341,-8.2133e-05,-9.3927e-05,0.00028893,0.049633,-0.014844,-0.015063,-0.00042709,-0.00048842,0.0015024,0,0,0,0.024784,4.2725e-05,-0.00016895,0.012476,0.0082192,0.024848,7.8774e-07,0.85,1,0.15
0.045069,-0.0077007,0.0057093,0.024653,-3.8233e-05,-0.00016605,-5.4443e-05,-0.00015214,0.00021506,0.049429,-0.014769,-0.015101,-0.0002831,-0.00079114,0.0011183,0,0,0,0.024655,6.5524e-05,-0.00027212,0.012464,0.0081496,0.024761,7.7923e-07,0.9,1,0.15
0.047536,-0.0077665,0.0057753,0.024577,-5.3724e-05,-0.00020977,-4.7998e-05,-0.00018468,0.00013564,0.049313,-0.014728,-0.015134,-0.00024959,-0.00096034,0.00070532,0,0,0,0.024578,7.295e-05,-0.00033746,0.012458,0.0081047,0.024714,7.7459e-07,0.95,1,0.15
0.048769,-0.0077889,0.005798,0.024553,-5.9588e-05,-0.00022541,-5.6355e-05,-0.00019492,0.00010264,0.049276,-0.014716,-0.015147,-0.00029304,-0.0010136,0.0005337,0,0,0,0.024553,7.3987e-05,-0.00035961,0.012456,0.0080892,0.024699,7.7318e-07,1,1,0.15
0.0013484,0.0012016,0.00044434,0.032726,0.0088368,0.011451,0.0068088,7.9451e-06,0.0033219,0.053279,-0.0088328,-0.0020351,0.035406,4.1314e-05,0.017274,0,0,0,0.035281,0.01125,0.0064835,0.014399,0.017671,0.026748,9.3517e-07,0,0,0.2
0.002664,0.0021874,0.00088021,0.030333,0.0052261,0.0086711,0.0049285,2.8035e-05,0.0031551,0.052328,-0.01295,-0.0039932,0.025628,0.00014578,0.016407,0,0,0,0.032015,0.0083867,0.0038288,0.014093,0.014743,0.026224,8.6345e-07,0.05,0,0.2
0.0052328,0.0038204,0.0017182,0.026923,0.0011467,0.0046306,0.00214,7.6083e-05,0.0026998,0.050379,-0.016639,-0.0075805,0.011128,0.00039563,0.014039,0,0,0,0.027497,0.0043181,0.00088476,0.013306,0.0109,0.025099,7.6037e-07,0.1,0,0.2
0.0077019,0.0049099,0.0024634,0.025345,0.00041348,0.0025605,0.00087008,0.00012154,0.0020727,0.048905,-0.015916,-0.010334,0.0045244,0.00063202,0.010778,0,0,0,0.025591,0.0023696,0.00035863,0.012616,0.0094396,0.0243,7.1991e-07,0.15,0,0.2
0.010123,0.0056569,0.0030812,0.024572,8.4695e-05,0.0013174,0.00033516,0.00014503,0.0014253,0.048302,-0.015364,-0.012159,0.0017428,0.00075418,0.0074117,0,0,0,0.024677,0.0012434,5.3694e-05,0.012312,0.0086579,0.024055,7.0977e-07,0.2,0,0.2
0.012532,0.0061709,0.0035666,0.024282,-2.9555e-06,0.00063944,7.4483e-05,0.00014791,0.00087134,0.048183,-0.014959,-0.013289,0.00038731,0.00076915,0.004531,0,0,0,0.024321,0.00064654,-4.9031e-05,0.012185,0.0083063,0.024032,7.1159e-07,0.25,0,0.2
0.014942,0.0065207,0.0039332,0.02421,-3.3529e-05,0.00026068,-5.9538e-05,0.00013552,0.00044695,0.048284,-0.01475,-0.013985,-0.0003096,0.00070469,0.0023241,0,0,0,0.024222,0.00031674,-0.00010132,0.012162,0.0081458,0.024118,7.2037e-07,0.3,0,0.2
0.017361,0.0067517,0.0042016,0.024273,-4.2832e-05,5.7485e-05,-0.00013043,0.00011315,0.00014493,0.048538,-0.014684,-0.014423,-0.00067821,0.00058838,0.00075365,0,0,0,0.024276,0.00013903,-0.00012747,0.012202,0.008096,0.024272,7.3456e-07,0.35,0,0.2
0.019795,0.0068969,0.0043925,0.024421,-4.5961e-05,-4.1878e-05,-0.0001644,8.5084e-05,-5.5582e-05,0.048895,-0.014719,-0.014709,-0.00085488,0.00044244,-0.00028903,0,0,0,0.024423,4.5218e-05,-0.00013498,0.012279,0.0081111,0.024468,7.5261e-07,0.4,0,0.2
0.02225,0.0069823,0.0045248,0.024616,-4.7706e-05,-8.0213e-05,-0.00017303,5.4982e-05,-0.000176,0.049309,-0.014817,-0.014902,-0.00089975,0.00028591,-0.00091521,0,0,0,0.024619,-5.7504e-06,-0.00012497,0.012372,0.0081627,0.024685,7.7272e-07,0.45,0,0.2
0.024726,0.0070292,0.0046147,0.024826,-4.9349e-05,-8.5418e-05,-0.00016206,2.6375e-05,-0.00023495,0.049732,-0.014943,-0.015037,-0.00084269,0.00013715,-0.0012218,0,0,0,0.024829,-3.3746e-05,-0.00010447,0.012467,0.0082303,0.024898,7.9294e-07,0.5,0,0.2
0.027223,0.0070551,0.0046758,0.025021,-5.0211e-05,-7.6525e-05,-0.00013588,2.6677e-06,-0.00024839,0.050118,-0.015067,-0.015136,-0.00070656,1.3872e-05,-0.0012917,0,0,0,0.025024,-4.2259e-05,-8.7803e-05,0.012556,0.0082981,0.02509,8.113e-07,0.55,0,0.2
0.029738,0.0070737,0.0047187,0.02518,-4.8881e-05,-6.6458e-05,-9.9603e-05,-1.3326e-05,-0.00023043,0.05043,-0.015166,-0.015212,-0.00051794,-6.9293e-05,-0.0011982,0,0,0,0.025183,-3.5985e-05,-8.1962e-05,0.012632,0.008355,0.025242,8.2613e-07,0.6,0,0.2
0.032266,0.0070941,0.0047511,0.02529,-4.4303e-05,-6.3166e-05,-5.9459e-05,-2.0027e-05,-0.0001937,0.050644,-0.015225,-0.015274,-0.00030919,-0.00010414,-0.0010073,0,0,0,0.025292,-2.8086e-05,-8.1097e-05,0.012686,0.0083942,0.025346,8.3637e-07,0.65,0,0.2
0.034803,0.0071211,0.004778,0.025346,-3.6529e-05,-7.0229e-05,-2.1965e-05,-1.7555e-05,-0.00014913,0.050757,-0.015239,-0.015326,-0.00011422,-9.1286e-05,-0.00077548,0,0,0,0.025347,-2.5161e-05,-8.2565e-05,0.012715,0.0084132,0.025401,8.4181e-07,0.7,0,0.2
0.037342,0.0071551,0.0048021,0.025356,-2.6793e-05,-8.7485e-05,7.4283e-06,-7.7106e-06,-0.0001053,0.05078,-0.015215,-0.015372,3.8627e-05,-4.0095e-05,-0.00054758,0,0,0,0.025356,-2.2535e-05,-9.2231e-05,0.012724,0.0084138,0.025414,8.4301e-07,0.75,0,0.2
0.03988,0.0071933,0.004824,0.025331,-1.6928e-05,-0.0001119,2.5484e-05,6.5276e-06,-6.7918e-05,0.050739,-0.015165,-0.015412,0.00013252,3.3943e-05,-0.00035318,0,0,0,0.025331,-1.5138e-05,-0.00011393,0.012722,0.0084006,0.025396,8.4119e-07,0.8,0,0.2
0.042416,0.0072308,0.0048431,0.025288,-8.5599e-06,-0.00013872,3.1569e-05,2.1776e-05,-3.9637e-05,0.050664,-0.015107,-0.015445,0.00016416,0.00011323,-0.00020611,0,0,0,0.025288,-4.2858e-06,-0.00014311,0.012716,0.0083803,0.025362,8.3782e-07,0.85,0,0.2
0.044947,0.0072625,0.0048581,0.025244,-2.5852e-06,-0.00016266,2.7259e-05,3.4965e-05,-2.0441e-05,0.050587,-0.015054,-0.01547,0.00014175,0.00018182,-0.00010629,0,0,0,0.025244,5.638e-06,-0.00017094,0.012707,0.0083596,0.025327,8.343e-07,0.9,0,0.2
0.047475,0.0072836,0.0048677,0.025212,8.4559e-07,-0.00017912,2.2909e-05,4.3792e-05,-5.0288e-06,0.050531,-0.015018,-0.015486,0.00011913,0.00022772,-2.615e-05,0,0,0,0.025212,1.2083e-05,-0.00019039,0.012701,0.0083445,0.025302,8.3174e-07,0.95,0,0.2
0.048738,0.007291,0.0048711,0.0252,1.9447e-06,-0.00018497,2.3001e-05,4.6884e-05,2.9045e-06,0.05051,-0.015005,-0.015491,0.0001196,0.0002438,1.5103e-05,0,0,0,0.0252,1.4276e-05,-0.00019733,0.012699,0.008339,0.025292,8.3081e-07,1,0,0.2
0.0011946,0.0010154,0.00044275,0.029905,0.0085072,0.010503,0.0061502,1.7257e-05,0.0033056,0.048403,-0.00723,-0.0020415,0.031981,8.9738e-05,0.017189,0,0,0,0.032242,0.010314,0.0063587,0.012942,0.016305,0.024163,7.1085e-07,0,0.05,0.2
0.0024202,0.0019007,0.0008772,0.0286,0.0054903,0.0082242,0.0047711,4.3515e-05,0.0031361,0.048972,-0.011114,-0.0040059,0.024809,0.00022628,0.016308,0,0,0,0.030233,0.0079555,0.0041261,0.013054,0.014105,0.024437,7.1623e-07,0.05,0.05,0.2
0.0048972,0.0034272,0.0017126,0.026853,0.0018542,0.0048092,0.0025493,0.00010136,0.0026785,0.049707,-0.015289,-0.0076058,0.013257,0.00052706,0.013928,0,0,0,0.027518,0.0045111,0.0014868,0.013016,0.011172,0.024682,7.3396e-07,0.1,0.05,0.2
0.0073909,0.0045149,0.0024553,0.025989,0.00090459,0.0028827,0.0012561,0.00015407,0.0020545,0.049706,-0.015514,-0.010371,0.0065318,0.00080116,0.010683,0,0,0,0.026275,0.0027023,0.00079945,0.012738,0.0099254,0.024589,7.4798e-07,0.15,0.05,0.2
0.0098677,0.0052714,0.0030712,0.025324,0.00043923,0.001627,0.00056341,0.00018314,0.0014139,0.049408,-0.015292,-0.012204,0.0029297,0.0009523,0.0073522,0,0,0,0.025439,0.0015679,0.0003829,0.012528,0.00913,0.02449,7.493e-07,0.2,0.05,0.2
0.012332,0.005794,0.0035554,0.024941,0.00023545,0.0008846,0.00018747,0.00018775,0.00086755,0.049211,-0.015025,-0.013337,0.00097483,0.0009763,0.0045113,0,0,0,0.024982,0.00091336,0.00016571,0.012408,0.0086872,0.024453,7.497e-07,0.25,0.05,0.2
0.014789,0.006149,0.0039215,0.024747,0.00012821,0.00044684,-2.2656e-05,0.00017288,0.00044949,0.04915,-0.01486,-0.014032,-0.00011781,0.00089896,0.0023373,0,0,0,0.024759,0.00052678,3.6296e-05,0.012362,0.0084408,0.024482,7.5352e-07,0.3,0.05,0.2
0.017247,0.0063819,0.0041897,0.024693,6.512e-05,0.00019501,-0.00014136,0.00014433,0.00015173,0.04923,-0.014803,-0.014465,-0.00073508,0.00075052,0.00078899,0,0,0,0.024696,0.00029539,-3.8613e-05,0.012367,0.0083177,0.02457,7.6198e-07,0.35,0.05,0.2
0.019712,0.0065267,0.0043806,0.024737,2.2148e-05,5.6735e-05,-0.00020366,0.00010734,-4.6495e-05,0.049427,-0.014832,-0.014742,-0.001059,0.00055817,-0.00024177,0,0,0,0.02474,0.00015189,-7.5542e-05,0.012408,0.0082721,0.024703,7.7446e-07,0.4,0.05,0.2
0.022189,0.00661,0.004513,0.024844,-1.0967e-05,-1.2775e-05,-0.00022623,6.6813e-05,-0.00016609,0.049702,-0.014921,-0.014925,-0.0011764,0.00034743,-0.00086367,0,0,0,0.024847,5.7498e-05,-8.4853e-05,0.012466,0.0082734,0.024862,7.895e-07,0.45,0.05,0.2
0.024682,0.006654,0.0046032,0.02498,-3.7713e-05,-4.2718e-05,-0.00021791,2.7803e-05,-0.0002251,0.050008,-0.015038,-0.015051,-0.0011331,0.00014457,-0.0011705,0,0,0,0.024984,-2.3318e-06,-8.2345e-05,0.012533,0.0082998,0.025027,8.053e-07,0.5,0.05,0.2
0.02719,0.0066771,0.0046647,0.025118,-5.7567e-05,-5.2705e-05,-0.00018559,-4.6378e-06,-0.00023901,0.050301,-0.015154,-0.015141,-0.00096507,-2.4116e-05,-0.0012429,0,0,0,0.025122,-2.7416e-05,-8.6754e-05,0.012604,0.0083358,0.025179,8.1999e-07,0.55,0.05,0.2
0.029712,0.0066934,0.0047082,0.025235,-6.8358e-05,-5.5834e-05,-0.00013711,-2.623e-05,-0.00022167,0.050544,-0.015244,-0.015212,-0.00071298,-0.0001364,-0.0011527,0,0,0,0.025238,-2.7738e-05,-9.9348e-05,0.012669,0.0083703,0.025302,8.3198e-07,0.6,0.05,0.2
0.032245,0.0067126,0.0047415,0.025318,-6.8547e-05,-6.0297e-05,-8.1896e-05,-3.4518e-05,-0.00018565,0.050714,-0.015292,-0.01527,-0.00042586,-0.00017949,-0.00096539,0,0,0,0.02532,-2.456e-05,-0.00010606,0.012713,0.0083965,0.025385,8.4024e-07,0.65,0.05,0.2
0.034784,0.0067394,0.0047696,0.025363,-5.8801e-05,-7.0325e-05,-2.9728e-05,-2.9606e-05,-0.00014196,0.050803,-0.015293,-0.015323,-0.00015459,-0.00015395,-0.00073821,0,0,0,0.025363,-2.7378e-05,-0.00010268,0.012733,0.0084111,0.025429,8.4451e-07,0.7,0.05,0.2
0.037325,0.0067742,0.0047949,0.025371,-4.219e-05,-8.6896e-05,1.1281e-05,-1.4149e-05,-9.9245e-05,0.05082,-0.015255,-0.015371,5.8659e-05,-7.3575e-05,-0.00051607,0,0,0,0.025372,-2.8872e-05,-0.00010067,0.012736,0.008414,0.025436,8.4528e-07,0.75,0.05,0.2
0.039865,0.0068137,0.0048181,0.025353,-2.3076e-05,-0.00010841,3.6366e-05,7.4474e-06,-6.3159e-05,0.050785,-0.015193,-0.015415,0.0001891,3.8726e-05,-0.00032843,0,0,0,0.025354,-1.8223e-05,-0.00011352,0.012734,0.0084073,0.02542,8.4357e-07,0.8,0.05,0.2
0.042403,0.0068529,0.0048384,0.025322,-5.5101e-06,-0.00013152,4.4627e-05,3.022e-05,-3.6237e-05,0.050726,-0.015125,-0.015453,0.00023206,0.00015715,-0.00018843,0,0,0,0.025322,3.2384e-06,-0.00014043,0.012731,0.0083949,0.025391,8.4065e-07,0.85,0.05,0.2
0.044938,0.0068859,0.0048543,0.025289,7.8671e-06,-0.00015209,3.8361e-05,4.9733e-05,-1.8316e-05,0.050664,-0.015066,-0.015482,0.00019948,0.00025861,-9.5242e-05,0,0,0,0.025289,2.437e-05,-0.00016869,0.012729,0.0083815,0.025362,8.3768e-07,0.9,0.05,0.2
0.04747,0.0069079,0.0048645,0.025265,1.5967e-05,-0.00016626,2.9502e-05,6.2715e-05,-3.834e-06,0.05062,-0.015027,-0.015501,0.00015341,0.00032612,-1.9937e-05,0,0,0,0.025265,3.8153e-05,-0.00018849,0.012727,0.0083715,0.025341,8.3555e-07,0.95,0.05,0.2
0.048735,0.0069156,0.004868,0.025256,1.8647e-05,-0.0001713,2.6958e-05,6.7249e-05,3.7701e-06,0.050603,-0.015013,-0.015507,0.00014018,0.0003497,1.9604e-05,0,0,0,0.025256,4.2869e-05,-0.00019556,0.012726,0.0083677,0.025333,8.3478e-07,1,0.05,0.2
0.0010083,0.00073407,0.00044224,0.02644,0.0085713,0.0094725,0.0050775,3.5674e-05,0.003299,0.042054,-0.004405,-0.0020618,0.026403,0.00018551,0.017155,0,0,0,0.028407,0.0093241,0.0067524,0.010827,0.014828,0.0205,4.2745e-07,0,0.1,0.2
0.0021027,0.0014369,0.0008765,0.026329,0.0064073,0.0077964,0.0044357,7.4394e-05,0.0031279,0.044135,-0.0076605,-0.0040488,0.023065,0.00038685,0.016265,0,0,0,0.027865,0.0075746,0.0050929,0.011386,0.013511,0.021652,5.1014e-07,0.05,0.1,0.2
0.0044135,0.0027302,0.0017116,0.026458,0.0032936,0.0050784,0.0031148,0.00015152,0.0026678,0.047892,-0.012334,-0.0076939,0.016197,0.00078791,0.013873,0,0,0,0.027272,0.0048169,0.0027405,0.012266,0.01161,0.023579,6.6112e-07,0.1,0.1,0.2
0.0068919,0.0037593,0.002454,0.026601,0.0018568,0.0032891,0.0018994,0.00021742,0.0020433,0.050114,-0.01422,-0.010496,0.0098771,0.0011306,0.010625,0,0,0,0.026971,0.0031337,0.0016424,0.012664,0.010582,0.024625,7.5771e-07,0.15,0.1,0.2
0.009425,0.0045104,0.0030689,0.026306,0.0011029,0.002048,0.0010137,0.00025671,0.0014046,0.050722,-0.014807,-0.01235,0.0052713,0.0013349,0.0073041,0,0,0,0.026452,0.0020316,0.00097347,0.012739,0.0098191,0.02497,7.9458e-07,0.2,0.1,0.2
0.011964,0.0050395,0.0035514,0.025926,0.00068011,0.0012398,0.00044558,0.00026525,0.00086181,0.050701,-0.014939,-0.013484,0.002317,0.0013793,0.0044814,0,0,0,0.025976,0.00133,0.0005408,0.012717,0.0092821,0.02505,8.0484e-07,0.25,0.1,0.2
0.014495,0.0054004,0.0039152,0.025613,0.00042569,0.00072818,9.0831e-05,0.00024644,0.0004471,0.050533,-0.014953,-0.014167,0.00047232,0.0012815,0.0023249,0,0,0,0.025626,0.00087245,0.00026813,0.012679,0.0089223,0.025062,8.0718e-07,0.3,0.1,0.2
0.017017,0.0056359,0.0041807,0.025405,0.00025928,0.00040976,-0.00012725,0.00020623,0.00015145,0.050409,-0.01497,-0.014579,-0.00066171,0.0010724,0.00078754,0,0,0,0.025409,0.00056043,0.000105,0.012652,0.0086914,0.025079,8.0957e-07,0.35,0.1,0.2
0.019536,0.0057794,0.0043685,0.025296,0.00013932,0.00021523,-0.00025317,0.00015119,-4.5894e-05,0.05038,-0.015028,-0.014831,-0.0013165,0.00078618,-0.00023865,0,0,0,0.0253,0.0003349,1.6191e-05,0.012642,0.0085503,0.025126,8.1453e-07,0.4,0.1,0.2
0.022055,0.0058588,0.0044976,0.025264,4.4826e-05,9.8935e-05,-0.00031083,8.8603e-05,-0.000165,0.050442,-0.015128,-0.014987,-0.0016163,0.00046074,-0.00085802,0,0,0,0.025269,0.00016674,-2.824e-05,0.012649,0.0084693,0.025201,8.2208e-07,0.45,0.1,0.2
0.02458,0.0058974,0.0045847,0.025282,-3.192e-05,3.0732e-05,-0.00031403,2.6889e-05,-0.00022281,0.050564,-0.015251,-0.015088,-0.001633,0.00013982,-0.0011586,0,0,0,0.025288,5.6047e-05,-6.3315e-05,0.012675,0.0084268,0.025292,8.3106e-07,0.5,0.1,0.2
0.027112,0.0059151,0.004644,0.025324,-8.9982e-05,-9.1838e-06,-0.00027409,-2.4921e-05,-0.00023407,0.050707,-0.015369,-0.015159,-0.0014253,-0.00012959,-0.0012172,0,0,0,0.025329,7.6633e-06,-0.00011216,0.012721,0.0084081,0.025381,8.3989e-07,0.55,0.1,0.2
0.029651,0.0059273,0.0046866,0.025369,-0.00012463,-3.3636e-05,-0.00020433,-5.8827e-05,-0.0002127,0.050834,-0.015451,-0.015214,-0.0010625,-0.0003059,-0.001106,0,0,0,0.025373,-2.6263e-06,-0.00015929,0.012766,0.0084037,0.025454,8.4706e-07,0.6,0.1,0.2
0.032195,0.0059446,0.0047208,0.025405,-0.00013257,-5.0821e-05,-0.00012102,-7.0058e-05,-0.00017223,0.050919,-0.015477,-0.015265,-0.0006293,-0.0003643,-0.00089561,0,0,0,0.025407,-8.6478e-06,-0.0001767,0.012792,0.0084071,0.0255,8.5154e-07,0.65,0.1,0.2
0.034743,0.0059721,0.0047513,0.025422,-0.00011568,-6.5896e-05,-4.1099e-05,-5.863e-05,-0.00012501,0.050954,-0.015445,-0.015316,-0.00021372,-0.00030488,-0.00065006,0,0,0,0.025423,-2.3318e-05,-0.00015911,0.012791,0.0084136,0.025515,8.5307e-07,0.7,0.1,0.2
0.037291,0.0060094,0.0047804,0.025422,-8.1492e-05,-8.1768e-05,2.1568e-05,-2.9343e-05,-8.0791e-05,0.050943,-0.015367,-0.015368,0.00011215,-0.00015259,-0.00042011,0,0,0,0.025423,-3.6785e-05,-0.00012686,0.012775,0.0084197,0.025505,8.5211e-07,0.75,0.1,0.2
0.039837,0.0060527,0.0048079,0.02541,-4.0476e-05,-9.9277e-05,5.9149e-05,9.8501e-06,-4.5622e-05,0.050903,-0.015267,-0.01542,0.00030758,5.122e-05,-0.00023723,0,0,0,0.02541,-2.4023e-05,-0.00011601,0.012763,0.0084233,0.02548,8.4961e-07,0.8,0.1,0.2
0.042381,0.0060957,0.0048322,0.02539,-2.237e-06,-0.00011734,7.0521e-05,5.0209e-05,-2.1699e-05,0.050853,-0.015168,-0.015468,0.00036671,0.00026109,-0.00011283,0,0,0,0.025391,1.9376e-05,-0.0001392,0.012765,0.0084236,0.025451,8.4663e-07,0.85,0.1,0.2
0.044922,0.006132,0.0048515,0.025372,2.7032e-05,-0.00013345,5.9756e-05,8.4211e-05,-8.1259e-06,0.050808,-0.015089,-0.015506,0.00031073,0.0004379,-4.2255e-05,0,0,0,0.025372,6.5775e-05,-0.00017237,0.012772,0.0084218,0.025426,8.4401e-07,0.9,0.1,0.2
0.047462,0.0061561,0.0048639,0.025359,4.4786e-05,-0.00014468,4.2112e-05,0.00010657,2.11e-06,0.050778,-0.015039,-0.015531,0.00021898,0.00055416,1.0972e-05,0,0,0,0.025359,9.5472e-05,-0.00019545,0.012777,0.0084196,0.02541,8.4228e-07,0.95,0.1,0.2
0.048731,0.0061645,0.0048682,0.025354,5.0664e-05,-0.00014872,3.4625e-05,0.00011433,7.8778e-06,0.050767,-0.015022,-0.01554,0.00018005,0.00059452,4.0965e-05,0,0,0,0.025354,0.00010556,-0.00020367,0.012779,0.0084187,0.025405,8.4169e-07,1,0.1,0.2
0.00096119,0.00057492,0.00044637,0.025485,0.0090786,0.0093232,0.0042336,4.9759e-05,0.0033335,0.039929,-0.0027278,-0.0020919,0.022015,0.00025875,0.017334,0,0,0,0.027148,0.0092364,0.0075029,0.0098223,0.014629,0.018842,3.3926e-07,0,0.15,0.2
0.0019965,0.0011347,0.00088475,0.02553,0.0073773,0.0078157,0.0039229,9.7852e-05,0.0031639,0.041944,-0.0052528,-0.0041129,0.020399,0.00050883,0.016452,0,0,0,0.026916,0.0076776,0.0061292,0.010394,0.013574,0.020065,4.1774e-07,0.05,0.15,0.2
0.0041944,0.0021937,0.0017277,0.025954,0.0045703,0.0052444,0.0031388,0.00018837,0.0027028,0.04602,-0.0095787,-0.0078259,0.016322,0.00097954,0.014055,0,0,0,0.026805,0.005078,0.0038858,0.01146,0.011923,0.022355,5.7756e-07,0.1,0.15,0.2
0.0065984,0.0030929,0.0024762,0.02648,0.0028139,0.0034461,0.0021917,0.00026181,0.0020699,0.049203,-0.012328,-0.010684,0.011397,0.0013614,0.010764,0,0,0,0.026906,0.0033813,0.0024517,0.012227,0.010913,0.024008,7.1044e-07,0.15,0.15,0.2
0.0091147,0.0037907,0.0030942,0.026574,0.0017752,0.0022228,0.0013438,0.00030769,0.0014184,0.050749,-0.013728,-0.012564,0.0069876,0.0016,0.0073757,0,0,0,0.026754,0.0023128,0.0015056,0.012624,0.010191,0.024856,7.8669e-07,0.2,0.15,0.2
0.011673,0.0043001,0.0035764,0.026392,0.0011438,0.0014124,0.00070305,0.00032044,0.0008629,0.05125,-0.014395,-0.013697,0.0036559,0.0016663,0.0044871,0,0,0,0.026454,0.0016174,0.00087648,0.012789,0.0096493,0.025216,8.2121e-07,0.25,0.15,0.2
0.01424,0.0046536,0.0039367,0.026127,0.00073993,0.00088181,0.0002547,0.0003006,0.0004374,0.051282,-0.014726,-0.014357,0.0013244,0.0015631,0.0022745,0,0,0,0.026144,0.0011292,0.00047603,0.012834,0.0092497,0.025348,8.3463e-07,0.3,0.15,0.2
0.016801,0.0048849,0.0041957,0.025889,0.00046493,0.00053844,-4.6399e-05,0.00025219,0.00013303,0.051176,-0.014927,-0.014735,-0.00024127,0.0013114,0.00069173,0,0,0,0.025893,0.00076484,0.00023486,0.012829,0.0089641,0.025397,8.4019e-07,0.35,0.15,0.2
0.019357,0.0050238,0.0043751,0.025715,0.0002612,0.00031803,-0.00023624,0.00018132,-7.0684e-05,0.051083,-0.015097,-0.01495,-0.0012284,0.00094288,-0.00036755,0,0,0,0.025719,0.00047619,9.9483e-05,0.01281,0.0087648,0.025433,8.444e-07,0.4,0.15,0.2
0.02191,0.0050972,0.0044947,0.025608,9.7146e-05,0.00017679,-0.00033696,9.6757e-05,-0.00019263,0.051051,-0.015276,-0.015069,-0.0017522,0.00050314,-0.0010017,0,0,0,0.025614,0.00025059,1.7068e-05,0.012799,0.0086273,0.025481,8.4964e-07,0.45,0.15,0.2
0.024462,0.0051289,0.0045726,0.025554,-3.8901e-05,8.5598e-05,-0.0003623,1.0515e-05,-0.00024821,0.05108,-0.015462,-0.015138,-0.001884,5.468e-05,-0.0012907,0,0,0,0.025562,0.00010878,-6.9747e-05,0.012816,0.0085335,0.025543,8.5591e-07,0.5,0.15,0.2
0.027018,0.0051403,0.0046242,0.025534,-0.00014385,2.5991e-05,-0.00032508,-6.3037e-05,-0.00025143,0.051139,-0.015624,-0.015182,-0.0016904,-0.00032779,-0.0013075,0,0,0,0.025541,5.2741e-05,-0.00017733,0.012859,0.0084721,0.025604,8.6197e-07,0.55,0.15,0.2
0.029576,0.0051484,0.0046624,0.02553,-0.00020771,-1.3177e-05,-0.00024286,-0.00011033,-0.00021728,0.051192,-0.015725,-0.01522,-0.0012628,-0.00057373,-0.0011299,0,0,0,0.025534,3.7701e-05,-0.00026298,0.012899,0.0084363,0.025648,8.6624e-07,0.6,0.15,0.2
0.032137,0.0051649,0.0046959,0.025527,-0.00022344,-3.9008e-05,-0.00013889,-0.0001229,-0.00016223,0.051211,-0.015739,-0.01526,-0.00072221,-0.00063908,-0.00084361,0,0,0,0.025529,2.313e-05,-0.00028766,0.012908,0.0084214,0.025663,8.6763e-07,0.65,0.15,0.2
0.034697,0.0051949,0.0047297,0.025517,-0.00019429,-5.7021e-05,-3.8063e-05,-0.00010053,-0.00010241,0.051185,-0.015665,-0.015308,-0.00019793,-0.00052276,-0.00053254,0,0,0,0.025518,-3.0364e-06,-0.00024901,0.012884,0.008422,0.025645,8.6599e-07,0.7,0.15,0.2
0.037255,0.0052374,0.004765,0.025501,-0.00013462,-7.1929e-05,3.9569e-05,-5.1302e-05,-5.0602e-05,0.051126,-0.015527,-0.015364,0.00020576,-0.00026677,-0.00026313,0,0,0,0.025501,-3.2577e-05,-0.00017431,0.012838,0.0084315,0.025605,8.6214e-07,0.75,0.15,0.2
0.03981,0.005287,0.0048003,0.025481,-6.4091e-05,-8.69e-05,8.3608e-05,1.1614e-05,-1.4011e-05,0.051053,-0.015365,-0.015424,0.00043476,6.0394e-05,-7.2856e-05,0,0,0,0.025482,-2.4076e-05,-0.00012728,0.012805,0.0084435,0.025558,8.5738e-07,0.8,0.15,0.2
0.042361,0.005336,0.0048324,0.025463,6.6929e-08,-0.00010261,9.3836e-05,7.4386e-05,5.8951e-06,0.050987,-0.015216,-0.015483,0.00048795,0.00038681,3.0654e-05,0,0,0,0.025463,4.2066e-05,-0.000145,0.012804,0.0084535,0.025515,8.53e-07,0.85,0.15,0.2
0.044909,0.005377,0.0048582,0.025449,4.7782e-05,-0.00011729,7.7038e-05,0.00012593,1.1775e-05,0.05094,-0.015103,-0.015533,0.0004006,0.00065482,6.1227e-05,0,0,0,0.025449,0.00011813,-0.00018792,0.012819,0.0084598,0.025486,8.4976e-07,0.9,0.15,0.2
0.047455,0.005404,0.0048747,0.025441,7.597e-05,-0.00012791,5.2027e-05,0.00015917,1.384e-05,0.050913,-0.015036,-0.015566,0.00027054,0.0008277,7.197e-05,0,0,0,0.025441,0.00016555,-0.00021763,0.012829,0.0084629,0.025469,8.4788e-07,0.95,0.15,0.2
0.048728,0.0054134,0.0048805,0.025438,8.5151e-05,-0.0001318,4.1029e-05,0.0001706,1.5954e-05,0.050904,-0.015013,-0.015578,0.00021335,0.0008871,8.2962e-05,0,0,0,0.025438,0.00018142,-0.00022816,0.012833,0.0084638,0.025464,8.4728e-07,1,0.15,0.2
0.00094039,0.00046128,0.00045356,0.025031,0.0092518,0.0092234,0.0034495,5.6644e-05,0.003391,0.038977,-0.0020492,-0.0021229,0.017938,0.00029455,0.017633,0,0,0,0.026431,0.0092147,0.0078604,0.0092854,0.014502,0.017935,2.9464e-07,0,0.2,0.2
0.0019489,0.00091157,0.00089863,0.025142,0.0078668,0.0078138,0.0032756,0.00010891,0.0032219,0.040875,-0.0040399,-0.0041776,0.017033,0.00056632,0.016754,0,0,0,0.02634,0.0078148,0.0066674,0.0098365,0.013608,0.01913,3.6484e-07,0.05,0.2,0.2
0.0040875,0.0017724,0.0017538,0.025673,0.0054548,0.0053594,0.002799,0.00020455,0.0027584,0.044858,-0.00771,-0.0079579,0.014555,0.0010636,0.014344,0,0,0,0.026462,0.0054207,0.0046049,0.010928,0.012162,0.021464,5.1527e-07,0.1,0.2,0.2
0.0064346,0.0025266,0.0025117,0.026324,0.0036943,0.0035692,0.002141,0.00028006,0.0021159,0.04829,-0.010547,-0.010873,0.011133,0.0014563,0.011003,0,0,0,0.026755,0.0037599,0.0030728,0.011841,0.011196,0.023348,6.5676e-07,0.15,0.2,0.2
0.0089165,0.0031376,0.0031352,0.026603,0.0024749,0.0023316,0.0014592,0.00032933,0.0014492,0.050322,-0.012411,-0.012783,0.0075879,0.0017125,0.0075356,0,0,0,0.0268,0.0026628,0.0019468,0.012426,0.01047,0.024504,7.5523e-07,0.2,0.2,0.2
0.011467,0.0036,0.0036183,0.026585,0.0016637,0.0015156,0.00086967,0.00034643,0.00087601,0.051262,-0.013533,-0.013918,0.0045223,0.0018014,0.0045552,0,0,0,0.026659,0.0019261,0.0011792,0.01274,0.0099213,0.025115,8.116e-07,0.25,0.2,0.2
0.014043,0.0039279,0.0039746,0.02641,0.0011137,0.00097871,0.00040813,0.00032866,0.00043304,0.051564,-0.014206,-0.014557,0.0021223,0.001709,0.0022518,0,0,0,0.026431,0.0013874,0.00068408,0.012873,0.0095007,0.025402,8.3975e-07,0.3,0.2,0.2
0.016623,0.0041432,0.0042254,0.026196,0.00072393,0.00062582,6.7859e-05,0.00027619,0.00011256,0.051581,-0.014645,-0.0149,0.00035286,0.0014362,0.0005853,0,0,0,0.0262,0.00096449,0.00038103,0.012909,0.0091818,0.025532,8.5333e-07,0.35,0.2,0.2
0.019201,0.0042697,0.0043928,0.026006,0.00042614,0.00039281,-0.00016699,0.00019237,-0.00010452,0.05152,-0.014987,-0.015074,-0.00086833,0.0010003,-0.00054352,0,0,0,0.026009,0.00060879,0.00020704,0.012901,0.0089416,0.025604,8.613e-07,0.4,0.2,0.2
0.021775,0.0043311,0.0044982,0.025864,0.00017929,0.00023603,-0.00030737,8.5704e-05,-0.00023458,0.051478,-0.015301,-0.015154,-0.0015983,0.00044566,-0.0012198,0,0,0,0.02587,0.00032613,8.28e-05,0.012894,0.0087596,0.025667,8.682e-07,0.45,0.2,0.2
0.024349,0.0043512,0.0045615,0.02577,-3.1666e-05,0.00012724,-0.00035969,-2.8203e-05,-0.0002899,0.051482,-0.015601,-0.015188,-0.0018704,-0.00014665,-0.0015075,0,0,0,0.025778,0.00016312,-7.5974e-05,0.012927,0.0086217,0.025736,8.7524e-07,0.5,0.2,0.2
0.026923,0.0043527,0.004601,0.025712,-0.00019899,5.0453e-05,-0.00033298,-0.00012769,-0.00028274,0.051513,-0.015855,-0.015207,-0.0017315,-0.00066396,-0.0014702,0,0,0,0.025719,0.00010869,-0.00026476,0.012992,0.0085211,0.0258,8.8138e-07,0.55,0.2,0.2
0.0295,0.0043548,0.0046316,0.025674,-0.00030322,-1.8604e-06,-0.00024615,-0.00019051,-0.00022959,0.051531,-0.01601,-0.015226,-0.00128,-0.00099064,-0.0011939,0,0,0,0.025679,9.206e-05,-0.00040186,0.01304,0.0084563,0.025838,8.8479e-07,0.6,0.2,0.2
0.032076,0.0043707,0.0046638,0.025643,-0.00033032,-3.4013e-05,-0.00012908,-0.00020211,-0.00015198,0.051504,-0.016026,-0.015256,-0.00067124,-0.001051,-0.00079029,0,0,0,0.025645,6.9603e-05,-0.00043592,0.01304,0.0084262,0.025832,8.8417e-07,0.65,0.2,0.2
0.03465,0.0044056,0.0047025,0.025612,-0.00028514,-5.1585e-05,-1.5519e-05,-0.00016195,-7.2644e-05,0.051426,-0.015906,-0.015299,-8.07e-05,-0.00084212,-0.00037775,0,0,0,0.025612,3.1995e-05,-0.00036931,0.012991,0.008425,0.025784,8.7961e-07,0.7,0.2,0.2
0.037219,0.0044568,0.0047474,0.025581,-0.00019255,-6.2179e-05,6.7993e-05,-8.3519e-05,-9.4732e-06,0.051316,-0.015697,-0.015358,0.00035357,-0.0004343,-4.9261e-05,0,0,0,0.025582,-1.4194e-05,-0.00024094,0.012911,0.0084422,0.02571,8.7261e-07,0.75,0.2,0.2
0.039782,0.0045162,0.0047946,0.025556,-8.5937e-05,-7.258e-05,0.00010971,1.179e-05,2.8764e-05,0.051207,-0.015462,-0.015427,0.00057048,6.131e-05,0.00014957,0,0,0,0.025556,-1.1148e-05,-0.00014798,0.012852,0.0084658,0.025636,8.6527e-07,0.8,0.2,0.2
0.04234,0.0045741,0.0048385,0.025539,7.3595e-06,-8.5702e-05,0.00011251,0.000103,4.2403e-05,0.051125,-0.015257,-0.015499,0.00058505,0.00053559,0.0002205,0,0,0,0.025539,7.8262e-05,-0.00015723,0.012848,0.0084868,0.02558,8.5935e-07,0.85,0.2,0.2
0.044894,0.0046216,0.0048737,0.025531,7.3701e-05,-9.9966e-05,8.7557e-05,0.00017514,3.7413e-05,0.051077,-0.015111,-0.015563,0.0004553,0.00091071,0.00019455,0,0,0,0.025531,0.0001851,-0.00021177,0.012871,0.0085015,0.025547,8.5559e-07,0.9,0.2,0.2
0.047447,0.0046525,0.0048965,0.025528,0.00011127,-0.0001112,5.7514e-05,0.00022032,2.8889e-05,0.051057,-0.015028,-0.015606,0.00029907,0.0011456,0.00015022,0,0,0,0.025529,0.00024994,-0.00025007,0.012889,0.0085095,0.025533,8.5374e-07,0.95,0.2,0.2
0.048724,0.0046632,0.0049043,0.025528,0.00012318,-0.00011546,4.5234e-05,0.00023558,2.6564e-05,0.051052,-0.015001,-0.015622,0.00023522,0.001225,0.00013813,0,0,0,0.025528,0.00027118,-0.00026358,0.012896,0.008512,0.025529,8.5322e-07,1,0.2,0.2
0.0009318,0.00037001,0.00046232,0.024835,0.0093558,0.0091823,0.0027888,5.8869e-05,0.0034599,0.038548,-0.001699,-0.0021502,0.014502,0.00030612,0.017992,0,0,0,0.026046,0.0092661,0.008061,0.0089927,0.014458,0.017417,2.7034e-07,0,0.25,0.2
0.0019274,0.00073071,0.00091539,0.024964,0.0081491,0.0078168,0.0026798,0.00011225,0.0032909,0.040349,-0.0033705,-0.0042345,0.013935,0.0005837,0.017112,0,0,0,0.026011,0.0080032,0.0069158,0.0095477,0.013643,0.018579,3.3407e-07,0.05,0.25,0.2
0.0040349,0.0014227,0.001785,0.025527,0.0060127,0.0054247,0.0023711,0.00020896,0.0028248,0.044191,-0.0065455,-0.0080743,0.01233,0.0010866,0.014689,0,0,0,0.026236,0.0058256,0.0049028,0.010666,0.012321,0.020891,4.7414e-07,0.1,0.25,0.2
0.0063465,0.0020381,0.002554,0.026226,0.0043491,0.0036523,0.0019199,0.00028521,0.0021746,0.047651,-0.0092288,-0.011041,0.0099833,0.0014831,0.011308,0,0,0,0.026631,0.0042427,0.0033536,0.011639,0.011409,0.02285,6.1444e-07,0.15,0.25,0.2
0.0088001,0.0025496,0.0031845,0.02659,0.0030778,0.0024098,0.0014131,0.00033773,0.0014952,0.049888,-0.011244,-0.012981,0.0073479,0.0017562,0.0077748,0,0,0,0.026787,0.0031034,0.002187,0.0123,0.010693,0.024158,7.2245e-07,0.2,0.25,0.2
0.011335,0.0029468,0.0036696,0.026666,0.002156,0.001587,0.00092985,0.0003605,0.0009055,0.051086,-0.01264,-0.014119,0.0048352,0.0018746,0.0047086,0,0,0,0.026746,0.0022872,0.0013756,0.012685,0.010136,0.024928,7.9257e-07,0.25,0.25,0.2
0.013909,0.0032331,0.0040223,0.026561,0.001494,0.001047,0.00051324,0.00034756,0.00044352,0.051597,-0.013577,-0.014739,0.0026689,0.0018073,0.0023063,0,0,0,0.026586,0.0016758,0.00083994,0.012873,0.0097006,0.025339,8.3258e-07,0.3,0.25,0.2
0.016495,0.0034204,0.0042637,0.026378,0.0010058,0.00069128,0.00017638,0.00029392,0.00010252,0.051738,-0.01423,-0.015048,0.00091719,0.0015284,0.00053309,0,0,0,0.026384,0.0011859,0.00050557,0.012939,0.0093584,0.025545,8.5405e-07,0.35,0.25,0.2
0.019083,0.0035251,0.0044165,0.026189,0.00062066,0.00045201,-7.884e-05,0.0001977,-0.00013462,0.051734,-0.014743,-0.015182,-0.00040997,0.001028,-0.00070002,0,0,0,0.026192,0.00075721,0.0003125,0.012939,0.0090871,0.02566,8.6675e-07,0.4,0.25,0.2
0.021668,0.003567,0.0045034,0.026028,0.00029047,0.00028295,-0.00024891,6.4816e-05,-0.00027997,0.051713,-0.015206,-0.015225,-0.0012943,0.00033704,-0.0014558,0,0,0,0.026035,0.00041273,0.00015445,0.01294,0.0088672,0.025752,8.7682e-07,0.45,0.25,0.2
0.024254,0.0035688,0.0045469,0.025909,-2.614e-06,0.00015579,-0.00032747,-8.5784e-05,-0.00033995,0.051727,-0.015644,-0.015233,-0.0017028,-0.00044608,-0.0017677,0,0,0,0.025918,0.00023015,-8.5777e-05,0.013002,0.0086876,0.025848,8.8644e-07,0.5,0.25,0.2
0.026841,0.0035547,0.0045692,0.025827,-0.00024362,5.8603e-05,-0.00031423,-0.00022183,-0.00032264,0.051765,-0.016019,-0.015233,-0.001634,-0.0011535,-0.0016778,0,0,0,0.025835,0.00018029,-0.0003733,0.013104,0.0085473,0.025937,8.9456e-07,0.55,0.25,0.2
0.02943,0.0035474,0.0045892,0.025768,-0.0003979,-9.0768e-06,-0.00022613,-0.00030692,-0.00024584,0.05178,-0.016251,-0.01524,-0.0011759,-0.001596,-0.0012784,0,0,0,0.025772,0.00016311,-0.00057485,0.013174,0.0084536,0.025987,8.9873e-07,0.6,0.25,0.2
0.032019,0.0035623,0.0046199,0.025719,-0.00043937,-4.5794e-05,-9.9599e-05,-0.00031617,-0.00013864,0.05173,-0.016283,-0.01526,-0.00051791,-0.0016441,-0.00072092,0,0,0,0.025721,0.00013254,-0.00061946,0.01317,0.0084114,0.025973,8.9724e-07,0.65,0.25,0.2
0.034603,0.0036043,0.0046663,0.025677,-0.00037448,-5.7004e-05,2.1197e-05,-0.00024857,-3.4205e-05,0.051612,-0.016121,-0.015295,0.00011022,-0.0012926,-0.00017787,0,0,0,0.025677,8.0985e-05,-0.00051302,0.013095,0.0084151,0.025899,8.9048e-07,0.7,0.25,0.2
0.03718,0.0036678,0.0047258,0.025642,-0.00024346,-5.582e-05,0.00010257,-0.00012715,4.1887e-05,0.051464,-0.015839,-0.015351,0.00053338,-0.00066117,0.00021781,0,0,0,0.025643,1.6963e-05,-0.00031696,0.01298,0.0084477,0.025795,8.809e-07,0.75,0.25,0.2
0.03975,0.0037408,0.0047903,0.025622,-9.8727e-05,-5.5857e-05,0.0001333,1.305e-05,7.9438e-05,0.051337,-0.015537,-0.015426,0.00069316,6.7862e-05,0.00041308,0,0,0,0.025623,1.7295e-05,-0.00017292,0.012898,0.0084891,0.025702,8.7177e-07,0.8,0.25,0.2
0.042314,0.0038103,0.0048506,0.025618,2.0843e-05,-6.3795e-05,0.00012255,0.00014049,8.2863e-05,0.051261,-0.015291,-0.015511,0.00063726,0.00073055,0.00043089,0,0,0,0.025619,0.00013195,-0.00017583,0.012897,0.0085249,0.025643,8.6543e-07,0.85,0.25,0.2
0.044876,0.0038659,0.0048989,0.025626,0.00010022,-7.7656e-05,8.8092e-05,0.00023632,6.3912e-05,0.051238,-0.015128,-0.015591,0.00045808,0.0012288,0.00033234,0,0,0,0.025626,0.00026741,-0.00024539,0.012936,0.0085494,0.025619,8.6238e-07,0.9,0.25,0.2
0.047438,0.0039012,0.0049297,0.025636,0.00014212,-9.0493e-05,5.6603e-05,0.00029387,4.4238e-05,0.051242,-0.015043,-0.015648,0.00029434,0.0015281,0.00023004,0,0,0,0.025637,0.000346,-0.00029461,0.012966,0.0085626,0.025617,8.6154e-07,0.95,0.25,0.2
0.048719,0.0039133,0.0049403,0.025641,0.00015477,-9.565e-05,4.5948e-05,0.00031285,3.7994e-05,0.051247,-0.015018,-0.015669,0.00023893,0.0016268,0.00019757,0,0,0,0.025641,0.00037086,-0.00031188,0.012977,0.0085667,0.025619,8.6148e-07,1,0.25,0.2
0.00092917,0.00029138,0.0004717,0.024781,0.0094377,0.0091792,0.0022064,5.8521e-05,0.0035336,0.038393,-0.0015009,-0.002173,0.011474,0.00030431,0.018375,0,0,0,0.025859,0.0093531,0.0081859,0.0088366,0.014466,0.017122,2.5676e-07,0,0.3,0.2
0.0019196,0.00057452,0.00093328,0.024916,0.0083342,0.0078339,0.0021358,0.00011122,0.0033648,0.040131,-0.0029813,-0.0042823,0.011106,0.00057834,0.017497,0,0,0,0.02585,0.0082018,0.0070322,0.0094088,0.013695,0.018264,3.1634e-07,0.05,0.3,0.2
0.0040131,0.0011178,0.0018183,0.025485,0.0063717,0.0054708,0.0019328,0.00020665,0.0028979,0.043864,-0.0058301,-0.0081724,0.010051,0.0010746,0.015069,0,0,0,0.026123,0.0062055,0.0049984,0.010563,0.012442,0.020553,4.4899e-07,0.1,0.3,0.2
0.0063061,0.0016037,0.0025993,0.026201,0.0048007,0.0037092,0.0016291,0.00028324,0.0022438,0.047296,-0.0083446,-0.011182,0.0084713,0.0014728,0.011668,0,0,0,0.026573,0.0046956,0.0034418,0.011566,0.01157,0.022535,5.8631e-07,0.15,0.3,0.2
0.0087426,0.0020132,0.0032378,0.026605,0.0035351,0.0024678,0.0012727,0.00033994,0.0015574,0.049608,-0.010373,-0.013148,0.006618,0.0017677,0.0080983,0,0,0,0.026793,0.0035269,0.0022876,0.012253,0.010869,0.023913,6.9789e-07,0.2,0.3,0.2
0.011267,0.002336,0.0037259,0.026729,0.0025634,0.0016441,0.00090902,0.00037075,0.00095651,0.050933,-0.011897,-0.014287,0.0047269,0.0019279,0.0049739,0,0,0,0.026811,0.002643,0.0014828,0.012664,0.010312,0.024769,7.7532e-07,0.25,0.3,0.2
0.013836,0.0025702,0.0040758,0.026661,0.0018326,0.0011058,0.00056878,0.00036652,0.00047853,0.05156,-0.012995,-0.014885,0.0029577,0.0019059,0.0024884,0,0,0,0.02669,0.0019677,0.00094188,0.012874,0.0098665,0.025252,8.2245e-07,0.3,0.3,0.2
0.016423,0.0027202,0.0043076,0.026494,0.0012755,0.00075194,0.00026742,0.00031588,0.00011614,0.051772,-0.013797,-0.015158,0.0013906,0.0016426,0.00060391,0,0,0,0.026502,0.0014214,0.00059852,0.012952,0.0095072,0.025502,8.4876e-07,0.35,0.3,0.2
0.019013,0.0027954,0.0044436,0.026296,0.00082359,0.00050904,1.5328e-05,0.00020879,-0.00014633,0.051793,-0.014436,-0.015254,7.9707e-05,0.0010857,-0.00076089,0,0,0,0.026299,0.00093006,0.00039931,0.01295,0.0092096,0.02564,8.6422e-07,0.4,0.3,0.2
0.021602,0.0028105,0.0045074,0.026112,0.00042303,0.00032503,-0.00017212,4.4901e-05,-0.00031543,0.051775,-0.015016,-0.015271,-0.00089501,0.00023348,-0.0016403,0,0,0,0.026118,0.00052672,0.00021523,0.012951,0.0089533,0.025749,8.7627e-07,0.45,0.3,0.2
0.024191,0.0027868,0.004525,0.025963,5.2326e-05,0.0001706,-0.00027381,-0.0001551,-0.00038834,0.051792,-0.015576,-0.015268,-0.0014238,-0.0008065,-0.0020194,0,0,0,0.025972,0.00031955,-0.00010564,0.013039,0.0087286,0.025869,8.8803e-07,0.5,0.3,0.2
0.026781,0.0027508,0.0045239,0.025854,-0.0002649,4.1418e-05,-0.0002761,-0.00034436,-0.00036491,0.051841,-0.016067,-0.01527,-0.0014357,-0.0017906,-0.0018975,0,0,0,0.025862,0.00027108,-0.00050284,0.013182,0.0085433,0.025988,8.9829e-07,0.55,0.3,0.2
0.029375,0.0027297,0.0045293,0.025776,-0.00047358,-4.9303e-05,-0.00019115,-0.00046337,-0.00026275,0.051865,-0.016383,-0.01528,-0.00099398,-0.0024095,-0.0013663,0,0,0,0.02578,0.00025409,-0.00078168,0.013281,0.0084175,0.026061,9.0384e-07,0.6,0.3,0.2
0.031968,0.0027424,0.0045588,0.025719,-0.00053113,-8.9435e-05,-6.1038e-05,-0.0004697,-0.00012133,0.051811,-0.01644,-0.015292,-0.00031739,-0.0024424,-0.00063092,0,0,0,0.025721,0.00021409,-0.0008362,0.013278,0.0083662,0.026049,9.0249e-07,0.65,0.3,0.2
0.034556,0.0027935,0.0046174,0.025681,-0.00044534,-8.418e-05,5.9441e-05,-0.00036179,1.0888e-05,0.05168,-0.016249,-0.01531,0.00030909,-0.0018813,5.6618e-05,0,0,0,0.025682,0.00014329,-0.00067351,0.013178,0.0083838,0.025958,8.9492e-07,0.7,0.3,0.2
0.037136,0.0028729,0.0046982,0.025664,-0.00027573,-5.6826e-05,0.00012988,-0.0001793,9.7783e-05,0.051528,-0.015916,-0.015347,0.00067537,-0.00093235,0.00050847,0,0,0,0.025666,5.9203e-05,-0.00039299,0.013029,0.008444,0.025837,8.8455e-07,0.75,0.3,0.2
0.039709,0.0029625,0.0047873,0.025673,-9.805e-05,-3.428e-05,0.0001416,2.0152e-05,0.00012905,0.051426,-0.015579,-0.015414,0.0007363,0.00010479,0.00067105,0,0,0,0.025675,6.2376e-05,-0.00019623,0.012936,0.0085137,0.025743,8.758e-07,0.8,0.3,0.2
0.042278,0.003045,0.0048698,0.025705,3.7554e-05,-3.0684e-05,0.00011329,0.00019042,0.00011707,0.051406,-0.015329,-0.015507,0.00058913,0.00099018,0.00060875,0,0,0,0.025706,0.00020532,-0.0001996,0.012953,0.0085706,0.025706,8.7152e-07,0.85,0.3,0.2
0.044849,0.0031088,0.0049347,0.025747,0.00011861,-4.3029e-05,7.123e-05,0.00031035,8.2515e-05,0.051449,-0.015185,-0.015606,0.0003704,0.0016138,0.00042908,0,0,0,0.025748,0.00036347,-0.00028847,0.013018,0.0086077,0.025717,8.7157e-07,0.9,0.3,0.2
0.047423,0.0031482,0.0049754,0.025783,0.00015622,-5.8668e-05,4.5162e-05,0.00037834,5.4744e-05,0.051508,-0.015122,-0.015681,0.00023484,0.0019674,0.00028467,0,0,0,0.025783,0.00044764,-0.00035033,0.013067,0.0086269,0.025744,8.7348e-07,0.95,0.3,0.2
0.048711,0.0031614,0.0049893,0.025797,0.0001664,-6.5476e-05,4.0546e-05,0.0004,4.7321e-05,0.051534,-0.015106,-0.015709,0.00021084,0.00208,0.00024607,0,0,0,0.025797,0.00047265,-0.0003719,0.013085,0.0086327,0.025757,8.7451e-07,1,0.3,0.2
0.00093011,0.00021991,0.00048105,0.024815,0.0095076,0.0092006,0.0016717,5.6113e-05,0.0036074,0.038404,-0.0013939,-0.002192,0.0086928,0.00029179,0.018759,0,0,0,0.025801,0.0094475,0.0082742,0.0087635,0.014508,0.016973,2.4989e-07,0,0.35,0.2
0.0019202,0.00043257,0.00095109,0.024951,0.0084608,0.0078627,0.0016274,0.00010651,0.0034398,0.040108,-0.0027667,-0.0043219,0.0084627,0.00055385,0.017887,0,0,0,0.025806,0.0083701,0.007099,0.0093534,0.013758,0.018108,3.0722e-07,0.05,0.35,0.2
0.0040108,0.00083972,0.0018514,0.025523,0.0065994,0.0055101,0.0014996,0.00019822,0.0029748,0.043781,-0.0054211,-0.0082534,0.0077978,0.0010307,0.015469,0,0,0,0.026107,0.0064902,0.0050349,0.010536,0.012544,0.020388,4.3582e-07,0.1,0.35,0.2
0.0062983,0.0012037,0.0026447,0.026248,0.0050941,0.0037536,0.0013078,0.00027419,0.0023226,0.047187,-0.0078125,-0.011298,0.0068006,0.0014258,0.012078,0,0,0,0.026591,0.0050274,0.0034767,0.011557,0.011698,0.022383,5.7142e-07,0.15,0.35,0.2
0.0087295,0.0015123,0.0032919,0.026673,0.0038479,0.0025159,0.0010784,0.00033556,0.0016372,0.049527,-0.0098173,-0.013281,0.0056076,0.0017449,0.0085135,0,0,0,0.026851,0.0038465,0.0023393,0.012256,0.011012,0.023796,6.8483e-07,0.2,0.35,0.2
0.011251,0.0017571,0.0037844,0.026821,0.0028593,0.001698,0.00083225,0.00037685,0.0010344,0.050908,-0.011393,-0.014412,0.0043277,0.0019596,0.0053791,0,0,0,0.026903,0.0029254,0.0015502,0.012676,0.010459,0.024695,7.6609e-07,0.25,0.35,0.2
0.01382,0.0019336,0.0041328,0.026769,0.0020945,0.0011688,0.00058381,0.00038616,0.00054864,0.051579,-0.012573,-0.01498,0.0030358,0.002008,0.0028529,0,0,0,0.026801,0.0022141,0.0010171,0.012892,0.010011,0.025207,8.1647e-07,0.3,0.35,0.2
0.016409,0.0020407,0.0043556,0.026597,0.0015002,0.00082391,0.00034094,0.0003448,0.00016943,0.051799,-0.013452,-0.01521,0.0017729,0.0017929,0.00088101,0,0,0,0.026607,0.0016385,0.00067547,0.012966,0.0096402,0.025464,8.4382e-07,0.35,0.35,0.2
0.019,0.0020815,0.0044733,0.026369,0.0010092,0.00057933,0.0001139,0.00023149,-0.00011918,0.051785,-0.014151,-0.015268,0.00059226,0.0012038,-0.00061975,0,0,0,0.026373,0.0011108,0.00047365,0.01295,0.0093192,0.025588,8.5836e-07,0.4,0.35,0.2
0.021587,0.0020654,0.0045096,0.026135,0.00056186,0.00037129,-7.4977e-05,3.5658e-05,-0.00031816,0.05171,-0.01478,-0.015275,-0.00038988,0.00018542,-0.0016544,0,0,0,0.026141,0.00066153,0.00026579,0.012937,0.0090226,0.02568,8.6894e-07,0.45,0.35,0.2
0.024171,0.0020112,0.0044936,0.025926,0.00013292,0.00016847,-0.00019346,-0.0002241,-0.00041354,0.051672,-0.015391,-0.015299,-0.001006,-0.0011653,-0.0021504,0,0,0,0.025935,0.00042495,-0.00013223,0.013034,0.0087426,0.025795,8.7968e-07,0.5,0.35,0.2
0.026755,0.001948,0.0044606,0.025762,-0.00024638,-1.6989e-05,-0.00021517,-0.00048489,-0.00039367,0.051682,-0.01594,-0.015343,-0.0011189,-0.0025215,-0.0020471,0,0,0,0.02577,0.00037534,-0.00064682,0.013208,0.0084995,0.025924,8.8931e-07,0.55,0.35,0.2
0.029339,0.0019091,0.0044462,0.02565,-0.00050105,-0.00014528,-0.00014454,-0.00065279,-0.00027383,0.051688,-0.016305,-0.01538,-0.00075161,-0.0033945,-0.0014239,0,0,0,0.025655,0.00036345,-0.0010142,0.013334,0.0083346,0.02601,8.9462e-07,0.6,0.35,0.2
0.031923,0.0019183,0.0044749,0.025593,-0.00057468,-0.0001882,-2.5838e-05,-0.00065631,-0.00010456,0.051644,-0.016392,-0.015388,-0.00013435,-0.0034128,-0.00054371,0,0,0,0.025595,0.00031224,-0.0010765,0.013336,0.0082768,0.026007,8.9419e-07,0.65,0.35,0.2
0.034504,0.0019794,0.004552,0.025589,-0.00047609,-0.00015058,7.9722e-05,-0.00049333,4.8677e-05,0.051554,-0.016215,-0.015369,0.00041456,-0.0025653,0.00025312,0,0,0,0.02559,0.00021275,-0.00084032,0.013215,0.0083207,0.025922,8.889e-07,0.7,0.35,0.2
0.037079,0.0020762,0.0046638,0.025632,-0.00028067,-7.097e-05,0.00012833,-0.00023155,0.00013842,0.051475,-0.015898,-0.015353,0.00066732,-0.0012041,0.00071979,0,0,0,0.025633,0.00010759,-0.00046083,0.013047,0.0084267,0.025817,8.8173e-07,0.75,0.35,0.2
0.039651,0.0021829,0.0047864,0.025712,-8.6035e-05,-2.3232e-06,0.00011674,3.7544e-05,0.00015633,0.051477,-0.015598,-0.01538,0.00060706,0.00019523,0.00081294,0,0,0,0.025714,0.00012466,-0.00021474,0.012964,0.0085412,0.025761,8.7736e-07,0.8,0.35,0.2
0.042227,0.0022774,0.0048973,0.025815,4.8813e-05,2.4758e-05,7.3057e-05,0.00025168,0.00012602,0.051585,-0.015406,-0.015469,0.0003799,0.0013088,0.00065533,0,0,0,0.025816,0.0002984,-0.00022596,0.013021,0.0086294,0.025785,8.7896e-07,0.85,0.35,0.2
0.04481,0.0023474,0.004982,0.025916,0.00011614,1.5318e-05,3.0256e-05,0.0003913,7.8974e-05,0.051754,-0.015327,-0.015589,0.00015733,0.0020348,0.00041066,0,0,0,0.025917,0.00046715,-0.00033622,0.013127,0.0086826,0.025861,8.8541e-07,0.9,0.35,0.2
0.047402,0.002389,0.005034,0.025991,0.00013836,-5.9195e-06,1.9743e-05,0.00046438,5.2468e-05,0.051903,-0.015314,-0.01569,0.00010266,0.0024148,0.00027284,0,0,0,0.025991,0.00054357,-0.00041137,0.013201,0.0087079,0.025939,8.9237e-07,0.95,0.35,0.2
0.0487,0.0024027,0.0050515,0.026019,0.00014218,-1.5878e-05,2.6689e-05,0.00048641,5.0014e-05,0.051962,-0.015317,-0.015728,0.00013878,0.0025293,0.00026007,0,0,0,0.026019,0.00056345,-0.00043735,0.013228,0.008715,0.025971,8.9531e-07,1,0.35,0.2
0.0009333,0.00015199,0.00048982,0.024903,0.0095677,0.0092376,0.0011603,5.1158e-05,0.0036773,0.038523,-0.0013491,-0.0022075,0.0060334,0.00026602,0.019122,0,0,0,0.025831,0.0095334,0.0083442,0.0087434,0.01457,0.016926,2.476e-07,0,0.4,0.2
0.0019262,0.00029785,0.00096781,0.025042,0.008546,0.0078996,0.0011362,9.7069e-05,0.0035119,0.040218,-0.0026731,-0.004354,0.0059084,0.00050476,0.018262,0,0,0,0.025845,0.0084955,0.0071478,0.0093485,0.013829,0.018064,3.0423e-07,0.05,0.4,0.2
0.0040218,0.0005757,0.0018826,0.025621,0.0067327,0.0055472,0.0010668,0.00018129,0.0030523,0.043874,-0.0052355,-0.0083178,0.0055471,0.00094273,0.015872,0,0,0,0.026168,0.0066745,0.0050581,0.010555,0.012634,0.020354,4.3188e-07,0.1,0.4,0.2
0.0063136,0.00082242,0.0026877,0.026358,0.0052632,0.0037928,0.00096494,0.00025393,0.0024084,0.047282,-0.007564,-0.011387,0.0050177,0.0013204,0.012524,0,0,0,0.026681,0.0052321,0.0035013,0.01159,0.011805,0.022367,5.6804e-07,0.15,0.4,0.2
0.00875,0.0010314,0.0033442,0.026802,0.0040308,0.0025617,0.00084425,0.00031839,0.001734,0.049648,-0.0095564,-0.013376,0.0043901,0.0016556,0.0090168,0,0,0,0.026972,0.0040427,0.0023796,0.012296,0.011131,0.023806,6.8383e-07,0.2,0.4,0.2
0.011278,0.0011967,0.0038425,0.026968,0.0030368,0.0017567,0.00070929,0.00037056,0.001142,0.051059,-0.011161,-0.014489,0.0036883,0.0019269,0.0059385,0,0,0,0.02705,0.0031017,0.0016095,0.01272,0.010587,0.024729,7.6796e-07,0.25,0.4,0.2
0.013856,0.0013129,0.0041915,0.026921,0.0022586,0.001247,0.00055987,0.00039708,0.00066224,0.051738,-0.012383,-0.015014,0.0029113,0.0020648,0.0034436,0,0,0,0.026957,0.0023772,0.0010922,0.012932,0.010142,0.025247,8.1951e-07,0.3,0.4,0.2
0.016452,0.001375,0.0044069,0.026731,0.0016537,0.00092212,0.00039248,0.00037177,0.00027813,0.051917,-0.013285,-0.015187,0.0020409,0.0019332,0.0014463,0,0,0,0.026746,0.0018013,0.00076031,0.012993,0.0097691,0.025481,8.449e-07,0.35,0.4,0.2
0.019048,0.0013803,0.0045059,0.026457,0.0011539,0.00068043,0.00021229,0.00025909,-2.8788e-05,0.051813,-0.013975,-0.015206,0.0011039,0.0013472,-0.0001497,0,0,0,0.026463,0.0012686,0.00055974,0.012952,0.0094304,0.025557,8.5483e-07,0.4,0.4,0.2
0.021633,0.0013325,0.0045105,0.026135,0.00068723,0.00043391,4.4504e-05,3.6538e-05,-0.0002537,0.051598,-0.014567,-0.015226,0.00023142,0.00019,-0.0013192,0,0,0,0.026141,0.00079078,0.00032474,0.012908,0.0090854,0.025587,8.5925e-07,0.45,0.4,0.2
0.024207,0.0012477,0.0044528,0.025801,0.0002247,0.0001434,-7.0078e-05,-0.00028153,-0.00037053,0.051381,-0.015117,-0.015329,-0.00036441,-0.001464,-0.0019268,0,0,0,0.025809,0.00052136,-0.00016112,0.012985,0.008723,0.025638,8.6283e-07,0.5,0.4,0.2
0.026772,0.0011569,0.0043779,0.025514,-0.00017816,-0.00014001,-0.00010551,-0.00061709,-0.0003635,0.05122,-0.015581,-0.015482,-0.00054867,-0.0032089,-0.0018902,0,0,0,0.025522,0.00047021,-0.00079611,0.013159,0.0083987,0.025713,8.6505e-07,0.55,0.4,0.2
0.029329,0.0010992,0.0043367,0.025335,-0.00043578,-0.00032304,-7.6314e-05,-0.00083631,-0.00025874,0.051125,-0.015879,-0.015586,-0.00039683,-0.0043488,-0.0013455,0,0,0,0.025339,0.00047539,-0.0012385,0.013289,0.0081921,0.025766,8.6527e-07,0.6,0.4,0.2
0.031884,0.0011032,0.0043652,0.025282,-0.00052389,-0.00036821,-1.59e-05,-0.00083764,-0.00010866,0.0511,-0.015996,-0.015591,-8.2682e-05,-0.0043557,-0.00056503,0,0,0,0.025284,0.00041157,-0.0013056,0.013295,0.00813,0.025777,8.6625e-07,0.65,0.4,0.2
0.034439,0.001172,0.004469,0.025355,-0.00045171,-0.00028004,4.4463e-05,-0.00061841,3.3439e-05,0.051149,-0.015948,-0.015502,0.00023121,-0.0032157,0.00017388,0,0,0,0.025357,0.00026945,-0.0010032,0.01318,0.0082077,0.025752,8.6888e-07,0.7,0.4,0.2
0.036999,0.0012831,0.0046231,0.025533,-0.00026386,-0.00010551,7.0602e-05,-0.00027544,0.00011805,0.051288,-0.015784,-0.015373,0.00036713,-0.0014323,0.00061387,0,0,0,0.025535,0.00014957,-0.0005211,0.013028,0.008388,0.025731,8.7217e-07,0.75,0.4,0.2
0.039568,0.0014027,0.0047887,0.025759,-7.0253e-05,5.0157e-05,4.7062e-05,6.0425e-05,0.00012564,0.051529,-0.015626,-0.015313,0.00024472,0.00031421,0.00065332,0,0,0,0.02576,0.00020113,-0.00022297,0.012992,0.0085795,0.025775,8.7847e-07,0.8,0.4,0.2
0.042152,0.0015044,0.0049336,0.025975,4.5133e-05,0.00011793,-8.0535e-07,0.0003116,8.3692e-05,0.051852,-0.015565,-0.015376,-4.188e-06,0.0016203,0.0004352,0,0,0,0.025976,0.00040625,-0.00024441,0.01311,0.0087126,0.025902,8.9048e-07,0.85,0.4,0.2
0.044753,0.0015761,0.0050405,0.026155,8.0096e-05,0.00011046,-3.3243e-05,0.00046216,3.5928e-05,0.052196,-0.015599,-0.01552,-0.00017286,0.0024032,0.00018683,0,0,0,0.026156,0.0005669,-0.00037706,0.013267,0.008782,0.026075,9.0668e-07,0.9,0.4,0.2
0.047372,0.0016167,0.005104,0.026279,7.5535e-05,7.7607e-05,-1.8268e-05,0.00053201,2.8155e-05,0.052467,-0.015663,-0.015658,-9.4994e-05,0.0027665,0.00014641,0,0,0,0.02628,0.00061827,-0.00046552,0.013373,0.0088108,0.02622,9.2097e-07,0.95,0.4,0.2
0.048684,0.0016297,0.0051249,0.026324,6.9572e-05,6.18e-05,4.7255e-06,0.00055108,4.0752e-05,0.052569,-0.015692,-0.015712,2.4573e-05,0.0028656,0.00021191,0,0,0,0.026324,0.00062655,-0.00049547,0.01341,0.0088184,0.026277,9.2664e-07,1,0.4,0.2
0.00093775,8.5004e-05,0.00049745,0.025023,0.0096172,0.0092825,0.00065354,4.2825e-05,0.0037387,0.038707,-0.0013491,-0.0022194,0.0033984,0.00022269,0.019441,0,0,0,0.025919,0.0096029,0.008401,0.0087591,0.014641,0.016952,2.4862e-07,0,0.45,0.2
0.0019353,0.00016526,0.00098231,0.025166,0.008598,0.0079401,0.00064581,8.1236e-05,0.0035764,0.04041,-0.0026679,-0.0043784,0.0033582,0.00042243,0.018597,0,0,0,0.02594,0.0085777,0.0071867,0.0093767,0.013901,0.018101,3.0576e-07,0.05,0.45,0.2
0.004041,0.00031617,0.0019097,0.025757,0.0067932,0.0055824,0.00062381,0.00015238,0.0031253,0.044089,-0.0052175,-0.0083655,0.0032438,0.00079238,0.016251,0,0,0,0.026284,0.0067721,0.0050767,0.010604,0.012711,0.020416,4.3509e-07,0.1,0.45,0.2
0.0063443,0.00044727,0.0027255,0.026515,0.0053327,0.0038296,0.00059613,0.00021653,0.0024956,0.047532,-0.0075413,-0.011449,0.0030999,0.001126,0.012977,0,0,0,0.026826,0.0053271,0.0035238,0.011651,0.011892,0.022458,5.7422e-07,0.15,0.45,0.2
0.0087942,0.00055665,0.0033912,0.026983,0.0041011,0.0026081,0.00056828,0.00027897,0.0018417,0.049941,-0.0095527,-0.013434,0.002955,0.0014507,0.0095767,0,0,0,0.02715,0.0041224,0.0024198,0.012365,0.011231,0.023927,6.9392e-07,0.2,0.45,0.2
0.011338,0.00064098,0.0038964,0.027172,0.0031009,0.0018235,0.00053471,0.00033775,0.0012744,0.051389,-0.011195,-0.014517,0.0027805,0.0017563,0.0066267,0,0,0,0.027257,0.0031637,0.0016758,0.012791,0.010699,0.024872,7.8157e-07,0.25,0.45,0.2
0.013933,0.00069524,0.0042484,0.027135,0.002318,0.0013451,0.00048459,0.0003803,0.0008183,0.052072,-0.012452,-0.014981,0.0025199,0.0019775,0.0042551,0,0,0,0.027177,0.0024358,0.0011852,0.012996,0.010266,0.02539,8.3407e-07,0.3,0.45,0.2
0.016546,0.00071223,0.0044589,0.026932,0.0017202,0.001054,0.00040333,0.00037542,0.00044792,0.052199,-0.013351,-0.015083,0.0020973,0.0019522,0.0023292,0,0,0,0.026952,0.0018814,0.00087248,0.01304,0.0099019,0.025591,8.5629e-07,0.35,0.45,0.2
0.019153,0.00068408,0.00454,0.026606,0.0012408,0.00081827,0.00028854,0.00027143,0.00014007,0.051976,-0.013973,-0.015071,0.0015004,0.0014114,0.00072837,0,0,0,0.026616,0.0013745,0.00067456,0.012971,0.009555,0.0256,8.5932e-07,0.4,0.45,0.2
0.021743,0.00060873,0.0045104,0.026176,0.0007875,0.00051116,0.00016895,2.7154e-05,-8.8862e-05,0.051573,-0.014437,-0.015156,0.00087853,0.0001412,-0.00046209,0,0,0,0.026184,0.00089934,0.00039183,0.012896,0.0091583,0.025543,8.5469e-07,0.45,0.45,0.2
0.02431,0.00049949,0.0044044,0.025786,0.00031375,7.4971e-05,9.6375e-05,-0.00034014,-0.00018001,0.051011,-0.014786,-0.015399,0.00047438,-0.0017381,-0.0009839,0,0,0,0.025797,0.00060271,-0.00022454,0.013011,0.0087251,0.025622,8.715e-07,0.5,0.45,0.2
0.026848,0.00038996,0.004279,0.025542,-6.6242e-05,-0.00034863,6.4983e-05,-0.00070664,-0.00016958,0.050349,-0.014951,-0.015668,0.00027959,-0.0035989,-0.00098129,0,0,0,0.025553,0.00052939,-0.00095573,0.013254,0.0083756,0.025803,9.0421e-07,0.55,0.45,0.2
0.029353,0.00032122,0.0042054,0.025358,-0.00025011,-0.00056593,1.8541e-05,-0.00091566,-0.00017072,0.0499,-0.014999,-0.015805,6.2101e-05,-0.0046878,-0.00093028,0,0,0,0.025365,0.00054619,-0.0013684,0.013367,0.0081808,0.025832,9.0928e-07,0.6,0.45,0.2
0.031842,0.00031864,0.0042344,0.025312,-0.00035164,-0.00061417,-4.0018e-05,-0.0009164,-0.000187,0.049896,-0.01514,-0.015811,-0.0001855,-0.0046902,-0.00089385,0,0,0,0.025318,0.00046786,-0.0014395,0.013379,0.0081154,0.025859,9.1272e-07,0.65,0.45,0.2
0.034347,0.00038453,0.0043717,0.025402,-0.00037753,-0.00049623,-6.2208e-05,-0.00070504,-0.0001458,0.050344,-0.015393,-0.01569,-0.00027479,-0.0035879,-0.00063215,0,0,0,0.025412,0.00028812,-0.0011718,0.013292,0.0081762,0.02589,9.1429e-07,0.7,0.45,0.2
0.036885,0.00049774,0.0045778,0.025557,-0.00023293,-0.00018259,-4.7845e-05,-0.00032628,-4.7046e-05,0.051033,-0.015584,-0.015448,-0.00022546,-0.0016647,-0.00018808,0,0,0,0.025565,0.0001847,-0.00060786,0.013086,0.0083805,0.025789,8.8915e-07,0.75,0.45,0.2
0.039454,0.00062032,0.004794,0.02586,-5.1146e-05,0.00012059,-5.4435e-05,6.5499e-05,-8.9749e-08,0.051679,-0.015691,-0.015244,-0.00028306,0.0003406,-4.6622e-07,0,0,0,0.025864,0.00028678,-0.000221,0.013042,0.0086432,0.025836,8.8457e-07,0.8,0.45,0.2
0.042053,0.00072084,0.0049769,0.026211,2.1827e-05,0.00025367,-8.9453e-05,0.00034551,-3.0057e-05,0.052258,-0.015835,-0.015233,-0.00046516,0.0017967,-0.0001563,0,0,0,0.026214,0.00051347,-0.00024058,0.013227,0.008829,0.026087,9.094e-07,0.85,0.45,0.2
0.04468,0.00078742,0.0051065,0.026476,5.4331e-06,0.00024856,-0.00010264,0.00049438,-5.8326e-05,0.0528,-0.016024,-0.015392,-0.00053372,0.0025708,-0.00030329,0,0,0,0.026478,0.00064757,-0.00039547,0.013437,0.0089101,0.026368,9.3739e-07,0.9,0.45,0.2
0.047333,0.0008227,0.0051805,0.026648,-3.4029e-05,0.00019549,-5.8999e-05,0.00055134,-2.401e-05,0.053199,-0.016174,-0.015577,-0.00030679,0.002867,-0.00012485,0,0,0,0.026649,0.0006565,-0.00049603,0.013572,0.0089365,0.026588,9.6026e-07,0.95,0.45,0.2
0.048664,0.00083346,0.0052042,0.026709,-5.1545e-05,0.00016974,-2.0067e-05,0.0005642,1.6063e-05,0.053347,-0.01623,-0.015655,-0.00010435,0.0029338,8.3528e-05,0,0,0,0.026709,0.00064695,-0.00052931,0.013619,0.0089423,0.02667,9.6906e-07,1,0.45,0.2
0.00094262,1.7078e-05,0.00050329,0.025153,0.0096538,0.0093282,0.00013757,3.052e-05,0.0037864,0.038916,-0.001381,-0.0022276,0.00071536,0.0001587,0.019689,0,0,0,0.026041,0.0096507,0.0084431,0.008799,0.014712,0.017029,2.5203e-07,0,0.5,0.2
0.0019458,3.1062e-05,0.00099341,0.025301,0.0086208,0.0079791,0.00014332,5.7809e-05,0.0036276,0.040641,-0.0027262,-0.0043947,0.00074526,0.00030061,0.018864,0,0,0,0.026068,0.008617,0.0072158,0.009426,0.013967,0.018195,3.1061e-07,0.05,0.5,0.2
0.0040641,5.3945e-05,0.0019305,0.025909,0.0067952,0.0056133,0.00016066,0.00010884,0.0031865,0.044372,-0.0053229,-0.0083957,0.00083545,0.00056595,0.01657,0,0,0,0.026432,0.0067933,0.0050923,0.01067,0.012772,0.020545,4.436e-07,0.1,0.5,0.2
0.0063831,6.8288e-05,0.0027549,0.026693,0.0053215,0.0038622,0.00019421,0.00015714,0.0025744,0.047876,-0.0076903,-0.011484,0.0010099,0.0008171,0.013387,0,0,0,0.027004,0.0053274,0.0035454,0.011729,0.011959,0.022624,5.876e-07,0.15,0.5,0.2
0.0088518,7.6182e-05,0.0034285,0.027193,0.0040776,0.0026528,0.00024356,0.00020877,0.0019469,0.050347,-0.0097522,-0.013457,0.0012665,0.0010856,0.010124,0,0,0,0.027363,0.0040985,0.002462,0.01245,0.011308,0.024127,7.1263e-07,0.2,0.5,0.2
0.011418,7.7187e-05,0.0039408,0.027412,0.0030666,0.0018934,0.00029698,0.0002639,0.0014144,0.051849,-0.01145,-0.014501,0.0015443,0.0013723,0.0073551,0,0,0,0.027503,0.0031169,0.0017525,0.012875,0.010791,0.025098,8.0484e-07,0.25,0.5,0.2
0.014037,6.7668e-05,0.0042975,0.027397,0.0022809,0.001455,0.00033743,0.00031312,0.00099785,0.052552,-0.012749,-0.014897,0.0017547,0.0016282,0.0051888,0,0,0,0.027447,0.0023835,0.0013025,0.013072,0.010378,0.025622,8.5916e-07,0.3,0.5,0.2
0.016673,3.9919e-05,0.0045061,0.027196,0.001701,0.0012091,0.00034285,0.00032658,0.00066239,0.052645,-0.013641,-0.01492,0.0017828,0.0016982,0.0034444,0,0,0,0.027224,0.0018612,0.00102,0.013102,0.010035,0.025795,8.788e-07,0.35,0.5,0.2
0.019301,-1.6973e-05,0.0045713,0.026836,0.0012662,0.00097342,0.00030074,0.00024102,0.00037991,0.052329,-0.014153,-0.014915,0.0015639,0.0012533,0.0019755,0,0,0,0.026854,0.0014113,0.00081087,0.013021,0.0096919,0.025749,8.7572e-07,0.4,0.5,0.2
0.021906,-0.00011121,0.0045055,0.026461,0.00086447,0.00054718,0.00025437,-1.813e-05,0.00019855,0.051706,-0.014377,-0.015174,0.0012818,-6.494e-05,0.00097407,0,0,0,0.026477,0.00098545,0.00041026,0.013034,0.009291,0.025787,8.987e-07,0.45,0.5,0.2
0.024475,-0.00023158,0.0043473,0.026267,0.0004258,-7.6363e-05,0.00024299,-0.00040281,0.0001764,0.050601,-0.014362,-0.015596,0.0011266,-0.0019613,0.00069647,0,0,0,0.026289,0.00068977,-0.00036208,0.013325,0.0088722,0.026147,9.8273e-07,0.5,0.5,0.2
0.026981,-0.00034015,0.0041746,0.026064,9.4424e-05,-0.00058894,0.00020446,-0.0006935,0.00015229,0.049135,-0.014121,-0.015834,0.0008971,-0.0033935,0.0005162,0,0,0,0.026084,0.00055197,-0.0010661,0.013575,0.0085233,0.026382,1.0404e-06,0.55,0.5,0.2
0.029408,-0.00040319,0.0040776,0.025737,-2.3379e-05,-0.00078265,9.1163e-05,-0.00078332,-4.1431e-05,0.04811,-0.013896,-0.015846,0.00039552,-0.0038961,-0.00030385,0,0,0,0.025746,0.00050517,-0.00132,0.013533,0.0083105,0.026205,1.021e-06,0.6,0.5,0.2
0.0318,-0.00041337,0.0041078,0.025699,-0.00013323,-0.00083421,-5.0059e-05,-0.00078438,-0.00030892,0.048126,-0.014048,-0.015855,-0.00021758,-0.0038985,-0.0014199,0,0,0,0.02571,0.00041401,-0.0013928,0.013551,0.0082438,0.02625,1.0274e-06,0.65,0.5,0.2
0.03423,-0.00036926,0.0042705,0.025947,-0.00024321,-0.00074787,-0.00014799,-0.00069258,-0.00045534,0.04919,-0.0146,-0.015867,-0.00063835,-0.003382,-0.0020156,0,0,0,0.025971,0.00027072,-0.0012857,0.013628,0.0083187,0.026518,1.0591e-06,0.7,0.5,0.2
0.036739,-0.00027593,0.0045261,0.026075,-0.00016043,-0.00034891,-0.00016167,-0.00038755,-0.00038007,0.050725,-0.015233,-0.015664,-0.00072531,-0.0018774,-0.0017226,0,0,0,0.026097,0.00022529,-0.00075741,0.013427,0.0085217,0.026383,1.0114e-06,0.75,0.5,0.2
0.039317,-0.00016638,0.0047978,0.026203,-2.1558e-05,0.00014847,-0.00014159,2.5986e-05,-0.00024949,0.051958,-0.015748,-0.015282,-0.00070092,0.00016534,-0.0012342,0,0,0,0.026216,0.00036874,-0.00025411,0.013235,0.0087767,0.026166,9.3909e-07,0.8,0.5,0.2
0.041938,-7.9129e-05,0.0050213,0.026526,-1.4717e-05,0.00041109,-0.00014949,0.00032366,-0.00021567,0.052813,-0.016191,-0.015084,-0.00077735,0.001683,-0.0011215,0,0,0,0.026533,0.00060221,-0.00021276,0.013373,0.008974,0.026349,9.3759e-07,0.85,0.5,0.2
0.044598,-2.6285e-05,0.0051721,0.026854,-9.6337e-05,0.00041686,-0.00014644,0.00045391,-0.00019802,0.053516,-0.016555,-0.015221,-0.00076148,0.0023603,-0.0010297,0,0,0,0.026859,0.00069562,-0.00037979,0.013619,0.0090582,0.026717,9.759e-07,0.9,0.5,0.2
0.04729,-6.7438e-07,0.0052542,0.027058,-0.00017286,0.00033516,-8.4529e-05,0.00049089,-9.9203e-05,0.054019,-0.016782,-0.015461,-0.00043955,0.0025526,-0.00051586,0,0,0,0.02706,0.000651,-0.0004909,0.013776,0.0090735,0.026999,1.0066e-06,0.95,0.5,0.2
0.048643,6.6533e-06,0.0052797,0.02713,-0.00020112,0.00029619,-3.7749e-05,0.00049646,-2.1398e-05,0.054202,-0.016858,-0.015565,-0.0001963,0.0025816,-0.00011127,0,0,0,0.027131,0.000621,-0.00052694,0.013829,0.0090749,0.027102,1.0182e-06,1,0.5,0.2
0.00094717,-5.3098e-05,0.00050673,0.025272,0.0096748,0.0093683,-0.00039706,1.4318e-05,0.0038152,0.039119,-0.0014348,-0.0022316,-0.0020647,7.4453e-05,0.019839,0,0,0,0.026177,0.0096721,0.0084659,0.0088558,0.014772,0.017143,2.5725e-07,0,0.55,0.2
0.0019559,-0.00010736,0.00099992,0.025425,0.0086163,0.0080113,-0.00037968,2.6876e-05,0.0036595,0.040873,-0.002829,-0.0044021,-0.0019743,0.00013976,0.019029,0,0,0,0.026208,0.0086123,0.0072324,0.0094876,0.014017,0.018327,3.1789e-07,0.05,0.55,0.2
0.0040873,-0.00021612,0.0019427,0.026051,0.0067481,0.005636,-0.0003284,5.0589e-05,0.0032276,0.044671,-0.0055159,-0.0084073,-0.0017077,0.00026306,0.016784,0,0,0,0.026587,0.0067439,0.0051038,0.010742,0.012812,0.020716,4.5577e-07,0.1,0.55,0.2
0.006423,-0.00032176,0.0027722,0.026862,0.005244,0.0038858,-0.00024303,7.493e-05,0.0026322,0.048247,-0.0079609,-0.011492,-0.0012637,0.00038963,0.013687,0,0,0,0.027185,0.005244,0.0035633,0.011811,0.011997,0.022831,6.0556e-07,0.15,0.55,0.2
0.008912,-0.00041857,0.0034512,0.027391,0.0039782,0.0026876,-0.00013009,0.00010517,0.0020305,0.050783,-0.010091,-0.013447,-0.00067646,0.00054687,0.010558,0,0,0,0.027571,0.0039868,0.002499,0.012536,0.011352,0.024366,7.3616e-07,0.2,0.55,0.2
0.011501,-0.00050405,0.0039691,0.027642,0.0029549,0.0019526,-6.3399e-06,0.00014269,0.0015335,0.052339,-0.011847,-0.014453,-3.2968e-05,0.00074201,0.007974,0,0,0,0.027742,0.0029804,0.0018271,0.012957,0.01085,0.02536,8.3281e-07,0.25,0.55,0.2
0.014146,-0.00057969,0.0043306,0.027652,0.002169,0.0015513,0.00010793,0.00018234,0.0011607,0.053071,-0.013184,-0.01479,0.00056121,0.00094818,0.0060358,0,0,0,0.027711,0.0022331,0.001428,0.013141,0.010457,0.025892,8.8917e-07,0.3,0.55,0.2
0.016808,-0.00065186,0.0045395,0.027462,0.0016126,0.0013492,0.00018873,0.00020287,0.00087146,0.053146,-0.014061,-0.014746,0.00098141,0.0010549,0.0045316,0,0,0,0.0275,0.0017399,0.0011835,0.013158,0.010141,0.026044,9.0689e-07,0.35,0.55,0.2
0.019461,-0.00073126,0.0045925,0.027091,0.0012347,0.0010994,0.00021658,0.00014715,0.00063412,0.052781,-0.014445,-0.014797,0.0011262,0.00076519,0.0032974,0,0,0,0.027119,0.0013699,0.00093655,0.013091,0.0098083,0.025969,9.0039e-07,0.4,0.55,0.2
0.022087,-0.00082966,0.0044914,0.026855,0.00088882,0.00048701,0.0002454,-7.3724e-05,0.00052243,0.05184,-0.014332,-0.015302,0.0011695,-0.00031179,0.0025768,0,0,0,0.026883,0.0009984,0.00034855,0.013267,0.0094101,0.02622,9.7056e-07,0.45,0.55,0.2
0.024656,-0.00093955,0.004285,0.026759,0.00051829,-0.0003131,0.00027367,-0.00037895,0.00051118,0.050021,-0.01386,-0.015858,0.0011839,-0.001768,0.0023027,0,0,0,0.026793,0.00070067,-0.00052935,0.013661,0.008988,0.026734,1.1015e-06,0.5,0.55,0.2
0.027116,-0.0010268,0.0040848,0.026238,0.00026014,-0.00077174,0.00021436,-0.00051579,0.00036338,0.047921,-0.013336,-0.01592,0.00093696,-0.0024642,0.0015868,0,0,0,0.026261,0.00051598,-0.0010508,0.013656,0.0085754,0.026567,1.1057e-06,0.55,0.55,0.2
0.029469,-0.0010735,0.0039876,0.025595,0.0001397,-0.00087917,0.00010182,-0.00047865,2.3287e-05,0.04661,-0.013068,-0.015713,0.00047045,-0.0023465,6.2868e-05,0,0,0,0.025603,0.00038208,-0.0011301,0.013367,0.0082851,0.026015,1.0322e-06,0.6,0.55,0.2
0.031782,-0.0010914,0.0040189,0.025564,3.25e-05,-0.00093202,-6.6065e-06,-0.00047845,-0.00036056,0.046639,-0.013216,-0.015731,-3.2339e-05,-0.0023438,-0.0017048,0,0,0,0.025577,0.0002856,-0.0011978,0.013387,0.0082215,0.026069,1.0399e-06,0.65,0.55,0.2
0.034138,-0.0010804,0.0041844,0.02614,-7.89e-05,-0.00094103,-0.00011502,-0.00051276,-0.00065044,0.048015,-0.013807,-0.015978,-0.00048003,-0.002444,-0.0029872,0,0,0,0.026171,0.00020858,-0.0012597,0.013715,0.0083734,0.026731,1.13e-06,0.7,0.55,0.2
0.036605,-0.0010285,0.0044707,0.026594,-7.8512e-05,-0.0006048,-0.00017304,-0.00036234,-0.0006936,0.050208,-0.014731,-0.015961,-0.00070637,-0.0016777,-0.0032001,0,0,0,0.026631,0.00019407,-0.00091538,0.013773,0.0086367,0.027015,1.1398e-06,0.75,0.55,0.2
0.039187,-0.00095534,0.0047943,0.026638,-5.2399e-06,7.7541e-05,-0.00015358,-2.9328e-05,-0.0005423,0.052183,-0.015727,-0.015445,-0.00070731,-7.9729e-05,-0.0026672,0,0,0,0.026663,0.00038412,-0.00033726,0.0135,0.0089034,0.02665,1.0192e-06,0.8,0.55,0.2
0.041835,-0.0008983,0.0050573,0.026841,-5.219e-05,0.00054138,-0.00014068,0.00022605,-0.00042595,0.053388,-0.016534,-0.01499,-0.00073156,0.0011755,-0.0022149,0,0,0,0.026855,0.00065007,-0.00017477,0.013515,0.00911,0.026628,9.6925e-07,0.85,0.55,0.2
0.044525,-0.00086811,0.0052252,0.027201,-0.00019754,0.0005729,-0.0001339,0.00031758,-0.00034641,0.054177,-0.01706,-0.015056,-0.0006963,0.0016514,-0.0018013,0,0,0,0.02721,0.00070541,-0.00033857,0.013774,0.0091922,0.027042,1.0133e-06,0.9,0.55,0.2
0.047253,-0.00085548,0.0053122,0.02742,-0.00030537,0.00046319,-7.8197e-05,0.00033485,-0.00017657,0.054745,-0.017341,-0.015342,-0.00040663,0.0017412,-0.00091817,0,0,0,0.027424,0.00061377,-0.00045959,0.013942,0.0091926,0.027362,1.0496e-06,0.95,0.55,0.2
0.048624,-0.00085232,0.0053386,0.027496,-0.00034106,0.00041272,-3.9097e-05,0.00033531,-6.0293e-05,0.054948,-0.017427,-0.015467,-0.00020331,0.0017436,-0.00031353,0,0,0,0.027497,0.00056783,-0.0004977,0.013997,0.0091891,0.027478,1.0629e-06,1,0.55,0.2
0.00095088,-0.0001264,0.00050729,0.025368,0.0096775,0.0093981,-0.00095608,-4.8312e-06,0.0038207,0.03929,-0.0015046,-0.002231,-0.0049716,-2.5122e-05,0.019868,0,0,0,0.026316,0.0096633,0.0084637,0.0089263,0.014814,0.017286,2.6398e-07,0,0.6,0.2
0.0019645,-0.00025183,0.0010009,0.025524,0.0085842,0.0080325,-0.00092726,-9.7527e-06,0.003667,0.041078,-0.0029654,-0.0043998,-0.0048217,-5.0714e-05,0.019068,0,0,0,0.026347,0.0085615,0.0072325,0.009557,0.014047,0.018489,3.271e-07,0.05,0.6,0.2
0.0041078,-0.00049765,0.0019444,0.026163,0.006655,0.005646,-0.00084274,-1.8923e-05,0.0032411,0.044946,-0.0057756,-0.0083991,-0.0043822,-9.8399e-05,0.016854,0,0,0,0.026732,0.0066246,0.0051079,0.010812,0.012822,0.020911,4.7047e-07,0.1,0.6,0.2
0.0064591,-0.0007278,0.0027747,0.026993,0.0051071,0.0038938,-0.0007079,-2.5045e-05,0.0026569,0.048586,-0.0083182,-0.011473,-0.0036811,-0.00013023,0.013816,0,0,0,0.02734,0.0050832,0.0035708,0.011885,0.011998,0.023055,6.258e-07,0.15,0.6,0.2
0.0089664,-0.0009329,0.003455,0.027537,0.0038154,0.0027014,-0.00053743,-2.5039e-05,0.0020728,0.051165,-0.010513,-0.013409,-0.0027946,-0.0001302,0.010779,0,0,0,0.027735,0.0038052,0.0025138,0.012611,0.011351,0.024605,7.6043e-07,0.2,0.6,0.2
0.011576,-0.0011075,0.0039751,0.027801,0.0027849,0.0019816,-0.00035467,-1.7178e-05,0.0016001,0.052742,-0.0123,-0.014388,-0.0018443,-8.9324e-05,0.0083207,0,0,0,0.027914,0.0027956,0.0018583,0.013028,0.010856,0.025602,8.5899e-07,0.25,0.6,0.2
0.014241,-0.0012507,0.0043391,0.027819,0.0020084,0.0016027,-0.00018263,-2.5338e-06,0.0012581,0.053471,-0.013636,-0.014691,-0.0009497,-1.3177e-05,0.0065421,0,0,0,0.027888,0.0020621,0.0014802,0.013204,0.010477,0.026123,9.1495e-07,0.3,0.6,0.2
0.016923,-0.0013662,0.0045488,0.027627,0.0014811,0.0014258,-4.1753e-05,1.1171e-05,0.0010031,0.05351,-0.01447,-0.014613,-0.00021712,5.8088e-05,0.0052162,0,0,0,0.027674,0.0016132,0.0012469,0.013213,0.010178,0.026246,9.2956e-07,0.35,0.6,0.2
0.019592,-0.0014614,0.0045951,0.027241,0.0011556,0.0011566,5.2944e-05,-2.3504e-07,0.00080091,0.053094,-0.014727,-0.014725,0.00027531,-1.2223e-06,0.0041647,0,0,0,0.027277,0.0013091,0.00096731,0.013155,0.009851,0.026141,9.1979e-07,0.4,0.6,0.2
0.022232,-0.0015459,0.0044714,0.026928,0.0008391,0.00039563,0.00012797,-7.9313e-05,0.0007132,0.051836,-0.014329,-0.015395,0.00059124,-0.00036731,0.003581,0,0,0,0.026964,0.0009319,0.00026625,0.013349,0.0093875,0.026376,9.841e-07,0.45,0.6,0.2
0.024794,-0.0016213,0.0042366,0.026615,0.00051374,-0.00051548,0.00017213,-0.00018437,0.00065181,0.049427,-0.013501,-0.015994,0.00074136,-0.00085188,0.0030913,0,0,0,0.026652,0.00059194,-0.00063052,0.013641,0.0088712,0.026698,1.0851e-06,0.5,0.6,0.2
0.027213,-0.0016774,0.0040292,0.025887,0.00034144,-0.00087346,0.00014573,-0.00020324,0.00040797,0.047082,-0.012854,-0.015913,0.00065709,-0.00096968,0.0018947,0,0,0,0.025908,0.00043063,-0.00098376,0.013446,0.0084517,0.026218,1.0567e-06,0.55,0.6,0.2
0.029522,-0.0017126,0.003943,0.02523,0.00023298,-0.00087351,9.5294e-05,-0.00015854,2.9102e-05,0.045879,-0.012681,-0.015566,0.00045386,-0.00078193,0.0001207,0,0,0,0.025237,0.00030727,-0.00095475,0.013096,0.0081966,0.025589,9.8767e-07,0.6,0.6,0.2
0.031801,-0.0017376,0.0039756,0.025204,0.00013475,-0.00092723,5.1329e-05,-0.00015522,-0.00035227,0.045911,-0.012815,-0.015594,0.00022841,-0.00076572,-0.0017045,0,0,0,0.025215,0.00021347,-0.0010172,0.013116,0.0081372,0.025643,9.9483e-07,0.65,0.6,0.2
0.034113,-0.0017539,0.0041329,0.025801,2.4951e-05,-0.0010479,-9.6708e-06,-0.00019226,-0.00067902,0.047185,-0.013283,-0.015999,-2.6422e-05,-0.00091599,-0.0032246,0,0,0,0.025831,0.00012603,-0.001179,0.013505,0.0082594,0.026386,1.0807e-06,0.7,0.6,0.2
0.03654,-0.0017531,0.0044299,0.026465,-5.3018e-05,-0.00081682,-6.229e-05,-0.00016036,-0.00081628,0.049628,-0.014309,-0.016138,-0.00022668,-0.00073102,-0.0038975,0,0,0,0.026508,8.091e-05,-0.0009933,0.013751,0.0085319,0.026985,1.1243e-06,0.75,0.6,0.2
0.039115,-0.0017407,0.0047856,0.02673,-1.4676e-05,-1.9204e-05,-6.7984e-05,-3.496e-05,-0.00071217,0.052193,-0.015647,-0.015581,-0.00029818,-0.00013836,-0.0035608,0,0,0,0.026763,0.00032918,-0.00039637,0.01358,0.0088986,0.026807,1.0337e-06,0.8,0.6,0.2
0.041778,-0.0017325,0.0050746,0.027013,-7.7434e-05,0.00060315,-6.4714e-05,6.6308e-05,-0.00056653,0.05371,-0.016724,-0.014955,-0.00033651,0.0003448,-0.002946,0,0,0,0.027032,0.00065586,-0.00014963,0.013591,0.0091795,0.026789,9.885e-07,0.85,0.6,0.2
0.044486,-0.0017322,0.0052524,0.027391,-0.00026341,0.00066231,-6.2999e-05,9.7023e-05,-0.0004434,0.054544,-0.017359,-0.014952,-0.00032759,0.00050452,-0.0023057,0,0,0,0.027403,0.00069658,-0.00030895,0.013856,0.0092635,0.027223,1.035e-06,0.9,0.6,0.2
0.047232,-0.0017347,0.0053417,0.027616,-0.00039042,0.00053781,-3.9427e-05,9.951e-05,-0.00022619,0.055144,-0.017673,-0.01526,-0.00020502,0.00051745,-0.0011762,0,0,0,0.027621,0.0005819,-0.00043914,0.01403,0.0092545,0.027564,1.074e-06,0.95,0.6,0.2
0.048614,-0.0017361,0.0053682,0.027693,-0.00043012,0.00048163,-2.3691e-05,9.8288e-05,-8.5229e-05,0.055355,-0.017765,-0.015394,-0.00012319,0.0005111,-0.00044319,0,0,0,0.027695,0.00052892,-0.00047927,0.014087,0.0092481,0.027684,1.0881e-06,1,0.6,0.2
0.00095367,-0.00020356,0.00050474,0.025437,0.0096599,0.0094164,-0.0015434,-2.5162e-05,0.003801,0.039428,-0.0015922,-0.0022253,-0.0080257,-0.00013084,0.019765,0,0,0,0.026459,0.0096235,0.0084305,0.0090143,0.014838,0.017465,2.7248e-07,0,0.65,0.2
0.0019714,-0.0004039,0.00099589,0.025594,0.0085208,0.0080409,-0.0015006,-4.8671e-05,0.0036475,0.04125,-0.0031391,-0.004387,-0.0078033,-0.00025309,0.018967,0,0,0,0.026483,0.0084619,0.0072103,0.0096365,0.014052,0.018682,3.3841e-07,0.05,0.65,0.2
0.004125,-0.00079368,0.0019347,0.026239,0.0065101,0.0056397,-0.0013758,-9.2982e-05,0.0032228,0.045188,-0.0061068,-0.00837,-0.0071541,-0.00048351,0.016759,0,0,0,0.026859,0.0064301,0.0050993,0.01088,0.012796,0.02113,4.8754e-07,0.1,0.65,0.2
0.0064902,-0.0011536,0.0027608,0.027072,0.0049056,0.0038802,-0.0011819,-0.00013219,0.0026414,0.048872,-0.0087599,-0.011426,-0.006146,-0.00068738,0.013735,0,0,0,0.027455,0.0048441,0.0035584,0.011948,0.011952,0.023285,6.4726e-07,0.15,0.65,0.2
0.0090122,-0.0014698,0.0034378,0.027605,0.0035892,0.0026847,-0.00094599,-0.00016585,0.0020618,0.051445,-0.010995,-0.013347,-0.0049191,-0.00086244,0.010721,0,0,0,0.027826,0.0035712,0.0024814,0.012672,0.011293,0.024821,7.8271e-07,0.2,0.65,0.2
0.011635,-0.001734,0.0039555,0.027846,0.002565,0.001965,-0.00070177,-0.00019217,0.0015945,0.052974,-0.012757,-0.014317,-0.0036492,-0.0009993,0.0082914,0,0,0,0.027973,0.0026122,0.0017913,0.013091,0.010792,0.025783,8.783e-07,0.25,0.65,0.2
0.01431,-0.0019433,0.0043182,0.027835,0.0018172,0.0015878,-0.00047622,-0.00020836,0.0012578,0.053628,-0.014019,-0.014616,-0.0024763,-0.0010835,0.0065406,0,0,0,0.027912,0.001963,0.0013658,0.013273,0.010413,0.026253,9.287e-07,0.3,0.65,0.2
0.016997,-0.0020988,0.0045279,0.027614,0.0013305,0.0014131,-0.00028308,-0.00020694,0.0010073,0.053581,-0.014755,-0.01454,-0.001472,-0.0010761,0.0052378,0,0,0,0.027664,0.0015937,0.0010999,0.013282,0.010119,0.026321,9.3695e-07,0.35,0.65,0.2
0.019668,-0.002204,0.0045752,0.027201,0.0010491,0.001147,-0.00012473,-0.00016539,0.00080808,0.053084,-0.014911,-0.014656,-0.0006486,-0.00086005,0.004202,0,0,0,0.027237,0.0013117,0.00084779,0.013195,0.0097989,0.026162,9.2149e-07,0.4,0.65,0.2
0.022306,-0.0022633,0.0044536,0.026865,0.00077268,0.00039132,-2.6157e-05,-4.6455e-05,0.0007216,0.051757,-0.014421,-0.015329,-9.7811e-05,-0.00027567,0.0036241,0,0,0,0.026901,0.00090695,0.00022098,0.01334,0.009343,0.026347,9.8037e-07,0.45,0.65,0.2
0.024862,-0.0022912,0.0042216,0.026537,0.00048271,-0.00051316,2.6751e-05,9.9614e-05,0.00065974,0.049302,-0.013518,-0.01593,0.00018949,0.00043854,0.0031309,0,0,0,0.026573,0.00055594,-0.0006222,0.013598,0.0088356,0.026631,1.0766e-06,0.5,0.65,0.2
0.027274,-0.0023131,0.0040172,0.025805,0.0003421,-0.00086647,7.6745e-05,0.00015288,0.00041439,0.04693,-0.012813,-0.015855,0.00037303,0.00073289,0.0019258,0,0,0,0.025825,0.00041818,-0.00096318,0.013394,0.0084268,0.026129,1.046e-06,0.55,0.65,0.2
0.029575,-0.0023417,0.0039333,0.025149,0.00025529,-0.00086548,0.00010205,0.00013104,3.3783e-05,0.045716,-0.012602,-0.015519,0.00046461,0.00065303,0.00014321,0,0,0,0.025156,0.00031932,-0.00093651,0.013046,0.0081795,0.025492,9.7639e-07,0.6,0.65,0.2
0.031846,-0.0023729,0.0039675,0.025124,0.00016714,-0.00092014,9.6571e-05,0.00013811,-0.00034907,0.045746,-0.012717,-0.015555,0.00046073,0.00068648,-0.001689,0,0,0,0.025135,0.00023659,-0.001001,0.013068,0.0081235,0.025544,9.8296e-07,0.65,0.65,0.2
0.03415,-0.0024097,0.0041257,0.025722,5.8475e-05,-0.0010429,9.7559e-05,0.00017431,-0.00067701,0.047023,-0.013183,-0.015965,0.00043842,0.00083274,-0.0032154,0,0,0,0.025752,0.00014945,-0.0011641,0.013458,0.0082459,0.026289,1.0679e-06,0.7,0.65,0.2
0.036568,-0.0024611,0.004423,0.026391,-2.5646e-05,-0.00081522,9.4124e-05,0.00013438,-0.00081572,0.049475,-0.014217,-0.016109,0.00037678,0.00060546,-0.003896,0,0,0,0.026433,9.7532e-05,-0.00098097,0.013707,0.0085166,0.026896,1.1122e-06,0.75,0.65,0.2
0.039136,-0.0025208,0.0047788,0.026663,2.6789e-06,-2.1197e-05,5.8725e-05,-1.4714e-06,-0.00071337,0.052055,-0.015573,-0.015557,0.000248,-4.7344e-05,-0.0035676,0,0,0,0.026696,0.00033917,-0.00039094,0.013544,0.0088815,0.026733,1.0247e-06,0.8,0.65,0.2
0.041793,-0.0025707,0.0050678,0.026954,-7.1188e-05,0.0005984,3.3914e-05,-0.0001145,-0.00056874,0.053591,-0.016674,-0.014933,0.00017635,-0.00059542,-0.0029575,0,0,0,0.026973,0.00066333,-0.00015549,0.013564,0.0091603,0.02673,9.8185e-07,0.85,0.65,0.2
0.044495,-0.002604,0.0052456,0.027337,-0.00026699,0.00065601,2.9647e-05,-0.00015635,-0.00044546,0.05444,-0.01733,-0.01493,0.00015417,-0.000813,-0.0023164,0,0,0,0.027348,0.00070442,-0.00032656,0.013837,0.0092419,0.027174,1.0293e-06,0.9,0.65,0.2
0.047237,-0.0026228,0.0053348,0.027564,-0.00040062,0.00053078,1.1367e-05,-0.00016638,-0.00022741,0.05505,-0.017658,-0.015237,5.9107e-05,-0.00086516,-0.0011825,0,0,0,0.027569,0.00059061,-0.00046504,0.014017,0.0092314,0.027521,1.0688e-06,0.95,0.65,0.2
0.048616,-0.0026288,0.0053614,0.027642,-0.00044266,0.00047436,-2.2948e-06,-0.00016782,-8.5895e-05,0.055265,-0.017755,-0.015371,-1.1933e-05,-0.00087265,-0.00044665,0,0,0,0.027644,0.00053796,-0.00050811,0.014076,0.0092246,0.027644,1.0831e-06,1,0.65,0.2
0.00095611,-0.00028562,0.00049927,0.025493,0.0096205,0.0094269,-0.0021644,-4.4359e-05,0.0037573,0.039557,-0.001711,-0.0022141,-0.011255,-0.00023067,0.019538,0,0,0,0.026625,0.0095581,0.0083577,0.0091334,0.014847,0.017699,2.8379e-07,0,0.7,0.2
0.0019779,-0.00056574,0.00098528,0.025647,0.0084173,0.0080378,-0.0021008,-8.5442e-05,0.0036021,0.04142,-0.0033761,-0.0043628,-0.010924,-0.0004443,0.018731,0,0,0,0.026634,0.0083137,0.0071545,0.0097395,0.014034,0.01893,3.5307e-07,0.05,0.7,0.2
0.004142,-0.0011083,0.0019143,0.026286,0.0062932,0.0056147,-0.0019169,-0.00016291,0.0031736,0.045428,-0.0065542,-0.0083185,-0.0099678,-0.00084712,0.016503,0,0,0,0.026978,0.0061521,0.0050644,0.010957,0.012731,0.021395,5.0837e-07,0.1,0.7,0.2
0.0065207,-0.0016038,0.0027316,0.027102,0.0046171,0.0038408,-0.0016379,-0.00023286,0.0025865,0.049129,-0.0093315,-0.01135,-0.008517,-0.0012109,0.01345,0,0,0,0.02753,0.004522,0.0035078,0.012011,0.011853,0.023536,6.7084e-07,0.15,0.7,0.2
0.0090549,-0.0020324,0.0034006,0.027593,0.0032839,0.0026335,-0.0013109,-0.00029666,0.0019982,0.051635,-0.011568,-0.013259,-0.0068169,-0.0015426,0.010391,0,0,0,0.027838,0.0032949,0.0023768,0.012731,0.01117,0.025017,8.0281e-07,0.2,0.7,0.2
0.011684,-0.0023832,0.0039115,0.027771,0.0022892,0.0018995,-0.00098694,-0.00035186,0.0015176,0.053028,-0.013224,-0.014237,-0.0051321,-0.0018297,0.0078913,0,0,0,0.027908,0.002441,0.0016106,0.013149,0.010653,0.025893,8.8941e-07,0.25,0.7,0.2
0.014358,-0.0026527,0.0042693,0.02769,0.001597,0.0015042,-0.00069785,-0.00039159,0.001161,0.05352,-0.014323,-0.014564,-0.0036288,-0.0020363,0.0060373,0,0,0,0.027768,0.0019103,0.001113,0.013328,0.010264,0.026266,9.2855e-07,0.3,0.7,0.2
0.017036,-0.0028417,0.004478,0.02741,0.0011662,0.0013095,-0.00045012,-0.00039522,0.00088527,0.053335,-0.014899,-0.014527,-0.0023406,-0.0020552,0.0046034,0,0,0,0.027456,0.0016108,0.00081893,0.013319,0.0099619,0.026251,9.2733e-07,0.35,0.7,0.2
0.019691,-0.0029525,0.0045339,0.026962,0.00092144,0.0010689,-0.0002364,-0.0003081,0.00065725,0.052729,-0.014975,-0.014592,-0.0012293,-0.0016021,0.0034177,0,0,0,0.026991,0.0013178,0.00064361,0.013174,0.0096507,0.026018,9.0427e-07,0.4,0.7,0.2
0.022309,-0.0029887,0.0044386,0.026663,0.00069769,0.00047086,-0.0001057,-4.7353e-05,0.00054964,0.05159,-0.014589,-0.015109,-0.00047227,-0.00031017,0.0027177,0,0,0,0.026691,0.00091719,0.00022405,0.013233,0.0092773,0.02613,9.5978e-07,0.45,0.7,0.2
0.024862,-0.0029746,0.0042402,0.026523,0.00043342,-0.00031064,-4.8959e-05,0.00029752,0.00053671,0.049631,-0.013891,-0.015673,-0.00010907,0.0013658,0.002433,0,0,0,0.026555,0.00061181,-0.00052029,0.013537,0.0088821,0.026532,1.0769e-06,0.5,0.7,0.2
0.0273,-0.0029596,0.0040486,0.025984,0.00026587,-0.00075436,2.4712e-05,0.00046697,0.00038357,0.047452,-0.013198,-0.015753,0.0001784,0.0022327,0.0016874,0,0,0,0.026006,0.00048983,-0.00099991,0.013503,0.0084985,0.026297,1.0724e-06,0.55,0.7,0.2
0.029628,-0.0029729,0.0039586,0.025342,0.0002081,-0.00085663,0.00010114,0.00045192,3.7851e-05,0.046109,-0.01282,-0.015571,0.00047445,0.0022213,0.00013326,0,0,0,0.025351,0.00042138,-0.0010783,0.013214,0.0082312,0.025717,9.9626e-07,0.6,0.7,0.2
0.031916,-0.0030094,0.0039948,0.025319,0.00013144,-0.00091105,0.00014978,0.00046219,-0.00035067,0.046135,-0.012915,-0.015612,0.00070048,0.0022686,-0.0016589,0,0,0,0.025332,0.00035518,-0.0011479,0.01324,0.0081799,0.025766,1.0028e-06,0.65,0.7,0.2
0.034246,-0.003073,0.0041632,0.025905,2.2861e-05,-0.00092595,0.0001917,0.00049627,-0.00064512,0.047527,-0.0135,-0.015877,0.00083859,0.0023681,-0.002965,0,0,0,0.025937,0.00027725,-0.0012118,0.013574,0.0083341,0.02644,1.0925e-06,0.7,0.7,0.2
0.03669,-0.0031764,0.0044506,0.026376,3.5425e-06,-0.00059951,0.00019029,0.00033924,-0.00069395,0.049753,-0.014455,-0.015876,0.00078396,0.0015662,-0.0032058,0,0,0,0.026414,0.00024127,-0.00087522,0.013645,0.0085935,0.026755,1.1069e-06,0.75,0.7,0.2
0.039249,-0.0032988,0.0047745,0.026444,4.5589e-05,7.2149e-05,0.00012942,-3.4464e-06,-0.00054794,0.051777,-0.01551,-0.015372,0.00058062,-8.7574e-05,-0.0026977,0,0,0,0.026469,0.00041061,-0.00031806,0.013394,0.008854,0.026434,9.9451e-07,0.8,0.7,0.2
0.041879,-0.0033998,0.0050375,0.026666,-3.5169e-05,0.00052741,9.7117e-05,-0.0002712,-0.0004337,0.053037,-0.016386,-0.014924,0.00050501,-0.0014102,-0.0022553,0,0,0,0.026679,0.00066828,-0.00018956,0.013435,0.0090527,0.026452,9.5006e-07,0.85,0.7,0.2
0.044553,-0.0034652,0.0052053,0.027039,-0.00021015,0.00055352,9.1446e-05,-0.00037494,-0.00035314,0.053872,-0.016976,-0.01499,0.00047552,-0.0019497,-0.0018363,0,0,0,0.027047,0.00072258,-0.00038741,0.013717,0.0091274,0.026897,9.9666e-07,0.9,0.7,0.2
0.047266,-0.0035006,0.0052924,0.027265,-0.00033778,0.00044096,4.495e-05,-0.00040059,-0.00018041,0.054469,-0.017299,-0.015275,0.00023374,-0.0020831,-0.00093814,0,0,0,0.027269,0.00063106,-0.0005314,0.0139,0.0091229,0.027238,1.0345e-06,0.95,0.7,0.2
0.04863,-0.0035116,0.0053188,0.027344,-0.0003804,0.00038953,9.7299e-06,-0.00040402,-6.233e-05,0.054682,-0.017401,-0.015399,5.0596e-05,-0.0021009,-0.00032412,0,0,0,0.027345,0.00058518,-0.00057755,0.013961,0.0091176,0.02736,1.0485e-06,1,0.7,0.2
0.00095969,-0.00037466,0.00049151,0.025572,0.0095569,0.0094402,-0.0028301,-5.9805e-05,0.0036946,0.039746,-0.0018935,-0.002197,-0.014717,-0.00031099,0.019212,0,0,0,0.026858,0.0094835,0.0082282,0.0093147,0.014856,0.018037,3.0022e-07,0,0.75,0.2
0.0019873,-0.00074151,0.0009703,0.025716,0.0082547,0.0080281,-0.0027317,-0.00011518,0.0035362,0.041663,-0.0037373,-0.0043264,-0.014205,-0.00059892,0.018388,0,0,0,0.026836,0.008131,0.0070326,0.0099015,0.014,0.019281,3.7387e-07,0.05,0.75,0.2
0.0041663,-0.0014491,0.0018857,0.026336,0.0059625,0.005568,-0.0024512,-0.00021958,0.0030999,0.045753,-0.0072173,-0.0082428,-0.012746,-0.0011418,0.01612,0,0,0,0.027114,0.0058022,0.0049496,0.011082,0.012622,0.021755,5.3633e-07,0.1,0.75,0.2
0.0065626,-0.0020867,0.0026905,0.027109,0.004199,0.0037718,-0.0020398,-0.0003136,0.0025014,0.049436,-0.010131,-0.011241,-0.010607,-0.0016307,0.013007,0,0,0,0.027583,0.0041318,0.0033652,0.012109,0.011693,0.023846,6.9947e-07,0.15,0.75,0.2
0.0091099,-0.0026266,0.0033481,0.027522,0.0028712,0.0025482,-0.001581,-0.00039842,0.0018963,0.051791,-0.012299,-0.013139,-0.008221,-0.0020718,0.0098605,0,0,0,0.027784,0.0029857,0.0021709,0.012807,0.01098,0.025217,8.2265e-07,0.2,0.75,0.2
0.011742,-0.0030564,0.0038493,0.027598,0.0019434,0.0017936,-0.0011518,-0.00046975,0.0013911,0.052954,-0.013748,-0.014138,-0.0059892,-0.0024427,0.0072338,0,0,0,0.027736,0.0022546,0.0013444,0.013196,0.010445,0.025949,8.9424e-07,0.25,0.75,0.2
0.014405,-0.0033756,0.0042002,0.027419,0.0013381,0.0013673,-0.00078703,-0.00051671,0.0010016,0.053215,-0.014596,-0.01452,-0.0040925,-0.0026869,0.0052085,0,0,0,0.02749,0.0018169,0.00081784,0.013336,0.010042,0.026187,9.1822e-07,0.3,0.75,0.2
0.017063,-0.0035888,0.0044084,0.027067,0.00097804,0.0011361,-0.00048276,-0.00051065,0.00068893,0.052865,-0.014966,-0.014555,-0.0025104,-0.0026554,0.0035824,0,0,0,0.027102,0.0015442,0.00053469,0.013284,0.009727,0.026078,9.0691e-07,0.35,0.75,0.2
0.019692,-0.0037015,0.004478,0.026587,0.00076681,0.00091774,-0.00022632,-0.00039185,0.00042262,0.052163,-0.014969,-0.014577,-0.0011769,-0.0020376,0.0021976,0,0,0,0.026605,0.0012335,0.00043363,0.013085,0.0094239,0.025782,8.7791e-07,0.4,0.75,0.2
0.02228,-0.0037236,0.0044207,0.026127,0.00057052,0.00051432,-5.1429e-05,-9.2269e-05,0.0002495,0.051236,-0.014743,-0.014864,-0.00023682,-0.00050676,0.0012388,0,0,0,0.026141,0.00084358,0.00022745,0.012957,0.0090705,0.025613,8.8047e-07,0.45,0.75,0.2
0.024819,-0.003684,0.0042742,0.025876,0.00030867,-8.0097e-05,1.7063e-05,0.00033102,0.00022595,0.049915,-0.014363,-0.015307,0.00017535,0.0015974,0.00095352,0,0,0,0.025895,0.00058376,-0.00037432,0.013135,0.0087014,0.025809,9.4598e-07,0.5,0.75,0.2
0.027286,-0.0036364,0.0041147,0.025645,0.00012034,-0.00056551,5.1659e-05,0.00065132,0.00019273,0.048321,-0.013848,-0.015567,0.00034382,0.0031879,0.00072394,0,0,0,0.025663,0.00053877,-0.0010015,0.013332,0.0084001,0.025933,9.8909e-07,0.55,0.75,0.2
0.029671,-0.003626,0.0040293,0.025321,0.00010138,-0.00074463,0.00011325,0.00076028,-1.2638e-05,0.047246,-0.013447,-0.01561,0.00058142,0.0037866,-0.00015975,0,0,0,0.02533,0.00058205,-0.0012337,0.013282,0.008226,0.025707,9.6401e-07,0.6,0.75,0.2
0.032019,-0.0036667,0.0040678,0.025301,4.0051e-05,-0.00079486,0.00018009,0.00077105,-0.00029169,0.047267,-0.01352,-0.015654,0.00083822,0.0038363,-0.0013379,0,0,0,0.025313,0.00053246,-0.0012992,0.013306,0.0081821,0.025749,9.6964e-07,0.65,0.75,0.2
0.034406,-0.0037631,0.0042356,0.025575,-6.8928e-05,-0.00071767,0.00020226,0.0006808,-0.00044971,0.048375,-0.014074,-0.015697,0.00089332,0.0033276,-0.0019934,0,0,0,0.0256,0.00038382,-0.0011947,0.013397,0.0082629,0.026046,1.004e-06,0.7,0.75,0.2
0.036876,-0.0039103,0.0044936,0.025736,-2.2875e-05,-0.00033594,0.00015246,0.00037129,-0.00038576,0.049981,-0.014774,-0.015521,0.00067039,0.0017973,-0.0017558,0,0,0,0.025758,0.00030112,-0.00068257,0.013221,0.008459,0.025969,9.6537e-07,0.75,0.75,0.2
0.039419,-0.0040733,0.0047663,0.025896,6.0019e-05,0.00014186,9.1674e-05,-5.2233e-05,-0.00026264,0.051303,-0.015399,-0.01516,0.00044111,-0.0003007,-0.0013032,0,0,0,0.025908,0.00040767,-0.00021761,0.013063,0.0086994,0.025821,9.0285e-07,0.8,0.75,0.2
0.04201,-0.0042094,0.0049904,0.026242,8.3886e-06,0.00038794,8.4491e-05,-0.00036387,-0.00023029,0.052247,-0.015961,-0.014974,0.00043936,-0.0018921,-0.0011975,0,0,0,0.026249,0.000623,-0.00023303,0.013241,0.0088795,0.026066,9.0751e-07,0.85,0.75,0.2
0.044643,-0.0043016,0.0051417,0.026588,-0.00012281,0.00038214,8.9049e-05,-0.00050761,-0.00020986,0.05302,-0.016428,-0.015115,0.00046305,-0.0026396,-0.0010913,0,0,0,0.026592,0.00070795,-0.00045284,0.013522,0.008949,0.026484,9.4981e-07,0.9,0.75,0.2
0.047312,-0.0043527,0.0052241,0.026802,-0.00023186,0.00029366,4.2748e-05,-0.00055386,-0.00010563,0.053568,-0.016721,-0.015355,0.00022229,-0.0028801,-0.00054929,0,0,0,0.026804,0.00065739,-0.00059758,0.013701,0.0089547,0.026797,9.8311e-07,0.95,0.75,0.2
0.048653,-0.0043689,0.0052497,0.026877,-0.00027139,0.00025242,2.6537e-06,-0.0005627,-2.4601e-05,0.053766,-0.016821,-0.015459,1.3799e-05,-0.002926,-0.00012792,0,0,0,0.026878,0.00062528,-0.00064523,0.013762,0.0089528,0.026911,9.9561e-07,1,0.75,0.2
0.00096745,-0.00047497,0.00048267,0.025746,0.0094608,0.0094751,-0.0035614,-6.8546e-05,0.0036224,0.04013,-0.002211,-0.0021738,-0.018519,-0.00035644,0.018837,0,0,0,0.027241,0.0094319,0.0080088,0.0096162,0.014894,0.018565,3.2648e-07,0,0.8,0.2
0.0020065,-0.00093948,0.00095323,0.025866,0.0079915,0.0080185,-0.0033981,-0.00013263,0.0034596,0.042126,-0.0043478,-0.0042775,-0.01767,-0.00068968,0.01799,0,0,0,0.027156,0.0079538,0.0067667,0.010194,0.013959,0.019827,4.0617e-07,0.05,0.8,0.2
0.0042126,-0.0018301,0.001853,0.026434,0.0054399,0.0054909,-0.00295,-0.000254,0.0030133,0.04631,-0.0082753,-0.0081426,-0.01534,-0.0013208,0.015669,0,0,0,0.027306,0.0054405,0.0046188,0.011344,0.012455,0.022291,5.7698e-07,0.1,0.8,0.2
0.0066375,-0.0026169,0.0026437,0.027126,0.0035908,0.0036653,-0.002332,-0.00036274,0.0024014,0.049899,-0.011293,-0.0111,-0.012127,-0.0018862,0.012487,0,0,0,0.027632,0.0037367,0.0030137,0.012309,0.011461,0.024267,7.3669e-07,0.15,0.8,0.2
0.0092025,-0.0032624,0.0032887,0.027411,0.0023286,0.0024301,-0.0016973,-0.00045706,0.0017779,0.051967,-0.013248,-0.012984,-0.0088258,-0.0023767,0.0092449,0,0,0,0.027673,0.0026713,0.0018255,0.012924,0.010723,0.025436,8.434e-07,0.2,0.8,0.2
0.011834,-0.003758,0.0037793,0.027347,0.0015253,0.0016574,-0.0011537,-0.00052998,0.0012478,0.052784,-0.014352,-0.014008,-0.0059991,-0.0027559,0.0064888,0,0,0,0.027472,0.0020342,0.0010234,0.013224,0.010176,0.025958,8.9395e-07,0.25,0.8,0.2
0.014481,-0.0041122,0.0041236,0.027056,0.0010385,0.0011994,-0.00072261,-0.0005681,0.00082829,0.052769,-0.014876,-0.014458,-0.0037576,-0.0029541,0.0043071,0,0,0,0.027111,0.0016471,0.00053537,0.013288,0.0097646,0.026038,9.0136e-07,0.3,0.8,0.2
0.017111,-0.0043383,0.004333,0.026647,0.00076238,0.00093376,-0.00037883,-0.00054226,0.00048855,0.052276,-0.015023,-0.014578,-0.0019699,-0.0028198,0.0025404,0,0,0,0.026669,0.0013772,0.00029684,0.013186,0.0094476,0.025849,8.8226e-07,0.35,0.8,0.2
0.019708,-0.0044494,0.0044188,0.026177,0.00059329,0.00072894,-9.9626e-05,-0.00040487,0.000203,0.051561,-0.014957,-0.014604,-0.00051806,-0.0021053,0.0010556,0,0,0,0.026186,0.0010642,0.00024962,0.012968,0.0091665,0.02554,8.5273e-07,0.4,0.8,0.2
0.022267,-0.0044638,0.0043989,0.025662,0.00042161,0.00045908,0.00010325,-0.00012107,-1.3173e-05,0.050796,-0.01483,-0.014732,0.00053689,-0.00062959,-6.85e-05,0,0,0,0.025669,0.0007011,0.0001733,0.012748,0.0088477,0.025237,8.2431e-07,0.45,0.8,0.2
0.024788,-0.0044136,0.0043064,0.025231,0.00019002,6.6276e-05,0.00019381,0.0002833,-0.00010293,0.049985,-0.014697,-0.015011,0.001024,0.001444,-0.00058289,0,0,0,0.025241,0.00050273,-0.00025651,0.012749,0.0084957,0.02513,8.2261e-07,0.5,0.8,0.2
0.02727,-0.0043486,0.0041964,0.024976,2.4248e-06,-0.00031505,0.0001924,0.0006768,-0.00010273,0.049176,-0.014501,-0.015308,0.0010306,0.0034476,-0.0006341,0,0,0,0.024987,0.00055339,-0.00087713,0.012932,0.008221,0.025185,8.4129e-07,0.55,0.8,0.2
0.029714,-0.004322,0.0041373,0.024809,-5.1088e-05,-0.00050415,0.00016944,0.00090157,-0.00012249,0.048671,-0.014318,-0.015477,0.00088592,0.004618,-0.00068158,0,0,0,0.024815,0.00067303,-0.0012345,0.013025,0.0080845,0.025153,8.3984e-07,0.6,0.8,0.2
0.032141,-0.0043657,0.0041778,0.024794,-9.3387e-05,-0.00054571,0.0001426,0.00091022,-0.00016099,0.048689,-0.014366,-0.015523,0.00070055,0.0046605,-0.00076196,0,0,0,0.0248,0.00063833,-0.0012836,0.013042,0.0080516,0.025181,8.4301e-07,0.65,0.8,0.2
0.034587,-0.0044845,0.0043226,0.024923,-0.00012786,-0.00044161,8.3458e-05,0.00070087,-0.0001408,0.04922,-0.014649,-0.015446,0.00037664,0.0035683,-0.00060912,0,0,0,0.024933,0.0004451,-0.0010248,0.012979,0.0081178,0.02526,8.4942e-07,0.7,0.8,0.2
0.037071,-0.0046564,0.0045333,0.025116,-4.2441e-05,-0.00015603,5.6874e-06,0.0003178,-5.7786e-05,0.050028,-0.014958,-0.015245,4.2105e-06,0.0016214,-0.00024504,0,0,0,0.025124,0.00028882,-0.00049493,0.012809,0.0083059,0.02524,8.3367e-07,0.75,0.8,0.2
0.039593,-0.0048393,0.0047528,0.025452,5.5644e-05,0.00011477,-2.4434e-05,-8.4948e-05,-1.8496e-05,0.050801,-0.015229,-0.015075,-0.00012706,-0.00044173,-9.6179e-05,0,0,0,0.025455,0.00033631,-0.00016937,0.012812,0.0085407,0.025377,8.3831e-07,0.8,0.8,0.2
0.042151,-0.004996,0.004938,0.025826,4.4511e-05,0.00021922,2.1238e-06,-0.00037943,-4.8733e-05,0.051494,-0.015538,-0.015084,1.1044e-05,-0.001973,-0.00025341,0,0,0,0.025828,0.00052836,-0.00026688,0.013048,0.0086966,0.025709,8.7011e-07,0.85,0.8,0.2
0.044743,-0.005108,0.0050696,0.026107,-4.0433e-05,0.00019268,3.0737e-05,-0.00054149,-7.2761e-05,0.052122,-0.01586,-0.015254,0.00015983,-0.0028158,-0.00037835,0,0,0,0.026108,0.00063888,-0.00048814,0.013298,0.0087529,0.026051,9.0332e-07,0.9,0.8,0.2
0.047363,-0.0051727,0.005145,0.026287,-0.00012369,0.00012647,8.9221e-06,-0.0006073,-3.1273e-05,0.052572,-0.016096,-0.015445,4.6395e-05,-0.0031579,-0.00016262,0,0,0,0.026288,0.00063093,-0.000629,0.013458,0.0087633,0.02631,9.2941e-07,0.95,0.8,0.2
0.048679,-0.0051936,0.0051692,0.026351,-0.00015616,9.6288e-05,-2.1059e-05,-0.00062322,1.3026e-05,0.052737,-0.01618,-0.015524,-0.00010951,-0.0032408,6.7736e-05,0,0,0,0.026351,0.00061551,-0.00067596,0.013514,0.0087636,0.026405,9.3932e-07,1,0.8,0.2
0.0009867,-0.00059575,0.00047459,0.026158,0.0092875,0.0095607,-0.0043981,-6.6978e-05,0.0035551,0.041006,-0.002856,-0.0021458,-0.02287,-0.00034829,0.018487,0,0,0,0.027934,0.0094459,0.0076259,0.010154,0.015002,0.019467,3.7347e-07,0,0.85,0.2
0.0020503,-0.0011763,0.00093755,0.026204,0.0075132,0.008006,-0.0040937,-0.00013174,0.003387,0.043097,-0.0054998,-0.0042186,-0.021287,-0.00068505,0.017613,0,0,0,0.027696,0.0078199,0.0062071,0.010745,0.013908,0.020738,4.606e-07,0.05,0.85,0.2
0.0043097,-0.0022766,0.0018228,0.026642,0.0045845,0.0053568,-0.003327,-0.00025658,0.0029295,0.047319,-0.01003,-0.0080223,-0.0173,-0.0013342,0.015233,0,0,0,0.027581,0.0051256,0.0038763,0.011853,0.012194,0.023114,6.3748e-07,0.1,0.85,0.2
0.0067823,-0.0032161,0.0026002,0.027174,0.002754,0.003513,-0.0024068,-0.00036902,0.0023051,0.050588,-0.012904,-0.010931,-0.012516,-0.0019189,0.011987,0,0,0,0.027672,0.0034092,0.0023596,0.012656,0.011147,0.024809,7.8235e-07,0.15,0.85,0.2
0.0093685,-0.0039514,0.0032334,0.027236,0.0016859,0.0022772,-0.0015912,-0.00046142,0.0016665,0.052094,-0.014336,-0.012799,-0.0082743,-0.0023994,0.0086656,0,0,0,0.02747,0.0023821,0.0013467,0.013062,0.0104,0.025623,8.5962e-07,0.2,0.85,0.2
0.011992,-0.0044916,0.0037148,0.026974,0.0010687,0.0014885,-0.00097675,-0.0005247,0.0011173,0.052414,-0.01494,-0.013849,-0.0050791,-0.0027285,0.00581,0,0,0,0.027074,0.0017749,0.00068242,0.013196,0.0098438,0.025863,8.8327e-07,0.25,0.85,0.2
0.01461,-0.0048632,0.0040541,0.026578,0.00072104,0.0010088,-0.00053127,-0.00054628,0.00067792,0.052118,-0.01511,-0.014362,-0.0027626,-0.0028407,0.0035252,0,0,0,0.026615,0.0014017,0.00029057,0.013162,0.0094359,0.025787,8.7553e-07,0.3,0.85,0.2
0.017203,-0.0050911,0.0042662,0.026157,0.00053332,0.00072697,-0.00019369,-0.00050294,0.00032688,0.051557,-0.015063,-0.01456,-0.0010072,-0.0026153,0.0016998,0,0,0,0.026168,0.0011328,0.00011569,0.013026,0.0091389,0.02556,8.5332e-07,0.35,0.85,0.2
0.019766,-0.0051972,0.0043678,0.025756,0.00041496,0.00053969,7.2993e-05,-0.00036279,4.4246e-05,0.05094,-0.014948,-0.014623,0.00037956,-0.0018865,0.00023008,0,0,0,0.025761,0.00084178,0.00010818,0.012826,0.0089037,0.025295,8.2881e-07,0.4,0.85,0.2
0.022297,-0.0052066,0.00438,0.025389,0.00028799,0.00035657,0.00026686,-0.00010824,-0.00016578,0.050391,-0.014871,-0.014693,0.0013877,-0.00056286,-0.00086205,0,0,0,0.025395,0.00054661,9.1264e-05,0.012652,0.0086777,0.02508,8.0926e-07,0.45,0.85,0.2
0.024805,-0.0051543,0.004334,0.025061,0.00011779,0.00013381,0.00035959,0.00023982,-0.00027852,0.049971,-0.014881,-0.01484,0.0018699,0.0012471,-0.0014483,0,0,0,0.025071,0.00043677,-0.00019528,0.012633,0.0084374,0.024959,7.9614e-07,0.5,0.85,0.2
0.027295,-0.0050881,0.0042733,0.02481,-5.2697e-05,-8.7099e-05,0.00033631,0.00059718,-0.00027995,0.049704,-0.014939,-0.015029,0.0017488,0.0031053,-0.0014558,0,0,0,0.024819,0.00053676,-0.00068603,0.012753,0.0082234,0.024921,7.8739e-07,0.55,0.85,0.2
0.029775,-0.0050599,0.0042467,0.02468,-0.00015627,-0.00022735,0.00022577,0.00082852,-0.00019547,0.04959,-0.014984,-0.015169,0.001174,0.0043083,-0.0010164,0,0,0,0.024685,0.0006501,-0.0010388,0.012862,0.0080987,0.024925,7.8262e-07,0.6,0.85,0.2
0.032253,-0.0051054,0.0042884,0.024679,-0.00018182,-0.00026093,7.7923e-05,0.00083533,-7.1904e-05,0.049623,-0.015014,-0.01522,0.0004052,0.0043437,-0.0003739,0,0,0,0.024681,0.00062664,-0.0010715,0.012876,0.0080787,0.024949,7.8485e-07,0.65,0.85,0.2
0.034737,-0.0052295,0.0044031,0.024799,-0.00013329,-0.00019294,-6.0082e-05,0.00061696,4.5766e-05,0.049793,-0.01503,-0.015185,-0.00031243,0.0032082,0.00023798,0,0,0,0.024801,0.00046126,-0.00078991,0.012795,0.0081574,0.024993,7.9404e-07,0.7,0.85,0.2
0.037233,-0.0054066,0.0045661,0.025014,-3.0065e-05,-6.0577e-05,-0.00014182,0.00026993,0.00011421,0.050082,-0.015032,-0.015111,-0.00073744,0.0014037,0.00059388,0,0,0,0.025016,0.00027619,-0.00036968,0.012693,0.0083077,0.025072,8.0694e-07,0.75,0.85,0.2
0.039745,-0.0055961,0.0047395,0.025263,5.2573e-05,4.5158e-05,-0.00014555,-7.4367e-05,0.00011499,0.050467,-0.01508,-0.015099,-0.00075686,-0.00038671,0.00059795,0,0,0,0.025265,0.00025696,-0.00016163,0.012713,0.0084535,0.025221,8.2308e-07,0.8,0.85,0.2
0.042279,-0.0057632,0.0048914,0.025491,6.0927e-05,6.6708e-05,-9.7309e-05,-0.00033543,7.288e-05,0.050905,-0.015213,-0.015197,-0.00050601,-0.0017443,0.00037897,0,0,0,0.025492,0.00040448,-0.00027838,0.012885,0.0085394,0.025438,8.4317e-07,0.85,0.85,0.2
0.044836,-0.0058876,0.0050041,0.025674,1.1958e-05,2.3245e-05,-4.3017e-05,-0.0004942,2.8136e-05,0.051328,-0.015395,-0.015365,-0.00022369,-0.0025699,0.00014631,0,0,0,0.025675,0.00051868,-0.00048419,0.01308,0.0085698,0.025673,8.6497e-07,0.9,0.85,0.2
0.047412,-0.0059623,0.0050715,0.025797,-4.451e-05,-3.2086e-05,-3.4388e-05,-0.00056909,2.5655e-05,0.051641,-0.015548,-0.015516,-0.00017882,-0.0029593,0.00013341,0,0,0,0.025798,0.00053829,-0.0006153,0.013207,0.0085736,0.025856,8.8246e-07,0.95,0.85,0.2
0.048705,-0.0059869,0.0050938,0.025841,-6.786e-05,-5.5503e-05,-4.9052e-05,-0.00058981,4.1618e-05,0.051756,-0.015607,-0.015575,-0.00025507,-0.003067,0.00021642,0,0,0,0.025842,0.00053567,-0.00065944,0.013251,0.0085726,0.025924,8.8916e-07,1,0.85,0.2
0.001033,-0.00076057,0.00046994,0.027084,0.0087687,0.0096967,-0.0052728,-5.1799e-05,0.0035138,0.043089,-0.0045309,-0.0021183,-0.027418,-0.00026935,0.018272,0,0,0,0.029177,0.0095242,0.006848,0.011165,0.015183,0.021128,4.6705e-07,0,0.9,0.2
0.0021544,-0.0014895,0.00092817,0.026964,0.0065371,0.0079707,-0.0046247,-0.00010661,0.00334,0.045224,-0.0078867,-0.0041594,-0.024048,-0.00055438,0.017368,0,0,0,0.028611,0.0077118,0.0051496,0.01173,0.013824,0.022305,5.5691e-07,0.05,0.9,0.2
0.0045224,-0.0028331,0.0018039,0.027078,0.0033191,0.0051692,-0.0032976,-0.00021661,0.0028714,0.049062,-0.01271,-0.0078997,-0.017147,-0.0011264,0.014931,0,0,0,0.027973,0.0048648,0.0027278,0.012623,0.011855,0.024263,7.1974e-07,0.1,0.9,0.2
0.0070607,-0.0039073,0.0025722,0.027187,0.0018284,0.0033255,-0.0020885,-0.00031792,0.0022358,0.051282,-0.014651,-0.010758,-0.01086,-0.0016532,0.011626,0,0,0,0.027614,0.0031565,0.0015706,0.013022,0.01078,0.025295,8.2029e-07,0.15,0.9,0.2
0.0096506,-0.004696,0.0031972,0.026822,0.0010564,0.0020585,-0.0012171,-0.00039603,0.0015836,0.051775,-0.015215,-0.01261,-0.0063287,-0.0020593,0.0082347,0,0,0,0.027006,0.0020806,0.00085029,0.013078,0.0099789,0.025565,8.5139e-07,0.2,0.9,0.2
0.012238,-0.005252,0.0036721,0.026338,0.00064667,0.0012554,-0.00065726,-0.00044285,0.0010175,0.051536,-0.015263,-0.01368,-0.0034177,-0.0023028,0.0052909,0,0,0,0.02641,0.0014463,0.00038445,0.013013,0.0094135,0.025512,8.4829e-07,0.25,0.9,0.2
0.014804,-0.0056232,0.0040077,0.025894,0.00043279,0.00077677,-0.00028745,-0.00044996,0.00056244,0.051063,-0.015137,-0.014243,-0.0014948,-0.0023398,0.0029247,0,0,0,0.025918,0.0010744,0.00011204,0.012903,0.0090347,0.025339,8.3206e-07,0.3,0.9,0.2
0.017344,-0.0058446,0.0042219,0.025538,0.00032334,0.0005077,-1.8814e-05,-0.00040233,0.00020579,0.050577,-0.014981,-0.014501,-9.7831e-05,-0.0020921,0.0010701,0,0,0,0.025544,0.00082536,-3.8159e-07,0.012772,0.0087897,0.025143,8.1369e-07,0.35,0.9,0.2
0.019862,-0.0059442,0.0043346,0.025276,0.0002534,0.0003571,0.00019035,-0.00028085,-6.6782e-05,0.050186,-0.014873,-0.014603,0.00098983,-0.0014604,-0.00034726,0,0,0,0.02528,0.00058844,1.7818e-05,0.012631,0.0086289,0.024983,7.9946e-07,0.4,0.9,0.2
0.022363,-0.0059509,0.0043697,0.025102,0.00017394,0.00025419,0.00033971,-7.6516e-05,-0.00025448,0.049947,-0.014866,-0.014657,0.0017665,-0.00039788,-0.0013233,0,0,0,0.02511,0.00038695,3.2691e-05,0.012539,0.0085099,0.024903,7.9259e-07,0.45,0.9,0.2
0.024857,-0.0059017,0.0043565,0.025002,6.1202e-05,0.00015747,0.00040403,0.00019016,-0.0003435,0.049872,-0.014973,-0.014723,0.002101,0.00098883,-0.0017862,0,0,0,0.025013,0.00035474,-0.00014774,0.012581,0.0084068,0.024915,7.9284e-07,0.5,0.9,0.2
0.02735,-0.0058425,0.0043305,0.024958,-6.7006e-05,6.4211e-05,0.00036064,0.0004548,-0.00032391,0.049918,-0.015147,-0.014806,0.0018754,0.002365,-0.0016843,0,0,0,0.024968,0.00046544,-0.0004781,0.012723,0.0083185,0.024991,7.9692e-07,0.55,0.9,0.2
0.029848,-0.0058204,0.0043268,0.024955,-0.00015833,-3.3615e-06,0.00022026,0.00062434,-0.00021165,0.050008,-0.015288,-0.014885,0.0011454,0.0032466,-0.0011006,0,0,0,0.02496,0.00055706,-0.00072359,0.012842,0.0082646,0.025071,8.0152e-07,0.6,0.9,0.2
0.032351,-0.0058671,0.004369,0.02498,-0.0001723,-2.9856e-05,3.6086e-05,0.00062996,-5.44e-05,0.050082,-0.015315,-0.014944,0.00018765,0.0032758,-0.00028288,0,0,0,0.024982,0.0005411,-0.0007447,0.012863,0.0082593,0.025111,8.0534e-07,0.65,0.9,0.2
0.034856,-0.0059875,0.0044618,0.025024,-0.0001115,-2.0503e-05,-0.00012171,0.00047123,8.7576e-05,0.050127,-0.015225,-0.014988,-0.00063289,0.0024504,0.00045539,0,0,0,0.025026,0.00041284,-0.00054647,0.012786,0.0082973,0.025109,8.0823e-07,0.7,0.9,0.2
0.037364,-0.0061596,0.0045907,0.025082,-2.1089e-05,-1.3722e-06,-0.00020281,0.00021555,0.00017026,0.050178,-0.015091,-0.015039,-0.0010546,0.0011209,0.00088536,0,0,0,0.025085,0.00023995,-0.00026548,0.012675,0.0083533,0.025104,8.109e-07,0.75,0.9,0.2
0.039874,-0.0063473,0.004731,0.025152,4.237e-05,-6.7791e-06,-0.00020191,-4.6443e-05,0.00018474,0.050282,-0.015002,-0.01513,-0.0010499,-0.00024151,0.00096067,0,0,0,0.025155,0.00017675,-0.00014442,0.01265,0.0083957,0.025141,8.1553e-07,0.8,0.9,0.2
0.042392,-0.0065172,0.0048589,0.025227,5.5023e-05,-5.0442e-05,-0.00015008,-0.00025298,0.00015147,0.050452,-0.014996,-0.01527,-0.0007804,-0.0013155,0.00078765,0,0,0,0.025229,0.0002651,-0.00026271,0.012746,0.0084106,0.025234,8.2377e-07,0.85,0.9,0.2
0.044919,-0.0066474,0.0049578,0.025298,2.9821e-05,-0.00011595,-8.6553e-05,-0.00038526,9.9004e-05,0.050649,-0.01505,-0.015429,-0.00045008,-0.0020033,0.00051482,0,0,0,0.025299,0.00035618,-0.0004433,0.012871,0.0084041,0.025353,8.3425e-07,0.9,0.9,0.2
0.047457,-0.0067275,0.0050193,0.02535,-3.4589e-06,-0.00017247,-6.187e-05,-0.00045279,6.6976e-05,0.050805,-0.015113,-0.015553,-0.00032172,-0.0023545,0.00034828,0,0,0,0.02535,0.00038154,-0.00055794,0.012954,0.0083913,0.025452,8.4319e-07,0.95,0.9,0.2
0.048728,-0.0067543,0.0050401,0.025369,-1.7886e-05,-0.00019439,-6.7267e-05,-0.00047274,6.2588e-05,0.050865,-0.01514,-0.015599,-0.00034979,-0.0024583,0.00032546,0,0,0,0.025369,0.0003841,-0.00059682,0.012983,0.0083855,0.02549,8.4671e-07,1,0.9,0.2
0.0012238,-0.0010488,0.00047171,0.030624,0.0087112,0.01075,-0.0063638,-2.879e-05,0.0035297,0.049571,-0.0074024,-0.0021003,-0.033092,-0.00014971,0.018355,0,0,0,0.033092,0.010537,0.0064569,0.013318,0.016695,0.02486,7.7365e-07,0,0.95,0.2
0.0024786,-0.001965,0.00093106,0.029269,0.0056134,0.0084046,-0.004953,-6.7011e-05,0.0033551,0.050128,-0.011378,-0.0041206,-0.025755,-0.00034846,0.017446,0,0,0,0.031008,0.0081004,0.0041795,0.013414,0.014429,0.025117,7.7795e-07,0.05,0.95,0.2
0.0050128,-0.0035476,0.0018082,0.027429,0.0018725,0.004881,-0.0026879,-0.00014914,0.0028797,0.050806,-0.015641,-0.0078188,-0.013977,-0.00077555,0.014975,0,0,0,0.028161,0.0045432,0.0014787,0.013341,0.011394,0.025312,7.9243e-07,0.1,0.95,0.2
0.0075591,-0.0046811,0.0025764,0.026469,0.0008867,0.0028856,-0.001383,-0.00022691,0.002228,0.050675,-0.01584,-0.010643,-0.0071916,-0.0011799,0.011586,0,0,0,0.026797,0.0026883,0.0007566,0.01302,0.010081,0.025139,7.9979e-07,0.15,0.95,0.2
0.01008,-0.0054729,0.0032001,0.02569,0.00040814,0.0015903,-0.00069298,-0.00028179,0.0015514,0.05018,-0.015552,-0.012478,-0.0036035,-0.0014653,0.0080673,0,0,0,0.025829,0.0015539,0.00030511,0.012762,0.0092293,0.024926,7.902e-07,0.2,0.95,0.2
0.012577,-0.0060179,0.0036724,0.025179,0.00021115,0.00084004,-0.00031686,-0.00031038,0.00095559,0.049727,-0.015189,-0.013554,-0.0016477,-0.001614,0.0049691,0,0,0,0.025231,0.00094063,5.8576e-05,0.012586,0.0087433,0.024744,7.7646e-07,0.25,0.95,0.2
0.015053,-0.0063769,0.0040047,0.024853,0.00012661,0.00042404,-8.942e-05,-0.00030946,0.00047198,0.049375,-0.014913,-0.01414,-0.00046498,-0.0016092,0.0024543,0,0,0,0.024868,0.0006165,-8.0938e-05,0.012474,0.0084678,0.024608,7.6456e-07,0.3,0.95,0.2
0.017515,-0.0065892,0.0042163,0.024684,9.5989e-05,0.00021897,7.1698e-05,-0.00027126,9.5699e-05,0.049178,-0.01475,-0.01443,0.00037283,-0.0014105,0.00049763,0,0,0,0.024687,0.00043571,-0.00012467,0.012406,0.0083328,0.024537,7.5821e-07,0.35,0.95,0.2
0.019971,-0.0066846,0.0043297,0.024652,8.3079e-05,0.00014228,0.00019771,-0.00018564,-0.00018124,0.049169,-0.014711,-0.014557,0.0010281,-0.00096531,-0.00094247,0,0,0,0.024657,0.00029836,-7.8012e-05,0.012368,0.0082926,0.02455,7.5968e-07,0.4,0.95,0.2
0.022432,-0.0066932,0.0043705,0.024736,6.1703e-05,0.0001341,0.00028642,-4.9367e-05,-0.00035638,0.049355,-0.014799,-0.014611,0.0014894,-0.00025671,-0.0018532,0,0,0,0.024746,0.00021213,-2.6064e-05,0.012386,0.0083107,0.024654,7.6957e-07,0.45,0.95,0.2
0.024906,-0.0066516,0.0043683,0.024896,1.7818e-05,0.0001506,0.00031695,0.00012138,-0.0004202,0.049691,-0.014992,-0.014647,0.0016481,0.00063116,-0.0021851,0,0,0,0.024908,0.0002511,-9.4669e-05,0.012501,0.0083548,0.024833,7.8585e-07,0.5,0.95,0.2
0.027401,-0.0066028,0.0043549,0.025077,-3.987e-05,0.00016516,0.00027164,0.00028517,-0.0003711,0.050078,-0.015225,-0.014692,0.0014125,0.0014829,-0.0019297,0,0,0,0.025086,0.00037286,-0.00025693,0.012671,0.0084006,0.025036,8.0384e-07,0.55,0.95,0.2
0.029914,-0.0065887,0.0043594,0.025219,-8.2769e-05,0.00016662,0.00015835,0.00038821,-0.00023095,0.050387,-0.015397,-0.014748,0.00082341,0.0020187,-0.001201,0,0,0,0.025223,0.00045905,-0.00037954,0.012801,0.0084342,0.025196,8.1801e-07,0.6,0.95,0.2
0.032439,-0.0066369,0.0044011,0.025281,-8.6521e-05,0.00015103,1.5276e-05,0.00039249,-4.7604e-05,0.050524,-0.015432,-0.014815,7.9434e-05,0.002041,-0.00024754,0,0,0,0.025283,0.00045169,-0.0003885,0.012836,0.0084486,0.025263,8.2462e-07,0.65,0.95,0.2
0.034966,-0.006752,0.0044847,0.025257,-5.2207e-05,0.00011403,-0.0001065,0.00029776,0.00012086,0.050477,-0.015327,-0.014895,-0.0005538,0.0015484,0.00062848,0,0,0,0.025259,0.00034674,-0.00028678,0.012773,0.0084395,0.025236,8.2332e-07,0.7,0.95,0.2
0.037487,-0.0069157,0.0046,0.025172,-6.0595e-06,5.0459e-05,-0.00017036,0.00014125,0.00023008,0.050316,-0.015145,-0.014998,-0.00088588,0.00073448,0.0011964,0,0,0,0.025175,0.00019072,-0.00015009,0.012663,0.0084053,0.025158,8.1704e-07,0.75,0.95,0.2
0.039998,-0.0070963,0.004728,0.025067,2.1853e-05,-3.9169e-05,-0.00017142,-2.4548e-05,0.00026495,0.050145,-0.014973,-0.015132,-0.00089136,-0.00012765,0.0013778,0,0,0,0.025071,0.0001003,-0.00012205,0.012597,0.0083499,0.025083,8.1029e-07,0.8,0.95,0.2
0.042502,-0.0072628,0.0048482,0.024979,2.0759e-05,-0.00014296,-0.00013193,-0.00015969,0.00023747,0.050031,-0.01486,-0.015286,-0.00068601,-0.00083037,0.0012348,0,0,0,0.024982,0.000123,-0.00024862,0.012615,0.0082855,0.025048,8.064e-07,0.85,0.95,0.2
0.045001,-0.0073926,0.0049441,0.024922,5.2844e-07,-0.00023995,-8.0829e-05,-0.00024913,0.00017159,0.049988,-0.014808,-0.015434,-0.00042031,-0.0012955,0.00089225,0,0,0,0.024924,0.00016564,-0.00040689,0.012665,0.0082276,0.02505,8.0597e-07,0.9,0.95,0.2
0.0475,-0.0074736,0.0050052,0.024895,-2.1366e-05,-0.00030841,-6.2609e-05,-0.00029647,0.00010884,0.049988,-0.014795,-0.015541,-0.00032557,-0.0015416,0.00056595,0,0,0,0.024896,0.00017604,-0.00050663,0.012701,0.0081884,0.025069,8.0728e-07,0.95,0.95,0.2
0.04875,-0.007501,0.005026,0.024888,-3.0488e-05,-0.00033302,-6.9571e-05,-0.00031083,8.5458e-05,0.049993,-0.014794,-0.01558,-0.00036177,-0.0016163,0.00044438,0,0,0,0.024888,0.00017631,-0.0005404,0.012714,0.0081747,0.025079,8.0806e-07,1,0.95,0.2
0.0013821,-0.0012394,0.00047457,0.033528,0.009057,0.011728,-0.0070315,-1.7098e-05,0.0035568,0.054584,-0.0090394,-0.0020948,-0.036564,-8.891e-05,0.018495,0,0,0,0.036214,0.011501,0.0065983,0.014808,0.018104,0.027506,1.0173e-06,0,1,0.2
0.0027292,-0.0022582,0.00093635,0.031048,0.0053514,0.0088651,-0.005103,-4.6682e-05,0.0033841,0.053566,-0.013245,-0.0041095,-0.026535,-0.00024275,0.017597,0,0,0,0.032831,0.0085437,0.0038895,0.014471,0.015088,0.026936,9.3722e-07,0.05,1,0.2
0.0053566,-0.0039495,0.0018177,0.027484,0.0011577,0.0046942,-0.0022492,-0.00011369,0.0029073,0.051456,-0.016991,-0.0077963,-0.011696,-0.00059121,0.015118,0,0,0,0.028117,0.0043402,0.0008785,0.013619,0.011112,0.02571,8.1904e-07,0.1,1,0.2
0.0078748,-0.0050839,0.002589,0.025771,0.00039376,0.0025447,-0.00096065,-0.00017796,0.002245,0.049778,-0.016202,-0.010609,-0.0049954,-0.00092538,0.011674,0,0,0,0.026052,0.0023326,0.00032441,0.012864,0.0095697,0.024795,7.6583e-07,0.15,1,0.2
0.010334,-0.0058643,0.0032143,0.02486,5.1974e-05,0.0012553,-0.00042527,-0.00022019,0.001551,0.048936,-0.015565,-0.012437,-0.0022114,-0.001145,0.008065,0,0,0,0.024984,0.0011928,-9.5521e-06,0.012497,0.0087224,0.024418,7.4289e-07,0.2,1,0.2
0.012768,-0.0063982,0.0036864,0.024427,-3.3234e-05,0.00056351,-0.00016286,-0.00024002,0.00093452,0.048537,-0.015061,-0.013509,-0.00084687,-0.0012481,0.0048595,0,0,0,0.024474,0.00062332,-0.00013921,0.012306,0.0083192,0.024242,7.3043e-07,0.25,1,0.2
0.015188,-0.0067495,0.0040169,0.024219,-4.9845e-05,0.00020185,-1.4121e-05,-0.00023672,0.00043068,0.048347,-0.014752,-0.014098,-7.3429e-05,-0.001231,0.0022396,0,0,0,0.024232,0.0003451,-0.00020586,0.012219,0.0081237,0.024167,7.2458e-07,0.3,1,0.2
0.017603,-0.0069575,0.0042255,0.024181,-3.6281e-05,4.5612e-05,9.0339e-05,-0.00020566,3.8007e-05,0.048356,-0.014608,-0.014395,0.00046976,-0.0010694,0.00019763,0,0,0,0.024184,0.00021512,-0.00020927,0.012197,0.0080633,0.024184,7.2628e-07,0.35,1,0.2
0.020024,-0.007052,0.0043357,0.024291,-1.437e-05,1.785e-05,0.00017331,-0.00014032,-0.00024811,0.04858,-0.014614,-0.01453,0.00090122,-0.00072968,-0.0012902,0,0,0,0.024297,0.0001403,-0.00014245,0.01222,0.0080981,0.024299,7.3686e-07,0.4,1,0.2
0.022461,-0.0070631,0.0043741,0.024526,7.8874e-07,6.3996e-05,0.00023141,-3.942e-05,-0.00042272,0.049014,-0.014753,-0.014588,0.0012033,-0.00020499,-0.0021981,0,0,0,0.024537,0.00011853,-6.4264e-05,0.012301,0.0081971,0.02451,7.5636e-07,0.45,1,0.2
0.024925,-0.0070265,0.0043706,0.024837,-4.5123e-07,0.00013926,0.00024777,8.4297e-05,-0.00047619,0.049591,-0.014987,-0.014624,0.0012884,0.00043834,-0.0024762,0,0,0,0.02485,0.00019656,-7.0078e-05,0.01246,0.0083253,0.024788,7.8202e-07,0.5,1,0.2
0.02742,-0.0069837,0.004357,0.025147,-1.5348e-05,0.00020759,0.00020856,0.00020119,-0.00040932,0.050178,-0.015243,-0.014664,0.0010845,0.0010462,-0.0021285,0,0,0,0.025156,0.00033027,-0.0001473,0.012652,0.0084463,0.025069,8.081e-07,0.55,1,0.2
0.029943,-0.0069738,0.0043616,0.025372,-2.888e-05,0.00024413,0.00011915,0.00027433,-0.00024742,0.050614,-0.015427,-0.014718,0.00061956,0.0014265,-0.0012866,0,0,0,0.025376,0.00042089,-0.00020982,0.012793,0.008529,0.025277,8.2768e-07,0.6,1,0.2
0.032482,-0.007023,0.0044028,0.025456,-2.7063e-05,0.00023548,8.1164e-06,0.000278,-4.1212e-05,0.050788,-0.015469,-0.014787,4.2205e-05,0.0014456,-0.0002143,0,0,0,0.025458,0.00041905,-0.00021193,0.012835,0.0085549,0.025361,8.3591e-07,0.65,1,0.2
0.035022,-0.0071355,0.0044853,0.025394,-1.0302e-05,0.00017787,-8.5923e-05,0.00021204,0.00014872,0.050687,-0.015364,-0.014874,-0.0004468,0.0011026,0.00077336,0,0,0,0.025396,0.00032103,-0.00015551,0.012776,0.0085205,0.025317,8.3233e-07,0.7,1,0.2
0.03755,-0.0072945,0.0045997,0.025228,6.855e-06,7.6774e-05,-0.00013537,0.00010171,0.00027505,0.050405,-0.015169,-0.014987,-0.00070392,0.0005289,0.0014303,0,0,0,0.025232,0.00016933,-8.9971e-05,0.012661,0.0084371,0.025194,8.2096e-07,0.75,1,0.2
0.040062,-0.0074706,0.0047278,0.025026,9.2397e-06,-5.2361e-05,-0.00013665,-1.6924e-05,0.00031923,0.050077,-0.014966,-0.015126,-0.00071059,-8.8007e-05,0.00166,0,0,0,0.025031,6.4578e-05,-0.00011293,0.012572,0.0083276,0.025056,8.0776e-07,0.8,1,0.2
0.042558,-0.0076338,0.0048493,0.024847,-6.0154e-06,-0.00018663,-0.00010632,-0.00011522,0.00029075,0.04981,-0.014808,-0.015278,-0.00055286,-0.00059915,0.0015119,0,0,0,0.024852,5.2278e-05,-0.00024917,0.01255,0.0082182,0.024952,7.9744e-07,0.85,1,0.2
0.045043,-0.007762,0.0049471,0.024723,-3.0083e-05,-0.00030187,-6.6132e-05,-0.00018126,0.00021363,0.049645,-0.014713,-0.01542,-0.00034389,-0.00094253,0.0011109,0,0,0,0.024725,6.5654e-05,-0.0004,0.012563,0.0081304,0.024896,7.9165e-07,0.9,1,0.2
0.047523,-0.0078424,0.0050099,0.024655,-5.0705e-05,-0.00037876,-5.6448e-05,-0.00021665,0.0001326,0.049568,-0.014667,-0.01552,-0.00029353,-0.0011266,0.0006895,0,0,0,0.024656,6.4148e-05,-0.00049466,0.012576,0.0080753,0.024877,7.8944e-07,0.95,1,0.2
0.048762,-0.0078696,0.0050314,0.024635,-5.8667e-05,-0.00040564,-6.6799e-05,-0.00022748,9.8917e-05,0.049548,-0.014655,-0.015557,-0.00034736,-0.0011829,0.00051437,0,0,0,0.024635,6.1634e-05,-0.00052661,0.012581,0.0080568,0.024873,7.8899e-07,1,1,0.2
0.0013379,0.0012084,0.0003529,0.032472,0.0087879,0.01152,0.0068556,7.0349e-06,0.0026606,0.052759,-0.0088197,-0.001715,0.035649,3.6582e-05,0.013835,0,0,0,0.034912,0.011383,0.0064853,0.014213,0.017593,0.026341,8.8596e-07,0,0,0.25
0.002638,0.0022031,0.00069964,0.030079,0.0052165,0.0088926,0.0049734,2.2147e-05,0.0025588,0.051692,-0.01295,-0.0033919,0.025862,0.00011516,0.013306,0,0,0,0.031651,0.0086943,0.0038424,0.013904,0.014729,0.025746,8.0408e-07,0.05,0,0.25
0.0051692,0.0038556,0.0013705,0.026657,0.0011748,0.0050662,0.0021801,5.8304e-05,0.0022672,0.049569,-0.016684,-0.0065663,0.011336,0.00030318,0.011789,0,0,0,0.027152,0.0048369,0.00090886,0.013121,0.010966,0.024538,6.9379e-07,0.1,0,0.25
0.0075948,0.0049635,0.0019786,0.02509,0.00042922,0.0030339,0.00090002,9.4086e-05,0.0018345,0.048102,-0.016016,-0.0092437,0.0046801,0.00048925,0.0095396,0,0,0,0.025299,0.0028778,0.00037568,0.012462,0.0095177,0.023783,6.6475e-07,0.15,0,0.25
0.0099794,0.0057224,0.0024974,0.024389,8.2868e-05,0.0017065,0.00035058,0.00011539,0.0013454,0.047705,-0.015492,-0.01127,0.001823,0.00060003,0.0069961,0,0,0,0.024485,0.0016298,6.3825e-05,0.012211,0.0087262,0.023683,6.7266e-07,0.2,0,0.25
0.012365,0.0062409,0.002917,0.024203,-1.3071e-05,0.00091065,7.7197e-05,0.00012125,0.0008844,0.047868,-0.015095,-0.012693,0.00040142,0.00063048,0.0045989,0,0,0,0.024243,0.00089399,-3.5841e-05,0.012139,0.008367,0.02383,6.9214e-07,0.25,0,0.25
0.014766,0.006589,0.0032413,0.024229,-4.3771e-05,0.00043031,-6.6173e-05,0.00011413,0.00050017,0.048227,-0.014883,-0.013651,-0.0003441,0.00059348,0.0026009,0,0,0,0.024243,0.00045297,-8.0016e-05,0.012161,0.0082053,0.024062,7.1492e-07,0.3,0,0.25
0.017188,0.0068138,0.0034827,0.024365,-5.0735e-05,0.00015319,-0.00014323,9.7304e-05,0.00020739,0.048668,-0.014812,-0.014282,-0.00074478,0.00050598,0.0010784,0,0,0,0.024369,0.00020035,-0.00010198,0.012235,0.0081557,0.024321,7.3899e-07,0.35,0,0.25
0.019633,0.00695,0.0036563,0.024559,-5.1998e-05,5.8201e-06,-0.00018064,7.4111e-05,1.6133e-06,0.049146,-0.014843,-0.014693,-0.00093936,0.00038538,8.3887e-06,0,0,0,0.024561,6.5097e-05,-0.00011334,0.012337,0.0081709,0.024586,7.6348e-07,0.4,0,0.25
0.022103,0.0070252,0.0037773,0.02478,-5.3225e-05,-6.0434e-05,-0.00019026,4.795e-05,-0.00012923,0.049628,-0.014938,-0.014957,-0.00098934,0.00024934,-0.00067202,0,0,0,0.024782,-3.4045e-06,-0.00011278,0.012448,0.0082221,0.024841,7.8746e-07,0.45,0,0.25
0.024596,0.0070619,0.0038599,0.025,-5.5496e-05,-8.0037e-05,-0.0001779,2.2361e-05,-0.00019924,0.050082,-0.015063,-0.015127,-0.00092507,0.00011628,-0.001036,0,0,0,0.025003,-3.6553e-05,-0.00010206,0.012553,0.0082883,0.025073,8.0969e-07,0.5,0,0.25
0.027111,0.0070789,0.0039159,0.025196,-5.7375e-05,-7.8021e-05,-0.00014818,8.3796e-07,-0.00022247,0.050473,-0.015186,-0.015239,-0.00077056,4.3574e-06,-0.0011568,0,0,0,0.025199,-4.6337e-05,-9.2055e-05,0.012646,0.0083535,0.025268,8.2873e-07,0.55,0,0.25
0.029643,0.0070907,0.003955,0.025348,-5.6558e-05,-7.213e-05,-0.00010681,-1.3696e-05,-0.00021246,0.050773,-0.015279,-0.015319,-0.00055543,-7.122e-05,-0.0011048,0,0,0,0.02535,-4.1656e-05,-8.9388e-05,0.01272,0.0084064,0.025416,8.4329e-07,0.6,0,0.25
0.032188,0.007107,0.0039844,0.025445,-5.1346e-05,-7.3645e-05,-6.0998e-05,-1.9555e-05,-0.00018183,0.050964,-0.015325,-0.015383,-0.00031719,-0.00010169,-0.00094554,0,0,0,0.025446,-3.5365e-05,-9.1172e-05,0.012769,0.0084398,0.025509,8.526e-07,0.65,0,0.25
0.03474,0.0071326,0.0040087,0.025484,-4.1664e-05,-8.7888e-05,-1.8404e-05,-1.6745e-05,-0.00014174,0.051047,-0.015321,-0.015441,-9.57e-05,-8.7074e-05,-0.00073706,0,0,0,0.025485,-3.1797e-05,-9.863e-05,0.012792,0.0084516,0.025551,8.5672e-07,0.7,0,0.25
0.037293,0.0071673,0.0040303,0.025475,-2.9135e-05,-0.00011496,1.457e-05,-6.9475e-06,-0.00010104,0.051037,-0.015275,-0.015498,7.5761e-05,-3.6127e-05,-0.0005254,0,0,0,0.025476,-2.5937e-05,-0.00011861,0.012797,0.0084438,0.025548,8.5646e-07,0.75,0,0.25
0.039843,0.0072078,0.0040499,0.025433,-1.6253e-05,-0.00015092,3.4201e-05,6.9895e-06,-6.5694e-05,0.050966,-0.015202,-0.015552,0.00017784,3.6346e-05,-0.00034161,0,0,0,0.025433,-1.5028e-05,-0.00015239,0.012793,0.0084218,0.025517,8.5326e-07,0.8,0,0.25
0.042389,0.0072484,0.0040669,0.025374,-5.2543e-06,-0.00018941,3.9894e-05,2.1819e-05,-3.8634e-05,0.050866,-0.015122,-0.0156,0.00020745,0.00011346,-0.0002009,0,0,0,0.025375,-2.1674e-06,-0.00019264,0.012784,0.0083933,0.025473,8.4873e-07,0.85,0,0.25
0.04493,0.0072828,0.0040803,0.025318,2.6183e-06,-0.00022334,3.3635e-05,3.4599e-05,-2.0076e-05,0.050769,-0.015052,-0.015639,0.0001749,0.00017992,-0.00010439,0,0,0,0.025319,8.576e-06,-0.00022937,0.012774,0.0083659,0.02543,8.4437e-07,0.9,0,0.25
0.047466,0.0073058,0.0040889,0.025279,7.1411e-06,-0.00024651,2.7024e-05,4.3136e-05,-5.2849e-06,0.050701,-0.015005,-0.015665,0.00014052,0.00022431,-2.7481e-05,0,0,0,0.025279,1.5304e-05,-0.00025471,0.012767,0.0083465,0.0254,8.4131e-07,0.95,0,0.25
0.048733,0.0073139,0.0040919,0.025265,8.5896e-06,-0.00025472,2.615e-05,4.6123e-05,2.229e-06,0.050677,-0.014989,-0.015673,0.00013598,0.00023984,1.1591e-05,0,0,0,0.025265,1.7554e-05,-0.00026372,0.012764,0.0083395,0.025389,8.4022e-07,1,0,0.25
0.0011829,0.0010225,0.00035119,0.029624,0.0084473,0.010564,0.0062018,1.4567e-05,0.0026438,0.047842,-0.0072184,-0.001715,0.032249,7.575e-05,0.013748,0,0,0,0.031837,0.010433,0.006366,0.012735,0.016212,0.023718,6.676e-07,0,0.05,0.25
0.0023921,0.0019165,0.00069639,0.028329,0.0054745,0.0084453,0.0048217,3.5238e-05,0.0025396,0.048306,-0.011116,-0.0033917,0.025073,0.00018324,0.013206,0,0,0,0.02985,0.0082553,0.0041441,0.012853,0.014083,0.023934,6.6229e-07,0.05,0.05,0.25
0.0048306,0.0034612,0.0013643,0.026589,0.0018862,0.0052598,0.0025958,8.0566e-05,0.0022459,0.048891,-0.015337,-0.0065657,0.013498,0.00041894,0.011679,0,0,0,0.02718,0.0050395,0.0015162,0.012832,0.011245,0.024115,6.6976e-07,0.1,0.05,0.25
0.0072812,0.0045659,0.0019699,0.025753,0.00093234,0.0033843,0.0012917,0.00012311,0.001816,0.048917,-0.015618,-0.0092429,0.0067166,0.00064019,0.009443,0,0,0,0.026006,0.0032355,0.00082865,0.012589,0.010023,0.024074,6.9213e-07,0.15,0.05,0.25
0.0097223,0.0053335,0.0024866,0.025169,0.00045271,0.0020513,0.00058292,0.00014936,0.0013331,0.048835,-0.015427,-0.01127,0.0030312,0.00077669,0.006932,0,0,0,0.025276,0.0019832,0.00041363,0.012431,0.0092242,0.024121,7.1113e-07,0.2,0.05,0.25
0.012165,0.0058604,0.0029048,0.024891,0.00024096,0.0011924,0.00019205,0.00015697,0.00087954,0.048921,-0.015168,-0.012694,0.00099865,0.00081626,0.0045736,0,0,0,0.024932,0.0011881,0.00020373,0.012364,0.0087747,0.024254,7.2962e-07,0.25,0.05,0.25
0.014614,0.0062137,0.0032286,0.024791,0.00013227,0.00065055,-2.9641e-05,0.00014795,0.00050187,0.049111,-0.015,-0.013653,-0.00015413,0.00076934,0.0026097,0,0,0,0.024804,0.00068806,8.0975e-05,0.012362,0.0085245,0.024427,7.4782e-07,0.3,0.05,0.25
0.017076,0.0064406,0.0034698,0.024803,6.8991e-05,0.00032,-0.00015639,0.00012582,0.00021381,0.049373,-0.014936,-0.014283,-0.00081324,0.00065425,0.0011118,0,0,0,0.024808,0.00037946,5.124e-06,0.012401,0.0083974,0.024618,7.663e-07,0.35,0.05,0.25
0.019552,0.0065765,0.0036436,0.024888,2.4385e-05,0.00012773,-0.00022353,9.4636e-05,1.0819e-05,0.049684,-0.01496,-0.014692,-0.0011624,0.00049211,5.6261e-05,0,0,0,0.02489,0.00019087,-4.1583e-05,0.012466,0.0083466,0.024817,7.8522e-07,0.4,0.05,0.25
0.022044,0.0066497,0.0037652,0.025014,-1.2407e-05,2.3977e-05,-0.00024782,5.8903e-05,-0.00011886,0.050021,-0.015048,-0.014953,-0.0012887,0.00030629,-0.00061807,0,0,0,0.025017,7.4205e-05,-6.6181e-05,0.012542,0.0083418,0.025014,8.0407e-07,0.45,0.05,0.25
0.024554,0.0066836,0.0038483,0.025156,-4.4165e-05,-2.6347e-05,-0.00023802,2.3596e-05,-0.0001888,0.050354,-0.015166,-0.01512,-0.0012377,0.0001227,-0.00098175,0,0,0,0.02516,4.5344e-06,-7.9109e-05,0.012619,0.0083617,0.025197,8.2182e-07,0.5,0.05,0.25
0.02708,0.0066978,0.0039049,0.02529,-6.8857e-05,-4.8248e-05,-0.00020117,-6.1687e-06,-0.0002126,0.050649,-0.015283,-0.015229,-0.0010461,-3.2077e-05,-0.0011055,0,0,0,0.025293,-2.6672e-05,-9.4129e-05,0.012694,0.0083908,0.025354,8.3717e-07,0.55,0.05,0.25
0.029619,0.0067075,0.0039449,0.025397,-8.2613e-05,-5.9178e-05,-0.00014588,-2.6002e-05,-0.00020346,0.050879,-0.015368,-0.015307,-0.00075856,-0.00013521,-0.001058,0,0,0,0.0254,-3.3226e-05,-0.00011127,0.012755,0.0084184,0.025472,8.4889e-07,0.6,0.05,0.25
0.032167,0.0067229,0.0039752,0.025466,-8.2714e-05,-7.0406e-05,-8.2975e-05,-3.3321e-05,-0.00017391,0.051025,-0.015403,-0.015371,-0.00043147,-0.00017327,-0.00090433,0,0,0,0.025468,-3.4899e-05,-0.00011984,0.012794,0.0084378,0.025546,8.5622e-07,0.65,0.05,0.25
0.034721,0.0067487,0.0040006,0.025495,-6.9691e-05,-8.794e-05,-2.3909e-05,-2.8099e-05,-0.00013506,0.051084,-0.015383,-0.015431,-0.00012433,-0.00014611,-0.00070229,0,0,0,0.025496,-3.866e-05,-0.00011982,0.012808,0.0084457,0.025575,8.5916e-07,0.7,0.05,0.25
0.037276,0.0067849,0.0040233,0.025487,-4.7537e-05,-0.00011333,2.1836e-05,-1.2843e-05,-9.5744e-05,0.05107,-0.015319,-0.01549,0.00011355,-6.6784e-05,-0.00049787,0,0,0,0.025487,-3.5967e-05,-0.00012535,0.012806,0.008442,0.025568,8.5846e-07,0.75,0.05,0.25
0.039828,0.0068274,0.004044,0.025454,-2.2088e-05,-0.00014458,4.884e-05,8.2058e-06,-6.1846e-05,0.051008,-0.01523,-0.015548,0.00025397,4.267e-05,-0.0003216,0,0,0,0.025454,-1.859e-05,-0.00014837,0.012801,0.0084291,0.025538,8.5538e-07,0.8,0.05,0.25
0.042377,0.0068701,0.0040619,0.02541,1.2266e-06,-0.00017728,5.6317e-05,3.0272e-05,-3.6123e-05,0.050925,-0.015137,-0.015601,0.00029285,0.00015742,-0.00018784,0,0,0,0.02541,7.6776e-06,-0.00018394,0.012797,0.0084112,0.025499,8.5133e-07,0.85,0.05,0.25
0.044921,0.0069063,0.0040761,0.025367,1.8908e-05,-0.00020598,4.7198e-05,4.911e-05,-1.8654e-05,0.050847,-0.015059,-0.015644,0.00024543,0.00025537,-9.7001e-05,0,0,0,0.025367,3.1188e-05,-0.00021839,0.012793,0.0083934,0.025462,8.4755e-07,0.9,0.05,0.25
0.047461,0.0069305,0.0040851,0.025337,2.9571e-05,-0.0002256,3.4991e-05,6.1613e-05,-4.5262e-06,0.050792,-0.015008,-0.015671,0.00018195,0.00032039,-2.3536e-05,0,0,0,0.025337,4.618e-05,-0.00024227,0.01279,0.0083805,0.025437,8.4495e-07,0.95,0.05,0.25
0.048731,0.006939,0.0040882,0.025327,3.3089e-05,-0.00023256,3.0941e-05,6.5975e-05,2.7941e-06,0.050773,-0.01499,-0.015681,0.0001609,0.00034307,1.4529e-05,0,0,0,0.025327,5.1257e-05,-0.00025077,0.012789,0.0083757,0.025428,8.4403e-07,1,0.05,0.25
0.00099554,0.00074162,0.00034998,0.026137,0.0085001,0.0095291,0.0051365,3.0442e-05,0.0026317,0.041457,-0.0043996,-0.0017242,0.02671,0.0001583,0.013685,0,0,0,0.027959,0.0094153,0.0067923,0.010583,0.014722,0.019996,3.9354e-07,0,0.1,0.25
0.0020728,0.0014524,0.00069425,0.026045,0.0063863,0.008024,0.004495,6.2653e-05,0.0025256,0.043444,-0.0076687,-0.0034108,0.023374,0.00032579,0.013133,0,0,0,0.027459,0.0078534,0.0051425,0.011158,0.013485,0.021106,4.6593e-07,0.05,0.1,0.25
0.0043444,0.0027617,0.0013605,0.026204,0.0033353,0.0055596,0.0031712,0.00012637,0.0022299,0.047071,-0.012388,-0.0066044,0.01649,0.0006571,0.011596,0,0,0,0.026947,0.0053533,0.0027984,0.012074,0.0117,0.022992,6.0336e-07,0.1,0.1,0.25
0.00678,0.0038049,0.0019645,0.026395,0.0019075,0.0038421,0.0019447,0.00018145,0.001801,0.049341,-0.014328,-0.0092976,0.010112,0.00094352,0.0093653,0,0,0,0.026736,0.0037027,0.0017061,0.012515,0.010715,0.024103,7.0278e-07,0.15,0.1,0.25
0.0092785,0.0045654,0.0024795,0.026191,0.0011448,0.0025338,0.0010417,0.00021679,0.001322,0.050176,-0.014946,-0.011334,0.0054166,0.0011273,0.0068744,0,0,0,0.026331,0.0024852,0.0010541,0.012638,0.0099567,0.024597,7.5524e-07,0.2,0.1,0.25
0.011798,0.0050983,0.0028959,0.025917,0.00071481,0.0016099,0.00045565,0.00022795,0.00087372,0.05044,-0.015087,-0.012759,0.0023694,0.0011853,0.0045434,0,0,0,0.025967,0.0016388,0.00063575,0.012666,0.009414,0.024847,7.8357e-07,0.25,0.1,0.25
0.014322,0.0054579,0.0032177,0.025693,0.00045691,0.00098903,8.5672e-05,0.00021557,0.00050072,0.050519,-0.015096,-0.013712,0.00044549,0.001121,0.0026038,0,0,0,0.025708,0.001067,0.00036375,0.012672,0.0090464,0.025001,8.0071e-07,0.3,0.1,0.25
0.016849,0.0056877,0.003457,0.025544,0.0002859,0.00058366,-0.00014417,0.00018306,0.00021569,0.050567,-0.015105,-0.014331,-0.0007497,0.00095194,0.0011216,0,0,0,0.025549,0.00067793,0.00018691,0.012681,0.0088046,0.02512,8.1337e-07,0.35,0.1,0.25
0.019379,0.0058226,0.0036286,0.025466,0.00015752,0.00032557,-0.00027818,0.00013541,1.4112e-05,0.050643,-0.01516,-0.014723,-0.0014465,0.00070416,7.3383e-05,0,0,0,0.02547,0.00040504,7.4122e-05,0.012698,0.0086498,0.025232,8.2486e-07,0.4,0.1,0.25
0.021914,0.0058918,0.0037479,0.025444,5.0514e-05,0.00016525,-0.00033973,7.9147e-05,-0.00011496,0.050759,-0.015265,-0.014966,-0.0017666,0.00041157,-0.0005978,0,0,0,0.02545,0.00021026,2.4993e-08,0.012725,0.0085534,0.025346,8.3626e-07,0.45,0.1,0.25
0.024455,0.0059202,0.0038289,0.02546,-4.1077e-05,6.755e-05,-0.00034189,2.2385e-05,-0.00018399,0.050903,-0.015398,-0.015116,-0.0017779,0.0001164,-0.00095672,0,0,0,0.025466,8.3631e-05,-6.3355e-05,0.012765,0.0084953,0.025456,8.473e-07,0.5,0.1,0.25
0.027004,0.0059288,0.0038842,0.025492,-0.00011287,8.0074e-06,-0.00029582,-2.5866e-05,-0.00020576,0.051046,-0.015526,-0.015211,-0.0015382,-0.0001345,-0.0010699,0,0,0,0.025497,2.0349e-05,-0.00013056,0.012814,0.0084623,0.025553,8.5692e-07,0.55,0.1,0.25
0.02956,0.0059346,0.0039239,0.025524,-0.00015618,-2.9942e-05,-0.00021589,-5.7483e-05,-0.00019346,0.051159,-0.015609,-0.01528,-0.0011226,-0.00029891,-0.001006,0,0,0,0.025527,-4.7613e-06,-0.00018493,0.012856,0.0084459,0.025623,8.6391e-07,0.6,0.1,0.25
0.03212,0.0059488,0.0039553,0.025544,-0.00016499,-5.7237e-05,-0.00012076,-6.7514e-05,-0.0001604,0.05122,-0.015622,-0.015342,-0.00062797,-0.00035107,-0.00083409,0,0,0,0.025545,-2.1337e-05,-0.00020272,0.012874,0.0084404,0.025658,8.6746e-07,0.65,0.1,0.25
0.034682,0.0059764,0.0039831,0.025546,-0.000141,-8.0887e-05,-3.0307e-05,-5.581e-05,-0.00011891,0.051225,-0.015561,-0.015405,-0.00015759,-0.00029021,-0.00061836,0,0,0,0.025547,-4.0582e-05,-0.00018209,0.012864,0.0084414,0.025659,8.6755e-07,0.7,0.1,0.25
0.037242,0.0060167,0.0040093,0.025532,-9.4146e-05,-0.00010484,3.9257e-05,-2.7021e-05,-7.8804e-05,0.051184,-0.015445,-0.015473,0.00020414,-0.00014051,-0.00040978,0,0,0,0.025533,-4.975e-05,-0.00014966,0.012841,0.0084445,0.025633,8.6498e-07,0.75,0.1,0.25
0.0398,0.0060645,0.0040337,0.025508,-3.8591e-05,-0.00013024,7.9124e-05,1.1097e-05,-4.6215e-05,0.051117,-0.015304,-0.015542,0.00041145,5.7702e-05,-0.00024032,0,0,0,0.025508,-2.5172e-05,-0.00014406,0.012826,0.0084464,0.025593,8.6097e-07,0.8,0.1,0.25
0.042354,0.0061124,0.0040553,0.025481,1.2739e-05,-0.00015567,8.8617e-05,5.0085e-05,-2.3496e-05,0.051047,-0.015169,-0.015607,0.00046081,0.00026044,-0.00012218,0,0,0,0.025481,2.8642e-05,-0.00017194,0.012826,0.0084459,0.025553,8.5679e-07,0.85,0.1,0.25
0.044905,0.006153,0.0040723,0.025457,5.1692e-05,-0.0001779,7.3072e-05,8.2762e-05,-9.9962e-06,0.050989,-0.015064,-0.015661,0.00037997,0.00043036,-5.198e-05,0,0,0,0.025457,8.0835e-05,-0.0002073,0.012832,0.0084434,0.025521,8.5339e-07,0.9,0.1,0.25
0.047453,0.00618,0.0040832,0.02544,7.5138e-05,-0.00019321,5.0064e-05,0.00010417,4.4505e-07,0.050952,-0.014998,-0.015696,0.00026033,0.00054167,2.3142e-06,0,0,0,0.025441,0.00011363,-0.00023182,0.012836,0.0084408,0.025501,8.5124e-07,0.95,0.1,0.25
0.048727,0.0061894,0.0040869,0.025435,8.2864e-05,-0.00019868,4.0146e-05,0.00011158,6.2085e-06,0.050939,-0.014976,-0.015708,0.00020876,0.00058023,3.2284e-05,0,0,0,0.025435,0.00012466,-0.00024055,0.012838,0.0084397,0.025495,8.5051e-07,1,0.1,0.25
0.00094903,0.00058252,0.00035274,0.025197,0.00901,0.0093878,0.004294,4.4018e-05,0.0026546,0.039355,-0.0027307,-0.0017485,0.022329,0.0002289,0.013804,0,0,0,0.026689,0.009296,0.0076092,0.0095401,0.014532,0.018299,3.1024e-07,0,0.15,0.25
0.0019677,0.0011496,0.00069971,0.025261,0.0073608,0.0080565,0.003984,8.5793e-05,0.0025494,0.041272,-0.0052691,-0.00346,0.020717,0.00044612,0.013257,0,0,0,0.026509,0.0079095,0.0062595,0.010125,0.013559,0.019484,3.8025e-07,0.05,0.15,0.25
0.0041272,0.0022225,0.001371,0.025718,0.004625,0.0057523,0.0031982,0.00016371,0.0022532,0.04521,-0.0096322,-0.0067013,0.016631,0.0008513,0.011717,0,0,0,0.026493,0.005562,0.0040407,0.011226,0.012032,0.021741,5.2714e-07,0.1,0.15,0.25
0.0064887,0.0031332,0.0019788,0.026295,0.0028884,0.0040386,0.0022423,0.0002269,0.0018198,0.048434,-0.012423,-0.0094328,0.01166,0.0011799,0.009463,0,0,0,0.026693,0.0039146,0.0026142,0.012039,0.011074,0.023463,6.5947e-07,0.15,0.15,0.25
0.0089706,0.003839,0.0024958,0.026482,0.0018465,0.0027536,0.0013797,0.00026827,0.0013334,0.050204,-0.013849,-0.01149,0.0071744,0.001395,0.0069338,0,0,0,0.026657,0.0027434,0.0016822,0.012487,0.010361,0.024465,7.4801e-07,0.2,0.15,0.25
0.011509,0.0043517,0.0029118,0.026406,0.0012096,0.0018265,0.00072209,0.00028263,0.00087694,0.050991,-0.01452,-0.012917,0.0037549,0.0014697,0.0045601,0,0,0,0.026471,0.0019164,0.0010555,0.012708,0.0098142,0.024997,7.9918e-07,0.25,0.15,0.25
0.01407,0.0047042,0.0032309,0.02623,0.00080131,0.0011824,0.00025734,0.00026866,0.00049587,0.051269,-0.014845,-0.013854,0.0013382,0.001397,0.0025785,0,0,0,0.026248,0.0013285,0.0006365,0.012806,0.0094044,0.025273,8.2707e-07,0.3,0.15,0.25
0.016636,0.0049302,0.0034653,0.026046,0.00051795,0.00074651,-5.8425e-05,0.00022804,0.0002033,0.051332,-0.015039,-0.014445,-0.00030381,0.0011858,0.0010572,0,0,0,0.02605,0.00089765,0.00036209,0.012844,0.0091033,0.025425,8.4291e-07,0.35,0.15,0.25
0.019203,0.0050605,0.0036303,0.025896,0.00029851,0.00045684,-0.00026023,0.00016509,-4.5093e-06,0.05134,-0.015215,-0.014803,-0.0013532,0.00085846,-2.3448e-05,0,0,0,0.0259,0.00056696,0.0001845,0.012858,0.0088839,0.025527,8.5375e-07,0.4,0.15,0.25
0.02177,0.0051232,0.0037419,0.025794,0.00011084,0.00026616,-0.00036854,8.7425e-05,-0.00013699,0.051361,-0.015414,-0.01501,-0.0019164,0.00045461,-0.00071236,0,0,0,0.0258,0.00031651,5.4042e-05,0.012873,0.0087236,0.025616,8.631e-07,0.45,0.15,0.25
0.024339,0.0051438,0.0038152,0.025732,-5.369e-05,0.00014049,-0.00039497,6.505e-06,-0.00020484,0.051412,-0.015631,-0.015126,-0.0020539,3.3826e-05,-0.0010652,0,0,0,0.02574,0.00015601,-7.7045e-05,0.012909,0.0086064,0.025702,8.7184e-07,0.5,0.15,0.25
0.026911,0.0051453,0.0038642,0.025699,-0.00018545,5.6907e-05,-0.0003512,-6.3398e-05,-0.0002199,0.051475,-0.015824,-0.015194,-0.0018262,-0.00032967,-0.0011435,0,0,0,0.025706,7.7704e-05,-0.00021308,0.012959,0.0085234,0.025775,8.7914e-07,0.55,0.15,0.25
0.029487,0.0051467,0.0039003,0.025678,-0.0002665,7.3426e-07,-0.00025588,-0.00010844,-0.00019622,0.051516,-0.01594,-0.015246,-0.0013306,-0.00056387,-0.0010203,0,0,0,0.025683,4.1281e-05,-0.00031138,0.012997,0.0084709,0.02582,8.8355e-07,0.6,0.15,0.25
0.032063,0.0051607,0.0039315,0.025659,-0.0002841,-3.7695e-05,-0.00013597,-0.00011976,-0.00014993,0.051511,-0.015941,-0.0153,-0.00070704,-0.00062273,-0.00077965,0,0,0,0.025661,1.2662e-05,-0.00033641,0.012999,0.0084457,0.025825,8.8404e-07,0.65,0.15,0.25
0.034638,0.0051926,0.0039625,0.025635,-0.00024125,-6.5826e-05,-2.1153e-05,-9.6987e-05,-9.7096e-05,0.051454,-0.015824,-0.015368,-0.00011,-0.00050433,-0.0005049,0,0,0,0.025635,-2.0645e-05,-0.00028712,0.012961,0.0084425,0.025791,8.8074e-07,0.7,0.15,0.25
0.037208,0.0052404,0.0039945,0.025606,-0.00015749,-8.9734e-05,6.4828e-05,-4.8258e-05,-5.042e-05,0.051361,-0.015625,-0.015449,0.0003371,-0.00025094,-0.00026218,0,0,0,0.025607,-4.7567e-05,-0.0002001,0.012903,0.008453,0.025731,8.7489e-07,0.75,0.15,0.25
0.039774,0.005297,0.0040261,0.025578,-6.0088e-05,-0.00011322,0.00011046,1.3273e-05,-1.704e-05,0.05126,-0.015399,-0.015537,0.00057438,6.9022e-05,-8.8606e-05,0,0,0,0.025579,-2.4879e-05,-0.00014901,0.012864,0.0084683,0.025666,8.683e-07,0.8,0.15,0.25
0.042334,0.0053531,0.0040547,0.025555,2.7312e-05,-0.00013683,0.00011683,7.4055e-05,1.5622e-06,0.051176,-0.015196,-0.015623,0.0006075,0.00038509,8.1233e-06,0,0,0,0.025555,5.7753e-05,-0.00016786,0.012862,0.0084818,0.025612,8.6258e-07,0.85,0.15,0.25
0.044891,0.0053999,0.0040774,0.025539,9.1406e-05,-0.0001581,9.31e-05,0.00012352,7.8251e-06,0.051118,-0.015046,-0.015694,0.00048412,0.00064232,4.0691e-05,0,0,0,0.025539,0.00014447,-0.00021155,0.012876,0.0084908,0.025575,8.5857e-07,0.9,0.15,0.25
0.047446,0.0054307,0.004092,0.025531,0.00012878,-0.00017311,6.1374e-05,0.00015521,1.0826e-05,0.051088,-0.014957,-0.015742,0.00031914,0.00080708,5.6296e-05,0,0,0,0.025531,0.00019705,-0.00024157,0.012886,0.0084954,0.025556,8.5636e-07,0.95,0.15,0.25
0.048723,0.0054414,0.004097,0.025528,0.00014086,-0.00017855,4.7577e-05,0.00016605,1.3303e-05,0.051078,-0.014928,-0.015758,0.0002474,0.00086347,6.9178e-05,0,0,0,0.025528,0.00021442,-0.00025222,0.01289,0.0084967,0.02555,8.5568e-07,1,0.15,0.25
0.00092922,0.00046855,0.00035833,0.024767,0.0091912,0.0092975,0.0035073,5.1808e-05,0.002699,0.038442,-0.0020565,-0.0017801,0.018238,0.0002694,0.014035,0,0,0,0.025972,0.0092358,0.0080486,0.0089616,0.014419,0.017363,2.6792e-07,0,0.2,0.25
0.0019221,0.00092551,0.00071037,0.024897,0.0078594,0.0080658,0.0033341,9.8923e-05,0.0025942,0.040239,-0.0040589,-0.0035223,0.017337,0.0005144,0.01349,0,0,0,0.025937,0.0079641,0.0069208,0.0095082,0.013607,0.018521,3.3121e-07,0.05,0.2,0.25
0.0040239,0.0017985,0.0013908,0.02546,0.0055256,0.0058852,0.0028571,0.00018431,0.0022967,0.044074,-0.0077562,-0.006821,0.014857,0.0009584,0.011943,0,0,0,0.026163,0.0057608,0.0049474,0.010608,0.01229,0.020824,4.7046e-07,0.1,0.2,0.25
0.0063295,0.0025626,0.0020055,0.026162,0.0037951,0.0041882,0.0021945,0.00025122,0.0018574,0.047535,-0.01062,-0.0095981,0.011411,0.0013063,0.0096587,0,0,0,0.026562,0.0041496,0.0034343,0.011564,0.011382,0.022781,6.1032e-07,0.15,0.2,0.25
0.0087774,0.0031806,0.0025266,0.026533,0.0025795,0.0028931,0.0015037,0.00029615,0.0013613,0.049783,-0.012497,-0.011682,0.0078194,0.00154,0.0070787,0,0,0,0.026726,0.0029956,0.0022845,0.012221,0.010669,0.024095,7.1858e-07,0.2,0.2,0.25
0.011308,0.0036463,0.0029433,0.02662,0.0017662,0.0019603,0.00090183,0.00031408,0.00089225,0.051005,-0.013616,-0.013111,0.0046895,0.0016332,0.0046397,0,0,0,0.026698,0.0021779,0.0014714,0.012613,0.010116,0.024881,7.8969e-07,0.25,0.2,0.25
0.013878,0.0039734,0.0032595,0.02653,0.0012124,0.0013073,0.00042568,0.00030129,0.00049724,0.051548,-0.014278,-0.014031,0.0022135,0.0015667,0.0025857,0,0,0,0.026554,0.0015753,0.00092061,0.012817,0.0096833,0.025313,8.313e-07,0.3,0.2,0.25
0.016463,0.0041837,0.0034873,0.026366,0.00081145,0.00085882,6.9265e-05,0.00025602,0.0001904,0.051729,-0.014712,-0.014589,0.00036018,0.0013313,0.0009901,0,0,0,0.026371,0.0011057,0.00055923,0.012906,0.0093453,0.025543,8.5463e-07,0.35,0.2,0.25
0.019051,0.0043011,0.0036424,0.026194,0.00049022,0.00055364,-0.00018185,0.00017964,-3.0393e-05,0.051762,-0.015068,-0.014903,-0.00094563,0.00093414,-0.00015804,0,0,0,0.026197,0.00071592,0.00032483,0.012936,0.0090793,0.025679,8.69e-07,0.4,0.2,0.25
0.021639,0.0043504,0.0037419,0.02605,0.00020561,0.0003448,-0.00033541,7.9095e-05,-0.00017172,0.051769,-0.015425,-0.015063,-0.0017441,0.00041129,-0.00089292,0,0,0,0.026056,0.00040954,0.00013471,0.01296,0.0088666,0.025785,8.8016e-07,0.45,0.2,0.25
0.024228,0.0043571,0.0038027,0.025942,-5.3318e-05,0.00019895,-0.00039332,-3.0849e-05,-0.0002408,0.051797,-0.015791,-0.015135,-0.0020453,-0.00016041,-0.0012522,0,0,0,0.02595,0.00022431,-8.7061e-05,0.013019,0.0086959,0.025883,8.9019e-07,0.5,0.2,0.25
0.026818,0.0043464,0.0038409,0.025866,-0.00026737,9.5519e-05,-0.00036135,-0.00012836,-0.00024733,0.051836,-0.016112,-0.015168,-0.001879,-0.00066748,-0.0012861,0,0,0,0.025874,0.00014167,-0.00032107,0.013097,0.0085648,0.025967,8.9826e-07,0.55,0.2,0.25
0.029411,0.0043406,0.0038704,0.02581,-0.00040206,2.3721e-05,-0.00025915,-0.00019023,-0.00020647,0.051847,-0.016304,-0.015197,-0.0013476,-0.00098921,-0.0010736,0,0,0,0.025815,9.9534e-05,-0.0004825,0.013149,0.0084773,0.026012,9.0233e-07,0.6,0.2,0.25
0.032003,0.0043547,0.0039008,0.025762,-0.00043238,-2.3015e-05,-0.00012206,-0.00020083,-0.00013931,0.051798,-0.016308,-0.015244,-0.00063469,-0.0010443,-0.00072442,0,0,0,0.025764,6.1651e-05,-0.00051889,0.013142,0.0084357,0.025998,9.0093e-07,0.65,0.2,0.25
0.034591,0.0043941,0.0039367,0.025718,-0.00036277,-5.2255e-05,8.5634e-06,-0.00015945,-6.8597e-05,0.051685,-0.016125,-0.015318,4.453e-05,-0.00082916,-0.0003567,0,0,0,0.025719,1.6815e-05,-0.00043245,0.013076,0.0084343,0.02593,8.9442e-07,0.7,0.2,0.25
0.037172,0.0044542,0.0039778,0.025679,-0.00022828,-7.3374e-05,0.00010057,-8.0388e-05,-1.2056e-05,0.051539,-0.01582,-0.015417,0.00052298,-0.00041802,-6.269e-05,0,0,0,0.02568,-2.7648e-05,-0.00027463,0.012977,0.0084591,0.025832,8.8498e-07,0.75,0.2,0.25
0.039745,0.0045246,0.0040205,0.02565,-7.6859e-05,-9.4155e-05,0.00014134,1.4237e-05,2.1948e-05,0.051403,-0.015487,-0.015532,0.00073496,7.4032e-05,0.00011413,0,0,0,0.025651,-8.9464e-06,-0.00016296,0.012907,0.008493,0.025738,8.7551e-07,0.8,0.2,0.25
0.042312,0.0045928,0.0040598,0.025635,5.284e-05,-0.00011728,0.00013689,0.00010339,3.4045e-05,0.051308,-0.015205,-0.015647,0.00071185,0.00053761,0.00017703,0,0,0,0.025635,0.00010419,-0.00016947,0.012902,0.0085234,0.02567,8.6829e-07,0.85,0.2,0.25
0.044876,0.0046484,0.0040911,0.025631,0.00014291,-0.00014004,0.00010276,0.0001728,3.0102e-05,0.051259,-0.015009,-0.015744,0.00053436,0.00089856,0.00015653,0,0,0,0.025631,0.00022769,-0.00022533,0.012928,0.0085445,0.025633,8.6406e-07,0.9,0.2,0.25
0.047438,0.0046843,0.0041111,0.025632,0.00019279,-0.00015695,6.6061e-05,0.0002157,2.3709e-05,0.051243,-0.0149,-0.015809,0.00034352,0.0011216,0.00012329,0,0,0,0.025633,0.00029925,-0.00026363,0.012948,0.0085561,0.02562,8.6222e-07,0.95,0.2,0.25
0.048719,0.0046966,0.004118,0.025634,0.00020839,-0.0001632,5.1679e-05,0.00023008,2.2385e-05,0.051241,-0.014866,-0.015832,0.00026873,0.0011964,0.0001164,0,0,0,0.025634,0.00032221,-0.00027715,0.012956,0.0085597,0.025617,8.6177e-07,1,0.2,0.25
0.00092181,0.00037686,0.00036554,0.024602,0.0093069,0.009266,0.0028436,5.5231e-05,0.0027558,0.038059,-0.0017067,-0.001813,0.014787,0.0002872,0.01433,0,0,0,0.025594,0.0092536,0.0083271,0.0086333,0.014391,0.016824,2.4488e-07,0,0.25,0.25
0.001903,0.00074371,0.00072405,0.024749,0.0081542,0.0080776,0.0027359,0.00010468,0.0026511,0.039758,-0.0033873,-0.0035866,0.014226,0.00054434,0.013786,0,0,0,0.025619,0.0080706,0.0072913,0.0091636,0.01366,0.017953,3.0285e-07,0.05,0.25,0.25
0.0039758,0.0014468,0.001416,0.025343,0.006101,0.0059612,0.0024289,0.00019346,0.0023522,0.043448,-0.0065804,-0.0069438,0.01263,0.001006,0.012231,0,0,0,0.025955,0.0060113,0.0054384,0.010258,0.012468,0.020238,4.3342e-07,0.1,0.25,0.25
0.0062478,0.0020711,0.0020394,0.026093,0.0044756,0.004287,0.0019782,0.00026289,0.0019086,0.046929,-0.0092771,-0.0097674,0.010287,0.001367,0.0099245,0,0,0,0.026464,0.004473,0.0039193,0.011272,0.011619,0.022274,5.7212e-07,0.15,0.25,0.25
0.0086688,0.0025893,0.0025661,0.026549,0.0032152,0.00299,0.0014696,0.00031196,0.0014047,0.049375,-0.011293,-0.011879,0.007642,0.0016222,0.0073046,0,0,0,0.026742,0.0033306,0.0026814,0.01203,0.010918,0.023744,6.8859e-07,0.2,0.25,0.25
0.011185,0.0029901,0.0029846,0.026728,0.0022963,0.0020508,0.00098096,0.0003358,0.00092439,0.050848,-0.012675,-0.013313,0.005101,0.0017462,0.0048068,0,0,0,0.026813,0.002493,0.0017691,0.012522,0.010358,0.024691,7.7191e-07,0.25,0.25,0.25
0.013754,0.0032764,0.0032981,0.026703,0.0016335,0.0013938,0.00055427,0.00032796,0.00051462,0.05159,-0.013591,-0.014214,0.0028822,0.0017054,0.002676,0,0,0,0.026733,0.0018577,0.00114,0.012796,0.0099102,0.025242,8.2407e-07,0.3,0.25,0.25
0.016344,0.003459,0.0035184,0.026563,0.0011341,0.00094137,0.00020179,0.00028165,0.00018993,0.051881,-0.014235,-0.014735,0.0010493,0.0014646,0.00098763,0,0,0,0.02657,0.0013423,0.00072593,0.012922,0.0095462,0.025542,8.5415e-07,0.35,0.25,0.25
0.018942,0.0035537,0.0036611,0.026382,0.00071958,0.00062956,-7.3764e-05,0.0001923,-5.0109e-05,0.051954,-0.014768,-0.015002,-0.00038357,0.00099997,-0.00026057,0,0,0,0.026384,0.00088424,0.00046226,0.012961,0.0092436,0.025714,8.7235e-07,0.4,0.25,0.25
0.02154,0.0035807,0.0037441,0.026208,0.00033616,0.00040852,-0.0002645,6.332e-05,-0.0002076,0.051969,-0.015297,-0.015109,-0.0013754,0.00032926,-0.0010795,0,0,0,0.026213,0.0005103,0.00022898,0.012992,0.0089841,0.025845,8.8625e-07,0.45,0.25,0.25
0.024139,0.0035646,0.0037869,0.026065,-3.0557e-05,0.00024395,-0.00035635,-8.7292e-05,-0.00028341,0.052001,-0.015846,-0.015133,-0.001853,-0.00045392,-0.0014737,0,0,0,0.026073,0.00029888,-9.3738e-05,0.013083,0.0087594,0.025973,8.9906e-07,0.5,0.25,0.25
0.02674,0.0035341,0.0038092,0.025956,-0.00034733,0.00011869,-0.00034208,-0.00022606,-0.00028242,0.052049,-0.016339,-0.015128,-0.0017788,-0.0011755,-0.0014686,0,0,0,0.025964,0.00021687,-0.00045326,0.013208,0.0085758,0.02609,9.0973e-07,0.55,0.25,0.25
0.029343,0.0035162,0.0038289,0.025874,-0.0005523,2.9428e-05,-0.00023803,-0.00031366,-0.0002205,0.052061,-0.016647,-0.015134,-0.0012378,-0.001631,-0.0011466,0,0,0,0.025878,0.00017196,-0.00069941,0.013289,0.0084503,0.026154,9.1514e-07,0.6,0.25,0.25
0.031946,0.0035299,0.0038582,0.025809,-0.00059869,-2.3455e-05,-8.8321e-05,-0.00032237,-0.00012617,0.051991,-0.016669,-0.015173,-0.00045927,-0.0016763,-0.00065606,0,0,0,0.025811,0.00012588,-0.00074966,0.01328,0.0083956,0.026135,9.1307e-07,0.65,0.25,0.25
0.034543,0.0035801,0.003902,0.025758,-0.00049226,-4.7438e-05,5.1108e-05,-0.00025101,-3.2781e-05,0.051841,-0.016411,-0.015255,0.00026576,-0.0013053,-0.00017046,0,0,0,0.025759,6.8935e-05,-0.0006093,0.013184,0.0084062,0.026037,9.042e-07,0.7,0.25,0.25
0.03713,0.0036584,0.0039572,0.025725,-0.00029271,-5.8673e-05,0.00013858,-0.00012516,3.4366e-05,0.05166,-0.015985,-0.015377,0.00072064,-0.00065081,0.0001787,0,0,0,0.025726,8.2624e-06,-0.00036065,0.013043,0.0084578,0.025905,8.9197e-07,0.75,0.25,0.25
0.039709,0.0037483,0.0040165,0.025713,-7.9034e-05,-7.2206e-05,0.00016306,1.7444e-05,6.6029e-05,0.051516,-0.015542,-0.015525,0.00084791,9.0712e-05,0.00034335,0,0,0,0.025714,2.8213e-05,-0.00018074,0.012947,0.0085205,0.025791,8.8086e-07,0.8,0.25,0.25
0.042282,0.0038327,0.0040711,0.025723,9.1668e-05,-9.3881e-05,0.00014027,0.00014407,6.7443e-05,0.051446,-0.015194,-0.015676,0.00072939,0.00074916,0.0003507,0,0,0,0.025724,0.00017438,-0.00017762,0.012951,0.0085734,0.025728,8.739e-07,0.85,0.25,0.25
0.044853,0.0038991,0.0041141,0.025746,0.00020078,-0.00011953,9.528e-05,0.00023669,5.0628e-05,0.051443,-0.014974,-0.015807,0.00049545,0.0012308,0.00026326,0,0,0,0.025746,0.00033073,-0.00025002,0.012998,0.0086091,0.025711,8.7138e-07,0.9,0.25,0.25
0.047426,0.0039407,0.0041413,0.025769,0.00025631,-0.00014014,6.0155e-05,0.00029091,3.5297e-05,0.051468,-0.014865,-0.015895,0.0003128,0.0015127,0.00018355,0,0,0,0.025769,0.00041533,-0.00029939,0.013034,0.0086283,0.025719,8.7141e-07,0.95,0.25,0.25
0.048713,0.0039548,0.0041506,0.025778,0.00027266,-0.000148,5.0002e-05,0.00030851,3.1297e-05,0.051481,-0.014833,-0.015926,0.00026001,0.0016043,0.00016275,0,0,0,0.025778,0.0004412,-0.00031669,0.013047,0.0086342,0.025725,8.7174e-07,1,0.25,0.25
0.00092048,0.00029787,0.00037353,0.024581,0.009402,0.0092727,0.0022589,5.5778e-05,0.0028187,0.037958,-0.0015083,-0.0018445,0.011746,0.00029004,0.014657,0,0,0,0.02542,0.0093253,0.0085105,0.0084548,0.014419,0.016519,2.3213e-07,0,0.3,0.25
0.0018979,0.00058677,0.00073916,0.024734,0.0083528,0.0081021,0.0021904,0.00010547,0.0027146,0.039595,-0.002996,-0.0036479,0.01139,0.00054846,0.014116,0,0,0,0.025474,0.0082294,0.0074851,0.0089946,0.01373,0.017631,2.8681e-07,0.05,0.3,0.25
0.0039595,0.0011405,0.0014439,0.025336,0.0064763,0.0060134,0.0019924,0.00019484,0.0024159,0.043179,-0.0058572,-0.0070607,0.01036,0.0010132,0.012563,0,0,0,0.025868,0.0063196,0.0056379,0.010115,0.012609,0.019901,4.1145e-07,0.1,0.3,0.25
0.0062157,0.0016349,0.0020771,0.026106,0.0049494,0.0043524,0.0016952,0.00026639,0.0019718,0.046631,-0.0083762,-0.0099284,0.0088149,0.0013852,0.010253,0,0,0,0.02644,0.004857,0.0041109,0.011164,0.011803,0.021968,5.4787e-07,0.15,0.3,0.25
0.0086226,0.0020513,0.0026105,0.026603,0.0037007,0.0030581,0.0013456,0.00032118,0.0014659,0.04915,-0.010395,-0.012066,0.0069971,0.0016701,0.0076225,0,0,0,0.026788,0.0037117,0.0028624,0.011963,0.011121,0.023514,6.6761e-07,0.2,0.3,0.25
0.011131,0.0023788,0.0030321,0.02683,0.0027379,0.0021183,0.00098616,0.0003546,0.00098016,0.050747,-0.011893,-0.013504,0.005128,0.0018439,0.0050968,0,0,0,0.026919,0.0028377,0.0019297,0.012495,0.010562,0.024549,7.5744e-07,0.25,0.3,0.25
0.013697,0.0026143,0.0033439,0.02684,0.002012,0.0014626,0.00064425,0.00035736,0.00055998,0.051595,-0.012957,-0.014386,0.0033501,0.0018583,0.0029119,0,0,0,0.026875,0.0021642,0.001275,0.0128,0.010105,0.025168,8.1561e-07,0.3,0.3,0.25
0.01629,0.0027603,0.0035564,0.026705,0.0014475,0.0010125,0.00033193,0.00031595,0.00021817,0.051935,-0.013736,-0.014867,0.001726,0.001643,0.0011345,0,0,0,0.026716,0.0016085,0.00084085,0.012938,0.0097218,0.025501,8.4902e-07,0.35,0.3,0.25
0.018891,0.0028244,0.0036846,0.026499,0.00096364,0.0006985,5.8496e-05,0.0002159,-4.5318e-05,0.052001,-0.014391,-0.015081,0.00030418,0.0011227,-0.00023566,0,0,0,0.026502,0.0010883,0.00057062,0.012966,0.0093871,0.025678,8.6813e-07,0.4,0.3,0.25
0.02149,0.0028207,0.0037465,0.026279,0.00049592,0.00046511,-0.00015617,5.1587e-05,-0.0002275,0.051982,-0.015055,-0.015135,-0.00081208,0.00026825,-0.001183,0,0,0,0.026284,0.00064182,0.00031465,0.012985,0.0090801,0.025808,8.8225e-07,0.45,0.3,0.25
0.024089,0.0027724,0.0037644,0.026083,2.2808e-05,0.00027564,-0.00028117,-0.0001575,-0.00031905,0.051987,-0.01577,-0.015112,-0.0014621,-0.00081902,-0.0016591,0,0,0,0.02609,0.00039406,-0.00010312,0.013097,0.0087938,0.02595,8.9601e-07,0.5,0.3,0.25
0.026689,0.0027125,0.0037638,0.025926,-0.00040948,0.00011799,-0.00029226,-0.00035913,-0.00031586,0.052027,-0.016445,-0.015074,-0.0015198,-0.0018675,-0.0016425,0,0,0,0.025934,0.00030921,-0.00060809,0.013271,0.0085449,0.026097,9.0846e-07,0.55,0.3,0.25
0.029292,0.002676,0.0037692,0.025813,-0.0006994,3.2158e-06,-0.00019816,-0.00048662,-0.00023378,0.052043,-0.016888,-0.015062,-0.0010305,-0.0025304,-0.0012157,0,0,0,0.025817,0.0002621,-0.00096255,0.01339,0.0083722,0.02619,9.1541e-07,0.6,0.3,0.25
0.031893,0.0026879,0.0037976,0.025741,-0.000764,-5.4318e-05,-4.9614e-05,-0.00049313,-0.00011105,0.051974,-0.01694,-0.015095,-0.00025799,-0.0025643,-0.00057744,0,0,0,0.025743,0.00020758,-0.0010273,0.013385,0.0083077,0.026176,9.1379e-07,0.65,0.3,0.25
0.034489,0.002753,0.0038539,0.02571,-0.00060983,-6.186e-05,8.3944e-05,-0.00037684,5.1192e-06,0.051822,-0.016608,-0.015184,0.00043651,-0.0019596,2.662e-05,0,0,0,0.025711,0.00013641,-0.00080888,0.01326,0.008346,0.026062,9.0451e-07,0.7,0.3,0.25
0.037076,0.0028557,0.0039308,0.025717,-0.0003349,-4.9076e-05,0.00015285,-0.00018132,7.9468e-05,0.051665,-0.016071,-0.015328,0.00079481,-0.00094288,0.00041323,0,0,0,0.025719,6.1047e-05,-0.00044634,0.013082,0.0084444,0.025917,8.924e-07,0.75,0.3,0.25
0.039655,0.0029704,0.0040142,0.025761,-6.0779e-05,-4.5071e-05,0.00015105,2.8871e-05,0.0001024,0.051585,-0.015551,-0.01551,0.00078543,0.00015013,0.00053249,0,0,0,0.025762,9.0512e-05,-0.0001978,0.01298,0.0085517,0.025818,8.8333e-07,0.8,0.3,0.25
0.042234,0.0030734,0.0040899,0.025832,0.00013952,-6.0626e-05,0.00010729,0.00020206,8.7882e-05,0.051617,-0.015184,-0.015704,0.00055789,0.0010507,0.00045699,0,0,0,0.025833,0.00027122,-0.00019329,0.013013,0.008637,0.025798,8.806e-07,0.85,0.3,0.25
0.044817,0.003151,0.0041481,0.02591,0.00025342,-8.9053e-05,5.7288e-05,0.00031815,5.785e-05,0.051722,-0.014986,-0.015876,0.0002979,0.0016544,0.00030082,0,0,0,0.025911,0.00045002,-0.00028609,0.013098,0.0086915,0.025837,8.8334e-07,0.9,0.3,0.25
0.047406,0.0031978,0.0041841,0.025971,0.00030283,-0.00011533,3.6442e-05,0.00038086,3.8907e-05,0.051829,-0.014907,-0.015995,0.0001895,0.0019805,0.00020232,0,0,0,0.025971,0.00053565,-0.00034834,0.01316,0.0087194,0.025889,8.8771e-07,0.95,0.3,0.25
0.048703,0.0032133,0.0041962,0.025993,0.0003154,-0.00012584,3.8168e-05,0.00040022,3.626e-05,0.051873,-0.01489,-0.016037,0.00019847,0.0020811,0.00018855,0,0,0,0.025993,0.00055943,-0.00037002,0.013182,0.0087276,0.025911,8.8971e-07,1,0.3,0.25
0.00092286,0.00022604,0.00038166,0.024652,0.0094856,0.0093045,0.0017218,5.392e-05,0.0028832,0.03803,-0.0014028,-0.0018735,0.0089533,0.00028038,0.014993,0,0,0,0.025383,0.0094226,0.008637,0.0083728,0.014481,0.016368,2.2589e-07,0,0.35,0.25
0.0019015,0.00044412,0.00075456,0.024808,0.008492,0.0081378,0.0016808,0.00010195,0.0027805,0.039638,-0.0027834,-0.0037042,0.0087402,0.00053017,0.014459,0,0,0,0.025454,0.0083954,0.0075882,0.0089329,0.013813,0.017478,2.7903e-07,0.05,0.35,0.25
0.0039638,0.00086113,0.0014723,0.025417,0.0067169,0.0060563,0.0015615,0.00018905,0.0024854,0.04317,-0.0054501,-0.0071676,0.0081198,0.00098307,0.012924,0,0,0,0.025886,0.0065993,0.0057051,0.01009,0.01273,0.019751,4.0105e-07,0.1,0.35,0.25
0.0062185,0.0012335,0.002116,0.026202,0.0052588,0.0044007,0.0013829,0.00026169,0.0020465,0.046607,-0.0078436,-0.010075,0.0071913,0.0013608,0.010642,0,0,0,0.026502,0.0051877,0.004171,0.011166,0.011954,0.021843,5.3693e-07,0.15,0.35,0.25
0.0086245,0.0015497,0.0026573,0.026726,0.0040339,0.0031106,0.0011704,0.0003232,0.0015474,0.049166,-0.0098345,-0.012235,0.0060861,0.0016807,0.0080463,0,0,0,0.026901,0.0040344,0.0029357,0.011983,0.01129,0.023436,6.5927e-07,0.2,0.35,0.25
0.011135,0.0018008,0.0030835,0.026984,0.0030597,0.0021763,0.00094133,0.0003699,0.0010672,0.050826,-0.011377,-0.013674,0.0048949,0.0019235,0.0055494,0,0,0,0.027075,0.0031323,0.0020125,0.012531,0.01074,0.024523,7.5333e-07,0.25,0.35,0.25
0.013707,0.0019806,0.0033953,0.02701,0.0023074,0.0015302,0.00070496,0.00039018,0.00064776,0.051717,-0.012509,-0.01453,0.0036658,0.0020289,0.0033683,0,0,0,0.027052,0.0024366,0.0013585,0.012847,0.010282,0.025173,8.145e-07,0.3,0.35,0.25
0.016307,0.0020854,0.0036012,0.026864,0.0017134,0.0010913,0.00046268,0.00036243,0.00029722,0.052046,-0.013346,-0.014964,0.0024059,0.0018846,0.0015455,0,0,0,0.026881,0.0018658,0.00092223,0.012979,0.0098897,0.025501,8.4769e-07,0.35,0.35,0.25
0.018912,0.0021146,0.0037134,0.026609,0.001191,0.00077879,0.00022134,0.0002574,1.3219e-05,0.052036,-0.014051,-0.015123,0.001151,0.0013385,6.8739e-05,0,0,0,0.026615,0.001311,0.00065286,0.012981,0.0095263,0.025641,8.6352e-07,0.4,0.35,0.25
0.02151,0.0020752,0.0037488,0.0263,0.00066402,0.00052276,7.1739e-06,5.4285e-05,-0.00019653,0.051888,-0.014766,-0.015133,3.7305e-05,0.00028228,-0.001022,0,0,0,0.026305,0.00080055,0.00038183,0.012961,0.0091623,0.025717,8.7257e-07,0.45,0.35,0.25
0.024101,0.0019877,0.0037326,0.025987,0.00010434,0.000287,-0.0001358,-0.00023107,-0.00031279,0.051739,-0.015556,-0.015081,-0.00070618,-0.0012016,-0.0016265,0,0,0,0.025993,0.0005061,-0.00012113,0.013057,0.0087927,0.025809,8.8057e-07,0.5,0.35,0.25
0.026684,0.0018895,0.0036991,0.025717,-0.00042828,7.6952e-05,-0.00017629,-0.00052134,-0.00032137,0.051645,-0.016333,-0.015019,-0.00091672,-0.002711,-0.0016711,0,0,0,0.025724,0.00041761,-0.00077555,0.01325,0.0084552,0.025927,8.8782e-07,0.55,0.35,0.25
0.029265,0.0018274,0.0036841,0.025534,-0.00079207,-7.418e-05,-0.00012801,-0.00070521,-0.00023577,0.051588,-0.01686,-0.014994,-0.00066563,-0.0036671,-0.001226,0,0,0,0.025538,0.00037523,-0.0012453,0.013392,0.0082226,0.026013,8.9195e-07,0.6,0.35,0.25
0.031843,0.0018358,0.0037119,0.025464,-0.0008755,-0.00013549,-3.5084e-05,-0.0007099,-0.00010221,0.051534,-0.016948,-0.015024,-0.00018244,-0.0036915,-0.00053151,0,0,0,0.025465,0.00031132,-0.0013238,0.013394,0.0081509,0.026012,8.9161e-07,0.65,0.35,0.25
0.034418,0.0019193,0.0037877,0.025505,-0.00068499,-0.00011387,5.3815e-05,-0.00053286,2.102e-05,0.051489,-0.016605,-0.01512,0.00027984,-0.0027709,0.00010931,0,0,0,0.025506,0.00021586,-0.001016,0.013261,0.0082354,0.025932,8.8791e-07,0.7,0.35,0.25
0.036992,0.0020514,0.003897,0.025634,-0.00034813,-5.4627e-05,9.3622e-05,-0.00024215,9.0417e-05,0.051511,-0.016044,-0.015281,0.00048683,-0.0012592,0.00047017,0,0,0,0.025636,0.00012218,-0.00052645,0.013081,0.0084106,0.025847,8.8419e-07,0.75,0.35,0.25
0.039569,0.0021932,0.004015,0.025812,-2.9487e-05,-8.4917e-06,7.0275e-05,5.3833e-05,9.8167e-05,0.051647,-0.015541,-0.015487,0.00036543,0.00027993,0.00051047,0,0,0,0.025813,0.00017333,-0.00021264,0.013013,0.0085914,0.025836,8.8486e-07,0.8,0.35,0.25
0.042157,0.0023143,0.0041185,0.026,0.0001824,-4.0585e-06,1.6279e-05,0.00027791,6.8046e-05,0.051892,-0.015233,-0.015717,8.465e-05,0.0014451,0.00035384,0,0,0,0.026001,0.00039103,-0.00021364,0.013107,0.008726,0.025918,8.9233e-07,0.85,0.35,0.25
0.044759,0.0024005,0.004195,0.026165,0.00028233,-3.5068e-05,-2.3182e-05,0.00041278,3.2108e-05,0.052181,-0.015113,-0.015938,-0.00012055,0.0021464,0.00016696,0,0,0,0.026165,0.00057517,-0.00032848,0.013247,0.0088039,0.026054,9.0478e-07,0.9,0.35,0.25
0.047375,0.00245,0.0042405,0.026279,0.00031029,-7.1445e-05,-1.1079e-05,0.00047707,2.3882e-05,0.052414,-0.015104,-0.016096,-5.7609e-05,0.0024808,0.00012419,0,0,0,0.026279,0.00064341,-0.00040488,0.013342,0.0088391,0.026176,9.1647e-07,0.95,0.35,0.25
0.048686,0.0024659,0.0042555,0.02632,0.00031345,-8.6613e-05,1.2331e-05,0.00049517,3.1282e-05,0.052503,-0.015113,-0.016153,6.4123e-05,0.0025749,0.00016266,0,0,0,0.02632,0.0006578,-0.00043121,0.013375,0.0088488,0.026224,9.2122e-07,1,0.35,0.25
0.00092758,0.0001576,0.0003894,0.024781,0.0095588,0.0093524,0.0012068,4.9306e-05,0.0029453,0.038215,-0.0013625,-0.0018992,0.0062756,0.00025639,0.015316,0,0,0,0.025438,0.0095205,0.0087333,0.0083525,0.014564,0.016327,2.2416e-07,0,0.4,0.25
0.0019108,0.00030843,0.00076923,0.024941,0.0085877,0.0081817,0.001187,9.3326e-05,0.0028453,0.039821,-0.0026982,-0.003754,0.0061726,0.0004853,0.014795,0,0,0,0.025523,0.0085314,0.0076566,0.008933,0.013904,0.017447,2.7722e-07,0.05,0.4,0.25
0.0039821,0.00059545,0.0014996,0.025564,0.0068581,0.0060958,0.0011294,0.00017412,0.0025573,0.043355,-0.0052795,-0.0072614,0.0058727,0.00090545,0.013298,0,0,0,0.025987,0.0067931,0.0057376,0.010125,0.012839,0.019745,3.9974e-07,0.1,0.4,0.25
0.0062463,0.00085049,0.0021537,0.026372,0.0054364,0.0044416,0.001047,0.00024508,0.0021308,0.046818,-0.0076157,-0.010202,0.0054443,0.0012744,0.01108,0,0,0,0.026648,0.0054012,0.0042013,0.011223,0.012083,0.021873,5.3791e-07,0.15,0.4,0.25
0.0086639,0.0010678,0.0027038,0.026931,0.0042267,0.0031576,0.00095338,0.00031191,0.0016494,0.049431,-0.0095997,-0.012379,0.0049575,0.0016219,0.0085767,0,0,0,0.027097,0.0042383,0.0029803,0.012058,0.011438,0.023514,6.6461e-07,0.2,0.4,0.25
0.011189,0.0012411,0.0031365,0.027223,0.0032504,0.002236,0.00085033,0.00037291,0.0011903,0.051153,-0.011174,-0.013812,0.0044217,0.0019391,0.0061896,0,0,0,0.027317,0.0033194,0.0020727,0.012622,0.010903,0.024645,7.6367e-07,0.25,0.4,0.25
0.013779,0.0013633,0.0034512,0.027268,0.0024917,0.001611,0.00073177,0.0004159,0.00079078,0.052075,-0.012344,-0.014634,0.0038052,0.0021627,0.004112,0,0,0,0.02732,0.0026207,0.0014303,0.012945,0.010457,0.025316,8.2761e-07,0.3,0.4,0.25
0.016397,0.0014256,0.0036528,0.027113,0.0018988,0.0011988,0.00058422,0.00041027,0.00045097,0.052368,-0.01319,-0.01501,0.0030379,0.0021334,0.002345,0,0,0,0.02714,0.002066,0.0010048,0.013068,0.01007,0.025622,8.5899e-07,0.35,0.4,0.25
0.019016,0.0014193,0.0037487,0.026803,0.001375,0.00089944,0.00040671,0.00030476,0.00016437,0.052241,-0.013871,-0.015108,0.0021149,0.0015848,0.00085471,0,0,0,0.026816,0.0015133,0.00074796,0.013034,0.0096925,0.025695,8.6845e-07,0.4,0.4,0.25
0.021621,0.0013441,0.0037524,0.026365,0.00081379,0.00060361,0.00023442,5.7665e-05,-5.2724e-05,0.051879,-0.014553,-0.0151,0.001219,0.00029986,-0.00027417,0,0,0,0.026373,0.00095925,0.00044981,0.012962,0.0092607,0.025674,8.6779e-07,0.45,0.4,0.25
0.024204,0.0012169,0.0036913,0.025959,0.00017673,0.00025663,0.00014151,-0.00031595,-0.00016392,0.051327,-0.015265,-0.015066,0.00067757,-0.0016119,-0.00087289,0,0,0,0.02597,0.00060629,-0.00018387,0.013077,0.0087976,0.025772,8.8722e-07,0.5,0.4,0.25
0.026758,0.0010792,0.0036118,0.025695,-0.00039552,-5.2054e-05,0.00010282,-0.00069238,-0.00018654,0.050668,-0.015861,-0.014987,0.00040685,-0.0035243,-0.0010077,0,0,0,0.025708,0.0005088,-0.0009687,0.013338,0.0084159,0.025974,9.2254e-07,0.55,0.4,0.25
0.029279,0.00098994,0.0035682,0.025483,-0.0007222,-0.00021784,1.679e-05,-0.00091031,-0.00017728,0.050215,-0.016208,-0.014911,1.5156e-05,-0.0046604,-0.00093231,0,0,0,0.02549,0.00050103,-0.0014477,0.013469,0.0081811,0.026021,9.2933e-07,0.6,0.4,0.25
0.031783,0.00099308,0.0035959,0.025418,-0.00082659,-0.00028448,-9.8264e-05,-0.00091439,-0.00015164,0.050187,-0.016333,-0.01494,-0.00044968,-0.0046806,-0.0007511,0,0,0,0.025424,0.00042416,-0.0015409,0.013482,0.0081024,0.026041,9.3161e-07,0.65,0.4,0.25
0.034301,0.0010925,0.0037001,0.025502,-0.0007104,-0.00025634,-0.00014624,-0.00070094,-0.0001001,0.050592,-0.016243,-0.015087,-0.00064104,-0.003567,-0.00046251,0,0,0,0.025512,0.00027022,-0.0012468,0.013379,0.0081785,0.026039,9.2953e-07,0.7,0.4,0.25
0.03685,0.0012513,0.0038559,0.025645,-0.00036341,-0.00010079,-0.00011222,-0.00031882,-3.4942e-05,0.051237,-0.015939,-0.015267,-0.0005281,-0.001626,-0.00015439,0,0,0,0.025653,0.00017027,-0.00064214,0.013147,0.0083937,0.025903,9.0072e-07,0.75,0.4,0.25
0.039429,0.0014162,0.0040204,0.025942,1.2278e-06,5.7087e-05,-9.9604e-05,7.4293e-05,-9.5449e-06,0.051849,-0.015597,-0.015452,-0.00051794,0.00038632,-4.9633e-05,0,0,0,0.025946,0.00027251,-0.00021798,0.013082,0.0086668,0.025923,8.9363e-07,0.8,0.4,0.25
0.042035,0.0015502,0.0041585,0.026295,0.00020855,0.00010234,-0.00013448,0.00035385,-3.2115e-05,0.052403,-0.015421,-0.015697,-0.00069932,0.00184,-0.000167,0,0,0,0.026297,0.00052417,-0.00021618,0.013257,0.0088685,0.026153,9.1633e-07,0.85,0.4,0.25
0.044669,0.0016397,0.0042552,0.02656,0.00026805,6.1108e-05,-0.00014287,0.0005019,-5.1557e-05,0.052922,-0.015436,-0.015975,-0.0007429,0.0026099,-0.0002681,0,0,0,0.026562,0.00068856,-0.00036159,0.013462,0.008963,0.026415,9.4231e-07,0.9,0.4,0.25
0.047328,0.0016875,0.00431,0.026732,0.00025735,4.6774e-06,-7.9925e-05,0.00055835,-2.2638e-05,0.053306,-0.015527,-0.016184,-0.00041561,0.0029034,-0.00011772,0,0,0,0.026733,0.00071644,-0.00045554,0.013594,0.0089979,0.026622,9.6378e-07,0.95,0.4,0.25
0.048662,0.0017021,0.0043275,0.026793,0.00024624,-1.8824e-05,-2.6631e-05,0.00057106,9.2157e-06,0.053449,-0.015572,-0.016261,-0.00013848,0.0029695,4.7922e-05,0,0,0,0.026793,0.00071335,-0.00048651,0.01364,0.0090067,0.0267,9.721e-07,1,0.4,0.25
0.00093355,8.9784e-05,0.0003962,0.024941,0.0096198,0.0094081,0.00069383,4.1253e-05,0.0030005,0.038466,-0.0013701,-0.0019207,0.0036079,0.00021452,0.015603,0,0,0,0.025555,0.0096033,0.0088108,0.0083723,0.014656,0.016364,2.257e-07,0,0.45,0.25
0.0019233,0.00017429,0.00078212,0.025108,0.0086475,0.008229,0.00069086,7.8192e-05,0.0029041,0.04009,-0.0027072,-0.0037953,0.0035925,0.0004066,0.015101,0,0,0,0.025651,0.0086241,0.0077097,0.0089704,0.013995,0.017503,2.7985e-07,0.05,0.45,0.25
0.004009,0.00033318,0.0015237,0.025752,0.0069213,0.006133,0.00068253,0.00014698,0.0026267,0.043672,-0.0052886,-0.0073383,0.0035492,0.00076428,0.013659,0,0,0,0.026148,0.0068969,0.0057622,0.010193,0.012936,0.019844,4.0551e-07,0.1,0.45,0.25
0.0062905,0.00047196,0.0021876,0.026599,0.0055063,0.0044792,0.00067829,0.00021093,0.0022187,0.047206,-0.0076341,-0.010305,0.0035271,0.0010968,0.011537,0,0,0,0.026858,0.0054991,0.0042268,0.011316,0.012195,0.022025,5.4886e-07,0.15,0.45,0.25
0.0087296,0.00058978,0.0027467,0.027206,0.0042961,0.0032045,0.00068493,0.00027765,0.0017659,0.049912,-0.0096543,-0.012492,0.0035616,0.0014438,0.0091825,0,0,0,0.027367,0.0043183,0.0030215,0.012173,0.011569,0.023725,6.8274e-07,0.2,0.45,0.25
0.011282,0.00068338,0.0031878,0.027553,0.0033132,0.0023039,0.00069601,0.00034795,0.001345,0.051735,-0.011288,-0.013912,0.0036193,0.0018094,0.006994,0,0,0,0.027651,0.0033817,0.0021369,0.012757,0.011057,0.024916,7.8968e-07,0.25,0.45,0.25
0.013903,0.00074621,0.0035084,0.027645,0.002553,0.0017143,0.00069622,0.00041133,0.00098973,0.052729,-0.012509,-0.01469,0.0036204,0.0021389,0.0051466,0,0,0,0.027707,0.0026858,0.0015188,0.013094,0.010637,0.025625,8.5917e-07,0.3,0.45,0.25
0.016555,0.00076644,0.003709,0.027507,0.0019812,0.0013494,0.00065896,0.00043087,0.00068933,0.053015,-0.013351,-0.014994,0.0034266,0.0022405,0.0035845,0,0,0,0.027548,0.0021698,0.0011193,0.013215,0.010279,0.02592,8.9012e-07,0.35,0.45,0.25
0.019205,0.00072746,0.0037888,0.027174,0.0015008,0.0010771,0.00057405,0.00032133,0.00043057,0.052802,-0.013949,-0.015051,0.002985,0.0016709,0.002239,0,0,0,0.027202,0.0016668,0.00088325,0.013159,0.0099174,0.025937,8.9387e-07,0.4,0.45,0.25
0.021835,0.00061984,0.0037545,0.026817,0.00095648,0.00071886,0.00050244,5.7549e-06,0.00026085,0.052247,-0.014497,-0.015113,0.0025586,6.2541e-05,0.0013118,0,0,0,0.026841,0.0011388,0.00051251,0.013164,0.0094974,0.026023,9.2479e-07,0.45,0.45,0.25
0.024433,0.00046039,0.0036378,0.026787,0.0002553,0.00016665,0.00052065,-0.00044949,0.000238,0.050937,-0.014915,-0.015143,0.0024211,-0.0021373,0.0010119,0,0,0,0.026819,0.00072424,-0.00033425,0.013577,0.0090698,0.026646,1.0584e-06,0.5,0.45,0.25
0.026951,0.00030085,0.0035053,0.026834,-0.00032144,-0.00031237,0.00047268,-0.00081469,0.00019881,0.048839,-0.014937,-0.014913,0.0020095,-0.0038697,0.00071524,0,0,0,0.026866,0.00052175,-0.0011868,0.014026,0.0087336,0.027244,1.1875e-06,0.55,0.45,0.25
0.029352,0.00020258,0.0034321,0.026543,-0.00050855,-0.00044673,0.00019048,-0.00095417,-1.9218e-05,0.047281,-0.014768,-0.014607,0.00076037,-0.0046335,-0.00019851,0,0,0,0.026557,0.00050773,-0.0014774,0.014017,0.0085292,0.027102,1.1827e-06,0.6,0.45,0.25
0.031695,0.0001986,0.0034603,0.026485,-0.00063541,-0.00052258,-0.0001949,-0.00095909,-0.00030996,0.047281,-0.014918,-0.014639,-0.00084103,-0.0046545,-0.0013591,0,0,0,0.026501,0.00041217,-0.0015867,0.014044,0.0084423,0.027149,1.1899e-06,0.65,0.45,0.25
0.034096,0.00029241,0.003595,0.026662,-0.00069952,-0.00054176,-0.00044448,-0.00082503,-0.00047887,0.048849,-0.015401,-0.015021,-0.0019158,-0.0039136,-0.0020542,0,0,0,0.026696,0.00023089,-0.0015064,0.014101,0.0084735,0.027381,1.2072e-06,0.7,0.45,0.25
0.036616,0.00045677,0.0038051,0.026517,-0.00036944,-0.00021781,-0.00043618,-0.00045138,-0.00041414,0.050995,-0.015737,-0.01536,-0.0020115,-0.0021407,-0.0018828,0,0,0,0.026547,0.00022615,-0.00084411,0.013696,0.0086431,0.026879,1.0871e-06,0.75,0.45,0.25
0.039219,0.00063347,0.0040274,0.026474,4.9126e-05,0.00015651,-0.00034,3.1046e-05,-0.00028229,0.052442,-0.015761,-0.015484,-0.0017206,0.00019509,-0.0014193,0,0,0,0.02649,0.00041053,-0.00022128,0.013356,0.0088931,0.026404,9.6622e-07,0.8,0.45,0.25
0.041863,0.00077217,0.0042076,0.026789,0.00021631,0.00027377,-0.00031057,0.00038875,-0.00023998,0.053283,-0.015805,-0.015655,-0.001615,0.0020215,-0.0012479,0,0,0,0.026799,0.00065655,-0.00017673,0.013488,0.0090929,0.02657,9.6157e-07,0.85,0.45,0.25
0.044547,0.00085683,0.0043258,0.027128,0.00019924,0.00021292,-0.00027106,0.00054962,-0.00020916,0.054008,-0.016006,-0.01597,-0.0014095,0.002858,-0.0010876,0,0,0,0.027135,0.00076759,-0.00036245,0.013749,0.0091799,0.02695,1.0015e-06,0.9,0.45,0.25
0.047264,0.00089726,0.0043881,0.027342,0.00013692,0.00012134,-0.00015155,0.0005897,-0.00010826,0.054529,-0.016204,-0.016245,-0.00078805,0.0030664,-0.00056296,0,0,0,0.027345,0.00073443,-0.00047935,0.013912,0.0092001,0.027238,1.0334e-06,0.95,0.45,0.25
0.04863,0.0009087,0.0044072,0.027416,0.0001101,8.4319e-05,-6.8352e-05,0.00059418,-3.4157e-05,0.054716,-0.01628,-0.016347,-0.00035543,0.0030897,-0.00017761,0,0,0,0.027418,0.0007085,-0.00051542,0.013967,0.0092036,0.027342,1.0451e-06,1,0.45,0.25
0.00093978,2.0588e-05,0.00040145,0.025107,0.0096656,0.0094635,0.0001677,2.9278e-05,0.0030439,0.038737,-0.0014113,-0.0019366,0.00087202,0.00015225,0.015828,0,0,0,0.025706,0.0096619,0.0088687,0.0084185,0.014745,0.016456,2.2959e-07,0,0.5,0.25
0.0019368,3.771e-05,0.00079208,0.025281,0.008675,0.0082741,0.00017794,5.5539e-05,0.0029516,0.040393,-0.0027833,-0.0038256,0.00092528,0.0002888,0.015348,0,0,0,0.02581,0.0086706,0.0077497,0.0090303,0.014077,0.01762,2.8567e-07,0.05,0.5,0.25
0.0040393,6.6588e-05,0.0015424,0.025954,0.0069214,0.0061656,0.0002085,0.00010524,0.0026862,0.044055,-0.0054287,-0.0073939,0.0010842,0.00054726,0.013968,0,0,0,0.026339,0.0069193,0.0057823,0.010278,0.013014,0.020015,4.1637e-07,0.1,0.5,0.25
0.0063424,8.7082e-05,0.0022144,0.026847,0.0054891,0.0045124,0.00026536,0.0001545,0.0023002,0.047693,-0.0078374,-0.010377,0.0013799,0.00080338,0.011961,0,0,0,0.027102,0.0054958,0.0042509,0.011425,0.012283,0.022256,5.6708e-07,0.15,0.5,0.25
0.0088086,0.00010238,0.0027819,0.027516,0.0042624,0.0032501,0.00035027,0.0002114,0.0018823,0.050525,-0.0099349,-0.012567,0.0018214,0.0010993,0.0097878,0,0,0,0.027677,0.0042864,0.0030649,0.012306,0.011676,0.024027,7.1043e-07,0.2,0.5,0.25
0.011395,0.00011238,0.0032318,0.027941,0.0032656,0.0023776,0.00045244,0.00027861,0.0015111,0.052496,-0.01166,-0.013969,0.0023527,0.0014488,0.0078578,0,0,0,0.028045,0.0033244,0.0022145,0.012915,0.011195,0.025295,8.2828e-07,0.25,0.5,0.25
0.014058,0.00011241,0.0035603,0.028119,0.0025032,0.0018354,0.00055347,0.00034803,0.0012196,0.053634,-0.012966,-0.014702,0.0028781,0.0018098,0.0063417,0,0,0,0.028193,0.002625,0.0016392,0.013277,0.010819,0.026076,9.0795e-07,0.3,0.5,0.25
0.016758,9.0496e-05,0.0037631,0.028067,0.0019676,0.0015386,0.00062139,0.00038432,0.00098426,0.054029,-0.013828,-0.014943,0.0032312,0.0019985,0.0051182,0,0,0,0.028125,0.0021601,0.0012878,0.013418,0.010524,0.026412,9.449e-07,0.35,0.5,0.25
0.019461,2.4398e-05,0.0038257,0.027989,0.0015813,0.001286,0.00064291,0.00026273,0.00079961,0.053841,-0.014291,-0.015046,0.0033073,0.0013923,0.0040968,0,0,0,0.028038,0.0017741,0.001044,0.013497,0.010286,0.026638,1.0006e-06,0.4,0.5,0.25
0.022145,-0.00010639,0.0037436,0.02835,0.001125,0.00077004,0.00070334,-0.00012654,0.00074052,0.052895,-0.014481,-0.015307,0.0033785,-0.00046889,0.0035125,0,0,0,0.028403,0.0013543,0.0004874,0.013958,0.010082,0.027497,1.2082e-06,0.45,0.5,0.25
0.024768,-0.00027892,0.003567,0.028896,0.00042551,-2.527e-05,0.00075648,-0.00058216,0.00076937,0.050281,-0.014328,-0.015316,0.0033051,-0.0025218,0.0032805,0,0,0,0.028958,0.00087709,-0.0005389,0.014748,0.0097653,0.028822,1.4924e-06,0.5,0.5,0.25
0.027221,-0.00042383,0.0033968,0.028738,-0.000173,-0.00059478,0.00058543,-0.00077721,0.00059544,0.046372,-0.013729,-0.014695,0.0024217,-0.0033843,0.0024106,0,0,0,0.028785,0.00045693,-0.0012714,0.015028,0.0093235,0.029237,1.5833e-06,0.55,0.5,0.25
0.029459,-0.00049877,0.0033137,0.028142,-0.0003389,-0.00069329,0.00022482,-0.0007467,0.00011757,0.043644,-0.013165,-0.014053,0.00089865,-0.0033493,0.00045326,0,0,0,0.02816,0.00029359,-0.0013439,0.014752,0.0090367,0.028729,1.5057e-06,0.6,0.5,0.25
0.031605,-0.00051067,0.0033428,0.028095,-0.00047514,-0.00077465,-0.00016095,-0.00075159,-0.0004512,0.04367,-0.013316,-0.014089,-0.00070208,-0.0033685,-0.0018632,0,0,0,0.028118,0.00018404,-0.001457,0.014788,0.0089485,0.028799,1.5176e-06,0.65,0.5,0.25
0.033846,-0.00045715,0.003489,0.028592,-0.00059159,-0.00084999,-0.00049801,-0.00078902,-0.00087197,0.046457,-0.014214,-0.014819,-0.0020999,-0.0034302,-0.0036003,0,0,0,0.028647,0.0001143,-0.0016109,0.015129,0.00905,0.029439,1.6191e-06,0.7,0.5,0.25
0.036304,-0.00032686,0.0037384,0.028663,-0.00027172,-0.00045566,-0.00063209,-0.000587,-0.00092674,0.050464,-0.015217,-0.015566,-0.0027595,-0.0025335,-0.0039877,0,0,0,0.028725,0.00029561,-0.0010858,0.014906,0.0093118,0.029153,1.5466e-06,0.75,0.5,0.25
0.038941,-0.0001607,0.0040237,0.028075,0.00014234,0.00017268,-0.00053897,-0.00010101,-0.00072365,0.053279,-0.015872,-0.015718,-0.0025682,-0.00033128,-0.0034074,0,0,0,0.028118,0.00057329,-0.00030078,0.014209,0.0094634,0.027996,1.2747e-06,0.8,0.5,0.25
0.04165,-3.0294e-05,0.0042566,0.02772,0.00022397,0.00047617,-0.00043088,0.00033592,-0.0005518,0.0546,-0.016349,-0.015684,-0.0022122,0.0017737,-0.0028098,0,0,0,0.027745,0.00078083,-0.00010544,0.013925,0.0094735,0.02742,1.0904e-06,0.85,0.5,0.25
0.044403,3.9109e-05,0.004398,0.02786,9.435e-05,0.0004133,-0.00034561,0.00051059,-0.00042411,0.055415,-0.016775,-0.015946,-0.0017972,0.0026551,-0.0022054,0,0,0,0.027874,0.00079941,-0.00030647,0.01409,0.0094558,0.027645,1.0838e-06,0.9,0.5,0.25
0.047192,6.7035e-05,0.0044653,0.028056,-2.8622e-05,0.00026997,-0.00019094,0.00053237,-0.00022321,0.055967,-0.017053,-0.016276,-0.00099287,0.0027683,-0.0011607,0,0,0,0.028062,0.00069291,-0.00045778,0.01426,0.0094324,0.027963,1.1207e-06,0.95,0.5,0.25
0.048594,7.4039e-05,0.0044847,0.028124,-7.0075e-05,0.0002149,-9.3339e-05,0.00053037,-9.3174e-05,0.056161,-0.017143,-0.016402,-0.00048537,0.0027579,-0.00048451,0,0,0,0.028126,0.00064418,-0.00050175,0.014314,0.0094229,0.028073,1.1339e-06,1,0.5,0.25
0.00094533,-5.1342e-05,0.00040458,0.025253,0.0096923,0.0095109,-0.00038139,1.3524e-05,0.0030705,0.038985,-0.0014741,-0.0019456,-0.0019832,7.0326e-05,0.015967,0,0,0,0.025866,0.00969,0.0089008,0.0084825,0.014819,0.016586,2.352e-07,0,0.55,0.25
0.0019493,-0.00010404,0.00079801,0.025435,0.008672,0.0083109,-0.00036068,2.5579e-05,0.0029818,0.040681,-0.0029036,-0.0038424,-0.0018755,0.00013301,0.015505,0,0,0,0.025977,0.0086688,0.0077726,0.0091021,0.014139,0.017775,2.9368e-07,0.05,0.55,0.25
0.004068,-0.00020969,0.0015536,0.026135,0.0068691,0.0061895,-0.00029935,4.9019e-05,0.0027274,0.044435,-0.0056565,-0.0074234,-0.0015566,0.0002549,0.014182,0,0,0,0.026531,0.0068663,0.0057963,0.010367,0.013065,0.020223,4.3039e-07,0.1,0.55,0.25
0.0063927,-0.00031178,0.0022308,0.027073,0.0054014,0.0045364,-0.0001959,7.5009e-05,0.0023618,0.048184,-0.008163,-0.010412,-0.0010187,0.00039005,0.012281,0,0,0,0.027337,0.0054034,0.0042705,0.011533,0.012337,0.022524,5.8917e-07,0.15,0.55,0.25
0.0088865,-0.00040371,0.0028044,0.027801,0.0041477,0.0032858,-5.4877e-05,0.00011009,0.0019768,0.051143,-0.010357,-0.012598,-0.00028536,0.00057249,0.010279,0,0,0,0.027971,0.0041598,0.0031043,0.012433,0.011745,0.024358,7.4219e-07,0.2,0.55,0.25
0.011507,-0.00048259,0.0032615,0.028305,0.0031344,0.0024423,0.00010836,0.00015727,0.0016538,0.053264,-0.012179,-0.013979,0.00056349,0.00081781,0.0085996,0,0,0,0.028418,0.0031681,0.0022957,0.013061,0.011294,0.025699,8.7113e-07,0.25,0.55,0.25
0.014213,-0.0005504,0.0035974,0.028591,0.0023741,0.0019499,0.00027409,0.00021081,0.0014262,0.054588,-0.013576,-0.014679,0.0014252,0.0010962,0.0074163,0,0,0,0.028676,0.002458,0.001781,0.013448,0.010972,0.026564,9.6317e-07,0.3,0.55,0.25
0.016966,-0.00061635,0.0038036,0.028688,0.0018851,0.0017185,0.0004129,0.00024476,0.001257,0.055215,-0.014474,-0.014907,0.0021471,0.0012727,0.0065364,0,0,0,0.02876,0.0020428,0.0014891,0.013636,0.010764,0.027,1.0135e-06,0.35,0.55,0.25
0.019734,-0.00070196,0.0038484,0.029042,0.0015937,0.0014304,0.00051771,0.00013277,0.0011674,0.055078,-0.014764,-0.015156,0.0025949,0.00075297,0.0059002,0,0,0,0.029111,0.0017779,0.0011777,0.013966,0.010689,0.027639,1.1594e-06,0.4,0.55,0.25
0.022483,-0.00083201,0.0037158,0.030038,0.0011959,0.00062307,0.00065634,-0.00021959,0.001182,0.053169,-0.014364,-0.015593,0.0029119,-0.00081178,0.0054644,0,0,0,0.030116,0.0014024,0.0003391,0.014888,0.010619,0.029265,1.5377e-06,0.45,0.55,0.25
0.025094,-0.00098203,0.0034905,0.030489,0.0005465,-0.00036352,0.00065158,-0.00053464,0.0010849,0.048792,-0.013484,-0.015393,0.0026313,-0.0021737,0.0046178,0,0,0,0.030562,0.0008448,-0.00073575,0.015649,0.010224,0.030546,1.8227e-06,0.5,0.55,0.25
0.027427,-0.0010843,0.0033121,0.029735,-1.0276e-05,-0.00078032,0.00037826,-0.00053782,0.0007006,0.044005,-0.01264,-0.014388,0.0015104,-0.0022298,0.0029386,0,0,0,0.029777,0.0003265,-0.0011587,0.015468,0.0096483,0.030229,1.7651e-06,0.55,0.55,0.25
0.029534,-0.0011258,0.0032432,0.029112,-0.00025578,-0.00079326,0.00013233,-0.00041791,0.00013367,0.041414,-0.01222,-0.013624,0.0005272,-0.0017577,0.00060683,0,0,0,0.029125,5.1122e-05,-0.0011136,0.015119,0.0093542,0.029682,1.6586e-06,0.6,0.55,0.25
0.031576,-0.001145,0.003273,0.029078,-0.00038472,-0.00087292,-6.7207e-06,-0.00041976,-0.00045883,0.041454,-0.012356,-0.013665,-9.7688e-05,-0.001766,-0.0019068,0,0,0,0.029097,-6.1613e-05,-0.0012155,0.015156,0.0092734,0.029761,1.6722e-06,0.65,0.55,0.25
0.033687,-0.0011418,0.0034067,0.029622,-0.00042213,-0.0010435,-0.00024663,-0.00054283,-0.0009633,0.044135,-0.013087,-0.014531,-0.0010377,-0.0022509,-0.0040055,0,0,0,0.029675,-4.1299e-05,-0.0014768,0.015576,0.0093855,0.030468,1.8101e-06,0.7,0.55,0.25
0.036029,-0.0010752,0.0036666,0.030294,-0.00017058,-0.00083061,-0.00050914,-0.00053446,-0.0012225,0.049053,-0.014337,-0.015682,-0.0020642,-0.0021664,-0.0051826,0,0,0,0.03037,0.00019833,-0.0012759,0.015823,0.0097642,0.030943,1.8986e-06,0.75,0.55,0.25
0.038658,-0.00095799,0.0040041,0.029814,0.0001817,-1.4607e-05,-0.0005171,-0.00019369,-0.0011338,0.053672,-0.01576,-0.016056,-0.0022778,-0.000673,-0.0051844,0,0,0,0.029879,0.00057584,-0.00047412,0.015177,0.0099936,0.029847,1.6299e-06,0.8,0.55,0.25
0.04144,-0.00086318,0.0042924,0.028861,0.00021843,0.00061264,-0.00039393,0.0002013,-0.00087346,0.056021,-0.016887,-0.015838,-0.0019706,0.0011106,-0.0043764,0,0,0,0.0289,0.00083273,-4.142e-05,0.014471,0.0098972,0.028516,1.2697e-06,0.85,0.55,0.25
0.04427,-0.00082068,0.0044571,0.028616,-6.5412e-06,0.0006096,-0.00030073,0.00035723,-0.00063198,0.056869,-0.017548,-0.015946,-0.0015638,0.0018576,-0.0032863,0,0,0,0.028637,0.00078769,-0.00020621,0.014422,0.0097396,0.02836,1.1741e-06,0.9,0.55,0.25
0.047127,-0.00080801,0.0045272,0.028718,-0.00018958,0.00041731,-0.00016545,0.00036703,-0.00033481,0.0573,-0.01786,-0.016283,-0.00086036,0.0019085,-0.001741,0,0,0,0.028727,0.00061896,-0.00040018,0.014564,0.0096486,0.028632,1.2062e-06,0.95,0.55,0.25
0.048562,-0.00080564,0.0045465,0.028757,-0.00024487,0.0003429,-8.4563e-05,0.0003634,-0.00015044,0.057454,-0.017949,-0.016421,-0.00043973,0.0018897,-0.00078227,0,0,0,0.02876,0.00055054,-0.00045583,0.014608,0.0096182,0.028726,1.2177e-06,1,0.55,0.25
0.00094953,-0.00012682,0.00040515,0.025362,0.0096964,0.0095442,-0.00095858,-5.0037e-06,0.0030763,0.03918,-0.0015509,-0.0019466,-0.0049846,-2.6019e-05,0.015997,0,0,0,0.026021,0.0096834,0.0088985,0.0085611,0.014868,0.016745,2.4217e-07,0,0.6,0.25
0.001959,-0.00025265,0.00079904,0.025549,0.0086382,0.0083344,-0.0009283,-9.7759e-06,0.0029898,0.040914,-0.0030536,-0.0038434,-0.0048272,-5.0835e-05,0.015547,0,0,0,0.026133,0.0086168,0.0077719,0.0091804,0.014174,0.017955,3.0322e-07,0.05,0.6,0.25
0.0040914,-0.00049906,0.0015555,0.026268,0.0067689,0.0061998,-0.00083912,-1.8063e-05,0.0027424,0.044755,-0.005943,-0.0074228,-0.0043634,-9.3929e-05,0.014261,0,0,0,0.026698,0.0067397,0.0057994,0.010449,0.013079,0.020447,4.4598e-07,0.1,0.6,0.25
0.0064345,-0.00072922,0.002234,0.027236,0.0052529,0.0045436,-0.00069567,-2.2235e-05,0.0023901,0.048595,-0.0085621,-0.010406,-0.0036175,-0.00011562,0.012429,0,0,0,0.027525,0.0052302,0.0042775,0.011624,0.012344,0.022789,6.1182e-07,0.15,0.6,0.25
0.0089509,-0.00093329,0.0028097,0.027997,0.0039688,0.0032988,-0.00051196,-1.9232e-05,0.0020267,0.051634,-0.01084,-0.012582,-0.0026622,-0.0001,0.010539,0,0,0,0.028185,0.0039621,0.0031181,0.012533,0.011755,0.024658,7.7175e-07,0.2,0.6,0.25
0.011598,-0.0011056,0.0032702,0.028544,0.0029452,0.0024741,-0.000311,-7.0833e-06,0.0017348,0.053836,-0.01272,-0.013945,-0.0016172,-3.6833e-05,0.009021,0,0,0,0.02867,0.002966,0.0023274,0.013171,0.011321,0.02603,9.071e-07,0.25,0.6,0.25
0.014334,-0.0012452,0.0036101,0.028898,0.0021983,0.0020162,-0.00011587,1.2377e-05,0.0015478,0.055267,-0.014152,-0.014625,-0.00060254,6.4362e-05,0.0080488,0,0,0,0.028993,0.0022778,0.0018414,0.013576,0.011037,0.026937,1.0061e-06,0.3,0.6,0.25
0.017125,-0.0013569,0.0038181,0.0291,0.001753,0.0018174,5.0925e-05,2.944e-05,0.0014171,0.056057,-0.015044,-0.014877,0.00026481,0.00015309,0.0073691,0,0,0,0.02918,0.0019157,0.0015748,0.013802,0.01089,0.027437,1.0659e-06,0.35,0.6,0.25
0.01994,-0.0014527,0.0038509,0.029561,0.0015021,0.0014531,0.00018511,-1.0382e-05,0.0013775,0.055862,-0.015167,-0.015258,0.00089253,-1.5071e-05,0.0069573,0,0,0,0.029639,0.0016817,0.0011961,0.014221,0.010839,0.028204,1.2283e-06,0.4,0.6,0.25
0.022727,-0.001548,0.0036863,0.030307,0.0010833,0.00039846,0.00030879,-0.00014405,0.0013642,0.052949,-0.014257,-0.015732,0.001287,-0.00056255,0.0064247,0,0,0,0.030389,0.0012166,0.0001835,0.015103,0.010596,0.029707,1.5674e-06,0.45,0.6,0.25
0.025298,-0.0016365,0.0034375,0.030337,0.00047527,-0.00068239,0.00031607,-0.00024031,0.0011106,0.047229,-0.012829,-0.015299,0.0011981,-0.00095606,0.0049074,0,0,0,0.030402,0.00059133,-0.00086346,0.015633,0.010043,0.030571,1.7696e-06,0.5,0.6,0.25
0.027526,-0.0016946,0.0032652,0.029752,4.1477e-05,-0.00089053,0.00018427,-0.00020021,0.00064991,0.042478,-0.011998,-0.014144,0.00068983,-0.00081977,0.0028016,0,0,0,0.029782,0.00016712,-0.0010466,0.015414,0.0096342,0.03025,1.7313e-06,0.55,0.6,0.25
0.029575,-0.0017245,0.0032119,0.029526,-0.0001937,-0.00075555,0.00010223,-0.00013488,0.00012072,0.040812,-0.011931,-0.013453,0.00037708,-0.00055139,0.00055577,0,0,0,0.029536,-4.1381e-05,-0.00091753,0.015227,0.0095256,0.030032,1.7043e-06,0.6,0.6,0.25
0.031608,-0.0017502,0.0032424,0.029498,-0.00031378,-0.00083494,8.4866e-05,-0.00013198,-0.00043249,0.040855,-0.012052,-0.0135,0.00027545,-0.00054208,-0.0017964,0,0,0,0.029513,-0.00015306,-0.0010112,0.015262,0.0094497,0.030112,1.7178e-06,0.65,0.6,0.25
0.033661,-0.0017731,0.0033623,0.02966,-0.00033975,-0.0011526,-1.2972e-05,-0.00019125,-0.00089713,0.04262,-0.01239,-0.014307,-8.0971e-05,-0.00078956,-0.0037957,0,0,0,0.029701,-0.00019597,-0.0013383,0.01552,0.0093891,0.030494,1.7757e-06,0.7,0.6,0.25
0.035899,-0.0017708,0.0036187,0.030174,-0.00019741,-0.0011546,-0.00017356,-0.00022289,-0.0012296,0.047515,-0.013591,-0.015625,-0.00065907,-0.00088388,-0.0053776,0,0,0,0.030244,-5.1593e-05,-0.0013697,0.015807,0.0096075,0.030982,1.8465e-06,0.75,0.6,0.25
0.038489,-0.0017428,0.0039831,0.030117,0.0001151,-0.00024862,-0.00021894,-0.00011016,-0.0012939,0.053487,-0.015557,-0.016244,-0.00091351,-0.00039525,-0.006032,0,0,0,0.030187,0.00040022,-0.00060432,0.015396,0.0099944,0.030306,1.6644e-06,0.8,0.6,0.25
0.041312,-0.00172,0.0043073,0.029423,0.00018091,0.00063732,-0.00017257,4.8026e-05,-0.0010562,0.056854,-0.017202,-0.01599,-0.00084637,0.0002875,-0.0052931,0,0,0,0.02947,0.00078771,-1.6309e-05,0.014743,0.01008,0.029094,1.3449e-06,0.85,0.6,0.25
0.044192,-0.0017157,0.0044879,0.029086,-7.3235e-05,0.00072359,-0.00013141,0.00011096,-0.00075515,0.057782,-0.018032,-0.01596,-0.00068334,0.00057699,-0.0039268,0,0,0,0.029111,0.00076222,-0.00013651,0.014624,0.0099121,0.028809,1.2334e-06,0.9,0.6,0.25
0.04709,-0.001719,0.0045596,0.029106,-0.00029388,0.00051002,-7.5225e-05,0.00011253,-0.00040286,0.058082,-0.018357,-0.016267,-0.00039117,0.00058516,-0.0020949,0,0,0,0.029116,0.00056638,-0.00036052,0.014738,0.009774,0.029025,1.2583e-06,0.95,0.6,0.25
0.048544,-0.0017209,0.0045788,0.029115,-0.00035995,0.00042169,-4.2613e-05,0.00011042,-0.00018557,0.058194,-0.018442,-0.01641,-0.00022159,0.0005742,-0.00096499,0,0,0,0.029119,0.00048486,-0.00042689,0.014773,0.0097257,0.029101,1.2676e-06,1,0.6,0.25
0.00095217,-0.00020643,0.00040296,0.025427,0.0096756,0.0095615,-0.0015664,-2.4487e-05,0.0030594,0.039312,-0.001642,-0.0019387,-0.0081451,-0.00012733,0.015909,0,0,0,0.026169,0.0096436,0.0088513,0.008659,0.014888,0.016937,2.5067e-07,0,0.65,0.25
0.0019656,-0.00040939,0.0007948,0.025615,0.0085699,0.0083418,-0.0015243,-4.7009e-05,0.0029732,0.041083,-0.0032342,-0.0038273,-0.0079262,-0.00024444,0.015461,0,0,0,0.026274,0.0085161,0.0077364,0.0092689,0.014176,0.018162,3.1434e-07,0.05,0.65,0.25
0.0041083,-0.00080399,0.0015475,0.02634,0.0066158,0.0061919,-0.0014009,-8.9012e-05,0.0027271,0.044996,-0.0062877,-0.0073899,-0.0072848,-0.00046286,0.014181,0,0,0,0.026828,0.00654,0.0057801,0.010524,0.013049,0.020681,4.6263e-07,0.1,0.65,0.25
0.0064652,-0.001168,0.0022226,0.027312,0.0050401,0.004527,-0.0012094,-0.00012599,0.0023772,0.048883,-0.009023,-0.010357,-0.0062887,-0.00065516,0.012361,0,0,0,0.027641,0.0049841,0.0042532,0.011694,0.012293,0.023034,6.3315e-07,0.15,0.65,0.25
0.0089966,-0.0014877,0.0027956,0.028062,0.0037291,0.0032777,-0.00097755,-0.00015911,0.0020172,0.05192,-0.011346,-0.012519,-0.0050832,-0.00082736,0.010489,0,0,0,0.028276,0.0037263,0.003066,0.012605,0.01169,0.024888,7.9465e-07,0.2,0.65,0.25
0.011657,-0.0017546,0.0032542,0.028586,0.002711,0.0024524,-0.00074073,-0.00018785,0.0017295,0.054073,-0.013201,-0.013873,-0.0038518,-0.00097685,0.0089932,0,0,0,0.028728,0.0027895,0.0022312,0.013249,0.01125,0.026223,9.2769e-07,0.25,0.65,0.25
0.014404,-0.0019656,0.003593,0.028909,0.0019933,0.0019961,-0.0005276,-0.00020881,0.0015465,0.055425,-0.014557,-0.01455,-0.0027435,-0.0010858,0.0080418,0,0,0,0.029014,0.0021876,0.001697,0.013659,0.010966,0.027076,1.0212e-06,0.3,0.65,0.25
0.0172,-0.0021208,0.0038009,0.029079,0.0015903,0.0017997,-0.00035163,-0.00021165,0.0014191,0.056124,-0.015347,-0.014802,-0.0018285,-0.0011006,0.0073794,0,0,0,0.029163,0.0018948,0.001411,0.013876,0.010823,0.027514,1.0741e-06,0.35,0.65,0.25
0.020016,-0.002219,0.0038345,0.029508,0.0013838,0.0014394,-0.00022007,-0.00014215,0.001382,0.055839,-0.015361,-0.015185,-0.0011106,-0.00076798,0.0069796,0,0,0,0.029586,0.0016657,0.0010797,0.014253,0.010777,0.028219,1.2285e-06,0.4,0.65,0.25
0.0228,-0.0022599,0.0036719,0.030223,0.0010038,0.00039147,-0.00015384,2.778e-05,0.0013701,0.052854,-0.014354,-0.015659,-0.00065892,9.0786e-06,0.0064513,0,0,0,0.030302,0.0011648,0.00015123,0.015076,0.010539,0.029661,1.5584e-06,0.45,0.65,0.25
0.025365,-0.0022681,0.0034259,0.030238,0.00043668,-0.00068087,-5.8048e-05,0.00015769,0.0011165,0.047097,-0.012846,-0.015232,-0.00021967,0.0006173,0.0049309,0,0,0,0.0303,0.00054186,-0.00084826,0.015574,0.0099978,0.030483,1.7537e-06,0.5,0.65,0.25
0.027586,-0.0022854,0.0032561,0.029653,4.6262e-05,-0.00088301,9.4789e-05,0.00014808,0.00065488,0.042333,-0.011953,-0.014091,0.00031256,0.00062911,0.0028192,0,0,0,0.029683,0.00015559,-0.0010222,0.015352,0.0096053,0.030142,1.7131e-06,0.55,0.65,0.25
0.029628,-0.0023188,0.0032045,0.029428,-0.00016154,-0.00074704,0.00014556,0.00010508,0.00012472,0.040661,-0.011851,-0.013412,0.00049517,0.00044608,0.00056948,0,0,0,0.029438,-2.8702e-05,-0.00088998,0.015164,0.0095064,0.029914,1.6847e-06,0.6,0.65,0.25
0.031652,-0.0023502,0.0032362,0.0294,-0.00027129,-0.00082744,9.8362e-05,0.00011272,-0.00042926,0.0407,-0.011957,-0.013466,0.00036766,0.00047437,-0.0017845,0,0,0,0.029416,-0.00012993,-0.00098441,0.0152,0.0094338,0.029989,1.6972e-06,0.65,0.65,0.25
0.033698,-0.0023822,0.0033568,0.029565,-0.00029847,-0.0011472,0.00011542,0.00017189,-0.00089441,0.042465,-0.012291,-0.014276,0.00044622,0.00071736,-0.0037851,0,0,0,0.029607,-0.00017007,-0.0013174,0.015462,0.0093731,0.030376,1.7545e-06,0.7,0.65,0.25
0.035928,-0.002438,0.0036133,0.030083,-0.00016737,-0.0011534,0.00020152,0.00019585,-0.0012272,0.047362,-0.013502,-0.015595,0.00075727,0.00077086,-0.0053685,0,0,0,0.030152,-3.4563e-05,-0.0013553,0.015754,0.0095875,0.030875,1.8257e-06,0.75,0.65,0.25
0.038511,-0.0025163,0.0039776,0.030037,0.00013076,-0.00025203,0.00019543,7.3184e-05,-0.0012925,0.053344,-0.015485,-0.016217,0.00079742,0.00021889,-0.0060269,0,0,0,0.030107,0.00040826,-0.00059969,0.015353,0.0099718,0.030219,1.6486e-06,0.8,0.65,0.25
0.041327,-0.0025838,0.0043016,0.029357,0.00018306,0.00063096,0.00012623,-9.565e-05,-0.0010562,0.05673,-0.017156,-0.015965,0.00061156,-0.00053171,-0.0052937,0,0,0,0.029404,0.00079461,-2.6886e-05,0.014715,0.010057,0.02903,1.3355e-06,0.85,0.65,0.25
0.044201,-0.0026239,0.0044822,0.029029,-8.2726e-05,0.00071587,8.5749e-05,-0.00016827,-0.00075583,0.057678,-0.018012,-0.015936,0.0004459,-0.00087502,-0.0039303,0,0,0,0.029053,0.00077008,-0.00016121,0.014607,0.0098874,0.028761,1.227e-06,0.9,0.65,0.25
0.047095,-0.0026437,0.0045539,0.029053,-0.00031155,0.00050162,3.9512e-05,-0.00017617,-0.00040338,0.057993,-0.018356,-0.016242,0.00020546,-0.00091611,-0.0020976,0,0,0,0.029064,0.00057426,-0.00039431,0.014729,0.0097478,0.028986,1.2529e-06,0.95,0.65,0.25
0.048546,-0.0026499,0.0045731,0.029064,-0.00038053,0.00041306,1.1583e-05,-0.00017627,-0.00018587,0.058109,-0.018447,-0.016384,6.0234e-05,-0.00091663,-0.00096653,0,0,0,0.029068,0.00049277,-0.00046396,0.014766,0.0096989,0.029066,1.2626e-06,1,0.65,0.25
0.0009538,-0.00029102,0.0003982,0.025462,0.0096283,0.0095661,-0.0022082,-4.255e-05,0.0030212,0.039407,-0.0017602,-0.0019218,-0.011483,-0.00022126,0.01571,0,0,0,0.026331,0.0095826,0.0087431,0.0087937,0.014885,0.017185,2.6168e-07,0,0.7,0.25
0.0019704,-0.00057607,0.00078566,0.025646,0.0084586,0.0083343,-0.0021473,-8.1553e-05,0.0029333,0.041215,-0.0034707,-0.0037938,-0.011166,-0.00042408,0.015253,0,0,0,0.026417,0.0083807,0.0076406,0.0093883,0.014146,0.01842,3.2815e-07,0.05,0.7,0.25
0.0041215,-0.0011278,0.00153,0.026361,0.00639,0.006163,-0.0019699,-0.00015482,0.0026824,0.04519,-0.0067344,-0.0073246,-0.010244,-0.00080506,0.013948,0,0,0,0.026931,0.0062857,0.0056974,0.010617,0.012971,0.020947,4.8154e-07,0.1,0.7,0.25
0.0064894,-0.0016315,0.0021975,0.027305,0.0047406,0.0044813,-0.0017019,-0.00022181,0.0023239,0.049077,-0.0095905,-0.010265,-0.00885,-0.0011534,0.012084,0,0,0,0.027687,0.0046915,0.0041478,0.01177,0.012176,0.023274,6.5382e-07,0.15,0.7,0.25
0.0090292,-0.0020679,0.0027632,0.027995,0.0034125,0.0032173,-0.0013926,-0.00028681,0.0019493,0.052012,-0.011902,-0.01241,-0.0072416,-0.0014914,0.010136,0,0,0,0.02824,0.003485,0.0029004,0.01267,0.011542,0.025053,8.1037e-07,0.2,0.7,0.25
0.011691,-0.0024257,0.0032147,0.028425,0.0024252,0.0023727,-0.0010956,-0.00034995,0.0016387,0.053971,-0.013628,-0.013765,-0.005697,-0.0018198,0.0085214,0,0,0,0.028582,0.0026505,0.0019904,0.013296,0.011074,0.026268,9.3116e-07,0.25,0.7,0.25
0.014426,-0.0027009,0.0035475,0.028617,0.0017602,0.001886,-0.00084537,-0.00040379,0.0014234,0.055046,-0.014781,-0.014454,-0.0043959,-0.0020997,0.0074017,0,0,0,0.028725,0.0021475,0.0013906,0.013667,0.010754,0.026965,1.0063e-06,0.3,0.7,0.25
0.017195,-0.0028916,0.0037531,0.028617,0.001402,0.001663,-0.00064498,-0.00042204,0.0012642,0.055396,-0.015364,-0.014686,-0.0033539,-0.0021946,0.0065739,0,0,0,0.028698,0.0019033,0.001081,0.013809,0.010561,0.027216,1.036e-06,0.35,0.7,0.25
0.019966,-0.0029893,0.0038002,0.02888,0.0012476,0.0013865,-0.00049528,-0.00027989,0.0011818,0.054996,-0.015329,-0.014943,-0.0025074,-0.0015101,0.0059732,0,0,0,0.028948,0.001684,0.00088199,0.014033,0.010505,0.027675,1.1604e-06,0.4,0.7,0.25
0.022704,-0.0029857,0.003673,0.029792,0.0009704,0.00059682,-0.00045669,0.00010832,0.0011999,0.052874,-0.01464,-0.015386,-0.0020311,0.0002728,0.0055502,0,0,0,0.029862,0.0012628,0.00023416,0.014814,0.010453,0.029132,1.514e-06,0.45,0.7,0.25
0.025296,-0.0029245,0.0034554,0.030189,0.00043898,-0.00036624,-0.00035976,0.00045622,0.0011017,0.048371,-0.013521,-0.0152,-0.0014531,0.0018393,0.0046912,0,0,0,0.030254,0.00072368,-0.00071603,0.015485,0.010087,0.030282,1.7766e-06,0.5,0.7,0.25
0.027606,-0.0028912,0.0032845,0.029428,2.5153e-06,-0.00076328,-8.0792e-05,0.00048847,0.00071421,0.04354,-0.012493,-0.014228,-0.00038978,0.0020421,0.0029911,0,0,0,0.029465,0.00030035,-0.0010986,0.015282,0.0095557,0.029897,1.7087e-06,0.55,0.7,0.25
0.029689,-0.0029095,0.0032211,0.028814,-0.00016088,-0.00076964,0.00011623,0.0003904,0.00014545,0.040942,-0.011964,-0.013499,0.00037592,0.0016573,0.00064822,0,0,0,0.028827,9.6004e-05,-0.0010396,0.014933,0.0092943,0.029324,1.5999e-06,0.6,0.7,0.25
0.031708,-0.0029458,0.0032546,0.02879,-0.00025558,-0.00085084,0.00017835,0.00040241,-0.00044813,0.040982,-0.012053,-0.013563,0.00071392,0.0017027,-0.0018687,0,0,0,0.02881,1.3739e-05,-0.0011401,0.014975,0.0092277,0.029399,1.6121e-06,0.65,0.7,0.25
0.033796,-0.0030036,0.0033904,0.029345,-0.00029654,-0.0010279,0.00033029,0.00052417,-0.00095403,0.043664,-0.012777,-0.01444,0.0013376,0.0021799,-0.0039719,0,0,0,0.029398,3.3848e-05,-0.001411,0.015404,0.0093401,0.030121,1.7487e-06,0.7,0.7,0.25
0.036114,-0.0031243,0.0036508,0.030034,-7.987e-05,-0.00082768,0.00051553,0.00050841,-0.0012162,0.048593,-0.01406,-0.015597,0.0020681,0.0020566,-0.0051606,0,0,0,0.03011,0.00024584,-0.001229,0.01567,0.0097089,0.030636,1.8425e-06,0.75,0.7,0.25
0.03872,-0.0032936,0.0039879,0.029589,0.00022793,-2.4414e-05,0.00047306,0.00015939,-0.0011322,0.053251,-0.015548,-0.015978,0.0020577,0.00050885,-0.0051811,0,0,0,0.029653,0.00059864,-0.00045904,0.015056,0.009931,0.029603,1.5899e-06,0.8,0.7,0.25
0.041483,-0.003436,0.004276,0.028673,0.00022317,0.0005942,0.00033021,-0.00024566,-0.00087559,0.055662,-0.016756,-0.015767,0.0016444,-0.0013384,-0.0043884,0,0,0,0.028711,0.0008487,-6.9424e-05,0.01439,0.00983,0.028334,1.2452e-06,0.85,0.7,0.25
0.044296,-0.003517,0.0044407,0.028449,-3.7499e-05,0.00058606,0.00024258,-0.00041238,-0.00063509,0.056569,-0.017496,-0.015875,0.0012614,-0.0021444,-0.0033025,0,0,0,0.028469,0.00080125,-0.0002731,0.014371,0.0096659,0.028221,1.1565e-06,0.9,0.7,0.25
0.04714,-0.0035546,0.0045109,0.028562,-0.00024518,0.00039083,0.00012272,-0.00042974,-0.00033683,0.057037,-0.017862,-0.016209,0.00063815,-0.0022347,-0.0017515,0,0,0,0.028571,0.00062922,-0.00049203,0.014531,0.0095694,0.028519,1.1912e-06,0.95,0.7,0.25
0.048568,-0.0035657,0.0045302,0.028605,-0.00030914,0.00031538,4.9039e-05,-0.00042876,-0.00015152,0.057205,-0.01797,-0.016346,0.00025501,-0.0022295,-0.00078792,0,0,0,0.028608,0.0005596,-0.00055652,0.014582,0.0095369,0.028623,1.2037e-06,1,0.7,0.25
0.00095602,-0.00038246,0.00039152,0.025505,0.0095532,0.0095691,-0.0028936,-5.6551e-05,0.0029669,0.039537,-0.0019383,-0.0018969,-0.015047,-0.00029407,0.015428,0,0,0,0.026552,0.009525,0.0085511,0.0090002,0.014876,0.017536,2.7744e-07,0,0.75,0.25
0.0019769,-0.00075646,0.00077283,0.025678,0.0082859,0.0083166,-0.0027988,-0.00010846,0.0028755,0.041394,-0.0038247,-0.003745,-0.014554,-0.00056398,0.014953,0,0,0,0.026602,0.0082455,0.0074324,0.0095849,0.014093,0.018779,3.4732e-07,0.05,0.75,0.25
0.0041394,-0.0014774,0.0015056,0.026364,0.0060491,0.0061089,-0.0025278,-0.00020617,0.0026151,0.045434,-0.0073856,-0.0072303,-0.013145,-0.0010721,0.013599,0,0,0,0.027036,0.0060304,0.005456,0.01079,0.012841,0.0213,5.0602e-07,0.1,0.75,0.25
0.0065202,-0.002127,0.0021624,0.027249,0.0043101,0.0044012,-0.0021312,-0.00029578,0.0022403,0.049272,-0.01037,-0.010133,-0.011082,-0.001538,0.011649,0,0,0,0.027687,0.0044059,0.0038679,0.01191,0.011987,0.023556,6.771e-07,0.15,0.75,0.25
0.0090666,-0.0026779,0.0027173,0.027833,0.0029873,0.003117,-0.0016949,-0.00038215,0.0018394,0.052003,-0.012595,-0.012258,-0.0088135,-0.0019872,0.0095647,0,0,0,0.028099,0.0032543,0.0025835,0.012758,0.011312,0.025188,8.2206e-07,0.2,0.75,0.25
0.011721,-0.0031174,0.0031582,0.028113,0.0020687,0.0022459,-0.0012988,-0.00046436,0.0014891,0.053637,-0.014078,-0.013617,-0.006754,-0.0024146,0.0077434,0,0,0,0.028272,0.0025028,0.0016524,0.01331,0.010809,0.026205,9.2228e-07,0.25,0.75,0.25
0.01443,-0.0034437,0.0034817,0.028123,0.0014894,0.0017164,-0.0009789,-0.00053235,0.0012183,0.054322,-0.014925,-0.014334,-0.0050903,-0.0027682,0.0063351,0,0,0,0.028221,0.0020578,0.0010492,0.013586,0.010443,0.026683,9.7211e-07,0.3,0.75,0.25
0.017153,-0.0036572,0.0036836,0.027912,0.0011829,0.0014372,-0.0007235,-0.00055078,0.0010002,0.054252,-0.015244,-0.014582,-0.0037622,-0.002864,0.0052012,0,0,0,0.027976,0.0018137,0.00074197,0.013617,0.010177,0.026715,9.7603e-07,0.35,0.75,0.25
0.019855,-0.0037528,0.0037493,0.027703,0.0010318,0.0012062,-0.00051932,-0.00039755,0.00082779,0.05365,-0.015168,-0.014706,-0.0026749,-0.0020907,0.0042425,0,0,0,0.027749,0.0015504,0.00064227,0.013553,0.0099804,0.026665,1.0014e-06,0.4,0.75,0.25
0.02252,-0.0037293,0.0036745,0.027956,0.00078815,0.00071793,-0.0004383,2.8521e-05,0.00077461,0.052372,-0.014882,-0.014987,-0.0020789,-2.4298e-05,0.0036863,0,0,0,0.027999,0.0011644,0.00029818,0.013851,0.0098206,0.027282,1.1787e-06,0.45,0.75,0.25
0.02511,-0.0036295,0.0035088,0.02842,0.00028072,-4.1229e-05,-0.00042462,0.00051557,0.00080102,0.049539,-0.014336,-0.015016,-0.0018063,0.0022155,0.0034377,0,0,0,0.02847,0.00074414,-0.00055412,0.014512,0.0095533,0.028403,1.4299e-06,0.5,0.75,0.25
0.027522,-0.0035413,0.0033504,0.028234,-0.00013941,-0.00057562,-0.00026438,0.00073443,0.00062042,0.045537,-0.013437,-0.014433,-0.0010898,0.0032098,0.0025266,0,0,0,0.028272,0.00044158,-0.001194,0.014733,0.0091731,0.028689,1.4987e-06,0.55,0.75,0.25
0.029717,-0.0035186,0.003277,0.027659,-0.0001749,-0.00065561,2.3196e-05,0.00072194,0.00013783,0.042796,-0.012683,-0.013839,8.3423e-05,0.0032526,0.00053789,0,0,0,0.027674,0.00038007,-0.0012259,0.01445,0.0089427,0.02814,1.4173e-06,0.6,0.75,0.25
0.031822,-0.0035589,0.0033126,0.027641,-0.00025109,-0.00073472,0.00031041,0.00073599,-0.00043423,0.042837,-0.012753,-0.013913,0.0012821,0.003307,-0.0017979,0,0,0,0.027665,0.00031502,-0.0013248,0.014495,0.0088851,0.028215,1.4294e-06,0.65,0.75,0.25
0.034021,-0.0036663,0.0034624,0.028165,-0.00037473,-0.00081975,0.00054901,0.00077316,-0.00085979,0.045649,-0.013657,-0.014666,0.0022797,0.0033673,-0.0035575,0,0,0,0.028221,0.00023564,-0.0014857,0.014853,0.0089902,0.028891,1.5327e-06,0.7,0.75,0.25
0.036439,-0.0038531,0.003713,0.028279,-0.00011557,-0.00044545,0.00060234,0.00056691,-0.0009229,0.049704,-0.014738,-0.015427,0.0025919,0.002445,-0.0039804,0,0,0,0.028341,0.00037298,-0.00099551,0.014668,0.0092394,0.028684,1.4758e-06,0.75,0.75,0.25
0.039039,-0.0040764,0.0039983,0.027743,0.00021933,0.00016087,0.00046095,7.383e-05,-0.0007282,0.052608,-0.015525,-0.015594,0.0021683,0.00019658,-0.003435,0,0,0,0.027783,0.00061053,-0.00027045,0.014027,0.0093745,0.027629,1.2266e-06,0.8,0.75,0.25
0.041718,-0.0042603,0.0042312,0.027428,0.00022671,0.00044677,0.00033872,-0.00037477,-0.00055993,0.054035,-0.016151,-0.015569,0.0017349,-0.0019747,-0.0028525,0,0,0,0.02745,0.00079579,-0.00014463,0.013797,0.0093671,0.027139,1.0573e-06,0.85,0.75,0.25
0.044446,-0.0043735,0.004373,0.027591,3.5235e-05,0.00037149,0.00026727,-0.00056228,-0.00043155,0.054937,-0.016707,-0.015833,0.0013898,-0.0029238,-0.002244,0,0,0,0.027604,0.00079779,-0.00040404,0.014004,0.0093324,0.027427,1.0577e-06,0.9,0.75,0.25
0.047212,-0.00443,0.0044406,0.0278,-0.00012865,0.00022057,0.00013676,-0.00059317,-0.00022742,0.055545,-0.01707,-0.016162,0.00071117,-0.0030845,-0.0011826,0,0,0,0.027806,0.0006783,-0.00059188,0.014199,0.0092973,0.027784,1.0983e-06,0.95,0.75,0.25
0.048603,-0.0044469,0.0044602,0.027873,-0.00018429,0.00016287,5.0253e-05,-0.00059435,-9.525e-05,0.055758,-0.01719,-0.016287,0.00026132,-0.0030906,-0.0004953,0,0,0,0.027875,0.00062492,-0.00064852,0.014262,0.0092837,0.027909,1.1129e-06,1,0.75,0.25
0.00096205,-0.00048485,0.00038405,0.025634,0.0094438,0.0095902,-0.0036415,-6.3688e-05,0.0029055,0.039848,-0.002247,-0.0018663,-0.018936,-0.00033118,0.015108,0,0,0,0.026919,0.0095024,0.0082463,0.0093366,0.014889,0.018081,3.0246e-07,0,0.8,0.25
0.0019924,-0.00095853,0.00075851,0.02578,0.0080117,0.0082951,-0.0034824,-0.00012272,0.0028095,0.041777,-0.0044218,-0.003685,-0.018108,-0.00063814,0.014609,0,0,0,0.0269,0.0081476,0.0070394,0.0099303,0.014029,0.019334,3.7701e-07,0.05,0.8,0.25
0.0041777,-0.0018664,0.0014783,0.026407,0.0055154,0.006019,-0.0030437,-0.00023447,0.002537,0.045893,-0.0084246,-0.0071152,-0.015827,-0.0012192,0.013192,0,0,0,0.027187,0.0058226,0.0049312,0.011128,0.012647,0.021828,5.4158e-07,0.1,0.8,0.25
0.0065817,-0.0026685,0.002123,0.027192,0.0036863,0.0042764,-0.0024386,-0.00033669,0.0021427,0.049606,-0.011508,-0.009974,-0.012681,-0.0017508,0.011142,0,0,0,0.027669,0.0041657,0.0033195,0.012175,0.011718,0.023941,7.0723e-07,0.15,0.8,0.25
0.0091382,-0.0033274,0.0026661,0.027618,0.0024272,0.0029763,-0.0018219,-0.00043185,0.0017124,0.051993,-0.013502,-0.012074,-0.009474,-0.0022456,0.0089046,0,0,0,0.027886,0.0030331,0.0021025,0.012892,0.011007,0.025332,8.3302e-07,0.2,0.8,0.25
0.011781,-0.0038334,0.0030954,0.027709,0.0016339,0.0020838,-0.0013037,-0.00051617,0.0013197,0.053188,-0.014608,-0.013438,-0.0067794,-0.0026841,0.0068626,0,0,0,0.027853,0.0023121,0.0012615,0.013296,0.010476,0.026083,9.0693e-07,0.25,0.8,0.25
0.014457,-0.0041934,0.0034091,0.027543,0.0011734,0.0015171,-0.00090396,-0.00057712,0.00099287,0.053471,-0.015089,-0.014195,-0.0047006,-0.003001,0.0051629,0,0,0,0.027619,0.0018811,0.00073262,0.013443,0.010078,0.026332,9.3223e-07,0.3,0.8,0.25
0.017128,-0.0044159,0.0036079,0.027193,0.00093628,0.0011845,-0.00058777,-0.00057811,0.00071678,0.053113,-0.015154,-0.014508,-0.0030564,-0.0030062,0.0037273,0,0,0,0.027233,0.0016134,0.00046677,0.013383,0.0097712,0.026212,9.1999e-07,0.35,0.8,0.25
0.019768,-0.0045066,0.0036907,0.026711,0.00078653,0.00095171,-0.00032725,-0.00043694,0.00047614,0.052379,-0.015024,-0.014595,-0.0017017,-0.0022721,0.0024759,0,0,0,0.026732,0.001306,0.00041084,0.013161,0.009483,0.025887,8.8817e-07,0.4,0.8,0.25
0.022366,-0.0044777,0.0036642,0.026259,0.00054737,0.00064018,-0.00016635,-8.4266e-05,0.00031704,0.051431,-0.014933,-0.014692,-0.00082503,-0.00046868,0.0016037,0,0,0,0.026275,0.00091476,0.00025652,0.013009,0.0091487,0.025698,8.902e-07,0.45,0.8,0.25
0.024915,-0.0043674,0.0035594,0.026169,0.00011582,0.00014222,-0.00016249,0.00040175,0.00029448,0.049852,-0.01482,-0.014753,-0.00064437,0.0019016,0.0013046,0,0,0,0.026192,0.00061867,-0.00038355,0.013288,0.0088089,0.026094,9.9398e-07,0.5,0.8,0.25
0.027374,-0.0042462,0.0034408,0.026194,-0.00023086,-0.00028384,-0.0001532,0.00078588,0.00024641,0.047612,-0.014433,-0.014558,-0.00051615,0.0037423,0.00095886,0,0,0,0.026217,0.00054979,-0.0010874,0.013652,0.0085598,0.026529,1.0984e-06,0.55,0.8,0.25
0.029711,-0.0041883,0.0033804,0.02593,-0.00025113,-0.00038336,3.6153e-05,0.000937,1.567e-05,0.046016,-0.013996,-0.014299,0.00026057,0.0045613,-2.5484e-05,0,0,0,0.025941,0.00064686,-0.0012926,0.013617,0.0084319,0.026323,1.0866e-06,0.6,0.8,0.25
0.031991,-0.0042313,0.0034179,0.025917,-0.0003031,-0.00045002,0.00030743,0.00094849,-0.00028871,0.046049,-0.014041,-0.014377,0.0013365,0.0046098,-0.0012601,0,0,0,0.025934,0.0005978,-0.0013681,0.013651,0.0083878,0.026379,1.0949e-06,0.65,0.8,0.25
0.034332,-0.0043801,0.003558,0.02614,-0.00038764,-0.00048302,0.00045195,0.00081624,-0.00047134,0.047698,-0.014571,-0.014795,0.0019211,0.0038776,-0.0020262,0,0,0,0.026175,0.00039848,-0.0013037,0.013739,0.0084233,0.026674,1.1189e-06,0.7,0.8,0.25
0.036796,-0.004607,0.0037707,0.026051,-0.00014893,-0.00019008,0.00036405,0.00044071,-0.00041956,0.049965,-0.015064,-0.015165,0.0016326,0.0020906,-0.0019166,0,0,0,0.026081,0.00033697,-0.00070546,0.013393,0.0085708,0.026287,1.0179e-06,0.75,0.8,0.25
0.039351,-0.0048499,0.0039946,0.026056,0.00015211,0.00014703,0.00022482,-4.9987e-05,-0.00029559,0.051557,-0.015302,-0.015315,0.0011229,-0.00029267,-0.0014894,0,0,0,0.02607,0.00046185,-0.00017705,0.013124,0.008785,0.025937,9.1612e-07,0.8,0.8,0.25
0.041955,-0.0050515,0.0041763,0.0264,0.00020898,0.0002312,0.00018904,-0.00042155,-0.00025415,0.052537,-0.015561,-0.015503,0.00098303,-0.002192,-0.0013216,0,0,0,0.026408,0.00065948,-0.00022744,0.013318,0.0089468,0.026206,9.2227e-07,0.85,0.8,0.25
0.044605,-0.0051876,0.0042959,0.026758,0.00010385,0.00014548,0.00017321,-0.00059616,-0.00022017,0.053366,-0.015934,-0.015826,0.00090067,-0.0031001,-0.0011449,0,0,0,0.026763,0.00073032,-0.0004864,0.013625,0.0090024,0.026662,9.6906e-07,0.9,0.8,0.25
0.047292,-0.0052616,0.0043593,0.026983,-1.4211e-05,3.843e-05,8.6232e-05,-0.00064564,-0.00011379,0.053951,-0.016241,-0.016104,0.00044841,-0.0033573,-0.00059169,0,0,0,0.026985,0.00066956,-0.00064786,0.013817,0.0090024,0.026999,1.0054e-06,0.95,0.8,0.25
0.048643,-0.0052846,0.0043787,0.027061,-5.998e-05,-3.867e-06,1.7297e-05,-0.00065338,-3.6408e-05,0.05416,-0.016354,-0.016208,8.9945e-05,-0.0033976,-0.00018932,0,0,0,0.027062,0.00063411,-0.00069913,0.01388,0.0089989,0.027119,1.0187e-06,1,0.8,0.25
0.00097951,-0.00060716,0.0003775,0.026,0.0092586,0.0096601,-0.00449,-6.1032e-05,0.0028504,0.040649,-0.0028789,-0.0018348,-0.023348,-0.00031737,0.014822,0,0,0,0.027599,0.0095472,0.0077724,0.0099133,0.014973,0.019006,3.4717e-07,0,0.85,0.25
0.0020324,-0.0011986,0.00074587,0.02607,0.0075236,0.0082667,-0.0041893,-0.00011936,0.002749,0.042666,-0.005555,-0.0036229,-0.021784,-0.00062067,0.014295,0,0,0,0.027419,0.008086,0.0063558,0.010532,0.013954,0.02026,4.2729e-07,0.05,0.85,0.25
0.0042666,-0.0023199,0.001454,0.026557,0.0046479,0.0058638,-0.0034296,-0.00023175,0.0024634,0.046807,-0.010157,-0.0069953,-0.017834,-0.0012051,0.01281,0,0,0,0.02742,0.0056309,0.0040185,0.011701,0.012356,0.022647,5.9518e-07,0.1,0.85,0.25
0.0067131,-0.0032779,0.0020877,0.027165,0.00283,0.0040945,-0.0025157,-0.00033548,0.0020504,0.050174,-0.013095,-0.0098077,-0.013082,-0.0017445,0.010662,0,0,0,0.027639,0.0039476,0.0025025,0.012568,0.011363,0.024452,7.4493e-07,0.15,0.85,0.25
0.0092841,-0.0040281,0.0026199,0.027342,0.0017607,0.0027896,-0.0017074,-0.00042763,0.0015939,0.051954,-0.014558,-0.011883,-0.0088783,-0.0022237,0.008288,0,0,0,0.027581,0.0028012,0.0015105,0.013035,0.010631,0.025452,8.4e-07,0.2,0.85,0.25
0.011909,-0.0045782,0.003039,0.027203,0.0011516,0.0018807,-0.001103,-0.00050131,0.001166,0.052586,-0.015147,-0.013251,-0.0057358,-0.0026068,0.0060634,0,0,0,0.027316,0.0020621,0.00085705,0.013229,0.010078,0.025878,8.8377e-07,0.25,0.85,0.25
0.014543,-0.0049526,0.0033447,0.026894,0.00082728,0.0012922,-0.00066793,-0.00054296,0.00079788,0.052517,-0.015257,-0.014049,-0.0034732,-0.0028234,0.004149,0,0,0,0.026945,0.0016147,0.00045431,0.013245,0.0096713,0.02593,8.8983e-07,0.3,0.85,0.25
0.01716,-0.0051726,0.0035423,0.026503,0.00066776,0.0009359,-0.00033283,-0.00052265,0.00048546,0.052044,-0.015128,-0.014431,-0.0017307,-0.0027178,0.0025244,0,0,0,0.026523,0.0013252,0.00025807,0.013133,0.0093688,0.025749,8.7222e-07,0.35,0.85,0.25
0.019747,-0.0052552,0.0036391,0.026065,0.0005532,0.00070742,-5.69e-05,-0.00039161,0.00022053,0.051374,-0.014957,-0.014556,-0.00029588,-0.0020364,0.0011467,0,0,0,0.026073,0.0010238,0.00022882,0.012922,0.0091085,0.025457,8.4469e-07,0.4,0.85,0.25
0.022298,-0.0052233,0.0036482,0.025582,0.00036981,0.00049314,0.00014497,-0.00011375,1.8317e-05,0.050646,-0.014905,-0.014585,0.00075385,-0.0005915,9.5246e-05,0,0,0,0.025588,0.00069152,0.00016507,0.012712,0.0088149,0.025165,8.1737e-07,0.45,0.85,0.25
0.024812,-0.0051155,0.0035968,0.025182,7.0024e-05,0.0002324,0.00021142,0.00028648,-8.7332e-05,0.04986,-0.015001,-0.014587,0.0011444,0.0014607,-0.00047456,0,0,0,0.025192,0.00052821,-0.00023588,0.012714,0.0084947,0.025058,8.1541e-07,0.5,0.85,0.25
0.027288,-0.0049928,0.00353,0.024952,-0.0002221,2.9241e-06,0.00017826,0.00067867,-0.00011638,0.049073,-0.015113,-0.014541,0.0010194,0.0034578,-0.00064293,0,0,0,0.024963,0.00059329,-0.0008234,0.012893,0.0082442,0.025113,8.3405e-07,0.55,0.85,0.25
0.029727,-0.0049285,0.0034993,0.024794,-0.00035519,-0.00010829,0.0001597,0.00090372,-0.00012477,0.04859,-0.015146,-0.014506,0.00086745,0.0046303,-0.00065974,0,0,0,0.0248,0.00070019,-0.0011696,0.012985,0.0081103,0.02509,8.3402e-07,0.6,0.85,0.25
0.032151,-0.0049731,0.0035379,0.024789,-0.00038423,-0.00015905,0.0001606,0.00091098,-0.00012251,0.048626,-0.015169,-0.014583,0.00075595,0.0046655,-0.00060078,0,0,0,0.024796,0.00066475,-0.0012141,0.013005,0.0080821,0.025126,8.3802e-07,0.65,0.85,0.25
0.034593,-0.0051314,0.0036501,0.024929,-0.00031195,-0.00015389,0.00010855,0.00069844,-9.2292e-05,0.049171,-0.015182,-0.01478,0.00044003,0.0035561,-0.00042341,0,0,0,0.024939,0.00048165,-0.00095768,0.012948,0.0081542,0.025213,8.4472e-07,0.7,0.85,0.25
0.037076,-0.0053632,0.003812,0.025118,-9.0974e-05,-4.8415e-05,4.395e-06,0.00031371,-4.1024e-05,0.049996,-0.015115,-0.01501,-3.2917e-05,0.0016002,-0.00018671,0,0,0,0.025126,0.00031161,-0.00045871,0.012792,0.0083262,0.025212,8.3082e-07,0.75,0.85,0.25
0.039597,-0.0056073,0.0039819,0.025444,0.00011853,4.9175e-05,-4.0722e-05,-8.7488e-05,-2.0729e-05,0.050787,-0.015059,-0.015239,-0.00021175,-0.00045494,-0.00010779,0,0,0,0.025447,0.00033324,-0.00016902,0.012808,0.0085372,0.02537,8.3773e-07,0.8,0.85,0.25
0.042154,-0.0058164,0.0041252,0.025809,0.00018251,3.841e-05,-2.0337e-06,-0.0003783,-4.224e-05,0.051486,-0.015143,-0.015518,-1.0575e-05,-0.0019672,-0.00021965,0,0,0,0.025811,0.00050274,-0.00028398,0.013048,0.0086767,0.025713,8.7063e-07,0.85,0.85,0.25
0.044746,-0.0059669,0.0042264,0.026078,0.00013211,-4.646e-05,3.8141e-05,-0.00053627,-5.8325e-05,0.052104,-0.015355,-0.015819,0.00019833,-0.0027886,-0.00030329,0,0,0,0.026079,0.00059575,-0.00051151,0.013295,0.0087212,0.026055,9.0396e-07,0.9,0.85,0.25
0.047365,-0.0060541,0.0042844,0.026249,5.448e-05,-0.00013027,1.0524e-05,-0.00059897,-2.4688e-05,0.052544,-0.015562,-0.016043,5.4724e-05,-0.0031146,-0.00012838,0,0,0,0.02625,0.00057831,-0.0006549,0.013452,0.0087244,0.02631,9.2978e-07,0.95,0.85,0.25
0.04868,-0.0060823,0.0043031,0.026309,2.1133e-05,-0.00016306,-2.8936e-05,-0.00061374,1.0008e-05,0.052703,-0.015645,-0.016124,-0.00015047,-0.0031915,5.204e-05,0,0,0,0.02631,0.00055994,-0.00070245,0.013506,0.0087224,0.026404,9.3953e-07,1,0.85,0.25
0.0010245,-0.00077274,0.00037412,0.026892,0.0087315,0.0097817,-0.0053673,-4.6397e-05,0.00282,0.042677,-0.0045414,-0.001811,-0.02791,-0.00024127,0.014664,0,0,0,0.028837,0.0096497,0.0069187,0.010959,0.015135,0.0207,4.3603e-07,0,0.9,0.25
0.0021338,-0.001514,0.00073914,0.026793,0.0065395,0.0082124,-0.0047206,-9.4529e-05,0.0027134,0.044735,-0.0079242,-0.0035747,-0.024547,-0.00049155,0.014109,0,0,0,0.028315,0.0080144,0.0052152,0.01155,0.013848,0.021849,5.1668e-07,0.05,0.9,0.25
0.0044735,-0.0028821,0.0014405,0.026944,0.0033696,0.0056443,-0.0033948,-0.00019101,0.0024154,0.048479,-0.012813,-0.0068995,-0.017653,-0.00099326,0.01256,0,0,0,0.027768,0.0054055,0.0027844,0.012492,0.011986,0.023795,6.6879e-07,0.1,0.9,0.25
0.0069817,-0.0039781,0.002067,0.02711,0.0018833,0.0038617,-0.0021839,-0.00028242,0.0019855,0.050773,-0.014816,-0.0096725,-0.011357,-0.0014686,0.010325,0,0,0,0.027511,0.0037084,0.0016353,0.012938,0.010952,0.024912,7.7559e-07,0.15,0.9,0.25
0.0095508,-0.0047832,0.0025919,0.026838,0.0011049,0.0025198,-0.0013089,-0.00035955,0.0015061,0.051501,-0.015405,-0.011726,-0.0068065,-0.0018697,0.0078318,0,0,0,0.027021,0.0024981,0.00094351,0.013039,0.010154,0.025339,8.2489e-07,0.2,0.9,0.25
0.012132,-0.0053481,0.0030037,0.026455,0.00069899,0.0015976,-0.00074598,-0.00041496,0.0010497,0.051533,-0.015434,-0.013097,-0.0038791,-0.0021578,0.0054586,0,0,0,0.026534,0.0017162,0.00050207,0.013016,0.009584,0.025447,8.4037e-07,0.25,0.9,0.25
0.014704,-0.0057191,0.0033039,0.026084,0.00050148,0.0010143,-0.0003708,-0.00043751,0.00065242,0.051258,-0.015256,-0.013922,-0.0019281,-0.002275,0.0033926,0,0,0,0.026113,0.001252,0.00023416,0.01294,0.0091998,0.025386,8.3636e-07,0.3,0.9,0.25
0.017258,-0.0059287,0.0035006,0.025752,0.00041024,0.00067343,-8.8755e-05,-0.0004068,0.00032037,0.050854,-0.015035,-0.014351,-0.00046153,-0.0021154,0.0016659,0,0,0,0.025761,0.00096566,0.00010879,0.012826,0.0089453,0.025236,8.2266e-07,0.35,0.9,0.25
0.019789,-0.0060023,0.0036065,0.025467,0.00034174,0.00048351,0.00014396,-0.00029484,5.1783e-05,0.050439,-0.014887,-0.014518,0.00074861,-0.0015332,0.00026927,0,0,0,0.025471,0.00071495,0.00010602,0.012683,0.0087641,0.025068,8.0745e-07,0.4,0.9,0.25
0.022302,-0.0059683,0.0036392,0.025227,0.00023004,0.00036467,0.00032065,-8.3075e-05,-0.00014504,0.050098,-0.014895,-0.014545,0.0016674,-0.00043199,-0.00075422,0,0,0,0.025234,0.0004968,9.099e-05,0.012572,0.0086074,0.024944,7.9632e-07,0.45,0.9,0.25
0.024799,-0.0058682,0.0036243,0.025034,4.4227e-05,0.00026712,0.00040215,0.00020885,-0.00025228,0.049881,-0.015092,-0.014513,0.0020912,0.001086,-0.0013118,0,0,0,0.025044,0.00044718,-0.00014593,0.012595,0.0084484,0.024901,7.909e-07,0.5,0.9,0.25
0.02729,-0.0057598,0.0035963,0.024896,-0.00017906,0.00017749,0.0003614,0.00050099,-0.00025912,0.049793,-0.015402,-0.014475,0.0018793,0.0026051,-0.0013474,0,0,0,0.024905,0.00054337,-0.00055393,0.01273,0.0082982,0.024932,7.8992e-07,0.55,0.9,0.25
0.029779,-0.0057063,0.0035901,0.024832,-0.00033706,0.00010642,0.00022188,0.00068378,-0.00018089,0.049802,-0.015637,-0.014484,0.0011538,0.0035556,-0.00094065,0,0,0,0.024836,0.00061851,-0.00085368,0.012845,0.0082004,0.024989,7.9164e-07,0.6,0.9,0.25
0.03227,-0.0057516,0.0036289,0.024849,-0.00035165,6.7126e-05,4.1338e-05,0.00068847,-6.0399e-05,0.04987,-0.015653,-0.014564,0.00021495,0.00358,-0.00031408,0,0,0,0.024851,0.0005915,-0.00087773,0.012864,0.0081883,0.025029,7.9554e-07,0.65,0.9,0.25
0.034766,-0.0059004,0.0037171,0.024942,-0.00022603,5.1983e-05,-0.00011841,0.00051439,5.0953e-05,0.049988,-0.015448,-0.014725,-0.00061574,0.0026748,0.00026495,0,0,0,0.024944,0.00045583,-0.00063199,0.012788,0.0082559,0.025053,8.0165e-07,0.7,0.9,0.25
0.037269,-0.0061191,0.00384,0.025086,-4.3369e-05,3.3035e-05,-0.00020275,0.00022855,0.0001141,0.050178,-0.015158,-0.014959,-0.0010543,0.0011884,0.0005933,0,0,0,0.025089,0.00028047,-0.00029386,0.012691,0.0083585,0.025103,8.1044e-07,0.75,0.9,0.25
0.039783,-0.0063558,0.0039722,0.025249,9.1263e-05,-1.6013e-05,-0.00019396,-6.2448e-05,0.00012028,0.050454,-0.014957,-0.015236,-0.0010086,-0.00032473,0.00062548,0,0,0,0.025252,0.00023213,-0.00015967,0.012706,0.0084415,0.025219,8.23e-07,0.8,0.9,0.25
0.042314,-0.0065659,0.0040898,0.025406,0.00013684,-0.00010235,-0.00012791,-0.00028181,8.9252e-05,0.05079,-0.014908,-0.01553,-0.00066513,-0.0014654,0.00046411,0,0,0,0.025407,0.00033079,-0.000298,0.012853,0.00848,0.025398,8.3959e-07,0.85,0.9,0.25
0.044862,-0.0067231,0.0041782,0.025535,0.0001137,-0.00020529,-5.832e-05,-0.00041205,4.9633e-05,0.051126,-0.014971,-0.0158,-0.00030327,-0.0021426,0.00025809,0,0,0,0.025536,0.00040704,-0.00049936,0.013018,0.0084813,0.025595,8.5784e-07,0.9,0.9,0.25
0.047427,-0.0068178,0.0042318,0.025623,6.9197e-05,-0.00028694,-4.6323e-05,-0.00047263,3.6787e-05,0.051376,-0.015063,-0.015989,-0.00024088,-0.0024577,0.00019129,0,0,0,0.025623,0.00040935,-0.00062751,0.013125,0.0084684,0.025748,8.7253e-07,0.95,0.9,0.25
0.048712,-0.0068492,0.0042496,0.025654,4.8785e-05,-0.00031747,-6.3949e-05,-0.00048927,4.2395e-05,0.051469,-0.015104,-0.016057,-0.00033253,-0.0025442,0.00022045,0,0,0,0.025655,0.00040181,-0.00067095,0.013163,0.0084618,0.025806,8.7819e-07,1,0.9,0.25
0.0012166,-0.0010613,0.00037643,0.030454,0.0086828,0.010838,-0.0064517,-2.5999e-05,0.0028402,0.049196,-0.00741,-0.0018058,-0.033549,-0.0001352,0.014769,0,0,0,0.032796,0.010689,0.0064903,0.013153,0.016658,0.024494,7.3548e-07,0,0.95,0.25
0.0024598,-0.0019911,0.00074318,0.029103,0.0056172,0.0086346,-0.0050366,-5.8446e-05,0.0027328,0.049654,-0.011408,-0.0035626,-0.02619,-0.00030392,0.014211,0,0,0,0.030725,0.0084181,0.004211,0.013257,0.014451,0.024699,7.2902e-07,0.05,0.95,0.25
0.0049654,-0.0036012,0.0014471,0.027261,0.0019092,0.0053148,-0.0027646,-0.0001278,0.0024276,0.050188,-0.015727,-0.0068726,-0.014376,-0.00066455,0.012623,0,0,0,0.027914,0.0050634,0.0015078,0.013203,0.011495,0.02484,7.3402e-07,0.1,0.95,0.25
0.0074786,-0.0047595,0.0020747,0.026322,0.00091535,0.0033553,-0.0014523,-0.00019577,0.0019796,0.050081,-0.015975,-0.0096315,-0.0075521,-0.001018,0.010294,0,0,0,0.026615,0.0031898,0.0007872,0.012914,0.010197,0.024724,7.5133e-07,0.15,0.95,0.25
0.0099735,-0.0055686,0.0025988,0.025608,0.00042288,0.0019715,-0.00075306,-0.00024955,0.0014722,0.04978,-0.015702,-0.011676,-0.0039159,-0.0012977,0.0076554,0,0,0,0.025741,0.0019159,0.00034558,0.012698,0.0093343,0.024653,7.6021e-07,0.2,0.95,0.25
0.012457,-0.0061216,0.003008,0.025182,0.00022345,0.0010991,-0.00036812,-0.00028456,0.00098124,0.04957,-0.015322,-0.013045,-0.0019142,-0.0014797,0.0051024,0,0,0,0.025237,0.0011531,0.00011465,0.012561,0.0088348,0.024621,7.6361e-07,0.25,0.95,0.25
0.01493,-0.0064782,0.003304,0.024923,0.00014806,0.00058306,-0.00012995,-0.00029437,0.00054933,0.049407,-0.015007,-0.013876,-0.00067575,-0.0015307,0.0028565,0,0,0,0.024941,0.00073017,-1.745e-05,0.012479,0.0085513,0.024594,7.6305e-07,0.3,0.95,0.25
0.017397,-0.0066761,0.0034971,0.024789,0.00013003,0.00031693,4.7765e-05,-0.0002672,0.00019136,0.04931,-0.014804,-0.014318,0.00024838,-0.0013894,0.00099506,0,0,0,0.024794,0.00050799,-6.5996e-05,0.01243,0.008412,0.024579,7.6207e-07,0.35,0.95,0.25
0.019861,-0.0067439,0.0036028,0.024768,0.00012298,0.00021937,0.0001975,-0.00018817,-8.6573e-05,0.04933,-0.014746,-0.014496,0.001027,-0.00097849,-0.00045018,0,0,0,0.024772,0.00036625,-2.8093e-05,0.0124,0.00837,0.024606,7.6484e-07,0.4,0.95,0.25
0.02233,-0.0067128,0.0036416,0.024848,9.0239e-05,0.00022298,0.00031178,-4.958e-05,-0.00027385,0.049508,-0.014862,-0.014517,0.0016212,-0.00025782,-0.001424,0,0,0,0.024857,0.00029413,1.0638e-05,0.012423,0.0083871,0.024706,7.7429e-07,0.45,0.95,0.25
0.024812,-0.0066247,0.0036393,0.025001,1.1683e-05,0.00026897,0.0003591,0.00013227,-0.00035559,0.049834,-0.015139,-0.01447,0.0018673,0.00068778,-0.0018491,0,0,0,0.025012,0.0003544,-8.4936e-05,0.012549,0.0084272,0.024882,7.9012e-07,0.5,0.95,0.25
0.027314,-0.0065331,0.0036256,0.025174,-9.5244e-05,0.00031168,0.00031173,0.00030945,-0.00032701,0.050218,-0.015482,-0.014424,0.001621,0.0016091,-0.0017004,0,0,0,0.025183,0.000492,-0.00028467,0.012734,0.0084635,0.02509,8.0822e-07,0.55,0.95,0.25
0.029834,-0.0064922,0.0036283,0.025308,-0.00017484,0.0003252,0.0001762,0.00042073,-0.0002085,0.050526,-0.01573,-0.01443,0.00091626,0.0021878,-0.0010842,0,0,0,0.025312,0.00058146,-0.00043537,0.012874,0.0084862,0.025257,8.2263e-07,0.6,0.95,0.25
0.032366,-0.0065384,0.0036665,0.025363,-0.00017848,0.00029871,1.9491e-06,0.00042403,-4.6162e-05,0.050654,-0.015754,-0.014513,1.0135e-05,0.002205,-0.00024004,0,0,0,0.025364,0.00056348,-0.00044463,0.012904,0.0084944,0.025322,8.2911e-07,0.65,0.95,0.25
0.034899,-0.0066762,0.0037442,0.025332,-0.00010749,0.00022574,-0.00014334,0.00031907,0.00010413,0.050594,-0.01555,-0.014683,-0.00074536,0.0016592,0.00054146,0,0,0,0.025334,0.0004319,-0.00031575,0.012825,0.0084835,0.025287,8.2754e-07,0.7,0.95,0.25
0.037426,-0.006879,0.0038513,0.025245,-1.242e-05,0.00010405,-0.00021231,0.00014689,0.00019975,0.050435,-0.015234,-0.014932,-0.001104,0.00076384,0.0010387,0,0,0,0.025249,0.00024457,-0.00015685,0.012703,0.0084456,0.025209,8.2181e-07,0.75,0.95,0.25
0.039943,-0.0071031,0.0039691,0.025146,5.0357e-05,-5.4971e-05,-0.0002019,-3.3011e-05,0.00022663,0.050296,-0.014954,-0.015228,-0.0010499,-0.00017166,0.0011785,0,0,0,0.025151,0.00013757,-0.0001464,0.012649,0.0083806,0.025157,8.1725e-07,0.8,0.95,0.25
0.042455,-0.0073073,0.0040783,0.025073,6.2187e-05,-0.0002246,-0.00014479,-0.00017468,0.00019824,0.050243,-0.014784,-0.01553,-0.00075291,-0.00090834,0.0010308,0,0,0,0.025076,0.00015236,-0.00031773,0.012697,0.0083034,0.025162,8.1718e-07,0.85,0.95,0.25
0.044967,-0.007464,0.0041641,0.025036,3.9435e-05,-0.00037305,-8.0656e-05,-0.00026343,0.00013955,0.050271,-0.014719,-0.015791,-0.00041941,-0.0013698,0.00072568,0,0,0,0.025037,0.00018126,-0.00051632,0.012777,0.008234,0.025212,8.2116e-07,0.9,0.95,0.25
0.047482,-0.0075604,0.0042181,0.025025,1.0115e-05,-0.00047346,-6.3564e-05,-0.00030759,8.8312e-05,0.050327,-0.01471,-0.015968,-0.00033053,-0.0015995,0.00045922,0,0,0,0.025025,0.00017675,-0.00064078,0.012833,0.0081871,0.025268,8.2597e-07,0.95,0.95,0.25
0.048741,-0.0075927,0.0042364,0.025023,-2.5402e-06,-0.00050881,-7.5853e-05,-0.00032038,7.0819e-05,0.050354,-0.014714,-0.01603,-0.00039444,-0.001666,0.00036826,0,0,0,0.025024,0.00017089,-0.00068281,0.012853,0.0081707,0.025291,8.2809e-07,1,0.95,0.25
0.0013766,-0.001252,0.00037932,0.033391,0.0090405,0.011825,-0.0071145,-1.6088e-05,0.0028669,0.054263,-0.0090487,-0.0018091,-0.036996,-8.3659e-05,0.014908,0,0,0,0.035961,0.011669,0.0066264,0.014668,0.018086,0.027185,9.7522e-07,0,1,0.25
0.0027132,-0.002285,0.00074852,0.030899,0.0053601,0.0090935,-0.0051782,-4.0487e-05,0.0027611,0.053126,-0.013275,-0.0035686,-0.026927,-0.00021053,0.014358,0,0,0,0.032569,0.0088677,0.0039161,0.014327,0.015118,0.026544,8.8395e-07,0.05,1,0.25
0.0053126,-0.0040052,0.0014568,0.027303,0.0011872,0.0051056,-0.002313,-9.5252e-05,0.0024543,0.050831,-0.017071,-0.0068831,-0.012028,-0.00049531,0.012762,0,0,0,0.027851,0.0048438,0.00090108,0.013475,0.011199,0.025233,7.5786e-07,0.1,1,0.25
0.0077962,-0.0051656,0.0020875,0.025584,0.00040671,0.0029752,-0.0010152,-0.00014997,0.0019961,0.04914,-0.016322,-0.0096443,-0.0052791,-0.00077985,0.01038,0,0,0,0.025827,0.0027994,0.00033982,0.012744,0.0096554,0.024361,7.1681e-07,0.15,1,0.25
0.010227,-0.0059637,0.0026135,0.024724,4.5883e-05,0.0015871,-0.00046934,-0.00019115,0.0014718,0.048469,-0.015695,-0.011688,-0.0024406,-0.00099401,0.0076534,0,0,0,0.024839,0.0015144,3.7437e-06,0.012418,0.0087858,0.024121,7.1208e-07,0.2,1,0.25
0.012643,-0.0065052,0.0030226,0.024368,-4.5391e-05,0.00076958,-0.00019735,-0.00021631,0.00095986,0.048302,-0.015173,-0.013054,-0.0010262,-0.0011248,0.0049913,0,0,0,0.024416,0.00079387,-0.00011744,0.012267,0.0083641,0.024093,7.1585e-07,0.25,1,0.25
0.015057,-0.0068531,0.0033168,0.024226,-5.6063e-05,0.00030949,-3.7826e-05,-0.00022154,0.00050636,0.048299,-0.014833,-0.013883,-0.00019669,-0.001152,0.0026331,0,0,0,0.024241,0.00041591,-0.00017771,0.012209,0.0081597,0.024128,7.2084e-07,0.3,1,0.25
0.017473,-0.0070458,0.0035068,0.02423,-3.1293e-05,9.9254e-05,8.1761e-05,-0.00019896,0.00013012,0.048418,-0.01466,-0.01432,0.00042515,-0.0010346,0.00067664,0,0,0,0.024234,0.00024634,-0.00018234,0.012208,0.0080992,0.024205,7.2816e-07,0.35,1,0.25
0.019899,-0.0071124,0.0036093,0.024369,2.3097e-07,6.3794e-05,0.00018494,-0.00013885,-0.0001586,0.048699,-0.014659,-0.014494,0.00096169,-0.00072201,-0.00082472,0,0,0,0.024373,0.00017581,-0.00011624,0.012245,0.0081443,0.024345,7.4106e-07,0.4,1,0.25
0.022343,-0.0070845,0.0036458,0.024633,1.5254e-05,0.00014025,0.00026394,-3.7555e-05,-0.0003461,0.049172,-0.014833,-0.014508,0.0013725,-0.00019528,-0.0017997,0,0,0,0.024642,0.00018646,-3.9936e-05,0.012341,0.0082627,0.024569,7.6174e-07,0.45,1,0.25
0.024816,-0.0070034,0.0036427,0.024976,-6.7585e-07,0.00026659,0.00029257,9.2009e-05,-0.00041749,0.049793,-0.015147,-0.014452,0.0015214,0.00047845,-0.002171,0,0,0,0.024988,0.00031042,-5.5805e-05,0.012522,0.0084141,0.024863,7.8884e-07,0.5,1,0.25
0.027322,-0.0069203,0.0036292,0.025317,-3.8563e-05,0.00038416,0.0002484,0.0002171,-0.00037019,0.050426,-0.015498,-0.014399,0.0012917,0.0011289,-0.001925,0,0,0,0.025326,0.00048363,-0.00014687,0.012736,0.0085541,0.025164,8.1663e-07,0.55,1,0.25
0.029858,-0.0068854,0.0036323,0.025558,-6.8986e-05,0.00044679,0.00013637,0.00029596,-0.00022705,0.05089,-0.015741,-0.0144,0.00070915,0.001539,-0.0011807,0,0,0,0.025562,0.00059294,-0.00021916,0.012891,0.0086454,0.025386,8.3734e-07,0.6,1,0.25
0.032411,-0.0069322,0.0036698,0.025635,-6.6711e-05,0.0004283,-4.9673e-06,0.00029874,-3.7849e-05,0.051054,-0.015772,-0.014485,-2.583e-05,0.0015534,-0.00019682,0,0,0,0.025637,0.00058092,-0.00022065,0.012929,0.0086656,0.025467,8.4542e-07,0.65,1,0.25
0.034964,-0.0070651,0.003746,0.025543,-3.221e-05,0.00032295,-0.00012243,0.00022527,0.0001369,0.050911,-0.015584,-0.01466,-0.00063663,0.0011714,0.00071187,0,0,0,0.025545,0.0004415,-0.00015299,0.012849,0.0086112,0.025407,8.4062e-07,0.7,1,0.25
0.037502,-0.0072601,0.0038517,0.025336,8.7568e-06,0.00014506,-0.00017883,0.00010475,0.00025084,0.050581,-0.015271,-0.014917,-0.00092991,0.00054468,0.0013044,0,0,0,0.025341,0.00023547,-8.5996e-05,0.012713,0.0084968,0.025268,8.2807e-07,0.75,1,0.25
0.040022,-0.007477,0.0039692,0.0251,2.6989e-05,-7.2754e-05,-0.00017144,-2.23e-05,0.00028739,0.050228,-0.014963,-0.015222,-0.00089151,-0.00011596,0.0014944,0,0,0,0.025105,9.3004e-05,-0.00014374,0.012624,0.0083515,0.025132,8.1498e-07,0.8,1,0.25
0.042525,-0.0076765,0.0040794,0.024904,1.3847e-05,-0.0002894,-0.00012571,-0.00012455,0.00025763,0.049973,-0.014741,-0.015529,-0.00065369,-0.00064768,0.0013397,0,0,0,0.024908,6.1949e-05,-0.00034128,0.012625,0.0082095,0.02505,8.0657e-07,0.85,1,0.25
0.045019,-0.0078312,0.0041673,0.024778,-1.6751e-05,-0.00046778,-7.281e-05,-0.00019035,0.0001863,0.049846,-0.01462,-0.015792,-0.00037861,-0.00098982,0.00096873,0,0,0,0.02478,6.0184e-05,-0.00054671,0.012663,0.0080978,0.025029,8.0376e-07,0.9,1,0.25
0.04751,-0.007927,0.0042232,0.024716,-4.4615e-05,-0.00058287,-6.1898e-05,-0.00022386,0.0001147,0.049808,-0.014569,-0.015969,-0.00032187,-0.001164,0.00059644,0,0,0,0.024717,4.588e-05,-0.00067426,0.012696,0.0080295,0.025039,8.0417e-07,0.95,1,0.25
0.048755,-0.0079592,0.0042423,0.024698,-5.5539e-05,-0.00062238,-7.5776e-05,-0.00023371,8.5779e-05,0.049804,-0.014557,-0.01603,-0.00039403,-0.0012153,0.00044605,0,0,0,0.024699,3.8506e-05,-0.00071709,0.012708,0.0080068,0.025047,8.0476e-07,1,1,0.25
0.0013326,0.0012145,0.00027284,0.032339,0.0087645,0.011565,0.0068962,5.5747e-06,0.0020657,0.052482,-0.0088135,-0.0015333,0.03586,2.8988e-05,0.010742,0,0,0,0.034696,0.011478,0.0064946,0.0141,0.017556,0.026093,8.5663e-07,0,0,0.3
0.0026241,0.0022167,0.00054102,0.029935,0.0052132,0.0090256,0.0050108,1.6673e-05,0.0020002,0.051327,-0.01295,-0.003038,0.026056,8.6698e-05,0.010401,0,0,0,0.031421,0.0088992,0.0038534,0.013784,0.014725,0.025443,7.6706e-07,0.05,0,0.3
0.0051327,0.0038851,0.0010616,0.026483,0.0011915,0.0053384,0.0022118,4.3064e-05,0.0018079,0.049048,-0.01671,-0.0059278,0.011501,0.00022393,0.0094011,0,0,0,0.026903,0.0051875,0.00092201,0.012991,0.011004,0.024152,6.4899e-07,0.1,0,0.3
0.0075289,0.0050081,0.001539,0.0249,0.00044186,0.0033626,0.0009245,6.9673e-05,0.0015107,0.047518,-0.016074,-0.0084801,0.0048074,0.0003623,0.0078556,0,0,0,0.025064,0.0032529,0.00038753,0.012338,0.0095683,0.023387,6.2337e-07,0.15,0,0.3
0.0098845,0.0057776,0.0019542,0.024227,8.6802e-05,0.0020151,0.00036501,8.6803e-05,0.0011565,0.047192,-0.015571,-0.010558,0.0018981,0.00045137,0.0060135,0,0,0,0.024302,0.0019542,7.2538e-05,0.012115,0.0087762,0.023352,6.401e-07,0.2,0,0.3
0.012248,0.0063011,0.0022973,0.024099,-1.611e-05,0.0011553,8.1869e-05,9.3039e-05,0.0008011,0.047514,-0.015185,-0.012139,0.00042572,0.0004838,0.0041657,0,0,0,0.024131,0.0011337,-2.7267e-05,0.012079,0.0084126,0.023603,6.7049e-07,0.25,0,0.3
0.014636,0.0066489,0.0025681,0.024193,-4.9778e-05,0.00060245,-6.9623e-05,8.9305e-05,0.00048612,0.048054,-0.014977,-0.013281,-0.00036204,0.00046439,0.0025278,0,0,0,0.024205,0.00060712,-6.6967e-05,0.012136,0.0082484,0.023944,7.0374e-07,0.3,0,0.3
0.017053,0.0068693,0.0027734,0.02439,-5.7076e-05,0.00026343,-0.00015275,7.7495e-05,0.00023264,0.048656,-0.014906,-0.014073,-0.0007943,0.00040297,0.0012097,0,0,0,0.024394,0.00028484,-8.2871e-05,0.012239,0.0081988,0.024296,7.3654e-07,0.35,0,0.3
0.019502,0.0069983,0.0029232,0.024633,-5.8043e-05,7.0594e-05,-0.00019406,5.9954e-05,4.5693e-05,0.049258,-0.014938,-0.014604,-0.0010091,0.00031176,0.0002376,0,0,0,0.024635,0.00010232,-9.2026e-05,0.012363,0.008215,0.02463,7.6765e-07,0.4,0,0.3
0.021979,0.0070646,0.0030291,0.024887,-5.944e-05,-2.5545e-05,-0.00020527,3.9394e-05,-7.9079e-05,0.049825,-0.015036,-0.014948,-0.0010674,0.00020485,-0.00041121,0,0,0,0.02489,9.1771e-06,-9.6491e-05,0.012493,0.0082674,0.024933,7.9632e-07,0.45,0,0.3
0.024484,0.0070923,0.003102,0.025128,-6.2508e-05,-6.3146e-05,-0.00019212,1.8823e-05,-0.00015061,0.050332,-0.015164,-0.015166,-0.00099901,9.788e-05,-0.00078316,0,0,0,0.025131,-3.3278e-05,-9.5006e-05,0.012613,0.0083342,0.025195,8.216e-07,0.5,0,0.3
0.027012,0.0071012,0.0031519,0.025334,-6.5333e-05,-7.1694e-05,-0.0001594,1.2898e-06,-0.00017971,0.05075,-0.015288,-0.015305,-0.00082887,6.7067e-06,-0.0009345,0,0,0,0.025336,-4.7639e-05,-9.186e-05,0.012714,0.008399,0.025406,8.4236e-07,0.55,0,0.3
0.029559,0.0071069,0.0031867,0.025487,-6.4885e-05,-7.2997e-05,-0.00011339,-1.0626e-05,-0.00017779,0.051056,-0.015378,-0.015399,-0.00058963,-5.5253e-05,-0.00092449,0,0,0,0.025489,-4.7812e-05,-9.1963e-05,0.01279,0.0084496,0.025559,8.5756e-07,0.6,0,0.3
0.032118,0.0071194,0.0032127,0.025577,-5.891e-05,-8.1362e-05,-6.2284e-05,-1.5401e-05,-0.00015593,0.051239,-0.015415,-0.015474,-0.00032388,-8.0087e-05,-0.00081086,0,0,0,0.025578,-4.4661e-05,-9.6823e-05,0.012838,0.008479,0.025649,8.6668e-07,0.65,0,0.3
0.034683,0.0071437,0.0032339,0.025606,-4.7243e-05,-0.00010382,-1.4874e-05,-1.2974e-05,-0.00012414,0.051302,-0.015396,-0.015543,-7.7346e-05,-6.7464e-05,-0.0006455,0,0,0,0.025606,-3.998e-05,-0.00011177,0.012859,0.0084848,0.025682,8.7001e-07,0.7,0,0.3
0.037248,0.0071793,0.0032524,0.025582,-3.1908e-05,-0.00014087,2.1499e-05,-4.7215e-06,-9.0424e-05,0.051268,-0.015329,-0.015612,0.0001118,-2.4552e-05,-0.0004702,0,0,0,0.025583,-2.9987e-05,-0.00014318,0.012863,0.0084698,0.025669,8.6866e-07,0.75,0,0.3
0.03981,0.0072221,0.0032688,0.025524,-1.6051e-05,-0.00018793,4.263e-05,6.9773e-06,-6.0306e-05,0.051171,-0.015234,-0.015681,0.00022168,3.6282e-05,-0.00031359,0,0,0,0.025524,-1.5348e-05,-0.00018888,0.012857,0.00844,0.025627,8.6428e-07,0.8,0,0.3
0.042365,0.0072655,0.0032831,0.025452,-2.4961e-06,-0.00023731,4.7941e-05,1.9403e-05,-3.6601e-05,0.051048,-0.015134,-0.015744,0.00024929,0.00010089,-0.00019033,0,0,0,0.025452,-5.9486e-07,-0.00023938,0.012846,0.008404,0.025573,8.5871e-07,0.85,0,0.3
0.044915,0.0073026,0.0032942,0.025385,7.1974e-06,-0.00028042,3.9801e-05,3.0098e-05,-1.9742e-05,0.050934,-0.015048,-0.015796,0.00020697,0.00015651,-0.00010266,0,0,0,0.025385,1.0861e-05,-0.00028417,0.012835,0.0083706,0.025523,8.5356e-07,0.9,0,0.3
0.047459,0.0073275,0.0033013,0.025338,1.2756e-05,-0.00030969,3.1008e-05,3.7234e-05,-5.955e-06,0.050855,-0.014992,-0.01583,0.00016124,0.00019362,-3.0966e-05,0,0,0,0.025338,1.7772e-05,-0.00031476,0.012827,0.0083472,0.025489,8.5e-07,0.95,0,0.3
0.04873,0.0073363,0.0033037,0.025322,1.4533e-05,-0.00032004,2.9204e-05,3.9731e-05,1.0349e-06,0.050827,-0.014972,-0.015842,0.00015186,0.0002066,5.3813e-06,0,0,0,0.025322,2.004e-05,-0.00032559,0.012824,0.0083388,0.025476,8.4875e-07,1,0,0.3
0.0011766,0.0010288,0.00027126,0.029469,0.0084155,0.010601,0.0062465,1.1234e-05,0.0020506,0.047529,-0.0072112,-0.0015289,0.032482,5.8417e-05,0.010663,0,0,0,0.031591,0.010518,0.0063764,0.012608,0.016162,0.023442,6.4146e-07,0,0.05,0.3
0.0023764,0.0019301,0.00053803,0.028171,0.0054667,0.0085764,0.0048642,2.6737e-05,0.0019833,0.047916,-0.011115,-0.0030297,0.025294,0.00013903,0.010313,0,0,0,0.029603,0.0084548,0.0041557,0.012724,0.014071,0.023613,6.2839e-07,0.05,0.05,0.3
0.0047916,0.0034901,0.001056,0.026416,0.0019055,0.0055405,0.0026337,6.0631e-05,0.0017892,0.048364,-0.015363,-0.0059118,0.013695,0.00031528,0.009304,0,0,0,0.026936,0.0053954,0.0015311,0.012702,0.011287,0.023726,6.2648e-07,0.1,0.05,0.3
0.0072129,0.004609,0.0015311,0.025577,0.00095258,0.0037302,0.0013216,9.295e-05,0.001494,0.048344,-0.015679,-0.0084573,0.0068722,0.00048334,0.007769,0,0,0,0.025787,0.0036255,0.00084708,0.01247,0.010087,0.023683,6.5032e-07,0.15,0.05,0.3
0.009626,0.0053866,0.0019442,0.025026,0.00046689,0.0023826,0.00060133,0.00011421,0.0011447,0.048343,-0.015511,-0.010531,0.0031269,0.00059389,0.0059527,0,0,0,0.025114,0.0023268,0.00043476,0.01234,0.0092919,0.023796,6.7781e-07,0.2,0.05,0.3
0.012047,0.0059182,0.002286,0.024807,0.00024898,0.001462,0.0001987,0.00012207,0.00079565,0.048588,-0.015264,-0.01211,0.0010332,0.00063475,0.0041374,0,0,0,0.024842,0.0014471,0.00022875,0.012307,0.0088394,0.024031,7.0745e-07,0.25,0.05,0.3
0.014485,0.0062712,0.0025562,0.024773,0.00013678,0.00084716,-3.3196e-05,0.00011707,0.0004865,0.048956,-0.015099,-0.013252,-0.00017262,0.00060874,0.0025298,0,0,0,0.024786,0.00086012,0.00011108,0.012337,0.0085857,0.024311,7.3639e-07,0.3,0.05,0.3
0.016943,0.0064937,0.0027613,0.024844,7.1498e-05,0.00045214,-0.0001679,0.00010119,0.00023747,0.049373,-0.015035,-0.014045,-0.00087309,0.00052619,0.0012348,0,0,0,0.024848,0.00048096,3.7922e-05,0.012405,0.0084558,0.024593,7.6373e-07,0.35,0.05,0.3
0.019422,0.0066223,0.0029114,0.024972,2.4501e-05,0.00021051,-0.00024039,7.7284e-05,5.3355e-05,0.049802,-0.01506,-0.014577,-0.00125,0.00040187,0.00027745,0,0,0,0.024975,0.00024442,-1.2586e-05,0.012494,0.0084022,0.02486,7.8929e-07,0.4,0.05,0.3
0.021923,0.0066865,0.0030177,0.025127,-1.5953e-05,7.2309e-05,-0.00026708,4.8917e-05,-7.0052e-05,0.050219,-0.015151,-0.014922,-0.0013888,0.00025437,-0.00036427,0,0,0,0.02513,0.00010141,-4.8624e-05,0.012589,0.0083943,0.025104,8.1279e-07,0.45,0.05,0.3
0.024444,0.0067113,0.0030913,0.025284,-5.2332e-05,-5.7735e-07,-0.00025647,2.0302e-05,-0.0001413,0.050601,-0.015275,-0.01514,-0.0013336,0.00010557,-0.00073477,0,0,0,0.025288,1.8896e-05,-7.5639e-05,0.012682,0.0084105,0.025317,8.3356e-07,0.5,0.05,0.3
0.026983,0.0067174,0.0031418,0.025425,-8.1375e-05,-3.7015e-05,-0.00021568,-4.1238e-06,-0.00017081,0.05092,-0.015395,-0.01528,-0.0011216,-2.1444e-05,-0.00088823,0,0,0,0.025428,-2.2153e-05,-9.9577e-05,0.012764,0.0084354,0.025489,8.5061e-07,0.55,0.05,0.3
0.029536,0.006721,0.0031775,0.025531,-9.7669e-05,-5.8033e-05,-0.0001541,-2.0504e-05,-0.00016968,0.051155,-0.015479,-0.015376,-0.00080132,-0.00010662,-0.00088235,0,0,0,0.025533,-3.8915e-05,-0.00011912,0.012826,0.0084583,0.025612,8.6295e-07,0.6,0.05,0.3
0.032099,0.0067329,0.0032044,0.025593,-9.7387e-05,-7.7646e-05,-8.3936e-05,-2.6524e-05,-0.00014886,0.051291,-0.015504,-0.015453,-0.00043647,-0.00013792,-0.00077408,0,0,0,0.025594,-4.7588e-05,-0.00012877,0.012862,0.0084727,0.025683,8.7007e-07,0.65,0.05,0.3
0.034665,0.0067579,0.0032265,0.025611,-8.0951e-05,-0.00010356,-1.829e-05,-2.2074e-05,-0.00011828,0.051332,-0.015466,-0.015525,-9.5106e-05,-0.00011479,-0.00061504,0,0,0,0.025611,-5.2099e-05,-0.00013309,0.012872,0.0084754,0.025704,8.7222e-07,0.7,0.05,0.3
0.037232,0.0067955,0.0032459,0.02559,-5.3273e-05,-0.00013797,3.2001e-05,-9.2345e-06,-8.591e-05,0.051295,-0.015378,-0.015598,0.00016641,-4.8019e-05,-0.00044673,0,0,0,0.02559,-4.4094e-05,-0.00014755,0.012869,0.0084663,0.025686,8.7041e-07,0.75,0.05,0.3
0.039795,0.0068409,0.0032633,0.025544,-2.1635e-05,-0.00017865,6.0855e-05,8.4317e-06,-5.7143e-05,0.051209,-0.015263,-0.015671,0.00031645,4.3845e-05,-0.00029714,0,0,0,0.025545,-1.955e-05,-0.00018106,0.012863,0.008448,0.025645,8.6616e-07,0.8,0.05,0.3
0.042353,0.0068869,0.0032783,0.025489,7.2112e-06,-0.00022035,6.7586e-05,2.6913e-05,-3.4637e-05,0.051105,-0.015147,-0.015738,0.00035145,0.00013995,-0.00018011,0,0,0,0.025489,1.1252e-05,-0.00022466,0.012857,0.0084252,0.025596,8.6108e-07,0.85,0.05,0.3
0.044905,0.0069263,0.0032899,0.025438,2.8981e-05,-0.00025654,5.5725e-05,4.2661e-05,-1.8697e-05,0.051012,-0.015051,-0.015793,0.00028977,0.00022184,-9.7222e-05,0,0,0,0.025438,3.6683e-05,-0.00026442,0.012851,0.0084033,0.025553,8.5655e-07,0.9,0.05,0.3
0.047454,0.0069526,0.0032973,0.025402,4.205e-05,-0.00028112,4.0291e-05,5.3099e-05,-5.423e-06,0.050948,-0.014989,-0.015829,0.00020952,0.00027611,-2.82e-05,0,0,0,0.025402,5.249e-05,-0.00029165,0.012847,0.0083877,0.025524,8.5349e-07,0.95,0.05,0.3
0.048727,0.0069618,0.0032999,0.02539,4.6351e-05,-0.00028982,3.479e-05,5.6737e-05,1.4317e-06,0.050926,-0.014967,-0.015841,0.00018091,0.00029503,7.4448e-06,0,0,0,0.02539,5.7779e-05,-0.0003013,0.012846,0.0083821,0.025513,8.5242e-07,1,0.05,0.3
0.00098827,0.00074834,0.00026982,0.025962,0.0084603,0.0095614,0.0051881,2.3655e-05,0.002037,0.04111,-0.0043932,-0.0015304,0.026978,0.00012301,0.010593,0,0,0,0.027679,0.0094868,0.0068173,0.010431,0.014661,0.019677,3.7263e-07,0,0.1,0.3
0.0020555,0.0014661,0.00053541,0.025874,0.0063752,0.0081582,0.0045461,4.8526e-05,0.0019681,0.043028,-0.007669,-0.0030332,0.02364,0.00025234,0.010234,0,0,0,0.027196,0.0080461,0.0051659,0.011015,0.013469,0.020754,4.3783e-07,0.05,0.1,0.3
0.0043028,0.0027893,0.0010512,0.026036,0.0033613,0.0058594,0.0032193,9.7704e-05,0.0017724,0.04654,-0.012415,-0.0059196,0.01674,0.00050806,0.0092164,0,0,0,0.026713,0.0057217,0.0028223,0.011945,0.011752,0.022593,5.6428e-07,0.1,0.1,0.3
0.0067095,0.0038447,0.0015243,0.02624,0.0019425,0.0042207,0.0019844,0.00014072,0.0014785,0.048782,-0.014391,-0.0084681,0.010319,0.00073176,0.007688,0,0,0,0.026543,0.0041214,0.001739,0.012402,0.010801,0.023711,6.6175e-07,0.15,0.1,0.3
0.0091811,0.004614,0.0019355,0.026079,0.0011783,0.0029063,0.0010682,0.00016965,0.0011331,0.049707,-0.015035,-0.010542,0.0055546,0.00088218,0.005892,0,0,0,0.026201,0.0028603,0.001102,0.01255,0.010055,0.024273,7.2115e-07,0.2,0.1,0.3
0.01168,0.0051511,0.0022755,0.025866,0.00074381,0.0019236,0.00046763,0.00018068,0.00078925,0.050132,-0.015186,-0.012119,0.0024317,0.00093955,0.0041041,0,0,0,0.025911,0.0019255,0.00069734,0.012607,0.0095113,0.024625,7.6044e-07,0.25,0.1,0.3
0.014194,0.0055102,0.002544,0.025705,0.00048172,0.0012281,8.3939e-05,0.00017333,0.00048495,0.050385,-0.015197,-0.013256,0.00043648,0.00090133,0.0025217,0,0,0,0.02572,0.0012635,0.00043212,0.012644,0.0091384,0.024883,7.8855e-07,0.3,0.1,0.3
0.016719,0.0057355,0.0027476,0.025608,0.0003058,0.00075369,-0.0001575,0.00014933,0.0002393,0.050581,-0.015206,-0.014041,-0.00081898,0.00077651,0.0012444,0,0,0,0.025613,0.0008036,0.00025076,0.012681,0.0088892,0.025091,8.1026e-07,0.35,0.1,0.3
0.019252,0.0058632,0.0028962,0.025566,0.0001697,0.00043988,-0.0003001,0.0001121,5.6993e-05,0.050767,-0.015264,-0.014562,-0.0015605,0.00058292,0.00029636,0,0,0,0.025571,0.00048426,0.00012086,0.012725,0.0087253,0.02527,8.2848e-07,0.4,0.1,0.3
0.021795,0.0059232,0.0030009,0.025565,5.143e-05,0.00023805,-0.00036628,6.6793e-05,-6.5541e-05,0.050957,-0.015379,-0.014894,-0.0019046,0.00034732,-0.00034082,0,0,0,0.025571,0.0002632,2.0441e-05,0.012775,0.0086183,0.02543,8.4461e-07,0.45,0.1,0.3
0.024348,0.005942,0.0030731,0.02559,-5.3645e-05,0.00011084,-0.00036817,2.0223e-05,-0.00013591,0.051145,-0.015528,-0.0151,-0.0019145,0.00010516,-0.00070672,0,0,0,0.025596,0.00011925,-6.8375e-05,0.012832,0.008549,0.025571,8.5878e-07,0.5,0.1,0.3
0.02691,0.0059423,0.0031229,0.025623,-0.00013801,3.0702e-05,-0.00031665,-1.9835e-05,-0.00016379,0.05131,-0.015668,-0.015229,-0.0016466,-0.00010314,-0.00085172,0,0,0,0.025628,3.7256e-05,-0.00014983,0.012889,0.0085052,0.025685,8.7023e-07,0.55,0.1,0.3
0.029479,0.005942,0.0031586,0.02565,-0.00018912,-2.1912e-05,-0.00022716,-4.6251e-05,-0.00016021,0.051427,-0.015755,-0.01532,-0.0011812,-0.00024051,-0.00083307,0,0,0,0.025653,-6.7962e-06,-0.00020757,0.012931,0.0084797,0.025761,8.7795e-07,0.6,0.1,0.3
0.032053,0.0059532,0.0031866,0.025662,-0.0001982,-6.0323e-05,-0.0001207,-5.4601e-05,-0.00013673,0.051478,-0.015757,-0.015399,-0.00062766,-0.00028392,-0.000711,0,0,0,0.025663,-3.6543e-05,-0.00022356,0.012943,0.0084677,0.025794,8.8128e-07,0.65,0.1,0.3
0.034627,0.0059811,0.0032108,0.025654,-0.00016676,-9.324e-05,-2.0075e-05,-4.4644e-05,-0.00010427,0.051464,-0.01567,-0.015479,-0.00010439,-0.00023215,-0.0005422,0,0,0,0.025655,-6.0789e-05,-0.00019986,0.012927,0.0084647,0.025785,8.8048e-07,0.7,0.1,0.3
0.037199,0.0060241,0.0032331,0.02563,-0.00010721,-0.00012562,5.6163e-05,-2.0323e-05,-7.1571e-05,0.0514,-0.015517,-0.015565,0.00029205,-0.00010568,-0.00037217,0,0,0,0.025631,-6.4354e-05,-0.00016892,0.0129,0.0084657,0.025747,8.7663e-07,0.75,0.1,0.3
0.039767,0.0060763,0.0032536,0.025597,-3.739e-05,-0.00015893,9.8255e-05,1.1753e-05,-4.4186e-05,0.051311,-0.015337,-0.015653,0.00051093,6.1114e-05,-0.00022977,0,0,0,0.025597,-2.6984e-05,-0.00016986,0.012883,0.0084667,0.025696,8.7132e-07,0.8,0.1,0.3
0.04233,0.006129,0.0032715,0.025562,2.6552e-05,-0.00019148,0.00010596,4.4434e-05,-2.4363e-05,0.051222,-0.015169,-0.015736,0.000551,0.00023106,-0.00012669,0,0,0,0.025562,3.6587e-05,-0.00020203,0.012882,0.0084656,0.025646,8.6607e-07,0.85,0.1,0.3
0.044889,0.0061736,0.0032855,0.025533,7.4679e-05,-0.0002195,8.5839e-05,7.1728e-05,-1.1765e-05,0.051152,-0.015039,-0.015803,0.00044636,0.00037299,-6.1175e-05,0,0,0,0.025533,9.3156e-05,-0.00023832,0.012886,0.0084626,0.025607,8.6192e-07,0.9,0.1,0.3
0.047445,0.0062033,0.0032944,0.025514,0.00010344,-0.00023859,5.7691e-05,8.9558e-05,-1.4924e-06,0.051108,-0.014958,-0.015847,0.00029999,0.0004657,-7.7603e-06,0,0,0,0.025514,0.00012794,-0.00026325,0.012889,0.0084595,0.025584,8.5936e-07,0.95,0.1,0.3
0.048723,0.0062137,0.0032974,0.025507,0.00011288,-0.00024538,4.5442e-05,9.5725e-05,4.1141e-06,0.051094,-0.014931,-0.015863,0.0002363,0.00049777,2.1393e-05,0,0,0,0.025507,0.00013953,-0.00027211,0.01289,0.0084582,0.025576,8.5851e-07,1,0.1,0.3
0.00094215,0.00058946,0.00027152,0.025031,0.0089728,0.0094266,0.0043486,3.5043e-05,0.0020511,0.039023,-0.0027292,-0.0015493,0.022613,0.00018222,0.010666,0,0,0,0.026403,0.0093596,0.0076679,0.0093676,0.014477,0.017954,2.9228e-07,0,0.15,0.3
0.0019512,0.0011632,0.00053875,0.025101,0.0073535,0.0082011,0.0040388,6.8171e-05,0.0019827,0.04087,-0.0052744,-0.0030706,0.021002,0.00035449,0.01031,0,0,0,0.026245,0.0080956,0.0063151,0.0099651,0.013552,0.019108,3.5633e-07,0.05,0.15,0.3
0.004087,0.0022486,0.0010576,0.025564,0.0046601,0.0060713,0.0032509,0.00012991,0.0017868,0.044688,-0.0096607,-0.0059915,0.016905,0.00067553,0.0092911,0,0,0,0.026269,0.0059348,0.0040917,0.011088,0.012098,0.021324,4.929e-07,0.1,0.15,0.3
0.00642,0.0031698,0.0015329,0.026156,0.0029396,0.0044452,0.0022881,0.00018034,0.0014904,0.047882,-0.012482,-0.0085671,0.011898,0.00093778,0.00775,0,0,0,0.026517,0.0043472,0.0026771,0.01192,0.01118,0.023057,6.2136e-07,0.15,0.15,0.3
0.0088752,0.0038831,0.0019452,0.026389,0.0019008,0.0031588,0.001414,0.00021453,0.0011409,0.049742,-0.013927,-0.010656,0.0073527,0.0011155,0.0059328,0,0,0,0.026547,0.0031266,0.0017744,0.012386,0.010483,0.024129,7.1464e-07,0.2,0.15,0.3
0.011394,0.0043996,0.0022847,0.026375,0.0012618,0.0021738,0.00074219,0.00022825,0.00079217,0.050688,-0.014605,-0.012234,0.0038594,0.0011869,0.0041193,0,0,0,0.026434,0.0022046,0.0011716,0.012631,0.0099368,0.024764,7.7556e-07,0.25,0.15,0.3
0.013944,0.0047515,0.0025513,0.026259,0.00084965,0.001453,0.00026251,0.00021957,0.00048242,0.051137,-0.014928,-0.013359,0.0013651,0.0011417,0.0025086,0,0,0,0.026277,0.0015268,0.00075786,0.01276,0.0095206,0.025144,8.1398e-07,0.3,0.15,0.3
0.016508,0.0049731,0.0027512,0.026123,0.00055912,0.00094464,-6.7548e-05,0.0001888,0.0002311,0.051344,-0.015123,-0.01412,-0.00035125,0.00098177,0.0012017,0,0,0,0.026128,0.0010305,0.00046813,0.01283,0.009209,0.025384,8.3875e-07,0.35,0.15,0.3
0.019078,0.0050959,0.0028948,0.026005,0.00032608,0.00059541,-0.0002816,0.0001387,4.3694e-05,0.051458,-0.015308,-0.014608,-0.0014643,0.00072123,0.00022721,0,0,0,0.02601,0.00066066,0.00025647,0.012877,0.0089756,0.025554,8.5637e-07,0.4,0.15,0.3
0.021654,0.0051486,0.0029937,0.025918,0.0001172,0.00035946,-0.00039809,7.5147e-05,-8.1946e-05,0.051551,-0.015532,-0.014902,-0.0020701,0.00039076,-0.00042612,0,0,0,0.025925,0.00038909,8.075e-05,0.012922,0.0087984,0.025692,8.7067e-07,0.45,0.15,0.3
0.024234,0.0051586,0.0030599,0.025862,-7.3767e-05,0.0002008,-0.00042636,7.7013e-06,-0.00015175,0.051648,-0.015785,-0.015071,-0.0022171,4.0047e-05,-0.00078911,0,0,0,0.02587,0.00020953,-9.0566e-05,0.01298,0.008663,0.025812,8.8295e-07,0.5,0.15,0.3
0.026818,0.0051506,0.0031048,0.025826,-0.00023096,9.3441e-05,-0.00037677,-5.1301e-05,-0.00017443,0.051735,-0.016014,-0.01517,-0.0019592,-0.00026676,-0.00090704,0,0,0,0.025833,0.00010557,-0.00024995,0.013042,0.0085629,0.025908,8.9257e-07,0.55,0.15,0.3
0.029407,0.0051455,0.0031378,0.025799,-0.00032827,1.9852e-05,-0.000269,-8.958e-05,-0.00016162,0.051783,-0.016148,-0.015243,-0.0013988,-0.00046582,-0.00084042,0,0,0,0.025803,4.4413e-05,-0.000357,0.01308,0.0084969,0.025962,8.9805e-07,0.6,0.15,0.3
0.031997,0.0051572,0.0031658,0.025771,-0.00034683,-3.1872e-05,-0.00013365,-9.9117e-05,-0.00012731,0.051768,-0.016137,-0.015318,-0.00069498,-0.00051541,-0.00066199,0,0,0,0.025772,-5.2514e-07,-0.00037992,0.013076,0.008464,0.025965,8.9839e-07,0.65,0.15,0.3
0.034584,0.0051909,0.0031929,0.025737,-0.00028934,-7.0923e-05,-5.2558e-06,-7.9469e-05,-8.5617e-05,0.05169,-0.015978,-0.01541,-2.733e-05,-0.00041324,-0.00044521,0,0,0,0.025737,-4.1507e-05,-0.00031938,0.013028,0.0084588,0.025919,8.9394e-07,0.7,0.15,0.3
0.037166,0.0052438,0.0032201,0.0257,-0.00018096,-0.00010461,8.8758e-05,-3.7797e-05,-4.778e-05,0.051571,-0.015719,-0.01552,0.00046154,-0.00019654,-0.00024846,0,0,0,0.0257,-6.3937e-05,-0.00022221,0.012961,0.0084714,0.025844,8.8644e-07,0.75,0.15,0.3
0.039741,0.0053071,0.0032465,0.025665,-5.6825e-05,-0.00013719,0.00013586,1.4423e-05,-2.0093e-05,0.051447,-0.01543,-0.015639,0.00070646,7.4999e-05,-0.00010449,0,0,0,0.025666,-2.5196e-05,-0.00016963,0.012918,0.0084904,0.025764,8.7823e-07,0.8,0.15,0.3
0.04231,0.00537,0.0032701,0.025638,5.3168e-05,-0.00016897,0.00013849,6.5616e-05,-3.9438e-06,0.051345,-0.015175,-0.015753,0.00072017,0.0003412,-2.0508e-05,0,0,0,0.025639,7.2312e-05,-0.00018891,0.012914,0.0085074,0.025698,8.7129e-07,0.85,0.15,0.3
0.044875,0.0054224,0.0032887,0.02562,0.00013281,-0.00019681,0.00010818,0.00010698,2.5935e-06,0.051279,-0.014988,-0.015846,0.00056253,0.00055632,1.3486e-05,0,0,0,0.025621,0.00016657,-0.00023108,0.012926,0.0085188,0.025656,8.6657e-07,0.9,0.15,0.3
0.047438,0.0054568,0.0033006,0.025611,0.0001787,-0.00021611,7.014e-05,0.00013333,6.8018e-06,0.051245,-0.01488,-0.015906,0.00036473,0.00069332,3.5369e-05,0,0,0,0.025612,0.00022234,-0.00025997,0.012936,0.0085247,0.025634,8.6405e-07,0.95,0.15,0.3
0.048719,0.0054687,0.0033046,0.025609,0.00019341,-0.00022303,5.3738e-05,0.00014232,9.7623e-06,0.051235,-0.014845,-0.015927,0.00027944,0.00074005,5.0764e-05,0,0,0,0.025609,0.00024049,-0.00027023,0.01294,0.0085264,0.025628,8.6329e-07,1,0.15,0.3
0.00092315,0.00047542,0.00027555,0.024622,0.0091606,0.0093451,0.0035614,4.2213e-05,0.0020831,0.038142,-0.0020594,-0.0015797,0.018519,0.00021951,0.010832,0,0,0,0.025687,0.0092862,0.0081553,0.0087657,0.014376,0.016996,2.5133e-07,0,0.2,0.3
0.0019071,0.00093868,0.0005464,0.024757,0.0078591,0.0082205,0.0033885,8.0486e-05,0.002015,0.039867,-0.0040685,-0.0031288,0.01762,0.00041853,0.010478,0,0,0,0.025678,0.0081236,0.0070356,0.009321,0.013612,0.018126,3.0971e-07,0.05,0.2,0.3
0.0039867,0.0018232,0.0010717,0.025326,0.0055717,0.0062191,0.0029107,0.00014975,0.0018183,0.043577,-0.0077833,-0.0061003,0.015136,0.0007787,0.0094554,0,0,0,0.02595,0.0060906,0.0050754,0.010437,0.012372,0.020391,4.3998e-07,0.1,0.2,0.3
0.0062647,0.0025966,0.0015519,0.026043,0.0038646,0.0046152,0.0022443,0.00020424,0.0015186,0.046999,-0.010666,-0.0087144,0.01167,0.0010621,0.007897,0,0,0,0.026403,0.0045344,0.0035861,0.011408,0.011508,0.022362,5.7557e-07,0.15,0.2,0.3
0.0086866,0.0032213,0.001967,0.026459,0.0026581,0.003322,0.0015465,0.00024184,0.0011632,0.04933,-0.012553,-0.010826,0.0080418,0.0012575,0.0060487,0,0,0,0.026636,0.0033318,0.0024714,0.012082,0.010813,0.023749,6.8704e-07,0.2,0.2,0.3
0.011198,0.0036905,0.0023071,0.026607,0.0018468,0.0023315,0.0009342,0.00025859,0.00080611,0.050706,-0.013669,-0.012409,0.0048579,0.0013447,0.0041918,0,0,0,0.02668,0.0024291,0.001676,0.012502,0.010262,0.024637,7.6647e-07,0.25,0.2,0.3
0.013757,0.0040173,0.0025715,0.026575,0.0012914,0.0016004,0.00044485,0.0002508,0.00048622,0.051415,-0.014322,-0.013519,0.0023132,0.0013042,0.0025284,0,0,0,0.026599,0.0017529,0.001115,0.012742,0.0098222,0.025171,8.1761e-07,0.3,0.2,0.3
0.016339,0.0042233,0.0027665,0.026454,0.00088244,0.0010774,7.3016e-05,0.00021596,0.00022365,0.051732,-0.014754,-0.014247,0.00037968,0.001123,0.001163,0,0,0,0.02646,0.0012338,0.00072028,0.01287,0.0094713,0.025487,8.4923e-07,0.35,0.2,0.3
0.01893,0.0043323,0.0029025,0.026308,0.00054148,0.00071104,-0.00019422,0.00015408,2.5302e-05,0.051864,-0.015128,-0.014687,-0.0010099,0.00080121,0.00013157,0,0,0,0.026311,0.00081716,0.00043206,0.01294,0.0091868,0.025689,8.7004e-07,0.4,0.2,0.3
0.021526,0.00437,0.0029918,0.026173,0.00022235,0.0004558,-0.00036125,7.0171e-05,-0.00010838,0.051939,-0.015533,-0.014926,-0.0018785,0.00036489,-0.00056355,0,0,0,0.026179,0.00049661,0.00017536,0.013002,0.0089504,0.025845,8.8621e-07,0.45,0.2,0.3
0.024124,0.0043635,0.003048,0.026065,-8.2453e-05,0.00027605,-0.00042548,-2.3486e-05,-0.00018013,0.052014,-0.01597,-0.015037,-0.0022125,-0.00012213,-0.00093667,0,0,0,0.026073,0.00029055,-0.00010534,0.013089,0.0087529,0.025983,9.0024e-07,0.5,0.2,0.3
0.026727,0.0043409,0.0030842,0.025983,-0.00034254,0.00014775,-0.00038926,-0.00010786,-0.00019645,0.052083,-0.016364,-0.015089,-0.0020242,-0.00056086,-0.0010215,0,0,0,0.025991,0.00017587,-0.00037814,0.013184,0.0085961,0.026097,9.1132e-07,0.55,0.2,0.3
0.029333,0.0043272,0.0031118,0.025918,-0.00050763,5.7079e-05,-0.00027258,-0.00016194,-0.00016963,0.052107,-0.0166,-0.015132,-0.0014174,-0.0008421,-0.00088208,0,0,0,0.025923,0.00010474,-0.00055971,0.013241,0.0084892,0.026157,9.1703e-07,0.6,0.2,0.3
0.031938,0.0043396,0.0031393,0.025861,-0.00053998,-4.7343e-06,-0.00011613,-0.00017104,-0.00011794,0.052049,-0.016594,-0.015202,-0.00060389,-0.00088941,-0.0006133,0,0,0,0.025863,4.9369e-05,-0.00059575,0.013229,0.0084388,0.026143,9.1562e-07,0.65,0.2,0.3
0.034538,0.0043833,0.0031707,0.025809,-0.00044355,-4.7052e-05,3.0815e-05,-0.00013441,-6.1554e-05,0.051912,-0.016344,-0.015313,0.00016024,-0.00069894,-0.00032008,0,0,0,0.02581,-2.6794e-06,-0.00048857,0.013149,0.0084395,0.026059,9.0767e-07,0.7,0.2,0.3
0.037129,0.0044522,0.0032057,0.025765,-0.00026521,-8.0631e-05,0.00013064,-6.5381e-05,-1.6047e-05,0.051737,-0.015941,-0.015461,0.0006793,-0.00033998,-8.3443e-05,0,0,0,0.025766,-4.184e-05,-0.00030488,0.013035,0.008473,0.025941,8.9613e-07,0.75,0.2,0.3
0.039711,0.0045333,0.0032414,0.025735,-6.8233e-05,-0.00011357,0.00017016,1.6174e-05,1.151e-05,0.051579,-0.015509,-0.015627,0.00088482,8.4106e-05,5.9851e-05,0,0,0,0.025736,-4.0426e-06,-0.00017897,0.012958,0.0085177,0.025828,8.8477e-07,0.8,0.2,0.3
0.042287,0.0046115,0.0032738,0.025722,9.7511e-05,-0.00014789,0.00015866,9.2011e-05,2.1839e-05,0.051473,-0.015149,-0.015787,0.00082505,0.00047846,0.00011356,0,0,0,0.025723,0.00012975,-0.00018118,0.012952,0.0085571,0.02575,8.764e-07,0.85,0.2,0.3
0.044859,0.0046748,0.0032993,0.025722,0.00021016,-0.00017973,0.00011596,0.00015028,1.9913e-05,0.051425,-0.014905,-0.015919,0.00060298,0.00078144,0.00010355,0,0,0,0.025722,0.00026444,-0.00023463,0.012978,0.0085841,0.025711,8.7179e-07,0.9,0.2,0.3
0.047429,0.0047154,0.0033156,0.025727,0.00027115,-0.00020252,7.3423e-05,0.00018587,1.6704e-05,0.051413,-0.014773,-0.016004,0.0003818,0.00096655,8.6862e-05,0,0,0,0.025728,0.00033953,-0.00027117,0.012999,0.0085986,0.025699,8.7001e-07,0.95,0.2,0.3
0.048715,0.0047293,0.0033211,0.02573,0.00028993,-0.0002108,5.7367e-05,0.00019773,1.6768e-05,0.051413,-0.014732,-0.016034,0.00029831,0.0010282,8.7196e-05,0,0,0,0.02573,0.00036309,-0.00028411,0.013007,0.0086031,0.025697,8.6964e-07,1,0.2,0.3
0.00091674,0.00038353,0.00028102,0.024483,0.0092858,0.0093228,0.0028964,4.5816e-05,0.0021262,0.0378,-0.0017115,-0.0016154,0.015061,0.00023824,0.011056,0,0,0,0.025316,0.0092831,0.0084921,0.0084119,0.014364,0.016444,2.2906e-07,0,0.25,0.3
0.00189,0.00075635,0.00055674,0.024635,0.0081635,0.0082409,0.0027895,8.6719e-05,0.0020583,0.039427,-0.0033983,-0.003197,0.014505,0.00045094,0.010703,0,0,0,0.025369,0.0081764,0.0074936,0.0089378,0.01368,0.017546,2.8291e-07,0.05,0.25,0.3
0.0039427,0.0014703,0.0010906,0.025234,0.0061595,0.0063046,0.0024838,0.00016006,0.001861,0.042989,-0.006604,-0.0062267,0.012916,0.0008323,0.0096773,0,0,0,0.025759,0.0062341,0.0057045,0.010027,0.012566,0.019797,4.0579e-07,0.1,0.25,0.3
0.0061889,0.0021032,0.0015773,0.026001,0.0045634,0.0047265,0.0020339,0.00021762,0.0015591,0.046427,-0.0093095,-0.0088853,0.010576,0.0011316,0.0081075,0,0,0,0.026327,0.0047351,0.0042285,0.011049,0.011764,0.021851,5.406e-07,0.15,0.25,0.3
0.0085854,0.0026279,0.0019967,0.026501,0.0033184,0.0034331,0.0015246,0.00025937,0.0011995,0.04895,-0.011323,-0.011025,0.0079281,0.0013487,0.0062376,0,0,0,0.026678,0.0035677,0.0030067,0.011836,0.011084,0.023396,6.5963e-07,0.2,0.25,0.3
0.011084,0.0030326,0.0023383,0.026739,0.0024075,0.0024362,0.0010323,0.00028165,0.00083539,0.050571,-0.01269,-0.012615,0.0053679,0.0014646,0.004344,0,0,0,0.026821,0.0026836,0.0020779,0.012372,0.010528,0.024446,7.5017e-07,0.25,0.25,0.3
0.013643,0.0033193,0.0026008,0.026769,0.0017482,0.0017001,0.0005974,0.00027865,0.00050511,0.051469,-0.013585,-0.01371,0.0031065,0.001449,0.0026266,0,0,0,0.0268,0.0020095,0.001408,0.012696,0.010072,0.025097,8.1074e-07,0.3,0.25,0.3
0.016231,0.0034977,0.0027902,0.026666,0.0012433,0.0011725,0.00023092,0.00024332,0.00022861,0.051882,-0.014216,-0.0144,0.0012008,0.0012653,0.0011887,0,0,0,0.026674,0.0014681,0.00093939,0.012867,0.0096939,0.025475,8.4796e-07,0.35,0.25,0.3
0.018831,0.003583,0.0029163,0.0265,0.00080517,0.00080036,-6.3985e-05,0.00016995,1.4088e-05,0.052037,-0.01477,-0.014783,-0.00033272,0.00088372,7.326e-05,0,0,0,0.026503,0.00099456,0.00060829,0.012947,0.0093686,0.025704,8.7154e-07,0.4,0.25,0.3
0.021435,0.0035954,0.0029924,0.026325,0.0003713,0.00053481,-0.00027521,5.9906e-05,-0.00013401,0.052106,-0.015373,-0.014948,-0.0014311,0.00031151,-0.00069686,0,0,0,0.026329,0.00060773,0.00029359,0.013018,0.0090769,0.02588,8.8985e-07,0.45,0.25,0.3
0.024041,0.0035616,0.0030337,0.026169,-6.9508e-05,0.00033838,-0.0003809,-7.1852e-05,-0.0002129,0.052177,-0.016044,-0.014983,-0.0019807,-0.00037363,-0.0011071,0,0,0,0.026177,0.00037102,-0.00010977,0.013143,0.0088127,0.02605,9.067e-07,0.5,0.25,0.3
0.026652,0.0035143,0.0030564,0.026045,-0.00046335,0.00018989,-0.00036705,-0.00019577,-0.00022454,0.052254,-0.016668,-0.014969,-0.0019087,-0.001018,-0.0011676,0,0,0,0.026052,0.0002519,-0.00053265,0.013292,0.0085904,0.026203,9.2082e-07,0.55,0.25,0.3
0.029267,0.0034855,0.0030758,0.025949,-0.00071961,8.2071e-05,-0.00024954,-0.0002753,-0.00018093,0.052281,-0.017058,-0.014974,-0.0012976,-0.0014315,-0.00094085,0,0,0,0.025953,0.00017532,-0.00081709,0.013385,0.0084372,0.026289,9.2837e-07,0.6,0.25,0.3
0.03188,0.0034978,0.0031026,0.025876,-0.00076965,1.2681e-05,-7.9602e-05,-0.00028303,-0.00010675,0.052205,-0.017072,-0.015038,-0.00041393,-0.0014718,-0.00055508,0,0,0,0.025877,0.00011163,-0.00087006,0.013374,0.0083729,0.026271,9.2652e-07,0.65,0.25,0.3
0.034487,0.0035565,0.0031409,0.025823,-0.00061835,-2.7609e-05,7.6103e-05,-0.00021783,-3.2085e-05,0.052033,-0.016714,-0.015178,0.00039574,-0.0011327,-0.00016684,0,0,0,0.025823,4.9441e-05,-0.00069617,0.01326,0.0083922,0.026156,9.1616e-07,0.7,0.25,0.3
0.037084,0.0036497,0.0031881,0.025795,-0.00034571,-5.5982e-05,0.00016847,-0.00010496,2.0957e-05,0.05183,-0.016135,-0.015381,0.00087605,-0.0005458,0.00010898,0,0,0,0.025796,-2.0868e-06,-0.00040089,0.013098,0.0084643,0.026001,9.0177e-07,0.75,0.25,0.3
0.03967,0.0037562,0.0032378,0.025795,-5.8819e-05,-8.6992e-05,0.00018642,2.0573e-05,4.5389e-05,0.051677,-0.015542,-0.015616,0.00096938,0.00010698,0.00023602,0,0,0,0.025796,4.3609e-05,-0.00019092,0.012994,0.0085497,0.025871,8.8901e-07,0.8,0.25,0.3
0.042251,0.0038551,0.003283,0.02582,0.00016435,-0.00012528,0.00015205,0.00012993,4.6281e-05,0.051617,-0.015088,-0.015841,0.00079064,0.00067562,0.00024066,0,0,0,0.025821,0.00021711,-0.00017913,0.013,0.0086198,0.025805,8.8167e-07,0.85,0.25,0.3
0.044832,0.0039319,0.0033182,0.025859,0.00030141,-0.00016447,9.7856e-05,0.00020811,3.3894e-05,0.051635,-0.014814,-0.016025,0.00050885,0.0010822,0.00017625,0,0,0,0.025859,0.00038594,-0.00024953,0.013054,0.0086652,0.025797,8.7986e-07,0.9,0.25,0.3
0.047415,0.0039795,0.0033402,0.025893,0.00036825,-0.00019355,6.1041e-05,0.00025279,2.4355e-05,0.051681,-0.014683,-0.016144,0.00031742,0.0013145,0.00012665,0,0,0,0.025893,0.00047161,-0.00029712,0.013095,0.0086892,0.025815,8.8088e-07,0.95,0.25,0.3
0.048707,0.0039955,0.0033476,0.025906,0.00038733,-0.00020421,5.244e-05,0.00026706,2.294e-05,0.051703,-0.014647,-0.016185,0.00027269,0.0013887,0.00011929,0,0,0,0.025907,0.00049678,-0.00031381,0.01311,0.0086965,0.025825,8.8164e-07,1,0.25,0.3
0.00091658,0.00030427,0.00028725,0.024493,0.0093923,0.009339,0.0023101,4.6788e-05,0.0021754,0.037747,-0.0015145,-0.0016531,0.012012,0.0002433,0.011312,0,0,0,0.025156,0.009336,0.0087322,0.0082118,0.014408,0.016131,2.1684e-07,0,0.3,0.3
0.0018873,0.00059885,0.00056849,0.024651,0.0083729,0.0082728,0.0022434,8.8378e-05,0.002108,0.039314,-0.0030083,-0.0032686,0.011666,0.00045957,0.010962,0,0,0,0.025241,0.0082831,0.0077721,0.0087345,0.013765,0.01722,2.6802e-07,0.05,0.3,0.3
0.0039314,0.0011628,0.0011122,0.02526,0.0065467,0.0063622,0.0020498,0.00016314,0.0019117,0.042774,-0.0058796,-0.0063594,0.010659,0.00084833,0.009941,0,0,0,0.025695,0.0064387,0.0060344,0.0098305,0.012723,0.019463,3.8619e-07,0.1,0.3,0.3
0.0061647,0.0016656,0.0016064,0.026048,0.0050535,0.0047979,0.0017593,0.00022339,0.001611,0.046186,-0.0084008,-0.0090652,0.0091482,0.0011616,0.0083773,0,0,0,0.026334,0.0050072,0.0045588,0.010887,0.011967,0.021555,5.1953e-07,0.15,0.3,0.3
0.00855,0.002089,0.0020312,0.026592,0.0038261,0.0035075,0.0014177,0.00027101,0.0012523,0.048785,-0.010408,-0.011236,0.0073722,0.0014093,0.0065121,0,0,0,0.02676,0.003869,0.0032967,0.011732,0.011309,0.023184,6.4204e-07,0.2,0.3,0.3
0.011043,0.0024215,0.0023755,0.02688,0.0028784,0.0025091,0.001065,0.00030281,0.00088694,0.050528,-0.011877,-0.012837,0.0055379,0.0015746,0.0046121,0,0,0,0.026968,0.0029903,0.0023097,0.012329,0.010756,0.024326,7.3882e-07,0.25,0.3,0.3
0.013603,0.0026588,0.0026372,0.026943,0.0021642,0.001773,0.00072503,0.00031074,0.00055115,0.051524,-0.012901,-0.013918,0.0037702,0.0016159,0.002866,0,0,0,0.026982,0.0023118,0.0015864,0.012698,0.010293,0.025042,8.0467e-07,0.3,0.3,0.3
0.016196,0.0028017,0.0028209,0.026839,0.0016013,0.0012477,0.00040592,0.0002816,0.00026259,0.051968,-0.013649,-0.014569,0.0021108,0.0014643,0.0013655,0,0,0,0.026852,0.0017523,0.001083,0.012885,0.0098958,0.025442,8.4383e-07,0.35,0.3,0.3
0.0188,0.0028553,0.0029355,0.026633,0.0010936,0.00087607,0.00011483,0.00019897,2.8844e-05,0.052084,-0.014318,-0.014884,0.00059714,0.0010347,0.00014999,0,0,0,0.026637,0.0012211,0.00074453,0.012946,0.0095341,0.025658,8.6637e-07,0.4,0.3,0.3
0.021404,0.0028327,0.0029939,0.026388,0.00055935,0.00060419,-0.00012452,5.3957e-05,-0.00014069,0.052078,-0.015077,-0.01496,-0.00064749,0.00028058,-0.00073159,0,0,0,0.026392,0.00075164,0.00040837,0.012992,0.0091839,0.025814,8.8286e-07,0.45,0.3,0.3
0.024007,0.0027592,0.0030138,0.026151,-2.4911e-05,0.00038925,-0.0002724,-0.00013477,-0.00023358,0.052084,-0.015974,-0.014897,-0.0014165,-0.00070082,-0.0012146,0,0,0,0.026157,0.00046712,-0.00010867,0.013133,0.0088385,0.025984,8.9913e-07,0.5,0.3,0.3
0.026612,0.0026742,0.0030164,0.025951,-0.00057735,0.00021333,-0.00029594,-0.00031912,-0.00024599,0.05212,-0.016853,-0.014797,-0.0015389,-0.0016594,-0.0012791,0,0,0,0.025957,0.00033873,-0.00070884,0.013333,0.0085289,0.02616,9.1385e-07,0.55,0.3,0.3
0.029219,0.0026215,0.0030231,0.025807,-0.00094357,8.3624e-05,-0.00020109,-0.00043889,-0.00018973,0.05213,-0.017421,-0.014751,-0.0010457,-0.0022822,-0.0009866,0,0,0,0.025811,0.00025882,-0.0011224,0.013466,0.0083157,0.026271,9.2211e-07,0.6,0.3,0.3
0.031825,0.0026323,0.0030493,0.025728,-0.0010143,8.4847e-06,-4.4607e-05,-0.00044511,-9.5881e-05,0.052059,-0.01747,-0.014811,-0.00023196,-0.0023146,-0.00049858,0,0,0,0.025729,0.00018762,-0.0011946,0.013462,0.0082406,0.026261,9.2103e-07,0.65,0.3,0.3
0.034425,0.0027119,0.003099,0.025713,-0.00079443,-2.1251e-05,9.3806e-05,-0.00033611,-6.2359e-06,0.051915,-0.017004,-0.014994,0.00048779,-0.0017478,-3.2427e-05,0,0,0,0.025714,0.00011448,-0.00093095,0.013322,0.0082991,0.02614,9.117e-07,0.7,0.3,0.3
0.037017,0.0028388,0.0031655,0.025756,-0.00040549,-3.2955e-05,0.00015782,-0.00015756,5.0552e-05,0.051776,-0.016245,-0.015276,0.00082065,-0.00081929,0.00026287,0,0,0,0.025758,5.7536e-05,-0.00049727,0.013127,0.0084393,0.025984,8.9907e-07,0.75,0.3,0.3
0.039603,0.002979,0.0032363,0.025844,-2.1061e-05,-5.541e-05,0.0001431,3.2556e-05,6.7298e-05,0.051734,-0.015515,-0.015604,0.00074411,0.00016929,0.00034995,0,0,0,0.025845,0.00012346,-0.00020122,0.013023,0.0085891,0.025886,8.9023e-07,0.8,0.3,0.3
0.04219,0.0031027,0.0032994,0.025957,0.00024896,-9.6632e-05,8.6454e-05,0.00018652,5.4586e-05,0.051823,-0.015018,-0.015917,0.00044956,0.00096992,0.00028385,0,0,0,0.025958,0.00033634,-0.00018483,0.013071,0.0087032,0.025887,8.895e-07,0.85,0.3,0.3
0.044785,0.0031934,0.003347,0.026071,0.0003929,-0.00014475,3.2474e-05,0.00028499,3.2205e-05,0.051993,-0.01477,-0.016168,0.00016886,0.0014819,0.00016746,0,0,0,0.026071,0.00052414,-0.00027638,0.013174,0.008773,0.025957,8.9535e-07,0.9,0.3,0.3
0.047389,0.003247,0.003376,0.026155,0.00044993,-0.00018269,2.1729e-05,0.00033533,2.2693e-05,0.052149,-0.014683,-0.016328,0.00011299,0.0017437,0.000118,0,0,0,0.026155,0.00060413,-0.00033709,0.013246,0.0088073,0.026034,9.0241e-07,0.95,0.3,0.3
0.048694,0.0032646,0.0033856,0.026185,0.00046306,-0.00019703,3.2317e-05,0.00035035,2.4267e-05,0.052211,-0.014667,-0.016383,0.00016805,0.0018218,0.00012619,0,0,0,0.026185,0.00062419,-0.00035832,0.013272,0.0088171,0.026066,9.0547e-07,1,0.3,0.3
0.00092028,0.00023208,0.0002937,0.024598,0.0094878,0.0093806,0.0017709,4.5469e-05,0.0022267,0.037875,-0.0014117,-0.0016903,0.0092086,0.00023644,0.011579,0,0,0,0.025138,0.0094273,0.0089017,0.0081179,0.014489,0.01598,2.1103e-07,0,0.35,0.3
0.0018938,0.00045552,0.00058067,0.02476,0.0085225,0.0083151,0.0017329,8.5926e-05,0.0021608,0.039418,-0.0028002,-0.0033395,0.0090109,0.00044682,0.011236,0,0,0,0.025243,0.0084278,0.0079268,0.0086582,0.013866,0.017072,2.6124e-07,0.05,0.35,0.3
0.0039418,0.0008823,0.0011347,0.02538,0.0067969,0.0064077,0.0016217,0.00015939,0.0019683,0.042838,-0.0054789,-0.0064909,0.0084329,0.00082882,0.010235,0,0,0,0.025743,0.0066784,0.0061629,0.0097903,0.012862,0.019329,3.78e-07,0.1,0.35,0.3
0.0061775,0.0012631,0.0016372,0.026191,0.005375,0.0048477,0.0014567,0.00022144,0.0016742,0.046249,-0.0078734,-0.0092444,0.0075748,0.0011515,0.0087056,0,0,0,0.026439,0.0053001,0.0046753,0.010882,0.012138,0.021459,5.1206e-07,0.15,0.35,0.3
0.0085667,0.0015871,0.0020684,0.026772,0.0041757,0.0035601,0.0012629,0.0002761,0.0013246,0.048903,-0.0098481,-0.011449,0.0065671,0.0014357,0.0068881,0,0,0,0.026928,0.0041692,0.0034106,0.011759,0.011503,0.023149,6.3837e-07,0.2,0.35,0.3
0.011068,0.001845,0.0024171,0.0271,0.0032234,0.0025649,0.0010552,0.00032147,0.00096901,0.050727,-0.011352,-0.013064,0.0054873,0.0016716,0.0050389,0,0,0,0.027192,0.0032818,0.0024151,0.012388,0.010963,0.024355,7.4048e-07,0.25,0.35,0.3
0.013639,0.0020291,0.0026799,0.027187,0.0024933,0.0018364,0.00083842,0.00034807,0.00064014,0.051776,-0.012427,-0.014135,0.0043598,0.00181,0.0033287,0,0,0,0.027236,0.0026008,0.0016792,0.012779,0.010505,0.02511,8.0993e-07,0.3,0.35,0.3
0.016245,0.0021328,0.0028592,0.027071,0.0019129,0.0013233,0.0006069,0.00033488,0.00035016,0.0522,-0.013211,-0.014744,0.0031559,0.0017414,0.0018208,0,0,0,0.027095,0.002043,0.001169,0.012963,0.010102,0.025501,8.4838e-07,0.35,0.35,0.3
0.018859,0.0021512,0.002961,0.0268,0.0013674,0.00095696,0.00036301,0.00024948,0.000103,0.052205,-0.013919,-0.014986,0.0018877,0.0012973,0.00053559,0,0,0,0.026811,0.0014782,0.00083554,0.012987,0.0097081,0.025661,8.6569e-07,0.4,0.35,0.3
0.021466,0.0020877,0.0029963,0.026417,0.00074579,0.00066586,0.00013952,6.0255e-05,-8.8445e-05,0.051987,-0.014758,-0.014966,0.00072551,0.00031333,-0.00045991,0,0,0,0.026423,0.00092466,0.00048105,0.012971,0.0092762,0.025724,8.7315e-07,0.45,0.35,0.3
0.024058,0.0019642,0.0029855,0.025983,2.768e-05,0.00041456,-8.3675e-06,-0.0002144,-0.0001985,0.051701,-0.015783,-0.014777,-4.351e-05,-0.0011149,-0.0010322,0,0,0,0.02599,0.00057707,-0.00014147,0.013066,0.0088085,0.025783,8.7721e-07,0.5,0.35,0.3
0.026636,0.001829,0.0029587,0.025596,-0.00064861,0.00020581,-7.0958e-05,-0.00048027,-0.0002162,0.051458,-0.016778,-0.014557,-0.00036898,-0.0024974,-0.0011242,0,0,0,0.025603,0.00044136,-0.00089083,0.013247,0.0083845,0.025857,8.7944e-07,0.55,0.35,0.3
0.029204,0.0017433,0.0029468,0.025345,-0.0010803,5.3197e-05,-8.5135e-05,-0.00063862,-0.00017341,0.051306,-0.017399,-0.014452,-0.0004427,-0.0033208,-0.00090174,0,0,0,0.025349,0.00036209,-0.001393,0.013371,0.008106,0.025911,8.8017e-07,0.6,0.35,0.3
0.031767,0.0017508,0.0029725,0.025268,-0.0011737,-2.6398e-05,-7.2111e-05,-0.00064387,-0.00010535,0.051256,-0.017492,-0.014509,-0.00037498,-0.0033481,-0.00054783,0,0,0,0.02527,0.00028337,-0.0014861,0.013378,0.0080226,0.025919,8.8074e-07,0.65,0.35,0.3
0.03433,0.0018561,0.00304,0.025367,-0.00093217,-4.2077e-05,-3.9822e-05,-0.00049382,-2.616e-05,0.051318,-0.017059,-0.014745,-0.00020707,-0.0025678,-0.00013603,0,0,0,0.02537,0.00019464,-0.0011724,0.013271,0.0081309,0.025891,8.823e-07,0.7,0.35,0.3
0.036899,0.0020252,0.0031357,0.02561,-0.00045991,-2.8697e-05,-1.1762e-05,-0.00022901,3.1447e-05,0.051512,-0.016268,-0.015147,-6.116e-05,-0.0011909,0.00016352,0,0,0,0.025613,0.00012472,-0.00061668,0.013115,0.0083737,0.025871,8.8587e-07,0.75,0.35,0.3
0.039481,0.0022047,0.0032377,0.025916,1.7685e-05,-2.0959e-05,-2.7217e-05,5.5406e-05,3.9524e-05,0.051834,-0.015502,-0.015602,-0.00014153,0.00028811,0.00020552,0,0,0,0.025918,0.00021942,-0.000225,0.013072,0.0086375,0.025925,8.938e-07,0.8,0.35,0.3
0.042082,0.0023533,0.0033255,0.026203,0.00032953,-4.8298e-05,-7.592e-05,0.00026476,1.5424e-05,0.052236,-0.015033,-0.016016,-0.00039478,0.0013767,8.0207e-05,0,0,0,0.026204,0.00047527,-0.00019583,0.0132,0.0088279,0.026073,9.081e-07,0.85,0.35,0.3
0.044704,0.0024549,0.0033882,0.026429,0.00046088,-0.00010619,-0.00010022,0.00037855,-7.1331e-06,0.052645,-0.014872,-0.016346,-0.00052116,0.0019685,-3.7092e-05,0,0,0,0.02643,0.0006621,-0.00030876,0.013369,0.0089278,0.026267,9.2694e-07,0.9,0.35,0.3
0.047346,0.0025112,0.0034244,0.026577,0.00048744,-0.00015889,-5.4165e-05,0.00042701,-7.9261e-08,0.052956,-0.014876,-0.016556,-0.00028166,0.0022204,-4.1212e-07,0,0,0,0.026577,0.00071307,-0.00038523,0.013481,0.0089684,0.026431,9.4345e-07,0.95,0.35,0.3
0.048672,0.0025289,0.0034362,0.026629,0.00048677,-0.00017909,-8.8761e-06,0.00043934,1.4239e-05,0.053073,-0.014896,-0.016627,-4.6156e-05,0.0022846,7.4044e-05,0,0,0,0.026629,0.00071883,-0.00041155,0.01352,0.0089788,0.026494,9.4998e-07,1,0.35,0.3
0.00092641,0.00016309,0.0002999,0.024765,0.0095726,0.0094385,0.0012523,4.162e-05,0.0022767,0.038123,-0.0013766,-0.0017254,0.0065118,0.00021642,0.011839,0,0,0,0.025217,0.0095319,0.0090266,0.0080954,0.014592,0.015945,2.0973e-07,0,0.4,0.3
0.0019061,0.00031883,0.0005924,0.024933,0.0086271,0.008365,0.0012365,7.8792e-05,0.0022133,0.039671,-0.0027245,-0.003406,0.0064298,0.00040972,0.011509,0,0,0,0.025339,0.0085664,0.0080196,0.0086598,0.013975,0.017054,2.604e-07,0.05,0.4,0.3
0.0039671,0.00061491,0.0011565,0.025574,0.006944,0.0064481,0.0011904,0.0001473,0.0020281,0.043113,-0.0053252,-0.0066146,0.0061903,0.00076596,0.010546,0,0,0,0.025883,0.006872,0.0062114,0.0098356,0.012989,0.01935,3.7893e-07,0.1,0.4,0.3
0.0062174,0.00087828,0.0016675,0.026423,0.0055586,0.0048873,0.0011282,0.0002087,0.0017469,0.046578,-0.0076688,-0.0094142,0.0058669,0.0010853,0.0090839,0,0,0,0.026639,0.0055147,0.0047152,0.010962,0.01229,0.021536,5.1707e-07,0.15,0.4,0.3
0.0086249,0.0011042,0.0021063,0.027056,0.0043767,0.0036034,0.0010646,0.00026932,0.0014172,0.049325,-0.0096426,-0.011653,0.005536,0.0014005,0.0073694,0,0,0,0.027201,0.0043757,0.0034599,0.011871,0.011679,0.023297,6.5021e-07,0.2,0.4,0.3
0.01115,0.0012863,0.0024613,0.027444,0.0034269,0.0026178,0.0010005,0.00032947,0.0010873,0.05126,-0.011183,-0.013287,0.0052026,0.0017133,0.0056541,0,0,0,0.027539,0.0034759,0.0024737,0.012533,0.011163,0.02458,7.606e-07,0.25,0.4,0.3
0.013751,0.0014161,0.0027281,0.027579,0.0027002,0.0019081,0.00092601,0.00038025,0.00078709,0.052392,-0.012292,-0.014351,0.0048153,0.0019773,0.0040928,0,0,0,0.027642,0.0028007,0.0017444,0.012949,0.010729,0.025386,8.3635e-07,0.3,0.4,0.3
0.016389,0.0014806,0.0029059,0.027482,0.0021382,0.0014265,0.00081816,0.00039268,0.00052087,0.052826,-0.013069,-0.014919,0.0042544,0.0020419,0.0027085,0,0,0,0.027524,0.0022748,0.0012477,0.013138,0.010349,0.025779,8.7568e-07,0.35,0.4,0.3
0.019033,0.0014634,0.0029951,0.027178,0.0015953,0.0010903,0.00066972,0.00030405,0.00028537,0.052744,-0.01377,-0.015083,0.0034826,0.0015811,0.0014839,0,0,0,0.027205,0.0017207,0.00093725,0.013134,0.0099544,0.025887,8.8841e-07,0.4,0.4,0.3
0.021664,0.0013569,0.0030005,0.026813,0.00089257,0.00077378,0.00054727,3.8466e-05,0.00011968,0.052252,-0.014641,-0.014973,0.002776,0.00022989,0.00058647,0,0,0,0.026837,0.0011216,0.00052156,0.013158,0.0094933,0.026022,9.2378e-07,0.45,0.4,0.3
0.024262,0.0011808,0.0029455,0.026597,4.3943e-05,0.00041091,0.0005224,-0.00035981,4.8342e-05,0.051182,-0.015546,-0.014657,0.0024441,-0.0017327,0.00014115,0,0,0,0.026625,0.00071193,-0.00028545,0.013455,0.0090173,0.026432,1.0154e-06,0.5,0.4,0.3
0.026796,0.00099634,0.0028773,0.026354,-0.00064567,0.00010672,0.00044139,-0.0006725,1.0717e-06,0.049715,-0.016125,-0.014231,0.0019272,-0.0032807,-0.00010749,0,0,0,0.02638,0.00053285,-0.0010974,0.013739,0.0086051,0.026704,1.0764e-06,0.55,0.4,0.3
0.029253,0.00088151,0.0028433,0.025982,-0.00097757,-4.9095e-05,0.00015279,-0.00078336,-8.6284e-05,0.048702,-0.016356,-0.013965,0.0006214,-0.0039069,-0.00046744,0,0,0,0.025994,0.00043755,-0.0014759,0.013735,0.0083186,0.026569,1.0598e-06,0.6,0.4,0.3
0.031675,0.0008831,0.0028689,0.02591,-0.0010998,-0.00013789,-0.00022009,-0.00078902,-0.00018867,0.048683,-0.016491,-0.01402,-0.0010039,-0.0039341,-0.00088336,0,0,0,0.025923,0.00034478,-0.0015945,0.013759,0.0082243,0.026605,1.0644e-06,0.65,0.4,0.3
0.03413,0.001006,0.0029584,0.026141,-0.0010116,-0.00016734,-0.0004624,-0.00068692,-0.00023531,0.049669,-0.016533,-0.014417,-0.0020701,-0.0033503,-0.0010491,0,0,0,0.026166,0.0002458,-0.0014496,0.013808,0.0083208,0.026814,1.0903e-06,0.7,0.4,0.3
0.036662,0.001212,0.0030957,0.026262,-0.0005606,-6.2838e-05,-0.00045918,-0.00037253,-0.00019601,0.051157,-0.016244,-0.015029,-0.0021384,-0.0017947,-0.00088343,0,0,0,0.026287,0.0002027,-0.00085054,0.013569,0.0085463,0.026633,1.0389e-06,0.75,0.4,0.3
0.039261,0.0014289,0.0032435,0.026391,2.7334e-05,6.3512e-05,-0.00036656,4.4303e-05,-0.0001358,0.052352,-0.015684,-0.015617,-0.0018429,0.00026129,-0.00066703,0,0,0,0.026405,0.00034589,-0.00026919,0.013337,0.0088273,0.026375,9.6191e-07,0.8,0.4,0.3
0.0419,0.0015993,0.0033639,0.026709,0.00039049,6.4562e-05,-0.00033665,0.00034224,-0.00012067,0.053145,-0.015283,-0.016131,-0.0017506,0.0017796,-0.0006275,0,0,0,0.026718,0.00062458,-0.00017826,0.013448,0.0090547,0.026505,9.5441e-07,0.85,0.4,0.3
0.044575,0.0017062,0.003443,0.02703,0.00047891,-2.4115e-05,-0.00029499,0.00047169,-0.00011428,0.053786,-0.015245,-0.016553,-0.001534,0.0024528,-0.00059426,0,0,0,0.027036,0.00077466,-0.00032592,0.013681,0.0091615,0.026828,9.8784e-07,0.9,0.4,0.3
0.047279,0.0017595,0.0034856,0.027228,0.0004508,-0.00010577,-0.00016262,0.0005081,-5.8522e-05,0.054249,-0.015372,-0.016819,-0.00084563,0.0026421,-0.00030432,0,0,0,0.027231,0.00076833,-0.00042606,0.013828,0.0091911,0.02708,1.0151e-06,0.95,0.4,0.3
0.048637,0.001775,0.0034988,0.027298,0.00043029,-0.00013588,-6.9297e-05,0.0005135,-1.4969e-05,0.054419,-0.015437,-0.016909,-0.00036034,0.0026702,-7.7836e-05,0,0,0,0.027299,0.0007515,-0.00045827,0.013879,0.0091974,0.027173,1.0255e-06,1,0.4,0.3
0.0009338,9.4413e-05,0.00030538,0.024963,0.0096442,0.0095041,0.00073276,3.4744e-05,0.0023215,0.038437,-0.0013917,-0.001756,0.0038104,0.00018067,0.012072,0,0,0,0.025361,0.0096258,0.0091244,0.0081183,0.014704,0.015992,2.1171e-07,0,0.45,0.3
0.0019218,0.00018307,0.00060278,0.02514,0.0086936,0.008418,0.00073444,6.593e-05,0.0022616,0.040014,-0.0027478,-0.0034643,0.0038191,0.00034284,0.01176,0,0,0,0.025497,0.0086673,0.0080872,0.0087051,0.014084,0.017128,2.6397e-07,0.05,0.45,0.3
0.0040014,0.00034978,0.0011759,0.025814,0.0070088,0.0064853,0.00073986,0.00012445,0.0020866,0.043531,-0.0053618,-0.006723,0.0038473,0.00064712,0.010851,0,0,0,0.026086,0.0069799,0.0062421,0.0099219,0.013103,0.019486,3.8703e-07,0.1,0.45,0.3
0.006275,0.00049626,0.001695,0.02672,0.0056281,0.0049222,0.00076027,0.00018048,0.0018244,0.047109,-0.007729,-0.0095642,0.0039534,0.00093849,0.0094867,0,0,0,0.026913,0.0056144,0.0047426,0.011085,0.012423,0.021749,5.3266e-07,0.15,0.45,0.3
0.0087123,0.00062285,0.002142,0.027433,0.0044448,0.0036452,0.00080526,0.00024218,0.0015249,0.050012,-0.0097573,-0.011836,0.0041874,0.0012593,0.0079294,0,0,0,0.027568,0.0044565,0.0034987,0.012035,0.011841,0.023606,6.7681e-07,0.2,0.45,0.3
0.011276,0.00072666,0.0025052,0.027923,0.0034906,0.0026783,0.00087006,0.00031226,0.0012382,0.052144,-0.011379,-0.013491,0.0045243,0.0016237,0.0064386,0,0,0,0.02802,0.0035405,0.0025309,0.012745,0.011364,0.025,8.0123e-07,0.25,0.45,0.3
0.013927,0.00079998,0.0027794,0.028169,0.0027696,0.0020047,0.00093824,0.00038278,0.00099363,0.053474,-0.012565,-0.014554,0.0048789,0.0019905,0.0051669,0,0,0,0.028247,0.0028714,0.0018256,0.01321,0.010981,0.025914,8.9103e-07,0.3,0.45,0.3
0.016624,0.00082593,0.0029595,0.028176,0.0022521,0.001588,0.00097032,0.00041867,0.00078677,0.054048,-0.013354,-0.015081,0.0050457,0.0021771,0.0040912,0,0,0,0.028241,0.0023999,0.0013748,0.013433,0.010672,0.026369,9.3906e-07,0.35,0.45,0.3
0.019331,0.00077418,0.0030349,0.028142,0.0017781,0.0013263,0.00096429,0.00029477,0.00061261,0.054002,-0.014004,-0.015185,0.0049445,0.0015586,0.0031559,0,0,0,0.0282,0.001944,0.0011026,0.013549,0.010415,0.026688,1.0056e-06,0.4,0.45,0.3
0.022026,0.00062336,0.0029983,0.028527,0.0010662,0.00097793,0.0010112,-0.00010126,0.0005484,0.053145,-0.014748,-0.015041,0.0048529,-0.00033653,0.0026204,0,0,0,0.028589,0.0014191,0.00056292,0.014013,0.01019,0.027613,1.2247e-06,0.45,0.45,0.3
0.024664,0.00040708,0.0028858,0.029074,0.00011029,0.00037596,0.0010869,-0.00057177,0.00053489,0.050548,-0.015139,-0.01459,0.0047358,-0.0024557,0.0022965,0,0,0,0.029145,0.00089662,-0.00048182,0.014813,0.0098533,0.028969,1.5161e-06,0.5,0.45,0.3
0.027129,0.00020988,0.0027786,0.028896,-0.0005898,-0.00016529,0.00090136,-0.00077394,0.00035329,0.046629,-0.01478,-0.013796,0.0036945,-0.003362,0.001448,0,0,0,0.028951,0.00046234,-0.0012723,0.015112,0.0093803,0.029401,1.6081e-06,0.55,0.45,0.3
0.029379,9.9221e-05,0.0027336,0.028272,-0.00079102,-0.0003425,0.00034891,-0.00073218,2.5448e-05,0.043907,-0.014296,-0.013176,0.0013735,-0.0033095,0.00010162,0,0,0,0.028294,0.00024488,-0.0014005,0.014847,0.0090461,0.028917,1.5321e-06,0.6,0.45,0.3
0.03154,9.3172e-05,0.0027596,0.028207,-0.00093862,-0.00044461,-0.00032873,-0.00073772,-0.00031017,0.043919,-0.014446,-0.013232,-0.0013886,-0.0033334,-0.0012927,0,0,0,0.028231,0.00013192,-0.0015391,0.014885,0.0089411,0.028981,1.5426e-06,0.65,0.45,0.3
0.033792,0.00019618,0.0028608,0.028698,-0.0010402,-0.00048316,-0.00083916,-0.00078988,-0.00058956,0.046676,-0.015258,-0.013987,-0.0034986,-0.0034313,-0.0024558,0,0,0,0.028754,0.00011175,-0.0016911,0.015223,0.0090583,0.029592,1.6405e-06,0.7,0.45,0.3
0.036261,0.00039821,0.0030377,0.028772,-0.00062492,-0.00015835,-0.00095383,-0.00058795,-0.00066685,0.050686,-0.015992,-0.014977,-0.0041513,-0.0025262,-0.0028848,0,0,0,0.028837,0.00029955,-0.0011477,0.014992,0.0093295,0.029295,1.5677e-06,0.75,0.45,0.3
0.038909,0.00063603,0.003245,0.028186,6.5289e-05,0.00022439,-0.00079009,-9.3557e-05,-0.00052863,0.053503,-0.016036,-0.015711,-0.0037553,-0.00029057,-0.002502,0,0,0,0.028231,0.00057046,-0.0003256,0.014278,0.0094919,0.028124,1.2925e-06,0.8,0.45,0.3
0.041629,0.00082495,0.0034113,0.027824,0.00043902,0.00028339,-0.00063272,0.00034671,-0.00039491,0.054792,-0.015855,-0.016269,-0.0032304,0.0018297,-0.0020247,0,0,0,0.027851,0.0007933,-9.759e-05,0.013974,0.0095156,0.027516,1.1021e-06,0.85,0.45,0.3
0.044391,0.00093039,0.0035094,0.027953,0.00043374,0.00013134,-0.00049454,0.00052167,-0.00030676,0.055567,-0.015983,-0.016769,-0.0025716,0.0027127,-0.0015952,0,0,0,0.027969,0.0008349,-0.00028587,0.014127,0.009506,0.027712,1.0915e-06,0.9,0.45,0.3
0.047186,0.00097402,0.003556,0.028142,0.00032871,-7.1321e-06,-0.00027186,0.00054323,-0.00016032,0.056092,-0.016224,-0.017097,-0.0014137,0.0028248,-0.00083366,0,0,0,0.028149,0.00074774,-0.00043295,0.014291,0.009488,0.028011,1.1262e-06,0.95,0.45,0.3
0.048591,0.00098521,0.0035695,0.028208,0.00028699,-5.4029e-05,-0.00013112,0.00054113,-6.7159e-05,0.056276,-0.016318,-0.017205,-0.0006818,0.0028139,-0.00034923,0,0,0,0.028211,0.00070579,-0.00047542,0.014343,0.0094803,0.028114,1.1385e-06,1,0.45,0.3
0.0009413,2.3919e-05,0.00030963,0.025163,0.0096984,0.0095683,0.00019633,2.4498e-05,0.0023569,0.038765,-0.0014418,-0.00178,0.0010209,0.00012739,0.012256,0,0,0,0.025538,0.0096941,0.0091976,0.0081699,0.01481,0.016098,2.1605e-07,0,0.5,0.3
0.0019383,4.4047e-05,0.00061085,0.025351,0.0087253,0.0084681,0.00021105,4.6591e-05,0.0023008,0.040386,-0.0028409,-0.0035095,0.0010975,0.00024227,0.011964,0,0,0,0.025687,0.0087199,0.0081376,0.0087746,0.014181,0.017266,2.707e-07,0.05,0.5,0.3
0.0040386,7.8729e-05,0.0011911,0.026064,0.0070068,0.0065177,0.00025513,8.8939e-05,0.0021376,0.044014,-0.0055356,-0.0068073,0.0013267,0.00046248,0.011116,0,0,0,0.02632,0.0070029,0.0062661,0.010027,0.013196,0.019697,4.0017e-07,0.1,0.5,0.3
0.0063397,0.00010538,0.0017172,0.02704,0.0056048,0.0049527,0.00033677,0.00013268,0.0018974,0.047746,-0.0079861,-0.0096816,0.0017512,0.00068993,0.0098664,0,0,0,0.027222,0.0056086,0.0047669,0.011228,0.012533,0.022048,5.5575e-07,0.15,0.5,0.3
0.0088132,0.00012844,0.0021718,0.027854,0.0044019,0.0036858,0.00046147,0.00018644,0.0016343,0.050855,-0.01012,-0.011982,0.0023996,0.00096949,0.0084985,0,0,0,0.027983,0.0044202,0.0035383,0.012222,0.011981,0.024017,7.1425e-07,0.2,0.5,0.3
0.011425,0.00014837,0.002544,0.028486,0.0034328,0.0027469,0.00062163,0.00025456,0.0014019,0.053263,-0.011874,-0.013657,0.0032325,0.0013237,0.0072898,0,0,0,0.028584,0.0034802,0.0026009,0.012992,0.011555,0.025556,8.581e-07,0.25,0.5,0.3
0.01414,0.00015958,0.0028273,0.028925,0.0027172,0.0021283,0.00079927,0.00032844,0.0012302,0.054943,-0.013198,-0.014729,0.0041562,0.0017079,0.006397,0,0,0,0.029012,0.0028135,0.0019454,0.013533,0.011257,0.026644,9.7177e-07,0.3,0.5,0.3
0.016919,0.00014518,0.0030118,0.029184,0.0022721,0.001815,0.00094337,0.00036269,0.0010957,0.055916,-0.014055,-0.015244,0.0049056,0.001886,0.0056975,0,0,0,0.029267,0.0024176,0.0015866,0.01384,0.01109,0.027276,1.0442e-06,0.35,0.5,0.3
0.019731,6.2624e-05,0.0030663,0.029975,0.0019133,0.0015882,0.0010858,0.00016712,0.0010329,0.055862,-0.014538,-0.015368,0.0053898,0.00098896,0.0051506,0,0,0,0.030063,0.0021271,0.0012868,0.014388,0.011159,0.028367,1.2932e-06,0.4,0.5,0.3
0.022519,-0.00012061,0.0029721,0.031503,0.0012476,0.0010331,0.0012425,-0.00031418,0.0010495,0.053774,-0.014714,-0.015221,0.0055547,-0.001152,0.004712,0,0,0,0.031604,0.0016785,0.00050139,0.015551,0.011261,0.030536,1.8143e-06,0.45,0.5,0.3
0.025154,-0.00034181,0.0028072,0.031928,0.00025912,0.00015107,0.0011641,-0.00066462,0.00089643,0.048938,-0.014276,-0.014504,0.0047842,-0.0026421,0.0037276,0,0,0,0.032022,0.00093764,-0.00062097,0.016321,0.010779,0.031899,2.1061e-06,0.5,0.5,0.3
0.027476,-0.00049677,0.0026907,0.031022,-0.00048906,-0.00050059,0.00077223,-0.00063889,0.00048824,0.04308,-0.013244,-0.013265,0.0030569,-0.002517,0.0020458,0,0,0,0.031076,0.00018811,-0.0012326,0.016154,0.010011,0.031631,2.007e-06,0.55,0.5,0.3
0.029507,-0.00056514,0.0026563,0.030553,-0.000723,-0.00067859,0.00028632,-0.00050975,4.5731e-05,0.039471,-0.012451,-0.012367,0.001087,-0.0020127,0.00028851,0,0,0,0.030572,-0.00015658,-0.0012642,0.015918,0.0097172,0.031306,1.907e-06,0.6,0.5,0.3
0.031437,-0.00057875,0.0026831,0.0305,-0.00087485,-0.00078588,-0.00019115,-0.00051226,-0.00034253,0.039504,-0.012591,-0.012425,-0.00083673,-0.0020242,-0.0013291,0,0,0,0.030521,-0.00028189,-0.0014007,0.015961,0.0096129,0.031387,1.9215e-06,0.65,0.5,0.3
0.033471,-0.00053518,0.0027747,0.030855,-0.00096751,-0.00084277,-0.0006512,-0.00064844,-0.00072546,0.043195,-0.013708,-0.013464,-0.0026684,-0.0025593,-0.0029103,0,0,0,0.030913,-0.00020903,-0.0016589,0.016286,0.0096817,0.031881,2.0555e-06,0.7,0.5,0.3
0.035801,-0.00039622,0.0029618,0.031666,-0.00056178,-0.00044742,-0.00098981,-0.00067803,-0.0010145,0.0492,-0.015161,-0.014914,-0.0041039,-0.0027002,-0.0041714,0,0,0,0.031752,0.00024169,-0.0013367,0.016544,0.010219,0.032336,2.1944e-06,0.75,0.5,0.3
0.038455,-0.00017752,0.0032237,0.031229,0.00012914,0.00020668,-0.0010134,-0.00030725,-0.00099725,0.05434,-0.016119,-0.015932,-0.0045091,-0.0011075,-0.004411,0,0,0,0.031307,0.00072812,-0.00047017,0.015889,0.010522,0.031201,1.9296e-06,0.8,0.5,0.3
0.041282,1.3432e-05,0.0034526,0.029799,0.00047764,0.00051949,-0.00080547,0.00022258,-0.00076415,0.056995,-0.016611,-0.016504,-0.003973,0.0012799,-0.0037577,0,0,0,0.029849,0.00094046,7.4644e-06,0.014921,0.010265,0.029387,1.431e-06,0.85,0.5,0.3
0.044169,0.00010791,0.0035775,0.029196,0.00035549,0.00036562,-0.00058668,0.00047274,-0.000543,0.05796,-0.017026,-0.017,-0.0030507,0.0024583,-0.0028236,0,0,0,0.029223,0.00084572,-0.00015102,0.014687,0.0099725,0.028889,1.2421e-06,0.9,0.5,0.3
0.047078,0.0001371,0.0036265,0.029241,0.00014883,0.00013656,-0.00032362,0.00049505,-0.00028969,0.058312,-0.017329,-0.017361,-0.0016828,0.0025743,-0.0015064,0,0,0,0.029252,0.00065889,-0.00038455,0.014818,0.0098423,0.02913,1.2707e-06,0.95,0.5,0.3
0.048538,0.00014313,0.0036395,0.02926,8.3711e-05,6.3535e-05,-0.00016309,0.00048982,-0.00013446,0.058431,-0.017427,-0.017479,-0.00084807,0.0025471,-0.00069919,0,0,0,0.029264,0.00059075,-0.00044755,0.014856,0.0098023,0.029207,1.2801e-06,1,0.5,0.3
0.0009478,-4.9763e-05,0.00031217,0.025334,0.0097304,0.0096221,-0.00036711,1.1061e-05,0.0023787,0.039057,-0.001513,-0.0017946,-0.001909,5.7515e-05,0.012369,0,0,0,0.02572,0.0097283,0.0092387,0.0082406,0.014896,0.016243,2.2204e-07,0,0.55,0.3
0.0019529,-0.00010102,0.00061567,0.025533,0.0087237,0.0085085,-0.00034301,2.1053e-05,0.0023261,0.040727,-0.0029775,-0.0035371,-0.0017836,0.00010947,0.012096,0,0,0,0.025878,0.0087208,0.0081663,0.008856,0.014255,0.017442,2.7945e-07,0.05,0.55,0.3
0.0040727,-0.00020378,0.0012004,0.026285,0.0069497,0.0065412,-0.00027128,4.0989e-05,0.0021735,0.044475,-0.0057962,-0.0068583,-0.0014107,0.00021314,0.011302,0,0,0,0.026547,0.0069471,0.0062816,0.010133,0.013259,0.019942,4.1606e-07,0.1,0.55,0.3
0.0064004,-0.00030235,0.001731,0.027327,0.005508,0.0049742,-0.0001485,6.4606e-05,0.0019536,0.048366,-0.0083651,-0.0097528,-0.0007722,0.00033595,0.010159,0,0,0,0.027514,0.0055099,0.0047859,0.011364,0.012603,0.022376,5.8217e-07,0.15,0.55,0.3
0.0089092,-0.00038914,0.0021914,0.028237,0.0042734,0.0037176,2.4057e-05,9.8824e-05,0.001725,0.051679,-0.010626,-0.012071,0.0001251,0.00051388,0.0089698,0,0,0,0.028369,0.0042846,0.0035744,0.012397,0.012076,0.024448,7.5524e-07,0.2,0.55,0.3
0.011568,-0.00046071,0.0025712,0.029009,0.0032838,0.0028083,0.00023385,0.00014814,0.0015447,0.054362,-0.012523,-0.013759,0.001216,0.00077031,0.0080322,0,0,0,0.02911,0.0033147,0.0026761,0.013217,0.0117,0.026122,9.1887e-07,0.25,0.55,0.3
0.014345,-0.00051978,0.0028626,0.029664,0.0025781,0.0022535,0.00045999,0.00020472,0.0014395,0.056428,-0.013994,-0.014838,0.0023919,0.0010645,0.0074851,0,0,0,0.029754,0.0026516,0.0020893,0.013832,0.011498,0.027389,1.0589e-06,0.3,0.55,0.3
0.017211,-0.0005796,0.0030488,0.030258,0.0022216,0.002037,0.00065,0.00021599,0.0013536,0.057962,-0.014934,-0.015414,0.00338,0.0011231,0.0070386,0,0,0,0.030346,0.0023444,0.0018269,0.01426,0.011506,0.028265,1.1658e-06,0.35,0.55,0.3
0.020142,-0.00068115,0.0030754,0.031748,0.0019355,0.0016992,0.00086107,5.3736e-06,0.0013618,0.057618,-0.015096,-0.015638,0.0041063,0.00021592,0.0066184,0,0,0,0.031844,0.0021336,0.0014047,0.01522,0.011794,0.030084,1.5678e-06,0.4,0.55,0.3
0.023002,-0.00085455,0.0029269,0.033516,0.0012483,0.00072794,0.0010073,-0.00037298,0.0013163,0.053239,-0.014321,-0.015361,0.0041924,-0.0013637,0.0056781,0,0,0,0.033622,0.0015701,0.00029993,0.016661,0.011831,0.032711,2.203e-06,0.45,0.55,0.3
0.025534,-0.0010311,0.0027369,0.033206,0.00031004,-0.00030967,0.00075455,-0.00049755,0.00089529,0.046103,-0.013062,-0.014233,0.0029043,-0.0019057,0.0036329,0,0,0,0.033283,0.00066803,-0.00074447,0.017014,0.011069,0.033351,2.3364e-06,0.5,0.55,0.3
0.027663,-0.0011243,0.0026361,0.032325,-0.00037264,-0.00071069,0.00033165,-0.00036315,0.00038857,0.040236,-0.01207,-0.012747,0.0012539,-0.001357,0.001645,0,0,0,0.032356,-6.9017e-05,-0.0010455,0.016701,0.010414,0.032932,2.1542e-06,0.55,0.55,0.3
0.029569,-0.0011542,0.0026171,0.032718,-0.00066497,-0.00073732,0.00012927,-0.00029104,1.9621e-05,0.037637,-0.011651,-0.011909,0.00044059,-0.00099029,0.00021251,0,0,0,0.032727,-0.00035175,-0.0010598,0.016893,0.010438,0.033443,2.1634e-06,0.6,0.55,0.3
0.031427,-0.0011743,0.0026444,0.032675,-0.00081317,-0.0008455,3.7388e-05,-0.00028971,-0.00031637,0.037679,-0.011774,-0.011968,2.1554e-05,-0.00098884,-0.0011424,0,0,0,0.032688,-0.00048422,-0.0011869,0.016937,0.010339,0.033533,2.1804e-06,0.65,0.55,0.3
0.033337,-0.0011848,0.0027219,0.0322,-0.00083302,-0.0010535,-0.00016686,-0.00036027,-0.00061791,0.040389,-0.012479,-0.012952,-0.000757,-0.0013561,-0.0023954,0,0,0,0.032236,-0.00048586,-0.0014366,0.016836,0.010105,0.033216,2.2107e-06,0.7,0.55,0.3
0.035476,-0.0011292,0.0028945,0.033003,-0.00050814,-0.00093464,-0.0005732,-0.00049577,-0.00099694,0.046441,-0.013869,-0.014662,-0.002272,-0.0019091,-0.0039588,0,0,0,0.033074,-8.3192e-05,-0.0014314,0.017253,0.01052,0.03386,2.4475e-06,0.75,0.55,0.3
0.038032,-0.00098332,0.0031841,0.033309,9.681e-05,-0.00014975,-0.00081499,-0.00035928,-0.0012367,0.053937,-0.015694,-0.016114,-0.0033994,-0.0012954,-0.0052344,0,0,0,0.033394,0.00054822,-0.00068616,0.01704,0.011085,0.033485,2.3556e-06,0.8,0.55,0.3
0.040941,-0.00083811,0.003472,0.031687,0.00047179,0.00061041,-0.00068277,5.741e-05,-0.0010523,0.058991,-0.017238,-0.016834,-0.0032428,0.00048761,-0.0050189,0,0,0,0.031745,0.00094149,8.1916e-05,0.015832,0.010923,0.031245,1.7428e-06,0.85,0.55,0.3
0.043962,-0.00077223,0.0036305,0.030462,0.00028187,0.00060221,-0.00047865,0.00031362,-0.00074192,0.060394,-0.018075,-0.017242,-0.002489,0.0016308,-0.003858,0,0,0,0.030493,0.00082685,2.6876e-05,0.015233,0.010449,0.030075,1.4045e-06,0.9,0.55,0.3
0.046981,-0.00075889,0.0036839,0.030267,-3.2286e-05,0.00029171,-0.00026937,0.00034603,-0.00040943,0.060379,-0.0184,-0.017558,-0.0014007,0.0017994,-0.002129,0,0,0,0.030281,0.00054432,-0.00029808,0.015289,0.010176,0.030167,1.4143e-06,0.95,0.55,0.3
0.04849,-0.00075745,0.0036964,0.03021,-0.0001235,0.00018557,-0.00014041,0.00034137,-0.00019944,0.060382,-0.018484,-0.017681,-0.00073016,0.0017751,-0.0010371,0,0,0,0.030215,0.0004452,-0.00038797,0.015301,0.010091,0.030195,1.4175e-06,1,0.55,0.3
0.00095245,-0.00012738,0.00031263,0.025455,0.0097361,0.0096584,-0.00096206,-4.6564e-06,0.0023836,0.039273,-0.0015959,-0.0017979,-0.0050027,-2.4213e-05,0.012395,0,0,0,0.025889,0.0097253,0.0092349,0.0083272,0.01495,0.016415,2.293e-07,0,0.6,0.3
0.0019637,-0.00025371,0.00061654,0.025661,0.0086886,0.0085333,-0.00093021,-8.9519e-06,0.0023331,0.040989,-0.0031394,-0.003543,-0.0048371,-4.655e-05,0.012132,0,0,0,0.02605,0.0086704,0.0081623,0.0089438,0.014294,0.01764,2.8943e-07,0.05,0.6,0.3
0.0040989,-0.00050089,0.0012021,0.026439,0.0068435,0.0065504,-0.00083612,-1.6115e-05,0.0021874,0.044841,-0.0061066,-0.0068685,-0.0043478,-8.3797e-05,0.011374,0,0,0,0.026735,0.0068178,0.0062799,0.010228,0.013278,0.020193,4.3272e-07,0.1,0.6,0.3
0.0064478,-0.00073112,0.001734,0.027525,0.0053497,0.0049791,-0.00068362,-1.897e-05,0.0019805,0.048852,-0.0088028,-0.0097665,-0.0035548,-9.8642e-05,0.010299,0,0,0,0.027735,0.0053305,0.0047876,0.011474,0.012618,0.022683,6.0751e-07,0.15,0.6,0.3
0.0089841,-0.00093414,0.0021968,0.028491,0.004081,0.0037273,-0.0004855,-1.4564e-05,0.0017742,0.052296,-0.011169,-0.012088,-0.0025246,-7.5732e-05,0.0092259,0,0,0,0.028639,0.0040802,0.0035798,0.01253,0.0121,0.024814,7.9093e-07,0.2,0.6,0.3
0.011677,-0.0011039,0.0025806,0.029342,0.0030765,0.0028368,-0.00026389,-4.5836e-07,0.001628,0.055135,-0.013154,-0.013777,-0.0013722,-2.3836e-06,0.0084654,0,0,0,0.029453,0.0031066,0.0026952,0.013379,0.011752,0.026555,9.668e-07,0.25,0.6,0.3
0.014498,-0.0012398,0.0028765,0.030122,0.0023874,0.002328,-4.3514e-05,2.0541e-05,0.0015626,0.057414,-0.014695,-0.014849,-0.00022627,0.00010681,0.0081254,0,0,0,0.030218,0.0024765,0.002143,0.014037,0.011612,0.02791,1.1216e-06,0.3,0.6,0.3
0.017419,-0.0013482,0.0030611,0.030915,0.0020991,0.002153,0.00014152,2.287e-05,0.0014977,0.059278,-0.015642,-0.015502,0.00073588,0.00011892,0.007788,0,0,0,0.031002,0.002241,0.0019242,0.014539,0.011722,0.028921,1.2493e-06,0.35,0.6,0.3
0.020425,-0.0014491,0.0030666,0.032367,0.001826,0.0016601,0.00031976,-6.3035e-05,0.0014855,0.058554,-0.015481,-0.015815,0.0014532,-0.00022697,0.0072288,0,0,0,0.032455,0.0019791,0.0014185,0.015518,0.011951,0.030763,1.6269e-06,0.4,0.6,0.3
0.023311,-0.0015586,0.0028906,0.033559,0.001094,0.00038228,0.00043033,-0.00019011,0.0013012,0.052333,-0.013925,-0.015333,0.0016734,-0.00070944,0.0056953,0,0,0,0.033646,0.0012421,0.0001469,0.01675,0.011678,0.03297,2.1398e-06,0.45,0.6,0.3
0.025734,-0.0016529,0.0026987,0.033294,0.00024425,-0.00067172,0.00032043,-0.00019446,0.00075579,0.043805,-0.012149,-0.013891,0.0011132,-0.00072681,0.0031256,0,0,0,0.033346,0.00035739,-0.00083728,0.017092,0.010956,0.033609,2.2545e-06,0.5,0.6,0.3
0.027731,-0.0017042,0.0026109,0.03342,-0.00032222,-0.00079618,0.00015474,-0.00012552,0.00032623,0.038674,-0.011451,-0.012404,0.00047039,-0.00044687,0.0013253,0,0,0,0.033437,-0.00019177,-0.00094362,0.01719,0.010767,0.034018,2.2405e-06,0.55,0.6,0.3
0.029601,-0.0017295,0.0025969,0.034239,-0.00061371,-0.00064067,0.00011554,-0.00011086,3.3181e-05,0.037408,-0.011521,-0.011751,0.00031725,-0.00033758,0.00020099,0,0,0,0.034244,-0.00036284,-0.00089722,0.017571,0.010995,0.03488,2.3463e-06,0.6,0.6,0.3
0.03147,-0.0017555,0.0026247,0.0342,-0.00076152,-0.00075288,0.00011959,-0.00010594,-0.0003214,0.037452,-0.011634,-0.011813,0.00033556,-0.0003249,-0.0010645,0,0,0,0.034209,-0.000501,-0.0010223,0.017616,0.010895,0.034976,2.3652e-06,0.65,0.6,0.3
0.033345,-0.0017838,0.0026986,0.033316,-0.00076404,-0.0011436,5.4832e-05,-0.00011064,-0.00054669,0.038836,-0.01181,-0.012616,0.00013349,-0.00040656,-0.0020017,0,0,0,0.033339,-0.00061527,-0.0013151,0.017327,0.01047,0.034316,2.2997e-06,0.7,0.6,0.3
0.035353,-0.0017891,0.0028599,0.033136,-0.00052105,-0.0012961,-0.00014721,-0.00017353,-0.00084262,0.044166,-0.012851,-0.014338,-0.00056115,-0.00066211,-0.0033676,0,0,0,0.033186,-0.00038493,-0.0014831,0.017335,0.010439,0.03414,2.3659e-06,0.75,0.6,0.3
0.037801,-0.0017542,0.0031538,0.033407,8.2099e-06,-0.00049516,-0.00030883,-0.00016244,-0.0012007,0.053079,-0.015177,-0.016125,-0.0012326,-0.00059087,-0.005152,0,0,0,0.033479,0.00024131,-0.00079976,0.017139,0.010973,0.033774,2.2957e-06,0.8,0.6,0.3
0.040738,-0.0017131,0.0034729,0.032372,0.00042411,0.00057472,-0.00027915,-1.6368e-05,-0.0011507,0.060015,-0.017532,-0.01707,-0.0012955,1.0344e-05,-0.005502,0,0,0,0.032427,0.00082608,0.00011818,0.016154,0.011124,0.031962,1.8135e-06,0.85,0.6,0.3
0.043841,-0.0016996,0.0036564,0.031214,0.00022385,0.00073324,-0.00019663,9.2924e-05,-0.00085234,0.061854,-0.018721,-0.017396,-0.0010225,0.00048321,-0.0044322,0,0,0,0.031244,0.00079803,0.00012976,0.015557,0.010724,0.030786,1.5063e-06,0.9,0.6,0.3
0.046924,-0.0017029,0.0037149,0.030868,-0.00015554,0.00039393,-0.00011571,0.00010968,-0.00048184,0.061593,-0.019068,-0.01764,-0.0006017,0.00057033,-0.0025056,0,0,0,0.030881,0.000467,-0.00024189,0.015562,0.010369,0.030775,1.5024e-06,0.95,0.6,0.3
0.048463,-0.0017053,0.0037272,0.03076,-0.00026557,0.00026189,-6.5101e-05,0.00010734,-0.00024117,0.061522,-0.019144,-0.017773,-0.00033853,0.00055818,-0.0012541,0,0,0,0.030765,0.00034254,-0.00035118,0.015558,0.010252,0.030776,1.5019e-06,1,0.6,0.3
0.00095494,-0.00020935,0.00031088,0.025516,0.0097125,0.0096742,-0.0015895,-2.1038e-05,0.0023701,0.039401,-0.0016893,-0.0017889,-0.0082654,-0.0001094,0.012325,0,0,0,0.026043,0.0096914,0.0091689,0.0084369,0.014968,0.01662,2.3792e-07,0,0.65,0.3
0.00197,-0.00041496,0.00061317,0.025723,0.0086164,0.0085393,-0.0015479,-4.0291e-05,0.00232,0.041153,-0.0033248,-0.0035252,-0.0080493,-0.00020951,0.012064,0,0,0,0.026196,0.0085806,0.0081029,0.0090464,0.014293,0.01786,3.0055e-07,0.05,0.65,0.3
0.0041153,-0.00081444,0.0011957,0.026508,0.0066841,0.0065407,-0.0014261,-7.6103e-05,0.0021753,0.045081,-0.0064609,-0.0068339,-0.0074155,-0.00039573,0.011312,0,0,0,0.026868,0.0066355,0.0062292,0.010319,0.013244,0.02044,4.4925e-07,0.1,0.65,0.3
0.0064781,-0.0011826,0.0017251,0.027597,0.0051283,0.0049594,-0.0012375,-0.00010779,0.0019704,0.049142,-0.0092776,-0.0097167,-0.0064348,-0.00056053,0.010246,0,0,0,0.027854,0.0051039,0.0047276,0.011563,0.012562,0.022941,6.2898e-07,0.15,0.65,0.3
0.0090296,-0.001506,0.0021859,0.028553,0.0038308,0.0037021,-0.0010118,-0.0001373,0.0017666,0.052586,-0.011691,-0.012026,-0.0052611,-0.00071394,0.0091864,0,0,0,0.028732,0.0038645,0.0034895,0.012621,0.012029,0.025058,8.1459e-07,0.2,0.65,0.3
0.011737,-0.0017761,0.0025682,0.029381,0.002831,0.0028104,-0.0007858,-0.0001654,0.0016233,0.055376,-0.013652,-0.013706,-0.0040861,-0.00086006,0.0084409,0,0,0,0.029512,0.0029454,0.0025649,0.013473,0.011674,0.026759,9.888e-07,0.25,0.65,0.3
0.014567,-0.0019893,0.0028632,0.030128,0.0021715,0.002303,-0.00058804,-0.00018789,0.0015606,0.057572,-0.015116,-0.014774,-0.0030578,-0.00097702,0.0081151,0,0,0,0.030236,0.0023872,0.00198,0.014128,0.011534,0.028055,1.1383e-06,0.3,0.65,0.3
0.017494,-0.0021438,0.0030477,0.030885,0.0019265,0.0021308,-0.00042092,-0.00017768,0.0014982,0.059336,-0.015957,-0.015426,-0.0021888,-0.00092393,0.0077907,0,0,0,0.030977,0.0021973,0.0017681,0.014605,0.011648,0.028998,1.2583e-06,0.35,0.65,0.3
0.020501,-0.0022302,0.003054,0.032298,0.0016952,0.0016419,-0.00031577,-6.5791e-05,0.0014889,0.058517,-0.015683,-0.015738,-0.0015366,-0.0004145,0.0072436,0,0,0,0.032386,0.0019235,0.0013258,0.01553,0.011878,0.030767,1.6253e-06,0.4,0.65,0.3
0.023383,-0.0022489,0.00288,0.033457,0.0010026,0.00037171,-0.00022257,8.9359e-05,0.0013076,0.052231,-0.014024,-0.01526,-0.00095889,0.00028378,0.0057189,0,0,0,0.033541,0.0011654,0.00012559,0.016708,0.011611,0.032911,2.1267e-06,0.45,0.65,0.3
0.0258,-0.0022466,0.0026904,0.033184,0.00020519,-0.0006718,-1.0758e-05,0.0001162,0.00076338,0.043677,-0.012161,-0.01383,-0.00012819,0.00046291,0.0031504,0,0,0,0.033234,0.00031195,-0.00082852,0.017031,0.010906,0.033513,2.2351e-06,0.5,0.65,0.3
0.02779,-0.0022686,0.0026042,0.033309,-0.0003097,-0.00078942,0.00018028,7.0093e-05,0.00033287,0.038537,-0.0114,-0.01236,0.00050933,0.0002837,0.0013446,0,0,0,0.033326,-0.00019268,-0.00092382,0.017125,0.010737,0.033897,2.2173e-06,0.55,0.65,0.3
0.029653,-0.0023059,0.0025913,0.034121,-0.00057147,-0.00063289,0.0001879,7.6382e-05,3.8497e-05,0.037263,-0.011439,-0.011717,0.0005327,0.00024215,0.00021527,0,0,0,0.034127,-0.00034797,-0.00086278,0.017495,0.010972,0.034738,2.3186e-06,0.6,0.65,0.3
0.031515,-0.0023373,0.0026201,0.034084,-0.00070726,-0.00074535,0.00010159,8.4594e-05,-0.00031768,0.037304,-0.011538,-0.011783,0.00028133,0.00026598,-0.001054,0,0,0,0.034092,-0.00047626,-0.00098523,0.017539,0.010877,0.034829,2.3362e-06,0.65,0.65,0.3
0.033382,-0.0023651,0.0026945,0.03321,-0.0007126,-0.001137,6.4205e-05,9.4229e-05,-0.00054466,0.038691,-0.011712,-0.012589,0.00020507,0.00035744,-0.0019953,0,0,0,0.033233,-0.00058279,-0.0012893,0.017261,0.010454,0.034181,2.2729e-06,0.7,0.65,0.3
0.035382,-0.0024154,0.002856,0.033036,-0.00048601,-0.0012937,0.00017384,0.00015329,-0.0008408,0.04402,-0.012763,-0.014309,0.00063281,0.00058995,-0.0033609,0,0,0,0.033087,-0.00036353,-0.0014667,0.017277,0.010419,0.034022,2.3402e-06,0.75,0.65,0.3
0.037823,-0.0025034,0.0031496,0.033315,2.3008e-05,-0.00049892,0.00027406,0.0001323,-0.0011983,0.052934,-0.015109,-0.016096,0.0010797,0.00045986,-0.0051428,0,0,0,0.033386,0.00024562,-0.00079205,0.017089,0.010947,0.033675,2.2736e-06,0.8,0.65,0.3
0.040753,-0.0025925,0.0034685,0.032297,0.00042236,0.00056728,0.000221,-2.4142e-05,-0.001149,0.059883,-0.017491,-0.017042,0.0010115,-0.00021219,-0.0054947,0,0,0,0.03235,0.00082698,0.00010917,0.016121,0.011096,0.03189,1.8001e-06,0.85,0.65,0.3
0.04385,-0.0026443,0.003652,0.031153,0.000209,0.00072459,0.00014228,-0.00014113,-0.00085176,0.061746,-0.018709,-0.017368,0.00073983,-0.00073389,-0.0044291,0,0,0,0.031182,0.0008021,0.00010292,0.015539,0.010696,0.030736,1.4989e-06,0.9,0.65,0.3
0.046928,-0.0026657,0.0037106,0.030813,-0.00017988,0.00038469,7.4442e-05,-0.00016251,-0.00048166,0.061503,-0.019078,-0.01761,0.0003871,-0.00084504,-0.0025047,0,0,0,0.030826,0.00047132,-0.00027945,0.015553,0.010339,0.030738,1.4966e-06,0.95,0.65,0.3
0.048465,-0.0026719,0.0037229,0.030707,-0.00029328,0.00025244,3.0261e-05,-0.0001617,-0.00024109,0.061439,-0.019162,-0.017744,0.00015736,-0.00084084,-0.0012537,0,0,0,0.030712,0.00034635,-0.00039204,0.015552,0.010222,0.030742,1.4968e-06,1,0.65,0.3
0.00095583,-0.00029631,0.00030709,0.025531,0.0096584,0.0096729,-0.002251,-3.5992e-05,0.0023396,0.039464,-0.0018057,-0.0017679,-0.011705,-0.00018716,0.012166,0,0,0,0.026199,0.009644,0.0090193,0.00859,0.014954,0.016877,2.4883e-07,0,0.7,0.3
0.0019732,-0.00058618,0.0006059,0.025733,0.008499,0.0085272,-0.0021924,-6.893e-05,0.0022878,0.04125,-0.003558,-0.0034846,-0.0114,-0.00035844,0.011897,0,0,0,0.026331,0.0084801,0.0079479,0.0091916,0.014253,0.018124,3.1382e-07,0.05,0.7,0.3
0.004125,-0.001147,0.0011819,0.026502,0.0064521,0.006508,-0.0020219,-0.00013094,0.0021384,0.045227,-0.0069016,-0.0067562,-0.010514,-0.00068091,0.011119,0,0,0,0.026955,0.0064503,0.0060566,0.010449,0.013154,0.020705,4.667e-07,0.1,0.7,0.3
0.0064959,-0.0016589,0.0017051,0.027551,0.0048214,0.0049089,-0.0017666,-0.0001887,0.001924,0.049265,-0.0098333,-0.009606,-0.0091862,-0.00098124,0.010005,0,0,0,0.027869,0.0048909,0.0045215,0.011674,0.012427,0.023166,6.4698e-07,0.15,0.7,0.3
0.0090514,-0.0021033,0.0021596,0.028424,0.0035069,0.0036355,-0.0014794,-0.00024775,0.0017029,0.052562,-0.012222,-0.011887,-0.0076931,-0.0012883,0.0088552,0,0,0,0.02864,0.0036859,0.0032398,0.0127,0.011855,0.025181,8.2533e-07,0.2,0.7,0.3
0.011752,-0.0024691,0.002535,0.02912,0.0025406,0.0027235,-0.0012177,-0.00031055,0.0015314,0.055081,-0.014025,-0.013549,-0.0063319,-0.0016149,0.0079634,0,0,0,0.029272,0.0028371,0.0022745,0.013499,0.011461,0.026721,9.8257e-07,0.25,0.7,0.3
0.01456,-0.0027514,0.0028239,0.029675,0.0019311,0.0021743,-0.0010162,-0.00036773,0.0014346,0.056887,-0.015248,-0.014615,-0.0052842,-0.0019122,0.0074597,0,0,0,0.029793,0.0023343,0.001653,0.01407,0.01126,0.027807,1.1059e-06,0.3,0.7,0.3
0.017441,-0.0029439,0.0030094,0.030164,0.0017086,0.001967,-0.00085582,-0.00036573,0.0013557,0.058123,-0.015862,-0.01519,-0.0044502,-0.0019018,0.0070497,0,0,0,0.030262,0.0021508,0.0014277,0.014417,0.01128,0.02848,1.1903e-06,0.35,0.7,0.3
0.020372,-0.0030184,0.0030381,0.031541,0.0015528,0.0016401,-0.00079172,-0.00013008,0.0013708,0.057497,-0.015686,-0.015418,-0.0038459,-0.00083979,0.0066592,0,0,0,0.031633,0.0019575,0.0011437,0.015245,0.011578,0.030092,1.5625e-06,0.4,0.7,0.3
0.02322,-0.0029631,0.0028949,0.033209,0.00098383,0.00068743,-0.00074393,0.00027566,0.0013315,0.052911,-0.014606,-0.015149,-0.0031791,0.00094035,0.0057376,0,0,0,0.033302,0.0013728,0.00020585,0.016548,0.011627,0.032532,2.1631e-06,0.45,0.7,0.3
0.025732,-0.0028699,0.0027116,0.032863,0.00019283,-0.00031979,-0.00040825,0.00042432,0.00091312,0.045683,-0.013089,-0.014051,-0.0016939,0.0016427,0.0036943,0,0,0,0.032928,0.00054715,-0.00073965,0.016834,0.010912,0.03305,2.2747e-06,0.5,0.7,0.3
0.027838,-0.0028437,0.0026161,0.031988,-0.00033796,-0.00069439,1.173e-05,0.00031415,0.00040576,0.039795,-0.011906,-0.012608,-0.00016001,0.001203,0.0016968,0,0,0,0.032016,-7.0829e-05,-0.00098921,0.016503,0.010319,0.032563,2.0843e-06,0.55,0.7,0.3
0.029723,-0.002873,0.0026007,0.032381,-0.0005356,-0.0007119,0.00016449,0.00026333,3.492e-05,0.037192,-0.011386,-0.011804,0.00042975,0.00091044,0.00025518,0,0,0,0.03239,-0.00029137,-0.00096543,0.016678,0.010378,0.033028,2.0864e-06,0.6,0.7,0.3
0.031558,-0.002909,0.0026306,0.032348,-0.00064655,-0.00081991,0.00016432,0.0002741,-0.00030469,0.037233,-0.011466,-0.01188,0.00056032,0.00094507,-0.001108,0,0,0,0.032361,-0.00039595,-0.0010832,0.016722,0.010294,0.03311,2.1013e-06,0.65,0.7,0.3
0.033446,-0.0029546,0.0027099,0.031896,-0.00067691,-0.0010336,0.00025838,0.0003463,-0.00060974,0.039943,-0.012165,-0.01287,0.0010193,0.0013122,-0.0023683,0,0,0,0.031932,-0.00039551,-0.0013507,0.016641,0.010062,0.032823,2.1343e-06,0.7,0.7,0.3
0.035563,-0.0030665,0.002883,0.032712,-0.00040335,-0.00093057,0.00057024,0.00047498,-0.00098946,0.045991,-0.013593,-0.014579,0.0022321,0.0018323,-0.0039319,0,0,0,0.032782,-3.1562e-05,-0.0013723,0.017077,0.010459,0.033512,2.3728e-06,0.75,0.7,0.3
0.038096,-0.0032673,0.003172,0.033046,0.00013954,-0.00016301,0.00075274,0.0003293,-0.0012301,0.053504,-0.01549,-0.01603,0.0031181,0.0011646,-0.0052091,0,0,0,0.033127,0.00055846,-0.0006634,0.016895,0.011008,0.033201,2.295e-06,0.8,0.7,0.3
0.040984,-0.0034632,0.0034593,0.031473,0.00046403,0.00058801,0.00060175,-9.5633e-05,-0.0010491,0.058613,-0.017123,-0.016753,0.0028422,-0.00067808,-0.005005,0,0,0,0.031529,0.00094197,5.4849e-05,0.015737,0.010842,0.031042,1.7077e-06,0.85,0.7,0.3
0.043988,-0.0035705,0.0036179,0.030286,0.00023408,0.00057589,0.00040809,-0.0003597,-0.0007414,0.060085,-0.018049,-0.01716,0.0021221,-0.0018705,-0.0038553,0,0,0,0.030314,0.0008271,-4.5142e-05,0.015179,0.010365,0.029933,1.3846e-06,0.9,0.7,0.3
0.046993,-0.0036107,0.0036715,0.030106,-0.00010872,0.00026259,0.00021902,-0.00039798,-0.00040954,0.060121,-0.018439,-0.017473,0.0011389,-0.0020695,-0.0021296,0,0,0,0.030119,0.00053846,-0.00039675,0.015258,0.010087,0.03006,1.3986e-06,0.95,0.7,0.3
0.048496,-0.0036215,0.0036841,0.030054,-0.00021007,0.0001554,9.9873e-05,-0.00039534,-0.00019952,0.060141,-0.018546,-0.017596,0.00051934,-0.0020558,-0.0010375,0,0,0,0.030059,0.00043612,-0.00049526,0.015277,0.0099999,0.0301,1.4034e-06,1,0.7,0.3
0.0009568,-0.00038992,0.00030182,0.025542,0.0095734,0.0096659,-0.002954,-4.7234e-05,0.0022965,0.039539,-0.0019776,-0.0017372,-0.015361,-0.00024562,0.011942,0,0,0,0.026408,0.0096056,0.0087673,0.0088203,0.014927,0.017238,2.6421e-07,0,0.75,0.3
0.001977,-0.00077076,0.0005958,0.025729,0.0083185,0.0085015,-0.0028628,-9.0577e-05,0.0022415,0.041367,-0.0039015,-0.0034256,-0.014886,-0.000471,0.011656,0,0,0,0.026499,0.0083991,0.0076511,0.009424,0.014183,0.018487,3.319e-07,0.05,0.75,0.3
0.0041367,-0.0015046,0.0011626,0.02646,0.0061051,0.0064475,-0.0026016,-0.0001725,0.0020827,0.045388,-0.0075342,-0.006644,-0.013528,-0.00089702,0.01083,0,0,0,0.027029,0.0063047,0.0056785,0.010675,0.013004,0.021047,4.8843e-07,0.1,0.75,0.3
0.0065158,-0.002166,0.0016772,0.027431,0.0043837,0.004821,-0.0022221,-0.0002493,0.001851,0.049339,-0.010584,-0.0094466,-0.011555,-0.0012964,0.009625,0,0,0,0.027815,0.0047237,0.0040971,0.011859,0.012212,0.023413,6.6527e-07,0.15,0.75,0.3
0.0090705,-0.0027282,0.0021223,0.02816,0.0030747,0.0035265,-0.0018144,-0.00032741,0.0016002,0.052359,-0.012862,-0.011688,-0.0094349,-0.0017025,0.008321,0,0,0,0.028407,0.0035335,0.0028199,0.012794,0.011587,0.02524,8.28e-07,0.2,0.75,0.3
0.011752,-0.0031786,0.0024876,0.028645,0.0021791,0.0025863,-0.0014625,-0.00040834,0.0013825,0.05443,-0.01438,-0.013322,-0.0076049,-0.0021234,0.0071892,0,0,0,0.028806,0.0027147,0.0018888,0.013459,0.011137,0.026515,9.568e-07,0.25,0.75,0.3
0.014513,-0.0035141,0.0027668,0.02891,0.0016475,0.0019811,-0.0012044,-0.00048157,0.0012252,0.055642,-0.015239,-0.014372,-0.0062628,-0.0025041,0.0063709,0,0,0,0.029024,0.0022234,0.0012907,0.013867,0.010846,0.02728,1.0411e-06,0.3,0.75,0.3
0.017316,-0.00373,0.0029501,0.028999,0.0014372,0.0016878,-0.001011,-0.00050098,0.0011021,0.056124,-0.015538,-0.014886,-0.0052571,-0.0026051,0.0057312,0,0,0,0.029087,0.0020021,0.0010356,0.014026,0.010708,0.027581,1.0779e-06,0.35,0.75,0.3
0.020126,-0.0038012,0.003007,0.029632,0.0013103,0.0014825,-0.00090763,-0.00027926,0.0010481,0.055623,-0.015463,-0.015023,-0.0045237,-0.0015596,0.0052264,0,0,0,0.029708,0.0018239,0.00089327,0.014407,0.010808,0.028362,1.2867e-06,0.4,0.75,0.3
0.022892,-0.0037161,0.0029194,0.031015,0.00085213,0.00095405,-0.00090079,0.00022988,0.0010704,0.05319,-0.015139,-0.014894,-0.0040351,0.00076036,0.0048082,0,0,0,0.031094,0.0014319,0.00029604,0.015399,0.010941,0.03025,1.7593e-06,0.45,0.75,0.3
0.025491,-0.0035609,0.0027642,0.031357,8.6253e-05,0.00011597,-0.00075751,0.00060171,0.00091825,0.048163,-0.014279,-0.01421,-0.0031627,0.0023935,0.0038181,0,0,0,0.031427,0.00078954,-0.00065745,0.016042,0.01052,0.031392,2.009e-06,0.5,0.75,0.3
0.027772,-0.0034601,0.0026572,0.030451,-0.00043097,-0.00048702,-0.00039649,0.0005958,0.00050884,0.04226,-0.012925,-0.013027,-0.0017023,0.0023683,0.0021188,0,0,0,0.030491,0.0001869,-0.0011452,0.015818,0.0098443,0.031,1.892e-06,0.55,0.75,0.3
0.029761,-0.0034441,0.0026296,0.030015,-0.00050215,-0.00063799,7.0776e-07,0.0004874,6.481e-05,0.038666,-0.011941,-0.012185,-0.000127,0.0019399,0.00034875,0,0,0,0.030029,-4.5896e-05,-0.0011091,0.015569,0.0096248,0.030629,1.7892e-06,0.6,0.75,0.3
0.031651,-0.0034836,0.002661,0.029995,-0.00058724,-0.00074062,0.0003601,0.00050093,-0.00032616,0.038716,-0.012003,-0.012278,0.001376,0.0019873,-0.0012764,0,0,0,0.030017,-0.00012798,-0.0012226,0.01562,0.0095556,0.030716,1.804e-06,0.65,0.75,0.3
0.033646,-0.0035826,0.0027553,0.030381,-0.00069999,-0.00080942,0.00069801,0.00063533,-0.00071161,0.042414,-0.013129,-0.01333,0.0027902,0.0025139,-0.0028631,0,0,0,0.030438,-7.6831e-05,-0.0014902,0.015964,0.0096238,0.031255,1.9394e-06,0.7,0.75,0.3
0.035938,-0.0037801,0.0029431,0.031223,-0.00038248,-0.0004404,0.00093914,0.0006586,-0.0010035,0.048436,-0.014671,-0.014781,0.0038553,0.0026243,-0.0041338,0,0,0,0.031306,0.00031096,-0.0012159,0.016261,0.010134,0.031793,2.089e-06,0.75,0.75,0.3
0.038554,-0.0040589,0.0032046,0.030845,0.00020125,0.0001875,0.00090748,0.00028186,-0.00099204,0.053645,-0.01578,-0.015802,0.0039999,0.00099205,-0.0043939,0,0,0,0.030917,0.00074497,-0.00042786,0.015672,0.010411,0.03078,1.8538e-06,0.8,0.75,0.3
0.041349,-0.0043071,0.0034331,0.02948,0.00045929,0.00048392,0.00068807,-0.00025555,-0.00076441,0.056412,-0.016443,-0.016378,0.0033772,-0.0014468,-0.0037612,0,0,0,0.029524,0.000934,-3.4182e-05,0.014779,0.010141,0.029088,1.3872e-06,0.85,0.75,0.3
0.044209,-0.0044492,0.0035584,0.028917,0.00026615,0.00031905,0.00049005,-0.00051552,-0.00054532,0.057484,-0.01701,-0.016872,0.0025482,-0.0026807,-0.0028356,0,0,0,0.02894,0.0008177,-0.00025512,0.014598,0.0098342,0.028675,1.2143e-06,0.9,0.75,0.3
0.047098,-0.0045096,0.0036079,0.028981,1.1499e-05,8.2071e-05,0.00025864,-0.00054554,-0.00029132,0.057906,-0.017415,-0.017231,0.0013449,-0.0028368,-0.0015149,0,0,0,0.02899,0.00060825,-0.00052416,0.014757,0.0096915,0.028966,1.2487e-06,0.95,0.75,0.3
0.048547,-0.0045265,0.003621,0.029005,-7.0331e-05,6.1952e-06,0.00011304,-0.00054299,-0.00013523,0.058049,-0.017548,-0.017349,0.00058783,-0.0028236,-0.00070321,0,0,0,0.029009,0.00053168,-0.00059932,0.014804,0.0096471,0.02906,1.2602e-06,1,0.75,0.3
0.00096127,-0.00049407,0.00029603,0.025629,0.0094528,0.0096739,-0.0037159,-5.248e-05,0.0022486,0.039783,-0.0022764,-0.0017014,-0.019323,-0.0002729,0.011693,0,0,0,0.02676,0.0095985,0.0083978,0.009181,0.014919,0.017794,2.885e-07,0,0.8,0.3
0.0019891,-0.00097633,0.00058472,0.025788,0.0080361,0.0084689,-0.0035607,-0.00010113,0.0021893,0.041674,-0.0044822,-0.0033568,-0.018516,-0.00052587,0.011384,0,0,0,0.026775,0.0083458,0.0071725,0.0098013,0.014098,0.019046,3.5982e-07,0.05,0.8,0.3
0.0041674,-0.0019004,0.0011415,0.026448,0.005565,0.0063472,-0.0031321,-0.00019367,0.0020186,0.045748,-0.0085471,-0.0065133,-0.016287,-0.0010071,0.010497,0,0,0,0.027142,0.0061816,0.0050365,0.011053,0.012787,0.02156,5.2007e-07,0.1,0.8,0.3
0.006564,-0.0027172,0.0016463,0.027296,0.0037511,0.0046836,-0.0025429,-0.00028033,0.0017664,0.049532,-0.011686,-0.0092614,-0.013223,-0.0014577,0.0091853,0,0,0,0.027731,0.004568,0.0034324,0.012149,0.01191,0.023755,6.8897e-07,0.15,0.8,0.3
0.0091206,-0.0033895,0.0020813,0.02783,0.002504,0.0033722,-0.001951,-0.00036544,0.0014828,0.052135,-0.013713,-0.011456,-0.010145,-0.0019003,0.0077105,0,0,0,0.028085,0.0033648,0.0022563,0.012914,0.011235,0.025295,8.2841e-07,0.2,0.8,0.3
0.011777,-0.0039072,0.0024355,0.028063,0.0017317,0.0024102,-0.0014699,-0.00044786,0.0012159,0.053641,-0.01482,-0.013056,-0.0076433,-0.0023289,0.0063229,0,0,0,0.028212,0.002538,0.0014549,0.013379,0.010735,0.026233,9.2304e-07,0.25,0.8,0.3
0.014485,-0.0042753,0.0027041,0.028046,0.0013111,0.0017617,-0.0011203,-0.0005173,0.00099143,0.054248,-0.015262,-0.014091,-0.0058257,-0.0026899,0.0051555,0,0,0,0.028137,0.0020329,0.00094868,0.013594,0.010373,0.026663,9.694e-07,0.3,0.8,0.3
0.017202,-0.0044977,0.0028822,0.027832,0.0011365,0.0013831,-0.00085651,-0.00053785,0.00080146,0.054151,-0.015256,-0.014615,-0.0044538,-0.0027968,0.0041676,0,0,0,0.027891,0.0017608,0.00069977,0.013595,0.010117,0.026677,9.7207e-07,0.35,0.8,0.3
0.0199,-0.0045664,0.0029593,0.027633,0.0010022,0.0011663,-0.00065889,-0.00038686,0.0006399,0.053552,-0.015151,-0.014736,-0.0033714,-0.0020351,0.0032972,0,0,0,0.027674,0.0015087,0.00061855,0.013528,0.0099338,0.026623,9.9699e-07,0.4,0.8,0.3
0.02256,-0.0044839,0.0029289,0.027891,0.00060243,0.00086691,-0.00059869,3.8531e-05,0.0005832,0.052271,-0.015221,-0.014621,-0.002814,2.4676e-05,0.0027987,0,0,0,0.027931,0.0011564,0.00027289,0.013829,0.0097867,0.02723,1.1717e-06,0.45,0.8,0.3
0.025145,-0.0043082,0.0028268,0.02835,-5.695e-05,0.00032525,-0.00064425,0.00052797,0.00057015,0.049404,-0.015036,-0.014208,-0.0027177,0.0022659,0.002473,0,0,0,0.028397,0.00077429,-0.00055265,0.014475,0.0095394,0.028315,1.4161e-06,0.5,0.8,0.3
0.027548,-0.0041454,0.0027315,0.028162,-0.00047238,-0.00014943,-0.00051307,0.00074195,0.00038342,0.045377,-0.014221,-0.013468,-0.002069,0.0032426,0.0015917,0,0,0,0.028197,0.00048595,-0.0011434,0.01467,0.00918,0.028567,1.4801e-06,0.55,0.8,0.3
0.029735,-0.0040748,0.0026965,0.027591,-0.00046025,-0.00027994,-8.1336e-05,0.00071403,4.8775e-05,0.042652,-0.013438,-0.012909,-0.00031297,0.0032425,0.00020549,0,0,0,0.027606,0.00039551,-0.0011509,0.014379,0.0089503,0.028025,1.4015e-06,0.6,0.8,0.3
0.031834,-0.0041169,0.0027294,0.027583,-0.00051922,-0.00036926,0.00045403,0.00072731,-0.00029321,0.042706,-0.01348,-0.013012,0.001858,0.0032933,-0.0012231,0,0,0,0.027608,0.00033131,-0.0012445,0.014426,0.0088983,0.028107,1.4147e-06,0.65,0.8,0.3
0.034026,-0.0042764,0.0028344,0.028121,-0.00065766,-0.0004242,0.00083371,0.00077852,-0.00057865,0.045528,-0.014355,-0.013793,0.0034224,0.0033893,-0.0024175,0,0,0,0.028176,0.00027905,-0.0014163,0.014796,0.0090129,0.028788,1.5172e-06,0.7,0.8,0.3
0.036439,-0.0045434,0.0030128,0.028253,-0.00037011,-0.00013484,0.00085165,0.00057487,-0.00066356,0.049636,-0.015278,-0.014795,0.0036405,0.0024723,-0.0028811,0,0,0,0.028313,0.00039746,-0.00096253,0.014638,0.0092493,0.028627,1.4665e-06,0.75,0.8,0.3
0.039038,-0.0048517,0.0032205,0.027735,0.00016495,0.00020843,0.00063935,7.6484e-05,-0.00053285,0.052599,-0.01558,-0.01554,0.0029918,0.00020749,-0.0025289,0,0,0,0.027773,0.00060361,-0.00026855,0.014021,0.0093693,0.02762,1.225e-06,0.8,0.8,0.3
0.041717,-0.0051092,0.0033877,0.027422,0.00040225,0.00023387,0.00047907,-0.00037352,-0.00040217,0.054046,-0.015659,-0.016106,0.0024356,-0.0019681,-0.0020629,0,0,0,0.027443,0.00076993,-0.0001547,0.013799,0.0093528,0.027149,1.0586e-06,0.85,0.8,0.3
0.044445,-0.0052714,0.003487,0.027577,0.00029218,5.5742e-05,0.00037291,-0.00056033,-0.00031299,0.054946,-0.015996,-0.01661,0.0019391,-0.0029137,-0.0016275,0,0,0,0.02759,0.00075489,-0.00041911,0.014004,0.0093085,0.027441,1.0596e-06,0.9,0.8,0.3
0.047212,-0.0053522,0.0035345,0.02778,0.0001209,-9.9757e-05,0.00019272,-0.0005904,-0.00016349,0.055548,-0.016366,-0.01694,0.0010021,-0.0030701,-0.00085013,0,0,0,0.027785,0.00062531,-0.00060935,0.014197,0.0092671,0.027798,1.1004e-06,0.95,0.8,0.3
0.048603,-0.0053763,0.0035484,0.02785,5.6678e-05,-0.00015254,7.1124e-05,-0.00059123,-6.8316e-05,0.055758,-0.016505,-0.017049,0.00036984,-0.0030744,-0.00035524,0,0,0,0.027852,0.00056877,-0.00066672,0.01426,0.0092515,0.027922,1.1149e-06,1,0.8,0.3
0.00097717,-0.00061756,0.00029112,0.025954,0.0092572,0.0097295,-0.0045733,-4.9595e-05,0.0022069,0.040516,-0.0028956,-0.0016678,-0.023781,-0.00025789,0.011476,0,0,0,0.027424,0.009649,0.0078674,0.0097785,0.01498,0.018734,3.3186e-07,0,0.85,0.3
0.0020258,-0.001219,0.00057526,0.026035,0.0075404,0.0084266,-0.004276,-9.6951e-05,0.0021428,0.042489,-0.0055959,-0.0032918,-0.022235,-0.00050415,0.011143,0,0,0,0.027272,0.0083003,0.0064294,0.010421,0.014,0.019979,4.0739e-07,0.05,0.85,0.3
0.0042489,-0.0023593,0.0011232,0.026544,0.0046902,0.0061756,-0.0035239,-0.00018865,0.0019595,0.046568,-0.010251,-0.0063892,-0.018324,-0.00098095,0.010189,0,0,0,0.027333,0.0060131,0.0040637,0.011635,0.01247,0.022366,5.6857e-07,0.1,0.85,0.3
0.0066826,-0.0033345,0.0016194,0.027194,0.0028829,0.0044809,-0.00262,-0.00027532,0.0016874,0.049971,-0.013239,-0.0090846,-0.013624,-0.0014317,0.0087747,0,0,0,0.027632,0.0043679,0.0025587,0.012537,0.011519,0.024225,7.1967e-07,0.15,0.85,0.3
0.0092459,-0.0040995,0.0020452,0.027448,0.0018215,0.0031635,-0.0018262,-0.00035674,0.0013743,0.051906,-0.014724,-0.011235,-0.0094963,-0.0018551,0.0071462,0,0,0,0.027675,0.0031461,0.001612,0.013032,0.010811,0.025334,8.2557e-07,0.2,0.85,0.3
0.011873,-0.0046606,0.0023897,0.027402,0.0012285,0.0021871,-0.0012426,-0.00042864,0.0010658,0.052755,-0.015296,-0.012804,-0.0064616,-0.0022289,0.0055423,0,0,0,0.027518,0.0022919,0.0010082,0.013255,0.010273,0.025892,8.8461e-07,0.25,0.85,0.3
0.014521,-0.0050403,0.0026492,0.027178,0.00093599,0.0015188,-0.00083278,-0.00047984,0.0007879,0.052884,-0.015346,-0.013831,-0.0043304,-0.0024952,0.0040971,0,0,0,0.027237,0.0017584,0.00063762,0.0133,0.0098777,0.026058,9.0379e-07,0.3,0.85,0.3
0.017162,-0.0052556,0.0028231,0.026841,0.00081727,0.0011039,-0.00051968,-0.00048068,0.00054189,0.052529,-0.015132,-0.014387,-0.0027023,-0.0024995,0.0028178,0,0,0,0.02687,0.0014439,0.00044804,0.013211,0.0095873,0.025939,8.9287e-07,0.35,0.85,0.3
0.019774,-0.0053167,0.0029122,0.026405,0.00070328,0.00085216,-0.0002591,-0.00036993,0.00032321,0.051877,-0.014948,-0.014561,-0.0013473,-0.0019236,0.0016807,0,0,0,0.02642,0.0011524,0.00038855,0.013016,0.0093202,0.025659,8.659e-07,0.4,0.85,0.3
0.022349,-0.0052408,0.0029216,0.025988,0.00040594,0.00063016,-9.8402e-05,-7.8398e-05,0.00017013,0.050991,-0.015033,-0.014476,-0.00045981,-0.00043566,0.00084862,0,0,0,0.026,0.00082161,0.00020246,0.012899,0.0090081,0.025496,8.6849e-07,0.45,0.85,0.3
0.024876,-0.0050726,0.0028746,0.025766,-6.6063e-05,0.00036614,-9.8656e-05,0.00033819,0.00010429,0.049663,-0.015252,-0.014195,-0.00031476,0.0016295,0.00043142,0,0,0,0.025783,0.00062745,-0.00034488,0.013064,0.0086887,0.025661,9.2948e-07,0.5,0.85,0.3
0.02733,-0.0048957,0.0028173,0.025559,-0.0004213,0.00015562,-0.00010282,0.00065916,5.2226e-05,0.04806,-0.015265,-0.013814,-0.00028571,0.0032256,0.00015731,0,0,0,0.025576,0.0006148,-0.00089691,0.013236,0.0084312,0.025754,9.6928e-07,0.55,0.85,0.3
0.029702,-0.0048029,0.0027939,0.025258,-0.00051242,6.6657e-05,5.507e-05,0.00077507,-4.8457e-05,0.047019,-0.015117,-0.0136,0.00035977,0.0038731,-0.00027272,0,0,0,0.025266,0.00064045,-0.0010945,0.01318,0.0082706,0.025541,9.4733e-07,0.6,0.85,0.3
0.032041,-0.0048463,0.0028279,0.025256,-0.00054556,-1.8013e-06,0.00028571,0.00078341,-0.00016718,0.04707,-0.015137,-0.013705,0.0012956,0.0039103,-0.00077529,0,0,0,0.025268,0.0005903,-0.00115,0.013209,0.0082362,0.025596,9.5451e-07,0.65,0.85,0.3
0.034418,-0.005031,0.0029232,0.025545,-0.00052408,-5.6763e-05,0.00040441,0.00068175,-0.0002288,0.048206,-0.015323,-0.014142,0.0017589,0.0033295,-0.0010203,0,0,0,0.025569,0.00045507,-0.00106,0.013314,0.0083213,0.025909,9.8896e-07,0.7,0.85,0.3
0.036881,-0.0053153,0.0030644,0.025718,-0.00024449,-7.9447e-06,0.00031603,0.00036679,-0.00020011,0.049889,-0.015346,-0.014788,0.001401,0.0017686,-0.00090817,0,0,0,0.02574,0.00033941,-0.00061359,0.013177,0.0084885,0.025895,9.5684e-07,0.75,0.85,0.3
0.039421,-0.0056192,0.0032156,0.025884,0.00014096,5.1634e-05,0.0001864,-5.4862e-05,-0.00014413,0.051286,-0.015151,-0.015407,0.00090997,-0.00031541,-0.00071123,0,0,0,0.025895,0.000397,-0.00021523,0.013055,0.0086923,0.025812,9.0178e-07,0.8,0.85,0.3
0.042013,-0.0058734,0.0033396,0.026219,0.00032452,-9.8681e-06,0.00016416,-0.00036222,-0.00012802,0.052249,-0.015076,-0.015946,0.00085364,-0.0018836,-0.0006657,0,0,0,0.026224,0.00057121,-0.00026205,0.013243,0.0088445,0.026081,9.094e-07,0.85,0.85,0.3
0.044646,-0.0060487,0.0034222,0.026543,0.00027903,-0.00014786,0.00016384,-0.00050117,-0.00011884,0.053008,-0.015279,-0.016389,0.00085194,-0.0026061,-0.00061796,0,0,0,0.026547,0.00062269,-0.00049516,0.013521,0.0088914,0.026501,9.5216e-07,0.9,0.85,0.3
0.047314,-0.0061462,0.0034673,0.026741,0.00017046,-0.0002607,7.7846e-05,-0.0005437,-5.9653e-05,0.053536,-0.015547,-0.016668,0.0004048,-0.0028273,-0.00031019,0,0,0,0.026743,0.00055423,-0.00064624,0.013694,0.0088836,0.026809,9.8515e-07,0.95,0.85,0.3
0.048654,-0.006177,0.0034814,0.02681,0.00012339,-0.00030144,3.5029e-06,-0.00055113,-1.4071e-05,0.053726,-0.015658,-0.016763,1.8215e-05,-0.0028659,-7.317e-05,0,0,0,0.026811,0.00051669,-0.00069569,0.013753,0.0088772,0.026921,9.9746e-07,1,0.85,0.3
0.0010211,-0.00078363,0.00028883,0.026817,0.0087222,0.0098385,-0.0054513,-3.7279e-05,0.0021859,0.042498,-0.004549,-0.0016469,-0.028347,-0.00019385,0.011366,0,0,0,0.028655,0.0097524,0.0069706,0.010842,0.015126,0.020449,4.1795e-07,0,0.9,0.3
0.0021249,-0.0015359,0.00057071,0.026724,0.0065492,0.0083569,-0.0048054,-7.5774e-05,0.0021173,0.044505,-0.0079503,-0.0032504,-0.024988,-0.00039402,0.01101,0,0,0,0.02815,0.0082274,0.0052528,0.011449,0.013877,0.021578,4.924e-07,0.05,0.9,0.3
0.0044505,-0.0029255,0.001114,0.026885,0.0034031,0.0059328,-0.0034817,-0.00015323,0.0019227,0.048169,-0.012884,-0.0063073,-0.018105,-0.00079679,0.0099979,0,0,0,0.02764,0.0057738,0.002807,0.012417,0.012074,0.023503,6.3605e-07,0.1,0.9,0.3
0.0069418,-0.0040412,0.0016049,0.027074,0.0019225,0.0042167,-0.0022734,-0.0002284,0.0016331,0.050465,-0.01493,-0.0089647,-0.011822,-0.0011877,0.0084921,0,0,0,0.027438,0.0041061,0.0016697,0.012884,0.011071,0.024648,7.4401e-07,0.15,0.9,0.3
0.009497,-0.0048619,0.0020246,0.026853,0.0011469,0.0028589,-0.001402,-0.00029575,0.0012948,0.051302,-0.015533,-0.011082,-0.0072902,-0.0015379,0.006733,0,0,0,0.027021,0.0028274,0.0010101,0.013006,0.010286,0.025156,8.0308e-07,0.2,0.9,0.3
0.012072,-0.0054368,0.0023623,0.026534,0.00075046,0.0018714,-0.00084424,-0.00034978,0.00095368,0.051495,-0.015542,-0.012628,-0.00439,-0.0018189,0.0049592,0,0,0,0.02661,0.001937,0.00060867,0.013001,0.0097187,0.025365,8.31e-07,0.25,0.9,0.3
0.014647,-0.00581,0.0026155,0.026218,0.00057386,0.0012137,-0.0004729,-0.0003801,0.00063945,0.051364,-0.015311,-0.013648,-0.0024591,-0.0019765,0.0033251,0,0,0,0.02625,0.0013833,0.00037213,0.012939,0.0093352,0.025388,8.3683e-07,0.3,0.9,0.3
0.017208,-0.0060109,0.0027868,0.025916,0.00050713,0.00081635,-0.00018744,-0.0003655,0.00036304,0.051037,-0.015025,-0.014221,-0.00097467,-0.0019006,0.0018878,0,0,0,0.025927,0.0010574,0.0002543,0.012837,0.0090797,0.025282,8.2777e-07,0.35,0.9,0.3
0.01975,-0.0060612,0.0028828,0.025618,0.00044044,0.00059679,5.8454e-05,-0.00027408,0.00012871,0.050614,-0.014848,-0.014442,0.00030396,-0.0014252,0.00066928,0,0,0,0.025623,0.00080499,0.00022738,0.012698,0.0088852,0.025113,8.1222e-07,0.4,0.9,0.3
0.02227,-0.0059875,0.0029152,0.025313,0.00027448,0.00047033,0.00024805,-7.6964e-05,-5.0433e-05,0.05018,-0.014921,-0.014412,0.0012899,-0.00040021,-0.00026225,0,0,0,0.025319,0.00058825,0.00015083,0.012584,0.008686,0.024953,7.9717e-07,0.45,0.9,0.3
0.024768,-0.0058356,0.0029052,0.02501,-1.5364e-05,0.00038475,0.00032843,0.00020242,-0.00015083,0.049799,-0.015268,-0.014228,0.0017078,0.0010526,-0.0007843,0,0,0,0.025019,0.00052141,-0.00016046,0.01259,0.0084599,0.024848,7.8538e-07,0.5,0.9,0.3
0.02725,-0.0056776,0.002883,0.024767,-0.00032215,0.00032088,0.00029457,0.0004674,-0.00016605,0.049535,-0.015697,-0.014025,0.0015318,0.0024305,-0.00086343,0,0,0,0.024775,0.0005861,-0.00059517,0.012685,0.0082553,0.024804,7.7735e-07,0.55,0.9,0.3
0.029722,-0.0055938,0.0028784,0.024643,-0.00050281,0.0002653,0.00019672,0.00062229,-0.00012995,0.049429,-0.015951,-0.013954,0.001023,0.0032359,-0.00067575,0,0,0,0.024648,0.000633,-0.00087473,0.012761,0.0081353,0.024805,7.7448e-07,0.6,0.9,0.3
0.032193,-0.0056377,0.0029126,0.02466,-0.00051825,0.00021264,7.4511e-05,0.00062631,-7.3914e-05,0.049503,-0.01596,-0.01406,0.00038746,0.0032568,-0.00038435,0,0,0,0.024662,0.00059166,-0.00090004,0.012781,0.008118,0.024852,7.7916e-07,0.65,0.9,0.3
0.034672,-0.0058141,0.0029892,0.024811,-0.00037137,0.00015298,-4.6718e-05,0.00047898,-5.472e-06,0.049753,-0.015721,-0.014358,-0.00024293,0.0024907,-2.8454e-05,0,0,0,0.024815,0.00045383,-0.00067619,0.012745,0.0081975,0.024949,7.9159e-07,0.7,0.9,0.3
0.037168,-0.00608,0.0030948,0.025065,-0.00010645,7.3023e-05,-0.00013071,0.00021878,4.7064e-05,0.050151,-0.015296,-0.014829,-0.00067972,0.0011376,0.00024473,0,0,0,0.025069,0.0002936,-0.00033109,0.0127,0.008344,0.025097,8.0965e-07,0.75,0.9,0.3
0.039687,-0.006367,0.0032074,0.025352,0.00013209,-3.2536e-05,-0.00013322,-6.1641e-05,5.4983e-05,0.050644,-0.014927,-0.015356,-0.00069272,-0.00032054,0.00028591,0,0,0,0.025355,0.00027379,-0.00017698,0.012766,0.0084838,0.02531,8.3186e-07,0.8,0.9,0.3
0.042232,-0.0066168,0.0033059,0.025601,0.00023419,-0.00016785,-6.8505e-05,-0.00026801,3.1451e-05,0.051162,-0.014791,-0.015837,-0.00035622,-0.0013937,0.00016354,0,0,0,0.025602,0.00037885,-0.00031406,0.012958,0.0085558,0.025578,8.5751e-07,0.85,0.9,0.3
0.044803,-0.0067993,0.0033778,0.025786,0.0002138,-0.00031137,-4.9535e-06,-0.00037917,6.7477e-06,0.051632,-0.014857,-0.016223,-2.5758e-05,-0.0019717,3.5088e-05,0,0,0,0.025787,0.00042757,-0.00052591,0.013157,0.008563,0.02585,8.838e-07,0.9,0.9,0.3
0.047395,-0.0069069,0.0034204,0.025904,0.00015253,-0.00041802,-1.7379e-05,-0.00042537,1.0316e-05,0.051968,-0.014987,-0.01647,-9.0372e-05,-0.0022119,5.3645e-05,0,0,0,0.025905,0.00039715,-0.00066315,0.013284,0.0085462,0.026054,9.0428e-07,0.95,0.9,0.3
0.048696,-0.0069421,0.0034344,0.025945,0.00012358,-0.00045653,-5.2821e-05,-0.00043678,2.3175e-05,0.05209,-0.015046,-0.016554,-0.00027467,-0.0022713,0.00012051,0,0,0,0.025946,0.00037629,-0.00070978,0.013328,0.0085374,0.02613,9.1204e-07,1,0.9,0.3
0.0012143,-0.0010725,0.00029113,0.030398,0.0086792,0.010898,-0.0065292,-2.0973e-05,0.0022056,0.04905,-0.0074191,-0.0016509,-0.033952,-0.00010906,0.011469,0,0,0,0.032648,0.010803,0.0065237,0.013062,0.016658,0.024289,7.1419e-07,0,0.95,0.3
0.0024525,-0.002014,0.0005748,0.029038,0.0056266,0.008771,-0.0051094,-4.6509e-05,0.0021364,0.049436,-0.011432,-0.0032565,-0.026569,-0.00024185,0.011109,0,0,0,0.030568,0.0086326,0.0042341,0.013167,0.014478,0.024452,6.9988e-07,0.05,0.95,0.3
0.0049436,-0.0036478,0.0011209,0.027174,0.0019325,0.0055745,-0.0028311,-0.00010101,0.0019352,0.049843,-0.015784,-0.0063147,-0.014722,-0.00052527,0.010063,0,0,0,0.02775,0.0054091,0.0015215,0.013114,0.01156,0.024534,6.9609e-07,0.1,0.95,0.3
0.0074368,-0.0048275,0.0016133,0.026225,0.00093656,0.0036642,-0.0015156,-0.00015567,0.001629,0.049689,-0.01606,-0.0089684,-0.0078809,-0.0008095,0.008471,0,0,0,0.026473,0.003547,0.00080577,0.012834,0.010275,0.024422,7.1618e-07,0.15,0.95,0.3
0.0099126,-0.0056529,0.0020326,0.025535,0.00043961,0.0022536,-0.00081332,-0.00020207,0.0012646,0.049454,-0.015794,-0.011078,-0.0042293,-0.0010508,0.0065762,0,0,0,0.025648,0.0022032,0.00037734,0.012635,0.0094094,0.024414,7.3441e-07,0.2,0.95,0.3
0.012382,-0.0062149,0.0023679,0.025151,0.00024125,0.0013121,-0.00042544,-0.00023631,0.00089024,0.04937,-0.015395,-0.012611,-0.0022123,-0.0012288,0.0046292,0,0,0,0.0252,0.0013357,0.00016852,0.012516,0.0089015,0.024472,7.4855e-07,0.25,0.95,0.3
0.01485,-0.0065714,0.0026171,0.024936,0.00017561,0.00072444,-0.00018153,-0.00025149,0.00054115,0.049331,-0.015045,-0.013618,-0.00094393,-0.0013077,0.002814,0,0,0,0.024954,0.00082363,5.8252e-05,0.012448,0.0086119,0.024523,7.5645e-07,0.3,0.95,0.3
0.017315,-0.0067581,0.0027846,0.024833,0.00017151,0.00040979,8.8044e-06,-0.00023502,0.00023709,0.049317,-0.014803,-0.014183,4.5784e-05,-0.0012221,0.0012329,0,0,0,0.024838,0.00055828,1.768e-05,0.01241,0.0084713,0.024555,7.602e-07,0.35,0.95,0.3
0.019781,-0.0068015,0.0028802,0.024827,0.00017053,0.00029734,0.00017956,-0.00016997,-9.4549e-06,0.049373,-0.014734,-0.014404,0.00093373,-0.00088382,-4.9166e-05,0,0,0,0.02483,0.00041997,4.4443e-05,0.012393,0.0084316,0.024601,7.6456e-07,0.4,0.95,0.3
0.022253,-0.0067329,0.0029188,0.024912,0.00012014,0.00031757,0.00031789,-4.6062e-05,-0.00018307,0.049562,-0.014898,-0.014384,0.001653,-0.00023952,-0.00095198,0,0,0,0.024919,0.00037512,5.5746e-05,0.012432,0.0084499,0.024705,7.7418e-07,0.45,0.95,0.3
0.024737,-0.0065994,0.0029213,0.025063,-5.5444e-06,0.0003984,0.00038219,0.00011993,-0.00026717,0.04989,-0.015288,-0.014237,0.0019874,0.00062362,-0.0013893,0,0,0,0.025072,0.00045675,-7.3498e-05,0.012573,0.0084852,0.024886,7.9016e-07,0.5,0.95,0.3
0.027242,-0.0064654,0.0029125,0.02523,-0.00016675,0.00047707,0.00033688,0.00028295,-0.00025788,0.050273,-0.015758,-0.014084,0.0017518,0.0014713,-0.001341,0,0,0,0.025238,0.00060138,-0.00029913,0.012769,0.0085134,0.025101,8.0845e-07,0.55,0.95,0.3
0.029765,-0.006398,0.0029164,0.02536,-0.0002771,0.00051037,0.00018818,0.00038769,-0.00017139,0.050579,-0.016076,-0.014029,0.00097854,0.002016,-0.00089121,0,0,0,0.025363,0.00069059,-0.00046114,0.012912,0.008531,0.02527,8.2296e-07,0.6,0.95,0.3
0.0323,-0.0064423,0.0029498,0.025413,-0.00028041,0.00047165,-5.9393e-06,0.00039012,-4.5265e-05,0.050711,-0.016091,-0.014136,-3.0884e-05,0.0020287,-0.00023538,0,0,0,0.025414,0.0006589,-0.00046897,0.012941,0.0085346,0.025339,8.3002e-07,0.65,0.95,0.3
0.034836,-0.0066031,0.0030164,0.025385,-0.00017819,0.00035244,-0.00016571,0.00029021,7.223e-05,0.050665,-0.015799,-0.014419,-0.00086171,0.0015091,0.0003756,0,0,0,0.025387,0.00049818,-0.00032601,0.012856,0.0085196,0.025313,8.2967e-07,0.7,0.95,0.3
0.037366,-0.0068449,0.0031069,0.025306,-2.8564e-05,0.00016258,-0.00023592,0.00013087,0.00014674,0.050532,-0.015338,-0.014841,-0.0012268,0.00068054,0.00076303,0,0,0,0.02531,0.00028691,-0.00015646,0.012733,0.0084801,0.025249,8.2558e-07,0.75,0.95,0.3
0.039889,-0.007112,0.0032052,0.025221,8.1995e-05,-7.2737e-05,-0.00021444,-3.4584e-05,0.00016719,0.050436,-0.014925,-0.015327,-0.0011151,-0.00017984,0.00086938,0,0,0,0.025224,0.00017192,-0.00016617,0.012695,0.0084101,0.025224,8.2366e-07,0.8,0.95,0.3
0.04241,-0.0073526,0.0032952,0.025165,0.00011305,-0.00031285,-0.00014212,-0.00016308,0.00014358,0.050449,-0.014685,-0.015792,-0.00073904,-0.000848,0.00074661,0,0,0,0.025167,0.00017731,-0.00037931,0.012773,0.0083216,0.025273,8.277e-07,0.85,0.95,0.3
0.044934,-0.0075345,0.003365,0.025147,8.6952e-05,-0.0005144,-6.8893e-05,-0.00023953,9.8172e-05,0.05055,-0.014606,-0.016169,-0.00035824,-0.0012456,0.00051049,0,0,0,0.025148,0.00018622,-0.00061462,0.012881,0.0082398,0.025372,8.3634e-07,0.9,0.95,0.3
0.047465,-0.0076449,0.0034084,0.025151,4.7661e-05,-0.0006463,-5.7775e-05,-0.00027497,6.2553e-05,0.050661,-0.014607,-0.016412,-0.00030043,-0.0014298,0.00032527,0,0,0,0.025151,0.00016257,-0.00076172,0.012956,0.008184,0.025464,8.4477e-07,0.95,0.95,0.3
0.048732,-0.0076816,0.003423,0.025155,3.0296e-05,-0.00069194,-7.782e-05,-0.0002847,5.2101e-05,0.050707,-0.014617,-0.016495,-0.00040467,-0.0014805,0.00027093,0,0,0,0.025156,0.00014919,-0.00081138,0.012984,0.0081645,0.025501,8.4825e-07,1,0.95,0.3
0.0013758,-0.0012633,0.00029366,0.033364,0.0090459,0.011892,-0.0071878,-1.3256e-05,0.0022287,0.054164,-0.0090618,-0.0016607,-0.037377,-6.893e-05,0.011589,0,0,0,0.035848,0.011794,0.0066591,0.014595,0.018101,0.027013,9.526e-07,0,1,0.3
0.0027082,-0.0023085,0.00057949,0.03085,0.0053729,0.0092296,-0.0052432,-3.2232e-05,0.0021607,0.052938,-0.013302,-0.0032746,-0.027265,-0.0001676,0.011236,0,0,0,0.032428,0.0090859,0.0039383,0.014245,0.015151,0.026316,8.5269e-07,0.05,1,0.3
0.0052938,-0.004053,0.0011294,0.027206,0.0012051,0.0053497,-0.0023669,-7.4512e-05,0.001958,0.050479,-0.017123,-0.0063472,-0.012308,-0.00038746,0.010182,0,0,0,0.027671,0.0051778,0.00091211,0.013379,0.011254,0.024922,7.1803e-07,0.1,1,0.3
0.0077561,-0.0052356,0.0016246,0.025456,0.00041687,0.0032565,-0.0010639,-0.00011769,0.0016434,0.048709,-0.016394,-0.0090108,-0.0055321,-0.00061198,0.0085457,0,0,0,0.025648,0.0031328,0.00034926,0.012649,0.0097099,0.024039,6.8088e-07,0.15,1,0.3
0.010165,-0.0060502,0.0020455,0.024604,4.6815e-05,0.0018333,-0.00051324,-0.00015292,0.0012646,0.048081,-0.015769,-0.011124,-0.0026689,-0.00079517,0.0065762,0,0,0,0.024696,0.0017726,1.5876e-05,0.01234,0.0088281,0.023857,6.8519e-07,0.2,1,0.3
0.012564,-0.0066003,0.002381,0.024281,-4.8114e-05,0.00094229,-0.00023639,-0.00017765,0.00087167,0.048025,-0.01523,-0.012655,-0.0012292,-0.0009238,0.0045327,0,0,0,0.024321,0.00094673,-9.3185e-05,0.012207,0.0083916,0.023914,6.9891e-07,0.25,1,0.3
0.014967,-0.0069473,0.0026286,0.024177,-5.4194e-05,0.00041046,-6.9465e-05,-0.00018714,0.00050278,0.048141,-0.014861,-0.013653,-0.00036122,-0.00097314,0.0026145,0,0,0,0.024192,0.00047978,-0.00013788,0.012165,0.0081778,0.024028,7.118e-07,0.3,1,0.3
0.017378,-0.0071279,0.0027935,0.024216,-1.907e-05,0.00015663,6.3126e-05,-0.00017258,0.00018143,0.04835,-0.014662,-0.014205,0.00032826,-0.00089739,0.00094342,0,0,0,0.02422,0.00026813,-0.00013452,0.012177,0.008118,0.024156,7.2399e-07,0.35,1,0.3
0.019802,-0.0071698,0.0028863,0.024389,2.0832e-05,0.00011687,0.00018577,-0.00012328,-7.5532e-05,0.048695,-0.014662,-0.014412,0.00096598,-0.00064105,-0.00039277,0,0,0,0.024392,0.00020712,-7.2836e-05,0.012232,0.0081755,0.024326,7.3946e-07,0.4,1,0.3
0.022248,-0.0071056,0.0029233,0.024688,3.0792e-05,0.00022545,0.00028598,-3.4527e-05,-0.00025042,0.049223,-0.014887,-0.014381,0.0014871,-0.00017954,-0.0013022,0,0,0,0.024695,0.00026087,-1.1755e-05,0.012354,0.0083149,0.024572,7.6193e-07,0.45,1,0.3
0.024725,-0.0069819,0.0029254,0.025072,-6.6651e-06,0.00040627,0.00032773,8.2528e-05,-0.00032723,0.049904,-0.0153,-0.014227,0.0017042,0.00042915,-0.0017016,0,0,0,0.025081,0.00043356,-4.3452e-05,0.012562,0.0084905,0.024891,7.9103e-07,0.5,1,0.3
0.027238,-0.0068593,0.0029172,0.025451,-7.0925e-05,0.0005789,0.00028077,0.00019802,-0.00030132,0.050596,-0.01576,-0.01407,0.00146,0.0010297,-0.0015669,0,0,0,0.025458,0.00064391,-0.00014358,0.012801,0.0086529,0.025218,8.2099e-07,0.55,1,0.3
0.029784,-0.0067996,0.0029216,0.025716,-0.00011844,0.00067204,0.00015052,0.00027206,-0.00019004,0.051101,-0.01607,-0.014015,0.00078271,0.0014147,-0.00098822,0,0,0,0.02572,0.00077018,-0.00022009,0.01297,0.0087567,0.02546,8.434e-07,0.6,1,0.3
0.032348,-0.0068443,0.0029544,0.025792,-0.00011552,0.00064192,-1.5623e-05,0.00027407,-3.6297e-05,0.051267,-0.016091,-0.014122,-8.1239e-05,0.0014252,-0.00018874,0,0,0,0.025793,0.00074503,-0.00021986,0.013006,0.0087726,0.025544,8.5203e-07,0.65,1,0.3
0.034911,-0.006998,0.0030193,0.025673,-6.2819e-05,0.00048093,-0.00015219,0.00020402,0.00010601,0.051095,-0.015818,-0.014404,-0.00079139,0.0010609,0.00055124,0,0,0,0.025675,0.00056022,-0.00014426,0.01291,0.0086971,0.025476,8.4683e-07,0.7,1,0.3
0.037458,-0.0072286,0.003108,0.025431,5.4714e-06,0.00021718,-0.00021363,9.1833e-05,0.00019704,0.050729,-0.015378,-0.014828,-0.0011109,0.00047753,0.0010246,0,0,0,0.025435,0.00029885,-8.0098e-05,0.012758,0.0085514,0.025329,8.3384e-07,0.75,1,0.3
0.039984,-0.0074853,0.0032056,0.025166,4.6325e-05,-9.5425e-05,-0.00019722,-2.4023e-05,0.00022455,0.050362,-0.01495,-0.015318,-0.0010256,-0.00012492,0.0011676,0,0,0,0.02517,0.00012112,-0.00017431,0.012672,0.0083724,0.025199,8.2135e-07,0.8,1,0.3
0.042494,-0.0077195,0.0032963,0.024955,3.9632e-05,-0.00039749,-0.00013653,-0.00011521,0.00019913,0.050124,-0.014655,-0.015792,-0.00070998,-0.0005991,0.0010355,0,0,0,0.024958,7.1972e-05,-0.00043266,0.012695,0.008199,0.025143,8.1507e-07,0.85,1,0.3
0.044996,-0.0078989,0.0033679,0.024827,2.3381e-06,-0.00063979,-7.2635e-05,-0.0001719,0.00014202,0.050037,-0.014508,-0.016177,-0.0003777,-0.00089386,0.00073851,0,0,0,0.024829,5.3211e-05,-0.00069201,0.01276,0.0080633,0.025157,8.1536e-07,0.9,1,0.3
0.047498,-0.0080089,0.003413,0.024771,-3.4183e-05,-0.00079241,-6.3043e-05,-0.00019937,8.7302e-05,0.050037,-0.014455,-0.016427,-0.00032783,-0.0010367,0.00045397,0,0,0,0.024771,2.4634e-05,-0.0008519,0.012812,0.0079814,0.025197,8.1846e-07,0.95,1,0.3
0.048749,-0.0080456,0.0034284,0.024756,-4.8662e-05,-0.00084403,-8.1733e-05,-0.0002071,6.6151e-05,0.050048,-0.014445,-0.016513,-0.00042501,-0.0010769,0.00034399,0,0,0,0.024757,1.1967e-05,-0.00090527,0.012831,0.0079546,0.025216,8.201e-07,1,1,0.3
0.00133,0.0012194,0.00019957,0.032269,0.0087537,0.011595,0.0069283,3.6974e-06,0.0015147,0.052329,-0.0088116,-0.0014231,0.036027,1.9227e-05,0.0078765,0,0,0,0.034566,0.011547,0.0065055,0.01403,0.017539,0.025939,8.3848e-07,0,0,0.35
0.0026165,0.0022274,0.00039584,0.029853,0.0052129,0.0091101,0.0050395,1.1134e-05,0.0014727,0.051113,-0.012952,-0.0028197,0.026205,5.7894e-05,0.0076579,0,0,0,0.031275,0.0090386,0.0038623,0.013707,0.014725,0.025248,7.4338e-07,0.05,0,0.35
0.0051113,0.0039078,0.00077767,0.026371,0.001202,0.0055123,0.0022353,2.8949e-05,0.0013474,0.048713,-0.016726,-0.0055191,0.011623,0.00015054,0.0070067,0,0,0,0.026731,0.0054252,0.00092961,0.0129,0.011028,0.023889,6.1896e-07,0.1,0,0.35
0.0074878,0.0050424,0.0011306,0.024767,0.00045056,0.0035851,0.00094288,4.728e-05,0.0011496,0.047112,-0.01611,-0.0079602,0.004903,0.00024586,0.0059777,0,0,0,0.024888,0.0035189,0.00039513,0.012247,0.0096008,0.0231,5.9385e-07,0.15,0,0.35
0.0098225,0.0058205,0.0014416,0.0241,9.119e-05,0.0022413,0.0003766,5.9703e-05,0.00090617,0.0468,-0.015622,-0.010032,0.0019583,0.00031045,0.0047121,0,0,0,0.024152,0.0022018,7.8872e-05,0.012036,0.0088108,0.023092,6.1475e-07,0.2,0,0.35
0.012168,0.0063486,0.0017031,0.024002,-1.6053e-05,0.0013514,8.656e-05,6.5049e-05,0.00065209,0.047204,-0.015244,-0.011689,0.00045011,0.00033826,0.0033909,0,0,0,0.024025,0.0013343,-2.1681e-05,0.012023,0.0084459,0.023402,6.5146e-07,0.25,0,0.35
0.014543,0.0066971,0.0019132,0.02414,-5.2581e-05,0.00075302,-7.1096e-05,6.3583e-05,0.00041723,0.04786,-0.015041,-0.012946,-0.0003697,0.00033063,0.0021696,0,0,0,0.024149,0.00075119,-6.0126e-05,0.012105,0.0082802,0.023816,6.9175e-07,0.3,0,0.35
0.016954,0.0069147,0.0020754,0.024383,-6.122e-05,0.00036838,-0.00015916,5.6336e-05,0.00022044,0.048582,-0.014973,-0.013856,-0.00082765,0.00029295,0.0011463,0,0,0,0.024387,0.00037602,-7.2769e-05,0.01223,0.0082302,0.02424,7.3118e-07,0.35,0,0.35
0.019401,0.0070385,0.0021959,0.024666,-6.2801e-05,0.00013788,-0.00020388,4.4811e-05,6.966e-05,0.049288,-0.015008,-0.014486,-0.0010602,0.00023302,0.00036223,0,0,0,0.024669,0.00015153,-7.8809e-05,0.012374,0.0082472,0.024634,7.6792e-07,0.4,0,0.35
0.021883,0.0070982,0.0022826,0.024953,-6.481e-05,1.4222e-05,-0.00021668,3.0879e-05,-3.5161e-05,0.049936,-0.01511,-0.014904,-0.0011267,0.00016057,-0.00018284,0,0,0,0.024955,3.1561e-05,-8.4406e-05,0.01252,0.0083008,0.024982,8.0099e-07,0.45,0,0.35
0.024395,0.0071189,0.0023433,0.025216,-6.8707e-05,-4.189e-05,-0.00020319,1.6676e-05,-9.887e-05,0.050499,-0.015242,-0.015172,-0.0010566,8.6715e-05,-0.00051412,0,0,0,0.025219,-2.3966e-05,-8.8916e-05,0.012654,0.0083686,0.025275,8.2946e-07,0.5,0,0.35
0.026933,0.0071215,0.0023854,0.025435,-7.2318e-05,-6.2568e-05,-0.00016829,4.3849e-06,-0.00012883,0.050951,-0.015368,-0.015343,-0.00087509,2.2802e-05,-0.00066991,0,0,0,0.025437,-4.5763e-05,-9.1102e-05,0.012764,0.0084334,0.025506,8.5227e-07,0.55,0,0.35
0.02949,0.0071221,0.0024151,0.025593,-7.211e-05,-7.2483e-05,-0.00011872,-4.1402e-06,-0.00013345,0.051273,-0.015456,-0.015457,-0.00061736,-2.1529e-05,-0.00069395,0,0,0,0.025594,-5.3073e-05,-9.2932e-05,0.012844,0.0084828,0.025667,8.6855e-07,0.6,0,0.35
0.03206,0.0071315,0.002437,0.025682,-6.5434e-05,-8.8293e-05,-6.3477e-05,-7.7906e-06,-0.00012121,0.051456,-0.015487,-0.015546,-0.00033008,-4.0511e-05,-0.00063031,0,0,0,0.025683,-5.4155e-05,-0.00010042,0.012891,0.0085093,0.02576,8.7793e-07,0.65,0,0.35
0.034635,0.0071547,0.0024544,0.025703,-5.2083e-05,-0.00011849,-1.2261e-05,-6.4792e-06,-9.9826e-05,0.051509,-0.015455,-0.015628,-6.3757e-05,-3.3692e-05,-0.00051909,0,0,0,0.025704,-4.7968e-05,-0.00012307,0.012913,0.0085109,0.025789,8.8092e-07,0.7,0,0.35
0.037211,0.0071908,0.0024691,0.02567,-3.442e-05,-0.00016405,2.6824e-05,-1.127e-06,-7.5564e-05,0.051458,-0.015372,-0.015709,0.00013949,-5.8606e-06,-0.00039293,0,0,0,0.02567,-3.3654e-05,-0.00016511,0.012917,0.0084904,0.02577,8.7885e-07,0.75,0,0.35
0.039781,0.0072353,0.0024818,0.0256,-1.6125e-05,-0.00022005,4.9174e-05,6.6452e-06,-5.2805e-05,0.051342,-0.01526,-0.015791,0.0002557,3.4555e-05,-0.00027459,0,0,0,0.0256,-1.5819e-05,-0.00022059,0.01291,0.0084547,0.025719,8.736e-07,0.8,0,0.35
0.042345,0.0072809,0.0024925,0.025517,-4.9505e-07,-0.00027795,5.4218e-05,1.4975e-05,-3.3918e-05,0.051202,-0.015145,-0.015866,0.00028193,7.7869e-05,-0.00017637,0,0,0,0.025517,4.1826e-07,-0.00027905,0.012898,0.0084129,0.025658,8.672e-07,0.85,0,0.35
0.044901,0.00732,0.0025007,0.025442,1.0663e-05,-0.00032812,4.4623e-05,2.2176e-05,-1.9481e-05,0.051074,-0.015047,-0.015928,0.00023204,0.00011531,-0.0001013,0,0,0,0.025442,1.2423e-05,-0.00033,0.012886,0.0083747,0.025602,8.614e-07,0.9,0,0.35
0.047452,0.0073463,0.0025059,0.02539,1.7047e-05,-0.00036206,3.4116e-05,2.6991e-05,-6.9629e-06,0.050986,-0.014982,-0.015968,0.00017741,0.00014035,-3.6207e-05,0,0,0,0.02539,1.9457e-05,-0.00036453,0.012877,0.0083482,0.025564,8.5744e-07,0.95,0,0.35
0.048727,0.0073556,0.0025077,0.025371,1.9085e-05,-0.00037404,3.1574e-05,2.8677e-05,-5.7758e-07,0.050955,-0.01496,-0.015982,0.00016419,0.00014912,-3.0034e-06,0,0,0,0.025371,2.1729e-05,-0.00037673,0.012874,0.0083387,0.025551,8.5605e-07,1,0,0.35
0.0011731,0.0010338,0.00019829,0.029382,0.0083986,0.010626,0.0062816,7.5176e-06,0.0015027,0.047348,-0.0072074,-0.0014159,0.032664,3.9091e-05,0.007814,0,0,0,0.03144,0.01058,0.006387,0.012526,0.016135,0.023267,6.2508e-07,0,0.05,0.35
0.0023674,0.0019408,0.00039342,0.028077,0.0054633,0.0086589,0.004897,1.8022e-05,0.0014593,0.04768,-0.011115,-0.0028062,0.025465,9.3716e-05,0.0075883,0,0,0,0.029445,0.0085901,0.0041643,0.01264,0.014066,0.023404,6.0657e-07,0.05,0.05,0.35
0.004768,0.0035125,0.00077313,0.026303,0.0019177,0.0057194,0.0026622,4.1182e-05,0.0013327,0.048024,-0.015378,-0.0054938,0.013844,0.00021415,0.0069301,0,0,0,0.026765,0.0056356,0.0015393,0.012613,0.011313,0.023463,5.9743e-07,0.1,0.05,0.35
0.0071698,0.0046424,0.0011242,0.025452,0.00096613,0.0039631,0.0013445,6.3717e-05,0.0011361,0.047946,-0.015717,-0.0079245,0.0069912,0.00033133,0.0059078,0,0,0,0.025623,0.0039,0.00085845,0.012382,0.010127,0.023401,6.2054e-07,0.15,0.05,0.35
0.0095626,0.0054281,0.0014336,0.024913,0.00047797,0.0026231,0.00061625,7.9236e-05,0.00089613,0.047965,-0.015566,-0.0099884,0.0032045,0.00041203,0.0046599,0,0,0,0.024979,0.0025863,0.00044865,0.012265,0.009338,0.023541,6.5192e-07,0.2,0.05,0.35
0.011966,0.0059641,0.0016939,0.024727,0.00025647,0.0016743,0.00020516,8.5942e-05,0.00064661,0.048295,-0.015328,-0.011641,0.0010668,0.0004469,0.0033624,0,0,0,0.024752,0.0016604,0.00024476,0.012254,0.0088858,0.023835,6.8802e-07,0.25,0.05,0.35
0.014392,0.0063176,0.0019034,0.024735,0.00014123,0.0010141,-3.4575e-05,8.3829e-05,0.00041621,0.048777,-0.015167,-0.012898,-0.00017979,0.00043591,0.0021643,0,0,0,0.024745,0.0010163,0.0001294,0.012308,0.0086302,0.024186,7.2418e-07,0.3,0.05,0.35
0.016844,0.0065373,0.0020653,0.024849,7.3561e-05,0.00057225,-0.00017578,7.3959e-05,0.00022304,0.04931,-0.015105,-0.013809,-0.00091404,0.00038459,0.0011598,0,0,0,0.024853,0.00058379,5.7729e-05,0.012398,0.0084982,0.024537,7.5828e-07,0.35,0.05,0.35
0.019323,0.0066606,0.002186,0.025014,2.4065e-05,0.00029062,-0.00025291,5.815e-05,7.4722e-05,0.049838,-0.015134,-0.014441,-0.0013151,0.00030238,0.00038856,0,0,0,0.025017,0.00030582,5.4817e-06,0.012506,0.0084428,0.024863,7.8949e-07,0.4,0.05,0.35
0.021828,0.0067182,0.002273,0.025197,-1.9589e-05,0.00012192,-0.00028193,3.8859e-05,-2.873e-05,0.050332,-0.01523,-0.014862,-0.001466,0.00020207,-0.0001494,0,0,0,0.0252,0.00013631,-3.766e-05,0.012619,0.008433,0.025152,8.1738e-07,0.45,0.05,0.35
0.024356,0.0067359,0.0023342,0.025373,-5.9714e-05,2.7394e-05,-0.00027101,1.9062e-05,-9.194e-05,0.050766,-0.01536,-0.015133,-0.0014093,9.9121e-05,-0.00047809,0,0,0,0.025377,3.8601e-05,-7.4609e-05,0.012726,0.008447,0.025395,8.413e-07,0.5,0.05,0.35
0.026905,0.0067356,0.0023769,0.025524,-9.2181e-05,-2.3974e-05,-0.00022734,1.9173e-06,-0.00012199,0.051117,-0.015484,-0.015307,-0.0011822,9.9701e-06,-0.00063434,0,0,0,0.025527,-1.4526e-05,-0.00010463,0.012816,0.0084692,0.025587,8.6038e-07,0.55,0.05,0.35
0.029468,0.0067342,0.0024073,0.025633,-0.0001104,-5.5677e-05,-0.00016089,-9.8148e-06,-0.00012707,0.051366,-0.015567,-0.015425,-0.00083661,-5.1037e-05,-0.00066077,0,0,0,0.025635,-4.3405e-05,-0.00012461,0.01288,0.008489,0.025719,8.7378e-07,0.6,0.05,0.35
0.032041,0.0067431,0.0024299,0.025693,-0.00010967,-8.3836e-05,-8.5003e-05,-1.4459e-05,-0.00011553,0.051502,-0.015585,-0.015518,-0.00044202,-7.5188e-05,-0.00060077,0,0,0,0.025694,-6.0111e-05,-0.0001344,0.012914,0.0084998,0.025791,8.8115e-07,0.65,0.05,0.35
0.034618,0.0067673,0.0024481,0.025704,-9.0371e-05,-0.00011758,-1.4125e-05,-1.1885e-05,-9.5034e-05,0.051533,-0.015533,-0.015603,-7.3449e-05,-6.1801e-05,-0.00049418,0,0,0,0.025705,-6.4941e-05,-0.00014349,0.012924,0.0084987,0.025809,8.8293e-07,0.7,0.05,0.35
0.037194,0.0068059,0.0024635,0.025675,-5.816e-05,-0.00015975,3.9808e-05,-3.4908e-06,-7.1789e-05,0.05148,-0.015425,-0.015689,0.000207,-1.8152e-05,-0.0003733,0,0,0,0.025675,-5.1383e-05,-0.00016687,0.012921,0.0084856,0.025784,8.8039e-07,0.75,0.05,0.35
0.039766,0.0068533,0.0024769,0.025619,-2.1507e-05,-0.0002081,7.0178e-05,8.2862e-06,-5.0079e-05,0.051377,-0.01529,-0.015775,0.00036493,4.3088e-05,-0.00026041,0,0,0,0.02562,-2.0613e-05,-0.00020934,0.012915,0.0084633,0.025735,8.7526e-07,0.8,0.05,0.35
0.042332,0.006902,0.0024881,0.025555,1.1774e-05,-0.00025689,7.6369e-05,2.0696e-05,-3.215e-05,0.051257,-0.015155,-0.015854,0.00039712,0.00010762,-0.00016718,0,0,0,0.025555,1.3739e-05,-0.00025917,0.012907,0.0084367,0.025679,8.6938e-07,0.85,0.05,0.35
0.044892,0.0069437,0.0024968,0.025497,3.6789e-05,-0.00029886,6.2386e-05,3.1306e-05,-1.8484e-05,0.051152,-0.015045,-0.015918,0.00032441,0.00016279,-9.6116e-05,0,0,0,0.025497,4.0536e-05,-0.00030281,0.0129,0.0084117,0.02563,8.6423e-07,0.9,0.05,0.35
0.047447,0.0069717,0.0025022,0.025458,5.1754e-05,-0.00032722,4.4426e-05,3.8349e-05,-6.4518e-06,0.05108,-0.014975,-0.01596,0.00023102,0.00019942,-3.3549e-05,0,0,0,0.025458,5.6845e-05,-0.00033241,0.012895,0.008394,0.025598,8.6079e-07,0.95,0.05,0.35
0.048724,0.0069815,0.0025041,0.025444,5.6668e-05,-0.00033724,3.7781e-05,4.0806e-05,-2.2291e-07,0.051056,-0.01495,-0.015975,0.00019646,0.00021219,-1.1592e-06,0,0,0,0.025444,6.2243e-05,-0.00034288,0.012893,0.0083877,0.025586,8.5959e-07,1,0.05,0.35
0.00098397,0.00075366,0.00019694,0.025857,0.0084376,0.0095822,0.0052285,1.6147e-05,0.0014903,0.040901,-0.004388,-0.0014122,0.027188,8.3962e-05,0.0077497,0,0,0,0.027501,0.0095398,0.0068352,0.010333,0.014625,0.01947,3.5931e-07,0,0.1,0.35
0.0020451,0.0014769,0.00039093,0.025769,0.0063696,0.0082418,0.0045859,3.3283e-05,0.0014457,0.042772,-0.0076673,-0.0027997,0.023847,0.00017307,0.0075175,0,0,0,0.027023,0.0081779,0.0051799,0.010921,0.01346,0.020524,4.1959e-07,0.05,0.1,0.35
0.0042772,0.0028109,0.00076856,0.025925,0.0033779,0.0060499,0.0032565,6.7433e-05,0.0013177,0.046194,-0.012429,-0.0054823,0.016934,0.00035065,0.0068522,0,0,0,0.026549,0.0059703,0.0028344,0.011857,0.011784,0.022324,5.3799e-07,0.1,0.1,0.35
0.0066645,0.0038762,0.0011177,0.026129,0.0019657,0.0044743,0.0020154,9.7882e-05,0.001122,0.048394,-0.01443,-0.0079082,0.01048,0.00050899,0.0058344,0,0,0,0.026396,0.0044142,0.0017583,0.012319,0.010856,0.023431,6.3255e-07,0.15,0.1,0.35
0.0091165,0.0046527,0.0014253,0.025987,0.0012022,0.0031735,0.0010899,0.00011917,0.00088497,0.049349,-0.015092,-0.0099667,0.0056676,0.00061966,0.0046019,0,0,0,0.02609,0.0031415,0.0011315,0.012479,0.010121,0.024022,6.9477e-07,0.2,0.1,0.35
0.011599,0.0051936,0.001684,0.025809,0.00076557,0.0021653,0.00047858,0.00012849,0.00063964,0.04986,-0.015253,-0.011614,0.0024886,0.00066813,0.0033261,0,0,0,0.025845,0.0021592,0.00073603,0.012554,0.00958,0.024431,7.403e-07,0.25,0.1,0.35
0.014102,0.0055529,0.0018921,0.025689,0.00050036,0.0014245,8.4223e-05,0.00012513,0.00041333,0.050224,-0.015268,-0.012865,0.00043796,0.00065069,0.0021493,0,0,0,0.0257,0.0014373,0.0004763,0.012612,0.0092047,0.024759,7.7575e-07,0.3,0.1,0.35
0.016622,0.0057754,0.0020529,0.025631,0.00032024,0.00090087,-0.0001667,0.00010995,0.00022328,0.05053,-0.015279,-0.013769,-0.00086684,0.00057174,0.0011611,0,0,0,0.025636,0.00092317,0.00029323,0.012671,0.0089508,0.025034,8.0436e-07,0.35,0.1,0.35
0.019155,0.0058976,0.0021725,0.025621,0.00017783,0.0005432,-0.00031666,8.5117e-05,7.6934e-05,0.050809,-0.015343,-0.014393,-0.0016466,0.00044261,0.00040006,0,0,0,0.025626,0.00056453,0.00015167,0.012737,0.0087806,0.02527,8.2832e-07,0.4,0.1,0.35
0.021703,0.0059506,0.0022585,0.025642,5.062e-05,0.00030622,-0.00038708,5.4152e-05,-2.5334e-05,0.05107,-0.015468,-0.014803,-0.0020128,0.00028159,-0.00013174,0,0,0,0.025648,0.00031898,3.1631e-05,0.012808,0.0086663,0.025474,8.4891e-07,0.45,0.1,0.35
0.024262,0.005962,0.0023189,0.02568,-6.5139e-05,0.0001526,-0.00038921,2.1832e-05,-8.7513e-05,0.051307,-0.01563,-0.015064,-0.0020239,0.00011353,-0.00045507,0,0,0,0.025686,0.00015698,-7.6023e-05,0.012881,0.0085891,0.025647,8.6633e-07,0.5,0.1,0.35
0.026833,0.0059555,0.0023613,0.025719,-0.00015948,5.3225e-05,-0.00033366,-6.3368e-06,-0.00011617,0.051502,-0.015782,-0.015229,-0.0017351,-3.2951e-05,-0.00060407,0,0,0,0.025724,5.5702e-05,-0.00016715,0.012946,0.0085376,0.025781,8.7994e-07,0.55,0.1,0.35
0.029413,0.0059503,0.0023919,0.025747,-0.00021673,-1.3404e-05,-0.00023669,-2.5278e-05,-0.00011941,0.051632,-0.015874,-0.015345,-0.0012308,-0.00013145,-0.00062092,0,0,0,0.02575,-7.5137e-06,-0.00022571,0.012988,0.0085056,0.025868,8.8879e-07,0.6,0.1,0.35
0.031997,0.005959,0.0024155,0.025755,-0.00022579,-6.2393e-05,-0.00012123,-3.1803e-05,-0.00010599,0.051683,-0.015867,-0.015442,-0.00063038,-0.00016538,-0.00055116,0,0,0,0.025756,-5.0791e-05,-0.00023873,0.012998,0.008489,0.025902,8.9236e-07,0.65,0.1,0.35
0.034581,0.0059868,0.0024352,0.025742,-0.00018808,-0.00010384,-1.2459e-05,-2.5667e-05,-8.4246e-05,0.051658,-0.015759,-0.01554,-6.4787e-05,-0.00013347,-0.00043808,0,0,0,0.025742,-7.9729e-05,-0.0002127,0.012977,0.0084832,0.025889,8.9109e-07,0.7,0.1,0.35
0.037162,0.0060319,0.0024528,0.025711,-0.00011806,-0.0001436,6.9147e-05,-9.5675e-06,-6.0893e-05,0.051578,-0.015576,-0.015643,0.00035956,-4.9751e-05,-0.00031664,0,0,0,0.025711,-7.7612e-05,-0.00018451,0.012948,0.008483,0.025842,8.8636e-07,0.75,0.1,0.35
0.039739,0.0060874,0.0024684,0.02567,-3.6659e-05,-0.0001835,0.00011307,1.1944e-05,-4.0307e-05,0.051473,-0.015365,-0.015747,0.00058795,6.2111e-05,-0.0002096,0,0,0,0.025671,-2.8988e-05,-0.0001918,0.012931,0.0084834,0.025782,8.8006e-07,0.8,0.1,0.35
0.04231,0.0061437,0.0024817,0.02563,3.7388e-05,-0.00022178,0.00011942,3.3952e-05,-2.4429e-05,0.051371,-0.01517,-0.015844,0.000621,0.00017655,-0.00012703,0,0,0,0.025631,4.2316e-05,-0.00022734,0.012929,0.0084819,0.025724,8.7396e-07,0.85,0.1,0.35
0.044876,0.0061915,0.002492,0.025597,9.2774e-05,-0.00025431,9.5756e-05,5.2355e-05,-1.3278e-05,0.051291,-0.01502,-0.015922,0.00049793,0.00027224,-6.9043e-05,0,0,0,0.025597,0.00010183,-0.00026378,0.012931,0.0084784,0.02568,8.6921e-07,0.9,0.1,0.35
0.047439,0.0062233,0.0024984,0.025576,0.0001257,-0.0002763,6.3611e-05,6.4381e-05,-3.5226e-06,0.051241,-0.014928,-0.015973,0.00033078,0.00033478,-1.8318e-05,0,0,0,0.025576,0.00013774,-0.00028853,0.012932,0.008475,0.025654,8.6631e-07,0.95,0.1,0.35
0.04872,0.0062344,0.0025007,0.025568,0.00013647,-0.00028408,4.9547e-05,6.8541e-05,1.7446e-06,0.051225,-0.014898,-0.015991,0.00025764,0.00035641,9.0717e-06,0,0,0,0.025568,0.00014958,-0.00029729,0.012933,0.0084735,0.025645,8.6536e-07,1,0.1,0.35
0.00093808,0.00059501,0.00019781,0.024933,0.008952,0.0094518,0.0043919,2.4384e-05,0.0014975,0.038823,-0.0027266,-0.0014272,0.022838,0.00012679,0.0077871,0,0,0,0.02622,0.0094123,0.007704,0.0092581,0.014446,0.017729,2.8079e-07,0,0.15,0.35
0.0019412,0.0011741,0.00039264,0.025003,0.0073508,0.0082918,0.004082,4.756e-05,0.0014531,0.040621,-0.0052755,-0.0028288,0.021227,0.00024731,0.0075563,0,0,0,0.026072,0.0082301,0.006344,0.0098639,0.013549,0.018862,3.4077e-07,0.05,0.15,0.35
0.0040621,0.0022695,0.00077184,0.025462,0.004683,0.0062749,0.0032924,9.0999e-05,0.0013251,0.04435,-0.0096762,-0.0055373,0.017121,0.0004732,0.0068903,0,0,0,0.026111,0.0061951,0.0041136,0.010999,0.01214,0.021042,4.6982e-07,0.1,0.15,0.35
0.0063761,0.0031993,0.0011221,0.026057,0.0029734,0.0047176,0.0023245,0.00012705,0.0011279,0.047499,-0.012518,-0.0079829,0.012088,0.00066064,0.0058652,0,0,0,0.026382,0.0046574,0.0027082,0.011837,0.011249,0.022769,5.942e-07,0.15,0.15,0.35
0.008812,0.0039189,0.0014301,0.026311,0.0019386,0.0034486,0.0014421,0.00015228,0.00088859,0.049389,-0.013978,-0.010052,0.0074988,0.00079188,0.0046207,0,0,0,0.02645,0.0034216,0.0018258,0.012312,0.010566,0.023871,6.8886e-07,0.2,0.15,0.35
0.011315,0.0044387,0.0016883,0.026332,0.0012998,0.0024394,0.00075963,0.00016366,0.00064042,0.05042,-0.014663,-0.0117,0.0039501,0.00085105,0.0033302,0,0,0,0.026383,0.0024453,0.0012427,0.01257,0.010024,0.024563,7.5514e-07,0.25,0.15,0.35
0.013854,0.0047908,0.001895,0.026256,0.00088532,0.0016726,0.00026825,0.00015954,0.00041084,0.050977,-0.014987,-0.01294,0.0013949,0.00082959,0.0021364,0,0,0,0.026271,0.0017032,0.00083936,0.012716,0.0096046,0.025012,8.005e-07,0.3,0.15,0.35
0.016413,0.0050094,0.0020533,0.026157,0.00058932,0.0011131,-7.3462e-05,0.00013979,0.00021725,0.051292,-0.015183,-0.013821,-0.00038201,0.00072693,0.0011297,0,0,0,0.026161,0.0011537,0.00054399,0.012809,0.0092863,0.025319,8.3201e-07,0.35,0.15,0.35
0.018983,0.0051264,0.0021695,0.026066,0.00034574,0.00071759,-0.0002978,0.0001061,6.7633e-05,0.051495,-0.015379,-0.014412,-0.0015485,0.00055173,0.00035169,0,0,0,0.026071,0.00075042,0.00030821,0.012881,0.0090433,0.025545,8.5538e-07,0.4,0.15,0.35
0.021562,0.0051714,0.0022516,0.025998,0.00012019,0.00044409,-0.00042143,6.2448e-05,-3.6627e-05,0.051658,-0.015625,-0.014783,-0.0021914,0.00032473,-0.00019046,0,0,0,0.026005,0.0004598,9.7218e-05,0.012954,0.0088541,0.025729,8.7429e-07,0.45,0.15,0.35
0.024149,0.0051729,0.0023081,0.025952,-9.1969e-05,0.00025672,-0.00045175,1.5459e-05,-9.8324e-05,0.051805,-0.015909,-0.015002,-0.0023491,8.0385e-05,-0.00051129,0,0,0,0.02596,0.00026125,-0.00010486,0.013033,0.0087055,0.025884,8.9016e-07,0.5,0.15,0.35
0.026743,0.0051573,0.0023472,0.02592,-0.00026991,0.00012792,-0.00039791,-2.6175e-05,-0.00012329,0.051925,-0.016168,-0.015134,-0.0020691,-0.00013611,-0.00064113,0,0,0,0.025927,0.0001327,-0.00028159,0.013104,0.0085926,0.026004,9.0235e-07,0.55,0.15,0.35
0.029341,0.0051468,0.002376,0.025892,-0.00038057,3.8283e-05,-0.00028034,-5.3668e-05,-0.00012005,0.051988,-0.016319,-0.01523,-0.0014578,-0.00027907,-0.00062428,0,0,0,0.025896,4.8247e-05,-0.00039452,0.013145,0.0085164,0.026072,9.0929e-07,0.6,0.15,0.35
0.031942,0.0051564,0.0023997,0.025859,-0.00039961,-2.5746e-05,-0.0001326,-6.1224e-05,-9.9056e-05,0.051973,-0.016299,-0.015327,-0.00068953,-0.00031836,-0.00051509,0,0,0,0.025861,-1.2536e-05,-0.00041436,0.013137,0.0084779,0.026077,9.0992e-07,0.65,0.15,0.35
0.034539,0.0051914,0.0024215,0.02582,-0.0003295,-7.4764e-05,6.6927e-06,-4.8444e-05,-7.0893e-05,0.051882,-0.016106,-0.015444,3.4802e-05,-0.00025191,-0.00036864,0,0,0,0.02582,-6.0929e-05,-0.00034389,0.013082,0.0084718,0.026024,9.048e-07,0.7,0.15,0.35
0.03713,0.0052482,0.0024425,0.025777,-0.00020041,-0.00011714,0.00010711,-2.0349e-05,-4.4035e-05,0.051745,-0.015797,-0.01558,0.00055697,-0.00010582,-0.00022898,0,0,0,0.025778,-7.8919e-05,-0.00023934,0.013009,0.0084865,0.025938,8.9609e-07,0.75,0.15,0.35
0.039713,0.0053168,0.0024622,0.025738,-5.4279e-05,-0.00015756,0.00015536,1.5016e-05,-2.3342e-05,0.051603,-0.015457,-0.015725,0.00080785,7.8085e-05,-0.00012138,0,0,0,0.025739,-2.5873e-05,-0.00018699,0.012963,0.0085087,0.025846,8.8662e-07,0.8,0.15,0.35
0.04229,0.005385,0.0024794,0.025708,7.3915e-05,-0.00019611,0.00015507,4.9661e-05,-1.0109e-05,0.051489,-0.015159,-0.015861,0.00080634,0.00025824,-5.2568e-05,0,0,0,0.025709,8.3321e-05,-0.0002065,0.012958,0.0085285,0.025772,8.7872e-07,0.85,0.15,0.35
0.044862,0.0054417,0.0024929,0.025689,0.00016587,-0.00022923,0.00011966,7.7608e-05,-3.2348e-06,0.051415,-0.014944,-0.015971,0.00062225,0.00040356,-1.6821e-05,0,0,0,0.025689,0.0001824,-0.00024639,0.012968,0.0085418,0.025724,8.7343e-07,0.9,0.15,0.35
0.047432,0.0054788,0.0025014,0.025679,0.0002184,-0.00025189,7.6812e-05,9.5371e-05,2.2551e-06,0.051379,-0.01482,-0.016042,0.00039942,0.00049593,1.1726e-05,0,0,0,0.02568,0.00023983,-0.00027359,0.012977,0.0085486,0.0257,8.7066e-07,0.95,0.15,0.35
0.048716,0.0054917,0.0025043,0.025677,0.00023514,-0.00025996,5.8441e-05,0.00010142,5.6558e-06,0.051368,-0.01478,-0.016067,0.00030389,0.00052739,2.941e-05,0,0,0,0.025677,0.00025829,-0.00028325,0.01298,0.0085506,0.025694,8.6983e-07,1,0.15,0.35
0.00091964,0.00048099,0.00020036,0.024538,0.0091444,0.0093769,0.0036051,2.9771e-05,0.0015178,0.037964,-0.0020603,-0.0014558,0.018747,0.00015481,0.0078928,0,0,0,0.025504,0.0093388,0.0082167,0.0086438,0.014353,0.016757,2.4068e-07,0,0.2,0.35
0.0018982,0.00094938,0.00039748,0.024674,0.0078612,0.008319,0.0034323,5.6862e-05,0.0014736,0.03964,-0.0040734,-0.002883,0.017848,0.00029568,0.0076629,0,0,0,0.025507,0.0082575,0.007089,0.0092092,0.013618,0.017866,2.9568e-07,0.05,0.2,0.35
0.003964,0.0018433,0.00078076,0.025239,0.0056019,0.0064337,0.0029537,0.00010609,0.0013451,0.043256,-0.0077997,-0.005637,0.015359,0.00055165,0.0069946,0,0,0,0.025802,0.006352,0.0051207,0.010341,0.012425,0.020098,4.1938e-07,0.1,0.2,0.35
0.0062238,0.0026244,0.0011341,0.025959,0.0039105,0.0049025,0.0022844,0.00014527,0.001146,0.04663,-0.010696,-0.0081168,0.011879,0.00075539,0.005959,0,0,0,0.026281,0.0048436,0.0036475,0.011317,0.011591,0.022064,5.5078e-07,0.15,0.2,0.35
0.008627,0.0032549,0.0014439,0.026396,0.0027126,0.0036289,0.0015815,0.00017298,0.00090297,0.048987,-0.01259,-0.010207,0.008224,0.00089952,0.0046954,0,0,0,0.026554,0.003615,0.0025686,0.011993,0.010912,0.023483,6.6269e-07,0.2,0.2,0.35
0.011122,0.0037272,0.0017024,0.026577,0.0019052,0.0026147,0.00096147,0.00018647,0.00064952,0.050443,-0.013705,-0.01186,0.0049996,0.00096966,0.0033775,0,0,0,0.026643,0.0026492,0.0018053,0.012419,0.010366,0.024428,7.4647e-07,0.25,0.2,0.35
0.013671,0.0040543,0.0019076,0.026584,0.0013501,0.0018368,0.00046185,0.00018296,0.00041329,0.051255,-0.014352,-0.013087,0.0024016,0.00095142,0.0021491,0,0,0,0.026605,0.0019084,0.0012569,0.012674,0.0099235,0.02503,8.0379e-07,0.3,0.2,0.35
0.016248,0.0042571,0.0020626,0.026496,0.00093587,0.0012615,7.7645e-05,0.00016041,0.00021211,0.051673,-0.014783,-0.013936,0.00040375,0.00083414,0.001103,0,0,0,0.026501,0.0013436,0.00084827,0.012827,0.0095644,0.025409,8.416e-07,0.35,0.2,0.35
0.018839,0.0043597,0.0021737,0.026373,0.00057991,0.00084797,-0.00020277,0.00011854,5.4985e-05,0.051889,-0.015173,-0.014476,-0.0010544,0.00061638,0.00028592,0,0,0,0.026376,0.0009064,0.000518,0.012929,0.0092669,0.025666,8.6781e-07,0.4,0.2,0.35
0.021437,0.0043881,0.0022493,0.026252,0.00023358,0.00055483,-0.0003811,6.0563e-05,-5.4928e-05,0.05203,-0.015617,-0.014781,-0.0019817,0.00031493,-0.00028563,0,0,0,0.026258,0.00057752,0.00020454,0.013027,0.0090133,0.025869,8.8857e-07,0.45,0.2,0.35
0.024042,0.0043711,0.0022989,0.026149,-0.00010841,0.00034642,-0.00045122,-5.062e-06,-0.00011815,0.052156,-0.016114,-0.014932,-0.0023464,-2.6323e-05,-0.00061438,0,0,0,0.026158,0.00035309,-0.00012356,0.013141,0.0087958,0.026047,9.0652e-07,0.5,0.2,0.35
0.026653,0.0043387,0.002332,0.026068,-0.00040744,0.00019641,-0.00041237,-6.5026e-05,-0.00013883,0.052262,-0.016573,-0.015003,-0.0021443,-0.00033814,-0.00072194,0,0,0,0.026075,0.00020813,-0.00042659,0.013251,0.0086188,0.026191,9.2075e-07,0.55,0.2,0.35
0.029268,0.0043184,0.0023571,0.025999,-0.00059905,8.8705e-05,-0.00028437,-0.00010423,-0.00012583,0.052305,-0.016851,-0.015063,-0.0014787,-0.00054197,-0.00065432,0,0,0,0.026004,0.00010946,-0.00062403,0.013314,0.0084964,0.026269,9.2843e-07,0.6,0.2,0.35
0.031883,0.0043291,0.0023805,0.025938,-0.00063273,1.3142e-05,-0.00011237,-0.00011157,-9.2619e-05,0.052249,-0.016836,-0.015157,-0.0005843,-0.00058017,-0.00048162,0,0,0,0.02594,3.7217e-05,-0.0006583,0.013299,0.0084396,0.026258,9.2745e-07,0.65,0.2,0.35
0.034493,0.0043762,0.0024053,0.025883,-0.00051197,-4.1089e-05,4.7579e-05,-8.6461e-05,-5.4218e-05,0.052097,-0.016529,-0.015305,0.00024741,-0.0004496,-0.00028193,0,0,0,0.025883,-2.1396e-05,-0.00053234,0.013208,0.0084432,0.026165,9.1857e-07,0.7,0.2,0.35
0.037093,0.0044522,0.0024317,0.025836,-0.00029564,-8.6118e-05,0.00015325,-3.8842e-05,-2.2171e-05,0.051902,-0.016041,-0.015497,0.00079689,-0.00020198,-0.00011529,0,0,0,0.025837,-5.4694e-05,-0.00032818,0.013083,0.0084849,0.026031,9.0544e-07,0.75,0.2,0.35
0.039683,0.0045417,0.0024578,0.025806,-6.083e-05,-0.00013011,0.00019146,1.7138e-05,-1.7465e-06,0.051727,-0.015527,-0.015707,0.00099558,8.9115e-05,-9.082e-06,0,0,0,0.025808,4.6448e-07,-0.00019289,0.013,0.0085384,0.025905,8.9261e-07,0.8,0.2,0.35
0.042265,0.0046278,0.0024811,0.025795,0.00013419,-0.00017413,0.00017443,6.8878e-05,7.3695e-06,0.051614,-0.015104,-0.015906,0.00090701,0.00035816,3.8321e-05,0,0,0,0.025796,0.00014999,-0.00019117,0.012994,0.0085851,0.025819,8.8335e-07,0.85,0.2,0.35
0.044844,0.0046971,0.0024992,0.025799,0.00026488,-0.00021348,0.00012524,0.00010836,8.4377e-06,0.051566,-0.014821,-0.016065,0.00065123,0.00056346,4.3876e-05,0,0,0,0.025799,0.00029143,-0.00024073,0.01302,0.0086166,0.025778,8.7847e-07,0.9,0.2,0.35
0.047422,0.0047413,0.0025107,0.025807,0.00033438,-0.00024104,7.8554e-05,0.00013233,8.8996e-06,0.051558,-0.014671,-0.016167,0.00040848,0.00068814,4.6278e-05,0,0,0,0.025807,0.00036788,-0.00027483,0.013041,0.0086334,0.025767,8.7675e-07,0.95,0.2,0.35
0.048711,0.0047565,0.0025146,0.025811,0.00035548,-0.00025094,6.1449e-05,0.00014029,1.0349e-05,0.051559,-0.014625,-0.016202,0.00031953,0.00072952,5.3814e-05,0,0,0,0.025811,0.00039134,-0.00028695,0.013049,0.0086385,0.025766,8.7644e-07,1,0.2,0.35
0.00091399,0.00038899,0.000204,0.024418,0.0092766,0.009362,0.0029395,3.2545e-05,0.0015465,0.037653,-0.0017147,-0.0014927,0.015285,0.00016923,0.0080417,0,0,0,0.025139,0.0093289,0.0085884,0.0082754,0.014352,0.016195,2.1887e-07,0,0.25,0.35
0.0018826,0.00076672,0.00040434,0.024571,0.0081723,0.0083466,0.0028331,6.1675e-05,0.0015024,0.03923,-0.0034058,-0.0029526,0.014732,0.00032071,0.0078124,0,0,0,0.025207,0.0082914,0.0075914,0.0088076,0.013696,0.017278,2.6986e-07,0.05,0.25,0.35
0.003923,0.0014896,0.00079332,0.025167,0.0061978,0.0065271,0.0025283,0.00011404,0.0013735,0.042699,-0.0066206,-0.0057646,0.013147,0.00059302,0.0071421,0,0,0,0.025623,0.0064552,0.0058135,0.0099048,0.012631,0.019499,3.8709e-07,0.1,0.25,0.35
0.0061525,0.0021297,0.0011509,0.025936,0.0046217,0.0050234,0.002079,0.00015549,0.001173,0.046086,-0.0093325,-0.0082881,0.010811,0.00080853,0.0060999,0,0,0,0.026222,0.0049882,0.0043713,0.010925,0.01186,0.021551,5.181e-07,0.15,0.25,0.35
0.0085316,0.00266,0.0014635,0.026458,0.0033904,0.0037506,0.0015698,0.00018613,0.00092759,0.048631,-0.011344,-0.010408,0.0081629,0.00096785,0.0048235,0,0,0,0.026615,0.0037881,0.0031955,0.01171,0.0112,0.02313,6.3727e-07,0.2,0.25,0.35
0.011016,0.0030683,0.001723,0.026729,0.0024888,0.0027297,0.0010753,0.00020352,0.00066976,0.050328,-0.012698,-0.012071,0.0055915,0.0010583,0.0034828,0,0,0,0.026804,0.0028474,0.0022961,0.012254,0.010649,0.024238,7.3151e-07,0.25,0.25,0.35
0.013564,0.0033556,0.0019271,0.026795,0.001835,0.0019457,0.00063466,0.00020355,0.0004268,0.051322,-0.013574,-0.013287,0.0033002,0.0010585,0.0022194,0,0,0,0.026824,0.0021253,0.001626,0.012599,0.010192,0.024953,7.9743e-07,0.3,0.25,0.35
0.016148,0.0035312,0.0020783,0.02672,0.0013286,0.0013655,0.00025759,0.00018089,0.00021623,0.051824,-0.014194,-0.014098,0.0013394,0.00094062,0.0011244,0,0,0,0.026729,0.0015573,0.0011282,0.0128,0.0098048,0.025389,8.3989e-07,0.35,0.25,0.35
0.018747,0.0036091,0.0021828,0.026571,0.0008727,0.00094728,-5.2644e-05,0.00013101,4.8014e-05,0.05205,-0.014765,-0.014572,-0.00027375,0.00068123,0.00024967,0,0,0,0.026574,0.0010791,0.00073806,0.012918,0.0094636,0.025667,8.6799e-07,0.4,0.25,0.35
0.021353,0.0036097,0.0022493,0.026398,0.00039683,0.0006456,-0.0002801,5.4522e-05,-7.1868e-05,0.052171,-0.015433,-0.014786,-0.0014565,0.00028351,-0.00037371,0,0,0,0.026403,0.00069305,0.0003449,0.013029,0.0091468,0.025886,8.903e-07,0.45,0.25,0.35
0.023964,0.0035615,0.0022886,0.026237,-0.00010456,0.00042368,-0.00039701,-3.8585e-05,-0.00014055,0.052283,-0.016206,-0.014832,-0.0020644,-0.00020064,-0.00073089,0,0,0,0.026244,0.00043828,-0.00012632,0.013185,0.0088522,0.026094,9.1088e-07,0.5,0.25,0.35
0.026581,0.0035,0.0023123,0.026105,-0.00056349,0.00025715,-0.00038548,-0.00012792,-0.0001587,0.052394,-0.016944,-0.014811,-0.0020045,-0.0006652,-0.00082525,0,0,0,0.026112,0.00028456,-0.00059775,0.013355,0.0085996,0.026281,9.2839e-07,0.55,0.25,0.35
0.029203,0.0034617,0.0023315,0.026001,-0.00086839,0.00013314,-0.00025932,-0.00018656,-0.00013417,0.052444,-0.017417,-0.014813,-0.0013485,-0.00097011,-0.00069768,0,0,0,0.026005,0.0001763,-0.00091545,0.01346,0.008422,0.026393,9.3841e-07,0.6,0.25,0.35
0.031825,0.0034728,0.0023544,0.025924,-0.00092114,4.8851e-05,-7.4147e-05,-0.00019297,-8.5119e-05,0.052371,-0.017426,-0.014904,-0.00038557,-0.0010034,-0.00044262,0,0,0,0.025925,9.5315e-05,-0.00096891,0.013447,0.0083505,0.02638,9.3721e-07,0.65,0.25,0.35
0.03444,0.0035385,0.0023842,0.025873,-0.00072579,-6.5606e-06,9.268e-05,-0.00014627,-3.415e-05,0.052186,-0.016972,-0.015102,0.00048194,-0.0007606,-0.00017758,0,0,0,0.025874,2.9267e-05,-0.00076247,0.013318,0.0083803,0.026252,9.2581e-07,0.7,0.25,0.35
0.037044,0.0036441,0.0024191,0.025852,-0.00039043,-5.2566e-05,0.00018735,-6.6333e-05,2.4338e-06,0.051969,-0.01626,-0.015382,0.00097424,-0.00034493,1.2656e-05,0,0,0,0.025853,-1.2778e-05,-0.0004317,0.013142,0.0084696,0.026079,9.0987e-07,0.75,0.25,0.35
0.039637,0.0037641,0.0024549,0.025864,-4.237e-05,-0.0001005,0.00020041,2.1164e-05,2.0231e-05,0.051814,-0.015543,-0.015694,0.0010421,0.00011005,0.0001052,0,0,0,0.025866,5.6793e-05,-0.0002013,0.013034,0.0085738,0.02594,8.9601e-07,0.8,0.25,0.35
0.042225,0.0038746,0.0024869,0.025904,0.0002259,-0.00015316,0.00015749,9.6481e-05,2.2932e-05,0.051764,-0.014999,-0.015984,0.00081894,0.0005017,0.00011924,0,0,0,0.025905,0.00025187,-0.00018026,0.013043,0.0086589,0.025873,8.8845e-07,0.85,0.25,0.35
0.044814,0.0039596,0.0025116,0.025955,0.00038556,-0.00020396,9.6731e-05,0.00014972,1.7013e-05,0.0518,-0.014679,-0.016212,0.000503,0.00077853,8.8467e-05,0,0,0,0.025955,0.00042712,-0.00024604,0.013101,0.0087121,0.025872,8.8728e-07,0.9,0.25,0.35
0.047405,0.0040118,0.002527,0.025998,0.00046021,-0.0002402,5.9885e-05,0.00017968,1.3484e-05,0.051863,-0.014534,-0.016355,0.0003114,0.00093434,7.0117e-05,0,0,0,0.025998,0.00051092,-0.00029112,0.013144,0.0087392,0.025897,8.8917e-07,0.95,0.25,0.35
0.048702,0.0040292,0.0025321,0.026014,0.00048094,-0.00025316,5.3278e-05,0.00018913,1.4163e-05,0.051892,-0.014495,-0.016403,0.00027704,0.00098347,7.3645e-05,0,0,0,0.026014,0.00053457,-0.00030694,0.013161,0.0087474,0.025911,8.9032e-07,1,0.25,0.35
0.00091472,0.00030952,0.00020822,0.024452,0.0093914,0.0093858,0.002352,3.3263e-05,0.0015798,0.037637,-0.0015196,-0.0015341,0.01223,0.00017297,0.0082149,0,0,0,0.024989,0.0093681,0.0088715,0.0080589,0.01441,0.015876,2.0695e-07,0,0.3,0.35
0.0018818,0.0006088,0.0004123,0.02461,0.0083893,0.0083846,0.0022867,6.289e-05,0.0015361,0.039156,-0.0030184,-0.0030307,0.011891,0.00032703,0.0079875,0,0,0,0.025091,0.0083587,0.0079346,0.0085782,0.013795,0.016949,2.5573e-07,0.05,0.3,0.35
0.0039156,0.0011813,0.00080791,0.025218,0.0065932,0.0065893,0.0020965,0.00011626,0.0014079,0.042526,-0.005898,-0.005908,0.010902,0.00060453,0.0073209,0,0,0,0.025577,0.0065769,0.0062467,0.0096651,0.0128,0.019168,3.6913e-07,0.1,0.3,0.35
0.0061345,0.0016911,0.0011706,0.026012,0.0051231,0.0050994,0.0018115,0.00015954,0.0012085,0.045891,-0.0084209,-0.0084824,0.0094197,0.00082963,0.006284,0,0,0,0.026253,0.00516,0.004822,0.010715,0.012078,0.021264,4.9936e-07,0.15,0.3,0.35
0.0085047,0.0021204,0.0014869,0.026581,0.0039142,0.0038291,0.0014772,0.00019432,0.00096415,0.048515,-0.010417,-0.010639,0.0076817,0.0010105,0.0050136,0,0,0,0.026727,0.0040029,0.0035936,0.011567,0.011441,0.022932,6.2237e-07,0.2,0.3,0.35
0.010986,0.0024575,0.0017484,0.026905,0.0029823,0.0028051,0.0011316,0.00021868,0.00070632,0.050337,-0.011861,-0.012322,0.0058842,0.0011371,0.0036729,0,0,0,0.026985,0.0030972,0.0026093,0.012188,0.010897,0.024136,7.229e-07,0.25,0.3,0.35
0.013538,0.0026968,0.001952,0.027003,0.0022822,0.0020194,0.00079569,0.00022708,0.00046053,0.051425,-0.012849,-0.013532,0.0041376,0.0011808,0.0023948,0,0,0,0.027042,0.0024025,0.0018598,0.012591,0.010435,0.024916,7.9373e-07,0.3,0.3,0.35
0.016129,0.0028377,0.0020996,0.026921,0.0017256,0.0014409,0.00047368,0.00020979,0.00024246,0.051943,-0.013566,-0.014306,0.0024631,0.0010909,0.0012608,0,0,0,0.026937,0.00184,0.0013109,0.012813,0.010029,0.025366,8.371e-07,0.35,0.3,0.35
0.018733,0.0028832,0.0021962,0.026721,0.0012024,0.0010269,0.00017051,0.0001533,6.1143e-05,0.052104,-0.014244,-0.0147,0.00088667,0.00079718,0.00031795,0,0,0,0.026726,0.0013139,0.00091031,0.012908,0.00965,0.025617,8.6255e-07,0.4,0.3,0.35
0.021339,0.0028449,0.0022505,0.026461,0.00060647,0.00072449,-8.7106e-05,5.008e-05,-7.2849e-05,0.052123,-0.015098,-0.014791,-0.00045295,0.00026041,-0.00037882,0,0,0,0.026464,0.00084133,0.00048644,0.012989,0.0092639,0.025802,8.8163e-07,0.45,0.3,0.35
0.023945,0.0027505,0.0022747,0.026186,-8.2984e-05,0.00048694,-0.00024916,-8.3252e-05,-0.00014988,0.052129,-0.01617,-0.014688,-0.0012956,-0.00043291,-0.00077937,0,0,0,0.02619,0.00052673,-0.00012744,0.013159,0.0088632,0.025999,9.0016e-07,0.5,0.3,0.35
0.026552,0.0026443,0.0022841,0.025948,-0.00073014,0.00030279,-0.00027741,-0.00021642,-0.00017085,0.052152,-0.017211,-0.014525,-0.0014425,-0.0011254,-0.00088842,0,0,0,0.025953,0.00036037,-0.00079268,0.013373,0.0085069,0.026191,9.1607e-07,0.55,0.3,0.35
0.02916,0.0025767,0.0022941,0.025788,-0.0011448,0.00017294,-0.0001923,-0.00031042,-0.00014044,0.052159,-0.017866,-0.01444,-0.00099995,-0.0016142,-0.00073026,0,0,0,0.025791,0.00025905,-0.001234,0.013512,0.008272,0.026312,9.251e-07,0.6,0.3,0.35
0.031768,0.0025865,0.0023165,0.025705,-0.0012205,8.2043e-05,-5.346e-05,-0.00031565,-7.7985e-05,0.052094,-0.017913,-0.014527,-0.00027799,-0.0016414,-0.00040552,0,0,0,0.025707,0.00017093,-0.0013106,0.013509,0.0081889,0.02631,9.2494e-07,0.65,0.3,0.35
0.03437,0.002679,0.0023546,0.025702,-0.00096089,1.931e-05,7.8748e-05,-0.00023104,-1.9599e-05,0.05197,-0.017355,-0.014806,0.00040949,-0.0012014,-0.00010192,0,0,0,0.025703,8.4222e-05,-0.0010267,0.013365,0.0082536,0.026195,9.1678e-07,0.7,0.3,0.35
0.036965,0.0028262,0.0024032,0.025784,-0.00048162,-2.1807e-05,0.00014457,-0.00010367,1.7219e-05,0.05187,-0.016421,-0.015225,0.00075178,-0.00053908,8.9539e-05,0,0,0,0.025785,4.3564e-05,-0.00054824,0.013167,0.0084269,0.026045,9.0517e-07,0.75,0.3,0.35
0.039557,0.0029874,0.0024538,0.025919,9.2636e-06,-6.6209e-05,0.00012415,2.9427e-05,3.1069e-05,0.051872,-0.015493,-0.015689,0.00064559,0.00015302,0.00016156,0,0,0,0.02592,0.00015047,-0.00020865,0.013064,0.0086206,0.025952,8.969e-07,0.8,0.3,0.35
0.042152,0.0031279,0.0024982,0.026069,0.0003461,-0.00013002,5.9086e-05,0.00013834,2.5181e-05,0.052008,-0.014871,-0.016109,0.00030725,0.00071936,0.00013094,0,0,0,0.02607,0.00038962,-0.00017438,0.013122,0.0087616,0.025968,8.9763e-07,0.85,0.3,0.35
0.044757,0.0032292,0.0025314,0.02621,0.00051287,-0.00019658,4.5357e-06,0.00020596,1.2787e-05,0.05223,-0.014582,-0.016427,2.3586e-05,0.001071,6.6494e-05,0,0,0,0.02621,0.00057807,-0.00026225,0.013236,0.0088421,0.026063,9.0615e-07,0.9,0.3,0.35
0.047375,0.0032879,0.0025513,0.026312,0.00057337,-0.00024432,5.3569e-06,0.00023893,1.0486e-05,0.052427,-0.014494,-0.01662,2.7856e-05,0.0012424,5.4525e-05,0,0,0,0.026312,0.00064949,-0.00032069,0.013317,0.0088804,0.026162,9.1561e-07,0.95,0.3,0.35
0.048686,0.003307,0.0025579,0.026349,0.00058559,-0.00026173,2.5004e-05,0.00024849,1.3929e-05,0.052503,-0.014481,-0.016684,0.00013002,0.0012922,7.2433e-05,0,0,0,0.026349,0.00066497,-0.00034131,0.013345,0.0088909,0.026202,9.1958e-07,1,0.3,0.35
0.00091943,0.00023703,0.00021263,0.024584,0.0094959,0.0094353,0.001811,3.2184e-05,0.0016148,0.037809,-0.0014196,-0.0015772,0.0094171,0.00016736,0.0083972,0,0,0,0.024986,0.0094474,0.0090821,0.0079517,0.014505,0.015724,2.0141e-07,0,0.35,0.35
0.0018904,0.00046488,0.00042062,0.024748,0.0085465,0.0084323,0.0017753,6.0875e-05,0.0015721,0.039308,-0.002815,-0.003112,0.0092314,0.00031655,0.008175,0,0,0,0.02511,0.0084692,0.0081473,0.0084813,0.013909,0.016805,2.4961e-07,0.05,0.35,0.35
0.0039308,0.00089975,0.00082323,0.02537,0.00685,0.006637,0.0016707,0.00011308,0.0014466,0.042648,-0.0055043,-0.0060582,0.0086874,0.00058803,0.0075223,0,0,0,0.025649,0.0067501,0.0064584,0.0095952,0.012952,0.019047,3.625e-07,0.1,0.35,0.35
0.0061553,0.0012876,0.0011916,0.026194,0.0054531,0.0051499,0.001517,0.00015749,0.001252,0.046026,-0.0079,-0.0086885,0.0078883,0.00081897,0.0065106,0,0,0,0.026391,0.005384,0.0050217,0.010685,0.012266,0.021191,4.9451e-07,0.15,0.35,0.35
0.0085334,0.0016182,0.0015124,0.026808,0.0042762,0.0038804,0.0013398,0.00019729,0.001015,0.048723,-0.0098609,-0.01089,0.0069672,0.0010259,0.0052778,0,0,0,0.026941,0.0042561,0.0037681,0.011586,0.011655,0.022934,6.2251e-07,0.2,0.35,0.35
0.011028,0.0018821,0.001777,0.027183,0.0033461,0.0028564,0.0011528,0.00023177,0.0007656,0.050644,-0.011332,-0.012605,0.0059945,0.0012052,0.0039811,0,0,0,0.027268,0.0033691,0.0027484,0.01226,0.011128,0.024216,7.2969e-07,0.25,0.35,0.35
0.013598,0.0020707,0.0019818,0.027315,0.0026405,0.0020747,0.00095755,0.00025483,0.00052718,0.051801,-0.012353,-0.013824,0.0049793,0.0013251,0.0027413,0,0,0,0.027368,0.002695,0.0019678,0.0127,0.010677,0.025045,8.0522e-07,0.3,0.35,0.35
0.016208,0.0021746,0.0021268,0.027228,0.0020802,0.0015082,0.00074276,0.00025082,0.00031068,0.052303,-0.013081,-0.014568,0.0038624,0.0013042,0.0016156,0,0,0,0.027259,0.0021514,0.0014065,0.012926,0.010272,0.025488,8.4812e-07,0.35,0.35,0.35
0.018828,0.0021847,0.0022147,0.026947,0.001517,0.0011019,0.00050478,0.00019342,0.00012195,0.052323,-0.013795,-0.014875,0.0026248,0.0010058,0.00063413,0,0,0,0.026964,0.0015879,0.0010146,0.012974,0.0098554,0.025668,8.669e-07,0.4,0.35,0.35
0.02144,0.0020999,0.0022522,0.026505,0.00078736,0.00078498,0.0002903,4.9813e-05,-2.5676e-05,0.052067,-0.014799,-0.014806,0.0015096,0.00025902,-0.00013351,0,0,0,0.026516,0.0010092,0.00055241,0.012982,0.0093592,0.02574,8.7459e-07,0.45,0.35,0.35
0.024035,0.0019445,0.0022549,0.025985,-8.9167e-05,0.00052753,0.00015209,-0.00015548,-0.00010569,0.051706,-0.016086,-0.014482,0.00079085,-0.00080851,-0.0005496,0,0,0,0.025995,0.0006227,-0.00019509,0.013095,0.0088076,0.025795,8.7762e-07,0.5,0.35,0.35
0.026611,0.0017789,0.0022434,0.025606,-0.00085468,0.00032883,6.7107e-05,-0.00033769,-0.0001157,0.051224,-0.017163,-0.014104,0.00033609,-0.0017557,-0.0005997,0,0,0,0.025615,0.00044407,-0.00097867,0.013297,0.0083602,0.025915,8.9191e-07,0.55,0.35,0.35
0.029161,0.0016751,0.0022388,0.025486,-0.0013015,0.00017656,-2.5599e-05,-0.00044462,-0.00010852,0.050734,-0.017676,-0.013889,-0.0001467,-0.002311,-0.00055927,0,0,0,0.025491,0.00032792,-0.0014578,0.013474,0.0081203,0.026103,9.2179e-07,0.6,0.35,0.35
0.031695,0.0016814,0.002261,0.025406,-0.001404,8.0351e-05,-0.00012387,-0.0004489,-0.00010484,0.050694,-0.017774,-0.013972,-0.00063269,-0.0023332,-0.00054087,0,0,0,0.025411,0.000233,-0.0015612,0.013486,0.0080275,0.026122,9.2367e-07,0.65,0.35,0.35
0.034242,0.0018031,0.0023132,0.025372,-0.0011627,2.9982e-05,-0.00016709,-0.00034957,-6.7878e-05,0.051119,-0.017457,-0.014376,-0.00085674,-0.0018174,-0.00035176,0,0,0,0.025379,0.00014903,-0.001289,0.013334,0.0080796,0.025982,8.9851e-07,0.7,0.35,0.35
0.036811,0.002002,0.0023823,0.025609,-0.00060837,-5.4836e-06,-0.00015382,-0.00017017,-1.6039e-05,0.051586,-0.016579,-0.015011,-0.00079985,-0.00088488,-8.3401e-05,0,0,0,0.025617,0.00010368,-0.00072535,0.013171,0.0083316,0.025942,8.9249e-07,0.75,0.35,0.35
0.0394,0.0022148,0.0024547,0.026016,3.145e-05,-3.7773e-05,-0.00014922,4.0948e-05,6.4762e-07,0.052036,-0.015524,-0.015704,-0.00077594,0.00021293,3.3676e-06,0,0,0,0.026021,0.00024363,-0.00025533,0.013138,0.0086699,0.026032,9.0469e-07,0.8,0.35,0.35
0.042014,0.0023875,0.0025169,0.026389,0.00046059,-9.4852e-05,-0.00017721,0.00019858,-1.1658e-05,0.052559,-0.014855,-0.0163,-0.00092152,0.0010326,-6.062e-05,0,0,0,0.026393,0.00053513,-0.00017309,0.013283,0.0089183,0.02622,9.2364e-07,0.85,0.35,0.35
0.044656,0.0025013,0.0025603,0.026667,0.00061968,-0.00017712,-0.00018111,0.00027627,-2.2108e-05,0.053068,-0.014654,-0.016726,-0.00094178,0.0014366,-0.00011496,0,0,0,0.02667,0.00071982,-0.00028001,0.013475,0.0090365,0.026464,9.4805e-07,0.9,0.35,0.35
0.047321,0.0025624,0.0025849,0.026839,0.00063935,-0.00024322,-9.8574e-05,0.00030612,-9.7362e-06,0.05344,-0.014679,-0.016973,-0.00051259,0.0015918,-5.0628e-05,0,0,0,0.02684,0.00075147,-0.00035667,0.013598,0.0090783,0.02666,9.6853e-07,0.95,0.35,0.35
0.048659,0.0025811,0.0025928,0.026899,0.0006333,-0.00026705,-3.1297e-05,0.00031289,4.4281e-06,0.053577,-0.014712,-0.017053,-0.00016274,0.001627,2.3026e-05,0,0,0,0.026899,0.00074858,-0.00038297,0.013641,0.0090883,0.026734,9.7652e-07,1,0.35,0.35
0.00092667,0.00016756,0.00021687,0.02478,0.0095897,0.0095012,0.0012891,2.9214e-05,0.001649,0.038105,-0.001389,-0.0016192,0.0067032,0.00015191,0.0085748,0,0,0,0.025084,0.0095502,0.0092367,0.0079234,0.014623,0.015693,2.0038e-07,0,0.4,0.35
0.0019052,0.00032729,0.00042863,0.024952,0.0086578,0.008487,0.0012766,5.5365e-05,0.001608,0.039616,-0.0027475,-0.0031915,0.0066381,0.0002879,0.0083617,0,0,0,0.025227,0.0085971,0.0082722,0.0084774,0.014032,0.016795,2.4942e-07,0.05,0.4,0.35
0.0039616,0.00063083,0.00083812,0.025602,0.0070012,0.0066778,0.00124,0.00010371,0.0014877,0.042996,-0.0053653,-0.0062061,0.0064481,0.00053928,0.0077359,0,0,0,0.025818,0.0069244,0.0065388,0.0096394,0.013094,0.01909,3.6508e-07,0.1,0.4,0.35
0.0062048,0.00090114,0.0012123,0.026475,0.005641,0.0051873,0.001195,0.00014748,0.0013027,0.046454,-0.0077156,-0.0088951,0.0062139,0.0007669,0.006774,0,0,0,0.026635,0.0055837,0.0050848,0.010775,0.012435,0.021306,5.0264e-07,0.15,0.4,0.35
0.008607,0.0011343,0.0015385,0.027161,0.0044838,0.0039186,0.0011579,0.00019159,0.0010808,0.049281,-0.0096803,-0.01115,0.006021,0.00099628,0.0056201,0,0,0,0.027278,0.0044574,0.0038282,0.011725,0.011855,0.023142,6.3973e-07,0.2,0.4,0.35
0.011133,0.0013243,0.0018079,0.027623,0.0035618,0.0029002,0.0011304,0.00023708,0.00085226,0.051369,-0.011191,-0.012911,0.0058781,0.0012328,0.0044318,0,0,0,0.027711,0.0035675,0.0028073,0.012452,0.011362,0.024533,7.5867e-07,0.25,0.4,0.35
0.013744,0.0014615,0.0020161,0.027839,0.0028684,0.0021327,0.0011019,0.00027893,0.00063915,0.052678,-0.012246,-0.014159,0.0057297,0.0014504,0.0033236,0,0,0,0.027908,0.0029044,0.0020283,0.01294,0.010947,0.025453,8.4513e-07,0.3,0.4,0.35
0.016401,0.0015295,0.0021609,0.027812,0.0023419,0.0015993,0.0010435,0.0002966,0.00044719,0.053259,-0.012963,-0.014893,0.0054263,0.0015423,0.0023254,0,0,0,0.027867,0.0024,0.0014857,0.013191,0.010584,0.025937,8.9349e-07,0.35,0.4,0.35
0.01907,0.0015036,0.0022404,0.027552,0.0017755,0.0012427,0.00094405,0.00023342,0.00027276,0.053293,-0.013726,-0.015111,0.0049091,0.0012138,0.0014183,0,0,0,0.027597,0.0018544,0.0011186,0.013239,0.01019,0.026119,9.1413e-07,0.4,0.4,0.35
0.02173,0.001365,0.0022545,0.027389,0.00088025,0.00091161,0.00089658,-9.7422e-07,0.00017319,0.052639,-0.014852,-0.014834,0.0044928,6.6712e-05,0.00080844,0,0,0,0.027434,0.0012171,0.00052941,0.013453,0.009727,0.026571,1.0108e-06,0.45,0.4,0.35
0.024345,0.001142,0.0022227,0.027324,-0.0001614,0.00055844,0.00088183,-0.00032625,0.00013705,0.050976,-0.01592,-0.014187,0.0041424,-0.0014838,0.00052126,0,0,0,0.027373,0.00076114,-0.00041332,0.013893,0.0092403,0.027225,1.1619e-06,0.5,0.4,0.35
0.026855,0.00092663,0.002184,0.026931,-0.0008643,0.00026589,0.00067014,-0.00049114,8.0214e-05,0.048698,-0.016298,-0.01349,0.003053,-0.0023289,0.00030017,0,0,0,0.026965,0.00050192,-0.0011348,0.01405,0.0087775,0.027323,1.2023e-06,0.55,0.4,0.35
0.029243,0.00080501,0.002167,0.026544,-0.001206,4.064e-05,0.00022588,-0.00048255,-3.3628e-05,0.046937,-0.016199,-0.013098,0.0010061,-0.002395,-0.00016223,0,0,0,0.026558,0.00026489,-0.0014445,0.014001,0.0084596,0.027194,1.1909e-06,0.6,0.4,0.35
0.031575,0.00080501,0.0021892,0.026469,-0.0013382,-6.5667e-05,-0.00027731,-0.00048654,-0.00018031,0.046929,-0.016338,-0.013176,-0.0013198,-0.0024142,-0.00083708,0,0,0,0.026484,0.00015736,-0.0015764,0.01403,0.0083551,0.027241,1.1969e-06,0.65,0.4,0.35
0.033962,0.00093196,0.0022538,0.026708,-0.0012691,-6.7696e-05,-0.00066963,-0.00050342,-0.00026192,0.048689,-0.016725,-0.013751,-0.0031096,-0.0023875,-0.0011605,0,0,0,0.026742,0.00016555,-0.0015358,0.014139,0.0084571,0.027471,1.2223e-06,0.7,0.4,0.35
0.036473,0.0011683,0.0023502,0.02698,-0.00082923,-2.1197e-05,-0.00078634,-0.00034087,-0.00024837,0.05103,-0.016648,-0.014709,-0.003699,-0.0015536,-0.0010581,0,0,0,0.027022,0.00017568,-0.0010679,0.014045,0.0087098,0.027496,1.1968e-06,0.75,0.4,0.35
0.039093,0.001435,0.002458,0.026982,-3.6999e-05,5.488e-05,-0.00067466,-3.0551e-06,-0.0001763,0.052886,-0.015907,-0.015741,-0.0033581,5.8345e-05,-0.0008146,0,0,0,0.027012,0.00036453,-0.00037647,0.013694,0.0089999,0.027029,1.0629e-06,0.8,0.4,0.35
0.041773,0.0016424,0.0025455,0.027143,0.00054374,2.0016e-05,-0.00056004,0.00025563,-0.0001302,0.053947,-0.01521,-0.016572,-0.0029122,0.0013293,-0.00067703,0,0,0,0.027161,0.00068403,-0.0001381,0.013649,0.0092355,0.026898,9.9895e-07,0.85,0.4,0.35
0.044488,0.0017637,0.0025999,0.027476,0.00066949,-0.00011617,-0.00045282,0.00034865,-0.00011421,0.054621,-0.015077,-0.01712,-0.0023547,0.001813,-0.0005939,0,0,0,0.027488,0.00081553,-0.0002735,0.013881,0.0093432,0.027233,1.0345e-06,0.9,0.4,0.35
0.047235,0.0018201,0.0026281,0.02768,0.00062083,-0.00021768,-0.00024549,0.00036676,-5.9116e-05,0.055118,-0.015236,-0.017416,-0.0012766,0.0019071,-0.0003074,0,0,0,0.027685,0.00077911,-0.00038076,0.014033,0.009361,0.027504,1.065e-06,0.95,0.4,0.35
0.048615,0.0018358,0.0026366,0.027751,0.00059139,-0.00025115,-0.00011193,0.00036752,-2.057e-05,0.055297,-0.015317,-0.017508,-0.00058205,0.0019111,-0.00010696,0,0,0,0.027753,0.00075236,-0.000414,0.014083,0.0093636,0.027602,1.0763e-06,1,0.4,0.35
0.00093517,9.8128e-05,0.00022059,0.025007,0.0096695,0.0095745,0.00076398,2.4084e-05,0.0016795,0.038468,-0.0014102,-0.0016572,0.0039727,0.00012524,0.0087334,0,0,0,0.025248,0.0096501,0.0093536,0.007947,0.01475,0.015748,2.0265e-07,0,0.45,0.35
0.0019234,0.00019013,0.00043569,0.025191,0.0087294,0.0085444,0.00076945,4.5769e-05,0.001641,0.040018,-0.0027825,-0.0032635,0.0040012,0.000238,0.0085331,0,0,0,0.025409,0.008701,0.0083551,0.0085269,0.014155,0.016884,2.5368e-07,0.05,0.45,0.35
0.0040018,0.00036322,0.00085136,0.025883,0.0070671,0.0067145,0.00078632,8.6657e-05,0.001528,0.043497,-0.0054244,-0.006341,0.0040889,0.00045062,0.0079457,0,0,0,0.026055,0.0070328,0.0065772,0.0097388,0.013222,0.019254,3.7494e-07,0.1,0.45,0.35
0.0062731,0.00051609,0.0012312,0.026832,0.00571,0.0052188,0.00082792,0.00012645,0.001357,0.047106,-0.0078101,-0.0090875,0.0043052,0.00065754,0.0070565,0,0,0,0.026962,0.0056851,0.0051137,0.010924,0.012587,0.021568,5.219e-07,0.15,0.45,0.35
0.0087124,0.0006502,0.0015631,0.027627,0.0045517,0.0039533,0.0009071,0.00017151,0.0011582,0.05015,-0.0098446,-0.0114,0.0047169,0.00089183,0.0060225,0,0,0,0.027727,0.0045409,0.0038632,0.011932,0.012044,0.023533,6.7349e-07,0.2,0.45,0.35
0.011288,0.00076309,0.0018387,0.02824,0.0036295,0.0029504,0.0010217,0.00022457,0.00096384,0.052532,-0.011455,-0.013221,0.0053129,0.0011678,0.005012,0,0,0,0.028325,0.0036376,0.0028573,0.012734,0.011607,0.025087,8.1262e-07,0.25,0.45,0.35
0.013966,0.0008461,0.002053,0.028653,0.0029543,0.002221,0.0011564,0.0002799,0.00079763,0.054201,-0.012616,-0.014522,0.0060134,0.0014555,0.0041477,0,0,0,0.028734,0.002985,0.0021093,0.013312,0.011276,0.026198,9.2361e-07,0.3,0.45,0.35
0.016708,0.00087827,0.0022009,0.028871,0.0024949,0.0017744,0.0012582,0.00031157,0.00066082,0.05518,-0.013397,-0.015271,0.0065429,0.0016202,0.0034363,0,0,0,0.028952,0.0025447,0.0016434,0.013654,0.011047,0.02687,9.9713e-07,0.35,0.45,0.35
0.019484,0.00081215,0.0022699,0.029333,0.001984,0.001529,0.0013534,0.00019186,0.00055826,0.055359,-0.014194,-0.015392,0.0068431,0.0010589,0.0028239,0,0,0,0.029419,0.0021227,0.0013046,0.014057,0.010949,0.027716,1.1687e-06,0.4,0.45,0.35
0.022254,0.0006136,0.0022467,0.030431,0.00098597,0.001167,0.0014785,-0.0001775,0.00055888,0.053689,-0.015113,-0.014832,0.0068683,-0.00059472,0.002498,0,0,0,0.030529,0.0015402,0.00051482,0.015007,0.010861,0.029519,1.5792e-06,0.45,0.45,0.35
0.024895,0.00034833,0.0021692,0.030936,-0.00017433,0.00055503,0.0014163,-0.00052579,0.00048358,0.049423,-0.015311,-0.01378,0.0060487,-0.0021005,0.0019616,0,0,0,0.03103,0.00089856,-0.00061167,0.015821,0.010439,0.030921,1.8878e-06,0.5,0.45,0.35
0.02726,0.00014051,0.0021133,0.030188,-0.00079125,-2.4883e-06,0.00099291,-0.0005369,0.00021192,0.044476,-0.01455,-0.012758,0.0041114,-0.0022136,0.00090921,0,0,0,0.030244,0.00033167,-0.0011819,0.015713,0.009798,0.030706,1.8397e-06,0.55,0.45,0.35
0.029385,4.2778e-05,0.0021034,0.029567,-0.0010054,-0.00031946,0.00035417,-0.00037542,-3.2042e-05,0.041539,-0.013864,-0.012223,0.001443,-0.0016383,-4.5031e-05,0,0,0,0.029588,-7.7295e-05,-0.0012681,0.015428,0.0094141,0.030288,1.7474e-06,0.6,0.45,0.35
0.031432,3.5137e-05,0.0021261,0.029499,-0.0011574,-0.00044017,-0.00031497,-0.00037758,-0.00019922,0.041557,-0.014006,-0.012298,-0.0013977,-0.0016485,-0.00081783,0,0,0,0.02952,-0.00020245,-0.0014162,0.015468,0.0093006,0.030359,1.7591e-06,0.65,0.45,0.35
0.033558,0.00012185,0.0021842,0.029981,-0.0012753,-0.00038552,-0.00090524,-0.00054678,-0.0004032,0.044551,-0.015013,-0.013012,-0.003845,-0.0022576,-0.0016451,0,0,0,0.030034,-6.4223e-05,-0.00165,0.015842,0.00944,0.030932,1.8802e-06,0.7,0.45,0.35
0.03593,0.00033283,0.002298,0.030618,-0.00099713,-0.00010655,-0.0012416,-0.00054187,-0.00058957,0.049634,-0.01617,-0.014296,-0.0053351,-0.0021703,-0.0023803,0,0,0,0.030698,0.00021289,-0.0013963,0.016047,0.0098382,0.031329,1.9619e-06,0.75,0.45,0.35
0.038587,0.00062288,0.0024526,0.030098,-0.00011,0.00023724,-0.0012034,-0.00017946,-0.00053953,0.054206,-0.016419,-0.015753,-0.0055548,-0.00059545,-0.0023651,0,0,0,0.030169,0.00058012,-0.00052311,0.015346,0.010075,0.030161,1.6787e-06,0.8,0.45,0.35
0.041394,0.00086644,0.0025803,0.029093,0.00059667,0.00027399,-0.00096234,0.00022452,-0.00037916,0.056453,-0.016039,-0.016904,-0.004838,0.0012307,-0.0018927,0,0,0,0.029137,0.00085712,-3.0586e-05,0.014584,0.0099879,0.028736,1.2986e-06,0.85,0.45,0.35
0.044243,0.00099364,0.0026489,0.028813,0.00065817,4.572e-05,-0.00070932,0.00038297,-0.00027637,0.057203,-0.015999,-0.017591,-0.0036885,0.0019914,-0.0014371,0,0,0,0.028838,0.00085095,-0.00017167,0.014505,0.0098389,0.028512,1.1926e-06,0.9,0.45,0.35
0.047115,0.0010388,0.0026784,0.028897,0.00050949,-0.00013942,-0.00038768,0.00039348,-0.00014295,0.057571,-0.016235,-0.017923,-0.0020159,0.0020461,-0.00074332,0,0,0,0.028907,0.0007183,-0.00035845,0.014633,0.0097556,0.028743,1.2195e-06,0.95,0.45,0.35
0.048556,0.0010494,0.0026867,0.028929,0.0004504,-0.00019537,-0.00019121,0.00039005,-6.344e-05,0.057705,-0.016339,-0.018018,-0.00099428,0.0020283,-0.00032989,0,0,0,0.028933,0.0006628,-0.00041152,0.014672,0.009728,0.028823,1.2293e-06,1,0.45,0.35
0.00094367,2.6539e-05,0.00022345,0.025234,0.0097302,0.0096454,0.00021891,1.6616e-05,0.0017034,0.038843,-0.0014672,-0.0016876,0.0011383,8.6401e-05,0.0088577,0,0,0,0.025444,0.0097252,0.00944,0.0080022,0.01487,0.015864,2.073e-07,0,0.5,0.35
0.0019421,4.9047e-05,0.00044113,0.025431,0.0087643,0.0085981,0.00023733,3.167e-05,0.0016676,0.040445,-0.0028891,-0.0033213,0.0012341,0.00016469,0.0086717,0,0,0,0.025621,0.0087574,0.0084149,0.0086033,0.014265,0.017038,2.6108e-07,0.05,0.5,0.35
0.0040445,8.8384e-05,0.00086166,0.026174,0.0070633,0.006746,0.00029278,6.0782e-05,0.0015632,0.044062,-0.0056253,-0.0064504,0.0015225,0.00031607,0.0081286,0,0,0,0.026322,0.007056,0.0066048,0.0098588,0.013328,0.019497,3.8984e-07,0.1,0.5,0.35
0.0063484,0.00012013,0.0012463,0.027214,0.0056823,0.0052455,0.00039596,9.1669e-05,0.0014086,0.047871,-0.008111,-0.0092468,0.002059,0.00047668,0.0073248,0,0,0,0.027326,0.0056788,0.0051374,0.011094,0.012714,0.021923,5.4899e-07,0.15,0.5,0.35
0.0088317,0.00014988,0.0015837,0.028147,0.0045022,0.0039868,0.00055668,0.00013116,0.0012377,0.0512,-0.010276,-0.011616,0.0028947,0.00068205,0.0064361,0,0,0,0.028234,0.004505,0.0038968,0.012169,0.012212,0.024039,7.1943e-07,0.2,0.5,0.35
0.011468,0.00017876,0.0018661,0.028964,0.0035654,0.0030085,0.00077099,0.00018361,0.0010861,0.053984,-0.012053,-0.013501,0.0040092,0.00095478,0.0056475,0,0,0,0.029042,0.0035804,0.002916,0.013063,0.011846,0.025801,8.863e-07,0.25,0.5,0.35
0.01423,0.00019997,0.0020875,0.029679,0.0029097,0.0023418,0.0010177,0.00024107,0.00097658,0.056207,-0.013393,-0.014869,0.0052922,0.0012536,0.0050782,0,0,0,0.02976,0.0029429,0.0022272,0.013766,0.011643,0.027183,1.0351e-06,0.3,0.5,0.35
0.017089,0.00018979,0.0022387,0.030338,0.0025549,0.0020398,0.0012143,0.00025054,0.00088687,0.057918,-0.014317,-0.015656,0.0063144,0.0013028,0.0046117,0,0,0,0.030426,0.0026081,0.0018982,0.014264,0.011644,0.02818,1.1547e-06,0.35,0.5,0.35
0.020022,8.283e-05,0.0022872,0.031896,0.0020896,0.001806,0.0014369,3.392e-05,0.00087755,0.057743,-0.014895,-0.015653,0.0069369,0.00036171,0.0042544,0,0,0,0.032001,0.002301,0.0014902,0.015255,0.011931,0.030115,1.5746e-06,0.4,0.5,0.35
0.022893,-0.00015149,0.0022147,0.033724,0.0010111,0.0011554,0.0015347,-0.00035658,0.00086717,0.053477,-0.014935,-0.014721,0.0065503,-0.0012833,0.0036905,0,0,0,0.033841,0.001629,0.00042036,0.01671,0.011964,0.032838,2.2309e-06,0.45,0.5,0.35
0.025438,-0.00039834,0.002106,0.033426,-0.00014947,0.00026158,0.0011745,-0.00050453,0.0005311,0.046367,-0.014077,-0.013294,0.0046311,-0.0019219,0.0021479,0,0,0,0.033513,0.00069035,-0.00066478,0.017089,0.011179,0.033528,2.3742e-06,0.5,0.5,0.35
0.027579,-0.00053963,0.0020606,0.032485,-0.00069746,-0.00037179,0.00066612,-0.00036767,7.8828e-05,0.04044,-0.012793,-0.012137,0.0025481,-0.0013774,0.00047533,0,0,0,0.032524,-7.3703e-05,-0.001034,0.016779,0.010472,0.033097,2.186e-06,0.55,0.5,0.35
0.029493,-0.00059237,0.0020691,0.032788,-0.0008616,-0.00064513,0.00026055,-0.00024894,-0.00010883,0.037762,-0.012079,-0.011612,0.00093995,-0.00087174,-0.00024911,0,0,0,0.032801,-0.00044048,-0.0010791,0.01694,0.010427,0.033571,2.1879e-06,0.6,0.5,0.35
0.031355,-0.00060668,0.0020925,0.032731,-0.0010196,-0.00077655,-0.00014108,-0.00024716,-0.00014236,0.037798,-0.012203,-0.011689,-0.00063535,-0.00086762,-0.00051345,0,0,0,0.032743,-0.00058042,-0.0012281,0.016986,0.010312,0.033658,2.2043e-06,0.65,0.5,0.35
0.033272,-0.00058096,0.0021331,0.03232,-0.0011941,-0.00077788,-0.00052272,-0.00036599,-0.00027806,0.040579,-0.013214,-0.012392,-0.002122,-0.0013783,-0.0011134,0,0,0,0.032355,-0.00050511,-0.001502,0.016929,0.010116,0.03338,2.2418e-06,0.7,0.5,0.35
0.035423,-0.00045845,0.002237,0.03317,-0.0010363,-0.00045831,-0.00096754,-0.00050929,-0.00063116,0.0467,-0.014919,-0.013811,-0.003886,-0.0019495,-0.0024711,0,0,0,0.033242,-7.455e-05,-0.0014926,0.017368,0.010558,0.034056,2.4874e-06,0.75,0.5,0.35
0.037993,-0.00021261,0.0024242,0.033473,-0.00021359,0.00013988,-0.0012546,-0.00035428,-0.00082838,0.054212,-0.016329,-0.015661,-0.0053423,-0.0012672,-0.0034407,0,0,0,0.03356,0.00055245,-0.00071319,0.017136,0.011133,0.033663,2.3915e-06,0.8,0.5,0.35
0.040916,3.6774e-05,0.0026045,0.031821,0.00058773,0.00051181,-0.0010983,7.0477e-05,-0.00066471,0.059232,-0.016976,-0.017223,-0.0052568,0.0005542,-0.0031475,0,0,0,0.031881,0.00095305,8.5552e-05,0.015898,0.010973,0.031373,1.7643e-06,0.85,0.5,0.35
0.043947,0.00016384,0.002698,0.03057,0.00061452,0.00031372,-0.00078991,0.00032899,-0.0004516,0.060583,-0.017301,-0.018083,-0.0041075,0.0017108,-0.0023483,0,0,0,0.030602,0.00085378,4.2466e-05,0.01528,0.010499,0.030163,1.4166e-06,0.9,0.5,0.35
0.046974,0.00019654,0.0027292,0.030362,0.00032982,-7.4905e-06,-0.00044619,0.00036194,-0.00024478,0.06053,-0.017553,-0.01843,-0.0023202,0.0018821,-0.0012728,0,0,0,0.030376,0.00058774,-0.00027934,0.015327,0.010228,0.030232,1.423e-06,0.95,0.5,0.35
0.048487,0.00020181,0.0027368,0.0303,0.00023297,-0.00010118,-0.00023001,0.00035741,-0.0001176,0.06052,-0.017653,-0.018522,-0.0011961,0.0018585,-0.00061153,0,0,0,0.030305,0.00049473,-0.00036805,0.015336,0.010144,0.030252,1.425e-06,1,0.5,0.35
0.00095091,-4.8596e-05,0.00022512,0.025426,0.0097664,0.0097041,-0.00035639,6.9764e-06,0.0017178,0.039169,-0.001545,-0.0017071,-0.0018532,3.6277e-05,0.0089327,0,0,0,0.025644,0.0097644,0.0094881,0.0080778,0.014965,0.01602,2.1359e-07,0,0.55,0.35
0.0019585,-9.878e-05,0.00044431,0.025636,0.0087639,0.0086409,-0.00032944,1.3341e-05,0.0016845,0.04083,-0.0030385,-0.0033583,-0.0017131,6.9372e-05,0.0087596,0,0,0,0.025832,0.0087609,0.0084478,0.0086922,0.014347,0.017231,2.7041e-07,0.05,0.55,0.35
0.004083,-0.00019931,0.00086777,0.026427,0.0070027,0.0067684,-0.00024887,2.634e-05,0.0015879,0.044591,-0.0059118,-0.006521,-0.0012941,0.00013697,0.0082571,0,0,0,0.026578,0.0069993,0.0066205,0.0099787,0.013399,0.019771,4.0724e-07,0.1,0.55,0.35
0.0064175,-0.00029501,0.0012556,0.027554,0.0055787,0.0052638,-0.00010918,4.2698e-05,0.0014486,0.048603,-0.0085332,-0.0093521,-0.00056773,0.00022203,0.0075325,0,0,0,0.027665,0.005578,0.0051539,0.011255,0.012799,0.022302,5.7905e-07,0.15,0.55,0.35
0.0089432,-0.00037736,0.0015973,0.028621,0.0043641,0.0040133,9.236e-05,6.7955e-05,0.0013045,0.052215,-0.010852,-0.011764,0.00048027,0.00035337,0.0067836,0,0,0,0.028703,0.0043686,0.0039262,0.012389,0.012333,0.02456,7.688e-07,0.2,0.55,0.35
0.011639,-0.00044219,0.0018856,0.029643,0.0034039,0.0030621,0.0003472,0.00010693,0.0011955,0.055406,-0.012815,-0.013704,0.0018054,0.00055604,0.0062166,0,0,0,0.029713,0.0034184,0.0029773,0.013368,0.012036,0.026519,9.6476e-07,0.25,0.55,0.35
0.014484,-0.0004932,0.0021136,0.030655,0.0027588,0.0024597,0.00062532,0.00015511,0.0011353,0.058178,-0.014351,-0.015129,0.0032517,0.00080656,0.0059033,0,0,0,0.030726,0.0027949,0.0023519,0.014187,0.011958,0.028157,1.1531e-06,0.3,0.55,0.35
0.017457,-0.00055341,0.0022622,0.031828,0.002502,0.002264,0.00083222,0.00013045,0.0010572,0.060384,-0.015334,-0.015954,0.0043347,0.00067927,0.0055079,0,0,0,0.031903,0.0025731,0.002118,0.014893,0.012198,0.029561,1.3558e-06,0.35,0.55,0.35
0.020527,-0.00068087,0.0022809,0.033672,0.0020618,0.0018735,0.0010172,-9.9611e-05,0.0010139,0.059123,-0.015338,-0.015797,0.0047667,-0.00030808,0.0048478,0,0,0,0.033758,0.0022622,0.0015876,0.016085,0.012536,0.031841,1.8449e-06,0.4,0.55,0.35
0.023411,-0.00088683,0.0021723,0.03474,0.00090376,0.00075211,0.00098573,-0.00032739,0.00082203,0.051703,-0.01417,-0.014477,0.0039415,-0.0012341,0.0034084,0,0,0,0.034827,0.0012989,0.00027057,0.017278,0.012132,0.034058,2.3737e-06,0.45,0.55,0.35
0.02576,-0.0010629,0.0020635,0.033947,-0.00018211,-0.00027535,0.00055464,-0.00026752,0.00030371,0.042791,-0.012661,-0.012819,0.0020023,-0.0010455,0.001236,0,0,0,0.033995,0.00020124,-0.00070594,0.01735,0.011163,0.034262,2.3826e-06,0.5,0.55,0.35
0.027705,-0.0011392,0.0020367,0.033918,-0.00060297,-0.00060835,0.00023412,-0.00015768,-5.7596e-05,0.037958,-0.011716,-0.011728,0.00078227,-0.00056626,-4.3084e-05,0,0,0,0.03393,-0.00035905,-0.00086407,0.017397,0.010902,0.034547,2.3009e-06,0.55,0.55,0.35
0.029541,-0.0011656,0.0020509,0.035003,-0.00072918,-0.00064606,0.00014792,-0.00018472,-0.00012174,0.036613,-0.011422,-0.011311,0.00043226,-0.00053007,-0.00029351,0,0,0,0.035007,-0.00048114,-0.00089788,0.017952,0.011209,0.035699,2.4192e-06,0.6,0.55,0.35
0.031363,-0.0011857,0.0020747,0.034953,-0.00089371,-0.00078605,4.7045e-05,-0.00018027,-0.00013486,0.036658,-0.011537,-0.01139,7.8973e-05,-0.00051816,-0.00040466,0,0,0,0.034956,-0.00063461,-0.0010488,0.018003,0.011091,0.035801,2.4396e-06,0.65,0.55,0.35
0.033204,-0.0012001,0.0021108,0.033792,-0.0010959,-0.0010288,-4.4822e-05,-0.00014404,-0.00014192,0.038132,-0.012094,-0.011989,-0.00025589,-0.00052921,-0.00052654,0,0,0,0.033803,-0.00081711,-0.0013185,0.017561,0.010556,0.034877,2.3668e-06,0.7,0.55,0.35
0.035161,-0.0011633,0.002197,0.033772,-0.0010481,-0.0010135,-0.00035114,-0.00025225,-0.00039564,0.043202,-0.013414,-0.013344,-0.0013493,-0.0010056,-0.001488,0,0,0,0.033812,-0.00060037,-0.0015011,0.017656,0.01057,0.034877,2.5137e-06,0.75,0.55,0.35
0.037538,-0.0010182,0.0023858,0.034594,-0.00032299,-0.00029617,-0.00076101,-0.00031236,-0.00076575,0.052588,-0.015502,-0.01544,-0.0030603,-0.0011765,-0.0030684,0,0,0,0.03466,0.00016474,-0.00085,0.017755,0.011325,0.035018,2.5703e-06,0.8,0.55,0.35
0.040485,-0.00083528,0.0026054,0.033745,0.00053212,0.0005548,-0.00079604,-6.3763e-05,-0.00077341,0.060895,-0.017483,-0.017426,-0.0037167,-0.00012627,-0.003604,0,0,0,0.033797,0.00087137,0.00016292,0.016817,0.01161,0.033288,2.0895e-06,0.85,0.55,0.35
0.043672,-0.00073648,0.0027329,0.032303,0.00052789,0.00054244,-0.00061018,0.00020134,-0.00058034,0.06354,-0.018521,-0.018483,-0.0031841,0.001047,-0.0030306,0,0,0,0.032331,0.000813,0.00022869,0.016051,0.011124,0.031815,1.6853e-06,0.9,0.55,0.35
0.046844,-0.00071647,0.0027714,0.031718,0.00013049,0.00013628,-0.00036478,0.00026054,-0.00033855,0.063277,-0.018852,-0.018837,-0.0018969,0.0013548,-0.0017605,0,0,0,0.031732,0.00043195,-0.00017844,0.015955,0.010662,0.03161,1.6279e-06,0.95,0.55,0.35
0.048424,-0.0007159,0.0027784,0.031563,3.4841e-06,5.8898e-06,-0.00019726,0.00025323,-0.0001732,0.06312,-0.018934,-0.018928,-0.0010258,0.0013168,-0.00090064,0,0,0,0.031568,0.00030126,-0.00029697,0.015932,0.010524,0.031571,1.6212e-06,1,0.55,0.35
0.00095591,-0.00012796,0.00022535,0.025556,0.0097733,0.0097424,-0.00096581,-4.1659e-06,0.0017206,0.039403,-0.0016324,-0.0017128,-0.0050222,-2.1663e-05,0.0089469,0,0,0,0.025824,0.009768,0.0094793,0.0081726,0.015024,0.016203,2.2108e-07,0,0.6,0.35
0.0019701,-0.0002548,0.00044474,0.025775,0.0087278,0.0086664,-0.00093262,-7.9523e-06,0.0016889,0.041114,-0.0032092,-0.003369,-0.0048496,-4.1352e-05,0.0087821,0,0,0,0.026016,0.0087194,0.0084336,0.0087914,0.01439,0.017442,2.8075e-07,0.05,0.6,0.35
0.0041114,-0.00050279,0.00086869,0.026598,0.0068921,0.0067762,-0.0008343,-1.4268e-05,0.0015972,0.044995,-0.0062404,-0.0065416,-0.0043383,-7.4192e-05,0.0083056,0,0,0,0.026783,0.0068821,0.0066011,0.010091,0.013422,0.020044,4.2478e-07,0.1,0.6,0.35
0.0064696,-0.00073319,0.0012574,0.027781,0.0054135,0.0052659,-0.00067391,-1.7011e-05,0.0014678,0.049155,-0.0090013,-0.0093852,-0.0035043,-8.8456e-05,0.0076323,0,0,0,0.027915,0.0054123,0.0051337,0.011391,0.01282,0.022644,6.0672e-07,0.15,0.6,0.35
0.0090269,-0.00093532,0.0016009,0.02893,0.0041626,0.0040196,-0.00046271,-1.3884e-05,0.0013414,0.052951,-0.011445,-0.011816,-0.0024061,-7.2196e-05,0.0069751,0,0,0,0.029026,0.0041796,0.0039069,0.012559,0.012371,0.024984,8.1024e-07,0.2,0.6,0.35
0.011765,-0.0011028,0.0018925,0.03008,0.0031862,0.0030876,-0.00022095,-2.3904e-06,0.0012622,0.056396,-0.013528,-0.013785,-0.0011489,-1.243e-05,0.0065633,0,0,0,0.030155,0.0032269,0.0029721,0.013591,0.012118,0.027057,1.0257e-06,0.25,0.6,0.35
0.014666,-0.0012351,0.0021251,0.031267,0.0025517,0.0025286,2.1175e-05,1.7434e-05,0.0012338,0.059486,-0.015174,-0.015234,0.00011011,9.0659e-05,0.006416,0,0,0,0.031335,0.002632,0.0023805,0.014477,0.012116,0.02883,1.2385e-06,0.3,0.6,0.35
0.017713,-0.0013439,0.0022679,0.032853,0.00235,0.0023514,0.00020992,1.8544e-06,0.0011619,0.061646,-0.01607,-0.01607,0.0010931,1.2859e-05,0.0060727,0,0,0,0.032916,0.0024678,0.0021703,0.015373,0.012518,0.030599,1.5412e-06,0.35,0.6,0.35
0.020846,-0.0014543,0.0022638,0.034506,0.0019807,0.001832,0.00034694,-9.1242e-05,0.00098645,0.059306,-0.015483,-0.015793,0.0015801,-0.00037591,0.004847,0,0,0,0.034567,0.0021178,0.0016338,0.016466,0.012773,0.032695,1.9945e-06,0.4,0.6,0.35
0.023691,-0.0015716,0.0021445,0.034786,0.00088202,0.00048579,0.00035971,-0.00014309,0.00059614,0.050184,-0.013487,-0.014223,0.0013442,-0.00055911,0.0025658,0,0,0,0.034837,0.0010311,0.00028577,0.017276,0.012051,0.034188,2.2947e-06,0.45,0.6,0.35
0.025904,-0.0016609,0.0020483,0.034471,-0.00014767,-0.00056977,0.00022379,-8.2717e-05,0.00012976,0.040713,-0.011761,-0.012484,0.00067852,-0.00032249,0.00056321,0,0,0,0.034493,-3.1853e-05,-0.00070821,0.017601,0.011251,0.034872,2.3453e-06,0.5,0.6,0.35
0.027758,-0.0017059,0.0020277,0.03517,-0.00054455,-0.00068321,0.00014933,-5.529e-05,-4.4349e-05,0.036882,-0.011265,-0.011502,0.00038157,-0.00017601,-6.8519e-05,0,0,0,0.035174,-0.00042099,-0.00081073,0.017992,0.011314,0.035793,2.423e-06,0.55,0.6,0.35
0.02958,-0.0017323,0.0020369,0.035928,-0.00066974,-0.00053685,0.00014598,-9.1692e-05,-8.2094e-05,0.03644,-0.011333,-0.011162,0.00037563,-0.00024144,-0.00020345,0,0,0,0.03593,-0.00043066,-0.00077771,0.018354,0.011574,0.036535,2.5153e-06,0.6,0.6,0.35
0.031401,-0.0017581,0.0020613,0.035881,-0.0008357,-0.00068211,0.00011369,-8.5399e-05,-0.00016754,0.036488,-0.011443,-0.011245,0.00030042,-0.00022511,-0.00044868,0,0,0,0.035884,-0.00058951,-0.00093043,0.018407,0.011455,0.036645,2.538e-06,0.65,0.6,0.35
0.033228,-0.0017849,0.0021035,0.035059,-0.0010383,-0.0011238,8.5265e-05,-3.5416e-05,-0.00015011,0.037063,-0.011611,-0.011772,0.00024218,-0.00012259,-0.00044953,0,0,0,0.035063,-0.00089937,-0.0012671,0.018165,0.010966,0.03615,2.4958e-06,0.7,0.6,0.35
0.035095,-0.0017967,0.0021848,0.034343,-0.00097498,-0.0013195,-3.0762e-05,-5.5214e-05,-0.00021259,0.041149,-0.012428,-0.013024,-0.00011916,-0.00024354,-0.00075599,0,0,0,0.034363,-0.00083821,-0.0014762,0.01792,0.010683,0.035528,2.4804e-06,0.75,0.6,0.35
0.037338,-0.0017672,0.0023621,0.034716,-0.00027132,-0.0005634,-0.00022045,-0.00011576,-0.00052395,0.051123,-0.01469,-0.015214,-0.00086811,-0.00045976,-0.0021548,0,0,0,0.034756,-8.4871e-05,-0.00079018,0.017773,0.011294,0.035202,2.5025e-06,0.8,0.6,0.35
0.040249,-0.0017158,0.0025947,0.034662,0.00050226,0.00049605,-0.00028414,-5.5459e-05,-0.00072654,0.061178,-0.01752,-0.017477,-0.0013314,-0.00020482,-0.0035169,0,0,0,0.034699,0.00073784,0.00022286,0.017238,0.011887,0.034223,2.2743e-06,0.85,0.6,0.35
0.043507,-0.0016888,0.0027483,0.03345,0.00042452,0.00062762,-0.00024125,5.56e-05,-0.00066046,0.064999,-0.019207,-0.018679,-0.0012626,0.00028956,-0.0034728,0,0,0,0.033473,0.00073847,0.00029073,0.016591,0.011501,0.032961,1.9131e-06,0.9,0.6,0.35
0.046765,-0.0016886,0.0027956,0.032534,-1.1737e-05,0.0002332,-0.00015322,8.6916e-05,-0.00040025,0.064935,-0.019684,-0.019047,-0.00079677,0.00045196,-0.0020813,0,0,0,0.032545,0.00032636,-0.00011569,0.01633,0.010918,0.032442,1.7593e-06,0.95,0.6,0.35
0.048386,-0.0016916,0.0028015,0.032327,-0.00015254,7.9975e-05,-8.8952e-05,8.1988e-05,-0.00021345,0.064697,-0.019749,-0.019145,-0.00046255,0.00042634,-0.00111,0,0,0,0.032331,0.00017173,-0.00024866,0.01629,0.010751,0.032372,1.7473e-06,1,0.6,0.35
0.00095829,-0.00021183,0.00022407,0.025614,0.0097477,0.0097568,-0.0016091,-1.5654e-05,0.0017107,0.039526,-0.0017272,-0.0017034,-0.0083672,-8.14e-05,0.0088957,0,0,0,0.025982,0.0097475,0.0093895,0.0082961,0.01504,0.016417,2.2983e-07,0,0.65,0.35
0.0019763,-0.0004197,0.00044228,0.025835,0.0086529,0.0086708,-0.0015679,-2.9962e-05,0.0016793,0.041275,-0.0033975,-0.0033509,-0.0081532,-0.0001558,0.0087323,0,0,0,0.026165,0.0086572,0.0083361,0.0089145,0.014386,0.017671,2.9191e-07,0.05,0.65,0.35
0.0041275,-0.00082335,0.00086406,0.026665,0.0067284,0.0067644,-0.0014472,-5.6532e-05,0.0015885,0.045234,-0.0066006,-0.0065071,-0.0075255,-0.00029397,0.0082603,0,0,0,0.026918,0.0067509,0.0064881,0.010215,0.013386,0.020301,4.413e-07,0.1,0.65,0.35
0.0064996,-0.0011951,0.0012509,0.027852,0.0051861,0.0052433,-0.0012615,-8.0021e-05,0.0014604,0.049447,-0.009485,-0.0093363,-0.0065597,-0.00041611,0.0075942,0,0,0,0.028035,0.0052458,0.005001,0.011517,0.012761,0.022913,6.2837e-07,0.15,0.65,0.35
0.0090722,-0.0015218,0.001593,0.02899,0.0039052,0.0039908,-0.0010422,-0.00010219,0.0013358,0.053243,-0.011978,-0.011756,-0.0054194,-0.00053141,0.0069462,0,0,0,0.02912,0.004015,0.0037515,0.012684,0.012295,0.025238,8.346e-07,0.2,0.65,0.35
0.011824,-0.001795,0.0018836,0.030116,0.0029328,0.0030571,-0.00082861,-0.00012452,0.0012586,0.056638,-0.014038,-0.013715,-0.0043088,-0.00064749,0.0065445,0,0,0,0.030213,0.003093,0.0027999,0.013707,0.012035,0.027268,1.049e-06,0.25,0.65,0.35
0.014736,-0.0020106,0.0021156,0.031269,0.0023279,0.0024997,-0.00064439,-0.00014585,0.0012321,0.059641,-0.015605,-0.015159,-0.0033508,-0.00075843,0.0064067,0,0,0,0.03135,0.0025406,0.002206,0.014572,0.012032,0.028979,1.2565e-06,0.3,0.65,0.35
0.017788,-0.0021615,0.0022583,0.032817,0.0021711,0.0023261,-0.00046708,-0.0001214,0.0011623,0.061698,-0.016391,-0.015992,-0.0024472,-0.00062769,0.0060741,0,0,0,0.032886,0.0023981,0.0020304,0.015428,0.012438,0.030674,1.5508e-06,0.35,0.65,0.35
0.020921,-0.0022319,0.0022551,0.034431,0.0018441,0.0018111,-0.00031008,-1.026e-05,0.00098981,0.059265,-0.015688,-0.015718,-0.0015529,-0.00010467,0.0048613,0,0,0,0.034491,0.0020364,0.0015587,0.016466,0.012695,0.032698,1.9931e-06,0.4,0.65,0.35
0.023762,-0.0022365,0.0021374,0.034684,0.00078847,0.0004721,-0.00012028,5.8777e-05,0.00060296,0.05009,-0.013584,-0.014158,-0.00058746,0.00023996,0.0025907,0,0,0,0.034732,0.00095847,0.00025415,0.017239,0.011982,0.034134,2.2832e-06,0.45,0.65,0.35
0.025969,-0.0022369,0.0020427,0.034359,-0.00018298,-0.00057268,0.00012279,9.8024e-06,0.00013829,0.040596,-0.011767,-0.012433,0.00031547,0.0001051,0.00059072,0,0,0,0.034381,-5.6942e-05,-0.00072061,0.017551,0.011201,0.034777,2.3263e-06,0.5,0.65,0.35
0.027817,-0.0022639,0.002023,0.035048,-0.00052817,-0.00067916,0.00022716,-2.7403e-06,-3.6593e-05,0.036747,-0.011211,-0.011463,0.00062632,1.9618e-05,-4.6456e-05,0,0,0,0.035052,-0.00041412,-0.00079791,0.017925,0.01128,0.035662,2.3967e-06,0.55,0.65,0.35
0.029631,-0.0022987,0.002033,0.035797,-0.00062243,-0.00053073,0.00018766,5.2174e-05,-7.6011e-05,0.036292,-0.011248,-0.011131,0.0004954,0.00013842,-0.00018756,0,0,0,0.035799,-0.00041522,-0.00074007,0.018269,0.011548,0.036378,2.4833e-06,0.6,0.65,0.35
0.031445,-0.0023298,0.002058,0.035754,-0.00077341,-0.00067508,0.00012291,6.0471e-05,-0.00016355,0.036338,-0.011343,-0.011218,0.00031571,0.00016026,-0.00043826,0,0,0,0.035756,-0.00056253,-0.00088818,0.018322,0.011435,0.036483,2.5048e-06,0.65,0.65,0.35
0.033264,-0.0023594,0.0021007,0.034945,-0.00097855,-0.0011169,3.8266e-05,1.9709e-05,-0.0001485,0.036921,-0.011512,-0.011747,8.1961e-05,8.0844e-05,-0.00044549,0,0,0,0.034949,-0.00086376,-0.0012361,0.018093,0.01095,0.036002,2.4659e-06,0.7,0.65,0.35
0.035125,-0.002404,0.0021823,0.034243,-0.00093318,-0.0013157,5.4395e-05,4.1436e-05,-0.00021186,0.041013,-0.012342,-0.012998,0.00017207,0.0002014,-0.00075393,0,0,0,0.034262,-0.0008134,-0.001455,0.017859,0.010665,0.035404,2.4545e-06,0.75,0.65,0.35
0.037361,-0.0024889,0.0023594,0.034623,-0.00025472,-0.00056588,0.00017699,9.6092e-05,-0.00052238,0.050983,-0.014627,-0.015185,0.00069178,0.00038136,-0.0021488,0,0,0,0.034662,-8.1979e-05,-0.00077795,0.01772,0.011267,0.0351,2.4807e-06,0.8,0.65,0.35
0.040264,-0.0025912,0.0025918,0.034581,0.00049758,0.00048865,0.00021491,2.8097e-05,-0.00072479,0.061042,-0.017484,-0.017444,0.001015,7.3205e-05,-0.003509,0,0,0,0.034618,0.00073096,0.00021887,0.017199,0.011856,0.034147,2.2596e-06,0.85,0.65,0.35
0.043516,-0.0026588,0.0027454,0.033384,0.00040505,0.00061855,0.00017939,-8.7949e-05,-0.00065938,0.064885,-0.019201,-0.018646,0.00095027,-0.00045668,-0.0034672,0,0,0,0.033406,0.00073371,0.00026792,0.016569,0.011469,0.032908,1.9043e-06,0.9,0.65,0.35
0.046769,-0.0026848,0.0027928,0.032476,-4.1237e-05,0.00022356,0.00010852,-0.00012179,-0.00039972,0.064843,-0.019702,-0.019014,0.00056433,-0.00063332,-0.0020786,0,0,0,0.032486,0.00032161,-0.0001496,0.016318,0.010886,0.032404,1.753e-06,0.95,0.65,0.35
0.048388,-0.0026908,0.0027988,0.032272,-0.00018578,7.0092e-05,5.1706e-05,-0.00011762,-0.00021318,0.064613,-0.019777,-0.019111,0.00026887,-0.00061165,-0.0011085,0,0,0,0.032276,0.0001654,-0.00028526,0.016281,0.010719,0.032339,1.7419e-06,1,0.65,0.35
0.00095858,-0.00030068,0.00022142,0.025613,0.0096885,0.0097506,-0.0022861,-2.5995e-05,0.0016893,0.039563,-0.0018413,-0.0016798,-0.011888,-0.00013517,0.0087846,0,0,0,0.026135,0.0097177,0.0092001,0.0084673,0.015017,0.016682,2.4072e-07,0,0.7,0.35
0.0019782,-0.00059455,0.0004372,0.025827,0.0085311,0.0086547,-0.0022295,-4.9807e-05,0.0016568,0.041343,-0.0036268,-0.0033055,-0.011593,-0.000259,0.0086153,0,0,0,0.026295,0.0085988,0.0081196,0.0090875,0.014338,0.017941,3.0486e-07,0.05,0.7,0.35
0.0041343,-0.0011629,0.00085439,0.026636,0.0064924,0.0067284,-0.0020647,-9.4695e-05,0.0015626,0.04534,-0.007034,-0.0064203,-0.010736,-0.00049241,0.0081254,0,0,0,0.026992,0.0066474,0.0062173,0.010387,0.013286,0.020564,4.577e-07,0.1,0.7,0.35
0.0065121,-0.0016817,0.001237,0.027772,0.0048745,0.005189,-0.001821,-0.00013678,0.0014273,0.049505,-0.010028,-0.0092097,-0.009469,-0.00071126,0.0074218,0,0,0,0.028025,0.0051235,0.0046872,0.011669,0.012612,0.023124,6.442e-07,0.15,0.7,0.35
0.0090848,-0.0021331,0.0015745,0.028801,0.0035758,0.0039196,-0.0015554,-0.0001808,0.0012885,0.053105,-0.012481,-0.011587,-0.0080882,-0.00094017,0.0067,0,0,0,0.028977,0.0038987,0.0034207,0.012778,0.012099,0.025322,8.4061e-07,0.2,0.7,0.35
0.011823,-0.0025066,0.0018597,0.029745,0.0026367,0.0029644,-0.0013298,-0.00023023,0.0011853,0.05613,-0.014353,-0.0135,-0.0069148,-0.0011972,0.0061637,0,0,0,0.029873,0.0029993,0.0024737,0.0137,0.011782,0.027141,1.0317e-06,0.25,0.7,0.35
0.014698,-0.0027957,0.0020859,0.030653,0.0020877,0.0023678,-0.0011707,-0.00027932,0.0011306,0.058633,-0.015637,-0.014909,-0.0060878,-0.0014525,0.005879,0,0,0,0.030756,0.0024608,0.0018918,0.014432,0.011703,0.028585,1.2036e-06,0.3,0.7,0.35
0.017686,-0.0029842,0.0022341,0.031713,0.0019674,0.0021826,-0.0010154,-0.00024536,0.0010579,0.060524,-0.016285,-0.015727,-0.0052931,-0.0012746,0.0055113,0,0,0,0.031798,0.0023125,0.0017527,0.015023,0.011954,0.02977,1.3818e-06,0.35,0.7,0.35
0.020755,-0.0030261,0.0022548,0.033434,0.0016525,0.0018019,-0.00091123,1.2855e-06,0.0010214,0.058977,-0.015943,-0.015575,-0.0043789,-0.00016618,0.0048798,0,0,0,0.033512,0.0020272,0.0013493,0.016082,0.012296,0.031831,1.8363e-06,0.4,0.7,0.35
0.023626,-0.0029314,0.0021507,0.03441,0.00062043,0.00069957,-0.00068397,0.00024587,0.00083738,0.051381,-0.014453,-0.01428,-0.002876,0.00091271,0.0034642,0,0,0,0.034482,0.0011075,0.00014091,0.01717,0.01191,0.033871,2.3299e-06,0.45,0.7,0.35
0.025956,-0.0028356,0.0020467,0.033598,-0.00029011,-0.0002918,-0.00017583,0.00020068,0.00032428,0.042401,-0.012671,-0.012663,-0.00080722,0.0008322,0.0013032,0,0,0,0.033637,0.0001242,-0.00074518,0.017191,0.011005,0.03396,2.3196e-06,0.5,0.7,0.35
0.027881,-0.0028253,0.002023,0.033562,-0.00054846,-0.00059612,0.00014504,0.00010793,-3.645e-05,0.037537,-0.011541,-0.01161,0.00030697,0.00042391,1.9066e-05,0,0,0,0.033572,-0.00033543,-0.0008194,0.017196,0.010806,0.034155,2.2243e-06,0.55,0.7,0.35
0.029695,-0.0028568,0.0020393,0.034628,-0.00057747,-0.00062341,0.00017773,0.00015345,-0.0001041,0.036166,-0.011149,-0.011216,0.00044639,0.00044696,-0.00024584,0,0,0,0.034632,-0.00040736,-0.00079717,0.017714,0.011142,0.035236,2.3278e-06,0.6,0.7,0.35
0.031494,-0.0028922,0.0020651,0.034589,-0.00070066,-0.00076069,0.00017084,0.0001625,-0.00012376,0.036208,-0.011223,-0.01131,0.00049682,0.00047267,-0.00037473,0,0,0,0.034593,-0.0005315,-0.00093383,0.017763,0.011042,0.035328,2.3457e-06,0.65,0.7,0.35
0.033312,-0.0029345,0.0021026,0.033467,-0.0009152,-0.0010065,0.00013889,0.0001325,-0.00013665,0.037698,-0.011779,-0.011915,0.00049893,0.00049843,-0.00051131,0,0,0,0.033478,-0.0007164,-0.0012161,0.017347,0.010515,0.03445,2.2822e-06,0.7,0.7,0.35
0.035248,-0.0030291,0.0021895,0.033473,-0.00092543,-0.0010054,0.00034063,0.00023869,-0.00039097,0.042775,-0.013143,-0.013267,0.0012848,0.00096189,-0.0014722,0,0,0,0.03351,-0.00054562,-0.0014229,0.017467,0.010514,0.034508,2.4349e-06,0.75,0.7,0.35
0.037604,-0.0032316,0.0023779,0.034313,-0.00027788,-0.00030837,0.00068486,0.00029179,-0.00075937,0.05216,-0.015309,-0.015354,0.0027433,0.0010938,-0.0030438,0,0,0,0.034375,0.0001658,-0.00081363,0.017594,0.011242,0.034713,2.5018e-06,0.8,0.7,0.35
0.040529,-0.0034679,0.0025971,0.03351,0.00051451,0.00053087,0.00070138,3.7456e-05,-0.00076849,0.060499,-0.017381,-0.017333,0.0032665,-6.7493e-07,-0.003582,0,0,0,0.033558,0.00085121,0.0001463,0.016706,0.011519,0.033067,2.047e-06,0.85,0.7,0.35
0.043699,-0.0036105,0.0027247,0.032113,0.00046607,0.00051464,0.00053035,-0.00023195,-0.00057803,0.063215,-0.018514,-0.018388,0.0027722,-0.0012059,-0.0030185,0,0,0,0.032138,0.0007874,0.00016798,0.015985,0.011031,0.031666,1.6623e-06,0.9,0.7,0.35
0.046856,-0.0036589,0.0027635,0.03155,3.7788e-05,0.00010581,0.00030917,-0.00029454,-0.00033756,0.063015,-0.018918,-0.018741,0.0016077,-0.0015316,-0.0017553,0,0,0,0.031562,0.00039553,-0.00026367,0.015913,0.010565,0.031502,1.6113e-06,0.95,0.7,0.35
0.04843,-0.0036693,0.0027706,0.031402,-0.00010038,-2.5668e-05,0.00015321,-0.00028842,-0.00017267,0.06288,-0.019027,-0.018832,0.00079671,-0.0014998,-0.00089791,0,0,0,0.031407,0.00025848,-0.00038903,0.015898,0.010425,0.031478,1.6069e-06,1,0.7,0.35
0.00095859,-0.00039596,0.0002178,0.025598,0.0095961,0.0097354,-0.0030029,-3.3568e-05,0.0016598,0.039596,-0.0020076,-0.0016454,-0.015615,-0.00017456,0.0086307,0,0,0,0.026334,0.0096918,0.0089037,0.008715,0.014976,0.017051,2.5591e-07,0,0.75,0.35
0.0019798,-0.00078238,0.00043027,0.025795,0.0083452,0.0086224,-0.0029145,-6.444e-05,0.0016249,0.04141,-0.0039603,-0.0032395,-0.015156,-0.00033509,0.0084496,0,0,0,0.026449,0.0085506,0.0077631,0.0093431,0.014254,0.018307,3.2221e-07,0.05,0.75,0.35
0.004141,-0.0015268,0.00084119,0.026557,0.0061418,0.0066628,-0.0026616,-0.00012296,0.0015239,0.045432,-0.0076486,-0.006294,-0.01384,-0.00063941,0.0079243,0,0,0,0.027042,0.0065633,0.0057565,0.010643,0.013121,0.020896,4.7743e-07,0.1,0.75,0.35
0.006523,-0.0021979,0.0012177,0.027595,0.0044326,0.0050958,-0.0022978,-0.0001784,0.0013754,0.049472,-0.010749,-0.0090247,-0.011949,-0.00092766,0.0071522,0,0,0,0.027924,0.0050185,0.0041802,0.011872,0.012374,0.023339,6.5847e-07,0.15,0.75,0.35
0.0090882,-0.0027699,0.0015486,0.028443,0.0031389,0.0038054,-0.0019175,-0.00023613,0.0012129,0.05272,-0.013071,-0.011338,-0.0099708,-0.0012279,0.0063071,0,0,0,0.02866,0.0037831,0.002944,0.012858,0.011796,0.025309,8.3507e-07,0.2,0.75,0.35
0.011795,-0.0032303,0.0018261,0.029111,0.0022714,0.0028239,-0.0016089,-0.00029854,0.0010711,0.055166,-0.014619,-0.013182,-0.008366,-0.0015524,0.0055698,0,0,0,0.02926,0.002878,0.0020692,0.013595,0.011402,0.026796,9.8895e-07,0.25,0.75,0.35
0.014605,-0.0035743,0.0020445,0.029644,0.0017993,0.002171,-0.0014078,-0.00035615,0.000971,0.056907,-0.015491,-0.014524,-0.0073207,-0.001852,0.0050492,0,0,0,0.029756,0.0023161,0.0015424,0.014107,0.011205,0.027836,1.1087e-06,0.3,0.75,0.35
0.017486,-0.0037904,0.0021949,0.030121,0.0016816,0.0018908,-0.0012541,-0.00035528,0.00088891,0.058099,-0.015844,-0.0153,-0.0065215,-0.0018475,0.0046223,0,0,0,0.030211,0.0021024,0.00138,0.014416,0.011231,0.028478,1.1901e-06,0.35,0.75,0.35
0.020415,-0.0038301,0.0022453,0.031495,0.001438,0.0016762,-0.0012109,-0.00012158,0.00088657,0.057454,-0.015853,-0.015303,-0.0058868,-0.00079577,0.004296,0,0,0,0.031578,0.0019264,0.0011043,0.015237,0.011536,0.030073,1.5594e-06,0.4,0.75,0.35
0.023261,-0.0036859,0.0021784,0.033163,0.00056922,0.0010523,-0.0011323,0.00028543,0.00088254,0.052861,-0.015372,-0.014399,-0.0049032,0.00098273,0.0037521,0,0,0,0.033248,0.0013726,0.00016416,0.016542,0.011595,0.0325,2.1559e-06,0.45,0.75,0.35
0.02577,-0.003501,0.0020774,0.032809,-0.0003254,0.0002123,-0.00072071,0.00044609,0.00055147,0.04561,-0.014061,-0.013028,-0.0029912,0.001717,0.0022192,0,0,0,0.032869,0.00056858,-0.00074206,0.016806,0.010899,0.032982,2.2601e-06,0.5,0.75,0.35
0.027872,-0.0034131,0.0020381,0.031887,-0.00060433,-0.00036249,-0.00025755,0.00032558,0.00010209,0.039656,-0.012446,-0.011933,-0.0012153,0.0012439,0.00054738,0,0,0,0.031912,-5.0724e-05,-0.00094131,0.016427,0.010307,0.032425,2.0574e-06,0.55,0.75,0.35
0.029746,-0.0034118,0.0020508,0.032209,-0.00059056,-0.00060246,5.3048e-05,0.00022813,-8.7792e-05,0.036978,-0.011546,-0.011453,4.701e-06,0.00081111,-0.00018885,0,0,0,0.032219,-0.00030627,-0.00089584,0.016557,0.010339,0.032827,2.0495e-06,0.6,0.75,0.35
0.031569,-0.0034504,0.0020772,0.032184,-0.00068167,-0.00072606,0.00032155,0.00023822,-0.00012785,0.037027,-0.0116,-0.011557,0.0011489,0.00084421,-0.00047089,0,0,0,0.032197,-0.00040379,-0.0010169,0.016607,0.010259,0.032915,2.0653e-06,0.65,0.75,0.35
0.033448,-0.0035329,0.00212,0.031816,-0.00088707,-0.00073976,0.0005637,0.00035638,-0.00026774,0.039825,-0.012627,-0.012271,0.0022049,0.0013498,-0.0010797,0,0,0,0.03185,-0.00036474,-0.0012965,0.016573,0.010063,0.032699,2.1101e-06,0.7,0.75,0.35
0.035562,-0.0037156,0.0022248,0.032693,-0.00083374,-0.00045017,0.00089897,0.00049451,-0.00062027,0.045954,-0.01443,-0.013686,0.0035882,0.0018981,-0.0024329,0,0,0,0.03276,-1.5819e-05,-0.001335,0.017047,0.01047,0.033462,2.3625e-06,0.75,0.75,0.35
0.038094,-0.0040237,0.0024116,0.033042,-0.00014316,0.00011661,0.0011253,0.00033504,-0.00081889,0.053504,-0.016001,-0.015525,0.0047617,0.0011879,-0.0034051,0,0,0,0.033119,0.00054664,-0.00065053,0.016885,0.011005,0.033192,2.2925e-06,0.8,0.75,0.35
0.040983,-0.0043332,0.0025918,0.031468,0.00055092,0.00047171,0.00096063,-9.3076e-05,-0.00066017,0.058621,-0.016832,-0.017079,0.0045749,-0.00066469,-0.0031279,0,0,0,0.03152,0.00091749,5.3278e-05,0.015734,0.01083,0.031046,1.7081e-06,0.85,0.75,0.35
0.043987,-0.0045107,0.0026858,0.030276,0.00050052,0.00026424,0.00067948,-0.00035673,-0.00045043,0.060094,-0.017323,-0.017938,0.0035333,-0.001855,-0.0023423,0,0,0,0.030302,0.00078531,-4.6739e-05,0.015175,0.010347,0.029943,1.3861e-06,0.9,0.75,0.35
0.046993,-0.0045767,0.0027175,0.030094,0.00016317,-6.4859e-05,0.00037308,-0.00039461,-0.00024453,0.060128,-0.017691,-0.018284,0.00194,-0.002052,-0.0012715,0,0,0,0.030105,0.00048378,-0.00039692,0.015251,0.010064,0.030072,1.4008e-06,0.95,0.75,0.35
0.048496,-0.0045935,0.0027253,0.03004,4.789e-05,-0.00016149,0.00017475,-0.00039181,-0.00011739,0.060149,-0.017831,-0.018376,0.00090872,-0.0020374,-0.00061042,0,0,0,0.030045,0.00037733,-0.00049516,0.01527,0.0099756,0.030114,1.4058e-06,1,0.75,0.35
0.00096186,-0.00050144,0.00021391,0.025654,0.0094671,0.0097331,-0.0037753,-3.6799e-05,0.0016275,0.039787,-0.0022979,-0.0016061,-0.019631,-0.00019136,0.0084631,0,0,0,0.026673,0.0096867,0.0084943,0.0090893,0.014951,0.017615,2.7977e-07,0,0.8,0.35
0.0019894,-0.00099057,0.00042283,0.02582,0.008057,0.008581,-0.0036233,-7.1028e-05,0.0015896,0.041657,-0.0045265,-0.0031643,-0.018841,-0.00036935,0.0082661,0,0,0,0.026708,0.0085071,0.0072429,0.0097325,0.014153,0.018868,3.4897e-07,0.05,0.8,0.35
0.0041657,-0.0019277,0.00082697,0.026501,0.0055979,0.0065545,-0.0032032,-0.00013641,0.00148,0.045711,-0.0086375,-0.0061503,-0.016656,-0.00070935,0.0076959,0,0,0,0.027124,0.0064566,0.0050733,0.011025,0.012884,0.021396,5.0625e-07,0.1,0.8,0.35
0.0065604,-0.0027566,0.0011968,0.027395,0.0037947,0.0049498,-0.0026287,-0.00019844,0.001316,0.049544,-0.011818,-0.0088144,-0.013669,-0.0010319,0.0068431,0,0,0,0.027785,0.0048764,0.003478,0.012154,0.012047,0.023643,6.7707e-07,0.15,0.8,0.35
0.0091201,-0.0034403,0.0015205,0.028012,0.0025613,0.0036437,-0.0020609,-0.00026082,0.0011277,0.0523,-0.013871,-0.011056,-0.010717,-0.0013563,0.0058642,0,0,0,0.028244,0.0036239,0.0023485,0.012948,0.011406,0.025285,8.2626e-07,0.2,0.8,0.35
0.01179,-0.0039684,0.0017897,0.028366,0.0018145,0.0026433,-0.0016167,-0.00032351,0.00094654,0.054058,-0.014977,-0.012822,-0.0084071,-0.0016822,0.004922,0,0,0,0.028508,0.0027016,0.0016146,0.013447,0.010941,0.026368,9.3801e-07,0.25,0.8,0.35
0.014526,-0.0043448,0.002,0.028509,0.0014387,0.0019406,-0.0013193,-0.00037879,0.00079351,0.054991,-0.015393,-0.014087,-0.0068602,-0.0019697,0.0041262,0,0,0,0.028604,0.002104,0.001181,0.013711,0.010629,0.026974,1.0061e-06,0.3,0.8,0.35
0.01729,-0.0045686,0.0021464,0.028496,0.0013259,0.0015366,-0.00111,-0.00039972,0.00066746,0.055275,-0.015368,-0.01482,-0.0057719,-0.0020786,0.0034708,0,0,0,0.028565,0.0018027,0.00099123,0.013787,0.010453,0.027178,1.032e-06,0.35,0.8,0.35
0.020053,-0.0046153,0.0022167,0.028772,0.0011534,0.0013385,-0.00099556,-0.00026109,0.00057321,0.054867,-0.015394,-0.014946,-0.0050255,-0.0014124,0.0029003,0,0,0,0.028829,0.0016044,0.00083072,0.013999,0.010421,0.027621,1.1542e-06,0.4,0.8,0.35
0.022786,-0.0044762,0.0021983,0.029709,0.00046796,0.0010251,-0.00099529,0.00012621,0.00057925,0.052761,-0.015617,-0.014414,-0.0045931,0.00035709,0.0025985,0,0,0,0.029769,0.0012501,0.00018331,0.014793,0.010401,0.029071,1.5043e-06,0.45,0.8,0.35
0.025372,-0.0042456,0.0021291,0.030126,-0.000361,0.00047965,-0.00090643,0.00048322,0.00050637,0.048253,-0.015195,-0.013417,-0.0038875,0.0019359,0.0020663,0,0,0,0.030183,0.00077201,-0.0007102,0.015447,0.010082,0.030186,1.7588e-06,0.5,0.8,0.35
0.027676,-0.0040705,0.0020819,0.029404,-0.00063474,4.0126e-06,-0.00056166,0.00050416,0.00023428,0.043234,-0.013934,-0.012467,-0.0024292,0.0020985,0.0010016,0,0,0,0.029437,0.00035231,-0.0010162,0.015227,0.0095911,0.029801,1.6899e-06,0.55,0.8,0.35
0.029738,-0.0040124,0.0020787,0.028854,-0.00059642,-0.00025254,-6.2159e-05,0.00036017,-1.3009e-05,0.040312,-0.012938,-0.011996,-0.00037049,0.0015846,2.684e-05,0,0,0,0.028867,7.4693e-05,-0.00093699,0.014902,0.0093349,0.029319,1.5953e-06,0.6,0.8,0.35
0.031724,-0.0040532,0.002106,0.028846,-0.00065871,-0.00035669,0.00044766,0.00037072,-0.00018422,0.040373,-0.012976,-0.012113,0.0018405,0.0016242,-0.00076263,0,0,0,0.028867,-3.0578e-06,-0.0010336,0.01495,0.0092767,0.029406,1.6093e-06,0.65,0.8,0.35
0.033792,-0.0041979,0.0021669,0.029371,-0.0008354,-0.00032329,0.00088686,0.00053669,-0.00039133,0.043422,-0.014059,-0.012844,0.0037073,0.0022227,-0.0016031,0,0,0,0.029422,9.2114e-05,-0.0013017,0.015362,0.009404,0.030059,1.7357e-06,0.7,0.8,0.35
0.036109,-0.0044756,0.0022819,0.030051,-0.0007134,-8.6696e-05,0.001113,0.00052939,-0.00058063,0.048581,-0.015431,-0.014126,0.0047308,0.0021243,-0.0023519,0,0,0,0.030122,0.00028731,-0.0011583,0.01564,0.0097503,0.03059,1.8334e-06,0.75,0.8,0.35
0.038716,-0.0048388,0.0024369,0.029603,-1.3341e-05,0.00021471,0.0010224,0.00016647,-0.00053588,0.05328,-0.015971,-0.015577,0.0046667,0.00053822,-0.0023557,0,0,0,0.029661,0.00058585,-0.00044275,0.015052,0.0099348,0.029608,1.5896e-06,0.8,0.8,0.35
0.041481,-0.0051548,0.0025652,0.028669,0.0005342,0.00021888,0.00078242,-0.00024154,-0.00037997,0.055693,-0.015883,-0.016726,0.0039148,-0.0013169,-0.0018984,0,0,0,0.028703,0.00079969,-8.0392e-05,0.014392,0.0098073,0.028355,1.2478e-06,0.85,0.8,0.35
0.044295,-0.0053428,0.0026349,0.028427,0.00047943,-3.5123e-05,0.0005689,-0.00040735,-0.00027808,0.056588,-0.016077,-0.017414,0.0029583,-0.0021182,-0.001446,0,0,0,0.028445,0.00071741,-0.00029115,0.014368,0.0096239,0.028247,1.1601e-06,0.9,0.8,0.35
0.047139,-0.005428,0.0026653,0.028529,0.000257,-0.00023813,0.00029776,-0.00042368,-0.00014385,0.057047,-0.016461,-0.017748,0.0015483,-0.0022031,-0.00074803,0,0,0,0.028537,0.00052408,-0.00051278,0.014525,0.009516,0.028546,1.1953e-06,0.95,0.8,0.35
0.048568,-0.0054524,0.0026738,0.028567,0.00017283,-0.00030037,0.00012433,-0.00042223,-6.353e-05,0.057211,-0.016614,-0.017845,0.00064649,-0.0021956,-0.00033035,0,0,0,0.02857,0.00044772,-0.00057813,0.014574,0.0094799,0.02865,1.2079e-06,1,0.8,0.35
0.00097658,-0.00062575,0.00021073,0.025947,0.0092638,0.0097777,-0.0046388,-3.4319e-05,0.0016003,0.040469,-0.002907,-0.0015711,-0.024122,-0.00017846,0.0083218,0,0,0,0.027326,0.0097315,0.0079312,0.0096972,0.014996,0.018564,3.2232e-07,0,0.85,0.35
0.0020234,-0.001235,0.00041669,0.026032,0.007556,0.008528,-0.0043442,-6.7241e-05,0.0015591,0.042414,-0.0056242,-0.0030969,-0.02259,-0.00034966,0.0081072,0,0,0,0.027187,0.0084561,0.0064728,0.010357,0.014039,0.019804,3.9477e-07,0.05,0.85,0.35
0.0042414,-0.0023905,0.0008151,0.026553,0.0047187,0.0063713,-0.0035987,-0.00013134,0.0014403,0.046452,-0.010317,-0.0060206,-0.018713,-0.00068298,0.0074894,0,0,0,0.027282,0.0062784,0.0040832,0.011599,0.012548,0.022189,5.5118e-07,0.1,0.85,0.35
0.0066687,-0.0033797,0.0011792,0.027231,0.002919,0.0047335,-0.0027048,-0.00019286,0.0012613,0.04987,-0.01334,-0.008623,-0.014065,-0.0010029,0.0065589,0,0,0,0.02763,0.0046646,0.0025884,0.012521,0.011628,0.024077,7.0236e-07,0.15,0.85,0.35
0.0092284,-0.004157,0.0014964,0.027537,0.0018676,0.0034221,-0.0019264,-0.00025211,0.0010501,0.051901,-0.01484,-0.010799,-0.010017,-0.001311,0.0054604,0,0,0,0.027745,0.003401,0.0016809,0.013032,0.010942,0.025252,8.1506e-07,0.2,0.85,0.35
0.011859,-0.004728,0.0017586,0.027564,0.0012934,0.00241,-0.0013658,-0.00030672,0.00083544,0.052906,-0.015398,-0.012494,-0.0071021,-0.0015949,0.0043443,0,0,0,0.027673,0.0024574,0.0011365,0.013268,0.010422,0.025903,8.8546e-07,0.25,0.85,0.35
0.014519,-0.0051136,0.0019616,0.027417,0.001032,0.0016871,-0.00098674,-0.00034965,0.00063702,0.053203,-0.015399,-0.013695,-0.0051311,-0.0018182,0.0033125,0,0,0,0.027478,0.0018294,0.00082916,0.013324,0.010045,0.026164,9.1637e-07,0.3,0.85,0.35
0.017179,-0.0053272,0.0021036,0.027143,0.00095375,0.0012286,-0.00070765,-0.00035934,0.00045844,0.052977,-0.015116,-0.014401,-0.0036798,-0.0018686,0.0023839,0,0,0,0.027178,0.0014687,0.00067847,0.01325,0.0097752,0.026115,9.1337e-07,0.35,0.85,0.35
0.019817,-0.0053711,0.002183,0.026747,0.00082702,0.0009663,-0.0004828,-0.00027999,0.00029547,0.052418,-0.014974,-0.014612,-0.0025105,-0.0014559,0.0015364,0,0,0,0.026769,0.0011983,0.00057334,0.013098,0.0095134,0.025889,8.9161e-07,0.4,0.85,0.35
0.022421,-0.0052529,0.0021999,0.026518,0.0003521,0.00073747,-0.00038587,-2.8144e-05,0.00020501,0.051348,-0.015283,-0.014351,-0.0018881,-0.00021318,0.00097342,0,0,0,0.026539,0.00088465,0.00018344,0.013178,0.0092024,0.026015,9.4764e-07,0.45,0.85,0.35
0.024963,-0.0050292,0.0021744,0.02644,-0.00027861,0.00049162,-0.00039616,0.00030657,0.00017348,0.049418,-0.015601,-0.013747,-0.0017669,0.0013975,0.00070842,0,0,0,0.026466,0.00066438,-0.00047758,0.013472,0.0088842,0.026396,1.0611e-06,0.5,0.85,0.35
0.02739,-0.0048167,0.002144,0.026096,-0.00058811,0.00030635,-0.00028608,0.00047582,0.00011374,0.047009,-0.015339,-0.013111,-0.0012511,0.0022683,0.0004693,0,0,0,0.026115,0.00056471,-0.00086535,0.01349,0.0086048,0.026298,1.0796e-06,0.55,0.85,0.35
0.029692,-0.0047154,0.0021348,0.025787,-0.0006413,0.00015914,8.8263e-06,0.00047263,-8.0494e-06,0.045235,-0.014823,-0.012782,4.6298e-05,0.0023544,-3.7374e-05,0,0,0,0.025796,0.00044479,-0.00093623,0.013366,0.0084348,0.026074,1.0592e-06,0.6,0.85,0.35
0.031939,-0.0047577,0.0021629,0.025788,-0.00067827,7.6597e-05,0.00034978,0.00047992,-0.00016315,0.045301,-0.014842,-0.012908,0.0016012,0.0023861,-0.00075709,0,0,0,0.025803,0.00037751,-0.00099416,0.013399,0.0083954,0.026143,1.068e-06,0.65,0.85,0.35
0.034248,-0.0049484,0.0022314,0.026093,-0.00070351,4.7012e-05,0.0005961,0.00049757,-0.00025357,0.047205,-0.015395,-0.013513,0.0027147,0.0023646,-0.0011253,0,0,0,0.026124,0.0003485,-0.0010357,0.01358,0.0084788,0.026499,1.1067e-06,0.7,0.85,0.35
0.036688,-0.0052667,0.0023304,0.026416,-0.00047555,3.3151e-05,0.00061355,0.00033568,-0.00024727,0.049743,-0.015687,-0.014486,0.0028225,0.0015328,-0.0010586,0,0,0,0.026451,0.00028927,-0.00076659,0.013609,0.0086578,0.026711,1.1019e-06,0.75,0.85,0.35
0.03925,-0.0056256,0.0024406,0.026461,7.4107e-05,3.8532e-05,0.00046175,-3.2411e-06,-0.00017889,0.051813,-0.015378,-0.015532,0.0022619,-8.9128e-05,-0.00083049,0,0,0,0.026483,0.00039462,-0.00030401,0.013394,0.0088579,0.026448,9.9606e-07,0.8,0.85,0.35
0.041881,-0.005923,0.0025306,0.026646,0.00044483,-6.2242e-05,0.00035861,-0.00026702,-0.00013305,0.053062,-0.015061,-0.016379,0.0018648,-0.0013885,-0.00069183,0,0,0,0.026657,0.00059319,-0.00022172,0.013439,0.0090095,0.026482,9.537e-07,0.85,0.85,0.35
0.044556,-0.0061184,0.0025875,0.026984,0.00041834,-0.00025134,0.00030057,-0.00036659,-0.0001157,0.053867,-0.015203,-0.016944,0.001563,-0.0019063,-0.00060163,0,0,0,0.026991,0.00059876,-0.00043852,0.013715,0.0090503,0.026926,1.0006e-06,0.9,0.85,0.35
0.047268,-0.0062227,0.0026176,0.027187,0.00027908,-0.00038667,0.00014862,-0.000389,-5.9005e-05,0.054438,-0.015522,-0.017253,0.00077283,-0.0020228,-0.00030683,0,0,0,0.02719,0.00048154,-0.00059213,0.013891,0.0090264,0.027261,1.0382e-06,0.95,0.85,0.35
0.048631,-0.0062549,0.0026268,0.027257,0.00021984,-0.00043172,3.8185e-05,-0.00039119,-1.9444e-05,0.054641,-0.015655,-0.017349,0.00019856,-0.0020342,-0.00010111,0,0,0,0.027258,0.00042796,-0.00064122,0.01395,0.009015,0.027381,1.0519e-06,1,0.85,0.35
0.0010198,-0.00079214,0.00020944,0.026789,0.0087227,0.0098775,-0.0055167,-2.5446e-05,0.0015881,0.042417,-0.0045543,-0.0015519,-0.028687,-0.00013232,0.0082583,0,0,0,0.02855,0.0098296,0.007009,0.010771,0.01513,0.020293,4.0671e-07,0,0.9,0.35
0.0021209,-0.001553,0.0004141,0.026697,0.0065594,0.0084474,-0.0048713,-5.1899e-05,0.0015438,0.04439,-0.0079679,-0.0030591,-0.025331,-0.00026988,0.0080278,0,0,0,0.028052,0.0083751,0.0052773,0.011387,0.013901,0.021408,4.7695e-07,0.05,0.9,0.35
0.004439,-0.0029594,0.00080974,0.026859,0.0034257,0.0061129,-0.0035497,-0.00010549,0.0014169,0.047995,-0.012932,-0.0059451,-0.018458,-0.00054856,0.0073678,0,0,0,0.027557,0.0060227,0.0028177,0.01237,0.012133,0.023314,6.144e-07,0.1,0.9,0.35
0.0069204,-0.0040907,0.0011705,0.027058,0.0019495,0.0044489,-0.0023452,-0.0001584,0.0012249,0.050276,-0.015005,-0.0085065,-0.012195,-0.00082366,0.0063695,0,0,0,0.027384,0.0043824,0.0016901,0.012847,0.011152,0.024466,7.2187e-07,0.15,0.9,0.35
0.0094667,-0.0049243,0.0014837,0.026865,0.0011795,0.0030956,-0.0014798,-0.00020716,0.00099433,0.051165,-0.015617,-0.010636,-0.0076951,-0.0010772,0.0051705,0,0,0,0.027013,0.0030693,0.0010577,0.012978,0.01038,0.025015,7.8628e-07,0.2,0.9,0.35
0.012037,-0.0055082,0.001741,0.026588,0.00079437,0.0020748,-0.00093089,-0.0002483,0.00075365,0.051454,-0.015609,-0.01228,-0.0048406,-0.0012912,0.003919,0,0,0,0.026656,0.002102,0.00069914,0.012978,0.009819,0.025287,8.2239e-07,0.25,0.9,0.35
0.014612,-0.0058846,0.0019391,0.026314,0.00063893,0.0013689,-0.00056877,-0.0002746,0.00052443,0.051422,-0.015332,-0.013434,-0.0029576,-0.0014279,0.002727,0,0,0,0.026344,0.0014646,0.00051251,0.012916,0.0094404,0.02537,8.3567e-07,0.3,0.9,0.35
0.017179,-0.0060802,0.0020785,0.026038,0.00059776,0.00093057,-0.00028788,-0.0002698,0.00031697,0.05116,-0.014986,-0.014121,-0.001497,-0.0014029,0.0016483,0,0,0,0.026051,0.0010899,0.00042572,0.012813,0.0091889,0.025301,8.3076e-07,0.35,0.9,0.35
0.019728,-0.0061127,0.0021624,0.025735,0.00052973,0.00068908,-3.8097e-05,-0.00020778,0.00013735,0.050738,-0.014795,-0.01438,-0.0001981,-0.0010805,0.00071422,0,0,0,0.02574,0.00083952,0.00037373,0.012683,0.0089845,0.025137,8.1539e-07,0.4,0.9,0.35
0.022253,-0.0060056,0.002198,0.025377,0.00028462,0.00055715,0.00014648,-5.8336e-05,-8.5724e-07,0.050249,-0.014991,-0.014283,0.0007617,-0.00030335,-4.4576e-06,0,0,0,0.025383,0.00063998,0.00019592,0.012594,0.0087396,0.024969,7.9869e-07,0.45,0.9,0.35
0.024753,-0.0058096,0.0022016,0.024996,-0.00011869,0.00048609,0.00021255,0.00014962,-7.3145e-05,0.049772,-0.015527,-0.013954,0.0011053,0.000778,-0.00038036,0,0,0,0.025005,0.0005602,-0.0002012,0.012603,0.0084546,0.024837,7.8386e-07,0.5,0.9,0.35
0.02723,-0.0056119,0.0021938,0.024767,-0.00045931,0.00045063,0.00018986,0.00032954,-8.1112e-05,0.049249,-0.015951,-0.013596,0.00099139,0.001714,-0.00042051,0,0,0,0.024775,0.00058559,-0.00060151,0.012688,0.0082529,0.024806,7.8428e-07,0.55,0.9,0.35
0.029681,-0.0055052,0.0021947,0.024774,-0.0006125,0.00040682,0.00015605,0.00043209,-7.8509e-05,0.048796,-0.016038,-0.013419,0.00080307,0.0022478,-0.0004051,0,0,0,0.024778,0.00059643,-0.00080646,0.012792,0.0081893,0.024914,8.0552e-07,0.6,0.9,0.35
0.032121,-0.0055478,0.002223,0.024792,-0.00062941,0.00034109,0.00012717,0.00043549,-8.2987e-05,0.048881,-0.016043,-0.01355,0.00063216,0.002265,-0.00042907,0,0,0,0.024796,0.00053773,-0.00083062,0.012813,0.0081678,0.024972,8.1147e-07,0.65,0.9,0.35
0.03458,-0.0057445,0.0022813,0.024819,-0.00051185,0.00024348,6.3959e-05,0.00034002,-5.3613e-05,0.049507,-0.015962,-0.014008,0.00031597,0.0017681,-0.0002782,0,0,0,0.024826,0.00040095,-0.00067613,0.012751,0.0081834,0.024983,8.0213e-07,0.7,0.9,0.35
0.037075,-0.0060478,0.002357,0.025069,-0.0002126,0.00010495,-1.5943e-05,0.00016514,-5.3521e-06,0.050203,-0.01553,-0.014704,-8.2905e-05,0.00085871,-2.7831e-05,0,0,0,0.025076,0.00026468,-0.00037917,0.012728,0.0083205,0.025142,8.141e-07,0.75,0.9,0.35
0.039601,-0.0063775,0.0024366,0.025451,0.00014102,-5.3726e-05,-4.1152e-05,-4.2722e-05,1.1513e-05,0.05085,-0.014956,-0.015463,-0.00021399,-0.00022215,5.9869e-05,0,0,0,0.025455,0.00028444,-0.00020123,0.012828,0.0085128,0.025418,8.4251e-07,0.8,0.9,0.35
0.04216,-0.0066608,0.0025061,0.025781,0.00032454,-0.00023135,6.3561e-06,-0.00019812,-1.1516e-07,0.051506,-0.014681,-0.016126,3.3052e-05,-0.0010302,-5.9882e-07,0,0,0,0.025783,0.00040121,-0.00031002,0.013046,0.0086247,0.025746,8.7467e-07,0.85,0.9,0.35
0.044751,-0.0068631,0.0025559,0.026013,0.00030951,-0.00040929,5.6951e-05,-0.00027418,-1.2008e-05,0.052086,-0.014743,-0.016612,0.00029615,-0.0014257,-6.2443e-05,0,0,0,0.026014,0.00042103,-0.00052202,0.013268,0.0086377,0.026078,9.0789e-07,0.9,0.9,0.35
0.047368,-0.0069801,0.0025848,0.026151,0.00022964,-0.00053576,1.5834e-05,-0.00030267,-2.2462e-06,0.052487,-0.01491,-0.0169,8.2335e-05,-0.0015739,-1.168e-05,0,0,0,0.026152,0.00035682,-0.00066368,0.013408,0.0086151,0.026321,9.3317e-07,0.95,0.9,0.35
0.048682,-0.007018,0.0025942,0.026199,0.00019176,-0.00058009,-3.8268e-05,-0.00030887,1.0765e-05,0.052631,-0.014988,-0.016995,-0.00019899,-0.0016061,5.598e-05,0,0,0,0.0262,0.00032294,-0.00071192,0.013456,0.0086036,0.02641,9.4265e-07,1,0.9,0.35
0.0012139,-0.0010812,0.00021134,0.030385,0.0086835,0.010939,-0.0065893,-1.4154e-05,0.0016044,0.048996,-0.0074275,-0.0015622,-0.034264,-7.36e-05,0.008343,0,0,0,0.032569,0.010887,0.0065517,0.013008,0.016669,0.024166,7.0139e-07,0,0.95,0.35
0.0024498,-0.0020318,0.00041753,0.029014,0.0056363,0.0088566,-0.0051654,-3.1507e-05,0.0015597,0.049332,-0.01145,-0.003077,-0.02686,-0.00016384,0.0081105,0,0,0,0.030476,0.0087796,0.0042512,0.013112,0.014502,0.024299,6.8152e-07,0.05,0.95,0.35
0.0049332,-0.0036837,0.00081566,0.027126,0.0019477,0.0057355,-0.0028822,-6.8804e-05,0.0014284,0.049643,-0.015822,-0.0059734,-0.014987,-0.00035778,0.0074274,0,0,0,0.027639,0.0056417,0.0015283,0.013056,0.011603,0.024333,6.7087e-07,0.1,0.95,0.35
0.0074141,-0.0048801,0.0011778,0.026161,0.00095127,0.0038659,-0.0015655,-0.00010689,0.0012246,0.049432,-0.016114,-0.0085358,-0.0081408,-0.00055585,0.0063681,0,0,0,0.026365,0.0037961,0.00081707,0.012774,0.010326,0.024206,6.9122e-07,0.15,0.95,0.35
0.0098764,-0.0057187,0.0014911,0.025477,0.00045384,0.002452,-0.00086341,-0.00014033,0.00097507,0.049209,-0.015849,-0.010654,-0.0044897,-0.00072971,0.0050704,0,0,0,0.025565,0.002417,0.00040078,0.012582,0.0094608,0.024225,7.1418e-07,0.2,0.95,0.35
0.012335,-0.0062888,0.0017469,0.025114,0.00025898,0.0014747,-0.00047601,-0.00016644,0.00070943,0.049188,-0.015435,-0.012274,-0.0024752,-0.00086549,0.003689,0,0,0,0.025152,0.0014802,0.00021508,0.012469,0.0089493,0.024333,7.3484e-07,0.25,0.95,0.35
0.014795,-0.0066467,0.0019422,0.024926,0.00020333,0.0008411,-0.00023031,-0.00018005,0.00045314,0.049225,-0.015053,-0.013395,-0.0011976,-0.00093627,0.0023563,0,0,0,0.024941,0.00089349,0.00013599,0.012402,0.0086567,0.024436,7.486e-07,0.3,0.95,0.35
0.017257,-0.0068258,0.0020788,0.024846,0.00021221,0.00049128,-3.208e-05,-0.00017155,0.00022354,0.04927,-0.014778,-0.014053,-0.00016682,-0.00089206,0.0011624,0,0,0,0.024851,0.00058221,0.00011657,0.012367,0.0085166,0.024506,7.5607e-07,0.35,0.95,0.35
0.019722,-0.0068506,0.0021624,0.024857,0.00021624,0.00036795,0.00015406,-0.00012705,3.3129e-05,0.049364,-0.014703,-0.014308,0.0008011,-0.00066064,0.00017227,0,0,0,0.02486,0.00044887,0.00013251,0.012364,0.0084805,0.024571,7.6212e-07,0.4,0.95,0.35
0.022194,-0.006752,0.0022032,0.02495,0.00014117,0.0004002,0.00031043,-3.8171e-05,-0.00010355,0.049575,-0.014928,-0.014254,0.0016142,-0.00019849,-0.00053848,0,0,0,0.024955,0.00043673,9.9163e-05,0.012428,0.008497,0.024689,7.7264e-07,0.45,0.95,0.35
0.02468,-0.0065819,0.0022156,0.025094,-3.735e-05,0.00050665,0.00038423,7.9389e-05,-0.00017419,0.049906,-0.015435,-0.01402,0.001998,0.00041282,-0.00090579,0,0,0,0.025101,0.00053398,-7.2509e-05,0.012587,0.008521,0.024878,7.8898e-07,0.5,0.95,0.35
0.027184,-0.006413,0.0022172,0.025255,-0.00023697,0.00062113,0.00033532,0.00019705,-0.00017986,0.050279,-0.015999,-0.013768,0.0017437,0.0010247,-0.00093525,0,0,0,0.025261,0.00068132,-0.00030374,0.012783,0.0085463,0.025088,8.0679e-07,0.55,0.95,0.35
0.029708,-0.0063225,0.0022255,0.025389,-0.00035557,0.00068245,0.00018624,0.00027947,-0.00012876,0.050583,-0.016354,-0.013655,0.00096844,0.0014533,-0.00066954,0,0,0,0.025393,0.00077559,-0.00045193,0.012922,0.0085721,0.025254,8.2103e-07,0.6,0.95,0.35
0.032243,-0.0063652,0.0022529,0.025444,-0.00035809,0.00063223,-1.1397e-08,0.00028136,-4.4855e-05,0.050723,-0.016362,-0.013787,-5.9053e-08,0.0014631,-0.00023325,0,0,0,0.025445,0.00072945,-0.00045663,0.012951,0.0085727,0.025331,8.2897e-07,0.65,0.95,0.35
0.03478,-0.0065458,0.0023023,0.025415,-0.00024712,0.00046034,-0.00016138,0.00020311,3.223e-05,0.050703,-0.01602,-0.01418,-0.00083917,0.0010562,0.00016759,0,0,0,0.025417,0.00053286,-0.00032155,0.012869,0.0085429,0.025324,8.3078e-07,0.7,0.95,0.35
0.037313,-0.0068197,0.0023672,0.025352,-5.893e-05,0.00020548,-0.00023819,8.9165e-05,8.1404e-05,0.050616,-0.015452,-0.014765,-0.0012386,0.00046366,0.0004233,0,0,0,0.025355,0.00030327,-0.0001597,0.012757,0.0084996,0.025288,8.2939e-07,0.75,0.95,0.35
0.039842,-0.0071213,0.0024364,0.025289,0.00010536,-9.1993e-05,-0.0002124,-2.7206e-05,9.8141e-05,0.05057,-0.014908,-0.015421,-0.0011045,-0.00014147,0.00051033,0,0,0,0.025292,0.00019422,-0.00018354,0.012738,0.0084342,0.025289,8.2998e-07,0.8,0.95,0.35
0.04237,-0.007391,0.002499,0.025249,0.00016226,-0.00039019,-0.00012975,-0.00011896,8.5134e-05,0.050635,-0.014591,-0.016027,-0.00067468,-0.00061859,0.0004427,0,0,0,0.025251,0.00019487,-0.00042428,0.012838,0.0083404,0.025372,8.3717e-07,0.85,0.95,0.35
0.044905,-0.0075927,0.0025472,0.025246,0.00013292,-0.00063616,-5.1641e-05,-0.00017177,5.7328e-05,0.050793,-0.0145,-0.0165,-0.00026853,-0.0008932,0.00029811,0,0,0,0.025246,0.00018326,-0.00068705,0.012967,0.0082475,0.02551,8.4969e-07,0.9,0.95,0.35
0.047449,-0.0077137,0.0025769,0.025261,8.3545e-05,-0.00079319,-4.8507e-05,-0.00019475,3.7433e-05,0.050949,-0.014514,-0.016793,-0.00025224,-0.0010127,0.00019465,0,0,0,0.025262,0.00014121,-0.00085125,0.013057,0.0081839,0.025631,8.6123e-07,0.95,0.95,0.35
0.048724,-0.0077537,0.0025869,0.02527,6.1232e-05,-0.00084688,-7.6586e-05,-0.00020079,3.2759e-05,0.051012,-0.014532,-0.016893,-0.00039825,-0.0010441,0.00017035,0,0,0,0.025271,0.00012061,-0.00090679,0.013089,0.0081615,0.025679,8.6585e-07,1,0.95,0.35
0.0013765,-0.0012722,0.00021325,0.033372,0.0090568,0.011941,-0.0072447,-8.916e-06,0.0016217,0.054146,-0.0090741,-0.0015764,-0.037673,-4.6363e-05,0.0084329,0,0,0,0.035795,0.011887,0.0066877,0.014554,0.018123,0.026915,9.3943e-07,0,1,0.35
0.0027073,-0.0023267,0.00042107,0.030839,0.0053849,0.0093155,-0.0052931,-2.1718e-05,0.0015779,0.052857,-0.013323,-0.0031032,-0.027524,-0.00011294,0.0082052,0,0,0,0.032348,0.0092356,0.0039558,0.014196,0.01518,0.026176,8.332e-07,0.05,1,0.35
0.0052857,-0.0040899,0.00082207,0.027152,0.0012164,0.0055004,-0.0024078,-5.0414e-05,0.0014457,0.050274,-0.017159,-0.0060202,-0.012521,-0.00026215,0.0075177,0,0,0,0.027548,0.0054028,0.00091791,0.013315,0.01129,0.024713,6.9151e-07,0.1,1,0.35
0.0077347,-0.0052895,0.0011865,0.025369,0.00042391,0.0034396,-0.0011019,-8.0267e-05,0.0012362,0.048421,-0.016438,-0.0085968,-0.0057298,-0.00041739,0.0064283,0,0,0,0.025512,0.0033662,0.00035487,0.012579,0.0097443,0.023806,6.5524e-07,0.15,1,0.35
0.010128,-0.0061173,0.0015011,0.02451,4.9635e-05,0.0020072,-0.00054956,-0.00010557,0.00097655,0.047786,-0.015811,-0.010721,-0.0028577,-0.00054895,0.005078,0,0,0,0.024574,0.0019671,2.5423e-05,0.012275,0.0088556,0.023646,6.6402e-07,0.2,1,0.35
0.012513,-0.0066752,0.0017571,0.024199,-4.6141e-05,0.0010769,-0.00027089,-0.00012448,0.00069748,0.047779,-0.015258,-0.012338,-0.0014086,-0.0006473,0.0036269,0,0,0,0.024227,0.0010725,-7.0601e-05,0.012149,0.0084098,0.023751,6.836e-07,0.25,1,0.35
0.014906,-0.0070229,0.0019515,0.024117,-4.7672e-05,0.00049845,-9.9721e-05,-0.00013328,0.00042656,0.047963,-0.014865,-0.013445,-0.00051855,-0.00069306,0.0022181,0,0,0,0.024128,0.00053369,-9.3694e-05,0.012111,0.0081892,0.023915,7.0181e-07,0.3,1,0.35
0.01731,-0.0071951,0.0020863,0.024182,-3.4996e-06,0.00021283,4.2321e-05,-0.00012505,0.00018392,0.048239,-0.014644,-0.014082,0.00022007,-0.00065028,0.00095638,0,0,0,0.024185,0.00027923,-7.3087e-05,0.012129,0.0081305,0.024085,7.1778e-07,0.35,1,0.35
0.01973,-0.0072184,0.0021681,0.024383,4.1228e-05,0.00016869,0.0001804,-9.1635e-05,-1.437e-05,0.04864,-0.014649,-0.014317,0.00093806,-0.0004765,-7.4726e-05,0,0,0,0.024386,0.00022608,-1.8804e-05,0.012202,0.0081977,0.024283,7.3568e-07,0.4,1,0.35
0.022174,-0.0071256,0.0022077,0.024714,4.1624e-05,0.00030098,0.00029685,-2.9377e-05,-0.00015323,0.049222,-0.014926,-0.014251,0.0015436,-0.00015276,-0.0007968,0,0,0,0.024719,0.00032294,1.4119e-05,0.012353,0.0083521,0.024552,7.6e-07,0.45,1,0.35
0.024652,-0.0069675,0.00222,0.025133,-1.3938e-05,0.00052732,0.00034844,5.4245e-05,-0.00022122,0.049958,-0.015424,-0.014017,0.0018119,0.00028207,-0.0011503,0,0,0,0.025141,0.00053955,-3.3767e-05,0.012587,0.0085488,0.024894,7.9089e-07,0.5,1,0.35
0.027169,-0.0068124,0.0022222,0.025548,-0.00010003,0.00074872,0.00030201,0.00013864,-0.00021424,0.050707,-0.015978,-0.013771,0.0015704,0.00072095,-0.0011141,0,0,0,0.025554,0.00077921,-0.00013675,0.012846,0.0087323,0.025246,8.2287e-07,0.55,1,0.35
0.029722,-0.0067317,0.0022308,0.025836,-0.00016982,0.00086728,0.00016081,0.00019416,-0.00014327,0.051253,-0.016361,-0.013665,0.00083624,0.0010096,-0.00074499,0,0,0,0.025838,0.00091507,-0.00022051,0.013029,0.0088443,0.02551,8.4722e-07,0.6,1,0.35
0.032295,-0.0067746,0.0022576,0.025912,-0.00016584,0.00082614,-2.2996e-05,0.00019576,-3.9324e-05,0.051429,-0.016375,-0.013796,-0.00011958,0.001018,-0.00020449,0,0,0,0.025913,0.00087675,-0.00021755,0.013066,0.0088576,0.025602,8.5673e-07,0.65,1,0.35
0.034865,-0.0069456,0.0023056,0.025777,-8.9644e-05,0.00061593,-0.00017114,0.00014361,5.8003e-05,0.051238,-0.016015,-0.014181,-0.00088991,0.00074676,0.00030162,0,0,0,0.025779,0.00065422,-0.00012986,0.012954,0.0087677,0.025527,8.5143e-07,0.7,1,0.35
0.037418,-0.0072056,0.0023689,0.025508,9.1197e-07,0.00027482,-0.000234,6.2233e-05,0.00012012,0.05085,-0.015468,-0.014756,-0.0012168,0.00032361,0.00062462,0,0,0,0.025511,0.00034545,-7.2924e-05,0.012792,0.0085945,0.025378,8.3858e-07,0.75,1,0.35
0.03995,-0.0074942,0.0024373,0.025222,6.0599e-05,-0.00011945,-0.00021144,-1.9993e-05,0.0001398,0.050479,-0.01494,-0.015408,-0.0010995,-0.00010397,0.00072695,0,0,0,0.025225,0.00014014,-0.00020205,0.012714,0.0083877,0.025258,8.2704e-07,0.8,1,0.35
0.042466,-0.0077558,0.0025003,0.025002,6.4295e-05,-0.00049133,-0.00014006,-8.3768e-05,0.00012487,0.05026,-0.014578,-0.016022,-0.00072831,-0.00043559,0.00064933,0,0,0,0.025004,7.979e-05,-0.00050867,0.012756,0.0081916,0.025224,8.2262e-07,0.85,1,0.35
0.044976,-0.0079545,0.0025496,0.024874,2.2822e-05,-0.00078538,-6.8203e-05,-0.0001227,8.8946e-05,0.050205,-0.014407,-0.016509,-0.00035466,-0.00063804,0.00046252,0,0,0,0.024875,4.7417e-05,-0.00081073,0.012843,0.0080371,0.025268,8.2544e-07,0.9,1,0.35
0.047487,-0.0080754,0.0025805,0.024821,-2.213e-05,-0.00096813,-6.1255e-05,-0.00014096,5.5296e-05,0.050237,-0.014356,-0.016816,-0.00031853,-0.00073298,0.00028754,0,0,0,0.024822,5.9735e-06,-0.0009967,0.012909,0.0079437,0.025332,8.3078e-07,0.95,1,0.35
0.048743,-0.0081156,0.002591,0.02481,-4.0046e-05,-0.0010292,-8.4738e-05,-0.00014589,4.293e-05,0.050261,-0.014348,-0.01692,-0.00044064,-0.00075862,0.00022324,0,0,0,0.02481,-1.1349e-05,-0.0010585,0.012934,0.0079134,0.025361,8.333e-07,1,1,0.35
0.0013286,0.0012227,0.00013053,0.032231,0.0087484,0.011616,0.00695,1.5739e-06,0.00099215,0.052244,-0.0088117,-0.0013554,0.03614,8.1843e-06,0.0051592,0,0,0,0.034488,0.011594,0.0065146,0.013986,0.017532,0.025843,8.2721e-07,0,0,0.4
0.0026122,0.0022347,0.00025905,0.029806,0.0052134,0.0091636,0.0050587,5.5163e-06,0.00096731,0.050987,-0.012955,-0.0026847,0.026305,2.8685e-05,0.00503,0,0,0,0.031184,0.0091304,0.0038689,0.013658,0.014728,0.025124,7.2844e-07,0.05,0,0.4
0.0050987,0.0039233,0.0005097,0.026301,0.0012081,0.005622,0.0022507,1.543e-05,0.00089266,0.048505,-0.016738,-0.0052617,0.011704,8.0237e-05,0.0046418,0,0,0,0.026617,0.0055809,0.00093391,0.012841,0.011044,0.023719,5.9955e-07,0.1,0,0.4
0.0074627,0.0050658,0.000743,0.024679,0.00045581,0.0037298,0.00095504,2.6192e-05,0.00077303,0.046846,-0.016133,-0.0076212,0.0049662,0.0001362,0.0040198,0,0,0,0.024767,0.0036976,0.00039951,0.012184,0.0096214,0.022907,5.7411e-07,0.15,0,0.4
0.0097833,0.0058501,0.00095096,0.024011,9.4276e-05,0.0023959,0.00038458,3.3932e-05,0.00062288,0.046529,-0.015656,-0.0096716,0.0019998,0.00017645,0.003239,0,0,0,0.024043,0.0023757,8.2726e-05,0.01198,0.0088339,0.022908,5.9692e-07,0.2,0,0.4
0.012116,0.0063818,0.0011284,0.02393,-1.5439e-05,0.0014932,9.02e-05,3.7872e-05,0.00046214,0.046973,-0.015285,-0.011362,0.00046904,0.00019694,0.0024031,0,0,0,0.023943,0.0014833,-1.8479e-05,0.011981,0.0084692,0.023251,6.3714e-07,0.25,0,0.4
0.014481,0.0067314,0.0012735,0.024094,-5.3975e-05,0.00086835,-7.1449e-05,3.8068e-05,0.00030942,0.047698,-0.015085,-0.012687,-0.00037153,0.00019796,0.001609,0,0,0,0.024099,0.00086577,-5.6984e-05,0.012078,0.0083026,0.02371,6.8179e-07,0.3,0,0.4
0.016885,0.0069479,0.0013878,0.024367,-6.3874e-05,0.00045313,-0.00016281,3.5057e-05,0.00017779,0.048501,-0.01502,-0.013676,-0.0008466,0.0001823,0.0009245,0,0,0,0.02437,0.00045506,-6.8763e-05,0.012219,0.0082521,0.024182,7.2573e-07,0.35,0,0.4
0.019331,0.0070688,0.0014746,0.024679,-6.6164e-05,0.00019453,-0.00020985,2.9664e-05,7.3874e-05,0.049281,-0.015057,-0.014379,-0.0010912,0.00015425,0.00038415,0,0,0,0.024681,0.00019935,-7.3299e-05,0.012377,0.0082692,0.02462,7.666e-07,0.4,0,0.4
0.021814,0.0071245,0.0015386,0.02499,-6.8668e-05,4.8342e-05,-0.00022384,2.2888e-05,-1.0737e-06,0.049992,-0.01516,-0.014856,-0.001164,0.00011902,-5.5835e-06,0,0,0,0.024992,5.6063e-05,-7.8646e-05,0.012535,0.0083231,0.025004,8.031e-07,0.45,0,0.4
0.02433,0.0071408,0.0015848,0.025271,-7.3019e-05,-2.4317e-05,-0.0002103,1.5813e-05,-4.94e-05,0.050601,-0.015294,-0.015167,-0.0010935,8.2226e-05,-0.00025688,0,0,0,0.025273,-1.3219e-05,-8.6205e-05,0.01268,0.0083913,0.025323,8.3419e-07,0.5,0,0.4
0.026874,0.0071393,0.0016176,0.025501,-7.6967e-05,-5.6614e-05,-0.00017418,9.491e-06,-7.5444e-05,0.051083,-0.015421,-0.015368,-0.00090573,4.9353e-05,-0.00039231,0,0,0,0.025503,-4.2529e-05,-9.2683e-05,0.012798,0.008456,0.025571,8.5883e-07,0.55,0,0.4
0.029438,0.0071365,0.001641,0.025665,-7.6756e-05,-7.4813e-05,-0.00012253,4.7893e-06,-8.4374e-05,0.051421,-0.015508,-0.015503,-0.00063716,2.4904e-05,-0.00043874,0,0,0,0.025666,-5.5661e-05,-9.6945e-05,0.012882,0.0085045,0.025742,8.7618e-07,0.6,0,0.4
0.032016,0.0071436,0.0016581,0.025754,-6.9545e-05,-9.7079e-05,-6.481e-05,2.2271e-06,-8.14e-05,0.051609,-0.015534,-0.015605,-0.00033701,1.1581e-05,-0.00042328,0,0,0,0.025755,-6.0003e-05,-0.00010716,0.012931,0.0085293,0.025839,8.86e-07,0.65,0,0.4
0.034599,0.0071656,0.0016711,0.025773,-5.5121e-05,-0.00013298,-1.1282e-05,1.8769e-06,-7.1232e-05,0.051658,-0.015494,-0.015697,-5.8664e-05,9.7596e-06,-0.0003704,0,0,0,0.025773,-5.2725e-05,-0.00013565,0.012954,0.0085282,0.025867,8.8893e-07,0.7,0,0.4
0.037182,0.0072016,0.0016814,0.025734,-3.6045e-05,-0.00018402,2.9494e-05,3.3773e-06,-5.7701e-05,0.051599,-0.015402,-0.015787,0.00015337,1.7562e-05,-0.00030004,0,0,0,0.025734,-3.5728e-05,-0.00018454,0.012959,0.0085045,0.025844,8.8648e-07,0.75,0,0.4
0.039759,0.0072466,0.0016898,0.025657,-1.6302e-05,-0.00024532,5.2667e-05,6.0621e-06,-4.3559e-05,0.051472,-0.01528,-0.015875,0.00027387,3.1523e-05,-0.00022651,0,0,0,0.025658,-1.6202e-05,-0.00024562,0.012952,0.0084653,0.025789,8.8071e-07,0.8,0,0.4
0.042329,0.0072932,0.0016965,0.025568,5.4825e-07,-0.00030804,5.766e-05,9.1474e-06,-3.0439e-05,0.051321,-0.015155,-0.015957,0.00029983,4.7567e-05,-0.00015828,0,0,0,0.025568,8.0283e-07,-0.00030848,0.012938,0.0084202,0.025723,8.7378e-07,0.85,0,0.4
0.044891,0.0073333,0.0017014,0.025487,1.2561e-05,-0.00036211,4.7304e-05,1.1907e-05,-1.8979e-05,0.051184,-0.01505,-0.016024,0.00024598,6.1918e-05,-9.8689e-05,0,0,0,0.025487,1.309e-05,-0.00036276,0.012925,0.0083792,0.025664,8.6755e-07,0.9,0,0.4
0.047447,0.0073603,0.0017045,0.025432,1.9424e-05,-0.00039858,3.5825e-05,1.3787e-05,-8.0327e-06,0.051091,-0.014981,-0.016068,0.00018629,7.1693e-05,-4.177e-05,0,0,0,0.025432,2.0178e-05,-0.00039939,0.012915,0.0083508,0.025624,8.6331e-07,0.95,0,0.4
0.048724,0.0073698,0.0017055,0.025412,2.1614e-05,-0.00041144,3.2838e-05,1.4451e-05,-2.3782e-06,0.051058,-0.014957,-0.016083,0.00017076,7.5145e-05,-1.2367e-05,0,0,0,0.025412,2.2445e-05,-0.00041232,0.012912,0.0083407,0.02561,8.6182e-07,1,0,0.4
0.0011711,0.0010372,0.00012966,0.029331,0.0083892,0.010643,0.0063051,3.6209e-06,0.00098407,0.047243,-0.0072059,-0.0013465,0.032786,1.8829e-05,0.0051172,0,0,0,0.031346,0.010621,0.0063956,0.012475,0.016121,0.023156,6.1484e-07,0,0.05,0.4
0.0023621,0.001948,0.00025741,0.028021,0.0054614,0.0087106,0.0049189,9.2345e-06,0.00095832,0.047538,-0.011116,-0.0026681,0.025578,4.802e-05,0.0049832,0,0,0,0.029344,0.0086787,0.0041703,0.012587,0.014064,0.023271,5.9275e-07,0.05,0.05,0.4
0.0047538,0.0035276,0.00050661,0.026232,0.0019246,0.0058317,0.0026811,2.2122e-05,0.00088263,0.047811,-0.015389,-0.0052308,0.013942,0.00011504,0.0045897,0,0,0,0.026653,0.0057922,0.0015436,0.012555,0.011329,0.023291,5.7864e-07,0.1,0.05,0.4
0.0071432,0.0046651,0.0007386,0.025369,0.00097406,0.0041138,0.0013597,3.534e-05,0.00076348,0.047685,-0.015741,-0.007578,0.0070704,0.00018377,0.0039701,0,0,0,0.025509,0.0040831,0.00086469,0.012322,0.010152,0.023212,6.0062e-07,0.15,0.05,0.4
0.0095223,0.0054568,0.00094539,0.024833,0.00048484,0.002786,0.0006265,4.4992e-05,0.00061515,0.047703,-0.015602,-0.0096187,0.0032578,0.00023396,0.0031988,0,0,0,0.02488,0.002767,0.0004566,0.012212,0.0093679,0.023361,6.3371e-07,0.2,0.05,0.4
0.011914,0.0059963,0.0011219,0.024663,0.00026137,0.0018258,0.00021003,4.993e-05,0.00045705,0.048075,-0.015371,-0.011303,0.0010922,0.00025964,0.0023767,0,0,0,0.02468,0.0018172,0.00025378,0.012213,0.0089169,0.023687,6.734e-07,0.25,0.05,0.4
0.01433,0.0063508,0.0012665,0.024698,0.0001441,0.0011395,-3.4803e-05,5.0066e-05,0.00030709,0.048626,-0.015214,-0.012626,-0.00018097,0.00026034,0.0015969,0,0,0,0.024704,0.0011385,0.0001392,0.012282,0.0086605,0.024083,7.1406e-07,0.3,0.05,0.4
0.016776,0.0065692,0.0013805,0.02484,7.4629e-05,0.00066659,-0.00018033,4.5967e-05,0.00017787,0.049236,-0.015155,-0.013616,-0.0009377,0.00023903,0.00092491,0,0,0,0.024844,0.00067011,6.7743e-05,0.012388,0.0085272,0.024481,7.5276e-07,0.35,0.05,0.4
0.019253,0.0066896,0.0014673,0.025032,2.337e-05,0.00035565,-0.00026061,3.8634e-05,7.5767e-05,0.049837,-0.015186,-0.014322,-0.0013552,0.0002009,0.00039399,0,0,0,0.025035,0.00036137,1.4252e-05,0.012511,0.0084703,0.02485,7.8813e-07,0.4,0.05,0.4
0.02176,0.0067432,0.0015315,0.025237,-2.2258e-05,0.00016276,-0.00029131,2.9366e-05,2.0224e-06,0.050389,-0.015284,-0.014803,-0.0015148,0.00015271,1.0517e-05,0,0,0,0.025241,0.00016937,-3.2668e-05,0.012637,0.0084591,0.025173,8.1945e-07,0.45,0.05,0.4
0.024292,0.0067564,0.0015779,0.025429,-6.4526e-05,4.9852e-05,-0.0002804,1.9646e-05,-4.5619e-05,0.050867,-0.015417,-0.015119,-0.0014581,0.00010216,-0.00023722,0,0,0,0.025433,5.7047e-05,-7.5348e-05,0.012754,0.0084715,0.025442,8.4599e-07,0.5,0.05,0.4
0.026847,0.006752,0.0016111,0.02559,-9.8871e-05,-1.4827e-05,-0.0002351,1.0967e-05,-7.1364e-05,0.051247,-0.015543,-0.015324,-0.0012225,5.7029e-05,-0.00037109,0,0,0,0.025592,-6.7602e-06,-0.00010971,0.012851,0.0084919,0.025651,8.6687e-07,0.55,0.05,0.4
0.029417,0.0067473,0.001635,0.025703,-0.00011808,-5.6108e-05,-0.00016579,4.5938e-06,-8.0271e-05,0.051511,-0.015625,-0.015463,-0.00086211,2.3888e-05,-0.00041741,0,0,0,0.025705,-4.5136e-05,-0.00013069,0.012918,0.0085097,0.025793,8.8133e-07,0.6,0.05,0.4
0.031998,0.006754,0.0016526,0.025764,-0.000117,-9.1452e-05,-8.6485e-05,1.2944e-06,-7.748e-05,0.051652,-0.015637,-0.015571,-0.00044972,6.731e-06,-0.0004029,0,0,0,0.025764,-6.7909e-05,-0.00014128,0.012953,0.0085184,0.025869,8.8911e-07,0.65,0.05,0.4
0.034582,0.0067772,0.0016661,0.025772,-9.5963e-05,-0.00013102,-1.243e-05,1.1724e-06,-6.7665e-05,0.051679,-0.015576,-0.015667,-6.4634e-05,6.0963e-06,-0.00035186,0,0,0,0.025772,-7.2728e-05,-0.00015456,0.012963,0.0085148,0.025886,8.9082e-07,0.7,0.05,0.4
0.037166,0.0068159,0.001677,0.025737,-6.1086e-05,-0.0001783,4.3776e-05,3.6817e-06,-5.463e-05,0.051618,-0.015458,-0.015762,0.00022763,1.9145e-05,-0.00028408,0,0,0,0.025737,-5.5392e-05,-0.00018425,0.012961,0.0084993,0.025858,8.8788e-07,0.75,0.05,0.4
0.039744,0.0068642,0.0016858,0.025676,-2.1514e-05,-0.00023123,7.5183e-05,7.8284e-06,-4.1083e-05,0.051504,-0.01531,-0.015855,0.00039095,4.0708e-05,-0.00021363,0,0,0,0.025677,-2.1192e-05,-0.00023189,0.012954,0.0084745,0.025804,8.8222e-07,0.8,0.05,0.4
0.042316,0.006914,0.0016929,0.025606,1.4334e-05,-0.00028399,8.1199e-05,1.2465e-05,-2.8604e-05,0.051375,-0.015165,-0.01594,0.00042224,6.4818e-05,-0.00014874,0,0,0,0.025607,1.4892e-05,-0.00028489,0.012946,0.0084456,0.025743,8.7582e-07,0.85,0.05,0.4
0.044882,0.0069569,0.0016981,0.025544,4.122e-05,-0.0003291,6.6097e-05,1.6551e-05,-1.7782e-05,0.051261,-0.015047,-0.016009,0.0003437,8.6064e-05,-9.2464e-05,0,0,0,0.025544,4.2355e-05,-0.00033046,0.012937,0.0084188,0.025691,8.7024e-07,0.9,0.05,0.4
0.047442,0.0069857,0.0017013,0.025502,5.7274e-05,-0.00035947,4.6714e-05,1.9309e-05,-7.3872e-06,0.051185,-0.014971,-0.016054,0.00024291,0.00010041,-3.8413e-05,0,0,0,0.025502,5.8882e-05,-0.00036119,0.012932,0.0083999,0.025656,8.6654e-07,0.95,0.05,0.4
0.048721,0.0069958,0.0017024,0.025487,6.254e-05,-0.00037019,3.9398e-05,2.0279e-05,-1.971e-06,0.051158,-0.014945,-0.01607,0.00020487,0.00010545,-1.0249e-05,0,0,0,0.025487,6.432e-05,-0.00037203,0.012929,0.0083931,0.025644,8.6525e-07,1,0.05,0.4
0.00098137,0.00075722,0.0001286,0.025793,0.0084239,0.0095953,0.0052554,8.3551e-06,0.00097458,0.040774,-0.004385,-0.0013394,0.027328,4.3447e-05,0.0050678,0,0,0,0.027389,0.0095758,0.0068476,0.010271,0.014604,0.019338,3.5089e-07,0,0.1,0.4
0.0020387,0.0014842,0.00025544,0.025704,0.006366,0.0082936,0.0046124,1.7623e-05,0.00094792,0.042613,-0.0076667,-0.0026551,0.023984,9.164e-05,0.0049292,0,0,0,0.026911,0.008264,0.0051885,0.010861,0.013455,0.020376,4.0797e-07,0.05,0.1,0.4
0.0042613,0.0028256,0.00050298,0.025854,0.0033872,0.0061689,0.0032811,3.6635e-05,0.00087109,0.045975,-0.012439,-0.0052072,0.017062,0.0001905,0.0045297,0,0,0,0.026438,0.0061316,0.0028403,0.011799,0.011803,0.022148,5.2093e-07,0.1,0.1,0.4
0.0066362,0.0038977,0.00073346,0.026053,0.0019789,0.0046372,0.0020361,5.4417e-05,0.0007521,0.048137,-0.014456,-0.0075448,0.010588,0.00028297,0.0039109,0,0,0,0.026293,0.0046081,0.0017683,0.012262,0.01089,0.023243,6.1297e-07,0.15,0.1,0.4
0.009075,0.0046794,0.00093881,0.02592,0.0012162,0.0033526,0.0011047,6.7557e-05,0.00060526,0.049098,-0.015131,-0.0095765,0.0057443,0.0003513,0.0031474,0,0,0,0.026005,0.0033355,0.0011477,0.012429,0.010163,0.023844,6.7619e-07,0.2,0.1,0.4
0.011546,0.0052234,0.0011141,0.025761,0.00077862,0.0023351,0.00048639,7.4335e-05,0.00044966,0.049653,-0.0153,-0.011253,0.0025292,0.00038654,0.0023382,0,0,0,0.025788,0.0023294,0.00075745,0.012515,0.0096248,0.024286,7.2516e-07,0.25,0.1,0.4
0.01404,0.0055836,0.0012576,0.025666,0.00051147,0.0015686,8.503e-05,7.4316e-05,0.00030243,0.050085,-0.015318,-0.012569,0.00044216,0.00038644,0.0015727,0,0,0,0.025674,0.0015715,0.00050091,0.012587,0.0092488,0.024657,7.652e-07,0.3,0.1,0.4
0.016554,0.0058048,0.0013707,0.025635,0.0003286,0.0010129,-0.00017218,6.8004e-05,0.00017563,0.050465,-0.015331,-0.013552,-0.00089534,0.00035362,0.00091327,0,0,0,0.025639,0.0010206,0.00031705,0.012661,0.0089921,0.024978,7.9853e-07,0.35,0.1,0.4
0.019087,0.0059239,0.0014569,0.025648,0.0001823,0.0006238,-0.00032705,5.6638e-05,7.5432e-05,0.050812,-0.015398,-0.014251,-0.0017007,0.00029452,0.00039225,0,0,0,0.025653,0.00063239,0.00016877,0.012742,0.008818,0.025256,8.2674e-07,0.4,0.1,0.4
0.021636,0.0059727,0.0015206,0.025688,4.9832e-05,0.00035988,-0.00040038,4.2058e-05,3.1549e-06,0.05113,-0.015529,-0.014723,-0.002082,0.0002187,1.6405e-05,0,0,0,0.025694,0.00036615,3.7023e-05,0.012829,0.0086992,0.025495,8.5082e-07,0.45,0.1,0.4
0.0242,0.0059795,0.0015668,0.025738,-7.2087e-05,0.00018495,-0.00040289,2.6581e-05,-4.3224e-05,0.051409,-0.015698,-0.01503,-0.002095,0.00013822,-0.00022477,0,0,0,0.025745,0.00018826,-8.2069e-05,0.012913,0.008617,0.025693,8.7092e-07,0.5,0.1,0.4
0.026777,0.0059687,0.0015999,0.025785,-0.00017215,6.9526e-05,-0.00034507,1.2728e-05,-6.7713e-05,0.051631,-0.015857,-0.015228,-0.0017944,6.6183e-05,-0.00035211,0,0,0,0.02579,7.1528e-05,-0.0001793,0.012985,0.0085607,0.025845,8.8641e-07,0.55,0.1,0.4
0.029363,0.0059602,0.0016241,0.025815,-0.00023287,-8.845e-06,-0.00024369,2.7428e-06,-7.5335e-05,0.051775,-0.015949,-0.015367,-0.0012672,1.4262e-05,-0.00039174,0,0,0,0.025818,-6.2128e-06,-0.00023842,0.013028,0.0085244,0.025941,8.9636e-07,0.6,0.1,0.4
0.031954,0.0059669,0.0016424,0.025822,-0.00024187,-6.6394e-05,-0.00012284,-1.9619e-06,-7.1403e-05,0.05183,-0.015937,-0.015481,-0.00063874,-1.0202e-05,-0.00037129,0,0,0,0.025824,-5.9718e-05,-0.00024968,0.013037,0.0085047,0.025979,9.0034e-07,0.65,0.1,0.4
0.034546,0.0059943,0.0016569,0.025806,-0.00020047,-0.00011421,-9.1232e-06,-1.2122e-06,-6.0863e-05,0.051801,-0.015816,-0.015592,-4.744e-05,-6.3033e-06,-0.00031649,0,0,0,0.025806,-9.1713e-05,-0.00022336,0.013015,0.0084971,0.025964,8.9891e-07,0.7,0.1,0.4
0.037134,0.0060402,0.0016689,0.025771,-0.00012436,-0.00015891,7.5836e-05,3.9462e-06,-4.7739e-05,0.051712,-0.015616,-0.015706,0.00039435,2.052e-05,-0.00024824,0,0,0,0.025771,-8.5401e-05,-0.00019831,0.012985,0.0084959,0.025914,8.9368e-07,0.75,0.1,0.4
0.039717,0.0060972,0.0016789,0.025726,-3.6252e-05,-0.00020276,0.00012105,1.1683e-05,-3.4793e-05,0.051596,-0.015387,-0.01582,0.00062946,6.0752e-05,-0.00018092,0,0,0,0.025727,-3.0173e-05,-0.00020952,0.012968,0.0084958,0.025848,8.8677e-07,0.8,0.1,0.4
0.042294,0.0061553,0.0016871,0.025682,4.3612e-05,-0.00024419,0.00012683,1.9975e-05,-2.349e-05,0.051485,-0.015176,-0.015924,0.00065953,0.00010387,-0.00012215,0,0,0,0.025683,4.5058e-05,-0.00024634,0.012965,0.0084939,0.025785,8.801e-07,0.85,0.1,0.4
0.044866,0.0062047,0.0016932,0.025646,0.00010316,-0.00027905,0.00010128,2.7088e-05,-1.4221e-05,0.051398,-0.015014,-0.016008,0.00052664,0.00014086,-7.395e-05,0,0,0,0.025647,0.00010592,-0.00028228,0.012965,0.0084901,0.025737,8.7493e-07,0.9,0.1,0.4
0.047434,0.0062376,0.001697,0.025623,0.00013847,-0.00030249,6.69e-05,3.1807e-05,-5.3824e-06,0.051345,-0.014916,-0.016062,0.00034788,0.0001654,-2.7989e-05,0,0,0,0.025623,0.00014229,-0.00030652,0.012965,0.0084864,0.025709,8.7179e-07,0.95,0.1,0.4
0.048717,0.0062491,0.0016983,0.025615,0.00015,-0.00031076,5.1795e-05,3.3452e-05,-6.7766e-07,0.051327,-0.014883,-0.016081,0.00026933,0.00017395,-3.5238e-06,0,0,0,0.025615,0.00015421,-0.00031508,0.012965,0.0084849,0.025699,8.7075e-07,1,0.1,0.4
0.00093558,0.00059872,0.0001288,0.024872,0.0089391,0.0094675,0.0044208,1.2946e-05,0.0009763,0.038699,-0.0027252,-0.0013514,0.022988,6.7318e-05,0.0050768,0,0,0,0.026103,0.0094492,0.0077261,0.0091883,0.014426,0.017584,2.7348e-07,0,0.15,0.4
0.001935,0.0011814,0.00025587,0.024942,0.0073486,0.0083479,0.0041108,2.5549e-05,0.00094972,0.040465,-0.0052766,-0.0026782,0.021376,0.00013285,0.0049385,0,0,0,0.025959,0.0083195,0.00636,0.0097993,0.013546,0.018703,3.3079e-07,0.05,0.15,0.4
0.0040465,0.0022837,0.00050385,0.025396,0.0046957,0.0064023,0.00332,4.9647e-05,0.00087265,0.044132,-0.0096874,-0.0052502,0.017264,0.00025816,0.0045378,0,0,0,0.026005,0.0063651,0.0041238,0.01094,0.012165,0.020858,4.5474e-07,0.1,0.15,0.4
0.0063482,0.0032195,0.00073464,0.025988,0.0029924,0.0048928,0.0023487,7.0438e-05,0.00075266,0.047245,-0.012544,-0.0076026,0.012213,0.00036628,0.0039138,0,0,0,0.026286,0.0048635,0.0027238,0.011781,0.011291,0.022575,5.7591e-07,0.15,0.15,0.4
0.008771,0.0039437,0.00093996,0.026251,0.0019605,0.0036425,0.0014607,8.57e-05,0.00060436,0.049141,-0.014015,-0.0096421,0.0075957,0.00044564,0.0031427,0,0,0,0.026375,0.003627,0.0018528,0.012261,0.010618,0.023689,6.7065e-07,0.2,0.15,0.4
0.011262,0.0044662,0.0011147,0.026292,0.001322,0.0026252,0.00077123,9.3633e-05,0.00044717,0.050216,-0.014706,-0.011318,0.0040104,0.00048689,0.0023253,0,0,0,0.026335,0.0026233,0.0012812,0.012527,0.01008,0.024413,7.3978e-07,0.25,0.15,0.4
0.013793,0.004819,0.0012573,0.026242,0.00090624,0.0018326,0.00027211,9.3411e-05,0.00029839,0.05084,-0.015032,-0.012624,0.001415,0.00048574,0.0015516,0,0,0,0.026253,0.0018415,0.0008854,0.012684,0.0096601,0.024905,7.8948e-07,0.3,0.15,0.4
0.016346,0.0050361,0.0013691,0.026167,0.00060688,0.0012399,-7.7228e-05,8.5176e-05,0.00017017,0.051227,-0.015231,-0.013585,-0.00040158,0.00044291,0.00088487,0,0,0,0.026171,0.0012543,0.00058856,0.012791,0.009338,0.025257,8.2564e-07,0.35,0.15,0.4
0.018915,0.0051498,0.0014536,0.026099,0.00035708,0.00081144,-0.00030823,7.0017e-05,6.8921e-05,0.051497,-0.015432,-0.014251,-0.0016028,0.00036409,0.00035839,0,0,0,0.026104,0.00082468,0.00033901,0.012882,0.0090891,0.025526,8.5327e-07,0.4,0.15,0.4
0.021496,0.0051903,0.0015154,0.026047,0.00012187,0.0005093,-0.00043652,5.0034e-05,-3.665e-06,0.051715,-0.01569,-0.014683,-0.0022699,0.00026018,-1.9058e-05,0,0,0,0.026054,0.00051705,0.00010651,0.012974,0.0088927,0.025745,8.7581e-07,0.45,0.15,0.4
0.024087,0.0051866,0.0015597,0.026011,-0.0001026,0.00029892,-0.00046831,2.8326e-05,-4.9195e-05,0.051904,-0.015991,-0.014947,-0.0024352,0.0001473,-0.00025581,0,0,0,0.02602,0.0003022,-0.00011449,0.013067,0.0087358,0.025928,8.9458e-07,0.5,0.15,0.4
0.026686,0.0051663,0.0015914,0.025985,-0.00029268,0.00015245,-0.0004121,8.7064e-06,-7.1462e-05,0.052053,-0.016268,-0.01511,-0.0021429,4.5274e-05,-0.0003716,0,0,0,0.025992,0.00015476,-0.00030193,0.013147,0.0086148,0.026068,9.0891e-07,0.55,0.15,0.4
0.029292,0.0051523,0.0016148,0.025958,-0.00041119,4.9594e-05,-0.00028875,-5.0895e-06,-7.573e-05,0.052133,-0.016427,-0.015229,-0.0015015,-2.6465e-05,-0.0003938,0,0,0,0.025962,5.2877e-05,-0.00041835,0.01319,0.0085321,0.026148,9.1716e-07,0.6,0.15,0.4
0.0319,0.0051602,0.0016331,0.025924,-0.0004305,-2.4204e-05,-0.00013359,-1.0616e-05,-6.8059e-05,0.052121,-0.016401,-0.015345,-0.00069469,-5.5203e-05,-0.00035391,0,0,0,0.025926,-2.005e-05,-0.00043604,0.013181,0.0084898,0.026157,9.1823e-07,0.65,0.15,0.4
0.034504,0.0051956,0.0016485,0.025882,-0.0003529,-8.053e-05,1.2297e-05,-7.6205e-06,-5.4364e-05,0.052024,-0.016187,-0.015479,6.3944e-05,-3.9627e-05,-0.0002827,0,0,0,0.025883,-7.3938e-05,-0.00035999,0.013121,0.0084829,0.026101,9.1282e-07,0.7,0.15,0.4
0.037102,0.0052543,0.0016621,0.025836,-0.00021165,-0.00012862,0.0001167,1.9648e-06,-3.9428e-05,0.051876,-0.015848,-0.015632,0.00060686,1.0217e-05,-0.00020503,0,0,0,0.025837,-8.8757e-05,-0.00025227,0.013045,0.0084986,0.026008,9.034e-07,0.75,0.15,0.4
0.039692,0.0053255,0.001674,0.025794,-5.2715e-05,-0.00017364,0.00016588,1.4944e-05,-2.6261e-05,0.051723,-0.015477,-0.015792,0.00086259,7.7711e-05,-0.00013656,0,0,0,0.025795,-2.6784e-05,-0.00020073,0.012998,0.0085224,0.025909,8.9312e-07,0.8,0.15,0.4
0.042274,0.0053965,0.001684,0.025761,8.5937e-05,-0.00021586,0.00016414,2.8091e-05,-1.6105e-05,0.0516,-0.015155,-0.01594,0.00085354,0.00014607,-8.3746e-05,0,0,0,0.025762,8.875e-05,-0.00021977,0.012991,0.0085437,0.025829,8.8456e-07,0.85,0.15,0.4
0.044852,0.0054555,0.0016916,0.025741,0.00018491,-0.00025165,0.00012601,3.8919e-05,-8.9069e-06,0.051521,-0.014924,-0.016059,0.00065527,0.00020238,-4.6316e-05,0,0,0,0.025741,0.00018996,-0.00025739,0.012999,0.0085579,0.025778,8.7885e-07,0.9,0.15,0.4
0.047427,0.0054941,0.0016963,0.02573,0.00024123,-0.00027591,8.0503e-05,4.5895e-05,-2.31e-06,0.051481,-0.01479,-0.016135,0.00041862,0.00023865,-1.2012e-05,0,0,0,0.025731,0.000248,-0.00028298,0.013007,0.0085652,0.025752,8.7587e-07,0.95,0.15,0.4
0.048713,0.0055075,0.0016979,0.025727,0.00025912,-0.00028452,6.1021e-05,4.8288e-05,1.3577e-06,0.05147,-0.014747,-0.016161,0.00031731,0.0002511,7.0598e-06,0,0,0,0.025728,0.00026652,-0.00029206,0.01301,0.0085673,0.025745,8.7498e-07,1,0.15,0.4
0.00091745,0.00048471,0.00012997,0.024485,0.0091339,0.0093968,0.0036341,1.5832e-05,0.0009856,0.037852,-0.0020614,-0.001378,0.018897,8.2324e-05,0.0051251,0,0,0,0.025386,0.0093788,0.0082515,0.0085671,0.014339,0.016601,2.3385e-07,0,0.2,0.4
0.0018926,0.00095654,0.0002581,0.02462,0.0078613,0.0083804,0.0034612,3.0467e-05,0.00095903,0.039495,-0.0040777,-0.0027282,0.017998,0.00015843,0.004987,0,0,0,0.025395,0.0083517,0.0071153,0.0091398,0.013621,0.017697,2.8661e-07,0.05,0.2,0.4
0.0039495,0.0018569,0.00050799,0.025181,0.0056184,0.0065689,0.0029818,5.7421e-05,0.00088148,0.043049,-0.0078129,-0.0053416,0.015506,0.00029859,0.0045837,0,0,0,0.025699,0.0065308,0.005138,0.010281,0.012456,0.019906,4.0581e-07,0.1,0.2,0.4
0.0061975,0.0026433,0.0007402,0.025899,0.0039361,0.0050881,0.0023105,7.9457e-05,0.00075999,0.046383,-0.01072,-0.0077247,0.012015,0.00041318,0.003952,0,0,0,0.026191,0.0050586,0.003673,0.011259,0.011641,0.021863,5.3394e-07,0.15,0.2,0.4
0.0085878,0.0032779,0.00094632,0.026345,0.0027438,0.003835,0.0016039,9.5508e-05,0.00060922,0.048743,-0.01262,-0.0097834,0.0083403,0.00049664,0.0031679,0,0,0,0.026486,0.0038225,0.0026152,0.011935,0.010975,0.023294,6.4537e-07,0.2,0.2,0.4
0.011072,0.0037528,0.0011211,0.026546,0.0019393,0.0028132,0.0009785,0.00010406,0.00044881,0.050241,-0.013737,-0.011465,0.0050882,0.00054113,0.0023338,0,0,0,0.026603,0.00282,0.0018753,0.012364,0.010433,0.024272,7.3137e-07,0.25,0.2,0.4
0.013612,0.0040804,0.0012629,0.026577,0.0013846,0.002009,0.00047206,0.00010391,0.00029641,0.051117,-0.014382,-0.012759,0.0024547,0.00054033,0.0015413,0,0,0,0.026595,0.0020327,0.0013426,0.012626,0.00999,0.024916,7.9255e-07,0.3,0.2,0.4
0.016183,0.0042817,0.0013729,0.026512,0.00096726,0.0013997,7.9906e-05,9.4455e-05,0.00016452,0.051604,-0.014813,-0.013688,0.00041551,0.00049117,0.00085553,0,0,0,0.026517,0.0014308,0.00093149,0.012793,0.0096264,0.02534,8.3468e-07,0.35,0.2,0.4
0.018772,0.0043807,0.0014549,0.026408,0.00060255,0.00095234,-0.00020871,7.6047e-05,6.0084e-05,0.051884,-0.015211,-0.014302,-0.0010853,0.00039545,0.00031244,0,0,0,0.026412,0.00097651,0.00057489,0.012918,0.0093211,0.025639,8.6497e-07,0.4,0.2,0.4
0.021372,0.0044037,0.0015137,0.026301,0.00024075,0.00063006,-0.00039399,5.0488e-05,-1.4535e-05,0.052079,-0.015677,-0.014665,-0.0020487,0.00026254,-7.5584e-05,0,0,0,0.026307,0.00064081,0.00022343,0.013042,0.0090571,0.025878,8.8932e-07,0.45,0.2,0.4
0.02398,0.0043804,0.0015548,0.026206,-0.00012283,0.00039842,-0.00046797,2.157e-05,-6.0109e-05,0.052247,-0.016209,-0.014853,-0.0024334,0.00011217,-0.00031257,0,0,0,0.026215,0.00040201,-0.00013503,0.013175,0.0088273,0.026086,9.1038e-07,0.5,0.2,0.4
0.026597,0.004342,0.0015838,0.026128,-0.00044548,0.00023018,-0.00042781,-5.1608e-06,-7.9874e-05,0.052385,-0.016706,-0.014949,-0.0022246,-2.6836e-05,-0.00041535,0,0,0,0.026135,0.00023411,-0.00045684,0.013296,0.0086375,0.026254,9.2714e-07,0.55,0.2,0.4
0.029219,0.0043175,0.0016055,0.02606,-0.00065347,0.0001083,-0.00029312,-2.3556e-05,-7.935e-05,0.052447,-0.017008,-0.015027,-0.0015242,-0.00012249,-0.00041262,0,0,0,0.026064,0.00011454,-0.00066381,0.013364,0.008505,0.026348,9.3649e-07,0.6,0.2,0.4
0.031841,0.0043268,0.0016236,0.025998,-0.000688,2.1941e-05,-0.00011188,-2.9016e-05,-6.59e-05,0.052395,-0.016988,-0.015142,-0.00058176,-0.00015088,-0.00034268,0,0,0,0.025999,2.9141e-05,-0.00069657,0.013348,0.0084439,0.026341,9.3605e-07,0.65,0.2,0.4
0.034458,0.0043756,0.0016402,0.02594,-0.00055224,-4.0701e-05,5.5926e-05,-2.121e-05,-4.7313e-05,0.052236,-0.016644,-0.015314,0.00029082,-0.00011029,-0.00024603,0,0,0,0.025941,-3.4646e-05,-0.00055898,0.01325,0.0084491,0.026243,9.2669e-07,0.7,0.2,0.4
0.037065,0.0044554,0.001656,0.025892,-0.00031287,-9.2974e-05,0.00016516,-4.0846e-06,-2.9672e-05,0.052028,-0.016105,-0.015534,0.00085883,-2.124e-05,-0.00015429,0,0,0,0.025894,-6.3936e-05,-0.00034316,0.013118,0.0084955,0.026099,9.1258e-07,0.75,0.2,0.4
0.039661,0.0045495,0.0016706,0.025861,-5.609e-05,-0.00014352,0.00020273,1.6835e-05,-1.6224e-05,0.051843,-0.015543,-0.01577,0.0010542,8.7544e-05,-8.4363e-05,0,0,0,0.025863,2.2001e-06,-0.00020345,0.013033,0.008554,0.025965,8.988e-07,0.8,0.2,0.4
0.042249,0.0046398,0.0016832,0.025851,0.00015558,-0.00019282,0.00018281,3.6595e-05,-7.6295e-06,0.051724,-0.015084,-0.015989,0.00095063,0.0001903,-3.9674e-05,0,0,0,0.025852,0.00016036,-0.00019895,0.013025,0.0086045,0.025874,8.8891e-07,0.85,0.2,0.4
0.044833,0.0047124,0.0016928,0.025855,0.00029664,-0.00023592,0.00013019,5.1916e-05,-2.9924e-06,0.051674,-0.014778,-0.016163,0.00067698,0.00026996,-1.5561e-05,0,0,0,0.025856,0.00030479,-0.00024481,0.01305,0.0086386,0.025831,8.8375e-07,0.9,0.2,0.4
0.047417,0.0047586,0.0016989,0.025865,0.00037098,-0.00026576,8.1288e-05,6.1339e-05,1.1028e-06,0.051666,-0.014617,-0.016273,0.0004227,0.00031896,5.7345e-06,0,0,0,0.025865,0.00038151,-0.00027659,0.013071,0.0086566,0.025819,8.8199e-07,0.95,0.2,0.4
0.048708,0.0047744,0.0017009,0.025869,0.00039336,-0.00027644,6.3633e-05,6.449e-05,3.7026e-06,0.051668,-0.014569,-0.01631,0.00033089,0.00033535,1.9253e-05,0,0,0,0.025869,0.0004047,-0.00028794,0.013079,0.008662,0.025818,8.8169e-07,1,0.2,0.4
0.00091223,0.00039259,0.00013175,0.024376,0.0092699,0.0093866,0.0029677,1.7048e-05,0.00099956,0.037558,-0.0017178,-0.0014144,0.015432,8.8652e-05,0.0051977,0,0,0,0.025022,0.0093697,0.0086404,0.008191,0.014344,0.016031,2.1227e-07,0,0.25,0.4
0.0018779,0.0007736,0.00026148,0.024528,0.008176,0.0084129,0.0028615,3.2482e-05,0.00097287,0.039103,-0.0034126,-0.0027966,0.01488,0.00016891,0.0050589,0,0,0,0.025097,0.008385,0.0076349,0.0087312,0.013706,0.017101,2.6134e-07,0.05,0.25,0.4
0.0039103,0.0015024,0.00051418,0.02512,0.0062187,0.0066683,0.0025569,6.0457e-05,0.00089464,0.042507,-0.0066355,-0.0054664,0.013296,0.00031438,0.0046521,0,0,0,0.025526,0.0066304,0.0058501,0.0098382,0.012669,0.019301,3.7463e-07,0.1,0.25,0.4
0.0061287,0.0021475,0.00074849,0.025888,0.0046542,0.0052165,0.0021075,8.2861e-05,0.00077168,0.045853,-0.0093541,-0.0078921,0.010959,0.00043088,0.0040128,0,0,0,0.026141,0.0051906,0.0044267,0.010857,0.011919,0.021346,5.0261e-07,0.15,0.25,0.4
0.0084956,0.0026817,0.00095593,0.026419,0.0034316,0.0039651,0.0015976,9.9455e-05,0.00061863,0.0484,-0.011367,-0.0099801,0.0083075,0.00051716,0.0032169,0,0,0,0.026558,0.0039674,0.0032897,0.011634,0.011272,0.02294,6.2113e-07,0.2,0.25,0.4
0.010969,0.0030925,0.0011311,0.02671,0.0025362,0.0029365,0.0011012,0.00010903,0.00045506,0.050136,-0.012715,-0.011675,0.0057262,0.00056698,0.0023663,0,0,0,0.026777,0.0029775,0.0024284,0.012174,0.010727,0.02408,7.172e-07,0.25,0.25,0.4
0.013509,0.0033807,0.0012722,0.026798,0.0018863,0.0021255,0.00065664,0.00010996,0.00029867,0.05119,-0.013582,-0.01296,0.0034145,0.00057179,0.0015531,0,0,0,0.026825,0.0022077,0.0017777,0.012524,0.01027,0.024836,7.8651e-07,0.3,0.25,0.4
0.016088,0.0035548,0.0013803,0.026745,0.0013795,0.0015109,0.00027294,0.00010037,0.00016213,0.051755,-0.014194,-0.013853,0.0014193,0.00052193,0.00084306,0,0,0,0.026753,0.0016126,0.0012698,0.012741,0.0098784,0.025314,8.3276e-07,0.35,0.25,0.4
0.018685,0.0036287,0.0014592,0.026611,0.00091314,0.0010589,-4.6436e-05,7.8973e-05,5.2919e-05,0.052038,-0.014775,-0.014396,-0.00024147,0.00041066,0.00027518,0,0,0,0.026613,0.0011337,0.00083556,0.012889,0.0095276,0.02563,8.6445e-07,0.4,0.25,0.4
0.021291,0.0036226,0.0015139,0.026445,0.00041224,0.00072829,-0.00028302,4.6598e-05,-2.5434e-05,0.052205,-0.015479,-0.014658,-0.0014717,0.00024231,-0.00013226,0,0,0,0.026449,0.00075517,0.00038098,0.013034,0.009195,0.025883,8.8998e-07,0.45,0.25,0.4
0.023905,0.0035658,0.0015505,0.026286,-0.00012243,0.0004855,-0.00040625,7.4708e-06,-7.2642e-05,0.052354,-0.016308,-0.014727,-0.0021125,3.8848e-05,-0.00037774,0,0,0,0.026293,0.00049115,-0.00013495,0.013214,0.0088831,0.026121,9.1344e-07,0.5,0.25,0.4
0.026527,0.0034957,0.0015754,0.026153,-0.00062025,0.0003035,-0.00039772,-3.035e-05,-9.0617e-05,0.052496,-0.017114,-0.014713,-0.0020682,-0.00015782,-0.00047121,0,0,0,0.02616,0.00031182,-0.00063513,0.013397,0.0086121,0.026335,9.3366e-07,0.55,0.25,0.4
0.029155,0.0034515,0.0015944,0.026044,-0.00096155,0.00016401,-0.00026735,-5.605e-05,-8.4477e-05,0.052566,-0.017648,-0.014721,-0.0013902,-0.00029146,-0.00043928,0,0,0,0.026047,0.00017703,-0.00097825,0.013513,0.0084153,0.026468,9.4581e-07,0.6,0.25,0.4
0.031783,0.0034615,0.0016122,0.025965,-0.0010161,6.8128e-05,-7.192e-05,-6.0828e-05,-6.3661e-05,0.052499,-0.017652,-0.014833,-0.00037398,-0.00031631,-0.00033104,0,0,0,0.025966,8.2232e-05,-0.0010314,0.013499,0.008339,0.02646,9.4529e-07,0.65,0.25,0.4
0.034405,0.0035312,0.0016307,0.025919,-0.0007874,3.9644e-06,0.00010076,-4.4279e-05,-3.9126e-05,0.052308,-0.017128,-0.015071,0.00052397,-0.00023025,-0.00020345,0,0,0,0.02592,1.4864e-05,-0.00079918,0.013359,0.0083785,0.026323,9.3321e-07,0.7,0.25,0.4
0.037014,0.0036437,0.0016499,0.0259,-0.00041466,-5.3766e-05,0.00019549,-1.442e-05,-1.9019e-05,0.052082,-0.016337,-0.015399,0.0010166,-7.4983e-05,-9.8897e-05,0,0,0,0.025902,-2.1364e-05,-0.00044865,0.013175,0.0084773,0.026141,9.1629e-07,0.75,0.25,0.4
0.039613,0.0037712,0.0016684,0.025918,-3.3015e-05,-0.00011244,0.0002064,1.8666e-05,-6.1645e-06,0.051924,-0.01555,-0.015756,0.0010733,9.7064e-05,-3.2055e-05,0,0,0,0.02592,6.2416e-05,-0.00020959,0.013065,0.008591,0.025995,9.0176e-07,0.8,0.25,0.4
0.042207,0.0038881,0.0016846,0.025966,0.00026213,-0.00017255,0.0001594,4.7487e-05,1.2503e-07,0.051878,-0.014952,-0.016082,0.00082888,0.00024693,6.5018e-07,0,0,0,0.025967,0.00027016,-0.00018175,0.013074,0.0086852,0.025927,8.9395e-07,0.85,0.25,0.4
0.044801,0.0039777,0.001697,0.026023,0.00043514,-0.00022921,9.5291e-05,6.8162e-05,1.7953e-06,0.051922,-0.014606,-0.016333,0.00049552,0.00035444,9.3356e-06,0,0,0,0.026023,0.00044805,-0.00024265,0.013133,0.0087429,0.025928,8.93e-07,0.9,0.25,0.4
0.047399,0.0040324,0.0017047,0.02607,0.00051389,-0.00026904,5.8764e-05,7.9938e-05,3.7639e-06,0.051993,-0.014453,-0.016488,0.00030557,0.00041568,1.9572e-05,0,0,0,0.02607,0.0005298,-0.00028515,0.013178,0.0087715,0.025957,8.953e-07,0.95,0.25,0.4
0.048699,0.0040506,0.0017073,0.026088,0.00053542,-0.0002831,5.345e-05,8.3674e-05,5.7343e-06,0.052025,-0.014412,-0.01654,0.00027794,0.0004351,2.9818e-05,0,0,0,0.026088,0.00055225,-0.00030007,0.013194,0.0087802,0.025973,8.9665e-07,1,0.25,0.4
0.00091347,0.00031293,0.00013384,0.024423,0.0093895,0.0094153,0.002379,1.6943e-05,0.0010159,0.037564,-0.0015242,-0.001457,0.012371,8.8103e-05,0.0052825,0,0,0,0.024877,0.0094034,0.0089477,0.0079647,0.014409,0.015707,2.0047e-07,0,0.3,0.4
0.0018782,0.00061528,0.00026542,0.024582,0.0083973,0.0084553,0.0023143,3.2161e-05,0.00098909,0.039052,-0.0030276,-0.0028767,0.012034,0.00016724,0.0051433,0,0,0,0.024987,0.0084356,0.0080114,0.008488,0.013811,0.016769,2.4758e-07,0.05,0.3,0.4
0.0039052,0.0011933,0.00052141,0.025186,0.0066185,0.0067347,0.0021258,5.9661e-05,0.00091043,0.042359,-0.0059152,-0.0056131,0.011054,0.00031024,0.0047342,0,0,0,0.025489,0.0067132,0.0063363,0.0095766,0.012846,0.018969,3.5755e-07,0.1,0.3,0.4
0.0061141,0.0017079,0.00075821,0.02598,0.005162,0.005297,0.0018434,8.1874e-05,0.00078674,0.045684,-0.008442,-0.008091,0.0095859,0.00042575,0.004091,0,0,0,0.026185,0.0053051,0.0049488,0.010618,0.012146,0.021061,4.8517e-07,0.15,0.3,0.4
0.0084736,0.0021412,0.00096734,0.02656,0.0039648,0.0040478,0.001513,9.9237e-05,0.0006327,0.048312,-0.010435,-0.010219,0.0078675,0.00051603,0.0032901,0,0,0,0.026687,0.0041166,0.0037686,0.011459,0.011524,0.022747,6.0775e-07,0.2,0.3,0.4
0.010945,0.0024812,0.0011433,0.026905,0.0030433,0.0030151,0.0011712,0.00011089,0.00046756,0.050175,-0.011865,-0.011939,0.00609,0.00057663,0.0024313,0,0,0,0.026977,0.0031679,0.002818,0.01208,0.010988,0.023987,7.1017e-07,0.25,0.3,0.4
0.013491,0.0027222,0.001284,0.027027,0.0023527,0.0022009,0.00083768,0.00011474,0.00030865,0.051322,-0.012831,-0.013226,0.004356,0.00059664,0.001605,0,0,0,0.027064,0.0024436,0.002073,0.012495,0.010527,0.024808,7.8423e-07,0.3,0.3,0.4
0.016078,0.0028622,0.0013903,0.026963,0.0018008,0.0015871,0.00051421,0.00010726,0.00016814,0.051894,-0.013529,-0.014084,0.0026739,0.00055774,0.00087434,0,0,0,0.026979,0.0018734,0.0014986,0.01274,0.010117,0.025296,8.3085e-07,0.35,0.3,0.4
0.01868,0.0029031,0.0014655,0.026774,0.0012692,0.0011419,0.00020449,8.3417e-05,5.3342e-05,0.052101,-0.014211,-0.014542,0.0010633,0.00043377,0.00027738,0,0,0,0.02678,0.0013593,0.0010461,0.012867,0.0097283,0.025579,8.5908e-07,0.4,0.3,0.4
0.021288,0.0028558,0.0015148,0.02651,0.00063196,0.00081258,-6.2435e-05,4.0895e-05,-3.0075e-05,0.052154,-0.01513,-0.01466,-0.00032466,0.00021265,-0.00015639,0,0,0,0.026513,0.00089865,0.00054269,0.012985,0.0093183,0.025795,8.8088e-07,0.45,0.3,0.4
0.023896,0.0027496,0.001545,0.026211,-0.00012297,0.00055258,-0.00022797,-1.2323e-05,-7.936e-05,0.052165,-0.016304,-0.014548,-0.0011854,-6.4081e-05,-0.00041267,0,0,0,0.026215,0.00056988,-0.00014428,0.01318,0.0088803,0.026012,9.0114e-07,0.5,0.3,0.4
0.026504,0.0026305,0.0015639,0.025953,-0.00082048,0.00036137,-0.00025071,-6.6298e-05,-9.8102e-05,0.052181,-0.017429,-0.014357,-0.0013037,-0.00034475,-0.00051013,0,0,0,0.025957,0.00037842,-0.00084181,0.013399,0.0084979,0.026212,9.1775e-07,0.55,0.3,0.4
0.029114,0.0025527,0.0015791,0.025792,-0.001264,0.00023261,-0.00017757,-0.0001074,-8.8948e-05,0.052202,-0.018142,-0.014251,-0.00092335,-0.00055846,-0.00046253,0,0,0,0.025795,0.00026104,-0.0012954,0.013545,0.0082534,0.026348,9.2819e-07,0.6,0.3,0.4
0.031724,0.0025616,0.0015966,0.025708,-0.0013429,0.00012959,-7.0445e-05,-0.00011096,-6.0923e-05,0.052144,-0.018188,-0.01436,-0.00036631,-0.00057701,-0.0003168,0,0,0,0.02571,0.00015908,-0.001374,0.013542,0.008165,0.026353,9.2891e-07,0.65,0.3,0.4
0.034328,0.0026628,0.0016184,0.025706,-0.00106,4.0333e-05,5.1917e-05,-7.6864e-05,-3.2991e-05,0.052023,-0.017568,-0.014707,0.00026997,-0.00039969,-0.00017155,0,0,0,0.025707,6.0038e-05,-0.0010809,0.013394,0.0082286,0.026239,9.2109e-07,0.7,0.3,0.4
0.036927,0.0028217,0.001643,0.025811,-0.00053363,-2.2327e-05,0.00012725,-2.8705e-05,-1.2765e-05,0.051956,-0.016541,-0.015211,0.00066172,-0.00014927,-6.6376e-05,0,0,0,0.025812,2.7682e-05,-0.00058491,0.013199,0.0084184,0.026099,9.1068e-07,0.75,0.3,0.4
0.039524,0.0029945,0.0016674,0.025979,2.3316e-05,-7.7339e-05,0.00010865,2.1141e-05,-4.7248e-07,0.051991,-0.015495,-0.015756,0.00056496,0.00010993,-2.4568e-06,0,0,0,0.025981,0.00016283,-0.00021811,0.013099,0.0086418,0.026011,9.0299e-07,0.8,0.3,0.4
0.042126,0.0031446,0.0016885,0.02615,0.00040488,-0.00015228,4.0377e-05,6.317e-05,2.8959e-06,0.052148,-0.014789,-0.016237,0.00020996,0.00032848,1.5059e-05,0,0,0,0.026151,0.00041834,-0.00016667,0.013159,0.0088007,0.026031,9.0409e-07,0.85,0.3,0.4
0.044739,0.0032518,0.0017044,0.026304,0.00058455,-0.00022918,-1.361e-05,8.9511e-05,1.7252e-06,0.052395,-0.014476,-0.016591,-7.077e-05,0.00046546,8.9713e-06,0,0,0,0.026305,0.00060481,-0.00025002,0.013277,0.0088864,0.026138,9.1393e-07,0.9,0.3,0.4
0.047365,0.0033133,0.001714,0.026416,0.00064624,-0.00028179,-5.2861e-06,0.00010239,3.5443e-06,0.052613,-0.014388,-0.016801,-2.7487e-05,0.00053241,1.8431e-05,0,0,0,0.026416,0.00066998,-0.00030585,0.013361,0.0089267,0.026248,9.2472e-07,0.95,0.3,0.4
0.048681,0.0033332,0.0017172,0.026456,0.00065746,-0.00030063,2.0054e-05,0.00010615,6.2187e-06,0.052697,-0.014378,-0.016869,0.00010428,0.00055198,3.2337e-05,0,0,0,0.026456,0.00068226,-0.00032566,0.013391,0.0089375,0.026292,9.292e-07,1,0.3,0.4
0.00091877,0.00024017,0.00013598,0.024571,0.0094991,0.0094697,0.0018362,1.5779e-05,0.0010327,0.03776,-0.0014261,-0.0015027,0.0095484,8.205e-05,0.00537,0,0,0,0.02488,0.0094716,0.0091878,0.0078462,0.014513,0.015553,1.9501e-07,0,0.35,0.4
0.001888,0.00047084,0.00026947,0.024735,0.0085589,0.0085068,0.0018017,2.9929e-05,0.001006,0.039231,-0.0028274,-0.0029626,0.009369,0.00015563,0.0052314,0,0,0,0.025015,0.0085163,0.0082695,0.0083727,0.013934,0.016624,2.4177e-07,0.05,0.35,0.4
0.0039231,0.0009109,0.00052886,0.025356,0.0068792,0.0067848,0.0017006,5.5645e-05,0.00092766,0.042514,-0.0055262,-0.0057716,0.0088429,0.00028935,0.0048238,0,0,0,0.025574,0.0068256,0.0066207,0.0094766,0.013007,0.018852,3.5173e-07,0.1,0.35,0.4
0.0061394,0.0013033,0.00076832,0.026184,0.0054971,0.0053492,0.0015531,7.7108e-05,0.00080468,0.045859,-0.0079255,-0.00831,0.008076,0.00040096,0.0041843,0,0,0,0.026342,0.0054578,0.0052306,0.010556,0.012343,0.020999,4.817e-07,0.15,0.35,0.4
0.008509,0.0016382,0.00097945,0.026816,0.0043344,0.0040997,0.0013854,9.543e-05,0.00065201,0.048571,-0.0098806,-0.010491,0.0072039,0.00049624,0.0033905,0,0,0,0.026927,0.0043122,0.0040113,0.011458,0.01175,0.022767,6.0996e-07,0.2,0.35,0.4
0.010997,0.001906,0.0011566,0.027219,0.0034186,0.0030647,0.0012106,0.00011032,0.00048866,0.050548,-0.011333,-0.012253,0.0062951,0.00057367,0.002541,0,0,0,0.027295,0.0034077,0.0029999,0.012147,0.011234,0.024094,7.1991e-07,0.25,0.35,0.4
0.013564,0.0020976,0.0012975,0.027382,0.0027289,0.0022518,0.0010293,0.00011959,0.00033134,0.051775,-0.012322,-0.013563,0.0053521,0.00062188,0.001723,0,0,0,0.027433,0.0027278,0.0022018,0.012616,0.010787,0.024973,7.9955e-07,0.3,0.35,0.4
0.016174,0.002202,0.0014023,0.027318,0.0021825,0.0016488,0.00082649,0.00011739,0.00019055,0.052337,-0.013015,-0.014403,0.0042978,0.00061041,0.00099086,0,0,0,0.027351,0.0021916,0.0016064,0.012872,0.010383,0.025458,8.4612e-07,0.35,0.35,0.4
0.018797,0.0022076,0.0014736,0.027038,0.0016071,0.0012118,0.00059397,9.3526e-05,7.251e-05,0.052384,-0.013735,-0.014763,0.0030886,0.00048633,0.00037705,0,0,0,0.027058,0.0016335,0.001165,0.012946,0.0099522,0.025663,8.6696e-07,0.4,0.35,0.4
0.021412,0.0021096,0.0015157,0.026575,0.00079997,0.00087404,0.0003914,3.3676e-05,-1.5518e-05,0.052145,-0.014869,-0.014677,0.0020353,0.00017512,-8.0691e-05,0,0,0,0.02659,0.0010504,0.00060824,0.012991,0.0094162,0.025765,8.7715e-07,0.45,0.35,0.4
0.024012,0.0019354,0.0015373,0.026037,-0.00016954,0.00061173,0.00026069,-4.8016e-05,-6.2297e-05,0.051809,-0.016328,-0.014297,0.0013556,-0.00024968,-0.00032394,0,0,0,0.026052,0.00065366,-0.00022649,0.013139,0.0088264,0.025854,8.83e-07,0.5,0.35,0.4
0.026593,0.0017528,0.0015478,0.025826,-0.00098055,0.00040545,0.0001707,-0.00011636,-7.1688e-05,0.051083,-0.017376,-0.013829,0.00084906,-0.00060406,-0.00036635,0,0,0,0.025836,0.0004408,-0.0010264,0.013431,0.0084168,0.026162,9.3121e-07,0.55,0.35,0.4
0.029131,0.0016373,0.0015566,0.026047,-0.0014634,0.00022286,2.7666e-05,-0.00015862,-7.4086e-05,0.0501,-0.017714,-0.0135,0.00010323,-0.00082177,-0.00036812,0,0,0,0.026053,0.00027156,-0.0015181,0.013786,0.0082689,0.026723,1.0288e-06,0.6,0.35,0.4
0.031637,0.0016426,0.001574,0.025966,-0.0015718,0.00011303,-0.0001698,-0.00016062,-7.7309e-05,0.050068,-0.017813,-0.013604,-0.00084853,-0.0008321,-0.00038702,0,0,0,0.025972,0.0001623,-0.0016272,0.0138,0.0081691,0.026751,1.0319e-06,0.65,0.35,0.4
0.034172,0.0017744,0.001602,0.025589,-0.0013043,6.673e-05,-0.00026363,-0.00012272,-5.8778e-05,0.051007,-0.017675,-0.014168,-0.0013344,-0.00063709,-0.00030136,0,0,0,0.025599,0.00010392,-0.0013511,0.013475,0.0081171,0.026255,9.4104e-07,0.7,0.35,0.4
0.036749,0.0019897,0.0016346,0.025664,-0.00070978,1.0399e-05,-0.00025205,-5.8018e-05,-2.7332e-05,0.051748,-0.016824,-0.014952,-0.0013107,-0.00030169,-0.00014212,0,0,0,0.025676,7.9705e-05,-0.0007908,0.013233,0.0083216,0.026047,9.0302e-07,0.75,0.35,0.4
0.039346,0.0022218,0.0016673,0.0261,2.5012e-05,-5.1026e-05,-0.00023397,2.2976e-05,-1.0795e-05,0.052217,-0.01558,-0.015777,-0.0012166,0.00011948,-5.6133e-05,0,0,0,0.026109,0.00024424,-0.00027871,0.013194,0.0086915,0.026132,9.1494e-07,0.8,0.35,0.4
0.04197,0.0024093,0.0016956,0.026516,0.00053809,-0.00012685,-0.0002433,8.5753e-05,-9.4996e-06,0.052784,-0.014757,-0.016486,-0.0012651,0.00044591,-4.9398e-05,0,0,0,0.026521,0.00056051,-0.00015464,0.013338,0.0089756,0.026327,9.3503e-07,0.85,0.35,0.4
0.044625,0.0025301,0.0017156,0.026822,0.00071589,-0.00022229,-0.00023328,0.00011586,-1.027e-05,0.053348,-0.014528,-0.016967,-0.001213,0.00060245,-5.3402e-05,0,0,0,0.026826,0.00074484,-0.00025515,0.013541,0.0091052,0.026596,9.6249e-07,0.9,0.35,0.4
0.047305,0.0025936,0.0017271,0.027006,0.00072987,-0.00029465,-0.000127,0.00012734,-3.4002e-06,0.053751,-0.014567,-0.017231,-0.00066039,0.00066216,-1.7681e-05,0,0,0,0.027008,0.00076402,-0.00033062,0.013669,0.009147,0.026808,9.8513e-07,0.95,0.35,0.4
0.048651,0.0026128,0.0017308,0.02707,0.00072008,-0.00031986,-4.5783e-05,0.00012993,3.0896e-06,0.053899,-0.01461,-0.017313,-0.00023807,0.00067561,1.6066e-05,0,0,0,0.02707,0.00075588,-0.00035647,0.013713,0.0091566,0.026888,9.9389e-07,1,0.35,0.4
0.00092663,0.00017032,0.00013798,0.024783,0.009598,0.0095404,0.0013117,1.3661e-05,0.0010486,0.038084,-0.0013981,-0.0015481,0.0068207,7.1038e-05,0.0054525,0,0,0,0.024987,0.0095658,0.0093686,0.0078094,0.014641,0.015521,1.9405e-07,0,0.4,0.4
0.0019042,0.00033254,0.00027325,0.024957,0.0086741,0.0085649,0.0013009,2.5937e-05,0.0010223,0.03957,-0.0027647,-0.0030486,0.0067647,0.00013487,0.0053162,0,0,0,0.025143,0.008623,0.0084297,0.0083565,0.014065,0.016617,2.4186e-07,0.05,0.4,0.4
0.003957,0.00064072,0.00053586,0.025609,0.0070328,0.0068267,0.0012696,4.8517e-05,0.00094522,0.042903,-0.0053959,-0.0059318,0.0066021,0.00025229,0.0049151,0,0,0,0.025759,0.0069631,0.006747,0.0095058,0.013156,0.018905,3.5512e-07,0.1,0.4,0.4
0.0061945,0.00091536,0.00077796,0.026494,0.0056878,0.0053864,0.0012343,6.838e-05,0.00082484,0.046343,-0.0077528,-0.0085362,0.0064185,0.00035558,0.0042891,0,0,0,0.02661,0.0056248,0.0053336,0.010638,0.012523,0.021133,4.9142e-07,0.15,0.4,0.4
0.0085913,0.0011531,0.0009913,0.02721,0.0045466,0.0041358,0.0012127,8.7327e-05,0.00067672,0.04921,-0.009714,-0.010782,0.0063062,0.0004541,0.003519,0,0,0,0.027301,0.0044974,0.0040937,0.011604,0.011964,0.023008,6.3008e-07,0.2,0.4,0.4
0.011115,0.001348,0.0011703,0.027719,0.0036431,0.0031038,0.0012074,0.00010575,0.00052013,0.051389,-0.011207,-0.012609,0.0062785,0.00054992,0.0027047,0,0,0,0.027794,0.0036069,0.0030642,0.012365,0.011489,0.024464,7.5402e-07,0.25,0.4,0.4
0.01373,0.00149,0.0013122,0.027991,0.0029702,0.0023009,0.0012082,0.00012202,0.00037172,0.052819,-0.012235,-0.013975,0.0062826,0.00063453,0.0019329,0,0,0,0.028058,0.0029446,0.0022592,0.012899,0.011087,0.025463,8.4796e-07,0.3,0.4,0.4
0.016397,0.0015608,0.0014165,0.028015,0.0024642,0.0017301,0.0011842,0.00012862,0.00024033,0.053514,-0.012919,-0.014828,0.006158,0.00066883,0.0012497,0,0,0,0.028077,0.0024464,0.0016861,0.013196,0.010737,0.02602,9.0381e-07,0.35,0.4,0.4
0.019082,0.0015296,0.001484,0.027798,0.0018744,0.0013534,0.0011215,0.00010167,0.00012753,0.05366,-0.013742,-0.015097,0.0058317,0.00052869,0.00066315,0,0,0,0.027855,0.0019047,0.001266,0.013295,0.010342,0.026277,9.3251e-07,0.4,0.4,0.4
0.021763,0.0013689,0.0015158,0.027646,0.00083338,0.00099207,0.0011003,-9.9217e-07,6.3581e-05,0.052878,-0.015043,-0.014705,0.0055629,3.6965e-05,0.00028017,0,0,0,0.027706,0.0012247,0.00054138,0.013582,0.0098239,0.026833,1.0377e-06,0.45,0.4,0.4
0.024388,0.0011168,0.0015231,0.027498,-0.00031442,0.00063705,0.0010319,-0.0001333,3.3545e-05,0.050876,-0.016192,-0.013871,0.0049909,-0.00058662,8.9777e-05,0,0,0,0.027555,0.00072706,-0.00046201,0.014009,0.0092735,0.027448,1.1779e-06,0.5,0.4,0.4
0.026889,0.00088887,0.0015238,0.027292,-0.0010105,0.00034348,0.00072761,-0.00017938,-8.0639e-08,0.048061,-0.016359,-0.013052,0.0034342,-0.00084404,-1.1917e-05,0,0,0,0.027327,0.00042874,-0.0011304,0.014229,0.0088751,0.027715,1.2587e-06,0.55,0.4,0.4
0.029235,0.00076913,0.0015284,0.027489,-0.0014332,1.135e-05,0.00024275,-0.00015729,-4.9074e-05,0.045458,-0.0159,-0.012546,0.0011176,-0.00078922,-0.0001924,0,0,0,0.027503,7.6595e-05,-0.0015123,0.014508,0.0086891,0.02826,1.3741e-06,0.6,0.4,0.4
0.031499,0.00076816,0.0015463,0.027413,-0.0015701,-0.00010907,-0.00028072,-0.00015787,-0.00010935,0.045456,-0.016036,-0.012643,-0.0013662,-0.00079218,-0.00049399,0,0,0,0.027427,-4.358e-05,-0.0016502,0.014539,0.0085778,0.028314,1.3812e-06,0.65,0.4,0.4
0.033845,0.00089124,0.0015789,0.027067,-0.0014308,-3.1628e-05,-0.00071471,-0.00018209,-0.00013557,0.048079,-0.016787,-0.013373,-0.003435,-0.00085745,-0.00060587,0,0,0,0.0271,5.4593e-05,-0.0015495,0.014325,0.008535,0.027887,1.2821e-06,0.7,0.4,0.4
0.036348,0.0011393,0.0016212,0.027155,-0.0010123,-1.586e-05,-0.00091901,-0.00013806,-0.00012446,0.05099,-0.016931,-0.014509,-0.0044682,-0.00060992,-0.00051899,0,0,0,0.027202,8.3388e-05,-0.0011586,0.01418,0.0087089,0.027767,1.2192e-06,0.75,0.4,0.4
0.038983,0.0014365,0.001668,0.027254,-0.00011536,2.7682e-05,-0.00085429,-3.7127e-06,-8.4975e-05,0.053238,-0.016101,-0.015812,-0.0043078,2.3669e-05,-0.00037821,0,0,0,0.027293,0.00031597,-0.00044285,0.013868,0.0090555,0.027369,1.0998e-06,0.8,0.4,0.4
0.041691,0.0016689,0.0017067,0.027435,0.00062415,-1.4669e-05,-0.0007075,0.00010586,-5.4351e-05,0.054504,-0.015204,-0.016865,-0.003679,0.00055048,-0.00028263,0,0,0,0.02746,0.00069213,-0.00010753,0.013784,0.0093481,0.027178,1.0317e-06,0.85,0.4,0.4
0.044433,0.001799,0.001731,0.027766,0.00078306,-0.00017674,-0.00055433,0.00014284,-4.5217e-05,0.055168,-0.014987,-0.017483,-0.0028825,0.00074276,-0.00023513,0,0,0,0.027781,0.00081948,-0.00022821,0.014004,0.0094573,0.0275,1.0663e-06,0.9,0.4,0.4
0.047208,0.0018566,0.001744,0.027966,0.00072334,-0.00028667,-0.00029763,0.0001493,-2.1851e-05,0.055669,-0.015161,-0.017787,-0.0015477,0.00077634,-0.00011362,0,0,0,0.027972,0.00076945,-0.00033896,0.014155,0.0094674,0.027773,1.0977e-06,0.95,0.4,0.4
0.048602,0.0018722,0.0017481,0.028035,0.00068955,-0.00032027,-0.00013859,0.00014946,-6.1102e-06,0.055848,-0.01525,-0.017875,-0.00072066,0.00077717,-3.1773e-05,0,0,0,0.028037,0.00073906,-0.00037215,0.014205,0.009468,0.02787,1.1092e-06,1,0.4,0.4
0.00093576,0.00010035,0.00013966,0.025028,0.0096824,0.0096182,0.00078256,1.059e-05,0.0010621,0.038476,-0.0014229,-0.0015899,0.0040693,5.5066e-05,0.0055228,0,0,0,0.025162,0.0096645,0.0095022,0.0078299,0.014776,0.015579,1.9641e-07,0,0.45,0.4
0.0019238,0.00019437,0.00027643,0.025214,0.0087486,0.008625,0.00079016,2.0145e-05,0.0010366,0.040004,-0.0028064,-0.0031277,0.0041088,0.00010475,0.0053903,0,0,0,0.025337,0.0087214,0.0085297,0.0084036,0.014196,0.016712,2.4641e-07,0.05,0.45,0.4
0.0040005,0.0003713,0.0005418,0.025914,0.0070994,0.0068636,0.00081353,3.8038e-05,0.00096172,0.043451,-0.0054679,-0.006081,0.0042304,0.0001978,0.0050009,0,0,0,0.026014,0.0070635,0.0067997,0.0096072,0.013292,0.019084,3.6582e-07,0.1,0.45,0.4
0.0062689,0.00052806,0.0007863,0.026885,0.0057569,0.0054163,0.00086744,5.4928e-05,0.00084582,0.047066,-0.007867,-0.0087524,0.0045107,0.00028562,0.0043982,0,0,0,0.026966,0.0057233,0.0053692,0.010798,0.012686,0.021422,5.1256e-07,0.15,0.45,0.4
0.008707,0.00066676,0.0010019,0.027728,0.0046149,0.0041665,0.00096704,7.3212e-05,0.00070553,0.050186,-0.0099066,-0.011072,0.0050286,0.0003807,0.0036688,0,0,0,0.027798,0.004584,0.0041274,0.011835,0.01217,0.023446,6.6771e-07,0.2,0.45,0.4
0.011288,0.00078524,0.0011831,0.02842,0.0037151,0.0031477,0.0011118,9.3975e-05,0.00056111,0.052722,-0.01151,-0.012985,0.0057815,0.00048867,0.0029178,0,0,0,0.028488,0.0036847,0.0031093,0.01269,0.011761,0.025097,8.1561e-07,0.25,0.45,0.4
0.013979,0.00087414,0.0013271,0.028952,0.0030727,0.0023863,0.001287,0.00011482,0.0004302,0.054628,-0.012657,-0.014442,0.0066923,0.00059708,0.0022371,0,0,0,0.029028,0.0030398,0.0023431,0.013342,0.01147,0.026344,9.415e-07,0.3,0.45,0.4
0.01675,0.00091007,0.0014324,0.029334,0.0026419,0.0019156,0.0014285,0.00012562,0.00032048,0.055933,-0.013466,-0.015354,0.007428,0.00065322,0.0016665,0,0,0,0.029419,0.0026051,0.001867,0.013776,0.011297,0.027191,1.0364e-06,0.35,0.45,0.4
0.019572,0.00083333,0.0014948,0.029972,0.0020536,0.001638,0.001575,7.0115e-05,0.00023915,0.056226,-0.014394,-0.015494,0.0079559,0.00040045,0.0011993,0,0,0,0.03007,0.0021507,0.0014427,0.014314,0.011221,0.028281,1.2393e-06,0.4,0.45,0.4
0.022389,0.00060304,0.00151,0.030919,0.00081346,0.0011985,0.0016634,-8.8164e-05,0.00021218,0.053732,-0.015356,-0.014595,0.0078384,-0.00028589,0.0009085,0,0,0,0.031028,0.001443,0.00045964,0.015284,0.010977,0.030093,1.6307e-06,0.45,0.45,0.4
0.025008,0.00031097,0.0014987,0.031133,-0.00043661,0.00057661,0.0014203,-0.00021836,0.00013891,0.048321,-0.01535,-0.013155,0.006256,-0.00084449,0.00053535,0,0,0,0.031222,0.00071846,-0.00066785,0.015945,0.010424,0.031227,1.8793e-06,0.5,0.45,0.4
0.027297,0.00010602,0.0014956,0.030672,-0.00092813,5.389e-05,0.00087903,-0.00019392,-8.4971e-07,0.043191,-0.014386,-0.012168,0.003765,-0.00078858,5.3255e-05,0,0,0,0.030717,0.00017341,-0.0010932,0.015905,0.0099325,0.031207,1.879e-06,0.55,0.45,0.4
0.029366,2.477e-05,0.0015065,0.030528,-0.0011631,-0.00035406,0.00029582,-0.00010824,-7.7348e-05,0.040473,-0.013609,-0.011826,0.0012457,-0.00047286,-0.00022418,0,0,0,0.030544,-0.00028727,-0.0012459,0.015895,0.0096703,0.031331,1.898e-06,0.6,0.45,0.4
0.031372,1.6479e-05,0.001525,0.03046,-0.0013171,-0.00049127,-0.00024607,-0.00010724,-0.00010044,0.040496,-0.013743,-0.01192,-0.0011589,-0.00046965,-0.00038828,0,0,0,0.030475,-0.00042456,-0.0013996,0.015937,0.0095504,0.031408,1.9113e-06,0.65,0.45,0.4
0.033443,8.4719e-05,0.0015524,0.030469,-0.0014159,-0.00037188,-0.00078046,-0.00019269,-0.00015075,0.043289,-0.014828,-0.012474,-0.0034672,-0.00078542,-0.00059951,0,0,0,0.03051,-0.00025326,-0.0015752,0.016043,0.0095605,0.031457,1.9235e-06,0.7,0.45,0.4
0.03574,0.00029099,0.001599,0.030824,-0.0012788,-0.00015844,-0.0012292,-0.00021888,-0.00023779,0.048587,-0.016192,-0.013769,-0.0054858,-0.00084756,-0.00090847,0,0,0,0.030896,-2.0162e-05,-0.0014888,0.016192,0.0097957,0.031684,1.9618e-06,0.75,0.45,0.4
0.038378,0.00060921,0.0016644,0.030606,-0.00031847,0.00015503,-0.0013621,-8.5196e-05,-0.00023173,0.054362,-0.016657,-0.015702,-0.0064084,-0.00026974,-0.00096142,0,0,0,0.030682,0.00041157,-0.00065127,0.015667,0.010147,0.03082,1.7458e-06,0.8,0.45,0.4
0.04124,0.00088888,0.0017201,0.029788,0.00064057,0.00023125,-0.0011501,8.4152e-05,-0.00015559,0.057534,-0.016227,-0.017318,-0.0057809,0.0004733,-0.00075919,0,0,0,0.02984,0.0008136,5.4715e-06,0.014917,0.01022,0.029441,1.3922e-06,0.85,0.45,0.4
0.044149,0.0010314,0.0017503,0.029388,0.0007936,-9.2006e-06,-0.00083674,0.00015301,-0.0001078,0.058306,-0.01604,-0.018128,-0.0043511,0.00079567,-0.00056056,0,0,0,0.029417,0.00083493,-7.9441e-05,0.014748,0.010058,0.029051,1.264e-06,0.9,0.45,0.4
0.04707,0.0010775,0.0017638,0.029377,0.00062592,-0.0002191,-0.00045818,0.00015773,-5.3716e-05,0.058511,-0.016243,-0.01844,-0.0023825,0.00082018,-0.00027932,0,0,0,0.029389,0.0006846,-0.00028986,0.01484,0.0099281,0.029205,1.2811e-06,0.95,0.45,0.4
0.048534,0.0010878,0.0017676,0.029377,0.00055384,-0.00028119,-0.00022791,0.00015667,-2.2236e-05,0.05859,-0.01635,-0.018521,-0.0011852,0.00081469,-0.00011562,0,0,0,0.029381,0.00061951,-0.00035126,0.014866,0.0098832,0.02926,1.2876e-06,1,0.45,0.4
0.00094482,2.8031e-05,0.00014087,0.02527,0.0097468,0.009693,0.00023175,6.5653e-06,0.001072,0.038875,-0.0014839,-0.0016238,0.0012051,3.4139e-05,0.0055743,0,0,0,0.025369,0.0097417,0.0095984,0.0078854,0.014903,0.0157,2.0115e-07,0,0.5,0.4
0.0019438,5.1903e-05,0.00027872,0.025471,0.0087854,0.0086809,0.00025229,1.2521e-05,0.0010474,0.040463,-0.0029207,-0.0031923,0.0013119,6.511e-05,0.0054465,0,0,0,0.025562,0.0087779,0.0085979,0.008482,0.014313,0.016875,2.5408e-07,0.05,0.5,0.4
0.0040463,9.3926e-05,0.0005461,0.026228,0.0070949,0.0068948,0.00031434,2.3993e-05,0.00097537,0.044063,-0.0056842,-0.0062044,0.0016345,0.00012476,0.0050719,0,0,0,0.0263,0.0070854,0.0068322,0.0097341,0.013406,0.019343,3.8155e-07,0.1,0.5,0.4
0.0063501,0.00012867,0.00079251,0.027304,0.0057269,0.0054411,0.00043026,3.599e-05,0.00086517,0.047907,-0.0081931,-0.0089362,0.0022373,0.00018715,0.0044989,0,0,0,0.027361,0.0057176,0.0053935,0.010984,0.012824,0.021807,5.4171e-07,0.15,0.5,0.4
0.008837,0.00016244,0.0010102,0.028308,0.0045624,0.0041959,0.00061305,5.1145e-05,0.00073499,0.051361,-0.010378,-0.011331,0.0031879,0.00026595,0.0038219,0,0,0,0.028358,0.0045517,0.0041567,0.012101,0.012355,0.024007,7.1839e-07,0.2,0.5,0.4
0.011486,0.00019692,0.0011939,0.029242,0.0036479,0.0031977,0.00086144,7.1357e-05,0.00060644,0.054377,-0.012168,-0.013339,0.0044795,0.00037106,0.0031535,0,0,0,0.029295,0.0036335,0.0031586,0.013068,0.012029,0.025903,8.9916e-07,0.25,0.5,0.4
0.014275,0.00022428,0.0013403,0.030135,0.0030365,0.0025018,0.0011487,9.332e-05,0.00049621,0.056947,-0.013509,-0.014899,0.0059732,0.00048527,0.0025803,0,0,0,0.030203,0.0030153,0.0024556,0.013874,0.011891,0.027472,1.0707e-06,0.3,0.5,0.4
0.017181,0.00021419,0.0014462,0.031055,0.0027198,0.0021991,0.0013678,9.0413e-05,0.00039993,0.059159,-0.014513,-0.015867,0.0071127,0.00047015,0.0020796,0,0,0,0.031136,0.0027038,0.0021342,0.014501,0.011991,0.028722,1.2239e-06,0.35,0.5,0.4
0.020191,8.7663e-05,0.0014988,0.032647,0.0020984,0.0019084,0.0015694,-9.2822e-06,0.00035011,0.058769,-0.01518,-0.015727,0.0075857,4.5031e-05,0.0016849,0,0,0,0.032746,0.0022797,0.001628,0.015559,0.012218,0.030799,1.6374e-06,0.4,0.5,0.4
0.023095,-0.00017414,0.0014938,0.033965,0.00070686,0.0011501,0.0015144,-0.00015594,0.00029504,0.052778,-0.015016,-0.014177,0.0065315,-0.00055604,0.0012337,0,0,0,0.034069,0.0013817,0.00037115,0.016849,0.011941,0.033208,2.1905e-06,0.45,0.5,0.4
0.025544,-0.00042647,0.0014727,0.033745,-0.00047626,0.00027342,0.0010081,-0.00018588,9.365e-05,0.044323,-0.013827,-0.012367,0.003992,-0.00069361,0.00040656,0,0,0,0.03381,0.00041967,-0.00068745,0.017249,0.011181,0.033964,2.3265e-06,0.5,0.5,0.4
0.027565,-0.00055629,0.0014763,0.033749,-0.00078963,-0.00031509,0.00054011,-0.00012479,-0.00010644,0.039079,-0.012521,-0.011564,0.001993,-0.0004501,-0.00027687,0,0,0,0.033773,-0.00021757,-0.00091136,0.017342,0.010881,0.034351,2.3048e-06,0.55,0.5,0.4
0.029449,-0.00059989,0.0014958,0.034344,-0.00086822,-0.00063565,0.00022874,-8.4603e-05,-0.00013087,0.037611,-0.011999,-0.011503,0.00076889,-0.00026458,-0.00036296,0,0,0,0.034352,-0.00055642,-0.00095606,0.017654,0.010947,0.035114,2.3935e-06,0.6,0.5,0.4
0.031322,-0.00061425,0.0015148,0.034284,-0.0010346,-0.00079137,-9.6651e-05,-8.1884e-05,-6.9439e-05,0.037651,-0.012115,-0.011598,-0.0004351,-0.00025656,-0.00020298,0,0,0,0.034292,-0.00071453,-0.0011188,0.017705,0.010819,0.035214,2.4136e-06,0.65,0.5,0.4
0.03321,-0.00059837,0.0015346,0.033591,-0.0012974,-0.00077837,-0.0003834,-0.00011775,-6.0656e-05,0.03924,-0.01291,-0.011868,-0.0015493,-0.00042911,-0.00021473,0,0,0,0.033611,-0.00068691,-0.0014088,0.01751,0.010505,0.034673,2.3688e-06,0.7,0.5,0.4
0.035244,-0.00048919,0.0015754,0.033514,-0.0013719,-0.00052327,-0.00078893,-0.00017812,-0.00019831,0.044711,-0.014621,-0.012966,-0.0032305,-0.0006698,-0.00072885,0,0,0,0.033565,-0.00038777,-0.001558,0.017561,0.01054,0.03456,2.4501e-06,0.75,0.5,0.4
0.03772,-0.00023785,0.0016514,0.033753,-0.00053991,2.4825e-05,-0.001215,-0.00014564,-0.00031346,0.053636,-0.016379,-0.015283,-0.0052523,-0.00051257,-0.0012437,0,0,0,0.033827,0.00024346,-0.0008325,0.01733,0.011079,0.034139,2.3689e-06,0.8,0.5,0.4
0.040685,4.3183e-05,0.001728,0.032647,0.00057024,0.00046165,-0.0012008,1.17e-05,-0.00025793,0.060505,-0.017254,-0.017609,-0.0057599,0.00015107,-0.0011893,0,0,0,0.032705,0.00084114,0.00013278,0.016286,0.011226,0.032226,1.8588e-06,0.85,0.5,0.4
0.043809,0.00019495,0.0017692,0.031434,0.00076414,0.00027375,-0.00090404,0.00012591,-0.0001699,0.062244,-0.017496,-0.018771,-0.004701,0.00065472,-0.00088348,0,0,0,0.031466,0.00083457,0.00017121,0.015647,0.010824,0.030969,1.5327e-06,0.9,0.5,0.4
0.046909,0.00023232,0.0017835,0.031059,0.00045173,-9.7945e-05,-0.00052082,0.00014482,-9.1904e-05,0.061907,-0.017673,-0.019103,-0.0027083,0.00075306,-0.0004779,0,0,0,0.031074,0.00052821,-0.00018901,0.015632,0.010471,0.030912,1.5219e-06,0.95,0.5,0.4
0.048456,0.00023723,0.0017873,0.030942,0.00032957,-0.00020512,-0.00027311,0.00014314,-4.2918e-05,0.06181,-0.017783,-0.019173,-0.0014202,0.00074431,-0.00022317,0,0,0,0.030948,0.00041341,-0.00029444,0.015621,0.010356,0.030895,1.519e-06,1,0.5,0.4
0.00095246,-4.8037e-05,0.00014146,0.025472,0.0097854,0.0097543,-0.00035109,1.7033e-06,0.0010771,0.039221,-0.0015653,-0.001646,-0.0018257,8.8574e-06,0.005601,0,0,0,0.025578,0.0097848,0.0096495,0.0079641,0.015004,0.015861,2.0756e-07,0,0.55,0.4
0.001961,-9.77e-05,0.00027984,0.025689,0.0087856,0.008725,-0.00032248,3.2659e-06,0.0010534,0.040871,-0.0030772,-0.0032347,-0.0016769,1.6983e-05,0.0054778,0,0,0,0.025783,0.0087855,0.0086307,0.0085763,0.0144,0.017076,2.6365e-07,0.05,0.55,0.4
0.0040871,-0.00019711,0.00054826,0.0265,0.0070322,0.0069165,-0.00023669,6.6518e-06,0.00098416,0.04463,-0.0059853,-0.0062862,-0.0012308,3.4589e-05,0.0051176,0,0,0,0.026572,0.0070344,0.0068423,0.0098647,0.013483,0.019634,3.9965e-07,0.1,0.55,0.4
0.0064241,-0.00029125,0.00079578,0.027675,0.0056198,0.0054575,-8.6802e-05,1.161e-05,0.00087954,0.048704,-0.0086401,-0.0090621,-0.00045137,6.0374e-05,0.0045736,0,0,0,0.027727,0.0056255,0.0053998,0.011164,0.012918,0.022216,5.7364e-07,0.15,0.55,0.4
0.0089576,-0.00037099,0.001015,0.028839,0.0044199,0.0042194,0.00013291,2.0308e-05,0.00075955,0.052495,-0.010996,-0.011517,0.00069113,0.0001056,0.0039496,0,0,0,0.028879,0.0044283,0.0041715,0.012354,0.012493,0.02458,7.7263e-07,0.2,0.55,0.4
0.011674,-0.00043156,0.0012008,0.030027,0.0034822,0.0032474,0.00041841,3.498e-05,0.00064792,0.056017,-0.013,-0.013611,0.0021757,0.0001819,0.0033692,0,0,0,0.030065,0.0034909,0.0032009,0.013432,0.012252,0.026721,9.8926e-07,0.25,0.55,0.4
0.014559,-0.00047678,0.0013498,0.031269,0.0028787,0.0026097,0.00072975,5.5283e-05,0.00055605,0.059245,-0.01457,-0.015269,0.0037947,0.00028747,0.0028915,0,0,0,0.031315,0.0028893,0.0025529,0.014381,0.012253,0.028596,1.2098e-06,0.3,0.55,0.4
0.017598,-0.00054122,0.001453,0.032919,0.0026351,0.0023994,0.00094666,3.6522e-05,0.00045566,0.061577,-0.015568,-0.016184,0.0049441,0.00019221,0.0023813,0,0,0,0.032973,0.0026789,0.0023008,0.015336,0.012651,0.030486,1.5263e-06,0.35,0.55,0.4
0.020732,-0.00068984,0.001492,0.034638,0.0020607,0.0020121,0.00099824,-6.4586e-05,0.00035846,0.059391,-0.01545,-0.015622,0.004798,-0.00024534,0.0017517,0,0,0,0.0347,0.0022516,0.0017589,0.01647,0.012903,0.032699,1.9986e-06,0.4,0.55,0.4
0.023585,-0.00090625,0.0014755,0.034959,0.00066926,0.00088288,0.00075916,-0.00012594,0.00020384,0.050347,-0.014019,-0.013638,0.0030745,-0.00049048,0.00088331,0,0,0,0.035014,0.001093,0.00040382,0.017305,0.01217,0.034274,2.3152e-06,0.45,0.55,0.4
0.025806,-0.0010714,0.0014582,0.034641,-0.00044777,-0.00016494,0.00037792,-7.5131e-05,-3.5313e-05,0.040879,-0.012392,-0.011886,0.001271,-0.00030051,-5.1056e-05,0,0,0,0.034666,-1.0037e-05,-0.00062777,0.017647,0.011343,0.034992,2.3707e-06,0.5,0.55,0.4
0.027668,-0.0011422,0.0014684,0.035331,-0.0006713,-0.00054562,0.00023669,-5.3276e-05,-0.00015758,0.037048,-0.011538,-0.011322,0.00068323,-0.00017307,-0.00043667,0,0,0,0.035336,-0.00044769,-0.0007746,0.018055,0.011371,0.03595,2.4553e-06,0.55,0.55,0.4
0.029498,-0.0011725,0.0014881,0.036089,-0.00067713,-0.00064519,0.00017721,-8.6404e-05,-0.00013243,0.036637,-0.011359,-0.011315,0.00047375,-0.00022882,-0.00035115,0,0,0,0.036092,-0.00054678,-0.00077812,0.018435,0.011589,0.036755,2.5619e-06,0.6,0.55,0.4
0.031331,-0.0011924,0.0015073,0.036037,-0.00085293,-0.00081161,3.0552e-05,-8.2533e-05,-7.4431e-05,0.036688,-0.01147,-0.011414,6.7033e-05,-0.00021841,-0.00018977,0,0,0,0.036038,-0.00071837,-0.00094766,0.018493,0.011457,0.036872,2.5864e-06,0.65,0.55,0.4
0.033166,-0.0012024,0.0015278,0.035206,-0.0011967,-0.0010424,-3.0113e-05,-4.0819e-05,-1.4756e-05,0.037243,-0.011897,-0.011637,-0.00013085,-0.00013842,-2.4816e-05,0,0,0,0.035209,-0.00095477,-0.0012877,0.018248,0.010989,0.036333,2.5339e-06,0.7,0.55,0.4
0.035042,-0.0011716,0.0015631,0.034496,-0.0013399,-0.00099792,-0.00016018,-5.6972e-05,-6.9948e-05,0.041351,-0.013106,-0.012496,-0.00060623,-0.00024691,-0.00023346,0,0,0,0.034516,-0.00085733,-0.0015001,0.018008,0.010719,0.035702,2.517e-06,0.75,0.55,0.4
0.037296,-0.0010381,0.0016364,0.034877,-0.00057837,-0.0002778,-0.00052092,-0.00010685,-0.00021725,0.051367,-0.015312,-0.014752,-0.0021554,-0.0004217,-0.00085222,0,0,0,0.034917,-9.3162e-05,-0.00080391,0.017861,0.01134,0.035374,2.5397e-06,0.8,0.55,0.4
0.04022,-0.00084266,0.0017256,0.034806,0.00048912,0.00052422,-0.00075426,-3.9856e-05,-0.0002576,0.061425,-0.017581,-0.017548,-0.0036471,-0.00012917,-0.0012114,0,0,0,0.034844,0.00074418,0.00023049,0.017307,0.01194,0.034361,2.3011e-06,0.85,0.55,0.4
0.04349,-0.00071824,0.0017817,0.033567,0.00062905,0.00046261,-0.00069382,7.408e-05,-0.00021153,0.065208,-0.018769,-0.019202,-0.0036415,0.00038514,-0.0011135,0,0,0,0.033591,0.00075186,0.00031573,0.016638,0.011553,0.03306,1.9293e-06,0.9,0.55,0.4
0.046757,-0.00068982,0.0018003,0.032635,0.00024322,3.3376e-05,-0.00042808,0.00010652,-0.00012819,0.065103,-0.019114,-0.01966,-0.002226,0.00055388,-0.00066661,0,0,0,0.032646,0.00034655,-8.1356e-05,0.016364,0.01097,0.032516,1.771e-06,0.95,0.55,0.4
0.048383,-0.00069047,0.0018036,0.032422,9.3765e-05,-0.000105,-0.00023852,0.00010188,-6.5728e-05,0.064851,-0.019203,-0.019719,-0.0012403,0.00052976,-0.00034179,0,0,0,0.032427,0.00019579,-0.00021165,0.016319,0.010804,0.032437,1.7576e-06,1,0.55,0.4
0.00095765,-0.0001285,0.00014135,0.025608,0.0097929,0.0097936,-0.00096953,-3.6912e-06,0.0010766,0.039464,-0.0016551,-0.0016532,-0.0050416,-1.9194e-05,0.0055986,0,0,0,0.025765,0.0097992,0.0096302,0.0080674,0.015065,0.016051,2.1514e-07,0,0.6,0.4
0.0019732,-0.00025582,0.00027964,0.025834,0.0087489,0.0087506,-0.0009355,-7.0433e-06,0.0010536,0.041168,-0.0032529,-0.0032483,-0.0048646,-3.6625e-05,0.0054786,0,0,0,0.025974,0.0087632,0.0085959,0.0086892,0.014444,0.017295,2.7414e-07,0.05,0.6,0.4
0.0041168,-0.00050461,0.00054791,0.026681,0.0069191,0.0069233,-0.00083454,-1.2902e-05,0.00098628,0.045056,-0.0063242,-0.0063134,-0.0043396,-6.7093e-05,0.0051287,0,0,0,0.026787,0.0069514,0.0067851,0.010001,0.013508,0.019919,4.1759e-07,0.1,0.6,0.4
0.0064788,-0.00073535,0.0007955,0.027921,0.0054507,0.0054577,-0.00066925,-1.6686e-05,0.00088552,0.049296,-0.0091257,-0.0091074,-0.0034801,-8.6767e-05,0.0046047,0,0,0,0.027994,0.0055029,0.0053319,0.011331,0.012943,0.022577,6.0249e-07,0.15,0.6,0.4
0.0090464,-0.00093711,0.0010152,0.029185,0.0042138,0.0042234,-0.00044967,-1.7488e-05,0.00077255,0.053307,-0.011617,-0.011592,-0.0023383,-9.0938e-05,0.0040173,0,0,0,0.029234,0.0042836,0.0041041,0.012565,0.012541,0.025041,8.1742e-07,0.2,0.6,0.4
0.01181,-0.0011031,0.0012022,0.030549,0.0032648,0.0032758,-0.00019344,-1.4129e-05,0.00067384,0.057174,-0.013765,-0.013737,-0.0010059,-7.347e-05,0.003504,0,0,0,0.030586,0.0033446,0.0031591,0.013714,0.012363,0.027335,1.0598e-06,0.25,0.6,0.4
0.014764,-0.0012327,0.0013531,0.032049,0.002674,0.0026837,6.4483e-05,-5.2798e-06,0.00059586,0.060884,-0.015492,-0.015467,0.00033531,-2.7455e-05,0.0030985,0,0,0,0.032083,0.0027646,0.0025589,0.014762,0.012469,0.029422,1.3183e-06,0.3,0.6,0.4
0.017898,-0.0013435,0.0014529,0.034591,0.0024429,0.002451,0.00026175,-1.5714e-05,0.00049485,0.062529,-0.016281,-0.016271,0.0013655,-7.3751e-05,0.0026084,0,0,0,0.034627,0.0025603,0.0022979,0.016165,0.013162,0.032199,1.8981e-06,0.35,0.6,0.4
0.021062,-0.0014619,0.0014818,0.036506,0.0020222,0.0020183,0.00031148,-5.5549e-05,0.00030755,0.058356,-0.015344,-0.015368,0.0015047,-0.00023772,0.0016296,0,0,0,0.036541,0.0021647,0.0018401,0.017351,0.013515,0.034541,2.4884e-06,0.4,0.6,0.4
0.023807,-0.0015791,0.0014646,0.035771,0.00086571,0.00083539,0.00021946,-5.9653e-05,5.6248e-05,0.048384,-0.01323,-0.013288,0.00081938,-0.00023948,0.00035437,0,0,0,0.035797,0.0010329,0.00064281,0.017577,0.012491,0.034961,2.4695e-06,0.45,0.6,0.4
0.02591,-0.0016612,0.0014544,0.035307,-0.00027142,-0.00031265,0.00015919,-2.7007e-05,-0.00011105,0.039435,-0.011677,-0.011737,0.00040163,-9.9652e-05,-0.00032676,0,0,0,0.035317,-0.00011051,-0.00048308,0.0179,0.011574,0.035616,2.4027e-06,0.5,0.6,0.4
0.027731,-0.0017059,0.0014648,0.035842,-0.00060973,-0.00061851,0.00018427,-3.0167e-05,-0.00013446,0.036368,-0.011227,-0.011239,0.00047152,-8.3e-05,-0.00035931,0,0,0,0.035844,-0.00049496,-0.00073541,0.01829,0.011538,0.036461,2.4995e-06,0.55,0.6,0.4
0.029545,-0.0017354,0.001481,0.035949,-0.00060567,-0.00055995,0.00016935,-5.2601e-05,-0.00011204,0.036298,-0.011222,-0.011163,0.00044032,-0.00013676,-0.0002913,0,0,0,0.03595,-0.00048829,-0.00067864,0.018314,0.011594,0.036534,2.5044e-06,0.6,0.6,0.4
0.031361,-0.0017609,0.0015006,0.035903,-0.00077689,-0.00072738,9.8882e-05,-4.7405e-05,-8.8619e-05,0.036354,-0.01133,-0.011265,0.00025709,-0.00012325,-0.00023041,0,0,0,0.035904,-0.00065764,-0.00084737,0.018376,0.011466,0.036657,2.5299e-06,0.65,0.6,0.4
0.033181,-0.0017837,0.0015253,0.035736,-0.0011355,-0.0011364,6.3975e-05,-1.3816e-05,-3.3985e-05,0.036576,-0.011568,-0.011569,0.00017568,-3.9869e-05,-7.986e-05,0,0,0,0.035737,-0.0010151,-0.0012577,0.018497,0.011155,0.036874,2.5859e-06,0.7,0.6,0.4
0.035017,-0.0017955,0.0015613,0.035216,-0.0011336,-0.0011633,4.6904e-05,-2.6916e-06,1.0131e-05,0.039943,-0.01233,-0.01237,0.00017232,-3.021e-05,7.3011e-05,0,0,0,0.035225,-0.00096295,-0.0013422,0.018283,0.010973,0.036379,2.5595e-06,0.75,0.6,0.4
0.037155,-0.0017735,0.0016282,0.035773,-0.00033132,-0.00034753,-6.9644e-05,-3.3719e-05,-6.2097e-05,0.049449,-0.014394,-0.014415,-0.00031783,-0.00015117,-0.00029016,0,0,0,0.035795,-0.00015702,-0.00054331,0.018169,0.011698,0.036147,2.7331e-06,0.8,0.6,0.4
0.039974,-0.0017213,0.0017193,0.036757,0.00045385,0.00046275,-0.00023241,-2.6583e-05,-0.00019916,0.060461,-0.017341,-0.017315,-0.0011942,-0.0001126,-0.001062,0,0,0,0.036781,0.00060789,0.00028416,0.018249,0.012558,0.036337,2.8753e-06,0.85,0.6,0.4
0.043283,-0.0016836,0.0017869,0.035373,0.00045588,0.00048147,-0.00027577,2.0448e-05,-0.00024212,0.066373,-0.01943,-0.019364,-0.0014582,0.00010673,-0.0012996,0,0,0,0.035389,0.0006066,0.00031479,0.017537,0.012103,0.03493,2.3774e-06,0.9,0.6,0.4
0.046662,-0.0016791,0.0018102,0.033659,0.00010259,0.00013564,-0.00018038,3.7263e-05,-0.00015453,0.067174,-0.020071,-0.019985,-0.000938,0.00019377,-0.00080353,0,0,0,0.033665,0.00023678,-5.3282e-06,0.016835,0.011299,0.033551,1.9429e-06,0.95,0.6,0.4
0.048338,-0.001683,0.0018128,0.033361,-5.6422e-05,-2.1136e-05,-0.00010761,3.3901e-05,-8.3788e-05,0.066769,-0.020117,-0.020025,-0.00055956,0.00017629,-0.0004357,0,0,0,0.033364,6.7052e-05,-0.00014761,0.016756,0.011095,0.033405,1.9168e-06,1,0.6,0.4
0.00095995,-0.00021355,0.00014054,0.025664,0.0097659,0.0098069,-0.0016226,-9.1089e-06,0.0010704,0.039584,-0.0017506,-0.0016439,-0.0084373,-4.7366e-05,0.0055661,0,0,0,0.025925,0.0097953,0.0095165,0.0082042,0.015079,0.016271,2.2396e-07,0,0.65,0.4
0.0019792,-0.00042299,0.00027808,0.025891,0.0086723,0.0087538,-0.0015815,-1.7424e-05,0.0010475,0.041327,-0.0034425,-0.0032306,-0.008224,-9.0607e-05,0.0054471,0,0,0,0.026125,0.0087346,0.0084576,0.0088338,0.014439,0.017531,2.8531e-07,0.05,0.65,0.4
0.0041327,-0.00082953,0.000545,0.026746,0.0067528,0.0069096,-0.0014613,-3.2732e-05,0.00098084,0.045294,-0.0066875,-0.0062798,-0.0075987,-0.00017021,0.0051004,0,0,0,0.026923,0.0068821,0.0066026,0.01016,0.013469,0.020183,4.3402e-07,0.1,0.65,0.4
0.0065086,-0.0012038,0.00079147,0.02799,0.0052197,0.0054327,-0.001277,-4.5789e-05,0.00088101,0.049588,-0.0096141,-0.0090603,-0.0066403,-0.0002381,0.0045812,0,0,0,0.028115,0.0054097,0.0051175,0.011499,0.012881,0.022853,6.2414e-07,0.15,0.65,0.4
0.0090915,-0.0015327,0.0010103,0.029243,0.003952,0.0041917,-0.0010616,-5.7277e-05,0.0007692,0.053601,-0.012157,-0.011534,-0.0055203,-0.00029784,0.0039998,0,0,0,0.029329,0.0041812,0.0038771,0.012726,0.012462,0.025302,8.4208e-07,0.2,0.65,0.4
0.011869,-0.0018081,0.0011967,0.030583,0.0030065,0.0032422,-0.00085724,-6.7858e-05,0.00067179,0.057416,-0.014282,-0.013669,-0.0044576,-0.00035286,0.0034933,0,0,0,0.030644,0.0032448,0.0029429,0.01385,0.012277,0.027552,1.0837e-06,0.25,0.65,0.4
0.014833,-0.0020259,0.0013474,0.032048,0.0024454,0.0026517,-0.00068284,-7.8255e-05,0.00059517,0.061037,-0.015929,-0.015392,-0.0035508,-0.00040693,0.0030949,0,0,0,0.032096,0.0026737,0.0023749,0.014861,0.012382,0.029573,1.3372e-06,0.3,0.65,0.4
0.017972,-0.0021724,0.0014472,0.034552,0.0022609,0.0024241,-0.0004974,-6.4892e-05,0.0004958,0.062578,-0.016605,-0.016194,-0.0026421,-0.0003284,0.0026131,0,0,0,0.034594,0.0024798,0.0021637,0.016215,0.013079,0.032273,1.9077e-06,0.35,0.65,0.4
0.021136,-0.0022306,0.0014768,0.036432,0.0018866,0.0019964,-0.00024456,-1.8621e-05,0.0003105,0.058317,-0.015547,-0.015296,-0.0013843,-8.6666e-05,0.0016427,0,0,0,0.036468,0.0020951,0.0017523,0.017358,0.013438,0.034546,2.4876e-06,0.4,0.65,0.4
0.023877,-0.002232,0.0014605,0.035672,0.00077554,0.00081917,4.1494e-05,-8.3832e-06,6.1025e-05,0.048297,-0.013322,-0.013231,-2.0613e-05,1.1937e-06,0.0003722,0,0,0,0.035697,0.00098705,0.00058324,0.017557,0.012422,0.034914,2.4598e-06,0.45,0.65,0.4
0.025976,-0.002238,0.0014511,0.03519,-0.00030597,-0.00031924,0.00021322,-3.703e-05,-0.00010539,0.039322,-0.011681,-0.011694,0.00061989,-8.235e-05,-0.00030916,0,0,0,0.0352,-0.00012276,-0.00051235,0.017856,0.011522,0.03552,2.3834e-06,0.5,0.65,0.4
0.02779,-0.0022643,0.0014619,0.03571,-0.00059425,-0.00061739,0.00021805,-2.4647e-05,-0.00012913,0.03623,-0.011172,-0.011202,0.00057814,-6.026e-05,-0.00034479,0,0,0,0.035713,-0.0004848,-0.00072929,0.018221,0.0115,0.036321,2.4708e-06,0.55,0.65,0.4
0.029597,-0.0022948,0.0014786,0.035812,-0.00055662,-0.00055498,0.00017703,1.164e-05,-0.00010764,0.036145,-0.011134,-0.011132,0.00046027,3.0264e-05,-0.00027986,0,0,0,0.035813,-0.00046279,-0.00065011,0.018232,0.011567,0.03637,2.4707e-06,0.6,0.65,0.4
0.031405,-0.0023254,0.0014986,0.035771,-0.00071134,-0.00072086,0.00014268,1.8527e-05,-8.5339e-05,0.036201,-0.011226,-0.011239,0.00037098,4.8171e-05,-0.00022188,0,0,0,0.035772,-0.00061798,-0.00081515,0.018294,0.011446,0.036489,2.4951e-06,0.65,0.65,0.4
0.033217,-0.0023585,0.0015237,0.035615,-0.0010722,-0.0011305,5.9977e-05,-5.5419e-06,-3.2015e-05,0.036433,-0.011469,-0.011545,0.00014646,-1.0447e-05,-7.4883e-05,0,0,0,0.035616,-0.00097485,-0.001229,0.018422,0.011137,0.036719,2.5535e-06,0.7,0.65,0.4
0.035046,-0.0024033,0.00156,0.035111,-0.0010877,-0.0011599,-2.5123e-05,-1.032e-05,1.1221e-05,0.039811,-0.012247,-0.012346,-0.00012786,-5.7658e-06,7.5779e-05,0,0,0,0.03512,-0.00093974,-0.0013161,0.018218,0.010955,0.03625,2.5328e-06,0.75,0.65,0.4
0.037178,-0.0024816,0.001627,0.03568,-0.00031333,-0.00034973,1.9965e-05,2.2986e-05,-6.1091e-05,0.049313,-0.014334,-0.014387,0.00012945,0.00011311,-0.00028662,0,0,0,0.035701,-0.00015546,-0.00052855,0.018115,0.011672,0.036046,2.7125e-06,0.8,0.65,0.4
0.03999,-0.0025862,0.0017181,0.036674,0.00044659,0.00045526,0.0001525,1.5612e-05,-0.00019817,0.060325,-0.017309,-0.017281,0.0008597,6.2816e-05,-0.0010574,0,0,0,0.036697,0.00059768,0.00028069,0.018208,0.012525,0.03626,2.8601e-06,0.85,0.65,0.4
0.043292,-0.0026659,0.0017858,0.035303,0.0004331,0.00047213,0.00020722,-3.1826e-05,-0.00024142,0.066255,-0.019427,-0.019328,0.0011299,-0.00016446,-0.001296,0,0,0,0.035318,0.00059385,0.00029652,0.017511,0.012069,0.034874,2.3673e-06,0.9,0.65,0.4
0.046666,-0.002697,0.0018092,0.033599,7.0142e-05,0.00012581,0.00013408,-4.8716e-05,-0.00015415,0.06708,-0.020094,-0.01995,0.0006972,-0.00025332,-0.00080156,0,0,0,0.033605,0.00022129,-3.154e-05,0.016818,0.011265,0.033511,1.9363e-06,0.95,0.65,0.4
0.04834,-0.0027022,0.0018118,0.033305,-9.2851e-05,-3.1278e-05,6.9299e-05,-4.5357e-05,-8.3563e-05,0.066684,-0.02015,-0.01999,0.00036035,-0.00023586,-0.00043453,0,0,0,0.033307,4.8981e-05,-0.00017587,0.016742,0.01106,0.033372,1.9112e-06,1,0.65,0.4
0.00095989,-0.00030356,0.00013911,0.025654,0.0097037,0.0097975,-0.0023092,-1.3878e-05,0.0010591,0.039606,-0.0018632,-0.0016194,-0.012008,-7.2166e-05,0.0055073,0,0,0,0.026077,0.0097786,0.0092996,0.0083884,0.015052,0.016543,2.3487e-07,0,0.7,0.4
0.0019803,-0.00060007,0.00027535,0.025874,0.0085479,0.0087347,-0.0022535,-2.6593e-05,0.0010359,0.041378,-0.0036692,-0.0031835,-0.011718,-0.00013828,0.0053868,0,0,0,0.026252,0.0087037,0.0082006,0.0090256,0.014385,0.017806,2.9808e-07,0.05,0.7,0.4
0.0041378,-0.0011734,0.00053984,0.026704,0.0065145,0.0068709,-0.0020918,-5.0324e-05,0.00096836,0.045377,-0.0071159,-0.0061893,-0.010877,-0.00026168,0.0050355,0,0,0,0.02699,0.0068272,0.0062719,0.010359,0.013363,0.020448,4.4981e-07,0.1,0.7,0.4
0.006518,-0.0016968,0.00078414,0.027889,0.0049051,0.0053752,-0.0018546,-7.1663e-05,0.00086642,0.049609,-0.010148,-0.0089259,-0.009644,-0.00037265,0.0045054,0,0,0,0.02809,0.0053379,0.0047411,0.011674,0.012723,0.023058,6.3867e-07,0.15,0.7,0.4
0.0090987,-0.0021528,0.0010009,0.029016,0.0036186,0.0041165,-0.0016024,-9.24e-05,0.00074982,0.05339,-0.012642,-0.011347,-0.0083322,-0.00048048,0.0038991,0,0,0,0.029154,0.0040974,0.0034993,0.012827,0.01225,0.025362,8.4511e-07,0.2,0.7,0.4
0.011857,-0.0025313,0.001185,0.030124,0.0027005,0.0031398,-0.0014014,-0.00011408,0.00064208,0.056744,-0.014557,-0.013415,-0.0072874,-0.00059324,0.0033388,0,0,0,0.030224,0.0031461,0.0025943,0.013815,0.011988,0.027359,1.0579e-06,0.25,0.7,0.4
0.014773,-0.0028256,0.001333,0.031259,0.002193,0.0025082,-0.001269,-0.00013572,0.0005541,0.059696,-0.015874,-0.015055,-0.0065987,-0.00070573,0.0028813,0,0,0,0.031338,0.002551,0.0020704,0.014634,0.011987,0.029031,1.2625e-06,0.3,0.7,0.4
0.017827,-0.0030076,0.0014363,0.032791,0.0020874,0.0023101,-0.0011132,-0.00011293,0.00045798,0.061706,-0.016533,-0.015959,-0.0058273,-0.00058386,0.002393,0,0,0,0.032856,0.0023821,0.0019508,0.015452,0.012396,0.030692,1.5529e-06,0.35,0.7,0.4
0.020959,-0.003024,0.0014769,0.034392,0.0016431,0.0019332,-0.00087113,-5.4446e-06,0.00036586,0.05924,-0.01606,-0.015407,-0.0043306,-7.9616e-05,0.0017846,0,0,0,0.034447,0.002029,0.0014929,0.016477,0.012656,0.03269,1.991e-06,0.4,0.7,0.4
0.023798,-0.0029145,0.0014632,0.034633,0.00038918,0.00082333,-0.00044028,6.1365e-05,0.00021604,0.050043,-0.014294,-0.013461,-0.0019867,0.00025098,0.00092887,0,0,0,0.034676,0.00095866,0.00021052,0.017233,0.011948,0.034101,2.2758e-06,0.45,0.7,0.4
0.026002,-0.0028281,0.0014484,0.034287,-0.00054718,-0.00018823,2.642e-05,1.6273e-05,-2.038e-05,0.040513,-0.012391,-0.011753,-7.6486e-05,0.00012456,-3.3257e-06,0,0,0,0.034307,-5.0582e-05,-0.00070496,0.017506,0.011184,0.034693,2.309e-06,0.5,0.7,0.4
0.027845,-0.0028224,0.0014602,0.034949,-0.00061188,-0.00054036,0.00017452,4.2185e-06,-0.00014253,0.03663,-0.01136,-0.011214,0.00042836,4.0355e-05,-0.00039399,0,0,0,0.034953,-0.00040998,-0.00074649,0.01785,0.011266,0.035534,2.3711e-06,0.55,0.7,0.4
0.029653,-0.0028488,0.0014811,0.035686,-0.00051589,-0.00062665,0.0001683,5.038e-05,-0.00011959,0.036178,-0.011081,-0.011223,0.00042933,0.00013467,-0.00031723,0,0,0,0.035688,-0.00044373,-0.00070088,0.018195,0.011515,0.036262,2.4597e-06,0.6,0.7,0.4
0.031461,-0.0028836,0.0015016,0.035647,-0.00064683,-0.0007884,0.00019497,5.8015e-05,-6.5421e-05,0.036227,-0.011152,-0.011335,0.00051907,0.0001549,-0.00016633,0,0,0,0.035649,-0.00057858,-0.00085871,0.018254,0.011404,0.036369,2.4815e-06,0.65,0.7,0.4
0.033274,-0.00293,0.0015232,0.034858,-0.0010039,-0.0010217,0.00012604,2.4642e-05,-9.4164e-06,0.036812,-0.011588,-0.011567,0.00037265,9.6434e-05,-1.0806e-05,0,0,0,0.034861,-0.00083769,-0.0011916,0.018027,0.010944,0.035879,2.4406e-06,0.7,0.7,0.4
0.03513,-0.003019,0.0015593,0.034189,-0.0012056,-0.00098879,0.00014735,4.5434e-05,-6.6034e-05,0.040941,-0.012843,-0.012424,0.00053439,0.00021409,-0.00022188,0,0,0,0.034207,-0.0008045,-0.0014081,0.017808,0.010665,0.03532,2.4376e-06,0.75,0.7,0.4
0.037363,-0.0032109,0.0016328,0.034595,-0.00053011,-0.00028844,0.0004387,9.6497e-05,-0.00021323,0.050949,-0.015126,-0.014667,0.0018236,0.00038399,-0.00083751,0,0,0,0.034632,-9.6772e-05,-0.00075869,0.017695,0.011259,0.035067,2.474e-06,0.8,0.7,0.4
0.040266,-0.0034615,0.0017222,0.034563,0.00046522,0.00050014,0.00065158,2.9694e-05,-0.00025443,0.061022,-0.017488,-0.017449,0.003172,8.2068e-05,-0.0011972,0,0,0,0.034597,0.00071318,0.0002184,0.017189,0.011843,0.034135,2.2572e-06,0.85,0.7,0.4
0.043516,-0.003631,0.0017785,0.033368,0.00055833,0.00043407,0.00060823,-8.4347e-05,-0.00020976,0.064873,-0.018774,-0.019098,0.0032058,-0.00043805,-0.0011043,0,0,0,0.033388,0.00070267,0.00026947,0.016559,0.011453,0.032905,1.9038e-06,0.9,0.7,0.4
0.04677,-0.0036885,0.0017974,0.032461,0.00014119,2.2319e-06,0.00036982,-0.00011721,-0.0001273,0.064837,-0.019196,-0.019557,0.001923,-0.0006095,-0.00066194,0,0,0,0.032471,0.0002782,-0.00014434,0.016308,0.010868,0.032407,1.7537e-06,0.95,0.7,0.4
0.048388,-0.003698,0.0018009,0.032258,-2.0006e-05,-0.00013732,0.00019272,-0.00011275,-6.5183e-05,0.064609,-0.019312,-0.019617,0.0010021,-0.00058632,-0.00033895,0,0,0,0.032261,0.00011818,-0.00027941,0.01627,0.0107,0.032345,1.743e-06,1,0.7,0.4
0.00095933,-0.00039987,0.00013728,0.025623,0.0096071,0.0097771,-0.0030342,-1.7235e-05,0.0010444,0.039615,-0.0020258,-0.0015836,-0.015778,-8.9621e-05,0.0054309,0,0,0,0.026271,0.0097564,0.0089791,0.0086461,0.015002,0.016918,2.5e-07,0,0.75,0.4
0.0019807,-0.00078991,0.00027186,0.025825,0.0083589,0.0086979,-0.0029474,-3.3126e-05,0.0010205,0.041417,-0.0039961,-0.0031148,-0.015327,-0.00017225,0.0053068,0,0,0,0.0264,0.0086649,0.0078172,0.0092915,0.014294,0.018176,3.1504e-07,0.05,0.75,0.4
0.0041417,-0.0015411,0.00053323,0.026603,0.0061618,0.006801,-0.0026991,-6.3033e-05,0.0009509,0.045429,-0.0077189,-0.0060571,-0.014035,-0.00032777,0.0049447,0,0,0,0.027027,0.0067565,0.005783,0.010622,0.013189,0.020776,4.684e-07,0.1,0.75,0.4
0.0065236,-0.0022186,0.00077468,0.027677,0.0044606,0.0052774,-0.0023442,-9.0389e-05,0.00084472,0.049512,-0.010852,-0.0087281,-0.01219,-0.00047002,0.0043926,0,0,0,0.027963,0.0052417,0.0042103,0.011877,0.012472,0.023257,6.5062e-07,0.15,0.75,0.4
0.0090929,-0.0027969,0.00098849,0.028598,0.0031779,0.0039976,-0.0019803,-0.00011708,0.0007199,0.05289,-0.013201,-0.01107,-0.010298,-0.0006088,0.0037435,0,0,0,0.028786,0.0039821,0.0030059,0.01289,0.011924,0.025307,8.3458e-07,0.2,0.75,0.4
0.011813,-0.0032638,0.0011694,0.029381,0.0023298,0.002995,-0.0016987,-0.00014397,0.00059765,0.055567,-0.014766,-0.013036,-0.0088335,-0.00074867,0.0031078,0,0,0,0.02951,0.0030099,0.002186,0.013662,0.011569,0.026922,1.0037e-06,0.25,0.75,0.4
0.01465,-0.0036134,0.0013144,0.030088,0.0019013,0.0023133,-0.0015303,-0.00016701,0.00049366,0.057647,-0.015638,-0.014567,-0.0079576,-0.00086846,0.002567,0,0,0,0.030187,0.0023741,0.0017411,0.014223,0.011434,0.028136,1.1466e-06,0.3,0.75,0.4
0.017577,-0.0038271,0.0014201,0.030817,0.0018221,0.0020335,-0.0013905,-0.00015936,0.00040316,0.059321,-0.016066,-0.015517,-0.0072304,-0.00082867,0.0020964,0,0,0,0.030898,0.0021333,0.0016416,0.014628,0.011558,0.029014,1.2601e-06,0.35,0.75,0.4
0.020582,-0.0038424,0.0014744,0.032218,0.0014216,0.0017627,-0.0013188,-5.2869e-05,0.00035925,0.058454,-0.016156,-0.01538,-0.0064291,-0.00034717,0.0017276,0,0,0,0.032292,0.0018803,0.0012304,0.015531,0.011801,0.030743,1.6208e-06,0.4,0.75,0.4
0.02346,-0.0036655,0.0014732,0.033389,0.000255,0.001035,-0.00109,9.9137e-05,0.0003093,0.052164,-0.015453,-0.013872,-0.0048339,0.00032736,0.0012908,0,0,0,0.033459,0.0011624,5.8163e-05,0.0167,0.01156,0.032866,2.117e-06,0.45,0.75,0.4
0.025873,-0.0034731,0.0014564,0.033125,-0.00063822,0.00021692,-0.00053461,0.00013478,0.00011128,0.0436,-0.013796,-0.012131,-0.0023635,0.00052389,0.00046709,0,0,0,0.033167,0.00033852,-0.00080131,0.016984,0.010901,0.03342,2.2156e-06,0.5,0.75,0.4
0.027858,-0.0033963,0.0014632,0.033134,-0.00067374,-0.00031117,-0.00010648,8.3907e-05,-8.7427e-05,0.038319,-0.012159,-0.011384,-0.00066628,0.000328,-0.00021915,0,0,0,0.033148,-0.00017387,-0.00082495,0.016987,0.010716,0.033659,2.1706e-06,0.55,0.75,0.4
0.029703,-0.0034025,0.001485,0.033738,-0.00056655,-0.00059353,0.00010439,5.7896e-05,-0.00011393,0.036825,-0.011448,-0.011355,0.00018485,0.00019039,-0.0003149,0,0,0,0.033744,-0.00039686,-0.00076916,0.017257,0.010859,0.034331,2.2414e-06,0.6,0.75,0.4
0.031536,-0.0034403,0.0015059,0.033709,-0.00066599,-0.0007385,0.000284,6.5234e-05,-5.7263e-05,0.036875,-0.011499,-0.011472,0.00094795,0.00021206,-0.00016841,0,0,0,0.033717,-0.00050707,-0.00090535,0.017311,0.010768,0.034427,2.2597e-06,0.65,0.75,0.4
0.033386,-0.0035135,0.0015274,0.033064,-0.00096825,-0.00073814,0.00042365,0.00010535,-5.213e-05,0.038498,-0.012325,-0.011753,0.0016218,0.00039469,-0.00018912,0,0,0,0.033083,-0.00053029,-0.0011951,0.017139,0.010453,0.033957,2.2286e-06,0.7,0.75,0.4
0.035383,-0.0036838,0.0015693,0.033029,-0.0011546,-0.00051242,0.0007139,0.00016779,-0.00019047,0.043988,-0.014138,-0.012847,0.0029137,0.00063771,-0.00070268,0,0,0,0.033074,-0.00033181,-0.00138,0.017227,0.010454,0.033948,2.3253e-06,0.75,0.75,0.4
0.037824,-0.0039985,0.0016458,0.033312,-0.000469,2.2624e-06,0.0010755,0.00013659,-0.00030652,0.052931,-0.016059,-0.015144,0.0046379,0.00047882,-0.0012174,0,0,0,0.033375,0.00022732,-0.00075721,0.017066,0.010948,0.033654,2.2694e-06,0.8,0.75,0.4
0.040754,-0.0043411,0.0017229,0.032279,0.00052279,0.00042018,0.0010531,-1.9687e-05,-0.00025375,0.059878,-0.017123,-0.017455,0.0050332,-0.00018844,-0.0011705,0,0,0,0.032327,0.0007866,0.00010901,0.016109,0.011074,0.031886,1.7991e-06,0.85,0.75,0.4
0.04385,-0.0045449,0.0017646,0.031129,0.00063555,0.00022276,0.00078618,-0.00013423,-0.00016798,0.061743,-0.01754,-0.018613,0.0040881,-0.00069798,-0.00087348,0,0,0,0.031154,0.00073041,0.00010272,0.015526,0.010662,0.030743,1.5003e-06,0.9,0.75,0.4
0.046928,-0.0046165,0.0017795,0.030786,0.00026822,-0.00015684,0.00044334,-0.00015421,-9.0975e-05,0.061504,-0.017841,-0.018946,0.0023054,-0.00080189,-0.00047307,0,0,0,0.030797,0.00037591,-0.00027609,0.015537,0.010299,0.030753,1.4995e-06,0.95,0.75,0.4
0.048464,-0.0046334,0.0017834,0.030679,0.00012675,-0.000267,0.00021506,-0.00015292,-4.2284e-05,0.061442,-0.017994,-0.019017,0.0011183,-0.0007952,-0.00021987,0,0,0,0.030683,0.00024332,-0.00038794,0.015536,0.01018,0.030761,1.5002e-06,1,0.75,0.4
0.00096191,-0.00050613,0.00013542,0.02566,0.0094733,0.0097684,-0.0038129,-1.8401e-05,0.0010292,0.039776,-0.0023106,-0.0015434,-0.019827,-9.5685e-05,0.0053518,0,0,0,0.026605,0.0097478,0.0085494,0.0090277,0.014967,0.017489,2.7366e-07,0,0.8,0.4
0.0019888,-0.00099968,0.00026829,0.02583,0.0080676,0.0086505,-0.0036626,-3.5634e-05,0.0010043,0.041629,-0.0045531,-0.0030377,-0.019046,-0.0001853,0.0052223,0,0,0,0.02665,0.0086182,0.0072799,0.0096852,0.014183,0.01874,3.4116e-07,0.05,0.8,0.4
0.0041629,-0.0019452,0.00052645,0.026521,0.0056161,0.0066868,-0.0032473,-6.8474e-05,0.0009318,0.04566,-0.0086925,-0.0059087,-0.016886,-0.00035606,0.0048454,0,0,0,0.027091,0.0066441,0.0050887,0.011001,0.012941,0.021271,4.9563e-07,0.1,0.8,0.4
0.0065548,-0.0027819,0.00076489,0.027439,0.0038197,0.0051248,-0.0026811,-9.8895e-05,0.00082053,0.049512,-0.011899,-0.0085057,-0.013942,-0.00051425,0.0042667,0,0,0,0.027793,0.0050914,0.0034994,0.012147,0.012128,0.023541,6.6633e-07,0.15,0.8,0.4
0.0091141,-0.003473,0.00097563,0.028104,0.0025958,0.0038301,-0.0021274,-0.00012784,0.00068689,0.052352,-0.013969,-0.01076,-0.011062,-0.00066477,0.0035718,0,0,0,0.028314,0.0038164,0.0024001,0.012957,0.01151,0.025238,8.204e-07,0.2,0.8,0.4
0.01179,-0.0040079,0.0011533,0.028536,0.0018669,0.0028121,-0.0017053,-0.0001549,0.0005506,0.054265,-0.015075,-0.012618,-0.0088677,-0.00080549,0.0028631,0,0,0,0.028665,0.0028285,0.0017217,0.013472,0.011072,0.026409,9.4256e-07,0.25,0.8,0.4
0.014541,-0.0043894,0.0012953,0.028793,0.0015226,0.0020783,-0.0014389,-0.00017673,0.00042797,0.055426,-0.015478,-0.014033,-0.0074825,-0.00091901,0.0022254,0,0,0,0.028882,0.002144,0.0013678,0.013757,0.010798,0.027136,1.0262e-06,0.3,0.8,0.4
0.017333,-0.0046142,0.0014002,0.028936,0.0014398,0.001653,-0.0012591,-0.00018282,0.00032539,0.056017,-0.015474,-0.01492,-0.0065474,-0.00095068,0.001692,0,0,0,0.029005,0.0017807,0.0012438,0.01388,0.010676,0.027497,1.0722e-06,0.35,0.8,0.4
0.020142,-0.0046454,0.0014639,0.029378,0.0011891,0.0014253,-0.0011858,-0.00011914,0.00025012,0.055705,-0.015627,-0.015054,-0.0059864,-0.00064838,0.0012547,0,0,0,0.029438,0.0015667,0.00098674,0.014226,0.010664,0.028168,1.2222e-06,0.4,0.8,0.4
0.02292,-0.0044687,0.0014825,0.030162,0.00027,0.001038,-0.0011468,4.5709e-05,0.00022775,0.05278,-0.015879,-0.014185,-0.0054328,9.5096e-05,0.00098182,0,0,0,0.030225,0.0011501,9.5316e-05,0.015065,0.01049,0.02962,1.5523e-06,0.45,0.8,0.4
0.025482,-0.0042081,0.0014762,0.030305,-0.0006203,0.00048863,-0.00088596,0.00017954,0.00015718,0.047155,-0.015221,-0.012816,-0.0040356,0.00069639,0.0006125,0,0,0,0.030354,0.00061098,-0.0007923,0.015573,0.010058,0.030475,1.7504e-06,0.5,0.8,0.4
0.02771,-0.0040349,0.0014778,0.029879,-0.00073535,5.519e-05,-0.00042883,0.00016272,1.7721e-05,0.04197,-0.013733,-0.011909,-0.0020606,0.00067949,0.00012313,0,0,0,0.029903,0.00019697,-0.00090111,0.015402,0.009733,0.030279,1.7257e-06,0.55,0.8,0.4
0.029718,-0.0039919,0.0014924,0.029795,-0.00069434,-0.00028453,1.3458e-05,8.9454e-05,-6.0881e-05,0.039268,-0.012652,-0.011626,-0.0001608,0.00041016,-0.00016721,0,0,0,0.029805,-0.00014893,-0.00084032,0.015323,0.0096054,0.030311,1.7298e-06,0.6,0.8,0.4
0.031664,-0.0040318,0.0015136,0.029782,-0.00076215,-0.00040237,0.00038674,9.6023e-05,-8.7019e-05,0.039329,-0.012689,-0.011753,0.0015953,0.00043372,-0.00034185,0,0,0,0.029798,-0.0002411,-0.00093926,0.015369,0.0095392,0.030399,1.744e-06,0.65,0.8,0.4
0.033678,-0.0041591,0.001543,0.029846,-0.00094155,-0.00030626,0.00075766,0.00018327,-0.00014016,0.042172,-0.013848,-0.012318,0.0033037,0.00075465,-0.00056148,0,0,0,0.029883,-0.00010713,-0.0011779,0.01553,0.0095327,0.030547,1.7727e-06,0.7,0.8,0.4
0.035919,-0.004433,0.0015912,0.030246,-0.00097955,-0.00013819,0.0010885,0.00021121,-0.0002291,0.047539,-0.01544,-0.013607,0.0048353,0.00082168,-0.00087673,0,0,0,0.030307,4.1716e-05,-0.0012204,0.015764,0.0097093,0.030921,1.8317e-06,0.75,0.8,0.4
0.038507,-0.0048256,0.0016576,0.030093,-0.00022432,0.00013025,0.0011658,8.0043e-05,-0.00022589,0.053428,-0.016215,-0.015523,0.0054532,0.00024998,-0.00093819,0,0,0,0.030155,0.00040165,-0.00055688,0.015356,0.0099998,0.030247,1.6527e-06,0.8,0.8,0.4
0.041326,-0.0051795,0.0017143,0.029349,0.0005627,0.00017321,0.00095578,-8.8529e-05,-0.00015281,0.056761,-0.016092,-0.017129,0.0047864,-0.00049451,-0.00074599,0,0,0,0.029389,0.00073202,-3.5604e-05,0.014712,0.010028,0.029049,1.3379e-06,0.85,0.8,0.4
0.044201,-0.005385,0.0017456,0.028995,0.00059315,-9.2998e-05,0.00068585,-0.00015881,-0.00010648,0.05769,-0.016155,-0.017939,0.0035664,-0.00082583,-0.00055371,0,0,0,0.029015,0.0006587,-0.00017916,0.014597,0.0098317,0.028786,1.2308e-06,0.9,0.8,0.4
0.047095,-0.0054726,0.0017597,0.029005,0.00034776,-0.00032114,0.00036229,-0.00016502,-5.2957e-05,0.057995,-0.016515,-0.018254,0.0018839,-0.00085811,-0.00027538,0,0,0,0.029014,0.00043285,-0.00041496,0.014715,0.0096773,0.029015,1.2576e-06,0.95,0.8,0.4
0.048546,-0.0054974,0.0017639,0.029012,0.00024925,-0.00038969,0.00015725,-0.00016447,-2.1527e-05,0.058108,-0.016675,-0.018336,0.00081769,-0.00085526,-0.00011194,0,0,0,0.029015,0.00034176,-0.00048548,0.01475,0.0096238,0.029096,1.2676e-06,1,0.8,0.4
0.00097597,-0.00063093,0.00013401,0.025936,0.0092659,0.0098063,-0.00468,-1.6702e-05,0.0010173,0.040428,-0.0029134,-0.0015084,-0.024336,-8.685e-05,0.0052899,0,0,0,0.027253,0.0097862,0.0079692,0.0096417,0.015003,0.018447,3.1575e-07,0,0.85,0.4
0.0020214,-0.0012452,0.00026556,0.026023,0.0075638,0.0085907,-0.0043869,-3.2971e-05,0.00099114,0.042353,-0.0056406,-0.0029706,-0.022812,-0.00017145,0.0051539,0,0,0,0.027121,0.0085595,0.0064969,0.010312,0.014059,0.019681,3.8594e-07,0.05,0.85,0.4
0.0042353,-0.0024104,0.00052119,0.026548,0.0047346,0.0064956,-0.003645,-6.4801e-05,0.00091545,0.046358,-0.010357,-0.0057784,-0.018954,-0.00033697,0.0047604,0,0,0,0.027231,0.0064549,0.0040918,0.01157,0.012593,0.02206,5.3848e-07,0.1,0.85,0.4
0.0066572,-0.0034085,0.00075715,0.027238,0.0029398,0.004899,-0.0027567,-9.5059e-05,0.00079915,0.049773,-0.013403,-0.0083087,-0.014335,-0.0004943,0.0041556,0,0,0,0.027606,0.0048675,0.0026033,0.012501,0.011692,0.023957,6.8856e-07,0.15,0.85,0.4
0.0092126,-0.0041938,0.00096529,0.027574,0.0018955,0.0035996,-0.001987,-0.00012295,0.00065768,0.051852,-0.014913,-0.010483,-0.010333,-0.00063934,0.0034199,0,0,0,0.027763,0.0035859,0.0017209,0.013021,0.011023,0.025165,8.0448e-07,0.2,0.85,0.4
0.011842,-0.0047713,0.0011403,0.027647,0.0013338,0.0025717,-0.0014401,-0.00014699,0.00050954,0.05295,-0.015463,-0.012245,-0.0074886,-0.00076433,0.0026496,0,0,0,0.027746,0.0025841,0.001222,0.013262,0.010517,0.025873,8.8182e-07,0.25,0.85,0.4
0.014508,-0.0051611,0.0012797,0.027553,0.0010909,0.0018151,-0.0010808,-0.00016454,0.00037,0.053362,-0.015439,-0.013556,-0.0056203,-0.00085559,0.001924,0,0,0,0.02761,0.0018706,0.00097818,0.013316,0.010153,0.026199,9.2116e-07,0.3,0.85,0.4
0.017179,-0.0053745,0.001383,0.027328,0.0010351,0.0013242,-0.00082599,-0.00016773,0.0002466,0.05324,-0.015121,-0.014369,-0.0042951,-0.0008722,0.0012823,0,0,0,0.027364,0.0014408,0.00088222,0.013241,0.0098957,0.026208,9.2513e-07,0.35,0.85,0.4
0.019832,-0.0054079,0.001451,0.02697,0.00088906,0.0010481,-0.00062883,-0.00013339,0.00014055,0.052778,-0.015033,-0.014619,-0.0032699,-0.00069365,0.00073083,0,0,0,0.026996,0.0011743,0.0007368,0.01313,0.0096357,0.026044,9.0966e-07,0.4,0.85,0.4
0.022456,-0.0052614,0.0014851,0.026747,0.00027704,0.00079455,-0.00055325,-2.3418e-05,8.1974e-05,0.05157,-0.015501,-0.014237,-0.0027814,-0.00015838,0.00037442,0,0,0,0.026773,0.00087185,0.00017288,0.0133,0.0092727,0.026261,9.7199e-07,0.45,0.85,0.4
0.025007,-0.0050035,0.0014964,0.026589,-0.00043499,0.00055331,-0.00051477,0.00011278,5.4956e-05,0.049295,-0.015858,-0.013451,-0.002474,0.00049504,0.00019631,0,0,0,0.026617,0.00062762,-0.00053737,0.013577,0.0089025,0.026595,1.0745e-06,0.5,0.85,0.4
0.027423,-0.0047757,0.0015019,0.026433,-0.00069519,0.00037507,-0.00031897,0.00016219,2.0472e-05,0.046358,-0.015343,-0.012704,-0.0015475,0.00077307,8.5576e-05,0,0,0,0.02645,0.00047135,-0.00080838,0.013629,0.0087043,0.026645,1.1268e-06,0.55,0.85,0.4
0.029683,-0.0046751,0.0015109,0.026686,-0.00079328,0.00012616,1.576e-05,0.00014459,-3.1535e-05,0.043765,-0.01447,-0.012269,-2.6703e-05,0.00073964,-0.00011549,0,0,0,0.026694,0.00021714,-0.00089304,0.013794,0.0086728,0.027053,1.2159e-06,0.6,0.85,0.4
0.031863,-0.0047165,0.0015323,0.026686,-0.00083386,3.1734e-05,0.00036708,0.00014952,-9.5188e-05,0.043839,-0.014488,-0.012412,0.001651,0.0007608,-0.00043401,0,0,0,0.0267,0.00013261,-0.00094898,0.013825,0.0086279,0.027128,1.2254e-06,0.65,0.85,0.4
0.03413,-0.0049041,0.0015676,0.026435,-0.00081673,8.3016e-05,0.00063652,0.00017744,-0.00012581,0.046586,-0.015394,-0.013159,0.0030032,0.00084058,-0.0005633,0,0,0,0.026464,0.0002053,-0.00096755,0.013716,0.0085671,0.026867,1.1566e-06,0.7,0.85,0.4
0.036562,-0.0052355,0.0016122,0.026583,-0.00063849,3.7222e-05,0.00073045,0.00013616,-0.00011851,0.04969,-0.015931,-0.014299,0.0035158,0.00060443,-0.00049274,0,0,0,0.026621,0.00017562,-0.0008144,0.013718,0.0086607,0.026958,1.1216e-06,0.75,0.85,0.4
0.039137,-0.0056276,0.001661,0.026725,-6.5724e-06,7.9402e-06,0.00062309,3.5485e-06,-8.1439e-05,0.05216,-0.015574,-0.015604,0.0031191,-2.3021e-05,-0.00036172,0,0,0,0.026754,0.00032982,-0.00035671,0.013555,0.0089089,0.026776,1.0305e-06,0.8,0.85,0.4
0.041797,-0.0059532,0.0017017,0.026932,0.00050572,-0.00010179,0.0004897,-0.00010619,-5.2074e-05,0.053622,-0.015087,-0.016666,0.0025464,-0.00055218,-0.00027079,0,0,0,0.026948,0.00057514,-0.00018685,0.013567,0.0091121,0.026763,9.8599e-07,0.85,0.85,0.4
0.044499,-0.0061603,0.0017278,0.027269,0.00050226,-0.00031841,0.00039018,-0.0001446,-4.3478e-05,0.054427,-0.015166,-0.017299,0.0020289,-0.00075193,-0.00022609,0,0,0,0.027278,0.00055647,-0.00038163,0.01383,0.0091508,0.027203,1.0334e-06,0.9,0.85,0.4
0.047239,-0.006268,0.001742,0.027468,0.00034638,-0.0004635,0.000194,-0.00015207,-2.0481e-05,0.055007,-0.01551,-0.017616,0.0010088,-0.00079077,-0.0001065,0,0,0,0.027472,0.00041153,-0.00053248,0.014002,0.0091171,0.027545,1.0727e-06,0.95,0.85,0.4
0.048617,-0.0063008,0.0017464,0.027537,0.00028098,-0.00050919,6.0426e-05,-0.00015256,-4.7698e-06,0.055211,-0.015655,-0.017709,0.00031421,-0.00079329,-2.4803e-05,0,0,0,0.027539,0.00034958,-0.00057945,0.014059,0.0091029,0.027665,1.0869e-06,1,0.85,0.4
0.0010188,-0.00079748,0.00013364,0.026766,0.0087216,0.009901,-0.0055575,-1.1912e-05,0.0010136,0.042359,-0.0045572,-0.0014909,-0.028899,-6.1943e-05,0.0052708,0,0,0,0.028476,0.00988,0.007033,0.010721,0.01513,0.020186,3.9908e-07,0,0.9,0.4
0.002118,-0.0015637,0.00026479,0.026675,0.0065644,0.0085037,-0.0049124,-2.4731e-05,0.00098631,0.044308,-0.0079781,-0.0029361,-0.025544,-0.0001286,0.0051288,0,0,0,0.027979,0.008472,0.0052916,0.011344,0.013914,0.021291,4.6637e-07,0.05,0.9,0.4
0.0044308,-0.0029809,0.00051949,0.026834,0.0034383,0.0062274,-0.0035917,-5.1112e-05,0.00090769,0.047868,-0.01296,-0.0057085,-0.018677,-0.00026578,0.00472,0,0,0,0.02749,0.0061875,0.0028224,0.012334,0.012167,0.023179,5.9916e-07,0.1,0.9,0.4
0.0069048,-0.0041222,0.00075429,0.027034,0.0019652,0.0046017,-0.0023891,-7.7306e-05,0.00078683,0.050128,-0.015051,-0.0081962,-0.012423,-0.00040199,0.0040915,0,0,0,0.027329,0.004571,0.0017006,0.012814,0.0112,0.024328,7.0533e-07,0.15,0.9,0.4
0.0094437,-0.0049643,0.00096103,0.026856,0.0011992,0.0032592,-0.0015271,-0.00010065,0.00063848,0.051037,-0.015671,-0.010315,-0.007941,-0.00052339,0.0033201,0,0,0,0.026985,0.003244,0.0010855,0.01295,0.010438,0.024895,7.7227e-07,0.2,0.9,0.4
0.012008,-0.0055543,0.0011344,0.026604,0.00082143,0.0022239,-0.00098341,-0.00011924,0.00048069,0.05138,-0.015654,-0.012007,-0.0051138,-0.00062004,0.0024996,0,0,0,0.026662,0.0022292,0.00075806,0.012952,0.009883,0.025204,8.1331e-07,0.25,0.9,0.4
0.014582,-0.0059333,0.0012721,0.026358,0.00067909,0.0014889,-0.0006276,-0.00013029,0.00032912,0.051414,-0.01535,-0.013244,-0.0032635,-0.00067749,0.0017114,0,0,0,0.026384,0.0015237,0.00061752,0.012883,0.0095085,0.025328,8.3184e-07,0.3,0.9,0.4
0.01715,-0.0061263,0.0013748,0.026105,0.00065409,0.0010214,-0.00035108,-0.00012777,0.00019375,0.051205,-0.014968,-0.014013,-0.0018256,-0.0006644,0.0010075,0,0,0,0.026117,0.0010923,0.0005712,0.012773,0.0092602,0.02529,8.3065e-07,0.35,0.9,0.4
0.019702,-0.0061487,0.0014448,0.025804,0.00058195,0.00076004,-0.00010045,-0.00010173,8.0753e-05,0.050802,-0.014774,-0.014311,-0.00052234,-0.00052902,0.00041992,0,0,0,0.02581,0.00083457,0.0005016,0.012654,0.0090486,0.025143,8.1667e-07,0.4,0.9,0.4
0.02223,-0.006021,0.0014869,0.025429,0.00027467,0.00061939,7.4993e-05,-3.9199e-05,-2.4902e-06,0.050321,-0.01508,-0.014183,0.00038996,-0.00020383,-1.2949e-05,0,0,0,0.025436,0.00065906,0.00022828,0.012604,0.0087743,0.024996,8.0126e-07,0.45,0.9,0.4
0.024734,-0.0057989,0.0015098,0.025036,-0.00019492,0.00055588,0.00013068,4.384e-05,-4.5505e-05,0.049855,-0.015745,-0.013793,0.00067953,0.00022797,-0.00023662,0,0,0,0.025045,0.00058096,-0.00022932,0.012637,0.0084655,0.024881,7.878e-07,0.5,0.9,0.4
0.027216,-0.0055788,0.001523,0.02497,-0.00054408,0.00052364,0.00010825,0.00011132,-5.358e-05,0.049078,-0.01609,-0.013346,0.00057509,0.00057976,-0.00027364,0,0,0,0.024977,0.00056673,-0.00059402,0.012786,0.0083167,0.025012,8.1663e-07,0.55,0.9,0.4
0.029653,-0.0054577,0.0015352,0.025307,-0.00070111,0.00045552,0.00012014,0.00015183,-5.7223e-05,0.048135,-0.015975,-0.013062,0.00059908,0.00079137,-0.00028469,0,0,0,0.025312,0.00052019,-0.00077022,0.013041,0.0083539,0.025462,8.9618e-07,0.6,0.9,0.4
0.032062,-0.0054992,0.0015563,0.025327,-0.00071853,0.0003789,0.00017968,0.00015484,-6.3395e-05,0.048232,-0.015974,-0.013213,0.00084646,0.00080618,-0.00031883,0,0,0,0.025333,0.00044613,-0.00079161,0.013062,0.0083292,0.02553,9.0335e-07,0.65,0.9,0.4
0.034509,-0.0057076,0.001588,0.02503,-0.00059815,0.00028596,0.0001533,0.0001209,-4.8085e-05,0.049372,-0.01609,-0.013821,0.00074714,0.00062875,-0.00024712,0,0,0,0.025039,0.00033724,-0.00065796,0.012848,0.0082393,0.025216,8.3768e-07,0.7,0.9,0.4
0.03701,-0.0060308,0.0016244,0.025126,-0.00028969,0.00012308,6.6892e-05,5.9759e-05,-1.8397e-05,0.050352,-0.015729,-0.014656,0.00034784,0.00031074,-9.5663e-05,0,0,0,0.025136,0.00022698,-0.00040294,0.012769,0.0083199,0.025231,8.23e-07,0.75,0.9,0.4
0.039544,-0.006385,0.0016611,0.025535,0.0001316,-7.1075e-05,2.645e-05,-1.8701e-05,-2.2782e-06,0.051033,-0.015015,-0.015542,0.00013754,-9.7245e-05,-1.1847e-05,0,0,0,0.02554,0.00027294,-0.00021818,0.012879,0.0085317,0.025517,8.5244e-07,0.8,0.9,0.4
0.042113,-0.0066882,0.0016933,0.025903,0.00037816,-0.00027382,5.7463e-05,-7.9477e-05,-1.494e-06,0.051743,-0.014621,-0.016316,0.00029881,-0.00041328,-7.7691e-06,0,0,0,0.025905,0.00040212,-0.00030036,0.013103,0.0086691,0.025863,8.8693e-07,0.85,0.9,0.4
0.044718,-0.0069015,0.0017166,0.026161,0.00036927,-0.00047009,9.839e-05,-0.00010811,-3.845e-06,0.052383,-0.014676,-0.016858,0.00051163,-0.00056216,-1.9994e-05,0,0,0,0.026163,0.00040457,-0.00050705,0.013335,0.0086868,0.026226,9.2403e-07,0.9,0.9,0.4
0.047351,-0.0070237,0.0017304,0.02631,0.0002772,-0.00060621,3.7969e-05,-0.00011854,9.8889e-07,0.052817,-0.014868,-0.017165,0.00019744,-0.00061639,5.1422e-06,0,0,0,0.026311,0.00031819,-0.00064816,0.013479,0.0086603,0.026489,9.5197e-07,0.95,0.9,0.4
0.048674,-0.0070628,0.0017349,0.026361,0.00023362,-0.00065308,-2.8167e-05,-0.00012072,6.5786e-06,0.052973,-0.014957,-0.017263,-0.00014647,-0.00062776,3.4209e-05,0,0,0,0.026361,0.00027609,-0.00069628,0.013529,0.008647,0.026585,9.6239e-07,1,0.9,0.4
0.0012136,-0.0010866,0.00013491,0.030374,0.0086856,0.010965,-0.0066268,-6.1703e-06,0.0010246,0.048958,-0.0074327,-0.0015051,-0.034459,-3.2086e-05,0.0053277,0,0,0,0.032513,0.010943,0.0065703,0.012971,0.016675,0.024082,6.927e-07,0,0.95,0.4
0.0024479,-0.002043,0.00026711,0.028996,0.0056416,0.0089107,-0.0052003,-1.4415e-05,0.0009975,0.049261,-0.011461,-0.0029612,-0.027041,-7.4958e-05,0.005187,0,0,0,0.03041,0.0088766,0.0042621,0.013074,0.014516,0.024194,6.6906e-07,0.05,0.95,0.4
0.0049261,-0.0037064,0.0005236,0.02709,0.0019564,0.0058393,-0.0029138,-3.271e-05,0.00091774,0.049503,-0.015845,-0.0057495,-0.015152,-0.00017009,0.0047723,0,0,0,0.027557,0.0057972,0.0015317,0.013013,0.011629,0.024191,6.5345e-07,0.1,0.95,0.4
0.0073982,-0.0049136,0.00075968,0.026111,0.00096002,0.0040009,-0.0015962,-5.1802e-05,0.00079245,0.049245,-0.016147,-0.0082407,-0.0083002,-0.00026937,0.0041207,0,0,0,0.02628,0.0039686,0.00082321,0.012728,0.010357,0.024048,6.7319e-07,0.15,0.95,0.4
0.0098506,-0.0057609,0.00096714,0.025426,0.0004629,0.0025932,-0.00089397,-6.8125e-05,0.0006363,0.049018,-0.015886,-0.010347,-0.0046487,-0.00035425,0.0033088,0,0,0,0.025492,0.002575,0.00041477,0.012539,0.009494,0.024077,6.9845e-07,0.2,0.95,0.4
0.0123,-0.0063367,0.0011405,0.025075,0.00027054,0.0015997,-0.00050681,-8.0232e-05,0.00046783,0.049028,-0.015464,-0.012008,-0.0026354,-0.00041721,0.0024327,0,0,0,0.025102,0.0015976,0.00024534,0.012428,0.0089817,0.024213,7.2301e-07,0.25,0.95,0.4
0.014753,-0.0066961,0.0012775,0.024905,0.00022115,0.00093861,-0.00026025,-8.6116e-05,0.00030441,0.049114,-0.015064,-0.013198,-0.0013533,-0.0004478,0.001583,0,0,0,0.024915,0.00095588,0.00019335,0.012361,0.0086882,0.024352,7.4083e-07,0.3,0.95,0.4
0.017211,-0.0068713,0.0013793,0.024844,0.00023789,0.00056317,-5.7588e-05,-8.2315e-05,0.00015907,0.049207,-0.014769,-0.013923,-0.00029946,-0.00042804,0.00082717,0,0,0,0.024847,0.00059915,0.00019847,0.012324,0.0085484,0.024452,7.5145e-07,0.35,0.95,0.4
0.019674,-0.0068854,0.0014493,0.024873,0.00024426,0.00042649,0.00013712,-6.3674e-05,4.0591e-05,0.049343,-0.014691,-0.014217,0.00071303,-0.0003311,0.00021107,0,0,0,0.024875,0.00046133,0.00020712,0.012334,0.0085144,0.024542,7.5963e-07,0.4,0.95,0.4
0.022146,-0.0067694,0.0014934,0.024975,0.00014867,0.00045671,0.0003026,-2.7457e-05,-4.3699e-05,0.049587,-0.014962,-0.014161,0.0015735,-0.00014278,-0.00022723,0,0,0,0.02498,0.00047234,0.00012841,0.012426,0.0085269,0.024682,7.719e-07,0.45,0.95,0.4
0.024633,-0.006578,0.0015193,0.025114,-6.4345e-05,0.00056956,0.00037731,1.8793e-05,-8.9968e-05,0.049925,-0.015539,-0.013891,0.001962,9.7724e-05,-0.00046784,0,0,0,0.025121,0.00057746,-7.8772e-05,0.0126,0.0085398,0.024879,7.889e-07,0.5,0.95,0.4
0.027138,-0.006388,0.0015356,0.025273,-0.00028031,0.00070344,0.00031825,6.5831e-05,-0.00010189,0.050293,-0.016147,-0.013589,0.0016549,0.00034232,-0.00052982,0,0,0,0.025279,0.000722,-0.00030416,0.012791,0.0085655,0.025087,8.0645e-07,0.55,0.95,0.4
0.029662,-0.0062825,0.0015509,0.025421,-0.00040143,0.00078332,0.00017524,0.00010168,-8.3725e-05,0.050612,-0.016525,-0.013445,0.00091125,0.00052872,-0.00043537,0,0,0,0.025423,0.00081592,-0.00043676,0.01293,0.0086008,0.025257,8.2136e-07,0.6,0.95,0.4
0.032199,-0.0063237,0.0015711,0.025478,-0.0004025,0.00072462,1.505e-05,0.00010365,-4.6499e-05,0.050762,-0.016526,-0.013596,7.826e-05,0.00053897,-0.00024179,0,0,0,0.025479,0.00075864,-0.00043806,0.012959,0.0085999,0.025341,8.3009e-07,0.65,0.95,0.4
0.034738,-0.0065163,0.0015983,0.025442,-0.00028844,0.00051571,-0.00014106,7.2244e-05,-1.0455e-05,0.050749,-0.016152,-0.014061,-0.00073353,0.00037567,-5.4364e-05,0,0,0,0.025444,0.00053838,-0.00031301,0.012879,0.0085566,0.025344,8.329e-07,0.7,0.95,0.4
0.037274,-0.0068083,0.0016304,0.02539,-8.438e-05,0.00021984,-0.00022999,2.9784e-05,1.5308e-05,0.050699,-0.015535,-0.014744,-0.001196,0.00015488,7.9603e-05,0,0,0,0.025393,0.00029932,-0.00016642,0.012779,0.0085085,0.02533,8.3365e-07,0.75,0.95,0.4
0.039808,-0.0071291,0.0016632,0.025346,0.00011503,-0.00011048,-0.00020658,-1.3037e-05,2.9039e-05,0.050689,-0.014911,-0.015497,-0.0010742,-6.779e-05,0.000151,0,0,0,0.025348,0.00020136,-0.00019898,0.012773,0.0084501,0.02535,8.3587e-07,0.8,0.95,0.4
0.042343,-0.0074153,0.0016925,0.025315,0.00019294,-0.0004393,-0.00011963,-4.7831e-05,2.9432e-05,0.050777,-0.014539,-0.016183,-0.00062208,-0.00024872,0.00015304,0,0,0,0.025316,0.00020276,-0.00045019,0.012883,0.0083561,0.025446,8.4442e-07,0.85,0.95,0.4
0.044886,-0.007628,0.001715,0.025317,0.00016199,-0.00070964,-3.957e-05,-6.789e-05,2.1557e-05,0.050962,-0.01444,-0.016707,-0.00020576,-0.00035303,0.0001121,0,0,0,0.025317,0.00017786,-0.00072585,0.013022,0.0082564,0.025603,8.5893e-07,0.9,0.95,0.4
0.047439,-0.0077548,0.001729,0.025339,0.00010614,-0.00087983,-4.1839e-05,-7.6534e-05,1.5602e-05,0.051141,-0.014463,-0.017026,-0.00021756,-0.00039798,8.1129e-05,0,0,0,0.025339,0.00012421,-0.00089824,0.013119,0.0081883,0.025741,8.7218e-07,0.95,0.95,0.4
0.048719,-0.0077966,0.0017338,0.025349,8.053e-05,-0.00093763,-7.5014e-05,-7.8801e-05,1.4666e-05,0.051213,-0.014486,-0.017133,-0.00039007,-0.00040977,7.6264e-05,0,0,0,0.02535,9.898e-05,-0.00095662,0.013153,0.008164,0.025795,8.7744e-07,1,0.95,0.4
0.001377,-0.0012778,0.00013602,0.033377,0.0090634,0.011971,-0.0072802,-3.5797e-06,0.0010346,0.054133,-0.009082,-0.001522,-0.037857,-1.8614e-05,0.00538,0,0,0,0.035757,0.011947,0.0067069,0.014525,0.018137,0.026847,9.3041e-07,0,1,0.4
0.0027067,-0.0023382,0.00026917,0.03083,0.0053919,0.0093704,-0.0053241,-9.5932e-06,0.0010083,0.052802,-0.013336,-0.0029922,-0.027685,-4.9885e-05,0.0052432,0,0,0,0.03229,0.0093349,0.0039672,0.014161,0.015197,0.026079,8.1995e-07,0.05,1,0.4
0.0052802,-0.0041131,0.0005274,0.027113,0.001223,0.0055985,-0.0024331,-2.3695e-05,0.00092869,0.050133,-0.017181,-0.0058046,-0.012652,-0.00012321,0.0048292,0,0,0,0.027459,0.0055546,0.00092111,0.013269,0.011311,0.024568,6.7328e-07,0.1,1,0.4
0.00772,-0.0053238,0.00076488,0.025306,0.00042835,0.0035641,-0.0011252,-3.8834e-05,0.0008011,0.048216,-0.016465,-0.0083122,-0.0058512,-0.00020194,0.0041657,0,0,0,0.02541,0.0035301,0.00035809,0.012526,0.0097661,0.023637,6.3692e-07,0.15,1,0.4
0.010102,-0.0061604,0.00097337,0.024438,5.2117e-05,0.0021343,-0.00057181,-5.1381e-05,0.00064046,0.047565,-0.015839,-0.010426,-0.0029734,-0.00026718,0.0033304,0,0,0,0.024479,0.0021142,3.1468e-05,0.012224,0.0088749,0.023484,6.479e-07,0.2,1,0.4
0.012476,-0.0067237,0.0011472,0.024132,-4.3846e-05,0.0011856,-0.000292,-6.0321e-05,0.0004658,0.04758,-0.015278,-0.012082,-0.0015184,-0.00031367,0.0024222,0,0,0,0.024149,0.0011801,-5.5411e-05,0.012102,0.0084247,0.023616,6.7096e-07,0.25,1,0.4
0.01486,-0.0070725,0.0012841,0.024065,-4.2638e-05,0.00057918,-0.00011831,-6.422e-05,0.00029561,0.047809,-0.014872,-0.013255,-0.00061524,-0.00033395,0.0015372,0,0,0,0.024072,0.00059006,-5.9841e-05,0.012066,0.0082006,0.023815,6.9284e-07,0.3,1,0.4
0.017257,-0.0072404,0.0013853,0.024151,6.9206e-06,0.00026981,2.9289e-05,-6.0598e-05,0.00014415,0.048135,-0.014638,-0.013955,0.0001523,-0.00031511,0.00074958,0,0,0,0.024153,0.00029516,-2.0458e-05,0.012087,0.0081425,0.024018,7.1193e-07,0.35,1,0.4
0.019673,-0.007253,0.0014546,0.024375,5.2895e-05,0.00021508,0.00017629,-4.6669e-05,2.1775e-05,0.048588,-0.014648,-0.014226,0.00091669,-0.00024268,0.00011323,0,0,0,0.024377,0.00023867,2.7145e-05,0.012175,0.0082142,0.024245,7.323e-07,0.4,1,0.4
0.022116,-0.0071438,0.0014981,0.024728,4.5593e-05,0.00035252,0.00030103,-2.1442e-05,-6.4291e-05,0.049217,-0.014957,-0.014159,0.0015654,-0.0001115,-0.00033431,0,0,0,0.024732,0.00036168,3.1858e-05,0.01235,0.0083753,0.024538,7.5858e-07,0.45,1,0.4
0.024595,-0.0069654,0.0015237,0.025174,-1.6248e-05,0.00060066,0.00035756,1.21e-05,-0.00011065,0.049998,-0.015498,-0.013894,0.0018593,6.2921e-05,-0.00057536,0,0,0,0.025181,0.00060436,-2.6182e-05,0.012603,0.0085863,0.024899,7.9109e-07,0.5,1,0.4
0.027116,-0.0067906,0.00154,0.025616,-0.00011499,0.00084733,0.00031422,4.6215e-05,-0.0001175,0.050792,-0.016108,-0.013606,0.0016339,0.00024032,-0.00061101,0,0,0,0.025621,0.00085656,-0.00012937,0.012875,0.0087827,0.025273,8.2493e-07,0.55,1,0.4
0.029674,-0.0066969,0.0015551,0.025914,-0.00021038,0.00097466,0.00016824,6.928e-05,-9.1341e-05,0.05137,-0.016554,-0.013473,0.00087487,0.00036026,-0.00047497,0,0,0,0.025917,0.00098948,-0.00022767,0.013072,0.0088928,0.025558,8.5118e-07,0.6,1,0.4
0.032253,-0.0067381,0.0015748,0.025994,-0.00020519,0.00092543,-2.7684e-05,7.0985e-05,-4.7001e-05,0.051555,-0.016562,-0.013622,-0.00014396,0.00036912,-0.00024441,0,0,0,0.025995,0.00094126,-0.00022207,0.013108,0.0089046,0.025655,8.6148e-07,0.65,1,0.4
0.03483,-0.0069189,0.0016012,0.025854,-0.00010221,0.00068879,-0.00018087,5.1447e-05,-2.3974e-06,0.051356,-0.01613,-0.014073,-0.0009405,0.00026752,-1.2467e-05,0,0,0,0.025856,0.00070068,-0.00011587,0.012986,0.0088135,0.025575,8.5593e-07,0.7,1,0.4
0.037388,-0.0071956,0.0016324,0.025568,1.0177e-06,0.00030123,-0.00024183,2.0801e-05,2.9208e-05,0.050954,-0.015519,-0.014739,-0.0012575,0.00010816,0.00015188,0,0,0,0.02557,0.00036548,-6.5951e-05,0.012818,0.0086233,0.025424,8.4309e-07,0.75,1,0.4
0.039925,-0.0075021,0.0016648,0.025268,6.732e-05,-0.0001411,-0.00021671,-1.0008e-05,4.381e-05,0.050581,-0.014942,-0.015484,-0.0011269,-5.2042e-05,0.00022781,0,0,0,0.025271,0.00014633,-0.00022249,0.012747,0.0083982,0.025311,8.3216e-07,0.8,1,0.4
0.042447,-0.0077789,0.0016941,0.025044,7.9127e-05,-0.00055077,-0.00014057,-3.3965e-05,4.3585e-05,0.050371,-0.014538,-0.016175,-0.00073094,-0.00017662,0.00022664,0,0,0,0.025045,8.325e-05,-0.00055614,0.012801,0.0081908,0.025289,8.2866e-07,0.85,1,0.4
0.044962,-0.0079884,0.001717,0.024915,3.6473e-05,-0.00087256,-6.4538e-05,-4.8718e-05,3.3003e-05,0.050331,-0.014352,-0.016716,-0.0003356,-0.00025333,0.00017161,0,0,0,0.024915,4.3856e-05,-0.00088034,0.012898,0.0080261,0.025346,8.3268e-07,0.9,1,0.4
0.04748,-0.0081152,0.0017315,0.024863,-1.3887e-05,-0.0010715,-5.9489e-05,-5.5687e-05,2.2102e-05,0.050378,-0.014303,-0.017053,-0.00030934,-0.00028957,0.00011493,0,0,0,0.024864,-5.5064e-06,-0.0010802,0.012972,0.007926,0.025424,8.3918e-07,0.95,1,0.4
0.048739,-0.0081572,0.0017364,0.024853,-3.4005e-05,-0.0011376,-8.5936e-05,-5.7568e-05,1.8379e-05,0.050408,-0.014297,-0.017166,-0.00044687,-0.00029936,9.557e-05,0,0,0,0.024853,-2.564e-05,-0.0011465,0.013,0.0078937,0.025458,8.4218e-07,1,1,0.4
0.0013278,0.0012243,6.4035e-05,0.03221,0.0087449,0.011628,0.0069603,-5.9923e-07,0.00048726,0.052195,-0.0088126,-0.0013169,0.036194,-3.116e-06,0.0025337,0,0,0,0.034441,0.011621,0.0065203,0.013961,0.017527,0.025786,8.2065e-07,0,0,0.45
0.0026098,0.0022382,0.00012736,0.02978,0.005213,0.0091938,0.0050678,1.9275e-09,0.0004765,0.050915,-0.012958,-0.0026079,0.026353,1.0022e-08,0.0024778,0,0,0,0.031131,0.009183,0.0038728,0.013629,0.014729,0.025053,7.1985e-07,0.05,0,0.45
0.0050915,0.0039311,0.0002515,0.026263,0.0012108,0.0056848,0.0022582,2.5014e-06,0.00044396,0.048388,-0.016747,-0.0051144,0.011743,1.3007e-05,0.0023086,0,0,0,0.026551,0.0056712,0.00093585,0.012808,0.011053,0.023621,5.8842e-07,0.1,0,0.45
0.0074485,0.0050779,0.00036847,0.024629,0.00045813,0.0038143,0.0009611,6.2274e-06,0.0003909,0.046695,-0.01615,-0.0074239,0.0049977,3.2383e-05,0.0020327,0,0,0,0.024697,0.0038034,0.00040135,0.012148,0.0096339,0.022795,5.6264e-07,0.15,0,0.45
0.009761,0.0058658,0.00047446,0.023961,9.5536e-05,0.0024887,0.00038869,9.4684e-06,0.00032297,0.046371,-0.015679,-0.0094562,0.0020212,4.9236e-05,0.0016794,0,0,0,0.023979,0.0024816,8.4212e-05,0.011947,0.0088483,0.022798,5.863e-07,0.2,0,0.45
0.012086,0.0064001,0.00056685,0.023886,-1.5495e-05,0.0015812,9.2278e-05,1.1823e-05,0.00024892,0.046833,-0.015312,-0.01116,0.00047985,6.1481e-05,0.0012944,0,0,0,0.023892,0.0015774,-1.7524e-05,0.011955,0.008484,0.023158,6.2832e-07,0.25,0,0.45
0.014444,0.0067511,0.00064454,0.024064,-5.5203e-05,0.00094211,-7.1198e-05,1.333e-05,0.00017727,0.047596,-0.015114,-0.012521,-0.00037023,6.9318e-05,0.00092178,0,0,0,0.024067,0.00094073,-5.6374e-05,0.012061,0.008317,0.023642,6.7537e-07,0.3,0,0.45
0.016845,0.0069678,0.00070784,0.024354,-6.5849e-05,0.00050839,-0.00016401,1.4234e-05,0.00011416,0.048443,-0.015049,-0.013556,-0.00085283,7.4015e-05,0.00059364,0,0,0,0.024356,0.00050856,-6.8041e-05,0.012212,0.0082655,0.024142,7.2191e-07,0.35,0,0.45
0.019289,0.0070881,0.00075804,0.024682,-6.8417e-05,0.00023115,-0.00021204,1.4802e-05,6.28e-05,0.049267,-0.015085,-0.014306,-0.0011026,7.6969e-05,0.00032656,0,0,0,0.024684,0.00023248,-7.1929e-05,0.012378,0.0082817,0.024606,7.6525e-07,0.4,0,0.45
0.021772,0.0071426,0.00079696,0.025007,-7.0839e-05,6.8692e-05,-0.00022655,1.5191e-05,2.3776e-05,0.050015,-0.015187,-0.014824,-0.0011781,7.8994e-05,0.00012364,0,0,0,0.025009,7.2536e-05,-7.6952e-05,0.012543,0.0083348,0.025012,8.0387e-07,0.45,0,0.45
0.02429,0.0071575,0.00082655,0.025298,-7.4906e-05,-1.6829e-05,-0.00021312,1.5383e-05,-4.0079e-06,0.050652,-0.015319,-0.015168,-0.0011082,7.9991e-05,-2.0841e-05,0,0,0,0.0253,-7.0251e-06,-8.6724e-05,0.012694,0.0084022,0.025347,8.3661e-07,0.5,0,0.45
0.026837,0.0071543,0.00084864,0.025536,-7.8493e-05,-5.8545e-05,-0.0001768,1.5205e-05,-2.2425e-05,0.051154,-0.015443,-0.015391,-0.00091936,7.9065e-05,-0.00011661,0,0,0,0.025537,-4.0488e-05,-9.801e-05,0.012818,0.0084662,0.025606,8.6242e-07,0.55,0,0.45
0.029405,0.0071499,0.00086486,0.025703,-7.7921e-05,-8.3198e-05,-0.00012472,1.4433e-05,-3.3445e-05,0.051503,-0.015528,-0.015541,-0.00064853,7.5052e-05,-0.00017391,0,0,0,0.025704,-5.4854e-05,-0.00010709,0.012905,0.008514,0.025785,8.8052e-07,0.6,0,0.45
0.031987,0.0071556,0.00087653,0.025794,-7.0385e-05,-0.00010961,-6.6444e-05,1.2924e-05,-3.8763e-05,0.051696,-0.015551,-0.015653,-0.00034551,6.7204e-05,-0.00020157,0,0,0,0.025794,-5.9428e-05,-0.00012092,0.012958,0.008538,0.025884,8.9072e-07,0.65,0,0.45
0.034575,0.0071763,0.00088476,0.025812,-5.5683e-05,-0.000148,-1.2348e-05,1.0711e-05,-3.971e-05,0.051746,-0.01551,-0.01575,-6.4211e-05,5.5695e-05,-0.00020649,0,0,0,0.025812,-5.2254e-05,-0.00015157,0.012982,0.0085361,0.025914,8.9375e-07,0.7,0,0.45
0.037162,0.0072114,0.00089043,0.025772,-3.6378e-05,-0.00020042,2.8927e-05,8.0213e-06,-3.731e-05,0.051685,-0.015415,-0.015842,0.00015042,4.1711e-05,-0.00019401,0,0,0,0.025772,-3.5614e-05,-0.00020131,0.012986,0.0085116,0.025891,8.9122e-07,0.75,0,0.45
0.039744,0.0072556,0.00089425,0.025694,-1.6455e-05,-0.00026242,5.2475e-05,5.2094e-06,-3.2388e-05,0.051555,-0.015292,-0.015931,0.00027287,2.7089e-05,-0.00016842,0,0,0,0.025694,-1.6362e-05,-0.00026268,0.012978,0.0084716,0.025834,8.8528e-07,0.8,0,0.45
0.042317,0.0073016,0.00089674,0.025602,5.2869e-07,-0.00032546,5.7692e-05,2.6467e-06,-2.5648e-05,0.0514,-0.015165,-0.016013,0.0003,1.3763e-05,-0.00013337,0,0,0,0.025603,5.1264e-07,-0.00032562,0.012964,0.0084258,0.025767,8.7815e-07,0.85,0,0.45
0.044884,0.0073413,0.00089828,0.02552,1.2631e-05,-0.00037964,4.7419e-05,6.3351e-07,-1.7691e-05,0.05126,-0.015059,-0.016079,0.00024658,3.2942e-06,-9.1991e-05,0,0,0,0.02552,1.2726e-05,-0.00037985,0.01295,0.0083843,0.025706,8.7173e-07,0.9,0,0.45
0.047443,0.0073681,0.00089912,0.025463,1.9546e-05,-0.00041614,3.585e-05,-6.3735e-07,-8.766e-06,0.051165,-0.014989,-0.016122,0.00018642,-3.3142e-06,-4.5583e-05,0,0,0,0.025463,1.977e-05,-0.00041643,0.01294,0.0083556,0.025665,8.6738e-07,0.95,0,0.45
0.048722,0.0073776,0.00089938,0.025443,2.1753e-05,-0.00042901,3.2765e-05,-1.0701e-06,-4.0559e-06,0.051131,-0.014965,-0.016137,0.00017038,-5.5644e-06,-2.1091e-05,0,0,0,0.025443,2.2023e-05,-0.00042933,0.012936,0.0083454,0.02565,8.6585e-07,1,0,0.45
0.00117,0.0010388,6.3641e-05,0.029302,0.0083831,0.010652,0.0063161,-2.3953e-07,0.00048362,0.047183,-0.007206,-0.0013071,0.032844,-1.2455e-06,0.0025148,0,0,0,0.031291,0.010645,0.0064011,0.012445,0.016112,0.023092,6.089e-07,0,0.05,0.45
0.0023591,0.0019515,0.00012661,0.027989,0.0054594,0.0087396,0.0049292,6.5061e-07,0.00047236,0.047458,-0.011118,-0.0025896,0.025632,3.3832e-06,0.0024563,0,0,0,0.029285,0.0087293,0.0041737,0.012556,0.014063,0.023194,5.848e-07,0.05,0.05,0.45
0.0047458,0.0035352,0.00025006,0.026191,0.0019271,0.0058954,0.0026901,3.7211e-06,0.00043902,0.047689,-0.015398,-0.0050804,0.013988,1.935e-05,0.0022829,0,0,0,0.026586,0.0058824,0.0015451,0.012521,0.011338,0.023192,5.6783e-07,0.1,0.05,0.45
0.0071281,0.0046768,0.00036636,0.02532,0.00097707,0.0042009,0.0013671,8.0757e-06,0.00038564,0.047534,-0.015759,-0.0073767,0.007109,4.1994e-05,0.0020053,0,0,0,0.025441,0.0041906,0.0008668,0.012287,0.010166,0.023101,5.8899e-07,0.15,0.05,0.45
0.0094992,0.0054719,0.00047171,0.024785,0.0004873,0.0028827,0.00063159,1.1982e-05,0.00031792,0.047549,-0.015626,-0.0093983,0.0032843,6.2308e-05,0.0016532,0,0,0,0.02482,0.0028759,0.00045932,0.01218,0.0093851,0.023253,6.2282e-07,0.2,0.05,0.45
0.011883,0.0060138,0.00056353,0.024624,0.00026274,0.0019184,0.0002126,1.4918e-05,0.00024456,0.04794,-0.0154,-0.011096,0.0011055,7.7572e-05,0.0012717,0,0,0,0.024634,0.001915,0.00025677,0.012189,0.0089352,0.023596,6.6436e-07,0.25,0.05,0.45
0.014293,0.0063696,0.00064078,0.024673,0.00014434,0.0012183,-3.4538e-05,1.6907e-05,0.00017382,0.048528,-0.015246,-0.012454,-0.0001796,8.7914e-05,0.00090385,0,0,0,0.024676,0.0012174,0.00014231,0.012267,0.0086785,0.024016,7.0751e-07,0.3,0.05,0.45
0.016736,0.0065884,0.00070377,0.024831,7.4011e-05,0.00072687,-0.00018191,1.8246e-05,0.00011171,0.049182,-0.015187,-0.01349,-0.00094595,9.4878e-05,0.00058087,0,0,0,0.024834,0.0007275,7.096e-05,0.012381,0.0085441,0.024442,7.4889e-07,0.35,0.05,0.45
0.019211,0.0067082,0.00075379,0.025039,2.2269e-05,0.00039695,-0.00026347,1.9267e-05,6.1316e-05,0.049826,-0.015217,-0.014243,-0.0013701,0.00010019,0.00031884,0,0,0,0.025042,0.00039863,1.7314e-05,0.012512,0.0084859,0.024837,7.8679e-07,0.4,0.05,0.45
0.021718,0.0067606,0.00079266,0.025256,-2.3537e-05,0.0001872,-0.00029485,2.0144e-05,2.3197e-05,0.050415,-0.015313,-0.014765,-0.0015332,0.00010475,0.00012063,0,0,0,0.02526,0.00019052,-3.0701e-05,0.012646,0.0084734,0.025181,8.2024e-07,0.45,0.05,0.45
0.024253,0.0067724,0.0008223,0.025459,-6.5793e-05,6.0733e-05,-0.00028409,2.0795e-05,-3.774e-06,0.05092,-0.015443,-0.015114,-0.0014773,0.00010813,-1.9625e-05,0,0,0,0.025462,6.7609e-05,-7.6278e-05,0.012769,0.0084845,0.025467,8.4842e-07,0.5,0.05,0.45
0.02681,0.0067664,0.00084454,0.025625,-0.00010002,-1.4065e-05,-0.00023852,2.0907e-05,-2.1493e-05,0.051319,-0.015567,-0.015343,-0.0012403,0.00010872,-0.00011176,0,0,0,0.025628,-2.0747e-06,-0.00011467,0.012871,0.0085037,0.025686,8.7047e-07,0.55,0.05,0.45
0.029385,0.0067602,0.00086095,0.025742,-0.00011906,-6.2396e-05,-0.00016863,2.0096e-05,-3.1941e-05,0.051593,-0.015646,-0.015499,-0.00087688,0.0001045,-0.00016609,0,0,0,0.025744,-4.3599e-05,-0.00013933,0.012942,0.0085202,0.025835,8.8565e-07,0.6,0.05,0.45
0.03197,0.0067655,0.00087285,0.025803,-0.00011777,-0.00010231,-8.8593e-05,1.8109e-05,-3.6822e-05,0.051739,-0.015656,-0.015616,-0.00046068,9.4168e-05,-0.00019147,0,0,0,0.025804,-6.7701e-05,-0.00015296,0.012978,0.0085278,0.025914,8.938e-07,0.65,0.05,0.45
0.034559,0.0067876,0.00088134,0.025811,-9.6493e-05,-0.00014461,-1.3785e-05,1.4993e-05,-3.7472e-05,0.051766,-0.015593,-0.015718,-7.1681e-05,7.7964e-05,-0.00019485,0,0,0,0.025811,-7.2535e-05,-0.00016875,0.01299,0.0085233,0.025932,8.9559e-07,0.7,0.05,0.45
0.037146,0.0068253,0.00088728,0.025775,-6.1353e-05,-0.00019331,4.3081e-05,1.1108e-05,-3.4934e-05,0.051703,-0.015472,-0.015815,0.00022402,5.776e-05,-0.00018166,0,0,0,0.025775,-5.4943e-05,-0.00019992,0.012988,0.0085068,0.025903,8.9255e-07,0.75,0.05,0.45
0.039729,0.0068729,0.00089135,0.025712,-2.1517e-05,-0.00024686,7.4978e-05,7.0104e-06,-3.0069e-05,0.051586,-0.015322,-0.015908,0.00038989,3.6454e-05,-0.00015636,0,0,0,0.025713,-2.1072e-05,-0.00024761,0.01298,0.0084813,0.025848,8.8671e-07,0.8,0.05,0.45
0.042305,0.0069222,0.00089408,0.025641,1.4566e-05,-0.00029977,8.1283e-05,3.2752e-06,-2.361e-05,0.051453,-0.015175,-0.015993,0.00042267,1.7031e-05,-0.00012277,0,0,0,0.025641,1.4556e-05,-0.00030009,0.012971,0.0084519,0.025785,8.8009e-07,0.85,0.05,0.45
0.044874,0.0069647,0.00089581,0.025577,4.1636e-05,-0.00034482,6.6277e-05,3.5117e-07,-1.6165e-05,0.051336,-0.015056,-0.016061,0.00034464,1.826e-06,-8.4059e-05,0,0,0,0.025577,4.1866e-05,-0.00034527,0.012961,0.0084246,0.025731,8.7432e-07,0.9,0.05,0.45
0.047439,0.0069933,0.00089677,0.025534,5.7806e-05,-0.0003751,4.6788e-05,-1.4871e-06,-7.904e-06,0.051258,-0.014979,-0.016105,0.0002433,-7.7328e-06,-4.1101e-05,0,0,0,0.025534,5.8326e-05,-0.00037572,0.012955,0.0084054,0.025695,8.705e-07,0.95,0.05,0.45
0.04872,0.0070034,0.00089708,0.025518,6.3112e-05,-0.00038577,3.9361e-05,-2.1113e-06,-3.5444e-06,0.05123,-0.014953,-0.01612,0.00020468,-1.0979e-05,-1.8431e-05,0,0,0,0.025518,6.3743e-05,-0.00038647,0.012952,0.0083986,0.025683,8.6917e-07,1,0.05,0.45
0.00097986,0.00075887,6.3002e-05,0.025755,0.0084149,0.0096021,0.0052678,6.5938e-07,0.00047804,0.0407,-0.0043846,-0.0012978,0.027393,3.4287e-06,0.0024858,0,0,0,0.027321,0.0095959,0.0068547,0.010233,0.014591,0.01926,3.4599e-07,0,0.1,0.45
0.002035,0.0014876,0.00012542,0.025666,0.0063621,0.0083221,0.0046246,2.1978e-06,0.00046623,0.042521,-0.0076685,-0.0025726,0.024048,1.1429e-05,0.0024244,0,0,0,0.026845,0.0083126,0.0051927,0.010826,0.01345,0.020289,4.0124e-07,0.05,0.1,0.45
0.0042521,0.0028327,0.00024784,0.025811,0.0033898,0.0062356,0.0032925,6.3831e-06,0.0004319,0.045847,-0.012449,-0.0050493,0.017121,3.3192e-05,0.0022459,0,0,0,0.026372,0.0062236,0.0028416,0.011765,0.011812,0.022045,5.1102e-07,0.1,0.1,0.45
0.0066197,0.0039084,0.0003632,0.026007,0.0019832,0.0047304,0.0020458,1.1744e-05,0.00037781,0.047986,-0.014476,-0.0073332,0.010638,6.107e-05,0.0019646,0,0,0,0.026229,0.0047207,0.0017709,0.012229,0.010907,0.023132,6.0143e-07,0.15,0.1,0.45
0.0090507,0.0046932,0.00046764,0.025877,0.0012207,0.0034575,0.0011114,1.6697e-05,0.00030993,0.048947,-0.015159,-0.0093436,0.0057793,8.6826e-05,0.0016116,0,0,0,0.025951,0.0034514,0.0011527,0.012399,0.010185,0.023738,6.6497e-07,0.2,0.1,0.45
0.011514,0.0052394,0.00055862,0.025728,0.00078233,0.0024373,0.00048982,2.0576e-05,0.00023707,0.049524,-0.015334,-0.011032,0.0025471,0.000107,0.0012328,0,0,0,0.025748,0.0024347,0.00076438,0.012492,0.0096492,0.024195,7.1572e-07,0.25,0.1,0.45
0.014003,0.0056007,0.00063517,0.025648,0.00051407,0.0016575,8.5319e-05,2.3419e-05,0.00016736,0.049993,-0.015355,-0.012382,0.00044366,0.00012178,0.00087028,0,0,0,0.025653,0.0016576,0.00050914,0.012572,0.0092732,0.024591,7.5835e-07,0.3,0.1,0.45
0.016514,0.0058221,0.00069766,0.025632,0.00033014,0.0010829,-0.00017447,2.5668e-05,0.00010665,0.050417,-0.015369,-0.013412,-0.00090726,0.00013347,0.0005546,0,0,0,0.025635,0.0010847,0.00032549,0.012655,0.0090151,0.02494,7.945e-07,0.35,0.1,0.45
0.019045,0.0059408,0.0007474,0.02566,0.00018299,0.00067395,-0.00033116,2.7817e-05,5.7871e-05,0.050806,-0.015435,-0.014158,-0.001722,0.00014465,0.00030093,0,0,0,0.025665,0.00067658,0.0001755,0.012745,0.008839,0.025243,8.2534e-07,0.4,0.1,0.45
0.021594,0.0059886,0.0007862,0.025712,4.9885e-05,0.00039187,-0.00040547,3.0082e-05,2.1391e-05,0.051159,-0.015563,-0.014673,-0.0021085,0.00015642,0.00011123,0,0,0,0.025719,0.00039508,4.002e-05,0.012839,0.0087179,0.025503,8.5162e-07,0.45,0.1,0.45
0.024161,0.0059941,0.00081597,0.025771,-7.2501e-05,0.00020191,-0.00040822,3.2191e-05,-4.1052e-06,0.051464,-0.015729,-0.015015,-0.0021227,0.0001674,-2.1347e-05,0,0,0,0.025778,0.00020611,-8.3436e-05,0.012931,0.0086335,0.025718,8.7341e-07,0.5,0.1,0.45
0.026741,0.0059819,0.00083845,0.025823,-0.00017288,7.4984e-05,-0.00035001,3.3419e-05,-2.0663e-05,0.051704,-0.015884,-0.01524,-0.00182,0.00017378,-0.00010745,0,0,0,0.025828,8.0871e-05,-0.00018389,0.013006,0.0085749,0.025881,8.9007e-07,0.55,0.1,0.45
0.029331,0.005972,0.00085516,0.025856,-0.00023377,-1.1586e-05,-0.00024778,3.2881e-05,-3.0313e-05,0.051859,-0.015974,-0.015396,-0.0012885,0.00017098,-0.00015763,0,0,0,0.025859,-3.2805e-06,-0.00024489,0.013052,0.0085368,0.025984,9.0075e-07,0.6,0.1,0.45
0.031927,0.0059775,0.00086734,0.025864,-0.00024274,-7.4504e-05,-0.00012585,2.9984e-05,-3.4692e-05,0.051918,-0.015959,-0.015522,-0.0006544,0.00015591,-0.0001804,0,0,0,0.025865,-6.0584e-05,-0.00025768,0.013061,0.0085154,0.026025,9.0506e-07,0.65,0.1,0.45
0.034523,0.0060038,0.00087606,0.025846,-0.00020112,-0.00012545,-1.1021e-05,2.4788e-05,-3.5013e-05,0.051888,-0.015835,-0.015638,-5.7307e-05,0.0001289,-0.00018207,0,0,0,0.025846,-9.313e-05,-0.00023374,0.01304,0.0085065,0.02601,9.0368e-07,0.7,0.1,0.45
0.037116,0.0060488,0.00088218,0.025809,-0.00012464,-0.00017164,7.4912e-05,1.804e-05,-3.2251e-05,0.051796,-0.015632,-0.015754,0.00038954,9.3806e-05,-0.00016771,0,0,0,0.02581,-8.5543e-05,-0.00021112,0.01301,0.0085044,0.025958,8.9831e-07,0.75,0.1,0.45
0.039702,0.0061052,0.00088642,0.025763,-3.6071e-05,-0.0002159,0.00012084,1.0866e-05,-2.7308e-05,0.051677,-0.0154,-0.015868,0.00062836,5.6505e-05,-0.000142,0,0,0,0.025763,-3.0146e-05,-0.00022248,0.012993,0.0085036,0.02589,8.9115e-07,0.8,0.1,0.45
0.042283,0.0061629,0.0008893,0.025717,4.4252e-05,-0.00025713,0.00012703,4.3749e-06,-2.1035e-05,0.051561,-0.015187,-0.015971,0.00066055,2.2749e-05,-0.00010938,0,0,0,0.025717,4.4342e-05,-0.00025791,0.012988,0.0085012,0.025825,8.8422e-07,0.85,0.1,0.45
0.044859,0.0062121,0.00089118,0.025679,0.00010418,-0.00029157,0.00010159,-6.3817e-07,-1.4138e-05,0.05147,-0.015024,-0.016053,0.00052828,-3.3185e-06,-7.3519e-05,0,0,0,0.025679,0.00010485,-0.00029271,0.012986,0.0084972,0.025776,8.7882e-07,0.9,0.1,0.45
0.04743,0.0062448,0.00089224,0.025655,0.00013974,-0.00031465,6.7074e-05,-3.7479e-06,-6.7408e-06,0.051415,-0.014925,-0.016106,0.00034878,-1.9489e-05,-3.5052e-05,0,0,0,0.025655,0.0001411,-0.00031621,0.012986,0.0084933,0.025746,8.7553e-07,0.95,0.1,0.45
0.048715,0.0062563,0.00089259,0.025647,0.00015136,-0.00032278,5.1832e-05,-4.7952e-06,-2.8728e-06,0.051396,-0.014892,-0.016124,0.00026953,-2.4935e-05,-1.4939e-05,0,0,0,0.025647,0.00015298,-0.00032452,0.012986,0.0084917,0.025736,8.7445e-07,1,0.1,0.45
0.00093402,0.00060038,6.2664e-05,0.024833,0.0089294,0.009475,0.0044336,1.4508e-06,0.00047537,0.038623,-0.002726,-0.0013074,0.023055,7.5443e-06,0.0024719,0,0,0,0.02603,0.0094694,0.0077375,0.0091465,0.014412,0.017497,2.6916e-07,0,0.15,0.45
0.0019312,0.0011847,0.00012482,0.024902,0.0073442,0.0083786,0.0041235,3.4473e-06,0.00046347,0.040371,-0.0052802,-0.0025908,0.021442,1.7926e-05,0.00241,0,0,0,0.025888,0.0083697,0.0063671,0.0097606,0.013542,0.018608,3.2492e-07,0.05,0.15,0.45
0.0040371,0.0022903,0.00024681,0.025353,0.0046985,0.0064738,0.003332,8.1601e-06,0.00042871,0.044002,-0.009699,-0.0050831,0.017327,4.2433e-05,0.0022293,0,0,0,0.025937,0.0064622,0.0041261,0.010905,0.012175,0.020749,4.4585e-07,0.1,0.15,0.45
0.0063314,0.0032292,0.00036185,0.025943,0.0029979,0.0049931,0.0023589,1.3603e-05,0.00037371,0.047091,-0.012566,-0.0073781,0.012266,7.0737e-05,0.0019433,0,0,0,0.026223,0.0049837,0.0027274,0.011748,0.011311,0.022458,5.6495e-07,0.15,0.15,0.45
0.0087462,0.003956,0.00046593,0.026211,0.0019668,0.0037564,0.001468,1.8589e-05,0.0003047,0.048988,-0.014047,-0.0093939,0.0076336,9.6663e-05,0.0015845,0,0,0,0.026323,0.0037508,0.0018604,0.012231,0.010645,0.023579,6.5949e-07,0.2,0.15,0.45
0.01123,0.0044804,0.00055651,0.026263,0.0013279,0.0027372,0.00077499,2.2565e-05,0.00023099,0.050086,-0.014744,-0.01108,0.0040299,0.00011734,0.0012012,0,0,0,0.026299,0.0027356,0.001293,0.012503,0.010109,0.02432,7.3011e-07,0.25,0.15,0.45
0.013755,0.0048341,0.00063266,0.026227,0.00091099,0.0019312,0.00027238,2.5734e-05,0.00016107,0.050748,-0.015073,-0.01242,0.0014164,0.00013382,0.00083754,0,0,0,0.026236,0.0019327,0.00090036,0.012668,0.0096896,0.024837,7.8233e-07,0.3,0.15,0.45
0.016305,0.0050515,0.00069484,0.026168,0.00061036,0.0013189,-7.992e-05,2.8816e-05,0.0001009,0.051179,-0.015272,-0.013429,-0.00041558,0.00014984,0.00052466,0,0,0,0.026171,0.0013223,0.00060401,0.012784,0.0093659,0.025217,8.2138e-07,0.35,0.15,0.45
0.018873,0.0051648,0.00074445,0.026115,0.00035936,0.00086936,-0.00031306,3.2594e-05,5.3325e-05,0.051492,-0.015472,-0.014146,-0.0016279,0.00016949,0.00027729,0,0,0,0.026119,0.00087326,0.00035069,0.012884,0.0091144,0.025512,8.5173e-07,0.4,0.15,0.45
0.021454,0.0052044,0.00078335,0.026074,0.00012307,0.00054757,-0.00044257,3.7361e-05,1.839e-05,0.051746,-0.015727,-0.014623,-0.0023014,0.00019428,9.5629e-05,0,0,0,0.026082,0.00055155,0.00011133,0.012985,0.008915,0.025754,8.7657e-07,0.45,0.15,0.45
0.024047,0.0051996,0.00081339,0.026047,-0.00010235,0.00032062,-0.00047469,4.2521e-05,-5.6999e-06,0.051963,-0.016025,-0.014925,-0.0024684,0.00022111,-2.9639e-05,0,0,0,0.026056,0.00032542,-0.00011586,0.013086,0.008755,0.025954,8.9711e-07,0.5,0.15,0.45
0.02665,0.005178,0.00083619,0.026025,-0.00029322,0.00016127,-0.00041802,4.6552e-05,-2.141e-05,0.05213,-0.016298,-0.015117,-0.0021737,0.00024207,-0.00011133,0,0,0,0.026032,0.00016772,-0.0003066,0.013169,0.0086311,0.026105,9.127e-07,0.55,0.15,0.45
0.02926,0.0051628,0.0008531,0.026001,-0.00041224,4.9137e-05,-0.00029363,4.7511e-05,-3.0887e-05,0.052219,-0.016454,-0.015255,-0.0015269,0.00024706,-0.00016061,0,0,0,0.026005,5.7195e-05,-0.00042409,0.013214,0.0085459,0.026192,9.2172e-07,0.6,0.15,0.45
0.031872,0.0051696,0.00086524,0.025967,-0.0004317,-3.0712e-05,-0.00013713,4.4049e-05,-3.5495e-05,0.052212,-0.016425,-0.015383,-0.00071306,0.00022905,-0.00018457,0,0,0,0.025968,-2.1605e-05,-0.0004421,0.013205,0.0085016,0.026203,9.2314e-07,0.65,0.15,0.45
0.034482,0.0052041,0.00087365,0.025924,-0.00035387,-9.0442e-05,1.0158e-05,3.6214e-05,-3.5995e-05,0.052114,-0.016208,-0.015523,5.2824e-05,0.00018831,-0.00018717,0,0,0,0.025924,-7.7596e-05,-0.00036715,0.013146,0.0084931,0.026148,9.1774e-07,0.7,0.15,0.45
0.037084,0.0052621,0.0008793,0.025875,-0.00021208,-0.00013994,0.00011577,2.5498e-05,-3.3049e-05,0.051962,-0.015865,-0.015678,0.00060201,0.00013259,-0.00017186,0,0,0,0.025876,-9.1192e-05,-0.00026156,0.013069,0.0085078,0.026053,9.0809e-07,0.75,0.15,0.45
0.039678,0.0053329,0.00088302,0.02583,-5.2431e-05,-0.00018505,0.00016581,1.411e-05,-2.7592e-05,0.051803,-0.015492,-0.015837,0.00086223,7.3371e-05,-0.00014348,0,0,0,0.025831,-2.787e-05,-0.00021076,0.013021,0.0085309,0.025951,8.9749e-07,0.8,0.15,0.45
0.042264,0.0054035,0.00088546,0.025795,8.6947e-05,-0.00022663,0.00016454,4.0173e-06,-2.0768e-05,0.051675,-0.015167,-0.015983,0.0008556,2.089e-05,-0.00010799,0,0,0,0.025796,8.7376e-05,-0.00022817,0.013012,0.0085519,0.025869,8.8859e-07,0.85,0.15,0.45
0.044845,0.0054623,0.00088702,0.025773,0.00018652,-0.00026158,0.00012651,-3.5547e-06,-1.3595e-05,0.051591,-0.014934,-0.016099,0.00065784,-1.8484e-05,-7.0694e-05,0,0,0,0.025774,0.00018805,-0.0002638,0.013019,0.008566,0.025815,8.8259e-07,0.9,0.15,0.45
0.047423,0.0055009,0.00088792,0.025762,0.00024323,-0.00028517,8.0796e-05,-8.1193e-06,-6.3727e-06,0.051548,-0.014799,-0.016173,0.00042014,-4.2221e-05,-3.3138e-05,0,0,0,0.025762,0.00024596,-0.0002882,0.013025,0.0085732,0.025787,8.7942e-07,0.95,0.15,0.45
0.048712,0.0055142,0.00088821,0.025758,0.00026127,-0.00029353,6.1146e-05,-9.6296e-06,-2.7166e-06,0.051536,-0.014756,-0.016199,0.00031796,-5.0074e-05,-1.4126e-05,0,0,0,0.025758,0.00026444,-0.00029686,0.013028,0.0085753,0.025779,8.7848e-07,1,0.15,0.45
0.00091595,0.00048627,6.2563e-05,0.024448,0.0091242,0.009406,0.0036462,1.53e-06,0.0004745,0.037778,-0.002064,-0.0013314,0.01896,7.9558e-06,0.0024674,0,0,0,0.02531,0.0094006,0.0082679,0.0085209,0.014326,0.016507,2.2974e-07,0,0.2,0.45
0.0018889,0.00095961,0.00012466,0.024582,0.0078569,0.0084138,0.0034731,3.39e-06,0.00046242,0.039402,-0.0040839,-0.002636,0.01806,1.7628e-05,0.0024046,0,0,0,0.025322,0.0084052,0.007126,0.0090979,0.013618,0.017594,2.8115e-07,0.05,0.2,0.45
0.0039402,0.0018628,0.0002466,0.025139,0.0056216,0.0066455,0.002993,7.4942e-06,0.00042698,0.042918,-0.0078276,-0.0051654,0.015563,3.897e-05,0.0022203,0,0,0,0.02563,0.0066341,0.005142,0.010244,0.012469,0.019789,3.9761e-07,0.1,0.2,0.45
0.0061807,0.0026519,0.0003616,0.025855,0.003943,0.0051955,0.0023199,1.184e-05,0.00037057,0.046226,-0.010744,-0.0074876,0.012063,6.1566e-05,0.001927,0,0,0,0.026128,0.0051864,0.0036787,0.011225,0.011664,0.021739,5.2359e-07,0.15,0.2,0.45
0.0085629,0.0032886,0.00046556,0.026306,0.0027523,0.0039573,0.0016107,1.5569e-05,0.00029967,0.048586,-0.012653,-0.0095205,0.0083754,8.0957e-05,0.0015583,0,0,0,0.026435,0.0039528,0.0026277,0.011904,0.011005,0.023177,6.3447e-07,0.2,0.2,0.45
0.011039,0.003765,0.0005559,0.026518,0.0019478,0.0029342,0.00098202,1.8423e-05,0.0002242,0.050107,-0.013776,-0.011211,0.0051065,9.5801e-05,0.0011659,0,0,0,0.026569,0.0029348,0.0018963,0.012336,0.010467,0.024173,7.2164e-07,0.25,0.2,0.45
0.013574,0.0040935,0.00063178,0.026564,0.001392,0.0021165,0.00047228,2.0995e-05,0.00015328,0.051022,-0.014424,-0.01254,0.0024559,0.00010918,0.00079707,0,0,0,0.026579,0.0021217,0.0013713,0.012604,0.010024,0.024843,7.852e-07,0.3,0.2,0.45
0.016142,0.004295,0.00069379,0.026516,0.00097331,0.0014867,7.7219e-05,2.4566e-05,9.3291e-05,0.051555,-0.014855,-0.01352,0.00040154,0.00012774,0.00048511,0,0,0,0.026519,0.0014944,0.00096185,0.012779,0.0096585,0.025296,8.3019e-07,0.35,0.2,0.45
0.018729,0.0043936,0.00074351,0.026427,0.00060704,0.0010168,-0.00021358,3.0531e-05,4.7063e-05,0.051879,-0.015252,-0.014187,-0.0011106,0.00015876,0.00024473,0,0,0,0.02643,0.0010236,0.00059688,0.012917,0.0093501,0.025623,8.6326e-07,0.4,0.2,0.45
0.021329,0.0044159,0.00078285,0.026331,0.00024364,0.0006733,-0.00040017,3.95e-05,1.4188e-05,0.052111,-0.015715,-0.014598,-0.0020809,0.0002054,7.3776e-05,0,0,0,0.026337,0.00067838,0.00023188,0.013053,0.0090825,0.025885,8.9e-07,0.45,0.2,0.45
0.02394,0.0043916,0.00081359,0.026245,-0.0001215,0.00042354,-0.00047453,5.0377e-05,-7.9812e-06,0.052308,-0.016244,-0.014827,-0.0024676,0.00026196,-4.1502e-05,0,0,0,0.026253,0.0004294,-0.00013603,0.013195,0.0088489,0.026112,9.1295e-07,0.5,0.2,0.45
0.02656,0.0043521,0.00083712,0.026171,-0.00044555,0.00024106,-0.00043391,6.0234e-05,-2.2754e-05,0.052465,-0.016738,-0.014953,-0.0022563,0.00031322,-0.00011832,0,0,0,0.026179,0.00024955,-0.00046143,0.01332,0.0086556,0.026292,9.3108e-07,0.55,0.2,0.45
0.029187,0.0043265,0.00085441,0.026105,-0.00065457,0.0001089,-0.00029808,6.5068e-05,-3.2572e-05,0.052538,-0.017038,-0.015053,-0.00155,0.00033835,-0.00016938,0,0,0,0.026109,0.00011968,-0.00066934,0.013389,0.0085199,0.026394,9.4129e-07,0.6,0.2,0.45
0.031814,0.0043349,0.00086635,0.026043,-0.00068954,1.5938e-05,-0.00011533,6.1607e-05,-3.8236e-05,0.052489,-0.017014,-0.01518,-0.0005997,0.00032035,-0.00019883,0,0,0,0.026044,2.7312e-05,-0.0007022,0.013373,0.0084563,0.02639,9.4122e-07,0.65,0.2,0.45
0.034436,0.004383,0.00087393,0.025983,-0.00055354,-5.0216e-05,5.4045e-05,4.983e-05,-3.9422e-05,0.052329,-0.016667,-0.015358,0.00028104,0.00025911,-0.000205,0,0,0,0.025984,-3.9719e-05,-0.0005647,0.013274,0.0084598,0.026291,9.3183e-07,0.7,0.2,0.45
0.037047,0.0044623,0.00087834,0.025933,-0.00031342,-0.00010363,0.0001646,3.3037e-05,-3.6152e-05,0.052116,-0.016124,-0.015579,0.00085592,0.00017179,-0.00018799,0,0,0,0.025934,-6.8327e-05,-0.00034998,0.013142,0.0085053,0.026145,9.1741e-07,0.75,0.2,0.45
0.039647,0.004556,0.00088077,0.025899,-5.562e-05,-0.00015374,0.00020306,1.5442e-05,-2.9519e-05,0.051923,-0.015558,-0.015813,0.0010559,8.0297e-05,-0.0001535,0,0,0,0.025901,-7.4645e-08,-0.00021095,0.013056,0.0085632,0.026007,9.032e-07,0.8,0.2,0.45
0.042239,0.0046462,0.00088213,0.025885,0.00015707,-0.00020179,0.00018356,4.189e-07,-2.1345e-05,0.051797,-0.015096,-0.016029,0.00095454,2.1783e-06,-0.00011099,0,0,0,0.025887,0.00015834,-0.00020444,0.013046,0.0086135,0.025912,8.9287e-07,0.85,0.2,0.45
0.044827,0.0047187,0.00088295,0.025888,0.00029896,-0.00024348,0.00013094,-1.0271e-05,-1.3311e-05,0.051742,-0.014789,-0.016199,0.0006809,-5.3408e-05,-6.9217e-05,0,0,0,0.025888,0.0003022,-0.00024748,0.013068,0.0086477,0.025866,8.8736e-07,0.9,0.2,0.45
0.047413,0.0047649,0.00088343,0.025896,0.00037383,-0.00027227,8.1735e-05,-1.6391e-05,-6.0792e-06,0.05173,-0.014626,-0.016306,0.00042502,-8.5234e-05,-3.1612e-05,0,0,0,0.025896,0.00037882,-0.00027757,0.013087,0.0086657,0.025852,8.8537e-07,0.95,0.2,0.45
0.048707,0.0047807,0.00088359,0.0259,0.0003964,-0.00028256,6.3865e-05,-1.8351e-05,-2.6624e-06,0.051731,-0.014577,-0.016343,0.0003321,-9.5425e-05,-1.3845e-05,0,0,0,0.0259,0.00040197,-0.00028831,0.013094,0.0086711,0.02585,8.85e-07,1,0.2,0.45
0.0009108,0.00039398,6.2557e-05,0.024341,0.0092607,0.0093976,0.0029784,8.433e-07,0.00047423,0.037487,-0.0017217,-0.0013658,0.015488,4.3852e-06,0.002466,0,0,0,0.024944,0.0093928,0.008663,0.0081403,0.014333,0.015929,2.082e-07,0,0.25,0.45
0.0018743,0.0007763,0.00012468,0.024492,0.008172,0.0084491,0.002872,1.9558e-06,0.00046175,0.039012,-0.0034208,-0.0027004,0.014934,1.017e-05,0.0024011,0,0,0,0.025022,0.0084413,0.0076504,0.0086857,0.013704,0.016991,2.5606e-07,0.05,0.25,0.45
0.0039012,0.0015076,0.00024668,0.02508,0.0062226,0.0067496,0.0025665,4.3954e-06,0.00042505,0.042377,-0.0066525,-0.0052824,0.013346,2.2856e-05,0.0022103,0,0,0,0.025456,0.0067391,0.0058569,0.0097996,0.012684,0.019176,3.6681e-07,0.1,0.25,0.45
0.006112,0.0021548,0.0003617,0.025845,0.0046627,0.0053302,0.0021155,6.7156e-06,0.00036646,0.045694,-0.0093798,-0.0076443,0.011001,3.4921e-05,0.0019056,0,0,0,0.026078,0.0053226,0.0044376,0.01082,0.011946,0.021214,4.9267e-07,0.15,0.25,0.45
0.0084706,0.0026907,0.00046553,0.026381,0.0034425,0.0040947,0.0016034,8.1195e-06,0.00029272,0.048239,-0.0114,-0.0097045,0.0083378,4.2221e-05,0.0015221,0,0,0,0.026507,0.0040945,0.0033159,0.011596,0.011306,0.022815,6.1047e-07,0.2,0.25,0.45
0.010936,0.0031028,0.00055558,0.026683,0.0025476,0.0030652,0.0011043,8.6057e-06,0.00021448,0.049998,-0.012754,-0.011408,0.0057423,4.475e-05,0.0011153,0,0,0,0.026743,0.0030784,0.0024745,0.012134,0.010765,0.023974,7.0748e-07,0.25,0.25,0.45
0.01347,0.0033917,0.00063114,0.026787,0.0018969,0.0022404,0.00065689,9.3012e-06,0.00014175,0.051091,-0.013622,-0.012729,0.0034158,4.8366e-05,0.00073707,0,0,0,0.02681,0.0022745,0.0018393,0.012485,0.010308,0.024757,7.7901e-07,0.3,0.25,0.45
0.016045,0.003566,0.00069305,0.026749,0.0013885,0.0016044,0.00027062,1.2564e-05,8.1721e-05,0.051703,-0.014235,-0.013674,0.0014072,6.5331e-05,0.00042495,0,0,0,0.026756,0.0016536,0.0013323,0.012712,0.0099141,0.025265,8.2809e-07,0.35,0.25,0.45
0.018641,0.0036396,0.00074317,0.026631,0.00092031,0.0011285,-5.0801e-05,2.1161e-05,3.7369e-05,0.052032,-0.014815,-0.014273,-0.00026416,0.00011004,0.00019432,0,0,0,0.026633,0.0011667,0.00087955,0.012877,0.0095598,0.025611,8.6259e-07,0.4,0.25,0.45
0.021248,0.0036328,0.00078358,0.026477,0.00041734,0.00077516,-0.00028869,3.6487e-05,7.5559e-06,0.052238,-0.015516,-0.014586,-0.0015012,0.00018973,3.9291e-05,0,0,0,0.026481,0.00079013,0.00039796,0.013042,0.009223,0.02589,8.9057e-07,0.45,0.25,0.45
0.023864,0.0035752,0.0008159,0.026327,-0.00011959,0.00051274,-0.00041238,5.7036e-05,-1.133e-05,0.052417,-0.016343,-0.014699,-0.0021444,0.00029659,-5.8915e-05,0,0,0,0.026333,0.00052065,-0.00013432,0.013234,0.0089066,0.026147,9.1602e-07,0.5,0.25,0.45
0.02649,0.0035041,0.00084107,0.026199,-0.00061959,0.00031521,-0.00040343,7.7675e-05,-2.4187e-05,0.05258,-0.017147,-0.014717,-0.0020978,0.00040391,-0.00012577,0,0,0,0.026205,0.00032813,-0.00063894,0.013422,0.0086314,0.026375,9.3773e-07,0.55,0.25,0.45
0.029122,0.003459,0.0008594,0.026091,-0.00096262,0.00016454,-0.00027187,9.0157e-05,-3.4514e-05,0.052661,-0.017678,-0.014748,-0.0014137,0.00046882,-0.00017947,0,0,0,0.026094,0.00018159,-0.00098321,0.013539,0.0084309,0.026516,9.5085e-07,0.6,0.25,0.45
0.031756,0.0034682,0.00087109,0.026012,-0.001018,6.1613e-05,-7.4805e-05,8.724e-05,-4.1996e-05,0.052598,-0.01768,-0.014873,-0.00038898,0.00045365,-0.00021838,0,0,0,0.026013,7.9212e-05,-0.0010368,0.013525,0.0083518,0.026511,9.5076e-07,0.65,0.25,0.45
0.034382,0.0035374,0.0008771,0.025963,-0.00078906,-5.9935e-06,9.9564e-05,6.8731e-05,-4.4177e-05,0.052404,-0.017153,-0.015117,0.00051773,0.0003574,-0.00022972,0,0,0,0.025964,8.5154e-06,-0.00080446,0.013384,0.0083895,0.026374,9.386e-07,0.7,0.25,0.45
0.036996,0.0036496,0.00087923,0.025942,-0.00041525,-6.4379e-05,0.00019563,4.1606e-05,-3.9835e-05,0.052172,-0.016357,-0.015445,0.0010173,0.00021635,-0.00020714,0,0,0,0.025944,-2.6906e-05,-0.00045435,0.013199,0.0084874,0.026188,9.2128e-07,0.75,0.25,0.45
0.039599,0.003777,0.00087931,0.025957,-3.2225e-05,-0.00012188,0.00020734,1.4203e-05,-3.0913e-05,0.052005,-0.015565,-0.015798,0.0010781,7.3853e-05,-0.00016075,0,0,0,0.025958,5.9269e-05,-0.00021514,0.013087,0.0086008,0.026038,9.062e-07,0.8,0.25,0.45
0.042197,0.0038939,0.00087875,0.026001,0.00026421,-0.00017993,0.00016061,-7.872e-06,-2.0618e-05,0.051952,-0.014964,-0.016119,0.00083515,-4.0934e-05,-0.00010721,0,0,0,0.026002,0.00026753,-0.00018444,0.013093,0.0086951,0.025964,8.9786e-07,0.85,0.25,0.45
0.044795,0.0039835,0.0008783,0.026055,0.00043822,-0.00023445,9.6339e-05,-2.2424e-05,-1.1435e-05,0.051988,-0.014616,-0.016365,0.00050096,-0.00011661,-5.9463e-05,0,0,0,0.026056,0.0004449,-0.00024166,0.013149,0.0087531,0.025962,8.965e-07,0.9,0.25,0.45
0.047396,0.0040382,0.00087813,0.026101,0.00051759,-0.00027272,5.9375e-05,-2.999e-05,-4.7404e-06,0.052054,-0.014462,-0.016516,0.00030875,-0.00015595,-2.465e-05,0,0,0,0.026101,0.00052651,-0.00028185,0.013191,0.0087818,0.025988,8.9854e-07,0.95,0.25,0.45
0.048697,0.0040565,0.0008781,0.026119,0.00053933,-0.00028621,5.3795e-05,-3.2231e-05,-2.0846e-06,0.052085,-0.014421,-0.016567,0.00027974,-0.0001676,-1.084e-05,0,0,0,0.026119,0.00054891,-0.00029594,0.013207,0.0087905,0.026003,8.998e-07,1,0.25,0.45
0.00091213,0.0003141,6.2519e-05,0.02439,0.009381,0.009428,0.002388,-3.691e-07,0.00047354,0.037495,-0.0015289,-0.0014068,0.012418,-1.9193e-06,0.0024624,0,0,0,0.024795,0.0094249,0.008979,0.0079083,0.0144,0.015599,1.9635e-07,0,0.3,0.45
0.0018748,0.00061753,0.00012463,0.024548,0.0083941,0.0084939,0.002323,-4.3949e-07,0.0004604,0.038963,-0.0030368,-0.0027773,0.01208,-2.2852e-06,0.0023941,0,0,0,0.02491,0.0084888,0.0080372,0.0084363,0.013812,0.016652,2.4233e-07,0.05,0.3,0.45
0.0038963,0.0011976,0.0002466,0.025148,0.0066235,0.0068198,0.0021337,-4.3346e-07,0.00042177,0.042229,-0.0059334,-0.005423,0.011095,-2.2539e-06,0.0021932,0,0,0,0.025418,0.0068147,0.0063583,0.0095298,0.012864,0.018837,3.4989e-07,0.1,0.3,0.45
0.0060977,0.0017139,0.00036151,0.025938,0.0051722,0.0054158,0.0018501,-8.5323e-07,0.00035996,0.045524,-0.0084682,-0.0078347,0.0096203,-4.4368e-06,0.0018718,0,0,0,0.026121,0.0054211,0.0049846,0.010568,0.012175,0.020923,4.7541e-07,0.15,0.3,0.45
0.0084487,0.0021485,0.00046499,0.026523,0.003978,0.0041835,0.0015178,-2.7191e-06,0.00028198,0.048149,-0.010468,-0.0099334,0.0078927,-1.4139e-05,0.0014663,0,0,0,0.026636,0.0042159,0.0038322,0.011402,0.011561,0.022615,5.9716e-07,0.2,0.3,0.45
0.010913,0.0024896,0.00055448,0.026879,0.0030574,0.0031502,0.0011739,-5.9955e-06,0.00019928,0.050033,-0.011902,-0.011661,0.0061042,-3.1176e-05,0.0010363,0,0,0,0.026943,0.0032335,0.0029093,0.012017,0.011029,0.023874,7.0037e-07,0.25,0.3,0.45
0.013452,0.0027312,0.00062944,0.027016,0.0023662,0.0023218,0.00083819,-9.0176e-06,0.00012312,0.051219,-0.01287,-0.012986,0.0043586,-4.6892e-05,0.0006402,0,0,0,0.027049,0.0024764,0.0021781,0.012436,0.010568,0.024724,7.7658e-07,0.3,0.3,0.45
0.016034,0.0028714,0.00069114,0.026969,0.0018129,0.0016858,0.00051265,-7.9804e-06,6.2058e-05,0.051839,-0.013567,-0.013898,0.0026658,-4.1498e-05,0.0003227,0,0,0,0.026984,0.0018874,0.0015965,0.012694,0.010156,0.025244,8.2603e-07,0.35,0.3,0.45
0.018636,0.0029121,0.000742,0.026795,0.0012794,0.0012154,0.00020121,3.1788e-06,2.0043e-05,0.052093,-0.014247,-0.014414,0.0010463,1.653e-05,0.00010422,0,0,0,0.0268,0.0013732,0.0011161,0.012842,0.0097632,0.025557,8.5711e-07,0.4,0.3,0.45
0.021244,0.0028643,0.00078444,0.026544,0.00063968,0.0008619,-6.6934e-05,2.8619e-05,-5.6943e-06,0.052187,-0.015164,-0.014586,-0.00034806,0.00014882,-2.961e-05,0,0,0,0.026547,0.00092381,0.00057464,0.012986,0.0093485,0.0258,8.814e-07,0.45,0.3,0.45
0.023855,0.0027573,0.0008199,0.026254,-0.00011835,0.00058086,-0.00023299,6.3023e-05,-2.0914e-05,0.05223,-0.016337,-0.014519,-0.0012115,0.00032772,-0.00010875,0,0,0,0.026257,0.00059713,-0.00013848,0.013198,0.0089053,0.026038,9.0371e-07,0.5,0.3,0.45
0.026467,0.0026373,0.00084841,0.026,-0.0008192,0.00037287,-0.00025534,9.968e-05,-2.8956e-05,0.052267,-0.017462,-0.014363,-0.0013278,0.00051834,-0.00015057,0,0,0,0.026004,0.00039368,-0.00084405,0.013424,0.0085178,0.026253,9.2192e-07,0.55,0.3,0.45
0.029081,0.0025587,0.00086896,0.025841,-0.0012652,0.00023213,-0.00018098,0.00012853,-3.6591e-05,0.052301,-0.018174,-0.014281,-0.00094111,0.00066837,-0.00019027,0,0,0,0.025843,0.00026337,-0.0012993,0.013571,0.0082691,0.026398,9.3343e-07,0.6,0.3,0.45
0.031697,0.0025669,0.0008805,0.025757,-0.0013452,0.0001218,-7.221e-05,0.00012699,-4.5182e-05,0.052247,-0.018217,-0.014403,-0.00037549,0.00066033,-0.00023495,0,0,0,0.025758,0.00015367,-0.0013786,0.013568,0.0081777,0.026406,9.3461e-07,0.65,0.3,0.45
0.034306,0.0026677,0.00088391,0.025751,-0.001062,2.9296e-05,5.1769e-05,9.4171e-05,-4.5569e-05,0.052123,-0.017592,-0.014755,0.0002692,0.00048969,-0.00023696,0,0,0,0.025753,5.1786e-05,-0.0010856,0.013419,0.0082396,0.026291,9.2668e-07,0.7,0.3,0.45
0.036909,0.0028266,0.00088208,0.025854,-0.00053406,-3.34e-05,0.00012826,5.1931e-05,-3.7924e-05,0.052048,-0.01656,-0.015259,0.00066696,0.00027004,-0.00019721,0,0,0,0.025855,2.1042e-05,-0.00058983,0.013222,0.0084287,0.026147,9.1577e-07,0.75,0.3,0.45
0.039511,0.0029995,0.00087815,0.026018,2.4645e-05,-8.6314e-05,0.00011019,1.0545e-05,-2.7023e-05,0.052073,-0.01551,-0.015798,0.00057301,5.4834e-05,-0.00014052,0,0,0,0.026019,0.00015912,-0.00022209,0.013121,0.0086522,0.026054,9.0744e-07,0.8,0.3,0.45
0.042116,0.0031498,0.0008745,0.026185,0.00040768,-0.00015818,4.1956e-05,-2.2712e-05,-1.4279e-05,0.05222,-0.014801,-0.016272,0.00021817,-0.0001181,-7.425e-05,0,0,0,0.026186,0.00041522,-0.00016667,0.013176,0.0088115,0.026068,9.0796e-07,0.85,0.3,0.45
0.044733,0.0032571,0.00087222,0.026337,0.0005884,-0.00023205,-1.2362e-05,-4.1622e-05,-4.3198e-06,0.052459,-0.014486,-0.016619,-6.4281e-05,-0.00021644,-2.2463e-05,0,0,0,0.026337,0.00060107,-0.0002453,0.013291,0.0088976,0.02617,9.1735e-07,0.9,0.3,0.45
0.047362,0.0033187,0.00087121,0.026447,0.00065072,-0.00028248,-4.5723e-06,-4.956e-05,-3.0916e-07,0.052672,-0.014397,-0.016823,-2.3776e-05,-0.00025771,-1.6076e-06,0,0,0,0.026447,0.00066599,-0.00029808,0.013373,0.0089383,0.026276,9.2785e-07,0.95,0.3,0.45
0.04868,0.0033386,0.00087097,0.026486,0.00066215,-0.00030053,2.0473e-05,-5.1595e-05,1.8987e-07,0.052755,-0.014387,-0.01689,0.00010646,-0.00026829,9.8732e-07,0,0,0,0.026486,0.00067819,-0.0003168,0.013401,0.0089492,0.02632,9.3224e-07,1,0.3,0.45
0.0009175,0.00024109,6.2363e-05,0.02454,0.0094915,0.0094838,0.0018433,-1.7819e-06,0.00047177,0.037694,-0.0014312,-0.0014512,0.0095852,-9.2657e-06,0.0024532,0,0,0,0.024796,0.0094861,0.0092326,0.0077819,0.014505,0.015439,1.9078e-07,0,0.35,0.45
0.0018847,0.00047262,0.00012435,0.024703,0.0085565,0.0085474,0.0018086,-3.2093e-06,0.00045772,0.039144,-0.0028372,-0.0028609,0.0094046,-1.6688e-05,0.0023802,0,0,0,0.024935,0.0085544,0.0083171,0.0083091,0.013936,0.016501,2.3644e-07,0.05,0.35,0.45
0.0039144,0.00091424,0.00024607,0.025319,0.0068853,0.006873,0.0017068,-5.9631e-06,0.00041641,0.042384,-0.0055448,-0.005577,0.0088752,-3.1008e-05,0.0021653,0,0,0,0.025501,0.0068964,0.0066804,0.0094103,0.013026,0.018714,3.4404e-07,0.1,0.35,0.45
0.0061231,0.001308,0.00036058,0.026143,0.0055088,0.0054721,0.0015583,-9.4949e-06,0.0003501,0.045698,-0.0079517,-0.0080471,0.0081032,-4.9373e-05,0.0018205,0,0,0,0.026277,0.0055318,0.005316,0.01048,0.012375,0.020854,4.7189e-07,0.15,0.35,0.45
0.0084842,0.0016439,0.00046333,0.02678,0.0043497,0.0042402,0.0013894,-1.5272e-05,0.00026592,0.048405,-0.0099125,-0.010197,0.0072246,-7.9415e-05,0.0013828,0,0,0,0.026875,0.0043688,0.004126,0.011374,0.01179,0.022629,5.9922e-07,0.2,0.35,0.45
0.010964,0.0019125,0.00055175,0.027193,0.0034352,0.0032049,0.0012131,-2.3589e-05,0.00017594,0.050403,-0.011368,-0.011967,0.0063082,-0.00012266,0.00091491,0,0,0,0.02726,0.0034419,0.0031312,0.012065,0.011278,0.023976,7.0987e-07,0.25,0.35,0.45
0.013524,0.0021047,0.00062553,0.027372,0.0027452,0.0023774,0.0010303,-3.2652e-05,9.2724e-05,0.05167,-0.012359,-0.013315,0.0053576,-0.00016979,0.00048216,0,0,0,0.027419,0.0027444,0.0023312,0.012544,0.010831,0.024884,7.9165e-07,0.3,0.35,0.45
0.016131,0.0022093,0.00068656,0.027325,0.0021974,0.0017513,0.0008262,-3.6603e-05,2.728e-05,0.052281,-0.013051,-0.014211,0.0042962,-0.00019034,0.00014186,0,0,0,0.027357,0.0021989,0.001718,0.012819,0.010425,0.025402,8.4114e-07,0.35,0.35,0.45
0.018753,0.0022148,0.00073841,0.02706,0.0016201,0.0012881,0.00059254,-2.4842e-05,-1.4645e-05,0.052375,-0.013769,-0.014632,0.0030812,-0.00012918,-7.6154e-05,0,0,0,0.02708,0.0016408,0.0012473,0.012916,0.0099895,0.025639,8.6493e-07,0.4,0.35,0.45
0.021368,0.0021164,0.00078455,0.02661,0.0008102,0.00092488,0.00038909,1.7635e-05,-3.6694e-05,0.052178,-0.0149,-0.014602,0.0020233,9.1702e-05,-0.00019081,0,0,0,0.026625,0.001067,0.00065275,0.012986,0.0094482,0.02577,8.7766e-07,0.45,0.35,0.45
0.02397,0.0019414,0.00082519,0.026081,-0.0001634,0.0006404,0.00025792,7.9417e-05,-5.2707e-05,0.051875,-0.016359,-0.01427,0.0013412,0.00041297,-0.00027408,0,0,0,0.026096,0.00067584,-0.00021383,0.013155,0.0088526,0.025881,8.8561e-07,0.5,0.35,0.45
0.026556,0.0017579,0.00085926,0.025875,-0.00097895,0.00041692,0.00016821,0.00012996,-6.7628e-05,0.051173,-0.017409,-0.013836,0.00083618,0.00067676,-0.00034457,0,0,0,0.025885,0.0004536,-0.0010262,0.013456,0.0084375,0.026205,9.3556e-07,0.55,0.35,0.45
0.029099,0.0016416,0.00088483,0.026098,-0.0014649,0.00022228,2.6127e-05,0.00016117,-6.0449e-05,0.050201,-0.017747,-0.013531,9.5361e-05,0.00084111,-0.00029518,0,0,0,0.026104,0.00027126,-0.0015199,0.013812,0.0082853,0.026775,1.0344e-06,0.6,0.35,0.45
0.031609,0.0016464,0.0008966,0.026016,-0.0015745,0.00010444,-0.00017011,0.00016193,-3.0677e-05,0.050173,-0.017842,-0.013649,-0.00084995,0.00084511,-0.00014251,0,0,0,0.026022,0.00015431,-0.0016304,0.013826,0.0081819,0.026806,1.0379e-06,0.65,0.35,0.45
0.034149,0.0017781,0.00089505,0.025635,-0.0013064,5.4325e-05,-0.00026281,0.00013079,-1.3947e-05,0.051108,-0.017699,-0.014219,-0.00133,0.00068115,-6.7571e-05,0,0,0,0.025645,9.3444e-05,-0.001355,0.0135,0.0081277,0.026308,9.4669e-07,0.7,0.35,0.45
0.036731,0.0019936,0.00088712,0.025707,-0.00070989,-1.5743e-06,-0.00025055,7.6594e-05,-1.382e-05,0.051841,-0.016843,-0.015001,-0.0013028,0.00039829,-7.1862e-05,0,0,0,0.025719,7.1213e-05,-0.00079434,0.013256,0.0083318,0.026095,9.0811e-07,0.75,0.35,0.45
0.039334,0.0022261,0.00087701,0.026139,2.7065e-05,-5.9858e-05,-0.00023225,6.868e-06,-6.5396e-06,0.052299,-0.015594,-0.01582,-0.0012077,3.5714e-05,-3.4006e-05,0,0,0,0.026148,0.00023865,-0.00027988,0.013214,0.0087022,0.026174,9.1941e-07,0.8,0.35,0.45
0.041961,0.0024139,0.00086834,0.026551,0.00054171,-0.00013143,-0.00024173,-4.5683e-05,7.2936e-06,0.052856,-0.014768,-0.016519,-0.001257,-0.00023755,3.7927e-05,0,0,0,0.026557,0.00055616,-0.00015123,0.013354,0.0089872,0.026363,9.3891e-07,0.85,0.35,0.45
0.044619,0.0025349,0.0008636,0.026855,0.00072047,-0.00022277,-0.00023212,-6.7653e-05,1.4622e-05,0.053411,-0.014538,-0.016991,-0.001207,-0.0003518,7.6033e-05,0,0,0,0.026859,0.00074038,-0.00024658,0.013553,0.0091176,0.026626,9.6591e-07,0.9,0.35,0.45
0.047302,0.0025985,0.00086182,0.027037,0.00073498,-0.00029223,-0.00012634,-7.3913e-05,1.0775e-05,0.053808,-0.014577,-0.017248,-0.00065697,-0.00038435,5.6032e-05,0,0,0,0.027039,0.00075919,-0.00031826,0.013679,0.0091599,0.026835,9.8825e-07,0.95,0.35,0.45
0.048649,0.0026178,0.00086143,0.0271,0.00072535,-0.00031639,-4.5382e-05,-7.4698e-05,6.05e-06,0.053955,-0.014619,-0.017328,-0.00023599,-0.00038843,3.146e-05,0,0,0,0.027101,0.00075092,-0.00034276,0.013722,0.0091696,0.026913,9.969e-07,1,0.35,0.45
0.00092541,0.00017098,6.2054e-05,0.024754,0.0095912,0.0095556,0.0013168,-3.0682e-06,0.00046868,0.03802,-0.0014034,-0.0014958,0.0068472,-1.5955e-05,0.0024371,0,0,0,0.024902,0.0095704,0.0094286,0.0077365,0.014634,0.015403,1.8968e-07,0,0.4,0.45
0.001901,0.00033381,0.00012377,0.024926,0.0086725,0.008607,0.0013059,-5.7429e-06,0.0004535,0.039484,-0.0027748,-0.002945,0.0067905,-2.9863e-05,0.0023582,0,0,0,0.025062,0.0086411,0.0085028,0.0082794,0.014069,0.01649,2.364e-07,0.05,0.4,0.45
0.0039484,0.00064312,0.00024494,0.025574,0.0070399,0.0069173,0.0012742,-1.1053e-05,0.00040881,0.042773,-0.0054148,-0.0057337,0.0066257,-5.7477e-05,0.0021258,0,0,0,0.025685,0.0069989,0.0068475,0.0094185,0.013177,0.018762,3.4726e-07,0.1,0.4,0.45
0.0061783,0.00091872,0.0003587,0.026455,0.0057007,0.0055125,0.0012382,-1.7541e-05,0.00033665,0.046182,-0.0077789,-0.0082683,0.0064388,-9.1214e-05,0.0017506,0,0,0,0.026544,0.0056629,0.0054615,0.010541,0.012556,0.020982,4.8133e-07,0.15,0.4,0.45
0.0085666,0.0011573,0.00046025,0.027174,0.0045635,0.00428,0.0012159,-2.7229e-05,0.00024388,0.049042,-0.0097456,-0.010483,0.0063227,-0.00014159,0.0012682,0,0,0,0.027248,0.0045297,0.0042397,0.011504,0.012006,0.022865,6.1891e-07,0.2,0.4,0.45
0.011083,0.0013528,0.00054692,0.027694,0.0036615,0.0032479,0.0012098,-4.0921e-05,0.00014264,0.051243,-0.011242,-0.012318,0.0062911,-0.00021279,0.00074173,0,0,0,0.02776,0.0036323,0.0032114,0.012274,0.011535,0.024341,7.4346e-07,0.25,0.4,0.45
0.013691,0.0014953,0.0006186,0.027982,0.0029884,0.0024301,0.00121,-5.733e-05,4.6059e-05,0.052714,-0.012271,-0.013722,0.006292,-0.00029812,0.0002395,0,0,0,0.028044,0.002964,0.0023924,0.012826,0.011134,0.025371,8.3961e-07,0.3,0.4,0.45
0.016354,0.0015664,0.0006781,0.028025,0.0024812,0.0018355,0.0011856,-6.928e-05,-3.2608e-05,0.053459,-0.012954,-0.014632,0.0061654,-0.00036026,-0.00016956,0,0,0,0.028084,0.002461,0.001796,0.013144,0.01078,0.025963,8.986e-07,0.35,0.4,0.45
0.019037,0.0015353,0.00073074,0.027824,0.0018896,0.0014317,0.0011226,-5.3555e-05,-8.2727e-05,0.053655,-0.013774,-0.014965,0.0058377,-0.00027849,-0.00043018,0,0,0,0.027881,0.0019193,0.0013452,0.013268,0.010382,0.026254,9.3054e-07,0.4,0.4,0.45
0.021719,0.0013743,0.00078329,0.027686,0.00084594,0.0010458,0.0011012,3.1071e-05,-0.00013441,0.052916,-0.015073,-0.01463,0.0055672,0.00012062,-0.00062396,0,0,0,0.027747,0.0012467,0.00058478,0.013581,0.0098594,0.026841,1.0392e-06,0.45,0.4,0.45
0.024347,0.0011213,0.00083417,0.027549,-0.00030627,0.00066934,0.0010323,0.00014193,-0.00017239,0.050946,-0.016223,-0.013843,0.0049924,0.00063675,-0.00074071,0,0,0,0.027608,0.0007501,-0.00044587,0.014027,0.0093039,0.027481,1.1826e-06,0.5,0.4,0.45
0.026852,0.00089236,0.00087543,0.027348,-0.0010081,0.00035671,0.00072756,0.00017015,-0.000161,0.04815,-0.016391,-0.013059,0.003434,0.00081088,-0.00071161,0,0,0,0.027383,0.00043887,-0.0011259,0.014255,0.0088988,0.027765,1.2653e-06,0.55,0.4,0.45
0.029203,0.00077179,0.00090449,0.027545,-0.001435,1.0564e-05,0.00024295,0.00013828,-0.00010085,0.045556,-0.015932,-0.012576,0.0011189,0.00071737,-0.00044267,0,0,0,0.027559,7.4011e-05,-0.0015128,0.014536,0.0087069,0.028317,1.3817e-06,0.6,0.4,0.45
0.031472,0.0007705,0.00091701,0.027466,-0.0015733,-0.00011934,-0.00027982,0.0001412,-5.1803e-06,0.045556,-0.016065,-0.012689,-0.0013616,0.00073163,1.484e-05,0,0,0,0.02748,-5.3597e-05,-0.0016533,0.014567,0.0085912,0.028373,1.3891e-06,0.65,0.4,0.45
0.033823,0.00089377,0.00091304,0.027117,-0.0014327,-4.5985e-05,-0.00071342,0.0001795,6.5415e-05,0.048176,-0.016809,-0.013425,-0.0034287,0.00085371,0.00029088,0,0,0,0.027149,4.2294e-05,-0.0015528,0.014351,0.0085462,0.027943,1.2899e-06,0.7,0.4,0.45
0.036331,0.0011423,0.00089783,0.027201,-0.0010115,-2.8793e-05,-0.00091791,0.00015263,9.0812e-05,0.051081,-0.016947,-0.01456,-0.0044626,0.00068392,0.00035683,0,0,0,0.027248,7.3638e-05,-0.0011607,0.014204,0.0087202,0.027818,1.2264e-06,0.75,0.4,0.45
0.03897,0.0014402,0.00087606,0.027295,-0.00011233,1.8853e-05,-0.00085339,3.2017e-05,7.6314e-05,0.053321,-0.016114,-0.015855,-0.0043031,0.00012193,0.0003356,0,0,0,0.027334,0.00030851,-0.00044109,0.013888,0.0090672,0.027412,1.1052e-06,0.8,0.4,0.45
0.041682,0.0016729,0.00085901,0.027471,0.00062856,-1.8083e-05,-0.0007067,-6.7115e-05,5.9962e-05,0.054577,-0.015215,-0.016896,-0.0036749,-0.000349,0.0003118,0,0,0,0.027496,0.00068615,-0.00010057,0.013798,0.0093606,0.027213,1.0359e-06,0.85,0.4,0.45
0.044427,0.0018033,0.0008516,0.027799,0.00078821,-0.00017493,-0.00055374,-9.6263e-05,5.5485e-05,0.055231,-0.014998,-0.017502,-0.0028794,-0.00050057,0.00028852,0,0,0,0.027814,0.00081404,-0.00021585,0.014015,0.0094709,0.02753,1.0699e-06,0.9,0.4,0.45
0.047205,0.0018611,0.00084942,0.027997,0.00072881,-0.00028116,-0.00029727,-9.7896e-05,3.2798e-05,0.055726,-0.015172,-0.017798,-0.0015458,-0.00050906,0.00017055,0,0,0,0.028004,0.00076369,-0.00032223,0.014163,0.0094817,0.027799,1.101e-06,0.95,0.4,0.45
0.0486,0.0018767,0.00084912,0.028066,0.00069513,-0.00031343,-0.00013834,-9.6414e-05,1.7662e-05,0.055903,-0.015261,-0.017883,-0.00071935,-0.00050135,9.184e-05,0,0,0,0.028068,0.0007332,-0.00035386,0.014211,0.0094825,0.027895,1.1123e-06,1,0.4,0.45
0.00093459,0.00010075,6.1605e-05,0.025,0.009676,0.0096342,0.00078564,-3.9535e-06,0.00046443,0.038413,-0.0014283,-0.0015369,0.0040853,-2.0558e-05,0.002415,0,0,0,0.025075,0.0096628,0.0095724,0.0077512,0.01477,0.015457,1.9188e-07,0,0.45,0.45
0.0019207,0.00019514,0.00012292,0.025185,0.0087476,0.0086683,0.00079317,-7.5084e-06,0.00044798,0.03992,-0.0028167,-0.0030229,0.0041245,-3.9044e-05,0.0023295,0,0,0,0.025254,0.0087282,0.008618,0.0083182,0.0142,0.016582,2.4075e-07,0.05,0.45,0.45
0.003992,0.00037276,0.00024326,0.02588,0.0071072,0.006956,0.00081634,-1.4639e-05,0.00039945,0.043322,-0.0054872,-0.0058803,0.004245,-7.6124e-05,0.0020771,0,0,0,0.025939,0.0070831,0.006921,0.009509,0.013314,0.018938,3.5766e-07,0.1,0.45,0.45
0.0062528,0.00053011,0.00035594,0.026847,0.0057706,0.0055448,0.00087,-2.3252e-05,0.00032038,0.046904,-0.0078935,-0.0084808,0.004524,-0.00012091,0.001666,0,0,0,0.026898,0.0057496,0.0055139,0.010692,0.012721,0.021268,5.0201e-07,0.15,0.45,0.45
0.0086824,0.00066934,0.00045585,0.027693,0.0046327,0.0043135,0.00096939,-3.5862e-05,0.00021683,0.050019,-0.0099387,-0.010769,0.0050408,-0.00018648,0.0011275,0,0,0,0.027744,0.0046136,0.0042818,0.011731,0.012213,0.023298,6.5588e-07,0.2,0.45,0.45
0.011255,0.0007883,0.00054013,0.028397,0.0037345,0.0032946,0.0011141,-5.3789e-05,0.00010023,0.052576,-0.011546,-0.01269,0.0057934,-0.0002797,0.00052121,0,0,0,0.028454,0.0037145,0.0032578,0.012598,0.011809,0.024971,8.0426e-07,0.25,0.45,0.45
0.01394,0.00087764,0.00060877,0.028946,0.003092,0.0025181,0.0012895,-7.4905e-05,-1.689e-05,0.054525,-0.012694,-0.014186,0.0067054,-0.00038951,-8.7828e-05,0,0,0,0.029015,0.0030668,0.0024736,0.013271,0.011519,0.02625,9.3244e-07,0.3,0.45,0.45
0.016707,0.00091394,0.00066546,0.029347,0.0026601,0.0020231,0.0014315,-8.9648e-05,-0.00012001,0.055883,-0.013502,-0.015158,0.007444,-0.00046617,-0.00062404,0,0,0,0.029429,0.0026278,0.0019727,0.013728,0.011343,0.027135,1.0309e-06,0.35,0.45,0.45
0.019528,0.0008374,0.00072007,0.030005,0.0020704,0.0017196,0.0015787,-4.4474e-05,-0.00020866,0.05623,-0.014428,-0.015362,0.0079747,-0.0002652,-0.0010195,0,0,0,0.030103,0.0021763,0.0015153,0.014294,0.011265,0.028264,1.2382e-06,0.4,0.45,0.45
0.022347,0.00060688,0.00078496,0.03097,0.00082815,0.0012588,0.0016669,9.6617e-05,-0.00030905,0.053778,-0.015388,-0.01452,0.0078555,0.00033728,-0.0013003,0,0,0,0.031082,0.001478,0.00049716,0.015292,0.011019,0.03011,1.635e-06,0.45,0.45,0.45
0.024969,0.00031399,0.00085057,0.031194,-0.00042696,0.00061419,0.0014223,0.00020734,-0.00031072,0.048391,-0.015381,-0.013128,0.0062658,0.00080889,-0.0011893,0,0,0,0.031286,0.00074552,-0.00065042,0.015968,0.01046,0.031269,1.8879e-06,0.5,0.45,0.45
0.027261,0.00010792,0.00089409,0.030734,-0.00092571,6.5435e-05,0.00087941,0.00016495,-0.00019154,0.043273,-0.014416,-0.012178,0.0037682,0.00068783,-0.00073889,0,0,0,0.030781,0.00017666,-0.0010837,0.015932,0.0099579,0.031264,1.8894e-06,0.55,0.45,0.45
0.029335,2.5866e-05,0.00091715,0.03059,-0.0011659,-0.00036111,0.00029632,6.7734e-05,-9.5976e-05,0.040562,-0.013637,-0.011859,0.0012488,0.00033883,-0.0003645,0,0,0,0.030606,-0.00030045,-0.0012427,0.015924,0.0096877,0.031398,1.9097e-06,0.6,0.45,0.45
0.031345,1.7459e-05,0.0009305,0.03052,-0.0013212,-0.00050791,-0.00024418,7.0838e-05,-2.7277e-05,0.040586,-0.013767,-0.011966,-0.0011517,0.00035221,-4.161e-05,0,0,0,0.030535,-0.00044431,-0.0014002,0.015968,0.0095635,0.031478,1.9236e-06,0.65,0.45,0.45
0.033421,8.6201e-05,0.00093439,0.030526,-0.0014174,-0.00039005,-0.00077839,0.00017771,7.6288e-05,0.043378,-0.014847,-0.012524,-0.0034597,0.00074012,0.00033516,0,0,0,0.030566,-0.00027082,-0.0015768,0.016071,0.0095728,0.031522,1.9358e-06,0.7,0.45,0.45
0.035722,0.00029326,0.00091799,0.030878,-0.0012767,-0.00017242,-0.0012287,0.00022895,0.00020651,0.048674,-0.016208,-0.013817,-0.0054841,0.00089679,0.00078722,0,0,0,0.030949,-2.9258e-05,-0.0014913,0.01622,0.0098096,0.031743,1.9737e-06,0.75,0.45,0.45
0.038365,0.00061222,0.00088019,0.030653,-0.00031436,0.00014656,-0.0013629,0.00011214,0.00022838,0.054446,-0.01667,-0.015744,-0.0064117,0.00039989,0.00094894,0,0,0,0.030729,0.00040705,-0.00065109,0.01569,0.010162,0.03087,1.755e-06,0.8,0.45,0.45
0.041231,0.00089237,0.00084806,0.029828,0.0006456,0.00022911,-0.0011509,-4.7695e-05,0.00016613,0.05761,-0.016239,-0.017348,-0.0057846,-0.00028689,0.00081275,0,0,0,0.029881,0.00080827,1.3514e-05,0.014934,0.010234,0.02948,1.3979e-06,0.85,0.45,0.45
0.044143,0.0010351,0.00083614,0.029424,0.00079898,-5.2597e-06,-0.00083713,-0.0001105,0.00012176,0.058372,-0.016053,-0.018144,-0.0043531,-0.00057462,0.00063315,0,0,0,0.029453,0.00082863,-6.398e-05,0.014758,0.010073,0.029082,1.2682e-06,0.9,0.45,0.45
0.047068,0.0010813,0.00083443,0.029411,0.00063143,-0.00021069,-0.0004583,-0.00011149,6.7102e-05,0.058569,-0.016257,-0.018447,-0.0023831,-0.00057973,0.00034893,0,0,0,0.029423,0.00067831,-0.00026973,0.014846,0.0099438,0.029231,1.2847e-06,0.95,0.45,0.45
0.048533,0.0010917,0.00083458,0.029409,0.00055942,-0.00027116,-0.00022791,-0.00010918,3.5557e-05,0.058646,-0.016364,-0.018524,-0.0011852,-0.00056773,0.0001849,0,0,0,0.029414,0.00061321,-0.00032939,0.014872,0.0098992,0.029284,1.291e-06,1,0.45,0.45
0.00094367,2.8157e-05,6.1069e-05,0.025242,0.0097407,0.0097096,0.00023274,-4.2639e-06,0.00045954,0.038814,-0.0014895,-0.0015704,0.0012103,-2.2172e-05,0.0023896,0,0,0,0.025281,0.0097384,0.0096725,0.0078043,0.014897,0.015576,1.9648e-07,0,0.5,0.45
0.0019407,5.2147e-05,0.00012189,0.025443,0.0087845,0.0087249,0.00025329,-8.1556e-06,0.00044185,0.04038,-0.0029314,-0.0030865,0.0013171,-4.2409e-05,0.0022976,0,0,0,0.025479,0.0087824,0.008691,0.0083938,0.014317,0.016742,2.4823e-07,0.05,0.5,0.45
0.004038,9.4399e-05,0.00024122,0.026195,0.0071028,0.0069884,0.00031536,-1.5958e-05,0.00038949,0.043934,-0.0057042,-0.0060017,0.0016399,-8.2981e-05,0.0020253,0,0,0,0.026224,0.0071032,0.006958,0.0096332,0.013429,0.019194,3.7304e-07,0.1,0.5,0.45
0.0063341,0.00012937,0.00035265,0.027266,0.0057409,0.0055711,0.00043138,-2.5205e-05,0.00030327,0.047745,-0.0082207,-0.008662,0.0022432,-0.00013107,0.001577,0,0,0,0.027293,0.0057453,0.0055402,0.010876,0.012859,0.021651,5.3057e-07,0.15,0.5,0.45
0.0088125,0.0001634,0.00045067,0.028275,0.0045803,0.0043447,0.00061441,-3.8563e-05,0.00018792,0.051195,-0.010411,-0.011024,0.0031949,-0.00020053,0.00097717,0,0,0,0.028304,0.0045869,0.0043092,0.011997,0.0124,0.023857,7.0573e-07,0.2,0.5,0.45
0.011454,0.00019816,0.0005322,0.029221,0.0036674,0.0033465,0.0008633,-5.7997e-05,5.3767e-05,0.054233,-0.012206,-0.01304,0.0044892,-0.00030158,0.00027959,0,0,0,0.029261,0.0036729,0.0033011,0.01298,0.012078,0.025776,8.8683e-07,0.25,0.5,0.45
0.014236,0.00022588,0.00059754,0.030132,0.0030558,0.0026353,0.0011515,-8.0323e-05,-8.5418e-05,0.05685,-0.013549,-0.014642,0.0059876,-0.00041768,-0.00044417,0,0,0,0.030192,0.0030545,0.002577,0.013807,0.011941,0.02738,1.0607e-06,0.3,0.5,0.45
0.017139,0.0002162,0.00065206,0.031073,0.0027381,0.0023082,0.0013718,-7.9617e-05,-0.00020359,0.059118,-0.014553,-0.01567,0.0071333,-0.00041401,-0.0010587,0,0,0,0.031151,0.0027385,0.0022301,0.01446,0.01204,0.02867,1.2181e-06,0.35,0.5,0.45
0.020148,8.9964e-05,0.00071355,0.032688,0.0021156,0.0019942,0.0015743,1.1797e-05,-0.00033153,0.058783,-0.015218,-0.015596,0.0076101,-2.4933e-05,-0.0015292,0,0,0,0.032788,0.0023145,0.0016955,0.015546,0.012266,0.030789,1.6375e-06,0.4,0.5,0.45
0.023054,-0.00017198,0.00079506,0.034023,0.00072132,0.0012158,0.0015186,0.00014566,-0.00041069,0.052828,-0.015051,-0.014104,0.0065508,0.00052446,-0.0016197,0,0,0,0.034131,0.0014205,0.00040934,0.016861,0.011987,0.033231,2.1967e-06,0.45,0.5,0.45
0.025506,-0.00042496,0.00086867,0.033807,-0.00046803,0.00031074,0.0010092,0.0001622,-0.00028515,0.044387,-0.013856,-0.012343,0.0039986,0.00061788,-0.0010139,0,0,0,0.033874,0.00044491,-0.0006693,0.017272,0.011217,0.034007,2.336e-06,0.5,0.5,0.45
0.027531,-0.00055569,0.00090495,0.033811,-0.00078786,-0.00031053,0.00053862,8.2164e-05,-0.00011143,0.03915,-0.012544,-0.01158,0.0019902,0.0003255,-0.00036163,0,0,0,0.033835,-0.00022315,-0.00089945,0.017367,0.010904,0.03441,2.3167e-06,0.55,0.5,0.45
0.029419,-0.00059999,0.00091939,0.03441,-0.00087043,-0.00065416,0.0002283,2.5046e-05,-6.798e-05,0.037691,-0.012019,-0.011543,0.00076834,9.8312e-05,-0.00019584,0,0,0,0.034418,-0.00058854,-0.00094423,0.017681,0.010962,0.035189,2.4089e-06,0.6,0.5,0.45
0.031296,-0.00061433,0.00093315,0.03435,-0.0010378,-0.00081888,-9.3729e-05,2.6894e-05,-7.269e-05,0.037733,-0.012132,-0.011649,-0.00042647,0.00010445,-0.00019485,0,0,0,0.034357,-0.00075278,-0.0011111,0.017734,0.010831,0.035294,2.43e-06,0.65,0.5,0.45
0.033188,-0.00059773,0.00094695,0.033651,-0.0012985,-0.00080182,-0.00037954,8.9958e-05,-1.8602e-05,0.039319,-0.012924,-0.011918,-0.0015381,0.00035365,-1.4605e-05,0,0,0,0.033671,-0.00071175,-0.0014084,0.01754,0.010517,0.034745,2.3834e-06,0.7,0.5,0.45
0.035225,-0.00048763,0.0009395,0.033571,-0.0013702,-0.00053815,-0.00078805,0.00018129,0.00016697,0.044792,-0.014636,-0.013011,-0.0032288,0.0006902,0.00062846,0,0,0,0.033622,-0.00039581,-0.0015631,0.017592,0.010554,0.034623,2.4641e-06,0.75,0.5,0.45
0.037706,-0.00023551,0.00089381,0.033807,-0.00053631,1.7041e-05,-0.0012171,0.00016863,0.00031153,0.053721,-0.016394,-0.015322,-0.0052613,0.00061361,0.0012382,0,0,0,0.033881,0.00024384,-0.0008373,0.017359,0.011096,0.034195,2.3816e-06,0.8,0.5,0.45
0.040675,4.5998e-05,0.00084261,0.032693,0.00057503,0.00046076,-0.0012031,1.97e-05,0.00026966,0.060588,-0.01727,-0.017639,-0.0057706,3.8624e-06,0.0012467,0,0,0,0.032752,0.00083997,0.0001375,0.016307,0.011243,0.032271,1.867e-06,0.85,0.5,0.45
0.043803,0.00019793,0.00082093,0.031473,0.00076931,0.00027962,-0.00090533,-9.0858e-05,0.00018479,0.062316,-0.017513,-0.018786,-0.0047077,-0.00047246,0.00096089,0,0,0,0.031505,0.00082972,0.00018681,0.015659,0.010841,0.031003,1.5378e-06,0.9,0.5,0.45
0.046907,0.00023534,0.00081894,0.031095,0.00045698,-8.7031e-05,-0.00052138,-0.0001074,0.0001063,0.061969,-0.017691,-0.019105,-0.0027112,-0.00055847,0.00055278,0,0,0,0.03111,0.00052284,-0.00016761,0.015639,0.010488,0.030939,1.5261e-06,0.95,0.5,0.45
0.048454,0.00024025,0.00081948,0.030977,0.00033486,-0.00019235,-0.00027334,-0.00010493,5.7197e-05,0.061869,-0.017801,-0.019172,-0.0014214,-0.00054566,0.00029743,0,0,0,0.030983,0.00040829,-0.0002713,0.015627,0.010373,0.03092,1.5229e-06,1,0.5,0.45
0.00095132,-4.8198e-05,6.052e-05,0.025445,0.0097792,0.0097711,-0.0003523,-3.9662e-06,0.00045471,0.039159,-0.0015711,-0.0015922,-0.001832,-2.0624e-05,0.0023645,0,0,0,0.025489,0.0097852,0.0097204,0.0078845,0.014998,0.015737,2.0275e-07,0,0.55,0.45
0.001958,-9.8004e-05,0.00012084,0.02566,0.0087846,0.0087693,-0.0003236,-7.6054e-06,0.00043603,0.040788,-0.0030884,-0.0031282,-0.0016827,-3.9548e-05,0.0022674,0,0,0,0.0257,0.0087975,0.0087168,0.0084914,0.014405,0.016943,2.576e-07,0.05,0.55,0.45
0.0040788,-0.00019767,0.00023915,0.026466,0.0070398,0.0070106,-0.00023756,-1.4785e-05,0.00038058,0.044502,-0.0060064,-0.0060824,-0.0012353,-7.6881e-05,0.001979,0,0,0,0.026495,0.0070674,0.0069538,0.0097707,0.013505,0.019485,3.9078e-07,0.1,0.55,0.45
0.0064082,-0.00029196,0.00034935,0.027638,0.0056332,0.0055882,-8.7274e-05,-2.2824e-05,0.00028835,0.048543,-0.0086692,-0.0087864,-0.00045383,-0.00011868,0.0014994,0,0,0,0.027659,0.005675,0.0055259,0.011066,0.012953,0.022059,5.619e-07,0.15,0.55,0.45
0.0089331,-0.00037176,0.00044561,0.028807,0.0044372,0.004369,0.00013303,-3.3864e-05,0.0001624,0.05233,-0.011031,-0.011208,0.00069177,-0.00017609,0.00084446,0,0,0,0.028824,0.00449,0.004299,0.012263,0.012538,0.02443,7.5911e-07,0.2,0.55,0.45
0.011641,-0.00043226,0.00052452,0.030008,0.003501,0.003397,0.00041941,-5.0057e-05,1.1132e-05,0.055877,-0.013041,-0.013311,0.002181,-0.0002603,5.7886e-05,0,0,0,0.03003,0.0035601,0.0033152,0.013358,0.012302,0.026594,9.7594e-07,0.25,0.55,0.45
0.014521,-0.00047725,0.00058668,0.031269,0.002897,0.0027438,0.00073202,-7.0996e-05,-0.00014633,0.059153,-0.014614,-0.015012,0.0038065,-0.00036918,-0.00076091,0,0,0,0.031306,0.0029594,0.0026445,0.014331,0.012303,0.028506,1.1991e-06,0.3,0.55,0.45
0.017556,-0.00054132,0.00064265,0.03294,0.0026518,0.0025085,0.00095035,-5.3179e-05,-0.00026254,0.061544,-0.015612,-0.015988,0.0049633,-0.0002748,-0.0013723,0,0,0,0.032991,0.0027366,0.0023729,0.015309,0.0127,0.030438,1.5203e-06,0.35,0.55,0.45
0.02069,-0.00068955,0.00071574,0.034681,0.0020756,0.0020981,0.0010029,4.3435e-05,-0.00034272,0.05941,-0.015493,-0.015493,0.0048204,0.00015637,-0.001592,0,0,0,0.034743,0.0022913,0.0018198,0.016462,0.012952,0.032692,1.9988e-06,0.4,0.55,0.45
0.023545,-0.00090586,0.00080729,0.035015,0.00068062,0.0009488,0.00076296,9.8541e-05,-0.00031828,0.050393,-0.014055,-0.013566,0.0030908,0.00039585,-0.0012185,0,0,0,0.035072,0.001124,0.00044803,0.017312,0.012215,0.034294,2.3201e-06,0.45,0.55,0.45
0.025769,-0.0010713,0.00087699,0.0347,-0.00044053,-0.00012587,0.0003784,4.0343e-05,-0.00016177,0.040933,-0.012419,-0.011861,0.001274,0.00020003,-0.00050494,0,0,0,0.034725,1.1479e-05,-0.00060365,0.017665,0.011378,0.035029,2.3784e-06,0.5,0.55,0.45
0.027633,-0.0011426,0.00090625,0.035394,-0.000667,-0.00054299,0.0002345,2.795e-06,-7.7213e-05,0.037113,-0.011555,-0.01134,0.00067758,3.9447e-05,-0.00019084,0,0,0,0.035399,-0.00045744,-0.00075741,0.018078,0.011395,0.036009,2.4674e-06,0.55,0.55,0.45
0.029468,-0.0011733,0.00091963,0.036155,-0.00067761,-0.00068103,0.00017661,2.0322e-05,-8.0006e-05,0.036714,-0.011369,-0.011371,0.00047216,5.6524e-05,-0.00020362,0,0,0,0.036157,-0.00059819,-0.00076269,0.01846,0.011599,0.036838,2.5794e-06,0.6,0.55,0.45
0.031304,-0.0011931,0.00093356,0.036101,-0.00085468,-0.00085783,3.4081e-05,2.208e-05,-6.89e-05,0.036767,-0.011478,-0.01148,7.6386e-05,6.098e-05,-0.00018352,0,0,0,0.036102,-0.00077544,-0.0009385,0.01852,0.011463,0.03696,2.6049e-06,0.65,0.55,0.45
0.033143,-0.0012023,0.00094874,0.035266,-0.0011953,-0.0010688,-2.5102e-05,7.2587e-06,-6.0612e-05,0.037316,-0.011907,-0.011686,-0.00011744,5.1594e-05,-0.00017538,0,0,0,0.03527,-0.00098164,-0.0012858,0.018278,0.011001,0.036406,2.549e-06,0.7,0.55,0.45
0.035023,-0.0011707,0.00094941,0.034551,-0.0013384,-0.0010094,-0.00015836,5.2479e-05,3.905e-05,0.041422,-0.01312,-0.012531,-0.00060219,0.00024105,0.00014251,0,0,0,0.034571,-0.00086241,-0.0015053,0.018038,0.010734,0.035763,2.5298e-06,0.75,0.55,0.45
0.03728,-0.0010366,0.00090895,0.03493,-0.00057712,-0.00028405,-0.00052266,0.00012069,0.00021355,0.051449,-0.01533,-0.014785,-0.0021633,0.00048042,0.00083848,0,0,0,0.034971,-9.0848e-05,-0.00081155,0.017891,0.011356,0.035431,2.5518e-06,0.8,0.55,0.45
0.040209,-0.00084076,0.00084689,0.034856,0.00049258,0.00052467,-0.00075653,6.0959e-05,0.00026862,0.061514,-0.017602,-0.017576,-0.0036578,0.00023047,0.0012606,0,0,0,0.034895,0.00074765,0.00023057,0.017332,0.011958,0.03441,2.3104e-06,0.85,0.55,0.45
0.043483,-0.00071621,0.0008112,0.033611,0.00063371,0.00047021,-0.00069521,-5.0597e-05,0.00022619,0.065288,-0.018791,-0.019216,-0.0036488,-0.00026349,0.0011876,0,0,0,0.033635,0.00075196,0.00032757,0.016654,0.011572,0.033098,1.9357e-06,0.9,0.55,0.45
0.046754,-0.00068778,0.00080545,0.032673,0.00024803,4.6158e-05,-0.00042871,-8.165e-05,0.00014254,0.06517,-0.019136,-0.01966,-0.0022293,-0.00042458,0.00074123,0,0,0,0.032685,0.00034592,-6.3306e-05,0.016374,0.010989,0.032546,1.7759e-06,0.95,0.55,0.45
0.048381,-0.00068844,0.00080648,0.032459,9.864e-05,-9.0215e-05,-0.0002388,-7.6567e-05,8.0311e-05,0.064913,-0.019224,-0.019715,-0.0012418,-0.00039815,0.00041761,0,0,0,0.032464,0.00019612,-0.00019239,0.016328,0.010822,0.032464,1.762e-06,1,0.55,0.45
0.00095648,-0.00012896,6.0036e-05,0.02558,0.0097863,0.0098101,-0.00097304,-3.1755e-06,0.00045066,0.039401,-0.0016613,-0.0015993,-0.0050598,-1.6513e-05,0.0023434,0,0,0,0.025677,0.0098102,0.0096889,0.007994,0.015059,0.015928,2.1027e-07,0,0.6,0.45
0.0019701,-0.0002567,0.00011991,0.025805,0.0087475,0.0087947,-0.00093886,-6.079e-06,0.00043148,0.041084,-0.0032646,-0.0031418,-0.0048821,-3.1611e-05,0.0022437,0,0,0,0.025891,0.0087961,0.0086597,0.0086156,0.014449,0.017164,2.6795e-07,0.05,0.6,0.45
0.0041084,-0.00050624,0.00023735,0.026647,0.006926,0.0070171,-0.00083746,-1.1559e-05,0.00037442,0.044928,-0.0063463,-0.0061095,-0.0043548,-6.0105e-05,0.001947,0,0,0,0.02671,0.0070232,0.0068564,0.0099269,0.01353,0.019771,4.0841e-07,0.1,0.6,0.45
0.0064628,-0.00073756,0.00034663,0.027883,0.0054632,0.0055881,-0.00067149,-1.6792e-05,0.00027888,0.049136,-0.0091564,-0.0088317,-0.0034917,-8.7318e-05,0.0014502,0,0,0,0.027925,0.0056021,0.0054072,0.011259,0.012978,0.022422,5.9025e-07,0.15,0.6,0.45
0.0090219,-0.00093971,0.00044169,0.029152,0.0042299,0.0043727,-0.00045103,-2.2617e-05,0.00014668,0.053143,-0.011655,-0.011284,-0.0023453,-0.00011761,0.00076276,0,0,0,0.029179,0.0043967,0.004179,0.0125,0.012585,0.024892,8.0325e-07,0.2,0.6,0.45
0.011777,-0.0011059,0.00051886,0.03053,0.0032822,0.0034249,-0.00019369,-3.0003e-05,-1.6391e-05,0.057036,-0.013809,-0.013438,-0.0010072,-0.00015602,-8.5232e-05,0,0,0,0.030551,0.0034605,0.0032255,0.013663,0.012412,0.027209,1.0457e-06,0.25,0.6,0.45
0.014726,-0.0012355,0.00057846,0.03205,0.0026908,0.0028172,6.5584e-05,-4.0047e-05,-0.00018638,0.060795,-0.015539,-0.01521,0.00034104,-0.00020825,-0.00096917,0,0,0,0.032074,0.0028726,0.0026112,0.014732,0.012519,0.029333,1.307e-06,0.3,0.6,0.45
0.017857,-0.0013459,0.00063741,0.034614,0.0024571,0.0025583,0.00026431,-3.0058e-05,-0.00030455,0.062501,-0.016329,-0.016079,0.0013786,-0.00015002,-0.0016051,0,0,0,0.034645,0.0026412,0.0023432,0.016151,0.01321,0.032155,1.8922e-06,0.35,0.6,0.45
0.021021,-0.0014639,0.00072017,0.036547,0.0020331,0.0021002,0.00031512,8.6824e-06,-0.00029183,0.058378,-0.015389,-0.015243,0.0015218,4.2333e-05,-0.0014629,0,0,0,0.036582,0.0022087,0.0018896,0.017346,0.01356,0.034535,2.4884e-06,0.4,0.6,0.45
0.023768,-0.0015805,0.00081279,0.035823,0.00087353,0.00089905,0.00022317,1.1795e-05,-0.0001633,0.048425,-0.013267,-0.013218,0.00083385,7.7252e-05,-0.00064787,0,0,0,0.035849,0.0010562,0.00069039,0.017579,0.012532,0.034978,2.4732e-06,0.45,0.6,0.45
0.025873,-0.0016623,0.00087578,0.035367,-0.00026307,-0.00026635,0.00016153,-2.2493e-05,-8.5897e-05,0.039483,-0.011704,-0.011706,0.00040892,-3.9328e-05,-0.00019948,0,0,0,0.035377,-9.276e-05,-0.00044624,0.017911,0.011613,0.035648,2.4093e-06,0.5,0.6,0.45
0.027696,-0.001707,0.00090444,0.035908,-0.00060194,-0.00061258,0.00018526,-2.1797e-05,-0.00010816,0.03643,-0.011241,-0.011255,0.00047407,-5.2106e-05,-0.00027312,0,0,0,0.03591,-0.00050393,-0.00071261,0.018311,0.011565,0.036519,2.5117e-06,0.55,0.6,0.45
0.029515,-0.0017365,0.00092066,0.036008,-0.00060717,-0.00061632,0.00017086,3.1157e-07,-0.00010181,0.036375,-0.011225,-0.011237,0.00044424,8.1013e-07,-0.00026471,0,0,0,0.03601,-0.00054824,-0.00067657,0.018343,0.011595,0.036622,2.5229e-06,0.6,0.6,0.45
0.031334,-0.0017617,0.00093475,0.035961,-0.00077971,-0.00079535,0.00010201,3.3052e-06,-4.6153e-05,0.036433,-0.011329,-0.01135,0.00026524,8.5935e-06,-0.00012,0,0,0,0.035961,-0.0007229,-0.00085281,0.018407,0.011462,0.036749,2.5494e-06,0.65,0.6,0.45
0.033158,-0.001784,0.00094724,0.035797,-0.0011308,-0.0011622,6.7536e-05,-1.3709e-05,-3.2217e-05,0.036645,-0.011574,-0.011615,0.00018495,-3.1444e-05,-9.2852e-05,0,0,0,0.035798,-0.0010377,-0.0012562,0.018527,0.011168,0.036946,2.601e-06,0.7,0.6,0.45
0.034997,-0.0017953,0.00094901,0.035272,-0.0011308,-0.0011678,4.8714e-05,-8.1649e-06,-3.9169e-05,0.040008,-0.012345,-0.012395,0.00017678,3.0986e-06,-0.00015546,0,0,0,0.035281,-0.00096382,-0.0013433,0.018312,0.010991,0.036437,2.5712e-06,0.75,0.6,0.45
0.037138,-0.0017729,0.00091662,0.035826,-0.00033183,-0.00035155,-6.9766e-05,3.4223e-05,5.7201e-05,0.049528,-0.014415,-0.014443,-0.00031922,0.00015812,0.00027033,0,0,0,0.035848,-0.00015527,-0.00054982,0.018199,0.011714,0.036203,2.7441e-06,0.8,0.6,0.45
0.039963,-0.0017206,0.00085395,0.03681,0.00045618,0.00046468,-0.00023306,3.2676e-05,0.00021072,0.060553,-0.017366,-0.017341,-0.0011976,0.00014301,0.0011065,0,0,0,0.036834,0.00061306,0.00028297,0.018276,0.012577,0.036388,2.8853e-06,0.85,0.6,0.45
0.043275,-0.0016827,0.0008073,0.03542,0.00046008,0.00049032,-0.00027625,-1.2048e-05,0.00025728,0.066458,-0.019454,-0.019377,-0.0014608,-6.3172e-05,0.0013719,0,0,0,0.035437,0.00061163,0.00032252,0.017557,0.012124,0.034971,2.3848e-06,0.9,0.6,0.45
0.046658,-0.0016782,0.00079707,0.033699,0.00010695,0.00014936,-0.00018061,-2.7743e-05,0.00016866,0.067245,-0.020095,-0.019985,-0.00093915,-0.00014426,0.00087701,0,0,0,0.033706,0.00024295,6.3912e-06,0.01685,0.011319,0.033583,1.9483e-06,0.95,0.6,0.45
0.048336,-0.0016821,0.00079902,0.0334,-5.1948e-05,-5.3367e-06,-0.00010769,-2.4034e-05,9.8456e-05,0.066834,-0.020141,-0.020019,-0.00055999,-0.00012498,0.00051197,0,0,0,0.033403,7.5053e-05,-0.00013543,0.016769,0.011114,0.033434,1.9216e-06,1,0.6,0.45
0.00095873,-0.00021432,5.9677e-05,0.025634,0.0097587,0.0098227,-0.0016285,-2.1126e-06,0.00044792,0.03952,-0.0017568,-0.0015904,-0.008468,-1.0985e-05,0.0023292,0,0,0,0.025838,0.0098176,0.0095602,0.0081389,0.015072,0.016151,2.1906e-07,0,0.65,0.45
0.001976,-0.00042447,0.00011923,0.025861,0.0086701,0.008797,-0.0015872,-4.0209e-06,0.00042885,0.041242,-0.0034545,-0.0031247,-0.0082537,-2.0909e-05,0.00223,0,0,0,0.026043,0.0087887,0.0084965,0.0087731,0.014443,0.017402,2.7902e-07,0.05,0.65,0.45
0.0041242,-0.00083229,0.00023608,0.026711,0.0067587,0.0070022,-0.0014664,-7.2564e-06,0.00037213,0.045165,-0.0067102,-0.0060772,-0.0076251,-3.7733e-05,0.0019351,0,0,0,0.026847,0.0069909,0.0066333,0.010107,0.013491,0.020038,4.2461e-07,0.1,0.65,0.45
0.0064925,-0.0012076,0.00034491,0.027952,0.0052309,0.0055615,-0.0012811,-8.9617e-06,0.00027711,0.049428,-0.0096461,-0.0087865,-0.0066617,-4.6601e-05,0.001441,0,0,0,0.028046,0.0055518,0.005146,0.01145,0.012915,0.022701,6.1157e-07,0.15,0.65,0.45
0.0090669,-0.0015373,0.00043966,0.02921,0.0039665,0.004339,-0.0010645,-8.3119e-06,0.00014558,0.053437,-0.012197,-0.011228,-0.0055356,-4.3222e-05,0.00075701,0,0,0,0.029274,0.0043326,0.0039097,0.012682,0.012505,0.025156,8.2757e-07,0.2,0.65,0.45
0.011836,-0.0018131,0.00051669,0.030563,0.0030221,0.0033892,-0.00085889,-4.2821e-06,-1.6635e-05,0.057279,-0.014327,-0.013373,-0.0044662,-2.2267e-05,-8.6504e-05,0,0,0,0.030608,0.0033861,0.0029798,0.013814,0.012325,0.027428,1.0695e-06,0.25,0.65,0.45
0.014795,-0.0020311,0.00057633,0.032048,0.0024602,0.0027831,-0.00068313,4.2166e-06,-0.00018551,0.06095,-0.015978,-0.015139,-0.0035523,2.1926e-05,-0.00096465,0,0,0,0.032086,0.0027898,0.0024151,0.014836,0.01243,0.029486,1.3258e-06,0.3,0.65,0.45
0.017931,-0.0021774,0.00063552,0.034574,0.0022731,0.0025292,-0.00049621,-8.1606e-06,-0.00030265,0.062551,-0.016656,-0.016004,-0.0026362,-3.5083e-05,-0.0015953,0,0,0,0.034611,0.0025633,0.0022023,0.016204,0.013125,0.03223,1.9019e-06,0.35,0.65,0.45
0.021095,-0.0022349,0.00071859,0.036473,0.001895,0.0020757,-0.00024195,-5.2255e-05,-0.00028966,0.05834,-0.015595,-0.015174,-0.0013727,-0.00022062,-0.0014524,0,0,0,0.036508,0.0021526,0.0017835,0.017362,0.013481,0.034542,2.4876e-06,0.4,0.65,0.45
0.023838,-0.0022353,0.0008114,0.035723,0.00078129,0.0008806,4.5325e-05,-6.0452e-05,-0.00016178,0.04834,-0.013361,-0.013164,-6.6492e-06,-0.00024133,-0.00064195,0,0,0,0.035748,0.001021,0.00061603,0.017566,0.012462,0.034932,2.4635e-06,0.45,0.65,0.45
0.025939,-0.0022405,0.00087453,0.035249,-0.00029865,-0.00027425,0.00021859,-2.6867e-05,-8.5028e-05,0.03937,-0.011708,-0.011664,0.00063556,-0.00010064,-0.00019764,0,0,0,0.035259,-0.00010679,-0.0004761,0.017868,0.011559,0.035553,2.39e-06,0.5,0.65,0.45
0.027756,-0.0022661,0.0009034,0.035775,-0.00058725,-0.00061265,0.00022426,-2.3318e-05,-0.00010718,0.036292,-0.011186,-0.011219,0.0005946,-6.5519e-05,-0.00027101,0,0,0,0.035778,-0.00048927,-0.00071308,0.018245,0.011525,0.03638,2.483e-06,0.55,0.65,0.45
0.029567,-0.0022958,0.00091982,0.035871,-0.00055888,-0.00061247,0.00018186,-3.8814e-05,-0.00010033,0.036222,-0.011136,-0.011206,0.00047284,-0.00010092,-0.00026086,0,0,0,0.035872,-0.00050677,-0.00066595,0.018269,0.011566,0.036459,2.489e-06,0.6,0.65,0.45
0.031378,-0.002326,0.00093411,0.035828,-0.00071459,-0.00078941,0.00014486,-3.4392e-05,-4.4196e-05,0.036279,-0.011226,-0.011323,0.00037663,-8.942e-05,-0.00011491,0,0,0,0.035829,-0.00066733,-0.00083754,0.018333,0.011441,0.036581,2.5143e-06,0.65,0.65,0.45
0.033195,-0.0023591,0.00094682,0.035675,-0.0010677,-0.0011566,6.0498e-05,-9.3336e-06,-2.9916e-05,0.036501,-0.011475,-0.011591,0.00014787,-2.8664e-05,-8.6657e-05,0,0,0,0.035676,-0.00098952,-0.0012359,0.018456,0.01115,0.03679,2.5684e-06,0.7,0.65,0.45
0.035027,-0.0024039,0.00094883,0.035167,-0.0010851,-0.0011646,-2.4202e-05,-5.3143e-06,-3.7189e-05,0.039875,-0.012261,-0.012372,-0.00012481,-3.8806e-05,-0.00014969,0,0,0,0.035175,-0.00093979,-0.0013183,0.018247,0.010972,0.036306,2.5443e-06,0.75,0.65,0.45
0.037161,-0.0024822,0.00091678,0.035733,-0.00031399,-0.00035386,2.1647e-05,-3.6495e-05,5.817e-05,0.049393,-0.014355,-0.014415,0.00013587,-0.00015989,0.00027341,0,0,0,0.035754,-0.00015362,-0.00053544,0.018145,0.011688,0.036101,2.7235e-06,0.8,0.65,0.45
0.039979,-0.0025867,0.00085446,0.036727,0.0004487,0.00045702,0.00015393,-2.5751e-05,0.00021091,0.060417,-0.017333,-0.017307,0.00086625,-0.0001073,0.001107,0,0,0,0.03675,0.00060342,0.00027852,0.018236,0.012544,0.036311,2.87e-06,0.85,0.65,0.45
0.043285,-0.0026663,0.00080802,0.03535,0.00043703,0.00048079,0.00020806,2.4122e-05,0.00025723,0.06634,-0.019452,-0.019341,0.0011342,0.00012555,0.0013715,0,0,0,0.035365,0.00059905,0.00030361,0.017531,0.012089,0.034915,2.3747e-06,0.9,0.65,0.45
0.046663,-0.0026973,0.00079786,0.03364,7.4213e-05,0.00013935,0.00013447,4.2218e-05,0.00016863,0.067151,-0.020119,-0.01995,0.00069926,0.00021953,0.00087688,0,0,0,0.033646,0.00022782,-2.0652e-05,0.016833,0.011284,0.033543,1.9417e-06,0.95,0.65,0.45
0.048338,-0.0027025,0.00079983,0.033343,-8.8682e-05,-1.5665e-05,6.9517e-05,3.9232e-05,9.8493e-05,0.066749,-0.020174,-0.019984,0.00036149,0.00020401,0.00051216,0,0,0,0.033346,5.7467e-05,-0.00016466,0.016755,0.01108,0.033401,1.9161e-06,1,0.65,0.45
0.00095861,-0.00030464,5.9475e-05,0.025622,0.0096958,0.0098121,-0.0023174,-1.0152e-06,0.00044675,0.03954,-0.0018691,-0.0015666,-0.012051,-5.279e-06,0.0023231,0,0,0,0.025992,0.0098062,0.0093323,0.0083297,0.015043,0.016428,2.2999e-07,0,0.7,0.45
0.001977,-0.00060215,0.00011885,0.025841,0.0085449,0.0087764,-0.0022615,-1.9207e-06,0.00042839,0.04129,-0.0036808,-0.0030791,-0.01176,-9.9876e-06,0.0022276,0,0,0,0.026171,0.008767,0.0082247,0.0089732,0.014388,0.017682,2.9173e-07,0.05,0.7,0.45
0.004129,-0.0011773,0.00023546,0.026667,0.0065193,0.0069612,-0.0020991,-2.9999e-06,0.0003739,0.045247,-0.0071385,-0.0059897,-0.010915,-1.56e-05,0.0019443,0,0,0,0.026915,0.0069488,0.0062839,0.010316,0.013383,0.020308,4.4022e-07,0.1,0.7,0.45
0.0065017,-0.0017022,0.00034436,0.027849,0.0049148,0.0055009,-0.0018607,-1.589e-06,0.00028314,0.049449,-0.01018,-0.0086565,-0.0096756,-8.263e-06,0.0014723,0,0,0,0.028022,0.005491,0.0047522,0.011635,0.012755,0.02291,6.2593e-07,0.15,0.7,0.45
0.0090739,-0.0021594,0.00043974,0.028981,0.0036311,0.0042602,-0.0016069,4.4514e-06,0.00015911,0.053228,-0.012683,-0.011047,-0.0083558,2.3147e-05,0.00082735,0,0,0,0.029099,0.004255,0.0035188,0.01279,0.012291,0.025221,8.3062e-07,0.2,0.7,0.45
0.011824,-0.0025387,0.00051823,0.030103,0.0027138,0.0032829,-0.0014043,1.7305e-05,1.0269e-05,0.056607,-0.014604,-0.013124,-0.0073023,8.9987e-05,5.34e-05,0,0,0,0.030188,0.0032846,0.0026268,0.013781,0.012033,0.027239,1.0439e-06,0.25,0.7,0.45
0.014735,-0.0028333,0.00058048,0.031256,0.0022057,0.0026357,-0.0012703,3.6473e-05,-0.00014418,0.059607,-0.015924,-0.014806,-0.0066057,0.00018966,-0.00074972,0,0,0,0.031326,0.0026524,0.0021186,0.014604,0.012032,0.028945,1.2515e-06,0.3,0.7,0.45
0.017785,-0.0030152,0.00063707,0.03281,0.0020984,0.0024126,-0.0011131,1.739e-05,-0.00025726,0.061675,-0.016583,-0.015772,-0.0058267,9.324e-05,-0.001345,0,0,0,0.03287,0.0024522,0.0019987,0.015436,0.01244,0.030647,1.5469e-06,0.35,0.7,0.45
0.020917,-0.0030307,0.00071113,0.034432,0.0016512,0.0020119,-0.00086933,-8.3633e-05,-0.00033527,0.059261,-0.016109,-0.015286,-0.0043229,-0.00033519,-0.0015564,0,0,0,0.034486,0.002094,0.0015152,0.016485,0.012698,0.032687,1.991e-06,0.4,0.7,0.45
0.023759,-0.0029198,0.00080339,0.034685,0.00039414,0.00088201,-0.00043638,-0.00014454,-0.00031137,0.05009,-0.014335,-0.013396,-0.001973,-0.00056087,-0.0011905,0,0,0,0.03473,0.0010123,0.00021915,0.017255,0.011987,0.034124,2.2805e-06,0.45,0.7,0.45
0.025965,-0.0028319,0.0008735,0.034343,-0.00054354,-0.00015387,3.3407e-05,-8.6659e-05,-0.00015767,0.040566,-0.01242,-0.011731,-5.5416e-05,-0.00033752,-0.00049229,0,0,0,0.034364,-2.6144e-05,-0.00069195,0.017528,0.011215,0.034731,2.3166e-06,0.5,0.7,0.45
0.02781,-0.0028249,0.00090324,0.03501,-0.00060965,-0.00054086,0.00018359,-4.5524e-05,-7.4425e-05,0.036693,-0.011377,-0.011234,0.00045329,-0.0001538,-0.00018423,0,0,0,0.035014,-0.00040932,-0.00074516,0.017879,0.011286,0.035594,2.383e-06,0.55,0.7,0.45
0.029622,-0.0028501,0.00091723,0.035749,-0.00051812,-0.00066523,0.00017514,-5.8408e-05,-7.5864e-05,0.036253,-0.01109,-0.011281,0.00044732,-0.0001558,-0.00019307,0,0,0,0.035751,-0.00046558,-0.00071969,0.018235,0.011522,0.036345,2.4765e-06,0.6,0.7,0.45
0.031435,-0.0028843,0.00093177,0.035709,-0.00064963,-0.0008364,0.00019662,-5.3035e-05,-6.2758e-05,0.036304,-0.011159,-0.011402,0.0005233,-0.00014195,-0.00016739,0,0,0,0.035711,-0.00060518,-0.00088289,0.018297,0.011408,0.036456,2.4992e-06,0.65,0.7,0.45
0.033252,-0.0029309,0.00094758,0.034916,-0.001003,-0.0010491,0.00012482,-2.9189e-05,-5.3899e-05,0.036882,-0.011598,-0.011615,0.00036955,-0.00011022,-0.00015694,0,0,0,0.03492,-0.00084862,-0.0012072,0.018064,0.010955,0.03595,2.455e-06,0.7,0.7,0.45
0.03511,-0.0030203,0.00094901,0.034243,-0.0012046,-0.0010009,0.00014797,-6.3667e-05,4.3737e-05,0.041011,-0.012857,-0.01246,0.00053751,-0.00027153,0.00015621,0,0,0,0.034261,-0.0008065,-0.0014174,0.017839,0.010679,0.03538,2.4499e-06,0.75,0.7,0.45
0.037347,-0.0032125,0.00090957,0.034648,-0.00052935,-0.00029515,0.00044184,-0.00012081,0.00021522,0.051031,-0.015144,-0.0147,0.0018362,-0.00047525,0.00084363,0,0,0,0.034685,-9.3722e-05,-0.00076812,0.017727,0.011274,0.035123,2.4858e-06,0.8,0.7,0.45
0.040254,-0.0034632,0.00084849,0.034613,0.000468,0.00050011,0.00065454,-5.3153e-05,0.0002689,0.061111,-0.01751,-0.017477,0.0031856,-0.00019076,0.0012615,0,0,0,0.034647,0.00071742,0.00021648,0.017215,0.01186,0.034184,2.2664e-06,0.85,0.7,0.45
0.04351,-0.0036326,0.00081336,0.033412,0.00056219,0.00044116,0.00060993,6.2968e-05,0.00022635,0.064953,-0.018797,-0.019112,0.0032146,0.00032768,0.0011883,0,0,0,0.033432,0.00070292,0.00027982,0.016576,0.011472,0.032944,1.9102e-06,0.9,0.7,0.45
0.046766,-0.0036901,0.00080782,0.0325,0.00014511,1.4487e-05,0.00037059,9.6668e-05,0.00014274,0.064905,-0.019219,-0.019558,0.0019271,0.00050268,0.00074225,0,0,0,0.03251,0.00027817,-0.00012832,0.016319,0.010887,0.032438,1.7587e-06,0.95,0.7,0.45
0.048387,-0.0036995,0.00080892,0.032295,-1.6066e-05,-0.00012308,0.00019311,9.2485e-05,8.0566e-05,0.064673,-0.019335,-0.019613,0.0010042,0.00048092,0.00041894,0,0,0,0.032299,0.00011937,-0.00026249,0.016281,0.010718,0.032372,1.7475e-06,1,0.7,0.45
0.00095796,-0.00040124,5.9442e-05,0.025589,0.0095983,0.0097902,-0.0030447,-4.031e-08,0.00044713,0.039545,-0.0020309,-0.0015322,-0.015833,-2.0962e-07,0.0023251,0,0,0,0.026189,0.0097844,0.0090041,0.0085926,0.014993,0.01681,2.4515e-07,0,0.75,0.45
0.0019773,-0.00079255,0.0001188,0.025791,0.0083552,0.0087373,-0.0029577,-1.1213e-07,0.00042991,0.041327,-0.0040066,-0.0030131,-0.01538,-5.831e-07,0.0022355,0,0,0,0.026321,0.0087283,0.0078338,0.0092438,0.014295,0.018059,3.0864e-07,0.05,0.75,0.45
0.0041327,-0.0015461,0.00023548,0.026565,0.0061657,0.0068878,-0.0027085,4.1663e-07,0.00037899,0.045298,-0.0077402,-0.0058628,-0.014084,2.1664e-06,0.0019707,0,0,0,0.026953,0.0068761,0.0057894,0.010582,0.013206,0.020644,4.5864e-07,0.1,0.75,0.45
0.006507,-0.0022256,0.00034489,0.027636,0.0044687,0.0053985,-0.0023522,3.7048e-06,0.00029501,0.049352,-0.010883,-0.0084659,-0.012231,1.9265e-05,0.0015341,0,0,0,0.027896,0.0053897,0.0042179,0.011839,0.012501,0.023116,6.3779e-07,0.15,0.75,0.45
0.0090678,-0.0028055,0.00044154,0.028562,0.0031884,0.0041359,-0.0019863,1.248e-05,0.00018258,0.052729,-0.013242,-0.010778,-0.010329,6.4897e-05,0.00094939,0,0,0,0.02873,0.0041329,0.0030224,0.012854,0.011962,0.025173,8.2034e-07,0.2,0.75,0.45
0.01178,-0.0032735,0.00052242,0.029357,0.0023408,0.0031323,-0.0017025,2.8729e-05,5.202e-05,0.05543,-0.014812,-0.012754,-0.0088528,0.00014939,0.0002705,0,0,0,0.029473,0.0031395,0.0022173,0.013628,0.01161,0.026808,9.9041e-07,0.25,0.75,0.45
0.014611,-0.0036235,0.00058786,0.030081,0.0019117,0.0024353,-0.001532,4.9061e-05,-8.292e-05,0.057554,-0.015687,-0.014325,-0.0079663,0.00025512,-0.00043118,0,0,0,0.030173,0.0024628,0.0017927,0.01419,0.011476,0.028052,1.1364e-06,0.3,0.75,0.45
0.017535,-0.0038371,0.00064326,0.030831,0.0018314,0.0021315,-0.0013904,4.7134e-05,-0.00019625,0.059284,-0.016115,-0.015334,-0.0072301,0.0002451,-0.0010205,0,0,0,0.030907,0.0021834,0.001703,0.014602,0.011598,0.028968,1.2544e-06,0.35,0.75,0.45
0.020539,-0.0038516,0.00070629,0.032253,0.0014289,0.0018368,-0.001317,-4.8359e-05,-0.00031927,0.05847,-0.016203,-0.015262,-0.0064213,-0.00014927,-0.0014697,0,0,0,0.032326,0.0019253,0.0012673,0.015529,0.01184,0.030737,1.6208e-06,0.4,0.75,0.45
0.023419,-0.0036729,0.00078923,0.033441,0.00025895,0.0010879,-0.0010861,-0.00018794,-0.00039584,0.052214,-0.015496,-0.013811,-0.0048196,-0.00069251,-0.0015567,0,0,0,0.033512,0.0012159,5.9627e-05,0.016726,0.011596,0.032894,2.1229e-06,0.45,0.75,0.45
0.025836,-0.0034785,0.00086359,0.033182,-0.00063765,0.00024363,-0.0005282,-0.00020339,-0.00027269,0.043663,-0.013829,-0.012116,-0.0023429,-0.00075572,-0.00096823,0,0,0,0.033225,0.00037496,-0.00081193,0.017019,0.010929,0.033467,2.2246e-06,0.5,0.75,0.45
0.027824,-0.0033997,0.00090046,0.033192,-0.00067612,-0.00031347,-9.8462e-05,-0.00011948,-0.00010296,0.038389,-0.012182,-0.011405,-0.00064278,-0.00043526,-0.00033431,0,0,0,0.033206,-0.00016617,-0.00083731,0.017022,0.010734,0.03372,2.182e-06,0.55,0.75,0.45
0.029672,-0.0034045,0.00091573,0.0338,-0.00057111,-0.00061681,0.00011064,-6.0636e-05,-6.0005e-05,0.036902,-0.011467,-0.011399,0.00020222,-0.00019827,-0.00017222,0,0,0,0.033806,-0.00040821,-0.00078536,0.017296,0.010871,0.034406,2.2559e-06,0.6,0.75,0.45
0.03151,-0.0034416,0.00093048,0.033771,-0.0006705,-0.0007694,0.00028581,-5.589e-05,-6.3236e-05,0.036954,-0.011515,-0.011525,0.00095285,-0.00018622,-0.00016777,0,0,0,0.033779,-0.00052385,-0.00092393,0.017351,0.010777,0.034506,2.275e-06,0.65,0.75,0.45
0.033363,-0.003515,0.00094534,0.033121,-0.00097015,-0.00076392,0.00042314,-0.00010743,-1.0016e-05,0.038575,-0.012338,-0.011805,0.0016206,-0.00040357,1.0471e-05,0,0,0,0.03314,-0.00054167,-0.0012115,0.017176,0.010462,0.034027,2.2422e-06,0.7,0.75,0.45
0.035364,-0.0036857,0.00093919,0.033083,-0.0011536,-0.00052883,0.00071516,-0.00018738,0.00017163,0.044067,-0.014151,-0.012893,0.002919,-0.00070695,0.00064341,0,0,0,0.033128,-0.0003352,-0.0013923,0.01726,0.010467,0.03401,2.3386e-06,0.75,0.75,0.45
0.037809,-0.0040009,0.00089513,0.033364,-0.00046623,-6.5478e-06,0.0010788,-0.00016576,0.00031321,0.053015,-0.016075,-0.015184,0.0046513,-0.00059846,0.0012454,0,0,0,0.033428,0.00022888,-0.00076527,0.017096,0.010964,0.03371,2.2816e-06,0.8,0.75,0.45
0.040743,-0.0043438,0.00084534,0.032325,0.00052652,0.00041842,0.0010559,-1.0959e-05,0.00027096,0.059961,-0.017141,-0.017485,0.0050463,4.0075e-05,0.0012535,0,0,0,0.032373,0.00078553,0.00011157,0.016131,0.01109,0.031931,1.8072e-06,0.85,0.75,0.45
0.043843,-0.0045476,0.00082447,0.031168,0.0006394,0.00022779,0.00078768,0.00010398,0.00018611,0.061816,-0.017559,-0.018629,0.0040959,0.00054071,0.00096776,0,0,0,0.031194,0.00072532,0.00011636,0.015539,0.010678,0.030778,1.5054e-06,0.9,0.75,0.45
0.046925,-0.0046192,0.00082288,0.030822,0.00027193,-0.00014677,0.00044399,0.00012371,0.00010727,0.061568,-0.017861,-0.01895,0.0023087,0.00064332,0.00055778,0,0,0,0.030833,0.00037064,-0.00025719,0.015545,0.010316,0.030782,1.5038e-06,0.95,0.75,0.45
0.048463,-0.004636,0.00082355,0.030714,0.00013043,-0.0002551,0.00021536,0.00012235,5.794e-05,0.061502,-0.018014,-0.019017,0.0011199,0.00063623,0.00030129,0,0,0,0.030718,0.00023844,-0.00036753,0.015543,0.010196,0.030788,1.5042e-06,1,0.75,0.45
0.00096046,-0.00050773,5.9578e-05,0.025624,0.009464,0.0097795,-0.0038253,7.8651e-07,0.00044892,0.039703,-0.0023143,-0.001494,-0.019891,4.0898e-06,0.0023344,0,0,0,0.026526,0.0097739,0.0085681,0.0089789,0.014956,0.017389,2.6879e-07,0,0.8,0.45
0.0019851,-0.0010028,0.00011906,0.025794,0.0080635,0.0086871,-0.0036748,1.3323e-06,0.00043299,0.041537,-0.0045613,-0.0029401,-0.019109,6.9278e-06,0.0022515,0,0,0,0.026574,0.0086784,0.0072915,0.0096414,0.014181,0.018631,3.3461e-07,0.05,0.8,0.45
0.0041537,-0.0019513,0.0002361,0.02648,0.0056194,0.006769,-0.0032586,2.7854e-06,0.00038613,0.045528,-0.0087109,-0.0057219,-0.016945,1.4484e-05,0.0020079,0,0,0,0.027019,0.0067578,0.005092,0.010963,0.012956,0.021147,4.8558e-07,0.1,0.8,0.45
0.0065379,-0.0027905,0.00034627,0.027396,0.0038264,0.0052397,-0.0026907,6.5205e-06,0.0003098,0.049352,-0.011928,-0.008254,-0.013992,3.3907e-05,0.0016109,0,0,0,0.027726,0.0052315,0.0035044,0.012111,0.012154,0.023409,6.5337e-07,0.15,0.8,0.45
0.0090888,-0.0034835,0.00044449,0.028065,0.0026041,0.0039611,-0.0021345,1.5302e-05,0.00020981,0.052192,-0.014008,-0.01048,-0.011099,7.9569e-05,0.001091,0,0,0,0.028258,0.003959,0.0024131,0.012923,0.011544,0.025111,8.0648e-07,0.2,0.8,0.45
0.011757,-0.0040198,0.00052799,0.028509,0.0018754,0.0029417,-0.0017095,3.0526e-05,9.7465e-05,0.054128,-0.01512,-0.012347,-0.0088892,0.00015873,0.00050682,0,0,0,0.028627,0.0029504,0.0017486,0.013439,0.011109,0.0263,9.3001e-07,0.25,0.8,0.45
0.014502,-0.0044019,0.00059676,0.028782,0.0015304,0.0021929,-0.0014403,4.9735e-05,-1.4997e-05,0.055331,-0.015524,-0.013802,-0.0074896,0.00025862,-7.7983e-05,0,0,0,0.028865,0.0022244,0.0014163,0.013724,0.010835,0.027055,1.0169e-06,0.3,0.8,0.45
0.01729,-0.0046266,0.00065447,0.028944,0.0014468,0.0017444,-0.0012582,6.2613e-05,-0.00011312,0.055973,-0.015519,-0.014745,-0.0065425,0.00032559,-0.00058824,0,0,0,0.029009,0.0018135,0.0013127,0.013848,0.010712,0.02745,1.0669e-06,0.35,0.8,0.45
0.020099,-0.0046568,0.00071083,0.029403,0.0011946,0.0014916,-0.0011831,1.3917e-05,-0.00019692,0.05571,-0.01567,-0.014942,-0.0059728,0.00011163,-0.00096046,0,0,0,0.029463,0.0015829,0.0010432,0.01421,0.010696,0.028156,1.2214e-06,0.4,0.8,0.45
0.022878,-0.0044783,0.00077758,0.030205,0.00027262,0.0010825,-0.0011426,-0.00013172,-0.00029294,0.052826,-0.01592,-0.014128,-0.0054141,-0.00049626,-0.0012281,0,0,0,0.030269,0.0011833,0.00010805,0.01508,0.01052,0.029643,1.5565e-06,0.45,0.8,0.45
0.025444,-0.0042153,0.00084441,0.030358,-0.00062126,0.00051125,-0.0008806,-0.00024132,-0.00029356,0.047224,-0.015257,-0.012804,-0.0040147,-0.00094464,-0.0011216,0,0,0,0.030409,0.00064533,-0.00080674,0.015608,0.010083,0.030522,1.7584e-06,0.5,0.8,0.45
0.027675,-0.0040398,0.00088868,0.029934,-0.00073952,5.539e-05,-0.00042306,-0.00019443,-0.00017708,0.042049,-0.013763,-0.01193,-0.0020403,-0.00079303,-0.00068545,0,0,0,0.029959,0.00020855,-0.00091744,0.015438,0.00975,0.030338,1.7353e-06,0.55,0.8,0.45
0.029687,-0.003995,0.00091261,0.029851,-0.00070019,-0.00029914,1.7978e-05,-9.5582e-05,-8.3883e-05,0.039352,-0.012678,-0.011667,-0.00014585,-0.00043126,-0.00032143,0,0,0,0.029862,-0.00015563,-0.00085421,0.015358,0.0096173,0.030378,1.7406e-06,0.6,0.8,0.45
0.031637,-0.0040341,0.00092719,0.029837,-0.00076754,-0.00042416,0.00038874,-9.247e-05,-1.6711e-05,0.039415,-0.012711,-0.011804,0.0016018,-0.00042232,-5.1968e-06,0,0,0,0.029853,-0.00025451,-0.00095285,0.015403,0.0095486,0.030468,1.7553e-06,0.65,0.8,0.45
0.033655,-0.0041614,0.00093263,0.029899,-0.00094392,-0.00032816,0.00075829,-0.00018778,8.4736e-05,0.042257,-0.013865,-0.012373,0.0033058,-0.00077265,0.00036673,0,0,0,0.029936,-0.00011872,-0.0011903,0.015563,0.0095422,0.030612,1.784e-06,0.7,0.8,0.45
0.035901,-0.0044357,0.00091809,0.030297,-0.00097834,-0.00015469,0.0010897,-0.00022993,0.00021234,0.047625,-0.015453,-0.013658,0.0048397,-0.00089779,0.00081394,0,0,0,0.030358,3.5981e-05,-0.00123,0.015794,0.0097213,0.03098,1.8428e-06,0.75,0.8,0.45
0.038494,-0.0048287,0.00088234,0.030139,-0.00022119,0.00012017,0.0011674,-0.00010735,0.00023317,0.053511,-0.016228,-0.015567,0.0054598,-0.00037611,0.0009742,0,0,0,0.030201,0.00039865,-0.00056107,0.015381,0.010013,0.030297,1.6615e-06,0.8,0.8,0.45
0.041316,-0.0051829,0.00085188,0.029389,0.00056635,0.00016977,0.00095685,5.7438e-05,0.00017071,0.056837,-0.016106,-0.01716,0.0047913,0.00033681,0.00083667,0,0,0,0.029429,0.00072702,-3.0679e-05,0.01473,0.010042,0.029089,1.3436e-06,0.85,0.8,0.45
0.044194,-0.0053885,0.000841,0.02903,0.00059667,-9.0233e-05,0.00068627,0.00012519,0.00012516,0.057757,-0.016171,-0.017957,0.0035686,0.00065097,0.00065083,0,0,0,0.029051,0.00065199,-0.00016637,0.014609,0.0098456,0.028818,1.235e-06,0.9,0.8,0.45
0.047092,-0.0054762,0.00083986,0.029039,0.00035106,-0.0003139,0.0003624,0.00012968,6.9112e-05,0.058055,-0.016533,-0.018262,0.0018845,0.00067432,0.00035938,0,0,0,0.029048,0.00042602,-0.00039768,0.014723,0.0096919,0.029043,1.2614e-06,0.95,0.8,0.45
0.048544,-0.005501,0.0008402,0.029044,0.00025248,-0.00038082,0.00015725,0.00012855,3.687e-05,0.058166,-0.016693,-0.01834,0.00081769,0.00066846,0.00019172,0,0,0,0.029048,0.00033489,-0.00046653,0.014757,0.0096387,0.029122,1.2712e-06,1,0.8,0.45
0.00097444,-0.00063266,5.9884e-05,0.025898,0.0092566,0.0098156,-0.0046934,1.5166e-06,0.00045197,0.040353,-0.0029151,-0.0014617,-0.024406,7.8865e-06,0.0023503,0,0,0,0.027178,0.00981,0.0079825,0.0095976,0.01499,0.018355,3.1071e-07,0,0.85,0.45
0.0020176,-0.0012487,0.00011963,0.025985,0.0075597,0.0086243,-0.0044002,2.498e-06,0.00043724,0.042259,-0.0056458,-0.0028779,-0.022881,1.299e-05,0.0022737,0,0,0,0.027048,0.0086157,0.0065046,0.010272,0.014056,0.01958,3.7902e-07,0.05,0.85,0.45
0.0042259,-0.0024172,0.00023726,0.026505,0.0047375,0.0065724,-0.0036576,4.3012e-06,0.00039416,0.046225,-0.010372,-0.005601,-0.019019,2.2366e-05,0.0020496,0,0,0,0.027161,0.0065614,0.0040933,0.011534,0.012605,0.021944,5.2787e-07,0.1,0.85,0.45
0.0066401,-0.0034185,0.00034832,0.027193,0.0029453,0.0050065,-0.0027673,7.3936e-06,0.00032487,0.049614,-0.013429,-0.0080697,-0.01439,3.8447e-05,0.0016893,0,0,0,0.02754,0.0049984,0.0026065,0.012467,0.011715,0.023833,6.7535e-07,0.15,0.85,0.45
0.0091873,-0.0042063,0.00044813,0.027533,0.0019018,0.0037217,-0.0019947,1.4407e-05,0.00023594,0.051692,-0.014949,-0.010218,-0.010372,7.4916e-05,0.0012269,0,0,0,0.027707,0.0037193,0.0017305,0.012988,0.011052,0.025046,7.9091e-07,0.2,0.85,0.45
0.011809,-0.0047854,0.00053407,0.027616,0.0013398,0.0026919,-0.0014442,2.6357e-05,0.00013911,0.052814,-0.015505,-0.01199,-0.00751,0.00013706,0.00072337,0,0,0,0.027706,0.0026988,0.0012428,0.013232,0.010549,0.02577,8.7007e-07,0.25,0.85,0.45
0.014469,-0.0051759,0.00060603,0.027538,0.0010962,0.0019207,-0.0010816,4.156e-05,4.686e-05,0.053266,-0.015483,-0.013339,-0.0056241,0.00021611,0.00024367,0,0,0,0.02759,0.0019472,0.0010176,0.013286,0.010185,0.026122,9.1266e-07,0.3,0.85,0.45
0.017136,-0.0053891,0.00066668,0.02733,0.0010397,0.0014077,-0.00082391,5.1969e-05,-2.8088e-05,0.053191,-0.015163,-0.014206,-0.0042843,0.00027024,-0.00014606,0,0,0,0.027363,0.0014705,0.00094297,0.01321,0.0099257,0.026162,9.2034e-07,0.35,0.85,0.45
0.019788,-0.0054214,0.00072108,0.026987,0.00089268,0.001107,-0.00062468,3.3693e-05,-7.5645e-05,0.052775,-0.015071,-0.014514,-0.0032483,0.0001752,-0.00039336,0,0,0,0.027013,0.0011803,0.00079403,0.013109,0.0096624,0.026028,9.0822e-07,0.4,0.85,0.45
0.022413,-0.0052729,0.00077554,0.026778,0.00027851,0.000831,-0.00054792,-5.3964e-05,-0.00012562,0.051607,-0.015537,-0.014185,-0.0027542,-0.00023529,-0.00058155,0,0,0,0.026805,0.0008877,0.00019459,0.013305,0.0092958,0.026275,9.7369e-07,0.45,0.85,0.45
0.024967,-0.0050126,0.00082796,0.026631,-0.00043668,0.00057017,-0.00050916,-0.0001646,-0.00016273,0.049363,-0.015893,-0.013441,-0.0024467,-0.00074377,-0.000699,0,0,0,0.02666,0.00064892,-0.00054434,0.013602,0.0089215,0.026632,1.079e-06,0.5,0.85,0.45
0.027387,-0.0047823,0.00087025,0.02648,-0.00069939,0.00037576,-0.00031403,-0.00018927,-0.00015081,0.046443,-0.015377,-0.012726,-0.0015246,-0.00089494,-0.00066947,0,0,0,0.026498,0.00047882,-0.0008201,0.013659,0.0087189,0.026696,1.133e-06,0.55,0.85,0.45
0.029651,-0.0046798,0.00090026,0.026735,-0.00079822,0.00011631,1.9271e-05,-0.00015379,-9.0283e-05,0.043859,-0.0145,-0.012311,-1.1445e-05,-0.00077783,-0.00039969,0,0,0,0.026744,0.00021113,-0.00090217,0.013823,0.0086844,0.027111,1.2228e-06,0.6,0.85,0.45
0.031836,-0.00472,0.00091415,0.026735,-0.00083814,1.517e-05,0.00036879,-0.00015121,4.8507e-06,0.043935,-0.014513,-0.012466,0.0016577,-0.00076688,5.7082e-05,0,0,0,0.026749,0.00011999,-0.00095701,0.013853,0.0086372,0.027187,1.2325e-06,0.65,0.85,0.45
0.034108,-0.0049072,0.00091212,0.026481,-0.00081897,6.4148e-05,0.00063684,-0.00018245,7.5253e-05,0.046679,-0.015412,-0.013217,0.0030038,-0.00086316,0.00033766,0,0,0,0.026509,0.00019205,-0.00097508,0.013742,0.0085754,0.026923,1.1638e-06,0.7,0.85,0.45
0.036545,-0.0052388,0.00089911,0.026627,-0.00063812,2.1095e-05,0.00073017,-0.00014998,0.00010067,0.049778,-0.015945,-0.014353,0.0035137,-0.00066987,0.00040762,0,0,0,0.026664,0.00016643,-0.00082089,0.013743,0.0086699,0.027009,1.1283e-06,0.75,0.85,0.45
0.039124,-0.0056313,0.00087942,0.026765,-4.4796e-06,-3.1477e-06,0.00062244,-2.4952e-05,8.5402e-05,0.052241,-0.015586,-0.01565,0.0031153,-8.5365e-05,0.00038316,0,0,0,0.026793,0.00032424,-0.00036015,0.013577,0.008919,0.02682,1.0357e-06,0.8,0.85,0.45
0.041787,-0.0059572,0.00086398,0.026968,0.00050848,-0.00010703,0.00048883,7.8895e-05,6.7222e-05,0.053695,-0.0151,-0.0167,0.0025419,0.00041026,0.00034955,0,0,0,0.026984,0.00057024,-0.00018452,0.013584,0.0091232,0.0268,9.9007e-07,0.85,0.85,0.45
0.044493,-0.0061646,0.0008576,0.027302,0.00050505,-0.00031824,0.00038944,0.0001126,6.0212e-05,0.054492,-0.01518,-0.017321,0.0020251,0.00058553,0.0003131,0,0,0,0.027311,0.00055079,-0.00037307,0.013842,0.0091629,0.027234,1.0371e-06,0.9,0.85,0.45
0.047237,-0.0062725,0.00085599,0.0275,0.00034899,-0.00045955,0.00019352,0.00011717,3.5281e-05,0.055067,-0.015526,-0.017629,0.0010063,0.00060926,0.00018346,0,0,0,0.027504,0.0004051,-0.00051951,0.014012,0.0091299,0.027573,1.0762e-06,0.95,0.85,0.45
0.048616,-0.0063053,0.00085587,0.027568,0.00028353,-0.00050388,6.0099e-05,0.00011666,1.9137e-05,0.055269,-0.015672,-0.017719,0.00031251,0.00060664,9.9513e-05,0,0,0,0.02757,0.0003429,-0.00056492,0.014067,0.009116,0.027692,1.0902e-06,1,0.85,0.45
0.0010173,-0.00079924,6.0346e-05,0.026729,0.0087128,0.0099092,-0.0055707,2.0142e-06,0.00045613,0.042285,-0.0045574,-0.0014468,-0.028968,1.0474e-05,0.0023719,0,0,0,0.028406,0.0099032,0.0070417,0.010682,0.015117,0.020104,3.9343e-07,0,0.9,0.45
0.0021143,-0.0015674,0.00012049,0.026636,0.0065607,0.0085348,-0.0049254,3.2017e-06,0.00044236,0.044215,-0.0079812,-0.0028485,-0.025612,1.6649e-05,0.0023003,0,0,0,0.02791,0.0085257,0.0052964,0.011307,0.013911,0.021199,4.5858e-07,0.05,0.9,0.45
0.0044215,-0.0029884,0.00023889,0.026791,0.003441,0.0062991,-0.0036038,4.884e-06,0.00040233,0.047737,-0.012972,-0.0055408,-0.01874,2.5397e-05,0.0020921,0,0,0,0.02742,0.0062877,0.0028232,0.012298,0.012177,0.023071,5.8764e-07,0.1,0.9,0.45
0.006888,-0.0041334,0.00035092,0.026987,0.0019695,0.0047015,-0.0023992,6.79e-06,0.00033866,0.049971,-0.015074,-0.0079707,-0.012476,3.5308e-05,0.001761,0,0,0,0.027262,0.0046929,0.001703,0.012779,0.011219,0.02421,6.9187e-07,0.15,0.9,0.45
0.0094186,-0.0049785,0.00045219,0.026811,0.0012037,0.0033718,-0.0015341,1.1376e-05,0.00025816,0.050877,-0.015702,-0.010065,-0.0079774,5.9155e-05,0.0013424,0,0,0,0.026926,0.0033682,0.0010922,0.012917,0.010462,0.02478,7.5917e-07,0.2,0.9,0.45
0.011976,-0.0055704,0.00054021,0.026569,0.00082538,0.0023339,-0.00098695,1.9293e-05,0.00017227,0.051242,-0.015691,-0.011769,-0.0051322,0.00010032,0.00089582,0,0,0,0.026619,0.0023373,0.00077206,0.012923,0.0099094,0.025105,8.0236e-07,0.25,0.9,0.45
0.014543,-0.0059502,0.00061466,0.026337,0.00068224,0.0015844,-0.00062783,2.8452e-05,9.277e-05,0.051315,-0.015389,-0.013043,-0.0032647,0.00014795,0.0004824,0,0,0,0.02636,0.0016,0.00064403,0.012858,0.0095347,0.025254,8.2404e-07,0.3,0.9,0.45
0.017107,-0.0061429,0.00067724,0.026101,0.00065658,0.0010959,-0.00034852,3.2348e-05,2.9964e-05,0.051151,-0.015005,-0.013863,-0.0018123,0.00016821,0.00015581,0,0,0,0.026112,0.00113,0.00061218,0.01275,0.0092846,0.025246,8.2621e-07,0.35,0.9,0.45
0.019658,-0.0061639,0.00073122,0.025816,0.00058381,0.00081153,-9.5793e-05,1.9895e-05,-1.0871e-05,0.050794,-0.014809,-0.014217,-0.00049812,0.00010345,-5.6529e-05,0,0,0,0.025821,0.00084881,0.0005411,0.01264,0.0090703,0.025128,8.1522e-07,0.4,0.9,0.45
0.022187,-0.0060343,0.00077964,0.025454,0.00027531,0.00064919,8.0883e-05,-2.3386e-05,-3.3477e-05,0.050353,-0.015111,-0.014139,0.00042059,-0.00012161,-0.00017408,0,0,0,0.025461,0.00067283,0.00024491,0.012608,0.0087928,0.025006,8.0218e-07,0.45,0.9,0.45
0.024693,-0.0058097,0.00082231,0.02507,-0.00019638,0.00056733,0.00013668,-8.46e-05,-5.062e-05,0.049918,-0.015775,-0.01379,0.00071075,-0.00043992,-0.00026322,0,0,0,0.02508,0.00059383,-0.00023231,0.012656,0.0084804,0.024912,7.9056e-07,0.5,0.9,0.45
0.027178,-0.005587,0.00085795,0.025012,-0.00054742,0.00052151,0.00011321,-0.00013258,-6.5322e-05,0.049163,-0.01612,-0.013373,0.00060074,-0.0006889,-0.00033356,0,0,0,0.025019,0.0005684,-0.00060129,0.01281,0.0083287,0.025057,8.2082e-07,0.55,0.9,0.45
0.02962,-0.0054638,0.00088478,0.025353,-0.00070494,0.00044459,0.00012334,-0.0001598,-5.6296e-05,0.048232,-0.016002,-0.013108,0.00061522,-0.00082992,-0.00027644,0,0,0,0.025357,0.00051143,-0.00077629,0.013067,0.0083641,0.025515,9.0134e-07,0.6,0.9,0.45
0.032034,-0.0055039,0.00089787,0.025373,-0.00072176,0.0003627,0.00018091,-0.00015692,-2.4281e-05,0.048332,-0.015998,-0.013271,0.00085232,-0.00081542,-0.00011201,0,0,0,0.025379,0.00043172,-0.00079653,0.013088,0.0083379,0.025584,9.088e-07,0.65,0.9,0.45
0.034486,-0.0057117,0.0008979,0.025073,-0.00060005,0.00026802,0.00015283,-0.00012368,-5.894e-06,0.04947,-0.016109,-0.013882,0.00074449,-0.00064308,-2.658e-05,0,0,0,0.025082,0.00032179,-0.00066225,0.012872,0.0082471,0.025268,8.4289e-07,0.7,0.9,0.45
0.036992,-0.0060349,0.00089146,0.025167,-0.00028985,0.00010699,6.5393e-05,-6.77e-05,-5.5607e-06,0.050443,-0.015744,-0.014712,0.00034004,-0.00035204,-2.8915e-05,0,0,0,0.025176,0.00021612,-0.00040833,0.012792,0.0083279,0.02528,8.2778e-07,0.75,0.9,0.45
0.039531,-0.0063894,0.00088246,0.025572,0.00013281,-8.3103e-05,2.4588e-05,4.0534e-06,2.7386e-07,0.051115,-0.015028,-0.015589,0.00012786,2.1078e-05,1.4241e-06,0,0,0,0.025578,0.00026819,-0.00022427,0.012901,0.0085407,0.025561,8.5675e-07,0.8,0.9,0.45
0.042104,-0.0066929,0.00087445,0.025938,0.00037996,-0.00028105,5.5714e-05,5.8601e-05,1.1898e-05,0.051816,-0.014634,-0.016353,0.00028971,0.00030473,6.1869e-05,0,0,0,0.02594,0.00039924,-0.00030291,0.013122,0.0086789,0.0259,8.9079e-07,0.85,0.9,0.45
0.044712,-0.0069065,0.00087001,0.026194,0.00037115,-0.00047293,9.7078e-05,8.2293e-05,1.7208e-05,0.052448,-0.01469,-0.016885,0.00050481,0.00042792,8.9483e-05,0,0,0,0.026195,0.00040074,-0.0005042,0.01335,0.0086973,0.026259,9.2753e-07,0.9,0.9,0.45
0.047348,-0.0070289,0.00086833,0.026341,0.000279,-0.000606,3.7196e-05,8.9577e-05,1.1881e-05,0.052877,-0.014883,-0.017184,0.00019342,0.0004658,6.1781e-05,0,0,0,0.026342,0.00031364,-0.0006416,0.013492,0.0086712,0.026519,9.5523e-07,0.95,0.9,0.45
0.048672,-0.0070681,0.00086795,0.026391,0.00023537,-0.00065178,-2.8676e-05,9.0685e-05,6.5492e-06,0.053032,-0.014973,-0.017279,-0.00014911,0.00047156,3.4056e-05,0,0,0,0.026392,0.00027128,-0.00068841,0.01354,0.0086582,0.026613,9.6557e-07,1,0.9,0.45
0.0012124,-0.0010884,6.0831e-05,0.030346,0.0086798,0.010976,-0.0066388,2.1109e-06,0.00046061,0.048898,-0.0074334,-0.0014632,-0.034522,1.0976e-05,0.0023952,0,0,0,0.032455,0.010969,0.006577,0.012939,0.016667,0.024013,6.8587e-07,0,0.95,0.45
0.0024449,-0.0020468,0.00012141,0.028964,0.0056397,0.0089421,-0.0052114,3.1646e-06,0.00044786,0.049179,-0.011464,-0.0028779,-0.027099,1.6456e-05,0.0023289,0,0,0,0.030348,0.008932,0.004266,0.013041,0.014515,0.024112,6.5991e-07,0.05,0.95,0.45
0.0049179,-0.0037144,0.00024071,0.027048,0.001959,0.0059074,-0.0029233,4.2176e-06,0.00041049,0.049377,-0.015856,-0.0055897,-0.015201,2.1932e-05,0.0021345,0,0,0,0.027487,0.0058948,0.0015329,0.012977,0.011638,0.024086,6.4104e-07,0.1,0.95,0.45
0.0073826,-0.0049259,0.00035378,0.02606,0.00096299,0.004094,-0.001604,4.7504e-06,0.00035071,0.049086,-0.016167,-0.0080259,-0.0083407,2.4702e-05,0.0018237,0,0,0,0.026208,0.0040844,0.00082514,0.012691,0.010372,0.023929,6.5991e-07,0.15,0.95,0.45
0.0098265,-0.0057766,0.0004564,0.025375,0.00046534,0.002697,-0.00089924,6.9809e-06,0.00027527,0.048853,-0.015913,-0.01011,-0.004676,3.6301e-05,0.0014314,0,0,0,0.025427,0.0026918,0.00041852,0.012504,0.0095125,0.02396,6.8608e-07,0.2,0.95,0.45
0.012268,-0.0063545,0.00054609,0.025032,0.00027201,0.0016996,-0.00050936,1.1251e-05,0.00019553,0.048882,-0.015495,-0.011783,-0.0026487,5.8506e-05,0.0010167,0,0,0,0.025052,0.0016996,0.00025258,0.0124,0.0090013,0.024113,7.1283e-07,0.25,0.95,0.45
0.014715,-0.0067148,0.00062236,0.024876,0.00022168,0.0010238,-0.00026026,1.5821e-05,0.00012264,0.049005,-0.015097,-0.013011,-0.0013533,8.2268e-05,0.00063774,0,0,0,0.024883,0.0010306,0.00020782,0.012338,0.0087072,0.024277,7.3355e-07,0.3,0.95,0.45
0.017168,-0.0068896,0.00068648,0.024833,0.00023782,0.00062791,-5.5463e-05,1.6645e-05,6.4885e-05,0.049146,-0.014801,-0.013786,-0.00028841,8.6555e-05,0.0003374,0,0,0,0.024835,0.00064203,0.00022139,0.012307,0.0085661,0.024407,7.4721e-07,0.35,0.95,0.45
0.019629,-0.0069022,0.00074069,0.024878,0.00024391,0.00046961,0.00014086,7.5134e-06,2.5505e-05,0.049328,-0.014721,-0.014134,0.00073247,3.907e-05,0.00013263,0,0,0,0.02488,0.00048334,0.00022807,0.012326,0.0085306,0.024526,7.5816e-07,0.4,0.95,0.45
0.022101,-0.0067841,0.00078708,0.024996,0.00014803,0.00048004,0.00030733,-1.577e-05,9.2509e-07,0.049615,-0.01499,-0.014126,0.0015981,-8.2005e-05,4.8106e-06,0,0,0,0.025,0.00048769,0.0001358,0.012432,0.0085413,0.024691,7.7276e-07,0.45,0.95,0.45
0.024591,-0.0065901,0.00082648,0.025147,-6.5674e-05,0.00057652,0.00038221,-4.765e-05,-1.5169e-05,0.049987,-0.015565,-0.013896,0.0019875,-0.00024778,-7.8879e-05,0,0,0,0.025153,0.0005858,-8.1256e-05,0.012617,0.0085525,0.024909,7.9168e-07,0.5,0.95,0.45
0.0271,-0.0063976,0.0008583,0.025314,-0.00028243,0.00069816,0.00032241,-8.134e-05,-2.604e-05,0.050379,-0.016172,-0.013623,0.0016765,-0.00042297,-0.00013541,0,0,0,0.025319,0.00071912,-0.00030838,0.012814,0.0085766,0.02513,8.1071e-07,0.55,0.95,0.45
0.029629,-0.0062899,0.00088098,0.025466,-0.00040385,0.00077007,0.00017793,-0.00010756,-3.7369e-05,0.050712,-0.016549,-0.013497,0.00092526,-0.00055934,-0.00019432,0,0,0,0.025468,0.00080421,-0.00044052,0.012954,0.0086107,0.02531,8.2662e-07,0.6,0.95,0.45
0.032171,-0.0063296,0.00089331,0.025524,-0.00040456,0.00070728,1.6027e-05,-0.00010507,-4.9431e-05,0.050867,-0.016548,-0.013657,8.3342e-05,-0.00054634,-0.00025704,0,0,0,0.025526,0.00074233,-0.00044113,0.012983,0.008609,0.025396,8.3576e-07,0.65,0.95,0.45
0.034715,-0.0065213,0.00089621,0.025488,-0.00028957,0.0004975,-0.00014157,-7.3663e-05,-5.2851e-05,0.050851,-0.01617,-0.014124,-0.00073618,-0.00038305,-0.00027482,0,0,0,0.02549,0.00052138,-0.00031545,0.012903,0.0085652,0.025399,8.3844e-07,0.7,0.95,0.45
0.037256,-0.0068132,0.00089278,0.025432,-8.4476e-05,0.00020321,-0.00023142,-3.4319e-05,-4.7318e-05,0.050793,-0.01555,-0.014802,-0.0012034,-0.00017846,-0.00024605,0,0,0,0.025435,0.00028738,-0.0001713,0.012803,0.008517,0.025381,8.387e-07,0.75,0.95,0.45
0.039795,-0.0071341,0.00088665,0.025384,0.00011562,-0.000124,-0.00020831,3.8376e-06,-3.6842e-05,0.050773,-0.014925,-0.015548,-0.0010832,1.9956e-05,-0.00019158,0,0,0,0.025386,0.00019721,-0.00020782,0.012797,0.0084586,0.025395,8.4032e-07,0.8,0.95,0.45
0.042334,-0.0074206,0.00088071,0.025349,0.00019377,-0.00044916,-0.00012122,3.394e-05,-2.2854e-05,0.050852,-0.014552,-0.016224,-0.00063037,0.00017649,-0.00011884,0,0,0,0.02535,0.00020148,-0.00045794,0.012904,0.0083646,0.025486,8.483e-07,0.85,0.95,0.45
0.04488,-0.0076336,0.00087651,0.025348,0.0001628,-0.00071614,-4.0756e-05,5.0178e-05,-1.0501e-05,0.051029,-0.014454,-0.016739,-0.00021193,0.00026092,-5.4608e-05,0,0,0,0.025349,0.00017584,-0.00072951,0.013039,0.008265,0.025638,8.6239e-07,0.9,0.95,0.45
0.047436,-0.0077607,0.00087426,0.025368,0.00010687,-0.00088398,-4.2554e-05,5.6358e-05,-3.9161e-06,0.051202,-0.014477,-0.017053,-0.00022128,0.00029306,-2.0363e-05,0,0,0,0.025368,0.00012178,-0.00089923,0.013134,0.008197,0.025773,8.7536e-07,0.95,0.95,0.45
0.048717,-0.0078026,0.00087359,0.025378,8.1224e-05,-0.00094095,-7.5512e-05,5.7778e-05,-2.2577e-06,0.051272,-0.0145,-0.017157,-0.00039266,0.00030044,-1.174e-05,0,0,0,0.025379,9.6408e-05,-0.00095667,0.013168,0.0081728,0.025825,8.8053e-07,1,0.95,0.45
0.0013762,-0.0012796,6.1049e-05,0.033356,0.0090601,0.011984,-0.0072915,2.0583e-06,0.00046277,0.054085,-0.0090836,-0.0014811,-0.037916,1.0703e-05,0.0024064,0,0,0,0.035709,0.011977,0.0067139,0.014498,0.018133,0.026786,9.2285e-07,0,1,0.45
0.0027042,-0.002342,0.00012185,0.030803,0.0053917,0.0094031,-0.005334,2.9505e-06,0.00045062,0.05273,-0.01334,-0.0029107,-0.027737,1.5342e-05,0.0023432,0,0,0,0.032234,0.0093925,0.0039716,0.014131,0.015199,0.026003,8.1005e-07,0.05,1,0.45
0.005273,-0.0041214,0.00024161,0.027073,0.0012257,0.0056655,-0.0024411,3.549e-06,0.00041459,0.050011,-0.017191,-0.005648,-0.012694,1.8455e-05,0.0021559,0,0,0,0.027389,0.0056523,0.00092281,0.013233,0.011321,0.024463,6.6054e-07,0.1,1,0.45
0.0077053,-0.0053365,0.00035523,0.025253,0.00043054,0.0036544,-0.0011316,3.3673e-06,0.00035632,0.048056,-0.016484,-0.0081017,-0.0058842,1.751e-05,0.0018529,0,0,0,0.025334,0.0036441,0.00035976,0.012487,0.0097794,0.023516,6.239e-07,0.15,1,0.45
0.010079,-0.0061767,0.0004585,0.024383,5.3252e-05,0.0022339,-0.00057605,4.4975e-06,0.00028249,0.047395,-0.015864,-0.010194,-0.0029954,2.3387e-05,0.0014689,0,0,0,0.024409,0.0022278,3.3562e-05,0.012188,0.0088902,0.023364,6.3596e-07,0.2,1,0.45
0.012445,-0.0067423,0.00054892,0.024085,-4.3947e-05,0.0012805,-0.00029402,7.1827e-06,0.00020464,0.047427,-0.015307,-0.011863,-0.0015289,3.735e-05,0.0010641,0,0,0,0.024094,0.001279,-5.1517e-05,0.012073,0.0084404,0.023513,6.6116e-07,0.25,1,0.45
0.014821,-0.007092,0.00062598,0.024031,-4.3757e-05,0.0006591,-0.0001183,1.005e-05,0.00013391,0.047694,-0.014902,-0.013074,-0.00061514,5.2263e-05,0.00069634,0,0,0,0.024034,0.00066287,-5.0516e-05,0.012042,0.0082156,0.023739,6.8578e-07,0.3,1,0.45
0.017214,-0.0072595,0.00069081,0.024134,5.2678e-06,0.0003295,3.1017e-05,1.0034e-05,7.8098e-05,0.048068,-0.014668,-0.013825,0.00016129,5.2175e-05,0.00040611,0,0,0,0.024136,0.00033805,-4.3948e-06,0.01207,0.0081564,0.023971,7.0774e-07,0.35,1,0.45
0.019628,-0.0072706,0.00074547,0.024376,5.1164e-05,0.00025373,0.0001793,3.4047e-06,3.9372e-05,0.04857,-0.014676,-0.014149,0.00093235,1.7704e-05,0.00020474,0,0,0,0.024378,0.00026161,4.1269e-05,0.012169,0.0082271,0.024228,7.3079e-07,0.4,1,0.45
0.022071,-0.0071591,0.00079182,0.024746,4.3966e-05,0.00037227,0.00030481,-1.2032e-05,1.4438e-05,0.049242,-0.014983,-0.014129,0.001585,-6.2564e-05,7.5077e-05,0,0,0,0.02475,0.00037607,3.5789e-05,0.012357,0.0083874,0.024547,7.594e-07,0.45,1,0.45
0.024552,-0.0069782,0.00083067,0.025206,-1.7837e-05,0.00060512,0.00036149,-3.4798e-05,-2.6785e-06,0.050059,-0.015522,-0.013902,0.0018797,-0.00018095,-1.3928e-05,0,0,0,0.025211,0.00061004,-2.8545e-05,0.01262,0.0085976,0.024928,7.9389e-07,0.5,1,0.45
0.027077,-0.0068008,0.00086162,0.025657,-0.0001166,0.00084063,0.00031762,-5.8989e-05,-1.8888e-05,0.050879,-0.016132,-0.013643,0.0016516,-0.00030674,-9.8217e-05,0,0,0,0.025661,0.00085166,-0.0001323,0.012897,0.0087935,0.025317,8.2931e-07,0.55,1,0.45
0.02964,-0.0067049,0.0008835,0.02596,-0.00021196,0.00096077,0.00017055,-7.4714e-05,-3.775e-05,0.051471,-0.016577,-0.013527,0.00088686,-0.00038851,-0.0001963,0,0,0,0.025962,0.00097675,-0.00023013,0.013096,0.008903,0.025611,8.5664e-07,0.6,1,0.45
0.032224,-0.0067445,0.0008954,0.026042,-0.00020649,0.00090785,-2.6757e-05,-7.2647e-05,-5.5825e-05,0.051662,-0.016583,-0.013685,-0.00013914,-0.00037777,-0.00029029,0,0,0,0.026043,0.00092434,-0.00022404,0.013133,0.0089143,0.025712,8.674e-07,0.65,1,0.45
0.034806,-0.0069244,0.00089828,0.0259,-0.00010289,0.0006704,-0.00018118,-5.2846e-05,-6.625e-05,0.05146,-0.016148,-0.014138,-0.00094216,-0.0002748,-0.0003445,0,0,0,0.025902,0.00068298,-0.00011739,0.01301,0.0088226,0.025631,8.6171e-07,0.7,1,0.45
0.03737,-0.0072008,0.00089504,0.025611,9.7281e-07,0.00028415,-0.00024294,-2.4463e-05,-6.4872e-05,0.051051,-0.015535,-0.014799,-0.0012633,-0.00012721,-0.00033734,0,0,0,0.025614,0.0003527,-7.0437e-05,0.012842,0.008632,0.025476,8.4832e-07,0.75,1,0.45
0.039911,-0.0075074,0.00088896,0.025307,6.7613e-05,-0.00015559,-0.00021811,2.8407e-06,-5.3814e-05,0.050667,-0.014956,-0.015536,-0.0011342,1.4772e-05,-0.00027984,0,0,0,0.02531,0.00014193,-0.00023234,0.012771,0.0084064,0.025357,8.3671e-07,0.8,1,0.45
0.042437,-0.0077846,0.00088274,0.025078,7.9457e-05,-0.00056216,-0.00014188,2.3147e-05,-3.8167e-05,0.050447,-0.014551,-0.016219,-0.00073778,0.00012037,-0.00019847,0,0,0,0.02508,8.2408e-05,-0.00056636,0.012823,0.0081986,0.025329,8.3257e-07,0.85,1,0.45
0.044956,-0.0079944,0.00087803,0.024946,3.6685e-05,-0.00088109,-6.552e-05,3.4877e-05,-2.2471e-05,0.050398,-0.014365,-0.016752,-0.00034071,0.00018136,-0.00011685,0,0,0,0.024946,4.2544e-05,-0.00088733,0.012917,0.0080337,0.025381,8.3612e-07,0.9,1,0.45
0.047477,-0.0081215,0.00087529,0.024892,-1.3803e-05,-0.001078,-6.01e-05,3.9888e-05,-1.0623e-05,0.050439,-0.014316,-0.017083,-0.00031252,0.00020741,-5.5238e-05,0,0,0,0.024892,-7.1042e-06,-0.001085,0.012989,0.0079334,0.025456,8.4233e-07,0.95,1,0.45
0.048738,-0.0081636,0.00087441,0.024881,-3.3971e-05,-0.0011434,-8.6386e-05,4.1093e-05,-6.0821e-06,0.050467,-0.01431,-0.017195,-0.00044921,0.00021369,-3.1627e-05,0,0,0,0.024881,-2.7331e-05,-0.0011505,0.013016,0.0079011,0.025489,8.4523e-07,1,1,0.45
0.0013273,0.0012241,-1.1582e-06,0.032196,0.0087414,0.01163,0.0069589,-2.6409e-06,-8.4146e-06,0.05217,-0.0088132,-0.0013018,0.036186,-1.3733e-05,-4.3756e-05,0,0,0,0.034418,0.011628,0.006522,0.013948,0.017523,0.025761,8.1777e-07,0,0,0.5
0.0026085,0.0022379,-1.739e-06,0.029767,0.005211,0.0092042,0.0050668,-5.1744e-06,-6.4187e-06,0.050884,-0.012961,-0.0025782,0.026348,-2.6907e-05,-3.3377e-05,0,0,0,0.031108,0.0092005,0.0038737,0.013617,0.014727,0.025024,7.1645e-07,0.05,0,0.5
0.0050884,0.0039311,-1.7359e-06,0.026248,0.0012105,0.0057087,0.0022579,-9.6261e-06,-5.9683e-07,0.048345,-0.016753,-0.0050578,0.011741,-5.0056e-05,-3.1034e-06,0,0,0,0.026527,0.0057042,0.00093586,0.012796,0.011056,0.023586,5.8441e-07,0.1,0,0.5
0.007443,0.0050787,6.1733e-07,0.024614,0.00045788,0.0038472,0.00096126,-1.2512e-05,7.5674e-06,0.046644,-0.016161,-0.0073484,0.0049985,-6.5062e-05,3.9351e-05,0,0,0,0.024674,0.0038437,0.00040108,0.012136,0.0096396,0.022757,5.5861e-07,0.15,0,0.5
0.0097528,0.0058677,5.3344e-06,0.023946,9.4948e-05,0.0025255,0.00038894,-1.357e-05,1.643e-05,0.046319,-0.015693,-0.0093734,0.0020225,-7.0565e-05,8.5438e-05,0,0,0,0.023959,0.0025234,8.3573e-05,0.011938,0.0088554,0.022762,5.826e-07,0.2,0,0.5
0.012075,0.0064033,1.2335e-05,0.023874,-1.6619e-05,0.0016164,9.2632e-05,-1.2854e-05,2.5282e-05,0.046789,-0.015328,-0.011082,0.00048168,-6.6841e-05,0.00013147,0,0,0,0.023877,0.0016154,-1.8622e-05,0.011948,0.0084914,0.023127,6.2526e-07,0.25,0,0.5
0.014432,0.0067557,2.1399e-05,0.024056,-5.6779e-05,0.00097146,-7.0601e-05,-1.0298e-05,3.3292e-05,0.047563,-0.01513,-0.012457,-0.00036712,-5.3552e-05,0.00017312,0,0,0,0.024057,0.00097127,-5.775e-05,0.012058,0.0083236,0.02362,6.7316e-07,0.3,0,0.5
0.016831,0.006974,3.214e-05,0.024351,-6.7547e-05,0.00052923,-0.00016301,-5.8849e-06,3.9498e-05,0.048424,-0.015063,-0.013511,-0.00084767,-3.0601e-05,0.00020539,0,0,0,0.024352,0.00052943,-6.921e-05,0.012211,0.0082707,0.024129,7.206e-07,0.35,0,0.5
0.019274,0.0070959,4.3995e-05,0.024682,-6.9759e-05,0.00024245,-0.00021063,1.594e-07,4.2867e-05,0.049261,-0.015094,-0.014283,-0.0010953,8.2887e-07,0.00022291,0,0,0,0.024684,0.00024285,-7.2191e-05,0.012378,0.008285,0.024601,7.6476e-07,0.4,0,0.5
0.021757,0.0071521,5.6232e-05,0.025009,-7.1352e-05,7.0756e-05,-0.00022494,7.2054e-06,4.2494e-05,0.050019,-0.015191,-0.014821,-0.0011697,3.7468e-05,0.00022097,0,0,0,0.025011,7.4135e-05,-7.6996e-05,0.012544,0.0083362,0.025013,8.0403e-07,0.45,0,0.5
0.024276,0.0071683,6.8003e-05,0.025302,-7.4294e-05,-2.2711e-05,-0.00021174,1.4193e-05,3.7909e-05,0.050662,-0.015316,-0.015182,-0.001101,7.3805e-05,0.00019713,0,0,0,0.025304,-9.1511e-06,-8.9885e-05,0.012697,0.0084017,0.025354,8.3724e-07,0.5,0,0.5
0.026824,0.007166,7.845e-05,0.02554,-7.678e-05,-7.0376e-05,-0.00017617,1.9796e-05,2.9363e-05,0.051168,-0.015435,-0.015419,-0.00091607,0.00010294,0.00015269,0,0,0,0.025541,-4.139e-05,-0.00010722,0.012824,0.0084642,0.025616,8.6336e-07,0.55,0,0.5
0.029393,0.0071619,8.6854e-05,0.025708,-7.5484e-05,-9.8565e-05,-0.00012529,2.276e-05,1.7959e-05,0.05152,-0.015517,-0.015577,-0.00065149,0.00011835,9.3386e-05,0,0,0,0.025709,-5.2459e-05,-0.00012239,0.012916,0.0085113,0.025796,8.8166e-07,0.6,0,0.5
0.031976,0.0071671,9.2772e-05,0.0258,-6.7844e-05,-0.00012599,-6.8386e-05,2.2315e-05,5.5009e-06,0.051716,-0.01554,-0.015691,-0.00035561,0.00011604,2.8604e-05,0,0,0,0.0258,-5.4646e-05,-0.0001395,0.01297,0.0085353,0.025897,8.9203e-07,0.65,0,0.5
0.034564,0.0071865,9.6133e-05,0.02582,-5.3675e-05,-0.0001631,-1.548e-05,1.8445e-05,-5.9177e-06,0.05177,-0.015501,-0.015786,-8.0495e-05,9.5914e-05,-3.0772e-05,0,0,0,0.02582,-4.8059e-05,-0.00016881,0.012994,0.0085344,0.025929,8.9524e-07,0.7,0,0.5
0.037153,0.0072197,9.7238e-05,0.025782,-3.5339e-05,-0.00021248,2.5088e-05,1.1917e-05,-1.444e-05,0.051713,-0.015413,-0.015873,0.00013046,6.1967e-05,-7.509e-05,0,0,0,0.025782,-3.372e-05,-0.00021418,0.012998,0.0085115,0.025907,8.9288e-07,0.75,0,0.5
0.039736,0.0072619,9.6679e-05,0.025708,-1.6514e-05,-0.00027042,4.8549e-05,4.0256e-06,-1.8882e-05,0.051587,-0.015295,-0.015955,0.00025245,2.0933e-05,-9.8186e-05,0,0,0,0.025708,-1.6287e-05,-0.00027078,0.012989,0.0084735,0.025852,8.871e-07,0.8,0,0.5
0.042311,0.0073058,9.5194e-05,0.025619,-4.8915e-07,-0.00032921,5.4265e-05,-3.782e-06,-1.8921e-05,0.051436,-0.015175,-0.01603,0.00028218,-1.9666e-05,-9.8389e-05,0,0,0,0.025619,-4.0681e-07,-0.00032945,0.012974,0.0084298,0.025786,8.801e-07,0.85,0,0.5
0.044879,0.0073438,9.3517e-05,0.025539,1.0937e-05,-0.00037974,4.4925e-05,-1.0242e-05,-1.5034e-05,0.0513,-0.015074,-0.01609,0.00023361,-5.3261e-05,-7.8175e-05,0,0,0,0.025539,1.1348e-05,-0.00038026,0.01296,0.0083901,0.025726,8.7379e-07,0.9,0,0.5
0.047441,0.0073695,9.225e-05,0.025484,1.7474e-05,-0.0004138,3.416e-05,-1.4456e-05,-8.7506e-06,0.051206,-0.015007,-0.016129,0.00017763,-7.517e-05,-4.5503e-05,0,0,0,0.025484,1.823e-05,-0.00041461,0.012949,0.0083626,0.025685,8.6949e-07,0.95,0,0.5
0.048721,0.0073785,9.1784e-05,0.025465,1.9562e-05,-0.0004258,3.1327e-05,-1.5914e-05,-5.2892e-06,0.051173,-0.014984,-0.016142,0.0001629,-8.2752e-05,-2.7504e-05,0,0,0,0.025465,2.045e-05,-0.00042674,0.012946,0.0083528,0.025671,8.6797e-07,1,0,0.5
0.0011694,0.0010386,-1.0468e-06,0.029287,0.0083787,0.010654,0.0063144,-3.8543e-06,-7.3934e-06,0.047154,-0.0072071,-0.0012916,0.032835,-2.0043e-05,-3.8446e-05,0,0,0,0.031265,0.010651,0.006403,0.012431,0.016106,0.023063,6.0639e-07,0,0.05,0.5
0.0023577,0.0019512,-1.5478e-06,0.027974,0.0054564,0.0087494,0.0049278,-7.4088e-06,-5.4962e-06,0.047424,-0.011121,-0.0025593,0.025625,-3.8526e-05,-2.858e-05,0,0,0,0.029259,0.0087458,0.0041744,0.012542,0.01406,0.023163,5.8169e-07,0.05,0.05,0.5
0.0047424,0.003535,-1.4352e-06,0.026175,0.0019257,0.0059188,0.0026894,-1.3593e-05,-2.4861e-07,0.047644,-0.015405,-0.0050229,0.013985,-7.0682e-05,-1.2928e-06,0,0,0,0.026561,0.0059145,0.0015443,0.012508,0.01134,0.023156,5.6387e-07,0.1,0.05,0.5
0.0071221,0.0046773,9.3018e-07,0.025303,0.0009757,0.0042337,0.0013669,-1.7631e-05,6.7938e-06,0.047481,-0.015771,-0.0072999,0.0071077,-9.1683e-05,3.5328e-05,0,0,0,0.025417,0.0042304,0.00086544,0.012276,0.010171,0.023062,5.848e-07,0.15,0.05,0.5
0.0094904,0.0054735,5.5531e-06,0.024769,0.00048557,0.0029196,0.00063148,-1.9245e-05,1.4329e-05,0.047496,-0.015642,-0.0093138,0.0032837,-0.00010007,7.4511e-05,0,0,0,0.024799,0.0029177,0.00045749,0.012171,0.0093915,0.023216,6.1892e-07,0.2,0.05,0.5
0.011872,0.0060166,1.2347e-05,0.024612,0.00026047,0.0019541,0.00021266,-1.8378e-05,2.1919e-05,0.047895,-0.015419,-0.011015,0.0011058,-9.5566e-05,0.00011398,0,0,0,0.024618,0.0019534,0.00025447,0.012182,0.0089421,0.023564,6.6114e-07,0.25,0.05,0.5
0.01428,0.0063738,2.1113e-05,0.024665,0.00014168,0.0012485,-3.4087e-05,-1.4862e-05,2.8969e-05,0.048495,-0.015265,-0.012387,-0.00017725,-7.7281e-05,0.00015064,0,0,0,0.024666,0.0012486,0.00013989,0.012263,0.008685,0.023994,7.052e-07,0.3,0.05,0.5
0.016721,0.0065942,3.151e-05,0.024828,7.1511e-05,0.00074885,-0.00018083,-8.6065e-06,3.4673e-05,0.049164,-0.015203,-0.013442,-0.0009403,-4.4754e-05,0.0001803,0,0,0,0.02483,0.00074933,6.9149e-05,0.012381,0.0085496,0.024429,7.4756e-07,0.35,0.05,0.5
0.019196,0.0067158,4.3026e-05,0.02504,2.0712e-05,0.00040972,-0.0002617,1.1637e-07,3.8064e-05,0.049821,-0.015228,-0.014217,-0.0013608,6.0513e-07,0.00019793,0,0,0,0.025043,0.0004103,1.7023e-05,0.012513,0.0084901,0.024832,7.8633e-07,0.4,0.05,0.5
0.021703,0.0067699,5.4971e-05,0.025261,-2.3353e-05,0.00019105,-0.00029267,1.0428e-05,3.8197e-05,0.050421,-0.015318,-0.01476,-0.0015219,5.4225e-05,0.00019863,0,0,0,0.025265,0.0001936,-2.9714e-05,0.012647,0.0084762,0.025184,8.2046e-07,0.45,0.05,0.5
0.024238,0.0067833,6.6521e-05,0.025465,-6.3379e-05,5.6905e-05,-0.00028213,2.0772e-05,3.448e-05,0.050934,-0.01544,-0.015127,-0.0014671,0.00010801,0.0001793,0,0,0,0.025468,6.6507e-05,-7.6572e-05,0.012773,0.0084861,0.025474,8.4913e-07,0.5,0.05,0.5
0.026797,0.0067783,7.6822e-05,0.025632,-9.5492e-05,-2.3665e-05,-0.00023758,2.9141e-05,2.7003e-05,0.051336,-0.015556,-0.01537,-0.0012354,0.00015153,0.00014042,0,0,0,0.025635,-2.5721e-06,-0.00011922,0.012877,0.0085044,0.025696,8.7148e-07,0.55,0.05,0.5
0.029372,0.0067724,8.5137e-05,0.02575,-0.00011321,-7.5512e-05,-0.00016939,3.3605e-05,1.6728e-05,0.051614,-0.015631,-0.015533,-0.00088082,0.00017474,8.6987e-05,0,0,0,0.025752,-4.0804e-05,-0.00014937,0.012951,0.0085206,0.025847,8.8686e-07,0.6,0.05,0.5
0.031958,0.0067773,9.1007e-05,0.025813,-0.00011188,-0.00011662,-9.1321e-05,3.2956e-05,5.3646e-06,0.051762,-0.015641,-0.015654,-0.00047487,0.00017137,2.7896e-05,0,0,0,0.025813,-6.1825e-05,-0.00016722,0.01299,0.008528,0.025928,8.9517e-07,0.65,0.05,0.5
0.034548,0.006798,9.4352e-05,0.025821,-9.1869e-05,-0.000158,-1.821e-05,2.7171e-05,-5.0631e-06,0.051793,-0.015582,-0.015754,-9.4694e-05,0.00014129,-2.6328e-05,0,0,0,0.025822,-6.6256e-05,-0.00018375,0.013003,0.0085239,0.025947,8.9712e-07,0.7,0.05,0.5
0.037137,0.0068337,9.5478e-05,0.025787,-5.8878e-05,-0.00020415,3.7674e-05,1.7435e-05,-1.2782e-05,0.051733,-0.015468,-0.015845,0.0001959,9.0663e-05,-6.6464e-05,0,0,0,0.025788,-5.1042e-05,-0.00021212,0.013,0.0085082,0.02592,8.9424e-07,0.75,0.05,0.5
0.039722,0.0068791,9.4979e-05,0.025727,-2.1442e-05,-0.00025416,6.9496e-05,5.7326e-06,-1.6721e-05,0.051619,-0.015326,-0.015931,0.00036138,2.9809e-05,-8.6949e-05,0,0,0,0.025727,-2.0509e-05,-0.00025535,0.012991,0.0084837,0.025866,8.8853e-07,0.8,0.05,0.5
0.042299,0.0069262,9.3586e-05,0.025657,1.2544e-05,-0.00030332,7.6547e-05,-5.7654e-06,-1.6676e-05,0.051488,-0.015187,-0.016008,0.00039804,-2.998e-05,-8.6714e-05,0,0,0,0.025657,1.2784e-05,-0.00030385,0.01298,0.0084554,0.025804,8.8201e-07,0.85,0.05,0.5
0.04487,0.0069668,9.2012e-05,0.025594,3.8114e-05,-0.00034511,6.2865e-05,-1.5214e-05,-1.3177e-05,0.051373,-0.015073,-0.01607,0.0003269,-7.9112e-05,-6.8521e-05,0,0,0,0.025595,3.9095e-05,-0.00034629,0.01297,0.0084292,0.02575,8.763e-07,0.9,0.05,0.5
0.047437,0.0069942,9.0826e-05,0.025552,5.3432e-05,-0.00037318,4.4604e-05,-2.1341e-05,-7.6677e-06,0.051296,-0.015,-0.01611,0.00023194,-0.00011098,-3.9872e-05,0,0,0,0.025552,5.5178e-05,-0.00037503,0.012964,0.0084108,0.025715,8.725e-07,0.95,0.05,0.5
0.048719,0.0070038,9.039e-05,0.025537,5.8466e-05,-0.00038308,3.7635e-05,-2.3455e-05,-4.6663e-06,0.051269,-0.014975,-0.016123,0.0001957,-0.00012197,-2.4265e-05,0,0,0,0.025537,6.0508e-05,-0.00038518,0.012961,0.0084041,0.025702,8.7118e-07,1,0.05,0.5
0.00097912,0.00075854,-1.1827e-06,0.025736,0.0084084,0.0096029,0.0052654,-6.5914e-06,-8.4126e-06,0.040666,-0.0043867,-0.0012812,0.02738,-3.4275e-05,-4.3745e-05,0,0,0,0.02729,0.0096006,0.0068568,0.010217,0.014583,0.019227,3.4397e-07,0,0.1,0.5
0.0020333,0.0014871,-1.8147e-06,0.025647,0.0063569,0.0083311,0.0046223,-1.237e-05,-6.7233e-06,0.042481,-0.007673,-0.00254,0.024036,-6.4326e-05,-3.4961e-05,0,0,0,0.026814,0.0083278,0.005193,0.010811,0.013445,0.020253,3.9858e-07,0.05,0.1,0.5
0.0042481,0.0028322,-1.9596e-06,0.025791,0.003386,0.0062593,0.0032908,-2.226e-05,-2.3298e-06,0.045795,-0.012458,-0.0049878,0.017112,-0.00011575,-1.2116e-05,0,0,0,0.026342,0.0062552,0.0028392,0.011751,0.011812,0.022005,5.0723e-07,0.1,0.1,0.5
0.0066128,0.0039083,1.3768e-07,0.025986,0.0019794,0.0047642,0.0020443,-2.8754e-05,3.1409e-06,0.047926,-0.014491,-0.0072509,0.01063,-0.00014952,1.6332e-05,0,0,0,0.026201,0.0047613,0.0017672,0.012217,0.01091,0.02309,5.9706e-07,0.15,0.1,0.5
0.0090407,0.0046939,4.45e-06,0.025858,0.0012163,0.0034961,0.00111,-3.1702e-05,8.8265e-06,0.048889,-0.01518,-0.0092525,0.0057718,-0.00016485,4.5897e-05,0,0,0,0.025928,0.0034948,0.001148,0.01239,0.01019,0.023699,6.6074e-07,0.2,0.1,0.5
0.011502,0.0052411,1.0897e-05,0.025714,0.0007771,0.0024753,0.00048856,-3.0788e-05,1.4847e-05,0.049476,-0.015359,-0.010944,0.0025405,-0.0001601,7.7204e-05,0,0,0,0.025731,0.0024754,0.00075896,0.012486,0.0096553,0.024163,7.122e-07,0.25,0.1,0.5
0.013988,0.0056039,1.9346e-05,0.025639,0.00050837,0.0016903,8.4716e-05,-2.5503e-05,2.1072e-05,0.04996,-0.015381,-0.012308,0.00044052,-0.00013261,0.00010958,0,0,0,0.025643,0.0016914,0.00050366,0.01257,0.0092794,0.024569,7.5587e-07,0.3,0.1,0.5
0.016498,0.005827,2.9552e-05,0.02563,0.00032503,0.0011077,-0.0001739,-1.5435e-05,2.6934e-05,0.0504,-0.015393,-0.013358,-0.00090428,-8.026e-05,0.00014006,0,0,0,0.025632,0.001109,0.00032136,0.012656,0.0090209,0.024928,7.9315e-07,0.35,0.1,0.5
0.019028,0.0059477,4.1087e-05,0.025664,0.00018013,0.00068949,-0.00032918,-7.7959e-07,3.1391e-05,0.050806,-0.015452,-0.014127,-0.0017117,-4.0539e-06,0.00016323,0,0,0,0.025668,0.00069058,0.00017437,0.012747,0.0088444,0.02524,8.2499e-07,0.4,0.1,0.5
0.021578,0.0059977,5.3283e-05,0.02572,5.1048e-05,0.00039835,-0.00040245,1.7141e-05,3.3123e-05,0.05117,-0.015569,-0.014666,-0.0020927,8.9134e-05,0.00017224,0,0,0,0.025727,0.00040043,4.2402e-05,0.012842,0.0087232,0.025507,8.5203e-07,0.45,0.1,0.5
0.024145,0.0060052,6.5244e-05,0.025782,-6.6122e-05,0.00020051,-0.00040517,3.563e-05,3.0981e-05,0.051484,-0.015722,-0.015029,-0.0021069,0.00018528,0.0001611,0,0,0,0.025789,0.00020673,-7.9005e-05,0.012934,0.0086389,0.025726,8.743e-07,0.5,0.1,0.5
0.026727,0.0059945,7.595e-05,0.025836,-0.00016147,6.759e-05,-0.00034839,5.0942e-05,2.4583e-05,0.051728,-0.015865,-0.015269,-0.0018116,0.0002649,0.00012783,0,0,0,0.025841,8.1069e-05,-0.00018001,0.01301,0.0085807,0.025892,8.9122e-07,0.55,0.1,0.5
0.029318,0.0059851,8.4472e-05,0.02587,-0.00021925,-2.2739e-05,-0.00024889,5.9302e-05,1.4749e-05,0.051885,-0.015947,-0.015436,-0.0012943,0.00030837,7.6697e-05,0,0,0,0.025873,-8.4501e-07,-0.00024394,0.013058,0.0085427,0.025996,9.0205e-07,0.6,0.1,0.5
0.031915,0.0059901,9.021e-05,0.025878,-0.00022828,-8.7127e-05,-0.00013022,5.8272e-05,3.4419e-06,0.051946,-0.015931,-0.015564,-0.00067716,0.00030301,1.7898e-05,0,0,0,0.025879,-5.5254e-05,-0.00026115,0.01307,0.008521,0.026038,9.065e-07,0.65,0.1,0.5
0.034513,0.0060149,9.3067e-05,0.025861,-0.00018994,-0.00013746,-1.8168e-05,4.7787e-05,-6.8707e-06,0.051919,-0.015814,-0.015678,-9.4475e-05,0.00024849,-3.5727e-05,0,0,0,0.025861,-8.579e-05,-0.00024185,0.013052,0.0085113,0.026026,9.0528e-07,0.7,0.1,0.5
0.037107,0.0060576,9.3455e-05,0.025825,-0.0001188,-0.00018135,6.63e-05,3.0202e-05,-1.4115e-05,0.051829,-0.015624,-0.015786,0.00034476,0.00015705,-7.3396e-05,0,0,0,0.025825,-7.9591e-05,-0.00022087,0.013023,0.0085081,0.025975,9.0007e-07,0.75,0.1,0.5
0.039696,0.0061112,9.2145e-05,0.025778,-3.6021e-05,-0.00022228,0.00011232,9.3424e-06,-1.7266e-05,0.051711,-0.015405,-0.01589,0.00058408,4.858e-05,-8.9784e-05,0,0,0,0.025778,-2.9464e-05,-0.0002294,0.013004,0.0085065,0.025909,8.9303e-07,0.8,0.1,0.5
0.042278,0.0061662,9.0032e-05,0.025732,3.9414e-05,-0.00025987,0.00011989,-1.0801e-05,-1.6449e-05,0.051595,-0.015204,-0.015982,0.00062345,-5.6168e-05,-8.5533e-05,0,0,0,0.025732,4.0247e-05,-0.00026132,0.012997,0.0085037,0.025844,8.8614e-07,0.85,0.1,0.5
0.044855,0.0062132,8.7926e-05,0.025694,9.5961e-05,-0.00029111,9.6603e-05,-2.7067e-05,-1.2555e-05,0.051504,-0.01505,-0.016056,0.00050234,-0.00014075,-6.5285e-05,0,0,0,0.025694,9.8671e-05,-0.00029424,0.012994,0.0084995,0.025794,8.8072e-07,0.9,0.1,0.5
0.047429,0.0062445,8.6427e-05,0.025669,0.00012965,-0.00031201,6.4066e-05,-3.7465e-05,-7.2683e-06,0.051448,-0.014955,-0.016103,0.00033314,-0.00019482,-3.7795e-05,0,0,0,0.025669,0.00013422,-0.00031677,0.012993,0.0084956,0.025764,8.774e-07,0.95,0.1,0.5
0.048715,0.0062555,8.5889e-05,0.025661,0.00014069,-0.00031938,4.9612e-05,-4.1023e-05,-4.5559e-06,0.051429,-0.014923,-0.01612,0.00025798,-0.00021332,-2.369e-05,0,0,0,0.025661,0.00014596,-0.00032475,0.012993,0.0084941,0.025754,8.7629e-07,1,0.1,0.5
0.00093313,0.00059992,-1.9387e-06,0.02481,0.0089209,0.009475,0.00443,-9.4736e-06,-1.454e-05,0.038583,-0.0027293,-0.0012886,0.023036,-4.9263e-05,-7.561e-05,0,0,0,0.025994,0.0094728,0.0077394,0.0091273,0.014402,0.017458,2.6729e-07,0,0.15,0.5
0.0019291,0.0011839,-3.2125e-06,0.024879,0.0073367,0.0083878,0.0041199,-1.7584e-05,-1.3087e-05,0.040324,-0.0052869,-0.0025542,0.021424,-9.1435e-05,-6.8051e-05,0,0,0,0.025853,0.0083845,0.0063668,0.009743,0.013535,0.018567,3.2246e-07,0.05,0.15,0.5
0.0040324,0.0022892,-4.4613e-06,0.025329,0.0046921,0.0064992,0.0033285,-3.1373e-05,-9.2688e-06,0.043943,-0.0097127,-0.005014,0.017308,-0.00016314,-4.8199e-05,0,0,0,0.025903,0.0064953,0.0041221,0.01089,0.012173,0.020703,4.4222e-07,0.1,0.15,0.5
0.0063234,0.0032282,-3.1693e-06,0.025918,0.0029911,0.0050299,0.0023551,-4.0624e-05,-4.679e-06,0.047024,-0.012587,-0.0072857,0.012246,-0.00021124,-2.4332e-05,0,0,0,0.026191,0.0050275,0.0027209,0.011735,0.011313,0.022412,5.6052e-07,0.15,0.15,0.5
0.0087348,0.0039555,5.734e-07,0.026189,0.0019588,0.0037989,0.0014637,-4.5527e-05,6.5015e-08,0.048923,-0.014075,-0.0092907,0.0076112,-0.00023674,3.3753e-07,0,0,0,0.026296,0.0037986,0.0018519,0.012222,0.010649,0.023535,6.5501e-07,0.2,0.15,0.5
0.011216,0.0044807,6.7301e-06,0.026246,0.0013183,0.0027795,0.00077056,-4.5474e-05,5.7552e-06,0.050033,-0.014779,-0.010979,0.0040069,-0.00023646,2.9927e-05,0,0,0,0.026279,0.0027812,0.0012826,0.012498,0.010114,0.024285,7.263e-07,0.25,0.15,0.5
0.013738,0.0048357,1.5289e-05,0.026217,0.00090024,0.0019682,0.00026869,-3.9303e-05,1.2808e-05,0.050713,-0.015111,-0.012334,0.0013972,-0.00020437,6.6602e-05,0,0,0,0.026225,0.0019713,0.00088937,0.012668,0.0096951,0.024814,7.797e-07,0.3,0.15,0.5
0.016287,0.005055,2.6155e-05,0.026167,0.00060032,0.0013474,-8.1821e-05,-2.5775e-05,2.0841e-05,0.051165,-0.015308,-0.013365,-0.00042547,-0.00013403,0.00010838,0,0,0,0.026169,0.0013503,0.0005949,0.012787,0.0093714,0.025206,8.2008e-07,0.35,0.15,0.5
0.018855,0.0051706,3.8991e-05,0.02612,0.00035309,0.00088741,-0.00031245,-4.4419e-06,2.8436e-05,0.051496,-0.015498,-0.014109,-0.0016247,-2.3098e-05,0.00014787,0,0,0,0.026125,0.00088941,0.00034648,0.012889,0.0091202,0.025512,8.5163e-07,0.4,0.15,0.5
0.021437,0.005213,5.3057e-05,0.026086,0.00012424,0.00055506,-0.00043959,2.325e-05,3.3294e-05,0.051765,-0.015736,-0.014616,-0.0022859,0.0001209,0.00017313,0,0,0,0.026094,0.00055805,0.00011359,0.01299,0.0089218,0.025761,8.7731e-07,0.45,0.15,0.5
0.024031,0.0052111,6.7149e-05,0.026063,-9.0853e-05,0.00031873,-0.00047076,5.3231e-05,3.2987e-05,0.05199,-0.016011,-0.014946,-0.0024479,0.0002768,0.00017153,0,0,0,0.026072,0.00032696,-0.00010768,0.01309,0.0087637,0.025965,8.9831e-07,0.5,0.15,0.5
0.026636,0.0051918,7.9732e-05,0.026044,-0.00027122,0.00015218,-0.0004155,7.9078e-05,2.6167e-05,0.05216,-0.01626,-0.01516,-0.0021606,0.00041121,0.00013607,0,0,0,0.026051,0.00016844,-0.00029433,0.013173,0.0086418,0.026118,9.1405e-07,0.55,0.15,0.5
0.029247,0.0051778,8.9299e-05,0.026021,-0.0003835,3.5582e-05,-0.00029484,9.374e-05,1.3656e-05,0.052251,-0.016401,-0.015311,-0.0015332,0.00048745,7.1013e-05,0,0,0,0.026025,5.8905e-05,-0.00041058,0.013218,0.0085577,0.026204,9.231e-07,0.6,0.15,0.5
0.031861,0.0051841,9.4854e-05,0.025988,-0.00040306,-4.5899e-05,-0.00014312,9.2444e-05,-1.4173e-06,0.052245,-0.016371,-0.015443,-0.00074424,0.00048071,-7.3698e-06,0,0,0,0.025989,-1.8604e-05,-0.00043164,0.01321,0.0085129,0.026217,9.2463e-07,0.65,0.15,0.5
0.034471,0.0052166,9.6272e-05,0.025943,-0.00033229,-0.00010461,2.7322e-07,7.5027e-05,-1.4879e-05,0.052149,-0.016168,-0.015576,1.4211e-06,0.00039014,-7.737e-05,0,0,0,0.025944,-7.2992e-05,-0.00036429,0.013154,0.0085022,0.026164,9.1944e-07,0.7,0.15,0.5
0.037076,0.0052713,9.4321e-05,0.025894,-0.00020159,-0.00015087,0.00010423,4.6019e-05,-2.3396e-05,0.051999,-0.015849,-0.015717,0.000542,0.0002393,-0.00012166,0,0,0,0.025894,-8.7203e-05,-0.00026587,0.01308,0.0085138,0.026072,9.1002e-07,0.75,0.15,0.5
0.039671,0.0053385,9.033e-05,0.025847,-5.3301e-05,-0.00019131,0.00015502,1.2446e-05,-2.5767e-05,0.05184,-0.0155,-0.015859,0.00080609,6.4719e-05,-0.00013399,0,0,0,0.025848,-2.9463e-05,-0.00021617,0.013032,0.0085341,0.025971,8.9956e-07,0.8,0.15,0.5
0.04226,0.0054057,8.5729e-05,0.02581,7.7094e-05,-0.00022784,0.00015611,-1.8977e-05,-2.2844e-05,0.05171,-0.015195,-0.015988,0.00081176,-9.8679e-05,-0.00011879,0,0,0,0.025811,7.9326e-05,-0.00023108,0.013021,0.008553,0.025888,8.9062e-07,0.85,0.15,0.5
0.044842,0.0054619,8.1696e-05,0.025785,0.00017089,-0.00025839,0.00012102,-4.3544e-05,-1.6501e-05,0.051623,-0.014974,-0.01609,0.00062933,-0.00022643,-8.5805e-05,0,0,0,0.025786,0.00017682,-0.00026497,0.013025,0.0085659,0.025833,8.8449e-07,0.9,0.15,0.5
0.047422,0.0054987,7.9008e-05,0.025772,0.00022463,-0.00027904,7.7612e-05,-5.882e-05,-9.4452e-06,0.051577,-0.014847,-0.016156,0.00040358,-0.00030587,-4.9115e-05,0,0,0,0.025772,0.0002339,-0.00028859,0.01303,0.0085725,0.025804,8.8117e-07,0.95,0.15,0.5
0.048711,0.0055115,7.8072e-05,0.025768,0.00024179,-0.00028637,5.8762e-05,-6.3964e-05,-6.1569e-06,0.051563,-0.014805,-0.016179,0.00030556,-0.00033261,-3.2016e-05,0,0,0,0.025768,0.00025226,-0.00029699,0.013033,0.0085745,0.025795,8.8016e-07,1,0.15,0.5
0.00091487,0.00048561,-3.175e-06,0.02442,0.0091134,0.0094052,0.0036408,-1.2141e-05,-2.4475e-05,0.037729,-0.0020685,-0.0013097,0.018932,-6.3131e-05,-0.00012727,0,0,0,0.025267,0.0094029,0.0082692,0.0084989,0.014313,0.016463,2.2784e-07,0,0.2,0.5
0.0018865,0.00095844,-5.4989e-06,0.024554,0.007847,0.0084234,0.0034676,-2.251e-05,-2.3362e-05,0.039346,-0.0040927,-0.0025939,0.018031,-0.00011705,-0.00012148,0,0,0,0.02528,0.0084201,0.0071247,0.0090776,0.013608,0.017547,2.7869e-07,0.05,0.2,0.5
0.0039346,0.0018609,-8.5506e-06,0.02511,0.0056124,0.0066735,0.0029867,-4.0285e-05,-2.0401e-05,0.042848,-0.007845,-0.0050862,0.015531,-0.00020948,-0.00010609,0,0,0,0.02559,0.0066699,0.0051359,0.010227,0.012465,0.019736,3.9395e-07,0.1,0.2,0.5
0.0061712,0.0026496,-8.5646e-06,0.025824,0.0039329,0.0052364,0.0023123,-5.2851e-05,-1.7123e-05,0.046147,-0.010771,-0.0073814,0.012024,-0.00027483,-8.9039e-05,0,0,0,0.02609,0.0052352,0.0036686,0.011211,0.011665,0.021684,5.1899e-07,0.15,0.2,0.5
0.0085493,0.0032864,-5.7301e-06,0.026278,0.00274,0.0040051,0.0016015,-6.0841e-05,-1.3759e-05,0.048509,-0.01269,-0.0094008,0.0083277,-0.00031637,-7.1546e-05,0,0,0,0.026402,0.0040073,0.0026138,0.011894,0.011008,0.023126,6.2964e-07,0.2,0.2,0.5
0.011022,0.0037633,-4.5921e-09,0.026496,0.0019322,0.0029823,0.00097169,-6.3359e-05,-8.5251e-06,0.050044,-0.013823,-0.011092,0.0050528,-0.00032947,-4.4331e-05,0,0,0,0.026544,0.0029884,0.0018785,0.012333,0.01047,0.024132,7.1744e-07,0.25,0.2,0.5
0.013554,0.0040928,8.821e-06,0.02655,0.0013738,0.0021591,0.0004622,-5.8194e-05,-9.5485e-08,0.050981,-0.014478,-0.012436,0.0024034,-0.00030261,-4.966e-07,0,0,0,0.026564,0.002168,0.001351,0.012607,0.010028,0.024816,7.8232e-07,0.3,0.2,0.5
0.01612,0.0042963,2.0944e-05,0.026512,0.00095498,0.0015196,6.9371e-05,-4.2431e-05,1.1589e-05,0.05154,-0.014909,-0.013441,0.00036073,-0.00022064,6.026e-05,0,0,0,0.026516,0.0015279,0.00094339,0.012786,0.0096624,0.025286,8.2895e-07,0.35,0.2,0.5
0.018708,0.0043978,3.624e-05,0.026434,0.00059414,0.0010374,-0.00021747,-1.3854e-05,2.4622e-05,0.051889,-0.015295,-0.014142,-0.0011308,-7.2038e-05,0.00012803,0,0,0,0.026437,0.0010423,0.0005859,0.012926,0.0093552,0.025626,8.6354e-07,0.4,0.2,0.5
0.021309,0.0044241,5.3885e-05,0.026347,0.00024287,0.00068058,-0.00039958,2.6874e-05,3.5148e-05,0.05214,-0.015731,-0.014593,-0.0020778,0.00013975,0.00018277,0,0,0,0.026354,0.00068532,0.00023149,0.013061,0.0090902,0.025899,8.9136e-07,0.45,0.2,0.5
0.023922,0.0044041,7.2145e-05,0.026268,-0.00010398,0.00041846,-0.00047077,7.4078e-05,3.8398e-05,0.052348,-0.01622,-0.014862,-0.002448,0.0003852,0.00019967,0,0,0,0.026277,0.00043085,-0.00012492,0.013201,0.0088609,0.026129,9.1479e-07,0.5,0.2,0.5
0.026544,0.0043684,8.8505e-05,0.0262,-0.00040734,0.0002266,-0.00043049,0.00011706,3.0996e-05,0.052508,-0.01667,-0.015022,-0.0022385,0.00060871,0.00016118,0,0,0,0.026207,0.00025067,-0.00043868,0.013323,0.0086729,0.026308,9.3292e-07,0.55,0.2,0.5
0.029173,0.004345,0.00010028,0.026136,-0.0006021,8.8921e-05,-0.00029911,0.00014281,1.3496e-05,0.05258,-0.016939,-0.015142,-0.0015554,0.0007426,7.018e-05,0,0,0,0.02614,0.00012204,-0.00063917,0.01339,0.0085409,0.026407,9.4298e-07,0.6,0.2,0.5
0.031802,0.004353,0.00010565,0.026073,-0.00063714,-5.756e-06,-0.00012262,0.00014148,-8.742e-06,0.052532,-0.016915,-0.015273,-0.00063763,0.00073568,-4.5459e-05,0,0,0,0.026074,3.0012e-05,-0.00067418,0.013374,0.0084767,0.026404,9.4297e-07,0.65,0.2,0.5
0.034426,0.0043981,0.00010442,0.026011,-0.00051574,-6.997e-05,4.1939e-05,0.00011271,-2.7942e-05,0.052374,-0.016596,-0.015437,0.00021808,0.00058608,-0.0001453,0,0,0,0.026012,-3.7521e-05,-0.00054876,0.01328,0.0084751,0.026309,9.3389e-07,0.7,0.2,0.5
0.037039,0.0044727,9.8142e-05,0.025956,-0.00029716,-0.00011802,0.00015149,6.5753e-05,-3.8392e-05,0.052162,-0.016097,-0.015632,0.00078776,0.00034192,-0.00019964,0,0,0,0.025958,-6.8277e-05,-0.00034802,0.013153,0.0085137,0.026167,9.1979e-07,0.75,0.2,0.5
0.039642,0.0045612,8.9279e-05,0.025917,-5.9282e-05,-0.00016045,0.00019233,1.3428e-05,-3.8903e-05,0.051966,-0.015573,-0.015836,0.0010001,6.9827e-05,-0.00020229,0,0,0,0.025919,-6.393e-06,-0.00021487,0.013067,0.0085659,0.02603,9.0564e-07,0.8,0.2,0.5
0.042236,0.0046467,8.0275e-05,0.025898,0.00013883,-0.00020055,0.00017654,-3.3273e-05,-3.2042e-05,0.051833,-0.015141,-0.016023,0.00091801,-0.00017302,-0.00016662,0,0,0,0.025899,0.0001441,-0.00020712,0.013053,0.0086121,0.025933,8.9507e-07,0.85,0.2,0.5
0.044825,0.0047158,7.2927e-05,0.025895,0.00027206,-0.00023562,0.00012738,-6.7877e-05,-2.1658e-05,0.051768,-0.014851,-0.016171,0.00066237,-0.00035296,-0.00011262,0,0,0,0.025896,0.00028393,-0.00024822,0.013072,0.0086437,0.025882,8.8913e-07,0.9,0.2,0.5
0.047413,0.0047599,6.8251e-05,0.025899,0.0003432,-0.00025999,7.9821e-05,-8.8393e-05,-1.2176e-05,0.051748,-0.014697,-0.016265,0.00041507,-0.00045964,-6.3313e-05,0,0,0,0.025899,0.00036017,-0.00027725,0.013088,0.0086607,0.025864,8.8674e-07,0.95,0.2,0.5
0.048706,0.004775,6.6661e-05,0.025902,0.00036487,-0.00026872,6.2095e-05,-9.5106e-05,-8.2977e-06,0.051746,-0.01465,-0.016297,0.0003229,-0.00049455,-4.3148e-05,0,0,0,0.025902,0.00038357,-0.00028758,0.013095,0.0086659,0.02586,8.862e-07,1,0.2,0.5
0.00090946,0.00039307,-4.8249e-06,0.024306,0.0092473,0.0093958,0.0029709,-1.4684e-05,-3.7805e-05,0.037427,-0.0017268,-0.0013406,0.015449,-7.6356e-05,-0.00019658,0,0,0,0.024893,0.0093934,0.0086632,0.0081148,0.014317,0.015878,2.0618e-07,0,0.25,0.5
0.0018713,0.00077465,-8.5596e-06,0.024457,0.0081596,0.0084592,0.0028639,-2.7298e-05,-3.7318e-05,0.038943,-0.0034307,-0.0026516,0.014892,-0.00014195,-0.00019406,0,0,0,0.024972,0.0084561,0.0076481,0.0086619,0.013692,0.016936,2.5344e-07,0.05,0.25,0.5
0.0038943,0.0015047,-1.4063e-05,0.025043,0.0062109,0.0067806,0.0025566,-4.9294e-05,-3.6057e-05,0.04229,-0.0066721,-0.0051909,0.013295,-0.00025633,-0.0001875,0,0,0,0.025407,0.0067784,0.0058486,0.0097792,0.012678,0.019113,3.6291e-07,0.1,0.25,0.5
0.0061004,0.0021511,-1.5935e-05,0.025806,0.0046493,0.0053761,0.0021028,-6.6044e-05,-3.552e-05,0.045596,-0.0094104,-0.0075208,0.010934,-0.00034343,-0.0001847,0,0,0,0.02603,0.0053787,0.0044228,0.010803,0.011944,0.021148,4.8762e-07,0.15,0.25,0.5
0.0084539,0.0026865,-1.4519e-05,0.026343,0.0034255,0.004149,0.0015869,-7.8815e-05,-3.54e-05,0.048142,-0.011444,-0.0095632,0.008252,-0.00040984,-0.00018408,0,0,0,0.026464,0.0041592,0.0032945,0.011585,0.011306,0.022752,6.0495e-07,0.2,0.25,0.5
0.010915,0.0030984,-9.6548e-06,0.026651,0.002525,0.0031208,0.0010843,-8.6502e-05,-3.2432e-05,0.049915,-0.012813,-0.011264,0.0056382,-0.00044981,-0.00016865,0,0,0,0.026707,0.0031428,0.0024468,0.01213,0.010766,0.023922,7.0248e-07,0.25,0.25,0.5
0.013445,0.0033879,-7.5669e-07,0.026765,0.0018683,0.0022905,0.00063515,-8.5517e-05,-2.368e-05,0.051035,-0.013697,-0.012599,0.0033028,-0.00044469,-0.00012313,0,0,0,0.026786,0.0023283,0.0018092,0.012489,0.010308,0.024723,7.755e-07,0.3,0.25,0.5
0.016018,0.003564,1.2937e-05,0.026741,0.0013569,0.0016432,0.00025039,-6.9928e-05,-7.7324e-06,0.051682,-0.014317,-0.013572,0.001302,-0.00036363,-4.0209e-05,0,0,0,0.026747,0.0016884,0.0013057,0.012721,0.0099137,0.025253,8.2667e-07,0.35,0.25,0.5
0.018614,0.0036412,3.1846e-05,0.026637,0.0008952,0.0011521,-6.5855e-05,-3.3576e-05,1.3293e-05,0.052045,-0.014883,-0.014215,-0.00034245,-0.00017459,6.9122e-05,0,0,0,0.026639,0.0011828,0.00086204,0.012889,0.0095614,0.025619,8.6324e-07,0.4,0.25,0.5
0.021223,0.0036399,5.5248e-05,0.026499,0.0004128,0.00078208,-0.00029712,2.531e-05,3.3131e-05,0.052282,-0.015543,-0.014583,-0.001545,0.00013161,0.00017228,0,0,0,0.026504,0.00079581,0.00039457,0.013055,0.0092314,0.025911,8.9283e-07,0.45,0.25,0.5
0.023842,0.0035891,8.0588e-05,0.026363,-9.5605e-05,0.00050184,-0.00041532,9.9586e-05,4.369e-05,0.052482,-0.01631,-0.014757,-0.0021596,0.00051785,0.00022719,0,0,0,0.02637,0.00052169,-0.00012235,0.013246,0.008923,0.026177,9.1921e-07,0.5,0.25,0.5
0.026471,0.0035248,0.00010367,0.026244,-0.00056128,0.00028952,-0.00040248,0.00017178,3.7769e-05,0.05265,-0.017043,-0.01483,-0.0020929,0.00089327,0.0001964,0,0,0,0.02625,0.00032893,-0.00060709,0.013429,0.0086573,0.026403,9.4102e-07,0.55,0.25,0.5
0.029107,0.0034839,0.00011965,0.026144,-0.00087142,0.00013278,-0.00027278,0.00021745,1.4212e-05,0.052731,-0.017509,-0.014898,-0.0014185,0.0011307,7.39e-05,0,0,0,0.026147,0.00018661,-0.00092873,0.013538,0.0084684,0.026537,9.5374e-07,0.6,0.25,0.5
0.031744,0.0034927,0.00012486,0.026064,-0.00092667,2.8096e-05,-8.2739e-05,0.00021652,-1.7958e-05,0.052668,-0.017509,-0.015026,-0.00043024,0.0011259,-9.3382e-05,0,0,0,0.026065,8.4235e-05,-0.00098391,0.013525,0.0083886,0.026533,9.5364e-07,0.65,0.25,0.5
0.034374,0.0035569,0.00011905,0.026007,-0.00073058,-3.7031e-05,8.9058e-05,0.00016824,-4.4451e-05,0.052474,-0.017043,-0.01524,0.0004631,0.00087483,-0.00023115,0,0,0,0.026007,9.2268e-06,-0.00077768,0.013393,0.008413,0.026402,9.4191e-07,0.7,0.25,0.5
0.036991,0.0036616,0.00010544,0.025975,-0.00039207,-8.4531e-05,0.00018768,9.1415e-05,-5.5643e-05,0.052237,-0.016319,-0.015519,0.00097596,0.00047536,-0.00028934,0,0,0,0.025977,-2.9741e-05,-0.00044843,0.013213,0.0084996,0.02622,9.2469e-07,0.75,0.25,0.5
0.039597,0.0037812,8.86e-05,0.025978,-3.9897e-05,-0.00012859,0.00020312,1.0017e-05,-5.1673e-05,0.052056,-0.015589,-0.01582,0.0010562,5.2086e-05,-0.0002687,0,0,0,0.025979,4.7373e-05,-0.00021761,0.013098,0.008603,0.026066,9.0916e-07,0.8,0.25,0.5
0.042197,0.0038917,7.2691e-05,0.026008,0.0002323,-0.00017482,0.00016101,-5.8125e-05,-3.8553e-05,0.051981,-0.015035,-0.016094,0.00083726,-0.00030225,-0.00020047,0,0,0,0.026009,0.00024415,-0.00018788,0.013098,0.0086884,0.025984,9.0001e-07,0.85,0.25,0.5
0.044795,0.0039767,6.0459e-05,0.026051,0.00039504,-0.00021908,9.9796e-05,-0.00010486,-2.3105e-05,0.051997,-0.014709,-0.016306,0.00051894,-0.00054526,-0.00012015,0,0,0,0.026052,0.00041804,-0.00024264,0.013147,0.0087424,0.025971,8.976e-07,0.9,0.25,0.5
0.047396,0.004029,5.3022e-05,0.026089,0.00047162,-0.00025059,6.1667e-05,-0.00013035,-1.2463e-05,0.052046,-0.01456,-0.016438,0.00032067,-0.00067782,-6.4808e-05,0,0,0,0.026089,0.00050166,-0.00028084,0.013185,0.0087701,0.025988,8.987e-07,0.95,0.25,0.5
0.048698,0.0040465,5.0553e-05,0.026104,0.00049302,-0.00026184,5.4274e-05,-0.00013821,-9.2892e-06,0.05207,-0.01452,-0.016482,0.00028222,-0.00071869,-4.8304e-05,0,0,0,0.026105,0.00052525,-0.00029421,0.013199,0.0087785,0.025999,8.9958e-07,1,0.25,0.5
0.00091045,0.00031294,-6.8381e-06,0.024347,0.0093646,0.0094246,0.0023782,-1.6937e-05,-5.4254e-05,0.03742,-0.0015336,-0.0013774,0.012367,-8.8072e-05,-0.00028212,0,0,0,0.024735,0.0094225,0.0089782,0.0078785,0.014379,0.01554,1.9413e-07,0,0.3,0.5
0.001871,0.00061538,-1.231e-05,0.024503,0.0083792,0.0085043,0.0023122,-3.1626e-05,-5.489e-05,0.038876,-0.0030462,-0.0027207,0.012023,-0.00016445,-0.00028543,0,0,0,0.02485,0.0085026,0.0080342,0.0084079,0.013796,0.016587,2.3942e-07,0.05,0.3,0.5
0.0038876,0.0011937,-2.089e-05,0.025099,0.0066097,0.0068542,0.0021198,-5.7814e-05,-5.6798e-05,0.042119,-0.0059523,-0.0053168,0.011023,-0.00030063,-0.00029535,0,0,0,0.025357,0.0068573,0.0063483,0.0095043,0.012854,0.01876,3.4548e-07,0.1,0.3,0.5
0.0060829,0.0017086,-2.5257e-05,0.025885,0.0051562,0.0054674,0.0018309,-7.9494e-05,-6.1542e-05,0.045396,-0.0084991,-0.0076901,0.0095208,-0.00041337,-0.00032002,0,0,0,0.026058,0.0054837,0.0049668,0.010546,0.01217,0.020839,4.6949e-07,0.15,0.3,0.5
0.0084272,0.0021419,-2.6001e-05,0.026469,0.0039568,0.0042455,0.0014915,-9.8935e-05,-6.8304e-05,0.048016,-0.010515,-0.0097643,0.0077557,-0.00051446,-0.00035518,0,0,0,0.026575,0.0042869,0.0038088,0.011383,0.011557,0.022532,5.9033e-07,0.2,0.3,0.5
0.010885,0.002482,-2.2835e-05,0.026829,0.0030275,0.0032152,0.0011395,-0.00011521,-7.1968e-05,0.049912,-0.011971,-0.011483,0.0059252,-0.00059911,-0.00037423,0,0,0,0.026889,0.0032999,0.0028827,0.012003,0.011024,0.023801,6.9368e-07,0.25,0.3,0.5
0.013418,0.0027232,-1.4612e-05,0.026976,0.0023251,0.0023822,0.00079689,-0.0001233,-6.6959e-05,0.051127,-0.012965,-0.012816,0.0041438,-0.00064117,-0.00034819,0,0,0,0.027006,0.0025242,0.0021529,0.012426,0.010561,0.02467,7.7134e-07,0.3,0.3,0.5
0.015997,0.0028646,4.8317e-07,0.026945,0.0017635,0.0017339,0.00046866,-0.00011314,-4.8972e-05,0.051792,-0.01368,-0.013757,0.0024371,-0.00058833,-0.00025465,0,0,0,0.026958,0.0019089,0.0015758,0.012691,0.010148,0.025217,8.234e-07,0.35,0.3,0.5
0.018598,0.0029095,2.4108e-05,0.026791,0.0012338,0.0012433,0.00016036,-7.0008e-05,-1.8352e-05,0.052095,-0.014353,-0.014328,0.0008339,-0.00036404,-9.5432e-05,0,0,0,0.026795,0.0013735,0.001099,0.012848,0.0097559,0.02556,8.5742e-07,0.4,0.3,0.5
0.021207,0.0028697,5.6171e-05,0.026567,0.00063026,0.00086816,-0.00010088,1.5692e-05,1.4619e-05,0.052234,-0.0152,-0.014582,-0.00052459,8.16e-05,7.6021e-05,0,0,0,0.026569,0.00092083,0.00057465,0.012997,0.009355,0.025824,8.8391e-07,0.45,0.3,0.5
0.023821,0.0027731,9.3085e-05,0.026316,-6.8544e-05,0.00056799,-0.00026451,0.00013019,3.5306e-05,0.052332,-0.016268,-0.014613,-0.0013755,0.00067697,0.00018359,0,0,0,0.02632,0.00060389,-0.00010853,0.013214,0.0089385,0.026082,9.0849e-07,0.5,0.3,0.5
0.02644,0.0026642,0.00012767,0.026092,-0.00072577,0.00033426,-0.0002917,0.00024646,3.6569e-05,0.052418,-0.017307,-0.014551,-0.0015168,0.0012816,0.00019016,0,0,0,0.026096,0.00040097,-0.00079667,0.013446,0.0085667,0.026316,9.2904e-07,0.55,0.3,0.5
0.029063,0.0025941,0.00015105,0.025936,-0.0011484,0.00016912,-0.00020299,0.00032871,1.3239e-05,0.052459,-0.01796,-0.014534,-0.0010556,0.0017093,6.8843e-05,0,0,0,0.025938,0.00026242,-0.0012442,0.013591,0.0083188,0.026463,9.4109e-07,0.6,0.3,0.5
0.031686,0.0026022,0.00015626,0.02585,-0.0012276,5.6935e-05,-5.9082e-05,0.00032913,-2.5807e-05,0.052403,-0.017999,-0.01466,-0.00030723,0.0017115,-0.00013419,0,0,0,0.025851,0.00015254,-0.0013242,0.013588,0.0082265,0.02647,9.4216e-07,0.65,0.3,0.5
0.034303,0.0026938,0.00014287,0.025839,-0.00096666,-1.4825e-05,7.8121e-05,0.00024605,-5.4122e-05,0.052268,-0.017428,-0.014953,0.00040623,0.0012794,-0.00028143,0,0,0,0.02584,5.8588e-05,-0.001041,0.013441,0.008286,0.026352,9.3353e-07,0.7,0.3,0.5
0.036913,0.0028408,0.00011712,0.02591,-0.0004829,-5.5374e-05,0.00014751,0.00012489,-6.1746e-05,0.052144,-0.016479,-0.015367,0.00076703,0.00064945,-0.00032108,0,0,0,0.025912,2.3288e-05,-0.00056294,0.013237,0.0084574,0.026189,9.2033e-07,0.75,0.3,0.5
0.039517,0.0030023,8.7531e-05,0.026034,1.3247e-05,-9.2978e-05,0.00012878,6.3827e-07,-5.2157e-05,0.052116,-0.015538,-0.015814,0.00066963,3.3187e-06,-0.00027122,0,0,0,0.026035,0.00013901,-0.00022006,0.013128,0.0086514,0.026078,9.1011e-07,0.8,0.3,0.5
0.042124,0.0031432,6.1321e-05,0.026174,0.0003546,-0.00014722,6.3831e-05,-9.8989e-05,-3.0872e-05,0.052223,-0.014907,-0.016211,0.00033192,-0.00051474,-0.00016053,0,0,0,0.026174,0.00038035,-0.00017384,0.013174,0.0087937,0.026077,9.0906e-07,0.85,0.3,0.5
0.04474,0.0032448,4.2446e-05,0.026307,0.00052467,-0.00020445,8.2867e-06,-0.00015866,-1.1162e-05,0.052421,-0.014612,-0.016508,4.3091e-05,-0.00082501,-5.8041e-05,0,0,0,0.026307,0.00056756,-0.00024782,0.013278,0.0088756,0.026157,9.1621e-07,0.9,0.3,0.5
0.047366,0.0033039,3.1632e-05,0.026404,0.00058717,-0.00024556,7.4953e-06,-0.00018631,-4.8313e-06,0.052602,-0.014521,-0.016686,3.8976e-05,-0.00096879,-2.5123e-05,0,0,0,0.026404,0.00063864,-0.00029728,0.013351,0.0089151,0.026246,9.248e-07,0.95,0.3,0.5
0.048682,0.003323,2.818e-05,0.026439,0.00060006,-0.00026058,2.6251e-05,-0.000194,-6.0054e-06,0.052674,-0.014507,-0.016744,0.0001365,-0.0010088,-3.1228e-05,0,0,0,0.026439,0.00065399,-0.0003147,0.013377,0.0089261,0.026283,9.2847e-07,1,0.3,0.5
0.00091538,0.00023971,-9.1397e-06,0.024485,0.0094716,0.0094783,0.0018315,-1.8517e-05,-7.3327e-05,0.037599,-0.0014345,-0.0014173,0.009524,-9.6291e-05,-0.0003813,0,0,0,0.024725,0.0094779,0.009232,0.0077463,0.014478,0.015372,1.8828e-07,0,0.35,0.5
0.00188,0.00047003,-1.662e-05,0.024646,0.0085392,0.0085578,0.0017953,-3.476e-05,-7.5741e-05,0.039034,-0.0028439,-0.0027954,0.0093353,-0.00018075,-0.00039386,0,0,0,0.024863,0.0085625,0.0083172,0.008273,0.013914,0.016425,2.3312e-07,0.05,0.35,0.5
0.0039034,0.00090946,-2.8837e-05,0.025256,0.0068703,0.0069109,0.0016888,-6.4437e-05,-8.2814e-05,0.042242,-0.0055593,-0.0054537,0.0087819,-0.00033507,-0.00043063,0,0,0,0.025425,0.0069339,0.0066778,0.0093736,0.013012,0.018621,3.3883e-07,0.1,0.35,0.5
0.0061042,0.0013012,-3.6389e-05,0.02607,0.0054914,0.0055299,0.0015323,-9.1147e-05,-9.644e-05,0.045527,-0.0079772,-0.0078771,0.007968,-0.00047397,-0.00050149,0,0,0,0.026194,0.0055881,0.0053093,0.010442,0.012364,0.020747,4.6455e-07,0.15,0.35,0.5
0.0084561,0.001635,-4.0269e-05,0.026699,0.0043255,0.0043112,0.0013515,-0.00011856,-0.00011571,0.048216,-0.0099552,-0.0099925,0.0070276,-0.00061653,-0.0006017,0,0,0,0.026787,0.0044292,0.0041194,0.011334,0.011779,0.022515,5.9008e-07,0.2,0.35,0.5
0.010926,0.0019013,-4.0122e-05,0.027109,0.003399,0.0032816,0.00116,-0.00014675,-0.00013393,0.05021,-0.011437,-0.011742,0.006032,-0.00076312,-0.00069641,0,0,0,0.027171,0.0034928,0.0031265,0.012022,0.011263,0.023863,6.998e-07,0.25,0.35,0.5
0.013477,0.0020915,-3.4087e-05,0.027291,0.0026917,0.0024518,0.00096023,-0.00017013,-0.00014238,0.051495,-0.012462,-0.013086,0.0049932,-0.00088469,-0.00074039,0,0,0,0.027332,0.0027744,0.0023273,0.012503,0.010811,0.024785,7.8213e-07,0.3,0.35,0.5
0.016075,0.002196,-1.8737e-05,0.027255,0.0021267,0.001813,0.00074127,-0.000173,-0.0001312,0.052147,-0.013188,-0.014003,0.0038546,-0.00089962,-0.00068225,0,0,0,0.027282,0.0022018,0.0017109,0.012786,0.010398,0.02533,8.3393e-07,0.35,0.35,0.5
0.018692,0.0022059,1.0384e-05,0.027021,0.0015571,0.0013266,0.00049973,-0.00012843,-9.6675e-05,0.052312,-0.013895,-0.014494,0.0025986,-0.00066785,-0.00050271,0,0,0,0.027037,0.0016302,0.0012377,0.0129,0.0099683,0.025606,8.6155e-07,0.4,0.35,0.5
0.021307,0.0021199,5.5498e-05,0.026615,0.00081895,0.00093312,0.00028242,-2.3383e-06,-5.1067e-05,0.05218,-0.014891,-0.014594,0.0014686,-1.2159e-05,-0.00026555,0,0,0,0.026626,0.0010665,0.00067497,0.012976,0.0094558,0.025759,8.7679e-07,0.45,0.35,0.5
0.02391,0.0019624,0.00011034,0.026119,-6.9536e-05,0.00060932,0.00014269,0.00018364,-2.5464e-05,0.051914,-0.016176,-0.014411,0.00074201,0.00095494,-0.00013241,0,0,0,0.026129,0.00068564,-0.00015623,0.013143,0.0088863,0.025879,8.8598e-07,0.5,0.35,0.5
0.026498,0.0017941,0.0001629,0.025754,-0.00084886,0.00035858,5.8448e-05,0.0003492,-3.1122e-05,0.051498,-0.017257,-0.014137,0.00029109,0.0018162,-0.00015925,0,0,0,0.025763,0.00047626,-0.00097493,0.013369,0.0084213,0.026045,9.0513e-07,0.55,0.35,0.5
0.029063,0.0016879,0.00019946,0.025638,-0.0013062,0.00016947,-3.1256e-05,0.00044631,-2.5558e-05,0.051043,-0.017771,-0.013992,-0.00017599,0.0023218,-0.00012584,0,0,0,0.025642,0.00032176,-0.0014631,0.013553,0.008167,0.02626,9.3825e-07,0.6,0.35,0.5
0.031613,0.0016927,0.00020502,0.025554,-0.0014127,5.0312e-05,-0.00012531,0.00044955,1.3399e-06,0.051011,-0.017862,-0.014115,-0.00064003,0.0023387,1.3312e-05,0,0,0,0.025558,0.00020552,-0.0015721,0.013565,0.0080639,0.026288,9.4127e-07,0.65,0.35,0.5
0.034176,0.0018141,0.00017876,0.02551,-0.0011691,-9.1788e-06,-0.00016466,0.00035636,8.3114e-07,0.051422,-0.01753,-0.014533,-0.00084401,0.0018534,6.1985e-06,0,0,0,0.025517,0.00011678,-0.001302,0.01341,0.0081107,0.026142,9.1541e-07,0.7,0.35,0.5
0.036759,0.0020137,0.00013445,0.025736,-0.00060859,-4.1894e-05,-0.00014903,0.00018702,-1.8264e-05,0.051863,-0.016634,-0.01516,-0.00077494,0.0009725,-9.4975e-05,0,0,0,0.025744,7.9115e-05,-0.00073733,0.013241,0.0083619,0.026087,9.077e-07,0.75,0.35,0.5
0.039362,0.0022274,8.5353e-05,0.026132,3.7605e-05,-6.4084e-05,-0.00014375,-1.2753e-05,-1.05e-05,0.05228,-0.015566,-0.01583,-0.0007475,-6.6313e-05,-5.4599e-05,0,0,0,0.026137,0.00022834,-0.00026018,0.013199,0.0087019,0.026158,9.1793e-07,0.8,0.35,0.5
0.041987,0.002401,4.371e-05,0.026495,0.00047148,-0.00010793,-0.00017229,-0.0001596,1.6311e-05,0.052772,-0.014889,-0.016396,-0.0008959,-0.00082991,8.4817e-05,0,0,0,0.026499,0.00052335,-0.00016347,0.013331,0.0089528,0.026327,9.3506e-07,0.85,0.35,0.5
0.044639,0.0025155,1.6493e-05,0.026764,0.00063365,-0.0001776,-0.00017747,-0.00022848,3.1629e-05,0.053255,-0.014685,-0.016794,-0.00092284,-0.0011881,0.00016447,0,0,0,0.026767,0.0007079,-0.00025458,0.013511,0.0090734,0.026554,9.5804e-07,0.9,0.35,0.5
0.047313,0.0025769,2.3312e-06,0.026931,0.00065507,-0.00023481,-9.652e-05,-0.0002526,2.0112e-05,0.05361,-0.014707,-0.017021,-0.0005019,-0.0013135,0.00010458,0,0,0,0.026932,0.00073909,-0.00032016,0.013626,0.009117,0.026739,9.7759e-07,0.95,0.35,0.5
0.048655,0.0025958,-1.9571e-06,0.026989,0.00064959,-0.00025545,-3.0059e-05,-0.00025738,6.6154e-06,0.053741,-0.014741,-0.017094,-0.00015631,-0.0013384,3.44e-05,0,0,0,0.026989,0.00073602,-0.00034251,0.013666,0.0091277,0.026809,9.8525e-07,1,0.35,0.5
0.00092279,0.00016948,-1.1601e-05,0.024685,0.0095677,0.0095474,0.0013039,-1.8911e-05,-9.4028e-05,0.037901,-0.0014042,-0.0014569,0.0067801,-9.8335e-05,-0.00048894,0,0,0,0.024817,0.009554,0.0094292,0.0076939,0.0146,0.015326,1.8683e-07,0,0.4,0.5
0.0018951,0.00033098,-2.1256e-05,0.024854,0.008653,0.0086172,0.0012909,-3.5697e-05,-9.8917e-05,0.039346,-0.0027768,-0.00287,0.0067129,-0.00018563,-0.00051437,0,0,0,0.024976,0.0086385,0.0085104,0.0082326,0.014041,0.016402,2.3253e-07,0.05,0.4,0.5
0.0039346,0.00063778,-3.7507e-05,0.025491,0.0070246,0.0069588,0.0012532,-6.7138e-05,-0.00011333,0.042591,-0.0054205,-0.0055916,0.0065167,-0.00034912,-0.0005893,0,0,0,0.02559,0.0070208,0.006863,0.0093636,0.013158,0.018649,3.4093e-07,0.1,0.4,0.5
0.0061542,0.00091088,-4.8873e-05,0.026355,0.0056835,0.0055769,0.0012064,-9.7727e-05,-0.00013999,0.045953,-0.0077919,-0.008069,0.0062731,-0.00050818,-0.00072794,0,0,0,0.026435,0.0057001,0.0054797,0.010478,0.012538,0.020846,4.7192e-07,0.15,0.4,0.5
0.0085299,0.0011464,-5.6957e-05,0.027055,0.0045382,0.0043606,0.0011671,-0.00013274,-0.00017889,0.04877,-0.0097727,-0.010235,0.0060689,-0.00069023,-0.00093025,0,0,0,0.027122,0.004571,0.0042602,0.011431,0.011985,0.022709,6.0616e-07,0.2,0.4,0.5
0.011031,0.0013383,-6.1535e-05,0.027553,0.0036205,0.0033372,0.0011373,-0.00017379,-0.00022306,0.050931,-0.011293,-0.01203,0.0059138,-0.00090372,-0.0011599,0,0,0,0.027613,0.0036678,0.0032301,0.012191,0.011504,0.024167,7.2741e-07,0.25,0.4,0.5
0.013623,0.001477,-6.0063e-05,0.027819,0.0029258,0.0025206,0.0011067,-0.00021638,-0.00026199,0.05237,-0.012352,-0.013406,0.0057546,-0.0011252,-0.0013624,0,0,0,0.027874,0.0029877,0.0024034,0.012735,0.011088,0.025184,8.2083e-07,0.3,0.4,0.5
0.016268,0.0015458,-4.6702e-05,0.027845,0.0023949,0.0019129,0.0010468,-0.00024027,-0.00027989,0.053105,-0.013065,-0.014318,0.0054434,-0.0012494,-0.0014554,0,0,0,0.027896,0.0024662,0.0017906,0.013052,0.010717,0.025774,8.787e-07,0.35,0.4,0.5
0.018933,0.0015201,-1.2465e-05,0.027633,0.0018226,0.0014735,0.00094626,-0.00018899,-0.00026306,0.053289,-0.013819,-0.014726,0.0049206,-0.00098275,-0.0013679,0,0,0,0.027678,0.0019128,0.0013382,0.01317,0.01031,0.026058,9.089e-07,0.4,0.4,0.5
0.021597,0.0013806,5.2115e-05,0.027511,0.00091916,0.0010663,0.00089761,2.7776e-05,-0.00027064,0.052762,-0.014938,-0.014622,0.0044976,7.3954e-05,-0.0012954,0,0,0,0.027558,0.0012836,0.00065449,0.013452,0.0098321,0.026599,1.0149e-06,0.45,0.4,0.5
0.024221,0.0011555,0.0001374,0.027476,-0.00013507,0.00064812,0.00088165,0.00033283,-0.00029436,0.051193,-0.016006,-0.014117,0.0041399,0.0015236,-0.0012751,0,0,0,0.027528,0.00082312,-0.00036213,0.013945,0.0093297,0.027324,1.1753e-06,0.5,0.4,0.5
0.026744,0.00093709,0.0002145,0.027098,-0.00085502,0.00029986,0.00066947,0.00048126,-0.00025106,0.048974,-0.016391,-0.013524,0.003048,0.0022903,-0.0010912,0,0,0,0.027134,0.00052649,-0.0011183,0.014126,0.0088475,0.027472,1.2222e-06,0.55,0.4,0.5
0.029147,0.00081294,0.0002628,0.026711,-0.0012115,3.1864e-05,0.00022638,0.0004645,-0.00011545,0.047241,-0.016293,-0.013202,0.0010078,0.0023207,-0.00051245,0,0,0,0.026726,0.0002499,-0.0014445,0.014085,0.0085104,0.027368,1.2138e-06,0.6,0.4,0.5
0.031495,0.00081193,0.00026934,0.026629,-0.0013484,-0.00010156,-0.00027443,0.00047136,7.2007e-05,0.047236,-0.016422,-0.013322,-0.0013063,0.0023533,0.00034813,0,0,0,0.026643,0.00012162,-0.0015859,0.014114,0.0083929,0.027421,1.2207e-06,0.65,0.4,0.5
0.033897,0.00093949,0.0002328,0.026857,-0.0012738,-0.00011264,-0.00066544,0.00050124,0.00019863,0.048986,-0.016791,-0.013913,-0.003089,0.0023829,0.00086715,0,0,0,0.02689,0.0001284,-0.0015472,0.014218,0.0084903,0.027642,1.2455e-06,0.7,0.4,0.5
0.036422,0.0011774,0.0001637,0.027116,-0.00082594,-6.0525e-05,-0.00078225,0.00035449,0.00022296,0.051304,-0.016696,-0.014863,-0.0036779,0.0016229,0.00093678,0,0,0,0.027157,0.00014854,-0.0010762,0.014116,0.008743,0.027648,1.2167e-06,0.75,0.4,0.5
0.039055,0.0014457,8.1759e-05,0.027102,-2.7806e-05,2.8615e-05,-0.00067101,2.9829e-05,0.00017686,0.053131,-0.015944,-0.015869,-0.0033389,7.9406e-05,0.00081924,0,0,0,0.027131,0.00034511,-0.00037401,0.013753,0.0090342,0.027157,1.078e-06,0.8,0.4,0.5
0.041746,0.0016543,1.709e-05,0.027251,0.00055694,1.0606e-05,-0.00055699,-0.0002181,0.00014435,0.054161,-0.015243,-0.016663,-0.0028964,-0.0011341,0.00075063,0,0,0,0.027269,0.00066891,-0.00011931,0.013694,0.0092727,0.027004,1.0109e-06,0.85,0.4,0.5
0.044472,0.0017764,-1.92e-05,0.027576,0.0006851,-0.00010943,-0.00045061,-0.00030252,0.00013096,0.054806,-0.01511,-0.017175,-0.0023432,-0.0015731,0.00068099,0,0,0,0.027587,0.00080224,-0.00023798,0.013913,0.0093838,0.02732,1.0448e-06,0.9,0.4,0.5
0.047227,0.0018331,-3.5768e-05,0.027774,0.00063769,-0.00019959,-0.00024418,-0.00031514,7.3843e-05,0.055285,-0.015269,-0.017446,-0.0012697,-0.0016387,0.00038398,0,0,0,0.027779,0.00076579,-0.00033254,0.014056,0.009404,0.027578,1.0743e-06,0.95,0.4,0.5
0.048611,0.0018489,-4.0289e-05,0.027843,0.00060869,-0.00022897,-0.00011107,-0.00031401,3.4526e-05,0.055458,-0.015351,-0.017529,-0.00057758,-0.0016329,0.00017954,0,0,0,0.027845,0.00073905,-0.00036123,0.014103,0.0094075,0.027672,1.0852e-06,1,0.4,0.5
0.00093142,9.9281e-05,-1.4029e-05,0.024916,0.0096489,0.0096231,0.00077287,-1.7612e-05,-0.00011473,0.03827,-0.0014258,-0.001493,0.0040189,-9.1584e-05,-0.00059659,0,0,0,0.024977,0.0096401,0.0095716,0.0077025,0.014729,0.015371,1.8864e-07,0,0.45,0.5
0.0019135,0.00019235,-2.5853e-05,0.025097,0.0087263,0.0086779,0.00077817,-3.3427e-05,-0.00012262,0.039751,-0.0028124,-0.0029381,0.0040465,-0.00017382,-0.00063761,0,0,0,0.025153,0.0087177,0.0086299,0.0082618,0.014167,0.01648,2.3625e-07,0.05,0.45,0.5
0.0039751,0.00036741,-4.6227e-05,0.025775,0.0070925,0.0070008,0.0007945,-6.3746e-05,-0.0001461,0.043094,-0.0054805,-0.0057188,0.0041314,-0.00033148,-0.00075971,0,0,0,0.025824,0.0070935,0.0069504,0.009437,0.013289,0.018803,3.4997e-07,0.1,0.45,0.5
0.0062229,0.00052201,-6.1782e-05,0.026713,0.005755,0.0056154,0.00083536,-9.5357e-05,-0.00018938,0.046605,-0.0078873,-0.0082501,0.0043439,-0.00049585,-0.00098479,0,0,0,0.026759,0.0057743,0.0055508,0.010604,0.012695,0.021097,4.8989e-07,0.15,0.45,0.5
0.0086356,0.00065769,-7.4927e-05,0.027523,0.004609,0.0044037,0.00091386,-0.00013486,-0.0002547,0.049638,-0.009938,-0.010472,0.0047521,-0.00070127,-0.0013245,0,0,0,0.02757,0.0046468,0.0043194,0.011625,0.012179,0.023088,6.381e-07,0.2,0.45,0.5
0.011187,0.00077198,-8.5816e-05,0.028174,0.0036914,0.0033962,0.0010281,-0.00018542,-0.00033688,0.052095,-0.011559,-0.012327,0.0053461,-0.00096418,-0.0017518,0,0,0,0.028227,0.0037483,0.0032861,0.012471,0.011754,0.024713,7.7925e-07,0.25,0.45,0.5
0.013845,0.00085625,-9.1482e-05,0.028639,0.003015,0.002617,0.0011632,-0.00024168,-0.00042655,0.053899,-0.012724,-0.013758,0.0060489,-0.0012567,-0.0022181,0,0,0,0.028704,0.0030896,0.0024776,0.013113,0.011424,0.025926,8.9753e-07,0.3,0.45,0.5
0.016577,0.0008895,-8.337e-05,0.028914,0.0025515,0.0020946,0.0012665,-0.00027823,-0.00050316,0.05504,-0.013502,-0.01469,0.0065858,-0.0014468,-0.0026164,0,0,0,0.02899,0.002635,0.0019354,0.013527,0.011187,0.026712,9.8163e-07,0.35,0.45,0.5
0.019349,0.00082401,-4.1785e-05,0.029432,0.0020357,0.0017677,0.0013634,-0.000169,-0.00056493,0.055377,-0.01429,-0.015008,0.0068944,-0.0009386,-0.0028415,0,0,0,0.029519,0.0022093,0.0015069,0.014006,0.011078,0.027669,1.1654e-06,0.4,0.45,0.5
0.022124,0.00062499,5.5866e-05,0.030581,0.0010323,0.0013372,0.0014888,0.00018438,-0.00068494,0.053835,-0.015202,-0.014621,0.0069183,0.00063695,-0.0030544,0,0,0,0.030685,0.0016361,0.00062863,0.015028,0.010983,0.029571,1.5904e-06,0.45,0.45,0.5
0.024775,0.00035754,0.00018298,0.03112,-0.00014024,0.00066027,0.001424,0.00051492,-0.00067766,0.049648,-0.015396,-0.013709,0.0060832,0.0020627,-0.0027474,0,0,0,0.031222,0.0009714,-0.0005532,0.015888,0.010547,0.031049,1.9124e-06,0.5,0.45,0.5
0.027153,0.00014643,0.00027543,0.030379,-0.0007794,3.1429e-05,0.00099656,0.00050851,-0.00041673,0.044737,-0.014634,-0.012797,0.004128,0.0021107,-0.0016809,0,0,0,0.03044,0.00034317,-0.0011521,0.015796,0.0098771,0.030881,1.8717e-06,0.55,0.45,0.5
0.029292,4.609e-05,0.00031694,0.029753,-0.0010144,-0.00034186,0.00035729,0.00033458,-0.00014185,0.041815,-0.013949,-0.012331,0.0014571,0.0014982,-0.00058239,0,0,0,0.029774,-0.0001173,-0.0012604,0.015517,0.0094655,0.03049,1.7825e-06,0.6,0.45,0.5
0.031352,3.7973e-05,0.0003247,0.029676,-0.0011711,-0.00049181,-0.00030917,0.00034145,7.8341e-05,0.041835,-0.014081,-0.012445,-0.0013744,0.0015278,0.00038609,0,0,0,0.029696,-0.00026164,-0.0014213,0.015559,0.0093378,0.030565,1.7953e-06,0.65,0.45,0.5
0.033492,0.00012627,0.00029741,0.030148,-0.001278,-0.00044082,-0.00090005,0.00053387,0.00033885,0.044825,-0.015068,-0.013173,-0.003824,0.0022173,0.0014093,0,0,0,0.0302,-0.00011153,-0.0016593,0.01593,0.0094765,0.031125,1.9159e-06,0.7,0.45,0.5
0.035878,0.00033969,0.00021394,0.030773,-0.00098882,-0.00014935,-0.0012407,0.00055387,0.00056974,0.049901,-0.016211,-0.014449,-0.0053299,0.0022262,0.0023078,0,0,0,0.030852,0.00018902,-0.0014064,0.016129,0.0098784,0.0315,1.9939e-06,0.75,0.45,0.5
0.038548,0.00063184,8.7553e-05,0.030233,-9.7166e-05,0.00021175,-0.0012051,0.0002063,0.00054774,0.054456,-0.016455,-0.015882,-0.0055608,0.00072492,0.0024103,0,0,0,0.030304,0.00056658,-0.00052252,0.015413,0.010116,0.030302,1.7021e-06,0.8,0.45,0.5
0.041367,0.00087672,-1.5223e-05,0.029209,0.00061157,0.00026833,-0.00096375,-0.00018925,0.00040039,0.056675,-0.016075,-0.016992,-0.0048443,-0.00105,0.0020019,0,0,0,0.029254,0.00084321,-8.1035e-06,0.014631,0.01003,0.028847,1.3139e-06,0.85,0.45,0.5
0.044226,0.0010046,-6.411e-05,0.028918,0.00067439,5.917e-05,-0.00070982,-0.00034109,0.00029856,0.057395,-0.016037,-0.017637,-0.0036911,-0.0017737,0.0015525,0,0,0,0.028943,0.00083736,-0.00012893,0.014536,0.0098837,0.028601,1.2042e-06,0.9,0.45,0.5
0.047107,0.00105,-8.0912e-05,0.028995,0.00052651,-0.00011217,-0.00038768,-0.00034707,0.00016111,0.057741,-0.016277,-0.017937,-0.0020159,-0.0018048,0.00083778,0,0,0,0.029005,0.00070626,-0.00030236,0.014654,0.0098031,0.028817,1.2296e-06,0.95,0.45,0.5
0.048552,0.0010607,-8.4717e-05,0.029025,0.00046776,-0.00016315,-0.00019102,-0.00034208,7.9785e-05,0.057867,-0.016382,-0.018022,-0.00099332,-0.0017788,0.00041488,0,0,0,0.029029,0.00065133,-0.00035055,0.01469,0.0097765,0.028892,1.2388e-06,1,0.45,0.5
0.00093999,2.6899e-05,-1.6173e-05,0.025145,0.0097104,0.0096956,0.00022174,-1.4315e-05,-0.00013324,0.038646,-0.0014835,-0.001522,0.001153,-7.4439e-05,-0.00069284,0,0,0,0.025171,0.0097138,0.0096663,0.0077522,0.01485,0.015481,1.9285e-07,0,0.5,0.5
0.0019323,4.9744e-05,-2.9934e-05,0.025339,0.0087618,0.0087338,0.00024019,-2.7298e-05,-0.00014423,0.040181,-0.0029202,-0.002993,0.001249,-0.00014195,-0.00075002,0,0,0,0.025364,0.0087716,0.0086996,0.008332,0.014278,0.016628,2.4306e-07,0.05,0.5,0.5
0.0040181,8.9738e-05,-5.407e-05,0.026068,0.0070894,0.0070359,0.00029575,-5.2709e-05,-0.00017728,0.04366,-0.0056834,-0.0058224,0.0015379,-0.00027409,-0.00092188,0,0,0,0.02609,0.0071149,0.0069883,0.0095507,0.013398,0.019039,3.6386e-07,0.1,0.5,0.5
0.0062983,0.00012215,-7.369e-05,0.027098,0.0057279,0.005647,0.0003992,-8.0813e-05,-0.00023864,0.047371,-0.0081911,-0.0084013,0.0020758,-0.00042023,-0.0012409,0,0,0,0.02712,0.0057725,0.0055798,0.01077,0.012824,0.021445,5.1535e-07,0.15,0.5,0.5
0.0087552,0.00015263,-9.2139e-05,0.028046,0.0045601,0.004443,0.00056053,-0.00011857,-0.00033398,0.05069,-0.010373,-0.010678,0.0029148,-0.00061657,-0.0017367,0,0,0,0.028074,0.0046263,0.0043485,0.011863,0.01235,0.023588,6.8175e-07,0.2,0.5,0.5
0.011367,0.00018237,-0.0001101,0.028903,0.0036277,0.0034602,0.00077614,-0.00017054,-0.00046111,0.053552,-0.012162,-0.012598,0.004036,-0.00088679,-0.0023978,0,0,0,0.028944,0.0037191,0.0033276,0.012808,0.011997,0.025423,8.5033e-07,0.25,0.5,0.5
0.01411,0.0002046,-0.00012387,0.029673,0.0029705,0.0027433,0.0010253,-0.00022899,-0.00060968,0.055918,-0.013509,-0.014099,0.0053318,-0.0011908,-0.0031704,0,0,0,0.029735,0.0030841,0.0025677,0.013584,0.011796,0.026913,1.0069e-06,0.3,0.5,0.5
0.016959,0.00019561,-0.00012084,0.030394,0.0026116,0.0023647,0.0012256,-0.00024137,-0.00073565,0.057803,-0.014432,-0.015074,0.0063731,-0.0012551,-0.0038254,0,0,0,0.030476,0.0027343,0.0021603,0.014158,0.01179,0.028034,1.1386e-06,0.35,0.5,0.5
0.019891,8.966e-05,-6.1669e-05,0.032019,0.0021431,0.0020563,0.0014522,-3.247e-05,-0.00089917,0.057793,-0.015005,-0.01527,0.0070128,-0.00034848,-0.0043111,0,0,0,0.032127,0.0024141,0.001677,0.015225,0.012073,0.030091,1.5754e-06,0.4,0.5,0.5
0.022768,-0.00014472,8.1697e-05,0.033904,0.0010598,0.0013435,0.0015509,0.00034794,-0.0010155,0.053643,-0.015033,-0.014512,0.0066239,0.0012544,-0.0042549,0,0,0,0.034032,0.001737,0.00053874,0.016746,0.012102,0.032915,2.2506e-06,0.45,0.5,0.5
0.025323,-0.00039333,0.00023787,0.033624,-0.0001161,0.00037102,0.0011844,0.00048667,-0.0007433,0.046581,-0.014159,-0.01323,0.0046746,0.0018604,-0.0028877,0,0,0,0.03372,0.00076156,-0.00060213,0.017161,0.011293,0.033668,2.4052e-06,0.5,0.5,0.5
0.027476,-0.00053759,0.00031919,0.032675,-0.00068805,-0.00035518,0.0006661,0.00032797,-0.00030263,0.040669,-0.012861,-0.012189,0.0025544,0.0012563,-0.0011877,0,0,0,0.032717,-8.184e-05,-0.0010029,0.01686,0.010544,0.033278,2.2222e-06,0.55,0.5,0.5
0.029401,-0.00059287,0.00034208,0.032975,-0.00087129,-0.00069638,0.00026032,0.00018088,-8.6622e-05,0.038002,-0.012141,-0.011734,0.0009424,0.00067684,-0.00033181,0,0,0,0.032988,-0.00052514,-0.0010554,0.017022,0.010469,0.033787,2.2299e-06,0.6,0.5,0.5
0.031275,-0.00060719,0.00035045,0.032912,-0.0010326,-0.00085508,-0.00013256,0.00018342,1.0544e-05,0.038041,-0.012257,-0.011842,-0.00060843,0.00068743,0.0001297,0,0,0,0.032924,-0.00068199,-0.0012176,0.017071,0.010341,0.033883,2.2482e-06,0.65,0.5,0.5
0.033205,-0.00057898,0.00034361,0.032491,-0.0011965,-0.00084842,-0.00051429,0.00034153,0.00021298,0.040822,-0.013255,-0.012551,-0.0020966,0.0013118,0.0009183,0,0,0,0.032526,-0.00056515,-0.0015143,0.01702,0.010149,0.033586,2.2834e-06,0.7,0.5,0.5
0.035368,-0.00045349,0.00027344,0.033337,-0.0010282,-0.00050547,-0.00096922,0.00052038,0.00061317,0.046951,-0.014957,-0.013957,-0.0038947,0.0019966,0.0024179,0,0,0,0.033409,-9.0734e-05,-0.0015157,0.017463,0.010601,0.034243,2.5283e-06,0.75,0.5,0.5
0.037951,-0.00020546,0.00011697,0.033628,-0.00020099,0.00011579,-0.0012624,0.00038056,0.00083954,0.054468,-0.016371,-0.015784,-0.0053747,0.0013813,0.0034967,0,0,0,0.033716,0.00055248,-0.00072583,0.017221,0.011181,0.033827,2.4265e-06,0.8,0.5,0.5
0.040886,4.513e-05,-3.6903e-05,0.031953,0.00060232,0.00051013,-0.0011046,-3.9532e-05,0.00068925,0.059472,-0.017022,-0.017308,-0.0052863,-0.00040135,0.0032707,0,0,0,0.032016,0.00094897,0.00010117,0.015957,0.011022,0.031501,1.7863e-06,0.85,0.5,0.5
0.043929,0.00017265,-0.00010944,0.030684,0.00063016,0.00033327,-0.00079309,-0.00029463,0.00047664,0.06079,-0.01735,-0.018122,-0.0041241,-0.0015321,0.0024785,0,0,0,0.030717,0.00084569,8.4752e-05,0.015316,0.010549,0.03026,1.4305e-06,0.9,0.5,0.5
0.046966,0.00020546,-0.000127,0.030467,0.00034611,2.7741e-05,-0.00044743,-0.00032443,0.00026511,0.060709,-0.017604,-0.018432,-0.0023266,-0.001687,0.0013786,0,0,0,0.030481,0.00058232,-0.00022283,0.015352,0.01028,0.03031,1.4345e-06,0.95,0.5,0.5
0.048483,0.00021077,-0.00012991,0.030401,0.00024957,-6.0254e-05,-0.00023046,-0.00031878,0.0001356,0.060689,-0.017706,-0.018511,-0.0011984,-0.0016577,0.0007051,0,0,0,0.030407,0.000491,-0.00030695,0.015357,0.010197,0.030323,1.4356e-06,1,0.5,0.5
0.00094723,-4.9067e-05,-1.7765e-05,0.025337,0.0097464,0.0097547,-0.00035992,-9.0839e-06,-0.00014714,0.038973,-0.001562,-0.0015404,-0.0018716,-4.7236e-05,-0.00076512,0,0,0,0.025369,0.0097625,0.0097063,0.0078315,0.014946,0.015635,1.9879e-07,0,0.55,0.5
0.0019486,-9.9671e-05,-3.2978e-05,0.025544,0.008761,0.0087775,-0.00033273,-1.7385e-05,-0.00016074,0.040565,-0.0030711,-0.0030281,-0.0017302,-9.0404e-05,-0.00083587,0,0,0,0.025573,0.0087934,0.0087158,0.0084288,0.014361,0.016819,2.5183e-07,0.05,0.55,0.5
0.0040565,-0.00020093,-5.9982e-05,0.026321,0.0070278,0.0070599,-0.00025145,-3.3934e-05,-0.00020195,0.044189,-0.0059729,-0.0058894,-0.0013076,-0.00017646,-0.0010502,0,0,0,0.026344,0.0070931,0.0069716,0.0096862,0.01347,0.019312,3.8021e-07,0.1,0.55,0.5
0.0063676,-0.0002971,-8.2862e-05,0.027439,0.005623,0.0056676,-0.00011059,-5.3212e-05,-0.00027916,0.048103,-0.0086178,-0.0085019,-0.00057507,-0.0002767,-0.0014516,0,0,0,0.027458,0.0057209,0.0055507,0.010954,0.01291,0.021823,5.4371e-07,0.15,0.55,0.5
0.0088669,-0.00037961,-0.00010584,0.028522,0.0044204,0.0044721,9.2635e-05,-8.0779e-05,-0.00040207,0.051708,-0.010956,-0.010821,0.0004817,-0.00042005,-0.0020908,0,0,0,0.028542,0.0045513,0.0043208,0.012111,0.012471,0.024107,7.2882e-07,0.2,0.55,0.5
0.011538,-0.00044424,-0.00013027,0.029585,0.0034641,0.0035165,0.00034993,-0.00012145,-0.00057246,0.054982,-0.012933,-0.012797,0.0018196,-0.00063155,-0.0029768,0,0,0,0.029616,0.0036304,0.0033198,0.013148,0.012189,0.026142,9.262e-07,0.25,0.55,0.5
0.014365,-0.00049462,-0.00015143,0.030657,0.0028171,0.0028636,0.00063163,-0.00017073,-0.00077069,0.057905,-0.014478,-0.014357,0.0032845,-0.00088778,-0.0040076,0,0,0,0.030706,0.0030167,0.0026145,0.014046,0.012112,0.027893,1.1228e-06,0.3,0.55,0.5
0.017329,-0.00055372,-0.00014688,0.031898,0.0025556,0.0025906,0.00084307,-0.00014697,-0.00090933,0.060295,-0.015464,-0.015374,0.0043911,-0.00076385,-0.0047372,0,0,0,0.031965,0.0027632,0.0023161,0.014824,0.012348,0.029428,1.3395e-06,0.35,0.55,0.5
0.0204,-0.0006799,-5.9979e-05,0.033814,0.0021116,0.0021301,0.001033,7.9494e-05,-0.0010395,0.059202,-0.015464,-0.015419,0.0048422,0.00021801,-0.0049006,0,0,0,0.033904,0.0023948,0.0017575,0.016073,0.012685,0.031835,1.8487e-06,0.4,0.55,0.5
0.023291,-0.0008852,0.00011789,0.034931,0.00094507,0.00094626,0.0010031,0.00030444,-0.00096757,0.051874,-0.014279,-0.014275,0.0040141,0.0011494,-0.0039049,0,0,0,0.035027,0.0013893,0.00040616,0.01731,0.012274,0.034144,2.3961e-06,0.45,0.55,0.5
0.025649,-0.0010619,0.00027431,0.034135,-0.00015734,-0.00016599,0.00056423,0.0002447,-0.00050759,0.04298,-0.012743,-0.012758,0.0020411,0.00097669,-0.0018703,0,0,0,0.034188,0.00025561,-0.00063177,0.01741,0.011271,0.034391,2.411e-06,0.5,0.55,0.5
0.027604,-0.0011401,0.00033623,0.034094,-0.00059258,-0.0006043,0.00022999,0.00011245,-0.00016505,0.038153,-0.011768,-0.011785,0.00077545,0.00044599,-0.00059296,0,0,0,0.034106,-0.00038401,-0.00082557,0.017466,0.010966,0.034717,2.3349e-06,0.55,0.55,0.5
0.02945,-0.0011685,0.00035124,0.03518,-0.00072944,-0.0007421,0.00014451,9.9193e-05,-7.9897e-05,0.03683,-0.01145,-0.011467,0.00042402,0.00030471,-0.00025079,0,0,0,0.035184,-0.00061518,-0.00086001,0.018022,0.011236,0.035923,2.4651e-06,0.6,0.55,0.5
0.031283,-0.0011882,0.00035961,0.035125,-0.00089699,-0.00091073,5.9019e-05,9.9398e-05,-4.9388e-06,0.03688,-0.011557,-0.011575,0.00011136,0.00030553,3.3451e-05,0,0,0,0.035129,-0.00078328,-0.0010277,0.018078,0.011106,0.036036,2.488e-06,0.65,0.55,0.5
0.033135,-0.0011998,0.00036104,0.033955,-0.0010949,-0.0011094,-3.2092e-05,0.00011428,6.8767e-05,0.038345,-0.012122,-0.01214,-0.00022298,0.00045516,0.0003263,0,0,0,0.033965,-0.00088268,-0.0013323,0.017649,0.010583,0.035079,2.4076e-06,0.7,0.55,0.5
0.035103,-0.0011603,0.00031205,0.033937,-0.0010452,-0.0010563,-0.0003524,0.00026039,0.00037041,0.043431,-0.013457,-0.01347,-0.0013592,0.0010401,0.0014146,0,0,0,0.033977,-0.00060913,-0.0015326,0.017755,0.010612,0.035063,2.5542e-06,0.75,0.55,0.5
0.037492,-0.0010133,0.00015616,0.034762,-0.00031661,-0.00031761,-0.00076999,0.00033189,0.00077278,0.05285,-0.015557,-0.015553,-0.0030973,0.0012558,0.0031042,0,0,0,0.03483,0.00017086,-0.00087254,0.017851,0.011376,0.035197,2.6105e-06,0.8,0.55,0.5
0.040453,-0.00082954,-3.5752e-05,0.033895,0.000544,0.00055717,-0.00080339,8.5462e-05,0.00079757,0.06116,-0.017544,-0.017508,-0.0037505,0.0002301,0.0037219,0,0,0,0.03395,0.00087908,0.00016787,0.016891,0.011666,0.033434,2.1174e-06,0.85,0.55,0.5
0.043653,-0.00073045,-0.00014145,0.03243,0.00054222,0.00056719,-0.00061391,-0.00017823,0.00060628,0.063769,-0.018583,-0.018519,-0.0032035,-0.00092703,0.0031648,0,0,0,0.032459,0.00081893,0.00026061,0.016099,0.01118,0.031924,1.7022e-06,0.9,0.55,0.5
0.046835,-0.00071041,-0.00016579,0.031831,0.00014557,0.0001775,-0.0003663,-0.00023551,0.0003599,0.063469,-0.018914,-0.018831,-0.0019048,-0.0012247,0.0018715,0,0,0,0.031845,0.00044265,-0.00013345,0.015989,0.010718,0.031695,1.641e-06,0.95,0.55,0.5
0.04842,-0.00070983,-0.00016786,0.031671,1.89e-05,5.3233e-05,-0.00019788,-0.00022749,0.00019213,0.063298,-0.018996,-0.018907,-0.001029,-0.0011829,0.00099909,0,0,0,0.031676,0.00031564,-0.00024883,0.015962,0.010581,0.031647,1.633e-06,1,0.55,0.5
0.00095217,-0.0001293,-1.8581e-05,0.025465,0.0097523,0.0097924,-0.00097606,-2.4389e-06,-0.00015434,0.039204,-0.0016502,-0.0015458,-0.0050755,-1.2682e-05,-0.00080256,0,0,0,0.025551,0.009791,0.0096678,0.0079418,0.015003,0.015822,2.0605e-07,0,0.6,0.5
0.0019602,-0.00025737,-3.4541e-05,0.025682,0.0087235,0.0088024,-0.00094244,-4.6798e-06,-0.00016944,0.040848,-0.0032435,-0.0030383,-0.0049007,-2.4335e-05,-0.00088109,0,0,0,0.025758,0.0088008,0.0086482,0.0085551,0.014402,0.017035,2.6174e-07,0.05,0.6,0.5
0.0040848,-0.00050755,-6.3038e-05,0.026491,0.006915,0.0070671,-0.00084284,-9.3158e-06,-0.00021537,0.044593,-0.0063049,-0.0059094,-0.0043828,-4.8442e-05,-0.0011199,0,0,0,0.026549,0.0070669,0.0068571,0.009846,0.013491,0.019588,3.9684e-07,0.1,0.6,0.5
0.0064195,-0.00073964,-8.7677e-05,0.027666,0.0054548,0.0056689,-0.00068047,-1.5334e-05,-0.00030193,0.048657,-0.0090911,-0.0085345,-0.0035384,-7.9738e-05,-0.0015701,0,0,0,0.027707,0.005672,0.00541,0.011149,0.01293,0.022168,5.6994e-07,0.15,0.6,0.5
0.0089505,-0.00094292,-0.00011322,0.028832,0.0042151,0.0044773,-0.00046668,-2.4949e-05,-0.00044183,0.052448,-0.011555,-0.010873,-0.0024267,-0.00012974,-0.0022975,0,0,0,0.028864,0.0044845,0.0041757,0.012344,0.012508,0.024535,7.6841e-07,0.2,0.6,0.5
0.011664,-0.0011109,-0.0001416,0.030024,0.0032422,0.0035406,-0.00022172,-4.0443e-05,-0.00064114,0.055978,-0.013654,-0.012879,-0.0011529,-0.00021031,-0.003334,0,0,0,0.030057,0.0035525,0.0031973,0.01343,0.012269,0.026684,9.8523e-07,0.25,0.6,0.5
0.014548,-0.0012432,-0.00016788,0.031273,0.0026053,0.0029308,2.4227e-05,-6.1599e-05,-0.00087005,0.059224,-0.015312,-0.014465,0.00012598,-0.00032031,-0.0045243,0,0,0,0.031316,0.0029497,0.0025428,0.014387,0.01227,0.028572,1.2068e-06,0.3,0.6,0.5
0.017587,-0.0013511,-0.00015806,0.032929,0.0023978,0.0026755,0.00021728,-4.5378e-05,-0.0010146,0.061574,-0.016213,-0.015496,0.0011312,-0.00023444,-0.0053019,0,0,0,0.032983,0.0027203,0.002299,0.015342,0.012667,0.030476,1.525e-06,0.35,0.6,0.5
0.020721,-0.00146,-4.8841e-05,0.034653,0.0020224,0.0020837,0.00035882,4.7555e-05,-0.0010073,0.059401,-0.015621,-0.015424,0.0016354,0.00017805,-0.0048741,0,0,0,0.034716,0.0022657,0.0017772,0.01647,0.01292,0.032699,1.999e-06,0.4,0.6,0.5
0.023574,-0.0015757,0.00014004,0.034974,0.00091213,0.00067361,0.00037383,9.941e-05,-0.00072687,0.050357,-0.013605,-0.014031,0.0013996,0.00040056,-0.0029864,0,0,0,0.035031,0.0011017,0.0004269,0.017302,0.012186,0.034274,2.3156e-06,0.45,0.6,0.5
0.025796,-0.001664,0.00028495,0.034651,-0.00012963,-0.00045233,0.00023434,4.1972e-05,-0.00032001,0.040883,-0.011847,-0.012415,0.00071451,0.0002041,-0.0011096,0,0,0,0.034676,3.9025e-06,-0.00061141,0.017644,0.011356,0.034988,2.3698e-06,0.5,0.6,0.5
0.027658,-0.001709,0.00033992,0.035338,-0.00053,-0.0006776,0.0001523,8.1061e-06,-0.00016639,0.037055,-0.011306,-0.011553,0.00039141,5.3256e-05,-0.00049621,0,0,0,0.035343,-0.00045627,-0.00075597,0.018049,0.011377,0.035952,2.4556e-06,0.55,0.6,0.5
0.029489,-0.0017355,0.00035732,0.036095,-0.00066305,-0.00068699,0.00014883,2.8806e-05,-0.0001105,0.036652,-0.011332,-0.011366,0.00038318,7.8554e-05,-0.00029971,0,0,0,0.036097,-0.00059525,-0.00075693,0.018427,0.011582,0.036774,2.5658e-06,0.6,0.6,0.5
0.031322,-0.0017606,0.00036562,0.036042,-0.00083236,-0.00086433,0.00012437,2.9939e-05,2.0037e-05,0.036704,-0.011434,-0.011477,0.0003282,8.1464e-05,6.4718e-05,0,0,0,0.036044,-0.00076743,-0.00093089,0.018487,0.011449,0.036894,2.5909e-06,0.65,0.6,0.5
0.033158,-0.0017857,0.00036445,0.035214,-0.0010328,-0.0012066,9.5347e-05,1.0799e-05,6.1772e-05,0.037254,-0.011629,-0.011912,0.00026768,6.0892e-05,0.00021512,0,0,0,0.035218,-0.00096469,-0.0012784,0.018248,0.010991,0.036342,2.5354e-06,0.7,0.6,0.5
0.035034,-0.0017959,0.00032309,0.034506,-0.00097558,-0.0013494,-2.8959e-05,5.2107e-05,0.00017615,0.041362,-0.012476,-0.013125,-0.00011726,0.00023977,0.00065244,0,0,0,0.034526,-0.00084381,-0.0015012,0.018013,0.010727,0.035706,2.5176e-06,0.75,0.6,0.5
0.037289,-0.0017655,0.00017988,0.03489,-0.00027072,-0.00058121,-0.00022314,0.00011994,0.00052453,0.05139,-0.014755,-0.015318,-0.00088003,0.00047898,0.0021671,0,0,0,0.034932,-8.1351e-05,-0.0008119,0.017872,0.011346,0.035387,2.5421e-06,0.8,0.6,0.5
0.040215,-0.0017134,-2.418e-05,0.034824,0.00051161,0.00050173,-0.00028672,6.2537e-05,0.00074948,0.06146,-0.017592,-0.017557,-0.0013434,0.00023928,0.0036269,0,0,0,0.034863,0.00075074,0.0002236,0.01732,0.011946,0.03438,2.3044e-06,0.85,0.6,0.5
0.043486,-0.0016862,-0.00015542,0.033586,0.00043752,0.0006555,-0.0002426,-4.6869e-05,0.00068683,0.065245,-0.019279,-0.018713,-0.0012696,-0.0002442,0.0036077,0,0,0,0.03361,0.00075769,0.00031111,0.01665,0.01156,0.033079,1.9323e-06,0.9,0.6,0.5
0.046756,-0.0016859,-0.00018827,0.032652,2.1129e-06,0.00027744,-0.00015375,-7.6912e-05,0.00042201,0.065137,-0.019754,-0.019038,-0.00079951,-0.00039994,0.0021944,0,0,0,0.032664,0.00035534,-8.7269e-05,0.016375,0.010977,0.032532,1.7736e-06,0.95,0.6,0.5
0.048382,-0.0016889,-0.00018915,0.032439,-0.00013829,0.00013053,-8.9119e-05,-7.1532e-05,0.00023286,0.064883,-0.019818,-0.019119,-0.00046342,-0.00037196,0.0012109,0,0,0,0.032444,0.0002064,-0.00021882,0.016331,0.01081,0.032453,1.76e-06,1,0.6,0.5
0.00095441,-0.00021409,-1.8501e-05,0.02552,0.0097248,0.0098049,-0.0016263,4.7103e-06,-0.00015369,0.039322,-0.0017455,-0.0015372,-0.008457,2.4494e-05,-0.00079921,0,0,0,0.025712,0.0098007,0.0095366,0.0080879,0.015017,0.016046,2.1472e-07,0,0.65,0.5
0.0019661,-0.00042402,-3.4383e-05,0.025738,0.0086463,0.0088044,-0.0015846,9.036e-06,-0.00016877,0.041005,-0.0034328,-0.0030217,-0.00824,4.6987e-05,-0.0008776,0,0,0,0.02591,0.0087979,0.0084805,0.0087148,0.014396,0.017273,2.7261e-07,0.05,0.65,0.5
0.0041005,-0.00083142,-6.2722e-05,0.026555,0.0067482,0.0070518,-0.0014621,1.747e-05,-0.00021464,0.04483,-0.0066677,-0.0058781,-0.0076029,9.0844e-05,-0.0011161,0,0,0,0.026686,0.0070428,0.0066262,0.01003,0.013452,0.019855,4.1264e-07,0.1,0.65,0.5
0.0064491,-0.0012062,-8.718e-05,0.027734,0.0052231,0.0056417,-0.0012736,2.6478e-05,-0.0003011,0.048949,-0.0095792,-0.0084909,-0.0066225,0.00013769,-0.0015657,0,0,0,0.027828,0.0056322,0.0051391,0.011344,0.012866,0.022447,5.9058e-07,0.15,0.65,0.5
0.0089954,-0.0015351,-0.0001125,0.02889,0.0039525,0.0044429,-0.0010508,3.8045e-05,-0.00044081,0.052742,-0.012095,-0.01082,-0.0054641,0.00019783,-0.0022922,0,0,0,0.028957,0.0044323,0.0038956,0.012531,0.012428,0.024798,7.9179e-07,0.2,0.65,0.5
0.011723,-0.0018097,-0.00014059,0.030058,0.0029829,0.003504,-0.00083327,5.4079e-05,-0.00063974,0.056224,-0.014171,-0.012817,-0.004333,0.00028121,-0.0033266,0,0,0,0.030114,0.0034912,0.0029398,0.013587,0.012182,0.026903,1.0078e-06,0.25,0.65,0.5
0.014618,-0.0020258,-0.00016652,0.031272,0.0023755,0.0028956,-0.00064519,7.3779e-05,-0.00086787,0.059382,-0.01575,-0.014398,-0.003355,0.00038365,-0.0045129,0,0,0,0.031329,0.0028826,0.0023319,0.014499,0.012181,0.028726,1.2246e-06,0.3,0.65,0.5
0.017662,-0.0021761,-0.00015632,0.03289,0.0022129,0.0026438,-0.00046409,5.1604e-05,-0.0010118,0.061628,-0.016541,-0.015426,-0.002432,0.00027023,-0.0052873,0,0,0,0.032949,0.0026554,0.0021424,0.015403,0.012582,0.030554,1.5346e-06,0.35,0.65,0.5
0.020796,-0.0022447,-4.7012e-05,0.034575,0.0018789,0.0020555,-0.00030366,-5.7328e-05,-0.0010052,0.059361,-0.015833,-0.015356,-0.0015235,-0.00020627,-0.0048628,0,0,0,0.034636,0.0022075,0.0016654,0.016485,0.012836,0.032705,1.9975e-06,0.4,0.65,0.5
0.023645,-0.0022467,0.00014144,0.034868,0.00081177,0.000653,-0.00011145,-0.00012665,-0.00072715,0.050263,-0.013708,-0.013972,-0.00055451,-0.00048981,-0.0029856,0,0,0,0.034921,0.0010525,0.00035888,0.017281,0.012111,0.034224,2.3037e-06,0.45,0.65,0.5
0.025861,-0.0022444,0.00028587,0.034536,-0.00016898,-0.00045957,0.00013477,-7.4955e-05,-0.00032225,0.040766,-0.011856,-0.012367,0.0003511,-0.00030256,-0.0011168,0,0,0,0.034561,-1.9048e-05,-0.00063415,0.017598,0.011303,0.034895,2.3507e-06,0.5,0.65,0.5
0.027717,-0.0022689,0.00034066,0.035214,-0.00051578,-0.00067665,0.00024457,-4.2039e-05,-0.00016833,0.036919,-0.011253,-0.011516,0.00067299,-0.0001445,-0.000502,0,0,0,0.035219,-0.00044142,-0.00075665,0.017988,0.01134,0.035821,2.4291e-06,0.55,0.65,0.5
0.02954,-0.0023014,0.000358,0.035961,-0.00061759,-0.00068362,0.00020307,-6.3293e-05,-0.00011105,0.036502,-0.011246,-0.011335,0.00053572,-0.00016868,-0.00030107,0,0,0,0.035964,-0.00055102,-0.00075289,0.018358,0.011553,0.036616,2.5332e-06,0.6,0.65,0.5
0.031366,-0.0023313,0.00036629,0.035912,-0.00077138,-0.00085885,0.00012744,-6.0665e-05,2.0943e-05,0.036552,-0.011334,-0.011451,0.00032765,-0.00016158,6.713e-05,0,0,0,0.035914,-0.00071023,-0.00092175,0.018418,0.011427,0.03673,2.5569e-06,0.65,0.65,0.5
0.033195,-0.0023609,0.00036521,0.035098,-0.0009738,-0.0012005,3.9479e-05,-3.3315e-05,6.3949e-05,0.037109,-0.01153,-0.011887,8.676e-05,-0.00012004,0.00022135,0,0,0,0.035101,-0.00091463,-0.0012633,0.018182,0.010974,0.036193,2.5048e-06,0.7,0.65,0.5
0.035064,-0.0024058,0.00032411,0.034403,-0.0009343,-0.0013461,6.0013e-05,-6.0898e-05,0.00017804,0.041224,-0.012391,-0.013099,0.00019162,-0.00026043,0.00065815,0,0,0,0.034423,-0.00081685,-0.0014832,0.017953,0.010708,0.035581,2.4913e-06,0.75,0.65,0.5
0.037312,-0.0024906,0.00018146,0.034797,-0.00025466,-0.00058409,0.00018399,-0.00011061,0.00052469,0.05125,-0.014692,-0.015289,0.00071819,-0.00043265,0.0021671,0,0,0,0.034837,-7.782e-05,-0.00080134,0.017819,0.011319,0.035285,2.52e-06,0.8,0.65,0.5
0.04023,-0.0025926,-2.2002e-05,0.034743,0.00050626,0.00049385,0.00021966,-3.7432e-05,0.00074877,0.061324,-0.017557,-0.017525,0.0010361,-0.00011457,0.0036234,0,0,0,0.034781,0.00074469,0.00021756,0.017282,0.011914,0.034304,2.2896e-06,0.85,0.65,0.5
0.043495,-0.0026599,-0.00015295,0.03352,0.00041727,0.0006459,0.00018171,8.1436e-05,0.00068632,0.065131,-0.019274,-0.01868,0.0009623,0.0004232,0.003605,0,0,0,0.033543,0.00075322,0.00028664,0.016628,0.011528,0.033026,1.9235e-06,0.9,0.65,0.5
0.04676,-0.0026858,-0.00018574,0.032594,-2.8255e-05,0.00026722,0.00010956,0.00011623,0.0004218,0.065045,-0.019773,-0.019005,0.00056973,0.0006044,0.0021933,0,0,0,0.032605,0.00035135,-0.00012339,0.016364,0.010944,0.032495,1.7674e-06,0.95,0.65,0.5
0.048384,-0.0026917,-0.00018661,0.032384,-0.00017244,0.00012005,5.2267e-05,0.00011233,0.00023282,0.0648,-0.019847,-0.019087,0.00027179,0.00058411,0.0012107,0,0,0,0.032389,0.00020108,-0.00025793,0.016323,0.010777,0.03242,1.7547e-06,1,0.65,0.5
0.00095451,-0.00030385,-1.7556e-05,0.025514,0.0096632,0.0097952,-0.0023105,1.1273e-05,-0.00014543,0.039353,-0.001859,-0.0015157,-0.012015,5.8618e-05,-0.00075622,0,0,0,0.025871,0.0097909,0.0093101,0.0082805,0.014991,0.016327,2.2565e-07,0,0.7,0.5
0.0019676,-0.00060064,-3.2563e-05,0.025725,0.0085219,0.0087837,-0.0022531,2.1617e-05,-0.00015894,0.041067,-0.0036616,-0.0029807,-0.011716,0.00011241,-0.00082648,0,0,0,0.026044,0.0087772,0.0082093,0.0089174,0.014344,0.017559,2.8536e-07,0.05,0.7,0.5
0.0041067,-0.0011743,-5.9137e-05,0.026522,0.0065086,0.0070091,-0.0020862,4.1953e-05,-0.00019993,0.044933,-0.0071013,-0.0058,-0.010848,0.00021816,-0.0010396,0,0,0,0.026762,0.0070006,0.0062766,0.010243,0.013347,0.020135,4.2847e-07,0.1,0.7,0.5
0.0064609,-0.0016976,-8.1503e-05,0.02765,0.0049066,0.0055785,-0.0018388,6.4319e-05,-0.00027683,0.049009,-0.010124,-0.0083769,-0.0095617,0.00033446,-0.0014395,0,0,0,0.027819,0.0055711,0.0047449,0.011537,0.012712,0.022673,6.0584e-07,0.15,0.7,0.5
0.0090075,-0.0021524,-0.00010383,0.028697,0.0036168,0.004361,-0.0015686,9.3921e-05,-0.00039928,0.052607,-0.012601,-0.010666,-0.0081567,0.00048839,-0.0020763,0,0,0,0.028815,0.0043564,0.0035035,0.012656,0.012225,0.024897,7.9773e-07,0.2,0.7,0.5
0.011722,-0.0025281,-0.00012743,0.029682,0.0026798,0.0033997,-0.0013379,0.000135,-0.00056874,0.055717,-0.01449,-0.012618,-0.0069568,0.00070198,-0.0029574,0,0,0,0.029772,0.0034015,0.0025881,0.013592,0.011921,0.026788,9.9123e-07,0.25,0.7,0.5
0.014579,-0.0028182,-0.00014757,0.030649,0.0021285,0.0027523,-0.0011743,0.00018226,-0.00076504,0.058369,-0.015784,-0.014162,-0.0061063,0.00094777,-0.0039782,0,0,0,0.030729,0.0027671,0.0020331,0.014348,0.011843,0.028337,1.1727e-06,0.3,0.7,0.5
0.017558,-0.0030064,-0.00014189,0.031775,0.0020036,0.0024903,-0.0010153,0.00015274,-0.00090145,0.060441,-0.016434,-0.01517,-0.0052927,0.00079497,-0.0046962,0,0,0,0.03185,0.0025285,0.00189,0.01498,0.01209,0.029647,1.3657e-06,0.35,0.7,0.5
0.020628,-0.0030463,-5.4406e-05,0.033566,0.0016828,0.0020376,-0.00090814,-8.8521e-05,-0.0010312,0.059058,-0.016087,-0.015219,-0.0043656,-0.0002479,-0.0048581,0,0,0,0.033645,0.002202,0.001439,0.016103,0.012429,0.031834,1.8399e-06,0.4,0.7,0.5
0.023507,-0.0029478,0.00012259,0.034588,0.0006414,0.000872,-0.00067787,-0.00033065,-0.000963,0.051553,-0.014578,-0.014097,-0.002855,-0.0012401,-0.0038808,0,0,0,0.034667,0.0012453,0.00018954,0.017239,0.012034,0.033966,2.3513e-06,0.45,0.7,0.5
0.025846,-0.0028476,0.00027745,0.033776,-0.00027922,-0.00019816,-0.00016295,-0.00027656,-0.00050913,0.04259,-0.012762,-0.012614,-0.00076905,-0.0010785,-0.0018721,0,0,0,0.03382,0.00019392,-0.00071492,0.017267,0.0111,0.034095,2.3472e-06,0.5,0.7,0.5
0.02778,-0.0028326,0.00033853,0.033731,-0.00054517,-0.00060166,0.00016884,-0.00014603,-0.0001692,0.037729,-0.011595,-0.011673,0.0003731,-0.00054194,-0.00060404,0,0,0,0.033742,-0.00034033,-0.00081799,0.01728,0.010861,0.034327,2.2575e-06,0.55,0.7,0.5
0.029605,-0.00286,0.00035331,0.034798,-0.00058249,-0.00072664,0.00019866,-0.00013576,-8.1438e-05,0.036378,-0.011178,-0.011375,0.00050283,-0.00040338,-0.00025428,0,0,0,0.034802,-0.00048677,-0.00082633,0.017814,0.011163,0.03546,2.3721e-06,0.6,0.7,0.5
0.031414,-0.0028938,0.0003617,0.034754,-0.00070715,-0.0008901,0.00017335,-0.00013246,-1.8338e-06,0.036425,-0.011243,-0.011496,0.00050375,-0.00039484,4.2104e-05,0,0,0,0.034758,-0.00062162,-0.0009794,0.017869,0.011052,0.035561,2.3919e-06,0.65,0.7,0.5
0.033243,-0.0029371,0.00036343,0.033624,-0.00091618,-0.0010899,0.00013664,-0.00013649,7.4317e-05,0.037906,-0.011807,-0.012066,0.00049599,-0.00051697,0.00034208,0,0,0,0.033635,-0.00075184,-0.0012649,0.01745,0.010539,0.034649,2.3211e-06,0.7,0.7,0.5
0.03519,-0.0030332,0.00031529,0.033634,-0.00092406,-0.0010501,0.0003487,-0.00026604,0.00037335,0.043001,-0.013185,-0.013393,0.001316,-0.0010527,0.0014227,0,0,0,0.033672,-0.00054723,-0.0014653,0.017569,0.010553,0.034693,2.474e-06,0.75,0.7,0.5
0.037558,-0.0032364,0.00016103,0.03448,-0.00027313,-0.00033124,0.0006978,-0.00031963,0.00077153,0.052421,-0.015364,-0.015467,0.0027942,-0.0011992,0.0030984,0,0,0,0.034543,0.00017423,-0.0008419,0.017692,0.011292,0.034892,2.5412e-06,0.8,0.7,0.5
0.040497,-0.0034729,-2.9304e-05,0.03366,0.00052443,0.00053181,0.00071068,-5.9959e-05,0.00079574,0.060764,-0.017444,-0.017417,0.0033086,-0.00010354,0.0037137,0,0,0,0.03371,0.00086025,0.0001463,0.016782,0.011572,0.033215,2.0746e-06,0.85,0.7,0.5
0.043679,-0.0036152,-0.00013427,0.03224,0.00047805,0.00053783,0.00053492,0.00021242,0.00060568,0.063447,-0.01858,-0.018425,0.0027959,0.0011046,0.0031616,0,0,0,0.032266,0.00079408,0.00019514,0.016036,0.011085,0.031777,1.6793e-06,0.9,0.7,0.5
0.046847,-0.0036633,-0.00015843,0.031663,5.0201e-05,0.00014535,0.00031113,0.00027528,0.00035988,0.063209,-0.018985,-0.018737,0.0016179,0.0014315,0.0018714,0,0,0,0.031676,0.00040827,-0.00022509,0.01595,0.01062,0.03159,1.6246e-06,0.95,0.7,0.5
0.048425,-0.0036736,-0.00016045,0.03151,-8.7758e-05,1.9948e-05,0.00015417,0.00026917,0.00019234,0.063061,-0.019094,-0.018814,0.00080167,0.0013997,0.0010002,0,0,0,0.031515,0.00027551,-0.00034808,0.015932,0.010481,0.031557,1.6189e-06,1,0.7,0.5
0.00095425,-0.00039999,-1.5937e-05,0.025491,0.0095684,0.0097753,-0.0030339,1.6231e-05,-0.00013122,0.039376,-0.0020231,-0.0014852,-0.015776,8.44e-05,-0.00068234,0,0,0,0.026078,0.0097712,0.0089854,0.0085464,0.014945,0.016715,2.4091e-07,0,0.75,0.5
0.0019688,-0.00079018,-2.9457e-05,0.025687,0.0083336,0.0087449,-0.0029449,3.1093e-05,-0.00014199,0.041126,-0.0039919,-0.0029224,-0.015313,0.00016169,-0.00073836,0,0,0,0.026205,0.0087389,0.0078209,0.0091923,0.014255,0.017945,3.0249e-07,0.05,0.75,0.5
0.0041126,-0.0015416,-5.3043e-05,0.026437,0.0061548,0.0069332,-0.0026896,6.0168e-05,-0.00017455,0.045022,-0.0077126,-0.005689,-0.013986,0.00031287,-0.00090765,0,0,0,0.026816,0.0069261,0.0057829,0.010517,0.013175,0.020488,4.4759e-07,0.1,0.75,0.5
0.006471,-0.0022186,-7.1914e-05,0.027467,0.0044596,0.0054714,-0.0023213,9.1553e-05,-0.00023535,0.048976,-0.010844,-0.0082134,-0.012071,0.00047608,-0.0012238,0,0,0,0.027721,0.0054673,0.0042104,0.011755,0.012466,0.02291,6.1971e-07,0.15,0.75,0.5
0.0090103,-0.0027952,-8.9331e-05,0.028333,0.0031731,0.0042304,-0.0019348,0.00013162,-0.0003301,0.052224,-0.013192,-0.010443,-0.010061,0.00068444,-0.0017165,0,0,0,0.028498,0.0042332,0.0030054,0.012746,0.011912,0.024903,7.9271e-07,0.2,0.75,0.5
0.011693,-0.0032586,-0.00010597,0.029041,0.0023067,0.0032417,-0.0016193,0.00018401,-0.00045628,0.054753,-0.014756,-0.012325,-0.0084204,0.00095687,-0.0023727,0,0,0,0.029155,0.00326,0.002174,0.013491,0.01153,0.026457,9.501e-07,0.25,0.75,0.5
0.014486,-0.0036041,-0.00011813,0.029629,0.0018323,0.0025384,-0.0014121,0.00023989,-0.00060282,0.056635,-0.015636,-0.0138,-0.0073429,0.0012474,-0.0031347,0,0,0,0.029721,0.0025864,0.0016921,0.014014,0.011333,0.027594,1.0797e-06,0.3,0.75,0.5
0.017357,-0.00382,-0.00011331,0.030166,0.0017113,0.0021833,-0.0012537,0.00024554,-0.00072526,0.057994,-0.015987,-0.014759,-0.0065193,0.0012768,-0.0037713,0,0,0,0.030247,0.0022662,0.001547,0.01435,0.011353,0.028348,1.1745e-06,0.35,0.75,0.5
0.020285,-0.0038573,-5.2676e-05,0.031602,0.0014629,0.0018936,-0.0012069,2.2358e-05,-0.00088509,0.057508,-0.015988,-0.014957,-0.0058684,0.00030608,-0.0042405,0,0,0,0.031686,0.0020548,0.0012176,0.015234,0.011653,0.030061,1.5604e-06,0.4,0.75,0.5
0.023137,-0.0037085,9.0316e-05,0.033322,0.00058675,0.0012045,-0.0011248,-0.0003746,-0.0010003,0.053027,-0.015494,-0.014225,-0.0048738,-0.0013597,-0.0041855,0,0,0,0.033414,0.001509,0.00019071,0.016612,0.011705,0.032589,2.1747e-06,0.45,0.75,0.5
0.025657,-0.0035176,0.00024421,0.032987,-0.00031781,0.00028987,-0.00070765,-0.00051753,-0.00073236,0.045821,-0.014159,-0.012992,-0.0029471,-0.0019728,-0.0028415,0,0,0,0.033054,0.00066512,-0.00075987,0.016907,0.010986,0.033132,2.2893e-06,0.5,0.75,0.5
0.027769,-0.0034236,0.00032353,0.032061,-0.00061018,-0.00036751,-0.00023792,-0.0003589,-0.00029796,0.039879,-0.01252,-0.012001,-0.0011552,-0.0013554,-0.0011664,0,0,0,0.032089,-3.3455e-05,-0.00097182,0.01653,0.010361,0.03261,2.0915e-06,0.55,0.75,0.5
0.029655,-0.0034174,0.00034562,0.032383,-0.0006085,-0.00066787,6.999e-05,-0.00021745,-8.2891e-05,0.03721,-0.011608,-0.011585,5.3851e-05,-0.0007849,-0.00031624,0,0,0,0.032392,-0.00035106,-0.00093458,0.016663,0.010369,0.033043,2.0889e-06,0.6,0.75,0.5
0.03149,-0.0034539,0.00035395,0.032353,-0.00069938,-0.00081435,0.00032643,-0.00021639,1.7072e-05,0.037262,-0.011651,-0.011717,0.0011626,-0.00078466,0.00015038,0,0,0,0.032366,-0.00046299,-0.0010635,0.016715,0.01028,0.033137,2.1062e-06,0.65,0.75,0.5
0.033381,-0.0035372,0.00034768,0.031978,-0.00089248,-0.00081702,0.00056482,-0.00035869,0.00021881,0.04006,-0.012667,-0.012434,0.0022099,-0.0013632,0.00093568,0,0,0,0.032012,-0.00039838,-0.0013455,0.016679,0.010089,0.032902,2.149e-06,0.7,0.75,0.5
0.035506,-0.0037216,0.00027908,0.032853,-0.00082815,-0.00050177,0.00090674,-0.00051987,0.00061398,0.0462,-0.014467,-0.013835,0.0036177,-0.00199,0.0024206,0,0,0,0.032921,-2.184e-05,-0.0013759,0.017148,0.010508,0.033648,2.4013e-06,0.75,0.75,0.5
0.038052,-0.0040309,0.00012512,0.033194,-0.00013314,8.9556e-05,0.0011364,-0.000366,0.00083804,0.053758,-0.016044,-0.01565,0.0048068,-0.0013153,0.0034933,0,0,0,0.033273,0.00055014,-0.00067275,0.016973,0.01105,0.033356,2.3264e-06,0.8,0.75,0.5
0.040953,-0.0043409,-2.6681e-05,0.0316,0.00056236,0.00046751,0.00096842,6.4277e-05,0.00068967,0.058863,-0.016881,-0.017167,0.0046109,0.00052516,0.0032746,0,0,0,0.031653,0.00091435,6.1963e-05,0.015796,0.010877,0.031176,1.7299e-06,0.85,0.75,0.5
0.043969,-0.0045184,-9.8257e-05,0.03039,0.0005122,0.00028126,0.0006832,0.00032862,0.00047838,0.060304,-0.017378,-0.017979,0.0035526,0.0017088,0.0024876,0,0,0,0.030418,0.00077796,-1.1828e-05,0.015215,0.010395,0.030043,1.4002e-06,0.9,0.75,0.5
0.046984,-0.0045842,-0.00011545,0.030199,0.00017485,-3.2292e-05,0.00037456,0.00036551,0.00026655,0.060312,-0.01775,-0.018289,0.0019477,0.0019006,0.0013861,0,0,0,0.030211,0.00048037,-0.00034975,0.01528,0.010114,0.030155,1.4126e-06,0.95,0.75,0.5
0.048492,-0.004601,-0.00011825,0.030142,5.963e-05,-0.00012329,0.0001754,0.00036231,0.00013665,0.060323,-0.017892,-0.018368,0.00091209,0.001884,0.00071057,0,0,0,0.030147,0.00037619,-0.00044424,0.015295,0.010026,0.03019,1.4168e-06,1,0.75,0.5
0.00095723,-0.00050617,-1.3985e-05,0.02554,0.0094375,0.0097672,-0.0038119,1.8815e-05,-0.000114,0.039557,-0.0023091,-0.001452,-0.019822,9.7839e-05,-0.00059283,0,0,0,0.026427,0.0097636,0.0085538,0.0089366,0.014915,0.017303,2.6469e-07,0,0.8,0.5
0.0019778,-0.00099983,-2.5718e-05,0.025704,0.0080439,0.008695,-0.0036594,3.6042e-05,-0.00012143,0.041365,-0.0045517,-0.002859,-0.019029,0.00018742,-0.00063145,0,0,0,0.026472,0.0086897,0.0072815,0.0095952,0.014148,0.01853,3.2876e-07,0.05,0.8,0.5
0.0041365,-0.0019456,-4.5739e-05,0.026374,0.0056088,0.0068111,-0.0032369,6.9508e-05,-0.0001439,0.045297,-0.0086937,-0.0055677,-0.016832,0.00036144,-0.0007483,0,0,0,0.026902,0.0068053,0.0050869,0.010908,0.012931,0.021012,4.7544e-07,0.1,0.8,0.5
0.0065075,-0.002782,-6.0505e-05,0.027262,0.0038169,0.0053066,-0.0026572,0.00010457,-0.00018617,0.04905,-0.011907,-0.0080341,-0.013817,0.00054375,-0.00096807,0,0,0,0.027583,0.0053045,0.0034974,0.012043,0.012128,0.023238,6.3777e-07,0.15,0.8,0.5
0.0090415,-0.0034716,-7.2329e-05,0.027895,0.0025884,0.0040465,-0.0020816,0.00014692,-0.00025071,0.05181,-0.013988,-0.010197,-0.010824,0.00076401,-0.0013037,0,0,0,0.028082,0.004053,0.0023957,0.012843,0.01151,0.024901,7.8467e-07,0.2,0.8,0.5
0.011688,-0.0040037,-8.1405e-05,0.028288,0.0018416,0.0030377,-0.0016284,0.00019848,-0.00033226,0.053648,-0.015112,-0.012002,-0.0084676,0.0010321,-0.0017278,0,0,0,0.0284,0.0030631,0.0017036,0.013348,0.011056,0.026046,9.0118e-07,0.25,0.8,0.5
0.014406,-0.0043817,-8.4884e-05,0.028481,0.0014635,0.0022855,-0.0013224,0.00025233,-0.00042092,0.054713,-0.015533,-0.013396,-0.0068764,0.0013121,-0.0021888,0,0,0,0.028559,0.0023498,0.0013212,0.013619,0.010743,0.02674,9.7935e-07,0.3,0.8,0.5
0.01716,-0.0046051,-7.4396e-05,0.028522,0.0013481,0.0018091,-0.0011064,0.00028134,-0.00049534,0.05515,-0.015503,-0.014304,-0.0057531,0.001463,-0.0025758,0,0,0,0.028584,0.0019266,0.0011692,0.013707,0.01056,0.027045,1.0174e-06,0.35,0.8,0.5
0.019921,-0.0046491,-3.0662e-05,0.02885,0.0011717,0.0015331,-0.0009871,0.00015828,-0.00055442,0.054891,-0.015519,-0.014617,-0.0049824,0.00088601,-0.0027885,0,0,0,0.028906,0.001675,0.00097391,0.013966,0.010518,0.02759,1.1519e-06,0.4,0.8,0.5
0.022658,-0.0045049,6.7603e-05,0.029835,0.0004798,0.0011515,-0.00098345,-0.00021038,-0.00067137,0.052906,-0.015732,-0.014251,-0.0045364,-0.00075697,-0.002995,0,0,0,0.029898,0.0013408,0.00022698,0.014836,0.010489,0.029135,1.5154e-06,0.45,0.8,0.5
0.025255,-0.0042675,0.00019287,0.030285,-0.00035861,0.00054283,-0.00089217,-0.00054461,-0.00066311,0.048471,-0.015299,-0.013387,-0.0038265,-0.0021919,-0.0026935,0,0,0,0.030347,0.00085594,-0.00073399,0.015541,0.010156,0.030324,1.7817e-06,0.5,0.8,0.5
0.02757,-0.0040853,0.00028249,0.029572,-0.00064501,4.2544e-06,-0.00054649,-0.00053527,-0.00040444,0.043485,-0.014026,-0.012537,-0.0023715,-0.002216,-0.0016378,0,0,0,0.029608,0.00037725,-0.0010543,0.015331,0.0096438,0.029981,1.7194e-06,0.55,0.8,0.5
0.029646,-0.0040217,0.00032218,0.02902,-0.00061725,-0.00029808,-5.0171e-05,-0.00036368,-0.00013152,0.040576,-0.013021,-0.012125,-0.00032855,-0.0016004,-0.00054493,0,0,0,0.029034,4.753e-05,-0.00097691,0.015006,0.0093682,0.02952,1.6275e-06,0.6,0.8,0.5
0.031645,-0.0040599,0.00032959,0.029007,-0.00067811,-0.00042402,0.00045332,-0.00036523,8.7386e-05,0.040639,-0.013045,-0.012273,0.0018588,-0.0016083,0.00041947,0,0,0,0.029028,-4.8459e-05,-0.0010745,0.015051,0.0093018,0.02961,1.6426e-06,0.65,0.8,0.5
0.033727,-0.0042045,0.00030327,0.029527,-0.00084155,-0.00038956,0.00088954,-0.00054197,0.00034584,0.043685,-0.014109,-0.013014,0.0037151,-0.0022443,0.0014393,0,0,0,0.029577,5.6977e-05,-0.0013384,0.015458,0.009432,0.03025,1.7687e-06,0.7,0.8,0.5
0.036056,-0.0044834,0.00022203,0.030198,-0.00070779,-0.00013658,0.0011168,-0.00054905,0.00057492,0.04884,-0.015469,-0.014286,0.0047434,-0.0022045,0.0023378,0,0,0,0.030269,0.00027088,-0.0011863,0.015728,0.0097847,0.03076,1.8634e-06,0.75,0.8,0.5
0.038676,-0.0048478,9.847e-05,0.029733,-3.5018e-06,0.00018465,0.0010262,-0.00019259,0.00055407,0.053527,-0.016007,-0.01571,0.0046815,-0.00065909,0.0024473,0,0,0,0.029792,0.00057672,-0.00045468,0.015124,0.0099715,0.02975,1.6121e-06,0.8,0.8,0.5
0.041453,-0.0051646,-2.2261e-06,0.028783,0.0005449,0.00020946,0.00078442,0.00021285,0.00040791,0.055915,-0.015923,-0.016817,0.003924,0.001171,0.0020416,0,0,0,0.028817,0.00078756,-6.7923e-05,0.014443,0.0098457,0.028469,1.2628e-06,0.85,0.8,0.5
0.044278,-0.005353,-5.0087e-05,0.028531,0.00049001,-2.5239e-05,0.00056942,0.00037569,0.00030449,0.056784,-0.016124,-0.017463,0.002961,0.0019536,0.0015833,0,0,0,0.02855,0.00070422,-0.00025815,0.014404,0.0096654,0.02834,1.1719e-06,0.9,0.8,0.5
0.047131,-0.0054383,-6.6432e-05,0.028628,0.00026732,-0.00021447,0.00029769,0.00038959,0.0001645,0.057224,-0.016513,-0.017766,0.001548,0.0020259,0.0008554,0,0,0,0.028635,0.00051276,-0.00046774,0.014552,0.0095602,0.028626,1.2058e-06,0.95,0.8,0.5
0.048564,-0.0054628,-7.0103e-05,0.028664,0.00018311,-0.00027175,0.00012412,0.00038728,8.1744e-05,0.057381,-0.016669,-0.017852,0.00064544,0.0020138,0.00042507,0,0,0,0.028667,0.00043715,-0.00052876,0.014598,0.009525,0.028725,1.218e-06,1,0.8,0.5
0.00097173,-0.00063091,-1.2157e-05,0.025827,0.0092339,0.009806,-0.0046787,1.852e-05,-9.7687e-05,0.04023,-0.0029121,-0.0014246,-0.024329,9.6303e-05,-0.00050797,0,0,0,0.027092,0.0098028,0.0079724,0.0095597,0.014956,0.018279,3.0666e-07,0,0.85,0.5
0.0020115,-0.0012453,-2.2223e-05,0.025911,0.0075429,0.0086328,-0.0043839,3.5596e-05,-0.00010174,0.042116,-0.0056403,-0.0028065,-0.022796,0.0001851,-0.00052906,0,0,0,0.02696,0.0086282,0.0064978,0.010231,0.014029,0.019492,3.7336e-07,0.05,0.85,0.5
0.0042116,-0.0024109,-3.8909e-05,0.026421,0.0047283,0.0066115,-0.0036363,6.8675e-05,-0.00011428,0.046037,-0.010363,-0.0054664,-0.018909,0.00035711,-0.00059424,0,0,0,0.027064,0.0066063,0.0040898,0.011487,0.012587,0.021831,5.1857e-07,0.1,0.85,0.5
0.0066153,-0.0034093,-4.9826e-05,0.027091,0.0029369,0.0050675,-0.0027366,0.00010238,-0.00013899,0.04938,-0.013421,-0.0078818,-0.01423,0.0005324,-0.00072272,0,0,0,0.027429,0.0050659,0.0026008,0.012414,0.011698,0.023697,6.6215e-07,0.15,0.85,0.5
0.0091496,-0.004194,-5.6468e-05,0.027413,0.001888,0.0037978,-0.0019489,0.00014071,-0.00017636,0.051415,-0.014951,-0.0099853,-0.010134,0.00073171,-0.00091707,0,0,0,0.02758,0.0038041,0.0017152,0.012932,0.011033,0.02489,7.7432e-07,0.2,0.85,0.5
0.011757,-0.0047699,-5.8706e-05,0.027476,0.0013125,0.0027757,-0.0013774,0.00018392,-0.00021965,0.052498,-0.015526,-0.011721,-0.0071625,0.00095637,-0.0011422,0,0,0,0.02756,0.0027989,0.001205,0.013177,0.010521,0.025598,8.5078e-07,0.25,0.85,0.5
0.014399,-0.0051574,-5.4233e-05,0.027377,0.0010487,0.0020045,-0.00098801,0.00022579,-0.00025844,0.052921,-0.015531,-0.013046,-0.0051376,0.0011741,-0.0013439,0,0,0,0.027424,0.0020619,0.00094397,0.01324,0.010143,0.025941,8.918e-07,0.3,0.85,0.5
0.017049,-0.0053702,-3.7592e-05,0.027154,0.00096818,0.0014769,-0.00070038,0.00024417,-0.00027693,0.052841,-0.015242,-0.013919,-0.003642,0.0012697,-0.00144,0,0,0,0.027183,0.0015819,0.00083367,0.013175,0.0098663,0.025985,8.9995e-07,0.35,0.85,0.5
0.019683,-0.0054108,-3.6461e-07,0.026804,0.00083884,0.0011396,-0.00046934,0.00018191,-0.00026192,0.052421,-0.015088,-0.014306,-0.0024406,0.00094594,-0.001362,0,0,0,0.026824,0.0012458,0.00071212,0.013056,0.0095941,0.025851,8.88e-07,0.4,0.85,0.5
0.022291,-0.0052871,6.5974e-05,0.026614,0.00035877,0.00084197,-0.0003688,-4.7411e-05,-0.00027205,0.051469,-0.015387,-0.014204,-0.0018003,-0.0001734,-0.001306,0,0,0,0.026636,0.00093662,0.00024147,0.013197,0.0092714,0.026058,9.5258e-07,0.45,0.85,0.5
0.024842,-0.0050563,0.00015087,0.026565,-0.00028054,0.00053723,-0.00037847,-0.00035734,-0.00029738,0.049627,-0.015701,-0.013729,-0.0016783,-0.0016449,-0.0013001,0,0,0,0.026594,0.00071677,-0.0004884,0.013541,0.0089407,0.026506,1.074e-06,0.5,0.85,0.5
0.027281,-0.0048364,0.00022589,0.026239,-0.00059921,0.00030399,-0.00027077,-0.00050252,-0.00025236,0.047272,-0.015435,-0.013187,-0.0011776,-0.0023916,-0.0011098,0,0,0,0.026259,0.00057924,-0.00089512,0.013577,0.0086478,0.026452,1.0981e-06,0.55,0.85,0.5
0.029597,-0.0047292,0.00027208,0.025933,-0.00065774,0.00012342,1.9315e-05,-0.00048131,-0.00011265,0.045523,-0.014911,-0.012918,9.4321e-05,-0.0023937,-0.00050783,0,0,0,0.025943,0.0004213,-0.0009656,0.013454,0.0084663,0.026247,1.08e-06,0.6,0.85,0.5
0.031859,-0.004768,0.00027796,0.025932,-0.00069301,2.1875e-05,0.00035447,-0.0004814,7.8653e-05,0.045593,-0.014915,-0.013078,0.0016212,-0.0023932,0.00037667,0,0,0,0.025946,0.00033651,-0.0010222,0.013484,0.0084202,0.026319,1.0896e-06,0.65,0.85,0.5
0.034182,-0.0049577,0.00024243,0.02623,-0.00071017,-1.107e-05,0.00059647,-0.00050245,0.00020961,0.047488,-0.01545,-0.013692,0.0027139,-0.0023866,0.00092278,0,0,0,0.02626,0.00030946,-0.0010608,0.013661,0.0085031,0.026667,1.1279e-06,0.7,0.85,0.5
0.036637,-0.0052764,0.00017529,0.026543,-0.00047389,-1.5198e-05,0.0006116,-0.00034823,0.00023721,0.050008,-0.015728,-0.014652,0.0028105,-0.0015923,0.0010124,0,0,0,0.026578,0.00026385,-0.00078774,0.013683,0.0086847,0.026861,1.1203e-06,0.75,0.85,0.5
0.039211,-0.0056364,9.5269e-05,0.026576,8.0375e-05,5.8277e-06,0.00045855,-1.6004e-05,0.00019128,0.052054,-0.015414,-0.015668,0.0022446,-8.4833e-06,0.00089538,0,0,0,0.026598,0.00037997,-0.00031598,0.013457,0.0088874,0.026576,1.0105e-06,0.8,0.85,0.5
0.041854,-0.0059347,3.1709e-05,0.026751,0.00045296,-7.6973e-05,0.00035521,0.00024178,0.00015591,0.053277,-0.015099,-0.016476,0.0018471,0.0012573,0.00081073,0,0,0,0.026763,0.00058112,-0.00021653,0.01349,0.0090424,0.02659,9.6551e-07,0.85,0.85,0.5
0.044539,-0.0061308,-4.2827e-06,0.027083,0.00042673,-0.00024946,0.00029782,0.00033608,0.00013824,0.054059,-0.015246,-0.017005,0.0015487,0.0017476,0.00071885,0,0,0,0.02709,0.00058587,-0.00041558,0.013753,0.0090866,0.027019,1.0113e-06,0.9,0.85,0.5
0.047259,-0.0062356,-2.0896e-05,0.027281,0.00028725,-0.00037327,0.00014693,0.00035505,7.7216e-05,0.054614,-0.01557,-0.017288,0.00076402,0.0018463,0.00040152,0,0,0,0.027284,0.00046806,-0.00055717,0.013921,0.0090651,0.027344,1.048e-06,0.95,0.85,0.5
0.048627,-0.0062679,-2.5472e-05,0.02735,0.00022792,-0.00041421,3.7071e-05,0.00035604,3.6032e-05,0.054811,-0.015706,-0.017375,0.00019277,0.0018514,0.00018737,0,0,0,0.027351,0.00041433,-0.00060203,0.013977,0.0090545,0.027459,1.0614e-06,1,0.85,0.5
0.001015,-0.00079738,-1.1034e-05,0.02667,0.0086944,0.0099026,-0.0055562,1.4917e-05,-8.7122e-05,0.042182,-0.0045549,-0.0014135,-0.028892,7.7567e-05,-0.00045303,0,0,0,0.028332,0.0098996,0.0070352,0.010649,0.015089,0.020036,3.8913e-07,0,0.9,0.5
0.0021091,-0.0015639,-2.0064e-05,0.026576,0.0065475,0.0085447,-0.0049101,2.9105e-05,-8.8335e-05,0.044096,-0.0079773,-0.0027846,-0.025533,0.00015135,-0.00045934,0,0,0,0.027836,0.0085402,0.0052921,0.011272,0.013889,0.021123,4.5278e-07,0.05,0.9,0.5
0.0044096,-0.0029818,-3.4592e-05,0.026724,0.0034342,0.0063368,-0.0035859,5.679e-05,-9.2493e-05,0.047585,-0.012968,-0.0054212,-0.018647,0.00029531,-0.00048096,0,0,0,0.027342,0.0063318,0.0028211,0.01226,0.012165,0.022978,5.789e-07,0.1,0.9,0.5
0.0068676,-0.0041241,-4.2775e-05,0.026912,0.0019634,0.0047588,-0.0023753,8.4502e-05,-0.00010256,0.04979,-0.015075,-0.0078073,-0.012352,0.00043941,-0.00053334,0,0,0,0.027178,0.0047567,0.001699,0.01274,0.011211,0.024103,6.8079e-07,0.15,0.9,0.5
0.0093886,-0.0049667,-4.5508e-05,0.026731,0.0011939,0.0034417,-0.0015006,0.00011426,-0.00011817,0.05068,-0.015716,-0.0098713,-0.0078029,0.00059416,-0.00061448,0,0,0,0.02684,0.0034456,0.0010811,0.012879,0.010455,0.024667,7.4684e-07,0.2,0.9,0.5
0.011936,-0.0055563,-4.251e-05,0.026486,0.00080669,0.0024087,-0.00094091,0.00014529,-0.00013305,0.051043,-0.015724,-0.011558,-0.0048927,0.00075551,-0.00069185,0,0,0,0.026532,0.0024243,0.00074545,0.012893,0.0099005,0.024993,7.8997e-07,0.25,0.9,0.5
0.014493,-0.0059349,-3.2165e-05,0.026258,0.00064858,0.0016554,-0.00056865,0.00017087,-0.00013924,0.051133,-0.015451,-0.012833,-0.002957,0.0008885,-0.00072403,0,0,0,0.026278,0.0016922,0.00059184,0.012843,0.0095206,0.025156,8.1305e-07,0.3,0.9,0.5
0.017049,-0.0061293,-1.1518e-05,0.026033,0.00060532,0.0011514,-0.00027931,0.00017387,-0.00012777,0.051012,-0.0151,-0.01368,-0.0014524,0.00090414,-0.00066443,0,0,0,0.026042,0.0012131,0.00053483,0.012754,0.0092633,0.025176,8.183e-07,0.35,0.9,0.5
0.019594,-0.0061579,2.3119e-05,0.025776,0.00053558,0.00083992,-2.3264e-05,0.00012661,-9.5761e-05,0.050727,-0.014899,-0.014107,-0.00012097,0.00065835,-0.00049796,0,0,0,0.025781,0.00089792,0.00047275,0.012654,0.0090506,0.025099,8.1179e-07,0.4,0.9,0.5
0.022122,-0.0060447,7.2967e-05,0.025457,0.00028751,0.000643,0.00016503,-3.1917e-06,-5.5612e-05,0.050355,-0.015085,-0.014161,0.00085814,-1.6597e-05,-0.00028918,0,0,0,0.025463,0.00068534,0.00023911,0.012612,0.0087958,0.025005,8.0206e-07,0.45,0.9,0.5
0.02463,-0.0058415,0.00013082,0.025104,-0.00012137,0.0005172,0.00023159,-0.00018962,-3.5971e-05,0.04997,-0.015615,-0.013955,0.0012043,-0.00098601,-0.00018705,0,0,0,0.025112,0.00059419,-0.00020696,0.01266,0.0084998,0.024931,7.9255e-07,0.5,0.9,0.5
0.027119,-0.0056363,0.00018435,0.024893,-0.00046811,0.00044053,0.00020585,-0.0003503,-4.3415e-05,0.049509,-0.016038,-0.013686,0.0010744,-0.0018215,-0.00022334,0,0,0,0.0249,0.0005867,-0.00062164,0.012761,0.0082883,0.024941,7.9694e-07,0.55,0.9,0.5
0.029584,-0.0055234,0.00022047,0.024908,-0.00062423,0.00036951,0.00016645,-0.00043955,-3.402e-05,0.049091,-0.016119,-0.013567,0.00085663,-0.0022856,-0.00017033,0,0,0,0.024912,0.00056741,-0.00082649,0.012869,0.0082176,0.025072,8.2072e-07,0.6,0.9,0.5
0.032039,-0.0055618,0.0002253,0.024926,-0.00063991,0.00028896,0.00013112,-0.00043698,-4.3138e-07,0.049186,-0.016113,-0.013729,0.00065219,-0.0022723,3.6511e-06,0,0,0,0.02493,0.00049371,-0.00084904,0.01289,0.0081917,0.025137,8.2753e-07,0.65,0.9,0.5
0.034514,-0.0057567,0.00019845,0.024948,-0.00051787,0.00018837,6.2396e-05,-0.00034198,4.8691e-06,0.049801,-0.016019,-0.014192,0.00030765,-0.0017783,2.7056e-05,0,0,0,0.024954,0.00035673,-0.00069291,0.012824,0.008206,0.025142,8.1765e-07,0.7,0.9,0.5
0.037022,-0.0060597,0.00015314,0.02519,-0.00021311,5.6743e-05,-2.0872e-05,-0.00017175,-1.2479e-05,0.050474,-0.015574,-0.014873,-0.00010853,-0.00089309,-6.4889e-05,0,0,0,0.025197,0.0002351,-0.00039834,0.012798,0.0083446,0.025287,8.2835e-07,0.75,0.9,0.5
0.039561,-0.0063902,0.0001022,0.025563,0.00014451,-8.9207e-05,-4.7238e-05,2.9677e-05,-7.0349e-06,0.051094,-0.014996,-0.015603,-0.00024564,0.00015432,-3.6581e-05,0,0,0,0.025568,0.00027185,-0.0002207,0.012894,0.0085396,0.025546,8.5529e-07,0.8,0.9,0.5
0.042132,-0.0066745,5.8027e-05,0.025885,0.00032981,-0.00025209,7.0836e-07,0.00017862,1.6347e-05,0.051723,-0.01472,-0.016233,3.6839e-06,0.00092881,8.5002e-05,0,0,0,0.025887,0.00039349,-0.00031782,0.013102,0.0086541,0.025857,8.8607e-07,0.85,0.9,0.5
0.044733,-0.0068776,2.8164e-05,0.02611,0.00031516,-0.00041666,5.2722e-05,0.00024931,2.9703e-05,0.05228,-0.014785,-0.016688,0.00027415,0.0012964,0.00015446,0,0,0,0.026111,0.00041127,-0.00051401,0.013312,0.0086694,0.026175,9.1819e-07,0.9,0.9,0.5
0.04736,-0.0069953,1.202e-05,0.026244,0.00023522,-0.00053391,1.3361e-05,0.0002743,1.7666e-05,0.052666,-0.014955,-0.016955,6.9477e-05,0.0014264,9.1862e-05,0,0,0,0.026244,0.00034588,-0.00064532,0.013445,0.0086483,0.026408,9.4274e-07,0.95,0.9,0.5
0.048678,-0.0070334,7.0006e-06,0.02629,0.00019728,-0.00057497,-3.9867e-05,0.00027929,4.0518e-06,0.052806,-0.015034,-0.017042,-0.00020731,0.0014523,2.1069e-05,0,0,0,0.02629,0.00031161,-0.00068993,0.01349,0.0086373,0.026494,9.5196e-07,1,0.9,0.5
0.0012103,-0.0010864,-1.1412e-05,0.030292,0.0086643,0.010971,-0.0066251,9.7446e-06,-8.9751e-05,0.048802,-0.0074291,-0.0014309,-0.03445,5.0672e-05,-0.0004667,0,0,0,0.032387,0.010968,0.0065716,0.012908,0.016642,0.023951,6.8004e-07,0,0.95,0.5
0.0024401,-0.0020431,-2.0684e-05,0.028911,0.0056299,0.0089543,-0.0051987,1.9398e-05,-8.928e-05,0.049072,-0.011459,-0.002816,-0.027033,0.00010087,-0.00046425,0,0,0,0.030283,0.0089497,0.004263,0.01301,0.014498,0.024043,6.5309e-07,0.05,0.95,0.5
0.0049072,-0.0037077,-3.5373e-05,0.026995,0.0019559,0.005948,-0.0029111,3.832e-05,-8.7333e-05,0.049248,-0.015854,-0.0054747,-0.015138,0.00019927,-0.00045413,0,0,0,0.027424,0.0059426,0.0015325,0.012946,0.011633,0.024006,6.326e-07,0.1,0.95,0.5
0.0073649,-0.0049169,-4.2914e-05,0.026006,0.00096079,0.0041545,-0.001589,5.6845e-05,-8.5913e-05,0.048942,-0.016175,-0.0078709,-0.0082628,0.0002956,-0.00044675,0,0,0,0.026146,0.0041512,0.0008239,0.012661,0.010374,0.023842,6.5063e-07,0.15,0.95,0.5
0.0098014,-0.0057656,-4.3892e-05,0.025324,0.00046144,0.0027699,-0.00087908,7.5817e-05,-8.4859e-05,0.048708,-0.015933,-0.0099311,-0.0045712,0.00039425,-0.00044126,0,0,0,0.025371,0.0027705,0.00041363,0.012479,0.0095183,0.023873,6.7688e-07,0.2,0.95,0.5
0.012236,-0.0063422,-3.7872e-05,0.024989,0.00026328,0.0017766,-0.00048327,9.4466e-05,-7.8708e-05,0.048753,-0.015533,-0.011598,-0.002513,0.00049122,-0.00040928,0,0,0,0.025005,0.0017838,0.00023935,0.012383,0.0090095,0.024035,7.0467e-07,0.25,0.95,0.5
0.014677,-0.0067025,-2.3585e-05,0.024845,0.00020463,0.0010949,-0.00022978,0.00010766,-6.2299e-05,0.048911,-0.015155,-0.01284,-0.0011949,0.00055984,-0.00032395,0,0,0,0.024851,0.001113,0.00018087,0.012335,0.0087149,0.02422,7.2748e-07,0.3,0.95,0.5
0.017127,-0.0068803,6.6724e-07,0.024818,0.00021175,0.00068171,-2.5078e-05,0.00010487,-3.2841e-05,0.0491,-0.014876,-0.013655,-0.0001304,0.00054535,-0.00017077,0,0,0,0.02482,0.0007101,0.00018141,0.012319,0.0085705,0.02438,7.4417e-07,0.35,0.95,0.5
0.019587,-0.0069007,3.5934e-05,0.02488,0.00021508,0.00049295,0.00016585,7.0843e-05,6.5728e-06,0.049336,-0.014794,-0.014071,0.00086244,0.00036838,3.4179e-05,0,0,0,0.024883,0.00051708,0.00018856,0.012347,0.0085294,0.024532,7.5846e-07,0.4,0.95,0.5
0.02206,-0.0067956,8.0801e-05,0.025016,0.00013937,0.00046625,0.00032509,-4.5099e-06,4.2538e-05,0.04967,-0.015011,-0.014161,0.0016905,-2.3452e-05,0.0002212,0,0,0,0.025022,0.00048163,0.00011882,0.012451,0.0085407,0.024724,7.7585e-07,0.45,0.95,0.5
0.024554,-0.0066179,0.00012973,0.025194,-4.0773e-05,0.00052451,0.0003994,-0.00010755,5.8418e-05,0.050098,-0.015513,-0.014043,0.0020769,-0.00055928,0.00030377,0,0,0,0.025201,0.00055567,-7.9011e-05,0.01264,0.0085593,0.02497,7.9778e-07,0.5,0.95,0.5
0.02707,-0.0064413,0.00017337,0.025378,-0.00024262,0.00060318,0.00034832,-0.00021203,4.7452e-05,0.05054,-0.016074,-0.013875,0.0018112,-0.0011026,0.00024675,0,0,0,0.025384,0.00067085,-0.00031598,0.01285,0.0085795,0.025222,8.1988e-07,0.55,0.95,0.5
0.029608,-0.0063445,0.00020115,0.025525,-0.00036237,0.00064128,0.00019485,-0.00028495,7.6933e-06,0.050883,-0.016425,-0.013815,0.0010132,-0.0014817,4.0005e-05,0,0,0,0.025528,0.00074024,-0.00046399,0.012996,0.0086014,0.025412,8.3691e-07,0.6,0.95,0.5
0.032158,-0.0063826,0.00020539,0.025583,-0.00036402,0.00057943,3.2925e-06,-0.00028224,-4.8089e-05,0.051037,-0.016425,-0.013973,1.7122e-05,-0.0014676,-0.00025006,0,0,0,0.025584,0.00068169,-0.00046756,0.013026,0.0085995,0.025498,8.4595e-07,0.65,0.95,0.5
0.034711,-0.0065607,0.00018593,0.02555,-0.00025046,0.00040556,-0.00016275,-0.00020379,-9.0859e-05,0.051007,-0.016074,-0.014369,-0.00084632,-0.0010597,-0.00047247,0,0,0,0.025552,0.00048428,-0.00033135,0.012942,0.0085684,0.025488,8.473e-07,0.7,0.95,0.5
0.037259,-0.0068339,0.00015014,0.025478,-5.93e-05,0.00015595,-0.0002425,-9.2815e-05,-0.00010802,0.050897,-0.015499,-0.014939,-0.001261,-0.00048264,-0.0005617,0,0,0,0.025481,0.0002697,-0.00017627,0.012829,0.0085248,0.025438,8.4442e-07,0.75,0.95,0.5
0.039801,-0.0071359,0.00010837,0.025403,0.000107,-0.00013188,-0.00021774,1.8915e-05,-0.00010065,0.050822,-0.014949,-0.01557,-0.0011322,9.8356e-05,-0.00052338,0,0,0,0.025406,0.00018235,-0.00021002,0.012808,0.0084595,0.025423,8.4316e-07,0.8,0.95,0.5
0.042341,-0.0074067,7.0052e-05,0.025353,0.00016466,-0.00041891,-0.00013471,0.0001058,-7.4036e-05,0.050858,-0.014631,-0.016148,-0.00070051,0.00055018,-0.00038499,0,0,0,0.025354,0.00019087,-0.00044658,0.0129,0.0083661,0.025489,8.4869e-07,0.85,0.95,0.5
0.044887,-0.0076093,4.1124e-05,0.02534,0.00013536,-0.00065475,-5.5357e-05,0.00015453,-4.3014e-05,0.050992,-0.01454,-0.016595,-0.00028786,0.00080353,-0.00022367,0,0,0,0.025341,0.00017744,-0.00069734,0.013019,0.0082735,0.025612,8.5993e-07,0.9,0.95,0.5
0.047441,-0.0077311,2.3747e-05,0.02535,8.58e-05,-0.00080477,-5.0736e-05,0.00017483,-2.3838e-05,0.051131,-0.014556,-0.016871,-0.00026383,0.0009091,-0.00012396,0,0,0,0.02535,0.00013451,-0.00085385,0.013102,0.0082103,0.025724,8.7066e-07,0.95,0.95,0.5
0.048719,-0.0077713,1.8023e-05,0.025357,6.3398e-05,-0.00085597,-7.8116e-05,0.00017993,-1.9062e-05,0.051189,-0.014574,-0.016964,-0.0004062,0.00093562,-9.9123e-05,0,0,0,0.025357,0.00011361,-0.00090669,0.013132,0.008188,0.025769,8.7501e-07,1,0.95,0.5
0.0013739,-0.0012774,-1.2094e-05,0.033301,0.0090454,0.01198,-0.0072783,7.259e-06,-9.5552e-05,0.053987,-0.0090778,-0.0014484,-0.037847,3.7747e-05,-0.00049687,0,0,0,0.035642,0.011977,0.0067079,0.014467,0.018109,0.026725,9.1574e-07,0,1,0.5
0.0026994,-0.0023382,-2.1899e-05,0.030752,0.0053834,0.0094167,-0.0053228,1.4531e-05,-9.4611e-05,0.052624,-0.013335,-0.002848,-0.027679,7.5559e-05,-0.00049198,0,0,0,0.032172,0.0094119,0.0039688,0.014101,0.015184,0.025937,8.024e-07,0.05,1,0.5
0.0052624,-0.0041147,-3.7406e-05,0.027025,0.0012248,0.0057091,-0.002432,2.8678e-05,-9.0204e-05,0.04989,-0.017191,-0.0055317,-0.012646,0.00014912,-0.00046906,0,0,0,0.027332,0.0057033,0.00092349,0.013204,0.01132,0.024388,6.5219e-07,0.1,1,0.5
0.0076884,-0.0053277,-4.5284e-05,0.025208,0.00043088,0.0037189,-0.0011211,4.2176e-05,-8.3742e-05,0.047926,-0.016494,-0.0079455,-0.0058298,0.00021932,-0.00043546,0,0,0,0.025282,0.0037148,0.00036051,0.012461,0.0097859,0.023436,6.1545e-07,0.15,1,0.5
0.010055,-0.0061663,-4.6048e-05,0.024344,5.3019e-05,0.0023117,-0.00056222,5.5647e-05,-7.5471e-05,0.04727,-0.015888,-0.010015,-0.0029235,0.00028937,-0.00039245,0,0,0,0.024366,0.0023107,3.2577e-05,0.012167,0.0089031,0.023286,6.2801e-07,0.2,1,0.5
0.012415,-0.0067309,-3.914e-05,0.024057,-4.6865e-05,0.0013629,-0.00027667,6.8586e-05,-6.0068e-05,0.047325,-0.015346,-0.01168,-0.0014387,0.00035665,-0.00031235,0,0,0,0.024064,0.0013665,-5.7255e-05,0.012061,0.0084578,0.023447,6.5451e-07,0.25,1,0.5
0.014788,-0.0070811,-2.3299e-05,0.02402,-5.1595e-05,0.00073568,-9.9222e-05,7.7095e-05,-3.3387e-05,0.04763,-0.014957,-0.01291,-0.00051596,0.0004009,-0.00017361,0,0,0,0.024022,0.00074639,-6.4272e-05,0.012043,0.0082348,0.023694,6.8129e-07,0.3,1,0.5
0.017178,-0.007252,2.8483e-06,0.02414,-8.9318e-06,0.00038737,4.8002e-05,7.3385e-05,5.3121e-06,0.048052,-0.014734,-0.013704,0.00024961,0.0003816,2.7623e-05,0,0,0,0.024141,0.00040403,-2.6495e-05,0.012084,0.0081727,0.023956,7.0604e-07,0.35,1,0.5
0.019593,-0.0072707,3.9714e-05,0.024395,3.5768e-05,0.00027981,0.00018989,4.8091e-05,4.9712e-05,0.0486,-0.014733,-0.014099,0.00098742,0.00025008,0.0002585,0,0,0,0.024397,0.00029312,2.0194e-05,0.012188,0.0082368,0.024242,7.3193e-07,0.4,1,0.5
0.022038,-0.0071712,8.5199e-05,0.024773,3.6731e-05,0.00035608,0.00030857,-3.8076e-06,8.5962e-05,0.04931,-0.015004,-0.014174,0.0016045,-1.98e-05,0.00044701,0,0,0,0.024778,0.00036339,2.4597e-05,0.012377,0.0083886,0.024586,7.6313e-07,0.45,1,0.5
0.024524,-0.0070054,0.0001335,0.02523,-1.851e-05,0.00053765,0.00036052,-7.6404e-05,9.8201e-05,0.050148,-0.015498,-0.014052,0.0018747,-0.0003973,0.00051064,0,0,0,0.025236,0.00055353,-4.0599e-05,0.012638,0.008583,0.024986,7.9975e-07,0.5,1,0.5
0.027053,-0.0068425,0.00017577,0.025672,-0.0001046,0.00072661,0.00031242,-0.00015085,7.4296e-05,0.05097,-0.016048,-0.013887,0.0016246,-0.00078443,0.00038634,0,0,0,0.025676,0.00076285,-0.00014566,0.012911,0.0087645,0.025381,8.3628e-07,0.55,1,0.5
0.029621,-0.0067553,0.00020234,0.025974,-0.00017423,0.0008245,0.00016787,-0.00019907,1.4936e-05,0.051558,-0.016428,-0.013831,0.00087291,-0.0010352,7.7667e-05,0,0,0,0.025976,0.00087677,-0.00022862,0.013102,0.0088748,0.02567,8.6365e-07,0.6,1,0.5
0.032209,-0.0067935,0.00020627,0.026055,-0.00016937,0.00077304,-2.0115e-05,-0.00019691,-6.0085e-05,0.051749,-0.016436,-0.013986,-0.0001046,-0.0010239,-0.00031244,0,0,0,0.026056,0.00082719,-0.0002246,0.013141,0.0088863,0.025772,8.7437e-07,0.65,1,0.5
0.034796,-0.0069619,0.00018745,0.025916,-9.1473e-05,0.00056095,-0.00017203,-0.00014441,-0.00012189,0.05155,-0.016069,-0.014373,-0.00089455,-0.00075092,-0.00063382,0,0,0,0.025918,0.00060323,-0.00013604,0.013027,0.008795,0.025694,8.6857e-07,0.7,1,0.5
0.037364,-0.007221,0.00015257,0.025636,7.9763e-07,0.00022413,-0.00023736,-6.5226e-05,-0.00015064,0.051138,-0.015515,-0.014934,-0.0012343,-0.00033917,-0.00078333,0,0,0,0.02564,0.00030913,-8.7733e-05,0.012864,0.0086205,0.025532,8.5408e-07,0.75,1,0.5
0.039909,-0.0075099,0.00011116,0.025338,6.142e-05,-0.00016215,-0.00021575,1.3452e-05,-0.00014498,0.050736,-0.014982,-0.015564,-0.0011219,6.9951e-05,-0.00075389,0,0,0,0.025341,0.00012755,-0.00023144,0.012786,0.0084123,0.025395,8.4052e-07,0.8,1,0.5
0.042438,-0.0077725,7.2179e-05,0.025105,6.5232e-05,-0.00052467,-0.00014413,7.342e-05,-0.00011546,0.050485,-0.014618,-0.016151,-0.0007495,0.00038178,-0.00060039,0,0,0,0.025107,7.6986e-05,-0.00053822,0.012822,0.0082151,0.025344,8.3425e-07,0.85,1,0.5
0.044958,-0.0079722,4.1868e-05,0.024966,2.3428e-05,-0.0008102,-7.1267e-05,0.00010912,-7.5595e-05,0.050405,-0.014447,-0.016614,-0.00037059,0.00056743,-0.00039309,0,0,0,0.024967,4.3235e-05,-0.00083068,0.012899,0.0080599,0.025372,8.3565e-07,0.9,1,0.5
0.047478,-0.0080938,2.3164e-05,0.024907,-2.1885e-05,-0.00098704,-6.3153e-05,0.00012525,-4.2171e-05,0.05042,-0.014396,-0.016905,-0.00032839,0.00065131,-0.00021929,0,0,0,0.024908,1.0432e-06,-0.0010104,0.012959,0.0079661,0.025428,8.4013e-07,0.95,1,0.5
0.048739,-0.0081342,1.6894e-05,0.024893,-3.9945e-05,-0.001046,-8.6114e-05,0.00012945,-2.951e-05,0.050438,-0.014388,-0.017004,-0.00044779,0.00067311,-0.00015345,0,0,0,0.024894,-1.6524e-05,-0.00107,0.012982,0.0079358,0.025454,8.4236e-07,1,1,0.5
0.0013269,0.0012221,-6.6141e-05,0.03219,0.0087376,0.011624,0.0069461,-4.408e-06,-0.00050246,0.052163,-0.0088133,-0.0013088,0.03612,-2.2922e-05,-0.0026128,0,0,0,0.034416,0.011616,0.0065194,0.013948,0.017517,0.025764,8.1831e-07,0,0,0.55
0.0026082,0.002234,-0.00013045,0.029765,0.0052073,0.0091952,0.0050561,-9.819e-06,-0.00048778,0.050889,-0.012962,-0.002593,0.026292,-5.1059e-05,-0.0025365,0,0,0,0.031112,0.0091839,0.0038717,0.01362,0.014723,0.025035,7.1796e-07,0.05,0,0.55
0.0050889,0.0039235,-0.00025428,0.026257,0.0012074,0.0056953,0.0022503,-2.0767e-05,-0.00044382,0.048372,-0.016757,-0.005088,0.011702,-0.00010799,-0.0023079,0,0,0,0.026544,0.0056815,0.00093412,0.012805,0.011053,0.023611,5.872e-07,0.1,0,0.55
0.0074454,0.0050685,-0.00036637,0.024631,0.00045533,0.0038304,0.00095582,-2.9947e-05,-0.00037478,0.04669,-0.016166,-0.0073908,0.0049703,-0.00015573,-0.0019489,0,0,0,0.024697,0.0038201,0.00039898,0.012149,0.0096388,0.022791,5.6178e-07,0.15,0,0.55
0.0097579,0.0058561,-0.00046288,0.023966,9.2724e-05,0.0025072,0.00038555,-3.5146e-05,-0.00028956,0.046373,-0.015699,-0.0094212,0.0020049,-0.00018276,-0.0015057,0,0,0,0.023984,0.0025013,8.1129e-05,0.011951,0.0088554,0.022797,5.8573e-07,0.2,0,0.55
0.012083,0.0063917,-0.00054135,0.023894,-1.867e-05,0.0015984,9.1335e-05,-3.6085e-05,-0.00019834,0.04684,-0.015333,-0.011128,0.00047494,-0.00018764,-0.0010314,0,0,0,0.023899,0.0015963,-2.1395e-05,0.01196,0.0084913,0.023158,6.2805e-07,0.25,0,0.55
0.014442,0.0067455,-0.00060113,0.024071,-5.859e-05,0.00095498,-6.9721e-05,-3.2714e-05,-0.00011125,0.047604,-0.015133,-0.012498,-0.00036255,-0.00017011,-0.0005785,0,0,0,0.024073,0.00095524,-6.0607e-05,0.012067,0.0083225,0.023644,6.7536e-07,0.3,0,0.55
0.016843,0.0069665,-0.00064329,0.024358,-6.8863e-05,0.00051388,-0.00016003,-2.5275e-05,-3.6304e-05,0.048449,-0.015061,-0.013546,-0.00083216,-0.00013143,-0.00018878,0,0,0,0.02436,0.00051514,-7.1617e-05,0.012216,0.0082677,0.024144,7.2206e-07,0.35,0,0.55
0.019287,0.0070921,-0.00067023,0.024681,-7.0136e-05,0.00022701,-0.00020595,-1.4488e-05,2.136e-05,0.049268,-0.015085,-0.014313,-0.0010709,-7.5339e-05,0.00011107,0,0,0,0.024683,0.00022828,-7.335e-05,0.012378,0.0082794,0.024608,7.6538e-07,0.4,0,0.55
0.02177,0.0071524,-0.00068516,0.024999,-7.0281e-05,5.3909e-05,-0.00021939,-1.7004e-06,5.9466e-05,0.050008,-0.015172,-0.014849,-0.0011408,-8.8422e-06,0.00030922,0,0,0,0.025001,5.9892e-05,-7.8513e-05,0.01254,0.0083275,0.025011,8.038e-07,0.45,0,0.55
0.024288,0.0071726,-0.00069166,0.025284,-7.1459e-05,-4.1608e-05,-0.00020649,1.1134e-05,7.8268e-05,0.050635,-0.015288,-0.015211,-0.0010738,5.7898e-05,0.00040699,0,0,0,0.025286,-1.9136e-05,-9.6058e-05,0.012691,0.0083902,0.025344,8.3622e-07,0.5,0,0.55
0.026833,0.0071737,-0.00069322,0.025515,-7.2313e-05,-9.0875e-05,-0.00017253,2.1733e-05,8.0164e-05,0.051129,-0.015399,-0.015448,-0.00089716,0.00011301,0.00041685,0,0,0,0.025517,-4.4878e-05,-0.00011993,0.012818,0.0084508,0.0256,8.6172e-07,0.55,0,0.55
0.0294,0.0071716,-0.0006928,0.02568,-7.0066e-05,-0.00011909,-0.00012429,2.8013e-05,6.9244e-05,0.051474,-0.015477,-0.015604,-0.00064631,0.00014567,0.00036007,0,0,0,0.025681,-5.013e-05,-0.00013999,0.012911,0.0084971,0.025777,8.7964e-07,0.6,0,0.55
0.031981,0.0071772,-0.00069259,0.025773,-6.2544e-05,-0.0001442,-7.0462e-05,2.87e-05,5.0636e-05,0.05167,-0.015502,-0.015715,-0.0003664,0.00014924,0.00026331,0,0,0,0.025773,-4.8937e-05,-0.00015823,0.012966,0.0085221,0.025877,8.8994e-07,0.65,0,0.55
0.034567,0.0071955,-0.00069384,0.025797,-4.9578e-05,-0.00017645,-2.0307e-05,2.3739e-05,2.9637e-05,0.05173,-0.015472,-0.015801,-0.0001056,0.00012344,0.00015411,0,0,0,0.025797,-4.2632e-05,-0.00018352,0.01299,0.0085237,0.025911,8.9334e-07,0.7,0,0.55
0.037154,0.0072262,-0.00069688,0.025766,-3.3175e-05,-0.00021885,1.8461e-05,1.4316e-05,1.0791e-05,0.051683,-0.015395,-0.015877,9.5999e-05,7.4441e-05,5.6116e-05,0,0,0,0.025766,-3.0895e-05,-0.0002212,0.012994,0.0085046,0.025892,8.9138e-07,0.75,0,0.55
0.039736,0.0072652,-0.00070129,0.025699,-1.6467e-05,-0.00026866,4.1392e-05,2.4691e-06,-2.8169e-06,0.051568,-0.015291,-0.015947,0.00021524,1.284e-05,-1.4648e-05,0,0,0,0.025699,-1.6052e-05,-0.00026916,0.012984,0.0084712,0.025842,8.8609e-07,0.8,0,0.55
0.042311,0.0073057,-0.00070623,0.025618,-2.2714e-06,-0.00031937,4.7813e-05,-9.4902e-06,-9.8571e-06,0.051429,-0.015184,-0.016008,0.00024863,-4.9349e-05,-5.1257e-05,0,0,0,0.025618,-1.8051e-06,-0.00031995,0.012969,0.0084321,0.02578,8.7957e-07,0.85,0,0.55
0.044879,0.0073409,-0.00071067,0.025544,7.8623e-06,-0.0003631,4.0133e-05,-1.951e-05,-1.0615e-05,0.051301,-0.015093,-0.016057,0.00020869,-0.00010145,-5.5199e-05,0,0,0,0.025544,9.1591e-06,-0.00036448,0.012954,0.0083963,0.025724,8.7362e-07,0.9,0,0.55
0.047441,0.0073646,-0.00071375,0.025493,1.3675e-05,-0.00039264,3.0954e-05,-2.6095e-05,-7.6908e-06,0.051214,-0.015033,-0.016089,0.00016096,-0.00013569,-3.9992e-05,0,0,0,0.025493,1.5758e-05,-0.00039477,0.012944,0.0083714,0.025685,8.6955e-07,0.95,0,0.55
0.048721,0.007373,-0.00071484,0.025475,1.5536e-05,-0.00040307,2.8683e-05,-2.8382e-05,-5.8311e-06,0.051182,-0.015012,-0.0161,0.00014915,-0.00014759,-3.0322e-05,0,0,0,0.025475,1.7921e-05,-0.0004055,0.01294,0.0083625,0.025671,8.6812e-07,1,0,0.55
0.0011693,0.0010365,-6.5524e-05,0.029284,0.0083755,0.010648,0.0063004,-7.0613e-06,-0.00049679,0.047154,-0.0072087,-0.001299,0.032762,-3.6719e-05,-0.0025833,0,0,0,0.031266,0.010641,0.0064011,0.012433,0.016103,0.023069,6.0709e-07,0,0.05,0.55
0.0023577,0.0019472,-0.00012931,0.027974,0.0054523,0.0087405,0.0049153,-1.4691e-05,-0.0004818,0.047432,-0.011124,-0.0025746,0.02556,-7.6392e-05,-0.0025054,0,0,0,0.029265,0.0087294,0.0041724,0.012546,0.014056,0.023175,5.8316e-07,0.05,0.05,0.55
0.0047432,0.0035274,-0.00025223,0.026182,0.0019206,0.0059038,0.0026795,-2.948e-05,-0.00043816,0.047669,-0.01541,-0.0050539,0.013934,-0.0001533,-0.0022784,0,0,0,0.026574,0.0058905,0.0015415,0.012516,0.011335,0.02318,5.6646e-07,0.1,0.05,0.55
0.0071246,0.004667,-0.00036363,0.025316,0.00097047,0.0042143,0.0013594,-4.1454e-05,-0.00037097,0.04752,-0.015777,-0.0073432,0.0070687,-0.00021556,-0.001929,0,0,0,0.025435,0.0042045,0.00086112,0.012287,0.010167,0.023093,5.8782e-07,0.15,0.05,0.55
0.0094952,0.0054617,-0.00045967,0.024784,0.00048019,0.002898,0.00062647,-4.834e-05,-0.00028854,0.047542,-0.015649,-0.0093627,0.0032577,-0.00025137,-0.0015004,0,0,0,0.024818,0.0028929,0.00045181,0.012183,0.0093876,0.023248,6.2193e-07,0.2,0.05,0.55
0.011879,0.0060049,-0.00053798,0.024626,0.00025505,0.0019328,0.00021036,-4.9541e-05,-0.00020046,0.047939,-0.015425,-0.011063,0.0010939,-0.00025761,-0.0010424,0,0,0,0.024634,0.0019316,0.0002478,0.012193,0.0089379,0.023594,6.6382e-07,0.25,0.05,0.55
0.014289,0.0063636,-0.00059791,0.024675,0.00013661,0.0012289,-3.3454e-05,-4.481e-05,-0.00011617,0.048531,-0.015269,-0.012429,-0.00017396,-0.00023301,-0.00060406,0,0,0,0.024677,0.0012303,0.00013303,0.012272,0.0086802,0.024017,7.0734e-07,0.3,0.05,0.55
0.016732,0.0065867,-0.00064045,0.024833,6.755e-05,0.00073102,-0.00017726,-3.4328e-05,-4.3214e-05,0.049187,-0.015203,-0.013478,-0.00092173,-0.00017851,-0.00022471,0,0,0,0.024835,0.00073319,6.3458e-05,0.012386,0.0085438,0.024445,7.49e-07,0.35,0.05,0.55
0.019208,0.0067122,-0.0006679,0.025038,1.8943e-05,0.00039267,-0.00025565,-1.8981e-05,1.3483e-05,0.049828,-0.01522,-0.014249,-0.0013294,-9.8699e-05,7.0111e-05,0,0,0,0.025041,0.00039435,1.4305e-05,0.012513,0.0084831,0.024839,7.87e-07,0.4,0.05,0.55
0.021715,0.0067707,-0.00068338,0.025252,-2.1806e-05,0.00017369,-0.00028525,-6.0655e-07,5.1631e-05,0.050412,-0.015299,-0.014791,-0.0014833,-3.154e-06,0.00026848,0,0,0,0.025255,0.00017759,-2.9404e-05,0.012642,0.0084678,0.025182,8.2034e-07,0.45,0.05,0.55
0.024249,0.0067884,-0.0006904,0.02545,-5.7857e-05,3.8615e-05,-0.000275,1.7981e-05,7.1286e-05,0.050911,-0.015409,-0.015158,-0.00143,9.3499e-05,0.00037068,0,0,0,0.025453,5.3774e-05,-7.6592e-05,0.012765,0.0084768,0.025465,8.4825e-07,0.5,0.05,0.55
0.026806,0.006787,-0.00069241,0.025613,-8.6313e-05,-4.2608e-05,-0.00023261,3.3391e-05,7.4567e-05,0.051303,-0.015515,-0.015401,-0.0012096,0.00017363,0.00038775,0,0,0,0.025615,-8.3065e-06,-0.00012333,0.012869,0.0084946,0.025682,8.6999e-07,0.55,0.05,0.55
0.029379,0.0067832,-0.00069239,0.025729,-0.00010186,-9.3908e-05,-0.00016813,4.2468e-05,6.5302e-05,0.051575,-0.015585,-0.015564,-0.00087427,0.00022083,0.00033957,0,0,0,0.02573,-3.8755e-05,-0.00015859,0.012944,0.008511,0.025829,8.85e-07,0.6,0.05,0.55
0.031963,0.0067884,-0.00069251,0.025791,-0.00010066,-0.00013263,-9.4411e-05,4.3255e-05,4.8427e-05,0.051723,-0.015597,-0.01568,-0.00049094,0.00022493,0.00025182,0,0,0,0.025792,-5.4301e-05,-0.00017964,0.012986,0.0085194,0.025909,8.9323e-07,0.65,0.05,0.55
0.034552,0.0068078,-0.00069403,0.025803,-8.3125e-05,-0.00016958,-2.5175e-05,3.5669e-05,2.9092e-05,0.051758,-0.015546,-0.015771,-0.00013091,0.00018548,0.00015128,0,0,0,0.025803,-5.759e-05,-0.0001953,0.012999,0.0085168,0.02593,8.9536e-07,0.7,0.05,0.55
0.037139,0.0068407,-0.00069727,0.025774,-5.4199e-05,-0.00020961,2.824e-05,2.1528e-05,1.1684e-05,0.051706,-0.015447,-0.015851,0.00014685,0.00011194,6.0757e-05,0,0,0,0.025774,-4.5524e-05,-0.00021839,0.012996,0.0085034,0.025906,8.9286e-07,0.75,0.05,0.55
0.039722,0.0068824,-0.00070179,0.025719,-2.1281e-05,-0.00025254,5.9428e-05,3.9253e-06,-9.0243e-07,0.051601,-0.015322,-0.015923,0.00030903,2.0412e-05,-4.6926e-06,0,0,0,0.025719,-1.9842e-05,-0.00025416,0.012986,0.0084816,0.025857,8.876e-07,0.8,0.05,0.55
0.042299,0.0069258,-0.00070675,0.025654,8.7366e-06,-0.00029468,6.7573e-05,-1.3697e-05,-7.5178e-06,0.05148,-0.015198,-0.015987,0.00035138,-7.1223e-05,-3.9092e-05,0,0,0,0.025654,9.8542e-06,-0.00029601,0.012975,0.0084561,0.025799,8.8149e-07,0.85,0.05,0.55
0.04487,0.0069633,-0.00071117,0.025596,3.1438e-05,-0.00033054,5.6267e-05,-2.8353e-05,-8.534e-06,0.051372,-0.015096,-0.016038,0.00029259,-0.00014744,-4.4377e-05,0,0,0,0.025596,3.4411e-05,-0.00033367,0.012965,0.0084323,0.025748,8.7609e-07,0.9,0.05,0.55
0.047436,0.0069886,-0.00071419,0.025556,4.5103e-05,-0.00035468,4.0412e-05,-3.7933e-05,-6.4494e-06,0.051299,-0.015031,-0.01607,0.00021014,-0.00019725,-3.3537e-05,0,0,0,0.025556,4.9798e-05,-0.00035946,0.012958,0.0084156,0.025714,8.7248e-07,0.95,0.05,0.55
0.048719,0.0069975,-0.00071527,0.025542,4.9609e-05,-0.0003632,3.441e-05,-4.1251e-05,-5.1279e-06,0.051273,-0.015008,-0.016082,0.00017893,-0.00021451,-2.6665e-05,0,0,0,0.025542,5.496e-05,-0.00036861,0.012956,0.0084096,0.025702,8.7121e-07,1,0.05,0.55
0.00097911,0.00075633,-6.512e-05,0.025735,0.0084045,0.0095978,0.0052487,-1.3132e-05,-0.00049297,0.040669,-0.0043909,-0.0012883,0.027293,-6.8288e-05,-0.0025634,0,0,0,0.027293,0.0095904,0.0068539,0.01022,0.014579,0.019235,3.4467e-07,0,0.1,0.55
0.0020335,0.0014829,-0.00012859,0.025646,0.0063506,0.0083216,0.0046063,-2.5608e-05,-0.00047782,0.042489,-0.0076796,-0.002555,0.023953,-0.00013316,-0.0024847,0,0,0,0.026818,0.0083107,0.0051897,0.010814,0.01344,0.020265,3.9978e-07,0.05,0.1,0.55
0.0042489,0.0028242,-0.00025094,0.025793,0.0033766,0.0062419,0.0032765,-4.8489e-05,-0.00043483,0.045815,-0.012468,-0.005018,0.017038,-0.00025214,-0.0022611,0,0,0,0.026349,0.0062287,0.0028338,0.011758,0.011804,0.022025,5.093e-07,0.1,0.1,0.55
0.006615,0.0038976,-0.00036189,0.025991,0.0019685,0.0047411,0.0020324,-6.6053e-05,-0.00036997,0.047955,-0.014502,-0.0072934,0.010568,-0.00034347,-0.0019238,0,0,0,0.02621,0.004732,0.0017583,0.012226,0.0109,0.023116,5.9964e-07,0.15,0.1,0.55
0.0090445,0.0046817,-0.00045761,0.025864,0.0012043,0.0034702,0.001101,-7.6416e-05,-0.00029097,0.048923,-0.015192,-0.0093005,0.0057249,-0.00039736,-0.001513,0,0,0,0.025936,0.0034666,0.0011354,0.0124,0.010179,0.023726,6.6343e-07,0.2,0.1,0.55
0.011507,0.005229,-0.00053576,0.025719,0.00076429,0.0024495,0.0004831,-7.8361e-05,-0.00020646,0.049509,-0.015372,-0.010991,0.0025121,-0.00040748,-0.0010736,0,0,0,0.025738,0.0024507,0.00074348,0.012497,0.0096441,0.024189,7.1468e-07,0.25,0.1,0.55
0.013995,0.0055933,-0.00059564,0.025642,0.00049577,0.0016664,8.3505e-05,-7.1056e-05,-0.00012489,0.049987,-0.015394,-0.01235,0.00043423,-0.00036949,-0.00064941,0,0,0,0.025647,0.0016707,0.00048721,0.01258,0.0092682,0.024591,7.5795e-07,0.3,0.1,0.55
0.016506,0.0058195,-0.00063811,0.02563,0.00031456,0.001086,-0.00017047,-5.4279e-05,-5.3177e-05,0.05042,-0.015401,-0.013395,-0.00088643,-0.00028225,-0.00027652,0,0,0,0.025632,0.0010908,0.00030734,0.012663,0.0090102,0.024944,7.9471e-07,0.35,0.1,0.55
0.019037,0.0059444,-0.00066533,0.02566,0.00017453,0.00066934,-0.00032145,-2.8986e-05,3.7991e-06,0.050814,-0.015449,-0.014162,-0.0016715,-0.00015073,1.9755e-05,0,0,0,0.025665,0.00067231,0.0001671,0.012749,0.0088347,0.025249,8.2592e-07,0.4,0.1,0.55
0.021587,0.0059995,-0.00068039,0.025713,5.3243e-05,0.00037881,-0.0003919,2.0803e-06,4.3244e-05,0.051167,-0.015549,-0.014702,-0.0020379,1.0817e-05,0.00022487,0,0,0,0.02572,0.00038114,4.4636e-05,0.012838,0.0087151,0.025509,8.5222e-07,0.45,0.1,0.55
0.024154,0.006012,-0.00068689,0.025773,-5.4266e-05,0.00018103,-0.00039446,3.4179e-05,6.4402e-05,0.051469,-0.015681,-0.015069,-0.0020512,0.00017773,0.00033489,0,0,0,0.025779,0.00018959,-6.9275e-05,0.012924,0.0086331,0.02572,8.7372e-07,0.5,0.1,0.55
0.026734,0.0060055,-0.00068849,0.025824,-0.00014049,4.8353e-05,-0.00034076,6.1172e-05,6.8684e-05,0.051704,-0.015805,-0.015314,-0.001772,0.00031809,0.00035716,0,0,0,0.025829,7.1265e-05,-0.0001684,0.012999,0.0085774,0.025879,8.8997e-07,0.55,0.1,0.55
0.029324,0.0059986,-0.00068843,0.025858,-0.00019269,-4.0803e-05,-0.00024713,7.7072e-05,5.9686e-05,0.051855,-0.015875,-0.01548,-0.0012851,0.00040078,0.00031037,0,0,0,0.02586,-1.1668e-06,-0.00023519,0.013048,0.0085413,0.02598,9.0035e-07,0.6,0.1,0.55
0.03192,0.0060039,-0.00068909,0.025866,-0.00020187,-0.00010258,-0.00013552,7.8063e-05,4.2688e-05,0.051915,-0.015862,-0.015604,-0.0007047,0.00040593,0.00022198,0,0,0,0.025867,-4.7762e-05,-0.00025779,0.013063,0.0085206,0.026021,9.047e-07,0.65,0.1,0.55
0.034516,0.0060267,-0.00069171,0.025851,-0.00016949,-0.00014867,-2.9663e-05,6.3974e-05,2.3472e-05,0.051892,-0.01576,-0.015706,-0.00015425,0.00033266,0.00012205,0,0,0,0.025851,-7.4349e-05,-0.00024409,0.013048,0.0085108,0.026011,9.0369e-07,0.7,0.1,0.55
0.037109,0.0060657,-0.00069644,0.025816,-0.00010813,-0.00018692,5.1115e-05,3.8335e-05,6.862e-06,0.051809,-0.015594,-0.015799,0.0002658,0.00019934,3.5682e-05,0,0,0,0.025816,-7.0752e-05,-0.00022452,0.01302,0.008507,0.025964,8.989e-07,0.75,0.1,0.55
0.039697,0.0061148,-0.00070255,0.025772,-3.6015e-05,-0.00022136,9.6562e-05,7.0016e-06,-4.3036e-06,0.051697,-0.015402,-0.015884,0.00050212,3.6409e-05,-2.2379e-05,0,0,0,0.025772,-2.8831e-05,-0.00022897,0.013,0.0085047,0.025901,8.923e-07,0.8,0.1,0.55
0.042279,0.0061652,-0.00070893,0.025727,3.0267e-05,-0.00025251,0.00010625,-2.3798e-05,-9.3455e-06,0.051587,-0.015224,-0.015959,0.00055251,-0.00012375,-4.8596e-05,0,0,0,0.025727,3.3441e-05,-0.00025617,0.012992,0.0085016,0.02584,8.8576e-07,0.85,0.1,0.55
0.044856,0.0062083,-0.00071442,0.02569,8.0369e-05,-0.00027831,8.6838e-05,-4.8979e-05,-9.1726e-06,0.051499,-0.015086,-0.016019,0.00045156,-0.00025469,-4.7697e-05,0,0,0,0.02569,8.8216e-05,-0.0002865,0.012988,0.0084974,0.025792,8.8055e-07,0.9,0.1,0.55
0.047429,0.0062372,-0.00071809,0.025666,0.00011044,-0.00029559,5.8183e-05,-6.5216e-05,-6.7393e-06,0.051444,-0.015002,-0.016057,0.00030255,-0.00033912,-3.5044e-05,0,0,0,0.025667,0.00012242,-0.00030773,0.012987,0.0084937,0.025762,8.773e-07,0.95,0.1,0.55
0.048715,0.0062473,-0.00071938,0.025658,0.00012033,-0.00030169,4.5361e-05,-7.0796e-05,-5.5096e-06,0.051425,-0.014973,-0.01607,0.00023588,-0.00036814,-2.865e-05,0,0,0,0.025658,0.00013385,-0.0003153,0.012987,0.0084923,0.025752,8.7621e-07,1,0.1,0.55
0.00093288,0.00059744,-6.6194e-05,0.024803,0.0089137,0.0094679,0.0044107,-1.9349e-05,-0.00050174,0.038576,-0.0027349,-0.0012941,0.022936,-0.00010062,-0.002609,0,0,0,0.025992,0.00946,0.0077324,0.0091296,0.014395,0.017465,2.6773e-07,0,0.15,0.55
0.0019288,0.0011792,-0.0001306,0.024872,0.0073266,0.0083766,0.0041008,-3.6658e-05,-0.00048693,0.040323,-0.0052961,-0.0025662,0.021324,-0.00019062,-0.0025321,0,0,0,0.025851,0.0083648,0.0063598,0.0097454,0.013525,0.018577,3.2324e-07,0.05,0.15,0.55
0.0040323,0.0022806,-0.00025459,0.025323,0.0046776,0.0064806,0.0033102,-6.7355e-05,-0.00044457,0.043951,-0.009727,-0.0050392,0.017213,-0.00035025,-0.0023118,0,0,0,0.025902,0.0064667,0.0041129,0.010894,0.01216,0.020719,4.4366e-07,0.1,0.15,0.55
0.0063239,0.0032168,-0.00036671,0.025914,0.0029738,0.0050057,0.0023383,-9.0078e-05,-0.00038043,0.047041,-0.012604,-0.0073215,0.012159,-0.00046841,-0.0019782,0,0,0,0.02619,0.0049971,0.0027062,0.011742,0.011298,0.022433,5.6246e-07,0.15,0.15,0.55
0.0087363,0.0039425,-0.00046314,0.026186,0.0019387,0.0037719,0.001449,-0.00010398,-0.00030204,0.048945,-0.014097,-0.009331,0.0075349,-0.00054068,-0.0015706,0,0,0,0.026295,0.0037706,0.0018305,0.012232,0.010632,0.023559,6.5717e-07,0.2,0.15,0.55
0.011218,0.0044676,-0.00054143,0.026243,0.0012958,0.0027525,0.00075917,-0.00010742,-0.00021733,0.050057,-0.014806,-0.011018,0.0039477,-0.00055858,-0.0011301,0,0,0,0.026278,0.0027581,0.001255,0.012512,0.010097,0.024309,7.2848e-07,0.25,0.15,0.55
0.013742,0.0048242,-0.00060072,0.026214,0.0008769,0.0019429,0.00026209,-9.8576e-05,-0.00013407,0.050737,-0.015141,-0.012369,0.0013629,-0.00051259,-0.00069716,0,0,0,0.026223,0.0019529,0.00085858,0.012682,0.0096781,0.024837,7.8178e-07,0.3,0.15,0.55
0.016292,0.0050467,-0.0006417,0.026164,0.00057957,0.0013238,-8.2243e-05,-7.6053e-05,-5.8978e-05,0.051186,-0.015333,-0.013399,-0.00042766,-0.00039548,-0.00030669,0,0,0,0.026167,0.0013335,0.00056726,0.0128,0.0093557,0.025226,8.2196e-07,0.35,0.15,0.55
0.018861,0.0051673,-0.00066646,0.026118,0.00034032,0.00086445,-0.00030623,-4.0014e-05,2.457e-06,0.051512,-0.015509,-0.014146,-0.0015924,-0.00020807,1.2776e-05,0,0,0,0.026122,0.00087,0.00033034,0.012896,0.0091074,0.025526,8.5312e-07,0.4,0.15,0.55
0.021443,0.0052158,-0.00067826,0.026083,0.00012573,0.00053152,-0.00042806,6.4164e-06,4.5994e-05,0.051772,-0.015717,-0.014662,-0.0022259,3.3365e-05,0.00023917,0,0,0,0.026091,0.0005354,0.00011452,0.012988,0.0089135,0.025768,8.7815e-07,0.45,0.15,0.55
0.024038,0.0052204,-0.0006812,0.02606,-7.0474e-05,0.00029407,-0.00045742,5.6267e-05,6.9061e-05,0.051986,-0.015953,-0.015006,-0.0023786,0.00029259,0.00035912,0,0,0,0.026068,0.00030612,-9.0794e-05,0.01308,0.0087612,0.025963,8.9825e-07,0.5,0.15,0.55
0.026642,0.0052065,-0.00067976,0.026041,-0.00023207,0.00012695,-0.00040536,9.9367e-05,7.1775e-05,0.052145,-0.016165,-0.015231,-0.0021079,0.00051671,0.00037323,0,0,0,0.026048,0.00015541,-0.00026721,0.013157,0.0086453,0.026106,9.1304e-07,0.55,0.15,0.55
0.029252,0.0051957,-0.00067804,0.026018,-0.00033237,1.1297e-05,-0.0002926,0.00012502,5.7878e-05,0.052228,-0.016282,-0.015389,-0.0015215,0.00065011,0.00030096,0,0,0,0.026021,5.5442e-05,-0.00038031,0.013201,0.0085655,0.026187,9.2142e-07,0.6,0.15,0.55
0.031865,0.0052022,-0.00067901,0.025984,-0.00035202,-6.7229e-05,-0.00015088,0.00012608,3.4439e-05,0.05222,-0.016254,-0.015514,-0.0007846,0.00065562,0.00017908,0,0,0,0.025986,-1.4427e-05,-0.00040619,0.013196,0.0085216,0.026198,9.2278e-07,0.65,0.15,0.55
0.034474,0.0052317,-0.00068393,0.02594,-0.00029356,-0.00012078,-1.5998e-05,0.00010221,9.8034e-06,0.052129,-0.016079,-0.015629,-8.3189e-05,0.00053152,5.0978e-05,0,0,0,0.02594,-6.4073e-05,-0.00035063,0.013146,0.0085086,0.026149,9.1792e-07,0.7,0.15,0.55
0.037078,0.0052813,-0.00069241,0.02589,-0.00018253,-0.00015984,8.3609e-05,6.001e-05,-9.2772e-06,0.051986,-0.015803,-0.015744,0.00043477,0.00031205,-4.8242e-05,0,0,0,0.025891,-7.9755e-05,-0.00026307,0.013077,0.0085159,0.026063,9.091e-07,0.75,0.15,0.55
0.039673,0.0053422,-0.00070286,0.025842,-5.479e-05,-0.00019183,0.00013474,9.8825e-06,-1.9577e-05,0.051833,-0.0155,-0.015856,0.00070065,5.1389e-05,-0.0001018,0,0,0,0.025843,-3.1799e-05,-0.00021561,0.013029,0.008532,0.025968,8.9918e-07,0.8,0.15,0.55
0.042261,0.0054034,-0.00071332,0.025804,5.8941e-05,-0.00021992,0.00013963,-3.7881e-05,-2.1381e-05,0.051704,-0.015232,-0.015957,0.00072605,-0.00019698,-0.00011118,0,0,0,0.025805,6.6089e-05,-0.00022788,0.013016,0.0085476,0.025887,8.9055e-07,0.85,0.15,0.55
0.044843,0.0054547,-0.00072201,0.025777,0.00014175,-0.00024337,0.00010994,-7.5746e-05,-1.7027e-05,0.051615,-0.015037,-0.016038,0.00057169,-0.00039388,-8.8542e-05,0,0,0,0.025778,0.00015791,-0.00026006,0.013019,0.0085585,0.025831,8.8445e-07,0.9,0.15,0.55
0.047422,0.0054885,-0.00072769,0.025763,0.00018972,-0.00025932,7.1152e-05,-9.9545e-05,-1.1153e-05,0.051567,-0.014923,-0.01609,0.00036999,-0.00051763,-5.7995e-05,0,0,0,0.025763,0.00021325,-0.00028308,0.013023,0.0085643,0.025801,8.8105e-07,0.95,0.15,0.55
0.048711,0.0055002,-0.00072966,0.025758,0.00020515,-0.000265,5.4052e-05,-0.00010761,-8.6319e-06,0.051552,-0.014886,-0.016108,0.00028107,-0.00055955,-4.4886e-05,0,0,0,0.025758,0.00023132,-0.0002913,0.013025,0.0085661,0.025792,8.7999e-07,1,0.15,0.55
0.00091422,0.00048284,-6.8412e-05,0.024402,0.009102,0.0093951,0.003619,-2.4405e-05,-0.00051948,0.037706,-0.0020744,-0.0013123,0.018819,-0.00012691,-0.0027013,0,0,0,0.025256,0.009386,0.0082569,0.0084997,0.0143,0.016466,2.2806e-07,0,0.2,0.55
0.0018853,0.00095325,-0.00013473,0.024536,0.0078324,0.0084104,0.0034456,-4.578e-05,-0.00050509,0.039327,-0.0041031,-0.0026005,0.017917,-0.00023805,-0.0026265,0,0,0,0.025269,0.0083971,0.0071132,0.0090778,0.013593,0.017552,2.7909e-07,0.05,0.2,0.55
0.0039327,0.0018515,-0.00026203,0.025093,0.0055925,0.0066547,0.0029644,-8.3237e-05,-0.00046354,0.042837,-0.0078633,-0.0051017,0.015415,-0.00043283,-0.0024104,0,0,0,0.025578,0.0066399,0.0051219,0.010228,0.012447,0.019745,3.9473e-07,0.1,0.2,0.55
0.006169,0.0026372,-0.00037654,0.025809,0.0039083,0.005213,0.0022896,-0.00011088,-0.00040028,0.046145,-0.010796,-0.0074043,0.011906,-0.0005766,-0.0020814,0,0,0,0.026078,0.0052061,0.0036463,0.011216,0.011643,0.021697,5.2007e-07,0.15,0.2,0.55
0.0085471,0.003272,-0.00047452,0.026264,0.0027102,0.0039795,0.0015786,-0.000129,-0.0003224,0.048514,-0.012726,-0.0094254,0.0082088,-0.00067078,-0.0016765,0,0,0,0.026389,0.0039838,0.0025802,0.011905,0.010984,0.023142,6.3094e-07,0.2,0.2,0.55
0.01102,0.0037484,-0.00055335,0.026484,0.0018972,0.0029572,0.00095014,-0.00013572,-0.00023663,0.050054,-0.01387,-0.011114,0.0049407,-0.00070572,-0.0012305,0,0,0,0.026532,0.0029729,0.001833,0.012349,0.010446,0.024151,7.1898e-07,0.25,0.2,0.55
0.013553,0.0040792,-0.00061184,0.02654,0.0013351,0.0021354,0.00044454,-0.00012774,-0.00014975,0.050998,-0.014535,-0.012454,0.0023116,-0.00066423,-0.0007787,0,0,0,0.026554,0.002159,0.0012973,0.012629,0.010004,0.024839,7.8419e-07,0.3,0.2,0.55
0.01612,0.0042861,-0.00065034,0.026506,0.00091782,0.0014963,5.8756e-05,-0.00010129,-6.8126e-05,0.051564,-0.014966,-0.013462,0.00030553,-0.0005267,-0.00035425,0,0,0,0.026509,0.0015189,0.00089197,0.012809,0.0096401,0.02531,8.3118e-07,0.35,0.2,0.55
0.018709,0.0043936,-0.0006707,0.026432,0.00056816,0.0010125,-0.00021868,-5.41e-05,1.8429e-06,0.051916,-0.015331,-0.014175,-0.0011372,-0.00028132,9.5834e-06,0,0,0,0.026436,0.0010251,0.0005523,0.012942,0.0093377,0.02565,8.6591e-07,0.4,0.2,0.55
0.021312,0.0044277,-0.00067644,0.026351,0.00024016,0.00065195,-0.00039157,1.1611e-05,5.3464e-05,0.052166,-0.015721,-0.014651,-0.0020361,6.0378e-05,0.00027801,0,0,0,0.026357,0.00065951,0.00022616,0.013065,0.0090809,0.025917,8.9336e-07,0.45,0.2,0.55
0.023926,0.0044166,-0.00067258,0.026276,-7.3343e-05,0.0003853,-0.00045728,8.641e-05,8.0815e-05,0.052364,-0.016143,-0.014951,-0.0023778,0.00044933,0.00042024,0,0,0,0.026284,0.0004058,-0.00010212,0.013193,0.0088626,0.026136,9.1582e-07,0.5,0.2,0.55
0.026548,0.004389,-0.0006651,0.02621,-0.00034117,0.0001903,-0.00041861,0.00015383,8.1362e-05,0.05251,-0.016522,-0.015141,-0.0021768,0.0007999,0.00042308,0,0,0,0.026217,0.0002352,-0.00039314,0.013305,0.0086864,0.026302,9.3267e-07,0.55,0.2,0.55
0.029177,0.0043704,-0.00065983,0.026148,-0.00051186,5.2517e-05,-0.00029646,0.00019483,5.8812e-05,0.052571,-0.016744,-0.015277,-0.0015416,0.0010131,0.00030582,0,0,0,0.026152,0.00011744,-0.00058074,0.013366,0.0085628,0.026391,9.4168e-07,0.6,0.2,0.55
0.031805,0.0043785,-0.00066095,0.026084,-0.00054669,-3.8818e-05,-0.00013287,0.00019581,2.3638e-05,0.05252,-0.016721,-0.0154,-0.00069091,0.0010182,0.00012292,0,0,0,0.026086,3.259e-05,-0.00061942,0.013353,0.0084996,0.026386,9.4138e-07,0.65,0.2,0.55
0.034429,0.0044188,-0.00066979,0.02602,-0.00044933,-9.6007e-05,2.1388e-05,0.00015614,-1.0674e-05,0.052367,-0.016453,-0.015534,0.00011122,0.00081193,-5.5502e-05,0,0,0,0.026021,-3.1858e-05,-0.00051396,0.013267,0.0084916,0.026298,9.3281e-07,0.7,0.2,0.55
0.037042,0.0044854,-0.00068482,0.025961,-0.00026731,-0.00013339,0.00012735,8.8383e-05,-3.3769e-05,0.052163,-0.016031,-0.015683,0.00066221,0.00045959,-0.0001756,0,0,0,0.025962,-6.5502e-05,-0.00033607,0.013149,0.0085201,0.026164,9.195e-07,0.75,0.2,0.55
0.039645,0.0045648,-0.0007028,0.025916,-6.5198e-05,-0.00016293,0.00017105,1.1035e-05,-4.2117e-05,0.051969,-0.015582,-0.015836,0.00088945,5.7384e-05,-0.00021901,0,0,0,0.025917,-1.5684e-05,-0.0002137,0.013065,0.0085626,0.026033,9.059e-07,0.8,0.2,0.55
0.042239,0.0046419,-0.00072018,0.025889,0.00010582,-0.00019031,0.00016158,-5.9296e-05,-3.823e-05,0.051829,-0.015208,-0.015978,0.0008402,-0.00030834,-0.00019879,0,0,0,0.02589,0.00012041,-0.00020601,0.013048,0.0086015,0.025935,8.9536e-07,0.85,0.2,0.55
0.044828,0.0047047,-0.00073419,0.025879,0.00022285,-0.00021482,0.00011902,-0.00011234,-2.7294e-05,0.051752,-0.014953,-0.016091,0.0006189,-0.00058415,-0.00014193,0,0,0,0.025879,0.00025291,-0.00024552,0.013062,0.0086289,0.025879,8.8903e-07,0.9,0.2,0.55
0.047414,0.0047449,-0.0007431,0.025878,0.0002867,-0.00023225,7.5214e-05,-0.00014425,-1.6782e-05,0.051723,-0.014814,-0.016163,0.00039111,-0.00075012,-8.7266e-05,0,0,0,0.025878,0.00032802,-0.00027383,0.013076,0.008644,0.025856,8.8615e-07,0.95,0.2,0.55
0.048707,0.0047587,-0.00074614,0.025878,0.00030647,-0.00023857,5.8225e-05,-0.00015479,-1.2809e-05,0.051716,-0.014771,-0.016188,0.00030277,-0.00080491,-6.6609e-05,0,0,0,0.025879,0.00035164,-0.00028388,0.013081,0.0086488,0.025851,8.854e-07,1,0.2,0.55
0.00090826,0.00039001,-7.1498e-05,0.024274,0.0092305,0.0093819,0.0029464,-2.8422e-05,-0.00054414,0.03738,-0.0017324,-0.0013388,0.015321,-0.0001478,-0.0028295,0,0,0,0.024871,0.0093712,0.0086443,0.0081132,0.014295,0.015877,2.0613e-07,0,0.25,0.55
0.001869,0.00076892,-0.00014048,0.024424,0.0081401,0.0084443,0.0028386,-5.3184e-05,-0.00053045,0.038898,-0.0034411,-0.0026501,0.014761,-0.00027655,-0.0027583,0,0,0,0.024948,0.0084294,0.0076311,0.0086586,0.01367,0.016934,2.5341e-07,0.05,0.25,0.55
0.0038898,0.0014943,-0.00027242,0.02501,0.0061857,0.0067628,0.0025293,-9.6699e-05,-0.00049058,0.04225,-0.0066919,-0.0051916,0.013152,-0.00050284,-0.002551,0,0,0,0.02538,0.0067485,0.0058291,0.0097757,0.012653,0.019111,3.6287e-07,0.1,0.25,0.55
0.006094,0.0021372,-0.00039038,0.025773,0.0046177,0.0053555,0.0020721,-0.00012984,-0.0004299,0.045561,-0.0094415,-0.0075232,0.010775,-0.00067515,-0.0022355,0,0,0,0.026,0.0053552,0.0043905,0.010805,0.011915,0.021146,4.8752e-07,0.15,0.25,0.55
0.0084459,0.00267,-0.0004908,0.026311,0.0033856,0.0041278,0.001552,-0.00015404,-0.00035475,0.048113,-0.011492,-0.009562,0.0080705,-0.00080101,-0.0018447,0,0,0,0.026433,0.0041481,0.0032433,0.011595,0.011275,0.022752,6.0484e-07,0.2,0.25,0.55
0.010905,0.0030806,-0.00057084,0.026621,0.0024754,0.0031012,0.0010463,-0.00016728,-0.00026991,0.049896,-0.012882,-0.011255,0.0054408,-0.00086984,-0.0014035,0,0,0,0.026677,0.0031456,0.002375,0.012151,0.010732,0.023927,7.0264e-07,0.25,0.25,0.55
0.013436,0.0033707,-0.00062878,0.02674,0.0018097,0.0022724,0.00059749,-0.00016429,-0.00018019,0.051031,-0.013788,-0.012585,0.0031069,-0.00085432,-0.00093699,0,0,0,0.026761,0.0023381,0.0017234,0.012519,0.010274,0.024736,7.7643e-07,0.3,0.25,0.55
0.016008,0.0035501,-0.00066419,0.026725,0.0012954,0.0016238,0.00021853,-0.00013724,-9.0526e-05,0.051698,-0.014418,-0.013565,0.0011364,-0.00071365,-0.00047073,0,0,0,0.02673,0.0016915,0.0012222,0.012754,0.0098814,0.025277,8.2882e-07,0.35,0.25,0.55
0.018605,0.0036342,-0.00067834,0.026633,0.00084633,0.0011271,-8.6027e-05,-7.85e-05,-7.8225e-06,0.052083,-0.014964,-0.014234,-0.00044734,-0.0004082,-4.0677e-05,0,0,0,0.026636,0.0011687,0.00080236,0.012917,0.0095356,0.025652,8.6654e-07,0.4,0.25,0.55
0.021217,0.0036437,-0.00067474,0.026512,0.00040049,0.00074822,-0.00030325,1.3184e-05,5.7618e-05,0.052335,-0.015555,-0.014651,-0.0015769,6.8559e-05,0.00029962,0,0,0,0.026517,0.00076752,0.00037662,0.01307,0.0092202,0.025947,8.9657e-07,0.45,0.25,0.55
0.023839,0.003606,-0.00065975,0.02639,-5.2849e-05,0.00045701,-0.00041083,0.00012586,9.4314e-05,0.052538,-0.016214,-0.014888,-0.0021363,0.00065447,0.00049043,0,0,0,0.026397,0.00049356,-9.6367e-05,0.013247,0.0089315,0.026204,9.2246e-07,0.5,0.25,0.55
0.02647,0.0035543,-0.00064197,0.026282,-0.00045854,0.00023508,-0.00039472,0.00023287,9.4757e-05,0.052699,-0.016828,-0.015024,-0.0020526,0.0012109,0.00049273,0,0,0,0.026289,0.00031211,-0.00054199,0.013415,0.0086863,0.026415,9.4304e-07,0.55,0.25,0.55
0.029109,0.0035213,-0.0006304,0.026189,-0.00072382,7.5467e-05,-0.00027144,0.0003,6.1546e-05,0.052767,-0.017206,-0.015128,-0.0014115,0.00156,0.00032004,0,0,0,0.026193,0.00018289,-0.00083477,0.013514,0.0085136,0.026534,9.5443e-07,0.6,0.25,0.55
0.031747,0.0035302,-0.00063154,0.026108,-0.00077812,-2.5502e-05,-9.3674e-05,0.0003011,1.0433e-05,0.052699,-0.017206,-0.015249,-0.00048711,0.0015657,5.4252e-05,0,0,0,0.026109,8.7628e-05,-0.00089236,0.013501,0.0084349,0.026527,9.5388e-07,0.65,0.25,0.55
0.034379,0.0035864,-0.00064687,0.026042,-0.00062577,-8.004e-05,6.9959e-05,0.00023504,-3.6295e-05,0.052507,-0.016828,-0.01541,0.00036379,0.0012222,-0.00018873,0,0,0,0.026042,1.3458e-05,-0.00071999,0.013381,0.0084452,0.026405,9.4263e-07,0.7,0.25,0.55
0.036998,0.0036782,-0.00067268,0.025996,-0.00034808,-0.00010942,0.00016865,0.00012602,-6.2681e-05,0.052267,-0.016228,-0.015608,0.00087697,0.00065531,-0.00032594,0,0,0,0.025998,-3.15e-05,-0.00042738,0.013213,0.008513,0.026231,9.2595e-07,0.75,0.25,0.55
0.039605,0.003784,-0.00070266,0.025979,-5.4324e-05,-0.00013292,0.00019044,7.3422e-06,-6.5794e-05,0.052071,-0.015617,-0.015821,0.00099027,3.8179e-05,-0.00034213,0,0,0,0.025981,2.7354e-05,-0.00021621,0.013099,0.0085974,0.026077,9.1037e-07,0.8,0.25,0.55
0.042205,0.0038827,-0.00073062,0.025989,0.00017559,-0.00015982,0.00015741,-9.4111e-05,-5.2604e-05,0.051969,-0.015147,-0.016019,0.00081853,-0.00048937,-0.00027354,0,0,0,0.025991,0.00020462,-0.00019002,0.01309,0.0086684,0.025986,9.0038e-07,0.85,0.25,0.55
0.044802,0.0039594,-0.00075228,0.026016,0.00031805,-0.00018778,0.00010256,-0.00016518,-3.3331e-05,0.051954,-0.014861,-0.016176,0.00053329,-0.00085894,-0.00017332,0,0,0,0.026017,0.00037228,-0.00024257,0.01313,0.0087154,0.025958,8.965e-07,0.9,0.25,0.55
0.0474,0.0040071,-0.00076564,0.026043,0.00038834,-0.00020885,6.3751e-05,-0.00020497,-1.9608e-05,0.051978,-0.014724,-0.016276,0.0003315,-0.0010659,-0.00010196,0,0,0,0.026043,0.0004583,-0.00027903,0.013161,0.0087408,0.025961,8.9622e-07,0.95,0.25,0.55
0.0487,0.0040231,-0.00077012,0.026054,0.0004086,-0.00021663,5.3914e-05,-0.00021751,-1.5768e-05,0.051992,-0.014685,-0.016311,0.00028035,-0.0011311,-8.1995e-05,0,0,0,0.026054,0.00048361,-0.00029178,0.013173,0.0087486,0.025967,8.9655e-07,1,0.25,0.55
0.00090854,0.00030961,-7.5225e-05,0.024295,0.0093415,0.0094061,0.0023512,-3.1338e-05,-0.00057414,0.037342,-0.0015378,-0.0013699,0.012226,-0.00016296,-0.0029855,0,0,0,0.024698,0.0093937,0.0089516,0.007873,0.014348,0.01553,1.9375e-07,0,0.3,0.55
0.0018671,0.00060915,-0.00014744,0.024451,0.0083544,0.0084874,0.0022836,-5.8699e-05,-0.00056175,0.038797,-0.0030543,-0.0027084,0.011875,-0.00030524,-0.0029211,0,0,0,0.02481,0.0084718,0.0080111,0.0083994,0.013764,0.016574,2.3885e-07,0.05,0.3,0.55
0.0038797,0.0011823,-0.00028507,0.025044,0.0065801,0.0068386,0.0020867,-0.00010737,-0.00052548,0.042037,-0.0059693,-0.0052972,0.010851,-0.00055832,-0.0027325,0,0,0,0.025311,0.0068305,0.0063215,0.0094945,0.012821,0.018741,3.4438e-07,0.1,0.3,0.55
0.0060708,0.001693,-0.0004075,0.025826,0.0051187,0.0054519,0.0017902,-0.00014654,-0.00047075,0.04531,-0.0085295,-0.0076633,0.0093092,-0.00076202,-0.0024479,0,0,0,0.026004,0.0054724,0.0049206,0.010542,0.012132,0.020814,4.6769e-07,0.15,0.3,0.55
0.0084107,0.0021228,-0.00051144,0.026407,0.0039078,0.0042321,0.0014403,-0.00017914,-0.00040319,0.047929,-0.010568,-0.0097245,0.0074896,-0.00093153,-0.0020966,0,0,0,0.026514,0.0042948,0.0037374,0.011389,0.011516,0.022504,5.8786e-07,0.2,0.3,0.55
0.010864,0.0024602,-0.00059384,0.026766,0.002963,0.0032057,0.0010772,-0.00020332,-0.00032491,0.049831,-0.012057,-0.011426,0.0056014,-0.0010573,-0.0016895,0,0,0,0.026825,0.0033218,0.0027881,0.012018,0.010978,0.023775,6.9104e-07,0.25,0.3,0.55
0.013394,0.0027004,-0.00065216,0.026918,0.0022431,0.0023754,0.00072621,-0.00021171,-0.00023735,0.051065,-0.01309,-0.012746,0.0037763,-0.0011009,-0.0012342,0,0,0,0.026946,0.0025438,0.0020468,0.01245,0.010512,0.024655,7.6956e-07,0.3,0.3,0.55
0.01597,0.0028443,-0.00068459,0.026903,0.0016702,0.0017245,0.00039682,-0.0001907,-0.00014191,0.051768,-0.013836,-0.013695,0.0020635,-0.00099164,-0.00073794,0,0,0,0.026913,0.0019089,0.0014751,0.012719,0.010099,0.025224,8.2379e-07,0.35,0.3,0.55
0.018571,0.0028972,-0.00069082,0.026772,0.00115,0.0012217,9.729e-05,-0.00012241,-4.3907e-05,0.052121,-0.014496,-0.01431,0.00050591,-0.00063654,-0.00022831,0,0,0,0.026775,0.0013491,0.0010192,0.012878,0.0097146,0.025593,8.6062e-07,0.4,0.3,0.55
0.021182,0.0028722,-0.00067374,0.026583,0.00060136,0.00082898,-0.00014791,4.4574e-06,4.2013e-05,0.052308,-0.015244,-0.014653,-0.00076912,2.3179e-05,0.00021847,0,0,0,0.026586,0.00088513,0.00054238,0.013022,0.0093377,0.025874,8.8915e-07,0.45,0.3,0.55
0.023801,0.0027952,-0.00064135,0.026381,7.3195e-07,0.00051175,-0.00029823,0.00017439,9.4901e-05,0.052454,-0.016134,-0.014805,-0.0015508,0.0009068,0.00049349,0,0,0,0.026385,0.00057976,-7.1859e-05,0.013229,0.0089644,0.026139,9.1496e-07,0.5,0.3,0.55
0.026428,0.0027062,-0.00060669,0.026197,-0.00056866,0.00025588,-0.00032002,0.00034256,0.00010108,0.052582,-0.017009,-0.014865,-0.0016641,0.0017813,0.00052563,0,0,0,0.026202,0.00039097,-0.00070843,0.013455,0.0086281,0.02638,9.368e-07,0.55,0.3,0.55
0.02906,0.0026498,-0.00058445,0.026056,-0.00094847,6.9866e-05,-0.00021927,0.00045149,6.2037e-05,0.052638,-0.017572,-0.014924,-0.0011402,0.0023477,0.00032259,0,0,0,0.026058,0.00025434,-0.0011355,0.013597,0.0083923,0.026528,9.495e-07,0.6,0.3,0.55
0.031692,0.0026579,-0.00058547,0.025968,-0.0010254,-3.8461e-05,-5.4347e-05,0.00045354,-1.4741e-06,0.052574,-0.017609,-0.015042,-0.0002826,0.0023584,-7.6652e-06,0,0,0,0.025969,0.00015132,-0.001216,0.013592,0.0083014,0.026529,9.4991e-07,0.65,0.3,0.55
0.034317,0.002736,-0.00061142,0.025938,-0.0008037,-8.0978e-05,9.2374e-05,0.00034664,-5.6843e-05,0.052407,-0.017122,-0.015243,0.00048034,0.0018025,-0.00029558,0,0,0,0.025939,6.9374e-05,-0.00095489,0.013447,0.0083512,0.026399,9.394e-07,0.7,0.3,0.55
0.036932,0.0028625,-0.00065465,0.025963,-0.00040755,-8.9743e-05,0.00016235,0.00017494,-8.2525e-05,0.052225,-0.016339,-0.015513,0.00084421,0.0009097,-0.00042913,0,0,0,0.025965,2.2333e-05,-0.00052107,0.013243,0.0084886,0.02622,9.2394e-07,0.75,0.3,0.55
0.039539,0.0030031,-0.00070328,0.026032,-1.4326e-05,-9.9338e-05,0.00015052,-5.5548e-06,-7.5891e-05,0.052131,-0.015588,-0.015809,0.00078271,-2.8885e-05,-0.00039463,0,0,0,0.026033,0.0001029,-0.00021796,0.013125,0.0086393,0.026093,9.1174e-07,0.8,0.3,0.55
0.042145,0.0031273,-0.00074663,0.026128,0.00026358,-0.00012355,9.4137e-05,-0.00014931,-4.9478e-05,0.052172,-0.015076,-0.016082,0.00048951,-0.00077643,-0.00025729,0,0,0,0.026129,0.00032119,-0.000182,0.013155,0.008756,0.026064,9.0797e-07,0.85,0.3,0.55
0.044757,0.0032186,-0.00077856,0.026229,0.00041348,-0.00015554,3.8553e-05,-0.00023894,-2.2717e-05,0.052303,-0.014817,-0.016296,0.00020048,-0.0012425,-0.00011813,0,0,0,0.026229,0.00050911,-0.00025156,0.01324,0.0088289,0.026109,9.1148e-07,0.9,0.3,0.55
0.047376,0.0032726,-0.00079735,0.026304,0.00047419,-0.00018216,2.5168e-05,-0.00028334,-1.255e-05,0.052434,-0.014725,-0.016431,0.00013087,-0.0014733,-6.5261e-05,0,0,0,0.026305,0.00058967,-0.00029782,0.013301,0.0088655,0.02617,9.1708e-07,0.95,0.3,0.55
0.048687,0.0032902,-0.00080348,0.026332,0.00048857,-0.00019245,3.4286e-05,-0.00029626,-1.3503e-05,0.052487,-0.014707,-0.016477,0.00017829,-0.0015406,-7.0216e-05,0,0,0,0.026332,0.00060991,-0.00031394,0.013323,0.0088761,0.026197,9.1965e-07,1,0.3,0.55
0.00091261,0.00023622,-7.9362e-05,0.024411,0.0094416,0.0094543,0.0018028,-3.2777e-05,-0.00060784,0.037484,-0.0014357,-0.0014026,0.0093747,-0.00017044,-0.0031608,0,0,0,0.024668,0.0094414,0.0091969,0.0077356,0.014435,0.015351,1.875e-07,0,0.35,0.55
0.0018742,0.00046349,-0.00015519,0.02457,0.0085093,0.0085388,0.001764,-6.1572e-05,-0.00059767,0.038911,-0.0028466,-0.0027697,0.0091729,-0.00032017,-0.0031079,0,0,0,0.024803,0.0085281,0.008287,0.0082578,0.013873,0.016397,2.3186e-07,0.05,0.35,0.55
0.0038911,0.00089734,-0.0002993,0.025172,0.0068376,0.0068985,0.0016503,-0.0001137,-0.00056775,0.042102,-0.0055671,-0.0054088,0.0085815,-0.00059126,-0.0029523,0,0,0,0.025353,0.0069124,0.006643,0.0093548,0.012969,0.018577,3.3632e-07,0.1,0.35,0.55
0.0060844,0.0012842,-0.00042713,0.025975,0.0054503,0.0055214,0.0014809,-0.00015862,-0.00052398,0.045367,-0.0079971,-0.0078124,0.0077006,-0.00082483,-0.0027247,0,0,0,0.026105,0.0055891,0.0052523,0.010426,0.012316,0.020687,4.603e-07,0.15,0.35,0.55
0.0084277,0.0016132,-0.00053592,0.026591,0.0042701,0.0043084,0.0012812,-0.00020118,-0.00047169,0.048034,-0.0099992,-0.0098996,0.0066621,-0.0010461,-0.0024528,0,0,0,0.026681,0.0044485,0.0040401,0.01132,0.011723,0.022439,5.838e-07,0.2,0.35,0.55
0.010888,0.0018749,-0.00062243,0.026989,0.0033224,0.0032868,0.0010662,-0.00024064,-0.00041036,0.050013,-0.011521,-0.011613,0.0055443,-0.0012513,-0.0021339,0,0,0,0.027048,0.0035165,0.0030334,0.012008,0.011199,0.023777,6.9179e-07,0.25,0.35,0.55
0.013429,0.0020617,-0.00068306,0.027166,0.0025872,0.0024627,0.00084165,-0.00026827,-0.00033695,0.051301,-0.012603,-0.012926,0.0043766,-0.001395,-0.0017521,0,0,0,0.027203,0.0027822,0.0022308,0.012486,0.010739,0.024701,7.7376e-07,0.3,0.35,0.55
0.016018,0.0021665,-0.00071377,0.02714,0.0019967,0.0018199,0.00060284,-0.00026303,-0.00024628,0.05199,-0.013382,-0.013842,0.0031348,-0.0013677,-0.0012806,0,0,0,0.027161,0.0021779,0.0016179,0.012771,0.010319,0.025268,8.2749e-07,0.35,0.35,0.55
0.018628,0.0021846,-0.00071096,0.026945,0.0014383,0.0013164,0.00035262,-0.00019154,-0.00013899,0.052237,-0.01408,-0.014397,0.0018336,-0.000996,-0.00072272,0,0,0,0.026955,0.0015862,0.0011584,0.012898,0.0098999,0.025586,8.5943e-07,0.4,0.35,0.55
0.021242,0.0021193,-0.00067489,0.026618,0.0008009,0.00089768,0.00012405,-2.0175e-05,-3.228e-05,0.052217,-0.014908,-0.014656,0.00064508,-0.00010491,-0.00016786,0,0,0,0.026623,0.0010304,0.00066278,0.01298,0.0094389,0.02578,8.7917e-07,0.45,0.35,0.55
0.02385,0.0019926,-0.00061591,0.026219,6.2631e-05,0.00053718,-2.6673e-05,0.00023595,4.0126e-05,0.052078,-0.015928,-0.014695,-0.0001387,0.0012269,0.00020865,0,0,0,0.026224,0.00066869,-7.4165e-05,0.013149,0.0089396,0.025939,8.9304e-07,0.5,0.35,0.55
0.026449,0.0018534,-0.00055488,0.025848,-0.00063668,0.00024253,-8.8196e-05,0.00048683,5.7063e-05,0.051933,-0.016928,-0.014642,-0.00045862,0.0025315,0.00029673,0,0,0,0.025853,0.00047846,-0.00087782,0.013366,0.0084847,0.026083,9.0276e-07,0.55,0.35,0.55
0.029043,0.0017641,-0.00051572,0.025599,-0.0010872,2.9372e-05,-9.6856e-05,0.000637,3.8952e-05,0.051832,-0.017551,-0.014648,-0.00050365,0.0033124,0.00020255,0,0,0,0.025602,0.00034087,-0.0014016,0.013502,0.0081803,0.026177,9.0822e-07,0.6,0.35,0.55
0.031633,0.0017693,-0.00051632,0.025513,-0.0011885,-8.5279e-05,-7.5709e-05,0.00064169,9.0279e-06,0.051789,-0.017633,-0.014765,-0.00039369,0.0033368,4.6945e-05,0,0,0,0.025515,0.0002317,-0.0015076,0.013511,0.0080796,0.026198,9.1033e-07,0.65,0.35,0.55
0.034222,0.0018743,-0.00055874,0.025596,-0.00094304,-0.00011201,-3.5948e-05,0.00049733,-2.946e-05,0.051824,-0.017176,-0.015016,-0.00018693,0.0025861,-0.00015319,0,0,0,0.025599,0.0001393,-0.0011978,0.013398,0.0081802,0.026158,9.1055e-07,0.7,0.35,0.55
0.036815,0.0020443,-0.00062891,0.025819,-0.00046039,-9.0945e-05,-3.3928e-06,0.00024237,-5.1808e-05,0.051969,-0.016358,-0.015397,-1.7642e-05,0.0012603,-0.0002694,0,0,0,0.025822,8.3898e-05,-0.00063861,0.01323,0.0084225,0.026111,9.1101e-07,0.75,0.35,0.55
0.039419,0.0022252,-0.00070599,0.026106,2.7845e-05,-6.4146e-05,-1.7613e-05,-3.0203e-05,-3.487e-05,0.052233,-0.015569,-0.015808,-9.1586e-05,-0.00015705,-0.00018132,0,0,0,0.026108,0.00019473,-0.00023334,0.013171,0.0086898,0.026131,9.1535e-07,0.8,0.35,0.55
0.042038,0.0023751,-0.00077123,0.026375,0.00034796,-6.7893e-05,-6.7329e-05,-0.0002277,2.143e-06,0.052582,-0.015088,-0.01617,-0.00035011,-0.001184,1.1143e-05,0,0,0,0.026377,0.00045791,-0.00017963,0.013278,0.008885,0.026245,9.2643e-07,0.85,0.35,0.55
0.044677,0.0024777,-0.00081579,0.026588,0.00048507,-0.00010388,-9.3885e-05,-0.00033152,2.622e-05,0.052947,-0.01492,-0.016451,-0.0004882,-0.0017239,0.00013635,0,0,0,0.026589,0.00064673,-0.00026688,0.013428,0.0089896,0.026411,9.4277e-07,0.9,0.35,0.55
0.047333,0.0025346,-0.00084029,0.026727,0.00051511,-0.00014133,-5.0622e-05,-0.00037337,1.5996e-05,0.05323,-0.014921,-0.016628,-0.00026324,-0.0019415,8.318e-05,0,0,0,0.026728,0.00069877,-0.0003257,0.013527,0.0090337,0.026556,9.5768e-07,0.95,0.35,0.55
0.048665,0.0025524,-0.00084796,0.026776,0.00051561,-0.0001561,-6.7812e-06,-0.0003834,3.6431e-07,0.053337,-0.014941,-0.016687,-3.5262e-05,-0.0019937,1.8943e-06,0,0,0,0.026777,0.00070488,-0.00034575,0.013561,0.0090453,0.026613,9.6366e-07,1,0.35,0.55
0.00091903,0.00016604,-8.3633e-05,0.024585,0.0095304,0.0095174,0.001275,-3.2129e-05,-0.00064313,0.037741,-0.0014006,-0.0014343,0.00663,-0.00016707,-0.0033443,0,0,0,0.024739,0.0095114,0.0093826,0.007678,0.014544,0.015292,1.8555e-07,0,0.4,0.55
0.0018871,0.00032449,-0.00016323,0.02475,0.0086185,0.0085959,0.0012587,-6.0583e-05,-0.00063619,0.039171,-0.0027705,-0.0028291,0.0065454,-0.00031503,-0.0033082,0,0,0,0.024891,0.0086026,0.0084708,0.0082101,0.013988,0.016355,2.3042e-07,0.05,0.4,0.55
0.0039171,0.0006256,-0.00031422,0.025372,0.0069907,0.0069502,0.001211,-0.00011316,-0.00061575,0.042379,-0.0054117,-0.0055172,0.0062972,-0.00058844,-0.0032019,0,0,0,0.025486,0.0070035,0.006823,0.0093316,0.013104,0.018574,3.3663e-07,0.1,0.4,0.55
0.006125,0.00089329,-0.00044821,0.026211,0.0056419,0.0055765,0.0011461,-0.00016182,-0.00058879,0.045691,-0.0077888,-0.0079588,0.0059597,-0.00084145,-0.0030617,0,0,0,0.026301,0.0057039,0.0054243,0.010438,0.012476,0.020739,4.6433e-07,0.15,0.4,0.55
0.0084862,0.0011229,-0.00056321,0.026879,0.0044808,0.0043705,0.0010789,-0.00021354,-0.00056154,0.048447,-0.0097881,-0.010075,0.0056105,-0.0011104,-0.00292,0,0,0,0.026951,0.0045873,0.0041922,0.011379,0.01191,0.022564,5.9413e-07,0.2,0.4,0.55
0.01097,0.0013081,-0.00065605,0.027337,0.0035366,0.0033597,0.0010107,-0.00026966,-0.00053217,0.050536,-0.011345,-0.011805,0.0052556,-0.0014022,-0.0027673,0,0,0,0.027396,0.0036829,0.0031549,0.01212,0.011411,0.023981,7.1007e-07,0.25,0.4,0.55
0.01354,0.0014402,-0.00072196,0.027563,0.0028053,0.0025531,0.00093219,-0.00032203,-0.00049381,0.051911,-0.012459,-0.013115,0.0048474,-0.0016745,-0.0025678,0,0,0,0.027611,0.0029857,0.0023244,0.012643,0.010974,0.024963,7.9858e-07,0.3,0.4,0.55
0.016161,0.001506,-0.00075369,0.027558,0.0022333,0.0019382,0.00082098,-0.00034197,-0.00043265,0.052614,-0.013231,-0.013999,0.0042691,-0.0017782,-0.0022498,0,0,0,0.027597,0.002429,0.0017039,0.012946,0.010577,0.025538,8.5394e-07,0.35,0.4,0.55
0.018801,0.0014891,-0.00074191,0.027332,0.001678,0.00146,0.00066965,-0.00026639,-0.00034119,0.052781,-0.013919,-0.014486,0.0034822,-0.0013852,-0.0017742,0,0,0,0.02736,0.0018462,0.0012631,0.013049,0.010157,0.025812,8.8211e-07,0.4,0.4,0.55
0.021439,0.0013814,-0.00068031,0.027026,0.00096009,0.0010123,0.00054406,-1.8023e-05,-0.00026328,0.052491,-0.014776,-0.014665,0.0027589,-0.00012304,-0.0013262,0,0,0,0.027051,0.0012307,0.00071647,0.013167,0.009666,0.026084,9.309e-07,0.45,0.4,0.55
0.024053,0.0012024,-0.00058114,0.02685,9.0419e-05,0.0005389,0.00051666,0.00036191,-0.00023242,0.051569,-0.015677,-0.014581,0.0024122,0.0017471,-0.0010638,0,0,0,0.02688,0.0007952,-0.00019634,0.013538,0.0091598,0.026601,1.0353e-06,0.5,0.4,0.55
0.02661,0.0010134,-0.00048156,0.026628,-0.0006278,0.00014455,0.0004355,0.00066046,-0.00018417,0.050197,-0.016268,-0.014326,0.0018938,0.0032269,-0.00078156,0,0,0,0.026655,0.0005571,-0.0010674,0.013861,0.0087149,0.026952,1.107e-06,0.55,0.4,0.55
0.029093,0.00089464,-0.000421,0.026254,-0.00098684,-8.0146e-05,0.00015041,0.00076563,-6.261e-05,0.049231,-0.016508,-0.014174,0.00060707,0.0038271,-0.00024647,0,0,0,0.026266,0.00040033,-0.0014792,0.013873,0.0083957,0.026859,1.0956e-06,0.6,0.4,0.55
0.031542,0.00089455,-0.0004206,0.026169,-0.0011184,-0.00020954,-0.00021652,0.00077498,8.9348e-05,0.049216,-0.01663,-0.014292,-0.00098725,0.0038716,0.00040684,0,0,0,0.02618,0.0002782,-0.0016172,0.013899,0.0082803,0.026903,1.1012e-06,0.65,0.4,0.55
0.034023,0.0010184,-0.00048308,0.026382,-0.0010207,-0.00024879,-0.0004546,0.00068394,0.00018554,0.050173,-0.016641,-0.014704,-0.0020306,0.003339,0.0008112,0,0,0,0.026405,0.00018312,-0.0014764,0.013941,0.0083707,0.027095,1.1249e-06,0.7,0.4,0.55
0.03658,0.0012268,-0.00059234,0.026478,-0.00055576,-0.00013157,-0.00045027,0.00038315,0.00018726,0.051613,-0.016321,-0.015292,-0.0020919,0.0018496,0.00084424,0,0,0,0.026502,0.00015859,-0.00086991,0.013686,0.008597,0.026879,1.0675e-06,0.75,0.4,0.55
0.039199,0.0014462,-0.00071233,0.026583,4.2371e-05,2.0045e-05,-0.00035841,-2.0737e-05,0.00015396,0.052751,-0.015743,-0.015828,-0.0018004,-0.00013932,0.00076205,0,0,0,0.026597,0.00031662,-0.00026841,0.013433,0.0088819,0.026581,9.8443e-07,0.8,0.4,0.55
0.041858,0.0016185,-0.00080732,0.026884,0.00041258,5.1643e-05,-0.00033014,-0.00030671,0.00015069,0.053489,-0.015336,-0.016275,-0.0017167,-0.0015949,0.0007836,0,0,0,0.026893,0.00060486,-0.0001496,0.013521,0.009116,0.026674,9.7309e-07,0.85,0.4,0.55
0.044548,0.0017265,-0.00086595,0.027191,0.00050581,-8.7198e-06,-0.00029035,-0.00042616,0.00014291,0.054084,-0.015298,-0.016636,-0.0015098,-0.002216,0.00074313,0,0,0,0.027198,0.00076068,-0.00026987,0.013734,0.0092294,0.026967,1.0039e-06,0.9,0.4,0.55
0.047266,0.0017804,-0.00089519,0.027381,0.00048063,-7.0751e-05,-0.00015995,-0.00045595,8.0184e-05,0.054517,-0.015425,-0.016859,-0.00083174,-0.0023709,0.00041696,0,0,0,0.027384,0.000757,-0.00034999,0.013867,0.0092637,0.027198,1.0294e-06,0.95,0.4,0.55
0.048631,0.0017961,-0.00090376,0.027448,0.00046115,-9.3879e-05,-6.7624e-05,-0.00045904,3.3402e-05,0.054675,-0.01549,-0.016933,-0.00035164,-0.002387,0.00017369,0,0,0,0.027449,0.00074112,-0.00037504,0.013912,0.0092717,0.027283,1.0391e-06,1,0.4,0.55
0.00092663,9.6164e-05,-8.7691e-05,0.024789,0.0096047,0.0095869,0.00074633,-2.875e-05,-0.00067717,0.038062,-0.0014159,-0.0014623,0.0038809,-0.0001495,-0.0035213,0,0,0,0.024875,0.0095944,0.0095106,0.0076824,0.01466,0.015323,1.8681e-07,0,0.45,0.55
0.0019031,0.00018643,-0.00017089,0.024963,0.008688,0.0086544,0.00074781,-5.4434e-05,-0.00067424,0.03952,-0.0027941,-0.0028816,0.0038886,-0.00028306,-0.003506,0,0,0,0.025043,0.0086826,0.0085793,0.0082319,0.014102,0.016412,2.3317e-07,0.05,0.45,0.55
0.003952,0.00035617,-0.00032863,0.025616,0.0070595,0.0069961,0.00075253,-0.00010291,-0.00066582,0.042799,-0.0054485,-0.0056134,0.0039131,-0.00053511,-0.0034623,0,0,0,0.025685,0.0070788,0.0069082,0.0093883,0.013224,0.018692,3.4352e-07,0.1,0.45,0.55
0.0061831,0.00050534,-0.00046908,0.026512,0.0057163,0.0056234,0.00077185,-0.00015095,-0.00066078,0.04622,-0.0078487,-0.0080902,0.0040136,-0.00078493,-0.0034361,0,0,0,0.026571,0.0057762,0.0055039,0.010534,0.012617,0.020933,4.7806e-07,0.15,0.45,0.55
0.008574,0.0006344,-0.00059132,0.02726,0.0045546,0.0044267,0.0008156,-0.00020722,-0.00066788,0.04913,-0.0099025,-0.010235,0.0042411,-0.0010776,-0.0034729,0,0,0,0.027315,0.004659,0.0042669,0.011524,0.01208,0.022855,6.182e-07,0.2,0.45,0.55
0.011096,0.00074045,-0.00069254,0.027822,0.0036064,0.0034355,0.00087933,-0.0002752,-0.0006866,0.051418,-0.011541,-0.011986,0.0045725,-0.0014311,-0.0035703,0,0,0,0.027878,0.0037613,0.0032247,0.012326,0.011621,0.024389,7.4791e-07,0.25,0.45,0.55
0.013716,0.00081577,-0.00076706,0.028162,0.0028807,0.0026639,0.00094736,-0.00034768,-0.00070917,0.052998,-0.012734,-0.013298,0.0049263,-0.0018079,-0.0036877,0,0,0,0.028222,0.0030882,0.0023969,0.012912,0.011236,0.025487,8.5104e-07,0.3,0.45,0.55
0.016396,0.0008434,-0.00080355,0.028264,0.0023534,0.002111,0.00098074,-0.00039006,-0.00071232,0.05385,-0.013519,-0.014149,0.0050999,-0.0020283,-0.003704,0,0,0,0.028326,0.0025925,0.0018099,0.013258,0.01091,0.026134,9.1656e-07,0.35,0.45,0.55
0.019101,0.00079271,-0.00078144,0.028314,0.0018681,0.0017054,0.00097672,-0.00027738,-0.00068733,0.054062,-0.014154,-0.014585,0.0050087,-0.0014678,-0.0035384,0,0,0,0.028376,0.0021053,0.0014061,0.013485,0.010629,0.026628,1.0009e-06,0.4,0.45,0.55
0.021804,0.0006415,-0.00068203,0.028768,0.0011458,0.0012307,0.0010244,0.00010425,-0.00071949,0.05341,-0.014879,-0.014733,0.0049175,0.00035466,-0.0034606,0,0,0,0.028838,0.0015547,0.00075093,0.014044,0.010381,0.027699,1.238e-06,0.45,0.45,0.55
0.024459,0.00042232,-0.00052926,0.02937,0.00017625,0.00052303,0.0010984,0.00055952,-0.00075649,0.050951,-0.015258,-0.014515,0.0047841,0.0024033,-0.003299,0,0,0,0.029452,0.000993,-0.00037571,0.014914,0.010023,0.029175,1.5492e-06,0.5,0.45,0.55
0.026948,0.00022002,-0.00039275,0.029214,-0.00055855,-0.00012078,0.00090798,0.00074653,-0.00057414,0.047104,-0.014907,-0.013895,0.0037176,0.003252,-0.0023666,0,0,0,0.029277,0.00048174,-0.0012237,0.01525,0.0095116,0.029691,1.6564e-06,0.55,0.45,0.55
0.029223,0.00010481,-0.00032092,0.028573,-0.00080835,-0.00038912,0.00035398,0.00069482,-0.00019985,0.044408,-0.014442,-0.013391,0.0013932,0.0031696,-0.00079625,0,0,0,0.028597,0.00018025,-0.001402,0.015,0.0091251,0.02925,1.5857e-06,0.6,0.45,0.55
0.031409,9.7761e-05,-0.00031907,0.028487,-0.00096651,-0.00053907,-0.00031954,0.00070625,0.00020132,0.044416,-0.014578,-0.013509,-0.001349,0.0032192,0.00086382,0,0,0,0.02851,3.8255e-05,-0.0015664,0.015038,0.0089938,0.029317,1.5966e-06,0.65,0.45,0.55
0.033685,0.00020351,-0.00039052,0.028964,-0.0010403,-0.00057956,-0.00083142,0.00077995,0.00054326,0.047154,-0.015343,-0.014283,-0.0034613,0.0033977,0.0022784,0,0,0,0.029018,4.6035e-05,-0.0017202,0.015369,0.0091147,0.029902,1.6913e-06,0.7,0.45,0.55
0.036177,0.00040961,-0.00053668,0.029008,-0.0006077,-0.00023405,-0.00095166,0.00059934,0.00066827,0.051133,-0.016048,-0.01525,-0.004136,0.0025805,0.002908,0,0,0,0.029073,0.00026394,-0.0011703,0.015121,0.0093887,0.02956,1.6084e-06,0.75,0.45,0.55
0.038847,0.00065065,-0.00071361,0.02839,8.5801e-05,0.00018012,-0.00078997,0.00011746,0.00055842,0.053908,-0.016088,-0.015927,-0.0037522,0.00040926,0.0026572,0,0,0,0.028436,0.00054536,-0.00032518,0.01438,0.0095519,0.028341,1.3212e-06,0.8,0.45,0.55
0.041586,0.00084149,-0.00085209,0.028007,0.00046332,0.00027653,-0.00063234,-0.00031392,0.00043575,0.055145,-0.015911,-0.016406,-0.0032279,-0.0016601,0.0022366,0,0,0,0.028035,0.00077516,-6.3207e-05,0.014049,0.0095822,0.02769,1.1231e-06,0.85,0.45,0.55
0.044364,0.00094795,-0.00092754,0.028121,0.00046164,0.00015908,-0.00049362,-0.00048055,0.00034384,0.05587,-0.016045,-0.016832,-0.0025668,-0.0024988,0.001788,0,0,0,0.028138,0.00082556,-0.00022178,0.01418,0.0095806,0.027851,1.1087e-06,0.9,0.45,0.55
0.047173,0.00099208,-0.00095929,0.028301,0.00035911,4.4651e-05,-0.00027094,-0.00049619,0.00018717,0.05636,-0.016289,-0.017107,-0.0014089,-0.0025802,0.00097327,0,0,0,0.028308,0.00074488,-0.00034827,0.014328,0.0095682,0.028126,1.141e-06,0.95,0.45,0.55
0.048585,0.0010034,-0.00096761,0.028363,0.00031833,6.301e-06,-0.00013033,-0.000492,8.9085e-05,0.056532,-0.016385,-0.017196,-0.00067772,-0.0025584,0.00046324,0,0,0,0.028366,0.00070526,-0.00038334,0.014375,0.0095626,0.028221,1.1525e-06,1,0.45,0.55
0.00093425,2.4449e-05,-9.1126e-05,0.024992,0.0096601,0.0096536,0.00020054,-2.2264e-05,-0.00070643,0.038395,-0.0014668,-0.0014839,0.0010428,-0.00011577,-0.0036735,0,0,0,0.025047,0.009666,0.0095918,0.0077278,0.014768,0.015419,1.9045e-07,0,0.5,0.55
0.0019197,4.5076e-05,-0.00017741,0.025176,0.008721,0.0087081,0.00021536,-4.2313e-05,-0.00070772,0.039895,-0.0028887,-0.0029222,0.0011199,-0.00022003,-0.0036802,0,0,0,0.025229,0.0087379,0.0086389,0.0082948,0.014202,0.01654,2.3897e-07,0.05,0.5,0.55
0.0039895,8.0745e-05,-0.00034102,0.02587,0.0070587,0.0070345,0.00025967,-8.0945e-05,-0.00071221,0.043284,-0.0056251,-0.005688,0.0013503,-0.00042091,-0.0037035,0,0,0,0.025915,0.0071035,0.0069442,0.0094855,0.013321,0.018892,3.5511e-07,0.1,0.5,0.55
0.0062481,0.00010842,-0.00048748,0.026835,0.0056944,0.0056622,0.00034174,-0.0001218,-0.00073122,0.046857,-0.0081098,-0.0081935,0.001777,-0.00063337,-0.0038023,0,0,0,0.026877,0.0057761,0.0055386,0.010669,0.012731,0.021221,4.9876e-07,0.15,0.5,0.55
0.0086752,0.00013265,-0.00061708,0.027684,0.0045131,0.0044774,0.00046723,-0.00017382,-0.00077746,0.049974,-0.010271,-0.010364,0.0024296,-0.00090388,-0.0040428,0,0,0,0.027728,0.0046419,0.0043048,0.011712,0.012225,0.023257,6.5245e-07,0.2,0.5,0.55
0.011246,0.00015394,-0.00072756,0.028391,0.0035499,0.0035148,0.00062896,-0.00024183,-0.00085377,0.052543,-0.012044,-0.012135,0.0032706,-0.0012575,-0.0044396,0,0,0,0.028443,0.0037403,0.0032725,0.012585,0.011819,0.02494,8.0134e-07,0.25,0.5,0.55
0.01393,0.00016675,-0.00081241,0.028929,0.0028292,0.0027975,0.00080976,-0.00031773,-0.00095284,0.054483,-0.013378,-0.01346,0.0042107,-0.0016522,-0.0049548,0,0,0,0.028995,0.0030866,0.002474,0.013261,0.011519,0.026221,9.292e-07,0.3,0.5,0.55
0.016694,0.00015419,-0.00085537,0.029292,0.0023738,0.0023465,0.00095929,-0.00035657,-0.001032,0.055752,-0.014235,-0.014306,0.0049883,-0.0018542,-0.0053662,0,0,0,0.029372,0.0026682,0.0019721,0.0137,0.011337,0.027059,1.0213e-06,0.35,0.5,0.55
0.019505,7.3441e-05,-0.00081551,0.030181,0.0020059,0.0019816,0.0011091,-0.00016906,-0.0011257,0.055971,-0.014706,-0.014769,0.0055075,-0.00099601,-0.0056009,0,0,0,0.030278,0.002329,0.0015619,0.014358,0.01139,0.028342,1.2942e-06,0.4,0.5,0.55
0.022304,-0.00010911,-0.00066193,0.031795,0.0013336,0.0013099,0.0012728,0.0003047,-0.0012481,0.054084,-0.01486,-0.014917,0.0056946,0.0011099,-0.0055988,0,0,0,0.031913,0.0018308,0.00069498,0.015609,0.011479,0.030671,1.8427e-06,0.45,0.5,0.55
0.024958,-0.00033229,-0.0004592,0.032264,0.00033383,0.00031161,0.0011945,0.00065217,-0.0011455,0.049345,-0.014391,-0.014438,0.0049084,0.0025874,-0.0047236,0,0,0,0.032376,0.0010407,-0.0005066,0.016441,0.01097,0.032144,2.156e-06,0.5,0.5,0.55
0.027302,-0.00049259,-0.00031441,0.03135,-0.00045304,-0.00046984,0.00079158,0.00060587,-0.0007343,0.043511,-0.013346,-0.013376,0.0031318,0.0024045,-0.0029313,0,0,0,0.031416,0.0001981,-0.001187,0.016302,0.010143,0.031943,2.0667e-06,0.55,0.5,0.55
0.029354,-0.00056663,-0.00025317,0.030851,-0.0007467,-0.00075666,0.00029655,0.00043878,-0.0002412,0.039906,-0.012573,-0.012588,0.001127,0.0017932,-0.00094349,0,0,0,0.030874,-0.00026688,-0.001259,0.016066,0.0097826,0.031658,1.9714e-06,0.6,0.5,0.55
0.031306,-0.00058047,-0.00025032,0.030777,-0.00090827,-0.00091233,-0.00018285,0.00044596,0.00022909,0.039933,-0.012697,-0.0127,-0.00080714,0.0018232,0.0009599,0,0,0,0.030798,-0.00041824,-0.0014235,0.016111,0.0096521,0.031741,1.9865e-06,0.65,0.5,0.55
0.033361,-0.00053156,-0.00030889,0.031125,-0.00096295,-0.00096209,-0.00065176,0.00063278,0.00068453,0.043619,-0.013765,-0.013759,-0.0026702,0.0025165,0.0027842,0,0,0,0.031181,-0.00027522,-0.0017066,0.016444,0.0097332,0.032206,2.1175e-06,0.7,0.5,0.55
0.035713,-0.00038718,-0.00046191,0.031924,-0.00054074,-0.00053501,-0.0010021,0.00069707,0.0010208,0.049632,-0.015207,-0.01519,-0.00415,0.0027763,0.0042211,0,0,0,0.032011,0.00022562,-0.0013883,0.016699,0.010283,0.03263,2.2521e-06,0.75,0.5,0.55
0.038389,-0.00016544,-0.00069144,0.031464,0.00014974,0.00016123,-0.0010267,0.00033322,0.0010334,0.054765,-0.01618,-0.01615,-0.0045658,0.0012243,0.0045936,0,0,0,0.031544,0.00072051,-0.00048995,0.016017,0.010592,0.031453,1.9747e-06,0.8,0.5,0.55
0.041237,2.6959e-05,-0.0008907,0.030004,0.00050172,0.00051911,-0.00081313,-0.00019417,0.00081242,0.057376,-0.016683,-0.016637,-0.0040099,-0.0011366,0.0040055,0,0,0,0.030056,0.00093412,3.4857e-05,0.01501,0.010342,0.029583,1.4597e-06,0.85,0.5,0.55
0.044141,0.00012206,-0.00099128,0.029377,0.00038263,0.00040459,-0.0005898,-0.00043928,0.00058645,0.058282,-0.017104,-0.017047,-0.003067,-0.0022843,0.0030495,0,0,0,0.029406,0.00084829,-8.9339e-05,0.014747,0.010055,0.029038,1.2617e-06,0.9,0.5,0.55
0.047065,0.00015152,-0.0010243,0.029409,0.00017836,0.00020308,-0.0003245,-0.00045694,0.00032069,0.058589,-0.017411,-0.017346,-0.0016874,-0.0023761,0.0016676,0,0,0,0.029421,0.00067374,-0.00030416,0.014863,0.0099302,0.029249,1.2869e-06,0.95,0.5,0.55
0.048532,0.00015763,-0.0010316,0.029423,0.0001142,0.00013988,-0.00016322,-0.00045004,0.00015924,0.058693,-0.017509,-0.017442,-0.00084873,-0.0023402,0.00082803,0,0,0,0.029427,0.00061033,-0.00036058,0.014894,0.0098922,0.029315,1.295e-06,1,0.5,0.55
0.00094076,-5.0513e-05,-9.3524e-05,0.025164,0.0096919,0.0097083,-0.00037273,-1.2833e-05,-0.0007272,0.038687,-0.0015394,-0.0014968,-0.0019382,-6.6731e-05,-0.0037815,0,0,0,0.025229,0.0097115,0.0096237,0.0078024,0.014855,0.015561,1.9587e-07,0,0.55,0.55
0.0019344,-0.00010244,-0.00018197,0.025359,0.0087187,0.0087501,-0.00034825,-2.4461e-05,-0.0007321,0.040237,-0.003028,-0.0029463,-0.0018109,-0.0001272,-0.0038069,0,0,0,0.025419,0.0087589,0.0086503,0.0083842,0.014276,0.016714,2.4684e-07,0.05,0.55,0.55
0.0040237,-0.00020634,-0.0003498,0.026091,0.0070001,0.0070611,-0.00027539,-4.7413e-05,-0.00074773,0.043745,-0.0058909,-0.0057325,-0.001432,-0.00024655,-0.0038882,0,0,0,0.026141,0.007083,0.0069285,0.009606,0.013384,0.019135,3.6938e-07,0.1,0.55,0.55
0.0063089,-0.00030565,-0.00050084,0.027124,0.0055954,0.005688,-0.00015081,-7.3568e-05,-0.00078795,0.047478,-0.0084964,-0.0082557,-0.0007842,-0.00038255,-0.0040973,0,0,0,0.027167,0.0057263,0.0055143,0.010826,0.012802,0.021547,5.2265e-07,0.15,0.55,0.55
0.0087714,-0.00039268,-0.00063649,0.02807,0.0043818,0.0045142,2.4278e-05,-0.00010993,-0.00086981,0.050802,-0.010787,-0.010443,0.00012624,-0.00057165,-0.004523,0,0,0,0.028112,0.004572,0.0042817,0.011915,0.012322,0.023687,6.9017e-07,0.2,0.55,0.55
0.011389,-0.00046392,-0.00075514,0.02892,0.0033974,0.0035814,0.00023762,-0.00016114,-0.00099973,0.053652,-0.012706,-0.012227,0.0012356,-0.00083794,-0.0051986,0,0,0,0.02897,0.0036632,0.003265,0.012853,0.011966,0.025509,8.5872e-07,0.25,0.55,0.55
0.014137,-0.00052202,-0.00084903,0.029679,0.0026861,0.0029276,0.00046889,-0.00021958,-0.0011669,0.05599,-0.014192,-0.013564,0.0024382,-0.0011418,-0.0060676,0,0,0,0.029747,0.0030323,0.0025139,0.013616,0.011764,0.026977,1.0139e-06,0.3,0.55,0.55
0.016988,-0.00058014,-0.0008951,0.030387,0.0023191,0.0025732,0.00066622,-0.00023285,-0.0012962,0.057839,-0.015138,-0.014477,0.0034644,-0.0012108,-0.0067403,0,0,0,0.030472,0.0026896,0.0021183,0.014177,0.01176,0.028072,1.1432e-06,0.35,0.55,0.55
0.019921,-0.00067944,-0.00082945,0.031997,0.0020258,0.0021065,0.00088774,-2.6143e-05,-0.0014649,0.057791,-0.015296,-0.015045,0.0042363,-0.00031559,-0.0070925,0,0,0,0.032105,0.0023791,0.0016445,0.01523,0.012043,0.030102,1.5763e-06,0.4,0.55,0.55
0.022796,-0.00085093,-0.00062346,0.033866,0.0013295,0.0010236,0.0010463,0.00035188,-0.0015207,0.05361,-0.0145,-0.01507,0.0043588,0.0012736,-0.0065193,0,0,0,0.033993,0.0017155,0.0005109,0.016741,0.012073,0.032901,2.247e-06,0.45,0.55,0.55
0.02535,-0.0010273,-0.00039526,0.033578,0.00037103,-0.00014634,0.00079606,0.00048959,-0.0011312,0.046531,-0.013198,-0.014185,0.0030637,0.0018715,-0.0044932,0,0,0,0.033672,0.00075314,-0.00062263,0.017147,0.011267,0.033635,2.3978e-06,0.5,0.55,0.55
0.027499,-0.0011245,-0.00026687,0.032625,-0.00034671,-0.00070739,0.00036277,0.00033135,-0.00060533,0.040612,-0.012153,-0.012871,0.0013743,0.0012666,-0.0023618,0,0,0,0.032666,-8.1364e-05,-0.001013,0.016839,0.010524,0.033232,2.2127e-06,0.55,0.55,0.55
0.029422,-0.0011607,-0.00022472,0.032925,-0.00068319,-0.00088095,0.00014605,0.00018525,-0.00020072,0.037942,-0.011699,-0.012138,0.0005061,0.00068963,-0.00076431,0,0,0,0.032937,-0.00051897,-0.0010575,0.016998,0.010454,0.033734,2.2194e-06,0.6,0.55,0.55
0.031293,-0.0011803,-0.00022168,0.032864,-0.00083991,-0.001036,3.9402e-05,0.00018751,0.00018219,0.037982,-0.011809,-0.012246,1.6783e-05,0.00069968,0.00075541,0,0,0,0.032877,-0.0006726,-0.0012155,0.017046,0.010329,0.03383,2.2376e-06,0.65,0.55,0.55
0.03322,-0.0011835,-0.00025993,0.032448,-0.00083446,-0.0011953,-0.00017872,0.00034415,0.00054842,0.040763,-0.012521,-0.013238,-0.00081125,0.0013202,0.002203,0,0,0,0.032483,-0.00055449,-0.0015106,0.016997,0.010139,0.033536,2.273e-06,0.7,0.55,0.55
0.03538,-0.0011225,-0.00039445,0.033296,-0.00049772,-0.0010233,-0.00059551,0.00052173,0.000988,0.04689,-0.013937,-0.014932,-0.0023574,0.0020018,0.0039585,0,0,0,0.03337,-8.2884e-05,-0.0015114,0.017441,0.010592,0.034198,2.5184e-06,0.75,0.55,0.55
0.03796,-0.00097469,-0.00065051,0.033593,0.00011213,-0.00019179,-0.00083574,0.00038192,0.0012688,0.054409,-0.015783,-0.016332,-0.0034844,0.0013882,0.0053977,0,0,0,0.033681,0.00055571,-0.00072378,0.017203,0.011171,0.033789,2.4186e-06,0.8,0.55,0.55
0.040893,-0.00082866,-0.00090806,0.031925,0.000494,0.0006174,-0.00069364,-3.6972e-05,0.0011034,0.059419,-0.017334,-0.016966,-0.0032937,-0.00038795,0.0052788,0,0,0,0.031987,0.00095188,9.7078e-05,0.015945,0.011012,0.031474,1.7816e-06,0.85,0.55,0.55
0.043933,-0.00076244,-0.0010412,0.030661,0.00030727,0.0006504,-0.00048312,-0.000291,0.00078925,0.060747,-0.018172,-0.01728,-0.0025122,-0.0015132,0.0041041,0,0,0,0.030694,0.0008503,7.4369e-05,0.01531,0.010539,0.03024,1.4275e-06,0.9,0.55,0.55
0.046967,-0.00074898,-0.0010777,0.030446,-4.4608e-06,0.00036931,-0.00027088,-0.00032029,0.00044326,0.060672,-0.018498,-0.017526,-0.0014086,-0.0016655,0.002305,0,0,0,0.03046,0.00058741,-0.00023692,0.015348,0.01027,0.030294,1.4321e-06,0.95,0.55,0.55
0.048484,-0.00074749,-0.0010842,0.030381,-9.4668e-05,0.00027376,-0.0001409,-0.00031448,0.00022622,0.060655,-0.018582,-0.017624,-0.00073268,-0.0016353,0.0011764,0,0,0,0.030386,0.00049615,-0.00032232,0.015354,0.010187,0.030308,1.4334e-06,1,0.55,0.55
0.00094531,-0.00012949,-9.4547e-05,0.025282,0.0096957,0.0097436,-0.00097815,-1.3044e-06,-0.00073639,0.0389,-0.0016239,-0.0014993,-0.0050864,-6.7829e-06,-0.0038293,0,0,0,0.0254,0.0097353,0.0095854,0.0079076,0.014907,0.015741,2.0274e-07,0,0.6,0.55
0.001945,-0.00025773,-0.00018392,0.025484,0.008681,0.0087742,-0.00094566,-2.4857e-06,-0.00074341,0.040495,-0.0031931,-0.0029507,-0.0049174,-1.2925e-05,-0.0038657,0,0,0,0.025592,0.0087613,0.0085862,0.0085029,0.014313,0.016919,2.561e-07,0.05,0.6,0.55
0.0040495,-0.00050834,-0.00035359,0.026243,0.00689,0.0070697,-0.0008496,-5.3541e-06,-0.00076565,0.04411,-0.0062077,-0.0057404,-0.0044179,-2.7841e-05,-0.0039814,0,0,0,0.026329,0.0070521,0.0068219,0.0097534,0.013401,0.019393,3.8455e-07,0.1,0.6,0.55
0.006356,-0.00074121,-0.00050682,0.02732,0.0054318,0.005692,-0.00069398,-1.067e-05,-0.00081861,0.047966,-0.0089436,-0.0082671,-0.0036087,-5.5485e-05,-0.0042568,0,0,0,0.027387,0.005675,0.0053817,0.011003,0.012815,0.021861,5.4575e-07,0.15,0.6,0.55
0.0088461,-0.00094602,-0.00064566,0.028324,0.0041829,0.0045228,-0.00049179,-2.1232e-05,-0.00092236,0.051424,-0.011342,-0.010458,-0.0025573,-0.0001104,-0.0047963,0,0,0,0.028381,0.0045069,0.0041414,0.01212,0.012343,0.024059,7.2318e-07,0.2,0.6,0.55
0.011498,-0.0011166,-0.000769,0.029255,0.0031827,0.0036084,-0.00026518,-3.9233e-05,-0.0010857,0.054434,-0.013352,-0.012246,-0.001379,-0.00020401,-0.0056459,0,0,0,0.029313,0.0035924,0.0031399,0.013087,0.012015,0.025951,9.0413e-07,0.25,0.6,0.55
0.01429,-0.0012524,-0.00086805,0.030143,0.0024876,0.0030003,-3.901e-05,-6.1772e-05,-0.001292,0.056992,-0.014911,-0.013577,-0.00020285,-0.00032121,-0.0067184,0,0,0,0.030214,0.0029808,0.0024359,0.013889,0.011877,0.02751,1.0751e-06,0.3,0.6,0.55
0.017198,-0.0013596,-0.00091314,0.031056,0.0021888,0.0026878,0.00015272,-6.3385e-05,-0.0014416,0.059185,-0.015868,-0.014571,0.00079412,-0.0003296,-0.0074961,0,0,0,0.031139,0.0026735,0.0021198,0.014509,0.011977,0.028747,1.2271e-06,0.35,0.6,0.55
0.020208,-0.0014581,-0.000827,0.032638,0.0019079,0.002068,0.00033931,2.2543e-05,-0.0015862,0.058771,-0.015708,-0.015232,0.0015468,3.145e-05,-0.0076873,0,0,0,0.032739,0.0022559,0.0016193,0.01556,0.012205,0.030808,1.6388e-06,0.4,0.6,0.55
0.023112,-0.0015647,-0.00059348,0.033945,0.0011642,0.00067781,0.00045878,0.00015082,-0.0014884,0.052757,-0.014134,-0.015062,0.0017906,0.00054989,-0.0064505,0,0,0,0.034051,0.0013756,0.0003607,0.016845,0.011929,0.033198,2.189e-06,0.45,0.6,0.55
0.025559,-0.0016568,-0.00036122,0.033713,0.00029361,-0.00049997,0.00035109,0.0001666,-0.0009557,0.044286,-0.012319,-0.013858,0.0012249,0.00063253,-0.0038262,0,0,0,0.033778,0.00042506,-0.00069666,0.017237,0.011169,0.033935,2.3209e-06,0.5,0.6,0.55
0.027579,-0.0017083,-0.00024662,0.03371,-0.00030217,-0.00080573,0.00018055,8.9835e-05,-0.00047579,0.039037,-0.011531,-0.012532,0.0005634,0.0003472,-0.0018027,0,0,0,0.033733,-0.00022198,-0.00090879,0.017321,0.010867,0.034311,2.2968e-06,0.55,0.6,0.55
0.029461,-0.0017357,-0.0002155,0.034306,-0.00063179,-0.0008777,0.00013214,3.5977e-05,-0.00016703,0.03757,-0.011483,-0.011998,0.0003753,0.00012875,-0.00059324,0,0,0,0.034314,-0.00057597,-0.00094129,0.017627,0.010932,0.035077,2.3862e-06,0.6,0.6,0.55
0.031332,-0.0017606,-0.00021262,0.034249,-0.00078796,-0.0010389,0.00012396,3.6965e-05,0.00014353,0.037612,-0.011582,-0.012107,0.00033831,0.00013276,0.00056744,0,0,0,0.034256,-0.0007321,-0.0011025,0.017679,0.010807,0.035179,2.4065e-06,0.65,0.6,0.55
0.033218,-0.0017844,-0.00023966,0.033558,-0.00076794,-0.0012953,5.0626e-05,9.5439e-05,0.00041323,0.039199,-0.01185,-0.012895,0.00010709,0.00036974,0.0016361,0,0,0,0.033578,-0.00068551,-0.0013983,0.017488,0.010498,0.034635,2.3608e-06,0.7,0.6,0.55
0.035249,-0.0017867,-0.00035923,0.033487,-0.00051369,-0.0013644,-0.0001564,0.00018279,0.00080594,0.044671,-0.012953,-0.014599,-0.00059765,0.00069582,0.003285,0,0,0,0.033538,-0.00037428,-0.001555,0.017547,0.010536,0.034526,2.4434e-06,0.75,0.6,0.55
0.037724,-0.0017507,-0.00061959,0.033733,2.1416e-05,-0.00052873,-0.00031769,0.00016999,0.0012227,0.053601,-0.015291,-0.016344,-0.0012682,0.00062198,0.0052803,0,0,0,0.033808,0.00025388,-0.00083569,0.017322,0.011075,0.034116,2.3651e-06,0.8,0.6,0.55
0.040687,-0.001709,-0.00090803,0.032634,0.00044442,0.00058709,-0.00028345,2.4153e-05,0.0012017,0.060481,-0.017647,-0.017202,-0.0013153,2.7614e-05,0.0057622,0,0,0,0.032692,0.00084666,0.00012645,0.016283,0.011222,0.032214,1.857e-06,0.85,0.6,0.55
0.04381,-0.0016951,-0.0010656,0.031425,0.00024735,0.00078646,-0.00019829,-8.3517e-05,0.00090149,0.06223,-0.018832,-0.017431,-0.0010311,-0.00043429,0.0046877,0,0,0,0.031457,0.00083998,0.00016153,0.015648,0.01082,0.030963,1.5318e-06,0.9,0.6,0.55
0.04691,-0.0016983,-0.0011067,0.031053,-0.00012952,0.00047715,-0.00011621,-9.8571e-05,0.00051716,0.061898,-0.019177,-0.0176,-0.00060427,-0.00051257,0.0026893,0,0,0,0.031068,0.00053537,-0.00020239,0.015635,0.010467,0.030909,1.5215e-06,0.95,0.6,0.55
0.048456,-0.0017006,-0.0011129,0.030937,-0.0002385,0.000356,-6.5173e-05,-9.5621e-05,0.00026905,0.061803,-0.019253,-0.017707,-0.0003389,-0.00049723,0.0013991,0,0,0,0.030942,0.0004213,-0.00030929,0.015626,0.010351,0.030894,1.5187e-06,1,0.6,0.55
0.00094758,-0.0002129,-9.404e-05,0.025337,0.0096688,0.0097564,-0.0016167,1.087e-05,-0.00073247,0.039019,-0.0017185,-0.0014908,-0.0084068,5.6526e-05,-0.0038088,0,0,0,0.02556,0.009742,0.0094604,0.0080498,0.014921,0.015961,2.112e-07,0,0.65,0.55
0.001951,-0.00042175,-0.00018295,0.025541,0.0086048,0.0087766,-0.0015743,2.0792e-05,-0.00073955,0.040653,-0.0033811,-0.0029344,-0.0081862,0.00010812,-0.0038456,0,0,0,0.025742,0.0087538,0.0084264,0.0086579,0.014307,0.017155,2.6668e-07,0.05,0.65,0.55
0.0040653,-0.00082711,-0.00035174,0.026307,0.0067248,0.0070548,-0.0014496,3.9532e-05,-0.00076202,0.044347,-0.0065678,-0.0057097,-0.007538,0.00020557,-0.0039625,0,0,0,0.026464,0.0070228,0.0066001,0.009932,0.013362,0.019657,3.9983e-07,0.1,0.65,0.55
0.0063857,-0.0012,-0.00050417,0.027389,0.0052025,0.0056653,-0.0012566,5.7407e-05,-0.00081532,0.048258,-0.0094278,-0.0082245,-0.0065342,0.00029852,-0.0042397,0,0,0,0.027506,0.0056329,0.005118,0.011194,0.012752,0.022136,5.6552e-07,0.15,0.65,0.55
0.0088911,-0.0015269,-0.00064229,0.028383,0.0039231,0.0044889,-0.0010251,7.6774e-05,-0.00091947,0.051719,-0.011877,-0.010406,-0.0053307,0.00039922,-0.0047812,0,0,0,0.028473,0.0044571,0.0038647,0.012304,0.012265,0.024318,7.4525e-07,0.2,0.65,0.55
0.011558,-0.0017992,-0.00076496,0.029291,0.0029267,0.0035722,-0.0007927,9.9062e-05,-0.0010831,0.054682,-0.013864,-0.012186,-0.004122,0.00051512,-0.0056323,0,0,0,0.02937,0.0035397,0.0028798,0.013245,0.01193,0.026167,9.2511e-07,0.25,0.65,0.55
0.014359,-0.0020131,-0.00086342,0.030146,0.0022609,0.0029653,-0.00058876,0.00012042,-0.0012893,0.057156,-0.015345,-0.013513,-0.0030615,0.00062619,-0.0067043,0,0,0,0.030228,0.0029301,0.0022136,0.014007,0.011791,0.027664,1.0915e-06,0.3,0.65,0.55
0.017273,-0.002167,-0.00090802,0.031022,0.002006,0.0026557,-0.0004165,0.00011353,-0.0014385,0.059247,-0.016194,-0.014505,-0.0021658,0.00059038,-0.0074803,0,0,0,0.031109,0.0026279,0.0019463,0.014582,0.011895,0.028829,1.2362e-06,0.35,0.65,0.55
0.020284,-0.0022511,-0.00082179,0.032563,0.0017663,0.0020391,-0.00030788,4.7365e-06,-0.0015836,0.058735,-0.01592,-0.015166,-0.0014986,0.00011956,-0.0076729,0,0,0,0.032662,0.0022038,0.0015027,0.01558,0.012123,0.030817,1.637e-06,0.4,0.65,0.55
0.023184,-0.002266,-0.00058895,0.033836,0.0010606,0.00065582,-0.00021533,-0.00015168,-0.0014876,0.052655,-0.014243,-0.014998,-0.00092833,-0.00053204,-0.0064438,0,0,0,0.033936,0.0013144,0.00030177,0.016817,0.011851,0.033144,2.1753e-06,0.45,0.65,0.55
0.025625,-0.0022597,-0.00035777,0.033596,0.00024468,-0.00050885,-5.2194e-06,-0.00018262,-0.00095682,0.044157,-0.012339,-0.013803,-0.00011168,-0.00068363,-0.0038273,0,0,0,0.033658,0.00038901,-0.00071493,0.017187,0.011111,0.033841,2.3007e-06,0.5,0.65,0.55
0.027638,-0.0022767,-0.00024399,0.033594,-0.00029581,-0.00080463,0.00018609,-0.00011312,-0.00047717,0.038898,-0.011484,-0.01249,0.00051484,-0.00041793,-0.0018051,0,0,0,0.033617,-0.00021451,-0.00090887,0.017263,0.010831,0.034191,2.2729e-06,0.55,0.65,0.55
0.029512,-0.0023083,-0.00021331,0.034183,-0.00059371,-0.00087378,0.00019717,-6.3698e-05,-0.00016769,0.037423,-0.011402,-0.011965,0.00054947,-0.00020748,-0.00059397,0,0,0,0.034192,-0.00054083,-0.00093513,0.017563,0.010905,0.034935,2.3577e-06,0.6,0.65,0.55
0.031376,-0.0023379,-0.0002106,0.034128,-0.00073602,-0.0010334,0.00011767,-6.226e-05,0.00014381,0.037461,-0.011486,-0.012078,0.00033706,-0.00020302,0.00056843,0,0,0,0.034136,-0.00068509,-0.0010922,0.017614,0.010786,0.035031,2.3766e-06,0.65,0.65,0.55
0.033254,-0.0023677,-0.00023761,0.033449,-0.00071786,-0.0012897,8.3868e-05,-0.0001095,0.0004142,0.039051,-0.011752,-0.012868,0.00027725,-0.00040645,0.0016387,0,0,0,0.03347,-0.00064235,-0.0013858,0.017428,0.010481,0.034499,2.3332e-06,0.7,0.65,0.55
0.035278,-0.0024188,-0.00035684,0.033386,-0.00047985,-0.0013629,0.00019345,-0.00017858,0.00080624,0.044524,-0.012867,-0.01457,0.00070281,-0.00067106,0.0032853,0,0,0,0.033437,-0.00035037,-0.0015433,0.01749,0.010514,0.034407,2.417e-06,0.75,0.65,0.55
0.037746,-0.0025061,-0.00061654,0.03364,3.5154e-05,-0.0005332,0.00028901,-0.0001457,0.0012218,0.053456,-0.015224,-0.016315,0.0011381,-0.00050819,0.0052763,0,0,0,0.033714,0.00025915,-0.0008309,0.017273,0.011047,0.034017,2.3425e-06,0.8,0.65,0.55
0.040702,-0.0025944,-0.00090435,0.032558,0.00044154,0.00057887,0.0002284,1.739e-05,0.0012008,0.06035,-0.017607,-0.017175,0.0010453,0.0001822,0.0057585,0,0,0,0.032616,0.00084789,0.00011509,0.01625,0.011193,0.032142,1.8435e-06,0.85,0.65,0.55
0.043819,-0.0026457,-0.0010616,0.031364,0.00023122,0.00077687,0.00014536,0.00013682,0.0009013,0.062123,-0.018822,-0.017403,0.00075586,0.00071149,0.0046868,0,0,0,0.031396,0.00084425,0.00013222,0.015632,0.010791,0.030915,1.5245e-06,0.9,0.65,0.55
0.046914,-0.0026667,-0.0011027,0.030999,-0.0001553,0.00046685,7.5701e-05,0.00015861,0.00051722,0.06181,-0.01919,-0.017572,0.00039364,0.00082477,0.0026895,0,0,0,0.031013,0.00054023,-0.00024301,0.015628,0.010437,0.030873,1.5158e-06,0.95,0.65,0.55
0.048458,-0.0026728,-0.0011089,0.030884,-0.00026771,0.00034543,3.0938e-05,0.00015789,0.00026916,0.061722,-0.019273,-0.017679,0.00016088,0.00082101,0.0013996,0,0,0,0.03089,0.00042578,-0.00035343,0.015622,0.010321,0.030862,1.5137e-06,1,0.65,0.55
0.00094812,-0.00030134,-9.2094e-05,0.025343,0.0096105,0.0097498,-0.0022896,2.1925e-05,-0.0007161,0.03907,-0.0018347,-0.0014725,-0.011906,0.00011401,-0.0037237,0,0,0,0.025726,0.0097338,0.009243,0.0082417,0.014901,0.016244,2.2212e-07,0,0.7,0.55
0.0019535,-0.00059584,-0.00017922,0.025542,0.0084824,0.0087575,-0.00223,4.1936e-05,-0.00072113,0.04074,-0.0036148,-0.0028996,-0.011596,0.00021806,-0.0037499,0,0,0,0.025885,0.008733,0.0081633,0.008861,0.014261,0.017445,2.7955e-07,0.05,0.7,0.55
0.004074,-0.0011651,-0.00034454,0.026294,0.0064859,0.0070116,-0.0020561,8.0265e-05,-0.00073733,0.044489,-0.0070115,-0.0056446,-0.010691,0.00041738,-0.0038341,0,0,0,0.026555,0.0069795,0.0062565,0.010149,0.013264,0.019948,4.1619e-07,0.1,0.7,0.55
0.0064024,-0.001684,-0.00049332,0.027337,0.0048861,0.0056004,-0.0017949,0.00011885,-0.00077852,0.048382,-0.0099903,-0.008133,-0.0093333,0.00061801,-0.0040483,0,0,0,0.027524,0.0055727,0.004727,0.011398,0.012608,0.022387,5.8234e-07,0.15,0.7,0.55
0.0089122,-0.0021337,-0.00062687,0.028248,0.0035873,0.0044048,-0.0014999,0.00016401,-0.0008616,0.0517,-0.012417,-0.010291,-0.0077997,0.00085288,-0.0044803,0,0,0,0.028381,0.0043864,0.003472,0.012455,0.01208,0.024466,7.5554e-07,0.2,0.7,0.55
0.011572,-0.0025031,-0.00074357,0.029022,0.0026231,0.0034661,-0.0012295,0.0002193,-0.00099259,0.05439,-0.014247,-0.012055,-0.0063934,0.0011404,-0.0051615,0,0,0,0.029126,0.0034629,0.0025222,0.013302,0.011704,0.026147,9.1951e-07,0.25,0.7,0.55
0.014351,-0.0027869,-0.0008357,0.029681,0.0020076,0.0028174,-0.0010204,0.00027588,-0.0011598,0.056466,-0.015484,-0.013378,-0.005306,0.0014346,-0.0060311,0,0,0,0.029775,0.0028352,0.001895,0.01394,0.011502,0.027423,1.0602e-06,0.3,0.7,0.55
0.017219,-0.0029791,-0.0008803,0.03028,0.0017763,0.0024733,-0.00085511,0.00027986,-0.0012882,0.058011,-0.0161,-0.014287,-0.0044466,0.0014553,-0.0066988,0,0,0,0.030373,0.0025135,0.001644,0.014364,0.01151,0.028305,1.1682e-06,0.35,0.7,0.55
0.020152,-0.0030511,-0.00081411,0.031773,0.0016124,0.0020164,-0.00078985,5.122e-05,-0.0014566,0.057673,-0.015916,-0.014856,-0.0038371,0.00045365,-0.0070488,0,0,0,0.031874,0.0022097,0.0013184,0.015278,0.011801,0.030121,1.5712e-06,0.4,0.7,0.55
0.023016,-0.0029911,-0.00060963,0.033538,0.0010311,0.00094953,-0.00074617,-0.000354,-0.0015147,0.053281,-0.014814,-0.014888,-0.0031885,-0.0012633,-0.0064861,0,0,0,0.033647,0.0015476,0.00032392,0.016662,0.01184,0.032733,2.2058e-06,0.45,0.7,0.55
0.025549,-0.0028914,-0.00038447,0.033214,0.00022431,-0.00018511,-0.00041257,-0.00050687,-0.0011289,0.046106,-0.013248,-0.014023,-0.0017136,-0.0019306,-0.0044769,0,0,0,0.033293,0.00065628,-0.00069694,0.016995,0.011084,0.033342,2.3339e-06,0.5,0.7,0.55
0.027676,-0.002856,-0.00025871,0.032272,-0.00033124,-0.00070991,1.2841e-05,-0.00035561,-0.00060547,0.040165,-0.012002,-0.012743,-0.00017218,-0.0013462,-0.0023553,0,0,0,0.032308,-6.2934e-05,-0.0010138,0.016661,0.01041,0.032865,2.1407e-06,0.55,0.7,0.55
0.029577,-0.0028754,-0.00021805,0.032574,-0.0005656,-0.00086738,0.00017424,-0.00021482,-0.00020095,0.037489,-0.011439,-0.012038,0.00044594,-0.00077827,-0.00076016,0,0,0,0.032586,-0.00041968,-0.0010256,0.016806,0.01038,0.033319,2.14e-06,0.6,0.7,0.55
0.031425,-0.0029088,-0.00021562,0.032526,-0.00067998,-0.0010175,0.00018315,-0.00021433,0.00018321,0.037527,-0.011502,-0.012161,0.00062798,-0.00077803,0.00075975,0,0,0,0.032539,-0.0005415,-0.0011689,0.016854,0.010276,0.033404,2.1557e-06,0.65,0.7,0.55
0.033329,-0.0029591,-0.00025376,0.032135,-0.00068256,-0.0011799,0.00028542,-0.00035735,0.00054959,0.040309,-0.012207,-0.013158,0.0011216,-0.0013572,0.0022058,0,0,0,0.032171,-0.00044092,-0.0014572,0.016814,0.010091,0.033141,2.194e-06,0.7,0.7,0.55
0.035466,-0.0030742,-0.00038723,0.033,-0.00039643,-0.0010224,0.00060257,-0.00051506,0.00098695,0.046435,-0.013662,-0.014849,0.0023519,-0.0019692,0.0039539,0,0,0,0.033072,-2.3397e-05,-0.0014675,0.01727,0.010527,0.033849,2.4417e-06,0.75,0.7,0.55
0.038023,-0.0032752,-0.00064141,0.033327,0.00015182,-0.00020743,0.00077922,-0.00035641,0.0012663,0.053974,-0.015582,-0.016249,0.0032254,-0.0012699,0.0053885,0,0,0,0.033412,0.00056943,-0.00071044,0.017061,0.01109,0.033506,2.3568e-06,0.8,0.7,0.55
0.040935,-0.0034706,-0.00089732,0.03171,0.00048292,0.00059264,0.00061538,7.7535e-05,0.0011025,0.059042,-0.017223,-0.016886,0.0029058,0.00059273,0.0052757,0,0,0,0.031769,0.00095383,6.2598e-05,0.015853,0.010929,0.031273,1.7462e-06,0.85,0.7,0.55
0.043958,-0.0035774,-0.0010297,0.030484,0.00025557,0.00062133,0.00041375,0.00034354,0.00078994,0.060441,-0.018152,-0.017201,0.0021515,0.0017864,0.0041077,0,0,0,0.030514,0.00085196,-5.8237e-06,0.01526,0.010454,0.030102,1.4077e-06,0.9,0.7,0.55
0.046979,-0.0036173,-0.0010659,0.030285,-8.5322e-05,0.00033709,0.00022114,0.00038084,0.00044407,0.060419,-0.018544,-0.017446,0.0011499,0.0019804,0.0023092,0,0,0,0.030299,0.00058415,-0.00034576,0.015322,0.010179,0.030191,1.4168e-06,0.95,0.7,0.55
0.048489,-0.0036279,-0.0010724,0.030226,-0.00018586,0.00024037,0.00010086,0.00037777,0.00022688,0.06042,-0.018652,-0.017544,0.00052446,0.0019644,0.0011798,0,0,0,0.030231,0.00049018,-0.00044059,0.015336,0.010094,0.030218,1.4198e-06,1,0.7,0.55
0.00094864,-0.00039637,-8.9077e-05,0.025342,0.009521,0.009735,-0.0030038,3.0138e-05,-0.00069038,0.039129,-0.0020038,-0.0014475,-0.01562,0.00015672,-0.00359,0,0,0,0.025948,0.0097196,0.0089297,0.0085092,0.014866,0.016639,2.3754e-07,0,0.75,0.55
0.0019565,-0.00078323,-0.00017345,0.025527,0.0082972,0.0087212,-0.0029116,5.7659e-05,-0.00069172,0.040844,-0.0039546,-0.0028522,-0.01514,0.00029983,-0.0035969,0,0,0,0.026064,0.0086981,0.0077835,0.0091403,0.014182,0.017843,2.9711e-07,0.05,0.75,0.55
0.0040844,-0.0015283,-0.00033341,0.026242,0.0061323,0.0069345,-0.0026465,0.00011041,-0.00069672,0.044645,-0.0076414,-0.0055559,-0.013762,0.00057413,-0.0036229,0,0,0,0.026636,0.0069058,0.0057673,0.010434,0.013103,0.020325,4.3665e-07,0.1,0.75,0.55
0.0064209,-0.002199,-0.00047645,0.027208,0.0044382,0.0054898,-0.0022597,0.00016337,-0.000717,0.048459,-0.010742,-0.008008,-0.01175,0.0008495,-0.0037284,0,0,0,0.027472,0.0054696,0.0041943,0.011639,0.012379,0.022669,5.996e-07,0.15,0.75,0.55
0.0089302,-0.0027686,-0.00060275,0.027975,0.0031417,0.0042684,-0.0018415,0.00022431,-0.00076523,0.051505,-0.013063,-0.010134,-0.0095759,0.0011664,-0.0039792,0,0,0,0.028148,0.0042657,0.002972,0.012588,0.011795,0.024556,7.5854e-07,0.2,0.75,0.55
0.011571,-0.0032238,-0.00071011,0.028536,0.0022465,0.0032996,-0.0014777,0.00029637,-0.00084385,0.053744,-0.014608,-0.01187,-0.007684,0.0015411,-0.004388,0,0,0,0.028655,0.0033282,0.0020993,0.013278,0.011361,0.025964,8.956e-07,0.25,0.75,0.55
0.014305,-0.0035614,-0.00079211,0.028898,0.0017093,0.0025954,-0.0012089,0.00036969,-0.00094436,0.055213,-0.015477,-0.013174,-0.0062862,0.0019224,-0.0049107,0,0,0,0.028991,0.0026734,0.0015379,0.013727,0.011068,0.026905,9.9748e-07,0.3,0.75,0.55
0.017093,-0.0037769,-0.00083268,0.029087,0.0014916,0.0021676,-0.0010082,0.0003977,-0.0010231,0.055979,-0.01577,-0.014012,-0.0052426,0.002068,-0.0053199,0,0,0,0.029169,0.0022953,0.0012823,0.013943,0.010916,0.027395,1.0561e-06,0.35,0.75,0.55
0.019903,-0.003845,-0.0007915,0.029814,0.0013574,0.0018263,-0.00090161,0.00018893,-0.0011156,0.05574,-0.015677,-0.01448,-0.0044934,0.0011034,-0.0055487,0,0,0,0.029894,0.0020225,0.0010804,0.014407,0.010999,0.028356,1.2887e-06,0.4,0.75,0.55
0.02268,-0.0037539,-0.00063914,0.031276,0.00089046,0.0011794,-0.00089485,-0.00031026,-0.0012371,0.053498,-0.015327,-0.014641,-0.0040057,-0.0011241,-0.0055464,0,0,0,0.031366,0.0015973,0.00038212,0.015492,0.011115,0.0304,1.7869e-06,0.45,0.75,0.55
0.025298,-0.0035897,-0.00044045,0.031659,0.00011626,0.00022775,-0.00075062,-0.00067202,-0.0011346,0.04856,-0.014426,-0.014185,-0.0031314,-0.0026667,-0.0046766,0,0,0,0.031743,0.00091417,-0.00065393,0.016198,0.010668,0.031649,2.0561e-06,0.5,0.75,0.55
0.0276,-0.0034778,-0.00030017,0.030749,-0.00042752,-0.00049319,-0.000383,-0.00063025,-0.00072543,0.042676,-0.013046,-0.013166,-0.0016542,-0.0024955,-0.0028936,0,0,0,0.030798,0.00021656,-0.0011865,0.015992,0.0099427,0.031316,1.9479e-06,0.55,0.75,0.55
0.02961,-0.0034518,-0.00024193,0.030288,-0.00054518,-0.00073994,1.6998e-05,-0.0004671,-0.00023525,0.039084,-0.01207,-0.012421,-7.5129e-05,-0.0018873,-0.00091691,0,0,0,0.030306,-0.00012773,-0.0011752,0.015741,0.0096676,0.03098,1.8496e-06,0.6,0.75,0.55
0.031522,-0.0034878,-0.00024041,0.030253,-0.00063126,-0.00088237,0.00037202,-0.00047048,0.00023285,0.03913,-0.01211,-0.012563,0.0014149,-0.0019014,0.00097555,0,0,0,0.030275,-0.00023254,-0.0013037,0.015789,0.0095796,0.031067,1.8648e-06,0.65,0.75,0.55
0.033536,-0.0035895,-0.00029877,0.030635,-0.000702,-0.00093898,0.00071288,-0.00064209,0.00068555,0.042824,-0.013185,-0.01363,0.0028419,-0.0025445,0.0027891,0,0,0,0.030693,-0.00012139,-0.0015774,0.016135,0.0096647,0.031577,1.9976e-06,0.7,0.75,0.55
0.035849,-0.0037902,-0.00044997,0.031472,-0.00036635,-0.00053457,0.00096032,-0.00068834,0.00102,0.048858,-0.014716,-0.01506,0.0039351,-0.0027358,0.0042224,0,0,0,0.031556,0.00030619,-0.0012914,0.016424,0.01019,0.032086,2.1438e-06,0.75,0.75,0.55
0.038487,-0.0040704,-0.00067677,0.031074,0.0002174,0.00013763,0.00092537,-0.00030923,0.0010346,0.054065,-0.015843,-0.016023,0.004076,-0.0011096,0.0046044,0,0,0,0.031149,0.000744,-0.00046385,0.015806,0.010476,0.031032,1.8974e-06,0.8,0.75,0.55
0.041303,-0.0043189,-0.00087389,0.029682,0.00047804,0.00047947,0.00069764,0.00023223,0.00081639,0.056794,-0.016521,-0.016514,0.0034233,0.001331,0.0040274,0,0,0,0.029729,0.00093098,-1.9856e-05,0.014874,0.010213,0.029286,1.4156e-06,0.85,0.75,0.55
0.044181,-0.0044609,-0.00097342,0.029098,0.00028661,0.00035354,0.0004938,0.00049113,0.00059084,0.057812,-0.017098,-0.016924,0.0025678,0.0025539,0.0030724,0,0,0,0.029123,0.00082303,-0.0002075,0.014665,0.0099127,0.02883,1.2342e-06,0.9,0.75,0.55
0.047084,-0.0045211,-0.001006,0.02915,3.3315e-05,0.0001437,0.00025978,0.00051873,0.00032354,0.058193,-0.017509,-0.017222,0.0013508,0.0026974,0.0016824,0,0,0,0.02916,0.00062758,-0.00046089,0.01481,0.0097755,0.029093,1.2655e-06,0.95,0.75,0.55
0.04854,-0.0045379,-0.0010132,0.02917,-4.7936e-05,7.7487e-05,0.00011344,0.00051525,0.00016101,0.058322,-0.017644,-0.017318,0.00058988,0.0026793,0.00083726,0,0,0,0.029174,0.00055649,-0.00053074,0.014852,0.0097331,0.029177,1.2758e-06,1,0.75,0.55
0.00095261,-0.00050173,-8.5617e-05,0.025416,0.0093969,0.0097335,-0.0037753,3.4107e-05,-0.00066057,0.039354,-0.0022961,-0.001421,-0.019632,0.00017736,-0.003435,0,0,0,0.026316,0.0097195,0.0085109,0.0089027,0.014849,0.017235,2.6156e-07,0,0.8,0.55
0.0019677,-0.0009913,-0.00016684,0.025574,0.0080117,0.0086748,-0.0036194,6.5393e-05,-0.00065728,0.041136,-0.004526,-0.0028019,-0.018821,0.00034005,-0.0034179,0,0,0,0.026353,0.008654,0.0072533,0.00955,0.014087,0.018443,3.2401e-07,0.05,0.8,0.55
0.0041136,-0.0019293,-0.00032067,0.026219,0.0055871,0.0068112,-0.003187,0.00012535,-0.00064862,0.045,-0.0086442,-0.0054614,-0.016572,0.00065182,-0.0033728,0,0,0,0.026756,0.0067864,0.0050756,0.01084,0.012873,0.020881,4.663e-07,0.1,0.8,0.55
0.0064677,-0.0027582,-0.00045714,0.027064,0.0037957,0.0053207,-0.002589,0.00018468,-0.0006444,0.048658,-0.011839,-0.0078741,-0.013463,0.00096032,-0.0033509,0,0,0,0.02739,0.005306,0.0034838,0.011953,0.01206,0.023053,6.2192e-07,0.15,0.8,0.55
0.0089794,-0.00344,-0.00057522,0.027636,0.0025568,0.0040764,-0.0019837,0.00025011,-0.00065373,0.051292,-0.013914,-0.0099628,-0.010315,0.0013006,-0.0033994,0,0,0,0.027824,0.0040826,0.0023627,0.01273,0.011423,0.024648,7.5961e-07,0.2,0.8,0.55
0.011597,-0.0039639,-0.00067224,0.027942,0.0017832,0.0030836,-0.0014868,0.00032277,-0.00067593,0.052964,-0.015049,-0.011668,-0.0077313,0.0016784,-0.0035148,0,0,0,0.028053,0.0031279,0.0016277,0.013213,0.010936,0.025709,8.644e-07,0.25,0.8,0.55
0.014276,-0.0043346,-0.00074282,0.028016,0.0013571,0.0023378,-0.0011225,0.00039304,-0.00070216,0.053815,-0.015498,-0.012948,-0.005837,0.0020438,-0.0036512,0,0,0,0.028089,0.0024454,0.0011766,0.013456,0.01057,0.026302,9.2866e-07,0.3,0.8,0.55
0.016978,-0.004556,-0.00077594,0.027893,0.0011766,0.0018292,-0.00084734,0.00042425,-0.00070797,0.053983,-0.01548,-0.013784,-0.0044062,0.0022061,-0.0036814,0,0,0,0.027947,0.0020055,0.00094711,0.0135,0.0103,0.026487,9.5136e-07,0.35,0.8,0.55
0.019674,-0.0046206,-0.00075163,0.027773,0.0010365,0.0014763,-0.00064239,0.00029112,-0.00068485,0.053623,-0.015351,-0.014222,-0.0032859,0.0015401,-0.003526,0,0,0,0.027816,0.0016554,0.00081462,0.013501,0.010095,0.026592,9.9433e-07,0.4,0.8,0.55
0.022343,-0.0045307,-0.00065244,0.028095,0.00062977,0.0010558,-0.0005779,-0.0001142,-0.00071779,0.052533,-0.015394,-0.014386,-0.0027079,-0.00040082,-0.0034567,0,0,0,0.02814,0.0012797,0.00035987,0.01389,0.0099267,0.027336,1.1857e-06,0.45,0.8,0.55
0.024945,-0.0043446,-0.00050323,0.028605,-3.9263e-05,0.00041244,-0.00062142,-0.00058282,-0.00075296,0.049793,-0.015188,-0.014193,-0.002605,-0.0025137,-0.0032955,0,0,0,0.02866,0.00087191,-0.00055324,0.014606,0.0096595,0.028534,1.4473e-06,0.5,0.8,0.55
0.027371,-0.0041701,-0.0003721,0.02844,-0.0004791,-0.0001553,-0.00048924,-0.00077101,-0.00056814,0.045831,-0.014367,-0.013613,-0.0019615,-0.0033623,-0.0023558,0,0,0,0.028482,0.00050993,-0.0011858,0.014834,0.0092687,0.028864,1.5245e-06,0.55,0.8,0.55
0.029581,-0.00409,-0.00030475,0.027859,-0.00050086,-0.00036239,-6.251e-05,-0.00071805,-0.00019315,0.043128,-0.013589,-0.013155,-0.00023571,-0.0032632,-0.00077728,0,0,0,0.027876,0.00033938,-0.0012197,0.014548,0.0089987,0.028358,1.4507e-06,0.6,0.8,0.55
0.031703,-0.0041273,-0.00030509,0.027838,-0.00055924,-0.00048743,0.00046208,-0.00072329,0.00020784,0.043179,-0.013607,-0.01331,0.001887,-0.0032835,0.00088949,0,0,0,0.027862,0.00024985,-0.0013205,0.014591,0.0089305,0.028439,1.4643e-06,0.65,0.8,0.55
0.033919,-0.0042867,-0.00037628,0.028367,-0.00066442,-0.00053632,0.00083741,-0.00078431,0.00054998,0.045984,-0.014433,-0.014101,0.0034305,-0.0034137,0.0023129,0,0,0,0.028422,0.00022476,-0.0014804,0.014951,0.0090555,0.029094,1.564e-06,0.7,0.8,0.55
0.036355,-0.0045558,-0.00052018,0.028476,-0.00035748,-0.00022036,0.00085576,-0.00059142,0.00067725,0.050068,-0.01533,-0.015076,0.0036516,-0.0025432,0.0029589,0,0,0,0.028537,0.00037162,-0.0010103,0.014774,0.0092994,0.028888,1.5045e-06,0.75,0.8,0.55
0.038974,-0.0048659,-0.0006943,0.027931,0.00018038,0.00015746,0.00064173,-9.7131e-05,0.00057066,0.052996,-0.015634,-0.015761,0.0030003,-0.00030692,0.0027234,0,0,0,0.027971,0.00058723,-0.00028919,0.01413,0.0094229,0.027837,1.2524e-06,0.8,0.8,0.55
0.041673,-0.0051244,-0.00083081,0.027601,0.00041934,0.000221,0.00047918,0.00034978,0.00044811,0.0544,-0.015725,-0.016249,0.0024356,0.0018459,0.0023012,0,0,0,0.027624,0.0007567,-0.00013873,0.013881,0.0094139,0.027327,1.0794e-06,0.85,0.8,0.55
0.044417,-0.0052871,-0.00090533,0.027745,0.0003105,7.735e-05,0.0003717,0.00053208,0.0003531,0.055258,-0.016073,-0.016679,0.0019328,0.0027668,0.0018361,0,0,0,0.027758,0.00074849,-0.00037382,0.014066,0.0093777,0.027589,1.0772e-06,0.9,0.8,0.55
0.047199,-0.0053682,-0.00093673,0.027941,0.00014001,-5.4382e-05,0.00019152,0.0005585,0.00019216,0.05583,-0.016452,-0.016957,0.00099593,0.0029042,0.00099923,0,0,0,0.027946,0.00062651,-0.0005465,0.014246,0.009342,0.027925,1.1161e-06,0.95,0.8,0.55
0.048597,-0.0053924,-0.00094496,0.028008,7.6111e-05,-9.8743e-05,7.0241e-05,0.00055801,9.1759e-05,0.056029,-0.016593,-0.017048,0.00036525,0.0029016,0.00047715,0,0,0,0.02801,0.00057286,-0.00059771,0.014304,0.0093284,0.028041,1.1299e-06,1,0.8,0.55
0.00096809,-0.00062598,-8.2571e-05,0.02573,0.0092004,0.0097793,-0.0046388,3.2828e-05,-0.00063377,0.040073,-0.002905,-0.0013999,-0.024122,0.00017071,-0.0032956,0,0,0,0.027001,0.009767,0.007942,0.0095295,0.014903,0.018221,3.0377e-07,0,0.85,0.55
0.0020036,-0.0012358,-0.00016102,0.02581,0.0075155,0.0086167,-0.0043413,6.3417e-05,-0.00062567,0.04194,-0.005625,-0.0027618,-0.022575,0.00032977,-0.0032535,0,0,0,0.026865,0.0085985,0.0064783,0.010194,0.013981,0.019421,3.6927e-07,0.05,0.85,0.55
0.004194,-0.0023927,-0.00030938,0.026305,0.0047091,0.0066116,-0.0035858,0.0001224,-0.00060321,0.045818,-0.010332,-0.0053853,-0.018646,0.00063648,-0.0031367,0,0,0,0.026953,0.00659,0.0040828,0.011435,0.012542,0.021732,5.1135e-07,0.1,0.85,0.55
0.0065854,-0.003383,-0.00043986,0.026951,0.0029182,0.0050786,-0.002672,0.00018017,-0.00057535,0.049104,-0.013381,-0.0077644,-0.013894,0.0009369,-0.0029918,0,0,0,0.027291,0.0050666,0.0025903,0.01235,0.011649,0.023565,6.5061e-07,0.15,0.85,0.55
0.0091044,-0.00416,-0.0005504,0.027242,0.0018606,0.0038206,-0.001862,0.00024072,-0.00054903,0.051075,-0.014916,-0.0098202,-0.0096825,0.0012517,-0.002855,0,0,0,0.027408,0.0038282,0.0016866,0.012861,0.010974,0.024724,7.5769e-07,0.2,0.85,0.55
0.011693,-0.0047287,-0.00063808,0.027266,0.0012643,0.0028109,-0.0012596,0.00030266,-0.00052255,0.052087,-0.015518,-0.011496,-0.0065497,0.0015739,-0.0027173,0,0,0,0.027348,0.0028533,0.0011396,0.013104,0.010447,0.025397,8.2893e-07,0.25,0.85,0.55
0.014313,-0.0051113,-0.00069858,0.02713,0.00096638,0.0020478,-0.00083186,0.00035532,-0.00048868,0.052451,-0.015574,-0.012762,-0.0043257,0.0018477,-0.0025411,0,0,0,0.027173,0.0021461,0.00082471,0.013174,0.010048,0.025715,8.6609e-07,0.3,0.85,0.55
0.016938,-0.005325,-0.00072526,0.02688,0.0008431,0.0015091,-0.0005043,0.00036768,-0.00043321,0.052348,-0.015347,-0.013615,-0.0026224,0.0019119,-0.0022527,0,0,0,0.026904,0.0016659,0.00066209,0.013121,0.009744,0.025756,8.7371e-07,0.35,0.85,0.55
0.019548,-0.0053806,-0.00070956,0.026518,0.00072512,0.001129,-0.00023341,0.00027618,-0.00034859,0.051924,-0.015138,-0.014088,-0.0012137,0.0014361,-0.0018127,0,0,0,0.026533,0.0012728,0.00056683,0.012983,0.0094575,0.025621,8.6238e-07,0.4,0.85,0.55
0.02213,-0.005296,-0.00064626,0.026158,0.00042158,0.0007899,-6.644e-05,8.3047e-06,-0.000278,0.051223,-0.015199,-0.014268,-0.00029393,7.3219e-05,-0.0014039,0,0,0,0.026172,0.00090991,0.00028764,0.012942,0.0091232,0.025581,8.7716e-07,0.45,0.85,0.55
0.024673,-0.0051167,-0.00054852,0.025977,-6.2586e-05,0.00042759,-6.521e-05,-0.00038404,-0.00025155,0.050033,-0.015403,-0.014199,-0.00014265,-0.0018606,-0.0011687,0,0,0,0.025997,0.00069012,-0.00034493,0.013171,0.0087806,0.025845,9.4893e-07,0.5,0.85,0.55
0.027148,-0.0049282,-0.00045295,0.025793,-0.00043548,0.00013913,-7.3569e-05,-0.00068337,-0.00020117,0.048517,-0.015414,-0.013971,-0.00013836,-0.0033428,-0.00087952,0,0,0,0.025812,0.00062115,-0.00093565,0.013374,0.008499,0.026008,9.9752e-07,0.55,0.85,0.55
0.029545,-0.0048256,-0.0003967,0.025495,-0.00054074,-4.9974e-06,7.4707e-05,-0.00078338,-7.1535e-05,0.047517,-0.015262,-0.013855,0.00045606,-0.0039133,-0.00030174,0,0,0,0.025504,0.00059232,-0.0011469,0.013326,0.0083165,0.025829,9.7963e-07,0.6,0.85,0.55
0.031908,-0.0048632,-0.00039889,0.025487,-0.00057293,-0.00010169,0.00029344,-0.00078499,9.1013e-05,0.047572,-0.01526,-0.014009,0.0013317,-0.0039186,0.00041064,0,0,0,0.025499,0.0005191,-0.0012056,0.013352,0.0082708,0.025889,9.8762e-07,0.65,0.85,0.55
0.034311,-0.0050459,-0.00046173,0.025764,-0.0005368,-0.0001574,0.00040295,-0.00068507,0.00019704,0.048684,-0.015415,-0.014453,0.0017485,-0.0033445,0.00087004,0,0,0,0.025788,0.00039203,-0.0011098,0.013449,0.0083568,0.026184,1.0203e-06,0.7,0.85,0.55
0.036797,-0.0053308,-0.0005699,0.02592,-0.00024253,-8.97e-05,0.0003096,-0.00037535,0.00020481,0.050328,-0.015413,-0.015067,0.0013659,-0.0018104,0.00093631,0,0,0,0.025942,0.00030016,-0.00065417,0.013298,0.0085292,0.026137,9.8318e-07,0.75,0.85,0.55
0.039358,-0.0056361,-0.00068884,0.026069,0.00015084,-1.509e-06,0.00017828,4.0136e-05,0.000172,0.051679,-0.01521,-0.015628,0.00086741,0.00023973,0.00085629,0,0,0,0.02608,0.00037619,-0.00023804,0.013159,0.0087393,0.026018,9.2322e-07,0.8,0.85,0.55
0.041968,-0.0058917,-0.00078366,0.02639,0.00033778,-3.1182e-05,0.00015656,0.00034068,0.00016479,0.052597,-0.01514,-0.016099,0.00081409,0.0017715,0.0008569,0,0,0,0.026396,0.00055701,-0.00025635,0.013326,0.008899,0.026257,9.2796e-07,0.85,0.85,0.55
0.044618,-0.0060681,-0.00084285,0.026705,0.00029354,-0.00014049,0.00015792,0.00047339,0.00015172,0.053318,-0.015352,-0.01648,0.0008212,0.0024616,0.00078896,0,0,0,0.026709,0.00061122,-0.00046215,0.013586,0.0089527,0.026651,9.6878e-07,0.9,0.85,0.55
0.0473,-0.0061663,-0.00087277,0.026896,0.00018544,-0.00023369,7.4344e-05,0.00051163,8.3964e-05,0.053822,-0.015627,-0.016717,0.00038659,0.0026605,0.00043661,0,0,0,0.026898,0.00054548,-0.00059565,0.013747,0.0089494,0.026942,1.0004e-06,0.95,0.85,0.55
0.048648,-0.0061973,-0.00088163,0.026963,0.00013852,-0.00026748,1.3198e-06,0.00051754,3.4709e-05,0.054003,-0.01574,-0.016796,6.8639e-06,0.0026912,0.00018048,0,0,0,0.026964,0.00050903,-0.00063898,0.013801,0.0089447,0.027047,1.0122e-06,1,0.85,0.55
0.0010121,-0.00079222,-8.1003e-05,0.026594,0.0086681,0.0098821,-0.0055164,2.5633e-05,-0.00061882,0.042058,-0.0045497,-0.0013931,-0.028685,0.00013329,-0.0032179,0,0,0,0.028258,0.0098709,0.0070153,0.010621,0.015048,0.019986,3.863e-07,0,0.9,0.55
0.0021029,-0.0015538,-0.00015797,0.026499,0.0065261,0.0085333,-0.0048697,5.0684e-05,-0.00060658,0.043961,-0.0079668,-0.0027482,-0.025323,0.00026356,-0.0031542,0,0,0,0.027761,0.0085168,0.0052799,0.011241,0.013853,0.021066,4.4921e-07,0.05,0.9,0.55
0.0043961,-0.0029624,-0.00030323,0.026641,0.0034196,0.0063395,-0.0035421,9.9935e-05,-0.00057222,0.047426,-0.012949,-0.0053573,-0.018419,0.00051966,-0.0029755,0,0,0,0.027263,0.00632,0.002817,0.012223,0.012133,0.022906,5.7346e-07,0.1,0.9,0.55
0.0068456,-0.0040964,-0.00042982,0.02682,0.0019494,0.004771,-0.0023234,0.00014822,-0.00052409,0.049607,-0.015056,-0.0077194,-0.012082,0.00077072,-0.0027253,0,0,0,0.02709,0.0047594,0.0016912,0.012699,0.01118,0.024018,6.7311e-07,0.15,0.9,0.55
0.0093569,-0.0049317,-0.00053494,0.026629,0.001174,0.0034633,-0.0014354,0.00019628,-0.00046829,0.050476,-0.015708,-0.0097553,-0.007464,0.0010207,-0.0024351,0,0,0,0.02674,0.0034669,0.0010597,0.01284,0.010422,0.02457,7.3703e-07,0.2,0.9,0.55
0.011893,-0.0055157,-0.00061561,0.026376,0.00077262,0.0024389,-0.00085892,0.00024152,-0.00040455,0.050826,-0.015744,-0.011411,-0.0044664,0.0012559,-0.0021037,0,0,0,0.026422,0.0024678,0.00069781,0.012862,0.0098626,0.02489,7.787e-07,0.25,0.9,0.55
0.014439,-0.005892,-0.00066866,0.026145,0.00059069,0.0016885,-0.00047012,0.00027352,-0.00033047,0.050923,-0.015519,-0.012665,-0.0024446,0.0014223,-0.0017184,0,0,0,0.026164,0.0017548,0.0005052,0.01283,0.0094747,0.02506,8.0201e-07,0.3,0.9,0.55
0.016985,-0.0060907,-0.0006908,0.025929,0.00052019,0.0011739,-0.00017042,0.00026944,-0.00024185,0.050842,-0.015222,-0.013522,-0.00088618,0.0014011,-0.0012576,0,0,0,0.025937,0.0012743,0.00041193,0.012763,0.0092078,0.025107,8.1005e-07,0.35,0.9,0.55
0.019524,-0.0061344,-0.0006795,0.025708,0.0004508,0.00083538,8.5752e-05,0.00019499,-0.0001402,0.050645,-0.015025,-0.014025,0.00044591,0.0010139,-0.00072903,0,0,0,0.025713,0.00092296,0.00035859,0.012677,0.0089982,0.025078,8.0886e-07,0.4,0.9,0.55
0.02205,-0.0060507,-0.00063642,0.025462,0.00028096,0.00060141,0.00028139,1.8547e-05,-4.2558e-05,0.050395,-0.015076,-0.014243,0.0014632,9.6444e-05,-0.0002213,0,0,0,0.025468,0.00066612,0.0002101,0.012629,0.0087815,0.025034,8.0488e-07,0.45,0.9,0.55
0.024563,-0.0058872,-0.00057319,0.0252,-1.656e-05,0.00042644,0.00036275,-0.00023962,2.0294e-05,0.050153,-0.015409,-0.014257,0.0018863,-0.001246,0.00010553,0,0,0,0.025208,0.00056572,-0.0001643,0.012686,0.0085365,0.025018,8.0138e-07,0.5,0.9,0.55
0.027065,-0.0057173,-0.0005111,0.02498,-0.00033361,0.00029483,0.00032397,-0.0004863,3.2815e-05,0.049983,-0.015832,-0.014198,0.0016846,-0.0025287,0.00017064,0,0,0,0.024987,0.0005785,-0.0006248,0.012806,0.0083136,0.025035,7.9933e-07,0.55,0.9,0.55
0.029561,-0.0056235,-0.00047328,0.024866,-0.00052133,0.00019457,0.00021613,-0.00062856,1.8497e-05,0.049927,-0.016079,-0.014217,0.0011239,-0.0032685,9.6184e-05,0,0,0,0.024869,0.00058103,-0.00091172,0.012891,0.0081796,0.02507,8.0009e-07,0.6,0.9,0.55
0.032058,-0.0056606,-0.00047636,0.02488,-0.00053622,0.00011989,8.1914e-05,-0.00062657,-2.4727e-06,0.05001,-0.016073,-0.014367,0.00042595,-0.0032582,-1.2858e-05,0,0,0,0.024883,0.00051978,-0.0009387,0.012911,0.0081547,0.025126,8.0593e-07,0.65,0.9,0.55
0.034562,-0.0058337,-0.0005218,0.025022,-0.00038195,5.8868e-05,-4.9614e-05,-0.00047901,-3.3061e-05,0.050239,-0.015813,-0.014667,-0.00025799,-0.0024908,-0.00017192,0,0,0,0.025026,0.00038582,-0.00071288,0.01287,0.0082331,0.025212,8.1736e-07,0.7,0.9,0.55
0.037082,-0.0060991,-0.00059581,0.025264,-0.00010777,-6.9914e-06,-0.00013986,-0.00022268,-5.2976e-05,0.050596,-0.01537,-0.015107,-0.00072728,-0.0011579,-0.00027548,0,0,0,0.025268,0.00024996,-0.00036891,0.012818,0.008383,0.025335,8.331e-07,0.75,0.9,0.55
0.039622,-0.006387,-0.00067786,0.025536,0.00013742,-8.9667e-05,-0.00014444,5.1517e-05,-3.8477e-05,0.051043,-0.014993,-0.015583,-0.0007511,0.00026789,-0.00020008,0,0,0,0.025538,0.00025553,-0.00021065,0.012875,0.0085278,0.02552,8.5266e-07,0.8,0.9,0.55
0.042186,-0.0066384,-0.00074883,0.025771,0.00024275,-0.00019938,-7.8866e-05,0.00025103,-4.74e-06,0.051516,-0.014858,-0.016007,-0.0004101,0.0013053,-2.4648e-05,0,0,0,0.025773,0.00036825,-0.0003265,0.01305,0.0086048,0.02576,8.759e-07,0.85,0.9,0.55
0.044774,-0.0068223,-0.00079881,0.025946,0.00022356,-0.00032011,-1.2722e-05,0.00035619,1.8586e-05,0.05195,-0.014928,-0.016342,-6.6153e-05,0.0018522,9.6646e-05,0,0,0,0.025947,0.00041604,-0.00051341,0.01323,0.0086165,0.026008,9.0033e-07,0.9,0.9,0.55
0.047381,-0.0069309,-0.00082718,0.026057,0.00016267,-0.0004112,-2.1864e-05,0.00039836,9.6065e-06,0.052263,-0.015062,-0.016554,-0.00011369,0.0020715,4.9954e-05,0,0,0,0.026057,0.00038604,-0.00063509,0.013346,0.0086028,0.026197,9.196e-07,0.95,0.9,0.55
0.048689,-0.0069664,-0.00083626,0.026096,0.00013379,-0.00044422,-5.564e-05,0.00040836,-5.307e-06,0.052378,-0.015123,-0.016626,-0.00028933,0.0021235,-2.7596e-05,0,0,0,0.026096,0.00036539,-0.00067632,0.013386,0.0085951,0.026267,9.2693e-07,1,0.9,0.55
0.0012071,-0.001081,-8.2261e-05,0.030216,0.0086405,0.010952,-0.006588,1.595e-05,-0.00062881,0.048677,-0.0074197,-0.0014102,-0.034258,8.2941e-05,-0.0032698,0,0,0,0.032313,0.010941,0.006555,0.012879,0.016603,0.023897,6.7542e-07,0,0.95,0.55
0.0024338,-0.0020325,-0.00016019,0.028842,0.0056133,0.0089468,-0.0051646,3.2762e-05,-0.00061451,0.048947,-0.011446,-0.0027793,-0.026856,0.00017036,-0.0031955,0,0,0,0.030217,0.0089303,0.0042538,0.012982,0.014467,0.023992,6.4884e-07,0.05,0.95,0.55
0.0048947,-0.0036876,-0.00030676,0.026935,0.001948,0.0059593,-0.0028798,6.6563e-05,-0.00057167,0.049126,-0.015841,-0.0054115,-0.014975,0.00034613,-0.0029727,0,0,0,0.027372,0.0059395,0.0015308,0.012921,0.011614,0.023957,6.2847e-07,0.1,0.95,0.55
0.0073464,-0.0048885,-0.00043331,0.025953,0.00095461,0.0041785,-0.001555,9.9637e-05,-0.0005066,0.048827,-0.01617,-0.0077876,-0.0080862,0.00051811,-0.0026343,0,0,0,0.026101,0.004165,0.00082077,0.01264,0.010362,0.023793,6.4597e-07,0.15,0.95,0.55
0.0097774,-0.0057307,-0.00053671,0.025279,0.00045313,0.0028053,-0.00083892,0.00013103,-0.00042606,0.048602,-0.015944,-0.0098283,-0.0043624,0.00068134,-0.0022155,0,0,0,0.025331,0.0028025,0.00040389,0.012463,0.0095123,0.023825,6.7181e-07,0.2,0.95,0.55
0.012207,-0.0063031,-0.00061371,0.024953,0.00024791,0.0018206,-0.00043618,0.00015879,-0.00033159,0.048664,-0.015568,-0.011479,-0.0022681,0.00082572,-0.0017243,0,0,0,0.024972,0.0018335,0.00021577,0.012378,0.009007,0.023992,6.998e-07,0.25,0.95,0.55
0.014644,-0.0066631,-0.00066164,0.024821,0.00017678,0.0011398,-0.00017876,0.00017549,-0.00022546,0.048852,-0.015223,-0.012719,-0.00092955,0.00091254,-0.0011724,0,0,0,0.024827,0.0011739,0.00013608,0.012346,0.0087125,0.024192,7.2392e-07,0.3,0.95,0.55
0.017092,-0.0068471,-0.00067897,0.024809,0.00016992,0.00071303,2.2457e-05,0.00016691,-0.00011169,0.049088,-0.014973,-0.013561,0.00011678,0.00086792,-0.00058077,0,0,0,0.024811,0.00076372,0.00011681,0.012347,0.0085639,0.024379,7.4334e-07,0.35,0.95,0.55
0.019553,-0.006883,-0.00066643,0.024886,0.0001682,0.0004906,0.00020099,0.00011416,6.9491e-08,0.049378,-0.01489,-0.014052,0.0010452,0.00059365,3.6156e-07,0,0,0,0.024889,0.00053194,0.00012384,0.012383,0.0085151,0.024565,7.6116e-07,0.4,0.95,0.55
0.02203,-0.0068036,-0.00062902,0.02504,0.00011732,0.00041471,0.0003437,4.9165e-06,9.0203e-05,0.04976,-0.015038,-0.014265,0.0017873,2.5565e-05,0.00046906,0,0,0,0.025046,0.00044244,8.3487e-05,0.012481,0.0085239,0.024785,7.8169e-07,0.45,0.95,0.55
0.024529,-0.0066576,-0.00057782,0.02524,-1.0236e-05,0.00041845,0.00040852,-0.00014625,0.00013461,0.050236,-0.015416,-0.014301,0.0021243,-0.00076048,0.00069995,0,0,0,0.025249,0.00048259,-8.2503e-05,0.012666,0.0085496,0.025054,8.0628e-07,0.5,0.95,0.55
0.027053,-0.0065114,-0.00052919,0.02544,-0.0001746,0.00044061,0.00035949,-0.00029637,0.00012021,0.05072,-0.015878,-0.014278,0.0018693,-0.0015411,0.0006251,0,0,0,0.025447,0.00057863,-0.00031917,0.012883,0.0085687,0.02533,8.3105e-07,0.55,0.95,0.55
0.029601,-0.0064335,-0.00050054,0.025586,-0.00028713,0.00043779,0.00020338,-0.0003919,5.2946e-05,0.051081,-0.016188,-0.014304,0.0010576,-0.0020379,0.00027532,0,0,0,0.025589,0.00063179,-0.00048408,0.013036,0.0085789,0.025535,8.4963e-07,0.6,0.95,0.55
0.032161,-0.0064704,-0.00050394,0.025641,-0.00028957,0.0003818,1.6717e-07,-0.00038969,-4.0268e-05,0.051227,-0.016193,-0.014447,8.6994e-07,-0.0020264,-0.0002094,0,0,0,0.025642,0.0005834,-0.00049237,0.013067,0.0085778,0.025615,8.5808e-07,0.65,0.95,0.55
0.034723,-0.0066271,-0.00054067,0.025605,-0.00018359,0.00026118,-0.00016773,-0.00028937,-0.00012106,0.051163,-0.015887,-0.01473,-0.0008722,-0.0015047,-0.00062951,0,0,0,0.025607,0.00042423,-0.00034901,0.012978,0.0085607,0.02558,8.5672e-07,0.7,0.95,0.55
0.037278,-0.0068678,-0.00060113,0.025511,-2.9421e-05,8.1544e-05,-0.00024317,-0.00013283,-0.00016296,0.050991,-0.015414,-0.015126,-0.0012645,-0.00069069,-0.00084741,0,0,0,0.025515,0.0002371,-0.00018881,0.012852,0.008521,0.025494,8.5008e-07,0.75,0.95,0.55
0.039822,-0.0071354,-0.00067035,0.025408,8.4388e-05,-0.00013678,-0.0002237,2.798e-05,-0.00016008,0.050847,-0.014994,-0.015569,-0.0011632,0.0001455,-0.00083241,0,0,0,0.025411,0.00015385,-0.0002098,0.012811,0.0084518,0.025442,8.4514e-07,0.8,0.95,0.55
0.042362,-0.0073775,-0.0007341,0.025334,0.00011691,-0.00035787,-0.00015086,0.00015133,-0.00012461,0.050814,-0.014752,-0.015987,-0.00078449,0.00078694,-0.00064798,0,0,0,0.025337,0.00017046,-0.00041353,0.012875,0.0083645,0.025464,8.4645e-07,0.85,0.95,0.55
0.044904,-0.007561,-0.00078296,0.025303,9.1131e-05,-0.00054249,-7.548e-05,0.00022331,-7.8359e-05,0.050877,-0.014674,-0.016321,-0.0003925,0.0011612,-0.00040747,0,0,0,0.025304,0.0001774,-0.00062961,0.012967,0.0082839,0.02554,8.5303e-07,0.9,0.95,0.55
0.04745,-0.0076725,-0.00081284,0.025298,5.1745e-05,-0.00066285,-6.1687e-05,0.00025574,-4.5736e-05,0.050963,-0.014678,-0.016536,-0.00032077,0.0013299,-0.00023783,0,0,0,0.025299,0.00015321,-0.00076477,0.013032,0.008229,0.025617,8.6019e-07,0.95,0.95,0.55
0.048724,-0.0077096,-0.00082281,0.0253,3.4307e-05,-0.00070441,-8.0437e-05,0.00026442,-3.6161e-05,0.051001,-0.014689,-0.016609,-0.00041827,0.001375,-0.00018804,0,0,0,0.0253,0.00013968,-0.00081028,0.013055,0.0082099,0.025649,8.6323e-07,1,0.95,0.55
0.0013703,-0.0012718,-8.3787e-05,0.033218,0.0090205,0.011959,-0.0072427,1.141e-05,-0.00064208,0.053849,-0.009065,-0.001426,-0.037662,5.9334e-05,-0.0033388,0,0,0,0.03556,0.011947,0.0066902,0.014435,0.018066,0.026666,9.0935e-07,0,1,0.55
0.0026924,-0.0023273,-0.00016295,0.030681,0.005368,0.0094105,-0.0052925,2.3991e-05,-0.00062751,0.052494,-0.013319,-0.0028083,-0.027521,0.00012475,-0.0032631,0,0,0,0.032106,0.0093936,0.0039595,0.014073,0.015153,0.025885,7.9725e-07,0.05,1,0.55
0.0052494,-0.0040942,-0.00031156,0.026974,0.0012209,0.0057267,-0.0024079,4.9476e-05,-0.00058141,0.049779,-0.017179,-0.0054636,-0.012521,0.00025727,-0.0030234,0,0,0,0.027292,0.0057061,0.00092333,0.013184,0.011307,0.024348,6.4853e-07,0.1,1,0.55
0.0076704,-0.0052993,-0.00043933,0.025173,0.00042983,0.0037526,-0.0010966,7.4157e-05,-0.00050851,0.047837,-0.016496,-0.0078566,-0.0057023,0.00038561,-0.0026442,0,0,0,0.025257,0.0037376,0.00036091,0.012448,0.0097853,0.023401,6.1205e-07,0.15,1,0.55
0.010033,-0.0061317,-0.000543,0.024325,5.2159e-05,0.0023595,-0.00053413,9.6899e-05,-0.00041639,0.047204,-0.015907,-0.0099076,-0.0027775,0.00050388,-0.0021652,0,0,0,0.024353,0.0023533,3.0436e-05,0.012161,0.0089123,0.023256,6.2475e-07,0.2,1,0.55
0.012391,-0.0066927,-0.00061912,0.024055,-5.0986e-05,0.001421,-0.000245,0.00011647,-0.00030718,0.047288,-0.015387,-0.01156,-0.001274,0.00060563,-0.0015973,0,0,0,0.024065,0.0014267,-6.6785e-05,0.012066,0.008475,0.023425,6.5189e-07,0.25,1,0.55
0.014762,-0.0070434,-0.00066502,0.024035,-6.27e-05,0.00079509,-6.7134e-05,0.00012731,-0.00018495,0.047631,-0.015024,-0.012793,-0.00034909,0.00066202,-0.00096173,0,0,0,0.024039,0.00081545,-8.6384e-05,0.012062,0.0082559,0.023689,6.8022e-07,0.3,1,0.55
0.017154,-0.0072211,-0.00067957,0.024169,-2.9612e-05,0.00043096,7.4197e-05,0.0001191,-5.6861e-05,0.048097,-0.014819,-0.013622,0.00038583,0.00061933,-0.00029568,0,0,0,0.02417,0.00046208,-6.2136e-05,0.012116,0.00819,0.023975,7.0737e-07,0.35,1,0.55
0.019572,-0.0072552,-0.0006644,0.02443,1.0951e-05,0.00028544,0.00020301,7.9521e-05,6.3174e-05,0.048682,-0.014807,-0.014094,0.0010556,0.00041351,0.00032851,0,0,0,0.024432,0.00030985,-1.6214e-05,0.012224,0.008242,0.024288,7.3593e-07,0.4,1,0.55
0.022022,-0.0071798,-0.00062554,0.024804,2.2547e-05,0.00030367,0.00030659,2.1938e-06,0.00015316,0.049412,-0.015019,-0.014289,0.0015943,1.1408e-05,0.00079644,0,0,0,0.024809,0.00031781,2.8282e-06,0.012403,0.0083767,0.024651,7.6931e-07,0.45,1,0.55
0.024513,-0.0070433,-0.00057449,0.025244,-1.3771e-05,0.00041384,0.00034861,-0.00010337,0.00018942,0.050248,-0.015422,-0.01431,0.0018127,-0.00053751,0.000985,0,0,0,0.025251,0.00044742,-5.4364e-05,0.012653,0.008548,0.025059,8.0727e-07,0.5,1,0.55
0.027047,-0.0069082,-0.00052709,0.025661,-7.768e-05,0.00053608,0.00029862,-0.00020887,0.00015794,0.051046,-0.015873,-0.014278,0.0015528,-0.0010861,0.00082127,0,0,0,0.025666,0.00061236,-0.00015929,0.012913,0.0087064,0.025449,8.4402e-07,0.55,1,0.55
0.029617,-0.0068379,-0.00049959,0.025947,-0.00012479,0.00059779,0.00016261,-0.00027573,6.5727e-05,0.05161,-0.016176,-0.014298,0.00084555,-0.0014338,0.00034178,0,0,0,0.025949,0.00070704,-0.00023631,0.013093,0.0088066,0.025727,8.7077e-07,0.6,1,0.55
0.032208,-0.0068749,-0.00050315,0.026026,-0.00012047,0.00055283,-1.0579e-05,-0.00027402,-5.495e-05,0.051793,-0.016188,-0.014438,-5.5012e-05,-0.0014249,-0.00028574,0,0,0,0.026027,0.00066691,-0.00023567,0.013131,0.0088195,0.025824,8.8094e-07,0.65,1,0.55
0.034797,-0.0070242,-0.00053898,0.025899,-6.535e-05,0.00039043,-0.00015354,-0.00020357,-0.00016008,0.051603,-0.015904,-0.014719,-0.00079841,-0.0010586,-0.00083239,0,0,0,0.025902,0.00048251,-0.00016002,0.013031,0.0087414,0.025748,8.747e-07,0.7,1,0.55
0.037368,-0.0072534,-0.00059837,0.025641,5.3439e-06,0.00013491,-0.00021928,-9.3537e-05,-0.00021781,0.051197,-0.015455,-0.015118,-0.0011402,-0.00048639,-0.0011326,0,0,0,0.025645,0.00024504,-0.00010903,0.012877,0.0085937,0.025579,8.59e-07,0.75,1,0.55
0.039916,-0.0075105,-0.00066742,0.025355,4.7581e-05,-0.00016383,-0.00020465,1.8664e-05,-0.00022114,0.05078,-0.01502,-0.015569,-0.0010642,9.705e-05,-0.0011499,0,0,0,0.025359,0.0001023,-0.00022266,0.012791,0.008413,0.025421,8.4327e-07,0.8,1,0.55
0.042446,-0.0077461,-0.0007324,0.025124,4.1097e-05,-0.00045028,-0.00014366,0.00010579,-0.00018298,0.050494,-0.014722,-0.016,-0.00074702,0.00055011,-0.00095151,0,0,0,0.025127,6.6633e-05,-0.00047846,0.012803,0.0082383,0.025338,8.3405e-07,0.85,1,0.55
0.044966,-0.0079271,-0.0007834,0.024981,3.3386e-06,-0.00067865,-7.8043e-05,0.00015893,-0.00012411,0.050367,-0.014575,-0.016348,-0.00040582,0.00082644,-0.00064536,0,0,0,0.024982,4.5697e-05,-0.00072219,0.012852,0.0081018,0.025329,8.3212e-07,0.9,1,0.55
0.047483,-0.0080382,-0.00081524,0.024914,-3.3712e-05,-0.00082176,-6.6355e-05,0.00018403,-7.1519e-05,0.050342,-0.014523,-0.016572,-0.00034505,0.00095695,-0.0003719,0,0,0,0.024915,1.6204e-05,-0.00087225,0.012894,0.0080196,0.025355,8.3388e-07,0.95,1,0.55
0.048741,-0.0080754,-0.00082599,0.024897,-4.8407e-05,-0.00087001,-8.4071e-05,0.00019092,-5.0843e-05,0.050344,-0.014513,-0.016649,-0.00043717,0.00099279,-0.00026439,0,0,0,0.024897,3.2486e-06,-0.00092221,0.01291,0.0079927,0.025369,8.3506e-07,1,1,0.55
0.0013269,0.0012184,-0.00013204,0.032194,0.0087342,0.011608,0.0069229,-5.8141e-06,-0.0010028,0.052182,-0.0088127,-0.0013407,0.035999,-3.0233e-05,-0.0052145,0,0,0,0.034438,0.011585,0.0065129,0.013963,0.017512,0.025799,8.2269e-07,0,0,0.6
0.0026091,0.0022266,-0.00026104,0.029778,0.0052026,0.0091655,0.0050362,-1.3848e-05,-0.00097421,0.050935,-0.012961,-0.0026575,0.026188,-7.2007e-05,-0.0050659,0,0,0,0.031148,0.0091315,0.0038668,0.013641,0.014715,0.02509,7.248e-07,0.05,0,0.6
0.0050935,0.0039089,-0.00051054,0.026291,0.0012017,0.0056409,0.0022358,-3.0939e-05,-0.00088878,0.048476,-0.016756,-0.0052135,0.011626,-0.00016088,-0.0046217,0,0,0,0.026603,0.0055997,0.00093068,0.012836,0.011044,0.0237,5.9722e-07,0.1,0,0.6
0.0074567,0.0050478,-0.00073846,0.024682,0.00045066,0.0037594,0.00094514,-4.6272e-05,-0.00075416,0.046837,-0.016163,-0.0075605,0.0049147,-0.00024062,-0.0039217,0,0,0,0.024768,0.0037286,0.00039518,0.012186,0.0096305,0.022898,5.7249e-07,0.15,0,0.6
0.0097772,0.0058316,-0.00093678,0.024022,8.9194e-05,0.0024299,0.00037882,-5.5534e-05,-0.00058797,0.046533,-0.015693,-0.0096073,0.0019699,-0.00028878,-0.0030574,0,0,0,0.024052,0.0024122,7.7191e-05,0.011987,0.0088472,0.022904,5.9587e-07,0.2,0,0.6
0.01211,0.0063659,-0.0011005,0.023944,-2.1136e-05,0.0015251,8.863e-05,-5.8117e-05,-0.00041156,0.046986,-0.015324,-0.011304,0.00046087,-0.00030221,-0.0021401,0,0,0,0.023955,0.0015183,-2.535e-05,0.01199,0.0084827,0.023251,6.3665e-07,0.25,0,0.6
0.014476,0.006721,-0.0012284,0.024107,-6.0041e-05,0.00089213,-6.8462e-05,-5.4094e-05,-0.00024506,0.047715,-0.01512,-0.012644,-0.000356,-0.00028129,-0.0012743,0,0,0,0.024111,0.00089243,-6.4434e-05,0.012088,0.008313,0.023714,6.8179e-07,0.3,0,0.6
0.016881,0.0069457,-0.0013224,0.024375,-6.9269e-05,0.00046331,-0.00015518,-4.4093e-05,-0.00010318,0.048513,-0.015041,-0.013657,-0.00080692,-0.00022928,-0.00053656,0,0,0,0.024377,0.00046707,-7.5051e-05,0.012226,0.0082562,0.024186,7.2599e-07,0.35,0,0.6
0.019327,0.0070767,-0.0013873,0.024677,-6.9244e-05,0.00018699,-0.00019834,-2.9382e-05,5.8231e-06,0.049283,-0.015057,-0.01439,-0.0010314,-0.00015279,3.028e-05,0,0,0,0.024679,0.00019251,-7.6675e-05,0.012378,0.0082648,0.024622,7.6679e-07,0.4,0,0.6
0.02181,0.0071434,-0.0014287,0.024974,-6.7686e-05,2.1255e-05,-0.0002104,-1.1955e-05,7.9382e-05,0.049977,-0.015133,-0.014901,-0.0010941,-6.2163e-05,0.00041279,0,0,0,0.024977,3.5115e-05,-8.3796e-05,0.01253,0.0083093,0.025001,8.0287e-07,0.45,0,0.6
0.024325,0.00717,-0.0014531,0.025242,-6.6887e-05,-6.9739e-05,-0.00019793,5.5339e-06,0.00011926,0.050567,-0.015237,-0.015245,-0.0010292,2.8776e-05,0.00062015,0,0,0,0.025245,-3.2968e-05,-0.00010598,0.012675,0.0083686,0.025314,8.3333e-07,0.5,0,0.6
0.026866,0.0071765,-0.0014663,0.025463,-6.5967e-05,-0.00011587,-0.00016626,2.0123e-05,0.00013038,0.051034,-0.01534,-0.01547,-0.00086457,0.00010464,0.00067796,0,0,0,0.025465,-4.9092e-05,-0.00013468,0.0128,0.0084269,0.025557,8.5737e-07,0.55,0,0.6
0.029428,0.0071782,-0.0014736,0.025622,-6.2776e-05,-0.00014059,-0.00012179,2.9182e-05,0.00011979,0.051366,-0.015414,-0.015617,-0.00063333,0.00015175,0.00062289,0,0,0,0.025623,-4.7822e-05,-0.00015685,0.01289,0.0084728,0.025726,8.7442e-07,0.6,0,0.6
0.032003,0.0071851,-0.0014787,0.025715,-5.5589e-05,-0.00016047,-7.2357e-05,3.1115e-05,9.5639e-05,0.051559,-0.015444,-0.015716,-0.00037625,0.0001618,0.00049732,0,0,0,0.025715,-4.3513e-05,-0.00017323,0.012944,0.0084996,0.025824,8.8445e-07,0.65,0,0.6
0.034584,0.0072025,-0.001484,0.025745,-4.426e-05,-0.00018511,-2.6175e-05,2.5845e-05,6.6006e-05,0.051627,-0.015424,-0.01579,-0.00013611,0.00013439,0.00034323,0,0,0,0.025745,-3.7288e-05,-0.00019236,0.012969,0.0085051,0.02586,8.8811e-07,0.7,0,0.6
0.037166,0.0072304,-0.0014905,0.025723,-3.0357e-05,-0.0002178,9.9147e-06,1.4825e-05,3.7706e-05,0.051595,-0.015364,-0.015851,5.1557e-05,7.7093e-05,0.00019607,0,0,0,0.025723,-2.7874e-05,-0.00022039,0.012972,0.0084916,0.025848,8.8679e-07,0.75,0,0.6
0.039744,0.0072654,-0.001498,0.025668,-1.6356e-05,-0.00025675,3.1914e-05,5.7722e-07,1.5434e-05,0.051499,-0.015279,-0.015904,0.00016595,3.0016e-06,8.0258e-05,0,0,0,0.025668,-1.5771e-05,-0.00025741,0.012963,0.0084648,0.025805,8.8231e-07,0.8,0,0.6
0.042316,0.0073017,-0.0015056,0.025598,-4.495e-06,-0.00029688,3.9131e-05,-1.4016e-05,1.4099e-06,0.051377,-0.01519,-0.01595,0.00020348,-7.2882e-05,7.3312e-06,0,0,0,0.025598,-3.473e-06,-0.00029798,0.012948,0.0084323,0.02575,8.7657e-07,0.85,0,0.6
0.044881,0.0073331,-0.0015122,0.025534,3.9847e-06,-0.00033177,3.3618e-05,-2.6354e-05,-4.4394e-06,0.051265,-0.015113,-0.015986,0.00017482,-0.00013704,-2.3085e-05,0,0,0,0.025534,6.4822e-06,-0.00033433,0.012934,0.008402,0.0257,8.7126e-07,0.9,0,0.6
0.047442,0.0073544,-0.0015167,0.025489,8.8648e-06,-0.00035548,2.6607e-05,-3.451e-05,-5.5209e-06,0.051186,-0.015062,-0.01601,0.00013836,-0.00017945,-2.8709e-05,0,0,0,0.025489,1.2701e-05,-0.00035935,0.012924,0.0083808,0.025665,8.676e-07,0.95,0,0.6
0.048721,0.0073618,-0.0015183,0.025473,1.0431e-05,-0.00036387,2.5136e-05,-3.7351e-05,-5.5827e-06,0.051158,-0.015045,-0.016018,0.00013071,-0.00019423,-2.903e-05,0,0,0,0.025473,1.4781e-05,-0.00036825,0.012921,0.0083733,0.025652,8.663e-07,1,0,0.6
0.0011697,0.0010328,-0.00013095,0.029297,0.0083745,0.010636,0.0062751,-9.7818e-06,-0.00099268,0.047188,-0.0072106,-0.0013318,0.03263,-5.0866e-05,-0.0051619,0,0,0,0.031299,0.010613,0.0063956,0.012451,0.016102,0.023113,6.1133e-07,0,0.05,0.6
0.0023594,0.0019397,-0.00025901,0.027992,0.0054479,0.0087117,0.0048924,-2.1102e-05,-0.00096338,0.047488,-0.011126,-0.0026406,0.025441,-0.00010973,-0.0050096,0,0,0,0.029305,0.0086786,0.0041679,0.012569,0.014051,0.023235,5.8959e-07,0.05,0.05,0.6
0.0047488,0.0035127,-0.00050682,0.026214,0.0019124,0.0058468,0.0026611,-4.3898e-05,-0.00087795,0.047772,-0.015412,-0.0051821,0.013838,-0.00022827,-0.0045653,0,0,0,0.026629,0.005807,0.0015369,0.012546,0.011324,0.023267,5.7601e-07,0.1,0.05,0.6
0.0071366,0.0046464,-0.00073339,0.02536,0.00096183,0.0041382,0.0013452,-6.3465e-05,-0.00074581,0.047659,-0.015775,-0.0075165,0.006995,-0.00033002,-0.0038782,0,0,0,0.025497,0.0041088,0.0008542,0.012321,0.010153,0.023195,5.984e-07,0.15,0.05,0.6
0.0095148,0.0054373,-0.00093071,0.024831,0.00047182,0.0028143,0.00061711,-7.5419e-05,-0.0005838,0.04769,-0.015644,-0.0095532,0.003209,-0.00039218,-0.0030358,0,0,0,0.024876,0.0027982,0.00044292,0.012217,0.0093724,0.023351,6.3205e-07,0.2,0.05,0.6
0.011906,0.0059793,-0.0010939,0.024666,0.00024737,0.0018524,0.00020615,-7.8638e-05,-0.0004123,0.048072,-0.015416,-0.011243,0.001072,-0.00040892,-0.002144,0,0,0,0.02468,0.0018477,0.00023768,0.012221,0.0089219,0.023683,6.7242e-07,0.25,0.05,0.6
0.014322,0.0063394,-0.0012218,0.024702,0.00013012,0.0011591,-3.2403e-05,-7.2944e-05,-0.00025034,0.048631,-0.015256,-0.012581,-0.0001685,-0.00037931,-0.0013017,0,0,0,0.024707,0.0011619,0.00012271,0.012292,0.0086637,0.024083,7.1375e-07,0.3,0.05,0.6
0.016769,0.0065664,-0.0013163,0.024843,6.2995e-05,0.00067421,-0.00017128,-5.8954e-05,-0.00011186,0.049243,-0.015184,-0.013595,-0.00089064,-0.00030656,-0.00058166,0,0,0,0.024845,0.00068024,5.4521e-05,0.012395,0.0085267,0.024485,7.5293e-07,0.35,0.05,0.6
0.019246,0.0066975,-0.0013818,0.025029,1.7422e-05,0.0003478,-0.00024576,-3.8238e-05,-4.7608e-06,0.04984,-0.015192,-0.014333,-0.001278,-0.00019884,-2.4756e-05,0,0,0,0.025032,0.00035383,8.5426e-06,0.012512,0.0084649,0.024854,7.8846e-07,0.4,0.05,0.6
0.021753,0.0067627,-0.0014241,0.025227,-1.9107e-05,0.00013795,-0.00027327,-1.3499e-05,6.8368e-05,0.050383,-0.015257,-0.014849,-0.001421,-7.0194e-05,0.00035551,0,0,0,0.025231,0.00014672,-3.1418e-05,0.012631,0.0084486,0.025174,8.1954e-07,0.45,0.05,0.6
0.024285,0.0067872,-0.0014493,0.025411,-5.0264e-05,9.2836e-06,-0.00026344,1.1483e-05,0.00010904,0.050848,-0.015353,-0.015198,-0.0013699,5.971e-05,0.000567,0,0,0,0.025415,3.292e-05,-7.7493e-05,0.012746,0.0084568,0.025438,8.4555e-07,0.5,0.05,0.6
0.026837,0.0067914,-0.0014633,0.025566,-7.4298e-05,-6.7147e-05,-0.00022417,3.2361e-05,0.00012179,0.051216,-0.015448,-0.015429,-0.0011657,0.00016828,0.00063331,0,0,0,0.025568,-1.7436e-05,-0.00012691,0.012848,0.0084747,0.025641,8.6587e-07,0.55,0.05,0.6
0.029406,0.0067914,-0.0014713,0.025677,-8.7291e-05,-0.00011385,-0.00016495,4.5196e-05,0.00011331,0.051475,-0.015512,-0.015582,-0.00085776,0.00023502,0.00058923,0,0,0,0.025679,-3.7693e-05,-0.00016529,0.012922,0.008492,0.025781,8.8003e-07,0.6,0.05,0.6
0.031985,0.0067979,-0.001477,0.02574,-8.6383e-05,-0.00014698,-9.7418e-05,4.757e-05,9.1467e-05,0.051621,-0.015529,-0.015686,-0.00050657,0.00024736,0.00047563,0,0,0,0.025741,-4.7127e-05,-0.00018713,0.012964,0.0085023,0.025859,8.8799e-07,0.65,0.05,0.6
0.034568,0.006816,-0.0014828,0.025757,-7.2028e-05,-0.00017677,-3.3745e-05,3.9367e-05,6.4088e-05,0.051663,-0.015492,-0.015764,-0.00017547,0.00020471,0.00033326,0,0,0,0.025757,-4.8905e-05,-0.00020022,0.012979,0.0085027,0.025882,8.9038e-07,0.7,0.05,0.6
0.037151,0.0068457,-0.0014896,0.025735,-4.8266e-05,-0.00020815,1.6001e-05,2.2789e-05,3.7769e-05,0.051624,-0.015413,-0.015828,8.3207e-05,0.0001185,0.0001964,0,0,0,0.025735,-3.9822e-05,-0.00021673,0.012976,0.0084929,0.025864,8.8848e-07,0.75,0.05,0.6
0.039731,0.006883,-0.0014974,0.025689,-2.1098e-05,-0.00024165,4.6034e-05,1.626e-06,1.6956e-05,0.051535,-0.01531,-0.015884,0.00023937,8.4554e-06,8.8171e-05,0,0,0,0.025689,-1.9294e-05,-0.00024359,0.012966,0.0084753,0.025821,8.8397e-07,0.8,0.05,0.6
0.042305,0.0069216,-0.0015051,0.025633,3.8314e-06,-0.00027467,5.5442e-05,-1.9857e-05,3.6508e-06,0.051428,-0.015207,-0.015931,0.0002883,-0.00010326,1.8984e-05,0,0,0,0.025633,6.1849e-06,-0.00027717,0.012955,0.008454,0.02577,8.7857e-07,0.85,0.05,0.6
0.044873,0.0069551,-0.0015117,0.025582,2.2819e-05,-0.00030294,4.7248e-05,-3.7891e-05,-2.3142e-06,0.051332,-0.015122,-0.015969,0.00024569,-0.00019703,-1.2034e-05,0,0,0,0.025582,2.8436e-05,-0.00030867,0.012945,0.0084339,0.025724,8.7372e-07,0.9,0.05,0.6
0.047438,0.0069776,-0.0015162,0.025547,3.4324e-05,-0.00032206,3.4686e-05,-4.9751e-05,-4.2291e-06,0.051266,-0.015066,-0.015993,0.00018037,-0.00025871,-2.1991e-05,0,0,0,0.025547,4.283e-05,-0.00033062,0.012939,0.0084196,0.025693,8.7045e-07,0.95,0.05,0.6
0.048719,0.0069855,-0.0015178,0.025534,3.8133e-05,-0.00032882,3.0048e-05,-5.3872e-05,-4.8568e-06,0.051243,-0.015047,-0.016001,0.00015625,-0.00028013,-2.5255e-05,0,0,0,0.025534,4.7735e-05,-0.00033847,0.012936,0.0084145,0.025682,8.693e-07,1,0.05,0.6
0.00097995,0.00075239,-0.00013002,0.025755,0.0084042,0.0095868,0.0052191,-1.8846e-05,-0.00098412,0.040716,-0.0043967,-0.001322,0.027139,-9.7998e-05,-0.0051174,0,0,0,0.027335,0.0095652,0.0068461,0.010244,0.014582,0.01929,3.4834e-07,0,0.1,0.6
0.0020358,0.0014751,-0.00025731,0.025667,0.0063443,0.0082921,0.0045778,-3.7318e-05,-0.00095428,0.042553,-0.0076871,-0.0026228,0.023804,-0.00019406,-0.0049622,0,0,0,0.026861,0.00826,0.0051828,0.010839,0.013435,0.020331,4.0515e-07,0.05,0.1,0.6
0.0042553,0.0028093,-0.00050376,0.025819,0.0033625,0.0061797,0.0032509,-7.201e-05,-0.00086919,0.045913,-0.012475,-0.0051497,0.016904,-0.00037445,-0.0045198,0,0,0,0.026395,0.0061408,0.0028257,0.011785,0.011787,0.02211,5.1764e-07,0.1,0.1,0.6
0.0066271,0.003877,-0.0007292,0.026022,0.0019518,0.0046565,0.0020112,-9.9824e-05,-0.00073996,0.04808,-0.014504,-0.0074716,0.010458,-0.00051908,-0.0038478,0,0,0,0.026257,0.0046287,0.001745,0.012256,0.010877,0.023212,6.0959e-07,0.15,0.1,0.6
0.0090633,0.0046576,-0.0009256,0.025895,0.0011861,0.0033757,0.0010855,-0.00011705,-0.00058273,0.049053,-0.01519,-0.0094973,0.0056448,-0.00060868,-0.0030302,0,0,0,0.025977,0.003363,0.0011163,0.012431,0.010152,0.023822,6.7329e-07,0.2,0.1,0.6
0.011532,0.0052038,-0.0010882,0.025743,0.00074578,0.0023572,0.00047452,-0.00012166,-0.00041664,0.049624,-0.015369,-0.011179,0.0024675,-0.00063261,-0.0021665,0,0,0,0.025768,0.002358,0.00072004,0.012524,0.0096153,0.024273,7.2322e-07,0.25,0.1,0.6
0.014026,0.0055697,-0.0012157,0.025656,0.0004784,0.0015847,8.2453e-05,-0.00011272,-0.0002592,0.050073,-0.015387,-0.012511,0.00042876,-0.00058612,-0.0013478,0,0,0,0.025662,0.0015943,0.00046224,0.0126,0.0092396,0.024655,7.6444e-07,0.3,0.1,0.6
0.01654,0.0058001,-0.0013099,0.02563,0.00030065,0.0010183,-0.00016393,-9.049e-05,-0.0001234,0.050469,-0.015388,-0.013522,-0.00085242,-0.00047055,-0.00064169,0,0,0,0.025633,0.0010305,0.00028547,0.012674,0.008983,0.024984,7.9886e-07,0.35,0.1,0.6
0.019073,0.0059312,-0.0013751,0.025648,0.00016731,0.00061519,-0.00030836,-5.6854e-05,-1.6986e-05,0.050826,-0.015423,-0.014259,-0.0016035,-0.00029564,-8.8328e-05,0,0,0,0.025652,0.00062389,0.00015438,0.012749,0.00881,0.025266,8.2773e-07,0.4,0.1,0.6
0.021622,0.0059936,-0.001417,0.025689,5.609e-05,0.00033588,-0.0003748,-1.5829e-05,5.6912e-05,0.051144,-0.015503,-0.014776,-0.001949,-8.2311e-05,0.00029594,0,0,0,0.025695,0.00034029,4.5809e-05,0.012825,0.0086938,0.025504,8.5183e-07,0.45,0.1,0.6
0.024187,0.0060137,-0.0014417,0.02574,-3.9291e-05,0.00014676,-0.00037728,2.6316e-05,9.8851e-05,0.051416,-0.015611,-0.015127,-0.0019618,0.00013684,0.00051403,0,0,0,0.025746,0.00015747,-5.6159e-05,0.012901,0.0086159,0.025697,8.7141e-07,0.5,0.1,0.6
0.026764,0.0060136,-0.0014554,0.025786,-0.00011424,2.0947e-05,-0.00032805,6.1882e-05,0.00011253,0.051629,-0.015713,-0.015361,-0.0017059,0.00032179,0.00058514,0,0,0,0.025791,5.2844e-05,-0.0001511,0.012971,0.0085643,0.025841,8.8616e-07,0.55,0.1,0.6
0.02935,0.0060109,-0.0014636,0.025817,-0.00015963,-6.2068e-05,-0.00024268,8.3574e-05,0.00010432,0.051767,-0.015772,-0.015519,-0.001262,0.00043459,0.00054248,0,0,0,0.02582,-5.0495e-06,-0.00021966,0.01302,0.0085318,0.025933,8.9562e-07,0.6,0.1,0.6
0.031941,0.0060172,-0.0014702,0.025827,-0.00016901,-0.0001175,-0.00014099,8.6804e-05,8.2434e-05,0.051825,-0.015763,-0.01563,-0.00073317,0.00045138,0.00042866,0,0,0,0.025828,-4.1049e-05,-0.00024678,0.013037,0.0085134,0.025973,8.9969e-07,0.65,0.1,0.6
0.034532,0.006038,-0.0014775,0.025814,-0.00014398,-0.00015648,-4.3959e-05,7.134e-05,5.5369e-05,0.051808,-0.015682,-0.015715,-0.00022858,0.00037097,0.00028792,0,0,0,0.025814,-6.2612e-05,-0.00023826,0.013026,0.0085045,0.025965,8.9898e-07,0.7,0.1,0.6
0.037121,0.0060726,-0.0014864,0.025784,-9.4765e-05,-0.00018675,3.1318e-05,4.1359e-05,3.0189e-05,0.051736,-0.015548,-0.015787,0.00016285,0.00021506,0.00015698,0,0,0,0.025784,-6.1621e-05,-0.00022009,0.013002,0.0085007,0.025925,8.9483e-07,0.75,0.1,0.6
0.039706,0.0061159,-0.0014963,0.025744,-3.6052e-05,-0.00021276,7.5476e-05,3.877e-06,1.1281e-05,0.051637,-0.015391,-0.01585,0.00039248,2.0161e-05,5.8663e-05,0,0,0,0.025744,-2.8609e-05,-0.00022049,0.012982,0.0084983,0.025869,8.8899e-07,0.8,0.1,0.6
0.042285,0.0061604,-0.0015059,0.025703,1.8565e-05,-0.00023585,8.7655e-05,-3.3492e-05,1.2431e-07,0.051537,-0.015243,-0.015905,0.00045581,-0.00017416,6.4642e-07,0,0,0,0.025704,2.4941e-05,-0.00024257,0.012973,0.0084953,0.025813,8.8308e-07,0.85,0.1,0.6
0.04486,0.0061986,-0.001514,0.025669,6.0322e-05,-0.00025496,7.3337e-05,-6.4367e-05,-4.0559e-06,0.051455,-0.015128,-0.015948,0.00038135,-0.00033471,-2.1091e-05,0,0,0,0.02567,7.4836e-05,-0.00026972,0.01297,0.0084916,0.025769,8.783e-07,0.9,0.1,0.6
0.047431,0.0062241,-0.0015193,0.025647,8.5632e-05,-0.00026781,5.0032e-05,-8.4424e-05,-5.1314e-06,0.051404,-0.015056,-0.015975,0.00026017,-0.000439,-2.6683e-05,0,0,0,0.025647,0.00010701,-0.0002893,0.012968,0.0084884,0.025741,8.7528e-07,0.95,0.1,0.6
0.048716,0.0062331,-0.0015212,0.02564,9.4008e-05,-0.00027237,3.9531e-05,-9.1344e-05,-5.6545e-06,0.051386,-0.015032,-0.015985,0.00020556,-0.00047499,-2.9404e-05,0,0,0,0.02564,0.00011792,-0.00029635,0.012968,0.0084871,0.025731,8.7425e-07,1,0.1,0.6
0.00093342,0.00059315,-0.00013135,0.024814,0.0089095,0.0094535,0.0043774,-2.792e-05,-0.00099503,0.03861,-0.0027416,-0.0013272,0.022762,-0.00014518,-0.0051741,0,0,0,0.026029,0.0094313,0.0077169,0.009156,0.014392,0.017523,2.7073e-07,0,0.15,0.6
0.0019305,0.001171,-0.00025983,0.024884,0.0073154,0.0083434,0.0040679,-5.3308e-05,-0.00096559,0.040374,-0.0053059,-0.0026331,0.021153,-0.0002772,-0.005021,0,0,0,0.025887,0.0083099,0.0063465,0.0097701,0.013514,0.018643,3.2757e-07,0.05,0.15,0.6
0.0040374,0.0022653,-0.00050838,0.025339,0.0046566,0.0064138,0.0032791,-9.8965e-05,-0.00088105,0.044036,-0.0097386,-0.0051698,0.017051,-0.00051462,-0.0045815,0,0,0,0.025937,0.006373,0.0040992,0.010919,0.012137,0.020802,4.5059e-07,0.1,0.15,0.6
0.0063341,0.003196,-0.00073532,0.025934,0.0029479,0.0049151,0.0023105,-0.00013368,-0.0007521,0.047151,-0.012614,-0.007499,0.012015,-0.00069513,-0.0039109,0,0,0,0.026225,0.0048876,0.0026849,0.01177,0.011266,0.022525,5.7121e-07,0.15,0.15,0.6
0.0087524,0.0039183,-0.00093253,0.026204,0.0019092,0.0036703,0.0014262,-0.00015545,-0.00059484,0.049061,-0.014107,-0.0095275,0.0074162,-0.00080836,-0.0030932,0,0,0,0.026323,0.003662,0.0017989,0.012262,0.010595,0.023652,6.663e-07,0.2,0.15,0.6
0.01124,0.0044424,-0.0010951,0.026256,0.001264,0.0026527,0.0007431,-0.00016179,-0.0004278,0.050162,-0.014817,-0.011207,0.0038641,-0.0008413,-0.0022246,0,0,0,0.026296,0.0026621,0.0012145,0.012541,0.010057,0.024392,7.3676e-07,0.25,0.15,0.6
0.013769,0.0048007,-0.0012216,0.026218,0.00084508,0.0018534,0.00025459,-0.0001506,-0.00026788,0.050818,-0.015153,-0.012531,0.0013239,-0.0007831,-0.001393,0,0,0,0.026229,0.0018744,0.00081361,0.012708,0.009639,0.024903,7.8844e-07,0.3,0.15,0.6
0.016322,0.0050276,-0.0013137,0.026159,0.0005521,0.001248,-7.9887e-05,-0.00012087,-0.00012792,0.051237,-0.01534,-0.01353,-0.00041541,-0.0006285,-0.00066516,0,0,0,0.026162,0.0012705,0.00052652,0.012818,0.0093196,0.025272,8.2667e-07,0.35,0.15,0.6
0.018892,0.0051552,-0.0013756,0.026104,0.00032374,0.00080196,-0.00029417,-7.3756e-05,-1.6414e-05,0.051532,-0.015496,-0.014253,-0.0015297,-0.00038353,-8.5351e-05,0,0,0,0.026108,0.00081617,0.00030533,0.012901,0.0090765,0.025551,8.5574e-07,0.4,0.15,0.6
0.021475,0.0052124,-0.0014132,0.026062,0.0001274,0.00047988,-0.00040881,-1.3985e-05,6.1818e-05,0.051761,-0.015671,-0.014754,-0.0021258,-7.2721e-05,0.00032146,0,0,0,0.026069,0.00048659,0.00011388,0.012978,0.0088899,0.025771,8.786e-07,0.45,0.15,0.6
0.024068,0.0052261,-0.0014334,0.026034,-4.5396e-05,0.00025082,-0.00043617,4.94e-05,0.00010532,0.051945,-0.015862,-0.015092,-0.0022681,0.00025688,0.00054765,0,0,0,0.026042,0.00026561,-6.799e-05,0.013055,0.0087465,0.025945,8.9656e-07,0.5,0.15,0.6
0.02667,0.0052201,-0.0014434,0.026012,-0.00018427,9.0609e-05,-0.00038899,0.000104,0.00011644,0.052079,-0.01603,-0.015315,-0.0020228,0.00054078,0.00060546,0,0,0,0.026018,0.0001295,-0.00022965,0.013124,0.0086393,0.02607,9.0951e-07,0.55,0.15,0.6
0.029276,0.0052142,-0.0014496,0.025987,-0.0002703,-1.8442e-05,-0.00028724,0.00013724,0.00010185,0.052147,-0.016122,-0.015467,-0.0014937,0.00071365,0.0005296,0,0,0,0.025991,4.5467e-05,-0.0003381,0.013165,0.0085661,0.02614,9.1667e-07,0.6,0.15,0.6
0.031884,0.0052216,-0.0014565,0.025954,-0.00028998,-8.9786e-05,-0.00015933,0.00014091,7.1858e-05,0.052136,-0.016099,-0.015578,-0.0008285,0.00073272,0.00037366,0,0,0,0.025956,-1.2235e-05,-0.0003691,0.013162,0.0085248,0.026148,9.1766e-07,0.65,0.15,0.6
0.03449,0.0052478,-0.0014667,0.025912,-0.00024614,-0.000135,-3.641e-05,0.00011457,3.7932e-05,0.052052,-0.015958,-0.015669,-0.00018933,0.00059575,0.00019725,0,0,0,0.025912,-5.4849e-05,-0.00032671,0.013119,0.0085102,0.026104,9.1325e-07,0.7,0.15,0.6
0.03709,0.0052909,-0.0014801,0.025864,-0.00015885,-0.00016442,5.6552e-05,6.5702e-05,9.3955e-06,0.051921,-0.015737,-0.015752,0.00029407,0.00034165,4.8857e-05,0,0,0,0.025864,-7.1704e-05,-0.00025187,0.013058,0.0085135,0.026026,9.0532e-07,0.75,0.15,0.6
0.039682,0.0053439,-0.0014953,0.025817,-5.6428e-05,-0.000186,0.0001073,6.4038e-06,-8.7887e-06,0.05178,-0.015492,-0.015828,0.00055794,3.33e-05,-4.5701e-05,0,0,0,0.025818,-3.4821e-05,-0.00020814,0.013013,0.0085249,0.02594,8.9631e-07,0.8,0.15,0.6
0.042268,0.0053973,-0.00151,0.025778,3.6281e-05,-0.00020404,0.00011669,-5.1007e-05,-1.612e-05,0.051658,-0.015272,-0.015897,0.0006068,-0.00026524,-8.3826e-05,0,0,0,0.025779,4.9863e-05,-0.0002182,0.012999,0.0085369,0.025864,8.8831e-07,0.85,0.15,0.6
0.044848,0.0054423,-0.0015221,0.025751,0.00010491,-0.0002191,9.4137e-05,-9.713e-05,-1.4981e-05,0.051571,-0.015109,-0.015952,0.00048951,-0.00050508,-7.7901e-05,0,0,0,0.025752,0.00013394,-0.00024853,0.013,0.0085456,0.025811,8.8249e-07,0.9,0.15,0.6
0.047425,0.0054719,-0.00153,0.025736,0.0001453,-0.00022952,6.19e-05,-0.00012642,-1.1336e-05,0.051522,-0.015013,-0.015988,0.00032188,-0.00065739,-5.8945e-05,0,0,0,0.025736,0.00018645,-0.00027084,0.013003,0.0085504,0.025781,8.7913e-07,0.95,0.15,0.6
0.048713,0.0054823,-0.0015327,0.025731,0.00015843,-0.00023327,4.7418e-05,-0.0001364,-9.9666e-06,0.051506,-0.014981,-0.016,0.00024658,-0.00070928,-5.1826e-05,0,0,0,0.025731,0.0002039,-0.00027884,0.013005,0.0085519,0.025772,8.7806e-07,1,0.15,0.6
0.0009142,0.00047822,-0.00013441,0.024399,0.0090921,0.0093757,0.0035828,-3.4798e-05,-0.0010194,0.037717,-0.0020805,-0.0013432,0.018631,-0.00018095,-0.0053009,0,0,0,0.025284,0.009351,0.0082313,0.0085266,0.014289,0.016524,2.3063e-07,0,0.2,0.6
0.0018858,0.00094452,-0.00026555,0.024534,0.0078155,0.008373,0.0034094,-6.5549e-05,-0.00099037,0.039354,-0.0041129,-0.0026635,0.017729,-0.00034086,-0.0051499,0,0,0,0.025295,0.0083359,0.0070917,0.0091014,0.013574,0.017617,2.8267e-07,0.05,0.2,0.6
0.0039354,0.0018355,-0.00051872,0.025093,0.0055643,0.0065845,0.0029286,-0.00011979,-0.00090628,0.042897,-0.007878,-0.0052256,0.015229,-0.00062289,-0.0047127,0,0,0,0.0256,0.0065406,0.0051011,0.01025,0.012414,0.019823,4.0038e-07,0.1,0.2,0.6
0.0061756,0.0026156,-0.00074899,0.025813,0.0038723,0.0051189,0.0022549,-0.00016013,-0.00077728,0.046231,-0.010814,-0.0075732,0.011726,-0.00083268,-0.0040418,0,0,0,0.026096,0.0050934,0.0036144,0.011241,0.011601,0.021784,5.2736e-07,0.15,0.2,0.6
0.0085585,0.003247,-0.00094827,0.026267,0.0026673,0.0038744,0.001546,-0.00018633,-0.00061903,0.048609,-0.01275,-0.0096117,0.0080392,-0.00096889,-0.003219,0,0,0,0.026401,0.0038757,0.0025318,0.011935,0.010936,0.023229,6.3884e-07,0.2,0.2,0.6
0.011036,0.0037221,-0.0011114,0.026482,0.0018485,0.0028538,0.0009219,-0.00019577,-0.00044899,0.050144,-0.013905,-0.011291,0.0047939,-0.001018,-0.0023347,0,0,0,0.026535,0.0028808,0.0017687,0.012383,0.010395,0.024231,7.2651e-07,0.25,0.2,0.6
0.013573,0.0040545,-0.0012366,0.026534,0.0012834,0.002042,0.0004239,-0.00018476,-0.00028325,0.051073,-0.014579,-0.012606,0.0022043,-0.00096073,-0.0014729,0,0,0,0.02655,0.0020859,0.0012236,0.012663,0.0099531,0.024907,7.9076e-07,0.3,0.2,0.6
0.016144,0.0042661,-0.0013252,0.026495,0.00086971,0.0014156,4.9233e-05,-0.00014967,-0.00013458,0.05162,-0.015007,-0.013588,0.00025601,-0.00077828,-0.00069981,0,0,0,0.026499,0.0014592,0.00082239,0.012838,0.0095936,0.025365,8.3653e-07,0.35,0.2,0.6
0.018735,0.0043816,-0.0013813,0.026419,0.00053508,0.00094309,-0.00021485,-8.9156e-05,-1.2745e-05,0.051952,-0.015347,-0.014286,-0.0011172,-0.00046361,-6.6272e-05,0,0,0,0.026422,0.00096892,0.00050611,0.012958,0.0092991,0.025688,8.6976e-07,0.4,0.2,0.6
0.021339,0.0044266,-0.0014112,0.026336,0.00023655,0.00059086,-0.0003756,-7.2208e-06,7.4525e-05,0.052177,-0.015683,-0.014762,-0.0019531,-3.7548e-05,0.00038753,0,0,0,0.026343,0.00060306,0.00021828,0.013062,0.0090546,0.025934,8.9529e-07,0.45,0.2,0.6
0.023952,0.0044276,-0.0014229,0.026262,-3.6111e-05,0.00033005,-0.00043512,8.4127e-05,0.00012202,0.052347,-0.016027,-0.015075,-0.0022626,0.00043746,0.0006345,0,0,0,0.026269,0.00035721,-7.1146e-05,0.01317,0.0088518,0.026129,9.1543e-07,0.5,0.2,0.6
0.026574,0.0044106,-0.0014256,0.026196,-0.0002623,0.00014018,-0.00039987,0.00016543,0.00012939,0.052465,-0.016326,-0.01528,-0.0020793,0.00086021,0.00067281,0,0,0,0.026203,0.00020374,-0.00033273,0.013268,0.0086913,0.026272,9.2995e-07,0.55,0.2,0.6
0.029199,0.0043987,-0.0014274,0.026134,-0.0004058,8.4565e-06,-0.00029069,0.0002152,0.00010366,0.052507,-0.016497,-0.01542,-0.0015116,0.001119,0.00053903,0,0,0,0.026138,0.00010361,-0.00050499,0.013322,0.0085789,0.026345,9.3729e-07,0.6,0.2,0.6
0.031824,0.0044074,-0.0014344,0.026071,-0.00044022,-7.4866e-05,-0.00014462,0.0002187,5.912e-05,0.05245,-0.016478,-0.015528,-0.000752,0.0011372,0.00030742,0,0,0,0.026072,3.1096e-05,-0.00054765,0.01331,0.0085185,0.026336,9.3649e-07,0.65,0.2,0.6
0.034444,0.0044422,-0.001449,0.026005,-0.00036972,-0.00012149,-4.876e-06,0.00017518,1.2936e-05,0.052306,-0.01627,-0.015624,-2.5355e-05,0.00091092,6.7268e-05,0,0,0,0.026006,-2.6814e-05,-0.00046483,0.013235,0.0085048,0.026255,9.2854e-07,0.7,0.2,0.6
0.037055,0.0044989,-0.0014702,0.025944,-0.0002303,-0.00014567,9.4803e-05,9.8082e-05,-2.1372e-05,0.052113,-0.01594,-0.01572,0.00049298,0.00051002,-0.00011113,0,0,0,0.025945,-6.2335e-05,-0.00031421,0.013129,0.0085227,0.026134,9.164e-07,0.75,0.2,0.6
0.039655,0.0045667,-0.0014943,0.025894,-7.1685e-05,-0.00016036,0.00014085,8.1394e-06,-3.8116e-05,0.051927,-0.015584,-0.015814,0.00073244,4.2325e-05,-0.0001982,0,0,0,0.025895,-2.6518e-05,-0.00020643,0.013051,0.008554,0.026012,9.0379e-07,0.8,0.2,0.6
0.042247,0.0046332,-0.0015175,0.02586,6.5572e-05,-0.00017317,0.00013913,-7.5232e-05,-3.9031e-05,0.051785,-0.015281,-0.015902,0.00072347,-0.00039121,-0.00020296,0,0,0,0.025861,9.1601e-05,-0.00020006,0.013031,0.0085843,0.025917,8.9364e-07,0.85,0.2,0.6
0.044834,0.0046876,-0.0015361,0.025843,0.00016203,-0.00018552,0.00010553,-0.0001393,-2.9689e-05,0.0517,-0.01507,-0.015974,0.00054873,-0.00072436,-0.00015438,0,0,0,0.025844,0.00021389,-0.00023791,0.013041,0.0086065,0.025859,8.8711e-07,0.9,0.2,0.6
0.047417,0.0047228,-0.0015481,0.025837,0.00021612,-0.00019497,6.7623e-05,-0.00017849,-1.9573e-05,0.051661,-0.014953,-0.016022,0.00035164,-0.00092814,-0.00010178,0,0,0,0.025837,0.00028637,-0.00026545,0.013051,0.0086193,0.025831,8.8382e-07,0.95,0.2,0.6
0.048709,0.0047349,-0.0015521,0.025835,0.00023317,-0.00019853,5.2248e-05,-0.00019155,-1.5895e-05,0.05165,-0.014916,-0.016038,0.00027169,-0.00099607,-8.2656e-05,0,0,0,0.025836,0.00030973,-0.00027521,0.013055,0.0086234,0.025823,8.8288e-07,1,0.2,0.6
0.00090747,0.0003851,-0.0001387,0.02425,0.0092134,0.0093564,0.0029077,-3.9668e-05,-0.0010535,0.037359,-0.0017372,-0.0013654,0.01512,-0.00020627,-0.0054782,0,0,0,0.024885,0.0093284,0.0086067,0.0081391,0.014273,0.015931,2.0832e-07,0,0.25,0.6
0.0018679,0.0007597,-0.00027357,0.024401,0.0081164,0.0084026,0.0027991,-7.4385e-05,-0.001025,0.038891,-0.0034495,-0.0027054,0.014556,-0.0003868,-0.0053301,0,0,0,0.024959,0.0083613,0.0075999,0.0086795,0.01364,0.016993,2.5632e-07,0.05,0.25,0.6
0.0038891,0.0014775,-0.00053322,0.024989,0.0061504,0.0066908,0.0024882,-0.00013542,-0.00094202,0.042273,-0.006707,-0.0053018,0.012939,-0.00070417,-0.0048985,0,0,0,0.025385,0.0066456,0.0057997,0.0097925,0.01261,0.019178,3.6725e-07,0.1,0.25,0.6
0.0060952,0.0021146,-0.00076825,0.025754,0.0045719,0.005261,0.0020283,-0.00018139,-0.00081443,0.045608,-0.009465,-0.0076735,0.010547,-0.00094321,-0.0042351,0,0,0,0.025997,0.005245,0.0043446,0.010826,0.011862,0.021219,4.9307e-07,0.15,0.25,0.6
0.0084499,0.0026433,-0.00097072,0.02629,0.0033289,0.0040233,0.0015054,-0.00021356,-0.00065719,0.04817,-0.01153,-0.009725,0.0078281,-0.0011105,-0.0034174,0,0,0,0.026421,0.0040497,0.0031723,0.011624,0.011214,0.022824,6.1086e-07,0.2,0.25,0.6
0.010912,0.0030519,-0.0011352,0.026598,0.0024077,0.0029991,0.0009988,-0.00022922,-0.00048564,0.049952,-0.012943,-0.011405,0.0051937,-0.001192,-0.0025253,0,0,0,0.026657,0.0030677,0.0022798,0.012189,0.010668,0.023994,7.0855e-07,0.25,0.25,0.6
0.013445,0.0033428,-0.0012593,0.026716,0.0017333,0.0021803,0.00055357,-0.00022249,-0.00031409,0.051084,-0.013871,-0.012709,0.0028786,-0.0011569,-0.0016333,0,0,0,0.026737,0.002278,0.0016142,0.012562,0.01021,0.024798,7.8209e-07,0.3,0.25,0.6
0.016021,0.0035269,-0.0013435,0.026703,0.0012185,0.0015427,0.0001847,-0.00018548,-0.00015428,0.05175,-0.014511,-0.013668,0.00096042,-0.00096448,-0.00080223,0,0,0,0.026709,0.0016388,0.0011169,0.012796,0.0098215,0.025335,8.3436e-07,0.35,0.25,0.6
0.01862,0.0036205,-0.0013915,0.026619,0.00078636,0.0010533,-0.00010334,-0.00011145,-1.6921e-05,0.052134,-0.015031,-0.014337,-0.00053736,-0.00057952,-8.7992e-05,0,0,0,0.026621,0.0011114,0.000726,0.012948,0.0094862,0.025705,8.7181e-07,0.4,0.25,0.6
0.021234,0.0036441,-0.0014099,0.026508,0.00038371,0.00067731,-0.00030167,-9.8542e-07,8.6048e-05,0.05238,-0.015544,-0.014781,-0.0015687,-5.1242e-06,0.00044745,0,0,0,0.026513,0.00070409,0.00035238,0.01308,0.0091898,0.025987,9.0083e-07,0.45,0.25,0.6
0.023858,0.0036234,-0.0014083,0.026399,-2.6892e-06,0.00038646,-0.00039578,0.00013093,0.00014291,0.052567,-0.016076,-0.015065,-0.002058,0.00068084,0.00074314,0,0,0,0.026405,0.00043833,-6.1463e-05,0.013233,0.0089274,0.026221,9.2471e-07,0.5,0.25,0.6
0.026491,0.0035875,-0.0013987,0.0263,-0.00033753,0.00016513,-0.00037848,0.00025363,0.00014801,0.052704,-0.016554,-0.015247,-0.0019681,0.0013189,0.00076964,0,0,0,0.026306,0.00027713,-0.00045594,0.013381,0.0087092,0.026404,9.428e-07,0.55,0.25,0.6
0.029128,0.0035645,-0.0013932,0.026211,-0.00055603,9.3337e-06,-0.000267,0.00032992,0.00010811,0.052751,-0.016845,-0.015375,-0.0013884,0.0017156,0.00056218,0,0,0,0.026215,0.00016721,-0.00071756,0.013466,0.0085549,0.026502,9.5219e-07,0.6,0.25,0.6
0.031766,0.0035738,-0.0014,0.02613,-0.00060896,-8.2874e-05,-0.00010735,0.00033311,4.3722e-05,0.052675,-0.016846,-0.015478,-0.00055821,0.0017322,0.00022735,0,0,0,0.026131,8.4265e-05,-0.00077731,0.013454,0.0084793,0.026489,9.5091e-07,0.65,0.25,0.6
0.034396,0.0036208,-0.0014219,0.026056,-0.00050155,-0.00012303,4.21e-05,0.00026193,-1.8601e-05,0.052487,-0.016563,-0.015579,0.00021892,0.001362,-9.6724e-05,0,0,0,0.026057,1.5394e-05,-0.00064055,0.013349,0.0084771,0.026376,9.4021e-07,0.7,0.25,0.6
0.037014,0.003697,-0.0014553,0.025997,-0.00029522,-0.00013294,0.00013758,0.00014083,-5.8778e-05,0.052251,-0.016109,-0.015687,0.0007154,0.0007323,-0.00030565,0,0,0,0.025998,-3.5294e-05,-0.00039391,0.013196,0.008523,0.026216,9.2456e-07,0.75,0.25,0.6
0.039621,0.0037855,-0.0014935,0.025962,-7.1898e-05,-0.00013416,0.00016697,5.8614e-06,-7.0832e-05,0.052047,-0.01564,-0.015802,0.00086825,3.0479e-05,-0.00036833,0,0,0,0.025963,2.5768e-06,-0.00020996,0.013086,0.0085852,0.026068,9.0949e-07,0.8,0.25,0.6
0.042219,0.0038692,-0.0015292,0.025951,0.0001086,-0.00013891,0.00014602,-0.00011223,-6.1225e-05,0.051921,-0.01527,-0.015914,0.00075931,-0.00058359,-0.00031837,0,0,0,0.025952,0.00015693,-0.00018827,0.01307,0.0086403,0.02597,8.9892e-07,0.85,0.25,0.6
0.044813,0.0039352,-0.0015571,0.02596,0.00022577,-0.00014845,0.00010044,-0.00019728,-4.1388e-05,0.051873,-0.015035,-0.016008,0.00052228,-0.0010258,-0.00021521,0,0,0,0.02596,0.00031504,-0.00023826,0.013099,0.008679,0.025926,8.936e-07,0.9,0.25,0.6
0.047406,0.0039767,-0.0015746,0.025973,0.00028651,-0.00015779,6.3064e-05,-0.00024634,-2.5743e-05,0.051869,-0.014916,-0.016071,0.00032794,-0.001281,-0.00013386,0,0,0,0.025973,0.00040155,-0.00027304,0.013123,0.0087006,0.025916,8.9189e-07,0.95,0.25,0.6
0.048703,0.0039907,-0.0015805,0.025979,0.00030465,-0.00016162,5.1468e-05,-0.00026213,-2.1115e-05,0.051873,-0.014881,-0.016094,0.00026763,-0.0013631,-0.0001098,0,0,0,0.025979,0.00042811,-0.0002852,0.013132,0.0087075,0.025916,8.9163e-07,1,0.25,0.6
0.00090677,0.0003045,-0.00014383,0.024246,0.0093157,0.0093734,0.0023103,-4.266e-05,-0.0010944,0.037279,-0.0015403,-0.0013903,0.012013,-0.00022183,-0.0056907,0,0,0,0.024693,0.0093428,0.0088994,0.0078968,0.014312,0.015577,1.9553e-07,0,0.3,0.6
0.0018639,0.00059956,-0.00028315,0.024402,0.0083234,0.0084414,0.002241,-7.9952e-05,-0.001067,0.038744,-0.003059,-0.0027521,0.011653,-0.00041575,-0.0055485,0,0,0,0.0248,0.008399,0.0079673,0.0084164,0.013722,0.016622,2.4102e-07,0.05,0.3,0.6
0.0038744,0.0011648,-0.00055061,0.024994,0.0065384,0.0067667,0.0020395,-0.00014596,-0.000987,0.042005,-0.0059797,-0.0053862,0.010605,-0.00075899,-0.0051324,0,0,0,0.02529,0.006731,0.0062786,0.0095056,0.012766,0.01879,3.4729e-07,0.1,0.3,0.6
0.0060645,0.0016691,-0.00079159,0.025775,0.0050649,0.00536,0.0017352,-0.00019766,-0.00086431,0.045295,-0.0085512,-0.0077839,0.009023,-0.0010278,-0.0044944,0,0,0,0.02597,0.0053758,0.0048539,0.010558,0.012067,0.020861,4.71e-07,0.15,0.3,0.6
0.0084039,0.0020939,-0.00099845,0.02635,0.0038391,0.0041325,0.0013748,-0.00023794,-0.00071299,0.047918,-0.010612,-0.0098488,0.0071492,-0.0012373,-0.0037076,0,0,0,0.026467,0.0042167,0.0036389,0.011414,0.011441,0.022545,5.9099e-07,0.2,0.3,0.6
0.010856,0.0024278,-0.0011654,0.026705,0.0028768,0.0031104,0.0010017,-0.00026415,-0.00054537,0.049818,-0.012136,-0.011528,0.0052087,-0.0013736,-0.0028359,0,0,0,0.026766,0.0032621,0.0026642,0.012051,0.010897,0.023809,6.9377e-07,0.25,0.3,0.6
0.013386,0.0026673,-0.0012892,0.026858,0.0021394,0.0022908,0.00064501,-0.00026792,-0.00037238,0.051058,-0.01321,-0.012817,0.003354,-0.0013932,-0.0019364,0,0,0,0.026885,0.0024913,0.0019119,0.012486,0.010429,0.024688,7.7239e-07,0.3,0.3,0.6
0.015962,0.002815,-0.001369,0.026853,0.0015575,0.001649,0.00031893,-0.00023526,-0.00020263,0.051782,-0.013986,-0.013748,0.0016584,-0.0012233,-0.0010537,0,0,0,0.026862,0.0018505,0.001347,0.012757,0.01002,0.025267,8.2776e-07,0.35,0.3,0.6
0.018564,0.0028785,-0.0014069,0.026745,0.0010526,0.001148,3.4232e-05,-0.00015002,-4.6206e-05,0.05217,-0.014631,-0.014383,0.000178,-0.00078008,-0.00024027,0,0,0,0.026748,0.0012797,0.00091827,0.012915,0.0096486,0.025651,8.664e-07,0.4,0.3,0.6
0.021179,0.0028722,-0.0014091,0.02659,0.00056107,0.00074858,-0.00018811,-3.9192e-06,8.0525e-05,0.052394,-0.015281,-0.014793,-0.00097815,-2.0379e-05,0.00041873,0,0,0,0.026593,0.00081142,0.00049524,0.013049,0.0092998,0.025941,8.9621e-07,0.45,0.3,0.6
0.023803,0.0028199,-0.0013874,0.026428,6.2361e-05,0.00042167,-0.00031613,0.00018688,0.00015581,0.052565,-0.015985,-0.015051,-0.0016439,0.00097177,0.0008102,0,0,0,0.026433,0.00051956,-4.073e-05,0.013237,0.0089706,0.0262,9.2191e-07,0.5,0.3,0.6
0.026436,0.0027552,-0.0013589,0.026282,-0.00039481,0.00015827,-0.00032472,0.0003734,0.00016445,0.052706,-0.016654,-0.015216,-0.0016885,0.0019417,0.00085512,0,0,0,0.026287,0.0003564,-0.00059819,0.013443,0.0086818,0.026423,9.428e-07,0.55,0.3,0.6
0.029074,0.0027142,-0.0013414,0.026162,-0.00070415,-2.9584e-05,-0.00022279,0.0004913,0.00011208,0.052764,-0.017088,-0.015334,-0.0011585,0.0025548,0.00058282,0,0,0,0.026165,0.00024031,-0.000977,0.013571,0.0084761,0.026556,9.5457e-07,0.6,0.3,0.6
0.031712,0.0027228,-0.001348,0.026072,-0.00077801,-0.00012855,-6.322e-05,0.0004947,2.7476e-05,0.052689,-0.017122,-0.015434,-0.00032875,0.0025724,0.00014287,0,0,0,0.026073,0.00014907,-0.0010566,0.013565,0.0083886,0.026549,9.5396e-07,0.65,0.3,0.6
0.034343,0.0027859,-0.0013814,0.026016,-0.000622,-0.00014965,8.1161e-05,0.0003814,-5.0404e-05,0.052495,-0.016764,-0.015536,0.00042204,0.0019833,-0.0002621,0,0,0,0.026017,7.037e-05,-0.0008428,0.01343,0.0084148,0.026417,9.4243e-07,0.7,0.3,0.6
0.036962,0.002888,-0.0014342,0.025996,-0.00033748,-0.00012921,0.00015791,0.0001936,-9.2642e-05,0.052273,-0.016195,-0.015654,0.00082115,0.0010067,-0.00048174,0,0,0,0.025998,8.802e-06,-0.00047689,0.013237,0.0085099,0.026237,9.2607e-07,0.75,0.3,0.6
0.03957,0.0030027,-0.0014934,0.026014,-5.0915e-05,-0.00010458,0.00016,-6.0537e-06,-9.3546e-05,0.052122,-0.015648,-0.015787,0.00083198,-3.148e-05,-0.00048644,0,0,0,0.026016,5.7805e-05,-0.00021474,0.013115,0.0086196,0.026096,9.1223e-07,0.8,0.3,0.6
0.042174,0.0031062,-0.0015469,0.026063,0.00016113,-9.4678e-05,0.00011668,-0.00016809,-6.8423e-05,0.052087,-0.015259,-0.015924,0.00060675,-0.00087406,-0.0003558,0,0,0,0.026064,0.00025037,-0.00018482,0.013124,0.0087099,0.026035,9.0525e-07,0.85,0.3,0.6
0.044779,0.0031841,-0.0015872,0.026125,0.00028426,-9.9738e-05,6.4731e-05,-0.00027451,-3.8274e-05,0.05214,-0.015047,-0.016045,0.0003366,-0.0014275,-0.00019903,0,0,0,0.026126,0.00043436,-0.00025022,0.013188,0.0087699,0.026041,9.0475e-07,0.9,0.3,0.6
0.047388,0.0032312,-0.0016115,0.026176,0.0003395,-0.00010991,4.0582e-05,-0.00033073,-2.3046e-05,0.052213,-0.01496,-0.016129,0.00021103,-0.0017198,-0.00011984,0,0,0,0.026176,0.00052296,-0.00029352,0.013235,0.0088017,0.026071,9.0712e-07,0.95,0.3,0.6
0.048693,0.0032468,-0.0016196,0.026195,0.00035407,-0.0001147,4.0443e-05,-0.00034781,-2.1797e-05,0.052246,-0.01494,-0.016159,0.0002103,-0.0018086,-0.00011334,0,0,0,0.026195,0.00054775,-0.0003085,0.013252,0.0088114,0.026086,9.0845e-07,1,0.3,0.6
0.00090968,0.00023107,-0.0001494,0.024331,0.0094063,0.0094136,0.0017608,-4.3515e-05,-0.0011393,0.03737,-0.001434,-0.0014151,0.0091564,-0.00022628,-0.0059243,0,0,0,0.02464,0.0093854,0.0091253,0.0077574,0.014384,0.015387,1.8878e-07,0,0.35,0.6
0.0018685,0.0004538,-0.00029359,0.024488,0.0084712,0.0084886,0.0017192,-8.1678e-05,-0.0011141,0.038801,-0.0028438,-0.0027985,0.00894,-0.00042472,-0.0057931,0,0,0,0.024767,0.0084579,0.0082229,0.0082722,0.013816,0.016429,2.3316e-07,0.05,0.35,0.6
0.0038801,0.00087948,-0.00056972,0.025085,0.0067915,0.0068281,0.0015974,-0.00015011,-0.00104,0.041999,-0.005565,-0.0054698,0.0083063,-0.0007806,-0.005408,0,0,0,0.025299,0.006829,0.0065765,0.0093615,0.012902,0.018598,3.3745e-07,0.1,0.35,0.6
0.0060684,0.0012594,-0.00081763,0.025878,0.0053916,0.0054348,0.0014138,-0.00020678,-0.00092752,0.045261,-0.0080046,-0.0078922,0.0073517,-0.0010753,-0.0048231,0,0,0,0.026029,0.0055158,0.0051599,0.010435,0.012235,0.020694,4.6061e-07,0.15,0.35,0.6
0.0084061,0.0015821,-0.0010302,0.02648,0.0041935,0.0042177,0.0011938,-0.00025654,-0.00079005,0.047912,-0.010031,-0.0099685,0.0062075,-0.001334,-0.0041083,0,0,0,0.026579,0.0043911,0.0039208,0.011329,0.01163,0.022427,5.8251e-07,0.2,0.35,0.6
0.01086,0.0018384,-0.0012014,0.026863,0.0032219,0.0032037,0.00095497,-0.0002975,-0.00063649,0.049872,-0.011596,-0.011644,0.0049658,-0.001547,-0.0033097,0,0,0,0.026924,0.003466,0.002899,0.012012,0.011096,0.023747,6.8868e-07,0.25,0.35,0.6
0.013393,0.0020217,-0.0013267,0.027033,0.0024583,0.0023918,0.00070793,-0.00031918,-0.0004728,0.051156,-0.012738,-0.012911,0.0036812,-0.0016598,-0.0024585,0,0,0,0.027066,0.0027215,0.0020953,0.012485,0.010628,0.024664,7.699e-07,0.3,0.35,0.6
0.015975,0.0021283,-0.001403,0.027017,0.0018458,0.0017556,0.00045531,-0.00029997,-0.00030159,0.051874,-0.013572,-0.013807,0.0023676,-0.0015598,-0.0015683,0,0,0,0.027033,0.002094,0.001492,0.01277,0.010206,0.025245,8.2512e-07,0.35,0.35,0.6
0.018581,0.0021574,-0.0014293,0.026862,0.0013004,0.0012473,0.00020481,-0.00020941,-0.00012941,0.052195,-0.014265,-0.014403,0.001065,-0.0010889,-0.00067296,0,0,0,0.026868,0.001489,0.001053,0.012907,0.0098032,0.0256,8.6082e-07,0.4,0.35,0.6
0.021195,0.002116,-0.0014101,0.026618,0.00074663,0.00081499,-1.6682e-05,-2.4189e-05,2.3666e-05,0.0523,-0.014967,-0.014789,-8.6745e-05,-0.00012578,0.00012307,0,0,0,0.026621,0.00094456,0.0006143,0.013003,0.0093933,0.025844,8.8601e-07,0.45,0.35,0.6
0.023811,0.0020249,-0.0013591,0.02634,0.00015602,0.00043103,-0.00016374,0.00024356,0.00012649,0.052327,-0.01575,-0.015035,-0.00085143,0.0012665,0.00065775,0,0,0,0.026343,0.0006072,-2.3711e-05,0.013184,0.0089756,0.02606,9.0657e-07,0.5,0.35,0.6
0.026427,0.0019221,-0.0013013,0.026081,-0.00040951,0.00010537,-0.00020281,0.00052049,0.00015331,0.052344,-0.016531,-0.015192,-0.0010546,0.0027065,0.00079723,0,0,0,0.026084,0.00044438,-0.00075244,0.013418,0.0085921,0.026262,9.2309e-07,0.55,0.35,0.6
0.029045,0.0018557,-0.0012654,0.025891,-0.00080023,-0.00012576,-0.00014658,0.00069773,0.00010596,0.052337,-0.017059,-0.015306,-0.00076224,0.0036282,0.00055099,0,0,0,0.025893,0.00033167,-0.0012599,0.013576,0.0083216,0.026395,9.327e-07,0.6,0.35,0.6
0.031661,0.0018615,-0.0012715,0.025801,-0.00089546,-0.00023044,-4.1694e-05,0.00070261,1.938e-05,0.052278,-0.017133,-0.015404,-0.00021681,0.0036536,0.00010077,0,0,0,0.025802,0.00023318,-0.00136,0.013581,0.0082252,0.026404,9.3356e-07,0.65,0.35,0.6
0.034273,0.0019444,-0.0013228,0.025817,-0.00070029,-0.00021874,5.8248e-05,0.00053144,-5.7985e-05,0.052186,-0.01676,-0.015508,0.00030289,0.0027635,-0.00030152,0,0,0,0.025818,0.00013679,-0.0010571,0.013438,0.0082993,0.026302,9.272e-07,0.7,0.35,0.6
0.03688,0.0020775,-0.0014053,0.025918,-0.00034943,-0.00014391,0.00010467,0.00025084,-9.0043e-05,0.052132,-0.016163,-0.015629,0.00054427,0.0013044,-0.00046822,0,0,0,0.025919,6.2839e-05,-0.0005577,0.013239,0.0084749,0.026175,9.1856e-07,0.75,0.35,0.6
0.039486,0.0022208,-0.0014955,0.026068,-1.5485e-05,-6.7114e-05,8.3182e-05,-3.2471e-05,-7.3475e-05,0.052186,-0.015632,-0.015766,0.00043255,-0.00016885,-0.00038207,0,0,0,0.02607,0.00013633,-0.00022016,0.013145,0.0086619,0.026114,9.1386e-07,0.8,0.35,0.6
0.042098,0.0023433,-0.0015732,0.026233,0.00020916,-2.7039e-05,2.7856e-05,-0.00024348,-3.3511e-05,0.052357,-0.015305,-0.015919,0.00014485,-0.0012661,-0.00017426,0,0,0,0.026234,0.00036947,-0.00018819,0.013211,0.0088051,0.026149,9.1662e-07,0.85,0.35,0.6
0.044722,0.0024305,-0.0016287,0.026381,0.00031857,-2.602e-05,-1.4655e-05,-0.00036717,-8.7208e-07,0.052587,-0.015176,-0.016072,-7.6208e-05,-0.0019093,-4.5349e-06,0,0,0,0.026382,0.00056239,-0.00027035,0.013326,0.0088912,0.026246,9.2551e-07,0.9,0.35,0.6
0.047357,0.0024806,-0.0016605,0.026485,0.0003525,-4.0512e-05,-6.3892e-06,-0.000424,-9.5531e-07,0.052783,-0.015162,-0.016183,-3.3224e-05,-0.0022048,-4.9677e-06,0,0,0,0.026485,0.00063531,-0.00032362,0.013404,0.0089323,0.026343,9.3497e-07,0.95,0.35,0.6
0.048677,0.0024967,-0.0016707,0.026522,0.00035771,-4.7944e-05,1.5014e-05,-0.00043949,-1.2051e-05,0.052859,-0.015169,-0.016224,7.8074e-05,-0.0022853,-6.2668e-05,0,0,0,0.026523,0.00065132,-0.00034175,0.013432,0.0089441,0.026382,9.3894e-07,1,0.35,0.6
0.00091481,0.00016111,-0.00015503,0.024471,0.0094854,0.009468,0.0012341,-4.1644e-05,-0.0011852,0.037569,-0.0013925,-0.0014376,0.0064175,-0.00021655,-0.0061633,0,0,0,0.024683,0.0094543,0.0092865,0.0076984,0.014475,0.015314,1.8626e-07,0,0.4,0.6
0.0018785,0.00031518,-0.00030417,0.024632,0.0085741,0.0085415,0.001214,-7.8366e-05,-0.0011632,0.038994,-0.0027558,-0.0028406,0.0063128,-0.0004075,-0.0060489,0,0,0,0.024825,0.0085416,0.0083804,0.0082225,0.013916,0.016365,2.307e-07,0.05,0.4,0.6
0.0038994,0.00060826,-0.00058923,0.02524,0.0069429,0.0068825,0.0011548,-0.00014532,-0.0010986,0.042186,-0.0053879,-0.0055451,0.0060051,-0.00075565,-0.0057125,0,0,0,0.025394,0.0069418,0.0067302,0.0093318,0.013022,0.018559,3.3557e-07,0.1,0.4,0.6
0.006097,0.00086868,-0.00084476,0.026056,0.0055826,0.005497,0.0010695,-0.00020436,-0.0010026,0.045463,-0.0077664,-0.0079889,0.0055613,-0.0010627,-0.0052135,0,0,0,0.02617,0.0056504,0.0053143,0.010428,0.012378,0.02069,4.607e-07,0.15,0.4,0.6
0.0084458,0.0010908,-0.0010644,0.026689,0.0044024,0.004291,0.00097139,-0.00026246,-0.00088907,0.048162,-0.0097832,-0.010073,0.0050512,-0.0013648,-0.0046231,0,0,0,0.026773,0.0045404,0.0040691,0.011352,0.011794,0.022472,5.8636e-07,0.2,0.4,0.6
0.010913,0.0012682,-0.001242,0.027107,0.0034299,0.0032918,0.00086256,-0.00031952,-0.00076413,0.050181,-0.01138,-0.011739,0.0044853,-0.0016615,-0.0039734,0,0,0,0.027167,0.0036324,0.0030293,0.012069,0.011276,0.023842,6.9711e-07,0.25,0.4,0.6
0.013464,0.0013935,-0.0013715,0.027298,0.0026599,0.0024996,0.00073778,-0.00036457,-0.00062822,0.051499,-0.012558,-0.012975,0.0038365,-0.0018957,-0.0032668,0,0,0,0.027339,0.0029143,0.0022038,0.012568,0.010819,0.024788,7.8125e-07,0.3,0.4,0.6
0.016063,0.0014578,-0.0014466,0.027274,0.0020478,0.0018849,0.00058435,-0.00036734,-0.00047482,0.052188,-0.0134,-0.013823,0.0030386,-0.0019102,-0.0024691,0,0,0,0.0273,0.0023185,0.0015877,0.012856,0.010402,0.025355,8.3529e-07,0.35,0.4,0.6
0.018683,0.001452,-0.001461,0.027064,0.0015007,0.0013822,0.0004013,-0.00027578,-0.00030505,0.052398,-0.014066,-0.014374,0.0020868,-0.0014341,-0.0015863,0,0,0,0.027079,0.0017115,0.0011565,0.012961,0.0099822,0.02565,8.6529e-07,0.4,0.4,0.6
0.021303,0.0013755,-0.001415,0.026691,0.00091278,0.00090165,0.00022315,-4.5793e-05,-0.00014632,0.052293,-0.01473,-0.014759,0.0011604,-0.00023812,-0.00076086,0,0,0,0.0267,0.001104,0.00070163,0.012999,0.0095018,0.0258,8.8119e-07,0.45,0.4,0.6
0.023912,0.0012449,-0.0013236,0.026322,0.00024233,0.00039888,0.00012506,0.00031136,-4.7261e-05,0.051924,-0.015436,-0.015038,0.00059131,0.0015889,-0.00021796,0,0,0,0.026332,0.00069356,-6.2445e-05,0.013197,0.0089877,0.026029,9.1437e-07,0.5,0.4,0.6
0.026499,0.0011022,-0.001223,0.02607,-0.000372,-3.4013e-05,8.573e-05,0.00067676,-1.6446e-06,0.051381,-0.016047,-0.015188,0.00031669,0.003446,4.8756e-05,0,0,0,0.026082,0.00051739,-0.00093469,0.013508,0.0085548,0.026325,9.6089e-07,0.55,0.4,0.6
0.029058,0.0010083,-0.0011597,0.025849,-0.00073699,-0.00028957,6.6307e-06,0.00089185,3.6764e-05,0.050983,-0.01641,-0.015261,-3.8511e-05,0.0045687,0.00022231,0,0,0,0.025855,0.00043689,-0.0014691,0.013662,0.0082742,0.026425,9.7387e-07,0.6,0.4,0.6
0.031602,0.0010094,-0.001165,0.025762,-0.00085533,-0.0004041,-9.6684e-05,0.00090011,6.8957e-05,0.050949,-0.016521,-0.015363,-0.00044204,0.0046098,0.00033451,0,0,0,0.025767,0.00032796,-0.0015923,0.01368,0.0081676,0.026454,9.7712e-07,0.65,0.4,0.6
0.034157,0.00111,-0.0012427,0.025819,-0.00072702,-0.00038194,-0.00013522,0.00069551,7.2105e-05,0.051299,-0.016389,-0.015513,-0.00058404,0.0035402,0.00032365,0,0,0,0.025828,0.00018192,-0.0013002,0.013564,0.0082366,0.026424,9.715e-07,0.7,0.4,0.6
0.03674,0.0012717,-0.0013686,0.025931,-0.00035954,-0.00020172,-9.8034e-05,0.000325,5.0166e-05,0.051863,-0.016041,-0.015641,-0.00045429,0.0016583,0.00023526,0,0,0,0.025939,0.00010717,-0.00067592,0.013307,0.0084566,0.026236,9.3605e-07,0.75,0.4,0.6
0.039347,0.0014395,-0.0015018,0.0262,2.1301e-05,-2.2101e-06,-8.6687e-05,-5.4803e-05,5.135e-05,0.052389,-0.015676,-0.015737,-0.00045077,-0.00028497,0.00026702,0,0,0,0.026204,0.00023256,-0.00021729,0.013211,0.0087397,0.0262,9.2269e-07,0.8,0.4,0.6
0.041978,0.0015756,-0.0016104,0.02653,0.00024015,8.9907e-05,-0.0001242,-0.00032076,8.2703e-05,0.052863,-0.015492,-0.015883,-0.00064583,-0.001668,0.00043006,0,0,0,0.026534,0.00050377,-0.00017675,0.013355,0.0089535,0.026378,9.4057e-07,0.85,0.4,0.6
0.044634,0.0016665,-0.0016828,0.02678,0.00030843,9.049e-05,-0.00013553,-0.00045715,9.5147e-05,0.05332,-0.015505,-0.016072,-0.00070477,-0.0023772,0.00049476,0,0,0,0.026782,0.00068279,-0.00028625,0.013534,0.0090595,0.026597,9.6272e-07,0.9,0.4,0.6
0.04731,0.001715,-0.0017216,0.026941,0.00030351,6.2443e-05,-7.582e-05,-0.00050577,5.3019e-05,0.053663,-0.015595,-0.016222,-0.00039426,-0.00263,0.0002757,0,0,0,0.026942,0.00071884,-0.0003541,0.013648,0.0091024,0.026776,9.8166e-07,0.95,0.4,0.6
0.048653,0.0017299,-0.0017336,0.026999,0.00029443,4.8933e-05,-2.4178e-05,-0.00051572,1.5015e-05,0.053791,-0.01564,-0.016278,-0.00012572,-0.0026818,7.808e-05,0,0,0,0.026999,0.0007186,-0.00037582,0.013687,0.009114,0.026845,9.8907e-07,1,0.4,0.6
0.00092107,9.1824e-05,-0.00016026,0.024639,0.0095505,0.0095287,0.00070981,-3.6379e-05,-0.0012285,0.03783,-0.0013995,-0.0014562,0.003691,-0.00018917,-0.0063883,0,0,0,0.024791,0.0095355,0.0093916,0.0076996,0.014573,0.015328,1.8687e-07,0,0.45,0.6
0.0018915,0.00017822,-0.00031401,0.024806,0.0086387,0.0085958,0.00070681,-6.8658e-05,-0.0012106,0.039271,-0.0027636,-0.0028751,0.0036754,-0.00035702,-0.0062954,0,0,0,0.024945,0.0086277,0.0084674,0.0082389,0.014013,0.016398,2.3231e-07,0.05,0.45,0.6
0.0039271,0.0003407,-0.00060756,0.025435,0.0070128,0.0069313,0.00069803,-0.00012858,-0.0011582,0.042505,-0.0053945,-0.0056063,0.0036298,-0.0006686,-0.0060227,0,0,0,0.025549,0.0070302,0.0068006,0.0093741,0.013127,0.018635,3.3995e-07,0.1,0.45,0.6
0.006142,0.0004828,-0.00087081,0.026287,0.005661,0.0055514,0.00069272,-0.00018488,-0.0010843,0.045847,-0.007781,-0.008066,0.0036021,-0.00096139,-0.0056382,0,0,0,0.026377,0.0057314,0.0053913,0.010493,0.0125,0.020818,4.6961e-07,0.15,0.45,0.6
0.0085118,0.0006038,-0.0010984,0.026969,0.0044815,0.0043588,0.00069769,-0.00024614,-0.0010043,0.048635,-0.0098338,-0.010153,0.003628,-0.0012799,-0.0052222,0,0,0,0.027042,0.0046148,0.0041531,0.011444,0.011937,0.022662,6.0179e-07,0.2,0.45,0.6
0.011005,0.00070039,-0.0012844,0.027444,0.003503,0.0033824,0.00070673,-0.00031446,-0.00092378,0.050756,-0.01149,-0.011803,0.003675,-0.0016352,-0.0048037,0,0,0,0.027504,0.0037108,0.0031142,0.012195,0.011443,0.024097,7.2027e-07,0.25,0.45,0.6
0.013587,0.0007659,-0.0014213,0.027682,0.0027311,0.0026242,0.00070535,-0.00038047,-0.00083901,0.052151,-0.012722,-0.013,0.0036678,-0.0019784,-0.0043628,0,0,0,0.027734,0.0030171,0.0022865,0.012724,0.011013,0.02509,8.1064e-07,0.3,0.45,0.6
0.016221,0.00078835,-0.0014982,0.027679,0.0021394,0.0020527,0.00066771,-0.00040789,-0.00073157,0.052843,-0.01356,-0.013786,0.0034721,-0.002121,-0.0038042,0,0,0,0.027722,0.0024702,0.0016786,0.013022,0.010624,0.025657,8.6567e-07,0.35,0.45,0.6
0.018872,0.00075079,-0.0015006,0.027449,0.0016356,0.0015708,0.00058318,-0.00031095,-0.00059455,0.052974,-0.014141,-0.014309,0.0030325,-0.0016169,-0.0030917,0,0,0,0.027483,0.0019044,0.0012682,0.013107,0.010218,0.025903,8.9139e-07,0.4,0.45,0.6
0.021518,0.000643,-0.0014211,0.027159,0.0010685,0.0010237,0.00051055,-9.9335e-06,-0.00048689,0.052677,-0.01466,-0.014776,0.0025996,-8.4125e-05,-0.0024784,0,0,0,0.027189,0.0013021,0.00075973,0.013215,0.0097503,0.026165,9.4064e-07,0.45,0.45,0.6
0.024143,0.00048047,-0.0012783,0.027179,0.00034708,0.00031828,0.00052561,0.00043233,-0.00048167,0.051544,-0.015055,-0.015127,0.0024377,0.0020518,-0.0022217,0,0,0,0.027218,0.00082181,-0.00019526,0.013707,0.0092815,0.026926,1.0927e-06,0.5,0.45,0.6
0.026695,0.00031485,-0.0011269,0.027248,-0.00027679,-0.00029226,0.00047128,0.00078849,-0.00041994,0.049554,-0.015096,-0.015131,0.0019909,0.0037477,-0.0017507,0,0,0,0.027285,0.00053442,-0.0011406,0.014213,0.008893,0.027632,1.239e-06,0.55,0.45,0.6
0.029133,0.00021078,-0.0010339,0.02693,-0.00053925,-0.00054238,0.00018987,0.00092531,-0.00014217,0.048041,-0.014977,-0.014982,0.00075106,0.0045079,-0.00053241,0,0,0,0.026947,0.00042013,-0.001518,0.014232,0.0086162,0.027552,1.2421e-06,0.6,0.45,0.6
0.031515,0.00020548,-0.001038,0.026843,-0.00068254,-0.00067567,-0.0001844,0.00093707,0.0002226,0.048031,-0.015111,-0.015091,-0.00079308,0.0045618,0.00096803,0,0,0,0.026858,0.00029282,-0.0016663,0.014262,0.0084948,0.027603,1.2492e-06,0.65,0.45,0.6
0.033953,0.00030293,-0.0011439,0.026999,-0.00070172,-0.00068826,-0.00043202,0.00081737,0.00045868,0.049545,-0.015515,-0.015479,-0.0018513,0.0038817,0.0019746,0,0,0,0.027032,0.00015035,-0.0015735,0.014303,0.0085362,0.027789,1.2602e-06,0.7,0.45,0.6
0.036505,0.00047255,-0.0013213,0.026813,-0.00034765,-0.0003304,-0.0004292,0.00045801,0.00044406,0.051615,-0.015806,-0.015761,-0.001971,0.0021741,0.0020427,0,0,0,0.026844,0.00017511,-0.00088412,0.013864,0.0087118,0.027221,1.128e-06,0.75,0.45,0.6
0.039137,0.00065317,-0.0015091,0.026735,7.4959e-05,9.4164e-05,-0.00033524,-1.2748e-05,0.00034063,0.052983,-0.015829,-0.015779,-0.0016951,-0.00010103,0.0017225,0,0,0,0.026753,0.0003722,-0.00022052,0.013487,0.0089681,0.026685,9.9713e-07,0.8,0.45,0.6
0.041807,0.0007941,-0.0016563,0.027031,0.00025051,0.00027062,-0.00030649,-0.00035892,0.00030613,0.053749,-0.01588,-0.015827,-0.0015937,-0.0018664,0.0015919,0,0,0,0.027042,0.00064037,-0.00013072,0.013586,0.0091839,0.026797,9.8674e-07,0.85,0.45,0.6
0.044512,0.00088001,-0.0017473,0.027354,0.00024159,0.000262,-0.00026742,-0.00050902,0.0002648,0.054406,-0.016086,-0.016033,-0.0013906,-0.0026469,0.001377,0,0,0,0.027362,0.00077474,-0.0002791,0.013821,0.0092859,0.02713,1.0224e-06,0.9,0.45,0.6
0.047247,0.0009211,-0.0017916,0.027558,0.00018495,0.00020542,-0.00014912,-0.00054163,0.00014592,0.054881,-0.016288,-0.016235,-0.00077544,-0.0028165,0.0007588,0,0,0,0.027561,0.00075627,-0.00036948,0.013965,0.009316,0.027385,1.0511e-06,0.95,0.45,0.6
0.048622,0.00093275,-0.0018043,0.027628,0.00016018,0.00018065,-6.6721e-05,-0.00054348,6.3252e-05,0.055052,-0.016365,-0.016312,-0.00034695,-0.0028261,0.00032891,0,0,0,0.02763,0.00073547,-0.0003961,0.014013,0.009323,0.027477,1.0617e-06,1,0.45,0.6
0.00092746,2.1154e-05,-0.00016456,0.024809,0.0095981,0.0095874,0.00017231,-2.7337e-05,-0.0012647,0.038106,-0.0014414,-0.0014693,0.00089602,-0.00014215,-0.0065766,0,0,0,0.024935,0.0096015,0.0094574,0.007739,0.014665,0.015407,1.8984e-07,0,0.5,0.6
0.0019053,3.8821e-05,-0.00032215,0.024983,0.0086683,0.0086459,0.0001828,-5.173e-05,-0.0012513,0.039578,-0.002841,-0.0028992,0.00095055,-0.00026899,-0.0065067,0,0,0,0.0251,0.0086817,0.0085161,0.0082919,0.014099,0.016502,2.3694e-07,0.05,0.5,0.6
0.0039578,6.8813e-05,-0.00062287,0.025641,0.0070154,0.0069725,0.00021391,-9.7858e-05,-0.0012122,0.042888,-0.0055371,-0.0056484,0.0011123,-0.00050886,-0.0063035,0,0,0,0.025736,0.007057,0.0068351,0.0094506,0.013209,0.018791,3.4892e-07,0.1,0.5,0.6
0.0061941,9.0571e-05,-0.00089304,0.026539,0.0056466,0.005597,0.00027145,-0.00014404,-0.0011627,0.046331,-0.0079882,-0.0081173,0.0014115,-0.00074901,-0.0060458,0,0,0,0.026617,0.0057312,0.0054342,0.010591,0.012594,0.021036,4.8504e-07,0.15,0.5,0.6
0.008591,0.00010741,-0.0011285,0.027284,0.004451,0.0044196,0.00035719,-0.00019896,-0.0011211,0.049245,-0.01012,-0.010202,0.0018574,-0.0010346,-0.0058298,0,0,0,0.027351,0.0045967,0.0042065,0.011572,0.012051,0.022952,6.2601e-07,0.2,0.5,0.6
0.011119,0.00011922,-0.0013236,0.027838,0.0034582,0.0034725,0.00046066,-0.00026614,-0.001095,0.051518,-0.01187,-0.011833,0.0023954,-0.0013839,-0.0056938,0,0,0,0.027901,0.0036907,0.0031773,0.012362,0.01159,0.024471,7.5542e-07,0.25,0.5,0.6
0.013743,0.00012134,-0.0014699,0.028168,0.0026833,0.0027609,0.00056427,-0.00033838,-0.0010792,0.053069,-0.013191,-0.012989,0.0029342,-0.0017596,-0.005612,0,0,0,0.02823,0.0030193,0.0023622,0.012934,0.011204,0.025546,8.5711e-07,0.3,0.5,0.6
0.016426,0.00010174,-0.0015515,0.028257,0.0021268,0.0022548,0.00063712,-0.00038111,-0.0010425,0.053886,-0.014054,-0.013721,0.003313,-0.0019818,-0.0054207,0,0,0,0.02832,0.0025329,0.0017858,0.013267,0.01088,0.026169,9.2042e-07,0.35,0.5,0.6
0.019131,3.7976e-05,-0.0015401,0.028294,0.0017179,0.0017922,0.00066636,-0.0002694,-0.00098522,0.054062,-0.014502,-0.014301,0.0034279,-0.0014262,-0.0050544,0,0,0,0.028356,0.0020625,0.0013858,0.013485,0.010602,0.026639,1.0022e-06,0.4,0.5,0.6
0.021834,-9.1281e-05,-0.0014166,0.028737,0.0012414,0.0010893,0.00073695,0.00011086,-0.0009959,0.05338,-0.014662,-0.014978,0.0035401,0.00038854,-0.0047819,0,0,0,0.028807,0.0015333,0.00072756,0.01404,0.010356,0.02769,1.2363e-06,0.45,0.5,0.6
0.024487,-0.00026512,-0.0012166,0.02933,0.00053322,0.00013566,0.00079778,0.0005645,-0.0010479,0.0509,-0.014454,-0.015316,0.0034791,0.0024279,-0.0045593,0,0,0,0.029411,0.00098634,-0.00039807,0.014905,0.0099998,0.029149,1.5445e-06,0.5,0.5,0.6
0.026972,-0.00041711,-0.0010285,0.029172,-0.00011192,-0.00058271,0.00062488,0.00075028,-0.00085049,0.047042,-0.013849,-0.014929,0.0025744,0.0032694,-0.0034788,0,0,0,0.029233,0.00048095,-0.0012368,0.015235,0.0094923,0.029655,1.6501e-06,0.55,0.5,0.6
0.029244,-0.00050129,-0.00092483,0.028531,-0.00038321,-0.00081562,0.00024841,0.00069813,-0.0003015,0.044342,-0.013361,-0.014433,0.00098986,0.0031839,-0.0011825,0,0,0,0.028555,0.00018242,-0.001405,0.01498,0.0091108,0.029209,1.5792e-06,0.6,0.5,0.6
0.031427,-0.00051362,-0.00092785,0.028448,-0.00053737,-0.00096091,-0.00016094,0.00070917,0.00036114,0.04435,-0.013494,-0.014546,-0.00070257,0.0032314,0.0015147,0,0,0,0.028471,4.2126e-05,-0.0015633,0.015017,0.0089833,0.029275,1.5902e-06,0.65,0.5,0.6
0.033699,-0.00045139,-0.0010426,0.028928,-0.00058225,-0.0010268,-0.00051392,0.00078231,0.00085997,0.047089,-0.01428,-0.015296,-0.0021582,0.0034079,0.0035766,0,0,0,0.028983,5.0546e-05,-0.0017146,0.015349,0.0091063,0.029861,1.6848e-06,0.7,0.5,0.6
0.036189,-0.00031354,-0.0012567,0.028975,-0.00024166,-0.00059039,-0.00065119,0.00060138,0.00096716,0.051071,-0.01526,-0.015992,-0.0028334,0.0025901,0.0042021,0,0,0,0.02904,0.00026723,-0.0011643,0.015102,0.0093811,0.029523,1.6026e-06,0.75,0.5,0.6
0.038855,-0.00014416,-0.0015051,0.028361,0.00016675,0.00010437,-0.00055195,0.00011963,0.00079504,0.053851,-0.015949,-0.016027,-0.0026266,0.00042033,0.0037753,0,0,0,0.028407,0.00054714,-0.00032186,0.014365,0.0095442,0.02831,1.3169e-06,0.8,0.5,0.6
0.041592,-1.2337e-05,-0.0017025,0.027982,0.00025788,0.00048213,-0.00043588,-0.00031127,0.00063123,0.055096,-0.016441,-0.015848,-0.0022374,-0.0016464,0.0032219,0,0,0,0.02801,0.00077722,-6.5106e-05,0.014038,0.0095741,0.027665,1.1201e-06,0.85,0.5,0.6
0.044368,5.786e-05,-0.0018141,0.028099,0.00013635,0.00048026,-0.00034648,-0.00047752,0.00049035,0.055829,-0.016875,-0.015981,-0.0018017,-0.0024831,0.0025498,0,0,0,0.028116,0.00082731,-0.00022761,0.014172,0.009572,0.027832,1.1063e-06,0.9,0.5,0.6
0.047175,8.6227e-05,-0.0018616,0.028281,1.9243e-05,0.00037743,-0.00019048,-0.00049296,0.00026731,0.056324,-0.017156,-0.016225,-0.00099048,-0.0025634,0.00139,0,0,0,0.028288,0.00074542,-0.00035589,0.014322,0.0095592,0.02811,1.1389e-06,0.95,0.5,0.6
0.048585,9.3377e-05,-0.0018741,0.028344,-2.0049e-05,0.00033651,-9.2698e-05,-0.0004887,0.00012656,0.056498,-0.017248,-0.016321,-0.00048203,-0.0025412,0.00065809,0,0,0,0.028346,0.00070535,-0.00039159,0.014369,0.0095534,0.028206,1.1505e-06,1,0.5,0.6
0.00093303,-5.2319e-05,-0.00016745,0.024956,0.0096245,0.0096362,-0.00038871,-1.4763e-05,-0.0012894,0.038355,-0.0015062,-0.0014757,-0.0020213,-7.6768e-05,-0.0067051,0,0,0,0.025094,0.0096385,0.0094836,0.0078053,0.014739,0.015534,1.9466e-07,0,0.55,0.6
0.0019177,-0.00010588,-0.00032761,0.025138,0.0086644,0.0086853,-0.00036749,-2.7972e-05,-0.0012798,0.039866,-0.002965,-0.0029108,-0.001911,-0.00014545,-0.0066552,0,0,0,0.025265,0.0086941,0.0085286,0.0083681,0.014162,0.016654,2.4377e-07,0.05,0.55,0.6
0.0039866,-0.00021301,-0.00063323,0.025823,0.0069611,0.0070013,-0.00030469,-5.3556e-05,-0.0012524,0.043268,-0.0057721,-0.0056676,-0.0015844,-0.00027849,-0.0065126,0,0,0,0.025926,0.007026,0.0068329,0.0095466,0.013262,0.018997,3.6084e-07,0.1,0.55,0.6
0.0062445,-0.00031602,-0.00090843,0.026767,0.0055562,0.0056277,-0.00019894,-8.1401e-05,-0.0012245,0.046823,-0.0083242,-0.0081382,-0.0010345,-0.00042329,-0.0063673,0,0,0,0.02685,0.0056686,0.0054316,0.010709,0.01265,0.021301,5.0406e-07,0.15,0.55,0.6
0.0086688,-0.0004082,-0.0011501,0.027571,0.0043326,0.0044635,-5.485e-05,-0.00011819,-0.0012178,0.049865,-0.010556,-0.010215,-0.00028522,-0.00061457,-0.0063324,0,0,0,0.027643,0.004517,0.0042073,0.011718,0.012123,0.023283,6.5413e-07,0.2,0.55,0.6
0.011231,-0.0004866,-0.001353,0.028208,0.0033225,0.003546,0.00011241,-0.00016721,-0.0012422,0.052294,-0.012407,-0.011826,0.00058456,-0.00086948,-0.0064593,0,0,0,0.028276,0.0036121,0.0031878,0.012544,0.011692,0.024879,7.9486e-07,0.25,0.55,0.6
0.013898,-0.00055315,-0.0015078,0.028651,0.002549,0.0028839,0.00028361,-0.00022323,-0.0012936,0.054042,-0.013823,-0.012952,0.0014748,-0.0011608,-0.0067265,0,0,0,0.028724,0.0029633,0.0023967,0.013164,0.011361,0.026049,9.103e-07,0.3,0.55,0.6
0.016635,-0.00061703,-0.0015946,0.028901,0.0020385,0.0024424,0.00043035,-0.00026092,-0.0013265,0.055113,-0.014729,-0.013679,0.0022378,-0.0013568,-0.0068977,0,0,0,0.02898,0.002529,0.0018729,0.013553,0.011127,0.026785,9.8981e-07,0.35,0.55,0.6
0.01941,-0.00069981,-0.001568,0.029393,0.0017262,0.0019494,0.00054717,-0.00015447,-0.0013691,0.055377,-0.015016,-0.014414,0.0027444,-0.00086306,-0.0069282,0,0,0,0.02948,0.0021323,0.0014561,0.014012,0.011023,0.027693,1.168e-06,0.4,0.55,0.6
0.022182,-0.00082676,-0.0013962,0.030516,0.0013112,0.00096469,0.00070679,0.0001953,-0.0014553,0.053773,-0.014597,-0.01528,0.0031421,0.00069204,-0.0067707,0,0,0,0.030619,0.001593,0.00058023,0.015019,0.010931,0.029551,1.5859e-06,0.45,0.55,0.6
0.024829,-0.00097465,-0.0011479,0.031037,0.000649,-0.00018966,0.00072269,0.0005227,-0.0013681,0.049546,-0.013664,-0.015433,0.0029236,0.0020987,-0.0058535,0,0,0,0.031136,0.00095386,-0.00059353,0.015865,0.010499,0.030993,1.9015e-06,0.5,0.55,0.6
0.027202,-0.0010828,-0.00095127,0.030291,3.2101e-05,-0.00080688,0.00046949,0.00051498,-0.00093538,0.044617,-0.012745,-0.014636,0.0018761,0.0021371,-0.0038917,0,0,0,0.030349,0.00033989,-0.0011732,0.015761,0.0098386,0.030803,1.8577e-06,0.55,0.55,0.6
0.029334,-0.0011372,-0.00086304,0.029666,-0.00033289,-0.0010212,0.00019245,0.00034132,-0.00030167,0.041689,-0.01228,-0.013922,0.00076311,0.0015233,-0.0012516,0,0,0,0.029687,-0.00011158,-0.0012632,0.015475,0.0094373,0.030401,1.7675e-06,0.6,0.55,0.6
0.031388,-0.0011559,-0.00086554,0.029594,-0.00048015,-0.0011643,-3.6107e-05,0.0003475,0.00035296,0.041709,-0.012399,-0.014034,-0.00023507,0.0015503,0.0015331,0,0,0,0.029615,-0.00025092,-0.0014142,0.015515,0.0093166,0.030475,1.7802e-06,0.65,0.55,0.6
0.033522,-0.0011384,-0.00096334,0.030073,-0.00043118,-0.0012635,-0.00030915,0.00053837,0.00092897,0.0447,-0.013135,-0.015009,-0.0012986,0.0022352,0.0039305,0,0,0,0.030126,-9.938e-05,-0.0016484,0.015887,0.0094593,0.031039,1.9009e-06,0.7,0.55,0.6
0.035901,-0.0010639,-0.0011852,0.030704,-0.00014622,-0.00097098,-0.00055372,0.00055743,0.0012558,0.049778,-0.014423,-0.016144,-0.0022444,0.0022422,0.0053878,0,0,0,0.030784,0.00019756,-0.0013947,0.016089,0.0098623,0.031421,1.98e-06,0.75,0.55,0.6
0.038566,-0.00094577,-0.0014848,0.030173,0.00020462,-7.9302e-05,-0.00054368,0.00021023,0.0012096,0.054341,-0.015875,-0.016382,-0.002394,0.00074478,0.0055785,0,0,0,0.030244,0.00057086,-0.00051638,0.01538,0.010099,0.030237,1.6917e-06,0.8,0.55,0.6
0.041379,-0.00085043,-0.0017363,0.029158,0.00025107,0.0006287,-0.00040358,-0.00018391,0.00096209,0.056575,-0.017007,-0.016,-0.0020185,-0.0010222,0.0048351,0,0,0,0.029203,0.00084812,-1.3224e-05,0.014608,0.010013,0.028797,1.3071e-06,0.85,0.55,0.6
0.044233,-0.00080749,-0.0018694,0.028873,3.3679e-05,0.00069085,-0.00030376,-0.0003345,0.00070615,0.057311,-0.017671,-0.015962,-0.0015796,-0.0017394,0.003672,0,0,0,0.028898,0.00084263,-0.0001432,0.014521,0.0098658,0.028562,1.1991e-06,0.9,0.55,0.6
0.04711,-0.00079454,-0.0019184,0.028954,-0.00014325,0.00054234,-0.00016603,-0.00033978,0.00038379,0.057669,-0.017984,-0.016202,-0.00086336,-0.0017668,0.0019957,0,0,0,0.028964,0.00070991,-0.00032124,0.014643,0.0097844,0.028784,1.2253e-06,0.95,0.55,0.6
0.048553,-0.00079207,-0.0019303,0.028985,-0.00019623,0.00048334,-8.4491e-05,-0.00033454,0.00018706,0.057798,-0.018074,-0.016307,-0.00043936,-0.0017396,0.00097269,0,0,0,0.028989,0.00065435,-0.00037107,0.01468,0.0097575,0.028862,1.2347e-06,1,0.55,0.6
0.00093709,-0.00012947,-0.00016851,0.025061,0.0096259,0.0096686,-0.0009788,2.9153e-07,-0.0012991,0.038545,-0.0015857,-0.0014747,-0.0050898,1.5159e-06,-0.0067551,0,0,0,0.025253,0.009652,0.0094507,0.0079009,0.014785,0.015702,2.0107e-07,0,0.6,0.6
0.0019272,-0.00025768,-0.00032961,0.025248,0.0086268,0.0087083,-0.00094778,6.2758e-07,-0.0012918,0.040095,-0.0031203,-0.0029084,-0.0049285,3.2634e-06,-0.0067172,0,0,0,0.025423,0.0086816,0.0084785,0.0084723,0.014194,0.016844,2.5228e-07,0.05,0.6,0.6
0.0040095,-0.00050839,-0.00063707,0.025953,0.006855,0.0070115,-0.00085622,5.8866e-07,-0.0012714,0.043587,-0.0060689,-0.0056618,-0.0044524,3.061e-06,-0.0066114,0,0,0,0.026093,0.0069731,0.0067533,0.00967,0.013273,0.019231,3.7441e-07,0.1,0.6,0.6
0.0062859,-0.00074185,-0.00091439,0.026928,0.0053996,0.0056349,-0.00070886,-2.3496e-06,-0.0012566,0.047235,-0.0087383,-0.0081268,-0.0036861,-1.2218e-05,-0.0065345,0,0,0,0.027037,0.0055953,0.0053298,0.010854,0.012654,0.021576,5.2384e-07,0.15,0.6,0.6
0.008733,-0.00094815,-0.0011591,0.027767,0.004144,0.004476,-0.00051994,-1.0882e-05,-0.0012713,0.050362,-0.011058,-0.010194,-0.0027037,-5.6589e-05,-0.0066107,0,0,0,0.027856,0.0044381,0.0040927,0.011882,0.012129,0.023593,6.8056e-07,0.2,0.6,0.6
0.011322,-0.0011215,-0.0013662,0.028448,0.0031225,0.003577,-0.00031266,-2.6631e-05,-0.0013267,0.052876,-0.01297,-0.011788,-0.0016258,-0.00013848,-0.006899,0,0,0,0.028528,0.0035407,0.0030781,0.012725,0.011716,0.025223,8.2821e-07,0.25,0.6,0.6
0.014021,-0.0012609,-0.0015256,0.028963,0.0023618,0.0029492,-0.00011048,-4.7747e-05,-0.0014189,0.054739,-0.014424,-0.012896,-0.00057448,-0.00024828,-0.0073781,0,0,0,0.029046,0.0029119,0.0023162,0.013365,0.011425,0.026437,9.5193e-07,0.3,0.6,0.6
0.016796,-0.0013712,-0.0016152,0.029325,0.0018952,0.0025404,6.4074e-05,-6.489e-05,-0.0014909,0.055989,-0.015329,-0.013651,0.00033319,-0.00033743,-0.0077525,0,0,0,0.029413,0.0025012,0.001846,0.013784,0.011253,0.027246,1.0431e-06,0.35,0.6,0.6
0.019619,-0.0014643,-0.0015773,0.029943,0.0016247,0.0019747,0.00020752,-2.5061e-05,-0.0015835,0.056224,-0.015457,-0.014525,0.0010057,-0.00016415,-0.0080048,0,0,0,0.030041,0.0020809,0.0014198,0.014311,0.011181,0.028298,1.2415e-06,0.4,0.6,0.6
0.022435,-0.0015558,-0.001374,0.03087,0.0011969,0.00075388,0.00034563,0.00010957,-0.0016324,0.053679,-0.014542,-0.015439,0.0014528,0.0004022,-0.0077061,0,0,0,0.030979,0.0014149,0.00042695,0.015276,0.01094,0.030074,1.6278e-06,0.45,0.6,0.6
0.02505,-0.0016404,-0.0011006,0.031068,0.00058419,-0.00047848,0.00036637,0.00021637,-0.0013659,0.048236,-0.013095,-0.015392,0.0014026,0.0008482,-0.0060384,0,0,0,0.031156,0.00071393,-0.00069658,0.015926,0.010391,0.031179,1.8713e-06,0.5,0.6,0.6
0.027334,-0.0016988,-0.0009095,0.030599,6.2939e-05,-0.00095164,0.00025087,0.00017401,-0.00081719,0.043094,-0.012116,-0.014394,0.00094955,0.00072112,-0.0035349,0,0,0,0.030643,0.00017112,-0.0011038,0.015874,0.0099036,0.03114,1.8673e-06,0.55,0.6,0.6
0.029398,-0.0017344,-0.00083987,0.030455,-0.00034453,-0.0011704,0.00015037,7.8389e-05,-0.00023889,0.040377,-0.011784,-0.013593,0.00054784,0.00037466,-0.001047,0,0,0,0.030471,-0.00028775,-0.0012426,0.015857,0.0096468,0.031256,1.8843e-06,0.6,0.6,0.6
0.031399,-0.0017587,-0.00084249,0.03039,-0.00048237,-0.0013129,7.0294e-05,8.0475e-05,0.00028888,0.0404,-0.011886,-0.013708,0.00018574,0.0003847,0.001304,0,0,0,0.030406,-0.00042222,-0.0013891,0.015898,0.0095317,0.031333,1.8976e-06,0.65,0.6,0.6
0.033466,-0.0017727,-0.00092123,0.030407,-0.00036477,-0.0014013,-4.9366e-05,0.00018424,0.00080647,0.04319,-0.012449,-0.014775,-0.00024101,0.0007644,0.0035578,0,0,0,0.030448,-0.00024738,-0.00156,0.016004,0.009547,0.031384,1.9113e-06,0.7,0.6,0.6
0.035757,-0.0017658,-0.0011371,0.030771,-0.00015695,-0.0012576,-0.0001965,0.00023341,0.0012424,0.048489,-0.013756,-0.016127,-0.00075169,0.00091647,0.0055337,0,0,0,0.030843,-1.2632e-05,-0.0014742,0.016159,0.0097854,0.03162,1.9519e-06,0.75,0.6,0.6
0.038391,-0.0017374,-0.0014637,0.03056,0.00014576,-0.0002969,-0.0002319,0.00011713,0.0013666,0.054272,-0.015709,-0.016585,-0.00096855,0.00042538,0.006425,0,0,0,0.030637,0.00041599,-0.0006438,0.01564,0.010136,0.030769,1.7387e-06,0.8,0.6,0.6
0.041248,-0.001714,-0.0017504,0.02975,0.00021232,0.00066067,-0.00017653,-4.0041e-05,0.0011491,0.057458,-0.017345,-0.016153,-0.00086584,-0.00024695,0.0057748,0,0,0,0.029803,0.00081715,2.8295e-06,0.0149,0.010208,0.029403,1.3872e-06,0.85,0.6,0.6
0.044154,-0.0017092,-0.0018985,0.029356,-3.5148e-05,0.00081251,-0.00013255,-0.00010024,0.00083358,0.058246,-0.018172,-0.015968,-0.00068926,-0.00052123,0.0043346,0,0,0,0.029385,0.00083844,-9.0055e-05,0.014738,0.010045,0.029023,1.2604e-06,0.9,0.6,0.6
0.047073,-0.0017122,-0.0019483,0.029349,-0.0002496,0.00064394,-7.5362e-05,-9.9613e-05,0.0004545,0.058462,-0.018495,-0.016172,-0.00039188,-0.00051799,0.0023634,0,0,0,0.029361,0.00068664,-0.0003044,0.014833,0.0099146,0.029183,1.2782e-06,0.95,0.6,0.6
0.048535,-0.001714,-0.0019599,0.02935,-0.00031328,0.00057154,-4.2444e-05,-9.6739e-05,0.00022397,0.058545,-0.01858,-0.016279,-0.00022071,-0.00050304,0.0011647,0,0,0,0.029355,0.00062097,-0.00036712,0.014861,0.0098695,0.029241,1.285e-06,1,0.6,0.6
0.00093942,-0.00021089,-0.00016758,0.025118,0.0096002,0.0096822,-0.0016007,1.6045e-05,-0.0012919,0.038666,-0.0016795,-0.0014663,-0.0083234,8.3435e-05,-0.0067179,0,0,0,0.02541,0.0096513,0.0093392,0.0080352,0.0148,0.015917,2.0928e-07,0,0.65,0.6
0.0019333,-0.00041791,-0.00032782,0.025307,0.0085522,0.0087115,-0.0015576,3.0633e-05,-0.0012848,0.040255,-0.0033065,-0.0028922,-0.0080995,0.00015929,-0.0066808,0,0,0,0.025571,0.0086616,0.0083377,0.0086167,0.01419,0.017074,2.6256e-07,0.05,0.65,0.6
0.0040255,-0.00081991,-0.00063369,0.026019,0.0066925,0.0069978,-0.001431,5.777e-05,-0.0012649,0.043824,-0.0064251,-0.0056313,-0.007441,0.0003004,-0.0065777,0,0,0,0.026227,0.0069268,0.0065558,0.0098355,0.013236,0.019489,3.8919e-07,0.1,0.65,0.6
0.0063157,-0.0011899,-0.00090963,0.026998,0.0051742,0.0056096,-0.0012337,8.2179e-05,-0.001251,0.047526,-0.0092163,-0.0080842,-0.0064153,0.00042733,-0.0065053,0,0,0,0.027154,0.005541,0.0050868,0.011034,0.012594,0.021845,5.4275e-07,0.15,0.65,0.6
0.0087781,-0.001514,-0.0011531,0.027828,0.003889,0.0044439,-0.00099429,0.00010591,-0.0012668,0.050655,-0.011585,-0.010142,-0.0051703,0.00055071,-0.0065871,0,0,0,0.027947,0.0043856,0.0038284,0.012059,0.012053,0.023845,7.0131e-07,0.2,0.65,0.6
0.011381,-0.0017836,-0.0013592,0.028486,0.0028717,0.0035427,-0.00074863,0.00012946,-0.0013234,0.053123,-0.013474,-0.011729,-0.0038929,0.0006732,-0.0068816,0,0,0,0.028584,0.0034946,0.0028214,0.012881,0.011633,0.025434,8.4755e-07,0.25,0.65,0.6
0.01409,-0.0019955,-0.0015179,0.02897,0.0021404,0.002916,-0.00052706,0.00014991,-0.0014164,0.054906,-0.014851,-0.012834,-0.0027407,0.00077955,-0.0073655,0,0,0,0.029062,0.0028743,0.0020899,0.013486,0.011342,0.026589,9.6678e-07,0.3,0.65,0.6
0.016872,-0.0021499,-0.0016069,0.029299,0.0017172,0.0025101,-0.00034478,0.00015673,-0.0014889,0.056061,-0.015651,-0.013589,-0.0017929,0.00081502,-0.0077422,0,0,0,0.02939,0.0024723,0.0016632,0.013864,0.011175,0.027332,1.0516e-06,0.35,0.65,0.6
0.019697,-0.0022458,-0.0015689,0.029882,0.0014921,0.0019485,-0.00021044,9.2999e-05,-0.0015817,0.056202,-0.015667,-0.014464,-0.0010615,0.0005199,-0.007995,0,0,0,0.02998,0.0020458,0.0012967,0.014342,0.011108,0.028317,1.2419e-06,0.4,0.65,0.6
0.022509,-0.002283,-0.0013663,0.030776,0.0011025,0.0007336,-0.00014939,-7.492e-05,-0.0016309,0.053583,-0.014653,-0.015377,-0.00063332,-0.00021827,-0.0076974,0,0,0,0.030881,0.0013615,0.0003697,0.015256,0.010871,0.030032,1.6183e-06,0.45,0.65,0.6
0.025117,-0.0022871,-0.0010942,0.030958,0.00053146,-0.00048904,-6.3862e-05,-0.00020965,-0.0013649,0.0481,-0.013124,-0.015334,-0.00024048,-0.00080671,-0.0060323,0,0,0,0.031042,0.00067132,-0.00071287,0.015877,0.010333,0.031093,1.8542e-06,0.5,0.65,0.6
0.027394,-0.0022967,-0.00090459,0.03049,5.5728e-05,-0.0009528,7.0485e-05,-0.00018299,-0.00081687,0.042943,-0.01208,-0.014344,0.0001982,-0.00074986,-0.0035311,0,0,0,0.030532,0.00016508,-0.0011043,0.015818,0.0098642,0.031031,1.8477e-06,0.55,0.65,0.6
0.02945,-0.0023192,-0.00083589,0.030347,-0.00032186,-0.0011675,0.0001346,-9.3576e-05,-0.00023897,0.04022,-0.011711,-0.013552,0.00041905,-0.00042522,-0.0010453,0,0,0,0.030362,-0.00026928,-0.0012352,0.015799,0.0096193,0.031135,1.8634e-06,0.6,0.65,0.6
0.031444,-0.0023482,-0.00083893,0.030286,-0.00044489,-0.0013082,0.00014108,-9.3673e-05,0.00028865,0.040242,-0.011794,-0.013673,0.00052307,-0.00042551,0.0013037,0,0,0,0.030303,-0.00039216,-0.0013775,0.01584,0.0095111,0.031209,1.8758e-06,0.65,0.65,0.6
0.033502,-0.0023858,-0.00091772,0.030309,-0.00032579,-0.0013971,0.00017037,-0.00018444,0.00080602,0.043034,-0.012351,-0.014744,0.00066468,-0.00075568,0.0035557,0,0,0,0.030351,-0.00021682,-0.001548,0.01595,0.0095288,0.031266,1.8893e-06,0.7,0.65,0.6
0.035786,-0.0024429,-0.0011333,0.030678,-0.00012878,-0.0012573,0.00023602,-0.00021435,0.0012416,0.048335,-0.013668,-0.016097,0.00089524,-0.00082726,0.0055305,0,0,0,0.03075,6.7677e-06,-0.0014653,0.016108,0.0097639,0.031513,1.9304e-06,0.75,0.65,0.6
0.038412,-0.0025191,-0.0014593,0.030479,0.0001599,-0.00030115,0.00021495,-7.9934e-05,0.0013661,0.054128,-0.015639,-0.016558,0.00088122,-0.00024218,0.0064233,0,0,0,0.030555,0.00042594,-0.00064363,0.015599,0.010113,0.030683,1.7224e-06,0.8,0.65,0.6
0.041262,-0.0025854,-0.0017455,0.029683,0.00021285,0.00065322,0.00013355,9.3515e-05,0.0011495,0.057335,-0.017301,-0.01613,0.00064767,0.00052237,0.005777,0,0,0,0.029736,0.000825,-1.1472e-05,0.014874,0.010183,0.02934,1.3777e-06,0.85,0.65,0.6
0.044162,-0.0026247,-0.0018933,0.0293,-4.6461e-05,0.00080336,8.8436e-05,0.00016683,0.00083436,0.058145,-0.018155,-0.015945,0.00045987,0.0008675,0.0043387,0,0,0,0.029328,0.00084648,-0.00011822,0.014723,0.010019,0.028977,1.2541e-06,0.9,0.65,0.6
0.047077,-0.0026441,-0.001943,0.029297,-0.00026929,0.00063384,4.0469e-05,0.00017446,0.00045507,0.058376,-0.018497,-0.016149,0.00021044,0.00090719,0.0023664,0,0,0,0.029309,0.00069449,-0.00034188,0.014825,0.0098872,0.029147,1.273e-06,0.95,0.65,0.6
0.048537,-0.00265,-0.0019545,0.0293,-0.00033595,0.00056111,1.2131e-05,0.00017443,0.00022435,0.058464,-0.018588,-0.016256,6.308e-05,0.00090703,0.0011666,0,0,0,0.029304,0.00062875,-0.00040795,0.014856,0.0098416,0.029208,1.2803e-06,1,0.65,0.6
0.00094057,-0.00029741,-0.0001648,0.02514,0.0095465,0.0096802,-0.0022576,3.0302e-05,-0.001269,0.038744,-0.0017991,-0.0014514,-0.011739,0.00015757,-0.006599,0,0,0,0.025584,0.0096433,0.0091387,0.0082229,0.014789,0.0162,2.2017e-07,0,0.7,0.6
0.0019372,-0.00058833,-0.00032253,0.025325,0.008433,0.0086955,-0.0021955,5.7813e-05,-0.0012598,0.040374,-0.0035466,-0.002864,-0.011417,0.00030063,-0.0065511,0,0,0,0.025725,0.0086379,0.0080911,0.0088169,0.014151,0.017368,2.7559e-07,0.05,0.7,0.6
0.0040374,-0.0011509,-0.0006236,0.026029,0.006455,0.0069557,-0.002014,0.00010959,-0.0012338,0.044012,-0.006881,-0.0055793,-0.010473,0.00056989,-0.0064157,0,0,0,0.026335,0.0068793,0.0062255,0.010055,0.013147,0.019792,4.0623e-07,0.1,0.7,0.6
0.0063384,-0.0016635,-0.00089481,0.026983,0.0048585,0.005545,-0.0017383,0.00015858,-0.0012083,0.047724,-0.0097998,-0.0080148,-0.0090392,0.00082461,-0.0062829,0,0,0,0.027202,0.0054815,0.0047031,0.011249,0.012462,0.022121,5.6137e-07,0.15,0.7,0.6
0.0088097,-0.0021066,-0.001133,0.027753,0.0035527,0.0043597,-0.0014183,0.00021049,-0.0012048,0.050759,-0.012162,-0.010064,-0.007375,0.0010945,-0.0062648,0,0,0,0.027908,0.0043212,0.0034363,0.012236,0.011888,0.024042,7.1593e-07,0.2,0.7,0.6
0.011414,-0.0024689,-0.0013329,0.028316,0.0025645,0.0034366,-0.0011089,0.00026711,-0.0012329,0.053031,-0.013923,-0.011655,-0.0057663,0.001389,-0.006411,0,0,0,0.028431,0.0034287,0.0024573,0.012987,0.011439,0.025503,8.513e-07,0.25,0.7,0.6
0.014113,-0.002746,-0.0014854,0.028663,0.0018866,0.0027795,-0.00084756,0.00032177,-0.0012874,0.054527,-0.015093,-0.012771,-0.0044073,0.0016732,-0.0066947,0,0,0,0.028759,0.0028044,0.0017661,0.013496,0.01111,0.02649,9.5268e-07,0.3,0.7,0.6
0.016867,-0.0029362,-0.0015706,0.028813,0.0015105,0.0023484,-0.00064033,0.00034793,-0.0013222,0.055311,-0.015676,-0.013498,-0.0033297,0.0018092,-0.0068753,0,0,0,0.028899,0.0024003,0.0013726,0.013763,0.010891,0.027028,1.0133e-06,0.35,0.7,0.6
0.019644,-0.0030314,-0.0015436,0.02921,0.0013389,0.0018685,-0.00049056,0.00021739,-0.0013655,0.055301,-0.015627,-0.014238,-0.0024827,0.0011922,-0.006909,0,0,0,0.029294,0.002008,0.0011153,0.014089,0.010806,0.027745,1.1699e-06,0.4,0.7,0.6
0.022407,-0.0030234,-0.0013733,0.030244,0.0010448,0.0009006,-0.00046409,-0.00016472,-0.0014518,0.053474,-0.014912,-0.015105,-0.0020573,-0.00052736,-0.0067525,0,0,0,0.030336,0.0014481,0.00040535,0.014965,0.01073,0.029428,1.5616e-06,0.45,0.7,0.6
0.025034,-0.0029558,-0.0011286,0.030708,0.00050245,-0.0002277,-0.0003848,-0.00051902,-0.001364,0.049114,-0.013734,-0.015265,-0.0015484,-0.0020692,-0.0058346,0,0,0,0.030795,0.00084507,-0.00065673,0.015726,0.010328,0.030735,1.8529e-06,0.5,0.7,0.6
0.027383,-0.0029092,-0.00093621,0.029955,1.2358e-05,-0.00081645,-0.00012972,-0.00052586,-0.00093149,0.044137,-0.012624,-0.014489,-0.0005937,-0.0021744,-0.0038731,0,0,0,0.030006,0.00032478,-0.0011804,0.015593,0.0097169,0.030471,1.7981e-06,0.55,0.7,0.6
0.02949,-0.002909,-0.00085096,0.029344,-0.00026118,-0.0010144,9.0985e-05,-0.00035768,-0.00029953,0.041202,-0.012042,-0.013801,0.00025831,-0.0015796,-0.0012395,0,0,0,0.029363,-5.5337e-05,-0.0012394,0.015301,0.0093561,0.030039,1.7054e-06,0.6,0.7,0.6
0.03152,-0.0029417,-0.00085494,0.029289,-0.00036325,-0.0011516,0.00023391,-0.0003608,0.00035294,0.041224,-0.012102,-0.013933,0.00093728,-0.0015928,0.001535,0,0,0,0.029311,-0.00016153,-0.0013751,0.015343,0.009258,0.030109,1.7169e-06,0.65,0.7,0.6
0.03363,-0.0030102,-0.0009529,0.029784,-0.00031231,-0.0012534,0.00041091,-0.00053798,0.00092723,0.044218,-0.012827,-0.014918,0.0016642,-0.0022256,0.0039249,0,0,0,0.029839,-1.3057e-05,-0.0016072,0.015723,0.0094061,0.03069,1.8369e-06,0.7,0.7,0.6
0.035985,-0.0031357,-0.0011737,0.030437,-6.0859e-05,-0.0009716,0.00057155,-0.0005386,0.0012542,0.04931,-0.01415,-0.016058,0.0022945,-0.0021545,0.005384,0,0,0,0.030517,0.00025211,-0.0013647,0.015941,0.0098016,0.031113,1.9219e-06,0.75,0.7,0.6
0.038627,-0.0033035,-0.0014718,0.029945,0.0002465,-9.1892e-05,0.00050584,-0.00017472,0.0012104,0.053916,-0.015666,-0.016305,0.0022016,-0.00056961,0.0055855,0,0,0,0.030015,0.00059947,-0.00051469,0.015265,0.010033,0.029993,1.6507e-06,0.8,0.7,0.6
0.04142,-0.0034445,-0.0017219,0.028968,0.00025106,0.00060696,0.00034274,0.00023529,0.00096517,0.056217,-0.016883,-0.015932,0.0017068,0.0012872,0.0048518,0,0,0,0.029012,0.00086738,-5.2771e-05,0.014532,0.0099422,0.028617,1.2824e-06,0.85,0.7,0.6
0.044258,-0.0035247,-0.0018544,0.028706,-2.821e-06,0.00066306,0.00024676,0.00040026,0.00070956,0.057017,-0.017627,-0.015896,0.0012832,0.0020813,0.0036897,0,0,0,0.02873,0.0008577,-0.00022148,0.014476,0.0097889,0.028428,1.1817e-06,0.9,0.7,0.6
0.047122,-0.0035619,-0.001903,0.0288,-0.00020505,0.00051089,0.00012388,0.00041514,0.000386,0.057416,-0.017996,-0.016135,0.00064416,0.0021587,0.0020072,0,0,0,0.02881,0.00072173,-0.00042585,0.014618,0.0097018,0.028679,1.2109e-06,0.95,0.7,0.6
0.048559,-0.0035728,-0.0019148,0.028835,-0.00026695,0.00045058,4.9529e-05,0.00041323,0.00018841,0.05756,-0.018105,-0.01624,0.00025755,0.0021488,0.00097975,0,0,0,0.028839,0.000665,-0.00048504,0.014662,0.0096729,0.028767,1.2214e-06,1,0.7,0.6
0.00094214,-0.0003908,-0.00016069,0.025167,0.0094643,0.0096731,-0.0029582,4.0853e-05,-0.0012346,0.038851,-0.0019752,-0.0014322,-0.015383,0.00021243,-0.0064198,0,0,0,0.025824,0.009636,0.0088441,0.0084899,0.014768,0.016599,2.3577e-07,0,0.75,0.6
0.0019425,-0.00077257,-0.00031468,0.025342,0.0082522,0.0086643,-0.0028625,7.7995e-05,-0.0012215,0.040534,-0.0038992,-0.0028278,-0.014885,0.00040557,-0.0063518,0,0,0,0.025925,0.0086077,0.007726,0.0090993,0.014086,0.017776,2.9372e-07,0.05,0.75,0.6
0.0040534,-0.001508,-0.00060863,0.026019,0.0061021,0.0068798,-0.0025867,0.00014807,-0.0011841,0.04425,-0.0075353,-0.0055132,-0.013451,0.00076998,-0.0061571,0,0,0,0.026448,0.0068085,0.0057446,0.010352,0.013,0.020195,4.2839e-07,0.1,0.75,0.6
0.0063675,-0.0021698,-0.00087272,0.026916,0.0044098,0.005434,-0.0021801,0.00021459,-0.0011378,0.047926,-0.010591,-0.0079277,-0.011336,0.0011159,-0.0059168,0,0,0,0.027204,0.0053821,0.0041741,0.011515,0.012253,0.022452,5.8251e-07,0.15,0.75,0.6
0.008846,-0.0027302,-0.0011027,0.02758,0.0031043,0.0042214,-0.0017291,0.00028459,-0.0011014,0.050765,-0.012872,-0.0099679,-0.0089913,0.0014799,-0.005727,0,0,0,0.027765,0.0042055,0.0029351,0.012415,0.011635,0.024221,7.2725e-07,0.2,0.75,0.6
0.011444,-0.0031759,-0.001293,0.027991,0.0021828,0.0032686,-0.0013159,0.00035934,-0.0010816,0.052711,-0.01439,-0.011567,-0.0068424,0.0018686,-0.0056241,0,0,0,0.028112,0.0033024,0.0020276,0.013042,0.011147,0.025472,8.4398e-07,0.25,0.75,0.6
0.014117,-0.0035048,-0.0014355,0.02815,0.0015916,0.0025696,-0.00098014,0.00042958,-0.0010721,0.053803,-0.015248,-0.012706,-0.0050967,0.0022338,-0.005575,0,0,0,0.028236,0.0026652,0.0014096,0.013413,0.01077,0.026222,9.2052e-07,0.3,0.75,0.6
0.016824,-0.0037175,-0.0015145,0.028076,0.0012703,0.002086,-0.00071396,0.00045929,-0.0010401,0.054139,-0.015557,-0.013436,-0.0037126,0.0023883,-0.0054086,0,0,0,0.028143,0.0022346,0.0010552,0.013544,0.010478,0.026518,9.5341e-07,0.35,0.75,0.6
0.019531,-0.0038094,-0.0015022,0.027977,0.0011046,0.0016509,-0.00050589,0.00032327,-0.00098599,0.053883,-0.015452,-0.014027,-0.0026049,0.001707,-0.0050582,0,0,0,0.028031,0.0018188,0.00088187,0.013575,0.010244,0.026695,1.0051e-06,0.4,0.75,0.6
0.022215,-0.0037794,-0.0013803,0.028305,0.0008461,0.00097958,-0.00042802,-8.753e-05,-0.00099783,0.052852,-0.01512,-0.014713,-0.0020213,-0.00026353,-0.0047935,0,0,0,0.028362,0.0013308,0.00043796,0.013962,0.010044,0.027493,1.2072e-06,0.45,0.75,0.6
0.024834,-0.0036694,-0.001185,0.028813,0.00033423,6.6079e-05,-0.00042022,-0.00056643,-0.0010471,0.050141,-0.014508,-0.015061,-0.001768,-0.0024288,-0.0045632,0,0,0,0.028878,0.00085685,-0.0005213,0.0147,0.0097378,0.028742,1.4798e-06,0.5,0.75,0.6
0.027277,-0.0035661,-0.001003,0.028626,-0.00012351,-0.00060736,-0.00026239,-0.00076467,-0.00084634,0.046183,-0.01359,-0.014697,-0.001065,-0.0033282,-0.003469,0,0,0,0.028676,0.00047115,-0.0012515,0.014964,0.0092985,0.029111,1.5615e-06,0.55,0.75,0.6
0.029505,-0.0035279,-0.00090454,0.028013,-0.00024944,-0.00080733,3.2364e-05,-0.00071497,-0.00029823,0.043467,-0.012897,-0.014235,0.00012641,-0.003249,-0.0011712,0,0,0,0.028033,0.00027691,-0.0013539,0.014694,0.0089854,0.028617,1.4862e-06,0.6,0.75,0.6
0.031644,-0.003563,-0.00091039,0.027967,-0.00032968,-0.00093855,0.00033428,-0.00072115,0.00036167,0.043491,-0.012935,-0.014378,0.0013793,-0.0032745,0.0015193,0,0,0,0.027992,0.0001855,-0.0014783,0.014735,0.0088997,0.028686,1.4973e-06,0.65,0.75,0.6
0.033874,-0.0036754,-0.0010255,0.028481,-0.00037499,-0.0010074,0.00058137,-0.00078218,0.00085972,0.046257,-0.013723,-0.015145,0.0024052,-0.0034026,0.0035815,0,0,0,0.028538,0.00018441,-0.0016236,0.015081,0.009033,0.029307,1.5944e-06,0.7,0.75,0.6
0.036323,-0.0038666,-0.0012381,0.028579,-9.2581e-05,-0.00058691,0.00063123,-0.00058623,0.00097038,0.050295,-0.014782,-0.015855,0.0027081,-0.0025169,0.0042249,0,0,0,0.028643,0.00035578,-0.0010999,0.014872,0.0092997,0.029051,1.5291e-06,0.75,0.75,0.6
0.038952,-0.0040908,-0.0014843,0.028022,0.00023731,8.7478e-05,0.00047858,-8.889e-05,0.00080316,0.053173,-0.015607,-0.015905,0.0022489,-0.00026483,0.0038199,0,0,0,0.028066,0.00059487,-0.00031403,0.01419,0.009449,0.027942,1.2675e-06,0.8,0.75,0.6
0.041658,-0.0042745,-0.0016799,0.027687,0.00025288,0.0004471,0.00034539,0.00035948,0.00064093,0.054533,-0.016253,-0.015738,0.0017686,0.0018962,0.0032727,0,0,0,0.027713,0.00079847,-0.00012419,0.013918,0.0094623,0.027389,1.0868e-06,0.85,0.75,0.6
0.044408,-0.0043874,-0.0017906,0.027831,6.7745e-05,0.00043161,0.00026842,0.00054238,0.00049834,0.055362,-0.016822,-0.015876,0.0013958,0.0028204,0.0025914,0,0,0,0.027846,0.00082938,-0.00034532,0.014096,0.0094434,0.027623,1.0806e-06,0.9,0.75,0.6
0.047194,-0.0044437,-0.0018377,0.028028,-9.1597e-05,0.00032018,0.00013636,0.00056919,0.00027189,0.055919,-0.017192,-0.016121,0.00070908,0.0029598,0.0014138,0,0,0,0.028034,0.00073533,-0.00051321,0.014274,0.0094188,0.027944,1.1176e-06,0.95,0.75,0.6
0.048595,-0.0044606,-0.0018501,0.028096,-0.00014556,0.00027627,4.984e-05,0.00056887,0.00012915,0.056114,-0.017315,-0.016218,0.00025917,0.0029581,0.00067159,0,0,0,0.028099,0.00069102,-0.00056281,0.014331,0.0094089,0.028056,1.1307e-06,1,0.75,0.6
0.00094742,-0.00049494,-0.00015608,0.025276,0.009349,0.0096814,-0.0037201,4.5789e-05,-0.0011955,0.039134,-0.0022765,-0.0014124,-0.019345,0.0002381,-0.0062166,0,0,0,0.026215,0.0096468,0.008445,0.0088849,0.014769,0.017203,2.6013e-07,0,0.8,0.6
0.0019567,-0.00097825,-0.00030591,0.025427,0.0079719,0.0086243,-0.0035604,8.7707e-05,-0.0011775,0.040895,-0.0044867,-0.0027905,-0.018514,0.00045608,-0.0061228,0,0,0,0.026241,0.0085721,0.0072101,0.0095153,0.014008,0.018391,3.2148e-07,0.05,0.8,0.6
0.0040895,-0.0019044,-0.00059188,0.026046,0.005558,0.0067587,-0.0031171,0.00016705,-0.0011258,0.044703,-0.008567,-0.0054451,-0.016209,0.00086868,-0.0058539,0,0,0,0.026609,0.0066945,0.0050598,0.010774,0.012788,0.020783,4.6038e-07,0.1,0.8,0.6
0.006427,-0.0027225,-0.00084792,0.026845,0.0037674,0.0052648,-0.0024997,0.00024195,-0.0010548,0.048271,-0.011731,-0.0078379,-0.012998,0.0012581,-0.0054851,0,0,0,0.027188,0.0052221,0.0034674,0.01186,0.011959,0.022897,6.0984e-07,0.15,0.8,0.6
0.0089167,-0.0033939,-0.0010686,0.027352,0.002519,0.004027,-0.0018636,0.00031816,-0.00098062,0.050776,-0.013789,-0.0098685,-0.0096906,0.0016544,-0.0050992,0,0,0,0.027547,0.0040242,0.0023269,0.01261,0.011299,0.024417,7.3818e-07,0.2,0.8,0.6
0.011505,-0.0039079,-0.0012482,0.027572,0.0017203,0.0030495,-0.0013225,0.00039464,-0.00090846,0.052282,-0.014932,-0.011476,-0.0068771,0.0020521,-0.004724,0,0,0,0.027682,0.0031047,0.0015551,0.013063,0.010781,0.025389,8.311e-07,0.25,0.8,0.6
0.014145,-0.0042709,-0.0013797,0.027549,0.0012491,0.0023159,-0.00090134,0.0004593,-0.00083316,0.052958,-0.015421,-0.012647,-0.004687,0.0023883,-0.0043324,0,0,0,0.027614,0.0024452,0.0010548,0.013279,0.010371,0.025892,8.8355e-07,0.3,0.8,0.6
0.0168,-0.0044919,-0.0014527,0.027328,0.0010007,0.0017859,-0.0005688,0.00047409,-0.00073481,0.052983,-0.015467,-0.013425,-0.0029578,0.0024653,-0.003821,0,0,0,0.027368,0.0019776,0.00076887,0.013299,0.010038,0.026016,8.9849e-07,0.35,0.8,0.6
0.019443,-0.004577,-0.0014532,0.026942,0.0008402,0.0013564,-0.00029802,0.0003538,-0.00060578,0.052567,-0.015299,-0.013957,-0.0015497,0.0018397,-0.0031501,0,0,0,0.026968,0.0015284,0.00064252,0.013163,0.009713,0.025895,8.8884e-07,0.4,0.8,0.6
0.022057,-0.0045391,-0.0013746,0.026553,0.00059068,0.00086846,-0.00013133,2.4133e-05,-0.0005041,0.051853,-0.015159,-0.014439,-0.00064293,0.00015873,-0.0025687,0,0,0,0.026575,0.0010554,0.00038186,0.013097,0.0093374,0.025865,9.0757e-07,0.45,0.8,0.6
0.024632,-0.0044161,-0.0012361,0.02651,0.00014926,0.00022756,-0.00012479,-0.0004416,-0.00049925,0.050434,-0.015004,-0.014803,-0.000447,-0.0020969,-0.0023193,0,0,0,0.026539,0.00070438,-0.00035683,0.013448,0.0089623,0.026388,1.0272e-06,0.5,0.8,0.6
0.027123,-0.00428,-0.0010914,0.026558,-0.0002327,-0.00031844,-0.0001143,-0.00080777,-0.00043269,0.048291,-0.014619,-0.014825,-0.00031901,-0.0038415,-0.0018282,0,0,0,0.026587,0.00055611,-0.0011357,0.013861,0.008669,0.026922,1.1461e-06,0.55,0.8,0.6
0.029496,-0.0042091,-0.0010048,0.026274,-0.00031239,-0.00051818,6.5562e-05,-0.00094335,-0.00014929,0.046736,-0.014214,-0.014705,0.00040271,-0.0045925,-0.00057712,0,0,0,0.026288,0.00055942,-0.0014033,0.013845,0.0084812,0.026769,1.141e-06,0.6,0.8,0.6
0.031812,-0.0042454,-0.0010129,0.02624,-0.00036679,-0.00062814,0.00031678,-0.00094867,0.0002216,0.046758,-0.01423,-0.014847,0.0013791,-0.0046147,0.00096177,0,0,0,0.026257,0.00048487,-0.0014965,0.013877,0.008415,0.026823,1.1491e-06,0.65,0.8,0.6
0.034188,-0.0043939,-0.0011197,0.026451,-0.00039879,-0.00064511,0.0004519,-0.00081966,0.00046496,0.048359,-0.014677,-0.015263,0.0019129,-0.0038921,0.0020099,0,0,0,0.026486,0.0003272,-0.0014055,0.013946,0.0084691,0.027072,1.1674e-06,0.7,0.8,0.6
0.036684,-0.004623,-0.0012957,0.026331,-0.00013356,-0.00031256,0.00036332,-0.00044841,0.00045788,0.050561,-0.015128,-0.015571,0.0016216,-0.0021256,0.002117,0,0,0,0.026361,0.00029842,-0.00077497,0.013568,0.0086282,0.026622,1.056e-06,0.75,0.8,0.6
0.039267,-0.0048678,-0.0014816,0.026308,0.00017039,7.6865e-05,0.00022202,3.8538e-05,0.00035851,0.052088,-0.015374,-0.015615,0.0011073,0.00023465,0.001816,0,0,0,0.026323,0.00043722,-0.00020575,0.013265,0.0088516,0.026216,9.4566e-07,0.8,0.8,0.6
0.041896,-0.0050703,-0.0016276,0.026639,0.00023262,0.00021994,0.00018466,0.00040432,0.00032256,0.053006,-0.01565,-0.015683,0.00096022,0.0021025,0.0016773,0,0,0,0.026649,0.00065157,-0.0002086,0.013429,0.0090305,0.026439,9.4728e-07,0.85,0.8,0.6
0.044567,-0.0052069,-0.001718,0.026986,0.00013249,0.00018542,0.00016848,0.0005723,0.00027674,0.053781,-0.016038,-0.0159,0.00087608,0.0029759,0.0014391,0,0,0,0.026992,0.0007423,-0.00043087,0.013712,0.0091012,0.026856,9.9072e-07,0.9,0.8,0.6
0.047274,-0.0052811,-0.0017621,0.027203,1.7832e-05,0.00011244,8.3079e-05,0.00061683,0.00015212,0.054328,-0.016354,-0.016108,0.00043201,0.0032075,0.00079102,0,0,0,0.027206,0.00069725,-0.00056994,0.013888,0.0091112,0.027165,1.0245e-06,0.95,0.8,0.6
0.048634,-0.0053043,-0.0017749,0.027278,-2.6714e-05,8.2036e-05,1.5376e-05,0.00062279,6.6387e-05,0.054523,-0.016469,-0.016187,7.9955e-05,0.0032385,0.00034521,0,0,0,0.027279,0.00066744,-0.00061342,0.013946,0.0091111,0.027275,1.0369e-06,1,0.8,0.6
0.0009642,-0.00061845,-0.00015215,0.025625,0.0091617,0.0097374,-0.0045784,4.3652e-05,-0.0011613,0.039911,-0.0028942,-0.0013973,-0.023808,0.00022699,-0.006039,0,0,0,0.026923,0.009706,0.0078952,0.0095139,0.014841,0.018195,3.0273e-07,0,0.85,0.6
0.0019956,-0.0012212,-0.0002984,0.025701,0.0074819,0.0085738,-0.0042779,8.4442e-05,-0.001138,0.041768,-0.0056008,-0.0027619,-0.022245,0.0004391,-0.0059174,0,0,0,0.026781,0.0085266,0.0064485,0.010166,0.013919,0.019384,3.6777e-07,0.05,0.85,0.6
0.0041768,-0.0023647,-0.00057744,0.026182,0.0046831,0.0065632,-0.0035141,0.00016252,-0.0010714,0.045615,-0.010281,-0.0053925,-0.018273,0.00084512,-0.0055714,0,0,0,0.026849,0.0065057,0.0040731,0.011388,0.012476,0.021669,5.0809e-07,0.1,0.85,0.6
0.0065571,-0.0033429,-0.00082627,0.026803,0.0028932,0.005025,-0.0025858,0.00023627,-0.0009761,0.048855,-0.01331,-0.0077677,-0.013446,0.0012286,-0.0050757,0,0,0,0.027155,0.0049878,0.0025781,0.012289,0.011574,0.02347,6.4378e-07,0.15,0.85,0.6
0.0090623,-0.0041091,-0.0010385,0.02706,0.0018273,0.0037711,-0.0017537,0.00030813,-0.0008666,0.050762,-0.014844,-0.0097903,-0.0091191,0.0016023,-0.0045063,0,0,0,0.027232,0.0037712,0.0016553,0.012788,0.010886,0.02459,7.4563e-07,0.2,0.85,0.6
0.011633,-0.0046691,-0.0012083,0.027046,0.0012103,0.002774,-0.0011217,0.00037429,-0.00074901,0.051702,-0.015472,-0.011406,-0.005833,0.0019463,-0.0038949,0,0,0,0.027128,0.0028276,0.0010744,0.013027,0.010343,0.025225,8.1122e-07,0.25,0.85,0.6
0.014232,-0.0050468,-0.0013305,0.026877,0.00087632,0.0020228,-0.00066097,0.00042091,-0.00062288,0.052014,-0.015587,-0.012606,-0.003437,0.0021887,-0.003239,0,0,0,0.026916,0.0021429,0.00071675,0.0131,0.0099253,0.025517,8.4462e-07,0.3,0.85,0.6
0.016835,-0.0052642,-0.0013991,0.02661,0.00070874,0.0014789,-0.00030558,0.0004157,-0.00048076,0.051907,-0.015436,-0.013433,-0.001589,0.0021616,-0.0025,0,0,0,0.026629,0.0016506,0.00051829,0.013055,0.0095992,0.025564,8.526e-07,0.35,0.85,0.6
0.019423,-0.0053393,-0.0014092,0.026267,0.00058714,0.0010673,-1.5523e-05,0.00030657,-0.00032299,0.051542,-0.015227,-0.013978,-8.0722e-05,0.0015942,-0.0016795,0,0,0,0.026277,0.0012142,0.00043057,0.012923,0.0093073,0.025465,8.4538e-07,0.4,0.85,0.6
0.021989,-0.005296,-0.0013615,0.025848,0.00039509,0.00068975,0.00019498,5.3621e-05,-0.0001756,0.051045,-0.015133,-0.014366,0.0010139,0.00027883,-0.00091314,0,0,0,0.025856,0.00080852,0.00026814,0.012794,0.0089777,0.025323,8.3275e-07,0.45,0.85,0.6
0.024528,-0.0051741,-0.0012719,0.025486,7.9257e-05,0.00029308,0.0002642,-0.000323,-8.3613e-05,0.050423,-0.0152,-0.014652,0.0014186,-0.0016495,-0.00040825,0,0,0,0.025497,0.00058624,-0.00022526,0.012861,0.0086194,0.02533,8.4201e-07,0.5,0.85,0.6
0.027035,-0.0050366,-0.001176,0.025272,-0.0002384,-4.2428e-05,0.00022536,-0.00069663,-3.671e-05,0.049741,-0.015307,-0.014812,0.0012629,-0.0035489,-0.00013683,0,0,0,0.025284,0.00057847,-0.00087097,0.013078,0.0083305,0.025466,8.6937e-07,0.55,0.85,0.6
0.02951,-0.0049596,-0.0011184,0.025113,-0.00039379,-0.00022606,0.00019148,-0.00090956,1.2221e-05,0.049307,-0.015339,-0.014904,0.0010304,-0.0046596,9.1395e-05,0,0,0,0.025119,0.00062432,-0.0012503,0.013185,0.0081644,0.025487,8.739e-07,0.6,0.85,0.6
0.03197,-0.0049962,-0.001128,0.025095,-0.00042434,-0.00030994,0.00017242,-0.00091104,6.0557e-05,0.049338,-0.015338,-0.015038,0.00081566,-0.0046658,0.00028904,0,0,0,0.025101,0.00056576,-0.0013059,0.013204,0.0081203,0.025525,8.7844e-07,0.65,0.85,0.6
0.034447,-0.0051514,-0.0012078,0.025216,-0.00033359,-0.00030024,0.00010423,-0.00069798,7.8787e-05,0.049837,-0.015308,-0.015228,0.00041636,-0.0035531,0.00035798,0,0,0,0.025226,0.00039615,-0.00104,0.013133,0.0081942,0.025584,8.823e-07,0.7,0.85,0.6
0.036961,-0.0053834,-0.0013344,0.025385,-9.157e-05,-0.00016374,-8.0245e-06,-0.00031639,6.5693e-05,0.050596,-0.015207,-0.015399,-9.7992e-05,-0.0016137,0.00031608,0,0,0,0.025392,0.00025854,-0.00052167,0.012957,0.0083765,0.025537,8.6322e-07,0.75,0.85,0.6
0.039511,-0.005629,-0.0014683,0.025692,0.00013068,-2.17e-05,-5.4924e-05,7.8687e-05,6.8251e-05,0.051318,-0.015141,-0.015537,-0.0002856,0.00040917,0.00035491,0,0,0,0.025695,0.0003075,-0.0002023,0.012949,0.0086002,0.025648,8.6544e-07,0.8,0.85,0.6
0.042093,-0.0058395,-0.0015782,0.026042,0.00020106,1.4997e-05,-1.4943e-05,0.00036174,9.6e-05,0.051955,-0.015232,-0.015716,-7.7703e-05,0.001881,0.0004992,0,0,0,0.026045,0.00049131,-0.00027779,0.013161,0.0087528,0.025948,8.949e-07,0.85,0.85,0.6
0.044707,-0.0059912,-0.0016523,0.026301,0.00015455,-2.8438e-05,2.8227e-05,0.00051248,0.00010345,0.052526,-0.015454,-0.01593,0.00014678,0.0026649,0.00053796,0,0,0,0.026303,0.00059454,-0.00047016,0.013386,0.008809,0.026257,9.2549e-07,0.9,0.85,0.6
0.047346,-0.0060791,-0.0016925,0.026465,7.9286e-05,-8.4412e-05,4.8408e-06,0.00057014,5.6249e-05,0.052934,-0.01567,-0.016096,2.5172e-05,0.0029647,0.0002925,0,0,0,0.026466,0.0005856,-0.00059165,0.013529,0.0088201,0.026489,9.4948e-07,0.95,0.85,0.6
0.048671,-0.0061075,-0.0017051,0.026523,4.6754e-05,-0.00010746,-3.229e-05,0.00058311,1.5654e-05,0.053083,-0.015756,-0.016157,-0.00016791,0.0030322,8.1401e-05,0,0,0,0.026524,0.00057033,-0.00063163,0.013578,0.0088209,0.026575,9.5858e-07,1,0.85,0.6
0.0010091,-0.00078436,-0.00015035,0.026515,0.0086383,0.0098491,-0.0054562,3.356e-05,-0.0011441,0.041938,-0.0045422,-0.001394,-0.028372,0.00017451,-0.0059492,0,0,0,0.028199,0.0098195,0.0069846,0.010607,0.015001,0.019964,3.8567e-07,0,0.9,0.6
0.0020969,-0.0015383,-0.00029488,0.026419,0.0065002,0.0084983,-0.0048091,6.6777e-05,-0.001116,0.043839,-0.0079501,-0.0027549,-0.025007,0.00034724,-0.0058031,0,0,0,0.027702,0.0084543,0.0052613,0.01122,0.013806,0.021042,4.4885e-07,0.05,0.9,0.6
0.0043839,-0.0029325,-0.00057032,0.026559,0.0033995,0.0062984,-0.0034788,0.00013206,-0.0010363,0.047299,-0.012915,-0.0053782,-0.01809,0.00068671,-0.0053886,0,0,0,0.0272,0.0062454,0.0028115,0.012194,0.012086,0.022875,5.7292e-07,0.1,0.9,0.6
0.0068268,-0.0040536,-0.00081472,0.026731,0.0019304,0.004725,-0.0022528,0.0001945,-0.00091922,0.04947,-0.015013,-0.0077472,-0.011715,0.0010114,-0.0047799,0,0,0,0.027015,0.0046897,0.001682,0.012667,0.011129,0.023977,6.7107e-07,0.15,0.9,0.6
0.0093309,-0.0048783,-0.001021,0.026532,0.0011493,0.0034204,-0.0013529,0.00025261,-0.00077922,0.050322,-0.015673,-0.0097679,-0.0070348,0.0013136,-0.004052,0,0,0,0.026651,0.0034152,0.0010356,0.012808,0.010367,0.024516,7.3262e-07,0.2,0.9,0.6
0.011859,-0.005455,-0.0011837,0.026269,0.00073345,0.0024059,-0.00076211,0.0003018,-0.00062508,0.050654,-0.015738,-0.011389,-0.003963,0.0015694,-0.0032504,0,0,0,0.026318,0.0024419,0.00064819,0.012835,0.0098027,0.024824,7.7203e-07,0.25,0.9,0.6
0.014396,-0.0058296,-0.0012986,0.026033,0.00052725,0.0016642,-0.00036183,0.00032974,-0.00046298,0.050751,-0.015564,-0.012608,-0.0018815,0.0017147,-0.0024075,0,0,0,0.026052,0.0017483,0.00042352,0.012814,0.0094081,0.024994,7.9473e-07,0.3,0.9,0.6
0.016934,-0.0060355,-0.0013637,0.025826,0.00043039,0.0011468,-6.0096e-05,0.00031316,-0.00029633,0.050706,-0.015323,-0.01346,-0.0003125,0.0016284,-0.0015409,0,0,0,0.025834,0.0012643,0.00030538,0.012764,0.0091345,0.025064,8.0493e-07,0.35,0.9,0.6
0.019467,-0.0060997,-0.0013794,0.02564,0.00035767,0.00078876,0.00018625,0.00022079,-0.00013231,0.050592,-0.015142,-0.014021,0.00096852,0.0011481,-0.00068803,0,0,0,0.025645,0.00088505,0.00025655,0.012694,0.0089288,0.025081,8.0861e-07,0.4,0.9,0.6
0.021993,-0.0060523,-0.0013513,0.025469,0.00024029,0.00052319,0.00037051,3.0846e-05,9.5486e-06,0.050481,-0.015115,-0.014379,0.0019267,0.0001604,4.9652e-05,0,0,0,0.025477,0.00059729,0.000159,0.012659,0.0087443,0.025102,8.115e-07,0.45,0.9,0.6
0.024515,-0.0059368,-0.0012949,0.025318,4.4578e-05,0.00030579,0.00045289,-0.00024032,0.000101,0.050426,-0.015285,-0.014606,0.002355,-0.0012497,0.0005252,0,0,0,0.025328,0.00048903,-0.00014828,0.012738,0.0085561,0.025165,8.1629e-07,0.5,0.9,0.6
0.027036,-0.005813,-0.0012355,0.025201,-0.00019218,0.00012605,0.00040513,-0.00051566,0.00012125,0.050442,-0.015581,-0.014753,0.0021067,-0.0026815,0.00063052,0,0,0,0.025209,0.00051911,-0.00059349,0.012901,0.0083783,0.025268,8.2246e-07,0.55,0.9,0.6
0.029559,-0.0057464,-0.0012013,0.025141,-0.00036083,-3.3225e-06,0.00025123,-0.00068722,7.5519e-05,0.0505,-0.015804,-0.014875,0.0013064,-0.0035736,0.0003927,0,0,0,0.025145,0.00054377,-0.00091193,0.013028,0.0082589,0.025363,8.2827e-07,0.6,0.9,0.6
0.032086,-0.0057826,-0.0012114,0.025151,-0.00037621,-6.8854e-05,5.29e-05,-0.00068628,-3.5501e-06,0.050569,-0.015802,-0.015003,0.00027508,-0.0035687,-1.8461e-05,0,0,0,0.025152,0.00049629,-0.00094292,0.013048,0.0082353,0.025409,8.3301e-07,0.65,0.9,0.6
0.034616,-0.0059268,-0.0012682,0.025228,-0.00024158,-8.1655e-05,-0.0001223,-0.00051147,-7.3827e-05,0.05065,-0.015571,-0.015155,-0.00063595,-0.0026596,-0.0003839,0,0,0,0.02523,0.00036877,-0.0006942,0.012962,0.0083016,0.025413,8.3716e-07,0.7,0.9,0.6
0.037151,-0.0061443,-0.0013576,0.025354,-4.6635e-05,-7.7305e-05,-0.00021606,-0.00022887,-0.00010355,0.050781,-0.015259,-0.015339,-0.0011235,-0.0011901,-0.00053844,0,0,0,0.025357,0.00022511,-0.00035219,0.012854,0.0084099,0.025427,8.4237e-07,0.75,0.9,0.6
0.039694,-0.0063819,-0.0014561,0.025498,9.7633e-05,-9.1546e-05,-0.0002105,5.6129e-05,-8.8527e-05,0.050993,-0.015049,-0.015541,-0.0010946,0.00029187,-0.00046034,0,0,0,0.025501,0.00020914,-0.00020585,0.012854,0.0085015,0.025503,8.5104e-07,0.8,0.9,0.6
0.04225,-0.0065935,-0.0015427,0.025639,0.00014886,-0.00014049,-0.0001433,0.00026842,-5.008e-05,0.051273,-0.015001,-0.015754,-0.00074514,0.0013958,-0.00026041,0,0,0,0.02564,0.00031993,-0.00031325,0.012977,0.0085491,0.025644,8.6425e-07,0.85,0.9,0.6
0.044821,-0.0067523,-0.001606,0.025757,0.00012873,-0.00021099,-6.9905e-05,0.00039228,-1.5636e-05,0.051563,-0.01507,-0.015953,-0.00036351,0.0020399,-8.131e-05,0,0,0,0.025758,0.00039926,-0.00048225,0.01312,0.0085583,0.025811,8.7996e-07,0.9,0.9,0.6
0.047407,-0.0068481,-0.0016434,0.025838,8.5777e-05,-0.00027085,-5.29e-05,0.0004485,-1.1734e-05,0.051786,-0.015168,-0.016096,-0.00027508,0.0023322,-6.1017e-05,0,0,0,0.025838,0.00040552,-0.00059099,0.013214,0.0085508,0.025945,8.9307e-07,0.95,0.9,0.6
0.048702,-0.0068799,-0.0016556,0.025866,6.586e-05,-0.00029373,-6.7919e-05,0.00046361,-2.0854e-05,0.05187,-0.015212,-0.016147,-0.00035318,0.0024108,-0.00010844,0,0,0,0.025867,0.00039947,-0.00062775,0.013247,0.0085462,0.025996,8.9818e-07,1,0.9,0.6
0.0012036,-0.0010727,-0.00015244,0.030132,0.0086122,0.010919,-0.0065318,2.0312e-05,-0.0011611,0.048546,-0.0074062,-0.0014093,-0.033965,0.00010562,-0.0060379,0,0,0,0.032245,0.010888,0.0065298,0.012858,0.016554,0.023863,6.7303e-07,0,0.95,0.6
0.0024273,-0.0020162,-0.00029861,0.028768,0.0055923,0.0089166,-0.0051132,4.2482e-05,-0.001131,0.04883,-0.011426,-0.0027828,-0.026589,0.00022091,-0.0058813,0,0,0,0.030165,0.008872,0.0042396,0.012963,0.014426,0.023969,6.483e-07,0.05,0.95,0.6
0.004883,-0.0036562,-0.00057652,0.026881,0.0019365,0.0059314,-0.0028339,8.751e-05,-0.0010418,0.049041,-0.015814,-0.0054278,-0.014737,0.00045505,-0.0054174,0,0,0,0.027343,0.0058777,0.0015282,0.012907,0.011583,0.023952,6.3008e-07,0.1,0.95,0.6
0.0073314,-0.0048443,-0.00082168,0.025915,0.00094578,0.0041519,-0.0015081,0.00013102,-0.00090508,0.048772,-0.016149,-0.0078128,-0.007842,0.00068132,-0.0047064,0,0,0,0.026083,0.0041137,0.00081676,0.012633,0.010338,0.023798,6.4759e-07,0.15,0.95,0.6
0.0097602,-0.0056764,-0.0010267,0.025253,0.00044294,0.0027861,-0.00078739,0.00016968,-0.00073655,0.048568,-0.015937,-0.0098452,-0.0040944,0.00088236,-0.00383,0,0,0,0.025317,0.0027713,0.00039306,0.012462,0.0094939,0.023831,6.7266e-07,0.2,0.95,0.6
0.012188,-0.0062429,-0.0011858,0.024936,0.00023106,0.001813,-0.00037997,0.00020046,-0.00054787,0.048645,-0.015587,-0.011474,-0.0019758,0.0010424,-0.0028489,0,0,0,0.024961,0.0018267,0.00019185,0.012385,0.0089933,0.023997,6.9995e-07,0.25,0.95,0.6
0.014625,-0.0066032,-0.0012955,0.024813,0.00014776,0.0011402,-0.00012221,0.00021501,-0.0003512,0.048853,-0.015276,-0.012696,-0.00063547,0.0011181,-0.0018263,0,0,0,0.024822,0.0011844,9.4496e-05,0.012364,0.0087002,0.024203,7.2435e-07,0.3,0.95,0.6
0.017074,-0.0067965,-0.0013555,0.024811,0.00012683,0.00070728,7.0565e-05,0.00019881,-0.00015856,0.049121,-0.015057,-0.013548,0.00036694,0.0010338,-0.00082452,0,0,0,0.024814,0.0007708,6.0035e-05,0.012377,0.0085483,0.024408,7.4548e-07,0.35,0.95,0.6
0.019537,-0.0068535,-0.0013692,0.024899,0.00011951,0.00045713,0.00023046,0.00013437,1.4563e-05,0.049451,-0.014974,-0.014097,0.0011984,0.00069873,7.5728e-05,0,0,0,0.024902,0.00050699,6.5938e-05,0.012418,0.0084918,0.02462,7.6606e-07,0.4,0.95,0.6
0.022019,-0.0068075,-0.0013457,0.025061,8.6528e-05,0.00033272,0.00034991,1.1645e-05,0.00014575,0.04987,-0.015063,-0.014423,0.0018196,6.0556e-05,0.00075789,0,0,0,0.025068,0.00036891,4.3366e-05,0.012512,0.0084934,0.024864,7.8925e-07,0.45,0.95,0.6
0.024524,-0.0067026,-0.0013004,0.025269,5.9356e-06,0.0002785,0.0003971,-0.00015519,0.00020925,0.050367,-0.015317,-0.014608,0.0020649,-0.000807,0.0010881,0,0,0,0.025278,0.00037243,-9.6916e-05,0.012687,0.0085178,0.025145,8.1547e-07,0.5,0.95,0.6
0.027055,-0.0065947,-0.0012544,0.025474,-0.00010468,0.00024908,0.00034397,-0.00032,0.00019037,0.050861,-0.015643,-0.014723,0.0017886,-0.001664,0.00098993,0,0,0,0.025481,0.00045261,-0.00031528,0.012898,0.0085394,0.025423,8.41e-07,0.55,0.95,0.6
0.02961,-0.00654,-0.0012292,0.025621,-0.00018716,0.00021765,0.0001979,-0.0004227,9.9963e-05,0.051223,-0.015877,-0.014825,0.0010291,-0.0021981,0.00051981,0,0,0,0.025624,0.00050198,-0.00047466,0.013049,0.0085504,0.025626,8.5975e-07,0.6,0.95,0.6
0.032178,-0.0065763,-0.0012393,0.025672,-0.00019015,0.00017136,1.0909e-05,-0.00042165,-2.5221e-05,0.051356,-0.015887,-0.014947,5.6728e-05,-0.0021926,-0.00013115,0,0,0,0.025674,0.00046734,-0.00048732,0.01308,0.0085512,0.025699,8.673e-07,0.65,0.95,0.6
0.034746,-0.0067085,-0.0012871,0.025628,-0.00011478,9.9786e-05,-0.00014583,-0.00031623,-0.00013784,0.051265,-0.015666,-0.015108,-0.00075832,-0.0016444,-0.00071676,0,0,0,0.02563,0.0003415,-0.00035882,0.012995,0.0085376,0.025648,8.6395e-07,0.7,0.95,0.6
0.037304,-0.0069093,-0.0013624,0.02552,-1.401e-05,-5.2142e-06,-0.0002224,-0.00014667,-0.00020203,0.051052,-0.015337,-0.015314,-0.0011565,-0.00076268,-0.0010506,0,0,0,0.025524,0.00018552,-0.0002088,0.012867,0.0085004,0.025539,8.5469e-07,0.75,0.95,0.6
0.039851,-0.0071339,-0.0014485,0.025399,5.3285e-05,-0.00013912,-0.0002151,2.867e-05,-0.00020802,0.05085,-0.01505,-0.01555,-0.0011185,0.00014908,-0.0010817,0,0,0,0.025404,0.00011582,-0.00020577,0.012805,0.0084379,0.02545,8.4615e-07,0.8,0.95,0.6
0.042389,-0.0073397,-0.0015286,0.025306,6.7631e-05,-0.00028174,-0.00015741,0.00016513,-0.00017076,0.05074,-0.014879,-0.015788,-0.00081855,0.00085866,-0.00088796,0,0,0,0.025309,0.0001434,-0.00036024,0.012834,0.0083639,0.025421,8.4258e-07,0.85,0.95,0.6
0.044925,-0.0074982,-0.001591,0.025254,4.5916e-05,-0.00040681,-9.024e-05,0.00024924,-0.00011428,0.050724,-0.014816,-0.015993,-0.00046925,0.001296,-0.00059427,0,0,0,0.025255,0.00017125,-0.00053341,0.012894,0.0082976,0.025444,8.4395e-07,0.9,0.95,0.6
0.047462,-0.0075959,-0.0016298,0.025233,1.6912e-05,-0.00049156,-6.9162e-05,0.00029025,-6.8285e-05,0.050751,-0.014811,-0.016133,-0.00035964,0.0015093,-0.00035508,0,0,0,0.025234,0.00016759,-0.00064281,0.012938,0.0082529,0.025482,8.4718e-07,0.95,0.95,0.6
0.04873,-0.0076287,-0.0016429,0.025229,4.3182e-06,-0.00052141,-7.945e-05,0.00030194,-5.2431e-05,0.050768,-0.014816,-0.016183,-0.00041314,0.0015701,-0.00027264,0,0,0,0.02523,0.00016209,-0.00067967,0.012955,0.0082373,0.025499,8.4877e-07,1,0.95,0.6
0.0013659,-0.0012632,-0.0001547,0.033119,0.0089892,0.011921,-0.0071888,1.4168e-05,-0.001181,0.053692,-0.0090461,-0.0014224,-0.037382,7.3675e-05,-0.006141,0,0,0,0.035476,0.01189,0.0066632,0.014407,0.01801,0.026619,9.05e-07,0,1,0.6
0.0026846,-0.0023105,-0.00030273,0.030601,0.0053476,0.009381,-0.0052467,3.0725e-05,-0.0011508,0.052365,-0.013294,-0.0028072,-0.027283,0.00015977,-0.0059844,0,0,0,0.03205,0.0093352,0.0039448,0.014052,0.01511,0.025857,7.9594e-07,0.05,1,0.6
0.0052365,-0.0040622,-0.00058376,0.02693,0.0012143,0.0057074,-0.0023722,6.4904e-05,-0.0010581,0.049707,-0.017154,-0.0054718,-0.012336,0.0003375,-0.0055019,0,0,0,0.027278,0.0056517,0.00092224,0.013178,0.011284,0.024353,6.5094e-07,0.1,1,0.6
0.0076554,-0.0052546,-0.00083094,0.02516,0.00042779,0.0037401,-0.0010622,9.7874e-05,-0.00091166,0.047818,-0.016484,-0.0078721,-0.0055236,0.00050894,-0.0047406,0,0,0,0.025267,0.003699,0.00036121,0.012453,0.0097758,0.023426,6.1511e-07,0.15,1,0.6
0.010018,-0.0060773,-0.0010368,0.024334,5.163e-05,0.0023583,-0.00049775,0.00012628,-0.00072871,0.047223,-0.015912,-0.0099149,-0.0025883,0.00065665,-0.0037893,0,0,0,0.024377,0.0023382,2.8905e-05,0.012174,0.0089148,0.023287,6.2756e-07,0.2,1,0.6
0.012378,-0.006633,-0.0011952,0.024082,-5.3887e-05,0.0014342,-0.00020693,0.00014824,-0.000522,0.047335,-0.015417,-0.011548,-0.001076,0.00077084,-0.0027144,0,0,0,0.024099,0.0014373,-7.4653e-05,0.012087,0.0084873,0.023459,6.545e-07,0.25,1,0.6
0.014752,-0.0069848,-0.0013026,0.024076,-7.2138e-05,0.00081705,-3.1365e-05,0.00015768,-0.00030612,0.047706,-0.01508,-0.012768,-0.0001631,0.00081993,-0.0015918,0,0,0,0.024083,0.00084325,-0.0001045,0.012094,0.0082738,0.023729,6.8333e-07,0.3,1,0.6
0.017148,-0.0071725,-0.0013593,0.024218,-4.8566e-05,0.00044427,0.00010036,0.00014417,-9.6745e-05,0.048198,-0.014894,-0.013613,0.00052189,0.0007497,-0.00050308,0,0,0,0.02422,0.00048474,-9.1297e-05,0.012156,0.0082045,0.024029,7.1188e-07,0.35,1,0.6
0.019572,-0.0072276,-0.0013696,0.024474,-1.4619e-05,0.00026398,0.00021159,9.5821e-05,8.6247e-05,0.048799,-0.014872,-0.014148,0.0011003,0.00049827,0.00044848,0,0,0,0.024478,0.00029528,-4.9241e-05,0.012264,0.0082413,0.024357,7.4216e-07,0.4,1,0.6
0.022028,-0.0071841,-0.0013437,0.024829,3.7164e-06,0.00022232,0.00029451,7.1548e-06,0.00021694,0.049522,-0.015023,-0.014455,0.0015315,3.7205e-05,0.0011281,0,0,0,0.024835,0.00024272,-2.3035e-05,0.012429,0.0083517,0.024727,7.7656e-07,0.45,1,0.6
0.024524,-0.0070857,-0.0012975,0.025236,-9.8383e-06,0.00025902,0.00032274,-0.0001105,0.00026931,0.050323,-0.015317,-0.014618,0.0016783,-0.00057461,0.0014004,0,0,0,0.025244,0.00031302,-7.1639e-05,0.012658,0.0084952,0.025126,8.1428e-07,0.5,1,0.6
0.02706,-0.0069859,-0.001252,0.025616,-4.6662e-05,0.00031413,0.00027383,-0.00022573,0.00023076,0.051072,-0.015652,-0.014714,0.0014239,-0.0011738,0.0011999,0,0,0,0.025622,0.00043465,-0.00017308,0.012898,0.0086279,0.025498,8.498e-07,0.55,1,0.6
0.029631,-0.0069368,-0.0012274,0.025876,-7.6314e-05,0.00033903,0.00015352,-0.00029771,0.00011468,0.051594,-0.015882,-0.014802,0.00079828,-0.0015481,0.00059634,0,0,0,0.025878,0.00050952,-0.00024933,0.013064,0.0087128,0.025757,8.751e-07,0.6,1,0.6
0.03222,-0.0069734,-0.0012375,0.025953,-7.233e-05,0.00030431,2.2822e-06,-0.00029699,-3.8328e-05,0.051766,-0.015899,-0.01492,1.1868e-05,-0.0015443,-0.00019931,0,0,0,0.025954,0.00048313,-0.00025227,0.013103,0.0087282,0.025847,8.8438e-07,0.65,1,0.6
0.034808,-0.0071003,-0.0012845,0.025846,-3.5054e-05,0.00020005,-0.00012418,-0.00022318,-0.00017609,0.051593,-0.015698,-0.015087,-0.00064571,-0.0011605,-0.00091566,0,0,0,0.025849,0.00034869,-0.00018624,0.013017,0.0086704,0.025773,8.7782e-07,0.7,1,0.6
0.037379,-0.007293,-0.0013592,0.025617,8.7162e-06,3.5479e-05,-0.00018675,-0.0001048,-0.00025888,0.051208,-0.015374,-0.015305,-0.00097108,-0.00054496,-0.0013462,0,0,0,0.025622,0.00017397,-0.00013428,0.012878,0.0085539,0.025604,8.6164e-07,0.75,1,0.6
0.039929,-0.0075102,-0.0014458,0.025356,2.8675e-05,-0.00016232,-0.00018206,1.8556e-05,-0.00027427,0.050792,-0.015059,-0.015555,-0.00094673,9.6491e-05,-0.0014262,0,0,0,0.025361,7.1333e-05,-0.00020975,0.012785,0.0084075,0.025431,8.4443e-07,0.8,1,0.6
0.042458,-0.0077113,-0.0015278,0.025137,1.5928e-05,-0.00035745,-0.00013602,0.00011664,-0.00023487,0.050478,-0.014836,-0.015806,-0.00070729,0.00060652,-0.0012213,0,0,0,0.02514,5.3848e-05,-0.00039879,0.012769,0.008265,0.025316,8.3236e-07,0.85,1,0.6
0.044976,-0.0078678,-0.0015929,0.024993,-1.5092e-05,-0.00051722,-8.07e-05,0.00017874,-0.00016447,0.050304,-0.014715,-0.016021,-0.00041964,0.00092946,-0.00085524,0,0,0,0.024994,4.9358e-05,-0.00058338,0.012789,0.0081534,0.025268,8.2684e-07,0.9,1,0.6
0.047489,-0.007965,-0.001634,0.024919,-4.3512e-05,-0.00061984,-6.6637e-05,0.00020975,-9.6633e-05,0.050237,-0.014667,-0.016165,-0.00034651,0.0010907,-0.00050249,0,0,0,0.02492,3.446e-05,-0.00069857,0.012809,0.0080854,0.02526,8.2562e-07,0.95,1,0.6
0.048745,-0.0079978,-0.001648,0.024898,-5.4672e-05,-0.00065498,-7.8982e-05,0.00021874,-6.8609e-05,0.050222,-0.014655,-0.016216,-0.0004107,0.0011374,-0.00035677,0,0,0,0.024899,2.6945e-05,-0.00073716,0.012818,0.0080628,0.025263,8.2567e-07,1,1,0.6
0.0013276,0.0012133,-0.00020022,0.032216,0.0087336,0.011583,0.0068903,-6.8321e-06,-0.0015187,0.052242,-0.008812,-0.0014043,0.035829,-3.5527e-05,-0.007897,0,0,0,0.034496,0.011534,0.0065031,0.013996,0.017511,0.025876,8.3204e-07,0,0,0.65
0.0026121,0.002216,-0.0003962,0.029813,0.0051978,0.0091109,0.0050081,-1.7323e-05,-0.0014732,0.051041,-0.012959,-0.0027848,0.026042,-9.0081e-05,-0.0076606,0,0,0,0.031224,0.009039,0.0038594,0.013682,0.014707,0.025199,7.3823e-07,0.05,0,0.65
0.0051041,0.0038876,-0.00077564,0.026356,0.0011932,0.0055362,0.0022147,-4.0485e-05,-0.0013381,0.048674,-0.016749,-0.005457,0.011517,-0.00021052,-0.0069584,0,0,0,0.02671,0.0054496,0.00092526,0.012892,0.011028,0.023863,6.1572e-07,0.1,0,0.65
0.0074795,0.0050173,-0.0011224,0.02477,0.00044383,0.0036234,0.00092949,-6.2126e-05,-0.0011268,0.0471,-0.016149,-0.0078816,0.0048333,-0.00032306,-0.0058594,0,0,0,0.024888,0.0035597,0.00038953,0.012249,0.0096125,0.023088,5.9167e-07,0.15,0,0.65
0.0098142,0.0057948,-0.0014236,0.024115,8.4752e-05,0.0022857,0.00036911,-7.5462e-05,-0.00086926,0.046808,-0.015671,-0.0099485,0.0019193,-0.0003924,-0.0045202,0,0,0,0.024164,0.0022498,7.1972e-05,0.012046,0.0088285,0.023087,6.134e-07,0.2,0,0.65
0.01216,0.0063266,-0.0016717,0.024022,-2.3189e-05,0.0013932,8.4898e-05,-7.9563e-05,-0.00060175,0.047222,-0.015296,-0.011613,0.00044147,-0.00041373,-0.0031291,0,0,0,0.024042,0.00138,-3.003e-05,0.012036,0.0084641,0.023403,6.5088e-07,0.25,0,0.65
0.014536,0.006683,-0.0018655,0.024158,-6.0157e-05,0.00078422,-6.6561e-05,-7.485e-05,-0.00035552,0.047881,-0.015086,-0.01289,-0.00034612,-0.00038922,-0.0018487,0,0,0,0.024165,0.00078567,-6.8969e-05,0.012117,0.008294,0.02382,6.9178e-07,0.3,0,0.65
0.016948,0.0069122,-0.002009,0.024393,-6.7962e-05,0.00038184,-0.00014844,-6.2562e-05,-0.00015077,0.048597,-0.015001,-0.013831,-0.00077189,-0.00032532,-0.00078401,0,0,0,0.024395,0.00039139,-8.0241e-05,0.012238,0.0082355,0.024244,7.3148e-07,0.35,0,0.65
0.019396,0.0070502,-0.0021093,0.024662,-6.6668e-05,0.00012827,-0.00018809,-4.4614e-05,3.3955e-06,0.049286,-0.015007,-0.0145,-0.00097808,-0.00023199,1.7657e-05,0,0,0,0.024664,0.00014466,-8.4954e-05,0.012374,0.0082411,0.024635,7.6802e-07,0.4,0,0.65
0.021877,0.0071251,-0.0021753,0.02493,-6.364e-05,-2.0769e-05,-0.0001985,-2.3587e-05,0.00010618,0.049911,-0.015073,-0.014961,-0.0010322,-0.00012265,0.00055214,0,0,0,0.024933,9.9387e-06,-9.6666e-05,0.012515,0.0082819,0.024976,8.0044e-07,0.45,0,0.65
0.024387,0.0071602,-0.0022161,0.025175,-6.116e-05,-0.00010064,-0.00018662,-2.6262e-06,0.00016223,0.050448,-0.015167,-0.01527,-0.00097043,-1.3656e-05,0.00084359,0,0,0,0.025178,-4.338e-05,-0.00012105,0.01265,0.0083379,0.02526,8.2799e-07,0.5,0,0.65
0.026922,0.0071739,-0.0022402,0.02538,-5.8747e-05,-0.00013921,-0.00015779,1.4937e-05,0.00017955,0.050879,-0.015262,-0.015471,-0.00082053,7.7673e-05,0.00093366,0,0,0,0.025383,-5.1053e-05,-0.00014932,0.012766,0.0083941,0.025483,8.4998e-07,0.55,0,0.65
0.029475,0.0071806,-0.0022545,0.025533,-5.4856e-05,-0.00015754,-0.00011787,2.6224e-05,0.00016811,0.051193,-0.015335,-0.015602,-0.00061294,0.00013636,0.00087416,0,0,0,0.025534,-4.5084e-05,-0.00016911,0.012852,0.0084401,0.025642,8.6589e-07,0.6,0,0.65
0.032041,0.00719,-0.0022642,0.025627,-4.821e-05,-0.00017025,-7.3698e-05,2.9521e-05,0.00013862,0.051385,-0.01537,-0.015688,-0.00038323,0.00015351,0.00072084,0,0,0,0.025628,-3.8792e-05,-0.00018075,0.012904,0.0084694,0.025738,8.7562e-07,0.65,0,0.65
0.034614,0.0072069,-0.0022729,0.025665,-3.8689e-05,-0.0001859,-3.2301e-05,2.4758e-05,0.00010132,0.051464,-0.015365,-0.015747,-0.00016796,0.00012874,0.00052687,0,0,0,0.025665,-3.2687e-05,-0.00019243,0.012929,0.00848,0.025778,8.797e-07,0.7,0,0.65
0.037187,0.0072321,-0.002282,0.025656,-2.7437e-05,-0.00020774,4.9045e-07,1.3507e-05,6.4704e-05,0.051453,-0.015324,-0.015793,2.5503e-06,7.0237e-05,0.00033646,0,0,0,0.025656,-2.5171e-05,-0.00021022,0.012933,0.0084736,0.025774,8.7928e-07,0.75,0,0.65
0.039759,0.0072628,-0.0022917,0.025616,-1.6277e-05,-0.00023484,2.1219e-05,-1.4991e-06,3.4648e-05,0.051382,-0.015261,-0.015829,0.00011034,-7.7954e-06,0.00018017,0,0,0,0.025616,-1.5564e-05,-0.00023565,0.012926,0.0084549,0.025742,8.7591e-07,0.8,0,0.65
0.042326,0.0072944,-0.0023012,0.025561,-6.8636e-06,-0.0002635,2.9199e-05,-1.7105e-05,1.4036e-05,0.051285,-0.015192,-0.01586,0.00015184,-8.8946e-05,7.2986e-05,0,0,0,0.025561,-5.2211e-06,-0.0002652,0.012913,0.0084303,0.025698,8.7128e-07,0.85,0,0.65
0.044887,0.0073217,-0.0023093,0.025509,-1.2563e-07,-0.00028885,2.6098e-05,-3.0425e-05,2.9822e-06,0.051192,-0.015132,-0.015883,0.00013571,-0.00015821,1.5508e-05,0,0,0,0.025509,3.6508e-06,-0.00029266,0.012901,0.0084067,0.025655,8.6685e-07,0.9,0,0.65
0.047445,0.0073401,-0.0023147,0.025472,3.7669e-06,-0.00030624,2.1588e-05,-3.9284e-05,-2.4658e-06,0.051126,-0.015092,-0.015898,0.00011226,-0.00020428,-1.2822e-05,0,0,0,0.025472,9.4346e-06,-0.00031193,0.012892,0.0083899,0.025625,8.6375e-07,0.95,0,0.65
0.048723,0.0073466,-0.0023166,0.025459,5.0201e-06,-0.00031242,2.1067e-05,-4.238e-05,-4.6326e-06,0.051102,-0.015078,-0.015903,0.00010955,-0.00022038,-2.409e-05,0,0,0,0.025459,1.1416e-05,-0.00031884,0.012889,0.0083839,0.025614,8.6265e-07,1,0,0.65
0.0011711,0.0010276,-0.0001987,0.029334,0.0083781,0.010615,0.0062397,-1.2035e-05,-0.0015046,0.047272,-0.0072131,-0.001397,0.032446,-6.2584e-05,-0.0078239,0,0,0,0.031372,0.010567,0.0063871,0.012493,0.016109,0.023205,6.2007e-07,0,0.05,0.65
0.0023636,0.0019291,-0.00039338,0.028036,0.0054445,0.0086588,0.0048602,-2.6759e-05,-0.001458,0.04761,-0.011128,-0.0027708,0.025273,-0.00013915,-0.0075814,0,0,0,0.029389,0.008589,0.0041611,0.012614,0.014047,0.023352,6.0209e-07,0.05,0.05,0.65
0.004761,0.0034916,-0.00077044,0.026277,0.0019011,0.0057382,0.0026348,-5.7221e-05,-0.0013225,0.047971,-0.015407,-0.0054307,0.013701,-0.00029755,-0.006877,0,0,0,0.026732,0.0056546,0.0015302,0.012601,0.011306,0.023428,5.9377e-07,0.1,0.05,0.65
0.0071607,0.0046162,-0.0011153,0.025439,0.00094995,0.0039944,0.0013249,-8.4294e-05,-0.0011142,0.047912,-0.01576,-0.0078446,0.0068895,-0.00043833,-0.0057938,0,0,0,0.025605,0.0039336,0.00084467,0.01238,0.010128,0.023379,6.1752e-07,0.15,0.05,0.65
0.0095522,0.0054011,-0.001415,0.02491,0.00046106,0.0026598,0.00060404,-0.00010118,-0.00086214,0.047948,-0.01562,-0.0099032,0.003141,-0.00052614,-0.0044831,0,0,0,0.024973,0.0026271,0.00043115,0.012271,0.0093437,0.023527,6.4971e-07,0.2,0.05,0.65
0.011956,0.0059407,-0.0016623,0.02473,0.0002385,0.001709,0.00020067,-0.00010624,-0.00060119,0.048291,-0.015386,-0.011563,0.0010435,-0.00055246,-0.0031262,0,0,0,0.024753,0.0016998,0.00022468,0.012264,0.0088924,0.023829,6.8673e-07,0.25,0.05,0.65
0.014381,0.0063023,-0.001856,0.02474,0.00012344,0.0010396,-3.0498e-05,-9.9626e-05,-0.00036105,0.048783,-0.015221,-0.012839,-0.00015859,-0.00051806,-0.0018775,0,0,0,0.024748,0.0010459,0.00010934,0.012319,0.0086344,0.024186,7.2376e-07,0.3,0.05,0.65
0.016834,0.006534,-0.002,0.024851,5.8867e-05,0.00058221,-0.00016284,-8.265e-05,-0.00016091,0.049318,-0.015142,-0.013782,-0.00084676,-0.00042978,-0.00083671,0,0,0,0.024854,0.00059609,4.1855e-05,0.012406,0.0084974,0.024541,7.5843e-07,0.35,0.05,0.65
0.019313,0.0066723,-0.0021012,0.025009,1.6615e-05,0.00028044,-0.00023242,-5.7694e-05,-9.4398e-06,0.049839,-0.01514,-0.014454,-0.0012086,-0.00030001,-4.9087e-05,0,0,0,0.025012,0.00029692,-2.595e-06,0.012507,0.0084353,0.024866,7.8976e-07,0.4,0.05,0.65
0.021818,0.0067461,-0.0021683,0.025181,-1.5588e-05,8.9758e-05,-0.00025749,-2.8235e-05,9.2521e-05,0.050318,-0.015194,-0.01492,-0.0013389,-0.00014682,0.00048111,0,0,0,0.025185,0.00011057,-3.981e-05,0.012612,0.0084185,0.02515,8.1726e-07,0.45,0.05,0.65
0.024345,0.0067791,-0.0022102,0.025347,-4.183e-05,-2.5145e-05,-0.00024831,1.2949e-06,0.0001493,0.050734,-0.015277,-0.015233,-0.0012912,6.7337e-06,0.00077634,0,0,0,0.025351,1.1833e-05,-8.2501e-05,0.012717,0.0084267,0.025386,8.4044e-07,0.5,0.05,0.65
0.026891,0.0067908,-0.0022353,0.025489,-6.1474e-05,-9.167e-05,-0.00021289,2.6052e-05,0.00016844,0.05107,-0.015361,-0.01544,-0.001107,0.00013547,0.00087589,0,0,0,0.025492,-2.6197e-05,-0.00013017,0.012811,0.0084453,0.025571,8.5878e-07,0.55,0.05,0.65
0.029452,0.006796,-0.0022505,0.025595,-7.1987e-05,-0.00013034,-0.00016,4.1771e-05,0.00015947,0.051312,-0.015423,-0.015575,-0.00083198,0.00021721,0.00082924,0,0,0,0.025598,-3.7079e-05,-0.0001675,0.012883,0.0084644,0.0257,8.7183e-07,0.6,0.05,0.65
0.032022,0.0068047,-0.0022611,0.02566,-7.1495e-05,-0.00015562,-9.9826e-05,4.5883e-05,0.00013272,0.051457,-0.015446,-0.015664,-0.00051909,0.00023859,0.00069017,0,0,0,0.025661,-4.1149e-05,-0.00018723,0.012924,0.0084777,0.025776,8.7951e-07,0.65,0.05,0.65
0.034598,0.006822,-0.0022705,0.025684,-6.0505e-05,-0.00017672,-4.2819e-05,3.8277e-05,9.8125e-05,0.05151,-0.015425,-0.015727,-0.00022266,0.00019904,0.00051025,0,0,0,0.025684,-4.1449e-05,-0.00019634,0.01294,0.0084821,0.025803,8.823e-07,0.7,0.05,0.65
0.037173,0.0068484,-0.0022801,0.025673,-4.2151e-05,-0.00019836,2.4193e-06,2.1304e-05,6.3889e-05,0.051489,-0.015369,-0.015775,1.258e-05,0.00011078,0.00033222,0,0,0,0.025673,-3.4827e-05,-0.00020591,0.012939,0.0084773,0.025794,8.8126e-07,0.75,0.05,0.65
0.039746,0.0068808,-0.0022902,0.025638,-2.1028e-05,-0.0002216,3.0844e-05,-9.7209e-07,3.5612e-05,0.051422,-0.015292,-0.015813,0.00016039,-5.0548e-06,0.00018518,0,0,0,0.025638,-1.902e-05,-0.00022373,0.012931,0.0084652,0.02576,8.7779e-07,0.8,0.05,0.65
0.042315,0.0069143,-0.0022999,0.025594,-1.4979e-06,-0.00024484,4.1491e-05,-2.3919e-05,1.5953e-05,0.051335,-0.015212,-0.015845,0.00021575,-0.00012438,8.2953e-05,0,0,0,0.025594,2.1951e-06,-0.00024864,0.012921,0.0084492,0.025718,8.7339e-07,0.85,0.05,0.65
0.04488,0.0069431,-0.002308,0.025552,1.3504e-05,-0.00026501,3.6774e-05,-4.337e-05,4.9389e-06,0.051255,-0.015145,-0.015869,0.00019123,-0.00022552,2.5683e-05,0,0,0,0.025552,2.1854e-05,-0.00027344,0.012913,0.0084336,0.025679,8.6933e-07,0.9,0.05,0.65
0.047441,0.0069626,-0.0023135,0.025523,2.2666e-05,-0.00027879,2.803e-05,-5.6244e-05,-1.2519e-06,0.0512,-0.015101,-0.015885,0.00014575,-0.00029247,-6.5098e-06,0,0,0,0.025523,3.5027e-05,-0.00029119,0.012907,0.0084223,0.025653,8.6655e-07,0.95,0.05,0.65
0.048721,0.0069694,-0.0023154,0.025513,2.5714e-05,-0.00028369,2.501e-05,-6.0732e-05,-3.9545e-06,0.05118,-0.015086,-0.01589,0.00013005,-0.0003158,-2.0564e-05,0,0,0,0.025513,3.9593e-05,-0.0002976,0.012905,0.0084182,0.025643,8.6556e-07,1,0.05,0.65
0.00098199,0.00074693,-0.00019732,0.025804,0.0084104,0.0095695,0.0051781,-2.3783e-05,-0.0014919,0.04082,-0.0044032,-0.0013897,0.026926,-0.00012367,-0.0077581,0,0,0,0.027426,0.0095247,0.0068336,0.010296,0.014595,0.019402,3.5569e-07,0,0.1,0.65
0.002041,0.0014643,-0.00039086,0.025718,0.0063399,0.0082384,0.0045381,-4.7632e-05,-0.0014444,0.042688,-0.0076939,-0.0027578,0.023598,-0.00024769,-0.0075107,0,0,0,0.026952,0.0081717,0.0051724,0.01089,0.013432,0.02046,4.1561e-07,0.05,0.1,0.65
0.0042688,0.0027883,-0.00076591,0.025877,0.0033446,0.0060628,0.0032152,-9.3137e-05,-0.0013088,0.04611,-0.012475,-0.0054075,0.016719,-0.00048431,-0.006806,0,0,0,0.026488,0.0059818,0.0028149,0.011836,0.011762,0.02227,5.3341e-07,0.1,0.1,0.65
0.006652,0.0038476,-0.001109,0.026086,0.0019298,0.0044985,0.001982,-0.00013055,-0.0011038,0.048316,-0.014491,-0.0078128,0.010307,-0.00067885,-0.0057398,0,0,0,0.026346,0.0044407,0.0017277,0.012309,0.010838,0.023388,6.2789e-07,0.15,0.1,0.65
0.0091004,0.0046227,-0.0014073,0.025953,0.001163,0.003203,0.0010652,-0.00015413,-0.00085761,0.049287,-0.015168,-0.0098637,0.0055389,-0.00080147,-0.0044596,0,0,0,0.026051,0.0031763,0.0010915,0.01248,0.010106,0.02399,6.9083e-07,0.2,0.1,0.65
0.011581,0.0051669,-0.0016536,0.025785,0.00072338,0.0021936,0.00046419,-0.00016106,-0.00060358,0.049819,-0.01534,-0.011517,0.0024138,-0.00083752,-0.0031386,0,0,0,0.025817,0.0021944,0.0006897,0.012564,0.0095672,0.024413,7.3768e-07,0.25,0.1,0.65
0.014082,0.0055345,-0.0018467,0.025674,0.00045836,0.0014449,8.2587e-05,-0.00015068,-0.0003695,0.050206,-0.015355,-0.01279,0.00042945,-0.00078354,-0.0019214,0,0,0,0.025684,0.0014638,0.00042982,0.012627,0.0091925,0.024755,7.7469e-07,0.3,0.1,0.65
0.016601,0.0057698,-0.0019903,0.025624,0.00028513,0.00090747,-0.00015391,-0.0001241,-0.00017333,0.050532,-0.015348,-0.01373,-0.00080032,-0.00064532,-0.00090134,0,0,0,0.025627,0.00093288,0.00025607,0.012686,0.0089388,0.025041,8.0468e-07,0.35,0.1,0.65
0.019136,0.0059086,-0.0020912,0.025619,0.00015932,0.00053169,-0.00029035,-8.4314e-05,-2.351e-05,0.050822,-0.015371,-0.014403,-0.0015098,-0.00043843,-0.00012225,0,0,0,0.025622,0.00055232,0.00013477,0.012744,0.0087698,0.025282,8.2944e-07,0.4,0.1,0.65
0.021684,0.0059803,-0.002158,0.025642,5.8836e-05,0.000275,-0.00035224,-3.6474e-05,7.8591e-05,0.051084,-0.015433,-0.014871,-0.0018317,-0.00018966,0.00040867,0,0,0,0.025648,0.00028619,4.2256e-05,0.012803,0.0086587,0.025485,8.5001e-07,0.45,0.1,0.65
0.024244,0.0060098,-0.0021996,0.02568,-2.3943e-05,0.00010334,-0.000355,1.218e-05,0.0001363,0.051313,-0.015518,-0.015187,-0.001846,6.3338e-05,0.00070879,0,0,0,0.025686,0.00011765,-4.413e-05,0.012865,0.0085865,0.02565,8.6676e-07,0.5,0.1,0.65
0.026815,0.0060178,-0.0022246,0.025719,-8.7355e-05,-9.1869e-06,-0.00031134,5.3238e-05,0.00015629,0.051495,-0.0156,-0.015397,-0.001619,0.00027684,0.00081273,0,0,0,0.025724,2.9787e-05,-0.00013131,0.012928,0.0085407,0.025775,8.7946e-07,0.55,0.1,0.65
0.029393,0.0060204,-0.0022403,0.025747,-0.00012581,-8.1624e-05,-0.00023582,7.8985e-05,0.00014771,0.051619,-0.015651,-0.015536,-0.0012263,0.00041072,0.00076809,0,0,0,0.025751,-1.1823e-05,-0.00019889,0.012975,0.0085133,0.025857,8.8776e-07,0.6,0.1,0.65
0.031977,0.0060286,-0.002252,0.025759,-0.0001354,-0.00012783,-0.00014583,8.4661e-05,0.00012116,0.051675,-0.015649,-0.01563,-0.00075829,0.00044024,0.00063004,0,0,0,0.02576,-3.6508e-05,-0.00022837,0.012994,0.0084985,0.025893,8.9153e-07,0.65,0.1,0.65
0.034561,0.0060477,-0.0022632,0.025751,-0.00011786,-0.00015797,-5.9269e-05,7.0034e-05,8.716e-05,0.051668,-0.015592,-0.015696,-0.0003082,0.00036418,0.00045323,0,0,0,0.025752,-5.2751e-05,-0.00022369,0.012988,0.0084918,0.025891,8.9126e-07,0.7,0.1,0.65
0.037143,0.0060777,-0.0022751,0.025728,-8.1075e-05,-0.00017931,9.2319e-06,3.9435e-05,5.4354e-05,0.051612,-0.015491,-0.015747,4.8006e-05,0.00020506,0.00028264,0,0,0,0.025728,-5.375e-05,-0.00020687,0.012968,0.0084892,0.025859,8.8802e-07,0.75,0.1,0.65
0.039722,0.0061147,-0.0022876,0.025696,-3.628e-05,-0.00019642,5.1417e-05,2.2203e-07,2.8279e-05,0.051531,-0.015372,-0.015788,0.00026737,1.1546e-06,0.00014705,0,0,0,0.025696,-2.8938e-05,-0.00020396,0.01295,0.0084877,0.025813,8.8323e-07,0.8,0.1,0.65
0.042297,0.0061527,-0.0022994,0.025662,6.0246e-06,-0.00021124,6.6075e-05,-3.947e-05,1.11e-05,0.051446,-0.015258,-0.015823,0.00034359,-0.00020524,5.7719e-05,0,0,0,0.025662,1.578e-05,-0.0002212,0.012942,0.0084855,0.025765,8.7824e-07,0.85,0.1,0.65
0.044867,0.0061852,-0.0023092,0.025633,3.8817e-05,-0.00022354,5.746e-05,-7.2632e-05,2.2615e-06,0.051376,-0.015168,-0.01585,0.00029879,-0.00037768,1.176e-05,0,0,0,0.025633,6.0051e-05,-0.00024493,0.012939,0.0084827,0.025727,8.7412e-07,0.9,0.1,0.65
0.047434,0.0062071,-0.0023156,0.025614,5.893e-05,-0.00023191,4.0419e-05,-9.4345e-05,-2.6855e-06,0.051331,-0.015111,-0.015867,0.00021018,-0.00049059,-1.3965e-05,0,0,0,0.025614,8.9558e-05,-0.00026262,0.012938,0.0084802,0.025702,8.7147e-07,0.95,0.1,0.65
0.048717,0.0062147,-0.0023179,0.025607,6.5635e-05,-0.0002349,3.2709e-05,-0.00010187,-5.0907e-06,0.051315,-0.015092,-0.015873,0.00017009,-0.00052972,-2.6472e-05,0,0,0,0.025607,9.9722e-05,-0.00026903,0.012938,0.0084792,0.025694,8.7056e-07,1,0.1,0.65
0.00093513,0.00058731,-0.00019891,0.024854,0.0089115,0.0094316,0.0043322,-3.5163e-05,-0.001505,0.038702,-0.0027482,-0.001396,0.022527,-0.00018284,-0.0078261,0,0,0,0.026118,0.0093872,0.0076921,0.0092127,0.014399,0.017644,2.769e-07,0,0.15,0.65
0.0019351,0.0011597,-0.00039391,0.024925,0.0073058,0.0082839,0.0040233,-6.7506e-05,-0.0014579,0.040496,-0.0053137,-0.0027706,0.020921,-0.00035103,-0.0075811,0,0,0,0.025972,0.0082162,0.0063261,0.009823,0.013505,0.018779,3.3624e-07,0.05,0.15,0.65
0.0040496,0.0022441,-0.00077157,0.025385,0.0046307,0.0062882,0.0032372,-0.0001262,-0.0013227,0.044219,-0.0097425,-0.0054332,0.016833,-0.00065622,-0.0068783,0,0,0,0.026019,0.0062044,0.0040808,0.010969,0.012101,0.020964,4.6406e-07,0.1,0.15,0.65
0.006357,0.0031671,-0.0011166,0.025984,0.0029148,0.0047452,0.0022742,-0.00017148,-0.0011172,0.047372,-0.012608,-0.0078489,0.011826,-0.0008917,-0.0058094,0,0,0,0.026299,0.0046875,0.0026576,0.011821,0.011215,0.022701,5.878e-07,0.15,0.15,0.65
0.0087868,0.0038844,-0.0014159,0.026247,0.0018723,0.0034834,0.0013978,-0.00020004,-0.0008698,0.049281,-0.014094,-0.0099049,0.0072688,-0.0010402,-0.0045229,0,0,0,0.02638,0.0034642,0.0017584,0.012311,0.010534,0.023819,6.8301e-07,0.2,0.15,0.65
0.011285,0.0044067,-0.0016621,0.026283,0.0012258,0.0024737,0.00072502,-0.00020862,-0.00061368,0.050345,-0.014802,-0.011558,0.0037701,-0.0010848,-0.0031912,0,0,0,0.02633,0.0024893,0.0011628,0.012584,0.009994,0.024533,7.5112e-07,0.25,0.15,0.65
0.013821,0.0047668,-0.0018539,0.026225,0.00080852,0.0016982,0.00024846,-0.00019536,-0.00037625,0.050945,-0.015137,-0.012824,0.001292,-0.0010159,-0.0019565,0,0,0,0.026238,0.0017363,0.00075704,0.012741,0.0095771,0.025007,7.991e-07,0.3,0.15,0.65
0.01638,0.0049992,-0.0019947,0.026144,0.00052147,0.0011222,-7.3412e-05,-0.00016018,-0.00017545,0.051302,-0.015317,-0.013755,-0.00038174,-0.00083291,-0.00091233,0,0,0,0.026148,0.001165,0.0004749,0.012837,0.0092626,0.025336,8.3325e-07,0.35,0.15,0.65
0.018952,0.0051351,-0.0020917,0.026071,0.00030538,0.00070438,-0.00027618,-0.00010561,-2.0517e-05,0.051537,-0.015455,-0.014417,-0.0014362,-0.00054915,-0.00010669,0,0,0,0.026075,0.00073437,0.00027149,0.012902,0.0090271,0.025576,8.5839e-07,0.4,0.15,0.65
0.021533,0.0052028,-0.0021537,0.026017,0.00012837,0.00040596,-0.00038298,-3.7806e-05,8.5525e-05,0.051713,-0.015597,-0.014875,-0.0019915,-0.00019659,0.00044473,0,0,0,0.026023,0.00041922,0.00010887,0.012957,0.0088503,0.02576,8.7767e-07,0.45,0.15,0.65
0.024123,0.0052273,-0.0021904,0.025979,-2.0451e-05,0.00019556,-0.00040884,3.2984e-05,0.0001441,0.051853,-0.015746,-0.015184,-0.002126,0.00017152,0.00074934,0,0,0,0.025986,0.00021164,-4.3869e-05,0.013015,0.0087181,0.025904,8.9251e-07,0.5,0.15,0.65
0.026719,0.0052307,-0.0022113,0.025952,-0.00013656,4.9998e-05,-0.00036795,9.362e-05,0.0001607,0.051956,-0.015874,-0.015389,-0.0019133,0.00048682,0.00083566,0,0,0,0.025958,9.4258e-05,-0.00018716,0.013073,0.0086218,0.026006,9.0303e-07,0.55,0.15,0.65
0.029318,0.0052309,-0.0022247,0.025926,-0.00020846,-4.7068e-05,-0.0002792,0.00013129,0.00014492,0.052006,-0.015944,-0.015525,-0.0014518,0.00068269,0.00075358,0,0,0,0.02593,2.9789e-05,-0.00028939,0.01311,0.0085569,0.026062,9.0873e-07,0.6,0.15,0.65
0.031919,0.0052397,-0.0022368,0.025895,-0.00022808,-0.00010786,-0.00016729,0.00013779,0.00010952,0.051992,-0.015929,-0.015616,-0.00086989,0.0007165,0.00056951,0,0,0,0.025897,-1.3441e-05,-0.00032436,0.013111,0.0085198,0.026068,9.0936e-07,0.65,0.15,0.65
0.034518,0.0052628,-0.0022509,0.025857,-0.00019851,-0.00014297,-5.8448e-05,0.00011269,6.7968e-05,0.051919,-0.015825,-0.015681,-0.00030393,0.00058599,0.00035344,0,0,0,0.025858,-4.7796e-05,-0.00029427,0.013076,0.0085052,0.02603,9.0554e-07,0.7,0.15,0.65
0.037111,0.0052992,-0.0022676,0.025814,-0.00013483,-0.00016217,2.619e-05,6.3414e-05,3.1228e-05,0.051806,-0.015661,-0.015732,0.00013619,0.00032975,0.00016238,0,0,0,0.025814,-6.4916e-05,-0.00023232,0.013023,0.0085056,0.025963,8.9879e-07,0.75,0.15,0.65
0.039698,0.0053436,-0.0022857,0.025772,-5.814e-05,-0.00017344,7.5621e-05,2.2042e-06,5.5494e-06,0.051682,-0.015475,-0.015775,0.00039323,1.1462e-05,2.8857e-05,0,0,0,0.025772,-3.8317e-05,-0.00019357,0.012983,0.0085133,0.025888,8.9103e-07,0.8,0.15,0.65
0.042279,0.0053885,-0.002303,0.025736,1.2718e-05,-0.00018175,8.953e-05,-5.8089e-05,-7.7355e-06,0.051573,-0.015307,-0.015812,0.00046556,-0.00030206,-4.0225e-05,0,0,0,0.025736,3.2838e-05,-0.00020223,0.012969,0.0085222,0.025822,8.8398e-07,0.85,0.15,0.65
0.044855,0.0054264,-0.0023172,0.025709,6.6244e-05,-0.00018876,7.4977e-05,-0.00010724,-1.073e-05,0.051492,-0.01518,-0.015843,0.00038988,-0.00055765,-5.5797e-05,0,0,0,0.02571,0.00010784,-0.00023062,0.01297,0.0085289,0.025773,8.7871e-07,0.9,0.15,0.65
0.047428,0.0054515,-0.0023264,0.025694,9.8316e-05,-0.00019384,5.0614e-05,-0.00013881,-1.0134e-05,0.051445,-0.015103,-0.015863,0.00026319,-0.00072181,-5.2695e-05,0,0,0,0.025694,0.00015632,-0.00025197,0.012973,0.0085328,0.025744,8.7558e-07,0.95,0.15,0.65
0.048714,0.0054603,-0.0023296,0.025689,0.00010886,-0.00019574,3.9447e-05,-0.00014963,-1.02e-05,0.05143,-0.015078,-0.01587,0.00020512,-0.00077809,-5.3041e-05,0,0,0,0.025689,0.00017271,-0.00025966,0.012974,0.008534,0.025735,8.7455e-07,1,0.15,0.65
0.00091522,0.00047211,-0.00020273,0.024421,0.0090877,0.009347,0.0035351,-4.3156e-05,-0.0015353,0.037781,-0.0020851,-0.0014111,0.018383,-0.00022441,-0.0079838,0,0,0,0.025365,0.0093,0.0081907,0.008587,0.014285,0.016649,2.3615e-07,0,0.2,0.65
0.001889,0.00093291,-0.00040108,0.024556,0.0077993,0.0083067,0.0033619,-8.1528e-05,-0.0014885,0.039449,-0.0041191,-0.0027998,0.017482,-0.00042395,-0.0077403,0,0,0,0.02537,0.0082344,0.0070582,0.0091557,0.013554,0.017756,2.902e-07,0.05,0.2,0.65
0.0039449,0.0018141,-0.00078459,0.025121,0.0055299,0.0064513,0.0028826,-0.00014946,-0.0013532,0.043053,-0.0078835,-0.0054879,0.01499,-0.0007772,-0.0070365,0,0,0,0.025667,0.0063625,0.0050724,0.010297,0.012367,0.019985,4.1194e-07,0.1,0.2,0.65
0.0061943,0.0025868,-0.0011339,0.025844,0.0038271,0.00494,0.002212,-0.0002001,-0.001146,0.046428,-0.010816,-0.0079227,0.011503,-0.0010405,-0.0059595,0,0,0,0.026153,0.0048849,0.0035734,0.01129,0.011537,0.021957,5.4193e-07,0.15,0.2,0.65
0.0085877,0.0032133,-0.0014357,0.026292,0.0026145,0.0036773,0.0015081,-0.00023243,-0.00089549,0.048809,-0.012753,-0.0099892,0.007842,-0.0012086,-0.0046565,0,0,0,0.02644,0.0036737,0.0024699,0.011985,0.010861,0.023394,6.5407e-07,0.2,0.2,0.65
0.011075,0.0036867,-0.0016824,0.026494,0.0017909,0.0026641,0.00089182,-0.00024334,-0.0006339,0.050314,-0.013913,-0.011643,0.0046375,-0.0012653,-0.0032963,0,0,0,0.026553,0.0027075,0.0016884,0.012432,0.010316,0.024372,7.4018e-07,0.25,0.2,0.65
0.013619,0.0040208,-0.0018725,0.026528,0.001225,0.0018758,0.00040497,-0.00022934,-0.00038845,0.051196,-0.014593,-0.0129,0.0021058,-0.0011926,-0.0020199,0,0,0,0.026547,0.0019479,0.0011347,0.012706,0.0098764,0.025016,8.0157e-07,0.3,0.2,0.65
0.016195,0.0042381,-0.0020091,0.026475,0.00081736,0.0012786,4.4468e-05,-0.00018793,-0.00017743,0.051692,-0.015017,-0.013818,0.00023123,-0.00097722,-0.00092263,0,0,0,0.026479,0.0013513,0.00074042,0.012869,0.0095235,0.025439,8.4401e-07,0.35,0.2,0.65
0.018788,0.0043631,-0.0020993,0.026387,0.00049974,0.00083352,-0.00020421,-0.00011945,-1.1599e-05,0.051973,-0.015333,-0.014465,-0.0010619,-0.00062115,-6.0313e-05,0,0,0,0.02639,0.00087956,0.00045073,0.012969,0.00924,0.025727,8.7385e-07,0.4,0.2,0.65
0.021392,0.0044206,-0.0021527,0.026296,0.0002317,0.00050396,-0.00035206,-2.9732e-05,0.0001031,0.052151,-0.015617,-0.014909,-0.0018307,-0.00015461,0.00053613,0,0,0,0.026302,0.00052379,0.00020624,0.013048,0.0090107,0.025938,8.9593e-07,0.45,0.2,0.65
0.024003,0.0044352,-0.0021801,0.026217,-1.4854e-07,0.00026112,-0.00040604,6.7925e-05,0.00016458,0.052278,-0.015887,-0.015208,-0.0021114,0.00035321,0.00085582,0,0,0,0.026225,0.00029177,-3.8244e-05,0.013131,0.008826,0.0261,9.1265e-07,0.5,0.2,0.65
0.02662,0.0044303,-0.0021931,0.02615,-0.0001858,8.5872e-05,-0.00037607,0.00015371,0.00017602,0.052359,-0.016113,-0.015407,-0.0019556,0.0007993,0.00091528,0,0,0,0.026156,0.00016011,-0.00026674,0.013212,0.0086832,0.026213,9.2418e-07,0.55,0.2,0.65
0.029239,0.0044259,-0.0022018,0.026088,-0.00030339,-3.3194e-05,-0.00028234,0.0002067,0.00014771,0.052378,-0.01624,-0.015537,-0.0014682,0.0010748,0.0007681,0,0,0,0.026092,8.1528e-05,-0.00042231,0.013257,0.0085838,0.026267,9.2957e-07,0.6,0.2,0.65
0.031858,0.0044357,-0.0022138,0.026026,-0.00033719,-0.00010474,-0.0001564,0.00021292,9.6488e-05,0.052318,-0.016227,-0.015623,-0.00081327,0.0011072,0.00050174,0,0,0,0.026028,2.4221e-05,-0.00046787,0.013248,0.0085282,0.026254,9.2826e-07,0.65,0.2,0.65
0.034471,0.0044652,-0.0022322,0.025963,-0.00029182,-0.00013945,-3.3807e-05,0.00017164,4.1383e-05,0.052185,-0.016078,-0.015682,-0.0001758,0.00089251,0.00021519,0,0,0,0.025964,-2.4924e-05,-0.00040683,0.013185,0.0085107,0.026182,9.211e-07,0.7,0.2,0.65
0.037076,0.0045116,-0.0022568,0.025903,-0.00019346,-0.00015083,5.7378e-05,9.5501e-05,-2.3976e-06,0.052012,-0.015838,-0.015727,0.00029837,0.00049661,-1.2468e-05,0,0,0,0.025903,-6.0499e-05,-0.00028414,0.013094,0.0085195,0.026077,9.1045e-07,0.75,0.2,0.65
0.039672,0.0045672,-0.0022842,0.025852,-7.7825e-05,-0.00015189,0.00010461,4.5995e-06,-2.7553e-05,0.051841,-0.015576,-0.015768,0.00054397,2.3918e-05,-0.00014327,0,0,0,0.025852,-3.744e-05,-0.00019283,0.013023,0.0085407,0.025968,8.9926e-07,0.8,0.2,0.65
0.04226,0.004622,-0.0023104,0.025815,2.5216e-05,-0.00015139,0.00011071,-8.1496e-05,-3.4639e-05,0.051705,-0.015348,-0.015807,0.00057572,-0.00042378,-0.00018012,0,0,0,0.025815,6.2132e-05,-0.00018888,0.013002,0.0085629,0.02588,8.8992e-07,0.85,0.2,0.65
0.044843,0.0046672,-0.0023316,0.025793,9.9924e-05,-0.00015254,8.7297e-05,-0.00014907,-2.8784e-05,0.051617,-0.015184,-0.015841,0.00045395,-0.00077517,-0.00014968,0,0,0,0.025793,0.00017199,-0.00022499,0.013009,0.00858,0.025822,8.8354e-07,0.9,0.2,0.65
0.047422,0.0046967,-0.0023453,0.025782,0.00014304,-0.00015459,5.7187e-05,-0.00019115,-2.0423e-05,0.051571,-0.01509,-0.015864,0.00029737,-0.000994,-0.0001062,0,0,0,0.025782,0.00023978,-0.00025149,0.013017,0.0085902,0.025792,8.8008e-07,0.95,0.2,0.65
0.048711,0.0047069,-0.00235,0.025779,0.00015688,-0.00015557,4.444e-05,-0.00020533,-1.7433e-05,0.051558,-0.01506,-0.015873,0.00023109,-0.0010677,-9.0651e-05,0,0,0,0.025779,0.00026211,-0.00026089,0.01302,0.0085935,0.025783,8.7902e-07,1,0.2,0.65
0.00090758,0.0003788,-0.00020804,0.024248,0.0092004,0.0093195,0.0028581,-4.8125e-05,-0.0015773,0.037384,-0.0017398,-0.0014302,0.014862,-0.00025025,-0.0082017,0,0,0,0.024951,0.0092711,0.0085458,0.0082027,0.014256,0.016056,2.1336e-07,0,0.25,0.65
0.0018692,0.00074783,-0.00041102,0.0244,0.0080922,0.0083295,0.0027492,-9.037e-05,-0.0015307,0.038947,-0.0034531,-0.0028361,0.014296,-0.00046992,-0.0079595,0,0,0,0.025018,0.0082541,0.0075493,0.0087345,0.013607,0.017129,2.6293e-07,0.05,0.25,0.65
0.0038947,0.0014558,-0.00080259,0.024992,0.0061075,0.0065524,0.0024378,-0.00016458,-0.0013953,0.042388,-0.0067116,-0.0055547,0.012676,-0.00085584,-0.0072555,0,0,0,0.025432,0.0064639,0.005756,0.0098379,0.012551,0.019334,3.771e-07,0.1,0.25,0.65
0.006108,0.0020854,-0.0011577,0.02576,0.004515,0.0050769,0.0019772,-0.0002198,-0.0011875,0.045765,-0.0094722,-0.0080112,0.010282,-0.001143,-0.0061751,0,0,0,0.02603,0.0050397,0.0042818,0.010874,0.011784,0.021382,5.0545e-07,0.15,0.25,0.65
0.0084711,0.0026091,-0.0014633,0.026291,0.0032601,0.003821,0.0014541,-0.00025679,-0.00093511,0.048333,-0.011547,-0.010089,0.0075615,-0.0013353,-0.0048626,0,0,0,0.026435,0.0038585,0.0030786,0.011678,0.011124,0.022978,6.2397e-07,0.2,0.25,0.65
0.010941,0.0030154,-0.0017114,0.026587,0.0023293,0.0028043,0.00095026,-0.00027243,-0.00066867,0.050094,-0.012976,-0.011741,0.0049414,-0.0014166,-0.0034771,0,0,0,0.026652,0.0029065,0.0021624,0.012245,0.010573,0.024126,7.2066e-07,0.25,0.25,0.65
0.013481,0.0033076,-0.0018997,0.026693,0.0016494,0.0020087,0.00051264,-0.00026115,-0.00041421,0.051191,-0.013922,-0.012988,0.0026657,-0.001358,-0.0021539,0,0,0,0.026716,0.0021472,0.0014881,0.012614,0.010117,0.024905,7.9228e-07,0.3,0.25,0.65
0.01606,0.0034974,-0.002031,0.026673,0.0011379,0.0013989,0.00015757,-0.00021654,-0.00018972,0.051824,-0.014567,-0.013889,0.00081939,-0.001126,-0.00098653,0,0,0,0.026678,0.0015306,0.0010006,0.012839,0.0097365,0.025417,8.4241e-07,0.35,0.25,0.65
0.018663,0.0036019,-0.002112,0.026587,0.00072557,0.00093432,-0.00011132,-0.00013444,-7.5024e-06,0.052177,-0.015061,-0.014519,-0.00057888,-0.00069907,-3.9013e-05,0,0,0,0.026589,0.0010147,0.00064297,0.012973,0.0094155,0.025762,8.7764e-07,0.4,0.25,0.65
0.021278,0.0036411,-0.0021528,0.026479,0.00036576,0.00057758,-0.00028973,-1.8138e-05,0.00012226,0.052391,-0.015502,-0.014951,-0.0015066,-9.4316e-05,0.00063576,0,0,0,0.026483,0.00061384,0.000325,0.013079,0.0091407,0.026015,9.0396e-07,0.45,0.25,0.65
0.023902,0.0036386,-0.0021662,0.026375,4.3012e-05,0.00030169,-0.00037094,0.00011611,0.0001914,0.052542,-0.01592,-0.015247,-0.0019289,0.00060377,0.0009953,0,0,0,0.026381,0.00036344,-2.5539e-05,0.013203,0.0089064,0.026215,9.2452e-07,0.5,0.25,0.65
0.026532,0.0036195,-0.0021667,0.026282,-0.00022442,9.355e-05,-0.00035483,0.0002385,0.00019838,0.052642,-0.016274,-0.015447,-0.0018451,0.0012402,0.0010316,0,0,0,0.026288,0.00022729,-0.00036458,0.013326,0.0087169,0.026362,9.3922e-07,0.55,0.25,0.65
0.029166,0.0036069,-0.0021679,0.026197,-0.00039823,-4.9334e-05,-0.0002593,0.00031441,0.00015381,0.052663,-0.016485,-0.015578,-0.0013484,0.0016349,0.00079981,0,0,0,0.026201,0.00014048,-0.00059191,0.013397,0.0085832,0.026435,9.4616e-07,0.6,0.25,0.65
0.031799,0.003617,-0.0021794,0.026116,-0.00044953,-0.00012867,-0.00012274,0.0003198,8.083e-05,0.05258,-0.016492,-0.015657,-0.00063824,0.0016629,0.00042032,0,0,0,0.026118,7.2616e-05,-0.00065222,0.013385,0.0085127,0.026416,9.4413e-07,0.65,0.25,0.65
0.034424,0.003655,-0.0022047,0.026039,-0.00038438,-0.00015496,8.1746e-06,0.00025344,7.5659e-06,0.052402,-0.016299,-0.015703,4.2508e-05,0.0013179,3.9343e-05,0,0,0,0.02604,1.1325e-05,-0.00055113,0.013295,0.0085,0.026315,9.3429e-07,0.7,0.25,0.65
0.037039,0.0037154,-0.0022414,0.025972,-0.00024521,-0.00014832,9.7673e-05,0.00013726,-4.4154e-05,0.052181,-0.015985,-0.015733,0.0005079,0.00071376,-0.0002296,0,0,0,0.025973,-4.1731e-05,-0.00035247,0.013163,0.0085263,0.026172,9.2018e-07,0.75,0.25,0.65
0.039642,0.0037861,-0.0022829,0.025924,-8.8113e-05,-0.00013046,0.00013354,4.6835e-06,-6.6217e-05,0.051979,-0.015652,-0.015762,0.00069442,2.4354e-05,-0.00034433,0,0,0,0.025925,-2.1474e-05,-0.00019804,0.013061,0.0085685,0.026035,9.0622e-07,0.8,0.25,0.65
0.042237,0.0038537,-0.002322,0.025898,4.4454e-05,-0.00011589,0.00012508,-0.0001146,-6.3348e-05,0.051839,-0.01538,-0.015797,0.0006504,-0.0005959,-0.00032941,0,0,0,0.025899,0.00010933,-0.00018158,0.01304,0.0086088,0.025936,8.9561e-07,0.85,0.25,0.65
0.044826,0.0039079,-0.0023531,0.02589,0.00013476,-0.00010912,9.0796e-05,-0.00020338,-4.6085e-05,0.051765,-0.015199,-0.015833,0.00047214,-0.0010576,-0.00023964,0,0,0,0.025891,0.00025391,-0.00022874,0.01306,0.0086387,0.025882,8.8934e-07,0.9,0.25,0.65
0.047413,0.0039424,-0.0023728,0.025892,0.00018381,-0.00010782,5.7946e-05,-0.00025622,-3.0023e-05,0.051739,-0.015103,-0.015861,0.00030132,-0.0013323,-0.00015612,0,0,0,0.025892,0.00033746,-0.00026166,0.013077,0.008656,0.02586,8.8653e-07,0.95,0.25,0.65
0.048707,0.0039542,-0.0023795,0.025894,0.00019894,-0.00010798,4.6256e-05,-0.00027356,-2.4784e-05,0.051733,-0.015074,-0.015872,0.00024053,-0.0014225,-0.00012887,0,0,0,0.025894,0.00036403,-0.00027318,0.013084,0.0086616,0.025855,8.8581e-07,1,0.25,0.65
0.00090576,0.00029813,-0.00021426,0.024215,0.0092927,0.0093274,0.0022596,-5.0527e-05,-0.0016264,0.037257,-0.00154,-0.0014495,0.01175,-0.00026274,-0.0084573,0,0,0,0.02474,0.0092835,0.0088115,0.0079641,0.014278,0.015699,2.0009e-07,0,0.3,0.65
0.0018629,0.00058759,-0.00042265,0.02437,0.0082907,0.0083619,0.002189,-9.4716e-05,-0.0015805,0.038749,-0.003058,-0.0028728,0.011383,-0.00049252,-0.0082186,0,0,0,0.024838,0.0082971,0.0078877,0.0084751,0.013674,0.01675,2.4676e-07,0.05,0.3,0.65
0.0038749,0.0011429,-0.0008237,0.024965,0.0064879,0.0066253,0.001984,-0.00017254,-0.0014466,0.042063,-0.0059786,-0.0056214,0.010317,-0.00089719,-0.0075224,0,0,0,0.02531,0.0065675,0.0062007,0.0095549,0.012693,0.01893,3.5539e-07,0.1,0.3,0.65
0.0060692,0.0016396,-0.0011859,0.025746,0.0049983,0.0051745,0.0016737,-0.00023187,-0.0012412,0.045389,-0.0085559,-0.0080978,0.0087034,-0.0012057,-0.0064543,0,0,0,0.025971,0.0051978,0.0047502,0.010611,0.011973,0.021001,4.8083e-07,0.15,0.3,0.65
0.0084138,0.0020586,-0.0014963,0.026314,0.0037568,0.0039299,0.0013059,-0.00027505,-0.00099114,0.048017,-0.010633,-0.010183,0.0067906,-0.0014303,-0.0051539,0,0,0,0.026445,0.0040542,0.0035023,0.011471,0.011334,0.022672,6.0111e-07,0.2,0.3,0.65
0.010871,0.0023891,-0.0017467,0.026658,0.0027791,0.0029159,0.00092696,-0.00029892,-0.00072418,0.049899,-0.012186,-0.01183,0.0048202,-0.0015544,-0.0037657,0,0,0,0.026723,0.0031203,0.0025095,0.012107,0.010784,0.023914,7.0293e-07,0.25,0.3,0.65
0.013404,0.0026286,-0.0019338,0.026803,0.0020289,0.0021192,0.00057017,-0.00029538,-0.00046359,0.051117,-0.013295,-0.013061,0.0029649,-0.001536,-0.0024107,0,0,0,0.026829,0.0023646,0.0017569,0.012536,0.010317,0.024774,7.8033e-07,0.3,0.3,0.65
0.015983,0.0027814,-0.0020594,0.026799,0.0014442,0.0015031,0.00025332,-0.0002526,-0.00022539,0.05183,-0.014093,-0.01394,0.0013172,-0.0013135,-0.001172,0,0,0,0.026807,0.0017318,0.0012077,0.0128,0.0099155,0.025341,8.3501e-07,0.35,0.3,0.65
0.018587,0.002857,-0.0021291,0.026706,0.00095877,0.0010227,-1.1551e-05,-0.00015886,-2.2421e-05,0.052223,-0.01472,-0.014553,-6.0066e-05,-0.00082607,-0.00011659,0,0,0,0.026708,0.0011674,0.00081203,0.012948,0.0095624,0.02572,8.7344e-07,0.4,0.3,0.65
0.021205,0.0028704,-0.0021531,0.026575,0.00052086,0.00063644,-0.0002078,-1.1282e-05,0.00013024,0.052455,-0.015285,-0.014984,-0.0010806,-5.8668e-05,0.00067726,0,0,0,0.026578,0.00070938,0.00044458,0.013067,0.0092439,0.026002,9.0266e-07,0.45,0.3,0.65
0.023832,0.0028433,-0.0021464,0.026441,0.00011174,0.00031825,-0.00031311,0.00017258,0.0002153,0.052624,-0.015832,-0.015295,-0.0016282,0.0008974,0.0011195,0,0,0,0.026447,0.00043729,-1.3081e-05,0.01323,0.008957,0.026239,9.2662e-07,0.5,0.3,0.65
0.026467,0.0028029,-0.0021283,0.026321,-0.00024082,6.5045e-05,-0.00031293,0.00034889,0.00022243,0.052748,-0.016313,-0.015518,-0.0016273,0.0018142,0.0011566,0,0,0,0.026327,0.00030165,-0.00048318,0.013405,0.0087151,0.026428,9.4479e-07,0.55,0.3,0.65
0.029107,0.0027774,-0.0021178,0.026218,-0.0004761,-0.00010951,-0.00021979,0.00046021,0.0001609,0.052786,-0.016617,-0.015664,-0.0011429,0.0023931,0.0008367,0,0,0,0.026221,0.00021084,-0.00079979,0.01351,0.008544,0.026531,9.5409e-07,0.6,0.3,0.65
0.031746,0.0027866,-0.0021288,0.026128,-0.00054666,-0.00019464,-7.811e-05,0.00046485,6.2632e-05,0.0527,-0.016653,-0.015738,-0.00040617,0.0024172,0.00032568,0,0,0,0.026129,0.00013361,-0.00087601,0.013502,0.0084621,0.026515,9.5242e-07,0.65,0.3,0.65
0.034377,0.0028352,-0.002165,0.026053,-0.0004596,-0.00020032,5.3739e-05,0.00036082,-3.0538e-05,0.052502,-0.016431,-0.015757,0.00027944,0.0018763,-0.0001588,0,0,0,0.026054,5.8231e-05,-0.00071878,0.013386,0.0084644,0.026394,9.4121e-07,0.7,0.3,0.65
0.036996,0.0029131,-0.00222,0.026002,-0.00027834,-0.00015835,0.00013245,0.00018654,-8.7479e-05,0.052266,-0.016063,-0.015751,0.00068873,0.00096999,-0.00045489,0,0,0,0.026003,-1.0734e-05,-0.00042708,0.013215,0.0085217,0.026226,9.2528e-07,0.75,0.3,0.65
0.039604,0.0030019,-0.002282,0.025981,-8.4373e-05,-0.00010619,0.00014834,-2.1943e-06,-0.0001007,0.052076,-0.015693,-0.01575,0.00077137,-1.1411e-05,-0.00052364,0,0,0,0.025982,1.4484e-05,-0.00020635,0.013094,0.0085967,0.026079,9.1064e-07,0.8,0.3,0.65
0.042204,0.003084,-0.002339,0.025989,6.7448e-05,-6.835e-05,0.00012075,-0.00016136,-8.3007e-05,0.051979,-0.015417,-0.015771,0.00062788,-0.00083906,-0.00043164,0,0,0,0.02599,0.00017977,-0.00018159,0.013086,0.0086627,0.025993,9.0123e-07,0.85,0.3,0.65
0.044801,0.0031473,-0.0023831,0.026015,0.0001617,-5.0335e-05,7.7149e-05,-0.00027183,-5.3418e-05,0.051964,-0.015256,-0.015807,0.00040118,-0.0014135,-0.00027777,0,0,0,0.026016,0.00035316,-0.00024222,0.013129,0.0087089,0.025966,8.9746e-07,0.9,0.3,0.65
0.0474,0.0031864,-0.0024102,0.026042,0.00020782,-4.5489e-05,4.8253e-05,-0.00033356,-3.3554e-05,0.051986,-0.015182,-0.015841,0.00025092,-0.0017345,-0.00017448,0,0,0,0.026042,0.00044463,-0.00028247,0.013162,0.0087347,0.025969,8.9706e-07,0.95,0.3,0.65
0.0487,0.0031996,-0.0024194,0.026053,0.00022093,-4.5105e-05,4.198e-05,-0.00035303,-2.9209e-05,0.052,-0.015163,-0.015854,0.0002183,-0.0018358,-0.00015188,0,0,0,0.026053,0.00047212,-0.00029641,0.013175,0.0087428,0.025974,8.9731e-07,1,0.3,0.65
0.00090736,0.0002248,-0.00022087,0.024265,0.0093723,0.0093577,0.0017103,-5.0347e-05,-0.0016791,0.037292,-0.0014289,-0.0014668,0.0088936,-0.0002618,-0.0087315,0,0,0,0.024662,0.0093305,0.0090024,0.0078297,0.014332,0.015499,1.9282e-07,0,0.35,0.65
0.0018646,0.00044204,-0.00043504,0.024421,0.0084301,0.0084028,0.0016662,-9.4408e-05,-0.0016348,0.038743,-0.0028344,-0.0029053,0.0086642,-0.00049092,-0.0085009,0,0,0,0.024778,0.0083767,0.0080996,0.0083391,0.013751,0.016542,2.3794e-07,0.05,0.35,0.65
0.0038743,0.0008579,-0.00084628,0.025017,0.0067356,0.0066857,0.0015372,-0.00017268,-0.0015051,0.04198,-0.0055502,-0.0056799,0.0079937,-0.00089795,-0.0078265,0,0,0,0.025286,0.0067083,0.0064434,0.0094213,0.012813,0.018712,3.4358e-07,0.1,0.35,0.65
0.0060626,0.0012299,-0.0012164,0.025803,0.0053193,0.005251,0.0013414,-0.00023494,-0.0013069,0.045264,-0.007994,-0.0081714,0.0069754,-0.0012217,-0.0067958,0,0,0,0.025987,0.0053825,0.005004,0.010491,0.012124,0.020796,4.6731e-07,0.15,0.35,0.65
0.0084007,0.0015458,-0.0015328,0.02639,0.0041027,0.0040187,0.0011045,-0.00028518,-0.0010661,0.047907,-0.01004,-0.010258,0.0057433,-0.0014829,-0.0055435,0,0,0,0.026504,0.0042609,0.0037463,0.011379,0.011504,0.022505,5.8833e-07,0.2,0.35,0.65
0.010853,0.0017968,-0.0017868,0.026757,0.0031104,0.0030141,0.00084776,-0.00032055,-0.00080679,0.04984,-0.011642,-0.011892,0.0044083,-0.0016668,-0.0041953,0,0,0,0.026821,0.0033373,0.0027235,0.012049,0.010961,0.023796,6.9269e-07,0.25,0.35,0.65
0.013385,0.001978,-0.0019742,0.026917,0.0023254,0.0022246,0.00058717,-0.00033059,-0.00054788,0.051104,-0.012834,-0.013096,0.0030533,-0.0017191,-0.002849,0,0,0,0.026947,0.0025863,0.0019333,0.012507,0.010489,0.024694,7.7257e-07,0.3,0.35,0.65
0.015964,0.0020881,-0.0020945,0.026909,0.0017003,0.0016103,0.00033211,-0.00029676,-0.00030085,0.051832,-0.013711,-0.013945,0.001727,-0.0015432,-0.0015644,0,0,0,0.02692,0.0019479,0.0013514,0.012784,0.010073,0.025276,8.2819e-07,0.35,0.35,0.65
0.018568,0.0021299,-0.0021512,0.026787,0.0011711,0.0011167,9.3961e-05,-0.00019661,-7.6908e-05,0.052201,-0.0144,-0.014541,0.0004886,-0.0010224,-0.00039992,0,0,0,0.02679,0.0013463,0.00093838,0.012926,0.0096915,0.025651,8.6608e-07,0.4,0.35,0.65
0.021184,0.0021126,-0.0021538,0.026606,0.00068046,0.00069211,-0.00010385,-1.6979e-05,0.00010436,0.052388,-0.015018,-0.014988,-0.00054002,-8.829e-05,0.00054267,0,0,0,0.026608,0.00082789,0.00054219,0.013033,0.0093261,0.025925,8.9455e-07,0.45,0.35,0.65
0.023807,0.0020554,-0.0021195,0.026413,0.00020513,0.00031018,-0.00022728,0.00022723,0.00021507,0.052517,-0.015624,-0.01535,-0.0011819,0.0011816,0.0011184,0,0,0,0.026417,0.00052097,-1.0069e-05,0.013214,0.0089761,0.026168,9.1858e-07,0.5,0.35,0.65
0.026435,0.0019881,-0.0020741,0.026238,-0.00021942,-1.3371e-05,-0.00024751,0.00047676,0.00023286,0.052616,-0.016174,-0.015638,-0.0012871,0.0024792,0.0012109,0,0,0,0.026243,0.00038377,-0.00062124,0.013432,0.0086685,0.026379,9.3743e-07,0.55,0.35,0.65
0.029068,0.0019452,-0.0020463,0.026101,-0.00050935,-0.00023508,-0.00016795,0.00063961,0.00016306,0.052648,-0.016538,-0.015825,-0.00087335,0.003326,0.0008479,0,0,0,0.026103,0.00029567,-0.0010428,0.013573,0.0084521,0.026504,9.475e-07,0.6,0.35,0.65
0.0317,0.0019517,-0.0020568,0.026009,-0.00059892,-0.00032505,-3.571e-05,0.00064418,4.6762e-05,0.052573,-0.016608,-0.015896,-0.00018569,0.0033497,0.00024316,0,0,0,0.02601,0.00020908,-0.0011339,0.013572,0.0083617,0.0265,9.4699e-07,0.65,0.35,0.65
0.034326,0.0020119,-0.0021095,0.025967,-0.00049583,-0.00029232,8.2421e-05,0.00048738,-5.8851e-05,0.052408,-0.016397,-0.015868,0.00042859,0.0025344,-0.00030602,0,0,0,0.025968,0.00011209,-0.00090103,0.013435,0.0083931,0.02638,9.3743e-07,0.7,0.35,0.65
0.036941,0.0021091,-0.0021918,0.025974,-0.00028333,-0.00018614,0.00013862,0.00023587,-0.0001126,0.05223,-0.01604,-0.015787,0.00072084,0.0012265,-0.0005855,0,0,0,0.025976,2.932e-05,-0.00050015,0.013238,0.0085016,0.026217,9.2366e-07,0.75,0.35,0.65
0.039549,0.0022167,-0.0022826,0.026023,-6.8152e-05,-7.3272e-05,0.00012929,-2.031e-05,-0.00010979,0.052132,-0.015706,-0.01572,0.00067231,-0.00010561,-0.00057092,0,0,0,0.026025,7.3381e-05,-0.00021611,0.01312,0.0086274,0.026098,9.1238e-07,0.8,0.35,0.65
0.042154,0.002312,-0.0023632,0.026102,8.5407e-05,2.3857e-06,8.4308e-05,-0.0002211,-7.4676e-05,0.052152,-0.015492,-0.015708,0.0004384,-0.0011497,-0.00038832,0,0,0,0.026103,0.00027527,-0.00018825,0.013146,0.00873,0.026064,9.0809e-07,0.85,0.35,0.65
0.044764,0.0023824,-0.002423,0.026188,0.00016746,3.5092e-05,3.8424e-05,-0.00034934,-3.6575e-05,0.052254,-0.015399,-0.015743,0.0001998,-0.0018165,-0.00019019,0,0,0,0.026188,0.00046504,-0.00026282,0.013226,0.0087968,0.026095,9.102e-07,0.9,0.35,0.65
0.04738,0.0024242,-0.0024586,0.026254,0.00019917,4.1998e-05,2.4029e-05,-0.00041487,-2.3132e-05,0.052362,-0.015379,-0.015788,0.00012495,-0.0021573,-0.00012029,0,0,0,0.026254,0.00055218,-0.00031116,0.013282,0.0088316,0.026144,9.1451e-07,0.95,0.35,0.65
0.048689,0.0024379,-0.0024704,0.026278,0.00020628,4.1871e-05,2.892e-05,-0.00043428,-2.6246e-05,0.052407,-0.015379,-0.015807,0.00015038,-0.0022582,-0.00013648,0,0,0,0.026278,0.00057569,-0.00032767,0.013303,0.0088421,0.026166,9.1656e-07,1,0.35,0.65
0.00091104,0.00015524,-0.0002274,0.024367,0.0094404,0.0094017,0.0011861,-4.7126e-05,-0.0017318,0.037428,-0.0013802,-0.0014807,0.0061679,-0.00024505,-0.0090051,0,0,0,0.024676,0.0094032,0.0091295,0.0077732,0.014403,0.015412,1.897e-07,0,0.4,0.65
0.0018714,0.00030416,-0.00044728,0.024525,0.0085257,0.0084495,0.0011624,-8.8488e-05,-0.00169,0.038864,-0.0027332,-0.0029312,0.0060445,-0.00046014,-0.0087882,0,0,0,0.024804,0.0084794,0.0082166,0.0082937,0.013833,0.016458,2.3441e-07,0.05,0.4,0.65
0.0038864,0.00058788,-0.00086873,0.025125,0.0068847,0.0067402,0.0010927,-0.00016288,-0.0015678,0.042074,-0.0053494,-0.0057253,0.0056823,-0.00084697,-0.0081525,0,0,0,0.025339,0.006858,0.006552,0.0093937,0.012916,0.018637,3.3945e-07,0.1,0.4,0.65
0.0060788,0.0008402,-0.0012471,0.025922,0.0055096,0.0053167,0.00098895,-0.0002252,-0.0013825,0.045347,-0.0077238,-0.0082253,0.0051426,-0.001171,-0.007189,0,0,0,0.026073,0.0055503,0.0051239,0.010475,0.012249,0.02074,4.635e-07,0.15,0.4,0.65
0.0084212,0.0010546,-0.0015705,0.026526,0.0043106,0.004098,0.00086403,-0.00028115,-0.0011597,0.048006,-0.009753,-0.010306,0.004493,-0.001462,-0.0060303,0,0,0,0.026627,0.004429,0.0038786,0.011374,0.011645,0.022478,5.8619e-07,0.2,0.4,0.65
0.010879,0.0012249,-0.0018299,0.02691,0.0033143,0.0031096,0.00072266,-0.00032896,-0.00091976,0.049966,-0.011383,-0.011915,0.0037578,-0.0017106,-0.0047828,0,0,0,0.026972,0.0035066,0.0028547,0.012059,0.011111,0.023799,6.9279e-07,0.25,0.4,0.65
0.013418,0.0013452,-0.0020195,0.027076,0.0025151,0.0023381,0.00056558,-0.00035686,-0.00067583,0.051239,-0.012618,-0.013078,0.002941,-0.0018556,-0.0035143,0,0,0,0.027111,0.0027646,0.0020534,0.012529,0.010643,0.02471,7.7371e-07,0.3,0.4,0.65
0.016003,0.0014103,-0.002136,0.027051,0.001877,0.0017374,0.00039017,-0.00033924,-0.00043196,0.051933,-0.013519,-0.013882,0.0020289,-0.0017641,-0.0022462,0,0,0,0.027068,0.0021389,0.0014585,0.012805,0.010222,0.025276,8.2772e-07,0.35,0.4,0.65
0.018611,0.001417,-0.0021793,0.026881,0.0013362,0.0012361,0.00020195,-0.00023975,-0.00019535,0.052219,-0.014198,-0.014458,0.0010501,-0.0012467,-0.0010158,0,0,0,0.026888,0.0015282,0.0010374,0.012925,0.0098178,0.025609,8.6148e-07,0.4,0.4,0.65
0.021225,0.0013686,-0.0021562,0.026612,0.00082379,0.00075967,2.6014e-05,-3.3138e-05,1.0305e-05,0.052274,-0.014776,-0.014942,0.00013527,-0.00017232,5.3585e-05,0,0,0,0.026615,0.00096247,0.00061786,0.012999,0.0093986,0.025828,8.8427e-07,0.45,0.4,0.65
0.023838,0.0012809,-0.0020857,0.026293,0.00030969,0.00027559,-9.5596e-05,0.00027073,0.00014596,0.052234,-0.015322,-0.01541,-0.0004971,0.0014078,0.000759,0,0,0,0.026296,0.00060565,-2.4118e-05,0.01316,0.0089593,0.026014,9.0176e-07,0.5,0.4,0.65
0.026449,0.0011856,-0.0020024,0.025994,-0.00015015,-0.00016099,-0.00013208,0.0005983,0.00018448,0.052176,-0.0158,-0.015829,-0.00068683,0.0031112,0.00095928,0,0,0,0.025999,0.00045949,-0.00077488,0.013387,0.0085611,0.026182,9.1412e-07,0.55,0.4,0.65
0.029056,0.0011236,-0.0019496,0.025788,-0.0004555,-0.0004495,-9.376e-05,0.00081688,0.00013997,0.052118,-0.016114,-0.016098,-0.00048755,0.0042478,0.00072786,0,0,0,0.02579,0.00038596,-0.0012934,0.013542,0.0082942,0.026287,9.1993e-07,0.6,0.4,0.65
0.031661,0.0011257,-0.0019594,0.0257,-0.00056176,-0.00054468,-1.7755e-05,0.0008224,5.3169e-05,0.052063,-0.016216,-0.016172,-9.2327e-05,0.0042765,0.00027648,0,0,0,0.025701,0.00028963,-0.0013973,0.013549,0.0081977,0.026298,9.2096e-07,0.65,0.4,0.65
0.034262,0.0011955,-0.0020365,0.025735,-0.00047675,-0.00045354,5.5519e-05,0.00061027,-3.2396e-05,0.052028,-0.016122,-0.016062,0.0002887,0.0031734,-0.00016846,0,0,0,0.025737,0.00015827,-0.0010903,0.013414,0.0082682,0.026229,9.1877e-07,0.7,0.4,0.65
0.036863,0.0013092,-0.0021572,0.025878,-0.00026334,-0.00023791,8.6456e-05,0.00027765,-7.4655e-05,0.052056,-0.01591,-0.015844,0.00044957,0.0014438,-0.00038821,0,0,0,0.025879,6.7528e-05,-0.00057056,0.013225,0.0084588,0.02614,9.1468e-07,0.75,0.4,0.65
0.039468,0.0014313,-0.0022861,0.026072,-4.6433e-05,-2.1474e-05,6.1812e-05,-4.4807e-05,-5.8681e-05,0.052185,-0.015723,-0.015658,0.00032142,-0.000233,-0.00030514,0,0,0,0.026073,0.00015009,-0.00021928,0.013146,0.0086681,0.026111,9.1347e-07,0.8,0.4,0.65
0.042082,0.0015348,-0.0023956,0.026266,8.7945e-05,0.000111,1.0962e-05,-0.0002816,-1.3014e-05,0.052412,-0.01565,-0.01559,5.7002e-05,-0.0014643,-6.7675e-05,0,0,0,0.026266,0.00038984,-0.00019185,0.013229,0.0088215,0.026174,9.1912e-07,0.85,0.4,0.65
0.044709,0.0016074,-0.0024731,0.026431,0.0001383,0.00015912,-2.5004e-05,-0.0004197,2.1264e-05,0.052684,-0.015678,-0.015623,-0.00013002,-0.0021824,0.00011057,0,0,0,0.026432,0.00057964,-0.00028286,0.013357,0.0089096,0.026295,9.3051e-07,0.9,0.4,0.65
0.04735,0.0016485,-0.0025174,0.026547,0.00014395,0.00016306,-1.3875e-05,-0.00048125,1.0151e-05,0.052909,-0.015738,-0.015688,-7.2151e-05,-0.0025025,5.2787e-05,0,0,0,0.026547,0.00064735,-0.00034071,0.013444,0.0089512,0.026408,9.4177e-07,0.95,0.4,0.65
0.048674,0.0016616,-0.0025316,0.026588,0.00014156,0.00016004,7.1449e-06,-0.00049743,-1.0836e-05,0.052996,-0.015766,-0.015718,3.7153e-05,-0.0025866,-5.6349e-05,0,0,0,0.026589,0.0006612,-0.00035985,0.013474,0.0089633,0.026453,9.4639e-07,1,0.4,0.65
0.00091584,8.6778e-05,-0.00023331,0.024496,0.0094952,0.0094521,0.00066786,-4.0264e-05,-0.0017801,0.037623,-0.0013782,-0.0014904,0.0034729,-0.00020937,-0.0092565,0,0,0,0.024752,0.009479,0.0092116,0.0077704,0.014481,0.015409,1.8965e-07,0,0.45,0.65
0.0018812,0.00016872,-0.0004584,0.024657,0.0085847,0.0084981,0.00066059,-7.573e-05,-0.0017419,0.039065,-0.0027239,-0.002949,0.003435,-0.0003938,-0.0090578,0,0,0,0.02489,0.0085685,0.0082818,0.0083039,0.013913,0.016467,2.3484e-07,0.05,0.45,0.65
0.0039065,0.00032295,-0.00088926,0.025268,0.0069557,0.0067897,0.00063918,-0.00014041,-0.0016299,0.04229,-0.0053236,-0.005755,0.0033237,-0.00073015,-0.0084753,0,0,0,0.025449,0.0069599,0.0066045,0.0094225,0.013005,0.01867,3.4133e-07,0.1,0.45,0.65
0.0061101,0.00045748,-0.0012757,0.026085,0.0055926,0.0053751,0.00061127,-0.00019767,-0.0014626,0.045589,-0.0076906,-0.0082561,0.0031786,-0.0010279,-0.0076055,0,0,0,0.026217,0.0056444,0.0051915,0.010513,0.012351,0.020803,4.6781e-07,0.15,0.45,0.65
0.0084654,0.00057048,-0.0016066,0.026713,0.0043966,0.004172,0.00058202,-0.00025447,-0.0012661,0.048285,-0.0097378,-0.010322,0.0030265,-0.0013232,-0.0065838,0,0,0,0.026806,0.0045102,0.0039654,0.01142,0.011761,0.022573,5.9389e-07,0.2,0.45,0.65
0.010939,0.00065851,-0.0018728,0.02712,0.0033946,0.0032067,0.0005459,-0.00031071,-0.0010582,0.05028,-0.011407,-0.011896,0.0028387,-0.0016157,-0.0055027,0,0,0,0.027184,0.0035846,0.002953,0.012116,0.011241,0.023922,7.0388e-07,0.25,0.45,0.65
0.013493,0.00071625,-0.002067,0.027298,0.0025897,0.0024656,0.00049273,-0.00035541,-0.00084611,0.051562,-0.012679,-0.013001,0.0025622,-0.0018481,-0.0043998,0,0,0,0.02734,0.0028588,0.0021541,0.012593,0.010784,0.024841,7.8628e-07,0.3,0.45,0.65
0.016095,0.00073622,-0.0021821,0.027261,0.0019567,0.0018932,0.00040862,-0.00035827,-0.00062386,0.052212,-0.013579,-0.013744,0.0021248,-0.001863,-0.0032441,0,0,0,0.027287,0.002266,0.0015576,0.012865,0.01037,0.025383,8.3813e-07,0.35,0.45,0.65
0.018715,0.0007101,-0.0022123,0.02704,0.0014342,0.0013882,0.00029114,-0.00026718,-0.0003923,0.052386,-0.014188,-0.014308,0.0015139,-0.0013893,-0.00204,0,0,0,0.027054,0.0016737,0.0011342,0.01296,0.0099541,0.025656,8.6594e-07,0.4,0.45,0.65
0.021333,0.00063508,-0.0021605,0.02666,0.0009355,0.00083894,0.00016725,-3.7969e-05,-0.00018462,0.052255,-0.014628,-0.014879,0.00086968,-0.00019744,-0.00096001,0,0,0,0.026668,0.0010879,0.00067803,0.012995,0.0094781,0.025789,8.7998e-07,0.45,0.45,0.65
0.02394,0.00052325,-0.0020465,0.026286,0.0004176,0.0002006,8.7601e-05,0.00031808,-7.2734e-05,0.051866,-0.014955,-0.015509,0.00042608,0.0016239,-0.00032115,0,0,0,0.026296,0.000692,-8.3781e-05,0.01319,0.0089682,0.026005,9.1166e-07,0.5,0.45,0.65
0.026524,0.00040808,-0.0019156,0.026033,-2.7096e-05,-0.00038841,4.8892e-05,0.00068218,-3.1764e-05,0.051313,-0.015143,-0.016061,0.00019236,0.0034741,-4.1632e-05,0,0,0,0.026044,0.00051994,-0.00094659,0.013495,0.0085391,0.026293,9.5709e-07,0.55,0.45,0.65
0.029079,0.0003338,-0.0018309,0.025812,-0.00029172,-0.00073366,7.8434e-06,0.00089609,4.0243e-05,0.05091,-0.015246,-0.016379,4.4213e-06,0.0045905,0.00027564,0,0,0,0.025818,0.00044024,-0.0014712,0.013644,0.0082622,0.026388,9.6958e-07,0.6,0.45,0.65
0.031619,0.00033004,-0.00184,0.025727,-0.00041328,-0.00083839,-3.2718e-05,0.00090345,0.00013187,0.050876,-0.015371,-0.016461,-0.00015025,0.0046269,0.00061972,0,0,0,0.025732,0.00033142,-0.0015881,0.01366,0.0081585,0.026416,9.7278e-07,0.65,0.45,0.65
0.034171,0.00039968,-0.0019482,0.025787,-0.00039623,-0.0007029,-4.6564e-05,0.00069822,0.00015756,0.051231,-0.015537,-0.016313,-0.00019354,0.003554,0.00069699,0,0,0,0.025796,0.000185,-0.0012937,0.013545,0.0082292,0.026387,9.6744e-07,0.7,0.45,0.65
0.03675,0.00051809,-0.0021173,0.025902,-0.00021949,-0.00033361,-3.5306e-05,0.00032736,0.00010862,0.051801,-0.015675,-0.015962,-0.00015881,0.0016705,0.00050843,0,0,0,0.02591,0.00011089,-0.00067158,0.013291,0.0084498,0.026204,9.3257e-07,0.75,0.45,0.65
0.039355,0.0006444,-0.0022923,0.026175,-2.2287e-05,4.5561e-05,-4.5145e-05,-5.257e-05,8.8447e-05,0.052335,-0.015777,-0.0156,-0.00023476,-0.00027336,0.00045992,0,0,0,0.026179,0.00023722,-0.00021779,0.013198,0.0087327,0.026173,9.198e-07,0.8,0.45,0.65
0.041984,0.00074696,-0.0024348,0.026508,6.8366e-05,0.00026118,-8.2069e-05,-0.00031856,0.00012088,0.052818,-0.015925,-0.015423,-0.00042676,-0.0016565,0.00062856,0,0,0,0.026511,0.00050696,-0.00018045,0.013346,0.0089459,0.026356,9.3817e-07,0.85,0.45,0.65
0.044637,0.00081461,-0.0025309,0.026759,6.8073e-05,0.00032603,-9.6927e-05,-0.00045497,0.00013081,0.053282,-0.016115,-0.015444,-0.00050402,-0.0023658,0.0006802,0,0,0,0.026762,0.00068324,-0.0002915,0.013527,0.0090512,0.02658,9.6076e-07,0.9,0.45,0.65
0.047312,0.00085042,-0.0025828,0.026923,3.9563e-05,0.00031859,-5.5673e-05,-0.0005036,7.1479e-05,0.05363,-0.016266,-0.01554,-0.0002895,-0.0026187,0.00037169,0,0,0,0.026924,0.00071748,-0.00036053,0.013642,0.0090936,0.026762,9.7999e-07,0.95,0.45,0.65
0.048654,0.00086134,-0.0025988,0.02698,2.5908e-05,0.0003086,-1.8098e-05,-0.00051356,2.005e-05,0.05376,-0.016322,-0.015587,-9.4107e-05,-0.0026705,0.00010426,0,0,0,0.026981,0.00071658,-0.00038266,0.013682,0.009105,0.026831,9.8751e-07,1,0.45,0.65
0.0009209,1.7421e-05,-0.00023806,0.02463,0.0095344,0.0095016,0.0001407,-2.942e-05,-0.0018195,0.037839,-0.0014103,-0.0014955,0.00073165,-0.00015298,-0.0094611,0,0,0,0.024867,0.0095348,0.0092641,0.0078016,0.014555,0.01547,1.9195e-07,0,0.5,0.65
0.0018919,3.177e-05,-0.00046733,0.024796,0.0086107,0.0085431,0.00014701,-5.5398e-05,-0.0017851,0.039301,-0.0027824,-0.002958,0.00076443,-0.00028807,-0.0092826,0,0,0,0.025011,0.0086168,0.0083219,0.0083448,0.013983,0.016544,2.3831e-07,0.05,0.5,0.65
0.0039301,5.5523e-05,-0.00090587,0.025424,0.0069621,0.0068318,0.00016557,-0.00010348,-0.0016845,0.042572,-0.0054294,-0.0057681,0.00086099,-0.0005381,-0.0087595,0,0,0,0.025593,0.0069876,0.0066377,0.0094776,0.013073,0.018783,3.4776e-07,0.1,0.5,0.65
0.0061492,7.1144e-05,-0.0012992,0.026267,0.005587,0.0054244,0.00020043,-0.00014856,-0.0015377,0.045927,-0.0078409,-0.0082636,0.0010422,-0.00077251,-0.0079958,0,0,0,0.026392,0.0056461,0.00524,0.010576,0.012426,0.020953,4.7836e-07,0.15,0.5,0.65
0.0085228,8.0855e-05,-0.0016372,0.026927,0.0043791,0.0042376,0.00025089,-0.00019766,-0.001372,0.048684,-0.0099405,-0.010308,0.0013046,-0.0010279,-0.0071344,0,0,0,0.027019,0.0044915,0.0040331,0.011493,0.011848,0.02276,6.0935e-07,0.2,0.5,0.65
0.011018,8.4172e-05,-0.0019108,0.027367,0.0033659,0.0032998,0.00030525,-0.00025217,-0.0012046,0.050734,-0.011668,-0.01184,0.0015873,-0.0013113,-0.0062639,0,0,0,0.027435,0.0035612,0.0030361,0.0122,0.011344,0.024141,7.2417e-07,0.25,0.5,0.65
0.013596,7.7319e-05,-0.0021113,0.027569,0.002557,0.0025978,0.00034698,-0.00030398,-0.0010387,0.052045,-0.012986,-0.01288,0.0018043,-0.0015807,-0.0054012,0,0,0,0.027621,0.0028577,0.0022453,0.012688,0.010908,0.025075,8.0949e-07,0.3,0.5,0.65
0.016222,5.2388e-05,-0.0022275,0.027539,0.0019399,0.0020671,0.00035483,-0.00032433,-0.00085854,0.052674,-0.013884,-0.013553,0.0018451,-0.0016865,-0.0044644,0,0,0,0.027578,0.0023143,0.0016538,0.012962,0.010515,0.0256,8.605e-07,0.35,0.5,0.65
0.018864,-1.8329e-06,-0.002246,0.02729,0.0014603,0.0015555,0.00031694,-0.00025004,-0.00065859,0.052771,-0.014387,-0.014139,0.0016481,-0.0013002,-0.0034247,0,0,0,0.027318,0.0017623,0.0012256,0.013046,0.010102,0.025829,8.8417e-07,0.4,0.5,0.65
0.021499,-9.4193e-05,-0.0021624,0.026967,0.0010119,0.00087745,0.00027616,-3.7128e-06,-0.00050307,0.052425,-0.014581,-0.014905,0.0013916,-4.8787e-05,-0.0025479,0,0,0,0.026991,0.0011883,0.00067691,0.013157,0.0096188,0.026065,9.2874e-07,0.45,0.5,0.65
0.024109,-0.0002153,-0.0019998,0.02678,0.00053842,4.0515e-05,0.00026756,0.00037352,-0.00046127,0.051463,-0.014512,-0.015734,0.0012385,0.0018071,-0.002134,0,0,0,0.026809,0.0007836,-0.00023398,0.013522,0.0091196,0.026555,1.0295e-06,0.5,0.5,0.65
0.02666,-0.00033076,-0.0018226,0.026553,0.0001444,-0.00065014,0.0002285,0.00066941,-0.0003788,0.050068,-0.014271,-0.016266,0.00099698,0.0032725,-0.0016167,0,0,0,0.026579,0.00055722,-0.001089,0.013834,0.0086824,0.026887,1.099e-06,0.55,0.5,0.65
0.029136,-0.0004035,-0.0017134,0.02618,-8.0532e-05,-0.00098567,0.00010572,0.00077263,-0.00010207,0.04909,-0.014135,-0.016461,0.00045485,0.0038622,-0.00037414,0,0,0,0.026192,0.00040426,-0.001482,0.013837,0.0083713,0.026785,1.0868e-06,0.6,0.5,0.65
0.031578,-0.00041397,-0.0017219,0.026099,-0.00021197,-0.0011008,-5.333e-05,0.00078056,0.00025204,0.049074,-0.014269,-0.016553,-0.00023241,0.0038993,0.0011573,0,0,0,0.02611,0.00028389,-0.0016081,0.013859,0.008262,0.026826,1.0924e-06,0.65,0.5,0.65
0.034052,-0.00036031,-0.0018538,0.026317,-0.00025442,-0.00099465,-0.00015933,0.00068856,0.00047653,0.050038,-0.014694,-0.016548,-0.00068365,0.003362,0.0021352,0,0,0,0.026341,0.00018901,-0.0014625,0.013902,0.0083558,0.02702,1.1162e-06,0.7,0.5,0.65
0.036602,-0.00025907,-0.0020701,0.02642,-0.00014132,-0.00052835,-0.00017163,0.00038736,0.00045996,0.051489,-0.015294,-0.016226,-0.00076653,0.001871,0.0021386,0,0,0,0.026444,0.00016501,-0.00085899,0.013651,0.0085833,0.026812,1.0597e-06,0.75,0.5,0.65
0.039216,-0.00014637,-0.0022969,0.026531,5.328e-06,6.6583e-05,-0.00014729,-1.6389e-05,0.00035905,0.052642,-0.015841,-0.015655,-0.00072791,-0.0001168,0.0018033,0,0,0,0.026545,0.00032393,-0.00026629,0.013406,0.0088677,0.026524,9.7811e-07,0.8,0.5,0.65
0.041869,-5.7721e-05,-0.0024758,0.026837,3.2155e-05,0.00043202,-0.00014983,-0.00030195,0.00032578,0.053396,-0.016297,-0.015258,-0.00077909,-0.0015702,0.001694,0,0,0,0.026846,0.00061049,-0.00015524,0.013501,0.0091005,0.026628,9.68e-07,0.85,0.5,0.65
0.044555,-4.0679e-06,-0.0025894,0.027149,-3.2142e-05,0.00052065,-0.00014457,-0.00042107,0.00028485,0.054006,-0.016666,-0.015229,-0.00075177,-0.0021896,0.0014812,0,0,0,0.027156,0.00076227,-0.00027999,0.013718,0.0092127,0.02693,9.9963e-07,0.9,0.5,0.65
0.047269,2.1987e-05,-0.0026468,0.027342,-9.6819e-05,0.0004922,-8.2839e-05,-0.00045064,0.00015513,0.054448,-0.016894,-0.015363,-0.00043077,-0.0023433,0.00080666,0,0,0,0.027345,0.00075529,-0.00036274,0.013854,0.009246,0.027166,1.0257e-06,0.95,0.5,0.65
0.048633,2.9458e-05,-0.0026637,0.02741,-0.00012088,0.00047154,-3.6553e-05,-0.00045365,6.315e-05,0.05461,-0.016971,-0.01543,-0.00019008,-0.002359,0.00032838,0,0,0,0.027411,0.00073821,-0.00038873,0.0139,0.0092536,0.027254,1.0357e-06,1,0.5,0.65
0.00092546,-5.4247e-05,-0.00024109,0.02475,0.009555,0.0095436,-0.00040564,-1.4881e-05,-0.0018452,0.038041,-0.0014663,-0.001496,-0.0021093,-7.738e-05,-0.0095951,0,0,0,0.025002,0.0095614,0.0092854,0.0078584,0.014616,0.015581,1.9616e-07,0,0.55,0.65
0.0019021,-0.00010953,-0.00047305,0.024921,0.0086053,0.0085789,-0.00038764,-2.7975e-05,-0.0018143,0.039532,-0.0028895,-0.0029582,-0.0020158,-0.00014547,-0.0094342,0,0,0,0.02515,0.008619,0.0083368,0.0084065,0.014035,0.016674,2.4412e-07,0.05,0.55,0.65
0.0039532,-0.00021999,-0.00091656,0.025567,0.0069131,0.0068615,-0.00033458,-5.269e-05,-0.0017239,0.042869,-0.0056309,-0.0057651,-0.0017398,-0.00027399,-0.008964,0,0,0,0.025747,0.0069445,0.0066505,0.0095481,0.013114,0.018951,3.5747e-07,0.1,0.55,0.65
0.006189,-0.00032662,-0.0013147,0.026437,0.0055067,0.0054581,-0.00024648,-7.7897e-05,-0.0015953,0.046296,-0.0081238,-0.0082503,-0.0012817,-0.00040507,-0.0082956,0,0,0,0.026572,0.005568,0.0052625,0.010655,0.012467,0.021158,4.9301e-07,0.15,0.55,0.65
0.0085828,-0.00042357,-0.001658,0.027127,0.004276,0.0042847,-0.00013012,-0.00010898,-0.0014579,0.049119,-0.010295,-0.010273,-0.00067661,-0.00056669,-0.0075811,0,0,0,0.027228,0.004394,0.0040665,0.011581,0.011896,0.022999,6.2934e-07,0.2,0.55,0.65
0.011101,-0.00050831,-0.0019377,0.027601,0.0032495,0.0033724,-2.3349e-06,-0.00014773,-0.0013293,0.051228,-0.012085,-0.011765,-1.2141e-05,-0.00076821,-0.0069123,0,0,0,0.027678,0.003467,0.0030778,0.0123,0.011407,0.024408,7.492e-07,0.25,0.55,0.65
0.013706,-0.00058235,-0.0021442,0.027832,0.0024393,0.0027075,0.00011669,-0.00018976,-0.0012116,0.052576,-0.013445,-0.012748,0.00060677,-0.00098674,-0.0063003,0,0,0,0.027895,0.0027927,0.0022912,0.012802,0.010993,0.025357,8.3799e-07,0.3,0.55,0.65
0.016358,-0.00065216,-0.002263,0.027821,0.0018445,0.0022189,0.00020359,-0.0002148,-0.001083,0.053203,-0.014335,-0.013361,0.0010587,-0.0011169,-0.0056315,0,0,0,0.027874,0.002301,0.0017095,0.013082,0.010628,0.025874,8.8927e-07,0.35,0.55,0.65
0.019026,-0.00072859,-0.0022723,0.027576,0.0014213,0.0016916,0.00024021,-0.00016623,-0.00093372,0.053283,-0.014718,-0.014015,0.0012491,-0.00086441,-0.0048553,0,0,0,0.02762,0.0017934,0.0012753,0.013172,0.010229,0.02609,9.1248e-07,0.4,0.55,0.65
0.021687,-0.0008237,-0.0021567,0.027425,0.0010308,0.00082846,0.00028503,4.6534e-05,-0.00085422,0.052669,-0.014589,-0.015046,0.0013653,0.00017087,-0.0042779,0,0,0,0.02747,0.0012179,0.00059602,0.013437,0.0097615,0.026573,1.0115e-06,0.45,0.55,0.65
0.024304,-0.00093082,-0.0019479,0.027371,0.00062745,-0.00019175,0.00033082,0.00034702,-0.00082321,0.051039,-0.014065,-0.016042,0.0014484,0.0015957,-0.0038546,0,0,0,0.02742,0.00079771,-0.00041163,0.013916,0.0092688,0.027254,1.1659e-06,0.5,0.55,0.65
0.026818,-0.001024,-0.0017417,0.026984,0.00029226,-0.00088038,0.00029577,0.00049206,-0.00061018,0.048785,-0.013464,-0.016369,0.0012979,0.0023433,-0.0027685,0,0,0,0.027019,0.00052066,-0.0011436,0.014081,0.0087986,0.027373,1.2093e-06,0.55,0.55,0.65
0.029211,-0.0010848,-0.0016277,0.026597,3.3962e-05,-0.00121,0.0001586,0.00047351,-0.00017578,0.047037,-0.013142,-0.016228,0.00070784,0.0023627,-0.00077733,0,0,0,0.026612,0.00025414,-0.0014446,0.014028,0.0084737,0.027252,1.1988e-06,0.6,0.55,0.65
0.031548,-0.001102,-0.001636,0.02652,-9.6038e-05,-0.001329,-3.6158e-05,0.00047877,0.00031114,0.047031,-0.013269,-0.016328,-0.0001858,0.0023873,0.0014702,0,0,0,0.026535,0.00013086,-0.0015707,0.014053,0.0083651,0.0273,1.2054e-06,0.65,0.55,0.65
0.03394,-0.0010749,-0.0017723,0.026758,-0.00010862,-0.0012455,-0.00017338,0.00050729,0.0006869,0.048785,-0.013869,-0.016682,-0.00075005,0.002412,0.0031855,0,0,0,0.026791,0.00013825,-0.0015255,0.014158,0.0084679,0.027527,1.2312e-06,0.7,0.55,0.65
0.036456,-0.0010144,-0.0020183,0.027025,-6.1524e-05,-0.0007967,-0.00020901,0.00036012,0.00079094,0.051117,-0.014832,-0.016586,-0.00087031,0.0016511,0.003717,0,0,0,0.027067,0.00015778,-0.0010577,0.014062,0.0087224,0.027544,1.2039e-06,0.75,0.55,0.65
0.03908,-0.00094045,-0.0022942,0.027022,1.9718e-05,-3.2956e-06,-0.00017247,3.6039e-05,0.00067076,0.052965,-0.015855,-0.015843,-0.00079786,0.00011143,0.0033362,0,0,0,0.027051,0.00035455,-0.00036799,0.01371,0.0090127,0.027069,1.0678e-06,0.8,0.55,0.65
0.041764,-0.00088278,-0.0025097,0.02718,-6.7077e-06,0.00057492,-0.00014593,-0.00021071,0.00055196,0.054019,-0.016666,-0.015154,-0.00075884,-0.0010957,0.0028702,0,0,0,0.027198,0.00067709,-0.00012676,0.013662,0.0092493,0.026933,1.0029e-06,0.85,0.55,0.65
0.044482,-0.00085202,-0.0026374,0.027512,-0.00013403,0.00069728,-0.00013458,-0.00029405,0.00044468,0.054686,-0.017194,-0.015032,-0.00069979,-0.0015291,0.0023123,0,0,0,0.027523,0.00080599,-0.00025406,0.013889,0.0093584,0.027263,1.0381e-06,0.9,0.55,0.65
0.047232,-0.00083902,-0.0026978,0.027715,-0.00022922,0.00064591,-7.7713e-05,-0.00030593,0.0002391,0.055179,-0.017475,-0.015199,-0.00040411,-0.0015908,0.0012433,0,0,0,0.027719,0.00076523,-0.00035334,0.014036,0.0093771,0.02753,1.0685e-06,0.95,0.55,0.65
0.048614,-0.00083574,-0.0027149,0.027785,-0.0002604,0.0006155,-3.8514e-05,-0.00030454,0.0001064,0.055357,-0.017561,-0.015284,-0.00020027,-0.0015836,0.00055327,0,0,0,0.027787,0.00073694,-0.00038373,0.014085,0.0093801,0.027627,1.0798e-06,1,0.55,0.65
0.00092901,-0.00012921,-0.00024202,0.024842,0.0095543,0.0095729,-0.00097768,2.2361e-06,-0.0018537,0.038207,-0.0015401,-0.0014919,-0.0050839,1.1628e-05,-0.0096391,0,0,0,0.025146,0.0095626,0.0092607,0.0079425,0.014656,0.015736,2.0211e-07,0,0.6,0.65
0.0019104,-0.00025718,-0.00047477,0.025016,0.0085682,0.0086005,-0.0009482,4.4347e-06,-0.0018249,0.039732,-0.0030337,-0.0029498,-0.0049306,2.306e-05,-0.0094893,0,0,0,0.025292,0.0085867,0.0083066,0.0084926,0.014062,0.016847,2.5192e-07,0.05,0.6,0.65
0.0039732,-0.00050757,-0.00091977,0.025677,0.0068121,0.0068729,-0.00086132,8.033e-06,-0.0017408,0.043142,-0.0059056,-0.0057473,-0.0044789,4.1772e-05,-0.0090522,0,0,0,0.025892,0.006858,0.006611,0.0096407,0.013121,0.019159,3.6957e-07,0.1,0.6,0.65
0.0062246,-0.00074124,-0.0013195,0.026566,0.0053589,0.0054675,-0.00072224,8.7278e-06,-0.0016237,0.046637,-0.0085024,-0.00822,-0.0037557,4.5385e-05,-0.0084434,0,0,0,0.026727,0.0054545,0.0052116,0.010757,0.012464,0.021395,5.0989e-07,0.15,0.6,0.65
0.0086368,-0.00094868,-0.0016651,0.027273,0.0040999,0.0042997,-0.00054594,4.2613e-06,-0.001504,0.049505,-0.010744,-0.010224,-0.0028389,2.2159e-05,-0.0078209,0,0,0,0.027391,0.004281,0.0040005,0.011695,0.011891,0.023252,6.5037e-07,0.2,0.6,0.65
0.011175,-0.0011243,-0.0019478,0.02776,0.0030649,0.0034025,-0.00035617,-6.5359e-06,-0.0014001,0.051639,-0.012568,-0.01169,-0.0018521,-3.3986e-05,-0.0072804,0,0,0,0.02785,0.0033756,0.0030017,0.012424,0.011409,0.024664,7.7304e-07,0.25,0.6,0.65
0.013801,-0.0012672,-0.0021577,0.028002,0.0022636,0.0027597,-0.00017676,-2.2641e-05,-0.001314,0.05299,-0.01393,-0.01264,-0.00091915,-0.00011773,-0.006833,0,0,0,0.028076,0.0027324,0.0022174,0.012929,0.011008,0.025605,8.6287e-07,0.3,0.6,0.65
0.016474,-0.0013811,-0.0022783,0.027995,0.001698,0.002296,-2.8576e-05,-3.6918e-05,-0.0012216,0.053593,-0.014778,-0.013223,-0.0001486,-0.00019197,-0.0063522,0,0,0,0.028058,0.0022743,0.0016564,0.013201,0.010663,0.026099,9.1284e-07,0.35,0.6,0.65
0.01916,-0.0014736,-0.0022821,0.027748,0.0013288,0.001751,7.369e-05,-2.596e-05,-0.00111,0.053649,-0.015042,-0.013944,0.00038319,-0.00013499,-0.0057722,0,0,0,0.027804,0.0017857,0.001238,0.013283,0.010276,0.026298,9.3524e-07,0.4,0.6,0.65
0.021839,-0.0015544,-0.002145,0.027572,0.00097712,0.00074953,0.00016024,5.2205e-05,-0.0010574,0.052793,-0.014642,-0.015156,0.00075086,0.00022949,-0.0053468,0,0,0,0.02763,0.0011666,0.00050255,0.013564,0.0097663,0.026805,1.0345e-06,0.45,0.6,0.65
0.024458,-0.0016254,-0.0019088,0.027408,0.00063101,-0.00036563,0.00021683,0.00015688,-0.00097337,0.050739,-0.013805,-0.016234,0.00095042,0.00071175,-0.0047064,0,0,0,0.027464,0.00071077,-0.00050087,0.013982,0.0092245,0.027385,1.17e-06,0.5,0.6,0.65
0.026951,-0.0016817,-0.0016925,0.027194,0.00034435,-0.0010333,0.00021043,0.00018183,-0.00066703,0.047899,-0.012988,-0.016347,0.00093381,0.00086552,-0.003155,0,0,0,0.027227,0.00042662,-0.0011488,0.014188,0.008835,0.027626,1.2467e-06,0.55,0.6,0.65
0.029289,-0.001723,-0.0015827,0.027386,1.7323e-05,-0.0014326,0.00014676,0.00014906,-0.00018954,0.045291,-0.012492,-0.015849,0.0006364,0.00076268,-0.00089245,0,0,0,0.0274,8.0762e-05,-0.0015097,0.014455,0.008657,0.028153,1.3578e-06,0.6,0.6,0.65
0.031544,-0.0017463,-0.0015914,0.027314,-0.00010357,-0.0015526,4.1094e-05,0.00015044,0.00031837,0.045288,-0.012602,-0.015956,0.00013483,0.00076992,0.0015184,0,0,0,0.027329,-3.7437e-05,-0.0016337,0.014481,0.0085525,0.028203,1.3646e-06,0.65,0.6,0.65
0.033882,-0.0017521,-0.0017239,0.026981,-3.0115e-05,-0.0014024,-4.3294e-05,0.00018671,0.00073425,0.047909,-0.013344,-0.016685,-0.00019289,0.00088677,0.0035174,0,0,0,0.027014,5.9085e-05,-0.0015245,0.014269,0.0085161,0.027785,1.2691e-06,0.7,0.6,0.65
0.036376,-0.0017462,-0.0019809,0.027079,-1.9689e-05,-0.00098042,-8.1889e-05,0.00015917,0.00092532,0.050829,-0.014494,-0.016822,-0.00031574,0.00071653,0.0044949,0,0,0,0.027127,8.7813e-05,-0.0011354,0.014131,0.008693,0.027677,1.2088e-06,0.75,0.6,0.65
0.039003,-0.0017333,-0.0022865,0.027187,1.6269e-05,-8.7449e-05,-7.7628e-05,3.9642e-05,0.00085254,0.053097,-0.015812,-0.015999,-0.0003436,0.00016119,0.004297,0,0,0,0.027227,0.00032139,-0.0004319,0.013829,0.0090387,0.027293,1.0912e-06,0.8,0.6,0.65
0.041705,-0.0017243,-0.0025263,0.027376,-3.3611e-05,0.000645,-6.6943e-05,-5.7331e-05,0.00070164,0.054385,-0.01688,-0.015115,-0.0003481,-0.00029812,0.0036486,0,0,0,0.027401,0.00069757,-0.00011102,0.013756,0.0093291,0.027118,1.025e-06,0.85,0.6,0.65
0.044441,-0.0017234,-0.0026623,0.027713,-0.00020177,0.00079755,-6.3309e-05,-8.4247e-05,0.00054798,0.05507,-0.01751,-0.014912,-0.00032921,-0.00043809,0.0028495,0,0,0,0.027728,0.00082089,-0.00024007,0.013984,0.0094364,0.027454,1.0609e-06,0.9,0.6,0.65
0.047212,-0.0017255,-0.0027239,0.027918,-0.0003158,0.00073352,-3.9194e-05,-8.4294e-05,0.00029231,0.055585,-0.017822,-0.015094,-0.00020381,-0.00043833,0.00152,0,0,0,0.027924,0.00076579,-0.0003542,0.014139,0.0094452,0.027735,1.0932e-06,0.95,0.6,0.65
0.048604,-0.0017267,-0.0027408,0.027989,-0.00035084,0.0006982,-2.3314e-05,-8.2241e-05,0.0001337,0.055769,-0.017914,-0.015186,-0.00012123,-0.00042765,0.00069522,0,0,0,0.027991,0.0007336,-0.00038859,0.01419,0.0094453,0.027836,1.1049e-06,1,0.6,0.65
0.00093144,-0.00020826,-0.00024067,0.024901,0.0095303,0.0095877,-0.0015799,2.0047e-05,-0.0018433,0.038332,-0.0016327,-0.0014835,-0.0082154,0.00010424,-0.0095851,0,0,0,0.025299,0.0095494,0.0091705,0.0080643,0.014673,0.015943,2.1006e-07,0,0.65,0.65
0.0019166,-0.0004129,-0.00047217,0.025077,0.0084961,0.0086052,-0.0015364,3.8227e-05,-0.0018147,0.039894,-0.0032173,-0.0029337,-0.0079893,0.00019878,-0.0094365,0,0,0,0.025437,0.008542,0.0081996,0.0086187,0.01406,0.017069,2.6193e-07,0.05,0.65,0.65
0.0039894,-0.00081055,-0.00091486,0.025744,0.0066534,0.006861,-0.0014085,7.1685e-05,-0.0017315,0.04338,-0.0062563,-0.0057165,-0.0073244,0.00037276,-0.0090038,0,0,0,0.026023,0.0067693,0.0064659,0.0097788,0.013086,0.019408,3.8398e-07,0.1,0.65,0.65
0.0062546,-0.0011769,-0.0013126,0.026638,0.0051388,0.0054447,-0.0012086,0.00010046,-0.0016158,0.046926,-0.008972,-0.0081767,-0.0062847,0.00052241,-0.0084022,0,0,0,0.026841,0.0053582,0.0050221,0.01091,0.012407,0.021654,5.2815e-07,0.15,0.65,0.65
0.008682,-0.0014979,-0.0016565,0.027335,0.0038516,0.0042705,-0.00096384,0.00012593,-0.001498,0.049796,-0.01126,-0.010171,-0.005012,0.00065483,-0.0077895,0,0,0,0.027479,0.0042045,0.0037729,0.011853,0.011819,0.023495,6.7008e-07,0.2,0.65,0.65
0.011234,-0.0017651,-0.0019379,0.0278,0.0028213,0.0033714,-0.00070914,0.00014782,-0.0013963,0.051885,-0.01306,-0.01163,-0.0036875,0.00076864,-0.0072606,0,0,0,0.027905,0.0033273,0.0027605,0.012572,0.011331,0.024867,7.9106e-07,0.25,0.65,0.65
0.01387,-0.0019753,-0.0021469,0.028013,0.0020491,0.0027299,-0.00047347,0.00016397,-0.0013125,0.053158,-0.014347,-0.012577,-0.0024621,0.00085265,-0.0068248,0,0,0,0.028094,0.0027049,0.0019932,0.01305,0.010931,0.025753,8.7648e-07,0.3,0.65,0.65
0.01655,-0.00213,-0.0022669,0.027974,0.0015261,0.0022693,-0.00027272,0.00016673,-0.0012217,0.053671,-0.015094,-0.013162,-0.0014182,0.00086702,-0.0063531,0,0,0,0.02804,0.0022586,0.0014706,0.013285,0.01059,0.026185,9.2071e-07,0.35,0.65,0.65
0.019238,-0.0022328,-0.0022707,0.0277,0.0012039,0.0017285,-0.00011107,0.00013259,-0.0011113,0.053641,-0.015249,-0.013885,-0.00057759,0.00068949,-0.0057787,0,0,0,0.027756,0.0017697,0.0011062,0.013325,0.010211,0.026326,9.3746e-07,0.4,0.65,0.65
0.021914,-0.0022886,-0.0021343,0.0275,0.00089462,0.00073286,-1.7108e-05,2.0906e-05,-0.001059,0.052712,-0.014753,-0.015098,-4.8236e-05,0.00014992,-0.0053551,0,0,0,0.027556,0.0011355,0.00043571,0.01356,0.0097092,0.026781,1.0308e-06,0.45,0.65,0.65
0.024527,-0.0023127,-0.0018995,0.027319,0.00058584,-0.00037448,2.574e-05,-0.00011879,-0.00097481,0.050607,-0.013835,-0.016177,0.00019147,-0.00051411,-0.0047141,0,0,0,0.027372,0.00067549,-0.00051771,0.013945,0.0091767,0.027319,1.1607e-06,0.5,0.65,0.65
0.027013,-0.0023262,-0.0016849,0.027099,0.00033175,-0.0010349,5.7996e-05,-0.00016785,-0.00066831,0.047738,-0.012959,-0.016292,0.00027347,-0.00079122,-0.0031611,0,0,0,0.02713,0.00041191,-0.0011467,0.014138,0.0087985,0.027535,1.2346e-06,0.55,0.65,0.65
0.029342,-0.002342,-0.0015765,0.027291,2.7427e-05,-0.0014306,9.7587e-05,-0.00014603,-0.0001907,0.04512,-0.012424,-0.015801,0.00039803,-0.00074298,-0.0008971,0,0,0,0.027304,8.7184e-05,-0.0015034,0.014404,0.0086293,0.028051,1.3446e-06,0.6,0.65,0.65
0.031589,-0.0023703,-0.0015859,0.027223,-7.88e-05,-0.0015489,0.00014287,-0.00014788,0.00031744,0.045117,-0.012511,-0.015915,0.00063193,-0.00075138,0.0015148,0,0,0,0.027239,-1.8685e-05,-0.0016244,0.014432,0.0085319,0.0281,1.3511e-06,0.65,0.65,0.65
0.033918,-0.0024129,-0.0017187,0.026897,-5.4231e-08,-0.0013986,0.00015143,-0.00017441,0.00073372,0.047744,-0.013247,-0.016649,0.00067411,-0.00082278,0.0035155,0,0,0,0.026931,8.1788e-05,-0.001514,0.014222,0.0084995,0.027686,1.2554e-06,0.7,0.65,0.65
0.036404,-0.0024654,-0.0019755,0.027002,5.398e-06,-0.00097933,0.00012465,-0.00013124,0.00092548,0.050674,-0.014405,-0.016792,0.0005181,-0.00057619,0.0044964,0,0,0,0.02705,0.00010618,-0.0011278,0.014089,0.008676,0.027588,1.1963e-06,0.75,0.65,0.65
0.039024,-0.0025224,-0.0022808,0.027119,3.16e-05,-9.0224e-05,7.4324e-05,4.6306e-06,0.00085378,0.052958,-0.015741,-0.015974,0.00032311,6.6558e-05,0.0043038,0,0,0,0.027159,0.00033463,-0.00043262,0.013796,0.0090202,0.027219,1.0819e-06,0.8,0.65,0.65
0.041719,-0.0025708,-0.0025203,0.027316,-2.9554e-05,0.00063886,3.9003e-05,0.00011753,0.00070356,0.054267,-0.016832,-0.015094,0.00020281,0.00061117,0.0036585,0,0,0,0.027341,0.00070703,-0.00012248,0.013732,0.0093085,0.02706,1.0183e-06,0.85,0.65,0.65
0.04445,-0.002603,-0.0026561,0.027659,-0.00020781,0.00078923,3.1078e-05,0.00015829,0.0005497,0.054969,-0.017485,-0.014892,0.00016161,0.00082313,0.0028585,0,0,0,0.027674,0.00082879,-0.00026225,0.013968,0.0094135,0.027407,1.0552e-06,0.9,0.65,0.65
0.047216,-0.0026213,-0.0027176,0.027867,-0.00032867,0.000724,1.1745e-05,0.0001675,0.00029334,0.055497,-0.017812,-0.015075,6.1073e-05,0.000871,0.0015254,0,0,0,0.027873,0.00077384,-0.00038461,0.014129,0.0094208,0.027697,1.0882e-06,0.95,0.65,0.65
0.048606,-0.0026271,-0.0027345,0.027939,-0.00036613,0.00068827,-1.9723e-06,0.00016865,0.0001343,0.055685,-0.017909,-0.015167,-1.0256e-05,0.00087696,0.00069835,0,0,0,0.027941,0.0007417,-0.0004219,0.014182,0.0094204,0.0278,1.1003e-06,1,0.65,0.65
0.00093327,-0.00029247,-0.00023723,0.024942,0.009482,0.0095913,-0.0022178,3.6189e-05,-0.0018154,0.03844,-0.0017559,-0.0014716,-0.011532,0.00018818,-0.0094401,0,0,0,0.025482,0.0095351,0.0089978,0.0082422,0.014672,0.016223,2.2093e-07,0,0.7,0.65
0.001922,-0.00057892,-0.00046562,0.025116,0.0083808,0.0085935,-0.0021536,6.8895e-05,-0.0017851,0.040047,-0.0034639,-0.0029109,-0.011199,0.00035825,-0.0092826,0,0,0,0.025601,0.0085024,0.0079867,0.0088071,0.01403,0.017363,2.7517e-07,0.05,0.7,0.65
0.0040047,-0.0011332,-0.00090248,0.02578,0.0064183,0.0068218,-0.0019658,0.00012954,-0.0016969,0.043615,-0.0067242,-0.0056751,-0.010222,0.00067359,-0.008824,0,0,0,0.026149,0.0066971,0.0061737,0.0099875,0.013007,0.01972,4.0183e-07,0.1,0.7,0.65
0.0062835,-0.0016384,-0.0012948,0.026658,0.004825,0.0053832,-0.0016783,0.00018377,-0.0015723,0.047191,-0.0095748,-0.0081236,-0.0087272,0.00095558,-0.0081761,0,0,0,0.026917,0.0052815,0.0046675,0.011125,0.012289,0.021951,5.4855e-07,0.15,0.7,0.65
0.0087238,-0.0020747,-0.0016333,0.027313,0.0035158,0.0041903,-0.0013385,0.00023573,-0.0014404,0.050003,-0.01187,-0.010117,-0.0069604,0.0012258,-0.0074903,0,0,0,0.027488,0.0041379,0.0033939,0.012047,0.011673,0.023732,6.8835e-07,0.2,0.7,0.65
0.011284,-0.0024303,-0.0019091,0.027714,0.0025132,0.0032734,-0.00099926,0.00028537,-0.0013186,0.051957,-0.013566,-0.01159,-0.0051961,0.0014839,-0.0068566,0,0,0,0.027831,0.0032727,0.002397,0.012717,0.011167,0.025009,8.021e-07,0.25,0.7,0.65
0.013919,-0.0027019,-0.0021128,0.027853,0.0017981,0.0026136,-0.00069591,0.00032682,-0.0012077,0.05306,-0.014684,-0.012564,-0.0036187,0.0016995,-0.0062803,0,0,0,0.027935,0.0026572,0.0016733,0.013131,0.010755,0.025784,8.7713e-07,0.3,0.7,0.65
0.01659,-0.0028905,-0.0022301,0.027748,0.0013351,0.0021353,-0.00043841,0.00033924,-0.0010849,0.053414,-0.01526,-0.013179,-0.0022797,0.001764,-0.0056415,0,0,0,0.027807,0.0022085,0.0012029,0.013302,0.010406,0.026116,9.1122e-07,0.35,0.7,0.65
0.019261,-0.0029985,-0.0022393,0.027422,0.0010538,0.0016217,-0.0002223,0.00026653,-0.00093954,0.053238,-0.015319,-0.013842,-0.001156,0.001386,-0.0048856,0,0,0,0.027466,0.0017163,0.00091477,0.013276,0.010032,0.026161,9.1798e-07,0.4,0.7,0.65
0.021914,-0.0030304,-0.0021255,0.027206,0.00079339,0.00077639,-0.00010112,2.0734e-05,-0.0008617,0.052413,-0.014899,-0.01488,-0.00044257,0.00017915,-0.0043175,0,0,0,0.027248,0.001122,0.00040531,0.013422,0.0095919,0.026495,1.0011e-06,0.45,0.7,0.65
0.024514,-0.0030103,-0.0019204,0.027105,0.00050295,-0.000221,-6.0308e-05,-0.00031315,-0.00082984,0.050633,-0.014137,-0.015878,-0.00014947,-0.001418,-0.003891,0,0,0,0.02715,0.00070481,-0.00046829,0.013809,0.009129,0.027058,1.1401e-06,0.5,0.7,0.65
0.027005,-0.002981,-0.0017188,0.026699,0.00026366,-0.00088759,-1.314e-05,-0.00048105,-0.00061483,0.048294,-0.013358,-0.016211,1.1256e-05,-0.0022825,-0.0027945,0,0,0,0.026731,0.00048743,-0.0011428,0.013937,0.0086917,0.0271,1.1733e-06,0.55,0.7,0.65
0.029371,-0.0029732,-0.0016089,0.026315,7.5163e-05,-0.0012035,8.2608e-05,-0.00047247,-0.00017916,0.046513,-0.012918,-0.016086,0.00038258,-0.0023519,-0.00079457,0,0,0,0.026329,0.00028354,-0.0014252,0.013877,0.0083957,0.026946,1.1592e-06,0.6,0.7,0.65
0.031682,-0.0030051,-0.0016197,0.026253,-1.3058e-05,-0.0013165,0.00020794,-0.00047739,0.00030863,0.046505,-0.01298,-0.016205,0.00095825,-0.0023752,0.001459,0,0,0,0.026269,0.00019448,-0.00154,0.013904,0.0083078,0.026989,1.1648e-06,0.65,0.7,0.65
0.034048,-0.0030801,-0.0017568,0.026509,-1.5478e-05,-0.0012343,0.00026822,-0.00049647,0.000686,0.04828,-0.013569,-0.016575,0.0011856,-0.0023561,0.0031833,0,0,0,0.026543,0.00020727,-0.0014916,0.014017,0.0084197,0.027231,1.1912e-06,0.7,0.7,0.65
0.036538,-0.0031881,-0.0020025,0.0268,1.3977e-05,-0.00079366,0.00023679,-0.00033483,0.00079315,0.050651,-0.014563,-0.016496,0.00099841,-0.001524,0.0037306,0,0,0,0.026842,0.00020988,-0.0010318,0.013937,0.0086733,0.027281,1.1695e-06,0.75,0.7,0.65
0.039141,-0.0033082,-0.0022775,0.026823,6.4665e-05,-1.1318e-05,0.00015363,5.1541e-06,0.00067637,0.052555,-0.015644,-0.015769,0.00069776,0.00010059,0.0033661,0,0,0,0.026853,0.00038899,-0.00036548,0.013609,0.0089589,0.026853,1.0423e-06,0.8,0.7,0.65
0.041805,-0.0034076,-0.0024921,0.027004,3.8262e-06,0.00055672,0.00010449,0.00026875,0.0005588,0.053671,-0.016529,-0.015091,0.00054333,0.0013975,0.0029057,0,0,0,0.027021,0.00070037,-0.00015745,0.013589,0.009188,0.026762,9.836e-07,0.85,0.7,0.65
0.044508,-0.0034719,-0.0026193,0.027351,-0.00015406,0.00067188,9.2637e-05,0.00036733,0.00045039,0.054391,-0.017122,-0.014974,0.00048171,0.0019101,0.002342,0,0,0,0.027362,0.00082423,-0.00031747,0.01384,0.0092896,0.027127,1.022e-06,0.9,0.7,0.65
0.047245,-0.0035067,-0.0026794,0.027563,-0.00026978,0.00061635,4.4725e-05,0.00038941,0.0002424,0.054918,-0.017447,-0.015143,0.00023257,0.0020249,0.0012605,0,0,0,0.027568,0.00078229,-0.0004404,0.014004,0.0093033,0.027418,1.0544e-06,0.95,0.7,0.65
0.04862,-0.0035175,-0.0026964,0.027637,-0.00030818,0.00058452,9.6325e-06,0.00039159,0.00010827,0.055108,-0.017549,-0.015228,5.0089e-05,0.0020363,0.00056299,0,0,0,0.027639,0.00075358,-0.00047911,0.014059,0.0093045,0.027523,1.0664e-06,1,0.7,0.65
0.00093602,-0.00038385,-0.0002323,0.025,0.0094082,0.0095938,-0.0029021,4.8191e-05,-0.0017748,0.038598,-0.0019398,-0.0014572,-0.015091,0.00025059,-0.0092287,0,0,0,0.025739,0.009531,0.0087317,0.0085037,0.014667,0.016623,2.3673e-07,0,0.75,0.65
0.0019299,-0.00075929,-0.00045623,0.025166,0.0082053,0.0085694,-0.0028031,9.1816e-05,-0.0017411,0.040267,-0.0038306,-0.0028838,-0.014576,0.00047744,-0.0090536,0,0,0,0.025822,0.008471,0.0076478,0.009087,0.01398,0.017778,2.9398e-07,0.05,0.75,0.65
0.0040267,-0.001483,-0.00088474,0.025812,0.0060668,0.0067504,-0.0025183,0.00017294,-0.0016433,0.043934,-0.0074039,-0.0056265,-0.013095,0.00089929,-0.0085452,0,0,0,0.026294,0.0066233,0.0057119,0.010291,0.012876,0.020144,4.2584e-07,0.1,0.75,0.65
0.0063233,-0.0021343,-0.0012692,0.026652,0.0043764,0.0052764,-0.0020953,0.0002459,-0.0015021,0.047512,-0.010404,-0.0080641,-0.010896,0.0012787,-0.0078109,0,0,0,0.026971,0.0051844,0.004149,0.011411,0.012101,0.022325,5.7347e-07,0.15,0.75,0.65
0.0087778,-0.002685,-0.0015995,0.027229,0.0030655,0.0040572,-0.0016182,0.00031569,-0.001345,0.050185,-0.012641,-0.010063,-0.0084145,0.0016416,-0.0069941,0,0,0,0.027428,0.0040284,0.0028962,0.012266,0.011451,0.023987,7.0684e-07,0.2,0.75,0.65
0.011342,-0.0031217,-0.0018668,0.027527,0.0021275,0.003115,-0.0011672,0.00038101,-0.0011886,0.051909,-0.01413,-0.011563,-0.0060696,0.0019813,-0.0061809,0,0,0,0.027646,0.0031571,0.0019663,0.01284,0.010923,0.025107,8.0804e-07,0.25,0.75,0.65
0.013969,-0.0034437,-0.0020627,0.027562,0.0015018,0.0024254,-0.00078217,0.00043173,-0.0010345,0.052768,-0.014989,-0.012587,-0.0040673,0.002245,-0.0053796,0,0,0,0.027634,0.0025346,0.0013208,0.013157,0.010496,0.025728,8.6869e-07,0.3,0.75,0.65
0.016619,-0.003656,-0.0021763,0.027375,0.0011153,0.0019161,-0.00046314,0.00043836,-0.00086514,0.052932,-0.015344,-0.013262,-0.0024083,0.0022795,-0.0044987,0,0,0,0.027419,0.0020695,0.00091817,0.01325,0.010136,0.025945,8.914e-07,0.35,0.75,0.65
0.019262,-0.0037646,-0.0021945,0.027001,0.00087409,0.0014317,-0.00019964,0.0003389,-0.00067363,0.052618,-0.015311,-0.013862,-0.0010381,0.0017623,-0.0035029,0,0,0,0.027027,0.0015745,0.00070458,0.013161,0.0097688,0.025901,8.8917e-07,0.4,0.75,0.65
0.02188,-0.0037798,-0.0021132,0.026588,0.00064637,0.00078643,-2.515e-05,6.0225e-05,-0.00052333,0.051945,-0.015029,-0.014642,-9.8192e-05,0.00034294,-0.0026537,0,0,0,0.02661,0.0010253,0.00038579,0.013112,0.0093404,0.025913,9.1173e-07,0.45,0.75,0.65
0.024459,-0.0037299,-0.0019554,0.026343,0.00036275,-1.1936e-05,4.0175e-05,-0.00034835,-0.00048152,0.050751,-0.014572,-0.015479,0.00030433,-0.0016744,-0.0022422,0,0,0,0.026369,0.00066179,-0.00033757,0.013353,0.0088979,0.026227,9.9173e-07,0.5,0.75,0.65
0.02697,-0.0036663,-0.001785,0.02609,0.00012367,-0.00066465,6.9775e-05,-0.00066512,-0.00039466,0.049218,-0.01404,-0.016019,0.00045073,-0.0032463,-0.0017038,0,0,0,0.026114,0.00053097,-0.0010958,0.013605,0.0085163,0.026439,1.0447e-06,0.55,0.75,0.65
0.029401,-0.0036386,-0.0016822,0.025725,1.171e-05,-0.00097257,0.00013171,-0.00077612,-0.00011279,0.048185,-0.013711,-0.016231,0.00068181,-0.0038753,-0.0004319,0,0,0,0.025736,0.00047286,-0.001445,0.013591,0.0082547,0.026279,1.0258e-06,0.6,0.75,0.65
0.031797,-0.003673,-0.0016949,0.02567,-5.7332e-05,-0.0010749,0.00020692,-0.00078249,0.00024657,0.048174,-0.013749,-0.016348,0.00096662,-0.0039057,0.0011305,0,0,0,0.025682,0.00040073,-0.0015456,0.013614,0.0081791,0.026313,1.0302e-06,0.65,0.75,0.65
0.034227,-0.003774,-0.0018284,0.025921,-9.1471e-05,-0.00097153,0.00022905,-0.00068234,0.00047739,0.049187,-0.014173,-0.016371,0.001013,-0.0033298,0.0021428,0,0,0,0.025946,0.00030591,-0.0013944,0.01367,0.008286,0.026537,1.0574e-06,0.7,0.75,0.65
0.036736,-0.0039251,-0.0020443,0.026065,-1.2838e-05,-0.00051995,0.00017097,-0.00036824,0.00046801,0.050721,-0.014841,-0.016078,0.00075359,-0.0017735,0.0021826,0,0,0,0.02609,0.00024985,-0.00080726,0.013448,0.0085108,0.026391,1.0111e-06,0.75,0.75,0.65
0.039314,-0.0040882,-0.0022701,0.026216,7.794e-05,5.5037e-05,0.0001008,5.2216e-05,0.00037191,0.051979,-0.015501,-0.015533,0.00048551,0.00030228,0.0018705,0,0,0,0.02623,0.00037497,-0.00025607,0.013243,0.0087829,0.026179,9.4068e-07,0.8,0.75,0.65
0.041937,-0.0042236,-0.0024481,0.026552,4.4684e-05,0.00040168,8.5284e-05,0.00035678,0.00033887,0.052836,-0.016083,-0.015155,0.00044347,0.0018553,0.0017621,0,0,0,0.026561,0.00063899,-0.00020116,0.013381,0.0089995,0.026353,9.3789e-07,0.85,0.75,0.65
0.044598,-0.0043152,-0.002561,0.026886,-7.1185e-05,0.00047616,8.6427e-05,0.00049302,0.00029502,0.053529,-0.01656,-0.015137,0.00044942,0.0025637,0.0015341,0,0,0,0.026892,0.0007778,-0.00037867,0.013635,0.009097,0.026711,9.7446e-07,0.9,0.75,0.65
0.04729,-0.004366,-0.0026181,0.027093,-0.00016991,0.00043903,4.0588e-05,0.00053409,0.00016071,0.054024,-0.016859,-0.015276,0.00021105,0.0027773,0.00083568,0,0,0,0.027095,0.00076414,-0.00049768,0.013797,0.0091206,0.026984,1.0038e-06,0.95,0.75,0.65
0.048643,-0.004382,-0.002635,0.027165,-0.0002058,0.00041541,1.4968e-06,0.00054112,6.6156e-05,0.054204,-0.01696,-0.015345,7.783e-06,0.0028138,0.00034401,0,0,0,0.027166,0.00074479,-0.00053634,0.013851,0.0091249,0.027085,1.0149e-06,1,0.75,0.65
0.00094276,-0.00048645,-0.00022686,0.025148,0.0093029,0.0096141,-0.0036519,5.3762e-05,-0.0017293,0.038947,-0.0022517,-0.0014426,-0.01899,0.00027956,-0.0089926,0,0,0,0.026153,0.0095521,0.0083601,0.0088965,0.014688,0.01723,2.615e-07,0,0.8,0.65
0.0019473,-0.00096197,-0.00044589,0.025292,0.0079311,0.0085388,-0.0034888,0.00010286,-0.0016912,0.040702,-0.0044365,-0.0028563,-0.018142,0.00053486,-0.0087941,0,0,0,0.026165,0.0084438,0.007153,0.0095061,0.013921,0.018404,3.2278e-07,0.05,0.8,0.65
0.0040702,-0.0018736,-0.00086518,0.025891,0.0055243,0.0066359,-0.0030361,0.00019468,-0.001581,0.044486,-0.0084674,-0.0055775,-0.015788,0.0010123,-0.0082213,0,0,0,0.026496,0.006517,0.0050382,0.010729,0.012684,0.020762,4.6046e-07,0.1,0.8,0.65
0.0063959,-0.0026788,-0.0012409,0.026652,0.0037348,0.0051136,-0.0024031,0.00027736,-0.0014194,0.047995,-0.01159,-0.0080048,-0.012496,0.0014423,-0.007381,0,0,0,0.027019,0.0050327,0.0034485,0.011785,0.011833,0.022823,6.058e-07,0.15,0.8,0.65
0.0088697,-0.0033388,-0.0015621,0.027103,0.0024802,0.0038697,-0.0017432,0.00035433,-0.001233,0.050397,-0.013623,-0.010011,-0.0090649,0.0018425,-0.0064115,0,0,0,0.027307,0.0038545,0.0022916,0.012508,0.011151,0.024274,7.2655e-07,0.2,0.8,0.65
0.011436,-0.0038434,-0.0018199,0.027257,0.0016642,0.0029051,-0.0011702,0.00042179,-0.001039,0.051773,-0.014769,-0.011543,-0.006085,0.0021933,-0.005403,0,0,0,0.027365,0.0029675,0.0014944,0.012935,0.010609,0.025167,8.0997e-07,0.25,0.8,0.65
0.014047,-0.0042008,-0.0020075,0.027175,0.0011601,0.0021873,-0.00071192,0.00046615,-0.00084275,0.052342,-0.015297,-0.012627,-0.003702,0.002424,-0.0043823,0,0,0,0.02723,0.0023258,0.00096685,0.013132,0.010174,0.025611,8.5483e-07,0.3,0.8,0.65
0.01667,-0.0044249,-0.0021185,0.026925,0.00086416,0.0016532,-0.00034739,0.00045611,-0.00063605,0.052339,-0.015418,-0.013367,-0.0018064,0.0023718,-0.0033075,0,0,0,0.026951,0.0018388,0.00065183,0.01315,0.009814,0.025727,8.6836e-07,0.35,0.8,0.65
0.019281,-0.0045297,-0.0021473,0.026554,0.00067322,0.0011967,-5.4919e-05,0.00034087,-0.00041814,0.051985,-0.015304,-0.013943,-0.00028558,0.0017725,-0.0021743,0,0,0,0.026566,0.0013542,0.00050278,0.013032,0.0094745,0.02565,8.6324e-07,0.4,0.8,0.65
0.021868,-0.004534,-0.0020971,0.026085,0.00047874,0.00070353,0.00015565,8.1007e-05,-0.0002207,0.05146,-0.015115,-0.014531,0.00080939,0.00042124,-0.0011476,0,0,0,0.026094,0.00086074,0.00031264,0.01289,0.009089,0.025512,8.514e-07,0.45,0.8,0.65
0.024427,-0.0044702,-0.001988,0.025669,0.00022384,0.00012611,0.0002505,-0.00030415,-0.00011285,0.050801,-0.014929,-0.015174,0.0013202,-0.0015509,-0.00053091,0,0,0,0.025681,0.00056481,-0.00022662,0.012954,0.0086731,0.025525,8.6185e-07,0.5,0.8,0.65
0.026952,-0.0043894,-0.0018642,0.025409,-9.7602e-06,-0.00040427,0.00024892,-0.00068705,-6.8034e-05,0.050086,-0.014729,-0.015734,0.0013243,-0.003498,-0.00023254,0,0,0,0.025422,0.00052415,-0.00095092,0.013186,0.0083317,0.025672,8.9063e-07,0.55,0.8,0.65
0.029443,-0.0043486,-0.0017868,0.025211,-0.00012634,-0.00070519,0.00021038,-0.00090684,1.4291e-05,0.049619,-0.014581,-0.016067,0.0010968,-0.0046445,0.00013972,0,0,0,0.025218,0.00055857,-0.001397,0.013308,0.0081266,0.025696,8.9489e-07,0.6,0.8,0.65
0.031918,-0.0043843,-0.0018014,0.025167,-0.0001743,-0.00078964,0.00015538,-0.00091168,0.00012005,0.04961,-0.014599,-0.016175,0.0007667,-0.0046685,0.00055927,0,0,0,0.025173,0.00050227,-0.0014722,0.013323,0.0080678,0.025718,8.9737e-07,0.65,0.8,0.65
0.034408,-0.0045017,-0.0019121,0.025275,-0.00015785,-0.00065947,7.9307e-05,-0.00069881,0.0001601,0.050058,-0.01479,-0.016066,0.00035324,-0.003557,0.00071168,0,0,0,0.025285,0.00034801,-0.0011754,0.01323,0.0081527,0.025738,8.9769e-07,0.7,0.8,0.65
0.036932,-0.0046749,-0.0020818,0.025441,-3.8175e-05,-0.00031469,-2.1147e-06,-0.000315,0.00012196,0.050764,-0.01505,-0.015757,-3.8407e-05,-0.0016064,0.00057843,0,0,0,0.025449,0.00022805,-0.00058877,0.013019,0.0083627,0.025644,8.7387e-07,0.75,0.8,0.65
0.039489,-0.0048589,-0.0022566,0.025756,7.3629e-05,3.1854e-05,-3.3584e-05,8.316e-05,0.0001063,0.051448,-0.015325,-0.015434,-0.00017464,0.00043243,0.00055274,0,0,0,0.02576,0.00030341,-0.00020185,0.012981,0.0086204,0.025714,8.721e-07,0.8,0.8,0.65
0.042077,-0.0050158,-0.0023991,0.026121,7.6641e-05,0.00021654,-7.485e-06,0.0003695,0.00013749,0.052066,-0.015649,-0.015286,-3.8922e-05,0.0019214,0.00071493,0,0,0,0.026124,0.0005322,-0.00024191,0.013183,0.0088048,0.025989,8.9903e-07,0.85,0.8,0.65
0.044695,-0.0051279,-0.0024953,0.026395,4.0986e-06,0.00025723,2.2347e-05,0.00052356,0.00014302,0.052634,-0.015983,-0.015325,0.0001162,0.0027225,0.00074368,0,0,0,0.026397,0.00067952,-0.00042031,0.013409,0.0088856,0.026286,9.2813e-07,0.9,0.8,0.65
0.04734,-0.0051926,-0.0025475,0.026572,-7.0903e-05,0.00023456,4.0326e-06,0.00058383,7.7695e-05,0.053045,-0.016226,-0.015431,2.0969e-05,0.0030359,0.00040401,0,0,0,0.026573,0.00069674,-0.00053418,0.013553,0.0089118,0.026513,9.5142e-07,0.95,0.8,0.65
0.048668,-0.0052135,-0.0025636,0.026634,-0.00010049,0.00021936,-2.3681e-05,0.00059781,2.2994e-05,0.053196,-0.016313,-0.015481,-0.00012314,0.0031086,0.00011957,0,0,0,0.026634,0.00069007,-0.0005718,0.013603,0.0089176,0.026598,9.6034e-07,1,0.8,0.65
0.00096099,-0.00060902,-0.00022231,0.025536,0.0091254,0.0096826,-0.0045033,5.0993e-05,-0.0016904,0.039787,-0.0028803,-0.0014315,-0.023417,0.00026517,-0.0087899,0,0,0,0.026884,0.0096242,0.0078354,0.0095244,0.014781,0.018225,3.0468e-07,0,0.85,0.65
0.0019893,-0.0012029,-0.00043721,0.025608,0.0074476,0.008499,-0.0042002,9.8733e-05,-0.0016471,0.041648,-0.0055689,-0.0028351,-0.021841,0.00051341,-0.0085651,0,0,0,0.026734,0.0084105,0.0064097,0.010162,0.013851,0.019408,3.7045e-07,0.05,0.85,0.65
0.0041648,-0.0023297,-0.00084863,0.026078,0.0046529,0.0064497,-0.0034298,0.00018941,-0.0015236,0.045495,-0.010211,-0.0055394,-0.017835,0.00098495,-0.0079225,0,0,0,0.02678,0.0063406,0.00406,0.01136,0.012394,0.021677,5.1134e-07,0.1,0.85,0.65
0.0065389,-0.0032933,-0.0012166,0.02668,0.0028644,0.0048839,-0.0024908,0.0002719,-0.0013412,0.048711,-0.01321,-0.0079589,-0.012952,0.0014139,-0.0069741,0,0,0,0.027053,0.0048107,0.0025645,0.012244,0.011476,0.023452,6.4515e-07,0.15,0.85,0.65
0.0090359,-0.0040473,-0.0015294,0.026908,0.0017932,0.0036243,-0.0016431,0.00034598,-0.0011265,0.050565,-0.014733,-0.0099721,-0.0085442,0.0017991,-0.005858,0,0,0,0.027089,0.0036114,0.0016252,0.012732,0.010775,0.024534,7.4251e-07,0.2,0.85,0.65
0.011595,-0.0045986,-0.0017787,0.026861,0.0011608,0.0026402,-0.00099236,0.00040546,-0.00089945,0.051442,-0.015379,-0.011533,-0.0051603,0.0021084,-0.0046771,0,0,0,0.026944,0.0026992,0.0010191,0.012962,0.010221,0.025128,8.0277e-07,0.25,0.85,0.65
0.01418,-0.0049735,-0.0019592,0.026669,0.00079929,0.0019071,-0.00051451,0.00043592,-0.00067111,0.051714,-0.015547,-0.012667,-0.0026754,0.0022668,-0.0034897,0,0,0,0.026704,0.0020361,0.00063494,0.013035,0.0097918,0.025398,8.329e-07,0.3,0.85,0.65
0.016767,-0.0051978,-0.0020686,0.026403,0.00059849,0.0013706,-0.00015232,0.00041047,-0.00044388,0.051624,-0.015467,-0.013459,-0.00079209,0.0021345,-0.0023082,0,0,0,0.026416,0.001539,0.0004162,0.013,0.0094572,0.025458,8.4185e-07,0.35,0.85,0.65
0.019342,-0.005295,-0.0021074,0.026101,0.00046608,0.00095092,0.00013078,0.00029337,-0.00022345,0.051352,-0.015299,-0.014038,0.00068006,0.0015255,-0.001162,0,0,0,0.026108,0.0010871,0.0003232,0.012892,0.0091726,0.025412,8.4001e-07,0.4,0.85,0.65
0.021902,-0.0052914,-0.0020829,0.025784,0.00032236,0.00056646,0.00033402,6.2996e-05,-3.1599e-05,0.051036,-0.015166,-0.014531,0.0017369,0.00032758,-0.00016432,0,0,0,0.025792,0.00068166,0.00019993,0.012796,0.0088911,0.025355,8.3604e-07,0.45,0.85,0.65
0.024446,-0.0052235,-0.0020145,0.025474,0.00012839,0.00017707,0.00042916,-0.00026397,9.5673e-05,0.050765,-0.015134,-0.015008,0.0022316,-0.0013726,0.0004975,0,0,0,0.025484,0.00048037,-0.0001846,0.012834,0.0085933,0.025345,8.3365e-07,0.5,0.85,0.65
0.026978,-0.0051411,-0.0019361,0.025219,-7.4249e-05,-0.00017291,0.00039818,-0.00060657,0.0001348,0.050586,-0.015176,-0.015433,0.0020705,-0.0031542,0.00070097,0,0,0,0.025228,0.00049502,-0.00075116,0.01299,0.0083239,0.025383,8.3218e-07,0.55,0.85,0.65
0.029505,-0.0050988,-0.0018896,0.025071,-0.00020502,-0.00039806,0.0002679,-0.00082962,0.00010126,0.050504,-0.015214,-0.015716,0.0013931,-0.004314,0.00052656,0,0,0,0.025076,0.00054749,-0.0011554,0.013116,0.008156,0.025425,8.3113e-07,0.6,0.85,0.65
0.032029,-0.0051349,-0.0019052,0.025047,-0.00023433,-0.00046573,9.4185e-05,-0.00083207,3.2082e-05,0.050513,-0.015217,-0.015819,0.00048976,-0.0043268,0.00016683,0,0,0,0.025049,0.00050361,-0.0012057,0.013127,0.0081155,0.025445,8.3302e-07,0.65,0.85,0.65
0.034556,-0.0052547,-0.0019865,0.025142,-0.00016596,-0.00038443,-6.5251e-05,-0.00061204,-3.6442e-05,0.050614,-0.015186,-0.015754,-0.0003393,-0.0031826,-0.0001895,0,0,0,0.025144,0.00035551,-0.00090817,0.013026,0.0081972,0.025448,8.3842e-07,0.7,0.85,0.65
0.03709,-0.0054308,-0.0021105,0.025335,-3.6905e-05,-0.00020595,-0.00015798,-0.0002669,-6.8018e-05,0.050815,-0.015151,-0.015591,-0.00082148,-0.0013879,-0.00035369,0,0,0,0.025337,0.00020892,-0.0004544,0.012896,0.0083639,0.025469,8.4587e-07,0.75,0.85,0.65
0.039637,-0.0056208,-0.0022425,0.025566,6.4749e-05,-3.8447e-05,-0.00016436,7.1775e-05,-4.8795e-05,0.051116,-0.015187,-0.015455,-0.00085468,0.00037323,-0.00025373,0,0,0,0.025568,0.00022678,-0.00020269,0.012885,0.0085307,0.02556,8.5665e-07,0.8,0.85,0.65
0.042202,-0.0057885,-0.0023553,0.025782,8.5868e-05,4.6493e-05,-0.00011456,0.0003252,-4.6985e-06,0.051485,-0.015326,-0.015428,-0.00059569,0.0016911,-2.4433e-05,0,0,0,0.025784,0.00040092,-0.00027006,0.013027,0.0086382,0.025726,8.7232e-07,0.85,0.85,0.65
0.044786,-0.0059135,-0.0024359,0.02596,4.6306e-05,5.6542e-05,-5.6138e-05,0.00047677,2.6405e-05,0.051858,-0.015517,-0.015491,-0.00029192,0.0024792,0.0001373,0,0,0,0.025961,0.00053674,-0.00043468,0.013198,0.0086876,0.025924,8.9084e-07,0.9,0.85,0.65
0.047388,-0.0059886,-0.0024823,0.02608,-4.1559e-06,3.6287e-05,-4.1604e-05,0.00054671,1.1561e-05,0.052141,-0.015678,-0.015573,-0.00021634,0.0028429,6.0116e-05,0,0,0,0.02608,0.00057239,-0.00054068,0.013311,0.008704,0.026083,9.0627e-07,0.95,0.85,0.65
0.048692,-0.0060133,-0.0024973,0.026123,-2.5438e-05,2.5002e-05,-5.2982e-05,0.00056569,-1.1509e-05,0.052246,-0.01574,-0.015608,-0.00027551,0.0029416,-5.9844e-05,0,0,0,0.026123,0.00057541,-0.00057621,0.01335,0.0087074,0.026143,9.1227e-07,1,0.85,0.65
0.0010069,-0.00077449,-0.0002204,0.026454,0.0086114,0.009805,-0.005381,3.8757e-05,-0.0016722,0.041859,-0.0045328,-0.0014293,-0.027981,0.00020154,-0.0086952,0,0,0,0.028177,0.0097477,0.0069462,0.010615,0.014957,0.019992,3.8846e-07,0,0.9,0.65
0.0020929,-0.0015189,-0.00043346,0.026358,0.006474,0.0084346,-0.0047343,7.7556e-05,-0.0016243,0.043771,-0.0079277,-0.0028302,-0.024618,0.00040329,-0.0084462,0,0,0,0.02768,0.0083494,0.0052376,0.011221,0.013756,0.021074,4.5335e-07,0.05,0.9,0.65
0.0043771,-0.0028947,-0.00084105,0.026499,0.0033758,0.0061977,-0.0034032,0.00015371,-0.0014881,0.047254,-0.012866,-0.0055293,-0.017697,0.0007993,-0.0077383,0,0,0,0.027173,0.006095,0.0028041,0.012185,0.012024,0.022912,5.7968e-07,0.1,0.9,0.65
0.0068183,-0.0039998,-0.0012045,0.02667,0.0019082,0.0045996,-0.0021735,0.00022464,-0.0012862,0.049435,-0.014945,-0.0079476,-0.011302,0.0011681,-0.0066881,0,0,0,0.026977,0.0045294,0.0016716,0.012652,0.011059,0.02401,6.7752e-07,0.15,0.9,0.65
0.0093206,-0.0048121,-0.0015117,0.026462,0.0011236,0.003291,-0.0012671,0.00028587,-0.0010454,0.050274,-0.015604,-0.0099691,-0.006589,0.0014865,-0.0054359,0,0,0,0.026593,0.0032712,0.001012,0.01279,0.010292,0.024533,7.3651e-07,0.2,0.9,0.65
0.011846,-0.0053813,-0.0017546,0.026187,0.0006972,0.0022897,-0.00066996,0.00033117,-0.00078893,0.050581,-0.015691,-0.011551,-0.0034838,0.0017221,-0.0041024,0,0,0,0.026241,0.0023278,0.00060522,0.012818,0.0097245,0.024821,7.7274e-07,0.25,0.9,0.65
0.014379,-0.0057555,-0.0019294,0.025944,0.00047258,0.0015662,-0.00026837,0.00034854,-0.000535,0.050664,-0.015561,-0.012717,-0.0013955,0.0018124,-0.002782,0,0,0,0.025964,0.0016588,0.00035986,0.012802,0.0093274,0.024981,7.9361e-07,0.3,0.9,0.65
0.016912,-0.0059716,-0.0020368,0.025743,0.00035576,0.001059,2.369e-05,0.00031837,-0.00029527,0.050638,-0.01537,-0.013541,0.00012319,0.0016555,-0.0015354,0,0,0,0.02575,0.0011802,0.00022761,0.012761,0.0090527,0.025061,8.0457e-07,0.35,0.9,0.65
0.019442,-0.0060595,-0.0020816,0.025585,0.00027841,0.00069769,0.00024799,0.00021777,-8.1378e-05,0.050583,-0.015213,-0.014122,0.0012895,0.0011324,-0.00042317,0,0,0,0.025589,0.00079172,0.00017944,0.012705,0.0088536,0.025111,8.1149e-07,0.4,0.9,0.65
0.02197,-0.0060506,-0.0020744,0.025468,0.00018882,0.00041742,0.0004048,3.4624e-05,8.7663e-05,0.050573,-0.015154,-0.014559,0.002105,0.00018004,0.00045585,0,0,0,0.025476,0.00049421,0.00010401,0.012686,0.0086915,0.02518,8.1928e-07,0.45,0.9,0.65
0.0245,-0.0059836,-0.0020338,0.025393,6.1648e-05,0.00017828,0.0004686,-0.00021333,0.00018639,0.050643,-0.01522,-0.014916,0.0024367,-0.0011093,0.00096921,0,0,0,0.025404,0.00038267,-0.0001533,0.012779,0.0085444,0.025295,8.2962e-07,0.5,0.9,0.65
0.027035,-0.0059071,-0.0019864,0.025353,-8.3685e-05,-2.0906e-05,0.00041571,-0.0004638,0.00019614,0.050768,-0.015366,-0.015203,0.0021617,-0.0024118,0.0010199,0,0,0,0.025362,0.00042041,-0.00053388,0.012948,0.008416,0.025435,8.4031e-07,0.55,0.9,0.65
0.029577,-0.00587,-0.0019608,0.025339,-0.00018823,-0.00015539,0.00025749,-0.00062429,0.00012472,0.050884,-0.015486,-0.015401,0.0013389,-0.0032463,0.00064854,0,0,0,0.025343,0.0004621,-0.00081006,0.013077,0.0083317,0.025543,8.4814e-07,0.6,0.9,0.65
0.032123,-0.005906,-0.0019766,0.025345,-0.0002041,-0.00020886,5.1507e-05,-0.00062537,1.1765e-05,0.050937,-0.01549,-0.015502,0.00026783,-0.0032519,6.1179e-05,0,0,0,0.025346,0.00042813,-0.0008424,0.013094,0.0083106,0.02558,8.5177e-07,0.65,0.9,0.65
0.03467,-0.0060204,-0.0020373,0.025367,-0.00013341,-0.00019088,-0.00012542,-0.00046586,-8.9852e-05,0.050928,-0.015372,-0.015522,-0.00065216,-0.0024225,-0.00046723,0,0,0,0.025368,0.00031184,-0.00063772,0.013003,0.0083475,0.025548,8.5159e-07,0.7,0.9,0.65
0.037216,-0.0061901,-0.0021297,0.025404,-2.8054e-05,-0.0001375,-0.00021849,-0.00021268,-0.000142,0.050908,-0.015216,-0.015501,-0.0011362,-0.0011059,-0.00073839,0,0,0,0.025407,0.00017557,-0.00034405,0.012876,0.0084129,0.025497,8.4966e-07,0.75,0.9,0.65
0.039761,-0.0063776,-0.0022319,0.025456,4.8896e-05,-9.5471e-05,-0.000222,4.4301e-05,-0.00013931,0.050941,-0.015119,-0.015494,-0.0011544,0.00023036,-0.0007244,0,0,0,0.025459,0.00015084,-0.00020042,0.01283,0.0084699,0.025487,8.496e-07,0.8,0.9,0.65
0.04231,-0.0065484,-0.0023242,0.02552,7.1315e-05,-9.0163e-05,-0.00016899,0.00024473,-0.00010292,0.051052,-0.015115,-0.015535,-0.00087876,0.0012726,-0.0005352,0,0,0,0.025522,0.00025808,-0.00027888,0.0129,0.0085004,0.025538,8.5393e-07,0.85,0.9,0.65
0.044866,-0.0066796,-0.0023942,0.025584,5.2613e-05,-0.00011443,-0.00010083,0.00037145,-5.9489e-05,0.051206,-0.015177,-0.015611,-0.0005243,0.0019315,-0.00030934,0,0,0,0.025585,0.00035925,-0.00042194,0.013004,0.0085075,0.025626,8.6163e-07,0.9,0.9,0.65
0.047431,-0.0067604,-0.0024367,0.025632,2.3179e-05,-0.00014384,-6.9737e-05,0.00043522,-3.8567e-05,0.051337,-0.015247,-0.015681,-0.00036263,0.0022631,-0.00020055,0,0,0,0.025633,0.00039396,-0.00051502,0.013074,0.0085039,0.025706,8.6891e-07,0.95,0.9,0.65
0.048715,-0.0067875,-0.0024509,0.02565,1.004e-05,-0.00015636,-7.1701e-05,0.00045385,-3.8112e-05,0.051388,-0.015276,-0.015709,-0.00037284,0.00236,-0.00019818,0,0,0,0.025651,0.00039988,-0.00054656,0.013099,0.0085013,0.025738,8.7189e-07,1,0.9,0.65
0.0012006,-0.0010623,-0.00022319,0.03006,0.0085849,0.010873,-0.0064615,2.2848e-05,-0.0016953,0.048445,-0.0073897,-0.0014409,-0.0336,0.00011881,-0.0088157,0,0,0,0.032206,0.010813,0.0064989,0.012853,0.016506,0.023869,6.7461e-07,0,0.95,0.65
0.0024222,-0.0019957,-0.00043847,0.028709,0.0055703,0.0088581,-0.0050492,4.869e-05,-0.0016458,0.04876,-0.011399,-0.0028512,-0.026256,0.00025319,-0.008558,0,0,0,0.030145,0.0087702,0.0042218,0.012962,0.014379,0.023995,6.5346e-07,0.05,0.95,0.65
0.004876,-0.0036163,-0.00084953,0.02685,0.0019222,0.0058481,-0.0027782,0.00010166,-0.0015004,0.049038,-0.015775,-0.0055671,-0.014447,0.00052865,-0.0078023,0,0,0,0.027353,0.005743,0.0015241,0.012915,0.01154,0.024014,6.3975e-07,0.1,0.95,0.65
0.007326,-0.0047878,-0.0012146,0.025909,0.00093499,0.0040533,-0.0014543,0.00015212,-0.0012785,0.048824,-0.016107,-0.0079996,-0.0075621,0.00079101,-0.006648,0,0,0,0.026106,0.0039787,0.00081186,0.012647,0.010299,0.023878,6.5779e-07,0.15,0.95,0.65
0.0097585,-0.0056077,-0.0015212,0.025259,0.00043273,0.0026902,-0.00073299,0.00019376,-0.0010089,0.048645,-0.015904,-0.010035,-0.0038115,0.0010076,-0.0052461,0,0,0,0.025342,0.0026575,0.00038291,0.012479,0.0094607,0.023909,6.8135e-07,0.2,0.95,0.65
0.012191,-0.0061678,-0.0017611,0.024947,0.00021689,0.001734,-0.00032577,0.00022275,-0.00071858,0.048723,-0.015575,-0.01163,-0.001694,0.0011583,-0.0037366,0,0,0,0.02498,0.0017449,0.00017239,0.012404,0.0089659,0.024064,7.0654e-07,0.25,0.95,0.65
0.014631,-0.0065295,-0.0019312,0.024824,0.00012471,0.0010801,-7.3145e-05,0.00023134,-0.00043218,0.048926,-0.015293,-0.012809,-0.00038035,0.001203,-0.0022473,0,0,0,0.024836,0.0011294,6.3665e-05,0.012386,0.0086764,0.024259,7.295e-07,0.3,0.95,0.65
0.017083,-0.0067348,-0.0020338,0.024822,9.2841e-05,0.00065434,0.00010587,0.00020741,-0.00016947,0.049195,-0.0151,-0.01364,0.00055052,0.0010786,-0.00088122,0,0,0,0.024826,0.00072371,1.9552e-05,0.012403,0.008523,0.024463,7.5049e-07,0.35,0.95,0.65
0.01955,-0.0068163,-0.0020761,0.024909,8.038e-05,0.00039127,0.00024294,0.00013784,5.0795e-05,0.049534,-0.015019,-0.014211,0.0012633,0.00071679,0.00026413,0,0,0,0.024913,0.00044461,2.2863e-05,0.012445,0.0084601,0.024683,7.7195e-07,0.4,0.95,0.65
0.022037,-0.0068068,-0.0020713,0.025067,5.8268e-05,0.00023377,0.0003364,1.7359e-05,0.00020701,0.049958,-0.015064,-0.014607,0.0017493,9.0267e-05,0.0010764,0,0,0,0.025074,0.00027664,7.8899e-06,0.012533,0.0084528,0.024933,7.9602e-07,0.45,0.95,0.65
0.024546,-0.0067454,-0.0020386,0.025267,1.125e-05,0.00013638,0.00036534,-0.00013947,0.00027746,0.050445,-0.015219,-0.014894,0.0018998,-0.00072524,0.0014428,0,0,0,0.025276,0.00025259,-0.00011425,0.012695,0.0084714,0.02521,8.2221e-07,0.5,0.95,0.65
0.027081,-0.0066777,-0.0020015,0.025463,-5.1173e-05,7.0519e-05,0.00031204,-0.00029241,0.00025209,0.050914,-0.015422,-0.015106,0.0016226,-0.0015205,0.0013108,0,0,0,0.02547,0.00031805,-0.00030598,0.012888,0.008494,0.025471,8.4669e-07,0.55,0.95,0.65
0.029637,-0.0066475,-0.001983,0.025603,-9.7635e-05,2.3561e-05,0.00018545,-0.00038822,0.00014566,0.051251,-0.015571,-0.015256,0.00096435,-0.0020188,0.00075743,0,0,0,0.025607,0.00036684,-0.00044423,0.013025,0.0085097,0.025657,8.6407e-07,0.6,0.95,0.65
0.032206,-0.0066839,-0.0019986,0.025653,-0.00010095,-1.071e-05,2.6768e-05,-0.00038888,-7.6723e-07,0.051372,-0.015587,-0.015352,0.00013919,-0.0020222,-3.9895e-06,0,0,0,0.025654,0.00034623,-0.00045901,0.013056,0.0085136,0.025721,8.7067e-07,0.65,0.95,0.65
0.034775,-0.0067919,-0.0020515,0.025608,-6.186e-05,-4.133e-05,-0.00010902,-0.00029371,-0.0001353,0.051279,-0.015464,-0.015411,-0.00056692,-0.0015273,-0.00070357,0,0,0,0.02561,0.00025142,-0.00035654,0.012983,0.0085017,0.02567,8.6673e-07,0.7,0.95,0.65
0.037334,-0.0069524,-0.0021326,0.025501,-8.9016e-06,-8.0756e-05,-0.00018234,-0.00013929,-0.00021842,0.051056,-0.01527,-0.015457,-0.00094815,-0.00072431,-0.0011358,0,0,0,0.025505,0.00013046,-0.0002238,0.012864,0.0084705,0.025554,8.5634e-07,0.75,0.95,0.65
0.03988,-0.0071326,-0.0022253,0.025377,2.5171e-05,-0.00013711,-0.00018742,2.2769e-05,-0.0002378,0.05082,-0.015093,-0.015515,-0.00097458,0.0001184,-0.0012366,0,0,0,0.025381,7.8241e-05,-0.00019431,0.012787,0.0084215,0.02544,8.4527e-07,0.8,0.95,0.65
0.042416,-0.0073001,-0.0023129,0.025272,2.8367e-05,-0.00020664,-0.00014738,0.00015361,-0.00020584,0.050652,-0.014983,-0.015594,-0.00076637,0.00079876,-0.0010704,0,0,0,0.025275,0.00011412,-0.00029545,0.012785,0.0083647,0.025369,8.3775e-07,0.85,0.95,0.65
0.044945,-0.0074312,-0.0023823,0.025205,1.0667e-05,-0.00027488,-9.2606e-05,0.00023924,-0.00014494,0.050569,-0.014937,-0.015679,-0.00048155,0.001244,-0.00075369,0,0,0,0.025207,0.00015815,-0.00042395,0.012815,0.0083137,0.025345,8.3475e-07,0.9,0.95,0.65
0.047473,-0.0075132,-0.0024262,0.025172,-9.9424e-06,-0.00032448,-6.928e-05,0.00028402,-8.7924e-05,0.050545,-0.014929,-0.015746,-0.00036026,0.0014769,-0.0004572,0,0,0,0.025173,0.00017211,-0.00050721,0.01284,0.0082793,0.025348,8.3457e-07,0.95,0.95,0.65
0.048736,-0.007541,-0.0024411,0.025163,-1.867e-05,-0.00034256,-7.3569e-05,0.00029749,-6.5727e-05,0.050543,-0.01493,-0.015772,-0.00038256,0.0015469,-0.00034178,0,0,0,0.025163,0.00017375,-0.00053545,0.012849,0.0082673,0.025352,8.3486e-07,1,0.95,0.65
0.0013616,-0.0012524,-0.00022603,0.033025,0.0089568,0.011869,-0.0071213,1.5498e-05,-0.0017204,0.053555,-0.0090233,-0.0014506,-0.037031,8.0591e-05,-0.0089462,0,0,0,0.035414,0.011808,0.0066302,0.014392,0.017951,0.026604,9.0487e-07,0,1,0.65
0.0026778,-0.0022894,-0.00044367,0.030532,0.0053252,0.0093224,-0.0051895,3.4797e-05,-0.0016713,0.052275,-0.013262,-0.0028693,-0.026985,0.00018095,-0.0086906,0,0,0,0.032021,0.0092318,0.0039263,0.014047,0.01506,0.025875,8.0072e-07,0.05,1,0.65
0.0052275,-0.0040214,-0.00085875,0.02691,0.0012052,0.0056343,-0.0023284,7.5381e-05,-0.0015225,0.049716,-0.017116,-0.0056005,-0.012108,0.00039198,-0.0079169,0,0,0,0.027305,0.0055253,0.00091969,0.013192,0.01125,0.024426,6.6171e-07,0.1,1,0.65
0.0076494,-0.0051972,-0.0012265,0.02518,0.00042467,0.0036587,-0.0010224,0.0001143,-0.0012899,0.04791,-0.016454,-0.0080453,-0.0053162,0.00059436,-0.0067075,0,0,0,0.025323,0.0035794,0.000361,0.012481,0.0097545,0.023528,6.267e-07,0.15,1,0.65
0.010018,-0.0060079,-0.0015345,0.02438,5.2004e-05,0.0022848,-0.00045895,0.00014541,-0.0010044,0.047358,-0.015895,-0.01009,-0.0023865,0.00075611,-0.0052227,0,0,0,0.024443,0.0022447,2.8565e-05,0.012207,0.0089056,0.023392,6.3804e-07,0.2,1,0.65
0.012385,-0.0065577,-0.0017739,0.02414,-5.3692e-05,0.0013809,-0.00016994,0.00016636,-0.00069458,0.047484,-0.01542,-0.01169,-0.00088368,0.00086508,-0.0036118,0,0,0,0.024167,0.0013787,-7.8525e-05,0.012123,0.0084892,0.023555,6.6329e-07,0.25,1,0.65
0.014767,-0.0069116,-0.0019419,0.024139,-7.6297e-05,0.00078369,-3.0291e-07,0.00017173,-0.00038807,0.047854,-0.015106,-0.01287,-1.5747e-06,0.00089297,-0.0020179,0,0,0,0.024149,0.00081287,-0.0001147,0.012132,0.0082822,0.023815,6.9087e-07,0.3,1,0.65
0.017171,-0.0071118,-0.0020409,0.024276,-6.0374e-05,0.00041551,0.0001187,0.00015291,-0.00010832,0.048339,-0.014936,-0.013698,0.00061724,0.00079513,-0.00056327,0,0,0,0.024279,0.00046144,-0.0001093,0.012194,0.0082104,0.024109,7.1894e-07,0.35,1,0.65
0.019601,-0.0071914,-0.0020792,0.024515,-3.3165e-05,0.00021441,0.00021042,0.00010091,0.00012183,0.048922,-0.014904,-0.01426,0.0010942,0.00052475,0.00063351,0,0,0,0.024519,0.00025051,-7.3091e-05,0.012296,0.0082322,0.024432,7.4906e-07,0.4,1,0.65
0.022063,-0.0071832,-0.002071,0.024836,-1.2986e-05,0.00012666,0.00027199,1.2916e-05,0.00027763,0.049604,-0.015004,-0.014641,0.0014143,6.7163e-05,0.0014437,0,0,0,0.024843,0.0001554,-4.8797e-05,0.012446,0.0083166,0.024791,7.8267e-07,0.45,1,0.65
0.024561,-0.007126,-0.0020363,0.025198,-1.0983e-05,0.00010379,0.00028664,-9.9456e-05,0.00033685,0.050339,-0.015203,-0.014904,0.0014905,-0.00051717,0.0017516,0,0,0,0.025206,0.00018104,-9.6725e-05,0.012651,0.0084301,0.025165,8.1838e-07,0.5,1,0.65
0.027097,-0.0070634,-0.0019984,0.025531,-2.4391e-05,0.00010566,0.00024073,-0.00020742,0.00029185,0.051014,-0.015431,-0.015093,0.0012518,-0.0010786,0.0015176,0,0,0,0.025538,0.00026865,-0.00019379,0.012866,0.0085375,0.025504,8.5111e-07,0.55,1,0.65
0.029663,-0.0070369,-0.0019798,0.025761,-3.6945e-05,0.00010383,0.00014067,-0.00027456,0.00016111,0.051482,-0.015593,-0.015227,0.00073148,-0.0014277,0.00083777,0,0,0,0.025764,0.00032884,-0.00026476,0.013014,0.0086094,0.025738,8.7406e-07,0.6,1,0.65
0.032245,-0.0070737,-0.0019951,0.025836,-3.3282e-05,8.1211e-05,1.7313e-05,-0.00027523,-1.0905e-05,0.051643,-0.015617,-0.015319,9.003e-05,-0.0014312,-5.6707e-05,0,0,0,0.025837,0.00031676,-0.00026987,0.013053,0.0086279,0.025819,8.8238e-07,0.65,1,0.65
0.034827,-0.0071787,-0.0020476,0.025754,-1.3535e-05,2.9223e-05,-8.7865e-05,-0.00020899,-0.00016931,0.051499,-0.015497,-0.015386,-0.0004569,-0.0010867,-0.00088042,0,0,0,0.025756,0.00022872,-0.00021521,0.012986,0.0085899,0.025753,8.7625e-07,0.7,1,0.65
0.037395,-0.0073343,-0.0021288,0.025564,6.8001e-06,-5.2786e-05,-0.00014503,-0.00010047,-0.00027116,0.051155,-0.015293,-0.015448,-0.00075414,-0.00052245,-0.00141,0,0,0,0.025568,0.00011127,-0.00016146,0.012865,0.008506,0.025595,8.6081e-07,0.75,1,0.65
0.039942,-0.0075099,-0.002223,0.025338,1.1442e-05,-0.00015609,-0.00014978,1.5052e-05,-0.00030034,0.050764,-0.015087,-0.015522,-0.00077888,7.8272e-05,-0.0015618,0,0,0,0.025343,4.3968e-05,-0.00019349,0.012768,0.0083979,0.025419,8.4332e-07,0.8,1,0.65
0.042471,-0.0076742,-0.002313,0.025141,-2.8474e-06,-0.00026398,-0.00011916,0.00010985,-0.00026665,0.050441,-0.014932,-0.015611,-0.00061963,0.00057123,-0.0013866,0,0,0,0.025144,4.2235e-05,-0.00031289,0.012729,0.0082913,0.025282,8.2939e-07,0.85,1,0.65
0.044987,-0.0078038,-0.0023855,0.025003,-2.6862e-05,-0.00035721,-7.5995e-05,0.00017282,-0.00019267,0.050236,-0.014841,-0.0157,-0.00039518,0.00089867,-0.0010019,0,0,0,0.025005,5.3048e-05,-0.00043921,0.012722,0.0082062,0.025202,8.2105e-07,0.9,1,0.65
0.047495,-0.0078853,-0.0024318,0.024927,-4.7743e-05,-0.00041971,-6.217e-05,0.00020617,-0.00011498,0.050135,-0.0148,-0.015767,-0.00032328,0.0010721,-0.00059791,0,0,0,0.024928,5.2146e-05,-0.00052049,0.012724,0.0081532,0.025167,8.1736e-07,0.95,1,0.65
0.048748,-0.007913,-0.0024476,0.024904,-5.584e-05,-0.00044162,-7.0393e-05,0.00021628,-8.1256e-05,0.050106,-0.014789,-0.015792,-0.00036604,0.0011247,-0.00042253,0,0,0,0.024904,4.9983e-05,-0.000548,0.012726,0.0081355,0.025159,8.1644e-07,1,1,0.65
0.0013296,0.001207,-0.00027248,0.032273,0.0087398,0.011547,0.0068499,-7.4785e-06,-0.002062,0.052374,-0.0088124,-0.0015135,0.035619,-3.8888e-05,-0.010722,0,0,0,0.034607,0.011461,0.0064918,0.014058,0.01752,0.026015,8.4858e-07,0,0,0.7
0.0026187,0.0022028,-0.00053952,0.029885,0.0051948,0.0090235,0.0049727,-2.0476e-05,-0.0019935,0.051239,-0.012956,-0.0030009,0.025858,-0.00010648,-0.010366,0,0,0,0.031356,0.0088974,0.0038498,0.013753,0.014701,0.025382,7.6066e-07,0.05,0,0.7
0.0051239,0.0038604,-0.0010562,0.026463,0.0011814,0.0053628,0.0021873,-5.0173e-05,-0.0017926,0.049,-0.016733,-0.0058613,0.011374,-0.0002609,-0.0093214,0,0,0,0.026877,0.0052135,0.00091698,0.01298,0.011002,0.024119,6.451e-07,0.1,0,0.7
0.0075187,0.0049775,-0.0015266,0.024904,0.00043443,0.003404,0.000909,-7.8693e-05,-0.0014838,0.047506,-0.016116,-0.0083954,0.0047268,-0.00040921,-0.0077157,0,0,0,0.025064,0.0032978,0.00038146,0.012341,0.0095809,0.023371,6.209e-07,0.15,0,0.7
0.0098745,0.0057465,-0.0019316,0.024245,8.0016e-05,0.0020635,0.00035683,-9.6088e-05,-0.0011177,0.047203,-0.015625,-0.010468,0.0018555,-0.00049966,-0.0058119,0,0,0,0.024316,0.0020069,6.5557e-05,0.012125,0.008796,0.023347,6.3869e-07,0.2,0,0.7
0.012239,0.0062749,-0.0022618,0.024122,-2.3506e-05,0.0012012,8.0735e-05,-0.00010124,-0.00075149,0.047537,-0.015241,-0.012057,0.00041982,-0.00052647,-0.0039078,0,0,0,0.024151,0.0011834,-3.5202e-05,0.012093,0.0084332,0.023604,6.6998e-07,0.25,0,0.7
0.014628,0.0066326,-0.0025174,0.024213,-5.7611e-05,0.00063681,-6.3516e-05,-9.538e-05,-0.00042788,0.048078,-0.015025,-0.013219,-0.00033029,-0.00049598,-0.002225,0,0,0,0.024223,0.00064371,-7.4793e-05,0.012149,0.008264,0.023948,7.0384e-07,0.3,0,0.7
0.017047,0.0068673,-0.0027056,0.024399,-6.4071e-05,0.00027844,-0.00013963,-8.0696e-05,-0.00016895,0.04867,-0.014935,-0.014044,-0.00072606,-0.00041962,-0.00087855,0,0,0,0.024403,0.00030068,-8.9493e-05,0.012246,0.0082046,0.0243,7.3679e-07,0.35,0,0.7
0.019495,0.0070136,-0.0028373,0.024624,-6.2113e-05,6.0541e-05,-0.00017539,-5.989e-05,1.9524e-05,0.04925,-0.014935,-0.014616,-0.00091202,-0.00031143,0.00010153,0,0,0,0.024626,9.7146e-05,-0.0001006,0.012363,0.0082076,0.024629,7.6749e-07,0.4,0,0.7
0.021972,0.0070984,-0.0029248,0.024857,-5.8374e-05,-6.3082e-05,-0.00018417,-3.6065e-05,0.00014159,0.049788,-0.014993,-0.015006,-0.00095767,-0.00018754,0.00073629,0,0,0,0.02486,-6.595e-06,-0.00011737,0.012489,0.0082453,0.024922,7.9524e-07,0.45,0,0.7
0.024474,0.0071433,-0.00298,0.025077,-5.4939e-05,-0.00012633,-0.00017315,-1.2633e-05,0.00020636,0.050263,-0.01508,-0.015266,-0.0009004,-6.569e-05,0.0010731,0,0,0,0.02508,-4.4923e-05,-0.00013945,0.01261,0.0082986,0.025172,8.1936e-07,0.5,0,0.7
0.026998,0.0071656,-0.0030134,0.025266,-5.1627e-05,-0.00015415,-0.00014756,7.0029e-06,0.00022535,0.050656,-0.015171,-0.015437,-0.00076734,3.6415e-05,0.0011718,0,0,0,0.02527,-4.8751e-05,-0.00016005,0.012715,0.0083536,0.025374,8.3913e-07,0.55,0,0.7
0.02954,0.0071786,-0.0030338,0.025413,-4.7425e-05,-0.00016451,-0.00011264,2.0003e-05,0.00021115,0.050954,-0.015244,-0.015549,-0.00058571,0.00010402,0.001098,0,0,0,0.025416,-4.1871e-05,-0.00017245,0.012794,0.0084005,0.025523,8.5395e-07,0.6,0,0.7
0.032094,0.0071911,-0.0030475,0.025511,-4.1478e-05,-0.00016954,-7.4163e-05,2.4727e-05,0.00017635,0.051149,-0.015288,-0.015621,-0.00038565,0.00012858,0.00091704,0,0,0,0.025513,-3.4965e-05,-0.00017759,0.012845,0.0084334,0.025619,8.6359e-07,0.65,0,0.7
0.034655,0.0072083,-0.0030588,0.02556,-3.3712e-05,-0.00017635,-3.7954e-05,2.1146e-05,0.00013254,0.051247,-0.015298,-0.015669,-0.00019736,0.00010996,0.00068919,0,0,0,0.025561,-2.9152e-05,-0.00018174,0.012871,0.0084501,0.025667,8.6838e-07,0.7,0,0.7
0.037218,0.0072311,-0.0030698,0.025568,-2.4922e-05,-0.0001879,-8.8056e-06,1.0834e-05,8.9154e-05,0.051263,-0.015278,-0.015701,-4.5789e-05,5.6336e-05,0.0004636,0,0,0,0.025568,-2.3112e-05,-0.00019008,0.012879,0.0084516,0.025675,8.6918e-07,0.75,0,0.7
0.039781,0.0072578,-0.0030809,0.025546,-1.6369e-05,-0.00020385,1.0397e-05,-3.4898e-06,5.2718e-05,0.051223,-0.015238,-0.015725,5.4065e-05,-1.8147e-05,0.00027413,0,0,0,0.025546,-1.5557e-05,-0.0002048,0.012875,0.0084418,0.025656,8.6724e-07,0.8,0,0.7
0.042341,0.0072849,-0.0030916,0.025508,-9.2026e-06,-0.00022173,1.9003e-05,-1.8664e-05,2.6478e-05,0.051155,-0.01519,-0.015743,9.8817e-05,-9.7055e-05,0.00013769,0,0,0,0.025509,-6.9502e-06,-0.00022404,0.012866,0.0084258,0.025625,8.6398e-07,0.85,0,0.7
0.044896,0.007308,-0.0031005,0.02547,-4.07e-06,-0.00023806,1.8305e-05,-3.176e-05,1.0653e-05,0.051086,-0.015148,-0.015756,9.5185e-05,-0.00016515,5.5396e-05,0,0,0,0.02547,8.9639e-07,-0.00024305,0.012857,0.0084094,0.025592,8.6066e-07,0.9,0,0.7
0.047449,0.0073236,-0.0031065,0.025443,-1.0931e-06,-0.00024947,1.6382e-05,-4.0529e-05,9.7472e-07,0.051036,-0.015118,-0.015764,8.5184e-05,-0.00021075,5.0685e-06,0,0,0,0.025443,6.2418e-06,-0.00025683,0.01285,0.0083974,0.025569,8.5826e-07,0.95,0,0.7
0.048725,0.007329,-0.0031086,0.025433,-1.3126e-07,-0.00025357,1.6868e-05,-4.3604e-05,-3.2484e-06,0.051018,-0.015108,-0.015767,8.7716e-05,-0.00022674,-1.6892e-05,0,0,0,0.025433,8.1153e-06,-0.00026183,0.012847,0.008393,0.025561,8.574e-07,1,0,0.7
0.0011741,0.0010213,-0.00027064,0.02941,0.0083905,0.010586,0.0061957,-1.3919e-05,-0.0020448,0.047434,-0.0072165,-0.0015087,0.032218,-7.2381e-05,-0.010633,0,0,0,0.031508,0.010502,0.0063767,0.012565,0.016129,0.023365,6.3519e-07,0,0.05,0.7
0.0023717,0.0019159,-0.00053609,0.028121,0.0054442,0.0085736,0.0048199,-3.1982e-05,-0.0019746,0.04783,-0.011128,-0.0029917,0.025063,-0.00016631,-0.010268,0,0,0,0.029535,0.0084517,0.0041521,0.012691,0.014046,0.023548,6.2282e-07,0.05,0.05,0.7
0.004783,0.0034647,-0.0010499,0.026384,0.0018864,0.0055593,0.0026011,-7.0277e-05,-0.0017728,0.048301,-0.015393,-0.0058437,0.013526,-0.00036544,-0.0092186,0,0,0,0.026894,0.0054154,0.0015206,0.012687,0.011277,0.023684,6.2204e-07,0.1,0.05,0.7
0.0072018,0.0045773,-0.0015178,0.025562,0.0009344,0.0037636,0.001299,-0.00010514,-0.0014676,0.048304,-0.015726,-0.0083704,0.006755,-0.00054672,-0.0076313,0,0,0,0.025766,0.0036622,0.00083177,0.012467,0.010086,0.023655,6.4678e-07,0.15,0.05,0.7
0.0096135,0.0053542,-0.001921,0.025023,0.00044837,0.0024224,0.000588,-0.00012678,-0.0011082,0.048323,-0.01557,-0.010438,0.0030576,-0.00065926,-0.0057627,0,0,0,0.025106,0.0023711,0.0004162,0.012345,0.0092978,0.023779,6.7531e-07,0.2,0.05,0.7
0.012034,0.0058905,-0.0022502,0.024811,0.00022965,0.0014999,0.00019478,-0.00013316,-0.00075005,0.048584,-0.015327,-0.012024,0.0010128,-0.00069243,-0.0039003,0,0,0,0.024843,0.0014889,0.00020854,0.012317,0.0088468,0.024023,7.0604e-07,0.25,0.05,0.7
0.014472,0.0062536,-0.0025057,0.024778,0.00011787,0.00087504,-2.7073e-05,-0.0001252,-0.00043375,0.048961,-0.015156,-0.013188,-0.00014078,-0.00065103,-0.0022555,0,0,0,0.024789,0.00089028,9.1947e-05,0.012349,0.0085904,0.024309,7.359e-07,0.3,0.05,0.7
0.01693,0.0064908,-0.0026945,0.024845,5.6e-05,0.00046309,-0.00015173,-0.00010532,-0.00018027,0.049378,-0.015073,-0.014014,-0.00078897,-0.00054767,-0.00093739,0,0,0,0.024848,0.00049245,2.3094e-05,0.012413,0.0084546,0.024595,7.6377e-07,0.35,0.05,0.7
0.01941,0.0066376,-0.0028273,0.024963,1.668e-05,0.00019959,-0.00021594,-7.6883e-05,5.0146e-06,0.049797,-0.015064,-0.014589,-0.0011229,-0.00039979,2.6076e-05,0,0,0,0.024966,0.00023609,-2.2382e-05,0.012494,0.0083932,0.02486,7.893e-07,0.4,0.05,0.7
0.02191,0.0067214,-0.0029161,0.025106,-1.1821e-05,3.7604e-05,-0.00023863,-4.4027e-05,0.00012604,0.050196,-0.01511,-0.014981,-0.0012409,-0.00022894,0.00065541,0,0,0,0.025109,8.0378e-05,-5.7956e-05,0.012583,0.0083771,0.025098,8.1222e-07,0.45,0.05,0.7
0.024429,0.0067645,-0.0029726,0.02525,-3.3834e-05,-5.7239e-05,-0.00023049,-1.1527e-05,0.00019152,0.050555,-0.015183,-0.015244,-0.0011985,-5.9943e-05,0.00099588,0,0,0,0.025254,-1.1873e-06,-9.3799e-05,0.012674,0.0083863,0.025302,8.3209e-07,0.5,0.05,0.7
0.026965,0.0067849,-0.0030073,0.02538,-4.9688e-05,-0.00010996,-0.00019945,1.5709e-05,0.00021246,0.050857,-0.015262,-0.015418,-0.0010371,8.1685e-05,0.0011048,0,0,0,0.025384,-3.098e-05,-0.0001323,0.012758,0.0084069,0.025466,8.4829e-07,0.55,0.05,0.7
0.029515,0.0067963,-0.0030287,0.025484,-5.8093e-05,-0.00013842,-0.00015345,3.3509e-05,0.00020093,0.051085,-0.015323,-0.015532,-0.00079793,0.00017425,0.0010448,0,0,0,0.025486,-3.6402e-05,-0.00016285,0.012825,0.008429,0.025586,8.6031e-07,0.6,0.05,0.7
0.032074,0.006808,-0.0030434,0.025553,-5.8063e-05,-0.00015491,-0.0001012,3.9428e-05,0.00016913,0.051233,-0.015355,-0.015607,-0.00052625,0.00020502,0.00087946,0,0,0,0.025554,-3.6622e-05,-0.00017804,0.012866,0.0084465,0.025662,8.6792e-07,0.65,0.05,0.7
0.034638,0.0068251,-0.0030555,0.025586,-5.0179e-05,-0.00016722,-5.1378e-05,3.3405e-05,0.00012826,0.051303,-0.015352,-0.015656,-0.00026716,0.00017371,0.00066695,0,0,0,0.025587,-3.5759e-05,-0.0001825,0.012885,0.0084562,0.025696,8.7139e-07,0.7,0.05,0.7
0.037204,0.0068486,-0.0030671,0.025589,-3.6795e-05,-0.00017955,-1.1098e-05,1.776e-05,8.747e-05,0.051307,-0.015319,-0.01569,-5.771e-05,9.235e-05,0.00045484,0,0,0,0.025589,-3.1019e-05,-0.00018569,0.012887,0.0084574,0.025698,8.715e-07,0.75,0.05,0.7
0.039769,0.0068765,-0.0030787,0.025569,-2.1263e-05,-0.0001932,1.5378e-05,-3.514e-06,5.2991e-05,0.051267,-0.015268,-0.015715,7.9964e-05,-1.8273e-05,0.00027555,0,0,0,0.025569,-1.9147e-05,-0.00019547,0.012882,0.0084516,0.025677,8.6938e-07,0.8,0.05,0.7
0.042331,0.0069047,-0.0030896,0.025539,-6.7797e-06,-0.00020739,2.7082e-05,-2.5813e-05,2.7862e-05,0.051207,-0.015213,-0.015734,0.00014083,-0.00013423,0.00014488,0,0,0,0.025539,-1.8199e-06,-0.00021243,0.012876,0.0084416,0.025647,8.6625e-07,0.85,0.05,0.7
0.04489,0.006929,-0.0030987,0.025509,4.4471e-06,-0.00022006,2.5849e-05,-4.4924e-05,1.2239e-05,0.051147,-0.015164,-0.015748,0.00013441,-0.0002336,6.3645e-05,0,0,0,0.025509,1.5224e-05,-0.00023088,0.01287,0.008431,0.025618,8.6319e-07,0.9,0.05,0.7
0.047446,0.0069453,-0.0031047,0.025487,1.1361e-05,-0.00022888,2.1076e-05,-5.7663e-05,1.9866e-06,0.051104,-0.015132,-0.015757,0.00010959,-0.00029985,1.033e-05,0,0,0,0.025487,2.7044e-05,-0.00024459,0.012866,0.0084231,0.025597,8.6104e-07,0.95,0.05,0.7
0.048723,0.0069511,-0.0031068,0.025479,1.3674e-05,-0.00023204,1.9778e-05,-6.212e-05,-2.6888e-06,0.051089,-0.015121,-0.01576,0.00010284,-0.00032302,-1.3982e-05,0,0,0,0.025479,3.1208e-05,-0.0002496,0.012864,0.0084202,0.025589,8.6026e-07,1,0.05,0.7
0.00098587,0.00074023,-0.00026899,0.025898,0.0084278,0.0095446,0.0051275,-2.8114e-05,-0.0020295,0.041012,-0.0044099,-0.0015062,0.026663,-0.00014619,-0.010553,0,0,0,0.027586,0.0094678,0.0068161,0.010385,0.014623,0.019593,3.6811e-07,0,0.1,0.7
0.0020506,0.0014509,-0.00053309,0.025812,0.0063401,0.0081517,0.004489,-5.6924e-05,-0.001958,0.042929,-0.007698,-0.0029878,0.023343,-0.000296,-0.010182,0,0,0,0.027109,0.0080374,0.0051574,0.010976,0.013435,0.020677,4.3289e-07,0.05,0.1,0.7
0.0042929,0.002762,-0.0010445,0.025978,0.0033228,0.0058712,0.0031708,-0.00011266,-0.0017556,0.04644,-0.012464,-0.0058381,0.016488,-0.00058584,-0.0091294,0,0,0,0.026639,0.0057333,0.0027999,0.01192,0.011724,0.022528,5.5869e-07,0.1,0.1,0.7
0.0066946,0.0038105,-0.0015105,0.02619,0.0019022,0.0042457,0.0019463,-0.0001593,-0.0014538,0.04869,-0.014457,-0.0083637,0.010121,-0.00082837,-0.0075596,0,0,0,0.026483,0.0041495,0.001705,0.012389,0.010779,0.023659,6.5621e-07,0.15,0.1,0.7
0.0091619,0.0045784,-0.001912,0.026039,0.0011352,0.0029376,0.0010414,-0.00018868,-0.0011009,0.049634,-0.015115,-0.010429,0.0054151,-0.00098116,-0.0057248,0,0,0,0.026155,0.0028965,0.0010597,0.012548,0.010037,0.024234,7.1655e-07,0.2,0.1,0.7
0.011658,0.0051199,-0.0022399,0.025837,0.0006983,0.0019537,0.00045365,-0.0001973,-0.00075065,0.050083,-0.015278,-0.012014,0.002359,-0.001026,-0.0039034,0,0,0,0.025878,0.0019597,0.00065111,0.012614,0.0094964,0.024601,7.574e-07,0.25,0.1,0.7
0.01417,0.0054892,-0.0024946,0.025687,0.00043709,0.0012497,8.5044e-05,-0.00018522,-0.00044141,0.050361,-0.015288,-0.013175,0.00044223,-0.00096316,-0.0022953,0,0,0,0.025699,0.0012863,0.00038818,0.012655,0.0091245,0.024875,7.8724e-07,0.3,0.1,0.7
0.016694,0.0057303,-0.002683,0.025598,0.000269,0.00076028,-0.00014003,-0.00015489,-0.00019281,0.050578,-0.015277,-0.014,-0.00072816,-0.00080545,-0.0010026,0,0,0,0.025602,0.00080865,0.00021665,0.012693,0.0088757,0.025095,8.104e-07,0.35,0.1,0.7
0.019228,0.0058779,-0.0028155,0.025561,0.00015063,0.000427,-0.00026791,-0.00011065,-9.9145e-06,0.050775,-0.015291,-0.014573,-0.0013931,-0.00057536,-5.1555e-05,0,0,0,0.025564,0.00046986,0.00010423,0.01273,0.0087128,0.02528,8.2939e-07,0.4,0.1,0.7
0.021772,0.0059601,-0.002904,0.025562,6.0261e-05,0.00020415,-0.00032544,-5.8585e-05,0.00011069,0.050965,-0.015339,-0.014965,-0.0016923,-0.00030464,0.00057557,0,0,0,0.025567,0.00023177,2.7662e-05,0.01277,0.0086087,0.025438,8.4544e-07,0.45,0.1,0.7
0.024325,0.0060002,-0.0029604,0.025586,-1.089e-05,5.7895e-05,-0.00032909,-6.3953e-06,0.00017675,0.051143,-0.015408,-0.015229,-0.0017113,-3.3255e-05,0.00091909,0,0,0,0.025591,8.093e-05,-3.9618e-05,0.012815,0.0085442,0.025571,8.5886e-07,0.5,0.1,0.7
0.026886,0.0060173,-0.0029951,0.025618,-6.3769e-05,-3.6015e-05,-0.0002918,3.7546e-05,0.00019842,0.051295,-0.015477,-0.015404,-0.0015173,0.00019524,0.0010318,0,0,0,0.025623,7.7514e-06,-0.00011262,0.012868,0.008506,0.025676,8.694e-07,0.55,0.1,0.7
0.029454,0.0060261,-0.0030172,0.025646,-9.5904e-05,-9.4615e-05,-0.00022691,6.5842e-05,0.0001874,0.051407,-0.015523,-0.015519,-0.0011799,0.00034238,0.00097447,0,0,0,0.02565,-1.9846e-05,-0.00017427,0.012912,0.0084852,0.025747,8.7663e-07,0.6,0.1,0.7
0.032027,0.0060369,-0.0030331,0.025663,-0.00010557,-0.00012997,-0.00014934,7.4039e-05,0.00015602,0.051467,-0.015531,-0.015594,-0.00077657,0.000385,0.00081131,0,0,0,0.025665,-3.4244e-05,-0.00020332,0.012934,0.0084757,0.025784,8.8034e-07,0.65,0.1,0.7
0.034601,0.0060548,-0.0030471,0.025664,-9.4639e-05,-0.00015086,-7.3971e-05,6.1975e-05,0.00011598,0.051475,-0.015497,-0.015643,-0.00038465,0.00032227,0.0006031,0,0,0,0.025665,-4.5572e-05,-0.00020083,0.012933,0.0084728,0.025788,8.8079e-07,0.7,0.1,0.7
0.037174,0.0060806,-0.0030611,0.025651,-6.9051e-05,-0.00016372,-1.292e-05,3.3786e-05,7.6773e-05,0.051442,-0.015431,-0.015677,-6.7187e-05,0.00017568,0.00039922,0,0,0,0.025652,-4.7857e-05,-0.00018526,0.012918,0.0084728,0.025768,8.7875e-07,0.75,0.1,0.7
0.039745,0.0061115,-0.0030751,0.025629,-3.6978e-05,-0.00017285,2.6736e-05,-3.4684e-06,4.4584e-05,0.051385,-0.015348,-0.015701,0.00013903,-1.8036e-05,0.00023183,0,0,0,0.02563,-2.9866e-05,-0.00018013,0.012905,0.0084732,0.025735,8.7529e-07,0.8,0.1,0.7
0.042313,0.006143,-0.0030882,0.025604,-6.1307e-06,-0.00018044,4.3565e-05,-4.1839e-05,2.204e-05,0.051321,-0.015267,-0.01572,0.00022654,-0.00021756,0.00011461,0,0,0,0.025605,6.7532e-06,-0.00019344,0.012899,0.0084726,0.025699,8.715e-07,0.85,0.1,0.7
0.044877,0.00617,-0.003099,0.025582,1.8153e-05,-0.00018684,4.0681e-05,-7.4295e-05,8.7977e-06,0.051266,-0.015201,-0.015734,0.00021154,-0.00038633,4.5748e-05,0,0,0,0.025582,4.5173e-05,-0.00021395,0.012898,0.0084712,0.025668,8.6826e-07,0.9,0.1,0.7
0.047439,0.006188,-0.003106,0.025567,3.3236e-05,-0.00019133,3.0231e-05,-9.5728e-05,1.0617e-07,0.05123,-0.015159,-0.015743,0.0001572,-0.00049779,5.5209e-07,0,0,0,0.025568,7.1534e-05,-0.00022967,0.012899,0.0084698,0.025648,8.6613e-07,0.95,0.1,0.7
0.04872,0.0061944,-0.0031085,0.025562,3.8302e-05,-0.00019296,2.5532e-05,-0.00010319,-4.0906e-06,0.051217,-0.015145,-0.015746,0.00013277,-0.00053658,-2.1271e-05,0,0,0,0.025562,8.0734e-05,-0.00023542,0.012899,0.0084692,0.025641,8.6539e-07,1,0.1,0.7
0.00093864,0.00058027,-0.00027094,0.024938,0.008925,0.0094009,0.0042775,-4.1171e-05,-0.0020456,0.03888,-0.0027532,-0.0015157,0.022243,-0.00021409,-0.010637,0,0,0,0.026279,0.0093288,0.0076553,0.009312,0.014421,0.01785,2.8745e-07,0,0.15,0.7
0.001944,0.0011461,-0.00053689,0.025008,0.0073009,0.0081888,0.0039694,-7.9462e-05,-0.0019747,0.040722,-0.0053164,-0.0030077,0.020641,-0.0004132,-0.010269,0,0,0,0.026125,0.0080774,0.0062951,0.0099151,0.013499,0.019008,3.5077e-07,0.05,0.15,0.7
0.0040722,0.0022183,-0.0010517,0.025473,0.0046003,0.0060826,0.0031869,-0.00014952,-0.0017725,0.044535,-0.0097325,-0.0058785,0.016572,-0.0007775,-0.009217,0,0,0,0.026158,0.005943,0.0040547,0.011052,0.012052,0.02123,4.8597e-07,0.1,0.15,0.7
0.0063975,0.0031316,-0.0015202,0.026071,0.0028743,0.0044728,0.0022316,-0.00020418,-0.0014688,0.047734,-0.012578,-0.0084215,0.011604,-0.0010618,-0.0076378,0,0,0,0.026418,0.0043775,0.0026222,0.011898,0.011139,0.022976,6.1381e-07,0.15,0.15,0.7
0.0088456,0.0038426,-0.001923,0.026315,0.0018285,0.0031946,0.0013665,-0.00023851,-0.0011128,0.049616,-0.014049,-0.010497,0.0071061,-0.0012403,-0.0057868,0,0,0,0.026465,0.0031666,0.0017062,0.012379,0.010446,0.024066,7.0789e-07,0.2,0.15,0.7
0.011359,0.0043627,-0.0022509,0.026318,0.0011829,0.002209,0.00070746,-0.00024863,-0.00075871,0.0506,-0.01475,-0.012082,0.0036788,-0.0012929,-0.0039453,0,0,0,0.026372,0.0022402,0.001097,0.012638,0.0099032,0.024726,7.7097e-07,0.25,0.15,0.7
0.013906,0.0047248,-0.002504,0.026222,0.00076928,0.0014788,0.00024566,-0.00023334,-0.00044497,0.051096,-0.015082,-0.013237,0.0012774,-0.0012134,-0.0023139,0,0,0,0.026238,0.0015462,0.00068598,0.012776,0.0094901,0.025134,8.1231e-07,0.3,0.15,0.7
0.016469,0.0049632,-0.0026892,0.026107,0.00048937,0.00095268,-6.1902e-05,-0.00019407,-0.00019141,0.05135,-0.015257,-0.014053,-0.00032189,-0.0010092,-0.00099531,0,0,0,0.026112,0.0010282,0.00040977,0.012851,0.0091832,0.025399,8.3989e-07,0.35,0.15,0.7
0.019041,0.0051084,-0.0028173,0.026008,0.00028565,0.00057986,-0.00025266,-0.000135,-3.7967e-06,0.051497,-0.015381,-0.014616,-0.0013138,-0.00070201,-1.9743e-05,0,0,0,0.026012,0.00063712,0.0002249,0.012893,0.0089578,0.025583,8.5932e-07,0.4,0.15,0.7
0.021618,0.0051875,-0.0029007,0.025935,0.00012684,0.00031819,-0.00035207,-6.3492e-05,0.0001199,0.051603,-0.015498,-0.015001,-0.0018308,-0.00033016,0.00062349,0,0,0,0.025941,0.00034606,9.3277e-05,0.012924,0.0087934,0.025722,8.7391e-07,0.45,0.15,0.7
0.024201,0.0052237,-0.0029518,0.025887,-1.2269e-07,0.00013625,-0.00037742,9.8079e-06,0.0001859,0.051693,-0.015614,-0.01526,-0.0019626,5.1002e-05,0.0009667,0,0,0,0.025894,0.00015452,-2.5347e-05,0.01296,0.0086745,0.02583,8.8512e-07,0.5,0.15,0.7
0.026788,0.0052372,-0.0029823,0.025856,-9.5842e-05,1.2235e-05,-0.00034388,7.2198e-05,0.0002035,0.051763,-0.015713,-0.015432,-0.0017882,0.00037543,0.0010582,0,0,0,0.025863,5.5803e-05,-0.00014569,0.013004,0.0085909,0.025908,8.931e-07,0.55,0.15,0.7
0.029377,0.005244,-0.003002,0.025832,-0.00015514,-6.8511e-05,-0.00026902,0.0001118,0.00018494,0.051799,-0.015768,-0.015543,-0.0013989,0.00058136,0.00096169,0,0,0,0.025837,1.1082e-05,-0.00023905,0.013038,0.0085362,0.025952,8.9746e-07,0.6,0.15,0.7
0.031968,0.0052549,-0.0030181,0.025807,-0.00017441,-0.00011666,-0.00017383,0.00012121,0.0001446,0.051788,-0.015763,-0.015613,-0.00090392,0.00063027,0.00075191,0,0,0,0.025809,-1.7627e-05,-0.00027567,0.013042,0.0085052,0.025957,8.9797e-07,0.65,0.15,0.7
0.034556,0.0052754,-0.0030348,0.025776,-0.00015701,-0.00014142,-7.9858e-05,0.00010007,9.6865e-05,0.051732,-0.015695,-0.015655,-0.00041526,0.00052036,0.0005037,0,0,0,0.025777,-4.3666e-05,-0.0002556,0.013016,0.0084927,0.025928,8.9504e-07,0.7,0.15,0.7
0.037141,0.0053056,-0.0030533,0.025742,-0.00011396,-0.00015146,-4.4688e-06,5.5153e-05,5.3398e-05,0.051643,-0.015582,-0.01568,-2.3238e-05,0.00028679,0.00027767,0,0,0,0.025742,-6.0167e-05,-0.00020552,0.012974,0.0084922,0.025876,8.8975e-07,0.75,0.15,0.7
0.03972,0.0053417,-0.0030728,0.025708,-6.0197e-05,-0.00015422,4.2765e-05,-2.2227e-06,2.1167e-05,0.051544,-0.015452,-0.015697,0.00022238,-1.1558e-05,0.00011007,0,0,0,0.025708,-4.2022e-05,-0.00017257,0.01294,0.0084977,0.025815,8.8355e-07,0.8,0.15,0.7
0.042295,0.0053781,-0.0030913,0.025677,-9.2975e-06,-0.00015474,6.065e-05,-5.9844e-05,2.1879e-06,0.051453,-0.015332,-0.01571,0.00031538,-0.00031119,1.1377e-05,0,0,0,0.025677,1.6708e-05,-0.00018093,0.012929,0.0085044,0.02576,8.7778e-07,0.85,0.15,0.7
0.044866,0.0054089,-0.0031064,0.025655,3.0002e-05,-0.00015533,5.4144e-05,-0.00010756,-5.2162e-06,0.051384,-0.01524,-0.015721,0.00028155,-0.00055933,-2.7124e-05,0,0,0,0.025655,8.209e-05,-0.00020756,0.012931,0.0085098,0.025719,8.7334e-07,0.9,0.15,0.7
0.047434,0.0054294,-0.0031163,0.025641,5.3985e-05,-0.00015615,3.827e-05,-0.00013858,-8.0004e-06,0.051343,-0.015183,-0.015729,0.000199,-0.00072062,-4.1602e-05,0,0,0,0.025641,0.00012549,-0.00022772,0.012934,0.0085129,0.025694,8.7063e-07,0.95,0.15,0.7
0.048717,0.0054366,-0.0031197,0.025636,6.1953e-05,-0.00015654,3.0846e-05,-0.00014929,-9.5931e-06,0.051329,-0.015164,-0.015732,0.0001604,-0.00077628,-4.9884e-05,0,0,0,0.025636,0.00014036,-0.00023499,0.012936,0.0085139,0.025686,8.6973e-07,1,0.15,0.7
0.00091797,0.00046491,-0.00027552,0.024485,0.0090944,0.0093078,0.0034791,-4.9456e-05,-0.0020819,0.037928,-0.0020866,-0.001532,0.018092,-0.00025717,-0.010826,0,0,0,0.02552,0.0092391,0.0081275,0.0086964,0.014296,0.016867,2.4575e-07,0,0.2,0.7
0.0018964,0.00091923,-0.00054553,0.02462,0.0077875,0.0082023,0.0033065,-9.3706e-05,-0.0020112,0.039645,-0.0041182,-0.0030396,0.017194,-0.00048727,-0.010458,0,0,0,0.025514,0.0080926,0.0070032,0.0092552,0.013537,0.017994,3.0305e-07,0.05,0.2,0.7
0.0039645,0.0017888,-0.0010675,0.025189,0.00549,0.0062336,0.0028298,-0.00017238,-0.001808,0.043343,-0.0078734,-0.0059399,0.014715,-0.00089635,-0.0094014,0,0,0,0.025792,0.0060941,0.0050263,0.010383,0.012304,0.020258,4.3115e-07,0.1,0.2,0.7
0.0062307,0.0025527,-0.0015413,0.025912,0.0037723,0.004652,0.0021646,-0.00023117,-0.0015007,0.046769,-0.010794,-0.0085063,0.011256,-0.0012021,-0.0078034,0,0,0,0.026254,0.0045668,0.0035147,0.01137,0.011445,0.022236,5.6533e-07,0.15,0.2,0.7
0.0086414,0.0031735,-0.0019472,0.026341,0.0025524,0.0033706,0.0014688,-0.00026809,-0.0011386,0.049129,-0.012722,-0.010595,0.0076378,-0.0013941,-0.0059205,0,0,0,0.026506,0.0033733,0.0023847,0.012061,0.010755,0.023645,6.7732e-07,0.2,0.2,0.7
0.011144,0.0036448,-0.0022757,0.026513,0.0017268,0.0023806,0.0008639,-0.00027959,-0.00077592,0.050561,-0.013883,-0.012182,0.0044923,-0.0014539,-0.0040348,0,0,0,0.026579,0.0024582,0.0015833,0.012498,0.010207,0.024571,7.5956e-07,0.25,0.2,0.7
0.013698,0.003981,-0.0025267,0.026514,0.0011631,0.0016378,0.0003912,-0.00026296,-0.0004519,0.051347,-0.014565,-0.01333,0.0020342,-0.0013674,-0.0023499,0,0,0,0.026534,0.0017557,0.0010251,0.012754,0.0097715,0.025152,8.1524e-07,0.3,0.2,0.7
0.016278,0.0042046,-0.002707,0.02643,0.0007637,0.0010913,4.6651e-05,-0.00021745,-0.00018714,0.051748,-0.014986,-0.014134,0.00024259,-0.0011307,-0.00097311,0,0,0,0.026435,0.001208,0.0006425,0.012896,0.0094285,0.025515,8.5178e-07,0.35,0.2,0.7
0.018872,0.0043398,-0.0028278,0.026321,0.00046354,0.00069228,-0.00018636,-0.00014551,1.1011e-05,0.051949,-0.015281,-0.014686,-0.00096906,-0.00075667,5.7256e-05,0,0,0,0.026324,0.00077115,0.00038194,0.012971,0.0091591,0.02575,8.7627e-07,0.4,0.2,0.7
0.021473,0.0044103,-0.0029021,0.026218,0.00022377,0.00040076,-0.00032235,-5.4575e-05,0.00014205,0.052062,-0.015524,-0.015064,-0.0016762,-0.00028379,0.00073866,0,0,0,0.026223,0.00043578,0.00018348,0.01302,0.0089476,0.025915,8.9363e-07,0.45,0.2,0.7
0.024078,0.0044387,-0.0029437,0.026133,2.7943e-05,0.00018806,-0.00037249,4.1872e-05,0.00020937,0.052136,-0.015737,-0.01532,-0.0019369,0.00021774,0.0010887,0,0,0,0.02614,0.0002202,-1.1327e-05,0.013076,0.0087829,0.026036,9.063e-07,0.5,0.2,0.7
0.026687,0.004446,-0.0029662,0.026064,-0.00012269,3.6408e-05,-0.00034937,0.0001255,0.00022063,0.05218,-0.015906,-0.015492,-0.0018167,0.00065261,0.0011473,0,0,0,0.026071,0.0001108,-0.00020373,0.013137,0.0086593,0.026119,9.1471e-07,0.55,0.2,0.7
0.029296,0.0044493,-0.0029811,0.026005,-0.00021797,-6.4308e-05,-0.0002721,0.00017783,0.00018905,0.052179,-0.016,-0.015601,-0.0014149,0.00092472,0.00098304,0,0,0,0.02601,5.456e-05,-0.00034129,0.013175,0.0085743,0.026155,9.1829e-07,0.6,0.2,0.7
0.031905,0.0044606,-0.0029967,0.025949,-0.00025072,-0.00012165,-0.00016698,0.00018684,0.00013278,0.052121,-0.015998,-0.015662,-0.00086829,0.00097157,0.00069046,0,0,0,0.025951,1.3001e-05,-0.00038747,0.013169,0.0085255,0.026141,9.1672e-07,0.65,0.2,0.7
0.034509,0.0044853,-0.0030172,0.025892,-0.00022601,-0.00014492,-6.2437e-05,0.00015191,7.123e-05,0.052007,-0.0159,-0.01569,-0.00032467,0.00078993,0.00037039,0,0,0,0.025893,-2.6508e-05,-0.00034508,0.013119,0.0085071,0.026081,9.1066e-07,0.7,0.2,0.7
0.037105,0.0045224,-0.0030429,0.025838,-0.00016212,-0.00014602,1.8894e-05,8.3931e-05,1.9965e-05,0.051861,-0.015739,-0.015698,9.8249e-05,0.00043644,0.00010382,0,0,0,0.025838,-6.0227e-05,-0.00024815,0.013043,0.00851,0.025993,9.0184e-07,0.75,0.2,0.7
0.039695,0.0045663,-0.0030712,0.025791,-8.3419e-05,-0.00013703,6.5816e-05,5.7353e-07,-1.2819e-05,0.051714,-0.015559,-0.015698,0.00034224,2.9824e-06,-6.6657e-05,0,0,0,0.025791,-4.7054e-05,-0.00017367,0.012982,0.0085234,0.025902,8.9244e-07,0.8,0.2,0.7
0.042277,0.0046098,-0.0030982,0.025755,-1.0845e-05,-0.00012685,7.8803e-05,-8.0268e-05,-2.6469e-05,0.051592,-0.015398,-0.0157,0.00040977,-0.00041739,-0.00013764,0,0,0,0.025755,3.5341e-05,-0.00017336,0.012964,0.008539,0.025825,8.8435e-07,0.85,0.2,0.7
0.044854,0.004646,-0.0031202,0.025731,4.348e-05,-0.00011974,6.5714e-05,-0.00014515,-2.5189e-05,0.051508,-0.01528,-0.015704,0.00034171,-0.00075479,-0.00013098,0,0,0,0.025731,0.00013139,-0.00020789,0.01297,0.0085516,0.025771,8.7856e-07,0.9,0.2,0.7
0.047428,0.0046697,-0.0031345,0.025719,7.5705e-05,-0.00011621,4.4668e-05,-0.00018631,-1.9547e-05,0.051462,-0.01521,-0.015709,0.00023227,-0.00096879,-0.00010164,0,0,0,0.025719,0.00019241,-0.00023303,0.012976,0.0085594,0.025742,8.7525e-07,0.95,0.2,0.7
0.048714,0.004678,-0.0031394,0.025715,8.6227e-05,-0.00011524,3.5423e-05,-0.00020032,-1.7562e-05,0.051447,-0.015187,-0.015711,0.0001842,-0.0010416,-9.1323e-05,0,0,0,0.025715,0.00021288,-0.00024195,0.012978,0.008562,0.025733,8.742e-07,1,0.2,0.7
0.00090933,0.00037161,-0.00028172,0.024286,0.0091978,0.0092706,0.0028018,-5.3714e-05,-0.0021306,0.037492,-0.0017385,-0.0015492,0.014569,-0.00027931,-0.011079,0,0,0,0.025094,0.0092132,0.0084473,0.0083235,0.014252,0.016279,2.2233e-07,0,0.25,0.7
0.0018746,0.00073428,-0.00055718,0.024438,0.0080717,0.0082162,0.002693,-0.00010104,-0.0020598,0.039103,-0.003449,-0.0030732,0.014004,-0.00052542,-0.010711,0,0,0,0.025148,0.0081231,0.0074546,0.0088467,0.013575,0.017371,2.7459e-07,0.05,0.25,0.7
0.0039103,0.001431,-0.0010887,0.025034,0.0060578,0.0063258,0.0023824,-0.00018424,-0.0018551,0.042638,-0.0067003,-0.0060036,0.012389,-0.00095806,-0.0096463,0,0,0,0.025538,0.0062172,0.0056628,0.0099375,0.012473,0.019606,3.9411e-07,0.1,0.25,0.7
0.0061384,0.0020523,-0.0015694,0.025802,0.0044466,0.0047783,0.0019238,-0.00024564,-0.0015444,0.04607,-0.0094552,-0.0085928,0.010004,-0.0012773,-0.008031,0,0,0,0.026109,0.0047491,0.0041689,0.01097,0.011676,0.021658,5.2625e-07,0.15,0.25,0.7
0.0085173,0.0025704,-0.0019796,0.026317,0.0031801,0.0035023,0.0014041,-0.0002852,-0.0011768,0.048624,-0.011531,-0.010694,0.0073012,-0.001483,-0.0061194,0,0,0,0.026478,0.0035864,0.0029351,0.011771,0.011,0.023225,6.4503e-07,0.2,0.25,0.7
0.011001,0.0029745,-0.0023093,0.026586,0.0022431,0.0025079,0.00090696,-0.00029956,-0.00080542,0.05032,-0.01297,-0.012281,0.0047162,-0.0015577,-0.0041882,0,0,0,0.026656,0.0026774,0.0020033,0.012326,0.010446,0.024323,7.3876e-07,0.25,0.25,0.7
0.013549,0.0032684,-0.0025581,0.026663,0.0015622,0.0017575,0.00048071,-0.00028414,-0.00046926,0.051334,-0.013928,-0.01342,0.0024997,-0.0014775,-0.0024401,0,0,0,0.026687,0.0019624,0.0013336,0.012677,0.0099942,0.025045,8.0578e-07,0.3,0.25,0.7
0.016134,0.0034646,-0.0027324,0.02662,0.0010582,0.001198,0.00014188,-0.00023491,-0.00018953,0.051887,-0.014575,-0.014211,0.00073778,-0.0012215,-0.00098554,0,0,0,0.026626,0.0013836,0.00086718,0.012879,0.0096255,0.025505,8.5114e-07,0.35,0.25,0.7
0.018738,0.0035803,-0.0028434,0.026521,0.00066708,0.00077895,-0.00010755,-0.0001509,2.4429e-05,0.052175,-0.015046,-0.014755,-0.00055925,-0.00078466,0.00012703,0,0,0,0.026524,0.00089658,0.00054733,0.012988,0.0093225,0.025804,8.8191e-07,0.4,0.25,0.7
0.021352,0.0036351,-0.002905,0.026409,0.00034615,0.00046003,-0.00026791,-3.8028e-05,0.00016828,0.052335,-0.015429,-0.015133,-0.0013932,-0.00019774,0.00087504,0,0,0,0.026414,0.00051479,0.00028689,0.013063,0.0090718,0.026014,9.0395e-07,0.45,0.25,0.7
0.023972,0.0036501,-0.002933,0.026306,7.7098e-05,0.00021499,-0.00033937,8.7468e-05,0.0002405,0.052437,-0.015758,-0.0154,-0.0017647,0.00045483,0.0012506,0,0,0,0.026313,0.00028249,2.8228e-06,0.013155,0.0088661,0.026172,9.2031e-07,0.5,0.25,0.7
0.026595,0.0036467,-0.0029435,0.026217,-0.00013509,3.2212e-05,-0.00032738,0.00019945,0.00024532,0.052496,-0.01602,-0.015585,-0.0017024,0.0010372,0.0012756,0,0,0,0.026223,0.00017019,-0.00027956,0.013252,0.0087047,0.026282,9.3132e-07,0.55,0.25,0.7
0.029221,0.003644,-0.002951,0.026137,-0.00027234,-9.0264e-05,-0.00024978,0.00026908,0.00019676,0.052492,-0.016173,-0.015699,-0.0012988,0.0013992,0.0010232,0,0,0,0.026141,0.00010593,-0.00047271,0.013307,0.0085916,0.02633,9.3591e-07,0.6,0.25,0.7
0.031845,0.0036552,-0.0029658,0.026061,-0.00032156,-0.00015406,-0.00013767,0.00027674,0.00011872,0.052408,-0.016187,-0.015752,-0.00071586,0.001439,0.00061736,0,0,0,0.026063,5.3569e-05,-0.00053093,0.013297,0.0085285,0.026307,9.3342e-07,0.65,0.25,0.7
0.034462,0.0036854,-0.0029922,0.025987,-0.00028947,-0.00016828,-2.7072e-05,0.00022139,3.8601e-05,0.052249,-0.01607,-0.015755,-0.00014077,0.0011512,0.00020072,0,0,0,0.025988,2.0106e-06,-0.00046026,0.013224,0.0085099,0.026221,9.2481e-07,0.7,0.25,0.7
0.03707,0.0037316,-0.0030286,0.02592,-0.00020385,-0.00015044,5.3849e-05,0.00012089,-2.2065e-05,0.052053,-0.01587,-0.015731,0.00028001,0.00062863,-0.00011474,0,0,0,0.025921,-4.8502e-05,-0.00030616,0.013113,0.0085221,0.0261,9.1273e-07,0.75,0.25,0.7
0.039667,0.0037858,-0.0030697,0.025867,-0.00010099,-0.00012048,9.3472e-05,2.9754e-06,-5.3892e-05,0.051868,-0.01565,-0.015701,0.00048605,1.5472e-05,-0.00028024,0,0,0,0.025868,-4.008e-05,-0.00018195,0.013025,0.0085487,0.02598,9.0046e-07,0.8,0.25,0.7
0.042256,0.0038382,-0.0031089,0.025833,-9.9405e-06,-9.3286e-05,9.6033e-05,-0.00010651,-5.925e-05,0.051727,-0.015463,-0.01568,0.00049937,-0.00055385,-0.0003081,0,0,0,0.025833,6.7913e-05,-0.00017169,0.013002,0.0085765,0.025886,8.9057e-07,0.85,0.25,0.7
0.04484,0.0038809,-0.0031405,0.025815,5.5027e-05,-7.5262e-05,7.3871e-05,-0.0001908,-4.6716e-05,0.051642,-0.015334,-0.015672,0.00038413,-0.00099214,-0.00024292,0,0,0,0.025815,0.00019507,-0.00021565,0.013015,0.0085982,0.025828,8.841e-07,0.9,0.25,0.7
0.047421,0.0039084,-0.0031607,0.025808,9.1841e-05,-6.6217e-05,4.8457e-05,-0.00024247,-3.1836e-05,0.051601,-0.015261,-0.015672,0.00025198,-0.0012608,-0.00016555,0,0,0,0.025808,0.00027182,-0.00024635,0.013027,0.0086112,0.0258,8.8075e-07,0.95,0.25,0.7
0.04871,0.0039178,-0.0031677,0.025807,0.00010351,-6.363e-05,3.8562e-05,-0.00025972,-2.6457e-05,0.05159,-0.015239,-0.015673,0.00020052,-0.0013505,-0.00013758,0,0,0,0.025807,0.00029691,-0.00025711,0.013032,0.0086155,0.025792,8.7976e-07,1,0.25,0.7
0.00090634,0.00029106,-0.00028878,0.024222,0.0092792,0.0092683,0.0022037,-5.4909e-05,-0.002186,0.037316,-0.0015358,-0.0015642,0.011459,-0.00028553,-0.011367,0,0,0,0.024865,0.0092363,0.0086684,0.0080982,0.014257,0.015921,2.0853e-07,0,0.3,0.7
0.0018658,0.00057433,-0.00057042,0.024377,0.0082606,0.0082403,0.0021324,-0.00010301,-0.0021152,0.038854,-0.0030494,-0.0031023,0.011088,-0.00053563,-0.010999,0,0,0,0.024948,0.0081979,0.0077327,0.0086075,0.013626,0.016989,2.5738e-07,0.05,0.3,0.7
0.0038854,0.0011187,-0.0011128,0.024976,0.0064293,0.0063925,0.0019256,-0.00018744,-0.0019101,0.042259,-0.0059625,-0.0060581,0.010013,-0.00097469,-0.0099325,0,0,0,0.025391,0.0063837,0.0060228,0.0096843,0.012599,0.019191,3.704e-07,0.1,0.3,0.7
0.0060917,0.0016072,-0.0016014,0.025756,0.0049187,0.0048698,0.0016125,-0.00025045,-0.0015984,0.045639,-0.008538,-0.0086653,0.0083852,-0.0013023,-0.0083119,0,0,0,0.02602,0.0049769,0.0045473,0.010736,0.011848,0.021262,4.9892e-07,0.15,0.3,0.7
0.0084493,0.0020204,-0.0020167,0.026308,0.0036618,0.0036043,0.0012416,-0.00029342,-0.0012285,0.048256,-0.010624,-0.010773,0.0064565,-0.0015258,-0.0063884,0,0,0,0.026455,0.0038365,0.0032825,0.011586,0.011191,0.022901,6.1932e-07,0.2,0.3,0.7
0.010917,0.0023479,-0.0023485,0.026626,0.0026734,0.002612,0.00086254,-0.00031297,-0.00085144,0.050081,-0.012196,-0.012356,0.0044852,-0.0016274,-0.0044275,0,0,0,0.026695,0.002921,0.0022949,0.0122,0.010637,0.024094,7.1866e-07,0.25,0.3,0.7
0.013457,0.0025882,-0.0025953,0.026747,0.0019176,0.0018591,0.00051152,-0.00030229,-0.00050456,0.051229,-0.013329,-0.013481,0.0026599,-0.0015719,-0.0026237,0,0,0,0.026773,0.0021853,0.0015653,0.012604,0.010175,0.024904,7.925e-07,0.3,0.3,0.7
0.01604,0.0027471,-0.002763,0.026731,0.0013368,0.0012916,0.00020869,-0.00025294,-0.00020849,0.051885,-0.01414,-0.014258,0.0010852,-0.0013153,-0.0010841,0,0,0,0.026738,0.0015735,0.0010482,0.012845,0.0097865,0.025431,8.4386e-07,0.35,0.3,0.7
0.018646,0.0028351,-0.0028622,0.026639,0.00087337,0.00085467,-3.4165e-05,-0.0001585,2.5847e-05,0.05224,-0.014749,-0.014798,-0.00017766,-0.00082419,0.0001344,0,0,0,0.026641,0.0010347,0.00069142,0.012975,0.0094555,0.02578,8.7948e-07,0.4,0.3,0.7
0.021264,0.0028673,-0.0029075,0.026519,0.00048333,0.00050492,-0.00020534,-2.1122e-05,0.00018919,0.052445,-0.015248,-0.015192,-0.0010678,-0.00010983,0.00098376,0,0,0,0.026523,0.00060332,0.00038111,0.013071,0.0091691,0.026032,9.0581e-07,0.45,0.3,0.7
0.02389,0.0028629,-0.002917,0.026402,0.00014727,0.00021821,-0.00029237,0.00014108,0.00027244,0.052585,-0.015678,-0.015493,-0.0015203,0.00073361,0.0014167,0,0,0,0.026409,0.00035329,5.8967e-06,0.013201,0.0089226,0.026231,9.2632e-07,0.5,0.3,0.7
0.026523,0.002844,-0.0029107,0.026299,-0.00012512,-7.2677e-06,-0.00029024,0.00029172,0.00027336,0.052677,-0.016025,-0.015719,-0.0015092,0.001517,0.0014215,0,0,0,0.026305,0.00023819,-0.00037676,0.013341,0.0087221,0.02638,9.4092e-07,0.55,0.3,0.7
0.029158,0.002832,-0.0029078,0.026206,-0.00030551,-0.0001589,-0.00021283,0.00038604,0.00020581,0.052691,-0.016239,-0.015858,-0.0011067,0.0020074,0.0010702,0,0,0,0.02621,0.00016624,-0.00063441,0.013422,0.0085806,0.026454,9.4763e-07,0.6,0.3,0.7
0.031792,0.0028419,-0.0029218,0.02612,-0.00037259,-0.00022731,-9.5523e-05,0.00039201,0.00010164,0.052599,-0.016281,-0.015903,-0.00049672,0.0020384,0.00052851,0,0,0,0.026121,0.00010308,-0.00070433,0.013413,0.0085066,0.026432,9.4522e-07,0.65,0.3,0.7
0.034418,0.0028783,-0.0029571,0.02604,-0.00033451,-0.00022111,1.7207e-05,0.00030806,1.9008e-08,0.052413,-0.01616,-0.015865,8.9476e-05,0.0016019,9.8859e-08,0,0,0,0.02604,3.806e-05,-0.00059417,0.013317,0.0084947,0.026325,9.3492e-07,0.7,0.3,0.7
0.037033,0.0029354,-0.0030092,0.025974,-0.0002302,-0.00016802,9.1668e-05,0.0001636,-6.916e-05,0.052186,-0.015944,-0.015782,0.00047667,0.00085072,-0.00035963,0,0,0,0.025974,-2.7286e-05,-0.00037166,0.013173,0.0085251,0.026176,9.2045e-07,0.75,0.3,0.7
0.039637,0.0030013,-0.0030684,0.025929,-0.00010931,-0.0001022,0.00011765,1.9616e-06,-9.6117e-05,0.051986,-0.015715,-0.015696,0.00061178,1.02e-05,-0.00049981,0,0,0,0.02593,-1.7185e-05,-0.0001953,0.013063,0.0085726,0.026037,9.064e-07,0.8,0.3,0.7
0.042232,0.0030634,-0.0031239,0.02591,-8.2761e-06,-4.8299e-05,0.00010563,-0.00014055,-8.9095e-05,0.051855,-0.015534,-0.015638,0.00054928,-0.00073085,-0.00046329,0,0,0,0.025911,0.00011909,-0.00017647,0.013044,0.0086179,0.025942,8.961e-07,0.85,0.3,0.7
0.044822,0.0031126,-0.0031679,0.02591,5.8699e-05,-1.4968e-05,7.3884e-05,-0.00024465,-6.3547e-05,0.051794,-0.01542,-0.015611,0.0003842,-0.0012722,-0.00033045,0,0,0,0.025911,0.00027385,-0.00023055,0.013071,0.0086514,0.025893,8.904e-07,0.9,0.3,0.7
0.047411,0.0031436,-0.0031956,0.025918,9.3783e-05,7.6791e-07,4.6946e-05,-0.00030565,-4.1143e-05,0.051779,-0.015364,-0.015605,0.00024412,-0.0015894,-0.00021394,0,0,0,0.025918,0.00036171,-0.00026733,0.013093,0.0086708,0.025877,8.8813e-07,0.95,0.3,0.7
0.048706,0.0031541,-0.003205,0.025922,0.00010431,5.0767e-06,3.8497e-05,-0.00032547,-3.4155e-05,0.051778,-0.015348,-0.015606,0.00020019,-0.0016925,-0.0001776,0,0,0,0.025922,0.00038941,-0.00028013,0.013101,0.0086771,0.025874,8.8762e-07,1,0.3,0.7
0.00090661,0.00021803,-0.00029609,0.024237,0.0093474,0.0092878,0.0016562,-5.3363e-05,-0.0022437,0.037293,-0.0014202,-0.0015752,0.0086121,-0.00027749,-0.011667,0,0,0,0.024764,0.009295,0.0088139,0.0079749,0.014291,0.015716,2.0073e-07,0,0.35,0.7
0.0018647,0.00042934,-0.00058412,0.024393,0.0083908,0.0082732,0.0016102,-0.00010003,-0.0021737,0.038787,-0.002818,-0.0031238,0.0083732,-0.00052014,-0.011303,0,0,0,0.024862,0.0083127,0.0078824,0.0084898,0.013686,0.01677,2.4756e-07,0.05,0.35,0.7
0.0038787,0.00083473,-0.0011377,0.024989,0.0066704,0.0064488,0.0014763,-0.00018231,-0.0019703,0.042106,-0.0055218,-0.0060978,0.0076769,-0.00094799,-0.010246,0,0,0,0.025335,0.0065919,0.0061808,0.0095772,0.012703,0.018953,3.5657e-07,0.1,0.35,0.7
0.0060753,0.0011985,-0.0016348,0.02577,0.0052326,0.0049431,0.0012721,-0.00024544,-0.0016615,0.045435,-0.0079629,-0.0087155,0.0066151,-0.0012763,-0.00864,0,0,0,0.025997,0.0052293,0.00472,0.010638,0.011982,0.021027,4.8235e-07,0.15,0.35,0.7
0.0084223,0.001508,-0.0020561,0.026337,0.0039985,0.0036898,0.0010243,-0.00029211,-0.0012948,0.048062,-0.010019,-0.010822,0.0053264,-0.001519,-0.0067331,0,0,0,0.026469,0.0040891,0.0034675,0.011501,0.011342,0.022698,6.0279e-07,0.2,0.35,0.7
0.010881,0.0017549,-0.0023907,0.026678,0.0029917,0.0027058,0.00075803,-0.00031897,-0.00091798,0.049938,-0.011647,-0.01239,0.0039418,-0.0016587,-0.0047735,0,0,0,0.026745,0.0031568,0.0024742,0.012135,0.010792,0.023937,7.0448e-07,0.25,0.35,0.7
0.013416,0.0019355,-0.0026364,0.026818,0.0021954,0.0019579,0.00049402,-0.00031702,-0.00056528,0.051144,-0.012875,-0.013492,0.0025689,-0.0016485,-0.0029394,0,0,0,0.026845,0.0024006,0.0017252,0.01256,0.010324,0.024789,7.8137e-07,0.3,0.35,0.7
0.015996,0.0020506,-0.0027975,0.026807,0.0015681,0.0013881,0.00024656,-0.00027262,-0.00025475,0.05184,-0.013781,-0.014249,0.0012821,-0.0014176,-0.0013247,0,0,0,0.026815,0.0017641,0.0011839,0.012816,0.0099211,0.025346,8.352e-07,0.35,0.35,0.7
0.0186,0.0021054,-0.0028834,0.026705,0.0010583,0.0009343,2.9082e-05,-0.00017197,2.4522e-06,0.052214,-0.014467,-0.014789,0.00015123,-0.00089422,1.2751e-05,0,0,0,0.026707,0.0011873,0.00080311,0.012952,0.0095658,0.025714,8.7267e-07,0.4,0.35,0.7
0.021217,0.0021103,-0.0029089,0.026564,0.00062105,0.00054573,-0.00013958,-1.0567e-05,0.00019194,0.052427,-0.015024,-0.015219,-0.00072584,-5.4948e-05,0.00099811,0,0,0,0.026567,0.00071296,0.00045055,0.013058,0.0092435,0.025987,9.0102e-07,0.45,0.35,0.7
0.023843,0.0020823,-0.0028942,0.026421,0.0002351,0.00019896,-0.00023548,0.0001939,0.00029441,0.052582,-0.015502,-0.015596,-0.0012245,0.0010083,0.001531,0,0,0,0.026427,0.00043789,-9.5627e-06,0.013218,0.0089518,0.026217,9.2429e-07,0.5,0.35,0.7
0.026475,0.0020442,-0.0028651,0.026296,-8.5142e-05,-9.1921e-05,-0.00024201,0.00039308,0.00029744,0.052697,-0.015892,-0.01591,-0.0012584,0.002044,0.0015467,0,0,0,0.026301,0.00031367,-0.00049649,0.013399,0.0087062,0.026404,9.4194e-07,0.55,0.35,0.7
0.029113,0.00202,-0.0028478,0.02619,-0.00030134,-0.00028786,-0.00016762,0.00051998,0.00021317,0.052733,-0.016144,-0.016109,-0.00087162,0.0027039,0.0011085,0,0,0,0.026193,0.00023426,-0.0008268,0.01351,0.0085335,0.026507,9.5092e-07,0.6,0.35,0.7
0.031749,0.0020271,-0.0028611,0.0261,-0.00038575,-0.00035994,-5.0512e-05,0.00052447,8.3044e-05,0.052648,-0.016216,-0.016149,-0.00026266,0.0027273,0.00043183,0,0,0,0.026101,0.00015941,-0.0009062,0.013504,0.0084515,0.026492,9.4933e-07,0.65,0.35,0.7
0.034377,0.0020693,-0.0029096,0.026029,-0.0003476,-0.00031588,5.79e-05,0.0004043,-3.8735e-05,0.052456,-0.016123,-0.016041,0.00030108,0.0021024,-0.00020142,0,0,0,0.02603,7.7819e-05,-0.00074196,0.013386,0.0084551,0.026373,9.3857e-07,0.7,0.35,0.7
0.036994,0.0021372,-0.0029839,0.025984,-0.00023441,-0.00020162,0.00011972,0.00020595,-0.0001121,0.05223,-0.015938,-0.015853,0.00062256,0.0010709,-0.0005829,0,0,0,0.025986,1.3323e-06,-0.00043854,0.013212,0.0085161,0.026208,9.2332e-07,0.75,0.35,0.7
0.0396,0.0022143,-0.0030675,0.025973,-0.00010796,-7.7269e-05,0.0001275,-5.3305e-06,-0.00012816,0.052057,-0.015753,-0.015673,0.00066302,-2.7719e-05,-0.00066641,0,0,0,0.025974,2.389e-05,-0.00021044,0.013092,0.0085958,0.026069,9.0949e-07,0.8,0.35,0.7
0.0422,0.0022849,-0.003144,0.025991,-1.0652e-05,1.639e-05,9.9591e-05,-0.00018091,-0.00010466,0.051978,-0.015626,-0.015555,0.00051787,-0.00094073,-0.00054421,0,0,0,0.025992,0.00019073,-0.0001859,0.013089,0.0086656,0.025992,9.0104e-07,0.85,0.35,0.7
0.044798,0.0023389,-0.003203,0.026026,4.6277e-05,6.9573e-05,6.0864e-05,-0.00030137,-6.6657e-05,0.051982,-0.015565,-0.015504,0.00031649,-0.0015671,-0.00034662,0,0,0,0.026026,0.00036561,-0.00025018,0.013138,0.0087139,0.025974,8.9825e-07,0.9,0.35,0.7
0.047398,0.002372,-0.0032392,0.026058,7.1646e-05,9.2221e-05,3.7538e-05,-0.00036795,-4.2306e-05,0.052018,-0.015547,-0.015493,0.0001952,-0.0019133,-0.00021999,0,0,0,0.026058,0.00045701,-0.00029331,0.013176,0.0087407,0.025985,8.9859e-07,0.95,0.35,0.7
0.048699,0.0023831,-0.0032514,0.026071,7.8272e-05,9.7859e-05,3.3457e-05,-0.00038879,-3.7691e-05,0.052037,-0.015545,-0.015494,0.00017398,-0.0020217,-0.00019599,0,0,0,0.026071,0.0004842,-0.00030819,0.01319,0.0087491,0.025993,8.9912e-07,1,0.35,0.7
0.00090886,0.00014904,-0.0003031,0.024301,0.0094041,0.0093206,0.0011359,-4.8814e-05,-0.0022996,0.037368,-0.0013648,-0.001582,0.0059067,-0.00025383,-0.011958,0,0,0,0.02475,0.0093684,0.0089075,0.0079213,0.014342,0.015618,1.9703e-07,0,0.4,0.7
0.0018684,0.00029253,-0.00059729,0.024457,0.0084786,0.0083124,0.0011094,-9.1509e-05,-0.0022313,0.03884,-0.0027045,-0.0031367,0.0057687,-0.00047585,-0.011603,0,0,0,0.024858,0.0084295,0.0079608,0.0084485,0.013749,0.016669,2.4298e-07,0.05,0.4,0.7
0.003884,0.00056655,-0.0011618,0.025053,0.0068164,0.0065004,0.0010317,-0.00016737,-0.0020324,0.042115,-0.0052991,-0.0061206,0.0053648,-0.00087032,-0.010569,0,0,0,0.025351,0.0067732,0.0062455,0.0095526,0.01279,0.018848,3.5028e-07,0.1,0.4,0.7
0.0060799,0.0008109,-0.0016673,0.025836,0.0054214,0.0050074,0.00091415,-0.00022782,-0.0017313,0.045416,-0.0076635,-0.0087399,0.0047536,-0.0011847,-0.0090029,0,0,0,0.026035,0.0054293,0.0048013,0.010617,0.012088,0.020927,4.7504e-07,0.15,0.4,0.7
0.0084255,0.0010184,-0.002095,0.026412,0.004205,0.0037677,0.00077027,-0.0002768,-0.0013746,0.048041,-0.009698,-0.010835,0.0040054,-0.0014393,-0.0071479,0,0,0,0.026532,0.0042785,0.0035747,0.011478,0.011462,0.022614,5.9574e-07,0.2,0.4,0.7
0.010884,0.0011831,-0.0024336,0.026762,0.0031925,0.0027982,0.00060854,-0.00031139,-0.0010064,0.04993,-0.011351,-0.012376,0.0031644,-0.0016192,-0.0052331,0,0,0,0.026827,0.0033307,0.0025958,0.012115,0.010918,0.023872,6.985e-07,0.25,0.4,0.7
0.013419,0.0013008,-0.0026794,0.026905,0.0023775,0.0020638,0.00043557,-0.0003211,-0.00065624,0.051145,-0.012626,-0.013442,0.002265,-0.0016697,-0.0034125,0,0,0,0.026934,0.002564,0.0018478,0.012543,0.010449,0.024736,7.7607e-07,0.3,0.4,0.7
0.015998,0.001369,-0.0028348,0.026882,0.001729,0.0014998,0.00025635,-0.00028733,-0.00033749,0.051827,-0.013571,-0.014167,0.001333,-0.0014941,-0.001755,0,0,0,0.026893,0.0019214,0.0012969,0.012798,0.010037,0.02529,8.2934e-07,0.35,0.4,0.7
0.018601,0.0013885,-0.0029069,0.026751,0.0012,0.0010309,8.0497e-05,-0.00018753,-5.9356e-05,0.052163,-0.014269,-0.014709,0.00041858,-0.00097518,-0.00030865,0,0,0,0.026754,0.0013307,0.00089706,0.012928,0.0096605,0.025643,8.6522e-07,0.4,0.4,0.7
0.021215,0.001365,-0.0029092,0.026565,0.00074342,0.00059347,-7.0909e-05,-8.5143e-06,0.00015914,0.052328,-0.014808,-0.015198,-0.00036873,-4.4274e-05,0.00082752,0,0,0,0.026568,0.00082941,0.00050464,0.013032,0.0093007,0.025903,8.9217e-07,0.45,0.4,0.7
0.023834,0.0013127,-0.0028646,0.026371,0.00033532,0.0001617,-0.00016699,0.00023487,0.00028857,0.052444,-0.015249,-0.015701,-0.00086836,0.0012213,0.0015005,0,0,0,0.026376,0.00052777,-3.5652e-05,0.013206,0.0089561,0.026136,9.1515e-07,0.5,0.4,0.7
0.026459,0.0012548,-0.0028058,0.026198,-8.1029e-06,-0.00022967,-0.00018186,0.0004834,0.00030439,0.052539,-0.015597,-0.016173,-0.00094566,0.0025137,0.0015829,0,0,0,0.026203,0.00038877,-0.00063162,0.013417,0.0086534,0.026342,9.3339e-07,0.55,0.4,0.7
0.029088,0.0012176,-0.0027695,0.026063,-0.00024386,-0.00049647,-0.00011729,0.00064515,0.00021391,0.052571,-0.015828,-0.016485,-0.00060991,0.0033548,0.0011123,0,0,0,0.026066,0.00030038,-0.0010436,0.013555,0.008441,0.026465,9.4326e-07,0.6,0.4,0.7
0.031716,0.0012203,-0.0027822,0.025975,-0.00034301,-0.00057203,-1.0994e-05,0.00064866,6.768e-05,0.0525,-0.015928,-0.016523,-5.7167e-05,0.003373,0.00035193,0,0,0,0.025976,0.00021335,-0.0011293,0.013553,0.0083535,0.026462,9.4288e-07,0.65,0.4,0.7
0.034338,0.001266,-0.0028489,0.025937,-0.00031565,-0.00046275,8.2913e-05,0.00049095,-6.458e-05,0.052342,-0.015916,-0.016299,0.00043115,0.002553,-0.00033582,0,0,0,0.025938,0.00011557,-0.0008948,0.013417,0.0083863,0.026345,9.3373e-07,0.7,0.4,0.7
0.03695,0.0013416,-0.002953,0.025948,-0.000212,-0.00025014,0.00012572,0.00023871,-0.00013281,0.052173,-0.015843,-0.015942,0.00065376,0.0012413,-0.00069063,0,0,0,0.025949,3.4738e-05,-0.0004983,0.013224,0.0084953,0.026187,9.205e-07,0.75,0.4,0.7
0.039555,0.001426,-0.0030676,0.026,-9.9702e-05,-3.8825e-05,0.00011443,-1.8066e-05,-0.00013196,0.052084,-0.015776,-0.015618,0.00059501,-9.3945e-05,-0.00068618,0,0,0,0.026002,8.1223e-05,-0.00022113,0.013111,0.0086206,0.026074,9.0982e-07,0.8,0.4,0.7
0.042159,0.0015009,-0.0031694,0.026082,-2.3474e-05,0.00010902,7.4068e-05,-0.00021933,-9.1273e-05,0.052113,-0.015762,-0.015417,0.00038516,-0.0011405,-0.00047462,0,0,0,0.026083,0.00027975,-0.00019502,0.013139,0.0087225,0.026045,9.0608e-07,0.85,0.4,0.7
0.044767,0.0015562,-0.0032451,0.02617,1.0214e-05,0.00018546,3.3979e-05,-0.00034793,-4.5691e-05,0.052222,-0.015793,-0.015337,0.00017669,-0.0018092,-0.00023759,0,0,0,0.02617,0.00046472,-0.0002694,0.01322,0.0087884,0.026081,9.0863e-07,0.9,0.4,0.7
0.047381,0.0015889,-0.0032905,0.026237,1.7947e-05,0.00021317,2.0125e-05,-0.00041369,-2.9716e-05,0.052334,-0.015834,-0.015326,0.00010465,-0.0021512,-0.00015452,0,0,0,0.026237,0.00054975,-0.00031879,0.013278,0.0088225,0.026132,9.1323e-07,0.95,0.4,0.7
0.04869,0.0015996,-0.0033054,0.026262,1.8136e-05,0.00021884,2.3056e-05,-0.00043316,-3.3801e-05,0.052381,-0.015852,-0.01533,0.00011989,-0.0022525,-0.00017576,0,0,0,0.026262,0.00057254,-0.0003357,0.013299,0.0088329,0.026155,9.1538e-07,1,0.4,0.7
0.00091223,8.1545e-05,-0.0003093,0.024393,0.0094488,0.0093601,0.00062486,-4.0768e-05,-0.0023496,0.0375,-0.001354,-0.0015845,0.0032493,-0.00021199,-0.012218,0,0,0,0.024797,0.0094342,0.0089703,0.0079133,0.0144,0.0156,1.9637e-07,0,0.45,0.7
0.001875,0.00015889,-0.00060892,0.02455,0.0085318,0.0083538,0.00061414,-7.6442e-05,-0.0022837,0.038968,-0.0026787,-0.0031414,0.0031935,-0.0003975,-0.011875,0,0,0,0.024911,0.0085144,0.0080099,0.0084506,0.013812,0.016655,2.4234e-07,0.05,0.45,0.7
0.0038968,0.00030482,-0.0011831,0.02515,0.0068879,0.0065478,0.00058272,-0.00014041,-0.0020918,0.042238,-0.0052425,-0.006127,0.0030301,-0.00073014,-0.010877,0,0,0,0.025419,0.0068807,0.0062852,0.0095671,0.012862,0.018844,3.4989e-07,0.1,0.45,0.7
0.0060988,0.00043213,-0.0016964,0.025941,0.0055087,0.0050651,0.00053739,-0.00019361,-0.0018027,0.045537,-0.0075861,-0.0087393,0.0027944,-0.0010068,-0.0093739,0,0,0,0.026123,0.005534,0.0048579,0.010632,0.012171,0.020936,4.7544e-07,0.15,0.45,0.7
0.0084506,0.00053822,-0.0021306,0.026526,0.0042979,0.0038406,0.00048314,-0.00024085,-0.0014625,0.048168,-0.0096239,-0.010813,0.0025123,-0.0012524,-0.007605,0,0,0,0.026639,0.0043689,0.0036566,0.011491,0.011555,0.022635,5.974e-07,0.2,0.45,0.7
0.010916,0.00061976,-0.0024739,0.026882,0.0032812,0.0028912,0.00041728,-0.00028023,-0.0011118,0.050061,-0.011302,-0.012316,0.0021699,-0.0014572,-0.0057816,0,0,0,0.026947,0.0034093,0.0026986,0.012124,0.011018,0.023901,7.0117e-07,0.25,0.45,0.7
0.013457,0.00067288,-0.0027214,0.027021,0.0024587,0.0021795,0.00033532,-0.00030123,-0.00077495,0.051259,-0.012603,-0.013329,0.0017437,-0.0015664,-0.0040298,0,0,0,0.027054,0.0026443,0.0019609,0.012547,0.010553,0.024759,7.7835e-07,0.3,0.45,0.7
0.016041,0.00069348,-0.0028726,0.026978,0.0018072,0.0016306,0.0002327,-0.00028213,-0.00045845,0.051894,-0.013551,-0.01401,0.0012101,-0.0014671,-0.0023839,0,0,0,0.026993,0.0020157,0.0014077,0.012792,0.010139,0.025287,8.2905e-07,0.35,0.45,0.7
0.018646,0.00067851,-0.0029314,0.026803,0.0012826,0.0011487,0.00011253,-0.00019236,-0.00016796,0.052146,-0.014206,-0.014554,0.00058517,-0.0010003,-0.00087338,0,0,0,0.026808,0.0014345,0.00099154,0.012908,0.0097446,0.025598,8.6061e-07,0.4,0.45,0.7
0.021256,0.00062948,-0.002909,0.026547,0.00083556,0.00065143,-5.479e-06,-8.4897e-06,7.3939e-05,0.052202,-0.014648,-0.015127,-2.849e-05,-4.4146e-05,0.00038448,0,0,0,0.02655,0.00092593,0.00055803,0.012996,0.0093446,0.025811,8.8246e-07,0.45,0.45,0.7
0.023866,0.00055738,-0.00283,0.026263,0.00043965,0.00010751,-8.8451e-05,0.00025744,0.00022636,0.052198,-0.014943,-0.015807,-0.00045994,0.0013387,0.0011771,0,0,0,0.026267,0.00060864,-6.5673e-05,0.013167,0.0089368,0.026005,9.0061e-07,0.5,0.45,0.7
0.026476,0.00048444,-0.0027355,0.026004,0.00010499,-0.00042196,-0.00010782,0.0005322,0.00026009,0.052198,-0.015139,-0.016509,-0.00056067,0.0027675,0.0013525,0,0,0,0.026008,0.00044975,-0.0007712,0.01339,0.0085623,0.026194,9.156e-07,0.55,0.45,0.7
0.029086,0.00043724,-0.0026757,0.025818,-0.00013262,-0.00078691,-6.2195e-05,0.00070721,0.00019194,0.052187,-0.015284,-0.016985,-0.00032341,0.0036775,0.0009981,0,0,0,0.02582,0.00033811,-0.0012602,0.01354,0.0082994,0.02632,9.2454e-07,0.6,0.45,0.7
0.031695,0.00043429,-0.0026881,0.025734,-0.00024216,-0.00086637,1.6829e-05,0.00071014,7.2302e-05,0.052132,-0.015405,-0.017028,8.751e-05,0.0036927,0.00037597,0,0,0,0.025735,0.00023964,-0.0013493,0.013542,0.0082084,0.026328,9.2546e-07,0.65,0.45,0.7
0.034299,0.00047772,-0.0027778,0.025756,-0.00023436,-0.00066474,8.4003e-05,0.00053746,-4.2193e-05,0.052051,-0.015523,-0.016642,0.00043682,0.0027948,-0.00021941,0,0,0,0.025757,0.00014234,-0.0010428,0.0134,0.0082855,0.026231,9.1972e-07,0.7,0.45,0.7
0.0369,0.00055297,-0.0029183,0.025863,-0.00016277,-0.00031489,0.00010588,0.00025584,-0.00010081,0.052013,-0.015655,-0.01605,0.00055057,0.0013303,-0.00052423,0,0,0,0.025865,7.1063e-05,-0.00055038,0.013208,0.0084619,0.026113,9.1204e-07,0.75,0.45,0.7
0.039501,0.00063664,-0.0030691,0.02602,-8.8657e-05,1.3268e-05,8.0965e-05,-2.8161e-05,-8.7799e-05,0.052086,-0.015797,-0.015532,0.00042102,-0.00014644,-0.00045655,0,0,0,0.026021,0.00014802,-0.00022475,0.013123,0.0086483,0.026063,9.0842e-07,0.8,0.45,0.7
0.042108,0.00070871,-0.0031987,0.02619,-5.0704e-05,0.00023013,3.5437e-05,-0.00023966,-3.6568e-05,0.052273,-0.015954,-0.015224,0.00018427,-0.0012462,-0.00019016,0,0,0,0.026191,0.00037652,-0.00019799,0.013195,0.0087899,0.026108,9.1225e-07,0.85,0.45,0.7
0.044728,0.00075967,-0.0032917,0.026343,-5.1235e-05,0.00033212,1.4353e-07,-0.0003637,6.0628e-06,0.052517,-0.016107,-0.015111,7.4645e-07,-0.0018913,3.1527e-05,0,0,0,0.026343,0.00056191,-0.00028156,0.013312,0.0088745,0.026214,9.2202e-07,0.9,0.45,0.7
0.04736,0.00078865,-0.0033456,0.026449,-6.6679e-05,0.00036084,-1.0346e-06,-0.00042075,-1.1783e-07,0.052722,-0.016219,-0.015108,-5.3802e-06,-0.0021879,-6.1269e-07,0,0,0,0.026449,0.00063074,-0.00033688,0.013393,0.0089144,0.026316,9.3206e-07,0.95,0.45,0.7
0.048679,0.00079789,-0.003363,0.026488,-7.4433e-05,0.00036418,9.4305e-06,-0.00043631,-2.0476e-05,0.052801,-0.01626,-0.01512,4.9039e-05,-0.0022688,-0.00010648,0,0,0,0.026488,0.00064531,-0.00035578,0.013422,0.0089258,0.026357,9.3624e-07,1,0.45,0.7
0.00091601,1.3639e-05,-0.00031412,0.024493,0.0094798,0.0094001,0.00010907,-2.8932e-05,-0.002389,0.037658,-0.0013764,-0.0015835,0.00056717,-0.00015044,-0.012423,0,0,0,0.024884,0.0094785,0.0090109,0.0079363,0.014458,0.015645,1.9806e-07,0,0.5,0.7
0.0018829,2.4662e-05,-0.00061795,0.024653,0.0085543,0.0083927,0.00011192,-5.4208e-05,-0.002326,0.039138,-0.0027188,-0.0031389,0.00058198,-0.00028188,-0.012095,0,0,0,0.025002,0.0085553,0.0080425,0.0084797,0.013867,0.01671,2.4476e-07,0.05,0.5,0.7
0.0039138,4.23e-05,-0.0011997,0.025261,0.0068981,0.0065882,0.00012032,-9.9948e-05,-0.0021422,0.04243,-0.0053132,-0.0061192,0.00062566,-0.00051973,-0.01114,0,0,0,0.025523,0.0069091,0.0063154,0.0096037,0.012916,0.018919,3.5412e-07,0.1,0.5,0.7
0.0061259,5.2293e-05,-0.0017194,0.026065,0.0055117,0.0051138,0.00013732,-0.00013977,-0.0018674,0.045754,-0.0076837,-0.0087181,0.00071407,-0.00072681,-0.0097107,0,0,0,0.026243,0.0055421,0.0049049,0.010669,0.01223,0.021028,4.8199e-07,0.15,0.5,0.7
0.0084891,5.6039e-05,-0.0021593,0.026661,0.0042935,0.0039045,0.00016149,-0.00017857,-0.0015477,0.048403,-0.0097524,-0.010764,0.00083976,-0.00092859,-0.008048,0,0,0,0.026775,0.0043562,0.0037278,0.011524,0.01162,0.02274,6.0625e-07,0.2,0.5,0.7
0.010966,5.2988e-05,-0.0025076,0.027025,0.0032698,0.0029781,0.00018255,-0.0002157,-0.001221,0.050301,-0.011462,-0.01222,0.00094927,-0.0011216,-0.0063493,0,0,0,0.027093,0.0033859,0.0027935,0.01215,0.011091,0.02401,7.114e-07,0.25,0.5,0.7
0.013519,4.0504e-05,-0.0027579,0.02716,0.0024452,0.0022957,0.00018802,-0.00024243,-0.00090677,0.051475,-0.012783,-0.013172,0.00097768,-0.0012606,-0.0047152,0,0,0,0.027199,0.0026321,0.00207,0.012564,0.010634,0.024853,7.8785e-07,0.3,0.5,0.7
0.016114,1.3949e-05,-0.0029068,0.027095,0.0018028,0.0017707,0.0001655,-0.00023761,-0.00060424,0.052046,-0.013714,-0.013797,0.00086058,-0.0012356,-0.003142,0,0,0,0.027115,0.0020356,0.0015178,0.012799,0.010223,0.025343,8.3499e-07,0.35,0.5,0.7
0.018724,-3.2089e-05,-0.0029541,0.026869,0.0013008,0.0012778,0.00011149,-0.00016766,-0.00031421,0.052192,-0.014287,-0.014346,0.00057974,-0.00087186,-0.0016339,0,0,0,0.026879,0.0014825,0.0010868,0.012896,0.009816,0.025597,8.6062e-07,0.4,0.5,0.7
0.021333,-9.9825e-05,-0.0029073,0.026522,0.00088432,0.00069935,4.1993e-05,1.234e-06,-6.5546e-05,0.052094,-0.014564,-0.015045,0.00021836,6.4167e-06,-0.00034084,0,0,0,0.026527,0.00098092,0.00059753,0.012965,0.0093685,0.025741,8.7513e-07,0.45,0.5,0.7
0.023933,-0.00018161,-0.0027925,0.026112,0.00052645,9.9659e-06,-8.254e-06,0.00025418,8.9954e-05,0.051902,-0.01462,-0.015963,-4.2921e-05,0.0013217,0.00046776,0,0,0,0.026118,0.00065597,-0.00012515,0.013121,0.0088828,0.025865,8.8513e-07,0.5,0.5,0.7
0.026523,-0.00025915,-0.0026616,0.025738,0.00023432,-0.00065079,-1.5697e-05,0.00050158,0.00014525,0.051726,-0.014584,-0.016885,-8.1624e-05,0.0026082,0.00075529,0,0,0,0.025744,0.0004786,-0.00090068,0.013322,0.0084406,0.025986,8.9234e-07,0.55,0.5,0.7
0.029106,-0.00031074,-0.0025793,0.025491,2.2932e-05,-0.0010728,2.364e-06,0.00064853,0.00014111,0.051613,-0.014605,-0.017454,1.2293e-05,0.0033724,0.00073379,0,0,0,0.025495,0.00034568,-0.0013988,0.013447,0.0081472,0.026067,8.9657e-07,0.6,0.5,0.7
0.031684,-0.00032013,-0.0025915,0.025411,-9.1677e-05,-0.0011564,2.6068e-05,0.00065069,0.00010465,0.051572,-0.014736,-0.017505,0.00013556,0.0033836,0.0005442,0,0,0,0.025414,0.00023842,-0.0014888,0.013451,0.0080545,0.026084,8.9852e-07,0.65,0.5,0.7
0.034263,-0.00028633,-0.0027039,0.025503,-0.00012026,-0.00090408,5.5282e-05,0.00050467,5.0109e-05,0.05162,-0.015,-0.017038,0.00028747,0.0026243,0.00026057,0,0,0,0.025507,0.00014573,-0.0011737,0.01334,0.0081595,0.02605,8.9939e-07,0.7,0.5,0.7
0.036847,-0.0002239,-0.0028819,0.025735,-0.00010264,-0.00042369,6.7929e-05,0.00024881,5.3886e-06,0.051787,-0.015392,-0.016227,0.00035323,0.0012938,2.802e-05,0,0,0,0.025739,9.3645e-05,-0.00062354,0.013181,0.0084031,0.026015,9.0106e-07,0.75,0.5,0.7
0.039442,-0.00015378,-0.0030708,0.026031,-8.0329e-05,5.6645e-05,4.2822e-05,-2.4083e-05,1.1316e-05,0.052077,-0.015813,-0.015457,0.00022267,-0.00012523,5.8843e-05,0,0,0,0.026034,0.00020894,-0.00023504,0.013134,0.0086692,0.02605,9.0689e-07,0.8,0.5,0.7
0.042054,-9.4497e-05,-0.0032282,0.026309,-8.8727e-05,0.00036687,2.3852e-07,-0.00022161,5.7194e-05,0.05245,-0.016183,-0.014998,1.2405e-06,-0.0011524,0.00029741,0,0,0,0.02631,0.00046706,-0.00019072,0.013251,0.0088623,0.02618,9.1947e-07,0.85,0.5,0.7
0.044687,-5.4574e-05,-0.003337,0.026528,-0.00012872,0.00049486,-2.6605e-05,-0.00032539,8.4245e-05,0.052836,-0.016471,-0.01485,-0.00013835,-0.001692,0.00043807,0,0,0,0.026529,0.00064634,-0.00028151,0.013405,0.0089647,0.026359,9.371e-07,0.9,0.5,0.7
0.047338,-3.3033e-05,-0.0033979,0.026671,-0.00016887,0.00051857,-1.784e-05,-0.00036718,4.3469e-05,0.053133,-0.016652,-0.014864,-9.2766e-05,-0.0019093,0.00022604,0,0,0,0.026672,0.00069243,-0.00034343,0.013508,0.009007,0.026513,9.5288e-07,0.95,0.5,0.7
0.048667,-2.6379e-05,-0.0034172,0.026722,-0.00018459,0.00051682,-2.9615e-06,-0.00037718,8.5105e-07,0.053245,-0.016713,-0.014889,-1.54e-05,-0.0019613,4.4257e-06,0,0,0,0.026722,0.00069644,-0.0003646,0.013544,0.0090181,0.026572,9.5917e-07,1,0.5,0.7
0.00091962,-5.6094e-05,-0.00031704,0.024588,0.0094951,0.0094351,-0.0004217,-1.3584e-05,-0.0024134,0.037818,-0.0014237,-0.0015795,-0.0021928,-7.0636e-05,-0.01255,0,0,0,0.024995,0.0094963,0.0090267,0.0079842,0.014506,0.015739,2.0172e-07,0,0.55,0.7
0.0018909,-0.00011299,-0.00062342,0.02475,0.0085478,0.0084241,-0.00040643,-2.5286e-05,-0.002353,0.039318,-0.0028092,-0.0031308,-0.0021134,-0.00013149,-0.012236,0,0,0,0.025115,0.0085506,0.0080568,0.0085291,0.013907,0.016818,2.4968e-07,0.05,0.55,0.7
0.0039318,-0.00022651,-0.0012097,0.025369,0.0068547,0.0066168,-0.00036149,-4.6653e-05,-0.0021769,0.042655,-0.0054821,-0.0061007,-0.0018797,-0.00024259,-0.01132,0,0,0,0.025644,0.0068627,0.0063342,0.0096549,0.012947,0.019052,3.62e-07,0.1,0.55,0.7
0.0061564,-0.00033624,-0.0017335,0.026187,0.005442,0.0051473,-0.00028766,-6.6638e-05,-0.0019154,0.046021,-0.0079167,-0.0086828,-0.0014958,-0.00034652,-0.0099599,0,0,0,0.026376,0.0054616,0.0049383,0.010719,0.012259,0.021182,4.932e-07,0.15,0.55,0.7
0.0085338,-0.00043702,-0.0021774,0.026795,0.0042059,0.0039499,-0.0001925,-8.9083e-05,-0.0016151,0.048696,-0.010035,-0.010701,-0.001001,-0.00046323,-0.0083984,0,0,0,0.026918,0.0042522,0.0037805,0.011569,0.01165,0.022906,6.2026e-07,0.2,0.55,0.7
0.011026,-0.00052645,-0.0025295,0.027163,0.0031736,0.0030441,-9.242e-05,-0.00011429,-0.0013126,0.050596,-0.011777,-0.012114,-0.00048058,-0.00059429,-0.0068253,0,0,0,0.02724,0.0032781,0.0028628,0.012189,0.011127,0.024173,7.2674e-07,0.25,0.55,0.7
0.013593,-0.0006054,-0.0027826,0.027293,0.0023519,0.0023901,-5.533e-06,-0.00013678,-0.0010238,0.051741,-0.013106,-0.013007,-2.8771e-05,-0.00071126,-0.0053238,0,0,0,0.02734,0.0025511,0.0021444,0.012598,0.010678,0.024995,8.0208e-07,0.3,0.55,0.7
0.0162,-0.0006779,-0.0029307,0.027207,0.0017281,0.0018919,5.1084e-05,-0.00014077,-0.00074169,0.052243,-0.014003,-0.013578,0.00026564,-0.00073199,-0.0038568,0,0,0,0.027235,0.0020032,0.0015897,0.012822,0.010276,0.025441,8.4518e-07,0.35,0.55,0.7
0.018818,-0.00075016,-0.0029695,0.026932,0.0012602,0.0013897,6.9522e-05,-9.9006e-05,-0.00046074,0.052273,-0.014472,-0.014136,0.00036152,-0.00051483,-0.0023958,0,0,0,0.026946,0.0014864,0.0011487,0.012899,0.0098605,0.025631,8.6429e-07,0.4,0.55,0.7
0.021427,-0.00082692,-0.0029019,0.026497,0.00088575,0.00071213,6.0747e-05,2.2943e-05,-0.00022364,0.052035,-0.014554,-0.015005,0.00031588,0.0001193,-0.0011629,0,0,0,0.026507,0.00098988,0.0005981,0.012954,0.0093648,0.025716,8.7239e-07,0.45,0.55,0.7
0.024021,-0.00090465,-0.0027564,0.025983,0.00057926,-0.00012547,5.677e-05,0.00020403,-7.9499e-05,0.051694,-0.014356,-0.016188,0.0002952,0.001061,-0.00041339,0,0,0,0.025993,0.00065583,-0.00021215,0.013103,0.0088124,0.025787,8.7625e-07,0.5,0.55,0.7
0.026597,-0.00097395,-0.0025968,0.025612,0.00034296,-0.0008637,7.1472e-05,0.00036496,-1.6551e-06,0.051233,-0.014074,-0.017192,0.00036764,0.0018978,2.3308e-06,0,0,0,0.02562,0.00046746,-0.00099662,0.013308,0.0083636,0.025918,8.9164e-07,0.55,0.55,0.7
0.029148,-0.0010233,-0.0024982,0.025496,0.00016422,-0.0012902,6.5703e-05,0.00045834,7.5227e-05,0.050758,-0.013929,-0.017652,0.00033085,0.0023833,0.00039951,0,0,0,0.0255,0.00032374,-0.0014545,0.013477,0.0081232,0.026112,9.2233e-07,0.6,0.55,0.7
0.031684,-0.0010393,-0.0025107,0.025419,5.0109e-05,-0.0013773,3.2362e-05,0.0004589,0.00015339,0.050725,-0.014058,-0.017711,0.0001587,0.0023864,0.00078145,0,0,0,0.025423,0.00021285,-0.0015446,0.013484,0.0080304,0.026135,9.2491e-07,0.65,0.55,0.7
0.034232,-0.0010223,-0.0026401,0.025386,-9.3318e-06,-0.0011265,2.3266e-05,0.00036417,0.00017727,0.05115,-0.014485,-0.01737,0.0001182,0.0018937,0.00090827,0,0,0,0.025393,0.00012455,-0.0012677,0.01333,0.0080833,0.025996,9.003e-07,0.7,0.55,0.7
0.036802,-0.00098627,-0.0028481,0.025624,-4.5818e-05,-0.0005694,3.2496e-05,0.0001943,0.00014947,0.051617,-0.015124,-0.016486,0.00016898,0.0010104,0.00077726,0,0,0,0.025632,9.0197e-05,-0.0007134,0.013173,0.0083362,0.025957,8.9429e-07,0.75,0.55,0.7
0.039393,-0.0009447,-0.0030702,0.026031,-7.4426e-05,6.6807e-05,1.6564e-05,-5.146e-06,0.00013626,0.052067,-0.015808,-0.01544,8.6131e-05,-2.676e-05,0.00070856,0,0,0,0.026037,0.00024457,-0.00025764,0.013147,0.0086745,0.026048,9.0637e-07,0.8,0.55,0.7
0.042009,-0.00090956,-0.0032517,0.026405,-0.00012565,0.00048871,-1.5627e-05,-0.0001512,0.0001613,0.052591,-0.016387,-0.01479,-8.1263e-05,-0.00078623,0.00083874,0,0,0,0.026408,0.00053462,-0.00017521,0.013292,0.0089226,0.026237,9.2542e-07,0.85,0.55,0.7
0.044653,-0.00088743,-0.0033727,0.026682,-0.00020194,0.00064019,-3.3301e-05,-0.00021924,0.00016726,0.053102,-0.016797,-0.014608,-0.00017316,-0.0011401,0.00086973,0,0,0,0.026685,0.00070826,-0.00027267,0.013479,0.0090402,0.026481,9.5007e-07,0.9,0.55,0.7
0.047319,-0.00087652,-0.0034383,0.026855,-0.00026372,0.00065431,-2.2754e-05,-0.00024275,8.901e-05,0.053475,-0.017033,-0.014646,-0.00011832,-0.0012623,0.00046285,0,0,0,0.026856,0.00073204,-0.00034274,0.013599,0.0090817,0.026677,9.7076e-07,0.95,0.55,0.7
0.048658,-0.00087336,-0.0034587,0.026914,-0.00028599,0.00064624,-9.781e-06,-0.0002473,2.3846e-05,0.053613,-0.017108,-0.014685,-5.0861e-05,-0.001286,0.000124,0,0,0,0.026915,0.00072634,-0.00036671,0.013641,0.0090916,0.026752,9.7883e-07,1,0.55,0.7
0.0009227,-0.00012873,-0.00031769,0.024667,0.0094927,0.0094612,-0.00097478,4.2276e-06,-0.0024195,0.037962,-0.0014916,-0.0015733,-0.0050689,2.1983e-05,-0.012582,0,0,0,0.025124,0.009488,0.009009,0.0080574,0.01454,0.015881,2.0725e-07,0,0.6,0.7
0.0018981,-0.00025626,-0.00062459,0.024832,0.0085118,0.008444,-0.00094672,8.3557e-06,-0.0023608,0.03949,-0.0029419,-0.0031183,-0.0049229,4.3449e-05,-0.012276,0,0,0,0.025241,0.008504,0.0080423,0.0085996,0.013929,0.016974,2.569e-07,0.05,0.6,0.7
0.003949,-0.00050591,-0.0012118,0.02546,0.0067596,0.0066285,-0.00086413,1.5828e-05,-0.0021897,0.042888,-0.0057342,-0.0060749,-0.0044935,8.2308e-05,-0.011386,0,0,0,0.02577,0.0067513,0.006327,0.0097216,0.012949,0.019236,3.7297e-07,0.1,0.6,0.7
0.0061869,-0.00073937,-0.0017364,0.02629,0.0053039,0.0051577,-0.00073243,2.0667e-05,-0.001937,0.046302,-0.0082606,-0.0086407,-0.0038086,0.00010747,-0.010072,0,0,0,0.026504,0.0053142,0.0049328,0.010786,0.01225,0.021384,5.0792e-07,0.15,0.6,0.7
0.0085793,-0.00094745,-0.0021815,0.026901,0.0040433,0.003965,-0.00056678,2.1069e-05,-0.0016496,0.048997,-0.010433,-0.010637,-0.0029472,0.00010956,-0.0085779,0,0,0,0.027042,0.0041017,0.0037662,0.011638,0.011637,0.02311,6.3742e-07,0.2,0.6,0.7
0.011087,-0.0011247,-0.0025351,0.027266,0.0030058,0.0030708,-0.0003907,1.6277e-05,-0.0013636,0.050885,-0.01219,-0.012021,-0.0020317,8.4641e-05,-0.0070906,0,0,0,0.027354,0.0031537,0.0028344,0.01226,0.011114,0.024362,7.4417e-07,0.25,0.6,0.7
0.013668,-0.0012701,-0.0027896,0.027382,0.0021963,0.0024347,-0.00022707,7.815e-06,-0.0010931,0.051985,-0.013497,-0.012877,-0.0011808,4.0638e-05,-0.005684,0,0,0,0.027437,0.0024726,0.0021037,0.012666,0.010671,0.025151,8.1724e-07,0.3,0.6,0.7
0.016285,-0.0013864,-0.0029375,0.027273,0.0016007,0.0019551,-9.4025e-05,1.6242e-06,-0.00082694,0.052412,-0.014335,-0.013414,-0.00048893,8.4459e-06,-0.0043001,0,0,0,0.027306,0.0019735,0.0015492,0.012878,0.010276,0.025548,8.5577e-07,0.35,0.6,0.7
0.018909,-0.0014793,-0.0029717,0.026956,0.0011734,0.0014468,-9.3941e-07,8.7777e-06,-0.00055464,0.052339,-0.014695,-0.013984,-4.8852e-06,4.5644e-05,-0.0028841,0,0,0,0.026975,0.0014812,0.0011199,0.012927,0.0098586,0.025677,8.6884e-07,0.4,0.6,0.7
0.021519,-0.0015552,-0.0028919,0.026467,0.00084618,0.00069925,5.5163e-05,4.4957e-05,-0.00033175,0.052007,-0.014607,-0.01499,0.00028685,0.00023378,-0.0017251,0,0,0,0.026481,0.00097513,0.00055607,0.012963,0.0093375,0.02572,8.7259e-07,0.45,0.6,0.7
0.02411,-0.0016172,-0.0027293,0.025915,0.00059379,-0.00022111,8.9578e-05,0.00010002,-0.00019623,0.051607,-0.014229,-0.016348,0.00046581,0.00052008,-0.0010204,0,0,0,0.02593,0.00063066,-0.00027228,0.013101,0.0087627,0.025767,8.7382e-07,0.5,0.6,0.7
0.02668,-0.001667,-0.002555,0.025698,0.00039638,-0.00099348,0.00011082,0.00014514,-0.00011214,0.050846,-0.013764,-0.017321,0.00056486,0.00075454,-0.00055022,0,0,0,0.025708,0.00043576,-0.0010431,0.013375,0.0083668,0.026045,9.1834e-07,0.55,0.6,0.7
0.029205,-0.001705,-0.002447,0.025918,0.00022028,-0.0014474,0.00010144,0.00017278,1.8142e-05,0.049849,-0.013444,-0.017607,0.00049706,0.00089824,0.00011975,0,0,0,0.025924,0.00027172,-0.0015049,0.013714,0.0082303,0.026586,1.0128e-06,0.6,0.6,0.7
0.031698,-0.0017273,-0.0024602,0.025843,0.00011239,-0.0015365,6.3102e-05,0.00017107,0.00019799,0.049818,-0.01356,-0.017673,0.00030138,0.00088971,0.00098161,0,0,0,0.02585,0.0001647,-0.0015953,0.013723,0.0081397,0.02661,1.0157e-06,0.65,0.6,0.7
0.03422,-0.0017353,-0.0026005,0.025479,6.4023e-05,-0.0012608,3.4866e-05,0.00013838,0.00027431,0.050768,-0.014135,-0.017522,0.00017362,0.00071973,0.001386,0,0,0,0.025489,0.00010564,-0.0013124,0.013401,0.008094,0.026124,9.2715e-07,0.7,0.6,0.7
0.036786,-0.0017363,-0.0028248,0.025566,3.4297e-06,-0.00066858,2.3927e-05,8.403e-05,0.00024996,0.051531,-0.014932,-0.016679,0.00012442,0.00043696,0.0012998,0,0,0,0.025578,8.5737e-05,-0.00076283,0.01317,0.0083003,0.025931,8.9121e-07,0.75,0.6,0.7
0.039374,-0.0017345,-0.0030661,0.026013,-6.3874e-05,5.6656e-05,8.2913e-06,1.5498e-05,0.00022431,0.052029,-0.015769,-0.015456,4.3115e-05,8.0588e-05,0.0011664,0,0,0,0.026021,0.00025747,-0.0002732,0.013147,0.0086684,0.026035,9.0477e-07,0.8,0.6,0.7
0.041989,-0.0017332,-0.003262,0.026437,-0.00014615,0.00055743,-1.0521e-05,-3.515e-05,0.00023071,0.052628,-0.016489,-0.01466,-5.4707e-05,-0.00018278,0.0011997,0,0,0,0.026443,0.00056983,-0.00016384,0.013303,0.0089495,0.026249,9.2664e-07,0.85,0.6,0.7
0.044636,-0.0017343,-0.0033897,0.026752,-0.00024716,0.00072414,-1.925e-05,-5.5161e-05,0.00022203,0.053217,-0.01698,-0.014454,-0.0001001,-0.00028684,0.0011546,0,0,0,0.026755,0.00074252,-0.00026934,0.013512,0.0090762,0.026534,9.5568e-07,0.9,0.6,0.7
0.04731,-0.0017363,-0.0034577,0.02694,-0.00032329,0.0007305,-1.5184e-05,-5.9981e-05,0.00011889,0.053636,-0.017249,-0.014509,-7.8956e-05,-0.0003119,0.00061824,0,0,0,0.026942,0.00075313,-0.00034769,0.013645,0.0091159,0.026756,9.7942e-07,0.95,0.6,0.7
0.048653,-0.0017372,-0.0034785,0.027006,-0.00034982,0.000718,-1.0396e-05,-6.0241e-05,3.9146e-05,0.053791,-0.017334,-0.014558,-5.4062e-05,-0.00031325,0.00020356,0,0,0,0.027007,0.00074196,-0.00037458,0.013691,0.0091246,0.02684,9.8858e-07,1,0.6,0.7
0.00092525,-0.00020525,-0.00031593,0.02473,0.0094709,0.0094775,-0.0015563,2.2721e-05,-0.002406,0.03809,-0.0015824,-0.0015653,-0.0080928,0.00011815,-0.012511,0,0,0,0.025273,0.0094618,0.0089429,0.0081652,0.014559,0.016078,2.1499e-07,0,0.65,0.7
0.0019045,-0.00040718,-0.00062119,0.024896,0.0084428,0.0084502,-0.0015127,4.3332e-05,-0.0023475,0.039656,-0.003122,-0.0031026,-0.0078661,0.00022533,-0.012207,0,0,0,0.025383,0.0084303,0.0079754,0.0087038,0.01393,0.017186,2.6674e-07,0.05,0.65,0.7
0.0039656,-0.00079993,-0.0012053,0.02553,0.006606,0.0066188,-0.0013846,8.1041e-05,-0.0021775,0.043126,-0.0060776,-0.0060442,-0.0072,0.00042141,-0.011323,0,0,0,0.025899,0.0066049,0.0062518,0.0098234,0.012918,0.019473,3.8723e-07,0.1,0.65,0.7
0.0062171,-0.0011623,-0.0017273,0.026363,0.0050908,0.0051379,-0.001184,0.00011248,-0.0019267,0.046589,-0.0087191,-0.0085966,-0.0061567,0.00058492,-0.010019,0,0,0,0.026617,0.0051469,0.0048282,0.010894,0.012197,0.021632,5.2588e-07,0.15,0.65,0.7
0.0086245,-0.0014803,-0.0021702,0.026965,0.0038034,0.0039396,-0.00093742,0.0001382,-0.001642,0.049284,-0.010936,-0.010582,-0.0048746,0.00071862,-0.0085385,0,0,0,0.027129,0.0039661,0.0036131,0.011758,0.011569,0.023342,6.5652e-07,0.2,0.65,0.7
0.011145,-0.0017455,-0.0025222,0.027307,0.0027713,0.0030441,-0.00067935,0.0001571,-0.0013594,0.051126,-0.012668,-0.011959,-0.0035326,0.00081693,-0.0070687,0,0,0,0.027408,0.0030736,0.0026407,0.012384,0.011041,0.024555,7.6132e-07,0.25,0.65,0.7
0.013737,-0.0019551,-0.0027756,0.027395,0.0019906,0.0024095,-0.0004383,0.00016652,-0.0010924,0.05215,-0.013901,-0.012812,-0.0022792,0.00086592,-0.0056804,0,0,0,0.027455,0.0024386,0.001901,0.012777,0.010598,0.025291,8.3002e-07,0.3,0.65,0.7
0.01636,-0.0021114,-0.002923,0.027256,0.0014362,0.0019329,-0.00023117,0.00016066,-0.00082939,0.05249,-0.014641,-0.01335,-0.0012021,0.00083542,-0.0043128,0,0,0,0.027291,0.0019649,0.001369,0.012961,0.010208,0.02563,8.6317e-07,0.35,0.65,0.7
0.018986,-0.0022196,-0.0029574,0.026913,0.0010539,0.0014284,-6.6131e-05,0.00013003,-0.00055951,0.052336,-0.014897,-0.013923,-0.00034388,0.00067614,-0.0029095,0,0,0,0.026932,0.0014754,0.00098728,0.012972,0.0097983,0.025705,8.7116e-07,0.4,0.65,0.7
0.021594,-0.0022877,-0.0028784,0.026404,0.00076933,0.00068593,5.0404e-05,6.155e-05,-0.00033812,0.051936,-0.014716,-0.014932,0.0002621,0.00032006,-0.0017582,0,0,0,0.026419,0.00095217,0.00048874,0.012965,0.0092866,0.025703,8.7074e-07,0.45,0.65,0.7
0.02418,-0.0023276,-0.0027172,0.02584,0.00055386,-0.00022781,0.00010978,-2.8615e-05,-0.00020291,0.051484,-0.014259,-0.016292,0.00057084,-0.0001488,-0.0010551,0,0,0,0.025854,0.00059781,-0.00028617,0.01307,0.0087219,0.025714,8.6868e-07,0.5,0.65,0.7
0.026742,-0.0023517,-0.0025446,0.025614,0.00038471,-0.0009939,0.00012019,-0.00010311,-0.00011792,0.050688,-0.013738,-0.017265,0.00061426,-0.0005364,-0.00058013,0,0,0,0.025625,0.00041835,-0.0010377,0.013331,0.0083351,0.025968,9.1058e-07,0.55,0.65,0.7
0.029259,-0.0023717,-0.0024381,0.025832,0.00022786,-0.0014443,0.00011587,-0.00014873,1.3962e-05,0.049675,-0.013379,-0.017555,0.00057405,-0.00077372,9.8442e-05,0,0,0,0.025838,0.00027521,-0.0014976,0.013668,0.0082053,0.026495,1.0033e-06,0.6,0.65,0.7
0.031743,-0.0023994,-0.0024525,0.025761,0.00013221,-0.001532,0.00010692,-0.00015278,0.00019566,0.049641,-0.013473,-0.017627,0.00053124,-0.00079444,0.00097001,0,0,0,0.025767,0.00018051,-0.0015869,0.013677,0.0081203,0.026516,1.0057e-06,0.65,0.65,0.7
0.034257,-0.0024372,-0.0025935,0.025402,8.8841e-05,-0.0012566,7.4453e-05,-0.00011629,0.00027391,0.050599,-0.014043,-0.017483,0.00038013,-0.00060459,0.0013841,0,0,0,0.025412,0.00012546,-0.0013034,0.013358,0.0080782,0.026034,9.1772e-07,0.7,0.65,0.7
0.036814,-0.0024794,-0.0028179,0.025496,2.5845e-05,-0.00066688,3.0922e-05,-5.1261e-05,0.0002512,0.051377,-0.014846,-0.016647,0.00016079,-0.00026656,0.0013062,0,0,0,0.025508,0.00010149,-0.00075451,0.013131,0.008285,0.025849,8.8276e-07,0.75,0.65,0.7
0.039395,-0.0025216,-0.0030591,0.025949,-4.8443e-05,5.4776e-05,5.8122e-06,3.1954e-05,0.00022661,0.051893,-0.015699,-0.015431,3.0223e-05,0.00016616,0.0011784,0,0,0,0.025957,0.00026724,-0.00026943,0.013113,0.0086517,0.025964,8.9743e-07,0.8,0.65,0.7
0.042003,-0.0025585,-0.0032549,0.026379,-0.00013918,0.00055243,2.886e-07,9.8e-05,0.0002333,0.05251,-0.016437,-0.014639,1.5006e-06,0.0005096,0.0012132,0,0,0,0.026384,0.00057688,-0.00016893,0.013277,0.0089308,0.02619,9.2034e-07,0.85,0.65,0.7
0.044646,-0.0025854,-0.0033825,0.026698,-0.00024785,0.00071693,1.2103e-06,0.00013148,0.00022416,0.053115,-0.016945,-0.014436,6.2934e-06,0.00068372,0.0011657,0,0,0,0.026702,0.00074936,-0.00028409,0.013493,0.0090557,0.026485,9.5021e-07,0.9,0.65,0.7
0.047315,-0.0026014,-0.0034505,0.02689,-0.00032921,0.00072195,-3.612e-06,0.00014543,0.00012011,0.053544,-0.017226,-0.014492,-1.8782e-05,0.00075625,0.00062455,0,0,0,0.026892,0.00076026,-0.00036929,0.01363,0.0090942,0.026714,9.7449e-07,0.95,0.65,0.7
0.048655,-0.0026067,-0.0034712,0.026956,-0.00035759,0.00070901,-9.1633e-06,0.00014891,3.9815e-05,0.053702,-0.017314,-0.014541,-4.7649e-05,0.00077435,0.00020704,0,0,0,0.026957,0.0007492,-0.00039859,0.013678,0.0091025,0.0268,9.8384e-07,1,0.65,0.7
0.00092779,-0.00028697,-0.00031196,0.024789,0.0094285,0.0094873,-0.0021739,3.9607e-05,-0.0023742,0.038228,-0.0017086,-0.0015558,-0.011304,0.00020596,-0.012346,0,0,0,0.025463,0.0094335,0.0088083,0.0083271,0.014568,0.016352,2.2589e-07,0,0.7,0.7
0.0019114,-0.00056845,-0.00061362,0.024954,0.0083324,0.0084438,-0.0021082,7.532e-05,-0.0023146,0.039842,-0.0033737,-0.003084,-0.010963,0.00039166,-0.012036,0,0,0,0.025556,0.0083554,0.0078188,0.0088684,0.01391,0.017476,2.8029e-07,0.05,0.7,0.7
0.0039842,-0.0011137,-0.0011911,0.025589,0.0063747,0.0065842,-0.0019164,0.00014079,-0.0021414,0.043402,-0.0065544,-0.0060095,-0.0099654,0.00073213,-0.011135,0,0,0,0.026038,0.0064652,0.006044,0.0099972,0.012849,0.019788,4.0603e-07,0.1,0.7,0.7
0.0062516,-0.0016113,-0.0017072,0.026413,0.0047809,0.0050822,-0.0016217,0.00019662,-0.0018854,0.046908,-0.0093353,-0.0085519,-0.0084327,0.0010224,-0.0098039,0,0,0,0.026716,0.0049995,0.0045605,0.011078,0.012092,0.021941,5.48e-07,0.15,0.7,0.7
0.008675,-0.002041,-0.0021447,0.026984,0.0034711,0.0038679,-0.0012703,0.00024502,-0.001593,0.049566,-0.011569,-0.010538,-0.0066056,0.0012741,-0.0082838,0,0,0,0.027174,0.003853,0.003297,0.011938,0.011441,0.023605,6.7766e-07,0.2,0.7,0.7
0.011208,-0.0023916,-0.0024919,0.027281,0.0024649,0.002959,-0.00091475,0.00028408,-0.0013005,0.051308,-0.013214,-0.01193,-0.0047567,0.0014772,-0.0067626,0,0,0,0.027392,0.0030045,0.0023089,0.012542,0.010902,0.024744,7.7732e-07,0.25,0.7,0.7
0.013806,-0.0026602,-0.0027418,0.027321,0.0017373,0.0023106,-0.000591,0.00030693,-0.0010223,0.052212,-0.014304,-0.012814,-0.0030732,0.0015961,-0.005316,0,0,0,0.027382,0.002395,0.0015916,0.012895,0.010456,0.025399,8.3896e-07,0.3,0.7,0.7
0.016429,-0.0028505,-0.0028886,0.027144,0.0012412,0.0018223,-0.0003134,0.00029792,-0.00074978,0.05245,-0.014897,-0.013387,-0.0016297,0.0015492,-0.0038988,0,0,0,0.027176,0.0019237,0.0011079,0.013034,0.010069,0.025671,8.6583e-07,0.35,0.7,0.7
0.019051,-0.002969,-0.0029278,0.026791,0.00090906,0.0013327,-8.5992e-05,0.00023166,-0.00047635,0.052238,-0.015056,-0.013955,-0.00044716,0.0012046,-0.002477,0,0,0,0.026807,0.0014298,0.00079618,0.013006,0.0096777,0.025701,8.6989e-07,0.4,0.7,0.7
0.021653,-0.0030268,-0.0028625,0.0263,0.00066214,0.00067071,8.1211e-05,7.7203e-05,-0.00024404,0.0518,-0.014858,-0.014836,0.0004223,0.00040145,-0.001269,0,0,0,0.02631,0.00090666,0.00041581,0.012947,0.0092109,0.025654,8.6575e-07,0.45,0.7,0.7
0.024231,-0.0030432,-0.0027207,0.025751,0.0004656,-0.00014739,0.00016556,-0.0001382,-0.00010119,0.051311,-0.014431,-0.016025,0.0008609,-0.00071866,-0.00052618,0,0,0,0.025762,0.00056244,-0.00025514,0.013009,0.0086898,0.025622,8.6007e-07,0.5,0.7,0.7
0.026784,-0.0030421,-0.0025659,0.025362,0.00031481,-0.00086614,0.00016913,-0.00032746,-2.0873e-05,0.050753,-0.013979,-0.017031,0.00087613,-0.0017029,-9.7488e-05,0,0,0,0.025371,0.00042485,-0.00098523,0.013178,0.0082702,0.025684,8.682e-07,0.55,0.7,0.7
0.02931,-0.0030468,-0.0024718,0.025242,0.00019527,-0.0012796,0.00014887,-0.00043803,6.1103e-05,0.05023,-0.013721,-0.017499,0.0007653,-0.0022779,0.00032649,0,0,0,0.025248,0.00034288,-0.0014325,0.01334,0.0080527,0.02584,8.9428e-07,0.6,0.7,0.7
0.031818,-0.0030785,-0.0024877,0.025174,0.00011611,-0.0013616,0.00012882,-0.00044409,0.00014562,0.050191,-0.013789,-0.017573,0.00066229,-0.0023093,0.00074156,0,0,0,0.025179,0.00026607,-0.0015166,0.013348,0.0079763,0.025852,8.9546e-07,0.65,0.7,0.7
0.03434,-0.0031409,-0.002619,0.025159,6.7601e-05,-0.0011128,7.5721e-05,-0.00034551,0.00017601,0.050643,-0.014203,-0.017253,0.00039163,-0.0017966,0.00090192,0,0,0,0.025166,0.00018493,-0.0012378,0.013202,0.0080378,0.025726,8.7221e-07,0.7,0.7,0.7
0.036886,-0.0032209,-0.0028276,0.025416,2.1501e-05,-0.00056401,1.0795e-05,-0.00016495,0.00015357,0.051157,-0.014868,-0.01639,5.6134e-05,-0.00085776,0.00079856,0,0,0,0.025424,0.00013543,-0.00068597,0.013055,0.008291,0.025713,8.6912e-07,0.75,0.7,0.7
0.039456,-0.0033044,-0.0030498,0.025841,-2.8895e-05,6.1496e-05,-1.4276e-05,4.9581e-05,0.00014353,0.051663,-0.0156,-0.015365,-7.4237e-05,0.00025782,0.00074634,0,0,0,0.025847,0.00027112,-0.00024399,0.013045,0.0086247,0.025839,8.8463e-07,0.8,0.7,0.7
0.042053,-0.0033769,-0.003231,0.026232,-0.00010592,0.00047377,-4.8567e-06,0.00021205,0.00016919,0.052243,-0.016235,-0.014728,-2.5255e-05,0.0011026,0.00087977,0,0,0,0.026235,0.00055335,-0.00018918,0.013212,0.0088666,0.026063,9.0688e-07,0.85,0.7,0.7
0.04468,-0.0034288,-0.0033518,0.026523,-0.00020534,0.00061811,7.8832e-06,0.00029459,0.00017366,0.052799,-0.016695,-0.014554,4.0992e-05,0.0015319,0.00090302,0,0,0,0.026526,0.00072592,-0.00031583,0.013421,0.0089786,0.026337,9.3404e-07,0.9,0.7,0.7
0.047333,-0.0034589,-0.0034173,0.026704,-0.00028279,0.00062783,-2.6274e-07,0.00032791,9.259e-05,0.053201,-0.016965,-0.014597,-1.3663e-06,0.0017051,0.00048147,0,0,0,0.026705,0.00074938,-0.00040563,0.013555,0.0090163,0.026552,9.5637e-07,0.95,0.7,0.7
0.048664,-0.0034686,-0.0034376,0.026767,-0.00031057,0.00061828,-1.2522e-05,0.00033592,2.5779e-05,0.053349,-0.017052,-0.014637,-6.5114e-05,0.0017468,0.00013405,0,0,0,0.026767,0.00074361,-0.00043654,0.013602,0.0090248,0.026633,9.65e-07,1,0.7,0.7
0.00093172,-0.00037612,-0.00030641,0.024878,0.0093635,0.0095001,-0.0028403,5.2365e-05,-0.0023292,0.038438,-0.0019,-0.0015448,-0.01477,0.0002723,-0.012112,0,0,0,0.025735,0.0094219,0.0085853,0.0085746,0.014581,0.016748,2.4194e-07,0,0.75,0.7
0.0019219,-0.00074455,-0.00060306,0.025037,0.0081629,0.0084285,-0.002739,9.9649e-05,-0.002267,0.040118,-0.0037533,-0.0030628,-0.014243,0.00051818,-0.011789,0,0,0,0.025795,0.0083007,0.0075324,0.0091312,0.013876,0.017893,2.9988e-07,0.05,0.75,0.7
0.0040118,-0.0014554,-0.0011713,0.02566,0.0060261,0.0065205,-0.002448,0.00018655,-0.0020872,0.043793,-0.0072563,-0.0059709,-0.01273,0.00097008,-0.010853,0,0,0,0.026212,0.0063502,0.0056448,0.010284,0.012736,0.020226,4.3202e-07,0.1,0.75,0.7
0.0063012,-0.0020958,-0.0016791,0.026458,0.0043346,0.0049849,-0.0020148,0.00026101,-0.0018205,0.047323,-0.010196,-0.0085055,-0.010477,0.0013573,-0.0094665,0,0,0,0.026814,0.0048665,0.0040969,0.011358,0.011926,0.022344,5.764e-07,0.15,0.75,0.7
0.0087442,-0.0026372,-0.0021089,0.02697,0.0030219,0.0037477,-0.0015224,0.00032543,-0.0015132,0.049878,-0.012387,-0.0105,-0.0079164,0.0016922,-0.0078687,0,0,0,0.027179,0.0037256,0.0028352,0.012172,0.011247,0.023913,7.0175e-07,0.2,0.75,0.7
0.011289,-0.0030669,-0.0024493,0.027191,0.0020774,0.0028194,-0.0010514,0.00037613,-0.0012026,0.051444,-0.013851,-0.011922,-0.0054673,0.0019559,-0.0062535,0,0,0,0.027304,0.0028889,0.0018956,0.012704,0.010696,0.024927,7.9215e-07,0.25,0.75,0.7
0.013889,-0.0033856,-0.0026942,0.027161,0.0014347,0.0021493,-0.00064398,0.00040264,-0.00090563,0.052172,-0.014717,-0.012859,-0.0033487,0.0020937,-0.0047093,0,0,0,0.027217,0.0022833,0.0012452,0.012986,0.010248,0.025469,8.4389e-07,0.3,0.75,0.7
0.016506,-0.0036012,-0.0028407,0.026943,0.0010165,0.0016442,-0.000307,0.00038386,-0.00061915,0.05229,-0.01512,-0.013487,-0.0015964,0.0019961,-0.0032196,0,0,0,0.026968,0.001805,0.00083098,0.013068,0.009868,0.025664,8.6386e-07,0.35,0.75,0.7
0.019118,-0.0037253,-0.0028884,0.026596,0.0007422,0.0011761,-3.6047e-05,0.0002884,-0.00034209,0.052042,-0.015179,-0.014051,-0.00018744,0.0014997,-0.0017788,0,0,0,0.026606,0.0013139,0.00059417,0.013006,0.0095048,0.025661,8.6522e-07,0.4,0.75,0.7
0.02171,-0.0037735,-0.0028447,0.026166,0.00053527,0.0006264,0.00016236,8.6799e-05,-0.00010212,0.051634,-0.015005,-0.014768,0.00084426,0.00045135,-0.00053102,0,0,0,0.026172,0.00081879,0.00033635,0.012918,0.0091091,0.025599,8.6033e-07,0.45,0.75,0.7
0.024281,-0.0037707,-0.0027354,0.025709,0.00035661,-2.9887e-05,0.00026688,-0.00019937,5.0256e-05,0.051222,-0.014694,-0.015699,0.0013878,-0.0010367,0.00026133,0,0,0,0.025717,0.00051884,-0.00020007,0.012958,0.0086785,0.025568,8.5543e-07,0.5,0.75,0.7
0.026833,-0.0037501,-0.0026114,0.025317,0.00020509,-0.00065722,0.0002704,-0.00047334,0.00010899,0.050905,-0.014386,-0.016628,0.0014061,-0.0024614,0.00056676,0,0,0,0.025325,0.00043252,-0.00089254,0.013109,0.0082883,0.025585,8.5171e-07,0.55,0.75,0.7
0.029372,-0.0037451,-0.002536,0.025073,9.1064e-05,-0.0010541,0.0002087,-0.00063595,0.00011402,0.050725,-0.014229,-0.017207,0.0010852,-0.003307,0.00059292,0,0,0,0.025078,0.00039419,-0.0013619,0.01322,0.0080368,0.025609,8.4934e-07,0.6,0.75,0.7
0.031905,-0.0037795,-0.0025535,0.025012,2.969e-05,-0.001127,0.0001207,-0.00064291,8.9884e-05,0.050683,-0.014272,-0.017279,0.00062761,-0.0033431,0.0004674,0,0,0,0.025015,0.00033551,-0.0014358,0.013225,0.0079716,0.025613,8.4948e-07,0.65,0.75,0.7
0.03444,-0.0038579,-0.0026691,0.025132,1.2703e-05,-0.00087885,2.3773e-05,-0.00049276,4.7622e-05,0.050783,-0.014526,-0.016844,0.00012362,-0.0025624,0.00024763,0,0,0,0.025135,0.00024715,-0.0011171,0.013126,0.0080885,0.025602,8.5287e-07,0.7,0.75,0.7
0.036983,-0.0039662,-0.0028484,0.025396,9.7367e-06,-0.00041315,-4.6969e-05,-0.00022565,1.2316e-05,0.051034,-0.01497,-0.01607,-0.00024424,-0.0011734,6.4046e-05,0,0,0,0.025399,0.00016687,-0.00057384,0.012987,0.0083308,0.025615,8.5978e-07,0.75,0.75,0.7
0.039543,-0.0040816,-0.0030379,0.025722,-6.919e-06,4.8674e-05,-6.2108e-05,6.3483e-05,2.3184e-05,0.05142,-0.015476,-0.015332,-0.00032296,0.00033011,0.00012056,0,0,0,0.025725,0.00025022,-0.00021095,0.012968,0.0085881,0.02571,8.7165e-07,0.8,0.75,0.7
0.042125,-0.004182,-0.0031954,0.026027,-5.9573e-05,0.00034163,-3.8669e-05,0.00027893,6.9652e-05,0.051884,-0.01594,-0.014897,-0.00020108,0.0014504,0.00036219,0,0,0,0.026028,0.00049323,-0.00021304,0.013121,0.0087696,0.025897,8.8968e-07,0.85,0.75,0.7
0.044732,-0.0042549,-0.0033043,0.026266,-0.00013829,0.00045616,-1.1355e-05,0.00039847,9.4135e-05,0.052341,-0.01631,-0.014764,-5.9045e-05,0.002072,0.0004895,0,0,0,0.026267,0.000667,-0.00035046,0.013309,0.0088613,0.026125,9.115e-07,0.9,0.75,0.7
0.047359,-0.0042979,-0.0033652,0.026422,-0.00020429,0.00047144,-1.2325e-05,0.00045086,4.8828e-05,0.052684,-0.016545,-0.014788,-6.4092e-05,0.0023445,0.00025391,0,0,0,0.026423,0.00070924,-0.00044281,0.013433,0.0088964,0.026309,9.2992e-07,0.95,0.75,0.7
0.048678,-0.004312,-0.0033845,0.026477,-0.00022904,0.00046682,-2.4096e-05,0.00046458,3.5875e-06,0.052811,-0.016624,-0.014815,-0.0001253,0.0024158,1.8655e-05,0,0,0,0.026477,0.00071196,-0.0004746,0.013476,0.0089049,0.026379,9.3711e-07,1,0.75,0.7
0.00093993,-0.00047697,-0.00030034,0.025065,0.0092683,0.0095336,-0.0035763,5.8438e-05,-0.0022793,0.03885,-0.0022228,-0.001533,-0.018597,0.00030388,-0.011852,0,0,0,0.026168,0.0094452,0.0082538,0.0089573,0.014622,0.017352,2.6722e-07,0,0.8,0.7
0.0019425,-0.00094378,-0.00059153,0.025204,0.0078952,0.0084096,-0.0034107,0.00011175,-0.0022136,0.040625,-0.0043776,-0.0030402,-0.017735,0.00058109,-0.011511,0,0,0,0.026163,0.0082699,0.007076,0.0095433,0.013836,0.018522,3.2995e-07,0.05,0.8,0.7
0.0040625,-0.0018393,-0.0011496,0.025787,0.0054865,0.0064172,-0.002952,0.00021046,-0.0020247,0.044433,-0.0083498,-0.00593,-0.01535,0.0010944,-0.010528,0,0,0,0.026451,0.0062378,0.0050026,0.010724,0.012564,0.020862,4.6952e-07,0.1,0.8,0.7
0.0063858,-0.0026309,-0.0016484,0.02652,0.003696,0.004836,-0.0023098,0.00029552,-0.0017444,0.04792,-0.011421,-0.0084573,-0.012011,0.0015367,-0.0090707,0,0,0,0.026917,0.0047146,0.0034198,0.011749,0.011684,0.022881,6.134e-07,0.15,0.8,0.7
0.0088544,-0.0032797,-0.0020697,0.026925,0.002439,0.0035776,-0.0016375,0.00036748,-0.0014193,0.05024,-0.013423,-0.010463,-0.0085149,0.0019109,-0.0073804,0,0,0,0.027138,0.0035563,0.0022477,0.012445,0.01098,0.024264,7.2837e-07,0.2,0.8,0.7
0.01141,-0.0037767,-0.0024025,0.027028,0.0016146,0.0026317,-0.0010499,0.00042038,-0.0010889,0.051508,-0.014566,-0.011922,-0.0054592,0.002186,-0.0056622,0,0,0,0.027131,0.00271,0.0014336,0.012848,0.010425,0.025084,8.04e-07,0.25,0.8,0.7
0.014005,-0.0041319,-0.0026424,0.026909,0.001092,0.0019423,-0.00057869,0.00044156,-0.00077423,0.051997,-0.015127,-0.012916,-0.0030092,0.0022961,-0.004026,0,0,0,0.026953,0.0020951,0.00089493,0.013029,0.0099811,0.02548,8.4324e-07,0.3,0.8,0.7
0.016609,-0.0043624,-0.0027894,0.026655,0.00076889,0.0014277,-0.00021006,0.0004093,-0.00047885,0.051992,-0.015312,-0.013599,-0.0010923,0.0021283,-0.00249,0,0,0,0.026671,0.0016103,0.00056996,0.013051,0.0096172,0.025598,8.5648e-07,0.35,0.8,0.7
0.019204,-0.0044869,-0.0028475,0.026332,0.00056023,0.0009885,7.4737e-05,0.00029517,-0.00020606,0.051735,-0.015272,-0.014159,0.00038863,0.0015349,-0.0010715,0,0,0,0.026339,0.0011356,0.00040693,0.012966,0.0092937,0.025577,8.5655e-07,0.4,0.8,0.7
0.021783,-0.0045272,-0.0028277,0.02599,0.00039652,0.00053987,0.00027595,8.0234e-05,2.3325e-05,0.051418,-0.015125,-0.014752,0.0014349,0.00041722,0.00012129,0,0,0,0.025996,0.0006907,0.00023974,0.012878,0.0089755,0.025535,8.5399e-07,0.45,0.8,0.7
0.024346,-0.0045126,-0.0027542,0.025668,0.00024047,4.7665e-05,0.00037731,-0.00021677,0.00017025,0.051163,-0.014949,-0.01545,0.001962,-0.0011272,0.00088531,0,0,0,0.025677,0.00045267,-0.00017305,0.012925,0.0086521,0.025545,8.5378e-07,0.5,0.8,0.7
0.026899,-0.0044807,-0.0026673,0.025406,9.366e-05,-0.00043226,0.00036642,-0.00051579,0.0002073,0.051015,-0.014797,-0.016164,0.0019054,-0.0026821,0.001078,0,0,0,0.025414,0.00042126,-0.00076818,0.013091,0.0083558,0.025613,8.5569e-07,0.55,0.8,0.7
0.029448,-0.0044698,-0.0026154,0.025241,-1.5626e-05,-0.0007595,0.00025922,-0.00070457,0.00015122,0.050946,-0.01472,-0.016654,0.0013479,-0.0036637,0.00078633,0,0,0,0.025245,0.00042385,-0.0012037,0.013224,0.0081552,0.025676,8.5726e-07,0.6,0.8,0.7
0.031994,-0.0045057,-0.0026343,0.025192,-5.9426e-05,-0.00082206,0.00010501,-0.00071097,4.8914e-05,0.050914,-0.014741,-0.016724,0.00054604,-0.0036971,0.00025435,0,0,0,0.025194,0.00038023,-0.0012635,0.013229,0.0081036,0.025678,8.5715e-07,0.65,0.8,0.7
0.034539,-0.0045935,-0.0027288,0.025257,-4.3425e-05,-0.00062584,-3.497e-05,-0.00053311,-4.849e-05,0.050917,-0.014866,-0.01638,-0.00018184,-0.0027722,-0.00025215,0,0,0,0.025259,0.00028207,-0.00095277,0.013106,0.0081961,0.02562,8.5601e-07,0.7,0.8,0.7
0.037086,-0.0047179,-0.0028722,0.025409,-6.9157e-06,-0.00029737,-0.00011504,-0.00023921,-9.4783e-05,0.051,-0.015081,-0.015836,-0.0005982,-0.0012439,-0.00049287,0,0,0,0.025411,0.0001718,-0.00047791,0.012944,0.0083682,0.025573,8.5628e-07,0.75,0.8,0.7
0.039639,-0.0048521,-0.003025,0.025605,8.5036e-06,2.8781e-06,-0.00012652,6.1862e-05,-7.582e-05,0.051203,-0.015348,-0.015362,-0.0006579,0.00032168,-0.00039426,0,0,0,0.025607,0.00020458,-0.00019488,0.012901,0.0085388,0.025605,8.613e-07,0.8,0.8,0.7
0.042206,-0.004971,-0.0031562,0.025807,-1.6946e-05,0.00019277,-9.3901e-05,0.00029163,-2.4009e-05,0.051508,-0.015634,-0.015088,-0.00048828,0.0015165,-0.00012484,0,0,0,0.025808,0.00040507,-0.00023043,0.013019,0.0086609,0.025728,8.726e-07,0.85,0.8,0.7
0.04479,-0.0050598,-0.0032505,0.025981,-7.118e-05,0.00027318,-5.1127e-05,0.0004313,1.58e-05,0.051841,-0.015895,-0.015,-0.00026586,0.0022428,8.216e-05,0,0,0,0.025982,0.00057368,-0.00037234,0.013177,0.0087277,0.025895,8.8792e-07,0.9,0.8,0.7
0.04739,-0.0051133,-0.0033053,0.0261,-0.0001217,0.00028817,-3.65e-05,0.00049865,4.7358e-06,0.052101,-0.016076,-0.015011,-0.0001898,0.002593,2.4626e-05,0,0,0,0.026101,0.00063141,-0.0004653,0.013283,0.0087556,0.026035,9.0134e-07,0.95,0.8,0.7
0.048694,-0.0051311,-0.003323,0.026143,-0.00014156,0.00028683,-4.172e-05,0.00051777,-1.8491e-05,0.052199,-0.016141,-0.015027,-0.00021694,0.0026924,-9.6154e-05,0,0,0,0.026143,0.00064217,-0.00049718,0.01332,0.0087627,0.02609,9.0666e-07,1,0.8,0.7
0.00095963,-0.00059839,-0.0002953,0.025492,0.0091006,0.0096163,-0.0044193,5.542e-05,-0.0022368,0.039753,-0.0028636,-0.0015228,-0.02298,0.00028818,-0.011631,0,0,0,0.026919,0.0095262,0.0077634,0.0095777,0.014736,0.018342,3.1125e-07,0,0.85,0.7
0.0019877,-0.0011823,-0.00058191,0.02556,0.0074183,0.0083835,-0.0041144,0.00010749,-0.0021668,0.041639,-0.0055296,-0.0030201,-0.021395,0.00055892,-0.011267,0,0,0,0.026757,0.0082453,0.0063601,0.010198,0.013787,0.019528,3.7945e-07,0.05,0.85,0.7
0.0041639,-0.0022903,-0.0011314,0.026024,0.0046193,0.0062464,-0.0033403,0.00020577,-0.0019673,0.045528,-0.010124,-0.0058931,-0.017369,0.00107,-0.01023,0,0,0,0.026775,0.0060747,0.0040396,0.011368,0.012297,0.021797,5.2409e-07,0.1,0.85,0.7
0.0065405,-0.003238,-0.0016222,0.02661,0.0028311,0.0046256,-0.0023968,0.00029204,-0.0016724,0.048746,-0.013079,-0.0084133,-0.012464,0.0015186,-0.0086964,0,0,0,0.02701,0.0045107,0.0025455,0.012232,0.011356,0.02355,6.5802e-07,0.15,0.85,0.7
0.0090385,-0.0039796,-0.0020357,0.026808,0.0017582,0.0033549,-0.0015437,0.00036294,-0.0013295,0.050548,-0.014581,-0.01043,-0.0080274,0.0018873,-0.0069135,0,0,0,0.026999,0.0033308,0.0015915,0.012704,0.01064,0.024587,7.5115e-07,0.2,0.85,0.7
0.011595,-0.0045236,-0.0023616,0.026728,0.0011182,0.0023933,-0.00088838,0.00041073,-0.0009809,0.051349,-0.015236,-0.011921,-0.0046196,0.0021358,-0.0051007,0,0,0,0.02681,0.0024613,0.00096788,0.012921,0.01008,0.02513,8.0542e-07,0.25,0.85,0.7
0.014173,-0.0048982,-0.0025971,0.026514,0.00074057,0.0016943,-0.00041086,0.00042293,-0.00065269,0.051567,-0.015444,-0.012964,-0.0021364,0.0021992,-0.003394,0,0,0,0.026545,0.0018338,0.00057023,0.012987,0.0096496,0.025367,8.3129e-07,0.3,0.85,0.7
0.016752,-0.0051324,-0.0027451,0.026251,0.00051945,0.0011864,-5.9672e-05,0.00038084,-0.00035536,0.051479,-0.015424,-0.01369,-0.00031029,0.0019804,-0.0018479,0,0,0,0.026261,0.0013532,0.00034284,0.012959,0.009319,0.025429,8.3988e-07,0.35,0.85,0.7
0.019321,-0.0052525,-0.002813,0.025988,0.00037855,0.00078746,0.00020013,0.00026344,-9.6171e-05,0.051276,-0.015308,-0.014245,0.0010407,0.0013699,-0.00050009,0,0,0,0.025993,0.0009155,0.00024554,0.012874,0.0090512,0.02542,8.4133e-07,0.4,0.85,0.7
0.02188,-0.005286,-0.0028147,0.025754,0.00026123,0.00042797,0.00037487,6.0943e-05,0.00010767,0.051094,-0.015187,-0.014753,0.0019493,0.0003169,0.00055987,0,0,0,0.025761,0.00054179,0.00013983,0.012811,0.0088144,0.025424,8.4315e-07,0.45,0.85,0.7
0.024431,-0.0052655,-0.0027727,0.025568,0.00013785,7.5234e-05,0.00044977,-0.00020643,0.00022898,0.051007,-0.01511,-0.015273,0.0023388,-0.0010735,0.0011907,0,0,0,0.025578,0.00037135,-0.00016879,0.012873,0.0085935,0.025483,8.4815e-07,0.5,0.85,0.7
0.02698,-0.0052298,-0.0027193,0.025435,1.6461e-05,-0.00024486,0.00041126,-0.00047378,0.00024549,0.051007,-0.015081,-0.01576,0.0021386,-0.0024636,0.0012765,0,0,0,0.025444,0.000384,-0.00062175,0.013033,0.0084021,0.025581,8.5443e-07,0.55,0.85,0.7
0.029531,-0.0052171,-0.00269,0.025357,-7.0002e-05,-0.0004595,0.00027424,-0.00064584,0.00016487,0.051031,-0.015078,-0.016091,0.001426,-0.0033584,0.00085734,0,0,0,0.025361,0.00041792,-0.00095234,0.013157,0.0082757,0.025658,8.5865e-07,0.6,0.85,0.7
0.032083,-0.0052536,-0.0027098,0.02533,-9.7844e-05,-0.00051159,9.0651e-05,-0.00065102,3.439e-05,0.051025,-0.015087,-0.016162,0.00047139,-0.0033853,0.00017883,0,0,0,0.025331,0.00038616,-0.00099707,0.013164,0.0082402,0.025667,8.5938e-07,0.65,0.85,0.7
0.034634,-0.0053445,-0.0027832,0.02535,-7.0597e-05,-0.00040886,-7.2048e-05,-0.00048773,-8.2101e-05,0.050987,-0.015106,-0.015985,-0.00037465,-0.0025362,-0.00042693,0,0,0,0.025351,0.00028178,-0.00076235,0.013057,0.0082901,0.02561,8.5705e-07,0.7,0.85,0.7
0.037182,-0.0054743,-0.0028935,0.025409,-1.928e-05,-0.00022503,-0.00016516,-0.00022448,-0.00013925,0.050965,-0.015149,-0.015684,-0.00085881,-0.0011673,-0.00072408,0,0,0,0.025412,0.00015654,-0.00040293,0.012907,0.0083884,0.025541,8.538e-07,0.75,0.85,0.7
0.03973,-0.0056164,-0.0030138,0.025499,1.4317e-05,-5.2815e-05,-0.00018078,4.6259e-05,-0.00013311,0.051021,-0.015239,-0.015413,-0.00094006,0.00024055,-0.00069215,0,0,0,0.025501,0.00015072,-0.00019147,0.012846,0.0084868,0.025524,8.5331e-07,0.8,0.85,0.7
0.042284,-0.0057454,-0.003121,0.025604,9.5994e-06,5.6157e-05,-0.00014457,0.00026137,-9.1174e-05,0.051169,-0.015377,-0.015256,-0.00075178,0.0013591,-0.00047411,0,0,0,0.025606,0.00030248,-0.00023823,0.012922,0.0085567,0.025579,8.5802e-07,0.85,0.85,0.7
0.044847,-0.0058444,-0.0032014,0.025706,-2.2852e-05,0.00010105,-9.0575e-05,0.00040102,-4.5883e-05,0.051364,-0.01553,-0.015208,-0.00047099,0.0020853,-0.00023859,0,0,0,0.025706,0.00045096,-0.00037346,0.01304,0.0085946,0.025678,8.6654e-07,0.9,0.85,0.7
0.047421,-0.0059055,-0.0032498,0.025778,-5.7193e-05,0.00010858,-6.0825e-05,0.00047364,-3.1199e-05,0.051526,-0.015647,-0.015216,-0.00031629,0.0024629,-0.00016224,0,0,0,0.025779,0.00051333,-0.00046226,0.013121,0.00861,0.025768,8.746e-07,0.95,0.85,0.7
0.048709,-0.005926,-0.0032659,0.025805,-7.1311e-05,0.00010735,-5.8551e-05,0.00049541,-3.6338e-05,0.051589,-0.01569,-0.015226,-0.00030447,0.0025761,-0.00018896,0,0,0,0.025805,0.00052836,-0.00049259,0.013149,0.0086137,0.025803,8.7789e-07,1,0.85,0.7
0.0010065,-0.00076333,-0.00029328,0.026437,0.0085954,0.0097505,-0.0052964,4.1795e-05,-0.0022177,0.041867,-0.0045219,-0.0015186,-0.027541,0.00021733,-0.011532,0,0,0,0.028224,0.0096574,0.0069022,0.010661,0.014928,0.020099,3.9654e-07,0,0.9,0.7
0.0020934,-0.0014967,-0.0005779,0.026341,0.0064523,0.0083328,-0.0046506,8.4238e-05,-0.0021434,0.043812,-0.0078998,-0.0030105,-0.024183,0.00043804,-0.011146,0,0,0,0.027723,0.0081945,0.0052087,0.011257,0.013709,0.021194,4.6508e-07,0.05,0.9,0.7
0.0043812,-0.0028517,-0.0011233,0.026485,0.0033491,0.0060136,-0.0033213,0.00016759,-0.0019332,0.047353,-0.012801,-0.0058734,-0.017271,0.00087145,-0.010053,0,0,0,0.027208,0.0058476,0.0027925,0.012208,0.011949,0.023052,5.9683e-07,0.1,0.9,0.7
0.0068286,-0.0039388,-0.0016095,0.026656,0.0018826,0.0043668,-0.0020931,0.00024327,-0.0016232,0.049562,-0.014848,-0.0083894,-0.010884,0.001265,-0.0084406,0,0,0,0.026992,0.004255,0.0016578,0.012667,0.010968,0.024148,6.9542e-07,0.15,0.9,0.7
0.0093373,-0.0047379,-0.002018,0.026434,0.0010978,0.0030521,-0.0011883,0.00030339,-0.0012614,0.050378,-0.015496,-0.010415,-0.0061789,0.0015777,-0.0065595,0,0,0,0.026579,0.0030173,0.00098712,0.012796,0.010195,0.024644,7.5079e-07,0.2,0.9,0.7
0.011866,-0.0053004,-0.0023387,0.026138,0.00066671,0.0020763,-0.0005946,0.0003408,-0.00089326,0.05063,-0.015595,-0.01193,-0.0030919,0.0017721,-0.0046449,0,0,0,0.026196,0.0021181,0.000567,0.012814,0.009627,0.024892,7.8175e-07,0.25,0.9,0.7
0.0144,-0.0056763,-0.0025703,0.025877,0.0004314,0.0013891,-0.00020225,0.00034571,-0.00055048,0.050663,-0.015497,-0.013007,-0.0010517,0.0017977,-0.0028625,0,0,0,0.025897,0.0014906,0.00031019,0.012793,0.0092326,0.025019,7.9844e-07,0.3,0.9,0.7
0.016933,-0.0059048,-0.0027178,0.025673,0.00030185,0.00091258,7.0866e-05,0.00030459,-0.00025044,0.050617,-0.015348,-0.01376,0.00036851,0.0015839,-0.0013023,0,0,0,0.025679,0.0010375,0.00017096,0.012754,0.0089625,0.025087,8.0773e-07,0.35,0.9,0.7
0.019462,-0.0060177,-0.0027916,0.025529,0.00022067,0.00057039,0.0002662,0.00020385,-4.6365e-06,0.050583,-0.015218,-0.014309,0.0013843,0.00106,-2.4109e-05,0,0,0,0.025534,0.00066428,0.00012205,0.012706,0.0087733,0.025146,8.1528e-07,0.4,0.9,0.7
0.021991,-0.0060459,-0.0028073,0.025444,0.00014874,0.00030115,0.00039111,3.9855e-05,0.00017256,0.050618,-0.01515,-0.014753,0.0020338,0.00020725,0.0008973,0,0,0,0.025452,0.00038039,6.1321e-05,0.012696,0.0086313,0.025233,8.2475e-07,0.45,0.9,0.7
0.024524,-0.0060236,-0.0027865,0.02541,6.6943e-05,7.0627e-05,0.00043223,-0.00016804,0.00026316,0.050738,-0.015155,-0.015145,0.0022476,-0.00087381,0.0013684,0,0,0,0.025421,0.00027548,-0.00014841,0.012785,0.0085159,0.025361,8.3672e-07,0.5,0.9,0.7
0.027065,-0.0059888,-0.0027558,0.02541,-1.723e-05,-0.00011983,0.00037802,-0.00036959,0.00025704,0.050902,-0.015209,-0.015475,0.0019657,-0.0019219,0.0013366,0,0,0,0.025419,0.00030912,-0.0004549,0.012937,0.0084243,0.025502,8.4871e-07,0.55,0.9,0.7
0.029614,-0.0059776,-0.0027414,0.025422,-7.7343e-05,-0.0002447,0.00024207,-0.00049701,0.00016793,0.051038,-0.015261,-0.015696,0.0012588,-0.0025845,0.00087324,0,0,0,0.025427,0.00034799,-0.00067439,0.01305,0.0083667,0.025607,8.5719e-07,0.6,0.9,0.7
0.032169,-0.0060143,-0.0027616,0.025428,-9.2597e-05,-0.00028454,6.9057e-05,-0.00050085,3.6657e-05,0.051082,-0.015271,-0.01577,0.0003591,-0.0026044,0.00019061,0,0,0,0.025429,0.00032619,-0.00070461,0.013067,0.0083502,0.025636,8.6002e-07,0.65,0.9,0.7
0.034722,-0.0061041,-0.0028204,0.025422,-6.488e-05,-0.00024737,-8.3145e-05,-0.00038004,-8.4752e-05,0.051031,-0.015234,-0.015709,-0.00043235,-0.0019762,-0.00044071,0,0,0,0.025423,0.00023851,-0.00055194,0.012987,0.0083699,0.025591,8.5742e-07,0.7,0.9,0.7
0.037272,-0.0062328,-0.0029077,0.025413,-1.9018e-05,-0.00016957,-0.00017228,-0.00018186,-0.00015767,0.050939,-0.015184,-0.015575,-0.00089584,-0.00094566,-0.0008199,0,0,0,0.025415,0.00012589,-0.00031684,0.012866,0.008408,0.025515,8.5187e-07,0.75,0.9,0.7
0.039816,-0.006376,-0.0030055,0.025411,1.3589e-05,-9.656e-05,-0.00019001,2.8002e-05,-0.00017249,0.050872,-0.015162,-0.015448,-0.00098803,0.00014561,-0.00089696,0,0,0,0.025414,9.8012e-05,-0.00018373,0.012799,0.0084428,0.025459,8.4702e-07,0.8,0.9,0.7
0.042359,-0.0065087,-0.0030962,0.025423,1.8094e-05,-5.5047e-05,-0.0001573,0.00020084,-0.00014474,0.050868,-0.015185,-0.015375,-0.00081796,0.0010444,-0.00075263,0,0,0,0.025425,0.00019461,-0.00023359,0.012829,0.008462,0.025448,8.4543e-07,0.85,0.9,0.7
0.044903,-0.0066127,-0.0031671,0.025444,1.5051e-06,-4.4639e-05,-0.00010369,0.00031781,-9.7649e-05,0.050914,-0.015237,-0.015357,-0.00053918,0.0016526,-0.00050777,0,0,0,0.025445,0.0003033,-0.00034745,0.012896,0.008467,0.025474,8.4709e-07,0.9,0.9,0.7
0.04745,-0.006678,-0.0032115,0.025464,-1.8777e-05,-4.9462e-05,-7.0876e-05,0.00038141,-6.2176e-05,0.05097,-0.015287,-0.015366,-0.00036856,0.0019833,-0.00032332,0,0,0,0.025465,0.00035482,-0.0004235,0.012944,0.0084654,0.025509,8.4981e-07,0.95,0.9,0.7
0.048725,-0.0067001,-0.0032265,0.025473,-2.7462e-05,-5.3233e-05,-6.6633e-05,0.00040107,-5.2332e-05,0.050994,-0.015307,-0.015374,-0.00034649,0.0020856,-0.00027213,0,0,0,0.025473,0.00036847,-0.00044949,0.012961,0.008464,0.025524,8.5109e-07,1,0.9,0.7
0.001199,-0.0010506,-0.00029652,0.030025,0.0085658,0.010815,-0.0063821,2.3922e-05,-0.0022451,0.048421,-0.0073722,-0.001524,-0.033187,0.00012439,-0.011674,0,0,0,0.032225,0.010715,0.0064655,0.01288,0.016468,0.023941,6.8277e-07,0,0.95,0.7
0.002421,-0.0019723,-0.00058373,0.028689,0.0055511,0.0087619,-0.0049771,5.2269e-05,-0.0021697,0.048789,-0.011368,-0.00302,-0.025881,0.0002718,-0.011282,0,0,0,0.030184,0.0086161,0.0042013,0.012991,0.014334,0.0241,6.6725e-07,0.05,0.95,0.7
0.0048789,-0.0035705,-0.0011332,0.026863,0.0019048,0.0056856,-0.0027166,0.00011113,-0.0019514,0.049173,-0.01572,-0.0058898,-0.014126,0.0005779,-0.010147,0,0,0,0.027423,0.0055139,0.0015172,0.012953,0.011485,0.024172,6.6068e-07,0.1,0.95,0.7
0.0073383,-0.0047228,-0.0016216,0.025949,0.00092176,0.0038549,-0.0013983,0.0001665,-0.0016227,0.049032,-0.016039,-0.0084128,-0.0072711,0.0008658,-0.0084381,0,0,0,0.026185,0.0037364,0.00080464,0.01269,0.010242,0.024057,6.7919e-07,0.15,0.95,0.7
0.0097822,-0.0055292,-0.0020302,0.025307,0.00042304,0.0024949,-0.00068186,0.00020852,-0.0012342,0.048863,-0.015835,-0.010448,-0.0035457,0.0010843,-0.0064179,0,0,0,0.025409,0.0024432,0.00037263,0.012518,0.0094082,0.024073,6.994e-07,0.2,0.95,0.7
0.012225,-0.0060831,-0.0023488,0.024986,0.00020724,0.0015695,-0.00028085,0.00023298,-0.00083535,0.048905,-0.015519,-0.011977,-0.0014604,0.0012115,-0.0043438,0,0,0,0.025026,0.0015792,0.00015683,0.012435,0.0089208,0.024193,7.1985e-07,0.25,0.95,0.7
0.014673,-0.0064479,-0.0025764,0.024848,0.00011041,0.00095341,-3.882e-05,0.00023409,-0.00046424,0.049057,-0.01526,-0.013068,-0.00020187,0.0012173,-0.002414,0,0,0,0.024861,0.0010089,4.17e-05,0.01241,0.0086371,0.024352,7.3865e-07,0.3,0.95,0.7
0.01713,-0.0066671,-0.0027195,0.024829,7.1176e-05,0.00055495,0.00012276,0.0002038,-0.00014514,0.049281,-0.015088,-0.01383,0.00063836,0.0010597,-0.00075475,0,0,0,0.024833,0.00063072,-8.6144e-06,0.012421,0.0084849,0.024529,7.5687e-07,0.35,0.95,0.7
0.019601,-0.0067743,-0.0027903,0.024899,5.4337e-05,0.00030027,0.00023613,0.00013444,0.00010493,0.049586,-0.015011,-0.014372,0.0012279,0.00069911,0.00054561,0,0,0,0.024904,0.00036035,-1.0154e-05,0.012457,0.0084179,0.024731,7.7666e-07,0.4,0.95,0.7
0.022089,-0.0068009,-0.0028064,0.025039,3.8407e-05,0.00013357,0.0003053,2.5488e-05,0.00027006,0.049975,-0.015027,-0.014779,0.0015876,0.00013254,0.0014043,0,0,0,0.025047,0.00018816,-2.3992e-05,0.012536,0.0084037,0.024966,7.9927e-07,0.45,0.95,0.7
0.024598,-0.006781,-0.0027898,0.025219,1.2871e-05,1.7759e-05,0.00031992,-0.00010865,0.00033665,0.050421,-0.015117,-0.015104,0.0016636,-0.00056497,0.0017506,0,0,0,0.025229,0.00015168,-0.00013044,0.01268,0.0084167,0.02522,8.2354e-07,0.5,0.95,0.7
0.027131,-0.0067506,-0.002765,0.025397,-1.8949e-05,-6.4567e-05,0.00027161,-0.00023573,0.00030245,0.050845,-0.015237,-0.015356,0.0014124,-0.0012258,0.0015728,0,0,0,0.025405,0.00020211,-0.00029296,0.012849,0.0084379,0.025455,8.4579e-07,0.55,0.95,0.7
0.029683,-0.0067432,-0.0027548,0.025527,-4.2794e-05,-0.00011642,0.00016934,-0.0003151,0.00018675,0.051149,-0.015332,-0.015523,0.00088058,-0.0016385,0.00097108,0,0,0,0.02553,0.00024429,-0.00040697,0.012969,0.0084558,0.025619,8.6141e-07,0.6,0.95,0.7
0.032246,-0.0067807,-0.0027746,0.025577,-4.6099e-05,-0.00013821,4.347e-05,-0.00031784,3.081e-05,0.051264,-0.015355,-0.015595,0.00022605,-0.0016528,0.00016021,0,0,0,0.025578,0.00023512,-0.00042049,0.012999,0.0084641,0.025678,8.6734e-07,0.65,0.95,0.7
0.034809,-0.0068679,-0.0028282,0.025543,-2.9506e-05,-0.00013737,-6.6482e-05,-0.00024334,-0.00011543,0.051187,-0.015303,-0.015583,-0.00034571,-0.0012654,-0.00060025,0,0,0,0.025545,0.00017155,-0.00033981,0.012942,0.0084588,0.025634,8.6366e-07,0.7,0.95,0.7
0.037364,-0.0069927,-0.0029081,0.025451,-6.9186e-06,-0.00012917,-0.0001315,-0.00011923,-0.00021298,0.050983,-0.015207,-0.015525,-0.00068382,-0.00061998,-0.0011075,0,0,0,0.025454,8.527e-05,-0.00022428,0.012839,0.0084382,0.025525,8.536e-07,0.75,0.95,0.7
0.039907,-0.0071325,-0.003,0.025337,5.7331e-06,-0.00012893,-0.00014556,1.5148e-05,-0.00024675,0.050747,-0.015113,-0.015463,-0.00075694,7.8768e-05,-0.0012831,0,0,0,0.02534,4.8209e-05,-0.00017505,0.012758,0.0084044,0.025404,8.4186e-07,0.8,0.95,0.7
0.042439,-0.0072638,-0.003088,0.025234,2.3848e-06,-0.00014272,-0.00012243,0.00012862,-0.00022437,0.050553,-0.01505,-0.015428,-0.00063663,0.00066885,-0.0011667,0,0,0,0.025237,8.6761e-05,-0.00023009,0.012734,0.0083647,0.025311,8.3234e-07,0.85,0.95,0.7
0.044963,-0.0073681,-0.0031589,0.025162,-1.1719e-05,-0.00016532,-8.2333e-05,0.00020724,-0.00016467,0.050431,-0.015022,-0.015421,-0.00042813,0.0010777,-0.00085626,0,0,0,0.025164,0.00013975,-0.00031849,0.012741,0.0083284,0.025257,8.2657e-07,0.9,0.95,0.7
0.047482,-0.0074342,-0.0032045,0.025123,-2.6187e-05,-0.00018559,-6.1909e-05,0.00025089,-0.00010116,0.050372,-0.015015,-0.015429,-0.00032193,0.0013046,-0.00052601,0,0,0,0.025123,0.00016609,-0.0003786,0.012751,0.0083036,0.025234,8.2401e-07,0.95,0.95,0.7
0.048741,-0.0074567,-0.0032201,0.02511,-3.2123e-05,-0.00019361,-6.3308e-05,0.00026457,-7.4218e-05,0.050356,-0.015014,-0.015434,-0.0003292,0.0013758,-0.00038594,0,0,0,0.025111,0.00017304,-0.00039922,0.012755,0.0082948,0.025229,8.2337e-07,1,0.95,0.7
0.0013586,-0.0012403,-0.00029975,0.032963,0.0089303,0.011803,-0.0070452,1.5609e-05,-0.0022739,0.053486,-0.0089992,-0.0015295,-0.036635,8.1165e-05,-0.011824,0,0,0,0.035402,0.0117,0.0065951,0.014403,0.017899,0.026649,9.1211e-07,0,1,0.7
0.0026743,-0.0022652,-0.00058966,0.030497,0.0053042,0.0092252,-0.0051247,3.6849e-05,-0.0021994,0.052277,-0.013225,-0.0030304,-0.026648,0.00019162,-0.011437,0,0,0,0.032047,0.0090741,0.0039053,0.014071,0.015009,0.025966,8.1491e-07,0.05,1,0.7
0.0052277,-0.0039742,-0.0011438,0.026933,0.001193,0.0054831,-0.0022791,8.262e-05,-0.0019782,0.049861,-0.017064,-0.0059095,-0.011852,0.00042963,-0.010287,0,0,0,0.02739,0.0053047,0.00091437,0.013238,0.011203,0.024594,6.8409e-07,0.1,1,0.7
0.0076604,-0.0051305,-0.0016355,0.025249,0.0004197,0.0034804,-0.0009801,0.00012637,-0.0016385,0.048158,-0.016398,-0.0084404,-0.0050965,0.00065712,-0.0085203,0,0,0,0.025435,0.0033552,0.00035898,0.012538,0.0097164,0.02373,6.4928e-07,0.15,1,0.7
0.010043,-0.0059277,-0.0020458,0.024468,5.341e-05,0.0021157,-0.00042195,0.0001584,-0.0012335,0.047635,-0.015843,-0.010481,-0.0021942,0.00082369,-0.006414,0,0,0,0.024554,0.0020546,2.8735e-05,0.012263,0.0088791,0.023584,6.5745e-07,0.2,1,0.7
0.012424,-0.0064717,-0.0023642,0.024227,-4.9369e-05,0.0012465,-0.00013907,0.00017629,-0.00081482,0.047735,-0.015383,-0.012013,-0.00072318,0.00091671,-0.0042371,0,0,0,0.024262,0.0012406,-7.8938e-05,0.012171,0.0084746,0.023712,6.7833e-07,0.25,1,0.7
0.014817,-0.0068292,-0.0025897,0.024211,-7.3708e-05,0.00068806,2.1121e-05,0.0001763,-0.00042408,0.048054,-0.015087,-0.013106,0.00010983,0.00091678,-0.0022052,0,0,0,0.024223,0.0007217,-0.00011859,0.012171,0.0082752,0.023934,7.0187e-07,0.3,1,0.7
0.017229,-0.0070438,-0.0027291,0.024325,-6.3468e-05,0.00034436,0.00012559,0.00015294,-8.8957e-05,0.048482,-0.014929,-0.013868,0.00065307,0.00079529,-0.00046258,0,0,0,0.024329,0.00039707,-0.0001195,0.012224,0.0082021,0.024195,7.2682e-07,0.35,1,0.7
0.019665,-0.0071491,-0.0027957,0.024532,-4.2367e-05,0.00014386,0.00019838,0.00010108,0.0001702,0.049004,-0.01489,-0.014406,0.0010316,0.00052563,0.00088503,0,0,0,0.024537,0.00018952,-9.2314e-05,0.012314,0.0082113,0.02449,7.5438e-07,0.4,1,0.7
0.02213,-0.0071763,-0.0028077,0.024809,-2.3495e-05,3.3746e-05,0.0002414,2.0927e-05,0.0003351,0.049613,-0.014953,-0.014804,0.0012553,0.00010882,0.0017425,0,0,0,0.024817,8.0212e-05,-7.7731e-05,0.012447,0.0082732,0.024816,7.8515e-07,0.45,1,0.7
0.024626,-0.0071588,-0.002788,0.025119,-1.418e-05,-2.4345e-05,0.00024599,-7.6477e-05,0.00039185,0.050261,-0.015085,-0.015112,0.0012791,-0.00039768,0.0020376,0,0,0,0.025128,8.1811e-05,-0.00012945,0.012629,0.0083602,0.025153,8.1729e-07,0.5,1,0.7
0.027156,-0.0071317,-0.0027613,0.025405,-1.3895e-05,-5.5019e-05,0.00020553,-0.00016778,0.00034021,0.050851,-0.015238,-0.015345,0.0010688,-0.00087247,0.0017691,0,0,0,0.025412,0.00014426,-0.00022007,0.012816,0.0084453,0.025452,8.4628e-07,0.55,1,0.7
0.029712,-0.0071267,-0.0027501,0.025606,-1.5482e-05,-7.1783e-05,0.00012655,-0.00022453,0.00020266,0.051264,-0.015351,-0.015498,0.00065808,-0.0011676,0.0010538,0,0,0,0.025609,0.00019161,-0.00028201,0.012945,0.0085061,0.025658,8.6651e-07,0.6,1,0.7
0.032282,-0.0071648,-0.0027694,0.025681,-1.2104e-05,-8.2449e-05,3.1163e-05,-0.00022686,2.3602e-05,0.051419,-0.015383,-0.015566,0.00016205,-0.0011797,0.00012273,0,0,0,0.025682,0.00019039,-0.00028595,0.012984,0.0085288,0.025733,8.7417e-07,0.65,1,0.7
0.034853,-0.0072507,-0.0028231,0.025628,-3.8048e-06,-9.3937e-05,-5.1865e-05,-0.00017436,-0.00014409,0.051314,-0.015328,-0.015562,-0.0002697,-0.00090669,-0.00074926,0,0,0,0.02563,0.00013877,-0.00023815,0.012934,0.0085101,0.025682,8.6929e-07,0.7,1,0.7
0.037414,-0.0073729,-0.002904,0.025483,2.5116e-06,-0.00011304,-0.00010125,-8.6013e-05,-0.00025829,0.051032,-0.015217,-0.015517,-0.00052648,-0.00044727,-0.0013431,0,0,0,0.025486,6.5499e-05,-0.0001795,0.012833,0.0084574,0.025544,8.5581e-07,0.75,1,0.7
0.039957,-0.0075102,-0.002998,0.025301,-4.2366e-07,-0.00014334,-0.00011226,1.0659e-05,-0.00030075,0.050688,-0.015095,-0.015467,-0.00058377,5.5425e-05,-0.0015639,0,0,0,0.025305,2.4328e-05,-0.00017251,0.012739,0.0083857,0.02538,8.3952e-07,0.8,1,0.7
0.042482,-0.0076396,-0.0030888,0.025133,-1.3615e-05,-0.00018212,-9.4892e-05,9.3122e-05,-0.00027702,0.050383,-0.014998,-0.015436,-0.00049344,0.00048423,-0.0014405,0,0,0,0.025137,3.3277e-05,-0.00023276,0.012685,0.0083124,0.025238,8.2531e-07,0.85,1,0.7
0.044995,-0.0077429,-0.0031629,0.025009,-3.1507e-05,-0.00022094,-6.4213e-05,0.00015075,-0.00020612,0.050169,-0.014936,-0.015428,-0.00033391,0.00078389,-0.0010718,0,0,0,0.025011,5.5792e-05,-0.00031043,0.012661,0.0082522,0.025141,8.1556e-07,0.9,1,0.7
0.047499,-0.0078086,-0.0032107,0.024937,-4.6305e-05,-0.00024953,-5.3233e-05,0.00018296,-0.00012477,0.050051,-0.014905,-0.015433,-0.00027681,0.00095138,-0.00064879,0,0,0,0.024938,6.6729e-05,-0.0003635,0.012651,0.0082137,0.025089,8.1036e-07,0.95,1,0.7
0.04875,-0.007831,-0.0032272,0.024914,-5.1971e-05,-0.00026002,-5.9072e-05,0.00019309,-8.7872e-05,0.050015,-0.014896,-0.015437,-0.00030717,0.0010041,-0.00045693,0,0,0,0.024914,6.9241e-05,-0.00038176,0.012648,0.0082006,0.025074,8.088e-07,1,1,0.7
0.0013343,0.0011999,-0.00035156,0.032395,0.0087596,0.011498,0.0068033,-7.8068e-06,-0.0026496,0.052635,-0.0088161,-0.001697,0.035377,-4.0595e-05,-0.013778,0,0,0,0.034809,0.011361,0.006482,0.014164,0.017551,0.02625,8.7655e-07,0,0,0.75
0.0026317,0.0021874,-0.00069629,0.03002,0.0051958,0.0088859,0.0049308,-2.3749e-05,-0.0025452,0.051591,-0.012952,-0.0033576,0.02564,-0.00012349,-0.013235,0,0,0,0.031574,0.0086888,0.0038384,0.013868,0.014701,0.025675,7.9665e-07,0.05,0,0.75
0.0051591,0.0038278,-0.0013618,0.026633,0.0011639,0.005087,0.0021533,-6.1316e-05,-0.0022464,0.049516,-0.016704,-0.0065043,0.011197,-0.00031884,-0.011681,0,0,0,0.02712,0.0048607,0.00090358,0.013108,0.010961,0.0245,6.8944e-07,0.1,0,0.75
0.0075833,0.0049292,-0.001962,0.025094,0.00042187,0.0030726,0.00088372,-9.7713e-05,-0.0018043,0.048091,-0.016056,-0.0091642,0.0045953,-0.00050811,-0.0093822,0,0,0,0.025297,0.0029209,0.00036991,0.012464,0.0095293,0.023766,6.6223e-07,0.15,0,0.75
0.0099682,0.0056879,-0.0024704,0.024408,7.6586e-05,0.0017528,0.00034272,-0.00011871,-0.0013057,0.047719,-0.015544,-0.011185,0.0017821,-0.00061727,-0.0067895,0,0,0,0.024499,0.0016803,5.81e-05,0.012221,0.0087459,0.023678,6.7143e-07,0.2,0,0.75
0.012355,0.0062122,-0.0028774,0.024228,-1.9767e-05,0.00095483,7.7177e-05,-0.00012368,-0.00083642,0.047895,-0.015149,-0.012615,0.00040132,-0.00064313,-0.0043494,0,0,0,0.024264,0.0009403,-4.1217e-05,0.012153,0.0083877,0.023833,6.9186e-07,0.25,0,0.75
0.014758,0.0065719,-0.0031875,0.02425,-5.0858e-05,0.00046354,-5.8466e-05,-0.0001155,-0.00044609,0.048253,-0.01493,-0.013592,-0.00030403,-0.0006006,-0.0023197,0,0,0,0.024261,0.00048533,-8.4073e-05,0.012173,0.0082209,0.024067,7.1515e-07,0.3,0,0.75
0.01718,0.006813,-0.0034134,0.024373,-5.7125e-05,0.000168,-0.00012833,-9.7791e-05,-0.00015013,0.048679,-0.014839,-0.014253,-0.00066731,-0.00050851,-0.00078066,0,0,0,0.024376,0.00021329,-0.00010547,0.012241,0.0081612,0.024324,7.3913e-07,0.35,0,0.75
0.019626,0.0069688,-0.0035709,0.024547,-5.5842e-05,-3.135e-06,-0.00016032,-7.4164e-05,5.5569e-05,0.049129,-0.014838,-0.014701,-0.00083365,-0.00038565,0.00028896,0,0,0,0.024549,6.1624e-05,-0.00012247,0.012336,0.0081626,0.02458,7.629e-07,0.4,0,0.75
0.022093,0.0070646,-0.0036759,0.024743,-5.255e-05,-9.5335e-05,-0.00016787,-4.8113e-05,0.00018318,0.049576,-0.014894,-0.015005,-0.0008729,-0.00025019,0.00095254,0,0,0,0.024746,-1.2024e-05,-0.00013869,0.012442,0.0081985,0.024822,7.8566e-07,0.45,0,0.75
0.024583,0.0071205,-0.0037427,0.02494,-4.9079e-05,-0.00013906,-0.00015815,-2.305e-05,0.00024728,0.049994,-0.014979,-0.015213,-0.00082235,-0.00011986,0.0012858,0,0,0,0.024944,-3.9791e-05,-0.00015198,0.012548,0.0082507,0.02504,8.065e-07,0.5,0,0.75
0.027093,0.0071523,-0.0037839,0.025119,-4.5531e-05,-0.00015513,-0.0001361,-2.1549e-06,0.00026268,0.050358,-0.015069,-0.015354,-0.00070773,-1.1206e-05,0.0013659,0,0,0,0.025123,-4.3841e-05,-0.00016042,0.012642,0.0083061,0.025225,8.2443e-07,0.55,0,0.75
0.029619,0.0071722,-0.0038093,0.025265,-4.1389e-05,-0.00015772,-0.00010632,1.203e-05,0.00024377,0.05065,-0.015147,-0.01545,-0.00055288,6.2558e-05,0.0012676,0,0,0,0.025268,-3.8647e-05,-0.00016337,0.012716,0.0083555,0.02537,8.3865e-07,0.6,0,0.75
0.032158,0.0071888,-0.0038263,0.025372,-3.619e-05,-0.00015612,-7.3599e-05,1.8097e-05,0.00020406,0.050859,-0.015202,-0.015513,-0.00038271,9.4107e-05,0.0010611,0,0,0,0.025374,-3.2182e-05,-0.00016208,0.012768,0.0083931,0.025471,8.487e-07,0.65,0,0.75
0.034705,0.0072068,-0.0038398,0.025436,-2.9947e-05,-0.00015575,-4.26e-05,1.6104e-05,0.00015546,0.050983,-0.015228,-0.015555,-0.00022152,8.3739e-05,0.00080837,0,0,0,0.025437,-2.6827e-05,-0.00015997,0.012798,0.0084166,0.02553,8.5463e-07,0.7,0,0.75
0.037256,0.0072279,-0.0038521,0.025462,-2.3207e-05,-0.00015896,-1.7162e-05,7.5473e-06,0.00010755,0.051034,-0.015228,-0.015581,-8.9243e-05,3.9246e-05,0.00055925,0,0,0,0.025463,-2.1894e-05,-0.0001608,0.012812,0.0084266,0.025554,8.5702e-07,0.75,0,0.75
0.039808,0.0072512,-0.0038642,0.025461,-1.6806e-05,-0.00016582,3.7323e-07,-5.0329e-06,6.6875e-05,0.051031,-0.01521,-0.015598,1.9408e-06,-2.6171e-05,0.00034775,0,0,0,0.025461,-1.5898e-05,-0.00016693,0.012814,0.008426,0.025552,8.5681e-07,0.8,0,0.75
0.042359,0.0072741,-0.0038755,0.025443,-1.1496e-05,-0.00017479,9.4088e-06,-1.8675e-05,3.6705e-05,0.050997,-0.015184,-0.015608,4.8926e-05,-9.711e-05,0.00019086,0,0,0,0.025443,-8.6892e-06,-0.00017767,0.01281,0.0084188,0.025536,8.5514e-07,0.85,0,0.75
0.044908,0.0072934,-0.0038849,0.02542,-7.6973e-06,-0.00018361,1.0899e-05,-3.0602e-05,1.7252e-05,0.050955,-0.015157,-0.015615,5.6676e-05,-0.00015913,8.9709e-05,0,0,0,0.02542,-1.7209e-06,-0.00018961,0.012805,0.0084095,0.025516,8.5309e-07,0.9,0,0.75
0.047455,0.0073063,-0.0038911,0.025402,-5.487e-06,-0.00019,1.1429e-05,-3.865e-05,4.1179e-06,0.050921,-0.015138,-0.015618,5.943e-05,-0.00020098,2.1413e-05,0,0,0,0.025402,3.2214e-06,-0.00019872,0.0128,0.0084022,0.0255,8.5149e-07,0.95,0,0.75
0.048727,0.0073109,-0.0038933,0.025395,-4.7704e-06,-0.00019233,1.2895e-05,-4.1483e-05,-1.82e-06,0.050909,-0.015131,-0.015619,6.7056e-05,-0.00021571,-9.4641e-06,0,0,0,0.025395,4.989e-06,-0.0002021,0.012799,0.0083995,0.025495,8.509e-07,1,0,0.75
0.00118,0.001014,-0.00034957,0.029556,0.008419,0.010544,0.0061449,-1.556e-05,-0.0026305,0.047733,-0.007222,-0.0016961,0.031954,-8.0913e-05,-0.013678,0,0,0,0.031739,0.010413,0.0063664,0.012687,0.016173,0.023629,6.6025e-07,0,0.05,0.75
0.0023867,0.0019005,-0.00069255,0.028271,0.0054496,0.0084382,0.0047723,-3.7252e-05,-0.0025239,0.048209,-0.011126,-0.0033559,0.024816,-0.00019371,-0.013124,0,0,0,0.02977,0.008249,0.0041403,0.012815,0.014053,0.02386,6.5582e-07,0.05,0.05,0.75
0.0048209,0.0034328,-0.0013548,0.026552,0.001866,0.0052751,0.0025604,-8.429e-05,-0.0022238,0.04882,-0.015365,-0.0065009,0.013314,-0.00043831,-0.011564,0,0,0,0.027131,0.0050575,0.0015052,0.012813,0.011231,0.024066,6.6475e-07,0.1,0.05,0.75
0.0072687,0.0045306,-0.0019523,0.025736,0.00091393,0.003415,0.0012681,-0.00012755,-0.0017857,0.048874,-0.015663,-0.0091596,0.006594,-0.00066324,-0.0092859,0,0,0,0.025981,0.0032704,0.00081351,0.012584,0.010022,0.024043,6.8834e-07,0.15,0.05,0.75
0.0097083,0.0052977,-0.0024588,0.025164,0.0004346,0.0020891,0.00057009,-0.00015332,-0.001295,0.048814,-0.015483,-0.011181,0.0029645,-0.00079726,-0.0067341,0,0,0,0.025266,0.0020247,0.00039684,0.012435,0.0092293,0.024102,7.086e-07,0.2,0.05,0.75
0.01215,0.0058303,-0.0028648,0.024894,0.00022249,0.0012286,0.00018977,-0.00015969,-0.00083482,0.048917,-0.015228,-0.012612,0.0009868,-0.00083038,-0.0043411,0,0,0,0.024932,0.0012255,0.00018741,0.012372,0.0087816,0.024245,7.2827e-07,0.25,0.05,0.75
0.0146,0.0061954,-0.0031748,0.024795,0.00011446,0.0006773,-2.1148e-05,-0.0001492,-0.00045245,0.049115,-0.015054,-0.013591,-0.00010997,-0.00077586,-0.0023528,0,0,0,0.024807,0.00071263,6.7346e-05,0.01237,0.0085289,0.024424,7.4732e-07,0.3,0.05,0.75
0.017062,0.0064391,-0.0034014,0.024802,5.4498e-05,0.00033062,-0.00013759,-0.00012594,-0.00016222,0.049373,-0.014971,-0.014253,-0.00071545,-0.00065486,-0.00084356,0,0,0,0.024805,0.00038692,-5.152e-06,0.012405,0.0083957,0.024617,7.6615e-07,0.35,0.05,0.75
0.019537,0.0065954,-0.00356,0.024875,1.7023e-05,0.00011762,-0.00019665,-9.4357e-05,4.0212e-05,0.04967,-0.014962,-0.0147,-0.0010226,-0.00049066,0.0002091,0,0,0,0.024878,0.00018399,-5.1728e-05,0.012465,0.0083366,0.024813,7.8479e-07,0.4,0.05,0.75
0.022029,0.0066902,-0.0036664,0.024987,-8.8558e-06,-8.5838e-06,-0.0002175,-5.9112e-05,0.0001668,0.049984,-0.015005,-0.015004,-0.001131,-0.00030738,0.00086738,0,0,0,0.02499,6.1917e-05,-8.2809e-05,0.012536,0.0083231,0.025001,8.0284e-07,0.45,0.05,0.75
0.024536,0.0067443,-0.0037346,0.025114,-2.7626e-05,-7.9534e-05,-0.00021094,-2.4958e-05,0.00023165,0.050291,-0.015076,-0.015211,-0.0010969,-0.00012978,0.0012046,0,0,0,0.025118,-4.7549e-06,-0.00010662,0.012612,0.0083355,0.025174,8.1954e-07,0.5,0.05,0.75
0.027058,0.0067742,-0.0037771,0.025237,-4.0467e-05,-0.00011667,-0.00018465,3.5297e-06,0.00024903,0.050568,-0.015153,-0.015351,-0.00096017,1.8354e-05,0.001295,0,0,0,0.025241,-3.1405e-05,-0.00012978,0.012685,0.0083599,0.025322,8.3401e-07,0.55,0.05,0.75
0.029593,0.0067925,-0.0038038,0.025342,-4.7164e-05,-0.00013453,-0.00014569,2.2623e-05,0.00023283,0.050793,-0.015219,-0.015446,-0.00075758,0.00011764,0.0012107,0,0,0,0.025345,-3.5445e-05,-0.00014943,0.012747,0.0083868,0.025438,8.4548e-07,0.6,0.05,0.75
0.032137,0.0068079,-0.0038218,0.02542,-4.75e-05,-0.00014281,-0.00010135,3.0219e-05,0.0001961,0.050955,-0.015261,-0.015509,-0.00052701,0.00015714,0.0010197,0,0,0,0.025422,-3.3552e-05,-0.00015883,0.012791,0.00841,0.025519,8.535e-07,0.65,0.05,0.75
0.034688,0.0068254,-0.0038361,0.025468,-4.2152e-05,-0.00014761,-5.8676e-05,2.6361e-05,0.00015044,0.051049,-0.015276,-0.015551,-0.00030511,0.00013708,0.00078228,0,0,0,0.025469,-3.1954e-05,-0.00015894,0.012814,0.008426,0.025565,8.5809e-07,0.7,0.05,0.75
0.037242,0.0068467,-0.0038491,0.025487,-3.2871e-05,-0.00015232,-2.3413e-05,1.3218e-05,0.00010511,0.051086,-0.015267,-0.015577,-0.00012175,6.8735e-05,0.00054655,0,0,0,0.025488,-2.8603e-05,-0.00015711,0.012823,0.0084341,0.025581,8.5972e-07,0.75,0.05,0.75
0.039797,0.0068705,-0.0038617,0.025486,-2.2012e-05,-0.00015825,9.2974e-07,-5.5245e-06,6.6399e-05,0.05108,-0.01524,-0.015595,4.8347e-06,-2.8727e-05,0.00034527,0,0,0,0.025486,-1.9797e-05,-0.00016068,0.012823,0.0084351,0.025576,8.5924e-07,0.8,0.05,0.75
0.04235,0.0068941,-0.0038733,0.025472,-1.181e-05,-0.00016512,1.3424e-05,-2.559e-05,3.7409e-05,0.051049,-0.015207,-0.015606,6.9805e-05,-0.00013307,0.00019452,0,0,0,0.025472,-5.7456e-06,-0.00017127,0.012821,0.0084315,0.025561,8.576e-07,0.85,0.05,0.75
0.044901,0.0069141,-0.0038828,0.025454,-3.8364e-06,-0.00017171,1.5391e-05,-4.3005e-05,1.8312e-05,0.051013,-0.015177,-0.015613,8.0031e-05,-0.00022363,9.5225e-05,0,0,0,0.025454,8.8607e-06,-0.00018444,0.012819,0.0084261,0.025542,8.5571e-07,0.9,0.05,0.75
0.047451,0.0069276,-0.0038891,0.02544,1.1116e-06,-0.00017649,1.441e-05,-5.4705e-05,4.828e-06,0.050985,-0.015156,-0.015618,7.4933e-05,-0.00028447,2.5106e-05,0,0,0,0.02544,1.9287e-05,-0.00019468,0.012817,0.0084216,0.025528,8.5428e-07,0.95,0.05,0.75
0.048726,0.0069323,-0.0038913,0.025435,2.7743e-06,-0.00017823,1.4792e-05,-5.8813e-05,-1.4385e-06,0.050975,-0.015148,-0.015619,7.6918e-05,-0.00030583,-7.4801e-06,0,0,0,0.025435,2.3007e-05,-0.00019848,0.012817,0.0084198,0.025523,8.5376e-07,1,0.05,0.75
0.00099284,0.00073261,-0.00034794,0.026065,0.0084643,0.0095083,0.0050696,-3.1963e-05,-0.002615,0.041347,-0.0044157,-0.0017012,0.026362,-0.00016621,-0.013598,0,0,0,0.027853,0.0093929,0.0067919,0.010531,0.014679,0.0199,3.8823e-07,0,0.1,0.75
0.0020674,0.0014355,-0.00068965,0.025975,0.0063482,0.0080133,0.0044323,-6.5545e-05,-0.0025069,0.043333,-0.0076965,-0.0033673,0.023048,-0.00034083,-0.013036,0,0,0,0.027361,0.0078416,0.0051339,0.011114,0.013446,0.021018,4.602e-07,0.05,0.1,0.75
0.0043333,0.0027315,-0.0013497,0.02614,0.003295,0.0055677,0.0031191,-0.00013139,-0.0022059,0.046961,-0.012434,-0.0065253,0.016219,-0.00068321,-0.01147,0,0,0,0.026864,0.0053626,0.0027753,0.012044,0.011667,0.022919,5.9705e-07,0.1,0.1,0.75
0.0067635,0.0037671,-0.0019454,0.02634,0.0018666,0.003864,0.0019055,-0.00018706,-0.0017708,0.049241,-0.014389,-0.0091958,0.0099084,-0.00097271,-0.0092081,0,0,0,0.02667,0.003728,0.0016728,0.012498,0.01069,0.024044,6.9671e-07,0.15,0.1,0.75
0.0092574,0.0045266,-0.0024503,0.026147,0.0011024,0.0025626,0.0010159,-0.00022132,-0.0012864,0.050095,-0.015021,-0.011224,0.0052829,-0.0011509,-0.0066893,0,0,0,0.02628,0.0025157,0.0010162,0.012632,0.0099373,0.024553,7.5033e-07,0.2,0.1,0.75
0.011773,0.005065,-0.002855,0.025885,0.00067109,0.0016379,0.0004447,-0.00023027,-0.00083412,0.050384,-0.015171,-0.012658,0.0023124,-0.0011974,-0.0043374,0,0,0,0.025931,0.0016636,0.00059869,0.012666,0.0093979,0.024819,7.8036e-07,0.25,0.1,0.75
0.014296,0.0054364,-0.0031642,0.025671,0.00041485,0.001009,9.1025e-05,-0.00021549,-0.00045896,0.050489,-0.015179,-0.013634,0.00047333,-0.0011205,-0.0023866,0,0,0,0.025685,0.0010788,0.00033168,0.012677,0.0090318,0.024989,7.9921e-07,0.3,0.1,0.75
0.016822,0.005684,-0.0033903,0.02553,0.00025172,0.00058937,-0.00012206,-0.00018139,-0.00017385,0.050556,-0.015168,-0.01429,-0.00063469,-0.00094323,-0.00090403,0,0,0,0.025534,0.00067479,0.00016261,0.012686,0.0087905,0.02512,8.1319e-07,0.35,0.1,0.75
0.019351,0.0058411,-0.0035485,0.025456,0.00014,0.00031297,-0.00024179,-0.00013379,2.5849e-05,0.050641,-0.015182,-0.014732,-0.0012573,-0.00069572,0.00013441,0,0,0,0.02546,0.00039056,5.9299e-05,0.0127,0.0086365,0.025237,8.2527e-07,0.4,0.1,0.75
0.021886,0.0059345,-0.0036544,0.025435,5.8493e-05,0.00013312,-0.00029583,-7.9507e-05,0.00015162,0.050755,-0.015224,-0.01503,-0.0015383,-0.00041344,0.00078843,0,0,0,0.02544,0.00018844,-1.5322e-06,0.012721,0.0085423,0.025347,8.3647e-07,0.45,0.1,0.75
0.024427,0.0059857,-0.0037225,0.025449,-2.5742e-06,1.7893e-05,-0.00030124,-2.6145e-05,0.00021671,0.050888,-0.015285,-0.015232,-0.0015664,-0.00013595,0.0011269,0,0,0,0.025454,5.6198e-05,-4.65e-05,0.01275,0.008488,0.02545,8.4675e-07,0.5,0.1,0.75
0.026975,0.0060123,-0.0037651,0.02548,-4.6349e-05,-5.4169e-05,-0.00027079,1.8563e-05,0.00023463,0.05102,-0.015348,-0.015368,-0.0014081,9.6526e-05,0.0012201,0,0,0,0.025485,-8.0908e-06,-9.7644e-05,0.012791,0.0084597,0.025538,8.5556e-07,0.55,0.1,0.75
0.029529,0.0060279,-0.0037922,0.025514,-7.2912e-05,-9.745e-05,-0.0002166,4.8072e-05,0.00021889,0.05113,-0.015396,-0.015459,-0.0011263,0.00024997,0.0011382,0,0,0,0.025518,-2.7152e-05,-0.00014711,0.012832,0.0084478,0.025605,8.6224e-07,0.6,0.1,0.75
0.032088,0.0060418,-0.0038115,0.02554,-8.23e-05,-0.0001218,-0.00015126,5.8573e-05,0.00018265,0.051203,-0.015416,-0.015519,-0.00078654,0.00030458,0.00094977,0,0,0,0.025543,-3.3691e-05,-0.00017279,0.012858,0.0084455,0.025646,8.6638e-07,0.65,0.1,0.75
0.034649,0.0060592,-0.0038275,0.025555,-7.6527e-05,-0.00013433,-8.6893e-05,5.0046e-05,0.00013784,0.051236,-0.015405,-0.015556,-0.00045184,0.00026024,0.00071675,0,0,0,0.025556,-4.1001e-05,-0.00017103,0.012864,0.008448,0.025662,8.6798e-07,0.7,0.1,0.75
0.037211,0.0060814,-0.0038428,0.025556,-6.0001e-05,-0.00014028,-3.3346e-05,2.6228e-05,9.4016e-05,0.051233,-0.01537,-0.015578,-0.0001734,0.00013638,0.00048888,0,0,0,0.025557,-4.4058e-05,-0.00015671,0.012857,0.008452,0.025657,8.6748e-07,0.75,0.1,0.75
0.039773,0.006107,-0.0038577,0.025548,-3.8461e-05,-0.00014335,3.4618e-06,-6.5229e-06,5.7462e-05,0.051205,-0.01532,-0.015592,1.8001e-05,-3.3919e-05,0.0002988,0,0,0,0.025548,-3.1385e-05,-0.00015061,0.012849,0.0084554,0.02564,8.6564e-07,0.8,0.1,0.75
0.042332,0.0061325,-0.0038714,0.025535,-1.7309e-05,-0.0001456,2.1999e-05,-4.0945e-05,3.0958e-05,0.051167,-0.015268,-0.015602,0.00011439,-0.00021291,0.00016098,0,0,0,0.025535,-1.6659e-06,-0.00016132,0.012848,0.0084573,0.025617,8.6328e-07,0.85,0.1,0.75
0.044889,0.0061543,-0.0038826,0.025521,-3.9421e-07,-0.00014768,2.4412e-05,-7.0454e-05,1.4288e-05,0.051132,-0.015225,-0.015608,0.00012694,-0.00036636,7.4298e-05,0,0,0,0.025521,3.1086e-05,-0.00017921,0.01285,0.0084578,0.025596,8.611e-07,0.9,0.1,0.75
0.047445,0.0061689,-0.0038899,0.025512,1.024e-05,-0.00014932,2.0326e-05,-9.0117e-05,2.5912e-06,0.051107,-0.015197,-0.015612,0.00010569,-0.00046861,1.3474e-05,0,0,0,0.025512,5.3989e-05,-0.0001931,0.012852,0.0084576,0.025582,8.5962e-07,0.95,0.1,0.75
0.048723,0.006174,-0.0038925,0.025508,1.3836e-05,-0.00014996,1.8604e-05,-9.6993e-05,-3.0407e-06,0.051098,-0.015187,-0.015613,9.6742e-05,-0.00050436,-1.5812e-05,0,0,0,0.025508,6.2057e-05,-0.00019819,0.012853,0.0084574,0.025577,8.591e-07,1,0.1,0.75
0.00094519,0.00057243,-0.00035048,0.025094,0.0089582,0.0093573,0.0042165,-4.5871e-05,-0.0026362,0.039198,-0.0027544,-0.0017166,0.021926,-0.00023853,-0.013708,0,0,0,0.026551,0.0092608,0.0075975,0.0094768,0.01447,0.018183,3.0463e-07,0,0.15,0.75
0.0019599,0.0011309,-0.00069468,0.025159,0.0073045,0.0080392,0.003909,-8.9124e-05,-0.002529,0.041112,-0.00531,-0.0033997,0.020327,-0.00046344,-0.013151,0,0,0,0.026376,0.0078866,0.0062402,0.010068,0.013501,0.019372,3.7386e-07,0.05,0.15,0.75
0.0041112,0.0021894,-0.0013594,0.025619,0.0045629,0.0057586,0.0031307,-0.00016902,-0.0022279,0.045046,-0.0097011,-0.0065922,0.01628,-0.00087892,-0.011585,0,0,0,0.026371,0.0055643,0.0040055,0.011183,0.01198,0.021637,5.194e-07,0.1,0.15,0.75
0.0064645,0.0030917,-0.0019588,0.026203,0.0028228,0.0040619,0.0021853,-0.00023202,-0.0017889,0.048276,-0.012514,-0.0092919,0.011364,-0.0012065,-0.0093021,0,0,0,0.026587,0.0039356,0.0025659,0.01201,0.011029,0.023373,6.513e-07,0.15,0.15,0.75
0.0089388,0.0037955,-0.0024656,0.026403,0.0017761,0.0027855,0.0013348,-0.000271,-0.0012982,0.05007,-0.013961,-0.011337,0.006941,-0.0014092,-0.0067508,0,0,0,0.026569,0.0027674,0.0016286,0.01247,0.010322,0.024394,7.4089e-07,0.2,0.15,0.75
0.011471,0.0043132,-0.0028703,0.026345,0.0011349,0.0018579,0.00069261,-0.00028158,-0.00083934,0.050895,-0.014652,-0.012772,0.0036016,-0.0014642,-0.0043646,0,0,0,0.026405,0.0019296,0.0010036,0.012701,0.0097794,0.024952,7.9439e-07,0.25,0.15,0.75
0.014028,0.0046775,-0.0031776,0.026189,0.00072686,0.0012047,0.00024756,-0.00026387,-0.00045813,0.05122,-0.014983,-0.01374,0.0012873,-0.0013721,-0.0023823,0,0,0,0.026206,0.0013243,0.0005907,0.012808,0.0093736,0.025257,8.2519e-07,0.3,0.15,0.75
0.016593,0.0049223,-0.0034,0.026026,0.00045464,0.00075221,-4.5207e-05,-0.00022134,-0.00016778,0.051328,-0.015158,-0.014384,-0.00023507,-0.001151,-0.00087243,0,0,0,0.02603,0.00087803,0.00032502,0.012852,0.0090776,0.025433,8.4365e-07,0.35,0.15,0.75
0.019161,0.0050772,-0.0035534,0.025895,0.00026263,0.00044087,-0.0002247,-0.00015993,3.5964e-05,0.051367,-0.015276,-0.014813,-0.0011684,-0.00083163,0.00018701,0,0,0,0.025898,0.00053955,0.00016088,0.012868,0.008866,0.02555,8.5607e-07,0.4,0.15,0.75
0.02173,0.0051678,-0.0036538,0.025804,0.00012003,0.00022715,-0.00031809,-8.7876e-05,0.0001637,0.051401,-0.015379,-0.0151,-0.0016541,-0.00045696,0.00085126,0,0,0,0.02581,0.0002815,6.0347e-05,0.012875,0.0087172,0.02564,8.656e-07,0.45,0.15,0.75
0.024301,0.0052158,-0.0037163,0.02575,1.1877e-05,8.1149e-05,-0.00034421,-1.5572e-05,0.00022768,0.051445,-0.015475,-0.015295,-0.0017899,-8.0975e-05,0.0011839,0,0,0,0.025757,0.00010719,-2.0897e-05,0.012889,0.0086145,0.025714,8.7335e-07,0.5,0.15,0.75
0.026875,0.0052394,-0.0037545,0.025721,-6.6576e-05,-1.6596e-05,-0.00031866,4.5528e-05,0.00024091,0.051492,-0.015556,-0.015426,-0.001657,0.00023675,0.0012528,0,0,0,0.025727,2.2098e-05,-0.00011155,0.01292,0.008546,0.025773,8.7927e-07,0.55,0.15,0.75
0.02945,0.0052529,-0.0037791,0.025704,-0.00011506,-7.8563e-05,-0.00025756,8.5197e-05,0.00021757,0.051525,-0.015606,-0.015511,-0.0013393,0.00044302,0.0011314,0,0,0,0.025709,-7.2197e-06,-0.00019096,0.01295,0.0085035,0.025808,8.8286e-07,0.6,0.15,0.75
0.032027,0.0052663,-0.0037981,0.02569,-0.0001334,-0.00011353,-0.00017854,9.7245e-05,0.00017261,0.051528,-0.015613,-0.015561,-0.00092843,0.00050567,0.00089756,0,0,0,0.025692,-2.3348e-05,-0.00022617,0.012959,0.008481,0.025818,8.8377e-07,0.65,0.15,0.75
0.034603,0.0052849,-0.0038163,0.025672,-0.00012516,-0.000129,-9.9014e-05,8.149e-05,0.00012028,0.051497,-0.015576,-0.015586,-0.00051487,0.00042375,0.00062546,0,0,0,0.025674,-4.1925e-05,-0.00021337,0.012943,0.0084728,0.025802,8.8214e-07,0.7,0.15,0.75
0.037177,0.0053097,-0.0038356,0.025651,-9.8305e-05,-0.0001321,-3.2976e-05,4.3757e-05,7.2049e-05,0.051441,-0.015508,-0.015596,-0.00017147,0.00022753,0.00037465,0,0,0,0.025652,-5.7187e-05,-0.0001736,0.012913,0.0084736,0.025767,8.7866e-07,0.75,0.15,0.75
0.039747,0.0053385,-0.0038554,0.025628,-6.3051e-05,-0.00012915,1.144e-05,-6.1405e-06,3.4973e-05,0.051372,-0.015426,-0.015597,5.949e-05,-3.1931e-05,0.00018186,0,0,0,0.025628,-4.5395e-05,-0.00014694,0.012888,0.0084787,0.025725,8.7432e-07,0.8,0.15,0.75
0.042314,0.0053673,-0.003874,0.025607,-2.8738e-05,-0.00012474,3.2496e-05,-5.7339e-05,1.1458e-05,0.051306,-0.015347,-0.015596,0.00016898,-0.00029816,5.9582e-05,0,0,0,0.025607,2.651e-06,-0.00015622,0.012882,0.0084845,0.025684,8.701e-07,0.85,0.15,0.75
0.044878,0.0053916,-0.0038893,0.02559,-1.6659e-06,-0.00012128,3.3435e-05,-0.00010044,2.2762e-07,0.051254,-0.015285,-0.015596,0.00017386,-0.0005223,1.1837e-06,0,0,0,0.02559,5.8399e-05,-0.00018141,0.012886,0.0084891,0.025653,8.6675e-07,0.9,0.15,0.75
0.047439,0.0054079,-0.0038994,0.02558,1.5136e-05,-0.00011938,2.5942e-05,-0.00012879,-5.6137e-06,0.051222,-0.015246,-0.015596,0.0001349,-0.00066973,-2.9191e-05,0,0,0,0.02558,9.5894e-05,-0.00020018,0.01289,0.0084918,0.025633,8.6464e-07,0.95,0.15,0.75
0.04872,0.0054136,-0.0039029,0.025576,2.0773e-05,-0.00011882,2.236e-05,-0.00013864,-8.568e-06,0.051211,-0.015233,-0.015596,0.00011627,-0.00072093,-4.4554e-05,0,0,0,0.025576,0.00010887,-0.00020694,0.012892,0.0084927,0.025627,8.6393e-07,1,0.15,0.75
0.00092368,0.00045717,-0.00035592,0.02462,0.0091207,0.0092545,0.0034188,-5.3453e-05,-0.0026794,0.038214,-0.002083,-0.0017353,0.017778,-0.00027795,-0.013933,0,0,0,0.025789,0.0091828,0.0080227,0.0088833,0.014332,0.017218,2.615e-07,0,0.2,0.75
0.0019107,0.00090447,-0.00070504,0.02475,0.0077839,0.0080412,0.0032468,-0.00010172,-0.0025724,0.040005,-0.0041068,-0.0034378,0.016883,-0.00052896,-0.013377,0,0,0,0.025758,0.0079239,0.0068928,0.0094327,0.013525,0.018375,3.2367e-07,0.05,0.2,0.75
0.0040005,0.0017614,-0.0013786,0.025315,0.0054416,0.005893,0.0027737,-0.00018815,-0.0022693,0.04383,-0.0078416,-0.0066681,0.014423,-0.00097837,-0.0118,0,0,0,0.025992,0.005746,0.0049115,0.01054,0.012217,0.02068,4.6078e-07,0.1,0.2,0.75
0.0062937,0.0025158,-0.0019845,0.026024,0.0037034,0.0042184,0.0021159,-0.00025325,-0.001824,0.047296,-0.010739,-0.0093998,0.011003,-0.0013169,-0.0094848,0,0,0,0.026405,0.004152,0.0033893,0.011508,0.011315,0.022647,5.9947e-07,0.15,0.2,0.75
0.00873,0.0031305,-0.0024952,0.026412,0.002478,0.0029351,0.0014313,-0.00029352,-0.0013234,0.049575,-0.012652,-0.011464,0.0074429,-0.0015263,-0.0068815,0,0,0,0.026591,0.0029966,0.0022367,0.012177,0.010608,0.023985,7.0861e-07,0.2,0.2,0.75
0.011251,0.0035997,-0.0029007,0.026524,0.0016544,0.0020023,0.00084079,-0.00030501,-0.00085233,0.050855,-0.013807,-0.012903,0.0043721,-0.001586,-0.0044321,0,0,0,0.026594,0.0021609,0.0014261,0.012584,0.01006,0.024809,7.828e-07,0.25,0.2,0.75
0.013815,0.0039382,-0.0032055,0.026468,0.0010962,0.0013377,0.00038421,-0.0002862,-0.00045852,0.051475,-0.014491,-0.013863,0.0019979,-0.0014882,-0.0023843,0,0,0,0.026488,0.0015349,0.00087863,0.012805,0.0096338,0.025288,8.2891e-07,0.3,0.2,0.75
0.016399,0.0041682,-0.0034225,0.02634,0.00070683,0.00086718,5.5972e-05,-0.00023847,-0.00015641,0.051736,-0.014911,-0.014494,0.00029105,-0.00124,-0.00081335,0,0,0,0.026344,0.0010499,0.00051999,0.012912,0.0093047,0.025564,8.5682e-07,0.35,0.2,0.75
0.018989,0.0043135,-0.003568,0.026204,0.00042377,0.00053278,-0.00016261,-0.00016644,5.6883e-05,0.051833,-0.015194,-0.014911,-0.00084559,-0.00086548,0.00029579,0,0,0,0.026206,0.000661,0.00029304,0.012957,0.0090534,0.025731,8.7442e-07,0.4,0.2,0.75
0.021582,0.0043966,-0.003659,0.026087,0.00020902,0.00029288,-0.00028898,-7.8661e-05,0.00019014,0.051874,-0.01541,-0.015192,-0.0015027,-0.00040904,0.00098871,0,0,0,0.026093,0.00035536,0.00014143,0.012976,0.0088631,0.025845,8.865e-07,0.45,0.2,0.75
0.024176,0.0044382,-0.0037121,0.025999,4.3313e-05,0.00012016,-0.00033739,1.1981e-05,0.00025367,0.0519,-0.015585,-0.015385,-0.0017544,6.2303e-05,0.0013191,0,0,0,0.026006,0.00015585,6.2588e-07,0.013003,0.0087209,0.025928,8.9524e-07,0.5,0.2,0.75
0.026772,0.0044568,-0.0037423,0.025934,-7.8863e-05,-1.2832e-06,-0.00032216,8.9603e-05,0.00025965,0.051917,-0.015718,-0.015516,-0.0016752,0.00046593,0.0013502,0,0,0,0.025941,6.392e-05,-0.00015074,0.013046,0.0086181,0.025985,9.0102e-07,0.55,0.2,0.75
0.029368,0.0044674,-0.0037619,0.025884,-0.00015591,-8.0081e-05,-0.00026102,0.000139,0.0002234,0.051909,-0.015794,-0.015597,-0.0013573,0.00072278,0.0011617,0,0,0,0.025888,2.7055e-05,-0.00026777,0.013078,0.0085492,0.02601,9.0343e-07,0.6,0.2,0.75
0.031963,0.0044806,-0.00378,0.025839,-0.00018681,-0.00012247,-0.00017567,0.00015055,0.00016317,0.051863,-0.015803,-0.015636,-0.0009135,0.00078286,0.00084847,0,0,0,0.025841,-9.7429e-08,-0.00031166,0.013076,0.0085098,0.025999,9.0217e-07,0.65,0.2,0.75
0.034554,0.0045016,-0.0038012,0.025795,-0.00017696,-0.00013601,-8.8489e-05,0.00012384,9.7466e-05,0.051777,-0.015749,-0.015643,-0.00046015,0.00064396,0.00050682,0,0,0,0.025796,-3.0158e-05,-0.00028373,0.01304,0.0084939,0.025954,8.9764e-07,0.7,0.2,0.75
0.037141,0.0045306,-0.0038265,0.025752,-0.00013901,-0.00013048,-1.7394e-05,6.7675e-05,4.1125e-05,0.051666,-0.015651,-0.015629,-9.0451e-05,0.00035191,0.00021385,0,0,0,0.025752,-6.0101e-05,-0.00020966,0.012981,0.0084942,0.025888,8.9098e-07,0.75,0.2,0.75
0.039721,0.0045644,-0.003854,0.025714,-8.9075e-05,-0.00011613,2.7919e-05,-3.4046e-06,2.4912e-06,0.051551,-0.015537,-0.015607,0.00014518,-1.7704e-05,1.2955e-05,0,0,0,0.025714,-5.3226e-05,-0.00015211,0.012933,0.0085029,0.025817,8.8373e-07,0.8,0.2,0.75
0.042296,0.0045979,-0.0038804,0.025683,-4.1249e-05,-0.00010099,4.6373e-05,-7.4089e-05,-1.6858e-05,0.051452,-0.015432,-0.015587,0.00024114,-0.00038526,-8.7663e-05,0,0,0,0.025683,1.3748e-05,-0.00015614,0.01292,0.0085136,0.025755,8.7729e-07,0.85,0.2,0.75
0.044866,0.0046258,-0.003902,0.025662,-4.3392e-06,-8.9486e-05,4.2897e-05,-0.00013209,-2.0136e-05,0.05138,-0.015352,-0.015574,0.00022306,-0.00068687,-0.00010471,0,0,0,0.025662,9.4912e-05,-0.00018886,0.012925,0.0085227,0.02571,8.7249e-07,0.9,0.2,0.75
0.047434,0.0046443,-0.0039162,0.02565,1.8095e-05,-8.284e-05,3.1311e-05,-0.00016952,-1.7528e-05,0.051339,-0.015304,-0.015567,0.00016282,-0.00088149,-9.1146e-05,0,0,0,0.02565,0.00014744,-0.00021225,0.012931,0.0085284,0.025684,8.6964e-07,0.95,0.2,0.75
0.048717,0.0046507,-0.0039211,0.025646,2.5525e-05,-8.073e-05,2.6069e-05,-0.00018238,-1.6685e-05,0.051326,-0.015288,-0.015565,0.00013556,-0.00094839,-8.6763e-05,0,0,0,0.025646,0.00016531,-0.00022055,0.012933,0.0085303,0.025676,8.6871e-07,1,0.2,0.75
0.00091402,0.00036413,-0.00036296,0.024395,0.0092144,0.0092071,0.0027434,-5.6206e-05,-0.0027345,0.037737,-0.0017323,-0.0017514,0.014266,-0.00029227,-0.01422,0,0,0,0.025354,0.009177,0.0082849,0.0085348,0.014272,0.016643,2.3722e-07,0,0.25,0.75
0.0018868,0.00072018,-0.00071834,0.024542,0.0080586,0.0080448,0.0026349,-0.00010609,-0.002627,0.039422,-0.003435,-0.0034707,0.013702,-0.00055165,-0.013661,0,0,0,0.025381,0.0080041,0.0072603,0.0090604,0.013548,0.017763,2.9357e-07,0.05,0.25,0.75
0.0039422,0.0014052,-0.001403,0.025136,0.0059977,0.005973,0.0023265,-0.00019417,-0.0023211,0.043089,-0.0066699,-0.0067341,0.012098,-0.0010097,-0.012069,0,0,0,0.025721,0.0059623,0.0054228,0.010149,0.012369,0.020036,4.2087e-07,0.1,0.25,0.75
0.0061958,0.0020178,-0.002017,0.025892,0.0043612,0.0043289,0.001872,-0.00025928,-0.0018694,0.046569,-0.00941,-0.0094939,0.0097345,-0.0013482,-0.0097211,0,0,0,0.026239,0.0044334,0.0039088,0.011165,0.011527,0.022074,5.5728e-07,0.15,0.25,0.75
0.0085991,0.0025303,-0.0025327,0.026366,0.0030845,0.0030479,0.001359,-0.00030007,-0.0013591,0.049052,-0.011479,-0.011574,0.007067,-0.0015603,-0.0070671,0,0,0,0.026541,0.0032835,0.0026734,0.011934,0.010833,0.02357,6.741e-07,0.2,0.25,0.75
0.011101,0.0029325,-0.0029395,0.026579,0.0021464,0.0021094,0.00087218,-0.00031294,-0.00087513,0.050604,-0.01292,-0.013016,0.0045354,-0.0016273,-0.0045507,0,0,0,0.026652,0.0024203,0.0017624,0.012445,0.010278,0.024568,7.6112e-07,0.25,0.25,0.75
0.01366,0.0032284,-0.0032417,0.026603,0.0014697,0.0014372,0.00045983,-0.00029467,-0.00046636,0.051462,-0.013885,-0.013969,0.0023911,-0.0015323,-0.0024251,0,0,0,0.026626,0.0017543,0.0011294,0.012748,0.0098367,0.02519,8.1978e-07,0.3,0.25,0.75
0.016247,0.0034312,-0.0034521,0.026522,0.00097665,0.00095456,0.0001379,-0.00024384,-0.00014857,0.051886,-0.014533,-0.01459,0.00071706,-0.0012679,-0.00077257,0,0,0,0.026527,0.0012216,0.00070476,0.012911,0.0094845,0.025568,8.5743e-07,0.35,0.25,0.75
0.018848,0.0035578,-0.0035875,0.026403,0.00060699,0.00060191,-9.3754e-05,-0.00016252,7.9061e-05,0.05208,-0.014989,-0.015002,-0.00048752,-0.00084513,0.00041112,0,0,0,0.026405,0.00077749,0.00042927,0.012988,0.0092039,0.025804,8.8186e-07,0.4,0.25,0.75
0.021455,0.0036268,-0.0036661,0.026284,0.00031998,0.00033752,-0.00023957,-5.8531e-05,0.00022221,0.052173,-0.015333,-0.015287,-0.0012458,-0.00030436,0.0011555,0,0,0,0.026289,0.00042592,0.00022686,0.013031,0.0089805,0.025963,8.987e-07,0.45,0.25,0.75
0.024066,0.0036573,-0.0037062,0.026183,9.405e-05,0.00013655,-0.00030504,5.2916e-05,0.00028774,0.052227,-0.015603,-0.015493,-0.0015862,0.00027516,0.0014962,0,0,0,0.02619,0.0002095,1.4204e-05,0.013088,0.0088044,0.026079,9.1075e-07,0.5,0.25,0.75
0.026678,0.0036676,-0.0037252,0.0261,-7.5783e-05,-1.1454e-05,-0.00029944,0.00015027,0.00028573,0.052253,-0.015805,-0.015638,-0.0015571,0.00078142,0.0014858,0,0,0,0.026107,0.00011451,-0.00020841,0.013158,0.008671,0.026156,9.1853e-07,0.55,0.25,0.75
0.029291,0.0036735,-0.0037378,0.02603,-0.00018522,-0.00010842,-0.00023978,0.00021121,0.00023278,0.052237,-0.015924,-0.015724,-0.0012468,0.0010983,0.0012105,0,0,0,0.026035,6.9582e-05,-0.00036775,0.013201,0.0085789,0.026187,9.2143e-07,0.6,0.25,0.75
0.031902,0.003686,-0.0037546,0.025965,-0.00023143,-0.00015581,-0.00015091,0.00022097,0.00015203,0.052163,-0.015948,-0.015752,-0.00078472,0.0011491,0.00079055,0,0,0,0.025967,3.155e-05,-0.0004209,0.013194,0.008526,0.026165,9.1908e-07,0.65,0.25,0.75
0.034507,0.00371,-0.0037803,0.025902,-0.00022161,-0.00016097,-6.0164e-05,0.00017882,6.8471e-05,0.052034,-0.015888,-0.01573,-0.00031285,0.00092986,0.00035605,0,0,0,0.025903,-9.4413e-06,-0.00037379,0.013138,0.0085065,0.026097,9.1218e-07,0.7,0.25,0.75
0.037105,0.0037446,-0.0038145,0.025843,-0.00017404,-0.00013815,1.077e-05,9.8175e-05,1.9569e-06,0.051874,-0.015771,-0.015678,5.6005e-05,0.00051051,1.0176e-05,0,0,0,0.025844,-5.2694e-05,-0.00025973,0.013052,0.0085104,0.026001,9.0256e-07,0.75,0.25,0.75
0.039695,0.0037849,-0.003853,0.025794,-0.00011164,-0.0001041,5.1484e-05,4.4786e-07,-3.7704e-05,0.051718,-0.015637,-0.015618,0.00026772,2.3289e-06,-0.00019606,0,0,0,0.025794,-4.9582e-05,-0.00016644,0.01298,0.0085261,0.025903,8.9256e-07,0.8,0.25,0.75
0.042277,0.0038241,-0.00389,0.025758,-5.3464e-05,-7.2104e-05,6.2814e-05,-9.3265e-05,-5.0783e-05,0.051592,-0.015519,-0.015567,0.00032663,-0.00048498,-0.00026407,0,0,0,0.025759,3.6568e-05,-0.00016245,0.012961,0.0085442,0.025822,8.8411e-07,0.85,0.25,0.75
0.044854,0.0038564,-0.0039203,0.025736,-1.0125e-05,-4.8991e-05,5.2306e-05,-0.00016772,-4.3733e-05,0.051508,-0.015433,-0.015534,0.00027199,-0.00087212,-0.00022741,0,0,0,0.025736,0.00014261,-0.00020194,0.012969,0.008559,0.025768,8.7819e-07,0.9,0.25,0.75
0.047428,0.0038775,-0.00394,0.025725,1.5326e-05,-3.6002e-05,3.61e-05,-0.00021456,-3.1252e-05,0.051463,-0.015383,-0.015516,0.00018772,-0.0011157,-0.00016251,0,0,0,0.025725,0.0002092,-0.00022998,0.012978,0.0085682,0.025739,8.7488e-07,0.95,0.25,0.75
0.048714,0.0038847,-0.0039468,0.025722,2.3573e-05,-3.193e-05,2.9429e-05,-0.00023043,-2.6298e-05,0.051449,-0.015367,-0.015511,0.00015303,-0.0011983,-0.00013675,0,0,0,0.025722,0.00023144,-0.00023986,0.012981,0.0085713,0.02573,8.7384e-07,1,0.25,0.75
0.00090987,0.00028394,-0.00037067,0.024301,0.0092847,0.0091942,0.0021477,-5.5759e-05,-0.0027947,0.037514,-0.0015276,-0.0017627,0.011168,-0.00028995,-0.014533,0,0,0,0.02511,0.0092205,0.0084487,0.0083308,0.01426,0.016291,2.2279e-07,0,0.3,0.75
0.0018757,0.00056097,-0.00073288,0.024452,0.008237,0.0080596,0.0020761,-0.00010486,-0.0026868,0.039126,-0.0030329,-0.0034942,0.010796,-0.00054525,-0.013971,0,0,0,0.025164,0.0081335,0.0074512,0.0088563,0.013583,0.017384,2.7513e-07,0.05,0.3,0.75
0.0039126,0.0010944,-0.0014295,0.025048,0.0063583,0.006031,0.0018692,-0.00019116,-0.0023785,0.042663,-0.0059309,-0.0067819,0.0097199,-0.00099404,-0.012368,0,0,0,0.025553,0.0062349,0.0056493,0.009952,0.012479,0.01962,3.9481e-07,0.1,0.3,0.75
0.006142,0.0015748,-0.0020524,0.025816,0.0048193,0.0044095,0.0015564,-0.00025495,-0.0019223,0.046095,-0.0084967,-0.0095622,0.0080931,-0.0013258,-0.0099958,0,0,0,0.026124,0.0047732,0.0041473,0.010988,0.011682,0.021673,5.2705e-07,0.15,0.3,0.75
0.0085221,0.0019825,-0.0025736,0.026329,0.0035487,0.0031367,0.0011868,-0.00029631,-0.0014048,0.048647,-0.010582,-0.011653,0.0061712,-0.0015408,-0.0073048,0,0,0,0.026491,0.0036131,0.0029104,0.01179,0.011005,0.023238,6.458e-07,0.2,0.3,0.75
0.011007,0.0023077,-0.0029822,0.026595,0.002556,0.0021984,0.00081246,-0.00031167,-0.00091009,0.050338,-0.012164,-0.013094,0.0042248,-0.0016207,-0.0047325,0,0,0,0.026666,0.002704,0.0019794,0.012343,0.01045,0.024333,7.3935e-07,0.25,0.3,0.75
0.013556,0.0025497,-0.0032819,0.026669,0.0018018,0.0015224,0.0004715,-0.00029596,-0.00048683,0.051344,-0.013311,-0.014038,0.0024518,-0.001539,-0.0025315,0,0,0,0.026693,0.0019865,0.0013136,0.01269,0.0099978,0.02505,8.0604e-07,0.3,0.3,0.75
0.016141,0.0027149,-0.0034852,0.026623,0.0012309,0.0010309,0.00018483,-0.00024436,-0.00015147,0.051889,-0.01413,-0.01465,0.00096114,-0.0012707,-0.00078765,0,0,0,0.026628,0.0014022,0.00085415,0.012887,0.0096282,0.025505,8.5099e-07,0.35,0.3,0.75
0.018745,0.0028146,-0.0036089,0.02652,0.00079113,0.00066094,-3.719e-05,-0.00015521,9.4634e-05,0.052169,-0.014726,-0.015065,-0.00019339,-0.0008071,0.0004921,0,0,0,0.026522,0.0009045,0.00054547,0.012988,0.009324,0.025799,8.8141e-07,0.4,0.3,0.75
0.021358,0.0028633,-0.0036722,0.026405,0.00044228,0.00036868,-0.00018788,-3.4221e-05,0.00025286,0.052323,-0.015179,-0.015371,-0.00097699,-0.00017795,0.0013149,0,0,0,0.026409,0.00051166,0.00029481,0.013057,0.0090719,0.026007,9.0322e-07,0.45,0.3,0.75
0.023977,0.0028778,-0.0036958,0.026299,0.00016213,0.00013178,-0.00026262,0.00010146,0.00032447,0.052422,-0.015534,-0.015613,-0.0013656,0.00052761,0.0016873,0,0,0,0.026306,0.00027938,7.7043e-06,0.013149,0.0088644,0.026164,9.195e-07,0.5,0.3,0.75
0.0266,0.0028763,-0.0037001,0.026209,-5.2692e-05,-5.1901e-05,-0.00026331,0.00022327,0.0003155,0.052481,-0.0158,-0.015798,-0.0013692,0.001161,0.0016406,0,0,0,0.026216,0.00017603,-0.00028718,0.013251,0.0087015,0.026275,9.3052e-07,0.55,0.3,0.75
0.029225,0.002875,-0.0037036,0.026129,-0.00019415,-0.00017268,-0.00020431,0.00029895,0.00024336,0.052478,-0.015962,-0.015906,-0.0010624,0.0015545,0.0012655,0,0,0,0.026133,0.00011896,-0.00048997,0.013312,0.0085874,0.026325,9.3513e-07,0.6,0.3,0.75
0.031848,0.0028857,-0.0037191,0.026053,-0.00025688,-0.00022341,-0.00011288,0.0003063,0.00013783,0.052394,-0.016011,-0.015924,-0.000587,0.0015927,0.0007167,0,0,0,0.026054,6.893e-05,-0.00055091,0.013303,0.0085242,0.026301,9.3263e-07,0.65,0.3,0.75
0.034464,0.0029128,-0.0037515,0.025979,-0.00024967,-0.00021105,-2.1273e-05,0.00024419,3.3168e-05,0.052234,-0.01596,-0.01586,-0.00011062,0.0012698,0.00017248,0,0,0,0.025979,1.5997e-05,-0.0004772,0.013228,0.0085061,0.026214,9.2398e-07,0.7,0.3,0.75
0.037071,0.0029535,-0.0037982,0.025913,-0.00019659,-0.00015777,4.5373e-05,0.00013292,-4.3903e-05,0.052038,-0.015846,-0.015745,0.00023594,0.00069121,-0.0002283,0,0,0,0.025913,-3.8088e-05,-0.00031666,0.013115,0.0085195,0.026092,9.1189e-07,0.75,0.3,0.75
0.039668,0.0030007,-0.0038516,0.025861,-0.00012746,-9.1558e-05,7.6987e-05,3.5802e-06,-8.2362e-05,0.051854,-0.015717,-0.015623,0.00040033,1.8617e-05,-0.00042828,0,0,0,0.025862,-3.3244e-05,-0.00018637,0.013024,0.0085474,0.025972,8.9969e-07,0.8,0.3,0.75
0.042257,0.003046,-0.0039028,0.025829,-6.5639e-05,-3.4045e-05,7.7775e-05,-0.00011551,-8.6122e-05,0.051717,-0.015608,-0.015526,0.00040443,-0.00060066,-0.00044784,0,0,0,0.025829,7.3715e-05,-0.00017398,0.013002,0.0085764,0.025881,8.8998e-07,0.85,0.3,0.75
0.04484,0.0030826,-0.0039442,0.025813,-2.2164e-05,5.2235e-06,5.8896e-05,-0.00020652,-6.6696e-05,0.051637,-0.015535,-0.015464,0.00030626,-0.0010739,-0.00034682,0,0,0,0.025814,0.00020232,-0.00021962,0.013017,0.0085988,0.025825,8.8376e-07,0.9,0.3,0.75
0.04742,0.003106,-0.0039708,0.025809,1.8896e-06,2.629e-05,3.8726e-05,-0.00026199,-4.4429e-05,0.0516,-0.015497,-0.015434,0.00020138,-0.0013624,-0.00023103,0,0,0,0.025809,0.00028051,-0.00025249,0.013031,0.0086123,0.025799,8.8063e-07,0.95,0.3,0.75
0.04871,0.003114,-0.0039799,0.025808,9.3731e-06,3.2701e-05,3.1366e-05,-0.00028045,-3.6045e-05,0.051591,-0.015486,-0.015425,0.0001631,-0.0014583,-0.00018743,0,0,0,0.025808,0.00030601,-0.00026403,0.013036,0.0086167,0.025792,8.7973e-07,1,0.3,0.75
0.00090889,0.00021138,-0.0003784,0.024283,0.0093414,0.0092029,0.0016033,-5.278e-05,-0.0028552,0.037439,-0.0014087,-0.0017688,0.0083373,-0.00027446,-0.014847,0,0,0,0.024989,0.0092876,0.0085503,0.0082194,0.014276,0.016084,2.1442e-07,0,0.35,0.75
0.001872,0.00041689,-0.00074742,0.024434,0.0083574,0.0080839,0.0015563,-9.9064e-05,-0.0027473,0.039004,-0.0027961,-0.0035074,0.0080927,-0.00051513,-0.014286,0,0,0,0.025056,0.0082752,0.0075445,0.0087558,0.013625,0.01716,2.6423e-07,0.05,0.35,0.75
0.0039004,0.0008121,-0.0014561,0.025027,0.006591,0.0060806,0.0014197,-0.00018044,-0.0024383,0.04245,-0.0054822,-0.0068094,0.0073825,-0.00093828,-0.012679,0,0,0,0.02547,0.0064961,0.0057325,0.0098686,0.012566,0.019369,3.7887e-07,0.1,0.35,0.75
0.006117,0.0011681,-0.0020879,0.025794,0.0051238,0.0044751,0.0012113,-0.00024139,-0.0019806,0.045829,-0.007914,-0.0096006,0.0062985,-0.0012552,-0.010299,0,0,0,0.026068,0.0050823,0.0042433,0.010912,0.011798,0.021419,5.0759e-07,0.15,0.35,0.75
0.0084833,0.0014721,-0.002615,0.026323,0.0038741,0.0032125,0.00095864,-0.00028309,-0.0014602,0.048393,-0.0099728,-0.011693,0.0049849,-0.001472,-0.0075931,0,0,0,0.026469,0.0039076,0.0030324,0.011718,0.011136,0.023013,6.2617e-07,0.2,0.35,0.75
0.010956,0.0017161,-0.0030258,0.026613,0.0028604,0.0022798,0.00069043,-0.00030197,-0.00095908,0.050142,-0.011615,-0.013124,0.0035902,-0.0015703,-0.0049872,0,0,0,0.02668,0.0029586,0.0021152,0.012282,0.010584,0.024154,7.2247e-07,0.25,0.35,0.75
0.013498,0.0018973,-0.0033234,0.026711,0.0020628,0.0016056,0.00043071,-0.00029116,-0.00052424,0.051221,-0.012864,-0.014053,0.0022397,-0.001514,-0.002726,0,0,0,0.026735,0.002198,0.0014465,0.012644,0.010126,0.024921,7.9323e-07,0.3,0.35,0.75
0.016078,0.0020182,-0.0035193,0.02668,0.0014424,0.001109,0.00019655,-0.00024209,-0.00017155,0.05183,-0.013789,-0.014656,0.001022,-0.0012589,-0.00089206,0,0,0,0.026686,0.0015734,0.00097209,0.012857,0.0097439,0.025419,8.4222e-07,0.35,0.35,0.75
0.018681,0.0020852,-0.0036302,0.026583,0.00095531,0.00072128,1.2874e-06,-0.00014823,9.604e-05,0.05216,-0.014472,-0.01508,6.6947e-06,-0.00077082,0.00049941,0,0,0,0.026585,0.0010373,0.00063706,0.012974,0.0094198,0.025751,8.763e-07,0.4,0.35,0.75
0.021294,0.0021089,-0.0036757,0.026465,0.00056313,0.00039428,-0.00014127,-1.1646e-05,0.00027481,0.052355,-0.014989,-0.015428,-0.00073461,-6.056e-05,0.001429,0,0,0,0.026469,0.00061448,0.00033848,0.013065,0.0091407,0.025994,9.0176e-07,0.45,0.35,0.75
0.023916,0.0021039,-0.003679,0.026353,0.00024322,0.00010772,-0.00021743,0.00014963,0.00035815,0.052495,-0.01539,-0.015742,-0.0011307,0.00077808,0.0018624,0,0,0,0.02636,0.00036365,-1.9592e-05,0.01319,0.0089012,0.02619,9.2188e-07,0.5,0.35,0.75
0.026544,0.0020877,-0.0036651,0.026255,-6.548e-06,-0.00012825,-0.00022088,0.00029925,0.00034529,0.052591,-0.015689,-0.016006,-0.0011486,0.0015561,0.0017955,0,0,0,0.026262,0.00024451,-0.00038584,0.013324,0.0087068,0.026339,9.3643e-07,0.55,0.35,0.75
0.029175,0.0020773,-0.0036572,0.026169,-0.00017472,-0.00028419,-0.00016197,0.00039248,0.00025336,0.052613,-0.01588,-0.016165,-0.00084225,0.0020409,0.0013175,0,0,0,0.026173,0.00017199,-0.00063478,0.013404,0.00857,0.026414,9.4335e-07,0.6,0.35,0.75
0.031805,0.0020848,-0.0036716,0.026088,-0.00025334,-0.00033733,-6.9521e-05,0.00039732,0.00012049,0.052531,-0.015957,-0.016176,-0.00036151,0.0020661,0.00062653,0,0,0,0.02609,0.00010849,-0.00070054,0.013395,0.0084992,0.026396,9.4136e-07,0.65,0.35,0.75
0.034428,0.002114,-0.0037135,0.026013,-0.00025251,-0.000294,1.9884e-05,0.00031227,-6.5916e-06,0.052355,-0.015937,-0.016045,0.0001034,0.0016238,-3.4277e-05,0,0,0,0.026014,4.2712e-05,-0.00058973,0.013302,0.008489,0.026294,9.3163e-07,0.7,0.35,0.75
0.037041,0.00216,-0.0037771,0.025951,-0.0002013,-0.00019095,7.8381e-05,0.00016678,-9.2423e-05,0.052138,-0.015859,-0.015832,0.00040758,0.00086726,-0.0004806,0,0,0,0.025952,-1.9515e-05,-0.00037352,0.013163,0.0085197,0.026151,9.1778e-07,0.75,0.35,0.75
0.039642,0.0022132,-0.0038499,0.02591,-0.00013512,-7.5418e-05,9.7511e-05,4.2252e-06,-0.00012571,0.051946,-0.015771,-0.015616,0.00050706,2.1971e-05,-0.00065371,0,0,0,0.025911,-6.1225e-06,-0.00020547,0.013058,0.0085665,0.026018,9.0432e-07,0.8,0.35,0.75
0.042235,0.0022633,-0.0039187,0.025893,-7.9681e-05,1.8515e-05,8.6084e-05,-0.00013905,-0.0001166,0.051823,-0.015706,-0.015451,0.00044764,-0.00072303,-0.00060633,0,0,0,0.025894,0.00012487,-0.00018692,0.01304,0.0086106,0.025927,8.9455e-07,0.85,0.35,0.75
0.044824,0.0023029,-0.0039734,0.025895,-4.4555e-05,7.8776e-05,5.9401e-05,-0.00024372,-8.375e-05,0.051769,-0.015673,-0.015352,0.00030889,-0.0012673,-0.0004355,0,0,0,0.025895,0.00027303,-0.00023928,0.013067,0.0086429,0.025882,8.8924e-07,0.9,0.35,0.75
0.047412,0.0023277,-0.004008,0.025903,-2.7457e-05,0.00010916,3.741e-05,-0.00030506,-5.3949e-05,0.051757,-0.015662,-0.015307,0.00019453,-0.0015863,-0.00028053,0,0,0,0.025903,0.00035854,-0.00027703,0.01309,0.0086615,0.025868,8.8722e-07,0.95,0.35,0.75
0.048706,0.0023362,-0.0040198,0.025907,-2.2645e-05,0.000118,3.0646e-05,-0.00032501,-4.4101e-05,0.051757,-0.01566,-0.015295,0.00015936,-0.00169,-0.00022933,0,0,0,0.025907,0.00038547,-0.00029023,0.013099,0.0086675,0.025866,8.868e-07,1,0.35,0.75
0.00090982,0.00014307,-0.0003856,0.024312,0.0093872,0.0092248,0.001088,-4.7172e-05,-0.002912,0.037457,-0.0013479,-0.0017701,0.0056574,-0.00024529,-0.015142,0,0,0,0.024952,0.0093555,0.008617,0.0081673,0.014308,0.015979,2.1018e-07,0,0.4,0.75
0.0018729,0.00028136,-0.00076096,0.024463,0.0084371,0.0081146,0.0010595,-8.8422e-05,-0.0028048,0.038996,-0.0026727,-0.0035111,0.0055094,-0.00045979,-0.014585,0,0,0,0.025026,0.0083916,0.0075977,0.0087141,0.013672,0.017047,2.5864e-07,0.05,0.4,0.75
0.0038996,0.00054621,-0.0014808,0.025052,0.0067325,0.0061265,0.00097668,-0.00016114,-0.0024973,0.042389,-0.0052423,-0.0068179,0.0050788,-0.00083794,-0.012986,0,0,0,0.025453,0.006685,0.0057734,0.0098398,0.012637,0.019242,3.7056e-07,0.1,0.4,0.75
0.0061118,0.00078337,-0.0021211,0.025818,0.0053092,0.0045333,0.00085064,-0.00021681,-0.0020419,0.045731,-0.0075924,-0.0096098,0.0044233,-0.0011274,-0.010618,0,0,0,0.026066,0.0052958,0.0042988,0.010884,0.011887,0.021288,4.9726e-07,0.15,0.4,0.75
0.0084727,0.00098525,-0.002654,0.026351,0.0040772,0.003282,0.00069596,-0.00025752,-0.0015238,0.048287,-0.0096255,-0.011693,0.003619,-0.0013391,-0.0079236,0,0,0,0.026486,0.0041105,0.0031143,0.011686,0.011237,0.022891,6.1538e-07,0.2,0.4,0.75
0.010941,0.0011462,-0.0030676,0.02665,0.0030571,0.00236,0.00052493,-0.00027994,-0.001022,0.05005,-0.011292,-0.013104,0.0027296,-0.0014557,-0.0053142,0,0,0,0.026713,0.0031367,0.0022177,0.012248,0.010689,0.02405,7.1253e-07,0.25,0.4,0.75
0.013478,0.0012633,-0.0033637,0.026754,0.0022383,0.0016939,0.00034883,-0.00027589,-0.00058064,0.051149,-0.012592,-0.014008,0.0018139,-0.0014346,-0.0030193,0,0,0,0.026778,0.002351,0.0015576,0.01261,0.010229,0.024833,7.8454e-07,0.3,0.4,0.75
0.016055,0.0013361,-0.0035527,0.026722,0.0015926,0.0011971,0.00017735,-0.00023335,-0.00021341,0.05177,-0.013566,-0.014595,0.00092224,-0.0012134,-0.0011098,0,0,0,0.026728,0.0017057,0.0010775,0.012825,0.0098372,0.025343,8.345e-07,0.35,0.4,0.75
0.018655,0.0013675,-0.0036502,0.026614,0.0010822,0.00079186,2.1882e-05,-0.00014046,7.6396e-05,0.052104,-0.014279,-0.015034,0.00011379,-0.00073037,0.00039726,0,0,0,0.026616,0.0011531,0.00071868,0.012949,0.0094961,0.025684,8.6939e-07,0.4,0.4,0.75
0.021266,0.0013644,-0.003676,0.02648,0.00066984,0.00042196,-0.00010094,5.8274e-06,0.00028005,0.052304,-0.014801,-0.015446,-0.00052489,3.0303e-05,0.0014563,0,0,0,0.026484,0.00071594,0.00037149,0.013056,0.0091905,0.025942,8.9623e-07,0.45,0.4,0.75
0.023885,0.0013388,-0.0036558,0.02635,0.00033109,6.7166e-05,-0.00017087,0.00018806,0.00038108,0.052461,-0.015188,-0.015874,-0.00088853,0.00097792,0.0019816,0,0,0,0.026357,0.00044894,-5.7572e-05,0.013207,0.0089161,0.026166,9.1874e-07,0.5,0.4,0.75
0.026512,0.0013073,-0.0036197,0.026238,6.2794e-05,-0.00024482,-0.00017421,0.00036249,0.00036921,0.052585,-0.01547,-0.01627,-0.00090591,0.001885,0.0019199,0,0,0,0.026245,0.00031047,-0.00049901,0.013372,0.0086854,0.02635,9.3625e-07,0.55,0.4,0.75
0.029144,0.001287,-0.003598,0.026144,-0.00012224,-0.0004527,-0.00011682,0.00047178,0.00026041,0.052632,-0.015659,-0.016518,-0.00060749,0.0024532,0.0013541,0,0,0,0.026147,0.0002199,-0.0007985,0.013473,0.0085229,0.026453,9.4556e-07,0.6,0.4,0.75
0.031775,0.00129,-0.0036118,0.026063,-0.00021434,-0.00050794,-2.7404e-05,0.00047436,0.00010203,0.052559,-0.015762,-0.016525,-0.0001425,0.0024667,0.00053055,0,0,0,0.026064,0.00014235,-0.00086581,0.013465,0.0084469,0.026441,9.4446e-07,0.65,0.4,0.75
0.0344,0.0013191,-0.0036663,0.025997,-0.00022453,-0.0004159,5.5081e-05,0.00036839,-4.5091e-05,0.052379,-0.015798,-0.016295,0.00028642,0.0019156,-0.00023448,0,0,0,0.025998,6.5646e-05,-0.00070677,0.013352,0.0084522,0.026328,9.3421e-07,0.7,0.4,0.75
0.037013,0.0013676,-0.0037513,0.025953,-0.00018538,-0.00023761,0.00010184,0.00019237,-0.00013577,0.052161,-0.0158,-0.015936,0.00052958,0.0010003,-0.000706,0,0,0,0.025955,8.1913e-07,-0.00042508,0.01319,0.0085101,0.02617,9.1946e-07,0.75,0.4,0.75
0.039616,0.0014236,-0.0038479,0.025938,-0.00013492,-5.162e-05,0.00010698,2.1419e-06,-0.00015917,0.051989,-0.015802,-0.015585,0.00055629,1.1138e-05,-0.00082768,0,0,0,0.02594,3.0768e-05,-0.00021879,0.013079,0.008584,0.026035,9.0601e-07,0.8,0.4,0.75
0.042212,0.0014754,-0.0039373,0.025952,-9.8014e-05,9.0226e-05,8.4083e-05,-0.00015825,-0.00013427,0.051908,-0.015821,-0.015332,0.00043723,-0.00082288,-0.00069819,0,0,0,0.025953,0.00018839,-0.00019724,0.013075,0.0086479,0.02596,8.9767e-07,0.85,0.4,0.75
0.044806,0.0015153,-0.0040068,0.025981,-8.0465e-05,0.00017523,5.2186e-05,-0.00026963,-8.8964e-05,0.051906,-0.015855,-0.01519,0.00027137,-0.0014021,-0.00046261,0,0,0,0.025982,0.00035131,-0.00025706,0.013119,0.008692,0.02594,8.9475e-07,0.9,0.4,0.75
0.047402,0.0015398,-0.00405,0.02601,-7.5818e-05,0.00021493,3.1404e-05,-0.00033192,-5.647e-05,0.051936,-0.015886,-0.01513,0.0001633,-0.001726,-0.00029365,0,0,0,0.02601,0.00043822,-0.00029932,0.013155,0.0087162,0.025948,8.9488e-07,0.95,0.4,0.75
0.048701,0.001548,-0.0040646,0.026021,-7.5486e-05,0.00022576,2.6611e-05,-0.00035158,-4.8452e-05,0.051952,-0.015899,-0.015116,0.00013838,-0.0018282,-0.00025195,0,0,0,0.026021,0.00046417,-0.00031404,0.013168,0.0087238,0.025955,8.9532e-07,1,0.4,0.75
0.0009119,7.659e-05,-0.00039177,0.02437,0.0094223,0.0092537,0.00058457,-3.8522e-05,-0.0029611,0.037534,-0.0013295,-0.0017677,0.0030398,-0.00020031,-0.015398,0,0,0,0.024973,0.0094098,0.0086632,0.0081547,0.014349,0.015951,2.0897e-07,0,0.45,0.75
0.0018767,0.00014963,-0.00077254,0.024521,0.0084844,0.0081481,0.00057141,-7.2101e-05,-0.0028553,0.039063,-0.0026328,-0.0035071,0.0029713,-0.00037492,-0.014847,0,0,0,0.025051,0.0084678,0.0076346,0.0087083,0.013718,0.017017,2.5703e-07,0.05,0.45,0.75
0.0039063,0.00028787,-0.001502,0.02511,0.0068037,0.0061689,0.00053313,-0.0001315,-0.0025513,0.042436,-0.0051599,-0.0068102,0.0027723,-0.00068378,-0.013267,0,0,0,0.025487,0.0067906,0.0058048,0.0098411,0.012694,0.01921,3.6822e-07,0.1,0.45,0.75
0.0061203,0.00040891,-0.0021496,0.025876,0.0053991,0.0045856,0.00047631,-0.00017814,-0.0021017,0.045761,-0.0074788,-0.0095938,0.0024768,-0.00092633,-0.010929,0,0,0,0.02611,0.0054057,0.004345,0.010883,0.011954,0.021256,4.9453e-07,0.15,0.45,0.75
0.0084824,0.00050958,-0.0026879,0.026411,0.004175,0.0033468,0.00040671,-0.00021481,-0.0015909,0.04831,-0.009505,-0.011658,0.0021149,-0.001117,-0.0082726,0,0,0,0.02654,0.0042094,0.0031841,0.011678,0.011311,0.022862,6.1272e-07,0.2,0.45,0.75
0.010951,0.00058684,-0.0031044,0.026711,0.003152,0.0024397,0.00032523,-0.00023881,-0.0010946,0.050067,-0.011186,-0.013038,0.0016912,-0.0012418,-0.0056921,0,0,0,0.026772,0.0032197,0.0023107,0.012231,0.010768,0.024021,7.0998e-07,0.25,0.45,0.75
0.013489,0.00063809,-0.0033999,0.02681,0.0023251,0.0017878,0.00023257,-0.00024166,-0.00065333,0.051152,-0.012508,-0.013905,0.0012093,-0.0012566,-0.0033973,0,0,0,0.026834,0.0024232,0.0016652,0.012584,0.010308,0.024799,7.8146e-07,0.3,0.45,0.75
0.016066,0.00066156,-0.0035831,0.026763,0.0016723,0.0012966,0.00013035,-0.00020922,-0.00027686,0.051745,-0.013491,-0.014468,0.00067782,-0.0010879,-0.0014397,0,0,0,0.026771,0.0017766,0.0011849,0.012793,0.0099107,0.025295,8.2996e-07,0.35,0.45,0.75
0.018664,0.00065725,-0.0036677,0.026631,0.00116,0.00087553,2.5394e-05,-0.00012515,3.2636e-05,0.052041,-0.014184,-0.014923,0.00013205,-0.00065077,0.00016971,0,0,0,0.026634,0.0012285,0.00080444,0.012915,0.0095555,0.02562,8.6298e-07,0.4,0.45,0.75
0.02127,0.00062873,-0.0036731,0.026465,0.00075127,0.0004559,-6.6227e-05,1.9059e-05,0.000262,0.052206,-0.01465,-0.015418,-0.00034438,9.9106e-05,0.0013624,0,0,0,0.026469,0.00079491,0.00040809,0.013031,0.0092241,0.02587,8.8862e-07,0.45,0.45,0.75
0.023884,0.00058506,-0.0036272,0.026303,0.00041756,1.5322e-05,-0.00012113,0.00020743,0.00038505,0.052346,-0.014956,-0.016002,-0.00062989,0.0010786,0.0020023,0,0,0,0.02631,0.00052086,-9.4622e-05,0.013202,0.008912,0.026103,9.1152e-07,0.5,0.45,0.75
0.026505,0.00054062,-0.0035665,0.026163,0.00014959,-0.00039791,-0.00012148,0.00039115,0.00038101,0.052475,-0.01516,-0.016584,-0.00063167,0.002034,0.0019812,0,0,0,0.02617,0.00036188,-0.00061654,0.013393,0.0086383,0.026312,9.3081e-07,0.55,0.45,0.75
0.029132,0.00051138,-0.0035293,0.026053,-4.1439e-05,-0.00067733,-6.9798e-05,0.00050611,0.00026242,0.052537,-0.015308,-0.016962,-0.00036295,0.0026318,0.0013646,0,0,0,0.026056,0.0002486,-0.00097084,0.013514,0.0084447,0.02644,9.4208e-07,0.6,0.45,0.75
0.031759,0.00050867,-0.0035428,0.025974,-0.00014308,-0.00073468,8.3353e-06,0.00050672,8.5311e-05,0.052475,-0.01543,-0.016968,4.3343e-05,0.002635,0.00044362,0,0,0,0.025975,0.00015814,-0.001037,0.013506,0.0083655,0.026437,9.4194e-07,0.65,0.45,0.75
0.034379,0.00053421,-0.0036124,0.025929,-0.00016699,-0.00057413,7.6976e-05,0.00039101,-7.4933e-05,0.052303,-0.015547,-0.016606,0.00040028,0.0020332,-0.00038965,0,0,0,0.02593,7.8388e-05,-0.00082042,0.013375,0.008396,0.026315,9.3161e-07,0.7,0.45,0.75
0.036989,0.00057999,-0.0037223,0.02592,-0.00014968,-0.00029442,0.00010972,0.00020123,-0.00016396,0.052106,-0.015675,-0.016051,0.00057056,0.0010464,-0.00085257,0,0,0,0.025922,2.1265e-05,-0.000467,0.013194,0.008492,0.026149,9.1687e-07,0.75,0.45,0.75
0.03959,0.00063298,-0.0038455,0.025947,-0.00012833,-1.8541e-05,0.00010265,1.3481e-08,-0.00017355,0.051982,-0.015814,-0.015528,0.00053379,7.0053e-08,-0.00090244,0,0,0,0.025949,7.5632e-05,-0.00022419,0.013086,0.0086,0.026025,9.0476e-07,0.8,0.45,0.75
0.042187,0.0006812,-0.0039572,0.026003,-0.0001215,0.00018066,7.1988e-05,-0.00016323,-0.00013261,0.051971,-0.015953,-0.015168,0.00037434,-0.0008488,-0.00068957,0,0,0,0.026004,0.00025995,-0.00020189,0.013103,0.0086875,0.025979,8.9937e-07,0.85,0.45,0.75
0.044787,0.00071741,-0.0040419,0.026071,-0.00012909,0.00029207,3.8873e-05,-0.00027053,-7.8343e-05,0.052044,-0.016076,-0.014981,0.00020214,-0.0014067,-0.00040738,0,0,0,0.026071,0.00043115,-0.00026866,0.01317,0.0087445,0.025997,9.0015e-07,0.9,0.45,0.75
0.047392,0.00073911,-0.0040935,0.026124,-0.00014091,0.00033924,2.1884e-05,-0.00032727,-4.991e-05,0.05213,-0.01616,-0.014912,0.00011379,-0.0017018,-0.00025953,0,0,0,0.026124,0.00051297,-0.00031484,0.01322,0.0087742,0.026036,9.0335e-07,0.95,0.45,0.75
0.048695,0.00074625,-0.0041107,0.026145,-0.00014628,0.00035094,1.974e-05,-0.00034453,-4.7714e-05,0.052167,-0.01619,-0.014897,0.00010265,-0.0017915,-0.00024811,0,0,0,0.026145,0.00053543,-0.00033091,0.013238,0.0087831,0.026054,9.0497e-07,1,0.45,0.75
0.00091455,1.0122e-05,-0.0003964,0.02444,0.0094459,0.0092846,8.0026e-05,-2.6559e-05,-0.0029985,0.037643,-0.0013432,-0.0017626,0.00041614,-0.0001381,-0.015592,0,0,0,0.025035,0.009444,0.0086924,0.0081711,0.01439,0.015981,2.1014e-07,0,0.5,0.75
0.0018821,1.8088e-05,-0.00078123,0.024593,0.0085036,0.0081801,8.0363e-05,-4.9544e-05,-0.0028943,0.039175,-0.0026566,-0.0034975,0.00041789,-0.00025763,-0.015051,0,0,0,0.025115,0.0085021,0.0076593,0.0087279,0.013759,0.017052,2.5858e-07,0.05,0.5,0.75
0.0039175,3.0225e-05,-0.0015178,0.025185,0.0068169,0.0062051,8.1556e-05,-9.0256e-05,-0.0025952,0.042556,-0.0052,-0.0067908,0.00042409,-0.00046933,-0.013495,0,0,0,0.025557,0.0068197,0.00583,0.0098635,0.012736,0.019253,3.7069e-07,0.1,0.5,0.75
0.0061377,3.5498e-05,-0.002171,0.025955,0.0054094,0.0046296,8.6326e-05,-0.00012307,-0.0021537,0.045887,-0.0075319,-0.0095595,0.00044889,-0.00063994,-0.011199,0,0,0,0.026187,0.0054218,0.0043848,0.010901,0.011998,0.021305,4.9808e-07,0.15,0.5,0.75
0.0085062,3.4747e-05,-0.0027136,0.026492,0.0041818,0.003403,9.3683e-05,-0.00015096,-0.0016536,0.048434,-0.0095736,-0.011598,0.00048715,-0.000785,-0.0085985,0,0,0,0.026622,0.0042093,0.0032462,0.011688,0.011359,0.022911,6.1706e-07,0.2,0.5,0.75
0.010981,2.758e-05,-0.0031329,0.026789,0.0031553,0.0025128,9.6147e-05,-0.00017221,-0.0011677,0.050177,-0.01127,-0.012941,0.00049997,-0.00089549,-0.0060723,0,0,0,0.026853,0.0032064,0.0023979,0.012227,0.010819,0.024062,7.142e-07,0.25,0.5,0.75
0.013524,1.2432e-05,-0.0034284,0.026877,0.0023278,0.0018794,8.5944e-05,-0.00017944,-0.00073253,0.051229,-0.012598,-0.013764,0.00044691,-0.00093307,-0.0038092,0,0,0,0.026904,0.0024085,0.0017717,0.012566,0.010361,0.024821,7.8408e-07,0.3,0.5,0.75
0.016104,-1.3067e-05,-0.0036072,0.026808,0.0016812,0.0013993,5.7537e-05,-0.00015889,-0.00035319,0.051768,-0.013562,-0.014295,0.00029919,-0.00082625,-0.0018366,0,0,0,0.026817,0.0017762,0.001295,0.012761,0.0099629,0.025286,8.2944e-07,0.35,0.5,0.75
0.018701,-5.0934e-05,-0.0036806,0.026642,0.0011842,0.0009657,1.2286e-05,-9.2424e-05,-2.9316e-05,0.051995,-0.014196,-0.014765,6.389e-05,-0.0004806,-0.00015244,0,0,0,0.026646,0.0012519,0.00089482,0.012875,0.0095975,0.025575,8.5858e-07,0.4,0.5,0.75
0.021303,-0.00010064,-0.0036669,0.026435,0.00079845,0.00049194,-3.6306e-05,3.1608e-05,0.00022236,0.052095,-0.014559,-0.015356,-0.00018879,0.00016436,0.0011563,0,0,0,0.026439,0.00083789,0.00044859,0.012995,0.0092417,0.025798,8.8112e-07,0.45,0.5,0.75
0.02391,-0.00015674,-0.0035961,0.026227,0.00048846,-4.7551e-05,-6.6374e-05,0.00019802,0.00036699,0.052189,-0.014731,-0.016124,-0.00034514,0.0010297,0.0019083,0,0,0,0.026233,0.00056389,-0.00012913,0.013181,0.0088892,0.026024,9.0266e-07,0.5,0.5,0.75
0.026522,-0.00020867,-0.0035111,0.026046,0.00023906,-0.00057014,-6.2027e-05,0.00036233,0.0003753,0.052291,-0.014807,-0.016911,-0.00032254,0.0018841,0.0019515,0,0,0,0.026052,0.0003876,-0.00072461,0.013388,0.0085717,0.02624,9.2184e-07,0.55,0.5,0.75
0.029139,-0.00024383,-0.0034588,0.025913,5.7789e-05,-0.00091769,-2.186e-05,0.00046746,0.00025712,0.052342,-0.014882,-0.017418,-0.00011367,0.0024308,0.001337,0,0,0,0.025916,0.00025804,-0.0011212,0.013519,0.0083511,0.026377,9.334e-07,0.6,0.5,0.75
0.031757,-0.000253,-0.0034724,0.025837,-4.8334e-05,-0.00097696,3.65e-05,0.00046625,7.414e-05,0.05229,-0.015013,-0.017427,0.0001898,0.0024245,0.00038553,0,0,0,0.025838,0.00015826,-0.0011846,0.013512,0.0082707,0.026379,9.3402e-07,0.65,0.5,0.75
0.034368,-0.0002356,-0.0035576,0.02582,-9.1486e-05,-0.00075113,8.3516e-05,0.00035687,-8.8674e-05,0.052146,-0.015225,-0.01694,0.00043428,0.0018557,-0.00046111,0,0,0,0.025821,7.6349e-05,-0.00091999,0.013371,0.0083259,0.02626,9.248e-07,0.7,0.5,0.75
0.036971,-0.00019985,-0.0036928,0.025858,-0.00010331,-0.00036166,0.00010023,0.00018345,-0.00017092,0.051995,-0.015505,-0.016176,0.00052118,0.00095395,-0.00088879,0,0,0,0.02586,3.459e-05,-0.00050129,0.013181,0.0084644,0.026099,9.1128e-07,0.75,0.5,0.75
0.039568,-0.00015779,-0.0038426,0.025938,-0.00011749,1.821e-05,8.5826e-05,1.8305e-06,-0.00016642,0.051936,-0.015809,-0.015456,0.00044629,9.5182e-06,-0.00086539,0,0,0,0.02594,0.00012169,-0.00022267,0.013081,0.008613,0.025993,9.0127e-07,0.8,0.5,0.75
0.042165,-0.00011997,-0.0039757,0.026045,-0.00014675,0.00028054,5.3848e-05,-0.00014262,-0.00011206,0.052009,-0.016089,-0.014978,0.00028001,-0.00074163,-0.00058269,0,0,0,0.026046,0.00033153,-0.00019879,0.013122,0.0087262,0.025984,8.9956e-07,0.85,0.5,0.75
0.044769,-9.2311e-05,-0.0040743,0.026153,-0.0001832,0.00041645,2.3937e-05,-0.00023265,-5.3617e-05,0.052166,-0.016308,-0.014749,0.00012447,-0.0012098,-0.00027881,0,0,0,0.026153,0.00050451,-0.00027175,0.013213,0.0087953,0.026046,9.0476e-07,0.9,0.5,0.75
0.047381,-7.6209e-05,-0.0041332,0.026233,-0.00021287,0.00046758,1.1696e-05,-0.00027726,-3.5395e-05,0.052313,-0.016446,-0.014677,6.082e-05,-0.0014417,-0.00018405,0,0,0,0.026233,0.00057611,-0.00032162,0.013277,0.0088292,0.026118,9.1147e-07,0.95,0.5,0.75
0.04869,-7.1007e-05,-0.0041526,0.026262,-0.00022424,0.00047858,1.1566e-05,-0.00029025,-4.2215e-05,0.052372,-0.016493,-0.014666,6.0146e-05,-0.0015093,-0.00021952,0,0,0,0.026262,0.00059323,-0.00033906,0.013301,0.0088388,0.026148,9.1442e-07,1,0.5,0.75
0.00091734,-5.7732e-05,-0.00039904,0.024513,0.0094567,0.0093129,-0.00043574,-1.1493e-05,-0.0030202,0.037765,-0.0013824,-0.0017562,-0.0022659,-5.9762e-05,-0.015705,0,0,0,0.025125,0.0094551,0.0087026,0.0082114,0.014428,0.016061,2.1335e-07,0,0.55,0.75
0.0018882,-0.00011604,-0.00078612,0.024667,0.0084964,0.0082066,-0.00042252,-2.1122e-05,-0.0029177,0.039313,-0.0027316,-0.0034849,-0.0021971,-0.00010983,-0.015172,0,0,0,0.025206,0.0084939,0.0076703,0.0087679,0.01379,0.01714,2.6281e-07,0.05,0.55,0.75
0.0039313,-0.00023213,-0.0015266,0.025265,0.0067789,0.0062308,-0.00038357,-3.7963e-05,-0.0026233,0.042724,-0.0053395,-0.0067647,-0.0019946,-0.00019741,-0.013641,0,0,0,0.025651,0.0067766,0.005847,0.009902,0.012758,0.019358,3.772e-07,0.1,0.55,0.75
0.0061606,-0.00034428,-0.0021829,0.026041,0.0053496,0.0046596,-0.00031998,-5.1934e-05,-0.00219,0.046077,-0.0077215,-0.0095154,-0.0016639,-0.00027006,-0.011388,0,0,0,0.026285,0.0053513,0.0044145,0.010935,0.012017,0.02142,5.0685e-07,0.15,0.55,0.75
0.008539,-0.00044777,-0.0027281,0.02658,0.0041084,0.0034426,-0.00023907,-6.5588e-05,-0.0017012,0.048629,-0.0097966,-0.011528,-0.0012432,-0.00034106,-0.0088461,0,0,0,0.026718,0.0041188,0.0032943,0.011712,0.011377,0.023025,6.2714e-07,0.2,0.55,0.75
0.011024,-0.0005402,-0.0031491,0.02687,0.0030776,0.0025674,-0.0001555,-7.8334e-05,-0.0012274,0.050354,-0.011508,-0.012834,-0.00080861,-0.00040734,-0.0063827,0,0,0,0.026941,0.0031075,0.0024672,0.012237,0.010838,0.024161,7.2393e-07,0.25,0.55,0.75
0.013574,-0.00062171,-0.0034449,0.026943,0.0022558,0.0019523,-8.3931e-05,-8.528e-05,-0.00080165,0.051361,-0.012826,-0.013615,-0.00043644,-0.00044346,-0.0041686,0,0,0,0.026975,0.0023212,0.0018553,0.01256,0.010384,0.024891,7.9145e-07,0.3,0.55,0.75
0.01616,-0.00069466,-0.0036207,0.026849,0.0016258,0.0014851,-3.5525e-05,-7.6221e-05,-0.0004244,0.051831,-0.013749,-0.014115,-0.00018473,-0.00039635,-0.0022069,0,0,0,0.026861,0.0017204,0.0013786,0.012741,0.0099866,0.025313,8.3262e-07,0.35,0.55,0.75
0.018758,-0.0007624,-0.0036859,0.026649,0.0011572,0.0010441,-1.3853e-05,-3.6047e-05,-9.2535e-05,0.051977,-0.014301,-0.014595,-7.2035e-05,-0.00018744,-0.00048118,0,0,0,0.026653,0.0012347,0.0009624,0.012845,0.0096167,0.025556,8.5691e-07,0.4,0.55,0.75
0.021357,-0.00082718,-0.0036572,0.026398,0.00080494,0.00051771,-9.8279e-06,4.5384e-05,0.00017451,0.052002,-0.014539,-0.015286,-5.1105e-05,0.00023599,0.00090748,0,0,0,0.026401,0.00084449,0.00047433,0.012964,0.0092401,0.025745,8.7563e-07,0.45,0.55,0.75
0.023958,-0.000888,-0.0035668,0.026135,0.00052594,-0.0001175,-7.9534e-06,0.00015493,0.00033182,0.052025,-0.014559,-0.016232,-4.1358e-05,0.00080563,0.0017255,0,0,0,0.026141,0.00056847,-0.00016562,0.013153,0.0088479,0.025949,8.9451e-07,0.5,0.55,0.75
0.02656,-0.00094012,-0.0034623,0.02591,0.00030977,-0.00072547,1.1328e-06,0.00026616,0.00034499,0.05207,-0.014491,-0.017183,5.8905e-06,0.001384,0.0017939,0,0,0,0.025916,0.00038581,-0.00080698,0.013361,0.0084982,0.026149,9.1136e-07,0.55,0.55,0.75
0.029165,-0.00097679,-0.003397,0.025761,0.00015731,-0.0011137,2.5493e-05,0.00034388,0.00023847,0.052096,-0.014474,-0.017779,0.00013257,0.0017882,0.00124,0,0,0,0.025764,0.00026009,-0.0012197,0.013492,0.0082683,0.026277,9.216e-07,0.6,0.55,0.75
0.03177,-0.00099262,-0.0034111,0.025688,5.2262e-05,-0.0011742,5.9366e-05,0.00034087,7.6362e-05,0.052048,-0.014604,-0.017792,0.0003087,0.0017725,0.00039708,0,0,0,0.025689,0.00015713,-0.0012804,0.013485,0.0081886,0.026282,9.2257e-07,0.65,0.55,0.75
0.03437,-0.00098824,-0.0035106,0.025691,-1.7903e-05,-0.00090955,7.9397e-05,0.00025564,-7.6766e-05,0.051939,-0.014905,-0.017223,0.00041287,0.0013293,-0.00039918,0,0,0,0.025692,6.4789e-05,-0.00099341,0.013343,0.0082545,0.026176,9.1523e-07,0.7,0.55,0.75
0.036963,-0.00097046,-0.0036669,0.025777,-6.1451e-05,-0.00043421,7.8195e-05,0.0001334,-0.00015808,0.051851,-0.015329,-0.016298,0.00040662,0.00069368,-0.00082202,0,0,0,0.025779,3.5616e-05,-0.00053294,0.013156,0.0084271,0.026034,9.0423e-07,0.75,0.55,0.75
0.039555,-0.00094791,-0.0038383,0.025915,-0.00010501,4.6192e-05,6.1006e-05,8.8848e-06,-0.00014631,0.051864,-0.015786,-0.015393,0.00031723,4.6201e-05,-0.0007608,0,0,0,0.025916,0.00015903,-0.00021946,0.013068,0.0086186,0.025949,8.966e-07,0.8,0.55,0.75
0.04215,-0.00092766,-0.0039887,0.026066,-0.00016631,0.00036958,3.4353e-05,-9.0477e-05,-8.301e-05,0.052011,-0.016194,-0.014801,0.00017864,-0.00047048,-0.00043165,0,0,0,0.026067,0.00039178,-0.00018957,0.013128,0.0087565,0.025972,8.9804e-07,0.85,0.55,0.75
0.044756,-0.00091339,-0.0040982,0.026209,-0.00022999,0.00052372,1.1747e-05,-0.00014969,-2.4216e-05,0.052241,-0.016499,-0.01454,6.1086e-05,-0.00077839,-0.00012592,0,0,0,0.026209,0.00056219,-0.000269,0.013239,0.0088341,0.026073,9.0725e-07,0.9,0.55,0.75
0.047374,-0.00090549,-0.0041624,0.026311,-0.00027557,0.00057541,3.5705e-06,-0.00017696,-1.8266e-05,0.052443,-0.016683,-0.014471,1.8566e-05,-0.00092017,-9.4984e-05,0,0,0,0.026312,0.00062252,-0.00032295,0.013317,0.0088704,0.026175,9.172e-07,0.95,0.55,0.75
0.048686,-0.00090304,-0.0041834,0.026348,-0.00029218,0.00058447,3.7482e-06,-0.0001845,-3.4609e-05,0.052521,-0.016744,-0.014465,1.9491e-05,-0.00095942,-0.00017997,0,0,0,0.026349,0.00063409,-0.00034201,0.013345,0.0088802,0.026216,9.2136e-07,1,0.55,0.75
0.00092004,-0.00012812,-0.00039935,0.024582,0.0094533,0.009336,-0.0009707,5.8014e-06,-0.0030233,0.037891,-0.0014444,-0.0017493,-0.0050476,3.0168e-05,-0.015721,0,0,0,0.02524,0.009442,0.008689,0.0082757,0.014457,0.016189,2.1858e-07,0,0.6,0.75
0.0018945,-0.00025507,-0.0007866,0.024738,0.0084621,0.0082244,-0.00094379,1.1527e-05,-0.002922,0.039463,-0.002853,-0.003471,-0.0049077,5.994e-05,-0.015194,0,0,0,0.025319,0.0084428,0.0076628,0.0088278,0.013808,0.017281,2.6964e-07,0.05,0.6,0.75
0.0039463,-0.00050373,-0.0015273,0.025342,0.0066902,0.0062417,-0.00086472,2.2367e-05,-0.0026311,0.042925,-0.0055698,-0.0067359,-0.0044966,0.00011631,-0.013682,0,0,0,0.025761,0.0066619,0.0058509,0.009955,0.012758,0.01952,3.8748e-07,0.1,0.6,0.75
0.006187,-0.00073665,-0.0021836,0.026125,0.0052217,0.0046694,-0.00073906,3.1079e-05,-0.0022038,0.046315,-0.0080331,-0.0094691,-0.0038431,0.00016161,-0.01146,0,0,0,0.026392,0.0051995,0.0044245,0.010984,0.012005,0.021593,5.2021e-07,0.15,0.6,0.75
0.0085778,-0.00094491,-0.0027288,0.02666,0.0039594,0.0034559,-0.00058176,3.6095e-05,-0.0017235,0.048872,-0.010151,-0.01146,-0.0030252,0.00018769,-0.008962,0,0,0,0.026814,0.003958,0.0033038,0.011755,0.011359,0.023192,6.4189e-07,0.2,0.6,0.75
0.011074,-0.0011232,-0.0031499,0.026939,0.0029264,0.0025893,-0.0004155,3.6829e-05,-0.0012594,0.050569,-0.011864,-0.012741,-0.0021606,0.00019151,-0.006549,0,0,0,0.027019,0.0029644,0.0024714,0.012274,0.010818,0.024307,7.3773e-07,0.25,0.6,0.75
0.013635,-0.0012701,-0.0034454,0.026992,0.0021189,0.0019863,-0.00026141,3.4649e-05,-0.00084221,0.05152,-0.013149,-0.013494,-0.0013593,0.00018018,-0.0043795,0,0,0,0.027029,0.0022178,0.0018504,0.012589,0.010366,0.024997,8.0203e-07,0.3,0.6,0.75
0.016226,-0.001388,-0.0036197,0.02687,0.001516,0.0015288,-0.00013472,3.3525e-05,-0.00046915,0.051913,-0.014007,-0.013974,-0.00070056,0.00017433,-0.0024396,0,0,0,0.026885,0.0016641,0.001366,0.012759,0.0099716,0.025371,8.3843e-07,0.35,0.6,0.75
0.018826,-0.0014811,-0.0036805,0.02664,0.0010841,0.0010855,-4.2587e-05,4.0087e-05,-0.00013531,0.051978,-0.014467,-0.014463,-0.00022145,0.00020845,-0.00070364,0,0,0,0.026645,0.0012119,0.00095247,0.012846,0.0096031,0.025564,8.5773e-07,0.4,0.6,0.75
0.021424,-0.0015546,-0.003644,0.026353,0.00076917,0.00052477,1.7333e-05,5.9369e-05,0.00013784,0.05193,-0.014588,-0.015224,9.0131e-05,0.00030872,0.00071678,0,0,0,0.026357,0.00082742,0.00046263,0.012947,0.0092157,0.025715,8.7255e-07,0.45,0.6,0.75
0.024019,-0.0016126,-0.0035436,0.026045,0.00052297,-0.00016758,5.223e-05,8.7095e-05,0.00029718,0.051878,-0.014481,-0.016276,0.00027159,0.00045289,0.0015453,0,0,0,0.026051,0.00054407,-0.00019398,0.013122,0.0088003,0.025886,8.8787e-07,0.5,0.6,0.75
0.026612,-0.0016578,-0.0034286,0.025788,0.00034329,-0.00081722,6.8046e-05,0.00011751,0.00030553,0.05186,-0.014296,-0.017313,0.00035384,0.00061107,0.0015888,0,0,0,0.025793,0.00036792,-0.00084715,0.01332,0.008438,0.026056,9.0144e-07,0.55,0.6,0.75
0.029205,-0.0016912,-0.0033554,0.025635,0.00022276,-0.0012273,7.4698e-05,0.00014137,0.00021359,0.051872,-0.014199,-0.017969,0.00038843,0.00073512,0.0011107,0,0,0,0.025638,0.00025733,-0.0012654,0.013452,0.00821,0.026177,9.1052e-07,0.6,0.6,0.75
0.031799,-0.0017134,-0.0033706,0.025563,0.00012409,-0.0012877,7.6751e-05,0.00013653,8.6982e-05,0.051824,-0.014317,-0.017987,0.0003991,0.00070995,0.00045231,0,0,0,0.025565,0.00015901,-0.0013245,0.013445,0.008133,0.026181,9.1133e-07,0.65,0.6,0.75
0.034387,-0.0017261,-0.00348,0.025573,3.4952e-05,-0.0010012,6.8073e-05,0.00010206,-5.2307e-05,0.051726,-0.014673,-0.017367,0.00035398,0.0005307,-0.00027199,0,0,0,0.025575,6.0463e-05,-0.0010281,0.013301,0.0082023,0.026079,9.0475e-07,0.7,0.6,0.75
0.036972,-0.0017327,-0.0036487,0.025692,-3.1121e-05,-0.00048317,5.1299e-05,5.9592e-05,-0.00014003,0.051693,-0.015188,-0.016363,0.00026676,0.00030988,-0.00072816,0,0,0,0.025694,3.5592e-05,-0.00055148,0.013123,0.0083927,0.025959,8.963e-07,0.75,0.6,0.75
0.039557,-0.0017364,-0.0038321,0.025873,-9.1747e-05,5.7952e-05,3.2884e-05,1.9127e-05,-0.00012837,0.051766,-0.015742,-0.015353,0.00017099,9.9462e-05,-0.00066754,0,0,0,0.025875,0.00018094,-0.0002163,0.013045,0.0086131,0.025895,8.9094e-07,0.8,0.6,0.75
0.042148,-0.0017394,-0.0039923,0.026054,-0.00017301,0.00042116,1.5194e-05,-1.2567e-05,-6.1416e-05,0.051959,-0.016231,-0.014686,7.9006e-05,-6.535e-05,-0.00031936,0,0,0,0.026055,0.0004281,-0.00018105,0.013118,0.0087674,0.025938,8.9437e-07,0.85,0.6,0.75
0.044753,-0.0017422,-0.0041078,0.026217,-0.0002555,0.00058449,3.0336e-06,-2.9847e-05,-3.6494e-06,0.052236,-0.016592,-0.014408,1.5775e-05,-0.0001552,-1.8977e-05,0,0,0,0.026217,0.00059622,-0.00026786,0.013243,0.0088485,0.026064,9.0615e-07,0.9,0.6,0.75
0.047372,-0.0017445,-0.0041748,0.026334,-0.00031192,0.00063504,-2.0658e-06,-3.6581e-05,-6.2757e-06,0.052473,-0.016805,-0.014343,-1.0742e-05,-0.00019022,-3.2634e-05,0,0,0,0.026334,0.00064943,-0.00032665,0.01333,0.0088856,0.026186,9.1823e-07,0.95,0.6,0.75
0.048685,-0.0017454,-0.0041966,0.026375,-0.00033211,0.00064232,-3.2111e-06,-3.8175e-05,-2.8964e-05,0.052564,-0.016875,-0.014341,-1.6698e-05,-0.00019851,-0.00015061,0,0,0,0.026376,0.0006575,-0.00034753,0.013362,0.0088952,0.026235,9.2317e-07,1,0.6,0.75
0.00092272,-0.00020217,-0.0003972,0.024648,0.0094342,0.0093536,-0.0015323,2.3803e-05,-0.0030068,0.038024,-0.0015328,-0.0017424,-0.0079678,0.00012377,-0.015635,0,0,0,0.025385,0.0094082,0.008643,0.008371,0.014479,0.016374,2.262e-07,0,0.65,0.75
0.0019012,-0.00040134,-0.00078243,0.024805,0.008397,0.0082322,-0.0014888,4.5532e-05,-0.0029057,0.039632,-0.0030281,-0.0034567,-0.0077416,0.00023677,-0.01511,0,0,0,0.025456,0.0083525,0.0076254,0.0089153,0.013811,0.01748,2.7948e-07,0.05,0.65,0.75
0.0039632,-0.00078911,-0.0015193,0.025415,0.006543,0.006234,-0.0013613,8.5345e-05,-0.002616,0.043163,-0.0059032,-0.0067065,-0.0070788,0.00044379,-0.013603,0,0,0,0.025887,0.0064809,0.0058241,0.010031,0.012731,0.019745,4.0192e-07,0.1,0.65,0.75
0.0062175,-0.0011476,-0.0021722,0.0262,0.0050174,0.0046528,-0.0011618,0.00011815,-0.0021911,0.046598,-0.0084771,-0.0094249,-0.0060414,0.00061437,-0.011394,0,0,0,0.026502,0.0049814,0.0043866,0.011058,0.011957,0.021827,5.3829e-07,0.15,0.65,0.75
0.008623,-0.0014629,-0.0027147,0.026726,0.0037302,0.0034349,-0.00091665,0.0001435,-0.0017143,0.049152,-0.010636,-0.011404,-0.0047666,0.00074619,-0.0089142,0,0,0,0.0269,0.0037611,0.0032295,0.011835,0.011297,0.023411,6.6083e-07,0.2,0.65,0.75
0.011133,-0.0017266,-0.0031338,0.026982,0.0027033,0.0025677,-0.00066019,0.00015955,-0.0012547,0.050802,-0.012324,-0.012676,-0.003433,0.00082967,-0.0065243,0,0,0,0.027073,0.0028268,0.0023535,0.01236,0.010751,0.024487,7.5441e-07,0.25,0.65,0.75
0.013703,-0.0019366,-0.0034281,0.027006,0.0019241,0.0019665,-0.00042098,0.00016373,-0.00084211,0.051679,-0.013536,-0.013425,-0.0021891,0.00085141,-0.004379,0,0,0,0.027048,0.0021454,0.0017034,0.012672,0.010299,0.025127,8.1427e-07,0.3,0.65,0.75
0.016301,-0.0020954,-0.0036019,0.026856,0.0013607,0.0015119,-0.00021698,0.00015273,-0.00047327,0.051988,-0.014299,-0.013906,-0.0011283,0.00079419,-0.002461,0,0,0,0.026872,0.0016367,0.0012197,0.012826,0.0099094,0.025447,8.4546e-07,0.35,0.65,0.75
0.018902,-0.0022091,-0.0036631,0.0266,0.00097126,0.001072,-5.6818e-05,0.00012232,-0.00014273,0.051974,-0.014661,-0.014399,-0.00029545,0.00063607,-0.00074219,0,0,0,0.026605,0.0011927,0.00084505,0.01288,0.0095477,0.025589,8.599e-07,0.4,0.65,0.75
0.021498,-0.002286,-0.0036276,0.026294,0.00069605,0.00051525,5.5096e-05,7.148e-05,0.0001283,0.051861,-0.014693,-0.015163,0.0002865,0.0003717,0.00066715,0,0,0,0.026298,0.00079158,0.00041573,0.012941,0.0091684,0.025697,8.7072e-07,0.45,0.65,0.75
0.024088,-0.0023361,-0.0035287,0.025973,0.00048388,-0.00017232,0.00011857,9.702e-06,0.00028693,0.05176,-0.014513,-0.016219,0.00061656,5.045e-05,0.0014921,0,0,0,0.025979,0.00050475,-0.00019872,0.013089,0.0087616,0.025835,8.8288e-07,0.5,0.65,0.75
0.026674,-0.0023697,-0.0034154,0.025709,0.00033097,-0.0008171,0.00014035,-5.1683e-05,0.00029619,0.05171,-0.014273,-0.017258,0.0007298,-0.00026875,0.0015402,0,0,0,0.025715,0.00034747,-0.00083925,0.013277,0.0084077,0.025983,8.9408e-07,0.55,0.65,0.75
0.029259,-0.0023967,-0.003344,0.025554,0.00022919,-0.0012237,0.00012654,-9.804e-05,0.00020643,0.051704,-0.01414,-0.017917,0.00065799,-0.00050981,0.0010734,0,0,0,0.025557,0.00025734,-0.0012557,0.013407,0.0081864,0.026091,9.0165e-07,0.6,0.65,0.75
0.031844,-0.0024243,-0.0033605,0.025484,0.00014143,-0.0012827,8.9526e-05,-0.0001046,8.2672e-05,0.051652,-0.014238,-0.01794,0.00046554,-0.00054392,0.00042989,0,0,0,0.025486,0.00017108,-0.0013143,0.0134,0.0081141,0.026091,9.0187e-07,0.65,0.65,0.75
0.034424,-0.0024556,-0.0034709,0.025498,5.6444e-05,-0.00099699,5.1116e-05,-7.159e-05,-5.3789e-05,0.051561,-0.014588,-0.017327,0.00026581,-0.00037227,-0.0002797,0,0,0,0.0255,7.6516e-05,-0.0010184,0.013259,0.008186,0.025991,8.9557e-07,0.7,0.65,0.75
0.037,-0.0024892,-0.0036402,0.025623,-1.0792e-05,-0.00048136,2.1167e-05,-2.2674e-05,-0.00013932,0.051542,-0.015107,-0.01633,0.00011007,-0.0001179,-0.00072448,0,0,0,0.025625,4.7844e-05,-0.00054152,0.013083,0.008377,0.025879,8.8797e-07,0.75,0.65,0.75
0.039578,-0.0025221,-0.0038238,0.02581,-7.5948e-05,5.6819e-05,1.5053e-06,2.9471e-05,-0.00012641,0.051631,-0.015672,-0.015327,7.8277e-06,0.00015325,-0.00065733,0,0,0,0.025811,0.00018722,-0.00020786,0.01301,0.0085969,0.025825,8.8367e-07,0.8,0.65,0.75
0.042164,-0.0025508,-0.0039842,0.025996,-0.00016305,0.00041734,-6.0708e-06,7.4562e-05,-5.908e-05,0.05184,-0.016174,-0.014665,-3.1568e-05,0.00038772,-0.00030721,0,0,0,0.025997,0.00043297,-0.00017977,0.013089,0.0087502,0.025877,8.8806e-07,0.85,0.65,0.75
0.044762,-0.0025726,-0.0040997,0.026163,-0.00025099,0.00057858,-5.9446e-06,0.00010389,-1.6669e-06,0.05213,-0.016547,-0.01439,-3.0912e-05,0.0005402,-8.6678e-06,0,0,0,0.026164,0.00060198,-0.00027503,0.013219,0.0088302,0.026012,9.0058e-07,0.9,0.65,0.75
0.047377,-0.002586,-0.0041668,0.026283,-0.00031119,0.0006278,-7.63e-06,0.0001189,-5.1618e-06,0.052376,-0.016769,-0.014327,-3.9676e-05,0.00061827,-2.6841e-05,0,0,0,0.026283,0.00065543,-0.00033916,0.013311,0.0088665,0.026139,9.1312e-07,0.95,0.65,0.75
0.048687,-0.0025905,-0.0041886,0.026325,-0.00033272,0.00063464,-1.039e-05,0.00012343,-2.8384e-05,0.05247,-0.016841,-0.014326,-5.403e-05,0.00064185,-0.0001476,0,0,0,0.026326,0.0006636,-0.00036193,0.013344,0.0088758,0.02619,9.1822e-07,1,0.65,0.75
0.00092593,-0.0002814,-0.00039281,0.024725,0.0093981,0.0093694,-0.0021298,4.0496e-05,-0.002972,0.03819,-0.0016606,-0.0017351,-0.011075,0.00021058,-0.015454,0,0,0,0.025578,0.0093655,0.0085487,0.0085149,0.014498,0.016638,2.372e-07,0,0.7,0.75
0.0019095,-0.00055788,-0.00077402,0.024881,0.0082924,0.0082312,-0.0020633,7.7115e-05,-0.0028703,0.039847,-0.0032822,-0.0034415,-0.010729,0.000401,-0.014925,0,0,0,0.025635,0.008239,0.0075305,0.0090521,0.013801,0.017763,2.9352e-07,0.05,0.7,0.75
0.0039847,-0.001094,-0.0015034,0.025493,0.0063177,0.0062052,-0.0018698,0.00014395,-0.0025791,0.043471,-0.0063833,-0.0066758,-0.0097227,0.00074855,-0.013412,0,0,0,0.026038,0.006259,0.0057188,0.010159,0.012672,0.020056,4.2191e-07,0.1,0.7,0.75
0.0062566,-0.0015844,-0.00215,0.026273,0.0047147,0.0046054,-0.0015724,0.00019919,-0.0021527,0.046955,-0.0090978,-0.0093821,-0.0081766,0.0010358,-0.011194,0,0,0,0.02662,0.0047298,0.0042438,0.011188,0.011864,0.022138,5.6218e-07,0.15,0.7,0.75
0.0086802,-0.0020085,-0.002687,0.026774,0.0034054,0.003375,-0.0012174,0.00024303,-0.0016743,0.04948,-0.011279,-0.011358,-0.0063307,0.0012638,-0.0087064,0,0,0,0.026971,0.0035543,0.0030293,0.011971,0.011185,0.023684,6.842e-07,0.2,0.7,0.75
0.011205,-0.0023555,-0.003102,0.026992,0.0024029,0.0024987,-0.00085792,0.00027214,-0.0012137,0.051044,-0.012889,-0.01264,-0.0044612,0.0014151,-0.0063115,0,0,0,0.027092,0.0026949,0.0021071,0.012492,0.010631,0.024697,7.7327e-07,0.25,0.7,0.75
0.013785,-0.0026237,-0.0033942,0.026975,0.0016737,0.0018898,-0.00053143,0.00028033,-0.00080179,0.051813,-0.013972,-0.01341,-0.0027634,0.0014577,-0.0041693,0,0,0,0.027019,0.0020746,0.0014452,0.012787,0.01018,0.025266,8.268e-07,0.3,0.7,0.75
0.016386,-0.0028179,-0.0035687,0.026792,0.0011666,0.001432,-0.00025616,0.00025816,-0.00043704,0.052026,-0.014601,-0.013911,-0.001332,0.0013424,-0.0022726,0,0,0,0.026808,0.001594,0.00098898,0.01291,0.009797,0.025522,8.5214e-07,0.35,0.7,0.75
0.018987,-0.0029471,-0.0036348,0.026517,0.00082631,0.001002,-3.8595e-05,0.00019319,-0.00011497,0.051937,-0.014859,-0.014402,-0.00020069,0.0010046,-0.00059782,0,0,0,0.026522,0.001144,0.00067936,0.012921,0.0094485,0.025614,8.6198e-07,0.4,0.7,0.75
0.02158,-0.0030239,-0.003609,0.026211,0.00059251,0.00048822,0.0001147,7.9584e-05,0.00014579,0.051773,-0.014834,-0.015105,0.00059644,0.00041384,0.00075808,0,0,0,0.026215,0.00072902,0.00034746,0.012934,0.0090971,0.025679,8.6893e-07,0.45,0.7,0.75
0.024164,-0.0030639,-0.0035228,0.025913,0.00041415,-0.0001325,0.00019797,-6.4065e-05,0.00030093,0.051657,-0.01464,-0.016061,0.0010295,-0.00033314,0.0015649,0,0,0,0.025919,0.00045708,-0.00018188,0.013051,0.0087316,0.02579,8.7864e-07,0.5,0.7,0.75
0.026745,-0.0030851,-0.0034233,0.025671,0.00027682,-0.00072576,0.0002157,-0.00020573,0.0003165,0.051611,-0.014413,-0.01702,0.0011216,-0.0010698,0.0016458,0,0,0,0.025677,0.00033193,-0.00078742,0.013232,0.0084073,0.025926,8.8869e-07,0.55,0.7,0.75
0.029325,-0.0031052,-0.0033628,0.025518,0.00017946,-0.0011031,0.00017605,-0.00030533,0.00021634,0.051591,-0.01429,-0.017625,0.00091544,-0.0015877,0.001125,0,0,0,0.025522,0.00026519,-0.0011928,0.013358,0.0081982,0.026019,8.9467e-07,0.6,0.7,0.75
0.031904,-0.0031371,-0.0033811,0.025452,0.00010619,-0.001159,0.00010166,-0.00031331,6.2823e-05,0.051535,-0.014363,-0.017653,0.00052864,-0.0016292,0.00032668,0,0,0,0.025453,0.00019603,-0.0012504,0.013352,0.0081329,0.026013,8.9414e-07,0.65,0.7,0.75
0.034479,-0.0031849,-0.0034835,0.025469,4.7397e-05,-0.00089663,3.1259e-05,-0.00022906,-8.1707e-05,0.051447,-0.014649,-0.017103,0.00016255,-0.0011911,-0.00042488,0,0,0,0.02547,0.00011345,-0.00096374,0.013217,0.0082065,0.025915,8.8782e-07,0.7,0.7,0.75
0.037049,-0.0032434,-0.0036415,0.025572,-5.3043e-07,-0.00042848,-1.5659e-05,-9.9803e-05,-0.0001564,0.051401,-0.015087,-0.0162,-8.1427e-05,-0.00051898,-0.00081326,0,0,0,0.025573,7.2186e-05,-0.00050268,0.013038,0.008381,0.025796,8.795e-07,0.75,0.7,0.75
0.039619,-0.0033036,-0.0038139,0.025727,-5.8224e-05,4.2978e-05,-3.631e-05,3.6987e-05,-0.00014082,0.051464,-0.015579,-0.015315,-0.00018881,0.00019233,-0.00073226,0,0,0,0.025729,0.00017801,-0.00019475,0.012962,0.0085707,0.02574,8.7507e-07,0.8,0.7,0.75
0.042195,-0.0033568,-0.0039649,0.025895,-0.00013732,0.00035798,-3.3397e-05,0.00015041,-7.6388e-05,0.051657,-0.016026,-0.014739,-0.00017367,0.00078211,-0.00039722,0,0,0,0.025896,0.00040596,-0.00018633,0.013041,0.0087051,0.025792,8.794e-07,0.85,0.7,0.75
0.044785,-0.0033969,-0.0040747,0.026049,-0.0002174,0.00050552,-2.0457e-05,0.00022225,-1.8596e-05,0.051926,-0.016368,-0.014488,-0.00010638,0.0011557,-9.6702e-05,0,0,0,0.02605,0.00057792,-0.00029034,0.01317,0.0087791,0.025917,8.9082e-07,0.9,0.7,0.75
0.047388,-0.0034214,-0.0041391,0.02616,-0.00027426,0.00055303,-1.6547e-05,0.00025817,-1.5145e-05,0.052152,-0.016576,-0.014425,-8.6046e-05,0.0013425,-7.8752e-05,0,0,0,0.02616,0.00063824,-0.00035976,0.01326,0.0088128,0.026035,9.0214e-07,0.95,0.7,0.75
0.048693,-0.0034296,-0.0041601,0.026199,-0.00029487,0.00056067,-1.9453e-05,0.00026879,-3.303e-05,0.052239,-0.016646,-0.014421,-0.00010115,0.0013977,-0.00017176,0,0,0,0.026199,0.00064981,-0.00038424,0.013292,0.0088217,0.026082,9.0677e-07,1,0.7,0.75
0.00093098,-0.00036824,-0.00038677,0.024844,0.009342,0.0093925,-0.0027778,5.3519e-05,-0.0029236,0.038447,-0.0018578,-0.0017265,-0.014445,0.0002783,-0.015203,0,0,0,0.025861,0.0093351,0.0083818,0.0087398,0.014526,0.017025,2.5365e-07,0,0.75,0.75
0.0019223,-0.00072956,-0.0007625,0.024994,0.0081299,0.0082251,-0.0026751,0.00010194,-0.0028203,0.040174,-0.0036713,-0.0034238,-0.013911,0.00053011,-0.014665,0,0,0,0.025888,0.0081328,0.0073278,0.0092802,0.013783,0.018174,3.1412e-07,0.05,0.75,0.75
0.0040174,-0.0014274,-0.0014818,0.025598,0.0059747,0.0061514,-0.0023813,0.00019042,-0.0025255,0.04392,-0.0071,-0.0066406,-0.012383,0.0009902,-0.013133,0,0,0,0.026234,0.0060407,0.0054492,0.010392,0.012575,0.020497,4.5014e-07,0.1,0.75,0.75
0.0063143,-0.0020574,-0.0021198,0.026358,0.0042749,0.0045219,-0.0019443,0.0002636,-0.0020945,0.047437,-0.0099778,-0.0093358,-0.01011,0.0013707,-0.010892,0,0,0,0.026751,0.0044841,0.0039195,0.011416,0.011718,0.022556,5.9386e-07,0.15,0.75,0.75
0.0087611,-0.0025907,-0.0026495,0.026808,0.0029625,0.0032738,-0.0014473,0.00032119,-0.0016111,0.049875,-0.012124,-0.011315,-0.0075259,0.0016702,-0.0083778,0,0,0,0.027023,0.0033469,0.0026752,0.012174,0.011015,0.02402,7.1243e-07,0.2,0.75,0.75
0.011302,-0.0030155,-0.0030591,0.026962,0.0020194,0.0023849,-0.00097226,0.00035808,-0.0011465,0.051281,-0.013569,-0.012619,-0.0050557,0.001862,-0.005962,0,0,0,0.027064,0.0025426,0.0017593,0.012652,0.010455,0.024923,7.9322e-07,0.25,0.75,0.75
0.013889,-0.0033338,-0.0033486,0.026886,0.0013717,0.0017641,-0.00056371,0.00036549,-0.00073364,0.05189,-0.014447,-0.013426,-0.0029313,0.0019006,-0.0038149,0,0,0,0.026927,0.0019601,0.0011343,0.012896,0.010007,0.025391,8.3775e-07,0.3,0.75,0.75
0.016491,-0.0035555,-0.003525,0.026667,0.00094115,0.0013018,-0.0002331,0.00033065,-0.00037443,0.051987,-0.014899,-0.013961,-0.0012121,0.0017194,-0.001947,0,0,0,0.02668,0.0014947,0.00073512,0.012972,0.0096365,0.025574,8.5633e-07,0.35,0.75,0.75
0.019088,-0.003695,-0.0035996,0.026382,0.00065938,0.00088922,2.1233e-05,0.0002384,-6.6301e-05,0.051835,-0.015044,-0.014447,0.00011041,0.0012397,-0.00034477,0,0,0,0.026386,0.0010459,0.00049856,0.012944,0.0093103,0.025619,8.6205e-07,0.4,0.75,0.75
0.021674,-0.0037695,-0.00359,0.026093,0.00046753,0.00043913,0.00019705,8.1726e-05,0.00017528,0.051643,-0.014984,-0.015058,0.0010246,0.00042498,0.00091145,0,0,0,0.026098,0.00063806,0.0002636,0.012917,0.009,0.02565,8.66e-07,0.45,0.75,0.75
0.024252,-0.0038001,-0.0035253,0.025839,0.00032014,-7.4678e-05,0.00028653,-0.00011845,0.00031636,0.05153,-0.014818,-0.015845,0.00149,-0.00061595,0.0016451,0,0,0,0.025847,0.00040052,-0.00016306,0.013005,0.0086947,0.025734,8.7342e-07,0.5,0.75,0.75
0.026827,-0.003811,-0.0034478,0.025639,0.00019701,-0.00057207,0.00028909,-0.00031207,0.00032821,0.051504,-0.014646,-0.016646,0.0015033,-0.0016228,0.0017067,0,0,0,0.025647,0.00031972,-0.00070264,0.013175,0.0084214,0.025856,8.8242e-07,0.55,0.75,0.75
0.029403,-0.0038257,-0.0034029,0.025509,0.00010333,-0.00090038,0.00021945,-0.00043781,0.00021996,0.051495,-0.014558,-0.017168,0.0011412,-0.0022766,0.0011438,0,0,0,0.025513,0.00027986,-0.0010814,0.013297,0.0082372,0.025943,8.879e-07,0.6,0.75,0.75
0.031977,-0.0038606,-0.0034228,0.025449,4.6633e-05,-0.00095131,0.00011143,-0.0004466,5.0724e-05,0.051441,-0.014606,-0.0172,0.00057942,-0.0023223,0.00026377,0,0,0,0.025451,0.00022916,-0.0011353,0.013293,0.0081815,0.025933,8.8684e-07,0.65,0.75,0.75
0.034547,-0.0039204,-0.0035129,0.025458,1.9195e-05,-0.00072893,9.1331e-06,-0.00033719,-9.8286e-05,0.051342,-0.014799,-0.016744,4.7492e-05,-0.0017534,-0.00051109,0,0,0,0.025459,0.00015829,-0.00086896,0.013164,0.0082494,0.025832,8.7985e-07,0.7,0.75,0.75
0.037111,-0.0039979,-0.0036513,0.025525,-2.4817e-06,-0.00035137,-5.7077e-05,-0.00015571,-0.00016989,0.051262,-0.015109,-0.016016,-0.0002968,-0.00080968,-0.0008834,0,0,0,0.025527,9.5123e-05,-0.00045053,0.012989,0.0083904,0.025711,8.71e-07,0.75,0.75,0.75
0.039673,-0.00408,-0.0038033,0.025634,-4.1779e-05,1.3105e-05,-7.9081e-05,3.911e-05,-0.00015925,0.051285,-0.015472,-0.015329,-0.00041122,0.00020337,-0.00082808,0,0,0,0.025635,0.00015352,-0.00018382,0.01291,0.008535,0.025653,8.6634e-07,0.8,0.75,0.75
0.04224,-0.0041534,-0.0039378,0.025765,-0.00010134,0.00026055,-6.7432e-05,0.00019843,-0.00010298,0.051434,-0.015818,-0.014877,-0.00035065,0.0010318,-0.00053548,0,0,0,0.025766,0.00035332,-0.00019518,0.01298,0.0086413,0.025692,8.694e-07,0.85,0.75,0.75
0.044816,-0.0042093,-0.0040374,0.025891,-0.00016507,0.00038451,-4.2668e-05,0.00030167,-4.587e-05,0.051651,-0.016096,-0.014667,-0.00022188,0.0015687,-0.00023852,0,0,0,0.025892,0.00052552,-0.00030659,0.013099,0.0087035,0.025793,8.782e-07,0.9,0.75,0.75
0.047405,-0.0042436,-0.0040969,0.025982,-0.00021324,0.00042802,-3.0303e-05,0.00035525,-3.1228e-05,0.051836,-0.016273,-0.014605,-0.00015758,0.0018473,-0.00016239,0,0,0,0.025983,0.00059488,-0.00038035,0.013182,0.0087324,0.02589,8.8713e-07,0.95,0.75,0.75
0.048701,-0.0042551,-0.0041165,0.026016,-0.00023111,0.00043641,-3.0945e-05,0.0003714,-4.0305e-05,0.051908,-0.016333,-0.014598,-0.00016091,0.0019313,-0.00020959,0,0,0,0.026016,0.0006112,-0.00040611,0.013211,0.0087403,0.025929,8.9083e-07,1,0.75,0.75
0.00094058,-0.00046718,-0.00038016,0.025068,0.009257,0.0094394,-0.0034987,6.0189e-05,-0.00287,0.038917,-0.0021902,-0.001716,-0.018193,0.00031298,-0.014924,0,0,0,0.02631,0.0093438,0.0081104,0.0090997,0.014588,0.017618,2.7966e-07,0,0.8,0.75
0.0019459,-0.00092501,-0.0007499,0.025198,0.0078695,0.0082193,-0.0033315,0.00011527,-0.0027641,0.040743,-0.0043113,-0.003402,-0.017324,0.0005994,-0.014373,0,0,0,0.026275,0.0080629,0.0069492,0.0096627,0.013762,0.018797,3.4582e-07,0.05,0.8,0.75
0.0040743,-0.001804,-0.0014582,0.025766,0.0054405,0.0060631,-0.0028703,0.00021673,-0.0024639,0.04463,-0.0082165,-0.0065978,-0.014925,0.001127,-0.012812,0,0,0,0.026502,0.0058584,0.0049092,0.010797,0.012423,0.021139,4.9096e-07,0.1,0.8,0.75
0.0064089,-0.0025821,-0.0020867,0.026469,0.0036437,0.0043935,-0.0022262,0.00030123,-0.0020266,0.048115,-0.01123,-0.0092804,-0.011576,0.0015664,-0.010538,0,0,0,0.026898,0.0042672,0.0033405,0.011779,0.011502,0.023112,6.3533e-07,0.15,0.8,0.75
0.0088858,-0.0032209,-0.0026084,0.026821,0.0023876,0.0031303,-0.0015528,0.00036634,-0.0015369,0.050332,-0.013196,-0.011265,-0.0080745,0.001905,-0.0079918,0,0,0,0.027039,0.0031406,0.0021596,0.01244,0.01078,0.024406,7.442e-07,0.2,0.8,0.75
0.011442,-0.0037125,-0.0030121,0.026867,0.0015631,0.0022307,-0.00096625,0.00040503,-0.0010679,0.051457,-0.014332,-0.012596,-0.0050245,0.0021062,-0.0055531,0,0,0,0.026962,0.0023575,0.0013407,0.012811,0.01022,0.025129,8.1083e-07,0.25,0.8,0.75
0.014031,-0.0040683,-0.0032991,0.026709,0.0010335,0.0015998,-0.0005008,0.00040752,-0.00065506,0.051838,-0.014918,-0.013446,-0.0026041,0.0021191,-0.0034063,0,0,0,0.026744,0.0017908,0.0008078,0.012968,0.0097808,0.025459,8.432e-07,0.3,0.8,0.75
0.016626,-0.0043077,-0.0034783,0.026454,0.0006983,0.0011378,-0.00014637,0.00036096,-0.00030414,0.051807,-0.015159,-0.014016,-0.0007611,0.001877,-0.0015815,0,0,0,0.026464,0.0013371,0.00048949,0.012987,0.0094301,0.025562,8.5445e-07,0.35,0.8,0.75
0.019212,-0.0044515,-0.0035632,0.026177,0.00048417,0.00075196,0.00011419,0.00025209,-1.4688e-05,0.051613,-0.015189,-0.014493,0.00059379,0.0013109,-7.6378e-05,0,0,0,0.026181,0.00090584,0.00032656,0.012927,0.0091378,0.025571,8.5695e-07,0.4,0.8,0.75
0.021787,-0.0045224,-0.0035723,0.025927,0.00033609,0.00037168,0.00028669,7.6945e-05,0.00020164,0.051429,-0.015107,-0.015014,0.0014908,0.00040011,0.0010485,0,0,0,0.025933,0.00052814,0.00017321,0.01288,0.0088782,0.025585,8.5947e-07,0.45,0.8,0.75
0.024355,-0.0045457,-0.003533,0.025727,0.00021753,-2.8042e-05,0.00036537,-0.00014297,0.00031979,0.051341,-0.014984,-0.015623,0.0018999,-0.00074344,0.0016629,0,0,0,0.025737,0.00033433,-0.00015454,0.012946,0.0086389,0.025652,8.655e-07,0.5,0.8,0.75
0.026921,-0.0045498,-0.0034806,0.025584,0.00011488,-0.00040336,0.00034762,-0.00035349,0.00031958,0.051342,-0.014879,-0.016226,0.0018076,-0.0018381,0.0016618,0,0,0,0.025593,0.00030181,-0.00059927,0.013096,0.008432,0.025756,8.7327e-07,0.55,0.8,0.75
0.029489,-0.004561,-0.0034522,0.025494,3.6941e-05,-0.00065444,0.00025061,-0.00048672,0.0002127,0.051358,-0.01483,-0.016627,0.0013032,-0.0025309,0.001106,0,0,0,0.025499,0.00029678,-0.00091926,0.013209,0.0082921,0.025833,8.7833e-07,0.6,0.8,0.75
0.032057,-0.0045977,-0.0034737,0.025449,-3.1425e-06,-0.00069902,0.00011425,-0.00049553,5.1981e-05,0.051319,-0.014856,-0.016665,0.00059411,-0.0025768,0.0002703,0,0,0,0.02545,0.00026241,-0.00096616,0.013208,0.0082488,0.025826,8.7744e-07,0.65,0.8,0.75
0.034621,-0.0046648,-0.0035501,0.025443,-1.1042e-05,-0.00054251,-1.2546e-05,-0.0003785,-9.1739e-05,0.051219,-0.014963,-0.016344,-6.5242e-05,-0.0019682,-0.00047704,0,0,0,0.025444,0.00019114,-0.00074562,0.013095,0.0082966,0.025737,8.71e-07,0.7,0.8,0.75
0.037179,-0.0047543,-0.0036654,0.025475,-1.1695e-05,-0.00027943,-9.3385e-05,-0.00017994,-0.00016794,0.051124,-0.01514,-0.015837,-0.0004856,-0.00093567,-0.00087331,0,0,0,0.025476,0.0001043,-0.0003971,0.012937,0.0083945,0.025628,8.6291e-07,0.75,0.8,0.75
0.039733,-0.0048508,-0.0037929,0.025538,-2.773e-05,-2.6017e-05,-0.00011843,3.4583e-05,-0.00017002,0.051108,-0.015363,-0.015358,-0.00061586,0.00017983,-0.00088412,0,0,0,0.02554,0.00012034,-0.00017596,0.012858,0.0084947,0.025569,8.5803e-07,0.8,0.8,0.75
0.04229,-0.0049386,-0.0039079,0.025623,-6.3775e-05,0.00015083,-0.00010237,0.00021224,-0.00012638,0.051194,-0.015592,-0.015034,-0.0005323,0.0011036,-0.00065717,0,0,0,0.025624,0.00028601,-0.00020026,0.012912,0.0085701,0.025586,8.5895e-07,0.85,0.8,0.75
0.044853,-0.0050065,-0.0039953,0.025711,-0.00010878,0.00024403,-6.8398e-05,0.00033197,-7.272e-05,0.05134,-0.01579,-0.014873,-0.00035567,0.0017262,-0.00037814,0,0,0,0.025711,0.00044925,-0.00031462,0.013013,0.0086153,0.025653,8.6439e-07,0.9,0.8,0.75
0.047424,-0.0050487,-0.0040486,0.025776,-0.00014549,0.00027949,-4.6468e-05,0.00039696,-4.7303e-05,0.051472,-0.015924,-0.014819,-0.00024164,0.0020642,-0.00024598,0,0,0,0.025776,0.00052386,-0.00039012,0.013083,0.0086367,0.025722,8.7041e-07,0.95,0.8,0.75
0.048711,-0.0050629,-0.0040663,0.0258,-0.00015951,0.00028718,-4.3223e-05,0.00041708,-4.7196e-05,0.051524,-0.015972,-0.01481,-0.00022476,0.0021688,-0.00024542,0,0,0,0.025801,0.00054376,-0.00041631,0.013108,0.0086427,0.025751,8.7297e-07,1,0.8,0.75
0.00096169,-0.00058726,-0.00037459,0.025531,0.0090984,0.0095367,-0.0043316,5.755e-05,-0.0028236,0.03988,-0.0028436,-0.0017039,-0.022524,0.00029926,-0.014683,0,0,0,0.027074,0.0094193,0.0076729,0.0097003,0.014722,0.018593,3.25e-07,0,0.85,0.75
0.001994,-0.0011607,-0.00073922,0.025592,0.0073993,0.008209,-0.0040256,0.00011205,-0.0027143,0.04182,-0.0054823,-0.003377,-0.020933,0.00058265,-0.014114,0,0,0,0.026888,0.0080248,0.0062881,0.0103,0.013734,0.019795,3.9788e-07,0.05,0.85,0.75
0.004182,-0.0022491,-0.0014379,0.026046,0.0045794,0.0059133,-0.003251,0.0002147,-0.0024069,0.045795,-0.010017,-0.0065484,-0.016905,0.0011165,-0.012516,0,0,0,0.02686,0.0056807,0.0039975,0.011431,0.012179,0.022078,5.5004e-07,0.1,0.85,0.75
0.0065736,-0.0031804,-0.002058,0.02661,0.002788,0.0042115,-0.0023099,0.00030221,-0.0019621,0.04902,-0.012917,-0.0092156,-0.012012,0.0015715,-0.010203,0,0,0,0.02704,0.0040609,0.0025087,0.012265,0.011203,0.0238,6.8517e-07,0.15,0.85,0.75
0.009084,-0.0039103,-0.0025724,0.026764,0.0017177,0.0029424,-0.0014619,0.00036787,-0.0014656,0.050732,-0.014388,-0.011204,-0.0076021,0.0019129,-0.007621,0,0,0,0.026962,0.0029226,0.0015397,0.012711,0.010475,0.024763,7.7212e-07,0.2,0.85,0.75
0.011647,-0.0044487,-0.0029708,0.026634,0.0010778,0.0020325,-0.00081491,0.00040341,-0.00099193,0.051401,-0.015044,-0.012562,-0.0042375,0.0020977,-0.005158,0,0,0,0.026713,0.0021282,0.00090328,0.012905,0.0099147,0.02522,8.1729e-07,0.25,0.85,0.75
0.014224,-0.0048256,-0.0032556,0.026383,0.0006937,0.001398,-0.00035091,0.0004,-0.0005794,0.051511,-0.015281,-0.01345,-0.0018248,0.00208,-0.0030129,0,0,0,0.026409,0.0015638,0.00050232,0.012953,0.0094916,0.025393,8.3589e-07,0.3,0.85,0.75
0.016798,-0.0050714,-0.0034376,0.026112,0.00046252,0.00094741,-2.1275e-05,0.00034726,-0.00023767,0.051379,-0.015311,-0.01405,-0.00011063,0.0018058,-0.0012359,0,0,0,0.026119,0.0011272,0.00027624,0.012921,0.0091741,0.025429,8.4118e-07,0.35,0.85,0.75
0.019362,-0.0052139,-0.0035319,0.025874,0.00031813,0.00059858,0.00020898,0.00023595,3.1806e-05,0.051197,-0.015247,-0.014518,0.0010867,0.0012269,0.00016539,0,0,0,0.025878,0.00073341,0.00017919,0.012849,0.0089301,0.025427,8.4274e-07,0.4,0.85,0.75
0.021918,-0.0052801,-0.0035582,0.02569,0.00021545,0.00029053,0.00035251,6.6459e-05,0.00022132,0.051077,-0.015158,-0.014962,0.0018331,0.00034559,0.0011509,0,0,0,0.025698,0.00040835,8.9829e-05,0.012804,0.0087321,0.025451,8.462e-07,0.45,0.85,0.75
0.02447,-0.0052985,-0.0035418,0.025567,0.00012829,-2.367e-06,0.00040646,-0.00013956,0.00031539,0.051058,-0.015082,-0.015422,0.0021136,-0.00072574,0.00164,0,0,0,0.025577,0.00026317,-0.00014787,0.012863,0.0085643,0.025523,8.5297e-07,0.5,0.85,0.75
0.027023,-0.0052989,-0.0035122,0.025494,5.1401e-05,-0.00025947,0.00036893,-0.00033413,0.00030451,0.051112,-0.015038,-0.015846,0.0019184,-0.0017375,0.0015834,0,0,0,0.025503,0.00026864,-0.00048593,0.012994,0.0084285,0.025622,8.6084e-07,0.55,0.85,0.75
0.029581,-0.0053087,-0.0034987,0.025454,-4.8695e-06,-0.0004276,0.0002563,-0.00045682,0.00020401,0.051167,-0.015025,-0.016124,0.0013328,-0.0023755,0.0010608,0,0,0,0.025458,0.00029156,-0.00072897,0.013094,0.0083404,0.025694,8.6616e-07,0.6,0.85,0.75
0.03214,-0.0053462,-0.0035214,0.025432,-3.023e-05,-0.00046449,0.00010784,-0.00046495,5.8479e-05,0.05116,-0.015041,-0.01617,0.00056074,-0.0024178,0.00030409,0,0,0,0.025433,0.0002699,-0.00076616,0.0131,0.0083123,0.025698,8.6647e-07,0.65,0.85,0.75
0.034697,-0.0054167,-0.003585,0.025421,-2.8309e-05,-0.00037639,-2.7731e-05,-0.00035734,-7.5294e-05,0.051084,-0.015083,-0.015988,-0.0001442,-0.0018582,-0.00039153,0,0,0,0.025422,0.00019788,-0.00060345,0.013013,0.0083387,0.025635,8.6195e-07,0.7,0.85,0.75
0.037248,-0.005512,-0.0036789,0.025424,-1.7076e-05,-0.0002191,-0.0001143,-0.00017439,-0.0001554,0.050989,-0.015157,-0.015682,-0.00059437,-0.00090682,-0.0008081,0,0,0,0.025425,0.0001005,-0.00033835,0.012882,0.0083958,0.025548,8.5525e-07,0.75,0.85,0.75
0.039796,-0.0056162,-0.0037839,0.025444,-1.6173e-05,-6.2756e-05,-0.00014243,2.5432e-05,-0.00017206,0.050935,-0.015261,-0.015382,-0.00074061,0.00013224,-0.00089474,0,0,0,0.025446,8.7404e-05,-0.0001684,0.012807,0.008455,0.025488,8.4999e-07,0.8,0.85,0.75
0.042342,-0.0057126,-0.0038809,0.025481,-3.3203e-05,4.8898e-05,-0.00012604,0.00019545,-0.00014326,0.050952,-0.015384,-0.015171,-0.00065542,0.0010163,-0.00074495,0,0,0,0.025482,0.00021321,-0.0001991,0.012841,0.0084988,0.025479,8.485e-07,0.85,0.85,0.75
0.044891,-0.0057884,-0.0039566,0.025524,-6.1172e-05,0.00010903,-8.7403e-05,0.00031453,-9.517e-05,0.05102,-0.015502,-0.01506,-0.0004545,0.0016356,-0.00049488,0,0,0,0.025525,0.00035382,-0.00030678,0.012916,0.008524,0.025509,8.5045e-07,0.9,0.85,0.75
0.047444,-0.005836,-0.0040039,0.025559,-8.6078e-05,0.00013268,-5.901e-05,0.0003816,-6.1207e-05,0.051091,-0.015587,-0.015019,-0.00030685,0.0019843,-0.00031828,0,0,0,0.02556,0.00042504,-0.00037879,0.012969,0.0085353,0.025547,8.5342e-07,0.95,0.85,0.75
0.048722,-0.0058522,-0.0040199,0.025573,-9.5901e-05,0.000138,-5.2757e-05,0.00040285,-5.3046e-05,0.051121,-0.015618,-0.01501,-0.00027434,0.0020948,-0.00027584,0,0,0,0.025573,0.0004455,-0.00040365,0.012988,0.0085383,0.025563,8.5479e-07,1,0.85,0.75
0.0010095,-0.00075153,-0.00037226,0.026501,0.0086005,0.0096835,-0.0052069,4.3392e-05,-0.002802,0.042032,-0.00451,-0.0016941,-0.027076,0.00022564,-0.01457,0,0,0,0.028384,0.009549,0.0068528,0.010765,0.014928,0.020329,4.1289e-07,0,0.9,0.75
0.0021016,-0.0014732,-0.00073452,0.026402,0.00644,0.0081748,-0.0045625,8.8383e-05,-0.0026887,0.044034,-0.0078658,-0.0033553,-0.023725,0.00045959,-0.013981,0,0,0,0.02787,0.0079751,0.0051716,0.011349,0.013672,0.021448,4.8768e-07,0.05,0.9,0.75
0.0044034,-0.0028057,-0.0014284,0.026544,0.0033169,0.0057066,-0.0032373,0.00017709,-0.0023729,0.047673,-0.012716,-0.0065031,-0.016834,0.00092086,-0.012339,0,0,0,0.027327,0.0054696,0.0027707,0.012278,0.011856,0.023337,6.2848e-07,0.1,0.9,0.75
0.0068689,-0.0038738,-0.0020435,0.026704,0.0018502,0.0039891,-0.0020162,0.00025588,-0.0019187,0.049905,-0.014716,-0.0091544,-0.010484,0.0013306,-0.0099772,0,0,0,0.027073,0.0038365,0.0016345,0.012719,0.010848,0.02442,7.2761e-07,0.15,0.9,0.75
0.0093939,-0.0046598,-0.0025532,0.02645,0.0010698,0.0026835,-0.0011215,0.00031301,-0.0014119,0.050647,-0.01534,-0.011145,-0.0058318,0.0016277,-0.007342,0,0,0,0.026606,0.0026431,0.00095381,0.012826,0.010068,0.024854,7.7591e-07,0.2,0.9,0.75
0.011934,-0.0052169,-0.0029476,0.02611,0.00064045,0.0017638,-0.00054066,0.00034124,-0.00092856,0.050777,-0.015443,-0.012522,-0.0028114,0.0017745,-0.0048285,0,0,0,0.026168,0.0018214,0.00052427,0.012822,0.0095046,0.025022,7.9735e-07,0.25,0.9,0.75
0.014472,-0.0055965,-0.0032301,0.025811,0.00040095,0.0011431,-0.00016541,0.00033455,-0.00051046,0.050695,-0.01537,-0.013441,-0.00086012,0.0017397,-0.0026544,0,0,0,0.025828,0.0012642,0.00026228,0.012783,0.0091183,0.025081,8.0614e-07,0.3,0.9,0.75
0.017003,-0.0058388,-0.0034128,0.025586,0.00026447,0.00072349,8.4366e-05,0.00028619,-0.00017184,0.050579,-0.015257,-0.014063,0.0004387,0.0014882,-0.00089354,0,0,0,0.025591,0.00086191,0.00012141,0.012735,0.008858,0.025108,8.1068e-07,0.35,0.9,0.75
0.01953,-0.0059762,-0.0035125,0.025442,0.00018114,0.00042488,0.00025108,0.00019091,8.3573e-05,0.05052,-0.015158,-0.014524,0.0013056,0.00099275,0.00043458,0,0,0,0.025446,0.00052993,7.1678e-05,0.012687,0.0086826,0.025149,8.1605e-07,0.4,0.9,0.75
0.022055,-0.0060381,-0.0035497,0.025371,0.00011996,0.00019101,0.00034843,5.1596e-05,0.0002509,0.050556,-0.015097,-0.014913,0.0018118,0.0002683,0.0013047,0,0,0,0.025379,0.00027849,2.4458e-05,0.012677,0.0085608,0.025229,8.2456e-07,0.45,0.9,0.75
0.024585,-0.0060539,-0.0035483,0.025358,6.4794e-05,-6.3182e-06,0.00037438,-0.00011292,0.00032337,0.050681,-0.015082,-0.015266,0.0019468,-0.00058719,0.0016815,0,0,0,0.025368,0.00018317,-0.00013467,0.012751,0.0084722,0.025346,8.3577e-07,0.5,0.9,0.75
0.027123,-0.0060535,-0.003534,0.025378,1.4515e-05,-0.0001659,0.00032748,-0.00026548,0.00030109,0.050846,-0.015098,-0.015567,0.0017029,-0.0013805,0.0015657,0,0,0,0.025386,0.00020739,-0.00036697,0.012876,0.0084087,0.025472,8.4704e-07,0.55,0.9,0.75
0.02967,-0.0060635,-0.0035304,0.025403,-2.1717e-05,-0.00026735,0.00022128,-0.00036096,0.00020213,0.050979,-0.015125,-0.015763,0.0011507,-0.001877,0.0010511,0,0,0,0.025407,0.00023914,-0.00053248,0.01297,0.0083713,0.025564,8.5508e-07,0.6,0.9,0.75
0.032221,-0.0061018,-0.0035536,0.025414,-3.5679e-05,-0.00029401,8.802e-05,-0.00036763,6.4747e-05,0.051026,-0.015144,-0.015815,0.0004577,-0.0019117,0.00033668,0,0,0,0.025416,0.00022696,-0.00055794,0.012987,0.0083615,0.025591,8.5774e-07,0.65,0.9,0.75
0.034772,-0.0061731,-0.0036082,0.025405,-2.9355e-05,-0.00025222,-3.2387e-05,-0.00028469,-6.4838e-05,0.050979,-0.01515,-0.01573,-0.00016841,-0.0014804,-0.00033716,0,0,0,0.025406,0.00016675,-0.00044908,0.012927,0.0083745,0.025554,8.5501e-07,0.7,0.9,0.75
0.037319,-0.00627,-0.0036872,0.025382,-1.5225e-05,-0.00017231,-0.00010999,-0.00014228,-0.00015126,0.050876,-0.015156,-0.015564,-0.00057197,-0.00073986,-0.00078653,0,0,0,0.025383,8.1792e-05,-0.00027094,0.012827,0.008398,0.02548,8.489e-07,0.75,0.9,0.75
0.03986,-0.0063769,-0.0037767,0.025357,-7.7582e-06,-9.1474e-05,-0.00013637,1.5894e-05,-0.00018223,0.050773,-0.015175,-0.015392,-0.00070913,8.265e-05,-0.0009476,0,0,0,0.025359,5.6991e-05,-0.00015838,0.012759,0.0084191,0.02541,8.4242e-07,0.8,0.9,0.75
0.042396,-0.006477,-0.0038617,0.02534,-1.3465e-05,-3.3773e-05,-0.00012239,0.00015375,-0.00016633,0.050709,-0.015211,-0.015264,-0.00063644,0.00079948,-0.00086492,0,0,0,0.025342,0.0001385,-0.00018756,0.012765,0.008431,0.025369,8.3793e-07,0.85,0.9,0.75
0.044931,-0.0065567,-0.0039298,0.025334,-2.841e-05,-3.7277e-06,-8.651e-05,0.00025292,-0.00012123,0.050688,-0.015255,-0.015191,-0.00044985,0.0013152,-0.0006304,0,0,0,0.025335,0.00024087,-0.00027404,0.012805,0.0084341,0.025357,8.3607e-07,0.9,0.9,0.75
0.047465,-0.0066074,-0.0039734,0.025335,-4.3123e-05,7.0525e-06,-6.0435e-05,0.00031011,-7.7319e-05,0.050692,-0.015292,-0.015161,-0.00031426,0.0016126,-0.00040206,0,0,0,0.025336,0.00029731,-0.00033383,0.012835,0.008433,0.02536,8.3589e-07,0.95,0.9,0.75
0.048732,-0.0066247,-0.0039883,0.025336,-4.9113e-05,9.1531e-06,-5.5429e-05,0.0003285,-6.0902e-05,0.050697,-0.015305,-0.015154,-0.00028823,0.0017082,-0.00031669,0,0,0,0.025337,0.00031423,-0.00035447,0.012846,0.0084321,0.025364,8.3604e-07,1,0.9,0.75
0.0012006,-0.0010383,-0.00037559,0.030064,0.0085643,0.010743,-0.006298,2.4047e-05,-0.0028305,0.048544,-0.0073561,-0.0016906,-0.032749,0.00012505,-0.014719,0,0,0,0.032347,0.010592,0.0064332,0.012957,0.016457,0.024122,7.0163e-07,0,0.95,0.75
0.0024272,-0.0019473,-0.00074047,0.028741,0.0055387,0.0086102,-0.0049002,5.4514e-05,-0.0027167,0.048992,-0.011333,-0.0033471,-0.025481,0.00028347,-0.014127,0,0,0,0.030319,0.0083926,0.0041783,0.01307,0.014297,0.024327,6.9427e-07,0.05,0.95,0.75
0.0048992,-0.0035207,-0.0014385,0.026946,0.0018821,0.0054058,-0.0026514,0.00011892,-0.0023942,0.04952,-0.015647,-0.0064853,-0.013787,0.0006184,-0.01245,0,0,0,0.027574,0.0051562,0.0015039,0.013035,0.011411,0.024468,6.9739e-07,0.1,0.95,0.75
0.0073792,-0.0046519,-0.0020559,0.026051,0.00090421,0.0035217,-0.0013429,0.00017877,-0.0019237,0.049447,-0.015935,-0.0091298,-0.0069828,0.00092961,-0.010003,0,0,0,0.026326,0.0033589,0.000792,0.012767,0.010159,0.024361,7.1453e-07,0.15,0.95,0.75
0.0098438,-0.0054443,-0.002566,0.025394,0.00041373,0.0021823,-0.00063736,0.00021985,-0.0013936,0.049231,-0.015719,-0.01112,-0.0033143,0.0011432,-0.0072468,0,0,0,0.025512,0.0021186,0.00035944,0.012576,0.0093302,0.024326,7.2706e-07,0.2,0.95,0.75
0.012302,-0.0059931,-0.0029588,0.025037,0.00020254,0.0013189,-0.00024847,0.00023837,-0.0008839,0.049162,-0.015409,-0.012506,-0.0012921,0.0012395,-0.0045963,0,0,0,0.025082,0.0013359,0.00014117,0.01247,0.0088529,0.024368,7.3815e-07,0.25,0.95,0.75
0.01476,-0.0063626,-0.003238,0.024858,0.00010429,0.00076969,-2.1083e-05,0.00023177,-0.00044211,0.049192,-0.015168,-0.013438,-0.00010963,0.0012052,-0.002299,0,0,0,0.024871,0.000839,2.2164e-05,0.012424,0.0085774,0.024452,7.4892e-07,0.3,0.95,0.75
0.017222,-0.0065971,-0.0034168,0.024804,5.9949e-05,0.00042299,0.00012205,0.00019674,-8.7959e-05,0.049318,-0.015016,-0.014072,0.00063467,0.0010231,-0.00045739,0,0,0,0.024807,0.00051215,-3.2795e-05,0.01242,0.0084289,0.024573,7.6142e-07,0.35,0.95,0.75
0.019692,-0.0067297,-0.0035133,0.024846,3.9235e-05,0.00019967,0.00021421,0.00013089,0.00017096,0.049549,-0.014949,-0.014532,0.0011139,0.00068062,0.00088897,0,0,0,0.024851,0.0002757,-4.1405e-05,0.012446,0.0083617,0.024736,7.7725e-07,0.4,0.95,0.75
0.022176,-0.0067899,-0.0035493,0.024962,2.5676e-05,4.7506e-05,0.00026441,3.7144e-05,0.00032918,0.049879,-0.014954,-0.014897,0.0013749,0.00019315,0.0017117,0,0,0,0.02497,0.00012166,-5.6575e-05,0.012513,0.0083449,0.024938,7.9665e-07,0.45,0.95,0.75
0.02468,-0.0068067,-0.003549,0.025119,1.1048e-05,-6.3241e-05,0.00027022,-7.1406e-05,0.00038336,0.050269,-0.015011,-0.015204,0.0014052,-0.00037131,0.0019935,0,0,0,0.025128,8.1898e-05,-0.0001435,0.012636,0.0083555,0.02516,8.1788e-07,0.5,0.95,0.75
0.027203,-0.0068087,-0.0035371,0.025278,-4.8358e-06,-0.00014281,0.00022993,-0.00017068,0.00033935,0.050644,-0.015091,-0.015449,0.0011956,-0.00088752,0.0017646,0,0,0,0.025285,0.00011701,-0.00027196,0.012778,0.0083767,0.025365,8.3747e-07,0.55,0.95,0.75
0.029744,-0.0068211,-0.0035353,0.025399,-1.6697e-05,-0.00018927,0.00015217,-0.00023247,0.00021956,0.050921,-0.015159,-0.015608,0.0007913,-0.0012088,0.0011417,0,0,0,0.025402,0.00015035,-0.00035992,0.012881,0.0083976,0.025512,8.515e-07,0.6,0.95,0.75
0.032295,-0.0068606,-0.0035581,0.025454,-1.9762e-05,-0.00020004,5.8043e-05,-0.00023733,6.2765e-05,0.051041,-0.015192,-0.015661,0.00030182,-0.0012341,0.00032638,0,0,0,0.025455,0.00014857,-0.00036944,0.012912,0.0084115,0.025571,8.5736e-07,0.65,0.95,0.75
0.034848,-0.0069317,-0.0036098,0.02544,-1.4712e-05,-0.00018077,-2.6158e-05,-0.00018481,-8.6226e-05,0.050997,-0.015185,-0.015617,-0.00013602,-0.000961,-0.00044837,0,0,0,0.025441,0.0001092,-0.0003056,0.012873,0.0084148,0.025542,8.5495e-07,0.7,0.95,0.75
0.037395,-0.0070276,-0.003685,0.025372,-7.7888e-06,-0.00014628,-8.0556e-05,-9.3457e-05,-0.00019161,0.050836,-0.015151,-0.015511,-0.00041889,-0.00048598,-0.00099637,0,0,0,0.025374,5.1108e-05,-0.00020726,0.012791,0.0084059,0.025453,8.4661e-07,0.75,0.95,0.75
0.039932,-0.0071337,-0.0037717,0.02528,-6.1464e-06,-0.00011356,-9.9329e-05,9.3798e-06,-0.00023693,0.050631,-0.015112,-0.015391,-0.00051651,4.8775e-05,-0.001232,0,0,0,0.025283,2.6571e-05,-0.00014917,0.012716,0.0083866,0.025344,8.36e-07,0.8,0.95,0.75
0.042458,-0.0072337,-0.0038556,0.025191,-1.2452e-05,-9.3108e-05,-8.957e-05,0.00010032,-0.00022519,0.050445,-0.015083,-0.015293,-0.00046576,0.00052165,-0.001171,0,0,0,0.025193,6.3719e-05,-0.00017189,0.012683,0.0083617,0.025249,8.2641e-07,0.85,0.95,0.75
0.044976,-0.0073139,-0.0039244,0.025123,-2.3643e-05,-8.5698e-05,-6.3776e-05,0.00016667,-0.00017094,0.050311,-0.01507,-0.015231,-0.00033163,0.00086667,-0.00088886,0,0,0,0.025125,0.00011846,-0.00022939,0.012677,0.0083379,0.025182,8.1962e-07,0.9,0.95,0.75
0.047489,-0.0073652,-0.0039691,0.025082,-3.3816e-05,-8.5652e-05,-4.9514e-05,0.00020537,-0.00010634,0.050237,-0.015066,-0.015201,-0.00025747,0.0010679,-0.00055297,0,0,0,0.025083,0.00015124,-0.0002714,0.012677,0.008321,0.025146,8.1588e-07,0.95,0.95,0.75
0.048745,-0.0073828,-0.0039845,0.025069,-3.7861e-05,-8.6534e-05,-5.0546e-05,0.0002179,-7.7288e-05,0.050213,-0.015065,-0.015192,-0.00026284,0.0011331,-0.0004019,0,0,0,0.02507,0.00016127,-0.00028606,0.012678,0.008315,0.025136,8.1474e-07,1,0.95,0.75
0.0013586,-0.0012276,-0.00037897,0.032971,0.0089189,0.011722,-0.0069647,1.4833e-05,-0.0028612,0.053558,-0.0089777,-0.0016908,-0.036217,7.7132e-05,-0.014878,0,0,0,0.035485,0.011564,0.0065626,0.014461,0.017871,0.026794,9.317e-07,0,1,0.75
0.0026779,-0.0022393,-0.00074671,0.030531,0.0052879,0.0090718,-0.0050553,3.792e-05,-0.0027487,0.052446,-0.013186,-0.0033477,-0.026287,0.00019718,-0.014293,0,0,0,0.032163,0.0088449,0.0038827,0.01414,0.014964,0.026173,8.4373e-07,0.05,1,0.75
0.0052446,-0.0039227,-0.0014497,0.027025,0.0011753,0.0052165,-0.0022259,8.9251e-05,-0.002424,0.050214,-0.016994,-0.0064869,-0.011575,0.0004641,-0.012605,0,0,0,0.027556,0.0049566,0.00090351,0.013326,0.011139,0.024896,7.2274e-07,0.1,1,0.75
0.0076993,-0.0050572,-0.0020706,0.025381,0.00041163,0.0031716,-0.0009371,0.00013808,-0.0019426,0.048611,-0.016308,-0.0091322,-0.0048729,0.000718,-0.010101,0,0,0,0.025611,0.0029997,0.00035318,0.012629,0.0096546,0.024054,6.8544e-07,0.15,1,0.75
0.010106,-0.0058401,-0.0025826,0.024598,5.6519e-05,0.0018349,-0.00038912,0.00017008,-0.0013958,0.04806,-0.015746,-0.011123,-0.0020234,0.00088439,-0.0072581,0,0,0,0.024702,0.0017589,2.8298e-05,0.012337,0.0088297,0.023861,6.8593e-07,0.2,1,0.75
0.012505,-0.0063791,-0.0029753,0.024325,-3.9744e-05,0.0010312,-0.00011678,0.00018356,-0.00086683,0.048056,-0.015293,-0.012509,-0.00060727,0.00095449,-0.0045075,0,0,0,0.024365,0.0010293,-7.7833e-05,0.012221,0.0084389,0.023911,6.9781e-07,0.25,1,0.75
0.014911,-0.0067417,-0.0032525,0.024268,-6.4202e-05,0.00053999,3.1318e-05,0.00017764,-0.00040676,0.04825,-0.015013,-0.013442,0.00016285,0.00092373,-0.0021152,0,0,0,0.024279,0.00058481,-0.00012033,0.0122,0.0082478,0.024056,7.1348e-07,0.3,1,0.75
0.01733,-0.0069719,-0.0034277,0.024338,-5.8925e-05,0.00024453,0.00012115,0.00015052,-3.8271e-05,0.048565,-0.014868,-0.014079,0.00062998,0.00078271,-0.00019901,0,0,0,0.024342,0.00031016,-0.00012778,0.012235,0.0081746,0.024254,7.3242e-07,0.35,1,0.75
0.019768,-0.0071029,-0.0035198,0.024502,-4.3989e-05,6.7505e-05,0.00017765,0.00010087,0.00022855,0.04899,-0.01483,-0.01454,0.00092379,0.00052454,0.0011884,0,0,0,0.024507,0.00013153,-0.00011286,0.01231,0.0081751,0.024499,7.5526e-07,0.4,1,0.75
0.022229,-0.0071634,-0.0035514,0.024733,-2.8669e-05,-4.0417e-05,0.0002066,3.1205e-05,0.00038664,0.049507,-0.014873,-0.014903,0.0010743,0.00016227,0.0020105,0,0,0,0.024741,3.3032e-05,-0.00011061,0.012426,0.0082212,0.02478,7.8171e-07,0.45,1,0.75
0.024719,-0.0071818,-0.0035474,0.024994,-1.7893e-05,-0.00010874,0.00020537,-4.8687e-05,0.00043257,0.050064,-0.014967,-0.015203,0.0010679,-0.00025317,0.0022494,0,0,0,0.025004,2.4465e-05,-0.00016072,0.012582,0.0082892,0.025073,8.0954e-07,0.5,1,0.75
0.027236,-0.007186,-0.0035329,0.025239,-1.2318e-05,-0.00015135,0.00017208,-0.00012131,0.00037375,0.050576,-0.015077,-0.015439,0.0008948,-0.00063082,0.0019435,0,0,0,0.025246,6.6392e-05,-0.00023732,0.012742,0.0083584,0.025333,8.347e-07,0.55,1,0.75
0.029776,-0.0072002,-0.0035295,0.025418,-9.3429e-06,-0.00017225,0.00011262,-0.00016652,0.00023514,0.050944,-0.015166,-0.01559,0.00058563,-0.00086593,0.0012227,0,0,0,0.025421,0.00010154,-0.00028658,0.012854,0.008412,0.025516,8.5262e-07,0.6,1,0.75
0.03233,-0.0072405,-0.0035517,0.025499,-6.2229e-06,-0.00017307,4.209e-05,-0.00017054,5.8339e-05,0.051105,-0.015208,-0.015642,0.00021887,-0.00088681,0.00030336,0,0,0,0.0255,0.00010613,-0.00028645,0.012893,0.0084397,0.025592,8.6022e-07,0.65,1,0.75
0.034887,-0.0073114,-0.0036039,0.025477,-3.028e-06,-0.00015892,-2.0553e-05,-0.00013307,-0.00010908,0.051052,-0.015197,-0.015602,-0.00010688,-0.00069197,-0.00056719,0,0,0,0.025479,7.849e-05,-0.00024156,0.01286,0.0084385,0.025562,8.5738e-07,0.7,1,0.75
0.037435,-0.0074063,-0.0036806,0.025379,-2.6446e-06,-0.00013917,-6.0941e-05,-6.7306e-05,-0.00022853,0.050843,-0.015149,-0.015504,-0.00031689,-0.00034999,-0.0011883,0,0,0,0.025382,3.4728e-05,-0.00017914,0.01278,0.0084124,0.025455,8.4691e-07,0.75,1,0.75
0.039971,-0.0075112,-0.0037697,0.025244,-7.8742e-06,-0.00012349,-7.4875e-05,7.1971e-06,-0.00028108,0.050566,-0.015088,-0.015389,-0.00038935,3.7425e-05,-0.0014616,0,0,0,0.025247,1.1082e-05,-0.00014606,0.012697,0.0083708,0.025315,8.3319e-07,0.8,1,0.75
0.042492,-0.0076103,-0.0038566,0.025111,-1.8539e-05,-0.00011697,-6.7552e-05,7.3464e-05,-0.00026828,0.050304,-0.015034,-0.01529,-0.00035127,0.00038201,-0.001395,0,0,0,0.025115,2.6698e-05,-0.0001655,0.01264,0.0083253,0.025185,8.2028e-07,0.85,1,0.75
0.045001,-0.0076899,-0.0039283,0.025008,-3.1252e-05,-0.00011849,-4.8169e-05,0.00012204,-0.0002049,0.050105,-0.014996,-0.015223,-0.00025048,0.00063462,-0.0010655,0,0,0,0.02501,5.6953e-05,-0.00020874,0.012609,0.008286,0.025087,8.1061e-07,0.9,1,0.75
0.047503,-0.007741,-0.0039751,0.024945,-4.1367e-05,-0.00012294,-4.1602e-05,0.00015048,-0.00012577,0.049988,-0.014976,-0.015188,-0.00021633,0.00078247,-0.00065401,0,0,0,0.024945,7.6554e-05,-0.00024174,0.012594,0.0082601,0.02503,8.0495e-07,0.95,1,0.75
0.048752,-0.0077585,-0.0039913,0.024924,-4.5194e-05,-0.00012512,-4.6547e-05,0.00015969,-8.8619e-05,0.049949,-0.01497,-0.015177,-0.00024204,0.00083041,-0.00046082,0,0,0,0.024924,8.2616e-05,-0.00025339,0.012589,0.0082511,0.025011,8.0313e-07,1,1,0.75
0.0013444,0.0011925,-0.00044218,0.032638,0.0088055,0.011423,0.0067524,-7.8811e-06,-0.0033048,0.05314,-0.0088257,-0.0020205,0.035112,-4.0982e-05,-0.017185,0,0,0,0.035165,0.011222,0.0064794,0.014343,0.017622,0.026646,9.2444e-07,0,0,0.8
0.002657,0.0021704,-0.00087528,0.030266,0.0052036,0.0086584,0.004883,-2.7989e-05,-0.0031361,0.052215,-0.012947,-0.0039649,0.025392,-0.00014554,-0.016308,0,0,0,0.031927,0.0083762,0.0038244,0.014051,0.014709,0.026144,8.5503e-07,0.05,0,0.8
0.0052215,0.0037903,-0.0017067,0.026895,0.0011359,0.0046448,0.0021121,-7.5983e-05,-0.0026754,0.050321,-0.016652,-0.0075288,0.010983,-0.00039511,-0.013912,0,0,0,0.027459,0.0043367,0.00087959,0.01329,0.010892,0.025057,7.5566e-07,0.1,0,0.8
0.0076891,0.0048731,-0.002443,0.025347,0.00040673,0.0025923,0.00085403,-0.00012104,-0.002041,0.048895,-0.01595,-0.010268,0.004441,-0.00062942,-0.010613,0,0,0,0.025586,0.0024061,0.00035386,0.012616,0.0094487,0.024282,7.1753e-07,0.15,0,0.8
0.010111,0.0056203,-0.0030502,0.024591,7.9428e-05,0.0013566,0.00032843,-0.00014379,-0.0013865,0.048321,-0.01541,-0.012089,0.0017078,-0.00074772,-0.0072098,0,0,0,0.024691,0.0012852,5.065e-05,0.01232,0.0086757,0.024052,7.0894e-07,0.2,0,0.8
0.012521,0.0061411,-0.0035233,0.024307,-8.3949e-06,0.00067707,7.6093e-05,-0.00014598,-0.00082637,0.048213,-0.015007,-0.013225,0.00039569,-0.00075911,-0.0042971,0,0,0,0.024343,0.00068257,-4.9689e-05,0.012196,0.0083253,0.024037,7.1171e-07,0.25,0,0.8
0.014932,0.0065038,-0.0038766,0.02423,-3.9294e-05,0.00028913,-5.0093e-05,-0.00013337,-0.00039777,0.04831,-0.01479,-0.013936,-0.00026048,-0.00069351,-0.0020684,0,0,0,0.02424,0.0003395,-9.9613e-05,0.01217,0.00816,0.024124,7.2079e-07,0.3,0,0.8
0.017352,0.0067528,-0.0041309,0.024278,-4.814e-05,7.0489e-05,-0.00011406,-0.0001116,-9.4152e-05,0.048544,-0.014706,-0.014397,-0.00059311,-0.00058033,-0.00048959,0,0,0,0.024281,0.00014658,-0.00012663,0.012204,0.0081003,0.024272,7.3455e-07,0.35,0,0.8
0.019787,0.0069192,-0.0043074,0.024404,-4.9368e-05,-4.8676e-05,-0.00014314,-8.5141e-05,0.00010523,0.048867,-0.014712,-0.01471,-0.00074435,-0.00044273,0.00054719,0,0,0,0.024406,4.2485e-05,-0.00014247,0.012274,0.008102,0.024457,7.5151e-07,0.4,0,0.8
0.022239,0.0070267,-0.0044254,0.024573,-4.7641e-05,-0.00010851,-0.00015034,-5.7517e-05,0.00022213,0.04924,-0.014774,-0.014932,-0.00078175,-0.00029909,0.0011551,0,0,0,0.024577,-9.8208e-06,-0.00014953,0.012363,0.0081391,0.024657,7.7008e-07,0.45,0,0.8
0.024711,0.0070938,-0.0045013,0.024758,-4.4821e-05,-0.00013362,-0.0001425,-3.1772e-05,0.00027586,0.049624,-0.014864,-0.015095,-0.00074101,-0.00016521,0.0014345,0,0,0,0.024762,-3.2883e-05,-0.00014958,0.012456,0.0081933,0.024854,7.8867e-07,0.5,0,0.8
0.027201,0.0071354,-0.0045489,0.024937,-4.144e-05,-0.0001396,-0.00012421,-1.0552e-05,0.00028314,0.049982,-0.014961,-0.015216,-0.00064591,-5.4869e-05,0.0014723,0,0,0,0.024941,-3.8982e-05,-0.00014598,0.012543,0.0082519,0.025033,8.0583e-07,0.55,0,0.8
0.029709,0.0071627,-0.0045788,0.025092,-3.7492e-05,-0.00013651,-9.945e-05,4.1195e-06,0.00025871,0.050288,-0.015048,-0.015305,-0.00051714,2.1421e-05,0.0013453,0,0,0,0.025095,-3.6147e-05,-0.000141,0.012618,0.0083059,0.025184,8.2038e-07,0.6,0,0.8
0.03223,0.0071836,-0.0045988,0.025213,-3.2898e-05,-0.00013069,-7.2139e-05,1.1194e-05,0.00021564,0.050524,-0.015115,-0.015369,-0.00037512,5.8209e-05,0.0011213,0,0,0,0.025215,-3.0651e-05,-0.00013507,0.012675,0.0083497,0.025298,8.3158e-07,0.65,0,0.8
0.034761,0.0072031,-0.0046142,0.025297,-2.7789e-05,-0.00012581,-4.5993e-05,1.0848e-05,0.00016511,0.050685,-0.015158,-0.015413,-0.00023917,5.6409e-05,0.00085855,0,0,0,0.025298,-2.5799e-05,-0.00012903,0.012713,0.008381,0.025375,8.3921e-07,0.7,0,0.8
0.037299,0.0072232,-0.0046279,0.025345,-2.2568e-05,-0.00012356,-2.4039e-05,4.4547e-06,0.00011594,0.050778,-0.015178,-0.015441,-0.000125,2.3164e-05,0.00060287,0,0,0,0.025346,-2.1646e-05,-0.00012508,0.012735,0.0083997,0.025419,8.4356e-07,0.75,0,0.8
0.039839,0.0072438,-0.0046407,0.025366,-1.7769e-05,-0.00012413,-8.1551e-06,-5.7396e-06,7.4108e-05,0.050817,-0.01518,-0.015457,-4.2406e-05,-2.9846e-05,0.00038536,0,0,0,0.025366,-1.6753e-05,-0.0001254,0.012746,0.0084079,0.025437,8.4532e-07,0.8,0,0.8
0.04238,0.0072633,-0.0046524,0.025368,-1.3855e-05,-0.00012674,1.1137e-06,-1.7122e-05,4.2557e-05,0.050819,-0.015172,-0.015466,5.7913e-06,-8.9035e-05,0.00022129,0,0,0,0.025368,-1.0586e-05,-0.0001301,0.012749,0.008409,0.025438,8.454e-07,0.85,0,0.8
0.044921,0.0072794,-0.004662,0.02536,-1.1073e-05,-0.00013006,4.4368e-06,-2.7224e-05,2.1394e-05,0.050805,-0.01516,-0.01547,2.3071e-05,-0.00014157,0.00011125,0,0,0,0.02536,-4.3201e-06,-0.00013684,0.012749,0.0084064,0.025431,8.4469e-07,0.9,0,0.8
0.047461,0.0072901,-0.0046683,0.025353,-9.4537e-06,-0.00013272,7.1038e-06,-3.4099e-05,6.2452e-06,0.05079,-0.015151,-0.015471,3.694e-05,-0.00017731,3.2475e-05,0,0,0,0.025353,2.6399e-07,-0.00014245,0.012747,0.0084034,0.025424,8.4394e-07,0.95,0,0.8
0.04873,0.0072938,-0.0046705,0.025349,-8.9279e-06,-0.00013374,9.4446e-06,-3.6528e-05,-7.692e-07,0.050784,-0.015147,-0.015472,4.9112e-05,-0.00018994,-3.9998e-06,0,0,0,0.025349,1.9272e-06,-0.0001446,0.012747,0.0084022,0.025421,8.4364e-07,1,0,0.8
0.0011913,0.0010063,-0.00044026,0.029827,0.0084763,0.010478,0.0060894,-1.6983e-05,-0.0032858,0.048282,-0.0072307,-0.0020257,0.031665,-8.831e-05,-0.017086,0,0,0,0.032133,0.01029,0.006359,0.012887,0.016261,0.024064,7.0244e-07,0,0.05,0.8
0.0024141,0.0018836,-0.00087168,0.028535,0.0054638,0.0082119,0.0047188,-4.3087e-05,-0.0031147,0.048864,-0.01112,-0.0039753,0.024538,-0.00022405,-0.016196,0,0,0,0.030143,0.007945,0.0041222,0.013011,0.01407,0.024355,7.0887e-07,0.05,0.05,0.8
0.0048864,0.0033967,-0.0017,0.026811,0.001834,0.0048187,0.0025128,-0.00010056,-0.0026524,0.049631,-0.01531,-0.0075497,0.013067,-0.00052292,-0.013792,0,0,0,0.027463,0.0045245,0.0014761,0.012994,0.011155,0.024628,7.2848e-07,0.1,0.05,0.8
0.0073772,0.0044773,-0.0024338,0.025969,0.0008872,0.0029074,0.001233,-0.00015256,-0.0020224,0.049661,-0.015551,-0.010299,0.0064117,-0.00079329,-0.010517,0,0,0,0.026246,0.002731,0.0007861,0.01273,0.0099211,0.024555,7.4414e-07,0.15,0.05,0.8
0.0098525,0.0052336,-0.0030391,0.025319,0.00042286,0.0016586,0.00055233,-0.00018053,-0.0013763,0.049388,-0.015341,-0.012128,0.0028721,-0.00093874,-0.0071567,0,0,0,0.025429,0.0016003,0.00037071,0.012529,0.0091333,0.024471,7.4699e-07,0.2,0.05,0.8
0.012316,0.005763,-0.0035115,0.024944,0.00021924,0.0009152,0.00018772,-0.00018416,-0.00082538,0.049207,-0.015077,-0.013268,0.00097612,-0.00095766,-0.004292,0,0,0,0.024982,0.00093957,0.00015693,0.012412,0.0086928,0.024445,7.4858e-07,0.25,0.05,0.8
0.014773,0.0061311,-0.0038648,0.02475,0.00011286,0.00046954,-1.1423e-05,-0.00016904,-0.00040452,0.049151,-0.014906,-0.013979,-5.9398e-05,-0.000879,-0.0021035,0,0,0,0.02476,0.00054081,3.1263e-05,0.012365,0.0084442,0.024479,7.5309e-07,0.3,0.05,0.8
0.017231,0.0063824,-0.0041197,0.024689,5.2704e-05,0.00020418,-0.00012018,-0.00014151,-0.00010622,0.049223,-0.01483,-0.014437,-0.00062493,-0.00073587,-0.00055233,0,0,0,0.024691,0.00029688,-4.259e-05,0.012367,0.0083152,0.024566,7.616e-07,0.35,0.05,0.8
0.019696,0.006549,-0.0042973,0.02472,1.5672e-05,4.8599e-05,-0.00017521,-0.00010711,9.0303e-05,0.049402,-0.01483,-0.014744,-0.00091112,-0.00055698,0.00046957,0,0,0,0.024722,0.00014622,-8.4218e-05,0.012403,0.0082614,0.024692,7.7349e-07,0.4,0.05,0.8
0.022171,0.0066554,-0.0044165,0.02481,-8.5272e-06,-3.9534e-05,-0.00019532,-7.0558e-05,0.00020643,0.049649,-0.014879,-0.01496,-0.0010157,-0.0003669,0.0010734,0,0,0,0.024814,5.2698e-05,-0.00010438,0.012459,0.008254,0.02484,7.8746e-07,0.45,0.05,0.8
0.02466,0.0067206,-0.0044937,0.02493,-2.4768e-05,-8.65e-05,-0.00019107,-3.615e-05,0.00026096,0.049928,-0.014956,-0.015116,-0.00099355,-0.00018798,0.001357,0,0,0,0.024935,-3.1017e-06,-0.00011261,0.012524,0.008273,0.024993,8.0204e-07,0.5,0.05,0.8
0.027164,0.0067601,-0.0045424,0.025057,-3.5093e-05,-0.000109,-0.0001697,-7.7366e-06,0.0002701,0.050201,-0.015039,-0.015231,-0.00088242,-4.023e-05,0.0014045,0,0,0,0.025062,-2.9247e-05,-0.00011911,0.01259,0.0083044,0.025136,8.1583e-07,0.55,0.05,0.8
0.029681,0.0067854,-0.0045733,0.025174,-4.0227e-05,-0.00011781,-0.00013747,1.1675e-05,0.00024814,0.050442,-0.015114,-0.015316,-0.00071484,6.0709e-05,0.0012903,0,0,0,0.025177,-3.4396e-05,-0.00012701,0.012652,0.0083385,0.025258,8.2769e-07,0.6,0.05,0.8
0.032208,0.0068049,-0.0045943,0.025268,-4.0602e-05,-0.00011983,-0.00010047,2.0483e-05,0.00020776,0.050631,-0.01517,-0.015376,-0.00052243,0.00010651,0.0010804,0,0,0,0.02527,-3.1963e-05,-0.00013072,0.0127,0.008369,0.025351,8.3686e-07,0.65,0.05,0.8
0.034744,0.0068235,-0.0046106,0.025334,-3.7005e-05,-0.00011941,-6.4368e-05,1.8878e-05,0.00015985,0.050762,-0.015203,-0.015417,-0.00033471,9.8167e-05,0.00083123,0,0,0,0.025336,-2.9954e-05,-0.00012773,0.012732,0.0083926,0.025415,8.4311e-07,0.7,0.05,0.8
0.037284,0.0068432,-0.0046249,0.025374,-3.0753e-05,-0.00011901,-3.3761e-05,8.8088e-06,0.00011299,0.050838,-0.015215,-0.015444,-0.00017556,4.5806e-05,0.00058753,0,0,0,0.025375,-2.7599e-05,-0.00012277,0.012749,0.0084082,0.02545,8.4665e-07,0.75,0.05,0.8
0.039828,0.0068638,-0.0046382,0.025392,-2.3452e-05,-0.00011971,-1.1509e-05,-6.5042e-06,7.2946e-05,0.05087,-0.01521,-0.015461,-5.9845e-05,-3.3822e-05,0.00037932,0,0,0,0.025393,-2.1063e-05,-0.00012235,0.012757,0.0084164,0.025464,8.4804e-07,0.8,0.05,0.8
0.042371,0.0068836,-0.0046502,0.025395,-1.6587e-05,-0.00012154,1.5089e-06,-2.3318e-05,4.2537e-05,0.050873,-0.015197,-0.01547,7.8464e-06,-0.00012125,0.00022119,0,0,0,0.025395,-9.608e-06,-0.00012861,0.012762,0.008419,0.025465,8.4804e-07,0.85,0.05,0.8
0.044915,0.0069001,-0.00466,0.025391,-1.1203e-05,-0.00012386,6.1898e-06,-3.8114e-05,2.1852e-05,0.050863,-0.015183,-0.015475,3.2187e-05,-0.00019819,0.00011363,0,0,0,0.025391,2.8308e-06,-0.00013792,0.012764,0.0084186,0.025459,8.4741e-07,0.9,0.05,0.8
0.047458,0.006911,-0.0046665,0.025385,-7.8489e-06,-0.00012576,8.5424e-06,-4.8135e-05,6.5957e-06,0.050851,-0.015171,-0.015478,4.442e-05,-0.0002503,3.4298e-05,0,0,0,0.025385,1.1862e-05,-0.00014548,0.012765,0.0084172,0.025452,8.4677e-07,0.95,0.05,0.8
0.048729,0.0069148,-0.0046687,0.025383,-6.7187e-06,-0.00012649,1.0428e-05,-5.1668e-05,-6.044e-07,0.050846,-0.015167,-0.015479,5.4228e-05,-0.00026867,-3.1429e-06,0,0,0,0.025383,1.5109e-05,-0.00014833,0.012766,0.0084166,0.02545,8.4651e-07,1,0.05,0.8
0.0010054,0.00072452,-0.00043911,0.026362,0.0085333,0.0094477,0.0050071,-3.4978e-05,-0.0032743,0.041935,-0.004419,-0.0020417,0.026037,-0.00018189,-0.017027,0,0,0,0.028292,0.0092981,0.0067529,0.010769,0.014781,0.020396,4.2137e-07,0,0.1,0.8
0.0020968,0.0014189,-0.00086982,0.026253,0.0063679,0.0077811,0.0043702,-7.3104e-05,-0.0031018,0.044016,-0.0076844,-0.0040101,0.022725,-0.00038014,-0.016129,0,0,0,0.027758,0.0075587,0.0050855,0.011336,0.013467,0.021556,5.0365e-07,0.05,0.1,0.8
0.0044016,0.0026983,-0.001697,0.026388,0.0032538,0.0050812,0.0030618,-0.00014895,-0.0026382,0.047776,-0.012374,-0.0076229,0.015922,-0.00077454,-0.013719,0,0,0,0.027183,0.0048207,0.0027197,0.012232,0.011574,0.023499,6.542e-07,0.1,0.1,0.8
0.0068743,0.0037197,-0.0024301,0.026542,0.0018182,0.0033056,0.0018616,-0.00021314,-0.0020099,0.05001,-0.014272,-0.010405,0.0096806,-0.0011083,-0.010451,0,0,0,0.0269,0.0031502,0.0016154,0.012642,0.010555,0.024562,7.5135e-07,0.15,0.1,0.8
0.0094026,0.0044701,-0.0030344,0.02626,0.0010643,0.0020713,0.00099153,-0.00025029,-0.0013682,0.050639,-0.01487,-0.012252,0.005156,-0.0013015,-0.0071144,0,0,0,0.026399,0.0020484,0.00094761,0.012726,0.0097985,0.024923,7.8967e-07,0.2,0.1,0.8
0.011938,0.0050057,-0.0035057,0.025892,0.00064148,0.0012628,0.00043958,-0.000257,-0.00082363,0.050642,-0.01501,-0.013395,0.0022858,-0.0013364,-0.0042829,0,0,0,0.025938,0.001338,0.00052021,0.012709,0.0092655,0.02502,8.0167e-07,0.25,0.1,0.8
0.014467,0.00538,-0.003858,0.025589,0.00038936,0.00074442,0.00010161,-0.00023775,-0.00040898,0.050498,-0.015021,-0.014098,0.00052839,-0.0012363,-0.0021267,0,0,0,0.025601,0.00086899,0.00025296,0.012674,0.0089076,0.025046,8.0555e-07,0.3,0.1,0.8
0.016988,0.0056346,-0.004112,0.025388,0.00023018,0.00041409,-0.00010033,-0.00019956,-0.00011534,0.050389,-0.015021,-0.014542,-0.0005217,-0.0010377,-0.00059978,0,0,0,0.02539,0.0005486,9.2834e-05,0.012649,0.0086773,0.025073,8.0897e-07,0.35,0.1,0.8
0.019506,0.0058016,-0.0042887,0.025281,0.00012433,0.00020439,-0.00021352,-0.00014966,7.8479e-05,0.050365,-0.015043,-0.014835,-0.0011103,-0.00077825,0.00040809,0,0,0,0.025284,0.00032184,4.0929e-06,0.01264,0.0085366,0.025123,8.1424e-07,0.4,0.1,0.8
0.022024,0.0059061,-0.004407,0.025248,5.0791e-05,7.209e-05,-0.00026563,-9.5088e-05,0.00019353,0.050422,-0.01509,-0.015035,-0.0013813,-0.00049446,0.0010064,0,0,0,0.025252,0.00015739,-3.909e-05,0.012646,0.0084569,0.025194,8.2142e-07,0.45,0.1,0.8
0.024548,0.0059683,-0.0044835,0.025262,-1.3198e-06,-1.0294e-05,-0.00027375,-4.279e-05,0.00024793,0.050532,-0.015154,-0.015177,-0.0014235,-0.00022251,0.0012892,0,0,0,0.025268,4.3959e-05,-6.1131e-05,0.012665,0.0084169,0.025277,8.2965e-07,0.5,0.1,0.8
0.027078,0.0060042,-0.004532,0.025303,-3.7021e-05,-6.0212e-05,-0.00025026,6.5354e-07,0.00025724,0.050665,-0.01522,-0.01528,-0.0013013,3.3984e-06,0.0013376,0,0,0,0.025308,-1.582e-05,-8.6642e-05,0.012697,0.008402,0.02536,8.3781e-07,0.55,0.1,0.8
0.029614,0.0060264,-0.0045631,0.025352,-5.8398e-05,-8.8823e-05,-0.0002061,2.9916e-05,0.00023544,0.050792,-0.015275,-0.015354,-0.0010717,0.00015556,0.0012243,0,0,0,0.025356,-3.2288e-05,-0.00011894,0.012737,0.0084015,0.025432,8.449e-07,0.6,0.1,0.8
0.032157,0.0060437,-0.004585,0.025396,-6.6829e-05,-0.00010352,-0.00015188,4.204e-05,0.0001953,0.050895,-0.015309,-0.015405,-0.00078979,0.00021861,0.0010155,0,0,0,0.025399,-3.4185e-05,-0.00013872,0.012769,0.0084086,0.025485,8.5021e-07,0.65,0.1,0.8
0.034704,0.0060611,-0.0046027,0.025429,-6.4443e-05,-0.00010955,-9.748e-05,3.7191e-05,0.00014797,0.050963,-0.015321,-0.015438,-0.0005069,0.00019339,0.00076943,0,0,0,0.025431,-3.8419e-05,-0.00013693,0.012784,0.0084184,0.025518,8.5349e-07,0.7,0.1,0.8
0.037253,0.0060807,-0.0046189,0.025449,-5.4521e-05,-0.00011082,-5.0821e-05,1.8617e-05,0.00010228,0.050997,-0.015312,-0.015458,-0.00026427,9.6807e-05,0.00053184,0,0,0,0.025449,-4.1866e-05,-0.00012407,0.012787,0.0084278,0.025533,8.5491e-07,0.75,0.1,0.8
0.039803,0.0061018,-0.0046344,0.025457,-4.0969e-05,-0.00011016,-1.6825e-05,-8.2472e-06,6.403e-05,0.051004,-0.01529,-0.01547,-8.7488e-05,-4.2885e-05,0.00033296,0,0,0,0.025457,-3.3146e-05,-0.0001182,0.012788,0.0084352,0.025533,8.5492e-07,0.8,0.1,0.8
0.042354,0.0061225,-0.0046484,0.025457,-2.7392e-05,-0.00010927,2.9612e-06,-3.7134e-05,3.5828e-05,0.050996,-0.015263,-0.015476,1.5398e-05,-0.0001931,0.00018631,0,0,0,0.025457,-9.1062e-06,-0.00012763,0.012792,0.0084401,0.025526,8.5415e-07,0.85,0.1,0.8
0.044903,0.0061398,-0.0046598,0.025453,-1.639e-05,-0.00010883,9.9124e-06,-6.2247e-05,1.7471e-05,0.050982,-0.015239,-0.01548,5.1545e-05,-0.00032368,9.0849e-05,0,0,0,0.025453,1.8278e-05,-0.00014352,0.012798,0.0084427,0.025516,8.5316e-07,0.9,0.1,0.8
0.047452,0.0061514,-0.0046672,0.02545,-9.408e-06,-0.00010878,1.1486e-05,-7.913e-05,4.1162e-06,0.05097,-0.015223,-0.015482,5.9727e-05,-0.00041148,2.1404e-05,0,0,0,0.02545,3.7505e-05,-0.0001557,0.012803,0.0084438,0.025509,8.5239e-07,0.95,0.1,0.8
0.048726,0.0061555,-0.0046698,0.025448,-7.035e-06,-0.00010881,1.2463e-05,-8.506e-05,-2.341e-06,0.050966,-0.015218,-0.015482,6.4806e-05,-0.00044231,-1.2173e-05,0,0,0,0.025448,4.4304e-05,-0.00016016,0.012804,0.0084441,0.025507,8.5211e-07,1,0.1,0.8
0.00095716,0.0005644,-0.0004426,0.025377,0.0090251,0.0092886,0.0041532,-4.8396e-05,-0.0033039,0.039766,-0.0027493,-0.0020642,0.021597,-0.00025166,-0.01718,0,0,0,0.027,0.0091973,0.0074936,0.0097532,0.014564,0.018717,3.3291e-07,0,0.15,0.8
0.0019883,0.0011152,-0.00087686,0.025423,0.0073203,0.0077932,0.0038459,-9.5167e-05,-0.003133,0.041778,-0.0052893,-0.0040597,0.019999,-0.00049487,-0.016291,0,0,0,0.026774,0.0076485,0.0061138,0.01033,0.013512,0.019945,4.106e-07,0.05,0.15,0.8
0.0041778,0.0021593,-0.0017109,0.025852,0.0045096,0.0052443,0.0030717,-0.00018286,-0.0026688,0.045852,-0.0096386,-0.0077283,0.015973,-0.00095085,-0.013878,0,0,0,0.026678,0.0050676,0.0038606,0.011409,0.011869,0.022246,5.6921e-07,0.1,0.15,0.8
0.0065735,0.0030501,-0.0024494,0.026386,0.0027525,0.0034627,0.0021382,-0.00025284,-0.0020329,0.049043,-0.012404,-0.010558,0.011119,-0.0013148,-0.010571,0,0,0,0.026797,0.0033807,0.0024232,0.012187,0.010867,0.023915,7.02e-07,0.15,0.15,0.8
0.0090821,0.0037466,-0.0030567,0.026494,0.0017119,0.0022476,0.0013054,-0.00029476,-0.0013799,0.050612,-0.013821,-0.012428,0.0067882,-0.0015327,-0.0071757,0,0,0,0.026665,0.0023084,0.0014803,0.012592,0.010151,0.024783,7.7961e-07,0.2,0.15,0.8
0.011635,0.004262,-0.0035281,0.02633,0.0010787,0.0014371,0.00068246,-0.00030409,-0.00082495,0.05115,-0.014503,-0.013571,0.0035488,-0.0015813,-0.0042897,0,0,0,0.026388,0.0016009,0.00085673,0.012766,0.0096152,0.025168,8.1651e-07,0.25,0.15,0.8
0.014197,0.0046289,-0.003878,0.026085,0.00067683,0.0008988,0.00025469,-0.00028317,-0.00040245,0.051225,-0.014837,-0.01426,0.0013244,-0.0014725,-0.0020927,0,0,0,0.0261,0.0011007,0.0004601,0.01282,0.0092203,0.025326,8.3257e-07,0.3,0.15,0.8
0.016757,0.0048803,-0.0041276,0.025866,0.00041236,0.00054162,-2.4399e-05,-0.000238,-0.00010351,0.051159,-0.01502,-0.014684,-0.00012688,-0.0012376,-0.00053823,0,0,0,0.025869,0.00073178,0.0002192,0.012825,0.0089399,0.025397,8.4031e-07,0.35,0.15,0.8
0.019313,0.0050448,-0.0042986,0.025707,0.00023173,0.00030367,-0.00019466,-0.00017614,9.3364e-05,0.051092,-0.015143,-0.014956,-0.0010122,-0.00091593,0.0004855,0,0,0,0.02571,0.00044988,8.2702e-05,0.012813,0.0087474,0.025445,8.4571e-07,0.4,0.15,0.8
0.021866,0.0051463,-0.0044107,0.02561,0.00010402,0.00014427,-0.00028409,-0.00010619,0.00020905,0.05107,-0.015244,-0.01514,-0.0014773,-0.00055221,0.001087,0,0,0,0.025615,0.00023102,1.2081e-05,0.012801,0.0086193,0.025494,8.5097e-07,0.45,0.15,0.8
0.02442,0.0052053,-0.0044813,0.025561,1.2381e-05,3.7513e-05,-0.00031228,-3.7669e-05,0.00026121,0.051092,-0.015334,-0.015269,-0.0016238,-0.00019588,0.0013583,0,0,0,0.025568,7.6691e-05,-3.3367e-05,0.012801,0.008537,0.025546,8.5639e-07,0.5,0.15,0.8
0.026976,0.0052381,-0.0045249,0.025545,-5.1185e-05,-3.2561e-05,-0.00029478,1.9743e-05,0.0002653,0.05114,-0.01541,-0.015361,-0.0015329,0.00010266,0.0013796,0,0,0,0.025551,-8.6109e-07,-8.9095e-05,0.01282,0.008487,0.025596,8.6141e-07,0.55,0.15,0.8
0.029534,0.005258,-0.0045531,0.025545,-9.0014e-05,-7.572e-05,-0.00024632,5.78e-05,0.00023599,0.051189,-0.015461,-0.015424,-0.0012809,0.00030056,0.0012271,0,0,0,0.025549,-2.2096e-05,-0.00014829,0.012849,0.0084596,0.025635,8.6526e-07,0.6,0.15,0.8
0.032095,0.005274,-0.0045742,0.025549,-0.00010639,-9.8603e-05,-0.00018176,7.1705e-05,0.00018754,0.051221,-0.015483,-0.015463,-0.00094513,0.00037287,0.00097523,0,0,0,0.025552,-2.8932e-05,-0.00017887,0.012865,0.008448,0.025656,8.6735e-07,0.65,0.15,0.8
0.034656,0.0052914,-0.0045934,0.02555,-0.00010401,-0.0001068,-0.00011511,6.1488e-05,0.00013306,0.051227,-0.015474,-0.015481,-0.00059856,0.00031974,0.00069189,0,0,0,0.025552,-4.1173e-05,-0.00017099,0.012861,0.0084465,0.025658,8.6756e-07,0.7,0.15,0.8
0.037217,0.005312,-0.0046129,0.025547,-8.8658e-05,-0.00010566,-5.7634e-05,3.1968e-05,8.2931e-05,0.05121,-0.015442,-0.015486,-0.0002997,0.00016623,0.00043124,0,0,0,0.025547,-5.4304e-05,-0.00014053,0.012844,0.0084508,0.025645,8.6623e-07,0.75,0.15,0.8
0.039777,0.0053349,-0.0046325,0.025539,-6.7142e-05,-0.00010006,-1.6172e-05,-8.7469e-06,4.3712e-05,0.051177,-0.015397,-0.015483,-8.4096e-05,-4.5484e-05,0.0002273,0,0,0,0.025539,-4.6622e-05,-0.00012073,0.01283,0.0084571,0.025622,8.6396e-07,0.8,0.15,0.8
0.042335,0.0053572,-0.0046509,0.025529,-4.5601e-05,-9.3665e-05,7.2561e-06,-5.1495e-05,1.7813e-05,0.051141,-0.015352,-0.015477,3.7732e-05,-0.00026777,9.2627e-05,0,0,0,0.025529,-8.0317e-06,-0.00013128,0.01283,0.0084631,0.025599,8.6148e-07,0.85,0.15,0.8
0.044891,0.0053761,-0.004666,0.02552,-2.8284e-05,-8.8591e-05,1.4598e-05,-8.8068e-05,4.2311e-06,0.051109,-0.015315,-0.015472,7.5909e-05,-0.00045796,2.2002e-05,0,0,0,0.02552,3.7792e-05,-0.00015469,0.012837,0.0084676,0.025579,8.5936e-07,0.9,0.15,0.8
0.047446,0.0053887,-0.0046759,0.025513,-1.7392e-05,-8.5563e-05,1.4697e-05,-0.0001124,-3.684e-06,0.051089,-0.015291,-0.015469,7.6423e-05,-0.00058446,-1.9157e-05,0,0,0,0.025513,6.874e-05,-0.00017171,0.012843,0.0084702,0.025566,8.5798e-07,0.95,0.15,0.8
0.048723,0.0053931,-0.0046793,0.025511,-1.3711e-05,-8.4582e-05,1.4698e-05,-0.00012089,-7.5836e-06,0.051081,-0.015283,-0.015468,7.6429e-05,-0.00062865,-3.9435e-05,0,0,0,0.025511,7.951e-05,-0.00017782,0.012845,0.008471,0.025561,8.575e-07,1,0.15,0.8
0.00093474,0.0004496,-0.00044905,0.02488,0.0091806,0.009176,0.0033594,-5.4123e-05,-0.0033554,0.038747,-0.0020727,-0.0020845,0.017469,-0.00028144,-0.017448,0,0,0,0.02624,0.0091581,0.0078384,0.0092009,0.014412,0.017782,2.8746e-07,0,0.2,0.8
0.0019373,0.00088999,-0.00088931,0.024992,0.0077916,0.0077831,0.0031877,-0.00010393,-0.0031848,0.04064,-0.004082,-0.0041041,0.016576,-0.00054046,-0.016561,0,0,0,0.026154,0.0077662,0.0066466,0.0097538,0.013522,0.018977,3.5656e-07,0.05,0.2,0.8
0.004064,0.0017345,-0.0017343,0.025527,0.005374,0.0053587,0.0027181,-0.00019441,-0.0027179,0.044615,-0.0077835,-0.0078234,0.014134,-0.0010109,-0.014133,0,0,0,0.026288,0.0053839,0.0045886,0.01085,0.012087,0.021316,5.0507e-07,0.1,0.2,0.8
0.0063988,0.0024793,-0.0024813,0.026187,0.0036097,0.0035899,0.0020693,-0.00026386,-0.0020723,0.048055,-0.010647,-0.010698,0.01076,-0.0013721,-0.010776,0,0,0,0.026598,0.003725,0.0030636,0.011767,0.011129,0.023213,6.4585e-07,0.15,0.2,0.8
0.0088695,0.003088,-0.0030935,0.026484,0.0023849,0.0023632,0.0013982,-0.0003062,-0.0014043,0.050119,-0.012538,-0.012595,0.0072709,-0.0015922,-0.0073024,0,0,0,0.026668,0.0026194,0.0019442,0.012362,0.010411,0.024395,7.4562e-07,0.2,0.2,0.8
0.011411,0.0035554,-0.0035659,0.026492,0.0015682,0.0015471,0.0008239,-0.00031705,-0.00083297,0.051114,-0.013687,-0.013742,0.0042843,-0.0016486,-0.0043314,0,0,0,0.026559,0.0018678,0.00118,0.01269,0.009869,0.025043,8.0513e-07,0.25,0.2,0.8
0.013981,0.0038963,-0.0039129,0.026349,0.0010176,0.001,0.00038378,-0.0002965,-0.00039574,0.051487,-0.014374,-0.01442,0.0019957,-0.0015418,-0.0020579,0,0,0,0.026367,0.0013165,0.00068288,0.012842,0.0094554,0.025373,8.3735e-07,0.3,0.2,0.8
0.016559,0.0041327,-0.0041564,0.026168,0.00063977,0.00062891,7.0514e-05,-0.00024828,-8.502e-05,0.051575,-0.014799,-0.014827,0.00036667,-0.0012911,-0.0004421,0,0,0,0.026172,0.00089356,0.00037167,0.0129,0.0091456,0.025543,8.5476e-07,0.35,0.2,0.8
0.019138,0.0042874,-0.0043189,0.026008,0.00037401,0.00037288,-0.0001362,-0.00017884,0.00011996,0.051568,-0.015081,-0.015084,-0.00070824,-0.00092997,0.00062377,0,0,0,0.026011,0.0005572,0.00018716,0.012912,0.0089183,0.025641,8.6522e-07,0.4,0.2,0.8
0.021716,0.0043817,-0.0044213,0.025889,0.00018212,0.00019287,-0.00025576,-9.7254e-05,0.00023913,0.051552,-0.015285,-0.015257,-0.00133,-0.00050572,0.0012435,0,0,0,0.025894,0.00028948,8.033e-05,0.012907,0.0087546,0.02571,8.727e-07,0.45,0.2,0.8
0.024294,0.0044348,-0.0044822,0.025809,4.214e-05,6.5157e-05,-0.00030441,-1.5174e-05,0.0002892,0.051554,-0.01544,-0.01538,-0.0015829,-7.8904e-05,0.0015039,0,0,0,0.025816,0.00010818,-7.8326e-06,0.012912,0.0086388,0.025766,8.7864e-07,0.5,0.2,0.8
0.026872,0.0044633,-0.0045178,0.025759,-5.6527e-05,-2.3356e-05,-0.00029728,5.4314e-05,0.00028543,0.051567,-0.015555,-0.015468,-0.0015459,0.00028243,0.0014842,0,0,0,0.025766,2.6736e-05,-0.00011327,0.01294,0.0085598,0.02581,8.8306e-07,0.55,0.2,0.8
0.02945,0.0044803,-0.0045408,0.025727,-0.00011816,-7.947e-05,-0.00025071,9.9352e-05,0.00024372,0.051572,-0.015625,-0.015524,-0.0013037,0.00051663,0.0012673,0,0,0,0.025732,2.8119e-06,-0.00020531,0.012969,0.0085098,0.025834,8.8541e-07,0.6,0.2,0.8
0.032029,0.0044954,-0.0045603,0.025701,-0.00014583,-0.0001079,-0.00018266,0.00011271,0.00018113,0.051555,-0.015648,-0.015549,-0.00094982,0.00058608,0.00094189,0,0,0,0.025704,-1.2342e-05,-0.00024415,0.012974,0.0084825,0.025833,8.8529e-07,0.65,0.2,0.8
0.034606,0.0045137,-0.0045815,0.025676,-0.00014511,-0.00011427,-0.00011076,9.4185e-05,0.00011417,0.051509,-0.015628,-0.015547,-0.00057594,0.00048976,0.0005937,0,0,0,0.025678,-3.3601e-05,-0.00022695,0.012952,0.0084724,0.025809,8.828e-07,0.7,0.2,0.8
0.03718,0.0045365,-0.0046058,0.025651,-0.00012492,-0.00010591,-4.9155e-05,5.0622e-05,5.6041e-05,0.05144,-0.015577,-0.015527,-0.00025561,0.00026323,0.00029141,0,0,0,0.025651,-5.7281e-05,-0.00017392,0.012913,0.0084733,0.025767,8.7863e-07,0.75,0.2,0.8
0.03975,0.0045621,-0.0046319,0.025626,-9.57e-05,-9.07e-05,-6.1028e-06,-6.552e-06,1.4512e-05,0.051363,-0.015512,-0.015499,-3.1734e-05,-3.407e-05,7.5463e-05,0,0,0,0.025626,-5.2729e-05,-0.00013377,0.01288,0.0084798,0.025719,8.7378e-07,0.8,0.2,0.8
0.042316,0.0045872,-0.0046569,0.025604,-6.6558e-05,-7.5072e-05,1.6431e-05,-6.4862e-05,-8.3995e-06,0.051294,-0.015451,-0.015473,8.5443e-05,-0.00033728,-4.3677e-05,0,0,0,0.025604,-5.0453e-07,-0.00014118,0.012873,0.0084876,0.025676,8.6925e-07,0.85,0.2,0.8
0.044879,0.0046083,-0.0046775,0.025588,-4.3454e-05,-6.2875e-05,2.1255e-05,-0.0001137,-1.5102e-05,0.051241,-0.015402,-0.015453,0.00011053,-0.00059123,-7.8528e-05,0,0,0,0.025588,6.4085e-05,-0.00017046,0.012879,0.008494,0.025642,8.6573e-07,0.9,0.2,0.8
0.04744,0.0046222,-0.0046911,0.025579,-2.9138e-05,-5.5531e-05,1.8572e-05,-0.0001457,-1.5122e-05,0.051208,-0.015372,-0.015441,9.6573e-05,-0.00075763,-7.8637e-05,0,0,0,0.025579,0.0001068,-0.0001915,0.012885,0.008498,0.025623,8.6355e-07,0.95,0.2,0.8
0.04872,0.0046271,-0.0046959,0.025576,-2.4346e-05,-5.3124e-05,1.7324e-05,-0.00015679,-1.533e-05,0.051198,-0.015362,-0.015437,9.0084e-05,-0.00081529,-7.9714e-05,0,0,0,0.025576,0.0001215,-0.00019899,0.012887,0.0084994,0.025616,8.6283e-07,1,0.2,0.8
0.00092405,0.00035713,-0.00045687,0.02463,0.0092641,0.0091189,0.0026885,-5.4774e-05,-0.0034167,0.038229,-0.001721,-0.0020983,0.01398,-0.00028483,-0.017767,0,0,0,0.025801,0.0091878,0.0080239,0.0088885,0.014338,0.017227,2.6187e-07,0,0.25,0.8
0.0019115,0.00070696,-0.00090425,0.02476,0.0080553,0.0077767,0.0025803,-0.00010419,-0.0032455,0.04002,-0.0034111,-0.0041356,0.013418,-0.0005418,-0.016877,0,0,0,0.025769,0.007931,0.0068911,0.0094391,0.013531,0.018384,3.2407e-07,0.05,0.25,0.8
0.004002,0.0013809,-0.0017621,0.025325,0.0059148,0.0054251,0.0022742,-0.00019261,-0.0027747,0.043845,-0.0066202,-0.0078935,0.011826,-0.0010016,-0.014428,0,0,0,0.026003,0.0057582,0.0049034,0.01055,0.012221,0.020689,4.6124e-07,0.1,0.25,0.8
0.006296,0.0019854,-0.0025188,0.026033,0.0042453,0.0036805,0.0018254,-0.00025915,-0.0021195,0.04731,-0.0093375,-0.010806,0.0094923,-0.0013476,-0.011022,0,0,0,0.026414,0.0041688,0.0033757,0.011519,0.01132,0.022656,5.9992e-07,0.15,0.25,0.8
0.008733,0.0024928,-0.003137,0.026419,0.0029644,0.0024519,0.0013214,-0.00030031,-0.0014373,0.049588,-0.011394,-0.012726,0.0068714,-0.0015616,-0.0074741,0,0,0,0.026599,0.003015,0.0022211,0.012189,0.010612,0.023993,7.0899e-07,0.2,0.25,0.8
0.011255,0.0028933,-0.0036109,0.02653,0.0020312,0.0016286,0.00084673,-0.00031202,-0.00084904,0.050864,-0.012833,-0.013879,0.004403,-0.0016225,-0.004415,0,0,0,0.0266,0.0021783,0.0014117,0.012594,0.010063,0.024814,7.8305e-07,0.25,0.25,0.8
0.013819,0.0031915,-0.003955,0.026471,0.0013626,0.0010746,0.00044884,-0.0002925,-0.00039462,0.05148,-0.013802,-0.014551,0.002334,-0.001521,-0.002052,0,0,0,0.026492,0.0015493,0.0008675,0.012812,0.0096362,0.02529,8.29e-07,0.3,0.25,0.8
0.016403,0.0034005,-0.0041914,0.026342,0.00088376,0.00069359,0.00014244,-0.00024289,-6.8256e-05,0.051737,-0.014454,-0.014948,0.00074069,-0.001263,-0.00035493,0,0,0,0.026346,0.0010596,0.00051369,0.012916,0.0093064,0.025564,8.5676e-07,0.35,0.25,0.8
0.018993,0.0035367,-0.0043436,0.026204,0.00053651,0.00042301,-7.4629e-05,-0.00016763,0.00014907,0.051832,-0.014903,-0.015198,-0.00038807,-0.00087166,0.00077519,0,0,0,0.026206,0.00066378,0.00029327,0.012956,0.0090544,0.02573,8.7425e-07,0.4,0.25,0.8
0.021586,0.0036179,-0.0044337,0.026086,0.00028009,0.0002237,-0.00020998,-7.5421e-05,0.00027522,0.05187,-0.015226,-0.015372,-0.0010919,-0.00039219,0.0014312,0,0,0,0.026091,0.00035069,0.00014797,0.012972,0.0088634,0.025843,8.8629e-07,0.45,0.25,0.8
0.02418,0.0036612,-0.0044823,0.025997,8.9602e-05,7.4069e-05,-0.00027274,2.0198e-05,0.00032479,0.051896,-0.015464,-0.015504,-0.0014183,0.00010503,0.0016889,0,0,0,0.026004,0.00015075,5.86e-06,0.012999,0.0087203,0.025927,8.9505e-07,0.5,0.25,0.8
0.026776,0.0036827,-0.0045072,0.025932,-4.7056e-05,-3.473e-05,-0.00027446,0.00010222,0.00031214,0.051913,-0.015633,-0.015601,-0.0014272,0.00053152,0.0016231,0,0,0,0.025939,6.6644e-05,-0.00015517,0.013047,0.0086168,0.025984,9.0087e-07,0.55,0.25,0.8
0.029372,0.0036955,-0.0045234,0.025881,-0.00013441,-0.0001045,-0.00023098,0.00015413,0.00025469,0.051906,-0.015735,-0.015657,-0.0012011,0.00080147,0.0013244,0,0,0,0.025886,3.6287e-05,-0.00027993,0.013083,0.0085474,0.026009,9.0328e-07,0.6,0.25,0.8
0.031966,0.0037092,-0.004541,0.025836,-0.00017596,-0.00013645,-0.00016224,0.00016542,0.00017349,0.051859,-0.015771,-0.015669,-0.00084367,0.00086021,0.00090213,0,0,0,0.025838,1.0917e-05,-0.00032578,0.013082,0.0085077,0.025997,9.0197e-07,0.65,0.25,0.8
0.034557,0.0037287,-0.0045652,0.025791,-0.00017917,-0.00013605,-8.8976e-05,0.00013564,9.0099e-05,0.051771,-0.015751,-0.015639,-0.00046267,0.00070534,0.00046852,0,0,0,0.025792,-1.9615e-05,-0.00029648,0.013044,0.0084919,0.025951,8.9732e-07,0.7,0.25,0.8
0.037143,0.0037544,-0.0045964,0.025748,-0.00015641,-0.00011383,-2.7789e-05,7.4438e-05,2.1762e-05,0.051657,-0.015693,-0.015582,-0.0001445,0.00038708,0.00011316,0,0,0,0.025748,-5.197e-05,-0.0002185,0.012983,0.0084925,0.025884,8.9054e-07,0.75,0.25,0.8
0.039723,0.0037836,-0.0046315,0.025709,-0.00012203,-8.246e-05,1.2286e-05,-2.3625e-06,-2.2209e-05,0.05154,-0.01562,-0.015517,6.3889e-05,-1.2285e-05,-0.00011549,0,0,0,0.025709,-4.8634e-05,-0.00015599,0.012932,0.0085015,0.025812,8.8319e-07,0.8,0.25,0.8
0.042297,0.0038122,-0.0046656,0.025678,-8.8102e-05,-5.25e-05,3.008e-05,-7.828e-05,-4.0747e-05,0.051441,-0.015552,-0.015459,0.00015642,-0.00040706,-0.00021188,0,0,0,0.025678,1.65e-05,-0.00015726,0.012918,0.0085125,0.025749,8.7668e-07,0.85,0.25,0.8
0.044867,0.0038359,-0.0046938,0.025657,-6.1854e-05,-2.9975e-05,2.9781e-05,-0.00014028,-3.8513e-05,0.051369,-0.0155,-0.015417,0.00015486,-0.00072945,-0.00020027,0,0,0,0.025657,9.8533e-05,-0.00019049,0.012924,0.0085217,0.025704,8.7188e-07,0.9,0.25,0.8
0.047434,0.0038514,-0.0047124,0.025645,-4.601e-05,-1.6716e-05,2.3041e-05,-0.00018015,-2.8938e-05,0.051328,-0.015469,-0.015393,0.00011981,-0.00093678,-0.00015048,0,0,0,0.025645,0.00015245,-0.00021524,0.01293,0.0085275,0.025679,8.6904e-07,0.95,0.25,0.8
0.048717,0.0038569,-0.0047188,0.025642,-4.0796e-05,-1.2423e-05,2.0223e-05,-0.00019383,-2.4844e-05,0.051315,-0.015459,-0.015385,0.00010516,-0.0010079,-0.00012919,0,0,0,0.025642,0.00017079,-0.00022405,0.012933,0.0085294,0.025671,8.6812e-07,1,0.25,0.8
0.00091883,0.0002775,-0.00046506,0.024508,0.0093231,0.0090965,0.002097,-5.2645e-05,-0.0034805,0.037963,-0.0015163,-0.0021054,0.010904,-0.00027375,-0.018098,0,0,0,0.025547,0.0092502,0.0081304,0.0087081,0.014309,0.016886,2.4657e-07,0,0.3,0.8
0.0018982,0.00054888,-0.00091984,0.024642,0.0082222,0.0077826,0.0020252,-9.9656e-05,-0.0033086,0.039682,-0.0030104,-0.0041535,0.010531,-0.00051821,-0.017205,0,0,0,0.025539,0.008107,0.0070006,0.0092694,0.013549,0.018014,3.0397e-07,0.05,0.3,0.8
0.0039682,0.0010724,-0.0017909,0.025211,0.0062614,0.005473,0.0018191,-0.00018314,-0.002834,0.043381,-0.0058875,-0.0079371,0.0094595,-0.00095232,-0.014737,0,0,0,0.025817,0.0061167,0.0050117,0.010402,0.012315,0.02028,4.3226e-07,0.1,0.3,0.8
0.0062362,0.0015455,-0.0025576,0.025932,0.004685,0.003747,0.0015085,-0.00024549,-0.002171,0.046805,-0.0084375,-0.010876,0.0078443,-0.0012766,-0.011289,0,0,0,0.026277,0.0045974,0.0034898,0.011394,0.011455,0.022258,5.6651e-07,0.15,0.3,0.8
0.0086487,0.0019486,-0.0031821,0.026359,0.0034065,0.0025228,0.0011432,-0.0002848,-0.0014771,0.049161,-0.010516,-0.012814,0.0059447,-0.001481,-0.0076811,0,0,0,0.026526,0.003408,0.002355,0.012085,0.010763,0.023664,6.7837e-07,0.2,0.3,0.8
0.011152,0.0022721,-0.0036579,0.026527,0.0024165,0.0016974,0.00077664,-0.00029721,-0.00087383,0.050585,-0.012101,-0.013971,0.0040385,-0.0015455,-0.0045439,0,0,0,0.026593,0.0024932,0.0015541,0.01252,0.010214,0.024584,7.6029e-07,0.25,0.3,0.8
0.013707,0.0025161,-0.003999,0.026523,0.0016699,0.0011386,0.00044738,-0.00027932,-0.00040236,0.05136,-0.013257,-0.014638,0.0023264,-0.0014525,-0.0020923,0,0,0,0.026543,0.001787,0.0010011,0.012771,0.009777,0.025159,8.1551e-07,0.3,0.3,0.8
0.016288,0.0026873,-0.004228,0.026434,0.0011142,0.00074942,0.00017614,-0.00022954,-5.8452e-05,0.05175,-0.014082,-0.01503,0.00091595,-0.0011936,-0.00030395,0,0,0,0.026439,0.001231,0.00062819,0.012905,0.0094326,0.025515,8.5157e-07,0.35,0.3,0.8
0.018882,0.0027971,-0.0043687,0.02632,0.00070001,0.00046428,-2.8664e-05,-0.00014966,0.00017468,0.051942,-0.014671,-0.015284,-0.00014905,-0.00077825,0.00090836,0,0,0,0.026323,0.00077964,0.00038201,0.01297,0.0091615,0.025745,8.7567e-07,0.4,0.3,0.8
0.021483,0.0028591,-0.0044446,0.026214,0.00038784,0.0002429,-0.00016455,-4.7275e-05,0.00031161,0.052049,-0.015098,-0.015475,-0.00085566,-0.00024583,0.0016204,0,0,0,0.026219,0.00042991,0.00019552,0.013012,0.0089481,0.025907,8.9285e-07,0.45,0.3,0.8
0.024087,0.0028885,-0.0044783,0.026126,0.0001519,6.5912e-05,-0.00023254,6.2559e-05,0.00036329,0.052121,-0.015411,-0.015635,-0.0012092,0.00032531,0.0018891,0,0,0,0.026133,0.00021492,-4.3803e-06,0.013069,0.0087812,0.026029,9.0552e-07,0.5,0.3,0.8
0.026695,0.0029,-0.0044904,0.026056,-2.0335e-05,-6.9313e-05,-0.00023879,0.00015838,0.00034195,0.052166,-0.015633,-0.01576,-0.0012417,0.00082356,0.0017781,0,0,0,0.026063,0.0001198,-0.00021622,0.01314,0.0086555,0.026113,9.1401e-07,0.55,0.3,0.8
0.029304,0.0029068,-0.0044984,0.025997,-0.00013301,-0.00015638,-0.00019706,0.00021788,0.00026642,0.052167,-0.01577,-0.015831,-0.0010247,0.001133,0.0013854,0,0,0,0.026001,7.5388e-05,-0.00036925,0.013185,0.0085691,0.026151,9.1764e-07,0.6,0.3,0.8
0.031911,0.0029182,-0.0045142,0.02594,-0.0001896,-0.00019049,-0.00012835,0.00022631,0.00016299,0.052107,-0.015829,-0.015831,-0.00066742,0.0011768,0.00084757,0,0,0,0.025942,3.7718e-05,-0.00041984,0.013181,0.0085198,0.026136,9.16e-07,0.65,0.3,0.8
0.034514,0.0029386,-0.004543,0.025882,-0.00019924,-0.00017679,-5.5929e-05,0.00018296,6.0208e-05,0.05199,-0.015822,-0.015763,-0.00029083,0.00095138,0.00031308,0,0,0,0.025883,-3.1972e-06,-0.00037344,0.013128,0.0085021,0.026074,9.0975e-07,0.7,0.3,0.8
0.03711,0.0029672,-0.0045838,0.025827,-0.00017768,-0.00013132,1.6257e-06,0.00010126,-1.9331e-05,0.05184,-0.015773,-0.015652,8.4534e-06,0.00052657,-0.00010052,0,0,0,0.025828,-4.2752e-05,-0.00026649,0.013047,0.0085061,0.025983,9.0071e-07,0.75,0.3,0.8
0.039698,0.0030001,-0.0046307,0.02578,-0.00014291,-7.4643e-05,3.527e-05,2.6694e-06,-6.4718e-05,0.051691,-0.015709,-0.015532,0.0001834,1.3881e-05,-0.00033654,0,0,0,0.02578,-3.6883e-05,-0.00018099,0.012981,0.0085209,0.02589,8.9119e-07,0.8,0.3,0.8
0.042279,0.0030321,-0.0046765,0.025745,-0.00010926,-2.3548e-05,4.5484e-05,-9.1709e-05,-7.6819e-05,0.05157,-0.015651,-0.015429,0.00023652,-0.00047689,-0.00039946,0,0,0,0.025746,4.2871e-05,-0.00017605,0.012961,0.0085374,0.025813,8.8312e-07,0.85,0.3,0.8
0.044855,0.0030583,-0.0047143,0.025723,-8.4382e-05,1.3274e-05,3.8411e-05,-0.00016662,-6.3708e-05,0.051489,-0.015611,-0.015357,0.00019974,-0.00086642,-0.00033128,0,0,0,0.025724,0.00014152,-0.00021289,0.012968,0.0085507,0.025761,8.7747e-07,0.9,0.3,0.8
0.047428,0.0030753,-0.004739,0.025712,-7.0094e-05,3.4229e-05,2.7112e-05,-0.00021373,-4.3704e-05,0.051446,-0.015588,-0.015317,0.00014098,-0.0011114,-0.00022726,0,0,0,0.025712,0.00020543,-0.00024142,0.012977,0.0085588,0.025733,8.7431e-07,0.95,0.3,0.8
0.048714,0.0030812,-0.0047475,0.025709,-6.555e-05,4.088e-05,2.2709e-05,-0.00022969,-3.5285e-05,0.051433,-0.015581,-0.015304,0.00011809,-0.0011944,-0.00018348,0,0,0,0.025709,0.00022683,-0.00025158,0.01298,0.0085615,0.025725,8.7332e-07,1,0.3,0.8
0.00091673,0.00020551,-0.00047297,0.024461,0.0093687,0.0090954,0.0015568,-4.8585e-05,-0.0035421,0.037843,-0.0013962,-0.0021068,0.0080953,-0.00025264,-0.018419,0,0,0,0.02541,0.0093181,0.0081965,0.0086069,0.014308,0.016683,2.3754e-07,0,0.35,0.8
0.0018921,0.00040591,-0.00093486,0.024596,0.0083322,0.0077985,0.0015091,-9.1658e-05,-0.0033697,0.039513,-0.0027721,-0.0041599,0.0078471,-0.00047662,-0.017523,0,0,0,0.025414,0.0082554,0.0070566,0.0091789,0.013575,0.017792,2.9181e-07,0.05,0.35,0.8
0.0039513,0.00079219,-0.0018186,0.02516,0.0064833,0.0055143,0.0013713,-0.00016783,-0.0028926,0.043121,-0.0054379,-0.0079572,0.0071309,-0.00087272,-0.015041,0,0,0,0.025711,0.0063913,0.0050556,0.010328,0.012386,0.020025,4.1398e-07,0.1,0.35,0.8
0.0062043,0.0011416,-0.0025948,0.025881,0.0049766,0.0038015,0.0011617,-0.00022472,-0.0022244,0.046496,-0.0078564,-0.010912,0.0060406,-0.0011686,-0.011567,0,0,0,0.026194,0.0049224,0.0035433,0.011325,0.011553,0.021997,5.4422e-07,0.15,0.35,0.8
0.0086009,0.0014412,-0.0032254,0.026325,0.0037169,0.002584,0.00090871,-0.0002616,-0.0015224,0.048869,-0.0099115,-0.012857,0.0047253,-0.0013603,-0.0079165,0,0,0,0.026476,0.0037178,0.0024323,0.012022,0.010875,0.02343,6.5624e-07,0.2,0.35,0.8
0.011091,0.0016832,-0.0037031,0.02652,0.0027043,0.001761,0.00064344,-0.00027477,-0.00090751,0.05036,-0.01156,-0.014012,0.0033459,-0.0014288,-0.004719,0,0,0,0.026581,0.0027549,0.0016496,0.012465,0.010328,0.024399,7.4178e-07,0.25,0.35,0.8
0.013637,0.0018658,-0.0040417,0.026545,0.0019129,0.0012014,0.00039186,-0.00025945,-0.00042094,0.051222,-0.012822,-0.014672,0.0020377,-0.0013492,-0.0021889,0,0,0,0.026564,0.0019937,0.0011017,0.012731,0.0098866,0.025029,8.0224e-07,0.3,0.35,0.8
0.016213,0.0019923,-0.004263,0.026481,0.0013071,0.00080582,0.00017205,-0.00021134,-5.9206e-05,0.051695,-0.013758,-0.015061,0.00089464,-0.0010989,-0.00030787,0,0,0,0.026486,0.0013878,0.00072067,0.012882,0.0095314,0.025438,8.4361e-07,0.35,0.35,0.8
0.018806,0.0020696,-0.0043915,0.026383,0.00084613,0.00050499,-3.9878e-06,-0.00012912,0.00019227,0.051956,-0.014441,-0.015328,-2.0736e-05,-0.00067144,0.00099981,0,0,0,0.026386,0.0008967,0.00045154,0.012967,0.0092448,0.025715,8.7251e-07,0.4,0.35,0.8
0.021409,0.0021081,-0.0044517,0.026285,0.00049357,0.00025616,-0.00012729,-1.8424e-05,0.00034381,0.05212,-0.014937,-0.015555,-0.0006619,-9.5804e-05,0.0017878,0,0,0,0.026291,0.00052253,0.00022151,0.013034,0.0090115,0.02592,8.9404e-07,0.45,0.35,0.8
0.024018,0.0021201,-0.0044684,0.0262,0.00022357,4.2392e-05,-0.0001918,0.00010475,0.00040096,0.052241,-0.015299,-0.01577,-0.00099735,0.00054469,0.002085,0,0,0,0.026208,0.00029273,-3.445e-05,0.013121,0.0088221,0.026081,9.1065e-07,0.5,0.35,0.8
0.026633,0.0021194,-0.0044657,0.02613,2.3392e-05,-0.00012983,-0.00019784,0.00021437,0.00037219,0.052324,-0.015553,-0.015952,-0.0010287,0.0011147,0.0019354,0,0,0,0.026137,0.00017954,-0.00029289,0.013215,0.0086746,0.026198,9.2235e-07,0.55,0.35,0.8
0.029251,0.0021185,-0.0044643,0.026068,-0.0001106,-0.00024101,-0.00015619,0.00028164,0.00027734,0.052346,-0.015717,-0.016056,-0.00081219,0.0014645,0.0014422,0,0,0,0.026072,0.00011635,-0.00047219,0.013272,0.008572,0.026255,9.2789e-07,0.6,0.35,0.8
0.031868,0.0021264,-0.0044787,0.026005,-0.00018168,-0.00027649,-8.7992e-05,0.00028699,0.00014916,0.052286,-0.015801,-0.016047,-0.00045756,0.0014923,0.00077564,0,0,0,0.026007,6.451e-05,-0.00052433,0.013266,0.0085157,0.026242,9.2653e-07,0.65,0.35,0.8
0.034479,0.0021465,-0.004514,0.025942,-0.00020031,-0.00024096,-1.8341e-05,0.00022944,2.5183e-05,0.052149,-0.015821,-0.015927,-9.5374e-05,0.0011931,0.00013095,0,0,0,0.025942,1.2494e-05,-0.00045423,0.013198,0.0085002,0.026167,9.1913e-07,0.7,0.35,0.8
0.037083,0.0021771,-0.0045671,0.025883,-0.00018503,-0.00015959,3.2993e-05,0.00012693,-6.5286e-05,0.051972,-0.015804,-0.015738,0.00017156,0.00066004,-0.00033949,0,0,0,0.025883,-3.2956e-05,-0.00031212,0.013098,0.0085126,0.026057,9.0824e-07,0.75,0.35,0.8
0.039677,0.0022127,-0.004629,0.025834,-0.0001565,-6.5671e-05,5.7779e-05,7.2763e-06,-0.00010999,0.051802,-0.015774,-0.015538,0.00030045,3.7837e-05,-0.00057193,0,0,0,0.025835,-2.0435e-05,-0.00020244,0.013019,0.0085374,0.025947,8.9705e-07,0.8,0.35,0.8
0.042263,0.002247,-0.0046891,0.025802,-0.00013003,1.4784e-05,5.8874e-05,-0.0001036,-0.00011314,0.051674,-0.01575,-0.015374,0.00030615,-0.00053874,-0.00058832,0,0,0,0.025803,7.7437e-05,-0.00019337,0.012998,0.0085623,0.025862,8.8804e-07,0.85,0.35,0.8
0.044844,0.0022748,-0.0047382,0.025786,-0.00011232,7.0158e-05,4.4734e-05,-0.00018889,-8.7668e-05,0.051597,-0.015738,-0.015264,0.00023262,-0.00098225,-0.00045587,0,0,0,0.025786,0.00019232,-0.00023492,0.01301,0.0085812,0.02581,8.8221e-07,0.9,0.35,0.8
0.047422,0.0022926,-0.0047699,0.02578,-0.0001034,0.0001004,2.9461e-05,-0.00024117,-5.7585e-05,0.051561,-0.015735,-0.015205,0.0001532,-0.0012541,-0.00029944,0,0,0,0.02578,0.00026405,-0.00026723,0.013023,0.0085922,0.025786,8.7926e-07,0.95,0.35,0.8
0.048711,0.0022987,-0.0047809,0.025778,-0.00010083,0.00010974,2.3879e-05,-0.00025862,-4.5542e-05,0.051551,-0.015735,-0.015187,0.00012417,-0.0013448,-0.00023682,0,0,0,0.025778,0.00028752,-0.00027872,0.013029,0.0085957,0.025779,8.7841e-07,1,0.35,0.8
0.00091653,0.00013788,-0.00048012,0.024461,0.0094045,0.0091075,0.0010465,-4.2531e-05,-0.003598,0.037814,-0.0013319,-0.0021039,0.0054416,-0.00022116,-0.01871,0,0,0,0.025354,0.0093769,0.0082416,0.0085562,0.014324,0.016576,2.3273e-07,0,0.4,0.8
0.0018907,0.00027168,-0.0009484,0.024595,0.0084036,0.0078209,0.0010168,-7.9988e-05,-0.0034256,0.039455,-0.0026425,-0.0041573,0.0052872,-0.00041594,-0.017813,0,0,0,0.025363,0.0083631,0.007093,0.0091352,0.013606,0.017673,2.8518e-07,0.05,0.4,0.8
0.0039455,0.00052865,-0.0018435,0.025154,0.0066184,0.0055528,0.00093102,-0.00014604,-0.0029475,0.043006,-0.0051876,-0.0079581,0.0048413,-0.00075942,-0.015327,0,0,0,0.025668,0.0065725,0.0050849,0.010292,0.012442,0.019885,4.037e-07,0.1,0.4,0.8
0.0061913,0.00075987,-0.0026283,0.025872,0.0051556,0.0038499,0.00080064,-0.0001956,-0.0022771,0.046341,-0.007522,-0.010917,0.0041633,-0.0010171,-0.011841,0,0,0,0.026161,0.0051326,0.0035839,0.011289,0.011626,0.021848,5.3125e-07,0.15,0.4,0.8
0.0085797,0.00095745,-0.0032643,0.026321,0.0039133,0.0026402,0.00064132,-0.00022889,-0.0015712,0.048709,-0.00955,-0.01286,0.0033348,-0.0011902,-0.0081703,0,0,0,0.026459,0.0039222,0.002493,0.011983,0.010958,0.023287,6.4269e-07,0.2,0.4,0.8
0.011062,0.0011161,-0.003744,0.026526,0.0028935,0.0018236,0.0004684,-0.00024255,-0.00094905,0.050222,-0.011223,-0.014005,0.0024357,-0.0012613,-0.004935,0,0,0,0.026581,0.0029333,0.0017284,0.012427,0.010414,0.024275,7.2952e-07,0.25,0.4,0.8
0.013602,0.0012338,-0.0040801,0.026563,0.0020799,0.0012673,0.00029617,-0.00023083,-0.00045075,0.051118,-0.012538,-0.014651,0.0015401,-0.0012003,-0.0023439,0,0,0,0.02658,0.0021402,0.0011898,0.012695,0.00997,0.02493,7.922e-07,0.3,0.4,0.8
0.016174,0.0013115,-0.0042942,0.026507,0.0014468,0.00086805,0.00013666,-0.00018705,-7.2526e-05,0.051625,-0.013531,-0.015036,0.00071062,-0.00097265,-0.00037714,0,0,0,0.026511,0.001506,0.00080477,0.012853,0.0096073,0.025363,8.3597e-07,0.35,0.4,0.8
0.018764,0.001353,-0.0044103,0.026413,0.00096032,0.00055076,9.4916e-07,-0.00010671,0.00019849,0.051919,-0.014257,-0.015322,4.9358e-06,-0.00055487,0.0010322,0,0,0,0.026416,0.00099535,0.00051267,0.012952,0.009308,0.025666,8.6734e-07,0.4,0.4,0.8
0.021366,0.0013654,-0.0044538,0.026315,0.00058609,0.00026831,-9.915e-05,7.2435e-06,0.00036786,0.052116,-0.014778,-0.015604,-0.00051558,3.7667e-05,0.0019129,0,0,0,0.026321,0.00061043,0.00023784,0.013041,0.0090563,0.025899,8.9164e-07,0.45,0.4,0.8
0.023976,0.0013586,-0.004452,0.026229,0.00029767,6.0291e-06,-0.0001526,0.00013879,0.0004342,0.052275,-0.015145,-0.015904,-0.00079351,0.00072173,0.0022578,0,0,0,0.026237,0.00036854,-7.3044e-05,0.013155,0.0088441,0.026092,9.1144e-07,0.5,0.4,0.8
0.026593,0.0013447,-0.0044328,0.026157,8.1136e-05,-0.00021703,-0.00015462,0.00025829,0.00040036,0.052395,-0.015402,-0.016177,-0.00080402,0.0013431,0.0020819,0,0,0,0.026164,0.0002356,-0.00037869,0.013271,0.0086736,0.026241,9.2624e-07,0.55,0.4,0.8
0.029215,0.0013351,-0.0044213,0.026092,-6.73e-05,-0.00036181,-0.00011265,0.0003312,0.00028639,0.052442,-0.015573,-0.016339,-0.00058578,0.0017222,0.0014892,0,0,0,0.026096,0.00015223,-0.00058543,0.013341,0.0085543,0.026321,9.3394e-07,0.6,0.4,0.8
0.031838,0.0013382,-0.0044347,0.026029,-0.00015065,-0.0003983,-4.6847e-05,0.00033359,0.00013256,0.052387,-0.015679,-0.016323,-0.0002436,0.0017347,0.00068932,0,0,0,0.02603,8.5654e-05,-0.000636,0.013333,0.0084932,0.026313,9.3319e-07,0.65,0.4,0.8
0.034454,0.0013564,-0.0044784,0.025966,-0.00018034,-0.00033061,1.7292e-05,0.00026436,-1.2744e-05,0.052238,-0.015742,-0.016132,8.9918e-05,0.0013747,-6.6267e-05,0,0,0,0.025966,2.3719e-05,-0.00053518,0.013251,0.0084849,0.026227,9.2495e-07,0.7,0.4,0.8
0.037061,0.0013868,-0.0045466,0.025909,-0.00017696,-0.00019825,6.0042e-05,0.00014556,-0.00011242,0.052044,-0.015781,-0.015836,0.00031222,0.0007569,-0.0005846,0,0,0,0.02591,-2.4365e-05,-0.0003517,0.013131,0.0085113,0.0261,9.1258e-07,0.75,0.4,0.8
0.039658,0.0014227,-0.0046261,0.025868,-0.00016227,-5.3615e-05,7.4726e-05,1.0704e-05,-0.00015352,0.051866,-0.015813,-0.015531,0.00038857,5.5663e-05,-0.00079831,0,0,0,0.025869,6.0451e-08,-0.00021715,0.013043,0.0085508,0.025979,9.0027e-07,0.8,0.4,0.8
0.042248,0.0014571,-0.0047025,0.025847,-0.00015058,6.4621e-05,6.6781e-05,-0.00011041,-0.0001453,0.051746,-0.015848,-0.015289,0.00034726,-0.00057412,-0.00075558,0,0,0,0.025848,0.00011929,-0.0002063,0.013027,0.008587,0.025893,8.9109e-07,0.85,0.4,0.8
0.044833,0.0014845,-0.0047641,0.025842,-0.00014613,0.00014212,4.6792e-05,-0.00020052,-0.00010694,0.051687,-0.015883,-0.015134,0.00024332,-0.0010427,-0.00055607,0,0,0,0.025843,0.00024879,-0.00025341,0.013048,0.0086128,0.025849,8.8589e-07,0.9,0.4,0.8
0.047417,0.0015019,-0.0048035,0.025846,-0.00014633,0.00018244,2.9082e-05,-0.00025416,-6.8552e-05,0.05167,-0.01591,-0.015055,0.00015123,-0.0013216,-0.00035647,0,0,0,0.025846,0.00032502,-0.00028917,0.013068,0.0086272,0.025834,8.8376e-07,0.95,0.4,0.8
0.048708,0.0015078,-0.004817,0.025848,-0.00014701,0.00019449,2.3003e-05,-0.00027177,-5.4331e-05,0.051667,-0.015919,-0.015032,0.00011962,-0.0014132,-0.00028252,0,0,0,0.025848,0.00034917,-0.00030183,0.013075,0.0086318,0.025831,8.8326e-07,1,0.4,0.8
0.00091753,7.2321e-05,-0.00048607,0.02449,0.0094311,0.0091271,0.00055009,-3.4086e-05,-0.0036449,0.037844,-0.0013077,-0.0020983,0.0028605,-0.00017725,-0.018953,0,0,0,0.025354,0.0094206,0.008273,0.0085406,0.014349,0.01654,2.3102e-07,0,0.45,0.8
0.0018922,0.00014167,-0.00095962,0.024624,0.0084451,0.0078465,0.00053534,-6.3862e-05,-0.0034729,0.039473,-0.002592,-0.0041483,0.0027838,-0.00033208,-0.018059,0,0,0,0.025366,0.0084303,0.0071189,0.0091236,0.013638,0.017631,2.8269e-07,0.05,0.45,0.8
0.0039472,0.00027343,-0.0018641,0.025181,0.0066875,0.0055882,0.00049288,-0.00011619,-0.0029954,0.042996,-0.0050862,-0.0079446,0.002563,-0.00060417,-0.015576,0,0,0,0.025675,0.006673,0.0051088,0.010283,0.012485,0.019834,3.9967e-07,0.1,0.45,0.8
0.0061918,0.00038943,-0.0026558,0.025896,0.0052454,0.0038932,0.00042945,-0.00015563,-0.0023257,0.046308,-0.0073825,-0.010898,0.0022331,-0.00080925,-0.012094,0,0,0,0.026172,0.0052426,0.0036196,0.011276,0.011678,0.02179,5.2606e-07,0.15,0.45,0.8
0.0085781,0.00048617,-0.0032964,0.026344,0.0040123,0.0026922,0.00035192,-0.00018321,-0.00162,0.048665,-0.0093972,-0.012829,0.00183,-0.0009527,-0.0084239,0,0,0,0.026476,0.0040259,0.0025471,0.011964,0.011016,0.023227,6.3708e-07,0.2,0.45,0.8
0.011058,0.00056091,-0.0037778,0.02655,0.0029906,0.0018848,0.00026439,-0.00019616,-0.0009952,0.050175,-0.01108,-0.013955,0.0013748,-0.00102,-0.0051751,0,0,0,0.026603,0.0030217,0.0018012,0.012401,0.010475,0.024216,7.24e-07,0.25,0.45,0.8
0.013596,0.000612,-0.0041119,0.026586,0.0021685,0.0013358,0.00017119,-0.00018848,-0.00048951,0.05107,-0.012416,-0.014581,0.00089019,-0.00098012,-0.0025455,0,0,0,0.026602,0.0022128,0.0012752,0.012664,0.01003,0.024873,7.8681e-07,0.3,0.45,0.8
0.016165,0.00063914,-0.0043194,0.026526,0.0015259,0.00093631,7.7399e-05,-0.00015207,-9.7729e-05,0.051574,-0.013425,-0.014958,0.00040247,-0.00079077,-0.00050819,0,0,0,0.026529,0.001569,0.00088928,0.01282,0.0096626,0.025308,8.3056e-07,0.35,0.45,0.8
0.018753,0.00064388,-0.0044238,0.026423,0.001033,0.00060313,-9.3155e-06,-7.9825e-05,0.00019213,0.051865,-0.01415,-0.015267,-4.844e-05,-0.00041509,0.00099906,0,0,0,0.026426,0.0010582,0.00057478,0.012926,0.0093531,0.025614,8.6209e-07,0.4,0.45,0.8
0.021352,0.0006303,-0.0044508,0.026315,0.00065586,0.00028223,-7.7274e-05,2.8032e-05,0.00038098,0.052068,-0.014647,-0.015618,-0.00040182,0.00014577,0.0019811,0,0,0,0.026322,0.00067715,0.00025449,0.013034,0.0090845,0.025859,8.8734e-07,0.45,0.45,0.8
0.02396,0.00060555,-0.0044302,0.02622,0.00036587,-3.9359e-05,-0.0001132,0.00015682,0.00045953,0.052244,-0.014977,-0.01603,-0.00058865,0.00081548,0.0023895,0,0,0,0.026229,0.00042965,-0.0001118,0.01317,0.0088489,0.026075,9.0911e-07,0.5,0.45,0.8
0.026576,0.00057923,-0.0043938,0.026141,0.00014637,-0.00032609,-0.00010892,0.0002761,0.00042359,0.05239,-0.015196,-0.016425,-0.0005664,0.0014357,0.0022027,0,0,0,0.026149,0.00027875,-0.00046596,0.013307,0.0086538,0.026251,9.2638e-07,0.55,0.45,0.8
0.029199,0.0005612,-0.0043719,0.026073,-7.8941e-06,-0.00051308,-6.8292e-05,0.00034885,0.00029266,0.052458,-0.015352,-0.016665,-0.00035512,0.001814,0.0015218,0,0,0,0.026077,0.0001759,-0.00070092,0.013389,0.0085173,0.026351,9.3604e-07,0.6,0.45,0.8
0.031822,0.0005584,-0.0043849,0.02601,-9.9902e-05,-0.00055046,-8.8201e-06,0.00034861,0.00011478,0.05241,-0.015476,-0.016647,-4.5865e-05,0.0018128,0.00059686,0,0,0,0.026011,9.5989e-05,-0.00074763,0.013379,0.0084532,0.026348,9.3594e-07,0.65,0.45,0.8
0.03444,0.00057234,-0.0044384,0.025953,-0.00014171,-0.00044163,4.5705e-05,0.00027425,-4.9783e-05,0.052255,-0.01559,-0.01637,0.00023767,0.0014261,-0.00025887,0,0,0,0.025953,2.708e-05,-0.00061112,0.013282,0.0084564,0.026252,9.2708e-07,0.7,0.45,0.8
0.037048,0.00059903,-0.0045234,0.025907,-0.00015501,-0.00024478,7.75e-05,0.00015038,-0.00015581,0.052054,-0.015707,-0.015941,0.000403,0.00078199,-0.00081022,0,0,0,0.025908,-1.8365e-05,-0.00038278,0.013146,0.0085024,0.026112,9.136e-07,0.75,0.45,0.8
0.039645,0.00063136,-0.004622,0.025881,-0.00016074,-3.7524e-05,8.22e-05,1.3112e-05,-0.0001904,0.051881,-0.015828,-0.015507,0.00042744,6.8181e-05,-0.00099007,0,0,0,0.025883,2.4131e-05,-0.00022411,0.013054,0.008561,0.025984,9.0072e-07,0.8,0.45,0.8
0.042236,0.00066222,-0.0047155,0.025878,-0.00017025,0.00012492,6.7129e-05,-0.00010678,-0.00016925,0.051783,-0.015942,-0.015175,0.00034907,-0.00055524,-0.00088011,0,0,0,0.025879,0.00016632,-0.00021301,0.013046,0.0086109,0.025905,8.9209e-07,0.85,0.45,0.8
0.044823,0.00068652,-0.0047898,0.025891,-0.00018393,0.00022611,4.389e-05,-0.0001931,-0.00011879,0.051756,-0.016038,-0.014972,0.00022823,-0.0010041,-0.00061771,0,0,0,0.025891,0.00030696,-0.0002655,0.013078,0.0086443,0.025876,8.8828e-07,0.9,0.45,0.8
0.047411,0.00070168,-0.0048367,0.025907,-0.00019606,0.00027602,2.5754e-05,-0.00024292,-7.5054e-05,0.051766,-0.016102,-0.014874,0.00013392,-0.0012632,-0.00039028,0,0,0,0.025907,0.00038376,-0.00030408,0.013106,0.0086622,0.025874,8.8752e-07,0.95,0.45,0.8
0.048706,0.00070679,-0.0048527,0.025914,-0.00020086,0.00029035,1.984e-05,-0.00025896,-6.0573e-05,0.051774,-0.016124,-0.014847,0.00010317,-0.0013466,-0.00031498,0,0,0,0.025914,0.00040703,-0.0003177,0.013116,0.0086677,0.025877,8.8758e-07,1,0.45,0.8
0.00091925,7.1063e-06,-0.00049038,0.024536,0.0094484,0.0091497,5.537e-05,-2.2956e-05,-0.0036791,0.037913,-0.0013144,-0.0020912,0.00028792,-0.00011937,-0.019131,0,0,0,0.025396,0.0094464,0.008292,0.0085518,0.014378,0.016559,2.3177e-07,0,0.5,0.8
0.0018956,1.2477e-05,-0.00096771,0.02467,0.0084612,0.0078715,5.4059e-05,-4.2707e-05,-0.0035079,0.039541,-0.0026027,-0.0041358,0.00028111,-0.00022208,-0.018241,0,0,0,0.025408,0.0084587,0.0071359,0.0091361,0.013668,0.017651,2.8354e-07,0.05,0.5,0.8
0.0039541,2.0033e-05,-0.0018788,0.025227,0.0067027,0.0056182,5.0684e-05,-7.709e-05,-0.0030323,0.043062,-0.005102,-0.0079218,0.00026356,-0.00040087,-0.015768,0,0,0,0.025719,0.0067017,0.0051281,0.010295,0.012516,0.019854,4.0077e-07,0.1,0.5,0.8
0.0062019,2.1623e-05,-0.0026754,0.025942,0.0052608,0.0039292,4.8008e-05,-0.00010289,-0.0023655,0.046371,-0.0074013,-0.010864,0.00024964,-0.000535,-0.012301,0,0,0,0.026218,0.0052646,0.0036503,0.011284,0.011711,0.021809,5.2746e-07,0.15,0.5,0.8
0.0085912,1.7729e-05,-0.0033192,0.026389,0.004027,0.0027367,4.595e-05,-0.00012166,-0.0016632,0.04872,-0.0094215,-0.012776,0.00023894,-0.00063262,-0.0086484,0,0,0,0.026521,0.0040377,0.0025943,0.011963,0.011051,0.023242,6.3853e-07,0.2,0.5,0.8
0.011074,8.1724e-06,-0.0038017,0.02659,0.0030039,0.00194,3.9865e-05,-0.00013155,-0.0010399,0.050214,-0.01111,-0.013877,0.0002073,-0.00068404,-0.0054075,0,0,0,0.026644,0.0030232,0.0018674,0.012388,0.010511,0.024221,7.2494e-07,0.25,0.5,0.8
0.013613,-7.7802e-06,-0.0041342,0.026617,0.0021817,0.001401,2.5667e-05,-0.00012732,-0.00053136,0.051085,-0.012447,-0.014477,0.00013347,-0.00066208,-0.0027631,0,0,0,0.026634,0.002209,0.0013566,0.012639,0.010067,0.024864,7.8648e-07,0.3,0.5,0.8
0.016182,-3.1051e-05,-0.0043363,0.026543,0.0015431,0.0010044,1.6436e-06,-0.00010093,-0.00013019,0.051557,-0.013442,-0.014843,8.5465e-06,-0.00052486,-0.00067698,0,0,0,0.026547,0.0015702,0.00097301,0.012787,0.0096968,0.025282,8.2837e-07,0.35,0.5,0.8
0.018768,-6.1991e-05,-0.0044305,0.026423,0.0010594,0.00065742,-2.9037e-05,-4.4362e-05,0.00017555,0.051817,-0.01413,-0.015175,-0.00015099,-0.00023068,0.00091288,0,0,0,0.026427,0.001076,0.00063761,0.012895,0.0093801,0.025573,8.5815e-07,0.4,0.5,0.8
0.021364,-9.9287e-05,-0.0044429,0.026297,0.00069512,0.0002969,-5.7168e-05,4.4102e-05,0.00038266,0.051999,-0.014566,-0.015601,-0.00029728,0.00022933,0.0019898,0,0,0,0.026303,0.00071229,0.00027318,0.013015,0.0090963,0.025814,8.8263e-07,0.45,0.5,0.8
0.023968,-0.00013903,-0.004405,0.026184,0.00041825,-8.8035e-05,-7.0412e-05,0.00015293,0.00047397,0.052171,-0.014821,-0.016138,-0.00036614,0.00079522,0.0024646,0,0,0,0.026193,0.00046644,-0.00014515,0.013169,0.0088382,0.026039,9.0496e-07,0.5,0.5,0.8
0.026581,-0.00017495,-0.0043527,0.026093,0.00020876,-0.00044248,-5.919e-05,0.00025582,0.00043844,0.052326,-0.014973,-0.016666,-0.00030779,0.0013303,0.0022799,0,0,0,0.026101,0.00030253,-0.00054393,0.013322,0.0086197,0.026232,9.2364e-07,0.55,0.5,0.8
0.029201,-0.00020005,-0.0043211,0.026019,5.8245e-05,-0.00067411,-2.3397e-05,0.00031889,0.00029493,0.052407,-0.01509,-0.016995,-0.00012166,0.0016582,0.0015336,0,0,0,0.026023,0.00018488,-0.00080479,0.013414,0.0084677,0.026348,9.3465e-07,0.6,0.5,0.8
0.031822,-0.00020938,-0.0043343,0.025957,-3.7848e-05,-0.00071224,2.4143e-05,0.00031633,9.8325e-05,0.052365,-0.015223,-0.016976,0.00012555,0.0016449,0.00051129,0,0,0,0.025959,9.5377e-05,-0.00084674,0.013403,0.0084024,0.026348,9.3504e-07,0.65,0.5,0.8
0.034437,-0.00020257,-0.0043979,0.025908,-9.1872e-05,-0.00055959,6.3954e-05,0.0002472,-8.079e-05,0.052208,-0.015393,-0.016609,0.00033256,0.0012854,-0.00042011,0,0,0,0.025909,2.2502e-05,-0.0006749,0.013292,0.008419,0.026244,9.2572e-07,0.7,0.5,0.8
0.037043,-0.00018395,-0.0044995,0.025878,-0.00012442,-0.00029393,8.2443e-05,0.00013576,-0.00019011,0.052008,-0.015599,-0.01604,0.00042871,0.00070593,-0.00098859,0,0,0,0.02588,-1.6177e-05,-0.00040397,0.013142,0.0084867,0.026093,9.1155e-07,0.75,0.5,0.8
0.039638,-0.00016008,-0.0046164,0.025873,-0.00015347,-1.9615e-05,7.8363e-05,1.5281e-05,-0.00021689,0.051851,-0.015819,-0.015471,0.00040749,7.946e-05,-0.0011278,0,0,0,0.025876,4.8628e-05,-0.00022382,0.01305,0.0085668,0.025965,8.9862e-07,0.8,0.5,0.8
0.042228,-0.00013716,-0.004726,0.025892,-0.00018678,0.0001888,5.9619e-05,-8.7421e-05,-0.00018319,0.051784,-0.016022,-0.015046,0.00031002,-0.00045459,-0.00095257,0,0,0,0.025894,0.00021342,-0.00021296,0.013053,0.0086315,0.025897,8.9104e-07,0.85,0.5,0.8
0.044816,-0.0001193,-0.0048119,0.025925,-0.00022053,0.00031241,3.6669e-05,-0.00015929,-0.00012274,0.051795,-0.016184,-0.014798,0.00019068,-0.00082828,-0.00063826,0,0,0,0.025926,0.00036117,-0.00027007,0.013098,0.0086724,0.025887,8.8907e-07,0.9,0.5,0.8
0.047407,-0.00010832,-0.0048656,0.025955,-0.00024557,0.00036999,2.0044e-05,-0.00019951,-7.6888e-05,0.051836,-0.016286,-0.014686,0.00010423,-0.0010375,-0.00039982,0,0,0,0.025956,0.00043511,-0.000311,0.013133,0.0086933,0.025902,8.9e-07,0.95,0.5,0.8
0.048703,-0.00010466,-0.0048838,0.025967,-0.00025477,0.00038578,1.4678e-05,-0.00021219,-6.3888e-05,0.051856,-0.016321,-0.014656,7.6327e-05,-0.0011034,-0.00033222,0,0,0,0.025968,0.00045624,-0.00032541,0.013147,0.0086995,0.025911,8.9074e-07,1,0.5,0.8
0.00092137,-5.9123e-05,-0.00049266,0.024591,0.0094557,0.009172,-0.00044747,-9.2473e-06,-0.0036976,0.038006,-0.0013466,-0.0020842,-0.0023268,-4.8086e-05,-0.019227,0,0,0,0.025469,0.0094524,0.0082973,0.0085859,0.014406,0.016627,2.3466e-07,0,0.55,0.8
0.0019003,-0.0001186,-0.00097191,0.024726,0.0084535,0.0078928,-0.0004356,-1.6705e-05,-0.0035272,0.039645,-0.0026643,-0.0041222,-0.0022651,-8.6868e-05,-0.018341,0,0,0,0.025481,0.0084484,0.0071432,0.0091689,0.013691,0.017724,2.873e-07,0.05,0.55,0.8
0.0039645,-0.00023677,-0.0018862,0.025287,0.0066695,0.0056393,-0.00040061,-2.9005e-05,-0.0030539,0.043188,-0.0052166,-0.0078949,-0.0020832,-0.00015082,-0.01588,0,0,0,0.025791,0.0066628,0.0051413,0.010325,0.012532,0.019937,4.0639e-07,0.1,0.55,0.8
0.0062191,-0.0003507,-0.002685,0.026004,0.0052096,0.0039535,-0.00034367,-3.7502e-05,-0.0023911,0.04651,-0.0075552,-0.010821,-0.0017871,-0.00019501,-0.012434,0,0,0,0.026289,0.0052051,0.0036726,0.011308,0.011722,0.021895,5.3466e-07,0.15,0.55,0.8
0.0086154,-0.00045598,-0.0033301,0.026448,0.0039655,0.0027676,-0.00027148,-4.3977e-05,-0.0016939,0.048855,-0.0095981,-0.012713,-0.0014117,-0.00022868,-0.0088081,0,0,0,0.026587,0.0039654,0.0026287,0.011979,0.01106,0.023322,6.4626e-07,0.2,0.55,0.8
0.011105,-0.00055013,-0.0038129,0.02664,0.0029407,0.0019805,-0.0001966,-4.7806e-05,-0.0010749,0.050327,-0.011291,-0.013787,-0.0010223,-0.00024859,-0.0055897,0,0,0,0.026698,0.0029461,0.0019171,0.012391,0.01052,0.024286,7.3173e-07,0.25,0.55,0.8
0.013648,-0.00063274,-0.0041441,0.026652,0.0021253,0.0014515,-0.0001307,-4.5567e-05,-0.0005674,0.051158,-0.012612,-0.014363,-0.00067966,-0.00023695,-0.0029505,0,0,0,0.026672,0.0021373,0.0014198,0.012626,0.010076,0.024902,7.9094e-07,0.3,0.55,0.8
0.01622,-0.00070506,-0.0043422,0.026558,0.0015015,0.0010597,-8.1719e-05,-3.1122e-05,-0.00016161,0.051579,-0.013568,-0.014716,-0.00042494,-0.00016183,-0.00084037,0,0,0,0.026563,0.0015178,0.0010381,0.012763,0.0097064,0.02529,8.2966e-07,0.35,0.55,0.8
0.018806,-0.00076908,-0.004429,0.026416,0.0010389,0.00070245,-5.1205e-05,2.1785e-06,0.00015486,0.051787,-0.014193,-0.015068,-0.00026627,1.1328e-05,0.00080525,0,0,0,0.026419,0.0010529,0.00068515,0.012867,0.0093858,0.025553,8.5633e-07,0.4,0.55,0.8
0.021399,-0.0008263,-0.0044306,0.026265,0.00069849,0.00030808,-3.3999e-05,5.6732e-05,0.00037523,0.051927,-0.014547,-0.015562,-0.00017679,0.00029501,0.0019512,0,0,0,0.026272,0.00071311,0.000287,0.012992,0.0090906,0.025775,8.7864e-07,0.45,0.55,0.8
0.023999,-0.00087658,-0.0043795,0.026132,0.00044569,-0.00012914,-2.1188e-05,0.00012604,0.00047652,0.052073,-0.01471,-0.016205,-0.00011018,0.00065539,0.0024779,0,0,0,0.026141,0.0004749,-0.00016728,0.013154,0.0088161,0.025994,9.0003e-07,0.5,0.55,0.8
0.026606,-0.00091804,-0.0043151,0.026026,0.00025621,-0.00054107,-3.5466e-06,0.00019321,0.00044374,0.052222,-0.014778,-0.016851,-1.8443e-05,0.0010047,0.0023075,0,0,0,0.026033,0.0003064,-0.00059905,0.013316,0.0085802,0.026193,9.189e-07,0.55,0.55,0.8
0.029221,-0.00094784,-0.004276,0.025943,0.00011605,-0.00081578,2.2745e-05,0.00023431,0.00029348,0.052307,-0.014844,-0.017267,0.00011827,0.0012184,0.0015261,0,0,0,0.025948,0.00018088,-0.0008847,0.013416,0.0084146,0.026317,9.3055e-07,0.6,0.55,0.8
0.031837,-0.00096387,-0.0042899,0.025883,2.0906e-05,-0.00085434,5.1551e-05,0.00022968,8.4486e-05,0.052266,-0.014975,-0.017251,0.00026807,0.0011943,0.00043933,0,0,0,0.025884,8.7831e-05,-0.00092258,0.013403,0.0083498,0.026318,9.3108e-07,0.65,0.55,0.8
0.034448,-0.00096696,-0.0043624,0.025844,-4.1517e-05,-0.00065893,7.1357e-05,0.00017875,-0.00010269,0.052108,-0.015194,-0.016799,0.00037106,0.00092948,-0.00053399,0,0,0,0.025845,1.5849e-05,-0.00071742,0.013281,0.0083812,0.026205,9.2131e-07,0.7,0.55,0.8
0.037048,-0.00096092,-0.0044779,0.02583,-9.1888e-05,-0.00033463,7.487e-05,0.0001003,-0.0002117,0.051915,-0.015481,-0.016112,0.00038932,0.00052155,-0.0011008,0,0,0,0.025832,-1.5803e-05,-0.00041277,0.013122,0.0084677,0.026049,9.0688e-07,0.75,0.55,0.8
0.039639,-0.00095056,-0.0046096,0.025846,-0.00014246,-4.683e-06,6.3887e-05,1.8095e-05,-0.00023176,0.05178,-0.01579,-0.015431,0.00033221,9.4093e-05,-0.0012051,0,0,0,0.025848,6.8576e-05,-0.00021803,0.013033,0.0085662,0.025924,8.9439e-07,0.8,0.55,0.8
0.042226,-0.00094001,-0.0047318,0.025887,-0.00019666,0.00024319,4.5343e-05,-5.0276e-05,-0.0001885,0.051746,-0.016071,-0.014928,0.00023578,-0.00026144,-0.00098021,0,0,0,0.025888,0.00025272,-0.00020781,0.013048,0.0086444,0.02587,8.8807e-07,0.85,0.55,0.8
0.044814,-0.00093184,-0.0048266,0.025938,-0.00024826,0.00038476,2.6313e-05,-9.6927e-05,-0.00012116,0.051794,-0.01629,-0.014644,0.00013683,-0.00050402,-0.00063005,0,0,0,0.025939,0.00040466,-0.00026895,0.013104,0.0086914,0.025878,8.8791e-07,0.9,0.55,0.8
0.047405,-0.00092695,-0.0048854,0.02598,-0.00028487,0.00044711,1.2782e-05,-0.00012226,-7.5555e-05,0.051863,-0.016426,-0.014523,6.6466e-05,-0.00063576,-0.00039289,0,0,0,0.025981,0.00047422,-0.00031228,0.013146,0.0087142,0.025909,8.9046e-07,0.95,0.55,0.8
0.048702,-0.00092535,-0.0049051,0.025997,-0.00029794,0.00046351,8.057e-06,-0.00013005,-6.4848e-05,0.051895,-0.016472,-0.014492,4.1896e-05,-0.00067626,-0.00033721,0,0,0,0.025997,0.00049291,-0.00032753,0.013162,0.0087208,0.025924,8.9184e-07,1,0.55,0.8
0.00092377,-0.00012755,-0.00049263,0.024652,0.0094519,0.0091922,-0.0009667,6.398e-06,-0.0036977,0.038118,-0.0014029,-0.0020781,-0.0050269,3.327e-05,-0.019228,0,0,0,0.025572,0.0094376,0.0082864,0.0086428,0.014432,0.016742,2.3973e-07,0,0.6,0.8
0.0019059,-0.00025396,-0.00097169,0.024788,0.0084215,0.0079082,-0.00094059,1.2942e-05,-0.003528,0.039779,-0.0027748,-0.0041095,-0.0048911,6.7301e-05,-0.018345,0,0,0,0.025581,0.0083982,0.0071382,0.0092216,0.013706,0.01785,2.9399e-07,0.05,0.6,0.8
0.0039779,-0.00050162,-0.0018854,0.025353,0.0065873,0.0056483,-0.00086411,2.5877e-05,-0.0030567,0.043365,-0.0054262,-0.0078678,-0.0044934,0.00013456,-0.015895,0,0,0,0.025888,0.0065551,0.0051455,0.010371,0.01253,0.020079,4.1642e-07,0.1,0.6,0.8
0.0062424,-0.0007339,-0.0026833,0.026074,0.0050919,0.0039613,-0.00074305,3.7531e-05,-0.0023977,0.046716,-0.0078373,-0.010777,-0.0038639,0.00019516,-0.012468,0,0,0,0.026381,0.0050651,0.003681,0.01135,0.011709,0.022045,5.4738e-07,0.15,0.6,0.8
0.0086494,-0.00094209,-0.0033275,0.026512,0.0038297,0.0027779,-0.00059205,4.6147e-05,-0.0017057,0.04906,-0.0099147,-0.012649,-0.0030786,0.00023996,-0.0088697,0,0,0,0.026665,0.0038158,0.0026387,0.012013,0.01104,0.023464,6.5972e-07,0.2,0.6,0.8
0.011148,-0.0011209,-0.0038092,0.026691,0.0028049,0.0019965,-0.00043266,5.0881e-05,-0.0010922,0.050501,-0.011603,-0.013705,-0.0022498,0.00026458,-0.0056795,0,0,0,0.026757,0.0028073,0.001928,0.012415,0.010497,0.024404,7.4366e-07,0.25,0.6,0.8
0.0137,-0.0012689,-0.004139,0.026683,0.0020044,0.0014744,-0.00028431,5.2546e-05,-0.00058838,0.051278,-0.012885,-0.014263,-0.0014784,0.00027324,-0.0030596,0,0,0,0.026706,0.0020261,0.0014292,0.012638,0.010054,0.024985,7.9955e-07,0.3,0.6,0.8
0.016276,-0.0013878,-0.0043349,0.026565,0.001406,0.001087,-0.00016043,5.3745e-05,-0.0001828,0.051634,-0.013779,-0.014608,-0.00083425,0.00027948,-0.00095057,0,0,0,0.026571,0.0014435,0.0010428,0.012764,0.0096859,0.025331,8.3408e-07,0.35,0.6,0.8
0.018863,-0.0014813,-0.0044181,0.026398,0.00097404,0.00072505,-6.6887e-05,5.7907e-05,0.00013751,0.051776,-0.014326,-0.014973,-0.00034781,0.00030112,0.00071507,0,0,0,0.026401,0.0010096,0.00068593,0.012858,0.0093657,0.025555,8.5674e-07,0.4,0.6,0.8
0.021454,-0.001554,-0.0044143,0.026223,0.00066477,0.00031196,-2.8178e-06,6.7317e-05,0.00036364,0.05186,-0.014591,-0.015509,-1.4653e-05,0.00035005,0.0018909,0,0,0,0.026229,0.00068561,0.00028484,0.012972,0.0090665,0.025747,8.7582e-07,0.45,0.6,0.8
0.024049,-0.00161,-0.0043569,0.02607,0.00044219,-0.00015191,3.6802e-05,8.142e-05,0.00046998,0.051967,-0.014667,-0.016211,0.00019137,0.00042338,0.0024439,0,0,0,0.026079,0.0004565,-0.00017506,0.013127,0.0087869,0.025945,8.9503e-07,0.5,0.6,0.8
0.02665,-0.0016528,-0.0042863,0.025952,0.0002772,-0.00059646,5.9235e-05,9.5967e-05,0.00044101,0.052095,-0.014659,-0.01693,0.00030802,0.00049903,0.0022932,0,0,0,0.02596,0.00029471,-0.00062183,0.013291,0.0085442,0.026137,9.1287e-07,0.55,0.6,0.8
0.029258,-0.0016845,-0.0042439,0.02586,0.00015002,-0.00090274,7.0774e-05,0.0001034,0.00028914,0.052173,-0.014675,-0.017412,0.00036803,0.0005377,0.0015035,0,0,0,0.025865,0.00017096,-0.0009279,0.013396,0.0083693,0.026262,9.2432e-07,0.6,0.6,0.8
0.031868,-0.0017069,-0.004259,0.025801,6.082e-05,-0.00094103,7.398e-05,9.691e-05,7.368e-05,0.05213,-0.014794,-0.017399,0.00038469,0.00050393,0.00038314,0,0,0,0.025802,8.1988e-05,-0.00096361,0.013383,0.0083069,0.02626,9.2459e-07,0.65,0.6,0.8
0.034471,-0.001722,-0.0043373,0.025772,-2.2682e-06,-0.00071349,6.9059e-05,7.6427e-05,-0.0001154,0.051974,-0.01504,-0.016889,0.00035911,0.00039742,-0.00060007,0,0,0,0.025773,1.5995e-05,-0.00073295,0.013253,0.0083521,0.026142,9.1445e-07,0.7,0.6,0.8
0.037065,-0.001732,-0.0044611,0.025769,-6.3486e-05,-0.00035545,5.6987e-05,4.8759e-05,-0.00022121,0.051789,-0.015375,-0.016134,0.00029633,0.00025355,-0.0011503,0,0,0,0.025771,-1.2136e-05,-0.00040893,0.01309,0.00845,0.025985,9.0016e-07,0.75,0.6,0.8
0.03965,-0.001739,-0.0046013,0.025799,-0.00012858,3.4176e-06,4.1246e-05,2.1878e-05,-0.00023699,0.051674,-0.015739,-0.015396,0.00021448,0.00011377,-0.0012324,0,0,0,0.025802,8.1168e-05,-0.00020867,0.013005,0.0085581,0.025867,8.8847e-07,0.8,0.6,0.8
0.042233,-0.0017443,-0.0047306,0.025857,-0.00019618,0.0002736,2.5883e-05,9.3255e-07,-0.00018871,0.051667,-0.01607,-0.014849,0.00013459,4.8492e-06,-0.0009813,0,0,0,0.025858,0.00027652,-0.00020072,0.013029,0.0086447,0.025824,8.8331e-07,0.85,0.6,0.8
0.044817,-0.0017483,-0.0048304,0.02592,-0.00025958,0.00042484,1.3579e-05,-1.2376e-05,-0.00011804,0.051741,-0.016326,-0.014546,7.0608e-05,-6.4353e-05,-0.00061378,0,0,0,0.025921,0.00043092,-0.00026643,0.013094,0.008695,0.025846,8.8449e-07,0.9,0.6,0.8
0.047407,-0.0017509,-0.004892,0.02597,-0.00030403,0.00048895,4.4205e-06,-1.9005e-05,-7.3501e-05,0.05183,-0.016484,-0.014422,2.2986e-05,-9.8826e-05,-0.0003822,0,0,0,0.025971,0.00049742,-0.0003128,0.013142,0.0087184,0.025888,8.8817e-07,0.95,0.6,0.8
0.048703,-0.0017519,-0.0049126,0.02599,-0.00031973,0.00050534,3.9014e-07,-2.09e-05,-6.4632e-05,0.051869,-0.016537,-0.014391,2.0287e-06,-0.00010868,-0.00033608,0,0,0,0.02599,0.00051453,-0.00032912,0.01316,0.0087252,0.025908,8.8999e-07,1,0.6,0.8
0.00092659,-0.00019941,-0.00049017,0.024722,0.0094359,0.0092108,-0.0015107,2.2813e-05,-0.0036787,0.038256,-0.0014879,-0.0020732,-0.0078554,0.00011863,-0.019129,0,0,0,0.025711,0.0094024,0.008255,0.0087281,0.014456,0.016914,2.4739e-07,0,0.65,0.8
0.0019128,-0.00039609,-0.00096686,0.024859,0.008361,0.0079168,-0.0014673,4.4046e-05,-0.0035091,0.039951,-0.0029432,-0.0040982,-0.0076299,0.00022904,-0.018247,0,0,0,0.025714,0.008306,0.0071161,0.0092991,0.013712,0.018036,3.041e-07,0.05,0.65,0.8
0.0039951,-0.00077939,-0.001876,0.025429,0.006448,0.0056422,-0.0013408,8.3496e-05,-0.0030389,0.043603,-0.0057465,-0.0078417,-0.0069721,0.00043418,-0.015802,0,0,0,0.026011,0.0063722,0.0051356,0.010438,0.012506,0.02029,4.3148e-07,0.1,0.65,0.8
0.0062731,-0.0011344,-0.0026698,0.026152,0.0048984,0.0039479,-0.0011436,0.00011646,-0.0023826,0.046995,-0.0082628,-0.010734,-0.0059466,0.0006056,-0.01239,0,0,0,0.02649,0.0048398,0.0036676,0.011411,0.011666,0.022265,5.6604e-07,0.15,0.65,0.8
0.0086946,-0.0014475,-0.0033105,0.026579,0.0036134,0.0027615,-0.00090196,0.00014122,-0.001695,0.049333,-0.010377,-0.012592,-0.0046902,0.00073435,-0.0088139,0,0,0,0.026751,0.0035957,0.0026072,0.012072,0.010985,0.023669,6.7884e-07,0.2,0.65,0.8
0.011206,-0.0017104,-0.0037898,0.026736,0.0025956,0.0019803,-0.00065014,0.00015531,-0.0010869,0.050726,-0.012039,-0.013638,-0.0033807,0.0008076,-0.0056518,0,0,0,0.026812,0.0026292,0.0018709,0.01247,0.010437,0.024572,7.6012e-07,0.25,0.65,0.8
0.013767,-0.0019213,-0.0041181,0.026699,0.0018227,0.0014603,-0.00041645,0.00015664,-0.00058856,0.051429,-0.01325,-0.014193,-0.0021656,0.00081454,-0.0030605,0,0,0,0.026727,0.001907,0.0013483,0.012689,0.0099941,0.025105,8.1138e-07,0.3,0.65,0.8
0.016349,-0.002083,-0.0043136,0.026553,0.0012621,0.0010755,-0.00021874,0.00014372,-0.00018785,0.051703,-0.014053,-0.014538,-0.0011375,0.00074736,-0.00097682,0,0,0,0.026561,0.0013745,0.00095524,0.012803,0.0096301,0.025399,8.4074e-07,0.35,0.65,0.8
0.018938,-0.0022017,-0.0043973,0.026361,0.0008699,0.00071641,-6.5424e-05,0.00011616,0.0001288,0.05177,-0.014507,-0.014906,-0.00034021,0.00060404,0.00066974,0,0,0,0.026365,0.00096087,0.00062184,0.012871,0.0093158,0.025575,8.5867e-07,0.4,0.65,0.8
0.021526,-0.0022854,-0.0043948,0.026167,0.00059724,0.0003064,4.1476e-05,7.6001e-05,0.00035272,0.051792,-0.01469,-0.015446,0.00021568,0.00039521,0.0018341,0,0,0,0.026173,0.00063664,0.00026085,0.012956,0.0090236,0.025727,8.7389e-07,0.45,0.65,0.8
0.024117,-0.0023432,-0.0043391,0.026002,0.00040553,-0.00015421,0.00010422,2.8773e-05,0.00045842,0.051853,-0.014698,-0.016153,0.00054193,0.00014962,0.0023838,0,0,0,0.026011,0.00041536,-0.0001729,0.013092,0.0087511,0.025896,8.9011e-07,0.5,0.65,0.8
0.026712,-0.0023839,-0.0042704,0.025877,0.00026454,-0.00059567,0.00012762,-1.6267e-05,0.00043033,0.051952,-0.01464,-0.016876,0.00066363,-8.459e-05,0.0022377,0,0,0,0.025885,0.00027326,-0.00061242,0.013249,0.0085152,0.026067,9.0579e-07,0.55,0.65,0.8
0.029312,-0.0024153,-0.0042299,0.025783,0.0001543,-0.00089959,0.00011977,-4.7443e-05,0.00028058,0.052014,-0.014622,-0.017362,0.0006228,-0.0002467,0.001459,0,0,0,0.025788,0.00016774,-0.00091744,0.013353,0.008346,0.026181,9.1588e-07,0.6,0.65,0.8
0.031913,-0.0024433,-0.0042466,0.025725,7.5403e-05,-0.00093684,9.2902e-05,-5.5546e-05,6.7973e-05,0.051967,-0.014722,-0.017354,0.00048309,-0.00028884,0.00035346,0,0,0,0.025726,9.0285e-05,-0.00095321,0.01334,0.0082878,0.026175,9.1562e-07,0.65,0.65,0.8
0.034509,-0.0024709,-0.0043262,0.0257,1.6878e-05,-0.0007099,6.0434e-05,-4.0173e-05,-0.00011819,0.051816,-0.01496,-0.01685,0.00031425,-0.0002089,-0.00061458,0,0,0,0.025701,2.87e-05,-0.0007229,0.013212,0.0083356,0.026058,9.0568e-07,0.7,0.65,0.8
0.037095,-0.0024984,-0.0044509,0.025702,-4.4134e-05,-0.00035369,3.2457e-05,-9.6422e-06,-0.00022164,0.051642,-0.015297,-0.016102,0.00016878,-5.0139e-05,-0.0011525,0,0,0,0.025704,-2.104e-06,-0.00039779,0.013051,0.0084346,0.025907,8.9208e-07,0.75,0.65,0.8
0.039673,-0.0025245,-0.0045918,0.025737,-0.00011176,2.872e-06,1.313e-05,2.5431e-05,-0.00023592,0.05154,-0.015668,-0.01537,6.8274e-05,0.00013224,-0.0012268,0,0,0,0.02574,8.6146e-05,-0.00019731,0.012968,0.0085428,0.025797,8.8125e-07,0.8,0.65,0.8
0.042249,-0.0025471,-0.0047214,0.025799,-0.0001831,0.00027083,2.4354e-06,5.6859e-05,-0.00018702,0.051546,-0.016008,-0.014828,1.2664e-05,0.00029567,-0.00097253,0,0,0,0.025801,0.00028034,-0.00019419,0.012997,0.008629,0.025762,8.769e-07,0.85,0.65,0.8
0.044827,-0.0025644,-0.0048215,0.025866,-0.00025013,0.00042028,-1.5171e-06,8.0028e-05,-0.00011648,0.05163,-0.016272,-0.014529,-7.8889e-06,0.00041614,-0.00060568,0,0,0,0.025867,0.00043566,-0.00026626,0.013067,0.0086787,0.02579,8.787e-07,0.9,0.65,0.8
0.047412,-0.0025753,-0.0048832,0.025919,-0.00029715,0.00048325,-5.1605e-06,9.3569e-05,-7.263e-05,0.051726,-0.016436,-0.014407,-2.6835e-05,0.00048656,-0.00037768,0,0,0,0.025919,0.00050239,-0.00031658,0.013118,0.0087017,0.025836,8.8277e-07,0.95,0.65,0.8
0.048705,-0.002579,-0.0049039,0.025939,-0.00031376,0.00049925,-8.166e-06,9.7939e-05,-6.4223e-05,0.051767,-0.016491,-0.014377,-4.2463e-05,0.00050928,-0.00033396,0,0,0,0.02594,0.00051958,-0.00033429,0.013137,0.0087083,0.025858,8.8473e-07,1,0.65,0.8
0.0009304,-0.00027634,-0.00048547,0.024814,0.0094062,0.0092317,-0.0020898,3.8405e-05,-0.0036417,0.038446,-0.0016152,-0.0020689,-0.010867,0.00019971,-0.018937,0,0,0,0.025906,0.0093521,0.0081942,0.0088558,0.014484,0.017164,2.5871e-07,0,0.7,0.8
0.0019223,-0.00054828,-0.00095777,0.02495,0.0082633,0.0079205,-0.0020229,7.3638e-05,-0.0034717,0.04019,-0.0031957,-0.0040871,-0.010519,0.00038292,-0.018053,0,0,0,0.025896,0.008173,0.0070646,0.0094158,0.013711,0.018306,3.1893e-07,0.05,0.7,0.8
0.004019,-0.0010763,-0.0018587,0.025523,0.0062315,0.0056191,-0.0018291,0.00013841,-0.0030015,0.043935,-0.0062221,-0.0078143,-0.0095113,0.00071976,-0.015608,0,0,0,0.02617,0.0061088,0.0050945,0.010538,0.012458,0.020592,4.5308e-07,0.1,0.7,0.8
0.0063158,-0.0015602,-0.0026454,0.026242,0.0046072,0.0039098,-0.0015326,0.00019168,-0.0023466,0.047374,-0.0088767,-0.01069,-0.0079697,0.00099672,-0.012203,0,0,0,0.026621,0.004528,0.0036103,0.011505,0.011586,0.02257,5.9186e-07,0.15,0.7,0.8
0.0087564,-0.0019798,-0.0032804,0.026647,0.0033015,0.002715,-0.0011798,0.00023138,-0.0016623,0.049683,-0.011014,-0.012539,-0.0061352,0.0012032,-0.0086441,0,0,0,0.026839,0.0033162,0.0025077,0.012166,0.010888,0.02394,7.0396e-07,0.2,0.7,0.8
0.011284,-0.0023248,-0.0037559,0.026767,0.0023074,0.0019293,-0.0008244,0.00025335,-0.0010595,0.050992,-0.012603,-0.013586,-0.0042869,0.0013174,-0.0055094,0,0,0,0.026851,0.0024263,0.001726,0.012563,0.010335,0.024784,7.804e-07,0.25,0.7,0.8
0.013856,-0.002594,-0.0040828,0.02669,0.0015828,0.0014068,-0.00050463,0.00025302,-0.00056836,0.051587,-0.013693,-0.01415,-0.0026241,0.0013157,-0.0029555,0,0,0,0.02672,0.0017824,0.001177,0.012772,0.0098933,0.025247,8.2503e-07,0.3,0.7,0.8
0.016443,-0.0027931,-0.0042797,0.026509,0.0010765,0.0010233,-0.0002399,0.00022563,-0.00017691,0.051758,-0.014366,-0.014505,-0.0012475,0.0011733,-0.00091992,0,0,0,0.026517,0.0012999,0.00079172,0.012863,0.0095363,0.025476,8.4802e-07,0.35,0.7,0.8
0.019031,-0.002932,-0.004368,0.026294,0.00073404,0.00067513,-3.7106e-05,0.00016786,0.00012882,0.051742,-0.014713,-0.014866,-0.00019295,0.00087285,0.00066985,0,0,0,0.026297,0.00089783,0.00050784,0.012895,0.0092343,0.025597,8.6064e-07,0.4,0.7,0.8
0.021617,-0.003023,-0.004373,0.026089,0.0005026,0.00029046,0.00010207,8.1829e-05,0.00034278,0.051702,-0.014822,-0.015374,0.00053075,0.00042551,0.0017825,0,0,0,0.026095,0.00056858,0.00021824,0.012938,0.0089607,0.025704,8.7162e-07,0.45,0.7,0.8
0.024202,-0.0030798,-0.0043269,0.025921,0.00034088,-0.00013657,0.00017866,-2.0867e-05,0.00044226,0.051719,-0.014789,-0.01603,0.00092902,-0.00010851,0.0022997,0,0,0,0.02593,0.00035905,-0.00016388,0.013047,0.0087084,0.025837,8.8442e-07,0.5,0.7,0.8
0.026789,-0.0031167,-0.0042679,0.025797,0.00022182,-0.0005389,0.00019662,-0.0001184,0.00041209,0.051785,-0.014711,-0.016689,0.0010224,-0.00061568,0.0021429,0,0,0,0.025806,0.00024864,-0.00057404,0.01319,0.0084934,0.02598,8.9715e-07,0.55,0.7,0.8
0.02938,-0.0031467,-0.0042343,0.025711,0.0001311,-0.00080641,0.00016668,-0.00018284,0.00026804,0.051828,-0.014681,-0.017118,0.00086675,-0.00095075,0.0013938,0,0,0,0.025716,0.00017558,-0.0008555,0.013286,0.0083453,0.026073,9.0508e-07,0.6,0.7,0.8
0.031972,-0.0031791,-0.0042529,0.025657,6.5701e-05,-0.00084189,0.00010954,-0.00019227,6.7365e-05,0.051779,-0.014757,-0.017117,0.00056961,-0.00099979,0.0003503,0,0,0,0.025658,0.00011476,-0.00089253,0.013275,0.0082935,0.026063,9.0427e-07,0.65,0.7,0.8
0.034558,-0.003218,-0.0043293,0.025629,1.6116e-05,-0.00064824,4.9889e-05,-0.00014594,-0.00011135,0.051638,-0.014957,-0.016684,0.00025943,-0.0007589,-0.000579,0,0,0,0.025631,5.447e-05,-0.00068771,0.013159,0.0083325,0.025957,8.9525e-07,0.7,0.7,0.8
0.037136,-0.0032617,-0.0044476,0.02563,-3.4195e-05,-0.00032934,5.6192e-06,-6.4184e-05,-0.00021347,0.051478,-0.015249,-0.016016,2.922e-05,-0.00033376,-0.0011101,0,0,0,0.025632,1.4111e-05,-0.00037957,0.013006,0.0084222,0.025818,8.8291e-07,0.75,0.7,0.8
0.039706,-0.0033058,-0.0045813,0.025662,-9.2708e-05,-6.3792e-06,-1.7864e-05,2.6614e-05,-0.00022913,0.051383,-0.015579,-0.015354,-9.2893e-05,0.00013839,-0.0011915,0,0,0,0.025664,8.3171e-05,-0.00018442,0.012924,0.0085208,0.025716,8.7301e-07,0.8,0.7,0.8
0.042274,-0.0033451,-0.0047049,0.025716,-0.00015824,0.00023466,-2.3861e-05,0.00010579,-0.00018403,0.051387,-0.015887,-0.014866,-0.00012407,0.00055013,-0.00095696,0,0,0,0.025718,0.00026371,-0.00018883,0.012953,0.0085976,0.025684,8.6909e-07,0.85,0.7,0.8
0.044844,-0.0033755,-0.0048006,0.025778,-0.00022073,0.00037068,-1.9021e-05,0.00016253,-0.00011697,0.051466,-0.016131,-0.014593,-9.8907e-05,0.00084517,-0.00060823,0,0,0,0.025779,0.00041796,-0.00026874,0.013024,0.0086426,0.025711,8.7078e-07,0.9,0.7,0.8
0.04742,-0.0033945,-0.0048599,0.025827,-0.00026496,0.00042949,-1.6163e-05,0.0001949,-7.3242e-05,0.051555,-0.016284,-0.014478,-8.4046e-05,0.0010135,-0.00038086,0,0,0,0.025827,0.00048776,-0.00032353,0.013075,0.0086638,0.025755,8.7449e-07,0.95,0.7,0.8
0.04871,-0.0034009,-0.0048798,0.025846,-0.00028075,0.00044467,-1.7475e-05,0.00020521,-6.3828e-05,0.051593,-0.016336,-0.01445,-9.0868e-05,0.0010671,-0.00033191,0,0,0,0.025846,0.00050651,-0.00034279,0.013094,0.0086699,0.025775,8.7626e-07,1,0.7,0.8
0.00093645,-0.00036094,-0.00047906,0.024959,0.0093592,0.0092636,-0.0027199,5.1189e-05,-0.0035908,0.038744,-0.0018151,-0.0020635,-0.014144,0.00026618,-0.018672,0,0,0,0.026195,0.0093014,0.0080855,0.0090546,0.014527,0.017535,2.7582e-07,0,0.75,0.8
0.0019372,-0.00071566,-0.00094544,0.025089,0.0081093,0.007923,-0.0026165,9.8106e-05,-0.0034198,0.040558,-0.0035885,-0.0040729,-0.013606,0.00051015,-0.017783,0,0,0,0.026159,0.0080136,0.0069488,0.009605,0.013707,0.018704,3.4098e-07,0.05,0.75,0.8
0.0040558,-0.0014016,-0.0018353,0.025655,0.0058982,0.005576,-0.002322,0.00018426,-0.0029484,0.044425,-0.0069422,-0.0077798,-0.012075,0.00095814,-0.015332,0,0,0,0.026383,0.0057816,0.0049645,0.010709,0.012376,0.021026,4.8409e-07,0.1,0.75,0.8
0.0063797,-0.0020221,-0.0026127,0.026356,0.0041801,0.0038427,-0.0018864,0.00025465,-0.0022942,0.047899,-0.009759,-0.010636,-0.0098093,0.0013242,-0.01193,0,0,0,0.026777,0.0041526,0.0034496,0.011664,0.01146,0.022986,6.2684e-07,0.15,0.75,0.8
0.0088457,-0.0025489,-0.0032404,0.026714,0.0028727,0.0026367,-0.0013929,0.00030607,-0.001613,0.050122,-0.011865,-0.012478,-0.0072433,0.0015916,-0.0083874,0,0,0,0.026923,0.0030004,0.0022999,0.012311,0.010741,0.024281,7.3523e-07,0.2,0.75,0.8
0.011392,-0.0029707,-0.0037112,0.026772,0.0019371,0.001845,-0.00092441,0.00033269,-0.001016,0.051274,-0.013296,-0.013535,-0.0048069,0.00173,-0.0052833,0,0,0,0.02686,0.002206,0.0014877,0.012686,0.010185,0.025021,8.0292e-07,0.25,0.75,0.8
0.013973,-0.0032905,-0.0040369,0.026636,0.0012914,0.0013185,-0.00052621,0.00032844,-0.00053395,0.051707,-0.01419,-0.01412,-0.0027363,0.0017079,-0.0027765,0,0,0,0.026666,0.0016389,0.00094115,0.012863,0.0097488,0.025384,8.3797e-07,0.3,0.75,0.8
0.016563,-0.0035196,-0.0042369,0.026414,0.00085967,0.00093688,-0.00021133,0.00028727,-0.00015555,0.05175,-0.014691,-0.01449,-0.0010989,0.0014938,-0.00080885,0,0,0,0.026421,0.0011992,0.00058996,0.012916,0.0094035,0.025533,8.5318e-07,0.35,0.75,0.8
0.019148,-0.003673,-0.004333,0.026178,0.0005774,0.00060642,2.1729e-05,0.0002049,0.00013336,0.051647,-0.014916,-0.014841,0.00011299,0.0010655,0.00069347,0,0,0,0.026182,0.00081055,0.00036991,0.012906,0.0091208,0.025595,8.6019e-07,0.4,0.75,0.8
0.021727,-0.0037677,-0.0043506,0.025973,0.00039089,0.00026373,0.00017601,8.4388e-05,0.00033053,0.051553,-0.01496,-0.015291,0.00091525,0.00043882,0.0017188,0,0,0,0.02598,0.00048535,0.00016265,0.012908,0.0088758,0.025657,8.6697e-07,0.45,0.75,0.8
0.024303,-0.0038221,-0.0043199,0.025815,0.00026022,-0.00010271,0.00025343,-5.7652e-05,0.00041908,0.051535,-0.014907,-0.01585,0.0013179,-0.00029979,0.0021792,0,0,0,0.025824,0.00029696,-0.00014906,0.012987,0.0086575,0.025754,8.7626e-07,0.5,0.75,0.8
0.026881,-0.0038551,-0.004276,0.025705,0.00016263,-0.00044006,0.0002589,-0.00019015,0.0003876,0.051576,-0.014834,-0.016401,0.0013463,-0.00098876,0.0020155,0,0,0,0.025713,0.00022543,-0.00051153,0.013112,0.0084758,0.025866,8.8599e-07,0.55,0.75,0.8
0.029461,-0.0038834,-0.0042528,0.025632,8.9839e-05,-0.00065911,0.00020662,-0.00027549,0.00025369,0.051606,-0.014804,-0.016751,0.0010744,-0.0014325,0.0013192,0,0,0,0.025637,0.00018779,-0.00076191,0.013199,0.0083543,0.025938,8.9191e-07,0.6,0.75,0.8
0.032041,-0.003919,-0.0042735,0.025585,3.9624e-05,-0.00069194,0.00012311,-0.00028589,6.985e-05,0.051562,-0.014857,-0.016759,0.00064016,-0.0014866,0.00036322,0,0,0,0.025587,0.00014517,-0.00079914,0.013193,0.008311,0.025928,8.9087e-07,0.65,0.75,0.8
0.034617,-0.0039666,-0.0043435,0.025559,4.3271e-06,-0.00054198,3.9985e-05,-0.00022044,-9.6306e-05,0.05144,-0.015001,-0.016422,0.00020792,-0.0011463,-0.00050079,0,0,0,0.02556,8.7462e-05,-0.0006261,0.013093,0.0083403,0.025838,8.8323e-07,0.7,0.75,0.8
0.037185,-0.0040233,-0.0044501,0.025554,-2.9851e-05,-0.0002852,-1.9571e-05,-0.00010499,-0.00019504,0.051297,-0.015221,-0.015885,-0.00010177,-0.00054597,-0.0010142,0,0,0,0.025556,3.283e-05,-0.00034957,0.012953,0.008413,0.025717,8.7267e-07,0.75,0.75,0.8
0.039747,-0.0040823,-0.0045708,0.025574,-7.3052e-05,-2.276e-05,-4.8042e-05,2.451e-05,-0.00021496,0.051206,-0.015477,-0.015346,-0.00024982,0.00012745,-0.0011178,0,0,0,0.025576,7.2147e-05,-0.00016996,0.012873,0.0084928,0.025626,8.6398e-07,0.8,0.75,0.8
0.042306,-0.0041358,-0.0046831,0.025614,-0.00012548,0.00017378,-5.0539e-05,0.0001382,-0.00017818,0.0512,-0.015724,-0.014946,-0.0002628,0.00071863,-0.00092653,0,0,0,0.025616,0.00023018,-0.00018338,0.0129,0.0085542,0.025596,8.6028e-07,0.85,0.75,0.8
0.044867,-0.0041775,-0.0047709,0.025663,-0.00017716,0.00028767,-3.7795e-05,0.00022013,-0.00011772,0.05126,-0.015925,-0.014716,-0.00019654,0.0011447,-0.00061214,0,0,0,0.025664,0.00038007,-0.00027032,0.012967,0.0085912,0.025616,8.6128e-07,0.9,0.75,0.8
0.047432,-0.0042037,-0.0048258,0.025703,-0.0002146,0.00033897,-2.8041e-05,0.00026731,-7.4256e-05,0.051331,-0.016054,-0.014615,-0.00014581,0.00139,-0.00038613,0,0,0,0.025703,0.00045299,-0.00032893,0.013016,0.0086091,0.02565,8.6405e-07,0.95,0.75,0.8
0.048715,-0.0042126,-0.0048443,0.025718,-0.00022819,0.0003526,-2.6996e-05,0.00028245,-6.3011e-05,0.051362,-0.016099,-0.014589,-0.00014038,0.0014687,-0.00032766,0,0,0,0.025718,0.00047369,-0.00034948,0.013034,0.0086142,0.025667,8.6541e-07,1,0.75,0.8
0.00094734,-0.00045785,-0.00047194,0.025215,0.0092842,0.0093226,-0.0034248,5.8604e-05,-0.0035335,0.039267,-0.0021543,-0.0020546,-0.017809,0.00030474,-0.018374,0,0,0,0.026651,0.009278,0.0078931,0.009379,0.014607,0.018108,3.0304e-07,0,0.8,0.8
0.0019633,-0.00090712,-0.00093173,0.025326,0.0078577,0.0079295,-0.0032567,0.00011297,-0.0033607,0.04118,-0.0042378,-0.0040513,-0.016935,0.00058745,-0.017475,0,0,0,0.026558,0.0078634,0.0066922,0.0099327,0.013704,0.019311,3.7507e-07,0.05,0.8,0.8
0.004118,-0.0017705,-0.0018094,0.025858,0.0053742,0.0055045,-0.0027955,0.00021357,-0.0028869,0.045188,-0.008069,-0.0077301,-0.014537,0.0011105,-0.015012,0,0,0,0.026674,0.0054464,0.004616,0.011029,0.012245,0.021658,5.2909e-07,0.1,0.8,0.8
0.0064821,-0.0025361,-0.0025764,0.026504,0.0035636,0.0037392,-0.0021555,0.00029606,-0.002233,0.048627,-0.011019,-0.010562,-0.011208,0.0015395,-0.011612,0,0,0,0.026957,0.0037779,0.0030725,0.011942,0.011269,0.023542,6.7289e-07,0.15,0.8,0.8
0.0089807,-0.0031663,-0.0031962,0.026767,0.0023148,0.0025258,-0.00149,0.00035462,-0.0015554,0.05063,-0.012946,-0.012398,-0.0077478,0.001844,-0.0080883,0,0,0,0.02698,0.0026911,0.0019367,0.012522,0.010536,0.024676,7.7078e-07,0.2,0.8,0.8
0.011545,-0.0036544,-0.0036621,0.026719,0.001497,0.0017305,-0.0009151,0.00038197,-0.00096542,0.051502,-0.014076,-0.013469,-0.0047585,0.0019863,-0.0050202,0,0,0,0.026803,0.0019794,0.0011641,0.01282,0.0099822,0.025242,8.2339e-07,0.25,0.8,0.8
0.014131,-0.004013,-0.003987,0.026502,0.0009674,0.0012008,-0.00046538,0.00037212,-0.00049382,0.051702,-0.014687,-0.01408,-0.00242,0.001935,-0.0025679,0,0,0,0.026527,0.0014704,0.0006718,0.012928,0.0095566,0.025466,8.4537e-07,0.3,0.8,0.8
0.016715,-0.0042622,-0.004191,0.026236,0.00062949,0.00082433,-0.00013188,0.00031983,-0.00013057,0.051599,-0.014977,-0.01447,-0.00068575,0.0016631,-0.00067897,0,0,0,0.026241,0.0010663,0.00038177,0.01293,0.0092298,0.025525,8.5193e-07,0.35,0.8,0.8
0.019291,-0.0044236,-0.0042968,0.025992,0.00041552,0.0005176,0.00010311,0.00022212,0.00013856,0.051423,-0.015074,-0.014809,0.0005362,0.001155,0.00072053,0,0,0,0.025995,0.00070023,0.00022941,0.012883,0.0089749,0.025534,8.5391e-07,0.4,0.8,0.8
0.021858,-0.004519,-0.0043292,0.025801,0.00027606,0.00022564,0.00025077,8.3776e-05,0.00031522,0.0513,-0.015064,-0.015195,0.001304,0.00043563,0.0016392,0,0,0,0.025808,0.00039473,9.9706e-05,0.012854,0.0087674,0.025562,8.5745e-07,0.45,0.8,0.8
0.024421,-0.0045705,-0.0043165,0.025669,0.00017751,-6.649e-05,0.00031572,-7.588e-05,0.00039013,0.051271,-0.015006,-0.015641,0.0016417,-0.00039457,0.0020287,0,0,0,0.025679,0.00023547,-0.00013449,0.012907,0.0085933,0.025631,8.6408e-07,0.5,0.8,0.8
0.026985,-0.0046001,-0.0042899,0.025586,0.00010255,-0.0003267,0.00030417,-0.00022212,0.00035859,0.051307,-0.014951,-0.016067,0.0015817,-0.001155,0.0018647,0,0,0,0.025595,0.00020229,-0.00043529,0.013015,0.0084541,0.025719,8.7164e-07,0.55,0.8,0.8
0.029552,-0.0046271,-0.0042781,0.025536,4.7249e-05,-0.00049448,0.00023261,-0.00031471,0.00023852,0.051341,-0.014931,-0.016339,0.0012096,-0.0016365,0.0012403,0,0,0,0.025541,0.00019631,-0.0006485,0.013095,0.0083631,0.025779,8.7644e-07,0.6,0.8,0.8
0.032119,-0.0046648,-0.0043009,0.025504,1.2089e-05,-0.00052348,0.0001302,-0.00032559,7.5225e-05,0.051315,-0.014964,-0.016357,0.00067703,-0.0016931,0.00039117,0,0,0,0.025506,0.00017009,-0.00068317,0.013095,0.008331,0.025774,8.7588e-07,0.65,0.8,0.8
0.034683,-0.0047181,-0.0043632,0.025483,-8.585e-06,-0.00041782,3.0905e-05,-0.00025385,-7.4475e-05,0.051221,-0.015056,-0.01612,0.00016071,-0.00132,-0.00038727,0,0,0,0.025484,0.00011576,-0.00054299,0.013013,0.0083521,0.025705,8.7006e-07,0.7,0.8,0.8
0.037241,-0.0047838,-0.0044558,0.025473,-2.7195e-05,-0.0002332,-3.965e-05,-0.00012576,-0.00016825,0.051102,-0.015198,-0.015734,-0.00020618,-0.00065395,-0.00087488,0,0,0,0.025474,4.7707e-05,-0.0003095,0.012892,0.0084042,0.025608,8.617e-07,0.75,0.8,0.8
0.039793,-0.0048535,-0.0045608,0.025479,-5.3981e-05,-4.2868e-05,-7.2372e-05,1.9955e-05,-0.0001946,0.051016,-0.01537,-0.015341,-0.00037633,0.00010377,-0.0010119,0,0,0,0.025481,5.6367e-05,-0.00015501,0.012818,0.0084607,0.025531,8.5447e-07,0.8,0.8,0.8
0.042343,-0.0049175,-0.0046596,0.025501,-9.0159e-05,0.00010232,-7.3093e-05,0.00014967,-0.00016913,0.050995,-0.015542,-0.015042,-0.00038008,0.00077827,-0.00087949,0,0,0,0.025503,0.00018668,-0.00017596,0.012839,0.0085044,0.0255,8.5084e-07,0.85,0.8,0.8
0.044893,-0.004968,-0.0047378,0.025532,-0.00012807,0.00018923,-5.462e-05,0.00024472,-0.00011728,0.051027,-0.015689,-0.014864,-0.00028403,0.0012725,-0.00060988,0,0,0,0.025533,0.00032586,-0.00026549,0.012899,0.008531,0.025508,8.5078e-07,0.9,0.8,0.8
0.047445,-0.0049999,-0.0047872,0.025558,-0.00015666,0.00022988,-3.8906e-05,0.00030042,-7.4744e-05,0.051072,-0.015786,-0.014781,-0.00020231,0.0015622,-0.00038867,0,0,0,0.025559,0.00039841,-0.00032552,0.012942,0.0085438,0.02553,8.5229e-07,0.95,0.8,0.8
0.048722,-0.0050108,-0.004804,0.025569,-0.00016725,0.00024101,-3.5492e-05,0.00031851,-6.1572e-05,0.051093,-0.01582,-0.014759,-0.00018456,0.0016563,-0.00032018,0,0,0,0.025569,0.00042004,-0.00034649,0.012958,0.0085474,0.025541,8.5311e-07,1,0.8,0.8
0.00096979,-0.00057637,-0.00046569,0.025712,0.0091342,0.0094337,-0.0042456,5.7204e-05,-0.0034819,0.040284,-0.0028191,-0.0020405,-0.022077,0.00029746,-0.018106,0,0,0,0.02742,0.00932,0.0075399,0.0099402,0.01476,0.019057,3.5058e-07,0,0.85,0.8
0.0020142,-0.0011394,-0.00091962,0.025755,0.0073949,0.0079353,-0.0039388,0.00011244,-0.0033061,0.042311,-0.0054242,-0.004019,-0.020482,0.0005847,-0.017192,0,0,0,0.027183,0.0077541,0.0061481,0.010517,0.013695,0.020286,4.3102e-07,0.05,0.85,0.8
0.0042311,-0.0022085,-0.0017862,0.026173,0.0045233,0.0053793,-0.003166,0.0002171,-0.0028282,0.046405,-0.009885,-0.0076594,-0.016463,0.0011289,-0.014707,0,0,0,0.027057,0.0051536,0.0038651,0.011596,0.012025,0.022584,5.9419e-07,0.1,0.85,0.8
0.0066547,-0.003124,-0.0025437,0.026686,0.002725,0.0035932,-0.0022334,0.00030473,-0.0021742,0.049581,-0.012718,-0.01046,-0.011614,0.0015846,-0.011306,0,0,0,0.027137,0.0034733,0.0023942,0.012371,0.011001,0.024227,7.2826e-07,0.15,0.85,0.8
0.0091892,-0.0038435,-0.0031561,0.026754,0.001665,0.002382,-0.0013995,0.00036469,-0.0015002,0.05108,-0.014152,-0.012287,-0.0072772,0.0018964,-0.0078012,0,0,0,0.026949,0.0024245,0.0014274,0.012761,0.010267,0.025041,8.0248e-07,0.2,0.85,0.8
0.011763,-0.0043783,-0.0036178,0.026533,0.0010317,0.0015816,-0.00076996,0.00038915,-0.00091645,0.051497,-0.014805,-0.013375,-0.0040038,0.0020236,-0.0047655,0,0,0,0.026603,0.001747,0.00079564,0.012904,0.0097153,0.025346,8.3227e-07,0.25,0.85,0.8
0.014339,-0.0047592,-0.0039421,0.026219,0.00064639,0.0010517,-0.00032643,0.00037403,-0.00045387,0.051419,-0.01507,-0.014016,-0.0016974,0.0019449,-0.0023601,0,0,0,0.026239,0.0012697,0.00040874,0.012915,0.0093057,0.025411,8.3942e-07,0.3,0.85,0.8
0.016905,-0.0050173,-0.0041501,0.025927,0.00041161,0.00068735,-2.094e-05,0.00031654,-0.00010414,0.051196,-0.015146,-0.014429,-0.00010889,0.001646,-0.00054153,0,0,0,0.025932,0.0008977,0.00019703,0.012867,0.0090088,0.025392,8.3867e-07,0.35,0.85,0.8
0.019458,-0.0051804,-0.0042648,0.025703,0.00026718,0.00041139,0.00018258,0.00021605,0.00014662,0.050999,-0.015134,-0.014759,0.00094941,0.0011234,0.00076242,0,0,0,0.025707,0.00056858,0.00010605,0.012801,0.0087939,0.025374,8.3801e-07,0.4,0.85,0.8
0.022005,-0.005274,-0.0043109,0.025555,0.0001735,0.00017381,0.00030235,7.8952e-05,0.00030355,0.050902,-0.01509,-0.01509,0.0015722,0.00041055,0.0015785,0,0,0,0.025563,0.00030151,3.7943e-05,0.012763,0.0086342,0.025395,8.4083e-07,0.45,0.85,0.8
0.024549,-0.0053228,-0.0043149,0.025473,0.00010604,-4.4003e-05,0.0003451,-7.5542e-05,0.00036474,0.05091,-0.015046,-0.015436,0.0017945,-0.00039282,0.0018967,0,0,0,0.025484,0.0001762,-0.00012421,0.012804,0.0085118,0.025459,8.4712e-07,0.5,0.85,0.8
0.027096,-0.0053501,-0.0043039,0.025438,5.3869e-05,-0.00022813,0.00031724,-0.00021485,0.00033248,0.05098,-0.015018,-0.015751,0.0016497,-0.0011172,0.0017289,0,0,0,0.025446,0.0001728,-0.00035555,0.012901,0.0084211,0.025542,8.5446e-07,0.55,0.85,0.8
0.029647,-0.0053764,-0.0043024,0.025424,1.608e-05,-0.00034498,0.00023482,-0.00030225,0.00022562,0.051046,-0.015015,-0.015954,0.001221,-0.0015717,0.0011732,0,0,0,0.025429,0.00018978,-0.00052339,0.012976,0.0083652,0.025604,8.5968e-07,0.6,0.85,0.8
0.0322,-0.0054155,-0.0043268,0.025416,-5.9387e-06,-0.00036853,0.00012568,-0.00031283,8.2257e-05,0.051056,-0.01504,-0.015983,0.00065351,-0.0016267,0.00042774,0,0,0,0.025417,0.00017618,-0.00055224,0.012985,0.0083471,0.025614,8.6057e-07,0.65,0.85,0.8
0.034752,-0.0054722,-0.0043821,0.025404,-1.5889e-05,-0.00030336,2.2101e-05,-0.00024586,-5.192e-05,0.051,-0.015092,-0.01584,0.00011493,-0.0012785,-0.00026998,0,0,0,0.025405,0.00012634,-0.00044624,0.012925,0.0083616,0.02557,8.5702e-07,0.7,0.85,0.8
0.0373,-0.0055431,-0.0044617,0.025391,-2.306e-05,-0.00018567,-5.1199e-05,-0.00012491,-0.00014192,0.050906,-0.015169,-0.015592,-0.00026624,-0.00064951,-0.000738,0,0,0,0.025392,5.3925e-05,-0.00026379,0.012828,0.008394,0.025499,8.5088e-07,0.75,0.85,0.8
0.039843,-0.0056193,-0.0045521,0.025382,-3.6177e-05,-6.2282e-05,-8.5109e-05,1.4465e-05,-0.00017555,0.050823,-0.015264,-0.015332,-0.00044257,7.5216e-05,-0.00091287,0,0,0,0.025384,4.1319e-05,-0.00014137,0.012763,0.0084279,0.025434,8.4486e-07,0.8,0.85,0.8
0.042382,-0.00569,-0.0046381,0.025383,-5.7467e-05,3.3881e-05,-8.5217e-05,0.00014053,-0.00016154,0.05078,-0.015365,-0.015127,-0.00044313,0.00073075,-0.00084,0,0,0,0.025384,0.00014007,-0.00016505,0.012775,0.0084531,0.025399,8.4097e-07,0.85,0.85,0.8
0.044921,-0.0057464,-0.0047073,0.025391,-8.198e-05,9.2932e-05,-6.4169e-05,0.00023469,-0.00011799,0.050776,-0.015455,-0.015,-0.00033368,0.0012204,-0.00061354,0,0,0,0.025392,0.0002586,-0.00024846,0.01282,0.0084675,0.025391,8.3957e-07,0.9,0.85,0.8
0.04746,-0.0057823,-0.0047517,0.025401,-0.00010141,0.00012125,-4.5581e-05,0.00029085,-7.5957e-05,0.050791,-0.015516,-0.014937,-0.00023702,0.0015124,-0.00039498,0,0,0,0.025402,0.00032464,-0.00030515,0.012853,0.0084737,0.025398,8.3967e-07,0.95,0.85,0.8
0.04873,-0.0057946,-0.0047669,0.025406,-0.00010877,0.00012916,-4.1083e-05,0.00030929,-6.0666e-05,0.050799,-0.015538,-0.01492,-0.00021363,0.0016083,-0.00031547,0,0,0,0.025406,0.00034507,-0.00032489,0.012865,0.0084753,0.025403,8.399e-07,1,0.85,0.8
0.0010185,-0.00073976,-0.00046268,0.026707,0.0086417,0.0095929,-0.0051169,4.377e-05,-0.0034544,0.042472,-0.0044963,-0.0020231,-0.026608,0.0002276,-0.017963,0,0,0,0.028728,0.0094228,0.0067906,0.010969,0.01498,0.020756,4.4306e-07,0,0.9,0.8
0.0021236,-0.0014495,-0.00091343,0.026589,0.0064413,0.0079195,-0.0044737,9.0753e-05,-0.0032747,0.044562,-0.0078226,-0.0039793,-0.023263,0.00047192,-0.017028,0,0,0,0.028173,0.0076667,0.0051104,0.011531,0.01365,0.021911,5.2749e-07,0.05,0.9,0.8
0.0044562,-0.002759,-0.0017736,0.026704,0.0032716,0.0052059,-0.003154,0.00018424,-0.0027906,0.048321,-0.012603,-0.0075735,-0.016401,0.00095806,-0.014511,0,0,0,0.027553,0.0049109,0.0027177,0.012418,0.011727,0.02383,6.8055e-07,0.1,0.9,0.8
0.0069557,-0.0038078,-0.0025249,0.026822,0.0018047,0.0034191,-0.0019456,0.00026565,-0.002134,0.05051,-0.014535,-0.010338,-0.010117,0.0013814,-0.011097,0,0,0,0.027214,0.0032461,0.0015863,0.012814,0.010682,0.024847,7.7609e-07,0.15,0.9,0.8
0.0095072,-0.0045815,-0.0031324,0.026489,0.0010372,0.0021799,-0.0010691,0.00031863,-0.0014593,0.051048,-0.015127,-0.012156,-0.0055591,0.0016569,-0.0075886,0,0,0,0.026646,0.0021616,0.00089817,0.012874,0.009902,0.025143,8.0912e-07,0.2,0.9,0.8
0.01206,-0.0051349,-0.003591,0.026061,0.00061469,0.0013727,-0.00050814,0.00033709,-0.0008749,0.050929,-0.015231,-0.01326,-0.0026423,0.0017529,-0.0045495,0,0,0,0.026114,0.0014715,0.00046238,0.012826,0.0093494,0.025164,8.1402e-07,0.25,0.9,0.8
0.0146,-0.0055199,-0.0039144,0.025695,0.00037387,0.00085614,-0.0001539,0.00032015,-0.00041317,0.050652,-0.015183,-0.013929,-0.00080029,0.0016648,-0.0021485,0,0,0,0.025709,0.0010141,0.00020206,0.012753,0.008975,0.025111,8.1063e-07,0.3,0.9,0.8
0.017126,-0.0057768,-0.0041242,0.025437,0.00023371,0.00051871,7.3088e-05,0.00026774,-6.8769e-05,0.050423,-0.015106,-0.014365,0.00038006,0.0013922,-0.0003576,0,0,0,0.02544,0.00068259,6.6543e-05,0.012687,0.0087299,0.025072,8.0802e-07,0.35,0.9,0.8
0.019642,-0.005937,-0.004244,0.025288,0.00014969,0.00028336,0.00021635,0.00018099,0.00017073,0.050316,-0.015043,-0.014696,0.001125,0.00094113,0.00088782,0,0,0,0.025292,0.00041014,1.8593e-05,0.012637,0.0085736,0.025081,8.0974e-07,0.4,0.9,0.8
0.022157,-0.006028,-0.0042986,0.025228,9.4995e-05,0.00010169,0.00029452,6.6298e-05,0.0003128,0.050339,-0.015008,-0.014991,0.0015315,0.00034475,0.0016266,0,0,0,0.025236,0.00020243,-1.3576e-05,0.012625,0.0084751,0.025143,8.1629e-07,0.45,0.9,0.8
0.024676,-0.0060751,-0.0043132,0.025233,5.4389e-05,-4.8574e-05,0.00031347,-6.0317e-05,0.00036123,0.050462,-0.015002,-0.015269,0.00163,-0.00031365,0.0018784,0,0,0,0.025242,0.00011532,-0.00011879,0.01268,0.0084128,0.025245,8.2615e-07,0.5,0.9,0.8
0.027203,-0.0061019,-0.0043125,0.02527,2.2248e-05,-0.00016682,0.00027798,-0.00017307,0.00032414,0.050626,-0.015017,-0.015509,0.0014455,-0.00089998,0.0016855,0,0,0,0.025277,0.00012716,-0.00027925,0.012778,0.008375,0.025356,8.3652e-07,0.55,0.9,0.8
0.029739,-0.0061286,-0.0043177,0.025311,-6.8244e-07,-0.00023924,0.00020065,-0.0002435,0.00022182,0.050766,-0.015044,-0.015665,0.0010434,-0.0012662,0.0011534,0,0,0,0.025315,0.00015225,-0.00039625,0.012856,0.008357,0.025442,8.4441e-07,0.6,0.9,0.8
0.03228,-0.0061688,-0.0043431,0.025336,-1.276e-05,-0.00025483,0.00010382,-0.00025248,8.7642e-05,0.050833,-0.015074,-0.015704,0.00053986,-0.0013129,0.00045574,0,0,0,0.025337,0.00014696,-0.0004159,0.012877,0.0083562,0.025477,8.4782e-07,0.65,0.9,0.8
0.034822,-0.0062274,-0.0043934,0.025337,-1.6071e-05,-0.0002182,1.3566e-05,-0.00019957,-4.0256e-05,0.050815,-0.015104,-0.015629,7.0544e-05,-0.0010377,-0.00020933,0,0,0,0.025338,0.00010727,-0.00034206,0.01284,0.0083676,0.025459,8.4646e-07,0.7,0.9,0.8
0.037362,-0.0063007,-0.0044641,0.025318,-1.6747e-05,-0.00015046,-5.0018e-05,-0.00010304,-0.00013172,0.050737,-0.015134,-0.015482,-0.00026009,-0.00053583,-0.00068492,0,0,0,0.025319,4.6482e-05,-0.00021469,0.012767,0.0083837,0.025405,8.4172e-07,0.75,0.9,0.8
0.039896,-0.0063799,-0.0045448,0.02529,-2.1134e-05,-7.8452e-05,-7.9429e-05,9.3326e-06,-0.00017328,0.05064,-0.015169,-0.015318,-0.00041303,4.853e-05,-0.00090105,0,0,0,0.025291,2.7478e-05,-0.0001286,0.01271,0.0083968,0.025343,8.3582e-07,0.8,0.9,0.8
0.042425,-0.006454,-0.0046226,0.025263,-3.1535e-05,-2.1576e-05,-7.9207e-05,0.00011232,-0.00016801,0.050558,-0.015208,-0.015182,-0.00041188,0.00058408,-0.00087367,0,0,0,0.025265,9.2345e-05,-0.00014691,0.012706,0.0084033,0.025293,8.3074e-07,0.85,0.9,0.8
0.044952,-0.0065134,-0.0046862,0.025244,-4.5187e-05,1.3776e-05,-5.9893e-05,0.00019035,-0.00012843,0.050507,-0.015245,-0.015092,-0.00031144,0.0009898,-0.00066786,0,0,0,0.025245,0.00017901,-0.00021133,0.012728,0.0084042,0.025264,8.2744e-07,0.9,0.9,0.8
0.047476,-0.0065516,-0.0047276,0.025234,-5.6642e-05,3.0883e-05,-4.4301e-05,0.00023745,-8.2722e-05,0.050483,-0.015272,-0.015045,-0.00023037,0.0012347,-0.00043015,0,0,0,0.025234,0.00023088,-0.00025704,0.012746,0.0084027,0.025251,8.2584e-07,0.95,0.9,0.8
0.048738,-0.0065647,-0.0047419,0.025231,-6.1081e-05,3.5681e-05,-4.1687e-05,0.00025302,-6.3509e-05,0.050477,-0.015282,-0.01503,-0.00021677,0.0013157,-0.00033025,0,0,0,0.025231,0.00024733,-0.00027298,0.012752,0.0084018,0.025248,8.254e-07,1,0.9,0.8
0.0012081,-0.001026,-0.00046558,0.030241,0.0085947,0.010647,-0.0062128,2.3608e-05,-0.0034794,0.048938,-0.0073436,-0.0020076,-0.032306,0.00012276,-0.018093,0,0,0,0.032641,0.010436,0.0064054,0.013118,0.016494,0.024484,7.3875e-07,0,0.95,0.8
0.0024469,-0.0019217,-0.00091844,0.028917,0.0055367,0.0083631,-0.0048211,5.6698e-05,-0.0032994,0.049493,-0.011294,-0.0039458,-0.02507,0.00029483,-0.017157,0,0,0,0.030602,0.008065,0.0041494,0.013226,0.014272,0.024747,7.4264e-07,0.05,0.95,0.8
0.0049493,-0.0034688,-0.0017818,0.02713,0.0018479,0.0049415,-0.0025838,0.00012795,-0.00281,0.050186,-0.015547,-0.0075036,-0.013436,0.00066533,-0.014612,0,0,0,0.02783,0.0046135,0.0014759,0.013177,0.011306,0.024956,7.5667e-07,0.1,0.95,0.8
0.0074655,-0.0045775,-0.0025346,0.026223,0.00088009,0.0030114,-0.0012894,0.00019261,-0.0021406,0.05011,-0.01578,-0.010239,-0.0067048,0.0010016,-0.011131,0,0,0,0.026527,0.002818,0.00076907,0.012879,0.010038,0.024807,7.6583e-07,0.15,0.95,0.8
0.0099604,-0.0053562,-0.0031422,0.025505,0.00040663,0.0017515,-0.00060139,0.00023131,-0.0014475,0.049715,-0.01554,-0.012044,-0.0031272,0.0012028,-0.007527,0,0,0,0.025627,0.0016956,0.00033979,0.012644,0.0092209,0.024642,7.616e-07,0.2,0.95,0.8
0.012437,-0.0059014,-0.0035994,0.025064,0.00020315,0.0010039,-0.00022963,0.00024231,-0.00084199,0.049404,-0.015234,-0.013153,-0.0011941,0.00126,-0.0043783,0,0,0,0.025106,0.0010461,0.00011949,0.012493,0.008757,0.024537,7.5625e-07,0.25,0.95,0.8
0.014901,-0.0062775,-0.0039202,0.024812,0.00010335,0.00055572,-1.8789e-05,0.00022766,-0.00036131,0.049228,-0.015014,-0.013838,-9.7704e-05,0.0011838,-0.0018788,0,0,0,0.024822,0.00065131,-2.5453e-06,0.012412,0.0084903,0.024505,7.5484e-07,0.3,0.95,0.8
0.01736,-0.0065279,-0.0041267,0.024708,5.4082e-05,0.00028283,0.00010752,0.00018901,-4.3597e-06,0.049215,-0.014887,-0.014292,0.00055913,0.00098285,-2.2671e-05,0,0,0,0.024711,0.00039347,-5.9513e-05,0.012385,0.0083484,0.024548,7.595e-07,0.35,0.95,0.8
0.019822,-0.0066847,-0.0042435,0.024721,2.9414e-05,0.00010854,0.00018327,0.00012803,0.00023855,0.04936,-0.014839,-0.014633,0.00095302,0.00066575,0.0012405,0,0,0,0.024726,0.000206,-7.2992e-05,0.0124,0.0082864,0.024661,7.704e-07,0.4,0.95,0.8
0.022296,-0.0067749,-0.0042961,0.024818,1.5786e-05,-1.2148e-05,0.00022089,4.9465e-05,0.00037464,0.049633,-0.014852,-0.014924,0.0011487,0.00025722,0.0019481,0,0,0,0.024826,8.0663e-05,-8.5328e-05,0.012456,0.0082738,0.024829,7.8633e-07,0.45,0.95,0.8
0.024786,-0.0068229,-0.0043102,0.024961,5.9259e-06,-0.00010171,0.00022324,-3.591e-05,0.00041007,0.049979,-0.014904,-0.015183,0.0011608,-0.00018673,0.0021324,0,0,0,0.02497,4.0126e-05,-0.00014511,0.012558,0.0082884,0.025023,8.0478e-07,0.5,0.95,0.8
0.027294,-0.0068519,-0.0043099,0.025111,-2.4978e-06,-0.00016587,0.00019249,-0.00011128,0.00035664,0.050324,-0.014972,-0.015397,0.001001,-0.00057867,0.0018545,0,0,0,0.025118,6.0196e-05,-0.00023561,0.012677,0.0083143,0.025208,8.2236e-07,0.55,0.95,0.8
0.029818,-0.0068809,-0.0043156,0.025233,-8.5985e-06,-0.00020102,0.00013625,-0.00015836,0.00023753,0.050592,-0.015036,-0.015537,0.00070852,-0.00082347,0.0012352,0,0,0,0.025237,8.5068e-05,-0.00029829,0.012768,0.0083412,0.025346,8.3563e-07,0.6,0.95,0.8
0.032353,-0.0069229,-0.0043407,0.025302,-1.1128e-05,-0.00020373,6.874e-05,-0.00016496,8.7141e-05,0.050734,-0.015081,-0.015582,0.00035745,-0.00085777,0.00045313,0,0,0,0.025303,8.7352e-05,-0.00030333,0.012803,0.0083625,0.025414,8.4233e-07,0.65,0.95,0.8
0.034891,-0.0069826,-0.0043898,0.025312,-1.0861e-05,-0.0001779,6.7913e-06,-0.00013086,-5.6402e-05,0.050738,-0.015102,-0.015537,3.5315e-05,-0.00068049,-0.00029329,0,0,0,0.025313,6.4209e-05,-0.00025358,0.012783,0.0083745,0.025409,8.4209e-07,0.7,0.95,0.8
0.037427,-0.0070566,-0.0044592,0.025274,-1.0721e-05,-0.00013558,-3.6552e-05,-6.7889e-05,-0.00016204,0.050636,-0.015105,-0.015429,-0.00019007,-0.00035302,-0.0008426,0,0,0,0.025276,2.6295e-05,-0.00017399,0.012725,0.0083759,0.02535,8.365e-07,0.75,0.95,0.8
0.039955,-0.0071362,-0.0045392,0.025209,-1.3705e-05,-9.161e-05,-5.6451e-05,6.0025e-06,-0.00021363,0.050481,-0.015098,-0.0153,-0.00029355,3.1213e-05,-0.0011109,0,0,0,0.025211,1.1183e-05,-0.00011863,0.012665,0.0083679,0.025265,8.2825e-07,0.8,0.95,0.8
0.042475,-0.0072108,-0.0046173,0.025139,-2.0591e-05,-5.6843e-05,-5.6001e-05,7.4251e-05,-0.00021087,0.050325,-0.015091,-0.015185,-0.0002912,0.0003861,-0.0010965,0,0,0,0.025141,4.4743e-05,-0.00012425,0.012633,0.0083539,0.025182,8.1999e-07,0.85,0.95,0.8
0.044987,-0.0072709,-0.004682,0.025082,-2.939e-05,-3.5032e-05,-4.2326e-05,0.00012633,-0.00016437,0.050202,-0.015087,-0.015101,-0.0002201,0.00065691,-0.0008547,0,0,0,0.025083,9.5676e-05,-0.00016144,0.012622,0.008339,0.025117,8.1352e-07,0.9,0.95,0.8
0.047495,-0.0073095,-0.0047245,0.025045,-3.6677e-05,-2.4351e-05,-3.5306e-05,0.00015794,-0.00010371,0.050127,-0.015086,-0.015054,-0.00018359,0.00082129,-0.00053928,0,0,0,0.025046,0.00012911,-0.00019073,0.012618,0.008328,0.025078,8.096e-07,0.95,0.95,0.8
0.048748,-0.0073228,-0.0047393,0.025033,-3.9485e-05,-2.1327e-05,-3.7442e-05,0.00016842,-7.5449e-05,0.050102,-0.015086,-0.015038,-0.0001947,0.0008758,-0.00039234,0,0,0,0.025033,0.00013999,-0.00020112,0.012617,0.0083239,0.025065,8.0831e-07,1,0.95,0.8
0.0013642,-0.0012151,-0.00046883,0.033112,0.0089366,0.011614,-0.0068833,1.348e-05,-0.0035094,0.053894,-0.0089625,-0.002001,-0.035793,7.0094e-05,-0.018249,0,0,0,0.035734,0.01139,0.0065392,0.014597,0.017888,0.02711,9.7266e-07,0,1,0.8
0.0026947,-0.0022129,-0.00092443,0.030686,0.00528,0.0088234,-0.0049831,3.9398e-05,-0.0033311,0.052911,-0.013146,-0.0039329,-0.025912,0.00020487,-0.017322,0,0,0,0.032423,0.0085082,0.0038583,0.014283,0.01493,0.026565,8.9643e-07,0.05,1,0.8
0.0052911,-0.0038683,-0.0017925,0.027217,0.0011467,0.0047698,-0.0021688,9.854e-05,-0.0028401,0.050885,-0.016899,-0.0074787,-0.011278,0.00051241,-0.014769,0,0,0,0.027827,0.004426,0.00088113,0.013473,0.011045,0.025385,7.8481e-07,0.1,1,0.8
0.0077831,-0.004979,-0.0025487,0.025585,0.00040033,0.0026939,-0.00089401,0.00015324,-0.0021601,0.049313,-0.016167,-0.010203,-0.0046489,0.00079686,-0.011233,0,0,0,0.025849,0.0024887,0.00034172,0.012753,0.0095597,0.024514,7.3712e-07,0.15,1,0.8
0.010222,-0.0057476,-0.003158,0.024752,6.5359e-05,0.0014449,-0.000362,0.00018373,-0.0014509,0.048598,-0.015587,-0.012001,-0.0018824,0.0009554,-0.0075446,0,0,0,0.024863,0.0013723,2.7422e-05,0.012418,0.0087541,0.024196,7.2073e-07,0.2,1,0.8
0.012643,-0.0062831,-0.0036151,0.024399,-2.2486e-05,0.00075956,-0.00010427,0.00019099,-0.00082752,0.048355,-0.01514,-0.013107,-0.00054221,0.00099317,-0.0043031,0,0,0,0.024436,0.00077695,-7.7673e-05,0.012257,0.0083786,0.0241,7.1666e-07,0.25,1,0.8
0.015058,-0.0066527,-0.0039339,0.024264,-4.885e-05,0.00036749,3.0461e-05,0.00017823,-0.00033064,0.048337,-0.014877,-0.013794,0.0001584,0.0009268,-0.0017193,0,0,0,0.024273,0.00043405,-0.00012462,0.012199,0.0081942,0.024124,7.2037e-07,0.3,1,0.8
0.017477,-0.0068996,-0.004137,0.024277,-4.9867e-05,0.00014059,0.00010726,0.00014763,3.8462e-05,0.048499,-0.01475,-0.014255,0.00055774,0.00076765,0.0002,0,0,0,0.02428,0.00022562,-0.00013784,0.012209,0.0081225,0.024238,7.3123e-07,0.35,1,0.8
0.019908,-0.0070552,-0.0042497,0.024397,-4.1723e-05,4.1458e-06,0.00015146,0.00010085,0.00028783,0.048816,-0.014724,-0.014605,0.00078757,0.00052442,0.0014967,0,0,0,0.024402,8.9035e-05,-0.00013211,0.012267,0.0081198,0.024425,7.485e-07,0.4,1,0.8
0.022358,-0.0071457,-0.004298,0.024591,-3.1271e-05,-8.3735e-05,0.00017132,4.1569e-05,0.0004237,0.049251,-0.014767,-0.014903,0.00089088,0.00021616,0.0022033,0,0,0,0.0246,1.0828e-05,-0.00013484,0.012367,0.0081586,0.024662,7.706e-07,0.45,1,0.8
0.024833,-0.0071952,-0.0043083,0.024819,-2.2248e-05,-0.00014417,0.00016805,-2.2265e-05,0.00045232,0.049739,-0.01485,-0.015167,0.00087384,-0.00011578,0.0023521,0,0,0,0.024829,-3.3766e-06,-0.00017274,0.012501,0.0082177,0.024918,7.947e-07,0.5,1,0.8
0.027332,-0.007226,-0.0043051,0.025039,-1.5865e-05,-0.00018387,0.00014252,-7.8388e-05,0.00038664,0.050198,-0.014945,-0.015382,0.00074111,-0.00040762,0.0020105,0,0,0,0.025046,2.1512e-05,-0.00022847,0.012637,0.0082798,0.025151,8.1699e-07,0.55,1,0.8
0.029853,-0.0072568,-0.0043091,0.025209,-1.1592e-05,-0.00020176,9.9743e-05,-0.00011355,0.00025187,0.050546,-0.015028,-0.015522,0.00051866,-0.00059045,0.0013097,0,0,0,0.025213,4.6504e-05,-0.00026341,0.012738,0.0083319,0.025323,8.3366e-07,0.6,1,0.8
0.032387,-0.0073,-0.0043336,0.025303,-8.6243e-06,-0.00019632,4.9644e-05,-0.00011896,8.4796e-05,0.050729,-0.015081,-0.015569,0.00025815,-0.00061861,0.00044094,0,0,0,0.025304,5.3281e-05,-0.00025929,0.012782,0.008366,0.025409,8.4212e-07,0.65,1,0.8
0.034925,-0.0073601,-0.0043833,0.025315,-7.1171e-06,-0.00017088,4.1531e-06,-9.4532e-05,-7.3981e-05,0.050737,-0.015101,-0.015527,2.1596e-05,-0.00049157,-0.0003847,0,0,0,0.025316,3.9578e-05,-0.00021833,0.012767,0.0083791,0.025406,8.4202e-07,0.7,1,0.8
0.03746,-0.007434,-0.0044544,0.025262,-8.2052e-06,-0.00013435,-2.7478e-05,-4.884e-05,-0.00019107,0.050609,-0.015093,-0.015421,-0.00014289,-0.00025397,-0.00099354,0,0,0,0.025264,1.41e-05,-0.00015846,0.012711,0.0083731,0.025336,8.3523e-07,0.75,1,0.8
0.039986,-0.0075133,-0.0045368,0.025172,-1.2836e-05,-9.7601e-05,-4.1875e-05,5.0242e-06,-0.00024843,0.05041,-0.01507,-0.015291,-0.00021775,2.6126e-05,-0.0012919,0,0,0,0.025175,2.0193e-06,-0.00011517,0.012645,0.0083538,0.025231,8.2497e-07,0.8,1,0.8
0.042501,-0.0075876,-0.0046178,0.025075,-2.0496e-05,-6.8652e-05,-4.1371e-05,5.493e-05,-0.00024482,0.050204,-0.015045,-0.01517,-0.00021513,0.00028564,-0.0012731,0,0,0,0.025078,2.1469e-05,-0.00011325,0.012596,0.0083287,0.025124,8.1445e-07,0.85,1,0.8
0.045007,-0.0076474,-0.0046852,0.024995,-2.9045e-05,-5.0301e-05,-3.1207e-05,9.3097e-05,-0.00019112,0.050037,-0.015025,-0.01508,-0.00016228,0.0004841,-0.00099382,0,0,0,0.024996,5.5332e-05,-0.00013638,0.012566,0.0083051,0.025037,8.0597e-07,0.9,1,0.8
0.047505,-0.0076859,-0.0047295,0.024943,-3.5681e-05,-4.1143e-05,-2.9415e-05,0.0001163,-0.00011907,0.049932,-0.015012,-0.015027,-0.00015296,0.00060474,-0.00061917,0,0,0,0.024944,7.9484e-05,-0.00015705,0.01255,0.0082887,0.024983,8.0068e-07,0.95,1,0.8
0.048753,-0.0076992,-0.0047449,0.024925,-3.8171e-05,-3.8505e-05,-3.4396e-05,0.000124,-8.4487e-05,0.049897,-0.015008,-0.015009,-0.00017886,0.00064478,-0.00043933,0,0,0,0.024926,8.7498e-05,-0.00016456,0.012545,0.0082829,0.024965,7.9891e-07,1,1,0.8
0.0013664,0.0011853,-0.00055361,0.033124,0.0088943,0.011266,0.0066989,-8.9221e-06,-0.0040681,0.054153,-0.0088454,-0.0026799,0.034835,-4.6395e-05,-0.021154,0,0,0,0.035803,0.010993,0.0064876,0.014658,0.017761,0.027351,1.0133e-06,0,0,0.85
0.0027076,0.0021524,-0.0010928,0.030709,0.0052127,0.0082248,0.0048295,-3.4633e-05,-0.0037607,0.053357,-0.012935,-0.0051038,0.025113,-0.00018009,-0.019555,0,0,0,0.032495,0.0078577,0.0037946,0.01435,0.014716,0.026922,9.5549e-07,0.05,0,0.85
0.0053357,0.0037488,-0.0021147,0.02729,0.0010866,0.0039156,0.0020636,-9.5379e-05,-0.0029967,0.051578,-0.01655,-0.0091947,0.010731,-0.00049597,-0.015583,0,0,0,0.027911,0.0035489,0.00083199,0.01354,0.010764,0.025859,8.5457e-07,0.1,0,0.85
0.0078655,0.0048109,-0.0029887,0.025665,0.00040154,0.0019516,0.00082215,-0.00014845,-0.0020924,0.049918,-0.015767,-0.011737,0.0042752,-0.00077196,-0.01088,0,0,0,0.025908,0.0017697,0.00034015,0.012784,0.0093394,0.024893,7.8462e-07,0.15,0,0.85
0.010327,0.0055471,-0.0036793,0.024739,9.9785e-05,0.00092304,0.00031764,-0.00016863,-0.0012947,0.048865,-0.015198,-0.013057,0.0016517,-0.00087687,-0.0067322,0,0,0,0.024829,0.00088662,4.6497e-05,0.012391,0.0085874,0.024376,7.4226e-07,0.2,0,0.85
0.012752,0.0060663,-0.0041999,0.024282,1.135e-05,0.00041427,8.0549e-05,-0.00016328,-0.00069801,0.048309,-0.014795,-0.013748,0.00041886,-0.00084907,-0.0036296,0,0,0,0.02431,0.00046106,-6.313e-05,0.012187,0.008236,0.024116,7.2014e-07,0.25,0,0.85
0.015158,0.0064341,-0.0045811,0.024087,-2.6563e-05,0.00014592,-3.6952e-05,-0.0001436,-0.00028616,0.048103,-0.014593,-0.014145,-0.00019215,-0.00074672,-0.001488,0,0,0,0.024094,0.00023187,-0.000119,0.012106,0.0080689,0.02404,7.1369e-07,0.3,0,0.85
0.017562,0.0066922,-0.0048531,0.024071,-4.1302e-05,5.2081e-06,-9.6954e-05,-0.00011728,-1.5768e-05,0.048164,-0.014528,-0.014407,-0.00050416,-0.00060988,-8.1993e-05,0,0,0,0.024073,0.00010548,-0.00014318,0.012108,0.0080116,0.024092,7.1852e-07,0.35,0,0.85
0.019975,0.0068697,-0.0050419,0.024169,-4.6172e-05,-6.6283e-05,-0.00012504,-8.8805e-05,0.00015087,0.048405,-0.014554,-0.014606,-0.00065022,-0.00046179,0.0007845,0,0,0,0.024171,3.4343e-05,-0.00014884,0.01216,0.0080188,0.024229,7.3079e-07,0.4,0,0.85
0.022403,0.0069888,-0.0051691,0.024333,-4.6199e-05,-9.9025e-05,-0.00013323,-6.1036e-05,0.0002419,0.048753,-0.014633,-0.01477,-0.00069278,-0.00031739,0.0012579,0,0,0,0.024336,-5.847e-06,-0.00014269,0.01224,0.0080626,0.024411,7.4739e-07,0.45,0,0.85
0.02485,0.0070668,-0.0052523,0.024527,-4.3905e-05,-0.00011021,-0.00012791,-3.6177e-05,0.00027811,0.049146,-0.014738,-0.01491,-0.00066515,-0.00018812,0.0014462,0,0,0,0.024531,-2.7298e-05,-0.00013074,0.012331,0.0081242,0.02461,7.6576e-07,0.5,0,0.85
0.027317,0.0071175,-0.0053055,0.024722,-4.0461e-05,-0.00010997,-0.00011334,-1.6046e-05,0.0002755,0.049533,-0.014848,-0.015029,-0.00058938,-8.344e-05,0.0014326,0,0,0,0.024725,-3.5661e-05,-0.00011846,0.012422,0.0081904,0.024802,7.8382e-07,0.55,0,0.85
0.029803,0.0071516,-0.0053399,0.024898,-3.6393e-05,-0.00010447,-9.3046e-05,-1.9851e-06,0.00024721,0.04988,-0.014949,-0.015126,-0.00048384,-1.0322e-05,0.0012855,0,0,0,0.024901,-3.512e-05,-0.00010864,0.012505,0.0082523,0.024973,8e-07,0.6,0,0.85
0.032305,0.0071769,-0.0053633,0.025043,-3.1973e-05,-9.7434e-05,-7.0331e-05,5.3915e-06,0.00020441,0.050163,-0.015031,-0.015201,-0.00036572,2.8036e-05,0.0010629,0,0,0,0.025045,-3.0629e-05,-0.00010074,0.012573,0.0083045,0.02511,8.1327e-07,0.65,0,0.85
0.03482,0.0071981,-0.005381,0.025151,-2.7451e-05,-9.1031e-05,-4.8223e-05,6.3831e-06,0.00015644,0.050374,-0.015091,-0.015256,-0.00025076,3.3192e-05,0.00081351,0,0,0,0.025153,-2.6115e-05,-9.3508e-05,0.012623,0.0083443,0.025212,8.2318e-07,0.7,0,0.85
0.037343,0.0072179,-0.0053962,0.025225,-2.3142e-05,-8.6315e-05,-2.9158e-05,2.1896e-06,0.00011059,0.050515,-0.015129,-0.015293,-0.00015162,1.1386e-05,0.00057508,0,0,0,0.025225,-2.2421e-05,-8.7606e-05,0.012656,0.0083717,0.02528,8.2982e-07,0.75,0,0.85
0.039871,0.0072367,-0.0054099,0.025268,-1.9374e-05,-8.3543e-05,-1.4682e-05,-5.3268e-06,7.1734e-05,0.050597,-0.015149,-0.015316,-7.6349e-05,-2.7699e-05,0.00037302,0,0,0,0.025268,-1.824e-05,-8.492e-05,0.012676,0.0083882,0.02532,8.3367e-07,0.8,0,0.85
0.042402,0.0072537,-0.0054221,0.025289,-1.6397e-05,-8.2423e-05,-5.3099e-06,-1.4024e-05,4.2199e-05,0.050636,-0.015156,-0.015328,-2.7612e-05,-7.2923e-05,0.00021944,0,0,0,0.025289,-1.2789e-05,-8.6116e-05,0.012687,0.0083966,0.025338,8.355e-07,0.85,0,0.85
0.044935,0.0072674,-0.0054319,0.025296,-1.4318e-05,-8.2347e-05,-5.9896e-07,-2.1872e-05,2.1942e-05,0.05065,-0.015157,-0.015334,-3.1146e-06,-0.00011373,0.0001141,0,0,0,0.025296,-7.0758e-06,-8.9614e-05,0.012693,0.0083997,0.025344,8.361e-07,0.9,0,0.85
0.047467,0.0072764,-0.0054382,0.025297,-1.3117e-05,-8.2645e-05,3.7319e-06,-2.726e-05,6.7705e-06,0.050651,-0.015155,-0.015336,1.9406e-05,-0.00014175,3.5207e-05,0,0,0,0.025297,-2.8381e-06,-9.2933e-05,0.012695,0.0084004,0.025345,8.3616e-07,0.95,0,0.85
0.048734,0.0072795,-0.0054405,0.025297,-1.2729e-05,-8.2808e-05,6.7631e-06,-2.9171e-05,-4.4726e-07,0.050651,-0.015154,-0.015336,3.5168e-05,-0.00015169,-2.3257e-06,0,0,0,0.025297,-1.293e-06,-9.425e-05,0.012696,0.0084004,0.025345,8.3613e-07,1,0,0.85
0.0012147,0.00099876,-0.00055214,0.030344,0.0085814,0.010332,0.0060317,-1.787e-05,-0.0040528,0.04934,-0.0072427,-0.0026914,0.031365,-9.2923e-05,-0.021075,0,0,0,0.032818,0.010094,0.0063457,0.013236,0.016419,0.024822,7.7939e-07,0,0.05,0.85
0.002467,0.001866,-0.0010901,0.028997,0.0054818,0.0077776,0.0046607,-4.9015e-05,-0.0037431,0.050038,-0.011101,-0.0051321,0.024236,-0.00025488,-0.019464,0,0,0,0.030736,0.0074509,0.0040697,0.013333,0.014085,0.025169,7.9904e-07,0.05,0.05,0.85
0.0050038,0.0033578,-0.0021098,0.027198,0.0017766,0.004063,0.0024595,-0.00011822,-0.0029775,0.050892,-0.015203,-0.0092587,0.012789,-0.00061475,-0.015483,0,0,0,0.027904,0.0037292,0.0014043,0.01325,0.011012,0.025444,8.2319e-07,0.1,0.05,0.85
0.0075562,0.0044198,-0.0029822,0.026257,0.00086209,0.0022209,0.0011969,-0.00017794,-0.0020768,0.050665,-0.015363,-0.01183,0.0062236,-0.0009253,-0.010799,0,0,0,0.026537,0.0020586,0.00074445,0.012896,0.0097801,0.02517,8.1214e-07,0.15,0.05,0.85
0.01007,0.0051661,-0.0036715,0.02543,0.00042134,0.0011738,0.00053874,-0.00020369,-0.0012863,0.049904,-0.01512,-0.013164,0.0028015,-0.0010592,-0.0066888,0,0,0,0.02553,0.0011619,0.00033344,0.012598,0.0090085,0.024795,7.8141e-07,0.2,0.05,0.85
0.012547,0.0056938,-0.0041915,0.024885,0.00021852,0.00060393,0.00019165,-0.00020001,-0.00069769,0.049276,-0.014856,-0.013854,0.00099659,-0.0010401,-0.003628,0,0,0,0.024915,0.00068121,0.00011125,0.012402,0.008569,0.024524,7.5741e-07,0.25,0.05,0.85
0.014998,0.0060665,-0.0045727,0.024579,0.00010818,0.00028423,3.1417e-06,-0.00017787,-0.00029237,0.048923,-0.014702,-0.014244,1.6337e-05,-0.0009249,-0.0015203,0,0,0,0.024586,0.00039982,-1.429e-05,0.0123,0.0083238,0.024396,7.4599e-07,0.3,0.05,0.85
0.017439,0.0063264,-0.004845,0.02446,4.5737e-05,0.00010439,-0.0001003,-0.00014599,-2.6268e-05,0.048831,-0.014647,-0.014495,-0.00052157,-0.00075914,-0.00013659,0,0,0,0.024462,0.00022759,-7.917e-05,0.012271,0.0082035,0.02439,7.455e-07,0.35,0.05,0.85
0.019881,0.0065037,-0.0050345,0.024471,8.7881e-06,4.0689e-06,-0.0001536,-0.00011011,0.0001382,0.048934,-0.014667,-0.01468,-0.00079874,-0.00057255,0.00071865,0,0,0,0.024473,0.0001175,-0.0001069,0.01229,0.0081613,0.024469,7.5281e-07,0.4,0.05,0.85
0.022332,0.0066211,-0.0051624,0.024563,-1.3565e-05,-4.9973e-05,-0.00017456,-7.4259e-05,0.00022877,0.049163,-0.014735,-0.014829,-0.00090773,-0.00038615,0.0011896,0,0,0,0.024566,4.5015e-05,-0.00011218,0.012339,0.0081663,0.0246,7.6497e-07,0.45,0.05,0.85
0.024797,0.0066968,-0.0052463,0.024697,-2.7076e-05,-7.6936e-05,-0.00017328,-4.172e-05,0.00026571,0.049456,-0.014826,-0.014956,-0.00090105,-0.00021694,0.0013817,0,0,0,0.024701,-1.9287e-06,-0.00010636,0.012404,0.0081975,0.024755,7.7945e-07,0.5,0.05,0.85
0.027278,0.0067451,-0.0053003,0.024844,-3.4691e-05,-8.8285e-05,-0.00015661,-1.5266e-05,0.00026461,0.049762,-0.014923,-0.015062,-0.00081435,-7.9383e-05,0.001376,0,0,0,0.024848,-2.7114e-05,-9.9854e-05,0.012474,0.0082403,0.024911,7.9423e-07,0.55,0.05,0.85
0.029773,0.006777,-0.0053353,0.024984,-3.7922e-05,-9.1045e-05,-0.00013021,3.0139e-06,0.00023826,0.050045,-0.015011,-0.01515,-0.0006771,1.5672e-05,0.001239,0,0,0,0.024987,-3.391e-05,-9.8178e-05,0.012542,0.0082849,0.025053,8.0776e-07,0.6,0.05,0.85
0.032282,0.0068003,-0.0053594,0.025102,-3.7702e-05,-8.9581e-05,-9.9297e-05,1.2103e-05,0.00019754,0.050281,-0.015083,-0.015218,-0.00051635,6.2937e-05,0.0010272,0,0,0,0.025105,-3.1755e-05,-9.7617e-05,0.012601,0.0083251,0.025169,8.1901e-07,0.65,0.05,0.85
0.034802,0.0068202,-0.0053778,0.025194,-3.4901e-05,-8.6605e-05,-6.8551e-05,1.2339e-05,0.00015159,0.050461,-0.015134,-0.015269,-0.00035646,6.4164e-05,0.00078829,0,0,0,0.025195,-2.936e-05,-9.3348e-05,0.012644,0.0083574,0.025256,8.2751e-07,0.7,0.05,0.85
0.037328,0.0068392,-0.0053935,0.025257,-3.0521e-05,-8.3719e-05,-4.1723e-05,5.3899e-06,0.00010753,0.050583,-0.015165,-0.015303,-0.00021696,2.8027e-05,0.00055917,0,0,0,0.025258,-2.7619e-05,-8.7214e-05,0.012672,0.0083809,0.025315,8.3326e-07,0.75,0.05,0.85
0.03986,0.0068575,-0.0054078,0.025296,-2.5617e-05,-8.1714e-05,-2.1202e-05,-6.1029e-06,7.0104e-05,0.050655,-0.01518,-0.015325,-0.00011025,-3.1735e-05,0.00036454,0,0,0,0.025296,-2.272e-05,-8.4859e-05,0.01269,0.0083961,0.02535,8.3666e-07,0.8,0.05,0.85
0.042394,0.0068744,-0.0054203,0.025315,-2.1103e-05,-8.0757e-05,-7.8363e-06,-1.9088e-05,4.1556e-05,0.050692,-0.015183,-0.015338,-4.0749e-05,-9.9255e-05,0.00021609,0,0,0,0.025316,-1.331e-05,-8.8637e-05,0.012702,0.0084045,0.025367,8.3832e-07,0.85,0.05,0.85
0.044929,0.0068881,-0.0054304,0.025324,-1.7602e-05,-8.059e-05,-1.0556e-06,-3.0679e-05,2.1833e-05,0.050706,-0.015181,-0.015345,-5.4893e-06,-0.00015953,0.00011353,0,0,0,0.025324,-2.8478e-06,-9.5369e-05,0.01271,0.0084085,0.025373,8.3893e-07,0.9,0.05,0.85
0.047465,0.0068972,-0.0054369,0.025326,-1.5433e-05,-8.076e-05,3.9239e-06,-3.8592e-05,6.7671e-06,0.050709,-0.015178,-0.015348,2.0405e-05,-0.00020068,3.5189e-05,0,0,0,0.025326,4.7342e-06,-0.00010094,0.012713,0.0084099,0.025374,8.3904e-07,0.95,0.05,0.85
0.048732,0.0069003,-0.0054392,0.025326,-1.4703e-05,-8.0869e-05,7.0084e-06,-4.1392e-05,-5.0358e-07,0.05071,-0.015177,-0.015349,3.6444e-05,-0.00021524,-2.6186e-06,0,0,0,0.025326,7.461e-06,-0.00010304,0.012715,0.0084102,0.025374,8.3903e-07,1,0.05,0.85
0.0010298,0.00071676,-0.00055211,0.026905,0.0086566,0.00931,0.0049451,-3.4968e-05,-0.0040514,0.04303,-0.0044156,-0.0027168,0.025715,-0.00018183,-0.021067,0,0,0,0.029035,0.0091805,0.0066562,0.011189,0.014957,0.021238,4.8031e-07,0,0.1,0.85
0.0021515,0.0014026,-0.0010907,0.026728,0.0063943,0.0073383,0.0043071,-7.6422e-05,-0.0037413,0.045217,-0.0076514,-0.0051968,0.022397,-0.0003974,-0.019455,0,0,0,0.028379,0.0071531,0.0049289,0.011725,0.013487,0.022436,5.7607e-07,0.05,0.1,0.85
0.0045217,0.002665,-0.002112,0.026758,0.0031793,0.0042778,0.0030026,-0.0001609,-0.002974,0.049042,-0.012263,-0.009407,0.015614,-0.00083669,-0.015465,0,0,0,0.027604,0.0040826,0.0025286,0.012538,0.011405,0.024351,7.3827e-07,0.1,0.1,0.85
0.0070557,0.0036719,-0.0029859,0.026789,0.001757,0.0025412,0.0018191,-0.00023172,-0.0020707,0.050999,-0.014084,-0.012045,0.0094593,-0.001205,-0.010768,0,0,0,0.027147,0.0024715,0.0014691,0.012839,0.010362,0.025197,8.1814e-07,0.15,0.1,0.85
0.0096216,0.004414,-0.0036755,0.026321,0.0010234,0.0015013,0.00097243,-0.00026771,-0.0012796,0.051126,-0.014646,-0.013404,0.0050566,-0.0013921,-0.0066537,0,0,0,0.026449,0.0015753,0.00082138,0.012814,0.0096151,0.02526,8.2549e-07,0.2,0.1,0.85
0.012168,0.0049479,-0.0041945,0.025782,0.00060371,0.0008719,0.0004409,-0.0002684,-0.00069389,0.050679,-0.014785,-0.014088,0.0022927,-0.0013957,-0.0036082,0,0,0,0.02582,0.0010354,0.00040228,0.012709,0.0090859,0.025108,8.1148e-07,0.25,0.1,0.85
0.014689,0.005326,-0.004574,0.025374,0.0003527,0.00049042,0.00011686,-0.00024309,-0.00029298,0.050242,-0.014813,-0.014455,0.0006077,-0.0012641,-0.0015235,0,0,0,0.025382,0.00068018,0.00015451,0.012614,0.008739,0.024969,7.9878e-07,0.3,0.1,0.85
0.017193,0.0055881,-0.0048445,0.025125,0.00019747,0.00025807,-7.6992e-05,-0.00020157,-3.077e-05,0.049978,-0.014835,-0.014678,-0.00040036,-0.0010482,-0.00016,0,0,0,0.025127,0.00043487,1.8753e-05,0.012554,0.008527,0.024903,7.9292e-07,0.35,0.1,0.85
0.019687,0.0057646,-0.0050319,0.025009,9.8456e-05,0.00011596,-0.0001866,-0.00015169,0.00013114,0.04989,-0.014878,-0.014833,-0.00097032,-0.00078876,0.00068192,0,0,0,0.025012,0.00025855,-4.6773e-05,0.012529,0.0084079,0.024907,7.9363e-07,0.4,0.1,0.85
0.022182,0.0058793,-0.0051579,0.024987,3.3585e-05,2.9147e-05,-0.00023882,-9.9816e-05,0.00022035,0.049936,-0.014942,-0.014954,-0.0012419,-0.00051904,0.0011458,0,0,0,0.024991,0.00012877,-7.0459e-05,0.012531,0.0083499,0.024963,7.9912e-07,0.45,0.1,0.85
0.024681,0.0059511,-0.0052402,0.025023,-9.3851e-06,-2.3275e-05,-0.00025039,-5.1596e-05,0.00025665,0.050067,-0.015019,-0.015055,-0.0013021,-0.0002683,0.0013346,0,0,0,0.025029,3.5748e-05,-7.3663e-05,0.012551,0.0083303,0.025048,8.0737e-07,0.5,0.1,0.85
0.027188,0.0059952,-0.0052931,0.025091,-3.7041e-05,-5.3918e-05,-0.00023328,-1.2035e-05,0.00025514,0.050236,-0.015096,-0.01514,-0.0012131,-6.2584e-05,0.0013267,0,0,0,0.025095,-1.8008e-05,-7.7837e-05,0.012587,0.0083332,0.025143,8.1661e-07,0.55,0.1,0.85
0.029704,0.0060232,-0.0053276,0.025167,-5.2921e-05,-7.0513e-05,-0.00019752,1.4978e-05,0.0002284,0.050407,-0.015164,-0.015209,-0.0010271,7.7883e-05,0.0011877,0,0,0,0.02517,-3.4512e-05,-9.2686e-05,0.012632,0.0083478,0.025234,8.2542e-07,0.6,0.1,0.85
0.032229,0.0060436,-0.0053519,0.025238,-5.9318e-05,-7.8024e-05,-0.00015229,2.7413e-05,0.00018739,0.050558,-0.015214,-0.015263,-0.00079193,0.00014255,0.00097442,0,0,0,0.02524,-3.4605e-05,-0.00010518,0.012673,0.0083668,0.02531,8.3283e-07,0.65,0.1,0.85
0.03476,0.0060614,-0.0053713,0.025295,-5.8393e-05,-7.9918e-05,-0.00010582,2.5624e-05,0.00014149,0.050673,-0.015246,-0.015302,-0.00055026,0.00013324,0.00073574,0,0,0,0.025296,-3.6318e-05,-0.00010334,0.0127,0.0083856,0.025366,8.3837e-07,0.7,0.1,0.85
0.037296,0.0060791,-0.0053886,0.025336,-5.2594e-05,-7.88e-05,-6.4633e-05,1.2306e-05,9.8047e-05,0.050752,-0.01526,-0.015328,-0.00033609,6.3991e-05,0.00050984,0,0,0,0.025337,-3.9431e-05,-9.2586e-05,0.012715,0.0084017,0.025403,8.4199e-07,0.75,0.1,0.85
0.039835,0.006097,-0.0054047,0.025362,-4.4485e-05,-7.6585e-05,-3.2904e-05,-8.1548e-06,6.1872e-05,0.050797,-0.01526,-0.015344,-0.0001711,-4.2405e-05,0.00032173,0,0,0,0.025363,-3.3494e-05,-8.7815e-05,0.012725,0.0084137,0.025423,8.4398e-07,0.8,0.1,0.85
0.042376,0.0061139,-0.005419,0.025376,-3.6315e-05,-7.4485e-05,-1.2182e-05,-3.0689e-05,3.5095e-05,0.050819,-0.015254,-0.015353,-6.3346e-05,-0.00015958,0.0001825,0,0,0,0.025376,-1.4666e-05,-9.621e-05,0.012736,0.0084218,0.025432,8.4481e-07,0.85,0.1,0.85
0.044917,0.0061279,-0.0054306,0.025382,-2.9677e-05,-7.3035e-05,-1.6607e-06,-5.0545e-05,1.7446e-05,0.050827,-0.015245,-0.015358,-8.6357e-06,-0.00026283,9.0717e-05,0,0,0,0.025383,7.1331e-06,-0.00010987,0.012746,0.0084266,0.025434,8.4499e-07,0.9,0.1,0.85
0.047459,0.0061371,-0.0054381,0.025385,-2.5457e-05,-7.2277e-05,4.4341e-06,-6.4001e-05,4.2266e-06,0.050828,-0.015238,-0.01536,2.3058e-05,-0.00033281,2.1978e-05,0,0,0,0.025385,2.236e-05,-0.0001201,0.012752,0.0084289,0.025434,8.4492e-07,0.95,0.1,0.85
0.048729,0.0061404,-0.0054407,0.025385,-2.4021e-05,-7.2054e-05,7.5872e-06,-6.8746e-05,-2.2803e-06,0.050827,-0.015236,-0.015361,3.9453e-05,-0.00035748,-1.1858e-05,0,0,0,0.025385,2.7748e-05,-0.00012383,0.012754,0.0084296,0.025433,8.4487e-07,1,0.1,0.85
0.00098086,0.0005572,-0.0005569,0.025905,0.0091475,0.0091447,0.004095,-4.6143e-05,-0.0040929,0.040834,-0.0027347,-0.0027419,0.021294,-0.00023995,-0.021283,0,0,0,0.02776,0.0091691,0.0072673,0.010247,0.014732,0.019616,3.8292e-07,0,0.15,0.85
0.0020417,0.0011009,-0.0011006,0.025883,0.0073419,0.0073367,0.0037865,-9.3454e-05,-0.0037854,0.04296,-0.0052483,-0.0052617,0.01969,-0.00048596,-0.019684,0,0,0,0.027402,0.0073922,0.0057681,0.010817,0.013521,0.020877,4.7148e-07,0.05,0.15,0.85
0.004296,0.0021315,-0.0021322,0.026204,0.0044158,0.0044067,0.0030153,-0.00018477,-0.0030167,0.047115,-0.0095349,-0.0095586,0.01568,-0.00096083,-0.015687,0,0,0,0.027086,0.0045262,0.003414,0.011836,0.011676,0.023143,6.4193e-07,0.1,0.15,0.85
0.0067532,0.0030114,-0.0030145,0.026611,0.0026572,0.0026458,0.0020951,-0.00025909,-0.0020999,0.05004,-0.01224,-0.012269,0.010895,-0.0013473,-0.010919,0,0,0,0.027021,0.0028416,0.0020514,0.012485,0.010638,0.024588,7.638e-07,0.15,0.15,0.85
0.0092999,0.0037014,-0.0037084,0.026529,0.0016328,0.0016207,0.0012822,-0.00030091,-0.0012902,0.051106,-0.013624,-0.013656,0.0066674,-0.0015647,-0.0067092,0,0,0,0.026687,0.0018961,0.0011994,0.012744,0.0099276,0.025148,8.1521e-07,0.2,0.15,0.85
0.011864,0.0042153,-0.0042274,0.026192,0.0010043,0.00099294,0.00067859,-0.00030669,-0.00068974,0.051186,-0.014302,-0.014332,0.0035287,-0.0015948,-0.0035866,0,0,0,0.026242,0.0013067,0.00064103,0.0128,0.0093964,0.025274,8.2736e-07,0.25,0.15,0.85
0.014419,0.0045852,-0.0046036,0.025844,0.00060775,0.00059865,0.00026593,-0.00028221,-0.00027977,0.050964,-0.01465,-0.014674,0.0013828,-0.0014675,-0.0014548,0,0,0,0.025855,0.00089414,0.00030086,0.012777,0.0090168,0.025263,8.2669e-07,0.3,0.15,0.85
0.01696,0.0048429,-0.0048684,0.025581,0.00035291,0.00034758,-2.8674e-06,-0.00023605,-1.2927e-05,0.050743,-0.014852,-0.014865,-1.491e-05,-0.0012274,-6.722e-05,0,0,0,0.025584,0.00059156,0.0001067,0.012738,0.0087606,0.025238,8.2482e-07,0.35,0.15,0.85
0.019493,0.0050158,-0.0050489,0.025418,0.00018573,0.00018544,-0.00016727,-0.00017672,0.0001506,0.050614,-0.014991,-0.014991,-0.00086981,-0.00091892,0.00078312,0,0,0,0.025421,0.000362,6.3815e-06,0.012707,0.0085965,0.025239,8.2541e-07,0.4,0.15,0.85
0.022022,0.0051269,-0.0051677,0.025338,7.3874e-05,7.9414e-05,-0.00025519,-0.00011233,0.00023899,0.050584,-0.015103,-0.015088,-0.001327,-0.0005841,0.0012427,0,0,0,0.025343,0.00018492,-3.6682e-05,0.01269,0.0084971,0.02527,8.288e-07,0.45,0.15,0.85
0.024551,0.0051949,-0.0052432,0.025316,-1.4971e-06,9.7824e-06,-0.00028632,-5.0858e-05,0.00027205,0.050628,-0.015199,-0.015169,-0.0014888,-0.00026446,0.0014147,0,0,0,0.025323,5.6764e-05,-5.4694e-05,0.012689,0.0084416,0.025322,8.3409e-07,0.5,0.15,0.85
0.027084,0.0052355,-0.0052906,0.02533,-5.0879e-05,-3.5019e-05,-0.000276,1.2317e-07,0.00026501,0.050712,-0.015279,-0.015238,-0.0014352,6.4054e-07,0.001378,0,0,0,0.025336,-1.2274e-05,-7.945e-05,0.012708,0.0084148,0.025382,8.4005e-07,0.55,0.15,0.85
0.029622,0.0052606,-0.0053215,0.02536,-8.0057e-05,-6.1795e-05,-0.00023786,3.4464e-05,0.00023106,0.050806,-0.015339,-0.015292,-0.0012369,0.00017921,0.0012015,0,0,0,0.025365,-3.0571e-05,-0.00011571,0.01274,0.0084062,0.025438,8.4556e-07,0.6,0.15,0.85
0.032165,0.0052789,-0.0053444,0.025393,-9.288e-05,-7.5024e-05,-0.00018469,4.8752e-05,0.00018241,0.050886,-0.015376,-0.01533,-0.0009604,0.00025351,0.00094852,0,0,0,0.025395,-3.2191e-05,-0.00013849,0.012767,0.0084083,0.025481,8.4979e-07,0.65,0.15,0.85
0.034711,0.0052957,-0.0053645,0.025419,-9.3062e-05,-7.8428e-05,-0.00012812,4.3221e-05,0.00012992,0.050941,-0.015391,-0.015353,-0.00066622,0.00022475,0.0006756,0,0,0,0.025421,-3.8915e-05,-0.00013401,0.012777,0.0084159,0.025507,8.524e-07,0.7,0.15,0.85
0.037259,0.0053132,-0.0053842,0.025437,-8.4837e-05,-7.5602e-05,-7.7374e-05,2.1707e-05,8.222e-05,0.05097,-0.015386,-0.015362,-0.00040234,0.00011288,0.00042754,0,0,0,0.025437,-4.8202e-05,-0.00011283,0.012775,0.0084254,0.025518,8.5345e-07,0.75,0.15,0.85
0.039808,0.0053315,-0.0054037,0.025445,-7.2601e-05,-6.9875e-05,-3.831e-05,-9.4152e-06,4.4753e-05,0.050976,-0.015371,-0.015363,-0.00019921,-4.8959e-05,0.00023272,0,0,0,0.025446,-4.2567e-05,-0.0001001,0.012773,0.0084343,0.025517,8.5335e-07,0.8,0.15,0.85
0.042357,0.005349,-0.0054218,0.025448,-6.0134e-05,-6.3838e-05,-1.3088e-05,-4.2844e-05,1.9585e-05,0.05097,-0.015351,-0.01536,-6.8059e-05,-0.00022279,0.00010184,0,0,0,0.025448,-1.3762e-05,-0.00011026,0.012779,0.0084413,0.02551,8.526e-07,0.85,0.15,0.85
0.044905,0.0053636,-0.0054365,0.025447,-5.0028e-05,-5.9048e-05,-6.7897e-07,-7.1868e-05,5.8567e-06,0.050959,-0.015333,-0.015356,-3.5307e-06,-0.00037371,3.0455e-05,0,0,0,0.025447,2.0837e-05,-0.00012993,0.012788,0.0084459,0.025502,8.5171e-07,0.9,0.15,0.85
0.047453,0.0053733,-0.0054462,0.025445,-4.3639e-05,-5.6127e-05,5.5761e-06,-9.1359e-05,-2.6904e-06,0.05095,-0.015321,-0.015353,2.8996e-05,-0.00047507,-1.399e-05,0,0,0,0.025445,4.453e-05,-0.0001443,0.012795,0.0084485,0.025496,8.5104e-07,0.95,0.15,0.85
0.048726,0.0053768,-0.0054496,0.025444,-4.1475e-05,-5.5163e-05,8.5282e-06,-9.8201e-05,-6.9682e-06,0.050947,-0.015317,-0.015352,4.4347e-05,-0.00051065,-3.6234e-05,0,0,0,0.025445,5.283e-05,-0.00014948,0.012797,0.0084493,0.025493,8.5079e-07,1,0.15,0.85
0.00095748,0.00044329,-0.00056437,0.025385,0.0092954,0.0090249,0.0033089,-4.9108e-05,-0.0041531,0.039779,-0.0020555,-0.0027587,0.017206,-0.00025536,-0.021596,0,0,0,0.027009,0.0092014,0.0074948,0.0097574,0.014569,0.018724,3.3326e-07,0,0.2,0.85
0.0019889,0.00087782,-0.0011155,0.025431,0.0078027,0.0073167,0.0031367,-9.652e-05,-0.0038466,0.041791,-0.0040433,-0.0053071,0.016311,-0.0005019,-0.020002,0,0,0,0.026784,0.0076538,0.0061132,0.010335,0.013517,0.019952,4.1097e-07,0.05,0.2,0.85
0.0041791,0.0017115,-0.0021609,0.02586,0.0052584,0.0045002,0.0026693,-0.00018534,-0.0030744,0.045864,-0.007699,-0.0096703,0.013881,-0.00096376,-0.015987,0,0,0,0.026686,0.0050761,0.0038561,0.011415,0.011873,0.022253,5.6958e-07,0.1,0.2,0.85
0.0065753,0.0024479,-0.0030543,0.026393,0.0034796,0.0027395,0.0020295,-0.00025613,-0.0021434,0.049054,-0.01052,-0.012444,0.010553,-0.0013319,-0.011146,0,0,0,0.026804,0.003392,0.0024156,0.012194,0.010871,0.023921,7.0232e-07,0.15,0.2,0.85
0.0090845,0.0030515,-0.0037547,0.0265,0.0022655,0.0016975,0.0013725,-0.00029848,-0.001313,0.050621,-0.012387,-0.013864,0.0071372,-0.0015521,-0.0068277,0,0,0,0.02667,0.0023203,0.0014719,0.012599,0.010154,0.024787,7.7985e-07,0.2,0.2,0.85
0.011637,0.0035177,-0.0042749,0.026334,0.0014539,0.001065,0.00081371,-0.0003078,-0.00069232,0.051157,-0.013532,-0.014543,0.0042313,-0.0016006,-0.0036001,0,0,0,0.026392,0.0016116,0.00084935,0.012771,0.0096177,0.025171,8.1665e-07,0.25,0.2,0.85
0.0142,0.003861,-0.0046475,0.026088,0.00091258,0.00066572,0.00038765,-0.00028636,-0.00026646,0.05123,-0.014227,-0.014869,0.0020158,-0.001489,-0.0013856,0,0,0,0.026103,0.0011088,0.00045484,0.012824,0.0092222,0.025328,8.3264e-07,0.3,0.2,0.85
0.01676,0.0041029,-0.0049052,0.025868,0.00055011,0.00040597,8.5803e-05,-0.00024006,1.1281e-05,0.051162,-0.014664,-0.015039,0.00044617,-0.0012483,5.8663e-05,0,0,0,0.02587,0.00073665,0.00021656,0.012827,0.0089412,0.025398,8.4034e-07,0.35,0.2,0.85
0.019316,0.0042655,-0.0050763,0.025708,0.00030483,0.00023184,-0.00011283,-0.00017646,0.00018101,0.051093,-0.014954,-0.015144,-0.00058672,-0.00091759,0.00094127,0,0,0,0.02571,0.00045093,8.296e-05,0.012814,0.0087481,0.025446,8.4572e-07,0.4,0.2,0.85
0.02187,0.004369,-0.0051847,0.02561,0.00013674,0.00011177,-0.00022859,-0.00010431,0.00027092,0.05107,-0.015159,-0.015224,-0.0011887,-0.00054243,0.0014088,0,0,0,0.025615,0.00022802,1.5248e-05,0.0128,0.0086194,0.025494,8.5099e-07,0.45,0.2,0.85
0.024423,0.0044312,-0.0052502,0.025561,2.1187e-05,2.7727e-05,-0.00027875,-3.3463e-05,0.00030063,0.051092,-0.015311,-0.015294,-0.0014495,-0.00017401,0.0015633,0,0,0,0.025568,7.392e-05,-3.1663e-05,0.0128,0.0085366,0.025547,8.5644e-07,0.5,0.2,0.85
0.026979,0.0044673,-0.0052891,0.025544,-5.6062e-05,-2.9748e-05,-0.00027875,2.5905e-05,0.00028562,0.05114,-0.015421,-0.015352,-0.0014495,0.0001347,0.0014852,0,0,0,0.02555,2.3471e-06,-9.4441e-05,0.012822,0.0084861,0.025597,8.6147e-07,0.55,0.2,0.85
0.029537,0.0044893,-0.0053143,0.025544,-0.00010309,-6.5384e-05,-0.00024376,6.5031e-05,0.00024029,0.051188,-0.015493,-0.015395,-0.0012676,0.00033816,0.0012495,0,0,0,0.025548,-1.4617e-05,-0.00015854,0.012853,0.0084584,0.025635,8.6529e-07,0.6,0.2,0.85
0.032098,0.0045059,-0.0053349,0.025547,-0.00012545,-8.2335e-05,-0.00018907,7.8781e-05,0.00017906,0.051219,-0.01553,-0.015418,-0.00098316,0.00040966,0.00093113,0,0,0,0.02555,-2.1035e-05,-0.00018955,0.01287,0.0084465,0.025656,8.6731e-07,0.65,0.2,0.85
0.034659,0.0045223,-0.0053559,0.025548,-0.00012872,-8.4324e-05,-0.00012893,6.7172e-05,0.00011548,0.051224,-0.015536,-0.01542,-0.00067044,0.00034929,0.00060047,0,0,0,0.025549,-3.3945e-05,-0.00018042,0.012865,0.008445,0.025657,8.674e-07,0.7,0.2,0.85
0.03722,0.0045405,-0.0053793,0.025543,-0.00011931,-7.6269e-05,-7.4779e-05,3.5341e-05,6.0337e-05,0.051204,-0.015519,-0.015407,-0.00038885,0.00018377,0.00031375,0,0,0,0.025544,-4.8989e-05,-0.00014707,0.012845,0.0084492,0.025642,8.6592e-07,0.75,0.2,0.85
0.03978,0.00456,-0.005404,0.025534,-0.00010384,-6.3534e-05,-3.371e-05,-8.0876e-06,2.0196e-05,0.051168,-0.01549,-0.015385,-0.00017529,-4.2055e-05,0.00010502,0,0,0,0.025534,-4.4079e-05,-0.00012343,0.012829,0.0084555,0.025618,8.635e-07,0.8,0.2,0.85
0.042337,0.0045788,-0.0054277,0.025523,-8.7845e-05,-5.0655e-05,-8.1618e-06,-5.3427e-05,-3.0149e-06,0.051129,-0.015459,-0.015363,-4.2441e-05,-0.00027782,-1.5677e-05,0,0,0,0.025523,-6.9792e-06,-0.00013156,0.012827,0.0084616,0.025593,8.6089e-07,0.85,0.2,0.85
0.044893,0.0045946,-0.0054473,0.025513,-7.495e-05,-4.0489e-05,3.2416e-06,-9.207e-05,-1.1141e-05,0.051096,-0.015434,-0.015344,1.6856e-05,-0.00047877,-5.7934e-05,0,0,0,0.025514,3.9297e-05,-0.00015476,0.012834,0.008466,0.025572,8.5868e-07,0.9,0.2,0.85
0.047447,0.0046051,-0.0054603,0.025507,-6.6885e-05,-3.4255e-05,7.951e-06,-0.00011771,-1.2882e-05,0.051075,-0.015417,-0.015333,4.1345e-05,-0.00061209,-6.6986e-05,0,0,0,0.025507,7.1125e-05,-0.00017228,0.01284,0.0084686,0.025559,8.5723e-07,0.95,0.2,0.85
0.048723,0.0046087,-0.0054648,0.025505,-6.4174e-05,-3.2185e-05,1.0125e-05,-0.00012665,-1.3907e-05,0.051067,-0.015412,-0.015329,5.265e-05,-0.0006586,-7.2315e-05,0,0,0,0.025505,8.2229e-05,-0.0001786,0.012842,0.0084694,0.025554,8.5673e-07,1,0.2,0.85
0.00094585,0.00035166,-0.00057279,0.025111,0.0093685,0.0089609,0.0026448,-4.7752e-05,-0.0042193,0.039225,-0.0017063,-0.0027662,0.013753,-0.00024831,-0.02194,0,0,0,0.026572,0.0092693,0.0076,0.0094858,0.01448,0.018198,3.0535e-07,0,0.25,0.85
0.0019613,0.00069654,-0.0011319,0.025176,0.0080534,0.0073027,0.0025363,-9.2666e-05,-0.0039124,0.041139,-0.0033806,-0.0053324,0.013189,-0.00048186,-0.020345,0,0,0,0.026396,0.0078972,0.0062394,0.010078,0.013511,0.019387,3.7463e-07,0.05,0.25,0.85
0.0041139,0.0013616,-0.0021923,0.025635,0.0057777,0.0045533,0.0022316,-0.00017547,-0.0031356,0.045072,-0.0065578,-0.0097412,0.011604,-0.00091244,-0.016305,0,0,0,0.026389,0.0055803,0.0039973,0.011196,0.011989,0.021653,5.2021e-07,0.1,0.25,0.85
0.0064685,0.0019594,-0.0030976,0.026218,0.0040841,0.0028083,0.0017882,-0.00024054,-0.002192,0.0483,-0.0092474,-0.012565,0.0092989,-0.0012508,-0.011399,0,0,0,0.026602,0.0039568,0.0025514,0.012025,0.011037,0.023387,6.5203e-07,0.15,0.25,0.85
0.0089439,0.0024627,-0.0038053,0.026415,0.0028087,0.0017595,0.0012933,-0.0002807,-0.0013432,0.05009,-0.011287,-0.014015,0.006725,-0.0014597,-0.0069844,0,0,0,0.026581,0.0027907,0.0016116,0.012485,0.010328,0.024405,7.4146e-07,0.2,0.25,0.85
0.011477,0.0028621,-0.0043274,0.026354,0.0018801,0.0011187,0.00082993,-0.00029139,-0.00070235,0.05091,-0.012724,-0.014703,0.0043157,-0.0015152,-0.0036522,0,0,0,0.026414,0.0019518,0.00098753,0.012713,0.0097844,0.02496,7.9474e-07,0.25,0.25,0.85
0.014035,0.0031625,-0.0046968,0.026195,0.0012233,0.00071391,0.00044421,-0.00027245,-0.00025829,0.051228,-0.013699,-0.015023,0.0023099,-0.0014167,-0.0013431,0,0,0,0.026212,0.0013427,0.00057825,0.012817,0.0093775,0.02526,8.2533e-07,0.3,0.25,0.85
0.0166,0.0033765,-0.0049469,0.026029,0.00076435,0.00044754,0.00014967,-0.00022704,3.4065e-05,0.051332,-0.014357,-0.015181,0.00077829,-0.0011806,0.00017714,0,0,0,0.026033,0.00088996,0.00031835,0.012857,0.0090804,0.025434,8.4363e-07,0.35,0.25,0.85
0.019168,0.0035204,-0.0051073,0.025896,0.00044368,0.00026366,-5.7211e-05,-0.00016103,0.00021382,0.051367,-0.014808,-0.015276,-0.0002975,-0.00083737,0.0011119,0,0,0,0.025899,0.00054264,0.00016172,0.012869,0.0088677,0.025549,8.5597e-07,0.4,0.25,0.85
0.021737,0.0036109,-0.0052034,0.025804,0.00021848,0.00013054,-0.00018608,-8.2984e-05,0.00030812,0.051399,-0.015124,-0.015353,-0.00096764,-0.00043152,0.0016022,0,0,0,0.02581,0.00027507,6.854e-05,0.012871,0.0087177,0.025639,8.655e-07,0.45,0.25,0.85
0.024308,0.0036638,-0.0052566,0.025749,6.0505e-05,3.1721e-05,-0.00024832,-4.1992e-06,0.0003356,0.051443,-0.015348,-0.015422,-0.0012913,-2.1836e-05,0.0017451,0,0,0,0.025756,0.00010095,-1.5603e-05,0.012886,0.0086139,0.025714,8.733e-07,0.5,0.25,0.85
0.026881,0.0036934,-0.0052852,0.025719,-4.7269e-05,-3.9331e-05,-0.00025666,6.2447e-05,0.00031164,0.051491,-0.015503,-0.015482,-0.0013346,0.00032473,0.0016205,0,0,0,0.025726,2.8381e-05,-0.00012139,0.012924,0.0085443,0.025773,8.7927e-07,0.55,0.25,0.85
0.029457,0.0037113,-0.0053035,0.025702,-0.0001148,-8.4001e-05,-0.00022587,0.0001052,0.00025218,0.051523,-0.0156,-0.01552,-0.0011745,0.00054704,0.0013113,0,0,0,0.025706,8.7658e-06,-0.00021217,0.012959,0.008501,0.025809,8.8283e-07,0.6,0.25,0.85
0.032034,0.0037259,-0.0053214,0.025686,-0.00014923,-0.00010313,-0.00017243,0.00011685,0.00017478,0.051524,-0.015648,-0.015528,-0.00089662,0.00060764,0.00090885,0,0,0,0.025689,-5.4984e-06,-0.00024941,0.012969,0.0084779,0.025817,8.8361e-07,0.65,0.25,0.85
0.034609,0.0037421,-0.0053442,0.025667,-0.000158,-0.00010031,-0.0001125,9.7183e-05,9.6799e-05,0.051489,-0.015656,-0.015506,-0.00058502,0.00050535,0.00050336,0,0,0,0.025668,-2.5423e-05,-0.00023395,0.012951,0.0084696,0.025799,8.8175e-07,0.7,0.25,0.85
0.037183,0.0037613,-0.0053727,0.025644,-0.00014985,-8.2497e-05,-5.9138e-05,5.297e-05,3.2183e-05,0.051427,-0.015637,-0.015461,-0.00030752,0.00027544,0.00016735,0,0,0,0.025644,-4.5264e-05,-0.0001874,0.012916,0.0084705,0.025761,8.7798e-07,0.75,0.25,0.85
0.039752,0.0037825,-0.0054047,0.025619,-0.00013364,-5.8218e-05,-2.0129e-05,-4.4507e-06,-1.1095e-05,0.051353,-0.015604,-0.015408,-0.00010467,-2.3144e-05,-5.7692e-05,0,0,0,0.025619,-3.9572e-05,-0.00015239,0.012886,0.0084757,0.025715,8.7335e-07,0.8,0.25,0.85
0.042318,0.0038031,-0.0054359,0.025596,-0.00011656,-3.4832e-05,2.2777e-06,-6.2728e-05,-3.1476e-05,0.051283,-0.01557,-0.015357,1.1844e-05,-0.00032619,-0.00016367,0,0,0,0.025596,5.7171e-06,-0.00015719,0.012877,0.0084816,0.025673,8.6891e-07,0.85,0.25,0.85
0.04488,0.0038203,-0.005462,0.025579,-0.000103,-1.686e-05,1.0092e-05,-0.0001114,-3.2308e-05,0.051229,-0.015543,-0.015319,5.248e-05,-0.00057926,-0.000168,0,0,0,0.025579,6.2924e-05,-0.00018285,0.012881,0.0084862,0.02564,8.654e-07,0.9,0.25,0.85
0.047441,0.0038316,-0.0054793,0.025568,-9.4701e-05,-6.0235e-06,1.157e-05,-0.00014323,-2.556e-05,0.051196,-0.015526,-0.015296,6.0166e-05,-0.00074479,-0.00013291,0,0,0,0.025568,0.00010253,-0.0002033,0.012885,0.0084889,0.025619,8.6322e-07,0.95,0.25,0.85
0.048721,0.0038356,-0.0054853,0.025564,-9.1958e-05,-2.4566e-06,1.2333e-05,-0.00015425,-2.2629e-05,0.051184,-0.015521,-0.015288,6.4132e-05,-0.0008021,-0.00011767,0,0,0,0.025564,0.00011627,-0.00021072,0.012887,0.0084898,0.025613,8.6249e-07,1,0.25,0.85
0.00093972,0.00027266,-0.00058121,0.024966,0.0094168,0.0089313,0.0020585,-4.461e-05,-0.0042848,0.038923,-0.0015048,-0.0027671,0.010704,-0.00023197,-0.022281,0,0,0,0.026313,0.0093421,0.0076593,0.0093268,0.014438,0.017876,2.8861e-07,0,0.3,0.85
0.0019462,0.00053976,-0.0011482,0.025036,0.0082076,0.0073017,0.0019862,-8.5912e-05,-0.0039771,0.040767,-0.0029874,-0.0053429,0.010328,-0.00044674,-0.020681,0,0,0,0.026158,0.0080928,0.0062948,0.0099315,0.013515,0.019034,3.5203e-07,0.05,0.3,0.85
0.0040767,0.0010557,-0.0022232,0.025499,0.0061061,0.0045914,0.0017804,-0.00016123,-0.0031957,0.04458,-0.0058422,-0.0097804,0.009258,-0.00083838,-0.016618,0,0,0,0.026188,0.0059639,0.004045,0.011071,0.012066,0.021256,4.8736e-07,0.1,0.3,0.85
0.0064042,0.0015232,-0.00314,0.026095,0.0044992,0.002859,0.0014723,-0.00021969,-0.0022416,0.047775,-0.0083742,-0.012639,0.007656,-0.0011424,-0.011657,0,0,0,0.026445,0.0044042,0.0026044,0.01192,0.011151,0.023,6.1515e-07,0.15,0.3,0.85
0.0088542,0.0019228,-0.003855,0.026335,0.003222,0.0018105,0.0011119,-0.00025633,-0.0013775,0.049651,-0.010443,-0.014113,0.005782,-0.0013329,-0.0071629,0,0,0,0.026487,0.003197,0.0016841,0.012401,0.010456,0.024086,7.0899e-07,0.2,0.3,0.85
0.011369,0.0022453,-0.0043794,0.026333,0.0022354,0.0011655,0.00075292,-0.00026691,-0.00071888,0.050625,-0.012028,-0.01481,0.0039152,-0.0013879,-0.0037382,0,0,0,0.026388,0.0022711,0.0010747,0.012657,0.0099113,0.024739,7.7168e-07,0.25,0.3,0.85
0.013917,0.0024911,-0.0047457,0.026232,0.0015015,0.00075582,0.00043372,-0.00024965,-0.00025687,0.05111,-0.01319,-0.015129,0.0022553,-0.0012982,-0.0013357,0,0,0,0.026248,0.0015738,0.00066777,0.01279,0.0094965,0.02514,8.1257e-07,0.3,0.3,0.85
0.01648,0.0026672,-0.0049882,0.026112,0.00096848,0.00048295,0.00017441,-0.00020532,5.1789e-05,0.051354,-0.01402,-0.015283,0.00090695,-0.0010677,0.0002693,0,0,0,0.026116,0.0010477,0.00039982,0.012858,0.0091879,0.025399,8.3975e-07,0.35,0.3,0.85
0.019052,0.0027847,-0.0051372,0.026009,0.00058513,0.0002887,-1.8211e-05,-0.00013774,0.00024438,0.051493,-0.014608,-0.015379,-9.4695e-05,-0.00071624,0.0012708,0,0,0,0.026012,0.00064367,0.00022678,0.012893,0.0089608,0.02558,8.5892e-07,0.4,0.3,0.85
0.02163,0.0028566,-0.0052197,0.025933,0.00030994,0.00014046,-0.00014467,-5.4756e-05,0.00034587,0.051596,-0.015024,-0.015465,-0.00075228,-0.00028473,0.0017985,0,0,0,0.025939,0.00034002,0.00010458,0.012917,0.0087945,0.025718,8.7344e-07,0.45,0.3,0.85
0.024212,0.0028965,-0.0052592,0.025884,0.00011336,2.3427e-05,-0.00020961,3.1264e-05,0.00037281,0.051685,-0.015318,-0.015551,-0.00109,0.00016257,0.0019386,0,0,0,0.025891,0.00015042,-2.0818e-05,0.012956,0.0086735,0.025827,8.8473e-07,0.5,0.3,0.85
0.026798,0.0029171,-0.0052761,0.025852,-2.3286e-05,-6.4833e-05,-0.00022156,0.00010474,0.00033978,0.051756,-0.015519,-0.015627,-0.0011521,0.00054467,0.0017669,0,0,0,0.025858,6.8467e-05,-0.00016306,0.013011,0.0085879,0.025907,8.9283e-07,0.55,0.3,0.85
0.029387,0.0029293,-0.0052867,0.025827,-0.00011127,-0.00012053,-0.00019348,0.00015062,0.0002643,0.051793,-0.015646,-0.01567,-0.0010061,0.00078323,0.0013744,0,0,0,0.025831,3.7169e-05,-0.00027333,0.013052,0.0085316,0.025951,8.9721e-07,0.6,0.3,0.85
0.031977,0.0029411,-0.0053022,0.0258,-0.00015899,-0.00014083,-0.00014197,0.00015933,0.00016796,0.051779,-0.015713,-0.015666,-0.00073827,0.00082854,0.00087337,0,0,0,0.025802,1.2072e-05,-0.00031404,0.013058,0.0085,0.025955,8.9755e-07,0.65,0.3,0.85
0.034565,0.0029567,-0.0053279,0.025767,-0.00017559,-0.00012907,-8.4333e-05,0.00013045,7.3161e-05,0.051717,-0.015734,-0.015613,-0.00043853,0.00067835,0.00038044,0,0,0,0.025768,-1.6331e-05,-0.00028907,0.013028,0.0084875,0.025922,8.9427e-07,0.7,0.3,0.85
0.037149,0.0029769,-0.0053635,0.02573,-0.00017189,-9.5546e-05,-3.4561e-05,7.2753e-05,-2.0814e-06,0.051621,-0.015724,-0.015526,-0.00017972,0.00037832,-1.0823e-05,0,0,0,0.02573,-4.0853e-05,-0.00022681,0.012979,0.0084875,0.025865,8.8856e-07,0.75,0.3,0.85
0.039727,0.0029996,-0.0054048,0.025693,-0.00015871,-5.3728e-05,-5.5533e-07,7.1275e-07,-4.8173e-05,0.051514,-0.015701,-0.015428,-2.8878e-06,3.7063e-06,-0.0002505,0,0,0,0.025693,-3.2344e-05,-0.00018028,0.012937,0.0084936,0.0258,8.8197e-07,0.8,0.3,0.85
0.0423,0.0030218,-0.0054457,0.025662,-0.00014439,-1.5152e-05,1.6179e-05,-7.047e-05,-6.4397e-05,0.051419,-0.015677,-0.015341,8.4131e-05,-0.00036645,-0.00033486,0,0,0,0.025662,2.3154e-05,-0.00018292,0.012922,0.0085007,0.025742,8.7595e-07,0.85,0.3,0.85
0.044869,0.0030403,-0.0054799,0.025638,-0.00013344,1.3564e-05,1.8605e-05,-0.00012865,-5.6286e-05,0.051349,-0.015658,-0.015276,9.6744e-05,-0.000669,-0.00029269,0,0,0,0.025639,9.1688e-05,-0.00021173,0.012925,0.0085062,0.0257,8.714e-07,0.9,0.3,0.85
0.047435,0.0030524,-0.0055025,0.025625,-0.00012713,3.0456e-05,1.5743e-05,-0.00016611,-3.9862e-05,0.051307,-0.015647,-0.015238,8.1861e-05,-0.00086377,-0.00020728,0,0,0,0.025625,0.00013857,-0.00023533,0.01293,0.0085093,0.025675,8.6867e-07,0.95,0.3,0.85
0.048718,0.0030566,-0.0055104,0.02562,-0.00012513,3.5936e-05,1.468e-05,-0.00017897,-3.2611e-05,0.051294,-0.015644,-0.015225,7.6336e-05,-0.00093063,-0.00016958,0,0,0,0.02562,0.00015467,-0.00024391,0.012932,0.0085103,0.025667,8.6777e-07,1,0.3,0.85
0.00093672,0.00020118,-0.00058907,0.024896,0.0094526,0.0089228,0.0015221,-4.0387e-05,-0.0043458,0.038767,-0.0013861,-0.0027636,0.0079152,-0.00021001,-0.022598,0,0,0,0.026168,0.0094056,0.0076983,0.0092346,0.014424,0.017682,2.786e-07,0,0.35,0.85
0.0019383,0.00039779,-0.0011634,0.024966,0.0083069,0.0073104,0.0014737,-7.7289e-05,-0.0040373,0.040562,-0.0027523,-0.0053431,0.0076634,-0.0004019,-0.020994,0,0,0,0.026021,0.008236,0.0063271,0.0098468,0.013528,0.018818,3.3813e-07,0.05,0.35,0.85
0.0040562,0.00077742,-0.0022518,0.025425,0.0063145,0.0046239,0.0013351,-0.00014395,-0.003252,0.044287,-0.0054003,-0.0097959,0.0069427,-0.00074854,-0.01691,0,0,0,0.026064,0.0062283,0.0040712,0.010996,0.012121,0.021005,4.6625e-07,0.1,0.35,0.85
0.006367,0.001122,-0.0031791,0.026021,0.0047735,0.0029005,0.0011255,-0.00019508,-0.0022898,0.047437,-0.0078057,-0.012676,0.0058525,-0.0010144,-0.011907,0,0,0,0.026339,0.0047166,0.0026389,0.01185,0.011232,0.022739,5.9003e-07,0.15,0.35,0.85
0.0088,0.0014184,-0.0039007,0.026278,0.0035124,0.0018549,0.00087396,-0.00022741,-0.001414,0.049336,-0.0098551,-0.014165,0.0045446,-0.0011825,-0.0073525,0,0,0,0.026414,0.0034975,0.0017346,0.012339,0.010549,0.02385,6.8494e-07,0.2,0.35,0.85
0.011301,0.0016593,-0.0044271,0.026306,0.0025019,0.0012096,0.00061287,-0.00023714,-0.00074076,0.050386,-0.011506,-0.014866,0.0031869,-0.0012331,-0.003852,0,0,0,0.026355,0.0025247,0.0011385,0.012608,0.010006,0.024555,7.5242e-07,0.25,0.35,0.85
0.013839,0.0018435,-0.0047906,0.02624,0.0017232,0.00079742,0.00036914,-0.00022136,-0.00026249,0.050967,-0.012776,-0.015183,0.0019195,-0.0011511,-0.0013649,0,0,0,0.026253,0.0017698,0.00073724,0.012758,0.0095868,0.025017,7.9959e-07,0.3,0.35,0.85
0.016397,0.0019745,-0.0050255,0.026151,0.0011409,0.00051863,0.00016095,-0.00017877,6.2703e-05,0.051306,-0.01372,-0.015338,0.00083692,-0.00092962,0.00032606,0,0,0,0.026154,0.0011908,0.00046514,0.012845,0.0092701,0.025335,8.3293e-07,0.35,0.35,0.85
0.018969,0.0020596,-0.0051629,0.026071,0.00071272,0.00031261,-1.2149e-06,-0.00011108,0.00026996,0.051526,-0.014404,-0.015445,-6.3173e-06,-0.00057761,0.0014038,0,0,0,0.026074,0.00074559,0.00027591,0.012899,0.009032,0.025567,8.5747e-07,0.4,0.35,0.85
0.02155,0.0021085,-0.0052312,0.026011,0.00040025,0.0001455,-0.00011212,-2.4954e-05,0.00038114,0.051694,-0.014893,-0.015556,-0.00058303,-0.00012976,0.0019819,0,0,0,0.026017,0.00041808,0.00012125,0.012948,0.0088521,0.025749,8.765e-07,0.45,0.35,0.85
0.024139,0.0021321,-0.005256,0.02597,0.00017394,4.4834e-06,-0.00017073,6.6653e-05,0.00040952,0.051833,-0.015237,-0.015677,-0.0008878,0.0003466,0.0021295,0,0,0,0.025978,0.00021523,-4.4493e-05,0.013011,0.0087161,0.025893,8.9144e-07,0.5,0.35,0.85
0.026733,0.0021415,-0.0052603,0.025941,1.4113e-05,-0.00010701,-0.0001811,0.00014575,0.0003679,0.051939,-0.015472,-0.015787,-0.00094174,0.00075791,0.0019131,0,0,0,0.025948,0.0001166,-0.00021611,0.013082,0.0086162,0.026,9.022e-07,0.55,0.35,0.85
0.029332,0.0021467,-0.0052628,0.025915,-9.1445e-05,-0.00017746,-0.00015362,0.00019403,0.00027526,0.051991,-0.015625,-0.015849,-0.00079881,0.0010089,0.0014314,0,0,0,0.025919,6.7326e-05,-0.00034035,0.01313,0.0085486,0.026058,9.0802e-07,0.6,0.35,0.85
0.031932,0.0021546,-0.0052763,0.025882,-0.0001521,-0.00019834,-0.00010412,0.00019953,0.00015799,0.051974,-0.015714,-0.015835,-0.00054144,0.0010375,0.00082154,0,0,0,0.025884,2.8987e-05,-0.00038118,0.013133,0.0085106,0.026063,9.0849e-07,0.65,0.35,0.85
0.03453,0.0021687,-0.0053062,0.025841,-0.00017833,-0.00017271,-5.0196e-05,0.00016168,4.4807e-05,0.051893,-0.015758,-0.015743,-0.00026102,0.00084072,0.00023299,0,0,0,0.025842,-8.9456e-06,-0.00034259,0.013092,0.0084967,0.026019,9.0422e-07,0.7,0.35,0.85
0.037122,0.0021889,-0.0053509,0.025796,-0.00018261,-0.00011605,-6.0523e-06,9.1397e-05,-4.1349e-05,0.05177,-0.015773,-0.0156,-3.1472e-05,0.00047527,-0.00021501,0,0,0,0.025796,-3.7657e-05,-0.00026127,0.013029,0.008499,0.025946,8.9689e-07,0.75,0.35,0.85
0.039707,0.0022124,-0.0054037,0.025752,-0.00017699,-4.9364e-05,2.0969e-05,6.3619e-06,-8.9248e-05,0.051639,-0.015775,-0.015443,0.00010904,3.3082e-05,-0.00046409,0,0,0,0.025752,-2.3723e-05,-0.00020306,0.012978,0.0085084,0.025866,8.8868e-07,0.8,0.35,0.85
0.042286,0.0022354,-0.0054561,0.025715,-0.00017009,9.8649e-06,3.0566e-05,-7.5584e-05,-9.9708e-05,0.051527,-0.015775,-0.015307,0.00015894,-0.00039304,-0.00051848,0,0,0,0.025716,4.4791e-05,-0.00020549,0.012961,0.0085184,0.025797,8.8146e-07,0.85,0.35,0.85
0.04486,0.0022545,-0.0054998,0.02569,-0.00016571,5.2487e-05,2.6868e-05,-0.0001411,-8.1268e-05,0.051449,-0.015777,-0.01521,0.00013971,-0.00073375,-0.00042259,0,0,0,0.025691,0.0001251,-0.00023866,0.012965,0.0085257,0.025749,8.7624e-07,0.9,0.35,0.85
0.04743,0.0022669,-0.0055285,0.025676,-0.00016399,7.6833e-05,1.9427e-05,-0.00018256,-5.4667e-05,0.051405,-0.01578,-0.015154,0.00010102,-0.00094933,-0.00028427,0,0,0,0.025676,0.00017825,-0.00026556,0.012971,0.0085297,0.025723,8.7325e-07,0.95,0.35,0.85
0.048715,0.0022712,-0.0055385,0.025672,-0.00016364,8.4589e-05,1.6476e-05,-0.00019666,-4.3146e-05,0.051391,-0.015781,-0.015136,8.5674e-05,-0.0010226,-0.00022436,0,0,0,0.025672,0.00019618,-0.00027532,0.012974,0.0085309,0.025715,8.723e-07,1,0.35,0.85
0.00093565,0.00013405,-0.00059599,0.024873,0.0094798,0.0089271,0.0010157,-3.4897e-05,-0.0043995,0.038702,-0.0013205,-0.0027574,0.0052816,-0.00018147,-0.022877,0,0,0,0.026098,0.0094555,0.0077259,0.0091862,0.014427,0.017577,2.731e-07,0,0.4,0.85
0.0019351,0.00026453,-0.0011767,0.024942,0.0083701,0.0073256,0.00098506,-6.6365e-05,-0.0040904,0.040468,-0.0026207,-0.0053364,0.0051223,-0.0003451,-0.02127,0,0,0,0.025954,0.0083341,0.0063496,0.0098024,0.013546,0.018698,3.3025e-07,0.05,0.4,0.85
0.0040468,0.00051571,-0.0022766,0.025395,0.006441,0.0046538,0.00089744,-0.00012267,-0.0033023,0.044134,-0.0051474,-0.0097943,0.0046667,-0.00063789,-0.017172,0,0,0,0.026001,0.0063986,0.0040907,0.010955,0.012163,0.020859,4.5383e-07,0.1,0.4,0.85
0.0063485,0.00074263,-0.0032128,0.025987,0.0049426,0.0029369,0.00076496,-0.00016532,-0.0023346,0.047246,-0.0074691,-0.012684,0.0039778,-0.00085968,-0.01214,0,0,0,0.026282,0.0049164,0.0026674,0.011807,0.011289,0.02258,5.7468e-07,0.15,0.4,0.85
0.0087713,0.00093728,-0.00394,0.02625,0.0036977,0.0018956,0.00060415,-0.00019247,-0.0014506,0.049143,-0.0094918,-0.014177,0.0031416,-0.0010008,-0.0075432,0,0,0,0.026372,0.0036944,0.0017771,0.012297,0.010614,0.023698,6.6943e-07,0.2,0.4,0.85
0.011263,0.0010948,-0.004468,0.026291,0.0026793,0.0012529,0.00043233,-0.00020086,-0.00076652,0.050222,-0.011168,-0.014876,0.0022481,-0.0010445,-0.0039859,0,0,0,0.026332,0.0026972,0.0011933,0.01257,0.010074,0.024424,7.3897e-07,0.25,0.4,0.85
0.013794,0.0012135,-0.0048288,0.026241,0.001878,0.00084097,0.00026557,-0.00018692,-0.00027462,0.05085,-0.012493,-0.015189,0.001381,-0.00097197,-0.001428,0,0,0,0.026252,0.0019094,0.0007985,0.012727,0.0096532,0.024918,7.8933e-07,0.3,0.4,0.85
0.016348,0.0012952,-0.0050564,0.026168,0.0012679,0.00055754,0.00011677,-0.00014767,6.6133e-05,0.05124,-0.013499,-0.015346,0.00060721,-0.0007679,0.00034389,0,0,0,0.026171,0.0012993,0.00052301,0.012824,0.009331,0.025269,8.2612e-07,0.35,0.4,0.85
0.018918,0.0013442,-0.0051824,0.026101,0.00081352,0.00033868,-4.1439e-06,-8.2808e-05,0.00028882,0.05151,-0.014237,-0.015471,-2.1548e-05,-0.0004306,0.0015019,0,0,0,0.026105,0.00083203,0.00031598,0.012894,0.0090843,0.025535,8.5405e-07,0.4,0.4,0.85
0.021499,0.0013673,-0.0052364,0.02605,0.00047913,0.00014862,-8.9474e-05,2.5423e-06,0.00041161,0.051724,-0.014761,-0.01562,-0.00046526,1.322e-05,0.0021404,0,0,0,0.026057,0.00049281,0.00012782,0.012965,0.0088927,0.025749,8.7636e-07,0.45,0.4,0.85
0.02409,0.0013728,-0.0052461,0.026016,0.00023514,-2.3089e-05,-0.00013434,9.5601e-05,0.00044341,0.051906,-0.015126,-0.015797,-0.00069855,0.00049713,0.0023058,0,0,0,0.026025,0.00027915,-7.5437e-05,0.01305,0.0087428,0.025925,8.9442e-07,0.5,0.4,0.85
0.026689,0.0013698,-0.0052374,0.025991,6.0768e-05,-0.00016508,-0.00013893,0.00017689,0.00039426,0.052045,-0.015374,-0.015961,-0.00072244,0.00091984,0.0020502,0,0,0,0.025998,0.00016244,-0.00027364,0.013136,0.008629,0.026057,9.078e-07,0.55,0.4,0.85
0.029294,0.0013668,-0.0052319,0.025965,-5.7185e-05,-0.00025495,-0.00011072,0.00022567,0.00028425,0.052118,-0.015541,-0.016055,-0.00057574,0.0011735,0.0014781,0,0,0,0.025969,9.3977e-05,-0.00041008,0.01319,0.0085511,0.026131,9.1528e-07,0.6,0.4,0.85
0.031901,0.0013697,-0.0052441,0.025931,-0.00012884,-0.00027614,-6.394e-05,0.00022807,0.00014519,0.052104,-0.01565,-0.016033,-0.00033249,0.001186,0.00075497,0,0,0,0.025932,4.1528e-05,-0.00044796,0.01319,0.0085086,0.026139,9.1615e-07,0.65,0.4,0.85
0.034505,0.0013809,-0.0052796,0.025886,-0.00016566,-0.00023136,-1.5428e-05,0.00018346,1.3165e-05,0.052011,-0.015724,-0.015895,-8.0226e-05,0.00095398,6.8458e-05,0,0,0,0.025887,-5.7666e-06,-0.00039166,0.013139,0.0084964,0.026088,9.1115e-07,0.7,0.4,0.85
0.037102,0.0013996,-0.0053349,0.025837,-0.00018109,-0.00014356,2.1339e-05,0.00010457,-8.3283e-05,0.051868,-0.015778,-0.015681,0.00011096,0.00054374,-0.00043307,0,0,0,0.025837,-3.6826e-05,-0.00028832,0.013063,0.008504,0.026001,9.025e-07,0.75,0.4,0.85
0.039692,0.0014221,-0.0054009,0.025791,-0.00018751,-4.4269e-05,4.0222e-05,1.1536e-05,-0.00013148,0.05172,-0.015823,-0.01545,0.00020915,5.9988e-05,-0.0006837,0,0,0,0.025792,-1.3882e-05,-0.00021872,0.013005,0.0085196,0.025908,8.9302e-07,0.8,0.4,0.85
0.042274,0.0014443,-0.0054661,0.025755,-0.00019265,4.0978e-05,4.2363e-05,-7.6058e-05,-0.00013461,0.051601,-0.015863,-0.015255,0.00022029,-0.0003955,-0.00069996,0,0,0,0.025756,7.0204e-05,-0.00022271,0.012989,0.0085344,0.025833,8.8503e-07,0.85,0.4,0.85
0.044852,0.0014626,-0.0055202,0.025732,-0.00019871,0.00010023,3.2975e-05,-0.00014457,-0.00010504,0.051522,-0.015897,-0.015119,0.00017147,-0.00075178,-0.00054618,0,0,0,0.025732,0.00016182,-0.00026083,0.012997,0.0085444,0.025784,8.796e-07,0.9,0.4,0.85
0.047426,0.0014744,-0.0055555,0.02572,-0.00020405,0.00013299,2.1611e-05,-0.00018715,-6.8632e-05,0.051482,-0.01592,-0.015043,0.00011238,-0.00097318,-0.00035689,0,0,0,0.02572,0.00021953,-0.00029082,0.013005,0.0085496,0.02576,8.767e-07,0.95,0.4,0.85
0.048713,0.0014785,-0.0055677,0.025716,-0.0002062,0.00014321,1.7047e-05,-0.00020148,-5.3346e-05,0.05147,-0.015928,-0.01502,8.8645e-05,-0.0010477,-0.0002774,0,0,0,0.025716,0.00023851,-0.00030163,0.013009,0.0085511,0.025752,8.7583e-07,1,0.4,0.85
0.00093582,6.9128e-05,-0.00060159,0.02488,0.0094994,0.0089389,0.00052427,-2.771e-05,-0.0044431,0.038697,-0.0012927,-0.0027499,0.0027262,-0.00014409,-0.023104,0,0,0,0.026083,0.0094904,0.0077447,0.0091693,0.01444,0.017537,2.7088e-07,0,0.45,0.85
0.0019349,0.00013572,-0.0011874,0.024949,0.008406,0.0073437,0.00050843,-5.2296e-05,-0.0041337,0.040448,-0.0025637,-0.0053255,0.0026438,-0.00027194,-0.021495,0,0,0,0.02594,0.0083931,0.0063656,0.0097872,0.013566,0.018651,3.2687e-07,0.05,0.45,0.85
0.0040448,0.00026268,-0.0022964,0.025398,0.0065065,0.0046809,0.00046339,-9.5758e-05,-0.0033441,0.044084,-0.0050345,-0.0097808,0.0024096,-0.00049794,-0.01739,0,0,0,0.025986,0.0064923,0.0041069,0.01094,0.012195,0.020796,4.482e-07,0.1,0.45,0.85
0.0063432,0.00037506,-0.0032395,0.025985,0.0050291,0.0029691,0.00039637,-0.00012809,-0.0023734,0.047172,-0.0073144,-0.01267,0.0020611,-0.00066607,-0.012342,0,0,0,0.026268,0.0050225,0.0026926,0.011788,0.011328,0.022507,5.6749e-07,0.15,0.45,0.85
0.008762,0.00046918,-0.0039708,0.026248,0.0037939,0.0019328,0.00031515,-0.0001487,-0.0014849,0.04906,-0.0093208,-0.01416,0.0016388,-0.00077322,-0.0077215,0,0,0,0.026362,0.0037975,0.0018151,0.012273,0.010658,0.023622,6.6185e-07,0.2,0.45,0.85
0.011249,0.00054256,-0.0044999,0.026292,0.0027737,0.0012949,0.00022613,-0.00015507,-0.00079374,0.050142,-0.011004,-0.014849,0.0011759,-0.00080634,-0.0041275,0,0,0,0.026329,0.0027874,0.0012436,0.012543,0.01012,0.024353,7.3191e-07,0.25,0.45,0.85
0.013776,0.00059417,-0.004858,0.026245,0.0019635,0.00088558,0.00013592,-0.00014346,-0.00029159,0.050781,-0.012352,-0.015154,0.00070679,-0.00074601,-0.0015163,0,0,0,0.026255,0.0019835,0.00085628,0.012699,0.0096982,0.024856,7.8322e-07,0.3,0.45,0.85
0.016327,0.00062457,-0.0050789,0.026176,0.0013425,0.00059928,5.1109e-05,-0.00010992,6.258e-05,0.051187,-0.01338,-0.015313,0.00026577,-0.00057157,0.00032542,0,0,0,0.026179,0.0013608,0.00057824,0.0128,0.0093726,0.025219,8.2115e-07,0.35,0.45,0.85
0.018895,0.00063597,-0.0051945,0.026112,0.00087888,0.0003675,-2.129e-05,-5.2478e-05,0.00030012,0.051476,-0.01413,-0.015459,-0.00011071,-0.00027289,0.0015606,0,0,0,0.026116,0.00088897,0.00035293,0.012882,0.0091194,0.0255,8.5044e-07,0.4,0.45,0.85
0.021475,0.00063239,-0.005235,0.026063,0.00053798,0.00015163,-7.3674e-05,2.5483e-05,0.00043534,0.051713,-0.014653,-0.015657,-0.00038311,0.00013251,0.0022638,0,0,0,0.026071,0.00054999,0.00013184,0.01297,0.0089176,0.025733,8.7451e-07,0.45,0.45,0.85
0.024066,0.00061953,-0.0052302,0.026031,0.00028928,-5.616e-05,-9.9345e-05,0.00011247,0.00047213,0.051921,-0.015006,-0.015904,-0.0005166,0.00058483,0.0024551,0,0,0,0.02604,0.0003305,-0.00010639,0.013073,0.0087546,0.025931,8.947e-07,0.5,0.45,0.85
0.026667,0.00060411,-0.005209,0.026007,0.00011037,-0.0002347,-9.564e-05,0.00018936,0.00041698,0.052088,-0.015242,-0.01614,-0.00049733,0.00098469,0.0021683,0,0,0,0.026014,0.00019803,-0.0003296,0.013172,0.0086274,0.026084,9.102e-07,0.55,0.45,0.85
0.029275,0.0005926,-0.0051959,0.025981,-1.3311e-05,-0.00034801,-6.6949e-05,0.00023492,0.00029068,0.052179,-0.015406,-0.016277,-0.00034814,0.0012216,0.0015115,0,0,0,0.025985,0.00011203,-0.00047726,0.013231,0.0085399,0.026173,9.1918e-07,0.6,0.45,0.85
0.031885,0.00058953,-0.0052075,0.025946,-9.2747e-05,-0.00036941,-2.4914e-05,0.00023454,0.00013066,0.052169,-0.015531,-0.016251,-0.00012956,0.0012196,0.00067944,0,0,0,0.025947,4.6589e-05,-0.00051003,0.013229,0.0084946,0.026184,9.2049e-07,0.65,0.45,0.85
0.034492,0.00059628,-0.0052494,0.025901,-0.00013997,-0.00030125,1.5695e-05,0.00018763,-1.9127e-05,0.052067,-0.01564,-0.016059,8.1614e-05,0.00097567,-9.9463e-05,0,0,0,0.025902,-8.5919e-06,-0.00043309,0.013167,0.0084866,0.026126,9.1491e-07,0.7,0.45,0.85
0.037092,0.00061107,-0.0053164,0.025852,-0.00016861,-0.00017586,4.3313e-05,0.00010773,-0.00012433,0.051911,-0.015743,-0.015762,0.00022523,0.00056018,-0.00064654,0,0,0,0.025853,-3.916e-05,-0.00030618,0.01308,0.0085026,0.026027,9.0517e-07,0.75,0.45,0.85
0.039683,0.00063009,-0.0053963,0.025809,-0.00019028,-3.8015e-05,5.3621e-05,1.5626e-05,-0.0001712,0.051755,-0.015843,-0.015447,0.00027883,8.1256e-05,-0.00089025,0,0,0,0.02581,-3.3296e-06,-0.00022628,0.013018,0.0085268,0.025926,8.9477e-07,0.8,0.45,0.85
0.042267,0.00064914,-0.0054747,0.025778,-0.00021086,7.6979e-05,4.91e-05,-6.9262e-05,-0.00016596,0.051635,-0.015934,-0.015186,0.00025532,-0.00036016,-0.00086301,0,0,0,0.025779,9.7977e-05,-0.00023308,0.013006,0.0085479,0.025848,8.8643e-07,0.85,0.45,0.85
0.044847,0.0006648,-0.0055391,0.02576,-0.00023012,0.00015425,3.5536e-05,-0.00013428,-0.00012537,0.051565,-0.016009,-0.015009,0.00018479,-0.00069826,-0.00065195,0,0,0,0.025761,0.00019935,-0.00027597,0.013018,0.0085614,0.025802,8.8123e-07,0.9,0.45,0.85
0.047424,0.0006749,-0.005581,0.025753,-0.00024429,0.00019554,2.161e-05,-0.00017397,-8.0452e-05,0.051535,-0.016057,-0.014914,0.00011237,-0.00090463,-0.00041835,0,0,0,0.025753,0.00025941,-0.00030847,0.013031,0.008568,0.025782,8.7875e-07,0.95,0.45,0.85
0.048712,0.00067836,-0.0055954,0.025751,-0.00024952,0.00020812,1.5936e-05,-0.00018718,-6.2289e-05,0.051527,-0.016074,-0.014885,8.2865e-05,-0.00097334,-0.0003239,0,0,0,0.025751,0.00027856,-0.00032012,0.013036,0.0085698,0.025777,8.7807e-07,1,0.45,0.85
0.00093682,4.7805e-06,-0.00060553,0.024908,0.0095116,0.0089546,3.6427e-05,-1.8506e-05,-0.0044739,0.038736,-0.0012942,-0.0027424,0.00018942,-9.6233e-05,-0.023264,0,0,0,0.026109,0.0095095,0.0077552,0.0091769,0.014458,0.017548,2.7129e-07,0,0.5,0.85
0.0019368,8.1656e-06,-0.0011948,0.024976,0.0084192,0.0073621,3.4063e-05,-3.4465e-05,-0.0041645,0.040484,-0.0025647,-0.005313,0.00017713,-0.00017922,-0.021656,0,0,0,0.025965,0.0084163,0.0063759,0.0097948,0.013586,0.01866,3.2714e-07,0.05,0.5,0.85
0.0040484,1.2261e-05,-0.00231,0.025424,0.006522,0.0047036,2.7919e-05,-6.2005e-05,-0.0033745,0.044113,-0.0050327,-0.0097605,0.00014518,-0.00032242,-0.017548,0,0,0,0.02601,0.0065193,0.0041201,0.010945,0.012217,0.020802,4.4823e-07,0.1,0.5,0.85
0.0063481,1.119e-05,-0.0032574,0.026009,0.0050469,0.0029954,2.0974e-05,-8.1598e-05,-0.0024031,0.047193,-0.0073091,-0.012643,0.00010907,-0.00042431,-0.012496,0,0,0,0.026291,0.0050468,0.002714,0.011788,0.011351,0.022507,5.6734e-07,0.15,0.5,0.85
0.0087677,5.2072e-06,-0.0039912,0.02627,0.0038125,0.0019641,1.4005e-05,-9.3765e-05,-0.0015132,0.049073,-0.0093152,-0.014121,7.2828e-05,-0.00048758,-0.0078686,0,0,0,0.026383,0.0038161,0.0018475,0.012268,0.010682,0.023617,6.615e-07,0.2,0.5,0.85
0.011255,-5.6826e-06,-0.0045205,0.02631,0.002792,0.001332,4.5891e-06,-9.6991e-05,-0.00081879,0.050145,-0.011001,-0.014797,2.3863e-05,-0.00050435,-0.0042577,0,0,0,0.026347,0.0027994,0.0012875,0.01253,0.010145,0.024341,7.3117e-07,0.25,0.5,0.85
0.013782,-2.1653e-05,-0.0048762,0.026258,0.0019817,0.00092708,-8.9983e-06,-8.8044e-05,-0.00031023,0.050772,-0.012348,-0.01509,-4.6791e-05,-0.00045783,-0.0016132,0,0,0,0.026268,0.0019913,0.0009083,0.01268,0.0097224,0.024837,7.8184e-07,0.3,0.5,0.85
0.016333,-4.2806e-05,-0.0050915,0.026183,0.0013627,0.00063976,-2.6649e-05,-6.2848e-05,5.4021e-05,0.051164,-0.013368,-0.015248,-0.00013857,-0.00032681,0.00028091,0,0,0,0.026186,0.001371,0.00062879,0.012778,0.0093951,0.025195,8.1902e-07,0.35,0.5,0.85
0.018899,-6.8729e-05,-0.0051981,0.026112,0.00090403,0.00039638,-4.5446e-05,-1.8567e-05,0.00030412,0.051443,-0.014097,-0.015417,-0.00023632,-9.6546e-05,0.0015814,0,0,0,0.026117,0.00090905,0.00038663,0.012865,0.0091374,0.025473,8.4783e-07,0.4,0.5,0.85
0.021477,-9.7987e-05,-0.0052271,0.026057,0.00057018,0.000155,-5.97e-05,4.3208e-05,0.00045084,0.051679,-0.014587,-0.015666,-0.00031044,0.00022468,0.0023444,0,0,0,0.026065,0.00058083,0.0001361,0.012965,0.0089274,0.02571,8.7208e-07,0.45,0.5,0.85
0.024067,-0.00012783,-0.0052098,0.02602,0.00032877,-8.9623e-05,-6.2692e-05,0.00011359,0.00049323,0.051896,-0.014901,-0.015988,-0.000326,0.00059068,0.0025648,0,0,0,0.026029,0.00036168,-0.00013209,0.013081,0.008753,0.025918,8.9319e-07,0.5,0.5,0.85
0.026667,-0.00015443,-0.0051777,0.025993,0.00015502,-0.00030639,-4.9979e-05,0.00017653,0.00043402,0.052077,-0.015102,-0.016302,-0.00025989,0.00091798,0.0022569,0,0,0,0.026001,0.00021826,-0.00037721,0.013189,0.0086139,0.026086,9.1e-07,0.55,0.5,0.85
0.029274,-0.00017387,-0.0051583,0.025966,3.2532e-05,-0.00044481,-2.2805e-05,0.00021331,0.00029408,0.05218,-0.015248,-0.016489,-0.00011859,0.0011092,0.0015292,0,0,0,0.02597,0.0001189,-0.00053511,0.013253,0.008518,0.026185,9.2003e-07,0.6,0.5,0.85
0.031885,-0.00018349,-0.00517,0.025931,-5.0539e-05,-0.00046638,1.0982e-05,0.00021053,0.00011597,0.052173,-0.01538,-0.016461,5.7105e-05,0.0010947,0.00060306,0,0,0,0.025933,4.3796e-05,-0.00056193,0.013247,0.0084715,0.026198,9.2161e-07,0.65,0.5,0.85
0.034492,-0.00018304,-0.0052185,0.025888,-0.00010644,-0.00037305,4.036e-05,0.00016773,-4.8692e-05,0.052064,-0.015522,-0.016215,0.00020987,0.0008722,-0.0002532,0,0,0,0.025889,-1.665e-05,-0.00046347,0.013176,0.0084696,0.026132,9.155e-07,0.7,0.5,0.85
0.037091,-0.00017475,-0.0052968,0.025843,-0.00014831,-0.00020831,5.703e-05,9.7548e-05,-0.00016024,0.0519,-0.015678,-0.015834,0.00029655,0.00050725,-0.00083326,0,0,0,0.025844,-4.4198e-05,-0.00031374,0.013079,0.0084955,0.026025,9.049e-07,0.75,0.5,0.85
0.039682,-0.00016223,-0.0053897,0.025806,-0.00018608,-3.105e-05,5.8925e-05,1.8477e-05,-0.00020449,0.051742,-0.015837,-0.015434,0.00030641,9.6079e-05,-0.0010634,0,0,0,0.025807,6.7923e-06,-0.00022573,0.013017,0.0085295,0.025918,8.9392e-07,0.8,0.5,0.85
0.042265,-0.00014914,-0.0054802,0.025782,-0.00022304,0.00011363,4.94e-05,-5.2951e-05,-0.00019096,0.05163,-0.015983,-0.015108,0.00025688,-0.00027535,-0.00099299,0,0,0,0.025784,0.00012517,-0.00023616,0.01301,0.0085575,0.025841,8.8562e-07,0.85,0.5,0.85
0.044845,-0.00013829,-0.0055541,0.025772,-0.00025623,0.0002081,3.3923e-05,-0.0001066,-0.00014066,0.051573,-0.016101,-0.014893,0.0001764,-0.00055431,-0.00073144,0,0,0,0.025773,0.00023406,-0.0002831,0.013028,0.0085747,0.025802,8.8096e-07,0.9,0.5,0.85
0.047422,-0.00013131,-0.0056018,0.025771,-0.00027962,0.00025696,1.9191e-05,-0.00013879,-8.9221e-05,0.051555,-0.016176,-0.014781,9.9794e-05,-0.00072172,-0.00046395,0,0,0,0.025771,0.00029444,-0.00031748,0.013044,0.0085827,0.025788,8.7911e-07,0.95,0.5,0.85
0.048711,-0.00012892,-0.0056182,0.025771,-0.00028806,0.0002715,1.2991e-05,-0.0001494,-6.9244e-05,0.051552,-0.016202,-0.014747,6.7554e-05,-0.00077689,-0.00036007,0,0,0,0.025771,0.000313,-0.00032976,0.013051,0.0085849,0.025786,8.7871e-07,1,0.5,0.85
0.00093843,-6.0296e-05,-0.00060746,0.024949,0.009516,0.0089716,-0.00045715,-7.2919e-06,-0.0044893,0.038806,-0.0013207,-0.0027362,-0.0023772,-3.7918e-05,-0.023344,0,0,0,0.026169,0.0095117,0.0077568,0.0092059,0.014479,0.017606,2.7403e-07,0,0.55,0.85
0.0019403,-0.00012075,-0.0011983,0.025018,0.0084112,0.0073783,-0.00044611,-1.2865e-05,-0.00418,0.040563,-0.0026156,-0.0053012,-0.0023197,-6.6898e-05,-0.021736,0,0,0,0.026024,0.0084044,0.0063798,0.0098219,0.013603,0.018721,3.3068e-07,0.05,0.55,0.85
0.0040563,-0.00024059,-0.0023161,0.025468,0.0064924,0.0047192,-0.00041351,-2.1337e-05,-0.0033904,0.044209,-0.0051274,-0.0097377,-0.0021503,-0.00011095,-0.01763,0,0,0,0.026067,0.0064834,0.0041293,0.010969,0.012226,0.020867,4.5337e-07,0.1,0.55,0.85
0.0063612,-0.00035584,-0.003265,0.026054,0.0050022,0.0030128,-0.00036064,-2.5625e-05,-0.0024199,0.047298,-0.0074354,-0.012608,-0.0018753,-0.00013325,-0.012584,0,0,0,0.026344,0.004995,0.0027293,0.011807,0.011356,0.022574,5.7361e-07,0.15,0.55,0.85
0.0087861,-0.00046234,-0.0039993,0.02631,0.00376,0.0019854,-0.00029354,-2.7246e-05,-0.0015313,0.049173,-0.0094574,-0.014071,-0.0015264,-0.00014168,-0.007963,0,0,0,0.026429,0.0037562,0.0018701,0.01228,0.010685,0.023677,6.6785e-07,0.2,0.55,0.85
0.011279,-0.00055753,-0.0045279,0.026342,0.0027392,0.0013587,-0.00022296,-2.5962e-05,-0.00083716,0.050225,-0.011142,-0.014731,-0.0011594,-0.000135,-0.0043532,0,0,0,0.026383,0.0027389,0.0013183,0.012532,0.010147,0.024388,7.3645e-07,0.25,0.55,0.85
0.013809,-0.00064062,-0.0048813,0.026279,0.0019358,0.00095861,-0.00015858,-1.9733e-05,-0.00032629,0.050821,-0.012471,-0.015012,-0.00082464,-0.00010261,-0.0016967,0,0,0,0.02629,0.001938,0.00094553,0.012672,0.0097244,0.024865,7.8518e-07,0.3,0.55,0.85
0.016361,-0.00071224,-0.0050924,0.026189,0.0013296,0.00067174,-0.00010666,-5.349e-06,4.3651e-05,0.051178,-0.013458,-0.015168,-0.00055463,-2.7815e-05,0.00022699,0,0,0,0.026193,0.001333,0.000665,0.012764,0.0093969,0.025201,8.2008e-07,0.35,0.55,0.85
0.018926,-0.00077372,-0.0051927,0.026104,0.00088741,0.00041978,-6.8743e-05,1.9999e-05,0.00030213,0.051424,-0.01414,-0.015355,-0.00035746,0.00010399,0.0015711,0,0,0,0.026109,0.00089199,0.00041028,0.012849,0.0091371,0.025462,8.4685e-07,0.4,0.55,0.85
0.021503,-0.0008263,-0.0052134,0.026037,0.00057167,0.00015813,-4.2e-05,5.6344e-05,0.00045735,0.051636,-0.014574,-0.015649,-0.0002184,0.00029299,0.0023782,0,0,0,0.026045,0.00058175,0.00013958,0.012953,0.0089222,0.025688,8.698e-07,0.45,0.55,0.85
0.02409,-0.00087053,-0.0051873,0.02599,0.00034723,-0.00011678,-2.089e-05,9.8678e-05,0.00050468,0.051841,-0.014829,-0.016036,-0.00010863,0.00051312,0.0026243,0,0,0,0.026,0.00036901,-0.00014845,0.013074,0.0087401,0.025894,8.905e-07,0.5,0.55,0.85
0.026687,-0.00090609,-0.0051474,0.025957,0.00018642,-0.00036649,-1.6059e-07,0.00013686,0.00044345,0.052021,-0.014981,-0.016419,-8.3507e-07,0.00071166,0.0023059,0,0,0,0.025965,0.00022182,-0.00040973,0.013187,0.0085922,0.026065,9.0758e-07,0.55,0.55,0.85
0.029292,-0.00093218,-0.0051237,0.025927,7.1024e-05,-0.00052737,2.2071e-05,0.00015829,0.00029398,0.052127,-0.015098,-0.016653,0.00011477,0.00082313,0.0015287,0,0,0,0.025931,0.00011606,-0.00057641,0.013254,0.0084901,0.026168,9.1801e-07,0.6,0.55,0.85
0.0319,-0.00094848,-0.0051362,0.025892,-1.1097e-05,-0.00054898,4.3042e-05,0.00015344,0.00010283,0.05212,-0.015228,-0.016626,0.00022382,0.00079789,0.00053473,0,0,0,0.025893,3.6798e-05,-0.00059813,0.013246,0.008444,0.026181,9.1957e-07,0.65,0.55,0.85
0.034504,-0.00095592,-0.0051905,0.025852,-7.2052e-05,-0.000433,5.7416e-05,0.00012208,-7.211e-05,0.052006,-0.015395,-0.016334,0.00029856,0.00063481,-0.00037497,0,0,0,0.025853,-2.5532e-05,-0.00048035,0.013166,0.0084489,0.026109,9.1298e-07,0.7,0.55,0.85
0.0371,-0.00095668,-0.0052781,0.025812,-0.0001244,-0.00023433,6.1516e-05,7.3462e-05,-0.00018704,0.051839,-0.015595,-0.015881,0.00031989,0.000382,-0.0009726,0,0,0,0.025814,-4.9303e-05,-0.00031111,0.013062,0.0084844,0.025995,9.0182e-07,0.75,0.55,0.85
0.039688,-0.0009536,-0.0053814,0.025782,-0.00017602,-2.4562e-05,5.562e-05,2.0276e-05,-0.00022805,0.051684,-0.015806,-0.015413,0.00028923,0.00010543,-0.0011859,0,0,0,0.025784,1.5225e-05,-0.00021798,0.013001,0.008527,0.025886,8.9064e-07,0.8,0.55,0.85
0.042269,-0.00094921,-0.0054815,0.025767,-0.0002272,0.00014398,4.3144e-05,-2.6697e-05,-0.00020769,0.051583,-0.016001,-0.015036,0.00022435,-0.00013882,-0.00108,0,0,0,0.025768,0.00014769,-0.00023273,0.013001,0.0085611,0.025813,8.8267e-07,0.85,0.55,0.85
0.044846,-0.00094526,-0.0055626,0.025765,-0.00027241,0.00025199,2.8236e-05,-6.1235e-05,-0.00015022,0.051542,-0.016155,-0.014791,0.00014683,-0.00031842,-0.00078113,0,0,0,0.025766,0.0002617,-0.00028314,0.013024,0.0085815,0.025781,8.7871e-07,0.9,0.55,0.85
0.047423,-0.00094269,-0.0056147,0.025769,-0.0003038,0.00030642,1.4498e-05,-8.1592e-05,-9.4629e-05,0.051536,-0.016253,-0.014666,7.539e-05,-0.00042428,-0.00049207,0,0,0,0.025769,0.00032132,-0.00031911,0.013044,0.0085905,0.025774,8.7755e-07,0.95,0.55,0.85
0.048711,-0.00094181,-0.0056326,0.025772,-0.00031502,0.00032227,8.3479e-06,-8.823e-05,-7.3818e-05,0.051539,-0.016286,-0.014629,4.3409e-05,-0.00045879,-0.00038385,0,0,0,0.025772,0.00033897,-0.00033195,0.013052,0.0085929,0.025775,8.7743e-07,1,0.55,0.85
0.0009406,-0.00012729,-0.00060716,0.025004,0.0095121,0.0089889,-0.00096479,5.5201e-06,-0.0044871,0.038908,-0.0013717,-0.0027321,-0.0050169,2.8704e-05,-0.023333,0,0,0,0.026261,0.0094962,0.0077482,0.0092563,0.014502,0.017709,2.7916e-07,0,0.6,0.85
0.0019454,-0.00025339,-0.0011975,0.025074,0.0083814,0.0073907,-0.00093909,1.174e-05,-0.004178,0.040685,-0.002716,-0.0052917,-0.0048833,6.1046e-05,-0.021726,0,0,0,0.026114,0.0083561,0.0063761,0.0098688,0.013615,0.018832,3.3756e-07,0.05,0.6,0.85
0.0040685,-0.00050048,-0.002314,0.025527,0.0064167,0.0047254,-0.00086422,2.4877e-05,-0.0033892,0.044369,-0.0053181,-0.0097155,-0.004494,0.00012936,-0.017624,0,0,0,0.026154,0.0063829,0.0041326,0.011011,0.012223,0.020994,4.6366e-07,0.1,0.6,0.85
0.0063823,-0.00073235,-0.0032613,0.026115,0.0048944,0.0030178,-0.00074645,3.7996e-05,-0.0024209,0.047483,-0.0076911,-0.01257,-0.0038815,0.00019758,-0.012589,0,0,0,0.026426,0.0048666,0.0027351,0.011845,0.011342,0.022707,5.8625e-07,0.15,0.6,0.85
0.0088168,-0.00094053,-0.0039937,0.026366,0.0036366,0.001992,-0.00060001,4.863e-05,-0.0015356,0.049355,-0.0097415,-0.014017,-0.0031201,0.00025288,-0.0079852,0,0,0,0.026498,0.0036201,0.0018766,0.012311,0.010665,0.023802,6.8066e-07,0.2,0.6,0.85
0.011318,-0.0011199,-0.0045204,0.026384,0.0026173,0.0013688,-0.00044533,5.5496e-05,-0.00084466,0.050377,-0.011417,-0.014663,-0.0023157,0.00028858,-0.0043922,0,0,0,0.026432,0.0026126,0.0013257,0.012553,0.010123,0.024491,7.4738e-07,0.25,0.6,0.85
0.013854,-0.0012687,-0.0048718,0.026303,0.0018288,0.00097259,-0.00030052,5.8936e-05,-0.00033563,0.050925,-0.012708,-0.014934,-0.0015627,0.00030647,-0.0017453,0,0,0,0.026317,0.0018344,0.00095294,0.012682,0.0097013,0.024936,7.9291e-07,0.3,0.6,0.85
0.01641,-0.0013886,-0.0050805,0.026192,0.0012458,0.00068718,-0.00017786,6.0574e-05,3.4819e-05,0.051225,-0.013636,-0.015089,-0.00092487,0.00031499,0.00018106,0,0,0,0.026197,0.0012584,0.0006702,0.012763,0.0093751,0.025238,8.2415e-07,0.35,0.6,0.85
0.018977,-0.0014827,-0.0051778,0.026087,0.0008304,0.00043145,-8.289e-05,6.2507e-05,0.000296,0.051417,-0.01425,-0.015288,-0.00043103,0.00032504,0.0015392,0,0,0,0.026092,0.00084487,0.00041195,0.01284,0.0091163,0.025467,8.4754e-07,0.4,0.6,0.85
0.021552,-0.0015553,-0.0051948,0.026003,0.00054136,0.00015948,-1.5399e-05,6.6193e-05,0.00045493,0.051585,-0.014615,-0.015608,-8.0074e-05,0.0003442,0.0023656,0,0,0,0.026011,0.00055416,0.00013825,0.012937,0.0089012,0.025668,8.6786e-07,0.45,0.6,0.85
0.024135,-0.0016108,-0.0051647,0.025944,0.00034057,-0.00013192,2.8639e-05,7.1381e-05,0.00050508,0.051762,-0.014806,-0.016034,0.00014893,0.00037118,0.0026264,0,0,0,0.025954,0.00035261,-0.00015392,0.013054,0.0087174,0.025858,8.8689e-07,0.5,0.6,0.85
0.026728,-0.0016526,-0.0051217,0.025902,0.00019789,-0.00040074,5.4743e-05,7.5883e-05,0.00044348,0.051926,-0.014905,-0.016462,0.00028466,0.00039459,0.0023061,0,0,0,0.02591,0.00021132,-0.00042216,0.013166,0.0085665,0.026022,9.031e-07,0.55,0.6,0.85
0.029328,-0.0016836,-0.0050966,0.025868,9.4172e-05,-0.00057488,6.7898e-05,7.626e-05,0.00028981,0.052025,-0.014988,-0.016727,0.00035307,0.00039655,0.001507,0,0,0,0.025873,0.00010923,-0.00059406,0.013233,0.0084626,0.026123,9.1312e-07,0.6,0.6,0.85
0.031931,-0.0017063,-0.0051105,0.025834,1.7517e-05,-0.00059633,7.146e-05,6.9587e-05,9.282e-05,0.052015,-0.015107,-0.016703,0.00037159,0.00036185,0.00048266,0,0,0,0.025835,3.2941e-05,-0.0006131,0.013224,0.0084183,0.026132,9.1438e-07,0.65,0.6,0.85
0.03453,-0.0017226,-0.0051689,0.025797,-4.365e-05,-0.00046665,6.7431e-05,5.5949e-05,-8.6398e-05,0.0519,-0.015285,-0.016385,0.00035064,0.00029093,-0.00044927,0,0,0,0.025798,-2.8076e-05,-0.0004832,0.01314,0.0084288,0.026057,9.0749e-07,0.7,0.6,0.85
0.037121,-0.0017343,-0.0052622,0.025762,-0.00010115,-0.0002481,5.7734e-05,3.8519e-05,-0.00020178,0.051734,-0.015511,-0.015893,0.00030021,0.0002003,-0.0010492,0,0,0,0.025764,-5.0157e-05,-0.00030097,0.013033,0.008471,0.025941,8.9621e-07,0.75,0.6,0.85
0.039703,-0.0017429,-0.0053717,0.025738,-0.00016119,-2.0456e-05,4.4819e-05,2.1215e-05,-0.00023991,0.051586,-0.015753,-0.015387,0.00023306,0.00011032,-0.0012475,0,0,0,0.025741,2.1134e-05,-0.00020514,0.012973,0.0085189,0.025834,8.8523e-07,0.8,0.6,0.85
0.042279,-0.0017492,-0.0054772,0.02573,-0.00022149,0.00016065,3.1286e-05,7.0204e-06,-0.00021543,0.051497,-0.015978,-0.014984,0.00016269,3.6506e-05,-0.0011203,0,0,0,0.025732,0.00016155,-0.00022431,0.012978,0.0085565,0.025766,8.7779e-07,0.85,0.6,0.85
0.044853,-0.0017538,-0.0055624,0.025735,-0.00027449,0.00027568,1.907e-05,-2.7121e-06,-0.00015418,0.051469,-0.016155,-0.014725,9.9164e-05,-1.4103e-05,-0.00080175,0,0,0,0.025736,0.0002785,-0.00027837,0.013007,0.0085786,0.02574,8.745e-07,0.9,0.6,0.85
0.047426,-0.0017566,-0.005617,0.025743,-0.00031112,0.00033277,7.8953e-06,-8.099e-06,-9.6853e-05,0.051473,-0.016268,-0.014594,4.1056e-05,-4.2115e-05,-0.00050364,0,0,0,0.025744,0.0003375,-0.00031627,0.01303,0.0085883,0.025739,8.7389e-07,0.95,0.6,0.85
0.048713,-0.0017575,-0.0056357,0.025747,-0.0003242,0.00034915,2.331e-06,-9.7866e-06,-7.5935e-05,0.051479,-0.016306,-0.014555,1.2121e-05,-5.089e-05,-0.00039486,0,0,0,0.025747,0.00035453,-0.00032981,0.013039,0.0085907,0.025742,8.7399e-07,1,0.6,0.85
0.00094352,-0.00019747,-0.00060453,0.025077,0.0094991,0.0090076,-0.0014952,1.9131e-05,-0.0044666,0.03905,-0.0014525,-0.0027303,-0.007775,9.9479e-05,-0.023226,0,0,0,0.026393,0.0094624,0.0077276,0.0093329,0.014528,0.017866,2.8718e-07,0,0.65,0.85
0.0019525,-0.00039235,-0.0011923,0.025147,0.0083258,0.0073994,-0.0014518,3.7863e-05,-0.0041575,0.040859,-0.0028761,-0.0052849,-0.0075491,0.00019689,-0.021619,0,0,0,0.026242,0.0082678,0.0063626,0.0099395,0.013624,0.019005,3.484e-07,0.05,0.65,0.85
0.0040859,-0.0007724,-0.0023035,0.025605,0.0062864,0.0047203,-0.001326,7.3926e-05,-0.0033697,0.044606,-0.0056224,-0.0096943,-0.0068952,0.00038441,-0.017522,0,0,0,0.026275,0.0062097,0.0041274,0.011074,0.012204,0.021191,4.7988e-07,0.1,0.65,0.85
0.0064131,-0.001125,-0.0032457,0.026195,0.0047136,0.0030073,-0.0011313,0.00010551,-0.0024042,0.047758,-0.0080942,-0.012531,-0.0058827,0.00054863,-0.012502,0,0,0,0.026535,0.0046536,0.0027273,0.011904,0.011305,0.022913,6.0585e-07,0.15,0.65,0.85
0.0088616,-0.0014365,-0.0039739,0.026435,0.0034355,0.00198,-0.00089385,0.00012908,-0.0015239,0.04962,-0.010178,-0.013962,-0.004648,0.00067124,-0.0079244,0,0,0,0.026585,0.0034062,0.0018596,0.012363,0.010617,0.023994,7.0006e-07,0.2,0.65,0.85
0.011375,-0.0016992,-0.0044976,0.026432,0.0024242,0.0013578,-0.00064738,0.00014171,-0.00083898,0.050594,-0.011825,-0.014598,-0.0033664,0.0007369,-0.0043627,0,0,0,0.026489,0.0024277,0.0012972,0.012596,0.010071,0.024648,7.6358e-07,0.25,0.65,0.85
0.013921,-0.0019114,-0.0048473,0.026323,0.0016627,0.00096366,-0.00041956,0.00014191,-0.00033588,0.051069,-0.013046,-0.014864,-0.0021817,0.00073792,-0.0017466,0,0,0,0.02634,0.0016946,0.00091382,0.012713,0.0096496,0.025047,8.0429e-07,0.3,0.65,0.85
0.016482,-0.0020759,-0.0050557,0.026184,0.0011156,0.0006805,-0.00022777,0.00012959,2.9556e-05,0.051291,-0.013888,-0.015019,-0.0011844,0.00067387,0.00015369,0,0,0,0.02619,0.0011629,0.00062782,0.012781,0.0093267,0.025299,8.304e-07,0.35,0.65,0.85
0.01905,-0.0021987,-0.0051536,0.026054,0.00073722,0.00042693,-7.9662e-05,0.000106,0.00028713,0.05141,-0.014414,-0.015221,-0.00041424,0.00055121,0.0014931,0,0,0,0.026059,0.00077853,0.00038063,0.012839,0.0090728,0.025482,8.4922e-07,0.4,0.65,0.85
0.021623,-0.0022878,-0.0051721,0.025952,0.00048161,0.00015705,2.3963e-05,7.3989e-05,0.00044402,0.05152,-0.014702,-0.015546,0.00012461,0.00038474,0.0023089,0,0,0,0.02596,0.00050321,0.00012726,0.012916,0.0088634,0.025647,8.6584e-07,0.45,0.65,0.85
0.024202,-0.0023511,-0.005144,0.02588,0.00030851,-0.00013233,8.6403e-05,3.8388e-05,0.00049369,0.051654,-0.014831,-0.015978,0.00044929,0.00019962,0.0025672,0,0,0,0.02589,0.000316,-0.00014967,0.01302,0.0086853,0.02581,8.8208e-07,0.5,0.65,0.85
0.026788,-0.0023966,-0.0051031,0.025832,0.0001871,-0.00039935,0.00011363,5.6682e-06,0.000433,0.051791,-0.014885,-0.01641,0.00059089,2.9475e-05,0.0022516,0,0,0,0.02584,0.00019214,-0.00041243,0.013126,0.0085398,0.025956,8.9634e-07,0.55,0.65,0.85
0.029381,-0.002431,-0.0050801,0.025795,9.8385e-05,-0.00057221,0.00011382,-1.7328e-05,0.0002813,0.051875,-0.014937,-0.016681,0.00059189,-9.0108e-05,0.0014628,0,0,0,0.0258,0.00010554,-0.00058362,0.013192,0.0084405,0.026046,9.0519e-07,0.6,0.65,0.85
0.031976,-0.0024592,-0.0050959,0.025761,3.1107e-05,-0.00059321,9.6762e-05,-2.5631e-05,8.6871e-05,0.05186,-0.015039,-0.016662,0.00050316,-0.00013328,0.00045173,0,0,0,0.025763,3.9465e-05,-0.00060302,0.013183,0.0083998,0.026052,9.0598e-07,0.65,0.65,0.85
0.034567,-0.0024844,-0.0051559,0.025727,-2.5353e-05,-0.00046403,7.2314e-05,-1.8878e-05,-8.9733e-05,0.051748,-0.015209,-0.016349,0.00037603,-9.8168e-05,-0.00046661,0,0,0,0.025728,-1.7778e-05,-0.00047263,0.013101,0.0084127,0.025978,8.9918e-07,0.7,0.65,0.85
0.037151,-0.0025078,-0.0052504,0.025697,-8.1639e-05,-0.00024674,4.8207e-05,-1.2856e-06,-0.00020292,0.051591,-0.015433,-0.015863,0.00025067,-6.685e-06,-0.0010552,0,0,0,0.025699,-4.2658e-05,-0.00028758,0.012993,0.0084562,0.025865,8.8838e-07,0.75,0.65,0.85
0.039726,-0.0025289,-0.0053608,0.025677,-0.0001427,-2.0725e-05,2.8822e-05,2.1142e-05,-0.00023956,0.051453,-0.015679,-0.015362,0.00014988,0.00010994,-0.0012457,0,0,0,0.02568,2.4345e-05,-0.00019009,0.012935,0.0085046,0.025763,8.7804e-07,0.8,0.65,0.85
0.042296,-0.002547,-0.005467,0.025673,-0.0002051,0.00015876,1.5435e-05,4.2868e-05,-0.00021435,0.051374,-0.015909,-0.014963,8.0262e-05,0.00022291,-0.0011146,0,0,0,0.025675,0.00016421,-0.00021243,0.012944,0.0085422,0.025701,8.7122e-07,0.85,0.65,0.85
0.044864,-0.0025608,-0.0055526,0.02568,-0.00026029,0.00027246,7.2922e-06,6.0052e-05,-0.00015306,0.051354,-0.016092,-0.014707,3.792e-05,0.00031227,-0.00079589,0,0,0,0.025682,0.00028213,-0.000271,0.012976,0.0085642,0.025681,8.6843e-07,0.9,0.65,0.85
0.047431,-0.0025695,-0.0056075,0.025691,-0.00029851,0.0003287,-1.299e-07,7.0784e-05,-9.6237e-05,0.051364,-0.016209,-0.014578,-6.755e-07,0.00036808,-0.00050043,0,0,0,0.025691,0.0003414,-0.00031163,0.013001,0.0085737,0.025683,8.6814e-07,0.95,0.65,0.85
0.048716,-0.0025724,-0.0056263,0.025695,-0.00031216,0.00034478,-4.6165e-06,7.4403e-05,-7.5705e-05,0.051371,-0.016248,-0.01454,-2.4006e-05,0.0003869,-0.00039367,0,0,0,0.025696,0.00035851,-0.00032613,0.013011,0.008576,0.025687,8.6834e-07,1,0.65,0.85
0.00094779,-0.00027253,-0.0005997,0.025181,0.0094754,0.0090317,-0.0020594,3.2433e-05,-0.0044288,0.039258,-0.0015769,-0.0027304,-0.010709,0.00016865,-0.02303,0,0,0,0.026585,0.0094111,0.0076915,0.009447,0.014563,0.0181,2.9923e-07,0,0.7,0.85
0.0019629,-0.000541,-0.0011827,0.02525,0.0082358,0.0074061,-0.0019919,6.3463e-05,-0.0041194,0.041115,-0.0031223,-0.0052793,-0.010358,0.00033001,-0.021421,0,0,0,0.026424,0.0081335,0.006335,0.010044,0.013631,0.019259,3.6462e-07,0.05,0.7,0.85
0.0041115,-0.0010627,-0.0022849,0.025711,0.0060816,0.0047023,-0.0017983,0.00012212,-0.0033323,0.044952,-0.006085,-0.0096712,-0.0093513,0.00063503,-0.017328,0,0,0,0.026439,0.0059471,0.0041091,0.011165,0.012165,0.021479,5.0378e-07,0.1,0.7,0.85
0.0064581,-0.0015418,-0.003219,0.026299,0.0044385,0.0029786,-0.0015044,0.00017181,-0.0023705,0.048147,-0.0086894,-0.012485,-0.0078228,0.00089342,-0.012327,0,0,0,0.026676,0.0043398,0.0027004,0.011988,0.011239,0.023206,6.338e-07,0.15,0.7,0.85
0.0089263,-0.0019583,-0.0039409,0.026516,0.0031422,0.001947,-0.0011565,0.00020762,-0.0014969,0.049979,-0.010793,-0.013901,-0.006014,0.0010796,-0.0077837,0,0,0,0.026686,0.0031101,0.0018096,0.012438,0.010535,0.024256,7.2644e-07,0.2,0.7,0.85
0.011456,-0.0023024,-0.0044606,0.026477,0.002155,0.001324,-0.00080825,0.00022493,-0.00082075,0.050866,-0.01237,-0.014531,-0.0042029,0.0011696,-0.0042679,0,0,0,0.026543,0.0021925,0.0012207,0.012661,0.0099852,0.024852,7.8432e-07,0.25,0.7,0.85
0.014013,-0.0025734,-0.0048092,0.026327,0.0014403,0.00093055,-0.00049753,0.00022087,-0.00032756,0.051231,-0.013474,-0.014799,-0.0025872,0.0011485,-0.0017033,0,0,0,0.026348,0.0015318,0.0008183,0.012765,0.0095659,0.025181,8.1785e-07,0.3,0.7,0.85
0.016579,-0.0027773,-0.0050192,0.026152,0.0009457,0.00065058,-0.00024368,0.00019426,2.7632e-05,0.051346,-0.01419,-0.014957,-0.0012671,0.0010102,0.00014369,0,0,0,0.026158,0.001057,0.00053339,0.012812,0.0092493,0.025367,8.3717e-07,0.35,0.7,0.85
0.019147,-0.0029241,-0.0051215,0.025994,0.00061526,0.00040522,-5.2473e-05,0.00014599,0.00027559,0.051376,-0.014609,-0.015155,-0.00027286,0.00075917,0.0014331,0,0,0,0.025999,0.00070103,0.00031473,0.012842,0.0090049,0.025493,8.5035e-07,0.4,0.7,0.85
0.021717,-0.0030255,-0.0051464,0.025874,0.00039885,0.00015003,7.7274e-05,8.0503e-05,0.00042497,0.051418,-0.014816,-0.015463,0.00040183,0.00041861,0.0022099,0,0,0,0.025881,0.00043632,0.00010471,0.012888,0.0088075,0.025613,8.6253e-07,0.45,0.7,0.85
0.024289,-0.0030939,-0.0051259,0.025793,0.00025585,-0.00011856,0.00014996,7.3972e-06,0.000471,0.051503,-0.014893,-0.015866,0.00077981,3.8466e-05,0.0024492,0,0,0,0.025802,0.00026589,-0.00013825,0.01297,0.0086433,0.025741,8.7527e-07,0.5,0.7,0.85
0.026867,-0.0031411,-0.0050922,0.025742,0.00015719,-0.00036263,0.00017286,-5.8985e-05,0.00041247,0.051607,-0.014913,-0.016265,0.00089888,-0.00030672,0.0021449,0,0,0,0.02575,0.00016962,-0.00038311,0.013066,0.0085121,0.025862,8.8689e-07,0.55,0.7,0.85
0.02945,-0.0031773,-0.0050747,0.025707,8.5372e-05,-0.00051953,0.00015733,-0.00010279,0.00026876,0.051674,-0.014942,-0.016514,0.0008181,-0.00053448,0.0013975,0,0,0,0.025711,0.00010842,-0.00054697,0.013129,0.0084242,0.025938,8.9411e-07,0.6,0.7,0.85
0.032034,-0.0032102,-0.0050928,0.025676,3.0276e-05,-0.00053974,0.00011888,-0.00011256,8.5027e-05,0.051658,-0.015021,-0.016503,0.0006182,-0.00058529,0.00044214,0,0,0,0.025678,5.7762e-05,-0.0005688,0.013123,0.0083889,0.02594,8.9448e-07,0.65,0.7,0.85
0.034616,-0.0032434,-0.0051518,0.025646,-1.7328e-05,-0.00042523,7.4208e-05,-8.7752e-05,-8.2357e-05,0.051557,-0.015167,-0.016227,0.00038588,-0.00045631,-0.00042826,0,0,0,0.025647,5.8056e-06,-0.00044934,0.013048,0.008401,0.025872,8.8832e-07,0.7,0.7,0.85
0.03719,-0.0032776,-0.0052431,0.025618,-6.6508e-05,-0.00023033,3.6071e-05,-3.8734e-05,-0.00019093,0.051414,-0.015366,-0.015792,0.00018757,-0.00020142,-0.00099283,0,0,0,0.02562,-2.6396e-05,-0.00027211,0.012946,0.0084405,0.02577,8.7864e-07,0.75,0.7,0.85
0.039757,-0.0033108,-0.0053493,0.025601,-0.00012142,-2.5505e-05,1.0528e-05,1.9702e-05,-0.00022759,0.051289,-0.015588,-0.015339,5.4746e-05,0.00010245,-0.0011835,0,0,0,0.025603,2.494e-05,-0.00017396,0.012888,0.0084846,0.025678,8.6938e-07,0.8,0.7,0.85
0.042319,-0.0033401,-0.0054515,0.025597,-0.00017894,0.00013809,-2.3839e-06,7.4233e-05,-0.00020507,0.051218,-0.015799,-0.014975,-1.2396e-05,0.00038601,-0.0010663,0,0,0,0.025599,0.00015535,-0.00019793,0.012898,0.0085186,0.025622,8.6325e-07,0.85,0.7,0.85
0.044879,-0.003363,-0.005534,0.025604,-0.00023069,0.00024202,-5.9531e-06,0.00011618,-0.00014733,0.051201,-0.015969,-0.01474,-3.0956e-05,0.00060415,-0.00076613,0,0,0,0.025605,0.00027206,-0.0002617,0.012933,0.0085383,0.025604,8.6075e-07,0.9,0.7,0.85
0.047439,-0.0033775,-0.0055869,0.025613,-0.00026678,0.00029381,-8.9284e-06,0.00014183,-9.3093e-05,0.05121,-0.016078,-0.01462,-4.6428e-05,0.00073751,-0.00048408,0,0,0,0.025614,0.00033224,-0.00030561,0.01296,0.0085468,0.025607,8.605e-07,0.95,0.7,0.85
0.048719,-0.0033824,-0.0056051,0.025618,-0.00027971,0.00030874,-1.194e-05,0.00015037,-7.334e-05,0.051218,-0.016115,-0.014585,-6.2088e-05,0.00078194,-0.00038137,0,0,0,0.025618,0.00035004,-0.00032123,0.01297,0.0085489,0.02561,8.6069e-07,1,0.7,0.85
0.00095465,-0.00035515,-0.00059312,0.025346,0.0094371,0.0090698,-0.0026737,4.401e-05,-0.0043767,0.039588,-0.0017754,-0.0027302,-0.013903,0.00022885,-0.022759,0,0,0,0.026875,0.0093474,0.007631,0.0096218,0.014618,0.018449,3.1765e-07,0,0.75,0.85
0.0019794,-0.00070458,-0.0011698,0.02541,0.0080919,0.0074148,-0.0025693,8.5991e-05,-0.0040666,0.041515,-0.0035109,-0.0052712,-0.013361,0.00044715,-0.021146,0,0,0,0.02669,0.0079471,0.0062789,0.010206,0.013639,0.019637,3.8903e-07,0.05,0.75,0.85
0.0041515,-0.0013809,-0.0022598,0.025865,0.0057631,0.004669,-0.0022751,0.00016501,-0.0032798,0.04547,-0.006794,-0.0096386,-0.01183,0.00085805,-0.017055,0,0,0,0.026664,0.0055741,0.0040586,0.011303,0.012099,0.021896,5.385e-07,0.1,0.75,0.85
0.0065264,-0.0019939,-0.0031834,0.026435,0.004032,0.0029285,-0.0018435,0.00023095,-0.0023227,0.048694,-0.0095541,-0.012423,-0.0095861,0.0012009,-0.012078,0,0,0,0.026851,0.0039097,0.0026352,0.012108,0.011132,0.023611,6.722e-07,0.15,0.75,0.85
0.0090209,-0.0025158,-0.0038974,0.026606,0.002737,0.0018922,-0.0013578,0.00027678,-0.001458,0.050435,-0.011625,-0.013822,-0.0070606,0.0014393,-0.0075815,0,0,0,0.026792,0.0027362,0.0017071,0.012543,0.010412,0.02459,7.5979e-07,0.2,0.75,0.85
0.01157,-0.0029363,-0.0044126,0.026505,0.001808,0.0012687,-0.0009001,0.00029646,-0.00079364,0.051164,-0.013048,-0.01445,-0.0046805,0.0015416,-0.0041269,0,0,0,0.026576,0.0019221,0.0010838,0.012746,0.0098605,0.025084,8.0772e-07,0.25,0.75,0.85
0.014137,-0.0032588,-0.0047606,0.026295,0.0011701,0.0008757,-0.00051513,0.00028677,-0.00031381,0.051362,-0.013962,-0.014727,-0.0026787,0.0014912,-0.0016318,0,0,0,0.026316,0.001356,0.00066833,0.012824,0.0094468,0.025311,8.3082e-07,0.3,0.75,0.85
0.016706,-0.0034948,-0.0049741,0.026073,0.00074764,0.00060005,-0.00021583,0.00024667,2.7064e-05,0.051338,-0.014509,-0.014892,-0.0011223,0.0012827,0.00014073,0,0,0,0.026079,0.00094382,0.00039841,0.01284,0.0091403,0.025412,8.4158e-07,0.35,0.75,0.85
0.019271,-0.0036597,-0.0050837,0.025888,0.00047595,0.00036809,5.8192e-07,0.00017764,0.00026089,0.05127,-0.014802,-0.015082,3.0261e-06,0.00092375,0.0013566,0,0,0,0.025892,0.00061636,0.00022334,0.012835,0.0089107,0.025475,8.4847e-07,0.4,0.75,0.85
0.021833,-0.0037694,-0.0051191,0.025755,0.0003035,0.00013831,0.0001411,8.5913e-05,0.00039879,0.051246,-0.014929,-0.015359,0.00073372,0.00044675,0.0020737,0,0,0,0.025763,0.00036236,7.1846e-05,0.012846,0.0087324,0.025547,8.5605e-07,0.45,0.75,0.85
0.024396,-0.0038404,-0.0051104,0.025673,0.00019199,-9.4798e-05,0.00021317,-1.5191e-05,0.00043937,0.051287,-0.014963,-0.015708,0.0011085,-7.8991e-05,0.0022847,0,0,0,0.025682,0.00021089,-0.00012318,0.012903,0.00859,0.02564,8.6527e-07,0.5,0.75,0.85
0.026962,-0.0038879,-0.0050879,0.025627,0.0001161,-0.00030135,0.00022607,-0.00010572,0.00038443,0.051364,-0.014963,-0.016048,0.0011756,-0.00054972,0.001999,0,0,0,0.025635,0.00014709,-0.00034034,0.012987,0.0084805,0.025735,8.7427e-07,0.55,0.75,0.85
0.029532,-0.0039251,-0.005078,0.025599,6.148e-05,-0.00043258,0.0001939,-0.00016398,0.00025331,0.051421,-0.014977,-0.016262,0.0010083,-0.0008527,0.0013172,0,0,0,0.025604,0.0001155,-0.00049112,0.013047,0.0084094,0.025798,8.8002e-07,0.6,0.75,0.85
0.032104,-0.0039614,-0.0050987,0.025576,1.9866e-05,-0.0004515,0.00013622,-0.00017499,8.6485e-05,0.051412,-0.015035,-0.016261,0.00070833,-0.00090995,0.00044972,0,0,0,0.025578,8.1924e-05,-0.00051524,0.013047,0.0083816,0.025801,8.8036e-07,0.65,0.75,0.85
0.034673,-0.0040011,-0.005155,0.025552,-1.6214e-05,-0.00036046,7.4142e-05,-0.00013816,-6.6719e-05,0.05133,-0.015147,-0.016042,0.00038554,-0.00071842,-0.00034694,0,0,0,0.025553,3.5657e-05,-0.0004132,0.012983,0.0083918,0.025745,8.7538e-07,0.7,0.75,0.85
0.037237,-0.0040443,-0.0052398,0.025528,-5.423e-05,-0.00020199,2.39e-05,-6.7328e-05,-0.0001686,0.05121,-0.015304,-0.015688,0.00012428,-0.00035011,-0.00087671,0,0,0,0.02553,-6.1806e-06,-0.00025139,0.012891,0.008424,0.02566,8.6737e-07,0.75,0.75,0.85
0.039794,-0.0040877,-0.0053379,0.025511,-9.8129e-05,-3.3096e-05,-7.1404e-06,1.6894e-05,-0.00020611,0.051101,-0.015483,-0.015314,-3.713e-05,8.7849e-05,-0.0010718,0,0,0,0.025513,2.2649e-05,-0.00015563,0.012834,0.00846,0.02558,8.5952e-07,0.8,0.75,0.85
0.042347,-0.0041268,-0.0054324,0.025505,-0.00014571,0.00010309,-1.9716e-05,9.5521e-05,-0.000189,0.051036,-0.015656,-0.01501,-0.00010253,0.00049671,-0.0009828,0,0,0,0.025507,0.00013678,-0.0001809,0.012844,0.0084876,0.025531,8.5416e-07,0.85,0.75,0.85
0.044898,-0.0041577,-0.0055091,0.025508,-0.00018954,0.00019051,-1.904e-05,0.00015611,-0.0001378,0.051016,-0.015798,-0.01481,-9.9009e-05,0.00081179,-0.00071657,0,0,0,0.025509,0.00024928,-0.00024918,0.012879,0.0085031,0.025513,8.5179e-07,0.9,0.75,0.85
0.047449,-0.0041772,-0.0055584,0.025515,-0.0002205,0.00023479,-1.7557e-05,0.00019321,-8.7867e-05,0.051021,-0.015891,-0.014707,-9.1295e-05,0.0010047,-0.00045691,0,0,0,0.025515,0.00030976,-0.00029583,0.012906,0.0085097,0.025514,8.5136e-07,0.95,0.75,0.85
0.048724,-0.0041839,-0.0055754,0.025518,-0.00023165,0.00024774,-1.893e-05,0.00020558,-6.9263e-05,0.051026,-0.015923,-0.014676,-9.8435e-05,0.001069,-0.00036017,0,0,0,0.025518,0.00032822,-0.00031234,0.012915,0.0085114,0.025517,8.5144e-07,1,0.75,0.85
0.00096665,-0.00045007,-0.00058562,0.02563,0.0093721,0.0091373,-0.0033625,5.1788e-05,-0.0043165,0.040155,-0.0021162,-0.0027266,-0.017485,0.0002693,-0.022446,0,0,0,0.027331,0.0092868,0.0075216,0.0099048,0.014713,0.018993,3.4713e-07,0,0.8,0.85
0.0020077,-0.00089209,-0.001155,0.025674,0.0078516,0.0074306,-0.0031932,0.00010191,-0.0040048,0.042178,-0.0041594,-0.0052539,-0.016605,0.00052991,-0.020825,0,0,0,0.027095,0.007715,0.0061462,0.010474,0.013652,0.020217,4.2697e-07,0.05,0.8,0.85
0.0042178,-0.0017421,-0.0022312,0.026095,0.0052567,0.0046133,-0.002733,0.00019681,-0.0032178,0.046267,-0.0079114,-0.0095842,-0.014212,0.0010234,-0.016733,0,0,0,0.026972,0.0050932,0.0038998,0.011536,0.011988,0.022507,5.8919e-07,0.1,0.8,0.85
0.0066345,-0.0024972,-0.0031429,0.026612,0.0034414,0.0028516,-0.0021004,0.0002756,-0.0022666,0.049448,-0.010795,-0.012329,-0.010922,0.0014331,-0.011787,0,0,0,0.027057,0.0033864,0.002462,0.012297,0.010968,0.02415,7.2303e-07,0.15,0.8,0.85
0.0091626,-0.0031208,-0.0038481,0.02669,0.0022089,0.0018159,-0.001448,0.00032782,-0.0014134,0.050964,-0.012686,-0.013707,-0.0075297,0.0017047,-0.0073495,0,0,0,0.02688,0.0023233,0.0015108,0.012685,0.010238,0.024975,7.9792e-07,0.2,0.8,0.85
0.011731,-0.0036072,-0.0043589,0.026482,0.0013968,0.0011942,-0.00088934,0.00034663,-0.00076327,0.05141,-0.013812,-0.014339,-0.0046246,0.0018025,-0.003969,0,0,0,0.02655,0.0016448,0.000878,0.012836,0.0096911,0.025298,8.291e-07,0.25,0.8,0.85
0.014304,-0.0039696,-0.0047071,0.026187,0.00087193,0.00080165,-0.00045739,0.00033014,-0.00029868,0.051369,-0.014449,-0.014632,-0.0023784,0.0017167,-0.0015532,0,0,0,0.026206,0.0011761,0.00047865,0.012863,0.0092867,0.025385,8.381e-07,0.3,0.8,0.85
0.016868,-0.0042282,-0.0049254,0.025915,0.00054025,0.00053176,-0.00014309,0.00027898,2.6273e-05,0.051187,-0.014788,-0.01481,-0.00074404,0.0014507,0.00013662,0,0,0,0.02592,0.00082246,0.00024525,0.012837,0.0089958,0.025391,8.3931e-07,0.35,0.8,0.85
0.019422,-0.0044043,-0.0050441,0.025711,0.00033495,0.00031727,7.2525e-05,0.00019612,0.00024425,0.051031,-0.014947,-0.014993,0.00037713,0.0010198,0.0012701,0,0,0,0.025715,0.00052621,0.00012194,0.012797,0.0087877,0.025394,8.4032e-07,0.4,0.8,0.85
0.021971,-0.0045185,-0.0050918,0.02558,0.00020849,0.00011982,0.00020488,8.9286e-05,0.00036915,0.050963,-0.015003,-0.015233,0.0010654,0.00046429,0.0019196,0,0,0,0.025587,0.00028925,3.1537e-05,0.012778,0.008636,0.025428,8.4422e-07,0.45,0.8,0.85
0.024519,-0.0045902,-0.005097,0.02551,0.0001282,-6.9509e-05,0.000265,-2.6225e-05,0.00040386,0.050985,-0.015008,-0.015522,0.001378,-0.00013637,0.0021001,0,0,0,0.025519,0.00015852,-0.00010912,0.012814,0.0085229,0.025496,8.5094e-07,0.5,0.8,0.85
0.027069,-0.0046374,-0.0050873,0.025481,7.4025e-05,-0.00023175,0.00026383,-0.00012814,0.00035353,0.051056,-0.015001,-0.015796,0.0013719,-0.0006663,0.0018384,0,0,0,0.025489,0.00012515,-0.00029071,0.01289,0.008441,0.025574,8.5829e-07,0.55,0.8,0.85
0.029624,-0.004675,-0.0050861,0.025471,3.5532e-05,-0.00033358,0.00021684,-0.00019286,0.00023718,0.05112,-0.015011,-0.015971,0.0011276,-0.0010029,0.0012334,0,0,0,0.025475,0.00012056,-0.00042312,0.012949,0.0083908,0.025631,8.6346e-07,0.6,0.8,0.85
0.032181,-0.0047137,-0.0051094,0.025462,6.9995e-06,-0.00035037,0.00014513,-0.00020467,8.9885e-05,0.051131,-0.015053,-0.015982,0.00075467,-0.0010643,0.0004674,0,0,0,0.025464,0.00010226,-0.00044735,0.012956,0.008373,0.025642,8.6446e-07,0.65,0.8,0.85
0.034737,-0.0047582,-0.0051621,0.025449,-1.7108e-05,-0.00028487,7.1388e-05,-0.00016305,-4.6955e-05,0.051078,-0.015132,-0.015829,0.00037122,-0.00084788,-0.00024417,0,0,0,0.025449,6.1606e-05,-0.00036432,0.012907,0.0083822,0.025604,8.6115e-07,0.7,0.8,0.85
0.037289,-0.004808,-0.0052388,0.02543,-4.2858e-05,-0.00016801,1.3174e-05,-8.2842e-05,-0.00014108,0.050987,-0.015243,-0.015568,6.8506e-05,-0.00043078,-0.00073364,0,0,0,0.025431,1.1508e-05,-0.00022339,0.012827,0.0084065,0.025538,8.5516e-07,0.75,0.8,0.85
0.039836,-0.0048591,-0.005327,0.025413,-7.3971e-05,-4.1903e-05,-2.149e-05,1.3231e-05,-0.00017988,0.050896,-0.015371,-0.015288,-0.00011175,6.88e-05,-0.00093535,0,0,0,0.025415,1.7799e-05,-0.00013506,0.012775,0.0084325,0.025474,8.489e-07,0.8,0.8,0.85
0.042379,-0.0049058,-0.0054121,0.025403,-0.00010917,6.1006e-05,-3.3689e-05,0.00010363,-0.00016965,0.050835,-0.015497,-0.015054,-0.00017518,0.00053888,-0.00088217,0,0,0,0.025404,0.00011179,-0.00016121,0.012783,0.0084517,0.025431,8.4428e-07,0.85,0.8,0.85
0.044919,-0.0049429,-0.0054817,0.0254,-0.00014255,0.00012817,-2.9725e-05,0.00017386,-0.00012653,0.050809,-0.015602,-0.014898,-0.00015457,0.00090409,-0.00065797,0,0,0,0.025401,0.00021565,-0.00023079,0.012816,0.008462,0.025412,8.4188e-07,0.9,0.8,0.85
0.04746,-0.0049665,-0.0055267,0.025402,-0.00016656,0.00016285,-2.4678e-05,0.00021717,-8.1715e-05,0.050805,-0.015672,-0.014815,-0.00012832,0.0011293,-0.00042492,0,0,0,0.025402,0.00027398,-0.00027802,0.01284,0.0084659,0.025409,8.4112e-07,0.95,0.8,0.85
0.04873,-0.0049747,-0.0055422,0.025403,-0.00017529,0.00017315,-2.4693e-05,0.00023166,-6.4412e-05,0.050806,-0.015696,-0.01479,-0.00012841,0.0012046,-0.00033494,0,0,0,0.025403,0.00029231,-0.00029465,0.012849,0.0084668,0.025409,8.4101e-07,1,0.8,0.85
0.00099036,-0.00056677,-0.00057864,0.026157,0.0092307,0.0092588,-0.0041685,5.229e-05,-0.0042587,0.041221,-0.0027881,-0.0027151,-0.021676,0.00027191,-0.022145,0,0,0,0.028097,0.0092609,0.0072891,0.010404,0.014882,0.0199,3.9884e-07,0,0.85,0.85
0.002061,-0.0011205,-0.0011411,0.026132,0.0073988,0.0074497,-0.0038604,0.0001055,-0.0039442,0.043354,-0.0053513,-0.0052189,-0.020074,0.00054861,-0.02051,0,0,0,0.027724,0.0074651,0.0057912,0.010966,0.01366,0.021154,4.8943e-07,0.05,0.85,0.85
0.0043354,-0.002172,-0.0022039,0.026441,0.004425,0.0045132,-0.0030902,0.00020856,-0.0031554,0.047518,-0.0097223,-0.009493,-0.016069,0.0010845,-0.016408,0,0,0,0.027375,0.0045712,0.0034327,0.011971,0.011793,0.023401,6.6282e-07,0.1,0.85,0.85
0.0068129,-0.0030734,-0.003104,0.026826,0.0026335,0.0027455,-0.0021707,0.00029476,-0.0022113,0.050425,-0.012476,-0.012185,-0.011287,0.0015328,-0.011499,0,0,0,0.027268,0.0028824,0.0020548,0.012607,0.010735,0.024813,7.8445e-07,0.15,0.85,0.85
0.0093779,-0.0037844,-0.0038012,0.026711,0.0015937,0.0017205,-0.0013568,0.00034806,-0.0013712,0.051433,-0.013871,-0.013542,-0.0070555,0.0018099,-0.0071303,0,0,0,0.026886,0.0019533,0.0011859,0.01285,0.010008,0.025326,8.3213e-07,0.2,0.85,0.85
0.011956,-0.0043175,-0.0043083,0.026331,0.00096482,0.0010971,-0.00074898,0.00036242,-0.00073537,0.051424,-0.014527,-0.014183,-0.0038947,0.0018846,-0.0038239,0,0,0,0.026388,0.0013865,0.0006181,0.012885,0.0094642,0.025395,8.3857e-07,0.25,0.85,0.85
0.01452,-0.0047037,-0.0046572,0.025937,0.00058077,0.00070482,-0.00032642,0.00033934,-0.00028418,0.051102,-0.014823,-0.014501,-0.0016974,0.0017646,-0.0014777,0,0,0,0.025951,0.00099067,0.00028089,0.012835,0.009074,0.025322,8.3184e-07,0.3,0.85,0.85
0.017066,-0.0049736,-0.0048804,0.025631,0.00034864,0.00044414,-4.1428e-05,0.00028225,2.738e-05,0.050787,-0.014948,-0.0147,-0.00021543,0.0014677,0.00014237,0,0,0,0.025634,0.0006862,0.00010348,0.012765,0.008808,0.025245,8.2495e-07,0.35,0.85,0.85
0.019599,-0.0051544,-0.0050078,0.025434,0.00020998,0.00025146,0.00014288,0.00019561,0.00023167,0.050591,-0.014991,-0.014883,0.000743,0.0010172,0.0012047,0,0,0,0.025438,0.00042726,3.0035e-05,0.012704,0.0086318,0.025212,8.2253e-07,0.4,0.85,0.85
0.022125,-0.0052697,-0.0050672,0.025331,0.00012673,8.9789e-05,0.00024861,8.7722e-05,0.00034481,0.050533,-0.014999,-0.015095,0.0012927,0.00045615,0.001793,0,0,0,0.025339,0.00021915,-1.014e-05,0.012675,0.008516,0.025235,8.2531e-07,0.45,0.85,0.85
0.024652,-0.0053412,-0.0050853,0.025298,7.4543e-05,-5.3785e-05,0.00028842,-2.6485e-05,0.00037384,0.050583,-0.014997,-0.015331,0.0014998,-0.00013772,0.001944,0,0,0,0.025307,0.00011182,-9.9973e-05,0.012703,0.0084395,0.025302,8.3183e-07,0.5,0.85,0.85
0.027184,-0.0053881,-0.0050873,0.025304,3.9453e-05,-0.00017126,0.00027306,-0.00012589,0.00032732,0.050688,-0.015001,-0.015549,0.0014199,-0.00065462,0.0017021,0,0,0,0.025312,0.00010116,-0.00024033,0.012776,0.0083909,0.025384,8.3951e-07,0.55,0.85,0.85
0.029721,-0.0054262,-0.0050941,0.025325,1.4862e-05,-0.00024371,0.00021709,-0.0001886,0.00022392,0.050787,-0.015019,-0.015691,0.0011289,-0.00098071,0.0011644,0,0,0,0.025329,0.00011519,-0.00034829,0.012839,0.0083653,0.025449,8.4558e-07,0.6,0.85,0.85
0.032263,-0.0054667,-0.0051197,0.02534,-2.5695e-06,-0.00025698,0.00014031,-0.00020032,9.3747e-05,0.050836,-0.015055,-0.015717,0.00072959,-0.0010417,0.00048748,0,0,0,0.025342,0.00010823,-0.0003694,0.012856,0.0083602,0.025476,8.4818e-07,0.65,0.85,0.85
0.034805,-0.0055144,-0.005169,0.025342,-1.6503e-05,-0.0002141,6.3968e-05,-0.00016076,-2.883e-05,0.050822,-0.01511,-0.015623,0.00033263,-0.00083594,-0.00014992,0,0,0,0.025342,7.3814e-05,-0.000305,0.012824,0.0083704,0.02546,8.4696e-07,0.7,0.85,0.85
0.037345,-0.0055686,-0.0052381,0.02533,-3.1479e-05,-0.00013603,4.6766e-06,-8.3691e-05,-0.00011658,0.050761,-0.015179,-0.015451,2.4319e-05,-0.00043519,-0.00060623,0,0,0,0.025331,2.1879e-05,-0.00019013,0.012761,0.0083876,0.025416,8.4299e-07,0.75,0.85,0.85
0.039881,-0.0056248,-0.0053171,0.025312,-5.0622e-05,-5.088e-05,-2.9933e-05,9.4244e-06,-0.00015731,0.050686,-0.015258,-0.015259,-0.00015565,4.9007e-05,-0.00081799,0,0,0,0.025314,1.2371e-05,-0.00011498,0.012714,0.0084037,0.025365,8.3812e-07,0.8,0.85,0.85
0.042413,-0.0056765,-0.0053936,0.025296,-7.3453e-05,1.952e-05,-4.1082e-05,9.7837e-05,-0.00015389,0.050624,-0.015336,-0.015094,-0.00021363,0.00050875,-0.00080024,0,0,0,0.025297,8.4099e-05,-0.0001391,0.012718,0.0084139,0.025325,8.3395e-07,0.85,0.85,0.85
0.044943,-0.0057179,-0.0054566,0.025284,-9.592e-05,6.6242e-05,-3.5206e-05,0.00016715,-0.00011808,0.050585,-0.015402,-0.01498,-0.00018307,0.00086918,-0.00061402,0,0,0,0.025284,0.00017292,-0.00020327,0.012744,0.008418,0.025302,8.3127e-07,0.9,0.85,0.85
0.047472,-0.0057444,-0.0054976,0.025278,-0.00011245,9.0791e-05,-2.8595e-05,0.00021021,-7.7229e-05,0.050568,-0.015446,-0.014917,-0.00014869,0.0010931,-0.00040159,0,0,0,0.025278,0.00022508,-0.00024705,0.012762,0.0084186,0.025292,8.2998e-07,0.95,0.85,0.85
0.048736,-0.0057535,-0.0055119,0.025276,-0.00011853,9.8165e-05,-2.8196e-05,0.00022469,-6.0617e-05,0.050564,-0.015461,-0.014898,-0.00014662,0.0011684,-0.00031521,0,0,0,0.025276,0.00024185,-0.0002624,0.012769,0.0084185,0.02529,8.2963e-07,1,0.85,0.85
0.0010401,-0.00072889,-0.00057457,0.027174,0.0087416,0.0094274,-0.005032,4.115e-05,-0.0042215,0.043447,-0.0044777,-0.0026947,-0.026166,0.00021398,-0.021952,0,0,0,0.029392,0.0092776,0.0066736,0.011359,0.015114,0.021543,5.0009e-07,0,0.9,0.85
0.0021723,-0.0014272,-0.0011325,0.02699,0.0064515,0.007451,-0.0043886,8.8978e-05,-0.0039024,0.045638,-0.0077614,-0.0051629,-0.022821,0.00046269,-0.020292,0,0,0,0.028715,0.0072342,0.0049428,0.011886,0.013631,0.022729,5.975e-07,0.05,0.9,0.85
0.0045638,-0.0027144,-0.0021857,0.027,0.0031922,0.0043785,-0.0030747,0.00018618,-0.0031097,0.049457,-0.012443,-0.0093582,-0.015989,0.00096812,-0.01617,0,0,0,0.027895,0.004145,0.002531,0.012682,0.011524,0.024611,7.6101e-07,0.1,0.9,0.85
0.0071181,-0.0037448,-0.0030773,0.026999,0.0017448,0.0026303,-0.0018845,0.00026911,-0.0021715,0.051373,-0.014288,-0.011986,-0.0097994,0.0013994,-0.011292,0,0,0,0.027384,0.0025373,0.0014532,0.012965,0.010458,0.025412,8.3826e-07,0.15,0.9,0.85
0.0097011,-0.004508,-0.0037688,0.026489,0.0010003,0.0015847,-0.0010329,0.00031545,-0.0013414,0.051426,-0.014843,-0.013324,-0.0053711,0.0016404,-0.0069753,0,0,0,0.026629,0.0016545,0.00078995,0.01292,0.0096912,0.02542,8.404e-07,0.2,0.9,0.85
0.012261,-0.0050599,-0.0042736,0.025904,0.00058045,0.00095408,-0.00049557,0.00032279,-0.00071282,0.050888,-0.014954,-0.013983,-0.002577,0.0016785,-0.0037066,0,0,0,0.025947,0.0011268,0.00036525,0.012791,0.0091463,0.02521,8.2069e-07,0.25,0.9,0.85
0.01479,-0.0054519,-0.004623,0.025454,0.00033766,0.00057095,-0.00016155,0.00029694,-0.00026628,0.050363,-0.01494,-0.014333,-0.00084006,0.0015441,-0.0013847,0,0,0,0.025463,0.00077542,0.00012383,0.01267,0.0087875,0.02502,8.0304e-07,0.3,0.9,0.85
0.017297,-0.005723,-0.0048493,0.025172,0.00019681,0.00032992,4.7374e-05,0.00024353,4.0221e-05,0.050028,-0.014907,-0.014561,0.00024634,0.0012664,0.00020915,0,0,0,0.025174,0.00051798,6.3261e-06,0.012584,0.0085662,0.024916,7.9372e-07,0.35,0.9,0.85
0.019793,-0.0059034,-0.0049821,0.025034,0.00011518,0.00016597,0.00017478,0.00016739,0.00023733,0.0499,-0.01489,-0.014758,0.00090884,0.0008704,0.0012341,0,0,0,0.025039,0.00030883,-3.2014e-05,0.012535,0.0084385,0.024902,7.9293e-07,0.4,0.9,0.85
0.022287,-0.0060184,-0.0050488,0.025004,6.6985e-05,4.1791e-05,0.00024226,7.5601e-05,0.00034223,0.049942,-0.014893,-0.014959,0.0012597,0.00039313,0.0017796,0,0,0,0.025011,0.00014696,-4.5511e-05,0.012528,0.0083708,0.024961,7.9886e-07,0.45,0.9,0.85
0.024787,-0.0060899,-0.0050752,0.02504,3.6756e-05,-5.8812e-05,0.00026036,-1.9737e-05,0.00036517,0.050094,-0.014915,-0.015164,0.0013539,-0.00010263,0.0018989,0,0,0,0.025049,6.898e-05,-9.9224e-05,0.012574,0.0083394,0.025064,8.0879e-07,0.5,0.9,0.85
0.027296,-0.0061375,-0.0050848,0.025108,1.6308e-05,-0.00013602,0.00023716,-0.00010184,0.00031777,0.050288,-0.014951,-0.015347,0.0012332,-0.00052957,0.0016524,0,0,0,0.025115,6.9998e-05,-0.00019623,0.012655,0.0083294,0.025179,8.1965e-07,0.55,0.9,0.85
0.029816,-0.0061769,-0.0050969,0.025176,2.214e-06,-0.00018168,0.00018379,-0.00015348,0.00021913,0.050461,-0.014992,-0.015471,0.0009557,-0.00079811,0.0011395,0,0,0,0.02518,8.9692e-05,-0.00027282,0.012726,0.0083323,0.025274,8.2862e-07,0.6,0.9,0.85
0.032342,-0.0062192,-0.005124,0.025225,-7.1246e-06,-0.00018937,0.00011574,-0.00016355,9.6452e-05,0.050568,-0.015036,-0.015509,0.00060185,-0.00085048,0.00050155,0,0,0,0.025226,8.9204e-05,-0.00028705,0.012757,0.0083428,0.025328,8.3384e-07,0.65,0.9,0.85
0.034872,-0.0062691,-0.0051711,0.025245,-1.3816e-05,-0.00016207,4.9877e-05,-0.00013197,-2.0391e-05,0.050596,-0.015077,-0.015463,0.00025936,-0.00068625,-0.00010604,0,0,0,0.025245,6.3664e-05,-0.00024001,0.012743,0.0083564,0.025335,8.3479e-07,0.7,0.9,0.85
0.037402,-0.006326,-0.0052354,0.025239,-2.0833e-05,-0.00011292,-5.8152e-07,-6.9727e-05,-0.00010718,0.050558,-0.015117,-0.015357,-3.0239e-06,-0.00036258,-0.00055733,0,0,0,0.025239,2.1152e-05,-0.00015554,0.012698,0.0083684,0.025307,8.323e-07,0.75,0.9,0.85
0.039928,-0.0063849,-0.0053086,0.025216,-3.0523e-05,-5.9101e-05,-2.9602e-05,5.9844e-06,-0.00015143,0.050485,-0.015155,-0.015229,-0.00015393,3.1119e-05,-0.00078742,0,0,0,0.025217,7.2831e-06,-9.7933e-05,0.012657,0.0083754,0.025262,8.2799e-07,0.8,0.9,0.85
0.04245,-0.0064394,-0.0053799,0.025187,-4.2991e-05,-1.4087e-05,-3.838e-05,7.8338e-05,-0.00015307,0.050408,-0.01519,-0.015115,-0.00019958,0.00040736,-0.00079597,0,0,0,0.025188,5.5479e-05,-0.0001136,0.012651,0.0083766,0.025218,8.235e-07,0.85,0.9,0.85
0.044969,-0.006483,-0.005439,0.025161,-5.5882e-05,1.6267e-05,-3.2422e-05,0.00013542,-0.00012055,0.050347,-0.015218,-0.015031,-0.00016859,0.00070417,-0.00062686,0,0,0,0.025162,0.00012164,-0.00016195,0.012662,0.0083739,0.025184,8.1995e-07,0.9,0.9,0.85
0.047485,-0.0065111,-0.0054778,0.025145,-6.5646e-05,3.2485e-05,-2.7513e-05,0.00017106,-7.9027e-05,0.050309,-0.015238,-0.014982,-0.00014307,0.00088949,-0.00041094,0,0,0,0.025145,0.00016277,-0.00019625,0.012671,0.0083705,0.025164,8.178e-07,0.95,0.9,0.85
0.048743,-0.0065208,-0.0054913,0.025139,-6.9284e-05,3.7414e-05,-2.8431e-05,0.00018307,-6.0891e-05,0.050297,-0.015244,-0.014967,-0.00014784,0.00095199,-0.00031663,0,0,0,0.025139,0.00017622,-0.00020828,0.012674,0.008369,0.025158,8.171e-07,1,0.9,0.85
0.0012282,-0.0010145,-0.00057635,0.030678,0.0086767,0.010472,-0.0061299,2.2522e-05,-0.0042365,0.049866,-0.0073362,-0.0026694,-0.031875,0.00011711,-0.02203,0,0,0,0.033241,0.010211,0.006374,0.013434,0.016609,0.02518,8.1225e-07,0,0.95,0.85
0.0024933,-0.0018967,-0.001135,0.029304,0.0055403,0.0079039,-0.0047415,5.885e-05,-0.0039163,0.050541,-0.011244,-0.0050988,-0.024656,0.00030602,-0.020365,0,0,0,0.031116,0.0075455,0.0040866,0.013515,0.014249,0.025499,8.297e-07,0.05,0.95,0.85
0.0050541,-0.0034163,-0.0021889,0.027452,0.0017874,0.0041659,-0.0025146,0.00013839,-0.0031198,0.051332,-0.015396,-0.009212,-0.013076,0.00071963,-0.016223,0,0,0,0.028202,0.0037992,0.0014041,0.013399,0.011135,0.025711,8.4837e-07,0.1,0.95,0.85
0.0076266,-0.0045022,-0.0030798,0.026458,0.00085653,0.0023069,-0.0012401,0.0002074,-0.0021748,0.051018,-0.015546,-0.011775,-0.0064488,0.0010785,-0.011309,0,0,0,0.02676,0.0021296,0.00073155,0.013014,0.0098739,0.025367,8.3053e-07,0.15,0.95,0.85
0.010156,-0.0052687,-0.0037704,0.025577,0.00040885,0.00125,-0.00057659,0.00024029,-0.0013339,0.050159,-0.015279,-0.013092,-0.0029983,0.0012495,-0.0069362,0,0,0,0.025686,0.0012402,0.00031015,0.012688,0.0090787,0.024926,7.932e-07,0.2,0.95,0.85
0.012642,-0.0058129,-0.004274,0.024982,0.00020599,0.00067546,-0.00022506,0.00024067,-0.00069065,0.049435,-0.014982,-0.013762,-0.0011703,0.0012515,-0.0035914,0,0,0,0.025013,0.0007647,8.5046e-05,0.012464,0.0086211,0.024596,7.6366e-07,0.25,0.95,0.85
0.015099,-0.0061976,-0.0046218,0.024636,0.00010025,0.00035128,-2.971e-05,0.00021734,-0.00022979,0.049001,-0.014792,-0.014139,-0.00015449,0.0011302,-0.0011949,0,0,0,0.024642,0.00047999,-3.5084e-05,0.012339,0.0083624,0.024424,7.4824e-07,0.3,0.95,0.85
0.017543,-0.0064644,-0.0048459,0.024492,4.5641e-05,0.00016196,8.3952e-05,0.00017626,8.6754e-05,0.048859,-0.014701,-0.014399,0.00043655,0.00091654,0.00045112,0,0,0,0.024494,0.00029163,-8.6544e-05,0.01229,0.0082331,0.024394,7.4571e-07,0.35,0.95,0.85
0.019985,-0.0066433,-0.0049766,0.024495,1.7947e-05,4.2979e-05,0.00014927,0.00012124,0.00028731,0.048954,-0.014687,-0.014622,0.0007762,0.00063044,0.001494,0,0,0,0.024501,0.00015257,-9.6767e-05,0.012299,0.0081855,0.024474,7.5317e-07,0.4,0.95,0.85
0.022438,-0.006759,-0.0050417,0.024597,4.2461e-06,-3.9932e-05,0.00018041,5.7005e-05,0.0003888,0.049215,-0.014726,-0.01484,0.00093812,0.00029643,0.0020218,0,0,0,0.024605,5.5274e-05,-9.8863e-05,0.012352,0.008187,0.024627,7.6741e-07,0.45,0.95,0.85
0.024907,-0.0068327,-0.0050674,0.024749,-2.889e-06,-0.00010213,0.00018323,-8.5871e-06,0.00040291,0.049562,-0.014794,-0.015052,0.0009528,-4.4653e-05,0.0020951,0,0,0,0.024758,1.5421e-05,-0.00012871,0.012443,0.0082148,0.024815,7.8499e-07,0.5,0.95,0.85
0.027394,-0.0068831,-0.0050768,0.024912,-7.1204e-06,-0.00014639,0.00016196,-6.4631e-05,0.00034352,0.049916,-0.014874,-0.015236,0.00084221,-0.00033608,0.0017863,0,0,0,0.024918,2.3585e-05,-0.00018331,0.012551,0.0082528,0.024999,8.0237e-07,0.55,0.95,0.85
0.029898,-0.0069255,-0.005089,0.02505,-9.7429e-06,-0.00016919,0.00012307,-9.9955e-05,0.00023176,0.050208,-0.014948,-0.015363,0.00063994,-0.00051977,0.0012052,0,0,0,0.025053,4.1801e-05,-0.00022399,0.012639,0.0082904,0.025146,8.1639e-07,0.6,0.95,0.85
0.032415,-0.0069702,-0.0051163,0.025142,-1.1229e-05,-0.00016752,7.6078e-05,-0.0001074,9.6042e-05,0.050391,-0.015007,-0.015413,0.0003956,-0.00055847,0.00049942,0,0,0,0.025143,4.6237e-05,-0.00022607,0.012684,0.008321,0.025234,8.2495e-07,0.65,0.95,0.85
0.034937,-0.0070221,-0.0051635,0.02518,-1.2427e-05,-0.00014375,3.1599e-05,-8.7013e-05,-3.3059e-05,0.050453,-0.015046,-0.015388,0.00016432,-0.00045247,-0.00017191,0,0,0,0.02518,3.3285e-05,-0.00018992,0.012685,0.0083411,0.025259,8.2751e-07,0.7,0.95,0.85
0.03746,-0.0070804,-0.0052279,0.02517,-1.4711e-05,-0.00010627,-2.0276e-06,-4.6097e-05,-0.00013025,0.050413,-0.015068,-0.015306,-1.0543e-05,-0.0002397,-0.00067729,0,0,0,0.025171,8.8375e-06,-0.00013072,0.012651,0.0083498,0.025233,8.2504e-07,0.75,0.95,0.85
0.039979,-0.0071403,-0.0053017,0.025131,-1.9169e-05,-6.5979e-05,-2.1092e-05,3.9615e-06,-0.00018125,0.050312,-0.015077,-0.015199,-0.00010968,2.06e-05,-0.00094247,0,0,0,0.025132,5.454e-08,-8.6668e-05,0.012609,0.0083485,0.025176,8.1952e-07,0.8,0.95,0.85
0.042491,-0.0071955,-0.0053741,0.025079,-2.5679e-05,-3.1759e-05,-2.6571e-05,5.1981e-05,-0.00018407,0.050193,-0.01508,-0.015096,-0.00013817,0.0002703,-0.00095716,0,0,0,0.025081,2.8483e-05,-8.7419e-05,0.012584,0.0083406,0.02511,8.1313e-07,0.85,0.95,0.85
0.044998,-0.0072397,-0.0054345,0.025032,-3.2746e-05,-7.8901e-06,-2.2231e-05,8.9973e-05,-0.0001462,0.050088,-0.01508,-0.015015,-0.0001156,0.00046786,-0.00076023,0,0,0,0.025033,7.1322e-05,-0.00011296,0.012573,0.0083304,0.025054,8.076e-07,0.9,0.95,0.85
0.0475,-0.0072682,-0.0054744,0.025,-3.8211e-05,5.3987e-06,-2.1936e-05,0.00011374,-9.3983e-05,0.050019,-0.01508,-0.014966,-0.00011407,0.00059146,-0.00048871,0,0,0,0.025,0.00010037,-0.00013364,0.012567,0.0083223,0.025018,8.0399e-07,0.95,0.95,0.85
0.04875,-0.007278,-0.0054883,0.024988,-4.0264e-05,9.5625e-06,-2.5703e-05,0.00012176,-6.9488e-05,0.049995,-0.015079,-0.01495,-0.00013365,0.00063317,-0.00036134,0,0,0,0.024989,0.00011006,-0.00014101,0.012565,0.0083193,0.025005,8.0275e-07,1,0.95,0.85
0.0013825,-0.0012035,-0.00057907,0.03351,0.0090009,0.011425,-0.0068036,1.2916e-05,-0.0042621,0.054764,-0.0089593,-0.0026563,-0.035379,6.7165e-05,-0.022163,0,0,0,0.036279,0.011128,0.0065288,0.014875,0.017979,0.027747,1.0566e-06,0,1,0.85
0.0027382,-0.0021866,-0.00114,0.031052,0.005275,0.0083642,-0.0049089,4.3067e-05,-0.0039436,0.05392,-0.0131,-0.0050678,-0.025526,0.00022395,-0.020507,0,0,0,0.03291,0.0079632,0.0038184,0.014546,0.014897,0.027278,9.9308e-07,0.05,1,0.85
0.005392,-0.0038121,-0.0021976,0.027552,0.0010961,0.0040226,-0.0021074,0.00011246,-0.0031458,0.052034,-0.016753,-0.0091439,-0.010959,0.0005848,-0.016358,0,0,0,0.028216,0.0036216,0.00083352,0.013691,0.01089,0.026131,8.8104e-07,0.1,1,0.85
0.0079416,-0.0048978,-0.0030909,0.025859,0.00039783,0.0020386,-0.00085254,0.00017284,-0.0021918,0.050256,-0.015943,-0.011677,-0.0044332,0.00089876,-0.011397,0,0,0,0.026123,0.0018409,0.00033124,0.012896,0.0094318,0.02508,8.0168e-07,0.15,1,0.85
0.010418,-0.0056536,-0.0037827,0.024873,9.0611e-05,0.00099881,-0.00034335,0.00019821,-0.0013369,0.049093,-0.015342,-0.012981,-0.0017854,0.0010307,-0.0069517,0,0,0,0.02497,0.0009628,2.9685e-05,0.01247,0.0086542,0.02449,7.5216e-07,0.2,1,0.85
0.012851,-0.0061884,-0.0042859,0.024364,2.2231e-06,0.00048443,-0.00010308,0.00019556,-0.00067835,0.048436,-0.014905,-0.013651,-0.000536,0.0010169,-0.0035274,0,0,0,0.024393,0.00053984,-8.1506e-05,0.012237,0.0082836,0.02417,7.2463e-07,0.25,1,0.85
0.015261,-0.0065673,-0.0046319,0.024129,-3.2616e-05,0.00021034,1.9181e-05,0.00017453,-0.0002041,0.048152,-0.014669,-0.014037,9.9741e-05,0.00090755,-0.0010613,0,0,0,0.024135,0.00030449,-0.00013261,0.012134,0.0081024,0.024053,7.1459e-07,0.3,1,0.85
0.017666,-0.0068314,-0.0048532,0.024091,-4.2136e-05,5.8952e-05,8.642e-05,0.00014081,0.00012209,0.048172,-0.014574,-0.014311,0.00044939,0.00073221,0.00063485,0,0,0,0.024094,0.00016025,-0.0001462,0.01212,0.008036,0.024088,7.1802e-07,0.35,1,0.85
0.020079,-0.0070099,-0.0049803,0.024189,-4.0752e-05,-3.1625e-05,0.00012311,9.7485e-05,0.00032752,0.048422,-0.014576,-0.014552,0.00064017,0.00050692,0.0017031,0,0,0,0.024195,6.2172e-05,-0.00014038,0.012168,0.0080389,0.024235,7.3129e-07,0.4,1,0.85
0.022508,-0.0071267,-0.0050418,0.024373,-3.4801e-05,-9.2308e-05,0.00013861,4.8001e-05,0.00042862,0.048823,-0.014638,-0.014788,0.00072077,0.00024961,0.0022288,0,0,0,0.024382,1.2135e-06,-0.00013698,0.01226,0.0080821,0.02445,7.5099e-07,0.45,1,0.85
0.024961,-0.0072022,-0.0050641,0.024597,-2.7959e-05,-0.00013641,0.00013622,-1.9554e-06,0.0004372,0.049293,-0.014732,-0.015014,0.00070836,-1.0168e-05,0.0022734,0,0,0,0.024606,-1.7206e-05,-0.00015595,0.012381,0.0081443,0.024693,7.7348e-07,0.5,1,0.85
0.027438,-0.0072547,-0.0050711,0.024817,-2.1983e-05,-0.00016617,0.00011826,-4.4458e-05,0.00036805,0.049747,-0.014834,-0.015209,0.00061497,-0.00023118,0.0019138,0,0,0,0.024823,-4.7115e-06,-0.00018985,0.012507,0.0082096,0.024921,7.9498e-07,0.55,1,0.85
0.029935,-0.007299,-0.0050817,0.024996,-1.7389e-05,-0.00017853,8.8832e-05,-7.1375e-05,0.0002438,0.05011,-0.014925,-0.015344,0.00046193,-0.00037115,0.0012678,0,0,0,0.024999,1.2957e-05,-0.00021209,0.012606,0.0082667,0.0251,8.1205e-07,0.6,1,0.85
0.032449,-0.0073453,-0.0051086,0.025112,-1.4238e-05,-0.00017091,5.4386e-05,-7.7509e-05,9.479e-05,0.050334,-0.014993,-0.0154,0.00028281,-0.00040305,0.00049291,0,0,0,0.025113,2.0353e-05,-0.0002065,0.01266,0.0083088,0.025207,8.2241e-07,0.65,1,0.85
0.034969,-0.0073982,-0.0051565,0.025158,-1.2783e-05,-0.00014516,2.2243e-05,-6.2958e-05,-4.6351e-05,0.05041,-0.015033,-0.015377,0.00011566,-0.00032738,-0.00024103,0,0,0,0.025158,1.456e-05,-0.00017301,0.012666,0.0083332,0.025238,8.2551e-07,0.7,1,0.85
0.037489,-0.0074569,-0.0052227,0.025144,-1.3521e-05,-0.00010816,-1.8288e-06,-3.314e-05,-0.00015246,0.050361,-0.015049,-0.015295,-9.5099e-06,-0.00017233,-0.00079281,0,0,0,0.025145,1.4797e-07,-0.000123,0.012634,0.0083408,0.025207,8.2255e-07,0.75,1,0.85
0.040005,-0.0075169,-0.0052987,0.025092,-1.6685e-05,-6.9049e-05,-1.5333e-05,3.5271e-06,-0.00020788,0.050235,-0.015047,-0.015183,-7.9731e-05,1.8341e-05,-0.001081,0,0,0,0.025094,-4.5942e-06,-8.3015e-05,0.012588,0.0083354,0.025138,8.1585e-07,0.8,1,0.85
0.042513,-0.007572,-0.0053736,0.025025,-2.1708e-05,-3.5496e-05,-1.9093e-05,3.8779e-05,-0.00021001,0.050085,-0.015037,-0.015073,-9.9282e-05,0.00020165,-0.0010921,0,0,0,0.025027,1.6036e-05,-7.5141e-05,0.012551,0.0083227,0.025057,8.08e-07,0.85,1,0.85
0.045014,-0.0076162,-0.0054363,0.024965,-2.7193e-05,-1.1541e-05,-1.5883e-05,6.6699e-05,-0.00016662,0.049953,-0.015026,-0.014986,-8.2593e-05,0.00034684,-0.00086643,0,0,0,0.024966,4.8816e-05,-8.8821e-05,0.012527,0.0083087,0.024986,8.0112e-07,0.9,1,0.85
0.047508,-0.0076445,-0.0054778,0.024923,-3.1411e-05,2.1748e-06,-1.8369e-05,8.4175e-05,-0.00010575,0.049865,-0.015018,-0.014931,-9.552e-05,0.00043771,-0.00054991,0,0,0,0.024924,7.257e-05,-0.00010237,0.012513,0.0082981,0.024939,7.9657e-07,0.95,1,0.85
0.048755,-0.0076543,-0.0054923,0.024909,-3.2989e-05,6.5595e-06,-2.3791e-05,9.0075e-05,-7.6474e-05,0.049834,-0.015015,-0.014913,-0.00012371,0.00046839,-0.00039767,0,0,0,0.024909,8.061e-05,-0.00010733,0.012508,0.0082942,0.024923,7.95e-07,1,1,0.85
0.0014146,0.0011787,-0.00071017,0.034097,0.0090375,0.010749,0.0066442,-2.2469e-06,-0.0048882,0.056322,-0.0088328,-0.004382,0.03455,-1.1684e-05,-0.025419,0,0,0,0.03694,0.010486,0.006458,0.015241,0.017961,0.028698,1.1955e-06,0,0,0.9
0.0028161,0.0021343,-0.0013857,0.031555,0.0052251,0.0073044,0.0047712,-3.4802e-05,-0.0042464,0.055591,-0.012865,-0.0074589,0.02481,-0.00018097,-0.022081,0,0,0,0.033419,0.0069603,0.003705,0.014857,0.014695,0.02826,1.14e-06,0.05,0,0.9
0.0055591,0.0037058,-0.0026261,0.027913,0.001051,0.0028333,0.0020103,-0.00011237,-0.0029499,0.053496,-0.016346,-0.011712,0.010453,-0.00058431,-0.015339,0,0,0,0.028504,0.0025215,0.00077261,0.013866,0.010599,0.026927,9.9505e-07,0.1,0,0.9
0.0081657,0.0047474,-0.0036167,0.02597,0.00044855,0.0012894,0.00079473,-0.0001711,-0.0017992,0.050897,-0.015459,-0.013272,0.0041326,-0.00088972,-0.0093559,0,0,0,0.026165,0.0011836,0.00035963,0.012903,0.009236,0.025407,8.4415e-07,0.15,0,0.9
0.010649,0.0054759,-0.0043559,0.024676,0.00013352,0.00054872,0.00031735,-0.0001797,-0.00098504,0.048943,-0.014868,-0.013788,0.0016502,-0.00093446,-0.0051222,0,0,0,0.024736,0.00057965,4.2599e-05,0.012347,0.0084528,0.02443,7.5022e-07,0.2,0,0.9
0.01306,0.0059971,-0.0048981,0.024012,2.4223e-05,0.00021726,9.3665e-05,-0.00016233,-0.00046812,0.047878,-0.014489,-0.013987,0.00048706,-0.00084412,-0.0024342,0,0,0,0.024027,0.00030574,-7.9724e-05,0.012053,0.0080844,0.023917,7.0353e-07,0.25,0,0.9
0.015437,0.0063723,-0.0052911,0.023734,-2.5246e-05,5.6195e-05,-1.9752e-05,-0.00013583,-0.00014666,0.047448,-0.014324,-0.014113,-0.00010271,-0.0007063,-0.00076262,0,0,0,0.023736,0.00015912,-0.00013113,0.011934,0.0079215,0.023724,6.8648e-07,0.3,0,0.9
0.017805,0.00664,-0.0055716,0.023702,-4.511e-05,-2.1912e-05,-7.9861e-05,-0.0001074,4.9396e-05,0.047444,-0.014298,-0.014238,-0.00041528,-0.0005585,0.00025686,0,0,0,0.023703,7.5729e-05,-0.00014378,0.011923,0.0078782,0.023738,6.8757e-07,0.35,0,0.9
0.020181,0.0068278,-0.005768,0.023818,-5.1581e-05,-5.8642e-05,-0.00010965,-8.0034e-05,0.00016266,0.047702,-0.014359,-0.014377,-0.00057018,-0.00041618,0.00084586,0,0,0,0.02382,2.5254e-05,-0.00013734,0.011979,0.0079026,0.023876,6.9961e-07,0.4,0,0.9
0.022575,0.0069568,-0.0059024,0.024016,-5.145e-05,-7.3681e-05,-0.00012017,-5.5189e-05,0.00021945,0.048106,-0.014468,-0.014526,-0.0006249,-0.00028698,0.0011411,0,0,0,0.024018,-6.1192e-06,-0.00012179,0.01207,0.0079635,0.024083,7.178e-07,0.45,0,0.9
0.024992,0.0070437,-0.0059923,0.024248,-4.8213e-05,-7.7262e-05,-0.00011758,-3.389e-05,0.00023695,0.048571,-0.014599,-0.014674,-0.00061141,-0.00017623,0.0012321,0,0,0,0.024251,-2.4926e-05,-0.00010361,0.012177,0.0080408,0.024315,7.387e-07,0.5,0,0.9
0.027432,0.0071018,-0.0060517,0.024481,-4.3627e-05,-7.4952e-05,-0.00010603,-1.7003e-05,0.00022745,0.049034,-0.014731,-0.014813,-0.00055135,-8.8415e-05,0.0011827,0,0,0,0.024484,-3.3965e-05,-8.7371e-05,0.012286,0.008121,0.024545,7.5973e-07,0.55,0,0.9
0.029895,0.0071415,-0.0060913,0.024694,-3.8591e-05,-6.9922e-05,-8.8909e-05,-5.1621e-06,0.00020059,0.049454,-0.014852,-0.014933,-0.00046232,-2.6843e-05,0.0010431,0,0,0,0.024696,-3.5056e-05,-7.5574e-05,0.012386,0.0081953,0.024752,7.7901e-07,0.6,0,0.9
0.032378,0.0071703,-0.0061189,0.024873,-3.3586e-05,-6.4024e-05,-6.9244e-05,1.4236e-06,0.00016436,0.049804,-0.014952,-0.015032,-0.00036007,7.4026e-06,0.00085465,0,0,0,0.024874,-3.1464e-05,-6.7558e-05,0.012471,0.0082584,0.024924,7.9529e-07,0.65,0,0.9
0.034876,0.0071932,-0.0061399,0.025011,-2.8913e-05,-5.8346e-05,-4.971e-05,3.1201e-06,0.00012539,0.050075,-0.01503,-0.015106,-0.00025849,1.6225e-05,0.00065202,0,0,0,0.025012,-2.7152e-05,-6.0927e-05,0.012536,0.008308,0.025056,8.0798e-07,0.7,0,0.9
0.037385,0.0072131,-0.0061572,0.02511,-2.4803e-05,-5.3495e-05,-3.2435e-05,8.7589e-07,8.8808e-05,0.050267,-0.015083,-0.015158,-0.00016866,4.5547e-06,0.0004618,0,0,0,0.02511,-2.3661e-05,-5.5048e-05,0.012583,0.0083439,0.02515,8.1705e-07,0.75,0,0.9
0.039902,0.0072309,-0.0061723,0.025174,-2.1425e-05,-4.974e-05,-1.8798e-05,-3.9285e-06,5.801e-05,0.050391,-0.015118,-0.015191,-9.7749e-05,-2.0428e-05,0.00030165,0,0,0,0.025174,-1.9857e-05,-5.1486e-05,0.012613,0.0083677,0.02521,8.2293e-07,0.8,0,0.9
0.042424,0.0072464,-0.0061852,0.025212,-1.887e-05,-4.7108e-05,-9.3227e-06,-9.7334e-06,3.4557e-05,0.050463,-0.015137,-0.01521,-4.8478e-05,-5.0614e-05,0.0001797,0,0,0,0.025212,-1.4834e-05,-5.1209e-05,0.012632,0.0083819,0.025245,8.2633e-07,0.85,0,0.9
0.044949,0.0072586,-0.0061953,0.025231,-1.7134e-05,-4.546e-05,-3.7256e-06,-1.5068e-05,1.8285e-05,0.050499,-0.015146,-0.015219,-1.9373e-05,-7.8355e-05,9.5083e-05,0,0,0,0.025231,-9.6214e-06,-5.2992e-05,0.012642,0.0083895,0.025262,8.2803e-07,0.9,0,0.9
0.047474,0.0072665,-0.0062018,0.025239,-1.6146e-05,-4.459e-05,1.6283e-06,-1.8763e-05,5.3884e-06,0.050515,-0.015149,-0.015223,8.467e-06,-9.757e-05,2.8019e-05,0,0,0,0.025239,-5.8537e-06,-5.4889e-05,0.012647,0.0083928,0.02527,8.2874e-07,0.95,0,0.9
0.048737,0.0072692,-0.0062041,0.025241,-1.5828e-05,-4.4323e-05,5.0707e-06,-2.0079e-05,-1.0467e-06,0.050519,-0.01515,-0.015224,2.6367e-05,-0.00010441,-5.4429e-06,0,0,0,0.025241,-4.4955e-06,-5.5661e-05,0.012648,0.0083937,0.025271,8.2892e-07,1,0,0.9
0.001264,0.0009924,-0.0007094,0.031346,0.0087392,0.0098333,0.0059777,-1.1244e-05,-0.0048802,0.051549,-0.0072293,-0.0043847,0.031084,-5.8467e-05,-0.025377,0,0,0,0.03401,0.0096948,0.0062142,0.013898,0.01664,0.026244,9.35e-07,0,0.05,0.9
0.0025774,0.0018496,-0.0013849,0.029857,0.0054981,0.0068556,0.0046028,-4.6326e-05,-0.0042374,0.052302,-0.011032,-0.007502,0.023934,-0.00024089,-0.022035,0,0,0,0.031686,0.0066609,0.0038643,0.013911,0.01407,0.026563,9.6147e-07,0.05,0.05,0.9
0.0052302,0.00332,-0.0026258,0.027805,0.0017213,0.0029356,0.0024055,-0.00012666,-0.0029395,0.052815,-0.015001,-0.011844,0.012508,-0.00065866,-0.015286,0,0,0,0.028477,0.0027467,0.0012378,0.01362,0.010821,0.026539,9.5535e-07,0.1,0.05,0.9
0.007859,0.0043642,-0.0036168,0.026522,0.00087498,0.0014879,0.0011672,-0.00018991,-0.0017893,0.051627,-0.015056,-0.013463,0.0060696,-0.00098752,-0.0093044,0,0,0,0.026753,0.0014415,0.00069017,0.013032,0.0096284,0.025699,8.7291e-07,0.15,0.05,0.9
0.010393,0.0051033,-0.0043555,0.025323,0.00042147,0.00073161,0.00053608,-0.00020542,-0.00097872,0.049954,-0.01479,-0.013983,0.0027876,-0.0010682,-0.0050893,0,0,0,0.025393,0.00080792,0.00027447,0.012559,0.0088253,0.024857,7.9019e-07,0.2,0.05,0.9
0.012854,0.0056325,-0.0048969,0.024575,0.00020288,0.00034961,0.00020377,-0.00019078,-0.00046732,0.048818,-0.014549,-0.014167,0.0010596,-0.00099207,-0.0024301,0,0,0,0.024593,0.00047904,5.5379e-05,0.012269,0.0083758,0.024329,7.4067e-07,0.25,0.05,0.9
0.015275,0.0060115,-0.0052892,0.024195,8.7052e-05,0.00014905,2.0597e-05,-0.00016268,-0.00015059,0.048249,-0.014432,-0.014271,0.0001071,-0.00084595,-0.00078309,0,0,0,0.024199,0.00028558,-5.2875e-05,0.012126,0.0081438,0.024084,7.184e-07,0.3,0.05,0.9
0.017679,0.00628,-0.0055692,0.02407,2.5057e-05,4.2505e-05,-8.2212e-05,-0.00012989,4.2398e-05,0.0481,-0.014418,-0.014372,-0.0004275,-0.00067541,0.00022047,0,0,0,0.024072,0.00016463,-9.8183e-05,0.012085,0.008046,0.02404,7.1426e-07,0.35,0.05,0.9
0.020085,0.0064666,-0.0057653,0.024107,-8.7102e-06,-1.4067e-05,-0.00013688,-9.6714e-05,0.00015416,0.048228,-0.014473,-0.014487,-0.00071179,-0.00050291,0.00080163,0,0,0,0.024109,8.4843e-05,-0.00010968,0.012109,0.0080281,0.024122,7.2153e-07,0.4,0.05,0.9
0.022502,0.0065933,-0.0058994,0.024238,-2.6867e-05,-4.3054e-05,-0.00016017,-6.5647e-05,0.00021061,0.048518,-0.014571,-0.014613,-0.00083288,-0.00034137,0.0010952,0,0,0,0.024241,3.0625e-05,-0.00010366,0.012172,0.008056,0.024278,7.3548e-07,0.45,0.05,0.9
0.024937,0.0066772,-0.0059892,0.024415,-3.6105e-05,-5.6533e-05,-0.00016188,-3.8523e-05,0.00022857,0.048886,-0.014687,-0.014741,-0.00084179,-0.00020032,0.0011885,0,0,0,0.024419,-5.673e-06,-9.0429e-05,0.012255,0.0081075,0.024467,7.5265e-07,0.5,0.05,0.9
0.027391,0.0067323,-0.0060486,0.024605,-3.9992e-05,-6.1284e-05,-0.00014878,-1.6881e-05,0.00022,0.04927,-0.014806,-0.014861,-0.00077365,-8.7783e-05,0.001144,0,0,0,0.024608,-2.6576e-05,-7.7825e-05,0.012343,0.0081678,0.02466,7.705e-07,0.55,0.05,0.9
0.029864,0.0067692,-0.0060883,0.024783,-4.0482e-05,-6.1257e-05,-0.0001263,-1.8636e-06,0.00019433,0.049628,-0.014914,-0.014968,-0.00065675,-9.691e-06,0.0010105,0,0,0,0.024786,-3.33e-05,-7.0838e-05,0.012428,0.0082272,0.024838,7.8717e-07,0.6,0.05,0.9
0.032353,0.0067957,-0.0061161,0.024936,-3.8745e-05,-5.8831e-05,-9.9227e-05,6.0626e-06,0.00015937,0.049931,-0.015004,-0.015056,-0.00051598,3.1526e-05,0.00082871,0,0,0,0.024938,-3.1455e-05,-6.7713e-05,0.012503,0.0082796,0.024988,8.0143e-07,0.65,0.05,0.9
0.034857,0.0068169,-0.0061374,0.025057,-3.563e-05,-5.5489e-05,-7.1732e-05,7.3078e-06,0.00012164,0.050169,-0.015072,-0.015124,-0.00037301,3.8001e-05,0.00063253,0,0,0,0.025058,-2.8659e-05,-6.3376e-05,0.012561,0.0083221,0.025104,8.1267e-07,0.7,0.05,0.9
0.03737,0.0068355,-0.0061552,0.025145,-3.1873e-05,-5.216e-05,-4.7114e-05,3.1606e-06,8.6186e-05,0.050341,-0.01512,-0.015172,-0.00024499,1.6435e-05,0.00044816,0,0,0,0.025146,-2.6994e-05,-5.7493e-05,0.012602,0.0083537,0.025188,8.2078e-07,0.75,0.05,0.9
0.039891,0.0068525,-0.0061707,0.025204,-2.8122e-05,-4.938e-05,-2.7521e-05,-4.4414e-06,5.6335e-05,0.050454,-0.015149,-0.015204,-0.00014311,-2.3095e-05,0.00029294,0,0,0,0.025204,-2.327e-05,-5.4424e-05,0.012629,0.0083754,0.025243,8.2612e-07,0.8,0.05,0.9
0.042416,0.0068676,-0.0061841,0.025239,-2.4881e-05,-4.7371e-05,-1.3811e-05,-1.3289e-05,3.3603e-05,0.050521,-0.015165,-0.015223,-7.1819e-05,-6.9102e-05,0.00017473,0,0,0,0.025239,-1.5889e-05,-5.6431e-05,0.012648,0.0083888,0.025275,8.2928e-07,0.85,0.05,0.9
0.044943,0.0068796,-0.0061945,0.025257,-2.2458e-05,-4.6117e-05,-5.6371e-06,-2.1294e-05,1.7818e-05,0.050556,-0.015172,-0.015233,-2.9313e-05,-0.00011073,9.2651e-05,0,0,0,0.025257,-7.6628e-06,-6.0932e-05,0.012659,0.0083962,0.025292,8.3091e-07,0.9,0.05,0.9
0.047471,0.0068874,-0.0062012,0.025266,-2.0988e-05,-4.5472e-05,1.006e-06,-2.6797e-05,5.1349e-06,0.050571,-0.015174,-0.015238,5.2313e-06,-0.00013934,2.6702e-05,0,0,0,0.025266,-1.7939e-06,-6.4673e-05,0.012665,0.0083997,0.025299,8.3163e-07,0.95,0.05,0.9
0.048736,0.0068901,-0.0062036,0.025268,-2.0499e-05,-4.5279e-05,4.8323e-06,-2.875e-05,-1.2723e-06,0.050575,-0.015175,-0.015239,2.5128e-05,-0.0001495,-6.6161e-06,0,0,0,0.025268,3.059e-07,-6.6089e-05,0.012667,0.0084007,0.025301,8.3182e-07,1,0.05,0.9
0.0010799,0.0007111,-0.00071079,0.027929,0.0088278,0.0088259,0.0048954,-2.7019e-05,-0.0048931,0.045266,-0.0043973,-0.0044024,0.025456,-0.0001405,-0.025444,0,0,0,0.030294,0.0090107,0.0062777,0.012008,0.015194,0.022784,5.9664e-07,0,0.1,0.9
0.0022633,0.0013898,-0.0013895,0.027597,0.0064093,0.0064059,0.0042535,-6.7168e-05,-0.004252,0.047504,-0.0075829,-0.0075917,0.022118,-0.00034927,-0.02211,0,0,0,0.029358,0.0066391,0.0044148,0.012472,0.013471,0.023928,7.0246e-07,0.05,0.1,0.9
0.0047504,0.0026371,-0.0026378,0.027339,0.003087,0.0030814,0.002951,-0.0001529,-0.0029519,0.050977,-0.012078,-0.012093,0.015345,-0.00079509,-0.01535,0,0,0,0.028148,0.0033201,0.0020397,0.013054,0.011169,0.025505,8.5206e-07,0.1,0.1,0.9
0.007361,0.0036315,-0.0036346,0.027,0.0017084,0.001702,0.0017871,-0.00022355,-0.0017912,0.051954,-0.013804,-0.013821,0.0092932,-0.0011625,-0.0093144,0,0,0,0.027307,0.0019132,0.0011901,0.013059,0.010137,0.025766,8.7788e-07,0.15,0.1,0.9
0.0099458,0.0043677,-0.0043748,0.02615,0.00096185,0.00095531,0.0009647,-0.00025181,-0.00097213,0.051149,-0.014339,-0.014356,0.0050164,-0.0013094,-0.0050551,0,0,0,0.026249,0.0011965,0.00062172,0.012813,0.0093556,0.025345,8.3556e-07,0.2,0.1,0.9
0.012476,0.004902,-0.0049145,0.025412,0.00053456,0.00052866,0.00044923,-0.00024416,-0.00045985,0.050187,-0.014495,-0.014511,0.002336,-0.0012697,-0.0023912,0,0,0,0.025439,0.00077592,0.00026097,0.012589,0.0088252,0.024924,7.9491e-07,0.25,0.1,0.9
0.014964,0.0052845,-0.0053035,0.024941,0.0002882,0.00028363,0.00013273,-0.00021498,-0.000146,0.049539,-0.014558,-0.01457,0.00069018,-0.0011179,-0.00075921,0,0,0,0.024946,0.00050322,6.3516e-05,0.012441,0.0085043,0.024666,7.7072e-07,0.3,0.1,0.9
0.01743,0.0055532,-0.0055798,0.024699,0.00014329,0.0001407,-5.8733e-05,-0.00017495,4.3662e-05,0.049228,-0.014617,-0.014624,-0.00030541,-0.00090973,0.00022704,0,0,0,0.024701,0.00031738,-3.4727e-05,0.012368,0.0083278,0.024561,7.6117e-07,0.35,0.1,0.9
0.019887,0.0057373,-0.0057719,0.024621,5.6414e-05,5.6311e-05,-0.00016861,-0.00013084,0.00015289,0.049175,-0.014694,-0.014694,-0.00087676,-0.00068039,0.00079502,0,0,0,0.024624,0.00018566,-7.5391e-05,0.01235,0.0082447,0.02457,7.6207e-07,0.4,0.1,0.9
0.022347,0.0058596,-0.0059024,0.024649,3.6458e-06,6.2802e-06,-0.00022271,-8.7306e-05,0.00020766,0.049291,-0.014786,-0.014779,-0.0011581,-0.00045399,0.0010798,0,0,0,0.024653,9.0269e-05,-8.4271e-05,0.012368,0.0082195,0.02465,7.6962e-07,0.45,0.1,0.9
0.024816,0.0059384,-0.005989,0.024736,-2.8303e-05,-2.3068e-05,-0.0002375,-4.8079e-05,0.00022446,0.049504,-0.014885,-0.014871,-0.001235,-0.00025001,0.0011672,0,0,0,0.024741,2.2491e-05,-7.8345e-05,0.01241,0.0082284,0.024769,7.808e-07,0.5,0.1,0.9
0.027298,0.0059883,-0.006046,0.024852,-4.6867e-05,-3.9616e-05,-0.00022482,-1.636e-05,0.00021492,0.049755,-0.014981,-0.014962,-0.0011691,-8.5069e-05,0.0011176,0,0,0,0.024856,-1.8159e-05,-7.2407e-05,0.012464,0.008255,0.024901,7.9326e-07,0.55,0.1,0.9
0.029792,0.0060204,-0.0060841,0.02497,-5.6295e-05,-4.8017e-05,-0.00019431,5.436e-06,0.0001883,0.050003,-0.015066,-0.015044,-0.0010104,2.8267e-05,0.00097915,0,0,0,0.024973,-3.2281e-05,-7.5156e-05,0.012524,0.0082886,0.025027,8.053e-07,0.6,0.1,0.9
0.032298,0.0060429,-0.0061113,0.025077,-5.9255e-05,-5.1178e-05,-0.00015444,1.6149e-05,0.00015252,0.050221,-0.015134,-0.015113,-0.00080307,8.3976e-05,0.00079311,0,0,0,0.025079,-3.2145e-05,-8.0334e-05,0.01258,0.0083223,0.025136,8.1575e-07,0.65,0.1,0.9
0.034814,0.0060611,-0.0061329,0.025164,-5.7764e-05,-5.1111e-05,-0.00011252,1.6226e-05,0.00011431,0.050394,-0.015184,-0.015166,-0.0005851,8.4374e-05,0.0005944,0,0,0,0.025166,-3.1927e-05,-7.8095e-05,0.012622,0.0083519,0.025221,8.2401e-07,0.7,0.1,0.9
0.037337,0.0060777,-0.0061517,0.025229,-5.361e-05,-4.9343e-05,-7.4329e-05,7.696e-06,7.89e-05,0.05052,-0.015215,-0.015204,-0.00038651,4.0019e-05,0.00041028,0,0,0,0.02523,-3.3571e-05,-6.9926e-05,0.01265,0.0083754,0.025281,8.2996e-07,0.75,0.1,0.9
0.039866,0.0060935,-0.0061687,0.025273,-4.8388e-05,-4.7025e-05,-4.3639e-05,-6.2515e-06,4.9712e-05,0.050603,-0.015232,-0.015229,-0.00022692,-3.2508e-05,0.0002585,0,0,0,0.025273,-2.9632e-05,-6.5997e-05,0.01267,0.0083925,0.025321,8.3383e-07,0.8,0.1,0.9
0.042398,0.0061079,-0.0061837,0.025299,-4.3372e-05,-4.4921e-05,-2.2037e-05,-2.1948e-05,2.8198e-05,0.050652,-0.015239,-0.015243,-0.00011459,-0.00011413,0.00014663,0,0,0,0.025299,-1.6854e-05,-7.1509e-05,0.012685,0.0084037,0.025344,8.3606e-07,0.85,0.1,0.9
0.044931,0.0061197,-0.0061955,0.025314,-3.9406e-05,-4.3399e-05,-9.0851e-06,-3.5931e-05,1.403e-05,0.050677,-0.015241,-0.015251,-4.7242e-05,-0.00018684,7.2956e-05,0,0,0,0.025314,-1.8146e-06,-8.1009e-05,0.012697,0.0084103,0.025355,8.3719e-07,0.9,0.1,0.9
0.047465,0.0061274,-0.0062032,0.02532,-3.6925e-05,-4.2531e-05,-7.0012e-08,-4.5468e-05,2.861e-06,0.050688,-0.015241,-0.015255,-3.641e-07,-0.00023643,1.4877e-05,0,0,0,0.02532,8.7964e-06,-8.8258e-05,0.012704,0.0084136,0.02536,8.3767e-07,0.95,0.1,0.9
0.048733,0.0061301,-0.0062059,0.025322,-3.6087e-05,-4.2255e-05,4.4614e-06,-4.884e-05,-2.9185e-06,0.050691,-0.01524,-0.015256,2.3199e-05,-0.00025397,-1.5176e-05,0,0,0,0.025322,1.2568e-05,-9.0916e-05,0.012707,0.0084146,0.025362,8.3779e-07,1,0.1,0.9
0.0010301,0.00055267,-0.00071679,0.026913,0.0093154,0.0086573,0.0040553,-3.522e-05,-0.0049451,0.043043,-0.0027115,-0.0044226,0.021088,-0.00018314,-0.025715,0,0,0,0.029044,0.0091844,0.0066575,0.011193,0.014962,0.021245,4.8076e-07,0,0.15,0.9
0.0021521,0.0010914,-0.001403,0.026736,0.0073452,0.0063926,0.003744,-7.6955e-05,-0.0043076,0.04523,-0.005187,-0.0076637,0.019469,-0.00040017,-0.0224,0,0,0,0.028388,0.0071577,0.0049288,0.011729,0.013491,0.022443,5.7655e-07,0.05,0.15,0.9
0.004523,0.0021121,-0.0026668,0.026766,0.0042872,0.0031743,0.0029734,-0.00016197,-0.0030047,0.049055,-0.0093898,-0.012283,0.015462,-0.00084223,-0.015624,0,0,0,0.027612,0.0040889,0.0025263,0.012543,0.011409,0.024357,7.3872e-07,0.1,0.15,0.9
0.0070577,0.0029838,-0.0036763,0.026796,0.002552,0.0017503,0.0020659,-0.00023318,-0.0018235,0.05101,-0.012024,-0.014108,0.010743,-0.0012125,-0.0094822,0,0,0,0.027153,0.0024794,0.0014654,0.012844,0.010366,0.025202,8.185e-07,0.15,0.15,0.9
0.0096241,0.0036694,-0.0044223,0.026326,0.0015122,0.0010162,0.0012704,-0.00026933,-0.00097923,0.051135,-0.013381,-0.014671,0.0066062,-0.0014005,-0.005092,0,0,0,0.026454,0.0015831,0.00081773,0.012818,0.0096182,0.025264,8.2575e-07,0.2,0.15,0.9
0.012171,0.0041829,-0.0049613,0.025786,0.00088179,0.00059707,0.00068059,-0.00026999,-0.00045002,0.050685,-0.014066,-0.014807,0.0035391,-0.001404,-0.0023401,0,0,0,0.025824,0.0010417,0.00039953,0.012712,0.0090884,0.02511,8.1165e-07,0.25,0.15,0.9
0.014693,0.0045556,-0.0053454,0.025377,0.00049816,0.00034748,0.00027611,-0.00024443,-0.00012789,0.050247,-0.014438,-0.01483,0.0014358,-0.001271,-0.00066502,0,0,0,0.025385,0.00068457,0.00015289,0.012616,0.0087409,0.024971,7.989e-07,0.3,0.15,0.9
0.017196,0.0048183,-0.0056141,0.025127,0.00026259,0.00019454,1.1364e-05,-0.00020241,6.4717e-05,0.049981,-0.014668,-0.014845,5.9095e-05,-0.0010525,0.00033653,0,0,0,0.025129,0.00043719,1.8116e-05,0.012556,0.0085282,0.024904,7.9301e-07,0.35,0.15,0.9
0.019691,0.0049973,-0.0057977,0.02501,0.00011636,9.8511e-05,-0.00015163,-0.00015181,0.00017394,0.049891,-0.014833,-0.014879,-0.00078845,-0.00078941,0.00090448,0,0,0,0.025013,0.00025901,-4.6821e-05,0.01253,0.0084084,0.024908,7.9372e-07,0.4,0.15,0.9
0.022185,0.0051147,-0.0059196,0.024987,2.4955e-05,3.7006e-05,-0.00024016,-9.9064e-05,0.00022676,0.049937,-0.014965,-0.014933,-0.0012489,-0.00051513,0.0011791,0,0,0,0.024992,0.00012803,-7.0625e-05,0.012531,0.0083497,0.024964,7.992e-07,0.45,0.15,0.9
0.024684,0.0051888,-0.0059983,0.025023,-3.1887e-05,-2.7175e-06,-0.00027394,-4.9946e-05,0.0002399,0.050067,-0.015076,-0.015,-0.0014245,-0.00025972,0.0012475,0,0,0,0.025028,3.5899e-05,-7.591e-05,0.012552,0.0083295,0.025049,8.0745e-07,0.5,0.15,0.9
0.027192,0.0052342,-0.0060487,0.02509,-6.6e-05,-2.7831e-05,-0.00026826,-9.6459e-06,0.00022518,0.050235,-0.015169,-0.01507,-0.0013949,-5.0159e-05,0.0011709,0,0,0,0.025095,-1.5065e-05,-8.3773e-05,0.012589,0.0083319,0.025144,8.1668e-07,0.55,0.15,0.9
0.029708,0.0052626,-0.0060823,0.025165,-8.4395e-05,-4.241e-05,-0.00023621,1.7763e-05,0.00019235,0.050406,-0.015242,-0.015133,-0.0012283,9.2367e-05,0.0010002,0,0,0,0.025169,-2.9878e-05,-0.00010075,0.012635,0.0083461,0.025234,8.2544e-07,0.6,0.15,0.9
0.032232,0.0052823,-0.0061072,0.025235,-9.1601e-05,-4.907e-05,-0.00018956,3.0134e-05,0.00015019,0.050555,-0.015295,-0.015184,-0.00098569,0.0001567,0.00078097,0,0,0,0.025238,-3.0125e-05,-0.00011301,0.012675,0.0083649,0.02531,8.3277e-07,0.65,0.15,0.9
0.034763,0.0052985,-0.0061287,0.025292,-9.1095e-05,-4.9971e-05,-0.00013855,2.7817e-05,0.0001065,0.050669,-0.015327,-0.015221,-0.00072046,0.00014465,0.00055379,0,0,0,0.025293,-3.2522e-05,-0.00010987,0.012702,0.0083837,0.025365,8.3819e-07,0.7,0.15,0.9
0.037299,0.005314,-0.0061491,0.025332,-8.594e-05,-4.7228e-05,-9.1318e-05,1.3618e-05,6.7442e-05,0.050745,-0.015343,-0.015242,-0.00047485,7.0814e-05,0.0003507,0,0,0,0.025333,-3.6791e-05,-9.6968e-05,0.012715,0.0083997,0.0254,8.4167e-07,0.75,0.15,0.9
0.039838,0.0053293,-0.0061689,0.025357,-7.883e-05,-4.2831e-05,-5.3173e-05,-7.8932e-06,3.6921e-05,0.050788,-0.015346,-0.015253,-0.0002765,-4.1045e-05,0.00019199,0,0,0,0.025358,-3.2374e-05,-8.9499e-05,0.012724,0.0084119,0.025419,8.4352e-07,0.8,0.15,0.9
0.042378,0.0053436,-0.0061869,0.025371,-7.1856e-05,-3.837e-05,-2.6397e-05,-3.145e-05,1.638e-05,0.050808,-0.015343,-0.015256,-0.00013726,-0.00016354,8.5175e-05,0,0,0,0.025371,-1.4409e-05,-9.5876e-05,0.012733,0.0084202,0.025426,8.4422e-07,0.85,0.15,0.9
0.044919,0.0053555,-0.0062016,0.025376,-6.6344e-05,-3.4835e-05,-1.0528e-05,-5.2136e-05,5.0816e-06,0.050813,-0.015338,-0.015256,-5.4747e-05,-0.00027111,2.6424e-05,0,0,0,0.025376,7.5081e-06,-0.0001087,0.012743,0.008425,0.025427,8.4429e-07,0.9,0.15,0.9
0.047459,0.0053633,-0.0062112,0.025378,-6.2919e-05,-3.2658e-05,-2.7271e-07,-6.6128e-05,-2.6119e-06,0.050813,-0.015333,-0.015254,-1.4181e-06,-0.00034386,-1.3582e-05,0,0,0,0.025378,2.3132e-05,-0.00011871,0.012748,0.0084275,0.025426,8.4416e-07,0.95,0.15,0.9
0.04873,0.0053661,-0.0062145,0.025378,-6.1769e-05,-3.1933e-05,4.5636e-06,-7.1056e-05,-6.7548e-06,0.050813,-0.015331,-0.015254,2.3731e-05,-0.00036949,-3.5125e-05,0,0,0,0.025378,2.8687e-05,-0.0001224,0.01275,0.0084282,0.025425,8.4408e-07,1,0.15,0.9
0.001006,0.00043995,-0.00072492,0.026378,0.0094569,0.0085365,0.0032803,-3.5801e-05,-0.0050097,0.041961,-0.0020353,-0.0044281,0.017058,-0.00018617,-0.026051,0,0,0,0.028311,0.0093058,0.0067554,0.010778,0.014791,0.02041,4.222e-07,0,0.2,0.9
0.002098,0.00087105,-0.00142,0.026269,0.007792,0.006368,0.0031063,-7.4732e-05,-0.004373,0.044042,-0.0039981,-0.0077006,0.016153,-0.00038861,-0.02274,0,0,0,0.027775,0.0075677,0.0050856,0.011345,0.013476,0.02157,5.0449e-07,0.05,0.2,0.9
0.0044042,0.0016981,-0.0027014,0.026403,0.0050949,0.003249,0.0026389,-0.00015205,-0.0030655,0.0478,-0.0076014,-0.012401,0.013722,-0.00079064,-0.015941,0,0,0,0.027198,0.0048329,0.0027155,0.012241,0.011582,0.023512,6.5499e-07,0.1,0.2,0.9
0.006878,0.0024291,-0.0037257,0.026555,0.003321,0.0018108,0.0020056,-0.00021729,-0.0018668,0.050031,-0.010378,-0.014304,0.010429,-0.0011299,-0.0097074,0,0,0,0.026913,0.0031654,0.0016081,0.012653,0.010562,0.024572,7.5197e-07,0.15,0.2,0.9
0.0094072,0.0030296,-0.0044799,0.02627,0.0020868,0.001056,0.0013588,-0.00025496,-0.00099831,0.050655,-0.012222,-0.014902,0.007066,-0.0013258,-0.0051912,0,0,0,0.02641,0.0020642,0.00093946,0.012735,0.0098044,0.02493,7.901e-07,0.2,0.2,0.9
0.011944,0.0034954,-0.0050202,0.0259,0.0012769,0.00063365,0.00080939,-0.00026162,-0.00044791,0.050654,-0.013367,-0.015039,0.0042088,-0.0013604,-0.0023291,0,0,0,0.025946,0.0013521,0.00051304,0.012716,0.0092703,0.025025,8.0193e-07,0.25,0.2,0.9
0.014473,0.0038406,-0.0053998,0.025595,0.00075566,0.0003832,0.00039037,-0.00024166,-0.00011115,0.050506,-0.014075,-0.015044,0.0020299,-0.0012566,-0.00057796,0,0,0,0.025606,0.00087958,0.00024791,0.012679,0.0089111,0.025049,8.0572e-07,0.3,0.2,0.9
0.016994,0.0040864,-0.0056603,0.025391,0.0004209,0.00022686,9.3395e-05,-0.00020204,9.0146e-05,0.050394,-0.014529,-0.015033,0.00048565,-0.0010506,0.00046876,0,0,0,0.025394,0.00055472,9.0439e-05,0.012652,0.0086796,0.025075,8.0908e-07,0.35,0.2,0.9
0.019512,0.004254,-0.0058332,0.025283,0.00020544,0.00012479,-0.00010215,-0.00015001,0.00020336,0.050368,-0.014834,-0.015044,-0.00053118,-0.00078007,0.0010575,0,0,0,0.025286,0.00032317,4.2752e-06,0.012641,0.0085378,0.025124,8.1435e-07,0.4,0.2,0.9
0.022031,0.0043631,-0.0059437,0.025249,6.6604e-05,5.5525e-05,-0.00021681,-9.2791e-05,0.00025617,0.050424,-0.015049,-0.015078,-0.0011274,-0.00048251,0.0013321,0,0,0,0.025253,0.00015473,-3.735e-05,0.012645,0.0084569,0.025195,8.2157e-07,0.45,0.2,0.9
0.024554,0.0044308,-0.0060116,0.025263,-2.2181e-05,7.5373e-06,-0.00026843,-3.7741e-05,0.00026557,0.050534,-0.015206,-0.015129,-0.0013958,-0.00019625,0.001381,0,0,0,0.025268,4.2801e-05,-6.3235e-05,0.012666,0.008416,0.025279,8.2984e-07,0.5,0.2,0.9
0.027084,0.0044714,-0.006053,0.025302,-7.7207e-05,-2.4951e-05,-0.00027271,7.983e-06,0.00024378,0.050666,-0.015321,-0.015185,-0.0014181,4.1512e-05,0.0012677,0,0,0,0.025308,-9.7664e-06,-9.7808e-05,0.012703,0.0084001,0.025362,8.3801e-07,0.55,0.2,0.9
0.029621,0.0044962,-0.0060803,0.02535,-0.00010853,-4.4702e-05,-0.00024429,3.8477e-05,0.00020155,0.050792,-0.0154,-0.015234,-0.0012703,0.00020008,0.001048,0,0,0,0.025354,-2.1752e-05,-0.00013558,0.012745,0.008399,0.025433,8.4504e-07,0.6,0.2,0.9
0.032164,0.0045134,-0.0061021,0.025393,-0.00012286,-5.3502e-05,-0.00019696,5.0409e-05,0.00014928,0.050892,-0.015449,-0.015269,-0.0010242,0.00026213,0.00077626,0,0,0,0.025396,-2.3699e-05,-0.00015522,0.012775,0.0084056,0.025485,8.5019e-07,0.65,0.2,0.9
0.03471,0.0045283,-0.0061235,0.025424,-0.00012544,-5.3481e-05,-0.00014315,4.3931e-05,9.6678e-05,0.050956,-0.015473,-0.015286,-0.00074438,0.00022844,0.00050272,0,0,0,0.025426,-2.9357e-05,-0.00015087,0.012788,0.0084151,0.025516,8.5323e-07,0.7,0.2,0.9
0.037259,0.0045434,-0.0061465,0.025442,-0.00012091,-4.7508e-05,-9.2748e-05,2.2642e-05,5.1489e-05,0.050985,-0.015478,-0.015288,-0.00048229,0.00011774,0.00026774,0,0,0,0.025442,-3.5686e-05,-0.00013326,0.012788,0.0084245,0.025527,8.5433e-07,0.75,0.2,0.9
0.039809,0.0045589,-0.0061704,0.025448,-0.00011324,-3.8772e-05,-5.221e-05,-7.4389e-06,1.8472e-05,0.050986,-0.015472,-0.015278,-0.00027149,-3.8682e-05,9.6053e-05,0,0,0,0.025448,-3.0511e-05,-0.00012168,0.012785,0.0084319,0.025524,8.5403e-07,0.8,0.2,0.9
0.042358,0.0045736,-0.0061931,0.025446,-0.00010544,-3.003e-05,-2.4274e-05,-3.9435e-05,-9.3539e-07,0.050973,-0.01546,-0.015264,-0.00012622,-0.00020506,-4.864e-06,0,0,0,0.025446,-8.214e-06,-0.00012731,0.012787,0.0084367,0.025514,8.5295e-07,0.85,0.2,0.9
0.044906,0.0045859,-0.006212,0.025441,-9.9297e-05,-2.3092e-05,-8.4168e-06,-6.7059e-05,-8.1252e-06,0.050955,-0.015449,-0.015251,-4.3767e-05,-0.00034871,-4.2251e-05,0,0,0,0.025441,1.969e-05,-0.00014209,0.012791,0.0084394,0.025502,8.5173e-07,0.9,0.2,0.9
0.047453,0.0045941,-0.0062244,0.025436,-9.5533e-05,-1.8795e-05,1.1127e-06,-8.5548e-05,-1.0717e-05,0.05094,-0.015441,-0.015242,5.7861e-06,-0.00044485,-5.5731e-05,0,0,0,0.025436,3.9946e-05,-0.00015428,0.012795,0.0084405,0.025494,8.5082e-07,0.95,0.2,0.9
0.048727,0.004597,-0.0062287,0.025434,-9.4284e-05,-1.7357e-05,5.4887e-06,-9.2028e-05,-1.2444e-05,0.050935,-0.015439,-0.015239,2.8541e-05,-0.00047854,-6.4711e-05,0,0,0,0.025434,4.7163e-05,-0.00015882,0.012796,0.0084408,0.025491,8.5049e-07,1,0.2,0.9
0.00099381,0.00034914,-0.00073349,0.026091,0.0095214,0.0084702,0.0026236,-3.3664e-05,-0.0050757,0.041386,-0.0016937,-0.0044267,0.013643,-0.00017505,-0.026394,0,0,0,0.027882,0.0094043,0.0067955,0.010543,0.014694,0.019923,3.8944e-07,0,0.25,0.9
0.0020693,0.00069154,-0.0014375,0.025999,0.0080281,0.0063501,0.0025139,-6.8834e-05,-0.0044383,0.043372,-0.0033533,-0.0077162,0.013072,-0.00035794,-0.023079,0,0,0,0.027389,0.0078543,0.0051345,0.011127,0.013459,0.02104,4.6143e-07,0.05,0.25,0.9
0.0043372,0.001352,-0.0027362,0.026162,0.0055854,0.0032905,0.0022087,-0.00013752,-0.0031252,0.046998,-0.0065004,-0.012467,0.011485,-0.00071509,-0.016251,0,0,0,0.026888,0.005379,0.0027703,0.012059,0.011679,0.022939,5.9821e-07,0.1,0.25,0.9
0.0067691,0.001946,-0.0037752,0.026359,0.0038834,0.0018587,0.0017682,-0.00019523,-0.0019123,0.049273,-0.0091638,-0.014428,0.0091947,-0.0010152,-0.0099438,0,0,0,0.026689,0.003748,0.0016636,0.012513,0.0107,0.02406,6.9765e-07,0.15,0.25,0.9
0.0092644,0.0024471,-0.0045385,0.026162,0.002582,0.0010931,0.0012783,-0.00023057,-0.0010236,0.05012,-0.011189,-0.015061,0.0066471,-0.001199,-0.0053226,0,0,0,0.026295,0.0025372,0.001005,0.012645,0.0099459,0.024564,7.5098e-07,0.2,0.25,0.9
0.011781,0.0028463,-0.0050813,0.025896,0.0016557,0.00066221,0.00082047,-0.0002395,-0.00045306,0.050402,-0.012624,-0.015207,0.0042665,-0.0012454,-0.0023559,0,0,0,0.025942,0.0016841,0.00058765,0.012677,0.0094047,0.024827,7.8074e-07,0.25,0.25,0.9
0.014305,0.0031481,-0.0054573,0.025679,0.0010234,0.00040801,0.00044012,-0.0002234,-9.9712e-05,0.0505,-0.013606,-0.015206,0.0022886,-0.0011617,-0.0005185,0,0,0,0.025692,0.0010956,0.00032302,0.012685,0.0090369,0.024993,7.9939e-07,0.3,0.25,0.9
0.016831,0.0033654,-0.0057095,0.025535,0.00059855,0.00024838,0.00015074,-0.00018649,0.00011361,0.050562,-0.014273,-0.015183,0.00078383,-0.00096975,0.00059078,0,0,0,0.025538,0.00068542,0.00015815,0.01269,0.008794,0.025121,8.1326e-07,0.35,0.25,0.9
0.019361,0.0035139,-0.0058712,0.025459,0.00031518,0.00014127,-5.1595e-05,-0.00013457,0.00023414,0.050644,-0.01473,-0.015182,-0.0002683,-0.00069978,0.0012175,0,0,0,0.025462,0.00039321,6.0185e-05,0.012701,0.0086385,0.025237,8.2532e-07,0.4,0.25,0.9
0.021895,0.0036098,-0.005969,0.025436,0.00012723,6.4868e-05,-0.00017756,-7.4826e-05,0.00028929,0.050758,-0.015046,-0.015208,-0.00092331,-0.0003891,0.0015043,0,0,0,0.025441,0.00018373,3.4869e-06,0.012719,0.0085428,0.025348,8.366e-07,0.45,0.25,0.9
0.024437,0.0036681,-0.0060245,0.025449,3.8892e-06,8.5944e-06,-0.00023985,-1.5705e-05,0.00029583,0.050891,-0.015267,-0.015255,-0.0012472,-8.1667e-05,0.0015383,0,0,0,0.025455,5.3556e-05,-4.6967e-05,0.012751,0.0084872,0.025452,8.4698e-07,0.5,0.25,0.9
0.026985,0.0037022,-0.0060554,0.02548,-7.4785e-05,-3.155e-05,-0.00025198,3.3829e-05,0.00026626,0.051023,-0.015418,-0.015306,-0.0013103,0.00017591,0.0013845,0,0,0,0.025485,1.2304e-06,-0.00011301,0.012799,0.0084578,0.025541,8.5586e-07,0.55,0.25,0.9
0.029539,0.0037226,-0.0060754,0.025513,-0.00012167,-5.6348e-05,-0.0002282,6.597e-05,0.00021261,0.051132,-0.015517,-0.015347,-0.0011866,0.00034304,0.0011056,0,0,0,0.025516,-9.8451e-06,-0.00017217,0.012844,0.0084448,0.025608,8.6248e-07,0.6,0.25,0.9
0.032098,0.0037373,-0.0060938,0.025537,-0.00014569,-6.6235e-05,-0.00018308,7.6088e-05,0.0001476,0.051202,-0.015574,-0.015367,-0.00095204,0.00039566,0.0007675,0,0,0,0.02554,-1.5758e-05,-0.00019852,0.012869,0.0084418,0.025647,8.664e-07,0.65,0.25,0.9
0.034659,0.0037512,-0.0061158,0.025549,-0.00015392,-6.3225e-05,-0.00013029,6.413e-05,8.3615e-05,0.051228,-0.015599,-0.015363,-0.0006775,0.00033348,0.0004348,0,0,0,0.02555,-2.5457e-05,-0.00019278,0.012871,0.0084438,0.025659,8.6761e-07,0.7,0.25,0.9
0.03722,0.0037661,-0.0061426,0.025547,-0.00015259,-5.1322e-05,-8.0824e-05,3.4605e-05,3.0662e-05,0.051215,-0.015602,-0.015339,-0.00042029,0.00017994,0.00015944,0,0,0,0.025547,-3.3786e-05,-0.00017052,0.012859,0.0084475,0.025649,8.6663e-07,0.75,0.25,0.9
0.039781,0.0037821,-0.0061723,0.025535,-0.00014693,-3.5508e-05,-4.1788e-05,-4.8686e-06,-5.3601e-06,0.051178,-0.015593,-0.015304,-0.0002173,-2.5317e-05,-2.7873e-05,0,0,0,0.025535,-2.6983e-05,-0.00015558,0.012845,0.0084507,0.025626,8.6428e-07,0.8,0.25,0.9
0.042338,0.0037976,-0.0062013,0.025518,-0.00014069,-2.022e-05,-1.6022e-05,-4.5729e-05,-2.3097e-05,0.051132,-0.01558,-0.015267,-8.3315e-05,-0.00023779,-0.0001201,0,0,0,0.025518,3.978e-07,-0.00016137,0.01284,0.0084523,0.025599,8.6146e-07,0.85,0.25,0.9
0.044894,0.0038106,-0.0062257,0.025502,-0.00013587,-8.322e-06,-2.7848e-06,-8.0391e-05,-2.4896e-05,0.05109,-0.015568,-0.015236,-1.4481e-05,-0.00041803,-0.00012946,0,0,0,0.025502,3.4446e-05,-0.00017868,0.01284,0.0084526,0.025575,8.5895e-07,0.9,0.25,0.9
0.047447,0.0038192,-0.006242,0.025491,-0.00013307,-1.0459e-06,4.0955e-06,-0.00010332,-2.1004e-05,0.051062,-0.01556,-0.015217,2.1297e-05,-0.00053728,-0.00010922,0,0,0,0.025491,5.9207e-05,-0.00019334,0.012842,0.0084522,0.025559,8.5725e-07,0.95,0.25,0.9
0.048724,0.0038222,-0.0062476,0.025487,-0.00013217,1.3713e-06,7.2062e-06,-0.00011131,-1.9715e-05,0.051052,-0.015557,-0.01521,3.7472e-05,-0.00057882,-0.00010252,0,0,0,0.025487,6.7998e-05,-0.00019882,0.012843,0.008452,0.025553,8.5666e-07,1,0.25,0.9
0.00098719,0.00027058,-0.00074177,0.025932,0.0095616,0.008437,0.0020411,-3.0945e-05,-0.0051384,0.041066,-0.0014985,-0.0044225,0.010614,-0.00016092,-0.02672,0,0,0,0.027627,0.009483,0.0068208,0.010403,0.014644,0.019625,3.6977e-07,0,0.3,0.9
0.0020533,0.00053572,-0.0014541,0.025845,0.0081701,0.0063443,0.0019679,-6.2343e-05,-0.0044995,0.042982,-0.0029736,-0.0077206,0.010233,-0.00032418,-0.023397,0,0,0,0.027147,0.0080536,0.0051587,0.010994,0.013453,0.020708,4.3459e-07,0.05,0.3,0.9
0.0042982,0.0010481,-0.002769,0.026009,0.005892,0.0033192,0.0017612,-0.00012267,-0.0031806,0.046491,-0.0058127,-0.012502,0.0091581,-0.0006379,-0.016539,0,0,0,0.026673,0.0057524,0.0027948,0.011939,0.01174,0.022557,5.6036e-07,0.1,0.3,0.9
0.0067023,0.0015128,-0.0038214,0.026216,0.0042677,0.0018943,0.0014537,-0.00017263,-0.001956,0.048735,-0.0083308,-0.014502,0.0075594,-0.00089766,-0.010171,0,0,0,0.026511,0.0041721,0.001695,0.012408,0.010793,0.023683,6.5761e-07,0.15,0.3,0.9
0.0091717,0.0019107,-0.0045934,0.02606,0.0029593,0.0011256,0.0010951,-0.00020385,-0.0010511,0.049669,-0.010393,-0.01516,0.0056945,-0.00106,-0.0054656,0,0,0,0.026177,0.0029209,0.0010469,0.012565,0.010048,0.024252,7.1757e-07,0.2,0.3,0.9
0.011669,0.002233,-0.0051389,0.025852,0.0019737,0.00068919,0.00073883,-0.00021259,-0.00046314,0.050107,-0.011977,-0.015317,0.0038419,-0.0011055,-0.0024083,0,0,0,0.025893,0.001984,0.00063801,0.012628,0.0095051,0.024613,7.5799e-07,0.25,0.3,0.9
0.014182,0.0024801,-0.0055119,0.025697,0.0012663,0.00043053,0.00042362,-0.00019851,-9.3682e-05,0.050375,-0.013144,-0.015317,0.0022028,-0.0010322,-0.00048715,0,0,0,0.025709,0.0013075,0.00037751,0.012666,0.0091312,0.02488,7.8747e-07,0.3,0.3,0.9
0.016707,0.0026591,-0.0057563,0.025603,0.00077155,0.00026661,0.00016966,-0.00016364,0.00013302,0.050584,-0.013979,-0.015292,0.00088226,-0.00085094,0.00069168,0,0,0,0.025607,0.00082327,0.00021126,0.012698,0.0088805,0.025096,8.1038e-07,0.35,0.3,0.9
0.019241,0.002781,-0.0059066,0.025563,0.00043095,0.00015344,-1.7017e-05,-0.00011221,0.00026303,0.050776,-0.014568,-0.01529,-8.8491e-05,-0.00058347,0.0013678,0,0,0,0.025567,0.00047451,0.0001064,0.01273,0.008716,0.025279,8.2928e-07,0.4,0.3,0.9
0.021784,0.0028585,-0.0059911,0.025563,0.00019931,6.8444e-05,-0.00013869,-5.0856e-05,0.00032259,0.050965,-0.01498,-0.01532,-0.00072118,-0.00026445,0.0016775,0,0,0,0.025568,0.00022792,3.4655e-05,0.012767,0.0086102,0.025437,8.454e-07,0.45,0.3,0.9
0.024337,0.0029041,-0.0060334,0.025586,4.3981e-05,1.9302e-06,-0.00020216,1.1282e-05,0.00032742,0.051144,-0.015265,-0.015374,-0.0010512,5.8669e-05,0.0017026,0,0,0,0.025592,8.1106e-05,-4.1211e-05,0.012817,0.008544,0.025572,8.59e-07,0.5,0.3,0.9
0.026899,0.0029295,-0.0060531,0.025618,-5.7539e-05,-4.7762e-05,-0.00021735,6.366e-05,0.00028991,0.051299,-0.015457,-0.015432,-0.0011302,0.00033103,0.0015075,0,0,0,0.025623,2.2924e-05,-0.00013357,0.012878,0.0085042,0.025679,8.6968e-07,0.55,0.3,0.9
0.029467,0.0029445,-0.0060654,0.025645,-0.00012045,-7.8556e-05,-0.0001968,9.6609e-05,0.00022351,0.05141,-0.015581,-0.015472,-0.0010233,0.00050237,0.0011622,0,0,0,0.025649,5.7155e-06,-0.00020842,0.012929,0.0084821,0.025751,8.769e-07,0.6,0.3,0.9
0.03204,0.002956,-0.0060808,0.025659,-0.00015562,-8.8861e-05,-0.00015471,0.00010419,0.0001438,0.051465,-0.015653,-0.01548,-0.00080447,0.00054176,0.00074778,0,0,0,0.025661,-7.1642e-06,-0.00023929,0.01295,0.0084716,0.025785,8.8034e-07,0.65,0.3,0.9
0.034614,0.0029684,-0.0061043,0.025656,-0.00017182,-8.0544e-05,-0.00010506,8.6168e-05,6.6663e-05,0.051464,-0.015689,-0.015452,-0.00054631,0.00044807,0.00034665,0,0,0,0.025657,-2.2274e-05,-0.00023089,0.012944,0.008468,0.025784,8.8027e-07,0.7,0.3,0.9
0.037186,0.0029832,-0.0061364,0.025638,-0.00017667,-5.9373e-05,-5.9285e-05,4.8087e-05,4.9586e-06,0.051419,-0.015701,-0.015396,-0.00030828,0.00025005,2.5785e-05,0,0,0,0.025639,-3.2834e-05,-0.00020347,0.012921,0.0084675,0.025757,8.7757e-07,0.75,0.3,0.9
0.039756,0.0029995,-0.0061736,0.025611,-0.00017632,-3.3053e-05,-2.4553e-05,-7.3764e-07,-3.4054e-05,0.051348,-0.0157,-0.015327,-0.00012768,-3.8357e-06,-0.00017708,0,0,0,0.025611,-2.3221e-05,-0.00018629,0.012899,0.0084673,0.025717,8.7341e-07,0.8,0.3,0.9
0.042321,0.0030156,-0.0062106,0.025582,-0.00017487,-8.4338e-06,-3.4135e-06,-5.008e-05,-4.9294e-05,0.051274,-0.015694,-0.015261,-1.7751e-05,-0.00026042,-0.00025633,0,0,0,0.025582,1.0863e-05,-0.0001943,0.012888,0.0084662,0.025674,8.6904e-07,0.85,0.3,0.9
0.044883,0.0030291,-0.0062419,0.025557,-0.00017408,1.0263e-05,5.2947e-06,-9.1221e-05,-4.4439e-05,0.051211,-0.015688,-0.015209,2.7533e-05,-0.00047435,-0.00023108,0,0,0,0.025557,5.1738e-05,-0.00021566,0.012886,0.0084642,0.02564,8.6538e-07,0.9,0.3,0.9
0.047442,0.0030381,-0.0062627,0.02554,-0.00017402,2.1482e-05,8.1065e-06,-0.00011811,-3.2957e-05,0.051171,-0.015685,-0.015176,4.2154e-05,-0.00061419,-0.00017138,0,0,0,0.02554,8.0895e-05,-0.00023349,0.012887,0.0084624,0.025618,8.6301e-07,0.95,0.3,0.9
0.048721,0.0030413,-0.00627,0.025534,-0.00017411,2.5169e-05,9.3391e-06,-0.00012742,-2.8239e-05,0.051157,-0.015684,-0.015165,4.8563e-05,-0.0006626,-0.00014684,0,0,0,0.025534,9.1138e-05,-0.00024012,0.012887,0.0084616,0.02561,8.622e-07,1,0.3,0.9
0.00098373,0.00019928,-0.00074933,0.02585,0.0095903,0.0084236,0.0015064,-2.7875e-05,-0.0051954,0.040891,-0.0013833,-0.0044167,0.0078334,-0.00014495,-0.027016,0,0,0,0.02748,0.0095439,0.0068394,0.01032,0.014621,0.019445,3.5791e-07,0,0.35,0.9
0.0020445,0.00039418,-0.0014692,0.025762,0.0082599,0.0063473,0.0014572,-5.5422e-05,-0.0045546,0.042759,-0.0027458,-0.0077184,0.0075773,-0.00028819,-0.023684,0,0,0,0.027003,0.0081911,0.0051744,0.010915,0.013456,0.020503,4.1791e-07,0.05,0.35,0.9
0.0042759,0.00077072,-0.0027982,0.025918,0.0060852,0.0033428,0.0013172,-0.00010747,-0.0032303,0.046179,-0.005386,-0.012516,0.0068497,-0.00055884,-0.016798,0,0,0,0.026533,0.0060026,0.0028101,0.011862,0.011782,0.02231,5.3574e-07,0.1,0.35,0.9
0.0066624,0.0011129,-0.0038624,0.026122,0.004521,0.001923,0.0011067,-0.00014963,-0.0019963,0.048377,-0.0077847,-0.01454,0.0057547,-0.00077809,-0.010381,0,0,0,0.026384,0.0044638,0.0017177,0.012333,0.010855,0.023422,6.2998e-07,0.15,0.35,0.9
0.0091136,0.0014079,-0.0046418,0.025981,0.0032248,0.0011543,0.00085469,-0.00017598,-0.0010786,0.049335,-0.0098317,-0.015215,0.0044444,-0.00091509,-0.0056086,0,0,0,0.02608,0.003201,0.0010788,0.012501,0.01012,0.024016,6.9242e-07,0.2,0.35,0.9
0.011596,0.0016485,-0.0051897,0.025805,0.0022137,0.00071566,0.00059441,-0.00018331,-0.00047629,0.049852,-0.011485,-0.01538,0.003091,-0.0009532,-0.0024767,0,0,0,0.025838,0.0022194,0.00067693,0.01258,0.0095781,0.024429,7.3865e-07,0.25,0.35,0.9
0.014099,0.0018338,-0.00556,0.025687,0.0014621,0.00045391,0.0003537,-0.00017029,-9.2279e-05,0.050224,-0.01276,-0.015382,0.0018392,-0.00088551,-0.00047985,0,0,0,0.025696,0.0014868,0.00041992,0.012638,0.0092009,0.024762,7.7503e-07,0.3,0.35,0.9
0.016618,0.0019675,-0.0057968,0.02563,0.00092011,0.00028548,0.0001511,-0.00013731,0.00014784,0.050537,-0.013709,-0.015359,0.00078573,-0.00071402,0.00076878,0,0,0,0.025634,0.00095003,0.0002522,0.012691,0.0089453,0.025041,8.0452e-07,0.35,0.35,0.9
0.019153,0.0020571,-0.005936,0.02562,0.00053789,0.00016491,-3.7919e-06,-8.7066e-05,0.00028855,0.050819,-0.014395,-0.015365,-1.9718e-05,-0.00045274,0.0015005,0,0,0,0.025624,0.00055977,0.00013912,0.012743,0.0087744,0.025278,8.2902e-07,0.4,0.35,0.9
0.0217,0.0021118,-0.0060072,0.025642,0.00027308,6.8896e-05,-0.00010805,-2.5423e-05,0.00035409,0.051079,-0.01488,-0.015411,-0.00056186,-0.0001322,0.0018412,0,0,0,0.025648,0.00028693,4.9376e-05,0.012799,0.0086613,0.025481,8.4962e-07,0.45,0.35,0.9
0.02426,0.0021416,-0.0060361,0.025679,9.2632e-05,-1.1064e-05,-0.00016359,3.8241e-05,0.00035835,0.05131,-0.015216,-0.015485,-0.00085069,0.00019885,0.0018634,0,0,0,0.025686,0.00012529,-5.0006e-05,0.012868,0.008587,0.025649,8.6661e-07,0.5,0.35,0.9
0.026831,0.0021564,-0.0060444,0.025718,-2.7586e-05,-7.3421e-05,-0.00017656,9.2169e-05,0.0003131,0.051496,-0.015442,-0.015561,-0.00091809,0.00047928,0.0016281,0,0,0,0.025723,5.3685e-05,-0.00015998,0.012942,0.008539,0.025777,8.7958e-07,0.55,0.35,0.9
0.02941,0.0021645,-0.0060492,0.025745,-0.00010462,-0.00011204,-0.00015702,0.00012509,0.00023313,0.051621,-0.015589,-0.015609,-0.00081649,0.00065049,0.0012123,0,0,0,0.025749,2.3428e-05,-0.00024345,0.012996,0.0085096,0.02586,8.8794e-07,0.6,0.35,0.9
0.031993,0.002172,-0.0060621,0.025754,-0.00015096,-0.00012241,-0.00011792,0.0001299,0.0001374,0.051672,-0.015681,-0.015607,-0.0006132,0.00067548,0.00071446,0,0,0,0.025756,7.7458e-07,-0.00027571,0.013016,0.0084935,0.025894,8.9142e-07,0.65,0.35,0.9
0.034577,0.0021823,-0.0060883,0.025741,-0.00017674,-0.00010623,-7.2731e-05,0.00010626,4.596e-05,0.051653,-0.015735,-0.015551,-0.0003782,0.00055255,0.00023899,0,0,0,0.025742,-2.102e-05,-0.00026247,0.013002,0.0084862,0.025885,8.905e-07,0.7,0.35,0.9
0.037159,0.0021961,-0.0061271,0.025712,-0.00019056,-7.1916e-05,-3.2534e-05,6.0704e-05,-2.4896e-05,0.051581,-0.015765,-0.015457,-0.00016918,0.00031566,-0.00012946,0,0,0,0.025712,-3.3598e-05,-0.00022908,0.012971,0.0084831,0.025844,8.864e-07,0.75,0.35,0.9
0.039735,0.0022121,-0.0061734,0.025673,-0.00019897,-3.1109e-05,-3.9976e-06,4.1145e-06,-6.6462e-05,0.051484,-0.015783,-0.015347,-2.0788e-05,2.1396e-05,-0.0003456,0,0,0,0.025673,-1.9426e-05,-0.00021091,0.012942,0.008481,0.025789,8.8075e-07,0.8,0.35,0.9
0.042307,0.0022282,-0.0062199,0.025634,-0.00020579,5.9757e-06,1.0994e-05,-5.189e-05,-7.8233e-05,0.051387,-0.015795,-0.015245,5.7167e-05,-0.00026983,-0.00040681,0,0,0,0.025634,2.3193e-05,-0.00022329,0.012929,0.0084779,0.025735,8.7509e-07,0.85,0.35,0.9
0.044874,0.0022417,-0.0062592,0.025601,-0.00021197,3.3434e-05,1.417e-05,-9.782e-05,-6.5639e-05,0.051309,-0.015805,-0.015166,7.3683e-05,-0.00050866,-0.00034132,0,0,0,0.025601,7.1397e-05,-0.00025014,0.012926,0.0084741,0.025692,8.7054e-07,0.9,0.35,0.9
0.047438,0.0022507,-0.0062853,0.02558,-0.00021661,4.9556e-05,1.2254e-05,-0.00012748,-4.5871e-05,0.05126,-0.015811,-0.015119,6.3723e-05,-0.00066289,-0.00023853,0,0,0,0.02558,0.00010458,-0.00027174,0.012926,0.0084709,0.025666,8.6767e-07,0.95,0.35,0.9
0.048719,0.0022539,-0.0062944,0.025572,-0.00021836,5.4784e-05,1.1317e-05,-0.00013768,-3.7545e-05,0.051243,-0.015813,-0.015103,5.8849e-05,-0.00071592,-0.00019523,0,0,0,0.025572,0.00011605,-0.00027968,0.012926,0.0084696,0.025657,8.6671e-07,1,0.35,0.9
0.00098217,0.00013225,-0.00075586,0.025813,0.0096114,0.0084222,0.0010008,-2.4136e-05,-0.0052445,0.040806,-0.0013183,-0.0044103,0.005204,-0.00012551,-0.027271,0,0,0,0.027405,0.0095885,0.0068532,0.010276,0.014616,0.019346,3.5122e-07,0,0.4,0.9
0.0020403,0.00026114,-0.001482,0.025724,0.0083159,0.0063559,0.00096931,-4.7359e-05,-0.004602,0.042644,-0.0026159,-0.0077119,0.0050404,-0.00024627,-0.023931,0,0,0,0.026927,0.0082822,0.0051859,0.010871,0.013465,0.020386,4.0819e-07,0.05,0.4,0.9
0.0042644,0.00050949,-0.002823,0.025872,0.006202,0.0033638,0.00087996,-9.0445e-05,-0.0032731,0.046004,-0.0051373,-0.012516,0.0045758,-0.00047031,-0.01702,0,0,0,0.026454,0.0061618,0.0028218,0.011816,0.011812,0.022162,5.2085e-07,0.1,0.4,0.9
0.0066407,0.00073428,-0.0038966,0.026068,0.0046771,0.0019476,0.00074546,-0.0001244,-0.0020317,0.048161,-0.0074551,-0.014552,0.0038764,-0.00064687,-0.010565,0,0,0,0.026306,0.00465,0.0017364,0.012285,0.010898,0.023257,6.1259e-07,0.15,0.4,0.9
0.0090805,0.00092753,-0.004682,0.025931,0.0033948,0.0011803,0.00058268,-0.00014534,-0.0011045,0.049118,-0.0094775,-0.015235,0.0030299,-0.00075575,-0.0057434,0,0,0,0.026016,0.0033849,0.0011059,0.012455,0.010169,0.023857,6.7569e-07,0.2,0.4,0.9
0.011552,0.0010845,-0.0052316,0.025769,0.0023747,0.00074185,0.00041033,-0.0001507,-0.00049097,0.049668,-0.011157,-0.015403,0.0021337,-0.00078363,-0.0025531,0,0,0,0.025795,0.0023803,0.00071066,0.012542,0.0096286,0.024295,7.2474e-07,0.25,0.4,0.9
0.014047,0.001204,-0.0055991,0.025672,0.0016003,0.00047877,0.00024584,-0.00013863,-9.4598e-05,0.050096,-0.01249,-0.015406,0.0012784,-0.00072085,-0.00049191,0,0,0,0.025678,0.0016158,0.00045682,0.012611,0.0092502,0.024664,7.6499e-07,0.3,0.4,0.9
0.016562,0.0012882,-0.0058288,0.025637,0.0010312,0.00030634,0.00010275,-0.0001083,0.00015808,0.050472,-0.013504,-0.015388,0.00053428,-0.00056316,0.000822,0,0,0,0.02564,0.0010481,0.00028666,0.012677,0.0089916,0.024983,7.9854e-07,0.35,0.4,0.9
0.019095,0.0013415,-0.0059574,0.025648,0.00062395,0.00017745,-9.9116e-06,-6.1056e-05,0.00030979,0.050816,-0.014248,-0.015408,-5.154e-05,-0.00031749,0.0016109,0,0,0,0.025653,0.00063444,0.00016265,0.012745,0.0088166,0.025258,8.2686e-07,0.4,0.4,0.9
0.021644,0.0013705,-0.0060159,0.025687,0.00033887,6.8017e-05,-8.7065e-05,-1.7468e-06,0.00038232,0.05113,-0.014775,-0.015479,-0.00045274,-9.0831e-06,0.001988,0,0,0,0.025693,0.00034766,5.2949e-05,0.01282,0.0086979,0.025494,8.5089e-07,0.45,0.4,0.9
0.024208,0.0013826,-0.0060317,0.025737,0.00014288,-2.8883e-05,-0.0001274,6.0541e-05,0.00038706,0.051405,-0.015139,-0.015586,-0.00066248,0.00031481,0.0020127,0,0,0,0.025744,0.00017423,-6.6936e-05,0.012905,0.0086169,0.025691,8.7078e-07,0.5,0.4,0.9
0.026784,0.0013853,-0.006029,0.025783,1.0566e-05,-0.00010744,-0.00013376,0.00011355,0.00033457,0.051624,-0.015384,-0.015691,-0.00069555,0.00059047,0.0017398,0,0,0,0.025788,8.6433e-05,-0.00018865,0.012989,0.0085621,0.025841,8.8596e-07,0.55,0.4,0.9
0.02937,0.0013855,-0.0060268,0.025813,-7.6695e-05,-0.00015607,-0.00011349,0.00014507,0.00024088,0.051766,-0.015548,-0.015754,-0.00059015,0.00075436,0.0012526,0,0,0,0.025816,4.0209e-05,-0.00027609,0.013046,0.0085268,0.025936,8.9561e-07,0.6,0.4,0.9
0.031961,0.0013879,-0.006038,0.025819,-0.00013274,-0.00016637,-7.7554e-05,0.00014721,0.0001286,0.051818,-0.015657,-0.015745,-0.00040328,0.00076548,0.00066872,0,0,0,0.025821,6.0448e-06,-0.00030638,0.013063,0.0085067,0.025972,8.9938e-07,0.65,0.4,0.9
0.034552,0.001395,-0.0060679,0.025801,-0.00016864,-0.00013985,-3.803e-05,0.0001196,2.2542e-05,0.051787,-0.015734,-0.015659,-0.00019776,0.00062194,0.00011722,0,0,0,0.025801,-2.3101e-05,-0.00028573,0.013043,0.0084974,0.025957,8.9788e-07,0.7,0.4,0.9
0.037139,0.0014067,-0.0061147,0.025763,-0.00019345,-8.8506e-05,-4.8888e-06,6.9515e-05,-5.7236e-05,0.051695,-0.015792,-0.015519,-2.5422e-05,0.00036148,-0.00029763,0,0,0,0.025763,-3.6753e-05,-0.00024549,0.013004,0.0084937,0.025905,8.9268e-07,0.75,0.4,0.9
0.039721,0.0014212,-0.0061712,0.025716,-0.0002135,-2.9296e-05,1.6268e-05,8.8241e-06,-0.00010061,0.051578,-0.015839,-0.01536,8.4595e-05,4.5885e-05,-0.00052315,0,0,0,0.025716,-1.5684e-05,-0.0002276,0.012972,0.0084911,0.025839,8.8583e-07,0.8,0.4,0.9
0.042297,0.0014361,-0.0062281,0.02567,-0.00023161,2.3202e-05,2.4488e-05,-5.0139e-05,-0.00010799,0.051464,-0.015879,-0.015216,0.00012734,-0.00026072,-0.00056157,0,0,0,0.02567,3.7194e-05,-0.00024613,0.012958,0.0084871,0.025776,8.792e-07,0.85,0.4,0.9
0.044868,0.0014487,-0.006276,0.025632,-0.00024733,6.1118e-05,2.2079e-05,-9.7744e-05,-8.6992e-05,0.051376,-0.015911,-0.015109,0.00011481,-0.00050827,-0.00045236,0,0,0,0.025633,9.2712e-05,-0.00027929,0.012956,0.008482,0.025728,8.7405e-07,0.9,0.4,0.9
0.047435,0.001457,-0.0063078,0.025609,-0.00025836,8.2878e-05,1.5595e-05,-0.00012812,-5.8814e-05,0.051322,-0.015932,-0.015044,8.1096e-05,-0.0006662,-0.00030583,0,0,0,0.025609,0.00012917,-0.00030483,0.012957,0.0084777,0.025699,8.709e-07,0.95,0.4,0.9
0.048718,0.00146,-0.0063189,0.0256,-0.00026235,8.9831e-05,1.2543e-05,-0.00013849,-4.6988e-05,0.051304,-0.015939,-0.015023,6.5226e-05,-0.00072015,-0.00024434,0,0,0,0.025601,0.00014149,-0.00031411,0.012957,0.008476,0.02569,8.6986e-07,1,0.4,0.9
0.00098185,6.745e-05,-0.00076106,0.025807,0.009626,0.0084281,0.0005104,-1.9321e-05,-0.0052836,0.040782,-0.001289,-0.0044037,0.0026541,-0.00010047,-0.027475,0,0,0,0.027381,0.0096179,0.0068623,0.010259,0.01462,0.019306,3.483e-07,0,0.45,0.9
0.0020391,0.00013259,-0.0014922,0.025716,0.008347,0.0063674,0.00049372,-3.7331e-05,-0.0046398,0.042604,-0.0025562,-0.0077032,0.0025673,-0.00019412,-0.024127,0,0,0,0.026901,0.0083352,0.0051941,0.010854,0.013477,0.020335,4.0367e-07,0.05,0.45,0.9
0.0042604,0.00025699,-0.0028422,0.025858,0.0062621,0.0033824,0.00044673,-6.9979e-05,-0.0033073,0.045929,-0.00502,-0.012507,0.002323,-0.00036389,-0.017198,0,0,0,0.026422,0.0062486,0.0028316,0.011795,0.011834,0.022092,5.1356e-07,0.1,0.45,0.9
0.006632,0.00036742,-0.0039228,0.026048,0.0047574,0.0019687,0.000377,-9.4711e-05,-0.0020608,0.04806,-0.0072951,-0.014546,0.0019604,-0.0004925,-0.010716,0,0,0,0.026272,0.0047493,0.0017527,0.01226,0.010925,0.023174,6.0379e-07,0.15,0.45,0.9
0.0090664,0.00046013,-0.0047124,0.02591,0.0034839,0.0012037,0.00029289,-0.00010949,-0.0011271,0.049008,-0.0093005,-0.015229,0.001523,-0.00056937,-0.0058611,0,0,0,0.025985,0.0034827,0.0011298,0.012428,0.010199,0.023771,6.6686e-07,0.2,0.45,0.9
0.011533,0.00053281,-0.0052627,0.025752,0.0024617,0.00076693,0.00020241,-0.0001125,-0.00050559,0.049566,-0.010988,-0.015394,0.0010525,-0.00058502,-0.0026291,0,0,0,0.025772,0.0024669,0.00074103,0.012516,0.0096601,0.024218,7.1694e-07,0.25,0.45,0.9
0.014023,0.0005848,-0.0056274,0.025662,0.0016781,0.0005041,0.00011377,-0.00010175,-9.9524e-05,0.050015,-0.012344,-0.015396,0.00059161,-0.00052912,-0.00051753,0,0,0,0.025667,0.0016872,0.00049057,0.012588,0.0092815,0.024602,7.5879e-07,0.3,0.45,0.9
0.016534,0.00061711,-0.0058507,0.025638,0.0010978,0.00032862,3.4357e-05,-7.567e-05,0.00016398,0.05042,-0.013384,-0.015384,0.00017866,-0.00039348,0.00085269,0,0,0,0.025641,0.0011063,0.0003177,0.012661,0.0090215,0.024939,7.9419e-07,0.35,0.45,0.9
0.019065,0.0006323,-0.0059697,0.02566,0.00068071,0.00019124,-2.9573e-05,-3.4454e-05,0.00032606,0.050796,-0.014149,-0.015422,-0.00015378,-0.00017916,0.0016955,0,0,0,0.025664,0.00068546,0.0001818,0.012741,0.0088438,0.025235,8.2448e-07,0.4,0.45,0.9
0.021614,0.00063423,-0.0060166,0.025708,0.00038845,6.6927e-05,-7.3076e-05,1.8261e-05,0.00040583,0.051142,-0.014688,-0.015524,-0.00038,9.4959e-05,0.0021103,0,0,0,0.025715,0.00039602,5.2475e-05,0.012831,0.008721,0.025492,8.5054e-07,0.45,0.45,0.9
0.024179,0.00062774,-0.0060206,0.025765,0.00018744,-4.9393e-05,-9.3202e-05,7.4428e-05,0.00041184,0.051448,-0.015055,-0.01567,-0.00048465,0.00038703,0.0021415,0,0,0,0.025773,0.00021609,-8.5224e-05,0.012929,0.0086345,0.025709,8.7243e-07,0.5,0.45,0.9
0.026759,0.00061801,-0.0060078,0.025817,5.0834e-05,-0.00014687,-9.024e-05,0.00012244,0.00035302,0.051692,-0.0153,-0.015815,-0.00046925,0.00063667,0.0018357,0,0,0,0.025823,0.00011419,-0.00021573,0.013019,0.0085737,0.025875,8.8932e-07,0.55,0.45,0.9
0.029348,0.00060975,-0.0059996,0.02585,-4.1489e-05,-0.00020734,-6.8713e-05,0.00015027,0.00024637,0.051848,-0.015468,-0.015899,-0.00035731,0.00078141,0.0012811,0,0,0,0.025852,5.2663e-05,-0.00030446,0.013078,0.0085336,0.025981,9.0008e-07,0.6,0.45,0.9
0.031944,0.00060627,-0.00601,0.025855,-0.00010447,-0.00021755,-3.6937e-05,0.00015002,0.00011821,0.051903,-0.015591,-0.015885,-0.00019207,0.00078011,0.00061471,0,0,0,0.025856,6.8972e-06,-0.00032992,0.013093,0.0085109,0.026019,9.0416e-07,0.65,0.45,0.9
0.034539,0.00060888,-0.0060443,0.025833,-0.00014975,-0.00017881,-4.6862e-06,0.00012136,-1.696e-06,0.051863,-0.015692,-0.015767,-2.4368e-05,0.00063106,-8.8193e-06,0,0,0,0.025833,-2.9409e-05,-0.00029945,0.013066,0.0085014,0.025999,9.0221e-07,0.7,0.45,0.9
0.03713,0.0006169,-0.0060996,0.02579,-0.00018629,-0.00010762,2.0023e-05,7.165e-05,-8.9454e-05,0.051757,-0.015782,-0.015578,0.00010412,0.00037258,-0.00046516,0,0,0,0.025791,-4.2685e-05,-0.00025171,0.013021,0.0084988,0.025939,8.9613e-07,0.75,0.45,0.9
0.039714,0.00062824,-0.0061667,0.025738,-0.00021951,-2.7336e-05,3.3146e-05,1.27e-05,-0.0001337,0.051625,-0.015866,-0.015366,0.00017236,6.6042e-05,-0.00069526,0,0,0,0.025739,-1.2268e-05,-0.0002354,0.012987,0.0084971,0.025864,8.8837e-07,0.8,0.45,0.9
0.042292,0.0006403,-0.0062341,0.025688,-0.00025068,4.2406e-05,3.4754e-05,-4.3616e-05,-0.00013613,0.051502,-0.01594,-0.015178,0.00018072,-0.0002268,-0.00070786,0,0,0,0.025689,5.2064e-05,-0.00026117,0.012975,0.0084934,0.025795,8.811e-07,0.85,0.45,0.9
0.044865,0.00065066,-0.0062907,0.025649,-0.00027747,9.1648e-05,2.7547e-05,-8.8423e-05,-0.00010672,0.051409,-0.015999,-0.01504,0.00014324,-0.0004598,-0.00055496,0,0,0,0.025649,0.00011424,-0.00030061,0.012975,0.0084877,0.025745,8.7564e-07,0.9,0.45,0.9
0.047433,0.00065756,-0.0063281,0.025624,-0.00029589,0.00011928,1.7359e-05,-0.00011668,-7.0712e-05,0.051354,-0.016038,-0.014958,9.0269e-05,-0.00060674,-0.0003677,0,0,0,0.025624,0.00015292,-0.00032977,0.012977,0.0084825,0.025716,8.7243e-07,0.95,0.45,0.9
0.048717,0.00065997,-0.0063412,0.025616,-0.00030248,0.00012798,1.2541e-05,-0.00012627,-5.5793e-05,0.051336,-0.016051,-0.014932,6.5212e-05,-0.00065661,-0.00029012,0,0,0,0.025616,0.00016564,-0.00034027,0.012978,0.0084805,0.025707,8.7139e-07,1,0.45,0.9
0.0009824,3.353e-06,-0.00076462,0.025822,0.0096344,0.008438,2.4663e-05,-1.3147e-05,-0.0053105,0.040801,-0.0012873,-0.0043979,0.00012825,-6.8364e-05,-0.027615,0,0,0,0.027396,0.0096322,0.0068666,0.010265,0.014632,0.019313,3.4841e-07,0,0.5,0.9
0.00204,5.5212e-06,-0.001499,0.025731,0.0083573,0.0063795,2.1553e-05,-2.4767e-05,-0.0046658,0.042619,-0.0025514,-0.0076937,0.00011207,-0.00012879,-0.024262,0,0,0,0.026914,0.0083541,0.005199,0.010858,0.013489,0.020338,4.034e-07,0.05,0.5,0.9
0.0042619,7.4915e-06,-0.0028548,0.02587,0.0062762,0.0033974,1.3486e-05,-4.4937e-05,-0.0033309,0.045935,-0.0050078,-0.012493,7.0127e-05,-0.00023367,-0.017321,0,0,0,0.026431,0.0062727,0.0028396,0.011796,0.011848,0.022086,5.1267e-07,0.1,0.5,0.9
0.0066336,4.773e-06,-0.0039396,0.026056,0.0047745,0.0019855,3.6194e-06,-5.8938e-05,-0.0020816,0.048056,-0.0072758,-0.014527,1.8822e-05,-0.00030648,-0.010824,0,0,0,0.026277,0.0047726,0.0017661,0.012255,0.010939,0.023161,6.0249e-07,0.15,0.5,0.9
0.0090675,-2.5233e-06,-0.0047313,0.025915,0.0035023,0.0012229,-6.6258e-06,-6.6503e-05,-0.0011444,0.048995,-0.0092781,-0.015205,-3.4453e-05,-0.00034582,-0.005951,0,0,0,0.025988,0.0035027,0.0011495,0.012419,0.010213,0.023754,6.6534e-07,0.2,0.5,0.9
0.011533,-1.4273e-05,-0.0052814,0.025754,0.00248,0.00078872,-1.8049e-05,-6.6699e-05,-0.00051815,0.049548,-0.010966,-0.015363,-9.3853e-05,-0.00034683,-0.0026944,0,0,0,0.025774,0.0024826,0.00076671,0.012504,0.0096744,0.024198,7.153e-07,0.25,0.5,0.9
0.014022,-3.0314e-05,-0.0056432,0.025664,0.0016964,0.00052732,-3.0848e-05,-5.7814e-05,-0.00010556,0.049993,-0.012322,-0.015361,-0.00016041,-0.00030063,-0.00054889,0,0,0,0.025668,0.0017,0.00051964,0.012574,0.0092959,0.024581,7.5705e-07,0.3,0.5,0.9
0.016532,-5.029e-05,-0.0058611,0.025639,0.0011172,0.00034993,-4.4078e-05,-3.8021e-05,0.00016613,0.050398,-0.013359,-0.015354,-0.0002292,-0.00019771,0.00086388,0,0,0,0.025642,0.0011202,0.00034439,0.012649,0.0090355,0.02492,7.9244e-07,0.35,0.5,0.9
0.019062,-7.3426e-05,-0.0059722,0.025661,0.00070322,0.00020494,-5.5387e-05,-6.7016e-06,0.00033677,0.050778,-0.014113,-0.015409,-0.00028801,-3.4849e-05,0.0017512,0,0,0,0.025666,0.00070547,0.00019764,0.012734,0.0088565,0.025219,8.2293e-07,0.4,0.5,0.9
0.02161,-9.8325e-05,-0.0060096,0.025711,0.00041566,6.6239e-05,-6.134e-05,3.3922e-05,0.00042306,0.051132,-0.014635,-0.015543,-0.00031897,0.00017639,0.0021999,0,0,0,0.025718,0.00042296,5.1575e-05,0.012833,0.0087309,0.025483,8.4954e-07,0.45,0.5,0.9
0.024175,-0.00012292,-0.0060038,0.02577,0.0002196,-6.9509e-05,-5.8553e-05,7.7729e-05,0.00043074,0.05145,-0.014981,-0.015733,-0.00030447,0.00040419,0.0022398,0,0,0,0.025778,0.00024283,-0.00010035,0.012939,0.0086401,0.025709,8.7229e-07,0.5,0.5,0.9
0.026755,-0.0001447,-0.0059829,0.025824,8.6452e-05,-0.00018636,-4.542e-05,0.00011525,0.00036693,0.051707,-0.015209,-0.015919,-0.00023619,0.00059927,0.001908,0,0,0,0.025829,0.00013187,-0.00023748,0.013033,0.0085745,0.025884,8.9012e-07,0.55,0.5,0.9
0.029346,-0.00016131,-0.00597,0.025857,-5.3734e-06,-0.00025916,-2.359e-05,0.00013627,0.00024926,0.051872,-0.015369,-0.016029,-0.00012267,0.00070862,0.0012962,0,0,0,0.02586,5.866e-05,-0.00032613,0.013093,0.0085307,0.025996,9.0155e-07,0.6,0.5,0.9
0.031942,-0.0001712,-0.0059804,0.025861,-7.1619e-05,-0.00026931,1.9767e-06,0.00013396,0.00010742,0.051927,-0.015498,-0.016012,1.0279e-05,0.0006966,0.00055858,0,0,0,0.025862,3.2877e-06,-0.00034514,0.013104,0.0085068,0.026035,9.0577e-07,0.65,0.5,0.9
0.034539,-0.00017421,-0.0060194,0.025838,-0.00012413,-0.00021792,2.482e-05,0.00010809,-2.4229e-05,0.05188,-0.01562,-0.015864,0.00012906,0.00056207,-0.00012599,0,0,0,0.025838,-3.9173e-05,-0.00030325,0.013071,0.0084985,0.02601,9.0342e-07,0.7,0.5,0.9
0.03713,-0.00017154,-0.0060829,0.025793,-0.00017134,-0.00012652,3.9716e-05,6.5163e-05,-0.00011828,0.051764,-0.015742,-0.015626,0.00020653,0.00033885,-0.00061505,0,0,0,0.025794,-5.0873e-05,-0.00024775,0.013021,0.0084983,0.025944,8.9666e-07,0.75,0.5,0.9
0.039715,-0.00016533,-0.0061598,0.025739,-0.00021734,-2.519e-05,4.4542e-05,1.5347e-05,-0.00016248,0.051624,-0.015863,-0.015363,0.00023162,7.9805e-05,-0.00084492,0,0,0,0.02574,-9.5688e-06,-0.00023415,0.012987,0.0084989,0.025863,8.8828e-07,0.8,0.5,0.9
0.042293,-0.0001579,-0.0062368,0.025688,-0.00026144,6.1379e-05,4.0283e-05,-3.1457e-05,-0.00015996,0.051497,-0.015973,-0.015133,0.00020947,-0.00016358,-0.00083177,0,0,0,0.02569,6.631e-05,-0.00026751,0.012979,0.0084961,0.025792,8.8067e-07,0.85,0.5,0.9
0.044865,-0.00015124,-0.0063013,0.025649,-0.00029924,0.00012137,2.9657e-05,-6.8174e-05,-0.00012304,0.051405,-0.016061,-0.014967,0.00015422,-0.0003545,-0.00063981,0,0,0,0.02565,0.00013391,-0.00031249,0.012981,0.0084904,0.025742,8.7518e-07,0.9,0.5,0.9
0.047433,-0.00014674,-0.0063437,0.025625,-0.000325,0.00015439,1.7099e-05,-9.107e-05,-8.051e-05,0.051352,-0.016117,-0.014871,8.8915e-05,-0.00047356,-0.00041865,0,0,0,0.025625,0.00017372,-0.00034464,0.012985,0.0084847,0.025714,8.7208e-07,0.95,0.5,0.9
0.048717,-0.00014517,-0.0063584,0.025617,-0.00033416,0.00016465,1.1052e-05,-9.8792e-05,-6.317e-05,0.051335,-0.016137,-0.01484,5.7473e-05,-0.00051372,-0.00032848,0,0,0,0.025617,0.00018645,-0.00035613,0.012986,0.0084824,0.025706,8.711e-07,1,0.5,0.9
0.00098364,-6.1284e-05,-0.00076628,0.025854,0.0096365,0.0084503,-0.00046525,-5.5693e-06,-0.0053231,0.040856,-0.0013097,-0.0043936,-0.0024193,-2.896e-05,-0.02768,0,0,0,0.027444,0.009631,0.0068657,0.010289,0.014647,0.019362,3.5124e-07,0,0.55,0.9
0.0020428,-0.00012255,-0.001502,0.025762,0.0083486,0.0063906,-0.00045474,-9.5582e-06,-0.0046779,0.042681,-0.0025946,-0.0076854,-0.0023647,-4.9703e-05,-0.024325,0,0,0,0.026961,0.0083403,0.0052004,0.01088,0.013501,0.020389,4.0701e-07,0.05,0.55,0.9
0.0042681,-0.00024379,-0.00286,0.025902,0.0062487,0.0034073,-0.00042374,-1.5044e-05,-0.003342,0.046011,-0.0050885,-0.012476,-0.0022035,-7.8226e-05,-0.017378,0,0,0,0.026475,0.0062379,0.0028451,0.011815,0.011853,0.02214,5.1765e-07,0.1,0.55,0.9
0.0066439,-0.00036016,-0.0039458,0.026088,0.0047339,0.0019961,-0.00037357,-1.6608e-05,-0.0020918,0.048139,-0.0073828,-0.014501,-0.0019426,-8.636e-05,-0.010878,0,0,0,0.026318,0.0047252,0.0017753,0.012271,0.010939,0.023216,6.0818e-07,0.15,0.55,0.9
0.009082,-0.00046768,-0.0047373,0.025944,0.0034553,0.0012355,-0.00030965,-1.5738e-05,-0.001154,0.049073,-0.0093968,-0.015168,-0.0016102,-8.1839e-05,-0.0060009,0,0,0,0.026022,0.0034498,0.0011627,0.01243,0.010211,0.023803,6.7077e-07,0.2,0.55,0.9
0.011551,-0.00056378,-0.0052861,0.025776,0.0024338,0.00080402,-0.00024135,-1.2587e-05,-0.00052641,0.04961,-0.011081,-0.015318,-0.001255,-6.5453e-05,-0.0027373,0,0,0,0.025799,0.0024313,0.00078399,0.012507,0.0096714,0.024237,7.1969e-07,0.25,0.55,0.9
0.014043,-0.0006474,-0.0056452,0.025677,0.001657,0.00054467,-0.00017714,-6.1099e-06,-0.00011093,0.050033,-0.012419,-0.015311,-0.00092114,-3.1772e-05,-0.00057682,0,0,0,0.025683,0.0016568,0.00053937,0.012572,0.0092929,0.024605,7.599e-07,0.3,0.55,0.9
0.016555,-0.00071881,-0.005859,0.025643,0.0010894,0.00036658,-0.00012256,5.3069e-06,0.00016537,0.050413,-0.013427,-0.015306,-0.00063733,2.7596e-05,0.00085993,0,0,0,0.025646,0.0010905,0.00036226,0.012642,0.0090331,0.024929,7.9363e-07,0.35,0.55,0.9
0.019084,-0.00077904,-0.0059646,0.025657,0.00068959,0.00021611,-7.9471e-05,2.2776e-05,0.00034155,0.05077,-0.014144,-0.015376,-0.00041325,0.00011843,0.0017761,0,0,0,0.025662,0.00069258,0.00020775,0.012727,0.0088541,0.025216,8.227e-07,0.4,0.55,0.9
0.021631,-0.00082925,-0.0059954,0.025699,0.00041686,6.6087e-05,-4.6473e-05,4.5622e-05,0.00043251,0.051109,-0.014626,-0.015538,-0.00024166,0.00023723,0.002249,0,0,0,0.025707,0.0004245,5.0796e-05,0.012828,0.0087274,0.025472,8.4839e-07,0.45,0.55,0.9
0.024195,-0.00087038,-0.0059831,0.025754,0.00023418,-8.5556e-05,-2.0366e-05,7.0513e-05,0.00044169,0.05142,-0.014933,-0.015764,-0.0001059,0.00036667,0.0022968,0,0,0,0.025762,0.00025039,-0.00010966,0.012936,0.0086344,0.025694,8.7076e-07,0.5,0.55,0.9
0.026773,-0.00090293,-0.0059569,0.025805,0.00011115,-0.00021866,1.9491e-06,9.1642e-05,0.00037461,0.051675,-0.01513,-0.015987,1.0135e-05,0.00047654,0.001948,0,0,0,0.025811,0.00013724,-0.00025064,0.013031,0.0085659,0.02587,8.886e-07,0.55,0.55,0.9
0.029363,-0.00092717,-0.0059414,0.025837,2.5006e-05,-0.00030197,2.1819e-05,0.00010241,0.00024915,0.05184,-0.015271,-0.016121,0.00011346,0.00053255,0.0012956,0,0,0,0.02584,5.8714e-05,-0.00033867,0.013089,0.00852,0.025983,9.0011e-07,0.6,0.55,0.9
0.031957,-0.00094358,-0.0059525,0.025841,-4.0404e-05,-0.00031209,3.8333e-05,9.8333e-05,9.7524e-05,0.051893,-0.015398,-0.016104,0.00019933,0.00051133,0.00050712,0,0,0,0.025842,-1.9498e-06,-0.00035149,0.013097,0.0084961,0.026021,9.0421e-07,0.65,0.55,0.9
0.034552,-0.00095313,-0.0059958,0.025817,-9.6735e-05,-0.00024998,4.9322e-05,7.9329e-05,-4.2306e-05,0.051841,-0.015533,-0.015932,0.00025647,0.00041251,-0.00021999,0,0,0,0.025817,-4.897e-05,-0.00029825,0.013058,0.0084899,0.025992,9.0151e-07,0.7,0.55,0.9
0.037142,-0.00095735,-0.006066,0.025772,-0.00015167,-0.00014168,5.3096e-05,4.9848e-05,-0.0001403,0.051719,-0.015681,-0.015655,0.0002761,0.00025921,-0.00072958,0,0,0,0.025773,-5.932e-05,-0.00023507,0.013004,0.0084928,0.02592,8.943e-07,0.75,0.55,0.9
0.039724,-0.00095806,-0.0061508,0.025718,-0.00020781,-2.3165e-05,4.9647e-05,1.6679e-05,-0.00018374,0.051576,-0.015833,-0.015353,0.00025817,8.6731e-05,-0.00095544,0,0,0,0.02572,-7.8953e-06,-0.00022458,0.012972,0.0084958,0.025837,8.8561e-07,0.8,0.55,0.9
0.042299,-0.00095697,-0.0062353,0.025669,-0.0002625,7.6796e-05,4.0585e-05,-1.3816e-05,-0.00017703,0.051449,-0.015972,-0.01509,0.00021104,-7.1842e-05,-0.00092057,0,0,0,0.02567,7.7993e-05,-0.00026506,0.012968,0.0084944,0.025766,8.7796e-07,0.85,0.55,0.9
0.044869,-0.00095541,-0.0063058,0.025631,-0.00030939,0.00014513,2.8167e-05,-3.7329e-05,-0.00013443,0.051361,-0.016084,-0.014903,0.00014647,-0.00019411,-0.00069903,0,0,0,0.025632,0.00014943,-0.00031453,0.012973,0.0084889,0.025718,8.7264e-07,0.9,0.55,0.9
0.047435,-0.00095419,-0.006352,0.025608,-0.00034124,0.00018222,1.4745e-05,-5.1797e-05,-8.734e-05,0.051312,-0.016157,-0.014796,7.6672e-05,-0.00026934,-0.00045417,0,0,0,0.025608,0.00018961,-0.000349,0.012979,0.008483,0.025692,8.6975e-07,0.95,0.55,0.9
0.048718,-0.00095374,-0.0063681,0.025601,-0.00035254,0.00019362,8.0834e-06,-5.6639e-05,-6.8433e-05,0.051296,-0.016182,-0.014762,4.2034e-05,-0.00029452,-0.00035585,0,0,0,0.025601,0.00020214,-0.00036126,0.012981,0.0084805,0.025685,8.6887e-07,1,0.55,0.9
0.00098557,-0.00012762,-0.00076583,0.025903,0.009632,0.0084646,-0.00096744,3.1748e-06,-0.0053198,0.040947,-0.0013564,-0.0043916,-0.0050307,1.6509e-05,-0.027663,0,0,0,0.027526,0.0096138,0.0068593,0.010333,0.014666,0.019453,3.5689e-07,0,0.6,0.9
0.0020474,-0.00025394,-0.0015009,0.025812,0.0083202,0.0064,-0.00094197,7.8722e-06,-0.0046744,0.042792,-0.0026867,-0.0076793,-0.0048983,4.0935e-05,-0.024307,0,0,0,0.027042,0.0082924,0.0051977,0.010922,0.013511,0.020488,4.1462e-07,0.05,0.6,0.9
0.0042792,-0.00050136,-0.0028569,0.025956,0.0061783,0.0034106,-0.00086814,1.8986e-05,-0.0033386,0.046158,-0.0052634,-0.012459,-0.0045143,9.8725e-05,-0.017361,0,0,0,0.026555,0.0061427,0.0028472,0.011854,0.011848,0.022255,5.2866e-07,0.1,0.6,0.9
0.0066632,-0.00073351,-0.0039403,0.026144,0.0046345,0.0019983,-0.00075261,3.1377e-05,-0.0020896,0.048309,-0.0076166,-0.014471,-0.0039136,0.00016316,-0.010866,0,0,0,0.026393,0.0046059,0.0017784,0.012307,0.010926,0.023337,6.2091e-07,0.15,0.6,0.9
0.0091101,-0.0009422,-0.0047292,0.025995,0.0033428,0.0012387,-0.00060906,4.1723e-05,-0.0011539,0.04924,-0.0096545,-0.015125,-0.0031671,0.00021696,-0.0060004,0,0,0,0.026085,0.0033249,0.001166,0.01246,0.010192,0.023918,6.8306e-07,0.2,0.6,0.9
0.011587,-0.0011223,-0.0052756,0.025815,0.0023239,0.00080949,-0.00045693,4.8598e-05,-0.00052841,0.049751,-0.011327,-0.015265,-0.002376,0.00025271,-0.0027478,0,0,0,0.025845,0.0023164,0.00078768,0.012529,0.0096496,0.024332,7.2988e-07,0.25,0.6,0.9
0.014085,-0.0012722,-0.0056324,0.0257,0.001562,0.00055227,-0.00031353,5.2128e-05,-0.00011408,0.05013,-0.012627,-0.015252,-0.0016304,0.00027107,-0.0005932,0,0,0,0.025708,0.0015627,0.00054301,0.012583,0.0092713,0.024673,7.6709e-07,0.3,0.6,0.9
0.0166,-0.001393,-0.0058438,0.025647,0.0010162,0.00037474,-0.00019072,5.3421e-05,0.00016251,0.05046,-0.013581,-0.015249,-0.00099175,0.00027779,0.00084504,0,0,0,0.025652,0.0010224,0.00036439,0.012644,0.0090128,0.024966,7.9757e-07,0.35,0.6,0.9
0.019131,-0.0014879,-0.0059468,0.025644,0.00064076,0.00022197,-9.3985e-05,5.388e-05,0.00034018,0.050771,-0.014238,-0.015327,-0.00048872,0.00028017,0.0017689,0,0,0,0.02565,0.00064972,0.00020747,0.012721,0.0088356,0.025224,8.237e-07,0.4,0.6,0.9
0.021677,-0.0015609,-0.0059751,0.025673,0.00039127,6.614e-05,-2.3527e-05,5.4483e-05,0.00043293,0.051072,-0.014661,-0.015506,-0.00012234,0.00028331,0.0022512,0,0,0,0.025681,0.0004009,4.8837e-05,0.012816,0.0087102,0.025458,8.4708e-07,0.45,0.6,0.9
0.024238,-0.0016162,-0.0059603,0.025719,0.00022849,-9.4188e-05,2.3818e-05,5.5291e-05,0.00044288,0.051357,-0.014918,-0.015757,0.00012385,0.00028751,0.002303,0,0,0,0.025727,0.00023834,-0.00011203,0.012919,0.0086176,0.025665,8.6787e-07,0.5,0.6,0.9
0.026813,-0.0016577,-0.0059325,0.025763,0.00012065,-0.00023641,5.2637e-05,5.5334e-05,0.0003745,0.051596,-0.015075,-0.016003,0.00027371,0.00028773,0.0019474,0,0,0,0.025769,0.00013129,-0.00025306,0.013011,0.0085492,0.025833,8.8474e-07,0.55,0.6,0.9
0.029398,-0.0016884,-0.0059166,0.025792,4.4458e-05,-0.0003257,6.7446e-05,5.3083e-05,0.00024564,0.051753,-0.015191,-0.016153,0.00035072,0.00027603,0.0012773,0,0,0,0.025795,5.6086e-05,-0.00034043,0.013068,0.0085036,0.02594,8.9569e-07,0.6,0.6,0.9
0.031988,-0.001711,-0.0059293,0.025795,-1.6098e-05,-0.00033579,7.1902e-05,4.7433e-05,8.9679e-05,0.051801,-0.015308,-0.016139,0.00037389,0.00024665,0.00046633,0,0,0,0.025796,-3.4429e-06,-0.0003495,0.013073,0.0084811,0.025975,8.9944e-07,0.65,0.6,0.9
0.034578,-0.0017275,-0.0059758,0.025772,-7.2097e-05,-0.00026757,6.88e-05,3.849e-05,-5.3528e-05,0.051747,-0.015447,-0.015955,0.00035776,0.00020015,-0.00027835,0,0,0,0.025772,-5.2633e-05,-0.00028769,0.01303,0.0084773,0.025944,8.965e-07,0.7,0.6,0.9
0.037163,-0.0017397,-0.0060504,0.025728,-0.0001303,-0.00014982,6.0438e-05,2.7632e-05,-0.00015269,0.051625,-0.015608,-0.015658,0.00031428,0.00014368,-0.00079396,0,0,0,0.025729,-6.397e-05,-0.00021737,0.012973,0.0084827,0.025871,8.8918e-07,0.75,0.6,0.9
0.039741,-0.0017486,-0.0061401,0.025677,-0.00019198,-2.192e-05,4.8936e-05,1.6814e-05,-0.00019496,0.051483,-0.015777,-0.015335,0.00025447,8.7433e-05,-0.0010138,0,0,0,0.025679,-7.0266e-06,-0.00020854,0.012944,0.0084878,0.025787,8.8054e-07,0.8,0.6,0.9
0.042311,-0.0017551,-0.006229,0.02563,-0.00025294,8.5116e-05,3.6164e-05,7.6749e-06,-0.0001856,0.051361,-0.015935,-0.015056,0.00018805,3.991e-05,-0.0009651,0,0,0,0.025632,8.5201e-05,-0.00025452,0.012943,0.0084874,0.025718,8.7311e-07,0.85,0.6,0.9
0.044877,-0.0017597,-0.0063029,0.025595,-0.0003054,0.00015769,2.3469e-05,1.0934e-06,-0.0001399,0.051278,-0.016062,-0.014858,0.00012204,5.6857e-06,-0.00072746,0,0,0,0.025595,0.00015885,-0.00030746,0.012951,0.0084823,0.025673,8.6809e-07,0.9,0.6,0.9
0.047439,-0.0017624,-0.0063514,0.025573,-0.00034101,0.00019677,1.0575e-05,-2.7422e-06,-9.0644e-05,0.051233,-0.016144,-0.014746,5.4991e-05,-1.426e-05,-0.00047135,0,0,0,0.025574,0.00019916,-0.00034378,0.012959,0.0084763,0.02565,8.6546e-07,0.95,0.6,0.9
0.04872,-0.0017633,-0.0063682,0.025566,-0.00035363,0.00020871,3.8835e-06,-3.9859e-06,-7.1114e-05,0.05122,-0.016172,-0.01471,2.0194e-05,-2.0727e-05,-0.0003698,0,0,0,0.025567,0.00021154,-0.00035667,0.012962,0.0084738,0.025644,8.6468e-07,1,0.6,0.9
0.00098845,-0.00019692,-0.0007632,0.025974,0.0096206,0.0084822,-0.0014906,1.26e-05,-0.0052998,0.041087,-0.0014326,-0.0043924,-0.0077511,6.5521e-05,-0.027559,0,0,0,0.02765,0.0095796,0.0068472,0.010401,0.014692,0.019595,3.6597e-07,0,0.65,0.9
0.0020543,-0.00039121,-0.0014954,0.025884,0.0082687,0.0064078,-0.001447,2.664e-05,-0.0046547,0.042963,-0.0028379,-0.0076761,-0.0075244,0.00013853,-0.024204,0,0,0,0.027164,0.0082066,0.0051903,0.010987,0.01352,0.020646,4.27e-07,0.05,0.65,0.9
0.0042963,-0.00077012,-0.0028454,0.026034,0.0060568,0.003406,-0.0013217,5.559e-05,-0.0033198,0.046391,-0.0055506,-0.012443,-0.0068727,0.00028907,-0.017263,0,0,0,0.026674,0.0059786,0.0028444,0.011915,0.011832,0.022439,5.4664e-07,0.1,0.65,0.9
0.0066934,-0.0011218,-0.0039228,0.026226,0.0044671,0.0019903,-0.0011289,8.2917e-05,-0.0020738,0.048578,-0.0079959,-0.014436,-0.0058701,0.00043117,-0.010784,0,0,0,0.026504,0.0044068,0.0017729,0.012366,0.010895,0.023533,6.4143e-07,0.15,0.65,0.9
0.0091541,-0.0014331,-0.0047068,0.026067,0.0031581,0.0012304,-0.00089436,0.00010325,-0.001143,0.049502,-0.010062,-0.015075,-0.0046507,0.00053688,-0.0059437,0,0,0,0.026176,0.0031245,0.0011555,0.01251,0.010152,0.024102,7.0243e-07,0.2,0.65,0.9
0.011644,-0.0016965,-0.0052496,0.025868,0.0021486,0.00080271,-0.00065112,0.00011376,-0.00052322,0.049965,-0.011705,-0.015205,-0.0033858,0.00059154,-0.0027207,0,0,0,0.025906,0.0021405,0.00077222,0.012567,0.0096064,0.024482,7.4557e-07,0.25,0.65,0.9
0.014151,-0.0019101,-0.0056045,0.025725,0.0014134,0.00054753,-0.0004265,0.00011368,-0.00011429,0.050274,-0.012937,-0.015188,-0.0022178,0.00059114,-0.0005943,0,0,0,0.025738,0.0014254,0.00052318,0.012607,0.0092287,0.024777,7.7789e-07,0.3,0.65,0.9
0.016671,-0.0020769,-0.0058155,0.025645,0.00090182,0.00037183,-0.00023762,0.00010368,0.00015789,0.050527,-0.013807,-0.015185,-0.0012356,0.00053916,0.00082105,0,0,0,0.025651,0.00092531,0.00034321,0.012654,0.008973,0.025022,8.0341e-07,0.35,0.65,0.9
0.019203,-0.0022028,-0.0059194,0.025617,0.00056071,0.00022051,-9.1735e-05,8.5505e-05,0.00033251,0.050766,-0.014381,-0.015266,-0.00047702,0.00044463,0.001729,0,0,0,0.025623,0.00058438,0.00019135,0.012716,0.0087995,0.025238,8.2517e-07,0.4,0.65,0.9
0.021748,-0.0022954,-0.0059493,0.025628,0.00034154,6.5846e-05,1.1018e-05,6.1876e-05,0.00042362,0.051011,-0.014733,-0.01545,5.7295e-05,0.00032175,0.0022028,0,0,0,0.025635,0.00035658,4.3363e-05,0.012796,0.0086783,0.025437,8.4504e-07,0.45,0.65,0.9
0.024304,-0.0023621,-0.0059368,0.02566,0.00020331,-9.348e-05,7.475e-05,3.646e-05,0.00043327,0.051254,-0.014933,-0.015705,0.0003887,0.00018959,0.002253,0,0,0,0.025668,0.00020974,-0.0001078,0.012888,0.00859,0.025619,8.6322e-07,0.5,0.65,0.9
0.026873,-0.0024104,-0.0059114,0.025697,0.00011399,-0.00023488,0.00010594,1.3545e-05,0.00036571,0.051467,-0.01505,-0.015957,0.00055091,7.0432e-05,0.0019017,0,0,0,0.025703,0.00011743,-0.00024443,0.012974,0.0085255,0.025769,8.783e-07,0.55,0.65,0.9
0.029451,-0.0024463,-0.0058979,0.025723,5.0763e-05,-0.00032367,0.00011241,-2.7823e-06,0.00023848,0.05161,-0.015138,-0.016112,0.00058451,-1.4468e-05,0.0012401,0,0,0,0.025726,5.4908e-05,-0.00033108,0.013029,0.0084834,0.025867,8.8819e-07,0.6,0.65,0.9
0.032034,-0.0024744,-0.0059128,0.025726,-1.539e-06,-0.0003337,0.00010245,-9.8881e-06,8.4585e-05,0.051653,-0.015239,-0.016102,0.00053276,-5.1418e-05,0.00043984,0,0,0,0.025727,3.6423e-06,-0.00034009,0.013034,0.0084636,0.025898,8.9148e-07,0.65,0.65,0.9
0.034616,-0.0024978,-0.0059611,0.025705,-5.3013e-05,-0.00026591,8.39e-05,-7.5159e-06,-5.6525e-05,0.051601,-0.015369,-0.015923,0.00043628,-3.9083e-05,-0.00029393,0,0,0,0.025705,-4.3998e-05,-0.00027567,0.012991,0.0084619,0.025866,8.8854e-07,0.7,0.65,0.9
0.037194,-0.0025181,-0.0060372,0.025664,-0.0001094,-0.00014898,6.3018e-05,2.2417e-06,-0.0001539,0.051484,-0.015528,-0.015631,0.0003277,1.1657e-05,-0.00080026,0,0,0,0.025666,-5.9445e-05,-0.00020018,0.012933,0.0084687,0.025796,8.8152e-07,0.75,0.65,0.9
0.039765,-0.0025358,-0.006128,0.025617,-0.000171,-2.2099e-05,4.3862e-05,1.592e-05,-0.00019492,0.051349,-0.015699,-0.015312,0.00022808,8.2783e-05,-0.0010136,0,0,0,0.025618,-5.7408e-06,-0.00018901,0.012904,0.0084746,0.025716,8.7333e-07,0.8,0.65,0.9
0.042329,-0.0025505,-0.0062178,0.025573,-0.00023277,8.3917e-05,2.8279e-05,2.9985e-05,-0.00018491,0.051235,-0.01586,-0.015036,0.00014705,0.00015592,-0.00096151,0,0,0,0.025574,8.6652e-05,-0.00023697,0.012906,0.0084747,0.025651,8.6635e-07,0.85,0.65,0.9
0.044888,-0.0025616,-0.0062923,0.02554,-0.00028626,0.00015565,1.6433e-05,4.1674e-05,-0.0001391,0.051158,-0.01599,-0.014841,8.545e-05,0.0002167,-0.00072332,0,0,0,0.025541,0.00016104,-0.00029253,0.012917,0.0084697,0.025609,8.617e-07,0.9,0.65,0.9
0.047445,-0.0025686,-0.006341,0.02552,-0.00032267,0.00019419,5.1354e-06,4.9248e-05,-9.0242e-05,0.051117,-0.016074,-0.01473,2.6704e-05,0.00025609,-0.00046926,0,0,0,0.02552,0.00020159,-0.00033045,0.012925,0.0084638,0.025589,8.5931e-07,0.95,0.65,0.9
0.048723,-0.002571,-0.0063579,0.025513,-0.00033559,0.00020594,-1.1077e-06,5.1853e-05,-7.1037e-05,0.051105,-0.016103,-0.014695,-5.7602e-06,0.00026964,-0.00036939,0,0,0,0.025514,0.00021404,-0.0003439,0.012929,0.0084613,0.025583,8.5861e-07,1,0.65,0.9
0.00099289,-0.00027088,-0.00075851,0.026083,0.0096009,0.0085071,-0.0020457,2.2047e-05,-0.0052639,0.041301,-0.0015522,-0.004396,-0.010637,0.00011464,-0.027373,0,0,0,0.027835,0.0095275,0.0068287,0.010503,0.01473,0.019808,3.7982e-07,0,0.7,0.9
0.0020651,-0.00053773,-0.0014857,0.025993,0.0081856,0.006416,-0.0019776,4.556e-05,-0.004619,0.043225,-0.0030742,-0.0076751,-0.010284,0.00023691,-0.024019,0,0,0,0.027343,0.0080748,0.0051768,0.011083,0.013532,0.020882,4.4583e-07,0.05,0.7,0.9
0.0043225,-0.0010564,-0.0028258,0.026148,0.0058655,0.0033924,-0.001784,9.2692e-05,-0.0032858,0.046741,-0.0059933,-0.012423,-0.0092768,0.000482,-0.017086,0,0,0,0.026843,0.0057282,0.0028344,0.012004,0.011802,0.022714,5.7359e-07,0.1,0.7,0.9
0.0067392,-0.0015331,-0.0038939,0.02634,0.0042116,0.0019701,-0.0014923,0.00013517,-0.0020445,0.048972,-0.008563,-0.014391,-0.0077599,0.00070291,-0.010631,0,0,0,0.026655,0.0041112,0.0017563,0.012449,0.010841,0.023817,6.7123e-07,0.15,0.7,0.9
0.0092197,-0.0019485,-0.0046705,0.026161,0.0028884,0.0012093,-0.0011484,0.00016515,-0.0011217,0.049864,-0.010646,-0.015011,-0.0059718,0.00085879,-0.005833,0,0,0,0.02629,0.0028414,0.0011274,0.012581,0.010086,0.024356,7.2925e-07,0.2,0.7,0.9
0.011726,-0.0022929,-0.005209,0.025927,0.0019042,0.00078309,-0.00080507,0.00017844,-0.00051144,0.050241,-0.012218,-0.015132,-0.0041864,0.00092791,-0.0026595,0,0,0,0.025975,0.0019076,0.0007319,0.012621,0.009538,0.024678,7.6596e-07,0.25,0.7,0.9
0.014244,-0.0025659,-0.0055627,0.025743,0.0012148,0.0005301,-0.00050003,0.00017384,-0.00011215,0.050438,-0.013334,-0.015114,-0.0026002,0.00090395,-0.00058315,0,0,0,0.025758,0.0012561,0.00047336,0.012642,0.0091625,0.024904,7.9084e-07,0.3,0.7,0.9
0.016769,-0.0027737,-0.0057754,0.025624,0.00075323,0.0003574,-0.00025246,0.00015208,0.00015118,0.050582,-0.014082,-0.015112,-0.0013128,0.00079079,0.00078612,0,0,0,0.02563,0.00081204,0.00029299,0.012668,0.0089115,0.025082,8.0947e-07,0.35,0.7,0.9
0.019302,-0.002926,-0.0058835,0.025565,0.00045699,0.00021115,-6.738e-05,0.00011558,0.00031849,0.050729,-0.014552,-0.015191,-0.00035038,0.00060101,0.0016561,0,0,0,0.02557,0.00050769,0.00015533,0.012707,0.0087444,0.025241,8.2557e-07,0.4,0.7,0.9
0.021842,-0.0030342,-0.0059194,0.025553,0.00027405,6.4661e-05,5.8066e-05,6.8877e-05,0.0004048,0.050904,-0.014823,-0.015367,0.00030194,0.00035816,0.002105,0,0,0,0.02556,0.00029992,3.1747e-05,0.012764,0.0086307,0.025396,8.4108e-07,0.45,0.7,0.9
0.024392,-0.0031095,-0.0059135,0.025573,0.00016325,-8.3867e-05,0.00013053,1.8994e-05,0.00041321,0.051098,-0.014967,-0.015609,0.00067878,9.8767e-05,0.0021487,0,0,0,0.025581,0.00017056,-9.888e-05,0.01284,0.0085508,0.025546,8.5603e-07,0.5,0.7,0.9
0.026952,-0.0031626,-0.0058943,0.025604,9.4011e-05,-0.00021439,0.00015897,-2.5065e-05,0.00034858,0.051281,-0.015046,-0.015848,0.00082663,-0.00013034,0.0018126,0,0,0,0.02561,9.9862e-05,-0.0002264,0.012918,0.0084947,0.025676,8.6889e-07,0.55,0.7,0.9
0.02952,-0.0032022,-0.0058857,0.025629,4.529e-05,-0.00029609,0.00015433,-5.4286e-05,0.0002279,0.051409,-0.015109,-0.015997,0.00080251,-0.00028228,0.0011851,0,0,0,0.025633,5.7412e-05,-0.00031168,0.012972,0.0084595,0.025762,8.7751e-07,0.6,0.7,0.9
0.032093,-0.0032349,-0.0059033,0.025635,3.5345e-06,-0.00030595,0.00012902,-6.2777e-05,8.2261e-05,0.051451,-0.01519,-0.015995,0.00067091,-0.00032644,0.00042775,0,0,0,0.025636,1.9578e-05,-0.0003234,0.01298,0.0084442,0.02579,8.8045e-07,0.65,0.7,0.9
0.034666,-0.0032645,-0.005952,0.025618,-3.9966e-05,-0.00024508,9.5171e-05,-5.0206e-05,-5.15e-05,0.051406,-0.015304,-0.015837,0.00049489,-0.00026107,-0.0002678,0,0,0,0.025619,-2.2825e-05,-0.00026302,0.012941,0.0084442,0.025763,8.7789e-07,0.7,0.7,0.9
0.037234,-0.0032925,-0.0060268,0.025583,-8.9886e-05,-0.00013923,6.2397e-05,-2.1789e-05,-0.00014433,0.051303,-0.015446,-0.015574,0.00032446,-0.0001133,-0.00075052,0,0,0,0.025584,-4.4435e-05,-0.00018583,0.012885,0.0084511,0.025699,8.7165e-07,0.75,0.7,0.9
0.039796,-0.0033185,-0.0061152,0.025539,-0.00014598,-2.3827e-05,3.6318e-05,1.4167e-05,-0.00018412,0.051181,-0.015601,-0.015284,0.00018885,7.3666e-05,-0.0009574,0,0,0,0.025541,-3.3237e-06,-0.00016797,0.012854,0.0084565,0.025627,8.6429e-07,0.8,0.7,0.9
0.042352,-0.0033411,-0.0062023,0.025499,-0.00020314,7.3027e-05,1.8614e-05,4.943e-05,-0.00017547,0.051076,-0.015749,-0.015031,9.6792e-05,0.00025704,-0.00091243,0,0,0,0.0255,8.2179e-05,-0.00021361,0.012857,0.0084563,0.025567,8.5797e-07,0.85,0.7,0.9
0.044903,-0.0033587,-0.0062746,0.025468,-0.00025311,0.0001388,8.2412e-06,7.7866e-05,-0.00013245,0.051004,-0.01587,-0.014851,4.2854e-05,0.0004049,-0.00068873,0,0,0,0.025469,0.00015577,-0.00027087,0.01287,0.0084512,0.025529,8.5372e-07,0.9,0.7,0.9
0.047452,-0.0033698,-0.0063219,0.025449,-0.0002873,0.00017421,-8.4687e-07,9.5925e-05,-8.6394e-05,0.050967,-0.015949,-0.014749,-4.4037e-06,0.00049881,-0.00044925,0,0,0,0.02545,0.00019658,-0.00031002,0.01288,0.0084454,0.02551,8.5151e-07,0.95,0.7,0.9
0.048726,-0.0033736,-0.0063383,0.025443,-0.00029946,0.00018503,-6.3288e-06,0.00010207,-6.8388e-05,0.050955,-0.015976,-0.014716,-3.291e-05,0.00053078,-0.00035562,0,0,0,0.025443,0.00020928,-0.0003239,0.012884,0.0084429,0.025505,8.5087e-07,1,0.7,0.9
0.0010002,-0.00035214,-0.00075209,0.026259,0.0095693,0.0085476,-0.0026487,3.0706e-05,-0.0052144,0.041647,-0.0017453,-0.0044016,-0.013773,0.00015967,-0.027115,0,0,0,0.028117,0.0094561,0.0068025,0.010657,0.014792,0.020131,4.0116e-07,0,0.75,0.9
0.0020824,-0.00069863,-0.0014726,0.026164,0.0080522,0.0064281,-0.0025433,6.3237e-05,-0.0045694,0.043639,-0.0034508,-0.0076734,-0.013225,0.00032883,-0.023761,0,0,0,0.027609,0.0078818,0.0051531,0.011228,0.013548,0.021237,4.744e-07,0.05,0.75,0.9
0.0043639,-0.0013695,-0.0027992,0.026316,0.0055666,0.0033675,-0.0022489,0.00012792,-0.003238,0.047271,-0.0066768,-0.012394,-0.011694,0.00066521,-0.016838,0,0,0,0.027079,0.0053592,0.0028115,0.012134,0.01175,0.023114,6.1312e-07,0.1,0.75,0.9
0.0068095,-0.0019781,-0.003855,0.026494,0.0038334,0.0019355,-0.0018212,0.00018488,-0.0020036,0.049528,-0.0093911,-0.014326,-0.00947,0.00096137,-0.010419,0,0,0,0.026847,0.0036927,0.0017233,0.012562,0.010754,0.024209,7.1253e-07,0.15,0.75,0.9
0.0093167,-0.0024977,-0.0046226,0.026272,0.0025163,0.0011751,-0.0013423,0.00022303,-0.0010923,0.050329,-0.011436,-0.014923,-0.0069802,0.0011598,-0.0056802,0,0,0,0.026418,0.0024699,0.0010753,0.012672,0.0099879,0.02468,7.6339e-07,0.2,0.75,0.9
0.011842,-0.0029182,-0.0051562,0.025976,0.0015908,0.00075201,-0.00089278,0.00023721,-0.00049542,0.050547,-0.012856,-0.015036,-0.0046424,0.0012335,-0.0025762,0,0,0,0.02603,0.0016293,0.00065996,0.012685,0.0094397,0.024901,7.8904e-07,0.25,0.75,0.9
0.014371,-0.0032435,-0.0055096,0.02573,0.00097579,0.00050153,-0.0005167,0.00022679,-0.00010943,0.050574,-0.013787,-0.015021,-0.0026869,0.0011793,-0.00056902,0,0,0,0.025747,0.0010713,0.00038957,0.012679,0.0090692,0.025024,8.0305e-07,0.3,0.75,0.9
0.0169,-0.0034851,-0.0057261,0.025561,0.00058271,0.00033256,-0.00022692,0.00019357,0.00014166,0.050573,-0.014371,-0.015021,-0.00118,0.0010066,0.00073662,0,0,0,0.025566,0.00069661,0.00021347,0.012676,0.0088255,0.025115,8.1289e-07,0.35,0.75,0.9
0.019429,-0.003658,-0.0058413,0.025468,0.0003412,0.0001943,-1.9722e-05,0.00014114,0.00029869,0.050615,-0.014715,-0.015097,-0.00010255,0.00073391,0.0015532,0,0,0,0.025473,0.00043125,9.9668e-05,0.012687,0.0086679,0.025209,8.2255e-07,0.4,0.75,0.9
0.021961,-0.0037776,-0.0058864,0.025438,0.00019854,6.1636e-05,0.00011427,7.5685e-05,0.00037814,0.050719,-0.014902,-0.015258,0.00059421,0.00039356,0.0019663,0,0,0,0.025444,0.0002414,1.2135e-05,0.012716,0.0085659,0.025318,8.335e-07,0.45,0.75,0.9
0.024501,-0.0038588,-0.0058907,0.025449,0.00011608,-6.8465e-05,0.00018568,6.795e-06,0.00038492,0.05087,-0.014996,-0.015476,0.00096555,3.5334e-05,0.0020016,0,0,0,0.025457,0.0001285,-8.8396e-05,0.012773,0.008499,0.025438,8.453e-07,0.5,0.75,0.9
0.027048,-0.003915,-0.0058808,0.02548,6.6661e-05,-0.0001805,0.00020608,-5.3212e-05,0.00032506,0.051029,-0.015047,-0.015689,0.0010716,-0.0002767,0.0016903,0,0,0,0.025487,8.1896e-05,-0.00020191,0.012844,0.0084555,0.025548,8.5613e-07,0.55,0.75,0.9
0.029604,-0.0039572,-0.0058789,0.02551,3.2368e-05,-0.00025017,0.00018887,-9.2069e-05,0.00021478,0.05115,-0.015091,-0.015826,0.00098214,-0.00047876,0.0011168,0,0,0,0.025513,6.2406e-05,-0.00028386,0.012899,0.0084306,0.025626,8.6379e-07,0.6,0.75,0.9
0.032163,-0.0039934,-0.0058996,0.025523,1.9912e-06,-0.00025961,0.00014927,-0.00010181,8.2083e-05,0.0512,-0.015154,-0.015834,0.00077622,-0.00052942,0.00042683,0,0,0,0.025524,3.9373e-05,-0.00029857,0.012911,0.0084216,0.025656,8.6678e-07,0.65,0.75,0.9
0.034724,-0.0040281,-0.0059477,0.025513,-3.1478e-05,-0.00021015,0.00010226,-8.213e-05,-4.0342e-05,0.051172,-0.015245,-0.015709,0.00053176,-0.00042707,-0.00020978,0,0,0,0.025514,3.6333e-06,-0.00024606,0.01288,0.0084239,0.025637,8.6506e-07,0.7,0.75,0.9
0.037281,-0.0040627,-0.0060189,0.025486,-7.1664e-05,-0.00012281,5.9653e-05,-4.0381e-05,-0.00012652,0.051088,-0.015361,-0.015494,0.0003102,-0.00020998,-0.00065788,0,0,0,0.025486,-2.4694e-05,-0.00017073,0.012829,0.0084304,0.025585,8.6004e-07,0.75,0.75,0.9
0.039832,-0.0040959,-0.0061022,0.025448,-0.00011816,-2.6712e-05,2.8059e-05,1.1782e-05,-0.00016506,0.050983,-0.015489,-0.015251,0.00014591,6.1265e-05,-0.00085831,0,0,0,0.025449,-1.1192e-06,-0.00014497,0.012797,0.0084344,0.025523,8.5383e-07,0.8,0.75,0.9
0.042379,-0.0041254,-0.0061841,0.025411,-0.00016644,5.4574e-05,8.9392e-06,6.2712e-05,-0.00015931,0.05089,-0.015612,-0.015038,4.6484e-05,0.0003261,-0.00082842,0,0,0,0.025412,7.2623e-05,-0.00018558,0.012799,0.0084331,0.02547,8.483e-07,0.85,0.75,0.9
0.044921,-0.0041486,-0.006252,0.025382,-0.00020916,0.00011017,2.4893e-07,0.00010368,-0.00012133,0.050824,-0.015714,-0.014883,1.2944e-06,0.00053915,-0.00063089,0,0,0,0.025383,0.00014344,-0.0002431,0.012813,0.0084277,0.025435,8.4445e-07,0.9,0.75,0.9
0.047461,-0.0041635,-0.0062965,0.025364,-0.00023862,0.00014033,-6.528e-06,0.00012967,-7.9934e-05,0.050787,-0.01578,-0.014795,-3.3946e-05,0.00067428,-0.00041566,0,0,0,0.025364,0.00018394,-0.00028254,0.012823,0.0084219,0.025417,8.4237e-07,0.95,0.75,0.9
0.048731,-0.0041686,-0.006312,0.025358,-0.00024913,0.00014959,-1.1161e-05,0.00013851,-6.3795e-05,0.050776,-0.015803,-0.014766,-5.8035e-05,0.00072026,-0.00033173,0,0,0,0.025358,0.0001968,-0.00029651,0.012827,0.0084195,0.025412,8.4174e-07,1,0.75,0.9
0.0010128,-0.00044541,-0.0007446,0.026559,0.0095128,0.0086182,-0.0033236,3.7367e-05,-0.0051556,0.04224,-0.0020809,-0.0044069,-0.017283,0.00019431,-0.026809,0,0,0,0.028565,0.0093645,0.0067606,0.010902,0.014897,0.020636,4.3553e-07,0,0.8,0.9
0.002112,-0.00088281,-0.0014571,0.026445,0.0078254,0.0064485,-0.0031526,7.7699e-05,-0.0045097,0.044326,-0.0040852,-0.0076652,-0.016394,0.00040404,-0.023451,0,0,0,0.028014,0.0076029,0.0051024,0.011456,0.013573,0.021783,5.1907e-07,0.05,0.8,0.9
0.0044326,-0.0017241,-0.0027678,0.026566,0.005087,0.003325,-0.0026927,0.00015813,-0.0031799,0.048084,-0.0077604,-0.012342,-0.014002,0.00082229,-0.016535,0,0,0,0.027402,0.0048238,0.0027525,0.012325,0.011659,0.023698,6.7119e-07,0.1,0.8,0.9
0.0069204,-0.0024722,-0.0038093,0.026696,0.0032827,0.0018831,-0.0020678,0.00022771,-0.0019548,0.050292,-0.010582,-0.014221,-0.010753,0.0011841,-0.010165,0,0,0,0.027078,0.0031284,0.0016552,0.012711,0.01062,0.024728,7.6743e-07,0.15,0.8,0.9
0.0094618,-0.003092,-0.0045669,0.026383,0.0020331,0.00113,-0.0014277,0.00027098,-0.0010592,0.050867,-0.012441,-0.014789,-0.0074242,0.0014091,-0.0055076,0,0,0,0.026535,0.0020264,0.00098415,0.012776,0.0098486,0.025049,8.0241e-07,0.2,0.8,0.9
0.012007,-0.0035784,-0.005096,0.025982,0.0012234,0.00071206,-0.00088203,0.00028286,-0.000479,0.050802,-0.013569,-0.014899,-0.0045866,0.0014709,-0.0024908,0,0,0,0.026034,0.0013348,0.00054843,0.012743,0.0093058,0.025102,8.0996e-07,0.25,0.8,0.9
0.014542,-0.0039446,-0.0054502,0.025648,0.00071687,0.00046308,-0.00046244,0.00026514,-0.00010831,0.050588,-0.014233,-0.014893,-0.0024047,0.0013787,-0.0005632,0,0,0,0.025662,0.00089085,0.00027468,0.012694,0.0089426,0.025086,8.0945e-07,0.3,0.8,0.9
0.017066,-0.0042108,-0.005672,0.025423,0.00040891,0.00029782,-0.00016004,0.00022183,0.00012943,0.050422,-0.014615,-0.014904,-0.0008322,0.0011535,0.00067303,0,0,0,0.025427,0.00058795,0.00011475,0.012656,0.0087099,0.025079,8.0948e-07,0.35,0.8,0.9
0.019584,-0.0043975,-0.0057961,0.025303,0.00022831,0.00016957,4.4797e-05,0.000158,0.00027546,0.050366,-0.014827,-0.014979,0.00023295,0.00082159,0.0014324,0,0,0,0.025307,0.00036101,3.279e-05,0.012637,0.0085668,0.025112,8.1306e-07,0.4,0.8,0.9
0.022103,-0.0045244,-0.0058525,0.025265,0.00012663,5.4485e-05,0.00017002,8.0928e-05,0.00034765,0.05042,-0.014938,-0.015126,0.00088412,0.00042083,0.0018078,0,0,0,0.025271,0.00018891,-1.4162e-05,0.012643,0.0084819,0.025184,8.2041e-07,0.45,0.8,0.9
0.024626,-0.0046092,-0.0058687,0.025281,7.0869e-05,-5.2668e-05,0.00023018,1.3848e-06,0.00035303,0.050551,-0.014995,-0.015316,0.0011969,7.2013e-06,0.0018357,0,0,0,0.025288,9.0475e-05,-7.9569e-05,0.012684,0.008433,0.025283,8.3012e-07,0.5,0.8,0.9
0.027158,-0.0046673,-0.0058695,0.025323,3.9101e-05,-0.00014213,0.00023854,-6.698e-05,0.00029898,0.050708,-0.01503,-0.015501,0.0012404,-0.0003483,0.0015547,0,0,0,0.025329,6.5055e-05,-0.00017415,0.012752,0.0084066,0.025385,8.3994e-07,0.55,0.8,0.9
0.029697,-0.0047113,-0.0058752,0.025366,1.7536e-05,-0.00019716,0.00020951,-0.00011075,0.00020084,0.05084,-0.015066,-0.015624,0.0010894,-0.00057592,0.0010444,0,0,0,0.02537,6.5822e-05,-0.00024913,0.012809,0.0083954,0.025463,8.475e-07,0.6,0.8,0.9
0.032242,-0.0047502,-0.0058991,0.025393,-2.2073e-06,-0.00020563,0.00015921,-0.00012137,8.3087e-05,0.05091,-0.015117,-0.015646,0.00082788,-0.00063112,0.00043205,0,0,0,0.025394,5.5546e-05,-0.00026503,0.01283,0.0083949,0.025501,8.5124e-07,0.65,0.8,0.9
0.034788,-0.004789,-0.0059461,0.025396,-2.5286e-05,-0.00016911,0.00010352,-9.8646e-05,-2.6342e-05,0.050909,-0.015187,-0.015561,0.00053832,-0.00051296,-0.00013698,0,0,0,0.025397,2.6221e-05,-0.00022135,0.012809,0.0084005,0.025495,8.5088e-07,0.7,0.8,0.9
0.037333,-0.0048286,-0.0060127,0.025378,-5.4365e-05,-0.00010336,5.4947e-05,-5.0809e-05,-0.00010502,0.050851,-0.015274,-0.015401,0.00028573,-0.00026421,-0.0005461,0,0,0,0.025379,-7.3824e-06,-0.00015107,0.012765,0.0084068,0.025459,8.4739e-07,0.75,0.8,0.9
0.039873,-0.0048674,-0.0060896,0.025348,-8.9136e-05,-3.03e-05,2.0337e-05,9.0487e-06,-0.00014242,0.050767,-0.015369,-0.015216,0.00010575,4.7053e-05,-0.00074058,0,0,0,0.025348,-7.519e-07,-0.00011961,0.012734,0.0084094,0.025409,8.4248e-07,0.8,0.8,0.9
0.042409,-0.0049023,-0.006165,0.025314,-0.00012604,3.2035e-05,8.713e-07,6.7663e-05,-0.00014035,0.050684,-0.01546,-0.015049,4.5307e-06,0.00035185,-0.00072985,0,0,0,0.025315,5.9265e-05,-0.00015413,0.012734,0.0084067,0.025363,8.3776e-07,0.85,0.8,0.9
0.044942,-0.00493,-0.0062276,0.025286,-0.00015918,7.5069e-05,-6.1493e-06,0.00011496,-0.00010844,0.050622,-0.015535,-0.014926,-3.1976e-05,0.00059777,-0.00056387,0,0,0,0.025286,0.00012476,-0.00020941,0.012748,0.0084005,0.02533,8.3423e-07,0.9,0.8,0.9
0.047471,-0.0049478,-0.0062687,0.025267,-0.00018223,9.8637e-05,-1.102e-05,0.00014503,-7.2468e-05,0.050585,-0.015584,-0.014854,-5.7305e-05,0.00075415,-0.00037684,0,0,0,0.025268,0.00016342,-0.00024727,0.012757,0.0083946,0.025312,8.3219e-07,0.95,0.8,0.9
0.048736,-0.0049539,-0.006283,0.025261,-0.00019049,0.00010593,-1.4987e-05,0.00015527,-5.8429e-05,0.050573,-0.015601,-0.01483,-7.7933e-05,0.00080743,-0.00030383,0,0,0,0.025261,0.00017594,-0.00026065,0.012761,0.0083922,0.025307,8.3154e-07,1,0.8,0.9
0.0010375,-0.00056023,-0.00073721,0.027107,0.0093787,0.0087424,-0.0041133,3.9181e-05,-0.0050954,0.043342,-0.0027525,-0.0044068,-0.021389,0.00020374,-0.026496,0,0,0,0.029317,0.0092508,0.0066606,0.011328,0.015076,0.021487,4.9624e-07,0,0.85,0.9
0.0021671,-0.0011072,-0.0014415,0.026924,0.0073867,0.0064741,-0.0038026,8.4617e-05,-0.0044469,0.045531,-0.0052654,-0.0076382,-0.019774,0.00044001,-0.023124,0,0,0,0.028641,0.0072029,0.0049408,0.01185,0.013595,0.02267,5.932e-07,0.05,0.85,0.9
0.0045531,-0.0021455,-0.0027355,0.026936,0.0042894,0.0032468,-0.0030341,0.00017692,-0.0031176,0.04935,-0.0095309,-0.012242,-0.015777,0.00091999,-0.016211,0,0,0,0.027824,0.0040983,0.0025503,0.012637,0.011491,0.024551,7.5635e-07,0.1,0.85,0.9
0.0071021,-0.0030363,-0.0037622,0.026939,0.0025269,0.0018154,-0.0021292,0.00025541,-0.001905,0.051273,-0.012199,-0.014049,-0.011072,0.0013281,-0.009906,0,0,0,0.02732,0.0024741,0.0014878,0.012916,0.010427,0.025359,8.3414e-07,0.15,0.85,0.9
0.0096805,-0.0037418,-0.0045103,0.026437,0.0014742,0.0010795,-0.0013358,0.00029841,-0.0010288,0.051342,-0.013562,-0.014588,-0.0069464,0.0015517,-0.00535,0,0,0,0.026577,0.0015863,0.00082809,0.012874,0.0096636,0.025379,8.3733e-07,0.2,0.85,0.9
0.012236,-0.0042752,-0.0050361,0.025865,0.00084351,0.00066132,-0.00074631,0.00030368,-0.00046651,0.050828,-0.014229,-0.014703,-0.0038808,0.0015791,-0.0024259,0,0,0,0.025908,0.0010641,0.00039793,0.012755,0.0091234,0.025184,8.1886e-07,0.25,0.85,0.9
0.014763,-0.0046668,-0.0053922,0.02543,0.00047072,0.00041109,-0.00033842,0.0002779,-0.0001095,0.050331,-0.014563,-0.014718,-0.0017598,0.0014451,-0.0005694,0,0,0,0.02544,0.00072427,0.0001474,0.012646,0.0087706,0.02501,8.0244e-07,0.3,0.85,0.9
0.017269,-0.0049466,-0.00562,0.025164,0.00025486,0.00025033,-6.5823e-05,0.000228,0.0001175,0.050024,-0.014739,-0.01475,-0.00034228,0.0011856,0.00061099,0,0,0,0.025166,0.00048251,1.9933e-05,0.012573,0.0085563,0.024919,7.9417e-07,0.35,0.85,0.9
0.019766,-0.0051407,-0.0057531,0.02504,0.0001339,0.00013432,0.00010818,0.00016,0.00025481,0.049919,-0.014837,-0.014836,0.00056252,0.00083201,0.001325,0,0,0,0.025044,0.00029248,-2.8099e-05,0.012536,0.0084361,0.024914,7.941e-07,0.4,0.85,0.9
0.022261,-0.0052715,-0.0058204,0.02502,6.8998e-05,3.9118e-05,0.00020778,8.1092e-05,0.00032112,0.049975,-0.014897,-0.014975,0.0010805,0.00042168,0.0016698,0,0,0,0.025026,0.00014281,-4.0852e-05,0.012533,0.008376,0.024976,8.0031e-07,0.45,0.85,0.9
0.024763,-0.0053584,-0.005848,0.025063,3.53e-05,-4.3375e-05,0.00024896,1.4492e-06,0.00032539,0.050131,-0.014941,-0.015146,0.0012946,7.536e-06,0.001692,0,0,0,0.02507,5.9482e-05,-7.4459e-05,0.012572,0.0083517,0.025078,8.1016e-07,0.5,0.85,0.9
0.027274,-0.005418,-0.0058588,0.025134,1.7175e-05,-0.00010926,0.00024452,-6.6124e-05,0.00027645,0.050323,-0.01498,-0.015309,0.0012715,-0.00034385,0.0014375,0,0,0,0.025139,4.8613e-05,-0.00014637,0.012643,0.0083472,0.025189,8.208e-07,0.55,0.85,0.9
0.029795,-0.0054638,-0.0058715,0.025203,5.2568e-06,-0.00014897,0.00020774,-0.00010916,0.00018896,0.050493,-0.015022,-0.015423,0.0010802,-0.00056762,0.00098257,0,0,0,0.025207,6.2129e-05,-0.00020929,0.012708,0.0083532,0.025282,8.2967e-07,0.6,0.85,0.9
0.032324,-0.0055051,-0.0058985,0.025253,-5.9523e-06,-0.00015548,0.00015341,-0.00011981,8.4268e-05,0.050602,-0.01507,-0.015459,0.00079774,-0.000623,0.00043819,0,0,0,0.025254,6.0679e-05,-0.00022365,0.012739,0.0083638,0.025337,8.3508e-07,0.65,0.85,0.9
0.034856,-0.0055468,-0.0059444,0.025274,-1.9845e-05,-0.00013053,9.6183e-05,-9.8086e-05,-1.3931e-05,0.050638,-0.015126,-0.015413,0.00050015,-0.00051005,-7.2443e-05,0,0,0,0.025274,3.7715e-05,-0.00018872,0.012731,0.0083744,0.025351,8.3652e-07,0.7,0.85,0.9
0.037388,-0.0055901,-0.0060068,0.025268,-3.8274e-05,-8.5116e-05,4.7579e-05,-5.1876e-05,-8.6378e-05,0.050609,-0.015186,-0.015308,0.00024741,-0.00026976,-0.00044917,0,0,0,0.025268,3.1603e-06,-0.00012709,0.012698,0.0083814,0.025331,8.3469e-07,0.75,0.85,0.9
0.039917,-0.0056328,-0.0060779,0.025243,-6.1138e-05,-3.4319e-05,1.3821e-05,6.2447e-06,-0.00012324,0.050544,-0.015248,-0.015178,7.1868e-05,3.2472e-05,-0.00064085,0,0,0,0.025244,-2.2703e-06,-9.3887e-05,0.012669,0.0083826,0.025292,8.3095e-07,0.8,0.85,0.9
0.042442,-0.0056714,-0.0061475,0.025211,-8.6024e-05,9.3573e-06,-4.2896e-06,6.3402e-05,-0.00012478,0.050469,-0.015305,-0.015057,-2.2306e-05,0.00032969,-0.00064887,0,0,0,0.025212,4.3616e-05,-0.00012097,0.012667,0.0083782,0.025251,8.2682e-07,0.85,0.85,0.9
0.044964,-0.0057021,-0.0062054,0.025182,-0.00010875,3.9804e-05,-9.6872e-06,0.00010969,-9.8225e-05,0.050405,-0.015351,-0.014964,-5.0373e-05,0.0005704,-0.00051077,0,0,0,0.025182,0.00010037,-0.00016976,0.012676,0.008371,0.025218,8.2339e-07,0.9,0.85,0.9
0.047482,-0.0057219,-0.0062435,0.025162,-0.00012472,5.6649e-05,-1.3501e-05,0.00013921,-6.6607e-05,0.050365,-0.015381,-0.014909,-7.0204e-05,0.0007239,-0.00034636,0,0,0,0.025162,0.00013482,-0.00020311,0.012683,0.0083646,0.025198,8.2123e-07,0.95,0.85,0.9
0.048741,-0.0057287,-0.0062567,0.025155,-0.00013047,6.1898e-05,-1.7267e-05,0.00014929,-5.4096e-05,0.050351,-0.015391,-0.014891,-8.9786e-05,0.00077629,-0.0002813,0,0,0,0.025155,0.00014615,-0.00021486,0.012685,0.0083621,0.025191,8.205e-07,1,0.85,0.9
0.0010882,-0.00072066,-0.00073215,0.028145,0.0088946,0.0089159,-0.0049635,3.0885e-05,-0.0050492,0.045603,-0.004447,-0.0043916,-0.02581,0.0001606,-0.026256,0,0,0,0.030592,0.0090843,0.0062793,0.012156,0.015318,0.023049,6.1614e-07,0,0.9,0.9
0.0022801,-0.0014094,-0.0014297,0.027803,0.0064528,0.006489,-0.0043173,7.5129e-05,-0.0043953,0.04784,-0.0076693,-0.0075751,-0.02245,0.00039067,-0.022856,0,0,0,0.02963,0.0066941,0.0044201,0.012605,0.013581,0.024173,7.2284e-07,0.05,0.9,0.9
0.004784,-0.0026772,-0.0027094,0.027521,0.0030939,0.0031512,-0.0030081,0.00016912,-0.0030643,0.051295,-0.012216,-0.012066,-0.015642,0.00087945,-0.015935,0,0,0,0.028368,0.0033497,0.002048,0.01316,0.011255,0.025708,8.7189e-07,0.1,0.9,0.9
0.0074096,-0.0036921,-0.0037235,0.027147,0.001695,0.0017614,-0.0018405,0.0002476,-0.0018668,0.05222,-0.013955,-0.013782,-0.0095706,0.0012875,-0.0097075,0,0,0,0.027473,0.0019394,0.0011905,0.013141,0.010201,0.02592,8.9351e-07,0.15,0.9,0.9
0.010006,-0.0044482,-0.0044648,0.026257,0.00093935,0.0010095,-0.0010167,0.00028219,-0.0010101,0.051345,-0.014481,-0.014299,-0.0052867,0.0014674,-0.0052523,0,0,0,0.026364,0.0012318,0.0006097,0.012877,0.0094019,0.02545,8.4586e-07,0.2,0.9,0.9
0.012544,-0.0050013,-0.0049893,0.025485,0.00051169,0.00058066,-0.00049994,0.00027806,-0.0004598,0.050314,-0.014616,-0.014437,-0.0025997,0.0014459,-0.002391,0,0,0,0.025514,0.00082111,0.00024202,0.012636,0.0088591,0.024988,8.0081e-07,0.25,0.9,0.9
0.015037,-0.005401,-0.0053477,0.024989,0.00027215,0.00033319,-0.00017963,0.00024758,-0.00010837,0.049616,-0.014649,-0.014491,-0.0009341,0.0012874,-0.00056354,0,0,0,0.024995,0.0005529,4.6575e-05,0.012474,0.0085316,0.0247,7.7366e-07,0.3,0.9,0.9
0.017506,-0.0056846,-0.0055803,0.024736,0.00013954,0.00018341,1.9147e-05,0.00019918,0.00011535,0.049279,-0.014673,-0.014559,9.9566e-05,0.0010358,0.00059982,0,0,0,0.024738,0.00036166,-4.0706e-05,0.012389,0.008353,0.02458,7.6275e-07,0.35,0.9,0.9
0.019965,-0.0058812,-0.0057198,0.024659,6.8104e-05,8.4259e-05,0.00013877,0.00013826,0.00024929,0.049227,-0.01471,-0.014668,0.00072161,0.00071897,0.0012963,0,0,0,0.024663,0.0002123,-6.3752e-05,0.012363,0.0082706,0.02459,7.6388e-07,0.4,0.9,0.9
0.022428,-0.0060142,-0.0057944,0.024697,3.118e-05,1.0641e-05,0.00020226,7.0371e-05,0.0003122,0.04937,-0.014763,-0.014816,0.0010518,0.00036593,0.0016235,0,0,0,0.024703,9.6158e-05,-6.0198e-05,0.012382,0.0082464,0.024686,7.7293e-07,0.45,0.9,0.9
0.024902,-0.0061033,-0.0058296,0.024799,1.273e-05,-4.7893e-05,0.00022279,3.3213e-06,0.00031464,0.049619,-0.014825,-0.014983,0.0011585,1.7271e-05,0.0016361,0,0,0,0.024805,3.3697e-05,-7.5106e-05,0.01244,0.0082547,0.024826,7.8614e-07,0.5,0.9,0.9
0.02739,-0.0061653,-0.0058472,0.024922,3.2248e-06,-9.1879e-05,0.00021004,-5.2937e-05,0.00026689,0.049898,-0.014892,-0.015139,0.0010922,-0.00027527,0.0013878,0,0,0,0.024927,3.0025e-05,-0.00012362,0.012525,0.0082779,0.024974,8.0012e-07,0.55,0.9,0.9
0.029892,-0.0062135,-0.0058648,0.025035,-2.7344e-06,-0.00011708,0.00017398,-8.868e-05,0.0001837,0.050141,-0.014956,-0.015253,0.0009047,-0.00046114,0.00095525,0,0,0,0.025038,4.5878e-05,-0.00016859,0.012603,0.008305,0.0251,8.1205e-07,0.6,0.9,0.9
0.032404,-0.0062573,-0.005894,0.025116,-8.202e-06,-0.00012016,0.00012589,-9.7854e-05,8.4746e-05,0.05031,-0.015014,-0.015305,0.00065461,-0.00050884,0.00044068,0,0,0,0.025118,4.8611e-05,-0.0001782,0.012648,0.0083293,0.025183,8.2009e-07,0.65,0.9,0.9
0.034923,-0.0063015,-0.0059397,0.025159,-1.5132e-05,-0.00010284,7.7067e-05,-8.0618e-05,-8.7916e-06,0.050388,-0.015064,-0.015292,0.00040075,-0.00041922,-4.5717e-05,0,0,0,0.025159,3.2929e-05,-0.00015137,0.012655,0.0083469,0.025219,8.2362e-07,0.7,0.9,0.9
0.037443,-0.0063472,-0.0059998,0.025164,-2.4749e-05,-7.2339e-05,3.6442e-05,-4.339e-05,-7.9424e-05,0.050386,-0.015104,-0.015228,0.0001895,-0.00022563,-0.000413,0,0,0,0.025164,4.8223e-06,-0.00010235,0.012633,0.0083556,0.025213,8.2319e-07,0.75,0.9,0.9
0.039962,-0.0063922,-0.0060677,0.025143,-3.7198e-05,-3.8339e-05,8.7303e-06,3.6436e-06,-0.00011738,0.050331,-0.015137,-0.01514,4.5398e-05,1.8947e-05,-0.0006104,0,0,0,0.025143,-4.4637e-06,-7.1703e-05,0.012608,0.0083558,0.025182,8.2012e-07,0.8,0.9,0.9
0.042476,-0.0064328,-0.006134,0.025109,-5.1202e-05,-8.9024e-06,-5.6988e-06,5.0021e-05,-0.00012152,0.050254,-0.015162,-0.015052,-2.9633e-05,0.00026011,-0.00063192,0,0,0,0.025109,2.7246e-05,-8.7999e-05,0.012599,0.0083495,0.02514,8.1601e-07,0.85,0.9,0.9
0.044987,-0.0064651,-0.0061893,0.025075,-6.4289e-05,1.1881e-05,-9.4681e-06,8.7653e-05,-9.7278e-05,0.050181,-0.01518,-0.014982,-4.9234e-05,0.0004558,-0.00050585,0,0,0,0.025075,7.0869e-05,-0.00012372,0.012599,0.0083407,0.025102,8.1221e-07,0.9,0.9,0.9
0.047494,-0.0064858,-0.0062259,0.02505,-7.3626e-05,2.3547e-05,-1.3392e-05,0.00011168,-6.6179e-05,0.05013,-0.015191,-0.014939,-6.964e-05,0.00058075,-0.00034413,0,0,0,0.02505,9.8327e-05,-0.00014862,0.012599,0.0083334,0.025077,8.0963e-07,0.95,0.9,0.9
0.048747,-0.006493,-0.0062386,0.025041,-7.7012e-05,2.722e-05,-1.7642e-05,0.00011989,-5.3307e-05,0.050113,-0.015195,-0.014924,-9.1736e-05,0.00062342,-0.00027719,0,0,0,0.025042,0.00010745,-0.00015738,0.012599,0.0083305,0.025068,8.0873e-07,1,0.9,0.9
0.0012752,-0.0010049,-0.00073252,0.03162,0.0088161,0.0099433,-0.006055,1.3934e-05,-0.0050496,0.051985,-0.0073061,-0.0043753,-0.031486,7.2459e-05,-0.026258,0,0,0,0.034367,0.009786,0.0062272,0.01407,0.016793,0.026555,9.6689e-07,0,0.95,0.9
0.0025993,-0.0018741,-0.0014283,0.030107,0.0055443,0.0069516,-0.0046659,5.2503e-05,-0.0043925,0.052717,-0.011147,-0.0074879,-0.024263,0.00027302,-0.022841,0,0,0,0.032001,0.0067298,0.0038723,0.014064,0.014201,0.026844,9.9097e-07,0.05,0.95,0.9
0.0052717,-0.003367,-0.002703,0.028006,0.0017288,0.0030091,-0.0024482,0.00014007,-0.0030589,0.053168,-0.015151,-0.011822,-0.012731,0.00072837,-0.015906,0,0,0,0.028713,0.0027911,0.0012392,0.013737,0.010914,0.026754,9.7824e-07,0.1,0.95,0.9
0.0079161,-0.0044318,-0.0037121,0.026672,0.00087009,0.0015477,-0.0012017,0.00020979,-0.0018642,0.051893,-0.015192,-0.01343,-0.006249,0.0010909,-0.0096938,0,0,0,0.026919,0.0014864,0.00068442,0.013117,0.0096966,0.025847,8.8779e-07,0.15,0.95,0.9
0.010461,-0.00519,-0.0044514,0.025424,0.00041105,0.00078367,-0.00056825,0.00022974,-0.001007,0.050131,-0.014902,-0.013934,-0.0029549,0.0011947,-0.0052366,0,0,0,0.0255,0.00085764,0.00026102,0.012619,0.0088728,0.024947,7.9862e-07,0.2,0.95,0.9
0.012929,-0.0057368,-0.0049756,0.024638,0.0001922,0.00039757,-0.00023502,0.00021712,-0.0004488,0.048922,-0.014637,-0.014103,-0.0012221,0.001129,-0.0023338,0,0,0,0.024657,0.00053069,4.0099e-05,0.012308,0.0084092,0.024375,7.4481e-07,0.25,0.95,0.9
0.015353,-0.0061317,-0.0053341,0.024234,7.9853e-05,0.00019284,-4.9526e-05,0.00018748,-8.7083e-05,0.048305,-0.014497,-0.014203,-0.00025754,0.00097487,-0.00045283,0,0,0,0.024238,0.0003336,-6.4362e-05,0.012151,0.008169,0.024106,7.202e-07,0.3,0.95,0.9
0.01776,-0.0064139,-0.0055666,0.024102,2.4018e-05,7.851e-05,5.7965e-05,0.0001481,0.00014459,0.048142,-0.01446,-0.014318,0.00030142,0.00077013,0.00075189,0,0,0,0.024104,0.00020182,-0.0001014,0.012103,0.0080681,0.024055,7.1557e-07,0.35,0.95,0.9
0.020167,-0.0066117,-0.0057057,0.024147,-2.1824e-06,8.042e-06,0.00011902,0.00010246,0.00028197,0.04829,-0.014497,-0.014471,0.00061891,0.00053279,0.0014663,0,0,0,0.024151,0.00010405,-0.00010258,0.012127,0.0080509,0.024151,7.2409e-07,0.4,0.95,0.9
0.022589,-0.0067477,-0.0057802,0.024298,-1.2801e-05,-4.1225e-05,0.00014851,5.3749e-05,0.00034347,0.048628,-0.01458,-0.014653,0.00077226,0.0002795,0.0017861,0,0,0,0.024304,3.2615e-05,-9.2814e-05,0.012198,0.0080812,0.024334,7.4057e-07,0.45,0.95,0.9
0.02503,-0.0068409,-0.0058154,0.024498,-1.5857e-05,-7.851e-05,0.00015401,6.7154e-06,0.00034045,0.049053,-0.014683,-0.014846,0.00080087,3.492e-05,0.0017704,0,0,0,0.024504,-2.3437e-06,-9.8158e-05,0.012301,0.0081345,0.024555,7.6071e-07,0.5,0.95,0.9
0.027494,-0.0069072,-0.0058335,0.024702,-1.5815e-05,-0.00010489,0.00014082,-3.2362e-05,0.00028463,0.049477,-0.01479,-0.015022,0.00073226,-0.00016828,0.0014801,0,0,0,0.024707,-8.9075e-07,-0.00012435,0.012416,0.0081939,0.02477,7.8071e-07,0.55,0.95,0.9
0.029978,-0.0069594,-0.0058519,0.024877,-1.5015e-05,-0.00011773,0.00011456,-5.7258e-05,0.00019212,0.049833,-0.014885,-0.015153,0.00059571,-0.00029774,0.00099903,0,0,0,0.024879,1.2679e-05,-0.00014786,0.012514,0.008248,0.024947,7.9745e-07,0.6,0.95,0.9
0.032477,-0.0070065,-0.005882,0.025,-1.469e-05,-0.00011487,8.1902e-05,-6.4117e-05,8.3681e-05,0.050078,-0.014961,-0.015221,0.00042589,-0.00033341,0.00043514,0,0,0,0.025001,1.8314e-05,-0.00014877,0.012575,0.0082902,0.025067,8.0889e-07,0.65,0.95,0.9
0.034986,-0.0070532,-0.0059286,0.025066,-1.5653e-05,-9.7579e-05,4.9682e-05,-5.3164e-05,-1.8631e-05,0.050199,-0.015012,-0.015225,0.00025835,-0.00027646,-9.6884e-05,0,0,0,0.025066,1.1956e-05,-0.00012555,0.012596,0.0083174,0.025123,8.1435e-07,0.7,0.95,0.9
0.037497,-0.0071005,-0.0059898,0.025079,-1.8483e-05,-7.0901e-05,2.33e-05,-2.8745e-05,-9.636e-05,0.050211,-0.015042,-0.015178,0.00012116,-0.00014948,-0.00050107,0,0,0,0.025079,-3.0964e-06,-8.6841e-05,0.012583,0.0083297,0.025124,8.1451e-07,0.75,0.95,0.9
0.040007,-0.0071465,-0.006059,0.025054,-2.3278e-05,-4.1716e-05,5.5235e-06,2.3094e-06,-0.00013857,0.050147,-0.015054,-0.015102,2.8722e-05,1.2009e-05,-0.00072059,0,0,0,0.025055,-7.649e-06,-5.8228e-05,0.012557,0.0083297,0.025088,8.1102e-07,0.8,0.95,0.9
0.042512,-0.0071876,-0.0061268,0.025011,-2.9385e-05,-1.6016e-05,-3.6212e-06,3.3002e-05,-0.00014307,0.050049,-0.015056,-0.015021,-1.883e-05,0.00017161,-0.00074396,0,0,0,0.025012,1.4115e-05,-6.0436e-05,0.012536,0.0083218,0.025035,8.0587e-07,0.85,0.95,0.9
0.045012,-0.0072202,-0.0061836,0.024966,-3.5473e-05,2.7809e-06,-5.9621e-06,5.7927e-05,-0.00011486,0.049952,-0.015052,-0.014953,-3.1003e-05,0.00030122,-0.00059725,0,0,0,0.024967,4.5505e-05,-7.8826e-05,0.012523,0.0083111,0.024984,8.0089e-07,0.9,0.95,0.9
0.047507,-0.007241,-0.0062211,0.024934,-3.9965e-05,1.3773e-05,-1.1041e-05,7.3846e-05,-7.6442e-05,0.049883,-0.015049,-0.014909,-5.7411e-05,0.000384,-0.0003975,0,0,0,0.024934,6.6549e-05,-9.3037e-05,0.012514,0.0083026,0.024948,7.974e-07,0.95,0.95,0.9
0.048754,-0.0072482,-0.0062342,0.024922,-4.1618e-05,1.7334e-05,-1.6344e-05,7.9282e-05,-5.9314e-05,0.049859,-0.015047,-0.014894,-8.4991e-05,0.00041227,-0.00030843,0,0,0,0.024922,7.3629e-05,-9.8083e-05,0.01251,0.0082993,0.024935,7.9616e-07,1,0.95,0.9
0.001428,-0.0011932,-0.00073446,0.034416,0.0091243,0.010876,-0.006727,4.4539e-06,-0.005067,0.056832,-0.0089268,-0.0043717,-0.03498,2.316e-05,-0.026348,0,0,0,0.037342,0.010591,0.0064829,0.01543,0.018139,0.029041,1.2371e-06,0,1,0.9
0.0028416,-0.0021616,-0.0014312,0.031837,0.005275,0.0074118,-0.0048334,4.016e-05,-0.0044103,0.056061,-0.012999,-0.0074434,-0.025134,0.00020883,-0.022934,0,0,0,0.033765,0.0070391,0.003719,0.015023,0.014841,0.028565,1.1762e-06,0.05,1,0.9
0.0056061,-0.0037566,-0.0027069,0.028126,0.0010585,0.0029112,-0.0020439,0.00012423,-0.0030755,0.05387,-0.016505,-0.011688,-0.010628,0.000646,-0.015993,0,0,0,0.02875,0.0025718,0.00077381,0.013988,0.010698,0.027149,1.0196e-06,0.1,1,0.9
0.0082285,-0.0048183,-0.0037164,0.02612,0.00044699,0.0013515,-0.00081848,0.00018844,-0.0018757,0.051161,-0.015589,-0.013237,-0.0042561,0.00097989,-0.0097536,0,0,0,0.02633,0.0012342,0.00035485,0.012987,0.0093062,0.025551,8.5836e-07,0.15,1,0.9
0.010722,-0.0055652,-0.0044561,0.024774,0.0001279,0.00060229,-0.00033909,0.00020033,-0.0010094,0.049109,-0.01497,-0.013736,-0.0017633,0.0010417,-0.0052488,0,0,0,0.024838,0.00063326,3.2677e-05,0.012403,0.0085012,0.024511,7.5757e-07,0.2,1,0.9
0.013139,-0.0061035,-0.0049802,0.024069,1.8452e-05,0.00026624,-0.00011504,0.00018414,-0.00043979,0.047967,-0.014564,-0.01392,-0.00059823,0.00095753,-0.0022869,0,0,0,0.024085,0.00035879,-8.9712e-05,0.012087,0.0081179,0.023954,7.0668e-07,0.25,1,0.9
0.015519,-0.006494,-0.0053376,0.023767,-2.898e-05,0.00010008,-3.6279e-07,0.00015601,-6.8018e-05,0.047491,-0.014378,-0.014042,-1.8867e-06,0.00081123,-0.00035369,0,0,0,0.02377,0.00020578,-0.00013752,0.011954,0.0079459,0.023737,6.8756e-07,0.3,1,0.9
0.017889,-0.0067748,-0.0055681,0.023729,-4.5267e-05,1.2949e-05,6.2794e-05,0.00012209,0.00017074,0.047477,-0.014335,-0.014184,0.00032653,0.00063488,0.00088784,0,0,0,0.023731,0.00010947,-0.00014419,0.011938,0.0078988,0.023749,6.8854e-07,0.35,1,0.9
0.020267,-0.0069735,-0.0057049,0.023856,-4.7404e-05,-3.8877e-05,9.699e-05,8.4761e-05,0.00031157,0.047764,-0.014385,-0.014363,0.00050435,0.00044076,0.0016201,0,0,0,0.023861,4.0858e-05,-0.00013209,0.011997,0.0079234,0.023907,7.0232e-07,0.4,1,0.9
0.022665,-0.0071116,-0.0057768,0.024079,-4.3047e-05,-7.4974e-05,0.00011194,4.6073e-05,0.00037264,0.048228,-0.014488,-0.014571,0.00058211,0.00023958,0.0019378,0,0,0,0.024085,-6.2714e-06,-0.00011842,0.012102,0.0079869,0.024148,7.2365e-07,0.45,1,0.9
0.025089,-0.0072075,-0.0058097,0.024339,-3.6465e-05,-0.00010252,0.00011218,9.2986e-06,0.00036551,0.048762,-0.014615,-0.014787,0.00058335,4.8353e-05,0.0019006,0,0,0,0.024346,-2.6301e-05,-0.0001191,0.012232,0.0080668,0.024419,7.4812e-07,0.5,1,0.9
0.027541,-0.0072766,-0.0058261,0.024592,-2.9894e-05,-0.00012149,0.00010079,-2.107e-05,0.00030249,0.049275,-0.014742,-0.01498,0.0005241,-0.00010957,0.0015729,0,0,0,0.024597,-2.1578e-05,-0.00013438,0.012366,0.0081469,0.024675,7.7179e-07,0.55,1,0.9
0.030017,-0.0073313,-0.0058435,0.024803,-2.4388e-05,-0.00012884,8.1239e-05,-4.0525e-05,0.00020081,0.049697,-0.014853,-0.015125,0.00042244,-0.00021073,0.0010442,0,0,0,0.024805,-8.6349e-06,-0.00014691,0.012476,0.0082165,0.024883,7.9135e-07,0.6,1,0.9
0.032511,-0.0073803,-0.0058736,0.024949,-2.0412e-05,-0.00012218,5.7863e-05,-4.6285e-05,8.2651e-05,0.049984,-0.014937,-0.015202,0.00030089,-0.00024068,0.00042979,0,0,0,0.02495,-9.8297e-07,-0.00014237,0.012546,0.0082689,0.025022,8.0462e-07,0.65,1,0.9
0.035015,-0.0074283,-0.005921,0.025026,-1.8251e-05,-0.0001024,3.5194e-05,-3.8586e-05,-2.8423e-05,0.050125,-0.014991,-0.01521,0.00018301,-0.00020065,-0.0001478,0,0,0,0.025027,-2.0296e-06,-0.00011896,0.012573,0.0083019,0.025088,8.1093e-07,0.7,1,0.9
0.037523,-0.0074763,-0.0059839,0.025042,-1.8102e-05,-7.3962e-05,1.6814e-05,-2.0718e-05,-0.00011259,0.050139,-0.015017,-0.015162,8.7432e-05,-0.00010773,-0.00058545,0,0,0,0.025043,-9.4725e-06,-8.3281e-05,0.012563,0.0083166,0.025089,8.111e-07,0.75,1,0.9
0.040029,-0.0075225,-0.0060552,0.025014,-1.9879e-05,-4.3164e-05,4.5005e-06,2.1891e-06,-0.00015793,0.050065,-0.015022,-0.015083,2.3402e-05,1.1383e-05,-0.00082125,0,0,0,0.025015,-9.7675e-06,-5.4399e-05,0.012535,0.0083168,0.025047,8.0703e-07,0.8,1,0.9
0.04253,-0.0075636,-0.0061251,0.024963,-2.3018e-05,-1.5737e-05,-1.8496e-06,2.4895e-05,-0.00016186,0.04995,-0.015015,-0.014996,-9.6182e-06,0.00012945,-0.00084167,0,0,0,0.024965,9.1653e-06,-4.9084e-05,0.012507,0.0083082,0.024985,8.0103e-07,0.85,1,0.9
0.045024,-0.007596,-0.0061837,0.024912,-2.6514e-05,4.7584e-06,-3.5848e-06,4.3356e-05,-0.00012962,0.049837,-0.015003,-0.014922,-1.8641e-05,0.00022545,-0.00067402,0,0,0,0.024913,3.6101e-05,-5.8648e-05,0.012486,0.0082967,0.024924,7.9521e-07,0.9,1,0.9
0.047514,-0.0076167,-0.0062226,0.024875,-2.9216e-05,1.7029e-05,-9.4408e-06,5.5152e-05,-8.4998e-05,0.049757,-0.014994,-0.014873,-4.9092e-05,0.00028679,-0.00044199,0,0,0,0.024875,5.4937e-05,-6.7489e-05,0.012471,0.0082875,0.024882,7.9112e-07,0.95,1,0.9
0.048757,-0.0076238,-0.0062362,0.024861,-3.0229e-05,2.1068e-05,-1.5364e-05,5.9181e-05,-6.4471e-05,0.049728,-0.01499,-0.014857,-7.9895e-05,0.00030774,-0.00033525,0,0,0,0.024862,6.1325e-05,-7.0685e-05,0.012466,0.0082841,0.024867,7.8966e-07,1,1,0.9
0.0015959,0.0011778,-0.00099181,0.037421,0.0099686,0.010579,0.0066168,4.0334e-05,-0.0059525,0.062513,-0.0088623,-0.0072764,0.034408,0.00020974,-0.030953,0,0,0,0.04046,0.010569,0.006939,0.01676,0.019323,0.031888,1.7078e-06,0,0,0.95
0.0031256,0.0021231,-0.0018387,0.033778,0.0056636,0.0063831,0.0047309,-1.0433e-05,-0.0045651,0.060327,-0.012769,-0.010899,0.0246,-5.4253e-05,-0.023738,0,0,0,0.035664,0.0063642,0.0037959,0.015934,0.015275,0.030699,1.529e-06,0.05,0,0.95
0.0060327,0.0036714,-0.0032859,0.028469,0.0010416,0.0016208,0.0019691,-0.00013447,-0.0023694,0.05534,-0.015971,-0.014465,0.01024,-0.00069924,-0.012321,0,0,0,0.028927,0.0016234,0.00058031,0.014174,0.010377,0.027852,1.1407e-06,0.1,0,0.95
0.0086596,0.0046969,-0.004316,0.025657,0.00043905,0.0006846,0.00078422,-0.00020391,-0.0011653,0.050639,-0.014927,-0.014288,0.0040779,-0.0010603,-0.0060593,0,0,0,0.025772,0.0007634,0.0002452,0.012763,0.0089267,0.025272,8.3842e-07,0.15,0,0.95
0.011097,0.0054241,-0.0050581,0.024004,7.9542e-05,0.00019858,0.00032893,-0.00018532,-0.00055753,0.047841,-0.014362,-0.014053,0.0017104,-0.00096364,-0.0028991,0,0,0,0.024033,0.00033046,-8.1071e-05,0.012057,0.008094,0.023911,7.061e-07,0.2,0,0.95
0.013444,0.0059502,-0.0055986,0.023297,-2.5564e-05,3.1397e-05,0.00010781,-0.00015388,-0.00022704,0.04659,-0.014048,-0.0139,0.0005606,-0.00080019,-0.0011806,0,0,0,0.023303,0.00016358,-0.00016377,0.011733,0.0077676,0.023305,6.5222e-07,0.25,0,0.95
0.015756,0.0063324,-0.0059923,0.023075,-6.5803e-05,-3.8405e-05,-8.6634e-06,-0.00012201,-3.9837e-05,0.046212,-0.013953,-0.013882,-4.5049e-05,-0.00063445,-0.00020715,0,0,0,0.023076,7.4961e-05,-0.00018013,0.011628,0.0076568,0.023129,6.3689e-07,0.3,0,0.95
0.018065,0.0066073,-0.0062769,0.02313,-7.6198e-05,-6.4216e-05,-7.2526e-05,-9.3537e-05,6.7399e-05,0.046344,-0.013992,-0.013961,-0.00037714,-0.00048639,0.00035047,0,0,0,0.023131,2.6163e-05,-0.00016727,0.011649,0.0076632,0.023202,6.4251e-07,0.35,0,0.95
0.02039,0.006802,-0.0064796,0.023338,-7.5025e-05,-7.137e-05,-0.0001053,-6.8895e-05,0.00012566,0.046763,-0.01411,-0.0141,-0.00054758,-0.00035826,0.00065342,0,0,0,0.023339,-3.149e-06,-0.00014459,0.011742,0.0077304,0.023413,6.5997e-07,0.4,0,0.95
0.022741,0.0069371,-0.0066217,0.023621,-6.8997e-05,-6.9943e-05,-0.00011792,-4.7999e-05,0.00015195,0.047326,-0.014269,-0.014271,-0.00061317,-0.00024959,0.00079015,0,0,0,0.023623,-2.1228e-05,-0.00011951,0.011871,0.0078274,0.023693,6.8373e-07,0.45,0,0.95
0.025123,0.0070292,-0.0067197,0.023929,-6.1273e-05,-6.4738e-05,-0.00011672,-3.0811e-05,0.00015659,0.047934,-0.014441,-0.01445,-0.00060692,-0.00016022,0.00081428,0,0,0,0.023931,-3.2059e-05,-9.5807e-05,0.012013,0.0079344,0.023995,7.1001e-07,0.5,0,0.95
0.027535,0.0070916,-0.0067868,0.024228,-5.3272e-05,-5.8073e-05,-0.0001061,-1.7426e-05,0.00014664,0.048523,-0.014609,-0.014621,-0.00055174,-9.0618e-05,0.00076252,0,0,0,0.02423,-3.7274e-05,-7.567e-05,0.012153,0.0080389,0.024286,7.3601e-07,0.55,0,0.95
0.029975,0.0071344,-0.0068332,0.024495,-4.5645e-05,-5.1128e-05,-8.9629e-05,-7.9412e-06,0.00012751,0.049048,-0.014757,-0.014772,-0.00046607,-4.1294e-05,0.00066305,0,0,0,0.024496,-3.7356e-05,-6.0609e-05,0.012278,0.0081327,0.024545,7.5967e-07,0.6,0,0.95
0.032439,0.0071653,-0.0068664,0.024717,-3.8683e-05,-4.4521e-05,-7.0397e-05,-2.2791e-06,0.00010368,0.049483,-0.014881,-0.014896,-0.00036606,-1.1852e-05,0.00053915,0,0,0,0.024717,-3.363e-05,-5.0353e-05,0.012384,0.0082111,0.024759,7.7967e-07,0.65,0,0.95
0.034923,0.0071893,-0.0068916,0.024889,-3.2539e-05,-3.8592e-05,-5.1097e-05,-6.9907e-08,7.8862e-05,0.04982,-0.014975,-0.014991,-0.0002657,-3.6351e-07,0.00041008,0,0,0,0.024889,-2.886e-05,-4.2716e-05,0.012466,0.0082725,0.024925,7.9535e-07,0.7,0,0.95
0.037421,0.0072095,-0.006912,0.025012,-2.7311e-05,-3.3539e-05,-3.3861e-05,-6.2347e-07,5.591e-05,0.050061,-0.015042,-0.015058,-0.00017608,-3.242e-06,0.00029073,0,0,0,0.025013,-2.4662e-05,-3.6409e-05,0.012525,0.0083172,0.025043,8.0671e-07,0.75,0,0.95
0.039929,0.007227,-0.0069291,0.025095,-2.3069e-05,-2.9462e-05,-2.0088e-05,-3.0098e-06,3.6703e-05,0.050221,-0.015085,-0.015102,-0.00010446,-1.5651e-05,0.00019085,0,0,0,0.025095,-2.0366e-05,-3.2258e-05,0.012564,0.0083474,0.025121,8.1424e-07,0.8,0,0.95
0.042443,0.0072419,-0.0069431,0.025144,-1.9837e-05,-2.6386e-05,-1.035e-05,-6.2061e-06,2.2064e-05,0.050316,-0.01511,-0.015127,-5.3821e-05,-3.2272e-05,0.00011473,0,0,0,0.025144,-1.5312e-05,-3.0944e-05,0.012588,0.008366,0.025167,8.1874e-07,0.85,0,0.95
0.044961,0.0072535,-0.0069538,0.025171,-1.7595e-05,-2.4272e-05,-4.4238e-06,-9.2581e-06,1.1823e-05,0.050367,-0.015123,-0.015141,-2.3004e-05,-4.8142e-05,6.1478e-05,0,0,0,0.025171,-1.0505e-05,-3.1372e-05,0.012601,0.0083764,0.025192,8.2113e-07,0.9,0,0.95
0.04748,0.0072609,-0.0069605,0.025183,-1.6288e-05,-2.3049e-05,1.1084e-06,-1.1409e-05,2.7103e-06,0.05039,-0.015129,-0.015146,5.7637e-06,-5.9326e-05,1.4094e-05,0,0,0,0.025183,-7.2413e-06,-3.21e-05,0.012608,0.0083813,0.025203,8.2221e-07,0.95,0,0.95
0.04874,0.0072635,-0.0069629,0.025187,-1.586e-05,-2.265e-05,4.5552e-06,-1.218e-05,-2.301e-06,0.050396,-0.01513,-0.015148,2.3687e-05,-6.3337e-05,-1.1965e-05,0,0,0,0.025187,-6.0941e-06,-3.2421e-05,0.01261,0.0083827,0.025206,8.225e-07,1,0,0.95
0.0014468,0.00099113,-0.00099061,0.034717,0.0097056,0.0097042,0.0059554,1.7935e-05,-0.0059515,0.057788,-0.0072415,-0.0072451,0.030968,9.3263e-05,-0.030948,0,0,0,0.037615,0.0099955,0.0065165,0.015549,0.018042,0.029536,1.3743e-06,0,0.05,0.95
0.0028894,0.001841,-0.0018403,0.032103,0.0059463,0.0059441,0.0045722,-2.5714e-05,-0.0045691,0.057072,-0.010936,-0.010941,0.023775,-0.00013371,-0.023759,0,0,0,0.033971,0.0062739,0.0037482,0.015112,0.014664,0.029075,1.298e-06,0.05,0.05,0.95
0.0057072,0.0032944,-0.0032942,0.028328,0.0016642,0.0016611,0.0023752,-0.00013053,-0.0023744,0.05466,-0.014665,-0.014673,0.012351,-0.00067875,-0.012347,0,0,0,0.028868,0.001933,0.00085217,0.014008,0.010551,0.027504,1.0861e-06,0.1,0.05,0.95
0.0083554,0.0043264,-0.0043285,0.026146,0.00079324,0.00079001,0.0011592,-0.00019697,-0.0011616,0.051343,-0.014575,-0.014584,0.006028,-0.0010242,-0.0060403,0,0,0,0.0263,0.00097656,0.00045318,0.012923,0.0092432,0.02559,8.6806e-07,0.15,0.05,0.95
0.010841,0.0050637,-0.0050699,0.024595,0.00031037,0.00030725,0.00054493,-0.0001916,-0.00055054,0.048819,-0.01432,-0.014328,0.0028336,-0.00099634,-0.0028628,0,0,0,0.024635,0.00049856,7.8496e-05,0.012278,0.0084041,0.02435,7.4543e-07,0.2,0.05,0.95
0.013237,0.0055964,-0.0056082,0.023818,0.00011116,0.00010842,0.00021462,-0.0001656,-0.00022324,0.047505,-0.014134,-0.014141,0.001116,-0.00086113,-0.0011609,0,0,0,0.023827,0.00027881,-6.8168e-05,0.011948,0.0080126,0.023724,6.882e-07,0.25,0.05,0.95
0.015592,0.0059807,-0.0059998,0.023508,1.7074e-05,1.4993e-05,2.8274e-05,-0.00013463,-3.9363e-05,0.046997,-0.01408,-0.014085,0.00014703,-0.00070007,-0.00020469,0,0,0,0.02351,0.0001541,-0.00012346,0.011817,0.0078468,0.023496,6.6783e-07,0.3,0.05,0.95
0.017937,0.0062549,-0.0062823,0.023481,-2.6418e-05,-2.7567e-05,-7.8311e-05,-0.00010449,6.5581e-05,0.046994,-0.014125,-0.014128,-0.00040722,-0.00054334,0.00034102,0,0,0,0.023482,7.9248e-05,-0.00013405,0.011808,0.0078089,0.02351,6.6859e-07,0.35,0.05,0.95
0.020291,0.006447,-0.0064832,0.023616,-4.6061e-05,-4.6068e-05,-0.00013589,-7.6978e-05,0.00012257,0.047288,-0.014234,-0.014234,-0.00070664,-0.00040029,0.00063739,0,0,0,0.023618,3.1238e-05,-0.00012502,0.011872,0.0078414,0.023665,6.8162e-07,0.4,0.05,0.95
0.022666,0.0065785,-0.0066237,0.023838,-5.3631e-05,-5.2408e-05,-0.00016107,-5.2812e-05,0.00014835,0.04774,-0.014379,-0.014376,-0.00083754,-0.00027462,0.00077141,0,0,0,0.023841,-4.3622e-07,-0.00010791,0.011974,0.0079108,0.023895,7.0141e-07,0.45,0.05,0.95
0.025065,0.0066667,-0.0067203,0.024095,-5.4959e-05,-5.259e-05,-0.00016388,-3.251e-05,0.00015294,0.048255,-0.014536,-0.014529,-0.0008522,-0.00016905,0.00079531,0,0,0,0.024098,-2.0944e-05,-8.9033e-05,0.012093,0.007996,0.024153,7.2415e-07,0.5,0.05,0.95
0.027491,0.0067251,-0.0067864,0.024353,-5.2962e-05,-4.9725e-05,-0.00015139,-1.6586e-05,0.00014322,0.048767,-0.014688,-0.014679,-0.00078724,-8.6249e-05,0.00074475,0,0,0,0.024355,-3.2308e-05,-7.2494e-05,0.012214,0.0080833,0.024407,7.4709e-07,0.55,0.05,0.95
0.029942,0.0067645,-0.0068321,0.024587,-4.9164e-05,-4.5504e-05,-0.00012923,-5.4394e-06,0.00012447,0.04923,-0.014823,-0.014813,-0.00067199,-2.8285e-05,0.00064723,0,0,0,0.024588,-3.5242e-05,-6.1009e-05,0.012325,0.008164,0.024636,7.682e-07,0.6,0.05,0.95
0.032414,0.0067925,-0.006865,0.024784,-4.442e-05,-4.0882e-05,-0.00010227,8.5417e-07,0.00010108,0.049619,-0.014935,-0.014925,-0.00053179,4.4417e-06,0.00052561,0,0,0,0.024785,-3.2434e-05,-5.3897e-05,0.012419,0.0082328,0.024828,7.8618e-07,0.65,0.05,0.95
0.034904,0.0068143,-0.0068902,0.024938,-3.9303e-05,-3.6426e-05,-7.4692e-05,2.6879e-06,7.6722e-05,0.049922,-0.01502,-0.015012,-0.0003884,1.3977e-05,0.00039895,0,0,0,0.024939,-2.8532e-05,-4.7779e-05,0.012493,0.0082875,0.024977,8.0036e-07,0.7,0.05,0.95
0.037406,0.0068329,-0.0069108,0.02505,-3.4279e-05,-3.249e-05,-4.9797e-05,9.4472e-07,5.423e-05,0.050141,-0.015079,-0.015075,-0.00025895,4.9125e-06,0.000282,0,0,0,0.025051,-2.5544e-05,-4.1508e-05,0.012546,0.0083279,0.025084,8.1069e-07,0.75,0.05,0.95
0.039918,0.0068494,-0.0069282,0.025126,-2.9745e-05,-2.928e-05,-2.9757e-05,-3.1276e-06,3.5459e-05,0.050287,-0.015117,-0.015116,-0.00015473,-1.6264e-05,0.00018439,0,0,0,0.025126,-2.179e-05,-3.7351e-05,0.012582,0.0083556,0.025155,8.1759e-07,0.8,0.05,0.95
0.042435,0.0068637,-0.0069426,0.025172,-2.6007e-05,-2.6875e-05,-1.5494e-05,-8.1344e-06,2.1212e-05,0.050375,-0.015139,-0.015141,-8.057e-05,-4.2299e-05,0.0001103,0,0,0,0.025172,-1.6066e-05,-3.6856e-05,0.012604,0.0083729,0.025198,8.2176e-07,0.85,0.05,0.95
0.044956,0.006875,-0.0069537,0.025197,-2.326e-05,-2.5254e-05,-6.7369e-06,-1.2766e-05,1.1303e-05,0.050423,-0.015149,-0.015155,-3.5032e-05,-6.6385e-05,5.8776e-05,0,0,0,0.025197,-1.0046e-05,-3.8479e-05,0.012618,0.0083828,0.025221,8.24e-07,0.9,0.05,0.95
0.047477,0.0068824,-0.0069607,0.025209,-2.1596e-05,-2.4337e-05,2.8617e-07,-1.5984e-05,2.3753e-06,0.050445,-0.015154,-0.015161,1.4881e-06,-8.3119e-05,1.2352e-05,0,0,0,0.025209,-5.8282e-06,-4.0109e-05,0.012624,0.0083876,0.025232,8.2502e-07,0.95,0.05,0.95
0.048739,0.0068849,-0.0069631,0.025212,-2.104e-05,-2.4042e-05,4.2021e-06,-1.7132e-05,-2.6021e-06,0.050451,-0.015155,-0.015163,2.1851e-05,-8.9084e-05,-1.3531e-05,0,0,0,0.025212,-4.3281e-06,-4.0759e-05,0.012626,0.008389,0.025235,8.253e-07,1,0.05,0.95
0.0012644,0.0007101,-0.00099235,0.031356,0.0098384,0.0087406,0.0048854,-1.1369e-05,-0.0059769,0.051564,-0.0043811,-0.0072353,0.025404,-5.912e-05,-0.03108,0,0,0,0.03402,0.0096986,0.0062158,0.013902,0.016645,0.026252,9.3588e-07,0,0.1,0.95
0.0025782,0.0013859,-0.0018498,0.029867,0.0068615,0.0054979,0.0042414,-4.6598e-05,-0.0046022,0.052318,-0.0074959,-0.011041,0.022055,-0.00024231,-0.023932,0,0,0,0.031696,0.006665,0.003865,0.013916,0.014075,0.026571,9.6231e-07,0.05,0.1,0.95
0.0052318,0.0026264,-0.0033213,0.027814,0.0029427,0.0017192,0.0029402,-0.0001272,-0.0024061,0.052831,-0.011835,-0.015016,0.015289,-0.00066142,-0.012512,0,0,0,0.028487,0.0027519,0.0012374,0.013625,0.010825,0.026547,9.5608e-07,0.1,0.1,0.95
0.0078613,0.0036152,-0.004368,0.026531,0.0014955,0.00087249,0.0017855,-0.00019058,-0.0011699,0.051642,-0.013451,-0.015071,0.0092845,-0.00099104,-0.0060833,0,0,0,0.026762,0.0014476,0.00068948,0.013036,0.0096331,0.025706,8.7347e-07,0.15,0.1,0.95
0.010396,0.0043498,-0.0051111,0.025331,0.00073899,0.00041891,0.00097014,-0.00020612,-0.00054088,0.049967,-0.013972,-0.014804,0.0050447,-0.0010718,-0.0028126,0,0,0,0.025401,0.00081353,0.00027409,0.012563,0.0088295,0.024862,7.9062e-07,0.2,0.1,0.95
0.012858,0.0048854,-0.0056456,0.024581,0.00035612,0.00020057,0.00045427,-0.00019143,-0.00021062,0.048829,-0.014157,-0.014561,0.0023622,-0.00099543,-0.0010952,0,0,0,0.024599,0.00048343,5.5526e-05,0.012272,0.0083794,0.024333,7.4101e-07,0.25,0.1,0.95
0.015279,0.0052704,-0.0060311,0.0242,0.000154,8.5264e-05,0.00013381,-0.0001632,-2.9126e-05,0.048257,-0.014263,-0.014442,0.00069583,-0.00084866,-0.00015145,0,0,0,0.024203,0.00028844,-5.2411e-05,0.012128,0.0081465,0.024087,7.1865e-07,0.3,0.1,0.95
0.017684,0.0055421,-0.0063069,0.024073,4.5281e-05,2.407e-05,-6.1709e-05,-0.00013021,7.258e-05,0.048105,-0.014368,-0.014423,-0.00032089,-0.0006771,0.00037742,0,0,0,0.024074,0.00016601,-9.7797e-05,0.012086,0.0080476,0.024042,7.1444e-07,0.35,0.1,0.95
0.020089,0.005729,-0.0065013,0.024108,-1.3935e-05,-8.6746e-06,-0.00017443,-9.6783e-05,0.00012689,0.04823,-0.014488,-0.014474,-0.00090702,-0.00050327,0.00065985,0,0,0,0.02411,8.5009e-05,-0.00010984,0.01211,0.0080285,0.024123,7.2163e-07,0.4,0.1,0.95
0.022507,0.005854,-0.0066358,0.024237,-4.5752e-05,-2.5701e-05,-0.00023003,-6.5419e-05,0.00015066,0.048517,-0.014618,-0.014566,-0.0011962,-0.00034018,0.00078342,0,0,0,0.024241,3.0083e-05,-0.00010488,0.012173,0.0080553,0.024278,7.355e-07,0.45,0.1,0.95
0.024941,0.0059352,-0.0067273,0.024413,-6.1867e-05,-3.3866e-05,-0.00024532,-3.7997e-05,0.00015367,0.048883,-0.014751,-0.014678,-0.0012757,-0.00019759,0.00079911,0,0,0,0.024417,-6.1434e-06,-9.3277e-05,0.012255,0.0081057,0.024466,7.5261e-07,0.5,0.1,0.95
0.027395,0.0059868,-0.0067893,0.024601,-6.8631e-05,-3.6931e-05,-0.00023254,-1.6116e-05,0.00014256,0.049265,-0.014876,-0.014793,-0.0012092,-8.3804e-05,0.00074133,0,0,0,0.024604,-2.629e-05,-8.256e-05,0.012343,0.0081652,0.024659,7.7038e-07,0.55,0.1,0.95
0.029868,0.0060201,-0.006832,0.024779,-6.9619e-05,-3.7023e-05,-0.00020163,-9.6717e-07,0.00012251,0.049621,-0.014984,-0.014899,-0.0010485,-5.0293e-06,0.00063707,0,0,0,0.024781,-3.2352e-05,-7.6773e-05,0.012429,0.008224,0.024836,7.8698e-07,0.6,0.1,0.95
0.032357,0.006043,-0.0068632,0.024931,-6.6994e-05,-3.5414e-05,-0.00016117,6.9492e-06,9.7984e-05,0.049924,-0.015071,-0.014989,-0.00083806,3.6136e-05,0.00050952,0,0,0,0.024933,-3.0408e-05,-7.3612e-05,0.012503,0.0082762,0.024985,8.0116e-07,0.65,0.1,0.95
0.03486,0.0060611,-0.006888,0.025052,-6.2253e-05,-3.2952e-05,-0.00011847,8.0426e-06,7.2787e-05,0.050161,-0.015136,-0.01506,-0.00061607,4.1822e-05,0.00037849,0,0,0,0.025053,-2.782e-05,-6.8281e-05,0.01256,0.0083188,0.025101,8.1231e-07,0.7,0.1,0.95
0.037373,0.0060771,-0.006909,0.025139,-5.6574e-05,-3.0262e-05,-7.932e-05,3.6341e-06,4.9905e-05,0.050331,-0.015179,-0.01511,-0.00041247,1.8897e-05,0.00025951,0,0,0,0.02514,-2.6528e-05,-6.073e-05,0.0126,0.0083509,0.025184,8.2035e-07,0.75,0.1,0.95
0.039893,0.0060919,-0.0069275,0.025198,-5.0918e-05,-2.7803e-05,-4.7527e-05,-4.2848e-06,3.1261e-05,0.050443,-0.015204,-0.015144,-0.00024714,-2.2281e-05,0.00016256,0,0,0,0.025198,-2.3254e-05,-5.5632e-05,0.012627,0.0083731,0.025238,8.2562e-07,0.8,0.1,0.95
0.042417,0.0061054,-0.0069434,0.025233,-4.6007e-05,-2.5856e-05,-2.4791e-05,-1.3445e-05,1.7627e-05,0.050509,-0.015216,-0.015164,-0.00012891,-6.9913e-05,9.1662e-05,0,0,0,0.025233,-1.6038e-05,-5.5877e-05,0.012645,0.0083871,0.025269,8.2872e-07,0.85,0.1,0.95
0.044944,0.0061163,-0.0069557,0.025252,-4.2301e-05,-2.4522e-05,-1.0792e-05,-2.1707e-05,8.712e-06,0.050544,-0.015221,-0.015175,-5.6116e-05,-0.00011288,4.5303e-05,0,0,0,0.025252,-7.5722e-06,-5.9263e-05,0.012656,0.0083951,0.025285,8.3031e-07,0.9,0.1,0.95
0.047472,0.0061234,-0.0069636,0.025261,-4.0028e-05,-2.3771e-05,-1.075e-06,-2.7378e-05,7.0015e-07,0.050559,-0.015222,-0.01518,-5.5898e-06,-0.00014236,3.6408e-06,0,0,0,0.025261,-1.3631e-06,-6.244e-05,0.012661,0.0083989,0.025293,8.31e-07,0.95,0.1,0.95
0.048736,0.0061259,-0.0069663,0.025263,-3.9265e-05,-2.3532e-05,3.6687e-06,-2.9389e-05,-3.9366e-06,0.050563,-0.015222,-0.015181,1.9077e-05,-0.00015282,-2.047e-05,0,0,0,0.025263,8.8163e-07,-6.3684e-05,0.012663,0.0084,0.025294,8.3118e-07,1,0.1,0.95
0.0012155,0.00055302,-0.00099916,0.030363,0.010341,0.0085856,0.0040592,-1.8167e-05,-0.0060337,0.04937,-0.0026871,-0.0072513,0.021108,-9.4468e-05,-0.031375,0,0,0,0.032839,0.010102,0.0063489,0.013245,0.01643,0.024838,7.8089e-07,0,0.15,0.95
0.0024685,0.0010914,-0.001867,0.029015,0.0077874,0.0054833,0.0037481,-4.9657e-05,-0.0046624,0.050068,-0.0051243,-0.011115,0.01949,-0.00025821,-0.024244,0,0,0,0.030755,0.0074594,0.004071,0.013342,0.014095,0.025184,8.0041e-07,0.05,0.15,0.95
0.0050068,0.0021109,-0.0033606,0.027215,0.0040743,0.0017748,0.0029784,-0.0001195,-0.0024612,0.05092,-0.0092451,-0.015224,0.015488,-0.00062141,-0.012798,0,0,0,0.027921,0.0037397,0.0014029,0.013259,0.011021,0.025457,8.2428e-07,0.1,0.15,0.95
0.0075605,0.0029812,-0.0044253,0.026272,0.002233,0.00085949,0.0020721,-0.00017965,-0.0011998,0.050689,-0.011813,-0.015384,0.010775,-0.00093416,-0.006239,0,0,0,0.026552,0.0020708,0.00074214,0.012905,0.0097883,0.02518,8.1294e-07,0.15,0.15,0.95
0.010076,0.0036665,-0.0051754,0.025443,0.0011856,0.00041843,0.0012756,-0.00020554,-0.00054319,0.049924,-0.013146,-0.01514,0.0066333,-0.0010688,-0.0028246,0,0,0,0.025542,0.0011738,0.00033121,0.012605,0.0090157,0.024803,7.8199e-07,0.2,0.15,0.95
0.012553,0.0041807,-0.0057081,0.024895,0.00061439,0.00021579,0.00068134,-0.00020178,-0.00019756,0.049291,-0.013838,-0.014874,0.003543,-0.0010492,-0.0010273,0,0,0,0.024924,0.00069106,0.00010987,0.012407,0.008575,0.024529,7.5784e-07,0.25,0.15,0.95
0.015005,0.0045544,-0.0060866,0.024586,0.00029225,0.00010605,0.00027118,-0.00017933,-1.0226e-05,0.048934,-0.014231,-0.014715,0.0014101,-0.00093252,-5.3176e-05,0,0,0,0.024593,0.00040654,-1.4689e-05,0.012304,0.0083282,0.0244,7.463e-07,0.3,0.15,0.95
0.017446,0.0048181,-0.0063529,0.024465,0.00010896,4.4591e-05,1.6977e-06,-0.00014691,9.249e-05,0.048838,-0.014488,-0.014655,8.8278e-06,-0.00076396,0.00048095,0,0,0,0.024467,0.00023095,-7.9042e-05,0.012273,0.0082062,0.024392,7.4574e-07,0.35,0.15,0.95
0.019889,0.0049982,-0.0065368,0.024473,4.4138e-06,8.9275e-06,-0.00016418,-0.00011027,0.00014563,0.048938,-0.01468,-0.014669,-0.00085373,-0.00057342,0.00075729,0,0,0,0.024475,0.00011811,-0.00010724,0.012291,0.0081621,0.024471,7.53e-07,0.4,0.15,0.95
0.02234,0.0051167,-0.006661,0.024562,-5.4175e-05,-1.1985e-05,-0.00025381,-7.3518e-05,0.00016705,0.049164,-0.014839,-0.014729,-0.0013198,-0.00038229,0.00086864,0,0,0,0.024566,4.4242e-05,-0.00011441,0.01234,0.0081654,0.024602,7.6512e-07,0.45,0.15,0.95
0.024805,0.0051915,-0.0067433,0.024694,-8.5398e-05,-2.412e-05,-0.00028739,-4.0054e-05,0.00016679,0.049455,-0.014973,-0.014814,-0.0014944,-0.00020828,0.00086733,0,0,0,0.024699,-1.9504e-06,-0.00011223,0.012406,0.008195,0.024756,7.7957e-07,0.5,0.15,0.95
0.027285,0.0052376,-0.0067976,0.02484,-0.00010002,-3.0676e-05,-0.00028081,-1.2844e-05,0.00015161,0.049759,-0.015086,-0.014905,-0.0014602,-6.6788e-05,0.00078839,0,0,0,0.024844,-2.4864e-05,-0.00011011,0.012477,0.0082365,0.024912,7.9429e-07,0.55,0.15,0.95
0.029781,0.0052661,-0.0068348,0.024979,-0.00010444,-3.3391e-05,-0.00024756,5.844e-06,0.00012699,0.05004,-0.015176,-0.014991,-0.0012873,3.0389e-05,0.00066036,0,0,0,0.024982,-3.0144e-05,-0.00011097,0.012546,0.0082802,0.025052,8.0771e-07,0.6,0.15,0.95
0.032289,0.0052853,-0.0068628,0.025096,-0.00010268,-3.3333e-05,-0.00019952,1.488e-05,9.7913e-05,0.050274,-0.015243,-0.015063,-0.0010375,7.7374e-05,0.00050915,0,0,0,0.025098,-2.7998e-05,-0.00011013,0.012604,0.00832,0.025167,8.188e-07,0.65,0.15,0.95
0.034808,0.0053007,-0.0068865,0.025186,-9.7456e-05,-3.1373e-05,-0.00014698,1.4596e-05,6.8834e-05,0.050449,-0.015288,-0.015116,-0.00076429,7.5901e-05,0.00035794,0,0,0,0.025187,-2.6318e-05,-0.00010367,0.012645,0.0083524,0.025252,8.2708e-07,0.7,0.15,0.95
0.037334,0.005315,-0.0069084,0.025248,-9.0786e-05,-2.8371e-05,-9.8031e-05,6.7707e-06,4.3296e-05,0.050567,-0.015313,-0.015151,-0.00050976,3.5208e-05,0.00022514,0,0,0,0.025248,-2.5728e-05,-9.3955e-05,0.012671,0.0083762,0.025308,8.3258e-07,0.75,0.15,0.95
0.039865,0.005329,-0.006929,0.025285,-8.4156e-05,-2.514e-05,-5.8091e-05,-5.773e-06,2.3533e-05,0.050636,-0.015324,-0.015171,-0.00030207,-3.0019e-05,0.00012237,0,0,0,0.025285,-2.2157e-05,-8.7332e-05,0.012686,0.0083919,0.02534,8.3571e-07,0.8,0.15,0.95
0.042398,0.0053421,-0.0069474,0.025304,-7.8547e-05,-2.2305e-05,-2.9631e-05,-1.9785e-05,1.0316e-05,0.050669,-0.015326,-0.01518,-0.00015408,-0.00010288,5.3642e-05,0,0,0,0.025304,-1.3427e-05,-8.748e-05,0.012696,0.0084011,0.025355,8.3714e-07,0.85,0.15,0.95
0.044932,0.0053529,-0.0069621,0.025312,-7.446e-05,-2.0218e-05,-1.2372e-05,-3.2217e-05,3.0993e-06,0.05068,-0.015324,-0.015183,-6.4335e-05,-0.00016753,1.6116e-05,0,0,0,0.025312,-2.7514e-06,-9.1938e-05,0.012702,0.0084056,0.025359,8.3756e-07,0.9,0.15,0.95
0.047466,0.0053601,-0.0069717,0.025313,-7.2035e-05,-1.8984e-05,-1.2974e-06,-4.0672e-05,-2.9312e-06,0.050681,-0.015321,-0.015183,-6.7466e-06,-0.0002115,-1.5242e-05,0,0,0,0.025313,5.3286e-06,-9.6352e-05,0.012705,0.0084075,0.025359,8.3754e-07,0.95,0.15,0.95
0.048733,0.0053627,-0.006975,0.025314,-7.1238e-05,-1.8581e-05,3.7542e-06,-4.3659e-05,-6.7121e-06,0.050681,-0.015319,-0.015183,1.9522e-05,-0.00022703,-3.4903e-05,0,0,0,0.025314,8.2785e-06,-9.8103e-05,0.012706,0.0084079,0.025359,8.3749e-07,1,0.15,0.95
0.0011925,0.00044138,-0.0010072,0.029855,0.010491,0.0084831,0.003294,-1.7635e-05,-0.0060944,0.048326,-0.0020202,-0.007242,0.017129,-9.17e-05,-0.031691,0,0,0,0.032164,0.010302,0.0063636,0.0129,0.016277,0.024088,7.0448e-07,0,0.2,0.95
0.0024163,0.00087342,-0.0018855,0.028561,0.0082259,0.0054669,0.0031212,-4.4423e-05,-0.0047228,0.048907,-0.0039652,-0.011138,0.01623,-0.000231,-0.024559,0,0,0,0.030172,0.0079577,0.0041242,0.013024,0.014085,0.024377,7.1067e-07,0.05,0.2,0.95
0.0048907,0.0017019,-0.003401,0.026834,0.0048342,0.0018325,0.0026541,-0.00010315,-0.0025159,0.049669,-0.0075316,-0.015336,0.013801,-0.0005364,-0.013083,0,0,0,0.027487,0.0045393,0.0014745,0.013006,0.011167,0.024647,7.298e-07,0.1,0.2,0.95
0.0073832,0.0024339,-0.0044847,0.025988,0.0029239,0.00088428,0.0020178,-0.00015602,-0.0012366,0.049692,-0.010276,-0.015579,0.010493,-0.0008113,-0.0064304,0,0,0,0.026266,0.0027483,0.00078274,0.012741,0.0099322,0.024569,7.4505e-07,0.15,0.2,0.95
0.0098599,0.0030352,-0.0052449,0.025334,0.0016747,0.00041936,0.0013649,-0.00018436,-0.00055683,0.049413,-0.012103,-0.015367,0.0070975,-0.00095867,-0.0028955,0,0,0,0.025444,0.0016179,0.00036668,0.012539,0.0091428,0.02448,7.4758e-07,0.2,0.2,0.95
0.012324,0.0035016,-0.0057788,0.024956,0.00092948,0.00021589,0.00080745,-0.0001879,-0.00019315,0.049225,-0.013244,-0.0151,0.0041988,-0.00097708,-0.0010044,0,0,0,0.024993,0.00095505,0.00015337,0.01242,0.0087005,0.02445,7.4896e-07,0.25,0.2,0.95
0.014782,0.0038473,-0.0061519,0.024759,0.00048057,0.00011026,0.00038085,-0.00017217,5.2889e-06,0.049163,-0.01396,-0.014923,0.0019804,-0.0008953,2.7502e-05,0,0,0,0.024768,0.00055224,2.8957e-05,0.01237,0.0084498,0.024483,7.5334e-07,0.3,0.2,0.95
0.017241,0.0040933,-0.0064085,0.024694,0.00021062,5.1392e-05,7.8346e-05,-0.0001435,0.00011374,0.049231,-0.014426,-0.01484,0.0004074,-0.00074622,0.00059145,0,0,0,0.024696,0.00030311,-4.3454e-05,0.01237,0.0083187,0.024569,7.618e-07,0.35,0.2,0.95
0.019705,0.004261,-0.0065807,0.024723,4.9399e-05,1.6054e-05,-0.00012015,-0.00010743,0.00016892,0.049406,-0.014745,-0.014831,-0.00062477,-0.00055862,0.00087838,0,0,0,0.024725,0.00014759,-8.4581e-05,0.012405,0.0082628,0.024695,7.7371e-07,0.4,0.2,0.95
0.022181,0.0043702,-0.0066925,0.024811,-4.486e-05,-6.2613e-06,-0.00023548,-6.8828e-05,0.00018958,0.049653,-0.014973,-0.014872,-0.0012245,-0.00035791,0.00098579,0,0,0,0.024815,5.139e-05,-0.00010655,0.012461,0.0082533,0.024843,7.8775e-07,0.45,0.2,0.95
0.024671,0.0044379,-0.0067631,0.02493,-9.7609e-05,-2.0723e-05,-0.00028621,-3.2315e-05,0.00018617,0.049931,-0.015141,-0.014941,-0.0014883,-0.00016804,0.0009681,0,0,0,0.024935,-2.9372e-06,-0.00012031,0.012528,0.0082705,0.024997,8.024e-07,0.5,0.2,0.95
0.027174,0.0044782,-0.0068076,0.025056,-0.00012459,-2.9697e-05,-0.00028886,-2.1699e-06,0.00016582,0.050204,-0.015265,-0.015018,-0.0015021,-1.1283e-05,0.00086227,0,0,0,0.02506,-2.4823e-05,-0.00013409,0.012597,0.0083004,0.02514,8.162e-07,0.55,0.2,0.95
0.029691,0.0045025,-0.0068378,0.02517,-0.00013571,-3.4184e-05,-0.00025853,1.8176e-05,0.00013467,0.050442,-0.015353,-0.015089,-0.0013444,9.4515e-05,0.00070029,0,0,0,0.025174,-2.7429e-05,-0.00014602,0.01266,0.0083335,0.025261,8.2796e-07,0.6,0.2,0.95
0.032219,0.0045188,-0.0068618,0.025262,-0.00013738,-3.4778e-05,-0.0002092,2.6848e-05,9.8723e-05,0.050628,-0.015411,-0.015144,-0.0010879,0.00013961,0.00051336,0,0,0,0.025264,-2.5063e-05,-0.00014937,0.012707,0.0083633,0.025352,8.3689e-07,0.65,0.2,0.95
0.034754,0.0045323,-0.0068846,0.025326,-0.00013396,-3.2266e-05,-0.00015322,2.4027e-05,6.3596e-05,0.050752,-0.015444,-0.01518,-0.00079672,0.00012494,0.0003307,0,0,0,0.025327,-2.4316e-05,-0.00014311,0.012735,0.0083866,0.025411,8.4276e-07,0.7,0.2,0.95
0.037294,0.0045457,-0.006908,0.025363,-0.00012847,-2.78e-05,-0.00010044,1.1918e-05,3.3819e-05,0.05082,-0.015458,-0.015196,-0.00052228,6.1975e-05,0.00017586,0,0,0,0.025363,-2.414e-05,-0.00013265,0.012748,0.0084022,0.025442,8.4581e-07,0.75,0.2,0.95
0.039836,0.0045595,-0.0069318,0.025378,-0.00012298,-2.2687e-05,-5.748e-05,-5.8283e-06,1.217e-05,0.050843,-0.015459,-0.015198,-0.0002989,-3.0307e-05,6.3283e-05,0,0,0,0.025378,-1.9909e-05,-0.00012593,0.012752,0.0084106,0.025451,8.4669e-07,0.8,0.2,0.95
0.042378,0.0045727,-0.0069541,0.025378,-0.0001186,-1.8041e-05,-2.739e-05,-2.5009e-05,-5.5361e-07,0.050837,-0.015453,-0.015192,-0.00014243,-0.00013005,-2.8787e-06,0,0,0,0.025378,-9.5371e-06,-0.00012715,0.012752,0.0084137,0.025446,8.4621e-07,0.85,0.2,0.95
0.04492,0.0045839,-0.0069724,0.025371,-0.00011571,-1.4545e-05,-9.9351e-06,-4.1728e-05,-5.2882e-06,0.05082,-0.015445,-0.015182,-5.1663e-05,-0.00021699,-2.7499e-05,0,0,0,0.025371,3.2043e-06,-0.00013347,0.012752,0.0084136,0.025436,8.452e-07,0.9,0.2,0.95
0.04746,0.0045913,-0.0069844,0.025364,-0.00011417,-1.2449e-05,3.2033e-07,-5.2986e-05,-8.3559e-06,0.050804,-0.015439,-0.015175,1.6657e-06,-0.00027553,-4.345e-05,0,0,0,0.025364,1.2931e-05,-0.00013956,0.012752,0.0084125,0.025428,8.4431e-07,0.95,0.2,0.95
0.04873,0.004594,-0.0069886,0.025361,-0.0001137,-1.1759e-05,4.7905e-06,-5.6943e-05,-1.0843e-05,0.050798,-0.015437,-0.015172,2.4911e-05,-0.0002961,-5.6381e-05,0,0,0,0.025361,1.6485e-05,-0.00014196,0.012752,0.0084119,0.025424,8.4397e-07,1,0.2,0.95
0.0011815,0.000351,-0.0010155,0.029593,0.010562,0.0084285,0.0026409,-1.6741e-05,-0.0061537,0.047792,-0.0016898,-0.0072358,0.013732,-8.7052e-05,-0.031999,0,0,0,0.031782,0.010429,0.0063723,0.012705,0.016194,0.023662,6.6288e-07,0,0.25,0.95
0.0023896,0.00069485,-0.0019035,0.028306,0.008456,0.0054544,0.0025325,-3.961e-05,-0.0047795,0.048265,-0.003344,-0.011148,0.013169,-0.00020597,-0.024853,0,0,0,0.029808,0.0082653,0.0041429,0.012832,0.014072,0.02389,6.5808e-07,0.05,0.25,0.95
0.0048265,0.0013578,-0.003439,0.026582,0.0052942,0.0018647,0.0022272,-8.8785e-05,-0.0025655,0.048868,-0.0064796,-0.015396,0.011582,-0.00046168,-0.01334,0,0,0,0.027162,0.0050757,0.0015035,0.012829,0.011247,0.024091,6.6635e-07,0.1,0.25,0.95
0.0072764,0.0019536,-0.0045404,0.02576,0.0034349,0.00091069,0.0017822,-0.00013355,-0.0012729,0.048912,-0.0091324,-0.015695,0.0092676,-0.00069445,-0.0066189,0,0,0,0.026005,0.0032909,0.00080953,0.012598,0.010035,0.02406,6.8939e-07,0.15,0.25,0.95
0.0097177,0.0024562,-0.0053113,0.025183,0.0021082,0.00043051,0.0012841,-0.00016003,-0.00057517,0.048842,-0.011151,-0.015514,0.0066775,-0.00083217,-0.0029909,0,0,0,0.025284,0.0020457,0.0003916,0.012446,0.0092405,0.024114,7.0923e-07,0.2,0.25,0.95
0.012161,0.0028562,-0.0058481,0.024907,0.0012456,0.00021856,0.00081661,-0.00016631,-0.0001952,0.048936,-0.012584,-0.015255,0.0042464,-0.0008648,-0.001015,0,0,0,0.024944,0.0012449,0.00018209,0.012381,0.0087904,0.024251,7.286e-07,0.25,0.25,0.95
0.014611,0.0031584,-0.0062174,0.024804,0.00069057,0.00011151,0.00042762,-0.00015482,1.5635e-05,0.049126,-0.013568,-0.015074,0.0022236,-0.00080505,8.13e-05,0,0,0,0.024815,0.00072794,6.3162e-05,0.012376,0.0085353,0.024427,7.4748e-07,0.3,0.25,0.95
0.017073,0.0033755,-0.0064653,0.024807,0.00033868,5.3215e-05,0.00013229,-0.00012952,0.00013239,0.04938,-0.014239,-0.014981,0.0006879,-0.0006735,0.00068844,0,0,0,0.02481,0.00039608,-7.173e-06,0.012409,0.0083998,0.024619,7.6626e-07,0.35,0.25,0.95
0.019549,0.0035238,-0.0066255,0.024878,0.00011925,1.7868e-05,-7.2855e-05,-9.49e-05,0.00019213,0.049675,-0.014699,-0.014963,-0.00037884,-0.00049348,0.00099909,0,0,0,0.024881,0.00018631,-5.1669e-05,0.012466,0.0083385,0.024815,7.8499e-07,0.4,0.25,0.95
0.022041,0.0036194,-0.0067242,0.024989,-1.3989e-05,-5.7234e-06,-0.00019898,-5.5874e-05,0.00021381,0.04999,-0.015018,-0.014996,-0.0010347,-0.00029054,0.0011118,0,0,0,0.024993,6.0024e-05,-8.3591e-05,0.012538,0.0083231,0.025005,8.0322e-07,0.45,0.25,0.95
0.024548,0.0036775,-0.0067821,0.025116,-9.1646e-05,-2.2418e-05,-0.00025977,-1.7789e-05,0.00020799,0.050299,-0.015239,-0.015059,-0.0013508,-9.2503e-05,0.0010816,0,0,0,0.02512,-4.2256e-06,-0.00011455,0.012617,0.0083338,0.02518,8.2012e-07,0.5,0.25,0.95
0.027071,0.0037111,-0.0068158,0.025238,-0.00013404,-3.3751e-05,-0.00026972,1.396e-05,0.00018213,0.050578,-0.015391,-0.01513,-0.0014026,7.259e-05,0.0009471,0,0,0,0.025243,-2.4187e-05,-0.00014804,0.012695,0.0083569,0.025329,8.3472e-07,0.55,0.25,0.95
0.029606,0.0037308,-0.0068382,0.025342,-0.00015469,-3.977e-05,-0.00024369,3.4819e-05,0.00014328,0.050801,-0.015491,-0.015192,-0.0012672,0.00018106,0.00074505,0,0,0,0.025346,-2.432e-05,-0.0001735,0.01276,0.0083826,0.025445,8.4613e-07,0.6,0.25,0.95
0.032151,0.0037442,-0.0068582,0.025417,-0.00016266,-4.0396e-05,-0.00019633,4.2157e-05,9.8865e-05,0.050957,-0.015552,-0.015234,-0.0010209,0.00021922,0.0005141,0,0,0,0.02542,-2.2461e-05,-0.00018267,0.012801,0.0084048,0.025522,8.5384e-07,0.65,0.25,0.95
0.034702,0.0037563,-0.0068805,0.025461,-0.00016409,-3.6307e-05,-0.00014107,3.5997e-05,5.617e-05,0.051041,-0.015583,-0.015251,-0.00073357,0.00018719,0.00029208,0,0,0,0.025462,-2.2963e-05,-0.00017846,0.01282,0.0084201,0.025563,8.5786e-07,0.7,0.25,0.95
0.037255,0.0037692,-0.0069066,0.025475,-0.00016305,-2.9104e-05,-8.8827e-05,1.9004e-05,2.1112e-05,0.051065,-0.015593,-0.015245,-0.0004619,9.8823e-05,0.00010978,0,0,0,0.025475,-2.323e-05,-0.00016933,0.012822,0.0084275,0.025572,8.5876e-07,0.75,0.25,0.95
0.039808,0.0037831,-0.006935,0.025467,-0.00016197,-2.0848e-05,-4.6895e-05,-4.3103e-06,-2.7785e-06,0.051044,-0.015592,-0.015225,-0.00024385,-2.2413e-05,-1.4448e-05,0,0,0,0.025467,-1.7887e-05,-0.00016506,0.012816,0.0084281,0.025559,8.5747e-07,0.8,0.25,0.95
0.042359,0.0037968,-0.0069626,0.025447,-0.00016186,-1.336e-05,-1.8602e-05,-2.8797e-05,-1.4693e-05,0.051,-0.015584,-0.015198,-9.6733e-05,-0.00014975,-7.6402e-05,0,0,0,0.025448,-5.2421e-06,-0.00017003,0.012809,0.0084241,0.025536,8.5508e-07,0.85,0.25,0.95
0.044908,0.0038084,-0.0069857,0.025426,-0.00016264,-7.7505e-06,-3.6637e-06,-4.9783e-05,-1.6114e-05,0.050953,-0.015576,-0.015173,-1.9051e-05,-0.00025887,-8.3792e-05,0,0,0,0.025426,9.8837e-06,-0.00018029,0.012803,0.0084184,0.025511,8.5261e-07,0.9,0.25,0.95
0.047455,0.0038162,-0.007001,0.025409,-0.0001636,-4.4073e-06,3.7033e-06,-6.3766e-05,-1.5348e-05,0.050919,-0.01557,-0.015156,1.9257e-05,-0.00033158,-7.9811e-05,0,0,0,0.025409,2.1265e-05,-0.00018928,0.012799,0.0084137,0.025494,8.5081e-07,0.95,0.25,0.95
0.048728,0.003819,-0.0070064,0.025403,-0.00016402,-3.3121e-06,6.7002e-06,-6.8655e-05,-1.619e-05,0.050906,-0.015568,-0.01515,3.4841e-05,-0.000357,-8.4188e-05,0,0,0,0.025403,2.5393e-05,-0.00019274,0.012798,0.0084119,0.025487,8.5016e-07,1,0.25,0.95
0.001176,0.00027241,-0.0010235,0.029457,0.010607,0.0084031,0.0020577,-1.577e-05,-0.0062092,0.047509,-0.0015023,-0.0072323,0.0107,-8.2002e-05,-0.032288,0,0,0,0.031562,0.010522,0.0063836,0.012589,0.016156,0.023407,6.3852e-07,0,0.3,0.95
0.0023754,0.00053902,-0.0019203,0.028164,0.0085947,0.0054511,0.0019856,-3.5629e-05,-0.004831,0.047901,-0.0029797,-0.011153,0.010325,-0.00018527,-0.025121,0,0,0,0.029583,0.0084712,0.0041553,0.012714,0.01407,0.023587,6.2566e-07,0.05,0.3,0.95
0.0047901,0.001054,-0.0034734,0.02642,0.0055806,0.0018857,0.0017784,-7.7163e-05,-0.002609,0.04836,-0.0058222,-0.015429,0.0092477,-0.00040125,-0.013567,0,0,0,0.026932,0.0054355,0.0015188,0.012707,0.011295,0.023715,6.2401e-07,0.1,0.3,0.95
0.0072114,0.0015206,-0.0045902,0.02559,0.0037848,0.00093109,0.0014659,-0.00011433,-0.0013058,0.04835,-0.0083429,-0.015763,0.0076224,-0.00059452,-0.0067902,0,0,0,0.025794,0.0036839,0.00082739,0.012484,0.010102,0.023678,6.4809e-07,0.15,0.3,0.95
0.0096251,0.0019201,-0.005371,0.025043,0.0024425,0.00044398,0.0010987,-0.00013714,-0.00059436,0.048355,-0.010407,-0.015604,0.005713,-0.00071311,-0.0030906,0,0,0,0.025126,0.0023931,0.00041028,0.012358,0.0093099,0.023793,6.7607e-07,0.2,0.3,0.95
0.012047,0.0022432,-0.0059111,0.024825,0.0015176,0.00022552,0.00073252,-0.00014347,-0.00020076,0.048604,-0.011995,-0.015354,0.0038091,-0.00074602,-0.001044,0,0,0,0.024856,0.0015096,0.00020234,0.012327,0.008856,0.02403,7.0638e-07,0.25,0.3,0.95
0.014485,0.0024905,-0.0062774,0.024787,0.00088909,0.00011503,0.00040875,-0.00013403,2.1851e-05,0.048971,-0.013163,-0.015176,0.0021255,-0.00069694,0.00011362,0,0,0,0.024797,0.00090736,8.6861e-05,0.012355,0.008597,0.024312,7.3596e-07,0.3,0.3,0.95
0.016944,0.0026694,-0.0065174,0.02485,0.00047214,5.5214e-05,0.00014921,-0.00011102,0.00014778,0.049383,-0.013999,-0.015083,0.00077588,-0.00057729,0.00076845,0,0,0,0.024853,0.00050357,2.0641e-05,0.012416,0.008459,0.024595,7.6375e-07,0.35,0.3,0.95
0.019424,0.0027911,-0.0066662,0.024967,0.0002025,1.8354e-05,-3.9654e-05,-7.7775e-05,0.00021357,0.049801,-0.014586,-0.015065,-0.0002062,-0.00040443,0.0011106,0,0,0,0.024969,0.00023957,-2.1323e-05,0.012495,0.0083958,0.024862,7.8939e-07,0.4,0.3,0.95
0.021924,0.0028684,-0.0067518,0.025109,3.3744e-05,-7.7241e-06,-0.00016072,-3.8855e-05,0.00023766,0.050202,-0.014993,-0.015101,-0.00083573,-0.00020205,0.0012358,0,0,0,0.025113,7.939e-05,-5.7113e-05,0.012585,0.0083784,0.025102,8.1261e-07,0.45,0.3,0.95
0.024444,0.0029139,-0.0067967,0.025255,-6.7647e-05,-2.7764e-05,-0.00022201,1.9325e-08,0.00023021,0.050567,-0.015272,-0.015168,-0.0011545,1.0046e-07,0.0011971,0,0,0,0.025259,2.0773e-06,-0.00010189,0.012681,0.0083865,0.025309,8.3283e-07,0.5,0.3,0.95
0.026981,0.0029391,-0.0068193,0.025386,-0.0001256,-4.2361e-05,-0.00023467,3.2583e-05,0.00019881,0.050873,-0.015457,-0.015241,-0.0012203,0.00016943,0.0010338,0,0,0,0.02539,-1.9073e-05,-0.00015291,0.012771,0.008406,0.025476,8.4931e-07,0.55,0.3,0.95
0.029531,0.0029534,-0.0068339,0.025489,-0.00015695,-5.0321e-05,-0.00021185,5.3287e-05,0.00015148,0.051101,-0.015577,-0.0153,-0.0011016,0.00027709,0.00078768,0,0,0,0.025491,-1.9682e-05,-0.0001905,0.012841,0.0084271,0.025597,8.6133e-07,0.6,0.3,0.95
0.032091,0.0029636,-0.0068502,0.025554,-0.00017333,-5.0662e-05,-0.00016769,5.8796e-05,9.7446e-05,0.051242,-0.015649,-0.01533,-0.00087197,0.00030574,0.00050672,0,0,0,0.025556,-2.0008e-05,-0.00020565,0.012881,0.0084433,0.025669,8.6856e-07,0.65,0.3,0.95
0.034656,0.002974,-0.0068731,0.025581,-0.00018256,-4.3955e-05,-0.00011569,4.9015e-05,4.61e-05,0.051298,-0.015687,-0.015327,-0.00060161,0.00025488,0.00023972,0,0,0,0.025582,-2.2555e-05,-0.00020471,0.012893,0.0084515,0.025696,8.7129e-07,0.7,0.3,0.95
0.037221,0.0029864,-0.0069031,0.025575,-0.00018954,-3.2531e-05,-6.7024e-05,2.7093e-05,5.1199e-06,0.051284,-0.015705,-0.015296,-0.00034853,0.00014089,2.6624e-05,0,0,0,0.025575,-2.3335e-05,-0.000199,0.012887,0.0084511,0.025687,8.704e-07,0.75,0.3,0.95
0.039784,0.0030003,-0.0069375,0.025547,-0.00019671,-1.9599e-05,-2.9101e-05,-1.5997e-06,-2.1059e-05,0.051223,-0.01571,-0.015249,-0.00015133,-8.3181e-06,-0.00010951,0,0,0,0.025547,-1.6231e-05,-0.00020018,0.012874,0.0084435,0.025656,8.6717e-07,0.8,0.3,0.95
0.042343,0.0030143,-0.0069718,0.025508,-0.00020451,-8.0105e-06,-5.1664e-06,-3.1029e-05,-3.168e-05,0.051144,-0.015709,-0.015198,-2.6865e-05,-0.00016135,-0.00016474,0,0,0,0.025508,-4.8475e-07,-0.0002121,0.01286,0.0084319,0.025615,8.6302e-07,0.85,0.3,0.95
0.044898,0.0030263,-0.0070008,0.025471,-0.00021192,5.519e-07,5.265e-06,-5.5861e-05,-2.8961e-05,0.051069,-0.015707,-0.015154,2.7378e-05,-0.00029048,-0.0001506,0,0,0,0.025471,1.7441e-05,-0.00022886,0.01285,0.0084199,0.025578,8.5918e-07,0.9,0.3,0.95
0.04745,0.0030343,-0.0070201,0.025445,-0.00021732,5.5878e-06,8.2279e-06,-7.2237e-05,-2.3627e-05,0.051017,-0.015705,-0.015125,4.2785e-05,-0.00037563,-0.00012286,0,0,0,0.025445,3.0515e-05,-0.00024228,0.012844,0.0084111,0.025552,8.5653e-07,0.95,0.3,0.95
0.048725,0.0030372,-0.0070269,0.025436,-0.0002193,7.2234e-06,9.0847e-06,-7.7933e-05,-2.2561e-05,0.050999,-0.015704,-0.015115,4.724e-05,-0.00040525,-0.00011732,0,0,0,0.025436,3.5184e-05,-0.00024729,0.012842,0.0084079,0.025543,8.556e-07,1,0.3,0.95
0.0011735,0.00020077,-0.0010307,0.029392,0.01064,0.0083944,0.0015199,-1.4622e-05,-0.0062592,0.047363,-0.0013918,-0.0072305,0.0079037,-7.6034e-05,-0.032548,0,0,0,0.03144,0.010591,0.006395,0.012523,0.016142,0.023259,6.2424e-07,0,0.35,0.95
0.0023682,0.00039689,-0.0019352,0.028089,0.0086824,0.0054539,0.0014713,-3.1819e-05,-0.0048766,0.047697,-0.0027612,-0.011155,0.0076509,-0.00016546,-0.025358,0,0,0,0.02945,0.0086111,0.004165,0.012642,0.014075,0.023401,6.0565e-07,0.05,0.35,0.95
0.0047697,0.00077553,-0.0035034,0.02632,0.0057598,0.0019015,0.0013303,-6.6723e-05,-0.0026466,0.048044,-0.0054135,-0.015445,0.0069177,-0.00034696,-0.013762,0,0,0,0.026778,0.005675,0.0015285,0.012625,0.011327,0.023467,5.9629e-07,0.1,0.35,0.95
0.0071726,0.0011194,-0.004633,0.025472,0.0040146,0.00094709,0.0011145,-9.6984e-05,-0.0013346,0.047967,-0.0078223,-0.015798,0.0057956,-0.00050432,-0.0069399,0,0,0,0.025639,0.003954,0.00084028,0.0124,0.010145,0.023407,6.1925e-07,0.15,0.35,0.95
0.0095664,0.0014155,-0.0054222,0.024933,0.002678,0.00045697,0.00085436,-0.00011556,-0.00061253,0.047986,-0.0098781,-0.015653,0.0044427,-0.00060089,-0.0031852,0,0,0,0.024996,0.0026471,0.00042526,0.012285,0.0093561,0.023545,6.5076e-07,0.2,0.35,0.95
0.011971,0.0016567,-0.0059651,0.024744,0.0017249,0.00023491,0.00058497,-0.00012066,-0.00020792,0.048313,-0.011538,-0.015412,0.0030419,-0.00062745,-0.0010812,0,0,0,0.024767,0.0017186,0.00021872,0.012274,0.0089014,0.023837,6.8719e-07,0.25,0.35,0.95
0.014398,0.0018421,-0.0063288,0.024748,0.0010525,0.00012156,0.00033666,-0.0001121,2.5158e-05,0.048792,-0.012817,-0.015237,0.0017506,-0.0005829,0.00013082,0,0,0,0.024755,0.0010621,0.00010479,0.012325,0.0086407,0.024188,7.2377e-07,0.3,0.35,0.95
0.01685,0.0019757,-0.0065614,0.024855,0.00059134,5.9403e-05,0.00012954,-9.0797e-05,0.00016016,0.049319,-0.013766,-0.015149,0.00067363,-0.00047214,0.00083281,0,0,0,0.024858,0.00060765,4.0297e-05,0.012409,0.0085019,0.02454,7.5824e-07,0.35,0.35,0.95
0.01933,0.0020652,-0.0066994,0.025012,0.0002851,1.9682e-05,-2.6395e-05,-5.907e-05,0.00023269,0.04984,-0.014449,-0.015139,-0.00013725,-0.00030716,0.00121,0,0,0,0.025014,0.00030203,-4.163e-08,0.012507,0.0084388,0.024865,7.8966e-07,0.4,0.35,0.95
0.021834,0.0021201,-0.0067723,0.025186,8.9461e-05,-1.0508e-05,-0.00012899,-2.0943e-05,0.0002601,0.050325,-0.014926,-0.015186,-0.00067076,-0.0001089,0.0013525,0,0,0,0.02519,0.00011293,-3.7771e-05,0.012614,0.0084216,0.025153,8.1752e-07,0.45,0.35,0.95
0.024362,0.0021503,-0.0068045,0.025355,-3.0349e-05,-3.5637e-05,-0.00018162,1.7789e-05,0.00025168,0.050749,-0.015252,-0.015266,-0.00094441,9.2503e-05,0.0013087,0,0,0,0.025359,2.0785e-05,-9.0959e-05,0.012725,0.0084296,0.025394,8.4124e-07,0.5,0.35,0.95
0.026909,0.0021653,-0.0068164,0.0255,-0.00010096,-5.5033e-05,-0.00019179,5.0293e-05,0.00021483,0.051093,-0.015469,-0.015349,-0.00099729,0.00026152,0.0011171,0,0,0,0.025503,-7.3346e-06,-0.00015225,0.012828,0.0084479,0.025583,8.6002e-07,0.55,0.35,0.95
0.029471,0.0021731,-0.0068237,0.025606,-0.00014206,-6.5814e-05,-0.00017021,7.0263e-05,0.00015856,0.051337,-0.015608,-0.01541,-0.00088511,0.00036537,0.00082453,0,0,0,0.025609,-1.308e-05,-0.0001972,0.012903,0.0084661,0.025714,8.7317e-07,0.6,0.35,0.95
0.032043,0.0021793,-0.006837,0.025667,-0.00016761,-6.5774e-05,-0.00012954,7.3805e-05,9.415e-05,0.051474,-0.015696,-0.015431,-0.00067359,0.00038378,0.00048958,0,0,0,0.025668,-1.7786e-05,-0.00021681,0.012942,0.0084778,0.025786,8.8044e-07,0.65,0.35,0.95
0.034619,0.0021876,-0.0068614,0.025682,-0.00018682,-5.5399e-05,-8.2423e-05,6.0749e-05,3.3471e-05,0.051509,-0.015749,-0.015408,-0.0004286,0.0003159,0.00017405,0,0,0,0.025682,-2.3432e-05,-0.00021924,0.012951,0.0084798,0.025804,8.823e-07,0.7,0.35,0.95
0.037194,0.0021988,-0.0068966,0.025659,-0.00020498,-3.8105e-05,-3.9473e-05,3.469e-05,-1.3722e-05,0.051464,-0.015782,-0.015349,-0.00020526,0.00018039,-7.1357e-05,0,0,0,0.025659,-2.4665e-05,-0.00021859,0.012939,0.0084719,0.025781,8.7996e-07,0.75,0.35,0.95
0.039765,0.0022122,-0.0069384,0.025612,-0.00022406,-1.8763e-05,-7.6358e-06,1.7197e-06,-4.2001e-05,0.051369,-0.015804,-0.01527,-3.9706e-05,8.9423e-06,-0.00021841,0,0,0,0.025612,-1.4854e-05,-0.0002281,0.01292,0.0084563,0.025734,8.7509e-07,0.8,0.35,0.95
0.042331,0.0022259,-0.0069806,0.025555,-0.00024332,-1.6681e-06,1.0295e-05,-3.1443e-05,-5.0774e-05,0.051258,-0.015819,-0.015191,5.3532e-05,-0.0001635,-0.00026403,0,0,0,0.025556,4.9292e-06,-0.00025006,0.012903,0.0084368,0.025679,8.6942e-07,0.85,0.35,0.95
0.044891,0.0022377,-0.0070164,0.025505,-0.00026032,1.0759e-05,1.5127e-05,-5.9038e-05,-4.3199e-05,0.051159,-0.01583,-0.015125,7.8662e-05,-0.000307,-0.00022463,0,0,0,0.025505,2.5997e-05,-0.00027567,0.01289,0.0084183,0.025631,8.644e-07,0.9,0.35,0.95
0.047447,0.0022457,-0.0070404,0.02547,-0.0002721,1.7952e-05,1.2966e-05,-7.7059e-05,-3.2775e-05,0.051092,-0.015837,-0.015083,6.7423e-05,-0.00040071,-0.00017043,0,0,0,0.02547,4.0705e-05,-0.00029491,0.012882,0.0084052,0.025598,8.6103e-07,0.95,0.35,0.95
0.048724,0.0022485,-0.0070487,0.025457,-0.00027631,2.0263e-05,1.1368e-05,-8.3294e-05,-2.9651e-05,0.051068,-0.015839,-0.015068,5.9111e-05,-0.00043313,-0.00015419,0,0,0,0.025457,4.5847e-05,-0.00030194,0.01288,0.0084004,0.025587,8.5985e-07,1,0.35,0.95
0.0011726,0.00013323,-0.001037,0.029368,0.010664,0.0083949,0.0010097,-1.3056e-05,-0.0063019,0.0473,-0.0013293,-0.0072291,0.0052504,-6.789e-05,-0.03277,0,0,0,0.031381,0.010641,0.0064045,0.012488,0.016142,0.023179,6.1648e-07,0,0.4,0.95
0.002365,0.00026291,-0.0019479,0.028056,0.0087369,0.0054604,0.00097843,-2.7477e-05,-0.0049152,0.047594,-0.0026361,-0.011155,0.0050878,-0.00014288,-0.025559,0,0,0,0.029378,0.0087027,0.0041725,0.012603,0.014084,0.023295,5.9401e-07,0.05,0.4,0.95
0.0047594,0.00051261,-0.0035283,0.026265,0.0058668,0.0019144,0.00088749,-5.5829e-05,-0.0026779,0.04786,-0.0051739,-0.01545,0.0046149,-0.00029031,-0.013925,0,0,0,0.026684,0.005826,0.0015356,0.012574,0.011349,0.023315,5.7924e-07,0.1,0.4,0.95
0.007151,0.00073838,-0.004668,0.025397,0.0041545,0.00096014,0.0007479,-7.9406e-05,-0.0013588,0.047726,-0.0075054,-0.015811,0.0038891,-0.00041291,-0.0070658,0,0,0,0.025536,0.0041254,0.00085042,0.012343,0.010171,0.023231,6.0074e-07,0.15,0.4,0.95
0.0095319,0.00093226,-0.0054635,0.024857,0.0028277,0.00046894,0.00057776,-9.355e-05,-0.00062869,0.047735,-0.0095399,-0.015673,0.0030043,-0.00048646,-0.0032692,0,0,0,0.024902,0.0028131,0.00043803,0.012232,0.0093844,0.023373,6.3356e-07,0.2,0.4,0.95
0.011925,0.0010894,-0.0060083,0.024681,0.0018636,0.0002454,0.00039763,-9.6933e-05,-0.00021545,0.048096,-0.011229,-0.015436,0.0020677,-0.00050405,-0.0011203,0,0,0,0.024695,0.0018615,0.00023336,0.012231,0.0089299,0.023693,6.7312e-07,0.25,0.4,0.95
0.014342,0.0012088,-0.0063693,0.024709,0.0011685,0.0001304,0.00022706,-8.8883e-05,2.6457e-05,0.048638,-0.012566,-0.015266,0.0011807,-0.00046219,0.00013758,0,0,0,0.024713,0.0011743,0.00012041,0.012296,0.0086692,0.024085,7.1377e-07,0.3,0.4,0.95
0.016788,0.0012928,-0.0065952,0.024845,0.00068225,6.6007e-05,8.0968e-05,-6.9486e-05,0.00016982,0.049241,-0.013582,-0.015184,0.00042103,-0.00036133,0.00088306,0,0,0,0.024847,0.00069051,5.5496e-05,0.012396,0.008531,0.024481,7.5255e-07,0.35,0.4,0.95
0.019266,0.0013462,-0.0067233,0.025031,0.00035454,2.263e-05,-3.1333e-05,-4.0155e-05,0.00024915,0.049836,-0.014323,-0.015186,-0.00016293,-0.0002088,0.0012956,0,0,0,0.025034,0.00036107,1.3107e-05,0.012511,0.0084695,0.02485,7.8807e-07,0.4,0.4,0.95
0.021772,0.0013758,-0.0067844,0.025232,0.0001433,-1.3106e-05,-0.00010567,-4.2668e-06,0.00028038,0.050387,-0.014845,-0.015252,-0.0005495,-2.2187e-05,0.001458,0,0,0,0.025236,0.0001545,-2.8284e-05,0.012632,0.0084542,0.025174,8.1956e-07,0.45,0.4,0.95
0.024304,0.0013887,-0.0068047,0.025423,1.3061e-05,-4.5112e-05,-0.00014236,3.2648e-05,0.00027149,0.050864,-0.0152,-0.015352,-0.00074025,0.00016977,0.0014118,0,0,0,0.025427,4.9277e-05,-8.5443e-05,0.012756,0.0084635,0.025445,8.4626e-07,0.5,0.4,0.95
0.026858,0.0013923,-0.0068065,0.025582,-6.4981e-05,-7.0996e-05,-0.00014574,6.3637e-05,0.00022946,0.051245,-0.015436,-0.015452,-0.00075786,0.00033091,0.0011932,0,0,0,0.025585,9.9216e-06,-0.00014918,0.012867,0.0084819,0.025655,8.6723e-07,0.55,0.4,0.95
0.029429,0.0013925,-0.0068073,0.025694,-0.00011301,-8.5656e-05,-0.00012378,8.2054e-05,0.00016419,0.051508,-0.015591,-0.01552,-0.00064364,0.00042668,0.00085379,0,0,0,0.025696,-4.8753e-06,-0.00019576,0.012946,0.0084985,0.025797,8.8161e-07,0.6,0.4,0.95
0.032009,0.001394,-0.0068186,0.025753,-0.00014696,-8.5279e-05,-8.6882e-05,8.3713e-05,8.9142e-05,0.051645,-0.015694,-0.015534,-0.00045179,0.00043531,0.00046354,0,0,0,0.025754,-1.6187e-05,-0.00021689,0.012985,0.0085069,0.025871,8.8914e-07,0.65,0.4,0.95
0.034593,0.0013991,-0.0068455,0.025758,-0.00017704,-7.0272e-05,-4.6019e-05,6.8421e-05,1.8956e-05,0.051665,-0.015767,-0.015489,-0.0002393,0.00035579,9.8573e-05,0,0,0,0.025759,-2.6052e-05,-0.00022152,0.01299,0.0085037,0.025883,8.9042e-07,0.7,0.4,0.95
0.037176,0.0014082,-0.0068868,0.025721,-0.00020849,-4.5532e-05,-1.0451e-05,4.0042e-05,-3.4358e-05,0.051595,-0.015823,-0.015399,-5.4345e-05,0.00020822,-0.00017866,0,0,0,0.025722,-2.7465e-05,-0.0002267,0.012974,0.0084892,0.025849,8.8693e-07,0.75,0.4,0.95
0.039753,0.00142,-0.006937,0.025658,-0.00024217,-1.8135e-05,1.3917e-05,5.0432e-06,-6.4365e-05,0.051472,-0.015868,-0.015286,7.2369e-05,2.6224e-05,-0.0003347,0,0,0,0.025658,-1.3733e-05,-0.0002468,0.012953,0.0084659,0.025789,8.8072e-07,0.8,0.4,0.95
0.042323,0.0014324,-0.0069878,0.025587,-0.00027563,5.7691e-06,2.5035e-05,-2.9586e-05,-7.0788e-05,0.051335,-0.015907,-0.015175,0.00013018,-0.00015385,-0.0003681,0,0,0,0.025587,1.1008e-05,-0.00028115,0.012934,0.0084389,0.025723,8.7382e-07,0.85,0.4,0.95
0.044886,0.0014433,-0.0070311,0.025524,-0.00030452,2.2867e-05,2.4087e-05,-5.8041e-05,-5.7906e-05,0.051216,-0.015937,-0.015086,0.00012525,-0.00030181,-0.00030111,0,0,0,0.025524,3.5357e-05,-0.00031721,0.01292,0.008414,0.025667,8.6787e-07,0.9,0.4,0.95
0.047445,0.0014507,-0.0070599,0.025481,-0.00032418,3.2598e-05,1.6928e-05,-7.6453e-05,-4.2195e-05,0.051137,-0.015956,-0.015029,8.8028e-05,-0.00039756,-0.00021941,0,0,0,0.025481,5.1488e-05,-0.00034317,0.012912,0.0083964,0.025629,8.6394e-07,0.95,0.4,0.95
0.048723,0.0014533,-0.00707,0.025466,-0.00033115,3.5689e-05,1.2943e-05,-8.2793e-05,-3.7008e-05,0.051109,-0.015963,-0.015009,6.7303e-05,-0.00043052,-0.00019244,0,0,0,0.025466,5.6983e-05,-0.00035251,0.012909,0.0083901,0.025616,8.6258e-07,1,0.4,0.95
0.0011727,6.7843e-05,-0.001042,0.029368,0.01068,0.0084005,0.00051412,-1.0833e-05,-0.0063356,0.047287,-0.0013006,-0.0072276,0.0026734,-5.6331e-05,-0.032945,0,0,0,0.031365,0.010672,0.006411,0.012477,0.016149,0.023149,6.1333e-07,0,0.45,0.95
0.0023643,0.00013328,-0.0019577,0.028049,0.0087664,0.0054684,0.00049724,-2.2011e-05,-0.0049455,0.047557,-0.0025776,-0.011152,0.0025857,-0.00011446,-0.025717,0,0,0,0.029351,0.0087547,0.0041778,0.012587,0.014095,0.023248,5.8858e-07,0.05,0.45,0.95
0.0047557,0.00025815,-0.0035472,0.026241,0.0059202,0.001925,0.00044828,-4.3148e-05,-0.0027021,0.047775,-0.005059,-0.015447,0.0023311,-0.00022437,-0.014051,0,0,0,0.026639,0.0059065,0.001541,0.012549,0.011362,0.023238,5.7055e-07,0.1,0.45,0.95
0.0071418,0.00036882,-0.004694,0.025359,0.0042244,0.00097076,0.00037391,-5.9708e-05,-0.0013778,0.047601,-0.007349,-0.015808,0.0019444,-0.00031048,-0.0071645,0,0,0,0.02548,0.0042149,0.00085868,0.012311,0.010185,0.023135,5.9092e-07,0.15,0.45,0.95
0.0095158,0.0004615,-0.0054937,0.024813,0.0029039,0.00047954,0.00028364,-6.9137e-05,-0.00064196,0.047595,-0.0093675,-0.015671,0.0014749,-0.00035951,-0.0033382,0,0,0,0.024847,0.0028999,0.00044909,0.012199,0.0093987,0.023276,6.2404e-07,0.2,0.45,0.95
0.011901,0.00053387,-0.0060393,0.024641,0.0019367,0.00025595,0.00018712,-7.0586e-05,-0.00022242,0.047966,-0.011065,-0.015435,0.00097303,-0.00036704,-0.0011566,0,0,0,0.02465,0.0019373,0.0002467,0.012201,0.0089445,0.023607,6.6489e-07,0.25,0.45,0.95
0.014312,0.00058543,-0.0063976,0.02468,0.0012328,0.00014044,9.4247e-05,-6.3219e-05,2.643e-05,0.048537,-0.012427,-0.015267,0.00049009,-0.00032874,0.00013744,0,0,0,0.024683,0.0012362,0.00013485,0.012274,0.0086845,0.024018,7.0744e-07,0.3,0.45,0.95
0.016755,0.00061747,-0.0066174,0.024833,0.00073678,7.4313e-05,1.3507e-05,-4.6574e-05,0.00017693,0.049179,-0.013471,-0.015193,7.0237e-05,-0.00024218,0.00092003,0,0,0,0.024835,0.00074051,6.868e-05,0.012383,0.008548,0.024438,7.4842e-07,0.35,0.45,0.95
0.01923,0.00063285,-0.0067366,0.025038,0.00040167,2.708e-05,-4.8726e-05,-2.1319e-05,0.00026252,0.049819,-0.014236,-0.01521,-0.00025337,-0.00011086,0.0013651,0,0,0,0.025041,0.00040393,2.1589e-05,0.01251,0.0084889,0.024831,7.8626e-07,0.4,0.45,0.95
0.021737,0.00063557,-0.0067873,0.025257,0.00018643,-1.5028e-05,-8.8461e-05,9.9541e-06,0.00029759,0.050412,-0.014773,-0.015296,-0.00046,5.1762e-05,0.0015475,0,0,0,0.025262,0.00019278,-2.5609e-05,0.012644,0.0084763,0.025179,8.2002e-07,0.45,0.45,0.95
0.024272,0.00063028,-0.0067973,0.025464,5.4668e-05,-5.5141e-05,-0.0001044,4.2418e-05,0.00028862,0.050928,-0.015136,-0.015421,-0.00054288,0.00022057,0.0015008,0,0,0,0.025468,7.9892e-05,-8.4513e-05,0.012776,0.0084878,0.025471,8.4878e-07,0.5,0.45,0.95
0.02683,0.0006217,-0.0067904,0.025634,-2.4456e-05,-8.879e-05,-9.8366e-05,6.9637e-05,0.00024192,0.051337,-0.015376,-0.015544,-0.0005115,0.00036211,0.001258,0,0,0,0.025637,2.9434e-05,-0.00014577,0.012892,0.008507,0.025696,8.7138e-07,0.55,0.45,0.95
0.029405,0.00061395,-0.0067858,0.025753,-7.5352e-05,-0.00010819,-7.544e-05,8.5263e-05,0.00016815,0.051615,-0.015537,-0.015623,-0.00039229,0.00044337,0.00087437,0,0,0,0.025754,4.2149e-06,-0.00018944,0.012972,0.008523,0.025848,8.8677e-07,0.6,0.45,0.95
0.031991,0.00060991,-0.006796,0.02581,-0.00011555,-0.00010759,-4.323e-05,8.5237e-05,8.2953e-05,0.051754,-0.015653,-0.015632,-0.0002248,0.00044323,0.00043136,0,0,0,0.025811,-1.5427e-05,-0.00020831,0.01301,0.008529,0.025923,8.9455e-07,0.65,0.45,0.95
0.034581,0.00061086,-0.0068261,0.025809,-0.00015589,-8.7311e-05,-1.018e-05,6.939e-05,3.7789e-06,0.051763,-0.015745,-0.015566,-5.2934e-05,0.00036083,1.965e-05,0,0,0,0.025809,-3.0635e-05,-0.00021274,0.013011,0.0085218,0.025931,8.9539e-07,0.7,0.45,0.95
0.037168,0.0006165,-0.0068742,0.02576,-0.00020104,-5.4062e-05,1.6527e-05,4.1515e-05,-5.5104e-05,0.051674,-0.015826,-0.015444,8.5943e-05,0.00021588,-0.00028654,0,0,0,0.025761,-3.1864e-05,-0.00022348,0.012992,0.0085018,0.025889,8.9102e-07,0.75,0.45,0.95
0.039748,0.00062533,-0.0069329,0.025684,-0.00025034,-1.7545e-05,3.2532e-05,7.8663e-06,-8.6337e-05,0.051529,-0.015901,-0.015295,0.00016917,4.0905e-05,-0.00044895,0,0,0,0.025684,-1.2936e-05,-0.00025536,0.01297,0.008472,0.025819,8.8376e-07,0.8,0.45,0.95
0.04232,0.00063521,-0.0069924,0.0256,-0.00029919,1.3949e-05,3.6719e-05,-2.4944e-05,-9.0097e-05,0.051371,-0.015967,-0.015153,0.00019094,-0.00012971,-0.0004685,0,0,0,0.025601,1.7449e-05,-0.00030313,0.012952,0.0084383,0.025745,8.7593e-07,0.85,0.45,0.95
0.044885,0.00064403,-0.0070431,0.025527,-0.00034099,3.6147e-05,3.0586e-05,-5.1594e-05,-7.1887e-05,0.051237,-0.01602,-0.015039,0.00015905,-0.00026829,-0.00037381,0,0,0,0.025527,4.4926e-05,-0.00035007,0.012939,0.0084074,0.025682,8.6932e-07,0.9,0.45,0.95
0.047444,0.00065006,-0.0070768,0.025478,-0.0003692,4.8583e-05,1.9286e-05,-6.869e-05,-5.1126e-05,0.051149,-0.016054,-0.014968,0.00010029,-0.00035719,-0.00026586,0,0,0,0.025478,6.2132e-05,-0.0003829,0.012931,0.0083859,0.025642,8.6502e-07,0.95,0.45,0.95
0.048722,0.00065219,-0.0070886,0.025461,-0.00037917,5.2491e-05,1.3315e-05,-7.4549e-05,-4.4044e-05,0.051118,-0.016067,-0.014944,6.9236e-05,-0.00038765,-0.00022903,0,0,0,0.025461,6.7825e-05,-0.00039459,0.012928,0.0083781,0.025628,8.6354e-07,1,0.45,0.95
0.0011734,3.1669e-06,-0.0010453,0.029383,0.010688,0.0084085,2.3233e-05,-7.7988e-06,-0.0063584,0.047308,-0.0012983,-0.0072258,0.00012081,-4.0554e-05,-0.033064,0,0,0,0.03138,0.010686,0.0064139,0.012483,0.01616,0.023158,6.1378e-07,0,0.5,0.95
0.0023654,5.1436e-06,-0.0019642,0.02806,0.0087752,0.0054764,1.9563e-05,-1.5047e-05,-0.0049659,0.047569,-0.0025715,-0.011148,0.00010173,-7.8245e-05,-0.025823,0,0,0,0.029359,0.0087717,0.0041807,0.012589,0.014104,0.023249,5.8817e-07,0.05,0.5,0.95
0.0047569,6.7053e-06,-0.0035592,0.026243,0.0059304,0.0019329,9.3411e-06,-2.7818e-05,-0.0027183,0.047767,-0.0050444,-0.015438,4.8574e-05,-0.00014465,-0.014135,0,0,0,0.026635,0.0059262,0.0015451,0.012545,0.011369,0.023224,5.6892e-07,0.1,0.5,0.95
0.0071421,3.4823e-06,-0.0047101,0.025352,0.0042359,0.0009787,-4.3767e-06,-3.6587e-05,-0.0013906,0.047575,-0.0073263,-0.015795,-2.2758e-05,-0.00019025,-0.0072309,0,0,0,0.025468,0.004233,0.00086506,0.012302,0.010189,0.023112,5.8878e-07,0.15,0.5,0.95
0.0095144,-4.4842e-06,-0.0055117,0.0248,0.0029161,0.00048806,-1.9171e-05,-4.08e-05,-0.00065133,0.047558,-0.0093408,-0.015654,-9.9686e-05,-0.00021216,-0.0033869,0,0,0,0.024832,0.0029148,0.00045799,0.012187,0.0094015,0.023249,6.2173e-07,0.2,0.5,0.95
0.011898,-1.7041e-05,-0.0060569,0.024627,0.0019488,0.00026531,-3.4559e-05,-4.015e-05,-0.00022787,0.047926,-0.011038,-0.015415,-0.00017971,-0.00020878,-0.0011849,0,0,0,0.024634,0.001949,0.00025795,0.012188,0.0089471,0.023581,6.6264e-07,0.25,0.5,0.95
0.014307,-3.3852e-05,-0.0064123,0.024669,0.0012453,0.00015018,-4.9579e-05,-3.3875e-05,2.5704e-05,0.0485,-0.012401,-0.015248,-0.00025781,-0.00017615,0.00013366,0,0,0,0.024671,0.0012463,0.00014736,0.012262,0.0086881,0.023995,7.0541e-07,0.3,0.5,0.95
0.016748,-5.4293e-05,-0.0066269,0.024826,0.00075142,8.3009e-05,-6.2572e-05,-2.1236e-05,0.00018154,0.049152,-0.013443,-0.015181,-0.00032537,-0.00011043,0.00094401,0,0,0,0.024828,0.00075242,7.994e-05,0.012374,0.0085536,0.02442,7.468e-07,0.35,0.5,0.95
0.019222,-7.734e-05,-0.006739,0.025039,0.00042087,3.2323e-05,-7.1208e-05,-2.2931e-06,0.00027218,0.049806,-0.014201,-0.015211,-0.00037028,-1.1924e-05,0.0014153,0,0,0,0.025042,0.00042188,2.7786e-05,0.012507,0.0084974,0.02482,7.8522e-07,0.4,0.5,0.95
0.021729,-0.0001015,-0.0067814,0.025267,0.00021208,-1.6025e-05,-7.2928e-05,2.1307e-05,0.00031058,0.050417,-0.014727,-0.01532,-0.00037922,0.0001108,0.001615,0,0,0,0.025272,0.00021719,-2.5575e-05,0.012649,0.0084877,0.025177,8.1977e-07,0.45,0.5,0.95
0.024264,-0.00012486,-0.0067831,0.025482,8.7163e-05,-6.435e-05,-6.5812e-05,4.5946e-05,0.00030175,0.05095,-0.015076,-0.01547,-0.00034222,0.00023892,0.0015691,0,0,0,0.025486,0.00010444,-8.5855e-05,0.012786,0.0085016,0.025478,8.4943e-07,0.5,0.5,0.95
0.026824,-0.00014537,-0.0067696,0.025659,1.3216e-05,-0.00010601,-4.9628e-05,6.6487e-05,0.00025122,0.051375,-0.015306,-0.015616,-0.00025807,0.00034573,0.0013064,0,0,0,0.025663,4.7487e-05,-0.00014332,0.012903,0.0085222,0.025711,8.7286e-07,0.55,0.5,0.95
0.029401,-0.00016121,-0.0067612,0.025781,-3.6054e-05,-0.00013041,-2.6497e-05,7.7706e-05,0.00017023,0.051662,-0.015463,-0.015708,-0.00013779,0.00040407,0.00088518,0,0,0,0.025783,1.3637e-05,-0.00018164,0.012982,0.0085382,0.025867,8.8878e-07,0.6,0.5,0.95
0.03199,-0.00017125,-0.0067713,0.025837,-7.9379e-05,-0.00012972,-6.7411e-07,7.622e-05,7.6348e-05,0.0518,-0.015583,-0.015714,-3.5054e-06,0.00039634,0.00039701,0,0,0,0.025838,-1.4789e-05,-0.00019481,0.013016,0.0085428,0.025943,8.9664e-07,0.65,0.5,0.95
0.034581,-0.00017536,-0.0068049,0.025831,-0.00012779,-0.00010419,2.2669e-05,6.1924e-05,-1.0428e-05,0.0518,-0.015691,-0.01563,0.00011788,0.00032201,-5.4224e-05,0,0,0,0.025831,-3.6526e-05,-0.00019565,0.013013,0.0085329,0.025947,8.9711e-07,0.7,0.5,0.95
0.03717,-0.00017443,-0.0068594,0.025774,-0.00018507,-6.2445e-05,3.9102e-05,3.8055e-05,-7.3808e-05,0.051696,-0.015797,-0.015478,0.00020333,0.00019789,-0.0003838,0,0,0,0.025774,-3.7583e-05,-0.00021032,0.012992,0.0085088,0.025899,8.9206e-07,0.75,0.5,0.95
0.039751,-0.00017009,-0.006926,0.025688,-0.00024879,-1.6916e-05,4.6196e-05,9.864e-06,-0.0001057,0.051535,-0.0159,-0.015297,0.00024022,5.1293e-05,-0.00054963,0,0,0,0.025688,-1.2584e-05,-0.00025374,0.012971,0.008474,0.025822,8.8408e-07,0.8,0.5,0.95
0.042323,-0.00016425,-0.0069936,0.025595,-0.00031208,2.1959e-05,4.383e-05,-1.7219e-05,-0.0001068,0.051364,-0.015994,-0.015126,0.00022792,-8.9541e-05,-0.00055536,0,0,0,0.025596,2.3624e-05,-0.00031435,0.012955,0.0084349,0.025743,8.7565e-07,0.85,0.5,0.95
0.044887,-0.00015868,-0.0070508,0.025515,-0.00036606,4.9022e-05,3.364e-05,-3.8965e-05,-8.38e-05,0.05122,-0.01607,-0.014991,0.00017493,-0.00020262,-0.00043576,0,0,0,0.025515,5.3766e-05,-0.00037119,0.012943,0.0083993,0.025677,8.6864e-07,0.9,0.5,0.95
0.047445,-0.00015478,-0.0070889,0.025462,-0.00040235,6.3985e-05,1.954e-05,-5.2796e-05,-5.8728e-05,0.051126,-0.01612,-0.014908,0.00010161,-0.00027454,-0.00030539,0,0,0,0.025462,7.1647e-05,-0.0004102,0.012936,0.0083744,0.025634,8.6414e-07,0.95,0.5,0.95
0.048723,-0.00015339,-0.0071022,0.025443,-0.00041514,6.8643e-05,1.2205e-05,-5.7514e-05,-5.0099e-05,0.051094,-0.016137,-0.014879,6.3467e-05,-0.00029907,-0.00026052,0,0,0,0.025443,7.7396e-05,-0.00042401,0.012934,0.0083655,0.02562,8.6261e-07,1,0.5,0.95
0.0011745,-6.1983e-05,-0.0010468,0.02941,0.010689,0.0084176,-0.00047131,-3.9411e-06,-0.0063687,0.047356,-0.0013188,-0.0072242,-0.0024508,-2.0494e-05,-0.033117,0,0,0,0.031421,0.010682,0.0064127,0.012504,0.016172,0.0232,6.1743e-07,0,0.55,0.95
0.0023678,-0.00012387,-0.0019669,0.028086,0.0087651,0.0054834,-0.00046166,-6.5051e-06,-0.0049749,0.047622,-0.0026113,-0.011144,-0.0024007,-3.3827e-05,-0.025869,0,0,0,0.029398,0.0087553,0.0041808,0.012609,0.014111,0.023292,5.9234e-07,0.05,0.55,0.95
0.0047622,-0.00024629,-0.0035637,0.026266,0.0059018,0.0019374,-0.00043282,-9.5617e-06,-0.0027251,0.047829,-0.0051186,-0.015426,-0.0022507,-4.9721e-05,-0.014171,0,0,0,0.026669,0.0058895,0.0015474,0.012561,0.011369,0.02327,5.7385e-07,0.1,0.55,0.95
0.0071507,-0.00036382,-0.0047151,0.025374,0.0041949,0.00098317,-0.00038541,-9.5264e-06,-0.0013959,0.047641,-0.0074245,-0.015775,-0.0020041,-4.9537e-05,-0.0072588,0,0,0,0.025498,0.0041848,0.00086896,0.012315,0.010184,0.023159,5.9385e-07,0.15,0.55,0.95
0.0095263,-0.00047258,-0.0055162,0.024819,0.0028693,0.00049337,-0.00032407,-7.8795e-06,-0.00065565,0.04762,-0.0094486,-0.015626,-0.0016851,-4.0973e-05,-0.0034094,0,0,0,0.024855,0.0028626,0.00046363,0.012196,0.0093938,0.023292,6.2634e-07,0.2,0.55,0.95
0.011913,-0.00056993,-0.0060597,0.02464,0.0019035,0.00027199,-0.0002574,-4.9552e-06,-0.00023084,0.047975,-0.01114,-0.015382,-0.0013385,-2.5767e-05,-0.0012004,0,0,0,0.024651,0.0018998,0.00026546,0.012193,0.0089386,0.023614,6.6631e-07,0.25,0.55,0.95
0.014324,-0.00065465,-0.0064124,0.024676,0.0012076,0.00015789,-0.00019337,-2.5763e-07,2.4876e-05,0.048532,-0.012485,-0.015214,-0.0010055,-1.3397e-06,0.00012936,0,0,0,0.024679,0.0012062,0.00015596,0.012262,0.0086804,0.024018,7.0787e-07,0.3,0.55,0.95
0.016766,-0.00072681,-0.006623,0.024828,0.00072583,9.0459e-05,-0.00013726,7.0149e-06,0.00018365,0.049166,-0.013499,-0.015151,-0.00071376,3.6477e-05,0.00095496,0,0,0,0.024831,0.00072592,8.7589e-05,0.012372,0.0085481,0.024431,7.48e-07,0.35,0.55,0.95
0.01924,-0.00078724,-0.0067302,0.025037,0.00040988,3.7325e-05,-9.1076e-05,1.731e-05,0.00027743,0.049805,-0.014225,-0.015193,-0.00047359,9.0012e-05,0.0014426,0,0,0,0.025041,0.00041166,3.1738e-05,0.012504,0.0084947,0.024821,7.8537e-07,0.4,0.55,0.95
0.021746,-0.00083708,-0.0067672,0.025264,0.00021624,-1.599e-05,-5.4046e-05,3.0076e-05,0.00031808,0.050407,-0.014716,-0.01532,-0.00028104,0.00015639,0.001654,0,0,0,0.025268,0.00022157,-2.5886e-05,0.012647,0.0084879,0.025171,8.1922e-07,0.45,0.55,0.95
0.024281,-0.00087735,-0.0067637,0.025479,0.000105,-7.1108e-05,-2.3985e-05,4.3398e-05,0.00030942,0.050937,-0.015035,-0.015492,-0.00012472,0.00022567,0.001609,0,0,0,0.025483,0.00011651,-8.6921e-05,0.012785,0.0085042,0.025469,8.4854e-07,0.5,0.55,0.95
0.02684,-0.00090886,-0.0067461,0.025657,4.1445e-05,-0.00011953,1.2405e-06,5.4232e-05,0.00025626,0.051361,-0.01524,-0.015658,6.4507e-06,0.00028201,0.0013326,0,0,0,0.02566,6.001e-05,-0.00014117,0.012901,0.0085264,0.025702,8.7186e-07,0.55,0.55,0.95
0.029417,-0.0009323,-0.0067358,0.025779,-2.0643e-06,-0.00014823,2.2628e-05,5.9336e-05,0.00017017,0.051648,-0.015383,-0.015763,0.00011766,0.00030855,0.0008849,0,0,0,0.025781,2.2578e-05,-0.00017443,0.012977,0.0085429,0.025857,8.8773e-07,0.6,0.55,0.95
0.032005,-0.00094843,-0.0067466,0.025834,-4.4892e-05,-0.00014759,3.9756e-05,5.6581e-05,7.0156e-05,0.051783,-0.015501,-0.015768,0.00020673,0.00029422,0.00036481,0,0,0,0.025834,-1.2573e-05,-0.00018045,0.013007,0.0085471,0.025931,8.9541e-07,0.65,0.55,0.95
0.034596,-0.00095829,-0.0067837,0.025823,-9.7862e-05,-0.0001178,5.1344e-05,4.5951e-05,-2.1897e-05,0.051776,-0.015619,-0.015671,0.00026699,0.00023894,-0.00011386,0,0,0,0.025824,-4.159e-05,-0.00017437,0.012999,0.0085359,0.025932,8.9554e-07,0.7,0.55,0.95
0.037183,-0.0009632,-0.0068436,0.025761,-0.00016372,-6.9122e-05,5.6232e-05,2.9594e-05,-8.8198e-05,0.051662,-0.015743,-0.015497,0.00029241,0.00015389,-0.00045863,0,0,0,0.025762,-4.3528e-05,-0.00018987,0.012976,0.0085095,0.025879,8.9006e-07,0.75,0.55,0.95
0.039762,-0.00096469,-0.0069167,0.025669,-0.00023835,-1.6311e-05,5.415e-05,1.0918e-05,-0.00012017,0.051492,-0.015869,-0.015291,0.00028158,5.6772e-05,-0.0006249,0,0,0,0.02567,-1.2761e-05,-0.00024268,0.012956,0.0084716,0.025799,8.8167e-07,0.8,0.55,0.95
0.042332,-0.00096421,-0.0069905,0.025571,-0.00031282,2.8436e-05,4.59e-05,-6.6462e-06,-0.00011902,0.051313,-0.015985,-0.015098,0.00023868,-3.456e-05,-0.00061891,0,0,0,0.025572,2.8696e-05,-0.00031382,0.012943,0.008429,0.025716,8.7296e-07,0.85,0.55,0.95
0.044893,-0.00096301,-0.0070529,0.025487,-0.00037633,5.9293e-05,3.3007e-05,-2.0527e-05,-9.2366e-05,0.051165,-0.016081,-0.014948,0.00017164,-0.00010674,-0.0004803,0,0,0,0.025488,6.0806e-05,-0.0003783,0.012933,0.00839,0.025649,8.6581e-07,0.9,0.55,0.95
0.047448,-0.00096195,-0.0070943,0.025431,-0.00041897,7.6188e-05,1.7619e-05,-2.9258e-05,-6.4209e-05,0.051069,-0.016143,-0.014855,9.1619e-05,-0.00015214,-0.00033389,0,0,0,0.025432,7.9031e-05,-0.00042203,0.012927,0.0083629,0.025607,8.6127e-07,0.95,0.55,0.95
0.048725,-0.00096154,-0.0071088,0.025412,-0.00043398,8.1412e-05,9.6202e-06,-3.2218e-05,-5.4546e-05,0.051036,-0.016164,-0.014824,5.0025e-05,-0.00016753,-0.00028364,0,0,0,0.025412,8.4751e-05,-0.00043745,0.012925,0.0083531,0.025592,8.5974e-07,1,0.55,0.95
0.001176,-0.00012871,-0.0010463,0.029449,0.010682,0.0084276,-0.0009772,5.8834e-07,-0.0063652,0.047433,-0.0013625,-0.0072233,-0.0050814,3.0594e-06,-0.033099,0,0,0,0.03149,0.010661,0.0064077,0.012541,0.016186,0.023276,6.244e-07,0,0.6,0.95
0.0023716,-0.00025598,-0.0019655,0.028126,0.0087357,0.0054889,-0.00095286,3.3794e-06,-0.0049713,0.047718,-0.0026978,-0.011139,-0.0049549,1.7573e-05,-0.025851,0,0,0,0.029468,0.0087046,0.0041782,0.012645,0.014117,0.023379,6.0127e-07,0.05,0.6,0.95
0.0047718,-0.00050516,-0.00356,0.026313,0.0058336,0.0019378,-0.00088109,1.1309e-05,-0.0027214,0.047964,-0.0052834,-0.015412,-0.0045817,5.8808e-05,-0.014151,0,0,0,0.026742,0.0057949,0.0015474,0.012597,0.011362,0.023377,5.8555e-07,0.1,0.6,0.95
0.007168,-0.00073897,-0.0047083,0.025426,0.0041005,0.00098314,-0.00076702,2.1179e-05,-0.0013928,0.047802,-0.0076444,-0.01575,-0.0039885,0.00011013,-0.0072424,0,0,0,0.02557,0.0040698,0.00086942,0.01235,0.01017,0.023275,6.0627e-07,0.15,0.6,0.95
0.009552,-0.00094934,-0.0055062,0.024868,0.0027641,0.00049431,-0.0006239,2.9308e-05,-0.00065392,0.047781,-0.0096892,-0.015591,-0.0032443,0.0001524,-0.0034004,0,0,0,0.024918,0.0027444,0.00046452,0.012227,0.0093756,0.023403,6.3785e-07,0.2,0.6,0.95
0.011946,-0.0011311,-0.0060469,0.02468,0.0018025,0.0002746,-0.00047098,3.4613e-05,-0.00023052,0.048113,-0.011368,-0.01534,-0.0024491,0.00017999,-0.0011987,0,0,0,0.024697,0.0017927,0.00026708,0.012215,0.008919,0.023708,6.7575e-07,0.25,0.6,0.95
0.014363,-0.0012823,-0.006397,0.0247,0.0011222,0.00016204,-0.00032586,3.7226e-05,2.4385e-05,0.04863,-0.012673,-0.015169,-0.0016945,0.00019357,0.0001268,0,0,0,0.024707,0.0011198,0.00015791,0.012274,0.0086615,0.024085,7.1457e-07,0.3,0.6,0.95
0.016809,-0.0014042,-0.0066054,0.024836,0.00066216,9.517e-05,-0.00020063,3.7927e-05,0.00018317,0.049218,-0.013634,-0.015109,-0.0010433,0.00019722,0.00095249,0,0,0,0.02484,0.00066468,8.8827e-05,0.012376,0.0085312,0.024469,7.518e-07,0.35,0.6,0.95
0.019285,-0.0014998,-0.0067105,0.02503,0.00036973,4.1065e-05,-0.00010098,3.7647e-05,0.00027759,0.049814,-0.014303,-0.015158,-0.00052507,0.00019576,0.0014435,0,0,0,0.025034,0.00037527,3.153e-05,0.012501,0.0084803,0.024833,7.8654e-07,0.4,0.6,0.95
0.021791,-0.0015731,-0.0067455,0.025245,0.00019814,-1.4906e-05,-2.7335e-05,3.7058e-05,0.00031893,0.050381,-0.014742,-0.015296,-0.00014214,0.0001927,0.0016584,0,0,0,0.02525,0.00020516,-2.6504e-05,0.012638,0.0084762,0.025162,8.1827e-07,0.45,0.6,0.95
0.024323,-0.0016283,-0.0067404,0.025453,0.00010547,-7.3891e-05,2.3125e-05,3.632e-05,0.00031029,0.050886,-0.015016,-0.015483,0.00012025,0.00018887,0.0016135,0,0,0,0.025457,0.00011297,-8.5747e-05,0.012771,0.0084948,0.025444,8.4605e-07,0.5,0.6,0.95
0.026879,-0.0016693,-0.006722,0.025626,5.5888e-05,-0.00012627,5.4648e-05,3.5077e-05,0.00025602,0.051295,-0.015188,-0.015662,0.00028417,0.0001824,0.0013313,0,0,0,0.02563,6.3638e-05,-0.00013721,0.012883,0.0085187,0.025667,8.6836e-07,0.55,0.6,0.95
0.029453,-0.0016995,-0.006712,0.025745,2.132e-05,-0.00015755,7.1557e-05,3.2723e-05,0.00016773,0.051573,-0.01531,-0.015775,0.0003721,0.00017016,0.00087219,0,0,0,0.025747,2.9641e-05,-0.00016758,0.012957,0.0085364,0.025817,8.8359e-07,0.6,0.6,0.95
0.032036,-0.0017214,-0.0067244,0.025798,-1.7475e-05,-0.00015709,7.7566e-05,2.882e-05,6.5081e-05,0.051702,-0.01542,-0.015783,0.00040334,0.00014986,0.00033842,0,0,0,0.025799,-6.8987e-06,-0.00016835,0.012984,0.0085413,0.025887,8.9087e-07,0.65,0.6,0.95
0.034623,-0.0017373,-0.0067644,0.025786,-7.0702e-05,-0.00012504,7.5626e-05,2.3447e-05,-2.9116e-05,0.05169,-0.015538,-0.01568,0.00039326,0.00012193,-0.0001514,0,0,0,0.025787,-4.1845e-05,-0.00015434,0.012971,0.0085302,0.025885,8.9074e-07,0.7,0.6,0.95
0.037205,-0.0017487,-0.006828,0.025723,-0.00014008,-7.2624e-05,6.8082e-05,1.7234e-05,-9.6361e-05,0.051573,-0.01567,-0.015495,0.00035403,8.9618e-05,-0.00050108,0,0,0,0.025724,-4.7032e-05,-0.00016634,0.012945,0.0085034,0.025831,8.851e-07,0.75,0.6,0.95
0.03978,-0.001757,-0.0069052,0.025629,-0.00022015,-1.5906e-05,5.6854e-05,1.1085e-05,-0.00012791,0.051401,-0.015808,-0.015277,0.00029564,5.7641e-05,-0.00066513,0,0,0,0.02563,-1.3218e-05,-0.00022372,0.012927,0.0084645,0.02575,8.7666e-07,0.8,0.6,0.95
0.042346,-0.0017628,-0.0069828,0.02553,-0.00030061,3.1936e-05,4.3507e-05,5.8198e-06,-0.00012528,0.051221,-0.015938,-0.015074,0.00022624,3.0263e-05,-0.00065145,0,0,0,0.025531,3.1841e-05,-0.00030131,0.012916,0.0084204,0.025667,8.6798e-07,0.85,0.6,0.95
0.044902,-0.0017667,-0.0070482,0.025445,-0.00036934,6.4739e-05,2.9194e-05,1.9416e-06,-9.6613e-05,0.051073,-0.016044,-0.014916,0.00015181,1.0096e-05,-0.00050239,0,0,0,0.025445,6.5119e-05,-0.00037022,0.012908,0.0083801,0.025601,8.6093e-07,0.9,0.6,0.95
0.047453,-0.001769,-0.0070916,0.025389,-0.00041551,8.2594e-05,1.388e-05,-3.7544e-07,-6.6975e-05,0.050977,-0.016114,-0.014819,7.2178e-05,-1.9523e-06,-0.00034827,0,0,0,0.025389,8.352e-05,-0.00041666,0.012903,0.0083519,0.025559,8.5648e-07,0.95,0.6,0.95
0.048727,-0.0017698,-0.0071067,0.025369,-0.00043175,8.8093e-05,5.8494e-06,-1.139e-06,-5.6905e-05,0.050944,-0.016138,-0.014786,3.0417e-05,-5.923e-06,-0.00029591,0,0,0,0.025369,8.9217e-05,-0.00043302,0.012901,0.0083418,0.025545,8.5498e-07,1,0.6,0.95
0.0011783,-0.00019824,-0.0010438,0.029507,0.010667,0.0084401,-0.0015027,5.4949e-06,-0.0063475,0.04755,-0.0014347,-0.007224,-0.0078139,2.8574e-05,-0.033007,0,0,0,0.031594,0.010621,0.0063991,0.012597,0.016205,0.023396,6.355e-07,0,0.65,0.95
0.0023775,-0.00039365,-0.0019599,0.028188,0.008684,0.0054934,-0.0014605,1.4118e-05,-0.0049546,0.04787,-0.0028412,-0.011137,-0.0075945,7.3415e-05,-0.025764,0,0,0,0.029577,0.0086159,0.0041727,0.012702,0.014122,0.02352,6.1591e-07,0.05,0.65,0.95
0.004787,-0.00077463,-0.0035477,0.026388,0.0057185,0.0019332,-0.0013371,3.4044e-05,-0.0027064,0.048186,-0.005556,-0.015398,-0.006953,0.00017703,-0.014073,0,0,0,0.026861,0.0056351,0.0015446,0.012658,0.011347,0.023554,6.0508e-07,0.1,0.65,0.95
0.0071961,-0.0011283,-0.0046892,0.025512,0.003945,0.00097757,-0.0011445,5.4625e-05,-0.0013804,0.04807,-0.0080034,-0.015719,-0.0059516,0.00028405,-0.0071779,0,0,0,0.025688,0.0038813,0.0008653,0.012411,0.010145,0.023469,6.2681e-07,0.15,0.65,0.95
0.009594,-0.0014415,-0.0054814,0.024949,0.0025954,0.00048993,-0.00090841,6.9641e-05,-0.00064557,0.048047,-0.010073,-0.015547,-0.0047237,0.00036213,-0.003357,0,0,0,0.025018,0.0025573,0.00045909,0.01228,0.0093449,0.023587,6.5652e-07,0.2,0.65,0.95
0.012001,-0.0017067,-0.0060181,0.024743,0.0016453,0.00027238,-0.00066221,7.7185e-05,-0.0002266,0.048336,-0.011719,-0.015288,-0.0034435,0.00040136,-0.0011783,0,0,0,0.02477,0.00163,0.00026062,0.012255,0.0088869,0.023858,6.9065e-07,0.25,0.65,0.95
0.014428,-0.001922,-0.0063662,0.024738,0.00099213,0.00016186,-0.00043435,7.7135e-05,2.4285e-05,0.048783,-0.012955,-0.015114,-0.0022586,0.0004011,0.00012628,0,0,0,0.024748,0.00099343,0.00015016,0.012299,0.0086305,0.024189,7.2482e-07,0.3,0.65,0.95
0.016879,-0.0020903,-0.0065741,0.024845,0.00056526,9.6357e-05,-0.00024265,7.0378e-05,0.00017989,0.049293,-0.013834,-0.015053,-0.0012618,0.00036597,0.00093541,0,0,0,0.02485,0.00057679,8.0013e-05,0.012385,0.0085022,0.024526,7.5737e-07,0.35,0.65,0.95
0.019357,-0.0022176,-0.0066802,0.025013,0.00030496,4.2923e-05,-9.4537e-05,5.843e-05,0.00027215,0.049817,-0.014424,-0.015105,-0.00049159,0.00030384,0.0014152,0,0,0,0.025017,0.00031992,2.3973e-05,0.012496,0.0084536,0.024846,7.8794e-07,0.4,0.65,0.95
0.021861,-0.0023113,-0.0067171,0.025207,0.00016076,-1.2834e-05,1.0125e-05,4.3278e-05,0.00031238,0.050326,-0.014795,-0.015247,5.2651e-05,0.00022505,0.0016244,0,0,0,0.025212,0.00017243,-2.8967e-05,0.01262,0.0084518,0.025141,8.1629e-07,0.45,0.65,0.95
0.024389,-0.002379,-0.0067145,0.0254,8.9508e-05,-7.1828e-05,7.5911e-05,2.7294e-05,0.00030358,0.05079,-0.015018,-0.015437,0.00039474,0.00014193,0.0015786,0,0,0,0.025405,9.5266e-05,-8.201e-05,0.012743,0.0084726,0.025399,8.4154e-07,0.5,0.65,0.95
0.02694,-0.0024277,-0.0066987,0.025565,5.5581e-05,-0.00012432,0.00010966,1.301e-05,0.0002499,0.051171,-0.015153,-0.015621,0.00057024,6.765e-05,0.0012995,0,0,0,0.025568,5.803e-05,-0.00013019,0.012849,0.0084987,0.025605,8.6211e-07,0.55,0.65,0.95
0.029507,-0.0024633,-0.0066913,0.02568,3.1756e-05,-0.0001558,0.00011914,2.6672e-06,0.00016275,0.051434,-0.015251,-0.015738,0.00061952,1.3869e-05,0.0008463,0,0,0,0.025682,3.397e-05,-0.00016,0.012921,0.0085185,0.025745,8.7628e-07,0.6,0.65,0.95
0.032083,-0.0024904,-0.0067061,0.025732,-1.3971e-07,-0.00015564,0.00011214,-2.3354e-06,6.1517e-05,0.051557,-0.015346,-0.01575,0.00058313,-1.2144e-05,0.00031989,0,0,0,0.025733,2.9913e-06,-0.00015969,0.012946,0.0085253,0.025811,8.8307e-07,0.65,0.65,0.95
0.034662,-0.0025121,-0.0067482,0.025721,-4.9273e-05,-0.000124,9.5733e-05,-1.8473e-06,-3.1248e-05,0.051546,-0.015457,-0.015651,0.00049781,-9.6061e-06,-0.00016249,0,0,0,0.025721,-3.3546e-05,-0.00014031,0.012931,0.0085159,0.025809,8.8286e-07,0.7,0.65,0.95
0.037238,-0.0025302,-0.0068135,0.02566,-0.00011646,-7.2086e-05,7.5609e-05,3.0579e-06,-9.727e-05,0.051432,-0.015585,-0.01547,0.00039317,1.5901e-05,-0.0005058,0,0,0,0.02566,-4.4369e-05,-0.00014491,0.012903,0.0084904,0.025755,8.7741e-07,0.75,0.65,0.95
0.039805,-0.0025455,-0.006892,0.025569,-0.00019553,-1.5894e-05,5.5679e-05,1.0532e-05,-0.00012795,0.051265,-0.015723,-0.015256,0.00028953,5.4766e-05,-0.00066533,0,0,0,0.02557,-1.3022e-05,-0.00019928,0.012885,0.0084525,0.025677,8.6929e-07,0.8,0.65,0.95
0.042364,-0.002558,-0.0069706,0.025472,-0.00027564,3.1468e-05,3.8046e-05,1.8556e-05,-0.00012485,0.051091,-0.015853,-0.015055,0.00019784,9.6489e-05,-0.00064924,0,0,0,0.025473,3.2524e-05,-0.00027747,0.012875,0.0084093,0.025597,8.6095e-07,0.85,0.65,0.95
0.044915,-0.0025675,-0.0070367,0.025389,-0.00034432,6.3894e-05,2.33e-05,2.5425e-05,-9.6097e-05,0.050947,-0.015961,-0.014899,0.00012116,0.00013221,-0.0004997,0,0,0,0.02539,6.6178e-05,-0.00034708,0.012868,0.0083696,0.025533,8.5417e-07,0.9,0.65,0.95
0.047459,-0.0025733,-0.0070805,0.025334,-0.00039052,8.1511e-05,9.0262e-06,2.9971e-05,-6.6767e-05,0.050854,-0.016031,-0.014803,4.6936e-05,0.00015585,-0.00034719,0,0,0,0.025335,8.4736e-05,-0.00039397,0.012864,0.0083418,0.025493,8.4991e-07,0.95,0.65,0.95
0.04873,-0.0025753,-0.0070957,0.025315,-0.00040679,8.693e-05,1.4108e-06,3.1552e-05,-5.6966e-05,0.050823,-0.016055,-0.014771,7.3361e-06,0.00016407,-0.00029622,0,0,0,0.025316,9.0481e-05,-0.00041048,0.012863,0.0083318,0.025479,8.4847e-07,1,0.65,0.95
0.0011819,-0.00027218,-0.0010393,0.029599,0.010643,0.0084588,-0.0020581,1.0391e-05,-0.0063163,0.047736,-0.0015485,-0.0072274,-0.010702,5.4035e-05,-0.032845,0,0,0,0.031752,0.01056,0.0063881,0.012682,0.016233,0.023578,6.5256e-07,0,0.7,0.95
0.0023868,-0.0005401,-0.0019502,0.028286,0.0086022,0.0054986,-0.0019918,2.5104e-05,-0.004925,0.048111,-0.0030663,-0.011136,-0.010357,0.00013054,-0.02561,0,0,0,0.029741,0.0084807,0.0041643,0.012789,0.014129,0.023734,6.3838e-07,0.05,0.7,0.95
0.0048111,-0.0010608,-0.0035272,0.026503,0.0055391,0.0019227,-0.0018001,5.7748e-05,-0.0026799,0.048529,-0.0059773,-0.01538,-0.0093606,0.00030029,-0.013936,0,0,0,0.027034,0.0053933,0.0015375,0.012748,0.011322,0.023821,6.3466e-07,0.1,0.7,0.95
0.0072397,-0.0015393,-0.0046581,0.025637,0.0037104,0.00096536,-0.0015077,8.9685e-05,-0.0013585,0.048469,-0.0085408,-0.015678,-0.0078402,0.00046636,-0.0070644,0,0,0,0.025854,0.0036043,0.00085513,0.012499,0.010104,0.023753,6.5698e-07,0.15,0.7,0.95
0.009658,-0.0019566,-0.0054421,0.025062,0.0023527,0.00048,-0.0011607,0.00011154,-0.00063079,0.048425,-0.01062,-0.015489,-0.0060358,0.00058002,-0.0032801,0,0,0,0.025154,0.0022955,0.00044583,0.012354,0.0092984,0.023843,6.8263e-07,0.2,0.7,0.95
0.012082,-0.002303,-0.0059739,0.024824,0.0014308,0.00026577,-0.00081297,0.00012068,-0.00021953,0.04863,-0.012192,-0.015221,-0.0042274,0.00062755,-0.0011415,0,0,0,0.024861,0.0014157,0.00024391,0.012308,0.0088401,0.024056,7.1019e-07,0.25,0.7,0.95
0.014521,-0.0025779,-0.0063206,0.024776,0.00082324,0.00015788,-0.00050392,0.00011717,2.4053e-05,0.048964,-0.013314,-0.015044,-0.0026204,0.0006093,0.00012507,0,0,0,0.02479,0.00083825,0.00012928,0.01233,0.0085857,0.024315,7.3712e-07,0.3,0.7,0.95
0.016979,-0.0027877,-0.0065303,0.024841,0.00044377,9.4241e-05,-0.00025373,0.00010243,0.00017341,0.049359,-0.014074,-0.014982,-0.0013194,0.00053266,0.00090171,0,0,0,0.024846,0.00047599,5.6757e-05,0.012395,0.0084597,0.024583,7.6298e-07,0.35,0.7,0.95
0.019457,-0.0029422,-0.0066406,0.024973,0.00022409,4.2814e-05,-6.7474e-05,7.8794e-05,0.00026095,0.049786,-0.014561,-0.015033,-0.00035087,0.00040973,0.0013569,0,0,0,0.024977,0.00025824,4.9162e-06,0.012486,0.0084134,0.024847,7.8801e-07,0.4,0.7,0.95
0.021957,-0.0030526,-0.0066831,0.025141,0.00011097,-1.0019e-05,5.8515e-05,4.9569e-05,0.00029846,0.050221,-0.014857,-0.015171,0.00030428,0.00025776,0.001552,0,0,0,0.025145,0.00013272,-3.6086e-05,0.012591,0.0084139,0.025097,8.1208e-07,0.45,0.7,0.95
0.024479,-0.0031301,-0.0066868,0.025316,6.1868e-05,-6.5202e-05,0.0001321,1.9166e-05,0.00028941,0.050633,-0.015026,-0.015357,0.00068692,9.9661e-05,0.0015049,0,0,0,0.02532,6.9162e-05,-7.7045e-05,0.012699,0.0084374,0.025324,8.3423e-07,0.5,0.7,0.95
0.027021,-0.0031847,-0.006677,0.02547,4.3261e-05,-0.00011394,0.00016318,-7.3043e-06,0.00023807,0.050983,-0.015127,-0.015536,0.00084851,-3.7982e-05,0.0012379,0,0,0,0.025474,4.5997e-05,-0.00012041,0.012797,0.0084665,0.025512,8.5275e-07,0.55,0.7,0.95
0.029577,-0.0032245,-0.0066744,0.025581,3.0349e-05,-0.00014316,0.00016273,-2.508e-05,0.00015533,0.05123,-0.015202,-0.015653,0.00084618,-0.00013042,0.00080773,0,0,0,0.025584,3.5786e-05,-0.00015095,0.012867,0.0084895,0.025642,8.6578e-07,0.6,0.7,0.95
0.032144,-0.003256,-0.0066923,0.025635,7.0367e-06,-0.00014338,0.00014205,-3.1172e-05,5.9453e-05,0.051351,-0.015281,-0.015672,0.00073868,-0.00016209,0.00030915,0,0,0,0.025636,1.5288e-05,-0.00015282,0.012894,0.0084994,0.025705,8.7221e-07,0.65,0.7,0.95
0.034712,-0.0032829,-0.0067355,0.025629,-3.4419e-05,-0.00011479,0.00011165,-2.5405e-05,-2.8436e-05,0.051347,-0.015377,-0.015586,0.0005806,-0.00013211,-0.00014787,0,0,0,0.025629,-1.7842e-05,-0.00013207,0.012881,0.0084931,0.025704,8.7222e-07,0.7,0.7,0.95
0.037278,-0.0033073,-0.0068006,0.025574,-9.4143e-05,-6.761e-05,7.994e-05,-1.041e-05,-9.118e-05,0.051245,-0.015492,-0.015423,0.00041569,-5.413e-05,-0.00047413,0,0,0,0.025575,-3.4673e-05,-0.00012779,0.012851,0.0084708,0.025656,8.6734e-07,0.75,0.7,0.95
0.039837,-0.0033292,-0.0068777,0.02549,-0.00016593,-1.6384e-05,5.2365e-05,9.461e-06,-0.00012061,0.05109,-0.015616,-0.015227,0.0002723,4.9197e-05,-0.00062719,0,0,0,0.025491,-1.1466e-05,-0.00017164,0.012831,0.008436,0.025583,8.5988e-07,0.8,0.7,0.95
0.042387,-0.0033481,-0.0069546,0.0254,-0.00023937,2.6905e-05,3.1323e-05,2.9602e-05,-0.00011807,0.050927,-0.015735,-0.015043,0.00016288,0.00015393,-0.00061397,0,0,0,0.025401,3.0666e-05,-0.00024382,0.012822,0.0083958,0.025508,8.5213e-07,0.85,0.7,0.95
0.04493,-0.0033628,-0.0070191,0.025322,-0.00030267,5.6611e-05,1.6761e-05,4.6289e-05,-9.1079e-05,0.050791,-0.015832,-0.014898,8.7157e-05,0.0002407,-0.00047361,0,0,0,0.025322,6.3926e-05,-0.00031041,0.012816,0.0083586,0.025448,8.4578e-07,0.9,0.7,0.95
0.047466,-0.0033721,-0.0070618,0.02527,-0.00034537,7.2779e-05,3.9602e-06,5.7109e-05,-6.3759e-05,0.050703,-0.015896,-0.014809,2.0593e-05,0.00029697,-0.00033155,0,0,0,0.02527,8.2628e-05,-0.00035542,0.012813,0.0083324,0.025409,8.4175e-07,0.95,0.7,0.95
0.048734,-0.0033753,-0.0070767,0.025252,-0.00036042,7.7756e-05,-3.0478e-06,6.0836e-05,-5.4865e-05,0.050673,-0.015919,-0.014779,-1.5849e-05,0.00031635,-0.0002853,0,0,0,0.025252,8.8489e-05,-0.00037129,0.012812,0.008323,0.025396,8.4039e-07,1,0.7,0.95
0.0011883,-0.00035309,-0.0010333,0.029755,0.010607,0.0084912,-0.0026587,1.4852e-05,-0.0062733,0.04805,-0.0017334,-0.0072347,-0.013825,7.7233e-05,-0.032621,0,0,0,0.032001,0.010476,0.0063769,0.012812,0.016284,0.023857,6.7924e-07,0,0.75,0.95
0.0024025,-0.00070028,-0.0019371,0.028445,0.0084724,0.0055071,-0.0025551,3.5772e-05,-0.0048837,0.048502,-0.0034263,-0.011136,-0.013287,0.00018602,-0.025395,0,0,0,0.02999,0.0082816,0.0041526,0.012919,0.014141,0.024058,6.7279e-07,0.05,0.75,0.95
0.0048502,-0.0013724,-0.0034992,0.026676,0.0052599,0.0019039,-0.0022629,8.173e-05,-0.0026424,0.049054,-0.0066282,-0.015354,-0.011767,0.000425,-0.01374,0,0,0,0.027279,0.0050378,0.0015231,0.012878,0.01128,0.024211,6.7831e-07,0.1,0.75,0.95
0.0073079,-0.0019823,-0.004616,0.025813,0.003366,0.00094534,-0.0018343,0.00012536,-0.0013279,0.049039,-0.0093228,-0.015617,-0.0095386,0.00065186,-0.0069052,0,0,0,0.026072,0.0032152,0.00083671,0.012618,0.010041,0.024144,6.9892e-07,0.15,0.75,0.95
0.0097541,-0.0025035,-0.0053896,0.025204,0.002023,0.00046553,-0.0013521,0.00015317,-0.00061083,0.048914,-0.011356,-0.015405,-0.007031,0.0007965,-0.0031763,0,0,0,0.025315,0.0019546,0.00042291,0.012446,0.0092307,0.024168,7.159e-07,0.2,0.75,0.95
0.012199,-0.0029259,-0.0059162,0.024907,0.0011626,0.00025679,-0.00089801,0.00016237,-0.00021081,0.048962,-0.012773,-0.015128,-0.0046696,0.00084432,-0.0010962,0,0,0,0.02495,0.0011618,0.00021413,0.012368,0.0087753,0.024278,7.3227e-07,0.25,0.75,0.95
0.01465,-0.0032533,-0.0062626,0.024794,0.00062761,0.00015169,-0.00051827,0.00015419,2.2561e-05,0.049121,-0.013712,-0.01495,-0.002695,0.00080177,0.00011732,0,0,0,0.024809,0.00067312,9.155e-05,0.012359,0.0085245,0.024433,7.4858e-07,0.3,0.75,0.95
0.017111,-0.0034976,-0.0064762,0.024803,0.00031152,8.9592e-05,-0.00022678,0.00013128,0.00016335,0.049365,-0.014312,-0.014889,-0.0011793,0.00068267,0.00084942,0,0,0,0.024808,0.00038008,1.6179e-05,0.012396,0.0084013,0.024612,7.6581e-07,0.35,0.75,0.95
0.019587,-0.0036737,-0.0065934,0.024893,0.00013952,4.0758e-05,-1.9657e-05,9.7073e-05,0.00024443,0.049677,-0.014681,-0.014938,-0.00010222,0.00050478,0.0012711,0,0,0,0.024896,0.00020421,-2.726e-05,0.012462,0.0083577,0.024809,7.8444e-07,0.4,0.75,0.95
0.022079,-0.0037969,-0.0066449,0.025033,5.8788e-05,-7.2194e-06,0.00011374,5.6039e-05,0.0002783,0.050035,-0.014898,-0.015069,0.00059144,0.0002914,0.0014472,0,0,0,0.025037,9.6894e-05,-4.9556e-05,0.012543,0.0083614,0.025014,8.0403e-07,0.45,0.75,0.95
0.02459,-0.0038816,-0.006658,0.025192,3.0203e-05,-5.5663e-05,0.00018577,1.4076e-05,0.00026918,0.050399,-0.015021,-0.015244,0.00096599,7.3195e-05,0.0013998,0,0,0,0.025196,4.2566e-05,-7.2763e-05,0.012635,0.0083887,0.025212,8.232e-07,0.5,0.75,0.95
0.027119,-0.0039404,-0.0066568,0.02534,2.4562e-05,-9.7643e-05,0.00020929,-2.1918e-05,0.00022168,0.050723,-0.015096,-0.015414,0.0010883,-0.00011397,0.0011527,0,0,0,0.025344,3.1785e-05,-0.00010894,0.012726,0.0084222,0.025383,8.3993e-07,0.55,0.75,0.95
0.029662,-0.0039835,-0.0066606,0.025451,2.103e-05,-0.00012269,0.00019767,-4.5487e-05,0.00014597,0.050963,-0.015155,-0.015529,0.0010279,-0.00023653,0.00075906,0,0,0,0.025454,3.5473e-05,-0.00013982,0.012797,0.0084499,0.025507,8.522e-07,0.6,0.75,0.95
0.032215,-0.0040185,-0.0066821,0.02551,6.4704e-06,-0.00012322,0.00016453,-5.2607e-05,5.8502e-05,0.051091,-0.015219,-0.015557,0.00085555,-0.00027356,0.00030421,0,0,0,0.025512,2.6297e-05,-0.00014448,0.012828,0.0084645,0.025571,8.5868e-07,0.65,0.75,0.95
0.034772,-0.0040498,-0.006726,0.025514,-2.5154e-05,-9.9581e-05,0.00012251,-4.3149e-05,-2.1867e-05,0.051102,-0.015299,-0.015492,0.00063707,-0.00022437,-0.00011371,0,0,0,0.025514,-6.8366e-07,-0.00012483,0.01282,0.008463,0.025577,8.5935e-07,0.7,0.75,0.95
0.037326,-0.0040794,-0.0067892,0.02547,-7.3521e-05,-6.0273e-05,8.1709e-05,-2.0876e-05,-7.9765e-05,0.05102,-0.015393,-0.015358,0.00042488,-0.00010856,-0.00041478,0,0,0,0.025471,-2.1835e-05,-0.0001126,0.012792,0.0084454,0.025538,8.5542e-07,0.75,0.75,0.95
0.039874,-0.0041072,-0.006863,0.025397,-0.00013305,-1.7393e-05,4.8431e-05,8.0465e-06,-0.00010767,0.050884,-0.015494,-0.015193,0.00025184,4.1842e-05,-0.00055991,0,0,0,0.025398,-9.3111e-06,-0.00014178,0.01277,0.0084155,0.025474,8.4892e-07,0.8,0.75,0.95
0.042414,-0.0041315,-0.0069361,0.025316,-0.00019466,1.9009e-05,2.5094e-05,3.7119e-05,-0.00010647,0.050736,-0.01559,-0.015035,0.00013049,0.00019302,-0.00055365,0,0,0,0.025316,2.6571e-05,-0.00020279,0.012759,0.00838,0.025405,8.4193e-07,0.85,0.75,0.95
0.044947,-0.0041507,-0.0069974,0.025244,-0.00024812,4.4102e-05,1.1039e-05,6.1097e-05,-8.2664e-05,0.05061,-0.015669,-0.014909,5.7402e-05,0.0003177,-0.00042985,0,0,0,0.025244,5.8616e-05,-0.00026298,0.012754,0.0083467,0.025348,8.3606e-07,0.9,0.75,0.95
0.047475,-0.004163,-0.0070379,0.025196,-0.00028431,5.7813e-05,-3.8497e-07,7.6602e-05,-5.8651e-05,0.050528,-0.015721,-0.014831,-2.0019e-06,0.00039833,-0.00030498,0,0,0,0.025196,7.7242e-05,-0.0003039,0.01275,0.0083231,0.025312,8.3228e-07,0.95,0.75,0.95
0.048738,-0.0041672,-0.007052,0.025179,-0.00029709,6.2043e-05,-6.8645e-06,8.1935e-05,-5.115e-05,0.050499,-0.015739,-0.014805,-3.5695e-05,0.00042606,-0.00026598,0,0,0,0.025179,8.3192e-05,-0.00031835,0.012749,0.0083147,0.025299,8.3098e-07,1,0.75,0.95
0.0012,-0.00044552,-0.0010263,0.030034,0.010547,0.008551,-0.0033269,1.8384e-05,-0.0062219,0.04861,-0.0020576,-0.0072467,-0.0173,9.5596e-05,-0.032354,0,0,0,0.032407,0.010357,0.0063686,0.013019,0.016377,0.024304,7.2304e-07,0,0.8,0.95
0.0024305,-0.00088274,-0.0019216,0.028715,0.0082531,0.0055227,-0.0031576,4.5678e-05,-0.004833,0.049165,-0.0040365,-0.011135,-0.016419,0.00023752,-0.025132,0,0,0,0.030374,0.0079826,0.0041341,0.01312,0.014164,0.024562,7.2723e-07,0.05,0.8,0.95
0.0049165,-0.0017236,-0.0034654,0.026938,0.0048122,0.0018715,-0.0027001,0.00010558,-0.0025949,0.049865,-0.0076612,-0.015307,-0.01404,0.00054902,-0.013494,0,0,0,0.027617,0.0045111,0.0014935,0.013062,0.011207,0.024776,7.4278e-07,0.1,0.8,0.95
0.007417,-0.0024716,-0.004565,0.026046,0.0028683,0.0009168,-0.0020759,0.00016046,-0.0012904,0.049821,-0.010441,-0.015515,-0.010794,0.00083442,-0.0067101,0,0,0,0.026339,0.0026861,0.00080608,0.012766,0.0099436,0.024656,7.5467e-07,0.15,0.8,0.95
0.0098985,-0.0030922,-0.0053271,0.025357,0.0016032,0.00045059,-0.0014344,0.00019176,-0.00058852,0.049481,-0.012278,-0.015275,-0.0074588,0.00099714,-0.0030603,0,0,0,0.025476,0.0015468,0.00038761,0.012544,0.0091368,0.024533,7.5374e-07,0.2,0.8,0.95
0.012365,-0.0035802,-0.0058488,0.024956,0.00085941,0.00024893,-0.00088601,0.00019807,-0.00020307,0.049247,-0.013404,-0.014991,-0.0046073,0.00103,-0.001056,0,0,0,0.024999,0.00089777,0.00016776,0.012416,0.0086881,0.024476,7.5203e-07,0.25,0.8,0.95
0.014823,-0.0039491,-0.0061964,0.024751,0.00042739,0.00014445,-0.00046443,0.00018344,1.8343e-05,0.049159,-0.014083,-0.014818,-0.0024151,0.00095387,9.5386e-05,0,0,0,0.024764,0.0005227,3.6423e-05,0.012364,0.008441,0.024488,7.5421e-07,0.3,0.8,0.95
0.017281,-0.0042189,-0.0064157,0.024695,0.00018757,8.2231e-05,-0.00016182,0.00015267,0.00014987,0.049228,-0.014491,-0.014765,-0.00084144,0.00079386,0.00077935,0,0,0,0.024699,0.00030266,-3.6566e-05,0.012368,0.0083216,0.024568,7.6178e-07,0.35,0.8,0.95
0.019746,-0.0044103,-0.006542,0.024747,6.5977e-05,3.5841e-05,4.1752e-05,0.00011031,0.00022431,0.049433,-0.014738,-0.014816,0.00021711,0.0005736,0.0011664,0,0,0,0.02475,0.00016441,-6.5561e-05,0.012408,0.0082829,0.024701,7.7432e-07,0.4,0.8,0.95
0.022224,-0.0045424,-0.0066044,0.024868,1.5264e-05,-6.1881e-06,0.00016572,6.1477e-05,0.00025463,0.049731,-0.014887,-0.014942,0.00086174,0.00031968,0.0013241,0,0,0,0.024872,7.0951e-05,-6.6113e-05,0.012469,0.0082924,0.02487,7.9033e-07,0.45,0.8,0.95
0.024719,-0.0046322,-0.0066287,0.025022,2.9553e-06,-4.613e-05,0.00022661,1.2632e-05,0.00024591,0.05007,-0.01498,-0.015107,0.0011784,6.5686e-05,0.0012787,0,0,0,0.025027,2.177e-05,-6.9809e-05,0.012548,0.0083262,0.025051,8.0761e-07,0.5,0.8,0.95
0.027231,-0.0046943,-0.0066374,0.025173,6.0979e-06,-7.9577e-05,0.00023903,-2.8696e-05,0.00020314,0.05039,-0.015044,-0.015267,0.001243,-0.00014922,0.0010563,0,0,0,0.025177,1.8919e-05,-9.6636e-05,0.012637,0.0083666,0.025217,8.2361e-07,0.55,0.8,0.95
0.029758,-0.0047401,-0.0066486,0.025294,8.9196e-06,-9.9228e-05,0.00021719,-5.5474e-05,0.00013573,0.050641,-0.015099,-0.01538,0.0011294,-0.00028847,0.00070582,0,0,0,0.025296,3.2713e-05,-0.00012589,0.012711,0.0084011,0.025344,8.3599e-07,0.6,0.8,0.95
0.032295,-0.0047779,-0.006674,0.025365,1.7649e-06,-9.9808e-05,0.00017521,-6.3369e-05,5.8066e-05,0.050789,-0.015156,-0.01542,0.00091109,-0.00032952,0.00030194,0,0,0,0.025367,3.252e-05,-0.00013212,0.012749,0.0084224,0.025417,8.4325e-07,0.65,0.8,0.95
0.034837,-0.0048128,-0.0067182,0.025383,-1.9618e-05,-8.183e-05,0.00012622,-5.2365e-05,-1.363e-05,0.050826,-0.01522,-0.015382,0.00065632,-0.0002723,-7.0875e-05,0,0,0,0.025384,1.218e-05,-0.00011442,0.012749,0.0084271,0.025435,8.4507e-07,0.7,0.8,0.95
0.037378,-0.0048465,-0.0067789,0.025354,-5.4723e-05,-5.1798e-05,8.0586e-05,-2.6775e-05,-6.6042e-05,0.050771,-0.01529,-0.015283,0.00041905,-0.00013923,-0.00034342,0,0,0,0.025354,-1.0736e-05,-9.6327e-05,0.012725,0.0084157,0.025408,8.4241e-07,0.75,0.8,0.95
0.039914,-0.0048786,-0.0068485,0.025294,-9.9107e-05,-1.8916e-05,4.4669e-05,6.3968e-06,-9.237e-05,0.050658,-0.015363,-0.015154,0.00023228,3.3263e-05,-0.00048032,0,0,0,0.025294,-7.9773e-06,-0.00011055,0.012702,0.0083918,0.025354,8.3701e-07,0.8,0.8,0.95
0.042444,-0.0049071,-0.006917,0.025222,-0.00014567,9.1106e-06,2.0615e-05,3.9745e-05,-9.2906e-05,0.050526,-0.01543,-0.015028,0.0001072,0.00020667,-0.00048311,0,0,0,0.025223,2.0664e-05,-0.00015766,0.01269,0.0083619,0.025292,8.3079e-07,0.85,0.8,0.95
0.044967,-0.0049297,-0.0069743,0.025158,-0.00018639,2.851e-05,7.2944e-06,6.7262e-05,-7.2917e-05,0.05041,-0.015484,-0.014926,3.7931e-05,0.00034976,-0.00037917,0,0,0,0.025158,5.0506e-05,-0.00020865,0.012683,0.0083332,0.025238,8.2536e-07,0.9,0.8,0.95
0.047485,-0.0049442,-0.0070121,0.025113,-0.00021408,3.9154e-05,-3.2362e-06,8.5065e-05,-5.2731e-05,0.050332,-0.01552,-0.014861,-1.6828e-05,0.00044234,-0.0002742,0,0,0,0.025113,6.8465e-05,-0.00024353,0.012678,0.0083128,0.025203,8.2177e-07,0.95,0.8,0.95
0.048743,-0.0049492,-0.0070253,0.025098,-0.00022388,4.2447e-05,-9.4864e-06,9.119e-05,-4.68e-05,0.050304,-0.015532,-0.014839,-4.9329e-05,0.00047419,-0.00024336,0,0,0,0.025098,7.4312e-05,-0.00025585,0.012677,0.0083054,0.02519,8.2052e-07,1,0.8,0.95
0.0012238,-0.00055885,-0.0010193,0.030561,0.010406,0.0086584,-0.0041037,2.025e-05,-0.0061671,0.049683,-0.0027199,-0.0072631,-0.021339,0.0001053,-0.032069,0,0,0,0.033105,0.010166,0.0063548,0.013375,0.016542,0.025073,8.0233e-07,0,0.85,0.95
0.0024841,-0.0011039,-0.0019049,0.029185,0.0078248,0.0055412,-0.0037938,5.3622e-05,-0.0047764,0.05035,-0.0051861,-0.011123,-0.019728,0.00027883,-0.024837,0,0,0,0.030977,0.0074941,0.0040803,0.013448,0.014184,0.025385,8.1942e-07,0.05,0.85,0.95
0.005035,-0.0021385,-0.003428,0.027328,0.0040651,0.0018124,-0.0030285,0.00012722,-0.0025403,0.051129,-0.009354,-0.015211,-0.015748,0.00066157,-0.01321,0,0,0,0.028061,0.0037254,0.0014184,0.013322,0.011068,0.025595,8.3846e-07,0.1,0.85,0.95
0.0075971,-0.0030264,-0.0045089,0.026334,0.0021942,0.00088881,-0.002129,0.00019128,-0.0012504,0.050818,-0.011945,-0.015339,-0.011071,0.00099468,-0.0065019,0,0,0,0.026629,0.0020314,0.00075691,0.012936,0.0098057,0.025267,8.2236e-07,0.15,0.85,0.95
0.010117,-0.0037313,-0.00526,0.025466,0.0011335,0.00044483,-0.0013399,0.00022092,-0.000569,0.049985,-0.013279,-0.01507,-0.0069675,0.0011488,-0.0029588,0,0,0,0.025573,0.0011343,0.00033665,0.012618,0.0090148,0.02485,7.8715e-07,0.2,0.85,0.95
0.012596,-0.0042663,-0.0057786,0.024894,0.00056306,0.00024248,-0.00075171,0.00021955,-0.00019996,0.049305,-0.013956,-0.014789,-0.0039089,0.0011417,-0.0010398,0,0,0,0.024928,0.00066711,0.00010471,0.012412,0.0085666,0.024547,7.5989e-07,0.25,0.85,0.95
0.015047,-0.0046616,-0.006129,0.02458,0.00025332,0.00013306,-0.00034428,0.00019675,1.0564e-05,0.048929,-0.014321,-0.014634,-0.0017903,0.0010231,5.4935e-05,0,0,0,0.024589,0.00040292,-2.5031e-05,0.012307,0.0083222,0.024403,7.4671e-07,0.3,0.85,0.95
0.017488,-0.0049467,-0.0063555,0.024471,9.2038e-05,6.8961e-05,-7.2911e-05,0.00015978,0.00013498,0.048846,-0.01454,-0.0146,-0.00037914,0.00083088,0.00070188,0,0,0,0.024473,0.00024266,-8.4067e-05,0.012279,0.0082107,0.024396,7.4609e-07,0.35,0.85,0.95
0.019932,-0.0051475,-0.0064914,0.024507,1.6169e-05,2.5216e-05,9.9128e-05,0.0001136,0.00020471,0.048989,-0.014687,-0.014663,0.00051547,0.00059074,0.0010645,0,0,0,0.02451,0.00013346,-9.4828e-05,0.012302,0.0081827,0.024491,7.5485e-07,0.4,0.85,0.95
0.022387,-0.0052856,-0.0065647,0.024633,-1.1207e-05,-9.9617e-06,0.0001975,6.2912e-05,0.00023271,0.04928,-0.014796,-0.014793,0.001027,0.00032714,0.0012101,0,0,0,0.024638,5.2756e-05,-7.8094e-05,0.012358,0.0082041,0.024651,7.6966e-07,0.45,0.85,0.95
0.02486,-0.0053796,-0.0065999,0.024803,-1.3681e-05,-4.046e-05,0.0002401,1.3534e-05,0.00022479,0.049638,-0.014885,-0.014954,0.0012485,7.0376e-05,0.0011689,0,0,0,0.024808,8.396e-06,-6.7215e-05,0.012437,0.0082496,0.024837,7.8717e-07,0.5,0.85,0.95
0.027351,-0.0054448,-0.0066182,0.024974,-7.04e-06,-6.4613e-05,0.00024093,-2.7665e-05,0.00018645,0.049992,-0.01496,-0.01511,0.0012528,-0.00014386,0.00096951,0,0,0,0.024978,8.5845e-06,-8.4239e-05,0.012531,0.0083009,0.025016,8.0422e-07,0.55,0.85,0.95
0.029859,-0.0054934,-0.0066364,0.025116,-1.709e-06,-7.825e-05,0.00021283,-5.4247e-05,0.00012651,0.050281,-0.015026,-0.015225,0.0011067,-0.00028209,0.00065785,0,0,0,0.025119,2.6235e-05,-0.00010888,0.012614,0.0083455,0.025161,8.181e-07,0.6,0.85,0.95
0.032379,-0.005534,-0.0066656,0.025209,-3.8875e-06,-7.8287e-05,0.00016843,-6.2291e-05,5.7555e-05,0.050468,-0.015086,-0.01528,0.00087581,-0.00032391,0.00029928,0,0,0,0.025211,3.1254e-05,-0.00011488,0.012663,0.0083757,0.025253,8.2704e-07,0.65,0.85,0.95
0.034906,-0.0055718,-0.0067103,0.025246,-1.6217e-05,-6.5377e-05,0.00011941,-5.1932e-05,-6.5315e-06,0.050541,-0.015141,-0.015269,0.00062095,-0.00027005,-3.3964e-05,0,0,0,0.025247,1.722e-05,-9.9519e-05,0.012673,0.0083881,0.025288,8.3053e-07,0.7,0.85,0.95
0.037433,-0.0056085,-0.0067689,0.025233,-3.8261e-05,-4.4125e-05,7.5008e-05,-2.7384e-05,-5.4263e-05,0.050516,-0.01519,-0.015205,0.00039004,-0.0001424,-0.00028217,0,0,0,0.025234,-4.4065e-06,-7.8417e-05,0.012656,0.0083836,0.025275,8.293e-07,0.75,0.85,0.95
0.039957,-0.0056435,-0.0068349,0.025186,-6.7013e-05,-2.0937e-05,4.0714e-05,4.5785e-06,-7.9415e-05,0.050425,-0.015233,-0.015113,0.00021171,2.3808e-05,-0.00041296,0,0,0,0.025186,-8.3003e-06,-8.0039e-05,0.012633,0.008366,0.025231,8.2493e-07,0.8,0.85,0.95
0.042476,-0.0056745,-0.0068993,0.025124,-9.767e-05,-1.1768e-06,1.8161e-05,3.6783e-05,-8.1642e-05,0.050306,-0.015269,-0.015018,9.4436e-05,0.00019127,-0.00042454,0,0,0,0.025124,1.3361e-05,-0.00011255,0.012618,0.0083416,0.025174,8.1931e-07,0.85,0.85,0.95
0.044988,-0.0056991,-0.006953,0.025064,-0.00012474,1.2519e-05,5.9833e-06,6.3393e-05,-6.4991e-05,0.050196,-0.015296,-0.014939,3.1113e-05,0.00032964,-0.00033796,0,0,0,0.025064,3.9729e-05,-0.00015217,0.012608,0.0083173,0.025121,8.1411e-07,0.9,0.85,0.95
0.047495,-0.0057149,-0.0069886,0.025023,-0.00014326,2.0048e-05,-4.2223e-06,8.0623e-05,-4.7944e-05,0.050119,-0.015312,-0.014888,-2.1956e-05,0.00041924,-0.00024931,0,0,0,0.025023,5.5999e-05,-0.00017933,0.012601,0.0082998,0.025085,8.1055e-07,0.95,0.85,0.95
0.048748,-0.0057204,-0.0070009,0.025008,-0.00014984,2.2381e-05,-1.0615e-05,8.6553e-05,-4.3231e-05,0.050092,-0.015318,-0.01487,-5.5199e-05,0.00045007,-0.0002248,0,0,0,0.025008,6.137e-05,-0.00018892,0.012598,0.0082935,0.025073,8.0929e-07,1,0.85,0.95
0.0012739,-0.00071751,-0.0010137,0.03158,0.0099091,0.0088198,-0.0049374,1.3221e-05,-0.0061173,0.051924,-0.0044219,-0.0072541,-0.025675,6.8748e-05,-0.03181,0,0,0,0.034315,0.009771,0.0062232,0.014046,0.01677,0.026512,9.6264e-07,0,0.9,0.95
0.0025962,-0.0014013,-0.00189,0.030059,0.0069036,0.0055587,-0.0042903,5.0569e-05,-0.004721,0.052641,-0.0075636,-0.01106,-0.02231,0.00026296,-0.024549,0,0,0,0.031941,0.0067089,0.0038722,0.014034,0.014174,0.026793,9.8587e-07,0.05,0.9,0.95
0.0052641,-0.002659,-0.0033924,0.027942,0.002942,0.0017558,-0.0029855,0.00013565,-0.0024858,0.053066,-0.011935,-0.015019,-0.015525,0.00070537,-0.012926,0,0,0,0.02864,0.0027546,0.0012456,0.013697,0.01088,0.026694,9.7247e-07,0.1,0.9,0.95
0.0079028,-0.0036661,-0.0044555,0.0266,0.0014731,0.00089969,-0.0018319,0.00020347,-0.0012174,0.051775,-0.013553,-0.015044,-0.0095259,0.0010581,-0.0063303,0,0,0,0.026843,0.0014367,0.00069309,0.013075,0.0096574,0.025789,8.8264e-07,0.15,0.9,0.95
0.010442,-0.0044201,-0.0051987,0.025353,0.00070738,0.00044138,-0.0010207,0.00022251,-0.00056031,0.050018,-0.014062,-0.014754,-0.0053076,0.0011571,-0.0029136,0,0,0,0.025429,0.0008062,0.00026654,0.012581,0.0088341,0.024898,7.9449e-07,0.2,0.9,0.95
0.012905,-0.0049758,-0.0057172,0.024579,0.00032479,0.00022181,-0.00050935,0.00020962,-0.00020396,0.048829,-0.014231,-0.014499,-0.0026486,0.00109,-0.0010606,0,0,0,0.024599,0.00048613,4.023e-05,0.012279,0.0083751,0.024339,7.4181e-07,0.25,0.9,0.95
0.015325,-0.0053812,-0.0060721,0.024193,0.00013041,0.00010606,-0.00019104,0.00018049,2.1671e-06,0.048245,-0.014319,-0.014382,-0.00099339,0.00093855,1.1269e-05,0,0,0,0.024197,0.00030034,-6.8074e-05,0.012133,0.0081432,0.024084,7.184e-07,0.3,0.9,0.95
0.017729,-0.0056729,-0.0063052,0.024082,3.5237e-05,4.2787e-05,6.1237e-06,0.00014277,0.00012532,0.048118,-0.014405,-0.014385,3.1844e-05,0.0007424,0.00065168,0,0,0,0.024084,0.00018205,-0.00010558,0.012095,0.0080535,0.024047,7.1495e-07,0.35,0.9,0.95
0.020136,-0.005879,-0.0064489,0.02415,-6.6059e-06,4.4282e-06,0.00012406,0.00010019,0.00019437,0.048301,-0.014506,-0.014477,0.00064511,0.00052098,0.0010107,0,0,0,0.024153,9.7873e-05,-0.00010266,0.012128,0.0080492,0.024156,7.2452e-07,0.4,0.9,0.95
0.022559,-0.006022,-0.0065304,0.024321,-1.9806e-05,-2.2326e-05,0.00018699,5.5874e-05,0.00022185,0.048668,-0.014619,-0.014625,0.00097237,0.00029054,0.0011536,0,0,0,0.024325,3.4558e-05,-8.0495e-05,0.012203,0.008093,0.024348,7.4185e-07,0.45,0.9,0.95
0.025003,-0.0061207,-0.0065735,0.024538,-1.9018e-05,-4.2937e-05,0.00020973,1.391e-05,0.00021429,0.049113,-0.014735,-0.014797,0.0010906,7.233e-05,0.0011143,0,0,0,0.024542,-4.7546e-07,-6.5503e-05,0.012304,0.0081586,0.024575,7.626e-07,0.5,0.9,0.95
0.02747,-0.0061903,-0.0065987,0.024753,-1.345e-05,-5.7897e-05,0.00020288,-2.0634e-05,0.00017787,0.049549,-0.014844,-0.01496,0.001055,-0.0001073,0.00092491,0,0,0,0.024756,-3.5127e-07,-7.4279e-05,0.012415,0.0082272,0.024794,7.83e-07,0.55,0.9,0.95
0.029958,-0.0062427,-0.0066222,0.024933,-8.883e-06,-6.5389e-05,0.00017587,-4.29e-05,0.0001214,0.04991,-0.014938,-0.015085,0.00091453,-0.00022308,0.00063129,0,0,0,0.024935,1.4464e-05,-9.0848e-05,0.012513,0.0082862,0.024973,8e-07,0.6,0.9,0.95
0.032461,-0.0062865,-0.0066545,0.025056,-8.6497e-06,-6.3921e-05,0.00013793,-4.9959e-05,5.6558e-05,0.050156,-0.015013,-0.015156,0.00071725,-0.00025979,0.0002941,0,0,0,0.025057,2.0663e-05,-9.4322e-05,0.012576,0.0083278,0.025094,8.116e-07,0.65,0.9,0.95
0.034974,-0.0063269,-0.0067003,0.025116,-1.4173e-05,-5.4172e-05,9.7668e-05,-4.2054e-05,-4.0915e-06,0.050273,-0.015066,-0.01517,0.00050787,-0.00021868,-2.1276e-05,0,0,0,0.025117,1.2559e-05,-8.1415e-05,0.012599,0.0083493,0.025151,8.1714e-07,0.7,0.9,0.95
0.037489,-0.0063655,-0.0067582,0.02512,-2.5272e-05,-3.9215e-05,6.1833e-05,-2.2645e-05,-5.0038e-05,0.050278,-0.015099,-0.015135,0.00032153,-0.00011775,-0.0002602,0,0,0,0.02512,-3.9983e-06,-6.0827e-05,0.01259,0.0083517,0.025152,8.1727e-07,0.75,0.9,0.95
0.040001,-0.0064019,-0.0068226,0.025082,-4.038e-05,-2.3218e-05,3.4359e-05,2.7842e-06,-7.5192e-05,0.050202,-0.015116,-0.015071,0.00017866,1.4478e-05,-0.000391,0,0,0,0.025082,-9.8593e-06,-5.4076e-05,0.012568,0.0083395,0.025115,8.136e-07,0.8,0.9,0.95
0.042509,-0.006434,-0.0068851,0.025025,-5.6884e-05,-9.6563e-06,1.622e-05,2.845e-05,-7.8567e-05,0.050089,-0.015123,-0.015,8.4344e-05,0.00014794,-0.00040855,0,0,0,0.025025,5.5518e-06,-7.2403e-05,0.012549,0.0083193,0.025058,8.0814e-07,0.85,0.9,0.95
0.04501,-0.0064593,-0.0069372,0.024967,-7.1688e-05,-2.4045e-07,6.1467e-06,4.9661e-05,-6.3309e-05,0.049977,-0.015123,-0.014938,3.1963e-05,0.00025824,-0.0003292,0,0,0,0.024967,2.6715e-05,-9.885e-05,0.012533,0.0082983,0.025003,8.0279e-07,0.9,0.9,0.95
0.047507,-0.0064754,-0.0069717,0.024925,-8.1919e-05,4.9614e-06,-3.7916e-06,6.3392e-05,-4.6949e-05,0.049897,-0.015122,-0.014896,-1.9716e-05,0.00032964,-0.00024413,0,0,0,0.024925,4.0011e-05,-0.00011708,0.012521,0.0082828,0.024964,7.9901e-07,0.95,0.9,0.95
0.048754,-0.006481,-0.0069838,0.02491,-8.5568e-05,6.5804e-06,-1.0443e-05,6.8116e-05,-4.2275e-05,0.049868,-0.015121,-0.014882,-5.4301e-05,0.0003542,-0.00021983,0,0,0,0.02491,4.4435e-05,-0.00012351,0.012517,0.0082771,0.02495,7.9765e-07,1,0.9,0.95
0.001459,-0.001001,-0.0010139,0.034998,0.0097861,0.0098012,-0.0060149,-1.7231e-05,-0.0061047,0.058243,-0.0073072,-0.0072681,-0.031277,-8.9601e-05,-0.031744,0,0,0,0.037967,0.010083,0.006535,0.015716,0.018195,0.02984,1.4157e-06,0,0.95,0.95
0.0029122,-0.0018603,-0.0018838,0.032339,0.0059923,0.0060159,-0.0046198,2.8462e-05,-0.0046986,0.057473,-0.011028,-0.010967,-0.024023,0.000148,-0.024433,0,0,0,0.034258,0.0063304,0.0037585,0.01525,0.014782,0.029331,1.3324e-06,0.05,0.95,0.95
0.0057473,-0.003332,-0.0033711,0.028478,0.0016678,0.0017012,-0.002407,0.00013799,-0.0024601,0.054934,-0.014772,-0.014685,-0.012517,0.00071754,-0.012792,0,0,0,0.02904,0.0019528,0.00085431,0.014093,0.010616,0.027666,1.1061e-06,0.1,0.95,0.95
0.0084056,-0.0043818,-0.0044227,0.026223,0.00078441,0.00081906,-0.0011879,0.00020868,-0.0012094,0.051485,-0.014657,-0.014567,-0.006177,0.0010852,-0.0062891,0,0,0,0.026386,0.00099081,0.00045029,0.012968,0.0092756,0.025671,8.7688e-07,0.15,0.95,0.95
0.010896,-0.0051375,-0.0051638,0.024619,0.0002958,0.00033011,-0.00057637,0.00020577,-0.00056415,0.048862,-0.014378,-0.014289,-0.0029972,0.00107,-0.0029336,0,0,0,0.024662,0.00051429,6.7966e-05,0.012297,0.0084149,0.024375,7.481e-07,0.2,0.95,0.95
0.013292,-0.0056894,-0.0056843,0.023814,9.6633e-05,0.00012911,-0.00025008,0.00018067,-0.00020469,0.047493,-0.014173,-0.014088,-0.0013004,0.00093947,-0.0010644,0,0,0,0.023824,0.0002971,-8.1142e-05,0.011953,0.0080133,0.023718,6.8793e-07,0.25,0.95,0.95
0.015645,-0.0060935,-0.0060421,0.0235,6.3872e-06,3.4271e-05,-6.6248e-05,0.00014854,8.8238e-06,0.046975,-0.014108,-0.014035,-0.00034449,0.0007724,4.5884e-05,0,0,0,0.023501,0.00017309,-0.00013419,0.011818,0.0078468,0.023484,6.669e-07,0.3,0.95,0.95
0.017989,-0.0063872,-0.0062778,0.02349,-3.0507e-05,-1.1143e-05,4.0553e-05,0.00011449,0.00013837,0.047005,-0.014148,-0.014098,0.00021087,0.00059535,0.00071952,0,0,0,0.023491,9.5657e-05,-0.00013873,0.011815,0.0078161,0.023514,6.6899e-07,0.35,0.95,0.95
0.020346,-0.0065981,-0.0064237,0.023662,-4.1922e-05,-3.5462e-05,0.00010111,7.9943e-05,0.00021083,0.04737,-0.01426,-0.014243,0.00052575,0.0004157,0.0010963,0,0,0,0.023664,4.1038e-05,-0.00012115,0.011893,0.0078615,0.023705,6.8507e-07,0.4,0.95,0.95
0.022726,-0.0067475,-0.0065071,0.02393,-4.0934e-05,-5.086e-05,0.00013113,4.6096e-05,0.00023847,0.047916,-0.01441,-0.014435,0.00068188,0.0002397,0.00124,0,0,0,0.023934,1.0822e-06,-9.646e-05,0.012015,0.0079462,0.023982,7.0906e-07,0.45,0.95,0.95
0.025137,-0.0068531,-0.006552,0.024232,-3.4736e-05,-6.2011e-05,0.00013938,1.5077e-05,0.00022826,0.048523,-0.014572,-0.014643,0.00072479,7.8398e-05,0.001187,0,0,0,0.024236,-2.0031e-05,-8.0188e-05,0.012158,0.0080452,0.024286,7.3615e-07,0.5,0.95,0.95
0.027579,-0.0069292,-0.006579,0.024519,-2.7455e-05,-6.9283e-05,0.00013177,-1.0103e-05,0.00018727,0.049096,-0.014725,-0.014834,0.00068521,-5.2533e-05,0.0009738,0,0,0,0.024522,-1.9176e-05,-8.0158e-05,0.012301,0.0081408,0.024571,7.622e-07,0.55,0.95,0.95
0.030047,-0.0069872,-0.0066043,0.024755,-2.1466e-05,-7.1193e-05,0.00011344,-2.6429e-05,0.00012519,0.049565,-0.014853,-0.014982,0.00058988,-0.00013743,0.00065099,0,0,0,0.024756,-8.3263e-06,-8.5826e-05,0.012421,0.0082208,0.024804,7.8385e-07,0.6,0.95,0.95
0.032535,-0.0070353,-0.0066384,0.024919,-1.804e-05,-6.6511e-05,8.9476e-05,-3.2103e-05,5.449e-05,0.049888,-0.014947,-0.015073,0.00046527,-0.00016694,0.00028335,0,0,0,0.024919,-1.287e-06,-8.3924e-05,0.012502,0.0082781,0.024962,7.9888e-07,0.65,0.95,0.95
0.035036,-0.0070784,-0.006686,0.025005,-1.7699e-05,-5.5657e-05,6.4655e-05,-2.7412e-05,-1.1553e-05,0.050054,-0.015005,-0.015104,0.00033621,-0.00014254,-6.0076e-05,0,0,0,0.025005,-2.6567e-06,-7.101e-05,0.012538,0.0083105,0.025042,8.0657e-07,0.7,0.95,0.95
0.037541,-0.0071184,-0.0067457,0.025022,-2.0374e-05,-4.0906e-05,4.2698e-05,-1.4773e-05,-6.1722e-05,0.050082,-0.01503,-0.015083,0.00022203,-7.6821e-05,-0.00032095,0,0,0,0.025023,-1.0376e-05,-5.1229e-05,0.012537,0.0083204,0.025054,8.0768e-07,0.75,0.95,0.95
0.040044,-0.0071551,-0.0068119,0.02499,-2.542e-05,-2.5451e-05,2.5692e-05,2.0495e-06,-8.9213e-05,0.05001,-0.015029,-0.01503,0.0001336,1.0658e-05,-0.00046391,0,0,0,0.02499,-1.215e-05,-3.9153e-05,0.012515,0.008313,0.025016,8.0406e-07,0.8,0.95,0.95
0.042542,-0.0071868,-0.0068762,0.024931,-3.1676e-05,-1.21e-05,1.4024e-05,1.9116e-05,-9.2475e-05,0.049889,-0.015015,-0.014964,7.2926e-05,9.9404e-05,-0.00048087,0,0,0,0.024932,8.1745e-07,-4.5026e-05,0.012488,0.0082958,0.024954,7.9808e-07,0.85,0.95,0.95
0.045033,-0.0072115,-0.0069298,0.02487,-3.7674e-05,-2.4366e-06,6.8378e-06,3.3245e-05,-7.4487e-05,0.049764,-0.014996,-0.014904,3.5556e-05,0.00017288,-0.00038733,0,0,0,0.02487,1.8239e-05,-5.8641e-05,0.012464,0.0082766,0.024891,7.9203e-07,0.9,0.95,0.95
0.047518,-0.0072271,-0.0069653,0.024825,-4.1972e-05,3.1772e-06,-2.5906e-06,4.2395e-05,-5.3547e-05,0.049674,-0.014981,-0.014864,-1.3471e-05,0.00022045,-0.00027845,0,0,0,0.024825,2.9481e-05,-6.8426e-05,0.012447,0.0082621,0.024845,7.8768e-07,0.95,0.95,0.95
0.048759,-0.0072325,-0.0069777,0.024809,-4.3532e-05,4.9893e-06,-9.3814e-06,4.5543e-05,-4.6302e-05,0.049641,-0.014975,-0.014849,-4.8783e-05,0.00023682,-0.00024077,0,0,0,0.024809,3.3248e-05,-7.1895e-05,0.01244,0.0082568,0.024829,7.8611e-07,1,0.95,0.95
0.0016101,-0.0011894,-0.0010162,0.037742,0.010057,0.01069,-0.0066811,-4.025e-05,-0.0061143,0.063035,-0.0089438,-0.0073003,-0.034742,-0.0002093,-0.031794,0,0,0,0.040852,0.010669,0.0069677,0.016942,0.019496,0.032222,1.7603e-06,0,1,0.95
0.0031517,-0.0021448,-0.0018843,0.034043,0.0057131,0.0064641,-0.0047775,1.2637e-05,-0.0047022,0.06078,-0.012878,-0.010925,-0.024843,6.571e-05,-0.024451,0,0,0,0.03598,0.0064294,0.0038107,0.016085,0.015407,0.030977,1.571e-06,0.05,1,0.95
0.006078,-0.0037116,-0.0033664,0.028632,0.0010469,0.0016645,-0.0019926,0.0001417,-0.0024602,0.055637,-0.016084,-0.014478,-0.010362,0.00073682,-0.012793,0,0,0,0.029111,0.0016514,0.00058087,0.014265,0.010448,0.028022,1.1629e-06,0.1,1,0.95
0.0087154,-0.0047543,-0.0044146,0.025739,0.00043602,0.00071598,-0.00080297,0.0002153,-0.0012146,0.050786,-0.015001,-0.014273,-0.0041754,0.0011196,-0.006316,0,0,0,0.025861,0.00078818,0.00024117,0.01281,0.0089635,0.025352,8.4698e-07,0.15,1,0.95
0.011157,-0.0054991,-0.0051563,0.02403,7.2222e-05,0.00022333,-0.00035044,0.00019851,-0.00056843,0.047882,-0.014407,-0.014015,-0.0018223,0.0010322,-0.0029558,0,0,0,0.024061,0.00035507,-9.032e-05,0.012075,0.0081085,0.023932,7.0827e-07,0.2,1,0.95
0.013504,-0.0060441,-0.0056779,0.023293,-3.2925e-05,5.3764e-05,-0.00013331,0.00016743,-0.00020153,0.046574,-0.014074,-0.013849,-0.00069322,0.00087062,-0.0010479,0,0,0,0.023299,0.00018787,-0.00017328,0.011736,0.0077713,0.023294,6.5151e-07,0.25,1,0.95
0.015814,-0.0064457,-0.0060362,0.023066,-7.101e-05,-1.8046e-05,-1.9698e-05,0.0001342,1.9079e-05,0.046184,-0.013971,-0.013833,-0.00010243,0.00069785,9.921e-05,0,0,0,0.023067,9.6944e-05,-0.00018714,0.011627,0.0076588,0.023113,6.3565e-07,0.3,1,0.95
0.018122,-0.0067402,-0.0062716,0.023139,-7.7747e-05,-4.7668e-05,4.3503e-05,0.00010217,0.00015369,0.046353,-0.01401,-0.013932,0.00022621,0.0005313,0.00079918,0,0,0,0.02314,4.2908e-05,-0.00016988,0.011655,0.0076711,0.023205,6.4279e-07,0.35,1,0.95
0.020449,-0.0069537,-0.0064166,0.023384,-7.215e-05,-6.1802e-05,7.7958e-05,7.1522e-05,0.00022869,0.046847,-0.014137,-0.01411,0.00040538,0.00037192,0.0011892,0,0,0,0.023386,5.113e-06,-0.00014198,0.011764,0.0077499,0.023455,6.6356e-07,0.4,1,0.95
0.022807,-0.007107,-0.0064989,0.023715,-6.1689e-05,-7.0581e-05,9.4058e-05,4.2582e-05,0.00025626,0.04751,-0.01431,-0.014333,0.0004891,0.00022143,0.0013326,0,0,0,0.023719,-2.2125e-05,-0.00011378,0.011916,0.007861,0.023787,6.9187e-07,0.45,1,0.95
0.0252,-0.0072168,-0.0065428,0.02407,-5.0253e-05,-7.7266e-05,9.7264e-05,1.6621e-05,0.00024353,0.048217,-0.014496,-0.014567,0.00050577,8.6431e-05,0.0012664,0,0,0,0.024074,-3.5685e-05,-9.5198e-05,0.012084,0.0079809,0.024139,7.2286e-07,0.5,1,0.95
0.027629,-0.0072969,-0.0065691,0.0244,-3.9827e-05,-8.1308e-05,9.1123e-05,-4.2713e-06,0.00019798,0.048873,-0.014671,-0.014779,0.00047384,-2.2211e-05,0.0010295,0,0,0,0.024402,-3.363e-05,-8.9884e-05,0.012246,0.008093,0.024464,7.5227e-07,0.55,1,0.95
0.030087,-0.0073583,-0.0065942,0.024669,-3.1402e-05,-8.0677e-05,7.8683e-05,-1.7927e-05,0.00013003,0.049404,-0.014816,-0.014944,0.00040915,-9.3218e-05,0.00067614,0,0,0,0.02467,-2.3731e-05,-8.9597e-05,0.01238,0.0081855,0.024727,7.7658e-07,0.6,1,0.95
0.032569,-0.0074087,-0.0066288,0.024855,-2.5406e-05,-7.3817e-05,6.298e-05,-2.3062e-05,5.3078e-05,0.04977,-0.01492,-0.015046,0.0003275,-0.00011992,0.00027601,0,0,0,0.024856,-1.5454e-05,-8.4241e-05,0.01247,0.008252,0.024906,7.9348e-07,0.65,1,0.95
0.035064,-0.0074532,-0.0066775,0.024955,-2.1953e-05,-6.0925e-05,4.687e-05,-1.9973e-05,-1.8581e-05,0.04996,-0.014981,-0.015082,0.00024372,-0.00010386,-9.662e-05,0,0,0,0.024955,-1.2978e-05,-7.0131e-05,0.012513,0.0082908,0.024997,8.0222e-07,0.7,1,0.95
0.037565,-0.0074938,-0.0067389,0.024979,-2.0924e-05,-4.4116e-05,3.2557e-05,-1.0583e-05,-7.2835e-05,0.049997,-0.015003,-0.015063,0.0001693,-5.503e-05,-0.00037874,0,0,0,0.024979,-1.5448e-05,-4.9948e-05,0.012515,0.0083046,0.025012,8.0367e-07,0.75,1,0.95
0.040064,-0.0075305,-0.006807,0.024947,-2.1919e-05,-2.6534e-05,2.1222e-05,2.1659e-06,-0.00010225,0.049924,-0.014996,-0.015008,0.00011036,1.1263e-05,-0.0005317,0,0,0,0.024948,-1.3509e-05,-3.5478e-05,0.012492,0.0082997,0.024972,7.9987e-07,0.8,1,0.95
0.042557,-0.0075617,-0.0068732,0.024887,-2.4225e-05,-1.1089e-05,1.3005e-05,1.5196e-05,-0.00010503,0.049795,-0.014974,-0.01494,6.7627e-05,7.9021e-05,-0.00054615,0,0,0,0.024887,-5.4285e-08,-3.5804e-05,0.012462,0.0082838,0.024905,7.9344e-07,0.85,1,0.95
0.045044,-0.0075858,-0.0069285,0.024823,-2.6898e-05,3.9309e-07,7.3161e-06,2.6025e-05,-8.4308e-05,0.049661,-0.014948,-0.014877,3.8044e-05,0.00013533,-0.0004384,0,0,0,0.024823,1.6731e-05,-4.3605e-05,0.012433,0.0082654,0.024836,7.8688e-07,0.9,1,0.95
0.047524,-0.0076011,-0.0069651,0.024775,-2.898e-05,7.2569e-06,-1.8348e-06,3.3051e-05,-5.9316e-05,0.049564,-0.014928,-0.014833,-9.541e-06,0.00017187,-0.00030844,0,0,0,0.024776,2.7739e-05,-4.9645e-05,0.012413,0.0082512,0.024787,7.8215e-07,0.95,1,0.95
0.048762,-0.0076063,-0.0069779,0.024758,-2.9761e-05,9.5152e-06,-8.6679e-06,3.5471e-05,-4.99e-05,0.049529,-0.01492,-0.014818,-4.5073e-05,0.00018445,-0.00025948,0,0,0,0.024758,3.1446e-05,-5.1811e-05,0.012405,0.008246,0.024769,7.8044e-07,1,1,0.95
0.0017443,0.0011801,-0.0011794,0.040095,0.010814,0.010813,0.0066171,7.518e-05,-0.006612,0.067215,-0.0089175,-0.00892,0.034409,0.00039093,-0.034383,0,0,0,0.043254,0.011012,0.0074563,0.017899,0.020574,0.034189,2.0963e-06,0,0,1
0.0033607,0.0021209,-0.0021199,0.035441,0.0060929,0.0060916,0.0047207,9.9618e-06,-0.0047166,0.063571,-0.012734,-0.012737,0.024548,5.1801e-05,-0.024526,0,0,0,0.037336,0.0063355,0.0039543,0.016691,0.015875,0.032287,1.7976e-06,0.05,0,1
0.0063571,0.0036584,-0.0036576,0.028637,0.0010362,0.0010345,0.0019552,-0.00015045,-0.0019536,0.056031,-0.01573,-0.015735,0.010167,-0.00078235,-0.010159,0,0,0,0.029014,0.0012785,0.00041541,0.014299,0.010236,0.028181,1.2051e-06,0.1,0,1
0.0089639,0.0046777,-0.0046789,0.025212,0.00038534,0.00038378,0.0007851,-0.00022852,-0.00078658,0.049963,-0.014587,-0.014591,0.0040825,-0.0011883,-0.0040902,0,0,0,0.025287,0.00058758,0.00010681,0.01259,0.0086604,0.024944,8.0893e-07,0.15,0,1
0.011353,0.005406,-0.0054114,0.02345,8.2539e-06,6.8041e-06,0.00033692,-0.00019157,-0.00034148,0.046891,-0.014058,-0.014061,0.001752,-0.00099614,-0.0017757,0,0,0,0.023466,0.00020049,-0.0002015,0.011834,0.0078217,0.023469,6.6795e-07,0.2,0,1
0.013653,0.005935,-0.0059463,0.022801,-7.6593e-05,-7.7864e-05,0.00011291,-0.00015282,-0.00012027,0.045695,-0.013787,-0.013791,0.00058714,-0.00079464,-0.00062538,0,0,0,0.022804,8.2191e-05,-0.0002395,0.011522,0.0075489,0.022885,6.1737e-07,0.25,0,1
0.015923,0.00632,-0.0063388,0.022658,-0.00010188,-0.00010285,-6.8447e-06,-0.00011821,-2.7694e-06,0.045438,-0.013737,-0.013739,-3.5593e-05,-0.00061469,-1.4401e-05,0,0,0,0.022658,2.158e-05,-0.00022673,0.011442,0.0074843,0.022762,6.0677e-07,0.3,0,1
0.018197,0.0065974,-0.006625,0.022789,-0.00010138,-0.0001019,-7.3115e-05,-8.9559e-05,6.2e-05,0.0457,-0.013815,-0.013816,-0.0003802,-0.00046571,0.0003224,0,0,0,0.02279,-8.357e-06,-0.00019548,0.011493,0.0075286,0.022892,6.1694e-07,0.35,0,1
0.020493,0.0067942,-0.0068312,0.023064,-9.2858e-05,-9.2822e-05,-0.0001073,-6.591e-05,9.5648e-05,0.046239,-0.013968,-0.013968,-0.00055798,-0.00034273,0.00049737,0,0,0,0.023065,-2.5013e-05,-0.0001617,0.011613,0.0076261,0.023159,6.3855e-07,0.4,0,1
0.022821,0.0069311,-0.0069776,0.023405,-8.1828e-05,-8.1184e-05,-0.00012056,-4.6476e-05,0.00010943,0.046907,-0.014158,-0.014156,-0.00062689,-0.00024168,0.00056903,0,0,0,0.023406,-3.4409e-05,-0.0001299,0.011768,0.0077473,0.023488,6.6606e-07,0.45,0,1
0.025184,0.0070247,-0.0070801,0.023761,-7.0649e-05,-6.9435e-05,-0.00011944,-3.079e-05,0.0001099,0.047607,-0.014356,-0.014353,-0.00062109,-0.00016011,0.00057148,0,0,0,0.023763,-3.9421e-05,-0.00010195,0.011932,0.0078737,0.023833,6.957e-07,0.5,0,1
0.027581,0.0070882,-0.0071516,0.0241,-6.0187e-05,-5.8548e-05,-0.00010855,-1.8648e-05,0.00010148,0.04827,-0.014545,-0.014541,-0.00056443,-9.6972e-05,0.00052769,0,0,0,0.024101,-4.1153e-05,-7.8657e-05,0.01209,0.0079936,0.024161,7.2462e-07,0.55,0,1
0.030011,0.0071319,-0.0072019,0.024398,-5.073e-05,-4.89e-05,-9.157e-05,-9.9424e-06,8.7546e-05,0.048855,-0.014711,-0.014706,-0.00047617,-5.1701e-05,0.00045524,0,0,0,0.024398,-3.9662e-05,-6.0751e-05,0.01223,0.0080994,0.024449,7.5076e-07,0.6,0,1
0.032467,0.0071634,-0.0072383,0.024644,-4.2334e-05,-4.0604e-05,-7.1743e-05,-4.4915e-06,7.0903e-05,0.049337,-0.014846,-0.014842,-0.00037306,-2.3356e-05,0.0003687,0,0,0,0.024644,-3.536e-05,-4.8078e-05,0.012346,0.0081869,0.024686,7.7274e-07,0.65,0,1
0.034944,0.0071877,-0.007266,0.024833,-3.5004e-05,-3.3661e-05,-5.1853e-05,-1.9296e-06,5.3877e-05,0.049708,-0.01495,-0.014946,-0.00026964,-1.0034e-05,0.00028016,0,0,0,0.024834,-3.0028e-05,-3.8917e-05,0.012436,0.0082549,0.024868,7.8992e-07,0.7,0,1
0.037438,0.007208,-0.0072881,0.024969,-2.8757e-05,-2.8029e-05,-3.411e-05,-1.6746e-06,3.8264e-05,0.049973,-0.015022,-0.01502,-0.00017737,-8.7078e-06,0.00019897,0,0,0,0.02497,-2.5063e-05,-3.1858e-05,0.012501,0.0083042,0.024998,8.0234e-07,0.75,0,1
0.039942,0.0072256,-0.0073062,0.025059,-2.3631e-05,-2.3641e-05,-1.9972e-05,-2.9799e-06,2.5236e-05,0.050147,-0.015069,-0.015069,-0.00010385,-1.5496e-05,0.00013123,0,0,0,0.02506,-2.0167e-05,-2.7159e-05,0.012543,0.0083374,0.025083,8.1056e-07,0.8,0,1
0.042452,0.0072404,-0.0073209,0.025114,-1.9656e-05,-2.0405e-05,-1.0043e-05,-5.0408e-06,1.5288e-05,0.050251,-0.015095,-0.015097,-5.2221e-05,-2.6212e-05,7.9497e-05,0,0,0,0.025114,-1.4938e-05,-2.5142e-05,0.012569,0.0083579,0.025134,8.1546e-07,0.85,0,1
0.044967,0.0072519,-0.007332,0.025143,-1.6841e-05,-1.8212e-05,-4.0986e-06,-7.1117e-06,8.2754e-06,0.050307,-0.015109,-0.015112,-2.1313e-05,-3.6981e-05,4.3032e-05,0,0,0,0.025143,-1.0279e-05,-2.4779e-05,0.012584,0.0083693,0.02516,8.1806e-07,0.9,0,1
0.047483,0.0072593,-0.0073389,0.025156,-1.517e-05,-1.6952e-05,1.2832e-06,-8.6032e-06,1.217e-06,0.050332,-0.015114,-0.015119,6.6724e-06,-4.4736e-05,6.3286e-06,0,0,0,0.025156,-7.2261e-06,-2.4899e-05,0.012591,0.0083747,0.025172,8.1922e-07,0.95,0,1
0.048741,0.0072618,-0.0073412,0.02516,-1.4616e-05,-1.6542e-05,4.6121e-06,-9.1426e-06,-3.0133e-06,0.050339,-0.015115,-0.01512,2.3983e-05,-4.7542e-05,-1.5669e-05,0,0,0,0.02516,-6.1687e-06,-2.4994e-05,0.012592,0.0083763,0.025176,8.1953e-07,1,0,1
0.0015961,0.00099259,-0.0011774,0.037425,0.010581,0.0099689,0.0059582,4.0248e-05,-0.0066136,0.06252,-0.0072738,-0.008866,0.030982,0.00020929,-0.034391,0,0,0,0.040465,0.010571,0.0069398,0.016763,0.019325,0.031892,1.7083e-06,0,0.05,1
0.003126,0.0018398,-0.0021226,0.033783,0.0063864,0.0056632,0.0045697,-1.0598e-05,-0.0047283,0.060336,-0.010895,-0.012775,0.023762,-5.5112e-05,-0.024587,0,0,0,0.03567,0.006366,0.0037963,0.015937,0.015277,0.030703,1.5295e-06,0.05,0.05,1
0.0060335,0.0032868,-0.0036714,0.028474,0.0016247,0.0010405,0.0023711,-0.00013476,-0.0019683,0.055349,-0.014459,-0.015978,0.01233,-0.00070073,-0.010235,0,0,0,0.028933,0.0016258,0.00058047,0.014176,0.01038,0.027856,1.1412e-06,0.1,0.05,1
0.0086609,0.0043148,-0.0046992,0.025662,0.00068855,0.00043805,0.001163,-0.00020424,-0.00078584,0.050649,-0.014283,-0.014934,0.0060478,-0.001062,-0.0040864,0,0,0,0.025777,0.00076621,0.00024543,0.012766,0.0089296,0.025276,8.3881e-07,0.15,0.05,1
0.011098,0.0050528,-0.0054304,0.024009,0.00020234,7.8592e-05,0.00055136,-0.00018563,-0.00033302,0.04785,-0.014048,-0.01437,0.0028671,-0.00096529,-0.0017317,0,0,0,0.024038,0.00033302,-8.0648e-05,0.012059,0.0080967,0.023914,7.0642e-07,0.2,0.05,1
0.013446,0.0055873,-0.0059623,0.023301,3.4684e-05,-2.6411e-05,0.00021725,-0.00015416,-0.00011415,0.046598,-0.013896,-0.014054,0.0011297,-0.00080163,-0.0005936,0,0,0,0.023307,0.00016558,-0.0001632,0.011735,0.0077698,0.023308,6.5247e-07,0.25,0.05,1
0.015758,0.0059735,-0.0063516,0.023078,-3.5923e-05,-6.6454e-05,2.7069e-05,-0.00012222,4.827e-07,0.046217,-0.013879,-0.013958,0.00014076,-0.00063557,2.5102e-06,0,0,0,0.023079,7.6306e-05,-0.0001796,0.011629,0.0076585,0.023132,6.3708e-07,0.3,0.05,1
0.018068,0.0062493,-0.0066347,0.023132,-6.2847e-05,-7.6543e-05,-8.2154e-05,-9.3667e-05,6.3133e-05,0.046347,-0.013959,-0.013995,-0.0004272,-0.00048707,0.00032829,0,0,0,0.023133,2.6831e-05,-0.00016696,0.01165,0.0076642,0.023203,6.4264e-07,0.35,0.05,1
0.020393,0.0064427,-0.0068382,0.023338,-7.1344e-05,-7.4968e-05,-0.00014114,-6.8926e-05,9.5486e-05,0.046764,-0.014101,-0.01411,-0.00073393,-0.00035841,0.00049653,0,0,0,0.02334,-3.1154e-06,-0.00014465,0.011742,0.0077306,0.023414,6.6002e-07,0.4,0.05,1
0.022744,0.0065752,-0.0069822,0.02362,-7.1349e-05,-6.8488e-05,-0.00016675,-4.7921e-05,0.00010855,0.047324,-0.014274,-0.014266,-0.0008671,-0.00024919,0.00056448,0,0,0,0.023622,-2.1692e-05,-0.00012007,0.011871,0.0078268,0.023693,6.8371e-07,0.45,0.05,1
0.025125,0.0066642,-0.0070828,0.023927,-6.7469e-05,-6.0335e-05,-0.0001693,-3.0631e-05,0.00010868,0.047931,-0.014455,-0.014437,-0.00088037,-0.00015928,0.00056511,0,0,0,0.023929,-3.2761e-05,-9.7013e-05,0.012013,0.0079331,0.023994,7.0992e-07,0.5,0.05,1
0.027537,0.0067233,-0.0071527,0.024225,-6.1805e-05,-5.2014e-05,-0.00015607,-1.7165e-05,0.00010011,0.048518,-0.014627,-0.014602,-0.00081159,-8.9258e-05,0.00052058,0,0,0,0.024227,-3.7913e-05,-7.7587e-05,0.012152,0.008037,0.024284,7.3585e-07,0.55,0.05,1
0.029977,0.0067631,-0.0072019,0.024491,-5.5352e-05,-4.4253e-05,-0.00013291,-7.6331e-06,8.6152e-05,0.049042,-0.014779,-0.01475,-0.00069113,-3.9692e-05,0.00044799,0,0,0,0.024492,-3.7796e-05,-6.3043e-05,0.012278,0.0081305,0.024543,7.5947e-07,0.6,0.05,1
0.032441,0.0067914,-0.0072376,0.024713,-4.8619e-05,-3.7392e-05,-0.00010485,-1.9676e-06,6.9551e-05,0.049477,-0.014902,-0.014873,-0.00054523,-1.0232e-05,0.00036166,0,0,0,0.024713,-3.3919e-05,-5.288e-05,0.012383,0.0082088,0.024757,7.7942e-07,0.65,0.05,1
0.034925,0.0068133,-0.007265,0.024885,-4.1955e-05,-3.1581e-05,-7.6225e-05,2.0223e-07,5.2619e-05,0.049813,-0.014996,-0.014969,-0.00039637,1.0516e-06,0.00027362,0,0,0,0.024885,-2.9079e-05,-4.4894e-05,0.012465,0.0082704,0.024922,7.9508e-07,0.7,0.05,1
0.037423,0.0068319,-0.0072872,0.025009,-3.5683e-05,-2.6871e-05,-5.044e-05,-4.2434e-07,3.7152e-05,0.050055,-0.015061,-0.015038,-0.00026229,-2.2066e-06,0.00019319,0,0,0,0.025009,-2.4895e-05,-3.7865e-05,0.012523,0.0083154,0.02504,8.0643e-07,0.75,0.05,1
0.03993,0.0068484,-0.0073057,0.025091,-3.0117e-05,-2.3244e-05,-2.9755e-05,-2.902e-06,2.4313e-05,0.050215,-0.015101,-0.015083,-0.00015472,-1.509e-05,0.00012643,0,0,0,0.025092,-2.0621e-05,-3.282e-05,0.012562,0.008346,0.025118,8.1397e-07,0.8,0.05,1
0.042444,0.0068626,-0.0073208,0.025142,-2.5537e-05,-2.0624e-05,-1.5136e-05,-6.1906e-06,1.4584e-05,0.050311,-0.015124,-0.015111,-7.8706e-05,-3.2191e-05,7.5838e-05,0,0,0,0.025142,-1.5441e-05,-3.0745e-05,0.012586,0.0083652,0.025165,8.1848e-07,0.85,0.05,1
0.044961,0.0068738,-0.0073322,0.025169,-2.215e-05,-1.8894e-05,-6.3048e-06,-9.3201e-06,7.8053e-06,0.050362,-0.015134,-0.015126,-3.2785e-05,-4.8464e-05,4.0587e-05,0,0,0,0.025169,-1.0357e-05,-3.0694e-05,0.0126,0.0083759,0.025189,8.2089e-07,0.9,0.05,1
0.04748,0.0068811,-0.0073394,0.025181,-2.008e-05,-1.7925e-05,5.4174e-07,-1.1522e-05,8.8428e-07,0.050386,-0.015138,-0.015133,2.817e-06,-5.9915e-05,4.5983e-06,0,0,0,0.025181,-6.8285e-06,-3.1179e-05,0.012606,0.0083811,0.0252,8.2197e-07,0.95,0.05,1
0.04874,0.0068836,-0.0073419,0.025185,-1.9385e-05,-1.7615e-05,4.3114e-06,-1.2311e-05,-3.3271e-06,0.050392,-0.015139,-0.015135,2.2419e-05,-6.4018e-05,-1.7301e-05,0,0,0,0.025185,-5.5769e-06,-3.1427e-05,0.012608,0.0083827,0.025203,8.2226e-07,1,0.05,1
0.0014151,0.00071108,-0.0011788,0.034112,0.010756,0.0090406,0.004895,-2.4512e-06,-0.0066443,0.056345,-0.004379,-0.0088394,0.025454,-1.2746e-05,-0.03455,0,0,0,0.036956,0.010491,0.0064606,0.015248,0.017969,0.02871,1.197e-06,0,0.1,1
0.0028173,0.001387,-0.0021347,0.031569,0.0073118,0.0052265,0.0042519,-3.5215e-05,-0.0047712,0.055615,-0.0074538,-0.012876,0.02211,-0.00018312,-0.02481,0,0,0,0.033435,0.0069663,0.0037065,0.014864,0.014702,0.028273,1.1414e-06,0.05,0.1,1
0.0055615,0.0026274,-0.0037074,0.027928,0.0028416,0.0010506,0.0029516,-0.00011312,-0.0020108,0.053521,-0.011704,-0.016361,0.015348,-0.00058824,-0.010456,0,0,0,0.028519,0.0025289,0.00077272,0.013873,0.010607,0.026939,9.9622e-07,0.1,0.1,1
0.0081694,0.0036158,-0.0047515,0.025984,0.0012981,0.00044807,0.0017955,-0.00017202,-0.00079658,0.050921,-0.013263,-0.015473,0.0093367,-0.00089448,-0.0041422,0,0,0,0.026179,0.0011921,0.00035966,0.01291,0.0092435,0.025417,8.4506e-07,0.15,0.1,1
0.010654,0.0043509,-0.005484,0.024689,0.00055707,0.00013296,0.00097576,-0.00018062,-0.00032077,0.048964,-0.013779,-0.014882,0.0050739,-0.00093923,-0.001668,0,0,0,0.024749,0.00058759,4.3025e-05,0.012353,0.0084597,0.024439,7.5093e-07,0.2,0.1,1
0.013066,0.0048871,-0.0060105,0.024022,0.00022457,2.3679e-05,0.00045357,-0.00016316,-9.8559e-05,0.047896,-0.013978,-0.014501,0.0023586,-0.00084842,-0.00051251,0,0,0,0.024037,0.00031204,-7.8776e-05,0.012058,0.0080902,0.023923,7.0409e-07,0.25,0.1,1
0.015443,0.0052725,-0.006392,0.023741,6.1725e-05,-2.5683e-05,0.00012772,-0.00013649,1.3656e-05,0.047461,-0.014106,-0.014333,0.00066416,-0.00070972,7.1009e-05,0,0,0,0.023744,0.00016328,-0.00012999,0.011937,0.0079258,0.023729,6.8691e-07,0.3,0.1,1
0.017812,0.0055442,-0.006667,0.023706,-1.8834e-05,-4.5331e-05,-7.1311e-05,-0.00010781,7.2984e-05,0.047451,-0.014234,-0.014303,-0.00037082,-0.00056063,0.00037952,0,0,0,0.023708,7.7734e-05,-0.00014301,0.011925,0.0078808,0.023741,6.8786e-07,0.35,0.1,1
0.020188,0.005731,-0.0068625,0.023819,-5.8509e-05,-5.1489e-05,-0.00018573,-8.0129e-05,0.00010253,0.047705,-0.014378,-0.01436,-0.00096577,-0.00041667,0.00053316,0,0,0,0.023822,2.5455e-05,-0.0001376,0.01198,0.0079031,0.023878,6.9976e-07,0.4,0.1,1
0.022582,0.0058558,-0.0069993,0.024014,-7.6678e-05,-5.0987e-05,-0.00024155,-5.4927e-05,0.00011341,0.048105,-0.014531,-0.014464,-0.0012561,-0.00028562,0.00058974,0,0,0,0.024017,-7.0539e-06,-0.00012376,0.01207,0.0079621,0.024083,7.1781e-07,0.45,0.1,1
0.024999,0.0059365,-0.0070936,0.024243,-8.3151e-05,-4.7387e-05,-0.00025598,-3.3278e-05,0.00011175,0.048565,-0.014684,-0.014591,-0.0013311,-0.00017305,0.00058112,0,0,0,0.024247,-2.608e-05,-0.00010787,0.012177,0.0080377,0.024314,7.3858e-07,0.5,0.1,1
0.027439,0.0059878,-0.0071585,0.024475,-8.3038e-05,-4.2528e-05,-0.00024161,-1.6109e-05,0.00010163,0.049025,-0.014826,-0.01472,-0.0012564,-8.3769e-05,0.00052846,0,0,0,0.024478,-3.4549e-05,-9.4024e-05,0.012286,0.0081165,0.024542,7.5949e-07,0.55,0.1,1
0.029901,0.0060208,-0.007204,0.024686,-7.9113e-05,-3.7387e-05,-0.00020869,-4.1114e-06,8.6234e-05,0.049442,-0.014948,-0.014839,-0.0010852,-2.1379e-05,0.00044842,0,0,0,0.024688,-3.4967e-05,-8.378e-05,0.012386,0.0081899,0.024748,7.7864e-07,0.6,0.1,1
0.032383,0.0060435,-0.0072375,0.024864,-7.3001e-05,-3.2491e-05,-0.00016609,2.4716e-06,6.8371e-05,0.049791,-0.015045,-0.014939,-0.00086367,1.2852e-05,0.00035553,0,0,0,0.024865,-3.1119e-05,-7.5814e-05,0.012471,0.0082528,0.024919,7.9481e-07,0.65,0.1,1
0.03488,0.0060612,-0.007264,0.025002,-6.5809e-05,-2.8144e-05,-0.00012139,4.0054e-06,5.0465e-05,0.05006,-0.015116,-0.015018,-0.00063121,2.0828e-05,0.00026242,0,0,0,0.025003,-2.6901e-05,-6.7841e-05,0.012535,0.0083026,0.02505,8.0739e-07,0.7,0.1,1
0.037389,0.006077,-0.0072864,0.025101,-5.841e-05,-2.4528e-05,-8.0543e-05,1.474e-06,3.442e-05,0.050251,-0.015162,-0.015074,-0.00041882,7.6651e-06,0.00017899,0,0,0,0.025101,-2.371e-05,-5.9592e-05,0.01258,0.0083392,0.025143,8.1636e-07,0.75,0.1,1
0.039906,0.0060917,-0.0073058,0.025165,-5.153e-05,-2.1734e-05,-4.7532e-05,-3.6817e-06,2.1459e-05,0.050375,-0.015189,-0.015112,-0.00024717,-1.9145e-05,0.00011159,0,0,0,0.025166,-2.0227e-05,-5.3174e-05,0.012609,0.008364,0.025202,8.2216e-07,0.8,0.1,1
0.042427,0.006105,-0.0073221,0.025204,-4.5735e-05,-1.9755e-05,-2.4125e-05,-9.8357e-06,1.204e-05,0.050446,-0.015202,-0.015134,-0.00012545,-5.1146e-05,6.2605e-05,0,0,0,0.025204,-1.5171e-05,-5.036e-05,0.012627,0.0083794,0.025236,8.2549e-07,0.85,0.1,1
0.04495,0.0061158,-0.0073348,0.025223,-4.1407e-05,-1.8499e-05,-9.9874e-06,-1.546e-05,5.9169e-06,0.050483,-0.015206,-0.015146,-5.1934e-05,-8.039e-05,3.0768e-05,0,0,0,0.025223,-9.4842e-06,-5.043e-05,0.012637,0.0083878,0.025253,8.2715e-07,0.9,0.1,1
0.047475,0.006123,-0.0073428,0.025232,-3.8753e-05,-1.7827e-05,-5.661e-07,-1.9343e-05,-4.3123e-07,0.050498,-0.015206,-0.015152,-2.9437e-06,-0.00010059,-2.2424e-06,0,0,0,0.025232,-5.1696e-06,-5.1414e-05,0.012642,0.0083918,0.02526,8.2784e-07,0.95,0.1,1
0.048737,0.0061254,-0.0073456,0.025234,-3.7862e-05,-1.7618e-05,3.9382e-06,-2.0724e-05,-4.471e-06,0.050502,-0.015206,-0.015153,2.0479e-05,-0.00010777,-2.3249e-05,0,0,0,0.025234,-3.5829e-06,-5.1902e-05,0.012643,0.008393,0.025262,8.2801e-07,1,0.1,1
0.0013674,0.00055469,-0.0011859,0.033149,0.011277,0.0089003,0.0040761,-9.2507e-06,-0.006702,0.054192,-0.0026759,-0.0088552,0.021196,-4.8104e-05,-0.03485,0,0,0,0.035831,0.011003,0.0064921,0.01467,0.017776,0.027372,1.0155e-06,0,0.15,1
0.0027096,0.0010944,-0.0021537,0.030733,0.0082365,0.0052158,0.0037671,-3.5314e-05,-0.0048317,0.053395,-0.0050965,-0.01295,0.019589,-0.00018363,-0.025125,0,0,0,0.032521,0.0078682,0.003797,0.014362,0.014729,0.026942,9.5748e-07,0.05,0.15,1
0.0053395,0.0021164,-0.0037521,0.027312,0.0039284,0.0010865,0.0029985,-9.6677e-05,-0.002065,0.051614,-0.0091821,-0.016571,0.015592,-0.00050272,-0.010738,0,0,0,0.027933,0.0035611,0.0008319,0.013551,0.010775,0.025876,8.5603e-07,0.1,0.15,1
0.007871,0.0029885,-0.0048169,0.025685,0.0019651,0.00040091,0.0020877,-0.00015011,-0.00082425,0.04995,-0.011721,-0.015788,0.010856,-0.00078059,-0.0042861,0,0,0,0.025927,0.0017838,0.00033949,0.012794,0.0093502,0.024906,7.8566e-07,0.15,0.15,1
0.010335,0.0036749,-0.005557,0.024756,0.00093608,9.8896e-05,0.0012831,-0.00017038,-0.0003208,0.048891,-0.013041,-0.015218,0.0066722,-0.00088597,-0.0016682,0,0,0,0.024845,0.00090036,4.5894e-05,0.0124,0.0085971,0.024386,7.4302e-07,0.2,0.15,1
0.01276,0.0041895,-0.006081,0.024296,0.00042573,1.0458e-05,0.00067988,-0.00016492,-8.4746e-05,0.04833,-0.013732,-0.014812,0.0035354,-0.00085761,-0.00044068,0,0,0,0.024323,0.00047251,-6.3106e-05,0.012193,0.008244,0.024123,7.2071e-07,0.25,0.15,1
0.015168,0.0045629,-0.0064545,0.024097,0.00015463,-2.7275e-05,0.00026244,-0.00014495,3.192e-05,0.048118,-0.014133,-0.014606,0.0013647,-0.00075372,0.00016598,0,0,0,0.024103,0.00023968,-0.0001183,0.012111,0.0080749,0.024045,7.1411e-07,0.3,0.15,1
0.017572,0.0048259,-0.0067188,0.024077,1.0103e-05,-4.1657e-05,-1.187e-05,-0.00011814,9.1417e-05,0.048173,-0.014401,-0.014536,-6.1726e-05,-0.00061432,0.00047537,0,0,0,0.024078,0.0001093,-0.00014243,0.01211,0.0080151,0.024096,7.1883e-07,0.35,0.15,1
0.019985,0.0050049,-0.0069029,0.024171,-6.5996e-05,-4.6021e-05,-0.00018013,-8.8983e-05,0.00011941,0.048409,-0.014607,-0.014555,-0.0009367,-0.00046271,0.00062094,0,0,0,0.024173,3.4985e-05,-0.00014939,0.012161,0.0080197,0.024231,7.3102e-07,0.4,0.15,1
0.022413,0.0051221,-0.0070286,0.024332,-0.00010365,-4.546e-05,-0.0002701,-6.0416e-05,0.00012794,0.048754,-0.014779,-0.014628,-0.0014045,-0.00031417,0.00066528,0,0,0,0.024336,-6.7282e-06,-0.00014623,0.012241,0.008061,0.024413,7.4756e-07,0.45,0.15,1
0.02486,0.0051958,-0.0071129,0.024523,-0.0001194,-4.2597e-05,-0.00030246,-3.4753e-05,0.00012337,0.049143,-0.014927,-0.014727,-0.0015728,-0.00018071,0.00064151,0,0,0,0.024528,-2.7889e-05,-0.00013856,0.012333,0.0081204,0.024611,7.6586e-07,0.5,0.15,1
0.027327,0.0052408,-0.0071696,0.024716,-0.00012263,-3.8723e-05,-0.00029357,-1.3965e-05,0.00010985,0.049528,-0.015052,-0.014833,-0.0015266,-7.2617e-05,0.00057124,0,0,0,0.02472,-3.4924e-05,-0.00013051,0.012425,0.0081848,0.024803,7.8384e-07,0.55,0.15,1
0.029813,0.0052683,-0.007209,0.02489,-0.00011888,-3.4475e-05,-0.0002574,4.5517e-07,9.0798e-05,0.049872,-0.015151,-0.014932,-0.0013385,2.3669e-06,0.00047215,0,0,0,0.024893,-3.3315e-05,-0.00012315,0.012508,0.0082456,0.024971,7.9988e-07,0.6,0.15,1
0.032314,0.0052869,-0.0072389,0.025033,-0.00011152,-3.0187e-05,-0.00020624,7.7982e-06,6.9361e-05,0.050152,-0.015225,-0.015013,-0.0010725,4.0551e-05,0.00036068,0,0,0,0.025035,-2.8644e-05,-0.00011506,0.012575,0.0082972,0.025107,8.1295e-07,0.65,0.15,1
0.034828,0.0053017,-0.007264,0.02514,-0.00010273,-2.6115e-05,-0.00015075,8.361e-06,4.8413e-05,0.050358,-0.015274,-0.015075,-0.0007839,4.3477e-05,0.00025175,0,0,0,0.025142,-2.4598e-05,-0.00010533,0.012623,0.0083372,0.025207,8.226e-07,0.7,0.15,1
0.03735,0.0053157,-0.0072868,0.025212,-9.4002e-05,-2.2506e-05,-9.9337e-05,3.4348e-06,3.0251e-05,0.050494,-0.015302,-0.015116,-0.00051655,1.7861e-05,0.00015731,0,0,0,0.025213,-2.1712e-05,-9.5283e-05,0.012654,0.0083652,0.025271,8.2893e-07,0.75,0.15,1
0.039878,0.0053295,-0.0073079,0.025254,-8.6311e-05,-1.9575e-05,-5.7643e-05,-4.9651e-06,1.631e-05,0.050572,-0.015313,-0.01514,-0.00029974,-2.5818e-05,8.4812e-05,0,0,0,0.025254,-1.8355e-05,-8.7706e-05,0.012671,0.0083828,0.025307,8.3248e-07,0.8,0.15,1
0.042407,0.0053424,-0.0073265,0.025274,-8.0219e-05,-1.7434e-05,-2.8264e-05,-1.4529e-05,7.0482e-06,0.050607,-0.015315,-0.015151,-0.00014697,-7.5552e-05,3.6651e-05,0,0,0,0.025274,-1.3232e-05,-8.4469e-05,0.012679,0.0083922,0.025323,8.3402e-07,0.85,0.15,1
0.044938,0.0053533,-0.0073414,0.025281,-7.5938e-05,-1.6056e-05,-1.0905e-05,-2.3088e-05,2.0362e-06,0.050617,-0.015311,-0.015155,-5.6704e-05,-0.00012006,1.0588e-05,0,0,0,0.025281,-7.196e-06,-8.4808e-05,0.012683,0.0083963,0.025327,8.344e-07,0.9,0.15,1
0.047469,0.0053605,-0.007351,0.025282,-7.3442e-05,-1.532e-05,-3.7217e-07,-2.8936e-05,-3.1026e-06,0.050617,-0.015307,-0.015156,-1.9353e-06,-0.00015047,-1.6134e-05,0,0,0,0.025282,-2.4206e-06,-8.6346e-05,0.012684,0.0083977,0.025326,8.3432e-07,0.95,0.15,1
0.048735,0.005363,-0.0073543,0.025282,-7.2627e-05,-1.5093e-05,4.2795e-06,-3.1005e-05,-6.6944e-06,0.050616,-0.015305,-0.015156,2.2254e-05,-0.00016123,-3.4811e-05,0,0,0,0.025282,-6.3261e-07,-8.7094e-05,0.012684,0.0083979,0.025326,8.3424e-07,1,0.15,1
0.0013458,0.00044349,-0.0011937,0.032674,0.011439,0.0088144,0.0033145,-8.4531e-06,-0.0067586,0.053195,-0.0020151,-0.0088387,0.017235,-4.3956e-05,-0.035145,0,0,0,0.035204,0.011237,0.0064856,0.014359,0.017642,0.026676,9.2741e-07,0,0.2,1
0.0026598,0.00087736,-0.0021727,0.030298,0.0086746,0.0052084,0.003144,-2.9154e-05,-0.0048876,0.052267,-0.0039549,-0.012967,0.016349,-0.0001516,-0.025415,0,0,0,0.031963,0.0083911,0.0038277,0.014067,0.014727,0.026171,8.575e-07,0.05,0.2,1
0.0052267,0.0017092,-0.0037953,0.026923,0.004662,0.0011359,0.002678,-7.8209e-05,-0.0021147,0.050367,-0.0075111,-0.016679,0.013926,-0.00040669,-0.010997,0,0,0,0.027488,0.0043532,0.00087947,0.013304,0.010907,0.025079,7.5728e-07,0.1,0.2,1
0.0076964,0.0024437,-0.0048812,0.025371,0.0026102,0.00040582,0.0020364,-0.00012395,-0.00085661,0.048932,-0.010245,-0.015977,0.010589,-0.00064456,-0.0044544,0,0,0,0.025609,0.0024248,0.00035268,0.012628,0.0094622,0.024297,7.1857e-07,0.15,0.2,1
0.01012,0.0030468,-0.0056322,0.02461,0.001374,7.804e-05,0.0013741,-0.00014696,-0.00033161,0.048349,-0.012065,-0.015434,0.0071453,-0.00076417,-0.0017244,0,0,0,0.024709,0.0013041,4.8932e-05,0.01233,0.0086874,0.024062,7.0961e-07,0.2,0.2,1
0.012531,0.0035139,-0.0061574,0.024322,0.00069236,-9.7953e-06,0.00080641,-0.00014903,-7.9938e-05,0.048234,-0.013202,-0.015028,0.0041933,-0.00077494,-0.00041568,0,0,0,0.024356,0.00069913,-5.1165e-05,0.012204,0.0083347,0.024043,7.1215e-07,0.25,0.2,1
0.014943,0.0038592,-0.006525,0.02424,0.00030081,-4.0389e-05,0.00037122,-0.0001359,4.5763e-05,0.048324,-0.013918,-0.014805,0.0019303,-0.0007067,0.00023797,0,0,0,0.024249,0.00035154,-0.00010028,0.012175,0.0081669,0.024128,7.2108e-07,0.3,0.2,1
0.017364,0.0041041,-0.0067792,0.024285,7.717e-05,-4.8649e-05,6.2792e-05,-0.00011322,0.00010953,0.048552,-0.014387,-0.014714,0.00032652,-0.00058873,0.00056958,0,0,0,0.024287,0.00015291,-0.00012657,0.012207,0.0081044,0.024275,7.348e-07,0.35,0.2,1
0.019798,0.0042703,-0.0069509,0.024407,-4.8041e-05,-4.9078e-05,-0.0001388,-8.5434e-05,0.00013875,0.048873,-0.014711,-0.014714,-0.00072178,-0.00044426,0.0007215,0,0,0,0.024409,4.3871e-05,-0.00014322,0.012276,0.0081033,0.02446,7.5178e-07,0.4,0.2,1
0.022251,0.0043778,-0.0070636,0.024574,-0.00011434,-4.6449e-05,-0.00025473,-5.6209e-05,0.00014636,0.049244,-0.014945,-0.014769,-0.0013246,-0.00029229,0.00076106,0,0,0,0.024578,-1.0608e-05,-0.00015396,0.012366,0.0081377,0.02466,7.7043e-07,0.45,0.2,1
0.024723,0.0044438,-0.0071359,0.024757,-0.00014547,-4.278e-05,-0.00030409,-2.8826e-05,0.00013913,0.049627,-0.01512,-0.014853,-0.0015813,-0.00014989,0.0007235,0,0,0,0.024762,-3.2778e-05,-0.00016011,0.012461,0.0081896,0.024858,7.891e-07,0.5,0.2,1
0.027214,0.0044827,-0.0071825,0.024934,-0.00015605,-3.8767e-05,-0.00030396,-6.2593e-06,0.00012156,0.049985,-0.015249,-0.014944,-0.0015806,-3.2548e-05,0.00063209,0,0,0,0.024938,-3.6733e-05,-0.00016248,0.01255,0.0082463,0.025038,8.0628e-07,0.55,0.2,1
0.029721,0.0045057,-0.0072145,0.025087,-0.00015531,-3.4548e-05,-0.00027003,9.1426e-06,9.7521e-05,0.050288,-0.015342,-0.015028,-0.0014041,4.7542e-05,0.00050711,0,0,0,0.02509,-3.2489e-05,-0.00016076,0.012626,0.008299,0.025187,8.2072e-07,0.6,0.2,1
0.032243,0.004521,-0.0072399,0.025206,-0.0001491,-3.0126e-05,-0.00021681,1.6126e-05,7.091e-05,0.050519,-0.015404,-0.015094,-0.0011274,8.3857e-05,0.00036873,0,0,0,0.025208,-2.6868e-05,-0.00015453,0.012681,0.0083421,0.025299,8.3164e-07,0.65,0.2,1
0.034773,0.0045338,-0.0072636,0.025286,-0.00014112,-2.5633e-05,-0.00015713,1.486e-05,4.5412e-05,0.050673,-0.015439,-0.015138,-0.0008171,7.7274e-05,0.00023614,0,0,0,0.025287,-2.2859e-05,-0.00014505,0.012716,0.0083732,0.025372,8.3881e-07,0.7,0.2,1
0.03731,0.0045468,-0.0072875,0.025331,-0.00013363,-2.139e-05,-0.00010127,6.9131e-06,2.402e-05,0.050756,-0.015453,-0.015161,-0.00052662,3.5948e-05,0.0001249,0,0,0,0.025332,-2.0116e-05,-0.0001354,0.012734,0.0083921,0.02541,8.4259e-07,0.75,0.2,1
0.039849,0.0045604,-0.0073114,0.025348,-0.00012779,-1.7781e-05,-5.6152e-05,-5.1423e-06,8.5566e-06,0.050784,-0.015454,-0.015168,-0.00029199,-2.674e-05,4.4494e-05,0,0,0,0.025348,-1.6582e-05,-0.00012915,0.012739,0.0084008,0.025421,8.4373e-07,0.8,0.2,1
0.042388,0.0045736,-0.0073336,0.025347,-0.00012392,-1.5075e-05,-2.5002e-05,-1.8341e-05,-4.942e-07,0.050777,-0.015447,-0.015164,-0.00013001,-9.5371e-05,-2.5698e-06,0,0,0,0.025347,-1.1043e-05,-0.00012799,0.012737,0.0084026,0.025416,8.4323e-07,0.85,0.2,1
0.044926,0.0045848,-0.0073517,0.025337,-0.00012177,-1.3322e-05,-7.587e-06,-2.9922e-05,-3.8372e-06,0.050755,-0.015438,-0.015156,-3.9452e-05,-0.0001556,-1.9953e-05,0,0,0,0.025337,-4.5811e-06,-0.00013052,0.012734,0.0084006,0.025405,8.4206e-07,0.9,0.2,1
0.047464,0.0045923,-0.0073635,0.025328,-0.00012081,-1.2391e-05,1.7748e-06,-3.7749e-05,-7.1223e-06,0.050735,-0.015431,-0.015149,9.2288e-06,-0.0001963,-3.7036e-05,0,0,0,0.025328,4.9562e-07,-0.0001337,0.012731,0.0083981,0.025394,8.4102e-07,0.95,0.2,1
0.048732,0.0045949,-0.0073677,0.025324,-0.00012055,-1.2107e-05,5.6321e-06,-4.0505e-05,-1.001e-05,0.050727,-0.015428,-0.015146,2.9287e-05,-0.00021063,-5.2052e-05,0,0,0,0.025324,2.3916e-06,-0.00013506,0.012729,0.008397,0.02539,8.4061e-07,1,0.2,1
0.0013362,0.00035318,-0.0012018,0.03244,0.011518,0.0087715,0.0026615,-8.7371e-06,-0.0068133,0.052706,-0.0016906,-0.008832,0.01384,-4.5433e-05,-0.035429,0,0,0,0.03486,0.01138,0.0064896,0.014185,0.017577,0.026289,8.803e-07,0,0.25,1
0.0026353,0.00069894,-0.0021909,0.030061,0.0089062,0.0052023,0.0025551,-2.5621e-05,-0.0049383,0.051657,-0.0033457,-0.012976,0.013287,-0.00013323,-0.025679,0,0,0,0.031619,0.0087077,0.0038425,0.013889,0.014723,0.02571,7.9968e-07,0.05,0.25,1
0.0051657,0.0013653,-0.0038348,0.026666,0.0051076,0.0011641,0.0022507,-6.4881e-05,-0.0021575,0.04957,-0.0064831,-0.016736,0.011704,-0.00033738,-0.011219,0,0,0,0.027154,0.0048805,0.00090337,0.013125,0.010979,0.024527,6.9127e-07,0.1,0.25,1
0.0075923,0.0019639,-0.0049398,0.02512,0.0030936,0.0004206,0.0018006,-0.00010242,-0.00088717,0.048132,-0.0091371,-0.016087,0.0093633,-0.0005326,-0.0046133,0,0,0,0.025323,0.0029426,0.00036823,0.012478,0.0095448,0.023783,6.6329e-07,0.15,0.25,1
0.0099789,0.0024684,-0.0057023,0.024428,0.001773,7.4622e-05,0.0012935,-0.0001239,-0.00034629,0.047748,-0.011156,-0.015572,0.0067264,-0.0006443,-0.0018007,0,0,0,0.024518,0.0017021,5.5474e-05,0.012231,0.0087587,0.023689,6.7201e-07,0.2,0.25,1
0.012367,0.0028692,-0.0062306,0.024242,0.00097251,-2.1721e-05,0.00081582,-0.00012876,-8.0977e-05,0.047914,-0.012587,-0.015172,0.0042423,-0.00066954,-0.00042108,0,0,0,0.024277,0.00096006,-4.3988e-05,0.012161,0.0083977,0.023838,6.9213e-07,0.25,0.25,1
0.01477,0.0031711,-0.0065943,0.024259,0.00047714,-5.2325e-05,0.00041791,-0.00011978,5.4629e-05,0.048264,-0.01357,-0.014947,0.0021731,-0.00062287,0.00028407,0,0,0,0.02427,0.00050054,-8.6209e-05,0.012178,0.0082281,0.024069,7.1526e-07,0.3,0.25,1
0.017194,0.0033872,-0.0068394,0.024378,0.00017602,-5.7714e-05,0.00011618,-0.00010053,0.00012475,0.048686,-0.01424,-0.014848,0.00060412,-0.00052274,0.00064872,0,0,0,0.024381,0.00022199,-0.00010639,0.012244,0.0081655,0.024325,7.3923e-07,0.35,0.25,1
0.019639,0.0035338,-0.006999,0.02455,-1.8391e-06,-5.5287e-05,-9.2474e-05,-7.4616e-05,0.00015726,0.049135,-0.014701,-0.01484,-0.00048086,-0.000388,0.00081776,0,0,0,0.024552,6.3864e-05,-0.00012306,0.012338,0.0081643,0.024582,7.6315e-07,0.4,0.25,1
0.022107,0.0036276,-0.0070985,0.024746,-0.00010122,-5.0765e-05,-0.00021939,-4.5751e-05,0.00016543,0.049583,-0.01502,-0.014888,-0.0011408,-0.0002379,0.00086024,0,0,0,0.024749,-1.2708e-05,-0.00014266,0.012446,0.008198,0.024827,7.8616e-07,0.45,0.25,1
0.024597,0.0036839,-0.0071579,0.024943,-0.00015165,-4.6188e-05,-0.00027873,-1.7778e-05,0.00015623,0.050004,-0.015241,-0.014967,-0.0014494,-9.2447e-05,0.0008124,0,0,0,0.024947,-3.864e-05,-0.00016346,0.012555,0.0082483,0.025048,8.0727e-07,0.5,0.25,1
0.027107,0.0037158,-0.0071934,0.025121,-0.00017288,-4.1856e-05,-0.00028563,5.5221e-06,0.00013446,0.050371,-0.015393,-0.015053,-0.0014853,2.8715e-05,0.0006992,0,0,0,0.025125,-3.9301e-05,-0.00017952,0.012652,0.0083021,0.025235,8.2539e-07,0.55,0.25,1
0.029634,0.0037341,-0.0072174,0.025266,-0.00017815,-3.7396e-05,-0.00025559,2.1012e-05,0.00010469,0.050662,-0.015494,-0.015128,-0.001329,0.00010927,0.00054441,0,0,0,0.025269,-3.2219e-05,-0.00018647,0.012728,0.0083502,0.025379,8.3955e-07,0.6,0.25,1
0.032174,0.0037465,-0.0072385,0.025369,-0.00017621,-3.2418e-05,-0.00020387,2.6903e-05,7.1839e-05,0.050863,-0.015554,-0.015181,-0.0010601,0.0001399,0.00037356,0,0,0,0.025371,-2.5764e-05,-0.00018483,0.012778,0.0083868,0.025477,8.4924e-07,0.65,0.25,1
0.034721,0.0037579,-0.0072613,0.025428,-0.00017251,-2.6937e-05,-0.00014446,2.3237e-05,4.0752e-05,0.050975,-0.015586,-0.015207,-0.00075119,0.00012083,0.00021191,0,0,0,0.025429,-2.1885e-05,-0.00017855,0.012804,0.0084095,0.025529,8.5451e-07,0.7,0.25,1
0.037271,0.0037704,-0.0072874,0.025448,-0.00017006,-2.1425e-05,-8.8737e-05,1.1869e-05,1.5411e-05,0.05101,-0.015596,-0.015209,-0.00046143,6.1718e-05,8.0135e-05,0,0,0,0.025448,-1.925e-05,-0.00017262,0.01281,0.0084188,0.025544,8.5601e-07,0.75,0.25,1
0.039822,0.0037841,-0.0073153,0.025439,-0.00016995,-1.6555e-05,-4.4399e-05,-4.0631e-06,-1.8206e-06,0.05099,-0.015593,-0.015195,-0.00023087,-2.1128e-05,-9.467e-06,0,0,0,0.025439,-1.5314e-05,-0.00017131,0.012805,0.0084175,0.025533,8.5483e-07,0.8,0.25,1
0.04237,0.0037978,-0.0073423,0.025415,-0.00017192,-1.2846e-05,-1.5018e-05,-2.0959e-05,-1.0432e-05,0.05094,-0.015585,-0.015171,-7.8094e-05,-0.00010899,-5.4245e-05,0,0,0,0.025415,-9.0608e-06,-0.00017574,0.012795,0.0084099,0.025507,8.5226e-07,0.85,0.25,1
0.044916,0.0038095,-0.0073648,0.025387,-0.00017483,-1.0448e-05,-3.3386e-07,-3.5523e-05,-1.1502e-05,0.050885,-0.015575,-0.015148,-1.7361e-06,-0.00018472,-5.9811e-05,0,0,0,0.025387,-1.9954e-06,-0.0001833,0.012785,0.0084005,0.02548,8.4948e-07,0.9,0.25,1
0.047459,0.0038174,-0.0073797,0.025366,-0.00017732,-9.1912e-06,5.7315e-06,-4.5262e-05,-1.2352e-05,0.050843,-0.015569,-0.015131,2.9804e-05,-0.00023536,-6.4231e-05,0,0,0,0.025366,3.405e-06,-0.00018993,0.012778,0.0083931,0.02546,8.4742e-07,0.95,0.25,1
0.048729,0.0038202,-0.0073849,0.025358,-0.00017829,-8.8127e-06,7.8762e-06,-4.8673e-05,-1.4333e-05,0.050828,-0.015566,-0.015125,4.0956e-05,-0.0002531,-7.4534e-05,0,0,0,0.025358,5.3934e-06,-0.00019251,0.012775,0.0083903,0.025452,8.4667e-07,1,0.25,1
0.001332,0.00027443,-0.0012096,0.03233,0.011572,0.008755,0.0020765,-8.8613e-06,-0.0068647,0.052463,-0.001507,-0.0088309,0.010798,-4.6079e-05,-0.035696,0,0,0,0.034671,0.011484,0.0065008,0.014085,0.017552,0.026064,8.5326e-07,0,0.3,1
0.0026232,0.00054279,-0.0022078,0.029936,0.0090472,0.0052033,0.002006,-2.3237e-05,-0.004984,0.051321,-0.0029889,-0.012983,0.010431,-0.00012083,-0.025917,0,0,0,0.031412,0.0089196,0.0038546,0.013779,0.014729,0.025426,7.6437e-07,0.05,0.3,1
0.0051321,0.0010609,-0.00387,0.026502,0.0053852,0.0011818,0.001799,-5.5413e-05,-0.0021937,0.049064,-0.00584,-0.016769,0.0093549,-0.00028815,-0.011407,0,0,0,0.026918,0.0052349,0.00091665,0.013001,0.011023,0.024151,6.4724e-07,0.1,0.3,1
0.0075296,0.00153,-0.0049913,0.024933,0.0034259,0.00043286,0.0014818,-8.5649e-05,-0.00091387,0.047551,-0.008368,-0.01615,0.0077055,-0.00044537,-0.0047521,0,0,0,0.025093,0.00332,0.00037933,0.012357,0.0095974,0.023392,6.2209e-07,0.15,0.3,1
0.0098872,0.0019312,-0.0057642,0.024265,0.0020839,7.7532e-05,0.0011066,-0.00010384,-0.00036126,0.047233,-0.010438,-0.015654,0.0057543,-0.00053998,-0.0018785,0,0,0,0.024335,0.0020289,6.2241e-05,0.012136,0.0088088,0.023359,6.3928e-07,0.2,0.3,1
0.012253,0.0022552,-0.0062961,0.024135,0.0012189,-2.5907e-05,0.00073113,-0.0001089,-8.4846e-05,0.047554,-0.012028,-0.015264,0.0038019,-0.00056626,-0.0004412,0,0,0,0.024163,0.0012034,-3.8782e-05,0.012101,0.0084426,0.023609,6.7014e-07,0.25,0.3,1
0.014643,0.0025022,-0.0066569,0.02422,0.00065056,-5.9279e-05,0.00039896,-0.00010189,5.9996e-05,0.048086,-0.013195,-0.015041,0.0020746,-0.00052985,0.00031198,0,0,0,0.02423,0.00065971,-7.7791e-05,0.012154,0.0082705,0.023949,7.0377e-07,0.3,0.3,1
0.017061,0.0026801,-0.006894,0.024403,0.00028696,-6.4522e-05,0.00013324,-8.4883e-05,0.00013707,0.048673,-0.014029,-0.014943,0.00069287,-0.00044139,0.00071276,0,0,0,0.024406,0.00031062,-9.0944e-05,0.012249,0.0082086,0.0243,7.3671e-07,0.35,0.3,1
0.01951,0.0028003,-0.0070422,0.024628,6.2907e-05,-6.1091e-05,-5.9041e-05,-6.0562e-05,0.000174,0.049254,-0.014614,-0.014936,-0.00030701,-0.00031492,0.00090478,0,0,0,0.02463,0.00010024,-0.00010043,0.012365,0.0082098,0.024631,7.6764e-07,0.4,0.3,1
0.021987,0.0028759,-0.0071286,0.024862,-6.7234e-05,-5.5891e-05,-0.00018082,-3.2345e-05,0.00018379,0.049798,-0.015018,-0.014989,-0.00094028,-0.00016819,0.00095573,0,0,0,0.024865,-6.4115e-06,-0.00011972,0.012492,0.0082463,0.024928,7.9582e-07,0.45,0.3,1
0.02449,0.0029197,-0.0071751,0.025084,-0.00013656,-5.1264e-05,-0.00024057,-4.3294e-06,0.00017325,0.050281,-0.015293,-0.015071,-0.001251,-2.2513e-05,0.00090089,0,0,0,0.025088,-4.1296e-05,-0.00015023,0.012619,0.0082987,0.025184,8.2043e-07,0.5,0.3,1
0.027015,0.0029433,-0.0071996,0.025275,-0.0001691,-4.7203e-05,-0.00025003,1.9118e-05,0.00014733,0.05068,-0.015475,-0.015158,-0.0013002,9.9412e-05,0.00076611,0,0,0,0.025279,-4.037e-05,-0.00017942,0.012729,0.008353,0.025389,8.4057e-07,0.55,0.3,1
0.029558,0.0029563,-0.0072157,0.025422,-0.00018199,-4.2762e-05,-0.00022305,3.4192e-05,0.00011135,0.050978,-0.015591,-0.015229,-0.0011598,0.0001778,0.00057902,0,0,0,0.025424,-3.136e-05,-0.00019599,0.01281,0.008399,0.025538,8.5543e-07,0.6,0.3,1
0.032113,0.0029655,-0.0072328,0.025516,-0.00018689,-3.7095e-05,-0.00017437,3.8632e-05,7.1489e-05,0.051165,-0.015661,-0.015271,-0.0009067,0.00020089,0.00037174,0,0,0,0.025517,-2.4869e-05,-0.00020064,0.012859,0.0084305,0.02563,8.6465e-07,0.65,0.3,1
0.034674,0.0029753,-0.0072557,0.025557,-0.00019096,-3.0127e-05,-0.00011805,3.2384e-05,3.4084e-05,0.051246,-0.015698,-0.01528,-0.00061386,0.0001684,0.00017724,0,0,0,0.025558,-2.1591e-05,-0.0002002,0.012879,0.0084453,0.025669,8.6856e-07,0.7,0.3,1
0.037237,0.0029872,-0.0072851,0.025554,-0.0001977,-2.2635e-05,-6.5754e-05,1.7603e-05,4.3539e-06,0.05124,-0.015714,-0.015259,-0.00034192,9.1536e-05,2.264e-05,0,0,0,0.025554,-1.9099e-05,-0.00020149,0.012878,0.0084445,0.025665,8.6813e-07,0.75,0.3,1
0.039798,0.003001,-0.0073184,0.02552,-0.00020775,-1.5784e-05,-2.5349e-05,-2.0288e-06,-1.4677e-05,0.051175,-0.015718,-0.015219,-0.00013181,-1.0549e-05,-7.6321e-05,0,0,0,0.025521,-1.4426e-05,-0.00020919,0.012865,0.0084323,0.025633,8.6485e-07,0.8,0.3,1
0.042355,0.0030151,-0.0073515,0.025473,-0.0002197,-1.0499e-05,-3.895e-07,-2.2331e-05,-2.2503e-05,0.051083,-0.015717,-0.015173,-2.0255e-06,-0.00011612,-0.00011701,0,0,0,0.025473,-7.0657e-06,-0.00022318,0.012848,0.0084142,0.025589,8.6033e-07,0.85,0.3,1
0.044907,0.0030272,-0.0073795,0.025426,-0.00023106,-7.0942e-06,9.541e-06,-3.9562e-05,-2.0694e-05,0.050995,-0.015714,-0.015131,4.9613e-05,-0.00020572,-0.00010761,0,0,0,0.025426,8.0961e-07,-0.000239,0.012833,0.008396,0.025546,8.5601e-07,0.9,0.3,1
0.047454,0.0030354,-0.0073981,0.025393,-0.00023918,-5.3338e-06,1.0798e-05,-5.097e-05,-1.8606e-05,0.050933,-0.015711,-0.015103,5.6151e-05,-0.00026505,-9.6751e-05,0,0,0,0.025393,6.5678e-06,-0.00025111,0.012822,0.0083829,0.025517,8.5299e-07,0.95,0.3,1
0.048728,0.0030383,-0.0074046,0.025381,-0.00024213,-4.8102e-06,1.0571e-05,-5.4946e-05,-1.9527e-05,0.050911,-0.01571,-0.015093,5.4968e-05,-0.00028572,-0.00010154,0,0,0,0.025381,8.6385e-06,-0.0002556,0.012819,0.0083782,0.025506,8.5191e-07,1,0.3,1
0.0013305,0.00020248,-0.0012169,0.032285,0.011612,0.0087526,0.0015356,-8.7101e-06,-0.0069109,0.052351,-0.0013992,-0.0088327,0.0079852,-4.5293e-05,-0.035937,0,0,0,0.034574,0.011562,0.0065135,0.01403,0.01755,0.025938,8.3783e-07,0,0.35,1
0.0026176,0.00040005,-0.0022228,0.029874,0.0091371,0.0052087,0.001488,-2.1052e-05,-0.0050241,0.05114,-0.0027752,-0.012989,0.0077378,-0.00010947,-0.026125,0,0,0,0.031291,0.0090638,0.0038649,0.013713,0.01474,0.025253,7.4278e-07,0.05,0.35,1
0.005114,0.00078128,-0.0039004,0.0264,0.0055584,0.0011942,0.0013468,-4.7545e-05,-0.0022242,0.048749,-0.00544,-0.016787,0.0070034,-0.00024724,-0.011566,0,0,0,0.026757,0.0054706,0.00092486,0.012916,0.011051,0.023902,6.1834e-07,0.1,0.35,1
0.0074925,0.0011271,-0.005035,0.024802,0.0036433,0.00044215,0.0011267,-7.1525e-05,-0.00093643,0.047152,-0.0078596,-0.016183,0.0058591,-0.00037193,-0.0048694,0,0,0,0.02492,0.0035797,0.00038707,0.012267,0.009629,0.023113,5.9315e-07,0.15,0.35,1
0.0098292,0.0014247,-0.0058166,0.024135,0.0023031,8.1972e-05,0.00085962,-8.6012e-05,-0.00037495,0.046839,-0.0099239,-0.015699,0.00447,-0.00044726,-0.0019498,0,0,0,0.024183,0.0022686,6.8256e-05,0.012057,0.00884,0.023101,6.1412e-07,0.2,0.35,1
0.012176,0.0016665,-0.0063515,0.024033,0.001408,-2.5735e-05,0.00058221,-9.0054e-05,-8.9742e-05,0.047237,-0.011588,-0.015316,0.0030275,-0.00046828,-0.00046666,0,0,0,0.024052,0.0013969,-3.3868e-05,0.012043,0.0084718,0.023408,6.5103e-07,0.25,0.35,1
0.014553,0.0018516,-0.0067098,0.024162,0.0007958,-6.1645e-05,0.00032659,-8.385e-05,6.3162e-05,0.047884,-0.012869,-0.015098,0.0016983,-0.00043602,0.00032844,0,0,0,0.024169,0.00079954,-7.1994e-05,0.012121,0.0082989,0.023819,6.9155e-07,0.3,0.35,1
0.016965,0.0019842,-0.0069397,0.024394,0.00038971,-6.7874e-05,0.0001141,-6.8392e-05,0.00014701,0.048595,-0.013816,-0.015006,0.00059334,-0.00035564,0.00076446,0,0,0,0.024397,0.00040088,-8.1404e-05,0.012239,0.0082387,0.024241,7.3118e-07,0.35,0.35,1
0.019412,0.0020724,-0.0070773,0.024664,0.00013213,-6.487e-05,-4.4722e-05,-4.5567e-05,0.00018881,0.049288,-0.014495,-0.015007,-0.00023255,-0.00023695,0.00098183,0,0,0,0.024666,0.00014878,-8.3546e-05,0.012375,0.0082438,0.024635,7.6799e-07,0.4,0.35,1
0.021894,0.0021258,-0.0071513,0.024937,-2.0965e-05,-6.0394e-05,-0.0001477,-1.8374e-05,0.00020088,0.049922,-0.014968,-0.01507,-0.00076803,-9.5545e-05,0.0010446,0,0,0,0.02494,1.2539e-05,-9.6687e-05,0.012518,0.0082851,0.024982,8.01e-07,0.45,0.35,1
0.024405,0.0021546,-0.0071854,0.025188,-0.00010455,-5.6997e-05,-0.00019859,9.0725e-06,0.00018947,0.050472,-0.015288,-0.015164,-0.0010326,4.7177e-05,0.00098522,0,0,0,0.025191,-3.5405e-05,-0.00012934,0.01266,0.0083421,0.025273,8.2928e-07,0.5,0.35,1
0.026941,0.0021683,-0.0071993,0.025397,-0.00014604,-5.4238e-05,-0.00020552,3.2059e-05,0.00015949,0.050915,-0.015498,-0.015259,-0.0010687,0.00016671,0.00082936,0,0,0,0.0254,-3.6992e-05,-0.00016614,0.012783,0.008399,0.025502,8.5186e-07,0.55,0.35,1
0.029496,0.002175,-0.0072081,0.025551,-0.0001661,-5.0424e-05,-0.00017985,4.6309e-05,0.00011701,0.051231,-0.015632,-0.015332,-0.0009352,0.00024081,0.00060846,0,0,0,0.025553,-2.8807e-05,-0.00018969,0.012871,0.0084447,0.025662,8.6793e-07,0.6,0.35,1
0.032064,0.0021805,-0.007222,0.02564,-0.00017909,-4.4124e-05,-0.00013478,4.9208e-05,6.9644e-05,0.051414,-0.015716,-0.015365,-0.00070084,0.00025588,0.00036215,0,0,0,0.025641,-2.3828e-05,-0.00020043,0.012921,0.0084723,0.025754,8.7719e-07,0.65,0.35,1
0.034638,0.0021881,-0.0072459,0.025668,-0.00019361,-3.5208e-05,-8.3462e-05,4.0647e-05,2.5466e-05,0.051472,-0.015767,-0.015355,-0.000434,0.00021136,0.00013243,0,0,0,0.025668,-2.198e-05,-0.00020725,0.012938,0.0084796,0.025783,8.8016e-07,0.7,0.35,1
0.037211,0.0021989,-0.0072798,0.025644,-0.00021325,-2.4954e-05,-3.6978e-05,2.3041e-05,-8.854e-06,0.051431,-0.015798,-0.015308,-0.00019228,0.00011981,-4.6041e-05,0,0,0,0.025644,-1.9675e-05,-0.00021867,0.012931,0.0084686,0.025764,8.7817e-07,0.75,0.35,1
0.039781,0.0022123,-0.0073198,0.025587,-0.00023761,-1.5288e-05,-2.7423e-06,5.1366e-07,-2.956e-05,0.051326,-0.015818,-0.01524,-1.426e-05,2.6711e-06,-0.00015371,0,0,0,0.025587,-1.3767e-05,-0.00023921,0.012913,0.0084447,0.025714,8.7307e-07,0.8,0.35,1
0.042344,0.0022261,-0.0073601,0.025517,-0.00026351,-7.7552e-06,1.6078e-05,-2.2325e-05,-3.6209e-05,0.051197,-0.015833,-0.015168,8.3608e-05,-0.00011609,-0.00018829,0,0,0,0.025517,-4.8117e-06,-0.00026655,0.012892,0.0084152,0.025654,8.6682e-07,0.85,0.35,1
0.0449,0.0022381,-0.0073944,0.025452,-0.00028655,-2.9144e-06,2.0174e-05,-4.1451e-05,-3.0994e-05,0.051078,-0.015843,-0.015105,0.00010491,-0.00021555,-0.00016117,0,0,0,0.025452,4.0733e-06,-0.00029361,0.012873,0.0083876,0.025599,8.6114e-07,0.9,0.35,1
0.047452,0.0022463,-0.0074173,0.025408,-0.00030243,-4.3918e-07,1.597e-05,-5.4e-05,-2.5591e-05,0.050997,-0.015849,-0.015064,8.3044e-05,-0.0002808,-0.00013307,0,0,0,0.025408,1.0193e-05,-0.0003131,0.01286,0.0083683,0.025561,8.5727e-07,0.95,0.35,1
0.048726,0.0022492,-0.0074254,0.025392,-0.00030808,2.8893e-07,1.3098e-05,-5.8353e-05,-2.5358e-05,0.050968,-0.015851,-0.01505,6.8109e-05,-0.00030343,-0.00013186,0,0,0,0.025392,1.2324e-05,-0.00032015,0.012856,0.0083614,0.025547,8.559e-07,1,0.35,1
0.0013304,0.00013451,-0.0012231,0.032276,0.011641,0.0087575,0.0010214,-8.15e-06,-0.0069504,0.052313,-0.0013384,-0.0088352,0.0053112,-4.238e-05,-0.036142,0,0,0,0.034533,0.011617,0.0065247,0.014004,0.017558,0.025873,8.2977e-07,0,0.4,1
0.0026157,0.00026527,-0.0022354,0.029849,0.0091931,0.0052162,0.00099072,-1.8468e-05,-0.0050578,0.051053,-0.0026532,-0.012993,0.0051517,-9.6035e-05,-0.026301,0,0,0,0.031227,0.0091581,0.0038731,0.013677,0.014753,0.025155,7.3037e-07,0.05,0.4,1
0.0051053,0.00051686,-0.0039253,0.026341,0.0056606,0.0012035,0.00089907,-3.967e-05,-0.002249,0.048564,-0.0052058,-0.016794,0.0046752,-0.00020628,-0.011695,0,0,0,0.026657,0.0056185,0.00093036,0.012863,0.011068,0.023747,6.0046e-07,0.1,0.4,1
0.0074721,0.00074406,-0.0050703,0.024715,0.0037742,0.0004492,0.00075567,-5.7914e-05,-0.00095484,0.046896,-0.00755,-0.016195,0.0039295,-0.00030115,-0.0049652,0,0,0,0.024802,0.0037434,0.00039265,0.012205,0.009646,0.022928,5.7441e-07,0.15,0.4,1
0.0097949,0.00093886,-0.0058584,0.024042,0.002441,8.6509e-05,0.00057975,-6.8659e-05,-0.00038669,0.046567,-0.0095948,-0.015716,0.0030147,-0.00035702,-0.0020108,0,0,0,0.024071,0.0024243,7.3522e-05,0.011999,0.0088563,0.02292,5.9686e-07,0.2,0.4,1
0.012129,0.0010963,-0.0063953,0.023952,0.0015337,-2.3331e-05,0.00039313,-7.1238e-05,-9.4667e-05,0.046998,-0.01129,-0.015338,0.0020443,-0.00037044,-0.00049227,0,0,0,0.023963,0.0015286,-2.8766e-05,0.011996,0.0084875,0.023256,6.3689e-07,0.25,0.4,1
0.014495,0.0012153,-0.0067511,0.024108,0.00089896,-6.0764e-05,0.00021672,-6.5414e-05,6.4963e-05,0.047712,-0.01263,-0.015125,0.0011269,-0.00034015,0.00033781,0,0,0,0.024111,0.00090118,-6.6578e-05,0.012089,0.0083152,0.023711,6.8146e-07,0.3,0.4,1
0.0169,0.0012984,-0.0069745,0.024373,0.00046919,-6.8063e-05,6.644e-05,-5.1476e-05,0.00015499,0.048505,-0.013644,-0.015041,0.00034549,-0.00026768,0.00080593,0,0,0,0.024374,0.00047433,-7.5016e-05,0.012225,0.0082579,0.024181,7.2545e-07,0.35,0.4,1
0.019345,0.0013508,-0.0071024,0.024678,0.00019268,-6.6274e-05,-4.789e-05,-3.0626e-05,0.00020164,0.049279,-0.014381,-0.015055,-0.00024903,-0.00015926,0.0010485,0,0,0,0.02468,0.00019823,-7.3906e-05,0.012377,0.008268,0.024619,7.665e-07,0.4,0.4,1
0.021828,0.0013791,-0.0071649,0.024983,2.7311e-05,-6.3669e-05,-0.00012208,-5.373e-06,0.00021628,0.049988,-0.014897,-0.015134,-0.00063483,-2.794e-05,0.0011246,0,0,0,0.024986,4.2366e-05,-8.1438e-05,0.012534,0.0083155,0.025006,8.033e-07,0.45,0.4,1
0.024344,0.0013909,-0.0071876,0.025261,-6.3119e-05,-6.2771e-05,-0.00015681,2.0397e-05,0.00020432,0.050598,-0.015245,-0.015244,-0.00081542,0.00010606,0.0010625,0,0,0,0.025264,-1.8674e-05,-0.00011006,0.012687,0.0083784,0.025328,8.3472e-07,0.5,0.4,1
0.026888,0.0013935,-0.0071919,0.02549,-0.00010888,-6.2452e-05,-0.00015702,4.1943e-05,0.00017047,0.051082,-0.015474,-0.015353,-0.0008165,0.0002181,0.00088646,0,0,0,0.025492,-2.7437e-05,-0.00014621,0.012819,0.0084394,0.025579,8.5959e-07,0.55,0.4,1
0.029452,0.0013931,-0.0071943,0.025652,-0.00013375,-6.0003e-05,-0.00013123,5.4818e-05,0.00012146,0.051419,-0.015622,-0.015431,-0.0006824,0.00028505,0.00063159,0,0,0,0.025653,-2.3696e-05,-0.0001715,0.012912,0.008486,0.025751,8.7696e-07,0.6,0.4,1
0.03203,0.001394,-0.007206,0.025739,-0.0001545,-5.3229e-05,-9.033e-05,5.6249e-05,6.644e-05,0.051603,-0.015721,-0.015457,-0.00046971,0.00029249,0.00034549,0,0,0,0.02574,-2.2368e-05,-0.00018601,0.012963,0.0085105,0.025844,8.8649e-07,0.65,0.4,1
0.034612,0.0013986,-0.007232,0.025755,-0.00018078,-4.1964e-05,-4.5655e-05,4.611e-05,1.5386e-05,0.051644,-0.015789,-0.015429,-0.00023741,0.00023977,8.0009e-05,0,0,0,0.025755,-2.3137e-05,-0.00019981,0.012978,0.0085108,0.025867,8.8883e-07,0.7,0.4,1
0.037194,0.0014074,-0.0072713,0.025713,-0.00021577,-2.8199e-05,-6.8724e-06,2.6956e-05,-2.3459e-05,0.051573,-0.015843,-0.015355,-3.5736e-05,0.00014017,-0.00012199,0,0,0,0.025714,-2.1047e-05,-0.00022302,0.012968,0.0084898,0.025836,8.8558e-07,0.75,0.4,1
0.03977,0.0014192,-0.0073188,0.025635,-0.00025741,-1.4905e-05,1.9656e-05,3.1091e-06,-4.5591e-05,0.051434,-0.015887,-0.015257,0.00010221,1.6167e-05,-0.00023707,0,0,0,0.025635,-1.3251e-05,-0.00025921,0.012947,0.0084543,0.025773,8.7896e-07,0.8,0.4,1
0.042337,0.0014318,-0.007367,0.025545,-0.00030023,-4.4674e-06,3.1473e-05,-2.068e-05,-5.0716e-05,0.051272,-0.015925,-0.015156,0.00016366,-0.00010754,-0.00026372,0,0,0,0.025545,-2.1835e-06,-0.00030269,0.012924,0.0084133,0.025699,8.7128e-07,0.85,0.4,1
0.044897,0.0014429,-0.0074082,0.025463,-0.0003374,2.2214e-06,2.9598e-05,-4.0371e-05,-4.1754e-05,0.051128,-0.015954,-0.015071,0.00015391,-0.00020993,-0.00021712,0,0,0,0.025464,7.8493e-06,-0.00034316,0.012903,0.0083761,0.025633,8.6448e-07,0.9,0.4,1
0.04745,0.0014505,-0.0074357,0.025408,-0.00036262,5.6098e-06,2.0183e-05,-5.3184e-05,-3.2867e-05,0.05103,-0.015973,-0.015016,0.00010495,-0.00027656,-0.00017091,0,0,0,0.025408,1.4285e-05,-0.00037136,0.01289,0.0083504,0.025589,8.599e-07,0.95,0.4,1
0.048726,0.0014532,-0.0074453,0.025389,-0.00037154,6.5972e-06,1.4813e-05,-5.7609e-05,-3.1466e-05,0.050996,-0.01598,-0.014997,7.7027e-05,-0.00029957,-0.00016362,0,0,0,0.025389,1.6436e-05,-0.00038143,0.012885,0.0083412,0.025573,8.583e-07,1,0.4,1
0.001331,6.8636e-05,-0.001228,0.032287,0.01166,0.0087655,0.00052133,-7.0677e-06,-0.0069814,0.052318,-0.0013107,-0.0088371,0.0027109,-3.6752e-05,-0.036304,0,0,0,0.034527,0.011652,0.0065327,0.013997,0.017571,0.025853,8.2682e-07,0,0.45,1
0.0026159,0.00013473,-0.0022452,0.029848,0.0092233,0.005224,0.00050462,-1.5066e-05,-0.0050841,0.051027,-0.0025965,-0.012995,0.002624,-7.8345e-05,-0.026437,0,0,0,0.031205,0.0092114,0.0038789,0.013663,0.014765,0.025112,7.2469e-07,0.05,0.45,1
0.0051027,0.0002607,-0.0039442,0.026314,0.0057103,0.0012103,0.0004546,-3.0664e-05,-0.0022679,0.048475,-0.005094,-0.016794,0.0023639,-0.00015945,-0.011793,0,0,0,0.026604,0.005696,0.00093407,0.012835,0.011078,0.023666,5.9122e-07,0.1,0.45,1
0.0074634,0.00037213,-0.0050963,0.024666,0.0038373,0.00045448,0.000377,-4.3146e-05,-0.00096884,0.046757,-0.0073975,-0.016193,0.0019604,-0.00022436,-0.005038,0,0,0,0.024734,0.0038272,0.00039676,0.012169,0.0096526,0.022826,5.6428e-07,0.15,0.45,1
0.0097784,0.00046519,-0.0058886,0.023984,0.002509,9.0629e-05,0.00028225,-5.0051e-05,-0.00039594,0.046409,-0.009427,-0.015715,0.0014677,-0.00026027,-0.0020589,0,0,0,0.024002,0.0025038,7.807e-05,0.011962,0.0088613,0.022815,5.8712e-07,0.2,0.45,1
0.012104,0.00053749,-0.0064264,0.023899,0.0015979,-1.99e-05,0.00018095,-5.1019e-05,-9.8965e-05,0.04685,-0.011131,-0.015338,0.00094095,-0.0002653,-0.00051462,0,0,0,0.023903,0.0015969,-2.3605e-05,0.011963,0.0084922,0.023164,6.2846e-07,0.25,0.45,1
0.014463,0.00058855,-0.0067795,0.024067,0.00095472,-5.7859e-05,8.395e-05,-4.563e-05,6.5914e-05,0.047596,-0.012496,-0.015129,0.00043654,-0.00023728,0.00034275,0,0,0,0.024069,0.00095623,-6.0927e-05,0.012065,0.0083214,0.02364,6.7498e-07,0.3,0.45,1
0.016864,0.0006198,-0.0069969,0.024352,0.00051646,-6.5893e-05,4.5942e-07,-3.3725e-05,0.00016115,0.048434,-0.013539,-0.015053,2.389e-06,-0.00017537,0.00083797,0,0,0,0.024354,0.00051858,-6.9499e-05,0.012212,0.0082676,0.024136,7.2128e-07,0.35,0.45,1
0.019307,0.00063427,-0.0071164,0.024681,0.0002347,-6.5586e-05,-6.2777e-05,-1.5937e-05,0.0002122,0.04926,-0.0143,-0.01508,-0.00032644,-8.2871e-05,0.0011034,0,0,0,0.024683,0.00023611,-6.9214e-05,0.012376,0.0082832,0.024601,7.6479e-07,0.4,0.45,1
0.02179,0.0006361,-0.007169,0.02501,6.811e-05,-6.5556e-05,-0.00010178,5.8125e-06,0.00022937,0.050018,-0.01483,-0.015178,-0.00052926,3.0225e-05,0.0011927,0,0,0,0.025012,7.4822e-05,-7.4995e-05,0.012544,0.0083374,0.025013,8.0401e-07,0.45,0.45,1
0.024309,0.00063007,-0.0071819,0.025309,-2.0852e-05,-6.8085e-05,-0.0001156,2.816e-05,0.00021711,0.050672,-0.015186,-0.015309,-0.00060114,0.00014643,0.001129,0,0,0,0.025312,5.4314e-06,-9.6985e-05,0.012704,0.0084067,0.025358,8.3761e-07,0.5,0.45,1
0.026857,0.00062093,-0.0071779,0.025553,-6.509e-05,-7.1117e-05,-0.00010659,4.6769e-05,0.00017974,0.051188,-0.015419,-0.015435,-0.00055429,0.0002432,0.00093463,0,0,0,0.025555,-1.2053e-05,-0.00012609,0.012841,0.0084724,0.025625,8.6421e-07,0.55,0.45,1
0.029427,0.00061276,-0.0071752,0.025723,-9.1187e-05,-7.0673e-05,-8.0313e-05,5.7454e-05,0.00012457,0.051544,-0.015574,-0.015521,-0.00041763,0.00029876,0.00064776,0,0,0,0.025724,-1.5163e-05,-0.00014776,0.012936,0.0085205,0.025806,8.8261e-07,0.6,0.45,1
0.032011,0.0006084,-0.0071857,0.02581,-0.00011791,-6.3626e-05,-4.4709e-05,5.7569e-05,6.2273e-05,0.051728,-0.015684,-0.015542,-0.00023248,0.00029936,0.00032382,0,0,0,0.02581,-1.994e-05,-0.00016199,0.012986,0.0085427,0.025901,8.9239e-07,0.65,0.45,1
0.0346,0.00060913,-0.0072144,0.025816,-0.00015556,-4.9774e-05,-8.4687e-06,4.7005e-05,4.7327e-06,0.051756,-0.015771,-0.015496,-4.4037e-05,0.00024443,2.461e-05,0,0,0,0.025816,-2.5016e-05,-0.00018043,0.012998,0.008537,0.02592,8.9425e-07,0.7,0.45,1
0.037187,0.00061468,-0.0072597,0.025759,-0.00020642,-3.199e-05,2.0924e-05,2.8231e-05,-3.8245e-05,0.051661,-0.015849,-0.015396,0.0001088,0.0001468,-0.00019887,0,0,0,0.025759,-2.3265e-05,-0.00021529,0.012987,0.0085069,0.025879,8.9001e-07,0.75,0.45,1
0.039766,0.00062355,-0.007315,0.025663,-0.00026637,-1.4515e-05,3.87e-05,5.3761e-06,-6.1459e-05,0.051494,-0.015922,-0.015267,0.00020124,2.7956e-05,-0.00031959,0,0,0,0.025663,-1.2871e-05,-0.00026827,0.012966,0.0084606,0.025805,8.8221e-07,0.8,0.45,1
0.042336,0.00063363,-0.0073712,0.025554,-0.00032724,-7.3904e-07,4.3341e-05,-1.7104e-05,-6.4841e-05,0.051306,-0.015987,-0.015138,0.00022537,-8.8942e-05,-0.00033717,0,0,0,0.025555,7.4181e-07,-0.00032899,0.012942,0.0084088,0.02572,8.7342e-07,0.85,0.45,1
0.044897,0.00064271,-0.0074191,0.025459,-0.00037949,8.061e-06,3.6151e-05,-3.5516e-05,-5.21e-05,0.051141,-0.016039,-0.015032,0.00018798,-0.00018468,-0.00027092,0,0,0,0.025459,1.1949e-05,-0.00038357,0.012921,0.0083625,0.025647,8.6576e-07,0.9,0.45,1
0.04745,0.00064895,-0.0074512,0.025394,-0.00041467,1.2483e-05,2.2551e-05,-4.7406e-05,-3.9849e-05,0.05103,-0.016073,-0.014963,0.00011726,-0.00024651,-0.00020722,0,0,0,0.025394,1.861e-05,-0.00042089,0.012908,0.0083307,0.025598,8.6067e-07,0.95,0.45,1
0.048726,0.00065116,-0.0074624,0.025372,-0.00042706,1.3762e-05,1.519e-05,-5.1496e-05,-3.7364e-05,0.050991,-0.016085,-0.014939,7.8986e-05,-0.00026778,-0.0001943,0,0,0,0.025372,2.0738e-05,-0.00043411,0.012903,0.0083194,0.025581,8.589e-07,1,0.45,1
0.001332,3.44e-06,-0.0012313,0.032307,0.01167,0.0087741,2.5677e-05,-5.3978e-06,-0.0070023,0.052347,-0.0013087,-0.0088378,0.00013352,-2.8069e-05,-0.036412,0,0,0,0.034547,0.011667,0.0065367,0.014005,0.017584,0.025864,8.2776e-07,0,0.5,1
0.0026174,5.6182e-06,-0.0022516,0.02986,0.0092319,0.005231,2.1772e-05,-1.0604e-05,-0.0051016,0.051043,-0.002591,-0.012994,0.00011321,-5.5141e-05,-0.026528,0,0,0,0.031213,0.0092282,0.0038818,0.013666,0.014774,0.025113,7.2441e-07,0.05,0.5,1
0.0051043,7.4673e-06,-0.0039561,0.026311,0.0057177,0.0012149,1.0258e-05,-1.9848e-05,-0.0022803,0.048463,-0.0050802,-0.016788,5.3344e-05,-0.00010321,-0.011857,0,0,0,0.026594,0.0057132,0.0009363,0.012829,0.011081,0.023648,5.893e-07,0.1,0.5,1
0.0074636,4.3076e-06,-0.0051121,0.024651,0.0038446,0.00045801,-5.9531e-06,-2.6119e-05,-0.00097789,0.04672,-0.007376,-0.016181,-3.0955e-05,-0.00013582,-0.005085,0,0,0,0.024712,0.0038412,0.00039954,0.012156,0.0096511,0.022797,5.6178e-07,0.15,0.5,1
0.0097763,-3.8368e-06,-0.0059062,0.023962,0.0025161,9.3917e-05,-2.3718e-05,-2.8907e-05,-0.00040212,0.046358,-0.0094016,-0.015699,-0.00012333,-0.00015031,-0.002091,0,0,0,0.023976,0.0025142,8.168e-05,0.011947,0.0088574,0.022783,5.8447e-07,0.2,0.5,1
0.012099,-1.6826e-05,-0.0064435,0.023875,0.0016049,-1.633e-05,-4.1977e-05,-2.8183e-05,-0.00010206,0.046798,-0.011106,-0.015321,-0.00021828,-0.00014655,-0.00053071,0,0,0,0.023879,0.0016043,-1.8919e-05,0.011949,0.008488,0.023133,6.2592e-07,0.25,0.5,1
0.014456,-3.4271e-05,-0.0067938,0.024048,0.00096255,-5.401e-05,-5.9226e-05,-2.352e-05,6.6375e-05,0.04755,-0.012471,-0.015114,-0.00030798,-0.0001223,0.00034515,0,0,0,0.024049,0.00096274,-5.5468e-05,0.012052,0.0083187,0.023614,6.7277e-07,0.3,0.5,1
0.016854,-5.5445e-05,-0.0070062,0.02434,0.00052758,-6.2309e-05,-7.3407e-05,-1.4502e-05,0.00016546,0.048402,-0.013512,-0.015045,-0.00038172,-7.5412e-05,0.00086037,0,0,0,0.024342,0.00052793,-6.435e-05,0.012203,0.0082686,0.024117,7.1961e-07,0.35,0.5,1
0.019296,-7.92e-05,-0.0071188,0.02468,0.00025207,-6.3365e-05,-8.1988e-05,-1.2819e-06,0.00022,0.049247,-0.014266,-0.015086,-0.00042634,-6.6661e-06,0.001144,0,0,0,0.024682,0.00025263,-6.6345e-05,0.012374,0.0082896,0.024591,7.6386e-07,0.4,0.5,1
0.021779,-0.00010393,-0.0071637,0.025022,9.4068e-05,-6.6063e-05,-8.2462e-05,1.4921e-05,0.00023931,0.050028,-0.014786,-0.015202,-0.0004288,7.7589e-05,0.0012444,0,0,0,0.025025,9.8407e-05,-7.3165e-05,0.012549,0.0083501,0.025013,8.04e-07,0.45,0.5,1
0.024299,-0.00012769,-0.0071689,0.025335,1.4184e-05,-7.2338e-05,-7.3211e-05,3.1613e-05,0.00022688,0.050704,-0.015129,-0.015354,-0.0003807,0.00016439,0.0011798,0,0,0,0.025337,2.9492e-05,-9.0133e-05,0.012714,0.0084255,0.025368,8.3859e-07,0.5,0.5,1
0.02685,-0.00014841,-0.0071587,0.025589,-2.2965e-05,-7.9092e-05,-5.4421e-05,4.538e-05,0.00018659,0.051239,-0.015352,-0.015498,-0.00028299,0.00023598,0.00097027,0,0,0,0.025591,7.1782e-06,-0.00011097,0.012851,0.0084956,0.025643,8.6605e-07,0.55,0.5,1
0.029423,-0.00016433,-0.0071525,0.025764,-4.6323e-05,-8.0975e-05,-2.8573e-05,5.2829e-05,0.0001262,0.051604,-0.015502,-0.015593,-0.00014858,0.00027471,0.00065624,0,0,0,0.025765,-2.4121e-06,-0.00012576,0.012945,0.0085456,0.025829,8.85e-07,0.6,0.5,1
0.03201,-0.0001744,-0.0071628,0.025849,-7.6174e-05,-7.3861e-05,-1.31e-07,5.1795e-05,5.7701e-05,0.051788,-0.015618,-0.015612,-6.8123e-07,0.00026933,0.00030004,0,0,0,0.025849,-1.5243e-05,-0.00013509,0.012992,0.0085664,0.025925,8.9484e-07,0.65,0.5,1
0.034602,-0.00017849,-0.0071946,0.025848,-0.00012302,-5.751e-05,2.5608e-05,4.2213e-05,-5.3128e-06,0.051805,-0.01572,-0.01555,0.00013316,0.00021951,-2.7627e-05,0,0,0,0.025848,-2.7011e-05,-0.00015366,0.013001,0.0085559,0.025939,8.9629e-07,0.7,0.5,1
0.03719,-0.00017748,-0.0072457,0.025779,-0.000188,-3.5724e-05,4.402e-05,2.616e-05,-5.1647e-05,0.051692,-0.015822,-0.015426,0.0002289,0.00013603,-0.00026856,0,0,0,0.025779,-2.6197e-05,-0.00019777,0.012988,0.0085183,0.025891,8.9131e-07,0.75,0.5,1
0.039771,-0.00017296,-0.0073082,0.025668,-0.00026473,-1.4072e-05,5.2352e-05,7.0598e-06,-7.553e-05,0.051503,-0.015922,-0.01527,0.00027223,3.6711e-05,-0.00039276,0,0,0,0.025668,-1.2668e-05,-0.00026651,0.012967,0.008463,0.025809,8.8266e-07,0.8,0.5,1
0.042341,-0.00016684,-0.0073718,0.025546,-0.0003423,3.0234e-06,5.0131e-05,-1.1457e-05,-7.7165e-05,0.051295,-0.016014,-0.015116,0.00026068,-5.9577e-05,-0.00040126,0,0,0,0.025546,3.684e-06,-0.00034334,0.012945,0.0084022,0.025718,8.731e-07,0.85,0.5,1
0.0449,-0.00016098,-0.0074258,0.025439,-0.00040857,1.3904e-05,3.8816e-05,-2.646e-05,-6.1014e-05,0.051115,-0.016089,-0.014991,0.00020184,-0.00013759,-0.00031727,0,0,0,0.025439,1.5957e-05,-0.00041087,0.012925,0.0083482,0.02564,8.6489e-07,0.9,0.5,1
0.047452,-0.00015685,-0.0074619,0.025368,-0.00045301,1.9335e-05,2.2554e-05,-3.6075e-05,-4.5865e-05,0.050995,-0.016138,-0.01491,0.00011728,-0.00018759,-0.0002385,0,0,0,0.025368,2.2741e-05,-0.00045654,0.012912,0.0083113,0.025588,8.5947e-07,0.95,0.5,1
0.048727,-0.00015537,-0.0074745,0.025343,-0.00046863,2.0896e-05,1.3942e-05,-3.9369e-05,-4.2494e-05,0.050954,-0.016155,-0.014883,7.25e-05,-0.00020472,-0.00022097,0,0,0,0.025343,2.481e-05,-0.00047263,0.012908,0.0082983,0.02557,8.5759e-07,1,0.5,1
0.0013332,-6.2232e-05,-0.0012328,0.032333,0.01167,0.0087822,-0.00047367,-3.1666e-06,-0.0070116,0.052395,-0.0013289,-0.0088375,-0.0024631,-1.6466e-05,-0.03646,0,0,0,0.034586,0.011663,0.0065362,0.014025,0.017595,0.025904,8.321e-07,0,0.55,1
0.0026197,-0.00012437,-0.0022542,0.029884,0.0092209,0.0052362,-0.00046465,-5.0495e-06,-0.0051092,0.051094,-0.0026302,-0.012991,-0.0024162,-2.6257e-05,-0.026568,0,0,0,0.031249,0.0092105,0.0038818,0.013683,0.01478,0.025154,7.2903e-07,0.05,0.55,1
0.0051094,-0.00024732,-0.0039603,0.026331,0.0056875,0.0012168,-0.00043726,-6.9858e-06,-0.0022851,0.048519,-0.0051535,-0.016777,-0.0022738,-3.6326e-05,-0.011882,0,0,0,0.026624,0.0056743,0.00093697,0.012843,0.011078,0.023691,5.9419e-07,0.1,0.55,1
0.0074716,-0.00036548,-0.0051167,0.024667,0.0038017,0.0004595,-0.00039143,-6.3395e-06,-0.00098123,0.046778,-0.0074728,-0.016163,-0.0020354,-3.2966e-05,-0.0051024,0,0,0,0.024737,0.0037909,0.00040079,0.012168,0.0096429,0.02284,5.665e-07,0.15,0.55,1
0.0097872,-0.00047496,-0.0059101,0.023975,0.0024677,9.5865e-05,-0.00033136,-4.5891e-06,-0.00040453,0.046413,-0.0095073,-0.015674,-0.0017231,-2.3863e-05,-0.0021036,0,0,0,0.023995,0.0024604,8.3834e-05,0.011955,0.0088463,0.022823,5.8867e-07,0.2,0.55,1
0.012113,-0.00057308,-0.0064456,0.023884,0.0015584,-1.3396e-05,-0.00026547,-2.0934e-06,-0.0001034,0.046841,-0.011205,-0.015292,-0.0013804,-1.0886e-05,-0.00053766,0,0,0,0.02389,0.0015542,-1.5555e-05,0.011953,0.0084763,0.023165,6.2925e-07,0.25,0.55,1
0.014471,-0.00065855,-0.0067931,0.024051,0.00092426,-5.0165e-05,-0.00020164,1.4629e-06,6.6616e-05,0.047578,-0.012552,-0.015086,-0.0010485,7.6069e-06,0.0003464,0,0,0,0.024054,0.00092237,-5.1216e-05,0.012053,0.0083084,0.023636,6.7501e-07,0.3,0.55,1
0.016871,-0.00073137,-0.0070017,0.02434,0.00050218,-5.8225e-05,-0.00014513,6.6193e-06,0.00016775,0.048414,-0.013565,-0.015022,-0.00075468,3.442e-05,0.00087232,0,0,0,0.024343,0.00050185,-6.0314e-05,0.012202,0.0082615,0.024128,7.2075e-07,0.35,0.55,1
0.019313,-0.00079232,-0.0071097,0.024679,0.00024235,-6.0219e-05,-9.7905e-05,1.3661e-05,0.00022439,0.049248,-0.014286,-0.015073,-0.0005091,7.1036e-05,0.0011668,0,0,0,0.024681,0.0002436,-6.4128e-05,0.012373,0.0082869,0.024593,7.641e-07,0.4,0.55,1
0.021795,-0.00084246,-0.0071495,0.025022,0.00010073,-6.5217e-05,-5.9276e-05,2.219e-05,0.00024509,0.050023,-0.014773,-0.015204,-0.00030824,0.00011539,0.0012745,0,0,0,0.025025,0.00010505,-7.2312e-05,0.012549,0.0083526,0.025009,8.0364e-07,0.45,0.55,1
0.024315,-0.00088282,-0.00715,0.025338,3.5778e-05,-7.4787e-05,-2.7252e-05,3.0922e-05,0.00023255,0.050699,-0.015086,-0.015374,-0.00014171,0.0001608,0.0012093,0,0,0,0.02534,4.5229e-05,-8.6675e-05,0.012713,0.0084329,0.025361,8.3794e-07,0.5,0.55,1
0.026865,-0.00091425,-0.0071362,0.025595,1.0043e-05,-8.4881e-05,4.308e-08,3.788e-05,0.00019024,0.051236,-0.015286,-0.015533,2.2405e-07,0.00019697,0.00098922,0,0,0,0.025597,2.5123e-05,-0.00010165,0.012849,0.0085068,0.025636,8.6531e-07,0.55,0.55,1
0.029439,-0.00093749,-0.0071283,0.025772,-7.0636e-06,-8.8938e-05,2.3398e-05,4.1e-05,0.00012617,0.051601,-0.015424,-0.015637,0.00012167,0.0002132,0.0006561,0,0,0,0.025773,1.3177e-05,-0.00011005,0.012941,0.0085586,0.025821,8.8418e-07,0.6,0.55,1
0.032025,-0.00095336,-0.0071394,0.025855,-3.6659e-05,-8.1959e-05,4.2291e-05,3.8953e-05,5.3316e-05,0.051781,-0.015537,-0.015655,0.00021991,0.00020255,0.00027724,0,0,0,0.025855,-7.1046e-06,-0.00011186,0.012984,0.0085788,0.025915,8.9383e-07,0.65,0.55,1
0.034617,-0.00096292,-0.0071743,0.025848,-8.9038e-05,-6.3664e-05,5.5393e-05,3.1735e-05,-1.348e-05,0.051789,-0.015649,-0.015583,0.00028805,0.00016502,-7.0097e-05,0,0,0,0.025849,-2.7694e-05,-0.00012524,0.012987,0.0085653,0.025925,8.9491e-07,0.7,0.55,1
0.037204,-0.00096751,-0.0072303,0.025771,-0.00016407,-3.8649e-05,6.1436e-05,2.0705e-05,-6.2007e-05,0.051663,-0.015767,-0.015441,0.00031947,0.00010766,-0.00032243,0,0,0,0.025771,-2.9229e-05,-0.00017385,0.012972,0.0085227,0.025873,8.8945e-07,0.75,0.55,1
0.039783,-0.00096862,-0.0072987,0.025651,-0.00025337,-1.361e-05,5.9936e-05,8.0545e-06,-8.611e-05,0.051461,-0.015889,-0.015266,0.00031167,4.1883e-05,-0.00044777,0,0,0,0.025651,-1.2679e-05,-0.00025478,0.012953,0.0084612,0.025786,8.803e-07,0.8,0.55,1
0.04235,-0.00096776,-0.007368,0.02552,-0.00034369,6.1657e-06,5.1461e-05,-3.9433e-06,-8.6251e-05,0.051242,-0.016003,-0.015093,0.0002676,-2.0505e-05,-0.0004485,0,0,0,0.02552,6.2172e-06,-0.00034419,0.012932,0.008394,0.025691,8.7034e-07,0.85,0.55,1
0.044907,-0.00096619,-0.0074269,0.025406,-0.00042073,1.8709e-05,3.7418e-05,-1.3515e-05,-6.7489e-05,0.051053,-0.016096,-0.014954,0.00019457,-7.0279e-05,-0.00035094,0,0,0,0.025406,1.9325e-05,-0.00042163,0.012914,0.0083346,0.02561,8.6185e-07,0.9,0.55,1
0.047456,-0.00096487,-0.0074661,0.02533,-0.0004723,2.4937e-05,2.0161e-05,-1.9584e-05,-5.0258e-05,0.050928,-0.016157,-0.014865,0.00010484,-0.00010184,-0.00026134,0,0,0,0.02533,2.6162e-05,-0.00047367,0.012902,0.0082941,0.025557,8.5629e-07,0.95,0.55,1
0.048728,-0.00096437,-0.0074798,0.025303,-0.00049041,2.6718e-05,1.1101e-05,-2.1652e-05,-4.6307e-05,0.050885,-0.016179,-0.014834,5.7727e-05,-0.00011259,-0.00024079,0,0,0,0.025303,2.8166e-05,-0.00049196,0.012898,0.0082798,0.025539,8.5437e-07,1,0.55,1
0.0013345,-0.00012945,-0.0012323,0.032366,0.011661,0.0087896,-0.00098415,-5.1163e-07,-0.0070082,0.052461,-0.0013717,-0.0088368,-0.0051176,-2.6605e-06,-0.036442,0,0,0,0.034646,0.011639,0.0065312,0.014057,0.017605,0.025972,8.3997e-07,0,0.6,1
0.0026231,-0.0002574,-0.0022527,0.029919,0.0091901,0.0052394,-0.00096083,1.4113e-06,-0.0051057,0.05118,-0.0027149,-0.012987,-0.0049963,7.3386e-06,-0.02655,0,0,0,0.031312,0.0091575,0.0038787,0.013717,0.014783,0.025235,7.3874e-07,0.05,0.6,1
0.005118,-0.00050788,-0.0039562,0.026374,0.0056193,0.0012157,-0.00089065,7.7476e-06,-0.0022815,0.048647,-0.005315,-0.016765,-0.0046314,4.0288e-05,-0.011864,0,0,0,0.026694,0.0055787,0.00093579,0.012879,0.01107,0.023795,6.0612e-07,0.1,0.6,1
0.0074877,-0.00074297,-0.0051092,0.024718,0.0037088,0.00045845,-0.00077715,1.6123e-05,-0.00097808,0.046935,-0.0076882,-0.016139,-0.0040412,8.3839e-05,-0.005086,0,0,0,0.024809,0.0036764,0.00040002,0.012204,0.0096283,0.022956,5.7857e-07,0.15,0.6,1
0.0098116,-0.00095457,-0.0058992,0.024025,0.002365,9.5958e-05,-0.00063345,2.287e-05,-0.00040253,0.046573,-0.0097425,-0.015642,-0.003294,0.00011893,-0.0020931,0,0,0,0.024058,0.002344,8.3845e-05,0.011987,0.0088286,0.022935,5.9971e-07,0.2,0.6,1
0.012145,-0.0011374,-0.0064317,0.023924,0.0014607,-1.1653e-05,-0.00047908,2.7177e-05,-0.00010253,0.046979,-0.011426,-0.015254,-0.0024912,0.00014132,-0.00053318,0,0,0,0.023938,0.0014498,-1.4494e-05,0.011976,0.0084578,0.023259,6.383e-07,0.25,0.6,1
0.014509,-0.0012895,-0.0067767,0.024077,0.00084276,-4.6951e-05,-0.00033211,2.9207e-05,6.6776e-05,0.047677,-0.012733,-0.015046,-0.001727,0.00015188,0.00034723,0,0,0,0.024084,0.00083909,-4.9492e-05,0.012067,0.0082911,0.023704,6.8148e-07,0.3,0.6,1
0.016913,-0.0014119,-0.006983,0.024351,0.00044282,-5.4283e-05,-0.00020496,2.9603e-05,0.0001678,0.048469,-0.013692,-0.014985,-0.0010658,0.00015394,0.00087256,0,0,0,0.024355,0.00044394,-5.8884e-05,0.012207,0.0082466,0.024167,7.2449e-07,0.35,0.6,1
0.019356,-0.0015078,-0.0070891,0.024675,0.00020669,-5.6608e-05,-0.00010344,2.91e-05,0.00022475,0.049261,-0.014358,-0.015042,-0.00053789,0.00015132,0.0011687,0,0,0,0.024678,0.00021096,-6.37e-05,0.012371,0.0082751,0.024606,7.6532e-07,0.4,0.6,1
0.021839,-0.0015812,-0.0071272,0.025008,8.7186e-05,-6.3005e-05,-2.8054e-05,2.8235e-05,0.00024578,0.050002,-0.014793,-0.015183,-0.00014588,0.00014682,0.001278,0,0,0,0.025011,9.3204e-05,-7.1774e-05,0.012541,0.0083442,0.025001,8.0282e-07,0.45,0.6,1
0.024357,-0.0016363,-0.0071264,0.025317,4.079e-05,-7.4706e-05,2.4009e-05,2.7188e-05,0.00023312,0.050654,-0.015064,-0.015364,0.00012485,0.00014138,0.0012122,0,0,0,0.025319,4.7219e-05,-8.3608e-05,0.012701,0.0084277,0.025338,8.3561e-07,0.5,0.6,1
0.026904,-0.001677,-0.0071121,0.02557,2.8919e-05,-8.7011e-05,5.695e-05,2.5796e-05,0.00018993,0.051176,-0.015232,-0.015534,0.00029614,0.00013414,0.00098764,0,0,0,0.025572,3.5194e-05,-9.5106e-05,0.012834,0.0085041,0.025602,8.6196e-07,0.55,0.6,1
0.029474,-0.0017067,-0.0071047,0.025744,2.0485e-05,-9.2603e-05,7.505e-05,2.3729e-05,0.0001243,0.051532,-0.01535,-0.015644,0.00039026,0.00012339,0.00064637,0,0,0,0.025745,2.703e-05,-0.0001002,0.012923,0.0085574,0.025782,8.8017e-07,0.6,0.6,1
0.032057,-0.0017281,-0.0071174,0.025825,-5.5515e-06,-8.5953e-05,8.1993e-05,2.075e-05,4.961e-05,0.051705,-0.015455,-0.015664,0.00042637,0.0001079,0.00025797,0,0,0,0.025826,3.97e-06,-9.5992e-05,0.012961,0.0085779,0.025872,8.8939e-07,0.65,0.6,1
0.034645,-0.0017434,-0.0071551,0.025816,-5.8841e-05,-6.6755e-05,8.0702e-05,1.6917e-05,-1.8693e-05,0.051707,-0.015567,-0.015588,0.00041965,8.7966e-05,-9.7202e-05,0,0,0,0.025816,-2.4608e-05,-0.00010136,0.012959,0.0085634,0.025879,8.9018e-07,0.7,0.6,1
0.037228,-0.0017542,-0.0072146,0.025735,-0.00013813,-4.0065e-05,7.3462e-05,1.2612e-05,-6.7929e-05,0.051576,-0.015693,-0.015438,0.000382,6.558e-05,-0.00035323,0,0,0,0.025735,-3.0644e-05,-0.000148,0.012942,0.0085189,0.025825,8.8452e-07,0.75,0.6,1
0.039802,-0.0017618,-0.0072869,0.025611,-0.00023357,-1.3225e-05,6.2107e-05,8.3912e-06,-9.18e-05,0.05137,-0.015826,-0.015253,0.00032296,4.3634e-05,-0.00047736,0,0,0,0.025611,-1.2822e-05,-0.00023451,0.012923,0.0084547,0.025736,8.7525e-07,0.8,0.6,1
0.042365,-0.0017671,-0.0073597,0.025477,-0.00033045,7.975e-06,4.8119e-05,4.7725e-06,-9.094e-05,0.051147,-0.015952,-0.015072,0.00025022,2.4817e-05,-0.00047289,0,0,0,0.025477,7.9002e-06,-0.00033084,0.012904,0.0083847,0.02564,8.6525e-07,0.85,0.6,1
0.044917,-0.0017706,-0.0074215,0.02536,-0.00041313,2.1393e-05,3.2641e-05,2.0889e-06,-7.0732e-05,0.050956,-0.016055,-0.014926,0.00016973,1.0862e-05,-0.0003678,0,0,0,0.025361,2.1544e-05,-0.00041356,0.012887,0.0083229,0.02556,8.5677e-07,0.9,0.6,1
0.047461,-0.0017726,-0.0074625,0.025283,-0.00046846,2.8031e-05,1.5834e-05,4.7323e-07,-5.2518e-05,0.05083,-0.016123,-0.014833,8.2339e-05,2.4608e-06,-0.00027309,0,0,0,0.025283,2.8432e-05,-0.000469,0.012876,0.0082808,0.025507,8.5124e-07,0.95,0.6,1
0.048731,-0.0017732,-0.0074769,0.025256,-0.00048788,2.9923e-05,7.0194e-06,-6.2065e-08,-4.8375e-05,0.050786,-0.016147,-0.014801,3.6501e-05,-3.2274e-07,-0.00025155,0,0,0,0.025256,3.0408e-05,-0.00048847,0.012872,0.0082659,0.025489,8.4933e-07,1,0.6,1
0.0013362,-0.0001994,-0.0012298,0.032412,0.011642,0.0087977,-0.0015137,2.3253e-06,-0.0069918,0.05256,-0.001442,-0.0088367,-0.0078713,1.2092e-05,-0.036357,0,0,0,0.034735,0.011594,0.0065225,0.014106,0.017617,0.026078,8.5233e-07,0,0.65,1
0.002628,-0.00039586,-0.002247,0.029972,0.0091366,0.0052412,-0.0014729,8.4224e-06,-0.0050909,0.051318,-0.0028549,-0.012983,-0.0076593,4.3796e-05,-0.026473,0,0,0,0.031412,0.0090656,0.0038726,0.01377,0.014783,0.025366,7.5461e-07,0.05,0.65,1
0.0051318,-0.00077883,-0.0039436,0.026446,0.0055064,0.0012108,-0.0013513,2.3907e-05,-0.002269,0.048862,-0.0055815,-0.01675,-0.007027,0.00012432,-0.011799,0,0,0,0.026812,0.0054193,0.00093224,0.01294,0.011054,0.02397,6.2619e-07,0.1,0.65,1
0.0075142,-0.0011343,-0.0050894,0.024806,0.0035585,0.00045424,-0.0011583,4.0838e-05,-0.00096783,0.047204,-0.008039,-0.01611,-0.0060231,0.00021236,-0.0050327,0,0,0,0.02493,0.0034917,0.00039658,0.012267,0.0096062,0.023152,5.9877e-07,0.15,0.65,1
0.0098522,-0.0014492,-0.0058733,0.024112,0.0022038,9.3905e-05,-0.00091966,5.2947e-05,-0.00039572,0.046845,-0.010116,-0.015602,-0.0047822,0.00027532,-0.0020577,0,0,0,0.024165,0.0021631,8.1035e-05,0.012042,0.0088031,0.023121,6.1783e-07,0.2,0.65,1
0.012199,-0.0017157,-0.0064016,0.023995,0.0013125,-1.1117e-05,-0.00066981,5.893e-05,-9.9336e-05,0.047209,-0.011765,-0.015207,-0.003483,0.00030644,-0.00051655,0,0,0,0.024019,0.0012941,-1.664e-05,0.012018,0.0084321,0.023412,6.5276e-07,0.25,0.65,1
0.014573,-0.0019318,-0.0067444,0.024122,0.00072221,-4.4345e-05,-0.00043817,5.8937e-05,6.6754e-05,0.047838,-0.013002,-0.014995,-0.0022785,0.00030647,0.00034712,0,0,0,0.024132,0.00071958,-5.1851e-05,0.012092,0.0082667,0.02381,6.9148e-07,0.3,0.65,1
0.016982,-0.0021006,-0.0069505,0.024367,0.00035512,-5.0568e-05,-0.00024325,5.3857e-05,0.00016527,0.048551,-0.013879,-0.014934,-0.0012649,0.00028006,0.00085941,0,0,0,0.024371,0.00036256,-6.2473e-05,0.012217,0.0082237,0.024225,7.2996e-07,0.35,0.65,1
0.019428,-0.0022281,-0.0070575,0.024664,0.00015013,-5.2664e-05,-9.2689e-05,4.4976e-05,0.00022055,0.049269,-0.014466,-0.014994,-0.00048198,0.00023388,0.0011469,0,0,0,0.024667,0.00016238,-6.7763e-05,0.012367,0.0082538,0.02462,7.6672e-07,0.4,0.65,1
0.021909,-0.0023217,-0.0070976,0.024975,5.6595e-05,-5.9392e-05,1.366e-05,3.3842e-05,0.00024073,0.049952,-0.014836,-0.015138,7.1034e-05,0.00017598,0.0012518,0,0,0,0.024978,6.7479e-05,-7.2989e-05,0.012525,0.0083241,0.024981,8.0088e-07,0.45,0.65,1
0.024423,-0.0023892,-0.0070994,0.025268,3.0043e-05,-7.1672e-05,8.0566e-05,2.2194e-05,0.00022795,0.05056,-0.015058,-0.015322,0.00041894,0.00011541,0.0011853,0,0,0,0.02527,3.5742e-05,-8.0013e-05,0.012675,0.0084087,0.025293,8.3115e-07,0.5,0.65,1
0.026965,-0.0024375,-0.0070878,0.025511,3.2341e-05,-8.4607e-05,0.00011506,1.1806e-05,0.00018522,0.051054,-0.015191,-0.015495,0.00059834,6.1391e-05,0.00096316,0,0,0,0.025513,3.4383e-05,-8.8791e-05,0.012801,0.0084863,0.025541,8.5575e-07,0.55,0.65,1
0.029529,-0.0024725,-0.0070831,0.02568,3.3472e-05,-9.0783e-05,0.00012503,4.2017e-06,0.00012047,0.051394,-0.015286,-0.01561,0.00065018,2.1849e-05,0.00062642,0,0,0,0.025681,3.4802e-05,-9.3509e-05,0.012887,0.0085408,0.025711,8.7289e-07,0.6,0.65,1
0.032105,-0.0024988,-0.0070983,0.025759,1.3594e-05,-8.4649e-05,0.00011828,3.1052e-07,4.6852e-05,0.051561,-0.015377,-0.015633,0.00061503,1.6147e-06,0.00024363,0,0,0,0.02576,1.577e-05,-8.7611e-05,0.012924,0.0085627,0.025796,8.8159e-07,0.65,0.65,1
0.034685,-0.0025196,-0.0071382,0.025751,-3.5868e-05,-6.5895e-05,0.00010179,2.3628e-07,-2.0362e-05,0.051562,-0.015483,-0.015561,0.00052931,1.2287e-06,-0.00010588,0,0,0,0.025751,-1.6039e-05,-8.6244e-05,0.012919,0.0085496,0.025802,8.8226e-07,0.7,0.65,1
0.037261,-0.0025368,-0.0071995,0.025671,-0.00011281,-3.9578e-05,8.122e-05,3.2762e-06,-6.8665e-05,0.051434,-0.015605,-0.015414,0.00042235,1.7036e-05,-0.00035706,0,0,0,0.025672,-2.8327e-05,-0.00012457,0.012898,0.0085064,0.025749,8.7675e-07,0.75,0.65,1
0.039828,-0.0025512,-0.0072731,0.02555,-0.0002068,-1.3037e-05,6.0498e-05,8.1936e-06,-9.1869e-05,0.051233,-0.015736,-0.015232,0.00031459,4.2607e-05,-0.00047772,0,0,0,0.025551,-1.2759e-05,-0.0002076,0.012879,0.0084435,0.025662,8.6775e-07,0.8,0.65,1
0.042384,-0.0025629,-0.0073471,0.025419,-0.00030273,7.9416e-06,4.1811e-05,1.3606e-05,-9.0646e-05,0.051014,-0.015861,-0.015054,0.00021742,7.0752e-05,-0.00047136,0,0,0,0.025419,8.4357e-06,-0.00030367,0.012861,0.0083746,0.025568,8.5805e-07,0.85,0.65,1
0.04493,-0.0025717,-0.0074095,0.025304,-0.0003848,2.1213e-05,2.5861e-05,1.8311e-05,-7.0358e-05,0.050827,-0.015965,-0.014909,0.00013448,9.5219e-05,-0.00036586,0,0,0,0.025305,2.2313e-05,-0.00038617,0.012845,0.0083136,0.025489,8.4982e-07,0.9,0.65,1
0.047467,-0.0025772,-0.007451,0.025228,-0.00043977,2.777e-05,1.0443e-05,2.1455e-05,-5.2407e-05,0.050704,-0.016033,-0.014818,5.4304e-05,0.00011157,-0.00027252,0,0,0,0.025228,2.9327e-05,-0.00044146,0.012835,0.0082721,0.025438,8.4444e-07,0.95,0.65,1
0.048734,-0.0025791,-0.0074655,0.025202,-0.00045907,2.9636e-05,2.3103e-06,2.2554e-05,-4.8504e-05,0.050661,-0.016057,-0.014786,1.2013e-05,0.00011728,-0.00025222,0,0,0,0.025202,3.1344e-05,-0.00046088,0.012831,0.0082574,0.02542,8.4259e-07,1,0.65,1
0.0013391,-0.00027365,-0.0012254,0.032487,0.011613,0.0088104,-0.0020723,5.0286e-06,-0.0069632,0.052719,-0.0015527,-0.0088388,-0.010776,2.6149e-05,-0.036209,0,0,0,0.034871,0.011527,0.0065116,0.01418,0.017637,0.026239,8.7131e-07,0,0.7,1
0.002636,-0.00054289,-0.0022374,0.030058,0.009053,0.0052429,-0.0020078,1.557e-05,-0.0050649,0.051538,-0.0030743,-0.012981,-0.010441,8.0965e-05,-0.026338,0,0,0,0.031563,0.0089265,0.0038638,0.01385,0.014785,0.025567,7.7901e-07,0.05,0.7,1
0.0051538,-0.001066,-0.0039227,0.026559,0.0053319,0.0012013,-0.0018182,4.1055e-05,-0.0022471,0.049199,-0.0059926,-0.016732,-0.0094545,0.00021349,-0.011685,0,0,0,0.026987,0.0051801,0.00092526,0.013031,0.011031,0.024235,6.567e-07,0.1,0.7,1
0.0075558,-0.0015469,-0.0050572,0.024939,0.0033344,0.00044619,-0.0015243,6.737e-05,-0.00095017,0.04761,-0.0085623,-0.016072,-0.0079265,0.00035033,-0.0049409,0,0,0,0.025107,0.0032232,0.00038956,0.012359,0.0095732,0.02344,6.2854e-07,0.15,0.7,1
0.0099147,-0.0019661,-0.0058326,0.024237,0.0019754,9.001e-05,-0.001173,8.492e-05,-0.00038417,0.047235,-0.010646,-0.015548,-0.0060997,0.00044158,-0.0019977,0,0,0,0.024315,0.001913,7.4894e-05,0.01212,0.0087676,0.023382,6.4328e-07,0.2,0.7,1
0.012279,-0.0023139,-0.0063558,0.02409,0.0011142,-1.081e-05,-0.00081961,9.204e-05,-9.4178e-05,0.047518,-0.012219,-0.015144,-0.004262,0.00047861,-0.00048973,0,0,0,0.024124,0.001092,-2.2831e-05,0.012074,0.0083979,0.023613,6.718e-07,0.25,0.7,1
0.014667,-0.0025897,-0.0066971,0.024175,0.00056982,-4.1365e-05,-0.00050524,8.9309e-05,6.6084e-05,0.048032,-0.01334,-0.014929,-0.0026272,0.00046441,0.00034363,0,0,0,0.024188,0.00057562,-6.0524e-05,0.012124,0.0082343,0.023938,7.0352e-07,0.3,0.7,1
0.017083,-0.0027999,-0.0069049,0.024374,0.00024879,-4.6491e-05,-0.00025094,7.8233e-05,0.00015979,0.048628,-0.014099,-0.014867,-0.0013049,0.00040681,0.00083089,0,0,0,0.024379,0.00027231,-7.4912e-05,0.012227,0.0081923,0.024283,7.3546e-07,0.35,0.7,1
0.019529,-0.0029545,-0.007016,0.024632,8.1922e-05,-4.8209e-05,-6.1996e-05,6.0825e-05,0.00021157,0.049245,-0.014587,-0.014925,-0.00032238,0.00031629,0.0011002,0,0,0,0.024635,0.00011157,-8.0537e-05,0.012358,0.0082221,0.02462,7.6674e-07,0.4,0.7,1
0.022007,-0.0030648,-0.0070618,0.024913,1.6268e-05,-5.4456e-05,6.5433e-05,3.9653e-05,0.00022987,0.049849,-0.014883,-0.015067,0.00034025,0.0002062,0.0011953,0,0,0,0.024916,3.8018e-05,-7.8948e-05,0.012497,0.0082916,0.024937,7.9663e-07,0.45,0.7,1
0.024514,-0.0031421,-0.0070698,0.025184,8.4726e-06,-6.5875e-05,0.00013963,1.7883e-05,0.00021707,0.050403,-0.015054,-0.015248,0.00072609,9.2989e-05,0.0011288,0,0,0,0.025187,1.6603e-05,-7.6977e-05,0.012632,0.0083757,0.025218,8.238e-07,0.5,0.7,1
0.027047,-0.0031962,-0.0070641,0.025415,2.3052e-05,-7.7873e-05,0.00017091,-9.8762e-07,0.00017618,0.050863,-0.015156,-0.015419,0.00088871,-5.1356e-06,0.00091613,0,0,0,0.025418,2.4736e-05,-8.2185e-05,0.01275,0.0084534,0.025447,8.4634e-07,0.55,0.7,1
0.029601,-0.0032354,-0.0070642,0.025578,3.2888e-05,-8.3659e-05,0.00017046,-1.38e-05,0.0001147,0.051187,-0.015231,-0.015534,0.00088642,-7.176e-05,0.00059646,0,0,0,0.02558,3.5439e-05,-8.8064e-05,0.012834,0.0085091,0.025607,8.6234e-07,0.6,0.7,1
0.032166,-0.0032659,-0.0070826,0.025658,2.052e-05,-7.8191e-05,0.0001496,-1.8613e-05,4.5019e-05,0.051351,-0.015307,-0.015564,0.00077792,-9.6785e-05,0.0002341,0,0,0,0.025659,2.5146e-05,-8.392e-05,0.012872,0.0085335,0.025689,8.7065e-07,0.65,0.7,1
0.034736,-0.0032916,-0.0071241,0.025655,-2.1164e-05,-6.1201e-05,0.00011867,-1.5314e-05,-1.8592e-05,0.051359,-0.015398,-0.015502,0.00061708,-7.9635e-05,-9.6677e-05,0,0,0,0.025655,-4.2527e-06,-7.8779e-05,0.012867,0.0085241,0.025697,8.715e-07,0.7,0.7,1
0.037302,-0.0033147,-0.0071855,0.025583,-8.9583e-05,-3.7294e-05,8.6005e-05,-5.6138e-06,-6.4393e-05,0.051243,-0.015507,-0.015371,0.00044723,-2.9192e-05,-0.00033484,0,0,0,0.025584,-2.2189e-05,-0.00010521,0.012845,0.0084855,0.025648,8.6651e-07,0.75,0.7,1
0.03986,-0.0033354,-0.0072582,0.025471,-0.00017466,-1.3152e-05,5.7143e-05,7.614e-06,-8.6537e-05,0.051055,-0.015624,-0.015204,0.00029715,3.9593e-05,-0.00044999,0,0,0,0.025471,-1.2061e-05,-0.00017623,0.012824,0.0084277,0.025566,8.5815e-07,0.8,0.7,1
0.042407,-0.0033533,-0.0073308,0.025347,-0.00026216,5.9518e-06,3.4695e-05,2.1252e-05,-8.5592e-05,0.050848,-0.015736,-0.015039,0.00018042,0.00011051,-0.00044508,0,0,0,0.025348,7.7621e-06,-0.00026435,0.012806,0.0083637,0.025477,8.4902e-07,0.85,0.7,1
0.044945,-0.0033671,-0.0073919,0.025239,-0.00033728,1.8044e-05,1.8827e-05,3.2694e-05,-6.6547e-05,0.05067,-0.015829,-0.014905,9.7898e-05,0.00017001,-0.00034604,0,0,0,0.02524,2.1614e-05,-0.00034108,0.01279,0.0083067,0.025401,8.4122e-07,0.9,0.7,1
0.047474,-0.0033759,-0.0074324,0.025167,-0.0003877,2.4019e-05,5.08e-06,4.0179e-05,-5.0055e-05,0.050552,-0.01589,-0.01482,2.6416e-05,0.00020893,-0.00026029,0,0,0,0.025167,2.8856e-05,-0.00039266,0.01278,0.0082678,0.025352,8.3611e-07,0.95,0.7,1
0.048738,-0.0033789,-0.0074466,0.025142,-0.00040541,2.5719e-05,-2.2676e-06,4.2769e-05,-4.6804e-05,0.050511,-0.015911,-0.01479,-1.1792e-05,0.0002224,-0.00024338,0,0,0,0.025142,3.0992e-05,-0.00041079,0.012776,0.008254,0.025335,8.3434e-07,1,0.7,1
0.0013444,-0.00035467,-0.0012196,0.032621,0.01157,0.0088346,-0.0026745,7.2726e-06,-0.0069242,0.052999,-0.0017329,-0.0088455,-0.013907,3.7818e-05,-0.036006,0,0,0,0.035092,0.011432,0.0065018,0.014295,0.017675,0.02649,9.0129e-07,0,0.75,1
0.0026499,-0.00070329,-0.0022243,0.030202,0.008922,0.0052469,-0.0025733,2.2568e-05,-0.0050288,0.051903,-0.0034255,-0.012981,-0.013381,0.00011735,-0.02615,0,0,0,0.031796,0.0087225,0.0038528,0.013972,0.01479,0.025872,8.1657e-07,0.05,0.75,1
0.0051903,-0.0013781,-0.0038941,0.026733,0.0050618,0.0011849,-0.0022833,5.9163e-05,-0.0022157,0.049717,-0.0066269,-0.016707,-0.011873,0.00030765,-0.011521,0,0,0,0.027236,0.0048304,0.00091249,0.013162,0.010993,0.024622,7.018e-07,0.1,0.75,1
0.0076217,-0.0019905,-0.0050136,0.025127,0.0030079,0.00043373,-0.0018525,9.5678e-05,-0.00092523,0.04819,-0.0093208,-0.016014,-0.0096329,0.00049753,-0.0048112,0,0,0,0.025342,0.0028496,0.00037775,0.012482,0.009523,0.023835,6.6996e-07,0.15,0.75,1
0.010009,-0.0025138,-0.005778,0.024398,0.0016692,8.5984e-05,-0.0013644,0.00011805,-0.00036871,0.047744,-0.011352,-0.015469,-0.0070951,0.00061385,-0.0019173,0,0,0,0.024497,0.0015914,6.5182e-05,0.012216,0.0087179,0.023712,6.757e-07,0.2,0.75,1
0.012396,-0.0029376,-0.0062958,0.024195,0.00087194,-8.1975e-06,-0.00090333,0.00012495,-8.8185e-05,0.047871,-0.012768,-0.015056,-0.0046973,0.00064976,-0.00045856,0,0,0,0.024236,0.000857,-3.4294e-05,0.012135,0.0083528,0.023839,6.9331e-07,0.25,0.75,1
0.014796,-0.0032659,-0.0066367,0.024212,0.00039944,-3.6161e-05,-0.00051745,0.00011833,6.3858e-05,0.048207,-0.013707,-0.014839,-0.0026908,0.00061534,0.00033206,0,0,0,0.024227,0.0004275,-7.8606e-05,0.012153,0.0081919,0.024057,7.1469e-07,0.3,0.75,1
0.017217,-0.0035105,-0.0068484,0.024352,0.00013891,-4.1222e-05,-0.00022161,0.00010088,0.00015098,0.048645,-0.014309,-0.014777,-0.0011524,0.00052457,0.00078511,0,0,0,0.024356,0.00019241,-9.9219e-05,0.012228,0.0081499,0.024311,7.3815e-07,0.35,0.75,1
0.019661,-0.0036868,-0.0069665,0.024563,1.5285e-05,-4.3178e-05,-1.199e-05,7.5532e-05,0.00019807,0.049142,-0.014681,-0.014833,-6.235e-05,0.00039277,0.00103,0,0,0,0.024565,7.3022e-05,-0.00010333,0.012334,0.0081783,0.024581,7.6305e-07,0.4,0.75,1
0.022131,-0.00381,-0.007021,0.02481,-2.3265e-05,-4.87e-05,0.00012245,4.5736e-05,0.00021395,0.049664,-0.014904,-0.01497,0.00063672,0.00023783,0.0011125,0,0,0,0.024813,1.5671e-05,-9.0538e-05,0.012452,0.0082461,0.024851,7.8844e-07,0.45,0.75,1
0.024627,-0.0038946,-0.0070382,0.025061,-1.5898e-05,-5.8303e-05,0.00019468,1.5677e-05,0.00020142,0.050166,-0.015033,-0.015143,0.0010123,8.1522e-05,0.0010474,0,0,0,0.025064,-1.8512e-06,-7.5768e-05,0.01257,0.0083288,0.025103,8.1262e-07,0.5,0.75,1
0.027148,-0.0039531,-0.007041,0.025281,6.9897e-06,-6.8197e-05,0.00021812,-9.9647e-06,0.00016357,0.050598,-0.015113,-0.015309,0.0011342,-5.1816e-05,0.00085057,0,0,0,0.025284,1.1382e-05,-7.5745e-05,0.01268,0.0084065,0.025316,8.3341e-07,0.55,0.75,1
0.029687,-0.0039956,-0.0070475,0.025442,2.293e-05,-7.2824e-05,0.0002064,-2.6938e-05,0.00010734,0.050913,-0.015175,-0.015424,0.0010733,-0.00014008,0.00055814,0,0,0,0.025444,3.0535e-05,-8.2735e-05,0.012763,0.0084639,0.02547,8.4865e-07,0.6,0.75,1
0.032239,-0.0040295,-0.0070698,0.025526,1.7844e-05,-6.8083e-05,0.00017305,-3.2643e-05,4.382e-05,0.051083,-0.015239,-0.015463,0.00089984,-0.00016975,0.00022787,0,0,0,0.025528,2.9546e-05,-8.1177e-05,0.012804,0.008492,0.025554,8.5701e-07,0.65,0.75,1
0.034795,-0.0040595,-0.0071123,0.025533,-1.3653e-05,-5.3804e-05,0.00013047,-2.7016e-05,-1.423e-05,0.051107,-0.015315,-0.015419,0.00067846,-0.00014049,-7.3995e-05,0,0,0,0.025534,6.0282e-06,-7.4265e-05,0.012804,0.0084885,0.025568,8.5847e-07,0.7,0.75,1
0.03735,-0.0040875,-0.0071725,0.025475,-6.8911e-05,-3.3815e-05,8.8596e-05,-1.2519e-05,-5.6316e-05,0.051012,-0.015403,-0.015311,0.0004607,-6.5101e-05,-0.00029284,0,0,0,0.025476,-1.4601e-05,-8.8632e-05,0.012782,0.0084574,0.025527,8.5437e-07,0.75,0.75,1
0.039897,-0.0041136,-0.0072426,0.025376,-0.0001391,-1.3656e-05,5.3815e-05,6.7684e-06,-7.7104e-05,0.050844,-0.015496,-0.01517,0.00027984,3.5196e-05,-0.00040094,0,0,0,0.025377,-1.0853e-05,-0.0001423,0.01276,0.0084079,0.025454,8.4693e-07,0.8,0.75,1
0.042434,-0.0041366,-0.007312,0.025265,-0.00021196,2.2911e-06,2.8826e-05,2.6451e-05,-7.6933e-05,0.050656,-0.015584,-0.015027,0.0001499,0.00013754,-0.00040005,0,0,0,0.025265,6.0054e-06,-0.00021598,0.012741,0.0083517,0.025371,8.3857e-07,0.85,0.75,1
0.044962,-0.0041546,-0.0073703,0.025166,-0.00027482,1.238e-05,1.3264e-05,4.2869e-05,-6.0141e-05,0.05049,-0.015657,-0.01491,6.8975e-05,0.00022292,-0.00031273,0,0,0,0.025167,1.9604e-05,-0.00028223,0.012724,0.0083013,0.025299,8.3129e-07,0.9,0.75,1
0.047483,-0.0041662,-0.0074089,0.0251,-0.00031712,1.7357e-05,8.3903e-07,5.3574e-05,-4.6022e-05,0.050379,-0.015704,-0.014835,4.3629e-06,0.00027859,-0.00023932,0,0,0,0.0251,2.7114e-05,-0.00032698,0.012713,0.0082667,0.025252,8.2646e-07,0.95,0.75,1
0.048742,-0.0041702,-0.0074224,0.025076,-0.000332,1.8771e-05,-5.9567e-06,5.7272e-05,-4.3742e-05,0.050341,-0.015721,-0.014809,-3.0975e-05,0.00029782,-0.00022746,0,0,0,0.025076,2.9412e-05,-0.00034273,0.01271,0.0082544,0.025235,8.2478e-07,1,0.75,1
0.0013549,-0.00044695,-0.0012129,0.032875,0.011502,0.0088836,-0.0033419,8.759e-06,-0.0068777,0.053519,-0.0020503,-0.0088593,-0.017378,4.5547e-05,-0.035764,0,0,0,0.035462,0.011299,0.0064994,0.014482,0.017754,0.026899,9.5113e-07,0,0.8,1
0.0026759,-0.00088544,-0.0022088,0.030456,0.0087028,0.0052565,-0.0031753,2.9588e-05,-0.0049839,0.052537,-0.004022,-0.012982,-0.016512,0.00015386,-0.025916,0,0,0,0.03216,0.0084162,0.003839,0.014161,0.014805,0.026351,8.7648e-07,0.05,0.8,1
0.0052537,-0.0017287,-0.003859,0.026998,0.0046301,0.0011569,-0.0027203,7.909e-05,-0.0021749,0.050523,-0.0076324,-0.016663,-0.014146,0.00041127,-0.011309,0,0,0,0.027582,0.0043144,0.00088845,0.013347,0.010928,0.025182,7.6859e-07,0.1,0.8,1
0.0077282,-0.0024789,-0.00496,0.02538,0.0025397,0.00041772,-0.0020933,0.00012605,-0.00089395,0.048986,-0.0104,-0.015917,-0.010885,0.00065547,-0.0046485,0,0,0,0.025631,0.0023464,0.00036004,0.012636,0.0094459,0.02435,7.2494e-07,0.15,0.8,1
0.010152,-0.0031014,-0.0057122,0.02458,0.0012863,8.7254e-05,-0.0014454,0.00015105,-0.00035145,0.048335,-0.012227,-0.015345,-0.0075163,0.00078548,-0.0018275,0,0,0,0.024687,0.0012131,5.2534e-05,0.012317,0.008651,0.02408,7.1243e-07,0.2,0.8,1
0.012562,-0.0035907,-0.0062249,0.024273,0.00060699,9.1675e-07,-0.00088986,0.00015503,-8.3504e-05,0.048181,-0.01335,-0.014926,-0.0046273,0.00080616,-0.00043422,0,0,0,0.024313,0.00062004,-5.2643e-05,0.012183,0.0082936,0.024038,7.1242e-07,0.25,0.8,1
0.01497,-0.0039604,-0.0065671,0.024195,0.00023474,-2.739e-05,-0.00046243,0.00014269,5.8797e-05,0.048265,-0.014031,-0.014713,-0.0024046,0.00074201,0.00030575,0,0,0,0.024207,0.00030173,-0.00010679,0.012157,0.0081341,0.024113,7.2004e-07,0.3,0.8,1
0.017388,-0.0042307,-0.0067847,0.024264,4.517e-05,-3.5015e-05,-0.00015604,0.00011868,0.00013882,0.048521,-0.014447,-0.014655,-0.00081139,0.00061714,0.00072188,0,0,0,0.024267,0.00013737,-0.00013062,0.012199,0.0080913,0.024265,7.3397e-07,0.35,0.8,1
0.019823,-0.0044226,-0.006912,0.02443,-3.4881e-05,-3.8515e-05,4.9382e-05,8.6863e-05,0.00018119,0.048903,-0.014704,-0.014714,0.00025679,0.00045169,0.00094218,0,0,0,0.024432,5.2396e-05,-0.00012799,0.01228,0.0081187,0.02447,7.5278e-07,0.4,0.8,1
0.022279,-0.0045552,-0.0069773,0.024652,-5.085e-05,-4.3493e-05,0.00017391,5.1093e-05,0.00019488,0.04936,-0.014867,-0.014847,0.00090434,0.00026568,0.0010134,0,0,0,0.024655,4.8431e-06,-0.00010233,0.012379,0.0081858,0.024704,7.7454e-07,0.45,0.8,1
0.024759,-0.0046454,-0.0070056,0.024891,-3.4399e-05,-5.0787e-05,0.00023482,1.5881e-05,0.00018309,0.049832,-0.014973,-0.015015,0.001221,8.2581e-05,0.00095207,0,0,0,0.024894,-1.3619e-05,-7.5348e-05,0.012485,0.0082684,0.024939,7.9682e-07,0.5,0.8,1
0.027262,-0.0047075,-0.0070181,0.025109,-8.8123e-06,-5.7872e-05,0.0002473,-1.3725e-05,0.00014907,0.050257,-0.015048,-0.015176,0.0012859,-7.1368e-05,0.00077514,0,0,0,0.025112,-6.502e-07,-6.9522e-05,0.012591,0.0083473,0.025147,8.169e-07,0.55,0.8,1
0.029784,-0.0047529,-0.007032,0.025275,9.2729e-06,-6.0806e-05,0.00022574,-3.3126e-05,9.9087e-05,0.050582,-0.01511,-0.015292,0.0011739,-0.00017225,0.00051525,0,0,0,0.025278,2.2384e-05,-7.6472e-05,0.012677,0.008408,0.025305,8.3229e-07,0.6,0.8,1
0.03232,-0.0047898,-0.0070585,0.025372,9.7189e-06,-5.6675e-05,0.00018409,-3.9543e-05,4.2824e-05,0.050772,-0.01517,-0.015342,0.00095727,-0.00020562,0.00022268,0,0,0,0.025373,2.8247e-05,-7.6742e-05,0.012725,0.0084416,0.025398,8.4142e-07,0.65,0.8,1
0.034861,-0.0048231,-0.0071019,0.025394,-1.1099e-05,-4.5448e-05,0.00013505,-3.301e-05,-8.7674e-06,0.050822,-0.015231,-0.015321,0.00070225,-0.00017165,-4.5591e-05,0,0,0,0.025395,1.1638e-05,-6.9007e-05,0.012732,0.0084458,0.025424,8.44e-07,0.7,0.8,1
0.037402,-0.004855,-0.0071604,0.025353,-5.085e-05,-3.0042e-05,8.8698e-05,-1.6377e-05,-4.6614e-05,0.050755,-0.015296,-0.015242,0.00046123,-8.5162e-05,-0.00024239,0,0,0,0.025354,-8.4046e-06,-7.2954e-05,0.012713,0.0084241,0.025394,8.4111e-07,0.75,0.8,1
0.039937,-0.004885,-0.0072271,0.025271,-0.00010263,-1.4634e-05,5.1401e-05,5.6983e-06,-6.5949e-05,0.050613,-0.015359,-0.01513,0.00026728,2.9631e-05,-0.00034293,0,0,0,0.025272,-9.9435e-06,-0.00010764,0.01269,0.0083847,0.025331,8.3474e-07,0.8,0.8,1
0.042463,-0.0049117,-0.0072926,0.025174,-0.00015699,-2.5174e-06,2.5578e-05,2.8207e-05,-6.6802e-05,0.050444,-0.015417,-0.015015,0.000133,0.00014667,-0.00034737,0,0,0,0.025174,3.3165e-06,-0.00016306,0.012669,0.0083381,0.025255,8.2717e-07,0.85,0.8,1
0.044981,-0.0049328,-0.0073475,0.025086,-0.00020417,5.0952e-06,1.0443e-05,4.6977e-05,-5.2708e-05,0.050291,-0.015463,-0.014919,5.4301e-05,0.00024428,-0.00027408,0,0,0,0.025086,1.6373e-05,-0.00021559,0.012651,0.0082955,0.025186,8.2037e-07,0.9,0.8,1
0.047492,-0.0049464,-0.0073837,0.025025,-0.00023603,8.8159e-06,-1.4384e-06,5.9213e-05,-4.1334e-05,0.050187,-0.015492,-0.014856,-7.4795e-06,0.00030791,-0.00021494,0,0,0,0.025025,2.4012e-05,-0.00025131,0.012638,0.008266,0.02514,8.1578e-07,0.95,0.8,1
0.048747,-0.004951,-0.0073964,0.025004,-0.00024726,9.864e-06,-8.1591e-06,6.3439e-05,-4.0144e-05,0.05015,-0.015503,-0.014834,-4.2427e-05,0.00032989,-0.00020875,0,0,0,0.025004,2.6431e-05,-0.0002639,0.012634,0.0082555,0.025124,8.1417e-07,1,0.8,1
0.0013775,-0.0005597,-0.0012064,0.033373,0.011352,0.0089754,-0.004114,1.0414e-05,-0.0068276,0.05455,-0.0027056,-0.0088842,-0.021393,5.4153e-05,-0.035504,0,0,0,0.036116,0.011076,0.0065084,0.014804,0.0179,0.027617,1.0428e-06,0,0.85,1
0.0027275,-0.0011055,-0.0021919,0.030909,0.0082769,0.0052669,-0.0038067,3.7551e-05,-0.0049322,0.053692,-0.005152,-0.012978,-0.019795,0.00019527,-0.025648,0,0,0,0.032739,0.0079043,0.0038094,0.014465,0.014818,0.027138,9.7919e-07,0.05,0.85,1
0.0053692,-0.0021413,-0.0038193,0.027397,0.0039118,0.0011069,-0.0030441,0.00010119,-0.0021256,0.051783,-0.0092786,-0.016571,-0.015829,0.00052616,-0.011053,0,0,0,0.028039,0.0035372,0.00083989,0.013599,0.010805,0.025987,8.6832e-07,0.1,0.85,1
0.0079058,-0.0030305,-0.0048994,0.025699,0.0019147,0.00041129,-0.0021428,0.00015721,-0.00085947,0.050002,-0.011837,-0.015745,-0.011143,0.0008175,-0.0044693,0,0,0,0.025953,0.0017283,0.00034304,0.012805,0.0093415,0.024955,7.9144e-07,0.15,0.85,1
0.010369,-0.0037365,-0.0056398,0.024726,0.00087157,0.00010576,-0.0013487,0.00018003,-0.00033677,0.048866,-0.013156,-0.015147,-0.007013,0.00093616,-0.0017512,0,0,0,0.024822,0.00084017,4.0813e-05,0.012391,0.0085678,0.024394,7.4452e-07,0.2,0.85,1
0.012792,-0.0042726,-0.0061495,0.024247,0.0003628,1.8022e-05,-0.00075469,0.00017622,-8.3465e-05,0.048265,-0.013833,-0.01473,-0.0039244,0.00091635,-0.00043402,0,0,0,0.024278,0.00042624,-7.6729e-05,0.012177,0.0082092,0.024108,7.1973e-07,0.25,0.85,1
0.015196,-0.004669,-0.0064951,0.024054,0.00010592,-1.7853e-05,-0.00034285,0.00015603,4.98e-05,0.048055,-0.01421,-0.014531,-0.0017828,0.00081138,0.00025896,0,0,0,0.024062,0.00021583,-0.00013591,0.012099,0.0080473,0.024024,7.1241e-07,0.3,0.85,1
0.017598,-0.0049552,-0.0067202,0.024062,-1.3811e-05,-3.1242e-05,-6.8994e-05,0.00012625,0.00012451,0.048151,-0.014446,-0.014491,-0.00035877,0.00065649,0.00064745,0,0,0,0.024064,0.00010629,-0.00015349,0.012109,0.0080056,0.024089,7.1821e-07,0.35,0.85,1
0.020011,-0.0051572,-0.0068575,0.024204,-5.7416e-05,-3.7161e-05,0.00010399,9.0867e-05,0.00016383,0.048464,-0.014615,-0.014562,0.00054077,0.00047251,0.0008519,0,0,0,0.024206,4.3417e-05,-0.00014009,0.012173,0.0080363,0.024255,7.3316e-07,0.4,0.85,1
0.022444,-0.0052967,-0.0069339,0.024423,-5.9187e-05,-4.1435e-05,0.00020254,5.3261e-05,0.00017643,0.048907,-0.014747,-0.014701,0.0010532,0.00027696,0.00091741,0,0,0,0.024426,1.9483e-06,-0.00010577,0.012266,0.0081075,0.024479,7.5364e-07,0.45,0.85,1
0.024902,-0.0053919,-0.0069731,0.024671,-4.1253e-05,-4.5931e-05,0.0002453,1.7345e-05,0.00016585,0.049395,-0.014858,-0.01487,0.0012756,9.0192e-05,0.00086241,0,0,0,0.024675,-1.7996e-05,-7.2905e-05,0.012374,0.0081947,0.02472,7.7614e-07,0.5,0.85,1
0.027384,-0.0054579,-0.0069951,0.024905,-1.9018e-05,-4.9688e-05,0.00024679,-1.2397e-05,0.00013554,0.04985,-0.014951,-0.015031,0.0012833,-6.4466e-05,0.00070482,0,0,0,0.024908,-8.988e-06,-6.3049e-05,0.012485,0.0082786,0.024944,7.9729e-07,0.55,0.85,1
0.029887,-0.0055066,-0.0070162,0.02509,-3.1084e-06,-5.0467e-05,0.00021991,-3.1826e-05,9.1328e-05,0.050212,-0.01503,-0.015153,0.0011435,-0.00016549,0.00047491,0,0,0,0.025092,1.247e-05,-6.8446e-05,0.01258,0.0083454,0.02512,8.1421e-07,0.6,0.85,1
0.032405,-0.0055465,-0.0070468,0.025206,1.842e-07,-4.6541e-05,0.00017689,-3.847e-05,4.1623e-05,0.05044,-0.015095,-0.015217,0.00091983,-0.00020004,0.00021644,0,0,0,0.025208,2.1485e-05,-6.9273e-05,0.012638,0.0083866,0.025232,8.2504e-07,0.65,0.85,1
0.034931,-0.0055826,-0.0070914,0.025249,-1.1243e-05,-3.802e-05,0.00012884,-3.249e-05,-4.2106e-06,0.050527,-0.015149,-0.015219,0.00066996,-0.00016895,-2.1895e-05,0,0,0,0.02525,1.1363e-05,-6.1375e-05,0.012655,0.0083999,0.025275,8.2926e-07,0.7,0.85,1
0.037458,-0.0056171,-0.0071486,0.025227,-3.5699e-05,-2.6941e-05,8.45e-05,-1.6694e-05,-3.8363e-05,0.050492,-0.015192,-0.015169,0.0004394,-8.6811e-05,-0.00019949,0,0,0,0.025228,-5.5183e-06,-5.7523e-05,0.012643,0.0083883,0.025259,8.2776e-07,0.75,0.85,1
0.03998,-0.0056495,-0.0072124,0.025162,-6.8564e-05,-1.6147e-05,4.9261e-05,4.4017e-06,-5.6519e-05,0.050375,-0.015225,-0.015088,0.00025616,2.2889e-05,-0.0002939,0,0,0,0.025162,-1.0129e-05,-7.4844e-05,0.012619,0.0083591,0.025205,8.224e-07,0.8,0.85,1
0.042495,-0.0056782,-0.0072746,0.025078,-0.00010356,-7.8334e-06,2.4967e-05,2.5959e-05,-5.8352e-05,0.050222,-0.015249,-0.015,0.00012983,0.00013498,-0.00030343,0,0,0,0.025078,-2.2216e-07,-0.00011136,0.012595,0.0083221,0.025134,8.1543e-07,0.85,0.85,1
0.045002,-0.0057009,-0.0073265,0.024998,-0.00013418,-2.7362e-06,1.0612e-05,4.395e-05,-4.6605e-05,0.050078,-0.015266,-0.014924,5.5183e-05,0.00022854,-0.00024235,0,0,0,0.024998,1.1804e-05,-0.00014884,0.012574,0.0082871,0.025067,8.0891e-07,0.9,0.85,1
0.047503,-0.0057155,-0.0073607,0.024943,-0.00015496,-3.2174e-07,-1.4914e-06,5.5682e-05,-3.7503e-05,0.049978,-0.015275,-0.014873,-7.7552e-06,0.00028955,-0.00019501,0,0,0,0.024943,1.9141e-05,-0.00017449,0.012559,0.0082624,0.025021,8.0439e-07,0.95,0.85,1
0.048752,-0.0057205,-0.0073727,0.024923,-0.00016229,3.3938e-07,-8.6316e-06,5.9734e-05,-3.7179e-05,0.049943,-0.015278,-0.014856,-4.4884e-05,0.00031062,-0.00019333,0,0,0,0.024923,2.1518e-05,-0.00018354,0.012553,0.0082536,0.025005,8.0279e-07,1,0.85,1
0.0014266,-0.0007175,-0.0012007,0.034366,0.010839,0.0091231,-0.0049394,3.3455e-06,-0.0067775,0.056755,-0.0044163,-0.0088766,-0.025685,1.7397e-05,-0.035243,0,0,0,0.037274,0.010573,0.0064802,0.015397,0.018109,0.028982,1.2307e-06,0,0.9,1
0.0028378,-0.0014006,-0.0021754,0.031771,0.0073588,0.005281,-0.0042937,3.7342e-05,-0.0048767,0.055957,-0.0075134,-0.012916,-0.022327,0.00019418,-0.025359,0,0,0,0.03368,0.0070116,0.0037192,0.01498,0.014803,0.028491,1.1684e-06,0.05,0.9,1
0.0055957,-0.0026566,-0.0037787,0.028029,0.0028364,0.0010708,-0.0029916,0.00011808,-0.0020721,0.053714,-0.011787,-0.016378,-0.015556,0.00061402,-0.010775,0,0,0,0.028637,0.0025209,0.00077785,0.01393,0.010645,0.027058,1.0106e-06,0.1,0.9,1
0.0082091,-0.0036626,-0.0048385,0.026005,0.001268,0.00045781,-0.0018396,0.00018,-0.00082975,0.050974,-0.013342,-0.015448,-0.009566,0.00093601,-0.0043147,0,0,0,0.026208,0.001164,0.00035842,0.012925,0.0092436,0.025461,8.5024e-07,0.15,0.9,1
0.010693,-0.004417,-0.0055704,0.024659,0.00051719,0.00013805,-0.0010273,0.00019101,-0.00033246,0.048926,-0.013844,-0.01483,-0.0053419,0.00099323,-0.0017288,0,0,0,0.024724,0.00055977,3.1109e-05,0.012346,0.0084382,0.024433,7.5093e-07,0.2,0.9,1
0.013102,-0.004974,-0.0060807,0.023972,0.00018569,2.8583e-05,-0.00051289,0.00017477,-9.123e-05,0.047816,-0.014029,-0.014438,-0.002667,0.00090881,-0.00047439,0,0,0,0.02399,0.00029428,-9.7557e-05,0.012044,0.0080621,0.023894,7.0174e-07,0.25,0.9,1
0.015475,-0.0053814,-0.0064317,0.023698,3.1804e-05,-1.935e-05,-0.00019213,0.00014755,3.8504e-05,0.047389,-0.014144,-0.014277,-0.00099905,0.00076724,0.00020022,0,0,0,0.023702,0.00015746,-0.0001488,0.011925,0.0079036,0.023699,6.8443e-07,0.3,0.9,1
0.017841,-0.0056753,-0.0066644,0.023695,-3.351e-05,-3.7716e-05,6.1732e-06,0.00011583,0.00011284,0.047433,-0.014262,-0.014273,3.2101e-05,0.00060233,0.00058676,0,0,0,0.023697,8.1216e-05,-0.00015372,0.011925,0.0078747,0.023734,6.8728e-07,0.35,0.9,1
0.020218,-0.0058841,-0.0068102,0.02386,-5.3601e-05,-4.4151e-05,0.00012434,8.2252e-05,0.00015245,0.047779,-0.014397,-0.014372,0.00064659,0.00042771,0.00079272,0,0,0,0.023862,3.3072e-05,-0.00013275,0.011997,0.0079209,0.023913,7.0282e-07,0.4,0.9,1
0.022619,-0.0060299,-0.0068954,0.024117,-5.0489e-05,-4.6155e-05,0.00018735,4.8728e-05,0.0001655,0.048293,-0.014544,-0.014532,0.0009742,0.00025339,0.00086061,0,0,0,0.02412,-6.6551e-07,-9.8785e-05,0.012109,0.0080069,0.02417,7.2566e-07,0.45,0.9,1
0.025047,-0.0061312,-0.0069427,0.024406,-3.7256e-05,-4.6897e-05,0.00021066,1.777e-05,0.00015594,0.048863,-0.01469,-0.014715,0.0010954,9.2402e-05,0.00081087,0,0,0,0.024409,-1.8348e-05,-6.8836e-05,0.012239,0.0081073,0.024453,7.513e-07,0.5,0.9,1
0.027505,-0.0062026,-0.006972,0.024679,-2.2407e-05,-4.6776e-05,0.00020525,-7.4715e-06,0.00012763,0.049399,-0.014824,-0.014887,0.0010673,-3.8852e-05,0.0006637,0,0,0,0.024681,-1.4021e-05,-5.7742e-05,0.012369,0.0082031,0.024717,7.7579e-07,0.55,0.9,1
0.029987,-0.0062559,-0.0069986,0.024899,-1.1536e-05,-4.4888e-05,0.00018045,-2.3978e-05,8.6378e-05,0.049831,-0.014935,-0.015022,0.00093833,-0.00012469,0.00044916,0,0,0,0.0249,1.3002e-06,-5.9516e-05,0.01248,0.0082807,0.02493,7.9585e-07,0.6,0.9,1
0.032488,-0.0062993,-0.0070328,0.025045,-7.8466e-06,-4.0396e-05,0.00014496,-2.9969e-05,3.9985e-05,0.050118,-0.015018,-0.015103,0.00075382,-0.00015584,0.00020792,0,0,0,0.025046,9.7214e-06,-5.9004e-05,0.012552,0.0083321,0.02507,8.0935e-07,0.65,0.9,1
0.034999,-0.006338,-0.007079,0.025112,-1.2368e-05,-3.3477e-05,0.00010669,-2.5696e-05,-3.0556e-06,0.050251,-0.015072,-0.015126,0.00055478,-0.00013362,-1.5889e-05,0,0,0,0.025112,5.0454e-06,-5.1433e-05,0.012582,0.0083552,0.025135,8.1563e-07,0.7,0.9,1
0.037513,-0.0063741,-0.0071362,0.025109,-2.419e-05,-2.5441e-05,7.1788e-05,-1.3478e-05,-3.5596e-05,0.050247,-0.015098,-0.015102,0.0003733,-7.0086e-05,-0.0001851,0,0,0,0.025109,-6.6493e-06,-4.3291e-05,0.012576,0.008353,0.025134,8.1549e-07,0.75,0.9,1
0.040024,-0.0064075,-0.0071991,0.025056,-4.0878e-05,-1.8044e-05,4.3955e-05,3.0339e-06,-5.3448e-05,0.050148,-0.015105,-0.015045,0.00022856,1.5776e-05,-0.00027793,0,0,0,0.025057,-1.1469e-05,-4.7677e-05,0.012552,0.0083325,0.025086,8.1085e-07,0.8,0.9,1
0.042528,-0.0064366,-0.0072599,0.02498,-5.9073e-05,-1.2584e-05,2.4298e-05,1.9959e-05,-5.5894e-05,0.050003,-0.015099,-0.014978,0.00012635,0.00010378,-0.00029065,0,0,0,0.02498,-4.164e-06,-6.7665e-05,0.012524,0.0083028,0.025016,8.0409e-07,0.85,0.9,1
0.045024,-0.0064594,-0.0073105,0.024905,-7.5221e-05,-9.3861e-06,1.1892e-05,3.4089e-05,-4.509e-05,0.049861,-0.015088,-0.014917,6.1839e-05,0.00017726,-0.00023447,0,0,0,0.024905,6.0803e-06,-9.0794e-05,0.012498,0.0082735,0.024948,7.9747e-07,0.9,0.9,1
0.047514,-0.0064739,-0.007344,0.024851,-8.627e-05,-7.9571e-06,-2.77e-07,4.3298e-05,-3.6556e-05,0.049759,-0.015079,-0.014875,-1.4404e-06,0.00022515,-0.00019009,0,0,0,0.024851,1.2408e-05,-0.0001067,0.012479,0.0082524,0.024899,7.9278e-07,0.95,0.9,1
0.048757,-0.0064789,-0.0073557,0.024832,-9.0189e-05,-7.5871e-06,-7.8388e-06,4.6477e-05,-3.632e-05,0.049723,-0.015075,-0.01486,-4.0762e-05,0.00024168,-0.00018886,0,0,0,0.024832,1.4478e-05,-0.00011232,0.012472,0.0082448,0.024881,7.911e-07,1,0.9,1
0.0016103,-0.0010013,-0.0012013,0.037736,0.010673,0.010068,-0.0060092,-4.0562e-05,-0.0067595,0.063028,-0.0073361,-0.0089092,-0.031248,-0.00021092,-0.035149,0,0,0,0.04084,0.010667,0.0069706,0.016935,0.019493,0.032209,1.759e-06,0,0.95,1
0.0031514,-0.0018568,-0.0021669,0.034028,0.0064377,0.0057278,-0.0046096,1.1699e-05,-0.0048439,0.060756,-0.010978,-0.012824,-0.02397,6.0834e-05,-0.025188,0,0,0,0.035957,0.0064229,0.0038128,0.016072,0.015398,0.030957,1.5687e-06,0.05,0.95,1
0.0060756,-0.00332,-0.0037487,0.028598,0.0016262,0.0010638,-0.0023974,0.00013952,-0.0020349,0.055582,-0.014545,-0.016007,-0.012467,0.00072551,-0.010581,0,0,0,0.029071,0.0016347,0.00058186,0.014245,0.010429,0.027989,1.1594e-06,0.1,0.95,1
0.0087096,-0.0043646,-0.0047932,0.025693,0.00067555,0.0004501,-0.0011893,0.00021233,-0.00081961,0.050711,-0.014335,-0.014921,-0.0061844,0.0011041,-0.004262,0,0,0,0.025814,0.0007645,0.00024054,0.012787,0.0089396,0.025316,8.4361e-07,0.15,0.95,1
0.011147,-0.0051209,-0.0055234,0.023983,0.00018311,8.4862e-05,-0.0005837,0.00019537,-0.00034049,0.047805,-0.014074,-0.01433,-0.0030352,0.0010159,-0.0017705,0,0,0,0.024014,0.00033081,-9.3717e-05,0.012054,0.0080836,0.023898,7.0538e-07,0.2,0.95,1
0.01349,-0.0056755,-0.0060371,0.023252,1.5976e-05,-2.0912e-05,-0.00025661,0.00016443,-9.7888e-05,0.046507,-0.013907,-0.014003,-0.0013344,0.00085504,-0.00050902,0,0,0,0.023259,0.00016694,-0.00017869,0.011719,0.007749,0.023267,6.4922e-07,0.25,0.95,1
0.015797,-0.0060833,-0.0063927,0.023035,-5.0054e-05,-6.0174e-05,-7.1603e-05,0.00013165,3.8149e-05,0.046137,-0.013885,-0.013912,-0.00037234,0.00068459,0.00019837,0,0,0,0.023037,8.1184e-05,-0.00019271,0.011615,0.0076417,0.023094,6.3406e-07,0.3,0.95,1
0.018104,-0.0063814,-0.0066296,0.023123,-6.9445e-05,-6.9636e-05,3.5716e-05,0.00010042,0.00011827,0.046329,-0.013971,-0.013971,0.00018572,0.0005222,0.00061499,0,0,0,0.023124,3.3653e-05,-0.00017374,0.011649,0.0076613,0.023195,6.4198e-07,0.35,0.95,1
0.02043,-0.0065969,-0.006779,0.023384,-6.8589e-05,-6.8828e-05,9.6405e-05,7.0949e-05,0.00016131,0.04685,-0.014126,-0.014127,0.00050131,0.00036894,0.00083883,0,0,0,0.023385,3.0745e-06,-0.00014226,0.011764,0.0077488,0.023455,6.6359e-07,0.4,0.95,1
0.022789,-0.006751,-0.0068672,0.023731,-5.8747e-05,-6.5001e-05,0.00012679,4.3491e-05,0.00017522,0.047537,-0.014317,-0.014333,0.00065933,0.00022615,0.00091112,0,0,0,0.023733,-1.8334e-05,-0.00010769,0.011921,0.0078691,0.023797,6.9274e-07,0.45,0.95,1
0.025184,-0.0068609,-0.0069173,0.0241,-4.6023e-05,-6.0952e-05,0.00013615,1.9103e-05,0.00016427,0.048264,-0.014515,-0.014554,0.00070797,9.9338e-05,0.0008542,0,0,0,0.024102,-2.9513e-05,-7.9678e-05,0.012091,0.0079977,0.024157,7.2447e-07,0.5,0.95,1
0.027615,-0.0069403,-0.0069491,0.02444,-3.3962e-05,-5.6911e-05,0.0001306,-4.5385e-07,0.00013299,0.048934,-0.014698,-0.014757,0.00067911,-2.36e-06,0.00069154,0,0,0,0.024441,-2.7289e-05,-6.5298e-05,0.012253,0.0081163,0.024488,7.5446e-07,0.55,0.95,1
0.030077,-0.0070001,-0.0069781,0.024713,-2.468e-05,-5.2009e-05,0.0001151,-1.3363e-05,8.785e-05,0.049472,-0.014846,-0.014917,0.00059854,-6.9488e-05,0.00045682,0,0,0,0.024714,-1.7302e-05,-6.0458e-05,0.012387,0.0082122,0.024753,7.7911e-07,0.6,0.95,1
0.032562,-0.0070483,-0.0070146,0.024899,-1.9281e-05,-4.5443e-05,9.4212e-05,-1.8569e-05,3.7309e-05,0.049837,-0.014951,-0.015019,0.0004899,-9.656e-05,0.00019401,0,0,0,0.0249,-9.2973e-06,-5.5987e-05,0.012478,0.0082782,0.024932,7.9607e-07,0.65,0.95,1
0.035061,-0.0070898,-0.007063,0.024993,-1.8053e-05,-3.7244e-05,7.199e-05,-1.6369e-05,-9.5575e-06,0.05002,-0.01501,-0.01506,0.00037435,-8.5118e-05,-4.9699e-05,0,0,0,0.024994,-8.3612e-06,-4.7237e-05,0.01252,0.0083127,0.025021,8.0458e-07,0.7,0.95,1
0.037564,-0.0071269,-0.0071224,0.025007,-2.058e-05,-2.8379e-05,5.1568e-05,-8.455e-06,-4.5035e-05,0.050043,-0.015028,-0.015048,0.00026815,-4.3966e-05,-0.00023418,0,0,0,0.025007,-1.2842e-05,-3.6361e-05,0.012522,0.0083192,0.025032,8.0556e-07,0.75,0.95,1
0.040065,-0.00716,-0.0071873,0.024962,-2.5845e-05,-2.0235e-05,3.4744e-05,2.5844e-06,-6.4404e-05,0.049952,-0.015017,-0.015002,0.00018067,1.3439e-05,-0.0003349,0,0,0,0.024962,-1.3661e-05,-3.2674e-05,0.012498,0.0083054,0.024986,8.0114e-07,0.8,0.95,1
0.04256,-0.0071881,-0.0072501,0.024888,-3.2394e-05,-1.391e-05,2.1964e-05,1.402e-05,-6.656e-05,0.049804,-0.014989,-0.014941,0.00011421,7.2904e-05,-0.00034611,0,0,0,0.024888,-5.7589e-06,-4.0778e-05,0.012464,0.0082805,0.024911,7.9403e-07,0.85,0.95,1
0.045046,-0.0072097,-0.0073023,0.024812,-3.8606e-05,-9.7941e-06,1.2658e-05,2.3608e-05,-5.3568e-05,0.049653,-0.014958,-0.014884,6.582e-05,0.00012276,-0.00027855,0,0,0,0.024812,4.1418e-06,-5.2695e-05,0.012432,0.0082545,0.024836,7.8687e-07,0.9,0.95,1
0.047525,-0.0072233,-0.0073368,0.024757,-4.3015e-05,-7.6402e-06,1.167e-06,2.9868e-05,-4.1623e-05,0.049544,-0.014935,-0.014843,6.0686e-06,0.00015531,-0.00021644,0,0,0,0.024757,1.0247e-05,-6.0992e-05,0.012409,0.0082353,0.024782,7.8173e-07,0.95,0.95,1
0.048763,-0.007228,-0.0073488,0.024736,-4.4605e-05,-6.9934e-06,-6.4195e-06,3.203e-05,-3.9533e-05,0.049504,-0.014927,-0.014829,-3.3381e-05,0.00016656,-0.00020557,0,0,0,0.024737,1.2262e-05,-6.3938e-05,0.0124,0.0082283,0.024763,7.7987e-07,1,0.95,1
0.0017604,-0.0011904,-0.0012045,0.040445,0.010913,0.010925,-0.0066725,-7.6265e-05,-0.0067661,0.067787,-0.0089956,-0.0089651,-0.034697,-0.00039658,-0.035184,0,0,0,0.043668,0.011119,0.0074964,0.018086,0.020761,0.034534,2.1598e-06,0,1,1
0.0033894,-0.00214,-0.0021663,0.035714,0.0061474,0.0061643,-0.0047594,-9.3507e-06,-0.0048393,0.064041,-0.012832,-0.012788,-0.024749,-4.8624e-05,-0.025164,0,0,0,0.037651,0.0064002,0.0039746,0.016838,0.016009,0.032562,1.8455e-06,0.05,1,1
0.0064041,-0.0036937,-0.0037386,0.028774,0.0010403,0.0010608,-0.0019732,0.00015556,-0.0020246,0.056287,-0.01582,-0.015767,-0.010261,0.00080892,-0.010528,0,0,0,0.029164,0.0012961,0.00041515,0.014374,0.010292,0.028322,1.2258e-06,0.1,1,1
0.009018,-0.0047287,-0.0047773,0.025249,0.00037973,0.00039806,-0.00080153,0.00023728,-0.00082174,0.050031,-0.014629,-0.014581,-0.004168,0.0012339,-0.0042731,0,0,0,0.025328,0.00059807,0.00010071,0.012614,0.0086756,0.024983,8.1362e-07,0.15,1,1
0.011407,-0.0054746,-0.0055088,0.023427,-2.1906e-06,1.4909e-05,-0.00035931,0.00020148,-0.00034685,0.046846,-0.01407,-0.014025,-0.0018684,0.0010477,-0.0018036,0,0,0,0.023444,0.00020904,-0.00021367,0.011829,0.0078132,0.02345,6.6663e-07,0.2,1,1
0.013703,-0.0060233,-0.0060245,0.022754,-8.6737e-05,-7.0659e-05,-0.0001421,0.00016283,-9.8414e-05,0.045602,-0.013783,-0.013742,-0.00073894,0.00084671,-0.00051175,0,0,0,0.022757,9.1417e-05,-0.00025199,0.011505,0.0075322,0.022839,6.1388e-07,0.25,1,1
0.015967,-0.0064298,-0.0063816,0.022616,-0.00010933,-9.5305e-05,-2.7652e-05,0.0001271,4.3509e-05,0.045355,-0.013731,-0.013695,-0.00014379,0.00066095,0.00022625,0,0,0,0.022617,3.1208e-05,-0.00023649,0.011427,0.0074705,0.022721,6.0359e-07,0.3,1,1
0.018238,-0.0067297,-0.0066191,0.022781,-0.00010451,-9.4489e-05,3.6027e-05,9.5803e-05,0.00012794,0.045681,-0.013821,-0.013795,0.00018734,0.00049818,0.00066529,0,0,0,0.022782,2.6697e-07,-0.00020029,0.011491,0.0075273,0.022883,6.1624e-07,0.35,1,1
0.020536,-0.0069491,-0.0067685,0.023111,-9.0817e-05,-8.7185e-05,7.0761e-05,6.7811e-05,0.00017327,0.046328,-0.013996,-0.013986,0.00036796,0.00035262,0.00090102,0,0,0,0.023112,-1.9581e-05,-0.00016018,0.011636,0.0076442,0.023203,6.4226e-07,0.4,1,1
0.022871,-0.0071082,-0.0068564,0.023518,-7.4555e-05,-7.9293e-05,8.7479e-05,4.2665e-05,0.0001874,0.047128,-0.014212,-0.014224,0.00045489,0.00022186,0.00097448,0,0,0,0.02352,-3.3697e-05,-0.00012224,0.011821,0.007788,0.023598,6.7548e-07,0.45,1,1
0.025248,-0.0072231,-0.0069061,0.023937,-5.8883e-05,-7.2647e-05,9.2077e-05,2.082e-05,0.00017475,0.047953,-0.014436,-0.014472,0.0004788,0.00010827,0.00090871,0,0,0,0.023939,-4.0921e-05,-9.2513e-05,0.012016,0.0079352,0.024006,7.1093e-07,0.5,1,1
0.027666,-0.0073073,-0.0069377,0.024318,-4.5361e-05,-6.6769e-05,8.8262e-05,3.4596e-06,0.00014019,0.048703,-0.014641,-0.014697,0.00045896,1.799e-05,0.00072897,0,0,0,0.024319,-3.8685e-05,-7.4808e-05,0.012197,0.0080685,0.024376,7.4415e-07,0.55,1,1
0.030119,-0.007371,-0.006967,0.024623,-3.4759e-05,-6.0321e-05,7.8876e-05,-8.1034e-06,9.0736e-05,0.049303,-0.014807,-0.014873,0.00041016,-4.2138e-05,0.00047183,0,0,0,0.024624,-3.0032e-05,-6.5807e-05,0.012345,0.0081759,0.024671,7.7142e-07,0.6,1,1
0.032597,-0.0074218,-0.0070043,0.024831,-2.7356e-05,-5.2205e-05,6.6429e-05,-1.3123e-05,3.5576e-05,0.04971,-0.014922,-0.014987,0.00034543,-6.8238e-05,0.000185,0,0,0,0.024832,-2.1266e-05,-5.8638e-05,0.012445,0.0082506,0.024872,7.9025e-07,0.65,1,1
0.03509,-0.0074648,-0.007054,0.02494,-2.3109e-05,-4.2304e-05,5.3108e-05,-1.1912e-05,-1.5442e-05,0.049919,-0.014985,-0.015035,0.00027616,-6.1945e-05,-8.0297e-05,0,0,0,0.02494,-1.7139e-05,-4.8469e-05,0.012494,0.0082915,0.024973,7.999e-07,0.7,1,1
0.037588,-0.0075023,-0.007115,0.024961,-2.17e-05,-3.1553e-05,4.0551e-05,-5.8944e-06,-5.3916e-05,0.049954,-0.015001,-0.015027,0.00021086,-3.0651e-05,-0.00028036,0,0,0,0.024961,-1.7454e-05,-3.6032e-05,0.012499,0.0083025,0.024988,8.0133e-07,0.75,1,1
0.040085,-0.0075351,-0.0071819,0.024919,-2.2532e-05,-2.1422e-05,2.9643e-05,2.7973e-06,-7.4647e-05,0.049864,-0.014984,-0.014981,0.00015414,1.4546e-05,-0.00038817,0,0,0,0.024919,-1.4951e-05,-2.9305e-05,0.012474,0.0082916,0.024941,7.9688e-07,0.8,1,1
0.042575,-0.0075624,-0.0072465,0.024844,-2.475e-05,-1.3183e-05,2.0546e-05,1.1918e-05,-7.6342e-05,0.049711,-0.014948,-0.014918,0.00010684,6.1973e-05,-0.00039698,0,0,0,0.024844,-5.3875e-06,-3.2837e-05,0.012439,0.0082687,0.024864,7.8946e-07,0.85,1,1
0.045056,-0.0075831,-0.0073003,0.024766,-2.7346e-05,-7.4597e-06,1.2923e-05,1.9616e-05,-6.1188e-05,0.049553,-0.01491,-0.014858,6.7199e-05,0.000102,-0.00031818,0,0,0,0.024766,5.2791e-06,-4.0279e-05,0.012403,0.0082438,0.024784,7.8191e-07,0.9,1,1
0.04753,-0.0075961,-0.0073358,0.024709,-2.9366e-05,-4.2314e-06,1.9105e-06,2.4661e-05,-4.6156e-05,0.049439,-0.014882,-0.014816,9.9344e-06,0.00012824,-0.00024001,0,0,0,0.024709,1.1869e-05,-4.5575e-05,0.012378,0.0082253,0.024726,7.7646e-07,0.95,1,1
0.048766,-0.0076006,-0.0073483,0.024689,-3.0123e-05,-3.2068e-06,-5.5953e-06,2.6407e-05,-4.2449e-05,0.049397,-0.014871,-0.014802,-2.9096e-05,0.00013731,-0.00022073,0,0,0,0.024689,1.406e-05,-4.7476e-05,0.012368,0.0082184,0.024705,7.7449e-07,1,1,1
