"Displacements:0","Displacements:1","Stress/Strain:0","Stress/Strain:1","Stress/Strain:2","Stress/Strain:3","Stress/Strain:4","Stress/Strain:5","Stress/Strain:6","Stress/Strain:7","Stress/Strain:8","Stress/Strain:9","Stress/Strain:10","Stress/Strain:11","Stress/Strain:12","Principal Stress:0","Principal Stress:1","Principal Stress:2","Principal Stress:3","Principal Stress:4","Principal Stress:5","Principal Stress:6","nodes:0","nodes:1","nodes:2"
0,0,0.13449,0.057638,0.057638,0.037325,0,0,0.099906,1.0408e-17,0,0.097046,0,0,0,0.14963,0.042494,0.057638,22.084,0.083255,0.10043,4.8057e-05,0,0,0
0.0019981,0.0019409,0.09702,0.0066825,0.031111,0.014734,0,0,0.085682,-0.031757,0,0.038309,0,0,0,0.099362,0.0043401,0.031111,9.0332,0.044938,0.084865,2.1183e-05,0.02,0,0
0.0034273,0.0031115,0.073076,0.0027165,0.022738,0.0046165,0,0,0.065439,-0.026027,0,0.012003,0,0,0,0.073377,0.0024149,0.022738,3.738,0.032843,0.063297,8.6421e-06,0.04,0,0
0.0046157,0.0040999,0.062293,-0.00029111,0.0186,0.0026893,0,0,0.0568,-0.024559,0,0.0069921,0,0,0,0.062408,-0.00040646,0.0186,2.456,0.026867,0.055795,5.5562e-06,0.06,0,0
0.0056993,0.0049262,0.057563,-0.00059161,0.017091,0.0015819,0,0,0.052613,-0.022988,0,0.0041129,0,0,0,0.057606,-0.00063461,0.017091,1.557,0.024688,0.051709,4.3903e-06,0.08,0,0
0.0067202,0.0056406,0.054701,-0.00070325,0.016199,0.0010448,0,0,0.050052,-0.021973,0,0.0027165,0,0,0,0.054721,-0.00072295,0.016199,1.08,0.023399,0.049215,3.7717e-06,0.1,0,0
0.0077014,0.0062655,0.052881,-0.00068302,0.015659,0.00071272,0,0,0.048388,-0.021245,0,0.0018531,0,0,0,0.05289,-0.00069251,0.015659,0.7622,0.022619,0.047564,3.4053e-06,0.12,0,0
0.0086557,0.006817,0.051662,-0.00064035,0.015306,0.0004968,0,0,0.047262,-0.020731,0,0.0012917,0,0,0,0.051666,-0.00064507,0.015306,0.54417,0.022109,0.046438,3.1723e-06,0.14,0,0
0.0095918,0.0073065,0.050841,-0.00059008,0.015075,0.0003467,0,0,0.046495,-0.020365,0,0.00090141,0,0,0,0.050843,-0.00059242,0.015075,0.38621,0.021775,0.045664,3.0205e-06,0.16,0,0
0.010516,0.0077424,0.050297,-0.0005406,0.014927,0.00023839,0,0,0.045981,-0.020108,0,0.00061983,0,0,0,0.050299,-0.00054172,0.014927,0.26867,0.021561,0.045139,2.9218e-06,0.18,0,0
0.011431,0.0081315,0.049955,-0.0004941,0.014838,0.00015795,0,0,0.045652,-0.019932,0,0.00041068,0,0,0,0.049955,-0.00049459,0.014838,0.17939,0.021433,0.044797,2.8598e-06,0.2,0,0
0.012342,0.0084794,0.049762,-0.00045129,0.014793,9.6987e-05,0,0,0.04546,-0.019818,0,0.00025217,0,0,0,0.049762,-0.00045147,0.014793,0.11067,0.021368,0.044591,2.8243e-06,0.22,0,0
0.01325,0.0087906,0.049683,-0.00041216,0.014781,5.0118e-05,0,0,0.045372,-0.019751,0,0.00013031,0,0,0,0.049683,-0.00041221,0.014781,0.057322,0.021351,0.044489,2.8086e-06,0.24,0,0
0.014157,0.0090692,0.04969,-0.0003765,0.014794,1.3755e-05,0,0,0.045365,-0.019722,0,3.5763e-05,0,0,0,0.04969,-0.0003765,0.014794,0.015741,0.021369,0.044467,2.8077e-06,0.26,0,0
0.015064,0.0093185,0.049765,-0.00034398,0.014826,-1.4593e-05,0,0,0.04542,-0.019721,0,-3.7941e-05,0,0,0,0.049765,-0.00034398,0.014826,-0.016686,0.021416,0.044507,2.8184e-06,0.28,0,0
0.015973,0.0095414,0.049891,-0.0003143,0.014873,-3.6702e-05,0,0,0.045524,-0.019744,0,-9.5426e-05,0,0,0,0.049891,-0.00031432,0.014873,-0.041886,0.021483,0.044596,2.8381e-06,0.3,0,0
0.016885,0.0097405,0.050057,-0.00028716,0.014931,-5.3879e-05,0,0,0.045664,-0.019783,0,-0.00014008,0,0,0,0.050057,-0.00028722,0.014931,-0.061319,0.021567,0.044721,2.8648e-06,0.32,0,0
0.0178,0.0099183,0.050253,-0.00026231,0.014997,-6.7102e-05,0,0,0.045832,-0.019837,0,-0.00017447,0,0,0,0.050253,-0.0002624,0.014997,-0.076109,0.021663,0.044875,2.897e-06,0.34,0,0
0.018718,0.010077,0.050471,-0.00023952,0.015069,-7.7121e-05,0,0,0.046022,-0.019902,0,-0.00020051,0,0,0,0.050471,-0.00023964,0.015069,-0.087136,0.021767,0.045051,2.9334e-06,0.36,0,0
0.019641,0.010218,0.050705,-0.00021859,0.015146,-8.4523e-05,0,0,0.046227,-0.019974,0,-0.00021976,0,0,0,0.050706,-0.00021873,0.015146,-0.095099,0.021878,0.045243,2.9731e-06,0.38,0,0
0.020567,0.010343,0.050951,-0.00019935,0.015225,-8.9771e-05,0,0,0.046443,-0.020052,0,-0.00023341,0,0,0,0.050951,-0.00019951,0.015225,-0.10056,0.021992,0.045445,3.0152e-06,0.4,0,0
0.021499,0.010454,0.051203,-0.00018165,0.015306,-9.324e-05,0,0,0.046665,-0.020134,0,-0.00024242,0,0,0,0.051203,-0.00018182,0.015306,-0.10397,0.022109,0.045655,3.059e-06,0.42,0,0
0.022434,0.010552,0.051458,-0.00016535,0.015388,-9.5232e-05,0,0,0.046891,-0.020219,0,-0.0002476,0,0,0,0.051458,-0.00016552,0.015388,-0.1057,0.022227,0.045869,3.1039e-06,0.44,0,0
0.023374,0.010639,0.051714,-0.00015034,0.015469,-9.6e-05,0,0,0.047118,-0.020305,0,-0.0002496,0,0,0,0.051714,-0.00015052,0.015469,-0.10605,0.022344,0.046085,3.1494e-06,0.46,0,0
0.024319,0.010715,0.051968,-0.00013652,0.015549,-9.5751e-05,0,0,0.047344,-0.020392,0,-0.00024895,0,0,0,0.051968,-0.00013669,0.015549,-0.10529,0.02246,0.046299,3.195e-06,0.48,0,0
0.025268,0.010782,0.052218,-0.00012379,0.015628,-9.4659e-05,0,0,0.047566,-0.020477,0,-0.00024611,0,0,0,0.052218,-0.00012396,0.015628,-0.10362,0.022574,0.046511,3.2404e-06,0.5,0,0
0.026221,0.01084,0.052462,-0.00011207,0.015705,-9.2872e-05,0,0,0.047784,-0.020562,0,-0.00024147,0,0,0,0.052462,-0.00011223,0.015705,-0.10121,0.022685,0.046719,3.2853e-06,0.52,0,0
0.027179,0.010892,0.052699,-0.00010128,0.015779,-9.0514e-05,0,0,0.047996,-0.020645,0,-0.00023534,0,0,0,0.052699,-0.00010144,0.015779,-0.09822,0.022793,0.046921,3.3294e-06,0.54,0,0
0.028141,0.010936,0.052929,-9.1369e-05,0.015851,-8.7692e-05,0,0,0.048201,-0.020725,0,-0.000228,0,0,0,0.052929,-9.1514e-05,0.015851,-0.094763,0.022896,0.047117,3.3723e-06,0.56,0,0
0.029107,0.010974,0.05315,-8.2263e-05,0.01592,-8.4494e-05,0,0,0.048398,-0.020803,0,-0.00021968,0,0,0,0.05315,-8.2398e-05,0.01592,-0.090944,0.022996,0.047306,3.414e-06,0.58,0,0
0.030077,0.011007,0.053361,-7.3909e-05,0.015986,-8.0998e-05,0,0,0.048587,-0.020878,0,-0.00021059,0,0,0,0.053361,-7.4032e-05,0.015986,-0.08685,0.023091,0.047487,3.4543e-06,0.6,0,0
0.031051,0.011035,0.053562,-6.6253e-05,0.016049,-7.7269e-05,0,0,0.048767,-0.020949,0,-0.0002009,0,0,0,0.053562,-6.6365e-05,0.016049,-0.082552,0.023182,0.04766,3.493e-06,0.62,0,0
0.032028,0.011059,0.053753,-5.925e-05,0.016108,-7.3362e-05,0,0,0.048939,-0.021018,0,-0.00019074,0,0,0,0.053753,-5.935e-05,0.016108,-0.07811,0.023267,0.047824,3.53e-06,0.64,0,0
0.033008,0.011079,0.053934,-5.2854e-05,0.016164,-6.9324e-05,0,0,0.0491,-0.021082,0,-0.00018024,0,0,0,0.053934,-5.2943e-05,0.016164,-0.073573,0.023348,0.04798,3.5652e-06,0.66,0,0
0.033992,0.011097,0.054103,-4.7026e-05,0.016217,-6.5194e-05,0,0,0.049252,-0.021143,0,-0.0001695,0,0,0,0.054103,-4.7105e-05,0.016217,-0.06898,0.023424,0.048126,3.5985e-06,0.68,0,0
0.034978,0.011111,0.054262,-4.1728e-05,0.016266,-6.1004e-05,0,0,0.049395,-0.0212,0,-0.00015861,0,0,0,0.054262,-4.1797e-05,0.016266,-0.064365,0.023495,0.048263,3.6299e-06,0.7,0,0
0.035968,0.011123,0.05441,-3.6925e-05,0.016312,-5.6782e-05,0,0,0.049528,-0.021254,0,-0.00014763,0,0,0,0.05441,-3.6985e-05,0.016312,-0.059753,0.023562,0.04839,3.6593e-06,0.72,0,0
0.036959,0.011133,0.054547,-3.2587e-05,0.016354,-5.2549e-05,0,0,0.049651,-0.021303,0,-0.00013663,0,0,0,0.054547,-3.2637e-05,0.016354,-0.055163,0.023623,0.048509,3.6867e-06,0.74,0,0
0.037954,0.01114,0.054673,-2.8682e-05,0.016393,-4.8321e-05,0,0,0.049764,-0.021349,0,-0.00012563,0,0,0,0.054673,-2.8725e-05,0.016393,-0.050612,0.023679,0.048618,3.7121e-06,0.76,0,0
0.03895,0.011147,0.054789,-2.5186e-05,0.016429,-4.4112e-05,0,0,0.049868,-0.02139,0,-0.00011469,0,0,0,0.054789,-2.5221e-05,0.016429,-0.046109,0.023731,0.048717,3.7354e-06,0.78,0,0
0.039948,0.011152,0.054894,-2.2073e-05,0.016462,-3.9932e-05,0,0,0.049962,-0.021429,0,-0.00010382,0,0,0,0.054894,-2.2102e-05,0.016462,-0.041662,0.023778,0.048808,3.7567e-06,0.8,0,0
0.040948,0.011156,0.054988,-1.9322e-05,0.016491,-3.5786e-05,0,0,0.050047,-0.021463,0,-9.3044e-05,0,0,0,0.054988,-1.9345e-05,0.016491,-0.037275,0.02382,0.04889,3.7759e-06,0.82,0,0
0.04195,0.011159,0.055072,-1.6912e-05,0.016516,-3.1679e-05,0,0,0.050122,-0.021493,0,-8.2365e-05,0,0,0,0.055072,-1.693e-05,0.016516,-0.032948,0.023857,0.048963,3.793e-06,0.84,0,0
0.042953,0.011162,0.055146,-1.4827e-05,0.016539,-2.7611e-05,0,0,0.050188,-0.02152,0,-7.1789e-05,0,0,0,0.055146,-1.4841e-05,0.016539,-0.02868,0.02389,0.049026,3.8081e-06,0.86,0,0
0.043958,0.011163,0.055209,-1.3051e-05,0.016559,-2.3582e-05,0,0,0.050246,-0.021544,0,-6.1313e-05,0,0,0,0.055209,-1.3061e-05,0.016559,-0.024467,0.023918,0.049082,3.8212e-06,0.88,0,0
0.044963,0.011165,0.055263,-1.157e-05,0.016575,-1.959e-05,0,0,0.050294,-0.021563,0,-5.0933e-05,0,0,0,0.055263,-1.1577e-05,0.016575,-0.020306,0.023942,0.049128,3.8322e-06,0.9,0,0
0.04597,0.011166,0.055307,-1.0374e-05,0.016589,-1.563e-05,0,0,0.050333,-0.021579,0,-4.0637e-05,0,0,0,0.055307,-1.0378e-05,0.016589,-0.016189,0.023962,0.049166,3.8412e-06,0.92,0,0
0.046976,0.011166,0.055341,-9.4528e-06,0.016599,-1.1697e-05,0,0,0.050364,-0.021591,0,-3.0413e-05,0,0,0,0.055341,-9.4553e-06,0.016599,-0.012108,0.023977,0.049195,3.8482e-06,0.94,0,0
0.047984,0.011167,0.055365,-8.8e-06,0.016607,-7.7859e-06,0,0,0.050385,-0.0216,0,-2.0243e-05,0,0,0,0.055365,-8.8011e-06,0.016607,-0.0080561,0.023987,0.049216,3.8532e-06,0.96,0,0
0.048992,0.011167,0.055379,-8.4103e-06,0.016611,-3.8892e-06,0,0,0.050398,-0.021605,0,-1.0112e-05,0,0,0,0.055379,-8.4106e-06,0.016611,-0.0040232,0.023994,0.049229,3.8562e-06,0.98,0,0
0.05,0.011167,0.055384,-8.2808e-06,0.016613,1.5331e-06,0,0,0.050403,-0.021607,0,3.9861e-06,0,0,0,0.055384,-8.2808e-06,0.016613,0.0015858,0.023996,0.049233,3.8572e-06,1,0,0
0,0,0.081342,0.034861,0.034861,0.025111,0,0,0.060426,-3.4694e-18,0,0.06529,0,0,0,0.092317,0.023886,0.034861,23.608,0.050355,0.063658,1.1932e-05,0,0.02,0
0.0012085,0.0013058,0.074193,0.007228,0.024426,0.015646,0,0,0.064697,-0.022358,0,0.04068,0,0,0,0.077669,0.0037527,0.024426,12.523,0.035283,0.066052,1.006e-05,0.02,0.02,0
0.0025879,0.002591,0.074926,0.0056162,0.024163,0.010007,0,0,0.065992,-0.02411,0,0.026018,0,0,0,0.076342,0.0042003,0.024163,8.0535,0.034902,0.064519,9.4732e-06,0.04,0.02,0
0.0038482,0.0036087,0.067834,0.00294,0.021232,0.0058247,0,0,0.060582,-0.02378,0,0.015144,0,0,0,0.068353,0.0024213,0.021232,5.0885,0.030669,0.058827,6.9648e-06,0.06,0.02,0
0.0050112,0.0044665,0.062725,0.001697,0.019327,0.0037596,0,0,0.056418,-0.022918,0,0.009775,0,0,0,0.062955,0.0014663,0.019327,3.512,0.027916,0.054788,5.5196e-06,0.08,0.02,0
0.0061049,0.0052011,0.059213,0.0010461,0.018078,0.0025307,0,0,0.053476,-0.022141,0,0.0065799,0,0,0,0.059323,0.00093624,0.018078,2.4866,0.026112,0.051981,4.6579e-06,0.1,0.02,0
0.0071502,0.0058406,0.056784,0.00068944,0.017242,0.0017633,0,0,0.051404,-0.021518,0,0.0045847,0,0,0,0.056839,0.00063406,0.017242,1.7987,0.024905,0.050014,4.1182e-06,0.12,0.02,0
0.0081611,0.0064024,0.055067,0.00047771,0.016664,0.0012483,0,0,0.049925,-0.021042,0,0.0032455,0,0,0,0.055096,0.00044918,0.016664,1.3092,0.02407,0.048612,3.7632e-06,0.14,0.02,0
0.0091472,0.0068992,0.053838,0.00034391,0.016255,0.00088662,0,0,0.048859,-0.020684,0,0.0023052,0,0,0,0.053853,0.00032922,0.016255,0.94928,0.023479,0.047603,3.5221e-06,0.16,0.02,0
0.010115,0.0073402,0.052955,0.00025479,0.015963,0.00062342,0,0,0.04809,-0.020421,0,0.0016209,0,0,0,0.052963,0.00024742,0.015963,0.67766,0.023058,0.046877,3.3556e-06,0.18,0.02,0
0.011071,0.0077329,0.052326,0.00019285,0.015756,0.00042682,0,0,0.047541,-0.020232,0,0.0011097,0,0,0,0.052329,0.00018936,0.015756,0.46905,0.022758,0.04636,3.2403e-06,0.2,0.02,0
0.012017,0.008083,0.051887,0.00014828,0.015611,0.00027709,0,0,0.047159,-0.020101,0,0.00072044,0,0,0,0.051888,0.00014679,0.015611,0.30684,0.022549,0.046002,3.1618e-06,0.22,0.02,0
0.012957,0.0083956,0.051594,0.00011526,0.015513,0.00016147,0,0,0.046906,-0.020017,0,0.00041983,0,0,0,0.051595,0.00011475,0.015513,0.17971,0.022407,0.045767,3.1104e-06,0.24,0.02,0
0.013893,0.0086748,0.051414,9.021e-05,0.015451,7.1354e-05,0,0,0.046752,-0.01997,0,0.00018552,0,0,0,0.051414,9.011e-05,0.015451,0.079656,0.022319,0.045626,3.0795e-06,0.26,0.02,0
0.014827,0.008924,0.051323,7.0818e-05,0.015418,7.4264e-07,0,0,0.046676,-0.019952,0,1.9309e-06,0,0,0,0.051323,7.0818e-05,0.015418,0.00083022,0.022271,0.04556,3.0644e-06,0.28,0.02,0
0.01576,0.0091465,0.051301,5.5552e-05,0.015407,-5.4664e-05,0,0,0.046663,-0.019957,0,-0.00014213,0,0,0,0.051301,5.5493e-05,0.015407,-0.061118,0.022255,0.045553,3.0615e-06,0.3,0.02,0
0.016694,0.0093449,0.051334,4.3363e-05,0.015413,-9.8032e-05,0,0,0.046697,-0.019981,0,-0.00025488,0,0,0,0.051335,4.3176e-05,0.015413,-0.10951,0.022264,0.045593,3.0682e-06,0.32,0.02,0
0.017628,0.0095216,0.051411,3.3518e-05,0.015433,-0.00013174,0,0,0.046771,-0.02002,0,-0.00034253,0,0,0,0.051411,3.318e-05,0.015433,-0.14692,0.022292,0.045669,3.0826e-06,0.34,0.02,0
0.018565,0.0096787,0.051521,2.5491e-05,0.015464,-0.00015762,0,0,0.046874,-0.02007,0,-0.00040981,0,0,0,0.051521,2.5008e-05,0.015464,-0.17537,0.022337,0.045773,3.103e-06,0.36,0.02,0
0.019503,0.0098183,0.051657,1.8896e-05,0.015503,-0.00017709,0,0,0.047,-0.020129,0,-0.00046042,0,0,0,0.051657,1.8289e-05,0.015503,-0.19649,0.022393,0.0459,3.1281e-06,0.38,0.02,0
0.020445,0.009942,0.051813,1.3448e-05,0.015548,-0.00019128,0,0,0.047144,-0.020195,0,-0.00049733,0,0,0,0.051813,1.2741e-05,0.015548,-0.21157,0.022458,0.046043,3.1569e-06,0.4,0.02,0
0.021389,0.010051,0.051983,8.9284e-06,0.015598,-0.00020111,0,0,0.047301,-0.020265,0,-0.00052288,0,0,0,0.051984,8.1502e-06,0.015598,-0.22169,0.02253,0.046198,3.1885e-06,0.42,0.02,0
0.022337,0.010148,0.052164,5.1703e-06,0.015651,-0.00020731,0,0,0.047467,-0.020339,0,-0.000539,0,0,0,0.052165,4.3463e-06,0.015651,-0.22772,0.022607,0.046362,3.2222e-06,0.44,0.02,0
0.023288,0.010233,0.052352,2.0424e-06,0.015706,-0.0002105,0,0,0.047639,-0.020415,0,-0.00054729,0,0,0,0.052353,1.196e-06,0.015706,-0.23038,0.022687,0.046531,3.2573e-06,0.46,0.02,0
0.024242,0.010307,0.052543,-5.5944e-07,0.015763,-0.00021117,0,0,0.047815,-0.020492,0,-0.00054905,0,0,0,0.052544,-1.4081e-06,0.015763,-0.23026,0.022769,0.046703,3.2933e-06,0.48,0.02,0
0.0252,0.010372,0.052736,-2.7191e-06,0.01582,-0.00020976,0,0,0.047991,-0.02057,0,-0.00054539,0,0,0,0.052737,-3.5534e-06,0.01582,-0.22788,0.022851,0.046877,3.3298e-06,0.5,0.02,0
0.026162,0.010429,0.052928,-4.5051e-06,0.015877,-0.00020663,0,0,0.048166,-0.020646,0,-0.00053723,0,0,0,0.052929,-5.3117e-06,0.015877,-0.22365,0.022934,0.047049,3.3665e-06,0.52,0.02,0
0.027127,0.010479,0.053118,-5.974e-06,0.015934,-0.00020207,0,0,0.04834,-0.020721,0,-0.00052537,0,0,0,0.053119,-6.7426e-06,0.015934,-0.21793,0.023015,0.047218,3.4029e-06,0.54,0.02,0
0.028095,0.010521,0.053304,-7.173e-06,0.015989,-0.00019634,0,0,0.048509,-0.020795,0,-0.00051047,0,0,0,0.053304,-7.8961e-06,0.015989,-0.21101,0.023095,0.047384,3.4388e-06,0.56,0.02,0
0.029067,0.010558,0.053484,-8.1421e-06,0.016043,-0.00018965,0,0,0.048674,-0.020866,0,-0.0004931,0,0,0,0.053485,-8.8146e-06,0.016043,-0.20314,0.023173,0.047546,3.474e-06,0.58,0.02,0
0.030042,0.010589,0.053659,-8.9154e-06,0.016095,-0.00018221,0,0,0.048833,-0.020935,0,-0.00047375,0,0,0,0.05366,-9.5341e-06,0.016095,-0.19452,0.023248,0.047702,3.5082e-06,0.6,0.02,0
0.031021,0.010616,0.053827,-9.5221e-06,0.016145,-0.00017416,0,0,0.048987,-0.021001,0,-0.00045282,0,0,0,0.053828,-1.0086e-05,0.016145,-0.18535,0.023321,0.047851,3.5413e-06,0.62,0.02,0
0.032002,0.010639,0.053988,-9.9875e-06,0.016193,-0.00016564,0,0,0.049133,-0.021064,0,-0.00043067,0,0,0,0.053989,-1.0496e-05,0.016193,-0.17576,0.023391,0.047995,3.5731e-06,0.64,0.02,0
0.032986,0.010658,0.054141,-1.0334e-05,0.016239,-0.00015677,0,0,0.049272,-0.021124,0,-0.0004076,0,0,0,0.054141,-1.0788e-05,0.016239,-0.16587,0.023457,0.048131,3.6035e-06,0.66,0.02,0
0.033973,0.010674,0.054286,-1.058e-05,0.016282,-0.00014763,0,0,0.049404,-0.021181,0,-0.00038385,0,0,0,0.054286,-1.0981e-05,0.016282,-0.15579,0.023519,0.048259,3.6325e-06,0.68,0.02,0
0.034962,0.010687,0.054422,-1.0743e-05,0.016323,-0.00013832,0,0,0.049528,-0.021234,0,-0.00035963,0,0,0,0.054422,-1.1095e-05,0.016323,-0.14559,0.023578,0.04838,3.6599e-06,0.7,0.02,0
0.035954,0.010698,0.054549,-1.0839e-05,0.016362,-0.00012889,0,0,0.049644,-0.021284,0,-0.00033512,0,0,0,0.05455,-1.1143e-05,0.016362,-0.13535,0.023633,0.048494,3.6857e-06,0.72,0.02,0
0.036948,0.010706,0.054668,-1.0879e-05,0.016397,-0.0001194,0,0,0.049752,-0.02133,0,-0.00031045,0,0,0,0.054668,-1.114e-05,0.016397,-0.12512,0.023685,0.048599,3.7098e-06,0.74,0.02,0
0.037944,0.010714,0.054778,-1.0877e-05,0.01643,-0.0001099,0,0,0.049852,-0.021373,0,-0.00028573,0,0,0,0.054778,-1.1097e-05,0.01643,-0.11492,0.023732,0.048696,3.7321e-06,0.76,0.02,0
0.038942,0.010719,0.054878,-1.0841e-05,0.01646,-0.00010041,0,0,0.049944,-0.021413,0,-0.00026106,0,0,0,0.054879,-1.1025e-05,0.01646,-0.10481,0.023776,0.048786,3.7528e-06,0.78,0.02,0
0.039942,0.010724,0.05497,-1.0782e-05,0.016488,-9.0957e-05,0,0,0.050027,-0.021448,0,-0.00023649,0,0,0,0.05497,-1.0932e-05,0.016488,-0.094786,0.023816,0.048868,3.7716e-06,0.8,0.02,0
0.040943,0.010727,0.055053,-1.0706e-05,0.016513,-8.1567e-05,0,0,0.050103,-0.02148,0,-0.00021207,0,0,0,0.055053,-1.0827e-05,0.016513,-0.084873,0.023852,0.048941,3.7887e-06,0.82,0.02,0
0.041946,0.010729,0.055127,-1.0621e-05,0.016535,-7.2246e-05,0,0,0.05017,-0.021509,0,-0.00018784,0,0,0,0.055127,-1.0716e-05,0.016535,-0.075074,0.023884,0.049007,3.8039e-06,0.84,0.02,0
0.04295,0.010731,0.055192,-1.0533e-05,0.016554,-6.3e-05,0,0,0.050229,-0.021535,0,-0.0001638,0,0,0,0.055192,-1.0605e-05,0.016554,-0.065389,0.023912,0.049064,3.8174e-06,0.86,0.02,0
0.043955,0.010733,0.055248,-1.0447e-05,0.016571,-5.3831e-05,0,0,0.05028,-0.021556,0,-0.00013996,0,0,0,0.055248,-1.05e-05,0.016571,-0.055815,0.023936,0.049114,3.8291e-06,0.88,0.02,0
0.044961,0.010734,0.055296,-1.0367e-05,0.016586,-4.4733e-05,0,0,0.050323,-0.021575,0,-0.00011631,0,0,0,0.055296,-1.0403e-05,0.016586,-0.046342,0.023957,0.049156,3.8389e-06,0.9,0.02,0
0.045968,0.010734,0.055335,-1.0297e-05,0.016597,-3.5701e-05,0,0,0.050359,-0.02159,0,-9.2822e-05,0,0,0,0.055335,-1.032e-05,0.016597,-0.036959,0.023974,0.049191,3.847e-06,0.92,0.02,0
0.046975,0.010735,0.055365,-1.024e-05,0.016606,-2.6724e-05,0,0,0.050386,-0.021601,0,-6.9483e-05,0,0,0,0.055365,-1.0253e-05,0.016606,-0.027651,0.023987,0.049217,3.8533e-06,0.94,0.02,0
0.047983,0.010735,0.055386,-1.0197e-05,0.016613,-1.7791e-05,0,0,0.050405,-0.02161,0,-4.6257e-05,0,0,0,0.055386,-1.0203e-05,0.016613,-0.018401,0.023996,0.049236,3.8578e-06,0.96,0.02,0
0.048992,0.010735,0.055399,-1.0171e-05,0.016617,-8.8879e-06,0,0,0.050417,-0.021615,0,-2.3109e-05,0,0,0,0.055399,-1.0173e-05,0.016617,-0.0091906,0.024002,0.049248,3.8605e-06,0.98,0.02,0
0.05,0.010735,0.055403,-1.0162e-05,0.016618,8.5531e-07,0,0,0.050421,-0.021617,0,2.2238e-06,0,0,0,0.055403,-1.0162e-05,0.016618,0.00088437,0.024004,0.049252,3.8613e-06,1,0.02,0
0,0,0.069617,0.029836,0.029836,0.020127,0,0,0.051715,-4.3368e-19,0,0.052331,0,0,0,0.078023,0.021429,0.029836,22.669,0.043096,0.052895,6.958e-06,0,0.04,0
0.0010343,0.0010466,0.067018,0.017583,0.02538,0.018082,0,0,0.054129,-0.010137,0,0.047014,0,0,0,0.072926,0.011675,0.02538,18.094,0.03666,0.055678,7.0869e-06,0.02,0.04,0
0.0021651,0.0021471,0.067121,0.0084299,0.022665,0.014207,0,0,0.057792,-0.018506,0,0.036938,0,0,0,0.070379,0.0051718,0.022665,12.916,0.032739,0.058458,7.2473e-06,0.04,0.04,0
0.003346,0.0031486,0.066334,0.0052489,0.021475,0.010147,0,0,0.058317,-0.021094,0,0.026381,0,0,0,0.067975,0.0036076,0.021475,9.1885,0.031019,0.057553,6.7039e-06,0.06,0.04,0
0.0044978,0.0040095,0.063591,0.0032971,0.020067,0.0070717,0,0,0.056582,-0.0218,0,0.018387,0,0,0,0.064409,0.0024788,0.020067,6.6007,0.028985,0.055277,5.8063e-06,0.08,0.04,0
0.0056093,0.0047549,0.060979,0.0021798,0.018948,0.0050242,0,0,0.054641,-0.021798,0,0.013063,0,0,0,0.061405,0.0017536,0.018948,4.8489,0.027369,0.053182,5.0906e-06,0.1,0.04,0
0.0066834,0.0054048,0.058821,0.0014994,0.018096,0.0036207,0,0,0.052943,-0.021576,0,0.0094139,0,0,0,0.059049,0.0012716,0.018096,3.6,0.026139,0.051471,4.5638e-06,0.12,0.04,0
0.007727,0.0059754,0.057129,0.0010689,0.017459,0.002635,0,0,0.05157,-0.021308,0,0.006851,0,0,0,0.057252,0.00094533,0.017459,2.6852,0.025219,0.050133,4.1835e-06,0.14,0.04,0
0.0087463,0.0064791,0.055823,0.00078445,0.016982,0.001921,0,0,0.050493,-0.021057,0,0.0049947,0,0,0,0.05589,0.00071748,0.016982,1.9966,0.02453,0.049104,3.908e-06,0.16,0.04,0
0.0097467,0.0069255,0.054824,0.0005892,0.016624,0.0013908,0,0,0.04966,-0.020845,0,0.0036162,0,0,0,0.054859,0.00055356,0.016624,1.4681,0.024012,0.048319,3.7071e-06,0.18,0.04,0
0.010733,0.0073222,0.054066,0.00045063,0.016355,0.00098887,0,0,0.049024,-0.020676,0,0.0025711,0,0,0,0.054084,0.0004324,0.016355,1.0563,0.023624,0.047726,3.5603e-06,0.2,0.04,0
0.011708,0.0076753,0.053498,0.0003494,0.016154,0.0006792,0,0,0.048547,-0.020546,0,0.0017659,0,0,0,0.053506,0.00034072,0.016154,0.73204,0.023334,0.047286,3.4536e-06,0.22,0.04,0
0.012675,0.00799,0.05308,0.00027359,0.016006,0.00043775,0,0,0.048196,-0.020452,0,0.0011381,0,0,0,0.053084,0.00026996,0.016006,0.47492,0.02312,0.046966,3.3771e-06,0.24,0.04,0
0.013636,0.0082704,0.052782,0.00021559,0.015899,0.00024787,0,0,0.047948,-0.020389,0,0.00064446,0,0,0,0.052783,0.00021442,0.015899,0.27016,0.022966,0.046744,3.3238e-06,0.26,0.04,0
0.014592,0.0085204,0.052581,0.00017041,0.015825,9.7779e-05,0,0,0.047782,-0.020351,0,0.00025423,0,0,0,0.052581,0.00017022,0.015825,0.10689,0.022859,0.046599,3.2886e-06,0.28,0.04,0
0.015547,0.0087431,0.052456,0.00013466,0.015777,-2.1103e-05,0,0,0.047683,-0.020335,0,-5.4868e-05,0,0,0,0.052456,0.00013465,0.015777,-0.023109,0.02279,0.046517,3.2677e-06,0.3,0.04,0
0.0165,0.0089413,0.052394,0.00010601,0.01575,-0.00011515,0,0,0.047638,-0.020337,0,-0.00029939,0,0,0,0.052395,0.00010575,0.01575,-0.12618,0.02275,0.046485,3.2581e-06,0.32,0.04,0
0.017452,0.0091175,0.052383,8.2787e-05,0.01574,-0.00018919,0,0,0.047636,-0.020354,0,-0.00049189,0,0,0,0.052383,8.2103e-05,0.01574,-0.20726,0.022735,0.046494,3.2576e-06,0.34,0.04,0
0.018405,0.009274,0.052411,6.3802e-05,0.015742,-0.00024695,0,0,0.047669,-0.020382,0,-0.00064207,0,0,0,0.052413,6.2637e-05,0.015742,-0.27028,0.022739,0.046535,3.2643e-06,0.36,0.04,0
0.019359,0.0094126,0.052472,4.8166e-05,0.015756,-0.00029135,0,0,0.047731,-0.02042,0,-0.00075752,0,0,0,0.052474,4.6547e-05,0.015756,-0.31842,0.022759,0.046602,3.2769e-06,0.38,0.04,0
0.020314,0.0095353,0.052558,3.5217e-05,0.015778,-0.00032473,0,0,0.047814,-0.020466,0,-0.00084429,0,0,0,0.05256,3.3209e-05,0.015778,-0.35422,0.022791,0.04669,3.294e-06,0.4,0.04,0
0.021272,0.0096435,0.052664,2.445e-05,0.015807,-0.00034895,0,0,0.047915,-0.020517,0,-0.00090726,0,0,0,0.052667,2.2137e-05,0.015807,-0.37979,0.022832,0.046794,3.3148e-06,0.42,0.04,0
0.022231,0.0097387,0.052786,1.5474e-05,0.01584,-0.00036554,0,0,0.048029,-0.020572,0,-0.00095041,0,0,0,0.052788,1.2942e-05,0.01584,-0.39687,0.022881,0.046909,3.3384e-06,0.44,0.04,0
0.023193,0.0098223,0.052918,7.9827e-06,0.015878,-0.00037577,0,0,0.048152,-0.020631,0,-0.00097701,0,0,0,0.052921,5.3141e-06,0.015878,-0.40689,0.022935,0.047033,3.3642e-06,0.46,0.04,0
0.024157,0.0098955,0.053059,1.732e-06,0.015918,-0.00038069,0,0,0.048283,-0.020691,0,-0.00098979,0,0,0,0.053061,-9.993e-07,0.015918,-0.41107,0.022993,0.047163,3.3915e-06,0.48,0.04,0
0.025124,0.0099593,0.053205,-3.4753e-06,0.01596,-0.00038116,0,0,0.048418,-0.020753,0,-0.00099102,0,0,0,0.053207,-6.2056e-06,0.01596,-0.41042,0.023054,0.047297,3.4199e-06,0.5,0.04,0
0.026094,0.010015,0.053353,-7.8e-06,0.016004,-0.00037794,0,0,0.048555,-0.020815,0,-0.00098265,0,0,0,0.053356,-1.0477e-05,0.016004,-0.40578,0.023116,0.047432,3.4489e-06,0.52,0.04,0
0.027066,0.010063,0.053503,-1.1375e-05,0.016047,-0.00037165,0,0,0.048692,-0.020876,0,-0.00096629,0,0,0,0.053505,-1.3956e-05,0.016047,-0.39789,0.02318,0.047568,3.4783e-06,0.54,0.04,0
0.028042,0.010104,0.053652,-1.4313e-05,0.016091,-0.00036282,0,0,0.048829,-0.020937,0,-0.00094333,0,0,0,0.053654,-1.6765e-05,0.016091,-0.38733,0.023243,0.047702,3.5076e-06,0.56,0.04,0
0.029019,0.010139,0.053799,-1.6705e-05,0.016135,-0.00035191,0,0,0.048963,-0.020997,0,-0.00091496,0,0,0,0.053801,-1.9006e-05,0.016135,-0.37465,0.023305,0.047835,3.5366e-06,0.58,0.04,0
0.03,0.010169,0.053942,-1.8634e-05,0.016177,-0.0003393,0,0,0.049095,-0.021054,0,-0.00088218,0,0,0,0.053944,-2.0767e-05,0.016177,-0.36025,0.023367,0.047963,3.565e-06,0.6,0.04,0
0.030983,0.010195,0.054082,-2.0167e-05,0.016219,-0.00032533,0,0,0.049222,-0.02111,0,-0.00084585,0,0,0,0.054084,-2.2123e-05,0.016219,-0.34451,0.023427,0.048088,3.5928e-06,0.62,0.04,0
0.031969,0.010216,0.054216,-2.1363e-05,0.016258,-0.00031027,0,0,0.049345,-0.021164,0,-0.0008067,0,0,0,0.054218,-2.3138e-05,0.016258,-0.32775,0.023484,0.048208,3.6197e-06,0.64,0.04,0
0.032957,0.010234,0.054345,-2.2276e-05,0.016297,-0.00029437,0,0,0.049463,-0.021215,0,-0.00076535,0,0,0,0.054347,-2.3869e-05,0.016297,-0.31021,0.02354,0.048323,3.6456e-06,0.66,0.04,0
0.033947,0.010249,0.054468,-2.2949e-05,0.016334,-0.00027782,0,0,0.049575,-0.021263,0,-0.00072234,0,0,0,0.054469,-2.4365e-05,0.016334,-0.29211,0.023593,0.048433,3.6704e-06,0.68,0.04,0
0.03494,0.010261,0.054584,-2.3423e-05,0.016368,-0.0002608,0,0,0.049681,-0.021309,0,-0.00067809,0,0,0,0.054585,-2.4668e-05,0.016368,-0.27364,0.023643,0.048536,3.6939e-06,0.7,0.04,0
0.035935,0.010271,0.054693,-2.3732e-05,0.016401,-0.00024345,0,0,0.04978,-0.021352,0,-0.00063298,0,0,0,0.054695,-2.4815e-05,0.016401,-0.25492,0.02369,0.048633,3.7161e-06,0.72,0.04,0
0.036931,0.010279,0.054796,-2.3907e-05,0.016432,-0.00022589,0,0,0.049873,-0.021392,0,-0.00058731,0,0,0,0.054797,-2.4838e-05,0.016432,-0.23608,0.023734,0.048724,3.737e-06,0.74,0.04,0
0.03793,0.010285,0.054891,-2.3976e-05,0.01646,-0.0002082,0,0,0.04996,-0.021429,0,-0.00054132,0,0,0,0.054891,-2.4765e-05,0.01646,-0.21722,0.023776,0.048808,3.7564e-06,0.76,0.04,0
0.03893,0.01029,0.054978,-2.3962e-05,0.016486,-0.00019046,0,0,0.05004,-0.021463,0,-0.0004952,0,0,0,0.054979,-2.4621e-05,0.016486,-0.1984,0.023814,0.048886,3.7744e-06,0.78,0.04,0
0.039931,0.010294,0.055058,-2.3886e-05,0.01651,-0.00017273,0,0,0.050112,-0.021494,0,-0.0004491,0,0,0,0.055059,-2.4428e-05,0.01651,-0.17967,0.023848,0.048957,3.7908e-06,0.8,0.04,0
0.040934,0.010297,0.055131,-2.3767e-05,0.016532,-0.00015505,0,0,0.050178,-0.021523,0,-0.00040314,0,0,0,0.055131,-2.4203e-05,0.016532,-0.16107,0.02388,0.049021,3.8057e-06,0.82,0.04,0
0.041938,0.010299,0.055195,-2.362e-05,0.016552,-0.00013746,0,0,0.050237,-0.021548,0,-0.00035739,0,0,0,0.055196,-2.3962e-05,0.016552,-0.14263,0.023908,0.049078,3.8191e-06,0.84,0.04,0
0.042944,0.0103,0.055253,-2.3461e-05,0.016569,-0.00011996,0,0,0.050289,-0.02157,0,-0.00031189,0,0,0,0.055253,-2.3721e-05,0.016569,-0.12434,0.023933,0.049129,3.831e-06,0.86,0.04,0
0.04395,0.010301,0.055302,-2.3299e-05,0.016584,-0.00010257,0,0,0.050334,-0.021589,0,-0.00026667,0,0,0,0.055302,-2.3489e-05,0.016584,-0.10622,0.023954,0.049172,3.8412e-06,0.88,0.04,0
0.044957,0.010302,0.055344,-2.3146e-05,0.016596,-8.5279e-05,0,0,0.050372,-0.021605,0,-0.00022172,0,0,0,0.055344,-2.3277e-05,0.016596,-0.088249,0.023972,0.049209,3.85e-06,0.9,0.04,0
0.045965,0.010302,0.055378,-2.301e-05,0.016606,-6.809e-05,0,0,0.050403,-0.021618,0,-0.00017703,0,0,0,0.055378,-2.3094e-05,0.016606,-0.070419,0.023987,0.04924,3.8571e-06,0.92,0.04,0
0.046973,0.010302,0.055405,-2.2897e-05,0.016615,-5.0987e-05,0,0,0.050427,-0.021629,0,-0.00013257,0,0,0,0.055405,-2.2944e-05,0.016615,-0.052706,0.023999,0.049263,3.8626e-06,0.94,0.04,0
0.047982,0.010303,0.055424,-2.2813e-05,0.01662,-3.3952e-05,0,0,0.050444,-0.021636,0,-8.8275e-05,0,0,0,0.055424,-2.2834e-05,0.01662,-0.035084,0.024007,0.04928,3.8666e-06,0.96,0.04,0
0.048991,0.010303,0.055435,-2.2761e-05,0.016624,-1.6964e-05,0,0,0.050455,-0.02164,0,-4.4106e-05,0,0,0,0.055435,-2.2767e-05,0.016624,-0.017526,0.024012,0.04929,3.8689e-06,0.98,0.04,0
0.05,0.010303,0.055439,-2.2744e-05,0.016625,2.5315e-07,0,0,0.050458,-0.021642,0,6.5819e-07,0,0,0,0.055439,-2.2744e-05,0.016625,0.00026152,0.024014,0.049293,3.8697e-06,1,0.04,0
0,0,0.0634,0.027172,0.027172,0.017314,0,0,0.047098,2.1684e-19,0,0.045016,0,0,0,0.070344,0.020228,0.027172,21.853,0.039248,0.04703,4.9523e-06,0,0.06,0
0.00094195,0.00090033,0.062496,0.019968,0.024739,0.016426,0,0,0.049084,-0.0062022,0,0.042708,0,0,0,0.068102,0.014363,0.024739,18.843,0.035735,0.049375,5.2736e-06,0.02,0.06,0
0.0019633,0.0018508,0.063265,0.013057,0.022897,0.014853,0,0,0.052479,-0.012791,0,0.038619,0,0,0,0.06733,0.0089924,0.022897,15.306,0.033073,0.052778,5.8206e-06,0.04,0.06,0
0.0030411,0.0027649,0.063337,0.0082351,0.021472,0.012032,0,0,0.054425,-0.017207,0,0.031284,0,0,0,0.06585,0.0057222,0.021472,11.796,0.031014,0.054003,5.8297e-06,0.06,0.06,0
0.0041403,0.0035944,0.062559,0.0055203,0.020424,0.0092599,0,0,0.054776,-0.019375,0,0.024076,0,0,0,0.064025,0.0040546,0.020424,8.9939,0.029501,0.053691,5.5292e-06,0.08,0.06,0
0.0052321,0.0043292,0.061137,0.003807,0.019483,0.0069961,0,0,0.05415,-0.020379,0,0.01819,0,0,0,0.061978,0.0029656,0.019483,6.8579,0.028142,0.052731,5.1146e-06,0.1,0.06,0
0.0063063,0.0049776,0.05964,0.0027094,0.018705,0.0052724,0,0,0.053216,-0.020794,0,0.013708,0,0,0,0.060124,0.0022253,0.018705,5.2467,0.027018,0.05167,4.7312e-06,0.12,0.06,0
0.0073608,0.0055501,0.05828,0.0019798,0.018078,0.0039709,0,0,0.052263,-0.020928,0,0.010324,0,0,0,0.058559,0.0017011,0.018078,4.0146,0.026113,0.050694,4.4125e-06,0.14,0.06,0
0.0083968,0.0060569,0.057123,0.0014799,0.017581,0.0029831,0,0,0.051404,-0.020931,0,0.007756,0,0,0,0.057282,0.0013204,0.017581,3.06,0.025394,0.049861,4.159e-06,0.16,0.06,0
0.009417,0.0065064,0.05617,0.0011271,0.017189,0.0022249,0,0,0.050675,-0.02088,0,0.0057846,0,0,0,0.05626,0.0010374,0.017189,2.3109,0.024829,0.049178,3.961e-06,0.18,0.06,0
0.010424,0.0069058,0.055401,0.00087151,0.016882,0.001636,0,0,0.050076,-0.020813,0,0.0042537,0,0,0,0.05545,0.00082247,0.016882,1.7169,0.024385,0.04863,3.808e-06,0.2,0.06,0
0.01142,0.0072612,0.054792,0.00068176,0.016642,0.0011739,0,0,0.049594,-0.020748,0,0.0030523,0,0,0,0.054817,0.0006563,0.016642,1.2423,0.024039,0.048199,3.6908e-06,0.22,0.06,0
0.012408,0.0075775,0.054315,0.0005379,0.016456,0.00080821,0,0,0.049217,-0.020694,0,0.0021014,0,0,0,0.054328,0.00052576,0.016456,0.86083,0.02377,0.047868,3.6019e-06,0.24,0.06,0
0.013389,0.0078592,0.05395,0.0004268,0.016313,0.00051689,0,0,0.048928,-0.020652,0,0.0013439,0,0,0,0.053956,0.00042181,0.016313,0.55325,0.023564,0.04762,3.5357e-06,0.26,0.06,0
0.014365,0.00811,0.053678,0.00033959,0.016205,0.00028391,0,0,0.048715,-0.020626,0,0.00073815,0,0,0,0.05368,0.00033808,0.016205,0.30496,0.023408,0.047442,3.4876e-06,0.28,0.06,0
0.015337,0.0083331,0.053483,0.00027018,0.016126,9.7258e-05,0,0,0.048564,-0.020612,0,0.00025287,0,0,0,0.053483,0.00027,0.016126,0.10472,0.023293,0.047321,3.4541e-06,0.3,0.06,0
0.016307,0.0085314,0.053351,0.00021426,0.01607,-5.2142e-05,0,0,0.048466,-0.020612,0,-0.00013557,0,0,0,0.053351,0.00021421,0.01607,-0.056223,0.023212,0.047249,3.4324e-06,0.32,0.06,0
0.017276,0.0087074,0.053272,0.00016877,0.016032,-0.00017129,0,0,0.048412,-0.020622,0,-0.00044537,0,0,0,0.053273,0.00016822,0.016032,-0.18482,0.023158,0.047215,3.4204e-06,0.34,0.06,0
0.018244,0.0088635,0.053236,0.00013144,0.01601,-0.00026567,0,0,0.048393,-0.020642,0,-0.00069074,0,0,0,0.053237,0.00013011,0.01601,-0.28663,0.023126,0.047214,3.4163e-06,0.36,0.06,0
0.019212,0.0090015,0.053235,0.0001006,0.016001,-0.00033959,0,0,0.048405,-0.02067,0,-0.00088294,0,0,0,0.053237,9.8431e-05,0.016001,-0.36617,0.023112,0.04724,3.4184e-06,0.38,0.06,0
0.02018,0.0091234,0.053263,7.4991e-05,0.016001,-0.00039654,0,0,0.04844,-0.020704,0,-0.001031,0,0,0,0.053266,7.2035e-05,0.016001,-0.42714,0.023113,0.047286,3.4258e-06,0.4,0.06,0
0.021149,0.0092307,0.053314,5.3639e-05,0.01601,-0.00043934,0,0,0.048495,-0.020744,0,-0.0011423,0,0,0,0.053318,5.0015e-05,0.01601,-0.47258,0.023126,0.04735,3.4374e-06,0.42,0.06,0
0.02212,0.009325,0.053384,3.5792e-05,0.016026,-0.00047029,0,0,0.048565,-0.020787,0,-0.0012228,0,0,0,0.053388,3.1646e-05,0.016026,-0.50504,0.023148,0.047427,3.4522e-06,0.44,0.06,0
0.023092,0.0094076,0.053468,2.0856e-05,0.016047,-0.00049131,0,0,0.048648,-0.020834,0,-0.0012774,0,0,0,0.053472,1.634e-05,0.016047,-0.52663,0.023179,0.047514,3.4697e-06,0.46,0.06,0
0.024066,0.0094797,0.053563,8.356e-06,0.016071,-0.000504,0,0,0.048739,-0.020882,0,-0.0013104,0,0,0,0.053568,3.6133e-06,0.016071,-0.53914,0.023214,0.047609,3.4893e-06,0.48,0.06,0
0.025041,0.0095424,0.053667,-2.0913e-06,0.016099,-0.00050969,0,0,0.048838,-0.020932,0,-0.0013252,0,0,0,0.053672,-6.9315e-06,0.016099,-0.54407,0.023255,0.04771,3.5103e-06,0.5,0.06,0
0.026019,0.0095967,0.053776,-1.08e-05,0.01613,-0.00050953,0,0,0.04894,-0.020983,0,-0.0013248,0,0,0,0.053781,-1.5627e-05,0.01613,-0.5427,0.023298,0.047814,3.5324e-06,0.52,0.06,0
0.026999,0.0096435,0.053889,-1.8032e-05,0.016161,-0.00050446,0,0,0.049046,-0.021033,0,-0.0013116,0,0,0,0.053894,-2.2752e-05,0.016161,-0.5361,0.023344,0.04792,3.5552e-06,0.54,0.06,0
0.027981,0.0096837,0.054004,-2.4003e-05,0.016194,-0.0004953,0,0,0.049153,-0.021083,0,-0.0012878,0,0,0,0.054008,-2.8544e-05,0.016194,-0.52521,0.023391,0.048026,3.5783e-06,0.56,0.06,0
0.028965,0.009718,0.054119,-2.8899e-05,0.016227,-0.00048277,0,0,0.04926,-0.021133,0,-0.0012552,0,0,0,0.054123,-3.3203e-05,0.016227,-0.51078,0.023439,0.048132,3.6015e-06,0.58,0.06,0
0.029951,0.0097471,0.054233,-3.2875e-05,0.01626,-0.00046746,0,0,0.049365,-0.021181,0,-0.0012154,0,0,0,0.054237,-3.6901e-05,0.01626,-0.49351,0.023487,0.048237,3.6246e-06,0.6,0.06,0
0.03094,0.0097716,0.054346,-3.6067e-05,0.016293,-0.00044987,0,0,0.049469,-0.021228,0,-0.0011697,0,0,0,0.05435,-3.9788e-05,0.016293,-0.47394,0.023534,0.048339,3.6473e-06,0.62,0.06,0
0.03193,0.0097922,0.054455,-3.8591e-05,0.016325,-0.00043045,0,0,0.049569,-0.021273,0,-0.0011192,0,0,0,0.054459,-4.1991e-05,0.016325,-0.45255,0.023581,0.048438,3.6695e-06,0.64,0.06,0
0.032923,0.0098092,0.054561,-4.0548e-05,0.016356,-0.00040957,0,0,0.049667,-0.021316,0,-0.0010649,0,0,0,0.054564,-4.3621e-05,0.016356,-0.42975,0.023626,0.048533,3.691e-06,0.66,0.06,0
0.033917,0.0098231,0.054663,-4.2028e-05,0.016386,-0.00038755,0,0,0.04976,-0.021357,0,-0.0010076,0,0,0,0.054666,-4.4774e-05,0.016386,-0.40587,0.023669,0.048624,3.7117e-06,0.68,0.06,0
0.034913,0.0098345,0.05476,-4.3108e-05,0.016415,-0.00036464,0,0,0.049848,-0.021396,0,-0.00094806,0,0,0,0.054762,-4.5535e-05,0.016415,-0.3812,0.023711,0.04871,3.7315e-06,0.7,0.06,0
0.035911,0.0098436,0.054852,-4.3857e-05,0.016442,-0.00034108,0,0,0.049932,-0.021432,0,-0.0008868,0,0,0,0.054854,-4.5976e-05,0.016442,-0.35597,0.02375,0.048792,3.7502e-06,0.72,0.06,0
0.03691,0.0098508,0.054938,-4.4334e-05,0.016468,-0.00031705,0,0,0.050011,-0.021466,0,-0.00082432,0,0,0,0.05494,-4.6162e-05,0.016468,-0.33037,0.023787,0.048868,3.7679e-06,0.74,0.06,0
0.037911,0.0098563,0.055018,-4.4592e-05,0.016492,-0.0002927,0,0,0.050084,-0.021498,0,-0.00076101,0,0,0,0.05502,-4.6148e-05,0.016492,-0.30455,0.023822,0.04894,3.7844e-06,0.76,0.06,0
0.038914,0.0098606,0.055093,-4.4679e-05,0.016515,-0.00026815,0,0,0.050152,-0.021527,0,-0.00069719,0,0,0,0.055094,-4.5983e-05,0.016515,-0.27864,0.023854,0.049006,3.7997e-06,0.78,0.06,0
0.039917,0.0098637,0.055161,-4.4635e-05,0.016535,-0.00024351,0,0,0.050214,-0.021553,0,-0.00063311,0,0,0,0.055162,-4.5709e-05,0.016535,-0.25272,0.023884,0.049066,3.8138e-06,0.8,0.06,0
0.040922,0.0098659,0.055223,-4.4497e-05,0.016554,-0.00021883,0,0,0.050271,-0.021578,0,-0.00056897,0,0,0,0.055224,-4.5364e-05,0.016554,-0.22686,0.023911,0.049121,3.8267e-06,0.82,0.06,0
0.041928,0.0098675,0.055279,-4.4296e-05,0.01657,-0.0001942,0,0,0.050321,-0.021599,0,-0.00050491,0,0,0,0.05528,-4.4977e-05,0.01657,-0.20111,0.023935,0.04917,3.8382e-06,0.84,0.06,0
0.042935,0.0098685,0.055328,-4.4058e-05,0.016585,-0.00016962,0,0,0.050366,-0.021618,0,-0.00044102,0,0,0,0.055329,-4.4577e-05,0.016585,-0.17551,0.023956,0.049213,3.8484e-06,0.86,0.06,0
0.043943,0.0098691,0.055371,-4.3807e-05,0.016598,-0.00014514,0,0,0.050405,-0.021635,0,-0.00037735,0,0,0,0.055371,-4.4187e-05,0.016598,-0.15006,0.023975,0.04925,3.8572e-06,0.88,0.06,0
0.044951,0.0098694,0.055407,-4.3563e-05,0.016609,-0.00012075,0,0,0.050438,-0.021648,0,-0.00031395,0,0,0,0.055407,-4.3826e-05,0.016609,-0.12477,0.023991,0.049282,3.8647e-06,0.9,0.06,0
0.04596,0.0098695,0.055437,-4.3342e-05,0.016618,-9.6461e-05,0,0,0.050464,-0.02166,0,-0.0002508,0,0,0,0.055437,-4.351e-05,0.016618,-0.099617,0.024004,0.049308,3.8709e-06,0.92,0.06,0
0.04697,0.0098695,0.05546,-4.3157e-05,0.016625,-7.226e-05,0,0,0.050485,-0.021669,0,-0.00018787,0,0,0,0.05546,-4.3251e-05,0.016625,-0.074593,0.024014,0.049328,3.8757e-06,0.94,0.06,0
0.04798,0.0098695,0.055476,-4.3018e-05,0.01663,-4.8131e-05,0,0,0.0505,-0.021675,0,-0.00012514,0,0,0,0.055476,-4.306e-05,0.01663,-0.04967,0.024021,0.049343,3.8791e-06,0.96,0.06,0
0.04899,0.0098695,0.055486,-4.2932e-05,0.016633,-2.4052e-05,0,0,0.050509,-0.021679,0,-6.2536e-05,0,0,0,0.055486,-4.2942e-05,0.016633,-0.024817,0.024025,0.049352,3.8812e-06,0.98,0.06,0
0.05,0.0098695,0.055489,-4.2902e-05,0.016634,-2.705e-07,0,0,0.050512,-0.02168,0,-7.0331e-07,0,0,0,0.055489,-4.2902e-05,0.016634,-0.00027909,0.024027,0.049354,3.8819e-06,1,0.06,0
0,0,0.060028,0.025726,0.025726,0.015356,0,0,0.044593,6.5052e-19,0,0.039926,0,0,0,0.065899,0.019856,0.025726,20.92,0.03716,0.043406,3.9424e-06,0,0.08,0
0.00089185,0.00079852,0.059497,0.020537,0.02401,0.014939,0,0,0.046133,-0.004515,0,0.038842,0,0,0,0.064566,0.015468,0.02401,18.742,0.034682,0.045433,4.2484e-06,0.02,0.08,0
0.0018453,0.0016355,0.060498,0.015406,0.022771,0.014131,0,0,0.049045,-0.0095753,0,0.036741,0,0,0,0.064561,0.011343,0.022771,16.039,0.032892,0.048524,4.7887e-06,0.04,0.08,0
0.0028537,0.0024604,0.061067,0.010999,0.02162,0.012391,0,0,0.051281,-0.013807,0,0.032216,0,0,0,0.063966,0.0081006,0.02162,13.167,0.031229,0.050482,5.0444e-06,0.06,0.08,0
0.0038966,0.0032345,0.06104,0.0078044,0.020653,0.010263,0,0,0.052503,-0.016704,0,0.026683,0,0,0,0.06295,0.0058944,0.020653,10.542,0.029833,0.051294,5.0456e-06,0.08,0.08,0
0.0049538,0.0039398,0.060503,0.0056423,0.019844,0.008231,0,0,0.052857,-0.018462,0,0.0214,0,0,0,0.061711,0.0044339,0.019844,8.3514,0.028663,0.051337,4.8964e-06,0.1,0.08,0
0.0060108,0.004573,0.059661,0.004153,0.019144,0.0064898,0,0,0.052672,-0.019488,0,0.016873,0,0,0,0.060409,0.0034044,0.019144,6.5806,0.027653,0.050991,4.6859e-06,0.12,0.08,0
0.0070606,0.0051383,0.058735,0.003114,0.018555,0.0050677,0,0,0.052234,-0.020073,0,0.013176,0,0,0,0.059193,0.002656,0.018555,5.1637,0.026801,0.050501,4.4719e-06,0.14,0.08,0
0.0081002,0.0056419,0.057845,0.002374,0.018066,0.0039258,0,0,0.051713,-0.020399,0,0.010207,0,0,0,0.058121,0.0020976,0.018066,4.0282,0.026095,0.04999,4.2786e-06,0.16,0.08,0
0.0091291,0.0060903,0.057045,0.0018362,0.017664,0.0030128,0,0,0.051195,-0.020577,0,0.0078333,0,0,0,0.057209,0.0016722,0.017664,3.1144,0.025515,0.049517,4.1135e-06,0.18,0.08,0
0.010148,0.0064897,0.056355,0.0014373,0.017338,0.0022817,0,0,0.050723,-0.020671,0,0.0059325,0,0,0,0.05645,0.0013426,0.017338,2.3751,0.025043,0.049104,3.977e-06,0.2,0.08,0
0.011158,0.0068454,0.055776,0.0011358,0.017073,0.0016943,0,0,0.050313,-0.020719,0,0.0044051,0,0,0,0.055828,0.0010833,0.017073,1.7744,0.024662,0.048758,3.8663e-06,0.22,0.08,0
0.01216,0.0071622,0.055298,0.00090387,0.016861,0.0012204,0,0,0.049969,-0.020744,0,0.0031729,0,0,0,0.055326,0.0008765,0.016861,1.2846,0.024354,0.048476,3.7781e-06,0.24,0.08,0
0.013157,0.0074443,0.054913,0.00072272,0.016691,0.00083685,0,0,0.049689,-0.020758,0,0.0021758,0,0,0,0.054926,0.0007098,0.016691,0.88453,0.024109,0.048253,3.7089e-06,0.26,0.08,0
0.014148,0.0076954,0.054608,0.00057923,0.016556,0.00052584,0,0,0.049467,-0.02077,0,0.0013672,0,0,0,0.054613,0.00057411,0.016556,0.55757,0.023914,0.048083,3.6556e-06,0.28,0.08,0
0.015135,0.0079186,0.054372,0.00046416,0.016451,0.0002735,0,0,0.049297,-0.020782,0,0.00071111,0,0,0,0.054373,0.00046277,0.016451,0.29069,0.023762,0.047958,3.6156e-06,0.3,0.08,0
0.01612,0.0081168,0.054195,0.00037089,0.01637,6.9019e-05,0,0,0.049173,-0.020799,0,0.00017945,0,0,0,0.054195,0.0003708,0.01637,0.07347,0.023645,0.047873,3.5868e-06,0.32,0.08,0
0.017102,0.0082926,0.054068,0.00029461,0.016309,-9.6137e-05,0,0,0.049087,-0.020819,0,-0.00024996,0,0,0,0.054068,0.00029444,0.016309,-0.10243,0.023557,0.047822,3.5672e-06,0.34,0.08,0
0.018083,0.0084483,0.053984,0.00023174,0.016265,-0.00022875,0,0,0.049036,-0.020843,0,-0.00059476,0,0,0,0.053985,0.00023077,0.016265,-0.24383,0.023494,0.047799,3.5553e-06,0.36,0.08,0
0.019064,0.0085858,0.053936,0.00017961,0.016235,-0.00033429,0,0,0.049012,-0.020872,0,-0.00086916,0,0,0,0.053938,0.00017753,0.016235,-0.35628,0.02345,0.0478,3.5498e-06,0.38,0.08,0
0.020044,0.0087071,0.053918,0.00013616,0.016216,-0.00041719,0,0,0.049012,-0.020904,0,-0.0010847,0,0,0,0.053921,0.00013292,0.016216,-0.44441,0.023423,0.04782,3.5495e-06,0.4,0.08,0
0.021024,0.0088137,0.053924,9.9819e-05,0.016207,-0.00048108,0,0,0.049032,-0.02094,0,-0.0012508,0,0,0,0.053928,9.552e-05,0.016207,-0.51205,0.02341,0.047856,3.5536e-06,0.42,0.08,0
0.022005,0.0089072,0.053951,6.9349e-05,0.016206,-0.00052898,0,0,0.049068,-0.020978,0,-0.0013753,0,0,0,0.053956,6.4157e-05,0.016206,-0.56242,0.023409,0.047906,3.5613e-06,0.44,0.08,0
0.022987,0.008989,0.053994,4.377e-05,0.016211,-0.00056339,0,0,0.049117,-0.021018,0,-0.0014648,0,0,0,0.053999,3.7887e-05,0.016211,-0.59824,0.023416,0.047966,3.5718e-06,0.46,0.08,0
0.02397,0.0090602,0.05405,2.2293e-05,0.016222,-0.00058641,0,0,0.049177,-0.021059,0,-0.0015247,0,0,0,0.054056,1.5929e-05,0.016222,-0.62179,0.023431,0.048033,3.5846e-06,0.48,0.08,0
0.024954,0.009122,0.054116,4.2813e-06,0.016236,-0.00059983,0,0,0.049244,-0.021101,0,-0.0015596,0,0,0,0.054123,-2.3671e-06,0.016236,-0.63502,0.023452,0.048107,3.5992e-06,0.5,0.08,0
0.02594,0.0091754,0.05419,-1.0792e-05,0.016254,-0.00060516,0,0,0.049318,-0.021144,0,-0.0015734,0,0,0,0.054197,-1.7547e-05,0.016254,-0.6396,0.023478,0.048185,3.6152e-06,0.52,0.08,0
0.026927,0.0092213,0.05427,-2.3361e-05,0.016274,-0.00060367,0,0,0.049395,-0.021187,0,-0.0015696,0,0,0,0.054277,-3.0072e-05,0.016274,-0.63695,0.023507,0.048266,3.6321e-06,0.54,0.08,0
0.027915,0.0092606,0.054354,-3.3793e-05,0.016296,-0.00059647,0,0,0.049476,-0.021229,0,-0.0015508,0,0,0,0.054361,-4.0333e-05,0.016296,-0.62826,0.023539,0.048349,3.6496e-06,0.56,0.08,0
0.028906,0.009294,0.054441,-4.2396e-05,0.016319,-0.0005845,0,0,0.049557,-0.02127,0,-0.0015197,0,0,0,0.054447,-4.8665e-05,0.016319,-0.61459,0.023572,0.048432,3.6676e-06,0.58,0.08,0
0.029898,0.0093222,0.054528,-4.9434e-05,0.016344,-0.00056857,0,0,0.04964,-0.021311,0,-0.0014783,0,0,0,0.054534,-5.5356e-05,0.016344,-0.5968,0.023607,0.048515,3.6857e-06,0.6,0.08,0
0.030891,0.0093459,0.054615,-5.5134e-05,0.016368,-0.00054937,0,0,0.049721,-0.02135,0,-0.0014284,0,0,0,0.054621,-6.0654e-05,0.016368,-0.57567,0.023643,0.048596,3.7037e-06,0.62,0.08,0
0.031887,0.0093656,0.054701,-5.9693e-05,0.016393,-0.00052749,0,0,0.049801,-0.021388,0,-0.0013715,0,0,0,0.054706,-6.4774e-05,0.016393,-0.55184,0.023678,0.048676,3.7214e-06,0.64,0.08,0
0.032884,0.0093818,0.054786,-6.3281e-05,0.016417,-0.00050344,0,0,0.04988,-0.021424,0,-0.0013089,0,0,0,0.05479,-6.7902e-05,0.016417,-0.52584,0.023713,0.048753,3.7388e-06,0.66,0.08,0
0.033882,0.009395,0.054867,-6.6048e-05,0.01644,-0.00047766,0,0,0.049955,-0.021458,0,-0.0012419,0,0,0,0.054871,-7.0201e-05,0.01644,-0.49815,0.023747,0.048827,3.7556e-06,0.68,0.08,0
0.034882,0.0094056,0.054946,-6.8124e-05,0.016463,-0.00045051,0,0,0.050027,-0.021491,0,-0.0011713,0,0,0,0.054949,-7.1814e-05,0.016463,-0.46915,0.02378,0.048898,3.7718e-06,0.7,0.08,0
0.035883,0.0094141,0.055021,-6.9626e-05,0.016485,-0.0004223,0,0,0.050096,-0.021521,0,-0.001098,0,0,0,0.055024,-7.2863e-05,0.016485,-0.43917,0.023812,0.048965,3.7872e-06,0.72,0.08,0
0.036886,0.0094206,0.055092,-7.0654e-05,0.016506,-0.0003933,0,0,0.050161,-0.02155,0,-0.0010226,0,0,0,0.055094,-7.3458e-05,0.016506,-0.40848,0.023842,0.049028,3.8018e-06,0.74,0.08,0
0.037889,0.0094256,0.055158,-7.1298e-05,0.016526,-0.00036371,0,0,0.050222,-0.021576,0,-0.00094564,0,0,0,0.05516,-7.3693e-05,0.016526,-0.37729,0.023871,0.049087,3.8155e-06,0.76,0.08,0
0.038894,0.0094293,0.05522,-7.1636e-05,0.016545,-0.00033371,0,0,0.050278,-0.021601,0,-0.00086765,0,0,0,0.055222,-7.365e-05,0.016545,-0.34579,0.023898,0.049141,3.8283e-06,0.78,0.08,0
0.0399,0.009432,0.055277,-7.1737e-05,0.016561,-0.00030345,0,0,0.05033,-0.021623,0,-0.00078896,0,0,0,0.055279,-7.3401e-05,0.016561,-0.31411,0.023922,0.049191,3.84e-06,0.8,0.08,0
0.040908,0.0094338,0.055329,-7.1663e-05,0.016577,-0.00027303,0,0,0.050377,-0.021643,0,-0.00070987,0,0,0,0.05533,-7.3009e-05,0.016577,-0.28236,0.023945,0.049237,3.8508e-06,0.82,0.08,0
0.041916,0.0094349,0.055376,-7.1466e-05,0.016591,-0.00024253,0,0,0.05042,-0.021662,0,-0.00063059,0,0,0,0.055377,-7.2527e-05,0.016591,-0.25062,0.023965,0.049278,3.8604e-06,0.84,0.08,0
0.042924,0.0094356,0.055417,-7.1191e-05,0.016604,-0.00021204,0,0,0.050457,-0.021677,0,-0.00055129,0,0,0,0.055418,-7.2001e-05,0.016604,-0.21894,0.023983,0.049314,3.869e-06,0.86,0.08,0
0.043934,0.0094359,0.055453,-7.0878e-05,0.016615,-0.00018157,0,0,0.05049,-0.021691,0,-0.00047207,0,0,0,0.055454,-7.1472e-05,0.016615,-0.18736,0.023999,0.049345,3.8765e-06,0.88,0.08,0
0.044944,0.0094359,0.055484,-7.0559e-05,0.016624,-0.00015116,0,0,0.050518,-0.021703,0,-0.000393,0,0,0,0.055484,-7.0971e-05,0.016624,-0.15589,0.024012,0.049372,3.8828e-06,0.9,0.08,0
0.045955,0.0094359,0.055509,-7.0262e-05,0.016632,-0.00012081,0,0,0.05054,-0.021712,0,-0.00031411,0,0,0,0.055509,-7.0525e-05,0.016632,-0.12454,0.024023,0.049394,3.888e-06,0.92,0.08,0
0.046966,0.0094357,0.055528,-7.0009e-05,0.016637,-9.0538e-05,0,0,0.050558,-0.02172,0,-0.0002354,0,0,0,0.055529,-7.0157e-05,0.016637,-0.093302,0.024032,0.049411,3.8921e-06,0.94,0.08,0
0.047977,0.0094356,0.055542,-6.9817e-05,0.016642,-6.0323e-05,0,0,0.050571,-0.021725,0,-0.00015684,0,0,0,0.055542,-6.9882e-05,0.016642,-0.062149,0.024038,0.049423,3.895e-06,0.96,0.08,0
0.048988,0.0094355,0.055551,-6.9696e-05,0.016644,-3.015e-05,0,0,0.050578,-0.021728,0,-7.839e-05,0,0,0,0.055551,-6.9713e-05,0.016644,-0.031058,0.024042,0.04943,3.8967e-06,0.98,0.08,0
0.05,0.0094354,0.055553,-6.9655e-05,0.016645,-7.1506e-07,0,0,0.050581,-0.021729,0,-1.8592e-06,0,0,0,0.055553,-6.9655e-05,0.016645,-0.00073657,0.024043,0.049433,3.8973e-06,1,0.08,0
0,0,0.057893,0.024811,0.024811,0.013841,0,0,0.043006,-4.3368e-19,0,0.035986,0,0,0,0.06292,0.019784,0.024811,19.961,0.035838,0.040855,3.3242e-06,0,0.1,0
0.00086012,0.00071973,0.057529,0.020698,0.023468,0.013603,0,0,0.044279,-0.0036015,0,0.035368,0,0,0,0.062008,0.016218,0.023468,18.226,0.033898,0.04263,3.5941e-06,0.02,0.1,0
0.0017712,0.0014678,0.058543,0.016689,0.02257,0.013161,0,0,0.046766,-0.0076452,0,0.034218,0,0,0,0.062338,0.012894,0.02257,16.083,0.032601,0.045386,4.0758e-06,0.04,0.1,0
0.0027308,0.0022126,0.059294,0.0129,0.021658,0.012032,0,0,0.048927,-0.011386,0,0.031283,0,0,0,0.062229,0.0099649,0.021658,13.708,0.031284,0.047509,4.4032e-06,0.06,0.1,0
0.0037282,0.0029263,0.059656,0.0097802,0.020831,0.010483,0,0,0.050472,-0.014366,0,0.027255,0,0,0,0.061769,0.0076665,0.020831,11.4,0.030089,0.048869,4.5599e-06,0.08,0.1,0
0.0047497,0.0035907,0.059615,0.0074018,0.020105,0.0088146,0,0,0.051363,-0.016514,0,0.022918,0,0,0,0.061063,0.0059539,0.020105,9.3282,0.029041,0.049573,4.5804e-06,0.1,0.1,0
0.0057828,0.004198,0.059268,0.0056449,0.019474,0.0072384,0,0,0.051733,-0.017978,0,0.01882,0,0,0,0.060228,0.004685,0.019474,7.5541,0.028129,0.049823,4.516e-06,0.12,0.1,0
0.006819,0.0047472,0.05874,0.0043487,0.018927,0.0058486,0,0,0.051757,-0.018951,0,0.015206,0,0,0,0.059362,0.003727,0.018927,6.0685,0.027339,0.049806,4.41e-06,0.14,0.1,0
0.0078531,0.0052409,0.058141,0.0033864,0.018458,0.0046666,0,0,0.051588,-0.019593,0,0.012133,0,0,0,0.058536,0.0029915,0.018458,4.8367,0.026662,0.049652,4.2915e-06,0.16,0.1,0
0.0088825,0.0056833,0.057542,0.0026635,0.018062,0.0036791,0,0,0.051324,-0.020017,0,0.0095656,0,0,0,0.057787,0.002418,0.018062,3.8184,0.026089,0.04944,4.1762e-06,0.18,0.1,0
0.009906,0.006079,0.056982,0.0021134,0.017729,0.0028611,0,0,0.051029,-0.0203,0,0.0074388,0,0,0,0.057131,0.0019646,0.017729,2.9769,0.025608,0.049215,4.0718e-06,0.2,0.1,0
0.010924,0.0064324,0.056481,0.001689,0.017451,0.0021859,0,0,0.050739,-0.020491,0,0.0056833,0,0,0,0.056568,0.0016019,0.017451,2.2809,0.025207,0.049003,3.981e-06,0.22,0.1,0
0.011936,0.0067478,0.056046,0.0013571,0.017221,0.0016293,0,0,0.050473,-0.020623,0,0.0042361,0,0,0,0.056095,0.0013086,0.017221,1.7049,0.024875,0.048815,3.9044e-06,0.24,0.1,0
0.012943,0.0070289,0.055677,0.0010944,0.017032,0.0011706,0,0,0.05024,-0.020718,0,0.0030437,0,0,0,0.055703,0.0010693,0.017032,1.2281,0.024601,0.048657,3.8412e-06,0.26,0.1,0
0.013945,0.0072792,0.055371,0.00088402,0.016876,0.00079292,0,0,0.050043,-0.02079,0,0.0020616,0,0,0,0.055382,0.00087248,0.016876,0.83356,0.024377,0.048529,3.79e-06,0.28,0.1,0
0.014944,0.0075018,0.055121,0.00071376,0.01675,0.00048218,0,0,0.049882,-0.020848,0,0.0012537,0,0,0,0.055125,0.00070949,0.01675,0.50773,0.024195,0.04843,3.7496e-06,0.3,0.1,0
0.01594,0.0076994,0.054922,0.00057474,0.016649,0.00022713,0,0,0.049755,-0.020896,0,0.00059054,0,0,0,0.054923,0.00057379,0.016649,0.23945,0.024049,0.048358,3.7184e-06,0.32,0.1,0
0.016934,0.0078747,0.054767,0.00046031,0.016568,1.8536e-05,0,0,0.049659,-0.02094,0,4.8193e-05,0,0,0,0.054767,0.0004603,0.016568,0.019556,0.023932,0.048311,3.6953e-06,0.34,0.1,0
0.017927,0.0080297,0.054652,0.00036549,0.016505,-0.00015113,0,0,0.049591,-0.020982,0,-0.00039293,0,0,0,0.054652,0.00036507,0.016505,-0.1595,0.023841,0.048285,3.679e-06,0.36,0.1,0
0.018918,0.0081666,0.05457,0.00028649,0.016457,-0.00028804,0,0,0.049547,-0.021022,0,-0.0007489,0,0,0,0.054572,0.00028496,0.016457,-0.30401,0.023771,0.048277,3.6686e-06,0.38,0.1,0
0.019909,0.0082872,0.054517,0.00022038,0.016421,-0.00039732,0,0,0.049525,-0.021061,0,-0.001033,0,0,0,0.05452,0.00021747,0.016421,-0.41924,0.02372,0.048285,3.6631e-06,0.4,0.1,0
0.020899,0.0083931,0.054489,0.00016487,0.016396,-0.00048322,0,0,0.04952,-0.021101,0,-0.0012564,0,0,0,0.054493,0.00016057,0.016396,-0.5096,0.023683,0.048306,3.6617e-06,0.42,0.1,0
0.021889,0.0084859,0.05448,0.00011816,0.01638,-0.0005493,0,0,0.049531,-0.02114,0,-0.0014282,0,0,0,0.054486,0.00011261,0.01638,-0.57886,0.023659,0.048338,3.6638e-06,0.44,0.1,0
0.02288,0.0085669,0.05449,7.8811e-05,0.01637,-0.00059856,0,0,0.049555,-0.021179,0,-0.0015562,0,0,0,0.054496,7.2227e-05,0.01637,-0.6302,0.023646,0.048379,3.6688e-06,0.46,0.1,0
0.023872,0.0086373,0.054513,4.5658e-05,0.016368,-0.00063353,0,0,0.049589,-0.021218,0,-0.0016472,0,0,0,0.05452,3.8291e-05,0.016368,-0.66631,0.023642,0.048428,3.6761e-06,0.48,0.1,0
0.024864,0.0086983,0.054547,1.7753e-05,0.016369,-0.00065637,0,0,0.049631,-0.021257,0,-0.0017066,0,0,0,0.054555,9.853e-06,0.016369,-0.68954,0.023645,0.048482,3.6853e-06,0.5,0.1,0
0.025857,0.0087509,0.054591,-5.69e-06,0.016376,-0.00066893,0,0,0.04968,-0.021296,0,-0.0017392,0,0,0,0.054599,-1.3885e-05,0.016376,-0.70186,0.023654,0.04854,3.696e-06,0.52,0.1,0
0.026851,0.008796,0.054642,-2.5323e-05,0.016385,-0.00067279,0,0,0.049734,-0.021333,0,-0.0017492,0,0,0,0.05465,-3.3601e-05,0.016385,-0.70499,0.023667,0.048601,3.7078e-06,0.54,0.1,0
0.027846,0.0088346,0.054698,-4.1694e-05,0.016397,-0.00066929,0,0,0.049792,-0.02137,0,-0.0017402,0,0,0,0.054707,-4.9876e-05,0.016397,-0.7004,0.023685,0.048664,3.7204e-06,0.56,0.1,0
0.028843,0.0088672,0.054759,-5.5271e-05,0.016411,-0.00065962,0,0,0.049852,-0.021406,0,-0.001715,0,0,0,0.054767,-6.3207e-05,0.016411,-0.68935,0.023705,0.048728,3.7336e-06,0.58,0.1,0
0.02984,0.0088947,0.054821,-6.6451e-05,0.016427,-0.00064477,0,0,0.049913,-0.021441,0,-0.0016764,0,0,0,0.054829,-7.4024e-05,0.016427,-0.67293,0.023727,0.048792,3.7472e-06,0.6,0.1,0
0.030839,0.0089176,0.054885,-7.5578e-05,0.016443,-0.00062561,0,0,0.049975,-0.021474,0,-0.0016266,0,0,0,0.054893,-8.2698e-05,0.016443,-0.65207,0.023751,0.048856,3.7609e-06,0.62,0.1,0
0.031839,0.0089367,0.05495,-8.2948e-05,0.01646,-0.00060289,0,0,0.050037,-0.021506,0,-0.0015675,0,0,0,0.054957,-8.9552e-05,0.01646,-0.62757,0.023776,0.048918,3.7746e-06,0.64,0.1,0
0.032841,0.0089522,0.055014,-8.8822e-05,0.016478,-0.00057724,0,0,0.050098,-0.021536,0,-0.0015008,0,0,0,0.05502,-9.4868e-05,0.016478,-0.60012,0.023801,0.048979,3.7881e-06,0.66,0.1,0
0.033843,0.0089648,0.055077,-9.3424e-05,0.016495,-0.00054922,0,0,0.050157,-0.021565,0,-0.001428,0,0,0,0.055083,-9.8891e-05,0.016495,-0.5703,0.023826,0.049038,3.8013e-06,0.68,0.1,0
0.034847,0.0089748,0.055139,-9.6954e-05,0.016512,-0.00051929,0,0,0.050214,-0.021592,0,-0.0013501,0,0,0,0.055143,-0.00010184,0.016512,-0.53859,0.023851,0.049094,3.814e-06,0.7,0.1,0
0.035852,0.0089827,0.055197,-9.9588e-05,0.016529,-0.00048784,0,0,0.050269,-0.021618,0,-0.0012684,0,0,0,0.055202,-0.00010389,0.016529,-0.50542,0.023876,0.049147,3.8263e-06,0.72,0.1,0
0.036858,0.0089888,0.055254,-0.00010148,0.016546,-0.00045522,0,0,0.05032,-0.021641,0,-0.0011836,0,0,0,0.055257,-0.00010522,0.016546,-0.47114,0.023899,0.049198,3.838e-06,0.74,0.1,0
0.037865,0.0089933,0.055307,-0.00010276,0.016561,-0.0004217,0,0,0.050369,-0.021663,0,-0.0010964,0,0,0,0.05531,-0.00010597,0.016561,-0.43603,0.023922,0.049245,3.849e-06,0.76,0.1,0
0.038872,0.0089965,0.055356,-0.00010355,0.016576,-0.00038752,0,0,0.050415,-0.021683,0,-0.0010076,0,0,0,0.055359,-0.00010626,0.016576,-0.40032,0.023943,0.049289,3.8593e-06,0.78,0.1,0
0.039881,0.0089988,0.055403,-0.00010396,0.01659,-0.00035286,0,0,0.050457,-0.021702,0,-0.00091742,0,0,0,0.055405,-0.00010621,0.01659,-0.36421,0.023963,0.04933,3.8688e-06,0.8,0.1,0
0.040891,0.0090002,0.055445,-0.00010408,0.016602,-0.00031786,0,0,0.050495,-0.021718,0,-0.00082644,0,0,0,0.055446,-0.0001059,0.016602,-0.32784,0.023981,0.049367,3.8775e-06,0.82,0.1,0
0.041901,0.009001,0.055483,-0.00010399,0.016614,-0.00028266,0,0,0.05053,-0.021733,0,-0.00073492,0,0,0,0.055484,-0.00010543,0.016614,-0.29134,0.023997,0.0494,3.8854e-06,0.84,0.1,0
0.042912,0.0090014,0.055517,-0.00010376,0.016624,-0.00024734,0,0,0.050561,-0.021746,0,-0.00064308,0,0,0,0.055518,-0.00010486,0.016624,-0.25478,0.024012,0.049429,3.8924e-06,0.86,0.1,0
0.043923,0.0090014,0.055546,-0.00010344,0.016633,-0.00021196,0,0,0.050587,-0.021757,0,-0.00055109,0,0,0,0.055547,-0.00010425,0.016633,-0.21823,0.024025,0.049454,3.8985e-06,0.88,0.1,0
0.044936,0.0090013,0.055571,-0.00010309,0.01664,-0.00017657,0,0,0.05061,-0.021767,0,-0.00045908,0,0,0,0.055572,-0.00010365,0.01664,-0.18171,0.024036,0.049476,3.9037e-06,0.9,0.1,0
0.045948,0.009001,0.055592,-0.00010275,0.016647,-0.0001412,0,0,0.050629,-0.021774,0,-0.00036712,0,0,0,0.055592,-0.00010311,0.016647,-0.14526,0.024045,0.049494,3.908e-06,0.92,0.1,0
0.046961,0.0090008,0.055608,-0.00010245,0.016652,-0.00010586,0,0,0.050643,-0.02178,0,-0.00027523,0,0,0,0.055608,-0.00010265,0.016652,-0.10887,0.024052,0.049508,3.9113e-06,0.94,0.1,0
0.047974,0.0090005,0.05562,-0.00010222,0.016655,-7.055e-05,0,0,0.050654,-0.021785,0,-0.00018343,0,0,0,0.05562,-0.00010231,0.016655,-0.072543,0.024057,0.049517,3.9137e-06,0.96,0.1,0
0.048987,0.0090004,0.055627,-0.00010207,0.016657,-3.5268e-05,0,0,0.05066,-0.021787,0,-9.1697e-05,0,0,0,0.055627,-0.0001021,0.016657,-0.03626,0.024061,0.049523,3.9151e-06,0.98,0.1,0
0.05,0.0090003,0.055629,-0.00010202,0.016658,-1.0819e-06,0,0,0.050662,-0.021788,0,-2.813e-06,0,0,0,0.055629,-0.00010202,0.016658,-0.0011123,0.024062,0.049525,3.9156e-06,1,0.1,0
0,0,0.056459,0.024196,0.024196,0.012586,0,0,0.041941,1.1926e-18,0,0.032723,0,0,0,0.060788,0.019867,0.024196,18.981,0.034951,0.038936,2.9058e-06,0,0.12,0
0.00083881,0.00065446,0.056168,0.02073,0.023069,0.012436,0,0,0.043029,-0.0030417,0,0.032333,0,0,0,0.060097,0.016801,0.023069,17.531,0.033322,0.040527,3.1447e-06,0.02,0.12,0
0.0017211,0.0013297,0.057137,0.017445,0.022375,0.012164,0,0,0.045191,-0.0064082,0,0.031628,0,0,0,0.060568,0.014014,0.022375,15.753,0.032319,0.042988,3.5654e-06,0.04,0.12,0
0.0026464,0.0020049,0.057942,0.014201,0.021643,0.0114,0,0,0.047189,-0.0096747,0,0.029641,0,0,0,0.060735,0.011408,0.021643,13.766,0.031262,0.04509,3.9027e-06,0.06,0.12,0
0.0036087,0.0026599,0.058486,0.011318,0.020941,0.010265,0,0,0.048808,-0.01251,0,0.026688,0,0,0,0.060623,0.0091808,0.020941,11.76,0.030248,0.046686,4.1295e-06,0.08,0.12,0
0.0045988,0.0032792,0.058733,0.0089356,0.0203,0.0089411,0,0,0.049962,-0.014774,0,0.023247,0,0,0,0.06029,0.0073789,0.0203,9.8766,0.029323,0.047779,4.251e-06,0.1,0.12,0
0.0056072,0.0038539,0.058713,0.0070466,0.019728,0.0075913,0,0,0.050681,-0.016486,0,0.019737,0,0,0,0.059805,0.0059543,0.019728,8.1879,0.028496,0.048455,4.2906e-06,0.12,0.12,0
0.006626,0.0043802,0.058496,0.0055763,0.019222,0.0063209,0,0,0.051056,-0.017739,0,0.016434,0,0,0,0.05924,0.0048318,0.019222,6.7177,0.027765,0.04883,4.2756e-06,0.14,0.12,0
0.0076494,0.0048581,0.058157,0.0044368,0.018778,0.005181,0,0,0.051193,-0.018644,0,0.01347,0,0,0,0.058652,0.0039416,0.018778,5.4588,0.027124,0.049007,4.2294e-06,0.16,0.12,0
0.0086737,0.0052896,0.05776,0.0035512,0.018393,0.004187,0,0,0.051177,-0.019295,0,0.010886,0,0,0,0.058081,0.0032297,0.018393,4.3907,0.026568,0.04906,4.1687e-06,0.18,0.12,0
0.0096965,0.0056777,0.057349,0.0028585,0.018062,0.0033347,0,0,0.051073,-0.019765,0,0.0086702,0,0,0,0.057553,0.0026552,0.018062,3.489,0.02609,0.049044,4.104e-06,0.2,0.12,0
0.010717,0.0060258,0.056953,0.0023121,0.01778,0.0026113,0,0,0.050926,-0.020108,0,0.0067893,0,0,0,0.057078,0.0021876,0.01778,2.7298,0.025682,0.048992,4.0415e-06,0.22,0.12,0
0.011733,0.0063373,0.056589,0.001877,0.01754,0.0020011,0,0,0.050764,-0.020362,0,0.0052027,0,0,0,0.056662,0.0018039,0.01754,2.0918,0.025335,0.048926,3.9843e-06,0.24,0.12,0
0.012747,0.0066156,0.056263,0.0015274,0.017337,0.0014885,0,0,0.050603,-0.020553,0,0.00387,0,0,0,0.056303,0.001487,0.017337,1.5566,0.025042,0.048859,3.9341e-06,0.26,0.12,0
0.013758,0.0068638,0.055979,0.001244,0.017167,0.0010593,0,0,0.050456,-0.0207,0,0.0027541,0,0,0,0.056,0.0012235,0.017167,1.1083,0.024797,0.048799,3.8912e-06,0.28,0.12,0
0.014765,0.0070847,0.055737,0.0010122,0.017025,0.00070105,0,0,0.050326,-0.020816,0,0.0018227,0,0,0,0.055746,0.0010033,0.017025,0.73382,0.024591,0.048748,3.8554e-06,0.3,0.12,0
0.015771,0.007281,0.055535,0.00082138,0.016907,0.00040309,0,0,0.050216,-0.020911,0,0.001048,0,0,0,0.055538,0.00081841,0.016907,0.42209,0.024421,0.04871,3.8264e-06,0.32,0.12,0
0.016774,0.007455,0.055369,0.00066313,0.01681,0.00015635,0,0,0.050127,-0.020991,0,0.00040651,0,0,0,0.05537,0.00066268,0.01681,0.16375,0.024281,0.048685,3.8035e-06,0.34,0.12,0
0.017776,0.007609,0.055237,0.00053118,0.01673,-4.6824e-05,0,0,0.050058,-0.021059,0,-0.00012174,0,0,0,0.055237,0.00053114,0.01673,-0.049041,0.024166,0.048672,3.7861e-06,0.36,0.12,0
0.018776,0.007745,0.055134,0.00042064,0.016666,-0.00021289,0,0,0.050008,-0.021119,0,-0.00055351,0,0,0,0.055135,0.00041981,0.016666,-0.22293,0.024074,0.04867,3.7735e-06,0.38,0.12,0
0.019776,0.0078646,0.055058,0.00032769,0.016615,-0.0003473,0,0,0.049974,-0.021174,0,-0.00090298,0,0,0,0.05506,0.00032548,0.016615,-0.36356,0.024,0.048678,3.7651e-06,0.4,0.12,0
0.020775,0.0079697,0.055003,0.0002493,0.016576,-0.00045467,0,0,0.049956,-0.021225,0,-0.0011822,0,0,0,0.055007,0.00024553,0.016576,-0.47574,0.023943,0.048695,3.7602e-06,0.42,0.12,0
0.021774,0.0080616,0.054969,0.00018308,0.016546,-0.00053894,0,0,0.04995,-0.021271,0,-0.0014012,0,0,0,0.054974,0.00017778,0.016546,-0.56356,0.023899,0.04872,3.7585e-06,0.44,0.12,0
0.022773,0.0081418,0.054951,0.00012708,0.016523,-0.00060345,0,0,0.049956,-0.021315,0,-0.001569,0,0,0,0.054958,0.00012043,0.016523,-0.63055,0.023867,0.048752,3.7594e-06,0.46,0.12,0
0.023773,0.0082115,0.054948,7.9718e-05,0.016508,-0.00065106,0,0,0.049971,-0.021357,0,-0.0016928,0,0,0,0.054955,7.1993e-05,0.016508,-0.67974,0.023845,0.048788,3.7624e-06,0.48,0.12,0
0.024772,0.0082717,0.054956,3.9704e-05,0.016499,-0.00068423,0,0,0.049994,-0.021397,0,-0.001779,0,0,0,0.054964,3.118e-05,0.016499,-0.71373,0.023831,0.048829,3.7673e-06,0.5,0.12,0
0.025772,0.0083236,0.054974,5.9598e-06,0.016494,-0.00070509,0,0,0.050024,-0.021434,0,-0.0018332,0,0,0,0.054983,-3.0831e-06,0.016494,-0.73479,0.023825,0.048872,3.7736e-06,0.52,0.12,0
0.026773,0.008368,0.055,-2.2418e-05,0.016493,-0.00071546,0,0,0.050059,-0.02147,0,-0.0018602,0,0,0,0.055009,-3.1719e-05,0.016493,-0.74485,0.023824,0.048919,3.7811e-06,0.54,0.12,0
0.027775,0.0084058,0.055032,-4.619e-05,0.016496,-0.00071691,0,0,0.050097,-0.021505,0,-0.001864,0,0,0,0.055042,-5.552e-05,0.016496,-0.74561,0.023827,0.048966,3.7896e-06,0.56,0.12,0
0.028777,0.0084377,0.055069,-6.6005e-05,0.016501,-0.00071082,0,0,0.050139,-0.021537,0,-0.0018482,0,0,0,0.055079,-7.5168e-05,0.016501,-0.73851,0.023835,0.049015,3.7987e-06,0.58,0.12,0
0.02978,0.0084646,0.05511,-8.2419e-05,0.016508,-0.00069837,0,0,0.050182,-0.021568,0,-0.0018158,0,0,0,0.055119,-9.1255e-05,0.016508,-0.72483,0.023845,0.049064,3.8082e-06,0.6,0.12,0
0.030784,0.0084869,0.055154,-9.5912e-05,0.016517,-0.00068059,0,0,0.050227,-0.021597,0,-0.0017695,0,0,0,0.055162,-0.0001043,0.016517,-0.70565,0.023858,0.049112,3.8181e-06,0.62,0.12,0
0.031789,0.0085053,0.055198,-0.0001069,0.016528,-0.00065834,0,0,0.050272,-0.021625,0,-0.0017117,0,0,0,0.055206,-0.00011474,0.016528,-0.68191,0.023873,0.04916,3.8281e-06,0.64,0.12,0
0.032795,0.0085203,0.055244,-0.00011575,0.016539,-0.00063241,0,0,0.050317,-0.02165,0,-0.0016443,0,0,0,0.055251,-0.00012297,0.016539,-0.65441,0.023889,0.049207,3.838e-06,0.66,0.12,0
0.033802,0.0085324,0.05529,-0.00012277,0.01655,-0.00060344,0,0,0.050362,-0.021675,0,-0.0015689,0,0,0,0.055296,-0.00012934,0.01655,-0.62385,0.023906,0.049252,3.8479e-06,0.68,0.12,0
0.03481,0.008542,0.055335,-0.00012825,0.016562,-0.000572,0,0,0.050405,-0.021697,0,-0.0014872,0,0,0,0.055341,-0.00013415,0.016562,-0.59082,0.023923,0.049295,3.8575e-06,0.7,0.12,0
0.035818,0.0085494,0.055379,-0.00013244,0.016574,-0.00053857,0,0,0.050446,-0.021718,0,-0.0014003,0,0,0,0.055384,-0.00013766,0.016574,-0.55581,0.02394,0.049336,3.8669e-06,0.72,0.12,0
0.036828,0.008555,0.055421,-0.00013554,0.016586,-0.00050355,0,0,0.050486,-0.021738,0,-0.0013092,0,0,0,0.055426,-0.0001401,0.016586,-0.51926,0.023957,0.049376,3.8758e-06,0.74,0.12,0
0.037838,0.0085591,0.055462,-0.00013775,0.016597,-0.00046729,0,0,0.050524,-0.021756,0,-0.001215,0,0,0,0.055466,-0.00014168,0.016597,-0.4815,0.023974,0.049412,3.8843e-06,0.76,0.12,0
0.038849,0.008562,0.0555,-0.00013924,0.016608,-0.00043008,0,0,0.050559,-0.021772,0,-0.0011182,0,0,0,0.055503,-0.00014257,0.016608,-0.44285,0.02399,0.049446,3.8922e-06,0.78,0.12,0
0.03986,0.0085639,0.055536,-0.00014016,0.016619,-0.00039214,0,0,0.050592,-0.021786,0,-0.0010196,0,0,0,0.055538,-0.00014292,0.016619,-0.40353,0.024005,0.049478,3.8996e-06,0.8,0.12,0
0.040872,0.0085651,0.055568,-0.00014064,0.016628,-0.00035368,0,0,0.050622,-0.0218,0,-0.00091956,0,0,0,0.055571,-0.00014288,0.016628,-0.36373,0.024019,0.049506,3.9064e-06,0.82,0.12,0
0.041885,0.0085656,0.055598,-0.00014078,0.016637,-0.00031484,0,0,0.050649,-0.021811,0,-0.00081857,0,0,0,0.0556,-0.00014256,0.016637,-0.32362,0.024032,0.049532,3.9125e-06,0.84,0.12,0
0.042898,0.0085658,0.055625,-0.0001407,0.016645,-0.00027574,0,0,0.050673,-0.021822,0,-0.00071693,0,0,0,0.055626,-0.00014206,0.016645,-0.2833,0.024043,0.049555,3.918e-06,0.86,0.12,0
0.043912,0.0085656,0.055648,-0.00014046,0.016652,-0.00023648,0,0,0.050694,-0.02183,0,-0.00061485,0,0,0,0.055649,-0.00014146,0.016652,-0.24287,0.024053,0.049575,3.9228e-06,0.88,0.12,0
0.044926,0.0085653,0.055668,-0.00014014,0.016658,-0.00019713,0,0,0.050712,-0.021838,0,-0.00051253,0,0,0,0.055668,-0.00014084,0.016658,-0.20238,0.024062,0.049592,3.9269e-06,0.9,0.12,0
0.04594,0.0085649,0.055684,-0.00013981,0.016663,-0.00015772,0,0,0.050727,-0.021844,0,-0.00041007,0,0,0,0.055684,-0.00014025,0.016663,-0.16187,0.024069,0.049606,3.9303e-06,0.92,0.12,0
0.046955,0.0085645,0.055697,-0.0001395,0.016667,-0.00011829,0,0,0.050739,-0.021849,0,-0.00030755,0,0,0,0.055697,-0.00013975,0.016667,-0.12138,0.024075,0.049616,3.9329e-06,0.94,0.12,0
0.04797,0.0085642,0.055706,-0.00013925,0.01667,-7.8858e-05,0,0,0.050747,-0.021852,0,-0.00020503,0,0,0,0.055706,-0.00013937,0.01667,-0.080906,0.024079,0.049624,3.9348e-06,0.96,0.12,0
0.048985,0.008564,0.055712,-0.0001391,0.016672,-3.9427e-05,0,0,0.050752,-0.021854,0,-0.00010251,0,0,0,0.055712,-0.00013913,0.016672,-0.040447,0.024081,0.049629,3.9359e-06,0.98,0.12,0
0.05,0.0085639,0.055713,-0.00013904,0.016672,-1.3741e-06,0,0,0.050753,-0.021855,0,-3.5726e-06,0,0,0,0.055713,-0.00013904,0.016672,-0.0014096,0.024082,0.04963,3.9363e-06,1,0.12,0
0,0,0.055446,0.023762,0.023762,0.011501,0,0,0.041188,-6.5052e-19,0,0.029903,0,0,0,0.05918,0.020028,0.023762,17.99,0.034323,0.037425,2.6021e-06,0,0.14,0
0.00082376,0.00059806,0.055197,0.020728,0.022778,0.011398,0,0,0.042146,-0.0026644,0,0.029635,0,0,0,0.058625,0.0173,0.022778,16.739,0.032901,0.038877,2.8169e-06,0.02,0.14,0
0.0016858,0.0012114,0.056104,0.01793,0.02221,0.011216,0,0,0.044062,-0.005564,0,0.02916,0,0,0,0.059155,0.014879,0.02221,15.219,0.032081,0.041104,3.1876e-06,0.04,0.14,0
0.0025862,0.0018257,0.056907,0.015112,0.021606,0.010672,0,0,0.045892,-0.0084421,0,0.027747,0,0,0,0.059474,0.012544,0.021606,13.526,0.031208,0.043119,3.5124e-06,0.06,0.14,0
0.0035215,0.0024259,0.057532,0.012493,0.021007,0.0098239,0,0,0.047482,-0.011069,0,0.025542,0,0,0,0.059581,0.010443,0.021007,11.784,0.030344,0.0448,3.7667e-06,0.08,0.14,0
0.0044855,0.0029997,0.057939,0.010205,0.020443,0.008779,0,0,0.048744,-0.01331,0,0.022825,0,0,0,0.059502,0.0086417,0.020443,10.098,0.029529,0.046107,3.944e-06,0.1,0.14,0
0.0054713,0.0035386,0.058129,0.0082894,0.019925,0.007652,0,0,0.049665,-0.015127,0,0.019895,0,0,0,0.059277,0.007141,0.019925,8.535,0.028781,0.047065,4.0522e-06,0.12,0.14,0
0.0064721,0.0040377,0.058136,0.0067245,0.019458,0.006534,0,0,0.050281,-0.016554,0,0.016988,0,0,0,0.058953,0.0059071,0.019458,7.1308,0.028106,0.047736,4.1061e-06,0.14,0.14,0
0.0074825,0.0044952,0.058007,0.0054621,0.019041,0.0054834,0,0,0.050656,-0.017652,0,0.014257,0,0,0,0.058573,0.004896,0.019041,5.8945,0.027503,0.048188,4.1215e-06,0.16,0.14,0
0.0084983,0.0049115,0.05779,0.0044478,0.018671,0.0045305,0,0,0.050854,-0.018491,0,0.011779,0,0,0,0.058172,0.0040658,0.018671,4.8203,0.02697,0.048483,4.112e-06,0.18,0.14,0
0.0095167,0.0052884,0.057525,0.0036324,0.018347,0.0036862,0,0,0.050931,-0.019129,0,0.009584,0,0,0,0.057776,0.0033814,0.018347,3.8947,0.026502,0.048669,4.0882e-06,0.2,0.14,0
0.010536,0.0056281,0.057242,0.0029743,0.018065,0.0029495,0,0,0.05093,-0.019618,0,0.0076688,0,0,0,0.057402,0.0028144,0.018065,3.1019,0.026094,0.048784,4.0573e-06,0.22,0.14,0
0.011554,0.0059333,0.05696,0.0024403,0.01782,0.0023136,0,0,0.050882,-0.019994,0,0.0060154,0,0,0,0.057058,0.0023423,0.01782,2.4256,0.02574,0.048852,4.0241e-06,0.24,0.14,0
0.012571,0.0062068,0.056694,0.0020044,0.017609,0.0017689,0,0,0.05081,-0.020287,0,0.0045991,0,0,0,0.056751,0.0019472,0.017609,1.8506,0.025436,0.048892,3.9915e-06,0.26,0.14,0
0.013586,0.0064512,0.056449,0.0016462,0.017429,0.001305,0,0,0.050727,-0.020517,0,0.0033931,0,0,0,0.056481,0.0016152,0.017429,1.3634,0.025175,0.048915,3.9613e-06,0.28,0.14,0
0.0146,0.0066691,0.056231,0.0013502,0.017275,0.00091207,0,0,0.050644,-0.020702,0,0.0023714,0,0,0,0.056247,0.001335,0.017275,0.95184,0.024952,0.048929,3.9344e-06,0.3,0.14,0
0.015612,0.006863,0.056041,0.001104,0.017143,0.00058081,0,0,0.050567,-0.020851,0,0.0015101,0,0,0,0.056047,0.0010978,0.017143,0.60566,0.024763,0.048941,3.9112e-06,0.32,0.14,0
0.016623,0.0070351,0.055878,0.00089821,0.017033,0.00030307,0,0,0.050499,-0.020975,0,0.00078798,0,0,0,0.05588,0.00089654,0.017033,0.31582,0.024603,0.048952,3.8918e-06,0.34,0.14,0
0.017632,0.0071874,0.055741,0.00072544,0.01694,7.1617e-05,0,0,0.050442,-0.021079,0,0.0001862,0,0,0,0.055741,0.00072535,0.01694,0.074585,0.024469,0.048965,3.8761e-06,0.36,0.14,0
0.01864,0.0073219,0.055629,0.00057983,0.016862,-0.00011983,0,0,0.050396,-0.021167,0,-0.00031157,0,0,0,0.055629,0.00057956,0.016862,-0.12473,0.024357,0.048982,3.8638e-06,0.38,0.14,0
0.019648,0.0074402,0.055538,0.00045672,0.016798,-0.00027675,0,0,0.050361,-0.021244,0,-0.00071954,0,0,0,0.055539,0.00045533,0.016798,-0.28786,0.024264,0.049001,3.8547e-06,0.4,0.14,0
0.020655,0.0075442,0.055467,0.00035242,0.016746,-0.00040385,0,0,0.050338,-0.021312,0,-0.00105,0,0,0,0.05547,0.00034946,0.016746,-0.4198,0.024189,0.049024,3.8483e-06,0.42,0.14,0
0.021661,0.0076351,0.055414,0.0002639,0.016703,-0.00050524,0,0,0.050324,-0.021371,0,-0.0013136,0,0,0,0.055419,0.00025928,0.016703,-0.52484,0.024127,0.04905,3.8444e-06,0.44,0.14,0
0.022668,0.0077143,0.055376,0.00018875,0.01667,-0.00058446,0,0,0.050319,-0.021425,0,-0.0015196,0,0,0,0.055383,0.00018256,0.01667,-0.6067,0.024078,0.049079,3.8426e-06,0.46,0.14,0
0.023674,0.007783,0.055352,0.00012495,0.016643,-0.00064458,0,0,0.050322,-0.021474,0,-0.0016759,0,0,0,0.055359,0.00011742,0.016643,-0.66861,0.02404,0.049111,3.8427e-06,0.48,0.14,0
0.024681,0.0078425,0.055339,7.083e-05,0.016623,-0.00068828,0,0,0.050331,-0.021518,0,-0.0017895,0,0,0,0.055348,6.226e-05,0.016623,-0.71338,0.024011,0.049144,3.8443e-06,0.5,0.14,0
0.025687,0.0078935,0.055336,2.5014e-05,0.016608,-0.00071787,0,0,0.050346,-0.021558,0,-0.0018665,0,0,0,0.055345,1.5698e-05,0.016608,-0.74347,0.02399,0.049179,3.8473e-06,0.52,0.14,0
0.026694,0.0079372,0.055341,-1.3671e-05,0.016598,-0.00073537,0,0,0.050366,-0.021595,0,-0.001912,0,0,0,0.055351,-2.3439e-05,0.016598,-0.76098,0.023975,0.049215,3.8513e-06,0.54,0.14,0
0.027702,0.0079744,0.055352,-4.6219e-05,0.016592,-0.00074254,0,0,0.050389,-0.02163,0,-0.0019306,0,0,0,0.055363,-5.617e-05,0.016592,-0.76779,0.023966,0.049252,3.8563e-06,0.56,0.14,0
0.02871,0.0080057,0.05537,-7.3478e-05,0.016589,-0.00074091,0,0,0.050415,-0.021661,0,-0.0019264,0,0,0,0.05538,-8.3378e-05,0.016589,-0.76548,0.023962,0.049289,3.8619e-06,0.58,0.14,0
0.029719,0.008032,0.055391,-9.618e-05,0.016588,-0.0007318,0,0,0.050444,-0.02169,0,-0.0019027,0,0,0,0.055401,-0.00010583,0.016588,-0.75548,0.023961,0.049326,3.868e-06,0.6,0.14,0
0.030728,0.0080538,0.055416,-0.00011496,0.01659,-0.00071639,0,0,0.050473,-0.021717,0,-0.0018626,0,0,0,0.055425,-0.0001242,0.01659,-0.73899,0.023964,0.049362,3.8745e-06,0.62,0.14,0
0.031738,0.0080717,0.055443,-0.00013036,0.016594,-0.00069567,0,0,0.050504,-0.021742,0,-0.0018087,0,0,0,0.055452,-0.00013907,0.016594,-0.71707,0.023969,0.049398,3.8812e-06,0.64,0.14,0
0.032748,0.0080862,0.055472,-0.00014287,0.016599,-0.00067051,0,0,0.050535,-0.021764,0,-0.0017433,0,0,0,0.05548,-0.00015095,0.016599,-0.69064,0.023976,0.049433,3.888e-06,0.66,0.14,0
0.033759,0.0080978,0.055502,-0.00015291,0.016605,-0.00064167,0,0,0.050567,-0.021785,0,-0.0016683,0,0,0,0.05551,-0.0001603,0.016605,-0.66047,0.023985,0.049466,3.8948e-06,0.68,0.14,0
0.034771,0.0081069,0.055532,-0.00016085,0.016612,-0.0006098,0,0,0.050597,-0.021804,0,-0.0015855,0,0,0,0.055539,-0.00016752,0.016612,-0.62725,0.023994,0.049498,3.9016e-06,0.7,0.14,0
0.035783,0.008114,0.055563,-0.00016702,0.016619,-0.00057546,0,0,0.050627,-0.021821,0,-0.0014962,0,0,0,0.055569,-0.00017296,0.016619,-0.59154,0.024005,0.049529,3.9082e-06,0.72,0.14,0
0.036796,0.0081192,0.055592,-0.0001717,0.016626,-0.00053911,0,0,0.050656,-0.021837,0,-0.0014017,0,0,0,0.055598,-0.00017691,0.016626,-0.55385,0.024016,0.049557,3.9146e-06,0.74,0.14,0
0.037809,0.008123,0.055621,-0.00017516,0.016634,-0.00050117,0,0,0.050683,-0.021851,0,-0.0013031,0,0,0,0.055625,-0.00017966,0.016634,-0.51459,0.024026,0.049584,3.9207e-06,0.76,0.14,0
0.038823,0.0081257,0.055648,-0.00017761,0.016641,-0.00046198,0,0,0.050709,-0.021864,0,-0.0012011,0,0,0,0.055652,-0.00018144,0.016641,-0.4741,0.024037,0.04961,3.9265e-06,0.78,0.14,0
0.039837,0.0081273,0.055674,-0.00017926,0.016648,-0.0004218,0,0,0.050733,-0.021876,0,-0.0010967,0,0,0,0.055677,-0.00018245,0.016648,-0.43266,0.024048,0.049633,3.9318e-06,0.8,0.14,0
0.040852,0.0081282,0.055698,-0.00018028,0.016655,-0.00038088,0,0,0.050755,-0.021886,0,-0.0009903,0,0,0,0.0557,-0.00018288,0.016655,-0.39052,0.024058,0.049654,3.9368e-06,0.82,0.14,0
0.041868,0.0081286,0.05572,-0.00018082,0.016662,-0.00033941,0,0,0.050775,-0.021895,0,-0.00088246,0,0,0,0.055722,-0.00018288,0.016662,-0.34786,0.024067,0.049673,3.9413e-06,0.84,0.14,0
0.042883,0.0081285,0.055739,-0.000181,0.016667,-0.00029753,0,0,0.050793,-0.021903,0,-0.00077357,0,0,0,0.055741,-0.00018258,0.016667,-0.30484,0.024075,0.049689,3.9454e-06,0.86,0.14,0
0.043899,0.0081282,0.055757,-0.00018095,0.016673,-0.00025536,0,0,0.050809,-0.02191,0,-0.00066394,0,0,0,0.055758,-0.00018211,0.016673,-0.26155,0.024083,0.049704,3.9489e-06,0.88,0.14,0
0.044916,0.0081278,0.055771,-0.00018075,0.016677,-0.000213,0,0,0.050822,-0.021915,0,-0.00055379,0,0,0,0.055772,-0.00018156,0.016677,-0.21811,0.024089,0.049716,3.9519e-06,0.9,0.14,0
0.045932,0.0081273,0.055783,-0.00018048,0.016681,-0.0001705,0,0,0.050833,-0.02192,0,-0.00044331,0,0,0,0.055784,-0.000181,0.016681,-0.17456,0.024095,0.049727,3.9544e-06,0.92,0.14,0
0.046949,0.0081268,0.055793,-0.00018021,0.016684,-0.00012793,0,0,0.050842,-0.021923,0,-0.00033262,0,0,0,0.055793,-0.0001805,0.016684,-0.13095,0.024099,0.049735,3.9564e-06,0.94,0.14,0
0.047966,0.0081264,0.0558,-0.00017998,0.016686,-8.5308e-05,0,0,0.050848,-0.021926,0,-0.0002218,0,0,0,0.0558,-0.00018011,0.016686,-0.087313,0.024102,0.04974,3.9578e-06,0.96,0.14,0
0.048983,0.0081262,0.055804,-0.00017983,0.016687,-4.266e-05,0,0,0.050852,-0.021927,0,-0.00011092,0,0,0,0.055804,-0.00017986,0.016687,-0.043659,0.024104,0.049744,3.9586e-06,0.98,0.14,0
0.05,0.0081261,0.055806,-0.00017978,0.016688,-1.5959e-06,0,0,0.050853,-0.021928,0,-4.1493e-06,0,0,0,0.055806,-0.00017978,0.016688,-0.0016332,0.024105,0.049745,3.9589e-06,1,0.14,0
0,0,0.054706,0.023445,0.023445,0.010536,0,0,0.040639,-4.3368e-19,0,0.027394,0,0,0,0.057925,0.020226,0.023445,16.992,0.033865,0.036198,2.371e-06,0,0.16,0
0.00081277,0.00054789,0.054484,0.02072,0.022561,0.01046,0,0,0.041499,-0.0023933,0,0.027197,0,0,0,0.057462,0.017742,0.022561,15.892,0.032588,0.037543,2.5674e-06,0.02,0.16,0
0.00166,0.0011071,0.05533,0.018265,0.022079,0.010328,0,0,0.043227,-0.0049576,0,0.026852,0,0,0,0.058014,0.015582,0.022079,14.565,0.031891,0.039586,2.8987e-06,0.04,0.16,0
0.0025419,0.0016672,0.056109,0.015773,0.021565,0.0099237,0,0,0.044908,-0.0075292,0,0.025802,0,0,0,0.058418,0.013463,0.021565,13.1,0.031149,0.041501,3.2048e-06,0.06,0.16,0
0.0034563,0.0022171,0.056763,0.013394,0.021047,0.0092748,0,0,0.046431,-0.0099488,0,0.024114,0,0,0,0.058663,0.011494,0.021047,11.579,0.030402,0.043192,3.4658e-06,0.08,0.16,0
0.0043991,0.0027468,0.057256,0.011237,0.020548,0.0084449,0,0,0.04772,-0.012104,0,0.021957,0,0,0,0.058757,0.0097367,0.020548,10.077,0.029681,0.044608,3.672e-06,0.1,0.16,0
0.0053651,0.0032488,0.057577,0.009356,0.02008,0.0075122,0,0,0.048747,-0.013941,0,0.019532,0,0,0,0.058721,0.0082128,0.02008,8.6527,0.029004,0.045744,3.8232e-06,0.12,0.16,0
0.006349,0.0037181,0.05774,0.0077574,0.019649,0.006548,0,0,0.049518,-0.015459,0,0.017025,0,0,0,0.058583,0.0069139,0.019649,7.3411,0.028382,0.046625,3.926e-06,0.14,0.16,0
0.0073458,0.004152,0.057771,0.0064215,0.019258,0.0056065,0,0,0.050067,-0.016687,0,0.014577,0,0,0,0.058376,0.0058165,0.019258,6.159,0.027817,0.047294,3.9898e-06,0.16,0.16,0
0.0083516,0.00455,0.057703,0.0053148,0.018905,0.0047227,0,0,0.050437,-0.017668,0,0.012279,0,0,0,0.058125,0.0048925,0.018905,5.1102,0.027308,0.047793,4.0244e-06,0.18,0.16,0
0.0093633,0.0049125,0.057568,0.0044014,0.018591,0.0039157,0,0,0.05067,-0.018446,0,0.010181,0,0,0,0.057855,0.0041146,0.018591,4.1897,0.026853,0.048162,4.0386e-06,0.2,0.16,0
0.010378,0.0052411,0.057393,0.0036477,0.018312,0.0031932,0,0,0.050805,-0.019064,0,0.0083024,0,0,0,0.057582,0.0034586,0.018312,3.3883,0.026451,0.048436,4.0391e-06,0.22,0.16,0
0.011395,0.0055375,0.057197,0.0030245,0.018066,0.0025555,0,0,0.05087,-0.019555,0,0.0066444,0,0,0,0.057318,0.0029042,0.018066,2.6949,0.026096,0.048638,4.0313e-06,0.24,0.16,0
0.012413,0.0058041,0.056997,0.0025074,0.017851,0.0019986,0,0,0.050889,-0.019947,0,0.0051965,0,0,0,0.05707,0.0024342,0.017851,2.0978,0.025785,0.04879,4.0187e-06,0.26,0.16,0
0.013431,0.0060431,0.056802,0.0020768,0.017664,0.0015164,0,0,0.05088,-0.020263,0,0.0039427,0,0,0,0.056844,0.0020348,0.017664,1.586,0.025514,0.048905,4.004e-06,0.28,0.16,0
0.014448,0.0062566,0.056619,0.0017167,0.0175,0.0011018,0,0,0.050853,-0.020519,0,0.0028647,0,0,0,0.056641,0.0016946,0.0175,1.1492,0.025279,0.048994,3.9889e-06,0.3,0.16,0
0.015465,0.0064469,0.056451,0.0014142,0.017359,0.00074763,0,0,0.050819,-0.020729,0,0.0019438,0,0,0,0.056461,0.0014041,0.017359,0.77812,0.025075,0.049065,3.9744e-06,0.32,0.16,0
0.016481,0.006616,0.056301,0.0011592,0.017238,0.00044701,0,0,0.050782,-0.020903,0,0.0011622,0,0,0,0.056305,0.0011556,0.017238,0.46443,0.024899,0.049124,3.9611e-06,0.34,0.16,0
0.017497,0.0067659,0.056169,0.00094356,0.017134,0.00019358,0,0,0.050746,-0.021048,0,0.0005033,0,0,0,0.05617,0.00094288,0.017134,0.20083,0.024749,0.049173,3.9495e-06,0.36,0.16,0
0.018511,0.0068983,0.056056,0.00076058,0.017045,-1.8443e-05,0,0,0.050714,-0.02117,0,-4.7952e-05,0,0,0,0.056056,0.00076057,0.017045,-0.01911,0.024621,0.049217,3.9397e-06,0.38,0.16,0
0.019525,0.0070149,0.05596,0.00060501,0.016969,-0.00019423,0,0,0.050688,-0.021274,0,-0.00050499,0,0,0,0.055961,0.00060432,0.016969,-0.20103,0.024511,0.049257,3.9318e-06,0.4,0.16,0
0.020539,0.0071172,0.05588,0.00047251,0.016906,-0.00033838,0,0,0.050667,-0.021363,0,-0.00087979,0,0,0,0.055882,0.00047044,0.016906,-0.3499,0.02442,0.049294,3.9256e-06,0.42,0.16,0
0.021552,0.0072068,0.055815,0.00035955,0.016852,-0.00045498,0,0,0.050652,-0.021441,0,-0.0011829,0,0,0,0.055819,0.00035582,0.016852,-0.47003,0.024342,0.049329,3.921e-06,0.44,0.16,0
0.022565,0.0072848,0.055764,0.00026323,0.016808,-0.0005476,0,0,0.050642,-0.021508,0,-0.0014238,0,0,0,0.055769,0.00025782,0.016808,-0.56524,0.024278,0.049363,3.9179e-06,0.46,0.16,0
0.023577,0.0073525,0.055724,0.00018112,0.016772,-0.00061942,0,0,0.050638,-0.021567,0,-0.0016105,0,0,0,0.055731,0.00017421,0.016772,-0.63886,0.024226,0.049396,3.9162e-06,0.48,0.16,0
0.02459,0.007411,0.055695,0.0001112,0.016742,-0.00067321,0,0,0.050639,-0.02162,0,-0.0017503,0,0,0,0.055703,0.00010305,0.016742,-0.69381,0.024182,0.049427,3.9157e-06,0.5,0.16,0
0.025603,0.0074612,0.055675,5.178e-05,0.016718,-0.00071141,0,0,0.050644,-0.021666,0,-0.0018497,0,0,0,0.055684,4.2682e-05,0.016718,-0.73265,0.024148,0.049459,3.9163e-06,0.52,0.16,0
0.026616,0.0075041,0.055662,1.4075e-06,0.016699,-0.00073617,0,0,0.050652,-0.021707,0,-0.001914,0,0,0,0.055672,-8.3273e-06,0.016699,-0.75761,0.024121,0.049489,3.9177e-06,0.54,0.16,0
0.027629,0.0075406,0.055657,-4.1148e-05,0.016685,-0.00074937,0,0,0.050664,-0.021744,0,-0.0019484,0,0,0,0.055667,-5.1229e-05,0.016685,-0.77068,0.0241,0.049519,3.9198e-06,0.56,0.16,0
0.028642,0.0075713,0.055657,-7.6948e-05,0.016674,-0.00075267,0,0,0.050678,-0.021776,0,-0.0019569,0,0,0,0.055667,-8.711e-05,0.016674,-0.77357,0.024085,0.049548,3.9226e-06,0.58,0.16,0
0.029656,0.007597,0.055662,-0.00010691,0.016667,-0.00074751,0,0,0.050694,-0.021805,0,-0.0019435,0,0,0,0.055672,-0.00011692,0.016667,-0.76779,0.024074,0.049576,3.9258e-06,0.6,0.16,0
0.03067,0.0076183,0.05567,-0.00013182,0.016662,-0.00073516,0,0,0.050711,-0.021831,0,-0.0019114,0,0,0,0.05568,-0.00014151,0.016662,-0.75466,0.024067,0.049603,3.9294e-06,0.62,0.16,0
0.031685,0.0076357,0.055682,-0.00015239,0.016659,-0.00071672,0,0,0.05073,-0.021855,0,-0.0018635,0,0,0,0.055691,-0.00016159,0.016659,-0.73531,0.024063,0.049629,3.9333e-06,0.64,0.16,0
0.032699,0.0076498,0.055696,-0.00016922,0.016658,-0.00069316,0,0,0.050749,-0.021875,0,-0.0018022,0,0,0,0.055705,-0.00017782,0.016658,-0.71076,0.024062,0.049654,3.9373e-06,0.66,0.16,0
0.033715,0.007661,0.055712,-0.00018285,0.016659,-0.00066531,0,0,0.050769,-0.021894,0,-0.0017298,0,0,0,0.05572,-0.00019076,0.016659,-0.68186,0.024063,0.049677,3.9415e-06,0.68,0.16,0
0.03473,0.0076698,0.055729,-0.00019374,0.016661,-0.00063391,0,0,0.050789,-0.02191,0,-0.0016481,0,0,0,0.055736,-0.00020093,0.016661,-0.64936,0.024065,0.0497,3.9457e-06,0.7,0.16,0
0.035746,0.0076765,0.055746,-0.00020233,0.016663,-0.00059956,0,0,0.050808,-0.021925,0,-0.0015589,0,0,0,0.055753,-0.00020875,0.016663,-0.61391,0.024069,0.049721,3.9498e-06,0.72,0.16,0
0.036762,0.0076815,0.055764,-0.00020897,0.016667,-0.00056282,0,0,0.050827,-0.021938,0,-0.0014633,0,0,0,0.05577,-0.00021463,0.016667,-0.57604,0.024074,0.049741,3.9539e-06,0.74,0.16,0
0.037779,0.007685,0.055782,-0.00021399,0.01667,-0.00052413,0,0,0.050845,-0.02195,0,-0.0013627,0,0,0,0.055787,-0.0002189,0.01667,-0.53624,0.024079,0.049759,3.9578e-06,0.76,0.16,0
0.038796,0.0076874,0.055799,-0.00021768,0.016674,-0.00048388,0,0,0.050862,-0.02196,0,-0.0012581,0,0,0,0.055803,-0.00022186,0.016674,-0.49489,0.024085,0.049776,3.9615e-06,0.78,0.16,0
0.039814,0.0076889,0.055815,-0.00022029,0.016678,-0.0004424,0,0,0.050878,-0.021968,0,-0.0011503,0,0,0,0.055819,-0.00022378,0.016678,-0.45232,0.024091,0.049792,3.965e-06,0.8,0.16,0
0.040831,0.0076896,0.055831,-0.00022205,0.016683,-0.00039996,0,0,0.050893,-0.021976,0,-0.0010399,0,0,0,0.055834,-0.0002249,0.016683,-0.4088,0.024097,0.049806,3.9683e-06,0.82,0.16,0
0.041849,0.0076898,0.055845,-0.00022314,0.016687,-0.00035678,0,0,0.050906,-0.021983,0,-0.00092762,0,0,0,0.055848,-0.00022541,0.016687,-0.36457,0.024103,0.049819,3.9713e-06,0.84,0.16,0
0.042868,0.0076896,0.055858,-0.00022373,0.01669,-0.00031303,0,0,0.050918,-0.021988,0,-0.00081388,0,0,0,0.05586,-0.00022547,0.01669,-0.31979,0.024108,0.04983,3.9739e-06,0.86,0.16,0
0.043886,0.0076892,0.05587,-0.00022396,0.016694,-0.00026887,0,0,0.050929,-0.021993,0,-0.00069906,0,0,0,0.055871,-0.00022525,0.016694,-0.27462,0.024113,0.049839,3.9763e-06,0.88,0.16,0
0.044905,0.0076887,0.05588,-0.00022397,0.016697,-0.0002244,0,0,0.050938,-0.021997,0,-0.00058345,0,0,0,0.055881,-0.00022486,0.016697,-0.22917,0.024118,0.049848,3.9783e-06,0.9,0.16,0
0.045924,0.0076881,0.055888,-0.00022384,0.016699,-0.00017973,0,0,0.050946,-0.022,0,-0.00046729,0,0,0,0.055889,-0.00022441,0.016699,-0.18352,0.024121,0.049854,3.98e-06,0.92,0.16,0
0.046943,0.0076876,0.055895,-0.00022365,0.016701,-0.0001349,0,0,0.050951,-0.022003,0,-0.00035074,0,0,0,0.055895,-0.00022398,0.016701,-0.13773,0.024124,0.04986,3.9813e-06,0.94,0.16,0
0.047962,0.0076872,0.055899,-0.00022348,0.016703,-8.9981e-05,0,0,0.050956,-0.022004,0,-0.00023395,0,0,0,0.0559,-0.00022363,0.016703,-0.091861,0.024126,0.049863,3.9822e-06,0.96,0.16,0
0.048981,0.0076869,0.055902,-0.00022336,0.016704,-4.5004e-05,0,0,0.050958,-0.022005,0,-0.00011701,0,0,0,0.055902,-0.0002234,0.016704,-0.045942,0.024127,0.049866,3.9828e-06,0.98,0.16,0
0.05,0.0076868,0.055903,-0.00022331,0.016704,-1.7527e-06,0,0,0.050959,-0.022006,0,-4.5571e-06,0,0,0,0.055903,-0.00022331,0.016704,-0.0017892,0.024128,0.049866,3.983e-06,1,0.16,0
0,0,0.054151,0.023208,0.023208,0.0096602,0,0,0.040227,-1.0842e-19,0,0.025116,0,0,0,0.056919,0.02044,0.023208,15.99,0.033522,0.035178,2.1891e-06,0,0.18,0
0.00080453,0.00050233,0.053948,0.020715,0.022399,0.0096018,0,0,0.041014,-0.0021892,0,0.024965,0,0,0,0.056523,0.01814,0.022399,15.011,0.032354,0.03644,2.3712e-06,0.02,0.18,0
0.0016405,0.0010131,0.054741,0.018511,0.021976,0.0094983,0,0,0.042595,-0.0045038,0,0.024696,0,0,0,0.05708,0.016172,0.021976,13.835,0.031742,0.038337,2.6717e-06,0.04,0.18,0
0.0025083,0.0015245,0.055487,0.01627,0.021527,0.0091868,0,0,0.044148,-0.0068343,0,0.023886,0,0,0,0.057533,0.014225,0.021527,12.552,0.031095,0.040158,2.9587e-06,0.06,0.18,0
0.0034065,0.002028,0.056144,0.014096,0.021072,0.0086785,0,0,0.045594,-0.0090685,0,0.022564,0,0,0,0.057865,0.012376,0.021072,11.215,0.030438,0.041825,3.2169e-06,0.08,0.18,0
0.0043321,0.0025156,0.056681,0.012075,0.020627,0.0080121,0,0,0.046871,-0.011117,0,0.020832,0,0,0,0.058077,0.010679,0.020627,9.8802,0.029794,0.043289,3.4363e-06,0.1,0.18,0
0.0052813,0.002981,0.057083,0.010258,0.020202,0.0072404,0,0,0.047945,-0.012928,0,0.018825,0,0,0,0.058176,0.0091637,0.020202,8.5922,0.029181,0.044532,3.6133e-06,0.12,0.18,0
0.0062499,0.0034193,0.05735,0.008665,0.019805,0.0064168,0,0,0.048809,-0.014481,0,0.016684,0,0,0,0.058182,0.0078335,0.019805,7.3838,0.028607,0.045558,3.7495e-06,0.14,0.18,0
0.0072337,0.0038277,0.057498,0.007294,0.019438,0.0055872,0,0,0.049479,-0.015787,0,0.014527,0,0,0,0.058113,0.0066797,0.019438,6.2741,0.028077,0.046389,3.8496e-06,0.16,0.18,0
0.008229,0.0042048,0.057548,0.0061272,0.019103,0.0047854,0,0,0.049979,-0.016868,0,0.012442,0,0,0,0.05799,0.0056857,0.019103,5.2717,0.027593,0.047053,3.92e-06,0.18,0.18,0
0.0092328,0.0045506,0.057523,0.0051409,0.018799,0.0040336,0,0,0.050341,-0.017756,0,0.010487,0,0,0,0.057832,0.0048321,0.018799,4.3776,0.027155,0.04758,3.9671e-06,0.2,0.18,0
0.010243,0.0048655,0.057445,0.0043098,0.018526,0.0033445,0,0,0.050594,-0.018482,0,0.0086958,0,0,0,0.057655,0.0041001,0.018526,3.5876,0.02676,0.047996,3.9968e-06,0.22,0.18,0
0.011257,0.0051511,0.057332,0.0036099,0.018283,0.0027236,0,0,0.050764,-0.019074,0,0.0070813,0,0,0,0.057469,0.0034722,0.018283,2.8949,0.026408,0.048325,4.0137e-06,0.24,0.18,0
0.012273,0.0054089,0.057198,0.0030201,0.018066,0.0021713,0,0,0.050873,-0.019559,0,0.0056453,0,0,0,0.057285,0.0029332,0.018066,2.2913,0.026095,0.048587,4.0218e-06,0.26,0.18,0
0.013291,0.0056407,0.057056,0.0025221,0.017874,0.0016852,0,0,0.050938,-0.019957,0,0.0043815,0,0,0,0.057108,0.0024701,0.017874,1.7683,0.025817,0.048795,4.0239e-06,0.28,0.18,0
0.014311,0.0058484,0.056914,0.0021008,0.017704,0.0012612,0,0,0.050972,-0.020285,0,0.0032792,0,0,0,0.056943,0.0020717,0.017704,1.3174,0.025573,0.048964,4.0222e-06,0.3,0.18,0
0.01533,0.0060338,0.056776,0.0017432,0.017556,0.00089432,0,0,0.050986,-0.020556,0,0.0023252,0,0,0,0.05679,0.0017287,0.017556,0.93078,0.025358,0.0491,4.0181e-06,0.32,0.18,0
0.01635,0.0061989,0.056647,0.0014392,0.017426,0.00057917,0,0,0.050987,-0.020782,0,0.0015058,0,0,0,0.056653,0.0014331,0.017426,0.601,0.02517,0.049212,4.0129e-06,0.34,0.18,0
0.01737,0.0063455,0.056528,0.00118,0.017312,0.00031052,0,0,0.05098,-0.020972,0,0.00080734,0,0,0,0.05653,0.0011782,0.017312,0.32143,0.025007,0.049306,4.0073e-06,0.36,0.18,0
0.018389,0.0064751,0.056421,0.0009586,0.017214,8.3329e-05,0,0,0.050969,-0.021132,0,0.00021666,0,0,0,0.056421,0.00095847,0.017214,0.086083,0.024865,0.049384,4.0018e-06,0.38,0.18,0
0.019409,0.0065893,0.056326,0.00076923,0.017129,-0.00010706,0,0,0.050957,-0.021267,0,-0.00027836,0,0,0,0.056327,0.00076903,0.017129,-0.11041,0.024741,0.049451,3.9967e-06,0.4,0.18,0
0.020428,0.0066896,0.056244,0.0006071,0.017055,-0.00026494,0,0,0.050945,-0.021383,0,-0.00068885,0,0,0,0.056245,0.00060583,0.017055,-0.27283,0.024635,0.049508,3.9921e-06,0.42,0.18,0
0.021447,0.0067774,0.056173,0.00046821,0.016992,-0.00039419,0,0,0.050935,-0.021481,0,-0.0010249,0,0,0,0.056176,0.00046542,0.016992,-0.40543,0.024545,0.049559,3.9883e-06,0.44,0.18,0
0.022465,0.0068539,0.056113,0.00034924,0.016939,-0.00049832,0,0,0.050926,-0.021566,0,-0.0012956,0,0,0,0.056117,0.00034478,0.016939,-0.51196,0.024467,0.049603,3.9852e-06,0.46,0.18,0
0.023484,0.0069203,0.056063,0.00024741,0.016893,-0.00058044,0,0,0.05092,-0.021639,0,-0.0015092,0,0,0,0.056069,0.00024137,0.016893,-0.59576,0.024401,0.049642,3.9828e-06,0.48,0.18,0
0.024502,0.0069777,0.056014,0.00014371,0.016847,-0.00065952,0,0,0.050917,-0.021715,0,-0.0017148,0,0,0,0.056022,0.00013591,0.016847,-0.67621,0.024335,0.049685,3.9809e-06,0.5,0.18,0
0.02552,0.0070269,0.055988,8.608e-05,0.016822,-0.00068959,0,0,0.050916,-0.021757,0,-0.0017929,0,0,0,0.055997,7.7564e-05,0.016822,-0.70665,0.024299,0.049709,3.9801e-06,0.52,0.18,0
0.026538,0.007069,0.055962,2.2875e-05,0.016796,-0.0007213,0,0,0.050917,-0.021805,0,-0.0018754,0,0,0,0.055972,1.3569e-05,0.016796,-0.73864,0.02426,0.049738,3.9796e-06,0.54,0.18,0
0.027557,0.0071046,0.055943,-3.0733e-05,0.016774,-0.00074047,0,0,0.05092,-0.021846,0,-0.0019252,0,0,0,0.055953,-4.0532e-05,0.016774,-0.75779,0.024229,0.049764,3.9797e-06,0.56,0.18,0
0.028575,0.0071347,0.055929,-7.6018e-05,0.016756,-0.00074883,0,0,0.050925,-0.021882,0,-0.001947,0,0,0,0.055939,-8.6031e-05,0.016756,-0.76591,0.024203,0.049788,3.9802e-06,0.58,0.18,0
0.029594,0.0071598,0.05592,-0.00011408,0.016742,-0.00074789,0,0,0.050931,-0.021913,0,-0.0019445,0,0,0,0.05593,-0.00012407,0.016742,-0.76456,0.024182,0.049811,3.9811e-06,0.6,0.18,0
0.030613,0.0071805,0.055914,-0.0001459,0.016731,-0.00073901,0,0,0.050939,-0.021939,0,-0.0019214,0,0,0,0.055924,-0.00015564,0.016731,-0.75513,0.024166,0.049831,3.9823e-06,0.62,0.18,0
0.031631,0.0071975,0.055912,-0.00017231,0.016722,-0.00072338,0,0,0.050948,-0.021963,0,-0.0018808,0,0,0,0.055922,-0.00018164,0.016722,-0.73883,0.024154,0.04985,3.9838e-06,0.64,0.18,0
0.03265,0.0072112,0.055913,-0.00019406,0.016716,-0.00070201,0,0,0.050957,-0.021983,0,-0.0018252,0,0,0,0.055922,-0.00020284,0.016716,-0.71673,0.024145,0.049867,3.9855e-06,0.66,0.18,0
0.03367,0.007222,0.055904,-0.00023616,0.0167,-0.00066781,0,0,0.050965,-0.022017,0,-0.0017363,0,0,0,0.055912,-0.00024411,0.0167,-0.68144,0.024123,0.049891,3.9864e-06,0.68,0.18,0
0.034689,0.0072305,0.055921,-0.00022612,0.016709,-0.00064558,0,0,0.050976,-0.022015,0,-0.0016785,0,0,0,0.055928,-0.00023354,0.016709,-0.65867,0.024134,0.049897,3.9891e-06,0.7,0.18,0
0.035709,0.007237,0.055927,-0.00023753,0.016707,-0.00061199,0,0,0.050986,-0.022028,0,-0.0015912,0,0,0,0.055934,-0.0002442,0.016707,-0.62422,0.024132,0.04991,3.9911e-06,0.72,0.18,0
0.036729,0.0072417,0.055934,-0.00024648,0.016706,-0.00057563,0,0,0.050996,-0.022039,0,-0.0014966,0,0,0,0.05594,-0.00025237,0.016706,-0.58697,0.024131,0.049922,3.993e-06,0.74,0.18,0
0.037749,0.0072451,0.055942,-0.00025337,0.016706,-0.00053699,0,0,0.051006,-0.022048,0,-0.0013962,0,0,0,0.055947,-0.0002585,0.016706,-0.54744,0.024132,0.049933,3.995e-06,0.76,0.18,0
0.038769,0.0072473,0.05595,-0.00025856,0.016707,-0.00049652,0,0,0.051015,-0.022056,0,-0.0012909,0,0,0,0.055954,-0.00026295,0.016707,-0.50607,0.024133,0.049943,3.9968e-06,0.78,0.18,0
0.039789,0.0072486,0.055958,-0.00026236,0.016709,-0.00045456,0,0,0.051024,-0.022062,0,-0.0011819,0,0,0,0.055961,-0.00026604,0.016709,-0.46322,0.024135,0.049952,3.9986e-06,0.8,0.18,0
0.04081,0.0072492,0.055966,-0.00026505,0.01671,-0.00041143,0,0,0.051032,-0.022068,0,-0.0010697,0,0,0,0.055969,-0.00026806,0.01671,-0.4192,0.024137,0.04996,4.0003e-06,0.82,0.18,0
0.04183,0.0072493,0.055973,-0.00026685,0.016712,-0.00036738,0,0,0.05104,-0.022072,0,-0.0009552,0,0,0,0.055975,-0.00026925,0.016712,-0.37426,0.024139,0.049967,4.0019e-06,0.84,0.18,0
0.042851,0.007249,0.05598,-0.00026799,0.016714,-0.00032262,0,0,0.051046,-0.022076,0,-0.00083881,0,0,0,0.055982,-0.00026984,0.016714,-0.32861,0.024142,0.049973,4.0033e-06,0.86,0.18,0
0.043872,0.0072485,0.055986,-0.00026863,0.016715,-0.00027731,0,0,0.051052,-0.022079,0,-0.000721,0,0,0,0.055988,-0.00027,0.016715,-0.28243,0.024144,0.049979,4.0046e-06,0.88,0.18,0
0.044894,0.0072479,0.055992,-0.00026893,0.016717,-0.00023159,0,0,0.051057,-0.022082,0,-0.00060214,0,0,0,0.055993,-0.00026989,0.016717,-0.23585,0.024147,0.049983,4.0056e-06,0.9,0.18,0
0.045915,0.0072473,0.055996,-0.00026902,0.016718,-0.00018557,0,0,0.051062,-0.022083,0,-0.00048249,0,0,0,0.055997,-0.00026963,0.016718,-0.18897,0.024148,0.049987,4.0065e-06,0.92,0.18,0
0.046936,0.0072467,0.056,-0.00026898,0.016719,-0.00013934,0,0,0.051065,-0.022085,0,-0.00036229,0,0,0,0.056001,-0.00026932,0.016719,-0.14189,0.02415,0.049989,4.0072e-06,0.94,0.18,0
0.047957,0.0072463,0.056003,-0.0002689,0.01672,-9.2969e-05,0,0,0.051067,-0.022086,0,-0.00024172,0,0,0,0.056003,-0.00026905,0.01672,-0.09466,0.024151,0.049992,4.0078e-06,0.96,0.18,0
0.048979,0.007246,0.056004,-0.00026883,0.016721,-4.6506e-05,0,0,0.051069,-0.022086,0,-0.00012092,0,0,0,0.056004,-0.00026887,0.016721,-0.047351,0.024152,0.049993,4.0081e-06,0.98,0.18,0
0.05,0.0072459,0.056005,-0.0002688,0.016721,-1.8507e-06,0,0,0.051069,-0.022086,0,-4.8117e-06,0,0,0,0.056005,-0.0002688,0.016721,-0.0018843,0.024152,0.049993,4.0082e-06,1,0.18,0
0,0,0.053728,0.023026,0.023026,0.0088524,0,0,0.039912,-3.2526e-19,0,0.023016,0,0,0,0.056097,0.020657,0.023026,14.986,0.03326,0.034317,2.0423e-06,0,0.2,0
0.00079824,0.00046032,0.053538,0.020714,0.022276,0.0088057,0,0,0.040641,-0.00203,0,0.022895,0,0,0,0.055751,0.018501,0.022276,14.108,0.032176,0.035514,2.213e-06,0.02,0.2,0
0.0016256,0.00092698,0.054284,0.018701,0.021896,0.0087211,0,0,0.042105,-0.0041529,0,0.022675,0,0,0,0.056307,0.016679,0.021896,13.056,0.031627,0.037295,2.4893e-06,0.04,0.2,0
0.0024825,0.0013939,0.054998,0.016656,0.021496,0.0084733,0,0,0.043552,-0.0062924,0,0.022031,0,0,0,0.056787,0.014867,0.021496,11.922,0.03105,0.03903,2.759e-06,0.06,0.2,0
0.0033677,0.0018544,0.055645,0.014653,0.021089,0.0080668,0,0,0.044922,-0.0083675,0,0.020974,0,0,0,0.057175,0.013123,0.021089,10.742,0.030462,0.040659,3.0103e-06,0.08,0.2,0
0.0042794,0.0023021,0.056201,0.012758,0.020688,0.0075251,0,0,0.046168,-0.010309,0,0.019565,0,0,0,0.057468,0.011491,0.020688,9.5539,0.029882,0.042138,3.2343e-06,0.1,0.2,0
0.0052144,0.0027317,0.05665,0.011016,0.0203,0.0068841,0,0,0.047255,-0.012069,0,0.017899,0,0,0,0.057666,0.01,0.0203,8.3945,0.029322,0.043442,3.4259e-06,0.12,0.2,0
0.0061696,0.0031388,0.056988,0.0094521,0.019932,0.0061833,0,0,0.048173,-0.013624,0,0.016077,0,0,0,0.057779,0.008661,0.019932,7.2912,0.028791,0.044564,3.5841e-06,0.14,0.2,0
0.0071413,0.0035206,0.05722,0.0080729,0.019588,0.0054593,0,0,0.048922,-0.01497,0,0.014194,0,0,0,0.05782,0.0074737,0.019588,6.2627,0.028294,0.045514,3.7107e-06,0.16,0.2,0
0.0081265,0.0038753,0.057361,0.0068718,0.01927,0.0047425,0,0,0.049518,-0.016117,0,0.01233,0,0,0,0.057802,0.0064302,0.01927,5.3198,0.027834,0.046307,3.809e-06,0.18,0.2,0
0.0091221,0.0042023,0.057425,0.0058347,0.018978,0.0040549,0,0,0.049981,-0.017086,0,0.010543,0,0,0,0.057742,0.0055179,0.018978,4.4668,0.027413,0.046963,3.8835e-06,0.2,0.2,0
0.010126,0.0045018,0.05743,0.0049439,0.018712,0.0034113,0,0,0.050333,-0.017899,0,0.0088693,0,0,0,0.057651,0.0047231,0.018712,3.7031,0.027029,0.047504,3.9386e-06,0.22,0.2,0
0.011135,0.0047746,0.057391,0.0041809,0.018472,0.0028202,0,0,0.050595,-0.018578,0,0.0073325,0,0,0,0.05754,0.0040319,0.018472,3.0255,0.026681,0.047948,3.9784e-06,0.24,0.2,0
0.01215,0.0050218,0.057321,0.0035283,0.018255,0.0022855,0,0,0.050786,-0.019145,0,0.0059422,0,0,0,0.057418,0.0034313,0.018255,2.4284,0.026368,0.048312,4.0064e-06,0.26,0.2,0
0.013167,0.0052448,0.057232,0.0029699,0.018061,0.0018076,0,0,0.050923,-0.019618,0,0.0046999,0,0,0,0.057293,0.0029098,0.018061,1.9059,0.026088,0.048612,4.0254e-06,0.28,0.2,0
0.014186,0.0054452,0.057133,0.0024919,0.017887,0.0013851,0,0,0.051019,-0.020014,0,0.0036012,0,0,0,0.057168,0.0024568,0.017887,1.4511,0.025837,0.048859,4.0378e-06,0.3,0.2,0
0.015208,0.0056247,0.057028,0.0020823,0.017733,0.0010148,0,0,0.051084,-0.020346,0,0.0026386,0,0,0,0.057047,0.0020635,0.017733,1.0577,0.025615,0.049063,4.0453e-06,0.32,0.2,0
0.01623,0.0057847,0.056924,0.0017308,0.017597,0.00069315,0,0,0.051126,-0.020625,0,0.0018022,0,0,0,0.056933,0.0017221,0.017597,0.7194,0.025417,0.049232,4.0494e-06,0.34,0.2,0
0.017253,0.005927,0.056824,0.0014288,0.017476,0.00041598,0,0,0.051152,-0.020861,0,0.0010815,0,0,0,0.056827,0.0014257,0.017476,0.43022,0.025243,0.049373,4.051e-06,0.36,0.2,0
0.018276,0.006053,0.056729,0.0011691,0.017369,0.00017919,0,0,0.051167,-0.02106,0,0.00046591,0,0,0,0.056729,0.0011685,0.017369,0.18479,0.025089,0.049491,4.0511e-06,0.38,0.2,0
0.019299,0.0061642,0.056641,0.0009456,0.017276,-2.1236e-05,0,0,0.051174,-0.021229,0,-5.5212e-05,0,0,0,0.056641,0.00094559,0.017276,-0.021846,0.024954,0.04959,4.0501e-06,0.4,0.2,0
0.020323,0.0062619,0.056561,0.00075318,0.017194,-0.00018914,0,0,0.051176,-0.021373,0,-0.00049176,0,0,0,0.056561,0.00075254,0.017194,-0.19418,0.024836,0.049673,4.0484e-06,0.42,0.2,0
0.021346,0.0063475,0.056489,0.00058754,0.017123,-0.00032809,0,0,0.051176,-0.021496,0,-0.00085303,0,0,0,0.056491,0.00058562,0.017123,-0.33626,0.024733,0.049743,4.0464e-06,0.44,0.2,0
0.02237,0.0064222,0.056425,0.00044502,0.017061,-0.00044138,0,0,0.051173,-0.021601,0,-0.0011476,0,0,0,0.056428,0.00044154,0.017061,-0.45172,0.024643,0.049802,4.0443e-06,0.46,0.2,0
0.023393,0.0064869,0.056363,0.00031299,0.017003,-0.00054636,0,0,0.051169,-0.021697,0,-0.0014205,0,0,0,0.056369,0.00030765,0.017003,-0.55842,0.02456,0.049856,4.042e-06,0.48,0.2,0
0.024417,0.0065429,0.056325,0.00023012,0.016967,-0.00058949,0,0,0.051166,-0.021757,0,-0.0015327,0,0,0,0.056331,0.00022391,0.016967,-0.60201,0.024507,0.04989,4.0405e-06,0.5,0.2,0
0.02544,0.0065909,0.056277,0.00012733,0.016921,-0.000656,0,0,0.051162,-0.021832,0,-0.0017056,0,0,0,0.056284,0.00011967,0.016921,-0.66927,0.024442,0.049931,4.0385e-06,0.52,0.2,0
0.026463,0.006632,0.056241,5.0415e-05,0.016887,-0.00069401,0,0,0.051159,-0.021888,0,-0.0018044,0,0,0,0.056249,4.1845e-05,0.016887,-0.70752,0.024393,0.049962,4.0369e-06,0.54,0.2,0
0.027486,0.0066667,0.05621,-1.5069e-05,0.016858,-0.00071875,0,0,0.051157,-0.021936,0,-0.0018687,0,0,0,0.056219,-2.4256e-05,0.016858,-0.73227,0.024351,0.049988,4.0356e-06,0.56,0.2,0
0.028509,0.006696,0.056185,-7.0602e-05,0.016834,-0.00073198,0,0,0.051155,-0.021976,0,-0.0019031,0,0,0,0.056194,-8.0125e-05,0.016834,-0.74535,0.024316,0.05001,4.0344e-06,0.58,0.2,0
0.029532,0.0067205,0.056163,-0.00011748,0.016814,-0.00073528,0,0,0.051155,-0.022011,0,-0.0019117,0,0,0,0.056173,-0.00012708,0.016814,-0.74837,0.024287,0.050029,4.0335e-06,0.6,0.2,0
0.030556,0.0067407,0.056147,-0.00015683,0.016797,-0.00073004,0,0,0.051154,-0.02204,0,-0.0018981,0,0,0,0.056156,-0.00016629,0.016797,-0.74274,0.024262,0.050045,4.0328e-06,0.62,0.2,0
0.031579,0.0067572,0.056133,-0.00018966,0.016783,-0.00071748,0,0,0.051155,-0.022064,0,-0.0018654,0,0,0,0.056142,-0.00019879,0.016783,-0.72972,0.024242,0.050059,4.0323e-06,0.64,0.2,0
0.032602,0.0067705,0.056122,-0.00021684,0.016772,-0.00069869,0,0,0.051156,-0.022085,0,-0.0018166,0,0,0,0.056131,-0.00022551,0.016772,-0.71041,0.024226,0.05007,4.0319e-06,0.66,0.2,0
0.033625,0.006781,0.056124,-0.00021666,0.016772,-0.00068426,0,0,0.051157,-0.022086,0,-0.0017791,0,0,0,0.056132,-0.00022498,0.016772,-0.69573,0.024227,0.050071,4.0322e-06,0.68,0.2,0
0.034648,0.0067892,0.056098,-0.0002798,0.016745,-0.00063813,0,0,0.051158,-0.022133,0,-0.0016592,0,0,0,0.056105,-0.00028702,0.016745,-0.64842,0.024188,0.050097,4.0311e-06,0.7,0.2,0
0.035671,0.0067954,0.056104,-0.00027192,0.01675,-0.00061386,0,0,0.051161,-0.022128,0,-0.001596,0,0,0,0.056111,-0.0002786,0.01675,-0.62378,0.024194,0.050095,4.0316e-06,0.72,0.2,0
0.036694,0.0067999,0.056101,-0.0002835,0.016745,-0.00057852,0,0,0.051163,-0.022138,0,-0.0015042,0,0,0,0.056107,-0.00028943,0.016745,-0.58779,0.024188,0.0501,4.0317e-06,0.74,0.2,0
0.037718,0.0068031,0.0561,-0.00029254,0.016742,-0.00054062,0,0,0.051165,-0.022145,0,-0.0014056,0,0,0,0.056105,-0.00029773,0.016742,-0.54922,0.024183,0.050105,4.0319e-06,0.76,0.2,0
0.038741,0.0068052,0.056099,-0.00029948,0.01674,-0.00050063,0,0,0.051167,-0.022151,0,-0.0013016,0,0,0,0.056104,-0.00030392,0.01674,-0.50854,0.02418,0.050109,4.032e-06,0.78,0.2,0
0.039765,0.0068064,0.056099,-0.00030469,0.016738,-0.00045893,0,0,0.051169,-0.022156,0,-0.0011932,0,0,0,0.056103,-0.00030842,0.016738,-0.46615,0.024178,0.050112,4.0323e-06,0.8,0.2,0
0.040788,0.0068069,0.0561,-0.00030849,0.016737,-0.00041587,0,0,0.051172,-0.02216,0,-0.0010812,0,0,0,0.056103,-0.00031155,0.016737,-0.42238,0.024176,0.050115,4.0325e-06,0.82,0.2,0
0.041811,0.0068069,0.056101,-0.00031117,0.016737,-0.00037171,0,0,0.051174,-0.022163,0,-0.00096645,0,0,0,0.056104,-0.00031362,0.016737,-0.37751,0.024176,0.050117,4.0328e-06,0.84,0.2,0
0.042835,0.0068066,0.056103,-0.00031298,0.016737,-0.0003267,0,0,0.051175,-0.022165,0,-0.00084941,0,0,0,0.056105,-0.00031488,0.016737,-0.33178,0.024175,0.050118,4.033e-06,0.86,0.2,0
0.043858,0.0068061,0.056104,-0.00031415,0.016737,-0.00028102,0,0,0.051177,-0.022166,0,-0.00073064,0,0,0,0.056105,-0.00031555,0.016737,-0.28538,0.024176,0.05012,4.0333e-06,0.88,0.2,0
0.044882,0.0068054,0.056105,-0.00031484,0.016737,-0.00023483,0,0,0.051179,-0.022168,0,-0.00061055,0,0,0,0.056106,-0.00031581,0.016737,-0.23847,0.024176,0.050121,4.0335e-06,0.9,0.2,0
0.045906,0.0068048,0.056106,-0.0003152,0.016737,-0.00018826,0,0,0.05118,-0.022168,0,-0.00048947,0,0,0,0.056107,-0.00031583,0.016737,-0.19117,0.024176,0.050121,4.0337e-06,0.92,0.2,0
0.046929,0.0068042,0.056107,-0.00031536,0.016738,-0.00014141,0,0,0.051181,-0.022169,0,-0.00036767,0,0,0,0.056108,-0.00031572,0.016738,-0.1436,0.024177,0.050122,4.0338e-06,0.94,0.2,0
0.047953,0.0068037,0.056108,-0.00031541,0.016738,-9.4373e-05,0,0,0.051181,-0.022169,0,-0.00024537,0,0,0,0.056108,-0.00031557,0.016738,-0.095831,0.024177,0.050122,4.0339e-06,0.96,0.2,0
0.048976,0.0068034,0.056109,-0.00031542,0.016738,-4.7215e-05,0,0,0.051182,-0.022169,0,-0.00012276,0,0,0,0.056109,-0.00031546,0.016738,-0.047945,0.024177,0.050123,4.034e-06,0.98,0.2,0
0.05,0.0068033,0.056109,-0.00031541,0.016738,-1.8962e-06,0,0,0.051182,-0.02217,0,-4.9302e-06,0,0,0,0.056109,-0.00031541,0.016738,-0.0019255,0.024177,0.050123,4.034e-06,1,0.2,0
0,0,0.053399,0.022885,0.022885,0.0080987,0,0,0.039668,1.0842e-19,0,0.021056,0,0,0,0.055415,0.020869,0.022885,13.98,0.033056,0.033583,1.9217e-06,0,0.22,0
0.00079335,0.00042113,0.05322,0.020718,0.022181,0.0080604,0,0,0.04035,-0.0019027,0,0.020957,0,0,0,0.055109,0.018829,0.022181,13.19,0.03204,0.034726,2.0832e-06,0.02,0.22,0
0.001614,0.000847,0.053927,0.018853,0.021834,0.0079888,0,0,0.04172,-0.0038747,0,0.020771,0,0,0,0.055661,0.01712,0.021834,12.246,0.031538,0.036413,2.3402e-06,0.04,0.22,0
0.0024622,0.0012728,0.054608,0.016963,0.021472,0.0077869,0,0,0.043078,-0.0058609,0,0.020246,0,0,0,0.056156,0.015416,0.021472,11.237,0.031014,0.038075,2.5948e-06,0.06,0.22,0
0.0033371,0.0016933,0.055241,0.015101,0.021103,0.0074559,0,0,0.04438,-0.0078016,0,0.019385,0,0,0,0.056581,0.013761,0.021103,10.19,0.030482,0.039662,2.8378e-06,0.08,0.22,0
0.0042373,0.0021033,0.055802,0.013319,0.020736,0.0070105,0,0,0.045586,-0.0096428,0,0.018227,0,0,0,0.056929,0.012192,0.020736,9.1323,0.029952,0.041136,3.0616e-06,0.1,0.22,0
0.0051605,0.0024982,0.056278,0.011653,0.020379,0.0064752,0,0,0.046668,-0.011344,0,0.016835,0,0,0,0.057198,0.010733,0.020379,8.0916,0.029437,0.042472,3.2609e-06,0.12,0.22,0
0.0061041,0.0028743,0.056661,0.01013,0.020037,0.005879,0,0,0.047611,-0.01288,0,0.015285,0,0,0,0.057392,0.0093987,0.020037,7.0906,0.028943,0.043658,3.4333e-06,0.14,0.22,0
0.007065,0.0032289,0.056954,0.0087599,0.019714,0.0052508,0,0,0.048411,-0.01424,0,0.013652,0,0,0,0.057519,0.0081945,0.019714,6.1465,0.028476,0.044693,3.5785e-06,0.16,0.22,0
0.0080405,0.0035601,0.057162,0.0075435,0.019412,0.0046162,0,0,0.049076,-0.015429,0,0.012002,0,0,0,0.057588,0.0071177,0.019412,5.2702,0.028039,0.045584,3.6981e-06,0.18,0.22,0
0.009028,0.0038671,0.057297,0.0064737,0.019131,0.0039956,0,0,0.049616,-0.016455,0,0.010389,0,0,0,0.05761,0.0061615,0.019131,4.4679,0.027634,0.046345,3.7947e-06,0.2,0.22,0
0.010025,0.0041496,0.057372,0.005539,0.018873,0.003404,0,0,0.050048,-0.017334,0,0.0088503,0,0,0,0.057594,0.0053164,0.018873,3.7413,0.027261,0.04699,3.8714e-06,0.22,0.22,0
0.01103,0.004408,0.057397,0.004726,0.018637,0.0028513,0,0,0.050388,-0.018084,0,0.0074134,0,0,0,0.057551,0.0045721,0.018637,3.0896,0.02692,0.047534,3.9315e-06,0.24,0.22,0
0.012041,0.0046431,0.057386,0.0040207,0.018422,0.0023436,0,0,0.050653,-0.018722,0,0.0060933,0,0,0,0.057488,0.003918,0.018422,2.5097,0.02661,0.047991,3.9778e-06,0.26,0.22,0
0.013056,0.004856,0.057347,0.0034098,0.018227,0.0018834,0,0,0.050856,-0.019262,0,0.0048968,0,0,0,0.057413,0.0033441,0.018227,1.9974,0.026328,0.048376,4.013e-06,0.28,0.22,0
0.014075,0.0050478,0.05729,0.0028809,0.018051,0.0014712,0,0,0.05101,-0.019721,0,0.0038251,0,0,0,0.057329,0.0028412,0.018051,1.5477,0.026074,0.048699,4.0393e-06,0.3,0.22,0
0.015097,0.00522,0.05722,0.0024233,0.017893,0.0011057,0,0,0.051125,-0.020111,0,0.0028749,0,0,0,0.057243,0.002401,0.017893,1.1556,0.025846,0.048969,4.0587e-06,0.32,0.22,0
0.01612,0.0053739,0.057144,0.0020271,0.017751,0.00078478,0,0,0.05121,-0.020441,0,0.0020404,0,0,0,0.057155,0.0020159,0.017751,0.81559,0.025641,0.049196,4.0727e-06,0.34,0.22,0
0.017145,0.005511,0.057064,0.0016841,0.017625,0.00050542,0,0,0.051272,-0.020723,0,0.0013141,0,0,0,0.057069,0.0016795,0.017625,0.52285,0.025458,0.049387,4.0824e-06,0.36,0.22,0
0.018171,0.0056326,0.056985,0.0013872,0.017512,0.00026446,0,0,0.051316,-0.020962,0,0.00068761,0,0,0,0.056987,0.0013859,0.017512,0.27253,0.025295,0.049547,4.0889e-06,0.38,0.22,0
0.019197,0.0057401,0.056908,0.00113,0.017411,5.8586e-05,0,0,0.051346,-0.021166,0,0.00015232,0,0,0,0.056908,0.00113,0.017411,0.06018,0.02515,0.04968,4.093e-06,0.4,0.22,0
0.020225,0.0058347,0.056834,0.00090745,0.017323,-0.0001155,0,0,0.051365,-0.02134,0,-0.00030031,0,0,0,0.056835,0.00090721,0.017323,-0.11833,0.025021,0.049792,4.0951e-06,0.42,0.22,0
0.021252,0.0059176,0.056765,0.00071488,0.017244,-0.00026098,0,0,0.051377,-0.021488,0,-0.00067855,0,0,0,0.056766,0.00071367,0.017244,-0.26677,0.024908,0.049886,4.0959e-06,0.44,0.22,0
0.02228,0.0059899,0.056701,0.00054797,0.017175,-0.00039364,0,0,0.051385,-0.021615,0,-0.0010235,0,0,0,0.056704,0.0005452,0.017175,-0.40162,0.024808,0.049965,4.0959e-06,0.46,0.22,0
0.023307,0.0060527,0.056644,0.00040986,0.017116,-0.00046626,0,0,0.051386,-0.021718,0,-0.0012123,0,0,0,0.056648,0.00040599,0.017116,-0.47502,0.024723,0.050026,4.0947e-06,0.48,0.22,0
0.024335,0.006107,0.056588,0.00028102,0.017061,-0.0005548,0,0,0.051386,-0.021814,0,-0.0014425,0,0,0,0.056594,0.00027556,0.017061,-0.56447,0.024643,0.050082,4.0932e-06,0.5,0.22,0
0.025363,0.0061536,0.05654,0.00017462,0.017014,-0.00061384,0,0,0.051383,-0.021892,0,-0.001596,0,0,0,0.056546,0.00016794,0.017014,-0.62388,0.024576,0.050125,4.0914e-06,0.52,0.22,0
0.026391,0.0061934,0.056496,8.3403e-05,0.016974,-0.00065721,0,0,0.051379,-0.021958,0,-0.0017087,0,0,0,0.056504,7.5748e-05,0.016974,-0.66738,0.024518,0.050161,4.0893e-06,0.54,0.22,0
0.027418,0.0062272,0.056457,5.4621e-06,0.016939,-0.00068686,0,0,0.051374,-0.022013,0,-0.0017858,0,0,0,0.056465,-2.8938e-06,0.016939,-0.69699,0.024467,0.05019,4.0871e-06,0.56,0.22,0
0.028445,0.0062556,0.056423,-6.0878e-05,0.016908,-0.00070454,0,0,0.051368,-0.02206,0,-0.0018318,0,0,0,0.056431,-6.9664e-05,0.016908,-0.71453,0.024423,0.050213,4.0849e-06,0.58,0.22,0
0.029473,0.0062793,0.056392,-0.00011709,0.016883,-0.00071185,0,0,0.051362,-0.022099,0,-0.0018508,0,0,0,0.056401,-0.00012605,0.016883,-0.72161,0.024386,0.050231,4.0827e-06,0.6,0.22,0
0.0305,0.0062989,0.056365,-0.00016447,0.01686,-0.00071018,0,0,0.051356,-0.022132,0,-0.0018465,0,0,0,0.056374,-0.00017339,0.01686,-0.71965,0.024354,0.050245,4.0805e-06,0.62,0.22,0
0.031527,0.0063149,0.056342,-0.00020417,0.016841,-0.00070079,0,0,0.051351,-0.022159,0,-0.001822,0,0,0,0.05635,-0.00021286,0.016841,-0.70994,0.024326,0.050255,4.0783e-06,0.64,0.22,0
0.032554,0.0063278,0.056321,-0.00023722,0.016825,-0.00068478,0,0,0.051345,-0.022181,0,-0.0017804,0,0,0,0.056329,-0.00024551,0.016825,-0.69358,0.024303,0.050263,4.0763e-06,0.66,0.22,0
0.033581,0.006338,0.056303,-0.0002645,0.016812,-0.00066314,0,0,0.051339,-0.022199,0,-0.0017242,0,0,0,0.056311,-0.00027227,0.016812,-0.67156,0.024283,0.050268,4.0744e-06,0.68,0.22,0
0.034607,0.0063459,0.056296,-0.0002661,0.016809,-0.00064607,0,0,0.051333,-0.022198,0,-0.0016798,0,0,0,0.056303,-0.00027349,0.016809,-0.65434,0.02428,0.050262,4.0728e-06,0.7,0.22,0
0.035634,0.0063519,0.056267,-0.00032569,0.016782,-0.00059849,0,0,0.05133,-0.02224,0,-0.0015561,0,0,0,0.056273,-0.00033203,0.016782,-0.60585,0.024241,0.050282,4.0707e-06,0.72,0.22,0
0.036661,0.0063562,0.056264,-0.00031942,0.016783,-0.0005725,0,0,0.051324,-0.022233,0,-0.0014885,0,0,0,0.056269,-0.00032521,0.016783,-0.57963,0.024242,0.050273,4.0694e-06,0.74,0.22,0
0.037687,0.0063593,0.056254,-0.00033086,0.016777,-0.00053589,0,0,0.05132,-0.02224,0,-0.0013933,0,0,0,0.056259,-0.00033594,0.016777,-0.54256,0.024233,0.050272,4.068e-06,0.76,0.22,0
0.038713,0.0063612,0.056246,-0.00033977,0.016772,-0.00049698,0,0,0.051316,-0.022245,0,-0.0012921,0,0,0,0.05625,-0.00034413,0.016772,-0.50317,0.024226,0.050271,4.0667e-06,0.78,0.22,0
0.03974,0.0063623,0.056239,-0.00034657,0.016768,-0.00045618,0,0,0.051312,-0.022249,0,-0.0011861,0,0,0,0.056243,-0.00035024,0.016768,-0.46186,0.02422,0.050269,4.0655e-06,0.8,0.22,0
0.040766,0.0063628,0.056233,-0.00035165,0.016764,-0.00041383,0,0,0.051309,-0.022251,0,-0.001076,0,0,0,0.056236,-0.00035467,0.016764,-0.419,0.024215,0.050267,4.0645e-06,0.82,0.22,0
0.041792,0.0063628,0.056228,-0.00035535,0.016762,-0.00037025,0,0,0.051306,-0.022252,0,-0.00096265,0,0,0,0.056231,-0.00035777,0.016762,-0.37489,0.024212,0.050265,4.0635e-06,0.84,0.22,0
0.042818,0.0063624,0.056224,-0.00035797,0.01676,-0.00032568,0,0,0.051304,-0.022253,0,-0.00084677,0,0,0,0.056226,-0.00035984,0.01676,-0.32977,0.024209,0.050263,4.0627e-06,0.86,0.22,0
0.043844,0.0063618,0.056221,-0.00035975,0.016758,-0.00028034,0,0,0.051302,-0.022254,0,-0.00072888,0,0,0,0.056223,-0.00036114,0.016758,-0.28387,0.024207,0.05026,4.062e-06,0.88,0.22,0
0.04487,0.0063612,0.056219,-0.00036091,0.016757,-0.0002344,0,0,0.0513,-0.022254,0,-0.00060943,0,0,0,0.05622,-0.00036188,0.016757,-0.23736,0.024205,0.050258,4.0614e-06,0.9,0.22,0
0.045896,0.0063605,0.056217,-0.00036163,0.016757,-0.000188,0,0,0.051298,-0.022254,0,-0.0004888,0,0,0,0.056217,-0.00036226,0.016757,-0.19038,0.024204,0.050257,4.061e-06,0.92,0.22,0
0.046922,0.00636,0.056215,-0.00036205,0.016756,-0.00014127,0,0,0.051297,-0.022253,0,-0.0003673,0,0,0,0.056216,-0.0003624,0.016756,-0.14306,0.024203,0.050255,4.0606e-06,0.94,0.22,0
0.047948,0.0063595,0.056214,-0.00036226,0.016756,-9.4302e-05,0,0,0.051296,-0.022253,0,-0.00024519,0,0,0,0.056214,-0.00036242,0.016756,-0.095501,0.024202,0.050254,4.0603e-06,0.96,0.22,0
0.048974,0.0063592,0.056214,-0.00036236,0.016755,-4.7187e-05,0,0,0.051296,-0.022253,0,-0.00012269,0,0,0,0.056214,-0.0003624,0.016755,-0.047787,0.024202,0.050253,4.0602e-06,0.98,0.22,0
0.05,0.0063591,0.056213,-0.00036239,0.016755,-1.8962e-06,0,0,0.051296,-0.022253,0,-4.93e-06,0,0,0,0.056213,-0.00036239,0.016755,-0.0019203,0.024202,0.050253,4.0601e-06,1,0.22,0
0,0,0.05314,0.022774,0.022774,0.0073888,0,0,0.039476,0,0,0.019211,0,0,0,0.054843,0.021072,0.022774,12.975,0.032896,0.032953,1.8212e-06,0,0.24,0
0.00078951,0.00038421,0.05297,0.020725,0.022108,0.0073567,0,0,0.04012,-0.0017988,0,0.019127,0,0,0,0.054569,0.019126,0.022108,12.264,0.031935,0.03405,1.9753e-06,0.02,0.24,0
0.0016048,0.00077199,0.053643,0.018979,0.021787,0.0072948,0,0,0.041413,-0.0036498,0,0.018967,0,0,0,0.055116,0.017507,0.021787,11.413,0.03147,0.035662,2.2167e-06,0.04,0.24,0
0.002446,0.0011594,0.054296,0.017213,0.021453,0.0071273,0,0,0.042697,-0.0055116,0,0.018531,0,0,0,0.055619,0.01589,0.021453,10.513,0.030988,0.03726,2.4584e-06,0.06,0.24,0
0.0033127,0.0015423,0.054911,0.015468,0.021114,0.0068538,0,0,0.043937,-0.0073393,0,0.01782,0,0,0,0.056068,0.014311,0.021114,9.582,0.030498,0.038806,2.693e-06,0.08,0.24,0
0.0042035,0.0019164,0.05547,0.013783,0.020776,0.0064839,0,0,0.045102,-0.0090905,0,0.016858,0,0,0,0.056455,0.012798,0.020776,8.6399,0.03001,0.040265,2.9141e-06,0.1,0.24,0
0.0051168,0.0022779,0.055959,0.01219,0.020445,0.0060344,0,0,0.046169,-0.010731,0,0.015689,0,0,0,0.056776,0.011373,0.020445,7.7078,0.029531,0.041615,3.1168e-06,0.12,0.24,0
0.0060503,0.0026236,0.056372,0.010712,0.020125,0.0055268,0,0,0.047121,-0.012237,0,0.01437,0,0,0,0.057032,0.010053,0.020125,6.8043,0.02907,0.04284,3.2979e-06,0.14,0.24,0
0.0070016,0.0029509,0.056707,0.0093613,0.01982,0.0049835,0,0,0.047952,-0.013597,0,0.012957,0,0,0,0.057225,0.0088425,0.01982,5.9441,0.028629,0.043935,3.456e-06,0.16,0.24,0
0.0079684,0.0032581,0.056966,0.0081428,0.019533,0.0044256,0,0,0.048663,-0.014807,0,0.011506,0,0,0,0.057364,0.0077449,0.019533,5.1378,0.028214,0.044901,3.5915e-06,0.18,0.24,0
0.0089481,0.0035441,0.057157,0.0070541,0.019263,0.0038709,0,0,0.049261,-0.015872,0,0.010064,0,0,0,0.057454,0.0067568,0.019263,4.3919,0.027825,0.045745,3.7055e-06,0.2,0.24,0
0.0099388,0.0038084,0.057287,0.0060887,0.019013,0.0033338,0,0,0.049757,-0.016801,0,0.0086678,0,0,0,0.057504,0.0058725,0.019013,3.7099,0.027463,0.046476,3.8001e-06,0.22,0.24,0
0.010938,0.0040512,0.057368,0.0052372,0.018782,0.0028245,0,0,0.050162,-0.017608,0,0.0073437,0,0,0,0.057521,0.0050846,0.018782,3.0923,0.027129,0.047106,3.8776e-06,0.24,0.24,0
0.011945,0.0042729,0.057408,0.004489,0.018569,0.00235,0,0,0.05049,-0.018304,0,0.0061101,0,0,0,0.057512,0.0043848,0.018569,2.5377,0.026822,0.047646,3.9403e-06,0.26,0.24,0
0.012958,0.0044743,0.057415,0.0038334,0.018375,0.0019145,0,0,0.050753,-0.018904,0,0.0049776,0,0,0,0.057483,0.0037651,0.018375,2.0437,0.026541,0.048107,3.9905e-06,0.28,0.24,0
0.013975,0.0046564,0.057398,0.00326,0.018197,0.0015197,0,0,0.050961,-0.019419,0,0.0039512,0,0,0,0.057441,0.0032173,0.018197,1.6066,0.026285,0.0485,4.0302e-06,0.3,0.24,0
0.014996,0.0048202,0.057363,0.002759,0.018037,0.0011658,0,0,0.051124,-0.019861,0,0.0030311,0,0,0,0.057388,0.0027342,0.018037,1.2226,0.026053,0.048835,4.0612e-06,0.32,0.24,0
0.01602,0.004967,0.057315,0.0023218,0.017891,0.00085185,0,0,0.051251,-0.02024,0,0.0022148,0,0,0,0.057328,0.0023086,0.017891,0.88724,0.025843,0.049118,4.0852e-06,0.34,0.24,0
0.017046,0.0050981,0.057258,0.0019405,0.01776,0.00057599,0,0,0.051348,-0.020565,0,0.0014976,0,0,0,0.057264,0.0019345,0.01776,0.5965,0.025653,0.049358,4.1034e-06,0.36,0.24,0
0.018074,0.0052145,0.057197,0.001608,0.017641,0.0003359,0,0,0.051422,-0.020843,0,0.00087333,0,0,0,0.057199,0.001606,0.017641,0.34619,0.025482,0.04956,4.1168e-06,0.38,0.24,0
0.019103,0.0053175,0.057133,0.0013185,0.017535,0.00012897,0,0,0.051477,-0.021082,0,0.00033532,0,0,0,0.057133,0.0013182,0.017535,0.13239,0.025329,0.049731,4.1265e-06,0.4,0.24,0
0.020133,0.0054084,0.057068,0.0010665,0.017441,-4.752e-05,0,0,0.051516,-0.021286,0,-0.00012355,0,0,0,0.057069,0.0010664,0.017441,-0.048618,0.025192,0.049873,4.1332e-06,0.42,0.24,0
0.021164,0.005488,0.057014,0.00085752,0.017361,-0.00020783,0,0,0.051548,-0.021455,0,-0.00054035,0,0,0,0.057014,0.00085674,0.017361,-0.21204,0.025077,0.049992,4.1384e-06,0.44,0.24,0
0.022195,0.0055576,0.056939,0.00065304,0.017278,-0.00030975,0,0,0.05156,-0.021612,0,-0.00080534,0,0,0,0.056941,0.00065133,0.017278,-0.31529,0.024957,0.050091,4.139e-06,0.46,0.24,0
0.023227,0.0056181,0.056885,0.00049236,0.017213,-0.00042135,0,0,0.051573,-0.021737,0,-0.0010955,0,0,0,0.056888,0.00048921,0.017213,-0.42806,0.024864,0.050173,4.1405e-06,0.48,0.24,0
0.024258,0.0056703,0.056829,0.0003498,0.017154,-0.00050255,0,0,0.051578,-0.021845,0,-0.0013066,0,0,0,0.056834,0.00034533,0.017154,-0.50976,0.024778,0.050239,4.1401e-06,0.5,0.24,0
0.02529,0.0057153,0.056777,0.00022679,0.017101,-0.00056591,0,0,0.051579,-0.021937,0,-0.0014714,0,0,0,0.056783,0.00022113,0.017101,-0.5733,0.024702,0.050293,4.1388e-06,0.52,0.24,0
0.026321,0.0057537,0.056729,0.00012098,0.017055,-0.0006135,0,0,0.051576,-0.022014,0,-0.0015951,0,0,0,0.056735,0.00011433,0.017055,-0.62086,0.024635,0.050336,4.1368e-06,0.54,0.24,0
0.027353,0.0057862,0.056684,3.025e-05,0.017014,-0.00064719,0,0,0.05157,-0.022079,0,-0.0016827,0,0,0,0.056691,2.2857e-05,0.017014,-0.65442,0.024576,0.05037,4.1343e-06,0.56,0.24,0
0.028384,0.0058136,0.056642,-4.7241e-05,0.016979,-0.00066871,0,0,0.051563,-0.022133,0,-0.0017386,0,0,0,0.05665,-5.5127e-05,0.016979,-0.67574,0.024525,0.050396,4.1315e-06,0.58,0.24,0
0.029415,0.0058365,0.056604,-0.00011313,0.016947,-0.00067961,0,0,0.051554,-0.022179,0,-0.001767,0,0,0,0.056612,-0.00012127,0.016947,-0.68641,0.024479,0.050415,4.1283e-06,0.6,0.24,0
0.030446,0.0058554,0.056569,-0.00016888,0.01692,-0.00068127,0,0,0.051544,-0.022216,0,-0.0017713,0,0,0,0.056578,-0.00017706,0.01692,-0.68783,0.02444,0.050429,4.1251e-06,0.62,0.24,0
0.031477,0.0058708,0.056538,-0.00021578,0.016897,-0.00067496,0,0,0.051533,-0.022246,0,-0.0017549,0,0,0,0.056546,-0.00022381,0.016897,-0.68128,0.024406,0.050438,4.1217e-06,0.64,0.24,0
0.032508,0.0058832,0.056509,-0.00025499,0.016876,-0.00066179,0,0,0.051522,-0.02227,0,-0.0017206,0,0,0,0.056517,-0.0002627,0.016876,-0.66787,0.024377,0.050443,4.1184e-06,0.66,0.24,0
0.033538,0.0058931,0.056483,-0.00028752,0.016859,-0.00064273,0,0,0.051512,-0.02229,0,-0.0016711,0,0,0,0.05649,-0.0002948,0.016859,-0.64857,0.024351,0.050445,4.115e-06,0.68,0.24,0
0.034568,0.0059007,0.056459,-0.0003143,0.016844,-0.00061868,0,0,0.0515,-0.022305,0,-0.0016086,0,0,0,0.056466,-0.00032104,0.016844,-0.62427,0.02433,0.050445,4.1118e-06,0.7,0.24,0
0.035598,0.0059064,0.056444,-0.00031703,0.016838,-0.00059932,0,0,0.051488,-0.022302,0,-0.0015582,0,0,0,0.056451,-0.00032337,0.016838,-0.60488,0.024322,0.050433,4.1087e-06,0.72,0.24,0
0.036628,0.0059106,0.056413,-0.00037293,0.016812,-0.00055098,0,0,0.051481,-0.02234,0,-0.0014326,0,0,0,0.056418,-0.00037828,0.016812,-0.55587,0.024284,0.050448,4.1058e-06,0.74,0.24,0
0.037657,0.0059135,0.056402,-0.0003678,0.01681,-0.00052367,0,0,0.05147,-0.022332,0,-0.0013615,0,0,0,0.056407,-0.00037263,0.01681,-0.52846,0.024282,0.050434,4.103e-06,0.76,0.24,0
0.038686,0.0059154,0.056387,-0.00037884,0.016803,-0.00048634,0,0,0.05146,-0.022336,0,-0.0012645,0,0,0,0.056392,-0.00038301,0.016803,-0.49083,0.02427,0.050428,4.1003e-06,0.78,0.24,0
0.039716,0.0059164,0.056374,-0.0003874,0.016796,-0.00044696,0,0,0.051452,-0.022339,0,-0.0011621,0,0,0,0.056378,-0.00039092,0.016796,-0.45113,0.024261,0.050422,4.0979e-06,0.8,0.24,0
0.040744,0.0059169,0.056363,-0.0003939,0.016791,-0.00040591,0,0,0.051444,-0.02234,0,-0.0010554,0,0,0,0.056365,-0.00039681,0.016791,-0.40974,0.024253,0.050416,4.0957e-06,0.82,0.24,0
0.041773,0.0059168,0.056352,-0.00039875,0.016786,-0.0003635,0,0,0.051436,-0.02234,0,-0.00094511,0,0,0,0.056355,-0.00040108,0.016786,-0.36697,0.024247,0.05041,4.0937e-06,0.84,0.24,0
0.042802,0.0059165,0.056344,-0.00040228,0.016782,-0.00032,0,0,0.05143,-0.02234,0,-0.00083201,0,0,0,0.056346,-0.00040408,0.016782,-0.32309,0.024241,0.050404,4.092e-06,0.86,0.24,0
0.04383,0.0059159,0.056336,-0.00040477,0.016779,-0.00027564,0,0,0.051424,-0.02234,0,-0.00071666,0,0,0,0.056338,-0.00040611,0.016779,-0.27832,0.024237,0.050399,4.0904e-06,0.88,0.24,0
0.044859,0.0059153,0.05633,-0.00040648,0.016777,-0.0002306,0,0,0.051419,-0.022339,0,-0.00059955,0,0,0,0.056331,-0.00040742,0.016777,-0.23286,0.024234,0.050394,4.0891e-06,0.9,0.24,0
0.045887,0.0059146,0.056326,-0.00040761,0.016775,-0.00018504,0,0,0.051415,-0.022338,0,-0.00048109,0,0,0,0.056326,-0.00040822,0.016775,-0.18687,0.024231,0.05039,4.0881e-06,0.92,0.24,0
0.046915,0.005914,0.056322,-0.00040832,0.016774,-0.00013909,0,0,0.051412,-0.022337,0,-0.00036163,0,0,0,0.056322,-0.00040866,0.016774,-0.14047,0.024229,0.050387,4.0872e-06,0.94,0.24,0
0.047944,0.0059136,0.056319,-0.00040874,0.016773,-9.287e-05,0,0,0.05141,-0.022336,0,-0.00024146,0,0,0,0.056319,-0.00040889,0.016773,-0.093799,0.024228,0.050385,4.0866e-06,0.96,0.24,0
0.048972,0.0059133,0.056318,-0.00040896,0.016773,-4.6477e-05,0,0,0.051409,-0.022336,0,-0.00012084,0,0,0,0.056318,-0.000409,0.016773,-0.046943,0.024227,0.050383,4.0863e-06,0.98,0.24,0
0.05,0.0059132,0.056317,-0.00040903,0.016772,-1.8572e-06,0,0,0.051408,-0.022336,0,-4.8286e-06,0,0,0,0.056317,-0.00040903,0.016772,-0.0018758,0.024227,0.050383,4.0861e-06,1,0.24,0
0,0,0.052935,0.022687,0.022687,0.0067149,0,0,0.039323,-3.2526e-19,0,0.017459,0,0,0,0.054359,0.021263,0.022687,11.97,0.03277,0.032408,1.7367e-06,0,0.26,0
0.00078647,0.00034918,0.052773,0.020734,0.022052,0.0066878,0,0,0.039937,-0.0017129,0,0.017388,0,0,0,0.054113,0.019394,0.022052,11.33,0.031853,0.033469,1.8846e-06,0.02,0.26,0
0.0015975,0.00070101,0.053416,0.019085,0.02175,0.0066336,0,0,0.041166,-0.0034652,0,0.017247,0,0,0,0.054654,0.017848,0.02175,10.564,0.031417,0.035018,2.1134e-06,0.04,0.26,0
0.0024331,0.0010523,0.054045,0.01742,0.021439,0.0064927,0,0,0.042387,-0.0052251,0,0.016881,0,0,0,0.055162,0.016303,0.021439,9.7611,0.030968,0.036562,2.3441e-06,0.06,0.26,0
0.0032929,0.0013997,0.054642,0.015772,0.021124,0.0062643,0,0,0.043573,-0.0069579,0,0.016287,0,0,0,0.055626,0.014787,0.021124,8.9326,0.030513,0.038068,2.5708e-06,0.08,0.26,0
0.004176,0.0017396,0.055194,0.014171,0.020809,0.0059546,0,0,0.0447,-0.00863,0,0.015482,0,0,0,0.056041,0.013324,0.020809,8.0941,0.030058,0.039509,2.7881e-06,0.1,0.26,0
0.0050809,0.0020689,0.055689,0.012644,0.0205,0.0055754,0,0,0.045746,-0.010213,0,0.014496,0,0,0,0.056399,0.011933,0.0205,7.2616,0.029611,0.040862,2.9915e-06,0.12,0.26,0
0.0060059,0.0023848,0.05612,0.011211,0.020199,0.0051427,0,0,0.046697,-0.011685,0,0.013371,0,0,0,0.056701,0.01063,0.020199,6.4499,0.029177,0.04211,3.1777e-06,0.14,0.26,0
0.0069488,0.002685,0.056483,0.0098851,0.019911,0.0046738,0,0,0.047545,-0.013033,0,0.012152,0,0,0,0.056947,0.0094209,0.019911,5.6715,0.02876,0.043247,3.3446e-06,0.16,0.26,0
0.0079076,0.0029679,0.05678,0.008673,0.019636,0.0041858,0,0,0.048287,-0.014252,0,0.010883,0,0,0,0.057141,0.0083115,0.019636,4.9359,0.028363,0.044268,3.4917e-06,0.18,0.26,0
0.0088803,0.0032322,0.057014,0.0075756,0.019377,0.003694,0,0,0.048928,-0.015341,0,0.0096045,0,0,0,0.057288,0.0073011,0.019377,4.2497,0.027989,0.045176,3.6193e-06,0.2,0.26,0
0.0098647,0.0034775,0.05719,0.0065898,0.019134,0.0032113,0,0,0.049473,-0.016307,0,0.0083494,0,0,0,0.057393,0.0063868,0.019134,3.6169,0.027638,0.045978,3.7284e-06,0.22,0.26,0
0.010859,0.0037037,0.057316,0.0057095,0.018908,0.0027477,0,0,0.049931,-0.017158,0,0.007144,0,0,0,0.057462,0.0055636,0.018908,3.0391,0.027311,0.04668,3.8206e-06,0.24,0.26,0
0.011862,0.0039109,0.0574,0.0049273,0.018698,0.0023104,0,0,0.050312,-0.017902,0,0.006007,0,0,0,0.057502,0.0048257,0.018698,2.5163,0.027009,0.047291,3.8976e-06,0.26,0.26,0
0.012872,0.0040998,0.057448,0.0042345,0.018505,0.0019043,0,0,0.050627,-0.018551,0,0.0049512,0,0,0,0.057516,0.0041665,0.018505,2.0469,0.026729,0.047821,3.9612e-06,0.28,0.26,0
0.013887,0.0042711,0.057468,0.0036228,0.018327,0.0015322,0,0,0.050883,-0.019116,0,0.0039837,0,0,0,0.057512,0.0035792,0.018327,1.6286,0.026473,0.048279,4.0133e-06,0.3,0.26,0
0.014907,0.0044256,0.057465,0.0030836,0.018165,0.0011953,0,0,0.051091,-0.019605,0,0.0031078,0,0,0,0.057492,0.0030574,0.018165,1.2586,0.026238,0.048672,4.0554e-06,0.32,0.26,0
0.015931,0.0045643,0.057445,0.0026094,0.018016,0.00089363,0,0,0.051257,-0.020029,0,0.0023234,0,0,0,0.05746,0.0025948,0.018016,0.93339,0.026024,0.049009,4.0891e-06,0.34,0.26,0
0.016957,0.0046884,0.057412,0.0021927,0.017881,0.0006262,0,0,0.05139,-0.020395,0,0.0016281,0,0,0,0.057419,0.0021856,0.017881,0.64964,0.025829,0.049297,4.1157e-06,0.36,0.26,0
0.017986,0.0047989,0.057369,0.0018272,0.017759,0.0003915,0,0,0.051493,-0.020711,0,0.0010179,0,0,0,0.057372,0.0018245,0.017759,0.40383,0.025652,0.049541,4.1363e-06,0.38,0.26,0
0.019017,0.0048968,0.05732,0.001507,0.017648,0.00018759,0,0,0.051574,-0.020984,0,0.00048772,0,0,0,0.057321,0.0015064,0.017648,0.19257,0.025492,0.049748,4.1519e-06,0.4,0.26,0
0.020049,0.0049832,0.057286,0.0012487,0.01756,1.7808e-06,0,0,0.051643,-0.021205,0,4.63e-06,0,0,0,0.057286,0.0012487,0.01756,0.0018185,0.025365,0.049922,4.1658e-06,0.42,0.26,0
0.021082,0.0050592,0.057198,0.00096763,0.01745,-0.00012748,0,0,0.051673,-0.021427,0,-0.00033146,0,0,0,0.057199,0.00096734,0.01745,-0.1299,0.025205,0.050068,4.1699e-06,0.44,0.26,0
0.022116,0.0051255,0.057155,0.00076884,0.017377,-0.00026164,0,0,0.051711,-0.021591,0,-0.00068026,0,0,0,0.057156,0.00076762,0.017377,-0.26585,0.0251,0.050189,4.1769e-06,0.46,0.26,0
0.023151,0.0051833,0.057099,0.0005832,0.017305,-0.00036484,0,0,0.051733,-0.021738,0,-0.00094859,0,0,0,0.057101,0.00058085,0.017305,-0.36986,0.024996,0.050289,4.18e-06,0.48,0.26,0
0.024186,0.0052332,0.057044,0.00042205,0.01724,-0.00044847,0,0,0.051745,-0.021863,0,-0.001166,0,0,0,0.057047,0.0004185,0.01724,-0.45377,0.024902,0.050371,4.1812e-06,0.5,0.26,0
0.025221,0.0052762,0.05699,0.00028253,0.017182,-0.00051458,0,0,0.051751,-0.021969,0,-0.0013379,0,0,0,0.056995,0.00027786,0.017182,-0.51986,0.024818,0.050436,4.1809e-06,0.52,0.26,0
0.026256,0.0053129,0.056939,0.0001621,0.01713,-0.00056511,0,0,0.051751,-0.022059,0,-0.0014693,0,0,0,0.056945,0.00015648,0.01713,-0.5702,0.024744,0.050488,4.1795e-06,0.54,0.26,0
0.027291,0.005344,0.05689,5.8509e-05,0.017084,-0.00060185,0,0,0.051747,-0.022134,0,-0.0015648,0,0,0,0.056896,5.2136e-05,0.017084,-0.60668,0.024678,0.050529,4.1771e-06,0.56,0.26,0
0.028326,0.0053703,0.056843,-3.0257e-05,0.017044,-0.00062643,0,0,0.051739,-0.022197,0,-0.0016287,0,0,0,0.05685,-3.7156e-05,0.017044,-0.63098,0.024619,0.050559,4.174e-06,0.58,0.26,0
0.02936,0.0053922,0.0568,-0.00010598,0.017008,-0.00064036,0,0,0.051729,-0.022248,0,-0.0016649,0,0,0,0.056807,-0.00011319,0.017008,-0.64464,0.024567,0.050581,4.1704e-06,0.6,0.26,0
0.030395,0.0054103,0.056759,-0.00017028,0.016976,-0.00064498,0,0,0.051717,-0.022291,0,-0.0016769,0,0,0,0.056766,-0.00017758,0.016976,-0.64903,0.024522,0.050596,4.1664e-06,0.62,0.26,0
0.031429,0.0054251,0.05672,-0.00022456,0.016949,-0.00064153,0,0,0.051703,-0.022325,0,-0.001668,0,0,0,0.056727,-0.00023178,0.016949,-0.64537,0.024481,0.050606,4.1621e-06,0.64,0.26,0
0.032463,0.005437,0.056684,-0.00027011,0.016924,-0.00063109,0,0,0.051688,-0.022353,0,-0.0016408,0,0,0,0.056691,-0.0002771,0.016924,-0.63477,0.024446,0.05061,4.1578e-06,0.66,0.26,0
0.033496,0.0054464,0.056651,-0.00030807,0.016903,-0.00061466,0,0,0.051673,-0.022374,0,-0.0015981,0,0,0,0.056658,-0.0003147,0.016903,-0.61819,0.024415,0.05061,4.1533e-06,0.68,0.26,0
0.03453,0.0054537,0.056621,-0.00033947,0.016884,-0.00059309,0,0,0.051657,-0.022391,0,-0.001542,0,0,0,0.056627,-0.00034564,0.016884,-0.5965,0.024389,0.050608,4.1489e-06,0.7,0.26,0
0.035563,0.0054592,0.056593,-0.00036521,0.016868,-0.00056715,0,0,0.051642,-0.022404,0,-0.0014746,0,0,0,0.056599,-0.00037086,0.016868,-0.57044,0.024365,0.050602,4.1446e-06,0.72,0.26,0
0.036596,0.0054632,0.056572,-0.00036856,0.016861,-0.00054599,0,0,0.051624,-0.022398,0,-0.0014196,0,0,0,0.056577,-0.0003738,0.016861,-0.54934,0.024355,0.050586,4.1402e-06,0.74,0.26,0
0.037628,0.005466,0.056539,-0.00042057,0.016836,-0.0004976,0,0,0.051615,-0.022433,0,-0.0012937,0,0,0,0.056543,-0.00042492,0.016836,-0.50049,0.024318,0.050597,4.1367e-06,0.76,0.26,0
0.03866,0.0054678,0.056523,-0.00041623,0.016832,-0.00046944,0,0,0.051598,-0.022423,0,-0.0012205,0,0,0,0.056527,-0.0004201,0.016832,-0.47234,0.024313,0.050578,4.1327e-06,0.78,0.26,0
0.039692,0.0054688,0.056504,-0.00042666,0.016823,-0.00043195,0,0,0.051585,-0.022425,0,-0.0011231,0,0,0,0.056508,-0.00042994,0.016823,-0.43469,0.0243,0.050569,4.1292e-06,0.8,0.26,0
0.040723,0.0054692,0.056487,-0.0004347,0.016816,-0.00039269,0,0,0.051573,-0.022426,0,-0.001021,0,0,0,0.05649,-0.00043741,0.016816,-0.39524,0.024289,0.050559,4.126e-06,0.82,0.26,0
0.041755,0.0054691,0.056473,-0.00044079,0.01681,-0.00035198,0,0,0.051562,-0.022425,0,-0.00091515,0,0,0,0.056475,-0.00044297,0.01681,-0.35433,0.02428,0.05055,4.1231e-06,0.84,0.26,0
0.042786,0.0054688,0.05646,-0.00044531,0.016804,-0.0003101,0,0,0.051552,-0.022424,0,-0.00080625,0,0,0,0.056461,-0.000447,0.016804,-0.31222,0.024273,0.050541,4.1204e-06,0.86,0.26,0
0.043817,0.0054683,0.056449,-0.00044859,0.0168,-0.00026728,0,0,0.051543,-0.022423,0,-0.00069492,0,0,0,0.05645,-0.00044984,0.0168,-0.26914,0.024267,0.050533,4.1182e-06,0.88,0.26,0
0.044848,0.0054676,0.056439,-0.00045091,0.016796,-0.00022372,0,0,0.051536,-0.022422,0,-0.00058168,0,0,0,0.05644,-0.00045179,0.016796,-0.22531,0.024262,0.050526,4.1162e-06,0.9,0.26,0
0.045878,0.005467,0.056432,-0.0004525,0.016794,-0.0001796,0,0,0.051529,-0.02242,0,-0.00046695,0,0,0,0.056432,-0.00045307,0.016794,-0.18089,0.024258,0.05052,4.1146e-06,0.92,0.26,0
0.046909,0.0054665,0.056426,-0.00045355,0.016792,-0.00013505,0,0,0.051525,-0.022419,0,-0.00035112,0,0,0,0.056426,-0.00045387,0.016792,-0.13603,0.024255,0.050516,4.1133e-06,0.94,0.26,0
0.047939,0.0054661,0.056422,-0.0004542,0.01679,-9.019e-05,0,0,0.051521,-0.022418,0,-0.0002345,0,0,0,0.056422,-0.00045434,0.01679,-0.090856,0.024253,0.050512,4.1124e-06,0.96,0.26,0
0.04897,0.0054658,0.056419,-0.00045455,0.016789,-4.5142e-05,0,0,0.051519,-0.022417,0,-0.00011737,0,0,0,0.056419,-0.00045459,0.016789,-0.045477,0.024251,0.05051,4.1119e-06,0.98,0.26,0
0.05,0.0054657,0.056419,-0.00045466,0.016789,-1.7857e-06,0,0,0.051518,-0.022417,0,-4.6429e-06,0,0,0,0.056419,-0.00045466,0.016789,-0.001799,0.024251,0.050509,4.1117e-06,1,0.26,0
0,0,0.052772,0.022616,0.022616,0.0060711,0,0,0.039202,-1.0842e-19,0,0.015785,0,0,0,0.053948,0.02144,0.022616,10.966,0.032668,0.031936,1.6652e-06,0,0.28,0
0.00078403,0.0003157,0.052615,0.020746,0.022008,0.006048,0,0,0.039789,-0.0016411,0,0.015725,0,0,0,0.053724,0.019637,0.022008,10.392,0.03179,0.032966,1.8079e-06,0.02,0.28,0
0.0015915,0.00063338,0.053234,0.019175,0.021723,0.0060001,0,0,0.040965,-0.0033121,0,0.0156,0,0,0,0.05426,0.018149,0.021723,9.7047,0.031377,0.034464,2.0263e-06,0.04,0.28,0
0.0024226,0.00095041,0.05384,0.017593,0.02143,0.0058807,0,0,0.042133,-0.0049878,0,0.01529,0,0,0,0.05477,0.016663,0.02143,8.9886,0.030954,0.035961,2.2477e-06,0.06,0.28,0
0.0032769,0.001264,0.05442,0.016025,0.021134,0.0056885,0,0,0.043273,-0.0066408,0,0.01479,0,0,0,0.055245,0.0152,0.021134,8.2526,0.030527,0.037433,2.4673e-06,0.08,0.28,0
0.0041535,0.0015712,0.054964,0.014497,0.020838,0.0054276,0,0,0.044363,-0.008244,0,0.014112,0,0,0,0.055679,0.013781,0.020838,7.508,0.030099,0.038853,2.6804e-06,0.1,0.28,0
0.0050514,0.0018694,0.05546,0.013028,0.020546,0.0051068,0,0,0.045387,-0.0097736,0,0.013278,0,0,0,0.056066,0.012422,0.020546,6.7671,0.029678,0.040202,2.883e-06,0.12,0.28,0
0.005969,0.0021562,0.055901,0.011638,0.020262,0.0047377,0,0,0.046331,-0.011211,0,0.012318,0,0,0,0.056403,0.011137,0.020262,6.0415,0.029267,0.041463,3.0719e-06,0.14,0.28,0
0.0069047,0.0024296,0.056285,0.010339,0.019987,0.0043339,0,0,0.047186,-0.012542,0,0.011268,0,0,0,0.05669,0.0099341,0.019987,5.3418,0.02887,0.042628,3.2447e-06,0.16,0.28,0
0.0078565,0.002688,0.056608,0.0091388,0.019724,0.0039091,0,0,0.04795,-0.013761,0,0.010164,0,0,0,0.056928,0.0088191,0.019724,4.6763,0.02849,0.043689,3.4002e-06,0.18,0.28,0
0.0088226,0.0029304,0.056875,0.0080398,0.019474,0.0034761,0,0,0.048621,-0.014865,0,0.0090378,0,0,0,0.057121,0.0077936,0.019474,4.0511,0.02813,0.044648,3.5382e-06,0.2,0.28,0
0.0098013,0.0031561,0.057088,0.0070415,0.019239,0.0030462,0,0,0.049204,-0.015856,0,0.0079201,0,0,0,0.057272,0.0068567,0.019239,3.4704,0.027789,0.045506,3.6589e-06,0.22,0.28,0
0.010791,0.0033649,0.057252,0.0061405,0.019018,0.0026287,0,0,0.049704,-0.01674,0,0.0068345,0,0,0,0.057387,0.0060057,0.019018,2.9364,0.02747,0.046268,3.7632e-06,0.24,0.28,0
0.011789,0.0035568,0.057373,0.0053317,0.018811,0.0022305,0,0,0.05013,-0.017524,0,0.0057994,0,0,0,0.057468,0.0052363,0.018811,2.4498,0.027172,0.046941,3.8524e-06,0.26,0.28,0
0.012796,0.0037322,0.057457,0.0046086,0.01862,0.001857,0,0,0.050488,-0.018214,0,0.0048283,0,0,0,0.057522,0.0045435,0.01862,2.01,0.026895,0.04753,3.9279e-06,0.28,0.28,0
0.013809,0.0038917,0.05751,0.0039644,0.018442,0.0015114,0,0,0.050788,-0.018821,0,0.0039298,0,0,0,0.057552,0.0039218,0.018442,1.6156,0.026639,0.048045,3.9911e-06,0.3,0.28,0
0.014828,0.004036,0.057537,0.0033922,0.018279,0.0011957,0,0,0.051036,-0.019353,0,0.0031089,0,0,0,0.057563,0.0033658,0.018279,1.2645,0.026403,0.048493,4.0435e-06,0.32,0.28,0
0.01585,0.0041659,0.057543,0.002885,0.018128,0.00091053,0,0,0.051239,-0.019817,0,0.0023674,0,0,0,0.057558,0.0028699,0.018128,0.95412,0.026186,0.048879,4.0864e-06,0.34,0.28,0
0.016877,0.0042823,0.057533,0.0024365,0.017991,0.00065569,0,0,0.051404,-0.02022,0,0.0017048,0,0,0,0.05754,0.0024287,0.017991,0.68174,0.025987,0.049212,4.1211e-06,0.36,0.28,0
0.017907,0.004386,0.057509,0.0020407,0.017865,0.00043032,0,0,0.051537,-0.020571,0,0.0011188,0,0,0,0.057512,0.0020373,0.017865,0.44446,0.025805,0.049497,4.1488e-06,0.38,0.28,0
0.018939,0.0044782,0.057475,0.001692,0.01775,0.00023306,0,0,0.051643,-0.020876,0,0.00060595,0,0,0,0.057476,0.001691,0.01775,0.23937,0.025639,0.04974,4.1705e-06,0.4,0.28,0
0.019972,0.0045596,0.057434,0.0013854,0.017646,6.2248e-05,0,0,0.051725,-0.021139,0,0.00016184,0,0,0,0.057434,0.0013852,0.017646,0.063679,0.025489,0.049945,4.1871e-06,0.42,0.28,0
0.021007,0.0046313,0.057388,0.0011164,0.017551,-8.3965e-05,0,0,0.051788,-0.021365,0,-0.00021831,0,0,0,0.057388,0.0011163,0.017551,-0.085493,0.025352,0.050118,4.1993e-06,0.44,0.28,0
0.022044,0.004694,0.057338,0.00088096,0.017466,-0.00020753,0,0,0.051834,-0.02156,0,-0.00053957,0,0,0,0.057339,0.00088019,0.017466,-0.21061,0.025228,0.050262,4.208e-06,0.46,0.28,0
0.023081,0.0047485,0.057286,0.00067526,0.017388,-0.00031041,0,0,0.051867,-0.021727,0,-0.00080707,0,0,0,0.057288,0.00067356,0.017388,-0.31415,0.025117,0.050381,4.2137e-06,0.48,0.28,0
0.024119,0.0047958,0.057233,0.00049607,0.017319,-0.00039454,0,0,0.051889,-0.02187,0,-0.0010258,0,0,0,0.057236,0.00049333,0.017319,-0.3984,0.025016,0.050479,4.2168e-06,0.5,0.28,0
0.025156,0.0048365,0.05718,0.00034041,0.017256,-0.00046179,0,0,0.051901,-0.02199,0,-0.0012007,0,0,0,0.057184,0.00033666,0.017256,-0.46546,0.024925,0.050557,4.2179e-06,0.52,0.28,0
0.026195,0.0048713,0.057127,0.00020563,0.0172,-0.00051393,0,0,0.051906,-0.022093,0,-0.0013362,0,0,0,0.057132,0.00020099,0.0172,-0.51726,0.024844,0.05062,4.2174e-06,0.54,0.28,0
0.027233,0.0049009,0.057076,8.9335e-05,0.01715,-0.00055262,0,0,0.051904,-0.022178,0,-0.0014368,0,0,0,0.057081,8.3977e-05,0.01715,-0.55555,0.024772,0.050668,4.2155e-06,0.56,0.28,0
0.028271,0.0049258,0.057026,-1.0616e-05,0.017105,-0.0005794,0,0,0.051898,-0.02225,0,-0.0015065,0,0,0,0.057032,-1.6501e-05,0.017105,-0.58196,0.024707,0.050704,4.2125e-06,0.58,0.28,0
0.029309,0.0049466,0.056978,-9.6147e-05,0.017065,-0.00059569,0,0,0.051888,-0.022309,0,-0.0015488,0,0,0,0.056984,-0.00010236,0.017065,-0.59792,0.024649,0.05073,4.2087e-06,0.6,0.28,0
0.030346,0.0049638,0.056932,-0.00016898,0.017029,-0.00060279,0,0,0.051874,-0.022357,0,-0.0015673,0,0,0,0.056939,-0.00017535,0.017029,-0.60475,0.024597,0.050748,4.2043e-06,0.62,0.28,0
0.031384,0.0049778,0.056888,-0.00023068,0.016997,-0.00060187,0,0,0.051858,-0.022396,0,-0.0015649,0,0,0,0.056895,-0.00023703,0.016997,-0.60364,0.024552,0.050759,4.1995e-06,0.64,0.28,0
0.032421,0.0049891,0.056847,-0.00028264,0.016969,-0.00059398,0,0,0.051841,-0.022428,0,-0.0015444,0,0,0,0.056853,-0.00028881,0.016969,-0.59562,0.024511,0.050763,4.1943e-06,0.66,0.28,0
0.033457,0.0049981,0.056808,-0.0003261,0.016945,-0.0005801,0,0,0.051823,-0.022452,0,-0.0015083,0,0,0,0.056814,-0.00033199,0.016945,-0.58166,0.024476,0.050763,4.1891e-06,0.68,0.28,0
0.034494,0.005005,0.056772,-0.0003622,0.016923,-0.00056105,0,0,0.051804,-0.022471,0,-0.0014587,0,0,0,0.056777,-0.00036771,0.016923,-0.56256,0.024444,0.050759,4.1837e-06,0.7,0.28,0
0.035529,0.0050103,0.056738,-0.00039194,0.016904,-0.00053759,0,0,0.051784,-0.022485,0,-0.0013977,0,0,0,0.056743,-0.00039699,0.016904,-0.53909,0.024417,0.050752,4.1784e-06,0.72,0.28,0
0.036565,0.0050141,0.056707,-0.00041622,0.016887,-0.0005104,0,0,0.051765,-0.022494,0,-0.001327,0,0,0,0.056711,-0.00042078,0.016887,-0.51189,0.024393,0.050743,4.1733e-06,0.74,0.28,0
0.0376,0.0050168,0.056678,-0.00043584,0.016873,-0.00048004,0,0,0.051747,-0.022501,0,-0.0012481,0,0,0,0.056682,-0.00043988,0.016873,-0.48152,0.024372,0.050732,4.1683e-06,0.76,0.28,0
0.038635,0.0050185,0.056652,-0.00045153,0.01686,-0.00044702,0,0,0.051729,-0.022505,0,-0.0011623,0,0,0,0.056655,-0.00045503,0.01686,-0.44849,0.024353,0.05072,4.1635e-06,0.78,0.28,0
0.039669,0.0050194,0.056628,-0.00046392,0.016849,-0.00041179,0,0,0.051712,-0.022507,0,-0.0010707,0,0,0,0.056631,-0.00046689,0.016849,-0.41324,0.024338,0.050708,4.1591e-06,0.8,0.28,0
0.040703,0.0050198,0.056606,-0.00047357,0.01684,-0.00037473,0,0,0.051696,-0.022507,0,-0.00097431,0,0,0,0.056609,-0.00047602,0.01684,-0.37613,0.024324,0.050696,4.1549e-06,0.82,0.28,0
0.041737,0.0050198,0.056587,-0.00048096,0.016832,-0.00033617,0,0,0.051682,-0.022507,0,-0.00087405,0,0,0,0.056589,-0.00048294,0.016832,-0.3375,0.024313,0.050684,4.1512e-06,0.84,0.28,0
0.042771,0.0050195,0.056571,-0.00048654,0.016825,-0.00029639,0,0,0.051669,-0.022505,0,-0.0007706,0,0,0,0.056572,-0.00048808,0.016825,-0.29762,0.024303,0.050673,4.1478e-06,0.86,0.28,0
0.043804,0.005019,0.056556,-0.00049066,0.01682,-0.00025562,0,0,0.051657,-0.022503,0,-0.00066461,0,0,0,0.056557,-0.00049181,0.01682,-0.25673,0.024295,0.050662,4.1449e-06,0.88,0.28,0
0.044837,0.0050184,0.056544,-0.00049364,0.016815,-0.00021407,0,0,0.051648,-0.022501,0,-0.00055658,0,0,0,0.056545,-0.00049444,0.016815,-0.21504,0.024289,0.050653,4.1423e-06,0.9,0.28,0
0.04587,0.0050178,0.056534,-0.00049573,0.016812,-0.00017192,0,0,0.051639,-0.022499,0,-0.00044699,0,0,0,0.056535,-0.00049625,0.016812,-0.17272,0.024283,0.050646,4.1402e-06,0.92,0.28,0
0.046902,0.0050173,0.056526,-0.00049715,0.016809,-0.00012931,0,0,0.051633,-0.022498,0,-0.00033621,0,0,0,0.056527,-0.00049744,0.016809,-0.12993,0.024279,0.05064,4.1386e-06,0.94,0.28,0
0.047935,0.0050169,0.056521,-0.00049805,0.016807,-8.6381e-05,0,0,0.051628,-0.022496,0,-0.00022459,0,0,0,0.056521,-0.00049818,0.016807,-0.0868,0.024277,0.050635,4.1374e-06,0.96,0.28,0
0.048967,0.0050166,0.056518,-0.00049854,0.016806,-4.3241e-05,0,0,0.051626,-0.022496,0,-0.00011243,0,0,0,0.056518,-0.00049858,0.016806,-0.043453,0.024275,0.050633,4.1367e-06,0.98,0.28,0
0.05,0.0050165,0.056517,-0.0004987,0.016805,-1.6879e-06,0,0,0.051625,-0.022495,0,-4.3886e-06,0,0,0,0.056517,-0.0004987,0.016805,-0.0016962,0.024274,0.050632,4.1365e-06,1,0.28,0
0,0,0.05264,0.02256,0.02256,0.0054525,0,0,0.039104,5.421e-19,0,0.014176,0,0,0,0.053598,0.021602,0.02256,9.9637,0.032587,0.031528,1.6045e-06,0,0.3,0
0.00078208,0.00028353,0.052489,0.020758,0.021974,0.0054327,0,0,0.039669,-0.0015808,0,0.014125,0,0,0,0.053393,0.019854,0.021974,9.4512,0.03174,0.032531,1.7428e-06,0.02,0.3,0
0.0015868,0.00056853,0.053086,0.019252,0.021701,0.0053904,0,0,0.0408,-0.0031842,0,0.014015,0,0,0,0.053924,0.018414,0.021701,8.837,0.031347,0.033986,1.9527e-06,0.04,0.3,0
0.0024141,0.00085281,0.053673,0.017739,0.021424,0.0052886,0,0,0.041924,-0.0047899,0,0.013751,0,0,0,0.054435,0.016977,0.021424,8.201,0.030945,0.035445,2.1662e-06,0.06,0.3,0
0.0032637,0.001134,0.054238,0.016239,0.021143,0.0051262,0,0,0.043024,-0.0063758,0,0.013328,0,0,0,0.054918,0.015559,0.021143,7.5495,0.03054,0.036885,2.3794e-06,0.08,0.3,0
0.004135,0.0014099,0.054772,0.014771,0.020863,0.0049059,0,0,0.044082,-0.0079197,0,0.012755,0,0,0,0.055365,0.014178,0.020863,6.891,0.030135,0.038285,2.5883e-06,0.1,0.3,0
0.005027,0.001678,0.055266,0.013354,0.020586,0.0046341,0,0,0.045084,-0.0094015,0,0.012049,0,0,0,0.055772,0.012848,0.020586,6.2347,0.029735,0.039626,2.7894e-06,0.12,0.3,0
0.0059384,0.0019364,0.055713,0.012004,0.020315,0.0043196,0,0,0.046018,-0.010805,0,0.011231,0,0,0,0.056136,0.011581,0.020315,5.5902,0.029344,0.040894,2.9793e-06,0.14,0.3,0
0.0068677,0.0021833,0.05611,0.010732,0.020053,0.0039728,0,0,0.046874,-0.012117,0,0.010329,0,0,0,0.056455,0.010387,0.020053,4.9658,0.028965,0.042077,3.1559e-06,0.16,0.3,0
0.0078134,0.0024174,0.056454,0.0095456,0.0198,0.0036047,0,0,0.04765,-0.01333,0,0.0093723,0,0,0,0.056729,0.0092702,0.0198,4.3688,0.0286,0.043168,3.3175e-06,0.18,0.3,0
0.0087737,0.0026376,0.056745,0.0084496,0.019558,0.0032261,0,0,0.048343,-0.014441,0,0.0083879,0,0,0,0.05696,0.008235,0.019558,3.8048,0.028251,0.044165,3.4634e-06,0.2,0.3,0
0.0097471,0.0028433,0.056987,0.0074446,0.019329,0.0028466,0,0,0.048954,-0.01545,0,0.0074012,0,0,0,0.057149,0.0072816,0.019329,3.2778,0.02792,0.045068,3.5933e-06,0.22,0.3,0
0.010732,0.0030341,0.057181,0.0065293,0.019113,0.0024744,0,0,0.049488,-0.016359,0,0.0064335,0,0,0,0.057302,0.0064087,0.019113,2.7901,0.027608,0.04588,3.7076e-06,0.24,0.3,0
0.011727,0.00321,0.057334,0.0057001,0.01891,0.0021162,0,0,0.049951,-0.017173,0,0.0055022,0,0,0,0.05742,0.0056136,0.01891,2.343,0.027315,0.046603,3.8071e-06,0.26,0.3,0
0.01273,0.0033712,0.057448,0.0049527,0.01872,0.0017771,0,0,0.050347,-0.017898,0,0.0046204,0,0,0,0.057508,0.0048926,0.01872,1.9366,0.02704,0.047245,3.8928e-06,0.28,0.3,0
0.01374,0.0035182,0.05753,0.0042815,0.018544,0.0014606,0,0,0.050683,-0.018541,0,0.0037976,0,0,0,0.05757,0.0042414,0.018544,1.5701,0.026785,0.04781,3.9659e-06,0.3,0.3,0
0.014757,0.0036515,0.057584,0.0036808,0.01838,0.0011691,0,0,0.050966,-0.019108,0,0.0030397,0,0,0,0.05761,0.0036555,0.01838,1.2419,0.026548,0.048306,4.0275e-06,0.32,0.3,0
0.015779,0.0037717,0.057615,0.0031449,0.018228,0.00090378,0,0,0.051203,-0.019608,0,0.0023498,0,0,0,0.05763,0.0031299,0.018228,0.95032,0.026329,0.048738,4.0789e-06,0.34,0.3,0
0.016805,0.0038796,0.057626,0.0026681,0.018088,0.00066493,0,0,0.051399,-0.020046,0,0.0017288,0,0,0,0.057634,0.0026601,0.018088,0.69308,0.026127,0.049112,4.1213e-06,0.36,0.3,0
0.017835,0.0039761,0.05762,0.0022449,0.01796,0.00045221,0,0,0.051559,-0.020429,0,0.0011757,0,0,0,0.057624,0.0022412,0.01796,0.46785,0.025942,0.049435,4.1558e-06,0.38,0.3,0
0.018868,0.0040618,0.057602,0.0018702,0.017842,0.00026478,0,0,0.051689,-0.020763,0,0.00068844,0,0,0,0.057604,0.0018689,0.017842,0.2722,0.025771,0.049712,4.1834e-06,0.4,0.3,0
0.019903,0.0041377,0.057574,0.0015392,0.017734,0.00010142,0,0,0.051792,-0.021053,0,0.00026368,0,0,0,0.057574,0.0015389,0.017734,0.10375,0.025616,0.049947,4.205e-06,0.42,0.3,0
0.020939,0.0042045,0.057538,0.0012476,0.017635,-3.9342e-05,0,0,0.051873,-0.021304,0,-0.00010229,0,0,0,0.057538,0.0012475,0.017635,-0.040045,0.025474,0.050146,4.2215e-06,0.44,0.3,0
0.021978,0.0042631,0.057495,0.00099123,0.017546,-0.0001591,0,0,0.051934,-0.021521,0,-0.00041365,0,0,0,0.057496,0.00099078,0.017546,-0.16132,0.025344,0.050313,4.2336e-06,0.46,0.3,0
0.023017,0.0043142,0.057449,0.00076653,0.017465,-0.00025952,0,0,0.051979,-0.021707,0,-0.00067476,0,0,0,0.05745,0.00076534,0.017465,-0.26232,0.025227,0.050452,4.2421e-06,0.48,0.3,0
0.024057,0.0043584,0.057399,0.00057013,0.017391,-0.0003423,0,0,0.052011,-0.021867,0,-0.00088998,0,0,0,0.057401,0.00056807,0.017391,-0.3451,0.02512,0.050566,4.2474e-06,0.5,0.3,0
0.025097,0.0043965,0.057348,0.00039899,0.017324,-0.00040909,0,0,0.052031,-0.022002,0,-0.0010636,0,0,0,0.05735,0.00039605,0.017324,-0.41156,0.025024,0.050658,4.2502e-06,0.52,0.3,0
0.026138,0.0044292,0.057295,0.00025036,0.017264,-0.00046148,0,0,0.052041,-0.022117,0,-0.0011999,0,0,0,0.057299,0.00024663,0.017264,-0.46347,0.024936,0.050731,4.2508e-06,0.54,0.3,0
0.027179,0.0044569,0.057243,0.00012175,0.017209,-0.000501,0,0,0.052043,-0.022214,0,-0.0013026,0,0,0,0.057247,0.00011736,0.017209,-0.50248,0.024858,0.050789,4.2496e-06,0.56,0.3,0
0.02822,0.0044803,0.057191,1.091e-05,0.01716,-0.00052906,0,0,0.052039,-0.022294,0,-0.0013756,0,0,0,0.057196,6.015e-06,0.01716,-0.53008,0.024787,0.050832,4.247e-06,0.58,0.3,0
0.02926,0.0044998,0.05714,-8.4206e-05,0.017117,-0.00054699,0,0,0.05203,-0.022361,0,-0.0014222,0,0,0,0.057145,-8.9434e-05,0.017117,-0.54761,0.024724,0.050863,4.2433e-06,0.6,0.3,0
0.030301,0.004516,0.05709,-0.00016544,0.017077,-0.000556,0,0,0.052016,-0.022416,0,-0.0014456,0,0,0,0.057095,-0.00017084,0.017077,-0.55632,0.024667,0.050884,4.2388e-06,0.62,0.3,0
0.031341,0.0045292,0.057042,-0.00023445,0.017042,-0.0005572,0,0,0.052,-0.02246,0,-0.0014487,0,0,0,0.057048,-0.00023987,0.017042,-0.55732,0.024617,0.050897,4.2336e-06,0.64,0.3,0
0.032381,0.0045398,0.056996,-0.00029274,0.017011,-0.00055161,0,0,0.051981,-0.022495,0,-0.0014342,0,0,0,0.057002,-0.00029805,0.017011,-0.5516,0.024572,0.050902,4.2279e-06,0.66,0.3,0
0.03342,0.0045483,0.056953,-0.00034167,0.016983,-0.00054011,0,0,0.05196,-0.022523,0,-0.0014043,0,0,0,0.056958,-0.00034676,0.016983,-0.54006,0.024532,0.050902,4.222e-06,0.68,0.3,0
0.034459,0.0045549,0.056911,-0.00038245,0.016959,-0.00052354,0,0,0.051939,-0.022544,0,-0.0013612,0,0,0,0.056916,-0.00038723,0.016959,-0.5235,0.024496,0.050898,4.2159e-06,0.7,0.3,0
0.035498,0.0045598,0.056873,-0.00041618,0.016937,-0.00050262,0,0,0.051916,-0.022559,0,-0.0013068,0,0,0,0.056877,-0.00042059,0.016937,-0.50263,0.024465,0.05089,4.2098e-06,0.72,0.3,0
0.036536,0.0045634,0.056836,-0.00044385,0.016918,-0.00047798,0,0,0.051894,-0.02257,0,-0.0012427,0,0,0,0.056841,-0.00044784,0.016918,-0.47806,0.024437,0.050879,4.2038e-06,0.74,0.3,0
0.037574,0.004566,0.056803,-0.00046634,0.016901,-0.00045019,0,0,0.051873,-0.022578,0,-0.0011705,0,0,0,0.056806,-0.00046988,0.016901,-0.45037,0.024413,0.050866,4.198e-06,0.76,0.3,0
0.038611,0.0045676,0.056772,-0.00048442,0.016886,-0.00041975,0,0,0.051851,-0.022582,0,-0.0010914,0,0,0,0.056775,-0.0004875,0.016886,-0.42001,0.024391,0.050853,4.1924e-06,0.78,0.3,0
0.039648,0.0045685,0.056744,-0.0004988,0.016873,-0.00038709,0,0,0.051831,-0.022584,0,-0.0010064,0,0,0,0.056746,-0.00050142,0.016873,-0.38743,0.024373,0.050838,4.1872e-06,0.8,0.3,0
0.040684,0.0045689,0.056718,-0.00051009,0.016862,-0.00035258,0,0,0.051812,-0.022584,0,-0.00091672,0,0,0,0.05672,-0.00051227,0.016862,-0.35298,0.024357,0.050824,4.1823e-06,0.82,0.3,0
0.04172,0.0045689,0.056695,-0.00051884,0.016853,-0.00031656,0,0,0.051795,-0.022583,0,-0.00082305,0,0,0,0.056697,-0.00052059,0.016853,-0.31699,0.024343,0.05081,4.1778e-06,0.84,0.3,0
0.042756,0.0045686,0.056675,-0.0005255,0.016845,-0.00027928,0,0,0.051779,-0.022582,0,-0.00072614,0,0,0,0.056677,-0.00052687,0.016845,-0.27974,0.024332,0.050797,4.1738e-06,0.86,0.3,0
0.043791,0.0045681,0.056658,-0.0005305,0.016838,-0.00024101,0,0,0.051766,-0.022579,0,-0.00062662,0,0,0,0.056659,-0.00053151,0.016838,-0.24145,0.024322,0.050785,4.1702e-06,0.88,0.3,0
0.044826,0.0045676,0.056643,-0.00053416,0.016833,-0.00020193,0,0,0.051754,-0.022577,0,-0.00052502,0,0,0,0.056644,-0.00053487,0.016833,-0.20235,0.024314,0.050774,4.1672e-06,0.9,0.3,0
0.045861,0.004567,0.056631,-0.00053678,0.016828,-0.00016223,0,0,0.051744,-0.022575,0,-0.0004218,0,0,0,0.056632,-0.00053724,0.016828,-0.16259,0.024308,0.050765,4.1647e-06,0.92,0.3,0
0.046896,0.0045666,0.056622,-0.00053858,0.016825,-0.00012206,0,0,0.051736,-0.022573,0,-0.00031736,0,0,0,0.056622,-0.00053885,0.016825,-0.12235,0.024303,0.050758,4.1627e-06,0.94,0.3,0
0.047931,0.0045662,0.056615,-0.00053975,0.016823,-8.1554e-05,0,0,0.05173,-0.022571,0,-0.00021204,0,0,0,0.056615,-0.00053987,0.016823,-0.081755,0.024299,0.050753,4.1613e-06,0.96,0.3,0
0.048966,0.004566,0.056611,-0.0005404,0.016821,-4.083e-05,0,0,0.051727,-0.02257,0,-0.00010616,0,0,0,0.056611,-0.00054043,0.016821,-0.040933,0.024297,0.050749,4.1604e-06,0.98,0.3,0
0.05,0.0045659,0.05661,-0.00054061,0.016821,-1.5693e-06,0,0,0.051726,-0.02257,0,-4.0803e-06,0,0,0,0.05661,-0.00054061,0.016821,-0.0015733,0.024297,0.050748,4.1602e-06,1,0.3,0
0,0,0.052534,0.022515,0.022515,0.0048551,0,0,0.039025,-2.1684e-19,0,0.012623,0,0,0,0.0533,0.021749,0.022515,8.9623,0.032521,0.031175,1.553e-06,0,0.32,0
0.00078051,0.00025247,0.052387,0.02077,0.021947,0.0048381,0,0,0.039572,-0.0015299,0,0.012579,0,0,0,0.053111,0.020047,0.021947,8.5083,0.031702,0.032156,1.6876e-06,0.02,0.32,0
0.0015829,0.00050601,0.052967,0.019319,0.021686,0.004801,0,0,0.040665,-0.003077,0,0.012483,0,0,0,0.053638,0.018647,0.021686,7.9635,0.031324,0.033575,1.8903e-06,0.04,0.32,0
0.0024071,0.00075882,0.053536,0.017862,0.02142,0.0047142,0,0,0.041752,-0.0046243,0,0.012257,0,0,0,0.054149,0.01725,0.02142,7.4022,0.03094,0.035001,2.0972e-06,0.06,0.32,0
0.003253,0.0010089,0.054088,0.016418,0.021152,0.0045768,0,0,0.042817,-0.0061538,0,0.0119,0,0,0,0.054636,0.01587,0.021152,6.8289,0.030553,0.036413,2.3049e-06,0.08,0.32,0
0.0041198,0.0012544,0.054613,0.015002,0.020884,0.0043907,0,0,0.043846,-0.0076468,0,0.011416,0,0,0,0.055093,0.014521,0.020884,6.2501,0.030166,0.037794,2.5098e-06,0.1,0.32,0
0.0050068,0.0014934,0.055103,0.01363,0.02062,0.0041607,0,0,0.044828,-0.0090865,0,0.010818,0,0,0,0.055516,0.013217,0.02062,5.6728,0.029784,0.039127,2.7089e-06,0.12,0.32,0
0.0059129,0.001724,0.055553,0.012316,0.020361,0.0038933,0,0,0.04575,-0.010458,0,0.010123,0,0,0,0.055901,0.011968,0.020361,5.1045,0.02941,0.040396,2.899e-06,0.14,0.32,0
0.0068368,0.0019449,0.055958,0.011069,0.020108,0.0035968,0,0,0.046605,-0.011751,0,0.0093517,0,0,0,0.056244,0.010783,0.020108,4.5522,0.029045,0.04159,3.0779e-06,0.16,0.32,0
0.0077771,0.0021548,0.056316,0.0098985,0.019864,0.0032799,0,0,0.047387,-0.012956,0,0.0085278,0,0,0,0.056547,0.0096679,0.019864,4.022,0.028693,0.042703,3.2438e-06,0.18,0.32,0
0.0087323,0.0023528,0.056626,0.0088083,0.01963,0.0029514,0,0,0.048095,-0.014069,0,0.0076736,0,0,0,0.056808,0.0086269,0.01963,3.5186,0.028355,0.04373,3.3956e-06,0.2,0.32,0
0.0097009,0.0025381,0.05689,0.0078008,0.019407,0.0026194,0,0,0.048728,-0.015088,0,0.0068105,0,0,0,0.05703,0.0076614,0.019407,3.0458,0.028033,0.044669,3.5328e-06,0.22,0.32,0
0.010681,0.0027105,0.05711,0.0068758,0.019196,0.0022912,0,0,0.049288,-0.016016,0,0.0059571,0,0,0,0.057214,0.0067715,0.019196,2.6061,0.027727,0.04552,3.6552e-06,0.24,0.32,0
0.011672,0.0028699,0.057288,0.0060315,0.018996,0.0019728,0,0,0.04978,-0.016854,0,0.0051292,0,0,0,0.057364,0.0059557,0.018996,2.2009,0.027439,0.046287,3.7633e-06,0.26,0.32,0
0.012673,0.0030163,0.057429,0.0052647,0.018808,0.0016689,0,0,0.050207,-0.017606,0,0.0043391,0,0,0,0.057482,0.0052113,0.018808,1.8306,0.027167,0.046972,3.8577e-06,0.28,0.32,0
0.013681,0.0031501,0.057536,0.0045712,0.018632,0.0013832,0,0,0.050575,-0.018279,0,0.0035963,0,0,0,0.057572,0.0045351,0.018632,1.4949,0.026913,0.047581,3.9393e-06,0.3,0.32,0
0.014696,0.0032717,0.057614,0.0039466,0.018468,0.0011181,0,0,0.05089,-0.018878,0,0.0029071,0,0,0,0.057637,0.0039234,0.018468,1.193,0.026676,0.04812,4.0092e-06,0.32,0.32,0
0.015716,0.0033816,0.057666,0.003386,0.018316,0.00087514,0,0,0.051156,-0.019409,0,0.0022754,0,0,0,0.057681,0.0033719,0.018316,0.92343,0.026456,0.048592,4.0683e-06,0.34,0.32,0
0.016742,0.0034804,0.057697,0.0028843,0.018174,0.00065499,0,0,0.051379,-0.019877,0,0.001703,0,0,0,0.057705,0.0028765,0.018174,0.68453,0.026252,0.049004,4.1177e-06,0.36,0.32,0
0.017771,0.0035689,0.057709,0.0024368,0.018044,0.0004577,0,0,0.051565,-0.020289,0,0.00119,0,0,0,0.057713,0.002433,0.018044,0.47441,0.026063,0.049362,4.1585e-06,0.38,0.32,0
0.018804,0.0036477,0.057706,0.0020387,0.017923,0.0002828,0,0,0.051717,-0.02065,0,0.00073529,0,0,0,0.057707,0.0020372,0.017923,0.29107,0.025889,0.04967,4.1917e-06,0.4,0.32,0
0.01984,0.0037175,0.05769,0.0016855,0.017812,0.00012946,0,0,0.05184,-0.020965,0,0.0003366,0,0,0,0.05769,0.0016851,0.017812,0.13251,0.025729,0.049934,4.2182e-06,0.42,0.32,0
0.020878,0.0037791,0.057663,0.0013731,0.017711,-3.438e-06,0,0,0.051938,-0.021239,0,-8.9387e-06,0,0,0,0.057663,0.0013731,0.017711,-0.0034994,0.025583,0.050158,4.2389e-06,0.44,0.32,0
0.021918,0.0038331,0.057629,0.0010975,0.017618,-0.00011718,0,0,0.052014,-0.021477,0,-0.00030467,0,0,0,0.057629,0.0010972,0.017618,-0.11877,0.025448,0.050347,4.2545e-06,0.46,0.32,0
0.022959,0.0038803,0.057588,0.00085509,0.017533,-0.00021317,0,0,0.052072,-0.021681,0,-0.00055423,0,0,0,0.057589,0.00085429,0.017533,-0.21528,0.025326,0.050505,4.2658e-06,0.48,0.32,0
0.024001,0.0039211,0.057543,0.00064256,0.017456,-0.00029283,0,0,0.052113,-0.021857,0,-0.00076136,0,0,0,0.057544,0.00064105,0.017456,-0.29486,0.025214,0.050635,4.2735e-06,0.5,0.32,0
0.025043,0.0039564,0.057494,0.00045683,0.017385,-0.00035762,0,0,0.052141,-0.022007,0,-0.00092981,0,0,0,0.057496,0.00045459,0.017385,-0.35922,0.025112,0.050741,4.278e-06,0.52,0.32,0
0.026086,0.0039866,0.057443,0.00029509,0.017321,-0.00040895,0,0,0.052158,-0.022134,0,-0.0010633,0,0,0,0.057446,0.00029216,0.017321,-0.40998,0.02502,0.050826,4.2799e-06,0.54,0.32,0
0.02713,0.0040123,0.05739,0.00015476,0.017264,-0.00044818,0,0,0.052165,-0.022241,0,-0.0011653,0,0,0,0.057394,0.00015125,0.017264,-0.44861,0.024936,0.050892,4.2797e-06,0.56,0.32,0
0.028173,0.004034,0.057337,3.3507e-05,0.017211,-0.00047659,0,0,0.052164,-0.022331,0,-0.0012391,0,0,0,0.057341,2.9543e-05,0.017211,-0.47648,0.024861,0.050942,4.2777e-06,0.58,0.32,0
0.029216,0.0040521,0.057284,-7.0805e-05,0.017164,-0.00049541,0,0,0.052156,-0.022405,0,-0.0012881,0,0,0,0.057288,-7.5084e-05,0.017164,-0.49484,0.024792,0.050979,4.2743e-06,0.6,0.32,0
0.030259,0.0040671,0.057232,-0.00016012,0.017122,-0.00050573,0,0,0.052144,-0.022466,0,-0.0013149,0,0,0,0.057237,-0.00016457,0.017122,-0.50483,0.024731,0.051005,4.2697e-06,0.62,0.32,0
0.031302,0.0040794,0.057181,-0.00023619,0.017084,-0.00050861,0,0,0.052127,-0.022516,0,-0.0013224,0,0,0,0.057186,-0.0002407,0.017084,-0.50748,0.024676,0.05102,4.2644e-06,0.64,0.32,0
0.032344,0.0040893,0.057132,-0.00030063,0.017049,-0.00050497,0,0,0.052107,-0.022555,0,-0.0013129,0,0,0,0.057136,-0.00030507,0.017049,-0.50372,0.024627,0.051028,4.2584e-06,0.66,0.32,0
0.033386,0.0040972,0.057084,-0.00035488,0.017019,-0.00049567,0,0,0.052085,-0.022586,0,-0.0012887,0,0,0,0.057089,-0.00035915,0.017019,-0.49438,0.024583,0.051028,4.252e-06,0.68,0.32,0
0.034427,0.0041033,0.057039,-0.00040023,0.016992,-0.00048147,0,0,0.052061,-0.022609,0,-0.0012518,0,0,0,0.057043,-0.00040427,0.016992,-0.48022,0.024543,0.051024,4.2454e-06,0.7,0.32,0
0.035469,0.0041079,0.056996,-0.00043788,0.016967,-0.00046305,0,0,0.052037,-0.022627,0,-0.0012039,0,0,0,0.057,-0.00044162,0.016967,-0.4619,0.024508,0.051016,4.2387e-06,0.72,0.32,0
0.036509,0.0041113,0.056956,-0.00046889,0.016946,-0.00044104,0,0,0.052013,-0.022639,0,-0.0011467,0,0,0,0.056959,-0.00047227,0.016946,-0.44001,0.024478,0.051004,4.232e-06,0.74,0.32,0
0.037549,0.0041137,0.056918,-0.00049419,0.016927,-0.00041596,0,0,0.051988,-0.022648,0,-0.0010815,0,0,0,0.056921,-0.00049721,0.016927,-0.41508,0.02445,0.05099,4.2255e-06,0.76,0.32,0
0.038588,0.0041152,0.056883,-0.00051465,0.01691,-0.00038828,0,0,0.051964,-0.022653,0,-0.0010095,0,0,0,0.056886,-0.00051727,0.01691,-0.38757,0.024426,0.050975,4.2193e-06,0.78,0.32,0
0.039628,0.0041161,0.056851,-0.00053101,0.016896,-0.00035843,0,0,0.051942,-0.022655,0,-0.00093192,0,0,0,0.056853,-0.00053325,0.016896,-0.35787,0.024405,0.050959,4.2133e-06,0.8,0.32,0
0.040666,0.0041165,0.056822,-0.00054394,0.016883,-0.00032677,0,0,0.05192,-0.022656,0,-0.00084959,0,0,0,0.056824,-0.0005458,0.016883,-0.32635,0.024387,0.050943,4.2077e-06,0.82,0.32,0
0.041704,0.0041165,0.056796,-0.00055404,0.016873,-0.00029359,0,0,0.051901,-0.022655,0,-0.00076335,0,0,0,0.056798,-0.00055554,0.016873,-0.29331,0.024372,0.050927,4.2027e-06,0.84,0.32,0
0.042742,0.0041162,0.056773,-0.0005618,0.016863,-0.00025919,0,0,0.051882,-0.022653,0,-0.0006739,0,0,0,0.056774,-0.00056297,0.016863,-0.25901,0.024358,0.050912,4.1981e-06,0.86,0.32,0
0.04378,0.0041158,0.056753,-0.00056768,0.016856,-0.00022379,0,0,0.051867,-0.02265,0,-0.00058185,0,0,0,0.056754,-0.00056855,0.016856,-0.22369,0.024347,0.050899,4.194e-06,0.88,0.32,0
0.044817,0.0041153,0.056736,-0.00057204,0.016849,-0.00018759,0,0,0.051853,-0.022648,0,-0.00048773,0,0,0,0.056737,-0.00057265,0.016849,-0.18754,0.024338,0.050887,4.1905e-06,0.9,0.32,0
0.045854,0.0041148,0.056722,-0.00057519,0.016844,-0.00015076,0,0,0.051841,-0.022645,0,-0.00039198,0,0,0,0.056723,-0.00057559,0.016844,-0.15076,0.02433,0.050876,4.1876e-06,0.92,0.32,0
0.046891,0.0041144,0.056711,-0.00057739,0.01684,-0.00011346,0,0,0.051833,-0.022643,0,-0.000295,0,0,0,0.056712,-0.00057761,0.01684,-0.11348,0.024325,0.050868,4.1854e-06,0.94,0.32,0
0.047927,0.004114,0.056704,-0.00057883,0.016837,-7.5823e-05,0,0,0.051826,-0.022641,0,-0.00019714,0,0,0,0.056704,-0.00057893,0.016837,-0.075841,0.024321,0.050862,4.1838e-06,0.96,0.32,0
0.048964,0.0041138,0.056699,-0.00057963,0.016836,-3.7965e-05,0,0,0.051822,-0.02264,0,-9.871e-05,0,0,0,0.056699,-0.00057966,0.016836,-0.037977,0.024318,0.050859,4.1828e-06,0.98,0.32,0
0.05,0.0041138,0.056698,-0.00057989,0.016835,-1.4349e-06,0,0,0.051821,-0.02264,0,-3.7309e-06,0,0,0,0.056698,-0.00057989,0.016835,-0.0014354,0.024318,0.050858,4.1824e-06,1,0.32,0
0,0,0.052449,0.022478,0.022478,0.0042756,0,0,0.038962,-7.5894e-19,0,0.011117,0,0,0,0.053047,0.02188,0.022478,7.9623,0.032468,0.030872,1.5093e-06,0,0.34,0
0.00077924,0.00022233,0.052306,0.020782,0.021926,0.0042612,0,0,0.039493,-0.0014871,0,0.011079,0,0,0,0.052871,0.020217,0.021926,7.5641,0.031671,0.031834,1.6408e-06,0.02,0.34,0
0.0015797,0.00044545,0.052869,0.019376,0.021674,0.0042287,0,0,0.040555,-0.0029871,0,0.010995,0,0,0,0.053395,0.01885,0.021674,7.0857,0.031306,0.033223,1.8377e-06,0.04,0.34,0
0.0024014,0.00066784,0.053425,0.017967,0.021417,0.0041549,0,0,0.04161,-0.0044858,0,0.010803,0,0,0,0.053905,0.017486,0.021417,6.5949,0.030936,0.034621,2.0389e-06,0.06,0.34,0
0.0032441,0.0008879,0.053964,0.016569,0.02116,0.0040391,0,0,0.042645,-0.0059679,0,0.010502,0,0,0,0.054395,0.016138,0.02116,6.0949,0.030565,0.03601,2.2418e-06,0.08,0.34,0
0.0041072,0.001104,0.05448,0.015197,0.020903,0.0038825,0,0,0.04365,-0.0074177,0,0.010094,0,0,0,0.05486,0.014817,0.020903,5.5907,0.030194,0.037373,2.4432e-06,0.1,0.34,0
0.0049901,0.0013145,0.054966,0.013864,0.020649,0.0036886,0,0,0.044612,-0.0088208,0,0.0095903,0,0,0,0.055295,0.013535,0.020649,5.0876,0.029826,0.038696,2.6401e-06,0.12,0.34,0
0.0058917,0.0015181,0.055417,0.012581,0.020399,0.0034625,0,0,0.045523,-0.010164,0,0.0090025,0,0,0,0.055695,0.012303,0.020399,4.5916,0.029465,0.039964,2.8299e-06,0.14,0.34,0
0.006811,0.0017133,0.055827,0.011358,0.020155,0.0032106,0,0,0.046373,-0.011437,0,0.0083477,0,0,0,0.056058,0.011127,0.020155,4.1083,0.029114,0.041166,3.0101e-06,0.16,0.34,0
0.0077467,0.0018992,0.056196,0.010202,0.019919,0.00294,0,0,0.047159,-0.012632,0,0.0076439,0,0,0,0.056383,0.010015,0.019919,3.6427,0.028772,0.042294,3.179e-06,0.18,0.34,0
0.0086974,0.0020749,0.05652,0.0091195,0.019692,0.0026576,0,0,0.047877,-0.013744,0,0.0069097,0,0,0,0.056669,0.0089709,0.019692,3.199,0.028444,0.043343,3.3352e-06,0.2,0.34,0
0.0096617,0.0022397,0.056801,0.0081121,0.019474,0.0023703,0,0,0.048526,-0.014771,0,0.0061628,0,0,0,0.056917,0.007997,0.019474,2.7805,0.028129,0.04431,3.478e-06,0.22,0.34,0
0.010638,0.0023935,0.057041,0.007181,0.019267,0.0020843,0,0,0.049107,-0.015711,0,0.0054193,0,0,0,0.057128,0.0070941,0.019267,2.3896,0.02783,0.045194,3.6069e-06,0.24,0.34,0
0.011626,0.0025359,0.05724,0.0063255,0.01907,0.001805,0,0,0.049622,-0.016567,0,0.004693,0,0,0,0.057304,0.0062616,0.01907,2.0278,0.027545,0.045996,3.7221e-06,0.26,0.34,0
0.012623,0.002667,0.057403,0.0055435,0.018884,0.0015366,0,0,0.050075,-0.017343,0,0.0039952,0,0,0,0.057448,0.005498,0.018884,1.6957,0.027277,0.046719,3.8239e-06,0.28,0.34,0
0.013629,0.002787,0.057532,0.0048321,0.018709,0.0012826,0,0,0.05047,-0.01804,0,0.0033347,0,0,0,0.057563,0.0048009,0.018709,1.3934,0.027024,0.047365,3.9129e-06,0.3,0.34,0
0.014642,0.0028963,0.05763,0.0041875,0.018545,0.0010454,0,0,0.050811,-0.018665,0,0.0027181,0,0,0,0.057651,0.0041671,0.018545,1.1202,0.026788,0.04794,3.9899e-06,0.32,0.34,0
0.015661,0.0029953,0.057702,0.0036058,0.018392,0.0008267,0,0,0.051103,-0.019223,0,0.0021494,0,0,0,0.057715,0.0035932,0.018392,0.87532,0.026567,0.048448,4.0558e-06,0.34,0.34,0
0.016686,0.0030845,0.05775,0.0030827,0.01825,0.00062737,0,0,0.051351,-0.019717,0,0.0016312,0,0,0,0.057758,0.0030755,0.01825,0.65741,0.026361,0.048894,4.1115e-06,0.36,0.34,0
0.017715,0.0031645,0.057778,0.0026139,0.018118,0.00044774,0,0,0.051559,-0.020155,0,0.0011641,0,0,0,0.057782,0.0026103,0.018118,0.465,0.02617,0.049283,4.1581e-06,0.38,0.34,0
0.018749,0.0032358,0.057789,0.0021951,0.017995,0.00028764,0,0,0.051732,-0.02054,0,0.00074786,0,0,0,0.05779,0.0021936,0.017995,0.29644,0.025993,0.04962,4.1965e-06,0.4,0.34,0
0.019785,0.0032991,0.057785,0.001822,0.017882,0.00014653,0,0,0.051873,-0.020878,0,0.00038099,0,0,0,0.057785,0.0018215,0.017882,0.15008,0.02583,0.04991,4.2276e-06,0.42,0.34,0
0.020823,0.003355,0.057768,0.0014908,0.017778,2.3601e-05,0,0,0.051988,-0.021173,0,6.1362e-05,0,0,0,0.057768,0.0014908,0.017778,0.024028,0.025679,0.050158,4.2522e-06,0.44,0.34,0
0.021864,0.0034041,0.057742,0.0011977,0.017682,-8.2168e-05,0,0,0.052078,-0.021429,0,-0.00021364,0,0,0,0.057742,0.0011976,0.017682,-0.08326,0.025541,0.050368,4.2712e-06,0.46,0.34,0
0.022907,0.0034469,0.057707,0.00093915,0.017594,-0.00017191,0,0,0.052147,-0.021651,0,-0.00044698,0,0,0,0.057708,0.00093863,0.017594,-0.17351,0.025413,0.050543,4.2854e-06,0.48,0.34,0
0.02395,0.0034841,0.057667,0.00071178,0.017514,-0.00024685,0,0,0.052199,-0.021842,0,-0.0006418,0,0,0,0.057668,0.00071071,0.017514,-0.24832,0.025297,0.050689,4.2953e-06,0.5,0.34,0
0.024994,0.0035163,0.057621,0.00051256,0.01744,-0.0003082,0,0,0.052235,-0.022006,0,-0.00080133,0,0,0,0.057623,0.00051089,0.01744,-0.3092,0.025191,0.050808,4.3017e-06,0.52,0.34,0
0.02604,0.0035438,0.057571,0.00033862,0.017373,-0.00035721,0,0,0.052258,-0.022145,0,-0.00092875,0,0,0,0.057574,0.0003364,0.017373,-0.35759,0.025094,0.050904,4.305e-06,0.54,0.34,0
0.027085,0.0035673,0.05752,0.00018736,0.017312,-0.00039507,0,0,0.05227,-0.022262,0,-0.0010272,0,0,0,0.057522,0.00018464,0.017312,-0.3948,0.025006,0.05098,4.3058e-06,0.56,0.34,0
0.02813,0.0035871,0.057466,5.6354e-05,0.017257,-0.00042293,0,0,0.052272,-0.022361,0,-0.0010996,0,0,0,0.057469,5.3238e-05,0.017257,-0.42206,0.024927,0.051037,4.3045e-06,0.58,0.34,0
0.029176,0.0036036,0.057412,-5.6608e-05,0.017207,-0.00044188,0,0,0.052267,-0.022442,0,-0.0011489,0,0,0,0.057416,-6.0005e-05,0.017207,-0.44051,0.024854,0.05108,4.3016e-06,0.6,0.34,0
0.030221,0.0036173,0.057358,-0.00015355,0.017161,-0.00045292,0,0,0.052256,-0.02251,0,-0.0011776,0,0,0,0.057362,-0.00015711,0.017161,-0.45118,0.024789,0.05111,4.2973e-06,0.62,0.34,0
0.031266,0.0036286,0.057305,-0.00023631,0.017121,-0.00045699,0,0,0.05224,-0.022564,0,-0.0011882,0,0,0,0.057309,-0.00023994,0.017121,-0.455,0.02473,0.051129,4.2919e-06,0.64,0.34,0
0.032311,0.0036377,0.057253,-0.00030659,0.017084,-0.00045496,0,0,0.05222,-0.022608,0,-0.0011829,0,0,0,0.057257,-0.00031018,0.017084,-0.45283,0.024677,0.051139,4.2857e-06,0.66,0.34,0
0.033355,0.0036449,0.057202,-0.0003659,0.017051,-0.0004476,0,0,0.052197,-0.022642,0,-0.0011638,0,0,0,0.057206,-0.00036938,0.017051,-0.44544,0.024629,0.051141,4.2791e-06,0.68,0.34,0
0.034398,0.0036505,0.057154,-0.00041563,0.017021,-0.00043562,0,0,0.052172,-0.022668,0,-0.0011326,0,0,0,0.057157,-0.00041893,0.017021,-0.43352,0.024587,0.051137,4.272e-06,0.7,0.34,0
0.035442,0.0036547,0.057107,-0.00045703,0.016995,-0.00041966,0,0,0.052146,-0.022688,0,-0.0010911,0,0,0,0.057111,-0.00046009,0.016995,-0.41767,0.024549,0.051129,4.2649e-06,0.72,0.34,0
0.036484,0.0036578,0.057064,-0.00049124,0.016972,-0.00040028,0,0,0.05212,-0.022702,0,-0.0010407,0,0,0,0.057066,-0.00049402,0.016972,-0.39845,0.024515,0.051117,4.2577e-06,0.74,0.34,0
0.037526,0.00366,0.057022,-0.00050828,0.016954,-0.00038752,0,0,0.052089,-0.022701,0,-0.0010075,0,0,0,0.057025,-0.0005109,0.016954,-0.38592,0.02449,0.051094,4.2497e-06,0.76,0.34,0
0.038568,0.0036615,0.056984,-0.00055326,0.016929,-0.00034488,0,0,0.052071,-0.022727,0,-0.00089669,0,0,0,0.056986,-0.00055534,0.016929,-0.34342,0.024453,0.051095,4.2445e-06,0.78,0.34,0
0.039609,0.0036623,0.056949,-0.0005603,0.016917,-0.00032636,0,0,0.052042,-0.02272,0,-0.00084853,0,0,0,0.056951,-0.00056215,0.016917,-0.32513,0.024435,0.051069,4.2372e-06,0.8,0.34,0
0.04065,0.0036627,0.056917,-0.00057483,0.016903,-0.00029776,0,0,0.052019,-0.022721,0,-0.00077419,0,0,0,0.056919,-0.00057637,0.016903,-0.29674,0.024415,0.051051,4.2311e-06,0.82,0.34,0
0.04169,0.0036627,0.056888,-0.00058624,0.016891,-0.00026772,0,0,0.051997,-0.02272,0,-0.00069608,0,0,0,0.05689,-0.00058749,0.016891,-0.26688,0.024398,0.051034,4.2255e-06,0.84,0.34,0
0.04273,0.0036625,0.056863,-0.00059508,0.01688,-0.00023649,0,0,0.051977,-0.022718,0,-0.00061487,0,0,0,0.056864,-0.00059605,0.01688,-0.23582,0.024383,0.051018,4.2204e-06,0.86,0.34,0
0.043769,0.0036621,0.05684,-0.00060182,0.016872,-0.00020429,0,0,0.051959,-0.022715,0,-0.00053115,0,0,0,0.056841,-0.00060255,0.016872,-0.20376,0.02437,0.051003,4.2159e-06,0.88,0.34,0
0.044808,0.0036617,0.056822,-0.00060687,0.016864,-0.00017131,0,0,0.051944,-0.022713,0,-0.00044541,0,0,0,0.056822,-0.00060738,0.016864,-0.17091,0.02436,0.05099,4.2121e-06,0.9,0.34,0
0.045847,0.0036612,0.056806,-0.00061056,0.016859,-0.00013773,0,0,0.051932,-0.02271,0,-0.00035809,0,0,0,0.056806,-0.00061089,0.016859,-0.13743,0.024351,0.050979,4.2089e-06,0.92,0.34,0
0.046885,0.0036609,0.056794,-0.00061315,0.016854,-0.00010368,0,0,0.051922,-0.022708,0,-0.00026956,0,0,0,0.056794,-0.00061334,0.016854,-0.10347,0.024345,0.05097,4.2064e-06,0.94,0.34,0
0.047924,0.0036605,0.056785,-0.00061486,0.016851,-6.9296e-05,0,0,0.051915,-0.022706,0,-0.00018017,0,0,0,0.056786,-0.00061494,0.016851,-0.06917,0.024341,0.050964,4.2046e-06,0.96,0.34,0
0.048962,0.0036604,0.05678,-0.00061582,0.016849,-3.4701e-05,0,0,0.05191,-0.022705,0,-9.0222e-05,0,0,0,0.05678,-0.00061584,0.016849,-0.03464,0.024338,0.05096,4.2035e-06,0.98,0.34,0
0.05,0.0036603,0.056779,-0.00061613,0.016849,-1.2891e-06,0,0,0.051909,-0.022704,0,-3.3516e-06,0,0,0,0.056779,-0.00061613,0.016849,-0.0012868,0.024337,0.050958,4.2031e-06,1,0.34,0
0,0,0.05238,0.022448,0.022448,0.0037112,0,0,0.038911,-1.6263e-19,0,0.0096491,0,0,0,0.052833,0.021995,0.022448,6.9636,0.032426,0.030614,1.4725e-06,0,0.36,0
0.00077822,0.00019298,0.05224,0.020794,0.02191,0.0036989,0,0,0.039429,-0.0014512,0,0.0096172,0,0,0,0.052669,0.020365,0.02191,6.6192,0.031648,0.03156,1.6015e-06,0.02,0.36,0
0.0015772,0.00038653,0.052791,0.019425,0.021665,0.0036709,0,0,0.040464,-0.0029121,0,0.0095445,0,0,0,0.05319,0.019025,0.021665,6.2048,0.031293,0.032924,1.7934e-06,0.04,0.36,0
0.0023968,0.00057938,0.053334,0.018055,0.021417,0.0036088,0,0,0.041493,-0.0043704,0,0.0093828,0,0,0,0.053699,0.017689,0.021417,5.7811,0.030935,0.034299,1.99e-06,0.06,0.36,0
0.0032369,0.00077023,0.053863,0.016696,0.021168,0.0035118,0,0,0.042504,-0.005813,0,0.0091306,0,0,0,0.054192,0.016367,0.021168,5.3506,0.030576,0.035667,2.1888e-06,0.08,0.36,0
0.0040969,0.00095772,0.054371,0.015361,0.02092,0.0033809,0,0,0.043487,-0.0072264,0,0.0087904,0,0,0,0.054662,0.01507,0.02092,4.9169,0.030217,0.037015,2.387e-06,0.1,0.36,0
0.0049763,0.0011405,0.054852,0.01406,0.020674,0.0032188,0,0,0.044432,-0.008598,0,0.008369,0,0,0,0.055105,0.013807,0.020674,4.4841,0.029862,0.038328,2.5819e-06,0.12,0.36,0
0.0058742,0.0013175,0.055302,0.012804,0.020432,0.0030294,0,0,0.045331,-0.0099162,0,0.0078765,0,0,0,0.055517,0.012589,0.020432,4.0569,0.029513,0.039593,2.7709e-06,0.14,0.36,0
0.0067896,0.0014875,0.055716,0.011602,0.020196,0.0028176,0,0,0.046177,-0.011171,0,0.0073258,0,0,0,0.055895,0.011423,0.020196,3.6398,0.029171,0.0408,2.9518e-06,0.16,0.36,0
0.0077213,0.0016495,0.056092,0.010461,0.019966,0.002589,0,0,0.046963,-0.012356,0,0.0067313,0,0,0,0.056238,0.010315,0.019966,3.237,0.02884,0.041939,3.1228e-06,0.18,0.36,0
0.0086681,0.001803,0.056427,0.0093862,0.019744,0.0023492,0,0,0.047688,-0.013465,0,0.0061079,0,0,0,0.056544,0.0092692,0.019744,2.8519,0.028519,0.043005,3.2823e-06,0.2,0.36,0
0.0096288,0.0019473,0.056722,0.0083807,0.019531,0.0021039,0,0,0.048348,-0.014495,0,0.0054703,0,0,0,0.056813,0.0082893,0.019531,2.4874,0.028211,0.043994,3.4294e-06,0.22,0.36,0
0.010602,0.0020821,0.056977,0.0074461,0.019327,0.0018584,0,0,0.048945,-0.015445,0,0.0048318,0,0,0,0.057047,0.0073765,0.019327,2.1457,0.027917,0.044904,3.5635e-06,0.24,0.36,0
0.011587,0.0022072,0.057194,0.0065826,0.019133,0.0016171,0,0,0.049479,-0.016315,0,0.0042046,0,0,0,0.057245,0.0065309,0.019133,1.8282,0.027636,0.045735,3.6845e-06,0.26,0.36,0
0.012581,0.0023226,0.057374,0.0057889,0.018949,0.001384,0,0,0.049953,-0.017108,0,0.0035985,0,0,0,0.057411,0.0057518,0.018949,1.5358,0.027371,0.046488,3.7923e-06,0.28,0.36,0
0.013585,0.0024285,0.057521,0.005063,0.018775,0.0011622,0,0,0.05037,-0.017826,0,0.0030216,0,0,0,0.057547,0.0050372,0.018775,1.2685,0.02712,0.047166,3.8875e-06,0.3,0.36,0
0.014596,0.0025251,0.057638,0.004402,0.018612,0.00095383,0,0,0.050733,-0.018473,0,0.00248,0,0,0,0.057655,0.0043849,0.018612,1.0261,0.026884,0.047772,3.9707e-06,0.32,0.36,0
0.015614,0.0026127,0.057726,0.0038026,0.018459,0.00076072,0,0,0.051048,-0.019053,0,0.0019779,0,0,0,0.057737,0.0037919,0.018459,0.80808,0.026662,0.048311,4.0425e-06,0.34,0.36,0
0.016638,0.0026917,0.05779,0.0032613,0.018315,0.00058383,0,0,0.051317,-0.01957,0,0.0015179,0,0,0,0.057796,0.003255,0.018315,0.61336,0.026455,0.048787,4.1039e-06,0.36,0.36,0
0.017667,0.0027627,0.057832,0.0027741,0.018182,0.00042364,0,0,0.051545,-0.02003,0,0.0011015,0,0,0,0.057835,0.0027708,0.018182,0.44082,0.026263,0.049204,4.1557e-06,0.38,0.36,0
0.0187,0.0028261,0.057855,0.0023372,0.018058,0.00028019,0,0,0.051737,-0.020437,0,0.00072849,0,0,0,0.057856,0.0023358,0.018058,0.28915,0.026083,0.049566,4.1987e-06,0.4,0.36,0
0.019736,0.0028824,0.057862,0.0019467,0.017943,0.00015318,0,0,0.051895,-0.020795,0,0.00039826,0,0,0,0.057862,0.0019462,0.017943,0.15702,0.025917,0.04988,4.234e-06,0.42,0.36,0
0.020775,0.0029322,0.057855,0.0015989,0.017836,4.2017e-05,0,0,0.052024,-0.021108,0,0.00010924,0,0,0,0.057855,0.0015989,0.017836,0.042793,0.025763,0.050149,4.2623e-06,0.44,0.36,0
0.021817,0.0029759,0.057836,0.0012902,0.017738,-5.4064e-05,0,0,0.052128,-0.021382,0,-0.00014056,0,0,0,0.057836,0.0012902,0.017738,-0.05478,0.025621,0.050378,4.2845e-06,0.46,0.36,0
0.022861,0.0030142,0.057808,0.0010171,0.017647,-0.00013598,0,0,0.052208,-0.021619,0,-0.00035354,0,0,0,0.057808,0.0010168,0.017647,-0.13719,0.025491,0.05057,4.3013e-06,0.48,0.36,0
0.023905,0.0030475,0.057772,0.00077635,0.017564,-0.00020472,0,0,0.052269,-0.021825,0,-0.00053227,0,0,0,0.057772,0.00077562,0.017564,-0.2058,0.025371,0.050731,4.3135e-06,0.5,0.36,0
0.024951,0.0030762,0.057729,0.00056489,0.017488,-0.00026133,0,0,0.052313,-0.022,0,-0.00067947,0,0,0,0.05773,0.0005637,0.017488,-0.26193,0.025261,0.050862,4.3216e-06,0.52,0.36,0
0.025998,0.0031008,0.057682,0.00037986,0.017419,-0.00030687,0,0,0.052343,-0.02215,0,-0.00079786,0,0,0,0.057684,0.00037822,0.017419,-0.30682,0.02516,0.050969,4.3264e-06,0.54,0.36,0
0.027045,0.0031218,0.057632,0.0002186,0.017355,-0.00034236,0,0,0.05236,-0.022277,0,-0.00089012,0,0,0,0.057634,0.00021656,0.017355,-0.34164,0.025068,0.051053,4.3283e-06,0.56,0.36,0
0.028092,0.0031396,0.057579,7.8651e-05,0.017297,-0.0003688,0,0,0.052366,-0.022384,0,-0.00095888,0,0,0,0.057581,7.6285e-05,0.017297,-0.36747,0.024985,0.051118,4.3278e-06,0.58,0.36,0
0.02914,0.0031544,0.057524,-4.2271e-05,0.017245,-0.00038715,0,0,0.052364,-0.022473,0,-0.0010066,0,0,0,0.057527,-4.4875e-05,0.017245,-0.38531,0.024909,0.051167,4.3253e-06,0.6,0.36,0
0.030187,0.0031667,0.057469,-0.00014625,0.017197,-0.00039831,0,0,0.052354,-0.022546,0,-0.0010356,0,0,0,0.057472,-0.00014901,0.017197,-0.39608,0.02484,0.051201,4.3213e-06,0.62,0.36,0
0.031234,0.0031769,0.057414,-0.00023521,0.017154,-0.00040311,0,0,0.052339,-0.022606,0,-0.0010481,0,0,0,0.057417,-0.00023803,0.017154,-0.40061,0.024778,0.051224,4.3161e-06,0.64,0.36,0
0.03228,0.003185,0.05736,-0.00031091,0.017115,-0.00040231,0,0,0.052319,-0.022653,0,-0.001046,0,0,0,0.057363,-0.00031371,0.017115,-0.39967,0.024721,0.051236,4.3099e-06,0.66,0.36,0
0.033327,0.0031915,0.057307,-0.00037493,0.01708,-0.00039663,0,0,0.052296,-0.022691,0,-0.0010313,0,0,0,0.05731,-0.00037766,0.01708,-0.39395,0.024671,0.05124,4.303e-06,0.68,0.36,0
0.034372,0.0031965,0.057256,-0.00042874,0.017048,-0.0003867,0,0,0.05227,-0.02272,0,-0.0010054,0,0,0,0.057258,-0.00043134,0.017048,-0.38407,0.024625,0.051237,4.2957e-06,0.7,0.36,0
0.035417,0.0032004,0.057207,-0.00047366,0.01702,-0.00037309,0,0,0.052243,-0.022742,0,-0.00097005,0,0,0,0.057209,-0.00047608,0.01702,-0.37059,0.024584,0.051229,4.2882e-06,0.72,0.36,0
0.036462,0.0032032,0.05716,-0.00051088,0.016995,-0.00035633,0,0,0.052215,-0.022757,0,-0.00092645,0,0,0,0.057162,-0.00051308,0.016995,-0.35399,0.024548,0.051217,4.2806e-06,0.74,0.36,0
0.037506,0.0032052,0.057105,-0.00055607,0.016965,-0.00033139,0,0,0.052182,-0.022777,0,-0.00086162,0,0,0,0.057107,-0.00055798,0.016965,-0.32928,0.024504,0.051204,4.2716e-06,0.76,0.36,0
0.03855,0.0032065,0.057086,-0.00055163,0.01696,-0.00032026,0,0,0.052164,-0.022766,0,-0.00083268,0,0,0,0.057088,-0.00055341,0.01696,-0.31835,0.024498,0.051184,4.2671e-06,0.78,0.36,0
0.039592,0.0032073,0.057037,-0.00058648,0.016935,-0.00029138,0,0,0.052133,-0.022778,0,-0.00075758,0,0,0,0.057039,-0.00058795,0.016935,-0.28971,0.024462,0.051167,4.2587e-06,0.8,0.36,0
0.040635,0.0032076,0.057003,-0.00060252,0.01692,-0.00026604,0,0,0.052107,-0.022779,0,-0.00069171,0,0,0,0.057004,-0.00060375,0.01692,-0.2646,0.02444,0.051149,4.2522e-06,0.82,0.36,0
0.041677,0.0032077,0.056971,-0.00061519,0.016907,-0.00023935,0,0,0.052084,-0.022779,0,-0.0006223,0,0,0,0.056972,-0.00061619,0.016907,-0.23813,0.024421,0.051131,4.2461e-06,0.84,0.36,0
0.042718,0.0032075,0.056944,-0.00062506,0.016896,-0.00021154,0,0,0.052062,-0.022777,0,-0.00055,0,0,0,0.056944,-0.00062584,0.016896,-0.21053,0.024405,0.051114,4.2407e-06,0.86,0.36,0
0.043759,0.0032072,0.056919,-0.00063263,0.016886,-0.00018281,0,0,0.052043,-0.022774,0,-0.00047532,0,0,0,0.05692,-0.00063321,0.016886,-0.182,0.024391,0.051098,4.2358e-06,0.88,0.36,0
0.0448,0.0032068,0.056899,-0.00063834,0.016878,-0.00015336,0,0,0.052027,-0.022771,0,-0.00039874,0,0,0,0.056899,-0.00063875,0.016878,-0.15271,0.02438,0.051084,4.2316e-06,0.9,0.36,0
0.04584,0.0032064,0.056882,-0.00064253,0.016872,-0.00012333,0,0,0.052013,-0.022769,0,-0.00032066,0,0,0,0.056882,-0.0006428,0.016872,-0.12284,0.02437,0.051072,4.2282e-06,0.92,0.36,0
0.04688,0.0032061,0.056869,-0.00064551,0.016867,-9.2861e-05,0,0,0.052002,-0.022766,0,-0.00024144,0,0,0,0.056869,-0.00064566,0.016867,-0.092508,0.024363,0.051063,4.2254e-06,0.94,0.36,0
0.04792,0.0032058,0.056859,-0.00064747,0.016864,-6.2077e-05,0,0,0.051994,-0.022764,0,-0.0001614,0,0,0,0.056859,-0.00064754,0.016864,-0.061849,0.024359,0.051056,4.2235e-06,0.96,0.36,0
0.04896,0.0032056,0.056854,-0.00064859,0.016862,-3.1089e-05,0,0,0.05199,-0.022763,0,-8.0831e-05,0,0,0,0.056854,-0.00064861,0.016862,-0.030977,0.024356,0.051051,4.2223e-06,0.98,0.36,0
0.05,0.0032056,0.056852,-0.00064895,0.016861,-1.1352e-06,0,0,0.051988,-0.022763,0,-2.9516e-06,0,0,0,0.056852,-0.00064895,0.016861,-0.0011312,0.024355,0.05105,4.2219e-06,1,0.36,0
0,0,0.052325,0.022425,0.022425,0.0031593,0,0,0.03887,3.7947e-19,0,0.0082142,0,0,0,0.052655,0.022095,0.022425,5.9662,0.032392,0.030397,1.4419e-06,0,0.38,0
0.0007774,0.00016428,0.052188,0.020804,0.021898,0.0031491,0,0,0.039377,-0.0014215,0,0.0081876,0,0,0,0.052501,0.020491,0.021898,5.6738,0.03163,0.03133,1.5687e-06,0.02,0.38,0
0.0015751,0.00032897,0.052728,0.019466,0.021658,0.0031254,0,0,0.040391,-0.0028501,0,0.008126,0,0,0,0.053019,0.019175,0.021658,5.3215,0.031284,0.032674,1.7566e-06,0.04,0.38,0
0.002393,0.00049302,0.053261,0.018128,0.021417,0.0030737,0,0,0.041397,-0.0042752,0,0.0079916,0,0,0,0.053527,0.017861,0.021417,4.9625,0.030935,0.034028,1.9494e-06,0.06,0.38,0
0.003231,0.00065538,0.05378,0.016801,0.021175,0.0029936,0,0,0.042388,-0.0056851,0,0.0077832,0,0,0,0.054021,0.016561,0.021175,4.5983,0.030586,0.03538,2.1447e-06,0.08,0.38,0
0.0040885,0.00081493,0.054282,0.015496,0.020933,0.0028857,0,0,0.043353,-0.0070682,0,0.0075027,0,0,0,0.054495,0.015283,0.020933,4.2318,0.030237,0.036715,2.3401e-06,0.1,0.38,0
0.0049651,0.00097062,0.054759,0.014223,0.020694,0.002752,0,0,0.044284,-0.0084132,0,0.0071551,0,0,0,0.054945,0.014037,0.020694,3.8661,0.029892,0.038019,2.5331e-06,0.12,0.38,0
0.0058599,0.0011214,0.055207,0.01299,0.020459,0.0025955,0,0,0.045172,-0.0097098,0,0.0067482,0,0,0,0.055366,0.012831,0.020459,3.5049,0.029552,0.03928,2.7213e-06,0.14,0.38,0
0.006772,0.0012665,0.055623,0.011806,0.020229,0.00242,0,0,0.046012,-0.010949,0,0.006292,0,0,0,0.055756,0.011673,0.020229,3.1517,0.029219,0.040489,2.9025e-06,0.16,0.38,0
0.0077004,0.001405,0.056003,0.010679,0.020005,0.0022299,0,0,0.046798,-0.012124,0,0.0057977,0,0,0,0.056113,0.010569,0.020005,2.8098,0.028896,0.041636,3.0749e-06,0.18,0.38,0
0.0086439,0.0015363,0.056347,0.0096115,0.019787,0.0020297,0,0,0.047527,-0.013229,0,0.0052773,0,0,0,0.056435,0.0095235,0.019787,2.4821,0.028582,0.042714,3.2369e-06,0.2,0.38,0
0.0096015,0.0016599,0.056652,0.0086088,0.019578,0.0018241,0,0,0.048196,-0.01426,0,0.0047426,0,0,0,0.056721,0.0085396,0.019578,2.1712,0.02828,0.04372,3.3873e-06,0.22,0.38,0
0.010572,0.0017757,0.05692,0.0076724,0.019378,0.0016172,0,0,0.048805,-0.015217,0,0.0042047,0,0,0,0.056973,0.0076194,0.019378,1.8788,0.02799,0.044651,3.5255e-06,0.24,0.38,0
0.011554,0.0018832,0.05715,0.0068032,0.019186,0.001413,0,0,0.049353,-0.016098,0,0.0036737,0,0,0,0.05719,0.0067636,0.019186,1.6063,0.027713,0.045505,3.651e-06,0.26,0.38,0
0.012546,0.0019827,0.057346,0.0060006,0.019004,0.0012147,0,0,0.049844,-0.016904,0,0.0031581,0,0,0,0.057374,0.0059719,0.019004,1.3544,0.02745,0.046283,3.7639e-06,0.28,0.38,0
0.013547,0.002074,0.057507,0.0052632,0.018831,0.001025,0,0,0.050279,-0.017638,0,0.002665,0,0,0,0.057528,0.0052431,0.018831,1.1235,0.027201,0.046988,3.8643e-06,0.3,0.38,0
0.014557,0.0021574,0.057639,0.0045889,0.018668,0.00084612,0,0,0.050661,-0.018303,0,0.0021999,0,0,0,0.057652,0.0045755,0.018668,0.91353,0.026965,0.047621,3.9526e-06,0.32,0.38,0
0.015574,0.0022332,0.057741,0.003975,0.018515,0.00067954,0,0,0.050994,-0.018902,0,0.0017668,0,0,0,0.05775,0.0039665,0.018515,0.72399,0.026744,0.048186,4.0295e-06,0.34,0.38,0
0.016597,0.0023017,0.057819,0.0034184,0.018371,0.00052629,0,0,0.051282,-0.019439,0,0.0013684,0,0,0,0.057824,0.0034133,0.018371,0.55424,0.026536,0.048686,4.0957e-06,0.36,0.38,0
0.017625,0.0023633,0.057873,0.0029157,0.018237,0.00038693,0,0,0.051527,-0.019917,0,0.001006,0,0,0,0.057876,0.002913,0.018237,0.40336,0.026342,0.049127,4.1519e-06,0.38,0.38,0
0.018658,0.0024183,0.057907,0.0024634,0.018111,0.00026162,0,0,0.051735,-0.020342,0,0.00068022,0,0,0,0.057909,0.0024621,0.018111,0.27035,0.026161,0.049513,4.1991e-06,0.4,0.38,0
0.019695,0.0024673,0.057924,0.0020579,0.017995,0.00015023,0,0,0.051908,-0.020718,0,0.0003906,0,0,0,0.057924,0.0020574,0.017995,0.15413,0.025992,0.049847,4.2382e-06,0.42,0.38,0
0.020734,0.0025106,0.057925,0.0016957,0.017886,5.2362e-05,0,0,0.052051,-0.021048,0,0.00013614,0,0,0,0.057925,0.0016957,0.017886,0.053355,0.025836,0.050135,4.2697e-06,0.44,0.38,0
0.021777,0.0025488,0.057914,0.0013734,0.017786,-3.2565e-05,0,0,0.052166,-0.021337,0,-8.4668e-05,0,0,0,0.057914,0.0013733,0.017786,-0.033,0.025691,0.050381,4.2948e-06,0.46,0.38,0
0.022821,0.0025821,0.057891,0.0010875,0.017694,-0.00010527,0,0,0.052257,-0.021588,0,-0.00027369,0,0,0,0.057891,0.0010873,0.017694,-0.10618,0.025557,0.050588,4.3141e-06,0.48,0.38,0
0.023867,0.0026112,0.05786,0.00083496,0.017608,-0.00016654,0,0,0.052327,-0.021805,0,-0.00043301,0,0,0,0.05786,0.00083448,0.017608,-0.16733,0.025434,0.050762,4.3283e-06,0.5,0.38,0
0.024914,0.0026362,0.057821,0.00061267,0.01753,-0.00021725,0,0,0.052378,-0.021993,0,-0.00056485,0,0,0,0.057821,0.00061185,0.01753,-0.21758,0.025321,0.050905,4.3382e-06,0.52,0.38,0
0.025962,0.0026578,0.057776,0.00041778,0.017458,-0.00025827,0,0,0.052413,-0.022152,0,-0.0006715,0,0,0,0.057777,0.00041662,0.017458,-0.25798,0.025217,0.051021,4.3443e-06,0.54,0.38,0
0.02701,0.0026761,0.057727,0.00024761,0.017392,-0.00029047,0,0,0.052435,-0.022288,0,-0.00075521,0,0,0,0.057728,0.00024614,0.017392,-0.28953,0.025122,0.051113,4.3473e-06,0.56,0.38,0
0.028059,0.0026917,0.057674,9.9644e-05,0.017332,-0.0003147,0,0,0.052445,-0.022402,0,-0.00081822,0,0,0,0.057676,9.7923e-05,0.017332,-0.31316,0.025035,0.051186,4.3476e-06,0.58,0.38,0
0.029108,0.0027047,0.05762,-2.8424e-05,0.017278,-0.00033179,0,0,0.052445,-0.022498,0,-0.00086265,0,0,0,0.057622,-3.0333e-05,0.017278,-0.32974,0.024956,0.05124,4.3457e-06,0.6,0.38,0
0.030157,0.0027155,0.057564,-0.00013874,0.017228,-0.0003425,0,0,0.052438,-0.022576,0,-0.00089051,0,0,0,0.057566,-0.00014078,0.017228,-0.34007,0.024884,0.051279,4.342e-06,0.62,0.38,0
0.031206,0.0027244,0.057508,-0.0002333,0.017182,-0.00034757,0,0,0.052424,-0.022641,0,-0.00090369,0,0,0,0.05751,-0.00023539,0.017182,-0.34487,0.024819,0.051305,4.3369e-06,0.64,0.38,0
0.032254,0.0027315,0.057453,-0.00031389,0.017142,-0.00034766,0,0,0.052404,-0.022692,0,-0.00090392,0,0,0,0.057455,-0.00031598,0.017142,-0.34481,0.02476,0.051319,4.3308e-06,0.66,0.38,0
0.033302,0.0027372,0.057398,-0.00038219,0.017105,-0.00034339,0,0,0.052381,-0.022733,0,-0.00089282,0,0,0,0.0574,-0.00038423,0.017105,-0.3405,0.024707,0.051325,4.3238e-06,0.68,0.38,0
0.034349,0.0027417,0.057345,-0.00043972,0.017071,-0.00033532,0,0,0.052355,-0.022765,0,-0.00087184,0,0,0,0.057347,-0.00044166,0.017071,-0.33247,0.024659,0.051324,4.3163e-06,0.7,0.38,0
0.035396,0.0027451,0.057293,-0.00048783,0.017042,-0.00032396,0,0,0.052327,-0.022788,0,-0.00084229,0,0,0,0.057295,-0.00048965,0.017042,-0.32122,0.024616,0.051317,4.3085e-06,0.72,0.38,0
0.036442,0.0027476,0.057244,-0.00052779,0.017015,-0.00030976,0,0,0.052298,-0.022806,0,-0.00080537,0,0,0,0.057246,-0.00052946,0.017015,-0.30719,0.024577,0.051305,4.3006e-06,0.74,0.38,0
0.037488,0.0027493,0.057198,-0.00056072,0.016991,-0.00029312,0,0,0.052269,-0.022818,0,-0.00076212,0,0,0,0.0572,-0.00056221,0.016991,-0.29076,0.024543,0.05129,4.2928e-06,0.76,0.38,0
0.038533,0.0027505,0.057155,-0.00058762,0.01697,-0.00027442,0,0,0.05224,-0.022825,0,-0.00071348,0,0,0,0.057156,-0.00058892,0.01697,-0.27229,0.024512,0.051272,4.2851e-06,0.78,0.38,0
0.039578,0.0027512,0.057115,-0.00060939,0.016952,-0.00025396,0,0,0.052212,-0.022829,0,-0.00066029,0,0,0,0.057116,-0.00061051,0.016952,-0.25207,0.024486,0.051254,4.2777e-06,0.8,0.38,0
0.040622,0.0027515,0.057078,-0.00062684,0.016935,-0.00023202,0,0,0.052185,-0.022831,0,-0.00060326,0,0,0,0.057079,-0.00062777,0.016935,-0.23037,0.024462,0.051235,4.2708e-06,0.82,0.38,0
0.041665,0.0027515,0.057045,-0.00064067,0.016921,-0.00020886,0,0,0.05216,-0.02283,0,-0.00054303,0,0,0,0.057045,-0.00064142,0.016921,-0.20744,0.024442,0.051216,4.2644e-06,0.84,0.38,0
0.042708,0.0027514,0.057015,-0.00065149,0.016909,-0.00018468,0,0,0.052138,-0.022829,0,-0.00048016,0,0,0,0.057016,-0.00065208,0.016909,-0.18349,0.024424,0.051198,4.2586e-06,0.86,0.38,0
0.043751,0.0027511,0.056989,-0.00065983,0.016899,-0.00015966,0,0,0.052117,-0.022826,0,-0.00041512,0,0,0,0.05699,-0.00066027,0.016899,-0.15868,0.024409,0.051182,4.2534e-06,0.88,0.38,0
0.044793,0.0027508,0.056967,-0.00066615,0.01689,-0.00013398,0,0,0.0521,-0.022823,0,-0.00034835,0,0,0,0.056967,-0.00066646,0.01689,-0.1332,0.024397,0.051167,4.249e-06,0.9,0.38,0
0.045835,0.0027505,0.056949,-0.00067082,0.016883,-0.00010777,0,0,0.052085,-0.022821,0,-0.00028021,0,0,0,0.056949,-0.00067102,0.016883,-0.10717,0.024387,0.051154,4.2452e-06,0.92,0.38,0
0.046876,0.0027502,0.056935,-0.00067415,0.016878,-8.1165e-05,0,0,0.052074,-0.022818,0,-0.00021103,0,0,0,0.056935,-0.00067426,0.016878,-0.080723,0.02438,0.051144,4.2423e-06,0.94,0.38,0
0.047918,0.00275,0.056925,-0.00067636,0.016875,-5.4266e-05,0,0,0.052066,-0.022816,0,-0.00014109,0,0,0,0.056925,-0.00067641,0.016875,-0.053978,0.024374,0.051137,4.2402e-06,0.96,0.38,0
0.048959,0.0027498,0.056919,-0.00067762,0.016872,-2.7179e-05,0,0,0.052061,-0.022815,0,-7.0665e-05,0,0,0,0.056919,-0.00067763,0.016872,-0.027037,0.024371,0.051133,4.239e-06,0.98,0.38,0
0.05,0.0027498,0.056917,-0.00067802,0.016872,-9.7639e-07,0,0,0.052059,-0.022815,0,-2.5386e-06,0,0,0,0.056917,-0.00067802,0.016872,-0.00097132,0.02437,0.051131,4.2386e-06,1,0.38,0
0,0,0.052282,0.022406,0.022406,0.0026177,0,0,0.038838,-2.7105e-19,0,0.0068062,0,0,0,0.052509,0.022179,0.022406,4.9699,0.032365,0.030217,1.4168e-06,0,0.4,0
0.00077676,0.00013612,0.052147,0.020813,0.021888,0.0026095,0,0,0.039336,-0.0013972,0,0.0067846,0,0,0,0.052362,0.020597,0.021888,4.7282,0.031616,0.03114,1.5419e-06,0.02,0.4,0
0.0015734,0.00027252,0.052678,0.0195,0.021653,0.0025898,0,0,0.040332,-0.0027996,0,0.0067336,0,0,0,0.052879,0.019299,0.021653,4.4366,0.031277,0.032467,1.7266e-06,0.04,0.4,0
0.00239,0.00040838,0.053202,0.018188,0.021417,0.0025478,0,0,0.041321,-0.0041977,0,0.0066244,0,0,0,0.053387,0.018004,0.021417,4.1402,0.030936,0.033806,1.9162e-06,0.06,0.4,0
0.0032263,0.00054283,0.053714,0.016887,0.021181,0.002483,0,0,0.042294,-0.0055811,0,0.0064559,0,0,0,0.053881,0.016721,0.021181,3.84,0.030594,0.035143,2.1087e-06,0.08,0.4,0
0.0040818,0.000675,0.05421,0.015607,0.020945,0.0023959,0,0,0.043244,-0.0069395,0,0.0062295,0,0,0,0.054358,0.015459,0.020945,3.5381,0.030254,0.036467,2.3018e-06,0.1,0.4,0
0.004956,0.00080402,0.054683,0.014356,0.020712,0.002288,0,0,0.044163,-0.0082625,0,0.0059489,0,0,0,0.054812,0.014226,0.020712,3.2369,0.029917,0.037763,2.4931e-06,0.12,0.4,0
0.0058483,0.0009291,0.05513,0.013142,0.020482,0.0021615,0,0,0.045042,-0.009541,0,0.00562,0,0,0,0.055241,0.013031,0.020482,2.9393,0.029585,0.039021,2.6805e-06,0.14,0.4,0
0.0067577,0.0010495,0.055546,0.011974,0.020256,0.0020194,0,0,0.045877,-0.010767,0,0.0052505,0,0,0,0.05564,0.011881,0.020256,2.6479,0.029259,0.040231,2.8617e-06,0.16,0.4,0
0.0076834,0.0011646,0.055931,0.010858,0.020036,0.001865,0,0,0.046662,-0.011932,0,0.004849,0,0,0,0.056008,0.010781,0.020036,2.3654,0.028942,0.041383,3.035e-06,0.18,0.4,0
0.0086242,0.0012738,0.05628,0.0097979,0.019823,0.0017019,0,0,0.047393,-0.013033,0,0.004425,0,0,0,0.056342,0.0097357,0.019823,2.0941,0.028634,0.042471,3.1987e-06,0.2,0.4,0
0.0095791,0.0013769,0.056593,0.0087983,0.019617,0.0015338,0,0,0.048068,-0.014065,0,0.0039878,0,0,0,0.056642,0.0087491,0.019617,1.8361,0.028336,0.04349,3.3517e-06,0.22,0.4,0
0.010547,0.0014734,0.05687,0.0078613,0.019419,0.001364,0,0,0.048686,-0.015026,0,0.0035463,0,0,0,0.056908,0.0078234,0.019419,1.5929,0.02805,0.044436,3.493e-06,0.24,0.4,0
0.011527,0.0015633,0.057112,0.0069882,0.01923,0.0011956,0,0,0.049246,-0.015914,0,0.0031087,0,0,0,0.05714,0.0069597,0.01923,1.3657,0.027776,0.045309,3.6222e-06,0.26,0.4,0
0.012517,0.0016465,0.057319,0.0061789,0.019049,0.0010316,0,0,0.04975,-0.016731,0,0.0026821,0,0,0,0.057339,0.0061581,0.019049,1.1551,0.027515,0.046108,3.7391e-06,0.28,0.4,0
0.013517,0.001723,0.057493,0.0054326,0.018878,0.00087405,0,0,0.0502,-0.017478,0,0.0022725,0,0,0,0.057507,0.0054179,0.018878,0.9616,0.027268,0.046833,3.8437e-06,0.3,0.4,0
0.014525,0.0017929,0.057636,0.0047477,0.018715,0.0007249,0,0,0.050597,-0.018158,0,0.0018847,0,0,0,0.057646,0.0047378,0.018715,0.78512,0.027033,0.047488,3.9362e-06,0.32,0.4,0
0.01554,0.0018566,0.057751,0.0041221,0.018562,0.00058549,0,0,0.050945,-0.018772,0,0.0015223,0,0,0,0.057757,0.0041157,0.018562,0.62543,0.026811,0.048075,4.0173e-06,0.34,0.4,0
0.016563,0.0019142,0.057839,0.003553,0.018418,0.00045676,0,0,0.051248,-0.019324,0,0.0011876,0,0,0,0.057843,0.0035491,0.018418,0.48204,0.026603,0.048597,4.0876e-06,0.36,0.4,0
0.01759,0.001966,0.057904,0.0030374,0.018282,0.00033928,0,0,0.051508,-0.019818,0,0.00088214,0,0,0,0.057906,0.0030353,0.018282,0.35429,0.026408,0.049058,4.1477e-06,0.38,0.4,0
0.018623,0.0020124,0.057948,0.0025722,0.018156,0.0002333,0,0,0.051729,-0.020259,0,0.00060657,0,0,0,0.057949,0.0025713,0.018156,0.24138,0.026225,0.049462,4.1984e-06,0.4,0.4,0
0.019659,0.0020537,0.057973,0.0021541,0.018038,0.00013876,0,0,0.051915,-0.020649,0,0.00036079,0,0,0,0.057973,0.0021538,0.018038,0.14249,0.026055,0.049814,4.2406e-06,0.42,0.4,0
0.020699,0.0020903,0.057982,0.0017798,0.017928,5.5432e-05,0,0,0.052069,-0.020993,0,0.00014412,0,0,0,0.057982,0.0017797,0.017928,0.056511,0.025897,0.050118,4.2751e-06,0.44,0.4,0
0.021742,0.0021225,0.057976,0.0014459,0.017827,-1.712e-05,0,0,0.052195,-0.021295,0,-4.4512e-05,0,0,0,0.057976,0.0014459,0.017827,-0.017352,0.02575,0.050379,4.3027e-06,0.46,0.4,0
0.022787,0.0021507,0.057959,0.0011492,0.017733,-7.9438e-05,0,0,0.052295,-0.021558,0,-0.00020654,0,0,0,0.057959,0.001149,0.017733,-0.080117,0.025614,0.050599,4.3241e-06,0.48,0.4,0
0.023834,0.0021752,0.057932,0.00088649,0.017645,-0.00013215,0,0,0.052372,-0.021787,0,-0.0003436,0,0,0,0.057932,0.00088618,0.017645,-0.13273,0.025488,0.050784,4.3402e-06,0.5,0.4,0
0.024882,0.0021965,0.057896,0.00065487,0.017565,-0.00017595,0,0,0.05243,-0.021983,0,-0.00045748,0,0,0,0.057896,0.00065433,0.017565,-0.17612,0.025372,0.050937,4.3516e-06,0.52,0.4,0
0.025931,0.0022147,0.057854,0.00045146,0.017492,-0.00021155,0,0,0.052471,-0.022152,0,-0.00055002,0,0,0,0.057855,0.00045068,0.017492,-0.21115,0.025266,0.051062,4.359e-06,0.54,0.4,0
0.026981,0.0022303,0.057806,0.00027356,0.017424,-0.00023965,0,0,0.052497,-0.022295,0,-0.00062309,0,0,0,0.057807,0.00027257,0.017424,-0.23866,0.025168,0.051162,4.363e-06,0.56,0.4,0
0.028031,0.0022435,0.057755,0.00011865,0.017362,-0.00026097,0,0,0.052511,-0.022416,0,-0.00067852,0,0,0,0.057756,0.00011747,0.017362,-0.25942,0.025078,0.051241,4.364e-06,0.58,0.4,0
0.029081,0.0022545,0.0577,-1.5644e-05,0.017305,-0.00027619,0,0,0.052513,-0.022517,0,-0.00071809,0,0,0,0.057702,-1.6966e-05,0.017305,-0.27417,0.024997,0.0513,4.3627e-06,0.6,0.4,0
0.030132,0.0022637,0.057645,-0.0001315,0.017254,-0.00028595,0,0,0.052508,-0.022601,0,-0.00074348,0,0,0,0.057646,-0.00013291,0.017254,-0.28357,0.024922,0.051343,4.3594e-06,0.62,0.4,0
0.031182,0.0022712,0.057588,-0.00023094,0.017207,-0.00029087,0,0,0.052495,-0.022669,0,-0.00075627,0,0,0,0.057589,-0.0002324,0.017207,-0.28823,0.024855,0.051372,4.3545e-06,0.64,0.4,0
0.032232,0.0022773,0.057531,-0.00031584,0.017164,-0.00029152,0,0,0.052476,-0.022725,0,-0.00075794,0,0,0,0.057532,-0.00031731,0.017164,-0.28873,0.024793,0.051389,4.3484e-06,0.66,0.4,0
0.033281,0.0022822,0.057475,-0.0003879,0.017126,-0.0002884,0,0,0.052453,-0.022768,0,-0.00074984,0,0,0,0.057476,-0.00038933,0.017126,-0.28557,0.024738,0.051397,4.3415e-06,0.68,0.4,0
0.03433,0.002286,0.05742,-0.00044869,0.017091,-0.00028201,0,0,0.052427,-0.022802,0,-0.00073322,0,0,0,0.057421,-0.00045006,0.017091,-0.27921,0.024688,0.051397,4.3339e-06,0.7,0.4,0
0.035378,0.0022889,0.057367,-0.00049963,0.01706,-0.00027277,0,0,0.052399,-0.022828,0,-0.0007092,0,0,0,0.057368,-0.00050091,0.01706,-0.27007,0.024643,0.051391,4.3259e-06,0.72,0.4,0
0.036426,0.002291,0.057316,-0.00054202,0.017032,-0.00026107,0,0,0.052369,-0.022847,0,-0.00067879,0,0,0,0.057317,-0.00054319,0.017032,-0.25853,0.024602,0.051379,4.3178e-06,0.74,0.4,0
0.037473,0.0022925,0.057268,-0.00057702,0.017007,-0.00024726,0,0,0.052339,-0.02286,0,-0.00064289,0,0,0,0.057269,-0.00057807,0.017007,-0.24491,0.024566,0.051364,4.3096e-06,0.76,0.4,0
0.038519,0.0022935,0.057223,-0.00060568,0.016985,-0.00023166,0,0,0.052309,-0.022868,0,-0.00060231,0,0,0,0.057224,-0.0006066,0.016985,-0.22952,0.024534,0.051347,4.3017e-06,0.78,0.4,0
0.039565,0.0022941,0.057181,-0.00062894,0.016966,-0.00021452,0,0,0.05228,-0.022873,0,-0.00055776,0,0,0,0.057182,-0.00062973,0.016966,-0.21261,0.024506,0.051328,4.294e-06,0.8,0.4,0
0.04061,0.0022944,0.057142,-0.00064763,0.016948,-0.0001961,0,0,0.052252,-0.022875,0,-0.00050987,0,0,0,0.057143,-0.00064829,0.016948,-0.19442,0.024481,0.051308,4.2868e-06,0.82,0.4,0
0.041655,0.0022944,0.057107,-0.00066249,0.016934,-0.00017661,0,0,0.052226,-0.022875,0,-0.00045918,0,0,0,0.057108,-0.00066303,0.016934,-0.17516,0.024459,0.051289,4.2801e-06,0.84,0.4,0
0.042699,0.0022943,0.057076,-0.00067416,0.016921,-0.00015622,0,0,0.052202,-0.022873,0,-0.00040618,0,0,0,0.057077,-0.00067458,0.016921,-0.15499,0.024441,0.051271,4.274e-06,0.86,0.4,0
0.043743,0.0022941,0.057049,-0.00068319,0.01691,-0.00013511,0,0,0.052181,-0.022871,0,-0.00035128,0,0,0,0.05705,-0.00068351,0.01691,-0.13409,0.024425,0.051254,4.2686e-06,0.88,0.4,0
0.044787,0.0022939,0.057026,-0.00069006,0.016901,-0.00011341,0,0,0.052163,-0.022868,0,-0.00029486,0,0,0,0.057026,-0.00069029,0.016901,-0.11258,0.024412,0.051238,4.2639e-06,0.9,0.4,0
0.04583,0.0022936,0.057007,-0.00069516,0.016894,-9.1246e-05,0,0,0.052148,-0.022865,0,-0.00023724,0,0,0,0.057007,-0.00069531,0.016894,-0.090603,0.024402,0.051225,4.26e-06,0.92,0.4,0
0.046872,0.0022933,0.056992,-0.0006988,0.016888,-6.8729e-05,0,0,0.052135,-0.022863,0,-0.0001787,0,0,0,0.056992,-0.00069889,0.016888,-0.068258,0.024394,0.051215,4.257e-06,0.94,0.4,0
0.047915,0.0022932,0.056982,-0.00070123,0.016884,-4.5957e-05,0,0,0.052127,-0.022861,0,-0.00011949,0,0,0,0.056982,-0.00070127,0.016884,-0.045649,0.024388,0.051207,4.2548e-06,0.96,0.4,0
0.048958,0.002293,0.056975,-0.00070262,0.016882,-2.3019e-05,0,0,0.052121,-0.02286,0,-5.985e-05,0,0,0,0.056975,-0.00070263,0.016882,-0.022867,0.024385,0.051203,4.2534e-06,0.98,0.4,0
0.05,0.002293,0.056973,-0.00070308,0.016881,-8.1469e-07,0,0,0.05212,-0.022859,0,-2.1182e-06,0,0,0,0.056973,-0.00070308,0.016881,-0.00080931,0.024384,0.051201,4.253e-06,1,0.4,0
0,0,0.052248,0.022392,0.022392,0.0020846,0,0,0.038813,-1.6263e-19,0,0.0054199,0,0,0,0.052393,0.022247,0.022392,3.9747,0.032344,0.030074,1.3969e-06,0,0.42,0
0.00077626,0.0001084,0.052115,0.020821,0.021881,0.002078,0,0,0.039304,-0.0013778,0,0.0054029,0,0,0,0.052252,0.020684,0.021881,3.7825,0.031606,0.030988,1.5205e-06,0.02,0.42,0
0.0015722,0.00021698,0.052639,0.019527,0.02165,0.0020625,0,0,0.040286,-0.0027596,0,0.0053624,0,0,0,0.052767,0.019399,0.02165,3.5505,0.031272,0.032301,1.7026e-06,0.04,0.42,0
0.0023877,0.00032512,0.053157,0.018236,0.021418,0.0020295,0,0,0.04126,-0.0041364,0,0.0052768,0,0,0,0.053274,0.018118,0.021418,3.315,0.030937,0.033628,1.8898e-06,0.06,0.42,0
0.0032226,0.00043213,0.053663,0.016956,0.021186,0.0019789,0,0,0.042221,-0.0054988,0,0.0051451,0,0,0,0.053769,0.016849,0.021186,3.077,0.030601,0.034954,2.08e-06,0.08,0.42,0
0.0040765,0.00053735,0.054153,0.015695,0.020954,0.001911,0,0,0.043159,-0.0068375,0,0.0049685,0,0,0,0.054248,0.0156,0.020954,2.8377,0.030267,0.036268,2.2712e-06,0.1,0.42,0
0.0049489,0.00064012,0.054623,0.014462,0.020725,0.0018268,0,0,0.044067,-0.008143,0,0.0047497,0,0,0,0.054706,0.014379,0.020725,2.599,0.029937,0.037558,2.4612e-06,0.12,0.42,0
0.0058392,0.00073979,0.055068,0.013264,0.0205,0.0017281,0,0,0.044939,-0.0094067,0,0.004493,0,0,0,0.05514,0.013192,0.0205,2.3631,0.029611,0.038813,2.6478e-06,0.14,0.42,0
0.0067465,0.00083581,0.055486,0.012108,0.020278,0.001617,0,0,0.04577,-0.010621,0,0.0042041,0,0,0,0.055546,0.012048,0.020278,2.1319,0.029291,0.040022,2.8289e-06,0.16,0.42,0
0.00767,0.00092766,0.055872,0.011001,0.020062,0.001496,0,0,0.046553,-0.011779,0,0.0038897,0,0,0,0.055922,0.010951,0.020062,1.9075,0.028978,0.041178,3.0028e-06,0.18,0.42,0
0.0086086,0.0010149,0.056225,0.0099475,0.019852,0.0013679,0,0,0.047285,-0.012876,0,0.0035567,0,0,0,0.056266,0.0099071,0.019852,1.6917,0.028675,0.042273,3.1678e-06,0.2,0.42,0
0.0095614,0.0010973,0.056544,0.0089509,0.019649,0.0012355,0,0,0.047965,-0.013907,0,0.0032123,0,0,0,0.056576,0.0089189,0.019649,1.486,0.028381,0.043301,3.3226e-06,0.22,0.42,0
0.010527,0.0011746,0.056829,0.008014,0.019453,0.0011014,0,0,0.048589,-0.014871,0,0.0028636,0,0,0,0.056854,0.0079892,0.019453,1.2918,0.028098,0.04426,3.4663e-06,0.24,0.42,0
0.011505,0.0012467,0.057079,0.0071382,0.019265,0.00096801,0,0,0.049158,-0.015765,0,0.0025168,0,0,0,0.057097,0.0071195,0.019265,1.11,0.027827,0.045148,3.5984e-06,0.26,0.42,0
0.012493,0.0013134,0.057295,0.0063241,0.019086,0.0008376,0,0,0.049672,-0.01659,0,0.0021778,0,0,0,0.057308,0.0063103,0.019086,0.9412,0.027568,0.045962,3.7184e-06,0.28,0.42,0
0.013492,0.0013748,0.057479,0.005571,0.018915,0.00071199,0,0,0.050133,-0.017347,0,0.0018512,0,0,0,0.057488,0.0055613,0.018915,0.78571,0.027321,0.046705,3.8262e-06,0.3,0.42,0
0.014499,0.0014311,0.057631,0.004878,0.018753,0.0005927,0,0,0.050542,-0.018037,0,0.001541,0,0,0,0.057638,0.0048713,0.018753,0.64362,0.027087,0.047377,3.9222e-06,0.32,0.42,0
0.015513,0.0014824,0.057756,0.0042431,0.0186,0.00048085,0,0,0.050903,-0.018663,0,0.0012502,0,0,0,0.05776,0.0042387,0.0186,0.51479,0.026866,0.047981,4.0067e-06,0.34,0.42,0
0.016535,0.0015288,0.057853,0.003664,0.018455,0.00037727,0,0,0.051217,-0.019228,0,0.0009809,0,0,0,0.057856,0.0036614,0.018455,0.39887,0.026658,0.04852,4.0802e-06,0.36,0.42,0
0.017562,0.0015705,0.057927,0.0031382,0.018319,0.00028247,0,0,0.05149,-0.019736,0,0.00073443,0,0,0,0.057928,0.0031367,0.018319,0.29539,0.026461,0.048997,4.1434e-06,0.38,0.42,0
0.018594,0.001608,0.057978,0.0026627,0.018192,0.00019671,0,0,0.051722,-0.020189,0,0.00051144,0,0,0,0.057979,0.002662,0.018192,0.20374,0.026278,0.049417,4.1971e-06,0.4,0.42,0
0.019631,0.0016413,0.058011,0.0022343,0.018073,0.00012,0,0,0.051918,-0.020591,0,0.00031201,0,0,0,0.058011,0.0022341,0.018073,0.12332,0.026106,0.049784,4.242e-06,0.42,0.42,0
0.020671,0.0016709,0.058026,0.0018501,0.017963,5.2205e-05,0,0,0.052082,-0.020946,0,0.00013573,0,0,0,0.058026,0.00185,0.017963,0.053246,0.025946,0.050102,4.2788e-06,0.44,0.42,0
0.021714,0.001697,0.058026,0.0015067,0.01786,-6.9804e-06,0,0,0.052216,-0.021259,0,-1.8149e-05,0,0,0,0.058026,0.0015067,0.01786,-0.0070764,0.025797,0.050374,4.3085e-06,0.46,0.42,0
0.02276,0.0017198,0.058013,0.001201,0.017764,-5.7958e-05,0,0,0.052323,-0.021532,0,-0.00015069,0,0,0,0.058013,0.0012009,0.017764,-0.058452,0.025659,0.050606,4.3318e-06,0.48,0.42,0
0.023807,0.0017397,0.057989,0.00092995,0.017676,-0.00010121,0,0,0.052407,-0.02177,0,-0.00026314,0,0,0,0.057989,0.00092977,0.017676,-0.10163,0.025532,0.0508,4.3495e-06,0.5,0.42,0
0.024856,0.0017569,0.057956,0.00069061,0.017594,-0.00013725,0,0,0.052471,-0.021975,0,-0.00035686,0,0,0,0.057957,0.00069028,0.017594,-0.13733,0.025414,0.050962,4.3622e-06,0.52,0.42,0
0.025906,0.0017717,0.057916,0.00048012,0.017519,-0.00016666,0,0,0.052516,-0.02215,0,-0.00043331,0,0,0,0.057917,0.00047964,0.017519,-0.16625,0.025305,0.051095,4.3707e-06,0.54,0.42,0
0.026957,0.0017843,0.05787,0.00029578,0.01745,-0.00018998,0,0,0.052546,-0.0223,0,-0.00049395,0,0,0,0.057871,0.00029516,0.01745,-0.18906,0.025205,0.051201,4.3755e-06,0.56,0.42,0
0.028008,0.001795,0.05782,0.00013506,0.017386,-0.00020778,0,0,0.052563,-0.022427,0,-0.00054024,0,0,0,0.05782,0.00013431,0.017386,-0.20638,0.025114,0.051284,4.3773e-06,0.58,0.42,0
0.029059,0.001804,0.057766,-4.4476e-06,0.017328,-0.00022061,0,0,0.052568,-0.022533,0,-0.00057359,0,0,0,0.057766,-5.29e-06,0.017328,-0.21879,0.02503,0.051348,4.3764e-06,0.6,0.42,0
0.030111,0.0018115,0.05771,-0.00012495,0.017275,-0.00022898,0,0,0.052565,-0.022621,0,-0.00059535,0,0,0,0.05771,-0.00012585,0.017275,-0.22684,0.024953,0.051395,4.3735e-06,0.62,0.42,0
0.031162,0.0018176,0.057652,-0.0002285,0.017227,-0.00023338,0,0,0.052553,-0.022692,0,-0.0006068,0,0,0,0.057653,-0.00022944,0.017227,-0.23102,0.024884,0.051427,4.3688e-06,0.64,0.42,0
0.032213,0.0018225,0.057595,-0.00031702,0.017183,-0.00023428,0,0,0.052535,-0.02275,0,-0.00060913,0,0,0,0.057596,-0.00031797,0.017183,-0.23178,0.02482,0.051446,4.3629e-06,0.66,0.42,0
0.033263,0.0018265,0.057538,-0.00039225,0.017144,-0.00023209,0,0,0.052512,-0.022797,0,-0.00060344,0,0,0,0.057539,-0.00039318,0.017144,-0.22955,0.024763,0.051456,4.3559e-06,0.68,0.42,0
0.034313,0.0018296,0.057482,-0.0004558,0.017108,-0.00022721,0,0,0.052486,-0.022833,0,-0.00059074,0,0,0,0.057483,-0.00045669,0.017108,-0.22469,0.024711,0.051457,4.3483e-06,0.7,0.42,0
0.035363,0.0018319,0.057427,-0.00050913,0.017076,-0.00021998,0,0,0.052458,-0.02286,0,-0.00057194,0,0,0,0.057428,-0.00050997,0.017076,-0.21754,0.024665,0.051451,4.3402e-06,0.72,0.42,0
0.036412,0.0018337,0.057375,-0.00055358,0.017046,-0.00021072,0,0,0.052428,-0.02288,0,-0.00054787,0,0,0,0.057376,-0.00055434,0.017046,-0.20841,0.024623,0.05144,4.3319e-06,0.74,0.42,0
0.03746,0.0018349,0.057326,-0.00059034,0.017021,-0.00019972,0,0,0.052397,-0.022894,0,-0.00051927,0,0,0,0.057326,-0.00059103,0.017021,-0.19758,0.024585,0.051425,4.3235e-06,0.76,0.42,0
0.038508,0.0018358,0.057279,-0.00062049,0.016998,-0.00018723,0,0,0.052366,-0.022904,0,-0.00048679,0,0,0,0.05728,-0.0006211,0.016998,-0.18527,0.024552,0.051408,4.3154e-06,0.78,0.42,0
0.039554,0.0018363,0.057236,-0.00064502,0.016977,-0.00017347,0,0,0.052336,-0.022909,0,-0.00045103,0,0,0,0.057236,-0.00064554,0.016977,-0.17172,0.024523,0.051389,4.3075e-06,0.8,0.42,0
0.040601,0.0018365,0.057196,-0.00066478,0.016959,-0.00015865,0,0,0.052307,-0.022911,0,-0.00041249,0,0,0,0.057196,-0.00066521,0.016959,-0.1571,0.024497,0.051369,4.3e-06,0.82,0.42,0
0.041647,0.0018365,0.05716,-0.00068052,0.016944,-0.00014293,0,0,0.052281,-0.022912,0,-0.00037163,0,0,0,0.05716,-0.00068087,0.016944,-0.14159,0.024474,0.051349,4.2931e-06,0.84,0.42,0
0.042692,0.0018365,0.057127,-0.00069292,0.01693,-0.00012648,0,0,0.052256,-0.02291,0,-0.00032884,0,0,0,0.057128,-0.00069319,0.01693,-0.12533,0.024455,0.051331,4.2868e-06,0.86,0.42,0
0.043737,0.0018363,0.057099,-0.00070254,0.016919,-0.00010941,0,0,0.052234,-0.022908,0,-0.00028448,0,0,0,0.057099,-0.00070275,0.016919,-0.10846,0.024438,0.051313,4.2812e-06,0.88,0.42,0
0.044782,0.0018361,0.057075,-0.00070989,0.01691,-9.1863e-05,0,0,0.052215,-0.022905,0,-0.00023884,0,0,0,0.057075,-0.00071003,0.01691,-0.091085,0.024425,0.051297,4.2763e-06,0.9,0.42,0
0.045826,0.0018359,0.057055,-0.00071535,0.016902,-7.3924e-05,0,0,0.052199,-0.022902,0,-0.0001922,0,0,0,0.057055,-0.00071544,0.016902,-0.073316,0.024414,0.051284,4.2723e-06,0.92,0.42,0
0.04687,0.0018357,0.05704,-0.00071927,0.016896,-5.569e-05,0,0,0.052187,-0.0229,0,-0.00014479,0,0,0,0.05704,-0.00071932,0.016896,-0.055243,0.024406,0.051273,4.2691e-06,0.94,0.42,0
0.047913,0.0018355,0.057029,-0.00072189,0.016892,-3.7241e-05,0,0,0.052178,-0.022898,0,-9.6828e-05,0,0,0,0.057029,-0.00072191,0.016892,-0.036948,0.0244,0.051266,4.2668e-06,0.96,0.42,0
0.048957,0.0018354,0.057022,-0.00072339,0.01689,-1.8655e-05,0,0,0.052172,-0.022897,0,-4.8503e-05,0,0,0,0.057022,-0.00072339,0.01689,-0.01851,0.024396,0.051261,4.2655e-06,0.98,0.42,0
0.05,0.0018354,0.05702,-0.00072388,0.016889,-6.5169e-07,0,0,0.05217,-0.022896,0,-1.6944e-06,0,0,0,0.05702,-0.00072388,0.016889,-0.00064663,0.024395,0.051259,4.265e-06,1,0.42,0
0,0,0.052223,0.022381,0.022381,0.0015579,0,0,0.038795,-1.0842e-19,0,0.0040504,0,0,0,0.052305,0.0223,0.022381,2.9803,0.032329,0.029964,1.3817e-06,0,0.44,0
0.00077589,8.1009e-05,0.052092,0.020827,0.021876,0.001553,0,0,0.039281,-0.0013632,0,0.0040379,0,0,0,0.052168,0.02075,0.021876,2.8368,0.031598,0.030871,1.5043e-06,0.02,0.44,0
0.0015712,0.00016214,0.05261,0.019548,0.021648,0.0015414,0,0,0.040252,-0.0027292,0,0.0040077,0,0,0,0.052682,0.019476,0.021648,2.6636,0.031269,0.032175,1.6845e-06,0.04,0.44,0
0.0023859,0.00024292,0.053123,0.018272,0.021419,0.0015171,0,0,0.041215,-0.0040899,0,0.0039444,0,0,0,0.053188,0.018207,0.021419,2.4879,0.030938,0.033492,1.8697e-06,0.06,0.44,0
0.0032198,0.00032287,0.053624,0.017008,0.02119,0.0014798,0,0,0.042165,-0.0054365,0,0.0038475,0,0,0,0.053684,0.016948,0.02119,2.3105,0.030607,0.03481,2.0583e-06,0.08,0.44,0
0.0040726,0.0004015,0.054111,0.015762,0.020962,0.0014298,0,0,0.043094,-0.0067601,0,0.0037176,0,0,0,0.054164,0.015708,0.020962,2.1323,0.030278,0.036117,2.248e-06,0.1,0.44,0
0.0049436,0.0004783,0.054578,0.014542,0.020736,0.0013679,0,0,0.043995,-0.0080522,0,0.0035566,0,0,0,0.054625,0.014495,0.020736,1.9546,0.029952,0.037401,2.4369e-06,0.12,0.44,0
0.0058323,0.00055283,0.055022,0.013356,0.020513,0.0012953,0,0,0.044861,-0.0093045,0,0.0033677,0,0,0,0.055062,0.013316,0.020513,1.7789,0.02963,0.038653,2.6228e-06,0.14,0.44,0
0.006738,0.00062467,0.055439,0.01221,0.020295,0.0012134,0,0,0.045688,-0.01051,0,0.0031549,0,0,0,0.055473,0.012176,0.020295,1.6066,0.029315,0.039863,2.8038e-06,0.16,0.44,0
0.0076598,0.00069343,0.055827,0.011111,0.020081,0.0011242,0,0,0.046469,-0.011662,0,0.0029228,0,0,0,0.055855,0.011083,0.020081,1.4392,0.029006,0.04102,2.978e-06,0.18,0.44,0
0.0085968,0.00075883,0.056183,0.010062,0.019874,0.0010295,0,0,0.047203,-0.012755,0,0.0026767,0,0,0,0.056206,0.010039,0.019874,1.2781,0.028706,0.04212,3.1439e-06,0.2,0.44,0
0.0095479,0.00082061,0.056507,0.0090682,0.019672,0.00093137,0,0,0.047884,-0.013785,0,0.0024216,0,0,0,0.056525,0.0090499,0.019672,1.1243,0.028416,0.043156,3.3e-06,0.22,0.44,0
0.010512,0.0008786,0.056796,0.0081316,0.019478,0.00083178,0,0,0.048513,-0.014751,0,0.0021626,0,0,0,0.05681,0.0081174,0.019478,0.97892,0.028135,0.044124,3.4455e-06,0.24,0.44,0
0.011489,0.0009327,0.057052,0.0072541,0.019292,0.00073253,0,0,0.049089,-0.015649,0,0.0019046,0,0,0,0.057063,0.0072434,0.019292,0.84257,0.027866,0.045021,3.5797e-06,0.26,0.44,0
0.012476,0.00098285,0.057275,0.0064365,0.019114,0.00063524,0,0,0.04961,-0.01648,0,0.0016516,0,0,0,0.057283,0.0064285,0.019114,0.71577,0.027609,0.045848,3.702e-06,0.28,0.44,0
0.013473,0.0010291,0.057466,0.0056785,0.018943,0.00054131,0,0,0.05008,-0.017244,0,0.0014074,0,0,0,0.057472,0.0056729,0.018943,0.5988,0.027363,0.046603,3.8124e-06,0.3,0.44,0
0.014479,0.0010715,0.057627,0.0049794,0.018782,0.00045189,0,0,0.050498,-0.017943,0,0.0011749,0,0,0,0.057631,0.0049755,0.018782,0.49174,0.027129,0.047288,3.9109e-06,0.32,0.44,0
0.015493,0.0011101,0.057758,0.0043375,0.018629,0.00036785,0,0,0.050868,-0.018579,0,0.00095641,0,0,0,0.057761,0.004335,0.018629,0.39451,0.026908,0.047906,3.998e-06,0.34,0.44,0
0.016514,0.001145,0.057863,0.003751,0.018484,0.00028985,0,0,0.051192,-0.019153,0,0.0007536,0,0,0,0.057864,0.0037494,0.018484,0.30689,0.026699,0.048458,4.074e-06,0.36,0.44,0
0.017541,0.0011766,0.057943,0.0032173,0.018348,0.0002183,0,0,0.051473,-0.01967,0,0.00056758,0,0,0,0.057944,0.0032164,0.018348,0.22855,0.026503,0.048948,4.1397e-06,0.38,0.44,0
0.018573,0.0012048,0.058001,0.0027338,0.01822,0.00015343,0,0,0.051714,-0.020133,0,0.00039892,0,0,0,0.058001,0.0027334,0.01822,0.15906,0.026318,0.049381,4.1956e-06,0.4,0.44,0
0.019609,0.00123,0.058077,0.0023064,0.018115,6.5783e-05,0,0,0.05195,-0.020551,0,0.00017104,0,0,0,0.058077,0.0023063,0.018115,0.067646,0.026166,0.049785,4.2502e-06,0.42,0.44,0
0.020649,0.0012524,0.058027,0.0018981,0.017977,7.2489e-05,0,0,0.052064,-0.020903,0,0.00018847,0,0,0,0.058027,0.0018979,0.017977,0.074046,0.025967,0.050065,4.2749e-06,0.44,0.44,0
0.021693,0.0012721,0.058063,0.0015548,0.017885,-1.2465e-06,0,0,0.052231,-0.021229,0,-3.2409e-06,0,0,0,0.058063,0.0015548,0.017885,-0.0012639,0.025834,0.050369,4.3127e-06,0.46,0.44,0
0.022739,0.0012894,0.058053,0.0012422,0.017789,-4.0129e-05,0,0,0.052344,-0.02151,0,-0.00010433,0,0,0,0.058053,0.0012421,0.017789,-0.040471,0.025695,0.050609,4.3375e-06,0.48,0.44,0
0.023786,0.0013045,0.058033,0.00096457,0.017699,-7.319e-05,0,0,0.052434,-0.021755,0,-0.00019029,0,0,0,0.058033,0.00096448,0.017699,-0.073481,0.025566,0.050812,4.3564e-06,0.5,0.44,0
0.024836,0.0013175,0.058002,0.00071917,0.017616,-0.00010081,0,0,0.052502,-0.021966,0,-0.00026212,0,0,0,0.058002,0.00071899,0.017616,-0.10084,0.025446,0.05098,4.3702e-06,0.52,0.44,0
0.025886,0.0013287,0.057964,0.0005031,0.01754,-0.00012341,0,0,0.052551,-0.022148,0,-0.00032086,0,0,0,0.057964,0.00050284,0.01754,-0.12305,0.025336,0.051118,4.3796e-06,0.54,0.44,0
0.026938,0.0013383,0.057919,0.00031368,0.01747,-0.00014139,0,0,0.052584,-0.022303,0,-0.00036763,0,0,0,0.057919,0.00031334,0.01747,-0.14063,0.025234,0.05123,4.3851e-06,0.56,0.44,0
0.02799,0.0013464,0.057869,0.00014836,0.017405,-0.00015519,0,0,0.052603,-0.022434,0,-0.00040348,0,0,0,0.05787,0.00014794,0.017405,-0.15404,0.025141,0.051318,4.3874e-06,0.58,0.44,0
0.029042,0.0013532,0.057816,4.7307e-06,0.017346,-0.00016519,0,0,0.052611,-0.022544,0,-0.0004295,0,0,0,0.057816,4.2586e-06,0.017346,-0.16372,0.025056,0.051385,4.387e-06,0.6,0.44,0
0.030094,0.0013589,0.05776,-0.00011945,0.017292,-0.0001718,0,0,0.052608,-0.022635,0,-0.00044668,0,0,0,0.057761,-0.00011996,0.017292,-0.17006,0.024978,0.051435,4.3844e-06,0.62,0.44,0
0.031146,0.0013635,0.057703,-0.00022627,0.017243,-0.00017538,0,0,0.052598,-0.02271,0,-0.00045599,0,0,0,0.057703,-0.0002268,0.017243,-0.17346,0.024906,0.051469,4.3799e-06,0.64,0.44,0
0.032198,0.0013673,0.057645,-0.00031767,0.017198,-0.00017628,0,0,0.052581,-0.02277,0,-0.00045834,0,0,0,0.057645,-0.00031821,0.017198,-0.17425,0.024842,0.051491,4.3741e-06,0.66,0.44,0
0.03325,0.0013703,0.057587,-0.00039543,0.017157,-0.00017483,0,0,0.052558,-0.022819,0,-0.00045454,0,0,0,0.057587,-0.00039595,0.017157,-0.17275,0.024783,0.051501,4.3672e-06,0.68,0.44,0
0.0343,0.0013727,0.05753,-0.00046118,0.017121,-0.0001713,0,0,0.052532,-0.022856,0,-0.00044538,0,0,0,0.05753,-0.00046168,0.017121,-0.16924,0.02473,0.051503,4.3595e-06,0.7,0.44,0
0.035351,0.0013745,0.057475,-0.00051642,0.017087,-0.00016598,0,0,0.052503,-0.022885,0,-0.00043154,0,0,0,0.057475,-0.00051689,0.017087,-0.16398,0.024682,0.051498,4.3513e-06,0.72,0.44,0
0.036401,0.0013758,0.057412,-0.00057053,0.017053,-0.00015048,0,0,0.052468,-0.02291,0,-0.00039123,0,0,0,0.057413,-0.00057092,0.017053,-0.14869,0.024632,0.051486,4.3414e-06,0.74,0.44,0
0.03745,0.0013767,0.05738,-0.00059246,0.017036,-0.0001589,0,0,0.052447,-0.022917,0,-0.00041314,0,0,0,0.057381,-0.0005929,0.017036,-0.15704,0.024608,0.051475,4.3359e-06,0.76,0.44,0
0.038498,0.0013774,0.057323,-0.00063204,0.017007,-0.00014151,0,0,0.05241,-0.022931,0,-0.00036792,0,0,0,0.057323,-0.00063239,0.017007,-0.1399,0.024566,0.051456,4.3261e-06,0.78,0.44,0
0.039546,0.0013778,0.057279,-0.00065759,0.016986,-0.00013117,0,0,0.05238,-0.022937,0,-0.00034103,0,0,0,0.057279,-0.00065788,0.016986,-0.12971,0.024536,0.051437,4.318e-06,0.8,0.44,0
0.040593,0.0013779,0.057238,-0.00067819,0.016968,-0.00012,0,0,0.052351,-0.02294,0,-0.000312,0,0,0,0.057238,-0.00067844,0.016968,-0.11872,0.024509,0.051417,4.3104e-06,0.82,0.44,0
0.04164,0.001378,0.057201,-0.00069465,0.016952,-0.00010815,0,0,0.052323,-0.02294,0,-0.00028118,0,0,0,0.057201,-0.00069485,0.016952,-0.10703,0.024486,0.051397,4.3033e-06,0.84,0.44,0
0.042687,0.0013779,0.057167,-0.00070763,0.016938,-9.5721e-05,0,0,0.052298,-0.022939,0,-0.00024888,0,0,0,0.057167,-0.00070779,0.016938,-0.094763,0.024466,0.051378,4.2969e-06,0.86,0.44,0
0.043732,0.0013778,0.057138,-0.00071774,0.016926,-8.2827e-05,0,0,0.052276,-0.022937,0,-0.00021535,0,0,0,0.057138,-0.00071785,0.016926,-0.082024,0.024449,0.05136,4.2911e-06,0.88,0.44,0
0.044777,0.0013777,0.057113,-0.00072546,0.016916,-6.9552e-05,0,0,0.052256,-0.022934,0,-0.00018084,0,0,0,0.057113,-0.00072554,0.016916,-0.068899,0.024435,0.051344,4.2861e-06,0.9,0.44,0
0.045822,0.0013775,0.057093,-0.00073122,0.016908,-5.5978e-05,0,0,0.05224,-0.022932,0,-0.00014554,0,0,0,0.057093,-0.00073128,0.016908,-0.055467,0.024423,0.05133,4.282e-06,0.92,0.44,0
0.046867,0.0013774,0.057077,-0.00073536,0.016903,-4.2175e-05,0,0,0.052227,-0.022929,0,-0.00010966,0,0,0,0.057077,-0.00073539,0.016903,-0.041798,0.024415,0.051319,4.2787e-06,0.94,0.44,0
0.047912,0.0013772,0.057066,-0.00073813,0.016898,-2.8206e-05,0,0,0.052218,-0.022927,0,-7.3336e-05,0,0,0,0.057066,-0.00073814,0.016898,-0.027958,0.024409,0.051312,4.2764e-06,0.96,0.44,0
0.048956,0.0013772,0.057059,-0.00073972,0.016896,-1.413e-05,0,0,0.052212,-0.022926,0,-3.6737e-05,0,0,0,0.057059,-0.00073972,0.016896,-0.014007,0.024405,0.051307,4.275e-06,0.98,0.44,0
0.05,0.0013771,0.057056,-0.00074024,0.016895,-4.8838e-07,0,0,0.05221,-0.022926,0,-1.2698e-06,0,0,0,0.057056,-0.00074024,0.016895,-0.00048414,0.024404,0.051305,4.2745e-06,1,0.44,0
0,0,0.052206,0.022374,0.022374,0.001036,0,0,0.038782,-3.7947e-19,0,0.0026935,0,0,0,0.052242,0.022338,0.022374,1.9865,0.032318,0.029886,1.371e-06,0,0.46,0
0.00077564,5.387e-05,0.052075,0.020831,0.021872,0.0010328,0,0,0.039264,-0.0013529,0,0.0026852,0,0,0,0.05211,0.020797,0.021872,1.8912,0.031593,0.030789,1.4929e-06,0.02,0.46,0
0.0015706,0.00010781,0.05259,0.019563,0.021646,0.0010251,0,0,0.040227,-0.0027079,0,0.0026652,0,0,0,0.052622,0.019531,0.021646,1.776,0.031266,0.032086,1.6717e-06,0.04,0.46,0
0.0023847,0.00016152,0.053099,0.018298,0.021419,0.001009,0,0,0.041184,-0.0040573,0,0.0026234,0,0,0,0.053128,0.018269,0.021419,1.6594,0.030939,0.033396,1.8556e-06,0.06,0.46,0
0.0032179,0.00021467,0.053597,0.017044,0.021192,0.00098446,0,0,0.042126,-0.0053927,0,0.0025596,0,0,0,0.053624,0.017018,0.021192,1.5416,0.030611,0.034708,2.043e-06,0.08,0.46,0
0.0040698,0.00026695,0.054081,0.015808,0.020967,0.0009516,0,0,0.043049,-0.0067059,0,0.0024742,0,0,0,0.054105,0.015785,0.020967,1.4234,0.030285,0.03601,2.2317e-06,0.1,0.46,0
0.0049399,0.00031803,0.054546,0.014599,0.020744,0.00091089,0,0,0.043944,-0.0079885,0,0.0023683,0,0,0,0.054567,0.014578,0.020744,1.3055,0.029963,0.037291,2.4197e-06,0.12,0.46,0
0.0058275,0.00036761,0.054989,0.013421,0.020523,0.0008631,0,0,0.044806,-0.0092328,0,0.0022441,0,0,0,0.055007,0.013403,0.020523,1.189,0.029644,0.038541,2.6052e-06,0.14,0.46,0
0.0067321,0.00041541,0.055406,0.012282,0.020307,0.00080922,0,0,0.04563,-0.010432,0,0.002104,0,0,0,0.055422,0.012267,0.020307,1.0746,0.029332,0.039749,2.786e-06,0.16,0.46,0
0.0076527,0.0004612,0.055795,0.011188,0.020095,0.00075041,0,0,0.04641,-0.011579,0,0.0019511,0,0,0,0.055808,0.011175,0.020095,0.9635,0.029026,0.040909,2.9605e-06,0.18,0.46,0
0.0085885,0.00050476,0.056154,0.010143,0.019889,0.00068793,0,0,0.047144,-0.01267,0,0.0017886,0,0,0,0.056164,0.010133,0.019889,0.85642,0.028729,0.042011,3.1269e-06,0.2,0.46,0
0.0095385,0.00054593,0.05648,0.0091511,0.019689,0.0006231,0,0,0.047828,-0.0137,0,0.0016201,0,0,0,0.056488,0.0091429,0.019689,0.75415,0.02844,0.043052,3.284e-06,0.22,0.46,0
0.010502,0.0005846,0.056773,0.008215,0.019496,0.00055719,0,0,0.04846,-0.014666,0,0.0014487,0,0,0,0.056779,0.0082086,0.019496,0.65734,0.028161,0.044026,3.4306e-06,0.24,0.46,0
0.011477,0.0006207,0.057033,0.0073365,0.019311,0.00049139,0,0,0.049039,-0.015567,0,0.0012776,0,0,0,0.057038,0.0073316,0.019311,0.56645,0.027894,0.044931,3.5662e-06,0.26,0.46,0
0.012463,0.00065419,0.057261,0.0065165,0.019133,0.00042679,0,0,0.049566,-0.016402,0,0.0011097,0,0,0,0.057265,0.0065129,0.019133,0.48184,0.027637,0.045766,3.6901e-06,0.28,0.46,0
0.013459,0.00068508,0.057457,0.0057552,0.018964,0.00036431,0,0,0.050041,-0.017171,0,0.00094721,0,0,0,0.05746,0.0057526,0.018964,0.4037,0.027392,0.04653,3.8023e-06,0.3,0.46,0
0.014465,0.0007134,0.057623,0.0050519,0.018802,0.00030473,0,0,0.050466,-0.017876,0,0.0007923,0,0,0,0.057624,0.0050501,0.018802,0.3321,0.027159,0.047225,3.9026e-06,0.32,0.46,0
0.015478,0.00073922,0.057759,0.0044052,0.018649,0.00024864,0,0,0.050843,-0.018517,0,0.00064648,0,0,0,0.05776,0.004404,0.018649,0.26701,0.026938,0.047851,3.9915e-06,0.34,0.46,0
0.016499,0.00076263,0.057869,0.0038134,0.018505,0.0001965,0,0,0.051173,-0.019099,0,0.00051091,0,0,0,0.05787,0.0038127,0.018505,0.20828,0.026729,0.048413,4.0694e-06,0.36,0.46,0
0.017525,0.00078375,0.057954,0.0032742,0.018368,0.0001486,0,0,0.051461,-0.019622,0,0.00038637,0,0,0,0.057954,0.0032738,0.018368,0.15571,0.026532,0.048912,4.1367e-06,0.38,0.46,0
0.018557,0.00080268,0.058016,0.002785,0.01824,0.00010511,0,0,0.051708,-0.020092,0,0.00027328,0,0,0,0.058016,0.0027849,0.01824,0.10904,0.026347,0.049353,4.1943e-06,0.4,0.46,0
0.019593,0.00081958,0.058058,0.0023432,0.01812,6.6065e-05,0,0,0.051918,-0.02051,0,0.00017177,0,0,0,0.058058,0.0023431,0.01812,0.06794,0.026174,0.049739,4.2427e-06,0.42,0.46,0
0.020634,0.00083456,0.058115,0.0019561,0.018021,5.7098e-06,0,0,0.052122,-0.020885,0,1.4846e-05,0,0,0,0.058115,0.0019561,0.018021,0.0058692,0.026031,0.050097,4.2896e-06,0.44,0.46,0
0.021677,0.00084778,0.058061,0.0015811,0.017892,2.6151e-05,0,0,0.052219,-0.021205,0,6.7993e-05,0,0,0,0.058061,0.001581,0.017892,0.026563,0.025845,0.050346,4.31e-06,0.46,0.46,0
0.022723,0.00085938,0.058082,0.001272,0.017806,-2.5135e-05,0,0,0.052358,-0.021494,0,-6.535e-05,0,0,0,0.058082,0.001272,0.017806,-0.02535,0.02572,0.050611,4.3413e-06,0.48,0.46,0
0.023772,0.00086949,0.058063,0.00098974,0.017716,-4.7472e-05,0,0,0.052452,-0.021744,0,-0.00012343,0,0,0,0.058063,0.0009897,0.017716,-0.047656,0.02559,0.050819,4.3612e-06,0.5,0.46,0
0.024821,0.00087825,0.058035,0.00073997,0.017632,-6.6167e-05,0,0,0.052523,-0.02196,0,-0.00017203,0,0,0,0.058035,0.00073989,0.017632,-0.066169,0.025469,0.050992,4.3758e-06,0.52,0.46,0
0.025872,0.00088578,0.057998,0.00051989,0.017555,-8.1491e-05,0,0,0.052575,-0.022146,0,-0.00021188,0,0,0,0.057998,0.00051977,0.017555,-0.081232,0.025358,0.051135,4.3858e-06,0.54,0.46,0
0.026924,0.00089222,0.057954,0.0003268,0.017484,-9.3717e-05,0,0,0.052611,-0.022305,0,-0.00024366,0,0,0,0.057954,0.00032665,0.017484,-0.093178,0.025255,0.05125,4.3919e-06,0.56,0.46,0
0.027977,0.00089767,0.057905,0.00015816,0.017419,-0.00010312,0,0,0.052632,-0.022439,0,-0.00026812,0,0,0,0.057905,0.00015797,0.017419,-0.10232,0.025161,0.051341,4.3946e-06,0.58,0.46,0
0.02903,0.00090225,0.057852,1.1541e-05,0.017359,-0.00010998,0,0,0.052641,-0.022552,0,-0.00028594,0,0,0,0.057852,1.1332e-05,0.017359,-0.10894,0.025074,0.051411,4.3945e-06,0.6,0.46,0
0.030083,0.00090606,0.057796,-0.00011531,0.017304,-0.00011454,0,0,0.052639,-0.022645,0,-0.00029781,0,0,0,0.057796,-0.00011553,0.017304,-0.11332,0.024995,0.051463,4.3921e-06,0.62,0.46,0
0.031135,0.00090918,0.057738,-0.0002245,0.017254,-0.00011707,0,0,0.05263,-0.022722,0,-0.00030437,0,0,0,0.057739,-0.00022474,0.017254,-0.11572,0.024923,0.051499,4.3878e-06,0.64,0.46,0
0.032188,0.00091172,0.05768,-0.00031799,0.017209,-0.00011778,0,0,0.052613,-0.022785,0,-0.00030622,0,0,0,0.05768,-0.00031823,0.017209,-0.11635,0.024857,0.051522,4.3821e-06,0.66,0.46,0
0.03324,0.00091375,0.057622,-0.00039758,0.017167,-0.00011689,0,0,0.052591,-0.022834,0,-0.00030392,0,0,0,0.057622,-0.00039782,0.017167,-0.11543,0.024797,0.051534,4.3752e-06,0.68,0.46,0
0.034291,0.00091533,0.057564,-0.00046494,0.01713,-0.00011461,0,0,0.052565,-0.022873,0,-0.00029799,0,0,0,0.057565,-0.00046517,0.01713,-0.11316,0.024743,0.051536,4.3675e-06,0.7,0.46,0
0.035342,0.00091655,0.0575,-0.00052766,0.017092,-0.00010125,0,0,0.052531,-0.022905,0,-0.00026325,0,0,0,0.057501,-0.00052784,0.017092,-0.09997,0.024688,0.05153,4.3579e-06,0.72,0.46,0
0.036393,0.00091745,0.057463,-0.0005625,0.01707,-0.00011575,0,0,0.052511,-0.022922,0,-0.00030096,0,0,0,0.057463,-0.00056274,0.01707,-0.11429,0.024657,0.051525,4.3522e-06,0.74,0.46,0
0.037443,0.00091809,0.057403,-0.00060806,0.017039,-0.00010109,0,0,0.052474,-0.022941,0,-0.00026284,0,0,0,0.057403,-0.00060824,0.017039,-0.099843,0.024611,0.051508,4.3422e-06,0.76,0.46,0
0.038492,0.00091852,0.057355,-0.0006403,0.017014,-9.4848e-05,0,0,0.052443,-0.022951,0,-0.0002466,0,0,0,0.057355,-0.00064045,0.017014,-0.093704,0.024576,0.05149,4.3338e-06,0.78,0.46,0
0.03954,0.00091878,0.057309,-0.00066659,0.016993,-8.7942e-05,0,0,0.052411,-0.022957,0,-0.00022865,0,0,0,0.057309,-0.00066672,0.016993,-0.08691,0.024545,0.051471,4.3256e-06,0.8,0.46,0
0.040588,0.00091891,0.057268,-0.00068782,0.016974,-8.0478e-05,0,0,0.052382,-0.02296,0,-0.00020924,0,0,0,0.057268,-0.00068793,0.016974,-0.079561,0.024518,0.051451,4.3179e-06,0.82,0.46,0
0.041636,0.00091894,0.05723,-0.0007048,0.016958,-7.2544e-05,0,0,0.052354,-0.022961,0,-0.00018862,0,0,0,0.05723,-0.00070489,0.016958,-0.071744,0.024494,0.051431,4.3107e-06,0.84,0.46,0
0.042682,0.0009189,0.057196,-0.00071821,0.016943,-6.4222e-05,0,0,0.052329,-0.02296,0,-0.00016698,0,0,0,0.057196,-0.00071828,0.016943,-0.063536,0.024474,0.051411,4.3041e-06,0.86,0.46,0
0.043729,0.00091882,0.057166,-0.00072866,0.016931,-5.5579e-05,0,0,0.052306,-0.022958,0,-0.00014451,0,0,0,0.057166,-0.00072872,0.016931,-0.055003,0.024456,0.051394,4.2983e-06,0.88,0.46,0
0.044775,0.00091872,0.057141,-0.00073667,0.016921,-4.6678e-05,0,0,0.052286,-0.022955,0,-0.00012136,0,0,0,0.057141,-0.0007367,0.016921,-0.046208,0.024442,0.051377,4.2932e-06,0.9,0.46,0
0.04582,0.00091862,0.05712,-0.00074265,0.016913,-3.7572e-05,0,0,0.052269,-0.022953,0,-9.7687e-05,0,0,0,0.05712,-0.00074267,0.016913,-0.037204,0.02443,0.051364,4.289e-06,0.92,0.46,0
0.046865,0.00091852,0.057104,-0.00074695,0.016907,-2.831e-05,0,0,0.052256,-0.02295,0,-7.3605e-05,0,0,0,0.057104,-0.00074696,0.016907,-0.028038,0.024421,0.051353,4.2857e-06,0.94,0.46,0
0.04791,0.00091844,0.057092,-0.00074983,0.016903,-1.8934e-05,0,0,0.052246,-0.022948,0,-4.9229e-05,0,0,0,0.057092,-0.00074984,0.016903,-0.018755,0.024415,0.051345,4.2833e-06,0.96,0.46,0
0.048955,0.00091839,0.057085,-0.00075149,0.0169,-9.4852e-06,0,0,0.052241,-0.022947,0,-2.4662e-05,0,0,0,0.057085,-0.00075149,0.0169,-0.0093965,0.024411,0.05134,4.2818e-06,0.98,0.46,0
0.05,0.00091838,0.057083,-0.00075203,0.016899,-3.2527e-07,0,0,0.052239,-0.022947,0,-8.4571e-07,0,0,0,0.057083,-0.00075203,0.016899,-0.00032224,0.02441,0.051338,4.2813e-06,1,0.46,0
0,0,0.052196,0.02237,0.02237,0.0005172,0,0,0.038774,-2.1684e-19,0,0.0013447,0,0,0,0.052205,0.022361,0.02237,0.99313,0.032312,0.02984,1.3646e-06,0,0.48,0
0.00077549,2.6895e-05,0.052066,0.020834,0.02187,0.00051562,0,0,0.039255,-0.0013468,0,0.0013406,0,0,0,0.052074,0.020826,0.02187,0.94557,0.03159,0.03074,1.4861e-06,0.02,0.48,0
0.0015702,5.3822e-05,0.052578,0.019572,0.021645,0.00051177,0,0,0.040213,-0.0026953,0,0.0013306,0,0,0,0.052586,0.019564,0.021645,0.88809,0.031265,0.032033,1.6641e-06,0.04,0.48,0
0.002384,8.0632e-05,0.053085,0.018313,0.02142,0.00050379,0,0,0.041165,-0.004038,0,0.0013098,0,0,0,0.053092,0.018306,0.02142,0.8299,0.030939,0.033339,1.8473e-06,0.06,0.48,0
0.0032168,0.00010716,0.053581,0.017066,0.021194,0.00049161,0,0,0.042103,-0.0053669,0,0.0012782,0,0,0,0.053588,0.017059,0.021194,0.77119,0.030614,0.034647,2.0339e-06,0.08,0.48,0
0.0040682,0.00013326,0.054064,0.015836,0.02097,0.00047531,0,0,0.043022,-0.0066738,0,0.0012358,0,0,0,0.05407,0.01583,0.02097,0.71226,0.03029,0.035946,2.222e-06,0.1,0.48,0
0.0049377,0.00015876,0.054528,0.014632,0.020748,0.00045513,0,0,0.043914,-0.0079507,0,0.0011833,0,0,0,0.054533,0.014627,0.020748,0.65351,0.029969,0.037225,2.4096e-06,0.12,0.48,0
0.0058247,0.00018352,0.05497,0.013459,0.020529,0.00043142,0,0,0.044774,-0.0091902,0,0.0011217,0,0,0,0.054974,0.013455,0.020529,0.59539,0.029653,0.038473,2.5947e-06,0.14,0.48,0
0.0067286,0.0002074,0.055387,0.012325,0.020314,0.00040468,0,0,0.045595,-0.010385,0,0.0010522,0,0,0,0.055391,0.012321,0.020314,0.53838,0.029342,0.039682,2.7754e-06,0.16,0.48,0
0.0076485,0.00023027,0.055776,0.011234,0.020103,0.00037548,0,0,0.046375,-0.01153,0,0.00097625,0,0,0,0.05578,0.011231,0.020103,0.48294,0.029038,0.040842,2.95e-06,0.18,0.48,0
0.0085836,0.00025204,0.056136,0.010191,0.019898,0.00034444,0,0,0.047109,-0.012619,0,0.00089553,0,0,0,0.056138,0.010189,0.019898,0.4295,0.028742,0.041946,3.1167e-06,0.2,0.48,0
0.0095329,0.00027263,0.056463,0.0092005,0.019699,0.00031219,0,0,0.047794,-0.013648,0,0.0008117,0,0,0,0.056466,0.0091985,0.019699,0.37844,0.028454,0.04299,3.2743e-06,0.22,0.48,0
0.010495,0.00029196,0.056759,0.0082647,0.019507,0.00027938,0,0,0.048427,-0.014615,0,0.00072639,0,0,0,0.056761,0.0082631,0.019507,0.33007,0.028177,0.043967,3.4217e-06,0.24,0.48,0
0.01147,0.00031002,0.057022,0.0073857,0.019322,0.0002466,0,0,0.049009,-0.015518,0,0.00064115,0,0,0,0.057023,0.0073844,0.019322,0.28464,0.02791,0.044877,3.5581e-06,0.26,0.48,0
0.012456,0.00032678,0.057252,0.0065644,0.019145,0.00021437,0,0,0.04954,-0.016355,0,0.00055737,0,0,0,0.057253,0.0065635,0.019145,0.24231,0.027654,0.045716,3.683e-06,0.28,0.48,0
0.013452,0.00034224,0.057451,0.0058012,0.018976,0.00018318,0,0,0.050018,-0.017127,0,0.00047626,0,0,0,0.057452,0.0058005,0.018976,0.2032,0.027409,0.046486,3.7962e-06,0.3,0.48,0
0.014457,0.00035643,0.05762,0.0050954,0.018815,0.0001534,0,0,0.050447,-0.017835,0,0.00039884,0,0,0,0.05762,0.0050949,0.018815,0.16733,0.027177,0.047186,3.8976e-06,0.32,0.48,0
0.015469,0.00036936,0.057759,0.0044459,0.018662,0.00012534,0,0,0.050827,-0.01848,0,0.00032589,0,0,0,0.05776,0.0044456,0.018662,0.1347,0.026956,0.047818,3.9876e-06,0.34,0.48,0
0.01649,0.0003811,0.057872,0.0038509,0.018517,9.9232e-05,0,0,0.051162,-0.019066,0,0.000258,0,0,0,0.057872,0.0038508,0.018517,0.10525,0.026747,0.048385,4.0665e-06,0.36,0.48,0
0.017516,0.00039168,0.05796,0.0033084,0.018381,7.5223e-05,0,0,0.051453,-0.019594,0,0.00019558,0,0,0,0.05796,0.0033083,0.018381,0.078862,0.02655,0.04889,4.1349e-06,0.38,0.48,0
0.018548,0.00040118,0.058025,0.0028159,0.018252,5.3401e-05,0,0,0.051704,-0.020067,0,0.00013884,0,0,0,0.058025,0.0028159,0.018252,0.055419,0.026364,0.049336,4.1934e-06,0.4,0.48,0
0.019584,0.00040965,0.058069,0.0023708,0.018132,3.3796e-05,0,0,0.051918,-0.020489,0,8.787e-05,0,0,0,0.058069,0.0023708,0.018132,0.034765,0.02619,0.049727,4.2428e-06,0.42,0.48,0
0.020624,0.00041717,0.058094,0.00197,0.018019,1.6391e-05,0,0,0.052097,-0.020864,0,4.2616e-05,0,0,0,0.058094,0.00197,0.018019,0.016733,0.026028,0.050068,4.2837e-06,0.44,0.48,0
0.021668,0.0004238,0.058133,0.0016217,0.017926,-2.1264e-05,0,0,0.052268,-0.021196,0,-5.5286e-05,0,0,0,0.058133,0.0016216,0.017926,-0.02153,0.025894,0.050378,4.3227e-06,0.46,0.48,0
0.022714,0.00042962,0.058075,0.0012813,0.017807,9.7915e-06,0,0,0.052349,-0.021483,0,2.5458e-05,0,0,0,0.058075,0.0012813,0.017807,0.0099008,0.025721,0.050597,4.3391e-06,0.48,0.48,0
0.023763,0.0004347,0.058082,0.001005,0.017726,-2.3334e-05,0,0,0.052462,-0.021737,0,-6.0668e-05,0,0,0,0.058082,0.001005,0.017726,-0.023423,0.025604,0.050823,4.364e-06,0.5,0.48,0
0.024813,0.0004391,0.058054,0.00075261,0.017642,-3.2766e-05,0,0,0.052535,-0.021956,0,-8.519e-05,0,0,0,0.058054,0.00075259,0.017642,-0.032762,0.025483,0.050999,4.3791e-06,0.52,0.48,0
0.025864,0.00044288,0.058018,0.00053011,0.017564,-4.0505e-05,0,0,0.052589,-0.022145,0,-0.00010531,0,0,0,0.058018,0.00053008,0.017564,-0.04037,0.025371,0.051144,4.3895e-06,0.54,0.48,0
0.026916,0.00044611,0.057975,0.00033481,0.017493,-4.6689e-05,0,0,0.052626,-0.022305,0,-0.00012139,0,0,0,0.057975,0.00033477,0.017493,-0.04641,0.025267,0.051262,4.3959e-06,0.56,0.48,0
0.027969,0.00044885,0.057926,0.00016416,0.017427,-5.1455e-05,0,0,0.052649,-0.022442,0,-0.00013378,0,0,0,0.057926,0.00016411,0.017427,-0.05104,0.025172,0.051355,4.3989e-06,0.58,0.48,0
0.029022,0.00045115,0.057873,1.5731e-05,0.017367,-5.4939e-05,0,0,0.052658,-0.022556,0,-0.00014284,0,0,0,0.057873,1.5679e-05,0.017367,-0.054405,0.025085,0.051426,4.399e-06,0.6,0.48,0
0.030076,0.00045307,0.057817,-0.00011274,0.017311,-5.7269e-05,0,0,0.052658,-0.022651,0,-0.0001489,0,0,0,0.057818,-0.00011279,0.017311,-0.056642,0.025005,0.051479,4.3967e-06,0.62,0.48,0
0.031129,0.00045464,0.05776,-0.00022337,0.017261,-5.8572e-05,0,0,0.052649,-0.02273,0,-0.00015229,0,0,0,0.05776,-0.00022342,0.017261,-0.057877,0.024932,0.051517,4.3926e-06,0.64,0.48,0
0.032181,0.00045592,0.057701,-0.00031812,0.017215,-5.8962e-05,0,0,0.052632,-0.022793,0,-0.0001533,0,0,0,0.057701,-0.00031819,0.017215,-0.058226,0.024866,0.051541,4.3869e-06,0.66,0.48,0
0.033234,0.00045694,0.057643,-0.00039883,0.017173,-5.8547e-05,0,0,0.052611,-0.022844,0,-0.00015222,0,0,0,0.057643,-0.00039889,0.017173,-0.057794,0.024806,0.051553,4.38e-06,0.68,0.48,0
0.034286,0.00045773,0.057578,-0.00047133,0.017132,-4.6215e-05,0,0,0.05258,-0.022884,0,-0.00012016,0,0,0,0.057578,-0.00047137,0.017132,-0.045613,0.024746,0.051554,4.3711e-06,0.7,0.48,0
0.035337,0.00045834,0.057536,-0.00052015,0.017105,-6.6157e-05,0,0,0.052561,-0.022912,0,-0.00017201,0,0,0,0.057536,-0.00052023,0.017105,-0.065288,0.024707,0.051555,4.3654e-06,0.72,0.48,0
0.036388,0.0004588,0.057474,-0.00057266,0.01707,-5.3423e-05,0,0,0.052525,-0.022936,0,-0.0001389,0,0,0,0.057474,-0.00057271,0.01707,-0.052731,0.024657,0.051542,4.3556e-06,0.74,0.48,0
0.037438,0.00045912,0.057423,-0.00061249,0.017043,-5.0696e-05,0,0,0.052493,-0.022952,0,-0.00013181,0,0,0,0.057423,-0.00061253,0.017043,-0.05005,0.024618,0.051528,4.3469e-06,0.76,0.48,0
0.038488,0.00045934,0.057374,-0.00064526,0.017018,-4.7575e-05,0,0,0.052462,-0.022963,0,-0.0001237,0,0,0,0.057374,-0.0006453,0.017018,-0.046982,0.024582,0.051511,4.3384e-06,0.78,0.48,0
0.039537,0.00045947,0.057328,-0.000672,0.016997,-4.4119e-05,0,0,0.05243,-0.022969,0,-0.00011471,0,0,0,0.057328,-0.00067203,0.016997,-0.043584,0.024551,0.051492,4.3302e-06,0.8,0.48,0
0.040585,0.00045954,0.057286,-0.00069361,0.016978,-4.0381e-05,0,0,0.052401,-0.022973,0,-0.00010499,0,0,0,0.057286,-0.00069364,0.016978,-0.039905,0.024523,0.051472,4.3224e-06,0.82,0.48,0
0.041633,0.00045955,0.057248,-0.0007109,0.016961,-3.6405e-05,0,0,0.052373,-0.022974,0,-9.4653e-05,0,0,0,0.057248,-0.00071093,0.016961,-0.035989,0.024499,0.051451,4.3151e-06,0.84,0.48,0
0.04268,0.00045954,0.057213,-0.00072458,0.016947,-3.2232e-05,0,0,0.052347,-0.022973,0,-8.3804e-05,0,0,0,0.057213,-0.0007246,0.016947,-0.031875,0.024479,0.051432,4.3085e-06,0.86,0.48,0
0.043727,0.0004595,0.057183,-0.00073525,0.016934,-2.7897e-05,0,0,0.052324,-0.022971,0,-7.2533e-05,0,0,0,0.057183,-0.00073526,0.016934,-0.027597,0.024461,0.051414,4.3026e-06,0.88,0.48,0
0.044773,0.00045945,0.057158,-0.00074342,0.016924,-2.3431e-05,0,0,0.052304,-0.022968,0,-6.0921e-05,0,0,0,0.057158,-0.00074343,0.016924,-0.023186,0.024446,0.051398,4.2974e-06,0.9,0.48,0
0.045819,0.00045939,0.057137,-0.00074954,0.016916,-1.8861e-05,0,0,0.052287,-0.022965,0,-4.904e-05,0,0,0,0.057137,-0.00074954,0.016916,-0.018669,0.024434,0.051384,4.2932e-06,0.92,0.48,0
0.046864,0.00045934,0.05712,-0.00075394,0.01691,-1.4212e-05,0,0,0.052273,-0.022963,0,-3.6952e-05,0,0,0,0.05712,-0.00075394,0.01691,-0.01407,0.024425,0.051373,4.2898e-06,0.94,0.48,0
0.04791,0.00045931,0.057108,-0.00075689,0.016905,-9.5059e-06,0,0,0.052264,-0.022961,0,-2.4715e-05,0,0,0,0.057108,-0.00075689,0.016905,-0.0094124,0.024419,0.051365,4.2874e-06,0.96,0.48,0
0.048955,0.00045928,0.057101,-0.00075859,0.016903,-4.7621e-06,0,0,0.052258,-0.02296,0,-1.2382e-05,0,0,0,0.057101,-0.00075859,0.016903,-0.0047157,0.024415,0.05136,4.2859e-06,0.98,0.48,0
0.05,0.00045927,0.057099,-0.00075914,0.016902,-1.6252e-07,0,0,0.052256,-0.022959,0,-4.2255e-07,0,0,0,0.057099,-0.00075914,0.016902,-0.00016094,0.024414,0.051358,4.2854e-06,1,0.48,0
0,0,0.052193,0.022368,0.022368,-2.9924e-17,0,0,0.038772,-2.7105e-19,0,-7.7954e-17,0,0,0,0.052193,0.022368,0.022368,-5.7487e-14,0.03231,0.029825,1.3625e-06,0,0.5,0
0.00077544,-1.5498e-18,0.052063,0.020835,0.021869,-2.9937e-17,0,0,0.039252,-0.0013447,0,-7.7575e-17,0,0,0,0.052063,0.020835,0.021869,-5.4928e-14,0.031589,0.030724,1.4838e-06,0.02,0.5,0
0.0015701,-2.9718e-18,0.052575,0.019575,0.021645,-2.7037e-17,0,0,0.040209,-0.0026911,0,-7.05e-17,0,0,0,0.052575,0.019575,0.021645,-4.6943e-14,0.031265,0.032015,1.6616e-06,0.04,0.5,0
0.0023838,-4.6953e-18,0.05308,0.018318,0.02142,-2.7756e-17,0,0,0.041159,-0.0040316,0,-7.2343e-17,0,0,0,0.05308,0.018318,0.02142,-4.5748e-14,0.03094,0.03332,1.8445e-06,0.06,0.5,0
0.0032164,-6.7334e-18,0.053576,0.017073,0.021195,-2.762e-17,0,0,0.042096,-0.0053583,0,-7.1584e-17,0,0,0,0.053576,0.017073,0.021195,-4.3353e-14,0.030615,0.034627,2.0308e-06,0.08,0.5,0
0.0040676,-7.488e-18,0.054058,0.015846,0.020971,-3.769e-17,0,0,0.043013,-0.0066631,0,-9.8229e-17,0,0,0,0.054058,0.015846,0.020971,-5.6512e-14,0.030291,0.035925,2.2187e-06,0.1,0.5,0
0.0049369,-8.8842e-18,0.054522,0.014643,0.020749,-3.2065e-17,0,0,0.043904,-0.0079382,0,-8.3267e-17,0,0,0,0.054522,0.014643,0.020749,-4.607e-14,0.029971,0.037203,2.4062e-06,0.12,0.5,0
0.0058238,-1.0208e-17,0.054964,0.013472,0.020531,-3.2458e-17,0,0,0.044763,-0.0091761,0,-8.4378e-17,0,0,0,0.054964,0.013472,0.020531,-4.4822e-14,0.029656,0.038451,2.5912e-06,0.14,0.5,0
0.0067275,-1.2706e-17,0.055381,0.012339,0.020316,-2.5709e-17,0,0,0.045584,-0.01037,0,-6.7085e-17,0,0,0,0.055381,0.012339,0.020316,-3.4223e-14,0.029345,0.039659,2.7719e-06,0.16,0.5,0
0.0076471,-1.305e-17,0.05577,0.011249,0.020106,-2.5099e-17,0,0,0.046364,-0.011514,0,-6.5106e-17,0,0,0,0.05577,0.011249,0.020106,-3.2301e-14,0.029042,0.04082,2.9465e-06,0.18,0.5,0
0.008582,-1.4324e-17,0.05613,0.010207,0.019901,-6.8237e-17,0,0,0.047097,-0.012602,0,-1.774e-16,0,0,0,0.05613,0.010207,0.019901,-8.5137e-14,0.028746,0.041925,3.1134e-06,0.2,0.5,0
0.009531,-1.6784e-17,0.056458,0.0092169,0.019703,-1.5179e-17,0,0,0.047782,-0.013631,0,-3.9384e-17,0,0,0,0.056458,0.0092169,0.019703,-1.8409e-14,0.028459,0.042969,3.2711e-06,0.22,0.5,0
0.010493,-1.6811e-17,0.056754,0.0082813,0.019511,-4.9223e-17,0,0,0.048417,-0.014598,0,-1.2813e-16,0,0,0,0.056754,0.0082813,0.019511,-5.8182e-14,0.028182,0.043948,3.4187e-06,0.24,0.5,0
0.011468,-1.8101e-17,0.057018,0.0074021,0.019326,-1.6216e-17,0,0,0.049,-0.015501,0,-4.2216e-17,0,0,0,0.057018,0.0074021,0.019326,-1.8725e-14,0.027915,0.044859,3.5554e-06,0.26,0.5,0
0.012453,-1.9672e-17,0.057249,0.0065804,0.019149,-6.9735e-17,0,0,0.049531,-0.016339,0,-1.8118e-16,0,0,0,0.057249,0.0065804,0.019149,-7.8855e-14,0.02766,0.0457,3.6806e-06,0.28,0.5,0
0.013449,-2.2543e-17,0.057449,0.0058165,0.01898,1.7794e-17,0,0,0.05001,-0.017112,0,4.6214e-17,0,0,0,0.057449,0.0058165,0.01898,1.9746e-14,0.027415,0.046471,3.7941e-06,0.3,0.5,0
0.014454,-2.4474e-17,0.057619,0.0051099,0.018819,-4.5899e-17,0,0,0.05044,-0.017821,0,-1.1934e-16,0,0,0,0.057619,0.0051099,0.018819,-5.0083e-14,0.027182,0.047173,3.8959e-06,0.32,0.5,0
0.015466,-2.5733e-17,0.057759,0.0044594,0.018666,8.7177e-18,0,0,0.050822,-0.018468,0,2.2714e-17,0,0,0,0.057759,0.0044594,0.018666,9.3712e-15,0.026961,0.047807,3.9863e-06,0.34,0.5,0
0.016487,-2.4866e-17,0.057873,0.0038635,0.018521,-5.2855e-17,0,0,0.051158,-0.019055,0,-1.374e-16,0,0,0,0.057873,0.0038635,0.018521,-5.6071e-14,0.026752,0.048376,4.0655e-06,0.36,0.5,0
0.017513,-2.639e-17,0.057962,0.0033199,0.018385,-2.6685e-17,0,0,0.051451,-0.019584,0,-6.9341e-17,0,0,0,0.057962,0.0033199,0.018385,-2.7981e-14,0.026555,0.048883,4.1343e-06,0.38,0.5,0
0.018545,-2.774e-17,0.058028,0.0028263,0.018256,-5.0514e-17,0,0,0.051703,-0.020059,0,-1.3133e-16,0,0,0,0.058028,0.0028263,0.018256,-5.243e-14,0.02637,0.049331,4.1931e-06,0.4,0.5,0
0.019581,-3.086e-17,0.058072,0.00238,0.018136,-5.0522e-17,0,0,0.051918,-0.020483,0,-1.3132e-16,0,0,0,0.058072,0.00238,0.018136,-5.1977e-14,0.026196,0.049723,4.2428e-06,0.42,0.5,0
0.020621,-3.2446e-17,0.058099,0.0019782,0.018023,-2.5238e-17,0,0,0.052098,-0.020858,0,-6.5669e-17,0,0,0,0.058099,0.0019782,0.018023,-2.5767e-14,0.026033,0.050065,4.284e-06,0.44,0.5,0
0.021665,-3.3747e-17,0.058109,0.0016179,0.017918,3.6978e-17,0,0,0.052248,-0.02119,0,9.6135e-17,0,0,0,0.058109,0.0016179,0.017918,3.7505e-14,0.025882,0.05036,4.3176e-06,0.46,0.5,0
0.022711,-3.2207e-17,0.058128,0.0013066,0.01783,-1.9467e-05,0,0,0.052387,-0.021481,0,-5.0615e-05,0,0,0,0.058128,0.0013065,0.01783,-0.019611,0.025755,0.050625,4.349e-06,0.48,0.5,0
0.02376,-3.4166e-17,0.058069,0.001002,0.017721,1.9068e-05,0,0,0.052452,-0.021735,0,4.9577e-05,0,0,0,0.058069,0.001002,0.017721,0.019159,0.025597,0.050814,4.3614e-06,0.5,0.5,0
0.02481,-3.5069e-17,0.05806,0.00075685,0.017645,-2.668e-17,0,0,0.05254,-0.021955,0,-6.9375e-17,0,0,0,0.05806,0.00075685,0.017645,-2.6676e-14,0.025487,0.051001,4.3802e-06,0.52,0.5,0
0.025861,-3.6097e-17,0.058024,0.00053354,0.017567,-2.1344e-17,0,0,0.052594,-0.022144,0,-5.5511e-17,0,0,0,0.058024,0.00053354,0.017567,-2.1271e-14,0.025375,0.051147,4.3907e-06,0.54,0.5,0
0.026914,-3.7192e-17,0.057981,0.0003375,0.017496,7.0439e-17,0,0,0.052631,-0.022306,0,1.8316e-16,0,0,0,0.057981,0.0003375,0.017496,7.0014e-14,0.025272,0.051266,4.3973e-06,0.56,0.5,0
0.027966,-4.1034e-17,0.057933,0.00016617,0.01743,-1.2876e-16,0,0,0.052654,-0.022443,0,-3.3478e-16,0,0,0,0.057933,0.00016617,0.01743,-1.2771e-13,0.025176,0.051359,4.4003e-06,0.58,0.5,0
0.02902,-4.1664e-17,0.05788,1.7145e-05,0.017369,-2.2391e-17,0,0,0.052664,-0.022558,0,-5.8215e-17,0,0,0,0.05788,1.7145e-05,0.017369,-2.2171e-14,0.025089,0.051431,4.4005e-06,0.6,0.5,0
0.030073,-4.1859e-17,0.057825,-0.00011186,0.017314,1.8487e-17,0,0,0.052664,-0.022653,0,4.8084e-17,0,0,0,0.057825,-0.00011186,0.017314,1.8283e-14,0.025009,0.051485,4.3983e-06,0.62,0.5,0
0.031126,-4.268e-17,0.057767,-0.00022298,0.017263,-2.1345e-17,0,0,0.052655,-0.022732,0,-5.5474e-17,0,0,0,0.057767,-0.00022298,0.017263,-2.109e-14,0.024936,0.051523,4.3941e-06,0.64,0.5,0
0.032179,-4.3078e-17,0.057708,-0.00031816,0.017217,-3.4495e-17,0,0,0.052639,-0.022796,0,-8.9711e-17,0,0,0,0.057708,-0.00031816,0.017217,-3.406e-14,0.024869,0.051547,4.3885e-06,0.66,0.5,0
0.033232,-4.3747e-17,0.057645,-0.00040156,0.017173,1.2688e-05,0,0,0.052613,-0.022847,0,3.2988e-05,0,0,0,0.057645,-0.00040157,0.017173,0.012526,0.024805,0.051557,4.3806e-06,0.68,0.5,0
0.034284,-4.2729e-17,0.057598,-0.00046524,0.01714,-1.1847e-05,0,0,0.052596,-0.022887,0,-3.0802e-05,0,0,0,0.057598,-0.00046525,0.01714,-0.011688,0.024758,0.051566,4.3751e-06,0.7,0.5,0
0.035335,-4.2462e-17,0.057536,-0.00052566,0.017103,-3.0585e-17,0,0,0.052562,-0.022917,0,-7.9567e-17,0,0,0,0.057536,-0.00052566,0.017103,-3.0181e-14,0.024704,0.051559,4.3657e-06,0.72,0.5,0
0.036387,-4.3494e-17,0.057481,-0.00057392,0.017072,8.4703e-22,0,0,0.052532,-0.02294,0,1.3552e-20,0,0,0,0.057481,-0.00057392,0.017072,8.3596e-19,0.02466,0.051549,4.3572e-06,0.74,0.5,0
0.037437,-4.4397e-17,0.057429,-0.00061396,0.017045,7.1862e-17,0,0,0.0525,-0.022956,0,1.8686e-16,0,0,0,0.057429,-0.00061396,0.017045,7.0937e-14,0.02462,0.051535,4.3485e-06,0.76,0.5,0
0.038486,-4.4296e-17,0.05738,-0.00064691,0.01702,-4.4795e-17,0,0,0.052468,-0.022967,0,-1.1645e-16,0,0,0,0.05738,-0.00064691,0.01702,-4.4231e-14,0.024584,0.051518,4.34e-06,0.78,0.5,0
0.039536,-4.5684e-17,0.057334,-0.0006738,0.016998,1.6433e-16,0,0,0.052437,-0.022974,0,4.2721e-16,0,0,0,0.057334,-0.0006738,0.016998,1.6231e-13,0.024553,0.051499,4.3317e-06,0.8,0.5,0
0.040584,-4.8527e-17,0.057292,-0.00069554,0.016979,-2.0587e-17,0,0,0.052407,-0.022977,0,-5.3492e-17,0,0,0,0.057292,-0.00069554,0.016979,-2.0342e-14,0.024525,0.051479,4.3239e-06,0.82,0.5,0
0.041632,-4.7846e-17,0.057253,-0.00071294,0.016962,-6.1193e-17,0,0,0.052379,-0.022978,0,-1.5909e-16,0,0,0,0.057253,-0.00071294,0.016962,-6.0485e-14,0.024501,0.051458,4.3166e-06,0.84,0.5,0
0.042679,-4.9123e-17,0.057219,-0.00072671,0.016948,6.6143e-17,0,0,0.052353,-0.022977,0,1.7198e-16,0,0,0,0.057219,-0.00072671,0.016948,6.5401e-14,0.02448,0.051439,4.31e-06,0.86,0.5,0
0.043726,-4.8353e-17,0.057189,-0.00073745,0.016935,2.1353e-17,0,0,0.05233,-0.022975,0,5.5511e-17,0,0,0,0.057189,-0.00073745,0.016935,2.112e-14,0.024462,0.051421,4.304e-06,0.88,0.5,0
0.044772,-4.9208e-17,0.057163,-0.00074568,0.016925,7.7587e-17,0,0,0.05231,-0.022972,0,2.0172e-16,0,0,0,0.057163,-0.00074568,0.016925,7.6766e-14,0.024448,0.051404,4.2989e-06,0.9,0.5,0
0.045818,-4.9931e-17,0.057142,-0.00075184,0.016917,-1.3229e-16,0,0,0.052293,-0.02297,0,-3.4394e-16,0,0,0,0.057142,-0.00075184,0.016917,-1.3092e-13,0.024436,0.05139,4.2946e-06,0.92,0.5,0
0.046864,-4.8158e-17,0.057126,-0.00075627,0.016911,1.565e-16,0,0,0.052279,-0.022967,0,4.069e-16,0,0,0,0.057126,-0.00075627,0.016911,1.5492e-13,0.024427,0.051379,4.2912e-06,0.94,0.5,0
0.047909,-4.8571e-17,0.057114,-0.00075925,0.016906,2.9166e-17,0,0,0.05227,-0.022965,0,7.5831e-17,0,0,0,0.057114,-0.00075925,0.016906,2.8875e-14,0.02442,0.051371,4.2888e-06,0.96,0.5,0
0.048955,-4.9518e-17,0.057107,-0.00076096,0.016904,3.698e-17,0,0,0.052264,-0.022964,0,9.6149e-17,0,0,0,0.057107,-0.00076096,0.016904,3.6614e-14,0.024416,0.051366,4.2873e-06,0.98,0.5,0
0.05,-4.9016e-17,0.057104,-0.00076152,0.016903,-4.2701e-17,0,0,0.052262,-0.022964,0,-1.1102e-16,0,0,0,0.057104,-0.00076152,0.016903,-4.228e-14,0.024415,0.051365,4.2868e-06,1,0.5,0
0,0,0.052196,0.02237,0.02237,-0.0005172,0,0,0.038774,1.0842e-19,0,-0.0013447,0,0,0,0.052205,0.022361,0.02237,-0.99313,0.032312,0.02984,1.3646e-06,0,0.52,0
0.00077549,-2.6895e-05,0.052066,0.020834,0.02187,-0.00051562,0,0,0.039255,-0.0013468,0,-0.0013406,0,0,0,0.052074,0.020826,0.02187,-0.94557,0.03159,0.03074,1.4861e-06,0.02,0.52,0
0.0015702,-5.3822e-05,0.052578,0.019572,0.021645,-0.00051177,0,0,0.040213,-0.0026953,0,-0.0013306,0,0,0,0.052586,0.019564,0.021645,-0.88809,0.031265,0.032033,1.6641e-06,0.04,0.52,0
0.002384,-8.0632e-05,0.053085,0.018313,0.02142,-0.00050379,0,0,0.041165,-0.004038,0,-0.0013098,0,0,0,0.053092,0.018306,0.02142,-0.8299,0.030939,0.033339,1.8473e-06,0.06,0.52,0
0.0032168,-0.00010716,0.053581,0.017066,0.021194,-0.00049161,0,0,0.042103,-0.0053669,0,-0.0012782,0,0,0,0.053588,0.017059,0.021194,-0.77119,0.030614,0.034647,2.0339e-06,0.08,0.52,0
0.0040682,-0.00013326,0.054064,0.015836,0.02097,-0.00047531,0,0,0.043022,-0.0066738,0,-0.0012358,0,0,0,0.05407,0.01583,0.02097,-0.71226,0.03029,0.035946,2.222e-06,0.1,0.52,0
0.0049377,-0.00015876,0.054528,0.014632,0.020748,-0.00045513,0,0,0.043914,-0.0079507,0,-0.0011833,0,0,0,0.054533,0.014627,0.020748,-0.65351,0.029969,0.037225,2.4096e-06,0.12,0.52,0
0.0058247,-0.00018352,0.05497,0.013459,0.020529,-0.00043142,0,0,0.044774,-0.0091902,0,-0.0011217,0,0,0,0.054974,0.013455,0.020529,-0.59539,0.029653,0.038473,2.5947e-06,0.14,0.52,0
0.0067286,-0.0002074,0.055387,0.012325,0.020314,-0.00040468,0,0,0.045595,-0.010385,0,-0.0010522,0,0,0,0.055391,0.012321,0.020314,-0.53838,0.029342,0.039682,2.7754e-06,0.16,0.52,0
0.0076485,-0.00023027,0.055776,0.011234,0.020103,-0.00037548,0,0,0.046375,-0.01153,0,-0.00097625,0,0,0,0.05578,0.011231,0.020103,-0.48294,0.029038,0.040842,2.95e-06,0.18,0.52,0
0.0085836,-0.00025204,0.056136,0.010191,0.019898,-0.00034444,0,0,0.047109,-0.012619,0,-0.00089553,0,0,0,0.056138,0.010189,0.019898,-0.4295,0.028742,0.041946,3.1167e-06,0.2,0.52,0
0.0095329,-0.00027263,0.056463,0.0092005,0.019699,-0.00031219,0,0,0.047794,-0.013648,0,-0.0008117,0,0,0,0.056466,0.0091985,0.019699,-0.37844,0.028454,0.04299,3.2743e-06,0.22,0.52,0
0.010495,-0.00029196,0.056759,0.0082647,0.019507,-0.00027938,0,0,0.048427,-0.014615,0,-0.00072639,0,0,0,0.056761,0.0082631,0.019507,-0.33007,0.028177,0.043967,3.4217e-06,0.24,0.52,0
0.01147,-0.00031002,0.057022,0.0073857,0.019322,-0.0002466,0,0,0.049009,-0.015518,0,-0.00064115,0,0,0,0.057023,0.0073844,0.019322,-0.28464,0.02791,0.044877,3.5581e-06,0.26,0.52,0
0.012456,-0.00032678,0.057252,0.0065644,0.019145,-0.00021437,0,0,0.04954,-0.016355,0,-0.00055737,0,0,0,0.057253,0.0065635,0.019145,-0.24231,0.027654,0.045716,3.683e-06,0.28,0.52,0
0.013452,-0.00034224,0.057451,0.0058012,0.018976,-0.00018318,0,0,0.050018,-0.017127,0,-0.00047626,0,0,0,0.057452,0.0058005,0.018976,-0.2032,0.027409,0.046486,3.7962e-06,0.3,0.52,0
0.014457,-0.00035643,0.05762,0.0050954,0.018815,-0.0001534,0,0,0.050447,-0.017835,0,-0.00039884,0,0,0,0.05762,0.0050949,0.018815,-0.16733,0.027177,0.047186,3.8976e-06,0.32,0.52,0
0.015469,-0.00036936,0.057759,0.0044459,0.018662,-0.00012534,0,0,0.050827,-0.01848,0,-0.00032589,0,0,0,0.05776,0.0044456,0.018662,-0.1347,0.026956,0.047818,3.9876e-06,0.34,0.52,0
0.01649,-0.0003811,0.057872,0.0038509,0.018517,-9.9232e-05,0,0,0.051162,-0.019066,0,-0.000258,0,0,0,0.057872,0.0038508,0.018517,-0.10525,0.026747,0.048385,4.0665e-06,0.36,0.52,0
0.017516,-0.00039168,0.05796,0.0033084,0.018381,-7.5223e-05,0,0,0.051453,-0.019594,0,-0.00019558,0,0,0,0.05796,0.0033083,0.018381,-0.078862,0.02655,0.04889,4.1349e-06,0.38,0.52,0
0.018548,-0.00040118,0.058025,0.0028159,0.018252,-5.3401e-05,0,0,0.051704,-0.020067,0,-0.00013884,0,0,0,0.058025,0.0028159,0.018252,-0.055419,0.026364,0.049336,4.1934e-06,0.4,0.52,0
0.019584,-0.00040965,0.058069,0.0023708,0.018132,-3.3796e-05,0,0,0.051918,-0.020489,0,-8.787e-05,0,0,0,0.058069,0.0023708,0.018132,-0.034765,0.02619,0.049727,4.2428e-06,0.42,0.52,0
0.020624,-0.00041717,0.058094,0.00197,0.018019,-1.6391e-05,0,0,0.052097,-0.020864,0,-4.2616e-05,0,0,0,0.058094,0.00197,0.018019,-0.016733,0.026028,0.050068,4.2837e-06,0.44,0.52,0
0.021668,-0.0004238,0.058104,0.0016108,0.017914,-1.1287e-06,0,0,0.052246,-0.021195,0,-2.9346e-06,0,0,0,0.058104,0.0016108,0.017914,-0.0011447,0.025876,0.050361,4.3171e-06,0.46,0.52,0
0.022714,-0.00042962,0.058099,0.0012901,0.017817,1.2077e-05,0,0,0.052367,-0.021485,0,3.14e-05,0,0,0,0.058099,0.0012901,0.017817,0.01218,0.025735,0.050611,4.3436e-06,0.48,0.52,0
0.023763,-0.0004347,0.058101,0.0010141,0.017734,6.4341e-06,0,0,0.052476,-0.021736,0,1.6729e-05,0,0,0,0.058101,0.0010141,0.017734,0.0064697,0.025616,0.050833,4.3676e-06,0.5,0.52,0
0.024813,-0.0004391,0.058054,0.00075261,0.017642,3.2766e-05,0,0,0.052535,-0.021956,0,8.519e-05,0,0,0,0.058054,0.00075254,0.017642,0.032761,0.025483,0.050999,4.3791e-06,0.52,0.52,0
0.025864,-0.00044288,0.058018,0.00053011,0.017564,4.0505e-05,0,0,0.052589,-0.022145,0,0.00010531,0,0,0,0.058018,0.00053003,0.017564,0.040369,0.025371,0.051144,4.3895e-06,0.54,0.52,0
0.026916,-0.00044611,0.057975,0.00033481,0.017493,4.6689e-05,0,0,0.052626,-0.022305,0,0.00012139,0,0,0,0.057975,0.00033472,0.017493,0.04641,0.025267,0.051262,4.3959e-06,0.56,0.52,0
0.027969,-0.00044885,0.057926,0.00016416,0.017427,5.1455e-05,0,0,0.052649,-0.022442,0,0.00013378,0,0,0,0.057926,0.00016407,0.017427,0.05104,0.025172,0.051355,4.3989e-06,0.58,0.52,0
0.029022,-0.00045115,0.057873,1.5731e-05,0.017367,5.4939e-05,0,0,0.052658,-0.022556,0,0.00014284,0,0,0,0.057873,1.5639e-05,0.017367,0.054406,0.025085,0.051426,4.399e-06,0.6,0.52,0
0.030076,-0.00045307,0.057817,-0.00011274,0.017311,5.7269e-05,0,0,0.052658,-0.022651,0,0.0001489,0,0,0,0.057818,-0.00011283,0.017311,0.056643,0.025005,0.051479,4.3967e-06,0.62,0.52,0
0.031129,-0.00045464,0.05776,-0.00022337,0.017261,5.8572e-05,0,0,0.052649,-0.02273,0,0.00015229,0,0,0,0.05776,-0.00022346,0.017261,0.057879,0.024932,0.051517,4.3926e-06,0.64,0.52,0
0.032181,-0.00045592,0.057701,-0.00031812,0.017215,5.8962e-05,0,0,0.052632,-0.022793,0,0.0001533,0,0,0,0.057701,-0.00031821,0.017215,0.058227,0.024866,0.051541,4.3869e-06,0.66,0.52,0
0.033234,-0.00045694,0.057648,-0.0003979,0.017175,4.5187e-05,0,0,0.052615,-0.022845,0,0.00011749,0,0,0,0.057648,-0.00039795,0.017175,0.044606,0.024808,0.051557,4.381e-06,0.68,0.52,0
0.034286,-0.00045773,0.057585,-0.00046716,0.017135,5.7426e-05,0,0,0.052585,-0.022883,0,0.00014931,0,0,0,0.057585,-0.00046722,0.017135,0.056678,0.024751,0.051556,4.3723e-06,0.7,0.52,0
0.035337,-0.00045834,0.057529,-0.00052464,0.017101,5.5691e-05,0,0,0.052556,-0.022914,0,0.0001448,0,0,0,0.057529,-0.00052469,0.017101,0.054964,0.024702,0.051552,4.3641e-06,0.72,0.52,0
0.036388,-0.0004588,0.057474,-0.00057266,0.01707,5.3423e-05,0,0,0.052525,-0.022936,0,0.0001389,0,0,0,0.057474,-0.00057271,0.01707,0.052731,0.024657,0.051542,4.3556e-06,0.74,0.52,0
0.037438,-0.00045912,0.057423,-0.00061249,0.017043,5.0696e-05,0,0,0.052493,-0.022952,0,0.00013181,0,0,0,0.057423,-0.00061253,0.017043,0.05005,0.024618,0.051528,4.3469e-06,0.76,0.52,0
0.038488,-0.00045934,0.057374,-0.00064526,0.017018,4.7575e-05,0,0,0.052462,-0.022963,0,0.0001237,0,0,0,0.057374,-0.0006453,0.017018,0.046982,0.024582,0.051511,4.3384e-06,0.78,0.52,0
0.039537,-0.00045947,0.057328,-0.000672,0.016997,4.4119e-05,0,0,0.05243,-0.022969,0,0.00011471,0,0,0,0.057328,-0.00067203,0.016997,0.043584,0.024551,0.051492,4.3302e-06,0.8,0.52,0
0.040585,-0.00045954,0.057286,-0.00069361,0.016978,4.0381e-05,0,0,0.052401,-0.022973,0,0.00010499,0,0,0,0.057286,-0.00069364,0.016978,0.039905,0.024523,0.051472,4.3224e-06,0.82,0.52,0
0.041633,-0.00045955,0.057248,-0.0007109,0.016961,3.6405e-05,0,0,0.052373,-0.022974,0,9.4653e-05,0,0,0,0.057248,-0.00071093,0.016961,0.035989,0.024499,0.051451,4.3151e-06,0.84,0.52,0
0.04268,-0.00045954,0.057213,-0.00072458,0.016947,3.2232e-05,0,0,0.052347,-0.022973,0,8.3804e-05,0,0,0,0.057213,-0.0007246,0.016947,0.031875,0.024479,0.051432,4.3085e-06,0.86,0.52,0
0.043727,-0.0004595,0.057183,-0.00073525,0.016934,2.7897e-05,0,0,0.052324,-0.022971,0,7.2533e-05,0,0,0,0.057183,-0.00073526,0.016934,0.027597,0.024461,0.051414,4.3026e-06,0.88,0.52,0
0.044773,-0.00045945,0.057158,-0.00074342,0.016924,2.3431e-05,0,0,0.052304,-0.022968,0,6.0921e-05,0,0,0,0.057158,-0.00074343,0.016924,0.023186,0.024446,0.051398,4.2974e-06,0.9,0.52,0
0.045819,-0.00045939,0.057137,-0.00074954,0.016916,1.8861e-05,0,0,0.052287,-0.022965,0,4.904e-05,0,0,0,0.057137,-0.00074954,0.016916,0.018669,0.024434,0.051384,4.2932e-06,0.92,0.52,0
0.046864,-0.00045934,0.05712,-0.00075394,0.01691,1.4212e-05,0,0,0.052273,-0.022963,0,3.6952e-05,0,0,0,0.05712,-0.00075394,0.01691,0.01407,0.024425,0.051373,4.2898e-06,0.94,0.52,0
0.04791,-0.00045931,0.057108,-0.00075689,0.016905,9.5059e-06,0,0,0.052264,-0.022961,0,2.4715e-05,0,0,0,0.057108,-0.00075689,0.016905,0.0094124,0.024419,0.051365,4.2874e-06,0.96,0.52,0
0.048955,-0.00045928,0.057101,-0.00075859,0.016903,4.7621e-06,0,0,0.052258,-0.02296,0,1.2382e-05,0,0,0,0.057101,-0.00075859,0.016903,0.0047157,0.024415,0.05136,4.2859e-06,0.98,0.52,0
0.05,-0.00045927,0.057099,-0.00075914,0.016902,1.6252e-07,0,0,0.052256,-0.022959,0,4.2255e-07,0,0,0,0.057099,-0.00075914,0.016902,0.00016094,0.024414,0.051358,4.2854e-06,1,0.52,0
0,0,0.052206,0.022374,0.022374,-0.001036,0,0,0.038782,0,0,-0.0026935,0,0,0,0.052242,0.022338,0.022374,-1.9865,0.032318,0.029886,1.371e-06,0,0.54,0
0.00077564,-5.387e-05,0.052075,0.020831,0.021872,-0.0010328,0,0,0.039264,-0.0013529,0,-0.0026852,0,0,0,0.05211,0.020797,0.021872,-1.8912,0.031593,0.030789,1.4929e-06,0.02,0.54,0
0.0015706,-0.00010781,0.05259,0.019563,0.021646,-0.0010251,0,0,0.040227,-0.0027079,0,-0.0026652,0,0,0,0.052622,0.019531,0.021646,-1.776,0.031266,0.032086,1.6717e-06,0.04,0.54,0
0.0023847,-0.00016152,0.053099,0.018298,0.021419,-0.001009,0,0,0.041184,-0.0040573,0,-0.0026234,0,0,0,0.053128,0.018269,0.021419,-1.6594,0.030939,0.033396,1.8556e-06,0.06,0.54,0
0.0032179,-0.00021467,0.053597,0.017044,0.021192,-0.00098446,0,0,0.042126,-0.0053927,0,-0.0025596,0,0,0,0.053624,0.017018,0.021192,-1.5416,0.030611,0.034708,2.043e-06,0.08,0.54,0
0.0040698,-0.00026695,0.054081,0.015808,0.020967,-0.0009516,0,0,0.043049,-0.0067059,0,-0.0024742,0,0,0,0.054105,0.015785,0.020967,-1.4234,0.030285,0.03601,2.2317e-06,0.1,0.54,0
0.0049399,-0.00031803,0.054546,0.014599,0.020744,-0.00091089,0,0,0.043944,-0.0079885,0,-0.0023683,0,0,0,0.054567,0.014578,0.020744,-1.3055,0.029963,0.037291,2.4197e-06,0.12,0.54,0
0.0058275,-0.00036761,0.054989,0.013421,0.020523,-0.0008631,0,0,0.044806,-0.0092328,0,-0.0022441,0,0,0,0.055007,0.013403,0.020523,-1.189,0.029644,0.038541,2.6052e-06,0.14,0.54,0
0.0067321,-0.00041541,0.055406,0.012282,0.020307,-0.00080922,0,0,0.04563,-0.010432,0,-0.002104,0,0,0,0.055422,0.012267,0.020307,-1.0746,0.029332,0.039749,2.786e-06,0.16,0.54,0
0.0076527,-0.0004612,0.055795,0.011188,0.020095,-0.00075041,0,0,0.04641,-0.011579,0,-0.0019511,0,0,0,0.055808,0.011175,0.020095,-0.9635,0.029026,0.040909,2.9605e-06,0.18,0.54,0
0.0085885,-0.00050476,0.056154,0.010143,0.019889,-0.00068793,0,0,0.047144,-0.01267,0,-0.0017886,0,0,0,0.056164,0.010133,0.019889,-0.85642,0.028729,0.042011,3.1269e-06,0.2,0.54,0
0.0095385,-0.00054593,0.05648,0.0091511,0.019689,-0.0006231,0,0,0.047828,-0.0137,0,-0.0016201,0,0,0,0.056488,0.0091429,0.019689,-0.75415,0.02844,0.043052,3.284e-06,0.22,0.54,0
0.010502,-0.0005846,0.056773,0.008215,0.019496,-0.00055719,0,0,0.04846,-0.014666,0,-0.0014487,0,0,0,0.056779,0.0082086,0.019496,-0.65734,0.028161,0.044026,3.4306e-06,0.24,0.54,0
0.011477,-0.0006207,0.057033,0.0073365,0.019311,-0.00049139,0,0,0.049039,-0.015567,0,-0.0012776,0,0,0,0.057038,0.0073316,0.019311,-0.56645,0.027894,0.044931,3.5662e-06,0.26,0.54,0
0.012463,-0.00065419,0.057261,0.0065165,0.019133,-0.00042679,0,0,0.049566,-0.016402,0,-0.0011097,0,0,0,0.057265,0.0065129,0.019133,-0.48184,0.027637,0.045766,3.6901e-06,0.28,0.54,0
0.013459,-0.00068508,0.057457,0.0057552,0.018964,-0.00036431,0,0,0.050041,-0.017171,0,-0.00094721,0,0,0,0.05746,0.0057526,0.018964,-0.4037,0.027392,0.04653,3.8023e-06,0.3,0.54,0
0.014465,-0.0007134,0.057623,0.0050519,0.018802,-0.00030473,0,0,0.050466,-0.017876,0,-0.0007923,0,0,0,0.057624,0.0050501,0.018802,-0.3321,0.027159,0.047225,3.9026e-06,0.32,0.54,0
0.015478,-0.00073922,0.057759,0.0044052,0.018649,-0.00024864,0,0,0.050843,-0.018517,0,-0.00064648,0,0,0,0.05776,0.004404,0.018649,-0.26701,0.026938,0.047851,3.9915e-06,0.34,0.54,0
0.016499,-0.00076263,0.057869,0.0038134,0.018505,-0.0001965,0,0,0.051173,-0.019099,0,-0.00051091,0,0,0,0.05787,0.0038127,0.018505,-0.20828,0.026729,0.048413,4.0694e-06,0.36,0.54,0
0.017525,-0.00078375,0.057954,0.0032742,0.018368,-0.0001486,0,0,0.051461,-0.019622,0,-0.00038637,0,0,0,0.057954,0.0032738,0.018368,-0.15571,0.026532,0.048912,4.1367e-06,0.38,0.54,0
0.018557,-0.00080268,0.058016,0.002785,0.01824,-0.00010511,0,0,0.051708,-0.020092,0,-0.00027328,0,0,0,0.058016,0.0027849,0.01824,-0.10904,0.026347,0.049353,4.1943e-06,0.4,0.54,0
0.019593,-0.00081958,0.058058,0.0023432,0.01812,-6.6065e-05,0,0,0.051918,-0.02051,0,-0.00017177,0,0,0,0.058058,0.0023431,0.01812,-0.06794,0.026174,0.049739,4.2427e-06,0.42,0.54,0
0.020634,-0.00083456,0.058081,0.0019457,0.018008,-3.1434e-05,0,0,0.052095,-0.020881,0,-8.1727e-05,0,0,0,0.058081,0.0019457,0.018008,-0.032083,0.026012,0.050075,4.2829e-06,0.44,0.54,0
0.021677,-0.00084778,0.058088,0.0015897,0.017903,-1.0932e-06,0,0,0.052241,-0.021208,0,-2.8423e-06,0,0,0,0.058088,0.0015897,0.017903,-0.0011086,0.025861,0.050364,4.3155e-06,0.46,0.54,0
0.022723,-0.00085938,0.058082,0.001272,0.017806,2.5135e-05,0,0,0.052358,-0.021494,0,6.535e-05,0,0,0,0.058082,0.001272,0.017806,0.02535,0.02572,0.050611,4.3413e-06,0.48,0.54,0
0.023772,-0.00086949,0.058063,0.00098974,0.017716,4.7472e-05,0,0,0.052452,-0.021744,0,0.00012343,0,0,0,0.058063,0.0009897,0.017716,0.047656,0.02559,0.050819,4.3612e-06,0.5,0.54,0
0.024821,-0.00087825,0.058035,0.00073997,0.017632,6.6167e-05,0,0,0.052523,-0.02196,0,0.00017203,0,0,0,0.058035,0.00073989,0.017632,0.066169,0.025469,0.050992,4.3758e-06,0.52,0.54,0
0.025872,-0.00088578,0.057998,0.00051989,0.017555,8.1491e-05,0,0,0.052575,-0.022146,0,0.00021188,0,0,0,0.057998,0.00051977,0.017555,0.081232,0.025358,0.051135,4.3858e-06,0.54,0.54,0
0.026924,-0.00089222,0.057954,0.0003268,0.017484,9.3717e-05,0,0,0.052611,-0.022305,0,0.00024366,0,0,0,0.057954,0.00032665,0.017484,0.093178,0.025255,0.05125,4.3919e-06,0.56,0.54,0
0.027977,-0.00089767,0.057905,0.00015816,0.017419,0.00010312,0,0,0.052632,-0.022439,0,0.00026812,0,0,0,0.057905,0.00015797,0.017419,0.10232,0.025161,0.051341,4.3946e-06,0.58,0.54,0
0.02903,-0.00090225,0.057852,1.1541e-05,0.017359,0.00010998,0,0,0.052641,-0.022552,0,0.00028594,0,0,0,0.057852,1.1332e-05,0.017359,0.10894,0.025074,0.051411,4.3945e-06,0.6,0.54,0
0.030083,-0.00090606,0.057796,-0.00011531,0.017304,0.00011454,0,0,0.052639,-0.022645,0,0.00029781,0,0,0,0.057796,-0.00011553,0.017304,0.11332,0.024995,0.051463,4.3921e-06,0.62,0.54,0
0.031135,-0.00090918,0.057738,-0.0002245,0.017254,0.00011707,0,0,0.05263,-0.022722,0,0.00030437,0,0,0,0.057739,-0.00022474,0.017254,0.11572,0.024923,0.051499,4.3878e-06,0.64,0.54,0
0.032188,-0.00091172,0.05768,-0.00031799,0.017209,0.00011778,0,0,0.052613,-0.022785,0,0.00030622,0,0,0,0.05768,-0.00031823,0.017209,0.11635,0.024857,0.051522,4.3821e-06,0.66,0.54,0
0.03324,-0.00091375,0.057622,-0.00039758,0.017167,0.00011689,0,0,0.052591,-0.022834,0,0.00030392,0,0,0,0.057622,-0.00039782,0.017167,0.11543,0.024797,0.051534,4.3752e-06,0.68,0.54,0
0.034291,-0.00091533,0.057564,-0.00046494,0.01713,0.00011461,0,0,0.052565,-0.022873,0,0.00029799,0,0,0,0.057565,-0.00046517,0.01713,0.11316,0.024743,0.051536,4.3675e-06,0.7,0.54,0
0.035342,-0.00091655,0.057508,-0.00052157,0.017096,0.00011111,0,0,0.052536,-0.022903,0,0.00028889,0,0,0,0.057509,-0.00052178,0.017096,0.1097,0.024694,0.051532,4.3593e-06,0.72,0.54,0
0.036393,-0.00091745,0.057455,-0.00056886,0.017066,0.00010655,0,0,0.052505,-0.022925,0,0.00027704,0,0,0,0.057455,-0.00056906,0.017066,0.10522,0.02465,0.051522,4.3508e-06,0.74,0.54,0
0.037443,-0.00091809,0.057403,-0.00060806,0.017039,0.00010109,0,0,0.052474,-0.022941,0,0.00026284,0,0,0,0.057403,-0.00060824,0.017039,0.099843,0.024611,0.051508,4.3422e-06,0.76,0.54,0
0.038492,-0.00091852,0.057355,-0.0006403,0.017014,9.4848e-05,0,0,0.052443,-0.022951,0,0.0002466,0,0,0,0.057355,-0.00064045,0.017014,0.093704,0.024576,0.05149,4.3338e-06,0.78,0.54,0
0.03954,-0.00091878,0.057309,-0.00066659,0.016993,8.7942e-05,0,0,0.052411,-0.022957,0,0.00022865,0,0,0,0.057309,-0.00066672,0.016993,0.08691,0.024545,0.051471,4.3256e-06,0.8,0.54,0
0.040588,-0.00091891,0.057268,-0.00068782,0.016974,8.0478e-05,0,0,0.052382,-0.02296,0,0.00020924,0,0,0,0.057268,-0.00068793,0.016974,0.079561,0.024518,0.051451,4.3179e-06,0.82,0.54,0
0.041636,-0.00091894,0.05723,-0.0007048,0.016958,7.2544e-05,0,0,0.052354,-0.022961,0,0.00018862,0,0,0,0.05723,-0.00070489,0.016958,0.071744,0.024494,0.051431,4.3107e-06,0.84,0.54,0
0.042682,-0.0009189,0.057196,-0.00071821,0.016943,6.4222e-05,0,0,0.052329,-0.02296,0,0.00016698,0,0,0,0.057196,-0.00071828,0.016943,0.063536,0.024474,0.051411,4.3041e-06,0.86,0.54,0
0.043729,-0.00091882,0.057166,-0.00072866,0.016931,5.5579e-05,0,0,0.052306,-0.022958,0,0.00014451,0,0,0,0.057166,-0.00072872,0.016931,0.055003,0.024456,0.051394,4.2983e-06,0.88,0.54,0
0.044775,-0.00091872,0.057141,-0.00073667,0.016921,4.6678e-05,0,0,0.052286,-0.022955,0,0.00012136,0,0,0,0.057141,-0.0007367,0.016921,0.046208,0.024442,0.051377,4.2932e-06,0.9,0.54,0
0.04582,-0.00091862,0.05712,-0.00074265,0.016913,3.7572e-05,0,0,0.052269,-0.022953,0,9.7687e-05,0,0,0,0.05712,-0.00074267,0.016913,0.037204,0.02443,0.051364,4.289e-06,0.92,0.54,0
0.046865,-0.00091852,0.057104,-0.00074695,0.016907,2.831e-05,0,0,0.052256,-0.02295,0,7.3605e-05,0,0,0,0.057104,-0.00074696,0.016907,0.028038,0.024421,0.051353,4.2857e-06,0.94,0.54,0
0.04791,-0.00091844,0.057092,-0.00074983,0.016903,1.8934e-05,0,0,0.052246,-0.022948,0,4.9229e-05,0,0,0,0.057092,-0.00074984,0.016903,0.018755,0.024415,0.051345,4.2833e-06,0.96,0.54,0
0.048955,-0.00091839,0.057085,-0.00075149,0.0169,9.4852e-06,0,0,0.052241,-0.022947,0,2.4662e-05,0,0,0,0.057085,-0.00075149,0.0169,0.0093965,0.024411,0.05134,4.2818e-06,0.98,0.54,0
0.05,-0.00091838,0.057083,-0.00075203,0.016899,3.2527e-07,0,0,0.052239,-0.022947,0,8.4571e-07,0,0,0,0.057083,-0.00075203,0.016899,0.00032224,0.02441,0.051338,4.2813e-06,1,0.54,0
0,0,0.052223,0.022381,0.022381,-0.0015579,0,0,0.038795,-5.421e-20,0,-0.0040504,0,0,0,0.052305,0.0223,0.022381,-2.9803,0.032329,0.029964,1.3817e-06,0,0.56,0
0.00077589,-8.1009e-05,0.052092,0.020827,0.021876,-0.001553,0,0,0.039281,-0.0013632,0,-0.0040379,0,0,0,0.052168,0.02075,0.021876,-2.8368,0.031598,0.030871,1.5043e-06,0.02,0.56,0
0.0015712,-0.00016214,0.05261,0.019548,0.021648,-0.0015414,0,0,0.040252,-0.0027292,0,-0.0040077,0,0,0,0.052682,0.019476,0.021648,-2.6636,0.031269,0.032175,1.6845e-06,0.04,0.56,0
0.0023859,-0.00024292,0.053123,0.018272,0.021419,-0.0015171,0,0,0.041215,-0.0040899,0,-0.0039444,0,0,0,0.053188,0.018207,0.021419,-2.4879,0.030938,0.033492,1.8697e-06,0.06,0.56,0
0.0032198,-0.00032287,0.053624,0.017008,0.02119,-0.0014798,0,0,0.042165,-0.0054365,0,-0.0038475,0,0,0,0.053684,0.016948,0.02119,-2.3105,0.030607,0.03481,2.0583e-06,0.08,0.56,0
0.0040726,-0.0004015,0.054111,0.015762,0.020962,-0.0014298,0,0,0.043094,-0.0067601,0,-0.0037176,0,0,0,0.054164,0.015708,0.020962,-2.1323,0.030278,0.036117,2.248e-06,0.1,0.56,0
0.0049436,-0.0004783,0.054578,0.014542,0.020736,-0.0013679,0,0,0.043995,-0.0080522,0,-0.0035566,0,0,0,0.054625,0.014495,0.020736,-1.9546,0.029952,0.037401,2.4369e-06,0.12,0.56,0
0.0058323,-0.00055283,0.055022,0.013356,0.020513,-0.0012953,0,0,0.044861,-0.0093045,0,-0.0033677,0,0,0,0.055062,0.013316,0.020513,-1.7789,0.02963,0.038653,2.6228e-06,0.14,0.56,0
0.006738,-0.00062467,0.055439,0.01221,0.020295,-0.0012134,0,0,0.045688,-0.01051,0,-0.0031549,0,0,0,0.055473,0.012176,0.020295,-1.6066,0.029315,0.039863,2.8038e-06,0.16,0.56,0
0.0076598,-0.00069343,0.055827,0.011111,0.020081,-0.0011242,0,0,0.046469,-0.011662,0,-0.0029228,0,0,0,0.055855,0.011083,0.020081,-1.4392,0.029006,0.04102,2.978e-06,0.18,0.56,0
0.0085968,-0.00075883,0.056183,0.010062,0.019874,-0.0010295,0,0,0.047203,-0.012755,0,-0.0026767,0,0,0,0.056206,0.010039,0.019874,-1.2781,0.028706,0.04212,3.1439e-06,0.2,0.56,0
0.0095479,-0.00082061,0.056507,0.0090682,0.019672,-0.00093137,0,0,0.047884,-0.013785,0,-0.0024216,0,0,0,0.056525,0.0090499,0.019672,-1.1243,0.028416,0.043156,3.3e-06,0.22,0.56,0
0.010512,-0.0008786,0.056796,0.0081316,0.019478,-0.00083178,0,0,0.048513,-0.014751,0,-0.0021626,0,0,0,0.05681,0.0081174,0.019478,-0.97892,0.028135,0.044124,3.4455e-06,0.24,0.56,0
0.011489,-0.0009327,0.057052,0.0072541,0.019292,-0.00073253,0,0,0.049089,-0.015649,0,-0.0019046,0,0,0,0.057063,0.0072434,0.019292,-0.84257,0.027866,0.045021,3.5797e-06,0.26,0.56,0
0.012476,-0.00098285,0.057275,0.0064365,0.019114,-0.00063524,0,0,0.04961,-0.01648,0,-0.0016516,0,0,0,0.057283,0.0064285,0.019114,-0.71577,0.027609,0.045848,3.702e-06,0.28,0.56,0
0.013473,-0.0010291,0.057466,0.0056785,0.018943,-0.00054131,0,0,0.05008,-0.017244,0,-0.0014074,0,0,0,0.057472,0.0056729,0.018943,-0.5988,0.027363,0.046603,3.8124e-06,0.3,0.56,0
0.014479,-0.0010715,0.057627,0.0049794,0.018782,-0.00045189,0,0,0.050498,-0.017943,0,-0.0011749,0,0,0,0.057631,0.0049755,0.018782,-0.49174,0.027129,0.047288,3.9109e-06,0.32,0.56,0
0.015493,-0.0011101,0.057758,0.0043375,0.018629,-0.00036785,0,0,0.050868,-0.018579,0,-0.00095641,0,0,0,0.057761,0.004335,0.018629,-0.39451,0.026908,0.047906,3.998e-06,0.34,0.56,0
0.016514,-0.001145,0.057863,0.003751,0.018484,-0.00028985,0,0,0.051192,-0.019153,0,-0.0007536,0,0,0,0.057864,0.0037494,0.018484,-0.30689,0.026699,0.048458,4.074e-06,0.36,0.56,0
0.017541,-0.0011766,0.057943,0.0032173,0.018348,-0.0002183,0,0,0.051473,-0.01967,0,-0.00056758,0,0,0,0.057944,0.0032164,0.018348,-0.22855,0.026503,0.048948,4.1397e-06,0.38,0.56,0
0.018573,-0.0012048,0.058001,0.0027338,0.01822,-0.00015343,0,0,0.051714,-0.020133,0,-0.00039892,0,0,0,0.058001,0.0027334,0.01822,-0.15906,0.026318,0.049381,4.1956e-06,0.4,0.56,0
0.019609,-0.00123,0.058038,0.0022976,0.018101,-9.5294e-05,0,0,0.051919,-0.020544,0,-0.00024776,0,0,0,0.058039,0.0022974,0.018101,-0.097951,0.026146,0.049759,4.2425e-06,0.42,0.56,0
0.020649,-0.0012524,0.058058,0.0019056,0.017989,-4.38e-05,0,0,0.05209,-0.020909,0,-0.00011388,0,0,0,0.058058,0.0019056,0.017989,-0.044692,0.025984,0.050087,4.2813e-06,0.44,0.56,0
0.021693,-0.0012721,0.058063,0.0015548,0.017885,1.2465e-06,0,0,0.052231,-0.021229,0,3.2409e-06,0,0,0,0.058063,0.0015548,0.017885,0.0012639,0.025834,0.050369,4.3127e-06,0.46,0.56,0
0.022739,-0.0012894,0.058053,0.0012422,0.017789,4.0129e-05,0,0,0.052344,-0.02151,0,0.00010433,0,0,0,0.058053,0.0012421,0.017789,0.040471,0.025695,0.050609,4.3375e-06,0.48,0.56,0
0.023786,-0.0013045,0.058033,0.00096457,0.017699,7.319e-05,0,0,0.052434,-0.021755,0,0.00019029,0,0,0,0.058033,0.00096448,0.017699,0.073481,0.025566,0.050812,4.3564e-06,0.5,0.56,0
0.024836,-0.0013175,0.058002,0.00071917,0.017616,0.00010081,0,0,0.052502,-0.021966,0,0.00026212,0,0,0,0.058002,0.00071899,0.017616,0.10084,0.025446,0.05098,4.3702e-06,0.52,0.56,0
0.025886,-0.0013287,0.057964,0.0005031,0.01754,0.00012341,0,0,0.052551,-0.022148,0,0.00032086,0,0,0,0.057964,0.00050284,0.01754,0.12305,0.025336,0.051118,4.3796e-06,0.54,0.56,0
0.026938,-0.0013383,0.057919,0.00031368,0.01747,0.00014139,0,0,0.052584,-0.022303,0,0.00036763,0,0,0,0.057919,0.00031334,0.01747,0.14063,0.025234,0.05123,4.3851e-06,0.56,0.56,0
0.02799,-0.0013464,0.057869,0.00014836,0.017405,0.00015519,0,0,0.052603,-0.022434,0,0.00040348,0,0,0,0.05787,0.00014794,0.017405,0.15404,0.025141,0.051318,4.3874e-06,0.58,0.56,0
0.029042,-0.0013532,0.057816,4.7307e-06,0.017346,0.00016519,0,0,0.052611,-0.022544,0,0.0004295,0,0,0,0.057816,4.2586e-06,0.017346,0.16372,0.025056,0.051385,4.387e-06,0.6,0.56,0
0.030094,-0.0013589,0.05776,-0.00011945,0.017292,0.0001718,0,0,0.052608,-0.022635,0,0.00044668,0,0,0,0.057761,-0.00011996,0.017292,0.17006,0.024978,0.051435,4.3844e-06,0.62,0.56,0
0.031146,-0.0013635,0.057703,-0.00022627,0.017243,0.00017538,0,0,0.052598,-0.02271,0,0.00045599,0,0,0,0.057703,-0.0002268,0.017243,0.17346,0.024906,0.051469,4.3799e-06,0.64,0.56,0
0.032198,-0.0013673,0.057645,-0.00031767,0.017198,0.00017628,0,0,0.052581,-0.02277,0,0.00045834,0,0,0,0.057645,-0.00031821,0.017198,0.17425,0.024842,0.051491,4.3741e-06,0.66,0.56,0
0.03325,-0.0013703,0.057587,-0.00039543,0.017157,0.00017483,0,0,0.052558,-0.022819,0,0.00045454,0,0,0,0.057587,-0.00039595,0.017157,0.17275,0.024783,0.051501,4.3672e-06,0.68,0.56,0
0.0343,-0.0013727,0.05753,-0.00046118,0.017121,0.0001713,0,0,0.052532,-0.022856,0,0.00044538,0,0,0,0.05753,-0.00046168,0.017121,0.16924,0.02473,0.051503,4.3595e-06,0.7,0.56,0
0.035351,-0.0013745,0.057475,-0.00051642,0.017087,0.00016598,0,0,0.052503,-0.022885,0,0.00043154,0,0,0,0.057475,-0.00051689,0.017087,0.16398,0.024682,0.051498,4.3513e-06,0.72,0.56,0
0.036401,-0.0013758,0.057422,-0.00056251,0.017058,0.00015909,0,0,0.052473,-0.022906,0,0.00041365,0,0,0,0.057422,-0.00056295,0.017058,0.15721,0.024639,0.051488,4.3429e-06,0.74,0.56,0
0.03745,-0.0013767,0.057371,-0.00060068,0.017031,0.00015087,0,0,0.052442,-0.022921,0,0.00039227,0,0,0,0.057371,-0.00060107,0.017031,0.14911,0.0246,0.051473,4.3344e-06,0.76,0.56,0
0.038498,-0.0013774,0.057323,-0.00063204,0.017007,0.00014151,0,0,0.05241,-0.022931,0,0.00036792,0,0,0,0.057323,-0.00063239,0.017007,0.1399,0.024566,0.051456,4.3261e-06,0.78,0.56,0
0.039546,-0.0013778,0.057279,-0.00065759,0.016986,0.00013117,0,0,0.05238,-0.022937,0,0.00034103,0,0,0,0.057279,-0.00065788,0.016986,0.12971,0.024536,0.051437,4.318e-06,0.8,0.56,0
0.040593,-0.0013779,0.057238,-0.00067819,0.016968,0.00012,0,0,0.052351,-0.02294,0,0.000312,0,0,0,0.057238,-0.00067844,0.016968,0.11872,0.024509,0.051417,4.3104e-06,0.82,0.56,0
0.04164,-0.001378,0.057201,-0.00069465,0.016952,0.00010815,0,0,0.052323,-0.02294,0,0.00028118,0,0,0,0.057201,-0.00069485,0.016952,0.10703,0.024486,0.051397,4.3033e-06,0.84,0.56,0
0.042687,-0.0013779,0.057167,-0.00070763,0.016938,9.5721e-05,0,0,0.052298,-0.022939,0,0.00024888,0,0,0,0.057167,-0.00070779,0.016938,0.094763,0.024466,0.051378,4.2969e-06,0.86,0.56,0
0.043732,-0.0013778,0.057138,-0.00071774,0.016926,8.2827e-05,0,0,0.052276,-0.022937,0,0.00021535,0,0,0,0.057138,-0.00071785,0.016926,0.082024,0.024449,0.05136,4.2911e-06,0.88,0.56,0
0.044777,-0.0013777,0.057113,-0.00072546,0.016916,6.9552e-05,0,0,0.052256,-0.022934,0,0.00018084,0,0,0,0.057113,-0.00072554,0.016916,0.068899,0.024435,0.051344,4.2861e-06,0.9,0.56,0
0.045822,-0.0013775,0.057093,-0.00073122,0.016908,5.5978e-05,0,0,0.05224,-0.022932,0,0.00014554,0,0,0,0.057093,-0.00073128,0.016908,0.055467,0.024423,0.05133,4.282e-06,0.92,0.56,0
0.046867,-0.0013774,0.057077,-0.00073536,0.016903,4.2175e-05,0,0,0.052227,-0.022929,0,0.00010966,0,0,0,0.057077,-0.00073539,0.016903,0.041798,0.024415,0.051319,4.2787e-06,0.94,0.56,0
0.047912,-0.0013772,0.057066,-0.00073813,0.016898,2.8206e-05,0,0,0.052218,-0.022927,0,7.3336e-05,0,0,0,0.057066,-0.00073814,0.016898,0.027958,0.024409,0.051312,4.2764e-06,0.96,0.56,0
0.048956,-0.0013772,0.057059,-0.00073972,0.016896,1.413e-05,0,0,0.052212,-0.022926,0,3.6737e-05,0,0,0,0.057059,-0.00073972,0.016896,0.014007,0.024405,0.051307,4.275e-06,0.98,0.56,0
0.05,-0.0013771,0.057056,-0.00074024,0.016895,4.8838e-07,0,0,0.05221,-0.022926,0,1.2698e-06,0,0,0,0.057056,-0.00074024,0.016895,0.00048414,0.024404,0.051305,4.2745e-06,1,0.56,0
0,0,0.052248,0.022392,0.022392,-0.0020846,0,0,0.038813,3.2526e-19,0,-0.0054199,0,0,0,0.052393,0.022247,0.022392,-3.9747,0.032344,0.030074,1.3969e-06,0,0.58,0
0.00077626,-0.0001084,0.052115,0.020821,0.021881,-0.002078,0,0,0.039304,-0.0013778,0,-0.0054029,0,0,0,0.052252,0.020684,0.021881,-3.7825,0.031606,0.030988,1.5205e-06,0.02,0.58,0
0.0015722,-0.00021698,0.052639,0.019527,0.02165,-0.0020625,0,0,0.040286,-0.0027596,0,-0.0053624,0,0,0,0.052767,0.019399,0.02165,-3.5505,0.031272,0.032301,1.7026e-06,0.04,0.58,0
0.0023877,-0.00032512,0.053157,0.018236,0.021418,-0.0020295,0,0,0.04126,-0.0041364,0,-0.0052768,0,0,0,0.053274,0.018118,0.021418,-3.315,0.030937,0.033628,1.8898e-06,0.06,0.58,0
0.0032226,-0.00043213,0.053663,0.016956,0.021186,-0.0019789,0,0,0.042221,-0.0054988,0,-0.0051451,0,0,0,0.053769,0.016849,0.021186,-3.077,0.030601,0.034954,2.08e-06,0.08,0.58,0
0.0040765,-0.00053735,0.054153,0.015695,0.020954,-0.001911,0,0,0.043159,-0.0068375,0,-0.0049685,0,0,0,0.054248,0.0156,0.020954,-2.8377,0.030267,0.036268,2.2712e-06,0.1,0.58,0
0.0049489,-0.00064012,0.054623,0.014462,0.020725,-0.0018268,0,0,0.044067,-0.008143,0,-0.0047497,0,0,0,0.054706,0.014379,0.020725,-2.599,0.029937,0.037558,2.4612e-06,0.12,0.58,0
0.0058392,-0.00073979,0.055068,0.013264,0.0205,-0.0017281,0,0,0.044939,-0.0094067,0,-0.004493,0,0,0,0.05514,0.013192,0.0205,-2.3631,0.029611,0.038813,2.6478e-06,0.14,0.58,0
0.0067465,-0.00083581,0.055486,0.012108,0.020278,-0.001617,0,0,0.04577,-0.010621,0,-0.0042041,0,0,0,0.055546,0.012048,0.020278,-2.1319,0.029291,0.040022,2.8289e-06,0.16,0.58,0
0.00767,-0.00092766,0.055872,0.011001,0.020062,-0.001496,0,0,0.046553,-0.011779,0,-0.0038897,0,0,0,0.055922,0.010951,0.020062,-1.9075,0.028978,0.041178,3.0028e-06,0.18,0.58,0
0.0086086,-0.0010149,0.056225,0.0099475,0.019852,-0.0013679,0,0,0.047285,-0.012876,0,-0.0035567,0,0,0,0.056266,0.0099071,0.019852,-1.6917,0.028675,0.042273,3.1678e-06,0.2,0.58,0
0.0095614,-0.0010973,0.056544,0.0089509,0.019649,-0.0012355,0,0,0.047965,-0.013907,0,-0.0032123,0,0,0,0.056576,0.0089189,0.019649,-1.486,0.028381,0.043301,3.3226e-06,0.22,0.58,0
0.010527,-0.0011746,0.056829,0.008014,0.019453,-0.0011014,0,0,0.048589,-0.014871,0,-0.0028636,0,0,0,0.056854,0.0079892,0.019453,-1.2918,0.028098,0.04426,3.4663e-06,0.24,0.58,0
0.011505,-0.0012467,0.057079,0.0071382,0.019265,-0.00096801,0,0,0.049158,-0.015765,0,-0.0025168,0,0,0,0.057097,0.0071195,0.019265,-1.11,0.027827,0.045148,3.5984e-06,0.26,0.58,0
0.012493,-0.0013134,0.057295,0.0063241,0.019086,-0.0008376,0,0,0.049672,-0.01659,0,-0.0021778,0,0,0,0.057308,0.0063103,0.019086,-0.9412,0.027568,0.045962,3.7184e-06,0.28,0.58,0
0.013492,-0.0013748,0.057479,0.005571,0.018915,-0.00071199,0,0,0.050133,-0.017347,0,-0.0018512,0,0,0,0.057488,0.0055613,0.018915,-0.78571,0.027321,0.046705,3.8262e-06,0.3,0.58,0
0.014499,-0.0014311,0.057631,0.004878,0.018753,-0.0005927,0,0,0.050542,-0.018037,0,-0.001541,0,0,0,0.057638,0.0048713,0.018753,-0.64362,0.027087,0.047377,3.9222e-06,0.32,0.58,0
0.015513,-0.0014824,0.057756,0.0042431,0.0186,-0.00048085,0,0,0.050903,-0.018663,0,-0.0012502,0,0,0,0.05776,0.0042387,0.0186,-0.51479,0.026866,0.047981,4.0067e-06,0.34,0.58,0
0.016535,-0.0015288,0.057853,0.003664,0.018455,-0.00037727,0,0,0.051217,-0.019228,0,-0.0009809,0,0,0,0.057856,0.0036614,0.018455,-0.39887,0.026658,0.04852,4.0802e-06,0.36,0.58,0
0.017562,-0.0015705,0.057927,0.0031382,0.018319,-0.00028247,0,0,0.05149,-0.019736,0,-0.00073443,0,0,0,0.057928,0.0031367,0.018319,-0.29539,0.026461,0.048997,4.1434e-06,0.38,0.58,0
0.018594,-0.001608,0.057978,0.0026627,0.018192,-0.00019671,0,0,0.051722,-0.020189,0,-0.00051144,0,0,0,0.057979,0.002662,0.018192,-0.20374,0.026278,0.049417,4.1971e-06,0.4,0.58,0
0.019631,-0.0016413,0.058011,0.0022343,0.018073,-0.00012,0,0,0.051918,-0.020591,0,-0.00031201,0,0,0,0.058011,0.0022341,0.018073,-0.12327,0.026106,0.049784,4.2419e-06,0.42,0.58,0
0.020671,-0.0016709,0.058026,0.0018501,0.017963,-5.2205e-05,0,0,0.052082,-0.020946,0,-0.00013573,0,0,0,0.058026,0.00185,0.017963,-0.053246,0.025946,0.050102,4.2788e-06,0.44,0.58,0
0.021714,-0.001697,0.058026,0.0015067,0.01786,6.9804e-06,0,0,0.052216,-0.021259,0,1.8149e-05,0,0,0,0.058026,0.0015067,0.01786,0.0070764,0.025797,0.050374,4.3085e-06,0.46,0.58,0
0.02276,-0.0017198,0.058013,0.001201,0.017764,5.7958e-05,0,0,0.052323,-0.021532,0,0.00015069,0,0,0,0.058013,0.0012009,0.017764,0.058452,0.025659,0.050606,4.3318e-06,0.48,0.58,0
0.023807,-0.0017397,0.057989,0.00092995,0.017676,0.00010121,0,0,0.052407,-0.02177,0,0.00026314,0,0,0,0.057989,0.00092977,0.017676,0.10163,0.025532,0.0508,4.3495e-06,0.5,0.58,0
0.024856,-0.0017569,0.057956,0.00069061,0.017594,0.00013725,0,0,0.052471,-0.021975,0,0.00035686,0,0,0,0.057957,0.00069028,0.017594,0.13733,0.025414,0.050962,4.3622e-06,0.52,0.58,0
0.025906,-0.0017717,0.057916,0.00048012,0.017519,0.00016666,0,0,0.052516,-0.02215,0,0.00043331,0,0,0,0.057917,0.00047964,0.017519,0.16625,0.025305,0.051095,4.3707e-06,0.54,0.58,0
0.026957,-0.0017843,0.05787,0.00029578,0.01745,0.00018998,0,0,0.052546,-0.0223,0,0.00049395,0,0,0,0.057871,0.00029516,0.01745,0.18906,0.025205,0.051201,4.3755e-06,0.56,0.58,0
0.028008,-0.001795,0.05782,0.00013506,0.017386,0.00020778,0,0,0.052563,-0.022427,0,0.00054024,0,0,0,0.05782,0.00013431,0.017386,0.20638,0.025114,0.051284,4.3773e-06,0.58,0.58,0
0.029059,-0.001804,0.057766,-4.4476e-06,0.017328,0.00022061,0,0,0.052568,-0.022533,0,0.00057359,0,0,0,0.057766,-5.29e-06,0.017328,0.21879,0.02503,0.051348,4.3764e-06,0.6,0.58,0
0.030111,-0.0018115,0.05771,-0.00012495,0.017275,0.00022898,0,0,0.052565,-0.022621,0,0.00059535,0,0,0,0.05771,-0.00012585,0.017275,0.22684,0.024953,0.051395,4.3735e-06,0.62,0.58,0
0.031162,-0.0018176,0.057652,-0.0002285,0.017227,0.00023338,0,0,0.052553,-0.022692,0,0.0006068,0,0,0,0.057653,-0.00022944,0.017227,0.23102,0.024884,0.051427,4.3688e-06,0.64,0.58,0
0.032213,-0.0018225,0.057595,-0.00031702,0.017183,0.00023428,0,0,0.052535,-0.02275,0,0.00060913,0,0,0,0.057596,-0.00031797,0.017183,0.23178,0.02482,0.051446,4.3629e-06,0.66,0.58,0
0.033263,-0.0018265,0.057538,-0.00039225,0.017144,0.00023209,0,0,0.052512,-0.022797,0,0.00060344,0,0,0,0.057539,-0.00039318,0.017144,0.22955,0.024763,0.051456,4.3559e-06,0.68,0.58,0
0.034313,-0.0018296,0.057482,-0.0004558,0.017108,0.00022721,0,0,0.052486,-0.022833,0,0.00059074,0,0,0,0.057483,-0.00045669,0.017108,0.22469,0.024711,0.051457,4.3483e-06,0.7,0.58,0
0.035363,-0.0018319,0.057427,-0.00050913,0.017076,0.00021998,0,0,0.052458,-0.02286,0,0.00057194,0,0,0,0.057428,-0.00050997,0.017076,0.21754,0.024665,0.051451,4.3402e-06,0.72,0.58,0
0.036412,-0.0018337,0.057375,-0.00055358,0.017046,0.00021072,0,0,0.052428,-0.02288,0,0.00054787,0,0,0,0.057376,-0.00055434,0.017046,0.20841,0.024623,0.05144,4.3319e-06,0.74,0.58,0
0.03746,-0.0018349,0.057326,-0.00059034,0.017021,0.00019972,0,0,0.052397,-0.022894,0,0.00051927,0,0,0,0.057326,-0.00059102,0.017021,0.19758,0.024585,0.051425,4.3235e-06,0.76,0.58,0
0.038508,-0.0018358,0.057279,-0.00062049,0.016998,0.00018723,0,0,0.052366,-0.022904,0,0.00048679,0,0,0,0.05728,-0.0006211,0.016998,0.18527,0.024552,0.051408,4.3154e-06,0.78,0.58,0
0.039554,-0.0018363,0.057236,-0.00064502,0.016977,0.00017347,0,0,0.052336,-0.022909,0,0.00045103,0,0,0,0.057236,-0.00064554,0.016977,0.17172,0.024523,0.051389,4.3075e-06,0.8,0.58,0
0.040601,-0.0018365,0.057196,-0.00066478,0.016959,0.00015865,0,0,0.052307,-0.022911,0,0.00041249,0,0,0,0.057196,-0.00066521,0.016959,0.1571,0.024497,0.051369,4.3e-06,0.82,0.58,0
0.041647,-0.0018365,0.05716,-0.00068052,0.016944,0.00014293,0,0,0.052281,-0.022912,0,0.00037163,0,0,0,0.05716,-0.00068087,0.016944,0.14159,0.024474,0.051349,4.2931e-06,0.84,0.58,0
0.042692,-0.0018365,0.057127,-0.00069292,0.01693,0.00012648,0,0,0.052256,-0.02291,0,0.00032884,0,0,0,0.057128,-0.00069319,0.01693,0.12533,0.024455,0.051331,4.2868e-06,0.86,0.58,0
0.043737,-0.0018363,0.057099,-0.00070254,0.016919,0.00010941,0,0,0.052234,-0.022908,0,0.00028448,0,0,0,0.057099,-0.00070275,0.016919,0.10846,0.024438,0.051313,4.2812e-06,0.88,0.58,0
0.044782,-0.0018361,0.057075,-0.00070989,0.01691,9.1863e-05,0,0,0.052215,-0.022905,0,0.00023884,0,0,0,0.057075,-0.00071003,0.01691,0.091085,0.024425,0.051297,4.2763e-06,0.9,0.58,0
0.045826,-0.0018359,0.057055,-0.00071535,0.016902,7.3924e-05,0,0,0.052199,-0.022902,0,0.0001922,0,0,0,0.057055,-0.00071544,0.016902,0.073316,0.024414,0.051284,4.2723e-06,0.92,0.58,0
0.04687,-0.0018357,0.05704,-0.00071927,0.016896,5.569e-05,0,0,0.052187,-0.0229,0,0.00014479,0,0,0,0.05704,-0.00071932,0.016896,0.055243,0.024406,0.051273,4.2691e-06,0.94,0.58,0
0.047913,-0.0018355,0.057029,-0.00072189,0.016892,3.7241e-05,0,0,0.052178,-0.022898,0,9.6828e-05,0,0,0,0.057029,-0.00072191,0.016892,0.036948,0.0244,0.051266,4.2668e-06,0.96,0.58,0
0.048957,-0.0018354,0.057022,-0.00072339,0.01689,1.8655e-05,0,0,0.052172,-0.022897,0,4.8503e-05,0,0,0,0.057022,-0.00072339,0.01689,0.01851,0.024396,0.051261,4.2655e-06,0.98,0.58,0
0.05,-0.0018354,0.05702,-0.00072388,0.016889,6.5169e-07,0,0,0.05217,-0.022896,0,1.6944e-06,0,0,0,0.05702,-0.00072388,0.016889,0.00064663,0.024395,0.051259,4.265e-06,1,0.58,0
0,0,0.052282,0.022406,0.022406,-0.0026177,0,0,0.038838,1.6263e-19,0,-0.0068062,0,0,0,0.052509,0.022179,0.022406,-4.9699,0.032365,0.030217,1.4168e-06,0,0.6,0
0.00077676,-0.00013612,0.052147,0.020813,0.021888,-0.0026095,0,0,0.039336,-0.0013972,0,-0.0067846,0,0,0,0.052362,0.020597,0.021888,-4.7282,0.031616,0.03114,1.5419e-06,0.02,0.6,0
0.0015734,-0.00027252,0.052678,0.0195,0.021653,-0.0025898,0,0,0.040332,-0.0027996,0,-0.0067336,0,0,0,0.052879,0.019299,0.021653,-4.4366,0.031277,0.032467,1.7266e-06,0.04,0.6,0
0.00239,-0.00040838,0.053202,0.018188,0.021417,-0.0025478,0,0,0.041321,-0.0041977,0,-0.0066244,0,0,0,0.053387,0.018004,0.021417,-4.1402,0.030936,0.033806,1.9162e-06,0.06,0.6,0
0.0032263,-0.00054283,0.053714,0.016887,0.021181,-0.002483,0,0,0.042294,-0.0055811,0,-0.0064559,0,0,0,0.053881,0.016721,0.021181,-3.84,0.030594,0.035143,2.1087e-06,0.08,0.6,0
0.0040818,-0.000675,0.05421,0.015607,0.020945,-0.0023959,0,0,0.043244,-0.0069395,0,-0.0062295,0,0,0,0.054358,0.015459,0.020945,-3.5381,0.030254,0.036467,2.3018e-06,0.1,0.6,0
0.004956,-0.00080402,0.054683,0.014356,0.020712,-0.002288,0,0,0.044163,-0.0082625,0,-0.0059489,0,0,0,0.054812,0.014226,0.020712,-3.2369,0.029917,0.037763,2.4931e-06,0.12,0.6,0
0.0058483,-0.0009291,0.05513,0.013142,0.020482,-0.0021615,0,0,0.045042,-0.009541,0,-0.00562,0,0,0,0.055241,0.013031,0.020482,-2.9393,0.029585,0.039021,2.6805e-06,0.14,0.6,0
0.0067577,-0.0010495,0.055546,0.011974,0.020256,-0.0020194,0,0,0.045877,-0.010767,0,-0.0052505,0,0,0,0.05564,0.011881,0.020256,-2.6479,0.029259,0.040231,2.8617e-06,0.16,0.6,0
0.0076834,-0.0011646,0.055931,0.010858,0.020036,-0.001865,0,0,0.046662,-0.011932,0,-0.004849,0,0,0,0.056008,0.010781,0.020036,-2.3654,0.028942,0.041383,3.035e-06,0.18,0.6,0
0.0086242,-0.0012738,0.05628,0.0097979,0.019823,-0.0017019,0,0,0.047393,-0.013033,0,-0.004425,0,0,0,0.056342,0.0097357,0.019823,-2.0941,0.028634,0.042471,3.1987e-06,0.2,0.6,0
0.0095791,-0.0013769,0.056593,0.0087983,0.019617,-0.0015338,0,0,0.048068,-0.014065,0,-0.0039878,0,0,0,0.056642,0.0087491,0.019617,-1.8361,0.028336,0.04349,3.3517e-06,0.22,0.6,0
0.010547,-0.0014734,0.05687,0.0078613,0.019419,-0.001364,0,0,0.048686,-0.015026,0,-0.0035463,0,0,0,0.056908,0.0078234,0.019419,-1.5929,0.02805,0.044436,3.493e-06,0.24,0.6,0
0.011527,-0.0015633,0.057112,0.0069882,0.01923,-0.0011956,0,0,0.049246,-0.015914,0,-0.0031087,0,0,0,0.05714,0.0069597,0.01923,-1.3657,0.027776,0.045309,3.6222e-06,0.26,0.6,0
0.012517,-0.0016465,0.057319,0.0061789,0.019049,-0.0010316,0,0,0.04975,-0.016731,0,-0.0026821,0,0,0,0.057339,0.0061581,0.019049,-1.1551,0.027515,0.046108,3.7391e-06,0.28,0.6,0
0.013517,-0.001723,0.057493,0.0054326,0.018878,-0.00087405,0,0,0.0502,-0.017478,0,-0.0022725,0,0,0,0.057507,0.0054179,0.018878,-0.9616,0.027268,0.046833,3.8437e-06,0.3,0.6,0
0.014525,-0.0017929,0.057636,0.0047477,0.018715,-0.0007249,0,0,0.050597,-0.018158,0,-0.0018847,0,0,0,0.057646,0.0047378,0.018715,-0.78512,0.027033,0.047488,3.9362e-06,0.32,0.6,0
0.01554,-0.0018566,0.057751,0.0041221,0.018562,-0.00058549,0,0,0.050945,-0.018772,0,-0.0015223,0,0,0,0.057757,0.0041157,0.018562,-0.62543,0.026811,0.048075,4.0173e-06,0.34,0.6,0
0.016563,-0.0019142,0.057839,0.003553,0.018418,-0.00045676,0,0,0.051248,-0.019324,0,-0.0011876,0,0,0,0.057843,0.0035491,0.018418,-0.48204,0.026603,0.048597,4.0876e-06,0.36,0.6,0
0.01759,-0.001966,0.057904,0.0030374,0.018282,-0.00033928,0,0,0.051508,-0.019818,0,-0.00088214,0,0,0,0.057906,0.0030353,0.018282,-0.35429,0.026408,0.049058,4.1477e-06,0.38,0.6,0
0.018623,-0.0020124,0.057948,0.0025722,0.018156,-0.0002333,0,0,0.051729,-0.020259,0,-0.00060657,0,0,0,0.057949,0.0025713,0.018156,-0.24138,0.026225,0.049462,4.1984e-06,0.4,0.6,0
0.019659,-0.0020537,0.057973,0.0021541,0.018038,-0.00013876,0,0,0.051915,-0.020649,0,-0.00036079,0,0,0,0.057973,0.0021538,0.018038,-0.14243,0.026055,0.049814,4.2406e-06,0.42,0.6,0
0.020699,-0.0020903,0.057982,0.0017798,0.017928,-5.5432e-05,0,0,0.052069,-0.020993,0,-0.00014412,0,0,0,0.057982,0.0017797,0.017928,-0.056511,0.025897,0.050118,4.2751e-06,0.44,0.6,0
0.021742,-0.0021225,0.057976,0.0014459,0.017827,1.712e-05,0,0,0.052195,-0.021295,0,4.4512e-05,0,0,0,0.057976,0.0014459,0.017827,0.017352,0.02575,0.050379,4.3027e-06,0.46,0.6,0
0.022787,-0.0021507,0.057959,0.0011492,0.017733,7.9438e-05,0,0,0.052295,-0.021558,0,0.00020654,0,0,0,0.057959,0.001149,0.017733,0.080117,0.025614,0.050599,4.3241e-06,0.48,0.6,0
0.023834,-0.0021752,0.057932,0.00088649,0.017645,0.00013215,0,0,0.052372,-0.021787,0,0.0003436,0,0,0,0.057932,0.00088618,0.017645,0.13273,0.025488,0.050784,4.3402e-06,0.5,0.6,0
0.024882,-0.0021965,0.057896,0.00065487,0.017565,0.00017595,0,0,0.05243,-0.021983,0,0.00045748,0,0,0,0.057896,0.00065433,0.017565,0.17612,0.025372,0.050937,4.3516e-06,0.52,0.6,0
0.025931,-0.0022147,0.057854,0.00045146,0.017492,0.00021155,0,0,0.052471,-0.022152,0,0.00055002,0,0,0,0.057855,0.00045068,0.017492,0.21115,0.025266,0.051062,4.359e-06,0.54,0.6,0
0.026981,-0.0022303,0.057806,0.00027356,0.017424,0.00023965,0,0,0.052497,-0.022295,0,0.00062309,0,0,0,0.057807,0.00027257,0.017424,0.23866,0.025168,0.051162,4.363e-06,0.56,0.6,0
0.028031,-0.0022435,0.057755,0.00011865,0.017362,0.00026097,0,0,0.052511,-0.022416,0,0.00067852,0,0,0,0.057756,0.00011747,0.017362,0.25942,0.025078,0.051241,4.364e-06,0.58,0.6,0
0.029081,-0.0022545,0.0577,-1.5644e-05,0.017305,0.00027619,0,0,0.052513,-0.022517,0,0.00071809,0,0,0,0.057702,-1.6966e-05,0.017305,0.27417,0.024997,0.0513,4.3627e-06,0.6,0.6,0
0.030132,-0.0022637,0.057645,-0.0001315,0.017254,0.00028595,0,0,0.052508,-0.022601,0,0.00074348,0,0,0,0.057646,-0.00013291,0.017254,0.28357,0.024922,0.051343,4.3594e-06,0.62,0.6,0
0.031182,-0.0022712,0.057588,-0.00023094,0.017207,0.00029087,0,0,0.052495,-0.022669,0,0.00075627,0,0,0,0.057589,-0.0002324,0.017207,0.28823,0.024855,0.051372,4.3545e-06,0.64,0.6,0
0.032232,-0.0022773,0.057531,-0.00031584,0.017164,0.00029152,0,0,0.052476,-0.022725,0,0.00075794,0,0,0,0.057532,-0.00031731,0.017164,0.28873,0.024793,0.051389,4.3484e-06,0.66,0.6,0
0.033281,-0.0022822,0.057475,-0.0003879,0.017126,0.0002884,0,0,0.052453,-0.022768,0,0.00074984,0,0,0,0.057476,-0.00038933,0.017126,0.28557,0.024738,0.051397,4.3415e-06,0.68,0.6,0
0.03433,-0.002286,0.05742,-0.00044869,0.017091,0.00028201,0,0,0.052427,-0.022802,0,0.00073322,0,0,0,0.057421,-0.00045006,0.017091,0.27921,0.024688,0.051397,4.3339e-06,0.7,0.6,0
0.035378,-0.0022889,0.057367,-0.00049963,0.01706,0.00027277,0,0,0.052399,-0.022828,0,0.0007092,0,0,0,0.057368,-0.00050091,0.01706,0.27007,0.024643,0.051391,4.3259e-06,0.72,0.6,0
0.036426,-0.002291,0.057316,-0.00054202,0.017032,0.00026107,0,0,0.052369,-0.022847,0,0.00067879,0,0,0,0.057317,-0.00054319,0.017032,0.25853,0.024602,0.051379,4.3178e-06,0.74,0.6,0
0.037473,-0.0022925,0.057268,-0.00057702,0.017007,0.00024726,0,0,0.052339,-0.02286,0,0.00064289,0,0,0,0.057269,-0.00057807,0.017007,0.24491,0.024566,0.051364,4.3096e-06,0.76,0.6,0
0.038519,-0.0022935,0.057223,-0.00060568,0.016985,0.00023166,0,0,0.052309,-0.022868,0,0.00060231,0,0,0,0.057224,-0.0006066,0.016985,0.22952,0.024534,0.051347,4.3017e-06,0.78,0.6,0
0.039565,-0.0022941,0.057181,-0.00062894,0.016966,0.00021452,0,0,0.05228,-0.022873,0,0.00055776,0,0,0,0.057182,-0.00062973,0.016966,0.21261,0.024506,0.051328,4.294e-06,0.8,0.6,0
0.04061,-0.0022944,0.057142,-0.00064763,0.016948,0.0001961,0,0,0.052252,-0.022875,0,0.00050987,0,0,0,0.057143,-0.00064829,0.016948,0.19442,0.024481,0.051308,4.2868e-06,0.82,0.6,0
0.041655,-0.0022944,0.057107,-0.00066249,0.016934,0.00017661,0,0,0.052226,-0.022875,0,0.00045918,0,0,0,0.057108,-0.00066303,0.016934,0.17516,0.024459,0.051289,4.2801e-06,0.84,0.6,0
0.042699,-0.0022943,0.057076,-0.00067416,0.016921,0.00015622,0,0,0.052202,-0.022873,0,0.00040618,0,0,0,0.057077,-0.00067458,0.016921,0.15499,0.024441,0.051271,4.274e-06,0.86,0.6,0
0.043743,-0.0022941,0.057049,-0.00068319,0.01691,0.00013511,0,0,0.052181,-0.022871,0,0.00035128,0,0,0,0.05705,-0.00068351,0.01691,0.13409,0.024425,0.051254,4.2686e-06,0.88,0.6,0
0.044787,-0.0022939,0.057026,-0.00069006,0.016901,0.00011341,0,0,0.052163,-0.022868,0,0.00029486,0,0,0,0.057026,-0.00069029,0.016901,0.11258,0.024412,0.051238,4.2639e-06,0.9,0.6,0
0.04583,-0.0022936,0.057007,-0.00069516,0.016894,9.1246e-05,0,0,0.052148,-0.022865,0,0.00023724,0,0,0,0.057007,-0.00069531,0.016894,0.090603,0.024402,0.051225,4.26e-06,0.92,0.6,0
0.046872,-0.0022933,0.056992,-0.0006988,0.016888,6.8729e-05,0,0,0.052135,-0.022863,0,0.0001787,0,0,0,0.056992,-0.00069889,0.016888,0.068258,0.024394,0.051215,4.257e-06,0.94,0.6,0
0.047915,-0.0022932,0.056982,-0.00070123,0.016884,4.5957e-05,0,0,0.052127,-0.022861,0,0.00011949,0,0,0,0.056982,-0.00070127,0.016884,0.045649,0.024388,0.051207,4.2548e-06,0.96,0.6,0
0.048958,-0.002293,0.056975,-0.00070262,0.016882,2.3019e-05,0,0,0.052121,-0.02286,0,5.985e-05,0,0,0,0.056975,-0.00070263,0.016882,0.022867,0.024385,0.051203,4.2534e-06,0.98,0.6,0
0.05,-0.002293,0.056973,-0.00070308,0.016881,8.1469e-07,0,0,0.05212,-0.022859,0,2.1182e-06,0,0,0,0.056973,-0.00070308,0.016881,0.00080931,0.024384,0.051201,4.253e-06,1,0.6,0
0,0,0.052325,0.022425,0.022425,-0.0031593,0,0,0.03887,5.421e-20,0,-0.0082142,0,0,0,0.052655,0.022095,0.022425,-5.9662,0.032392,0.030397,1.4419e-06,0,0.62,0
0.0007774,-0.00016428,0.052188,0.020804,0.021898,-0.0031491,0,0,0.039377,-0.0014215,0,-0.0081876,0,0,0,0.052501,0.020491,0.021898,-5.6738,0.03163,0.03133,1.5687e-06,0.02,0.62,0
0.0015751,-0.00032897,0.052728,0.019466,0.021658,-0.0031254,0,0,0.040391,-0.0028501,0,-0.008126,0,0,0,0.053019,0.019175,0.021658,-5.3215,0.031284,0.032674,1.7566e-06,0.04,0.62,0
0.002393,-0.00049302,0.053261,0.018128,0.021417,-0.0030737,0,0,0.041397,-0.0042752,0,-0.0079916,0,0,0,0.053527,0.017861,0.021417,-4.9625,0.030935,0.034028,1.9494e-06,0.06,0.62,0
0.003231,-0.00065538,0.05378,0.016801,0.021175,-0.0029936,0,0,0.042388,-0.0056851,0,-0.0077832,0,0,0,0.054021,0.016561,0.021175,-4.5983,0.030586,0.03538,2.1447e-06,0.08,0.62,0
0.0040885,-0.00081493,0.054282,0.015496,0.020933,-0.0028857,0,0,0.043353,-0.0070682,0,-0.0075027,0,0,0,0.054495,0.015283,0.020933,-4.2318,0.030237,0.036715,2.3401e-06,0.1,0.62,0
0.0049651,-0.00097062,0.054759,0.014223,0.020694,-0.002752,0,0,0.044284,-0.0084132,0,-0.0071551,0,0,0,0.054945,0.014037,0.020694,-3.8661,0.029892,0.038019,2.5331e-06,0.12,0.62,0
0.0058599,-0.0011214,0.055207,0.01299,0.020459,-0.0025955,0,0,0.045172,-0.0097098,0,-0.0067482,0,0,0,0.055366,0.012831,0.020459,-3.5049,0.029552,0.03928,2.7213e-06,0.14,0.62,0
0.006772,-0.0012665,0.055623,0.011806,0.020229,-0.00242,0,0,0.046012,-0.010949,0,-0.006292,0,0,0,0.055756,0.011673,0.020229,-3.1517,0.029219,0.040489,2.9025e-06,0.16,0.62,0
0.0077004,-0.001405,0.056003,0.010679,0.020005,-0.0022299,0,0,0.046798,-0.012124,0,-0.0057977,0,0,0,0.056113,0.010569,0.020005,-2.8098,0.028896,0.041636,3.0749e-06,0.18,0.62,0
0.0086439,-0.0015363,0.056347,0.0096115,0.019787,-0.0020297,0,0,0.047527,-0.013229,0,-0.0052773,0,0,0,0.056435,0.0095235,0.019787,-2.4821,0.028582,0.042714,3.2369e-06,0.2,0.62,0
0.0096015,-0.0016599,0.056652,0.0086088,0.019578,-0.0018241,0,0,0.048196,-0.01426,0,-0.0047426,0,0,0,0.056721,0.0085396,0.019578,-2.1712,0.02828,0.04372,3.3873e-06,0.22,0.62,0
0.010572,-0.0017757,0.05692,0.0076724,0.019378,-0.0016172,0,0,0.048805,-0.015217,0,-0.0042047,0,0,0,0.056973,0.0076194,0.019378,-1.8788,0.02799,0.044651,3.5255e-06,0.24,0.62,0
0.011554,-0.0018832,0.05715,0.0068032,0.019186,-0.001413,0,0,0.049353,-0.016098,0,-0.0036737,0,0,0,0.05719,0.0067636,0.019186,-1.6063,0.027713,0.045505,3.651e-06,0.26,0.62,0
0.012546,-0.0019827,0.057346,0.0060006,0.019004,-0.0012147,0,0,0.049844,-0.016904,0,-0.0031581,0,0,0,0.057374,0.0059719,0.019004,-1.3544,0.02745,0.046283,3.7639e-06,0.28,0.62,0
0.013547,-0.002074,0.057507,0.0052632,0.018831,-0.001025,0,0,0.050279,-0.017638,0,-0.002665,0,0,0,0.057528,0.0052431,0.018831,-1.1235,0.027201,0.046988,3.8643e-06,0.3,0.62,0
0.014557,-0.0021574,0.057639,0.0045889,0.018668,-0.00084612,0,0,0.050661,-0.018303,0,-0.0021999,0,0,0,0.057652,0.0045755,0.018668,-0.91353,0.026965,0.047621,3.9526e-06,0.32,0.62,0
0.015574,-0.0022332,0.057741,0.003975,0.018515,-0.00067954,0,0,0.050994,-0.018902,0,-0.0017668,0,0,0,0.05775,0.0039665,0.018515,-0.72399,0.026744,0.048186,4.0295e-06,0.34,0.62,0
0.016597,-0.0023017,0.057819,0.0034184,0.018371,-0.00052629,0,0,0.051282,-0.019439,0,-0.0013684,0,0,0,0.057824,0.0034133,0.018371,-0.55424,0.026536,0.048686,4.0957e-06,0.36,0.62,0
0.017625,-0.0023633,0.057873,0.0029157,0.018237,-0.00038693,0,0,0.051527,-0.019917,0,-0.001006,0,0,0,0.057876,0.002913,0.018237,-0.40336,0.026342,0.049127,4.1519e-06,0.38,0.62,0
0.018658,-0.0024183,0.057907,0.0024634,0.018111,-0.00026162,0,0,0.051735,-0.020342,0,-0.00068022,0,0,0,0.057909,0.0024621,0.018111,-0.27035,0.026161,0.049513,4.1991e-06,0.4,0.62,0
0.019695,-0.0024673,0.057924,0.0020579,0.017995,-0.00015023,0,0,0.051908,-0.020718,0,-0.0003906,0,0,0,0.057924,0.0020575,0.017995,-0.15407,0.025992,0.049847,4.2381e-06,0.42,0.62,0
0.020734,-0.0025106,0.057925,0.0016957,0.017886,-5.2362e-05,0,0,0.052051,-0.021048,0,-0.00013614,0,0,0,0.057925,0.0016957,0.017886,-0.053355,0.025836,0.050135,4.2697e-06,0.44,0.62,0
0.021777,-0.0025488,0.057914,0.0013734,0.017786,3.2565e-05,0,0,0.052166,-0.021337,0,8.4668e-05,0,0,0,0.057914,0.0013733,0.017786,0.033,0.025691,0.050381,4.2948e-06,0.46,0.62,0
0.022821,-0.0025821,0.057891,0.0010875,0.017694,0.00010527,0,0,0.052257,-0.021588,0,0.00027369,0,0,0,0.057891,0.0010873,0.017694,0.10618,0.025557,0.050588,4.3141e-06,0.48,0.62,0
0.023867,-0.0026112,0.05786,0.00083496,0.017608,0.00016654,0,0,0.052327,-0.021805,0,0.00043301,0,0,0,0.05786,0.00083448,0.017608,0.16733,0.025434,0.050762,4.3283e-06,0.5,0.62,0
0.024914,-0.0026362,0.057821,0.00061267,0.01753,0.00021725,0,0,0.052378,-0.021993,0,0.00056485,0,0,0,0.057821,0.00061185,0.01753,0.21758,0.025321,0.050905,4.3382e-06,0.52,0.62,0
0.025962,-0.0026578,0.057776,0.00041778,0.017458,0.00025827,0,0,0.052413,-0.022152,0,0.0006715,0,0,0,0.057777,0.00041662,0.017458,0.25798,0.025217,0.051021,4.3443e-06,0.54,0.62,0
0.02701,-0.0026761,0.057727,0.00024761,0.017392,0.00029047,0,0,0.052435,-0.022288,0,0.00075521,0,0,0,0.057728,0.00024614,0.017392,0.28953,0.025122,0.051113,4.3473e-06,0.56,0.62,0
0.028059,-0.0026917,0.057674,9.9644e-05,0.017332,0.0003147,0,0,0.052445,-0.022402,0,0.00081822,0,0,0,0.057676,9.7923e-05,0.017332,0.31316,0.025035,0.051186,4.3476e-06,0.58,0.62,0
0.029108,-0.0027047,0.05762,-2.8424e-05,0.017278,0.00033179,0,0,0.052445,-0.022498,0,0.00086265,0,0,0,0.057622,-3.0333e-05,0.017278,0.32974,0.024956,0.05124,4.3457e-06,0.6,0.62,0
0.030157,-0.0027155,0.057564,-0.00013874,0.017228,0.0003425,0,0,0.052438,-0.022576,0,0.00089051,0,0,0,0.057566,-0.00014078,0.017228,0.34007,0.024884,0.051279,4.342e-06,0.62,0.62,0
0.031206,-0.0027244,0.057508,-0.0002333,0.017182,0.00034757,0,0,0.052424,-0.022641,0,0.00090369,0,0,0,0.05751,-0.00023539,0.017182,0.34487,0.024819,0.051305,4.3369e-06,0.64,0.62,0
0.032254,-0.0027315,0.057453,-0.00031389,0.017142,0.00034766,0,0,0.052404,-0.022692,0,0.00090392,0,0,0,0.057455,-0.00031598,0.017142,0.34481,0.02476,0.051319,4.3308e-06,0.66,0.62,0
0.033302,-0.0027372,0.057398,-0.00038219,0.017105,0.00034339,0,0,0.052381,-0.022733,0,0.00089282,0,0,0,0.0574,-0.00038423,0.017105,0.3405,0.024707,0.051325,4.3238e-06,0.68,0.62,0
0.034349,-0.0027417,0.057345,-0.00043972,0.017071,0.00033532,0,0,0.052355,-0.022765,0,0.00087184,0,0,0,0.057347,-0.00044166,0.017071,0.33247,0.024659,0.051324,4.3163e-06,0.7,0.62,0
0.035396,-0.0027451,0.057293,-0.00048783,0.017042,0.00032396,0,0,0.052327,-0.022788,0,0.00084229,0,0,0,0.057295,-0.00048965,0.017042,0.32122,0.024616,0.051317,4.3085e-06,0.72,0.62,0
0.036442,-0.0027476,0.057244,-0.00052779,0.017015,0.00030976,0,0,0.052298,-0.022806,0,0.00080537,0,0,0,0.057246,-0.00052946,0.017015,0.30719,0.024577,0.051305,4.3006e-06,0.74,0.62,0
0.037488,-0.0027493,0.057198,-0.00056072,0.016991,0.00029312,0,0,0.052269,-0.022818,0,0.00076212,0,0,0,0.0572,-0.00056221,0.016991,0.29076,0.024543,0.05129,4.2928e-06,0.76,0.62,0
0.038533,-0.0027505,0.057155,-0.00058762,0.01697,0.00027442,0,0,0.05224,-0.022825,0,0.00071348,0,0,0,0.057156,-0.00058892,0.01697,0.27229,0.024512,0.051272,4.2851e-06,0.78,0.62,0
0.039578,-0.0027512,0.057115,-0.00060939,0.016952,0.00025396,0,0,0.052212,-0.022829,0,0.00066029,0,0,0,0.057116,-0.00061051,0.016952,0.25207,0.024486,0.051254,4.2777e-06,0.8,0.62,0
0.040622,-0.0027515,0.057078,-0.00062684,0.016935,0.00023202,0,0,0.052185,-0.022831,0,0.00060326,0,0,0,0.057079,-0.00062777,0.016935,0.23037,0.024462,0.051235,4.2708e-06,0.82,0.62,0
0.041665,-0.0027515,0.057045,-0.00064067,0.016921,0.00020886,0,0,0.05216,-0.02283,0,0.00054303,0,0,0,0.057045,-0.00064142,0.016921,0.20744,0.024442,0.051216,4.2644e-06,0.84,0.62,0
0.042708,-0.0027514,0.057015,-0.00065149,0.016909,0.00018468,0,0,0.052138,-0.022829,0,0.00048016,0,0,0,0.057016,-0.00065208,0.016909,0.18349,0.024424,0.051198,4.2586e-06,0.86,0.62,0
0.043751,-0.0027511,0.056989,-0.00065983,0.016899,0.00015966,0,0,0.052117,-0.022826,0,0.00041512,0,0,0,0.05699,-0.00066027,0.016899,0.15868,0.024409,0.051182,4.2534e-06,0.88,0.62,0
0.044793,-0.0027508,0.056967,-0.00066615,0.01689,0.00013398,0,0,0.0521,-0.022823,0,0.00034835,0,0,0,0.056967,-0.00066646,0.01689,0.1332,0.024397,0.051167,4.249e-06,0.9,0.62,0
0.045835,-0.0027505,0.056949,-0.00067082,0.016883,0.00010777,0,0,0.052085,-0.022821,0,0.00028021,0,0,0,0.056949,-0.00067102,0.016883,0.10717,0.024387,0.051154,4.2452e-06,0.92,0.62,0
0.046876,-0.0027502,0.056935,-0.00067415,0.016878,8.1165e-05,0,0,0.052074,-0.022818,0,0.00021103,0,0,0,0.056935,-0.00067426,0.016878,0.080723,0.02438,0.051144,4.2423e-06,0.94,0.62,0
0.047918,-0.00275,0.056925,-0.00067636,0.016875,5.4266e-05,0,0,0.052066,-0.022816,0,0.00014109,0,0,0,0.056925,-0.00067641,0.016875,0.053978,0.024374,0.051137,4.2402e-06,0.96,0.62,0
0.048959,-0.0027498,0.056919,-0.00067762,0.016872,2.7179e-05,0,0,0.052061,-0.022815,0,7.0665e-05,0,0,0,0.056919,-0.00067763,0.016872,0.027037,0.024371,0.051133,4.239e-06,0.98,0.62,0
0.05,-0.0027498,0.056917,-0.00067802,0.016872,9.7639e-07,0,0,0.052059,-0.022815,0,2.5386e-06,0,0,0,0.056917,-0.00067802,0.016872,0.00097132,0.02437,0.051131,4.2386e-06,1,0.62,0
0,0,0.05238,0.022448,0.022448,-0.0037112,0,0,0.038911,-2.1684e-19,0,-0.0096491,0,0,0,0.052833,0.021995,0.022448,-6.9636,0.032426,0.030614,1.4725e-06,0,0.64,0
0.00077822,-0.00019298,0.05224,0.020794,0.02191,-0.0036989,0,0,0.039429,-0.0014512,0,-0.0096172,0,0,0,0.052669,0.020365,0.02191,-6.6192,0.031648,0.03156,1.6015e-06,0.02,0.64,0
0.0015772,-0.00038653,0.052791,0.019425,0.021665,-0.0036709,0,0,0.040464,-0.0029121,0,-0.0095445,0,0,0,0.05319,0.019025,0.021665,-6.2048,0.031293,0.032924,1.7934e-06,0.04,0.64,0
0.0023968,-0.00057938,0.053334,0.018055,0.021417,-0.0036088,0,0,0.041493,-0.0043704,0,-0.0093828,0,0,0,0.053699,0.017689,0.021417,-5.7811,0.030935,0.034299,1.99e-06,0.06,0.64,0
0.0032369,-0.00077023,0.053863,0.016696,0.021168,-0.0035118,0,0,0.042504,-0.005813,0,-0.0091306,0,0,0,0.054192,0.016367,0.021168,-5.3506,0.030576,0.035667,2.1888e-06,0.08,0.64,0
0.0040969,-0.00095772,0.054371,0.015361,0.02092,-0.0033809,0,0,0.043487,-0.0072264,0,-0.0087904,0,0,0,0.054662,0.01507,0.02092,-4.9169,0.030217,0.037015,2.387e-06,0.1,0.64,0
0.0049763,-0.0011405,0.054852,0.01406,0.020674,-0.0032188,0,0,0.044432,-0.008598,0,-0.008369,0,0,0,0.055105,0.013807,0.020674,-4.4841,0.029862,0.038328,2.5819e-06,0.12,0.64,0
0.0058742,-0.0013175,0.055302,0.012804,0.020432,-0.0030294,0,0,0.045331,-0.0099162,0,-0.0078765,0,0,0,0.055517,0.012589,0.020432,-4.0569,0.029513,0.039593,2.7709e-06,0.14,0.64,0
0.0067896,-0.0014875,0.055716,0.011602,0.020196,-0.0028176,0,0,0.046177,-0.011171,0,-0.0073258,0,0,0,0.055895,0.011423,0.020196,-3.6398,0.029171,0.0408,2.9518e-06,0.16,0.64,0
0.0077213,-0.0016495,0.056092,0.010461,0.019966,-0.002589,0,0,0.046963,-0.012356,0,-0.0067313,0,0,0,0.056238,0.010315,0.019966,-3.237,0.02884,0.041939,3.1228e-06,0.18,0.64,0
0.0086681,-0.001803,0.056427,0.0093862,0.019744,-0.0023492,0,0,0.047688,-0.013465,0,-0.0061079,0,0,0,0.056544,0.0092692,0.019744,-2.8519,0.028519,0.043005,3.2823e-06,0.2,0.64,0
0.0096288,-0.0019473,0.056722,0.0083807,0.019531,-0.0021039,0,0,0.048348,-0.014495,0,-0.0054703,0,0,0,0.056813,0.0082893,0.019531,-2.4874,0.028211,0.043994,3.4294e-06,0.22,0.64,0
0.010602,-0.0020821,0.056977,0.0074461,0.019327,-0.0018584,0,0,0.048945,-0.015445,0,-0.0048318,0,0,0,0.057047,0.0073765,0.019327,-2.1457,0.027917,0.044904,3.5635e-06,0.24,0.64,0
0.011587,-0.0022072,0.057194,0.0065826,0.019133,-0.0016171,0,0,0.049479,-0.016315,0,-0.0042046,0,0,0,0.057245,0.0065309,0.019133,-1.8282,0.027636,0.045735,3.6845e-06,0.26,0.64,0
0.012581,-0.0023226,0.057374,0.0057889,0.018949,-0.001384,0,0,0.049953,-0.017108,0,-0.0035985,0,0,0,0.057411,0.0057518,0.018949,-1.5358,0.027371,0.046488,3.7923e-06,0.28,0.64,0
0.013585,-0.0024285,0.057521,0.005063,0.018775,-0.0011622,0,0,0.05037,-0.017826,0,-0.0030216,0,0,0,0.057547,0.0050372,0.018775,-1.2685,0.02712,0.047166,3.8875e-06,0.3,0.64,0
0.014596,-0.0025251,0.057638,0.004402,0.018612,-0.00095383,0,0,0.050733,-0.018473,0,-0.00248,0,0,0,0.057655,0.0043849,0.018612,-1.0261,0.026884,0.047772,3.9707e-06,0.32,0.64,0
0.015614,-0.0026127,0.057726,0.0038026,0.018459,-0.00076072,0,0,0.051048,-0.019053,0,-0.0019779,0,0,0,0.057737,0.0037919,0.018459,-0.80808,0.026662,0.048311,4.0425e-06,0.34,0.64,0
0.016638,-0.0026917,0.05779,0.0032613,0.018315,-0.00058383,0,0,0.051317,-0.01957,0,-0.0015179,0,0,0,0.057796,0.003255,0.018315,-0.61336,0.026455,0.048787,4.1039e-06,0.36,0.64,0
0.017667,-0.0027627,0.057832,0.0027741,0.018182,-0.00042364,0,0,0.051545,-0.02003,0,-0.0011015,0,0,0,0.057835,0.0027708,0.018182,-0.44082,0.026263,0.049204,4.1557e-06,0.38,0.64,0
0.0187,-0.0028261,0.057855,0.0023372,0.018058,-0.00028019,0,0,0.051737,-0.020437,0,-0.00072849,0,0,0,0.057856,0.0023358,0.018058,-0.28915,0.026083,0.049566,4.1987e-06,0.4,0.64,0
0.019736,-0.0028824,0.057862,0.0019467,0.017943,-0.00015318,0,0,0.051895,-0.020795,0,-0.00039826,0,0,0,0.057862,0.0019463,0.017943,-0.15696,0.025917,0.04988,4.234e-06,0.42,0.64,0
0.020775,-0.0029322,0.057855,0.0015989,0.017836,-4.2017e-05,0,0,0.052024,-0.021108,0,-0.00010924,0,0,0,0.057855,0.0015989,0.017836,-0.042793,0.025763,0.050149,4.2623e-06,0.44,0.64,0
0.021817,-0.0029759,0.057836,0.0012902,0.017738,5.4064e-05,0,0,0.052128,-0.021382,0,0.00014056,0,0,0,0.057836,0.0012902,0.017738,0.05478,0.025621,0.050378,4.2845e-06,0.46,0.64,0
0.022861,-0.0030142,0.057808,0.0010171,0.017647,0.00013598,0,0,0.052208,-0.021619,0,0.00035354,0,0,0,0.057808,0.0010168,0.017647,0.13719,0.025491,0.05057,4.3013e-06,0.48,0.64,0
0.023905,-0.0030475,0.057772,0.00077635,0.017564,0.00020472,0,0,0.052269,-0.021825,0,0.00053227,0,0,0,0.057772,0.00077562,0.017564,0.2058,0.025371,0.050731,4.3135e-06,0.5,0.64,0
0.024951,-0.0030762,0.057729,0.00056489,0.017488,0.00026133,0,0,0.052313,-0.022,0,0.00067947,0,0,0,0.05773,0.0005637,0.017488,0.26193,0.025261,0.050862,4.3216e-06,0.52,0.64,0
0.025998,-0.0031008,0.057682,0.00037986,0.017419,0.00030687,0,0,0.052343,-0.02215,0,0.00079786,0,0,0,0.057684,0.00037822,0.017419,0.30682,0.02516,0.050969,4.3264e-06,0.54,0.64,0
0.027045,-0.0031218,0.057632,0.0002186,0.017355,0.00034236,0,0,0.05236,-0.022277,0,0.00089012,0,0,0,0.057634,0.00021656,0.017355,0.34164,0.025068,0.051053,4.3283e-06,0.56,0.64,0
0.028092,-0.0031396,0.057579,7.8651e-05,0.017297,0.0003688,0,0,0.052366,-0.022384,0,0.00095888,0,0,0,0.057581,7.6285e-05,0.017297,0.36747,0.024985,0.051118,4.3278e-06,0.58,0.64,0
0.02914,-0.0031544,0.057524,-4.2271e-05,0.017245,0.00038715,0,0,0.052364,-0.022473,0,0.0010066,0,0,0,0.057527,-4.4875e-05,0.017245,0.38531,0.024909,0.051167,4.3253e-06,0.6,0.64,0
0.030187,-0.0031667,0.057469,-0.00014625,0.017197,0.00039831,0,0,0.052354,-0.022546,0,0.0010356,0,0,0,0.057472,-0.00014901,0.017197,0.39608,0.02484,0.051201,4.3213e-06,0.62,0.64,0
0.031234,-0.0031769,0.057414,-0.00023521,0.017154,0.00040311,0,0,0.052339,-0.022606,0,0.0010481,0,0,0,0.057417,-0.00023803,0.017154,0.40061,0.024778,0.051224,4.3161e-06,0.64,0.64,0
0.03228,-0.003185,0.05736,-0.00031091,0.017115,0.00040231,0,0,0.052319,-0.022653,0,0.001046,0,0,0,0.057363,-0.00031371,0.017115,0.39967,0.024721,0.051236,4.3099e-06,0.66,0.64,0
0.033327,-0.0031915,0.057307,-0.00037493,0.01708,0.00039663,0,0,0.052296,-0.022691,0,0.0010313,0,0,0,0.05731,-0.00037766,0.01708,0.39395,0.024671,0.05124,4.303e-06,0.68,0.64,0
0.034372,-0.0031965,0.057256,-0.00042874,0.017048,0.0003867,0,0,0.05227,-0.02272,0,0.0010054,0,0,0,0.057258,-0.00043134,0.017048,0.38407,0.024625,0.051237,4.2957e-06,0.7,0.64,0
0.035417,-0.0032004,0.057207,-0.00047366,0.01702,0.00037309,0,0,0.052243,-0.022742,0,0.00097005,0,0,0,0.057209,-0.00047608,0.01702,0.37059,0.024584,0.051229,4.2882e-06,0.72,0.64,0
0.036462,-0.0032032,0.05716,-0.00051088,0.016995,0.00035633,0,0,0.052215,-0.022757,0,0.00092645,0,0,0,0.057162,-0.00051308,0.016995,0.35399,0.024548,0.051217,4.2806e-06,0.74,0.64,0
0.037506,-0.0032052,0.057116,-0.00054146,0.016972,0.00033686,0,0,0.052187,-0.022768,0,0.00087583,0,0,0,0.057118,-0.00054343,0.016972,0.33473,0.024516,0.051202,4.273e-06,0.76,0.64,0
0.03855,-0.0032065,0.057075,-0.00056637,0.016953,0.00031509,0,0,0.052159,-0.022775,0,0.00081923,0,0,0,0.057077,-0.0005681,0.016953,0.31318,0.024487,0.051185,4.2657e-06,0.78,0.64,0
0.039592,-0.0032073,0.057037,-0.00058648,0.016935,0.00029138,0,0,0.052133,-0.022778,0,0.00075758,0,0,0,0.057039,-0.00058795,0.016935,0.28971,0.024462,0.051167,4.2587e-06,0.8,0.64,0
0.040635,-0.0032076,0.057003,-0.00060252,0.01692,0.00026604,0,0,0.052107,-0.022779,0,0.00069171,0,0,0,0.057004,-0.00060375,0.01692,0.2646,0.02444,0.051149,4.2522e-06,0.82,0.64,0
0.041677,-0.0032077,0.056971,-0.00061519,0.016907,0.00023935,0,0,0.052084,-0.022779,0,0.0006223,0,0,0,0.056972,-0.00061619,0.016907,0.23813,0.024421,0.051131,4.2461e-06,0.84,0.64,0
0.042718,-0.0032075,0.056944,-0.00062506,0.016896,0.00021154,0,0,0.052062,-0.022777,0,0.00055,0,0,0,0.056944,-0.00062584,0.016896,0.21053,0.024405,0.051114,4.2407e-06,0.86,0.64,0
0.043759,-0.0032072,0.056919,-0.00063263,0.016886,0.00018281,0,0,0.052043,-0.022774,0,0.00047532,0,0,0,0.05692,-0.00063321,0.016886,0.182,0.024391,0.051098,4.2358e-06,0.88,0.64,0
0.0448,-0.0032068,0.056899,-0.00063834,0.016878,0.00015336,0,0,0.052027,-0.022771,0,0.00039874,0,0,0,0.056899,-0.00063875,0.016878,0.15271,0.02438,0.051084,4.2316e-06,0.9,0.64,0
0.04584,-0.0032064,0.056882,-0.00064253,0.016872,0.00012333,0,0,0.052013,-0.022769,0,0.00032066,0,0,0,0.056882,-0.0006428,0.016872,0.12284,0.02437,0.051072,4.2282e-06,0.92,0.64,0
0.04688,-0.0032061,0.056869,-0.00064551,0.016867,9.2861e-05,0,0,0.052002,-0.022766,0,0.00024144,0,0,0,0.056869,-0.00064566,0.016867,0.092508,0.024363,0.051063,4.2254e-06,0.94,0.64,0
0.04792,-0.0032058,0.056859,-0.00064747,0.016864,6.2077e-05,0,0,0.051994,-0.022764,0,0.0001614,0,0,0,0.056859,-0.00064754,0.016864,0.061849,0.024359,0.051056,4.2235e-06,0.96,0.64,0
0.04896,-0.0032056,0.056854,-0.00064859,0.016862,3.1089e-05,0,0,0.05199,-0.022763,0,8.0831e-05,0,0,0,0.056854,-0.00064861,0.016862,0.030977,0.024356,0.051051,4.2223e-06,0.98,0.64,0
0.05,-0.0032056,0.056852,-0.00064895,0.016861,1.1352e-06,0,0,0.051988,-0.022763,0,2.9516e-06,0,0,0,0.056852,-0.00064895,0.016861,0.0011312,0.024355,0.05105,4.2219e-06,1,0.64,0
0,0,0.052449,0.022478,0.022478,-0.0042756,0,0,0.038962,4.3368e-19,0,-0.011117,0,0,0,0.053047,0.02188,0.022478,-7.9623,0.032468,0.030872,1.5093e-06,0,0.66,0
0.00077924,-0.00022233,0.052306,0.020782,0.021926,-0.0042612,0,0,0.039493,-0.0014871,0,-0.011079,0,0,0,0.052871,0.020217,0.021926,-7.5641,0.031671,0.031834,1.6408e-06,0.02,0.66,0
0.0015797,-0.00044545,0.052869,0.019376,0.021674,-0.0042287,0,0,0.040555,-0.0029871,0,-0.010995,0,0,0,0.053395,0.01885,0.021674,-7.0857,0.031306,0.033223,1.8377e-06,0.04,0.66,0
0.0024014,-0.00066784,0.053425,0.017967,0.021417,-0.0041549,0,0,0.04161,-0.0044858,0,-0.010803,0,0,0,0.053905,0.017486,0.021417,-6.5949,0.030936,0.034621,2.0389e-06,0.06,0.66,0
0.0032441,-0.0008879,0.053964,0.016569,0.02116,-0.0040391,0,0,0.042645,-0.0059679,0,-0.010502,0,0,0,0.054395,0.016138,0.02116,-6.0949,0.030565,0.03601,2.2418e-06,0.08,0.66,0
0.0041072,-0.001104,0.05448,0.015197,0.020903,-0.0038825,0,0,0.04365,-0.0074177,0,-0.010094,0,0,0,0.05486,0.014817,0.020903,-5.5907,0.030194,0.037373,2.4432e-06,0.1,0.66,0
0.0049901,-0.0013145,0.054966,0.013864,0.020649,-0.0036886,0,0,0.044612,-0.0088208,0,-0.0095903,0,0,0,0.055295,0.013535,0.020649,-5.0876,0.029826,0.038696,2.6401e-06,0.12,0.66,0
0.0058917,-0.0015181,0.055417,0.012581,0.020399,-0.0034625,0,0,0.045523,-0.010164,0,-0.0090025,0,0,0,0.055695,0.012303,0.020399,-4.5916,0.029465,0.039964,2.8299e-06,0.14,0.66,0
0.006811,-0.0017133,0.055827,0.011358,0.020155,-0.0032106,0,0,0.046373,-0.011437,0,-0.0083477,0,0,0,0.056058,0.011127,0.020155,-4.1083,0.029114,0.041166,3.0101e-06,0.16,0.66,0
0.0077467,-0.0018992,0.056196,0.010202,0.019919,-0.00294,0,0,0.047159,-0.012632,0,-0.0076439,0,0,0,0.056383,0.010015,0.019919,-3.6427,0.028772,0.042294,3.179e-06,0.18,0.66,0
0.0086974,-0.0020749,0.05652,0.0091195,0.019692,-0.0026576,0,0,0.047877,-0.013744,0,-0.0069097,0,0,0,0.056669,0.0089709,0.019692,-3.199,0.028444,0.043343,3.3352e-06,0.2,0.66,0
0.0096617,-0.0022397,0.056801,0.0081121,0.019474,-0.0023703,0,0,0.048526,-0.014771,0,-0.0061628,0,0,0,0.056917,0.007997,0.019474,-2.7805,0.028129,0.04431,3.478e-06,0.22,0.66,0
0.010638,-0.0023935,0.057041,0.007181,0.019267,-0.0020843,0,0,0.049107,-0.015711,0,-0.0054193,0,0,0,0.057128,0.0070941,0.019267,-2.3896,0.02783,0.045194,3.6069e-06,0.24,0.66,0
0.011626,-0.0025359,0.05724,0.0063255,0.01907,-0.001805,0,0,0.049622,-0.016567,0,-0.004693,0,0,0,0.057304,0.0062616,0.01907,-2.0278,0.027545,0.045996,3.7221e-06,0.26,0.66,0
0.012623,-0.002667,0.057403,0.0055435,0.018884,-0.0015366,0,0,0.050075,-0.017343,0,-0.0039952,0,0,0,0.057448,0.005498,0.018884,-1.6957,0.027277,0.046719,3.8239e-06,0.28,0.66,0
0.013629,-0.002787,0.057532,0.0048321,0.018709,-0.0012826,0,0,0.05047,-0.01804,0,-0.0033347,0,0,0,0.057563,0.0048009,0.018709,-1.3934,0.027024,0.047365,3.9129e-06,0.3,0.66,0
0.014642,-0.0028963,0.05763,0.0041875,0.018545,-0.0010454,0,0,0.050811,-0.018665,0,-0.0027181,0,0,0,0.057651,0.0041671,0.018545,-1.1202,0.026788,0.04794,3.9899e-06,0.32,0.66,0
0.015661,-0.0029953,0.057702,0.0036058,0.018392,-0.0008267,0,0,0.051103,-0.019223,0,-0.0021494,0,0,0,0.057715,0.0035932,0.018392,-0.87532,0.026567,0.048448,4.0558e-06,0.34,0.66,0
0.016686,-0.0030845,0.05775,0.0030827,0.01825,-0.00062737,0,0,0.051351,-0.019717,0,-0.0016312,0,0,0,0.057758,0.0030755,0.01825,-0.65741,0.026361,0.048894,4.1115e-06,0.36,0.66,0
0.017715,-0.0031645,0.057778,0.0026139,0.018118,-0.00044774,0,0,0.051559,-0.020155,0,-0.0011641,0,0,0,0.057782,0.0026103,0.018118,-0.465,0.02617,0.049283,4.1581e-06,0.38,0.66,0
0.018749,-0.0032358,0.057789,0.0021951,0.017995,-0.00028764,0,0,0.051732,-0.02054,0,-0.00074786,0,0,0,0.05779,0.0021936,0.017995,-0.29644,0.025993,0.04962,4.1965e-06,0.4,0.66,0
0.019785,-0.0032991,0.057785,0.001822,0.017882,-0.00014653,0,0,0.051873,-0.020878,0,-0.00038099,0,0,0,0.057785,0.0018216,0.017882,-0.15002,0.02583,0.04991,4.2276e-06,0.42,0.66,0
0.020823,-0.003355,0.057768,0.0014908,0.017778,-2.3601e-05,0,0,0.051988,-0.021173,0,-6.1362e-05,0,0,0,0.057768,0.0014908,0.017778,-0.024028,0.025679,0.050158,4.2522e-06,0.44,0.66,0
0.021864,-0.0034041,0.057742,0.0011977,0.017682,8.2168e-05,0,0,0.052078,-0.021429,0,0.00021364,0,0,0,0.057742,0.0011976,0.017682,0.08326,0.025541,0.050368,4.2712e-06,0.46,0.66,0
0.022907,-0.0034469,0.057707,0.00093915,0.017594,0.00017191,0,0,0.052147,-0.021651,0,0.00044698,0,0,0,0.057708,0.00093863,0.017594,0.17351,0.025413,0.050543,4.2854e-06,0.48,0.66,0
0.02395,-0.0034841,0.057667,0.00071178,0.017514,0.00024685,0,0,0.052199,-0.021842,0,0.0006418,0,0,0,0.057668,0.00071071,0.017514,0.24832,0.025297,0.050689,4.2953e-06,0.5,0.66,0
0.024994,-0.0035163,0.057621,0.00051256,0.01744,0.0003082,0,0,0.052235,-0.022006,0,0.00080133,0,0,0,0.057623,0.00051089,0.01744,0.3092,0.025191,0.050808,4.3017e-06,0.52,0.66,0
0.02604,-0.0035438,0.057571,0.00033862,0.017373,0.00035721,0,0,0.052258,-0.022145,0,0.00092875,0,0,0,0.057574,0.0003364,0.017373,0.35759,0.025094,0.050904,4.305e-06,0.54,0.66,0
0.027085,-0.0035673,0.05752,0.00018736,0.017312,0.00039507,0,0,0.05227,-0.022262,0,0.0010272,0,0,0,0.057522,0.00018464,0.017312,0.3948,0.025006,0.05098,4.3058e-06,0.56,0.66,0
0.02813,-0.0035871,0.057466,5.6354e-05,0.017257,0.00042293,0,0,0.052272,-0.022361,0,0.0010996,0,0,0,0.057469,5.3238e-05,0.017257,0.42206,0.024927,0.051037,4.3045e-06,0.58,0.66,0
0.029176,-0.0036036,0.057412,-5.6608e-05,0.017207,0.00044188,0,0,0.052267,-0.022442,0,0.0011489,0,0,0,0.057416,-6.0005e-05,0.017207,0.44051,0.024854,0.05108,4.3016e-06,0.6,0.66,0
0.030221,-0.0036173,0.057358,-0.00015355,0.017161,0.00045292,0,0,0.052256,-0.02251,0,0.0011776,0,0,0,0.057362,-0.00015711,0.017161,0.45118,0.024789,0.05111,4.2973e-06,0.62,0.66,0
0.031266,-0.0036286,0.057305,-0.00023631,0.017121,0.00045699,0,0,0.05224,-0.022564,0,0.0011882,0,0,0,0.057309,-0.00023994,0.017121,0.455,0.02473,0.051129,4.2919e-06,0.64,0.66,0
0.032311,-0.0036377,0.057253,-0.00030659,0.017084,0.00045496,0,0,0.05222,-0.022608,0,0.0011829,0,0,0,0.057257,-0.00031018,0.017084,0.45283,0.024677,0.051139,4.2857e-06,0.66,0.66,0
0.033355,-0.0036449,0.057202,-0.0003659,0.017051,0.0004476,0,0,0.052197,-0.022642,0,0.0011638,0,0,0,0.057206,-0.00036938,0.017051,0.44544,0.024629,0.051141,4.2791e-06,0.68,0.66,0
0.034398,-0.0036505,0.057154,-0.00041563,0.017021,0.00043562,0,0,0.052172,-0.022668,0,0.0011326,0,0,0,0.057157,-0.00041893,0.017021,0.43352,0.024587,0.051137,4.272e-06,0.7,0.66,0
0.035442,-0.0036547,0.057107,-0.00045703,0.016995,0.00041966,0,0,0.052146,-0.022688,0,0.0010911,0,0,0,0.057111,-0.00046009,0.016995,0.41767,0.024549,0.051129,4.2649e-06,0.72,0.66,0
0.036484,-0.0036578,0.057064,-0.00049124,0.016972,0.00040028,0,0,0.05212,-0.022702,0,0.0010407,0,0,0,0.057066,-0.00049402,0.016972,0.39845,0.024515,0.051117,4.2577e-06,0.74,0.66,0
0.037526,-0.00366,0.057023,-0.00051926,0.016951,0.00037798,0,0,0.052093,-0.022711,0,0.00098275,0,0,0,0.057025,-0.00052175,0.016951,0.37634,0.024485,0.051102,4.2506e-06,0.76,0.66,0
0.038568,-0.0036615,0.056984,-0.00054201,0.016933,0.00035321,0,0,0.052067,-0.022717,0,0.00091835,0,0,0,0.056987,-0.00054418,0.016933,0.35178,0.024458,0.051086,4.2437e-06,0.78,0.66,0
0.039609,-0.0036623,0.056949,-0.0005603,0.016917,0.00032636,0,0,0.052042,-0.02272,0,0.00084853,0,0,0,0.056951,-0.00056215,0.016917,0.32513,0.024435,0.051069,4.2372e-06,0.8,0.66,0
0.04065,-0.0036627,0.056917,-0.00057483,0.016903,0.00029776,0,0,0.052019,-0.022721,0,0.00077419,0,0,0,0.056919,-0.00057637,0.016903,0.29674,0.024415,0.051051,4.2311e-06,0.82,0.66,0
0.04169,-0.0036627,0.056888,-0.00058624,0.016891,0.00026772,0,0,0.051997,-0.02272,0,0.00069608,0,0,0,0.05689,-0.00058749,0.016891,0.26688,0.024398,0.051034,4.2255e-06,0.84,0.66,0
0.04273,-0.0036625,0.056863,-0.00059508,0.01688,0.00023649,0,0,0.051977,-0.022718,0,0.00061487,0,0,0,0.056864,-0.00059605,0.01688,0.23582,0.024383,0.051018,4.2204e-06,0.86,0.66,0
0.043769,-0.0036621,0.05684,-0.00060182,0.016872,0.00020429,0,0,0.051959,-0.022715,0,0.00053115,0,0,0,0.056841,-0.00060255,0.016872,0.20376,0.02437,0.051003,4.2159e-06,0.88,0.66,0
0.044808,-0.0036617,0.056822,-0.00060687,0.016864,0.00017131,0,0,0.051944,-0.022713,0,0.00044541,0,0,0,0.056822,-0.00060738,0.016864,0.17091,0.02436,0.05099,4.2121e-06,0.9,0.66,0
0.045847,-0.0036612,0.056806,-0.00061056,0.016859,0.00013773,0,0,0.051932,-0.02271,0,0.00035809,0,0,0,0.056806,-0.00061089,0.016859,0.13743,0.024351,0.050979,4.2089e-06,0.92,0.66,0
0.046885,-0.0036609,0.056794,-0.00061315,0.016854,0.00010368,0,0,0.051922,-0.022708,0,0.00026956,0,0,0,0.056794,-0.00061334,0.016854,0.10347,0.024345,0.05097,4.2064e-06,0.94,0.66,0
0.047924,-0.0036605,0.056785,-0.00061486,0.016851,6.9296e-05,0,0,0.051915,-0.022706,0,0.00018017,0,0,0,0.056786,-0.00061494,0.016851,0.06917,0.024341,0.050964,4.2046e-06,0.96,0.66,0
0.048962,-0.0036604,0.05678,-0.00061582,0.016849,3.4701e-05,0,0,0.05191,-0.022705,0,9.0222e-05,0,0,0,0.05678,-0.00061584,0.016849,0.03464,0.024338,0.05096,4.2035e-06,0.98,0.66,0
0.05,-0.0036603,0.056779,-0.00061613,0.016849,1.2891e-06,0,0,0.051909,-0.022704,0,3.3516e-06,0,0,0,0.056779,-0.00061613,0.016849,0.0012868,0.024337,0.050958,4.2031e-06,1,0.66,0
0,0,0.052534,0.022515,0.022515,-0.0048551,0,0,0.039025,3.2526e-19,0,-0.012623,0,0,0,0.0533,0.021749,0.022515,-8.9623,0.032521,0.031175,1.553e-06,0,0.68,0
0.00078051,-0.00025247,0.052387,0.02077,0.021947,-0.0048381,0,0,0.039572,-0.0015299,0,-0.012579,0,0,0,0.053111,0.020047,0.021947,-8.5083,0.031702,0.032156,1.6876e-06,0.02,0.68,0
0.0015829,-0.00050601,0.052967,0.019319,0.021686,-0.004801,0,0,0.040665,-0.003077,0,-0.012483,0,0,0,0.053638,0.018647,0.021686,-7.9635,0.031324,0.033575,1.8903e-06,0.04,0.68,0
0.0024071,-0.00075882,0.053536,0.017862,0.02142,-0.0047142,0,0,0.041752,-0.0046243,0,-0.012257,0,0,0,0.054149,0.01725,0.02142,-7.4022,0.03094,0.035001,2.0972e-06,0.06,0.68,0
0.003253,-0.0010089,0.054088,0.016418,0.021152,-0.0045768,0,0,0.042817,-0.0061538,0,-0.0119,0,0,0,0.054636,0.01587,0.021152,-6.8289,0.030553,0.036413,2.3049e-06,0.08,0.68,0
0.0041198,-0.0012544,0.054613,0.015002,0.020884,-0.0043907,0,0,0.043846,-0.0076468,0,-0.011416,0,0,0,0.055093,0.014521,0.020884,-6.2501,0.030166,0.037794,2.5098e-06,0.1,0.68,0
0.0050068,-0.0014934,0.055103,0.01363,0.02062,-0.0041607,0,0,0.044828,-0.0090865,0,-0.010818,0,0,0,0.055516,0.013217,0.02062,-5.6728,0.029784,0.039127,2.7089e-06,0.12,0.68,0
0.0059129,-0.001724,0.055553,0.012316,0.020361,-0.0038933,0,0,0.04575,-0.010458,0,-0.010123,0,0,0,0.055901,0.011968,0.020361,-5.1045,0.02941,0.040396,2.899e-06,0.14,0.68,0
0.0068368,-0.0019449,0.055958,0.011069,0.020108,-0.0035968,0,0,0.046605,-0.011751,0,-0.0093517,0,0,0,0.056244,0.010783,0.020108,-4.5522,0.029045,0.04159,3.0779e-06,0.16,0.68,0
0.0077771,-0.0021548,0.056316,0.0098985,0.019864,-0.0032799,0,0,0.047387,-0.012956,0,-0.0085278,0,0,0,0.056547,0.0096679,0.019864,-4.022,0.028693,0.042703,3.2438e-06,0.18,0.68,0
0.0087323,-0.0023528,0.056626,0.0088083,0.01963,-0.0029514,0,0,0.048095,-0.014069,0,-0.0076736,0,0,0,0.056808,0.0086269,0.01963,-3.5186,0.028355,0.04373,3.3956e-06,0.2,0.68,0
0.0097009,-0.0025381,0.05689,0.0078008,0.019407,-0.0026194,0,0,0.048728,-0.015088,0,-0.0068105,0,0,0,0.05703,0.0076614,0.019407,-3.0458,0.028033,0.044669,3.5328e-06,0.22,0.68,0
0.010681,-0.0027105,0.05711,0.0068758,0.019196,-0.0022912,0,0,0.049288,-0.016016,0,-0.0059571,0,0,0,0.057214,0.0067715,0.019196,-2.6061,0.027727,0.04552,3.6552e-06,0.24,0.68,0
0.011672,-0.0028699,0.057288,0.0060315,0.018996,-0.0019728,0,0,0.04978,-0.016854,0,-0.0051292,0,0,0,0.057364,0.0059557,0.018996,-2.2009,0.027439,0.046287,3.7633e-06,0.26,0.68,0
0.012673,-0.0030163,0.057429,0.0052647,0.018808,-0.0016689,0,0,0.050207,-0.017606,0,-0.0043391,0,0,0,0.057482,0.0052113,0.018808,-1.8306,0.027167,0.046972,3.8577e-06,0.28,0.68,0
0.013681,-0.0031501,0.057536,0.0045712,0.018632,-0.0013832,0,0,0.050575,-0.018279,0,-0.0035963,0,0,0,0.057572,0.0045351,0.018632,-1.4949,0.026913,0.047581,3.9393e-06,0.3,0.68,0
0.014696,-0.0032717,0.057614,0.0039466,0.018468,-0.0011181,0,0,0.05089,-0.018878,0,-0.0029071,0,0,0,0.057637,0.0039234,0.018468,-1.193,0.026676,0.04812,4.0092e-06,0.32,0.68,0
0.015716,-0.0033816,0.057666,0.003386,0.018316,-0.00087514,0,0,0.051156,-0.019409,0,-0.0022754,0,0,0,0.057681,0.0033719,0.018316,-0.92343,0.026456,0.048592,4.0683e-06,0.34,0.68,0
0.016742,-0.0034804,0.057697,0.0028843,0.018174,-0.00065499,0,0,0.051379,-0.019877,0,-0.001703,0,0,0,0.057705,0.0028765,0.018174,-0.68453,0.026252,0.049004,4.1177e-06,0.36,0.68,0
0.017771,-0.0035689,0.057709,0.0024368,0.018044,-0.0004577,0,0,0.051565,-0.020289,0,-0.00119,0,0,0,0.057713,0.002433,0.018044,-0.47441,0.026063,0.049362,4.1585e-06,0.38,0.68,0
0.018804,-0.0036477,0.057706,0.0020387,0.017923,-0.0002828,0,0,0.051717,-0.02065,0,-0.00073529,0,0,0,0.057707,0.0020372,0.017923,-0.29107,0.025889,0.04967,4.1917e-06,0.4,0.68,0
0.01984,-0.0037175,0.05769,0.0016855,0.017812,-0.00012946,0,0,0.05184,-0.020965,0,-0.0003366,0,0,0,0.05769,0.0016852,0.017812,-0.13245,0.025729,0.049934,4.2182e-06,0.42,0.68,0
0.020878,-0.0037791,0.057663,0.0013731,0.017711,3.438e-06,0,0,0.051938,-0.021239,0,8.9387e-06,0,0,0,0.057663,0.0013731,0.017711,0.0034994,0.025583,0.050158,4.2389e-06,0.44,0.68,0
0.021918,-0.0038331,0.057629,0.0010975,0.017618,0.00011718,0,0,0.052014,-0.021477,0,0.00030467,0,0,0,0.057629,0.0010972,0.017618,0.11877,0.025448,0.050347,4.2545e-06,0.46,0.68,0
0.022959,-0.0038803,0.057588,0.00085509,0.017533,0.00021317,0,0,0.052072,-0.021681,0,0.00055423,0,0,0,0.057589,0.00085429,0.017533,0.21528,0.025326,0.050505,4.2658e-06,0.48,0.68,0
0.024001,-0.0039211,0.057543,0.00064256,0.017456,0.00029283,0,0,0.052113,-0.021857,0,0.00076136,0,0,0,0.057544,0.00064105,0.017456,0.29486,0.025214,0.050635,4.2735e-06,0.5,0.68,0
0.025043,-0.0039564,0.057494,0.00045683,0.017385,0.00035762,0,0,0.052141,-0.022007,0,0.00092981,0,0,0,0.057496,0.00045459,0.017385,0.35922,0.025112,0.050741,4.278e-06,0.52,0.68,0
0.026086,-0.0039866,0.057443,0.00029509,0.017321,0.00040895,0,0,0.052158,-0.022134,0,0.0010633,0,0,0,0.057446,0.00029216,0.017321,0.40998,0.02502,0.050826,4.2799e-06,0.54,0.68,0
0.02713,-0.0040123,0.05739,0.00015476,0.017264,0.00044818,0,0,0.052165,-0.022241,0,0.0011653,0,0,0,0.057394,0.00015125,0.017264,0.44861,0.024936,0.050892,4.2797e-06,0.56,0.68,0
0.028173,-0.004034,0.057337,3.3507e-05,0.017211,0.00047659,0,0,0.052164,-0.022331,0,0.0012391,0,0,0,0.057341,2.9543e-05,0.017211,0.47648,0.024861,0.050942,4.2777e-06,0.58,0.68,0
0.029216,-0.0040521,0.057284,-7.0805e-05,0.017164,0.00049541,0,0,0.052156,-0.022405,0,0.0012881,0,0,0,0.057288,-7.5084e-05,0.017164,0.49484,0.024792,0.050979,4.2743e-06,0.6,0.68,0
0.030259,-0.0040671,0.057232,-0.00016012,0.017122,0.00050573,0,0,0.052144,-0.022466,0,0.0013149,0,0,0,0.057237,-0.00016457,0.017122,0.50483,0.024731,0.051005,4.2697e-06,0.62,0.68,0
0.031302,-0.0040794,0.057181,-0.00023619,0.017084,0.00050861,0,0,0.052127,-0.022516,0,0.0013224,0,0,0,0.057186,-0.0002407,0.017084,0.50748,0.024676,0.05102,4.2644e-06,0.64,0.68,0
0.032344,-0.0040893,0.057132,-0.00030063,0.017049,0.00050497,0,0,0.052107,-0.022555,0,0.0013129,0,0,0,0.057136,-0.00030507,0.017049,0.50372,0.024627,0.051028,4.2584e-06,0.66,0.68,0
0.033386,-0.0040972,0.057084,-0.00035488,0.017019,0.00049567,0,0,0.052085,-0.022586,0,0.0012887,0,0,0,0.057089,-0.00035915,0.017019,0.49438,0.024583,0.051028,4.252e-06,0.68,0.68,0
0.034427,-0.0041033,0.057039,-0.00040023,0.016992,0.00048147,0,0,0.052061,-0.022609,0,0.0012518,0,0,0,0.057043,-0.00040427,0.016992,0.48022,0.024543,0.051024,4.2454e-06,0.7,0.68,0
0.035469,-0.0041079,0.056996,-0.00043788,0.016967,0.00046305,0,0,0.052037,-0.022627,0,0.0012039,0,0,0,0.057,-0.00044162,0.016967,0.4619,0.024508,0.051016,4.2387e-06,0.72,0.68,0
0.036509,-0.0041113,0.056956,-0.00046889,0.016946,0.00044104,0,0,0.052013,-0.022639,0,0.0011467,0,0,0,0.056959,-0.00047227,0.016946,0.44001,0.024478,0.051004,4.232e-06,0.74,0.68,0
0.037549,-0.0041137,0.056918,-0.00049419,0.016927,0.00041596,0,0,0.051988,-0.022648,0,0.0010815,0,0,0,0.056921,-0.00049721,0.016927,0.41508,0.02445,0.05099,4.2255e-06,0.76,0.68,0
0.038588,-0.0041152,0.056883,-0.00051465,0.01691,0.00038828,0,0,0.051964,-0.022653,0,0.0010095,0,0,0,0.056886,-0.00051727,0.01691,0.38757,0.024426,0.050975,4.2193e-06,0.78,0.68,0
0.039628,-0.0041161,0.056851,-0.00053101,0.016896,0.00035843,0,0,0.051942,-0.022655,0,0.00093192,0,0,0,0.056853,-0.00053325,0.016896,0.35787,0.024405,0.050959,4.2133e-06,0.8,0.68,0
0.040666,-0.0041165,0.056822,-0.00054394,0.016883,0.00032677,0,0,0.05192,-0.022656,0,0.00084959,0,0,0,0.056824,-0.0005458,0.016883,0.32635,0.024387,0.050943,4.2077e-06,0.82,0.68,0
0.041704,-0.0041165,0.056796,-0.00055404,0.016873,0.00029359,0,0,0.051901,-0.022655,0,0.00076335,0,0,0,0.056798,-0.00055554,0.016873,0.29331,0.024372,0.050927,4.2027e-06,0.84,0.68,0
0.042742,-0.0041162,0.056773,-0.0005618,0.016863,0.00025919,0,0,0.051882,-0.022653,0,0.0006739,0,0,0,0.056774,-0.00056297,0.016863,0.25901,0.024358,0.050912,4.1981e-06,0.86,0.68,0
0.04378,-0.0041158,0.056753,-0.00056768,0.016856,0.00022379,0,0,0.051867,-0.02265,0,0.00058185,0,0,0,0.056754,-0.00056855,0.016856,0.22369,0.024347,0.050899,4.194e-06,0.88,0.68,0
0.044817,-0.0041153,0.056736,-0.00057204,0.016849,0.00018759,0,0,0.051853,-0.022648,0,0.00048773,0,0,0,0.056737,-0.00057265,0.016849,0.18754,0.024338,0.050887,4.1905e-06,0.9,0.68,0
0.045854,-0.0041148,0.056722,-0.00057519,0.016844,0.00015076,0,0,0.051841,-0.022645,0,0.00039198,0,0,0,0.056723,-0.00057559,0.016844,0.15076,0.02433,0.050876,4.1876e-06,0.92,0.68,0
0.046891,-0.0041144,0.056711,-0.00057739,0.01684,0.00011346,0,0,0.051833,-0.022643,0,0.000295,0,0,0,0.056712,-0.00057761,0.01684,0.11348,0.024325,0.050868,4.1854e-06,0.94,0.68,0
0.047927,-0.004114,0.056704,-0.00057883,0.016837,7.5823e-05,0,0,0.051826,-0.022641,0,0.00019714,0,0,0,0.056704,-0.00057893,0.016837,0.075841,0.024321,0.050862,4.1838e-06,0.96,0.68,0
0.048964,-0.0041138,0.056699,-0.00057963,0.016836,3.7965e-05,0,0,0.051822,-0.02264,0,9.871e-05,0,0,0,0.056699,-0.00057966,0.016836,0.037977,0.024318,0.050859,4.1828e-06,0.98,0.68,0
0.05,-0.0041138,0.056698,-0.00057989,0.016835,1.4349e-06,0,0,0.051821,-0.02264,0,3.7309e-06,0,0,0,0.056698,-0.00057989,0.016835,0.0014354,0.024318,0.050858,4.1824e-06,1,0.68,0
0,0,0.05264,0.02256,0.02256,-0.0054525,0,0,0.039104,-3.2526e-19,0,-0.014176,0,0,0,0.053598,0.021602,0.02256,-9.9637,0.032587,0.031528,1.6045e-06,0,0.7,0
0.00078208,-0.00028353,0.052489,0.020758,0.021974,-0.0054327,0,0,0.039669,-0.0015808,0,-0.014125,0,0,0,0.053393,0.019854,0.021974,-9.4512,0.03174,0.032531,1.7428e-06,0.02,0.7,0
0.0015868,-0.00056853,0.053086,0.019252,0.021701,-0.0053904,0,0,0.0408,-0.0031842,0,-0.014015,0,0,0,0.053924,0.018414,0.021701,-8.837,0.031347,0.033986,1.9527e-06,0.04,0.7,0
0.0024141,-0.00085281,0.053673,0.017739,0.021424,-0.0052886,0,0,0.041924,-0.0047899,0,-0.013751,0,0,0,0.054435,0.016977,0.021424,-8.201,0.030945,0.035445,2.1662e-06,0.06,0.7,0
0.0032637,-0.001134,0.054238,0.016239,0.021143,-0.0051262,0,0,0.043024,-0.0063758,0,-0.013328,0,0,0,0.054918,0.015559,0.021143,-7.5495,0.03054,0.036885,2.3794e-06,0.08,0.7,0
0.004135,-0.0014099,0.054772,0.014771,0.020863,-0.0049059,0,0,0.044082,-0.0079197,0,-0.012755,0,0,0,0.055365,0.014178,0.020863,-6.891,0.030135,0.038285,2.5883e-06,0.1,0.7,0
0.005027,-0.001678,0.055266,0.013354,0.020586,-0.0046341,0,0,0.045084,-0.0094015,0,-0.012049,0,0,0,0.055772,0.012848,0.020586,-6.2347,0.029735,0.039626,2.7894e-06,0.12,0.7,0
0.0059384,-0.0019364,0.055713,0.012004,0.020315,-0.0043196,0,0,0.046018,-0.010805,0,-0.011231,0,0,0,0.056136,0.011581,0.020315,-5.5902,0.029344,0.040894,2.9793e-06,0.14,0.7,0
0.0068677,-0.0021833,0.05611,0.010732,0.020053,-0.0039728,0,0,0.046874,-0.012117,0,-0.010329,0,0,0,0.056455,0.010387,0.020053,-4.9658,0.028965,0.042077,3.1559e-06,0.16,0.7,0
0.0078134,-0.0024174,0.056454,0.0095456,0.0198,-0.0036047,0,0,0.04765,-0.01333,0,-0.0093723,0,0,0,0.056729,0.0092702,0.0198,-4.3688,0.0286,0.043168,3.3175e-06,0.18,0.7,0
0.0087737,-0.0026376,0.056745,0.0084496,0.019558,-0.0032261,0,0,0.048343,-0.014441,0,-0.0083879,0,0,0,0.05696,0.008235,0.019558,-3.8048,0.028251,0.044165,3.4634e-06,0.2,0.7,0
0.0097471,-0.0028433,0.056987,0.0074446,0.019329,-0.0028466,0,0,0.048954,-0.01545,0,-0.0074012,0,0,0,0.057149,0.0072816,0.019329,-3.2778,0.02792,0.045068,3.5933e-06,0.22,0.7,0
0.010732,-0.0030341,0.057181,0.0065293,0.019113,-0.0024744,0,0,0.049488,-0.016359,0,-0.0064335,0,0,0,0.057302,0.0064087,0.019113,-2.7901,0.027608,0.04588,3.7076e-06,0.24,0.7,0
0.011727,-0.00321,0.057334,0.0057001,0.01891,-0.0021162,0,0,0.049951,-0.017173,0,-0.0055022,0,0,0,0.05742,0.0056136,0.01891,-2.343,0.027315,0.046603,3.8071e-06,0.26,0.7,0
0.01273,-0.0033712,0.057448,0.0049527,0.01872,-0.0017771,0,0,0.050347,-0.017898,0,-0.0046204,0,0,0,0.057508,0.0048926,0.01872,-1.9366,0.02704,0.047245,3.8928e-06,0.28,0.7,0
0.01374,-0.0035182,0.05753,0.0042815,0.018544,-0.0014606,0,0,0.050683,-0.018541,0,-0.0037976,0,0,0,0.05757,0.0042414,0.018544,-1.5701,0.026785,0.04781,3.9659e-06,0.3,0.7,0
0.014757,-0.0036515,0.057584,0.0036808,0.01838,-0.0011691,0,0,0.050966,-0.019108,0,-0.0030397,0,0,0,0.05761,0.0036555,0.01838,-1.2419,0.026548,0.048306,4.0275e-06,0.32,0.7,0
0.015779,-0.0037717,0.057615,0.0031449,0.018228,-0.00090378,0,0,0.051203,-0.019608,0,-0.0023498,0,0,0,0.05763,0.0031299,0.018228,-0.95032,0.026329,0.048738,4.0789e-06,0.34,0.7,0
0.016805,-0.0038796,0.057626,0.0026681,0.018088,-0.00066493,0,0,0.051399,-0.020046,0,-0.0017288,0,0,0,0.057634,0.0026601,0.018088,-0.69308,0.026127,0.049112,4.1213e-06,0.36,0.7,0
0.017835,-0.0039761,0.05762,0.0022449,0.01796,-0.00045221,0,0,0.051559,-0.020429,0,-0.0011757,0,0,0,0.057624,0.0022412,0.01796,-0.46785,0.025942,0.049435,4.1558e-06,0.38,0.7,0
0.018868,-0.0040618,0.057602,0.0018702,0.017842,-0.00026478,0,0,0.051689,-0.020763,0,-0.00068844,0,0,0,0.057604,0.0018689,0.017842,-0.2722,0.025771,0.049712,4.1834e-06,0.4,0.7,0
0.019903,-0.0041377,0.057574,0.0015392,0.017734,-0.00010142,0,0,0.051792,-0.021053,0,-0.00026368,0,0,0,0.057574,0.001539,0.017734,-0.1037,0.025616,0.049947,4.205e-06,0.42,0.7,0
0.020939,-0.0042045,0.057538,0.0012476,0.017635,3.9342e-05,0,0,0.051873,-0.021304,0,0.00010229,0,0,0,0.057538,0.0012475,0.017635,0.040045,0.025474,0.050146,4.2215e-06,0.44,0.7,0
0.021978,-0.0042631,0.057495,0.00099123,0.017546,0.0001591,0,0,0.051934,-0.021521,0,0.00041365,0,0,0,0.057496,0.00099078,0.017546,0.16132,0.025344,0.050313,4.2336e-06,0.46,0.7,0
0.023017,-0.0043142,0.057449,0.00076653,0.017465,0.00025952,0,0,0.051979,-0.021707,0,0.00067476,0,0,0,0.05745,0.00076534,0.017465,0.26232,0.025227,0.050452,4.2421e-06,0.48,0.7,0
0.024057,-0.0043584,0.057399,0.00057013,0.017391,0.0003423,0,0,0.052011,-0.021867,0,0.00088998,0,0,0,0.057401,0.00056807,0.017391,0.3451,0.02512,0.050566,4.2474e-06,0.5,0.7,0
0.025097,-0.0043965,0.057348,0.00039899,0.017324,0.00040909,0,0,0.052031,-0.022002,0,0.0010636,0,0,0,0.05735,0.00039605,0.017324,0.41156,0.025024,0.050658,4.2502e-06,0.52,0.7,0
0.026138,-0.0044292,0.057295,0.00025036,0.017264,0.00046148,0,0,0.052041,-0.022117,0,0.0011999,0,0,0,0.057299,0.00024663,0.017264,0.46347,0.024936,0.050731,4.2508e-06,0.54,0.7,0
0.027179,-0.0044569,0.057243,0.00012175,0.017209,0.000501,0,0,0.052043,-0.022214,0,0.0013026,0,0,0,0.057247,0.00011736,0.017209,0.50248,0.024858,0.050789,4.2496e-06,0.56,0.7,0
0.02822,-0.0044803,0.057191,1.091e-05,0.01716,0.00052906,0,0,0.052039,-0.022294,0,0.0013756,0,0,0,0.057196,6.015e-06,0.01716,0.53008,0.024787,0.050832,4.247e-06,0.58,0.7,0
0.02926,-0.0044998,0.05714,-8.4206e-05,0.017117,0.00054699,0,0,0.05203,-0.022361,0,0.0014222,0,0,0,0.057145,-8.9434e-05,0.017117,0.54761,0.024724,0.050863,4.2433e-06,0.6,0.7,0
0.030301,-0.004516,0.05709,-0.00016544,0.017077,0.000556,0,0,0.052016,-0.022416,0,0.0014456,0,0,0,0.057095,-0.00017084,0.017077,0.55632,0.024667,0.050884,4.2388e-06,0.62,0.7,0
0.031341,-0.0045292,0.057042,-0.00023445,0.017042,0.0005572,0,0,0.052,-0.02246,0,0.0014487,0,0,0,0.057048,-0.00023987,0.017042,0.55732,0.024617,0.050897,4.2336e-06,0.64,0.7,0
0.032381,-0.0045398,0.056996,-0.00029274,0.017011,0.00055161,0,0,0.051981,-0.022495,0,0.0014342,0,0,0,0.057002,-0.00029805,0.017011,0.5516,0.024572,0.050902,4.2279e-06,0.66,0.7,0
0.03342,-0.0045483,0.056953,-0.00034167,0.016983,0.00054011,0,0,0.05196,-0.022523,0,0.0014043,0,0,0,0.056958,-0.00034676,0.016983,0.54006,0.024532,0.050902,4.222e-06,0.68,0.7,0
0.034459,-0.0045549,0.056911,-0.00038245,0.016959,0.00052354,0,0,0.051939,-0.022544,0,0.0013612,0,0,0,0.056916,-0.00038723,0.016959,0.5235,0.024496,0.050898,4.2159e-06,0.7,0.7,0
0.035498,-0.0045598,0.056873,-0.00041618,0.016937,0.00050262,0,0,0.051916,-0.022559,0,0.0013068,0,0,0,0.056877,-0.00042059,0.016937,0.50263,0.024465,0.05089,4.2098e-06,0.72,0.7,0
0.036536,-0.0045634,0.056836,-0.00044385,0.016918,0.00047798,0,0,0.051894,-0.02257,0,0.0012427,0,0,0,0.056841,-0.00044784,0.016918,0.47806,0.024437,0.050879,4.2038e-06,0.74,0.7,0
0.037574,-0.004566,0.056803,-0.00046634,0.016901,0.00045019,0,0,0.051873,-0.022578,0,0.0011705,0,0,0,0.056806,-0.00046988,0.016901,0.45036,0.024413,0.050866,4.198e-06,0.76,0.7,0
0.038611,-0.0045676,0.056772,-0.00048442,0.016886,0.00041975,0,0,0.051851,-0.022582,0,0.0010914,0,0,0,0.056775,-0.0004875,0.016886,0.42001,0.024391,0.050853,4.1924e-06,0.78,0.7,0
0.039648,-0.0045685,0.056744,-0.0004988,0.016873,0.00038709,0,0,0.051831,-0.022584,0,0.0010064,0,0,0,0.056746,-0.00050142,0.016873,0.38743,0.024373,0.050838,4.1872e-06,0.8,0.7,0
0.040684,-0.0045689,0.056718,-0.00051009,0.016862,0.00035258,0,0,0.051812,-0.022584,0,0.00091672,0,0,0,0.05672,-0.00051227,0.016862,0.35298,0.024357,0.050824,4.1823e-06,0.82,0.7,0
0.04172,-0.0045689,0.056695,-0.00051884,0.016853,0.00031656,0,0,0.051795,-0.022583,0,0.00082305,0,0,0,0.056697,-0.00052059,0.016853,0.31699,0.024343,0.05081,4.1778e-06,0.84,0.7,0
0.042756,-0.0045686,0.056675,-0.0005255,0.016845,0.00027928,0,0,0.051779,-0.022582,0,0.00072614,0,0,0,0.056677,-0.00052687,0.016845,0.27974,0.024332,0.050797,4.1738e-06,0.86,0.7,0
0.043791,-0.0045681,0.056658,-0.0005305,0.016838,0.00024101,0,0,0.051766,-0.022579,0,0.00062662,0,0,0,0.056659,-0.00053151,0.016838,0.24145,0.024322,0.050785,4.1702e-06,0.88,0.7,0
0.044826,-0.0045676,0.056643,-0.00053416,0.016833,0.00020193,0,0,0.051754,-0.022577,0,0.00052502,0,0,0,0.056644,-0.00053487,0.016833,0.20235,0.024314,0.050774,4.1672e-06,0.9,0.7,0
0.045861,-0.004567,0.056631,-0.00053678,0.016828,0.00016223,0,0,0.051744,-0.022575,0,0.0004218,0,0,0,0.056632,-0.00053724,0.016828,0.16259,0.024308,0.050765,4.1647e-06,0.92,0.7,0
0.046896,-0.0045666,0.056622,-0.00053858,0.016825,0.00012206,0,0,0.051736,-0.022573,0,0.00031736,0,0,0,0.056622,-0.00053885,0.016825,0.12235,0.024303,0.050758,4.1627e-06,0.94,0.7,0
0.047931,-0.0045662,0.056615,-0.00053975,0.016823,8.1554e-05,0,0,0.05173,-0.022571,0,0.00021204,0,0,0,0.056615,-0.00053987,0.016823,0.081755,0.024299,0.050753,4.1613e-06,0.96,0.7,0
0.048966,-0.004566,0.056611,-0.0005404,0.016821,4.083e-05,0,0,0.051727,-0.02257,0,0.00010616,0,0,0,0.056611,-0.00054043,0.016821,0.040933,0.024297,0.050749,4.1604e-06,0.98,0.7,0
0.05,-0.0045659,0.05661,-0.00054061,0.016821,1.5693e-06,0,0,0.051726,-0.02257,0,4.0803e-06,0,0,0,0.05661,-0.00054061,0.016821,0.0015733,0.024297,0.050748,4.1602e-06,1,0.7,0
0,0,0.052772,0.022616,0.022616,-0.0060711,0,0,0.039202,-3.2526e-19,0,-0.015785,0,0,0,0.053948,0.02144,0.022616,-10.966,0.032668,0.031936,1.6652e-06,0,0.72,0
0.00078403,-0.0003157,0.052615,0.020746,0.022008,-0.006048,0,0,0.039789,-0.0016411,0,-0.015725,0,0,0,0.053724,0.019637,0.022008,-10.392,0.03179,0.032966,1.8079e-06,0.02,0.72,0
0.0015915,-0.00063338,0.053234,0.019175,0.021723,-0.0060001,0,0,0.040965,-0.0033121,0,-0.0156,0,0,0,0.05426,0.018149,0.021723,-9.7047,0.031377,0.034464,2.0263e-06,0.04,0.72,0
0.0024226,-0.00095041,0.05384,0.017593,0.02143,-0.0058807,0,0,0.042133,-0.0049878,0,-0.01529,0,0,0,0.05477,0.016663,0.02143,-8.9886,0.030954,0.035961,2.2477e-06,0.06,0.72,0
0.0032769,-0.001264,0.05442,0.016025,0.021134,-0.0056885,0,0,0.043273,-0.0066408,0,-0.01479,0,0,0,0.055245,0.0152,0.021134,-8.2526,0.030527,0.037433,2.4673e-06,0.08,0.72,0
0.0041535,-0.0015712,0.054964,0.014497,0.020838,-0.0054276,0,0,0.044363,-0.008244,0,-0.014112,0,0,0,0.055679,0.013781,0.020838,-7.508,0.030099,0.038853,2.6804e-06,0.1,0.72,0
0.0050514,-0.0018694,0.05546,0.013028,0.020546,-0.0051068,0,0,0.045387,-0.0097736,0,-0.013278,0,0,0,0.056066,0.012422,0.020546,-6.7671,0.029678,0.040202,2.883e-06,0.12,0.72,0
0.005969,-0.0021562,0.055901,0.011638,0.020262,-0.0047377,0,0,0.046331,-0.011211,0,-0.012318,0,0,0,0.056403,0.011137,0.020262,-6.0415,0.029267,0.041463,3.0719e-06,0.14,0.72,0
0.0069047,-0.0024296,0.056285,0.010339,0.019987,-0.0043339,0,0,0.047186,-0.012542,0,-0.011268,0,0,0,0.05669,0.0099341,0.019987,-5.3418,0.02887,0.042628,3.2447e-06,0.16,0.72,0
0.0078565,-0.002688,0.056608,0.0091388,0.019724,-0.0039091,0,0,0.04795,-0.013761,0,-0.010164,0,0,0,0.056928,0.0088191,0.019724,-4.6763,0.02849,0.043689,3.4002e-06,0.18,0.72,0
0.0088226,-0.0029304,0.056875,0.0080398,0.019474,-0.0034761,0,0,0.048621,-0.014865,0,-0.0090378,0,0,0,0.057121,0.0077936,0.019474,-4.0511,0.02813,0.044648,3.5382e-06,0.2,0.72,0
0.0098013,-0.0031561,0.057088,0.0070415,0.019239,-0.0030462,0,0,0.049204,-0.015856,0,-0.0079201,0,0,0,0.057272,0.0068567,0.019239,-3.4704,0.027789,0.045506,3.6589e-06,0.22,0.72,0
0.010791,-0.0033649,0.057252,0.0061405,0.019018,-0.0026287,0,0,0.049704,-0.01674,0,-0.0068345,0,0,0,0.057387,0.0060057,0.019018,-2.9364,0.02747,0.046268,3.7632e-06,0.24,0.72,0
0.011789,-0.0035568,0.057373,0.0053317,0.018811,-0.0022305,0,0,0.05013,-0.017524,0,-0.0057994,0,0,0,0.057468,0.0052363,0.018811,-2.4498,0.027172,0.046941,3.8524e-06,0.26,0.72,0
0.012796,-0.0037322,0.057457,0.0046086,0.01862,-0.001857,0,0,0.050488,-0.018214,0,-0.0048283,0,0,0,0.057522,0.0045435,0.01862,-2.01,0.026895,0.04753,3.9279e-06,0.28,0.72,0
0.013809,-0.0038917,0.05751,0.0039644,0.018442,-0.0015114,0,0,0.050788,-0.018821,0,-0.0039298,0,0,0,0.057552,0.0039218,0.018442,-1.6156,0.026639,0.048045,3.9911e-06,0.3,0.72,0
0.014828,-0.004036,0.057537,0.0033922,0.018279,-0.0011957,0,0,0.051036,-0.019353,0,-0.0031089,0,0,0,0.057563,0.0033658,0.018279,-1.2645,0.026403,0.048493,4.0435e-06,0.32,0.72,0
0.01585,-0.0041659,0.057543,0.002885,0.018128,-0.00091053,0,0,0.051239,-0.019817,0,-0.0023674,0,0,0,0.057558,0.0028699,0.018128,-0.95412,0.026186,0.048879,4.0864e-06,0.34,0.72,0
0.016877,-0.0042823,0.057533,0.0024365,0.017991,-0.00065569,0,0,0.051404,-0.02022,0,-0.0017048,0,0,0,0.05754,0.0024287,0.017991,-0.68174,0.025987,0.049212,4.1211e-06,0.36,0.72,0
0.017907,-0.004386,0.057509,0.0020407,0.017865,-0.00043032,0,0,0.051537,-0.020571,0,-0.0011188,0,0,0,0.057512,0.0020373,0.017865,-0.44446,0.025805,0.049497,4.1488e-06,0.38,0.72,0
0.018939,-0.0044782,0.057475,0.001692,0.01775,-0.00023306,0,0,0.051643,-0.020876,0,-0.00060595,0,0,0,0.057476,0.001691,0.01775,-0.23937,0.025639,0.04974,4.1705e-06,0.4,0.72,0
0.019972,-0.0045596,0.057434,0.0013854,0.017646,-6.2248e-05,0,0,0.051725,-0.021139,0,-0.00016184,0,0,0,0.057434,0.0013854,0.017646,-0.063632,0.025489,0.049945,4.1871e-06,0.42,0.72,0
0.021007,-0.0046313,0.057388,0.0011164,0.017551,8.3965e-05,0,0,0.051788,-0.021365,0,0.00021831,0,0,0,0.057388,0.0011163,0.017551,0.085493,0.025352,0.050118,4.1993e-06,0.44,0.72,0
0.022044,-0.004694,0.057338,0.00088096,0.017466,0.00020753,0,0,0.051834,-0.02156,0,0.00053957,0,0,0,0.057339,0.00088019,0.017466,0.21061,0.025228,0.050262,4.208e-06,0.46,0.72,0
0.023081,-0.0047485,0.057286,0.00067526,0.017388,0.00031041,0,0,0.051867,-0.021727,0,0.00080707,0,0,0,0.057288,0.00067356,0.017388,0.31415,0.025117,0.050381,4.2137e-06,0.48,0.72,0
0.024119,-0.0047958,0.057233,0.00049607,0.017319,0.00039454,0,0,0.051889,-0.02187,0,0.0010258,0,0,0,0.057236,0.00049333,0.017319,0.3984,0.025016,0.050479,4.2168e-06,0.5,0.72,0
0.025156,-0.0048365,0.05718,0.00034041,0.017256,0.00046179,0,0,0.051901,-0.02199,0,0.0012007,0,0,0,0.057184,0.00033666,0.017256,0.46546,0.024925,0.050557,4.2179e-06,0.52,0.72,0
0.026195,-0.0048713,0.057127,0.00020563,0.0172,0.00051393,0,0,0.051906,-0.022093,0,0.0013362,0,0,0,0.057132,0.00020099,0.0172,0.51726,0.024844,0.05062,4.2174e-06,0.54,0.72,0
0.027233,-0.0049009,0.057076,8.9335e-05,0.01715,0.00055262,0,0,0.051904,-0.022178,0,0.0014368,0,0,0,0.057081,8.3977e-05,0.01715,0.55555,0.024772,0.050668,4.2155e-06,0.56,0.72,0
0.028271,-0.0049258,0.057026,-1.0616e-05,0.017105,0.0005794,0,0,0.051898,-0.02225,0,0.0015065,0,0,0,0.057032,-1.6501e-05,0.017105,0.58196,0.024707,0.050704,4.2125e-06,0.58,0.72,0
0.029309,-0.0049466,0.056978,-9.6147e-05,0.017065,0.00059569,0,0,0.051888,-0.022309,0,0.0015488,0,0,0,0.056984,-0.00010236,0.017065,0.59792,0.024649,0.05073,4.2087e-06,0.6,0.72,0
0.030346,-0.0049638,0.056932,-0.00016898,0.017029,0.00060279,0,0,0.051874,-0.022357,0,0.0015673,0,0,0,0.056939,-0.00017535,0.017029,0.60475,0.024597,0.050748,4.2043e-06,0.62,0.72,0
0.031384,-0.0049778,0.056888,-0.00023068,0.016997,0.00060187,0,0,0.051858,-0.022396,0,0.0015649,0,0,0,0.056895,-0.00023703,0.016997,0.60364,0.024552,0.050759,4.1995e-06,0.64,0.72,0
0.032421,-0.0049891,0.056847,-0.00028264,0.016969,0.00059398,0,0,0.051841,-0.022428,0,0.0015444,0,0,0,0.056853,-0.00028881,0.016969,0.59562,0.024511,0.050763,4.1943e-06,0.66,0.72,0
0.033457,-0.0049981,0.056808,-0.0003261,0.016945,0.0005801,0,0,0.051823,-0.022452,0,0.0015083,0,0,0,0.056814,-0.00033199,0.016945,0.58166,0.024476,0.050763,4.1891e-06,0.68,0.72,0
0.034494,-0.005005,0.056772,-0.0003622,0.016923,0.00056105,0,0,0.051804,-0.022471,0,0.0014587,0,0,0,0.056777,-0.00036771,0.016923,0.56256,0.024444,0.050759,4.1837e-06,0.7,0.72,0
0.035529,-0.0050103,0.056738,-0.00039194,0.016904,0.00053759,0,0,0.051784,-0.022485,0,0.0013977,0,0,0,0.056743,-0.00039699,0.016904,0.53909,0.024417,0.050752,4.1784e-06,0.72,0.72,0
0.036565,-0.0050141,0.056707,-0.00041622,0.016887,0.0005104,0,0,0.051765,-0.022494,0,0.001327,0,0,0,0.056711,-0.00042078,0.016887,0.51189,0.024393,0.050743,4.1733e-06,0.74,0.72,0
0.0376,-0.0050168,0.056678,-0.00043584,0.016873,0.00048004,0,0,0.051747,-0.022501,0,0.0012481,0,0,0,0.056682,-0.00043988,0.016873,0.48152,0.024372,0.050732,4.1683e-06,0.76,0.72,0
0.038635,-0.0050185,0.056652,-0.00045153,0.01686,0.00044702,0,0,0.051729,-0.022505,0,0.0011623,0,0,0,0.056655,-0.00045503,0.01686,0.44849,0.024353,0.05072,4.1635e-06,0.78,0.72,0
0.039669,-0.0050194,0.056628,-0.00046392,0.016849,0.00041179,0,0,0.051712,-0.022507,0,0.0010707,0,0,0,0.056631,-0.00046689,0.016849,0.41324,0.024338,0.050708,4.1591e-06,0.8,0.72,0
0.040703,-0.0050198,0.056606,-0.00047357,0.01684,0.00037473,0,0,0.051696,-0.022507,0,0.00097431,0,0,0,0.056609,-0.00047602,0.01684,0.37613,0.024324,0.050696,4.1549e-06,0.82,0.72,0
0.041737,-0.0050198,0.056587,-0.00048096,0.016832,0.00033617,0,0,0.051682,-0.022507,0,0.00087405,0,0,0,0.056589,-0.00048294,0.016832,0.3375,0.024313,0.050684,4.1512e-06,0.84,0.72,0
0.042771,-0.0050195,0.056571,-0.00048654,0.016825,0.00029639,0,0,0.051669,-0.022505,0,0.0007706,0,0,0,0.056572,-0.00048808,0.016825,0.29762,0.024303,0.050673,4.1478e-06,0.86,0.72,0
0.043804,-0.005019,0.056556,-0.00049066,0.01682,0.00025562,0,0,0.051657,-0.022503,0,0.00066461,0,0,0,0.056557,-0.00049181,0.01682,0.25673,0.024295,0.050662,4.1449e-06,0.88,0.72,0
0.044837,-0.0050184,0.056544,-0.00049364,0.016815,0.00021407,0,0,0.051648,-0.022501,0,0.00055658,0,0,0,0.056545,-0.00049444,0.016815,0.21504,0.024289,0.050653,4.1423e-06,0.9,0.72,0
0.04587,-0.0050178,0.056534,-0.00049573,0.016812,0.00017192,0,0,0.051639,-0.022499,0,0.00044699,0,0,0,0.056535,-0.00049625,0.016812,0.17272,0.024283,0.050646,4.1402e-06,0.92,0.72,0
0.046902,-0.0050173,0.056526,-0.00049715,0.016809,0.00012931,0,0,0.051633,-0.022498,0,0.00033621,0,0,0,0.056527,-0.00049744,0.016809,0.12993,0.024279,0.05064,4.1386e-06,0.94,0.72,0
0.047935,-0.0050169,0.056521,-0.00049805,0.016807,8.6381e-05,0,0,0.051628,-0.022496,0,0.00022459,0,0,0,0.056521,-0.00049818,0.016807,0.0868,0.024277,0.050635,4.1374e-06,0.96,0.72,0
0.048967,-0.0050166,0.056518,-0.00049854,0.016806,4.3241e-05,0,0,0.051626,-0.022496,0,0.00011243,0,0,0,0.056518,-0.00049858,0.016806,0.043453,0.024275,0.050633,4.1367e-06,0.98,0.72,0
0.05,-0.0050165,0.056517,-0.0004987,0.016805,1.6879e-06,0,0,0.051625,-0.022495,0,4.3886e-06,0,0,0,0.056517,-0.0004987,0.016805,0.0016962,0.024274,0.050632,4.1365e-06,1,0.72,0
0,0,0.052935,0.022687,0.022687,-0.0067149,0,0,0.039323,2.1684e-19,0,-0.017459,0,0,0,0.054359,0.021263,0.022687,-11.97,0.03277,0.032408,1.7367e-06,0,0.74,0
0.00078647,-0.00034918,0.052773,0.020734,0.022052,-0.0066878,0,0,0.039937,-0.0017129,0,-0.017388,0,0,0,0.054113,0.019394,0.022052,-11.33,0.031853,0.033469,1.8846e-06,0.02,0.74,0
0.0015975,-0.00070101,0.053416,0.019085,0.02175,-0.0066336,0,0,0.041166,-0.0034652,0,-0.017247,0,0,0,0.054654,0.017848,0.02175,-10.564,0.031417,0.035018,2.1134e-06,0.04,0.74,0
0.0024331,-0.0010523,0.054045,0.01742,0.021439,-0.0064927,0,0,0.042387,-0.0052251,0,-0.016881,0,0,0,0.055162,0.016303,0.021439,-9.7611,0.030968,0.036562,2.3441e-06,0.06,0.74,0
0.0032929,-0.0013997,0.054642,0.015772,0.021124,-0.0062643,0,0,0.043573,-0.0069579,0,-0.016287,0,0,0,0.055626,0.014787,0.021124,-8.9326,0.030513,0.038068,2.5708e-06,0.08,0.74,0
0.004176,-0.0017396,0.055194,0.014171,0.020809,-0.0059546,0,0,0.0447,-0.00863,0,-0.015482,0,0,0,0.056041,0.013324,0.020809,-8.0941,0.030058,0.039509,2.7881e-06,0.1,0.74,0
0.0050809,-0.0020689,0.055689,0.012644,0.0205,-0.0055754,0,0,0.045746,-0.010213,0,-0.014496,0,0,0,0.056399,0.011933,0.0205,-7.2616,0.029611,0.040862,2.9915e-06,0.12,0.74,0
0.0060059,-0.0023848,0.05612,0.011211,0.020199,-0.0051427,0,0,0.046697,-0.011685,0,-0.013371,0,0,0,0.056701,0.01063,0.020199,-6.4499,0.029177,0.04211,3.1777e-06,0.14,0.74,0
0.0069488,-0.002685,0.056483,0.0098851,0.019911,-0.0046738,0,0,0.047545,-0.013033,0,-0.012152,0,0,0,0.056947,0.0094209,0.019911,-5.6715,0.02876,0.043247,3.3446e-06,0.16,0.74,0
0.0079076,-0.0029679,0.05678,0.008673,0.019636,-0.0041858,0,0,0.048287,-0.014252,0,-0.010883,0,0,0,0.057141,0.0083115,0.019636,-4.9359,0.028363,0.044268,3.4917e-06,0.18,0.74,0
0.0088803,-0.0032322,0.057014,0.0075756,0.019377,-0.003694,0,0,0.048928,-0.015341,0,-0.0096045,0,0,0,0.057288,0.0073011,0.019377,-4.2497,0.027989,0.045176,3.6193e-06,0.2,0.74,0
0.0098647,-0.0034775,0.05719,0.0065898,0.019134,-0.0032113,0,0,0.049473,-0.016307,0,-0.0083494,0,0,0,0.057393,0.0063868,0.019134,-3.6169,0.027638,0.045978,3.7284e-06,0.22,0.74,0
0.010859,-0.0037037,0.057316,0.0057095,0.018908,-0.0027477,0,0,0.049931,-0.017158,0,-0.007144,0,0,0,0.057462,0.0055636,0.018908,-3.0391,0.027311,0.04668,3.8206e-06,0.24,0.74,0
0.011862,-0.0039109,0.0574,0.0049273,0.018698,-0.0023104,0,0,0.050312,-0.017902,0,-0.006007,0,0,0,0.057502,0.0048257,0.018698,-2.5163,0.027009,0.047291,3.8976e-06,0.26,0.74,0
0.012872,-0.0040998,0.057448,0.0042345,0.018505,-0.0019043,0,0,0.050627,-0.018551,0,-0.0049512,0,0,0,0.057516,0.0041665,0.018505,-2.0469,0.026729,0.047821,3.9612e-06,0.28,0.74,0
0.013887,-0.0042711,0.057468,0.0036228,0.018327,-0.0015322,0,0,0.050883,-0.019116,0,-0.0039837,0,0,0,0.057512,0.0035792,0.018327,-1.6286,0.026473,0.048279,4.0133e-06,0.3,0.74,0
0.014907,-0.0044256,0.057465,0.0030836,0.018165,-0.0011953,0,0,0.051091,-0.019605,0,-0.0031078,0,0,0,0.057492,0.0030574,0.018165,-1.2586,0.026238,0.048672,4.0554e-06,0.32,0.74,0
0.015931,-0.0045643,0.057445,0.0026094,0.018016,-0.00089363,0,0,0.051257,-0.020029,0,-0.0023234,0,0,0,0.05746,0.0025948,0.018016,-0.93339,0.026024,0.049009,4.0891e-06,0.34,0.74,0
0.016957,-0.0046884,0.057412,0.0021927,0.017881,-0.0006262,0,0,0.05139,-0.020395,0,-0.0016281,0,0,0,0.057419,0.0021856,0.017881,-0.64964,0.025829,0.049297,4.1157e-06,0.36,0.74,0
0.017986,-0.0047989,0.057369,0.0018272,0.017759,-0.0003915,0,0,0.051493,-0.020711,0,-0.0010179,0,0,0,0.057372,0.0018245,0.017759,-0.40383,0.025652,0.049541,4.1363e-06,0.38,0.74,0
0.019017,-0.0048968,0.05732,0.001507,0.017648,-0.00018759,0,0,0.051574,-0.020984,0,-0.00048772,0,0,0,0.057321,0.0015064,0.017648,-0.19257,0.025492,0.049748,4.1519e-06,0.4,0.74,0
0.020049,-0.0049832,0.057267,0.0012269,0.017548,-1.2288e-05,0,0,0.051635,-0.021218,0,-3.1948e-05,0,0,0,0.057267,0.0012269,0.017548,-0.012563,0.025347,0.049922,4.1635e-06,0.42,0.74,0
0.021082,-0.0050592,0.057212,0.00098218,0.017458,0.00013668,0,0,0.05168,-0.021419,0,0.00035538,0,0,0,0.057212,0.00098185,0.017458,0.13928,0.025217,0.050068,4.1716e-06,0.44,0.74,0
0.022116,-0.0051255,0.057155,0.00076884,0.017377,0.00026164,0,0,0.051711,-0.021591,0,0.00068026,0,0,0,0.057156,0.00076762,0.017377,0.26585,0.0251,0.050189,4.1769e-06,0.46,0.74,0
0.023151,-0.0051833,0.057099,0.0005832,0.017305,0.00036484,0,0,0.051733,-0.021738,0,0.00094859,0,0,0,0.057101,0.00058085,0.017305,0.36986,0.024996,0.050289,4.18e-06,0.48,0.74,0
0.024186,-0.0052332,0.057044,0.00042205,0.01724,0.00044847,0,0,0.051745,-0.021863,0,0.001166,0,0,0,0.057047,0.0004185,0.01724,0.45377,0.024902,0.050371,4.1812e-06,0.5,0.74,0
0.025221,-0.0052762,0.05699,0.00028253,0.017182,0.00051458,0,0,0.051751,-0.021969,0,0.0013379,0,0,0,0.056995,0.00027786,0.017182,0.51986,0.024818,0.050436,4.1809e-06,0.52,0.74,0
0.026256,-0.0053129,0.056939,0.0001621,0.01713,0.00056511,0,0,0.051751,-0.022059,0,0.0014693,0,0,0,0.056945,0.00015648,0.01713,0.5702,0.024744,0.050488,4.1795e-06,0.54,0.74,0
0.027291,-0.005344,0.05689,5.8509e-05,0.017084,0.00060185,0,0,0.051747,-0.022134,0,0.0015648,0,0,0,0.056896,5.2136e-05,0.017084,0.60668,0.024678,0.050529,4.1771e-06,0.56,0.74,0
0.028326,-0.0053703,0.056843,-3.0257e-05,0.017044,0.00062643,0,0,0.051739,-0.022197,0,0.0016287,0,0,0,0.05685,-3.7156e-05,0.017044,0.63098,0.024619,0.050559,4.174e-06,0.58,0.74,0
0.02936,-0.0053922,0.0568,-0.00010598,0.017008,0.00064036,0,0,0.051729,-0.022248,0,0.0016649,0,0,0,0.056807,-0.00011319,0.017008,0.64464,0.024567,0.050581,4.1704e-06,0.6,0.74,0
0.030395,-0.0054103,0.056759,-0.00017028,0.016976,0.00064498,0,0,0.051717,-0.022291,0,0.0016769,0,0,0,0.056766,-0.00017758,0.016976,0.64903,0.024522,0.050596,4.1664e-06,0.62,0.74,0
0.031429,-0.0054251,0.05672,-0.00022456,0.016949,0.00064153,0,0,0.051703,-0.022325,0,0.001668,0,0,0,0.056727,-0.00023178,0.016949,0.64537,0.024481,0.050606,4.1621e-06,0.64,0.74,0
0.032463,-0.005437,0.056684,-0.00027011,0.016924,0.00063109,0,0,0.051688,-0.022353,0,0.0016408,0,0,0,0.056691,-0.0002771,0.016924,0.63477,0.024446,0.05061,4.1578e-06,0.66,0.74,0
0.033496,-0.0054464,0.056651,-0.00030807,0.016903,0.00061466,0,0,0.051673,-0.022374,0,0.0015981,0,0,0,0.056658,-0.0003147,0.016903,0.61819,0.024415,0.05061,4.1533e-06,0.68,0.74,0
0.03453,-0.0054537,0.056621,-0.00033947,0.016884,0.00059309,0,0,0.051657,-0.022391,0,0.001542,0,0,0,0.056627,-0.00034564,0.016884,0.5965,0.024389,0.050608,4.1489e-06,0.7,0.74,0
0.035563,-0.0054592,0.056593,-0.00036521,0.016868,0.00056715,0,0,0.051642,-0.022404,0,0.0014746,0,0,0,0.056599,-0.00037086,0.016868,0.57044,0.024365,0.050602,4.1446e-06,0.72,0.74,0
0.036596,-0.0054632,0.056567,-0.00038611,0.016854,0.00053752,0,0,0.051627,-0.022413,0,0.0013976,0,0,0,0.056572,-0.00039119,0.016854,0.54068,0.024345,0.050595,4.1405e-06,0.74,0.74,0
0.037628,-0.005466,0.056544,-0.00040291,0.016842,0.00050478,0,0,0.051612,-0.022419,0,0.0013124,0,0,0,0.056549,-0.00040738,0.016842,0.50782,0.024328,0.050587,4.1365e-06,0.76,0.74,0
0.03866,-0.0054678,0.056523,-0.00041623,0.016832,0.00046944,0,0,0.051598,-0.022423,0,0.0012205,0,0,0,0.056527,-0.0004201,0.016832,0.47234,0.024313,0.050578,4.1327e-06,0.78,0.74,0
0.039692,-0.0054688,0.056504,-0.00042666,0.016823,0.00043195,0,0,0.051585,-0.022425,0,0.0011231,0,0,0,0.056508,-0.00042994,0.016823,0.43469,0.0243,0.050569,4.1292e-06,0.8,0.74,0
0.040723,-0.0054692,0.056487,-0.0004347,0.016816,0.00039269,0,0,0.051573,-0.022426,0,0.001021,0,0,0,0.05649,-0.00043741,0.016816,0.39524,0.024289,0.050559,4.126e-06,0.82,0.74,0
0.041755,-0.0054691,0.056473,-0.00044079,0.01681,0.00035198,0,0,0.051562,-0.022425,0,0.00091515,0,0,0,0.056475,-0.00044297,0.01681,0.35433,0.02428,0.05055,4.1231e-06,0.84,0.74,0
0.042786,-0.0054688,0.05646,-0.00044531,0.016804,0.0003101,0,0,0.051552,-0.022424,0,0.00080625,0,0,0,0.056461,-0.000447,0.016804,0.31222,0.024273,0.050541,4.1204e-06,0.86,0.74,0
0.043817,-0.0054683,0.056449,-0.00044859,0.0168,0.00026728,0,0,0.051543,-0.022423,0,0.00069492,0,0,0,0.05645,-0.00044984,0.0168,0.26914,0.024267,0.050533,4.1182e-06,0.88,0.74,0
0.044848,-0.0054676,0.056439,-0.00045091,0.016796,0.00022372,0,0,0.051536,-0.022422,0,0.00058168,0,0,0,0.05644,-0.00045179,0.016796,0.22531,0.024262,0.050526,4.1162e-06,0.9,0.74,0
0.045878,-0.005467,0.056432,-0.0004525,0.016794,0.0001796,0,0,0.051529,-0.02242,0,0.00046695,0,0,0,0.056432,-0.00045307,0.016794,0.18089,0.024258,0.05052,4.1146e-06,0.92,0.74,0
0.046909,-0.0054665,0.056426,-0.00045355,0.016792,0.00013505,0,0,0.051525,-0.022419,0,0.00035112,0,0,0,0.056426,-0.00045387,0.016792,0.13603,0.024255,0.050516,4.1133e-06,0.94,0.74,0
0.047939,-0.0054661,0.056422,-0.0004542,0.01679,9.019e-05,0,0,0.051521,-0.022418,0,0.0002345,0,0,0,0.056422,-0.00045434,0.01679,0.090856,0.024253,0.050512,4.1124e-06,0.96,0.74,0
0.04897,-0.0054658,0.056419,-0.00045455,0.016789,4.5142e-05,0,0,0.051519,-0.022417,0,0.00011737,0,0,0,0.056419,-0.00045459,0.016789,0.045477,0.024251,0.05051,4.1119e-06,0.98,0.74,0
0.05,-0.0054657,0.056419,-0.00045466,0.016789,1.7857e-06,0,0,0.051518,-0.022417,0,4.6429e-06,0,0,0,0.056419,-0.00045466,0.016789,0.001799,0.024251,0.050509,4.1117e-06,1,0.74,0
0,0,0.05314,0.022774,0.022774,-0.0073888,0,0,0.039476,0,0,-0.019211,0,0,0,0.054843,0.021072,0.022774,-12.975,0.032896,0.032953,1.8212e-06,0,0.76,0
0.00078951,-0.00038421,0.05297,0.020725,0.022108,-0.0073567,0,0,0.04012,-0.0017988,0,-0.019127,0,0,0,0.054569,0.019126,0.022108,-12.264,0.031935,0.03405,1.9753e-06,0.02,0.76,0
0.0016048,-0.00077199,0.053643,0.018979,0.021787,-0.0072948,0,0,0.041413,-0.0036498,0,-0.018967,0,0,0,0.055116,0.017507,0.021787,-11.413,0.03147,0.035662,2.2167e-06,0.04,0.76,0
0.002446,-0.0011594,0.054296,0.017213,0.021453,-0.0071273,0,0,0.042697,-0.0055116,0,-0.018531,0,0,0,0.055619,0.01589,0.021453,-10.513,0.030988,0.03726,2.4584e-06,0.06,0.76,0
0.0033127,-0.0015423,0.054911,0.015468,0.021114,-0.0068538,0,0,0.043937,-0.0073393,0,-0.01782,0,0,0,0.056068,0.014311,0.021114,-9.582,0.030498,0.038806,2.693e-06,0.08,0.76,0
0.0042035,-0.0019164,0.05547,0.013783,0.020776,-0.0064839,0,0,0.045102,-0.0090905,0,-0.016858,0,0,0,0.056455,0.012798,0.020776,-8.6399,0.03001,0.040265,2.9141e-06,0.1,0.76,0
0.0051168,-0.0022779,0.055959,0.01219,0.020445,-0.0060344,0,0,0.046169,-0.010731,0,-0.015689,0,0,0,0.056776,0.011373,0.020445,-7.7078,0.029531,0.041615,3.1168e-06,0.12,0.76,0
0.0060503,-0.0026236,0.056372,0.010712,0.020125,-0.0055268,0,0,0.047121,-0.012237,0,-0.01437,0,0,0,0.057032,0.010053,0.020125,-6.8043,0.02907,0.04284,3.2979e-06,0.14,0.76,0
0.0070016,-0.0029509,0.056707,0.0093613,0.01982,-0.0049835,0,0,0.047952,-0.013597,0,-0.012957,0,0,0,0.057225,0.0088425,0.01982,-5.9441,0.028629,0.043935,3.456e-06,0.16,0.76,0
0.0079684,-0.0032581,0.056966,0.0081428,0.019533,-0.0044256,0,0,0.048663,-0.014807,0,-0.011506,0,0,0,0.057364,0.0077449,0.019533,-5.1378,0.028214,0.044901,3.5915e-06,0.18,0.76,0
0.0089481,-0.0035441,0.057157,0.0070541,0.019263,-0.0038709,0,0,0.049261,-0.015872,0,-0.010064,0,0,0,0.057454,0.0067568,0.019263,-4.3919,0.027825,0.045745,3.7055e-06,0.2,0.76,0
0.0099388,-0.0038084,0.057287,0.0060887,0.019013,-0.0033338,0,0,0.049757,-0.016801,0,-0.0086678,0,0,0,0.057504,0.0058725,0.019013,-3.7099,0.027463,0.046476,3.8001e-06,0.22,0.76,0
0.010938,-0.0040512,0.057368,0.0052372,0.018782,-0.0028245,0,0,0.050162,-0.017608,0,-0.0073437,0,0,0,0.057521,0.0050846,0.018782,-3.0923,0.027129,0.047106,3.8776e-06,0.24,0.76,0
0.011945,-0.0042729,0.057408,0.004489,0.018569,-0.00235,0,0,0.05049,-0.018304,0,-0.0061101,0,0,0,0.057512,0.0043848,0.018569,-2.5377,0.026822,0.047646,3.9403e-06,0.26,0.76,0
0.012958,-0.0044743,0.057415,0.0038334,0.018375,-0.0019145,0,0,0.050753,-0.018904,0,-0.0049776,0,0,0,0.057483,0.0037651,0.018375,-2.0437,0.026541,0.048107,3.9905e-06,0.28,0.76,0
0.013975,-0.0046564,0.057398,0.00326,0.018197,-0.0015197,0,0,0.050961,-0.019419,0,-0.0039512,0,0,0,0.057441,0.0032173,0.018197,-1.6066,0.026285,0.0485,4.0302e-06,0.3,0.76,0
0.014996,-0.0048202,0.057363,0.002759,0.018037,-0.0011658,0,0,0.051124,-0.019861,0,-0.0030311,0,0,0,0.057388,0.0027342,0.018037,-1.2226,0.026053,0.048835,4.0612e-06,0.32,0.76,0
0.01602,-0.004967,0.057315,0.0023218,0.017891,-0.00085185,0,0,0.051251,-0.02024,0,-0.0022148,0,0,0,0.057328,0.0023086,0.017891,-0.88724,0.025843,0.049118,4.0852e-06,0.34,0.76,0
0.017046,-0.0050981,0.057258,0.0019405,0.01776,-0.00057599,0,0,0.051348,-0.020565,0,-0.0014976,0,0,0,0.057264,0.0019345,0.01776,-0.5965,0.025653,0.049358,4.1034e-06,0.36,0.76,0
0.018074,-0.0052145,0.057197,0.001608,0.017641,-0.0003359,0,0,0.051422,-0.020843,0,-0.00087333,0,0,0,0.057199,0.001606,0.017641,-0.34619,0.025482,0.04956,4.1168e-06,0.38,0.76,0
0.019103,-0.0053175,0.057133,0.0013185,0.017535,-0.00012897,0,0,0.051477,-0.021082,0,-0.00033532,0,0,0,0.057133,0.0013182,0.017535,-0.13239,0.025329,0.049731,4.1265e-06,0.4,0.76,0
0.020133,-0.0054084,0.057068,0.0010665,0.017441,4.752e-05,0,0,0.051516,-0.021286,0,0.00012355,0,0,0,0.057069,0.0010664,0.017441,0.048618,0.025192,0.049873,4.1332e-06,0.42,0.76,0
0.021164,-0.005488,0.057005,0.00084739,0.017356,0.00019631,0,0,0.051544,-0.021461,0,0.0005104,0,0,0,0.057006,0.00084671,0.017356,0.20028,0.025069,0.049993,4.1374e-06,0.44,0.76,0
0.022195,-0.0055576,0.056944,0.0006572,0.01728,0.00032007,0,0,0.051562,-0.02161,0,0.00083218,0,0,0,0.056945,0.00065538,0.01728,0.32579,0.02496,0.050091,4.1397e-06,0.46,0.76,0
0.023227,-0.0056181,0.056885,0.00049236,0.017213,0.00042135,0,0,0.051573,-0.021737,0,0.0010955,0,0,0,0.056888,0.00048921,0.017213,0.42806,0.024864,0.050173,4.1405e-06,0.48,0.76,0
0.024258,-0.0056703,0.056829,0.0003498,0.017154,0.00050255,0,0,0.051578,-0.021845,0,0.0013066,0,0,0,0.056834,0.00034533,0.017154,0.50976,0.024778,0.050239,4.1401e-06,0.5,0.76,0
0.02529,-0.0057153,0.056777,0.00022679,0.017101,0.00056591,0,0,0.051579,-0.021937,0,0.0014714,0,0,0,0.056783,0.00022113,0.017101,0.5733,0.024702,0.050293,4.1388e-06,0.52,0.76,0
0.026321,-0.0057537,0.056729,0.00012098,0.017055,0.0006135,0,0,0.051576,-0.022014,0,0.0015951,0,0,0,0.056735,0.00011433,0.017055,0.62086,0.024635,0.050336,4.1368e-06,0.54,0.76,0
0.027353,-0.0057862,0.056684,3.025e-05,0.017014,0.00064719,0,0,0.05157,-0.022079,0,0.0016827,0,0,0,0.056691,2.2857e-05,0.017014,0.65442,0.024576,0.05037,4.1343e-06,0.56,0.76,0
0.028384,-0.0058136,0.056642,-4.7241e-05,0.016979,0.00066871,0,0,0.051563,-0.022133,0,0.0017386,0,0,0,0.05665,-5.5127e-05,0.016979,0.67574,0.024525,0.050396,4.1315e-06,0.58,0.76,0
0.029415,-0.0058365,0.056604,-0.00011313,0.016947,0.00067961,0,0,0.051554,-0.022179,0,0.001767,0,0,0,0.056612,-0.00012127,0.016947,0.68641,0.024479,0.050415,4.1283e-06,0.6,0.76,0
0.030446,-0.0058554,0.056569,-0.00016888,0.01692,0.00068127,0,0,0.051544,-0.022216,0,0.0017713,0,0,0,0.056578,-0.00017706,0.01692,0.68783,0.02444,0.050429,4.1251e-06,0.62,0.76,0
0.031477,-0.0058708,0.056538,-0.00021578,0.016897,0.00067496,0,0,0.051533,-0.022246,0,0.0017549,0,0,0,0.056546,-0.00022381,0.016897,0.68128,0.024406,0.050438,4.1217e-06,0.64,0.76,0
0.032508,-0.0058832,0.056509,-0.00025499,0.016876,0.00066179,0,0,0.051522,-0.02227,0,0.0017206,0,0,0,0.056517,-0.0002627,0.016876,0.66787,0.024377,0.050443,4.1184e-06,0.66,0.76,0
0.033538,-0.0058931,0.056483,-0.00028752,0.016859,0.00064273,0,0,0.051512,-0.02229,0,0.0016711,0,0,0,0.05649,-0.0002948,0.016859,0.64857,0.024351,0.050445,4.115e-06,0.68,0.76,0
0.034568,-0.0059007,0.056459,-0.0003143,0.016844,0.00061868,0,0,0.0515,-0.022305,0,0.0016086,0,0,0,0.056466,-0.00032104,0.016844,0.62427,0.02433,0.050445,4.1118e-06,0.7,0.76,0
0.035598,-0.0059064,0.056438,-0.00033613,0.016831,0.00059038,0,0,0.05149,-0.022317,0,0.001535,0,0,0,0.056444,-0.00034227,0.016831,0.59572,0.024311,0.050442,4.1087e-06,0.72,0.76,0
0.036628,-0.0059106,0.056419,-0.00035375,0.01682,0.00055852,0,0,0.051479,-0.022325,0,0.0014521,0,0,0,0.056425,-0.00035925,0.01682,0.56359,0.024295,0.050439,4.1058e-06,0.74,0.76,0
0.037657,-0.0059135,0.056402,-0.0003678,0.01681,0.00052367,0,0,0.05147,-0.022332,0,0.0013615,0,0,0,0.056407,-0.00037263,0.01681,0.52846,0.024282,0.050434,4.103e-06,0.76,0.76,0
0.038686,-0.0059154,0.056387,-0.00037884,0.016803,0.00048634,0,0,0.05146,-0.022336,0,0.0012645,0,0,0,0.056392,-0.00038301,0.016803,0.49083,0.02427,0.050428,4.1003e-06,0.78,0.76,0
0.039716,-0.0059164,0.056374,-0.0003874,0.016796,0.00044696,0,0,0.051452,-0.022339,0,0.0011621,0,0,0,0.056378,-0.00039092,0.016796,0.45113,0.024261,0.050422,4.0979e-06,0.8,0.76,0
0.040744,-0.0059169,0.056363,-0.0003939,0.016791,0.00040591,0,0,0.051444,-0.02234,0,0.0010554,0,0,0,0.056365,-0.00039681,0.016791,0.40974,0.024253,0.050416,4.0957e-06,0.82,0.76,0
0.041773,-0.0059168,0.056352,-0.00039875,0.016786,0.0003635,0,0,0.051436,-0.02234,0,0.00094511,0,0,0,0.056355,-0.00040108,0.016786,0.36697,0.024247,0.05041,4.0937e-06,0.84,0.76,0
0.042802,-0.0059165,0.056344,-0.00040228,0.016782,0.00032,0,0,0.05143,-0.02234,0,0.00083201,0,0,0,0.056346,-0.00040408,0.016782,0.32309,0.024241,0.050404,4.092e-06,0.86,0.76,0
0.04383,-0.0059159,0.056336,-0.00040477,0.016779,0.00027564,0,0,0.051424,-0.02234,0,0.00071666,0,0,0,0.056338,-0.00040611,0.016779,0.27832,0.024237,0.050399,4.0904e-06,0.88,0.76,0
0.044859,-0.0059153,0.05633,-0.00040648,0.016777,0.0002306,0,0,0.051419,-0.022339,0,0.00059955,0,0,0,0.056331,-0.00040742,0.016777,0.23286,0.024234,0.050394,4.0891e-06,0.9,0.76,0
0.045887,-0.0059146,0.056326,-0.00040761,0.016775,0.00018504,0,0,0.051415,-0.022338,0,0.00048109,0,0,0,0.056326,-0.00040822,0.016775,0.18687,0.024231,0.05039,4.0881e-06,0.92,0.76,0
0.046915,-0.005914,0.056322,-0.00040832,0.016774,0.00013909,0,0,0.051412,-0.022337,0,0.00036163,0,0,0,0.056322,-0.00040866,0.016774,0.14047,0.024229,0.050387,4.0872e-06,0.94,0.76,0
0.047944,-0.0059136,0.056319,-0.00040874,0.016773,9.287e-05,0,0,0.05141,-0.022336,0,0.00024146,0,0,0,0.056319,-0.00040889,0.016773,0.093799,0.024228,0.050385,4.0866e-06,0.96,0.76,0
0.048972,-0.0059133,0.056318,-0.00040896,0.016773,4.6477e-05,0,0,0.051409,-0.022336,0,0.00012084,0,0,0,0.056318,-0.000409,0.016773,0.046943,0.024227,0.050383,4.0863e-06,0.98,0.76,0
0.05,-0.0059132,0.056317,-0.00040903,0.016772,1.8572e-06,0,0,0.051408,-0.022336,0,4.8286e-06,0,0,0,0.056317,-0.00040903,0.016772,0.0018758,0.024227,0.050383,4.0861e-06,1,0.76,0
0,0,0.053399,0.022885,0.022885,-0.0080987,0,0,0.039668,2.1684e-19,0,-0.021056,0,0,0,0.055415,0.020869,0.022885,-13.98,0.033056,0.033583,1.9217e-06,0,0.78,0
0.00079335,-0.00042113,0.05322,0.020718,0.022181,-0.0080604,0,0,0.04035,-0.0019027,0,-0.020957,0,0,0,0.055109,0.018829,0.022181,-13.19,0.03204,0.034726,2.0832e-06,0.02,0.78,0
0.001614,-0.000847,0.053927,0.018853,0.021834,-0.0079888,0,0,0.04172,-0.0038747,0,-0.020771,0,0,0,0.055661,0.01712,0.021834,-12.246,0.031538,0.036413,2.3402e-06,0.04,0.78,0
0.0024622,-0.0012728,0.054608,0.016963,0.021472,-0.0077869,0,0,0.043078,-0.0058609,0,-0.020246,0,0,0,0.056156,0.015416,0.021472,-11.237,0.031014,0.038075,2.5948e-06,0.06,0.78,0
0.0033371,-0.0016933,0.055241,0.015101,0.021103,-0.0074559,0,0,0.04438,-0.0078016,0,-0.019385,0,0,0,0.056581,0.013761,0.021103,-10.19,0.030482,0.039662,2.8378e-06,0.08,0.78,0
0.0042373,-0.0021033,0.055802,0.013319,0.020736,-0.0070105,0,0,0.045586,-0.0096428,0,-0.018227,0,0,0,0.056929,0.012192,0.020736,-9.1323,0.029952,0.041136,3.0616e-06,0.1,0.78,0
0.0051605,-0.0024982,0.056278,0.011653,0.020379,-0.0064752,0,0,0.046668,-0.011344,0,-0.016835,0,0,0,0.057198,0.010733,0.020379,-8.0916,0.029437,0.042472,3.2609e-06,0.12,0.78,0
0.0061041,-0.0028743,0.056661,0.01013,0.020037,-0.005879,0,0,0.047611,-0.01288,0,-0.015285,0,0,0,0.057392,0.0093987,0.020037,-7.0906,0.028943,0.043658,3.4333e-06,0.14,0.78,0
0.007065,-0.0032289,0.056954,0.0087599,0.019714,-0.0052508,0,0,0.048411,-0.01424,0,-0.013652,0,0,0,0.057519,0.0081945,0.019714,-6.1465,0.028476,0.044693,3.5785e-06,0.16,0.78,0
0.0080405,-0.0035601,0.057162,0.0075435,0.019412,-0.0046162,0,0,0.049076,-0.015429,0,-0.012002,0,0,0,0.057588,0.0071177,0.019412,-5.2702,0.028039,0.045584,3.6981e-06,0.18,0.78,0
0.009028,-0.0038671,0.057297,0.0064737,0.019131,-0.0039956,0,0,0.049616,-0.016455,0,-0.010389,0,0,0,0.05761,0.0061615,0.019131,-4.4679,0.027634,0.046345,3.7947e-06,0.2,0.78,0
0.010025,-0.0041496,0.057372,0.005539,0.018873,-0.003404,0,0,0.050048,-0.017334,0,-0.0088503,0,0,0,0.057594,0.0053164,0.018873,-3.7413,0.027261,0.04699,3.8714e-06,0.22,0.78,0
0.01103,-0.004408,0.057397,0.004726,0.018637,-0.0028513,0,0,0.050388,-0.018084,0,-0.0074134,0,0,0,0.057551,0.0045721,0.018637,-3.0896,0.02692,0.047534,3.9315e-06,0.24,0.78,0
0.012041,-0.0046431,0.057386,0.0040207,0.018422,-0.0023436,0,0,0.050653,-0.018722,0,-0.0060933,0,0,0,0.057488,0.003918,0.018422,-2.5097,0.02661,0.047991,3.9778e-06,0.26,0.78,0
0.013056,-0.004856,0.057347,0.0034098,0.018227,-0.0018834,0,0,0.050856,-0.019262,0,-0.0048968,0,0,0,0.057413,0.0033441,0.018227,-1.9974,0.026328,0.048376,4.013e-06,0.28,0.78,0
0.014075,-0.0050478,0.05729,0.0028809,0.018051,-0.0014712,0,0,0.05101,-0.019721,0,-0.0038251,0,0,0,0.057329,0.0028412,0.018051,-1.5477,0.026074,0.048699,4.0393e-06,0.3,0.78,0
0.015097,-0.00522,0.05722,0.0024233,0.017893,-0.0011057,0,0,0.051125,-0.020111,0,-0.0028749,0,0,0,0.057243,0.002401,0.017893,-1.1556,0.025846,0.048969,4.0587e-06,0.32,0.78,0
0.01612,-0.0053739,0.057144,0.0020271,0.017751,-0.00078478,0,0,0.05121,-0.020441,0,-0.0020404,0,0,0,0.057155,0.0020159,0.017751,-0.81559,0.025641,0.049196,4.0727e-06,0.34,0.78,0
0.017145,-0.005511,0.057064,0.0016841,0.017625,-0.00050542,0,0,0.051272,-0.020723,0,-0.0013141,0,0,0,0.057069,0.0016795,0.017625,-0.52285,0.025458,0.049387,4.0824e-06,0.36,0.78,0
0.018171,-0.0056326,0.056985,0.0013872,0.017512,-0.00026446,0,0,0.051316,-0.020962,0,-0.00068761,0,0,0,0.056987,0.0013859,0.017512,-0.27253,0.025295,0.049547,4.0889e-06,0.38,0.78,0
0.019197,-0.0057401,0.056908,0.00113,0.017411,-5.8586e-05,0,0,0.051346,-0.021166,0,-0.00015232,0,0,0,0.056908,0.00113,0.017411,-0.06018,0.02515,0.04968,4.093e-06,0.4,0.78,0
0.020225,-0.0058347,0.056834,0.00090745,0.017323,0.0001155,0,0,0.051365,-0.02134,0,0.00030031,0,0,0,0.056835,0.00090721,0.017323,0.11833,0.025021,0.049792,4.0951e-06,0.42,0.78,0
0.021252,-0.0059176,0.056765,0.00071488,0.017244,0.00026098,0,0,0.051377,-0.021488,0,0.00067855,0,0,0,0.056766,0.00071367,0.017244,0.26677,0.024908,0.049886,4.0959e-06,0.44,0.78,0
0.02228,-0.0059899,0.056701,0.00054845,0.017175,0.00038085,0,0,0.051384,-0.021614,0,0.00099022,0,0,0,0.056703,0.00054587,0.017175,0.38859,0.024808,0.049964,4.0957e-06,0.46,0.78,0
0.023307,-0.0060527,0.056642,0.0004048,0.017114,0.00047793,0,0,0.051386,-0.021722,0,0.0012426,0,0,0,0.056646,0.00040073,0.017114,0.48688,0.02472,0.050028,4.0947e-06,0.48,0.78,0
0.024335,-0.006107,0.056588,0.00028102,0.017061,0.0005548,0,0,0.051386,-0.021814,0,0.0014425,0,0,0,0.056594,0.00027556,0.017061,0.56447,0.024643,0.050082,4.0932e-06,0.5,0.78,0
0.025363,-0.0061536,0.05654,0.00017462,0.017014,0.00061384,0,0,0.051383,-0.021892,0,0.001596,0,0,0,0.056546,0.00016794,0.017014,0.62388,0.024576,0.050125,4.0914e-06,0.52,0.78,0
0.026391,-0.0061934,0.056496,8.3403e-05,0.016974,0.00065721,0,0,0.051379,-0.021958,0,0.0017087,0,0,0,0.056504,7.5748e-05,0.016974,0.66738,0.024518,0.050161,4.0893e-06,0.54,0.78,0
0.027418,-0.0062272,0.056457,5.4621e-06,0.016939,0.00068686,0,0,0.051374,-0.022013,0,0.0017858,0,0,0,0.056465,-2.8938e-06,0.016939,0.69699,0.024467,0.05019,4.0871e-06,0.56,0.78,0
0.028445,-0.0062556,0.056423,-6.0878e-05,0.016908,0.00070454,0,0,0.051368,-0.02206,0,0.0018318,0,0,0,0.056431,-6.9664e-05,0.016908,0.71453,0.024423,0.050213,4.0849e-06,0.58,0.78,0
0.029473,-0.0062793,0.056392,-0.00011709,0.016883,0.00071185,0,0,0.051362,-0.022099,0,0.0018508,0,0,0,0.056401,-0.00012605,0.016883,0.72161,0.024386,0.050231,4.0827e-06,0.6,0.78,0
0.0305,-0.0062989,0.056365,-0.00016447,0.01686,0.00071018,0,0,0.051356,-0.022132,0,0.0018465,0,0,0,0.056374,-0.00017339,0.01686,0.71965,0.024354,0.050245,4.0805e-06,0.62,0.78,0
0.031527,-0.0063149,0.056342,-0.00020417,0.016841,0.00070079,0,0,0.051351,-0.022159,0,0.001822,0,0,0,0.05635,-0.00021286,0.016841,0.70994,0.024326,0.050255,4.0783e-06,0.64,0.78,0
0.032554,-0.0063278,0.056321,-0.00023722,0.016825,0.00068478,0,0,0.051345,-0.022181,0,0.0017804,0,0,0,0.056329,-0.00024551,0.016825,0.69358,0.024303,0.050263,4.0763e-06,0.66,0.78,0
0.033581,-0.006338,0.056303,-0.0002645,0.016812,0.00066314,0,0,0.051339,-0.022199,0,0.0017242,0,0,0,0.056311,-0.00027227,0.016812,0.67156,0.024283,0.050268,4.0744e-06,0.68,0.78,0
0.034607,-0.0063459,0.056288,-0.00028683,0.0168,0.00063673,0,0,0.051334,-0.022213,0,0.0016555,0,0,0,0.056295,-0.000294,0.0168,0.64474,0.024267,0.050271,4.0726e-06,0.7,0.78,0
0.035634,-0.0063519,0.056275,-0.00030493,0.016791,0.0006063,0,0,0.051329,-0.022225,0,0.0015764,0,0,0,0.056281,-0.00031142,0.016791,0.61388,0.024254,0.050273,4.0709e-06,0.72,0.78,0
0.036661,-0.0063562,0.056264,-0.00031942,0.016783,0.0005725,0,0,0.051324,-0.022233,0,0.0014885,0,0,0,0.056269,-0.00032521,0.016783,0.57963,0.024242,0.050273,4.0694e-06,0.74,0.78,0
0.037687,-0.0063593,0.056254,-0.00033086,0.016777,0.00053589,0,0,0.05132,-0.02224,0,0.0013933,0,0,0,0.056259,-0.00033594,0.016777,0.54256,0.024233,0.050272,4.068e-06,0.76,0.78,0
0.038713,-0.0063612,0.056246,-0.00033977,0.016772,0.00049698,0,0,0.051316,-0.022245,0,0.0012921,0,0,0,0.05625,-0.00034413,0.016772,0.50317,0.024226,0.050271,4.0667e-06,0.78,0.78,0
0.03974,-0.0063623,0.056239,-0.00034657,0.016768,0.00045618,0,0,0.051312,-0.022249,0,0.0011861,0,0,0,0.056243,-0.00035024,0.016768,0.46186,0.02422,0.050269,4.0655e-06,0.8,0.78,0
0.040766,-0.0063628,0.056233,-0.00035165,0.016764,0.00041383,0,0,0.051309,-0.022251,0,0.001076,0,0,0,0.056236,-0.00035467,0.016764,0.419,0.024215,0.050267,4.0645e-06,0.82,0.78,0
0.041792,-0.0063628,0.056228,-0.00035535,0.016762,0.00037025,0,0,0.051306,-0.022252,0,0.00096265,0,0,0,0.056231,-0.00035777,0.016762,0.37489,0.024212,0.050265,4.0635e-06,0.84,0.78,0
0.042818,-0.0063624,0.056224,-0.00035797,0.01676,0.00032568,0,0,0.051304,-0.022253,0,0.00084677,0,0,0,0.056226,-0.00035984,0.01676,0.32977,0.024209,0.050263,4.0627e-06,0.86,0.78,0
0.043844,-0.0063618,0.056221,-0.00035975,0.016758,0.00028034,0,0,0.051302,-0.022254,0,0.00072888,0,0,0,0.056223,-0.00036114,0.016758,0.28387,0.024207,0.05026,4.062e-06,0.88,0.78,0
0.04487,-0.0063612,0.056219,-0.00036091,0.016757,0.0002344,0,0,0.0513,-0.022254,0,0.00060943,0,0,0,0.05622,-0.00036188,0.016757,0.23736,0.024205,0.050258,4.0614e-06,0.9,0.78,0
0.045896,-0.0063605,0.056217,-0.00036163,0.016757,0.000188,0,0,0.051298,-0.022254,0,0.0004888,0,0,0,0.056217,-0.00036226,0.016757,0.19038,0.024204,0.050257,4.061e-06,0.92,0.78,0
0.046922,-0.00636,0.056215,-0.00036205,0.016756,0.00014127,0,0,0.051297,-0.022253,0,0.0003673,0,0,0,0.056216,-0.0003624,0.016756,0.14306,0.024203,0.050255,4.0606e-06,0.94,0.78,0
0.047948,-0.0063595,0.056214,-0.00036226,0.016756,9.4302e-05,0,0,0.051296,-0.022253,0,0.00024519,0,0,0,0.056214,-0.00036242,0.016756,0.095501,0.024202,0.050254,4.0603e-06,0.96,0.78,0
0.048974,-0.0063592,0.056214,-0.00036236,0.016755,4.7187e-05,0,0,0.051296,-0.022253,0,0.00012269,0,0,0,0.056214,-0.0003624,0.016755,0.047787,0.024202,0.050253,4.0602e-06,0.98,0.78,0
0.05,-0.0063591,0.056213,-0.00036239,0.016755,1.8962e-06,0,0,0.051296,-0.022253,0,4.93e-06,0,0,0,0.056213,-0.00036239,0.016755,0.0019203,0.024202,0.050253,4.0601e-06,1,0.78,0
0,0,0.053728,0.023026,0.023026,-0.0088524,0,0,0.039912,5.421e-19,0,-0.023016,0,0,0,0.056097,0.020657,0.023026,-14.986,0.03326,0.034317,2.0423e-06,0,0.8,0
0.00079824,-0.00046032,0.053538,0.020714,0.022276,-0.0088057,0,0,0.040641,-0.00203,0,-0.022895,0,0,0,0.055751,0.018501,0.022276,-14.108,0.032176,0.035514,2.213e-06,0.02,0.8,0
0.0016256,-0.00092698,0.054284,0.018701,0.021896,-0.0087211,0,0,0.042105,-0.0041529,0,-0.022675,0,0,0,0.056307,0.016679,0.021896,-13.056,0.031627,0.037295,2.4893e-06,0.04,0.8,0
0.0024825,-0.0013939,0.054998,0.016656,0.021496,-0.0084733,0,0,0.043552,-0.0062924,0,-0.022031,0,0,0,0.056787,0.014867,0.021496,-11.922,0.03105,0.03903,2.759e-06,0.06,0.8,0
0.0033677,-0.0018544,0.055645,0.014653,0.021089,-0.0080668,0,0,0.044922,-0.0083675,0,-0.020974,0,0,0,0.057175,0.013123,0.021089,-10.742,0.030462,0.040659,3.0103e-06,0.08,0.8,0
0.0042794,-0.0023021,0.056201,0.012758,0.020688,-0.0075251,0,0,0.046168,-0.010309,0,-0.019565,0,0,0,0.057468,0.011491,0.020688,-9.5539,0.029882,0.042138,3.2343e-06,0.1,0.8,0
0.0052144,-0.0027317,0.05665,0.011016,0.0203,-0.0068841,0,0,0.047255,-0.012069,0,-0.017899,0,0,0,0.057666,0.01,0.0203,-8.3945,0.029322,0.043442,3.4259e-06,0.12,0.8,0
0.0061696,-0.0031388,0.056988,0.0094521,0.019932,-0.0061833,0,0,0.048173,-0.013624,0,-0.016077,0,0,0,0.057779,0.008661,0.019932,-7.2912,0.028791,0.044564,3.5841e-06,0.14,0.8,0
0.0071413,-0.0035206,0.05722,0.0080729,0.019588,-0.0054593,0,0,0.048922,-0.01497,0,-0.014194,0,0,0,0.05782,0.0074737,0.019588,-6.2627,0.028294,0.045514,3.7107e-06,0.16,0.8,0
0.0081265,-0.0038753,0.057361,0.0068718,0.01927,-0.0047425,0,0,0.049518,-0.016117,0,-0.01233,0,0,0,0.057802,0.0064302,0.01927,-5.3198,0.027834,0.046307,3.809e-06,0.18,0.8,0
0.0091221,-0.0042023,0.057425,0.0058347,0.018978,-0.0040549,0,0,0.049981,-0.017086,0,-0.010543,0,0,0,0.057742,0.0055179,0.018978,-4.4668,0.027413,0.046963,3.8835e-06,0.2,0.8,0
0.010126,-0.0045018,0.05743,0.0049439,0.018712,-0.0034113,0,0,0.050333,-0.017899,0,-0.0088693,0,0,0,0.057651,0.0047231,0.018712,-3.7031,0.027029,0.047504,3.9386e-06,0.22,0.8,0
0.011135,-0.0047746,0.057391,0.0041809,0.018472,-0.0028202,0,0,0.050595,-0.018578,0,-0.0073325,0,0,0,0.05754,0.0040319,0.018472,-3.0255,0.026681,0.047948,3.9784e-06,0.24,0.8,0
0.01215,-0.0050218,0.057321,0.0035283,0.018255,-0.0022855,0,0,0.050786,-0.019145,0,-0.0059422,0,0,0,0.057418,0.0034313,0.018255,-2.4284,0.026368,0.048312,4.0064e-06,0.26,0.8,0
0.013167,-0.0052448,0.057232,0.0029699,0.018061,-0.0018076,0,0,0.050923,-0.019618,0,-0.0046999,0,0,0,0.057293,0.0029098,0.018061,-1.9059,0.026088,0.048612,4.0254e-06,0.28,0.8,0
0.014186,-0.0054452,0.057133,0.0024919,0.017887,-0.0013851,0,0,0.051019,-0.020014,0,-0.0036012,0,0,0,0.057168,0.0024568,0.017887,-1.4511,0.025837,0.048859,4.0378e-06,0.3,0.8,0
0.015208,-0.0056247,0.057028,0.0020823,0.017733,-0.0010148,0,0,0.051084,-0.020346,0,-0.0026386,0,0,0,0.057047,0.0020635,0.017733,-1.0577,0.025615,0.049063,4.0453e-06,0.32,0.8,0
0.01623,-0.0057847,0.056924,0.0017308,0.017597,-0.00069315,0,0,0.051126,-0.020625,0,-0.0018022,0,0,0,0.056933,0.0017221,0.017597,-0.7194,0.025417,0.049232,4.0494e-06,0.34,0.8,0
0.017253,-0.005927,0.056824,0.0014288,0.017476,-0.00041598,0,0,0.051152,-0.020861,0,-0.0010815,0,0,0,0.056827,0.0014257,0.017476,-0.43022,0.025243,0.049373,4.051e-06,0.36,0.8,0
0.018276,-0.006053,0.056729,0.0011691,0.017369,-0.00017919,0,0,0.051167,-0.02106,0,-0.00046591,0,0,0,0.056729,0.0011685,0.017369,-0.18479,0.025089,0.049491,4.0511e-06,0.38,0.8,0
0.019299,-0.0061642,0.056641,0.0009456,0.017276,2.1236e-05,0,0,0.051174,-0.021229,0,5.5212e-05,0,0,0,0.056641,0.00094559,0.017276,0.021846,0.024954,0.04959,4.0501e-06,0.4,0.8,0
0.020323,-0.0062619,0.056561,0.00075318,0.017194,0.00018914,0,0,0.051176,-0.021373,0,0.00049176,0,0,0,0.056561,0.00075254,0.017194,0.19418,0.024836,0.049673,4.0484e-06,0.42,0.8,0
0.021346,-0.0063475,0.056489,0.00058754,0.017123,0.00032809,0,0,0.051176,-0.021496,0,0.00085303,0,0,0,0.056491,0.00058562,0.017123,0.33626,0.024733,0.049743,4.0464e-06,0.44,0.8,0
0.02237,-0.0064222,0.056425,0.00044502,0.017061,0.00044138,0,0,0.051173,-0.021601,0,0.0011476,0,0,0,0.056428,0.00044154,0.017061,0.45172,0.024643,0.049802,4.0443e-06,0.46,0.8,0
0.023393,-0.0064869,0.056368,0.00032251,0.017007,0.00053202,0,0,0.051169,-0.02169,0,0.0013833,0,0,0,0.056373,0.00031746,0.017007,0.54382,0.024566,0.049852,4.0423e-06,0.48,0.8,0
0.024417,-0.0065429,0.056319,0.00021738,0.016961,0.00060274,0,0,0.051166,-0.021767,0,0.0015671,0,0,0,0.056326,0.0002109,0.016961,0.61547,0.024499,0.049895,4.0403e-06,0.5,0.8,0
0.02544,-0.0065909,0.056277,0.00012733,0.016921,0.000656,0,0,0.051162,-0.021832,0,0.0017056,0,0,0,0.056284,0.00011967,0.016921,0.66927,0.024442,0.049931,4.0385e-06,0.52,0.8,0
0.026463,-0.006632,0.056241,5.0415e-05,0.016887,0.00069401,0,0,0.051159,-0.021888,0,0.0018044,0,0,0,0.056249,4.1845e-05,0.016887,0.70752,0.024393,0.049962,4.0369e-06,0.54,0.8,0
0.027486,-0.0066667,0.05621,-1.5069e-05,0.016858,0.00071875,0,0,0.051157,-0.021936,0,0.0018687,0,0,0,0.056219,-2.4256e-05,0.016858,0.73227,0.024351,0.049988,4.0356e-06,0.56,0.8,0
0.028509,-0.006696,0.056185,-7.0602e-05,0.016834,0.00073198,0,0,0.051155,-0.021976,0,0.0019031,0,0,0,0.056194,-8.0125e-05,0.016834,0.74535,0.024316,0.05001,4.0344e-06,0.58,0.8,0
0.029532,-0.0067205,0.056163,-0.00011748,0.016814,0.00073528,0,0,0.051155,-0.022011,0,0.0019117,0,0,0,0.056173,-0.00012708,0.016814,0.74837,0.024287,0.050029,4.0335e-06,0.6,0.8,0
0.030556,-0.0067407,0.056147,-0.00015683,0.016797,0.00073004,0,0,0.051154,-0.02204,0,0.0018981,0,0,0,0.056156,-0.00016629,0.016797,0.74274,0.024262,0.050045,4.0328e-06,0.62,0.8,0
0.031579,-0.0067572,0.056133,-0.00018966,0.016783,0.00071748,0,0,0.051155,-0.022064,0,0.0018654,0,0,0,0.056142,-0.00019879,0.016783,0.72972,0.024242,0.050059,4.0323e-06,0.64,0.8,0
0.032602,-0.0067705,0.056122,-0.00021684,0.016772,0.00069869,0,0,0.051156,-0.022085,0,0.0018166,0,0,0,0.056131,-0.00022551,0.016772,0.71041,0.024226,0.05007,4.0319e-06,0.66,0.8,0
0.033625,-0.006781,0.056114,-0.00023917,0.016762,0.00067462,0,0,0.051157,-0.022102,0,0.001754,0,0,0,0.056122,-0.00024724,0.016762,0.68578,0.024212,0.05008,4.0317e-06,0.68,0.8,0
0.034648,-0.0067892,0.056108,-0.00025732,0.016755,0.00064611,0,0,0.051159,-0.022116,0,0.0016799,0,0,0,0.056115,-0.00026472,0.016755,0.65666,0.024202,0.050088,4.0316e-06,0.7,0.8,0
0.035671,-0.0067954,0.056104,-0.00027192,0.01675,0.00061386,0,0,0.051161,-0.022128,0,0.001596,0,0,0,0.056111,-0.0002786,0.01675,0.62378,0.024194,0.050095,4.0316e-06,0.72,0.8,0
0.036694,-0.0067999,0.056101,-0.0002835,0.016745,0.00057852,0,0,0.051163,-0.022138,0,0.0015042,0,0,0,0.056107,-0.00028943,0.016745,0.58779,0.024188,0.0501,4.0317e-06,0.74,0.8,0
0.037718,-0.0068031,0.0561,-0.00029254,0.016742,0.00054062,0,0,0.051165,-0.022145,0,0.0014056,0,0,0,0.056105,-0.00029773,0.016742,0.54922,0.024183,0.050105,4.0319e-06,0.76,0.8,0
0.038741,-0.0068052,0.056099,-0.00029948,0.01674,0.00050063,0,0,0.051167,-0.022151,0,0.0013016,0,0,0,0.056104,-0.00030392,0.01674,0.50854,0.02418,0.050109,4.032e-06,0.78,0.8,0
0.039765,-0.0068064,0.056099,-0.00030469,0.016738,0.00045893,0,0,0.051169,-0.022156,0,0.0011932,0,0,0,0.056103,-0.00030842,0.016738,0.46615,0.024178,0.050112,4.0323e-06,0.8,0.8,0
0.040788,-0.0068069,0.0561,-0.00030849,0.016737,0.00041587,0,0,0.051172,-0.02216,0,0.0010812,0,0,0,0.056103,-0.00031155,0.016737,0.42238,0.024176,0.050115,4.0325e-06,0.82,0.8,0
0.041811,-0.0068069,0.056101,-0.00031117,0.016737,0.00037171,0,0,0.051174,-0.022163,0,0.00096645,0,0,0,0.056104,-0.00031362,0.016737,0.37751,0.024176,0.050117,4.0328e-06,0.84,0.8,0
0.042835,-0.0068066,0.056103,-0.00031298,0.016737,0.0003267,0,0,0.051175,-0.022165,0,0.00084941,0,0,0,0.056105,-0.00031488,0.016737,0.33178,0.024175,0.050118,4.033e-06,0.86,0.8,0
0.043858,-0.0068061,0.056104,-0.00031415,0.016737,0.00028102,0,0,0.051177,-0.022166,0,0.00073064,0,0,0,0.056105,-0.00031555,0.016737,0.28538,0.024176,0.05012,4.0333e-06,0.88,0.8,0
0.044882,-0.0068054,0.056105,-0.00031484,0.016737,0.00023483,0,0,0.051179,-0.022168,0,0.00061055,0,0,0,0.056106,-0.00031581,0.016737,0.23847,0.024176,0.050121,4.0335e-06,0.9,0.8,0
0.045906,-0.0068048,0.056106,-0.0003152,0.016737,0.00018826,0,0,0.05118,-0.022168,0,0.00048947,0,0,0,0.056107,-0.00031583,0.016737,0.19117,0.024176,0.050121,4.0337e-06,0.92,0.8,0
0.046929,-0.0068042,0.056107,-0.00031536,0.016738,0.00014141,0,0,0.051181,-0.022169,0,0.00036767,0,0,0,0.056108,-0.00031572,0.016738,0.1436,0.024177,0.050122,4.0338e-06,0.94,0.8,0
0.047953,-0.0068037,0.056108,-0.00031541,0.016738,9.4373e-05,0,0,0.051181,-0.022169,0,0.00024537,0,0,0,0.056108,-0.00031557,0.016738,0.095831,0.024177,0.050122,4.0339e-06,0.96,0.8,0
0.048976,-0.0068034,0.056109,-0.00031542,0.016738,4.7215e-05,0,0,0.051182,-0.022169,0,0.00012276,0,0,0,0.056109,-0.00031546,0.016738,0.047945,0.024177,0.050123,4.034e-06,0.98,0.8,0
0.05,-0.0068033,0.056109,-0.00031541,0.016738,1.8962e-06,0,0,0.051182,-0.02217,0,4.9302e-06,0,0,0,0.056109,-0.00031541,0.016738,0.0019255,0.024177,0.050123,4.034e-06,1,0.8,0
0,0,0.054151,0.023208,0.023208,-0.0096602,0,0,0.040227,1.301e-18,0,-0.025116,0,0,0,0.056919,0.02044,0.023208,-15.99,0.033522,0.035178,2.1891e-06,0,0.82,0
0.00080453,-0.00050233,0.053948,0.020715,0.022399,-0.0096018,0,0,0.041014,-0.0021892,0,-0.024965,0,0,0,0.056523,0.01814,0.022399,-15.011,0.032354,0.03644,2.3712e-06,0.02,0.82,0
0.0016405,-0.0010131,0.054741,0.018511,0.021976,-0.0094983,0,0,0.042595,-0.0045038,0,-0.024696,0,0,0,0.05708,0.016172,0.021976,-13.835,0.031742,0.038337,2.6717e-06,0.04,0.82,0
0.0025083,-0.0015245,0.055487,0.01627,0.021527,-0.0091868,0,0,0.044148,-0.0068343,0,-0.023886,0,0,0,0.057533,0.014225,0.021527,-12.552,0.031095,0.040158,2.9587e-06,0.06,0.82,0
0.0034065,-0.002028,0.056144,0.014096,0.021072,-0.0086785,0,0,0.045594,-0.0090685,0,-0.022564,0,0,0,0.057865,0.012376,0.021072,-11.215,0.030438,0.041825,3.2169e-06,0.08,0.82,0
0.0043321,-0.0025156,0.056681,0.012075,0.020627,-0.0080121,0,0,0.046871,-0.011117,0,-0.020832,0,0,0,0.058077,0.010679,0.020627,-9.8802,0.029794,0.043289,3.4363e-06,0.1,0.82,0
0.0052813,-0.002981,0.057083,0.010258,0.020202,-0.0072404,0,0,0.047945,-0.012928,0,-0.018825,0,0,0,0.058176,0.0091637,0.020202,-8.5922,0.029181,0.044532,3.6133e-06,0.12,0.82,0
0.0062499,-0.0034193,0.05735,0.008665,0.019805,-0.0064168,0,0,0.048809,-0.014481,0,-0.016684,0,0,0,0.058182,0.0078335,0.019805,-7.3838,0.028607,0.045558,3.7495e-06,0.14,0.82,0
0.0072337,-0.0038277,0.057498,0.007294,0.019438,-0.0055872,0,0,0.049479,-0.015787,0,-0.014527,0,0,0,0.058113,0.0066797,0.019438,-6.2741,0.028077,0.046389,3.8496e-06,0.16,0.82,0
0.008229,-0.0042048,0.057548,0.0061272,0.019103,-0.0047854,0,0,0.049979,-0.016868,0,-0.012442,0,0,0,0.05799,0.0056857,0.019103,-5.2717,0.027593,0.047053,3.92e-06,0.18,0.82,0
0.0092328,-0.0045506,0.057523,0.0051409,0.018799,-0.0040336,0,0,0.050341,-0.017756,0,-0.010487,0,0,0,0.057832,0.0048321,0.018799,-4.3776,0.027155,0.04758,3.9671e-06,0.2,0.82,0
0.010243,-0.0048655,0.057445,0.0043098,0.018526,-0.0033445,0,0,0.050594,-0.018482,0,-0.0086958,0,0,0,0.057655,0.0041001,0.018526,-3.5876,0.02676,0.047996,3.9968e-06,0.22,0.82,0
0.011257,-0.0051511,0.057332,0.0036099,0.018283,-0.0027236,0,0,0.050764,-0.019074,0,-0.0070813,0,0,0,0.057469,0.0034722,0.018283,-2.8949,0.026408,0.048325,4.0137e-06,0.24,0.82,0
0.012273,-0.0054089,0.057198,0.0030201,0.018066,-0.0021713,0,0,0.050873,-0.019559,0,-0.0056453,0,0,0,0.057285,0.0029332,0.018066,-2.2913,0.026095,0.048587,4.0218e-06,0.26,0.82,0
0.013291,-0.0056407,0.057056,0.0025221,0.017874,-0.0016852,0,0,0.050938,-0.019957,0,-0.0043815,0,0,0,0.057108,0.0024701,0.017874,-1.7683,0.025817,0.048795,4.0239e-06,0.28,0.82,0
0.014311,-0.0058484,0.056914,0.0021008,0.017704,-0.0012612,0,0,0.050972,-0.020285,0,-0.0032792,0,0,0,0.056943,0.0020717,0.017704,-1.3174,0.025573,0.048964,4.0222e-06,0.3,0.82,0
0.01533,-0.0060338,0.056776,0.0017432,0.017556,-0.00089432,0,0,0.050986,-0.020556,0,-0.0023252,0,0,0,0.05679,0.0017287,0.017556,-0.93078,0.025358,0.0491,4.0181e-06,0.32,0.82,0
0.01635,-0.0061989,0.056647,0.0014392,0.017426,-0.00057917,0,0,0.050987,-0.020782,0,-0.0015058,0,0,0,0.056653,0.0014331,0.017426,-0.601,0.02517,0.049212,4.0129e-06,0.34,0.82,0
0.01737,-0.0063455,0.056528,0.00118,0.017312,-0.00031052,0,0,0.05098,-0.020972,0,-0.00080734,0,0,0,0.05653,0.0011782,0.017312,-0.32143,0.025007,0.049306,4.0073e-06,0.36,0.82,0
0.018389,-0.0064751,0.056421,0.0009586,0.017214,-8.3329e-05,0,0,0.050969,-0.021132,0,-0.00021666,0,0,0,0.056421,0.00095847,0.017214,-0.086083,0.024865,0.049384,4.0018e-06,0.38,0.82,0
0.019409,-0.0065893,0.056326,0.00076923,0.017129,0.00010706,0,0,0.050957,-0.021267,0,0.00027836,0,0,0,0.056327,0.00076903,0.017129,0.11041,0.024741,0.049451,3.9967e-06,0.4,0.82,0
0.020428,-0.0066896,0.056244,0.0006071,0.017055,0.00026494,0,0,0.050945,-0.021383,0,0.00068885,0,0,0,0.056245,0.00060583,0.017055,0.27283,0.024635,0.049508,3.9921e-06,0.42,0.82,0
0.021447,-0.0067774,0.056173,0.00046821,0.016992,0.00039419,0,0,0.050935,-0.021481,0,0.0010249,0,0,0,0.056176,0.00046542,0.016992,0.40543,0.024545,0.049559,3.9883e-06,0.44,0.82,0
0.022465,-0.0068539,0.056113,0.00034924,0.016939,0.00049832,0,0,0.050926,-0.021566,0,0.0012956,0,0,0,0.056117,0.00034478,0.016939,0.51196,0.024467,0.049603,3.9852e-06,0.46,0.82,0
0.023484,-0.0069203,0.056063,0.00024741,0.016893,0.00058044,0,0,0.05092,-0.021639,0,0.0015092,0,0,0,0.056069,0.00024137,0.016893,0.59576,0.024401,0.049642,3.9828e-06,0.48,0.82,0
0.024502,-0.0069777,0.056021,0.00016035,0.016855,0.00064337,0,0,0.050917,-0.021702,0,0.0016728,0,0,0,0.056029,0.00015294,0.016855,0.65978,0.024345,0.049677,3.9811e-06,0.5,0.82,0
0.02552,-0.0070269,0.055988,8.608e-05,0.016822,0.00068959,0,0,0.050916,-0.021757,0,0.0017929,0,0,0,0.055997,7.7575e-05,0.016822,0.70664,0.024299,0.049709,3.9801e-06,0.52,0.82,0
0.026538,-0.007069,0.055962,2.2875e-05,0.016796,0.0007213,0,0,0.050917,-0.021805,0,0.0018754,0,0,0,0.055972,1.3576e-05,0.016796,0.73863,0.02426,0.049738,3.9796e-06,0.54,0.82,0
0.027557,-0.0071046,0.055943,-3.0733e-05,0.016774,0.00074047,0,0,0.05092,-0.021846,0,0.0019252,0,0,0,0.055953,-4.0527e-05,0.016774,0.75779,0.024229,0.049764,3.9797e-06,0.56,0.82,0
0.028575,-0.0071347,0.055929,-7.6018e-05,0.016756,0.00074883,0,0,0.050925,-0.021882,0,0.001947,0,0,0,0.055939,-8.6028e-05,0.016756,0.7659,0.024203,0.049788,3.9802e-06,0.58,0.82,0
0.029594,-0.0071598,0.05592,-0.00011408,0.016742,0.00074789,0,0,0.050931,-0.021913,0,0.0019445,0,0,0,0.05593,-0.00012406,0.016742,0.76455,0.024182,0.049811,3.9811e-06,0.6,0.82,0
0.030613,-0.0071805,0.055914,-0.0001459,0.016731,0.00073901,0,0,0.050939,-0.021939,0,0.0019214,0,0,0,0.055924,-0.00015564,0.016731,0.75513,0.024166,0.049831,3.9823e-06,0.62,0.82,0
0.031631,-0.0071975,0.055912,-0.00017231,0.016722,0.00072338,0,0,0.050948,-0.021963,0,0.0018808,0,0,0,0.055922,-0.00018164,0.016722,0.73883,0.024154,0.04985,3.9838e-06,0.64,0.82,0
0.03265,-0.0072112,0.055913,-0.00019406,0.016716,0.00070201,0,0,0.050957,-0.021983,0,0.0018252,0,0,0,0.055922,-0.00020284,0.016716,0.71673,0.024145,0.049867,3.9855e-06,0.66,0.82,0
0.03367,-0.007222,0.055916,-0.0002118,0.016711,0.00067581,0,0,0.050966,-0.022,0,0.0017571,0,0,0,0.055925,-0.00021994,0.016711,0.68974,0.024139,0.049883,3.9873e-06,0.68,0.82,0
0.034689,-0.0072305,0.055921,-0.00022612,0.016709,0.00064558,0,0,0.050976,-0.022015,0,0.0016785,0,0,0,0.055928,-0.00023354,0.016709,0.65867,0.024134,0.049897,3.9891e-06,0.7,0.82,0
0.035709,-0.007237,0.055927,-0.00023753,0.016707,0.00061199,0,0,0.050986,-0.022028,0,0.0015912,0,0,0,0.055934,-0.0002442,0.016707,0.62422,0.024132,0.04991,3.9911e-06,0.72,0.82,0
0.036729,-0.0072417,0.055934,-0.00024648,0.016706,0.00057563,0,0,0.050996,-0.022039,0,0.0014966,0,0,0,0.05594,-0.00025237,0.016706,0.58697,0.024131,0.049922,3.993e-06,0.74,0.82,0
0.037749,-0.0072451,0.055942,-0.00025337,0.016706,0.00053699,0,0,0.051006,-0.022048,0,0.0013962,0,0,0,0.055947,-0.0002585,0.016706,0.54744,0.024132,0.049933,3.995e-06,0.76,0.82,0
0.038769,-0.0072473,0.05595,-0.00025856,0.016707,0.00049652,0,0,0.051015,-0.022056,0,0.0012909,0,0,0,0.055954,-0.00026295,0.016707,0.50607,0.024133,0.049943,3.9968e-06,0.78,0.82,0
0.039789,-0.0072486,0.055958,-0.00026236,0.016709,0.00045456,0,0,0.051024,-0.022062,0,0.0011819,0,0,0,0.055961,-0.00026604,0.016709,0.46322,0.024135,0.049952,3.9986e-06,0.8,0.82,0
0.04081,-0.0072492,0.055966,-0.00026505,0.01671,0.00041143,0,0,0.051032,-0.022068,0,0.0010697,0,0,0,0.055969,-0.00026806,0.01671,0.4192,0.024137,0.04996,4.0003e-06,0.82,0.82,0
0.04183,-0.0072493,0.055973,-0.00026685,0.016712,0.00036738,0,0,0.05104,-0.022072,0,0.0009552,0,0,0,0.055975,-0.00026925,0.016712,0.37426,0.024139,0.049967,4.0019e-06,0.84,0.82,0
0.042851,-0.007249,0.05598,-0.00026799,0.016714,0.00032262,0,0,0.051046,-0.022076,0,0.00083881,0,0,0,0.055982,-0.00026984,0.016714,0.32861,0.024142,0.049973,4.0033e-06,0.86,0.82,0
0.043872,-0.0072485,0.055986,-0.00026863,0.016715,0.00027731,0,0,0.051052,-0.022079,0,0.000721,0,0,0,0.055988,-0.00027,0.016715,0.28243,0.024144,0.049979,4.0046e-06,0.88,0.82,0
0.044894,-0.0072479,0.055992,-0.00026893,0.016717,0.00023159,0,0,0.051057,-0.022082,0,0.00060214,0,0,0,0.055993,-0.00026989,0.016717,0.23585,0.024147,0.049983,4.0056e-06,0.9,0.82,0
0.045915,-0.0072473,0.055996,-0.00026902,0.016718,0.00018557,0,0,0.051062,-0.022083,0,0.00048249,0,0,0,0.055997,-0.00026963,0.016718,0.18897,0.024148,0.049987,4.0065e-06,0.92,0.82,0
0.046936,-0.0072467,0.056,-0.00026898,0.016719,0.00013934,0,0,0.051065,-0.022085,0,0.00036229,0,0,0,0.056001,-0.00026932,0.016719,0.14189,0.02415,0.049989,4.0072e-06,0.94,0.82,0
0.047957,-0.0072463,0.056003,-0.0002689,0.01672,9.2969e-05,0,0,0.051067,-0.022086,0,0.00024172,0,0,0,0.056003,-0.00026905,0.01672,0.09466,0.024151,0.049992,4.0078e-06,0.96,0.82,0
0.048979,-0.007246,0.056004,-0.00026883,0.016721,4.6506e-05,0,0,0.051069,-0.022086,0,0.00012092,0,0,0,0.056004,-0.00026887,0.016721,0.047351,0.024152,0.049993,4.0081e-06,0.98,0.82,0
0.05,-0.0072459,0.056005,-0.0002688,0.016721,1.8507e-06,0,0,0.051069,-0.022086,0,4.8117e-06,0,0,0,0.056005,-0.0002688,0.016721,0.0018843,0.024152,0.049993,4.0082e-06,1,0.82,0
0,0,0.054706,0.023445,0.023445,-0.010536,0,0,0.040639,3.2526e-19,0,-0.027394,0,0,0,0.057925,0.020226,0.023445,-16.992,0.033865,0.036198,2.371e-06,0,0.84,0
0.00081277,-0.00054789,0.054484,0.02072,0.022561,-0.01046,0,0,0.041499,-0.0023933,0,-0.027197,0,0,0,0.057462,0.017742,0.022561,-15.892,0.032588,0.037543,2.5674e-06,0.02,0.84,0
0.00166,-0.0011071,0.05533,0.018265,0.022079,-0.010328,0,0,0.043227,-0.0049576,0,-0.026852,0,0,0,0.058014,0.015582,0.022079,-14.565,0.031891,0.039586,2.8987e-06,0.04,0.84,0
0.0025419,-0.0016672,0.056109,0.015773,0.021565,-0.0099237,0,0,0.044908,-0.0075292,0,-0.025802,0,0,0,0.058418,0.013463,0.021565,-13.1,0.031149,0.041501,3.2048e-06,0.06,0.84,0
0.0034563,-0.0022171,0.056763,0.013394,0.021047,-0.0092748,0,0,0.046431,-0.0099488,0,-0.024114,0,0,0,0.058663,0.011494,0.021047,-11.579,0.030402,0.043192,3.4658e-06,0.08,0.84,0
0.0043991,-0.0027468,0.057256,0.011237,0.020548,-0.0084449,0,0,0.04772,-0.012104,0,-0.021957,0,0,0,0.058757,0.0097367,0.020548,-10.077,0.029681,0.044608,3.672e-06,0.1,0.84,0
0.0053651,-0.0032488,0.057577,0.009356,0.02008,-0.0075122,0,0,0.048747,-0.013941,0,-0.019532,0,0,0,0.058721,0.0082128,0.02008,-8.6527,0.029004,0.045744,3.8232e-06,0.12,0.84,0
0.006349,-0.0037181,0.05774,0.0077574,0.019649,-0.006548,0,0,0.049518,-0.015459,0,-0.017025,0,0,0,0.058583,0.0069139,0.019649,-7.3411,0.028382,0.046625,3.926e-06,0.14,0.84,0
0.0073458,-0.004152,0.057771,0.0064215,0.019258,-0.0056065,0,0,0.050067,-0.016687,0,-0.014577,0,0,0,0.058376,0.0058165,0.019258,-6.159,0.027817,0.047294,3.9898e-06,0.16,0.84,0
0.0083516,-0.00455,0.057703,0.0053148,0.018905,-0.0047227,0,0,0.050437,-0.017668,0,-0.012279,0,0,0,0.058125,0.0048925,0.018905,-5.1102,0.027308,0.047793,4.0244e-06,0.18,0.84,0
0.0093633,-0.0049125,0.057568,0.0044014,0.018591,-0.0039157,0,0,0.05067,-0.018446,0,-0.010181,0,0,0,0.057855,0.0041146,0.018591,-4.1897,0.026853,0.048162,4.0386e-06,0.2,0.84,0
0.010378,-0.0052411,0.057393,0.0036477,0.018312,-0.0031932,0,0,0.050805,-0.019064,0,-0.0083024,0,0,0,0.057582,0.0034586,0.018312,-3.3883,0.026451,0.048436,4.0391e-06,0.22,0.84,0
0.011395,-0.0055375,0.057197,0.0030245,0.018066,-0.0025555,0,0,0.05087,-0.019555,0,-0.0066444,0,0,0,0.057318,0.0029042,0.018066,-2.6949,0.026096,0.048638,4.0313e-06,0.24,0.84,0
0.012413,-0.0058041,0.056997,0.0025074,0.017851,-0.0019986,0,0,0.050889,-0.019947,0,-0.0051965,0,0,0,0.05707,0.0024342,0.017851,-2.0978,0.025785,0.04879,4.0187e-06,0.26,0.84,0
0.013431,-0.0060431,0.056802,0.0020768,0.017664,-0.0015164,0,0,0.05088,-0.020263,0,-0.0039427,0,0,0,0.056844,0.0020348,0.017664,-1.586,0.025514,0.048905,4.004e-06,0.28,0.84,0
0.014448,-0.0062566,0.056619,0.0017167,0.0175,-0.0011018,0,0,0.050853,-0.020519,0,-0.0028647,0,0,0,0.056641,0.0016946,0.0175,-1.1492,0.025279,0.048994,3.9889e-06,0.3,0.84,0
0.015465,-0.0064469,0.056451,0.0014142,0.017359,-0.00074763,0,0,0.050819,-0.020729,0,-0.0019438,0,0,0,0.056461,0.0014041,0.017359,-0.77812,0.025075,0.049065,3.9744e-06,0.32,0.84,0
0.016481,-0.006616,0.056301,0.0011592,0.017238,-0.00044701,0,0,0.050782,-0.020903,0,-0.0011622,0,0,0,0.056305,0.0011556,0.017238,-0.46443,0.024899,0.049124,3.9611e-06,0.34,0.84,0
0.017497,-0.0067659,0.056169,0.00094356,0.017134,-0.00019358,0,0,0.050746,-0.021048,0,-0.0005033,0,0,0,0.05617,0.00094288,0.017134,-0.20083,0.024749,0.049173,3.9495e-06,0.36,0.84,0
0.018511,-0.0068983,0.056056,0.00076058,0.017045,1.8443e-05,0,0,0.050714,-0.02117,0,4.7952e-05,0,0,0,0.056056,0.00076057,0.017045,0.01911,0.024621,0.049217,3.9397e-06,0.38,0.84,0
0.019525,-0.0070149,0.05596,0.00060501,0.016969,0.00019423,0,0,0.050688,-0.021274,0,0.00050499,0,0,0,0.055961,0.00060432,0.016969,0.20103,0.024511,0.049257,3.9318e-06,0.4,0.84,0
0.020539,-0.0071172,0.05588,0.00047251,0.016906,0.00033838,0,0,0.050667,-0.021363,0,0.00087979,0,0,0,0.055882,0.00047044,0.016906,0.3499,0.02442,0.049294,3.9256e-06,0.42,0.84,0
0.021552,-0.0072068,0.055815,0.00035955,0.016852,0.00045498,0,0,0.050652,-0.021441,0,0.0011829,0,0,0,0.055819,0.00035582,0.016852,0.47003,0.024342,0.049329,3.921e-06,0.44,0.84,0
0.022565,-0.0072848,0.055764,0.00026323,0.016808,0.0005476,0,0,0.050642,-0.021508,0,0.0014238,0,0,0,0.055769,0.00025782,0.016808,0.56524,0.024278,0.049363,3.9179e-06,0.46,0.84,0
0.023577,-0.0073525,0.055724,0.00018112,0.016772,0.00061942,0,0,0.050638,-0.021567,0,0.0016105,0,0,0,0.055731,0.00017421,0.016772,0.63886,0.024226,0.049396,3.9162e-06,0.48,0.84,0
0.02459,-0.007411,0.055695,0.0001112,0.016742,0.00067321,0,0,0.050639,-0.02162,0,0.0017503,0,0,0,0.055703,0.00010305,0.016742,0.69381,0.024182,0.049427,3.9157e-06,0.5,0.84,0
0.025603,-0.0074612,0.055675,5.178e-05,0.016718,0.00071141,0,0,0.050644,-0.021666,0,0.0018497,0,0,0,0.055684,4.2682e-05,0.016718,0.73265,0.024148,0.049459,3.9163e-06,0.52,0.84,0
0.026616,-0.0075041,0.055662,1.4075e-06,0.016699,0.00073617,0,0,0.050652,-0.021707,0,0.001914,0,0,0,0.055672,-8.3273e-06,0.016699,0.75761,0.024121,0.049489,3.9177e-06,0.54,0.84,0
0.027629,-0.0075406,0.055657,-4.1148e-05,0.016685,0.00074937,0,0,0.050664,-0.021744,0,0.0019484,0,0,0,0.055667,-5.1229e-05,0.016685,0.77068,0.0241,0.049519,3.9198e-06,0.56,0.84,0
0.028642,-0.0075713,0.055657,-7.6948e-05,0.016674,0.00075267,0,0,0.050678,-0.021776,0,0.0019569,0,0,0,0.055667,-8.711e-05,0.016674,0.77357,0.024085,0.049548,3.9226e-06,0.58,0.84,0
0.029656,-0.007597,0.055662,-0.00010691,0.016667,0.00074751,0,0,0.050694,-0.021805,0,0.0019435,0,0,0,0.055672,-0.00011692,0.016667,0.76779,0.024074,0.049576,3.9258e-06,0.6,0.84,0
0.03067,-0.0076183,0.05567,-0.00013182,0.016662,0.00073516,0,0,0.050711,-0.021831,0,0.0019114,0,0,0,0.05568,-0.00014151,0.016662,0.75466,0.024067,0.049603,3.9294e-06,0.62,0.84,0
0.031685,-0.0076357,0.055682,-0.00015239,0.016659,0.00071672,0,0,0.05073,-0.021855,0,0.0018635,0,0,0,0.055691,-0.00016159,0.016659,0.73531,0.024063,0.049629,3.9333e-06,0.64,0.84,0
0.032699,-0.0076498,0.055696,-0.00016922,0.016658,0.00069316,0,0,0.050749,-0.021875,0,0.0018022,0,0,0,0.055705,-0.00017782,0.016658,0.71076,0.024062,0.049654,3.9373e-06,0.66,0.84,0
0.033715,-0.007661,0.055712,-0.00018285,0.016659,0.00066531,0,0,0.050769,-0.021894,0,0.0017298,0,0,0,0.05572,-0.00019076,0.016659,0.68186,0.024063,0.049677,3.9415e-06,0.68,0.84,0
0.03473,-0.0076698,0.055729,-0.00019374,0.016661,0.00063391,0,0,0.050789,-0.02191,0,0.0016481,0,0,0,0.055736,-0.00020093,0.016661,0.64936,0.024065,0.0497,3.9457e-06,0.7,0.84,0
0.035746,-0.0076765,0.055746,-0.00020233,0.016663,0.00059956,0,0,0.050808,-0.021925,0,0.0015589,0,0,0,0.055753,-0.00020875,0.016663,0.61391,0.024069,0.049721,3.9498e-06,0.72,0.84,0
0.036762,-0.0076815,0.055764,-0.00020897,0.016667,0.00056282,0,0,0.050827,-0.021938,0,0.0014633,0,0,0,0.05577,-0.00021463,0.016667,0.57604,0.024074,0.049741,3.9539e-06,0.74,0.84,0
0.037779,-0.007685,0.055782,-0.00021399,0.01667,0.00052413,0,0,0.050845,-0.02195,0,0.0013627,0,0,0,0.055787,-0.0002189,0.01667,0.53624,0.024079,0.049759,3.9578e-06,0.76,0.84,0
0.038796,-0.0076874,0.055799,-0.00021768,0.016674,0.00048388,0,0,0.050862,-0.02196,0,0.0012581,0,0,0,0.055803,-0.00022186,0.016674,0.49489,0.024085,0.049776,3.9615e-06,0.78,0.84,0
0.039814,-0.0076889,0.055815,-0.00022029,0.016678,0.0004424,0,0,0.050878,-0.021968,0,0.0011503,0,0,0,0.055819,-0.00022378,0.016678,0.45232,0.024091,0.049792,3.965e-06,0.8,0.84,0
0.040831,-0.0076896,0.055831,-0.00022205,0.016683,0.00039996,0,0,0.050893,-0.021976,0,0.0010399,0,0,0,0.055834,-0.0002249,0.016683,0.4088,0.024097,0.049806,3.9683e-06,0.82,0.84,0
0.041849,-0.0076898,0.055845,-0.00022314,0.016687,0.00035678,0,0,0.050906,-0.021983,0,0.00092762,0,0,0,0.055848,-0.00022541,0.016687,0.36457,0.024103,0.049819,3.9713e-06,0.84,0.84,0
0.042868,-0.0076896,0.055858,-0.00022373,0.01669,0.00031303,0,0,0.050918,-0.021988,0,0.00081388,0,0,0,0.05586,-0.00022547,0.01669,0.31979,0.024108,0.04983,3.9739e-06,0.86,0.84,0
0.043886,-0.0076892,0.05587,-0.00022396,0.016694,0.00026887,0,0,0.050929,-0.021993,0,0.00069906,0,0,0,0.055871,-0.00022525,0.016694,0.27462,0.024113,0.049839,3.9763e-06,0.88,0.84,0
0.044905,-0.0076887,0.05588,-0.00022397,0.016697,0.0002244,0,0,0.050938,-0.021997,0,0.00058345,0,0,0,0.055881,-0.00022486,0.016697,0.22917,0.024118,0.049848,3.9783e-06,0.9,0.84,0
0.045924,-0.0076881,0.055888,-0.00022384,0.016699,0.00017973,0,0,0.050946,-0.022,0,0.00046729,0,0,0,0.055889,-0.00022441,0.016699,0.18352,0.024121,0.049854,3.98e-06,0.92,0.84,0
0.046943,-0.0076876,0.055895,-0.00022365,0.016701,0.0001349,0,0,0.050951,-0.022003,0,0.00035074,0,0,0,0.055895,-0.00022398,0.016701,0.13773,0.024124,0.04986,3.9813e-06,0.94,0.84,0
0.047962,-0.0076872,0.055899,-0.00022348,0.016703,8.9981e-05,0,0,0.050956,-0.022004,0,0.00023395,0,0,0,0.0559,-0.00022363,0.016703,0.091861,0.024126,0.049863,3.9822e-06,0.96,0.84,0
0.048981,-0.0076869,0.055902,-0.00022336,0.016704,4.5004e-05,0,0,0.050958,-0.022005,0,0.00011701,0,0,0,0.055902,-0.0002234,0.016704,0.045942,0.024127,0.049866,3.9828e-06,0.98,0.84,0
0.05,-0.0076868,0.055903,-0.00022331,0.016704,1.7527e-06,0,0,0.050959,-0.022006,0,4.5571e-06,0,0,0,0.055903,-0.00022331,0.016704,0.0017892,0.024128,0.049866,3.983e-06,1,0.84,0
0,0,0.055446,0.023762,0.023762,-0.011501,0,0,0.041188,-4.3368e-19,0,-0.029903,0,0,0,0.05918,0.020028,0.023762,-17.99,0.034323,0.037425,2.6021e-06,0,0.86,0
0.00082376,-0.00059806,0.055197,0.020728,0.022778,-0.011398,0,0,0.042146,-0.0026644,0,-0.029635,0,0,0,0.058625,0.0173,0.022778,-16.739,0.032901,0.038877,2.8169e-06,0.02,0.86,0
0.0016858,-0.0012114,0.056104,0.01793,0.02221,-0.011216,0,0,0.044062,-0.005564,0,-0.02916,0,0,0,0.059155,0.014879,0.02221,-15.219,0.032081,0.041104,3.1876e-06,0.04,0.86,0
0.0025862,-0.0018257,0.056907,0.015112,0.021606,-0.010672,0,0,0.045892,-0.0084421,0,-0.027747,0,0,0,0.059474,0.012544,0.021606,-13.526,0.031208,0.043119,3.5124e-06,0.06,0.86,0
0.0035215,-0.0024259,0.057532,0.012493,0.021007,-0.0098239,0,0,0.047482,-0.011069,0,-0.025542,0,0,0,0.059581,0.010443,0.021007,-11.784,0.030344,0.0448,3.7667e-06,0.08,0.86,0
0.0044855,-0.0029997,0.057939,0.010205,0.020443,-0.008779,0,0,0.048744,-0.01331,0,-0.022825,0,0,0,0.059502,0.0086417,0.020443,-10.098,0.029529,0.046107,3.944e-06,0.1,0.86,0
0.0054713,-0.0035386,0.058129,0.0082894,0.019925,-0.007652,0,0,0.049665,-0.015127,0,-0.019895,0,0,0,0.059277,0.007141,0.019925,-8.535,0.028781,0.047065,4.0522e-06,0.12,0.86,0
0.0064721,-0.0040377,0.058136,0.0067245,0.019458,-0.006534,0,0,0.050281,-0.016554,0,-0.016988,0,0,0,0.058953,0.0059071,0.019458,-7.1308,0.028106,0.047736,4.1061e-06,0.14,0.86,0
0.0074825,-0.0044952,0.058007,0.0054621,0.019041,-0.0054834,0,0,0.050656,-0.017652,0,-0.014257,0,0,0,0.058573,0.004896,0.019041,-5.8945,0.027503,0.048188,4.1215e-06,0.16,0.86,0
0.0084983,-0.0049115,0.05779,0.0044478,0.018671,-0.0045305,0,0,0.050854,-0.018491,0,-0.011779,0,0,0,0.058172,0.0040658,0.018671,-4.8203,0.02697,0.048483,4.112e-06,0.18,0.86,0
0.0095167,-0.0052884,0.057525,0.0036324,0.018347,-0.0036862,0,0,0.050931,-0.019129,0,-0.009584,0,0,0,0.057776,0.0033814,0.018347,-3.8947,0.026502,0.048669,4.0882e-06,0.2,0.86,0
0.010536,-0.0056281,0.057242,0.0029743,0.018065,-0.0029495,0,0,0.05093,-0.019618,0,-0.0076688,0,0,0,0.057402,0.0028144,0.018065,-3.1019,0.026094,0.048784,4.0573e-06,0.22,0.86,0
0.011554,-0.0059333,0.05696,0.0024403,0.01782,-0.0023136,0,0,0.050882,-0.019994,0,-0.0060154,0,0,0,0.057058,0.0023423,0.01782,-2.4256,0.02574,0.048852,4.0241e-06,0.24,0.86,0
0.012571,-0.0062068,0.056694,0.0020044,0.017609,-0.0017689,0,0,0.05081,-0.020287,0,-0.0045991,0,0,0,0.056751,0.0019472,0.017609,-1.8506,0.025436,0.048892,3.9915e-06,0.26,0.86,0
0.013586,-0.0064512,0.056449,0.0016462,0.017429,-0.001305,0,0,0.050727,-0.020517,0,-0.0033931,0,0,0,0.056481,0.0016152,0.017429,-1.3634,0.025175,0.048915,3.9613e-06,0.28,0.86,0
0.0146,-0.0066691,0.056231,0.0013502,0.017275,-0.00091207,0,0,0.050644,-0.020702,0,-0.0023714,0,0,0,0.056247,0.001335,0.017275,-0.95184,0.024952,0.048929,3.9344e-06,0.3,0.86,0
0.015612,-0.006863,0.056041,0.001104,0.017143,-0.00058081,0,0,0.050567,-0.020851,0,-0.0015101,0,0,0,0.056047,0.0010978,0.017143,-0.60566,0.024763,0.048941,3.9112e-06,0.32,0.86,0
0.016623,-0.0070351,0.055878,0.00089821,0.017033,-0.00030307,0,0,0.050499,-0.020975,0,-0.00078798,0,0,0,0.05588,0.00089654,0.017033,-0.31582,0.024603,0.048952,3.8918e-06,0.34,0.86,0
0.017632,-0.0071874,0.055741,0.00072544,0.01694,-7.1617e-05,0,0,0.050442,-0.021079,0,-0.0001862,0,0,0,0.055741,0.00072535,0.01694,-0.074585,0.024469,0.048965,3.8761e-06,0.36,0.86,0
0.01864,-0.0073219,0.055629,0.00057983,0.016862,0.00011983,0,0,0.050396,-0.021167,0,0.00031157,0,0,0,0.055629,0.00057956,0.016862,0.12473,0.024357,0.048982,3.8638e-06,0.38,0.86,0
0.019648,-0.0074402,0.055538,0.00045672,0.016798,0.00027675,0,0,0.050361,-0.021244,0,0.00071954,0,0,0,0.055539,0.00045533,0.016798,0.28786,0.024264,0.049001,3.8547e-06,0.4,0.86,0
0.020655,-0.0075442,0.055467,0.00035242,0.016746,0.00040385,0,0,0.050338,-0.021312,0,0.00105,0,0,0,0.05547,0.00034946,0.016746,0.4198,0.024189,0.049024,3.8483e-06,0.42,0.86,0
0.021661,-0.0076351,0.055414,0.0002639,0.016703,0.00050524,0,0,0.050324,-0.021371,0,0.0013136,0,0,0,0.055419,0.00025928,0.016703,0.52484,0.024127,0.04905,3.8444e-06,0.44,0.86,0
0.022668,-0.0077143,0.055376,0.00018875,0.01667,0.00058446,0,0,0.050319,-0.021425,0,0.0015196,0,0,0,0.055383,0.00018256,0.01667,0.6067,0.024078,0.049079,3.8426e-06,0.46,0.86,0
0.023674,-0.007783,0.055352,0.00012495,0.016643,0.00064458,0,0,0.050322,-0.021474,0,0.0016759,0,0,0,0.055359,0.00011742,0.016643,0.66861,0.02404,0.049111,3.8427e-06,0.48,0.86,0
0.024681,-0.0078425,0.055339,7.083e-05,0.016623,0.00068828,0,0,0.050331,-0.021518,0,0.0017895,0,0,0,0.055348,6.226e-05,0.016623,0.71338,0.024011,0.049144,3.8443e-06,0.5,0.86,0
0.025687,-0.0078935,0.055336,2.5014e-05,0.016608,0.00071787,0,0,0.050346,-0.021558,0,0.0018665,0,0,0,0.055345,1.5698e-05,0.016608,0.74347,0.02399,0.049179,3.8473e-06,0.52,0.86,0
0.026694,-0.0079372,0.055341,-1.3671e-05,0.016598,0.00073537,0,0,0.050366,-0.021595,0,0.001912,0,0,0,0.055351,-2.3439e-05,0.016598,0.76098,0.023975,0.049215,3.8513e-06,0.54,0.86,0
0.027702,-0.0079744,0.055352,-4.6219e-05,0.016592,0.00074254,0,0,0.050389,-0.02163,0,0.0019306,0,0,0,0.055363,-5.617e-05,0.016592,0.76779,0.023966,0.049252,3.8563e-06,0.56,0.86,0
0.02871,-0.0080057,0.05537,-7.3478e-05,0.016589,0.00074091,0,0,0.050415,-0.021661,0,0.0019264,0,0,0,0.05538,-8.3378e-05,0.016589,0.76548,0.023962,0.049289,3.8619e-06,0.58,0.86,0
0.029719,-0.008032,0.055391,-9.618e-05,0.016588,0.0007318,0,0,0.050444,-0.02169,0,0.0019027,0,0,0,0.055401,-0.00010583,0.016588,0.75548,0.023961,0.049326,3.868e-06,0.6,0.86,0
0.030728,-0.0080538,0.055416,-0.00011496,0.01659,0.00071639,0,0,0.050473,-0.021717,0,0.0018626,0,0,0,0.055425,-0.0001242,0.01659,0.73899,0.023964,0.049362,3.8745e-06,0.62,0.86,0
0.031738,-0.0080717,0.055443,-0.00013036,0.016594,0.00069567,0,0,0.050504,-0.021742,0,0.0018087,0,0,0,0.055452,-0.00013907,0.016594,0.71707,0.023969,0.049398,3.8812e-06,0.64,0.86,0
0.032748,-0.0080862,0.055472,-0.00014287,0.016599,0.00067051,0,0,0.050535,-0.021764,0,0.0017433,0,0,0,0.05548,-0.00015095,0.016599,0.69064,0.023976,0.049433,3.888e-06,0.66,0.86,0
0.033759,-0.0080978,0.055502,-0.00015291,0.016605,0.00064167,0,0,0.050567,-0.021785,0,0.0016683,0,0,0,0.05551,-0.0001603,0.016605,0.66047,0.023985,0.049466,3.8948e-06,0.68,0.86,0
0.034771,-0.0081069,0.055532,-0.00016085,0.016612,0.0006098,0,0,0.050597,-0.021804,0,0.0015855,0,0,0,0.055539,-0.00016752,0.016612,0.62725,0.023994,0.049498,3.9016e-06,0.7,0.86,0
0.035783,-0.008114,0.055563,-0.00016702,0.016619,0.00057546,0,0,0.050627,-0.021821,0,0.0014962,0,0,0,0.055569,-0.00017296,0.016619,0.59154,0.024005,0.049529,3.9082e-06,0.72,0.86,0
0.036796,-0.0081192,0.055592,-0.0001717,0.016626,0.00053911,0,0,0.050656,-0.021837,0,0.0014017,0,0,0,0.055598,-0.00017691,0.016626,0.55385,0.024016,0.049557,3.9146e-06,0.74,0.86,0
0.037809,-0.008123,0.055621,-0.00017516,0.016634,0.00050117,0,0,0.050683,-0.021851,0,0.0013031,0,0,0,0.055625,-0.00017966,0.016634,0.51459,0.024026,0.049584,3.9207e-06,0.76,0.86,0
0.038823,-0.0081257,0.055648,-0.00017761,0.016641,0.00046198,0,0,0.050709,-0.021864,0,0.0012011,0,0,0,0.055652,-0.00018144,0.016641,0.4741,0.024037,0.04961,3.9265e-06,0.78,0.86,0
0.039837,-0.0081273,0.055674,-0.00017926,0.016648,0.0004218,0,0,0.050733,-0.021876,0,0.0010967,0,0,0,0.055677,-0.00018245,0.016648,0.43266,0.024048,0.049633,3.9318e-06,0.8,0.86,0
0.040852,-0.0081282,0.055698,-0.00018028,0.016655,0.00038088,0,0,0.050755,-0.021886,0,0.0009903,0,0,0,0.0557,-0.00018288,0.016655,0.39052,0.024058,0.049654,3.9368e-06,0.82,0.86,0
0.041868,-0.0081286,0.05572,-0.00018082,0.016662,0.00033941,0,0,0.050775,-0.021895,0,0.00088246,0,0,0,0.055722,-0.00018288,0.016662,0.34786,0.024067,0.049673,3.9413e-06,0.84,0.86,0
0.042883,-0.0081285,0.055739,-0.000181,0.016667,0.00029753,0,0,0.050793,-0.021903,0,0.00077357,0,0,0,0.055741,-0.00018258,0.016667,0.30484,0.024075,0.049689,3.9454e-06,0.86,0.86,0
0.043899,-0.0081282,0.055757,-0.00018095,0.016673,0.00025536,0,0,0.050809,-0.02191,0,0.00066394,0,0,0,0.055758,-0.00018211,0.016673,0.26155,0.024083,0.049704,3.9489e-06,0.88,0.86,0
0.044916,-0.0081278,0.055771,-0.00018075,0.016677,0.000213,0,0,0.050822,-0.021915,0,0.00055379,0,0,0,0.055772,-0.00018156,0.016677,0.21811,0.024089,0.049716,3.9519e-06,0.9,0.86,0
0.045932,-0.0081273,0.055783,-0.00018048,0.016681,0.0001705,0,0,0.050833,-0.02192,0,0.00044331,0,0,0,0.055784,-0.000181,0.016681,0.17456,0.024095,0.049727,3.9544e-06,0.92,0.86,0
0.046949,-0.0081268,0.055793,-0.00018021,0.016684,0.00012793,0,0,0.050842,-0.021923,0,0.00033262,0,0,0,0.055793,-0.0001805,0.016684,0.13095,0.024099,0.049735,3.9564e-06,0.94,0.86,0
0.047966,-0.0081264,0.0558,-0.00017998,0.016686,8.5308e-05,0,0,0.050848,-0.021926,0,0.0002218,0,0,0,0.0558,-0.00018011,0.016686,0.087313,0.024102,0.04974,3.9578e-06,0.96,0.86,0
0.048983,-0.0081262,0.055804,-0.00017983,0.016687,4.266e-05,0,0,0.050852,-0.021927,0,0.00011092,0,0,0,0.055804,-0.00017986,0.016687,0.043659,0.024104,0.049744,3.9586e-06,0.98,0.86,0
0.05,-0.0081261,0.055806,-0.00017978,0.016688,1.5959e-06,0,0,0.050853,-0.021928,0,4.1493e-06,0,0,0,0.055806,-0.00017978,0.016688,0.0016332,0.024105,0.049745,3.9589e-06,1,0.86,0
0,0,0.056459,0.024196,0.024196,-0.012586,0,0,0.041941,0,0,-0.032723,0,0,0,0.060788,0.019867,0.024196,-18.981,0.034951,0.038936,2.9058e-06,0,0.88,0
0.00083881,-0.00065446,0.056168,0.02073,0.023069,-0.012436,0,0,0.043029,-0.0030417,0,-0.032333,0,0,0,0.060097,0.016801,0.023069,-17.531,0.033322,0.040527,3.1447e-06,0.02,0.88,0
0.0017211,-0.0013297,0.057137,0.017445,0.022375,-0.012164,0,0,0.045191,-0.0064082,0,-0.031628,0,0,0,0.060568,0.014014,0.022375,-15.753,0.032319,0.042988,3.5654e-06,0.04,0.88,0
0.0026464,-0.0020049,0.057942,0.014201,0.021643,-0.0114,0,0,0.047189,-0.0096747,0,-0.029641,0,0,0,0.060735,0.011408,0.021643,-13.766,0.031262,0.04509,3.9027e-06,0.06,0.88,0
0.0036087,-0.0026599,0.058486,0.011318,0.020941,-0.010265,0,0,0.048808,-0.01251,0,-0.026688,0,0,0,0.060623,0.0091808,0.020941,-11.76,0.030248,0.046686,4.1295e-06,0.08,0.88,0
0.0045988,-0.0032792,0.058733,0.0089356,0.0203,-0.0089411,0,0,0.049962,-0.014774,0,-0.023247,0,0,0,0.06029,0.0073789,0.0203,-9.8766,0.029323,0.047779,4.251e-06,0.1,0.88,0
0.0056072,-0.0038539,0.058713,0.0070466,0.019728,-0.0075913,0,0,0.050681,-0.016486,0,-0.019737,0,0,0,0.059805,0.0059543,0.019728,-8.1879,0.028496,0.048455,4.2906e-06,0.12,0.88,0
0.006626,-0.0043802,0.058496,0.0055763,0.019222,-0.0063209,0,0,0.051056,-0.017739,0,-0.016434,0,0,0,0.05924,0.0048318,0.019222,-6.7177,0.027765,0.04883,4.2756e-06,0.14,0.88,0
0.0076494,-0.0048581,0.058157,0.0044368,0.018778,-0.005181,0,0,0.051193,-0.018644,0,-0.01347,0,0,0,0.058652,0.0039416,0.018778,-5.4588,0.027124,0.049007,4.2294e-06,0.16,0.88,0
0.0086737,-0.0052896,0.05776,0.0035512,0.018393,-0.004187,0,0,0.051177,-0.019295,0,-0.010886,0,0,0,0.058081,0.0032297,0.018393,-4.3907,0.026568,0.04906,4.1687e-06,0.18,0.88,0
0.0096965,-0.0056777,0.057349,0.0028585,0.018062,-0.0033347,0,0,0.051073,-0.019765,0,-0.0086702,0,0,0,0.057553,0.0026552,0.018062,-3.489,0.02609,0.049044,4.104e-06,0.2,0.88,0
0.010717,-0.0060258,0.056953,0.0023121,0.01778,-0.0026113,0,0,0.050926,-0.020108,0,-0.0067893,0,0,0,0.057078,0.0021876,0.01778,-2.7298,0.025682,0.048992,4.0415e-06,0.22,0.88,0
0.011733,-0.0063373,0.056589,0.001877,0.01754,-0.0020011,0,0,0.050764,-0.020362,0,-0.0052027,0,0,0,0.056662,0.0018039,0.01754,-2.0918,0.025335,0.048926,3.9843e-06,0.24,0.88,0
0.012747,-0.0066156,0.056263,0.0015274,0.017337,-0.0014885,0,0,0.050603,-0.020553,0,-0.00387,0,0,0,0.056303,0.001487,0.017337,-1.5566,0.025042,0.048859,3.9341e-06,0.26,0.88,0
0.013758,-0.0068638,0.055979,0.001244,0.017167,-0.0010593,0,0,0.050456,-0.0207,0,-0.0027541,0,0,0,0.056,0.0012235,0.017167,-1.1083,0.024797,0.048799,3.8912e-06,0.28,0.88,0
0.014765,-0.0070847,0.055737,0.0010122,0.017025,-0.00070105,0,0,0.050326,-0.020816,0,-0.0018227,0,0,0,0.055746,0.0010033,0.017025,-0.73382,0.024591,0.048748,3.8554e-06,0.3,0.88,0
0.015771,-0.007281,0.055535,0.00082138,0.016907,-0.00040309,0,0,0.050216,-0.020911,0,-0.001048,0,0,0,0.055538,0.00081841,0.016907,-0.42209,0.024421,0.04871,3.8264e-06,0.32,0.88,0
0.016774,-0.007455,0.055369,0.00066313,0.01681,-0.00015635,0,0,0.050127,-0.020991,0,-0.00040651,0,0,0,0.05537,0.00066268,0.01681,-0.16375,0.024281,0.048685,3.8035e-06,0.34,0.88,0
0.017776,-0.007609,0.055237,0.00053118,0.01673,4.6824e-05,0,0,0.050058,-0.021059,0,0.00012174,0,0,0,0.055237,0.00053114,0.01673,0.049041,0.024166,0.048672,3.7861e-06,0.36,0.88,0
0.018776,-0.007745,0.055134,0.00042064,0.016666,0.00021289,0,0,0.050008,-0.021119,0,0.00055351,0,0,0,0.055135,0.00041981,0.016666,0.22293,0.024074,0.04867,3.7735e-06,0.38,0.88,0
0.019776,-0.0078646,0.055058,0.00032769,0.016615,0.0003473,0,0,0.049974,-0.021174,0,0.00090298,0,0,0,0.05506,0.00032548,0.016615,0.36356,0.024,0.048678,3.7651e-06,0.4,0.88,0
0.020775,-0.0079697,0.055003,0.0002493,0.016576,0.00045467,0,0,0.049956,-0.021225,0,0.0011822,0,0,0,0.055007,0.00024553,0.016576,0.47574,0.023943,0.048695,3.7602e-06,0.42,0.88,0
0.021774,-0.0080616,0.054969,0.00018308,0.016546,0.00053894,0,0,0.04995,-0.021271,0,0.0014012,0,0,0,0.054974,0.00017778,0.016546,0.56356,0.023899,0.04872,3.7585e-06,0.44,0.88,0
0.022773,-0.0081418,0.054951,0.00012708,0.016523,0.00060345,0,0,0.049956,-0.021315,0,0.001569,0,0,0,0.054958,0.00012043,0.016523,0.63055,0.023867,0.048752,3.7594e-06,0.46,0.88,0
0.023773,-0.0082115,0.054948,7.9718e-05,0.016508,0.00065106,0,0,0.049971,-0.021357,0,0.0016928,0,0,0,0.054955,7.1993e-05,0.016508,0.67974,0.023845,0.048788,3.7624e-06,0.48,0.88,0
0.024772,-0.0082717,0.054956,3.9704e-05,0.016499,0.00068423,0,0,0.049994,-0.021397,0,0.001779,0,0,0,0.054964,3.118e-05,0.016499,0.71373,0.023831,0.048829,3.7673e-06,0.5,0.88,0
0.025772,-0.0083236,0.054974,5.9598e-06,0.016494,0.00070509,0,0,0.050024,-0.021434,0,0.0018332,0,0,0,0.054983,-3.0831e-06,0.016494,0.73479,0.023825,0.048872,3.7736e-06,0.52,0.88,0
0.026773,-0.008368,0.055,-2.2418e-05,0.016493,0.00071546,0,0,0.050059,-0.02147,0,0.0018602,0,0,0,0.055009,-3.1719e-05,0.016493,0.74485,0.023824,0.048919,3.7811e-06,0.54,0.88,0
0.027775,-0.0084058,0.055032,-4.619e-05,0.016496,0.00071691,0,0,0.050097,-0.021505,0,0.001864,0,0,0,0.055042,-5.552e-05,0.016496,0.74561,0.023827,0.048966,3.7896e-06,0.56,0.88,0
0.028777,-0.0084377,0.055069,-6.6005e-05,0.016501,0.00071082,0,0,0.050139,-0.021537,0,0.0018482,0,0,0,0.055079,-7.5168e-05,0.016501,0.73851,0.023835,0.049015,3.7987e-06,0.58,0.88,0
0.02978,-0.0084646,0.05511,-8.2419e-05,0.016508,0.00069837,0,0,0.050182,-0.021568,0,0.0018158,0,0,0,0.055119,-9.1255e-05,0.016508,0.72483,0.023845,0.049064,3.8082e-06,0.6,0.88,0
0.030784,-0.0084869,0.055154,-9.5912e-05,0.016517,0.00068059,0,0,0.050227,-0.021597,0,0.0017695,0,0,0,0.055162,-0.0001043,0.016517,0.70565,0.023858,0.049112,3.8181e-06,0.62,0.88,0
0.031789,-0.0085053,0.055198,-0.0001069,0.016528,0.00065834,0,0,0.050272,-0.021625,0,0.0017117,0,0,0,0.055206,-0.00011474,0.016528,0.68191,0.023873,0.04916,3.8281e-06,0.64,0.88,0
0.032795,-0.0085203,0.055244,-0.00011575,0.016539,0.00063241,0,0,0.050317,-0.02165,0,0.0016443,0,0,0,0.055251,-0.00012297,0.016539,0.65441,0.023889,0.049207,3.838e-06,0.66,0.88,0
0.033802,-0.0085324,0.05529,-0.00012277,0.01655,0.00060344,0,0,0.050362,-0.021675,0,0.0015689,0,0,0,0.055296,-0.00012934,0.01655,0.62385,0.023906,0.049252,3.8479e-06,0.68,0.88,0
0.03481,-0.008542,0.055335,-0.00012825,0.016562,0.000572,0,0,0.050405,-0.021697,0,0.0014872,0,0,0,0.055341,-0.00013415,0.016562,0.59082,0.023923,0.049295,3.8575e-06,0.7,0.88,0
0.035818,-0.0085494,0.055379,-0.00013244,0.016574,0.00053857,0,0,0.050446,-0.021718,0,0.0014003,0,0,0,0.055384,-0.00013766,0.016574,0.55581,0.02394,0.049336,3.8669e-06,0.72,0.88,0
0.036828,-0.008555,0.055421,-0.00013554,0.016586,0.00050355,0,0,0.050486,-0.021738,0,0.0013092,0,0,0,0.055426,-0.0001401,0.016586,0.51926,0.023957,0.049376,3.8758e-06,0.74,0.88,0
0.037838,-0.0085591,0.055462,-0.00013775,0.016597,0.00046729,0,0,0.050524,-0.021756,0,0.001215,0,0,0,0.055466,-0.00014168,0.016597,0.4815,0.023974,0.049412,3.8843e-06,0.76,0.88,0
0.038849,-0.008562,0.0555,-0.00013924,0.016608,0.00043008,0,0,0.050559,-0.021772,0,0.0011182,0,0,0,0.055503,-0.00014257,0.016608,0.44285,0.02399,0.049446,3.8922e-06,0.78,0.88,0
0.03986,-0.0085639,0.055536,-0.00014016,0.016619,0.00039214,0,0,0.050592,-0.021786,0,0.0010196,0,0,0,0.055538,-0.00014292,0.016619,0.40353,0.024005,0.049478,3.8996e-06,0.8,0.88,0
0.040872,-0.0085651,0.055568,-0.00014064,0.016628,0.00035368,0,0,0.050622,-0.0218,0,0.00091956,0,0,0,0.055571,-0.00014288,0.016628,0.36373,0.024019,0.049506,3.9064e-06,0.82,0.88,0
0.041885,-0.0085656,0.055598,-0.00014078,0.016637,0.00031484,0,0,0.050649,-0.021811,0,0.00081857,0,0,0,0.0556,-0.00014256,0.016637,0.32362,0.024032,0.049532,3.9125e-06,0.84,0.88,0
0.042898,-0.0085658,0.055625,-0.0001407,0.016645,0.00027574,0,0,0.050673,-0.021822,0,0.00071693,0,0,0,0.055626,-0.00014206,0.016645,0.2833,0.024043,0.049555,3.918e-06,0.86,0.88,0
0.043912,-0.0085656,0.055648,-0.00014046,0.016652,0.00023648,0,0,0.050694,-0.02183,0,0.00061485,0,0,0,0.055649,-0.00014146,0.016652,0.24287,0.024053,0.049575,3.9228e-06,0.88,0.88,0
0.044926,-0.0085653,0.055668,-0.00014014,0.016658,0.00019713,0,0,0.050712,-0.021838,0,0.00051253,0,0,0,0.055668,-0.00014084,0.016658,0.20238,0.024062,0.049592,3.9269e-06,0.9,0.88,0
0.04594,-0.0085649,0.055684,-0.00013981,0.016663,0.00015772,0,0,0.050727,-0.021844,0,0.00041007,0,0,0,0.055684,-0.00014025,0.016663,0.16187,0.024069,0.049606,3.9303e-06,0.92,0.88,0
0.046955,-0.0085645,0.055697,-0.0001395,0.016667,0.00011829,0,0,0.050739,-0.021849,0,0.00030755,0,0,0,0.055697,-0.00013975,0.016667,0.12138,0.024075,0.049616,3.9329e-06,0.94,0.88,0
0.04797,-0.0085642,0.055706,-0.00013925,0.01667,7.8858e-05,0,0,0.050747,-0.021852,0,0.00020503,0,0,0,0.055706,-0.00013937,0.01667,0.080906,0.024079,0.049624,3.9348e-06,0.96,0.88,0
0.048985,-0.008564,0.055712,-0.0001391,0.016672,3.9427e-05,0,0,0.050752,-0.021854,0,0.00010251,0,0,0,0.055712,-0.00013913,0.016672,0.040447,0.024081,0.049629,3.9359e-06,0.98,0.88,0
0.05,-0.0085639,0.055713,-0.00013904,0.016672,1.3741e-06,0,0,0.050753,-0.021855,0,3.5726e-06,0,0,0,0.055713,-0.00013904,0.016672,0.0014096,0.024082,0.04963,3.9363e-06,1,0.88,0
0,0,0.057893,0.024811,0.024811,-0.013841,0,0,0.043006,0,0,-0.035986,0,0,0,0.06292,0.019784,0.024811,-19.961,0.035838,0.040855,3.3242e-06,0,0.9,0
0.00086012,-0.00071973,0.057529,0.020698,0.023468,-0.013603,0,0,0.044279,-0.0036015,0,-0.035368,0,0,0,0.062008,0.016218,0.023468,-18.226,0.033898,0.04263,3.5941e-06,0.02,0.9,0
0.0017712,-0.0014678,0.058543,0.016689,0.02257,-0.013161,0,0,0.046766,-0.0076452,0,-0.034218,0,0,0,0.062338,0.012894,0.02257,-16.083,0.032601,0.045386,4.0758e-06,0.04,0.9,0
0.0027308,-0.0022126,0.059294,0.0129,0.021658,-0.012032,0,0,0.048927,-0.011386,0,-0.031283,0,0,0,0.062229,0.0099649,0.021658,-13.708,0.031284,0.047509,4.4032e-06,0.06,0.9,0
0.0037282,-0.0029263,0.059656,0.0097802,0.020831,-0.010483,0,0,0.050472,-0.014366,0,-0.027255,0,0,0,0.061769,0.0076665,0.020831,-11.4,0.030089,0.048869,4.5599e-06,0.08,0.9,0
0.0047497,-0.0035907,0.059615,0.0074018,0.020105,-0.0088146,0,0,0.051363,-0.016514,0,-0.022918,0,0,0,0.061063,0.0059539,0.020105,-9.3282,0.029041,0.049573,4.5804e-06,0.1,0.9,0
0.0057828,-0.004198,0.059268,0.0056449,0.019474,-0.0072384,0,0,0.051733,-0.017978,0,-0.01882,0,0,0,0.060228,0.004685,0.019474,-7.5541,0.028129,0.049823,4.516e-06,0.12,0.9,0
0.006819,-0.0047472,0.05874,0.0043487,0.018927,-0.0058486,0,0,0.051757,-0.018951,0,-0.015206,0,0,0,0.059362,0.003727,0.018927,-6.0685,0.027339,0.049806,4.41e-06,0.14,0.9,0
0.0078531,-0.0052409,0.058141,0.0033864,0.018458,-0.0046666,0,0,0.051588,-0.019593,0,-0.012133,0,0,0,0.058536,0.0029915,0.018458,-4.8367,0.026662,0.049652,4.2915e-06,0.16,0.9,0
0.0088825,-0.0056833,0.057542,0.0026635,0.018062,-0.0036791,0,0,0.051324,-0.020017,0,-0.0095656,0,0,0,0.057787,0.002418,0.018062,-3.8184,0.026089,0.04944,4.1762e-06,0.18,0.9,0
0.009906,-0.006079,0.056982,0.0021134,0.017729,-0.0028611,0,0,0.051029,-0.0203,0,-0.0074388,0,0,0,0.057131,0.0019646,0.017729,-2.9769,0.025608,0.049215,4.0718e-06,0.2,0.9,0
0.010924,-0.0064324,0.056481,0.001689,0.017451,-0.0021859,0,0,0.050739,-0.020491,0,-0.0056833,0,0,0,0.056568,0.0016019,0.017451,-2.2809,0.025207,0.049003,3.981e-06,0.22,0.9,0
0.011936,-0.0067478,0.056046,0.0013571,0.017221,-0.0016293,0,0,0.050473,-0.020623,0,-0.0042361,0,0,0,0.056095,0.0013086,0.017221,-1.7049,0.024875,0.048815,3.9044e-06,0.24,0.9,0
0.012943,-0.0070289,0.055677,0.0010944,0.017032,-0.0011706,0,0,0.05024,-0.020718,0,-0.0030437,0,0,0,0.055703,0.0010693,0.017032,-1.2281,0.024601,0.048657,3.8412e-06,0.26,0.9,0
0.013945,-0.0072792,0.055371,0.00088402,0.016876,-0.00079292,0,0,0.050043,-0.02079,0,-0.0020616,0,0,0,0.055382,0.00087248,0.016876,-0.83356,0.024377,0.048529,3.79e-06,0.28,0.9,0
0.014944,-0.0075018,0.055121,0.00071376,0.01675,-0.00048218,0,0,0.049882,-0.020848,0,-0.0012537,0,0,0,0.055125,0.00070949,0.01675,-0.50773,0.024195,0.04843,3.7496e-06,0.3,0.9,0
0.01594,-0.0076994,0.054922,0.00057474,0.016649,-0.00022713,0,0,0.049755,-0.020896,0,-0.00059054,0,0,0,0.054923,0.00057379,0.016649,-0.23945,0.024049,0.048358,3.7184e-06,0.32,0.9,0
0.016934,-0.0078747,0.054767,0.00046031,0.016568,-1.8536e-05,0,0,0.049659,-0.02094,0,-4.8193e-05,0,0,0,0.054767,0.0004603,0.016568,-0.019556,0.023932,0.048311,3.6953e-06,0.34,0.9,0
0.017927,-0.0080297,0.054652,0.00036549,0.016505,0.00015113,0,0,0.049591,-0.020982,0,0.00039293,0,0,0,0.054652,0.00036507,0.016505,0.1595,0.023841,0.048285,3.679e-06,0.36,0.9,0
0.018918,-0.0081666,0.05457,0.00028649,0.016457,0.00028804,0,0,0.049547,-0.021022,0,0.0007489,0,0,0,0.054572,0.00028496,0.016457,0.30401,0.023771,0.048277,3.6686e-06,0.38,0.9,0
0.019909,-0.0082872,0.054517,0.00022038,0.016421,0.00039732,0,0,0.049525,-0.021061,0,0.001033,0,0,0,0.05452,0.00021747,0.016421,0.41924,0.02372,0.048285,3.6631e-06,0.4,0.9,0
0.020899,-0.0083931,0.054489,0.00016487,0.016396,0.00048322,0,0,0.04952,-0.021101,0,0.0012564,0,0,0,0.054493,0.00016057,0.016396,0.5096,0.023683,0.048306,3.6617e-06,0.42,0.9,0
0.021889,-0.0084859,0.05448,0.00011816,0.01638,0.0005493,0,0,0.049531,-0.02114,0,0.0014282,0,0,0,0.054486,0.00011261,0.01638,0.57886,0.023659,0.048338,3.6638e-06,0.44,0.9,0
0.02288,-0.0085669,0.05449,7.8811e-05,0.01637,0.00059856,0,0,0.049555,-0.021179,0,0.0015562,0,0,0,0.054496,7.2227e-05,0.01637,0.6302,0.023646,0.048379,3.6688e-06,0.46,0.9,0
0.023872,-0.0086373,0.054513,4.5658e-05,0.016368,0.00063353,0,0,0.049589,-0.021218,0,0.0016472,0,0,0,0.05452,3.8291e-05,0.016368,0.66631,0.023642,0.048428,3.6761e-06,0.48,0.9,0
0.024864,-0.0086983,0.054547,1.7753e-05,0.016369,0.00065637,0,0,0.049631,-0.021257,0,0.0017066,0,0,0,0.054555,9.853e-06,0.016369,0.68954,0.023645,0.048482,3.6853e-06,0.5,0.9,0
0.025857,-0.0087509,0.054591,-5.69e-06,0.016376,0.00066893,0,0,0.04968,-0.021296,0,0.0017392,0,0,0,0.054599,-1.3885e-05,0.016376,0.70186,0.023654,0.04854,3.696e-06,0.52,0.9,0
0.026851,-0.008796,0.054642,-2.5323e-05,0.016385,0.00067279,0,0,0.049734,-0.021333,0,0.0017492,0,0,0,0.05465,-3.3601e-05,0.016385,0.70499,0.023667,0.048601,3.7078e-06,0.54,0.9,0
0.027846,-0.0088346,0.054698,-4.1694e-05,0.016397,0.00066929,0,0,0.049792,-0.02137,0,0.0017402,0,0,0,0.054707,-4.9876e-05,0.016397,0.7004,0.023685,0.048664,3.7204e-06,0.56,0.9,0
0.028843,-0.0088672,0.054759,-5.5271e-05,0.016411,0.00065962,0,0,0.049852,-0.021406,0,0.001715,0,0,0,0.054767,-6.3207e-05,0.016411,0.68935,0.023705,0.048728,3.7336e-06,0.58,0.9,0
0.02984,-0.0088947,0.054821,-6.6451e-05,0.016427,0.00064477,0,0,0.049913,-0.021441,0,0.0016764,0,0,0,0.054829,-7.4024e-05,0.016427,0.67293,0.023727,0.048792,3.7472e-06,0.6,0.9,0
0.030839,-0.0089176,0.054885,-7.5578e-05,0.016443,0.00062561,0,0,0.049975,-0.021474,0,0.0016266,0,0,0,0.054893,-8.2698e-05,0.016443,0.65207,0.023751,0.048856,3.7609e-06,0.62,0.9,0
0.031839,-0.0089367,0.05495,-8.2948e-05,0.01646,0.00060289,0,0,0.050037,-0.021506,0,0.0015675,0,0,0,0.054957,-8.9552e-05,0.01646,0.62757,0.023776,0.048918,3.7746e-06,0.64,0.9,0
0.032841,-0.0089522,0.055014,-8.8822e-05,0.016478,0.00057724,0,0,0.050098,-0.021536,0,0.0015008,0,0,0,0.05502,-9.4868e-05,0.016478,0.60012,0.023801,0.048979,3.7881e-06,0.66,0.9,0
0.033843,-0.0089648,0.055077,-9.3424e-05,0.016495,0.00054922,0,0,0.050157,-0.021565,0,0.001428,0,0,0,0.055083,-9.8891e-05,0.016495,0.5703,0.023826,0.049038,3.8013e-06,0.68,0.9,0
0.034847,-0.0089748,0.055139,-9.6954e-05,0.016512,0.00051929,0,0,0.050214,-0.021592,0,0.0013501,0,0,0,0.055143,-0.00010184,0.016512,0.53859,0.023851,0.049094,3.814e-06,0.7,0.9,0
0.035852,-0.0089827,0.055197,-9.9588e-05,0.016529,0.00048784,0,0,0.050269,-0.021618,0,0.0012684,0,0,0,0.055202,-0.00010389,0.016529,0.50542,0.023876,0.049147,3.8263e-06,0.72,0.9,0
0.036858,-0.0089888,0.055254,-0.00010148,0.016546,0.00045522,0,0,0.05032,-0.021641,0,0.0011836,0,0,0,0.055257,-0.00010522,0.016546,0.47114,0.023899,0.049198,3.838e-06,0.74,0.9,0
0.037865,-0.0089933,0.055307,-0.00010276,0.016561,0.0004217,0,0,0.050369,-0.021663,0,0.0010964,0,0,0,0.05531,-0.00010597,0.016561,0.43603,0.023922,0.049245,3.849e-06,0.76,0.9,0
0.038872,-0.0089965,0.055356,-0.00010355,0.016576,0.00038752,0,0,0.050415,-0.021683,0,0.0010076,0,0,0,0.055359,-0.00010626,0.016576,0.40032,0.023943,0.049289,3.8593e-06,0.78,0.9,0
0.039881,-0.0089988,0.055403,-0.00010396,0.01659,0.00035286,0,0,0.050457,-0.021702,0,0.00091742,0,0,0,0.055405,-0.00010621,0.01659,0.36421,0.023963,0.04933,3.8688e-06,0.8,0.9,0
0.040891,-0.0090002,0.055445,-0.00010408,0.016602,0.00031786,0,0,0.050495,-0.021718,0,0.00082644,0,0,0,0.055446,-0.0001059,0.016602,0.32784,0.023981,0.049367,3.8775e-06,0.82,0.9,0
0.041901,-0.009001,0.055483,-0.00010399,0.016614,0.00028266,0,0,0.05053,-0.021733,0,0.00073492,0,0,0,0.055484,-0.00010543,0.016614,0.29134,0.023997,0.0494,3.8854e-06,0.84,0.9,0
0.042912,-0.0090014,0.055517,-0.00010376,0.016624,0.00024734,0,0,0.050561,-0.021746,0,0.00064308,0,0,0,0.055518,-0.00010486,0.016624,0.25478,0.024012,0.049429,3.8924e-06,0.86,0.9,0
0.043923,-0.0090014,0.055546,-0.00010344,0.016633,0.00021196,0,0,0.050587,-0.021757,0,0.00055109,0,0,0,0.055547,-0.00010425,0.016633,0.21823,0.024025,0.049454,3.8985e-06,0.88,0.9,0
0.044936,-0.0090013,0.055571,-0.00010309,0.01664,0.00017657,0,0,0.05061,-0.021767,0,0.00045908,0,0,0,0.055572,-0.00010365,0.01664,0.18171,0.024036,0.049476,3.9037e-06,0.9,0.9,0
0.045948,-0.009001,0.055592,-0.00010275,0.016647,0.0001412,0,0,0.050629,-0.021774,0,0.00036712,0,0,0,0.055592,-0.00010311,0.016647,0.14526,0.024045,0.049494,3.908e-06,0.92,0.9,0
0.046961,-0.0090008,0.055608,-0.00010245,0.016652,0.00010586,0,0,0.050643,-0.02178,0,0.00027523,0,0,0,0.055608,-0.00010265,0.016652,0.10887,0.024052,0.049508,3.9113e-06,0.94,0.9,0
0.047974,-0.0090005,0.05562,-0.00010222,0.016655,7.055e-05,0,0,0.050654,-0.021785,0,0.00018343,0,0,0,0.05562,-0.00010231,0.016655,0.072543,0.024057,0.049517,3.9137e-06,0.96,0.9,0
0.048987,-0.0090004,0.055627,-0.00010207,0.016657,3.5268e-05,0,0,0.05066,-0.021787,0,9.1697e-05,0,0,0,0.055627,-0.0001021,0.016657,0.03626,0.024061,0.049523,3.9151e-06,0.98,0.9,0
0.05,-0.0090003,0.055629,-0.00010202,0.016658,1.0819e-06,0,0,0.050662,-0.021788,0,2.813e-06,0,0,0,0.055629,-0.00010202,0.016658,0.0011123,0.024062,0.049525,3.9156e-06,1,0.9,0
0,0,0.060028,0.025726,0.025726,-0.015356,0,0,0.044593,-1.5179e-18,0,-0.039926,0,0,0,0.065899,0.019856,0.025726,-20.92,0.03716,0.043406,3.9424e-06,0,0.92,0
0.00089185,-0.00079852,0.059497,0.020537,0.02401,-0.014939,0,0,0.046133,-0.004515,0,-0.038842,0,0,0,0.064566,0.015468,0.02401,-18.742,0.034682,0.045433,4.2484e-06,0.02,0.92,0
0.0018453,-0.0016355,0.060498,0.015406,0.022771,-0.014131,0,0,0.049045,-0.0095753,0,-0.036741,0,0,0,0.064561,0.011343,0.022771,-16.039,0.032892,0.048524,4.7887e-06,0.04,0.92,0
0.0028537,-0.0024604,0.061067,0.010999,0.02162,-0.012391,0,0,0.051281,-0.013807,0,-0.032216,0,0,0,0.063966,0.0081006,0.02162,-13.167,0.031229,0.050482,5.0444e-06,0.06,0.92,0
0.0038966,-0.0032345,0.06104,0.0078044,0.020653,-0.010263,0,0,0.052503,-0.016704,0,-0.026683,0,0,0,0.06295,0.0058944,0.020653,-10.542,0.029833,0.051294,5.0456e-06,0.08,0.92,0
0.0049538,-0.0039398,0.060503,0.0056423,0.019844,-0.008231,0,0,0.052857,-0.018462,0,-0.0214,0,0,0,0.061711,0.0044339,0.019844,-8.3514,0.028663,0.051337,4.8964e-06,0.1,0.92,0
0.0060108,-0.004573,0.059661,0.004153,0.019144,-0.0064898,0,0,0.052672,-0.019488,0,-0.016873,0,0,0,0.060409,0.0034044,0.019144,-6.5806,0.027653,0.050991,4.6859e-06,0.12,0.92,0
0.0070606,-0.0051383,0.058735,0.003114,0.018555,-0.0050677,0,0,0.052234,-0.020073,0,-0.013176,0,0,0,0.059193,0.002656,0.018555,-5.1637,0.026801,0.050501,4.4719e-06,0.14,0.92,0
0.0081002,-0.0056419,0.057845,0.002374,0.018066,-0.0039258,0,0,0.051713,-0.020399,0,-0.010207,0,0,0,0.058121,0.0020976,0.018066,-4.0282,0.026095,0.04999,4.2786e-06,0.16,0.92,0
0.0091291,-0.0060903,0.057045,0.0018362,0.017664,-0.0030128,0,0,0.051195,-0.020577,0,-0.0078333,0,0,0,0.057209,0.0016722,0.017664,-3.1144,0.025515,0.049517,4.1135e-06,0.18,0.92,0
0.010148,-0.0064897,0.056355,0.0014373,0.017338,-0.0022817,0,0,0.050723,-0.020671,0,-0.0059325,0,0,0,0.05645,0.0013426,0.017338,-2.3751,0.025043,0.049104,3.977e-06,0.2,0.92,0
0.011158,-0.0068454,0.055776,0.0011358,0.017073,-0.0016943,0,0,0.050313,-0.020719,0,-0.0044051,0,0,0,0.055828,0.0010833,0.017073,-1.7744,0.024662,0.048758,3.8663e-06,0.22,0.92,0
0.01216,-0.0071622,0.055298,0.00090387,0.016861,-0.0012204,0,0,0.049969,-0.020744,0,-0.0031729,0,0,0,0.055326,0.0008765,0.016861,-1.2846,0.024354,0.048476,3.7781e-06,0.24,0.92,0
0.013157,-0.0074443,0.054913,0.00072272,0.016691,-0.00083685,0,0,0.049689,-0.020758,0,-0.0021758,0,0,0,0.054926,0.0007098,0.016691,-0.88453,0.024109,0.048253,3.7089e-06,0.26,0.92,0
0.014148,-0.0076954,0.054608,0.00057923,0.016556,-0.00052584,0,0,0.049467,-0.02077,0,-0.0013672,0,0,0,0.054613,0.00057411,0.016556,-0.55757,0.023914,0.048083,3.6556e-06,0.28,0.92,0
0.015135,-0.0079186,0.054372,0.00046416,0.016451,-0.0002735,0,0,0.049297,-0.020782,0,-0.00071111,0,0,0,0.054373,0.00046277,0.016451,-0.29069,0.023762,0.047958,3.6156e-06,0.3,0.92,0
0.01612,-0.0081168,0.054195,0.00037089,0.01637,-6.9019e-05,0,0,0.049173,-0.020799,0,-0.00017945,0,0,0,0.054195,0.0003708,0.01637,-0.07347,0.023645,0.047873,3.5868e-06,0.32,0.92,0
0.017102,-0.0082926,0.054068,0.00029461,0.016309,9.6137e-05,0,0,0.049087,-0.020819,0,0.00024996,0,0,0,0.054068,0.00029444,0.016309,0.10243,0.023557,0.047822,3.5672e-06,0.34,0.92,0
0.018083,-0.0084483,0.053984,0.00023174,0.016265,0.00022875,0,0,0.049036,-0.020843,0,0.00059476,0,0,0,0.053985,0.00023077,0.016265,0.24383,0.023494,0.047799,3.5553e-06,0.36,0.92,0
0.019064,-0.0085858,0.053936,0.00017961,0.016235,0.00033429,0,0,0.049012,-0.020872,0,0.00086916,0,0,0,0.053938,0.00017753,0.016235,0.35628,0.02345,0.0478,3.5498e-06,0.38,0.92,0
0.020044,-0.0087071,0.053918,0.00013616,0.016216,0.00041719,0,0,0.049012,-0.020904,0,0.0010847,0,0,0,0.053921,0.00013292,0.016216,0.44441,0.023423,0.04782,3.5495e-06,0.4,0.92,0
0.021024,-0.0088137,0.053924,9.9819e-05,0.016207,0.00048108,0,0,0.049032,-0.02094,0,0.0012508,0,0,0,0.053928,9.552e-05,0.016207,0.51205,0.02341,0.047856,3.5536e-06,0.42,0.92,0
0.022005,-0.0089072,0.053951,6.9349e-05,0.016206,0.00052898,0,0,0.049068,-0.020978,0,0.0013753,0,0,0,0.053956,6.4157e-05,0.016206,0.56242,0.023409,0.047906,3.5613e-06,0.44,0.92,0
0.022987,-0.008989,0.053994,4.377e-05,0.016211,0.00056339,0,0,0.049117,-0.021018,0,0.0014648,0,0,0,0.053999,3.7887e-05,0.016211,0.59824,0.023416,0.047966,3.5718e-06,0.46,0.92,0
0.02397,-0.0090602,0.05405,2.2293e-05,0.016222,0.00058641,0,0,0.049177,-0.021059,0,0.0015247,0,0,0,0.054056,1.5929e-05,0.016222,0.62179,0.023431,0.048033,3.5846e-06,0.48,0.92,0
0.024954,-0.009122,0.054116,4.2813e-06,0.016236,0.00059983,0,0,0.049244,-0.021101,0,0.0015596,0,0,0,0.054123,-2.3671e-06,0.016236,0.63502,0.023452,0.048107,3.5992e-06,0.5,0.92,0
0.02594,-0.0091754,0.05419,-1.0792e-05,0.016254,0.00060516,0,0,0.049318,-0.021144,0,0.0015734,0,0,0,0.054197,-1.7547e-05,0.016254,0.6396,0.023478,0.048185,3.6152e-06,0.52,0.92,0
0.026927,-0.0092213,0.05427,-2.3361e-05,0.016274,0.00060367,0,0,0.049395,-0.021187,0,0.0015696,0,0,0,0.054277,-3.0072e-05,0.016274,0.63695,0.023507,0.048266,3.6321e-06,0.54,0.92,0
0.027915,-0.0092606,0.054354,-3.3793e-05,0.016296,0.00059647,0,0,0.049476,-0.021229,0,0.0015508,0,0,0,0.054361,-4.0333e-05,0.016296,0.62826,0.023539,0.048349,3.6496e-06,0.56,0.92,0
0.028906,-0.009294,0.054441,-4.2396e-05,0.016319,0.0005845,0,0,0.049557,-0.02127,0,0.0015197,0,0,0,0.054447,-4.8665e-05,0.016319,0.61459,0.023572,0.048432,3.6676e-06,0.58,0.92,0
0.029898,-0.0093222,0.054528,-4.9434e-05,0.016344,0.00056857,0,0,0.04964,-0.021311,0,0.0014783,0,0,0,0.054534,-5.5356e-05,0.016344,0.5968,0.023607,0.048515,3.6857e-06,0.6,0.92,0
0.030891,-0.0093459,0.054615,-5.5134e-05,0.016368,0.00054937,0,0,0.049721,-0.02135,0,0.0014284,0,0,0,0.054621,-6.0654e-05,0.016368,0.57567,0.023643,0.048596,3.7037e-06,0.62,0.92,0
0.031887,-0.0093656,0.054701,-5.9693e-05,0.016393,0.00052749,0,0,0.049801,-0.021388,0,0.0013715,0,0,0,0.054706,-6.4774e-05,0.016393,0.55184,0.023678,0.048676,3.7214e-06,0.64,0.92,0
0.032884,-0.0093818,0.054786,-6.3281e-05,0.016417,0.00050344,0,0,0.04988,-0.021424,0,0.0013089,0,0,0,0.05479,-6.7902e-05,0.016417,0.52584,0.023713,0.048753,3.7388e-06,0.66,0.92,0
0.033882,-0.009395,0.054867,-6.6048e-05,0.01644,0.00047766,0,0,0.049955,-0.021458,0,0.0012419,0,0,0,0.054871,-7.0201e-05,0.01644,0.49815,0.023747,0.048827,3.7556e-06,0.68,0.92,0
0.034882,-0.0094056,0.054946,-6.8124e-05,0.016463,0.00045051,0,0,0.050027,-0.021491,0,0.0011713,0,0,0,0.054949,-7.1814e-05,0.016463,0.46915,0.02378,0.048898,3.7718e-06,0.7,0.92,0
0.035883,-0.0094141,0.055021,-6.9626e-05,0.016485,0.0004223,0,0,0.050096,-0.021521,0,0.001098,0,0,0,0.055024,-7.2863e-05,0.016485,0.43917,0.023812,0.048965,3.7872e-06,0.72,0.92,0
0.036886,-0.0094206,0.055092,-7.0654e-05,0.016506,0.0003933,0,0,0.050161,-0.02155,0,0.0010226,0,0,0,0.055094,-7.3458e-05,0.016506,0.40848,0.023842,0.049028,3.8018e-06,0.74,0.92,0
0.037889,-0.0094256,0.055158,-7.1298e-05,0.016526,0.00036371,0,0,0.050222,-0.021576,0,0.00094564,0,0,0,0.05516,-7.3693e-05,0.016526,0.37729,0.023871,0.049087,3.8155e-06,0.76,0.92,0
0.038894,-0.0094293,0.05522,-7.1636e-05,0.016545,0.00033371,0,0,0.050278,-0.021601,0,0.00086765,0,0,0,0.055222,-7.365e-05,0.016545,0.34579,0.023898,0.049141,3.8283e-06,0.78,0.92,0
0.0399,-0.009432,0.055277,-7.1737e-05,0.016561,0.00030345,0,0,0.05033,-0.021623,0,0.00078896,0,0,0,0.055279,-7.3401e-05,0.016561,0.31411,0.023922,0.049191,3.84e-06,0.8,0.92,0
0.040908,-0.0094338,0.055329,-7.1663e-05,0.016577,0.00027303,0,0,0.050377,-0.021643,0,0.00070987,0,0,0,0.05533,-7.3009e-05,0.016577,0.28236,0.023945,0.049237,3.8508e-06,0.82,0.92,0
0.041916,-0.0094349,0.055376,-7.1466e-05,0.016591,0.00024253,0,0,0.05042,-0.021662,0,0.00063059,0,0,0,0.055377,-7.2527e-05,0.016591,0.25062,0.023965,0.049278,3.8604e-06,0.84,0.92,0
0.042924,-0.0094356,0.055417,-7.1191e-05,0.016604,0.00021204,0,0,0.050457,-0.021677,0,0.00055129,0,0,0,0.055418,-7.2001e-05,0.016604,0.21894,0.023983,0.049314,3.869e-06,0.86,0.92,0
0.043934,-0.0094359,0.055453,-7.0878e-05,0.016615,0.00018157,0,0,0.05049,-0.021691,0,0.00047207,0,0,0,0.055454,-7.1472e-05,0.016615,0.18736,0.023999,0.049345,3.8765e-06,0.88,0.92,0
0.044944,-0.0094359,0.055484,-7.0559e-05,0.016624,0.00015116,0,0,0.050518,-0.021703,0,0.000393,0,0,0,0.055484,-7.0971e-05,0.016624,0.15589,0.024012,0.049372,3.8828e-06,0.9,0.92,0
0.045955,-0.0094359,0.055509,-7.0262e-05,0.016632,0.00012081,0,0,0.05054,-0.021712,0,0.00031411,0,0,0,0.055509,-7.0525e-05,0.016632,0.12454,0.024023,0.049394,3.888e-06,0.92,0.92,0
0.046966,-0.0094357,0.055528,-7.0009e-05,0.016637,9.0538e-05,0,0,0.050558,-0.02172,0,0.0002354,0,0,0,0.055529,-7.0157e-05,0.016637,0.093302,0.024032,0.049411,3.8921e-06,0.94,0.92,0
0.047977,-0.0094356,0.055542,-6.9817e-05,0.016642,6.0323e-05,0,0,0.050571,-0.021725,0,0.00015684,0,0,0,0.055542,-6.9882e-05,0.016642,0.062149,0.024038,0.049423,3.895e-06,0.96,0.92,0
0.048988,-0.0094355,0.055551,-6.9696e-05,0.016644,3.015e-05,0,0,0.050578,-0.021728,0,7.839e-05,0,0,0,0.055551,-6.9713e-05,0.016644,0.031058,0.024042,0.04943,3.8967e-06,0.98,0.92,0
0.05,-0.0094354,0.055553,-6.9655e-05,0.016645,7.1506e-07,0,0,0.050581,-0.021729,0,1.8592e-06,0,0,0,0.055553,-6.9655e-05,0.016645,0.00073657,0.024043,0.049433,3.8973e-06,1,0.92,0
0,0,0.0634,0.027172,0.027172,-0.017314,0,0,0.047098,0,0,-0.045016,0,0,0,0.070344,0.020228,0.027172,-21.853,0.039248,0.04703,4.9523e-06,0,0.94,0
0.00094195,-0.00090033,0.062496,0.019968,0.024739,-0.016426,0,0,0.049084,-0.0062022,0,-0.042708,0,0,0,0.068102,0.014363,0.024739,-18.843,0.035735,0.049375,5.2736e-06,0.02,0.94,0
0.0019633,-0.0018508,0.063265,0.013057,0.022897,-0.014853,0,0,0.052479,-0.012791,0,-0.038619,0,0,0,0.06733,0.0089924,0.022897,-15.306,0.033073,0.052778,5.8206e-06,0.04,0.94,0
0.0030411,-0.0027649,0.063337,0.0082351,0.021472,-0.012032,0,0,0.054425,-0.017207,0,-0.031284,0,0,0,0.06585,0.0057222,0.021472,-11.796,0.031014,0.054003,5.8297e-06,0.06,0.94,0
0.0041403,-0.0035944,0.062559,0.0055203,0.020424,-0.0092599,0,0,0.054776,-0.019375,0,-0.024076,0,0,0,0.064025,0.0040546,0.020424,-8.9939,0.029501,0.053691,5.5292e-06,0.08,0.94,0
0.0052321,-0.0043292,0.061137,0.003807,0.019483,-0.0069961,0,0,0.05415,-0.020379,0,-0.01819,0,0,0,0.061978,0.0029656,0.019483,-6.8579,0.028142,0.052731,5.1146e-06,0.1,0.94,0
0.0063063,-0.0049776,0.05964,0.0027094,0.018705,-0.0052724,0,0,0.053216,-0.020794,0,-0.013708,0,0,0,0.060124,0.0022253,0.018705,-5.2467,0.027018,0.05167,4.7312e-06,0.12,0.94,0
0.0073608,-0.0055501,0.05828,0.0019798,0.018078,-0.0039709,0,0,0.052263,-0.020928,0,-0.010324,0,0,0,0.058559,0.0017011,0.018078,-4.0146,0.026113,0.050694,4.4125e-06,0.14,0.94,0
0.0083968,-0.0060569,0.057123,0.0014799,0.017581,-0.0029831,0,0,0.051404,-0.020931,0,-0.007756,0,0,0,0.057282,0.0013204,0.017581,-3.06,0.025394,0.049861,4.159e-06,0.16,0.94,0
0.009417,-0.0065064,0.05617,0.0011271,0.017189,-0.0022249,0,0,0.050675,-0.02088,0,-0.0057846,0,0,0,0.05626,0.0010374,0.017189,-2.3109,0.024829,0.049178,3.961e-06,0.18,0.94,0
0.010424,-0.0069058,0.055401,0.00087151,0.016882,-0.001636,0,0,0.050076,-0.020813,0,-0.0042537,0,0,0,0.05545,0.00082247,0.016882,-1.7169,0.024385,0.04863,3.808e-06,0.2,0.94,0
0.01142,-0.0072612,0.054792,0.00068176,0.016642,-0.0011739,0,0,0.049594,-0.020748,0,-0.0030523,0,0,0,0.054817,0.0006563,0.016642,-1.2423,0.024039,0.048199,3.6908e-06,0.22,0.94,0
0.012408,-0.0075775,0.054315,0.0005379,0.016456,-0.00080821,0,0,0.049217,-0.020694,0,-0.0021014,0,0,0,0.054328,0.00052576,0.016456,-0.86083,0.02377,0.047868,3.6019e-06,0.24,0.94,0
0.013389,-0.0078592,0.05395,0.0004268,0.016313,-0.00051689,0,0,0.048928,-0.020652,0,-0.0013439,0,0,0,0.053956,0.00042181,0.016313,-0.55325,0.023564,0.04762,3.5357e-06,0.26,0.94,0
0.014365,-0.00811,0.053678,0.00033959,0.016205,-0.00028391,0,0,0.048715,-0.020626,0,-0.00073815,0,0,0,0.05368,0.00033808,0.016205,-0.30496,0.023408,0.047442,3.4876e-06,0.28,0.94,0
0.015337,-0.0083331,0.053483,0.00027018,0.016126,-9.7258e-05,0,0,0.048564,-0.020612,0,-0.00025287,0,0,0,0.053483,0.00027,0.016126,-0.10472,0.023293,0.047321,3.4541e-06,0.3,0.94,0
0.016307,-0.0085314,0.053351,0.00021426,0.01607,5.2142e-05,0,0,0.048466,-0.020612,0,0.00013557,0,0,0,0.053351,0.00021421,0.01607,0.056223,0.023212,0.047249,3.4324e-06,0.32,0.94,0
0.017276,-0.0087074,0.053272,0.00016877,0.016032,0.00017129,0,0,0.048412,-0.020622,0,0.00044537,0,0,0,0.053273,0.00016822,0.016032,0.18482,0.023158,0.047215,3.4204e-06,0.34,0.94,0
0.018244,-0.0088635,0.053236,0.00013144,0.01601,0.00026567,0,0,0.048393,-0.020642,0,0.00069074,0,0,0,0.053237,0.00013011,0.01601,0.28663,0.023126,0.047214,3.4163e-06,0.36,0.94,0
0.019212,-0.0090015,0.053235,0.0001006,0.016001,0.00033959,0,0,0.048405,-0.02067,0,0.00088294,0,0,0,0.053237,9.8431e-05,0.016001,0.36617,0.023112,0.04724,3.4184e-06,0.38,0.94,0
0.02018,-0.0091234,0.053263,7.4991e-05,0.016001,0.00039654,0,0,0.04844,-0.020704,0,0.001031,0,0,0,0.053266,7.2035e-05,0.016001,0.42714,0.023113,0.047286,3.4258e-06,0.4,0.94,0
0.021149,-0.0092307,0.053314,5.3639e-05,0.01601,0.00043934,0,0,0.048495,-0.020744,0,0.0011423,0,0,0,0.053318,5.0015e-05,0.01601,0.47258,0.023126,0.04735,3.4374e-06,0.42,0.94,0
0.02212,-0.009325,0.053384,3.5792e-05,0.016026,0.00047029,0,0,0.048565,-0.020787,0,0.0012228,0,0,0,0.053388,3.1646e-05,0.016026,0.50504,0.023148,0.047427,3.4522e-06,0.44,0.94,0
0.023092,-0.0094076,0.053468,2.0856e-05,0.016047,0.00049131,0,0,0.048648,-0.020834,0,0.0012774,0,0,0,0.053472,1.634e-05,0.016047,0.52663,0.023179,0.047514,3.4697e-06,0.46,0.94,0
0.024066,-0.0094797,0.053563,8.356e-06,0.016071,0.000504,0,0,0.048739,-0.020882,0,0.0013104,0,0,0,0.053568,3.6133e-06,0.016071,0.53914,0.023214,0.047609,3.4893e-06,0.48,0.94,0
0.025041,-0.0095424,0.053667,-2.0913e-06,0.016099,0.00050969,0,0,0.048838,-0.020932,0,0.0013252,0,0,0,0.053672,-6.9315e-06,0.016099,0.54407,0.023255,0.04771,3.5103e-06,0.5,0.94,0
0.026019,-0.0095967,0.053776,-1.08e-05,0.01613,0.00050953,0,0,0.04894,-0.020983,0,0.0013248,0,0,0,0.053781,-1.5627e-05,0.01613,0.5427,0.023298,0.047814,3.5324e-06,0.52,0.94,0
0.026999,-0.0096435,0.053889,-1.8032e-05,0.016161,0.00050446,0,0,0.049046,-0.021033,0,0.0013116,0,0,0,0.053894,-2.2752e-05,0.016161,0.5361,0.023344,0.04792,3.5552e-06,0.54,0.94,0
0.027981,-0.0096837,0.054004,-2.4003e-05,0.016194,0.0004953,0,0,0.049153,-0.021083,0,0.0012878,0,0,0,0.054008,-2.8544e-05,0.016194,0.52521,0.023391,0.048026,3.5783e-06,0.56,0.94,0
0.028965,-0.009718,0.054119,-2.8899e-05,0.016227,0.00048277,0,0,0.04926,-0.021133,0,0.0012552,0,0,0,0.054123,-3.3203e-05,0.016227,0.51078,0.023439,0.048132,3.6015e-06,0.58,0.94,0
0.029951,-0.0097471,0.054233,-3.2875e-05,0.01626,0.00046746,0,0,0.049365,-0.021181,0,0.0012154,0,0,0,0.054237,-3.6901e-05,0.01626,0.49351,0.023487,0.048237,3.6246e-06,0.6,0.94,0
0.03094,-0.0097716,0.054346,-3.6067e-05,0.016293,0.00044987,0,0,0.049469,-0.021228,0,0.0011697,0,0,0,0.05435,-3.9788e-05,0.016293,0.47394,0.023534,0.048339,3.6473e-06,0.62,0.94,0
0.03193,-0.0097922,0.054455,-3.8591e-05,0.016325,0.00043045,0,0,0.049569,-0.021273,0,0.0011192,0,0,0,0.054459,-4.1991e-05,0.016325,0.45255,0.023581,0.048438,3.6695e-06,0.64,0.94,0
0.032923,-0.0098092,0.054561,-4.0548e-05,0.016356,0.00040957,0,0,0.049667,-0.021316,0,0.0010649,0,0,0,0.054564,-4.3621e-05,0.016356,0.42975,0.023626,0.048533,3.691e-06,0.66,0.94,0
0.033917,-0.0098231,0.054663,-4.2028e-05,0.016386,0.00038755,0,0,0.04976,-0.021357,0,0.0010076,0,0,0,0.054666,-4.4774e-05,0.016386,0.40587,0.023669,0.048624,3.7117e-06,0.68,0.94,0
0.034913,-0.0098345,0.05476,-4.3108e-05,0.016415,0.00036464,0,0,0.049848,-0.021396,0,0.00094806,0,0,0,0.054762,-4.5535e-05,0.016415,0.3812,0.023711,0.04871,3.7315e-06,0.7,0.94,0
0.035911,-0.0098436,0.054852,-4.3857e-05,0.016442,0.00034108,0,0,0.049932,-0.021432,0,0.0008868,0,0,0,0.054854,-4.5976e-05,0.016442,0.35597,0.02375,0.048792,3.7502e-06,0.72,0.94,0
0.03691,-0.0098508,0.054938,-4.4334e-05,0.016468,0.00031705,0,0,0.050011,-0.021466,0,0.00082432,0,0,0,0.05494,-4.6162e-05,0.016468,0.33037,0.023787,0.048868,3.7679e-06,0.74,0.94,0
0.037911,-0.0098563,0.055018,-4.4592e-05,0.016492,0.0002927,0,0,0.050084,-0.021498,0,0.00076101,0,0,0,0.05502,-4.6148e-05,0.016492,0.30455,0.023822,0.04894,3.7844e-06,0.76,0.94,0
0.038914,-0.0098606,0.055093,-4.4679e-05,0.016515,0.00026815,0,0,0.050152,-0.021527,0,0.00069719,0,0,0,0.055094,-4.5983e-05,0.016515,0.27864,0.023854,0.049006,3.7997e-06,0.78,0.94,0
0.039917,-0.0098637,0.055161,-4.4635e-05,0.016535,0.00024351,0,0,0.050214,-0.021553,0,0.00063311,0,0,0,0.055162,-4.5709e-05,0.016535,0.25272,0.023884,0.049066,3.8138e-06,0.8,0.94,0
0.040922,-0.0098659,0.055223,-4.4497e-05,0.016554,0.00021883,0,0,0.050271,-0.021578,0,0.00056897,0,0,0,0.055224,-4.5364e-05,0.016554,0.22686,0.023911,0.049121,3.8267e-06,0.82,0.94,0
0.041928,-0.0098675,0.055279,-4.4296e-05,0.01657,0.0001942,0,0,0.050321,-0.021599,0,0.00050491,0,0,0,0.05528,-4.4977e-05,0.01657,0.20111,0.023935,0.04917,3.8382e-06,0.84,0.94,0
0.042935,-0.0098685,0.055328,-4.4058e-05,0.016585,0.00016962,0,0,0.050366,-0.021618,0,0.00044102,0,0,0,0.055329,-4.4577e-05,0.016585,0.17551,0.023956,0.049213,3.8484e-06,0.86,0.94,0
0.043943,-0.0098691,0.055371,-4.3807e-05,0.016598,0.00014514,0,0,0.050405,-0.021635,0,0.00037735,0,0,0,0.055371,-4.4187e-05,0.016598,0.15006,0.023975,0.04925,3.8572e-06,0.88,0.94,0
0.044951,-0.0098694,0.055407,-4.3563e-05,0.016609,0.00012075,0,0,0.050438,-0.021648,0,0.00031395,0,0,0,0.055407,-4.3826e-05,0.016609,0.12477,0.023991,0.049282,3.8647e-06,0.9,0.94,0
0.04596,-0.0098695,0.055437,-4.3342e-05,0.016618,9.6461e-05,0,0,0.050464,-0.02166,0,0.0002508,0,0,0,0.055437,-4.351e-05,0.016618,0.099617,0.024004,0.049308,3.8709e-06,0.92,0.94,0
0.04697,-0.0098695,0.05546,-4.3157e-05,0.016625,7.226e-05,0,0,0.050485,-0.021669,0,0.00018787,0,0,0,0.05546,-4.3251e-05,0.016625,0.074593,0.024014,0.049328,3.8757e-06,0.94,0.94,0
0.04798,-0.0098695,0.055476,-4.3018e-05,0.01663,4.8131e-05,0,0,0.0505,-0.021675,0,0.00012514,0,0,0,0.055476,-4.306e-05,0.01663,0.04967,0.024021,0.049343,3.8791e-06,0.96,0.94,0
0.04899,-0.0098695,0.055486,-4.2932e-05,0.016633,2.4052e-05,0,0,0.050509,-0.021679,0,6.2536e-05,0,0,0,0.055486,-4.2942e-05,0.016633,0.024817,0.024025,0.049352,3.8812e-06,0.98,0.94,0
0.05,-0.0098695,0.055489,-4.2902e-05,0.016634,2.705e-07,0,0,0.050512,-0.02168,0,7.0331e-07,0,0,0,0.055489,-4.2902e-05,0.016634,0.00027909,0.024027,0.049354,3.8819e-06,1,0.94,0
0,0,0.069617,0.029836,0.029836,-0.020127,0,0,0.051715,8.6736e-19,0,-0.052331,0,0,0,0.078023,0.021429,0.029836,-22.669,0.043096,0.052895,6.958e-06,0,0.96,0
0.0010343,-0.0010466,0.067018,0.017583,0.02538,-0.018082,0,0,0.054129,-0.010137,0,-0.047014,0,0,0,0.072926,0.011675,0.02538,-18.094,0.03666,0.055678,7.0869e-06,0.02,0.96,0
0.0021651,-0.0021471,0.067121,0.0084299,0.022665,-0.014207,0,0,0.057792,-0.018506,0,-0.036938,0,0,0,0.070379,0.0051718,0.022665,-12.916,0.032739,0.058458,7.2473e-06,0.04,0.96,0
0.003346,-0.0031486,0.066334,0.0052489,0.021475,-0.010147,0,0,0.058317,-0.021094,0,-0.026381,0,0,0,0.067975,0.0036076,0.021475,-9.1885,0.031019,0.057553,6.7039e-06,0.06,0.96,0
0.0044978,-0.0040095,0.063591,0.0032971,0.020067,-0.0070717,0,0,0.056582,-0.0218,0,-0.018387,0,0,0,0.064409,0.0024788,0.020067,-6.6007,0.028985,0.055277,5.8063e-06,0.08,0.96,0
0.0056093,-0.0047549,0.060979,0.0021798,0.018948,-0.0050242,0,0,0.054641,-0.021798,0,-0.013063,0,0,0,0.061405,0.0017536,0.018948,-4.8489,0.027369,0.053182,5.0906e-06,0.1,0.96,0
0.0066834,-0.0054048,0.058821,0.0014994,0.018096,-0.0036207,0,0,0.052943,-0.021576,0,-0.0094139,0,0,0,0.059049,0.0012716,0.018096,-3.6,0.026139,0.051471,4.5638e-06,0.12,0.96,0
0.007727,-0.0059754,0.057129,0.0010689,0.017459,-0.002635,0,0,0.05157,-0.021308,0,-0.006851,0,0,0,0.057252,0.00094533,0.017459,-2.6852,0.025219,0.050133,4.1835e-06,0.14,0.96,0
0.0087463,-0.0064791,0.055823,0.00078445,0.016982,-0.001921,0,0,0.050493,-0.021057,0,-0.0049947,0,0,0,0.05589,0.00071748,0.016982,-1.9966,0.02453,0.049104,3.908e-06,0.16,0.96,0
0.0097467,-0.0069255,0.054824,0.0005892,0.016624,-0.0013908,0,0,0.04966,-0.020845,0,-0.0036162,0,0,0,0.054859,0.00055356,0.016624,-1.4681,0.024012,0.048319,3.7071e-06,0.18,0.96,0
0.010733,-0.0073222,0.054066,0.00045063,0.016355,-0.00098887,0,0,0.049024,-0.020676,0,-0.0025711,0,0,0,0.054084,0.0004324,0.016355,-1.0563,0.023624,0.047726,3.5603e-06,0.2,0.96,0
0.011708,-0.0076753,0.053498,0.0003494,0.016154,-0.0006792,0,0,0.048547,-0.020546,0,-0.0017659,0,0,0,0.053506,0.00034072,0.016154,-0.73204,0.023334,0.047286,3.4536e-06,0.22,0.96,0
0.012675,-0.00799,0.05308,0.00027359,0.016006,-0.00043775,0,0,0.048196,-0.020452,0,-0.0011381,0,0,0,0.053084,0.00026996,0.016006,-0.47492,0.02312,0.046966,3.3771e-06,0.24,0.96,0
0.013636,-0.0082704,0.052782,0.00021559,0.015899,-0.00024787,0,0,0.047948,-0.020389,0,-0.00064446,0,0,0,0.052783,0.00021442,0.015899,-0.27016,0.022966,0.046744,3.3238e-06,0.26,0.96,0
0.014592,-0.0085204,0.052581,0.00017041,0.015825,-9.7779e-05,0,0,0.047782,-0.020351,0,-0.00025423,0,0,0,0.052581,0.00017022,0.015825,-0.10689,0.022859,0.046599,3.2886e-06,0.28,0.96,0
0.015547,-0.0087431,0.052456,0.00013466,0.015777,2.1103e-05,0,0,0.047683,-0.020335,0,5.4868e-05,0,0,0,0.052456,0.00013465,0.015777,0.023109,0.02279,0.046517,3.2677e-06,0.3,0.96,0
0.0165,-0.0089413,0.052394,0.00010601,0.01575,0.00011515,0,0,0.047638,-0.020337,0,0.00029939,0,0,0,0.052395,0.00010575,0.01575,0.12618,0.02275,0.046485,3.2581e-06,0.32,0.96,0
0.017452,-0.0091175,0.052383,8.2787e-05,0.01574,0.00018919,0,0,0.047636,-0.020354,0,0.00049189,0,0,0,0.052383,8.2103e-05,0.01574,0.20726,0.022735,0.046494,3.2576e-06,0.34,0.96,0
0.018405,-0.009274,0.052411,6.3802e-05,0.015742,0.00024695,0,0,0.047669,-0.020382,0,0.00064207,0,0,0,0.052413,6.2637e-05,0.015742,0.27028,0.022739,0.046535,3.2643e-06,0.36,0.96,0
0.019359,-0.0094126,0.052472,4.8166e-05,0.015756,0.00029135,0,0,0.047731,-0.02042,0,0.00075752,0,0,0,0.052474,4.6547e-05,0.015756,0.31842,0.022759,0.046602,3.2769e-06,0.38,0.96,0
0.020314,-0.0095353,0.052558,3.5217e-05,0.015778,0.00032473,0,0,0.047814,-0.020466,0,0.00084429,0,0,0,0.05256,3.3209e-05,0.015778,0.35422,0.022791,0.04669,3.294e-06,0.4,0.96,0
0.021272,-0.0096435,0.052664,2.445e-05,0.015807,0.00034895,0,0,0.047915,-0.020517,0,0.00090726,0,0,0,0.052667,2.2137e-05,0.015807,0.37979,0.022832,0.046794,3.3148e-06,0.42,0.96,0
0.022231,-0.0097387,0.052786,1.5474e-05,0.01584,0.00036554,0,0,0.048029,-0.020572,0,0.00095041,0,0,0,0.052788,1.2942e-05,0.01584,0.39687,0.022881,0.046909,3.3384e-06,0.44,0.96,0
0.023193,-0.0098223,0.052918,7.9827e-06,0.015878,0.00037577,0,0,0.048152,-0.020631,0,0.00097701,0,0,0,0.052921,5.3141e-06,0.015878,0.40689,0.022935,0.047033,3.3642e-06,0.46,0.96,0
0.024157,-0.0098955,0.053059,1.732e-06,0.015918,0.00038069,0,0,0.048283,-0.020691,0,0.00098979,0,0,0,0.053061,-9.993e-07,0.015918,0.41107,0.022993,0.047163,3.3915e-06,0.48,0.96,0
0.025124,-0.0099593,0.053205,-3.4753e-06,0.01596,0.00038116,0,0,0.048418,-0.020753,0,0.00099102,0,0,0,0.053207,-6.2056e-06,0.01596,0.41042,0.023054,0.047297,3.4199e-06,0.5,0.96,0
0.026094,-0.010015,0.053353,-7.8e-06,0.016004,0.00037794,0,0,0.048555,-0.020815,0,0.00098265,0,0,0,0.053356,-1.0477e-05,0.016004,0.40578,0.023116,0.047432,3.4489e-06,0.52,0.96,0
0.027066,-0.010063,0.053503,-1.1375e-05,0.016047,0.00037165,0,0,0.048692,-0.020876,0,0.00096629,0,0,0,0.053505,-1.3956e-05,0.016047,0.39789,0.02318,0.047568,3.4783e-06,0.54,0.96,0
0.028042,-0.010104,0.053652,-1.4313e-05,0.016091,0.00036282,0,0,0.048829,-0.020937,0,0.00094333,0,0,0,0.053654,-1.6765e-05,0.016091,0.38733,0.023243,0.047702,3.5076e-06,0.56,0.96,0
0.029019,-0.010139,0.053799,-1.6705e-05,0.016135,0.00035191,0,0,0.048963,-0.020997,0,0.00091496,0,0,0,0.053801,-1.9006e-05,0.016135,0.37465,0.023305,0.047835,3.5366e-06,0.58,0.96,0
0.03,-0.010169,0.053942,-1.8634e-05,0.016177,0.0003393,0,0,0.049095,-0.021054,0,0.00088218,0,0,0,0.053944,-2.0767e-05,0.016177,0.36025,0.023367,0.047963,3.565e-06,0.6,0.96,0
0.030983,-0.010195,0.054082,-2.0167e-05,0.016219,0.00032533,0,0,0.049222,-0.02111,0,0.00084585,0,0,0,0.054084,-2.2123e-05,0.016219,0.34451,0.023427,0.048088,3.5928e-06,0.62,0.96,0
0.031969,-0.010216,0.054216,-2.1363e-05,0.016258,0.00031027,0,0,0.049345,-0.021164,0,0.0008067,0,0,0,0.054218,-2.3138e-05,0.016258,0.32775,0.023484,0.048208,3.6197e-06,0.64,0.96,0
0.032957,-0.010234,0.054345,-2.2276e-05,0.016297,0.00029437,0,0,0.049463,-0.021215,0,0.00076535,0,0,0,0.054347,-2.3869e-05,0.016297,0.31021,0.02354,0.048323,3.6456e-06,0.66,0.96,0
0.033947,-0.010249,0.054468,-2.2949e-05,0.016334,0.00027782,0,0,0.049575,-0.021263,0,0.00072234,0,0,0,0.054469,-2.4365e-05,0.016334,0.29211,0.023593,0.048433,3.6704e-06,0.68,0.96,0
0.03494,-0.010261,0.054584,-2.3423e-05,0.016368,0.0002608,0,0,0.049681,-0.021309,0,0.00067809,0,0,0,0.054585,-2.4668e-05,0.016368,0.27364,0.023643,0.048536,3.6939e-06,0.7,0.96,0
0.035935,-0.010271,0.054693,-2.3732e-05,0.016401,0.00024345,0,0,0.04978,-0.021352,0,0.00063298,0,0,0,0.054695,-2.4815e-05,0.016401,0.25492,0.02369,0.048633,3.7161e-06,0.72,0.96,0
0.036931,-0.010279,0.054796,-2.3907e-05,0.016432,0.00022589,0,0,0.049873,-0.021392,0,0.00058731,0,0,0,0.054797,-2.4838e-05,0.016432,0.23608,0.023734,0.048724,3.737e-06,0.74,0.96,0
0.03793,-0.010285,0.054891,-2.3976e-05,0.01646,0.0002082,0,0,0.04996,-0.021429,0,0.00054132,0,0,0,0.054891,-2.4765e-05,0.01646,0.21722,0.023776,0.048808,3.7564e-06,0.76,0.96,0
0.03893,-0.01029,0.054978,-2.3962e-05,0.016486,0.00019046,0,0,0.05004,-0.021463,0,0.0004952,0,0,0,0.054979,-2.4621e-05,0.016486,0.1984,0.023814,0.048886,3.7744e-06,0.78,0.96,0
0.039931,-0.010294,0.055058,-2.3886e-05,0.01651,0.00017273,0,0,0.050112,-0.021494,0,0.0004491,0,0,0,0.055059,-2.4428e-05,0.01651,0.17967,0.023848,0.048957,3.7908e-06,0.8,0.96,0
0.040934,-0.010297,0.055131,-2.3767e-05,0.016532,0.00015505,0,0,0.050178,-0.021523,0,0.00040314,0,0,0,0.055131,-2.4203e-05,0.016532,0.16107,0.02388,0.049021,3.8057e-06,0.82,0.96,0
0.041938,-0.010299,0.055195,-2.362e-05,0.016552,0.00013746,0,0,0.050237,-0.021548,0,0.00035739,0,0,0,0.055196,-2.3962e-05,0.016552,0.14263,0.023908,0.049078,3.8191e-06,0.84,0.96,0
0.042944,-0.0103,0.055253,-2.3461e-05,0.016569,0.00011996,0,0,0.050289,-0.02157,0,0.00031189,0,0,0,0.055253,-2.3721e-05,0.016569,0.12434,0.023933,0.049129,3.831e-06,0.86,0.96,0
0.04395,-0.010301,0.055302,-2.3299e-05,0.016584,0.00010257,0,0,0.050334,-0.021589,0,0.00026667,0,0,0,0.055302,-2.3489e-05,0.016584,0.10622,0.023954,0.049172,3.8412e-06,0.88,0.96,0
0.044957,-0.010302,0.055344,-2.3146e-05,0.016596,8.5279e-05,0,0,0.050372,-0.021605,0,0.00022172,0,0,0,0.055344,-2.3277e-05,0.016596,0.088249,0.023972,0.049209,3.85e-06,0.9,0.96,0
0.045965,-0.010302,0.055378,-2.301e-05,0.016606,6.809e-05,0,0,0.050403,-0.021618,0,0.00017703,0,0,0,0.055378,-2.3094e-05,0.016606,0.070419,0.023987,0.04924,3.8571e-06,0.92,0.96,0
0.046973,-0.010302,0.055405,-2.2897e-05,0.016615,5.0987e-05,0,0,0.050427,-0.021629,0,0.00013257,0,0,0,0.055405,-2.2944e-05,0.016615,0.052706,0.023999,0.049263,3.8626e-06,0.94,0.96,0
0.047982,-0.010303,0.055424,-2.2813e-05,0.01662,3.3952e-05,0,0,0.050444,-0.021636,0,8.8275e-05,0,0,0,0.055424,-2.2834e-05,0.01662,0.035084,0.024007,0.04928,3.8666e-06,0.96,0.96,0
0.048991,-0.010303,0.055435,-2.2761e-05,0.016624,1.6964e-05,0,0,0.050455,-0.02164,0,4.4106e-05,0,0,0,0.055435,-2.2767e-05,0.016624,0.017526,0.024012,0.04929,3.8689e-06,0.98,0.96,0
0.05,-0.010303,0.055439,-2.2744e-05,0.016625,-2.5315e-07,0,0,0.050458,-0.021642,0,-6.5819e-07,0,0,0,0.055439,-2.2744e-05,0.016625,-0.00026152,0.024014,0.049293,3.8697e-06,1,0.96,0
0,0,0.081342,0.034861,0.034861,-0.025111,0,0,0.060426,1.7347e-18,0,-0.06529,0,0,0,0.092317,0.023886,0.034861,-23.608,0.050355,0.063658,1.1932e-05,0,0.98,0
0.0012085,-0.0013058,0.074193,0.007228,0.024426,-0.015646,0,0,0.064697,-0.022358,0,-0.04068,0,0,0,0.077669,0.0037527,0.024426,-12.523,0.035283,0.066052,1.006e-05,0.02,0.98,0
0.0025879,-0.002591,0.074926,0.0056162,0.024163,-0.010007,0,0,0.065992,-0.02411,0,-0.026018,0,0,0,0.076342,0.0042003,0.024163,-8.0535,0.034902,0.064519,9.4732e-06,0.04,0.98,0
0.0038482,-0.0036087,0.067834,0.00294,0.021232,-0.0058247,0,0,0.060582,-0.02378,0,-0.015144,0,0,0,0.068353,0.0024213,0.021232,-5.0885,0.030669,0.058827,6.9648e-06,0.06,0.98,0
0.0050112,-0.0044665,0.062725,0.001697,0.019327,-0.0037596,0,0,0.056418,-0.022918,0,-0.009775,0,0,0,0.062955,0.0014663,0.019327,-3.512,0.027916,0.054788,5.5196e-06,0.08,0.98,0
0.0061049,-0.0052011,0.059213,0.0010461,0.018078,-0.0025307,0,0,0.053476,-0.022141,0,-0.0065799,0,0,0,0.059323,0.00093624,0.018078,-2.4866,0.026112,0.051981,4.6579e-06,0.1,0.98,0
0.0071502,-0.0058406,0.056784,0.00068944,0.017242,-0.0017633,0,0,0.051404,-0.021518,0,-0.0045847,0,0,0,0.056839,0.00063406,0.017242,-1.7987,0.024905,0.050014,4.1182e-06,0.12,0.98,0
0.0081611,-0.0064024,0.055067,0.00047771,0.016664,-0.0012483,0,0,0.049925,-0.021042,0,-0.0032455,0,0,0,0.055096,0.00044918,0.016664,-1.3092,0.02407,0.048612,3.7632e-06,0.14,0.98,0
0.0091472,-0.0068992,0.053838,0.00034391,0.016255,-0.00088662,0,0,0.048859,-0.020684,0,-0.0023052,0,0,0,0.053853,0.00032922,0.016255,-0.94928,0.023479,0.047603,3.5221e-06,0.16,0.98,0
0.010115,-0.0073402,0.052955,0.00025479,0.015963,-0.00062342,0,0,0.04809,-0.020421,0,-0.0016209,0,0,0,0.052963,0.00024742,0.015963,-0.67766,0.023058,0.046877,3.3556e-06,0.18,0.98,0
0.011071,-0.0077329,0.052326,0.00019285,0.015756,-0.00042682,0,0,0.047541,-0.020232,0,-0.0011097,0,0,0,0.052329,0.00018936,0.015756,-0.46905,0.022758,0.04636,3.2403e-06,0.2,0.98,0
0.012017,-0.008083,0.051887,0.00014828,0.015611,-0.00027709,0,0,0.047159,-0.020101,0,-0.00072044,0,0,0,0.051888,0.00014679,0.015611,-0.30684,0.022549,0.046002,3.1618e-06,0.22,0.98,0
0.012957,-0.0083956,0.051594,0.00011526,0.015513,-0.00016147,0,0,0.046906,-0.020017,0,-0.00041983,0,0,0,0.051595,0.00011475,0.015513,-0.17971,0.022407,0.045767,3.1104e-06,0.24,0.98,0
0.013893,-0.0086748,0.051414,9.021e-05,0.015451,-7.1354e-05,0,0,0.046752,-0.01997,0,-0.00018552,0,0,0,0.051414,9.011e-05,0.015451,-0.079656,0.022319,0.045626,3.0795e-06,0.26,0.98,0
0.014827,-0.008924,0.051323,7.0818e-05,0.015418,-7.4264e-07,0,0,0.046676,-0.019952,0,-1.9309e-06,0,0,0,0.051323,7.0818e-05,0.015418,-0.00083022,0.022271,0.04556,3.0644e-06,0.28,0.98,0
0.01576,-0.0091465,0.051301,5.5552e-05,0.015407,5.4664e-05,0,0,0.046663,-0.019957,0,0.00014213,0,0,0,0.051301,5.5493e-05,0.015407,0.061118,0.022255,0.045553,3.0615e-06,0.3,0.98,0
0.016694,-0.0093449,0.051334,4.3363e-05,0.015413,9.8032e-05,0,0,0.046697,-0.019981,0,0.00025488,0,0,0,0.051335,4.3176e-05,0.015413,0.10951,0.022264,0.045593,3.0682e-06,0.32,0.98,0
0.017628,-0.0095216,0.051411,3.3518e-05,0.015433,0.00013174,0,0,0.046771,-0.02002,0,0.00034253,0,0,0,0.051411,3.318e-05,0.015433,0.14692,0.022292,0.045669,3.0826e-06,0.34,0.98,0
0.018565,-0.0096787,0.051521,2.5491e-05,0.015464,0.00015762,0,0,0.046874,-0.02007,0,0.00040981,0,0,0,0.051521,2.5008e-05,0.015464,0.17537,0.022337,0.045773,3.103e-06,0.36,0.98,0
0.019503,-0.0098183,0.051657,1.8896e-05,0.015503,0.00017709,0,0,0.047,-0.020129,0,0.00046042,0,0,0,0.051657,1.8289e-05,0.015503,0.19649,0.022393,0.0459,3.1281e-06,0.38,0.98,0
0.020445,-0.009942,0.051813,1.3448e-05,0.015548,0.00019128,0,0,0.047144,-0.020195,0,0.00049733,0,0,0,0.051813,1.2741e-05,0.015548,0.21157,0.022458,0.046043,3.1569e-06,0.4,0.98,0
0.021389,-0.010051,0.051983,8.9284e-06,0.015598,0.00020111,0,0,0.047301,-0.020265,0,0.00052288,0,0,0,0.051984,8.1502e-06,0.015598,0.22169,0.02253,0.046198,3.1885e-06,0.42,0.98,0
0.022337,-0.010148,0.052164,5.1703e-06,0.015651,0.00020731,0,0,0.047467,-0.020339,0,0.000539,0,0,0,0.052165,4.3463e-06,0.015651,0.22772,0.022607,0.046362,3.2222e-06,0.44,0.98,0
0.023288,-0.010233,0.052352,2.0424e-06,0.015706,0.0002105,0,0,0.047639,-0.020415,0,0.00054729,0,0,0,0.052353,1.196e-06,0.015706,0.23038,0.022687,0.046531,3.2573e-06,0.46,0.98,0
0.024242,-0.010307,0.052543,-5.5944e-07,0.015763,0.00021117,0,0,0.047815,-0.020492,0,0.00054905,0,0,0,0.052544,-1.4081e-06,0.015763,0.23026,0.022769,0.046703,3.2933e-06,0.48,0.98,0
0.0252,-0.010372,0.052736,-2.7191e-06,0.01582,0.00020976,0,0,0.047991,-0.02057,0,0.00054539,0,0,0,0.052737,-3.5534e-06,0.01582,0.22788,0.022851,0.046877,3.3298e-06,0.5,0.98,0
0.026162,-0.010429,0.052928,-4.5051e-06,0.015877,0.00020663,0,0,0.048166,-0.020646,0,0.00053723,0,0,0,0.052929,-5.3117e-06,0.015877,0.22365,0.022934,0.047049,3.3665e-06,0.52,0.98,0
0.027127,-0.010479,0.053118,-5.974e-06,0.015934,0.00020207,0,0,0.04834,-0.020721,0,0.00052537,0,0,0,0.053119,-6.7426e-06,0.015934,0.21793,0.023015,0.047218,3.4029e-06,0.54,0.98,0
0.028095,-0.010521,0.053304,-7.173e-06,0.015989,0.00019634,0,0,0.048509,-0.020795,0,0.00051047,0,0,0,0.053304,-7.8961e-06,0.015989,0.21101,0.023095,0.047384,3.4388e-06,0.56,0.98,0
0.029067,-0.010558,0.053484,-8.1421e-06,0.016043,0.00018965,0,0,0.048674,-0.020866,0,0.0004931,0,0,0,0.053485,-8.8146e-06,0.016043,0.20314,0.023173,0.047546,3.474e-06,0.58,0.98,0
0.030042,-0.010589,0.053659,-8.9154e-06,0.016095,0.00018221,0,0,0.048833,-0.020935,0,0.00047375,0,0,0,0.05366,-9.5341e-06,0.016095,0.19452,0.023248,0.047702,3.5082e-06,0.6,0.98,0
0.031021,-0.010616,0.053827,-9.5221e-06,0.016145,0.00017416,0,0,0.048987,-0.021001,0,0.00045282,0,0,0,0.053828,-1.0086e-05,0.016145,0.18535,0.023321,0.047851,3.5413e-06,0.62,0.98,0
0.032002,-0.010639,0.053988,-9.9875e-06,0.016193,0.00016564,0,0,0.049133,-0.021064,0,0.00043067,0,0,0,0.053989,-1.0496e-05,0.016193,0.17576,0.023391,0.047995,3.5731e-06,0.64,0.98,0
0.032986,-0.010658,0.054141,-1.0334e-05,0.016239,0.00015677,0,0,0.049272,-0.021124,0,0.0004076,0,0,0,0.054141,-1.0788e-05,0.016239,0.16587,0.023457,0.048131,3.6035e-06,0.66,0.98,0
0.033973,-0.010674,0.054286,-1.058e-05,0.016282,0.00014763,0,0,0.049404,-0.021181,0,0.00038385,0,0,0,0.054286,-1.0981e-05,0.016282,0.15579,0.023519,0.048259,3.6325e-06,0.68,0.98,0
0.034962,-0.010687,0.054422,-1.0743e-05,0.016323,0.00013832,0,0,0.049528,-0.021234,0,0.00035963,0,0,0,0.054422,-1.1095e-05,0.016323,0.14559,0.023578,0.04838,3.6599e-06,0.7,0.98,0
0.035954,-0.010698,0.054549,-1.0839e-05,0.016362,0.00012889,0,0,0.049644,-0.021284,0,0.00033512,0,0,0,0.05455,-1.1143e-05,0.016362,0.13535,0.023633,0.048494,3.6857e-06,0.72,0.98,0
0.036948,-0.010706,0.054668,-1.0879e-05,0.016397,0.0001194,0,0,0.049752,-0.02133,0,0.00031045,0,0,0,0.054668,-1.114e-05,0.016397,0.12512,0.023685,0.048599,3.7098e-06,0.74,0.98,0
0.037944,-0.010714,0.054778,-1.0877e-05,0.01643,0.0001099,0,0,0.049852,-0.021373,0,0.00028573,0,0,0,0.054778,-1.1097e-05,0.01643,0.11492,0.023732,0.048696,3.7321e-06,0.76,0.98,0
0.038942,-0.010719,0.054878,-1.0841e-05,0.01646,0.00010041,0,0,0.049944,-0.021413,0,0.00026106,0,0,0,0.054879,-1.1025e-05,0.01646,0.10481,0.023776,0.048786,3.7528e-06,0.78,0.98,0
0.039942,-0.010724,0.05497,-1.0782e-05,0.016488,9.0957e-05,0,0,0.050027,-0.021448,0,0.00023649,0,0,0,0.05497,-1.0932e-05,0.016488,0.094786,0.023816,0.048868,3.7716e-06,0.8,0.98,0
0.040943,-0.010727,0.055053,-1.0706e-05,0.016513,8.1567e-05,0,0,0.050103,-0.02148,0,0.00021207,0,0,0,0.055053,-1.0827e-05,0.016513,0.084873,0.023852,0.048941,3.7887e-06,0.82,0.98,0
0.041946,-0.010729,0.055127,-1.0621e-05,0.016535,7.2246e-05,0,0,0.05017,-0.021509,0,0.00018784,0,0,0,0.055127,-1.0716e-05,0.016535,0.075074,0.023884,0.049007,3.8039e-06,0.84,0.98,0
0.04295,-0.010731,0.055192,-1.0533e-05,0.016554,6.3e-05,0,0,0.050229,-0.021535,0,0.0001638,0,0,0,0.055192,-1.0605e-05,0.016554,0.065389,0.023912,0.049064,3.8174e-06,0.86,0.98,0
0.043955,-0.010733,0.055248,-1.0447e-05,0.016571,5.3831e-05,0,0,0.05028,-0.021556,0,0.00013996,0,0,0,0.055248,-1.05e-05,0.016571,0.055815,0.023936,0.049114,3.8291e-06,0.88,0.98,0
0.044961,-0.010734,0.055296,-1.0367e-05,0.016586,4.4733e-05,0,0,0.050323,-0.021575,0,0.00011631,0,0,0,0.055296,-1.0403e-05,0.016586,0.046342,0.023957,0.049156,3.8389e-06,0.9,0.98,0
0.045968,-0.010734,0.055335,-1.0297e-05,0.016597,3.5701e-05,0,0,0.050359,-0.02159,0,9.2822e-05,0,0,0,0.055335,-1.032e-05,0.016597,0.036959,0.023974,0.049191,3.847e-06,0.92,0.98,0
0.046975,-0.010735,0.055365,-1.024e-05,0.016606,2.6724e-05,0,0,0.050386,-0.021601,0,6.9483e-05,0,0,0,0.055365,-1.0253e-05,0.016606,0.027651,0.023987,0.049217,3.8533e-06,0.94,0.98,0
0.047983,-0.010735,0.055386,-1.0197e-05,0.016613,1.7791e-05,0,0,0.050405,-0.02161,0,4.6257e-05,0,0,0,0.055386,-1.0203e-05,0.016613,0.018401,0.023996,0.049236,3.8578e-06,0.96,0.98,0
0.048992,-0.010735,0.055399,-1.0171e-05,0.016617,8.8879e-06,0,0,0.050417,-0.021615,0,2.3109e-05,0,0,0,0.055399,-1.0173e-05,0.016617,0.0091906,0.024002,0.049248,3.8605e-06,0.98,0.98,0
0.05,-0.010735,0.055403,-1.0162e-05,0.016618,-8.5531e-07,0,0,0.050421,-0.021617,0,-2.2238e-06,0,0,0,0.055403,-1.0162e-05,0.016618,-0.00088437,0.024004,0.049252,3.8613e-06,1,0.98,0
0,0,0.13449,0.057638,0.057638,-0.037325,0,0,0.099906,-6.9389e-18,0,-0.097046,0,0,0,0.14963,0.042494,0.057638,-22.084,0.083255,0.10043,4.8057e-05,0,1,0
0.0019981,-0.0019409,0.09702,0.0066825,0.031111,-0.014734,0,0,0.085682,-0.031757,0,-0.038309,0,0,0,0.099362,0.0043401,0.031111,-9.0332,0.044938,0.084865,2.1183e-05,0.02,1,0
0.0034273,-0.0031115,0.073076,0.0027165,0.022738,-0.0046165,0,0,0.065439,-0.026027,0,-0.012003,0,0,0,0.073377,0.0024149,0.022738,-3.738,0.032843,0.063297,8.6421e-06,0.04,1,0
0.0046157,-0.0040999,0.062293,-0.00029111,0.0186,-0.0026893,0,0,0.0568,-0.024559,0,-0.0069921,0,0,0,0.062408,-0.00040646,0.0186,-2.456,0.026867,0.055795,5.5562e-06,0.06,1,0
0.0056993,-0.0049262,0.057563,-0.00059161,0.017091,-0.0015819,0,0,0.052613,-0.022988,0,-0.0041129,0,0,0,0.057606,-0.00063461,0.017091,-1.557,0.024688,0.051709,4.3903e-06,0.08,1,0
0.0067202,-0.0056406,0.054701,-0.00070325,0.016199,-0.0010448,0,0,0.050052,-0.021973,0,-0.0027165,0,0,0,0.054721,-0.00072295,0.016199,-1.08,0.023399,0.049215,3.7717e-06,0.1,1,0
0.0077014,-0.0062655,0.052881,-0.00068302,0.015659,-0.00071272,0,0,0.048388,-0.021245,0,-0.0018531,0,0,0,0.05289,-0.00069251,0.015659,-0.7622,0.022619,0.047564,3.4053e-06,0.12,1,0
0.0086557,-0.006817,0.051662,-0.00064035,0.015306,-0.0004968,0,0,0.047262,-0.020731,0,-0.0012917,0,0,0,0.051666,-0.00064507,0.015306,-0.54417,0.022109,0.046438,3.1723e-06,0.14,1,0
0.0095918,-0.0073065,0.050841,-0.00059008,0.015075,-0.0003467,0,0,0.046495,-0.020365,0,-0.00090141,0,0,0,0.050843,-0.00059242,0.015075,-0.38621,0.021775,0.045664,3.0205e-06,0.16,1,0
0.010516,-0.0077424,0.050297,-0.0005406,0.014927,-0.00023839,0,0,0.045981,-0.020108,0,-0.00061983,0,0,0,0.050299,-0.00054172,0.014927,-0.26867,0.021561,0.045139,2.9218e-06,0.18,1,0
0.011431,-0.0081315,0.049955,-0.0004941,0.014838,-0.00015795,0,0,0.045652,-0.019932,0,-0.00041068,0,0,0,0.049955,-0.00049459,0.014838,-0.17939,0.021433,0.044797,2.8598e-06,0.2,1,0
0.012342,-0.0084794,0.049762,-0.00045129,0.014793,-9.6987e-05,0,0,0.04546,-0.019818,0,-0.00025217,0,0,0,0.049762,-0.00045147,0.014793,-0.11067,0.021368,0.044591,2.8243e-06,0.22,1,0
0.01325,-0.0087906,0.049683,-0.00041216,0.014781,-5.0118e-05,0,0,0.045372,-0.019751,0,-0.00013031,0,0,0,0.049683,-0.00041221,0.014781,-0.057322,0.021351,0.044489,2.8086e-06,0.24,1,0
0.014157,-0.0090692,0.04969,-0.0003765,0.014794,-1.3755e-05,0,0,0.045365,-0.019722,0,-3.5763e-05,0,0,0,0.04969,-0.0003765,0.014794,-0.015741,0.021369,0.044467,2.8077e-06,0.26,1,0
0.015064,-0.0093185,0.049765,-0.00034398,0.014826,1.4593e-05,0,0,0.04542,-0.019721,0,3.7941e-05,0,0,0,0.049765,-0.00034398,0.014826,0.016686,0.021416,0.044507,2.8184e-06,0.28,1,0
0.015973,-0.0095414,0.049891,-0.0003143,0.014873,3.6702e-05,0,0,0.045524,-0.019744,0,9.5426e-05,0,0,0,0.049891,-0.00031432,0.014873,0.041886,0.021483,0.044596,2.8381e-06,0.3,1,0
0.016885,-0.0097405,0.050057,-0.00028716,0.014931,5.3879e-05,0,0,0.045664,-0.019783,0,0.00014008,0,0,0,0.050057,-0.00028722,0.014931,0.061319,0.021567,0.044721,2.8648e-06,0.32,1,0
0.0178,-0.0099183,0.050253,-0.00026231,0.014997,6.7102e-05,0,0,0.045832,-0.019837,0,0.00017447,0,0,0,0.050253,-0.0002624,0.014997,0.076109,0.021663,0.044875,2.897e-06,0.34,1,0
0.018718,-0.010077,0.050471,-0.00023952,0.015069,7.7121e-05,0,0,0.046022,-0.019902,0,0.00020051,0,0,0,0.050471,-0.00023964,0.015069,0.087136,0.021767,0.045051,2.9334e-06,0.36,1,0
0.019641,-0.010218,0.050705,-0.00021859,0.015146,8.4523e-05,0,0,0.046227,-0.019974,0,0.00021976,0,0,0,0.050706,-0.00021873,0.015146,0.095099,0.021878,0.045243,2.9731e-06,0.38,1,0
0.020567,-0.010343,0.050951,-0.00019935,0.015225,8.9771e-05,0,0,0.046443,-0.020052,0,0.00023341,0,0,0,0.050951,-0.00019951,0.015225,0.10056,0.021992,0.045445,3.0152e-06,0.4,1,0
0.021499,-0.010454,0.051203,-0.00018165,0.015306,9.324e-05,0,0,0.046665,-0.020134,0,0.00024242,0,0,0,0.051203,-0.00018182,0.015306,0.10397,0.022109,0.045655,3.059e-06,0.42,1,0
0.022434,-0.010552,0.051458,-0.00016535,0.015388,9.5232e-05,0,0,0.046891,-0.020219,0,0.0002476,0,0,0,0.051458,-0.00016552,0.015388,0.1057,0.022227,0.045869,3.1039e-06,0.44,1,0
0.023374,-0.010639,0.051714,-0.00015034,0.015469,9.6e-05,0,0,0.047118,-0.020305,0,0.0002496,0,0,0,0.051714,-0.00015052,0.015469,0.10605,0.022344,0.046085,3.1494e-06,0.46,1,0
0.024319,-0.010715,0.051968,-0.00013652,0.015549,9.5751e-05,0,0,0.047344,-0.020392,0,0.00024895,0,0,0,0.051968,-0.00013669,0.015549,0.10529,0.02246,0.046299,3.195e-06,0.48,1,0
0.025268,-0.010782,0.052218,-0.00012379,0.015628,9.4659e-05,0,0,0.047566,-0.020477,0,0.00024611,0,0,0,0.052218,-0.00012396,0.015628,0.10362,0.022574,0.046511,3.2404e-06,0.5,1,0
0.026221,-0.01084,0.052462,-0.00011207,0.015705,9.2872e-05,0,0,0.047784,-0.020562,0,0.00024147,0,0,0,0.052462,-0.00011223,0.015705,0.10121,0.022685,0.046719,3.2853e-06,0.52,1,0
0.027179,-0.010892,0.052699,-0.00010128,0.015779,9.0514e-05,0,0,0.047996,-0.020645,0,0.00023534,0,0,0,0.052699,-0.00010144,0.015779,0.09822,0.022793,0.046921,3.3294e-06,0.54,1,0
0.028141,-0.010936,0.052929,-9.1369e-05,0.015851,8.7692e-05,0,0,0.048201,-0.020725,0,0.000228,0,0,0,0.052929,-9.1514e-05,0.015851,0.094763,0.022896,0.047117,3.3723e-06,0.56,1,0
0.029107,-0.010974,0.05315,-8.2263e-05,0.01592,8.4494e-05,0,0,0.048398,-0.020803,0,0.00021968,0,0,0,0.05315,-8.2398e-05,0.01592,0.090944,0.022996,0.047306,3.414e-06,0.58,1,0
0.030077,-0.011007,0.053361,-7.3909e-05,0.015986,8.0998e-05,0,0,0.048587,-0.020878,0,0.00021059,0,0,0,0.053361,-7.4032e-05,0.015986,0.08685,0.023091,0.047487,3.4543e-06,0.6,1,0
0.031051,-0.011035,0.053562,-6.6253e-05,0.016049,7.7269e-05,0,0,0.048767,-0.020949,0,0.0002009,0,0,0,0.053562,-6.6365e-05,0.016049,0.082552,0.023182,0.04766,3.493e-06,0.62,1,0
0.032028,-0.011059,0.053753,-5.925e-05,0.016108,7.3362e-05,0,0,0.048939,-0.021018,0,0.00019074,0,0,0,0.053753,-5.935e-05,0.016108,0.07811,0.023267,0.047824,3.53e-06,0.64,1,0
0.033008,-0.011079,0.053934,-5.2854e-05,0.016164,6.9324e-05,0,0,0.0491,-0.021082,0,0.00018024,0,0,0,0.053934,-5.2943e-05,0.016164,0.073573,0.023348,0.04798,3.5652e-06,0.66,1,0
0.033992,-0.011097,0.054103,-4.7026e-05,0.016217,6.5194e-05,0,0,0.049252,-0.021143,0,0.0001695,0,0,0,0.054103,-4.7105e-05,0.016217,0.06898,0.023424,0.048126,3.5985e-06,0.68,1,0
0.034978,-0.011111,0.054262,-4.1728e-05,0.016266,6.1004e-05,0,0,0.049395,-0.0212,0,0.00015861,0,0,0,0.054262,-4.1797e-05,0.016266,0.064365,0.023495,0.048263,3.6299e-06,0.7,1,0
0.035968,-0.011123,0.05441,-3.6925e-05,0.016312,5.6782e-05,0,0,0.049528,-0.021254,0,0.00014763,0,0,0,0.05441,-3.6985e-05,0.016312,0.059753,0.023562,0.04839,3.6593e-06,0.72,1,0
0.036959,-0.011133,0.054547,-3.2587e-05,0.016354,5.2549e-05,0,0,0.049651,-0.021303,0,0.00013663,0,0,0,0.054547,-3.2637e-05,0.016354,0.055163,0.023623,0.048509,3.6867e-06,0.74,1,0
0.037954,-0.01114,0.054673,-2.8682e-05,0.016393,4.8321e-05,0,0,0.049764,-0.021349,0,0.00012563,0,0,0,0.054673,-2.8725e-05,0.016393,0.050612,0.023679,0.048618,3.7121e-06,0.76,1,0
0.03895,-0.011147,0.054789,-2.5186e-05,0.016429,4.4112e-05,0,0,0.049868,-0.02139,0,0.00011469,0,0,0,0.054789,-2.5221e-05,0.016429,0.046109,0.023731,0.048717,3.7354e-06,0.78,1,0
0.039948,-0.011152,0.054894,-2.2073e-05,0.016462,3.9932e-05,0,0,0.049962,-0.021429,0,0.00010382,0,0,0,0.054894,-2.2102e-05,0.016462,0.041662,0.023778,0.048808,3.7567e-06,0.8,1,0
0.040948,-0.011156,0.054988,-1.9322e-05,0.016491,3.5786e-05,0,0,0.050047,-0.021463,0,9.3044e-05,0,0,0,0.054988,-1.9345e-05,0.016491,0.037275,0.02382,0.04889,3.7759e-06,0.82,1,0
0.04195,-0.011159,0.055072,-1.6912e-05,0.016516,3.1679e-05,0,0,0.050122,-0.021493,0,8.2365e-05,0,0,0,0.055072,-1.693e-05,0.016516,0.032948,0.023857,0.048963,3.793e-06,0.84,1,0
0.042953,-0.011162,0.055146,-1.4827e-05,0.016539,2.7611e-05,0,0,0.050188,-0.02152,0,7.1789e-05,0,0,0,0.055146,-1.4841e-05,0.016539,0.02868,0.02389,0.049026,3.8081e-06,0.86,1,0
0.043958,-0.011163,0.055209,-1.3051e-05,0.016559,2.3582e-05,0,0,0.050246,-0.021544,0,6.1313e-05,0,0,0,0.055209,-1.3061e-05,0.016559,0.024467,0.023918,0.049082,3.8212e-06,0.88,1,0
0.044963,-0.011165,0.055263,-1.157e-05,0.016575,1.959e-05,0,0,0.050294,-0.021563,0,5.0933e-05,0,0,0,0.055263,-1.1577e-05,0.016575,0.020306,0.023942,0.049128,3.8322e-06,0.9,1,0
0.04597,-0.011166,0.055307,-1.0374e-05,0.016589,1.563e-05,0,0,0.050333,-0.021579,0,4.0637e-05,0,0,0,0.055307,-1.0378e-05,0.016589,0.016189,0.023962,0.049166,3.8412e-06,0.92,1,0
0.046976,-0.011166,0.055341,-9.4528e-06,0.016599,1.1697e-05,0,0,0.050364,-0.021591,0,3.0413e-05,0,0,0,0.055341,-9.4553e-06,0.016599,0.012108,0.023977,0.049195,3.8482e-06,0.94,1,0
0.047984,-0.011167,0.055365,-8.8e-06,0.016607,7.7859e-06,0,0,0.050385,-0.0216,0,2.0243e-05,0,0,0,0.055365,-8.8011e-06,0.016607,0.0080561,0.023987,0.049216,3.8532e-06,0.96,1,0
0.048992,-0.011167,0.055379,-8.4103e-06,0.016611,3.8892e-06,0,0,0.050398,-0.021605,0,1.0112e-05,0,0,0,0.055379,-8.4106e-06,0.016611,0.0040232,0.023994,0.049229,3.8562e-06,0.98,1,0
0.05,-0.011167,0.055384,-8.2808e-06,0.016613,-1.5331e-06,0,0,0.050403,-0.021607,0,-3.9861e-06,0,0,0,0.055384,-8.2808e-06,0.016613,-0.0015858,0.023996,0.049233,3.8572e-06,1,1,0
