"Displacements:0","Displacements:1","Stress/Strain:0","Stress/Strain:1","Stress/Strain:2","Stress/Strain:3","Stress/Strain:4","Stress/Strain:5","Stress/Strain:6","Stress/Strain:7","Stress/Strain:8","Stress/Strain:9","Stress/Strain:10","Stress/Strain:11","Stress/Strain:12","Principal Stress:0","Principal Stress:1","Principal Stress:2","Principal Stress:3","Principal Stress:4","Principal Stress:5","Principal Stress:6","nodes:0","nodes:1","nodes:2"
0,0,0.015965,0.0068423,0.0068423,0.0045485,0,0,0.1186,1.3878e-17,0,0.11826,0,0,0,0.017846,0.004962,0.0068423,22.459,0.0098833,0.012054,8.2621e-08,0,0,0
0.002372,0.0023652,0.011428,0.00084108,0.0036808,0.0018146,0,0,0.10072,-0.036917,0,0.047181,0,0,0,0.011731,0.00053869,0.0036808,9.4608,0.0053167,0.0099984,3.4762e-08,0.02,0,0
0.0040287,0.0038443,0.0083728,0.00034307,0.0026147,0.00061066,0,0,0.074854,-0.029532,0,0.015877,0,0,0,0.0084189,0.0002969,0.0026147,4.3242,0.0037769,0.0072467,1.3016e-08,0.04,0,0
0.0053662,0.0051085,0.006917,-3.5888e-05,0.0020643,0.00037432,0,0,0.063085,-0.027303,0,0.0097324,0,0,0,0.0069371,-5.5982e-05,0.0020643,3.0728,0.0029818,0.0062106,7.6435e-09,0.06,0,0
0.0065521,0.0061703,0.006212,-8.4798e-05,0.0018382,0.00023667,0,0,0.05686,-0.024998,0,0.0061534,0,0,0,0.0062209,-9.368e-05,0.0018382,2.1495,0.0026551,0.0056042,5.5521e-09,0.08,0,0
0.0076406,0.0070829,0.0057482,-0.00010689,0.0016924,0.00016875,0,0,0.052726,-0.023391,0,0.0043876,0,0,0,0.0057531,-0.00011175,0.0016924,1.6495,0.0024446,0.0052029,4.4109e-09,0.1,0,0
0.0086611,0.0078693,0.0054198,-0.00011086,0.0015927,0.00012666,0,0,0.049753,-0.022146,0,0.0032933,0,0,0,0.0054227,-0.00011376,0.0015927,1.3113,0.0023006,0.0049109,3.6997e-09,0.12,0,0
0.0096307,0.0085456,0.0051696,-0.0001108,0.0015176,9.933e-05,0,0,0.047476,-0.02117,0,0.0025826,0,0,0,0.0051715,-0.00011267,0.0015176,1.0773,0.0021922,0.0046867,3.2115e-09,0.14,0,0
0.01056,0.0091226,0.004971,-0.00010905,0.0014586,8.0287e-05,0,0,0.045661,-0.020379,0,0.0020875,0,0,0,0.0049722,-0.00011032,0.0014586,0.90523,0.0021068,0.0045077,2.8555e-09,0.16,0,0
0.011457,0.0096079,0.0048084,-0.00010687,0.0014104,6.6237e-05,0,0,0.044173,-0.019725,0,0.0017221,0,0,0,0.0048092,-0.00010776,0.0014104,0.77192,0.0020373,0.0043608,2.5844e-09,0.18,0,0
0.012327,0.010007,0.004673,-0.00010459,0.0013705,5.5097e-05,0,0,0.042933,-0.019177,0,0.0014325,0,0,0,0.0046737,-0.00010523,0.0013705,0.66064,0.0019797,0.0042383,2.3722e-09,0.2,0,0
0.013174,0.010323,0.0045605,-0.00010227,0.0013375,4.5467e-05,0,0,0.041899,-0.018717,0,0.0011821,0,0,0,0.0045609,-0.00010271,0.0013375,0.55862,0.0019319,0.0041361,2.2046e-09,0.22,0,0
0.014003,0.010559,0.0044691,-9.9749e-05,0.0013108,3.632e-05,0,0,0.041057,-0.018337,0,0.00094431,0,0,0,0.0044694,-0.00010004,0.0013108,0.45543,0.0018934,0.0040526,2.0742e-09,0.24,0,0
0.014817,0.010715,0.0043993,-9.6763e-05,0.0012908,2.6881e-05,0,0,0.040412,-0.018038,0,0.0006989,0,0,0,0.0043995,-9.6924e-05,0.0012908,0.34254,0.0018644,0.003988,1.9778e-09,0.26,0,0
0.015619,0.010795,0.0043536,-9.298e-05,0.0012782,1.6574e-05,0,0,0.039981,-0.017825,0,0.00043091,0,0,0,0.0043537,-9.3041e-05,0.0012782,0.21355,0.0018463,0.0039442,1.9154e-09,0.28,0,0
0.016416,0.010799,0.0043355,-8.8023e-05,0.0012742,5.0153e-06,0,0,0.039796,-0.017709,0,0.0001304,0,0,0,0.0043355,-8.8028e-05,0.0012742,0.064961,0.0018406,0.0039239,1.8894e-09,0.3,0,0
0.017211,0.010728,0.0043491,-8.1504e-05,0.0012803,-7.9633e-06,0,0,0.039895,-0.017703,0,-0.00020705,0,0,0,0.0043492,-8.1519e-05,0.0012803,-0.10298,0.0018493,0.0039308,1.9043e-09,0.32,0,0
0.018012,0.010586,0.004399,-7.3056e-05,0.0012978,-2.2287e-05,0,0,0.040315,-0.017821,0,-0.00057945,0,0,0,0.0043991,-7.3167e-05,0.0012978,-0.28553,0.0018746,0.0039685,1.9664e-09,0.34,0,0
0.018824,0.010377,0.0044888,-6.2374e-05,0.0013279,-3.7603e-05,0,0,0.041091,-0.018074,0,-0.00097768,0,0,0,0.0044891,-6.2685e-05,0.0013279,-0.47335,0.0019181,0.0040402,2.084e-09,0.36,0,0
0.019655,0.010107,0.004621,-4.9282e-05,0.0013715,-5.3257e-05,0,0,0.042244,-0.018471,0,-0.0013847,0,0,0,0.0046217,-4.9889e-05,0.0013715,-0.65325,0.0019811,0.0041477,2.2667e-09,0.38,0,0
0.020514,0.0097855,0.0047959,-3.3812e-05,0.0014286,-6.8279e-05,0,0,0.043774,-0.019012,0,-0.0017752,0,0,0,0.0047968,-3.4777e-05,0.0014286,-0.80979,0.0020635,0.0042913,2.5249e-09,0.4,0,0
0.021406,0.0094245,0.0050101,-1.6276e-05,0.0014981,-8.1396e-05,0,0,0.045656,-0.019688,0,-0.0021163,0,0,0,0.0050114,-1.7594e-05,0.0014981,-0.92751,0.002164,0.0044683,2.8679e-09,0.42,0,0
0.02234,0.0090389,0.0052567,2.7202e-06,0.0015778,-9.1132e-05,0,0,0.047825,-0.020476,0,-0.0023694,0,0,0,0.0052583,1.14e-06,0.0015778,-0.99342,0.0022791,0.0046727,3.2997e-09,0.44,0,0
0.023319,0.0086465,0.0055241,2.2386e-05,0.001664,-9.6024e-05,0,0,0.050182,-0.02134,0,-0.0024966,0,0,0,0.0055258,2.071e-05,0.001664,-0.9996,0.0024035,0.0048949,3.8149e-09,0.46,0,0
0.024347,0.0082671,0.0057972,4.1916e-05,0.0017518,-9.4997e-05,0,0,0.052591,-0.022228,0,-0.0024699,0,0,0,0.0057988,4.0349e-05,0.0017518,-0.94538,0.0025303,0.0051219,4.3933e-09,0.48,0,0
0.025423,0.0079214,0.0060587,6.061e-05,0.0018358,-8.7741e-05,0,0,0.054898,-0.023078,0,-0.0022813,0,0,0,0.00606,5.9327e-05,0.0018358,-0.83789,0.0026517,0.0053389,4.9985e-09,0.5,0,0
0.026543,0.0076294,0.0062917,7.7787e-05,0.0019108,-7.491e-05,0,0,0.056951,-0.02383,0,-0.0019476,0,0,0,0.0062926,7.6884e-05,0.0019108,-0.69058,0.0027601,0.0055317,5.5814e-09,0.52,0,0
0.027701,0.0074086,0.0064821,9.2578e-05,0.0019724,-5.7902e-05,0,0,0.058626,-0.024438,0,-0.0015054,0,0,0,0.0064827,9.2054e-05,0.0019724,-0.51915,0.002849,0.0056885,6.089e-09,0.54,0,0
0.028888,0.007273,0.0066201,0.00010386,0.0020172,-3.8328e-05,0,0,0.059838,-0.024873,0,-0.00099653,0,0,0,0.0066203,0.00010364,0.0020172,-0.33699,0.0029137,0.0058016,6.4746e-09,0.56,0,0
0.030095,0.0072326,0.0066997,0.00011048,0.0020431,-1.7463e-05,0,0,0.060537,-0.025124,0,-0.00045405,0,0,0,0.0066998,0.00011043,0.0020431,-0.15185,0.0029511,0.0058668,6.7044e-09,0.58,0,0
0.03131,0.0072926,0.0067184,0.00011168,0.002049,3.923e-06,0,0,0.060702,-0.025185,0,0.000102,0,0,0,0.0067184,0.00011168,0.002049,0.034021,0.0029597,0.0058824,6.7594e-09,0.6,0,0
0.032523,0.0074541,0.0066754,0.00010744,0.0020349,2.5306e-05,0,0,0.060327,-0.025056,0,0.00065796,0,0,0,0.0066755,0.00010734,0.0020349,0.22075,0.0029392,0.0058477,6.6348e-09,0.62,0,0
0.033723,0.0077141,0.0065722,9.8447e-05,0.0020012,4.592e-05,0,0,0.059423,-0.024736,0,0.0011939,0,0,0,0.0065725,9.8121e-05,0.0020012,0.40639,0.0028906,0.0057635,6.3405e-09,0.64,0,0
0.0349,0.0080648,0.0064131,8.5819e-05,0.0019497,6.4484e-05,0,0,0.058025,-0.02423,0,0.0016766,0,0,0,0.0064138,8.5162e-05,0.0019497,0.58385,0.0028162,0.0056328,5.9031e-09,0.66,0,0
0.036044,0.0084942,0.0062069,7.0653e-05,0.0018833,7.9362e-05,0,0,0.056207,-0.023564,0,0.0020634,0,0,0,0.0062079,6.9627e-05,0.0018833,0.74086,0.0027203,0.0054622,5.365e-09,0.68,0,0
0.037148,0.0089867,0.0059664,5.38e-05,0.0018061,8.9098e-05,0,0,0.054085,-0.02278,0,0.0023166,0,0,0,0.0059678,5.2457e-05,0.0018061,0.86314,0.0026088,0.0052624,4.779e-09,0.7,0,0
0.038207,0.0095241,0.0057076,3.5931e-05,0.0017231,9.2959e-05,0,0,0.051799,-0.021933,0,0.0024169,0,0,0,0.0057091,3.4408e-05,0.0017231,0.93875,0.0024888,0.0050469,4.1968e-09,0.72,0,0
0.03922,0.010087,0.0054469,1.7743e-05,0.0016394,9.1159e-05,0,0,0.049497,-0.021081,0,0.0023701,0,0,0,0.0054484,1.6213e-05,0.0016394,0.96167,0.002368,0.0048297,3.6599e-09,0.74,0,0
0.040187,0.010657,0.0051991,4.4789e-08,0.0015597,8.4683e-05,0,0,0.047312,-0.020276,0,0.0022018,0,0,0,0.0052005,-1.3342e-06,0.0015597,0.93292,0.002253,0.0046234,3.1937e-09,0.76,0,0
0.041112,0.011217,0.0049754,-1.6358e-05,0.0014877,7.4926e-05,0,0,0.04534,-0.019553,0,0.0019481,0,0,0,0.0049766,-1.7483e-05,0.0014877,0.85974,0.0021489,0.0044372,2.8084e-09,0.78,0,0
0.042001,0.011754,0.0047829,-3.0838e-05,0.0014256,6.3324e-05,0,0,0.043645,-0.018934,0,0.0016464,0,0,0,0.0047838,-3.1671e-05,0.0014256,0.75353,0.0020592,0.0042772,2.5027e-09,0.8,0,0
0.042858,0.012255,0.0046247,-4.3049e-05,0.0013745,5.1149e-05,0,0,0.042252,-0.018428,0,0.0013299,0,0,0,0.0046253,-4.361e-05,0.0013745,0.62774,0.0019854,0.0041459,2.2687e-09,0.82,0,0
0.043691,0.012713,0.0045005,-5.292e-05,0.0013343,3.9413e-05,0,0,0.041161,-0.018034,0,0.0010247,0,0,0,0.0045009,-5.3261e-05,0.0013343,0.49589,0.0019273,0.0040431,2.0958e-09,0.84,0,0
0.044505,0.013121,0.0044078,-6.0582e-05,0.0013042,2.8852e-05,0,0,0.040347,-0.017742,0,0.00075015,0,0,0,0.004408,-6.0768e-05,0.0013042,0.36993,0.0018838,0.0039665,1.9727e-09,0.86,0,0
0.045305,0.013477,0.0043424,-6.6288e-05,0.0012828,1.993e-05,0,0,0.039774,-0.017538,0,0.00051818,0,0,0,0.0043424,-6.6378e-05,0.0012828,0.25901,0.001853,0.0039128,1.8889e-09,0.88,0,0
0.046095,0.013777,0.004299,-7.0352e-05,0.0012686,1.2863e-05,0,0,0.039395,-0.017406,0,0.00033445,0,0,0,0.004299,-7.039e-05,0.0012686,0.16868,0.0018324,0.0038774,1.8349e-09,0.9,0,0
0.04688,0.014023,0.0042725,-7.3105e-05,0.0012598,7.6519e-06,0,0,0.039165,-0.017328,0,0.00019895,0,0,0,0.0042725,-7.3119e-05,0.0012598,0.10089,0.0018197,0.003856,1.8024e-09,0.92,0,0
0.047662,0.014212,0.0042578,-7.4864e-05,0.0012549,4.1163e-06,0,0,0.039038,-0.017286,0,0.00010702,0,0,0,0.0042578,-7.4868e-05,0.0012549,0.054435,0.0018126,0.0038443,1.7847e-09,0.94,0,0
0.048442,0.014347,0.0042505,-7.5905e-05,0.0012524,1.9434e-06,0,0,0.038976,-0.017268,0,5.0529e-05,0,0,0,0.0042505,-7.5905e-05,0.0012524,0.025737,0.001809,0.0038387,1.7761e-09,0.96,0,0
0.049221,0.014428,0.0042476,-7.6439e-05,0.0012513,7.2609e-07,0,0,0.038951,-0.017261,0,1.8878e-05,0,0,0,0.0042476,-7.6439e-05,0.0012513,0.0096212,0.0018075,0.0038365,1.7726e-09,0.98,0,0
0.05,0.014455,0.0042468,-7.6602e-05,0.0012511,5.1599e-05,0,0,0.038944,-0.01726,0,0.0013416,0,0,0,0.0042474,-7.7217e-05,0.0012511,0.68369,0.0018071,0.003837,1.7728e-09,1,0,0
0,0,0.0093788,0.0040195,0.0040195,0.0031287,0,0,0.069671,0,0,0.081345,0,0,0,0.010818,0.0025798,0.0040195,24.71,0.0058059,0.0076216,2.0031e-08,0,0.02,0
0.0013934,0.0016269,0.0085368,0.00085141,0.0028165,0.0019821,0,0,0.074365,-0.025546,0,0.051534,0,0,0,0.0090179,0.00037035,0.0028165,13.642,0.0040682,0.0077208,1.5886e-08,0.02,0.02,0
0.0029746,0.0032537,0.0085441,0.00067729,0.0027664,0.0013138,0,0,0.07511,-0.027159,0,0.03416,0,0,0,0.0087577,0.00046367,0.0027664,9.2351,0.0039959,0.0074159,1.4339e-08,0.04,0.02,0
0.0043978,0.0045625,0.0076092,0.00036126,0.0023911,0.00080735,0,0,0.067835,-0.026388,0,0.020991,0,0,0,0.007698,0.00027242,0.0023911,6.2797,0.0034539,0.0066254,9.9495e-09,0.06,0.02,0
0.005688,0.0056703,0.0069064,0.00021116,0.0021353,0.00055254,0,0,0.062025,-0.025014,0,0.014366,0,0,0,0.0069517,0.00016587,0.0021353,4.6862,0.0030843,0.0060467,7.4268e-09,0.08,0.02,0
0.0068788,0.0066151,0.0063958,0.00013094,0.001958,0.00039938,0,0,0.057691,-0.023752,0,0.010384,0,0,0,0.0064212,0.00010558,0.001958,3.6329,0.0028283,0.0056231,5.9026e-09,0.1,0.02,0
0.0079956,0.0074263,0.0060173,8.6292e-05,0.0018311,0.00030332,0,0,0.054421,-0.022682,0,0.0078862,0,0,0,0.0060328,7.0821e-05,0.0018311,2.92,0.0026449,0.0053056,4.9208e-09,0.12,0.02,0
0.0090557,0.0081222,0.0057265,5.9777e-05,0.0017359,0.00023882,0,0,0.051878,-0.021789,0,0.0062094,0,0,0,0.0057365,4.9729e-05,0.0017359,2.409,0.0025074,0.0050591,4.2453e-09,0.14,0.02,0
0.010071,0.008715,0.0054962,4.3488e-05,0.0016619,0.00019333,0,0,0.049846,-0.021039,0,0.0050267,0,0,0,0.0055031,3.6642e-05,0.0016619,2.0281,0.0024005,0.004862,3.7561e-09,0.16,0.02,0
0.01105,0.0092134,0.0053097,3.3485e-05,0.001603,0.00015946,0,0,0.048188,-0.020403,0,0.0041459,0,0,0,0.0053145,2.867e-05,0.001603,1.7295,0.0023154,0.0047008,3.3877e-09,0.18,0.02,0
0.011998,0.0096232,0.0051566,2.7684e-05,0.0015553,0.00013256,0,0,0.046817,-0.019859,0,0.0034466,0,0,0,0.00516,2.426e-05,0.0015553,1.4795,0.0022465,0.0045669,3.1031e-09,0.2,0.02,0
0.012922,0.0099484,0.0050306,2.4899e-05,0.0015167,0.00010946,0,0,0.045681,-0.019393,0,0.0028459,0,0,0,0.005033,2.2506e-05,0.0015167,1.2521,0.0021907,0.0044555,2.8803e-09,0.22,0.02,0
0.013825,0.010192,0.0049284,2.4383e-05,0.0014858,8.7823e-05,0,0,0.044754,-0.018999,0,0.0022834,0,0,0,0.00493,2.2811e-05,0.0014858,1.0256,0.0021462,0.0043637,2.7066e-09,0.24,0.02,0
0.014712,0.010355,0.0048487,2.5588e-05,0.0014623,6.5912e-05,0,0,0.044024,-0.018677,0,0.0017137,0,0,0,0.0048496,2.4688e-05,0.0014623,0.7828,0.0021122,0.0042907,2.5751e-09,0.26,0.02,0
0.015586,0.010439,0.0047916,2.8028e-05,0.0014459,4.2433e-05,0,0,0.043494,-0.018432,0,0.0011033,0,0,0,0.004792,2.765e-05,0.0014459,0.51032,0.0020885,0.0042372,2.4825e-09,0.28,0.02,0
0.016452,0.010445,0.0047583,3.1189e-05,0.0014368,1.6535e-05,0,0,0.043179,-0.018274,0,0.0004299,0,0,0,0.0047583,3.1131e-05,0.0014368,0.20041,0.0020754,0.0042045,2.4285e-09,0.3,0.02,0
0.017314,0.010374,0.0047504,3.4493e-05,0.0014355,-1.2157e-05,0,0,0.043094,-0.018212,0,-0.00031608,0,0,0,0.0047504,3.4462e-05,0.0014355,-0.1477,0.0020734,0.0041947,2.4144e-09,0.32,0.02,0
0.018176,0.01023,0.0047696,3.7289e-05,0.0014421,-4.3478e-05,0,0,0.043258,-0.018262,0,-0.0011304,0,0,0,0.00477,3.6889e-05,0.0014421,-0.52634,0.002083,0.0042102,2.4432e-09,0.34,0.02,0
0.019044,0.010015,0.0048174,3.8865e-05,0.0014569,-7.6669e-05,0,0,0.043687,-0.018434,0,-0.0019934,0,0,0,0.0048186,3.7635e-05,0.0014569,-0.91895,0.0021044,0.0042529,2.5185e-09,0.36,0.02,0
0.019923,0.0097375,0.0048941,3.8477e-05,0.0014798,-0.00011034,0,0,0.044387,-0.018737,0,-0.0028687,0,0,0,0.0048966,3.5971e-05,0.0014798,-1.301,0.0021375,0.0043235,2.6441e-09,0.38,0.02,0
0.020819,0.0094053,0.0049987,3.5383e-05,0.0015102,-0.00014244,0,0,0.045351,-0.019173,0,-0.0037034,0,0,0,0.0050028,3.1299e-05,0.0015102,-1.6425,0.0021815,0.0044216,2.8233e-09,0.4,0.02,0
0.021737,0.0090308,0.0051282,2.8925e-05,0.0015471,-0.00017034,0,0,0.046554,-0.019737,0,-0.0044287,0,0,0,0.0051339,2.3242e-05,0.0015471,-1.911,0.0022348,0.0045445,3.0568e-09,0.42,0.02,0
0.022682,0.0086294,0.0052773,1.876e-05,0.0015888,-0.00019096,0,0,0.04795,-0.020411,0,-0.004965,0,0,0,0.0052842,1.1834e-05,0.0015888,-2.077,0.002295,0.0046873,3.3415e-09,0.44,0.02,0
0.023655,0.0082197,0.0054385,5.24e-06,0.0016331,-0.00020129,0,0,0.04947,-0.021163,0,-0.0052336,0,0,0,0.005446,-2.2074e-06,0.0016331,-2.1188,0.002359,0.0048422,3.6683e-09,0.46,0.02,0
0.02466,0.0078225,0.0056025,-1.021e-05,0.0016777,-0.00019907,0,0,0.051023,-0.021943,0,-0.0051759,0,0,0,0.0056095,-1.7262e-05,0.0016777,-2.0288,0.0024233,0.0049997,4.0203e-09,0.48,0.02,0
0.025696,0.0074598,0.0057591,-2.5204e-05,0.0017202,-0.00018369,0,0,0.052506,-0.02269,0,-0.0047759,0,0,0,0.0057649,-3.1032e-05,0.0017202,-1.8171,0.0024847,0.0051488,4.3743e-09,0.5,0.02,0
0.026761,0.0071528,0.0058985,-3.7254e-05,0.0017584,-0.0001566,0,0,0.053822,-0.023343,0,-0.0040717,0,0,0,0.0059026,-4.1382e-05,0.0017584,-1.5102,0.0025399,0.0052795,4.7035e-09,0.52,0.02,0
0.027849,0.0069198,0.0060128,-4.5013e-05,0.0017903,-0.0001209,0,0,0.054892,-0.023859,0,-0.0031433,0,0,0,0.0060152,-4.7425e-05,0.0017903,-1.1428,0.002586,0.0053844,4.9823e-09,0.54,0.02,0
0.028956,0.0067756,0.0060961,-4.8906e-05,0.0018142,-8.0044e-05,0,0,0.055665,-0.02422,0,-0.0020811,0,0,0,0.0060972,-4.9948e-05,0.0018142,-0.74616,0.0026205,0.0054592,5.1904e-09,0.56,0.02,0
0.030076,0.0067301,0.0061449,-5.051e-05,0.0018283,-3.6715e-05,0,0,0.056116,-0.024425,0,-0.00095458,0,0,0,0.0061452,-5.0728e-05,0.0018283,-0.33952,0.0026409,0.0055025,5.3143e-09,0.58,0.02,0
0.031201,0.0067888,0.0061575,-5.1174e-05,0.0018319,7.645e-06,0,0,0.056233,-0.02448,0,0.00019877,0,0,0,0.0061575,-5.1183e-05,0.0018319,0.070551,0.0026461,0.0055138,5.3466e-09,0.6,0.02,0
0.032325,0.006953,0.0061332,-5.0906e-05,0.0018247,5.2139e-05,0,0,0.05601,-0.024383,0,0.0013556,0,0,0,0.0061336,-5.1346e-05,0.0018247,0.48303,0.0026356,0.0054927,5.2849e-09,0.62,0.02,0
0.033441,0.0072194,0.0060727,-4.8362e-05,0.0018073,9.5328e-05,0,0,0.05545,-0.024123,0,0.0024785,0,0,0,0.0060742,-4.9846e-05,0.0018073,0.89203,0.0026105,0.0054387,5.1319e-09,0.64,0.02,0
0.034543,0.0075802,0.0059785,-4.1924e-05,0.001781,0.00013454,0,0,0.054568,-0.023698,0,0.003498,0,0,0,0.0059815,-4.4929e-05,0.001781,1.2795,0.0025725,0.0053524,4.8971e-09,0.66,0.02,0
0.035624,0.0080229,0.0058554,-3.1097e-05,0.0017473,0.00016623,0,0,0.053405,-0.023119,0,0.0043221,0,0,0,0.0058601,-3.5788e-05,0.0017473,1.6163,0.0025238,0.0052371,4.598e-09,0.68,0.02,0
0.036679,0.0085311,0.0057104,-1.7149e-05,0.001708,0.00018721,0,0,0.052031,-0.022426,0,0.0048675,0,0,0,0.0057165,-2.3261e-05,0.001708,1.8701,0.0024671,0.0050995,4.2591e-09,0.7,0.02,0
0.037705,0.0090854,0.0055523,-2.5153e-06,0.0016649,0.00019584,0,0,0.050536,-0.021677,0,0.0050919,0,0,0,0.0055592,-9.4113e-06,0.0016649,2.0167,0.0024049,0.0049487,3.9073e-09,0.72,0.02,0
0.038701,0.0096655,0.0053908,1.0425e-05,0.0016204,0.00019253,0,0,0.049015,-0.020929,0,0.0050059,0,0,0,0.0053977,3.5442e-06,0.0016204,2.0468,0.0023405,0.0047947,3.5674e-09,0.74,0.02,0
0.039666,0.010252,0.0052345,2.0215e-05,0.0015764,0.00017934,0,0,0.047555,-0.02023,0,0.004663,0,0,0,0.0052406,1.4054e-05,0.0015764,1.9676,0.002277,0.0046467,3.2579e-09,0.76,0.02,0
0.040603,0.010826,0.0050905,2.6434e-05,0.0015351,0.00015916,0,0,0.046221,-0.019613,0,0.0041382,0,0,0,0.0050955,2.1437e-05,0.0015351,1.7984,0.0022173,0.0045119,2.9898e-09,0.78,0.02,0
0.041515,0.011375,0.0049639,2.9331e-05,0.001498,0.00013497,0,0,0.045057,-0.019092,0,0.0035091,0,0,0,0.0049676,2.5642e-05,0.001498,1.5656,0.0021637,0.0043948,2.7673e-09,0.8,0.02,0
0.042405,0.011886,0.0048572,2.9459e-05,0.001466,0.00010941,0,0,0.044085,-0.018675,0,0.0028448,0,0,0,0.0048596,2.698e-05,0.001466,1.2977,0.0021175,0.0042978,2.5897e-09,0.82,0.02,0
0.043278,0.012352,0.0047711,2.7452e-05,0.0014396,8.4645e-05,0,0,0.04331,-0.018357,0,0.0022008,0,0,0,0.0047726,2.5943e-05,0.0014396,1.022,0.0020794,0.0042213,2.4533e-09,0.84,0.02,0
0.044138,0.012766,0.0047047,2.3963e-05,0.0014186,6.2241e-05,0,0,0.042719,-0.01813,0,0.0016183,0,0,0,0.0047055,2.3136e-05,0.0014186,0.76171,0.0020491,0.0041639,2.3527e-09,0.86,0.02,0
0.044987,0.013126,0.0046559,1.9622e-05,0.0014027,4.3226e-05,0,0,0.042292,-0.017979,0,0.0011239,0,0,0,0.0046563,1.9219e-05,0.0014027,0.53414,0.0020261,0.0041233,2.2816e-09,0.88,0.02,0
0.045829,0.013429,0.0046219,1.5008e-05,0.0013911,2.8096e-05,0,0,0.042001,-0.017889,0,0.00073049,0,0,0,0.0046221,1.4837e-05,0.0013911,0.34941,0.0020093,0.0040964,2.2339e-09,0.9,0.02,0
0.046667,0.013676,0.0045996,1.0618e-05,0.0013831,1.6876e-05,0,0,0.041815,-0.017842,0,0.00043878,0,0,0,0.0045997,1.0556e-05,0.0013831,0.2107,0.0019978,0.0040799,2.2037e-09,0.92,0.02,0
0.047502,0.013867,0.004586,6.8432e-06,0.0013778,9.2071e-06,0,0,0.041706,-0.017823,0,0.00023938,0,0,0,0.004586,6.8247e-06,0.0013778,0.1152,0.0019902,0.0040707,2.186e-09,0.94,0.02,0
0.048335,0.014002,0.0045783,3.9658e-06,0.0013747,4.433e-06,0,0,0.041647,-0.017819,0,0.00011526,0,0,0,0.0045783,3.9615e-06,0.0013747,0.055525,0.0019857,0.0040662,2.1765e-09,0.96,0.02,0
0.049168,0.014083,0.0045746,2.1714e-06,0.001373,1.6931e-06,0,0,0.04162,-0.017821,0,4.402e-05,0,0,0,0.0045746,2.1707e-06,0.001373,0.021215,0.0019833,0.0040643,2.1721e-09,0.98,0.02,0
0.05,0.01411,0.0045735,1.5624e-06,0.0013725,5.1657e-05,0,0,0.041613,-0.017823,0,0.0013431,0,0,0,0.0045741,9.7877e-07,0.0013725,0.64726,0.0019825,0.0040648,2.172e-09,1,0.02,0
0,0,0.0079398,0.0034028,0.0034028,0.0025835,0,0,0.058981,2.1684e-18,0,0.06717,0,0,0,0.0091094,0.0022332,0.0034028,24.357,0.0049151,0.0063724,1.1795e-08,0,0.04,0
0.0011796,0.0013434,0.0076497,0.0020832,0.0029199,0.0023437,0,0,0.061488,-0.010876,0,0.060937,0,0,0,0.0085051,0.0012279,0.0029199,20.05,0.0042176,0.006596,1.1534e-08,0.02,0.04,0
0.0024595,0.002758,0.007605,0.0010171,0.0025866,0.0018876,0,0,0.065239,-0.020404,0,0.049078,0,0,0,0.0081075,0.00051459,0.0025866,14.908,0.0037363,0.006798,1.1225e-08,0.04,0.04,0
0.0037892,0.004053,0.0074583,0.00064218,0.0024301,0.0014003,0,0,0.065366,-0.023244,0,0.036408,0,0,0,0.0077348,0.00036571,0.0024301,11.168,0.0035102,0.0065842,9.9482e-09,0.06,0.04,0
0.0050742,0.0051698,0.0070721,0.00040722,0.0022438,0.0010263,0,0,0.062768,-0.023876,0,0.026684,0,0,0,0.0072266,0.00025275,0.0022438,8.5589,0.003241,0.006222,8.2351e-09,0.08,0.04,0
0.0062999,0.0061328,0.0066963,0.00027018,0.00209,0.00077514,0,0,0.059883,-0.023657,0,0.020154,0,0,0,0.0067885,0.000178,0.00209,6.7816,0.0030188,0.005892,6.8971e-09,0.1,0.04,0
0.0074695,0.006962,0.0063721,0.00018574,0.0019674,0.00060237,0,0,0.057262,-0.023161,0,0.015662,0,0,0,0.0064303,0.00012763,0.0019674,5.5099,0.0028418,0.0056136,5.9048e-09,0.12,0.04,0
0.0085904,0.007674,0.0061023,0.00013242,0.0018704,0.00048082,0,0,0.055014,-0.022594,0,0.012501,0,0,0,0.0061408,9.3946e-05,0.0018704,4.5754,0.0027017,0.0053831,5.1692e-09,0.14,0.04,0
0.00967,0.008281,0.0058784,9.8214e-05,0.001793,0.00039223,0,0,0.05311,-0.022032,0,0.010198,0,0,0,0.0059049,7.1719e-05,0.001793,3.8644,0.0025899,0.0051912,4.6123e-09,0.16,0.04,0
0.010715,0.0087917,0.0056917,7.6489e-05,0.0017304,0.00032495,0,0,0.051496,-0.021501,0,0.0084487,0,0,0,0.0057104,5.7747e-05,0.0017304,3.301,0.0024995,0.0050295,4.1809e-09,0.18,0.04,0
0.01173,0.0092123,0.0055351,6.3441e-05,0.0016796,0.00027106,0,0,0.050123,-0.02101,0,0.0070476,0,0,0,0.0055486,5.0046e-05,0.0016796,2.8291,0.0024261,0.0048917,3.84e-09,0.2,0.04,0
0.01272,0.009547,0.0054038,5.677e-05,0.0016382,0.00022494,0,0,0.048953,-0.020558,0,0.0058485,0,0,0,0.0054133,4.7323e-05,0.0016382,2.4047,0.0023663,0.0047737,3.567e-09,0.22,0.04,0
0.013688,0.0097985,0.0052944,5.496e-05,0.0016048,0.00018239,0,0,0.047965,-0.020148,0,0.0047422,0,0,0,0.0053008,4.8618e-05,0.0016048,1.9913,0.0023181,0.0046726,3.3476e-09,0.24,0.04,0
0.014638,0.0099684,0.0052051,5.6868e-05,0.0015786,0.00014024,0,0,0.047144,-0.019782,0,0.0036462,0,0,0,0.0052089,5.3051e-05,0.0015786,1.5592,0.0022802,0.0045874,3.1729e-09,0.26,0.04,0
0.015574,0.010058,0.0051349,6.1455e-05,0.0015589,9.6123e-05,0,0,0.046488,-0.019467,0,0.0024992,0,0,0,0.0051367,5.9634e-05,0.0015589,1.085,0.0022517,0.004518,3.0381e-09,0.28,0.04,0
0.016498,0.010068,0.0050839,6.762e-05,0.0015455,4.849e-05,0,0,0.046,-0.019212,0,0.0012607,0,0,0,0.0050844,6.7152e-05,0.0015455,0.55378,0.0022323,0.0044655,2.9409e-09,0.3,0.04,0
0.017414,0.0099996,0.0050524,7.4119e-05,0.001538,-3.3526e-06,0,0,0.045688,-0.01903,0,-8.7169e-05,0,0,0,0.0050524,7.4117e-05,0.001538,-0.038586,0.0022215,0.0044316,2.8812e-09,0.32,0.04,0
0.018325,0.0098555,0.005041,7.9554e-05,0.0015362,-5.913e-05,0,0,0.045563,-0.018936,0,-0.0015374,0,0,0,0.0050418,7.8849e-05,0.0015362,-0.68271,0.0022189,0.0044183,2.8598e-09,0.34,0.04,0
0.019236,0.0096394,0.00505,8.2428e-05,0.0015397,-0.00011753,0,0,0.045633,-0.018945,0,-0.0030558,0,0,0,0.0050527,7.9649e-05,0.0015397,-1.3546,0.002224,0.0044274,2.8781e-09,0.36,0.04,0
0.020151,0.0093574,0.0050789,8.1238e-05,0.001548,-0.00017617,0,0,0.045901,-0.019068,0,-0.0045805,0,0,0,0.0050851,7.5035e-05,0.001548,-2.0164,0.002236,0.0044599,2.937e-09,0.38,0.04,0
0.021072,0.0090186,0.0051267,7.4521e-05,0.0015604,-0.00023167,0,0,0.046362,-0.019316,0,-0.0060234,0,0,0,0.0051373,6.392e-05,0.0015604,-2.62,0.0022538,0.0045151,3.0363e-09,0.4,0.04,0
0.022005,0.008635,0.0051913,6.0978e-05,0.0015757,-0.00027968,0,0,0.047003,-0.019691,0,-0.0072717,0,0,0,0.0052065,4.5776e-05,0.0015757,-3.1113,0.002276,0.0045911,3.1734e-09,0.42,0.04,0
0.022952,0.0082225,0.0052691,3.9761e-05,0.0015927,-0.00031519,0,0,0.047794,-0.020188,0,-0.0081949,0,0,0,0.0052881,2.0832e-05,0.0015927,-3.4368,0.0023005,0.0046835,3.3426e-09,0.44,0.04,0
0.023917,0.0078,0.0053554,1.1365e-05,0.00161,-0.00033305,0,0,0.048689,-0.020782,0,-0.0086592,0,0,0,0.0053761,-9.3109e-06,0.00161,-3.5524,0.0023256,0.0047858,3.5338e-09,0.46,0.04,0
0.0249,0.0073894,0.0054437,-2.1369e-05,0.0016267,-0.00032934,0,0,0.049621,-0.021425,0,-0.0085628,0,0,0,0.0054635,-4.1144e-05,0.0016267,-3.4362,0.0023497,0.004889,3.7319e-09,0.48,0.04,0
0.025902,0.0070138,0.0055275,-5.3055e-05,0.0016423,-0.00030298,0,0,0.050507,-0.02204,0,-0.0078774,0,0,0,0.0055439,-6.9456e-05,0.0016423,-3.0985,0.0023723,0.0049831,3.9194e-09,0.5,0.04,0
0.02692,0.0066956,0.0056007,-7.7777e-05,0.0016569,-0.00025689,0,0,0.05127,-0.022551,0,-0.0066791,0,0,0,0.0056123,-8.9375e-05,0.0016569,-2.5849,0.0023933,0.0050599,4.0805e-09,0.52,0.04,0
0.027953,0.0064542,0.0056593,-9.2438e-05,0.00167,-0.00019709,0,0,0.05186,-0.022912,0,-0.0051244,0,0,0,0.005666,-9.9184e-05,0.00167,-1.9603,0.0024123,0.0051154,4.2055e-09,0.54,0.04,0
0.028995,0.0063042,0.0057012,-9.8525e-05,0.0016808,-0.00013018,0,0,0.052265,-0.023131,0,-0.0033847,0,0,0,0.0057041,-0.00010145,0.0016808,-1.2852,0.0024278,0.0051511,4.2921e-09,0.56,0.04,0
0.030043,0.0062556,0.0057262,-0.00010047,0.0016877,-6.0552e-05,0,0,0.0525,-0.023246,0,-0.0015744,0,0,0,0.0057268,-0.0001011,0.0016877,-0.59535,0.0024378,0.005171,4.343e-09,0.58,0.04,0
0.031095,0.0063134,0.0057344,-0.00010193,0.0016897,1.0254e-05,0,0,0.05258,-0.023291,0,0.00026661,0,0,0,0.0057344,-0.00010194,0.0016897,0.10067,0.0024407,0.0051784,4.3608e-09,0.6,0.04,0
0.032146,0.0064788,0.0057253,-0.00010291,0.0016867,8.2043e-05,0,0,0.052501,-0.023265,0,0.0021331,0,0,0,0.0057264,-0.00010407,0.0016867,0.80633,0.0024364,0.0051731,4.3444e-09,0.62,0.04,0
0.033195,0.0067491,0.0056979,-9.9818e-05,0.0016794,0.0001533,0,0,0.05224,-0.02313,0,0.0039858,0,0,0,0.0057019,-0.00010387,0.0016794,1.5136,0.0024258,0.0051511,4.2891e-09,0.64,0.04,0
0.034236,0.0071169,0.0056516,-8.8116e-05,0.001669,0.00021964,0,0,0.051773,-0.022843,0,0.0057106,0,0,0,0.00566,-9.6508e-05,0.001669,2.1883,0.0024108,0.0051079,4.1901e-09,0.66,0.04,0
0.035266,0.0075694,0.0055873,-6.6147e-05,0.0016564,0.00027438,0,0,0.051103,-0.022392,0,0.0071339,0,0,0,0.0056006,-7.9432e-05,0.0016564,2.7721,0.0023925,0.0050415,4.0478e-09,0.68,0.04,0
0.03628,0.0080897,0.0055084,-3.6825e-05,0.0016415,0.00031129,0,0,0.05027,-0.021818,0,0.0080936,0,0,0,0.0055258,-5.4246e-05,0.0016415,3.203,0.002371,0.0049549,3.8703e-09,0.7,0.04,0
0.037276,0.008657,0.00542,-5.9566e-06,0.0016242,0.00032713,0,0,0.049346,-0.021192,0,0.0085053,0,0,0,0.0054397,-2.5608e-05,0.0016242,3.4377,0.0023461,0.0048554,3.6724e-09,0.72,0.04,0
0.038254,0.0092499,0.0053282,2.1087e-05,0.0016048,0.00032262,0,0,0.048404,-0.020588,0,0.008388,0,0,0,0.0053477,1.5469e-06,0.0016048,3.466,0.002318,0.0047519,3.4707e-09,0.74,0.04,0
0.039213,0.0098479,0.0052386,4.1387e-05,0.001584,0.00030134,0,0,0.04751,-0.020054,0,0.0078349,0,0,0,0.005256,2.3973e-05,0.001584,3.3074,0.002288,0.0046525,3.28e-09,0.76,0.04,0
0.040154,0.010433,0.0051556,5.4297e-05,0.001563,0.0002682,0,0,0.046704,-0.019613,0,0.0069731,0,0,0,0.0051697,4.0235e-05,0.001563,3.0012,0.0022576,0.0045628,3.1101e-09,0.78,0.04,0
0.041081,0.01099,0.0050824,6.0453e-05,0.0015429,0.00022808,0,0,0.046014,-0.019271,0,0.0059301,0,0,0,0.0050928,5.0116e-05,0.0015429,2.5951,0.0022286,0.0044866,2.9666e-09,0.8,0.04,0
0.041995,0.011508,0.0050207,6.0921e-05,0.0015245,0.00018537,0,0,0.045451,-0.019026,0,0.0048197,0,0,0,0.0050276,5.4002e-05,0.0015245,2.1375,0.002202,0.0044256,2.8513e-09,0.82,0.04,0
0.042899,0.011978,0.004971,5.6926e-05,0.0015084,0.00014368,0,0,0.045014,-0.018869,0,0.0037358,0,0,0,0.0049752,5.2729e-05,0.0015084,1.6734,0.0021788,0.00438,2.7635e-09,0.84,0.04,0
0.043795,0.012396,0.004933,4.9762e-05,0.0014948,0.00010577,0,0,0.044696,-0.018786,0,0.0027499,0,0,0,0.0049353,4.7472e-05,0.0014948,1.2402,0.0021592,0.0043487,2.7004e-09,0.86,0.04,0
0.044687,0.012758,0.0049054,4.0743e-05,0.0014839,7.3462e-05,0,0,0.044481,-0.01876,0,0.00191,0,0,0,0.0049066,3.9634e-05,0.0014839,0.86496,0.0021434,0.0043294,2.6581e-09,0.88,0.04,0
0.045575,0.013062,0.0048868,3.1107e-05,0.0014754,4.7699e-05,0,0,0.044348,-0.018775,0,0.0012402,0,0,0,0.0048872,3.0639e-05,0.0014754,0.56277,0.0021311,0.0043194,2.632e-09,0.9,0.04,0
0.046461,0.013309,0.004875,2.1917e-05,0.0014691,2.8582e-05,0,0,0.044277,-0.018813,0,0.00074314,0,0,0,0.0048752,2.1748e-05,0.0014691,0.33743,0.002122,0.0043158,2.6177e-09,0.92,0.04,0
0.047346,0.013499,0.0048682,1.4005e-05,0.0014647,1.5527e-05,0,0,0.044246,-0.018859,0,0.00040371,0,0,0,0.0048683,1.3956e-05,0.0014647,0.18327,0.0021156,0.0043159,2.6111e-09,0.94,0.04,0
0.048231,0.013635,0.0048647,7.9737e-06,0.0014618,7.4277e-06,0,0,0.044238,-0.0189,0,0.00019312,0,0,0,0.0048647,7.9624e-06,0.0014618,0.087626,0.0021115,0.0043175,2.6089e-09,0.96,0.04,0
0.049115,0.013715,0.0048631,4.2118e-06,0.0014602,2.8158e-06,0,0,0.044238,-0.018928,0,7.321e-05,0,0,0,0.0048631,4.2102e-06,0.0014602,0.033203,0.0021092,0.0043191,2.6085e-09,0.98,0.04,0
0.05,0.013742,0.0048627,2.935e-06,0.0014597,5.1501e-05,0,0,0.044239,-0.018938,0,0.001339,0,0,0,0.0048633,2.3893e-06,0.0014597,0.6071,0.0021084,0.0043206,2.6098e-09,1,0.04,0
0,0,0.0072215,0.0030949,0.0030949,0.002292,0,0,0.053646,1.301e-18,0,0.059593,0,0,0,0.0082422,0.0020743,0.0030949,24.003,0.0044705,0.0057262,8.6195e-09,0,0.06,0
0.0010729,0.0011919,0.0071315,0.0023574,0.0028467,0.002192,0,0,0.055703,-0.0063608,0,0.056993,0,0,0,0.0079853,0.0015036,0.0028467,21.281,0.0041118,0.0059254,8.8625e-09,0.02,0.06,0
0.0022281,0.0024376,0.0071826,0.0015704,0.0026259,0.0020082,0,0,0.059237,-0.013721,0,0.052214,0,0,0,0.0078272,0.00092586,0.0026259,17.795,0.003793,0.0062278,9.3597e-09,0.04,0.06,0
0.0034424,0.0036327,0.0071538,0.0010034,0.0024472,0.0016732,0,0,0.061187,-0.018769,0,0.043502,0,0,0,0.0075795,0.00057767,0.0024472,14.275,0.0035348,0.0062794,9.0199e-09,0.06,0.06,0
0.0046756,0.0047153,0.0070221,0.00067746,0.0023099,0.0013406,0,0,0.061259,-0.021221,0,0.034854,0,0,0,0.0072937,0.00040585,0.0023099,11.454,0.0033365,0.0061607,8.2551e-09,0.08,0.06,0
0.0058928,0.0056688,0.0068087,0.00046818,0.0021831,0.0010674,0,0,0.060133,-0.022294,0,0.027752,0,0,0,0.0069836,0.00029331,0.0021831,9.3038,0.0031533,0.0059739,7.3695e-09,0.1,0.06,0
0.0070809,0.0064999,0.006582,0.00033274,0.0020744,0.00085887,0,0,0.058598,-0.022642,0,0.022331,0,0,0,0.0066978,0.00021684,0.0020744,7.6847,0.0029964,0.0057806,6.5768e-09,0.12,0.06,0
0.0082367,0.0072184,0.0063681,0.00024311,0.0019834,0.00070119,0,0,0.057001,-0.022623,0,0.018231,0,0,0,0.0064473,0.00016386,0.0019834,6.4482,0.0028648,0.0056,5.914e-09,0.14,0.06,0
0.009361,0.0078337,0.006176,0.00018355,0.0019079,0.00058077,0,0,0.055486,-0.022416,0,0.0151,0,0,0,0.0062318,0.00012778,0.0019079,5.4849,0.0027558,0.0054371,5.3706e-09,0.16,0.06,0
0.010456,0.0083533,0.0060068,0.00014459,0.0018454,0.00048643,0,0,0.054098,-0.022111,0,0.012647,0,0,0,0.0060469,0.00010451,0.0018454,4.7113,0.0026656,0.0052913,4.9248e-09,0.18,0.06,0
0.011525,0.0087828,0.0058589,0.00012049,0.0017938,0.00040958,0,0,0.052846,-0.021753,0,0.010649,0,0,0,0.005888,9.1403e-05,0.0017938,4.0621,0.0025911,0.0051605,4.5556e-09,0.2,0.06,0
0.01257,0.0091261,0.00573,0.00010757,0.0017513,0.00034358,0,0,0.051723,-0.021368,0,0.0089331,0,0,0,0.0057509,8.6652e-05,0.0017513,3.484,0.0025296,0.0050424,4.2469e-09,0.22,0.06,0
0.013594,0.0093858,0.0056179,0.00010333,0.0017164,0.00028323,0,0,0.05072,-0.02097,0,0.0073639,0,0,0,0.0056324,8.8822e-05,0.0017164,2.9324,0.0024792,0.0049354,3.9867e-09,0.24,0.06,0
0.014599,0.0095635,0.0055212,0.0001058,0.0016881,0.00022443,0,0,0.04983,-0.02057,0,0.0058352,0,0,0,0.0055305,9.652e-05,0.0016881,2.3691,0.0024384,0.0048386,3.767e-09,0.26,0.06,0
0.015587,0.00966,0.0054388,0.00011317,0.0016656,0.0001641,0,0,0.049052,-0.020182,0,0.0042665,0,0,0,0.0054439,0.00010812,0.0016656,1.7632,0.0024059,0.0047524,3.5829e-09,0.28,0.06,0
0.016561,0.0096761,0.0053702,0.00012346,0.0016481,0.00010014,0,0,0.048387,-0.01982,0,0.0026035,0,0,0,0.0053721,0.00012155,0.0016481,1.093,0.0023806,0.004678,3.4323e-09,0.3,0.06,0
0.017522,0.0096128,0.0053152,0.0001344,0.0016349,3.1576e-05,0,0,0.047844,-0.019506,0,0.00082097,0,0,0,0.0053154,0.00013421,0.0016349,0.34918,0.0023615,0.0046175,3.3147e-09,0.32,0.06,0
0.018475,0.0094721,0.0052737,0.00014344,0.0016251,-4.1271e-05,0,0,0.047432,-0.019262,0,-0.0010731,0,0,0,0.005274,0.00014311,0.0016251,-0.46089,0.0023474,0.0045737,3.2308e-09,0.34,0.06,0
0.01942,0.0092575,0.0052455,0.00014787,0.001618,-0.00011673,0,0,0.047157,-0.019112,0,-0.0030349,0,0,0,0.0052482,0.0001452,0.001618,-1.3111,0.0023371,0.004549,3.1815e-09,0.36,0.06,0
0.020361,0.0089748,0.00523,0.00014506,0.0016125,-0.0001918,0,0,0.047027,-0.019077,0,-0.0049869,0,0,0,0.0052372,0.00013783,0.0016125,-2.1571,0.0023292,0.0045452,3.1666e-09,0.38,0.06,0
0.021301,0.0086326,0.0052264,0.0001327,0.0016077,-0.00026236,0,0,0.047043,-0.019175,0,-0.0068213,0,0,0,0.0052398,0.00011922,0.0016077,-2.9407,0.0023223,0.0045623,3.1845e-09,0.4,0.06,0
0.022243,0.0082431,0.0052333,0.00010867,0.0016026,-0.00032333,0,0,0.047199,-0.019421,0,-0.0084066,0,0,0,0.0052536,8.8352e-05,0.0016026,-3.596,0.0023148,0.0045991,3.2314e-09,0.42,0.06,0
0.023189,0.0078218,0.005249,7.1429e-05,0.0015961,-0.00036874,0,0,0.047487,-0.019821,0,-0.0095872,0,0,0,0.0052751,4.53e-05,0.0015961,-4.0533,0.0023055,0.0046525,3.3014e-09,0.44,0.06,0
0.024142,0.0073884,0.0052705,2.098e-05,0.0015874,-0.00039213,0,0,0.047879,-0.020364,0,-0.010195,0,0,0,0.0052996,-8.1506e-06,0.0015874,-4.2485,0.002293,0.0047169,3.3845e-09,0.46,0.06,0
0.025104,0.0069655,0.0052936,-3.8133e-05,0.0015766,-0.00038777,0,0,0.04832,-0.020992,0,-0.010082,0,0,0,0.0053216,-6.6189e-05,0.0015766,-4.1381,0.0022774,0.0047829,3.4662e-09,0.48,0.06,0
0.026075,0.0065782,0.0053135,-9.5518e-05,0.0015654,-0.000354,0,0,0.048726,-0.021592,0,-0.0092041,0,0,0,0.0053366,-0.00011859,0.0015654,-3.7286,0.0022611,0.0048382,3.5305e-09,0.5,0.06,0
0.027053,0.0062508,0.0053271,-0.0001384,0.0015566,-0.00029543,0,0,0.049016,-0.022035,0,-0.0076811,0,0,0,0.005343,-0.00015432,0.0015566,-3.085,0.0022484,0.0048726,3.5667e-09,0.52,0.06,0
0.028036,0.0060033,0.0053338,-0.00016021,0.0015521,-0.00022241,0,0,0.049162,-0.02226,0,-0.0057826,0,0,0,0.0053428,-0.0001692,0.0015521,-2.3144,0.0022419,0.0048844,3.5759e-09,0.54,0.06,0
0.02902,0.0058503,0.005336,-0.00016546,0.0015512,-0.0001453,0,0,0.049203,-0.022316,0,-0.0037777,0,0,0,0.0053399,-0.0001693,0.0015512,-1.5118,0.0022406,0.0048819,3.5702e-09,0.56,0.06,0
0.030004,0.0058002,0.005338,-0.00016508,0.0015519,-6.9525e-05,0,0,0.049219,-0.02232,0,-0.0018076,0,0,0,0.0053389,-0.00016596,0.0015519,-0.72371,0.0022416,0.0048783,3.566e-09,0.58,0.06,0
0.030988,0.0058572,0.0053427,-0.00016774,0.0015525,5.9027e-06,0,0,0.049273,-0.022363,0,0.00015347,0,0,0,0.0053427,-0.00016775,0.0015525,0.061374,0.0022425,0.0048832,3.5749e-09,0.6,0.06,0
0.031975,0.0060224,0.0053499,-0.00017356,0.0015529,8.4609e-05,0,0,0.049361,-0.022444,0,0.0021998,0,0,0,0.0053512,-0.00017485,0.0015529,0.87739,0.0022431,0.0048964,3.5963e-09,0.62,0.06,0
0.032963,0.0062942,0.0053557,-0.00017392,0.0015545,0.00016769,0,0,0.049415,-0.02247,0,0.00436,0,0,0,0.0053608,-0.000179,0.0015545,1.7354,0.0022454,0.0049082,3.6182e-09,0.64,0.06,0
0.033951,0.0066664,0.0053551,-0.00015774,0.0015592,0.0002498,0,0,0.049347,-0.02232,0,0.0064949,0,0,0,0.0053664,-0.00016903,0.0015592,2.5892,0.0022522,0.0049052,3.6229e-09,0.66,0.06,0
0.034937,0.0071272,0.0053448,-0.00012012,0.0015674,0.00032052,0,0,0.049106,-0.021938,0,0.0083335,0,0,0,0.0053636,-0.00013886,0.0015674,3.3451,0.002264,0.0048785,3.5974e-09,0.68,0.06,0
0.035916,0.0076584,0.0053246,-6.7261e-05,0.0015772,0.00036919,0,0,0.048716,-0.021378,0,0.009599,0,0,0,0.0053497,-9.2423e-05,0.0015772,3.8989,0.0022782,0.0048289,3.539e-09,0.7,0.06,0
0.036885,0.0082377,0.0052968,-1.1727e-05,0.0015855,0.00039076,0,0,0.048247,-0.020764,0,0.01016,0,0,0,0.0053254,-4.0337e-05,0.0015855,4.1874,0.0022902,0.0047656,3.4562e-09,0.72,0.06,0
0.037845,0.0088419,0.0052656,3.6093e-05,0.0015905,0.00038638,0,0,0.047776,-0.020207,0,0.010046,0,0,0,0.005294,7.7003e-06,0.0015905,4.2028,0.0022974,0.0046993,3.363e-09,0.74,0.06,0
0.038796,0.0094494,0.0052347,7.1502e-05,0.0015918,0.00036134,0,0,0.047357,-0.019765,0,0.0093947,0,0,0,0.0052598,4.6337e-05,0.0015918,3.9839,0.0022993,0.0046381,3.2719e-09,0.76,0.06,0
0.03974,0.010042,0.0052064,9.4206e-05,0.0015902,0.00032174,0,0,0.047011,-0.019448,0,0.0083653,0,0,0,0.0052266,7.4037e-05,0.0015902,3.5871,0.0022969,0.0045865,3.1913e-09,0.78,0.06,0
0.040677,0.010604,0.0051824,0.00010535,0.0015863,0.00027345,0,0,0.046749,-0.019253,0,0.0071097,0,0,0,0.0051971,9.0666e-05,0.0015863,3.0741,0.0022914,0.004547,3.126e-09,0.8,0.06,0
0.04161,0.011125,0.0051634,0.00010661,0.001581,0.00022161,0,0,0.046571,-0.019167,0,0.0057618,0,0,0,0.0051731,9.6916e-05,0.001581,2.5045,0.0022837,0.0045207,3.0784e-09,0.82,0.06,0
0.04254,0.011597,0.0051498,9.9839e-05,0.0015749,0.0001707,0,0,0.046474,-0.019176,0,0.0044382,0,0,0,0.0051556,9.4076e-05,0.0015749,1.9338,0.0022748,0.0045074,3.0488e-09,0.84,0.06,0
0.043469,0.012015,0.0051414,8.7271e-05,0.0015686,0.00012429,0,0,0.046447,-0.019258,0,0.0032315,0,0,0,0.0051445,8.4217e-05,0.0015686,1.4078,0.0022658,0.0045054,3.0357e-09,0.86,0.06,0
0.044397,0.012376,0.0051377,7.1278e-05,0.0015627,8.484e-05,0,0,0.046475,-0.019388,0,0.0022058,0,0,0,0.0051391,6.9858e-05,0.0015627,0.95909,0.0022572,0.004512,3.0356e-09,0.88,0.06,0
0.045327,0.012678,0.0051374,5.4129e-05,0.0015575,5.362e-05,0,0,0.04654,-0.019543,0,0.0013941,0,0,0,0.005138,5.3563e-05,0.0015575,0.60428,0.0022497,0.004524,3.0444e-09,0.9,0.06,0
0.046259,0.012924,0.0051395,3.776e-05,0.0015532,3.0798e-05,0,0,0.046622,-0.0197,0,0.00080074,0,0,0,0.0051396,3.7574e-05,0.0015532,0.34587,0.0022435,0.0045382,3.0578e-09,0.92,0.06,0
0.047192,0.013112,0.0051425,2.3678e-05,0.0015498,1.5639e-05,0,0,0.046704,-0.01984,0,0.00040662,0,0,0,0.0051426,2.363e-05,0.0015498,0.17505,0.0022387,0.0045519,3.072e-09,0.94,0.06,0
0.048127,0.013246,0.0051455,1.2949e-05,0.0015475,6.7396e-06,0,0,0.046774,-0.01995,0,0.00017523,0,0,0,0.0051455,1.294e-05,0.0015475,0.075236,0.0022353,0.0045631,3.0843e-09,0.96,0.06,0
0.049063,0.013326,0.0051476,6.2616e-06,0.0015462,2.2383e-06,0,0,0.046819,-0.020019,0,5.8194e-05,0,0,0,0.0051476,6.2606e-06,0.0015462,0.024943,0.0022333,0.0045703,3.0925e-09,0.98,0.06,0
0.05,0.013352,0.0051484,3.9928e-06,0.0015457,5.089e-05,0,0,0.046835,-0.020042,0,0.0013231,0,0,0,0.0051489,3.4894e-06,0.0015457,0.56672,0.0022327,0.0045737,3.0965e-09,1,0.06,0
0,0,0.0068774,0.0029475,0.0029475,0.0020942,0,0,0.051089,6.5052e-19,0,0.054449,0,0,0,0.0077842,0.0020407,0.0029475,23.412,0.0042575,0.005348,7.1007e-09,0,0.08,0
0.0010218,0.001089,0.0068276,0.0024235,0.0027753,0.0020499,0,0,0.052679,-0.004574,0,0.053297,0,0,0,0.007634,0.001617,0.0027753,21.475,0.0040088,0.0055296,7.4155e-09,0.02,0.08,0
0.0021072,0.0022092,0.0069176,0.0018478,0.0026296,0.001952,0,0,0.055744,-0.010164,0,0.050751,0,0,0,0.007582,0.0011833,0.0026296,18.799,0.0037983,0.0058121,8.0178e-09,0.04,0.08,0
0.0032515,0.0033022,0.0069591,0.0013334,0.0024878,0.0017468,0,0,0.058127,-0.015006,0,0.045418,0,0,0,0.0074574,0.00083516,0.0024878,15.921,0.0035934,0.00597,8.1706e-09,0.06,0.08,0
0.0044323,0.0043209,0.0069292,0.00095119,0.0023641,0.0014952,0,0,0.059346,-0.018368,0,0.038876,0,0,0,0.0072824,0.00059807,0.0023641,13.288,0.0034149,0.0059995,7.9366e-09,0.08,0.08,0
0.0056254,0.0052411,0.0068355,0.00068803,0.0022571,0.0012543,0,0,0.05952,-0.020397,0,0.032613,0,0,0,0.0070816,0.00044195,0.0022571,11.1,0.0032602,0.0059437,7.4907e-09,0.1,0.08,0
0.0068131,0.0060563,0.0067012,0.00050529,0.0021619,0.0010478,0,0,0.05901,-0.021537,0,0.027243,0,0,0,0.0068736,0.00033289,0.0021619,9.3433,0.0031228,0.0058449,6.9716e-09,0.12,0.08,0
0.0079858,0.0067691,0.0065527,0.00037862,0.0020794,0.00087903,0,0,0.058153,-0.02211,0,0.022855,0,0,0,0.0066754,0.00025591,0.0020794,7.9471,0.0030036,0.0057297,6.4648e-09,0.14,0.08,0
0.0091392,0.0073844,0.0064046,0.00029125,0.0020088,0.00074283,0,0,0.057146,-0.022328,0,0.019314,0,0,0,0.0064936,0.00020228,0.0020088,6.8296,0.0029015,0.0056106,6.0019e-09,0.16,0.08,0
0.010272,0.0079073,0.0062641,0.00023231,0.0019489,0.00063208,0,0,0.056098,-0.022316,0,0.016434,0,0,0,0.0063297,0.00016679,0.0019489,5.9184,0.0028151,0.0054931,5.59e-09,0.18,0.08,0
0.011383,0.0083422,0.0061339,0.0001947,0.0018986,0.00053977,0,0,0.055059,-0.02215,0,0.014034,0,0,0,0.0061825,0.00014604,0.0018986,5.151,0.0027424,0.0053788,5.2257e-09,0.2,0.08,0
0.012474,0.0086923,0.0060142,0.00017363,0.0018564,0.00045976,0,0,0.054052,-0.021875,0,0.011954,0,0,0,0.0060502,0.00013766,0.0018564,4.4735,0.0026814,0.0052679,4.9022e-09,0.22,0.08,0
0.013545,0.0089597,0.0059047,0.00016567,0.0018211,0.00038678,0,0,0.053087,-0.021521,0,0.010056,0,0,0,0.0059307,0.00013972,0.0018211,3.8383,0.0026305,0.00516,4.613e-09,0.24,0.08,0
0.014597,0.0091456,0.0058045,0.00016805,0.0017918,0.00031644,0,0,0.052165,-0.021108,0,0.0082275,0,0,0,0.0058222,0.00015034,0.0017918,3.2033,0.0025881,0.0050551,4.3531e-09,0.26,0.08,0
0.015632,0.0092507,0.0057127,0.00017808,0.0017672,0.00024525,0,0,0.051291,-0.020659,0,0.0063764,0,0,0,0.0057236,0.00016723,0.0017672,2.5322,0.0025527,0.0049541,4.1193e-09,0.28,0.08,0
0.016649,0.0092751,0.0056289,0.00019278,0.0017465,0.00017072,0,0,0.050472,-0.020199,0,0.0044386,0,0,0,0.0056343,0.00018742,0.0017465,1.797,0.0025227,0.0048587,3.9109e-09,0.3,0.08,0
0.017651,0.0092194,0.0055528,0.00020862,0.0017284,9.1624e-05,0,0,0.049716,-0.019757,0,0.0023822,0,0,0,0.0055543,0.00020705,0.0017284,0.98194,0.0024966,0.0047721,3.7289e-09,0.32,0.08,0
0.018638,0.009085,0.005484,0.00022153,0.0017117,8.256e-06,0,0,0.04904,-0.019372,0,0.00021466,0,0,0,0.005484,0.00022152,0.0017117,0.089888,0.0024724,0.0046981,3.5755e-09,0.34,0.08,0
0.019612,0.0088749,0.0054222,0.00022718,0.0016948,-7.7417e-05,0,0,0.048456,-0.019079,0,-0.0020129,0,0,0,0.0054233,0.00022602,0.0016948,-0.85358,0.002448,0.0046406,3.4528e-09,0.36,0.08,0
0.020576,0.0085944,0.0053666,0.00022157,0.0016764,-0.00016183,0,0,0.047972,-0.018913,0,-0.0042076,0,0,0,0.0053717,0.00021648,0.0016764,-1.7998,0.0024215,0.0046023,3.3607e-09,0.38,0.08,0
0.021531,0.0082516,0.0053161,0.00020147,0.0016553,-0.00024037,0,0,0.047591,-0.018899,0,-0.0062495,0,0,0,0.0053274,0.00019019,0.0016553,-2.6848,0.002391,0.0045838,3.2964e-09,0.4,0.08,0
0.02248,0.0078582,0.00527,0.0001649,0.0016305,-0.00030779,0,0,0.047314,-0.019053,0,-0.0080024,0,0,0,0.0052885,0.00014641,0.0016305,-3.4377,0.0023551,0.0045839,3.2554e-09,0.42,0.08,0
0.023424,0.0074296,0.0052275,0.00010926,0.001601,-0.00035859,0,0,0.047144,-0.019393,0,-0.0093234,0,0,0,0.0052525,8.4258e-05,0.001601,-3.9883,0.0023126,0.0046013,3.2321e-09,0.44,0.08,0
0.024365,0.0069854,0.0051878,3.3433e-05,0.0015664,-0.00038545,0,0,0.047079,-0.019928,0,-0.010022,0,0,0,0.0052165,4.7681e-06,0.0015664,-4.2531,0.0022625,0.0046327,3.2192e-09,0.46,0.08,0
0.025307,0.0065497,0.0051477,-5.8895e-05,0.0015266,-0.00038096,0,0,0.047073,-0.020612,0,-0.0099051,0,0,0,0.0051754,-8.6622e-05,0.0015266,-4.1628,0.0022051,0.0046693,3.2023e-09,0.48,0.08,0
0.026248,0.0061501,0.0051037,-0.00014985,0.0014862,-0.00034072,0,0,0.047028,-0.021268,0,-0.0088586,0,0,0,0.0051257,-0.00017185,0.0014862,-3.6952,0.0021467,0.0046936,3.1632e-09,0.5,0.08,0
0.027188,0.0058142,0.0050551,-0.00021309,0.0014526,-0.00027268,0,0,0.046833,-0.021654,0,-0.0070897,0,0,0,0.0050692,-0.00022717,0.0014526,-2.9551,0.0020982,0.0046879,3.0926e-09,0.52,0.08,0
0.028122,0.0055638,0.0050055,-0.00023555,0.001431,-0.00019402,0,0,0.046468,-0.021665,0,-0.0050445,0,0,0,0.0050126,-0.00024273,0.001431,-2.1172,0.002067,0.0046502,3.0002e-09,0.54,0.08,0
0.029047,0.0054116,0.0049632,-0.0002291,0.0014202,-0.00012241,0,0,0.046059,-0.021441,0,-0.0031827,0,0,0,0.0049661,-0.00023198,0.0014202,-1.3498,0.0020514,0.0046002,2.9128e-09,0.56,0.08,0
0.029964,0.0053628,0.004939,-0.00021915,0.0014159,-6.2763e-05,0,0,0.045799,-0.021256,0,-0.0016318,0,0,0,0.0049397,-0.00021992,0.0014159,-0.69702,0.0020453,0.004567,2.8608e-09,0.58,0.08,0
0.030879,0.0054188,0.004941,-0.00022332,0.0014153,-7.8894e-06,0,0,0.045834,-0.021302,0,-0.00020512,0,0,0,0.004941,-0.00022333,0.0014153,-0.087529,0.0020443,0.0045709,2.8648e-09,0.6,0.08,0
0.031797,0.0055811,0.004969,-0.00024185,0.0014182,5.5212e-05,0,0,0.046161,-0.02158,0,0.0014355,0,0,0,0.0049696,-0.00024243,0.0014182,0.60699,0.0020484,0.0046117,2.9246e-09,0.62,0.08,0
0.032725,0.0058504,0.0050143,-0.00025739,0.0014271,0.00013399,0,0,0.046634,-0.021898,0,0.0034837,0,0,0,0.0050177,-0.0002608,0.0014271,1.455,0.0020613,0.0046693,3.019e-09,0.64,0.08,0
0.033663,0.006224,0.0050655,-0.00024425,0.0014464,0.00022382,0,0,0.047048,-0.021978,0,0.0058193,0,0,0,0.0050749,-0.00025367,0.0014464,2.4095,0.0020892,0.0047143,3.1178e-09,0.66,0.08,0
0.034607,0.0066919,0.0051132,-0.00018977,0.001477,0.00030705,0,0,0.04727,-0.021668,0,0.0079834,0,0,0,0.0051309,-0.00020749,0.001477,3.3028,0.0021335,0.0047269,3.1938e-09,0.68,0.08,0
0.035554,0.0072345,0.0051531,-0.0001063,0.001514,0.00036613,0,0,0.047307,-0.021064,0,0.0095194,0,0,0,0.0051784,-0.00013166,0.001514,3.9632,0.0021869,0.0047081,3.2361e-09,0.7,0.08,0
0.036499,0.0078264,0.0051852,-1.9868e-05,0.0015496,0.00039243,0,0,0.047262,-0.020403,0,0.010203,0,0,0,0.0052146,-4.9289e-05,0.0015496,4.2875,0.0022383,0.0046742,3.2512e-09,0.72,0.08,0
0.037444,0.0084416,0.0052122,5.158e-05,0.0015791,0.00038973,0,0,0.04723,-0.019858,0,0.010133,0,0,0,0.0052415,2.2313e-05,0.0015791,4.2945,0.002281,0.0046409,3.2539e-09,0.74,0.08,0
0.038388,0.0090573,0.005237,0.0001041,0.0016023,0.00036484,0,0,0.047251,-0.019477,0,0.0094858,0,0,0,0.0052628,7.8299e-05,0.0016023,4.0454,0.0023145,0.0046152,3.2554e-09,0.76,0.08,0
0.039334,0.009655,0.00526,0.00013837,0.0016195,0.00032468,0,0,0.047326,-0.019255,0,0.0084417,0,0,0,0.0052805,0.00011786,0.0016195,3.613,0.0023393,0.0045995,3.2607e-09,0.78,0.08,0
0.040282,0.01022,0.0052817,0.00015631,0.0016314,0.00027459,0,0,0.047454,-0.019176,0,0.0071393,0,0,0,0.0052964,0.00014164,0.0016314,3.0579,0.0023565,0.0045947,3.2735e-09,0.8,0.08,0
0.041232,0.010741,0.0053025,0.00015916,0.0016385,0.00021994,0,0,0.047632,-0.019231,0,0.0057184,0,0,0,0.0053118,0.00014977,0.0016385,2.4441,0.0023667,0.004602,3.2967e-09,0.82,0.08,0
0.042187,0.011211,0.0053231,0.00014938,0.0016417,0.00016584,0,0,0.047857,-0.019401,0,0.0043117,0,0,0,0.0053284,0.00014407,0.0016417,1.834,0.0023714,0.0046212,3.3321e-09,0.84,0.08,0
0.043146,0.011626,0.0053437,0.00013034,0.0016422,0.00011664,0,0,0.048119,-0.019654,0,0.0030326,0,0,0,0.0053463,0.00012773,0.0016422,1.281,0.0023721,0.0046501,3.3781e-09,0.86,0.08,0
0.044112,0.011982,0.0053639,0.00010584,0.0016409,7.5343e-05,0,0,0.048399,-0.019956,0,0.0019589,0,0,0,0.005365,0.00010476,0.0016409,0.82077,0.0023702,0.004685,3.4307e-09,0.88,0.08,0
0.045082,0.01228,0.005383,7.9533e-05,0.0016388,4.3462e-05,0,0,0.048675,-0.02027,0,0.00113,0,0,0,0.0053833,7.9176e-05,0.0016388,0.4695,0.0023671,0.0047216,3.4849e-09,0.9,0.08,0
0.046059,0.012521,0.0053999,5.4461e-05,0.0016363,2.1149e-05,0,0,0.048927,-0.020564,0,0.00054987,0,0,0,0.0054,5.4377e-05,0.0016363,0.22668,0.0023636,0.0047562,3.5356e-09,0.92,0.08,0
0.047039,0.012706,0.0054139,3.294e-05,0.0016341,7.5047e-06,0,0,0.049139,-0.020815,0,0.00019512,0,0,0,0.005414,3.293e-05,0.0016341,0.079909,0.0023603,0.0047858,3.5788e-09,0.94,0.08,0
0.048024,0.012837,0.0054244,1.658e-05,0.0016323,8.8924e-07,0,0,0.049298,-0.021004,0,2.312e-05,0,0,0,0.0054244,1.658e-05,0.0016323,0.0094214,0.0023578,0.0048081,3.6114e-09,0.96,0.08,0
0.049011,0.012914,0.0054309,6.3971e-06,0.0016312,-8.146e-07,0,0,0.049396,-0.021122,0,-2.1179e-05,0,0,0,0.0054309,6.397e-06,0.0016312,-0.0086041,0.0023561,0.004822,3.6317e-09,0.98,0.08,0
0.05,0.01294,0.0054331,2.9449e-06,0.0016308,4.9683e-05,0,0,0.049429,-0.021162,0,0.0012918,0,0,0,0.0054335,2.4904e-06,0.0016308,0.52417,0.0023556,0.0048274,3.6398e-09,1,0.08,0
0,0,0.0067013,0.002872,0.002872,0.0019402,0,0,0.049781,1.0842e-18,0,0.050445,0,0,0,0.0075125,0.0020608,0.002872,22.69,0.0041484,0.0050948,6.2155e-09,0,0.1,0
0.00099562,0.0010089,0.0066674,0.0024492,0.002735,0.0019164,0,0,0.051122,-0.0037154,0,0.049825,0,0,0,0.007408,0.0017086,0.002735,21.129,0.0039505,0.0052619,6.533e-09,0.02,0.1,0
0.0020449,0.002031,0.0067683,0.0019995,0.0026303,0.0018573,0,0,0.053793,-0.0082009,0,0.048291,0,0,0,0.0074063,0.0013615,0.0026303,18.959,0.0037994,0.0055209,7.1276e-09,0.04,0.1,0
0.0031474,0.0030325,0.0068402,0.0015572,0.0025192,0.0017243,0,0,0.056173,-0.012506,0,0.044832,0,0,0,0.0073532,0.0010442,0.0025192,16.568,0.0036389,0.005716,7.4817e-09,0.06,0.1,0
0.0042918,0.0039806,0.0068659,0.0011839,0.0024149,0.001544,0,0,0.057863,-0.016004,0,0.040145,0,0,0,0.0072584,0.00079143,0.0024149,14.262,0.0034883,0.0058274,7.5666e-09,0.08,0.1,0
0.0054619,0.0048529,0.0068418,0.00089478,0.002321,0.0013504,0,0,0.058771,-0.01854,0,0.035111,0,0,0,0.0071341,0.00060249,0.002321,12.213,0.0033525,0.0058643,7.4379e-09,0.1,0.1,0
0.0066426,0.0056384,0.0067775,0.00067995,0.0022372,0.0011679,0,0,0.059024,-0.020245,0,0.030364,0,0,0,0.0069936,0.00046393,0.0022372,10.48,0.0032316,0.0058482,7.1782e-09,0.12,0.1,0
0.0078228,0.006334,0.0066875,0.00052291,0.0021631,0.0010071,0,0,0.058817,-0.021323,0,0.026184,0,0,0,0.0068479,0.00036256,0.0021631,9.047,0.0031245,0.0057986,6.855e-09,0.14,0.1,0
0.0089953,0.0069406,0.0065846,0.00041018,0.0020984,0.00087001,0,0,0.05832,-0.021947,0,0.02262,0,0,0,0.0067048,0.00028993,0.0020984,7.8693,0.0030311,0.0057289,6.512e-09,0.16,0.1,0
0.010156,0.0074607,0.0064772,0.00033157,0.0020426,0.00075407,0,0,0.057649,-0.022244,0,0.019606,0,0,0,0.0065683,0.00024039,0.0020426,6.894,0.0029504,0.0056468,6.1716e-09,0.18,0.1,0
0.011301,0.0078968,0.0063699,0.00027977,0.0019949,0.00065499,0,0,0.056875,-0.022297,0,0.01703,0,0,0,0.0064395,0.00021012,0.0019949,6.0697,0.0028815,0.0055563,5.843e-09,0.2,0.1,0
0.012431,0.0082511,0.0062649,0.00024952,0.0019543,0.00056805,0,0,0.056037,-0.022162,0,0.014769,0,0,0,0.0063181,0.00019635,0.0019543,5.3476,0.0028229,0.0054593,5.5287e-09,0.22,0.1,0
0.013543,0.008525,0.0061628,0.00023684,0.0019199,0.00048867,0,0,0.055158,-0.02188,0,0.012705,0,0,0,0.0062028,0.00019681,0.0019199,4.6826,0.0027732,0.0053565,5.2278e-09,0.24,0.1,0
0.014637,0.0087192,0.0060635,0.00023832,0.0018906,0.00041268,0,0,0.054249,-0.021479,0,0.01073,0,0,0,0.0060926,0.00020923,0.0018906,4.0322,0.0027308,0.0052487,4.9387e-09,0.26,0.1,0
0.015713,0.0088337,0.0059666,0.00025057,0.0018651,0.00033647,0,0,0.053319,-0.02099,0,0.0087483,0,0,0,0.0059863,0.00023083,0.0018651,3.3573,0.0026941,0.0051372,4.6611e-09,0.28,0.1,0
0.01677,0.0088682,0.0058716,0.00026962,0.0018424,0.0002573,0,0,0.05238,-0.020446,0,0.0066897,0,0,0,0.0058834,0.00025783,0.0018424,2.6242,0.0026612,0.0050243,4.3967e-09,0.3,0.1,0
0.017808,0.0088226,0.0057784,0.00029059,0.0018207,0.00017361,0,0,0.05145,-0.019891,0,0.0045139,0,0,0,0.0057839,0.0002851,0.0018207,1.8102,0.0026299,0.0049143,4.1493e-09,0.32,0.1,0
0.018828,0.0086973,0.0056869,0.00030752,0.0017983,8.5602e-05,0,0,0.050551,-0.01938,0,0.0022257,0,0,0,0.0056882,0.00030615,0.0017983,0.91144,0.0025976,0.0048127,3.9246e-09,0.34,0.1,0
0.01983,0.0084943,0.0055968,0.00031393,0.0017732,-4.4021e-06,0,0,0.049707,-0.018971,0,-0.00011445,0,0,0,0.0055968,0.00031393,0.0017732,-0.047743,0.0025613,0.0047254,3.7277e-09,0.36,0.1,0
0.020816,0.0082182,0.0055069,0.00030377,0.0017432,-9.1991e-05,0,0,0.048928,-0.018713,0,-0.0023918,0,0,0,0.0055085,0.00030215,0.0017432,-1.0126,0.002518,0.0046562,3.5597e-09,0.38,0.1,0
0.021787,0.0078767,0.0054153,0.00027326,0.0017066,-0.00017135,0,0,0.048213,-0.018633,0,-0.0044551,0,0,0,0.005421,0.00026756,0.0017066,-1.9065,0.002465,0.0046057,3.416e-09,0.4,0.1,0
0.022745,0.007481,0.0053188,0.00022044,0.0016618,-0.00023729,0,0,0.047541,-0.018737,0,-0.0061697,0,0,0,0.0053298,0.00020942,0.0016618,-2.6591,0.0024003,0.0045707,3.2867e-09,0.42,0.1,0
0.023689,0.0070461,0.0052189,0.0001472,0.0016098,-0.00028532,0,0,0.046918,-0.019014,0,-0.0074184,0,0,0,0.0052349,0.0001312,0.0016098,-3.2098,0.0023253,0.0045483,3.1669e-09,0.44,0.1,0
0.024621,0.0065912,0.0051144,4.625e-05,0.0015482,-0.00031201,0,0,0.04636,-0.019525,0,-0.0081121,0,0,0,0.0051335,2.7114e-05,0.0015482,-3.5096,0.0022363,0.0045411,3.0536e-09,0.46,0.1,0
0.025543,0.006141,0.0050054,-8.2484e-05,0.0014769,-0.00030495,0,0,0.045871,-0.020272,0,-0.0079287,0,0,0,0.0050237,-0.0001007,0.0014769,-3.4178,0.0021333,0.0045457,2.9387e-09,0.48,0.1,0
0.026456,0.0057275,0.0048865,-0.00021777,0.0014006,-0.00025793,0,0,0.045317,-0.021039,0,-0.0067063,0,0,0,0.0048995,-0.00023077,0.0014006,-2.8855,0.0020231,0.00454,2.7982e-09,0.5,0.1,0
0.027356,0.0053846,0.0047619,-0.00030167,0.0013381,-0.00017739,0,0,0.04451,-0.021317,0,-0.0046121,0,0,0,0.0047681,-0.00030788,0.0013381,-2.004,0.0019328,0.0044855,2.6196e-09,0.52,0.1,0
0.028236,0.0051367,0.0046428,-0.00030479,0.0013014,-0.00010016,0,0,0.043438,-0.020881,0,-0.0026041,0,0,0,0.0046448,-0.00030682,0.0013014,-1.1592,0.0018798,0.0043752,2.4247e-09,0.54,0.1,0
0.029093,0.0049927,0.0045423,-0.00026522,0.0012831,-5.22e-05,0,0,0.042369,-0.020129,0,-0.0013572,0,0,0,0.0045429,-0.00026579,0.0012831,-0.62202,0.0018534,0.0042514,2.2536e-09,0.56,0.1,0
0.029931,0.00495,0.0044842,-0.00023222,0.0012756,-3.7629e-05,0,0,0.041712,-0.019602,0,-0.00097834,0,0,0,0.0044845,-0.00023252,0.0012756,-0.45708,0.0018425,0.0041726,2.155e-09,0.58,0.1,0
0.030762,0.0050051,0.004484,-0.00023798,0.0012738,-3.4966e-05,0,0,0.041733,-0.019653,0,-0.00090912,0,0,0,0.0044843,-0.00023824,0.0012738,-0.42424,0.00184,0.0041771,2.1572e-09,0.6,0.1,0
0.0316,0.0051592,0.0045417,-0.00028305,0.0012776,-1.6791e-05,0,0,0.042434,-0.020289,0,-0.00043656,0,0,0,0.0045418,-0.00028311,0.0012776,-0.19939,0.0018454,0.0042644,2.2596e-09,0.62,0.1,0
0.032459,0.0054183,0.0046415,-0.00033596,0.0012917,3.8971e-05,0,0,0.043548,-0.021159,0,0.0010133,0,0,0,0.0046418,-0.00033627,0.0012917,0.44856,0.0018657,0.0043963,2.4332e-09,0.64,0.1,0
0.033342,0.0057873,0.0047588,-0.00034702,0.0013235,0.00012895,0,0,0.044658,-0.021717,0,0.0033528,0,0,0,0.004762,-0.00035027,0.0013235,1.4459,0.0019118,0.0045144,2.6296e-09,0.66,0.1,0
0.034245,0.0062605,0.0048796,-0.00027653,0.0013809,0.00022741,0,0,0.045483,-0.021547,0,0.0059128,0,0,0,0.0048896,-0.00028654,0.0013809,2.5205,0.0019947,0.0045763,2.8103e-09,0.68,0.1,0
0.035162,0.0068158,0.004992,-0.00015237,0.0014519,0.0002969,0,0,0.046021,-0.020855,0,0.0077195,0,0,0,0.0050091,-0.00016945,0.0014519,3.2922,0.0020972,0.004588,2.953e-09,0.7,0.1,0
0.036086,0.0074216,0.0050906,-3.2358e-05,0.0015175,0.00033002,0,0,0.046451,-0.020148,0,0.0085804,0,0,0,0.0051118,-5.3529e-05,0.0015175,3.6707,0.0021919,0.0045863,3.0659e-09,0.72,0.1,0
0.03702,0.0080476,0.0051806,6.2042e-05,0.0015728,0.00033216,0,0,0.046901,-0.01964,0,0.0086363,0,0,0,0.0052021,4.0576e-05,0.0015728,3.6975,0.0022718,0.0045913,3.1688e-09,0.74,0.1,0
0.037962,0.0086704,0.0052614,0.00013059,0.0016176,0.00031505,0,0,0.04737,-0.019331,0,0.0081912,0,0,0,0.0052807,0.00011132,0.0016176,3.5006,0.0023366,0.0046049,3.2658e-09,0.76,0.1,0
0.038915,0.0092716,0.0053341,0.00017994,0.0016542,0.00028157,0,0,0.047839,-0.019166,0,0.0073208,0,0,0,0.0053495,0.0001646,0.0016542,3.1177,0.0023894,0.0046237,3.3571e-09,0.78,0.1,0
0.039876,0.0098372,0.0053971,0.00020719,0.0016813,0.00023598,0,0,0.048306,-0.019163,0,0.0061356,0,0,0,0.0054078,0.00019648,0.0016813,2.5981,0.0024285,0.0046503,3.4454e-09,0.8,0.1,0
0.040847,0.010356,0.0054534,0.00021308,0.0016999,0.00018368,0,0,0.048795,-0.019329,0,0.0047755,0,0,0,0.0054598,0.00020665,0.0016999,2.005,0.0024555,0.0046884,3.5393e-09,0.82,0.1,0
0.041828,0.010821,0.0055047,0.00020027,0.0017115,0.00013111,0,0,0.049311,-0.019646,0,0.0034089,0,0,0,0.0055079,0.00019703,0.0017115,1.415,0.0024721,0.0047388,3.6427e-09,0.84,0.1,0
0.042819,0.011229,0.0055518,0.00017385,0.0017177,8.3723e-05,0,0,0.049843,-0.02007,0,0.0021768,0,0,0,0.0055531,0.00017255,0.0017177,0.89169,0.0024811,0.0047983,3.7538e-09,0.86,0.1,0
0.043821,0.011577,0.0055944,0.00013962,0.0017202,4.513e-05,0,0,0.050364,-0.020547,0,0.0011734,0,0,0,0.0055947,0.00013925,0.0017202,0.47399,0.0024847,0.0048618,3.8668e-09,0.88,0.1,0
0.044834,0.011867,0.0056317,0.00010298,0.0017204,1.6944e-05,0,0,0.050847,-0.021027,0,0.00044053,0,0,0,0.0056318,0.00010293,0.0017204,0.17559,0.002485,0.0049236,3.974e-09,0.9,0.1,0
0.045855,0.012101,0.005663,6.8243e-05,0.0017194,-8.4381e-07,0,0,0.051268,-0.021465,0,-2.1939e-05,0,0,0,0.005663,6.8242e-05,0.0017194,-0.0086414,0.0024836,0.004979,4.0689e-09,0.92,0.1,0
0.046885,0.01228,0.0056877,3.8579e-05,0.0017179,-9.3794e-06,0,0,0.051608,-0.021831,0,-0.00024386,0,0,0,0.0056878,3.8564e-05,0.0017179,-0.095128,0.0024814,0.0050246,4.1465e-09,0.94,0.1,0
0.04792,0.012406,0.0057055,1.6116e-05,0.0017165,-1.0526e-05,0,0,0.051857,-0.022105,0,-0.00027367,0,0,0,0.0057055,1.6097e-05,0.0017165,-0.106,0.0024794,0.0050583,4.2036e-09,0.96,0.1,0
0.048959,0.012481,0.0057162,2.1708e-06,0.0017155,-6.564e-06,0,0,0.052009,-0.022274,0,-0.00017066,0,0,0,0.0057162,2.1633e-06,0.0017155,-0.065819,0.002478,0.005079,4.2384e-09,0.98,0.1,0
0.05,0.012506,0.0057198,-2.551e-06,0.0017152,4.782e-05,0,0,0.05206,-0.02233,0,0.0012433,0,0,0,0.0057202,-2.9506e-06,0.0017152,0.47876,0.0024775,0.0050866,4.2513e-09,1,0.1,0
0,0,0.0066217,0.0028379,0.0028379,0.0018084,0,0,0.049189,1.5179e-18,0,0.047018,0,0,0,0.0073469,0.0021126,0.0028379,21.853,0.0040991,0.004912,5.6422e-09,0,0.12,0
0.00098379,0.00094035,0.006593,0.0024657,0.0027176,0.0017943,0,0,0.05038,-0.0032751,0,0.046651,0,0,0,0.007264,0.0017947,0.0027176,20.503,0.0039254,0.0050712,5.9572e-09,0.02,0.12,0
0.0020152,0.0018811,0.0066968,0.0020909,0.0026363,0.001752,0,0,0.052786,-0.0070898,0,0.045552,0,0,0,0.0072875,0.0015003,0.0026363,18.631,0.003808,0.0053111,6.5234e-09,0.04,0.12,0
0.0030952,0.002802,0.0067829,0.0017084,0.0025474,0.0016612,0,0,0.055062,-0.010907,0,0.04319,0,0,0,0.0072783,0.0012129,0.0025474,16.607,0.0036795,0.0055205,6.9682e-09,0.06,0.12,0
0.0042177,0.0036807,0.0068382,0.0013612,0.0024598,0.0015314,0,0,0.056919,-0.014282,0,0.039817,0,0,0,0.0072373,0.00096205,0.0024598,14.607,0.003553,0.0056765,7.2359e-09,0.08,0.12,0
0.005372,0.0044994,0.0068567,0.0010707,0.0023782,0.0013818,0,0,0.058221,-0.016998,0,0.035927,0,0,0,0.0071698,0.00075761,0.0023782,12.765,0.0034352,0.005775,7.3286e-09,0.1,0.12,0
0.0065465,0.0052465,0.0068406,0.00083977,0.0023041,0.0012301,0,0,0.058975,-0.019037,0,0.031983,0,0,0,0.007083,0.0005974,0.0023041,11.146,0.0033282,0.005823,7.2804e-09,0.12,0.12,0
0.007731,0.0059162,0.0067971,0.00066229,0.0022378,0.0010879,0,0,0.059271,-0.020482,0,0.028286,0,0,0,0.0069843,0.00047508,0.0022378,9.764,0.0032324,0.0058313,7.1342e-09,0.14,0.12,0
0.0089173,0.0065065,0.0067346,0.00052961,0.0021793,0.00096048,0,0,0.059219,-0.021445,0,0.024972,0,0,0,0.0068798,0.00038433,0.0021793,8.6009,0.0031478,0.0058099,6.926e-09,0.16,0.12,0
0.0101,0.0070176,0.0066599,0.00043389,0.0021281,0.00084864,0,0,0.058913,-0.022025,0,0.022065,0,0,0,0.0067735,0.00032029,0.0021281,7.6245,0.003074,0.0057659,6.6809e-09,0.18,0.12,0
0.011274,0.0074503,0.0065779,0.00036875,0.002084,0.00075071,0,0,0.05842,-0.022298,0,0.019519,0,0,0,0.0066673,0.00027927,0.002084,6.7969,0.0030102,0.005704,6.4139e-09,0.2,0.12,0
0.012436,0.0078058,0.0064912,0.00032919,0.0020461,0.00066374,0,0,0.057786,-0.02232,0,0.017257,0,0,0,0.0065618,0.0002585,0.0020461,6.0787,0.0029555,0.0056267,6.1327e-09,0.22,0.12,0
0.013585,0.0080845,0.0064009,0.00031114,0.0020136,0.00058423,0,0,0.057035,-0.022132,0,0.01519,0,0,0,0.0064565,0.0002556,0.0020136,5.4307,0.0029086,0.0055354,5.8406e-09,0.24,0.12,0
0.014718,0.0082865,0.0063074,0.00031097,0.0019855,0.00050856,0,0,0.056185,-0.021769,0,0.013222,0,0,0,0.0063502,0.00026814,0.0019855,4.8134,0.002868,0.005431,5.5393e-09,0.26,0.12,0
0.015833,0.0084111,0.0062103,0.00032485,0.0019605,0.00043325,0,0,0.055247,-0.021264,0,0.011265,0,0,0,0.006242,0.00029313,0.0019605,4.1877,0.0028319,0.0053151,5.2305e-09,0.28,0.12,0
0.016928,0.0084572,0.0061093,0.00034811,0.0019372,0.0003553,0,0,0.054237,-0.020658,0,0.0092377,0,0,0,0.0061312,0.00032628,0.0019372,3.5157,0.0027982,0.0051904,4.9184e-09,0.3,0.12,0
0.018002,0.0084237,0.0060046,0.00037454,0.0019137,0.0002727,0,0,0.053181,-0.02001,0,0.0070901,0,0,0,0.0060178,0.00036136,0.0019137,2.7666,0.0027643,0.005062,4.6105e-09,0.32,0.12,0
0.019055,0.0083098,0.0058965,0.00039607,0.0018878,0.0001853,0,0,0.052114,-0.019392,0,0.0048177,0,0,0,0.0059028,0.00038984,0.0018878,1.9272,0.0027268,0.0049374,4.3177e-09,0.34,0.12,0
0.020087,0.0081161,0.0057852,0.00040307,0.0018565,9.5709e-05,0,0,0.051073,-0.018894,0,0.0024884,0,0,0,0.0057869,0.00040137,0.0018565,1.0184,0.0026816,0.0048254,4.0509e-09,0.36,0.12,0
0.021098,0.0078458,0.0056696,0.00038658,0.0018169,9.991e-06,0,0,0.050086,-0.018594,0,0.00025977,0,0,0,0.0056697,0.00038656,0.0018169,0.10835,0.0026244,0.0047329,3.8155e-09,0.38,0.12,0
0.02209,0.0075063,0.0055452,0.0003402,0.0017656,-6.3731e-05,0,0,0.049135,-0.018531,0,-0.001657,0,0,0,0.005546,0.00033942,0.0017656,-0.7014,0.0025503,0.0046602,3.6037e-09,0.4,0.12,0
0.023063,0.0071087,0.0054068,0.00026584,0.0017018,-0.00011694,0,0,0.048165,-0.018667,0,-0.0030403,0,0,0,0.0054095,0.00026318,0.0017018,-1.3024,0.0024581,0.0045989,3.3972e-09,0.42,0.12,0
0.024017,0.0066691,0.0052425,0.00016429,0.001622,-0.00014832,0,0,0.047066,-0.018951,0,-0.0038565,0,0,0,0.0052468,0.00015996,0.001622,-1.6716,0.0023429,0.0045361,3.1686e-09,0.44,0.12,0
0.024946,0.0062044,0.0050692,5.4643e-05,0.0015371,-0.00015677,0,0,0.045917,-0.019273,0,-0.0040761,0,0,0,0.0050741,4.9747e-05,0.0015371,-1.789,0.0022203,0.0044703,2.9342e-09,0.46,0.12,0
0.025853,0.0057388,0.0048717,-0.00011045,0.0014284,-0.00014765,0,0,0.044763,-0.020005,0,-0.003839,0,0,0,0.0048761,-0.00011482,0.0014284,-1.6961,0.0020632,0.0044259,2.6967e-09,0.48,0.12,0
0.026737,0.0053086,0.0046502,-0.00030882,0.0013024,-8.0392e-05,0,0,0.043521,-0.020946,0,-0.0020902,0,0,0,0.0046515,-0.00031012,0.0013024,-0.92851,0.0018813,0.0043838,2.4365e-09,0.5,0.12,0
0.027594,0.0049616,0.0044217,-0.00040602,0.0012047,1.3059e-05,0,0,0.041821,-0.020939,0,0.00033954,0,0,0,0.0044217,-0.00040605,0.0012047,0.15499,0.0017401,0.0042574,2.1366e-09,0.52,0.12,0
0.028409,0.0047286,0.0042044,-0.00034939,0.0011565,8.5662e-05,0,0,0.039623,-0.019577,0,0.0022272,0,0,0,0.004206,-0.000351,0.0011565,1.0773,0.0016705,0.0040211,1.8267e-09,0.54,0.12,0
0.029179,0.0046065,0.0040297,-0.00023236,0.0011392,7.5702e-05,0,0,0.037576,-0.01783,0,0.0019682,0,0,0,0.0040311,-0.0002337,0.0011392,1.0172,0.0016455,0.0037707,1.5738e-09,0.56,0.12,0
0.029913,0.0045787,0.00392,-0.00017328,0.001124,8.1487e-06,0,0,0.036348,-0.016865,0,0.00021186,0,0,0,0.00392,-0.0001733,0.001124,0.11406,0.0016236,0.0036232,1.4293e-09,0.58,0.12,0
0.030633,0.0046327,0.0039179,-0.00018051,0.0011212,-7.8413e-05,0,0,0.036357,-0.016923,0,-0.0020387,0,0,0,0.0039194,-0.00018201,0.0011212,-1.0957,0.0016195,0.0036298,1.4316e-09,0.6,0.12,0
0.031367,0.0047695,0.0040238,-0.000255,0.0011306,-0.0001427,0,0,0.037611,-0.018014,0,-0.0037101,0,0,0,0.0040286,-0.00025976,0.0011306,-1.908,0.0016332,0.0037895,1.5799e-09,0.62,0.12,0
0.032137,0.005004,0.004195,-0.0003902,0.0011414,-0.00014506,0,0,0.039696,-0.019911,0,-0.0037714,0,0,0,0.0041996,-0.00039479,0.0011414,-1.8102,0.0016488,0.004051,1.8336e-09,0.64,0.12,0
0.032955,0.0053554,0.0044082,-0.00046751,0.0011822,-5.878e-05,0,0,0.041938,-0.021446,0,-0.0015283,0,0,0,0.0044089,-0.00046822,0.0011822,-0.69061,0.0017076,0.0042966,2.1413e-09,0.66,0.12,0
0.033815,0.00583,0.0046312,-0.00038994,0.0012724,5.5126e-05,0,0,0.043664,-0.02161,0,0.0014333,0,0,0,0.0046318,-0.00039055,0.0012724,0.62895,0.0018379,0.0044314,2.4412e-09,0.68,0.12,0
0.034701,0.0064003,0.0048448,-0.00020671,0.0013914,0.00014838,0,0,0.044894,-0.020776,0,0.0038578,0,0,0,0.0048491,-0.00021106,0.0013914,1.681,0.0020098,0.0044794,2.7038e-09,0.7,0.12,0
0.035611,0.0070205,0.0050308,-5.3435e-05,0.0014932,0.00018744,0,0,0.045989,-0.020106,0,0.0048733,0,0,0,0.0050377,-6.0335e-05,0.0014932,2.1084,0.0021569,0.0045259,2.9392e-09,0.72,0.12,0
0.036541,0.007656,0.0051887,4.7e-05,0.0015707,0.00021197,0,0,0.047034,-0.019808,0,0.0055112,0,0,0,0.0051974,3.8276e-05,0.0015707,2.3567,0.0022688,0.004589,3.1619e-09,0.74,0.12,0
0.037492,0.0082841,0.0053336,0.00014202,0.0016427,0.00021599,0,0,0.047982,-0.019509,0,0.0056158,0,0,0,0.0053426,0.00013305,0.0016427,2.3783,0.0023728,0.0046426,3.3671e-09,0.76,0.12,0
0.03846,0.0088884,0.0054487,0.00021186,0.0016982,0.00019972,0,0,0.048757,-0.019322,0,0.0051927,0,0,0,0.0054563,0.00020425,0.0016982,2.1809,0.0024529,0.0046872,3.5342e-09,0.78,0.12,0
0.039442,0.0094535,0.0055458,0.00025393,0.0017399,0.00016411,0,0,0.049476,-0.019318,0,0.0042667,0,0,0,0.0055509,0.00024885,0.0017399,1.7745,0.0025132,0.0047359,3.688e-09,0.8,0.12,0
0.040439,0.0099682,0.0056303,0.00026459,0.0017685,0.00011791,0,0,0.050204,-0.01955,0,0.0030656,0,0,0,0.0056329,0.000262,0.0017685,1.2582,0.0025545,0.0047984,3.846e-09,0.82,0.12,0
0.041451,0.010426,0.0057069,0.00024856,0.0017866,7.0137e-05,0,0,0.050963,-0.019995,0,0.0018236,0,0,0,0.0057078,0.00024766,0.0017866,0.73606,0.0025807,0.0048763,4.0167e-09,0.84,0.12,0
0.042478,0.010823,0.0057763,0.00021354,0.001797,2.8165e-05,0,0,0.051732,-0.020584,0,0.00073228,0,0,0,0.0057765,0.0002134,0.001797,0.29008,0.0025956,0.0049645,4.1961e-09,0.86,0.12,0
0.04352,0.01116,0.0058381,0.00016835,0.001802,-3.8464e-06,0,0,0.052471,-0.021237,0,-0.00010001,0,0,0,0.0058381,0.00016834,0.001802,-0.038869,0.0026028,0.005055,4.3736e-09,0.88,0.12,0
0.044576,0.011439,0.0058912,0.00012046,0.0018035,-2.4442e-05,0,0,0.05314,-0.02188,0,-0.00063549,0,0,0,0.0058913,0.00012035,0.0018035,-0.24267,0.0026051,0.0051404,4.5381e-09,0.9,0.12,0
0.045645,0.011662,0.0059348,7.554e-05,0.0018031,-3.4058e-05,0,0,0.053712,-0.022458,0,-0.00088551,0,0,0,0.005935,7.5342e-05,0.0018031,-0.33303,0.0026045,0.005215,4.6804e-09,0.92,0.12,0
0.046725,0.011833,0.0059685,3.7494e-05,0.0018018,-3.4215e-05,0,0,0.054168,-0.022936,0,-0.00088958,0,0,0,0.0059687,3.7296e-05,0.0018018,-0.33051,0.0026026,0.0052754,4.7947e-09,0.94,0.12,0
0.047812,0.011952,0.0059924,8.8479e-06,0.0018004,-2.6997e-05,0,0,0.054497,-0.02329,0,-0.00070192,0,0,0,0.0059926,8.7261e-06,0.0018004,-0.2585,0.0026006,0.0053193,4.8776e-09,0.96,0.12,0
0.048905,0.012023,0.0060067,-8.8712e-06,0.0017993,-1.4764e-05,0,0,0.054695,-0.023507,0,-0.00038386,0,0,0,0.0060067,-8.9075e-06,0.0017993,-0.14062,0.002599,0.005346,4.9277e-09,0.98,0.12,0
0.05,0.012047,0.0060114,-1.486e-05,0.001799,4.5307e-05,0,0,0.054762,-0.02358,0,0.001178,0,0,0,0.0060117,-1.5201e-05,0.001799,0.43073,0.0025985,0.0053555,4.9456e-09,1,0.12,0
0,0,0.0065998,0.0028285,0.0028285,0.0016883,0,0,0.049027,-2.1684e-19,0,0.043895,0,0,0,0.0072451,0.0021832,0.0028285,20.919,0.0040856,0.0047722,5.2392e-09,0,0.14,0
0.00098054,0.00087789,0.0065729,0.0024822,0.0027165,0.0016791,0,0,0.050133,-0.0030463,0,0.043657,0,0,0,0.0071739,0.0018813,0.0027165,19.692,0.0039239,0.0049283,5.5573e-09,0.02,0.14,0
0.0020053,0.0017474,0.0066774,0.0021523,0.0026489,0.001645,0,0,0.05237,-0.0064554,0,0.042771,0,0,0,0.0072122,0.0016175,0.0026489,18.01,0.0038262,0.0051569,6.1047e-09,0.04,0.14,0
0.0030753,0.0025962,0.0067706,0.0018129,0.0025751,0.0015794,0,0,0.054542,-0.0099075,0,0.041064,0,0,0,0.007231,0.0013526,0.0025751,16.252,0.0037195,0.0053725,6.5954e-09,0.06,0.14,0
0.004187,0.0034093,0.0068428,0.0014931,0.0025008,0.0014845,0,0,0.056446,-0.0131,0,0.038596,0,0,0,0.0072271,0.0011088,0.0025008,14.515,0.0036122,0.0055547,6.974e-09,0.08,0.14,0
0.0053332,0.004173,0.006888,0.0012118,0.0024299,0.0013702,0,0,0.057955,-0.015836,0,0.035626,0,0,0,0.0072015,0.00089831,0.0024299,12.886,0.0035099,0.005694,7.2192e-09,0.1,0.14,0
0.0065052,0.004877,0.0069051,0.00097672,0.0023645,0.0012484,0,0,0.059027,-0.018042,0,0.032458,0,0,0,0.0071573,0.00072457,0.0023645,11.419,0.0034155,0.0057896,7.3368e-09,0.12,0.14,0
0.0076943,0.0055147,0.006897,0.00078787,0.0023055,0.0011285,0,0,0.05969,-0.019729,0,0.02934,0,0,0,0.0070988,0.00058609,0.0023055,10.138,0.0033301,0.0058458,7.347e-09,0.14,0.14,0
0.0088928,0.0060828,0.0068684,0.00064134,0.0022529,0.0010164,0,0,0.060001,-0.020951,0,0.026427,0,0,0,0.0070301,0.00047962,0.0022529,9.0399,0.0032542,0.0058683,7.2734e-09,0.16,0.14,0
0.010094,0.0065797,0.006824,0.00053209,0.0022068,0.00091497,0,0,0.060023,-0.021772,0,0.023789,0,0,0,0.0069543,0.00040174,0.0022068,8.1083,0.0031876,0.0058623,7.1363e-09,0.18,0.14,0
0.011294,0.0070048,0.0067676,0.00045534,0.0021669,0.00082427,0,0,0.05981,-0.02225,0,0.021431,0,0,0,0.0068735,0.00034949,0.0021669,7.3183,0.00313,0.0058317,6.9505e-09,0.2,0.14,0
0.012487,0.0073583,0.0067017,0.00040691,0.0021326,0.00074297,0,0,0.059398,-0.022434,0,0.019317,0,0,0,0.0067882,0.00032041,0.0021326,6.641,0.0030804,0.0057789,6.7252e-09,0.22,0.14,0
0.01367,0.0076397,0.0066273,0.00038314,0.0021031,0.00066877,0,0,0.058814,-0.02236,0,0.017388,0,0,0,0.0066981,0.00031232,0.0021031,6.0453,0.0030379,0.0057052,6.4656e-09,0.24,0.14,0
0.014839,0.0078484,0.0065446,0.00038056,0.0020775,0.0005988,0,0,0.058071,-0.022061,0,0.015569,0,0,0,0.0066022,0.00032293,0.0020775,5.4975,0.0030009,0.0056116,6.1744e-09,0.26,0.14,0
0.015992,0.0079831,0.0064531,0.00039534,0.0020545,0.00052987,0,0,0.057182,-0.02157,0,0.013777,0,0,0,0.0064991,0.00034934,0.0020545,4.9614,0.0029677,0.0054992,5.8542e-09,0.28,0.14,0
0.017126,0.0080419,0.0063525,0.0004225,0.0020325,0.00045873,0,0,0.05616,-0.02093,0,0.011927,0,0,0,0.0063878,0.00038723,0.0020325,4.3974,0.0029358,0.0053704,5.5104e-09,0.3,0.14,0
0.018239,0.0080222,0.006243,0.00045501,0.0020094,0.00038265,0,0,0.055037,-0.020207,0,0.009949,0,0,0,0.0062682,0.00042983,0.0020094,3.7661,0.0029025,0.0052307,5.1534e-09,0.32,0.14,0
0.019328,0.0079216,0.0061257,0.00048253,0.0019825,0.0003005,0,0,0.053862,-0.019499,0,0.007813,0,0,0,0.0061416,0.00046657,0.0019825,3.0396,0.0028636,0.0050894,4.8003e-09,0.34,0.14,0
0.020393,0.0077385,0.0060022,0.0004916,0.0019481,0.00021478,0,0,0.052703,-0.018935,0,0.0055843,0,0,0,0.0060105,0.00048324,0.0019481,2.2287,0.002814,0.0049599,4.4727e-09,0.36,0.14,0
0.021436,0.0074745,0.0058717,0.00046667,0.0019015,0.00013314,0,0,0.051613,-0.018653,0,0.0034616,0,0,0,0.005875,0.0004634,0.0019015,1.4102,0.0027466,0.004855,4.1855e-09,0.38,0.14,0
0.022458,0.0071354,0.0057313,0.00039932,0.0018392,6.9618e-05,0,0,0.050598,-0.018718,0,0.0018101,0,0,0,0.0057322,0.00039841,0.0018392,0.74792,0.0026566,0.0047792,3.9364e-09,0.4,0.14,0
0.02346,0.0067343,0.0055644,0.00028583,0.001755,3.7103e-05,0,0,0.049521,-0.0191,0,0.00096469,0,0,0,0.0055646,0.00028557,0.001755,0.40271,0.0025351,0.0047191,3.6858e-09,0.42,0.14,0
0.024439,0.0062881,0.0053625,0.00015156,0.0016542,4.9309e-05,0,0,0.048208,-0.019535,0,0.001282,0,0,0,0.005363,0.00015109,0.0016542,0.54209,0.0023894,0.0046464,3.3929e-09,0.44,0.14,0
0.025388,0.0058203,0.0050634,-2.2911e-05,0.0015122,8.6434e-05,0,0,0.046166,-0.019956,0,0.0022473,0,0,0,0.0050649,-2.4379e-05,0.0015122,0.97328,0.0021842,0.0045212,2.9647e-09,0.46,0.14,0
0.026285,0.0053409,0.0047863,-0.00012234,0.0013992,0.00016081,0,0,0.044032,-0.01978,0,0.0041811,0,0,0,0.0047916,-0.0001276,0.0013992,1.8744,0.002021,0.004361,2.5667e-09,0.48,0.14,0
0.02715,0.0048897,0.0043807,-0.00044463,0.0011808,0.00021915,0,0,0.041598,-0.021131,0,0.0056979,0,0,0,0.0043906,-0.00045457,0.0011808,2.5951,0.0017056,0.0042693,2.1105e-09,0.5,0.14,0
0.027949,0.004547,0.0039678,-0.00055555,0.0010237,0.00038171,0,0,0.038274,-0.02053,0,0.0099245,0,0,0,0.0039998,-0.00058753,0.0010237,4.7899,0.0014786,0.0040309,1.6433e-09,0.52,0.14,0
0.028681,0.0043537,0.0036612,-0.00025613,0.0010215,0.0003811,0,0,0.034316,-0.016609,0,0.0099085,0,0,0,0.0036979,-0.00029286,0.0010215,5.5052,0.0014755,0.0035226,1.2371e-09,0.54,0.14,0
0.029322,0.0042795,0.003345,-9.7774e-05,0.00097416,0.00025499,0,0,0.030821,-0.013935,0,0.0066297,0,0,0,0.0033637,-0.00011656,0.00097416,4.213,0.0014071,0.0030832,8.9497e-10,0.56,0.14,0
0.029913,0.0042754,0.0031971,-2.3747e-05,0.00095199,6.7063e-05,0,0,0.029186,-0.012685,0,0.0017436,0,0,0,0.0031984,-2.5142e-05,0.00095199,1.1923,0.0013751,0.0028629,7.49e-10,0.58,0.14,0
0.030489,0.0043282,0.0031933,-3.2248e-05,0.0009483,-0.00013132,0,0,0.029184,-0.012747,0,-0.0034142,0,0,0,0.0031986,-3.7586e-05,0.0009483,-2.3275,0.0013698,0.002873,7.5214e-10,0.6,0.14,0
0.031081,0.0044387,0.0033342,-0.00012454,0.00096289,-0.00031672,0,0,0.030827,-0.014137,0,-0.0082347,0,0,0,0.0033629,-0.0001533,0.00096289,-5.1891,0.0013908,0.0031121,9.036e-10,0.62,0.14,0
0.031723,0.0046218,0.0036451,-0.00030524,0.001002,-0.00043648,0,0,0.034361,-0.016994,0,-0.011348,0,0,0,0.0036927,-0.00035289,0.001002,-6.2306,0.0014473,0.0035667,1.2481e-09,0.64,0.14,0
0.032455,0.0049295,0.0039463,-0.0006342,0.00099362,-0.00042382,0,0,0.038385,-0.021162,0,-0.011019,0,0,0,0.0039852,-0.00067309,0.00099362,-5.2422,0.0014352,0.0040882,1.6461e-09,0.66,0.14,0
0.033258,0.0053961,0.0043518,-0.00055317,0.0011396,-0.00023804,0,0,0.041759,-0.022006,0,-0.0061892,0,0,0,0.0043633,-0.0005647,0.0011396,-2.772,0.0016461,0.0043349,2.1096e-09,0.68,0.14,0
0.034126,0.0059848,0.0047503,-0.00024757,0.0013508,-0.00014998,0,0,0.044193,-0.020779,0,-0.0038996,0,0,0,0.0047548,-0.00025207,0.0013508,-1.7174,0.0019512,0.0044286,2.5712e-09,0.7,0.14,0
0.035026,0.0066174,0.0050151,-0.00016405,0.0014553,-4.2775e-05,0,0,0.046277,-0.021052,0,-0.0011121,0,0,0,0.0050154,-0.0001644,0.0014553,-0.47317,0.0021021,0.0045896,2.9613e-09,0.72,0.14,0
0.035977,0.0072553,0.0052987,-2.4768e-06,0.0015889,3.1331e-05,0,0,0.048228,-0.020688,0,0.0008146,0,0,0,0.0052989,-2.662e-06,0.0015889,0.33861,0.002295,0.0047119,3.3794e-09,0.74,0.14,0
0.036955,0.00789,0.0054822,0.00012393,0.0016818,8.2844e-05,0,0,0.049405,-0.020253,0,0.0021539,0,0,0,0.0054835,0.00012265,0.0016818,0.88557,0.0024293,0.0047761,3.6512e-09,0.76,0.14,0
0.037953,0.0084987,0.0056271,0.00023201,0.0017577,9.1007e-05,0,0,0.050301,-0.019834,0,0.0023662,0,0,0,0.0056286,0.00023048,0.0017577,0.96613,0.0025389,0.0048195,3.8633e-09,0.78,0.14,0
0.038967,0.0090645,0.0057427,0.00029455,0.0018112,6.8715e-05,0,0,0.051109,-0.019716,0,0.0017866,0,0,0,0.0057435,0.00029368,0.0018112,0.7225,0.0026161,0.0048717,4.0538e-09,0.8,0.14,0
0.039997,0.0095742,0.0058459,0.00031225,0.0018475,2.9299e-05,0,0,0.05198,-0.019958,0,0.00076177,0,0,0,0.0058461,0.00031209,0.0018475,0.30335,0.0026685,0.0049483,4.2628e-09,0.82,0.14,0
0.041046,0.010022,0.0059403,0.00029133,0.0018695,-1.2034e-05,0,0,0.052921,-0.020516,0,-0.00031287,0,0,0,0.0059404,0.0002913,0.0018695,-0.12205,0.0027004,0.0050485,4.4967e-09,0.84,0.14,0
0.042114,0.010405,0.0060267,0.00024577,0.0018817,-4.5909e-05,0,0,0.053885,-0.021268,0,-0.0011936,0,0,0,0.0060271,0.0002454,0.0018817,-0.45497,0.0027181,0.0051618,4.7446e-09,0.86,0.14,0
0.043201,0.010728,0.0061031,0.00018817,0.0018874,-6.7957e-05,0,0,0.054804,-0.02209,0,-0.0017669,0,0,0,0.0061038,0.00018739,0.0018874,-0.65817,0.0027262,0.005276,4.9874e-09,0.88,0.14,0
0.044306,0.010992,0.0061678,0.00012844,0.0018889,-7.7551e-05,0,0,0.055626,-0.022885,0,-0.0020163,0,0,0,0.0061688,0.00012744,0.0018889,-0.73557,0.0027284,0.0053813,5.2085e-09,0.9,0.14,0
0.045426,0.011203,0.00622,7.3282e-05,0.001888,-7.5912e-05,0,0,0.056316,-0.023591,0,-0.0019737,0,0,0,0.006221,7.2344e-05,0.001888,-0.70745,0.0027271,0.0054716,5.3965e-09,0.92,0.14,0
0.046559,0.011362,0.0062599,2.7066e-05,0.0018861,-6.5047e-05,0,0,0.05686,-0.024167,0,-0.0016912,0,0,0,0.0062606,2.6387e-05,0.0018861,-0.59786,0.0027244,0.0055435,5.5452e-09,0.94,0.14,0
0.047701,0.011474,0.0062879,-7.479e-06,0.0018841,-4.7222e-05,0,0,0.057249,-0.024591,0,-0.0012278,0,0,0,0.0062882,-7.8332e-06,0.0018841,-0.42975,0.0027215,0.0055953,5.6521e-09,0.96,0.14,0
0.048849,0.011541,0.0063044,-2.8752e-05,0.0018827,-2.4766e-05,0,0,0.057482,-0.024849,0,-0.00064391,0,0,0,0.0063045,-2.8849e-05,0.0018827,-0.22405,0.0027194,0.0056266,5.7162e-09,0.98,0.14,0
0.05,0.011562,0.0063098,-3.5927e-05,0.0018822,4.221e-05,0,0,0.057559,-0.024935,0,0.0010975,0,0,0,0.0063101,-3.6208e-05,0.0018822,0.3811,0.0027187,0.0056375,5.7386e-09,1,0.14,0
0,0,0.006614,0.0028346,0.0028346,0.001574,0,0,0.049133,4.3368e-19,0,0.040925,0,0,0,0.0071837,0.0022649,0.0028346,19.896,0.0040944,0.0046602,4.937e-09,0,0.16,0
0.00098266,0.0008185,0.0065874,0.0025004,0.0027264,0.0015677,0,0,0.050194,-0.0029369,0,0.040761,0,0,0,0.0071195,0.0019683,0.0027264,18.748,0.0039381,0.0048171,5.2649e-09,0.02,0.16,0
0.0020077,0.0016229,0.0066925,0.0021975,0.002667,0.0015382,0,0,0.052331,-0.006103,0,0.039992,0,0,0,0.0071684,0.0017216,0.002667,17.194,0.0038523,0.0050411,5.8071e-09,0.04,0.16,0
0.0030759,0.0024057,0.00679,0.001888,0.0026034,0.0014884,0,0,0.054426,-0.0093003,0,0.038697,0,0,0,0.0072065,0.0014715,0.0026034,15.634,0.0037604,0.0052612,6.3281e-09,0.06,0.16,0
0.0041848,0.0031568,0.0068727,0.0015912,0.0025392,0.0014175,0,0,0.056336,-0.012324,0,0.036855,0,0,0,0.0072291,0.0012348,0.0025392,14.113,0.0036677,0.0054603,6.7798e-09,0.08,0.16,0
0.0053293,0.003866,0.0069355,0.0013221,0.0024773,0.0013304,0,0,0.057957,-0.015017,0,0.034591,0,0,0,0.0072349,0.0010228,0.0024773,12.681,0.0035783,0.0056276,7.1336e-09,0.1,0.16,0
0.006503,0.0045248,0.0069761,0.0010893,0.0024196,0.0012343,0,0,0.059235,-0.017294,0,0.032092,0,0,0,0.0072245,0.00084096,0.0024196,11.375,0.003495,0.0057588,7.3804e-09,0.12,0.16,0
0.0076987,0.005127,0.0069951,0.00089562,0.0023672,0.0011363,0,0,0.060162,-0.019131,0,0.029543,0,0,0,0.0071999,0.00069082,0.0023672,10.217,0.0034193,0.0058537,7.5248e-09,0.14,0.16,0
0.0089095,0.0056685,0.0069946,0.0007404,0.0023205,0.0010417,0,0,0.060763,-0.020541,0,0.027084,0,0,0,0.0071636,0.00057146,0.0023205,9.212,0.0033518,0.0059148,7.5786e-09,0.16,0.16,0
0.010129,0.0061467,0.0069776,0.00062114,0.0022796,0.00095389,0,0,0.061074,-0.02156,0,0.024801,0,0,0,0.0071177,0.00048108,0.0022796,8.3531,0.0032928,0.005945,7.5549e-09,0.18,0.16,0
0.011352,0.0065603,0.0069466,0.00053474,0.0022444,0.0008742,0,0,0.061128,-0.022225,0,0.022729,0,0,0,0.0070636,0.00041769,0.0022444,7.6264,0.0032419,0.0059469,7.465e-09,0.2,0.16,0
0.012574,0.0069085,0.0069032,0.00047813,0.0022144,0.00080251,0,0,0.060955,-0.022572,0,0.020865,0,0,0,0.007002,0.00037942,0.0022144,7.0129,0.0031986,0.0059222,7.3169e-09,0.22,0.16,0
0.013791,0.0071901,0.0068484,0.00044838,0.002189,0.00073761,0,0,0.060572,-0.022628,0,0.019178,0,0,0,0.0069323,0.00036447,0.002189,6.4901,0.003162,0.0058722,7.1151e-09,0.24,0.16,0
0.014997,0.0074041,0.0067819,0.00044251,0.0021673,0.00067749,0,0,0.05999,-0.022423,0,0.017615,0,0,0,0.0068535,0.00037092,0.0021673,6.0324,0.0031306,0.005797,6.8619e-09,0.26,0.16,0
0.01619,0.0075483,0.0067029,0.00045708,0.002148,0.00061943,0,0,0.059214,-0.021982,0,0.016105,0,0,0,0.0067638,0.00039624,0.002148,5.6095,0.0031027,0.0056973,6.5587e-09,0.28,0.16,0
0.017366,0.00762,0.0066104,0.00048741,0.0021293,0.00056009,0,0,0.058254,-0.021345,0,0.014562,0,0,0,0.0066612,0.0004366,0.0021293,5.1837,0.0030757,0.0055745,6.2092e-09,0.3,0.16,0
0.01852,0.0076154,0.0065042,0.00052643,0.0021092,0.00049576,0,0,0.057135,-0.020576,0,0.01289,0,0,0,0.006545,0.00048559,0.0021092,4.7089,0.0030466,0.0054327,5.8233e-09,0.32,0.16,0
0.019651,0.0075298,0.0063861,0.00056273,0.0020846,0.00042343,0,0,0.055919,-0.019785,0,0.011009,0,0,0,0.0064167,0.0005321,0.0020846,4.1371,0.0030112,0.0052823,5.4235e-09,0.34,0.16,0
0.020757,0.0073587,0.0062593,0.00057724,0.002051,0.00034347,0,0,0.054709,-0.019158,0,0.0089301,0,0,0,0.00628,0.00055655,0.002051,3.4466,0.0029625,0.0051418,5.0447e-09,0.36,0.16,0
0.02184,0.0070997,0.0061289,0.00054735,0.0020029,0.00026534,0,0,0.053639,-0.018922,0,0.0068988,0,0,0,0.0061415,0.00053476,0.0020029,2.7156,0.002893,0.0050358,4.7283e-09,0.38,0.16,0
0.022903,0.0067575,0.0059876,0.00044697,0.0019303,0.00020736,0,0,0.052743,-0.019284,0,0.0053915,0,0,0,0.0059953,0.00043922,0.0019303,2.1404,0.0027883,0.0049808,4.4814e-09,0.4,0.16,0
0.023949,0.0063447,0.0058363,0.00028903,0.0018376,0.00020196,0,0,0.051983,-0.020131,0,0.0052508,0,0,0,0.0058436,0.00028168,0.0018376,2.0823,0.0026543,0.0049701,4.285e-09,0.42,0.16,0
0.024982,0.0058877,0.0056149,6.3749e-05,0.0017036,0.00025681,0,0,0.050847,-0.021318,0,0.0066772,0,0,0,0.0056267,5.1893e-05,0.0017036,2.6432,0.0024607,0.0049597,4.0037e-09,0.44,0.16,0
0.025983,0.0054062,0.005362,-0.00011231,0.0015749,0.00041824,0,0,0.049232,-0.021934,0,0.010874,0,0,0,0.0053938,-0.00014408,0.0015749,4.3439,0.0022749,0.0049095,3.6615e-09,0.46,0.16,0
0.026951,0.0049476,0.0046542,-0.00051935,0.0012404,0.00057655,0,0,0.044379,-0.022877,0,0.01499,0,0,0,0.0047177,-0.00058282,0.0012404,6.2825,0.0017918,0.0046642,2.6559e-09,0.48,0.16,0
0.027758,0.0044633,0.0040072,-0.00075219,0.00097649,0.0010913,0,0,0.039399,-0.022473,0,0.028374,0,0,0,0.0042454,-0.00099049,0.00097649,12.318,0.0014105,0.0045809,2.0482e-09,0.5,0.16,0
0.028527,0.0041404,0.0035088,-0.00024193,0.00098007,0.00093658,0,0,0.032874,-0.015886,0,0.024351,0,0,0,0.0037297,-0.00046279,0.00098007,13.269,0.0014157,0.0036891,1.3128e-09,0.52,0.16,0
0.029073,0.0040642,0.0027305,-9.5115e-06,0.00081631,0.00073367,0,0,0.024885,-0.010736,0,0.019075,0,0,0,0.0029146,-0.00019359,0.00081631,14.085,0.0011791,0.0027463,5.9929e-10,0.54,0.16,0
0.029523,0.0040491,0.00242,0.00013243,0.00076571,0.00041642,0,0,0.021505,-0.0082327,0,0.010827,0,0,0,0.0024934,5.898e-05,0.00076571,10.003,0.001106,0.0021692,3.4277e-10,0.56,0.16,0
0.029933,0.0040713,0.0023144,0.00020414,0.00075556,0.00011759,0,0,0.020265,-0.0071684,0,0.0030574,0,0,0,0.0023209,0.00019761,0.00075556,3.1797,0.0010914,0.0019066,2.5586e-10,0.58,0.16,0
0.030333,0.0041228,0.0023094,0.00019449,0.00075117,-0.00017315,0,0,0.020257,-0.0072367,0,-0.0045018,0,0,0,0.0023235,0.00018041,0.00075117,-4.6495,0.001085,0.0019223,2.5933e-10,0.6,0.16,0
0.030744,0.0042041,0.0024051,0.00010186,0.00075208,-0.00046998,0,0,0.021489,-0.0084529,0,-0.012219,0,0,0,0.0024973,9.6513e-06,0.00075208,-11.1,0.0010863,0.0022119,3.5209e-10,0.62,0.16,0
0.031193,0.0043242,0.0027075,-6.5679e-05,0.00079255,-0.00078254,0,0,0.024895,-0.011157,0,-0.020346,0,0,0,0.0029131,-0.00027126,0.00079255,-14.719,0.0011448,0.0028079,6.1156e-10,0.64,0.16,0
0.031739,0.0045089,0.0034813,-0.00033439,0.00094407,-0.00097393,0,0,0.032984,-0.01662,0,-0.025322,0,0,0,0.0037155,-0.0005686,0.00094407,-13.522,0.0013637,0.0037631,1.3221e-09,0.66,0.16,0
0.032512,0.0049498,0.0039688,-0.00089576,0.00092191,-0.001104,0,0,0.039609,-0.02363,0,-0.028703,0,0,0,0.0042076,-0.0011346,0.00092191,-12.206,0.0013316,0.0046671,2.015e-09,0.68,0.16,0
0.033324,0.0055692,0.0046115,-0.00067371,0.0011814,-0.00055622,0,0,0.044592,-0.024116,0,-0.014462,0,0,0,0.0046694,-0.00073162,0.0011814,-5.9431,0.0017064,0.0047433,2.6298e-09,0.7,0.16,0
0.034296,0.0061784,0.0053055,-0.00029187,0.0015041,-0.00036127,0,0,0.049418,-0.023348,0,-0.0093931,0,0,0,0.0053287,-0.00031509,0.0015041,-3.6777,0.0021726,0.0049895,3.6391e-09,0.72,0.16,0
0.035301,0.0068285,0.005546,-0.00012983,0.0016248,-0.00016029,0,0,0.050974,-0.022811,0,-0.0041677,0,0,0,0.0055505,-0.00013435,0.0016248,-1.6164,0.002347,0.005041,3.9801e-09,0.74,0.16,0
0.036335,0.007474,0.0057493,8.4839e-05,0.0017502,-6.2185e-05,0,0,0.051987,-0.02165,0,-0.0016168,0,0,0,0.0057499,8.4157e-05,0.0017502,-0.6289,0.0025281,0.0050435,4.2469e-09,0.76,0.16,0
0.03738,0.008095,0.0058812,0.00023804,0.0018358,-2.4252e-05,0,0,0.052591,-0.020771,0,-0.00063054,0,0,0,0.0058813,0.00023794,0.0018358,-0.24622,0.0026517,0.0050382,4.41e-09,0.78,0.16,0
0.038439,0.0086648,0.0060011,0.00033378,0.0019005,-3.9149e-05,0,0,0.053308,-0.020367,0,-0.0010179,0,0,0,0.0060013,0.00033351,0.0019005,-0.39577,0.0027451,0.0050694,4.5989e-09,0.8,0.16,0
0.039512,0.0091699,0.0061095,0.0003557,0.0019396,-7.4249e-05,0,0,0.054209,-0.02059,0,-0.0019305,0,0,0,0.0061105,0.00035474,0.0019396,-0.7392,0.0028016,0.0051496,4.8391e-09,0.82,0.16,0
0.040607,0.009605,0.0062143,0.00032643,0.0019622,-0.00010935,0,0,0.055277,-0.021265,0,-0.002843,0,0,0,0.0062163,0.0003244,0.0019622,-1.0636,0.0028343,0.0052676,5.1329e-09,0.84,0.16,0
0.041724,0.0099723,0.0063108,0.000267,0.0019733,-0.00013272,0,0,0.056387,-0.022182,0,-0.0034508,0,0,0,0.0063137,0.00026409,0.0019733,-1.2574,0.0028504,0.0054018,5.4469e-09,0.86,0.16,0
0.042862,0.010277,0.0063955,0.00019578,0.0019774,-0.00014174,0,0,0.057436,-0.023161,0,-0.0036853,0,0,0,0.0063987,0.00019254,0.0019774,-1.309,0.0028562,0.005534,5.7499e-09,0.88,0.16,0
0.044021,0.010524,0.0064659,0.00012414,0.001977,-0.00013753,0,0,0.058356,-0.024088,0,-0.0035758,0,0,0,0.0064689,0.00012116,0.001977,-1.2418,0.0028557,0.0056531,6.0196e-09,0.9,0.16,0
0.045197,0.010719,0.0065218,5.9232e-05,0.0019743,-0.00012243,0,0,0.059117,-0.024896,0,-0.0031831,0,0,0,0.0065241,5.6913e-05,0.0019743,-1.0849,0.0028518,0.0057533,6.2444e-09,0.92,0.16,0
0.046386,0.010866,0.0065637,5.5221e-06,0.0019708,-9.8881e-05,0,0,0.059708,-0.025548,0,-0.0025709,0,0,0,0.0065652,4.0316e-06,0.0019708,-0.86362,0.0028467,0.0058321,6.4196e-09,0.94,0.16,0
0.047585,0.010969,0.0065928,-3.4298e-05,0.0019675,-6.9216e-05,0,0,0.060128,-0.026024,0,-0.0017996,0,0,0,0.0065935,-3.502e-05,0.0019675,-0.59833,0.002842,0.0058884,6.5441e-09,0.96,0.16,0
0.048791,0.011029,0.0066098,-5.8695e-05,0.0019653,-3.5582e-05,0,0,0.060378,-0.026312,0,-0.00092514,0,0,0,0.00661,-5.8885e-05,0.0019653,-0.30571,0.0028388,0.0059222,6.6183e-09,0.98,0.16,0
0.05,0.01105,0.0066154,-6.6905e-05,0.0019645,3.8648e-05,0,0,0.060461,-0.026409,0,0.0010049,0,0,0,0.0066156,-6.7128e-05,0.0019645,0.33136,0.0028377,0.0059338,6.6438e-09,1,0.16,0
0,0,0.0066506,0.0028503,0.0028503,0.0014623,0,0,0.049405,5.421e-19,0,0.038021,0,0,0,0.0071482,0.0023527,0.0028503,18.791,0.004117,0.0045671,4.6973e-09,0,0.18,0
0.00098809,0.00076042,0.0066235,0.0025201,0.0027431,0.0014578,0,0,0.050445,-0.0028986,0,0.037902,0,0,0,0.0070887,0.0020549,0.0027431,17.697,0.0039622,0.0047273,5.0406e-09,0.02,0.18,0
0.0020178,0.0015033,0.0067298,0.0022332,0.0026889,0.0014311,0,0,0.052532,-0.005924,0,0.03721,0,0,0,0.0071466,0.0018163,0.0026889,16.239,0.003884,0.004952,5.5898e-09,0.04,0.18,0
0.0030893,0.0022242,0.0068305,0.0019437,0.0026323,0.0013919,0,0,0.054577,-0.0089509,0,0.03619,0,0,0,0.0071992,0.0015751,0.0026323,14.834,0.0038022,0.0051771,6.1368e-09,0.06,0.18,0
0.0042009,0.0029163,0.0069206,0.0016648,0.0025756,0.001338,0,0,0.056485,-0.011841,0,0.034788,0,0,0,0.0072416,0.0013438,0.0025756,13.492,0.0037203,0.0053886,6.6422e-09,0.08,0.18,0
0.0053488,0.0035723,0.0069959,0.0014075,0.002521,0.0012713,0,0,0.058173,-0.014476,0,0.033055,0,0,0,0.0072715,0.0011319,0.002521,12.232,0.0036415,0.0055764,7.0774e-09,0.1,0.18,0
0.0065278,0.0041852,0.007054,0.0011796,0.0024701,0.0011962,0,0,0.059591,-0.016776,0,0.031102,0,0,0,0.0072882,0.00094531,0.0024701,11.08,0.0035679,0.0057346,7.4267e-09,0.12,0.18,0
0.0077324,0.0047495,0.0070942,0.00098495,0.0024238,0.0011177,0,0,0.060716,-0.018704,0,0.02906,0,0,0,0.0072923,0.00078689,0.0024238,10.049,0.003501,0.005861,7.6856e-09,0.14,0.18,0
0.0089565,0.0052612,0.0071175,0.00082477,0.0023827,0.0010401,0,0,0.061552,-0.020253,0,0.027044,0,0,0,0.0072849,0.0006573,0.0023827,9.1466,0.0034416,0.0059555,7.8572e-09,0.16,0.18,0
0.010195,0.0057172,0.0071252,0.00069833,0.002347,0.00096685,0,0,0.062116,-0.021433,0,0.025138,0,0,0,0.0072675,0.00055603,0.002347,8.3727,0.0033902,0.0060192,7.9479e-09,0.18,0.18,0
0.011441,0.0061158,0.0071189,0.00060404,0.0023169,0.00089975,0,0,0.062426,-0.022267,0,0.023394,0,0,0,0.0072409,0.00048206,0.0023169,7.7205,0.0033466,0.0060537,7.9646e-09,0.2,0.18,0
0.012691,0.0064554,0.0070997,0.00053993,0.0022919,0.00083959,0,0,0.062502,-0.022776,0,0.021829,0,0,0,0.0072055,0.00043418,0.0022919,7.1791,0.0033105,0.0060599,7.9126e-09,0.22,0.18,0
0.013941,0.0067345,0.0070681,0.00050392,0.0022716,0.0007861,0,0,0.062355,-0.02298,0,0.020439,0,0,0,0.007161,0.00041109,0.0022716,6.7347,0.0032812,0.0060385,7.7949e-09,0.24,0.18,0
0.015186,0.0069515,0.0070236,0.00049373,0.0022552,0.00073815,0,0,0.061989,-0.022899,0,0.019192,0,0,0,0.007106,0.00041132,0.0022552,6.3697,0.0032575,0.0059895,7.6123e-09,0.26,0.18,0
0.016421,0.0071038,0.0069649,0.00050656,0.0022414,0.00069373,0,0,0.061405,-0.022553,0,0.018037,0,0,0,0.0070386,0.00043288,0.0022414,6.0624,0.0032376,0.0059126,7.3635e-09,0.28,0.18,0
0.017642,0.0071881,0.0068901,0.00053851,0.0022286,0.00064981,0,0,0.060599,-0.021971,0,0.016895,0,0,0,0.0069559,0.00047271,0.0022286,5.782,0.003219,0.0058078,7.0479e-09,0.3,0.18,0
0.018845,0.0071991,0.0067974,0.00058335,0.0022142,0.00060205,0,0,0.059581,-0.021201,0,0.015653,0,0,0,0.0068552,0.00052556,0.0022142,5.4832,0.0031983,0.0056769,6.6691e-09,0.32,0.18,0
0.020025,0.0071302,0.0066877,0.00063052,0.0021955,0.0005447,0,0,0.058399,-0.020345,0,0.014162,0,0,0,0.0067363,0.00058192,0.0021955,5.0979,0.0031712,0.0055272,6.2454e-09,0.34,0.18,0
0.021181,0.0069722,0.0065689,0.00066024,0.0021687,0.00047359,0,0,0.057202,-0.01961,0,0.012313,0,0,0,0.0066066,0.00062252,0.0021687,4.5537,0.0031326,0.0053803,5.8278e-09,0.36,0.18,0
0.022313,0.0067176,0.0064452,0.00062923,0.0021223,0.00039288,0,0,0.056197,-0.01941,0,0.010215,0,0,0,0.0064716,0.00060281,0.0021223,3.8472,0.0030656,0.0052758,5.486e-09,0.38,0.18,0
0.023429,0.0063641,0.0063344,0.00050653,0.0020523,0.00033439,0,0,0.055667,-0.020095,0,0.0086942,0,0,0,0.0063535,0.0004874,0.0020523,3.2732,0.0029644,0.0052612,5.3091e-09,0.4,0.18,0
0.02454,0.0059291,0.0061915,0.00024306,0.0019304,0.00032921,0,0,0.055395,-0.021935,0,0.0085594,0,0,0,0.0062096,0.0002249,0.0019304,3.1581,0.0027883,0.0053403,5.2171e-09,0.42,0.18,0
0.025644,0.0054354,0.0061062,-5.0264e-06,0.0018304,0.00045353,0,0,0.055586,-0.02386,0,0.011792,0,0,0,0.0061397,-3.8501e-05,0.0018304,4.2213,0.0026439,0.0054879,5.2891e-09,0.44,0.18,0
0.026763,0.004943,0.0058224,-0.00041116,0.0016234,0.00060779,0,0,0.054587,-0.026449,0,0.015803,0,0,0,0.0058811,-0.00046987,0.0016234,5.5173,0.0023449,0.0056056,4.9793e-09,0.46,0.18,0
0.027828,0.0044257,0.0062324,-0.00038388,0.0017545,0.0010653,0,0,0.058212,-0.0278,0,0.027697,0,0,0,0.0063997,-0.00055117,0.0017545,8.9247,0.0025343,0.0061322,6.4485e-09,0.48,0.18,0
0.029092,0.0039908,0.0082844,-0.0013479,0.002081,0.001342,0,0,0.028754,-0.012611,0,0.017545,0,0,0,0.0084989,-0.0015623,0.002081,9.4173,0.0030059,0.0088299,2.2789e-08,0.5,0.18,0
0.029323,0.0039116,0.0068796,0.00043103,0.0021932,0.0010636,0,0,0.011077,-0.0074389,0,0.01991,0,0,0,0.0073172,-6.5602e-06,0.0021932,16.544,0.0031679,0.0065594,2.08e-08,0.52,0.18,0
0.029535,0.0039242,0.0065752,0.00034141,0.002075,0.00083303,0,0,0.010637,-0.0054031,0,0.012987,0,0,0,0.0068342,8.2458e-05,0.002075,15.336,0.0029972,0.0060242,1.8648e-08,0.54,0.18,0
0.029748,0.0039502,0.0066554,0.00047351,0.0021387,0.00043803,0,0,0.010676,-0.0043899,0,0.0069327,0,0,0,0.0067507,0.00037814,0.0021387,10.85,0.0030892,0.0057032,1.8593e-08,0.56,0.18,0
0.029962,0.0039886,0.0066996,0.0005221,0.0021665,0.00012505,0,0,0.010715,-0.0039972,0,0.0019624,0,0,0,0.0067086,0.00051311,0.0021665,3.7239,0.0031294,0.0055565,1.8703e-08,0.58,0.18,0
0.030176,0.0040387,0.0066961,0.00051282,0.0021627,-0.00017033,0,0,0.010715,-0.0040367,0,-0.00271,0,0,0,0.0067129,0.00049594,0.0021627,-5.0397,0.0031239,0.005574,1.8714e-08,0.6,0.18,0
0.030391,0.0041005,0.0066465,0.00044499,0.0021274,-0.00048145,0,0,0.010681,-0.0045165,0,-0.0076594,0,0,0,0.0067591,0.00033239,0.0021274,-11.542,0.003073,0.0057478,1.8641e-08,0.62,0.18,0
0.030604,0.0041755,0.0065631,0.00028702,0.002055,-0.00087402,0,0,0.010655,-0.005645,0,-0.013679,0,0,0,0.0068407,9.4117e-06,0.002055,-15.592,0.0029684,0.0060903,1.8771e-08,0.64,0.18,0
0.030817,0.0042647,0.0068872,0.00035846,0.0021737,-0.001085,0,0,0.011141,-0.0078549,0,-0.020485,0,0,0,0.0073358,-9.0094e-05,0.0021737,-16.485,0.0031398,0.0066464,2.1153e-08,0.66,0.18,0
0.031049,0.0044509,0.0082479,-0.0015879,0.001998,-0.0013374,0,0,0.028905,-0.013257,0,-0.017456,0,0,0,0.0084568,-0.0017968,0.001998,-9.2175,0.002886,0.0089862,2.2665e-08,0.68,0.18,0
0.032319,0.0050202,0.0061828,-0.00058018,0.0016808,-0.0010274,0,0,0.058526,-0.029392,0,-0.026711,0,0,0,0.0063354,-0.00073281,0.0016808,-8.4499,0.0024278,0.006223,6.3969e-09,0.7,0.18,0
0.03339,0.0056834,0.0057662,-0.00062223,0.0015432,-0.00054084,0,0,0.054899,-0.02815,0,-0.014062,0,0,0,0.0058117,-0.0006677,0.0015432,-4.805,0.0022291,0.0057048,4.9353e-09,0.72,0.18,0
0.034514,0.0063428,0.0060296,-0.00024524,0.0017353,-0.00034172,0,0,0.055826,-0.025747,0,-0.0088846,0,0,0,0.0060482,-0.00026379,0.0017353,-3.108,0.0025066,0.0055874,5.2468e-09,0.74,0.18,0
0.035624,0.007024,0.0061028,-5.5017e-06,0.0018292,-0.00017241,0,0,0.055557,-0.023851,0,-0.0044826,0,0,0,0.0061077,-1.0364e-05,0.0018292,-1.6155,0.0026422,0.0054369,5.1816e-09,0.76,0.18,0
0.036737,0.0076679,0.0062283,0.00025361,0.0019446,-0.00013149,0,0,0.055689,-0.021983,0,-0.0034186,0,0,0,0.0062312,0.00025072,0.0019446,-1.2601,0.0028088,0.005339,5.2463e-09,0.78,0.18,0
0.037851,0.0082498,0.0063228,0.00037455,0.0020092,-0.000147,0,0,0.056077,-0.021251,0,-0.003822,0,0,0,0.0063265,0.00037092,0.0020092,-1.4148,0.0029022,0.0053288,5.3668e-09,0.8,0.18,0
0.03898,0.0087506,0.0064307,0.00039734,0.0020484,-0.00018597,0,0,0.05697,-0.021464,0,-0.0048351,0,0,0,0.0064365,0.00039162,0.0020484,-1.7638,0.0029588,0.0054102,5.6357e-09,0.82,0.18,0
0.04013,0.009171,0.0065364,0.00035002,0.0020659,-0.00021418,0,0,0.058116,-0.022307,0,-0.0055686,0,0,0,0.0065438,0.00034262,0.0020659,-1.9805,0.0029841,0.0055442,5.9863e-09,0.84,0.18,0
0.041305,0.0095181,0.0066355,0.0002739,0.0020728,-0.00022417,0,0,0.059315,-0.023386,0,-0.0058284,0,0,0,0.0066434,0.00026601,0.0020728,-2.0156,0.0029941,0.0056933,6.3593e-09,0.86,0.18,0
0.042502,0.0098014,0.0067199,0.00018882,0.0020726,-0.00021743,0,0,0.060415,-0.024489,0,-0.0056531,0,0,0,0.0067271,0.00018159,0.0020726,-1.9046,0.0029938,0.0058346,6.7057e-09,0.88,0.18,0
0.043721,0.010029,0.0067879,0.00010599,0.0020682,-0.00019774,0,0,0.061356,-0.025508,0,-0.0051413,0,0,0,0.0067937,0.00010015,0.0020682,-1.6936,0.0029873,0.0059585,7.0041e-09,0.9,0.18,0
0.044957,0.010207,0.0068405,3.2398e-05,0.0020619,-0.00016835,0,0,0.062122,-0.026383,0,-0.0043771,0,0,0,0.0068447,2.8237e-05,0.0020619,-1.4156,0.0029783,0.0060611,7.2472e-09,0.92,0.18,0
0.046206,0.01034,0.0068794,-2.7726e-05,0.0020555,-0.00013186,0,0,0.062711,-0.027082,0,-0.0034285,0,0,0,0.0068819,-3.0242e-05,0.0020555,-1.0933,0.0029691,0.006141,7.4338e-09,0.94,0.18,0
0.047465,0.010433,0.006906,-7.1914e-05,0.0020502,-9.0461e-05,0,0,0.063125,-0.027588,0,-0.002352,0,0,0,0.0069072,-7.3087e-05,0.0020502,-0.74261,0.0029614,0.0061977,7.5648e-09,0.96,0.18,0
0.048731,0.010488,0.0069215,-9.8841e-05,0.0020468,-4.5972e-05,0,0,0.063371,-0.027893,0,-0.0011953,0,0,0,0.0069218,-9.9142e-05,0.0020468,-0.37517,0.0029565,0.0062315,7.6424e-09,0.98,0.18,0
0.05,0.010506,0.0069266,-0.00010788,0.0020456,3.4781e-05,0,0,0.063452,-0.027995,0,0.00090431,0,0,0,0.0069267,-0.00010805,0.0020456,0.28328,0.0029548,0.0062431,7.6688e-09,1,0.18,0
0,0,0.0067001,0.0028715,0.0028715,0.0013511,0,0,0.049772,-3.2526e-19,0,0.035128,0,0,0,0.0071289,0.0024427,0.0028715,17.607,0.0041477,0.0044872,4.4977e-09,0,0.2,0
0.00099544,0.00070256,0.0066722,0.0025405,0.0027638,0.0013476,0,0,0.050809,-0.002903,0,0.035039,0,0,0,0.0070729,0.0021398,0.0027638,16.559,0.0039922,0.0046526,4.8603e-09,0.02,0.2,0
0.0020324,0.0013859,0.0067802,0.0022627,0.0027129,0.0013234,0,0,0.052876,-0.0058525,0,0.034408,0,0,0,0.0071394,0.0019035,0.0027129,15.183,0.0039186,0.0048817,5.4257e-09,0.04,0.2,0
0.0031105,0.0020476,0.0068839,0.0019865,0.0026611,0.0012916,0,0,0.054896,-0.00877,0,0.033582,0,0,0,0.0072037,0.0016668,0.0026611,13.905,0.0038438,0.0051128,5.9984e-09,0.06,0.2,0
0.0042282,0.0026831,0.0069798,0.0017207,0.0026101,0.0012498,0,0,0.056805,-0.011562,0,0.032494,0,0,0,0.0072616,0.0014388,0.0026101,12.71,0.0037702,0.0053345,6.5472e-09,0.08,0.2,0
0.0053827,0.003287,0.0070646,0.0014735,0.0025614,0.0011983,0,0,0.058542,-0.014144,0,0.031156,0,0,0,0.0073106,0.0012274,0.0025614,11.601,0.0036998,0.005538,7.0466e-09,0.1,0.2,0
0.0065699,0.0038538,0.0071364,0.001251,0.0025162,0.0011398,0,0,0.060062,-0.016448,0,0.029634,0,0,0,0.0073494,0.001038,0.0025162,10.586,0.0036345,0.0057175,7.4793e-09,0.12,0.2,0
0.0077852,0.0043788,0.0071941,0.0010574,0.0024754,0.0010775,0,0,0.061342,-0.018434,0,0.028015,0,0,0,0.0073777,0.00087371,0.0024754,9.6749,0.0035756,0.0058695,7.8366e-09,0.14,0.2,0
0.0090236,0.0048583,0.0072377,0.00089459,0.0024397,0.0010151,0,0,0.062374,-0.020086,0,0.026392,0,0,0,0.0073962,0.00073611,0.0024397,8.8737,0.003524,0.0059927,8.116e-09,0.16,0.2,0
0.01028,0.0052894,0.007268,0.00076302,0.0024093,0.00095537,0,0,0.063163,-0.021402,0,0.02484,0,0,0,0.0074054,0.00062561,0.0024093,8.1847,0.0034801,0.0060872,8.3189e-09,0.18,0.2,0
0.01155,0.0056697,0.0072858,0.00066223,0.0023844,0.00090057,0,0,0.063718,-0.022388,0,0.023415,0,0,0,0.0074061,0.00054197,0.0023844,7.6062,0.0034442,0.0061534,8.4488e-09,0.2,0.2,0
0.012829,0.0059974,0.007292,0.00059122,0.002365,0.00085192,0,0,0.064051,-0.023059,0,0.02215,0,0,0,0.0073986,0.0004846,0.002365,7.1333,0.0034161,0.0061918,8.5084e-09,0.22,0.2,0
0.014112,0.0062709,0.0072868,0.00054872,0.0023507,0.00080989,0,0,0.06417,-0.023425,0,0.021057,0,0,0,0.0073828,0.00045274,0.0023507,6.7585,0.0033954,0.0062028,8.4995e-09,0.24,0.2,0
0.015396,0.0064881,0.0072698,0.00053318,0.0023409,0.00077414,0,0,0.064076,-0.0235,0,0.020128,0,0,0,0.0073576,0.00044536,0.0023409,6.4718,0.0033813,0.0061863,8.4215e-09,0.26,0.2,0
0.016675,0.0066462,0.0072398,0.00054257,0.0023347,0.00074355,0,0,0.063767,-0.023298,0,0.019332,0,0,0,0.0073214,0.00046101,0.0023347,6.2595,0.0033724,0.0061418,8.2718e-09,0.28,0.2,0
0.017946,0.0067412,0.0071945,0.00057389,0.0023305,0.00071592,0,0,0.063232,-0.022836,0,0.018614,0,0,0,0.007271,0.00049736,0.0023305,6.1017,0.0033663,0.0060684,8.0453e-09,0.3,0.2,0
0.019204,0.0067674,0.0071303,0.00062228,0.0023258,0.00068742,0,0,0.062459,-0.022145,0,0.017873,0,0,0,0.0072021,0.00055046,0.0023258,5.9643,0.0033594,0.0059655,7.7361e-09,0.32,0.2,0
0.020445,0.006716,0.0070433,0.00067897,0.0023167,0.00065113,0,0,0.061446,-0.02129,0,0.01693,0,0,0,0.0071092,0.00061303,0.0023167,5.7821,0.0033463,0.005834,7.3425e-09,0.34,0.2,0
0.021662,0.0065743,0.0069377,0.00072892,0.0023,0.00059497,0,0,0.06029,-0.020424,0,0.015469,0,0,0,0.0069942,0.00067243,0.0023,5.4247,0.0033222,0.0056855,6.8964e-09,0.36,0.2,0
0.022856,0.0063233,0.0068444,0.00073483,0.0022738,0.00051335,0,0,0.059418,-0.020006,0,0.013347,0,0,0,0.0068873,0.00069199,0.0022738,4.7696,0.0032843,0.0055753,6.5444e-09,0.38,0.2,0
0.024039,0.0059537,0.0067339,0.00055809,0.0021876,0.0004231,0,0,0.059102,-0.021184,0,0.011,0,0,0,0.0067627,0.00052924,0.0021876,3.901,0.0031599,0.0055919,6.3893e-09,0.4,0.2,0
0.02522,0.0054673,0.0067039,0.00025293,0.0020871,0.00043899,0,0,0.060019,-0.023844,0,0.011414,0,0,0,0.0067337,0.0002232,0.0020871,3.8752,0.0030146,0.0058074,6.6768e-09,0.42,0.2,0
0.02644,0.0049333,0.0064661,-0.00032627,0.0018419,0.00050941,0,0,0.060114,-0.028187,0,0.013245,0,0,0,0.0065041,-0.00036426,0.0018419,4.2652,0.0026606,0.0060736,6.5991e-09,0.44,0.2,0
0.027625,0.0043482,0.0068882,-0.00041221,0.0019428,0.00089782,0,0,0.06429,-0.030615,0,0.023343,0,0,0,0.006997,-0.000521,0.0019428,6.9092,0.0028063,0.0066384,8.348e-09,0.46,0.2,0
0.029011,0.0038356,0.0090627,-0.00046063,0.0025806,0.00095158,0,0,0.030999,-0.013668,0,0.012932,0,0,0,0.0091707,-0.00056865,0.0025806,6.6087,0.0037276,0.0086086,2.7086e-08,0.48,0.2,0
0.029248,0.0038487,0.0048897,-0.0012358,0.0010961,0.00037019,0,0,0.010258,-0.0062279,0,0.004773,0,0,0,0.0049324,-0.0012785,0.0010961,7.1205,0.0015833,0.0054282,8.637e-09,0.5,0.2,0
0.02939,0.0038428,0.0083483,-0.00013793,0.0024631,0.00049555,0,0,0.0076508,-0.0033814,0,0.0012884,0,0,0,0.0083771,-0.00016677,0.0024631,3.3307,0.0035578,0.0075793,1.3625e-08,0.52,0.2,0
0.029554,0.0038481,0.0096179,0.00030067,0.0029756,0.00035178,0,0,0.0086351,-0.0034774,0,0.00091463,0,0,0,0.0096312,0.0002874,0.0029756,2.1591,0.0042981,0.0083316,1.9613e-08,0.54,0.2,0
0.029736,0.0038735,0.010381,0.00055337,0.0032803,0.00023512,0,0,0.0092309,-0.003545,0,0.0006113,0,0,0,0.010387,0.00054775,0.0032803,1.3697,0.0047382,0.0087969,2.3927e-08,0.56,0.2,0
0.029923,0.0039114,0.010637,0.00062766,0.0033794,6.8009e-05,0,0,0.0094348,-0.0035772,0,0.00017683,0,0,0,0.010637,0.00062719,0.0033794,0.38928,0.0048813,0.008957,2.5501e-08,0.58,0.2,0
0.030113,0.0039613,0.010626,0.00061626,0.0033727,-9.7638e-05,0,0,0.0094295,-0.0035834,0,-0.00025386,0,0,0,0.010627,0.0006153,0.0033727,-0.5588,0.0048717,0.0089573,2.5461e-08,0.6,0.2,0
0.030301,0.0040234,0.010348,0.00051728,0.0032594,-0.00026324,0,0,0.0092145,-0.0035648,0,-0.00068441,0,0,0,0.010355,0.00051024,0.0032594,-1.5328,0.0047081,0.008798,2.3808e-08,0.62,0.2,0
0.030482,0.0040985,0.0095546,0.00023109,0.0029357,-0.00037408,0,0,0.0086046,-0.003516,0,-0.0009726,0,0,0,0.0095696,0.0002161,0.0029357,-2.2939,0.0042405,0.0083335,1.9402e-08,0.64,0.2,0
0.030645,0.0041947,0.0082642,-0.00025036,0.0024041,-0.00051626,0,0,0.0076181,-0.0034509,0,-0.0013423,0,0,0,0.0082954,-0.00028154,0.0024041,-3.4571,0.0034727,0.0075988,1.3414e-08,0.66,0.2,0
0.030786,0.0043026,0.004813,-0.0013894,0.0010271,-0.00038119,0,0,0.010246,-0.0064774,0,-0.0048689,0,0,0,0.0048569,-0.0014333,0.0010271,-7.1579,0.0014835,0.0054903,8.3037e-09,0.68,0.2,0
0.031023,0.0043935,0.0089288,-0.00077245,0.0024469,-0.00091204,0,0,0.031018,-0.014498,0,-0.012301,0,0,0,0.0090258,-0.00086944,0.0024469,-6.2128,0.0035344,0.0087238,2.6545e-08,0.7,0.2,0
0.032411,0.0050524,0.0067991,-0.00068562,0.001834,-0.00081564,0,0,0.064545,-0.032755,0,-0.021207,0,0,0,0.0068869,-0.00077348,0.001834,-6.1476,0.0026492,0.0067458,8.1975e-09,0.72,0.2,0
0.033605,0.0057986,0.0063876,-0.00060679,0.0017342,-0.00039101,0,0,0.060493,-0.030433,0,-0.010166,0,0,0,0.0064094,-0.00062858,0.0017342,-3.1898,0.002505,0.0062037,6.5385e-09,0.74,0.2,0
0.03483,0.0065199,0.0066076,-4.9198e-05,0.0019675,-0.00026694,0,0,0.060321,-0.026217,0,-0.0069405,0,0,0,0.0066183,-5.9886e-05,0.0019675,-2.2927,0.002842,0.0059304,6.6442e-09,0.76,0.2,0
0.036018,0.0072157,0.0066304,0.00026263,0.0020679,-0.00020485,0,0,0.059312,-0.023468,0,-0.0053262,0,0,0,0.0066369,0.00025604,0.0020679,-1.8407,0.002987,0.0056954,6.3519e-09,0.78,0.2,0
0.037203,0.0078148,0.0067285,0.00044091,0.0021508,-0.00025315,0,0,0.059509,-0.022229,0,-0.0065819,0,0,0,0.0067386,0.00043073,0.0021508,-2.3019,0.0031067,0.0056479,6.4417e-09,0.8,0.2,0
0.038398,0.0083114,0.0068144,0.00042859,0.0021729,-0.00029748,0,0,0.06034,-0.022676,0,-0.0077344,0,0,0,0.0068283,0.00041476,0.0021729,-2.6614,0.0031386,0.0057401,6.7296e-09,0.82,0.2,0
0.039616,0.0087128,0.0069169,0.00035735,0.0021823,-0.00031517,0,0,0.06155,-0.023724,0,-0.0081945,0,0,0,0.006932,0.00034224,0.0021823,-2.7445,0.0031522,0.0058895,7.1426e-09,0.84,0.2,0
0.04086,0.0090368,0.0070064,0.00026502,0.0021814,-0.00030794,0,0,0.062725,-0.024913,0,-0.0080065,0,0,0,0.0070204,0.00025099,0.0021814,-2.61,0.003151,0.0060402,7.5433e-09,0.86,0.2,0
0.042126,0.009297,0.0070771,0.00016708,0.0021732,-0.00028454,0,0,0.06375,-0.02608,0,-0.0073981,0,0,0,0.0070888,0.00015538,0.0021732,-2.354,0.0031391,0.0061768,7.8923e-09,0.88,0.2,0
0.04341,0.0095034,0.0071318,7.4342e-05,0.0021619,-0.00025,0,0,0.06461,-0.027138,0,-0.0065001,0,0,0,0.0071407,6.5497e-05,0.0021619,-2.0263,0.0031227,0.0062945,8.1834e-09,0.9,0.2,0
0.04471,0.0096634,0.0071733,-6.5878e-06,0.00215,-0.00020755,0,0,0.065303,-0.028036,0,-0.0053964,0,0,0,0.0071793,-1.2583e-05,0.00215,-1.6544,0.0031056,0.0063912,8.4161e-09,0.92,0.2,0
0.046022,0.0097827,0.0072035,-7.1818e-05,0.0021395,-0.00015964,0,0,0.065832,-0.028747,0,-0.0041506,0,0,0,0.007207,-7.5319e-05,0.0021395,-1.2564,0.0030904,0.0064659,8.592e-09,0.94,0.2,0
0.047343,0.0098653,0.0072238,-0.00011931,0.0021314,-0.00010815,0,0,0.066202,-0.029259,0,-0.002812,0,0,0,0.0072254,-0.0001209,0.0021314,-0.84365,0.0030786,0.0065188,8.7143e-09,0.96,0.2,0
0.04867,0.0099138,0.0072356,-0.00014807,0.0021263,-5.4564e-05,0,0,0.066421,-0.029566,0,-0.0014187,0,0,0,0.0072359,-0.00014847,0.0021263,-0.42337,0.0030712,0.0065503,8.786e-09,0.98,0.2,0
0.05,0.0099298,0.0072394,-0.00015769,0.0021245,3.0799e-05,0,0,0.066493,-0.029669,0,0.00080078,0,0,0,0.0072395,-0.00015782,0.0021245,0.23856,0.0030687,0.006561,8.8103e-09,1,0.2,0
0,0,0.0067556,0.0028952,0.0028952,0.001239,0,0,0.050184,0,0,0.032215,0,0,0,0.0071191,0.0025318,0.0028952,16.349,0.004182,0.0044168,4.3243e-09,0,0.22,0
0.0010037,0.00064429,0.0067267,0.0025607,0.0027862,0.0012363,0,0,0.051227,-0.0029317,0,0.032145,0,0,0,0.007066,0.0022214,0.0027862,15.345,0.0040246,0.0045883,4.7087e-09,0.02,0.22,0
0.0020491,0.0012692,0.0068369,0.0022877,0.0027374,0.0012143,0,0,0.053294,-0.0058459,0,0.031573,0,0,0,0.0071408,0.0019839,0.0027374,14.048,0.003954,0.0048245,5.2961e-09,0.04,0.22,0
0.0031354,0.0018734,0.0069435,0.0020202,0.0026891,0.001188,0,0,0.055307,-0.0086956,0,0.030888,0,0,0,0.0072152,0.0017485,0.0026891,12.881,0.0038843,0.0050623,5.8951e-09,0.06,0.22,0
0.0042613,0.0024538,0.0070442,0.001764,0.0026425,0.0011549,0,0,0.057223,-0.01142,0,0.030026,0,0,0,0.0072857,0.0015224,0.0026425,11.813,0.0038169,0.0052929,6.4811e-09,0.08,0.22,0
0.0054244,0.0030065,0.0071369,0.0015247,0.0025985,0.0011146,0,0,0.058999,-0.013959,0,0.02898,0,0,0,0.0073501,0.0013115,0.0025985,10.832,0.0037534,0.0055091,7.033e-09,0.1,0.22,0
0.0066213,0.0035273,0.0072199,0.0013074,0.0025582,0.0010686,0,0,0.060602,-0.01626,0,0.027784,0,0,0,0.0074071,0.0011202,0.0025582,9.937,0.0036951,0.0057055,7.5349e-09,0.12,0.22,0
0.0078484,0.0040121,0.0072922,0.0011156,0.0025223,0.0010193,0,0,0.062008,-0.018288,0,0.026501,0,0,0,0.007456,0.00095173,0.0025223,9.1325,0.0036434,0.0058785,7.9768e-09,0.14,0.22,0
0.0091016,0.0044577,0.0073537,0.00095148,0.0024915,0.00096921,0,0,0.063208,-0.020021,0,0.025199,0,0,0,0.0074972,0.00080797,0.0024915,8.4225,0.0035989,0.0060265,8.3535e-09,0.16,0.22,0
0.010377,0.0048612,0.0074047,0.00081619,0.0024663,0.00092102,0,0,0.064199,-0.021451,0,0.023946,0,0,0,0.007531,0.00068986,0.0024663,7.8101,0.0035624,0.0061485,8.664e-09,0.18,0.22,0
0.01167,0.0052203,0.0074458,0.00070999,0.0024467,0.00087677,0,0,0.064988,-0.022578,0,0.022796,0,0,0,0.0075581,0.00059773,0.0024467,7.296,0.0035342,0.0062446,8.909e-09,0.2,0.22,0
0.012976,0.0055331,0.0074778,0.00063267,0.0024331,0.00083799,0,0,0.06558,-0.023406,0,0.021788,0,0,0,0.0075788,0.00053157,0.0024331,6.8789,0.0035145,0.006315,9.0902e-09,0.22,0.22,0
0.014293,0.0057975,0.0075011,0.00058368,0.0024254,0.00080553,0,0,0.065983,-0.023943,0,0.020944,0,0,0,0.0075936,0.00049111,0.0024254,6.5552,0.0035034,0.0063599,9.209e-09,0.24,0.22,0
0.015616,0.0060115,0.007516,0.00056218,0.0024235,0.00077963,0,0,0.066203,-0.024196,0,0.02027,0,0,0,0.0076023,0.00047584,0.0024235,6.3192,0.0035005,0.0063797,9.2655e-09,0.26,0.22,0
0.016941,0.0061719,0.0075222,0.00056689,0.0024267,0.00075986,0,0,0.066241,-0.024178,0,0.019756,0,0,0,0.0076043,0.00048484,0.0024267,6.1626,0.0035053,0.0063743,9.2586e-09,0.28,0.22,0
0.018265,0.0062746,0.0075186,0.00059573,0.0024343,0.00074502,0,0,0.066096,-0.023902,0,0.01937,0,0,0,0.0075979,0.00051646,0.0024343,6.0733,0.0035162,0.0063438,9.1851e-09,0.3,0.22,0
0.019585,0.0063133,0.0075023,0.00064501,0.0024442,0.00073272,0,0,0.065755,-0.023389,0,0.019051,0,0,0,0.0075797,0.00056759,0.0024442,6.0315,0.0035305,0.0062875,9.0364e-09,0.32,0.22,0
0.020896,0.0062786,0.0074667,0.0007082,0.0024525,0.0007181,0,0,0.065185,-0.022675,0,0.018671,0,0,0,0.0075421,0.00063274,0.0024525,5.9986,0.0035424,0.006203,8.7953e-09,0.34,0.22,0
0.022192,0.0061552,0.0073965,0.00077008,0.00245,0.00068918,0,0,0.064305,-0.021839,0,0.017919,0,0,0,0.0074674,0.00069916,0.00245,5.8753,0.0035388,0.0060848,8.4224e-09,0.36,0.22,0
0.023468,0.0059173,0.0073075,0.00081744,0.0024375,0.00061389,0,0,0.06331,-0.021061,0,0.015961,0,0,0,0.0073651,0.00075989,0.0024375,5.3562,0.0035208,0.0059466,7.9724e-09,0.38,0.22,0
0.024725,0.0055167,0.0073291,0.00075957,0.0024266,0.00050755,0,0,0.063733,-0.021671,0,0.013196,0,0,0,0.0073681,0.00072059,0.0024266,4.3918,0.0035051,0.0059799,8.0436e-09,0.4,0.22,0
0.026017,0.0049753,0.0070612,1.0507e-05,0.0021215,0.00042652,0,0,0.064216,-0.027443,0,0.01109,0,0,0,0.0070869,-1.5202e-05,0.0021215,3.4493,0.0030644,0.0063111,8.0987e-09,0.42,0.22,0
0.027293,0.0043079,0.0074831,-0.00034595,0.0021411,0.00078939,0,0,0.069445,-0.032332,0,0.020524,0,0,0,0.0075619,-0.00042475,0.0021411,5.7006,0.0030928,0.0070624,1.0372e-08,0.44,0.22,0
0.028795,0.0037184,0.009955,-0.00015054,0.0029413,0.00052285,0,0,0.033561,-0.014329,0,0.010178,0,0,0,0.010005,-0.00020059,0.0029413,4.1453,0.0042486,0.0090533,3.4049e-08,0.46,0.22,0
0.029051,0.0037207,0.0056311,-0.00042187,0.0015628,-8.3216e-05,0,0,0.01105,-0.0051669,0,0.00072238,0,0,0,0.0056362,-0.00042696,0.0015628,0.94265,0.0022573,0.0053533,1.1846e-08,0.48,0.22,0
0.029202,0.0037592,0.0084216,-0.0011061,0.0021947,-0.0003483,0,0,0.0080951,-0.004291,0,-0.00090559,0,0,0,0.0084344,-0.0011188,0.0021947,-2.0908,0.0031701,0.0084017,1.527e-08,0.5,0.22,0
0.029375,0.0037763,0.0093423,5.7114e-05,0.0028198,-0.00030832,0,0,0.0084792,-0.0035915,0,-0.00080162,0,0,0,0.0093525,4.6888e-05,0.0028198,-1.8997,0.0040731,0.0082753,1.8471e-08,0.52,0.22,0
0.029541,0.0037852,0.0094085,0.0005125,0.0029763,-0.00017972,0,0,0.0083618,-0.0032029,0,-0.00046728,0,0,0,0.0094121,0.00050887,0.0029763,-1.1569,0.0042991,0.0079616,1.7774e-08,0.54,0.22,0
0.029709,0.0038084,0.0096251,0.00064512,0.0030811,-4.8077e-05,0,0,0.0085073,-0.0031667,0,-0.000125,0,0,0,0.0096254,0.00064486,0.0030811,-0.30674,0.0044504,0.008044,1.8698e-08,0.56,0.22,0
0.029881,0.0038456,0.0097936,0.00071847,0.0031536,-7.8128e-06,0,0,0.008632,-0.0031657,0,-2.0313e-05,0,0,0,0.0097937,0.00071846,0.0031536,-0.049326,0.0045553,0.0081357,1.9532e-08,0.58,0.22,0
0.030054,0.0038954,0.0097785,0.00070555,0.0031452,2.7111e-06,0,0,0.0086233,-0.0031716,0,7.049e-06,0,0,0,0.0097785,0.00070555,0.0031452,0.017121,0.0045431,0.0081324,1.9473e-08,0.6,0.22,0
0.030226,0.003958,0.0095785,0.00060468,0.0030549,4.6715e-05,0,0,0.0084806,-0.0031853,0,0.00012146,0,0,0,0.0095787,0.00060444,0.0030549,0.29826,0.0044127,0.0080344,1.8521e-08,0.62,0.22,0
0.030394,0.0040349,0.0093328,0.00044057,0.002932,0.00018487,0,0,0.008321,-0.0032389,0,0.00048066,0,0,0,0.0093366,0.00043672,0.002932,1.1905,0.0042351,0.0079515,1.7508e-08,0.64,0.22,0
0.030559,0.0041266,0.009235,-7.1944e-05,0.0027489,0.00032138,0,0,0.008432,-0.0036671,0,0.00083559,0,0,0,0.0092461,-8.3028e-05,0.0027489,1.9754,0.0039707,0.0082845,1.8116e-08,0.66,0.22,0
0.030731,0.0042105,0.0082974,-0.0013069,0.0020971,0.00035013,0,0,0.0080603,-0.0044253,0,0.00091033,0,0,0,0.0083101,-0.0013197,0.0020971,2.085,0.0030292,0.008456,1.4842e-08,0.68,0.22,0
0.030881,0.0042719,0.0055446,-0.00059559,0.0014847,9.0877e-05,0,0,0.011031,-0.0054398,0,-0.00066859,0,0,0,0.0055497,-0.00060074,0.0014847,-0.83625,0.0021446,0.0054178,1.1593e-08,0.7,0.22,0
0.031137,0.0043732,0.0097663,-0.00057382,0.0027577,-0.00044307,0,0,0.033578,-0.015448,0,-0.0090549,0,0,0,0.0098049,-0.00061239,0.0027577,-3.5438,0.0039834,0.0092071,3.3352e-08,0.72,0.22,0
0.03264,0.0051255,0.0073639,-0.00071376,0.001995,-0.00066105,0,0,0.069795,-0.035214,0,-0.017187,0,0,0,0.0074176,-0.0007675,0.001995,-4.6477,0.0028817,0.0072122,1.0176e-08,0.74,0.22,0
0.033929,0.0059753,0.0069655,-0.00033981,0.0019877,-0.00024992,0,0,0.064712,-0.030258,0,-0.006498,0,0,0,0.0069741,-0.00034835,0.0019877,-1.9571,0.0028711,0.0064784,8.0912e-09,0.76,0.22,0
0.035229,0.0067292,0.0072211,0.00041815,0.0022918,-0.00027574,0,0,0.064082,-0.024357,0,-0.0071692,0,0,0,0.0072323,0.00040699,0.0022918,-2.3173,0.0033104,0.0061052,8.0419e-09,0.78,0.22,0
0.036492,0.0073607,0.0071996,0.00049326,0.0023079,-0.00034758,0,0,0.063593,-0.02359,0,-0.009037,0,0,0,0.0072176,0.00047529,0.0023079,-2.9589,0.0033336,0.0060383,7.8954e-09,0.8,0.22,0
0.037773,0.0078435,0.0072878,0.00043735,0.0023175,-0.00039213,0,0,0.064613,-0.024442,0,-0.010195,0,0,0,0.0073102,0.00041498,0.0023175,-3.2655,0.0033476,0.006168,8.2992e-09,0.82,0.22,0
0.039077,0.008222,0.0073689,0.0003513,0.0023161,-0.00038993,0,0,0.065686,-0.025542,0,-0.010138,0,0,0,0.0073905,0.0003297,0.0023161,-3.1706,0.0033454,0.0063067,8.7064e-09,0.84,0.22,0
0.0404,0.0085216,0.0074215,0.00024382,0.0022996,-0.00036675,0,0,0.066585,-0.026725,0,-0.0095354,0,0,0,0.0074402,0.00022513,0.0022996,-2.9174,0.0033216,0.0064337,9.0373e-09,0.86,0.22,0
0.04174,0.0087582,0.0074604,0.00013369,0.0022782,-0.00033094,0,0,0.067368,-0.027879,0,-0.0086043,0,0,0,0.0074753,0.00011877,0.0022782,-2.581,0.0032908,0.0065495,9.3188e-09,0.88,0.22,0
0.043095,0.0089433,0.0074903,3.1761e-05,0.0022566,-0.00028569,0,0,0.068038,-0.028923,0,-0.007428,0,0,0,0.0075013,2.0834e-05,0.0022566,-2.1904,0.0032596,0.0066506,9.5532e-09,0.9,0.22,0
0.044462,0.0090854,0.007513,-5.531e-05,0.0022373,-0.00023387,0,0,0.068584,-0.029804,0,-0.0060806,0,0,0,0.0075202,-6.253e-05,0.0022373,-1.7683,0.0032316,0.0067341,9.7399e-09,0.92,0.22,0
0.045838,0.0091905,0.0075291,-0.00012437,0.0022214,-0.00017789,0,0,0.069,-0.030495,0,-0.0046252,0,0,0,0.0075333,-0.0001285,0.0022214,-1.3308,0.0032087,0.0067985,9.8795e-09,0.94,0.22,0
0.047221,0.009263,0.0075397,-0.00017407,0.0022097,-0.00011956,0,0,0.069291,-0.030989,0,-0.0031085,0,0,0,0.0075416,-0.00017592,0.0022097,-0.88774,0.0031918,0.006844,9.9751e-09,0.96,0.22,0
0.04861,0.0093054,0.0075457,-0.00020395,0.0022025,-6.002e-05,0,0,0.069461,-0.031284,0,-0.0015605,0,0,0,0.0075462,-0.00020442,0.0022025,-0.44371,0.0031814,0.0068709,1.0031e-08,0.98,0.22,0
0.05,0.0093194,0.0075476,-0.00021391,0.0022001,2.6897e-05,0,0,0.069518,-0.031382,0,0.00069933,0,0,0,0.0075477,-0.00021401,0.0022001,0.19855,0.0031779,0.00688,1.0049e-08,1,0.22,0
0,0,0.0068118,0.0029193,0.0029193,0.0011256,0,0,0.050602,2.1684e-19,0,0.029264,0,0,0,0.0071138,0.0026173,0.0029193,15.021,0.0042168,0.0043533,4.1686e-09,0,0.24,0
0.001012,0.00058529,0.006782,0.00258,0.0028086,0.0011233,0,0,0.051654,-0.0029714,0,0.029207,0,0,0,0.0070634,0.0022986,0.0028086,14.066,0.0040569,0.0045314,4.5754e-09,0.02,0.24,0
0.0020662,0.0011521,0.0068944,0.0023093,0.0027611,0.0011036,0,0,0.053733,-0.0058736,0,0.028693,0,0,0,0.0071462,0.0020575,0.0027611,12.852,0.0039883,0.0047759,5.1879e-09,0.04,0.24,0
0.0031613,0.0016998,0.0070037,0.0020475,0.0027154,0.0010814,0,0,0.055749,-0.0086825,0,0.028115,0,0,0,0.0072294,0.0018218,0.0027154,11.787,0.0039222,0.0050208,5.8125e-09,0.06,0.24,0
0.0042961,0.0022263,0.0071087,0.0017981,0.0026721,0.0010545,0,0,0.057677,-0.011361,0,0.027416,0,0,0,0.0073104,0.0015964,0.0026721,10.829,0.0038596,0.0052593,6.4308e-09,0.08,0.24,0
0.0054684,0.0027286,0.007208,0.0015652,0.0026319,0.0010222,0,0,0.059488,-0.013868,0,0.026578,0,0,0,0.0073874,0.0013857,0.0026319,9.9581,0.0038017,0.0054858,7.0263e-09,0.1,0.24,0
0.0066756,0.0032034,0.0073003,0.0013523,0.0025958,0.00098542,0,0,0.061159,-0.016165,0,0.025621,0,0,0,0.0074594,0.0011933,0.0025958,9.1661,0.0037495,0.0056958,7.5857e-09,0.12,0.24,0
0.0079148,0.0036473,0.0073852,0.0011625,0.0025643,0.00094564,0,0,0.062672,-0.018224,0,0.024587,0,0,0,0.0075257,0.001022,0.0025643,8.4528,0.003704,0.0058861,8.0997e-09,0.14,0.24,0
0.0091825,0.0040575,0.0074624,0.00099789,0.0025381,0.00090495,0,0,0.064016,-0.020022,0,0.023529,0,0,0,0.0075867,0.0008736,0.0025381,7.8205,0.0036661,0.0060549,8.5629e-09,0.16,0.24,0
0.010475,0.0044313,0.0075321,0.00085987,0.0025176,0.00086549,0,0,0.065189,-0.02155,0,0.022503,0,0,0,0.0076425,0.00074943,0.0025176,7.2719,0.0036365,0.0062011,8.9729e-09,0.18,0.24,0
0.01179,0.0047666,0.0075951,0.00074922,0.0025033,0.00082917,0,0,0.066193,-0.022803,0,0.021558,0,0,0,0.0076941,0.00065023,0.0025033,6.8085,0.0036158,0.0063243,9.3298e-09,0.2,0.24,0
0.013123,0.0050612,0.0076521,0.00066633,0.0024955,0.00079745,0,0,0.067035,-0.023779,0,0.020734,0,0,0,0.007742,0.00057646,0.0024955,6.4303,0.0036047,0.0064246,9.6347e-09,0.22,0.24,0
0.014471,0.0053132,0.0077042,0.00061131,0.0024947,0.0007713,0,0,0.067724,-0.024483,0,0.020054,0,0,0,0.0077871,0.00052841,0.0024947,6.1349,0.0036034,0.0065025,9.8899e-09,0.24,0.24,0
0.015832,0.0055202,0.0077526,0.00058405,0.002501,0.00075104,0,0,0.068271,-0.02492,0,0.019527,0,0,0,0.0078304,0.00050621,0.002501,5.9172,0.0036125,0.0065584,1.0098e-08,0.26,0.24,0
0.017202,0.005679,0.0077988,0.00058411,0.0025149,0.00073633,0,0,0.068691,-0.0251,0,0.019144,0,0,0,0.0078731,0.00050972,0.0025149,5.7684,0.0036326,0.0065936,1.0263e-08,0.28,0.24,0
0.01858,0.0057851,0.0078447,0.00061045,0.0025365,0.00072608,0,0,0.069006,-0.025039,0,0.018878,0,0,0,0.0079168,0.0005383,0.0025365,5.6752,0.0036639,0.00661,1.0391e-08,0.3,0.24,0
0.019963,0.0058318,0.0078928,0.00066103,0.0025662,0.00071846,0,0,0.069247,-0.024767,0,0.01868,0,0,0,0.0079635,0.00059034,0.0025662,5.619,0.0037067,0.0066106,1.0491e-08,0.32,0.24,0
0.02135,0.005809,0.0079445,0.00073129,0.0026027,0.00071035,0,0,0.069443,-0.024329,0,0.018469,0,0,0,0.0080138,0.000662,0.0026027,5.5711,0.0037595,0.0065991,1.0569e-08,0.34,0.24,0
0.02274,0.0057007,0.0079957,0.00081277,0.0026426,0.00069722,0,0,0.069591,-0.023787,0,0.018128,0,0,0,0.0080628,0.00074572,0.0026426,5.4931,0.003817,0.0065771,1.0619e-08,0.36,0.24,0
0.024133,0.0054809,0.0079735,0.000857,0.0026491,0.00065568,0,0,0.069216,-0.023298,0,0.017048,0,0,0,0.0080334,0.0007971,0.0026491,5.2204,0.0038265,0.0065109,1.0404e-08,0.38,0.24,0
0.025509,0.0050869,0.0078987,0.00086916,0.0026303,0.00050742,0,0,0.068488,-0.022895,0,0.013193,0,0,0,0.0079351,0.00083273,0.0026303,4.1075,0.0037994,0.0063959,9.945e-09,0.4,0.24,0
0.026873,0.0043696,0.008305,9.1161e-05,0.0025189,0.00065151,0,0,0.07522,-0.03156,0,0.016939,0,0,0,0.0083564,3.9806e-05,0.0025189,4.507,0.0036383,0.0073955,1.3179e-08,0.42,0.24,0
0.028518,0.00364,0.011185,-0.00013663,0.0033145,0.0001505,0,0,0.03708,-0.015485,0,0.0076882,0,0,0,0.011218,-0.00016964,0.0033145,2.157,0.0047875,0.010107,4.8986e-08,0.44,0.24,0
0.028808,0.0036034,0.0064269,-9.2122e-05,0.0019004,-0.00035858,0,0,0.012408,-0.0051768,0,-0.0014653,0,0,0,0.0064471,-0.00011236,0.0019004,-2.5053,0.0027451,0.0058205,1.6738e-08,0.46,0.24,0
0.028972,0.0036406,0.0093883,-0.00044284,0.0026836,-0.0004925,0,0,0.0087161,-0.0040644,0,-0.0012805,0,0,0,0.0094129,-0.00046745,0.0026836,-2.8607,0.0038764,0.0087417,1.9889e-08,0.48,0.24,0
0.029156,0.0036771,0.0096881,-0.00046149,0.002768,-0.00032608,0,0,0.0089962,-0.0041983,0,-0.00084782,0,0,0,0.0096986,-0.00047195,0.002768,-1.8382,0.0039982,0.0089992,2.1736e-08,0.5,0.24,0
0.029332,0.0036992,0.0094598,-0.00018114,0.0027836,-0.00042467,0,0,0.008679,-0.0038541,0,-0.0011041,0,0,0,0.0094784,-0.00019981,0.0027836,-2.5173,0.0040207,0.0085846,1.9759e-08,0.52,0.24,0
0.029503,0.00372,0.0094449,0.00036783,0.0029438,-0.00033105,0,0,0.0084514,-0.0033488,0,-0.00086072,0,0,0,0.009457,0.00035577,0.0029438,-2.0859,0.0042522,0.0081225,1.8397e-08,0.54,0.24,0
0.02967,0.0037468,0.0093862,0.00061062,0.0029991,-0.00018478,0,0,0.0083033,-0.003105,0,-0.00048043,0,0,0,0.0093901,0.00060673,0.0029991,-1.2057,0.004332,0.007865,1.7414e-08,0.56,0.24,0
0.029836,0.0037848,0.0093832,0.00069588,0.0030237,-4.9304e-05,0,0,0.0082673,-0.0030262,0,-0.00012819,0,0,0,0.0093835,0.0006956,0.0030237,-0.32516,0.0043676,0.0077893,1.7162e-08,0.58,0.24,0
0.030001,0.0038345,0.0093684,0.00068056,0.0030147,7.246e-05,0,0,0.0082598,-0.0030344,0,0.0001884,0,0,0,0.009369,0.00067996,0.0030147,0.47783,0.0043545,0.0077887,1.7118e-08,0.6,0.24,0
0.030166,0.003896,0.0093416,0.00056384,0.0029716,0.0002135,0,0,0.0082809,-0.0031301,0,0.0005551,0,0,0,0.0093468,0.00055864,0.0029716,1.3925,0.0042923,0.0078644,1.7282e-08,0.62,0.24,0
0.030332,0.0039689,0.0093687,0.00028378,0.0028958,0.00036876,0,0,0.0084149,-0.0033956,0,0.00095877,0,0,0,0.0093837,0.00026883,0.0028958,2.3205,0.0041828,0.0081263,1.8165e-08,0.64,0.24,0
0.030503,0.004048,0.0093533,-0.00031207,0.0027124,0.00046662,0,0,0.0086332,-0.0039318,0,0.0012132,0,0,0,0.0093758,-0.00033454,0.0027124,2.7575,0.0039179,0.0086016,1.94e-08,0.66,0.24,0
0.030677,0.0041256,0.0095444,-0.00066107,0.002665,0.00036452,0,0,0.0089432,-0.0043239,0,0.00094775,0,0,0,0.0095574,-0.00067407,0.002665,2.043,0.0038494,0.009037,2.1204e-08,0.68,0.24,0
0.03086,0.0041887,0.0092457,-0.0006923,0.002566,0.00050556,0,0,0.0086836,-0.0042358,0,0.0013144,0,0,0,0.0092714,-0.00071795,0.002566,2.9047,0.0037065,0.0088185,1.9469e-08,0.7,0.24,0
0.031025,0.0042494,0.0063322,-0.00032004,0.0018036,0.0003797,0,0,0.012421,-0.0055471,0,0.0016253,0,0,0,0.0063543,-0.0003421,0.0018036,2.6951,0.0026053,0.0059228,1.6572e-08,0.72,0.24,0
0.031315,0.0043901,0.010961,-0.00071952,0.0030724,-2.3097e-05,0,0,0.037208,-0.017036,0,-0.0059655,0,0,0,0.010986,-0.00074479,0.0030724,-1.3627,0.0044379,0.010364,4.8322e-08,0.74,0.24,0
0.032967,0.0053096,0.0081596,-0.00038566,0.0023322,-0.00046028,0,0,0.075756,-0.035332,0,-0.011967,0,0,0,0.0081843,-0.00041038,0.0023322,-3.0743,0.0033687,0.0076039,1.3079e-08,0.76,0.24,0
0.034345,0.0062414,0.0078048,0.00051731,0.0024966,-0.00027322,0,0,0.069006,-0.025731,0,-0.0071038,0,0,0,0.007815,0.00050708,0.0024966,-2.1441,0.0036063,0.0065441,1.0035e-08,0.78,0.24,0
0.035727,0.0068712,0.0078618,0.00050186,0.0025091,-0.0003913,0,0,0.069585,-0.026094,0,-0.010174,0,0,0,0.0078826,0.00048112,0.0025091,-3.0347,0.0036243,0.0066245,1.0349e-08,0.8,0.24,0
0.037129,0.0073337,0.0079047,0.0004584,0.0025089,-0.00041394,0,0,0.070145,-0.026657,0,-0.010762,0,0,0,0.0079277,0.00043546,0.0025089,-3.172,0.003624,0.0067006,1.061e-08,0.82,0.24,0
0.038533,0.0076911,0.0078784,0.00034783,0.0024679,-0.00040544,0,0,0.070337,-0.027561,0,-0.010542,0,0,0,0.0079002,0.00032606,0.0024679,-3.0729,0.0035647,0.0067626,1.0678e-08,0.84,0.24,0
0.039942,0.0079678,0.0078602,0.00022043,0.0024242,-0.00038342,0,0,0.070668,-0.028649,0,-0.009969,0,0,0,0.0078794,0.00020124,0.0024242,-2.866,0.0035016,0.006843,1.0793e-08,0.86,0.24,0
0.04136,0.0081818,0.0078519,9.4354e-05,0.0023839,-0.00034634,0,0,0.071084,-0.029764,0,-0.0090049,0,0,0,0.0078673,7.8922e-05,0.0023839,-2.5513,0.0034434,0.0069296,1.0934e-08,0.88,0.24,0
0.042786,0.0083464,0.0078493,-1.7315e-05,0.0023496,-0.00029784,0,0,0.071497,-0.03077,0,-0.0077439,0,0,0,0.0078606,-2.8576e-05,0.0023496,-2.1652,0.0033939,0.0070095,1.1069e-08,0.9,0.24,0
0.04422,0.0084712,0.007848,-0.00010983,0.0023215,-0.00024225,0,0,0.071846,-0.031607,0,-0.0062984,0,0,0,0.0078554,-0.0001172,0.0023215,-1.742,0.0033532,0.0070758,1.1178e-08,0.92,0.24,0
0.045659,0.0085629,0.0078465,-0.00018163,0.0022995,-0.00018305,0,0,0.072112,-0.032254,0,-0.0047593,0,0,0,0.0078507,-0.0001858,0.0022995,-1.3055,0.0033215,0.0071266,1.1256e-08,0.94,0.24,0
0.047104,0.0086257,0.0078448,-0.00023255,0.0022837,-0.00012236,0,0,0.072295,-0.032711,0,-0.0031814,0,0,0,0.0078467,-0.00023441,0.0022837,-0.86768,0.0032987,0.0071621,1.1308e-08,0.96,0.24,0
0.048551,0.0086624,0.0078435,-0.0002629,0.0022742,-6.1216e-05,0,0,0.072401,-0.032982,0,-0.0015916,0,0,0,0.007844,-0.00026336,0.0022742,-0.43264,0.0032849,0.007183,1.1337e-08,0.98,0.24,0
0.05,0.0086745,0.007843,-0.00027297,0.002271,2.3251e-05,0,0,0.072436,-0.033072,0,0.00060452,0,0,0,0.0078431,-0.00027303,0.002271,0.16414,0.0032804,0.00719,1.1347e-08,1,0.24,0
0,0,0.0068644,0.0029419,0.0029419,0.0010105,0,0,0.050992,6.5052e-19,0,0.026272,0,0,0,0.0071094,0.0026969,0.0029419,13.629,0.0042494,0.0042952,4.0253e-09,0,0.26,0
0.0010199,0.00052544,0.0068338,0.0025978,0.0028295,0.0010085,0,0,0.052056,-0.003012,0,0.026221,0,0,0,0.0070616,0.0023699,0.0028295,12.731,0.004087,0.0044797,4.4536e-09,0.02,0.26,0
0.0020822,0.0010343,0.0069483,0.0023281,0.0027829,0.00099105,0,0,0.05415,-0.0059131,0,0.025767,0,0,0,0.0071519,0.0021244,0.0027829,11.61,0.0040198,0.0047327,5.091e-09,0.04,0.26,0
0.0031859,0.0015261,0.0070601,0.0020701,0.0027391,0.00097202,0,0,0.056174,-0.0086963,0,0.025272,0,0,0,0.0072428,0.0018875,0.0027391,10.643,0.0039564,0.0049844,5.7391e-09,0.06,0.26,0
0.0043292,0.0019994,0.0071687,0.0018259,0.0026984,0.00094948,0,0,0.058114,-0.011342,0,0.024687,0,0,0,0.0073324,0.0016622,0.0026984,9.7833,0.0038977,0.0052297,6.3848e-09,0.08,0.26,0
0.0055104,0.0024518,0.0072734,0.001598,0.0026614,0.00092275,0,0,0.059956,-0.013825,0,0.023991,0,0,0,0.0074197,0.0014517,0.0026614,9.0065,0.0038443,0.0054645,7.0158e-09,0.1,0.26,0
0.0067274,0.0028807,0.0073737,0.001389,0.0026288,0.00089218,0,0,0.061684,-0.016118,0,0.023197,0,0,0,0.0075039,0.0012588,0.0026288,8.3011,0.0037972,0.0056852,7.6221e-09,0.12,0.26,0
0.0079778,0.0032832,0.0074691,0.0012012,0.0026011,0.00085893,0,0,0.063284,-0.018199,0,0.022332,0,0,0,0.0075847,0.0010856,0.0026011,7.6634,0.0037571,0.0058894,8.1962e-09,0.14,0.26,0
0.0092588,0.0036568,0.0075598,0.0010366,0.0025789,0.00082458,0,0,0.064751,-0.02005,0,0.021439,0,0,0,0.0076624,0.00093401,0.0025789,7.094,0.0037251,0.0060753,8.7335e-09,0.16,0.26,0
0.010568,0.0039992,0.007646,0.00089671,0.0025628,0.00079087,0,0,0.066082,-0.021659,0,0.020563,0,0,0,0.0077374,0.00080528,0.0025628,6.5948,0.0037019,0.0062418,9.2318e-09,0.18,0.26,0
0.011902,0.0043082,0.0077286,0.00078257,0.0025533,0.00075942,0,0,0.067278,-0.02302,0,0.019745,0,0,0,0.0078106,0.00070051,0.0025533,6.1672,0.0036882,0.0063885,9.6912e-09,0.2,0.26,0
0.013259,0.0045819,0.0078086,0.00069508,0.0025511,0.00073152,0,0,0.068347,-0.024128,0,0.01902,0,0,0,0.007883,0.00062064,0.0025511,5.811,0.0036849,0.0065153,1.0113e-08,0.22,0.26,0
0.014636,0.0048182,0.0078873,0.00063504,0.0025567,0.00070788,0,0,0.069298,-0.024982,0,0.018405,0,0,0,0.0079558,0.00056659,0.0025567,5.523,0.003693,0.0066223,1.05e-08,0.24,0.26,0
0.016031,0.0050147,0.007967,0.00060315,0.002571,0.00068847,0,0,0.070147,-0.025583,0,0.0179,0,0,0,0.0080308,0.00053934,0.002571,5.2956,0.0037137,0.0067104,1.0858e-08,0.26,0.26,0
0.017442,0.0051679,0.0080505,0.00060013,0.0025952,0.0006722,0,0,0.070919,-0.025936,0,0.017477,0,0,0,0.0081106,0.00053996,0.0025952,5.1144,0.0037486,0.0067808,1.1193e-08,0.28,0.26,0
0.018868,0.005273,0.0081429,0.00062652,0.0026308,0.00065662,0,0,0.071657,-0.026056,0,0.017072,0,0,0,0.0081998,0.00056959,0.0026308,4.9552,0.0038001,0.0068368,1.1523e-08,0.3,0.26,0
0.020308,0.0053227,0.0082533,0.00068277,0.0026808,0.00063728,0,0,0.072443,-0.025975,0,0.016569,0,0,0,0.0083066,0.0006295,0.0026808,4.7783,0.0038723,0.0068846,1.1879e-08,0.32,0.26,0
0.021765,0.0053054,0.0083996,0.00077003,0.0027509,0.00060728,0,0,0.073433,-0.025751,0,0.015789,0,0,0,0.0084476,0.00072199,0.0027509,4.5225,0.0039735,0.0069374,1.2332e-08,0.34,0.26,0
0.023245,0.0052038,0.0086191,0.00089289,0.0028536,0.00055202,0,0,0.074952,-0.025489,0,0.014353,0,0,0,0.0086583,0.00085364,0.0028536,4.0661,0.0041219,0.0070217,1.3038e-08,0.36,0.26,0
0.024763,0.0049854,0.0090338,0.0010903,0.0030372,0.0004515,0,0,0.077955,-0.02531,0,0.011739,0,0,0,0.0090593,0.0010647,0.0030372,3.2428,0.0043871,0.0072135,1.4529e-08,0.38,0.26,0
0.026364,0.0046009,0.0098986,0.0014428,0.0034024,4.1827e-05,0,0,0.084451,-0.025475,0,0.0010875,0,0,0,0.0098988,0.0014426,0.0034024,0.2834,0.0049146,0.0076666,1.8145e-08,0.4,0.26,0
0.028141,0.0037129,0.014226,-0.00064127,0.0040753,0.00052481,0,0,0.042833,-0.017444,0,0.0072861,0,0,0,0.01425,-0.00066596,0.0040753,2.7414,0.0058865,0.013204,1.187e-07,0.42,0.26,0
0.028538,0.0035094,0.008531,0.0006804,0.0027634,-0.00070132,0,0,0.01641,-0.0056459,0,-0.0059569,0,0,0,0.0086009,0.00061045,0.0027634,-6.9886,0.0039916,0.007161,3.4417e-08,0.44,0.26,0
0.02873,0.0035227,0.010739,0.00015671,0.0032687,-0.00041416,0,0,0.0097114,-0.0040456,0,-0.0010768,0,0,0,0.010755,0.00014052,0.0032687,-2.2378,0.0047215,0.0094473,2.7841e-08,0.46,0.26,0
0.028926,0.0035581,0.010343,-0.00018118,0.0030487,-8.6556e-05,0,0,0.0094831,-0.0041988,0,-0.00022505,0,0,0,0.010344,-0.0001819,0.0030487,-0.47117,0.0044036,0.0093396,2.5592e-08,0.48,0.26,0
0.029109,0.0035912,0.0097597,-0.00040634,0.002806,-0.0001901,0,0,0.0090398,-0.004176,0,-0.00049425,0,0,0,0.0097633,-0.00040989,0.002806,-1.0709,0.0040531,0.0090066,2.2037e-08,0.5,0.26,0
0.029288,0.0036222,0.0095576,-0.0001072,0.0028351,-0.00025588,0,0,0.0087392,-0.003825,0,-0.00066528,0,0,0,0.0095644,-0.00011397,0.0028351,-1.5155,0.0040952,0.0085922,2.0113e-08,0.52,0.26,0
0.029459,0.0036512,0.0093705,0.00022747,0.0028794,-0.00026178,0,0,0.0084384,-0.0034475,0,-0.00068063,0,0,0,0.009378,0.00021998,0.0028794,-1.6387,0.0041591,0.0081601,1.8241e-08,0.54,0.26,0
0.029625,0.0036842,0.0092634,0.00048992,0.002926,-0.00017298,0,0,0.0082386,-0.0031669,0,-0.00044976,0,0,0,0.0092668,0.00048651,0.002926,-1.1291,0.0042264,0.0078502,1.6997e-08,0.56,0.26,0
0.029788,0.0037245,0.0092017,0.00059794,0.0029399,-4.5951e-05,0,0,0.0081403,-0.0030445,0,-0.00011947,0,0,0,0.0092019,0.0005977,0.0029399,-0.306,0.0042465,0.0077049,1.6381e-08,0.58,0.26,0
0.029951,0.003774,0.0091912,0.00057883,0.002931,9.2754e-05,0,0,0.0081382,-0.0030578,0,0.00024116,0,0,0,0.0091922,0.00057783,0.002931,0.61697,0.0042337,0.0077119,1.6373e-08,0.6,0.26,0
0.030114,0.0038327,0.0092302,0.00043183,0.0028986,0.00022789,0,0,0.0082311,-0.0032068,0,0.00059252,0,0,0,0.0092361,0.00042593,0.0028986,1.4827,0.0041869,0.0078707,1.6962e-08,0.62,0.26,0
0.03028,0.003899,0.0093097,0.00012878,0.0028316,0.00032964,0,0,0.0084216,-0.0035136,0,0.00085706,0,0,0,0.0093216,0.00011696,0.0028316,2.0537,0.00409,0.0081919,1.8137e-08,0.64,0.26,0
0.030451,0.0039694,0.0094591,-0.00024995,0.0027628,0.00033517,0,0,0.0087053,-0.0039165,0,0.00087144,0,0,0,0.0094707,-0.00026151,0.0027628,1.9748,0.0039907,0.0086272,1.9839e-08,0.66,0.26,0
0.030628,0.0040376,0.0096208,-0.00058959,0.0027094,0.00026582,0,0,0.0089849,-0.0042887,0,0.00069113,0,0,0,0.0096278,-0.00059651,0.0027094,1.4903,0.0039135,0.0090368,2.1517e-08,0.68,0.26,0
0.03081,0.0041025,0.010167,-0.00042053,0.0029241,0.00014215,0,0,0.0094164,-0.004348,0,0.0003696,0,0,0,0.010169,-0.00042244,0.0029241,0.76907,0.0042236,0.0093776,2.4892e-08,0.7,0.26,0
0.031005,0.0041642,0.010602,-0.00014771,0.0031362,0.00042042,0,0,0.0097051,-0.004269,0,0.0010931,0,0,0,0.010618,-0.00016412,0.0031362,2.2364,0.00453,0.0095688,2.7619e-08,0.72,0.26,0
0.031198,0.0042467,0.0084711,0.00037077,0.0026526,0.00074577,0,0,0.016575,-0.0061921,0,0.006406,0,0,0,0.0085483,0.00029364,0.0026526,7.2487,0.0038315,0.0073642,3.5274e-08,0.74,0.26,0
0.031599,0.004562,0.014011,-0.0014595,0.0037655,-0.00032598,0,0,0.043085,-0.019616,0,-0.004434,0,0,0,0.01402,-0.0014685,0.0037655,-1.6215,0.005439,0.01365,1.1888e-07,0.76,0.26,0
0.033383,0.0056999,0.0097746,0.0010506,0.0032476,0.0002108,0,0,0.084852,-0.028561,0,0.0054809,0,0,0,0.0097797,0.0010455,0.0032476,1.3834,0.0046909,0.0078678,1.8565e-08,0.78,0.26,0
0.034993,0.0063169,0.0089327,0.00072033,0.0028959,-0.00020405,0,0,0.078478,-0.028282,0,-0.0053052,0,0,0,0.0089378,0.00071527,0.0028959,-1.4224,0.004183,0.007378,1.4714e-08,0.8,0.26,0
0.036522,0.0067773,0.0085485,0.00053671,0.0027256,-0.0002959,0,0,0.075699,-0.028455,0,-0.0076934,0,0,0,0.0085594,0.0005258,0.0027256,-2.1123,0.0039369,0.0071907,1.3244e-08,0.82,0.26,0
0.038021,0.0071196,0.0083689,0.00037166,0.0026222,-0.00034716,0,0,0.074708,-0.029257,0,-0.0090261,0,0,0,0.008384,0.00035662,0.0026222,-2.481,0.0037876,0.0071683,1.2743e-08,0.84,0.26,0
0.03951,0.0073757,0.0082747,0.0002026,0.0025432,-0.00035315,0,0,0.07451,-0.030428,0,-0.0091818,0,0,0,0.0082901,0.00018718,0.0025432,-2.5002,0.0036735,0.0072193,1.2614e-08,0.86,0.26,0
0.041001,0.0075677,0.0082244,5.4823e-05,0.0024838,-0.00032754,0,0,0.074628,-0.031576,0,-0.0085159,0,0,0,0.0082375,4.1713e-05,0.0024838,-2.2922,0.0035877,0.0072883,1.262e-08,0.88,0.26,0
0.042496,0.0077125,0.0081906,-6.7782e-05,0.0024368,-0.00028309,0,0,0.074799,-0.03256,0,-0.0073603,0,0,0,0.0082003,-7.7475e-05,0.0024368,-1.961,0.0035199,0.0073505,1.2644e-08,0.9,0.26,0
0.043993,0.0078211,0.0081644,-0.00016523,0.0023997,-0.0002297,0,0,0.07494,-0.033345,0,-0.0059722,0,0,0,0.0081707,-0.00017156,0.0023997,-1.5784,0.0034663,0.0073996,1.2656e-08,0.92,0.26,0
0.045493,0.0079004,0.0081437,-0.00023885,0.0023714,-0.0001728,0,0,0.075039,-0.033934,0,-0.0044928,0,0,0,0.0081472,-0.00024241,0.0023714,-1.1805,0.0034254,0.0074357,1.2656e-08,0.94,0.26,0
0.046995,0.0079545,0.0081284,-0.00029015,0.0023515,-0.00011503,0,0,0.0751,-0.034341,0,-0.0029908,0,0,0,0.00813,-0.00029172,0.0023515,-0.7827,0.0033966,0.00746,1.2651e-08,0.96,0.26,0
0.048497,0.0079861,0.008119,-0.0003204,0.0023396,-5.739e-05,0,0,0.075132,-0.03458,0,-0.0014921,0,0,0,0.0081193,-0.00032079,0.0023396,-0.3896,0.0033794,0.0074739,1.2645e-08,0.98,0.26,0
0.05,0.0079965,0.0081158,-0.00033039,0.0023356,1.9995e-05,0,0,0.075142,-0.034658,0,0.00051988,0,0,0,0.0081158,-0.00033043,0.0023356,0.13564,0.0033737,0.0074786,1.2643e-08,1,0.26,0
0,0,0.0069101,0.0029615,0.0029615,0.00089387,0,0,0.051332,-1.0842e-18,0,0.023241,0,0,0,0.007103,0.0027685,0.0029615,12.179,0.0042777,0.0042413,3.8911e-09,0,0.28,0
0.0010266,0.00046481,0.0068788,0.0026134,0.0028477,0.00089206,0,0,0.052405,-0.0030453,0,0.023193,0,0,0,0.0070579,0.0024344,0.0028477,11.349,0.0041133,0.0044313,4.3383e-09,0.02,0.28,0
0.0020962,0.00091559,0.0069951,0.0023444,0.0028018,0.00087696,0,0,0.054512,-0.0059467,0,0.022801,0,0,0,0.0071549,0.0021845,0.0028018,10.332,0.0040471,0.0046923,4.9979e-09,0.04,0.28,0
0.0032071,0.001352,0.0071088,0.0020895,0.0027595,0.00086039,0,0,0.056541,-0.0087101,0,0.02237,0,0,0,0.0072522,0.0019461,0.0027595,9.4616,0.0039859,0.0049498,5.6657e-09,0.06,0.28,0
0.0043578,0.0017726,0.0072203,0.0018495,0.0027209,0.00084078,0,0,0.058492,-0.011329,0,0.02186,0,0,0,0.0073488,0.0017209,0.0027209,8.6924,0.0039302,0.0052005,6.3329e-09,0.08,0.28,0
0.0055468,0.0021756,0.0073294,0.0016258,0.0026865,0.0008175,0,0,0.060357,-0.01379,0,0.021255,0,0,0,0.0074443,0.0015109,0.0026865,7.9977,0.0038806,0.0054416,6.9913e-09,0.1,0.28,0
0.0067721,0.0025587,0.007436,0.0014202,0.0026569,0.00079074,0,0,0.062129,-0.016076,0,0.020559,0,0,0,0.0075382,0.001318,0.0026569,7.3646,0.0038377,0.0056705,7.6339e-09,0.12,0.28,0
0.0080319,0.0029194,0.00754,0.0012346,0.0026324,0.00076134,0,0,0.063799,-0.018171,0,0.019795,0,0,0,0.0076307,0.001144,0.0026324,6.7881,0.0038023,0.0058854,8.2556e-09,0.14,0.28,0
0.0093241,0.0032555,0.0076418,0.0010705,0.0026137,0.00073053,0,0,0.065366,-0.020061,0,0.018994,0,0,0,0.0077221,0.00099029,0.0026137,6.2676,0.0037753,0.0060847,8.8532e-09,0.16,0.28,0
0.010646,0.0035649,0.0077419,0.00092951,0.0026014,0.00069971,0,0,0.066826,-0.021735,0,0.018193,0,0,0,0.007813,0.00085838,0.0026014,5.8042,0.0037576,0.0062676,9.4255e-09,0.18,0.28,0
0.011997,0.0038458,0.0078411,0.00081288,0.0025962,0.00067021,0,0,0.068183,-0.023183,0,0.017425,0,0,0,0.0079044,0.00074954,0.0025962,5.3989,0.00375,0.0064335,9.9726e-09,0.2,0.28,0
0.013374,0.0040961,0.0079405,0.00072198,0.0025987,0.00064301,0,0,0.069443,-0.024398,0,0.016718,0,0,0,0.0079973,0.00066515,0.0025987,5.0508,0.0037537,0.0065819,1.0496e-08,0.22,0.28,0
0.014775,0.004314,0.0080417,0.00065829,0.00261,0.0006185,0,0,0.070612,-0.025372,0,0.016081,0,0,0,0.0080931,0.00060683,0.00261,4.7554,0.00377,0.0067128,1.0999e-08,0.24,0.28,0
0.016198,0.0044969,0.0081468,0.00062356,0.0026311,0.00059607,0,0,0.071704,-0.026098,0,0.015498,0,0,0,0.0081937,0.00057663,0.0026311,4.5022,0.0038005,0.0068258,1.1483e-08,0.26,0.28,0
0.017643,0.0046416,0.0082588,0.00062004,0.0026637,0.00057353,0,0,0.072737,-0.026567,0,0.014912,0,0,0,0.0083016,0.00057721,0.0026637,4.27,0.0038475,0.0069212,1.1957e-08,0.28,0.28,0
0.019108,0.0047429,0.008383,0.00065055,0.0027101,0.00054621,0,0,0.073748,-0.026774,0,0.014202,0,0,0,0.0084214,0.00061216,0.0027101,4.0207,0.0039146,0.0070002,1.243e-08,0.3,0.28,0
0.020593,0.0047928,0.0085285,0.00071901,0.0027743,0.00050553,0,0,0.074805,-0.026718,0,0.013144,0,0,0,0.0085611,0.00068642,0.0027743,3.6884,0.0040073,0.007066,1.2929e-08,0.32,0.28,0
0.0221,0.004779,0.0087119,0.00083163,0.002863,0.00043563,0,0,0.076035,-0.026409,0,0.011326,0,0,0,0.0087359,0.00080762,0.002863,3.1545,0.0041355,0.0071264,1.3507e-08,0.34,0.28,0
0.023634,0.0046811,0.0089608,0.0010009,0.0029885,0.00030919,0,0,0.077639,-0.025839,0,0.008039,0,0,0,0.0089728,0.00098893,0.0029885,2.2211,0.0043167,0.0071955,1.4269e-08,0.36,0.28,0
0.025206,0.0044685,0.0093046,0.0012581,0.0031688,5.1484e-05,0,0,0.079765,-0.024839,0,0.0013386,0,0,0,0.0093049,0.0012578,0.0031688,0.36658,0.0045772,0.0072821,1.5324e-08,0.38,0.28,0
0.026825,0.0040679,0.0093708,0.0015604,0.0032793,-0.00035341,0,0,0.079188,-0.022346,0,-0.0091886,0,0,0,0.0093867,0.0015445,0.0032793,-2.5855,0.0047368,0.0071348,1.5001e-08,0.4,0.28,0
0.028373,0.0035179,0.0080301,-0.0015101,0.001956,-0.00013326,0,0,0.042732,-0.0081926,0,-0.010117,0,0,0,0.0080952,-0.0015751,0.001956,-2.258,0.0028254,0.008662,6.1211e-09,0.42,0.28,0
0.028534,0.0034318,0.009382,-7.7441e-05,0.0027914,-0.00061608,0,0,0.0085678,-0.0037294,0,-0.0016018,0,0,0,0.0094219,-0.0001174,0.0027914,-3.7107,0.004032,0.0084683,1.9238e-08,0.44,0.28,0
0.028716,0.0034416,0.0098531,-0.00012103,0.0029196,0.00019049,0,0,0.0090136,-0.0039528,0,0.00049529,0,0,0,0.0098568,-0.00012466,0.0029196,1.0938,0.0042172,0.0088606,2.2031e-08,0.46,0.28,0
0.028895,0.0034726,0.0096569,-0.00032427,0.0027998,0.00015445,0,0,0.0089142,-0.0040613,0,0.00040158,0,0,0,0.0096592,-0.00032666,0.0027998,0.88635,0.0040441,0.0088472,2.1175e-08,0.48,0.28,0
0.029072,0.00351,0.0095358,-0.00023413,0.0027905,4.1235e-05,0,0,0.0087689,-0.003932,0,0.00010721,0,0,0,0.009536,-0.0002343,0.0027905,0.24182,0.0040307,0.0086634,2.0191e-08,0.5,0.28,0
0.029246,0.0035462,0.0093626,-6.0838e-05,0.0027905,-8.8916e-05,0,0,0.0085437,-0.0037068,0,-0.00023118,0,0,0,0.0093635,-6.1677e-05,0.0027905,-0.54056,0.0040308,0.0083717,1.8767e-08,0.52,0.28,0
0.029414,0.0035821,0.0092402,0.00019217,0.0028297,-0.00013688,0,0,0.0083336,-0.0034288,0,-0.00035589,0,0,0,0.0092422,0.0001901,0.0028297,-0.86651,0.0040874,0.0080632,1.7518e-08,0.54,0.28,0
0.029579,0.0036201,0.0091427,0.00038817,0.0028593,-0.00010781,0,0,0.0081685,-0.0032124,0,-0.0002803,0,0,0,0.0091441,0.00038684,0.0028593,-0.70542,0.0041301,0.0078199,1.6537e-08,0.56,0.28,0
0.029741,0.003663,0.0090921,0.00048353,0.0028727,-2.3424e-05,0,0,0.0080852,-0.0031059,0,-6.0903e-05,0,0,0,0.0090922,0.00048347,0.0028727,-0.1559,0.0041494,0.0076974,1.6041e-08,0.58,0.28,0
0.029902,0.0037122,0.0090893,0.00045922,0.0028646,8.2016e-05,0,0,0.0080922,-0.0031269,0,0.00021324,0,0,0,0.0090901,0.00045844,0.0028646,0.54444,0.0041377,0.0077153,1.6085e-08,0.6,0.28,0
0.030065,0.0037677,0.0091323,0.00031535,0.0028343,0.00017758,0,0,0.0081874,-0.0032746,0,0.00046171,0,0,0,0.0091359,0.00031178,0.0028343,1.1534,0.004094,0.0078721,1.6656e-08,0.62,0.28,0
0.03023,0.0038283,0.0092142,7.1405e-05,0.0027857,0.00022746,0,0,0.008357,-0.0035286,0,0.00059139,0,0,0,0.0092198,6.575e-05,0.0027857,1.4243,0.0040238,0.0081423,1.7655e-08,0.64,0.28,0
0.030399,0.0038914,0.0093046,-0.00022576,0.0027236,0.00020513,0,0,0.0085552,-0.0038342,0,0.00053333,0,0,0,0.009309,-0.00023018,0.0027236,1.2325,0.0039341,0.0084584,1.8786e-08,0.66,0.28,0
0.030572,0.0039541,0.0094139,-0.00043665,0.0026932,9.5976e-05,0,0,0.008737,-0.0040688,0,0.00024954,0,0,0,0.0094149,-0.00043758,0.0026932,0.55817,0.0038902,0.0087193,1.9843e-08,0.68,0.28,0
0.030748,0.0040147,0.0094449,-0.00054473,0.0026701,-3.0676e-05,0,0,0.0088073,-0.0041792,0,-7.9758e-05,0,0,0,0.009445,-0.00054482,0.0026701,-0.17594,0.0038567,0.0088327,2.0239e-08,0.7,0.28,0
0.030924,0.0040786,0.0095914,-0.00036405,0.0027682,-0.0001251,0,0,0.0088702,-0.0040719,0,-0.00032525,0,0,0,0.009593,-0.00036562,0.0027682,-0.71981,0.0039985,0.0088197,2.0827e-08,0.72,0.28,0
0.031103,0.0041619,0.009136,-0.0005586,0.0025732,0.00062769,0,0,0.0085317,-0.0040714,0,0.001632,0,0,0,0.0091765,-0.00059907,0.0025732,3.6891,0.0037169,0.008638,1.8685e-08,0.74,0.28,0
0.031266,0.0043473,0.0077167,-0.0022984,0.0016255,0.00025664,0,0,0.042664,-0.0092747,0,0.012795,0,0,0,0.0078058,-0.0023875,0.0016255,3.2086,0.0023479,0.0091026,2.2389e-09,0.76,0.28,0
0.03281,0.005099,0.0091805,0.0010875,0.0030804,0.00055826,0,0,0.079301,-0.025908,0,0.014515,0,0,0,0.0092188,0.0010491,0.0030804,3.9275,0.0044494,0.0073672,1.5394e-08,0.78,0.28,0
0.034438,0.0057399,0.0092057,0.00091141,0.0030351,0.00018129,0,0,0.080217,-0.027608,0,0.0047136,0,0,0,0.0092096,0.00090744,0.0030351,1.2516,0.0043841,0.0074692,1.5691e-08,0.8,0.28,0
0.036018,0.0061955,0.0089083,0.00068433,0.0028778,-0.00011518,0,0,0.078397,-0.028515,0,-0.0029947,0,0,0,0.0089099,0.00068272,0.0028778,-0.80224,0.0041568,0.0073788,1.4644e-08,0.82,0.28,0
0.037573,0.0065208,0.008715,0.00040867,0.0027371,-0.00025168,0,0,0.077712,-0.030269,0,-0.0065436,0,0,0,0.0087226,0.00040105,0.0027371,-1.7339,0.0039536,0.0074341,1.429e-08,0.84,0.28,0
0.039127,0.0067507,0.0086217,0.00018976,0.0026434,-0.00029225,0,0,0.077717,-0.031898,0,-0.0075984,0,0,0,0.0086318,0.00017964,0.0026434,-1.9827,0.0038183,0.0075289,1.4267e-08,0.86,0.28,0
0.040682,0.0069188,0.0085544,1.8529e-05,0.0025719,-0.0002787,0,0,0.077772,-0.033193,0,-0.0072461,0,0,0,0.0085635,9.4387e-06,0.0025719,-1.8681,0.0037149,0.0076038,1.4239e-08,0.88,0.28,0
0.042238,0.007044,0.0084966,-0.00011469,0.0025146,-0.00024175,0,0,0.077766,-0.03418,0,-0.0062856,0,0,0,0.0085034,-0.00012147,0.0025146,-1.6068,0.0036322,0.0076551,1.4169e-08,0.9,0.28,0
0.043793,0.0071374,0.0084473,-0.00021619,0.0024693,-0.00019548,0,0,0.077714,-0.034912,0,-0.0050825,0,0,0,0.0084517,-0.0002206,0.0024693,-1.2919,0.0035668,0.0076888,1.4079e-08,0.92,0.28,0
0.045346,0.0072055,0.0084078,-0.00029073,0.0024351,-0.00014634,0,0,0.077644,-0.035436,0,-0.0038048,0,0,0,0.0084102,-0.0002932,0.0024351,-0.96355,0.0035174,0.0077102,1.3991e-08,0.94,0.28,0
0.046899,0.0072521,0.0083788,-0.00034173,0.0024111,-9.6996e-05,0,0,0.07758,-0.035787,0,-0.0025219,0,0,0,0.0083799,-0.0003428,0.0024111,-0.63718,0.0034828,0.0077232,1.392e-08,0.96,0.28,0
0.04845,0.0072793,0.0083613,-0.00037145,0.002397,-4.8254e-05,0,0,0.077536,-0.035989,0,-0.0012546,0,0,0,0.0083615,-0.00037171,0.002397,-0.31658,0.0034623,0.0077302,1.3874e-08,0.98,0.28,0
0.05,0.0072882,0.0083554,-0.00038121,0.0023922,1.7213e-05,0,0,0.077521,-0.036055,0,0.00044754,0,0,0,0.0083554,-0.00038125,0.0023922,0.11289,0.0034555,0.0077324,1.3859e-08,1,0.28,0
0,0,0.0069461,0.0029769,0.0029769,0.00077621,0,0,0.0516,8.6736e-19,0,0.020181,0,0,0,0.0070925,0.0028305,0.0029769,10.681,0.0043,0.0041907,3.7645e-09,0,0.3,0
0.001032,0.00040363,0.0069145,0.0026265,0.0028623,0.0007744,0,0,0.052678,-0.0030648,0,0.020134,0,0,0,0.00705,0.002491,0.0028623,9.9299,0.0041344,0.0043852,4.2265e-09,0.02,0.3,0
0.0021071,0.00079639,0.0070318,0.0023586,0.0028171,0.00076173,0,0,0.05479,-0.0059607,0,0.019805,0,0,0,0.0071528,0.0022376,0.0028171,9.028,0.0040691,0.0046526,4.9031e-09,0.04,0.3,0
0.0032236,0.0011777,0.0071468,0.0021066,0.002776,0.00074709,0,0,0.05682,-0.0087029,0,0.019424,0,0,0,0.0072552,0.0019982,0.002776,8.2562,0.0040098,0.0049145,5.585e-09,0.06,0.3,0
0.0043799,0.0015462,0.0072603,0.0018703,0.0027392,0.00072929,0,0,0.058774,-0.011295,0,0.018962,0,0,0,0.0073572,0.0017734,0.0027392,7.5712,0.0039566,0.005169,6.2668e-09,0.08,0.3,0
0.0055746,0.0019002,0.0073725,0.0016506,0.0027069,0.00070786,0,0,0.060652,-0.013732,0,0.018405,0,0,0,0.0074588,0.0015643,0.0027069,6.9486,0.00391,0.0054143,6.9438e-09,0.1,0.3,0
0.006806,0.0022376,0.0074837,0.0014484,0.0026797,0.00068294,0,0,0.062453,-0.016006,0,0.017756,0,0,0,0.00756,0.0013721,0.0026797,6.376,0.0038706,0.0056488,7.6119e-09,0.12,0.3,0
0.0080727,0.0025563,0.0075943,0.0012652,0.0026578,0.00065515,0,0,0.064174,-0.018105,0,0.017034,0,0,0,0.0076614,0.001198,0.0026578,5.8483,0.0038391,0.0058712,8.2682e-09,0.14,0.3,0
0.009373,0.0028544,0.0077047,0.0011022,0.002642,0.00062549,0,0,0.065814,-0.020019,0,0.016263,0,0,0,0.0077634,0.0010434,0.002642,5.3643,0.0038163,0.0060804,8.911e-09,0.16,0.3,0
0.010705,0.0031298,0.0078155,0.00096088,0.0026329,0.00059508,0,0,0.067374,-0.021736,0,0.015472,0,0,0,0.0078668,0.0009096,0.0026329,4.925,0.0038031,0.0062756,9.5401e-09,0.18,0.3,0
0.012068,0.0033808,0.0079276,0.00084282,0.0026311,0.00056499,0,0,0.068854,-0.023248,0,0.01469,0,0,0,0.0079724,0.00079805,0.0026311,4.531,0.0038005,0.006456,1.0156e-08,0.2,0.3,0
0.013459,0.003606,0.0080422,0.00074974,0.0026376,0.00053601,0,0,0.07026,-0.024542,0,0.013936,0,0,0,0.0080813,0.00071055,0.0026376,4.1814,0.0038098,0.0066211,1.076e-08,0.22,0.3,0
0.014878,0.0038033,0.0081603,0.00068382,0.0026532,0.00050828,0,0,0.071592,-0.025602,0,0.013215,0,0,0,0.0081947,0.00064943,0.0026532,3.8715,0.0038324,0.0067695,1.1353e-08,0.24,0.3,0
0.016323,0.0039708,0.0082833,0.00064801,0.0026794,0.00048088,0,0,0.07285,-0.026408,0,0.012503,0,0,0,0.0083134,0.00061784,0.0026794,3.5897,0.0038702,0.0068998,1.1932e-08,0.26,0.3,0
0.017792,0.0041052,0.0084126,0.00064634,0.0027177,0.00045101,0,0,0.074034,-0.026928,0,0.011726,0,0,0,0.0084387,0.00062024,0.0027177,3.3125,0.0039255,0.0070092,1.2493e-08,0.28,0.3,0
0.019284,0.0042021,0.00855,0.00068457,0.0027704,0.00041284,0,0,0.075135,-0.027116,0,0.010734,0,0,0,0.0085717,0.00066296,0.0027704,2.9963,0.0040017,0.0070938,1.3026e-08,0.3,0.3,0
0.020798,0.0042539,0.0086973,0.00077089,0.0028405,0.00035549,0,0,0.076139,-0.026904,0,0.0092428,0,0,0,0.0087132,0.00075498,0.0028405,2.5628,0.0041029,0.0071474,1.3511e-08,0.32,0.3,0
0.02233,0.0042491,0.0088538,0.00091715,0.0029313,0.00026082,0,0,0.076993,-0.026184,0,0.0067812,0,0,0,0.0088623,0.00090858,0.0029313,1.8802,0.0042341,0.00716,1.3903e-08,0.34,0.3,0
0.023877,0.0041702,0.0090068,0.0011431,0.003045,9.8704e-05,0,0,0.077504,-0.024725,0,0.0025663,0,0,0,0.009008,0.0011418,0.003045,0.71902,0.0043983,0.0071084,1.4086e-08,0.36,0.3,0
0.02543,0.0039919,0.0090616,0.0014697,0.0031594,-0.00015255,0,0,0.076729,-0.021966,0,-0.0039663,0,0,0,0.0090647,0.0014666,0.0031594,-1.1506,0.0045636,0.006909,1.3572e-08,0.38,0.3,0
0.026947,0.0037071,0.0089888,0.0021112,0.00333,-0.00044217,0,0,0.073565,-0.015844,0,-0.011496,0,0,0,0.0090171,0.0020829,0.00333,-3.6635,0.00481,0.0064024,1.1774e-08,0.4,0.3,0
0.028373,0.0033852,0.008725,-0.00012898,0.0025788,-0.00064493,0,0,0.040078,-0.0064002,0,-0.0091214,0,0,0,0.0087767,-0.00018062,0.0025788,-4.5942,0.0037249,0.0080585,1.2549e-08,0.42,0.3,0
0.02855,0.0033602,0.0090034,-0.00053707,0.0025399,-0.00026561,0,0,0.0084025,-0.0040001,0,-0.0006906,0,0,0,0.0090108,-0.00054446,0.0025399,-1.5935,0.0036687,0.0084466,1.7616e-08,0.44,0.3,0
0.028709,0.0033646,0.0087335,-0.00037923,0.0025063,8.0059e-05,0,0,0.0080954,-0.0037511,0,0.00020815,0,0,0,0.0087342,-0.00037993,0.0025063,0.50332,0.0036202,0.008068,1.5799e-08,0.46,0.3,0
0.028874,0.0033956,0.0089975,-0.00023243,0.0026295,0.00020241,0,0,0.0082783,-0.0037205,0,0.00052626,0,0,0,0.0090019,-0.00023687,0.0026295,1.2557,0.0037982,0.0081908,1.7014e-08,0.48,0.3,0
0.02904,0.0034339,0.009081,-0.00013512,0.0026838,0.00011063,0,0,0.0083164,-0.0036646,0,0.00028765,0,0,0,0.0090823,-0.00013645,0.0026838,0.68767,0.0038765,0.0081817,1.7277e-08,0.5,0.3,0
0.029206,0.0034739,0.0090927,2.4616e-05,0.0027352,7.0259e-06,0,0,0.0082647,-0.0035237,0,1.8267e-05,0,0,0,0.0090927,2.4611e-05,0.0027352,0.044393,0.0039508,0.0080621,1.7016e-08,0.52,0.3,0
0.029371,0.003514,0.009058,0.00019215,0.002775,-5.4453e-05,0,0,0.0081678,-0.0033578,0,-0.00014158,0,0,0,0.0090583,0.00019182,0.002775,-0.35189,0.0040084,0.0078983,1.6482e-08,0.54,0.3,0
0.029533,0.0035557,0.0090221,0.00032978,0.0028056,-5.4045e-05,0,0,0.0080815,-0.0032185,0,-0.00014052,0,0,0,0.0090224,0.00032944,0.0028056,-0.35622,0.0040525,0.0077572,1.5997e-08,0.56,0.3,0
0.029694,0.0036003,0.0090019,0.00039258,0.0028183,-7.3742e-06,0,0,0.0080386,-0.0031535,0,-1.9173e-05,0,0,0,0.0090019,0.00039257,0.0028183,-0.049076,0.0040709,0.007689,1.5753e-08,0.58,0.3,0
0.029854,0.0036489,0.0090096,0.0003625,0.0028116,6.0293e-05,0,0,0.0080573,-0.0031839,0,0.00015676,0,0,0,0.00901,0.00036208,0.0028116,0.39948,0.0040612,0.0077203,1.5861e-08,0.6,0.3,0
0.030016,0.0037018,0.0090442,0.00023975,0.0027852,0.00012029,0,0,0.0081367,-0.0033091,0,0.00031276,0,0,0,0.0090459,0.0002381,0.0027852,0.78261,0.0040231,0.0078505,1.6317e-08,0.62,0.3,0
0.03018,0.0037579,0.0090902,4.3515e-05,0.0027401,0.000148,0,0,0.0082551,-0.0035056,0,0.00038481,0,0,0,0.0090926,4.1095e-05,0.0027401,0.93703,0.0039579,0.0080489,1.6982e-08,0.64,0.3,0
0.030346,0.003816,0.0091207,-0.00017888,0.0026825,0.00012922,0,0,0.0083696,-0.0037198,0,0.00033598,0,0,0,0.0091225,-0.00018068,0.0026825,0.79595,0.0038748,0.0082529,1.7593e-08,0.66,0.3,0
0.030515,0.0038748,0.0090669,-0.00038358,0.002605,8.2685e-05,0,0,0.0084005,-0.0038851,0,0.00021498,0,0,0,0.0090676,-0.0003843,0.002605,0.50125,0.0037628,0.0083678,1.766e-08,0.68,0.3,0
0.030682,0.0039353,0.0088431,-0.00051238,0.0024992,5.2192e-05,0,0,0.0082471,-0.0039151,0,0.0001357,0,0,0,0.0088434,-0.00051268,0.0024992,0.31962,0.00361,0.0082721,1.6617e-08,0.7,0.3,0
0.030845,0.0040014,0.0083138,-0.00063659,0.0023032,0.00015231,0,0,0.0078138,-0.0038217,0,0.000396,0,0,0,0.0083164,-0.00063918,0.0023032,0.97463,0.0033268,0.0079063,1.4045e-08,0.72,0.3,0
0.030995,0.0040838,0.008774,-0.00061137,0.0024488,0.00036371,0,0,0.0082227,-0.0039782,0,0.00094566,0,0,0,0.008788,-0.00062544,0.0024488,2.216,0.0035371,0.0083142,1.6494e-08,0.74,0.3,0
0.031173,0.004191,0.0082701,-0.0011103,0.002148,0.00058554,0,0,0.039402,-0.0077013,0,0.010241,0,0,0,0.008323,-0.0011632,0.002148,4.4581,0.0031026,0.0084764,9.3633e-09,0.76,0.3,0
0.032571,0.0046636,0.0086448,0.0015083,0.0030459,0.00061508,0,0,0.072785,-0.019989,0,0.015992,0,0,0,0.0086974,0.0014557,0.0030459,4.8902,0.0043997,0.0065921,1.1876e-08,0.78,0.3,0
0.034085,0.0052126,0.0089468,0.0013218,0.0030806,0.00026878,0,0,0.076261,-0.022864,0,0.0069882,0,0,0,0.0089563,0.0013124,0.0030806,2.0163,0.0044497,0.0069311,1.3422e-08,0.8,0.3,0
0.035621,0.0056367,0.0089093,0.00079539,0.0029114,-3.8621e-05,0,0,0.077972,-0.027508,0,-0.0010041,0,0,0,0.0089094,0.0007952,0.0029114,-0.27271,0.0042054,0.0072903,1.4392e-08,0.82,0.3,0
0.037204,0.0059088,0.0089411,0.00043241,0.002812,-0.00018718,0,0,0.079677,-0.030935,0,-0.0048667,0,0,0,0.0089452,0.0004283,0.002812,-1.2596,0.0040618,0.0076103,1.5376e-08,0.84,0.3,0
0.038809,0.0060998,0.0089067,0.00017836,0.0027255,-0.00021743,0,0,0.080356,-0.033113,0,-0.0056532,0,0,0,0.0089122,0.00017295,0.0027255,-1.4261,0.0039369,0.0077834,1.5729e-08,0.86,0.3,0
0.040418,0.00624,0.0088328,-1.1701e-05,0.0026463,-0.00020487,0,0,0.080424,-0.034555,0,-0.0053267,0,0,0,0.0088376,-1.6444e-05,0.0026463,-1.3262,0.0038225,0.0078682,1.57e-08,0.88,0.3,0
0.042026,0.0063453,0.0087539,-0.00015309,0.0025803,-0.00017561,0,0,0.080258,-0.035533,0,-0.0045657,0,0,0,0.0087574,-0.00015655,0.0025803,-1.129,0.003727,0.007909,1.5533e-08,0.9,0.3,0
0.043628,0.0064246,0.0086833,-0.00025727,0.0025278,-0.00014056,0,0,0.080021,-0.036206,0,-0.0036545,0,0,0,0.0086855,-0.00025948,0.0025278,-0.90048,0.0036513,0.0079277,1.5336e-08,0.92,0.3,0
0.045226,0.0064829,0.0086262,-0.00033191,0.0024883,-0.00010434,0,0,0.079793,-0.036663,0,-0.0027128,0,0,0,0.0086275,-0.00033312,0.0024883,-0.66721,0.0035942,0.0079354,1.5157e-08,0.94,0.3,0
0.04682,0.006523,0.0085848,-0.00038209,0.0024608,-6.8711e-05,0,0,0.079612,-0.036958,0,-0.0017865,0,0,0,0.0085854,-0.00038261,0.0024608,-0.43901,0.0035545,0.0079379,1.502e-08,0.96,0.3,0
0.048411,0.0065465,0.0085599,-0.00041102,0.0024447,-3.4043e-05,0,0,0.079498,-0.037124,0,-0.00088512,0,0,0,0.00856,-0.00041115,0.0024447,-0.21743,0.0035312,0.0079383,1.4935e-08,0.98,0.3,0
0.05,0.0065543,0.0085515,-0.00042048,0.0024393,1.4928e-05,0,0,0.079459,-0.037177,0,0.00038813,0,0,0,0.0085515,-0.00042051,0.0024393,0.09533,0.0035234,0.0079384,1.4907e-08,1,0.3,0
0,0,0.0069706,0.0029874,0.0029874,0.00065811,0,0,0.051781,4.3368e-19,0,0.017111,0,0,0,0.0070765,0.0028815,0.0029874,9.1429,0.0043151,0.0041431,3.6445e-09,0,0.32,0
0.0010356,0.00034222,0.0069387,0.0026368,0.0028727,0.00065622,0,0,0.052858,-0.0030657,0,0.017062,0,0,0,0.0070365,0.0025389,0.0028727,8.4831,0.0041494,0.0043404,4.116e-09,0.02,0.32,0
0.0021143,0.00067716,0.0070562,0.0023708,0.0028281,0.00064602,0,0,0.054966,-0.0059446,0,0.016797,0,0,0,0.0071437,0.0022834,0.0028281,7.7084,0.0040851,0.0046121,4.8026e-09,0.04,0.32,0
0.0032342,0.0010038,0.0071717,0.0021221,0.0027881,0.00063291,0,0,0.056986,-0.0086587,0,0.016456,0,0,0,0.0072498,0.002044,0.0027881,7.0364,0.0040273,0.0048766,5.4914e-09,0.06,0.32,0
0.0043938,0.0013208,0.0072861,0.0018898,0.0027528,0.00061611,0,0,0.058933,-0.011218,0,0.016019,0,0,0,0.0073555,0.0018204,0.0027528,6.4314,0.0039762,0.0051329,6.1801e-09,0.08,0.32,0
0.0055916,0.0016263,0.0074,0.0016741,0.0027222,0.00059532,0,0,0.060811,-0.013626,0,0.015478,0,0,0,0.0074613,0.0016128,0.0027222,5.8732,0.0039321,0.0053802,6.8664e-09,0.1,0.32,0
0.0068262,0.0019184,0.0075142,0.0014755,0.0026969,0.00057069,0,0,0.062624,-0.015878,0,0.014838,0,0,0,0.0075676,0.001422,0.0026969,5.3517,0.0038955,0.0056177,7.5486e-09,0.12,0.32,0
0.0080965,0.0021952,0.007629,0.001295,0.0026772,0.00054277,0,0,0.064373,-0.017969,0,0.014112,0,0,0,0.0076752,0.0012488,0.0026772,4.8625,0.0038671,0.0058446,8.2258e-09,0.14,0.32,0
0.0094012,0.0024548,0.0077452,0.0011337,0.0026637,0.00051236,0,0,0.066059,-0.019889,0,0.013321,0,0,0,0.0077846,0.0010942,0.0026637,4.4051,0.0038475,0.0060601,8.8978e-09,0.16,0.32,0
0.010739,0.0026955,0.0078634,0.00099304,0.0026569,0.0004804,0,0,0.067684,-0.021631,0,0.01249,0,0,0,0.0078968,0.00095961,0.0026569,3.9805,0.0038378,0.0062635,9.5653e-09,0.18,0.32,0
0.012109,0.0029158,0.0079846,0.00087459,0.0026577,0.00044781,0,0,0.069249,-0.023181,0,0.011643,0,0,0,0.0080127,0.00084649,0.0026577,3.5897,0.003839,0.0064541,1.0229e-08,0.2,0.32,0
0.013509,0.0031144,0.0081095,0.00078044,0.002667,0.0004153,0,0,0.070753,-0.024525,0,0.010798,0,0,0,0.008133,0.00075698,0.002667,3.2329,0.0038523,0.0066306,1.089e-08,0.22,0.32,0
0.014939,0.0032899,0.0082389,0.00071342,0.0026857,0.00038311,0,0,0.072192,-0.02564,0,0.0099609,0,0,0,0.0082584,0.00069396,0.0026857,2.9068,0.0038793,0.0067912,1.1544e-08,0.24,0.32,0
0.016397,0.0034406,0.0083729,0.0006775,0.0027151,0.00035057,0,0,0.073551,-0.026489,0,0.0091149,0,0,0,0.0083888,0.00066157,0.0027151,2.603,0.0039218,0.0069325,1.2185e-08,0.26,0.32,0
0.017881,0.0035645,0.0085104,0.00067853,0.0027567,0.00031549,0,0,0.074799,-0.027016,0,0.0082027,0,0,0,0.0085231,0.00066584,0.0027567,2.303,0.0039819,0.0070484,1.2793e-08,0.28,0.32,0
0.019388,0.0036583,0.0086486,0.00072513,0.0028121,0.00027309,0,0,0.075874,-0.027131,0,0.0071002,0,0,0,0.008658,0.00071573,0.0028121,1.9716,0.0040619,0.0071291,1.3327e-08,0.3,0.32,0
0.020916,0.0037166,0.0087803,0.00083,0.0028831,0.00021475,0,0,0.076663,-0.02669,0,0.0055836,0,0,0,0.0087861,0.00082421,0.0028831,1.5462,0.0041645,0.0071581,1.3715e-08,0.32,0.32,0
0.022455,0.0037316,0.008891,0.0010119,0.0029709,0.00012701,0,0,0.076962,-0.025466,0,0.0033023,0,0,0,0.0088931,0.0010099,0.0029709,0.92329,0.0042913,0.0071085,1.3825e-08,0.34,0.32,0
0.023994,0.0036922,0.0089486,0.0012961,0.0030734,-3.1098e-06,0,0,0.076377,-0.023105,0,-8.0856e-05,0,0,0,0.0089486,0.0012961,0.0030734,-0.023284,0.0044394,0.0069367,1.3424e-08,0.36,0.32,0
0.02551,0.0035898,0.0089249,0.0017377,0.0031988,-0.00016899,0,0,0.074439,-0.018994,0,-0.0043939,0,0,0,0.0089289,0.0017338,0.0031988,-1.3462,0.0046205,0.006586,1.226e-08,0.38,0.32,0
0.026972,0.0034341,0.0088342,0.0023757,0.003363,-0.00031081,0,0,0.071126,-0.012834,0,-0.0080811,0,0,0,0.0088491,0.0023608,0.003363,-2.7489,0.0048576,0.0060498,1.0328e-08,0.4,0.32,0
0.028355,0.0032619,0.0085314,1.0926e-05,0.0025627,-0.00036288,0,0,0.038886,-0.0060315,0,-0.0054394,0,0,0,0.0085493,-6.9565e-06,0.0025627,-2.7599,0.0037017,0.0077115,1.1649e-08,0.42,0.32,0
0.028527,0.0032718,0.0086097,-0.0012982,0.0021935,-0.00029655,0,0,0.0083412,-0.0045392,0,-0.00077103,0,0,0,0.0086186,-0.0013071,0.0021935,-1.7129,0.0031683,0.0087194,1.6488e-08,0.44,0.32,0
0.028689,0.0032915,0.0085845,-0.00043565,0.0024447,-5.7003e-05,0,0,0.0079818,-0.0037444,0,-0.00014821,0,0,0,0.0085849,-0.00043601,0.0024447,-0.36206,0.0035312,0.0079805,1.5104e-08,0.46,0.32,0
0.028847,0.0033238,0.0086251,-0.00019001,0.0025305,5.9015e-05,0,0,0.007923,-0.0035367,0,0.00015344,0,0,0,0.0086255,-0.0001904,0.0025305,0.38356,0.0036552,0.007819,1.4905e-08,0.48,0.32,0
0.029006,0.0033634,0.0087673,-3.3769e-05,0.0026201,5.3855e-05,0,0,0.0079914,-0.00345,0,0.00014002,0,0,0,0.0087676,-3.4098e-05,0.0026201,0.35059,0.0037845,0.0078201,1.5364e-08,0.5,0.32,0
0.029166,0.0034052,0.0088579,8.9881e-05,0.0026843,4.5677e-07,0,0,0.0080257,-0.0033728,0,1.1876e-06,0,0,0,0.0088579,8.9881e-05,0.0026843,0.0029848,0.0038774,0.0078014,1.5604e-08,0.52,0.32,0
0.029327,0.0034478,0.0089042,0.00020753,0.0027335,-3.5468e-05,0,0,0.0080219,-0.0032838,0,-9.2217e-05,0,0,0,0.0089043,0.00020739,0.0027335,-0.23367,0.0039484,0.0077491,1.5617e-08,0.54,0.32,0
0.029487,0.0034914,0.0089223,0.00029624,0.0027656,-3.6891e-05,0,0,0.0080038,-0.0032101,0,-9.5917e-05,0,0,0,0.0089225,0.00029608,0.0027656,-0.24503,0.0039947,0.0076948,1.5533e-08,0.56,0.32,0
0.029647,0.0035369,0.0089344,0.00033127,0.0027797,-7.9364e-06,0,0,0.0080011,-0.0031829,0,-2.0635e-05,0,0,0,0.0089344,0.00033126,0.0027797,-0.052855,0.0040151,0.0076775,1.5523e-08,0.58,0.32,0
0.029807,0.0035848,0.0089527,0.00029577,0.0027745,3.5776e-05,0,0,0.0080316,-0.0032224,0,9.3018e-05,0,0,0,0.0089528,0.00029562,0.0027745,0.23678,0.0040077,0.0077222,1.5695e-08,0.6,0.32,0
0.029968,0.0036354,0.0089791,0.00018975,0.0027506,7.6743e-05,0,0,0.0080969,-0.0033291,0,0.00019953,0,0,0,0.0089797,0.00018908,0.0027506,0.50023,0.0039731,0.0078306,1.6059e-08,0.62,0.32,0
0.030131,0.0036881,0.0090044,3.0486e-05,0.0027105,0.00010141,0,0,0.0081821,-0.003484,0,0.00026366,0,0,0,0.0090056,2.934e-05,0.0027105,0.64735,0.0039151,0.0079809,1.6522e-08,0.64,0.32,0
0.030295,0.0037426,0.0090089,-0.00015541,0.002656,0.00011086,0,0,0.0082587,-0.0036549,0,0.00028825,0,0,0,0.0090102,-0.00015675,0.002656,0.69299,0.0038365,0.0081339,1.691e-08,0.66,0.32,0
0.030461,0.0037987,0.008969,-0.00034202,0.0025881,0.00013384,0,0,0.0082952,-0.0038092,0,0.00034798,0,0,0,0.008971,-0.00034395,0.0025881,0.82335,0.0037384,0.0082494,1.7037e-08,0.68,0.32,0
0.030627,0.0038581,0.008838,-0.00055034,0.0024863,0.00025439,0,0,0.0082573,-0.0039476,0,0.00066141,0,0,0,0.0088449,-0.00055723,0.0024863,1.551,0.0035913,0.0083095,1.6699e-08,0.7,0.32,0
0.030791,0.0039258,0.0085265,-0.00087963,0.0022941,0.00055839,0,0,0.0081022,-0.0041258,0,0.0014518,0,0,0,0.0085596,-0.00091267,0.0022941,3.3855,0.0033137,0.0083445,1.5674e-08,0.72,0.32,0
0.030951,0.0040028,0.0075797,-0.0017905,0.0017368,0.00069253,0,0,0.0075959,-0.0045855,0,0.0018006,0,0,0,0.0076307,-0.0018414,0.0017368,4.2041,0.0025087,0.0082844,1.1925e-08,0.74,0.32,0
0.031095,0.0040393,0.0073449,-0.00063678,0.0020124,0.0005974,0,0,0.036913,-0.0062618,0,0.0073982,0,0,0,0.0073902,-0.0006821,0.0020124,4.4378,0.0029068,0.007254,6.3094e-09,0.76,0.32,0
0.032428,0.0042994,0.0080299,0.0017578,0.0029363,-0.00026602,0,0,0.066217,-0.015321,0,-0.0069166,0,0,0,0.0080412,0.0017466,0.0029363,-2.4243,0.0042414,0.0057922,8.578e-09,0.78,0.32,0
0.033744,0.0048254,0.0084199,0.0013504,0.0029311,-6.6722e-06,0,0,0.071355,-0.020549,0,-0.00017348,0,0,0,0.0084199,0.0013504,0.0029311,-0.054076,0.0042338,0.0064267,1.0902e-08,0.8,0.32,0
0.035282,0.0050951,0.0090585,0.0008056,0.0029592,-0.00013211,0,0,0.07929,-0.027997,0,-0.0034347,0,0,0,0.0090606,0.00080348,0.0029592,-0.91683,0.0042744,0.007418,1.5149e-08,0.82,0.32,0
0.036916,0.0052834,0.0092256,0.00045215,0.0029033,-0.00013249,0,0,0.08219,-0.031865,0,-0.0034446,0,0,0,0.0092276,0.00045015,0.0029033,-0.86494,0.0041937,0.007844,1.686e-08,0.84,0.32,0
0.03857,0.0054262,0.0091611,0.00017187,0.0027999,-0.00012081,0,0,0.082696,-0.034164,0,-0.0031409,0,0,0,0.0091628,0.00017024,0.0027999,-0.7698,0.0040443,0.0080083,1.7109e-08,0.86,0.32,0
0.040224,0.0055366,0.009055,-3.1139e-05,0.0027071,-0.00010503,0,0,0.082521,-0.035598,0,-0.0027308,0,0,0,0.0090562,-3.2352e-05,0.0027071,-0.66219,0.0039103,0.0080751,1.6925e-08,0.88,0.32,0
0.04187,0.0056227,0.0089498,-0.00017794,0.0026316,-8.6558e-05,0,0,0.082137,-0.036524,0,-0.0022505,0,0,0,0.0089506,-0.00017876,0.0026316,-0.54327,0.0038011,0.0080986,1.662e-08,0.9,0.32,0
0.043509,0.0056892,0.0088593,-0.00028336,0.0025728,-6.7426e-05,0,0,0.081725,-0.03713,0,-0.0017531,0,0,0,0.0088598,-0.00028386,0.0025728,-0.42252,0.0037162,0.0081023,1.6312e-08,0.92,0.32,0
0.045139,0.005739,0.0087876,-0.00035743,0.0025291,-4.8973e-05,0,0,0.081361,-0.037524,0,-0.0012733,0,0,0,0.0087879,-0.00035769,0.0025291,-0.30682,0.0036531,0.0080978,1.605e-08,0.94,0.32,0
0.046763,0.0057738,0.0087362,-0.00040654,0.0024989,-3.1712e-05,0,0,0.081085,-0.037771,0,-0.0008245,0,0,0,0.0087363,-0.00040665,0.0024989,-0.19873,0.0036095,0.0080914,1.5856e-08,0.96,0.32,0
0.048383,0.0057943,0.0087053,-0.00043461,0.0024812,-1.5542e-05,0,0,0.080913,-0.037906,0,-0.00040408,0,0,0,0.0087054,-0.00043464,0.0024812,-0.097426,0.003584,0.0080865,1.5736e-08,0.98,0.32,0
0.05,0.0058011,0.008695,-0.00044375,0.0024754,1.3098e-05,0,0,0.080856,-0.037949,0,0.00034056,0,0,0,0.0086951,-0.00044377,0.0024754,0.08212,0.0035756,0.0080847,1.5697e-08,1,0.32,0
0,0,0.0069819,0.0029922,0.0029922,0.00054038,0,0,0.051865,-1.301e-18,0,0.01405,0,0,0,0.0070538,0.0029203,0.0029922,7.5786,0.0043221,0.004098,3.5308e-09,0,0.34,0
0.0010373,0.000281,0.0069501,0.002644,0.0028782,0.00053834,0,0,0.052934,-0.0030445,0,0.013997,0,0,0,0.0070163,0.0025778,0.0028782,7.0193,0.0041574,0.0042962,4.0056e-09,0.02,0.34,0
0.0021174,0.0005586,0.0070669,0.0023813,0.0028345,0.00053066,0,0,0.055022,-0.005891,0,0.013797,0,0,0,0.0071263,0.002322,0.0028345,6.3812,0.0040942,0.0045697,4.6937e-09,0.04,0.34,0
0.0032382,0.00083134,0.0071818,0.0021366,0.0027955,0.00051882,0,0,0.057022,-0.008566,0,0.013489,0,0,0,0.0072346,0.0020838,0.0027955,5.811,0.004038,0.0048344,5.3814e-09,0.06,0.34,0
0.0043982,0.0010975,0.0072959,0.0019087,0.0027614,0.00050244,0,0,0.058948,-0.011084,0,0.013064,0,0,0,0.0073423,0.0018623,0.0027614,5.2831,0.0039887,0.0050904,6.0683e-09,0.08,0.34,0
0.0055961,0.0013552,0.0074101,0.0016974,0.0027323,0.00048145,0,0,0.060812,-0.013453,0,0.012518,0,0,0,0.0074504,0.0016571,0.0027323,4.7838,0.0039466,0.0053375,6.7542e-09,0.1,0.34,0
0.0068307,0.0016025,0.0075252,0.0015029,0.0027084,0.00045605,0,0,0.062618,-0.015672,0,0.011857,0,0,0,0.0075596,0.0014685,0.0027084,4.3061,0.0039122,0.0055755,7.439e-09,0.12,0.34,0
0.0081008,0.0018376,0.007642,0.0013257,0.0026903,0.00042675,0,0,0.064372,-0.01774,0,0.011095,0,0,0,0.0076707,0.001297,0.0026903,3.8478,0.003886,0.0058038,8.1234e-09,0.14,0.34,0
0.0094056,0.0020588,0.007761,0.0011669,0.0026784,0.00039423,0,0,0.066074,-0.01965,0,0.01025,0,0,0,0.0077845,0.0011434,0.0026784,3.4092,0.0038688,0.0060222,8.8082e-09,0.16,0.34,0
0.010744,0.0022645,0.0078832,0.0010277,0.0026733,0.00035933,0,0,0.067729,-0.021393,0,0.0093426,0,0,0,0.007902,0.0010089,0.0026733,2.9922,0.0038614,0.00623,9.495e-09,0.18,0.34,0
0.012115,0.0024536,0.0080094,0.0009098,0.0026758,0.00032291,0,0,0.069337,-0.022957,0,0.0083958,0,0,0,0.0080241,0.00089515,0.0026758,2.5989,0.003865,0.0064264,1.0185e-08,0.2,0.34,0
0.013517,0.002625,0.0081402,0.0008155,0.0026867,0.00028579,0,0,0.070895,-0.024326,0,0.0074306,0,0,0,0.0081513,0.00080437,0.0026867,2.231,0.0038808,0.00661,1.0877e-08,0.22,0.34,0
0.014951,0.0027777,0.0082759,0.00074797,0.0027072,0.00024858,0,0,0.072393,-0.025469,0,0.006463,0,0,0,0.0082841,0.00073977,0.0027072,1.8892,0.0039103,0.0067782,1.1569e-08,0.24,0.34,0
0.016413,0.0029112,0.0084157,0.00071189,0.0027383,0.00021149,0,0,0.073806,-0.026343,0,0.0054988,0,0,0,0.0084215,0.00070608,0.0027383,1.5714,0.0039553,0.0069266,1.2245e-08,0.26,0.34,0
0.017903,0.0030246,0.0085569,0.00071424,0.0027814,0.00017409,0,0,0.075082,-0.026872,0,0.0045264,0,0,0,0.0085608,0.00071038,0.0027814,1.271,0.0040175,0.007047,1.2878e-08,0.28,0.34,0
0.019416,0.0031169,0.0086933,0.00076557,0.0028377,0.00013485,0,0,0.076123,-0.026937,0,0.0035061,0,0,0,0.0086956,0.00076327,0.0028377,0.97422,0.0040989,0.0071253,1.3408e-08,0.3,0.34,0
0.020948,0.0031863,0.0088126,0.00088172,0.0029083,9.0654e-05,0,0,0.076756,-0.026346,0,0.002357,0,0,0,0.0088137,0.00088069,0.0029083,0.6548,0.0042009,0.0071385,1.3726e-08,0.32,0.34,0
0.022487,0.0032304,0.0088947,0.0010858,0.0029942,3.7081e-05,0,0,0.076707,-0.024808,0,0.00096411,0,0,0,0.0088949,0.0010857,0.0029942,0.27207,0.0043249,0.0070514,1.3659e-08,0.34,0.34,0
0.024016,0.003246,0.0089172,0.0014101,0.0030982,-2.8756e-05,0,0,0.075647,-0.021945,0,-0.00074765,0,0,0,0.0089173,0.00141,0.0030982,-0.21946,0.0044752,0.0068217,1.3e-08,0.36,0.34,0
0.025513,0.0032321,0.0088694,0.0018795,0.0032247,-9.9791e-05,0,0,0.073382,-0.017487,0,-0.0025946,0,0,0,0.0088709,0.0018781,0.0032247,-0.81776,0.0046579,0.0064262,1.1638e-08,0.38,0.34,0
0.026951,0.0031937,0.0087625,0.0024651,0.0033683,-0.00015589,0,0,0.070125,-0.011741,0,-0.0040532,0,0,0,0.0087663,0.0024612,0.0033683,-1.4172,0.0048653,0.0059041,9.7344e-09,0.4,0.34,0
0.028317,0.0031439,0.0085202,0.00010935,0.0025889,-0.00018906,0,0,0.03845,-0.0058607,0,-0.0026216,0,0,0,0.0085249,0.00010472,0.0025889,-1.418,0.0037395,0.0075965,1.1657e-08,0.42,0.34,0
0.028489,0.0031787,0.0085221,-0.0014893,0.0021098,-0.00018406,0,0,0.008336,-0.0046789,0,-0.00047856,0,0,0,0.0085255,-0.0014927,0.0021098,-1.0529,0.0030475,0.0087893,1.6171e-08,0.44,0.34,0
0.028651,0.0032148,0.0084887,-0.00061085,0.0023634,-0.00013627,0,0,0.0079629,-0.0038665,0,-0.00035431,0,0,0,0.0084907,-0.00061289,0.0023634,-0.8578,0.0034137,0.0080398,1.4888e-08,0.46,0.34,0
0.028808,0.0032542,0.0085314,-0.00017701,0.0025063,-8.4446e-05,0,0,0.0078326,-0.0034883,0,-0.00021956,0,0,0,0.0085322,-0.00017783,0.0025063,-0.55553,0.0036202,0.0077259,1.4409e-08,0.48,0.34,0
0.028964,0.0032959,0.0086333,7.7059e-06,0.0025923,-7.0178e-05,0,0,0.0078533,-0.00336,0,-0.00018246,0,0,0,0.0086339,7.135e-06,0.0025923,-0.46612,0.0037444,0.0076683,1.4598e-08,0.5,0.34,0
0.029122,0.003339,0.0087467,0.00012007,0.00266,-7.0474e-05,0,0,0.0079126,-0.0033019,0,-0.00018323,0,0,0,0.0087472,0.0001195,0.00266,-0.46803,0.0038423,0.0076794,1.4968e-08,0.52,0.34,0
0.029281,0.0033827,0.0088275,0.00020838,0.0027108,-6.702e-05,0,0,0.0079518,-0.0032531,0,-0.00017425,0,0,0,0.008828,0.00020786,0.0027108,-0.44548,0.0039156,0.0076809,1.5215e-08,0.54,0.34,0
0.02944,0.0034273,0.0088761,0.00027104,0.0027441,-5.0841e-05,0,0,0.0079715,-0.003215,0,-0.00013219,0,0,0,0.0088764,0.00027074,0.0027441,-0.3385,0.0039638,0.007674,1.5342e-08,0.56,0.34,0
0.0296,0.003473,0.0089066,0.00028948,0.0027588,-2.3353e-05,0,0,0.0079921,-0.0032102,0,-6.0719e-05,0,0,0,0.0089067,0.00028941,0.0027588,-0.15528,0.003985,0.0076861,1.5463e-08,0.58,0.34,0
0.02976,0.00352,0.0089318,0.00025009,0.0027546,1.0471e-05,0,0,0.0080304,-0.0032558,0,2.7226e-05,0,0,0,0.0089318,0.00025007,0.0027546,0.069108,0.0039788,0.0077396,1.5677e-08,0.6,0.34,0
0.029921,0.0035686,0.0089556,0.00015266,0.0027325,4.4587e-05,0,0,0.0080901,-0.0033538,0,0.00011592,0,0,0,0.0089559,0.00015244,0.0027325,0.29019,0.0039469,0.0078386,1.6004e-08,0.62,0.34,0
0.030083,0.0036185,0.0089755,1.0765e-05,0.0026959,7.4981e-05,0,0,0.0081635,-0.0034907,0,0.00019495,0,0,0,0.0089761,1.0138e-05,0.0026959,0.47918,0.0038941,0.0079701,1.6398e-08,0.64,0.34,0
0.030247,0.0036698,0.0089932,-0.00015565,0.0026513,0.00010307,0,0,0.0082445,-0.003649,0,0.00026798,0,0,0,0.0089943,-0.00015681,0.0026513,0.64538,0.0038296,0.0081198,1.6821e-08,0.66,0.34,0
0.030413,0.0037224,0.0090407,-0.00033906,0.0026105,0.00014457,0,0,0.0083593,-0.0038344,0,0.00037589,0,0,0,0.0090429,-0.00034129,0.0026105,0.88282,0.0037707,0.0083112,1.744e-08,0.68,0.34,0
0.030582,0.0037774,0.0092333,-0.00056922,0.0025992,0.00023548,0,0,0.0086243,-0.004119,0,0.00061226,0,0,0,0.0092389,-0.00057487,0.0025992,1.3754,0.0037544,0.0086738,1.9018e-08,0.7,0.34,0
0.030758,0.0038363,0.0098098,-0.00093879,0.0026613,0.00043887,0,0,0.0092931,-0.0046801,0,0.0011411,0,0,0,0.0098277,-0.00095668,0.0026613,2.3342,0.0038441,0.0095066,2.3558e-08,0.72,0.34,0
0.030953,0.0039004,0.01073,-0.0015519,0.0027533,0.00057895,0,0,0.010369,-0.0055968,0,0.0015053,0,0,0,0.010757,-0.0015792,0.0027533,2.693,0.003977,0.01084,3.1961e-08,0.74,0.34,0
0.031173,0.0039406,0.0083129,0.00070445,0.0027052,0.00069695,0,0,0.014837,-0.0048218,0,0.0060347,0,0,0,0.0083894,0.00062795,0.0027052,8.0125,0.0039075,0.0069595,3.348e-08,0.76,0.34,0
0.031508,0.0040508,0.013137,0.000853,0.0041969,7.9764e-05,0,0,0.040748,-0.009218,0,-0.0081487,0,0,0,0.0132,0.00078945,0.0041969,-2.1215,0.0060622,0.011136,7.5164e-08,0.78,0.34,0
0.033282,0.0043906,0.010392,0.0016984,0.0036271,-4.0523e-05,0,0,0.087943,-0.025073,0,-0.0010536,0,0,0,0.010392,0.0016982,0.0036271,-0.26706,0.0052392,0.007908,2.0395e-08,0.8,0.34,0
0.035026,0.0045168,0.009903,0.00097403,0.0032631,-4.5285e-05,0,0,0.086318,-0.029758,0,-0.0011774,0,0,0,0.0099032,0.0009738,0.0032631,-0.29058,0.0047134,0.0080332,1.9516e-08,0.82,0.34,0
0.036735,0.0046342,0.0095603,0.00048871,0.0030147,7.7031e-06,0,0,0.085092,-0.032838,0,0.00020028,0,0,0,0.0095603,0.0004887,0.0030147,0.048653,0.0043545,0.0081092,1.8696e-08,0.84,0.34,0
0.03843,0.0047332,0.0093545,0.00017762,0.0028596,1.8813e-05,0,0,0.084433,-0.034866,0,0.00048913,0,0,0,0.0093545,0.00017759,0.0028596,0.11746,0.0041306,0.0081729,1.8198e-08,0.86,0.34,0
0.040112,0.004816,0.0091969,-3.5495e-05,0.0027484,2.1364e-05,0,0,0.083831,-0.036191,0,0.00055548,0,0,0,0.009197,-3.5544e-05,0.0027484,0.13259,0.00397,0.0082029,1.7733e-08,0.88,0.34,0
0.041783,0.0048844,0.009068,-0.00018494,0.0026649,2.1057e-05,0,0,0.08324,-0.037048,0,0.00054749,0,0,0,0.009068,-0.00018499,0.0026649,0.13039,0.0038493,0.0082079,1.729e-08,0.9,0.34,0
0.043442,0.0049394,0.0089634,-0.00029032,0.0026019,1.919e-05,0,0,0.082699,-0.037599,0,0.00049894,0,0,0,0.0089634,-0.00029036,0.0026019,0.11882,0.0037583,0.0081996,1.6897e-08,0.92,0.34,0
0.045091,0.0049819,0.0088824,-0.00036341,0.0025557,1.5918e-05,0,0,0.082247,-0.037948,0,0.00041388,0,0,0,0.0088824,-0.00036344,0.0025557,0.098644,0.0036916,0.0081864,1.6578e-08,0.94,0.34,0
0.046732,0.0050122,0.0088249,-0.00041143,0.002524,1.14e-05,0,0,0.081911,-0.038161,0,0.0002964,0,0,0,0.0088249,-0.00041145,0.002524,0.070717,0.0036458,0.008174,1.6344e-08,0.96,0.34,0
0.048367,0.0050303,0.0087905,-0.00043873,0.0025055,5.9483e-06,0,0,0.081705,-0.038275,0,0.00015465,0,0,0,0.0087905,-0.00043873,0.0025055,0.036927,0.0036191,0.0081654,1.6202e-08,0.98,0.34,0
0.05,0.0050364,0.0087791,-0.00044758,0.0024994,1.1618e-05,0,0,0.081635,-0.038311,0,0.00030207,0,0,0,0.0087791,-0.0004476,0.0024994,0.072146,0.0036103,0.0081624,1.6155e-08,1,0.34,0
0,0,0.0069791,0.0029911,0.0029911,0.00042392,0,0,0.051845,0,0,0.011022,0,0,0,0.0070237,0.0029465,0.0029911,6.001,0.0043204,0.0040551,3.4234e-09,0,0.36,0
0.0010369,0.00022044,0.0069477,0.002648,0.0028787,0.00042172,0,0,0.052897,-0.002999,0,0.010965,0,0,0,0.0069887,0.0026071,0.0028787,5.5491,0.0041582,0.0042523,3.8948e-09,0.02,0.36,0
0.0021159,0.00044152,0.0070629,0.0023901,0.0028359,0.00041657,0,0,0.054951,-0.0057957,0,0.010831,0,0,0,0.0070997,0.0023532,0.0028359,5.0547,0.0040963,0.0045245,4.5751e-09,0.04,0.36,0
0.0032349,0.00066121,0.007176,0.0021504,0.0027979,0.00040587,0,0,0.056916,-0.0084179,0,0.010552,0,0,0,0.0072086,0.0021178,0.0027979,4.5875,0.0040415,0.0047871,5.253e-09,0.06,0.36,0
0.0043925,0.00087746,0.0072886,0.0019277,0.0027649,0.0003896,0,0,0.058808,-0.010883,0,0.01013,0,0,0,0.0073168,0.0018996,0.0027649,4.135,0.0039937,0.0050406,5.9293e-09,0.08,0.36,0
0.0055873,0.0010882,0.0074015,0.0017214,0.0027369,0.00036791,0,0,0.06064,-0.013201,0,0.0095657,0,0,0,0.0074253,0.0016977,0.0027369,3.6906,0.0039533,0.0052852,6.605e-09,0.1,0.36,0
0.0068181,0.0012915,0.0075157,0.0015314,0.0027141,0.00034112,0,0,0.06242,-0.015375,0,0.008869,0,0,0,0.0075351,0.0015121,0.0027141,3.2519,0.0039204,0.005521,7.2811e-09,0.12,0.36,0
0.0080841,0.0014856,0.0076319,0.0013583,0.0026971,0.00030969,0,0,0.064153,-0.017404,0,0.008052,0,0,0,0.0076472,0.001343,0.0026971,2.8192,0.0038958,0.005748,7.9592e-09,0.14,0.36,0
0.0093842,0.0016688,0.007751,0.0012027,0.0026861,0.00027427,0,0,0.065843,-0.019284,0,0.0071311,0,0,0,0.0077624,0.0011913,0.0026861,2.3942,0.0038799,0.0059659,8.6408e-09,0.16,0.36,0
0.010718,0.0018398,0.0078737,0.0010659,0.0026819,0.00023562,0,0,0.067493,-0.021007,0,0.0061261,0,0,0,0.0078818,0.0010578,0.0026819,1.9799,0.0038738,0.0061743,9.3279e-09,0.18,0.36,0
0.012084,0.0019975,0.0080009,0.00094952,0.0026851,0.00019461,0,0,0.069105,-0.022563,0,0.0050598,0,0,0,0.0080062,0.00094415,0.0026851,1.5797,0.0038785,0.0063725,1.0022e-08,0.2,0.36,0
0.013482,0.0021414,0.0081332,0.00085578,0.0026967,0.00015222,0,0,0.070674,-0.023932,0,0.0039578,0,0,0,0.0081363,0.0008526,0.0026967,1.1978,0.0038952,0.0065591,1.0723e-08,0.22,0.36,0
0.014911,0.0022711,0.0082707,0.00078796,0.0027176,0.0001096,0,0,0.072191,-0.025086,0,0.0028495,0,0,0,0.0082723,0.00078635,0.0027176,0.83895,0.0039254,0.0067314,1.1427e-08,0.24,0.36,0
0.01637,0.0023869,0.0084128,0.00075082,0.0027491,6.811e-05,0,0,0.073629,-0.025978,0,0.0017709,0,0,0,0.0084134,0.00075022,0.0027491,0.50927,0.0039709,0.006885,1.2121e-08,0.26,0.36,0
0.017856,0.0024896,0.0085566,0.00075149,0.0027924,2.9574e-05,0,0,0.074935,-0.026532,0,0.00076894,0,0,0,0.0085567,0.00075137,0.0027924,0.2171,0.0040335,0.0070113,1.2775e-08,0.28,0.36,0
0.019367,0.0025808,0.0086956,0.00080068,0.0028489,-3.4491e-06,0,0,0.076008,-0.026627,0,-8.9676e-05,0,0,0,0.0086956,0.00080067,0.0028489,-0.025031,0.0041151,0.0070961,1.3328e-08,0.3,0.36,0
0.020896,0.0026628,0.0088175,0.00091447,0.0029196,-2.7232e-05,0,0,0.076673,-0.026066,0,-0.00070804,0,0,0,0.0088176,0.00091438,0.0029196,-0.19743,0.0042172,0.0071157,1.367e-08,0.32,0.36,0
0.022434,0.0027393,0.0089018,0.0011163,0.0030054,-3.7194e-05,0,0,0.076653,-0.024559,0,-0.00096705,0,0,0,0.008902,0.0011161,0.0030054,-0.27372,0.0043412,0.0070341,1.3623e-08,0.34,0.36,0
0.023963,0.0028144,0.0089263,0.0014385,0.0031094,-3.0462e-05,0,0,0.075619,-0.021722,0,-0.00079201,0,0,0,0.0089264,0.0014384,0.0031094,-0.23309,0.0044914,0.006808,1.2974e-08,0.36,0.36,0
0.025459,0.0028903,0.0088805,0.0019053,0.0032357,-1.3302e-05,0,0,0.073382,-0.017295,0,-0.00034585,0,0,0,0.0088805,0.0019053,0.0032357,-0.10927,0.0046739,0.0064143,1.1613e-08,0.38,0.36,0
0.026898,0.0029644,0.0087761,0.002486,0.0033786,-2.7743e-06,0,0,0.070167,-0.011604,0,-7.2132e-05,0,0,0,0.0087761,0.002486,0.0033786,-0.025271,0.0048803,0.0058947,9.7114e-09,0.4,0.36,0
0.028265,0.0030275,0.0085395,0.00014393,0.002605,-1.7392e-05,0,0,0.038485,-0.0058172,0,3.8425e-05,0,0,0,0.0085396,0.00014384,0.002605,-0.072494,0.0037628,0.0075778,1.1716e-08,0.42,0.36,0
0.028437,0.0030846,0.0085443,-0.00146,0.0021253,-8.6364e-05,0,0,0.0083447,-0.0046609,0,-0.00022455,0,0,0,0.0085451,-0.0014607,0.0021253,-0.49457,0.0030699,0.0087804,1.6246e-08,0.44,0.36,0
0.028599,0.0031369,0.0085145,-0.00060691,0.0023723,-0.00017015,0,0,0.0079849,-0.0038729,0,-0.0004424,0,0,0,0.0085176,-0.00061009,0.0023723,-1.0683,0.0034266,0.0080615,1.5023e-08,0.46,0.36,0
0.028757,0.0031843,0.0085596,-0.00018824,0.0025114,-0.0002187,0,0,0.0078627,-0.0035096,0,-0.00056863,0,0,0,0.0085651,-0.0001937,0.0025114,-1.4312,0.0036276,0.0077679,1.4602e-08,0.48,0.36,0
0.028914,0.003229,0.0086616,-1.134e-05,0.0025951,-0.00020482,0,0,0.0078865,-0.0033884,0,-0.00053253,0,0,0,0.0086664,-1.6175e-05,0.0025951,-1.3521,0.0037484,0.0077158,1.4806e-08,0.5,0.36,0
0.029072,0.0032731,0.0087736,9.6545e-05,0.002661,-0.00016246,0,0,0.0079463,-0.0033338,0,-0.00042239,0,0,0,0.0087766,9.3505e-05,0.002661,-1.0722,0.0038437,0.0077262,1.517e-08,0.52,0.36,0
0.029232,0.0033176,0.008853,0.00018183,0.0027105,-0.00011569,0,0,0.0079853,-0.0032872,0,-0.0003008,0,0,0,0.0088545,0.00018028,0.0027105,-0.76427,0.0039151,0.0077264,1.5409e-08,0.54,0.36,0
0.029391,0.0033628,0.0089007,0.00024236,0.0027429,-7.6373e-05,0,0,0.0080052,-0.0032508,0,-0.00019857,0,0,0,0.0089014,0.00024168,0.0027429,-0.50534,0.003962,0.0077193,1.5533e-08,0.56,0.36,0
0.029552,0.0034084,0.0089309,0.00025899,0.002757,-4.4384e-05,0,0,0.0080261,-0.0032474,0,-0.0001154,0,0,0,0.0089311,0.00025876,0.002757,-0.29324,0.0039823,0.0077321,1.5655e-08,0.58,0.36,0
0.029712,0.0034546,0.0089561,0.00021801,0.0027522,-1.5399e-05,0,0,0.008065,-0.0032945,0,-4.0037e-05,0,0,0,0.0089561,0.00021798,0.0027522,-0.10097,0.0039755,0.0077867,1.5872e-08,0.6,0.36,0
0.029874,0.0035012,0.0089804,0.00011923,0.0027299,1.6105e-05,0,0,0.0081256,-0.0033938,0,4.1872e-05,0,0,0,0.0089804,0.0001192,0.0027299,0.10413,0.0039432,0.0078869,1.6204e-08,0.62,0.36,0
0.030038,0.0035485,0.0090005,-2.3548e-05,0.0026931,5.317e-05,0,0,0.0081997,-0.0035316,0,0.00013824,0,0,0,0.0090008,-2.3861e-05,0.0026931,0.33757,0.00389,0.0080192,1.6601e-08,0.64,0.36,0
0.030202,0.0035966,0.0090175,-0.00018972,0.0026483,9.232e-05,0,0,0.0082799,-0.0036895,0,0.00024003,0,0,0,0.0090185,-0.00019064,0.0026483,0.57442,0.0038254,0.0081684,1.7021e-08,0.66,0.36,0
0.030369,0.0036453,0.00906,-0.00037157,0.0026065,0.0001135,0,0,0.0083895,-0.0038715,0,0.00029509,0,0,0,0.0090613,-0.00037293,0.0026065,0.68934,0.003765,0.0083531,1.7603e-08,0.68,0.36,0
0.030538,0.0036934,0.0092343,-0.00059791,0.0025909,7.2946e-05,0,0,0.0086364,-0.0041455,0,0.00018966,0,0,0,0.0092349,-0.00059845,0.0025909,0.42505,0.0037425,0.0086893,1.9036e-08,0.7,0.36,0
0.030714,0.0037386,0.0097314,-0.00097692,0.0026263,-0.00010602,0,0,0.0092366,-0.0046842,0,-0.00027564,0,0,0,0.0097325,-0.00097797,0.0026263,-0.56717,0.0037936,0.0094393,2.2935e-08,0.72,0.36,0
0.030907,0.0037789,0.010437,-0.0016236,0.0026441,-0.00021086,0,0,0.010131,-0.005548,0,-0.00054825,0,0,0,0.010441,-0.0016272,0.0026441,-1.0013,0.0038193,0.010599,2.9387e-08,0.74,0.36,0
0.031119,0.0038487,0.0079398,0.000461,0.0025202,-0.0003165,0,0,0.014337,-0.0050557,0,-0.003098,0,0,0,0.0079583,0.0004425,0.0025202,-4.2528,0.0036403,0.0067225,2.962e-08,0.76,0.36,0
0.031443,0.0038986,0.012821,0.00079156,0.0040839,0.00035842,0,0,0.040676,-0.0085477,0,0.012671,0,0,0,0.012909,0.00070417,0.0040839,4.3686,0.005899,0.010949,6.7526e-08,0.78,0.36,0
0.033236,0.0038224,0.01049,0.0017332,0.003667,0.00033921,0,0,0.088699,-0.025138,0,0.0088195,0,0,0,0.010503,0.0017201,0.003667,2.2151,0.0052967,0.0079895,2.1042e-08,0.8,0.36,0
0.034991,0.0039048,0.0099626,0.00099411,0.003287,0.00029415,0,0,0.086783,-0.029808,0,0.0076478,0,0,0,0.0099723,0.00098447,0.003287,1.8765,0.0047479,0.0080863,1.9916e-08,0.82,0.36,0
0.036707,0.0039699,0.0095988,0.00050027,0.0030297,0.00021814,0,0,0.085398,-0.032883,0,0.0056718,0,0,0,0.0096041,0.00049504,0.0030297,1.3726,0.0043763,0.0081431,1.8944e-08,0.84,0.36,0
0.038407,0.0040315,0.0093865,0.00018856,0.0028725,0.00018613,0,0,0.084682,-0.034892,0,0.0048395,0,0,0,0.0093903,0.00018479,0.0028725,1.1588,0.0041492,0.008199,1.8393e-08,0.86,0.36,0
0.040094,0.004089,0.0092251,-2.3691e-05,0.0027604,0.00016158,0,0,0.084041,-0.036194,0,0.004201,0,0,0,0.009228,-2.6513e-05,0.0027604,1.0006,0.0039873,0.0082232,1.7894e-08,0.88,0.36,0
0.041769,0.0041408,0.0090936,-0.00017174,0.0026766,0.00013735,0,0,0.083421,-0.037028,0,0.0035711,0,0,0,0.0090956,-0.00017377,0.0026766,0.84911,0.0038661,0.0082235,1.7425e-08,0.9,0.36,0
0.043431,0.0041852,0.0089871,-0.00027569,0.0026134,0.0001118,0,0,0.082858,-0.037558,0,0.0029067,0,0,0,0.0089884,-0.00027704,0.0026134,0.6914,0.0037749,0.0082111,1.7013e-08,0.92,0.36,0
0.045083,0.0042211,0.0089047,-0.00034754,0.0025672,8.4948e-05,0,0,0.082388,-0.037891,0,0.0022086,0,0,0,0.0089055,-0.00034832,0.0025672,0.52599,0.0037081,0.0081948,1.6679e-08,0.94,0.36,0
0.046727,0.0042473,0.0088463,-0.00039463,0.0025355,5.7137e-05,0,0,0.08204,-0.038092,0,0.0014856,0,0,0,0.0088466,-0.00039498,0.0025355,0.35424,0.0036624,0.00818,1.6435e-08,0.96,0.36,0
0.048365,0.0042633,0.0088114,-0.00042134,0.002517,2.8715e-05,0,0,0.081827,-0.038199,0,0.0007466,0,0,0,0.0088115,-0.00042143,0.002517,0.1782,0.0036357,0.0081701,1.6287e-08,0.98,0.36,0
0.05,0.0042687,0.0087998,-0.00043,0.0025109,1.0327e-05,0,0,0.081755,-0.038232,0,0.00026849,0,0,0,0.0087998,-0.00043001,0.0025109,0.064105,0.0036269,0.0081666,1.6238e-08,1,0.36,0
0,0,0.0069621,0.0029837,0.0029837,0.00030968,0,0,0.051718,-7.5894e-19,0,0.0080518,0,0,0,0.0069861,0.0029598,0.0029837,4.4245,0.0043099,0.0040143,3.3221e-09,0,0.38,0
0.0010344,0.00016104,0.0069314,0.0026487,0.002874,0.00030732,0,0,0.052745,-0.0029289,0,0.0079904,0,0,0,0.0069533,0.0026268,0.002874,4.0837,0.0041514,0.0042083,3.7833e-09,0.02,0.38,0
0.0021098,0.00032678,0.0070437,0.0023971,0.0028323,0.00030475,0,0,0.054749,-0.005657,0,0.0079234,0,0,0,0.0070637,0.0023772,0.0028323,3.7364,0.004091,0.0044763,4.4465e-09,0.04,0.38,0
0.0032243,0.00049462,0.0071541,0.0021637,0.0027953,0.00029516,0,0,0.056664,-0.0082118,0,0.0076741,0,0,0,0.0071715,0.0021463,0.0027953,3.373,0.0040377,0.0047342,5.106e-09,0.06,0.38,0
0.0043764,0.00066215,0.0072639,0.001947,0.0027633,0.00027892,0,0,0.058508,-0.010611,0,0.0072518,0,0,0,0.0072785,0.0019324,0.0027633,2.9947,0.0039914,0.0049829,5.7631e-09,0.08,0.38,0
0.0055647,0.00082712,0.007374,0.0017464,0.0027361,0.00025639,0,0,0.060292,-0.012866,0,0.0066661,0,0,0,0.0073856,0.0017347,0.0027361,2.6032,0.0039522,0.0052227,6.4193e-09,0.1,0.38,0
0.0067881,0.00098749,0.0074853,0.0015617,0.0027141,0.00022798,0,0,0.062025,-0.014981,0,0.0059276,0,0,0,0.0074941,0.001553,0.0027141,2.2008,0.0039204,0.005454,7.076e-09,0.12,0.38,0
0.0080457,0.0011414,0.0075986,0.0013933,0.0026976,0.0001942,0,0,0.063714,-0.016955,0,0.0050492,0,0,0,0.0076047,0.0013873,0.0026976,1.7908,0.0038965,0.0056769,7.735e-09,0.14,0.38,0
0.0093366,0.0012874,0.0077148,0.0012418,0.002687,0.00015563,0,0,0.065362,-0.018787,0,0.0040463,0,0,0,0.0077186,0.0012381,0.002687,1.3765,0.0038812,0.0058912,8.3983e-09,0.16,0.38,0
0.01066,0.0014242,0.0078346,0.0011083,0.0026829,0.00011298,0,0,0.066973,-0.02047,0,0.0029374,0,0,0,0.0078365,0.0011064,0.0026829,0.96199,0.0038752,0.0060967,9.068e-09,0.18,0.38,0
0.012016,0.0015511,0.0079589,0.00099421,0.0026859,6.7127e-05,0,0,0.068548,-0.021992,0,0.0017453,0,0,0,0.0079595,0.00099356,0.0026859,0.55216,0.0038797,0.0062928,9.746e-09,0.2,0.38,0
0.013402,0.0016677,0.0080883,0.00090172,0.002697,1.9198e-05,0,0,0.070087,-0.023339,0,0.00049914,0,0,0,0.0080884,0.00090167,0.002697,0.15305,0.0038957,0.0064784,1.0433e-08,0.22,0.38,0
0.014819,0.0017743,0.0082235,0.00083376,0.0027172,-2.9264e-05,0,0,0.071582,-0.024484,0,-0.00076085,0,0,0,0.0082236,0.00083365,0.0027172,-0.22689,0.0039248,0.0066513,1.1127e-08,0.24,0.38,0
0.016265,0.0018721,0.0083644,0.00079461,0.0027477,-7.596e-05,0,0,0.073017,-0.02539,0,-0.001975,0,0,0,0.0083652,0.00079385,0.0027477,-0.57487,0.0039689,0.006808,1.1819e-08,0.26,0.38,0
0.01774,0.0019633,0.0085097,0.00079048,0.0027901,-0.00011727,0,0,0.074355,-0.025994,0,-0.003049,0,0,0,0.0085115,0.00078869,0.0027901,-0.87016,0.0040301,0.0069419,1.2489e-08,0.28,0.38,0
0.01924,0.0020518,0.0086559,0.0008305,0.0028459,-0.00014729,0,0,0.07553,-0.026201,0,-0.0038296,0,0,0,0.0086587,0.00082773,0.0028459,-1.0779,0.0041108,0.0070422,1.3095e-08,0.3,0.38,0
0.020761,0.0021437,0.0087956,0.00092807,0.0029171,-0.00015666,0,0,0.07642,-0.025857,0,-0.0040732,0,0,0,0.0087987,0.00092495,0.0029171,-1.1403,0.0042136,0.0070907,1.3555e-08,0.32,0.38,0
0.022296,0.0022481,0.0089133,0.0011027,0.0030048,-0.00013165,0,0,0.076811,-0.024727,0,-0.0034228,0,0,0,0.0089156,0.0011005,0.0030048,-0.96534,0.0043403,0.0070583,1.3725e-08,0.34,0.38,0
0.023833,0.0023772,0.0089768,0.0013805,0.0031072,-5.9574e-05,0,0,0.076305,-0.022447,0,-0.0015489,0,0,0,0.0089773,0.00138,0.0031072,-0.44931,0.0044882,0.0068978,1.336e-08,0.36,0.38,0
0.025349,0.0025403,0.0089592,0.0018154,0.0032324,5.2551e-05,0,0,0.074448,-0.01842,0,0.0013663,0,0,0,0.0089596,0.001815,0.0032324,0.42145,0.004669,0.0065519,1.2197e-08,0.38,0.38,0
0.026811,0.0027295,0.0088762,0.0024404,0.003395,0.00014697,0,0,0.071256,-0.01241,0,0.0038212,0,0,0,0.0088795,0.002437,0.003395,1.3075,0.0049038,0.006021,1.026e-08,0.4,0.38,0
0.028199,0.0029113,0.0085922,0.00012089,0.0026139,0.0001468,0,0,0.038992,-0.0058926,0,0.0027546,0,0,0,0.0085961,0.00011697,0.0026139,1.235,0.0037757,0.0076521,1.1851e-08,0.42,0.38,0
0.028371,0.0029922,0.0086765,-0.0012145,0.0022386,1.4323e-05,0,0,0.0083693,-0.0044891,0,3.7239e-05,0,0,0,0.0086766,-0.0012146,0.0022386,0.082966,0.0032335,0.008695,1.6702e-08,0.44,0.38,0
0.028534,0.0030599,0.0086617,-0.0004297,0.0024696,-0.00025459,0,0,0.0080497,-0.0037691,0,-0.00066194,0,0,0,0.0086688,-0.00043682,0.0024696,-1.6028,0.0035672,0.0080558,1.5546e-08,0.46,0.38,0
0.028693,0.0031138,0.008709,-0.00022433,0.0025454,-0.00036068,0,0,0.0080127,-0.0036007,0,-0.00093777,0,0,0,0.0087236,-0.00023887,0.0025454,-2.3083,0.0036767,0.007945,1.5501e-08,0.48,0.38,0
0.028854,0.0031604,0.0088497,-8.9984e-05,0.0026279,-0.00032581,0,0,0.0080883,-0.0035333,0,-0.00084712,0,0,0,0.0088615,-0.00010184,0.0026279,-2.0845,0.0037959,0.0079578,1.5989e-08,0.5,0.38,0
0.029017,0.0032056,0.0089358,1.9476e-05,0.0026866,-0.0002306,0,0,0.008124,-0.0034672,0,-0.00059957,0,0,0,0.0089418,1.3516e-05,0.0026866,-1.4805,0.0038806,0.0079368,1.6204e-08,0.52,0.38,0
0.029179,0.0032512,0.0089787,0.00012836,0.0027321,-0.0001454,0,0,0.0081206,-0.0033849,0,-0.00037803,0,0,0,0.0089811,0.00012597,0.0027321,-0.94093,0.0039464,0.0078821,1.6194e-08,0.54,0.38,0
0.029341,0.0032972,0.0089947,0.00021053,0.0027616,-8.9408e-05,0,0,0.0081031,-0.0033164,0,-0.00023246,0,0,0,0.0089956,0.00020962,0.0027616,-0.58309,0.0039889,0.0078285,1.6103e-08,0.56,0.38,0
0.029503,0.0033431,0.009006,0.00024013,0.0027738,-5.9754e-05,0,0,0.0081018,-0.0032938,0,-0.00015536,0,0,0,0.0090064,0.00023973,0.0027738,-0.39054,0.0040067,0.0078141,1.6099e-08,0.58,0.38,0
0.029665,0.0033883,0.0090247,0.00019981,0.0027674,-4.1374e-05,0,0,0.0081346,-0.0033378,0,-0.00010757,0,0,0,0.0090249,0.00019962,0.0027674,-0.26861,0.0039973,0.0078624,1.6282e-08,0.6,0.38,0
0.029829,0.0034328,0.0090524,8.9694e-05,0.0027426,-1.7245e-05,0,0,0.0082027,-0.0034488,0,-4.4836e-05,0,0,0,0.0090524,8.9661e-05,0.0027426,-0.11024,0.0039616,0.0079744,1.6659e-08,0.62,0.38,0
0.029993,0.0034773,0.0090793,-7.2247e-05,0.0027021,2.5577e-05,0,0,0.0082903,-0.0036067,0,6.6499e-05,0,0,0,0.0090793,-7.2319e-05,0.0027021,0.16013,0.003903,0.0081277,1.7135e-08,0.64,0.38,0
0.03016,0.0035222,0.0090836,-0.00025795,0.0026477,8.4682e-05,0,0,0.0083667,-0.0037774,0,0.00022017,0,0,0,0.0090844,-0.00025872,0.0026477,0.51933,0.0038245,0.0082817,1.7524e-08,0.66,0.38,0
0.030328,0.0035676,0.0090391,-0.00043812,0.0025803,0.00012946,0,0,0.0083965,-0.0039239,0,0.00033659,0,0,0,0.0090409,-0.00043989,0.0025803,0.78246,0.0037271,0.0083889,1.7606e-08,0.68,0.38,0
0.030496,0.0036116,0.0088879,-0.00063275,0.0024765,7.2564e-05,0,0,0.0083347,-0.0040421,0,0.00018867,0,0,0,0.0088884,-0.00063331,0.0024765,0.43666,0.0035772,0.0084097,1.7067e-08,0.7,0.38,0
0.030662,0.003649,0.0085417,-0.00092712,0.0022844,-0.00016716,0,0,0.0081345,-0.0041749,0,-0.00043461,0,0,0,0.0085447,-0.00093007,0.0022844,-1.011,0.0032996,0.0083455,1.5617e-08,0.72,0.38,0
0.030821,0.0036785,0.0076831,-0.0017453,0.0017813,-0.00028397,0,0,0.0076722,-0.0045846,0,-0.00073831,0,0,0,0.0076916,-0.0017538,0.0017813,-1.7236,0.002573,0.0082657,1.2157e-08,0.74,0.38,0
0.030968,0.003743,0.0074127,-0.00072364,0.0020067,-0.0002484,0,0,0.037206,-0.0064536,0,-0.0035724,0,0,0,0.0074211,-0.00073203,0.0020067,-1.9289,0.0028986,0.0073263,6.2637e-09,0.76,0.38,0
0.03231,0.0036902,0.0081531,0.0019701,0.003037,0.00055714,0,0,0.06651,-0.013869,0,0.014486,0,0,0,0.0082029,0.0019203,0.003037,5.1079,0.0043867,0.0058054,8.8088e-09,0.78,0.38,0
0.033629,0.0033851,0.0084982,0.0014012,0.0029698,0.00029828,0,0,0.071869,-0.020392,0,0.0077553,0,0,0,0.0085108,0.0013887,0.0029698,2.4024,0.0042898,0.0064779,1.1207e-08,0.8,0.38,0
0.035184,0.0033245,0.0091706,0.00084451,0.0030045,0.00039601,0,0,0.080159,-0.02808,0,0.010296,0,0,0,0.0091894,0.00082571,0.0030045,2.717,0.0043399,0.007515,1.5779e-08,0.82,0.38,0
0.036835,0.0033189,0.0093281,0.00048501,0.0029439,0.00036728,0,0,0.082994,-0.031966,0,0.0095493,0,0,0,0.0093433,0.00046979,0.0029439,2.3742,0.0042524,0.0079314,1.747e-08,0.84,0.38,0
0.038504,0.0033375,0.0092525,0.00020457,0.0028371,0.00033248,0,0,0.0834,-0.034223,0,0.0086446,0,0,0,0.0092647,0.00019237,0.0028371,2.1017,0.004098,0.0080813,1.7642e-08,0.86,0.38,0
0.040171,0.0033683,0.0091374,4.6949e-06,0.0027426,0.00029316,0,0,0.083132,-0.035593,0,0.0076222,0,0,0,0.0091468,-4.7058e-06,0.0027426,1.8367,0.0039616,0.0081336,1.7382e-08,0.88,0.38,0
0.041829,0.0034033,0.0090254,-0.00013788,0.0026662,0.00024896,0,0,0.082669,-0.036454,0,0.006473,0,0,0,0.0090321,-0.00014464,0.0026662,1.5552,0.0038512,0.0081437,1.701e-08,0.9,0.38,0
0.043478,0.0034371,0.0089295,-0.00023906,0.0026071,0.0002014,0,0,0.082191,-0.037001,0,0.0052363,0,0,0,0.008934,-0.00024348,0.0026071,1.2577,0.0037659,0.0081357,1.6647e-08,0.92,0.38,0
0.045117,0.0034663,0.008854,-0.00030946,0.0025634,0.00015195,0,0,0.081778,-0.037347,0,0.0039506,0,0,0,0.0088565,-0.00031197,0.0025634,0.94973,0.0037026,0.008122,1.6344e-08,0.94,0.38,0
0.046749,0.0034885,0.0087999,-0.00035579,0.0025332,0.00010159,0,0,0.081467,-0.037557,0,0.0026414,0,0,0,0.008801,-0.00035692,0.0025332,0.63565,0.0036591,0.0081089,1.612e-08,0.96,0.38,0
0.048376,0.0035024,0.0087675,-0.00038214,0.0025156,5.0858e-05,0,0,0.081275,-0.037671,0,0.0013223,0,0,0,0.0087678,-0.00038242,0.0025156,0.31846,0.0036337,0.0080999,1.5984e-08,0.98,0.38,0
0.05,0.0035071,0.0087567,-0.00039069,0.0025098,9.0373e-06,0,0,0.08121,-0.037707,0,0.00023497,0,0,0,0.0087568,-0.0003907,0.0025098,0.056606,0.0036253,0.0080967,1.5939e-08,1,0.38,0
0,0,0.0069309,0.0029704,0.0029704,0.00019862,0,0,0.051487,-3.2526e-19,0,0.0051641,0,0,0,0.0069409,0.0029605,0.0029704,2.8638,0.0042906,0.0039755,3.2268e-09,0,0.4,0
0.0010297,0.00010328,0.0069011,0.0026461,0.0028642,0.00019614,0,0,0.052481,-0.002835,0,0.0050997,0,0,0,0.0069102,0.0026371,0.0028642,2.6337,0.0041371,0.0041642,3.6715e-09,0.02,0.4,0
0.0020992,0.00021524,0.0070098,0.0024024,0.0028237,0.00019616,0,0,0.05442,-0.0054763,0,0.0051001,0,0,0,0.0070181,0.0023941,0.0028237,2.4335,0.0040786,0.0044249,4.3087e-09,0.04,0.4,0
0.0032065,0.00033274,0.0071163,0.0021763,0.0027878,0.00018778,0,0,0.056271,-0.0079491,0,0.0048822,0,0,0,0.0071235,0.0021692,0.0027878,2.1737,0.0040268,0.0046758,4.9418e-09,0.06,0.4,0
0.0043501,0.000453,0.007222,0.0019666,0.0027566,0.0001717,0,0,0.058051,-0.01027,0,0.0044641,0,0,0,0.0072277,0.001961,0.0027566,1.8692,0.0039817,0.0049174,5.5719e-09,0.08,0.4,0
0.0055286,0.00057357,0.0073279,0.0017724,0.0027301,0.00014849,0,0,0.059771,-0.012449,0,0.0038607,0,0,0,0.0073318,0.0017685,0.0027301,1.53,0.0039435,0.0051503,6.2001e-09,0.1,0.4,0
0.0067409,0.00069231,0.0074345,0.0015938,0.0027085,0.00011867,0,0,0.061439,-0.014491,0,0.0030854,0,0,0,0.0074369,0.0015914,0.0027085,1.1634,0.0039123,0.0053748,6.8278e-09,0.12,0.4,0
0.0079861,0.00080738,0.0075428,0.0014308,0.0026921,8.2757e-05,0,0,0.06306,-0.016397,0,0.0021517,0,0,0,0.0075439,0.0014297,0.0026921,0.77559,0.0038886,0.005591,7.4565e-09,0.14,0.4,0
0.0092633,0.0009173,0.0076534,0.0012841,0.0026813,4.1317e-05,0,0,0.064638,-0.018163,0,0.0010742,0,0,0,0.0076537,0.0012838,0.0026813,0.37165,0.0038729,0.0057988,8.0879e-09,0.16,0.4,0
0.010572,0.001021,0.007767,0.0011547,0.0026765,-4.9948e-06,0,0,0.066177,-0.019784,0,-0.00012987,0,0,0,0.007767,0.0011547,0.0026765,-0.04328,0.0038661,0.005998,8.7239e-09,0.18,0.4,0
0.01191,0.0011178,0.0078845,0.0010438,0.0026785,-5.5352e-05,0,0,0.067678,-0.021251,0,-0.0014392,0,0,0,0.007885,0.0010433,0.0026785,-0.46357,0.0038689,0.0061883,9.3664e-09,0.2,0.4,0
0.013279,0.0012078,0.0080067,0.0009533,0.002688,-0.00010863,0,0,0.069144,-0.022551,0,-0.0028243,0,0,0,0.0080084,0.00095162,0.002688,-0.8821,0.0038827,0.0063687,1.0017e-08,0.22,0.4,0
0.014676,0.0012917,0.0081347,0.00088563,0.0027061,-0.00016315,0,0,0.070572,-0.023666,0,-0.0042419,0,0,0,0.0081384,0.00088196,0.0027061,-1.2887,0.0039088,0.006538,1.0676e-08,0.24,0.4,0
0.016102,0.0013713,0.0082693,0.00084418,0.0027341,-0.00021631,0,0,0.071958,-0.024568,0,-0.005624,0,0,0,0.0082756,0.00083789,0.0027341,-1.6672,0.0039492,0.0066942,1.1341e-08,0.26,0.4,0
0.017554,0.0014498,0.0084117,0.00083361,0.0027736,-0.00026381,0,0,0.073296,-0.02522,0,-0.0068592,0,0,0,0.0084209,0.00082444,0.0027736,-1.9914,0.0040063,0.0068337,1.2006e-08,0.28,0.4,0
0.019033,0.0015328,0.0085632,0.00086047,0.0028271,-0.00029857,0,0,0.074569,-0.025566,0,-0.0077628,0,0,0,0.0085747,0.00084891,0.0028271,-2.2165,0.0040836,0.0069511,1.2656e-08,0.3,0.4,0
0.020537,0.0016285,0.0087246,0.00093397,0.0028976,-0.00030875,0,0,0.075752,-0.025527,0,-0.0080274,0,0,0,0.0087369,0.00092175,0.0028976,-2.2659,0.0041854,0.0070383,1.3264e-08,0.32,0.4,0
0.022063,0.0017502,0.0088945,0.0010672,0.0029885,-0.00027559,0,0,0.076778,-0.024977,0,-0.0071652,0,0,0,0.0089042,0.0010575,0.0029885,-2.014,0.0043167,0.0070815,1.3769e-08,0.34,0.4,0
0.023608,0.0019165,0.0090582,0.0012808,0.0031017,-0.00016937,0,0,0.077435,-0.023672,0,-0.0044035,0,0,0,0.0090619,0.0012771,0.0031017,-1.2469,0.0044803,0.0070518,1.4027e-08,0.36,0.4,0
0.025161,0.0021535,0.0091227,0.001598,0.0032162,2.9764e-05,0,0,0.076785,-0.021037,0,0.00077386,0,0,0,0.0091228,0.0015978,0.0032162,0.22663,0.0046456,0.0068605,1.3524e-08,0.38,0.4,0
0.02668,0.002468,0.0090634,0.0022254,0.0033867,0.00026895,0,0,0.073798,-0.015096,0,0.0069927,0,0,0,0.009074,0.0022148,0.0033867,2.2489,0.0048918,0.0063548,1.1684e-08,0.4,0.4,0
0.028113,0.0027918,0.00884,8.2111e-05,0.0026766,0.00040879,0,0,0.040258,-0.0061325,0,0.0062369,0,0,0,0.0088623,5.9756e-05,0.0026766,3.0331,0.0038662,0.007938,1.2979e-08,0.42,0.4,0
0.02829,0.0029051,0.0091095,-0.00042689,0.0026048,-3.7124e-05,0,0,0.0084562,-0.0039412,0,-9.6522e-05,0,0,0,0.0091097,-0.00042704,0.0026048,-0.22304,0.0037625,0.0084396,1.7982e-08,0.44,0.4,0
0.028451,0.0029861,0.0088629,-0.00038024,0.0025448,-0.0003938,0,0,0.0082136,-0.0038026,0,-0.0010239,0,0,0,0.0088797,-0.00039699,0.0025448,-2.4352,0.0036758,0.008211,1.6621e-08,0.46,0.4,0
0.028619,0.0030403,0.0091311,-0.00028621,0.0026535,-0.00050074,0,0,0.0084209,-0.0038216,0,-0.0013019,0,0,0,0.0091577,-0.00031276,0.0026535,-3.0351,0.0038328,0.0083902,1.805e-08,0.48,0.4,0
0.028788,0.0030877,0.009206,-0.00022933,0.002693,-0.00037775,0,0,0.0084669,-0.003799,0,-0.00098216,0,0,0,0.0092211,-0.00024443,0.002693,-2.289,0.0038899,0.0083917,1.8291e-08,0.5,0.4,0
0.028957,0.0031344,0.009214,-9.1558e-05,0.0027367,-0.0002335,0,0,0.0084204,-0.0036768,0,-0.0006071,0,0,0,0.0092198,-9.7413e-05,0.0027367,-1.4365,0.003953,0.0082727,1.7991e-08,0.52,0.4,0
0.029125,0.0031823,0.0091759,6.1253e-05,0.0027711,-0.00012389,0,0,0.0083261,-0.0035229,0,-0.00032211,0,0,0,0.0091775,5.9569e-05,0.0027711,-0.7786,0.0040028,0.0081096,1.7425e-08,0.54,0.4,0
0.02929,0.0032301,0.0091383,0.00018809,0.0027979,-7.1262e-05,0,0,0.0082425,-0.0033928,0,-0.00018528,0,0,0,0.0091389,0.00018752,0.0027979,-0.45616,0.0040414,0.0079733,1.6938e-08,0.56,0.4,0
0.029454,0.0032767,0.0091177,0.00024146,0.0028077,-6.0572e-05,0,0,0.0082029,-0.0033362,0,-0.00015749,0,0,0,0.0091181,0.00024105,0.0028077,-0.39097,0.0040556,0.0079123,1.6709e-08,0.58,0.4,0
0.029618,0.0033211,0.0091264,0.0002033,0.0027989,-6.7195e-05,0,0,0.0082257,-0.0033743,0,-0.00017471,0,0,0,0.0091269,0.00020279,0.0027989,-0.43143,0.0040429,0.0079506,1.6839e-08,0.6,0.4,0
0.029784,0.0033633,0.0091634,7.3839e-05,0.0027712,-6.3007e-05,0,0,0.0083099,-0.0035065,0,-0.00016382,0,0,0,0.0091638,7.3402e-05,0.0027712,-0.39714,0.0040028,0.0080864,1.7318e-08,0.62,0.4,0
0.029951,0.0034042,0.0092123,-0.00012741,0.0027255,-2.3792e-05,0,0,0.0084329,-0.0037087,0,-6.186e-05,0,0,0,0.0092124,-0.00012747,0.0027255,-0.14596,0.0039368,0.0082901,1.8008e-08,0.64,0.4,0
0.030121,0.0034455,0.0092463,-0.0003502,0.0026688,6.4544e-05,0,0,0.0085507,-0.0039248,0,0.00016782,0,0,0,0.0092468,-0.00035063,0.0026688,0.38534,0.003855,0.0084999,1.8649e-08,0.66,0.4,0
0.030293,0.0034883,0.0091952,-0.00054674,0.0025945,0.00018152,0,0,0.0085808,-0.0040837,0,0.00047195,0,0,0,0.0091985,-0.00055012,0.0025945,1.0671,0.0037476,0.008618,1.873e-08,0.68,0.4,0
0.030464,0.0035317,0.0089814,-0.00064783,0.0025001,0.00028355,0,0,0.0084257,-0.0040923,0,0.00073722,0,0,0,0.0089897,-0.00065617,0.0025001,1.6852,0.0036112,0.0085183,1.7683e-08,0.7,0.4,0
0.03063,0.0035716,0.0084713,-0.00073249,0.0023216,0.00024347,0,0,0.0079945,-0.0039704,0,0.00063303,0,0,0,0.0084777,-0.00073892,0.0023216,1.5143,0.0033535,0.0081305,1.5003e-08,0.72,0.4,0
0.030784,0.0035955,0.0089181,-0.00066473,0.002476,4.929e-05,0,0,0.0083747,-0.004083,0,0.00012815,0,0,0,0.0089183,-0.00066498,0.002476,0.29469,0.0035765,0.008462,1.7288e-08,0.74,0.4,0
0.030965,0.0035905,0.0084375,-0.00099376,0.0022331,-0.0002616,0,0,0.039923,-0.0076272,0,-0.0061818,0,0,0,0.0084558,-0.0010121,0.0022331,-2.3335,0.0032256,0.0084719,1.0072e-08,0.76,0.4,0
0.032381,0.0033438,0.0088043,0.0016522,0.0031369,-0.00033402,0,0,0.073676,-0.019302,0,-0.0086845,0,0,0,0.0088199,0.0016366,0.0031369,-2.6681,0.0045311,0.006563,1.2e-08,0.78,0.4,0
0.033912,0.0030067,0.0090954,0.0014227,0.0031554,1.3466e-05,0,0,0.077219,-0.022525,0,0.00035011,0,0,0,0.0090954,0.0014227,0.0031554,0.10056,0.0045578,0.0069698,1.3833e-08,0.8,0.4,0
0.03547,0.0027816,0.0090597,0.0008552,0.0029745,0.00030612,0,0,0.079107,-0.02755,0,0.0079591,0,0,0,0.0090711,0.0008438,0.0029745,2.1338,0.0042964,0.0073958,1.511e-08,0.82,0.4,0
0.037076,0.0026913,0.0090935,0.00048619,0.0028739,0.00043323,0,0,0.080855,-0.03104,0,0.011264,0,0,0,0.0091153,0.00046444,0.0028739,2.8742,0.0041512,0.0077329,1.6208e-08,0.84,0.4,0
0.038704,0.0026626,0.0090495,0.00023383,0.002785,0.00043978,0,0,0.081438,-0.033165,0,0.011434,0,0,0,0.0090714,0.00021195,0.002785,2.8488,0.0040228,0.0078939,1.6512e-08,0.86,0.4,0
0.040334,0.0026652,0.0089646,4.946e-05,0.0027042,0.00040205,0,0,0.081385,-0.034512,0,0.010453,0,0,0,0.0089827,3.1365e-05,0.0027042,2.5769,0.0039061,0.007959,1.6392e-08,0.88,0.4,0
0.041959,0.0026826,0.0088761,-8.4859e-05,0.0026374,0.00034519,0,0,0.081103,-0.035389,0,0.0089749,0,0,0,0.0088894,-9.8137e-05,0.0026374,2.2028,0.0038095,0.0079795,1.6133e-08,0.9,0.4,0
0.043578,0.0027052,0.0087978,-0.0001821,0.0025847,0.00027996,0,0,0.08077,-0.035969,0,0.0072788,0,0,0,0.0088065,-0.00019081,0.0025847,1.7839,0.0037335,0.0079802,1.5857e-08,0.92,0.4,0
0.04519,0.0027272,0.0087351,-0.00025076,0.0025453,0.00021117,0,0,0.080467,-0.036349,0,0.0054903,0,0,0,0.00874,-0.00025572,0.0025453,1.3455,0.0036765,0.0079732,1.5617e-08,0.94,0.4,0
0.046796,0.002745,0.0086898,-0.00029644,0.002518,0.00014105,0,0,0.080233,-0.036588,0,0.0036673,0,0,0,0.008692,-0.00029865,0.002518,0.89903,0.0036371,0.007965,1.5437e-08,0.96,0.4,0
0.048399,0.0027565,0.0086625,-0.00032259,0.002502,7.0554e-05,0,0,0.080087,-0.03672,0,0.0018344,0,0,0,0.0086631,-0.00032314,0.002502,0.44987,0.003614,0.0079591,1.5327e-08,0.98,0.4,0
0.05,0.0027604,0.0086535,-0.0003311,0.0024967,7.5742e-06,0,0,0.080038,-0.036762,0,0.00019693,0,0,0,0.0086535,-0.00033111,0.0024967,0.048301,0.0036063,0.0079569,1.529e-08,1,0.4,0
0,0,0.0068864,0.0029513,0.0029513,9.1604e-05,0,0,0.051156,3.2526e-19,0,0.0023817,0,0,0,0.0068885,0.0029492,0.0029513,1.3328,0.004263,0.0039383,3.1372e-09,0,0.42,0
0.0010231,4.7634e-05,0.0068578,0.0026402,0.0028494,8.9087e-05,0,0,0.052109,-0.0027197,0,0.0023163,0,0,0,0.0068597,0.0026383,0.0028494,1.2095,0.0041158,0.0041199,3.5597e-09,0.02,0.42,0
0.0020844,0.00010773,0.0069617,0.0024059,0.0028103,9.1718e-05,0,0,0.053969,-0.0052575,0,0.0023847,0,0,0,0.0069636,0.002404,0.0028103,1.1528,0.0040593,0.0043706,4.1633e-09,0.04,0.42,0
0.0031819,0.00017666,0.0070635,0.0021882,0.0027755,8.4738e-05,0,0,0.055744,-0.0076349,0,0.0022032,0,0,0,0.007065,0.0021867,0.0027755,0.99546,0.0040091,0.0046121,4.7631e-09,0.06,0.42,0
0.0043141,0.00025134,0.0071641,0.0019862,0.0027451,6.9138e-05,0,0,0.057448,-0.0098658,0,0.0017976,0,0,0,0.0071651,0.0019853,0.0027451,0.76486,0.0039651,0.0048448,5.3594e-09,0.08,0.42,0
0.0054798,0.00032915,0.0072644,0.0017992,0.0027191,4.5682e-05,0,0,0.059089,-0.011958,0,0.0011877,0,0,0,0.0072648,0.0017988,0.0027191,0.47888,0.0039275,0.0050688,5.9525e-09,0.1,0.42,0
0.0066777,0.00040783,0.0073648,0.0016271,0.0026976,1.4994e-05,0,0,0.060674,-0.013916,0,0.00038985,0,0,0,0.0073649,0.0016271,0.0026976,0.14973,0.0038965,0.0052845,6.5432e-09,0.12,0.42,0
0.0079068,0.00048556,0.0074661,0.0014702,0.0026809,-2.2374e-05,0,0,0.062208,-0.015739,0,-0.00058173,0,0,0,0.0074662,0.0014701,0.0026809,-0.2138,0.0038724,0.0054917,7.1323e-09,0.14,0.42,0
0.009166,0.00056091,0.0075687,0.001329,0.0026693,-6.5883e-05,0,0,0.063692,-0.017424,0,-0.001713,0,0,0,0.0075694,0.0013283,0.0026693,-0.60488,0.0038557,0.0056903,7.7205e-09,0.16,0.42,0
0.010454,0.00063289,0.0076732,0.0012044,0.0026633,-0.00011494,0,0,0.065129,-0.018965,0,-0.0029885,0,0,0,0.0076752,0.0012024,0.0026633,-1.0176,0.003847,0.0058801,8.3091e-09,0.18,0.42,0
0.011771,0.00070105,0.0077803,0.0010975,0.0026634,-0.00016882,0,0,0.06652,-0.020355,0,-0.0043893,0,0,0,0.0077846,0.0010933,0.0026634,-1.4462,0.0038471,0.0060607,8.8993e-09,0.2,0.42,0
0.013115,0.00076563,0.0078909,0.0010099,0.0026702,-0.00022652,0,0,0.067868,-0.021584,0,-0.0058895,0,0,0,0.0078983,0.0010024,0.0026702,-1.8834,0.003857,0.0062317,9.4927e-09,0.22,0.42,0
0.014486,0.00082766,0.0080061,0.00094332,0.0026848,-0.00028656,0,0,0.069176,-0.022639,0,-0.0074506,0,0,0,0.0080177,0.00093171,0.0026848,-2.3196,0.0038781,0.0063923,1.0091e-08,0.24,0.42,0
0.015882,0.00088936,0.0081276,0.00090026,0.0027083,-0.00034663,0,0,0.07045,-0.023505,0,-0.0090123,0,0,0,0.0081442,0.00088367,0.0027083,-2.7396,0.0039121,0.0065419,1.0697e-08,0.26,0.42,0
0.017304,0.00095451,0.0082581,0.00088374,0.0027426,-0.00040302,0,0,0.071702,-0.024165,0,-0.010478,0,0,0,0.0082801,0.00086178,0.0027426,-3.1189,0.0039615,0.0066796,1.1314e-08,0.28,0.42,0
0.01875,0.0010291,0.0084025,0.00089766,0.00279,-0.00044973,0,0,0.072962,-0.024601,0,-0.011693,0,0,0,0.0084293,0.0008708,0.00279,-3.4171,0.0040301,0.006805,1.195e-08,0.3,0.42,0
0.020222,0.0011226,0.0085692,0.00094717,0.0028549,-0.000477,0,0,0.074286,-0.024801,0,-0.012402,0,0,0,0.008599,0.00091744,0.0028549,-3.5671,0.0041238,0.0069193,1.2624e-08,0.32,0.42,0
0.021722,0.001249,0.0087742,0.0010401,0.0029443,-0.00046814,0,0,0.075789,-0.024755,0,-0.012172,0,0,0,0.0088024,0.0010118,0.0029443,-3.4513,0.0042528,0.0070266,1.3378e-08,0.34,0.42,0
0.023254,0.0014303,0.0090437,0.0011908,0.0030704,-0.0003953,0,0,0.077654,-0.024434,0,-0.010278,0,0,0,0.0090636,0.001171,0.0030704,-2.8745,0.004435,0.0071351,1.4294e-08,0.36,0.42,0
0.024828,0.0016988,0.0094012,0.0014308,0.0032496,-0.00018641,0,0,0.07997,-0.023644,0,-0.0048466,0,0,0,0.0094055,0.0014264,0.0032496,-1.339,0.0046938,0.0072417,1.5417e-08,0.38,0.42,0
0.026453,0.0021257,0.0094862,0.0017288,0.0033645,0.00016765,0,0,0.079582,-0.021264,0,0.0043589,0,0,0,0.0094898,0.0017252,0.0033645,1.2375,0.0048598,0.0070886,1.5048e-08,0.4,0.42,0
0.028011,0.002666,0.0082288,-0.0011416,0.0021262,-0.00011998,0,0,0.043001,-0.0077238,0,0.0070346,0,0,0,0.0082893,-0.0012021,0.0021262,0.66568,0.0030711,0.0085186,7.6861e-09,0.42,0.42,0
0.028173,0.0028346,0.0095149,9.214e-06,0.0028572,0.00030318,0,0,0.0086549,-0.0037024,0,0.00078827,0,0,0,0.0095245,-4.4603e-07,0.0028572,1.825,0.0041271,0.0084659,1.9616e-08,0.44,0.42,0
0.028358,0.0029078,0.010025,-0.00010333,0.0029764,-0.00050809,0,0,0.0091629,-0.0040037,0,-0.001321,0,0,0,0.01005,-0.00012875,0.0029764,-2.8647,0.0042993,0.0090359,2.3358e-08,0.46,0.42,0
0.028539,0.0029609,0.0098022,-0.00040948,0.0028178,-0.00044993,0,0,0.0090796,-0.0041955,0,-0.0011698,0,0,0,0.0098219,-0.00042927,0.0028178,-2.518,0.0040702,0.0090744,2.2472e-08,0.48,0.42,0
0.028721,0.0030084,0.0096888,-0.00036534,0.0027971,-0.00030819,0,0,0.0089593,-0.0041111,0,-0.0008013,0,0,0,0.0096983,-0.00037478,0.0027971,-1.7541,0.0040402,0.0089206,2.1531e-08,0.5,0.42,0
0.028898,0.0030585,0.0095152,-0.00022392,0.0027874,-0.00013561,0,0,0.0087462,-0.0039147,0,-0.00035258,0,0,0,0.0095171,-0.00022581,0.0027874,-0.79757,0.0040262,0.0086398,2.0055e-08,0.52,0.42,0
0.02907,0.0031103,0.0093946,1.1406e-05,0.0028218,-4.0748e-05,0,0,0.0085447,-0.0036535,0,-0.00010594,0,0,0,0.0093948,1.1229e-05,0.0028218,-0.24881,0.004076,0.0083413,1.88e-08,0.54,0.42,0
0.029239,0.0031615,0.0092976,0.00019138,0.0028467,-1.7965e-05,0,0,0.0083862,-0.0034519,0,-4.6709e-05,0,0,0,0.0092976,0.00019134,0.0028467,-0.11303,0.0041119,0.0081114,1.7835e-08,0.56,0.42,0
0.029406,0.0032096,0.0092482,0.00027256,0.0028562,-4.5747e-05,0,0,0.0083096,-0.0033588,0,-0.00011894,0,0,0,0.0092484,0.00027233,0.0028562,-0.29202,0.0041257,0.0080034,1.7375e-08,0.58,0.42,0
0.029572,0.0032533,0.0092472,0.00023693,0.0028452,-9.0422e-05,0,0,0.0083225,-0.0033908,0,-0.0002351,0,0,0,0.0092481,0.00023602,0.0028452,-0.57491,0.0041098,0.0080319,1.7452e-08,0.6,0.42,0
0.029739,0.0032926,0.0092927,8.4507e-05,0.0028131,-0.00012263,0,0,0.0084234,-0.0035472,0,-0.00031884,0,0,0,0.0092943,8.2874e-05,0.0028131,-0.76285,0.0040634,0.0081948,1.8051e-08,0.62,0.42,0
0.029909,0.0033289,0.0093781,-0.00016641,0.0027635,-0.00010675,0,0,0.008599,-0.0038089,0,-0.00027755,0,0,0,0.0093793,-0.0001676,0.0027635,-0.64072,0.0039917,0.0084707,1.9084e-08,0.64,0.42,0
0.030083,0.0033652,0.0094719,-0.0004682,0.0027011,-1.5866e-05,0,0,0.0088021,-0.0041201,0,-4.1252e-05,0,0,0,0.0094719,-0.00046822,0.0027011,-0.091455,0.0039016,0.0087948,2.0261e-08,0.66,0.42,0
0.030261,0.0034042,0.0095894,-0.00066872,0.0026762,0.00016504,0,0,0.0089871,-0.0043484,0,0.0004291,0,0,0,0.009592,-0.00067138,0.0026762,0.92149,0.0038656,0.0090657,2.1426e-08,0.68,0.42,0
0.030442,0.0034479,0.0096287,-0.00075052,0.0026634,0.00035519,0,0,0.0090548,-0.0044382,0,0.00092351,0,0,0,0.0096408,-0.00076266,0.0026634,1.9577,0.0038472,0.009183,2.1921e-08,0.7,0.42,0
0.030623,0.0034902,0.0098239,-0.00049408,0.002799,0.00050625,0,0,0.0091324,-0.0042809,0,0.0013162,0,0,0,0.0098487,-0.00051886,0.002799,2.8022,0.0040429,0.0091704,2.2844e-08,0.72,0.42,0
0.030808,0.0035152,0.0093376,-0.00063899,0.0026096,-0.00024035,0,0,0.0087464,-0.0042232,0,-0.00062491,0,0,0,0.0093434,-0.00064478,0.0026096,-1.3793,0.0037694,0.0088232,1.9786e-08,0.74,0.42,0
0.030973,0.0034379,0.008008,-0.0019942,0.0018042,7.9481e-05,0,0,0.043462,-0.0089779,0,-0.0086749,0,0,0,0.0080819,-0.002068,0.0018042,-1.2025,0.002606,0.0090781,4.0568e-09,0.76,0.42,0
0.032546,0.0029181,0.0094004,0.0012155,0.0031848,-0.00027269,0,0,0.080803,-0.0256,0,-0.0070899,0,0,0,0.0094095,0.0012065,0.0031848,-1.9061,0.0046002,0.0074145,1.6018e-08,0.78,0.42,0
0.034205,0.0024841,0.0094237,0.001013,0.003131,9.7468e-05,0,0,0.081805,-0.027534,0,0.0025342,0,0,0,0.0094248,0.0010118,0.003131,0.66385,0.0045225,0.007579,1.6605e-08,0.8,0.42,0
0.035818,0.0022224,0.0091194,0.0007676,0.0029661,0.00038849,0,0,0.079993,-0.028581,0,0.010101,0,0,0,0.0091375,0.00074957,0.0029661,2.6575,0.0042844,0.0075285,1.568e-08,0.82,0.42,0
0.037405,0.0020773,0.0089146,0.00048455,0.0028198,0.00050928,0,0,0.079233,-0.030358,0,0.013241,0,0,0,0.0089453,0.00045389,0.0028198,3.4447,0.004073,0.0075902,1.5322e-08,0.84,0.42,0
0.038988,0.0020109,0.0088095,0.00026978,0.0027238,0.00052732,0,0,0.079114,-0.031902,0,0.01371,0,0,0,0.0088419,0.00023734,0.0027238,3.5201,0.0039343,0.0076698,1.5229e-08,0.86,0.42,0
0.040569,0.0019878,0.0087297,0.00010702,0.002651,0.00048711,0,0,0.079023,-0.033072,0,0.012665,0,0,0,0.0087572,7.9592e-05,0.002651,3.2231,0.0038293,0.00772,1.5096e-08,0.88,0.42,0
0.042148,0.0019877,0.0086611,-1.6325e-05,0.0025934,0.00042045,0,0,0.078879,-0.033927,0,0.010932,0,0,0,0.0086814,-3.665e-05,0.0025934,2.7675,0.0037461,0.0077455,1.492e-08,0.9,0.42,0
0.043724,0.0019984,0.0086031,-0.00010836,0.0025484,0.00034182,0,0,0.078711,-0.034538,0,0.0088873,0,0,0,0.0086165,-0.00012175,0.0025484,2.2436,0.003681,0.0077559,1.4739e-08,0.92,0.42,0
0.045297,0.0020123,0.0085569,-0.00017484,0.0025146,0.00025812,0,0,0.07855,-0.034963,0,0.006711,0,0,0,0.0085646,-0.00018246,0.0025146,1.6917,0.0036322,0.0077584,1.458e-08,0.94,0.42,0
0.046866,0.002025,0.0085235,-0.00021977,0.0024911,0.0001725,0,0,0.078421,-0.035242,0,0.0044849,0,0,0,0.0085269,-0.00022317,0.0024911,1.1298,0.0035983,0.0077577,1.4459e-08,0.96,0.42,0
0.048434,0.0020336,0.0085033,-0.00024575,0.0024773,8.6301e-05,0,0,0.078339,-0.035399,0,0.0022438,0,0,0,0.0085042,-0.00024661,0.0024773,0.56509,0.0035783,0.0077563,1.4383e-08,0.98,0.42,0
0.05,0.0020366,0.0084966,-0.00025426,0.0024727,5.8031e-06,0,0,0.078311,-0.035451,0,0.00015088,0,0,0,0.0084966,-0.00025426,0.0024727,0.037996,0.0035717,0.0077557,1.4358e-08,1,0.42,0
0,0,0.0068295,0.0029269,0.0029269,-1.0587e-05,0,0,0.050733,-1.0842e-19,0,-0.00027526,0,0,0,0.0068295,0.0029269,0.0029269,-0.15543,0.0042278,0.0039026,3.0527e-09,0,0.44,0
0.0010147,-5.5053e-06,0.0068023,0.0026311,0.00283,-1.3049e-05,0,0,0.05164,-0.0025862,0,-0.00033928,0,0,0,0.0068024,0.002631,0.00283,-0.17924,0.0040878,0.0040755,3.4487e-09,0.02,0.44,0
0.0020656,4.941e-06,0.0069009,0.0024073,0.0027925,-7.7866e-06,0,0,0.053409,-0.0050066,0,-0.00020245,0,0,0,0.0069009,0.0024073,0.0027925,-0.099285,0.0040336,0.0043139,4.0126e-09,0.04,0.44,0
0.003151,2.7342e-05,0.0069971,0.002199,0.0027588,-1.3098e-05,0,0,0.055097,-0.0072774,0,-0.00034054,0,0,0,0.0069971,0.002199,0.0027588,-0.15641,0.003985,0.0045442,4.5736e-09,0.06,0.44,0
0.0042695,5.8366e-05,0.0070917,0.0020054,0.0027291,-2.7741e-05,0,0,0.056714,-0.0094086,0,-0.00072127,0,0,0,0.0070919,0.0020053,0.0027291,-0.31248,0.0039421,0.0047661,5.1308e-09,0.08,0.44,0
0.0054196,9.5236e-05,0.0071854,0.0018261,0.0027034,-5.0782e-05,0,0,0.058265,-0.011406,0,-0.0013203,0,0,0,0.0071858,0.0018256,0.0027034,-0.54284,0.0039049,0.0049797,5.6834e-09,0.1,0.44,0
0.0066001,0.00013567,0.0072783,0.0016611,0.0026818,-8.1492e-05,0,0,0.059755,-0.01327,0,-0.0021188,0,0,0,0.0072795,0.0016599,0.0026818,-0.83098,0.0038737,0.0051847,6.2312e-09,0.12,0.44,0
0.0078098,0.00017783,0.007371,0.0015107,0.0026645,-0.00011928,0,0,0.061184,-0.015,0,-0.0031012,0,0,0,0.0073734,0.0015083,0.0026645,-1.1655,0.0038487,0.005381,6.7735e-09,0.14,0.44,0
0.0090475,0.00022035,0.0074636,0.0013755,0.0026517,-0.0001636,0,0,0.062554,-0.016591,0,-0.0042537,0,0,0,0.007468,0.0013711,0.0026517,-1.5382,0.0038303,0.0055682,7.3101e-09,0.16,0.44,0
0.010312,0.00026238,0.0075565,0.0012563,0.0026438,-0.00021394,0,0,0.063865,-0.018038,0,-0.0055624,0,0,0,0.0075638,0.001249,0.0026438,-1.9426,0.0038189,0.0057458,7.8409e-09,0.18,0.44,0
0.011602,0.00030362,0.0076502,0.001154,0.0026413,-0.00026966,0,0,0.065116,-0.019334,0,-0.0070112,0,0,0,0.0076613,0.0011429,0.0026413,-2.373,0.0038152,0.0059134,8.3657e-09,0.2,0.44,0
0.012917,0.00034444,0.0077451,0.00107,0.0026445,-0.00032996,0,0,0.066308,-0.020469,0,-0.008579,0,0,0,0.0077614,0.0010537,0.0026445,-2.8231,0.0038199,0.0060706,8.8851e-09,0.22,0.44,0
0.014254,0.00038613,0.0078423,0.0010056,0.0026543,-0.0003937,0,0,0.067443,-0.021434,0,-0.010236,0,0,0,0.0078648,0.00098296,0.0026543,-3.285,0.003834,0.006217,9.4002e-09,0.24,0.44,0
0.015614,0.00043108,0.0079431,0.00096225,0.0026716,-0.00045917,0,0,0.068529,-0.022222,0,-0.011938,0,0,0,0.0079731,0.00093218,0.0026716,-3.7472,0.003859,0.0063524,9.9134e-09,0.26,0.44,0
0.016996,0.00048325,0.0080502,0.0009418,0.0026976,-0.00052385,0,0,0.069584,-0.022825,0,-0.01362,0,0,0,0.0080886,0.0009034,0.0026976,-4.1922,0.0038965,0.0064773,1.0431e-08,0.28,0.44,0
0.018398,0.00054871,0.0081685,0.00094601,0.0027344,-0.00058398,0,0,0.070644,-0.023249,0,-0.015184,0,0,0,0.0082154,0.00089909,0.0027344,-4.593,0.0039496,0.0065931,1.0965e-08,0.3,0.44,0
0.019821,0.0006365,0.0083068,0.00097677,0.0027851,-0.00063403,0,0,0.071783,-0.023508,0,-0.016485,0,0,0,0.0083613,0.00092234,0.0027851,-4.9074,0.0040229,0.0067045,1.1545e-08,0.32,0.44,0
0.021269,0.00076003,0.0084831,0.0010372,0.0028561,-0.00066608,0,0,0.073151,-0.023646,0,-0.017318,0,0,0,0.0085422,0.00097809,0.0028561,-5.0718,0.0041255,0.0068219,1.2235e-08,0.34,0.44,0
0.022747,0.00093911,0.0087353,0.0011346,0.002961,-0.0006653,0,0,0.075067,-0.023743,0,-0.017298,0,0,0,0.0087931,0.0010768,0.002961,-4.9649,0.004277,0.006968,1.3187e-08,0.36,0.44,0
0.024272,0.0012077,0.0091883,0.0013138,0.0031506,-0.00061114,0,0,0.078489,-0.023879,0,-0.01589,0,0,0,0.0092354,0.0012667,0.0031506,-4.4116,0.0045509,0.0072137,1.4937e-08,0.38,0.44,0
0.025887,0.0016175,0.01009,0.0016602,0.003525,-0.00026164,0,0,0.085343,-0.024242,0,-0.0068027,0,0,0,0.010098,0.0016521,0.003525,-1.7761,0.0050917,0.0076826,1.8705e-08,0.4,0.44,0
0.027685,0.0024828,0.014446,-0.00010138,0.0043033,-0.00085841,0,0,0.043119,-0.016057,0,-0.010672,0,0,0,0.014505,-0.00016103,0.0043033,-4.24,0.0062159,0.013026,1.1967e-07,0.42,0.44,0
0.02808,0.002757,0.0085338,0.00074422,0.0027834,0.00048308,0,0,0.016349,-0.0054708,0,0.0046971,0,0,0,0.0085716,0.00070644,0.0027834,5.5127,0.0040205,0.0070597,3.3656e-08,0.44,0.44,0
0.028272,0.002826,0.010799,0.00010611,0.0032715,9.2485e-05,0,0,0.0097856,-0.004115,0,0.00024046,0,0,0,0.0108,0.00010531,0.0032715,0.49552,0.0047255,0.0095149,2.8292e-08,0.46,0.44,0
0.028471,0.0028724,0.010493,-0.00028399,0.0030625,-0.00023267,0,0,0.0096589,-0.0043505,0,-0.00060494,0,0,0,0.010497,-0.00028901,0.0030625,-1.2363,0.0044237,0.0095619,2.7014e-08,0.48,0.44,0
0.028658,0.0029233,0.009916,-0.00059011,0.0027977,-8.3348e-05,0,0,0.0092537,-0.0044042,0,-0.00021671,0,0,0,0.0099166,-0.00059077,0.0027977,-0.45451,0.0040412,0.0092888,2.3463e-08,0.5,0.44,0
0.028841,0.0029779,0.0097349,-0.00031511,0.0028259,2.6577e-05,0,0,0.0089816,-0.0040834,0,6.9099e-05,0,0,0,0.0097349,-0.00031519,0.0028259,0.15151,0.0040819,0.0089052,2.1646e-08,0.52,0.44,0
0.029018,0.0030361,0.0095543,-1.9618e-06,0.0028657,8.0677e-05,0,0,0.0086952,-0.003728,0,0.00020976,0,0,0,0.009555,-2.6429e-06,0.0028657,0.48366,0.0041394,0.0084948,1.9809e-08,0.54,0.44,0
0.029189,0.003092,0.0094536,0.00023871,0.0029077,4.2568e-05,0,0,0.0085097,-0.0034697,0,0.00011068,0,0,0,0.0094538,0.00023851,0.0029077,0.26467,0.0042,0.0082127,1.8649e-08,0.56,0.44,0
0.029358,0.0031423,0.0093956,0.00032445,0.002916,-2.632e-05,0,0,0.0084235,-0.003369,0,-6.8432e-05,0,0,0,0.0093957,0.00032438,0.002916,-0.16624,0.004212,0.0080929,1.8109e-08,0.58,0.44,0
0.029526,0.0031854,0.0093874,0.00029112,0.0029035,-0.00010164,0,0,0.008429,-0.0033962,0,-0.00026426,0,0,0,0.0093885,0.00028998,0.0029035,-0.64009,0.004194,0.0081138,1.8145e-08,0.6,0.44,0
0.029695,0.0032214,0.0094274,0.00013725,0.0028694,-0.00017264,0,0,0.0085254,-0.0035518,0,-0.00044886,0,0,0,0.0094306,0.00013404,0.0028694,-1.0642,0.0041447,0.0082752,1.8746e-08,0.62,0.44,0
0.029867,0.0032519,0.0095069,-0.00017395,0.0027999,-0.00021088,0,0,0.0087191,-0.003866,0,-0.00054829,0,0,0,0.0095115,-0.00017854,0.0027999,-1.2473,0.0040443,0.0085969,1.992e-08,0.64,0.44,0
0.030044,0.0032807,0.0096573,-0.00056215,0.0027286,-0.00014833,0,0,0.0090074,-0.0042779,0,-0.00038565,0,0,0,0.0096594,-0.0005643,0.0027286,-0.83138,0.0039412,0.009039,2.1663e-08,0.66,0.44,0
0.030227,0.0033144,0.0098103,-0.00090487,0.0026716,-7.9527e-06,0,0,0.0092802,-0.0046494,0,-2.0677e-05,0,0,0,0.0098103,-0.00090487,0.0026716,-0.042524,0.003859,0.009449,2.3341e-08,0.68,0.44,0
0.030415,0.0033542,0.010363,-0.00068311,0.0029039,0.00019039,0,0,0.0096965,-0.0046631,0,0.00049502,0,0,0,0.010366,-0.00068639,0.0029039,0.98718,0.0041945,0.0097655,2.6956e-08,0.7,0.44,0
0.030615,0.0034003,0.010721,-0.00037169,0.0031048,-5.8279e-05,0,0,0.0099012,-0.0045195,0,-0.00015153,0,0,0,0.010721,-0.000372,0.0031048,-0.30101,0.0044848,0.0098276,2.8981e-08,0.72,0.44,0
0.030811,0.0034266,0.0085281,0.00030958,0.0026513,-0.00048852,0,0,0.016726,-0.0063005,0,-0.0049385,0,0,0,0.0085662,0.00027144,0.0026513,-5.461,0.0038297,0.0073979,3.5743e-08,0.74,0.44,0
0.031215,0.0032314,0.014401,-0.00099504,0.0040217,0.00074052,0,0,0.044061,-0.018765,0,0.0087026,0,0,0,0.014441,-0.0010351,0.0040217,3.3473,0.0058091,0.013672,1.2503e-07,0.76,0.44,0
0.033051,0.0023198,0.010108,0.001189,0.0033892,9.9716e-05,0,0,0.087348,-0.028602,0,0.0025926,0,0,0,0.010109,0.0011879,0.0033892,0.64045,0.0048955,0.0080498,2.019e-08,0.78,0.44,0
0.034709,0.0019054,0.0092281,0.00083058,0.0030176,0.00050067,0,0,0.080737,-0.028431,0,0.013017,0,0,0,0.0092579,0.00080083,0.0030176,3.4,0.0043588,0.0075953,1.6209e-08,0.8,0.44,0
0.03628,0.0016384,0.0088118,0.00063489,0.002834,0.00058493,0,0,0.077712,-0.028589,0,0.015208,0,0,0,0.0088535,0.00059326,0.002834,4.0709,0.0040936,0.0073989,1.4551e-08,0.82,0.44,0
0.037817,0.001477,0.0086114,0.0004703,0.0027245,0.00061962,0,0,0.076529,-0.029305,0,0.01611,0,0,0,0.0086583,0.00042341,0.0027245,4.3276,0.0039354,0.0073593,1.3926e-08,0.84,0.44,0
0.039342,0.0013865,0.008501,0.00030898,0.002643,0.00060204,0,0,0.076154,-0.030342,0,0.015653,0,0,0,0.008545,0.00026497,0.002643,4.1808,0.0038177,0.007384,1.3679e-08,0.86,0.44,0
0.040863,0.0013424,0.0084375,0.00017293,0.0025831,0.00054788,0,0,0.076107,-0.031333,0,0.014245,0,0,0,0.0084737,0.00013677,0.0025831,3.7763,0.0037312,0.0074225,1.3569e-08,0.88,0.44,0
0.042386,0.0013255,0.0083928,6.2961e-05,0.0025367,0.00047139,0,0,0.076129,-0.032159,0,0.012256,0,0,0,0.0084194,3.6369e-05,0.0025367,3.2287,0.0036642,0.0074543,1.3486e-08,0.9,0.44,0
0.043909,0.0013237,0.0083581,-2.268e-05,0.0025006,0.00038335,0,0,0.076147,-0.032803,0,0.0099672,0,0,0,0.0083756,-4.0179e-05,0.0025006,2.6135,0.003612,0.0074765,1.3406e-08,0.92,0.44,0
0.045432,0.0013287,0.008331,-8.6379e-05,0.0024734,0.00028978,0,0,0.076149,-0.033277,0,0.0075344,0,0,0,0.008341,-9.6344e-05,0.0024734,1.9694,0.0035727,0.0074907,1.3335e-08,0.94,0.44,0
0.046955,0.0013353,0.0083114,-0.00013027,0.0024544,0.00019385,0,0,0.076142,-0.0336,0,0.0050401,0,0,0,0.0083159,-0.00013472,0.0024544,1.3148,0.0035452,0.0074991,1.3278e-08,0.96,0.44,0
0.048477,0.0013405,0.0082995,-0.00015596,0.0024431,9.7048e-05,0,0,0.076134,-0.033787,0,0.0025232,0,0,0,0.0083006,-0.00015707,0.0024431,0.6575,0.0035289,0.0075035,1.3241e-08,0.98,0.44,0
0.05,0.0013424,0.0082955,-0.00016441,0.0024393,3.6465e-06,0,0,0.07613,-0.033849,0,9.481e-05,0,0,0,0.0082955,-0.00016442,0.0024393,0.024696,0.0035235,0.0075048,1.3229e-08,1,0.44,0
0,0,0.0067618,0.0028979,0.0028979,-0.00010733,0,0,0.05023,-5.421e-19,0,-0.0027907,0,0,0,0.0067647,0.0028949,0.0028979,-1.59,0.0041858,0.0038683,2.973e-09,0,0.46,0
0.0010046,-5.5813e-05,0.0067362,0.0026189,0.0028065,-0.00010963,0,0,0.051085,-0.0024389,0,-0.0028503,0,0,0,0.0067391,0.002616,0.0028065,-1.5241,0.0040539,0.0040312,3.3392e-09,0.02,0.46,0
0.0020434,-9.254e-05,0.0068287,0.0024067,0.0027706,-0.00010173,0,0,0.052756,-0.0047315,0,-0.002645,0,0,0,0.0068311,0.0024043,0.0027706,-1.3171,0.004002,0.0042555,3.8591e-09,0.04,0.46,0
0.0031148,-0.00011444,0.0069189,0.0022084,0.0027382,-0.00010505,0,0,0.054349,-0.0068875,0,-0.0027314,0,0,0,0.0069212,0.002206,0.0027382,-1.277,0.0039551,0.0044729,4.3776e-09,0.06,0.46,0
0.0042174,-0.000125,0.0070069,0.0020236,0.0027092,-0.00011816,0,0,0.055871,-0.0089123,0,-0.0030721,0,0,0,0.0070097,0.0020208,0.0027092,-1.3575,0.0039132,0.0046828,4.8922e-09,0.08,0.46,0
0.0053497,-0.00012708,0.0070932,0.0018523,0.0026836,-0.00013996,0,0,0.057324,-0.010808,0,-0.0036388,0,0,0,0.0070969,0.0018485,0.0026836,-1.5286,0.0038764,0.0048847,5.4008e-09,0.1,0.46,0
0.0065103,-0.00012296,0.0071777,0.0016946,0.0026617,-0.00016962,0,0,0.058708,-0.012573,0,-0.0044101,0,0,0,0.007183,0.0016893,0.0026617,-1.7702,0.0038447,0.0050778,5.9017e-09,0.12,0.46,0
0.007698,-0.00011442,0.0072607,0.0015509,0.0026435,-0.0002065,0,0,0.060024,-0.014203,0,-0.005369,0,0,0,0.0072681,0.0015435,0.0026435,-2.0686,0.0038184,0.0052616,6.393e-09,0.14,0.46,0
0.0089113,-0.00010274,0.007342,0.001422,0.0026292,-0.00025004,0,0,0.061266,-0.015694,0,-0.0065011,0,0,0,0.0073525,0.0014114,0.0026292,-2.4143,0.0037977,0.0054355,6.8728e-09,0.16,0.46,0
0.010149,-8.8649e-05,0.0074216,0.0013085,0.002619,-0.00029973,0,0,0.062434,-0.017037,0,-0.007793,0,0,0,0.0074363,0.0012938,0.002619,-2.8003,0.003783,0.0055988,7.3394e-09,0.18,0.46,0
0.011409,-7.2298e-05,0.0074996,0.0012113,0.0026133,-0.00035502,0,0,0.063522,-0.018226,0,-0.0092305,0,0,0,0.0075196,0.0011913,0.0026133,-3.2211,0.0037747,0.0057507,7.791e-09,0.2,0.46,0
0.01269,-5.3128e-05,0.007576,0.0011314,0.0026122,-0.00041524,0,0,0.064529,-0.019251,0,-0.010796,0,0,0,0.0076026,0.0011047,0.0026122,-3.6714,0.0037732,0.0058906,8.2258e-09,0.22,0.46,0
0.01399,-2.9708e-05,0.007651,0.0010698,0.0026163,-0.00047951,0,0,0.065452,-0.020103,0,-0.012467,0,0,0,0.0076857,0.0010351,0.0026163,-4.1454,0.003779,0.0060179,8.6426e-09,0.24,0.46,0
0.015308,4.9786e-07,0.0077252,0.0010276,0.0026258,-0.00054664,0,0,0.066291,-0.020777,0,-0.014212,0,0,0,0.0077695,0.00098328,0.0026258,-4.6354,0.0037929,0.0061322,9.0407e-09,0.26,0.46,0
0.016641,4.1486e-05,0.0077995,0.0010055,0.0026415,-0.00061499,0,0,0.067054,-0.021268,0,-0.01599,0,0,0,0.0078548,0.00095025,0.0026415,-5.1308,0.0038155,0.0062334,9.4209e-09,0.28,0.46,0
0.01799,9.9199e-05,0.0078758,0.0010038,0.0026639,-0.00068241,0,0,0.067755,-0.021581,0,-0.017743,0,0,0,0.0079429,0.00093668,0.0026639,-5.6166,0.0038478,0.0063221,9.7862e-09,0.3,0.46,0
0.019352,0.00018227,0.0079565,0.0010222,0.0026936,-0.00074612,0,0,0.068417,-0.021729,0,-0.019399,0,0,0,0.0080358,0.00094277,0.0026936,-6.0723,0.0038907,0.0063999,1.0143e-08,0.32,0.46,0
0.020726,0.00030315,0.0080431,0.0010581,0.0027304,-0.00080234,0,0,0.069066,-0.021739,0,-0.020861,0,0,0,0.0081341,0.00096715,0.0027304,-6.4691,0.0039439,0.0064682,1.0495e-08,0.34,0.46,0
0.022114,0.00048058,0.0081322,0.0011064,0.0027716,-0.00084598,0,0,0.069688,-0.021648,0,-0.021995,0,0,0,0.0082326,0.0010059,0.0027716,-6.7701,0.0040034,0.0065255,1.0827e-08,0.36,0.46,0
0.023514,0.00074369,0.0081499,0.0011239,0.0027821,-0.0008559,0,0,0.069781,-0.021557,0,-0.022253,0,0,0,0.0082527,0.0010211,0.0027821,-6.8463,0.0040186,0.0065316,1.0881e-08,0.38,0.46,0
0.024906,0.001156,0.0080867,0.0011177,0.0027613,-0.00074136,0,0,0.06923,-0.021367,0,-0.019275,0,0,0,0.0081647,0.0010397,0.0027613,-6.0056,0.0039886,0.0064392,1.0479e-08,0.4,0.46,0
0.026283,0.0018856,0.0085871,0.0004661,0.002716,-0.00088886,0,0,0.076325,-0.029248,0,-0.02311,0,0,0,0.0086833,0.00036995,0.002716,-6.1737,0.0039231,0.0074237,1.4156e-08,0.42,0.46,0
0.027959,0.0026317,0.01148,0.00021064,0.0035071,-0.00049873,0,0,0.037692,-0.014656,0,-0.010791,0,0,0,0.011531,0.00015926,0.0035071,-3.8649,0.0050658,0.010122,5.1076e-08,0.44,0.46,0
0.028252,0.0027432,0.0064898,-9.9722e-05,0.001917,0.00012933,0,0,0.01254,-0.005202,0,0.00022399,0,0,0,0.006493,-0.00010285,0.001917,0.48616,0.002769,0.0058537,1.7043e-08,0.46,0.46,0
0.028418,0.0027869,0.0094831,-0.00062647,0.002657,0.00015272,0,0,0.0088739,-0.0042685,0,0.00039707,0,0,0,0.0094854,-0.00062878,0.002657,0.86528,0.0038379,0.0089364,2.0654e-08,0.48,0.46,0
0.028607,0.0028323,0.0098622,-0.00069218,0.002751,2.3871e-05,0,0,0.0092446,-0.0044762,0,6.2063e-05,0,0,0,0.0098623,-0.00069224,0.002751,0.12958,0.0039737,0.0093227,2.3293e-08,0.5,0.46,0
0.028788,0.0028952,0.0096489,-0.0004418,0.0027621,0.00018613,0,0,0.0089528,-0.0041651,0,0.00048395,0,0,0,0.0096523,-0.00044524,0.0027621,1.0564,0.0039897,0.0089365,2.1376e-08,0.52,0.46,0
0.028965,0.0029612,0.0096588,9.7886e-05,0.002927,0.00013683,0,0,0.0087514,-0.0036779,0,0.00035576,0,0,0,0.0096608,9.5928e-05,0.002927,0.81975,0.0042279,0.0085101,2.0248e-08,0.54,0.46,0
0.029138,0.0030227,0.0096104,0.00030085,0.0029734,4.1986e-05,0,0,0.0086281,-0.0034743,0,0.00010916,0,0,0,0.0096106,0.00030066,0.0029734,0.2584,0.0042949,0.0083027,1.9455e-08,0.56,0.46,0
0.02931,0.0030749,0.0096181,0.00035227,0.0029911,-2.8975e-05,0,0,0.0086151,-0.0034305,0,-7.5335e-05,0,0,0,0.0096182,0.00035218,0.0029911,-0.17917,0.0043205,0.0082686,1.9377e-08,0.58,0.46,0
0.029482,0.0031174,0.009605,0.00032016,0.0029775,-7.8781e-05,0,0,0.0086157,-0.0034546,0,-0.00020483,0,0,0,0.0096057,0.0003195,0.0029775,-0.4861,0.0043009,0.0082834,1.9379e-08,0.6,0.46,0
0.029654,0.0031505,0.0095724,0.00020335,0.0029327,-0.00015055,0,0,0.0086316,-0.0035482,0,-0.00039143,0,0,0,0.0095749,0.00020093,0.0029327,-0.92036,0.0042362,0.0083502,1.947e-08,0.62,0.46,0
0.029827,0.0031743,0.0095951,-7.4719e-05,0.0028561,-0.0002442,0,0,0.0087607,-0.0038101,0,-0.00063491,0,0,0,0.0096012,-8.0882e-05,0.0028561,-1.4457,0.0041255,0.0085984,2.0272e-08,0.64,0.46,0
0.030005,0.0031941,0.0095647,-0.00069878,0.0026598,-0.00027924,0,0,0.0089764,-0.0043661,0,-0.00072601,0,0,0,0.0095722,-0.00070637,0.0026598,-1.5573,0.0038419,0.0090764,2.1362e-08,0.66,0.46,0
0.030187,0.0032183,0.009747,-0.0010573,0.0026069,-9.0254e-05,0,0,0.0092821,-0.0047635,0,-0.00023466,0,0,0,0.0097477,-0.0010581,0.0026069,-0.47857,0.0037655,0.0095181,2.3181e-08,0.68,0.46,0
0.030376,0.0032614,0.0093827,-0.0010554,0.0024982,-0.00016323,0,0,0.0089499,-0.0046197,0,-0.00042439,0,0,0,0.0093853,-0.0010579,0.0024982,-0.89567,0.0036085,0.0091962,2.0753e-08,0.7,0.46,0
0.030544,0.0033094,0.0064402,-0.00046589,0.0017923,-0.0001369,0,0,0.012763,-0.0058841,0,-0.00031098,0,0,0,0.0064433,-0.00046907,0.0017923,-0.58709,0.0025889,0.0061046,1.752e-08,0.72,0.46,0
0.030843,0.0032819,0.011366,-0.00057978,0.003236,0.00039624,0,0,0.038485,-0.017042,0,0.0092593,0,0,0,0.011402,-0.00061582,0.003236,3.0561,0.0046742,0.01063,5.2855e-08,0.74,0.46,0
0.032555,0.0025184,0.0085565,-0.00011551,0.0025323,0.00073859,0,0,0.078314,-0.034422,0,0.019203,0,0,0,0.0086189,-0.00017797,0.0025323,4.8335,0.0036577,0.0078032,1.485e-08,0.76,0.46,0
0.033976,0.001774,0.0081101,0.00064076,0.0026253,0.00059326,0,0,0.071303,-0.025799,0,0.015425,0,0,0,0.008157,0.00059393,0.0026253,4.513,0.0037921,0.0067796,1.1293e-08,0.78,0.46,0
0.035407,0.0013468,0.0081731,0.00061432,0.0026362,0.0007161,0,0,0.071979,-0.026285,0,0.018618,0,0,0,0.0082403,0.00054707,0.0026362,5.3645,0.0038079,0.0068904,1.1741e-08,0.8,0.46,0
0.036855,0.0010789,0.008195,0.00057115,0.0026298,0.00072325,0,0,0.072347,-0.026763,0,0.018804,0,0,0,0.008263,0.00050315,0.0026298,5.3716,0.0037987,0.0069452,1.1923e-08,0.82,0.46,0
0.038301,0.00090506,0.0081498,0.00046912,0.0025857,0.00069415,0,0,0.072333,-0.027515,0,0.018048,0,0,0,0.008212,0.00040689,0.0025857,5.1229,0.0037349,0.0069758,1.1872e-08,0.84,0.46,0
0.039748,0.00079723,0.0081167,0.000355,0.0025415,0.00064564,0,0,0.072477,-0.028425,0,0.016787,0,0,0,0.00817,0.00030166,0.0025415,4.7228,0.0036711,0.0070217,1.1872e-08,0.86,0.46,0
0.0412,0.00073451,0.0080968,0.00024429,0.0025023,0.00057756,0,0,0.072728,-0.029354,0,0.015017,0,0,0,0.0081391,0.00020203,0.0025023,4.1842,0.0036145,0.0070732,1.1906e-08,0.88,0.46,0
0.042657,0.00070134,0.0080853,0.00014803,0.00247,0.00049471,0,0,0.072999,-0.030186,0,0.012863,0,0,0,0.008116,0.00011731,0.00247,3.5528,0.0035678,0.0071201,1.1945e-08,0.9,0.46,0
0.04412,0.00068625,0.0080771,6.9459e-05,0.002444,0.00040233,0,0,0.073231,-0.030869,0,0.010461,0,0,0,0.0080972,4.9295e-05,0.002444,2.8691,0.0035302,0.0071576,1.1973e-08,0.92,0.46,0
0.045587,0.00068126,0.0080705,9.1865e-06,0.0024239,0.00030456,0,0,0.073406,-0.031392,0,0.0079186,0,0,0,0.008082,-2.3037e-06,0.0024239,2.1606,0.0035012,0.0071853,1.1988e-08,0.94,0.46,0
0.047056,0.00068101,0.0080655,-3.3198e-05,0.0024097,0.00020404,0,0,0.073526,-0.031758,0,0.0053051,0,0,0,0.0080706,-3.8335e-05,0.0024097,1.4423,0.0034807,0.007204,1.1994e-08,0.96,0.46,0
0.048528,0.00068211,0.0080623,-5.8313e-05,0.0024012,0.00010226,0,0,0.073594,-0.031973,0,0.0026586,0,0,0,0.0080635,-5.96e-05,0.0024012,0.72132,0.0034684,0.0072147,1.1996e-08,0.98,0.46,0
0.05,0.00068267,0.0080611,-6.6627e-05,0.0023984,1.0864e-06,0,0,0.073616,-0.032045,0,2.8246e-05,0,0,0,0.0080611,-6.6627e-05,0.0023984,0.0076583,0.0034643,0.0072182,1.1996e-08,1,0.46,0
0,0,0.0066849,0.002865,0.002865,-0.0001982,0,0,0.04966,0,0,-0.0051531,0,0,0,0.0066952,0.0028547,0.002865,-2.9621,0.0041383,0.0038354,2.8976e-09,0,0.48,0
0.00099319,-0.00010306,0.006661,0.0026039,0.0027795,-0.0002002,0,0,0.05046,-0.0022828,0,-0.0052053,0,0,0,0.0066709,0.002594,0.0027795,-2.8182,0.0040148,0.0039874,3.2323e-09,0.02,0.48,0
0.0020184,-0.00018432,0.0067473,0.0024037,0.0027453,-0.00018968,0,0,0.052026,-0.0044411,0,-0.0049317,0,0,0,0.0067556,0.0023954,0.0027453,-2.4957,0.0039654,0.0041962,3.7059e-09,0.04,0.48,0
0.0030742,-0.00024816,0.006831,0.0022157,0.002714,-0.00019068,0,0,0.05352,-0.0064777,0,-0.0049576,0,0,0,0.0068388,0.0022078,0.002714,-2.3618,0.0039202,0.0043998,4.1799e-09,0.06,0.48,0
0.0041592,-0.00029813,0.0069121,0.00204,0.0026856,-0.0002016,0,0,0.054944,-0.0083929,0,-0.0052416,0,0,0,0.0069204,0.0020317,0.0026856,-2.3654,0.0038792,0.0045968,4.65e-09,0.08,0.48,0
0.005272,-0.00033707,0.0069905,0.0018768,0.0026602,-0.00022124,0,0,0.056295,-0.010185,0,-0.0057521,0,0,0,0.0070001,0.0018672,0.0026602,-2.4726,0.0038425,0.0047859,5.113e-09,0.1,0.48,0
0.006411,-0.00036724,0.0070663,0.0017264,0.0026378,-0.00024866,0,0,0.05757,-0.011848,0,-0.0064652,0,0,0,0.0070778,0.0017149,0.0026378,-2.6604,0.0038102,0.0049662,5.5655e-09,0.12,0.48,0
0.0075748,-0.0003903,0.0071389,0.0015895,0.0026185,-0.00028315,0,0,0.058765,-0.013377,0,-0.0073619,0,0,0,0.0071534,0.0015751,0.0026185,-2.9133,0.0037823,0.0051366,6.004e-09,0.14,0.48,0
0.0087616,-0.00040739,0.0072082,0.0014667,0.0026025,-0.00032409,0,0,0.059875,-0.014765,0,-0.0084265,0,0,0,0.0072265,0.0014485,0.0026025,-3.2206,0.0037591,0.0052962,6.4254e-09,0.16,0.48,0
0.0099698,-0.00041911,0.0072738,0.0013588,0.0025898,-0.00037095,0,0,0.060892,-0.016002,0,-0.0096447,0,0,0,0.0072969,0.0013356,0.0025898,-3.5746,0.0037408,0.0054437,6.8259e-09,0.18,0.48,0
0.011197,-0.00042542,0.007335,0.0012666,0.0025805,-0.00042315,0,0,0.061809,-0.01708,0,-0.011002,0,0,0,0.0073644,0.0012373,0.0025805,-3.9696,0.0037274,0.0055782,7.2019e-09,0.2,0.48,0
0.012442,-0.00042558,0.0073915,0.001191,0.0025748,-0.00048005,0,0,0.062618,-0.017989,0,-0.012481,0,0,0,0.0074285,0.001154,0.0025748,-4.4009,0.0037191,0.0056985,7.5494e-09,0.22,0.48,0
0.013702,-0.000418,0.0074427,0.0011326,0.0025726,-0.00054084,0,0,0.063311,-0.01872,0,-0.014062,0,0,0,0.0074887,0.0010865,0.0025726,-4.8636,0.0037159,0.0058036,7.8642e-09,0.24,0.48,0
0.014975,-0.00039999,0.0074877,0.001092,0.0025739,-0.00060444,0,0,0.06388,-0.019265,0,-0.015715,0,0,0,0.0075444,0.0010354,0.0025739,-5.3517,0.0037179,0.0058923,8.1416e-09,0.26,0.48,0
0.016257,-0.00036748,0.0075258,0.0010694,0.0025786,-0.0006694,0,0,0.064314,-0.019619,0,-0.017404,0,0,0,0.0075945,0.0010007,0.0025786,-5.8574,0.0037246,0.0059635,8.3761e-09,0.28,0.48,0
0.017547,-0.00031453,0.0075332,0.0010216,0.0025664,-0.00073893,0,0,0.064568,-0.020083,0,-0.019212,0,0,0,0.007616,0.00093879,0.0025664,-6.3936,0.0037071,0.0060305,8.5581e-09,0.3,0.48,0
0.018841,-0.00023265,0.0075551,0.0010305,0.0025757,-0.00077768,0,0,0.064732,-0.020087,0,-0.02022,0,0,0,0.0076465,0.0009391,0.0025757,-6.7042,0.0037204,0.0060572,8.6671e-09,0.32,0.48,0
0.020136,-0.00010954,0.007573,0.0010959,0.0026007,-0.00084559,0,0,0.06464,-0.019562,0,-0.021985,0,0,0,0.0076816,0.00098735,0.0026007,-7.3167,0.0037565,0.0060511,8.7109e-09,0.34,0.48,0
0.021427,7.3207e-05,0.0075384,0.0011164,0.0025965,-0.00087531,0,0,0.064246,-0.019241,0,-0.022758,0,0,0,0.0076556,0.00099922,0.0025965,-7.6241,0.0037504,0.0060189,8.5964e-09,0.36,0.48,0
0.022706,0.00034544,0.0074799,0.0011264,0.0025819,-0.00084832,0,0,0.063674,-0.018921,0,-0.022056,0,0,0,0.0075912,0.0010151,0.0025819,-7.4757,0.0037294,0.0059495,8.3399e-09,0.38,0.48,0
0.023974,0.0007628,0.0075391,0.0010578,0.0025791,-0.00077443,0,0,0.064481,-0.019777,0,-0.020135,0,0,0,0.0076304,0.0009665,0.0025791,-6.72,0.0037253,0.0060218,8.5622e-09,0.4,0.48,0
0.025285,0.0013129,0.0072978,0.00029459,0.0022777,-0.00068634,0,0,0.065262,-0.025781,0,-0.017845,0,0,0,0.0073645,0.00022796,0.0022777,-5.5448,0.0032901,0.0063642,8.7572e-09,0.42,0.48,0
0.026584,0.002003,0.0078088,-4.7365e-05,0.0023284,-0.0010265,0,0,0.071245,-0.030885,0,-0.026688,0,0,0,0.0079407,-0.00017926,0.0023284,-7.3223,0.0033633,0.0072014,1.1635e-08,0.44,0.48,0
0.028135,0.0026285,0.010318,3.6392e-05,0.0031063,-0.00088787,0,0,0.034607,-0.014106,0,-0.013331,0,0,0,0.010413,-5.9202e-05,0.0031063,-5.9674,0.0044869,0.0093031,3.7517e-08,0.46,0.48,0
0.028398,0.0027017,0.0057244,-0.00054692,0.0015533,-0.00015932,0,0,0.011337,-0.0054516,0,-0.00206,0,0,0,0.0057325,-0.00055499,0.0015533,-3.158,0.0022436,0.0055429,1.2623e-08,0.48,0.48,0
0.028552,0.0027442,0.008537,-0.0014767,0.0021181,2.6284e-05,0,0,0.0083446,-0.0046733,0,6.8338e-05,0,0,0,0.0085371,-0.0014768,0.0021181,0.15039,0.0030595,0.0087865,1.6219e-08,0.5,0.48,0
0.028732,0.0028112,0.0095708,-0.00021845,0.0028057,3.9879e-05,0,0,0.0087946,-0.0039314,0,0.00010368,0,0,0,0.009571,-0.00021861,0.0028057,0.2334,0.0040527,0.0086819,2.0379e-08,0.52,0.48,0
0.028904,0.002889,0.0096452,0.00019534,0.0029522,-4.2899e-05,0,0,0.0087009,-0.0035839,0,-0.00011154,0,0,0,0.0096454,0.00019514,0.0029522,-0.2601,0.0042642,0.0084175,1.992e-08,0.54,0.48,0
0.02908,0.0029531,0.0098915,0.00026235,0.0030462,-0.00011643,0,0,0.0088989,-0.0036189,0,-0.00030272,0,0,0,0.0098929,0.00026094,0.0030462,-0.69266,0.0044,0.0085851,2.1342e-08,0.56,0.48,0
0.02926,0.0030051,0.010083,0.00029529,0.0031134,-7.8374e-05,0,0,0.0090601,-0.0036635,0,-0.00020377,0,0,0,0.010083,0.00029467,0.0031134,-0.45876,0.0044972,0.0087277,2.2524e-08,0.58,0.48,0
0.029442,0.0030473,0.010068,0.00026344,0.0030995,-3.1527e-06,0,0,0.0090594,-0.0036869,0,-8.197e-06,0,0,0,0.010068,0.00026343,0.0030995,-0.018423,0.0044771,0.008739,2.2502e-08,0.6,0.48,0
0.029623,0.0030794,0.009847,0.00016435,0.0030034,3.444e-05,0,0,0.0088967,-0.0036908,0,8.9543e-05,0,0,0,0.0098472,0.00016422,0.0030034,0.20379,0.0043383,0.0086214,2.1282e-08,0.62,0.48,0
0.029798,0.0030995,0.0095794,2.6882e-05,0.0028819,-3.7668e-05,0,0,0.0087068,-0.0037115,0,-9.7936e-05,0,0,0,0.0095796,2.6734e-05,0.0028819,-0.22592,0.0041627,0.0084932,1.9897e-08,0.64,0.48,0
0.029971,0.0031061,0.0094739,-0.0005013,0.0026918,-0.0001152,0,0,0.0088167,-0.004151,0,-0.00029951,0,0,0,0.0094752,-0.00050263,0.0026918,-0.66155,0.0038881,0.0088254,2.0349e-08,0.66,0.48,0
0.030151,0.0031239,0.0084378,-0.0018582,0.0019739,-6.023e-05,0,0,0.0084031,-0.0049817,0,-0.0001566,0,0,0,0.0084382,-0.0018585,0.0019739,-0.33516,0.0028512,0.0090138,1.6006e-08,0.68,0.48,0
0.030307,0.0031694,0.0056709,-0.00086361,0.0014422,0.00014275,0,0,0.011506,-0.0060394,0,0.0019614,0,0,0,0.0056778,-0.0008705,0.0014422,2.863,0.0020831,0.005752,1.2729e-08,0.7,0.48,0
0.030574,0.0031783,0.010195,-0.00064875,0.002864,0.00079375,0,0,0.035218,-0.016181,0,0.011985,0,0,0,0.010269,-0.00072199,0.002864,5.1029,0.0041369,0.0097081,3.829e-08,0.72,0.48,0
0.032153,0.0025488,0.0077636,-0.00058316,0.0021541,0.00089638,0,0,0.072923,-0.035585,0,0.023306,0,0,0,0.0078588,-0.00067834,0.0021541,6.0611,0.0031115,0.0075315,1.1943e-08,0.74,0.48,0
0.033491,0.0018545,0.0072923,-0.00020556,0.002126,0.00054011,0,0,0.067162,-0.030311,0,0.014043,0,0,0,0.007331,-0.00024426,0.002126,4.0991,0.0030709,0.0067118,9.2529e-09,0.76,0.48,0
0.03484,0.0012878,0.0075385,0.00055296,0.0024274,0.00060974,0,0,0.066444,-0.024368,0,0.015853,0,0,0,0.0075914,0.00050014,0.0024274,4.9512,0.0035063,0.0063508,9.1862e-09,0.78,0.48,0
0.036149,0.00085397,0.0075014,0.00061305,0.0024343,0.00068565,0,0,0.065871,-0.023676,0,0.017827,0,0,0,0.0075689,0.00054546,0.0024343,5.6295,0.0035162,0.0062953,9.0317e-09,0.8,0.48,0
0.037474,0.00056786,0.0075844,0.00056743,0.0024455,0.00071671,0,0,0.066805,-0.024416,0,0.018634,0,0,0,0.0076569,0.00049497,0.0024455,5.7727,0.0035325,0.0064131,9.4413e-09,0.82,0.48,0
0.038821,0.00037636,0.0076561,0.00049723,0.002446,0.00069105,0,0,0.067731,-0.025334,0,0.017967,0,0,0,0.0077222,0.00043113,0.002446,5.4636,0.0035331,0.0065214,9.7946e-09,0.84,0.48,0
0.040184,0.00024955,0.0077002,0.0004084,0.0024326,0.0006389,0,0,0.068479,-0.026314,0,0.016611,0,0,0,0.0077557,0.00035284,0.0024326,4.9698,0.0035137,0.006613,1.0051e-08,0.86,0.48,0
0.04156,0.00016818,0.0077323,0.00031741,0.0024149,0.00056992,0,0,0.069126,-0.027267,0,0.014818,0,0,0,0.0077758,0.00027386,0.0024149,4.3697,0.0034882,0.0066934,1.0256e-08,0.88,0.48,0
0.042949,0.00011813,0.007757,0.00023356,0.0023972,0.00048846,0,0,0.069678,-0.028127,0,0.0127,0,0,0,0.0077886,0.00020198,0.0023972,3.6992,0.0034626,0.0067618,1.042e-08,0.9,0.48,0
0.044347,8.8945e-05,0.0077759,0.00016235,0.0023815,0.00039823,0,0,0.070128,-0.028849,0,0.010354,0,0,0,0.0077967,0.00014158,0.0023815,2.986,0.0034399,0.006817,1.0546e-08,0.92,0.48,0
0.045754,7.3018e-05,0.0077638,5.8564e-05,0.0023467,0.00029842,0,0,0.070422,-0.029746,0,0.0077588,0,0,0,0.0077754,4.7024e-05,0.0023467,2.2146,0.0033897,0.0068734,1.0602e-08,0.94,0.48,0
0.047166,6.5039e-05,0.0077838,2.3576e-05,0.0023422,0.00020347,0,0,0.070741,-0.030142,0,0.0052903,0,0,0,0.0077892,1.8245e-05,0.0023422,1.5009,0.0033832,0.0069086,1.0701e-08,0.96,0.48,0
0.048582,6.1546e-05,0.0078036,4.1802e-05,0.0023536,0.0001019,0,0,0.07085,-0.030054,0,0.0026495,0,0,0,0.0078049,4.0464e-05,0.0023536,0.75206,0.0033997,0.0069049,1.0733e-08,0.98,0.48,0
0.05,6.0591e-05,0.0078052,3.3768e-05,0.0023517,-1.8366e-06,0,0,0.070896,-0.030133,0,-4.7753e-05,0,0,0,0.0078052,3.3767e-05,0.0023517,-0.013541,0.0033969,0.0069105,1.0744e-08,1,0.48,0
0,0,0.0066009,0.002829,0.002829,-0.00028294,0,0,0.049036,-2.1684e-19,0,-0.0073563,0,0,0,0.006622,0.0028079,0.002829,-4.2659,0.0040863,0.0038037,2.8261e-09,0,0.5,0
0.00098071,-0.00014713,0.0065788,0.0025862,0.0027495,-0.00028453,0,0,0.049781,-0.0021232,0,-0.0073979,0,0,0,0.006599,0.002566,0.0027495,-4.0559,0.0039715,0.0039444,3.129e-09,0.02,0.5,0
0.0019912,-0.00027018,0.0066586,0.0023982,0.002717,-0.00027143,0,0,0.051241,-0.0041451,0,-0.0070572,0,0,0,0.0066758,0.002381,0.002717,-3.6307,0.0039246,0.0041371,3.5559e-09,0.04,0.5,0
0.0030303,-0.00037355,0.0067357,0.0022206,0.0026869,-0.00026977,0,0,0.052635,-0.0060617,0,-0.007014,0,0,0,0.0067518,0.0022046,0.0026869,-3.4072,0.0038811,0.0043263,3.985e-09,0.06,0.5,0
0.0040966,-0.00046072,0.0068098,0.0020539,0.0026591,-0.00027786,0,0,0.053959,-0.0078677,0,-0.0072244,0,0,0,0.006826,0.0020377,0.0026591,-3.3324,0.0038409,0.0045098,4.4107e-09,0.08,0.5,0
0.0051887,-0.00053446,0.0068473,0.0018729,0.0026161,-0.00029693,0,0,0.055006,-0.0096609,0,-0.0077201,0,0,0,0.006865,0.0018553,0.0026161,-3.4039,0.0037788,0.004676,4.7857e-09,0.1,0.5,0
0.006305,-0.00059688,0.0069656,0.0017499,0.0026147,-0.00031397,0,0,0.056562,-0.011241,0,-0.0081633,0,0,0,0.0069844,0.0017311,0.0026147,-3.4326,0.0037767,0.004872,5.2871e-09,0.12,0.5,0
0.0074437,-0.00064952,0.0070097,0.0016248,0.0025903,-0.00034893,0,0,0.057452,-0.012553,0,-0.0090721,0,0,0,0.0070323,0.0016022,0.0025903,-3.692,0.0037416,0.0050096,5.6195e-09,0.14,0.5,0
0.008603,-0.00069334,0.0070671,0.0015077,0.0025724,-0.00038543,0,0,0.05843,-0.013841,0,-0.010021,0,0,0,0.0070937,0.0014812,0.0025724,-3.9471,0.0037158,0.0051543,5.9838e-09,0.16,0.5,0
0.0097809,-0.00072875,0.0071186,0.001405,0.0025571,-0.00042722,0,0,0.0593,-0.014977,0,-0.011108,0,0,0,0.0071504,0.0013732,0.0025571,-4.2526,0.0036936,0.0052856,6.3204e-09,0.18,0.5,0
0.010975,-0.00075552,0.0071634,0.0013173,0.0025442,-0.00047365,0,0,0.060049,-0.01595,0,-0.012315,0,0,0,0.0072016,0.0012792,0.0025442,-4.6021,0.003675,0.0054021,6.6242e-09,0.2,0.5,0
0.012183,-0.0007727,0.0072005,0.0012454,0.0025338,-0.00052395,0,0,0.060667,-0.016749,0,-0.013623,0,0,0,0.0072462,0.0011996,0.0025338,-4.99,0.0036599,0.0055022,6.8893e-09,0.22,0.5,0
0.013402,-0.00077851,0.0072285,0.0011896,0.0025254,-0.00057717,0,0,0.06114,-0.017365,0,-0.015006,0,0,0,0.0072832,0.001135,0.0025254,-5.4108,0.0036479,0.0055844,7.1094e-09,0.24,0.5,0
0.014628,-0.0007701,0.0072459,0.0011503,0.0025189,-0.00063202,0,0,0.061452,-0.017791,0,-0.016432,0,0,0,0.0073108,0.0010854,0.0025189,-5.8576,0.0036384,0.0056468,7.2773e-09,0.26,0.5,0
0.01586,-0.00074327,0.0072506,0.0011269,0.0025133,-0.00068668,0,0,0.061586,-0.018023,0,-0.017854,0,0,0,0.0073267,0.0010508,0.0025133,-6.3202,0.0036303,0.0056874,7.3844e-09,0.28,0.5,0
0.017092,-0.00069206,0.0072592,0.0011564,0.0025247,-0.00074659,0,0,0.061549,-0.017788,0,-0.019411,0,0,0,0.0073492,0.0010663,0.0025247,-6.8742,0.0036467,0.0056955,7.4329e-09,0.3,0.5,0
0.018321,-0.00060804,0.0072165,0.0011551,0.0025115,-0.00076383,0,0,0.061165,-0.017633,0,-0.01986,0,0,0,0.0073113,0.0010603,0.0025115,-7.0729,0.0036277,0.0056665,7.3192e-09,0.32,0.5,0
0.019541,-0.00047932,0.0071547,0.0011282,0.0024849,-0.0008124,0,0,0.060708,-0.017637,0,-0.021122,0,0,0,0.0072623,0.0010206,0.0024849,-7.5443,0.0035893,0.0056536,7.2247e-09,0.34,0.5,0
0.020749,-0.00028905,0.0070794,0.0011281,0.0024623,-0.00081357,0,0,0.060023,-0.017344,0,-0.021153,0,0,0,0.0071887,0.0010189,0.0024623,-7.6456,0.0035566,0.0055896,6.9937e-09,0.36,0.5,0
0.021942,-1.3165e-05,0.0070152,0.0010888,0.0024312,-0.00077805,0,0,0.059592,-0.017452,0,-0.020229,0,0,0,0.0071156,0.00098832,0.0024312,-7.356,0.0035117,0.0055484,6.8133e-09,0.38,0.5,0
0.023133,0.00036493,0.0069313,0.00087112,0.0023407,-0.00071566,0,0,0.059678,-0.019105,0,-0.018607,0,0,0,0.0070147,0.00078775,0.0023407,-6.6444,0.0033811,0.0056139,6.7971e-09,0.4,0.5,0
0.024329,0.00085441,0.0069394,0.00053335,0.0022418,-0.00073878,0,0,0.061068,-0.02221,0,-0.019208,0,0,0,0.0070235,0.00044925,0.0022418,-6.4941,0.0032382,0.0058863,7.2931e-09,0.42,0.5,0
0.025575,0.0013962,0.0067312,-0.00010873,0.0019867,-0.00078505,0,0,0.061678,-0.027241,0,-0.020411,0,0,0,0.0068201,-0.00019768,0.0019867,-6.4641,0.0028697,0.0062202,7.4187e-09,0.44,0.5,0
0.026796,0.0020115,0.0069832,-0.00036075,0.0019867,-0.0012248,0,0,0.064954,-0.030517,0,-0.031844,0,0,0,0.0071821,-0.00055963,0.0019867,-9.2229,0.0028697,0.0068341,9.0542e-09,0.46,0.5,0
0.028252,0.0025808,0.0089453,-0.0004942,0.0025353,-0.0012144,0,0,0.027496,-0.01217,0,-0.013181,0,0,0,0.0091072,-0.0006561,0.0025353,-8.1461,0.0036621,0.0086229,3.0826e-08,0.48,0.5,0
0.0285,0.0026453,0.0058287,-0.00066019,0.0015506,4.4412e-05,0,0,0.011145,-0.0064922,0,-0.0046781,0,0,0,0.0058898,-0.00072123,0.0015506,-5.6303,0.0022397,0.00582,1.4239e-08,0.5,0.5,0
0.028647,0.0027379,0.0088427,-0.00031126,0.0025594,-0.00057917,0,0,0.0081683,-0.0037319,0,-0.0015058,0,0,0,0.0088792,-0.00034776,0.0025594,-3.6059,0.003697,0.0081709,1.6532e-08,0.52,0.5,0
0.028818,0.0028178,0.0097712,-1.7299e-05,0.0029262,-0.00044472,0,0,0.0088985,-0.0038265,0,-0.0011563,0,0,0,0.0097913,-3.7463e-05,0.0029262,-2.596,0.0042267,0.0087327,2.1397e-08,0.54,0.5,0
0.029009,0.002878,0.010876,0.00028274,0.0033476,-0.00040494,0,0,0.0097868,-0.0039843,0,-0.0010528,0,0,0,0.010891,0.00026729,0.0033476,-2.186,0.0048354,0.0094675,2.8538e-08,0.56,0.5,0
0.029208,0.0029283,0.011034,0.00026324,0.0033893,-0.00012005,0,0,0.0099387,-0.0040639,0,-0.00031213,0,0,0,0.011036,0.0002619,0.0033893,-0.63847,0.0048957,0.0096002,2.9717e-08,0.58,0.5,0
0.029408,0.00297,0.011025,0.00023217,0.0033772,5.565e-05,0,0,0.0099422,-0.0040885,0,0.00014469,0,0,0,0.011025,0.00023188,0.0033772,0.29542,0.0048781,0.0096147,2.9724e-08,0.6,0.5,0
0.029606,0.0030029,0.010841,0.00018468,0.0033077,0.00034279,0,0,0.0097933,-0.0040599,0,0.00089126,0,0,0,0.010852,0.00017367,0.0033077,1.8406,0.0047778,0.009507,2.8507e-08,0.62,0.5,0
0.029797,0.0030258,0.0097035,-0.00019136,0.0028537,0.00037585,0,0,0.0089048,-0.0039585,0,0.00097721,0,0,0,0.0097178,-0.00020561,0.0028537,2.1722,0.0041219,0.008802,2.1295e-08,0.64,0.5,0
0.029968,0.0030281,0.0084745,-0.0007391,0.0023206,0.00078156,0,0,0.0080001,-0.0039776,0,0.0020321,0,0,0,0.0085404,-0.00080493,0.0023206,4.8144,0.003352,0.0082398,1.5423e-08,0.66,0.5,0
0.030117,0.003019,0.004901,-0.0019003,0.0009002,0.00061349,0,0,0.010865,-0.0075722,0,0.0063913,0,0,0,0.0049771,-0.0019765,0.0009002,8.584,0.0013003,0.0060519,8.8608e-09,0.68,0.5,0
0.030369,0.0030342,0.0093889,-0.0010799,0.0024927,0.0012432,0,0,0.03301,-0.016024,0,0.015017,0,0,0,0.0095433,-0.0012342,0.0024927,7.4108,0.0036006,0.009481,3.2039e-08,0.7,0.5,0
0.031846,0.0024696,0.0071996,-0.00070456,0.0019485,0.001026,0,0,0.068264,-0.03449,0,0.026676,0,0,0,0.0073306,-0.00083557,0.0019485,7.2766,0.0028145,0.0071904,9.8979e-09,0.72,0.5,0
0.033099,0.0018585,0.0067102,-0.00057241,0.0018413,0.00065319,0,0,0.063295,-0.031379,0,0.016983,0,0,0,0.0067683,-0.00063053,0.0018413,5.0849,0.0026597,0.0065241,7.6707e-09,0.74,0.5,0
0.034378,0.001306,0.0069184,4.4986e-05,0.002089,0.00057862,0,0,0.062782,-0.026572,0,0.015044,0,0,0,0.0069667,-3.3838e-06,0.002089,4.7785,0.0030175,0.0061949,7.68e-09,0.76,0.5,0
0.035611,0.00079926,0.0069264,0.00037623,0.0021908,0.00054131,0,0,0.061563,-0.023589,0,0.014074,0,0,0,0.0069709,0.00033179,0.0021908,4.6925,0.0031645,0.0059322,7.2793e-09,0.78,0.5,0
0.03684,0.00039977,0.0070239,0.00057214,0.0022788,0.00059501,0,0,0.061686,-0.022187,0,0.01547,0,0,0,0.0070783,0.00051773,0.0022788,5.2253,0.0032916,0.0058812,7.3763e-09,0.8,0.5,0
0.038078,0.00010227,0.0071099,0.00057805,0.0023064,0.00062663,0,0,0.062446,-0.022468,0,0.016293,0,0,0,0.0071695,0.00051848,0.0023064,5.4307,0.0033315,0.0059616,7.6733e-09,0.82,0.5,0
0.039338,-0.00010829,0.0072133,0.00052979,0.0023229,0.00062105,0,0,0.063575,-0.023311,0,0.016147,0,0,0,0.0072705,0.00047257,0.0023229,5.264,0.0033553,0.0060875,8.0793e-09,0.84,0.5,0
0.040621,-0.00025534,0.0073027,0.00046116,0.0023292,0.00058385,0,0,0.064656,-0.024284,0,0.01518,0,0,0,0.0073522,0.00041169,0.0023292,4.8429,0.0033643,0.006208,8.4514e-09,0.86,0.5,0
0.041924,-0.00035619,0.0073734,0.00038597,0.0023278,0.0005262,0,0,0.065593,-0.025244,0,0.013681,0,0,0,0.0074128,0.00034657,0.0023278,4.2825,0.0033624,0.0063133,8.7626e-09,0.88,0.5,0
0.043245,-0.00042374,0.0074286,0.0003138,0.0023227,0.00045446,0,0,0.066377,-0.026116,0,0.011816,0,0,0,0.0074575,0.00028489,0.0023227,3.6401,0.0033551,0.0064018,9.0153e-09,0.9,0.5,0
0.044579,-0.0004677,0.0074708,0.00025042,0.0023164,0.00037284,0,0,0.067008,-0.026857,0,0.0096939,0,0,0,0.00749,0.00023122,0.0023164,2.9482,0.0033459,0.0064732,9.2136e-09,0.92,0.5,0
0.045925,-0.00049526,0.0074743,0.00018739,0.0022985,0.00027365,0,0,0.067285,-0.027445,0,0.007115,0,0,0,0.0074846,0.00017713,0.0022985,2.1477,0.0033201,0.0065113,9.271e-09,0.94,0.5,0
0.047279,-0.00051156,0.0075411,0.00016957,0.0023132,0.00019927,0,0,0.067962,-0.027867,0,0.0051811,0,0,0,0.0075464,0.00016419,0.0023132,1.5474,0.0033413,0.0065766,9.5236e-09,0.96,0.5,0
0.048638,-0.00052004,0.0075139,9.4928e-05,0.0022826,9.4786e-05,0,0,0.068006,-0.02844,0,0.0024644,0,0,0,0.0075151,9.3717e-05,0.0022826,0.73186,0.0032972,0.0066048,9.5047e-09,0.98,0.5,0
0.05,-0.00052266,0.0074842,2.8442e-06,0.0022461,-5.0275e-06,0,0,0.068095,-0.029162,0,-0.00013072,0,0,0,0.0074842,2.8409e-06,0.0022461,-0.038504,0.0032444,0.0066498,9.5126e-09,1,0.5,0
0,0,0.0065117,0.0027907,0.0027907,-0.00036152,0,0,0.048373,-2.1684e-19,0,-0.0093995,0,0,0,0.0065465,0.002756,0.0027907,-5.4981,0.0040311,0.0037733,2.7585e-09,0,0.52,0
0.00096746,-0.00018799,0.0064589,0.0025493,0.0027024,-0.00037074,0,0,0.048834,-0.0019913,0,-0.0096391,0,0,0,0.0064937,0.0025144,0.0027024,-5.3694,0.0039035,0.0038887,2.9964e-09,0.02,0.52,0
0.0019626,-0.00035012,0.0065919,0.0023964,0.0026965,-0.00033978,0,0,0.05064,-0.0039011,0,-0.0088342,0,0,0,0.0066192,0.0023691,0.0026965,-4.6002,0.0038949,0.0040963,3.4542e-09,0.04,0.52,0
0.0029842,-0.00049062,0.0066355,0.0022226,0.0026575,-0.00034238,0,0,0.051715,-0.0056529,0,-0.0089018,0,0,0,0.0066619,0.0021962,0.0026575,-4.4101,0.0038385,0.0042539,3.7973e-09,0.06,0.52,0
0.0040312,-0.00061284,0.0067028,0.0020645,0.0026302,-0.00034703,0,0,0.052944,-0.0073539,0,-0.0090228,0,0,0,0.0067286,0.0020387,0.0026302,-4.2552,0.0037992,0.004424,4.1801e-09,0.08,0.52,0
0.005102,-0.00071935,0.0067468,0.0019194,0.0025999,-0.00036439,0,0,0.053911,-0.0088462,0,-0.0094742,0,0,0,0.0067742,0.001892,0.0025999,-4.2925,0.0037554,0.0045695,4.5066e-09,0.1,0.52,0
0.006195,-0.00081209,0.0068538,0.0018051,0.0025977,-0.00037527,0,0,0.055329,-0.010303,0,-0.0097571,0,0,0,0.0068815,0.0017774,0.0025977,-4.2279,0.0037522,0.0047475,4.947e-09,0.12,0.52,0
0.0073084,-0.0008924,0.006877,0.0016551,0.0025597,-0.00040414,0,0,0.056126,-0.011758,0,-0.010507,0,0,0,0.0069081,0.0016241,0.0025597,-4.3994,0.0036973,0.0048839,5.2507e-09,0.14,0.52,0
0.00844,-0.00096104,0.0069231,0.0015432,0.0025399,-0.00043447,0,0,0.056982,-0.012957,0,-0.011296,0,0,0,0.006958,0.0015083,0.0025399,-4.5874,0.0036687,0.0050141,5.5619e-09,0.16,0.52,0
0.0095876,-0.0010182,0.0069616,0.0014449,0.0025219,-0.00046916,0,0,0.057716,-0.014002,0,-0.012198,0,0,0,0.0070013,0.0014052,0.0025219,-4.8263,0.0036428,0.0051297,5.8402e-09,0.18,0.52,0
0.010749,-0.0010634,0.0069914,0.0013608,0.0025057,-0.0005074,0,0,0.058314,-0.014883,0,-0.013192,0,0,0,0.0070367,0.0013154,0.0025057,-5.1083,0.0036193,0.0052288,6.0793e-09,0.2,0.52,0
0.01192,-0.0010955,0.007011,0.0012915,0.0024907,-0.00054824,0,0,0.058763,-0.01559,0,-0.014254,0,0,0,0.0070631,0.0012395,0.0024907,-5.4263,0.0035977,0.0053097,6.2726e-09,0.22,0.52,0
0.013099,-0.0011126,0.0070188,0.0012372,0.0024768,-0.00059049,0,0,0.059046,-0.016114,0,-0.015353,0,0,0,0.0070785,0.0011776,0.0024768,-5.7724,0.0035776,0.0053705,6.4131e-09,0.24,0.52,0
0.014282,-0.0011117,0.0070129,0.0011977,0.0024632,-0.00063252,0,0,0.059146,-0.016451,0,-0.016446,0,0,0,0.0070809,0.0011297,0.0024632,-6.1365,0.0035579,0.0054092,6.4934e-09,0.26,0.52,0
0.015465,-0.0010884,0.006991,0.0011718,0.0024488,-0.00067206,0,0,0.059048,-0.016601,0,-0.017473,0,0,0,0.0070676,0.0010952,0.0024488,-6.5031,0.0035372,0.0054237,6.5058e-09,0.28,0.52,0
0.016644,-0.0010369,0.0069505,0.0011574,0.0024324,-0.00070582,0,0,0.058736,-0.016575,0,-0.018351,0,0,0,0.0070353,0.0010726,0.0024324,-6.8473,0.0035134,0.0054125,6.4434e-09,0.3,0.52,0
0.017815,-0.00094933,0.0068894,0.0011497,0.0024117,-0.00072905,0,0,0.058209,-0.016407,0,-0.018955,0,0,0,0.0069805,0.0010585,0.0024117,-7.1269,0.0034836,0.0053747,6.3025e-09,0.32,0.52,0
0.018972,-0.00081502,0.0068079,0.0011399,0.0023843,-0.00073518,0,0,0.057506,-0.016177,0,-0.019115,0,0,0,0.0069017,0.0010461,0.0023843,-7.2714,0.003444,0.0053143,6.092e-09,0.34,0.52,0
0.020115,-0.00062057,0.0067138,0.0011108,0.0023474,-0.00071855,0,0,0.056764,-0.016076,0,-0.018682,0,0,0,0.0068045,0.0010201,0.0023474,-7.1927,0.0033907,0.0052482,5.854e-09,0.36,0.52,0
0.021243,-0.00035262,0.0066114,0.0010205,0.0022896,-0.00068048,0,0,0.056184,-0.016498,0,-0.017692,0,0,0,0.006693,0.0009389,0.0022896,-6.8405,0.0033072,0.0052118,5.6577e-09,0.38,0.52,0
0.022362,-1.3933e-06,0.0065213,0.00083973,0.0022083,-0.00064976,0,0,0.056069,-0.017791,0,-0.016894,0,0,0,0.0065946,0.00076636,0.0022083,-6.4418,0.0031898,0.0052578,5.6151e-09,0.4,0.52,0
0.023486,0.0004245,0.0063976,0.00051246,0.002073,-0.00065343,0,0,0.05622,-0.020287,0,-0.016989,0,0,0,0.0064693,0.00044078,0.002073,-6.26,0.0029944,0.0054007,5.6686e-09,0.42,0.52,0
0.024611,0.00091334,0.0063422,0.00019755,0.0019619,-0.0007706,0,0,0.056944,-0.022937,0,-0.020036,0,0,0,0.0064374,0.00010238,0.0019619,-7.0402,0.0028339,0.00564,5.9509e-09,0.44,0.52,0
0.025763,0.0014145,0.0061975,-0.00013248,0.0018195,-0.00088767,0,0,0.056914,-0.025376,0,-0.023079,0,0,0,0.0063196,-0.0002546,0.0018195,-7.8335,0.0026282,0.0058213,5.9668e-09,0.46,0.52,0
0.026873,0.00197,0.0069048,-0.00016127,0.0020231,-0.0012327,0,0,0.063462,-0.028396,0,-0.03205,0,0,0,0.0071136,-0.00037014,0.0020231,-9.617,0.0029222,0.00662,8.603e-09,0.48,0.52,0
0.028222,0.0024845,0.0054535,0.00011935,0.0016718,-0.0014239,0,0,0.049161,-0.020182,0,-0.03702,0,0,0,0.0058097,-0.00023693,0.0016718,-14.048,0.0024149,0.0053539,4.6381e-09,0.5,0.52,0
0.028474,0.0026606,0.0068896,-5.9322e-06,0.0020651,-0.001845,0,0,0.011657,-0.0095264,0,-0.024767,0,0,0,0.0075314,-0.00064773,0.0020651,-19.316,0.0029829,0.0072745,2.4657e-08,0.52,0.52,0
0.028701,0.0027306,0.0068125,-0.00010152,0.0020133,-0.0010188,0,0,0.011328,-0.0078634,0,-0.015766,0,0,0,0.0071212,-0.00041022,0.0020133,-15.187,0.0029081,0.0066902,2.269e-08,0.54,0.52,0
0.028926,0.0027891,0.0067868,-7.4358e-05,0.0020137,-0.0006437,0,0,0.011279,-0.0071524,0,-0.0090419,0,0,0,0.0069124,-0.00019988,0.0020137,-10.992,0.0029087,0.0063215,2.2049e-08,0.56,0.52,0
0.029152,0.0028381,0.0067813,-8.9844e-05,0.0020074,-0.00016903,0,0,0.011289,-0.006968,0,-0.0028944,0,0,0,0.0067955,-0.0001041,0.0020074,-3.9898,0.0028996,0.0061349,2.1778e-08,0.58,0.52,0
0.029378,0.0028792,0.0067797,-0.00011939,0.0019981,0.00013001,0,0,0.011303,-0.0071103,0,0.0025696,0,0,0,0.006791,-0.0001307,0.0019981,3.4863,0.0028861,0.0061531,2.1876e-08,0.6,0.52,0
0.029604,0.0029124,0.0067557,-0.00017581,0.001974,0.00060836,0,0,0.011305,-0.0075904,0,0.0087499,0,0,0,0.0068701,-0.00029014,0.001974,10.404,0.0028513,0.006359,2.2093e-08,0.62,0.52,0
0.02983,0.0029356,0.0067895,-0.00027012,0.0019558,0.00098479,0,0,0.011402,-0.0086373,0,0.015536,0,0,0,0.0070785,-0.00055914,0.0019558,14.514,0.0028251,0.0067773,2.3067e-08,0.64,0.52,0
0.030059,0.0029469,0.0072974,-5.6909e-05,0.0021721,0.0012806,0,0,0.012114,-0.010725,0,0.023223,0,0,0,0.0077817,-0.00054125,0.0021721,16.04,0.0031375,0.0074273,2.7277e-08,0.66,0.52,0
0.030315,0.0028443,0.0087891,-0.0022826,0.001952,0.0015922,0,0,0.031292,-0.015734,0,0.019959,0,0,0,0.0090445,-0.0025379,0.001952,9.5843,0.0028195,0.010122,2.8163e-08,0.68,0.52,0
0.031681,0.0023431,0.0065413,-0.00077426,0.0017301,0.0012214,0,0,0.062546,-0.032557,0,0.031757,0,0,0,0.0067399,-0.00097279,0.0017301,9.2325,0.0024991,0.0067782,7.85e-09,0.7,0.52,0
0.032817,0.0017987,0.0060528,-0.00071908,0.0016001,0.00078,0,0,0.057885,-0.030149,0,0.02028,0,0,0,0.0061415,-0.00080776,0.0016001,6.4863,0.0023113,0.006112,5.8907e-09,0.72,0.52,0
0.033996,0.0012936,0.0063079,-0.00025069,0.0018172,0.00062561,0,0,0.058379,-0.026882,0,0.016266,0,0,0,0.006367,-0.00030984,0.0018172,5.4004,0.0026248,0.0059079,6.1496e-09,0.74,0.52,0
0.035152,0.00079166,0.0063749,4.9413e-05,0.0019273,0.00048723,0,0,0.057819,-0.024412,0,0.012668,0,0,0,0.0064122,1.2103e-05,0.0019273,4.3789,0.0027839,0.0056896,5.9728e-09,0.76,0.52,0
0.036309,0.00034425,0.0065057,0.00035572,0.0020584,0.00046501,0,0,0.057814,-0.022135,0,0.01209,0,0,0,0.0065407,0.00032076,0.0020584,4.2996,0.0029733,0.0055586,6.0023e-09,0.78,0.52,0
0.037464,-3.3495e-05,0.0066079,0.00051158,0.0021358,0.00048256,0,0,0.058136,-0.021115,0,0.012547,0,0,0,0.0066458,0.00047361,0.0021358,4.498,0.0030851,0.0055317,6.1202e-09,0.8,0.52,0
0.038634,-0.00033088,0.006726,0.00056638,0.0021877,0.00050971,0,0,0.058998,-0.021077,0,0.013253,0,0,0,0.0067679,0.00052449,0.0021877,4.6987,0.00316,0.0056002,6.4104e-09,0.82,0.52,0
0.039824,-0.00055607,0.0068415,0.00054942,0.0022173,0.00051546,0,0,0.060115,-0.021682,0,0.013402,0,0,0,0.0068834,0.00050747,0.0022173,4.6525,0.0032027,0.0057161,6.7783e-09,0.84,0.52,0
0.041039,-0.00072181,0.0069495,0.00050217,0.0022355,0.00049595,0,0,0.061282,-0.022533,0,0.012895,0,0,0,0.0069875,0.00046425,0.0022355,4.3731,0.0032291,0.0058426,7.1586e-09,0.86,0.52,0
0.042276,-0.00084159,0.0070419,0.00044334,0.0022456,0.00045511,0,0,0.062352,-0.023429,0,0.011833,0,0,0,0.0070731,0.0004121,0.0022456,3.927,0.0032436,0.0059597,7.5035e-09,0.88,0.52,0
0.043533,-0.00092652,0.0071169,0.00038337,0.0022501,0.00039842,0,0,0.063269,-0.024267,0,0.010359,0,0,0,0.0071404,0.00035988,0.0022501,3.3744,0.0032501,0.0060607,7.7964e-09,0.9,0.52,0
0.044806,-0.00098535,0.0071757,0.00032877,0.0022514,0.00033021,0,0,0.064017,-0.024994,0,0.0085854,0,0,0,0.0071916,0.00031288,0.0022514,2.7547,0.0032519,0.0061433,8.0332e-09,0.92,0.52,0
0.046093,-0.0010248,0.007226,0.00031908,0.0022635,0.00024644,0,0,0.064512,-0.025278,0,0.0064074,0,0,0,0.0072347,0.0003103,0.0022635,2.0408,0.0032695,0.0061837,8.1848e-09,0.94,0.52,0
0.04739,-0.0010496,0.0072748,0.00029355,0.0022705,0.00017391,0,0,0.065056,-0.025701,0,0.0045216,0,0,0,0.0072791,0.00028922,0.0022705,1.4261,0.0032796,0.0062398,8.3683e-09,0.96,0.52,0
0.048694,-0.0010633,0.0072818,0.00026839,0.0022651,8.3007e-05,0,0,0.065218,-0.025957,0,0.0021582,0,0,0,0.0072828,0.00026741,0.0022651,0.678,0.0032718,0.0062604,8.4114e-09,0.98,0.52,0
0.05,-0.0010676,0.0073261,0.00034424,0.0023011,-8.3483e-06,0,0,0.065325,-0.025439,0,-0.00021706,0,0,0,0.0073261,0.00034423,0.0023011,-0.068509,0.0033238,0.0062381,8.4564e-09,1,0.52,0
0,0,0.0064193,0.0027511,0.0027511,-0.00043412,0,0,0.047686,1.0842e-19,0,-0.011287,0,0,0,0.00647,0.0027005,0.0027511,-6.6582,0.0039739,0.0037445,2.6948e-09,0,0.54,0
0.00095373,-0.00022574,0.0063734,0.0025348,0.0026724,-0.00044335,0,0,0.048112,-0.00179,0,-0.011527,0,0,0,0.0064239,0.0024842,0.0026724,-6.5034,0.0038602,0.0038491,2.9052e-09,0.02,0.54,0
0.001933,-0.00042431,0.0064984,0.0023971,0.0026687,-0.0004092,0,0,0.049787,-0.0035299,0,-0.010639,0,0,0,0.0065388,0.0023567,0.0026687,-5.6425,0.0038547,0.0040352,3.3066e-09,0.04,0.54,0
0.002937,-0.00059966,0.0065328,0.0022213,0.0026262,-0.00040878,0,0,0.050786,-0.0052645,0,-0.010628,0,0,0,0.0065712,0.0021828,0.0026262,-5.3685,0.0037934,0.0041843,3.6207e-09,0.06,0.54,0
0.0039644,-0.00075488,0.0065937,0.0020711,0.0025995,-0.00040948,0,0,0.051925,-0.0068681,0,-0.010646,0,0,0,0.0066305,0.0020344,0.0025995,-5.132,0.0037548,0.0043413,3.9632e-09,0.08,0.54,0
0.005014,-0.00089229,0.00665,0.00193,0.002574,-0.00041724,0,0,0.052987,-0.0083714,0,-0.010848,0,0,0,0.0066866,0.0018935,0.002574,-5.0132,0.003718,0.0044917,4.2963e-09,0.1,0.54,0
0.0060839,-0.0010136,0.0067006,0.0017991,0.0025499,-0.00043094,0,0,0.053959,-0.0097605,0,-0.011204,0,0,0,0.0067382,0.0017615,0.0025499,-4.9865,0.0036832,0.0046331,4.6131e-09,0.12,0.54,0
0.0071723,-0.0011199,0.0067445,0.0016792,0.0025271,-0.00044958,0,0,0.054826,-0.011022,0,-0.011689,0,0,0,0.0067841,0.0016396,0.0025271,-5.033,0.0036503,0.0047631,4.9069e-09,0.14,0.54,0
0.008277,-0.0012116,0.0067806,0.0015714,0.0025056,-0.00047229,0,0,0.055575,-0.012145,0,-0.01228,0,0,0,0.0068231,0.0015289,0.0025056,-5.1389,0.0036192,0.0048797,5.1709e-09,0.16,0.54,0
0.0093953,-0.0012888,0.0068078,0.0014764,0.0024853,-0.0004982,0,0,0.056193,-0.013115,0,-0.012953,0,0,0,0.0068539,0.0014302,0.0024853,-5.293,0.0035898,0.0049807,5.3986e-09,0.18,0.54,0
0.010525,-0.0013508,0.0068246,0.0013947,0.0024658,-0.00052636,0,0,0.056665,-0.013924,0,-0.013685,0,0,0,0.0068752,0.0013442,0.0024658,-5.486,0.0035617,0.0050642,5.5833e-09,0.2,0.54,0
0.011662,-0.0013963,0.0068297,0.0013268,0.0024469,-0.00055564,0,0,0.056976,-0.014562,0,-0.014447,0,0,0,0.0068853,0.0012712,0.0024469,-5.7084,0.0035345,0.0051283,5.7185e-09,0.22,0.54,0
0.012804,-0.0014231,0.0068214,0.0012724,0.0024281,-0.00058462,0,0,0.057112,-0.015025,0,-0.0152,0,0,0,0.0068823,0.0012115,0.0024281,-5.9494,0.0035073,0.005171,5.7979e-09,0.24,0.54,0
0.013946,-0.0014281,0.0067979,0.0012308,0.0024086,-0.00061144,0,0,0.05706,-0.015311,0,-0.015897,0,0,0,0.0068642,0.0011645,0.0024086,-6.1945,0.0034791,0.0051908,5.8157e-09,0.26,0.54,0
0.015086,-0.0014073,0.0067573,0.0012004,0.0023873,-0.00063361,0,0,0.05681,-0.01543,0,-0.016474,0,0,0,0.0068286,0.001129,0.0023873,-6.4231,0.0034483,0.0051862,5.7674e-09,0.28,0.54,0
0.016219,-0.0013551,0.0066981,0.0011779,0.0023628,-0.00064789,0,0,0.056359,-0.015404,0,-0.016845,0,0,0,0.0067731,0.0011028,0.0023628,-6.605,0.0034129,0.005157,5.6519e-09,0.3,0.54,0
0.01734,-0.0012643,0.0066198,0.0011574,0.0023332,-0.0006503,0,0,0.055726,-0.015285,0,-0.016908,0,0,0,0.0066962,0.0010811,0.0023332,-6.6964,0.0033701,0.0051055,5.4741e-09,0.32,0.54,0
0.018448,-0.0011264,0.0065244,0.001129,0.002296,-0.00063708,0,0,0.054969,-0.015171,0,-0.016564,0,0,0,0.0065986,0.0010548,0.002296,-6.6437,0.0033165,0.0050392,5.2522e-09,0.34,0.54,0
0.019539,-0.00093209,0.0064151,0.0010747,0.0022469,-0.00060711,0,0,0.054185,-0.015239,0,-0.015785,0,0,0,0.0064832,0.0010066,0.0022469,-6.4047,0.0032456,0.0049738,5.0193e-09,0.36,0.54,0
0.020615,-0.00067307,0.0062975,0.00097306,0.0021812,-0.00056777,0,0,0.053513,-0.015706,0,-0.014762,0,0,0,0.0063574,0.00091319,0.0021812,-6.0195,0.0031506,0.004934,4.8226e-09,0.38,0.54,0
0.02168,-0.00034673,0.0061649,0.00079706,0.0020886,-0.00053481,0,0,0.052992,-0.01679,0,-0.013905,0,0,0,0.0062176,0.00074429,0.0020886,-5.6347,0.0030168,0.0049403,4.6817e-09,0.4,0.54,0
0.022735,4.2922e-05,0.0060202,0.00055873,0.0019737,-0.00053922,0,0,0.052605,-0.018394,0,-0.01402,0,0,0,0.0060729,0.00050601,0.0019737,-5.5851,0.0028509,0.0049974,4.5952e-09,0.42,0.54,0
0.023784,0.00047877,0.0058005,0.00024192,0.0018127,-0.00058716,0,0,0.051841,-0.02042,0,-0.015266,0,0,0,0.0058618,0.00018057,0.0018127,-5.9645,0.0026184,0.0050663,4.4168e-09,0.44,0.54,0
0.024809,0.00095173,0.0055473,-3.4928e-05,0.0016537,-0.00072905,0,0,0.050617,-0.021952,0,-0.018955,0,0,0,0.005641,-0.00012857,0.0016537,-7.3194,0.0023887,0.0051167,4.1721e-09,0.46,0.54,0
0.025809,0.0014235,0.0048036,-0.0005809,0.0012668,-0.00084906,0,0,0.045979,-0.02402,0,-0.022076,0,0,0,0.0049344,-0.00071161,0.0012668,-8.7519,0.0018299,0.0049619,3.0801e-09,0.48,0.54,0
0.026648,0.0019595,0.0041201,-0.00099321,0.00093807,-0.0013531,0,0,0.041367,-0.025107,0,-0.03518,0,0,0,0.0044561,-0.0013292,0.00093807,-13.944,0.001355,0.0050491,2.4062e-09,0.5,0.54,0
0.027463,0.0023569,0.0035819,-0.00065392,0.00087839,-0.0011571,0,0,0.035146,-0.01992,0,-0.030086,0,0,0,0.0038774,-0.00094942,0.00087839,-14.325,0.0012688,0.004221,1.5663e-09,0.52,0.54,0
0.028054,0.0025033,0.0027442,-0.00053059,0.00066408,-0.00091648,0,0,0.027041,-0.015531,0,-0.023828,0,0,0,0.0029832,-0.00076963,0.00066408,-14.618,0.00095923,0.0032801,7.1609e-10,0.54,0.54,0
0.028545,0.0025919,0.0023913,-0.0004723,0.00057569,-0.00054562,0,0,0.023602,-0.013624,0,-0.014186,0,0,0,0.0024917,-0.00057274,0.00057569,-10.43,0.00083156,0.0026815,4.136e-10,0.56,0.54,0
0.028998,0.0026496,0.0022645,-0.00045392,0.00054318,-0.00018635,0,0,0.022377,-0.012962,0,-0.004845,0,0,0,0.0022772,-0.00046663,0.00054318,-3.9032,0.00078459,0.0024037,3.1261e-10,0.58,0.54,0
0.02944,0.0026856,0.0022547,-0.0004874,0.0005302,0.00016744,0,0,0.022419,-0.013229,0,0.0043534,0,0,0,0.0022649,-0.00049758,0.0005302,3.4813,0.00076584,0.0024184,3.0944e-10,0.6,0.54,0
0.029894,0.0026993,0.0023629,-0.00057472,0.00053645,0.00052719,0,0,0.023744,-0.014445,0,0.013707,0,0,0,0.0024546,-0.00066646,0.00053645,9.8722,0.00077488,0.0027265,4.0024e-10,0.62,0.54,0
0.03039,0.0026804,0.0027035,-0.00070724,0.00059887,0.00089797,0,0,0.02736,-0.016979,0,0.023347,0,0,0,0.0029254,-0.00092921,0.00059887,13.885,0.00086503,0.003362,6.8224e-10,0.64,0.54,0
0.030989,0.0025991,0.0035436,-0.00091897,0.0007874,0.0011288,0,0,0.035831,-0.022183,0,0.029349,0,0,0,0.0038129,-0.0011883,0.0007874,13.418,0.0011374,0.0043628,1.5098e-09,0.66,0.54,0
0.031823,0.0022497,0.0040707,-0.0013713,0.00080982,0.0012936,0,0,0.042392,-0.028355,0,0.033634,0,0,0,0.0043626,-0.0016632,0.00080982,12.714,0.0011697,0.0052463,2.2572e-09,0.68,0.54,0
0.032684,0.0017319,0.0047681,-0.00094789,0.0011461,0.00075189,0,0,0.047087,-0.027221,0,0.019549,0,0,0,0.0048654,-0.0010451,0.0011461,7.3697,0.0016554,0.0051753,3.0615e-09,0.7,0.54,0
0.033707,0.0012636,0.0055072,-0.00043503,0.0015217,0.0006038,0,0,0.051812,-0.025437,0,0.015699,0,0,0,0.0055679,-0.00049576,0.0015217,5.7437,0.0021979,0.0053484,4.2566e-09,0.72,0.54,0
0.034757,0.00078319,0.0057679,-0.00017746,0.0016771,0.0004386,0,0,0.05318,-0.02411,0,0.011404,0,0,0,0.0058001,-0.00020964,0.0016771,4.1966,0.0024225,0.0053233,4.5947e-09,0.74,0.54,0
0.035834,0.00032948,0.0059899,0.00011541,0.0018316,0.00036757,0,0,0.054058,-0.022311,0,0.0095567,0,0,0,0.0060128,9.2498e-05,0.0018316,3.5664,0.0026456,0.0052706,4.8523e-09,0.76,0.54,0
0.036919,-8.6144e-05,0.0061399,0.00033012,0.001941,0.00034351,0,0,0.054586,-0.020942,0,0.0089312,0,0,0,0.0061602,0.00030988,0.001941,3.372,0.0028037,0.0052292,5.0067e-09,0.78,0.54,0
0.038017,-0.00044484,0.0062796,0.00047704,0.002027,0.00035911,0,0,0.055284,-0.020149,0,0.0093369,0,0,0,0.0063017,0.0004549,0.002027,3.528,0.0029279,0.0052407,5.2117e-09,0.8,0.54,0
0.039131,-0.00074082,0.006408,0.00054263,0.0020852,0.00038262,0,0,0.056196,-0.020053,0,0.0099481,0,0,0,0.0064328,0.00051778,0.0020852,3.7166,0.0030119,0.0053079,5.4826e-09,0.82,0.54,0
0.040265,-0.00097557,0.0065322,0.00055205,0.0021253,0.00039646,0,0,0.057291,-0.020452,0,0.010308,0,0,0,0.0065584,0.00052588,0.0021253,3.7764,0.0030699,0.005413,5.8124e-09,0.84,0.54,0
0.041422,-0.0011567,0.0066468,0.00052681,0.0021521,0.00039163,0,0,0.058431,-0.021129,0,0.010182,0,0,0,0.0066718,0.00050185,0.0021521,3.6466,0.0031086,0.0055326,6.1599e-09,0.86,0.54,0
0.042602,-0.0012933,0.0067479,0.00048525,0.0021699,0.00036786,0,0,0.059513,-0.021901,0,0.0095643,0,0,0,0.0067694,0.00046372,0.0021699,3.3501,0.0031344,0.0056493,6.4916e-09,0.88,0.54,0
0.043803,-0.0013944,0.0068328,0.00043857,0.0021814,0.00032803,0,0,0.060468,-0.022657,0,0.0085288,0,0,0,0.0068496,0.00042179,0.0021814,2.9291,0.0031509,0.0057534,6.7854e-09,0.9,0.54,0
0.045021,-0.0014674,0.0069009,0.00039383,0.0021884,0.00027571,0,0,0.061262,-0.02333,0,0.0071684,0,0,0,0.0069126,0.00038217,0.0021884,2.4219,0.003161,0.0058406,7.0305e-09,0.92,0.54,0
0.046253,-0.0015183,0.0069528,0.00035557,0.0021925,0.00021414,0,0,0.061884,-0.02388,0,0.0055676,0,0,0,0.0069597,0.00034863,0.0021925,1.8572,0.0031669,0.005909,7.2221e-09,0.94,0.54,0
0.047496,-0.0015516,0.0069891,0.00032662,0.0021947,0.00014612,0,0,0.062327,-0.024285,0,0.003799,0,0,0,0.0069923,0.00032342,0.0021947,1.2558,0.0031702,0.0059579,7.359e-09,0.96,0.54,0
0.048746,-0.0015704,0.0070107,0.00030866,0.0021958,7.4036e-05,0,0,0.062593,-0.024533,0,0.0019249,0,0,0,0.0070115,0.00030784,0.0021958,0.63284,0.0031717,0.0059872,7.4409e-09,0.98,0.54,0
0.05,-0.0015764,0.0070178,0.00030258,0.0021961,-1.1638e-05,0,0,0.062682,-0.024616,0,-0.00030259,0,0,0,0.0070178,0.00030256,0.0021961,-0.099298,0.0031721,0.005997,7.4683e-09,1,0.54,0
0,0,0.0063256,0.002711,0.002711,-0.00050108,0,0,0.04699,-8.6736e-19,0,-0.013028,0,0,0,0.0063938,0.0026428,0.002711,-7.7481,0.0039159,0.0037174,2.6354e-09,0,0.56,0
0.00093981,-0.00026056,0.0063085,0.0025196,0.0026485,-0.00050086,0,0,0.047581,-0.0016747,0,-0.013022,0,0,0,0.0063736,0.0024545,0.0026485,-7.4046,0.0038255,0.0038258,2.8512e-09,0.02,0.56,0
0.0019032,-0.00049312,0.0063705,0.0023656,0.0026208,-0.00048059,0,0,0.048746,-0.0033182,0,-0.012495,0,0,0,0.0064274,0.0023087,0.0026208,-6.7479,0.0037856,0.0039718,3.1511e-09,0.04,0.56,0
0.0028896,-0.0007012,0.0064297,0.0022162,0.0025938,-0.00046948,0,0,0.049867,-0.0049082,0,-0.012206,0,0,0,0.0064814,0.0021645,0.0025938,-6.2814,0.0037466,0.004119,3.4582e-09,0.06,0.56,0
0.0038979,-0.00088756,0.006485,0.0020732,0.0025675,-0.0004658,0,0,0.050928,-0.0064252,0,-0.012111,0,0,0,0.0065336,0.0020246,0.0025675,-5.9618,0.0037085,0.0042636,3.764e-09,0.08,0.56,0
0.0049267,-0.0010542,0.0065351,0.001938,0.0025419,-0.00046816,0,0,0.051911,-0.0078514,0,-0.012172,0,0,0,0.0065823,0.0018908,0.0025419,-5.7562,0.0036717,0.0044022,4.0603e-09,0.1,0.56,0
0.0059744,-0.0012025,0.0065789,0.0018118,0.0025172,-0.0004754,0,0,0.052802,-0.0091705,0,-0.01236,0,0,0,0.0066259,0.0017649,0.0025172,-5.6397,0.003636,0.0045319,4.3397e-09,0.12,0.56,0
0.0070388,-0.0013333,0.0066153,0.0016958,0.0024934,-0.00048647,0,0,0.053586,-0.010368,0,-0.012648,0,0,0,0.006663,0.0016482,0.0024934,-5.5936,0.0036015,0.0046502,4.5948e-09,0.14,0.56,0
0.0081178,-0.0014468,0.0066431,0.001591,0.0024702,-0.00050045,0,0,0.054247,-0.01143,0,-0.013012,0,0,0,0.0066922,0.0015419,0.0024702,-5.603,0.0035681,0.0047546,4.8186e-09,0.16,0.56,0
0.0092087,-0.0015428,0.006661,0.0014981,0.0024477,-0.00051636,0,0,0.054772,-0.012345,0,-0.013425,0,0,0,0.0067121,0.001447,0.0024477,-5.6558,0.0035356,0.0048429,5.0044e-09,0.18,0.56,0
0.010309,-0.0016204,0.0066676,0.0014176,0.0024255,-0.00053317,0,0,0.055147,-0.013104,0,-0.013862,0,0,0,0.0067212,0.001364,0.0024255,-5.7405,0.0035036,0.0049132,5.1459e-09,0.2,0.56,0
0.011415,-0.001678,0.0066616,0.0013494,0.0024033,-0.00054962,0,0,0.055358,-0.013701,0,-0.01429,0,0,0,0.0067179,0.0012932,0.0024033,-5.8456,0.0034715,0.0049637,5.2374e-09,0.22,0.56,0
0.012523,-0.0017136,0.0066416,0.0012933,0.0023805,-0.0005642,0,0,0.055395,-0.014134,0,-0.014669,0,0,0,0.0067005,0.0012344,0.0023805,-5.9568,0.0034384,0.0049927,5.2741e-09,0.24,0.56,0
0.01363,-0.0017241,0.0066061,0.0012479,0.0023562,-0.00057499,0,0,0.055249,-0.014408,0,-0.01495,0,0,0,0.0066671,0.0011869,0.0023562,-6.0565,0.0034034,0.0049992,5.2526e-09,0.26,0.56,0
0.014733,-0.0017056,0.0065541,0.0012111,0.0023296,-0.00057961,0,0,0.054919,-0.01454,0,-0.01507,0,0,0,0.0066162,0.0011489,0.0023296,-6.1207,0.0033649,0.004983,5.1721e-09,0.28,0.56,0
0.015827,-0.0016531,0.0064848,0.001179,0.0022991,-0.00057532,0,0,0.054413,-0.014562,0,-0.014958,0,0,0,0.0065464,0.0011173,0.0022991,-6.118,0.003321,0.0049453,5.0359e-09,0.3,0.56,0
0.01691,-0.0015607,0.0063986,0.0011453,0.0022631,-0.00055934,0,0,0.053761,-0.014533,0,-0.014543,0,0,0,0.0064575,0.0010864,0.0022631,-6.0107,0.003269,0.0048901,4.8535e-09,0.32,0.56,0
0.017978,-0.0014219,0.006297,0.0011003,0.0022192,-0.0005299,0,0,0.053011,-0.014546,0,-0.013777,0,0,0,0.0063504,0.0010468,0.0022192,-5.7633,0.0032055,0.0048255,4.6427e-09,0.34,0.56,0
0.01903,-0.0012301,0.0061822,0.0010311,0.002164,-0.00048824,0,0,0.052237,-0.014728,0,-0.012694,0,0,0,0.0062281,0.00098521,0.002164,-5.367,0.0031258,0.0047642,4.4284e-09,0.36,0.56,0
0.020067,-0.00098083,0.0060543,0.00092226,0.002093,-0.00044014,0,0,0.051497,-0.015219,0,-0.011444,0,0,0,0.0060918,0.00088479,0.002093,-4.8666,0.0030232,0.0047203,4.2322e-09,0.38,0.56,0
0.02109,-0.00067299,0.0059111,0.00076512,0.0020029,-0.00039763,0,0,0.050807,-0.016091,0,-0.010338,0,0,0,0.0059417,0.00073457,0.0020029,-4.3925,0.002893,0.004703,4.0615e-09,0.4,0.56,0
0.022099,-0.00031127,0.0057363,0.00055436,0.0018872,-0.00037157,0,0,0.050039,-0.017327,0,-0.0096607,0,0,0,0.0057628,0.00052785,0.0018872,-4.0805,0.002726,0.004705,3.8822e-09,0.42,0.56,0
0.023091,9.6521e-05,0.0055224,0.00031437,0.001751,-0.00037468,0,0,0.049028,-0.018676,0,-0.0097418,0,0,0,0.0055492,0.00028755,0.001751,-4.094,0.0025293,0.0047039,3.653e-09,0.44,0.56,0
0.02406,0.0005364,0.0052039,2.0674e-05,0.0015674,-0.00038501,0,0,0.047275,-0.020107,0,-0.01001,0,0,0,0.0052323,-7.769e-06,0.0015674,-4.225,0.002264,0.0046568,3.2571e-09,0.46,0.56,0
0.024982,0.0010092,0.0049138,-0.00020814,0.0014117,-0.00041821,0,0,0.045527,-0.021058,0,-0.010873,0,0,0,0.0049477,-0.00024206,0.0014117,-4.6373,0.0020391,0.004592,2.8865e-09,0.48,0.56,0
0.025882,0.0014803,0.0044879,-0.00070901,0.0011337,-0.00042683,0,0,0.043605,-0.023955,0,-0.011097,0,0,0,0.0045227,-0.00074383,0.0011337,-4.6641,0.0016375,0.0046232,2.4003e-09,0.5,0.56,0
0.026727,0.0018638,0.0040503,-0.0010052,0.00091351,-0.00055768,0,0,0.040778,-0.024944,0,-0.0145,0,0,0,0.004111,-0.001066,0.00091351,-6.2208,0.0013195,0.0045246,1.8746e-09,0.52,0.56,0
0.027513,0.0021093,0.0037275,-0.0008269,0.00087019,-0.00052589,0,0,0.037145,-0.022062,0,-0.013673,0,0,0,0.0037875,-0.00088683,0.00087019,-6.5019,0.0012569,0.0040894,1.4547e-09,0.54,0.56,0
0.028212,0.0022442,0.0033893,-0.00075628,0.0007899,-0.00036025,0,0,0.033792,-0.0201,0,-0.0093664,0,0,0,0.0034204,-0.00078735,0.0007899,-4.9297,0.001141,0.0036818,1.0699e-09,0.56,0.56,0
0.028864,0.0023196,0.0032274,-0.0007389,0.00074655,-0.00012537,0,0,0.032251,-0.019311,0,-0.0032597,0,0,0,0.0032314,-0.00074286,0.00074655,-1.8087,0.0010784,0.0034776,9.0206e-10,0.58,0.56,0
0.029502,0.0023501,0.0032218,-0.00077196,0.00073495,0.00012255,0,0,0.032329,-0.01959,0,0.0031863,0,0,0,0.0032256,-0.00077572,0.00073495,1.756,0.0010616,0.0034997,9.0048e-10,0.6,0.56,0
0.030158,0.0023346,0.0033745,-0.00085682,0.0007553,0.00035554,0,0,0.03405,-0.020958,0,0.009244,0,0,0,0.0034042,-0.00088648,0.0007553,4.7697,0.001091,0.0037498,1.0647e-09,0.62,0.56,0
0.030864,0.0022564,0.0037092,-0.00099949,0.0008129,0.00051463,0,0,0.037651,-0.023561,0,0.01338,0,0,0,0.0037647,-0.0010551,0.0008129,6.1652,0.0011742,0.0042091,1.4467e-09,0.64,0.56,0
0.031664,0.0020596,0.004029,-0.0012594,0.0008309,0.00052893,0,0,0.041576,-0.027173,0,0.013752,0,0,0,0.0040814,-0.0013117,0.0008309,5.656,0.0012002,0.0047033,1.8531e-09,0.66,0.56,0
0.032528,0.0017101,0.0044617,-0.001032,0.0010289,0.00036477,0,0,0.044626,-0.026791,0,0.009484,0,0,0,0.0044859,-0.0010561,0.0010289,3.7822,0.0014862,0.0048482,2.418e-09,0.68,0.56,0
0.033449,0.0012543,0.0048885,-0.00055466,0.0013002,0.00032104,0,0,0.046649,-0.024113,0,0.0083471,0,0,0,0.0049074,-0.00057353,0.0013002,3.3638,0.001878,0.0048251,2.9756e-09,0.7,0.56,0
0.034393,0.00078126,0.0051731,-0.00034939,0.0014471,0.00026059,0,0,0.048438,-0.023355,0,0.0067753,0,0,0,0.0051854,-0.00036166,0.0014471,2.6956,0.0020903,0.0048998,3.3842e-09,0.72,0.56,0
0.035386,0.00032923,0.0054873,-8.181e-05,0.0016216,0.00022519,0,0,0.050253,-0.022145,0,0.005855,0,0,0,0.0054963,-9.0901e-05,0.0016216,2.3118,0.0023424,0.004958,3.8351e-09,0.74,0.56,0
0.036403,-0.00010076,0.0057003,0.0001337,0.0017502,0.00019893,0,0,0.051352,-0.021015,0,0.0051721,0,0,0,0.0057075,0.0001266,0.0017502,2.044,0.0025281,0.004972,4.118e-09,0.76,0.56,0
0.03744,-0.00049342,0.0058754,0.00031746,0.0018579,0.0002032,0,0,0.052228,-0.020025,0,0.0052831,0,0,0,0.0058828,0.00031004,0.0018579,2.091,0.0026836,0.0049826,4.3475e-09,0.78,0.56,0
0.038493,-0.00083947,0.0060214,0.00044389,0.0019396,0.00022537,0,0,0.053063,-0.019444,0,0.0058596,0,0,0,0.0060305,0.0004348,0.0019396,2.3101,0.0028016,0.0050155,4.5677e-09,0.8,0.56,0
0.039563,-0.001133,0.006155,0.00051606,0.0020013,0.00025371,0,0,0.053998,-0.019308,0,0.0065963,0,0,0,0.0061664,0.00050467,0.0020013,2.5709,0.0028908,0.0050815,4.8204e-09,0.82,0.56,0
0.040653,-0.0013741,0.0062788,0.0005416,0.0020461,0.00027515,0,0,0.055025,-0.019559,0,0.0071538,0,0,0,0.006292,0.00052844,0.0020461,2.7394,0.0029555,0.0051744,5.106e-09,0.84,0.56,0
0.041764,-0.0015669,0.0063928,0.00053547,0.0020785,0.00028273,0,0,0.056086,-0.020059,0,0.0073511,0,0,0,0.0064064,0.00052185,0.0020785,2.7571,0.0030023,0.0052812,5.4083e-09,0.86,0.56,0
0.042896,-0.0017176,0.0064944,0.00051077,0.0021015,0.00027426,0,0,0.057107,-0.02068,0,0.0071309,0,0,0,0.0065069,0.00049823,0.0021015,2.6189,0.0030356,0.005389,5.7041e-09,0.88,0.56,0
0.044048,-0.0018328,0.0065813,0.00047781,0.0021177,0.00025083,0,0,0.058027,-0.021319,0,0.0065216,0,0,0,0.0065916,0.00046752,0.0021177,2.3493,0.003059,0.0054883,5.9744e-09,0.9,0.56,0
0.045217,-0.0019185,0.0066525,0.00044369,0.0021289,0.00021489,0,0,0.058808,-0.021907,0,0.0055871,0,0,0,0.00666,0.00043626,0.0021289,1.9798,0.003075,0.0055736,6.206e-09,0.92,0.56,0
0.0464,-0.00198,0.0067076,0.00041322,0.0021362,0.00016923,0,0,0.059428,-0.022399,0,0.0044,0,0,0,0.0067121,0.00040867,0.0021362,1.539,0.0030857,0.0056417,6.3909e-09,0.94,0.56,0
0.047594,-0.0020211,0.0067466,0.00038954,0.0021409,0.00011657,0,0,0.059875,-0.022767,0,0.0030308,0,0,0,0.0067488,0.00038741,0.0021409,1.0501,0.0030923,0.005691,6.5249e-09,0.96,0.56,0
0.048795,-0.0020446,0.0067699,0.00037463,0.0021434,5.9388e-05,0,0,0.060145,-0.022993,0,0.0015441,0,0,0,0.0067704,0.00037408,0.0021434,0.532,0.003096,0.0057207,6.606e-09,0.98,0.56,0
0.05,-0.0020523,0.0067776,0.00036955,0.0021442,-1.4738e-05,0,0,0.060235,-0.02307,0,-0.00038319,0,0,0,0.0067776,0.00036951,0.0021442,-0.13178,0.0030971,0.0057307,6.6332e-09,1,0.56,0
0,0,0.0062324,0.002671,0.002671,-0.00056294,0,0,0.046298,-5.421e-19,0,-0.014636,0,0,0,0.0063192,0.0025841,0.002671,-8.7719,0.0038581,0.0036924,2.5807e-09,0,0.58,0
0.00092595,-0.00029273,0.0062167,0.002494,0.0026132,-0.00056197,0,0,0.046846,-0.0015503,0,-0.014611,0,0,0,0.0062997,0.002411,0.0026132,-8.3998,0.0037746,0.0037917,2.7729e-09,0.02,0.58,0
0.0018738,-0.00055704,0.0062739,0.0023492,0.0025869,-0.00053964,0,0,0.04793,-0.0030905,0,-0.014031,0,0,0,0.0063467,0.0022763,0.0025869,-7.6881,0.0037367,0.0039243,3.0385e-09,0.04,0.58,0
0.0028432,-0.00079599,0.0063283,0.0022073,0.0025607,-0.00052512,0,0,0.048979,-0.0045941,0,-0.013653,0,0,0,0.0063942,0.0021414,0.0025607,-7.1487,0.0036988,0.0040594,3.3124e-09,0.06,0.58,0
0.003833,-0.0010119,0.0063787,0.0020702,0.0025347,-0.00051679,0,0,0.049972,-0.0060377,0,-0.013437,0,0,0,0.0064398,0.0020091,0.0025347,-6.745,0.0036612,0.0041927,3.5856e-09,0.08,0.58,0
0.004842,-0.0012063,0.0064237,0.0019398,0.002509,-0.00051329,0,0,0.05089,-0.0074006,0,-0.013345,0,0,0,0.0064817,0.0018817,0.002509,-6.4477,0.0036242,0.0043206,3.8497e-09,0.1,0.58,0
0.0058686,-0.0013804,0.006462,0.0018173,0.0024838,-0.00051346,0,0,0.051717,-0.0086645,0,-0.01335,0,0,0,0.0065181,0.0017612,0.0024838,-6.2336,0.0035877,0.0044399,4.0967e-09,0.12,0.58,0
0.0069107,-0.0015346,0.0064923,0.001704,0.0024589,-0.00051627,0,0,0.052434,-0.0098132,0,-0.013423,0,0,0,0.0065474,0.001649,0.0024589,-6.0845,0.0035518,0.0045478,4.319e-09,0.14,0.58,0
0.007966,-0.0016688,0.0065135,0.0016011,0.0024344,-0.00052076,0,0,0.053029,-0.010833,0,-0.01354,0,0,0,0.0065681,0.0015465,0.0024344,-5.9853,0.0035163,0.0046418,4.5097e-09,0.16,0.58,0
0.0090319,-0.0017826,0.0065243,0.001509,0.00241,-0.00052595,0,0,0.053485,-0.011713,0,-0.013675,0,0,0,0.0065788,0.0014545,0.00241,-5.9227,0.0034811,0.0047197,4.6624e-09,0.18,0.58,0
0.010105,-0.001875,0.0065234,0.0014282,0.0023855,-0.00053074,0,0,0.053793,-0.012444,0,-0.013799,0,0,0,0.0065781,0.0013735,0.0023855,-5.8841,0.0034457,0.0047796,4.7715e-09,0.2,0.58,0
0.011184,-0.0019443,0.0065097,0.0013586,0.0023605,-0.0005339,0,0,0.05394,-0.013025,0,-0.013881,0,0,0,0.0065645,0.0013038,0.0023605,-5.8556,0.0034096,0.00482,4.8326e-09,0.22,0.58,0
0.012263,-0.0019884,0.0064822,0.0012993,0.0023344,-0.00053392,0,0,0.053921,-0.013457,0,-0.013882,0,0,0,0.0065366,0.0012448,0.0023344,-5.8209,0.003372,0.0048399,4.8426e-09,0.24,0.58,0
0.01334,-0.0020045,0.0064399,0.0012488,0.0023066,-0.00052904,0,0,0.053732,-0.013751,0,-0.013755,0,0,0,0.0064932,0.0011955,0.0023066,-5.7603,0.0033318,0.0048389,4.8007e-09,0.26,0.58,0
0.014412,-0.0019889,0.0063822,0.0012045,0.002276,-0.0005172,0,0,0.05338,-0.013929,0,-0.013447,0,0,0,0.0064334,0.0011534,0.002276,-5.649,0.0032876,0.0048178,4.7089e-09,0.28,0.58,0
0.015476,-0.0019375,0.0063092,0.0011624,0.0022415,-0.00049631,0,0,0.052881,-0.014028,0,-0.012904,0,0,0,0.0063566,0.0011149,0.0022415,-5.4581,0.0032377,0.0047791,4.5731e-09,0.3,0.58,0
0.016528,-0.0018456,0.0062216,0.0011163,0.0022014,-0.0004646,0,0,0.052263,-0.014106,0,-0.01208,0,0,0,0.0062635,0.0010743,0.0022014,-5.1577,0.0031797,0.0047276,4.4045e-09,0.32,0.58,0
0.017566,-0.0017082,0.0061208,0.0010581,0.0021537,-0.00042149,0,0,0.051572,-0.014242,0,-0.010959,0,0,0,0.0061556,0.0010233,0.0021537,-4.7268,0.0031108,0.0046709,4.2184e-09,0.34,0.58,0
0.01859,-0.0015212,0.0060078,0.00097811,0.0020958,-0.00036846,0,0,0.050857,-0.01453,0,-0.0095799,0,0,0,0.0060347,0.00095126,0.0020958,-4.1676,0.0030272,0.0046188,4.0322e-09,0.36,0.58,0
0.0196,-0.0012818,0.0058831,0.00086703,0.0020251,-0.00030993,0,0,0.050155,-0.015054,0,-0.0080582,0,0,0,0.0059022,0.00084795,0.0020251,-3.5223,0.0029251,0.0045806,3.859e-09,0.38,0.58,0
0.020597,-0.00099036,0.0057434,0.00071791,0.0019384,-0.00025204,0,0,0.049465,-0.015866,0,-0.006553,0,0,0,0.005756,0.0007053,0.0019384,-2.8639,0.0027999,0.004561,3.6987e-09,0.4,0.58,0
0.021579,-0.00065016,0.005585,0.00053208,0.0018351,-0.00020138,0,0,0.048749,-0.01694,0,-0.0052359,0,0,0,0.005593,0.00052407,0.0018351,-2.2786,0.0026507,0.0045572,3.5386e-09,0.42,0.58,0
0.022547,-0.00026829,0.0053976,0.00030907,0.001712,-0.00015742,0,0,0.047913,-0.018238,0,-0.004093,0,0,0,0.0054025,0.0003042,0.001712,-1.7703,0.0024729,0.0045604,3.3519e-09,0.44,0.58,0
0.023495,0.00014744,0.0052026,6.7432e-05,0.001581,-0.000121,0,0,0.04708,-0.019676,0,-0.0031461,0,0,0,0.0052054,6.4582e-05,0.001581,-1.3491,0.0022837,0.0045752,3.1588e-09,0.46,0.58,0
0.02443,0.00058117,0.0049862,-0.00024784,0.0014215,-8.9121e-05,0,0,0.046341,-0.021701,0,-0.0023172,0,0,0,0.0049877,-0.00024935,0.0014215,-0.97522,0.0020533,0.0046333,2.9598e-09,0.48,0.58,0
0.025349,0.0010013,0.0047484,-0.00061513,0.00124,-0.0001134,0,0,0.045609,-0.024116,0,-0.0029483,0,0,0,0.0047508,-0.00061752,0.00124,-1.2106,0.0017911,0.004722,2.724e-09,0.5,0.58,0
0.026254,0.0013591,0.0045059,-0.00087801,0.0010884,-0.000169,0,0,0.044428,-0.025563,0,-0.0043941,0,0,0,0.0045112,-0.00088331,0.0010884,-1.7962,0.0015721,0.0047278,2.4204e-09,0.52,0.58,0
0.027126,0.0016208,0.0042766,-0.00095596,0.00099619,-0.00020913,0,0,0.042645,-0.025378,0,-0.0054374,0,0,0,0.0042849,-0.00096431,0.00099619,-2.2851,0.0014389,0.0045942,2.0997e-09,0.54,0.58,0
0.02796,0.0017879,0.0040917,-0.00093379,0.00094739,-0.00016482,0,0,0.040877,-0.024455,0,-0.0042852,0,0,0,0.0040971,-0.00093919,0.00094739,-1.8764,0.0013684,0.0044071,1.8383e-09,0.56,0.58,0
0.028761,0.0018772,0.0039745,-0.00093438,0.00091204,-5.9466e-05,0,0,0.039812,-0.024004,0,-0.0015461,0,0,0,0.0039752,-0.0009351,0.00091204,-0.69395,0.0013174,0.0042957,1.6826e-09,0.58,0.58,0
0.029552,0.001902,0.0039717,-0.00096624,0.00090166,6.6132e-05,0,0,0.039911,-0.024283,0,0.0017194,0,0,0,0.0039726,-0.00096712,0.00090166,0.76714,0.0013024,0.00432,1.6838e-09,0.6,0.58,0
0.030358,0.001861,0.0040844,-0.0010302,0.00091627,0.00016696,0,0,0.041186,-0.025304,0,0.004341,0,0,0,0.0040899,-0.0010357,0.00091627,1.8677,0.0013235,0.0044807,1.8428e-09,0.62,0.58,0
0.0312,0.0017379,0.0042661,-0.0011193,0.00094405,0.00020022,0,0,0.043186,-0.026823,0,0.0052057,0,0,0,0.0042735,-0.0011267,0.00094405,2.1263,0.0013636,0.0047189,2.1082e-09,0.64,0.58,0
0.032085,0.0015122,0.0044922,-0.0011069,0.0010156,0.00013962,0,0,0.045195,-0.027592,0,0.0036301,0,0,0,0.0044956,-0.0011104,0.0010156,1.4276,0.001467,0.0049019,2.4429e-09,0.66,0.58,0
0.033008,0.0011781,0.0047304,-0.00089766,0.0011498,5.5067e-05,0,0,0.046547,-0.026617,0,0.0014317,0,0,0,0.0047309,-0.0008982,0.0011498,0.56053,0.0016608,0.0049349,2.7837e-09,0.68,0.58,0
0.033947,0.00076739,0.0049629,-0.00056583,0.0013191,-7.2159e-07,0,0,0.047369,-0.024504,0,-1.8761e-05,0,0,0,0.0049629,-0.00056583,0.0013191,-0.0074781,0.0019054,0.0048681,3.0714e-09,0.7,0.58,0
0.034903,0.00032939,0.0051723,-0.00027749,0.0014684,2.1003e-06,0,0,0.04815,-0.022697,0,5.4608e-05,0,0,0,0.0051723,-0.00027749,0.0014684,0.022082,0.0021211,0.0048201,3.3118e-09,0.72,0.58,0
0.035873,-0.0001026,0.00536,-6.1766e-05,0.0015895,1.231e-05,0,0,0.049017,-0.021466,0,0.00032006,0,0,0,0.0053601,-6.1795e-05,0.0015895,0.13009,0.0022959,0.0048135,3.5386e-09,0.74,0.58,0
0.036863,-0.00051111,0.0055416,0.00013465,0.0017029,3.1514e-05,0,0,0.049904,-0.020387,0,0.00081935,0,0,0,0.0055418,0.00013446,0.0017029,0.33392,0.0024597,0.0048185,3.7608e-09,0.76,0.58,0
0.037869,-0.00088715,0.0056963,0.00029227,0.0017966,5.8533e-05,0,0,0.050697,-0.019556,0,0.0015219,0,0,0,0.005697,0.00029164,0.0017966,0.62049,0.0025951,0.004832,3.9557e-09,0.78,0.58,0
0.038891,-0.0012226,0.0058345,0.00040964,0.0018732,9.3439e-05,0,0,0.051496,-0.019027,0,0.0024294,0,0,0,0.0058361,0.00040803,0.0018732,0.98648,0.0027058,0.0048639,4.1521e-09,0.8,0.58,0
0.039929,-0.0015132,0.0059602,0.00048408,0.0019333,0.00012911,0,0,0.05235,-0.018839,0,0.0033569,0,0,0,0.0059632,0.00048104,0.0019333,1.3499,0.0027925,0.0049195,4.3663e-09,0.82,0.58,0
0.040985,-0.0017579,0.0060768,0.00052149,0.0019795,0.00015866,0,0,0.053265,-0.018954,0,0.0041251,0,0,0,0.0060813,0.00051696,0.0019795,1.6346,0.0028592,0.0049963,4.6037e-09,0.84,0.58,0
0.04206,-0.001959,0.006184,0.00053056,0.0020144,0.00017688,0,0,0.054205,-0.01929,0,0.004599,0,0,0,0.0061896,0.00052503,0.0020144,1.7903,0.0029097,0.0050861,4.8551e-09,0.86,0.58,0
0.043153,-0.0021205,0.0062804,0.00052105,0.0020404,0.00018161,0,0,0.05512,-0.019752,0,0.0047219,0,0,0,0.0062861,0.00051533,0.0020404,1.8043,0.0029473,0.0051795,5.1057e-09,0.88,0.58,0
0.044265,-0.0022472,0.0063641,0.00050132,0.0020596,0.00017299,0,0,0.055958,-0.020258,0,0.0044978,0,0,0,0.0063692,0.00049622,0.0020596,1.6887,0.002975,0.0052682,5.3399e-09,0.9,0.58,0
0.045392,-0.0023437,0.0064335,0.00047792,0.0020734,0.00015261,0,0,0.056681,-0.020742,0,0.0039677,0,0,0,0.0064374,0.00047401,0.0020734,1.4669,0.002995,0.0053463,5.545e-09,0.92,0.58,0
0.046532,-0.0024143,0.0064879,0.00045556,0.002083,0.00012269,0,0,0.057264,-0.021157,0,0.0031899,0,0,0,0.0064904,0.00045307,0.002083,1.1647,0.0030088,0.0054098,5.7118e-09,0.94,0.58,0
0.047682,-0.0024623,0.0065269,0.00043752,0.0020893,8.5677e-05,0,0,0.057688,-0.021473,0,0.0022276,0,0,0,0.0065281,0.00043632,0.0020893,0.80593,0.0030179,0.0054564,5.8345e-09,0.96,0.58,0
0.048839,-0.0024901,0.0065503,0.00042592,0.0020929,4.3994e-05,0,0,0.057947,-0.02167,0,0.0011438,0,0,0,0.0065506,0.0004256,0.0020929,0.41155,0.003023,0.0054848,5.9093e-09,0.98,0.58,0
0.05,-0.0024992,0.0065581,0.00042193,0.002094,-1.7515e-05,0,0,0.058033,-0.021737,0,-0.00045539,0,0,0,0.0065581,0.00042187,0.002094,-0.16354,0.0030247,0.0054945,5.9347e-09,1,0.58,0
0,0,0.0061411,0.0026319,0.0026319,-0.00062034,0,0,0.04562,5.421e-20,0,-0.016129,0,0,0,0.0062476,0.0025255,0.0026319,-9.7354,0.0038017,0.00367,2.5316e-09,0,0.6,0
0.0009124,-0.00032257,0.0061268,0.0024671,0.0025781,-0.0006186,0,0,0.046132,-0.0014442,0,-0.016084,0,0,0,0.0062285,0.0023653,0.0025781,-9.3391,0.003724,0.0037613,2.7035e-09,0.02,0.6,0
0.0018453,-0.00061674,0.0061798,0.0023301,0.002553,-0.00059442,0,0,0.047149,-0.0028977,0,-0.015455,0,0,0,0.0062695,0.0022404,0.002553,-8.5806,0.0036876,0.0038823,2.9397e-09,0.04,0.6,0
0.0027984,-0.00088497,0.0062303,0.0021943,0.0025274,-0.0005765,0,0,0.048139,-0.0043304,0,-0.014989,0,0,0,0.0063111,0.0021136,0.0025274,-7.9717,0.0036507,0.0040067,3.185e-09,0.06,0.6,0
0.0037708,-0.0011291,0.0062768,0.0020619,0.0025016,-0.00056335,0,0,0.049077,-0.0057158,0,-0.014647,0,0,0,0.0063508,0.0019879,0.0025016,-7.4832,0.0036134,0.00413,3.4302e-09,0.08,0.6,0
0.0047615,-0.0013502,0.0063177,0.001935,0.0024758,-0.0005537,0,0,0.049945,-0.0070309,0,-0.014396,0,0,0,0.0063866,0.0018661,0.0024758,-7.0901,0.0035762,0.0042486,3.6667e-09,0.1,0.6,0
0.0057686,-0.0015491,0.0063517,0.001815,0.00245,-0.00054642,0,0,0.050722,-0.0082554,0,-0.014207,0,0,0,0.0064166,0.0017501,0.00245,-6.772,0.0035389,0.0043589,3.8864e-09,0.12,0.6,0
0.0067903,-0.0017258,0.0063775,0.0017033,0.0024242,-0.00054055,0,0,0.051392,-0.0093722,0,-0.014054,0,0,0,0.0064392,0.0016416,0.0024242,-6.5116,0.0035016,0.0044581,4.0818e-09,0.14,0.6,0
0.0078243,-0.0018801,0.0063938,0.0016009,0.0023984,-0.00053516,0,0,0.05194,-0.010367,0,-0.013914,0,0,0,0.0064529,0.0015419,0.0023984,-6.2942,0.0034644,0.0045436,4.2463e-09,0.16,0.6,0
0.0088679,-0.0020113,0.0063996,0.0015086,0.0023725,-0.00052929,0,0,0.052353,-0.01123,0,-0.013762,0,0,0,0.0064563,0.001452,0.0023725,-6.1062,0.0034269,0.0046134,4.374e-09,0.18,0.6,0
0.0099184,-0.0021181,0.0063939,0.0014264,0.0023461,-0.00052194,0,0,0.052621,-0.011956,0,-0.01357,0,0,0,0.0064481,0.0013722,0.0023461,-5.9339,0.0033888,0.0046659,4.4603e-09,0.2,0.6,0
0.010973,-0.002199,0.0063756,0.0013541,0.0023189,-0.00051195,0,0,0.052737,-0.012542,0,-0.013311,0,0,0,0.0064272,0.0013024,0.0023189,-5.7624,0.0033495,0.0046997,4.5022e-09,0.22,0.6,0
0.012028,-0.0022519,0.0063441,0.0012907,0.0022904,-0.00049797,0,0,0.052698,-0.012997,0,-0.012947,0,0,0,0.0063927,0.0012421,0.0022904,-5.5746,0.0033084,0.0047147,4.4983e-09,0.24,0.6,0
0.013081,-0.0022742,0.006302,0.0012301,0.0022596,-0.00049976,0,0,0.052551,-0.013384,0,-0.012994,0,0,0,0.0063508,0.0011813,0.0022596,-5.5743,0.0032639,0.0047235,4.4765e-09,0.26,0.6,0
0.014128,-0.0022628,0.0062291,0.0011734,0.0022207,-0.00045235,0,0,0.052108,-0.013616,0,-0.011761,0,0,0,0.0062692,0.0011332,0.0022207,-5.0728,0.0032077,0.0046878,4.3463e-09,0.28,0.6,0
0.015168,-0.0022142,0.0061682,0.0011305,0.0021896,-0.0004168,0,0,0.051722,-0.013768,0,-0.010837,0,0,0,0.0062025,0.0010963,0.0021896,-4.6978,0.0031628,0.0046568,4.2386e-09,0.3,0.6,0
0.016197,-0.002125,0.0060841,0.0010736,0.0021473,-0.00037205,0,0,0.051179,-0.013959,0,-0.0096732,0,0,0,0.0061116,0.0010461,0.0021473,-4.2235,0.0031017,0.0046145,4.0941e-09,0.32,0.6,0
0.017215,-0.0019916,0.0059892,0.0010048,0.0020982,-0.00031765,0,0,0.050583,-0.014214,0,-0.0082589,0,0,0,0.0060094,0.0009846,0.0020982,-3.6318,0.0030307,0.0045709,3.9407e-09,0.34,0.6,0
0.01822,-0.0018113,0.0058849,0.00091681,0.0020405,-0.00025504,0,0,0.049977,-0.014608,0,-0.0066311,0,0,0,0.0058979,0.00090375,0.0020405,-2.9311,0.0029474,0.004534,3.7916e-09,0.36,0.6,0
0.019214,-0.001583,0.0057718,0.00080288,0.0019724,-0.00018717,0,0,0.049392,-0.015204,0,-0.0048664,0,0,0,0.0057789,0.00079584,0.0019724,-2.1541,0.002849,0.0045113,3.6563e-09,0.38,0.6,0
0.020196,-0.0013076,0.0056503,0.00065857,0.0018927,-0.00011805,0,0,0.048849,-0.016043,0,-0.0030693,0,0,0,0.0056531,0.00065578,0.0018927,-1.354,0.0027338,0.004508,3.5381e-09,0.4,0.6,0
0.021168,-0.00098886,0.0055195,0.00048138,0.0018003,-5.1052e-05,0,0,0.048351,-0.017146,0,-0.0013274,0,0,0,0.0055201,0.00048087,0.0018003,-0.58051,0.0026004,0.0045261,3.4331e-09,0.42,0.6,0
0.02213,-0.00063301,0.0053843,0.00027298,0.0016972,1.0542e-05,0,0,0.047933,-0.018515,0,0.00027408,0,0,0,0.0053843,0.00027295,0.0016972,0.11817,0.0024515,0.0045689,3.3416e-09,0.44,0.6,0
0.023085,-0.00025065,0.0052464,2.502e-05,0.0015814,6.3072e-05,0,0,0.047645,-0.020233,0,0.0016399,0,0,0,0.0052472,2.4258e-05,0.0015814,0.69197,0.0022843,0.0046444,3.2633e-09,0.46,0.6,0
0.024036,0.0001411,0.0051087,-0.00026244,0.0014539,9.0643e-05,0,0,0.047512,-0.022312,0,0.0023567,0,0,0,0.0051102,-0.00026397,0.0014539,0.96656,0.0021,0.004754,3.1881e-09,0.48,0.6,0
0.024986,0.0005156,0.0049659,-0.00056318,0.0013208,8.1347e-05,0,0,0.047386,-0.024492,0,0.002115,0,0,0,0.004967,-0.00056437,0.0013208,0.84274,0.0019078,0.0048706,3.0783e-09,0.5,0.6,0
0.025931,0.00084131,0.0048221,-0.00080493,0.0012052,3.6227e-05,0,0,0.04702,-0.026131,0,0.00094189,0,0,0,0.0048223,-0.00080516,0.0012052,0.36885,0.0017408,0.0049393,2.9136e-09,0.52,0.6,0
0.026866,0.0010942,0.0046882,-0.00094131,0.001124,-8.5514e-06,0,0,0.046333,-0.02685,0,-0.00022234,0,0,0,0.0046882,-0.00094133,0.001124,-0.087035,0.0016236,0.0049325,2.7227e-09,0.54,0.6,0
0.027785,0.001266,0.0045764,-0.0010009,0.0010727,-2.5251e-05,0,0,0.045549,-0.026956,0,-0.00065652,0,0,0,0.0045765,-0.001001,0.0010727,-0.25939,0.0015494,0.0048829,2.552e-09,0.56,0.6,0
0.028688,0.0013595,0.0045114,-0.0010297,0.0010445,-8.2588e-06,0,0,0.04507,-0.026964,0,-0.00021473,0,0,0,0.0045115,-0.0010297,0.0010445,-0.085398,0.0015088,0.004849,2.4534e-09,0.58,0.6,0
0.029587,0.0013788,0.0045097,-0.0010594,0.0010351,2.0289e-05,0,0,0.04517,-0.027228,0,0.00052752,0,0,0,0.0045098,-0.0010595,0.0010351,0.20874,0.0014951,0.0048722,2.4565e-09,0.6,0.6,0
0.030495,0.0013224,0.0045713,-0.0010903,0.0010443,3.1345e-05,0,0,0.045851,-0.02775,0,0.00081498,0,0,0,0.0045715,-0.0010905,0.0010443,0.3172,0.0015084,0.0049526,2.5618e-09,0.62,0.6,0
0.031421,0.0011835,0.0046797,-0.0010898,0.001077,1.9253e-06,0,0,0.046835,-0.028168,0,5.0058e-05,0,0,0,0.0046797,-0.0010898,0.001077,0.01912,0.0015556,0.0050478,2.7427e-09,0.64,0.6,0
0.032369,0.00095596,0.0048094,-0.0010088,0.0011402,-6.2859e-05,0,0,0.0477,-0.027937,0,-0.0016343,0,0,0,0.0048101,-0.0010095,0.0011402,-0.61892,0.0016469,0.0050969,2.9524e-09,0.66,0.6,0
0.033329,0.00064538,0.0049476,-0.0008142,0.00124,-0.00013399,0,0,0.048198,-0.026705,0,-0.0034836,0,0,0,0.0049507,-0.00081731,0.00124,-1.3314,0.0017911,0.0050632,3.1493e-09,0.68,0.6,0
0.034297,0.00027408,0.0050831,-0.00055035,0.0013598,-0.00017205,0,0,0.048403,-0.024832,0,-0.0044733,0,0,0,0.0050883,-0.0005556,0.0013598,-1.7477,0.0019642,0.0049712,3.2988e-09,0.7,0.6,0
0.035266,-0.00012663,0.0052121,-0.00029289,0.0014758,-0.00017305,0,0,0.048572,-0.022992,0,-0.0044993,0,0,0,0.0052175,-0.00029832,0.0014758,-1.7987,0.0021317,0.0048771,3.4102e-09,0.72,0.6,0
0.036239,-0.00052942,0.0053407,-7.2254e-05,0.0015805,-0.00014781,0,0,0.048882,-0.021486,0,-0.0038431,0,0,0,0.0053447,-7.6288e-05,0.0015805,-1.563,0.002283,0.0048115,3.5183e-09,0.74,0.6,0
0.037221,-0.00091624,0.0054673,0.00010881,0.0016728,-0.00011236,0,0,0.049328,-0.020332,0,-0.0029213,0,0,0,0.0054697,0.00010645,0.0016728,-1.2007,0.0024163,0.0047767,3.6358e-09,0.76,0.6,0
0.038213,-0.0012757,0.0055908,0.00025697,0.0017543,-7.0823e-05,0,0,0.049875,-0.019466,0,-0.0018414,0,0,0,0.0055918,0.00025603,0.0017543,-0.76059,0.002534,0.0047666,3.7657e-09,0.78,0.6,0
0.039216,-0.0016006,0.005707,0.00036923,0.0018229,-2.6885e-05,0,0,0.050494,-0.018898,0,-0.00069901,0,0,0,0.0057072,0.00036909,0.0018229,-0.28857,0.0026331,0.00478,3.9096e-09,0.8,0.6,0
0.040232,-0.0018866,0.0058168,0.0004468,0.0018791,1.5615e-05,0,0,0.051191,-0.01862,0,0.00040599,0,0,0,0.0058169,0.00044676,0.0018791,0.16661,0.0027142,0.0048164,4.0738e-09,0.82,0.6,0
0.041264,-0.0021323,0.0059201,0.00049319,0.001924,5.2126e-05,0,0,0.05195,-0.0186,0,0.0013553,0,0,0,0.0059206,0.00049269,0.001924,0.55026,0.0027791,0.0048726,4.2586e-09,0.84,0.6,0
0.04231,-0.0023385,0.0060161,0.00051462,0.0019592,7.917e-05,0,0,0.05274,-0.01878,0,0.0020584,0,0,0,0.0060173,0.00051348,0.0019592,0.82429,0.00283,0.0049422,4.4578e-09,0.86,0.6,0
0.043373,-0.0025077,0.0061033,0.00051814,0.0019864,9.4881e-05,0,0,0.05352,-0.019088,0,0.0024669,0,0,0,0.006105,0.00051653,0.0019864,0.97296,0.0028693,0.0050176,4.6601e-09,0.88,0.6,0
0.044451,-0.0026431,0.0061799,0.00051046,0.0020071,9.9039e-05,0,0,0.054247,-0.019457,0,0.002575,0,0,0,0.0061817,0.00050873,0.0020071,1.0005,0.0028992,0.0050919,4.8532e-09,0.9,0.6,0
0.045543,-0.0027482,0.0062443,0.00049723,0.0020225,9.2632e-05,0,0,0.054884,-0.019828,0,0.0024084,0,0,0,0.0062458,0.00049574,0.0020225,0.92318,0.0029213,0.005159,5.0257e-09,0.92,0.6,0
0.046647,-0.0028263,0.0062953,0.00048283,0.0020334,7.7379e-05,0,0,0.055404,-0.020158,0,0.0020119,0,0,0,0.0062963,0.00048181,0.0020334,0.76258,0.0029372,0.0052148,5.1684e-09,0.94,0.6,0
0.047759,-0.00288,0.0063322,0.00047045,0.0020408,5.5365e-05,0,0,0.055788,-0.020414,0,0.0014395,0,0,0,0.0063327,0.00046993,0.0020408,0.54111,0.0029478,0.0052564,5.2747e-09,0.96,0.6,0
0.048878,-0.0029114,0.0063544,0.00046221,0.002045,2.8817e-05,0,0,0.056023,-0.020576,0,0.00074924,0,0,0,0.0063545,0.00046207,0.002045,0.28021,0.0029539,0.005282,5.3401e-09,0.98,0.6,0
0.05,-0.0029217,0.0063618,0.00045933,0.0020464,-1.9873e-05,0,0,0.056101,-0.020631,0,-0.00051671,0,0,0,0.0063619,0.00045926,0.0020464,-0.19291,0.0029558,0.0052908,5.3624e-09,1,0.6,0
0,0,0.0060533,0.0025943,0.0025943,-0.00067403,0,0,0.044967,2.1684e-19,0,-0.017525,0,0,0,0.00618,0.0024676,0.0025943,-10.646,0.0037473,0.0036507,2.4888e-09,0,0.62,0
0.00089935,-0.00035049,0.00604,0.0024393,0.0025438,-0.00067151,0,0,0.045451,-0.0013587,0,-0.017459,0,0,0,0.0061612,0.0023181,0.0025438,-10.227,0.0036743,0.0037353,2.6439e-09,0.02,0.62,0
0.001818,-0.00067295,0.0060898,0.0023084,0.0025195,-0.00064572,0,0,0.046415,-0.002744,0,-0.016789,0,0,0,0.006197,0.0022011,0.0025195,-9.4281,0.0036392,0.0038466,2.8558e-09,0.04,0.62,0
0.0027559,-0.00096921,0.0061373,0.0021772,0.0024943,-0.0006245,0,0,0.047358,-0.0041232,0,-0.016237,0,0,0,0.0062334,0.002081,0.0024943,-8.7525,0.0036029,0.003962,3.0772e-09,0.06,0.62,0
0.0037124,-0.0012405,0.0061808,0.0020481,0.0024687,-0.00060649,0,0,0.048257,-0.0054672,0,-0.015769,0,0,0,0.006268,0.0019609,0.0024687,-8.1787,0.0035659,0.0040769,3.2991e-09,0.08,0.62,0
0.0046862,-0.0014876,0.0062187,0.0019233,0.0024426,-0.00059052,0,0,0.049089,-0.0067508,0,-0.015354,0,0,0,0.0062984,0.0018436,0.0024426,-7.687,0.0035282,0.0041875,3.5126e-09,0.1,0.62,0
0.0056759,-0.0017106,0.0062496,0.0018045,0.0024162,-0.00057561,0,0,0.049834,-0.0079523,0,-0.014966,0,0,0,0.0063229,0.0017312,0.0024162,-7.2599,0.0034901,0.0042904,3.7101e-09,0.12,0.62,0
0.0066796,-0.0019095,0.0062723,0.0016932,0.0023896,-0.00056086,0,0,0.050474,-0.0090536,0,-0.014582,0,0,0,0.0063399,0.0016255,0.0023896,-6.8823,0.0034517,0.0043826,3.8841e-09,0.14,0.62,0
0.0076949,-0.0020835,0.0062855,0.0015904,0.0023627,-0.00054545,0,0,0.050995,-0.010041,0,-0.014182,0,0,0,0.006348,0.0015279,0.0023627,-6.5403,0.0034129,0.0044617,4.0284e-09,0.16,0.62,0
0.0087194,-0.0022319,0.0062882,0.0014967,0.0023355,-0.00052857,0,0,0.051386,-0.010904,0,-0.013743,0,0,0,0.0063459,0.0014391,0.0023355,-6.2208,0.0033735,0.0045257,4.1381e-09,0.18,0.62,0
0.0097503,-0.0023532,0.0062797,0.0014122,0.0023076,-0.00050933,0,0,0.051638,-0.01164,0,-0.013243,0,0,0,0.0063325,0.0013595,0.0023076,-5.91,0.0033332,0.0045733,4.2095e-09,0.2,0.62,0
0.010785,-0.002446,0.0062594,0.0013365,0.0022788,-0.00048676,0,0,0.051748,-0.01225,0,-0.012656,0,0,0,0.0063071,0.0012888,0.0022788,-5.593,0.0032915,0.0046038,4.2409e-09,0.22,0.62,0
0.01182,-0.0025083,0.0062268,0.0012684,0.0022486,-0.00045977,0,0,0.051717,-0.012742,0,-0.011954,0,0,0,0.0062691,0.0012261,0.0022486,-5.2531,0.0032479,0.0046175,4.2325e-09,0.24,0.62,0
0.012854,-0.0025378,0.006188,0.0012103,0.0022195,-0.00042775,0,0,0.051591,-0.01312,0,-0.011121,0,0,0,0.0062245,0.0011738,0.0022195,-4.8759,0.0032059,0.0046175,4.1955e-09,0.26,0.62,0
0.013882,-0.002532,0.0061179,0.0011435,0.0021784,-0.00036335,0,0,0.051213,-0.013453,0,-0.0094471,0,0,0,0.0061443,0.0011171,0.0021784,-4.1558,0.0031466,0.0045895,4.084e-09,0.28,0.62,0
0.014904,-0.0024883,0.0060577,0.0010861,0.0021431,-0.00034091,0,0,0.050889,-0.013742,0,-0.0088637,0,0,0,0.0060809,0.0010628,0.0021431,-3.9045,0.0030956,0.0045747,4.0079e-09,0.3,0.62,0
0.015918,-0.002404,0.0059803,0.0010199,0.0021001,-0.00028576,0,0,0.050443,-0.014042,0,-0.0074298,0,0,0,0.0059967,0.0010035,0.0021001,-3.2862,0.0030335,0.0045452,3.8928e-09,0.32,0.62,0
0.016922,-0.0022768,0.0058949,0.00094266,0.0020513,-0.00022277,0,0,0.049967,-0.014412,0,-0.0057919,0,0,0,0.0059049,0.00093266,0.0020513,-2.5704,0.0029629,0.004518,3.7757e-09,0.34,0.62,0
0.017917,-0.0021055,0.0058032,0.00084841,0.0019955,-0.00015326,0,0,0.0495,-0.014912,0,-0.0039849,0,0,0,0.0058079,0.00084367,0.0019955,-1.7701,0.0028824,0.0045003,3.6676e-09,0.36,0.62,0
0.018902,-0.00189,0.0057068,0.00073199,0.0019316,-7.9652e-05,0,0,0.049077,-0.015595,0,-0.002071,0,0,0,0.0057081,0.00073072,0.0019316,-0.91706,0.0027901,0.0044988,3.577e-09,0.38,0.62,0
0.01988,-0.0016321,0.0056075,0.00058932,0.001859,-5.0772e-06,0,0,0.04873,-0.016506,0,-0.00013201,0,0,0,0.0056075,0.00058931,0.001859,-0.05797,0.0026853,0.0045191,3.5088e-09,0.4,0.62,0
0.020851,-0.001336,0.0055078,0.00041811,0.0017778,6.6651e-05,0,0,0.048491,-0.017676,0,0.0017329,0,0,0,0.0055087,0.00041724,0.0017778,0.75013,0.0025679,0.0045658,3.465e-09,0.42,0.62,0
0.021819,-0.0010089,0.0054105,0.00021603,0.001688,0.00013086,0,0,0.048393,-0.019135,0,0.0034023,0,0,0,0.0054138,0.00021273,0.001688,1.4422,0.0024382,0.0046427,3.4446e-09,0.44,0.62,0
0.022787,-0.00066189,0.0053183,-1.6791e-05,0.0015904,0.00017964,0,0,0.048462,-0.020894,0,0.0046705,0,0,0,0.0053243,-2.2833e-05,0.0015904,1.9263,0.0022973,0.0047506,3.4421e-09,0.46,0.62,0
0.023758,-0.00031131,0.0052305,-0.00027343,0.0014871,0.00020327,0,0,0.048663,-0.022887,0,0.0052851,0,0,0,0.0052379,-0.00028093,0.0014871,2.1123,0.002148,0.0048812,3.4394e-09,0.48,0.62,0
0.024734,2.1603e-05,0.0051453,-0.00052898,0.0013849,0.00019365,0,0,0.048885,-0.02488,0,0.005035,0,0,0,0.0051519,-0.00053558,0.0013849,1.9524,0.0020004,0.0050113,3.4109e-09,0.5,0.62,0
0.025713,0.00031391,0.0050627,-0.00074599,0.001295,0.00015556,0,0,0.04898,-0.026533,0,0.0040446,0,0,0,0.0050668,-0.00075016,0.001295,1.533,0.0018706,0.0051111,3.3428e-09,0.52,0.62,0
0.026693,0.00054681,0.0049861,-0.00089934,0.001226,0.00010469,0,0,0.048881,-0.02763,0,0.0027219,0,0,0,0.004988,-0.0009012,0.001226,1.0187,0.001771,0.0051653,3.2479e-09,0.54,0.62,0
0.027668,0.00070962,0.0049244,-0.00099177,0.0011798,5.8953e-05,0,0,0.04868,-0.02823,0,0.0015328,0,0,0,0.004925,-0.00099236,0.0011798,0.57086,0.0017041,0.0051846,3.1575e-09,0.56,0.62,0
0.02864,0.00079858,0.0048882,-0.0010438,0.0011533,2.3794e-05,0,0,0.048554,-0.028563,0,0.00061865,0,0,0,0.0048883,-0.0010439,0.0011533,0.22982,0.0016659,0.0051947,3.1035e-09,0.58,0.62,0
0.029611,0.00081282,0.0048865,-0.0010708,0.0011447,-7.8795e-06,0,0,0.048643,-0.028801,0,-0.00020487,0,0,0,0.0048865,-0.0010708,0.0011447,-0.075783,0.0016535,0.0052153,3.1069e-09,0.6,0.62,0
0.030586,0.00075096,0.0049189,-0.0010724,0.0011539,-4.9312e-05,0,0,0.048944,-0.028942,0,-0.0012821,0,0,0,0.0049193,-0.0010728,0.0011539,-0.47153,0.0016668,0.005246,3.1686e-09,0.62,0.62,0
0.031568,0.0006112,0.0049764,-0.001032,0.0011833,-0.0001077,0,0,0.049309,-0.028799,0,-0.0028003,0,0,0,0.0049783,-0.0010339,0.0011833,-1.0266,0.0017092,0.0052661,3.27e-09,0.64,0.62,0
0.032558,0.00039467,0.0050475,-0.00092695,0.0012362,-0.00017734,0,0,0.049547,-0.02812,0,-0.0046107,0,0,0,0.0050527,-0.00093221,0.0012362,-1.6987,0.0017855,0.0052482,3.3825e-09,0.66,0.62,0
0.03355,0.00010987,0.0051231,-0.00075242,0.0013112,-0.00023907,0,0,0.049555,-0.026827,0,-0.006216,0,0,0,0.0051328,-0.00076214,0.0013112,-2.3262,0.001894,0.0051795,3.476e-09,0.68,0.62,0
0.03454,-0.0002259,0.0051995,-0.00053283,0.0014,-0.00027525,0,0,0.049394,-0.025127,0,-0.0071564,0,0,0,0.0052127,-0.00054601,0.0014,-2.7427,0.0020223,0.0050738,3.5351e-09,0.7,0.62,0
0.035526,-0.00059031,0.0052773,-0.00030706,0.0014911,-0.00027917,0,0,0.049221,-0.023376,0,-0.0072583,0,0,0,0.0052912,-0.00032098,0.0014911,-2.8548,0.0021537,0.0049609,3.5676e-09,0.72,0.62,0
0.036509,-0.00096204,0.0053587,-0.00010253,0.0015768,-0.00025786,0,0,0.049164,-0.021832,0,-0.0067043,0,0,0,0.0053708,-0.00011468,0.0015768,-2.6973,0.0022777,0.0048655,3.5958e-09,0.74,0.62,0
0.037493,-0.0013244,0.0054453,7.1625e-05,0.0016551,-0.00022075,0,0,0.049273,-0.020585,0,-0.0057396,0,0,0,0.0054543,6.2572e-05,0.0016551,-2.3485,0.0023907,0.004798,3.6378e-09,0.76,0.62,0
0.03848,-0.0016658,0.005535,0.00021356,0.0017246,-0.0001759,0,0,0.049536,-0.019643,0,-0.0045735,0,0,0,0.0055409,0.00020775,0.0017246,-1.8912,0.0024911,0.0047596,3.7008e-09,0.78,0.62,0
0.039474,-0.0019785,0.0056258,0.00032424,0.001785,-0.00012829,0,0,0.04993,-0.01899,0,-0.0033354,0,0,0,0.0056289,0.00032114,0.001785,-1.3853,0.0025784,0.0047482,3.7877e-09,0.8,0.62,0
0.040477,-0.0022579,0.0057152,0.00040484,0.001836,-8.206e-05,0,0,0.05043,-0.018605,0,-0.0021336,0,0,0,0.0057165,0.00040357,0.001836,-0.88509,0.002652,0.0047612,3.8985e-09,0.82,0.62,0
0.041491,-0.0025019,0.0058018,0.00045853,0.0018781,-4.0753e-05,0,0,0.051008,-0.018454,0,-0.0010596,0,0,0,0.0058021,0.00045822,0.0018781,-0.43696,0.0027128,0.0047943,4.0311e-09,0.84,0.62,0
0.042517,-0.0027102,0.0058838,0.00048991,0.0019121,-7.1105e-06,0,0,0.051632,-0.018489,0,-0.00018487,0,0,0,0.0058838,0.0004899,0.0019121,-0.075529,0.0027619,0.0048421,4.1795e-09,0.86,0.62,0
0.043556,-0.0028841,0.0059594,0.00050433,0.0019391,1.7275e-05,0,0,0.052264,-0.018652,0,0.00044914,0,0,0,0.0059595,0.00050427,0.0019391,0.18144,0.0028009,0.004898,4.3348e-09,0.88,0.62,0
0.044608,-0.0030255,0.0060266,0.00050713,0.0019601,3.1987e-05,0,0,0.052865,-0.018889,0,0.00083166,0,0,0,0.0060268,0.00050695,0.0019601,0.33203,0.0028313,0.0049557,4.4865e-09,0.9,0.62,0
0.045671,-0.0031369,0.0060838,0.00050308,0.0019761,3.7602e-05,0,0,0.0534,-0.019149,0,0.00097764,0,0,0,0.006084,0.00050283,0.0019761,0.38602,0.0028543,0.0050098,4.6247e-09,0.92,0.62,0
0.046744,-0.0032206,0.0061295,0.00049606,0.0019877,3.5394e-05,0,0,0.053844,-0.019391,0,0.00092025,0,0,0,0.0061298,0.00049584,0.0019877,0.35996,0.0028711,0.0050559,4.741e-09,0.94,0.62,0
0.047825,-0.0032789,0.0061629,0.00048903,0.0019956,2.7074e-05,0,0,0.054175,-0.019585,0,0.00070394,0,0,0,0.006163,0.0004889,0.0019956,0.2734,0.0028825,0.0050908,4.8287e-09,0.96,0.62,0
0.048911,-0.0033131,0.0061831,0.00048401,0.0020001,1.4589e-05,0,0,0.054378,-0.01971,0,0.00037933,0,0,0,0.0061831,0.00048398,0.0020001,0.14667,0.0028891,0.0051126,4.8831e-09,0.98,0.62,0
0.05,-0.0033245,0.0061899,0.00048221,0.0020016,-2.1762e-05,0,0,0.054447,-0.019752,0,-0.00056581,0,0,0,0.0061899,0.00048213,0.0020016,-0.21845,0.0028912,0.0051201,4.9018e-09,1,0.62,0
0,0,0.00597,0.0025586,0.0025586,-0.00072485,0,0,0.044349,-5.421e-20,0,-0.018846,0,0,0,0.0061176,0.0024109,0.0025586,-11.512,0.0036957,0.0036351,2.4533e-09,0,0.64,0
0.00088697,-0.00037692,0.0059575,0.0024109,0.0025105,-0.00072157,0,0,0.044811,-0.0012954,0,-0.018761,0,0,0,0.0060987,0.0022697,0.0025105,-11.071,0.0036263,0.0037145,2.5949e-09,0.02,0.64,0
0.0017924,-0.0007265,0.006005,0.0022843,0.0024868,-0.00069443,0,0,0.045737,-0.0026326,0,-0.018055,0,0,0,0.0061304,0.0021589,0.0024868,-10.235,0.003592,0.0038181,2.7878e-09,0.04,0.64,0
0.0027165,-0.0010499,0.0060504,0.002156,0.0024619,-0.00067002,0,0,0.04665,-0.0039769,0,-0.017421,0,0,0,0.0061624,0.002044,0.0024619,-9.4941,0.0035561,0.0039262,2.99e-09,0.06,0.64,0
0.0036585,-0.0013478,0.0060919,0.0020287,0.0024362,-0.00064718,0,0,0.047524,-0.0052972,0,-0.016827,0,0,0,0.0061925,0.0019281,0.0024362,-8.8349,0.0035189,0.0040344,3.1929e-09,0.08,0.64,0
0.0046174,-0.0016203,0.0061278,0.0019046,0.0024097,-0.00062488,0,0,0.048335,-0.0065662,0,-0.016247,0,0,0,0.0062184,0.0018141,0.0024097,-8.2425,0.0034807,0.0041387,3.3881e-09,0.1,0.64,0
0.0055918,-0.0018672,0.0061569,0.0017858,0.0023828,-0.00060227,0,0,0.049063,-0.0077609,0,-0.015659,0,0,0,0.0062383,0.0017043,0.0023828,-7.7034,0.0034418,0.0042357,3.5678e-09,0.12,0.64,0
0.0065799,-0.002088,0.0061776,0.0016737,0.0023554,-0.00057863,0,0,0.049689,-0.0088622,0,-0.015044,0,0,0,0.0062508,0.0016005,0.0023554,-7.205,0.0034022,0.0043225,3.7252e-09,0.14,0.64,0
0.0075794,-0.0022818,0.0061891,0.0015694,0.0023276,-0.00055329,0,0,0.050201,-0.0098561,0,-0.014386,0,0,0,0.0062545,0.0015041,0.0023276,-6.7352,0.003362,0.0043969,3.8546e-09,0.16,0.64,0
0.0085879,-0.0024475,0.0061824,0.0014683,0.0022952,-0.0005409,0,0,0.050533,-0.010749,0,-0.014063,0,0,0,0.0062436,0.0014071,0.0022952,-6.4624,0.0033153,0.0044593,3.9523e-09,0.18,0.64,0
0.0096029,-0.0025837,0.0061792,0.0013817,0.0022683,-0.00051581,0,0,0.050842,-0.011525,0,-0.013411,0,0,0,0.006234,0.0013269,0.0022683,-6.0679,0.0032764,0.0045107,4.0304e-09,0.2,0.64,0
0.010622,-0.002689,0.0061598,0.0013048,0.0022394,-0.00048505,0,0,0.050966,-0.01215,0,-0.012611,0,0,0,0.0062078,0.0012568,0.0022394,-5.6498,0.0032347,0.0045402,4.0581e-09,0.22,0.64,0
0.011642,-0.0027616,0.0061277,0.0012335,0.0022084,-0.00042019,0,0,0.050951,-0.012673,0,-0.010925,0,0,0,0.0061635,0.0011977,0.0022084,-4.8716,0.0031899,0.0045455,4.0315e-09,0.24,0.64,0
0.01266,-0.0027996,0.0060866,0.0011654,0.0021756,-0.00037783,0,0,0.050842,-0.013132,0,-0.0098237,0,0,0,0.0061154,0.0011366,0.0021756,-4.3649,0.0031425,0.0045492,3.9981e-09,0.26,0.64,0
0.013675,-0.002801,0.0060341,0.0010992,0.00214,-0.0003278,0,0,0.050624,-0.01353,0,-0.0085228,0,0,0,0.0060558,0.0010775,0.00214,-3.7837,0.0030911,0.0045412,3.9368e-09,0.28,0.64,0
0.014685,-0.0027639,0.0059728,0.0010314,0.0021013,-0.00027131,0,0,0.05033,-0.013908,0,-0.0070539,0,0,0,0.0059876,0.0010166,0.0021013,-3.1333,0.0030352,0.0045272,3.8591e-09,0.3,0.64,0
0.015688,-0.0026867,0.0059041,0.00095802,0.0020586,-0.00020831,0,0,0.049991,-0.014308,0,-0.0054161,0,0,0,0.0059129,0.00094926,0.0020586,-2.4074,0.0029736,0.0045124,3.7747e-09,0.32,0.64,0
0.016685,-0.002568,0.0058419,0.00088747,0.0020188,-0.00016909,0,0,0.049701,-0.014708,0,-0.0043963,0,0,0,0.0058477,0.00088171,0.0020188,-1.9524,0.0029161,0.0045064,3.7103e-09,0.34,0.64,0
0.017674,-0.0024078,0.0057677,0.00081118,0.0019737,-0.00011903,0,0,0.049322,-0.015112,0,-0.0030948,0,0,0,0.0057706,0.00080833,0.0019737,-1.3749,0.0028508,0.0044943,3.6271e-09,0.36,0.64,0
0.018658,-0.0022068,0.0056746,0.00066904,0.0019031,2.7794e-06,0,0,0.04903,-0.016043,0,7.2264e-05,0,0,0,0.0056746,0.00066903,0.0019031,0.031814,0.0027489,0.0045168,3.5687e-09,0.38,0.64,0
0.019637,-0.0019679,0.0055962,0.00051697,0.0018339,8.4131e-05,0,0,0.048909,-0.017121,0,0.0021874,0,0,0,0.0055975,0.00051558,0.0018339,0.9487,0.002649,0.0045678,3.5551e-09,0.4,0.64,0
0.020614,-0.0016959,0.0055224,0.00035154,0.0017622,0.00015366,0,0,0.048883,-0.018338,0,0.0039951,0,0,0,0.005527,0.00034698,0.0017622,1.7006,0.0025454,0.0046373,3.5594e-09,0.42,0.64,0
0.021592,-0.0013984,0.0054547,0.00016078,0.0016846,0.00021259,0,0,0.049011,-0.01981,0,0.0055274,0,0,0,0.0054633,0.00015225,0.0016846,2.2959,0.0024334,0.0047346,3.5881e-09,0.44,0.64,0
0.022574,-0.0010864,0.0053942,-5.2574e-05,0.0016025,0.00025407,0,0,0.049293,-0.021516,0,0.006606,0,0,0,0.0054061,-6.44e-05,0.0016025,2.6649,0.0023147,0.0048565,3.632e-09,0.46,0.64,0
0.023564,-0.00077438,0.0053404,-0.00027894,0.0015184,0.00027088,0,0,0.049686,-0.023366,0,0.0070428,0,0,0,0.0053534,-0.00029197,0.0015184,2.7534,0.0021933,0.0049928,3.675e-09,0.48,0.64,0
0.024562,-0.00047961,0.0052914,-0.00050026,0.0014373,0.00025913,0,0,0.050103,-0.025189,0,0.0067373,0,0,0,0.0053029,-0.00051183,0.0014373,2.5567,0.0020762,0.0051261,3.6988e-09,0.5,0.64,0
0.025568,-0.00022001,0.005246,-0.00069399,0.0013656,0.00022132,0,0,0.050445,-0.026774,0,0.0057543,0,0,0,0.0052542,-0.00070223,0.0013656,2.1309,0.0019725,0.0052381,3.6938e-09,0.52,0.64,0
0.02658,-1.0968e-05,0.0052052,-0.00084361,0.0013085,0.00016655,0,0,0.050657,-0.027977,0,0.0043303,0,0,0,0.0052098,-0.00084819,0.0013085,1.576,0.00189,0.0053184,3.6653e-09,0.54,0.64,0
0.027594,0.00013674,0.0051726,-0.00094557,0.0012681,0.0001049,0,0,0.050758,-0.028778,0,0.0027274,0,0,0,0.0051744,-0.00094736,0.0012681,0.982,0.0018317,0.0053686,3.6302e-09,0.56,0.64,0
0.02861,0.00021698,0.0051533,-0.0010055,0.0012443,4.2155e-05,0,0,0.050817,-0.029249,0,0.001096,0,0,0,0.0051536,-0.0010058,0.0012443,0.39215,0.0017974,0.0053984,3.6077e-09,0.58,0.64,0
0.029627,0.00022672,0.005151,-0.0010296,0.0012364,-2.213e-05,0,0,0.05089,-0.029458,0,-0.00057538,0,0,0,0.0051511,-0.0010296,0.0012364,-0.20515,0.001786,0.0054158,3.6102e-09,0.6,0.64,0
0.030645,0.00016473,0.0051655,-0.0010171,0.0012445,-9.0918e-05,0,0,0.050972,-0.029401,0,-0.0023639,0,0,0,0.0051668,-0.0010184,0.0012445,-0.84232,0.0017976,0.0054204,3.6387e-09,0.62,0.64,0
0.031666,3.1577e-05,0.0051925,-0.00096092,0.0012695,-0.00016449,0,0,0.050999,-0.028995,0,-0.0042767,0,0,0,0.0051969,-0.00096532,0.0012695,-1.5301,0.0018337,0.0054033,3.6825e-09,0.64,0.64,0
0.032685,-0.00016885,0.0052265,-0.00085402,0.0013117,-0.00023655,0,0,0.050892,-0.028155,0,-0.0061502,0,0,0,0.0052357,-0.00086321,0.0013117,-2.2245,0.0018947,0.0053537,3.7246e-09,0.66,0.64,0
0.033701,-0.00042771,0.0052636,-0.0006988,0.0013694,-0.00029601,0,0,0.050624,-0.026887,0,-0.0076964,0,0,0,0.0052782,-0.00071346,0.0013694,-2.8353,0.0019781,0.0052687,3.7485e-09,0.68,0.64,0
0.03471,-0.000731,0.0053027,-0.00051153,0.0014373,-0.00033243,0,0,0.05025,-0.025335,0,-0.0086432,0,0,0,0.0053216,-0.00053047,0.0014373,-3.2617,0.0020762,0.0051579,3.7471e-09,0.7,0.64,0
0.035711,-0.0010616,0.0053452,-0.00031559,0.0015089,-0.00034199,0,0,0.049873,-0.023718,0,-0.0088918,0,0,0,0.0053658,-0.00033618,0.0015089,-3.4447,0.0021795,0.0050395,3.7272e-09,0.72,0.64,0
0.036705,-0.0014027,0.0053936,-0.00013061,0.0015789,-0.00032765,0,0,0.049591,-0.022224,0,-0.008519,0,0,0,0.0054129,-0.00014998,0.0015789,-3.3826,0.0022806,0.0049313,3.7043e-09,0.74,0.64,0
0.037695,-0.0017396,0.0054488,3.2145e-05,0.0016443,-0.00029623,0,0,0.049459,-0.020958,0,-0.0077021,0,0,0,0.005465,1.5992e-05,0.0016443,-3.1211,0.0023751,0.0048446,3.6935e-09,0.76,0.64,0
0.038684,-0.0020614,0.0055106,0.00016843,0.0017037,-0.00025453,0,0,0.049489,-0.019959,0,-0.0066177,0,0,0,0.0055226,0.00015633,0.0017037,-2.7216,0.0024609,0.0047842,3.7045e-09,0.78,0.64,0
0.039675,-0.0023602,0.0055769,0.00027742,0.0017563,-0.00020819,0,0,0.049668,-0.019225,0,-0.0054128,0,0,0,0.005585,0.00026925,0.0017563,-2.2462,0.0025369,0.0047502,3.7409e-09,0.8,0.64,0
0.04067,-0.0026308,0.0056456,0.00036031,0.0018018,-0.00016156,0,0,0.04997,-0.018739,0,-0.0042005,0,0,0,0.0056505,0.00035537,0.0018018,-1.7492,0.0026026,0.0047404,3.803e-09,0.82,0.64,0
0.041673,-0.0028705,0.0057145,0.00041954,0.0018402,-0.00011805,0,0,0.050366,-0.018469,0,-0.0030693,0,0,0,0.0057171,0.00041691,0.0018402,-1.2766,0.0026581,0.0047512,3.8878e-09,0.84,0.64,0
0.042685,-0.0030781,0.0057814,0.00045868,0.001872,-8.0156e-05,0,0,0.050822,-0.018373,0,-0.0020841,0,0,0,0.0057826,0.00045747,0.001872,-0.86257,0.002704,0.0047776,3.9898e-09,0.86,0.64,0
0.043706,-0.0032538,0.0058442,0.0004819,0.0018978,-4.9407e-05,0,0,0.051303,-0.018407,0,-0.0012846,0,0,0,0.0058447,0.00048144,0.0018978,-0.52785,0.0027413,0.0048139,4.1016e-09,0.88,0.64,0
0.044737,-0.0033987,0.0059009,0.00049345,0.0019183,-2.6389e-05,0,0,0.051774,-0.018523,0,-0.00068612,0,0,0,0.005901,0.00049332,0.0019183,-0.2796,0.0027709,0.0048547,4.2144e-09,0.9,0.64,0
0.045777,-0.0035142,0.0059498,0.0004973,0.0019341,-1.0855e-05,0,0,0.052203,-0.018679,0,-0.00028224,0,0,0,0.0059498,0.00049727,0.0019341,-0.11407,0.0027937,0.0048949,4.3198e-09,0.92,0.64,0
0.046825,-0.0036019,0.0059892,0.00049678,0.0019458,-1.9176e-06,0,0,0.052564,-0.018837,0,-4.9857e-05,0,0,0,0.0059892,0.00049678,0.0019458,-0.020004,0.0028106,0.0049303,4.41e-09,0.94,0.64,0
0.04788,-0.0036634,0.0060182,0.00049455,0.0019538,1.7628e-06,0,0,0.052837,-0.01897,0,4.5832e-05,0,0,0,0.0060182,0.00049455,0.0019538,0.018285,0.0028222,0.0049578,4.479e-09,0.96,0.64,0
0.048939,-0.0036998,0.0060358,0.00049247,0.0019585,1.8079e-06,0,0,0.053006,-0.019058,0,4.7004e-05,0,0,0,0.0060358,0.00049247,0.0019585,0.018686,0.0028289,0.0049751,4.5222e-09,0.98,0.64,0
0.05,-0.0037118,0.0060418,0.00049166,0.00196,-2.3169e-05,0,0,0.053063,-0.019089,0,-0.0006024,0,0,0,0.0060419,0.00049156,0.00196,-0.23918,0.0028312,0.0049812,4.5372e-09,1,0.64,0
0,0,0.0058922,0.0025252,0.0025252,-0.00077368,0,0,0.04377,-5.421e-20,0,-0.020116,0,0,0,0.0060614,0.0023559,0.0025252,-12.341,0.0036475,0.0036238,2.4262e-09,0,0.66,0
0.00087541,-0.00040231,0.0058803,0.0023822,0.0024788,-0.00076966,0,0,0.04422,-0.0012552,0,-0.020011,0,0,0,0.0060422,0.0022203,0.0024788,-11.876,0.0035804,0.0036994,2.5575e-09,0.02,0.66,0
0.0017688,-0.00077826,0.0059264,0.002258,0.0024553,-0.00074141,0,0,0.045124,-0.0025654,0,-0.019277,0,0,0,0.0060705,0.0021138,0.0024553,-11.005,0.0035465,0.0037975,2.7362e-09,0.04,0.66,0
0.0026804,-0.0011283,0.0059705,0.0021308,0.0024304,-0.000714,0,0,0.046022,-0.0038944,0,-0.018564,0,0,0,0.006099,0.0020024,0.0024304,-10.2,0.0035106,0.0039003,2.9239e-09,0.06,0.66,0
0.0036097,-0.0014524,0.006011,0.0020037,0.0024044,-0.00068642,0,0,0.046885,-0.0052093,0,-0.017847,0,0,0,0.0061253,0.0018894,0.0024044,-9.4553,0.003473,0.0040033,3.1121e-09,0.08,0.66,0
0.0045558,-0.0017502,0.006046,0.001879,0.0023775,-0.00065782,0,0,0.04769,-0.0064808,0,-0.017103,0,0,0,0.0061474,0.0017776,0.0023775,-8.7611,0.0034341,0.0041028,3.2929e-09,0.1,0.66,0
0.0055173,-0.0020211,0.0060741,0.0017588,0.0023499,-0.00062754,0,0,0.048415,-0.0076842,0,-0.016316,0,0,0,0.0061635,0.0016694,0.0023499,-8.1083,0.0033943,0.0041955,3.4589e-09,0.12,0.66,0
0.0064924,-0.0022639,0.0060941,0.0016448,0.0023217,-0.00059507,0,0,0.049042,-0.0087996,0,-0.015472,0,0,0,0.0061724,0.0015666,0.0023217,-7.4877,0.0033535,0.0042785,3.6038e-09,0.14,0.66,0
0.007479,-0.0024777,0.0061051,0.0015382,0.002293,-0.00056001,0,0,0.049557,-0.0098126,0,-0.01456,0,0,0,0.0061728,0.0014705,0.002293,-6.8898,0.0033121,0.0043497,3.7225e-09,0.16,0.66,0
0.0084747,-0.0026612,0.0060982,0.001435,0.00226,-0.0005261,0,0,0.049897,-0.010725,0,-0.013678,0,0,0,0.0061568,0.0013764,0.00226,-6.3576,0.0032644,0.0044056,3.8032e-09,0.18,0.66,0
0.0094771,-0.0028129,0.0060946,0.0013426,0.0022311,-0.00045933,0,0,0.050224,-0.011551,0,-0.011943,0,0,0,0.0061386,0.0012986,0.0022311,-5.4708,0.0032228,0.0044476,3.8575e-09,0.2,0.66,0
0.010484,-0.0029315,0.0060741,0.0012563,0.0021991,-0.00041092,0,0,0.050374,-0.012257,0,-0.010684,0,0,0,0.0061088,0.0012215,0.0021991,-4.8404,0.0031765,0.0044793,3.885e-09,0.22,0.66,0
0.011492,-0.0030154,0.0060464,0.0011835,0.002169,-0.00036521,0,0,0.050406,-0.012811,0,-0.0094955,0,0,0,0.0060736,0.0011562,0.002169,-4.2711,0.0031329,0.0044974,3.8853e-09,0.24,0.66,0
0.0125,-0.0030631,0.0060099,0.0011144,0.0021373,-0.00033214,0,0,0.050344,-0.013297,0,-0.0086358,0,0,0,0.0060323,0.001092,0.0021373,-3.8638,0.0030872,0.0045095,3.8702e-09,0.26,0.66,0
0.013506,-0.0030732,0.0059628,0.0010426,0.0021016,-0.00027328,0,0,0.050196,-0.013768,0,-0.0071053,0,0,0,0.005978,0.0010275,0.0021016,-3.1693,0.0030357,0.0045104,3.8268e-09,0.28,0.66,0
0.014508,-0.0030446,0.0059088,0.00096907,0.0020634,-0.00020942,0,0,0.049991,-0.014226,0,-0.0054449,0,0,0,0.0059177,0.00096021,0.0020634,-2.4232,0.0029804,0.0045083,3.773e-09,0.3,0.66,0
0.015505,-0.0029763,0.0058495,0.00089021,0.0020219,-0.00014088,0,0,0.049758,-0.014712,0,-0.003663,0,0,0,0.0058535,0.00088621,0.0020219,-1.6259,0.0029205,0.004508,3.7176e-09,0.32,0.66,0
0.016498,-0.0028681,0.0057865,0.00079215,0.0019736,-6.6382e-05,0,0,0.049568,-0.015359,0,-0.0017259,0,0,0,0.0057874,0.00079127,0.0019736,-0.76135,0.0028508,0.0045224,3.6784e-09,0.34,0.66,0
0.017487,-0.0027206,0.0057059,0.00066051,0.0019099,5.2907e-05,0,0,0.049348,-0.016242,0,0.0013756,0,0,0,0.0057065,0.00065996,0.0019099,0.60072,0.0027588,0.0045521,3.6413e-09,0.36,0.66,0
0.018472,-0.0025357,0.0056532,0.00056809,0.0018664,0.00010775,0,0,0.049228,-0.016878,0,0.0028014,0,0,0,0.0056555,0.00056581,0.0018664,1.2133,0.0026959,0.00458,3.6258e-09,0.38,0.66,0
0.019456,-0.0023169,0.005602,0.00044641,0.0018145,0.00015171,0,0,0.049237,-0.017785,0,0.0039445,0,0,0,0.0056064,0.00044195,0.0018145,1.6841,0.002621,0.0046333,3.6376e-09,0.4,0.66,0
0.020442,-0.0020695,0.0055489,0.0002892,0.0017514,0.00021547,0,0,0.049367,-0.019009,0,0.0056021,0,0,0,0.0055577,0.00028039,0.0017514,2.3419,0.0025299,0.0047171,3.6761e-09,0.42,0.66,0
0.021431,-0.0018013,0.0055031,0.00011234,0.0016846,0.00026673,0,0,0.04964,-0.02044,0,0.0069349,0,0,0,0.0055163,9.9174e-05,0.0016846,2.8257,0.0024334,0.0048239,3.7358e-09,0.44,0.66,0
0.022427,-0.0015225,0.005465,-8.0063e-05,0.0016155,0.00029986,0,0,0.050044,-0.022042,0,0.0077964,0,0,0,0.0054812,-9.6231e-05,0.0016155,3.0864,0.0023335,0.0049488,3.8074e-09,0.46,0.66,0
0.023433,-0.001246,0.0054338,-0.0002793,0.0015463,0.00030995,0,0,0.050537,-0.023733,0,0.0080586,0,0,0,0.0054506,-0.00029606,0.0015463,3.0963,0.0022336,0.0050824,3.8779e-09,0.48,0.66,0
0.024449,-0.00098595,0.0054077,-0.00047205,0.0014807,0.00029457,0,0,0.051051,-0.025386,0,0.0076587,0,0,0,0.0054224,-0.00048677,0.0014807,2.8609,0.0021388,0.0052118,3.9338e-09,0.5,0.66,0
0.025475,-0.00075708,0.005385,-0.00064331,0.0014225,0.00025541,0,0,0.051513,-0.026856,0,0.0066406,0,0,0,0.0053958,-0.00065411,0.0014225,2.4217,0.0020548,0.0053246,3.9675e-09,0.52,0.66,0
0.026509,-0.00057227,0.0053654,-0.00078118,0.0013753,0.0001978,0,0,0.051872,-0.028034,0,0.0051428,0,0,0,0.0053718,-0.00078754,0.0013753,1.8412,0.0019865,0.0054124,3.9799e-09,0.54,0.66,0
0.02755,-0.00044149,0.0053498,-0.00088001,0.0013409,0.0001284,0,0,0.052115,-0.028872,0,0.0033384,0,0,0,0.0053524,-0.00088265,0.0013409,1.1803,0.0019369,0.0054732,3.9794e-09,0.56,0.66,0
0.028594,-0.00037136,0.0053398,-0.00093943,0.0013201,5.2431e-05,0,0,0.052256,-0.029374,0,0.0013632,0,0,0,0.0053402,-0.00093986,0.0013201,0.47837,0.0019068,0.0055095,3.976e-09,0.58,0.66,0
0.02964,-0.00036551,0.0053368,-0.00096053,0.0013129,-2.7237e-05,0,0,0.052311,-0.029554,0,-0.00070816,0,0,0,0.0053369,-0.00096065,0.0013129,-0.24781,0.0018964,0.0055236,3.9769e-09,0.6,0.66,0
0.030686,-0.00042507,0.0053406,-0.00094283,0.0013193,-0.00010881,0,0,0.052276,-0.029408,0,-0.0028291,0,0,0,0.0053424,-0.00094472,0.0013193,-0.99183,0.0019057,0.0055154,3.9827e-09,0.62,0.66,0
0.031731,-0.0005486,0.0053493,-0.00088424,0.0013395,-0.00018919,0,0,0.052127,-0.028909,0,-0.0049189,0,0,0,0.005355,-0.00088998,0.0013395,-1.7368,0.0019348,0.0054815,3.988e-09,0.64,0.66,0
0.032771,-0.00073152,0.0053608,-0.00078422,0.001373,-0.00026265,0,0,0.051841,-0.028043,0,-0.0068288,0,0,0,0.005372,-0.00079542,0.001373,-2.443,0.0019832,0.005419,3.9839e-09,0.66,0.66,0
0.033805,-0.00096561,0.0053738,-0.00064776,0.0014178,-0.00032171,0,0,0.051428,-0.026853,0,-0.0083646,0,0,0,0.005391,-0.0006649,0.0014178,-3.0496,0.002048,0.005329,3.9624e-09,0.68,0.66,0
0.034828,-0.0012393,0.0053889,-0.0004867,0.0014707,-0.00036009,0,0,0.050937,-0.025446,0,-0.0093624,0,0,0,0.0054109,-0.00050869,0.0014707,-3.494,0.0021243,0.0052194,3.9218e-09,0.7,0.66,0
0.035842,-0.001539,0.0054078,-0.00031663,0.0015274,-0.00037513,0,0,0.050446,-0.023972,0,-0.0097534,0,0,0,0.0054323,-0.0003411,0.0015274,-3.7334,0.0022062,0.0051025,3.8678e-09,0.72,0.66,0
0.036846,-0.001851,0.0054326,-0.00015191,0.0015842,-0.00036852,0,0,0.050029,-0.022569,0,-0.0095815,0,0,0,0.0054568,-0.00017613,0.0015842,-3.7592,0.0022883,0.0049912,3.812e-09,0.74,0.66,0
0.037843,-0.0021627,0.0054645,-2.5608e-06,0.0016386,-0.00034475,0,0,0.049737,-0.021335,0,-0.0089636,0,0,0,0.0054862,-2.4215e-05,0.0016386,-3.5941,0.0023669,0.0048956,3.7662e-09,0.76,0.66,0
0.038836,-0.0024641,0.0055038,0.00012605,0.001689,-0.0003093,0,0,0.049593,-0.020318,0,-0.0080418,0,0,0,0.0055215,0.00010832,0.001689,-3.281,0.0024396,0.0048213,3.7395e-09,0.78,0.66,0
0.039827,-0.0027475,0.0055492,0.000232,0.0017344,-0.00026725,0,0,0.049593,-0.019531,0,-0.0069484,0,0,0,0.0055626,0.0002186,0.0017344,-2.8701,0.0025052,0.0047703,3.7365e-09,0.8,0.66,0
0.04082,-0.0030075,0.005599,0.00031552,0.0017744,-0.00022285,0,0,0.04972,-0.018965,0,-0.005794,0,0,0,0.0056084,0.00030614,0.0017744,-2.4109,0.002563,0.0047418,3.7581e-09,0.82,0.66,0
0.041816,-0.0032407,0.0056511,0.00037834,0.0018088,-0.00017944,0,0,0.049949,-0.018596,0,-0.0046653,0,0,0,0.0056571,0.00037224,0.0018088,-1.9468,0.0026127,0.0047331,3.8021e-09,0.84,0.66,0
0.042818,-0.0034452,0.0057032,0.0004231,0.0018379,-0.00013946,0,0,0.050249,-0.018392,0,-0.0036259,0,0,0,0.0057069,0.00041942,0.0018379,-1.5119,0.0026547,0.0047401,3.864e-09,0.86,0.66,0
0.043826,-0.0036204,0.0057532,0.00045304,0.0018619,-0.00010449,0,0,0.050588,-0.018315,0,-0.0027168,0,0,0,0.0057553,0.00045098,0.0018619,-1.129,0.0026894,0.0047584,3.9376e-09,0.88,0.66,0
0.044841,-0.0037664,0.0057992,0.00047154,0.0018812,-7.5305e-05,0,0,0.050934,-0.018326,0,-0.0019579,0,0,0,0.0058003,0.00047048,0.0018812,-0.80964,0.0027173,0.0047831,4.0157e-09,0.9,0.66,0
0.045863,-0.003884,0.0058394,0.00048185,0.0018964,-5.1935e-05,0,0,0.051259,-0.018389,0,-0.0013503,0,0,0,0.0058399,0.00048134,0.0018964,-0.55534,0.0027392,0.0048097,4.0912e-09,0.92,0.66,0
0.046891,-0.0039741,0.0058722,0.00048679,0.0019077,-3.3839e-05,0,0,0.051538,-0.018472,0,-0.00087981,0,0,0,0.0058724,0.00048658,0.0019077,-0.36,0.0027555,0.0048345,4.1574e-09,0.94,0.66,0
0.047925,-0.0040377,0.0058964,0.00048866,0.0019155,-2.0035e-05,0,0,0.051752,-0.018549,0,-0.00052091,0,0,0,0.0058965,0.00048859,0.0019155,-0.21227,0.0027669,0.0048544,4.2089e-09,0.96,0.66,0
0.048961,-0.0040755,0.0059113,0.00048912,0.0019201,-9.2433e-06,0,0,0.051885,-0.018603,0,-0.00024033,0,0,0,0.0059113,0.0004891,0.0019201,-0.097673,0.0027735,0.0048671,4.2414e-09,0.98,0.66,0
0.05,-0.004088,0.0059163,0.00048916,0.0019216,-2.4116e-05,0,0,0.051931,-0.018622,0,-0.00062702,0,0,0,0.0059164,0.00048905,0.0019216,-0.25459,0.0027757,0.0048717,4.2529e-09,1,0.66,0
0,0,0.0058206,0.0024945,0.0024945,-0.0008214,0,0,0.043239,-4.8789e-19,0,-0.021356,0,0,0,0.0060124,0.0023028,0.0024945,-13.143,0.0036032,0.0036176,2.4084e-09,0,0.68,0
0.00086477,-0.00042713,0.0058091,0.0023535,0.0024488,-0.00081669,0,0,0.043684,-0.0012383,0,-0.021234,0,0,0,0.0059924,0.0021702,0.0024488,-12.65,0.0035371,0.0036908,2.5325e-09,0.02,0.68,0
0.0017473,-0.00082911,0.0058546,0.0022296,0.0024253,-0.00078758,0,0,0.044582,-0.0025434,0,-0.020477,0,0,0,0.0060183,0.0020659,0.0024253,-11.743,0.0035032,0.0037856,2.7017e-09,0.04,0.68,0
0.002648,-0.0012057,0.0058985,0.0021018,0.0024001,-0.00075733,0,0,0.045479,-0.0038776,0,-0.019691,0,0,0,0.006044,0.0019563,0.0024001,-10.875,0.0034668,0.0038848,2.8791e-09,0.06,0.68,0
0.0035665,-0.0015561,0.0059387,0.0019731,0.0023735,-0.00072511,0,0,0.046347,-0.0052059,0,-0.018853,0,0,0,0.0060672,0.0018447,0.0023735,-10.044,0.0034285,0.0039845,3.0568e-09,0.08,0.68,0
0.0045019,-0.0018795,0.0059737,0.0018462,0.002346,-0.00069025,0,0,0.04716,-0.0064969,0,-0.017947,0,0,0,0.006086,0.0017338,0.002346,-9.2467,0.0033886,0.0040807,3.2269e-09,0.1,0.68,0
0.0054529,-0.0021745,0.0060018,0.0017234,0.0023176,-0.00065236,0,0,0.047895,-0.0077237,0,-0.016961,0,0,0,0.0060991,0.0016262,0.0023176,-8.4797,0.0033476,0.0041704,3.3827e-09,0.12,0.68,0
0.0064177,-0.00244,0.0060219,0.0016066,0.0022885,-0.00061118,0,0,0.048534,-0.0088654,0,-0.015891,0,0,0,0.006105,0.0015236,0.0022885,-7.7373,0.0033057,0.0042508,3.5182e-09,0.14,0.68,0
0.0073943,-0.0026743,0.0060331,0.0014969,0.002259,-0.00056662,0,0,0.049064,-0.0099074,0,-0.014732,0,0,0,0.0061028,0.0014272,0.002259,-7.0132,0.003263,0.0043202,3.6292e-09,0.16,0.68,0
0.0083803,-0.0028761,0.0060349,0.001395,0.002229,-0.00051861,0,0,0.049477,-0.010842,0,-0.013484,0,0,0,0.0060922,0.0013377,0.002229,-6.3004,0.0032196,0.0043774,3.7132e-09,0.18,0.68,0
0.0093734,-0.003044,0.006027,0.0013008,0.0021983,-0.00046712,0,0,0.049773,-0.011669,0,-0.012145,0,0,0,0.0060728,0.001255,0.0021983,-5.5907,0.0031754,0.0044222,3.7693e-09,0.2,0.68,0
0.010371,-0.0031766,0.0060097,0.0012136,0.002167,-0.00041208,0,0,0.049955,-0.012394,0,-0.010714,0,0,0,0.0060449,0.0011785,0.002167,-4.8752,0.0031301,0.0044551,3.7987e-09,0.22,0.68,0
0.011372,-0.0032728,0.0059834,0.0011322,0.0021347,-0.00035341,0,0,0.050033,-0.013032,0,-0.0091886,0,0,0,0.006009,0.0011066,0.0021347,-4.1448,0.0030834,0.0044778,3.8045e-09,0.24,0.68,0
0.012372,-0.0033315,0.005949,0.0010547,0.0021011,-0.00029105,0,0,0.050023,-0.013603,0,-0.0075673,0,0,0,0.0059663,0.0010374,0.0021011,-3.3913,0.0030349,0.0044925,3.7912e-09,0.26,0.68,0
0.013373,-0.0033517,0.0059077,0.00097857,0.0020659,-0.00022506,0,0,0.049944,-0.014135,0,-0.0058515,0,0,0,0.005918,0.00096831,0.0020659,-2.6088,0.0029841,0.0045024,3.7651e-09,0.28,0.68,0
0.01437,-0.0033329,0.0058611,0.00090097,0.0020286,-0.00015569,0,0,0.049822,-0.01466,0,-0.0040481,0,0,0,0.005866,0.00089609,0.0020286,-1.7961,0.0029302,0.0045115,3.7332e-09,0.3,0.68,0
0.015365,-0.0032751,0.0058109,0.00081869,0.0019889,-8.3575e-05,0,0,0.049686,-0.015212,0,-0.002173,0,0,0,0.0058123,0.00081729,0.0019889,-0.95884,0.0028728,0.0045245,3.7032e-09,0.32,0.68,0
0.016358,-0.0031788,0.0057591,0.00072841,0.0019463,-9.7866e-06,0,0,0.049567,-0.015832,0,-0.00025445,0,0,0,0.0057592,0.00072839,0.0019463,-0.11146,0.0028113,0.0045459,3.6826e-09,0.34,0.68,0
0.017348,-0.0030454,0.005708,0.00062697,0.0019005,6.3992e-05,0,0,0.049497,-0.016556,0,0.0016638,0,0,0,0.0057088,0.00062617,0.0019005,0.72145,0.0027451,0.0045804,3.6778e-09,0.36,0.68,0
0.018338,-0.0028776,0.0056596,0.0005117,0.0018514,0.00013541,0,0,0.049506,-0.017416,0,0.0035205,0,0,0,0.0056631,0.00050814,0.0018514,1.5057,0.0026742,0.0046318,3.6937e-09,0.38,0.68,0
0.019328,-0.0026793,0.0056159,0.00038078,0.001799,0.00020137,0,0,0.04962,-0.018437,0,0.0052356,0,0,0,0.0056236,0.00037305,0.001799,2.1995,0.0025986,0.0047027,3.7323e-09,0.4,0.68,0
0.020322,-0.0024563,0.0055786,0.00023377,0.0017437,0.00025809,0,0,0.049854,-0.019629,0,0.0067103,0,0,0,0.0055911,0.00022133,0.0017437,2.7581,0.0025187,0.0047934,3.7928e-09,0.42,0.68,0
0.021323,-0.002216,0.0055487,7.2192e-05,0.0016863,0.00030125,0,0,0.050212,-0.020983,0,0.0078324,0,0,0,0.0055652,5.5671e-05,0.0016863,3.139,0.0024357,0.0049021,3.8705e-09,0.44,0.68,0
0.022331,-0.0019681,0.0055261,-9.9706e-05,0.0016279,0.0003265,0,0,0.050676,-0.022459,0,0.008489,0,0,0,0.005545,-0.00011859,0.0016279,3.3104,0.0023514,0.0050234,3.9572e-09,0.46,0.68,0
0.023349,-0.0017237,0.0055098,-0.00027456,0.0015706,0.00033037,0,0,0.05121,-0.023987,0,0.0085896,0,0,0,0.0055286,-0.00029336,0.0015706,3.2583,0.0022686,0.0051495,4.0422e-09,0.48,0.68,0
0.024379,-0.001495,0.005498,-0.00044238,0.0015167,0.00031135,0,0,0.051757,-0.025468,0,0.008095,0,0,0,0.0055143,-0.00045865,0.0015167,2.992,0.0021908,0.0052706,4.1155e-09,0.5,0.68,0
0.02542,-0.0012943,0.0054891,-0.00059238,0.001469,0.00027057,0,0,0.052261,-0.026798,0,0.0070349,0,0,0,0.0055011,-0.00060439,0.001469,2.5425,0.0021219,0.0053774,4.1705e-09,0.52,0.68,0
0.02647,-0.0011323,0.0054817,-0.00071541,0.0014299,0.00021163,0,0,0.052674,-0.027889,0,0.0055023,0,0,0,0.005489,-0.00072263,0.0014299,1.9536,0.0020654,0.0054632,4.2059e-09,0.54,0.68,0
0.027527,-0.0010181,0.0054755,-0.00080565,0.0014009,0.00013934,0,0,0.052969,-0.028686,0,0.0036228,0,0,0,0.0054786,-0.00080874,0.0014009,1.2702,0.0020236,0.0055245,4.2246e-09,0.56,0.68,0
0.028588,-0.00095798,0.0054704,-0.00086041,0.001383,5.8496e-05,0,0,0.053136,-0.029164,0,0.0015209,0,0,0,0.0054709,-0.00086095,0.001383,0.52934,0.0019977,0.0055606,4.2315e-09,0.58,0.68,0
0.029652,-0.00095545,0.0054667,-0.0008788,0.0013764,-2.6811e-05,0,0,0.053175,-0.029317,0,-0.0006971,0,0,0,0.0054668,-0.00087891,0.0013764,-0.24208,0.0019881,0.0055717,4.2303e-09,0.6,0.68,0
0.030715,-0.0010116,0.0054642,-0.00086042,0.0013811,-0.00011278,0,0,0.05308,-0.02914,0,-0.0029323,0,0,0,0.0054662,-0.00086242,0.0013811,-1.0213,0.001995,0.0055576,4.2215e-09,0.62,0.68,0
0.031775,-0.0011248,0.0054622,-0.0008054,0.001397,-0.0001951,0,0,0.052847,-0.028632,0,-0.0050726,0,0,0,0.0054683,-0.00081147,0.001397,-1.7812,0.0020179,0.0055176,4.2028e-09,0.64,0.68,0
0.032829,-0.0012906,0.0054602,-0.00071579,0.0014233,-0.00026855,0,0,0.05248,-0.027809,0,-0.0069823,0,0,0,0.0054719,-0.00072744,0.0014233,-2.4851,0.0020559,0.005452,4.1703e-09,0.66,0.68,0
0.033875,-0.0015018,0.0054585,-0.00059703,0.0014585,-0.00032768,0,0,0.052001,-0.026721,0,-0.0085197,0,0,0,0.0054762,-0.00061471,0.0014585,-3.0884,0.0021066,0.0053637,4.1212e-09,0.68,0.68,0
0.034909,-0.0017488,0.0054582,-0.0004583,0.0015,-0.00036818,0,0,0.051457,-0.025458,0,-0.0095726,0,0,0,0.0054811,-0.00048112,0.0015,-3.5472,0.0021666,0.0052593,4.0565e-09,0.7,0.68,0
0.035933,-0.0020205,0.0054613,-0.0003108,0.0015451,-0.00038819,0,0,0.05091,-0.024127,0,-0.010093,0,0,0,0.0054872,-0.00033679,0.0015451,-3.8303,0.0022319,0.0051479,3.9816e-09,0.72,0.68,0
0.036946,-0.0023055,0.0054695,-0.00016532,0.0015913,-0.00038865,0,0,0.050417,-0.022836,0,-0.010105,0,0,0,0.0054962,-0.000192,0.0015913,-3.927,0.0022985,0.0050391,3.9052e-09,0.74,0.68,0
0.03795,-0.002593,0.0054844,-3.0237e-05,0.0016363,-0.00037264,0,0,0.050026,-0.021664,0,-0.0096887,0,0,0,0.0055095,-5.5304e-05,0.0016363,-3.8483,0.0023635,0.0049412,3.837e-09,0.76,0.68,0
0.038947,-0.0028741,0.0055064,8.9144e-05,0.0016787,-0.00034433,0,0,0.04976,-0.020664,0,-0.0089526,0,0,0,0.0055282,6.7345e-05,0.0016787,-3.6224,0.0024247,0.0048598,3.7846e-09,0.78,0.68,0
0.03994,-0.0031414,0.0055348,0.00019023,0.0017175,-0.00030798,0,0,0.049625,-0.019855,0,-0.0080074,0,0,0,0.0055525,0.00017254,0.0017175,-3.2871,0.0024809,0.0047978,3.7527e-09,0.8,0.68,0
0.040932,-0.0033894,0.0055684,0.00027249,0.0017523,-0.00026742,0,0,0.04961,-0.019237,0,-0.0069529,0,0,0,0.0055819,0.00025902,0.0017523,-2.8834,0.0025311,0.0047554,3.7429e-09,0.82,0.68,0
0.041924,-0.0036143,0.0056055,0.00033682,0.0017827,-0.0002258,0,0,0.049696,-0.018796,0,-0.0058707,0,0,0,0.0056151,0.00032716,0.0017827,-2.4495,0.002575,0.0047312,3.7541e-09,0.84,0.68,0
0.04292,-0.0038138,0.005644,0.0003851,0.0018087,-0.0001855,0,0,0.049859,-0.018507,0,-0.0048231,0,0,0,0.0056506,0.00037856,0.0018087,-2.0177,0.0026126,0.0047222,3.7829e-09,0.86,0.68,0
0.043919,-0.0039864,0.0056821,0.00041974,0.0018306,-0.00014817,0,0,0.05007,-0.018341,0,-0.0038525,0,0,0,0.0056863,0.00041557,0.0018306,-1.6116,0.0026442,0.0047249,3.8245e-09,0.88,0.68,0
0.044922,-0.0041317,0.0057179,0.00044341,0.0018484,-0.00011473,0,0,0.050304,-0.018265,0,-0.002983,0,0,0,0.0057204,0.00044091,0.0018484,-1.2455,0.0026699,0.0047353,3.873e-09,0.9,0.68,0
0.045931,-0.0042497,0.0057496,0.0004587,0.0018625,-8.5469e-05,0,0,0.050532,-0.018249,0,-0.0022222,0,0,0,0.005751,0.00045732,0.0018625,-0.92523,0.0026903,0.0047496,3.9226e-09,0.92,0.68,0
0.046944,-0.0043408,0.0057758,0.00046798,0.0018731,-6.0149e-05,0,0,0.050735,-0.018267,0,-0.0015639,0,0,0,0.0057765,0.00046729,0.0018731,-0.64918,0.0027056,0.0047644,3.9676e-09,0.94,0.68,0
0.04796,-0.0044054,0.0057954,0.00047316,0.0018805,-3.8125e-05,0,0,0.050892,-0.018296,0,-0.00099124,0,0,0,0.0057956,0.00047289,0.0018805,-0.4104,0.0027164,0.0047771,4.0034e-09,0.96,0.68,0
0.04898,-0.0044439,0.0058074,0.00047569,0.0018849,-1.8452e-05,0,0,0.050992,-0.01832,0,-0.00047975,0,0,0,0.0058075,0.00047563,0.0018849,-0.19828,0.0027227,0.0047855,4.0264e-09,0.98,0.68,0
0.05,-0.0044567,0.0058115,0.00047643,0.0018864,-2.4646e-05,0,0,0.051027,-0.018329,0,-0.0006408,0,0,0,0.0058116,0.00047632,0.0018864,-0.26468,0.0027248,0.0047886,4.0346e-09,1,0.68,0
0,0,0.0057559,0.0024668,0.0024668,-0.00086893,0,0,0.042758,-5.421e-20,0,-0.022592,0,0,0,0.0059713,0.0022514,0.0024668,-13.925,0.0035632,0.0036171,2.4014e-09,0,0.7,0
0.00085516,-0.00045184,0.0057445,0.0023251,0.0024209,-0.00086357,0,0,0.043207,-0.0012449,0,-0.022453,0,0,0,0.0059502,0.0021194,0.0024209,-13.399,0.0034968,0.0036893,2.5211e-09,0.02,0.7,0
0.0017283,-0.00087999,0.0057904,0.0021995,0.002397,-0.00083381,0,0,0.044115,-0.0025673,0,-0.021679,0,0,0,0.0059746,0.0020153,0.002397,-12.455,0.0034623,0.0037829,2.6852e-09,0.04,0.7,0
0.0026198,-0.0012834,0.0058348,0.002069,0.0023711,-0.00080088,0,0,0.045028,-0.0039278,0,-0.020823,0,0,0,0.0059981,0.0019058,0.0023711,-11.521,0.003425,0.0038806,2.8564e-09,0.06,0.7,0
0.0035294,-0.0016606,0.0058757,0.001937,0.0023438,-0.00076408,0,0,0.045915,-0.0052887,0,-0.019866,0,0,0,0.0060187,0.001794,0.0023438,-10.603,0.0033855,0.0039785,3.027e-09,0.08,0.7,0
0.0044563,-0.0020101,0.0059113,0.0018064,0.0023153,-0.00072298,0,0,0.046748,-0.0066158,0,-0.018798,0,0,0,0.0060349,0.0016828,0.0023153,-9.7025,0.0033443,0.0040729,3.1897e-09,0.1,0.7,0
0.0053993,-0.00233,0.0059401,0.0016798,0.002286,-0.00067747,0,0,0.047503,-0.0078799,0,-0.017614,0,0,0,0.0060452,0.0015747,0.002286,-8.8214,0.003302,0.0041607,3.3379e-09,0.12,0.7,0
0.0063565,-0.0026186,0.0059609,0.0015592,0.002256,-0.00062764,0,0,0.048163,-0.0090584,0,-0.016319,0,0,0,0.0060486,0.0014715,0.002256,-7.9587,0.0032587,0.0042397,3.4665e-09,0.14,0.7,0
0.0073258,-0.002874,0.0059729,0.0014459,0.0022256,-0.00057377,0,0,0.048714,-0.010136,0,-0.014918,0,0,0,0.0060444,0.0013743,0.0022256,-7.1122,0.0032148,0.004308,3.5718e-09,0.16,0.7,0
0.008305,-0.0030949,0.0059757,0.0013406,0.0021949,-0.00051617,0,0,0.049151,-0.011106,0,-0.013421,0,0,0,0.0060325,0.0012838,0.0021949,-6.2781,0.0031704,0.004365,3.6522e-09,0.18,0.7,0
0.0092918,-0.0032797,0.0059694,0.0012431,0.0021637,-0.00045519,0,0,0.049473,-0.011968,0,-0.011835,0,0,0,0.0060128,0.0011996,0.0021637,-5.4515,0.0031254,0.0044109,3.7076e-09,0.2,0.7,0
0.010284,-0.0034273,0.0059543,0.0011527,0.0021321,-0.00039112,0,0,0.049688,-0.012732,0,-0.010169,0,0,0,0.0059859,0.0011211,0.0021321,-4.6266,0.0030797,0.0044464,3.7399e-09,0.22,0.7,0
0.011279,-0.0035367,0.0059311,0.0010682,0.0020998,-0.00032423,0,0,0.049807,-0.01341,0,-0.0084299,0,0,0,0.0059526,0.0010467,0.0020998,-3.7978,0.003033,0.0044733,3.7526e-09,0.24,0.7,0
0.012276,-0.0036072,0.005901,0.00098769,0.0020666,-0.00025478,0,0,0.049847,-0.014026,0,-0.0066243,0,0,0,0.0059142,0.00097451,0.0020666,-2.9605,0.0029851,0.0044942,3.7505e-09,0.26,0.7,0
0.013273,-0.0036386,0.0058652,0.00090879,0.0020322,-0.00018314,0,0,0.049829,-0.014604,0,-0.0047616,0,0,0,0.005872,0.00090204,0.0020322,-2.1132,0.0029354,0.0045123,3.7394e-09,0.28,0.7,0
0.014269,-0.003631,0.0058255,0.00082891,0.0019963,-0.00010983,0,0,0.049779,-0.015176,0,-0.0028557,0,0,0,0.0058279,0.0008265,0.0019963,-1.2587,0.0028836,0.0045312,3.726e-09,0.3,0.7,0
0.015264,-0.0035848,0.0057836,0.00074522,0.0019586,-3.5698e-05,0,0,0.049724,-0.015774,0,-0.00092815,0,0,0,0.0057838,0.00074497,0.0019586,-0.40593,0.0028291,0.0045549,3.7168e-09,0.32,0.7,0
0.016258,-0.0035014,0.0057413,0.00065489,0.0019189,3.8044e-05,0,0,0.049692,-0.016432,0,0.00098913,0,0,0,0.0057416,0.00065461,0.0019189,0.42851,0.0027717,0.0045874,3.7179e-09,0.34,0.7,0
0.017252,-0.0033828,0.0057008,0.00055536,0.0018768,0.00010967,0,0,0.049711,-0.017179,0,0.0028515,0,0,0,0.0057031,0.00055302,0.0018768,1.2205,0.002711,0.0046323,3.7345e-09,0.36,0.7,0
0.018247,-0.0032324,0.0056638,0.00044458,0.0018325,0.00017692,0,0,0.049807,-0.018043,0,0.0046,0,0,0,0.0056698,0.00043859,0.0018325,1.9393,0.002647,0.0046922,3.7697e-09,0.38,0.7,0
0.019244,-0.0030544,0.005632,0.00032139,0.001786,0.00023697,0,0,0.049998,-0.01904,0,0.0061613,0,0,0,0.0056426,0.00031084,0.001786,2.5499,0.0025798,0.0047684,3.8248e-09,0.4,0.7,0
0.020247,-0.0028547,0.0056066,0.00018593,0.0017377,0.00028653,0,0,0.050294,-0.020174,0,0.0074498,0,0,0,0.0056216,0.00017083,0.0017377,3.0174,0.0025101,0.0048606,3.8978e-09,0.42,0.7,0
0.021256,-0.0026406,0.0055879,4.0038e-05,0.0016884,0.00032209,0,0,0.050694,-0.021429,0,0.0083743,0,0,0,0.0056066,2.1402e-05,0.0016884,3.3115,0.0024388,0.0049661,3.9843e-09,0.44,0.7,0
0.022274,-0.0024209,0.0055758,-0.00011236,0.001639,0.00034035,0,0,0.051178,-0.022768,0,0.008849,0,0,0,0.0055961,-0.00013265,0.001639,3.412,0.0023675,0.0050802,4.0771e-09,0.46,0.7,0
0.023303,-0.0022054,0.0055692,-0.0002652,0.0015912,0.00033887,0,0,0.051714,-0.024133,0,0.0088106,0,0,0,0.0055888,-0.00028482,0.0015912,3.313,0.0022984,0.0051961,4.1677e-09,0.48,0.7,0
0.024343,-0.0020047,0.0055662,-0.00041082,0.0015466,0.0003167,0,0,0.052255,-0.025447,0,0.0082343,0,0,0,0.005583,-0.00042755,0.0015466,3.0246,0.002234,0.0053064,4.2482e-09,0.5,0.7,0
0.025393,-0.001829,0.0055653,-0.00054107,0.0015073,0.00027479,0,0,0.052754,-0.026628,0,0.0071445,0,0,0,0.0055776,-0.00055341,0.0015073,2.5714,0.0021772,0.0054039,4.3128e-09,0.52,0.7,0
0.026453,-0.0016878,0.0055647,-0.00064874,0.0014748,0.0002158,0,0,0.053169,-0.027606,0,0.0056109,0,0,0,0.0055722,-0.00065622,0.0014748,1.9868,0.0021303,0.0054829,4.3588e-09,0.54,0.7,0
0.02752,-0.0015889,0.0055635,-0.00072848,0.0014505,0.00014361,0,0,0.053469,-0.028327,0,0.0037338,0,0,0,0.0055668,-0.00073175,0.0014505,1.3068,0.0020952,0.0055397,4.3867e-09,0.56,0.7,0
0.028592,-0.0015379,0.0055609,-0.00077707,0.0014352,6.2522e-05,0,0,0.053635,-0.028759,0,0.0016256,0,0,0,0.0055615,-0.00077769,0.0014352,0.56513,0.002073,0.0055727,4.3981e-09,0.58,0.7,0
0.029666,-0.0015382,0.0055566,-0.00079297,0.0014291,-2.3084e-05,0,0,0.053658,-0.028887,0,-0.00060018,0,0,0,0.0055567,-0.00079306,0.0014291,-0.20829,0.0020643,0.005581,4.3947e-09,0.6,0.7,0
0.030738,-0.0015907,0.0055505,-0.00077588,0.0014324,-0.00010883,0,0,0.053535,-0.028707,0,-0.0028296,0,0,0,0.0055523,-0.00077775,0.0014324,-0.98527,0.002069,0.0055646,4.377e-09,0.62,0.7,0
0.031807,-0.0016939,0.0055423,-0.00072678,0.0014447,-0.00019018,0,0,0.05327,-0.028229,0,-0.0049446,0,0,0,0.0055481,-0.00073254,0.0014447,-1.736,0.0020868,0.0055238,4.3444e-09,0.64,0.7,0
0.032869,-0.0018439,0.0055326,-0.00064845,0.0014652,-0.00026244,0,0,0.052875,-0.027478,0,-0.0068236,0,0,0,0.0055437,-0.00065957,0.0014652,-2.4269,0.0021165,0.0054603,4.2959e-09,0.66,0.7,0
0.033922,-0.0020345,0.005522,-0.000546,0.0014928,-0.0003213,0,0,0.05238,-0.026504,0,-0.0083539,0,0,0,0.005539,-0.00056297,0.0014928,-3.0226,0.0021563,0.0053773,4.2314e-09,0.68,0.7,0
0.034964,-0.0022576,0.0055121,-0.00042671,0.0015256,-0.00036353,0,0,0.051824,-0.02538,0,-0.0094517,0,0,0,0.0055342,-0.00044888,0.0015256,-3.4898,0.0022037,0.0052804,4.1534e-09,0.7,0.7,0
0.035995,-0.0025041,0.0055047,-0.00029907,0.0015617,-0.00038764,0,0,0.051259,-0.02419,0,-0.010079,0,0,0,0.0055304,-0.00032485,0.0015617,-3.8044,0.0022558,0.0051766,4.0669e-09,0.72,0.7,0
0.037015,-0.0027644,0.0055016,-0.00017139,0.0015991,-0.00039415,0,0,0.050733,-0.023016,0,-0.010248,0,0,0,0.0055288,-0.00019865,0.0015991,-3.9555,0.0023098,0.0050734,3.979e-09,0.74,0.7,0
0.038024,-0.0030293,0.0055042,-5.0542e-05,0.0016361,-0.00038516,0,0,0.050285,-0.021926,0,-0.010014,0,0,0,0.0055308,-7.7122e-05,0.0016361,-3.9477,0.0023632,0.0049775,3.8973e-09,0.76,0.7,0
0.039026,-0.0032907,0.0055131,5.8637e-05,0.0016715,-0.0003638,0,0,0.04994,-0.020968,0,-0.0094588,0,0,0,0.0055372,3.448e-05,0.0016715,-3.799,0.0024144,0.0048941,3.8283e-09,0.78,0.7,0
0.040022,-0.0035417,0.0055281,0.00015335,0.0017044,-0.00033349,0,0,0.049708,-0.020164,0,-0.0086709,0,0,0,0.0055488,0.00013274,0.0017044,-3.537,0.002462,0.0048261,3.7764e-09,0.8,0.7,0
0.041014,-0.003777,0.0055485,0.00023254,0.0017343,-0.00029754,0,0,0.049584,-0.019523,0,-0.0077359,0,0,0,0.0055651,0.00021594,0.0017343,-3.1936,0.0025051,0.0047746,3.7437e-09,0.82,0.7,0
0.042005,-0.0039925,0.0055728,0.00029646,0.0017608,-0.00025877,0,0,0.049557,-0.019036,0,-0.0067279,0,0,0,0.0055855,0.0002838,0.0017608,-2.801,0.0025434,0.0047391,3.7298e-09,0.84,0.7,0
0.042997,-0.0041855,0.0055995,0.00034627,0.0017837,-0.00021945,0,0,0.049605,-0.018687,0,-0.0057058,0,0,0,0.0056087,0.00033712,0.0017837,-2.388,0.0025765,0.0047177,3.7325e-09,0.86,0.7,0
0.04399,-0.004354,0.0056269,0.00038373,0.0018032,-0.00018124,0,0,0.049709,-0.018453,0,-0.0047122,0,0,0,0.0056332,0.00037747,0.0018032,-1.9774,0.0026046,0.0047077,3.7481e-09,0.88,0.7,0
0.044985,-0.004497,0.0056534,0.00041085,0.0018193,-0.00014517,0,0,0.049843,-0.018309,0,-0.0037745,0,0,0,0.0056574,0.00040684,0.0018193,-1.585,0.0026278,0.0047061,3.7722e-09,0.9,0.7,0
0.045983,-0.004614,0.0056773,0.0004297,0.0018321,-0.00011175,0,0,0.049987,-0.018231,0,-0.0029054,0,0,0,0.0056796,0.00042732,0.0018321,-1.2194,0.0026464,0.0047098,3.8001e-09,0.92,0.7,0
0.046984,-0.0047048,0.0056973,0.00044217,0.0018418,-8.0994e-05,0,0,0.050121,-0.018196,0,-0.0021058,0,0,0,0.0056986,0.00044092,0.0018418,-0.88278,0.0026604,0.0047159,3.8273e-09,0.94,0.7,0
0.047988,-0.0047695,0.0057124,0.00044987,0.0018487,-5.2564e-05,0,0,0.050229,-0.018185,0,-0.0013667,0,0,0,0.0057129,0.00044934,0.0018487,-0.57221,0.0026703,0.0047221,3.8497e-09,0.96,0.7,0
0.048994,-0.0048083,0.0057218,0.00045399,0.0018527,-2.5835e-05,0,0,0.050298,-0.018184,0,-0.0006717,0,0,0,0.0057219,0.00045386,0.0018527,-0.28098,0.0026762,0.0047265,3.8645e-09,0.98,0.7,0
0.05,-0.0048212,0.005725,0.00045528,0.0018541,-2.4818e-05,0,0,0.050322,-0.018184,0,-0.00064527,0,0,0,0.0057251,0.00045516,0.0018541,-0.26983,0.0026781,0.0047283,3.8699e-09,1,0.7,0
0,0,0.0056986,0.0024423,0.0024423,-0.00091716,0,0,0.042333,-1.6263e-19,0,-0.023846,0,0,0,0.0059392,0.0022017,0.0024423,-14.696,0.0035277,0.0036232,2.4066e-09,0,0.72,0
0.00084665,-0.00047692,0.0056871,0.0022972,0.0023953,-0.00091118,0,0,0.042793,-0.0012748,0,-0.023691,0,0,0,0.0059165,0.0020678,0.0023953,-14.131,0.0034599,0.0036958,2.5242e-09,0.02,0.72,0
0.0017117,-0.00093181,0.0057343,0.0021677,0.0023706,-0.00088099,0,0,0.043728,-0.0026375,0,-0.022906,0,0,0,0.00594,0.001962,0.0023706,-13.145,0.0034242,0.0037903,2.6874e-09,0.04,0.72,0
0.0025958,-0.0013628,0.00578,0.0020325,0.0023438,-0.00084546,0,0,0.044671,-0.0040463,0,-0.021982,0,0,0,0.0059619,0.0018506,0.0023438,-12.143,0.0033854,0.0038883,2.8562e-09,0.06,0.72,0
0.0034986,-0.0017677,0.0058223,0.0018953,0.0023153,-0.00080406,0,0,0.045591,-0.0054597,0,-0.020906,0,0,0,0.0059805,0.001737,0.0023153,-11.135,0.0033443,0.0039859,3.023e-09,0.08,0.72,0
0.0044194,-0.0021441,0.0058591,0.0017594,0.0022855,-0.0007566,0,0,0.046456,-0.0068396,0,-0.019672,0,0,0,0.0059942,0.0016243,0.0022855,-10.13,0.0033014,0.0040798,3.1809e-09,0.1,0.72,0
0.0053568,-0.0024898,0.0058889,0.0016278,0.002255,-0.00070334,0,0,0.047241,-0.0081536,0,-0.018287,0,0,0,0.006002,0.0015147,0.002255,-9.1346,0.0032573,0.0041668,3.3236e-09,0.12,0.72,0
0.006309,-0.0028023,0.0059107,0.0015027,0.002224,-0.00064481,0,0,0.047927,-0.0093772,0,-0.016765,0,0,0,0.0060031,0.0014103,0.002224,-8.1538,0.0032124,0.0042448,3.4467e-09,0.14,0.72,0
0.0072739,-0.0030797,0.0059236,0.0013854,0.0021927,-0.00058172,0,0,0.048502,-0.010495,0,-0.015125,0,0,0,0.005997,0.001312,0.0021927,-7.1895,0.0031672,0.0043126,3.5473e-09,0.16,0.72,0
0.0082491,-0.0033203,0.0059275,0.0012767,0.0021612,-0.00051483,0,0,0.048961,-0.0115,0,-0.013386,0,0,0,0.0059838,0.0012204,0.0021612,-6.2418,0.0031218,0.0043697,3.6244e-09,0.18,0.72,0
0.0092323,-0.0035227,0.0059226,0.0011763,0.0021297,-0.00044489,0,0,0.049308,-0.012394,0,-0.011567,0,0,0,0.0059639,0.001135,0.0021297,-5.309,0.0030762,0.0044164,3.679e-09,0.2,0.72,0
0.010221,-0.0036859,0.0059095,0.0010835,0.0020979,-0.00037256,0,0,0.049551,-0.013187,0,-0.0096866,0,0,0,0.0059381,0.001055,0.0020979,-4.3885,0.0030303,0.0044542,3.7135e-09,0.22,0.72,0
0.011214,-0.0038092,0.0058892,0.00099697,0.0020659,-0.00029843,0,0,0.049704,-0.013895,0,-0.0077591,0,0,0,0.0059073,0.00097884,0.0020659,-3.4779,0.002984,0.0044849,3.7317e-09,0.24,0.72,0
0.01221,-0.0038925,0.0058629,0.00091477,0.0020333,-0.00022304,0,0,0.049785,-0.014541,0,-0.0057991,0,0,0,0.0058729,0.00090474,0.0020333,-2.5757,0.002937,0.0045111,3.7385e-09,0.26,0.72,0
0.013206,-0.0039359,0.005832,0.00083471,0.002,-0.000147,0,0,0.049816,-0.015149,0,-0.0038221,0,0,0,0.0058364,0.00083039,0.002,-1.6835,0.0028889,0.0045357,3.7395e-09,0.28,0.72,0
0.014202,-0.00394,0.0057983,0.00075435,0.0019658,-7.1039e-05,0,0,0.049822,-0.015749,0,-0.001847,0,0,0,0.0057993,0.00075335,0.0019658,-0.80674,0.0028395,0.0045622,3.7404e-09,0.3,0.72,0
0.015199,-0.0039061,0.0057634,0.00067119,0.0019304,3.899e-06,0,0,0.049829,-0.016369,0,0.00010137,0,0,0,0.0057634,0.00067119,0.0019304,0.04387,0.0027883,0.0045939,3.7469e-09,0.32,0.72,0
0.016195,-0.0038361,0.0057292,0.00058282,0.0018936,7.6532e-05,0,0,0.049862,-0.01704,0,0.0019898,0,0,0,0.0057303,0.00058168,0.0018936,0.85181,0.0027352,0.0046341,3.7638e-09,0.34,0.72,0
0.017193,-0.0037326,0.0056973,0.00048713,0.0018553,0.0001452,0,0,0.049945,-0.017787,0,0.0037751,0,0,0,0.0057013,0.00048309,0.0018553,1.5951,0.0026799,0.0046853,3.7949e-09,0.36,0.72,0
0.018193,-0.0035993,0.0056694,0.0003826,0.0018156,0.00020781,0,0,0.050099,-0.018629,0,0.005403,0,0,0,0.0056775,0.00037444,0.0018156,2.2475,0.0026225,0.0047494,3.8425e-09,0.38,0.72,0
0.019197,-0.0034409,0.0056466,0.00026853,0.0017745,0.00026189,0,0,0.050337,-0.019578,0,0.0068093,0,0,0,0.0056593,0.00025581,0.0017745,2.7814,0.0025632,0.0048268,3.9066e-09,0.4,0.72,0
0.020207,-0.0032632,0.0056298,0.00014539,0.0017326,0.00030472,0,0,0.050664,-0.020633,0,0.0079227,0,0,0,0.0056466,0.00012851,0.0017326,3.1704,0.0025026,0.0049165,3.9852e-09,0.42,0.72,0
0.021224,-0.0030732,0.0056191,1.5049e-05,0.0016902,0.0003335,0,0,0.051075,-0.021778,0,0.0086711,0,0,0,0.0056389,-4.7288e-06,0.0016902,3.3938,0.0024415,0.0050157,4.0739e-09,0.44,0.72,0
0.02225,-0.0028788,0.005614,-0.00011904,0.0016485,0.0003458,0,0,0.051552,-0.022978,0,0.0089907,0,0,0,0.0056348,-0.00013982,0.0016485,3.4392,0.0023811,0.0051203,4.1668e-09,0.46,0.72,0
0.023286,-0.002689,0.0056134,-0.00025195,0.0016084,0.00033991,0,0,0.052065,-0.024185,0,0.0088376,0,0,0,0.0056331,-0.00027158,0.0016084,3.3056,0.0023233,0.0052248,4.2569e-09,0.48,0.72,0
0.024332,-0.0025129,0.0056158,-0.00037766,0.0015714,0.00031532,0,0,0.052576,-0.025338,0,0.0081982,0,0,0,0.0056323,-0.00039421,0.0015714,3.0033,0.0022698,0.0053232,4.3378e-09,0.5,0.72,0
0.025389,-0.0023594,0.0056193,-0.00048987,0.0015388,0.0002729,0,0,0.053046,-0.026373,0,0.0070954,0,0,0,0.0056314,-0.00050204,0.0015388,2.5527,0.0022227,0.0054099,4.4044e-09,0.52,0.72,0
0.026454,-0.0022366,0.0056223,-0.00058281,0.0015119,0.00021488,0,0,0.053436,-0.027231,0,0.0055868,0,0,0,0.0056298,-0.00059024,0.0015119,1.9809,0.0021838,0.0054802,4.4536e-09,0.54,0.72,0
0.027526,-0.0021512,0.0056236,-0.0006519,0.0014915,0.00014451,0,0,0.053717,-0.027864,0,0.0037571,0,0,0,0.005627,-0.00065522,0.0014915,1.3184,0.0021544,0.0055306,4.4844e-09,0.56,0.72,0
0.028603,-0.0021083,0.0056222,-0.00069406,0.0014784,6.5664e-05,0,0,0.053869,-0.028243,0,0.0017073,0,0,0,0.0056229,-0.00069474,0.0014784,0.59556,0.0021355,0.0055593,4.4968e-09,0.58,0.72,0
0.029681,-0.0021109,0.0056175,-0.0007077,0.0014729,-1.7454e-05,0,0,0.053879,-0.028348,0,-0.0004538,0,0,0,0.0056175,-0.00070775,0.0014729,-0.1581,0.0021276,0.0055652,4.4914e-09,0.6,0.72,0
0.030758,-0.0021599,0.0056093,-0.0006926,0.001475,-0.00010053,0,0,0.053746,-0.028179,0,-0.0026139,0,0,0,0.0056109,-0.00069421,0.001475,-0.91371,0.0021306,0.0055483,4.4688e-09,0.62,0.72,0
0.031831,-0.0022539,0.0055979,-0.00064996,0.0014844,-0.00017924,0,0,0.053476,-0.027747,0,-0.0046603,0,0,0,0.0056031,-0.00065509,0.0014844,-1.6419,0.0021441,0.0055093,4.429e-09,0.64,0.72,0
0.032897,-0.0023897,0.0055838,-0.00058254,0.0015004,-0.00024943,0,0,0.053085,-0.027078,0,-0.0064853,0,0,0,0.0055939,-0.00059262,0.0015004,-2.3126,0.0021672,0.0054503,4.3726e-09,0.66,0.72,0
0.033954,-0.002562,0.0055682,-0.00049481,0.001522,-0.00030749,0,0,0.0526,-0.026219,0,-0.0079948,0,0,0,0.0055837,-0.00051036,0.001522,-2.896,0.0021984,0.0053743,4.301e-09,0.68,0.72,0
0.035001,-0.002764,0.0055524,-0.00039259,0.0015479,-0.0003508,0,0,0.052058,-0.025227,0,-0.0091207,0,0,0,0.0055731,-0.00041322,0.0015479,-3.3653,0.0022359,0.005286,4.2171e-09,0.7,0.72,0
0.036037,-0.0029881,0.0055384,-0.00028253,0.0015768,-0.00037807,0,0,0.051501,-0.024171,0,-0.0098297,0,0,0,0.0055628,-0.00030699,0.0015768,-3.7006,0.0022775,0.0051909,4.1256e-09,0.72,0.72,0
0.037061,-0.0032261,0.0055276,-0.00017115,0.001607,-0.00038948,0,0,0.050969,-0.023115,0,-0.010127,0,0,0,0.0055541,-0.00019764,0.001607,-3.8917,0.0023211,0.0050951,4.0325e-09,0.74,0.72,0
0.038075,-0.0034701,0.0055216,-6.4057e-05,0.0016373,-0.00038648,0,0,0.050496,-0.022117,0,-0.010049,0,0,0,0.0055482,-9.0672e-05,0.0016373,-3.9394,0.0023649,0.0050039,3.9438e-09,0.76,0.72,0
0.039081,-0.0037128,0.0055208,3.4493e-05,0.0016666,-0.00037137,0,0,0.050105,-0.021217,0,-0.0096556,0,0,0,0.0055459,9.4695e-06,0.0016666,-3.8549,0.0024073,0.0049217,3.8651e-09,0.78,0.72,0
0.040079,-0.003948,0.0055257,0.00012177,0.0016942,-0.00034685,0,0,0.049808,-0.020442,0,-0.0090182,0,0,0,0.0055478,9.9597e-05,0.0016942,-3.6576,0.0024472,0.0048516,3.8003e-09,0.8,0.72,0
0.041073,-0.0041703,0.0055354,0.00019642,0.0017196,-0.00031567,0,0,0.049606,-0.019801,0,-0.0082073,0,0,0,0.005554,0.00017783,0.0017196,-3.3719,0.0024838,0.004795,3.7517e-09,0.82,0.72,0
0.042064,-0.0043758,0.0055493,0.00025824,0.0017423,-0.00028029,0,0,0.049492,-0.019292,0,-0.0072876,0,0,0,0.0055641,0.00024343,0.0017423,-3.0239,0.0025166,0.004752,3.7194e-09,0.84,0.72,0
0.043053,-0.0045613,0.005566,0.00030784,0.0017622,-0.00024282,0,0,0.04945,-0.018906,0,-0.0063132,0,0,0,0.0055772,0.00029665,0.0017622,-2.6383,0.0025454,0.0047216,3.7023e-09,0.86,0.72,0
0.044042,-0.0047245,0.0055842,0.00034641,0.0017792,-0.00020483,0,0,0.049465,-0.018626,0,-0.0053257,0,0,0,0.0055922,0.00033841,0.0017792,-2.2361,0.0025699,0.004702,3.6977e-09,0.88,0.72,0
0.045032,-0.0048641,0.0056025,0.00037543,0.0017934,-0.00016746,0,0,0.049518,-0.018433,0,-0.0043541,0,0,0,0.0056078,0.00037007,0.0017934,-1.8332,0.0025904,0.0046909,3.7025e-09,0.9,0.72,0
0.046023,-0.0049789,0.0056194,0.00039649,0.0018048,-0.00013136,0,0,0.04959,-0.018308,0,-0.0034152,0,0,0,0.0056227,0.00039319,0.0018048,-1.4398,0.0026069,0.004686,3.713e-09,0.92,0.72,0
0.047015,-0.0050686,0.0056339,0.00041109,0.0018135,-9.6757e-05,0,0,0.049665,-0.018231,0,-0.0025157,0,0,0,0.0056357,0.0004093,0.0018135,-1.061,0.0026195,0.0046849,3.7255e-09,0.94,0.72,0
0.048009,-0.0051328,0.005645,0.00042052,0.0018196,-6.3583e-05,0,0,0.049729,-0.018189,0,-0.0016532,0,0,0,0.0056457,0.00041975,0.0018196,-0.69717,0.0026284,0.0046856,3.7369e-09,0.96,0.72,0
0.049004,-0.0051713,0.0056519,0.00042577,0.0018233,-3.1498e-05,0,0,0.049772,-0.018168,0,-0.00081896,0,0,0,0.0056521,0.00042558,0.0018233,-0.34531,0.0026336,0.0046867,3.7448e-09,0.98,0.72,0
0.05,-0.0051841,0.0056543,0.00042745,0.0018245,-2.4697e-05,0,0,0.049787,-0.018162,0,-0.00064213,0,0,0,0.0056544,0.00042733,0.0018245,-0.27072,0.0026354,0.0046873,3.7479e-09,1,0.72,0
0,0,0.0056494,0.0024212,0.0024212,-0.00096699,0,0,0.041967,-3.7947e-19,0,-0.025142,0,0,0,0.0059169,0.0021537,0.0024212,-15.463,0.0034972,0.0036368,2.4255e-09,0,0.74,0
0.00083933,-0.00050283,0.0056375,0.0022701,0.0023723,-0.00096042,0,0,0.042448,-0.001328,0,-0.024971,0,0,0,0.0058922,0.0020155,0.0023723,-14.851,0.0034266,0.0037112,2.5435e-09,0.02,0.74,0
0.0016979,-0.00098549,0.0056867,0.0021344,0.0023464,-0.00092994,0,0,0.043425,-0.0027552,0,-0.024178,0,0,0,0.0059155,0.0019057,0.0023464,-13.818,0.0033892,0.0038086,2.7098e-09,0.04,0.74,0
0.0025763,-0.0014452,0.0057346,0.0019922,0.002318,-0.00089182,0,0,0.044415,-0.0042356,0,-0.023187,0,0,0,0.0059362,0.0017906,0.002318,-12.741,0.0033483,0.0039087,2.8797e-09,0.06,0.74,0
0.0034745,-0.001879,0.0057787,0.0018478,0.0022879,-0.00084562,0,0,0.04538,-0.0057223,0,-0.021986,0,0,0,0.0059529,0.0016736,0.0022879,-11.64,0.0033048,0.0040076,3.0456e-09,0.08,0.74,0
0.0043916,-0.0022837,0.0058172,0.001705,0.0022566,-0.00079151,0,0,0.046287,-0.0071716,0,-0.020579,0,0,0,0.0059643,0.0015579,0.0022566,-10.527,0.0032596,0.0041019,3.2007e-09,0.1,0.74,0
0.005326,-0.0026561,0.0058483,0.0015672,0.0022246,-0.00073018,0,0,0.047107,-0.0085468,0,-0.018985,0,0,0,0.0059694,0.0014461,0.0022246,-9.4178,0.0032134,0.0041887,3.3391e-09,0.12,0.74,0
0.0062758,-0.0029937,0.0058709,0.0014368,0.0021923,-0.0006627,0,0,0.047822,-0.0098212,0,-0.01723,0,0,0,0.0059678,0.0013399,0.0021923,-8.3211,0.0031667,0.0042661,3.457e-09,0.14,0.74,0
0.0072388,-0.0032938,0.0058845,0.0013155,0.00216,-0.00059033,0,0,0.048419,-0.010979,0,-0.015348,0,0,0,0.0059596,0.0012404,0.00216,-7.2442,0.00312,0.0043332,3.5526e-09,0.16,0.74,0
0.0082126,-0.0035549,0.0058891,0.0012036,0.0021278,-0.00051432,0,0,0.048897,-0.012015,0,-0.013372,0,0,0,0.0059449,0.0011478,0.0021278,-6.191,0.0030735,0.0043899,3.6257e-09,0.18,0.74,0
0.0091947,-0.0037754,0.0058851,0.0011011,0.0020959,-0.00043585,0,0,0.049261,-0.012932,0,-0.011332,0,0,0,0.0059245,0.0010617,0.0020959,-5.1633,0.0030273,0.0044371,3.6781e-09,0.2,0.74,0
0.010183,-0.0039547,0.0058735,0.0010069,0.0020641,-0.00035594,0,0,0.049522,-0.013744,0,-0.0092545,0,0,0,0.0058994,0.00098095,0.0020641,-4.1611,0.0029815,0.0044762,3.713e-09,0.22,0.74,0
0.011176,-0.0040925,0.0058553,0.0009195,0.0020324,-0.00027545,0,0,0.049697,-0.014468,0,-0.0071618,0,0,0,0.0058706,0.00090417,0.0020324,-3.1843,0.0029357,0.0045094,3.7343e-09,0.24,0.74,0
0.012171,-0.0041889,0.005832,0.00083711,0.0020007,-0.00019516,0,0,0.049806,-0.015127,0,-0.0050741,0,0,0,0.0058396,0.00082949,0.0020007,-2.2341,0.0028899,0.0045393,3.7471e-09,0.26,0.74,0
0.013168,-0.0042446,0.0058051,0.00075753,0.0019688,-0.00011581,0,0,0.049872,-0.015746,0,-0.003011,0,0,0,0.0058077,0.00075487,0.0019688,-1.3136,0.0028438,0.0045685,3.7563e-09,0.28,0.74,0
0.014166,-0.0042609,0.0057762,0.00067847,0.0019364,-3.8233e-05,0,0,0.049918,-0.016353,0,-0.00099406,0,0,0,0.0057765,0.00067818,0.0019364,-0.42968,0.002797,0.0046001,3.7672e-09,0.3,0.74,0
0.015164,-0.0042395,0.0057471,0.00059767,0.0019034,3.6567e-05,0,0,0.049968,-0.016975,0,0.00095075,0,0,0,0.0057474,0.00059741,0.0019034,0.40685,0.0027494,0.004637,3.7842e-09,0.32,0.74,0
0.016164,-0.004183,0.0057193,0.00051304,0.0018697,0.00010736,0,0,0.050045,-0.017636,0,0.0027912,0,0,0,0.0057215,0.00051083,0.0018697,1.1808,0.0027007,0.0046815,3.8114e-09,0.34,0.74,0
0.017166,-0.0040943,0.0056943,0.00042285,0.0018351,0.0001726,0,0,0.050169,-0.01836,0,0.0044875,0,0,0,0.0056999,0.00041721,0.0018351,1.8733,0.0026507,0.0047357,3.8514e-09,0.36,0.74,0
0.018171,-0.0039775,0.0056733,0.00032595,0.0017998,0.00023046,0,0,0.050356,-0.01916,0,0.0059919,0,0,0,0.0056832,0.00031604,0.0017998,2.4632,0.0025997,0.0048005,3.9055e-09,0.38,0.74,0
0.019181,-0.0038375,0.0056573,0.00022196,0.0017638,0.00027886,0,0,0.050616,-0.020044,0,0.0072503,0,0,0,0.0056716,0.00020769,0.0017638,2.9293,0.0025477,0.0048758,3.9732e-09,0.4,0.74,0
0.020196,-0.00368,0.0056468,0.00011147,0.0017275,0.00031558,0,0,0.050951,-0.021008,0,0.0082052,0,0,0,0.0056647,9.3536e-05,0.0017275,3.2525,0.0024952,0.0049603,4.0522e-09,0.42,0.74,0
0.021219,-0.0035117,0.0056416,-3.7561e-06,0.0016914,0.0003385,0,0,0.051353,-0.022036,0,0.0088009,0,0,0,0.0056618,-2.398e-05,0.0016914,3.4191,0.0024431,0.0050515,4.1388e-09,0.44,0.74,0
0.02225,-0.00334,0.0056412,-0.00012078,0.0016561,0.00034581,0,0,0.051806,-0.0231,0,0.0089912,0,0,0,0.0056619,-0.00014146,0.0016561,3.4223,0.0023922,0.0051457,4.2278e-09,0.46,0.74,0
0.023291,-0.0031728,0.0056444,-0.00023558,0.0016226,0.00033641,0,0,0.052283,-0.024157,0,0.0087468,0,0,0,0.0056636,-0.00025477,0.0016226,3.2639,0.0023438,0.0052384,4.3136e-09,0.48,0.74,0
0.024341,-0.0030182,0.0056498,-0.00034343,0.0015919,0.00031011,0,0,0.052752,-0.025159,0,0.0080628,0,0,0,0.0056658,-0.00035943,0.0015919,2.9542,0.0022994,0.0053248,4.3908e-09,0.5,0.74,0
0.025401,-0.0028839,0.0056557,-0.00043935,0.0015649,0.00026779,0,0,0.05318,-0.026055,0,0.0069625,0,0,0,0.0056674,-0.00045109,0.0015649,2.5109,0.0022604,0.0054005,4.4549e-09,0.52,0.74,0
0.026468,-0.0027771,0.0056605,-0.00051872,0.0015425,0.00021141,0,0,0.053534,-0.026796,0,0.0054967,0,0,0,0.0056677,-0.00052594,0.0015425,1.9572,0.0022281,0.0054616,4.5029e-09,0.54,0.74,0
0.027542,-0.0027035,0.005663,-0.00057775,0.0015256,0.00014381,0,0,0.053786,-0.027343,0,0.0037391,0,0,0,0.0056663,-0.00058106,0.0015256,1.3194,0.0022036,0.0055051,4.5331e-09,0.56,0.74,0
0.02862,-0.0026676,0.005662,-0.00061378,0.0015145,6.8456e-05,0,0,0.053918,-0.027667,0,0.0017798,0,0,0,0.0056628,-0.00061453,0.0015145,0.62488,0.0021876,0.0055293,4.5447e-09,0.58,0.74,0
0.029699,-0.0026721,0.0056571,-0.00062537,0.0015095,-1.0817e-05,0,0,0.053919,-0.027754,0,-0.00028124,0,0,0,0.0056571,-0.00062539,0.0015095,-0.098647,0.0021804,0.0055331,4.5378e-09,0.6,0.74,0
0.030777,-0.0027178,0.005648,-0.00061237,0.0015107,-9.0019e-05,0,0,0.053785,-0.0276,0,-0.0023405,0,0,0,0.0056493,-0.00061367,0.0015107,-0.82364,0.0021821,0.0055166,4.5127e-09,0.62,0.74,0
0.03185,-0.0028037,0.005635,-0.00057594,0.0015177,-0.00016521,0,0,0.053525,-0.027218,0,-0.0042955,0,0,0,0.0056394,-0.00058033,0.0015177,-1.5226,0.0021923,0.0054807,4.4701e-09,0.64,0.74,0
0.032918,-0.002927,0.0056188,-0.00051853,0.0015301,-0.00023273,0,0,0.053153,-0.026632,0,-0.0060509,0,0,0,0.0056276,-0.00052734,0.0015301,-2.1685,0.0022101,0.0054271,4.4111e-09,0.66,0.74,0
0.033977,-0.0030832,0.0056005,-0.00044389,0.001547,-0.00028946,0,0,0.052696,-0.025881,0,-0.0075261,0,0,0,0.0056143,-0.00045772,0.001547,-2.7355,0.0022345,0.0053587,4.3378e-09,0.68,0.74,0
0.035026,-0.0032667,0.0055815,-0.00035672,0.0015674,-0.00033317,0,0,0.052183,-0.025014,0,-0.0086625,0,0,0,0.0056001,-0.00037536,0.0015674,-3.2013,0.0022641,0.0052794,4.2531e-09,0.7,0.74,0
0.036064,-0.003471,0.0055634,-0.00026227,0.0015903,-0.00036267,0,0,0.051649,-0.024084,0,-0.0094294,0,0,0,0.0055858,-0.00028476,0.0015903,-3.5486,0.0022971,0.0051935,4.1613e-09,0.72,0.74,0
0.037091,-0.003689,0.0055476,-0.00016573,0.0016146,-0.0003779,0,0,0.05113,-0.023144,0,-0.0098254,0,0,0,0.0055725,-0.00019062,0.0016146,-3.7678,0.0023322,0.0051058,4.0673e-09,0.74,0.74,0
0.038109,-0.003914,0.0055356,-7.17e-05,0.0016392,-0.0003798,0,0,0.050653,-0.022241,0,-0.0098749,0,0,0,0.0055612,-9.7309e-05,0.0016392,-3.8574,0.0023677,0.0050208,3.9763e-09,0.76,0.74,0
0.039118,-0.0041394,0.0055279,1.6171e-05,0.0016632,-0.00037006,0,0,0.050241,-0.021412,0,-0.0096215,0,0,0,0.0055527,-8.5628e-06,0.0016632,-3.8239,0.0024024,0.0049422,3.8928e-09,0.78,0.74,0
0.040119,-0.0043594,0.005525,9.5349e-05,0.0016861,-0.00035076,0,0,0.049906,-0.02068,0,-0.0091198,0,0,0,0.0055476,7.2783e-05,0.0016861,-3.681,0.0024355,0.0048727,3.8205e-09,0.8,0.74,0
0.041114,-0.004569,0.0055266,0.00016438,0.0017073,-0.00032415,0,0,0.049651,-0.020058,0,-0.0084279,0,0,0,0.0055461,0.00014485,0.0017073,-3.4469,0.0024661,0.0048141,3.7615e-09,0.82,0.74,0
0.042105,-0.0047642,0.0055321,0.00022275,0.0017265,-0.00029235,0,0,0.049473,-0.019548,0,-0.007601,0,0,0,0.0055481,0.0002067,0.0017265,-3.1422,0.0024938,0.0047669,3.7165e-09,0.84,0.74,0
0.043093,-0.0049417,0.0055406,0.00027067,0.0017434,-0.00025721,0,0,0.049364,-0.019145,0,-0.0066874,0,0,0,0.0055531,0.00025814,0.0017434,-2.7876,0.0025182,0.0047306,3.685e-09,0.86,0.74,0
0.044079,-0.005099,0.005551,0.00030888,0.001758,-0.00022025,0,0,0.04931,-0.018838,0,-0.0057266,0,0,0,0.0055603,0.00029964,0.001758,-2.4017,0.0025393,0.0047042,3.6654e-09,0.88,0.74,0
0.045065,-0.0052343,0.0055623,0.00033843,0.0017702,-0.00018261,0,0,0.049297,-0.018613,0,-0.0047479,0,0,0,0.0055686,0.00033206,0.0017702,-1.9996,0.002557,0.0046861,3.6553e-09,0.9,0.74,0
0.046051,-0.0053463,0.0055732,0.00036051,0.0017801,-0.00014504,0,0,0.04931,-0.018455,0,-0.0037711,0,0,0,0.0055772,0.00035647,0.0017801,-1.5926,0.0025713,0.0046745,3.6521e-09,0.92,0.74,0
0.047038,-0.0054341,0.0055829,0.00037626,0.0017877,-0.00010796,0,0,0.049337,-0.018349,0,-0.002807,0,0,0,0.0055851,0.00037402,0.0017877,-1.1874,0.0025823,0.0046676,3.6531e-09,0.94,0.74,0
0.048025,-0.0054971,0.0055904,0.00038671,0.0017931,-7.1511e-05,0,0,0.049364,-0.018283,0,-0.0018593,0,0,0,0.0055913,0.00038573,0.0017931,-0.78719,0.0025901,0.004664,3.6557e-09,0.96,0.74,0
0.049012,-0.005535,0.0055951,0.00039265,0.0017963,-3.5602e-05,0,0,0.049384,-0.018248,0,-0.00092564,0,0,0,0.0055954,0.0003924,0.0017963,-0.39206,0.0025947,0.0046623,3.6581e-09,0.98,0.74,0
0.05,-0.0055477,0.0055968,0.00039457,0.0017974,-2.435e-05,0,0,0.049392,-0.018237,0,-0.00063311,0,0,0,0.0055969,0.00039445,0.0017974,-0.26818,0.0025962,0.004662,3.6594e-09,1,0.74,0
0,0,0.0056088,0.0024038,0.0024038,-0.0010193,0,0,0.041665,-5.421e-20,0,-0.026502,0,0,0,0.0059055,0.0021071,0.0024038,-16.23,0.0034721,0.0036591,2.4606e-09,0,0.76,0
0.00083331,-0.00053004,0.0055964,0.0022441,0.0023521,-0.0010122,0,0,0.042175,-0.001405,0,-0.026316,0,0,0,0.0058783,0.0019622,0.0023521,-15.563,0.0033975,0.0037364,2.5809e-09,0.02,0.76,0
0.001687,-0.001042,0.0056485,0.0020996,0.0023244,-0.00098149,0,0,0.043213,-0.0029226,0,-0.025519,0,0,0,0.0059018,0.0018463,0.0023244,-14.474,0.0033575,0.0038389,2.7543e-09,0.04,0.76,0
0.0025618,-0.0015322,0.0056991,0.0019479,0.0022941,-0.00094061,0,0,0.044265,-0.0045003,0,-0.024456,0,0,0,0.0059217,0.0017253,0.0022941,-13.317,0.0033137,0.0039429,2.9286e-09,0.06,0.76,0
0.0034576,-0.0019966,0.0057456,0.001794,0.0022619,-0.0008892,0,0,0.045288,-0.0060824,0,-0.023119,0,0,0,0.0059365,0.0016031,0.0022619,-12.115,0.0032672,0.0040444,3.096e-09,0.08,0.76,0
0.0043733,-0.002431,0.0057858,0.0016426,0.0022285,-0.00082784,0,0,0.046245,-0.0076174,0,-0.021524,0,0,0,0.0059451,0.0014833,0.0022285,-10.891,0.003219,0.0041398,3.2495e-09,0.1,0.76,0
0.0053074,-0.0028316,0.005818,0.0014975,0.0021946,-0.00075782,0,0,0.047104,-0.0090633,0,-0.019703,0,0,0,0.0059471,0.0013684,0.0021946,-9.6654,0.0031701,0.0042266,3.3837e-09,0.12,0.76,0
0.0062575,-0.0031951,0.0058411,0.0013615,0.0021608,-0.00068091,0,0,0.047844,-0.010391,0,-0.017704,0,0,0,0.0059423,0.0012603,0.0021608,-8.4547,0.0031211,0.0043031,3.4957e-09,0.14,0.76,0
0.0072212,-0.0035189,0.0058547,0.0012361,0.0021272,-0.00059901,0,0,0.048457,-0.011585,0,-0.015574,0,0,0,0.0059311,0.0011596,0.0021272,-7.2706,0.0030727,0.0043688,3.5847e-09,0.16,0.76,0
0.0081958,-0.0038009,0.0058591,0.0011217,0.0020943,-0.00051394,0,0,0.048944,-0.012643,0,-0.013362,0,0,0,0.0059143,0.0010666,0.0020943,-6.1209,0.003025,0.0044243,3.6517e-09,0.18,0.76,0
0.0091789,-0.00404,0.0058552,0.0010179,0.0020619,-0.00042732,0,0,0.049312,-0.013572,0,-0.01111,0,0,0,0.0058926,0.00098044,0.0020619,-5.0097,0.0029783,0.0044706,3.6996e-09,0.2,0.76,0
0.010168,-0.0042357,0.0058439,0.00092349,0.0020302,-0.00034046,0,0,0.049578,-0.014388,0,-0.0088519,0,0,0,0.0058674,0.00090004,0.0020302,-3.9394,0.0029325,0.0045097,3.732e-09,0.22,0.76,0
0.011162,-0.004388,0.0058269,0.00083677,0.0019991,-0.00025445,0,0,0.049761,-0.01511,0,-0.0066157,0,0,0,0.0058398,0.00082383,0.0019991,-2.9115,0.0028876,0.0045438,3.7534e-09,0.24,0.76,0
0.012159,-0.0044976,0.0058055,0.00075577,0.0019684,-0.00017019,0,0,0.049883,-0.015764,0,-0.004425,0,0,0,0.0058113,0.00075004,0.0019684,-1.9281,0.0028432,0.0045754,3.7685e-09,0.26,0.76,0
0.013157,-0.0045657,0.0057815,0.00067833,0.0019379,-8.8507e-05,0,0,0.049966,-0.016375,0,-0.0023012,0,0,0,0.005783,0.00067679,0.0019379,-0.99331,0.0027993,0.004607,3.7821e-09,0.28,0.76,0
0.014157,-0.0045941,0.0057564,0.00060224,0.0019076,-1.024e-05,0,0,0.050035,-0.01697,0,-0.00026623,0,0,0,0.0057564,0.00060222,0.0019076,-0.11383,0.0027554,0.0046413,3.7985e-09,0.3,0.76,0
0.015159,-0.0045851,0.0057318,0.00052545,0.0018772,6.366e-05,0,0,0.05011,-0.017572,0,0.0016551,0,0,0,0.0057325,0.00052467,0.0018772,0.70044,0.0027115,0.0046805,3.8216e-09,0.32,0.76,0
0.016162,-0.0045416,0.005709,0.00044611,0.0018465,0.00013206,0,0,0.050212,-0.018205,0,0.0034337,0,0,0,0.0057123,0.0004428,0.0018465,1.4365,0.0026672,0.0047266,3.8543e-09,0.34,0.76,0
0.017167,-0.004467,0.0056893,0.00036277,0.0018156,0.00019363,0,0,0.050358,-0.018887,0,0.0050344,0,0,0,0.0056963,0.00035574,0.0018156,2.0792,0.0026226,0.0047809,3.8985e-09,0.36,0.76,0
0.018176,-0.0043657,0.0056737,0.00027454,0.0017845,0.00024682,0,0,0.05056,-0.019629,0,0.0064173,0,0,0,0.005685,0.00026327,0.0017845,2.612,0.0025776,0.0048437,3.9546e-09,0.38,0.76,0
0.01919,-0.0042427,0.0056628,0.0001812,0.0017532,0.00028993,0,0,0.050825,-0.020436,0,0.0075381,0,0,0,0.0056781,0.00016591,0.0017532,3.0192,0.0025324,0.0049147,4.0219e-09,0.4,0.76,0
0.020209,-0.0041035,0.0056568,8.3394e-05,0.0017221,0.00032122,0,0,0.051152,-0.021303,0,0.0083518,0,0,0,0.0056753,6.4942e-05,0.0017221,3.2877,0.0024874,0.0049925,4.0982e-09,0.42,0.76,0
0.021236,-0.0039546,0.0056555,-1.7324e-05,0.0016915,0.00033911,0,0,0.051533,-0.022214,0,0.0088168,0,0,0,0.0056757,-3.7523e-05,0.0016915,3.4088,0.0024432,0.0050747,4.1799e-09,0.44,0.76,0
0.02227,-0.0038028,0.0056582,-0.00011849,0.0016619,0.00034233,0,0,0.051952,-0.023145,0,0.0089006,0,0,0,0.0056784,-0.00013871,0.0016619,3.3796,0.0024006,0.0051582,4.2628e-09,0.46,0.76,0
0.023314,-0.0036553,0.0056638,-0.00021686,0.0016341,0.00033021,0,0,0.052387,-0.024062,0,0.0085855,0,0,0,0.0056823,-0.00023535,0.0016341,3.2038,0.0023604,0.0052394,4.3421e-09,0.48,0.76,0
0.024366,-0.0035193,0.005671,-0.00030867,0.0016087,0.00030281,0,0,0.052809,-0.024926,0,0.0078732,0,0,0,0.0056862,-0.00032396,0.0016087,2.8917,0.0023237,0.0053143,4.4134e-09,0.5,0.76,0
0.025426,-0.0034016,0.0056781,-0.00038997,0.0015864,0.00026107,0,0,0.053192,-0.025693,0,0.0067878,0,0,0,0.0056893,-0.00040118,0.0015864,2.459,0.0022915,0.0053795,4.4728e-09,0.52,0.76,0
0.026493,-0.0033084,0.0056838,-0.0004571,0.001568,0.00020676,0,0,0.053505,-0.026326,0,0.0053757,0,0,0,0.0056907,-0.00046406,0.001568,1.9262,0.0022649,0.0054317,4.5174e-09,0.54,0.76,0
0.027566,-0.0032449,0.0056868,-0.00050698,0.0015539,0.0001424,0,0,0.053727,-0.026792,0,0.0037024,0,0,0,0.0056901,-0.00051025,0.0015539,1.3163,0.0022446,0.0054687,4.5453e-09,0.56,0.76,0
0.028643,-0.003215,0.0056861,-0.00053738,0.0015446,7.1073e-05,0,0,0.05384,-0.027066,0,0.0018479,0,0,0,0.005687,-0.00053819,0.0015446,0.65421,0.0022311,0.0054886,4.5554e-09,0.58,0.76,0
0.02972,-0.0032211,0.0056812,-0.00054712,0.0015402,-3.7841e-06,0,0,0.053833,-0.027136,0,-9.8386e-05,0,0,0,0.0056812,-0.00054712,0.0015402,-0.034811,0.0022248,0.0054908,4.5475e-09,0.6,0.76,0
0.030796,-0.0032639,0.0056719,-0.00053608,0.0015408,-7.8595e-05,0,0,0.053705,-0.026999,0,-0.0020435,0,0,0,0.0056729,-0.00053708,0.0015408,-0.72522,0.0022255,0.0054752,4.5219e-09,0.62,0.76,0
0.031868,-0.0033426,0.0056584,-0.00050529,0.0015459,-0.00014985,0,0,0.053462,-0.026666,0,-0.003896,0,0,0,0.0056621,-0.00050893,0.0015459,-1.3918,0.002233,0.0054427,4.4792e-09,0.64,0.76,0
0.032934,-0.003455,0.0056414,-0.00045682,0.0015554,-0.00021432,0,0,0.053119,-0.026159,0,-0.0055723,0,0,0,0.005649,-0.00046434,0.0015554,-2.0103,0.0022467,0.0053949,4.421e-09,0.66,0.76,0
0.033993,-0.0035972,0.005622,-0.00039374,0.0015685,-0.0002693,0,0,0.052696,-0.025509,0,-0.0070018,0,0,0,0.005634,-0.00040577,0.0015685,-2.5581,0.0022656,0.0053341,4.3492e-09,0.68,0.76,0
0.035042,-0.0037646,0.0056013,-0.00031983,0.0015845,-0.0003128,0,0,0.05222,-0.024756,0,-0.0081329,0,0,0,0.0056178,-0.00033631,0.0015845,-3.0156,0.0022887,0.0052635,4.2669e-09,0.7,0.76,0
0.036082,-0.0039515,0.0055809,-0.00023928,0.0016025,-0.0003437,0,0,0.05172,-0.023943,0,-0.0089361,0,0,0,0.0056012,-0.0002595,0.0016025,-3.3678,0.0023147,0.0051867,4.1778e-09,0.72,0.76,0
0.037111,-0.0041519,0.0055621,-0.00015624,0.0016218,-0.00036175,0,0,0.051225,-0.023114,0,-0.0094054,0,0,0,0.0055849,-0.00017903,0.0016218,-3.6054,0.0023426,0.0051075,4.086e-09,0.74,0.76,0
0.038131,-0.0043597,0.005546,-7.4474e-05,0.0016415,-0.00036752,0,0,0.050759,-0.022307,0,-0.0095555,0,0,0,0.0055699,-9.8404e-05,0.0016415,-3.7254,0.002371,0.0050294,3.9958e-09,0.76,0.76,0
0.039141,-0.0045693,0.0055334,2.9196e-06,0.0016609,-0.00036222,0,0,0.050343,-0.021554,0,-0.0094178,0,0,0,0.0055571,-2.0703e-05,0.0016609,-3.7313,0.0023991,0.0049558,3.9112e-09,0.78,0.76,0
0.040144,-0.0047751,0.0055248,7.3669e-05,0.0016795,-0.00034746,0,0,0.049988,-0.020876,0,-0.0090341,0,0,0,0.0055468,5.161e-05,0.0016795,-3.6325,0.002426,0.004889,3.8352e-09,0.8,0.76,0
0.041141,-0.0049726,0.0055201,0.00013633,0.0016969,-0.00032504,0,0,0.049701,-0.020288,0,-0.008451,0,0,0,0.0055396,0.00011678,0.0016969,-3.4425,0.0024511,0.0048307,3.7701e-09,0.82,0.76,0
0.042132,-0.0051577,0.005519,0.00019023,0.0017128,-0.00029673,0,0,0.049481,-0.019793,0,-0.007715,0,0,0,0.0055355,0.00017376,0.0017128,-3.1774,0.002474,0.0047817,3.7169e-09,0.84,0.76,0
0.04312,-0.0053271,0.0055209,0.00023531,0.0017269,-0.00026418,0,0,0.049322,-0.01939,0,-0.0068686,0,0,0,0.005534,0.00022214,0.0017269,-2.8542,0.0024943,0.0047421,3.6754e-09,0.86,0.76,0
0.044105,-0.005478,0.0055249,0.00027196,0.0017391,-0.00022878,0,0,0.049216,-0.019072,0,-0.0059483,0,0,0,0.0055349,0.00026201,0.0017391,-2.4891,0.002512,0.0047113,3.645e-09,0.88,0.76,0
0.045089,-0.0056086,0.0055303,0.00030089,0.0017494,-0.00019164,0,0,0.049153,-0.01883,0,-0.0049828,0,0,0,0.0055374,0.00029387,0.0017494,-2.096,0.0025269,0.0046884,3.624e-09,0.9,0.76,0
0.046071,-0.0057171,0.0055362,0.00032294,0.0017577,-0.0001536,0,0,0.04912,-0.018652,0,-0.0039936,0,0,0,0.0055407,0.00031842,0.0017577,-1.6862,0.002539,0.004672,3.6105e-09,0.92,0.76,0
0.047054,-0.0058026,0.0055417,0.000339,0.0017642,-0.00011519,0,0,0.049107,-0.018528,0,-0.0029949,0,0,0,0.0055442,0.00033645,0.0017642,-1.2677,0.0025483,0.0046609,3.6026e-09,0.94,0.76,0
0.048036,-0.0058641,0.0055461,0.00034984,0.0017688,-7.6723e-05,0,0,0.049105,-0.018446,0,-0.0019948,0,0,0,0.0055473,0.00034871,0.0017688,-0.84572,0.0025549,0.0046539,3.5984e-09,0.96,0.76,0
0.049018,-0.0059012,0.005549,0.00035609,0.0017715,-3.8328e-05,0,0,0.049107,-0.018401,0,-0.00099652,0,0,0,0.0055493,0.0003558,0.0017715,-0.42286,0.0025589,0.0046501,3.5965e-09,0.98,0.76,0
0.05,-0.0059136,0.00555,0.00035812,0.0017724,-2.384e-05,0,0,0.049108,-0.018386,0,-0.00061984,0,0,0,0.0055501,0.00035801,0.0017724,-0.26308,0.0025602,0.0046491,3.5963e-09,1,0.76,0
0,0,0.0055778,0.0023905,0.0023905,-0.0010751,0,0,0.041435,2.1684e-19,0,-0.027952,0,0,0,0.0059066,0.0020618,0.0023905,-17.002,0.003453,0.0036914,2.5145e-09,0,0.78,0
0.00082871,-0.00055903,0.0055646,0.0022192,0.0023352,-0.0010673,0,0,0.041983,-0.0015071,0,-0.027749,0,0,0,0.0058761,0.0019077,0.0023352,-16.27,0.003373,0.0037729,2.6393e-09,0.02,0.78,0
0.0016793,-0.0011024,0.0056204,0.0020632,0.0023051,-0.0010364,0,0,0.043099,-0.0031444,0,-0.026948,0,0,0,0.0059003,0.0017832,0.0023051,-15.116,0.0033296,0.0038826,2.8237e-09,0.04,0.78,0
0.0025527,-0.0016252,0.0056743,0.0018991,0.002272,-0.0009924,0,0,0.04423,-0.0048483,0,-0.025802,0,0,0,0.0059193,0.0016541,0.002272,-13.866,0.0032818,0.0039923,3.0058e-09,0.06,0.78,0
0.0034485,-0.0021223,0.0057235,0.0017332,0.002237,-0.00093498,0,0,0.045324,-0.0065499,0,-0.02431,0,0,0,0.0059317,0.0015249,0.002237,-12.554,0.0032312,0.0040974,3.1764e-09,0.08,0.78,0
0.0043657,-0.0025884,0.0057653,0.0015712,0.002201,-0.00086535,0,0,0.046337,-0.0081866,0,-0.022499,0,0,0,0.0059369,0.0013997,0.002201,-11.212,0.0031792,0.0041943,3.3284e-09,0.1,0.78,0
0.005302,-0.0030187,0.005798,0.0014178,0.0021648,-0.00078566,0,0,0.047232,-0.0097099,0,-0.020427,0,0,0,0.0059347,0.0012812,0.0021648,-9.8673,0.0031269,0.0042807,3.4571e-09,0.12,0.78,0
0.0062549,-0.0034093,0.0058206,0.001276,0.002129,-0.00069854,0,0,0.047991,-0.011089,0,-0.018162,0,0,0,0.0059255,0.001171,0.002129,-8.5441,0.0030752,0.0043553,3.5608e-09,0.14,0.78,0
0.0072216,-0.0037573,0.005833,0.001147,0.002094,-0.00060669,0,0,0.048607,-0.012311,0,-0.015774,0,0,0,0.0059103,0.0010698,0.002094,-7.2587,0.0030247,0.0044183,3.6402e-09,0.16,0.78,0
0.0081992,-0.0040606,0.005836,0.0010311,0.0020601,-0.00051255,0,0,0.049086,-0.013377,0,-0.013326,0,0,0,0.00589,0.00097707,0.0020601,-6.0217,0.0029757,0.0044709,3.6978e-09,0.18,0.78,0
0.0091851,-0.0043183,0.0058306,0.0009274,0.0020274,-0.00041813,0,0,0.049442,-0.0143,0,-0.010871,0,0,0,0.0058661,0.000892,0.0020274,-4.8394,0.0029285,0.0045147,3.7376e-09,0.2,0.78,0
0.010177,-0.0045302,0.0058186,0.00083427,0.0019959,-0.000325,0,0,0.049695,-0.015101,0,-0.0084499,0,0,0,0.0058397,0.00081316,0.0019959,-3.7149,0.0028829,0.0045519,3.7639e-09,0.22,0.78,0
0.011173,-0.0046969,0.0058014,0.00074978,0.0019654,-0.00023434,0,0,0.049869,-0.015803,0,-0.0060928,0,0,0,0.0058123,0.00073894,0.0019654,-2.6503,0.0028389,0.0045849,3.7817e-09,0.24,0.78,0
0.012172,-0.0048194,0.0057809,0.00067179,0.0019358,-0.00014709,0,0,0.049987,-0.016432,0,-0.0038242,0,0,0,0.0057852,0.00066756,0.0019358,-1.6477,0.0027962,0.004616,3.7954e-09,0.26,0.78,0
0.013172,-0.0048996,0.0057587,0.00059809,0.001907,-6.403e-05,0,0,0.050071,-0.017016,0,-0.0016648,0,0,0,0.0057595,0.00059729,0.001907,-0.71076,0.0027546,0.0046478,3.8095e-09,0.28,0.78,0
0.014174,-0.0049397,0.0057362,0.00052654,0.0018788,1.4068e-05,0,0,0.050146,-0.01758,0,0.00036577,0,0,0,0.0057362,0.0005265,0.0018788,0.15472,0.0027139,0.0046824,3.8276e-09,0.3,0.78,0
0.015178,-0.0049424,0.0057149,0.00045521,0.001851,8.6383e-05,0,0,0.050231,-0.018146,0,0.002246,0,0,0,0.0057164,0.00045379,0.001851,0.94065,0.0026737,0.0047216,3.8529e-09,0.32,0.78,0
0.016184,-0.0049112,0.0056961,0.00038244,0.0018235,0.00015196,0,0,0.050343,-0.018735,0,0.0039509,0,0,0,0.0057004,0.00037809,0.0018235,1.6368,0.002634,0.0047669,3.8873e-09,0.34,0.78,0
0.017192,-0.0048498,0.0056806,0.00030698,0.0017963,0.00020969,0,0,0.050496,-0.019361,0,0.0054519,0,0,0,0.0056887,0.00029881,0.0017963,2.2313,0.0025946,0.004819,3.9321e-09,0.36,0.78,0
0.018204,-0.0047627,0.0056692,0.00022812,0.0017692,0.00025833,0,0,0.0507,-0.020034,0,0.0067165,0,0,0,0.0056814,0.00021588,0.0017692,2.7121,0.0025555,0.004878,3.9872e-09,0.38,0.78,0
0.01922,-0.0046549,0.0056622,0.00014573,0.0017424,0.00029654,0,0,0.050958,-0.020756,0,0.0077101,0,0,0,0.0056781,0.00012984,0.0017424,3.0682,0.0025168,0.0049433,4.0516e-09,0.4,0.78,0
0.020242,-0.0045321,0.0056597,6.0418e-05,0.001716,0.00032303,0,0,0.051268,-0.021523,0,0.0083987,0,0,0,0.0056783,4.1844e-05,0.001716,3.2909,0.0024787,0.0050136,4.1231e-09,0.42,0.78,0
0.021271,-0.0044003,0.0056613,-2.6501e-05,0.0016904,0.00033663,0,0,0.051621,-0.02232,0,0.0087522,0,0,0,0.0056812,-4.6354e-05,0.0016904,3.3753,0.0024417,0.0050866,4.1987e-09,0.44,0.78,0
0.022307,-0.0042658,0.0056662,-0.00011299,0.001666,0.00033651,0,0,0.052003,-0.023127,0,0.0087492,0,0,0,0.0056858,-0.00013252,0.001666,3.3212,0.0024064,0.0051597,4.2745e-09,0.46,0.78,0
0.023351,-0.0041353,0.0056735,-0.00019644,0.0016431,0.00032232,0,0,0.052395,-0.023914,0,0.0083804,0,0,0,0.0056911,-0.00021409,0.0016431,3.1336,0.0023734,0.00523,4.3467e-09,0.48,0.78,0
0.024403,-0.0040152,0.0056817,-0.00027385,0.0016224,0.00029435,0,0,0.052771,-0.024651,0,0.007653,0,0,0,0.0056962,-0.00028836,0.0016224,2.8226,0.0023434,0.0052944,4.4114e-09,0.5,0.78,0
0.025462,-0.0039117,0.0056896,-0.00034211,0.0016042,0.00025353,0,0,0.053109,-0.025303,0,0.0065919,0,0,0,0.0057002,-0.00035275,0.0016042,2.4027,0.0023172,0.00535,4.4653e-09,0.52,0.78,0
0.026527,-0.0038301,0.0056958,-0.00039831,0.0015892,0.00020153,0,0,0.053385,-0.025838,0,0.0052399,0,0,0,0.0057024,-0.00040497,0.0015892,1.892,0.0022956,0.0053942,4.5058e-09,0.54,0.78,0
0.027597,-0.0037752,0.0056991,-0.00043998,0.0015777,0.0001406,0,0,0.053578,-0.026231,0,0.0036557,0,0,0,0.0057024,-0.0004432,0.0015777,1.3113,0.002279,0.0054252,4.5309e-09,0.56,0.78,0
0.02867,-0.0037503,0.0056988,-0.00046533,0.00157,7.3475e-05,0,0,0.053674,-0.02646,0,0.0019103,0,0,0,0.0056996,-0.00046621,0.00157,0.68283,0.0022678,0.0054414,4.5396e-09,0.58,0.78,0
0.029744,-0.0037576,0.0056941,-0.0004734,0.0015662,3.1934e-06,0,0,0.053663,-0.026515,0,8.3028e-05,0,0,0,0.0056941,-0.0004734,0.0015662,0.029666,0.0022623,0.0054423,4.5313e-09,0.6,0.78,0
0.030817,-0.0037978,0.005685,-0.00046411,0.0015663,-6.7076e-05,0,0,0.053544,-0.026395,0,-0.001744,0,0,0,0.0056858,-0.00046484,0.0015663,-0.62489,0.0022624,0.005428,4.5064e-09,0.62,0.78,0
0.031886,-0.0038704,0.0056718,-0.00043831,0.00157,-0.00013424,0,0,0.053322,-0.026108,0,-0.0034902,0,0,0,0.0056747,-0.00044126,0.00157,-1.258,0.0022678,0.005399,4.4655e-09,0.64,0.78,0
0.032949,-0.0039733,0.0056549,-0.00039772,0.0015771,-0.00019546,0,0,0.05301,-0.025673,0,-0.0050818,0,0,0,0.0056612,-0.00040403,0.0015771,-1.8477,0.0022781,0.0053568,4.41e-09,0.66,0.78,0
0.034006,-0.0041036,0.0056352,-0.00034481,0.0015871,-0.00024834,0,0,0.052625,-0.025115,0,-0.0064569,0,0,0,0.0056455,-0.00035511,0.0015871,-2.374,0.0022925,0.0053033,4.3419e-09,0.68,0.78,0
0.035054,-0.0042569,0.005614,-0.00028261,0.0015994,-0.00029111,0,0,0.05219,-0.024466,0,-0.0075689,0,0,0,0.0056284,-0.00029695,0.0015994,-2.8195,0.0023103,0.0052411,4.2639e-09,0.7,0.78,0
0.036094,-0.0044287,0.0055925,-0.00021445,0.0016134,-0.00032268,0,0,0.051728,-0.023762,0,-0.0083896,0,0,0,0.0056104,-0.00023232,0.0016134,-3.1707,0.0023305,0.005173,4.1793e-09,0.72,0.78,0
0.037124,-0.0046136,0.0055719,-0.00014367,0.0016285,-0.00034267,0,0,0.051264,-0.023038,0,-0.0089094,0,0,0,0.0055923,-0.00016414,0.0016285,-3.4188,0.0023522,0.0051021,4.0915e-09,0.74,0.78,0
0.038144,-0.0048063,0.0055531,-7.3347e-05,0.0016439,-0.00035139,0,0,0.050819,-0.022325,0,-0.009136,0,0,0,0.005575,-9.5207e-05,0.0016439,-3.5598,0.0023746,0.0050313,4.0043e-09,0.76,0.78,0
0.039156,-0.0050015,0.0055371,-6.0689e-06,0.0016593,-0.00034967,0,0,0.050411,-0.02165,0,-0.0090913,0,0,0,0.005559,-2.8039e-05,0.0016593,-3.5953,0.0023968,0.0049634,3.9208e-09,0.78,0.78,0
0.040161,-0.0051944,0.0055242,5.6172e-05,0.0016741,-0.00033873,0,0,0.050051,-0.021033,0,-0.0088071,0,0,0,0.0055451,3.5269e-05,0.0016741,-3.5314,0.0024182,0.0049005,3.8441e-09,0.8,0.78,0
0.041158,-0.0053805,0.0055147,0.00011203,0.001688,-0.00032001,0,0,0.049747,-0.020488,0,-0.0083204,0,0,0,0.0055336,9.3137e-05,0.001688,-3.378,0.0024383,0.0048441,3.776e-09,0.82,0.78,0
0.042151,-0.0055559,0.0055084,0.00016074,0.0017008,-0.000295,0,0,0.0495,-0.02002,0,-0.0076699,0,0,0,0.0055247,0.00014452,0.0017008,-3.1479,0.0024566,0.0047953,3.7178e-09,0.84,0.78,0
0.043138,-0.0057173,0.005505,0.00020209,0.0017121,-0.0002651,0,0,0.049308,-0.019631,0,-0.0068925,0,0,0,0.0055182,0.00018887,0.0017121,-2.8548,0.0024731,0.0047544,3.67e-09,0.86,0.78,0
0.044123,-0.0058619,0.0055039,0.00023623,0.001722,-0.00023159,0,0,0.049164,-0.019315,0,-0.0060213,0,0,0,0.0055141,0.00022607,0.001722,-2.5125,0.0024874,0.0047212,3.6321e-09,0.88,0.78,0
0.045105,-0.0059875,0.0055045,0.00026361,0.0017304,-0.00019554,0,0,0.049063,-0.019069,0,-0.005084,0,0,0,0.0055118,0.00025632,0.0017304,-2.1338,0.0024995,0.0046953,3.6032e-09,0.9,0.78,0
0.046085,-0.0060924,0.0055061,0.0002848,0.0017373,-0.0001578,0,0,0.048995,-0.018882,0,-0.0041027,0,0,0,0.0055108,0.00028004,0.0017373,-1.7295,0.0025094,0.0046757,3.5822e-09,0.92,0.78,0
0.047065,-0.0061751,0.005508,0.00030045,0.0017426,-0.000119,0,0,0.048951,-0.018747,0,-0.003094,0,0,0,0.0055108,0.00029773,0.0017426,-1.3084,0.002517,0.0046617,3.5677e-09,0.94,0.78,0
0.048044,-0.0062349,0.0055099,0.00031115,0.0017463,-7.9589e-05,0,0,0.048926,-0.018657,0,-0.0020693,0,0,0,0.0055111,0.00030993,0.0017463,-0.87689,0.0025224,0.0046524,3.5584e-09,0.96,0.78,0
0.049022,-0.006271,0.0055111,0.00031737,0.0017485,-3.9861e-05,0,0,0.048914,-0.018605,0,-0.0010364,0,0,0,0.0055115,0.00031706,0.0017485,-0.4397,0.0025257,0.004647,3.5533e-09,0.98,0.78,0
0.05,-0.0062831,0.0055116,0.0003194,0.0017493,-2.3224e-05,0,0,0.04891,-0.018589,0,-0.00060381,0,0,0,0.0055117,0.0003193,0.0017493,-0.25627,0.0025268,0.0046455,3.552e-09,1,0.78,0
0,0,0.0055579,0.0023819,0.0023819,-0.0011352,0,0,0.041287,4.3368e-19,0,-0.029516,0,0,0,0.0059219,0.0020179,0.0023819,-17.781,0.0034406,0.0037353,2.5913e-09,0,0.8,0
0.00082574,-0.00059033,0.0055436,0.0021959,0.0023219,-0.0011267,0,0,0.041883,-0.0016371,0,-0.029295,0,0,0,0.0058875,0.001852,0.0023219,-16.973,0.0033538,0.0038223,2.7225e-09,0.02,0.8,0
0.0016753,-0.0011678,0.0056038,0.0020248,0.0022886,-0.0010956,0,0,0.043098,-0.003429,0,-0.028487,0,0,0,0.0059125,0.001716,0.0022886,-15.739,0.0033057,0.0039416,2.9226e-09,0.04,0.8,0
0.0025496,-0.0017261,0.0056615,0.0018447,0.0022519,-0.0010476,0,0,0.044326,-0.0052933,0,-0.027238,0,0,0,0.0059302,0.0015761,0.0022519,-14.382,0.0032527,0.0040586,3.1152e-09,0.06,0.8,0
0.0034483,-0.0022586,0.0057133,0.0016638,0.0022132,-0.00098283,0,0,0.045502,-0.0071411,0,-0.025553,0,0,0,0.0059393,0.0014379,0.0022132,-12.946,0.0031968,0.0041682,3.2898e-09,0.08,0.8,0
0.0043697,-0.0027584,0.0057562,0.0014895,0.0021737,-0.00090332,0,0,0.046572,-0.0088942,0,-0.023486,0,0,0,0.0059395,0.0013062,0.0021737,-11.475,0.0031398,0.0042663,3.4388e-09,0.1,0.8,0
0.0053112,-0.00322,0.0057881,0.0013271,0.0021346,-0.00081246,0,0,0.047496,-0.010497,0,-0.021124,0,0,0,0.0059315,0.0011838,0.0021346,-10.007,0.0030833,0.0043509,3.5588e-09,0.12,0.8,0
0.0062696,-0.0036387,0.0058086,0.0011797,0.0020965,-0.00071405,0,0,0.048257,-0.011918,0,-0.018565,0,0,0,0.0059162,0.001072,0.0020965,-8.573,0.0030283,0.0044219,3.6499e-09,0.14,0.8,0
0.0072415,-0.0040113,0.005818,0.0010482,0.0020599,-0.00061173,0,0,0.048856,-0.013151,0,-0.015905,0,0,0,0.0058952,0.00097102,0.0020599,-7.1932,0.0029754,0.0044801,3.7149e-09,0.16,0.8,0
0.0082238,-0.004336,0.0058176,0.00093225,0.002025,-0.00050853,0,0,0.049305,-0.014205,0,-0.013222,0,0,0,0.00587,0.00087987,0.002025,-5.8801,0.0029249,0.0045275,3.7583e-09,0.18,0.8,0
0.0092137,-0.004612,0.0058092,0.00083024,0.0019918,-0.00040681,0,0,0.049626,-0.015101,0,-0.010577,0,0,0,0.0058422,0.00079722,0.0019918,-4.6403,0.0028771,0.0045664,3.7854e-09,0.2,0.8,0
0.010209,-0.0048397,0.0057948,0.00074013,0.0019605,-0.00030822,0,0,0.049846,-0.015864,0,-0.0080137,0,0,0,0.0058135,0.0007214,0.0019605,-3.4766,0.0028318,0.0045995,3.8016e-09,0.22,0.8,0
0.011208,-0.0050201,0.0057762,0.00065959,0.0019307,-0.00021393,0,0,0.049991,-0.016525,0,-0.0055623,0,0,0,0.0057851,0.00065066,0.0019307,-2.3901,0.0027888,0.0046291,3.8118e-09,0.24,0.8,0
0.012209,-0.0051549,0.0057554,0.00058625,0.0019025,-0.00012478,0,0,0.050087,-0.017111,0,-0.0032442,0,0,0,0.0057584,0.00058324,0.0019025,-1.382,0.002748,0.0046578,3.8206e-09,0.26,0.8,0
0.013211,-0.0052464,0.0057339,0.00051781,0.0018755,-4.1385e-05,0,0,0.050159,-0.01765,0,-0.001076,0,0,0,0.0057342,0.00051749,0.0018755,-0.45456,0.0027091,0.0046876,3.8317e-09,0.28,0.8,0
0.014215,-0.0052973,0.0057131,0.00045219,0.0018496,3.5647e-05,0,0,0.050226,-0.018166,0,0.00092682,0,0,0,0.0057134,0.00045195,0.0018496,0.3882,0.0026716,0.0047204,3.8483e-09,0.3,0.8,0
0.01522,-0.0053109,0.0056944,0.00038753,0.0018246,0.00010569,0,0,0.050308,-0.018682,0,0.0027479,0,0,0,0.0056965,0.00038543,0.0018246,1.1404,0.0026355,0.0047577,3.8726e-09,0.32,0.8,0
0.016227,-0.0052909,0.0056787,0.00032234,0.0018003,0.000168,0,0,0.050419,-0.019213,0,0.004368,0,0,0,0.0056839,0.00031708,0.0018003,1.7947,0.0026004,0.0048003,3.906e-09,0.34,0.8,0
0.017237,-0.0052414,0.0056666,0.00025552,0.0017766,0.00022173,0,0,0.050569,-0.019774,0,0.005765,0,0,0,0.0056756,0.00024645,0.0017766,2.3426,0.0025662,0.0048487,3.9491e-09,0.36,0.8,0
0.01825,-0.0051671,0.0056586,0.00018646,0.0017535,0.00026593,0,0,0.050766,-0.020372,0,0.0069141,0,0,0,0.0056715,0.00017357,0.0017535,2.7757,0.0025329,0.0049028,4.0015e-09,0.38,0.8,0
0.019267,-0.0050729,0.005655,0.00011508,0.001731,0.0002996,0,0,0.051011,-0.021007,0,0.0077896,0,0,0,0.0056711,9.892e-05,0.001731,3.0866,0.0025004,0.0049617,4.0617e-09,0.4,0.8,0
0.02029,-0.0049644,0.0056554,4.1885e-05,0.0017092,0.00032179,0,0,0.051301,-0.021675,0,0.0083667,0,0,0,0.0056738,2.3498e-05,0.0017092,3.2702,0.0024688,0.0050242,4.1278e-09,0.42,0.8,0
0.02132,-0.0048474,0.0056594,-3.2009e-05,0.0016882,0.00033172,0,0,0.051625,-0.022363,0,0.0086248,0,0,0,0.0056787,-5.1279e-05,0.0016882,3.3245,0.0024385,0.0050883,4.197e-09,0.44,0.8,0
0.022355,-0.0047279,0.0056663,-0.00010496,0.0016684,0.00032889,0,0,0.051972,-0.023054,0,0.008551,0,0,0,0.0056849,-0.00012364,0.0016684,3.2511,0.0024099,0.0051519,4.266e-09,0.46,0.8,0
0.023398,-0.0046119,0.0056749,-0.00017487,0.00165,0.00031319,0,0,0.052324,-0.023723,0,0.0081429,0,0,0,0.0056916,-0.00019159,0.00165,3.0559,0.0023833,0.0052124,4.3314e-09,0.48,0.8,0
0.024448,-0.0045053,0.0056841,-0.00023938,0.0016334,0.00028505,0,0,0.052659,-0.024346,0,0.0074112,0,0,0,0.0056978,-0.00025306,0.0016334,2.7487,0.0023594,0.0052674,4.39e-09,0.5,0.8,0
0.025505,-0.0044137,0.0056927,-0.00029602,0.001619,0.00024544,0,0,0.052958,-0.024895,0,0.0063814,0,0,0,0.0057027,-0.00030607,0.001619,2.3429,0.0023386,0.0053145,4.4388e-09,0.52,0.8,0
0.026567,-0.0043419,0.0056994,-0.00034251,0.0016071,0.00019589,0,0,0.0532,-0.025344,0,0.0050931,0,0,0,0.0057057,-0.00034886,0.0016071,1.855,0.0023213,0.0053518,4.4754e-09,0.54,0.8,0
0.027633,-0.0042942,0.0057032,-0.0003769,0.0015979,0.00013843,0,0,0.053369,-0.025672,0,0.0035992,0,0,0,0.0057063,-0.00038005,0.0015979,1.3036,0.0023081,0.0053775,4.4981e-09,0.56,0.8,0
0.028701,-0.0042734,0.0057033,-0.00039776,0.0015917,7.5491e-05,0,0,0.053451,-0.025863,0,0.0019628,0,0,0,0.0057042,-0.00039869,0.0015917,0.7088,0.0022991,0.0053908,4.5058e-09,0.58,0.8,0
0.029771,-0.0042817,0.0056992,-0.00040433,0.0015885,9.7558e-06,0,0,0.05344,-0.025906,0,0.00025365,0,0,0,0.0056992,-0.00040434,0.0015885,0.09158,0.0022944,0.0053909,4.4979e-09,0.6,0.8,0
0.030839,-0.0043197,0.0056907,-0.00039656,0.0015883,-5.5992e-05,0,0,0.053332,-0.025802,0,-0.0014558,0,0,0,0.0056912,-0.00039708,0.0015883,-0.52696,0.0022941,0.0053779,4.4746e-09,0.62,0.8,0
0.031904,-0.004387,0.0056781,-0.00037515,0.0015909,-0.00011903,0,0,0.053134,-0.025558,0,-0.0030949,0,0,0,0.0056804,-0.00037749,0.0015909,-1.1261,0.0022979,0.0053524,4.4365e-09,0.64,0.8,0
0.032964,-0.0044819,0.0056617,-0.00034147,0.0015961,-0.00017687,0,0,0.052854,-0.025188,0,-0.0045987,0,0,0,0.0056669,-0.00034667,0.0015961,-1.6862,0.0023055,0.0053155,4.3849e-09,0.66,0.8,0
0.034018,-0.0046019,0.0056425,-0.0002975,0.0016035,-0.0002274,0,0,0.052507,-0.024713,0,-0.0059123,0,0,0,0.0056512,-0.00030619,0.0016035,-2.1891,0.0023162,0.0052689,4.3216e-09,0.68,0.8,0
0.035065,-0.0047433,0.0056214,-0.00024564,0.0016127,-0.00026899,0,0,0.052113,-0.024159,0,-0.0069937,0,0,0,0.0056337,-0.00025795,0.0016127,-2.6195,0.0023295,0.0052144,4.249e-09,0.7,0.8,0
0.036103,-0.004902,0.0055995,-0.00018856,0.0016233,-0.0003006,0,0,0.051691,-0.023554,0,-0.0078156,0,0,0,0.0056151,-0.00020413,0.0016233,-2.965,0.0023447,0.0051544,4.1697e-09,0.72,0.8,0
0.037132,-0.0050734,0.0055778,-0.00012892,0.0016347,-0.00032178,0,0,0.051261,-0.022927,0,-0.0083662,0,0,0,0.0055959,-0.000147,0.0016347,-3.2171,0.0023612,0.0050915,4.087e-09,0.74,0.8,0
0.038153,-0.0052527,0.0055573,-6.9205e-05,0.0016464,-0.00033262,0,0,0.050841,-0.022303,0,-0.0086481,0,0,0,0.0055769,-8.88e-05,0.0016464,-3.3715,0.0023782,0.0050279,4.0038e-09,0.76,0.8,0
0.039166,-0.0054353,0.0055388,-1.1576e-05,0.0016582,-0.00033369,0,0,0.050449,-0.021707,0,-0.008676,0,0,0,0.0055588,-3.1566e-05,0.0016582,-3.4282,0.0023951,0.004966,3.923e-09,0.78,0.8,0
0.040171,-0.0056165,0.0055228,4.2265e-05,0.0016695,-0.0003259,0,0,0.050093,-0.021154,0,-0.0084735,0,0,0,0.0055422,2.2953e-05,0.0016695,-3.3912,0.0024116,0.0049077,3.8472e-09,0.8,0.8,0
0.04117,-0.0057922,0.0055096,9.1099e-05,0.0016802,-0.00031039,0,0,0.049783,-0.020659,0,-0.0080702,0,0,0,0.0055274,7.3377e-05,0.0016802,-3.2678,0.002427,0.0048543,3.7783e-09,0.82,0.8,0
0.042162,-0.0059585,0.0054993,0.00013418,0.00169,-0.00028838,0,0,0.04952,-0.020226,0,-0.0074979,0,0,0,0.0055147,0.00011873,0.00169,-3.0679,0.0024412,0.004807,3.7176e-09,0.84,0.8,0
0.043151,-0.0061123,0.0054916,0.00017119,0.0016988,-0.0002611,0,0,0.049306,-0.019859,0,-0.0067885,0,0,0,0.0055044,0.0001584,0.0016988,-2.8028,0.0024539,0.0047663,3.6658e-09,0.86,0.8,0
0.044135,-0.0062507,0.0054862,0.00020211,0.0017065,-0.00022968,0,0,0.049137,-0.019557,0,-0.0059716,0,0,0,0.0054962,0.00019215,0.0017065,-2.4841,0.002465,0.0047322,3.623e-09,0.88,0.8,0
0.045116,-0.0063713,0.0054828,0.00022722,0.001713,-0.00019513,0,0,0.049008,-0.019315,0,-0.0050734,0,0,0,0.00549,0.00021998,0.001713,-2.1234,0.0024744,0.0047047,3.5888e-09,0.9,0.8,0
0.046095,-0.0064724,0.0054808,0.00024688,0.0017183,-0.00015831,0,0,0.048913,-0.019129,0,-0.0041161,0,0,0,0.0054856,0.0002421,0.0017183,-1.7309,0.002482,0.0046833,3.5625e-09,0.92,0.8,0
0.047072,-0.0065525,0.0054798,0.00026156,0.0017224,-0.0001199,0,0,0.048847,-0.018991,0,-0.0031175,0,0,0,0.0054826,0.0002588,0.0017224,-1.3156,0.0024879,0.0046674,3.5432e-09,0.94,0.8,0
0.048049,-0.0066104,0.0054795,0.00027168,0.0017253,-8.045e-05,0,0,0.048803,-0.018898,0,-0.0020917,0,0,0,0.0054807,0.00027044,0.0017253,-0.88482,0.0024922,0.0046565,3.5302e-09,0.96,0.8,0
0.049025,-0.0066454,0.0054794,0.0002776,0.0017271,-4.037e-05,0,0,0.048779,-0.018843,0,-0.0010496,0,0,0,0.0054797,0.00027729,0.0017271,-0.44463,0.0024947,0.0046502,3.5227e-09,0.98,0.8,0
0.05,-0.0066571,0.0054793,0.00027955,0.0017277,-2.255e-05,0,0,0.048772,-0.018825,0,-0.00058629,0,0,0,0.0054794,0.00027945,0.0017277,-0.24846,0.0024955,0.0046483,3.5205e-09,1,0.8,0
0,0,0.0055509,0.002379,0.002379,-0.001201,0,0,0.041236,1.4095e-18,0,-0.031226,0,0,0,0.0059544,0.0019755,0.002379,-18.567,0.0034363,0.0037932,2.6966e-09,0,0.82,0
0.00082471,-0.00062452,0.0055354,0.0021744,0.0023129,-0.0011915,0,0,0.041892,-0.0018007,0,-0.030979,0,0,0,0.005915,0.0017949,0.0023129,-17.669,0.0033409,0.003887,2.8365e-09,0.02,0.82,0
0.0016757,-0.0012396,0.0056007,0.0019837,0.0022753,-0.0011599,0,0,0.04323,-0.0037912,0,-0.030156,0,0,0,0.0059407,0.0016437,0.0022753,-16.337,0.0032866,0.0040186,3.0573e-09,0.04,0.82,0
0.0025539,-0.001837,0.0056626,0.0017831,0.0022337,-0.0011064,0,0,0.044575,-0.0058581,0,-0.028768,0,0,0,0.005956,0.0014897,0.0022337,-14.85,0.0032265,0.0041446,3.263e-09,0.06,0.82,0
0.0034587,-0.002408,0.0057165,0.0015839,0.0021901,-0.0010321,0,0,0.045843,-0.0078812,0,-0.026833,0,0,0,0.0059599,0.0013404,0.0021901,-13.27,0.0031635,0.0042587,3.4406e-09,0.08,0.82,0
0.0043876,-0.0029441,0.005759,0.0013954,0.0021463,-0.00094025,0,0,0.046964,-0.0097618,0,-0.024447,0,0,0,0.0059529,0.0012014,0.0021463,-11.657,0.0031002,0.0043566,3.5827e-09,0.1,0.82,0
0.0053373,-0.0034385,0.0057881,0.0012238,0.0021036,-0.00083616,0,0,0.047899,-0.011437,0,-0.02174,0,0,0,0.0059365,0.0010754,0.0021036,-10.061,0.0030385,0.0044372,3.6878e-09,0.12,0.82,0
0.0063036,-0.003886,0.005804,0.0010718,0.0020627,-0.00072512,0,0,0.048636,-0.012882,0,-0.018853,0,0,0,0.0059126,0.00096318,0.0020627,-8.5192,0.0029795,0.0045015,3.7593e-09,0.14,0.82,0
0.0072827,-0.0042833,0.0058077,0.00093955,0.0020242,-0.00061181,0,0,0.049186,-0.0141,0,-0.015907,0,0,0,0.0058834,0.00086384,0.0020242,-7.0546,0.0029238,0.0045517,3.803e-09,0.16,0.82,0
0.0082711,-0.0046288,0.0058016,0.00082554,0.0019881,-0.0004998,0,0,0.049575,-0.015114,0,-0.012995,0,0,0,0.0058513,0.00077584,0.0019881,-5.6793,0.0028718,0.0045909,3.826e-09,0.18,0.82,0
0.0092657,-0.0049223,0.005788,0.00072736,0.0019546,-0.00039157,0,0,0.049834,-0.015954,0,-0.010181,0,0,0,0.0058181,0.00069724,0.0019546,-4.3984,0.0028233,0.0046223,3.8351e-09,0.2,0.82,0
0.010264,-0.0051648,0.0057694,0.00064226,0.0019235,-0.00028867,0,0,0.049997,-0.016656,0,-0.0075055,0,0,0,0.0057856,0.00062606,0.0019235,-3.2124,0.0027784,0.0046487,3.8366e-09,0.22,0.82,0
0.011266,-0.0053579,0.0057481,0.00056746,0.0018947,-0.00019207,0,0,0.050095,-0.017254,0,-0.0049939,0,0,0,0.0057552,0.00056035,0.0018947,-2.1204,0.0027368,0.0046728,3.8356e-09,0.24,0.82,0
0.012268,-0.0055039,0.0057259,0.00050036,0.0018679,-0.00010232,0,0,0.050154,-0.017778,0,-0.0026603,0,0,0,0.0057279,0.00049836,0.0018679,-1.1213,0.002698,0.004697,3.8362e-09,0.26,0.82,0
0.013272,-0.0056056,0.0057044,0.00043859,0.0018429,-1.9791e-05,0,0,0.050199,-0.018256,0,-0.00051457,0,0,0,0.0057044,0.00043851,0.0018429,-0.21534,0.0026619,0.004723,3.8417e-09,0.28,0.82,0
0.014276,-0.0056663,0.0056848,0.00038006,0.0018195,5.5171e-05,0,0,0.050249,-0.018712,0,0.0014344,0,0,0,0.0056853,0.00037949,0.0018195,0.59581,0.0026281,0.0047524,3.8545e-09,0.3,0.82,0
0.015282,-0.0056897,0.0056681,0.00032305,0.0017974,0.00012218,0,0,0.05032,-0.019166,0,0.0031766,0,0,0,0.0056709,0.00032026,0.0017974,1.3088,0.0025962,0.0047862,3.8759e-09,0.32,0.82,0
0.016289,-0.0056797,0.0056551,0.00026617,0.0017764,0.00018074,0,0,0.050423,-0.019633,0,0.0046993,0,0,0,0.0056611,0.00026011,0.0017764,1.9188,0.0025659,0.004825,3.9068e-09,0.34,0.82,0
0.017299,-0.0056407,0.0056461,0.00020845,0.0017564,0.00023027,0,0,0.050567,-0.020123,0,0.005987,0,0,0,0.0056558,0.00019871,0.0017564,2.4205,0.002537,0.0048689,3.9471e-09,0.36,0.82,0
0.018312,-0.0055776,0.0056414,0.00014935,0.0017372,0.00027008,0,0,0.050754,-0.020642,0,0.0070221,0,0,0,0.0056546,0.0001361,0.0017372,2.8086,0.0025093,0.0049175,3.9961e-09,0.38,0.82,0
0.019329,-0.0054952,0.0056408,8.8805e-05,0.0017189,0.00029948,0,0,0.050985,-0.021191,0,0.0077864,0,0,0,0.0056569,7.2698e-05,0.0017189,3.0786,0.0024828,0.00497,4.0522e-09,0.4,0.82,0
0.020351,-0.0053991,0.0056441,2.7239e-05,0.0017014,0.00031781,0,0,0.051255,-0.021764,0,0.0082631,0,0,0,0.005662,9.3134e-06,0.0017014,3.2282,0.0024576,0.0050251,4.1134e-09,0.42,0.82,0
0.021379,-0.0052948,0.0056506,-3.4456e-05,0.0016848,0.00032459,0,0,0.051555,-0.022351,0,0.0084392,0,0,0,0.0056691,-5.2928e-05,0.0016848,3.2572,0.0024336,0.0050811,4.177e-09,0.44,0.82,0
0.022413,-0.005188,0.0056594,-9.4961e-05,0.0016693,0.00031955,0,0,0.051871,-0.022936,0,0.0083082,0,0,0,0.0056771,-0.00011265,0.0016693,3.1687,0.0024113,0.0051361,4.2403e-09,0.46,0.82,0
0.023454,-0.0050843,0.0056696,-0.00015262,0.0016551,0.00030279,0,0,0.052189,-0.0235,0,0.0078726,0,0,0,0.0056853,-0.00016833,0.0016551,2.9691,0.0023907,0.0051881,4.3001e-09,0.48,0.82,0
0.024501,-0.0049891,0.0056801,-0.00020557,0.0016424,0.00027484,0,0,0.05249,-0.024023,0,0.0071457,0,0,0,0.0056929,-0.00021838,0.0016424,2.6677,0.0023723,0.0052351,4.3538e-09,0.5,0.82,0
0.025553,-0.0049075,0.0056896,-0.0002519,0.0016313,0.00023665,0,0,0.052758,-0.024482,0,0.0061529,0,0,0,0.005699,-0.00026131,0.0016313,2.2773,0.0023563,0.0052751,4.3986e-09,0.52,0.82,0
0.026611,-0.0048439,0.0056971,-0.0002898,0.0016222,0.00018965,0,0,0.052974,-0.024856,0,0.0049309,0,0,0,0.0057031,-0.0002958,0.0016222,1.8126,0.0023432,0.0053066,4.4324e-09,0.54,0.82,0
0.027672,-0.0048021,0.0057016,-0.00031775,0.0016152,0.00013567,0,0,0.053124,-0.025128,0,0.0035275,0,0,0,0.0057047,-0.00032081,0.0016152,1.2905,0.002333,0.0053282,4.4536e-09,0.56,0.82,0
0.028736,-0.0047848,0.0057025,-0.00033464,0.0016104,7.6867e-05,0,0,0.053198,-0.025285,0,0.0019985,0,0,0,0.0057035,-0.00033562,0.0016104,0.72935,0.0023261,0.0053391,4.4611e-09,0.58,0.82,0
0.0298,-0.0047938,0.0056992,-0.00033988,0.0016078,1.5596e-05,0,0,0.053189,-0.02532,0,0.00040549,0,0,0,0.0056993,-0.00033992,0.0016078,0.14796,0.0023224,0.0053388,4.4544e-09,0.6,0.82,0
0.030864,-0.0048299,0.0056917,-0.00033344,0.0016075,-4.5696e-05,0,0,0.053094,-0.025232,0,-0.0011881,0,0,0,0.005692,-0.00033378,0.0016075,-0.43451,0.0023219,0.0053274,4.4334e-09,0.62,0.82,0
0.031924,-0.0048927,0.0056799,-0.00031586,0.0016092,-0.00010462,0,0,0.052919,-0.025026,0,-0.0027201,0,0,0,0.0056817,-0.00031768,0.0016092,-0.99936,0.0023244,0.0053053,4.3988e-09,0.64,0.82,0
0.03298,-0.0049809,0.0056644,-0.00028824,0.0016129,-0.00015899,0,0,0.052671,-0.024714,0,-0.0041336,0,0,0,0.0056687,-0.00029248,0.0016129,-1.5288,0.0023297,0.0052733,4.3516e-09,0.66,0.82,0
0.034031,-0.0050921,0.0056459,-0.00025214,0.0016181,-0.00020691,0,0,0.052361,-0.024313,0,-0.0053797,0,0,0,0.0056532,-0.00025939,0.0016181,-2.0067,0.0023373,0.0052328,4.2935e-09,0.68,0.82,0
0.035075,-0.0052233,0.0056252,-0.00020945,0.0016247,-0.00024693,0,0,0.052006,-0.023844,0,-0.0064202,0,0,0,0.0056356,-0.00021989,0.0016247,-2.4191,0.0023468,0.0051854,4.2264e-09,0.7,0.82,0
0.036111,-0.0053708,0.0056032,-0.00016228,0.0016323,-0.00027805,0,0,0.051622,-0.023329,0,-0.0072292,0,0,0,0.0056166,-0.00017566,0.0016323,-2.7546,0.0023577,0.0051329,4.1528e-09,0.72,0.82,0
0.03714,-0.0055306,0.005581,-0.00011274,0.0016405,-0.00029975,0,0,0.051226,-0.022792,0,-0.0077936,0,0,0,0.0055967,-0.00012848,0.0016405,-3.0053,0.0023696,0.0050773,4.0753e-09,0.74,0.82,0
0.03816,-0.0056984,0.0055593,-6.2835e-05,0.0016489,-0.000312,0,0,0.050834,-0.022253,0,-0.0081121,0,0,0,0.0055765,-8.0097e-05,0.0016489,-3.1667,0.0023818,0.0050206,3.9965e-09,0.76,0.82,0
0.039173,-0.0058698,0.0055389,-1.4323e-05,0.0016574,-0.00031516,0,0,0.05046,-0.021732,0,-0.0081942,0,0,0,0.0055568,-3.2153e-05,0.0016574,-3.2378,0.002394,0.0049647,3.9191e-09,0.78,0.82,0
0.040179,-0.0060406,0.0055205,3.1364e-05,0.0016656,-0.0003099,0,0,0.050114,-0.021244,0,-0.0080574,0,0,0,0.0055379,1.3923e-05,0.0016656,-3.2211,0.0024058,0.0049111,3.8452e-09,0.8,0.82,0
0.041178,-0.0062069,0.0055043,7.3164e-05,0.0016733,-0.00029711,0,0,0.049804,-0.020801,0,-0.0077249,0,0,0,0.0055205,5.6959e-05,0.0016733,-3.1219,0.0024169,0.0048613,3.7767e-09,0.82,0.82,0
0.042171,-0.006365,0.0054907,0.00011038,0.0016803,-0.00027781,0,0,0.049535,-0.020409,0,-0.007223,0,0,0,0.005505,9.6075e-05,0.0016803,-2.948,0.0024271,0.0048163,3.715e-09,0.84,0.82,0
0.043159,-0.0065117,0.0054794,0.00014265,0.0016866,-0.00025304,0,0,0.049306,-0.020072,0,-0.006579,0,0,0,0.0054914,0.00013068,0.0016866,-2.7085,0.0024362,0.0047767,3.661e-09,0.86,0.82,0
0.044143,-0.0066442,0.0054705,0.00016989,0.0016921,-0.00022382,0,0,0.049119,-0.019789,0,-0.0058194,0,0,0,0.0054799,0.00016045,0.0016921,-2.4136,0.0024442,0.0047429,3.6151e-09,0.88,0.82,0
0.045124,-0.0067601,0.0054637,0.0001922,0.0016968,-0.0001911,0,0,0.04897,-0.019559,0,-0.0049686,0,0,0,0.0054706,0.00018528,0.0016968,-2.0734,0.0024509,0.0047149,3.5772e-09,0.9,0.82,0
0.046102,-0.0068575,0.0054587,0.00020984,0.0017006,-0.00015569,0,0,0.048855,-0.019379,0,-0.004048,0,0,0,0.0054633,0.00020522,0.0017006,-1.6975,0.0024563,0.0046926,3.5472e-09,0.92,0.82,0
0.047078,-0.0069348,0.0054551,0.00022311,0.0017035,-0.00011832,0,0,0.048772,-0.019245,0,-0.0030763,0,0,0,0.0054578,0.00022044,0.0017035,-1.2948,0.0024606,0.0046757,3.5246e-09,0.94,0.82,0
0.048053,-0.0069908,0.0054528,0.00023233,0.0017055,-7.9584e-05,0,0,0.048715,-0.019152,0,-0.0020692,0,0,0,0.005454,0.00023112,0.0017055,-0.87318,0.0024636,0.0046639,3.5088e-09,0.96,0.82,0
0.049027,-0.0070248,0.0054515,0.00023775,0.0017068,-3.9997e-05,0,0,0.048682,-0.019097,0,-0.0010399,0,0,0,0.0054519,0.00023744,0.0017068,-0.4395,0.0024654,0.004657,3.4996e-09,0.98,0.82,0
0.05,-0.0070361,0.0054511,0.00023953,0.0017072,-2.1857e-05,0,0,0.048671,-0.01908,0,-0.00056828,0,0,0,0.0054512,0.00023944,0.0017072,-0.24029,0.002466,0.0046548,3.4968e-09,1,0.82,0
0,0,0.0055604,0.002383,0.002383,-0.0012738,0,0,0.041306,3.2526e-19,0,-0.033118,0,0,0,0.006008,0.0019355,0.002383,-19.361,0.0034422,0.0038682,2.839e-09,0,0.84,0
0.00082612,-0.00066235,0.0055432,0.002155,0.0023094,-0.0012629,0,0,0.042038,-0.002008,0,-0.032835,0,0,0,0.0059621,0.0017361,0.0023094,-18.352,0.0033359,0.0039705,2.9901e-09,0.02,0.84,0
0.0016815,-0.0013194,0.0056143,0.0019383,0.0022658,-0.0012299,0,0,0.043531,-0.0042569,0,-0.031976,0,0,0,0.0059879,0.0015648,0.0022658,-16.894,0.0032728,0.0041175,3.2379e-09,0.04,0.84,0
0.0025673,-0.0019605,0.0056802,0.0017113,0.0022174,-0.0011686,0,0,0.045016,-0.0065801,0,-0.030383,0,0,0,0.0059987,0.0013928,0.0022174,-15.246,0.003203,0.004254,3.4582e-09,0.06,0.84,0
0.0034822,-0.0025738,0.0057349,0.0014898,0.0021674,-0.0010811,0,0,0.046378,-0.008809,0,-0.028108,0,0,0,0.0059944,0.0012304,0.0021674,-13.495,0.0031307,0.0043715,3.6348e-09,0.08,0.84,0
0.0044225,-0.0031489,0.0057745,0.0012859,0.0021181,-0.00097343,0,0,0.047533,-0.010819,0,-0.025309,0,0,0,0.0059765,0.0010839,0.0021181,-11.724,0.0030595,0.0044662,3.7615e-09,0.1,0.84,0
0.0053835,-0.0036775,0.0057975,0.001106,0.002071,-0.00085344,0,0,0.048444,-0.012546,0,-0.022189,0,0,0,0.0059479,0.00095553,0.002071,-9.9962,0.0029915,0.0045386,3.8414e-09,0.12,0.84,0
0.0063602,-0.004154,0.0058049,0.0009516,0.0020269,-0.00072837,0,0,0.049113,-0.01398,0,-0.018938,0,0,0,0.0059118,0.00084464,0.0020269,-8.3537,0.0029278,0.0045917,3.8828e-09,0.14,0.84,0
0.007348,-0.0045753,0.0057994,0.00082131,0.0019862,-0.00060389,0,0,0.049572,-0.015144,0,-0.015701,0,0,0,0.0058716,0.0007491,0.0019862,-6.8188,0.002869,0.0046296,3.896e-09,0.16,0.84,0
0.0083431,-0.0049405,0.0057845,0.00071204,0.001949,-0.00048384,0,0,0.049862,-0.01608,0,-0.01258,0,0,0,0.0058302,0.0006663,0.001949,-5.4004,0.0028152,0.004657,3.8911e-09,0.18,0.84,0
0.0093425,-0.0052502,0.0057633,0.0006202,0.001915,-0.00037047,0,0,0.050027,-0.016833,0,-0.0096322,0,0,0,0.0057899,0.00059365,0.001915,-4.0989,0.0027662,0.0046776,3.8766e-09,0.2,0.84,0
0.010344,-0.0055059,0.0057389,0.00054225,0.0018843,-0.00026495,0,0,0.050109,-0.017447,0,-0.0068886,0,0,0,0.0057524,0.00052878,0.0018843,-2.9111,0.0027218,0.0046949,3.8593e-09,0.22,0.84,0
0.011347,-0.0057102,0.0057136,0.00047499,0.0018566,-0.00016776,0,0,0.050141,-0.017961,0,-0.0043618,0,0,0,0.005719,0.00046962,0.0018566,-1.8323,0.0026817,0.0047116,3.8439e-09,0.24,0.84,0
0.01235,-0.005866,0.0056893,0.00041559,0.0018315,-7.9042e-05,0,0,0.050152,-0.018406,0,-0.0020551,0,0,0,0.0056905,0.0004144,0.0018315,-0.85849,0.0026455,0.0047295,3.8342e-09,0.26,0.84,0
0.013353,-0.0059766,0.0056673,0.00036164,0.0018087,1.1944e-06,0,0,0.050162,-0.018812,0,3.1054e-05,0,0,0,0.0056673,0.00036164,0.0018087,0.012898,0.0026125,0.0047504,3.8325e-09,0.28,0.84,0
0.014356,-0.0060458,0.0056487,0.00031113,0.0017879,7.2926e-05,0,0,0.05019,-0.019199,0,0.0018961,0,0,0,0.0056497,0.00031013,0.0017879,0.78263,0.0025826,0.0047754,3.8402e-09,0.3,0.84,0
0.01536,-0.0060776,0.0056341,0.00026243,0.001769,0.00013604,0,0,0.050246,-0.019585,0,0.003537,0,0,0,0.0056375,0.00025899,0.001769,1.4498,0.0025551,0.0048049,3.8581e-09,0.32,0.84,0
0.016366,-0.0060762,0.0056238,0.00021429,0.0017514,0.00019029,0,0,0.050341,-0.019983,0,0.0049477,0,0,0,0.0056305,0.00020761,0.0017514,2.0122,0.0025299,0.0048393,3.8863e-09,0.34,0.84,0
0.017374,-0.0060464,0.0056181,0.00016585,0.0017352,0.00023535,0,0,0.050478,-0.020401,0,0.006119,0,0,0,0.0056283,0.00015571,0.0017352,2.467,0.0025064,0.0048785,3.924e-09,0.36,0.84,0
0.018385,-0.0059928,0.0056168,0.00011664,0.0017201,0.00027076,0,0,0.050659,-0.020844,0,0.0070398,0,0,0,0.0056302,0.00010334,0.0017201,2.8114,0.0024845,0.0049218,3.9702e-09,0.38,0.84,0
0.019401,-0.0059206,0.0056197,6.6581e-05,0.0017059,0.00029608,0,0,0.05088,-0.021311,0,0.0076981,0,0,0,0.0056355,5.0839e-05,0.0017059,3.0434,0.0024641,0.0049683,4.0232e-09,0.4,0.84,0
0.020421,-0.005835,0.0056262,1.6014e-05,0.0016927,0.0003109,0,0,0.051136,-0.021796,0,0.0080835,0,0,0,0.0056434,-1.1631e-06,0.0016927,3.1623,0.0024449,0.0050168,4.0809e-09,0.42,0.84,0
0.021446,-0.0057415,0.0056355,-3.4357e-05,0.0016803,0.00031495,0,0,0.051417,-0.022291,0,0.0081887,0,0,0,0.005653,-5.1798e-05,0.0016803,3.1697,0.0024272,0.0050659,4.1408e-09,0.44,0.84,0
0.022477,-0.0056453,0.0056468,-8.3493e-05,0.001669,0.00030816,0,0,0.051712,-0.022783,0,0.0080122,0,0,0,0.0056634,-0.00010002,0.001669,3.0694,0.0024108,0.0051138,4.2002e-09,0.46,0.84,0
0.023514,-0.0055519,0.0056591,-0.0001301,0.0016587,0.00029076,0,0,0.052006,-0.023255,0,0.0075597,0,0,0,0.0056737,-0.00014467,0.0016587,2.868,0.0023959,0.0051588,4.2566e-09,0.48,0.84,0
0.024557,-0.0054662,0.0056713,-0.00017273,0.0016496,0.00026332,0,0,0.052283,-0.02369,0,0.0068462,0,0,0,0.0056831,-0.00018457,0.0016496,2.5746,0.0023827,0.0051992,4.3072e-09,0.5,0.84,0
0.025606,-0.0053929,0.0056823,-0.00020991,0.0016417,0.00022678,0,0,0.052528,-0.024071,0,0.0058962,0,0,0,0.005691,-0.00021862,0.0016417,2.2008,0.0023714,0.0052336,4.3498e-09,0.52,0.84,0
0.026659,-0.0053362,0.0056911,-0.00024023,0.0016353,0.00018245,0,0,0.052726,-0.024381,0,0.0047437,0,0,0,0.0056967,-0.00024584,0.0016353,1.7602,0.0023621,0.0052606,4.3823e-09,0.54,0.84,0
0.027715,-0.0052993,0.0056968,-0.00026253,0.0016303,0.00013199,0,0,0.052865,-0.024607,0,0.0034317,0,0,0,0.0056998,-0.00026545,0.0016303,1.2682,0.0023549,0.0052791,4.4033e-09,0.56,0.84,0
0.028773,-0.0052848,0.0056988,-0.00027594,0.0016269,7.7291e-05,0,0,0.052936,-0.024737,0,0.0020096,0,0,0,0.0056998,-0.00027694,0.0016269,0.74102,0.0023499,0.0052885,4.4117e-09,0.58,0.84,0
0.029832,-0.0052945,0.0056967,-0.00028002,0.001625,2.044e-05,0,0,0.052932,-0.024765,0,0.00053143,0,0,0,0.0056968,-0.00028009,0.001625,0.19594,0.0023472,0.0052883,4.4068e-09,0.6,0.84,0
0.03089,-0.005329,0.0056902,-0.00027473,0.0016247,-3.6422e-05,0,0,0.052852,-0.024692,0,-0.00094698,0,0,0,0.0056904,-0.00027495,0.0016247,-0.34984,0.0023467,0.0052785,4.3888e-09,0.62,0.84,0
0.031946,-0.005388,0.0056795,-0.00026051,0.0016257,-9.1203e-05,0,0,0.0527,-0.024521,0,-0.0023713,0,0,0,0.0056809,-0.00026191,0.0016257,-0.87943,0.0023483,0.0052595,4.3579e-09,0.64,0.84,0
0.032998,-0.0054705,0.005665,-0.00023822,0.0016281,-0.00014197,0,0,0.052481,-0.024261,0,-0.0036912,0,0,0,0.0056685,-0.00024163,0.0016281,-1.3769,0.0023516,0.0052321,4.3153e-09,0.66,0.84,0
0.034045,-0.0055744,0.0056473,-0.00020906,0.0016315,-0.00018706,0,0,0.052206,-0.023927,0,-0.0048635,0,0,0,0.0056532,-0.00021503,0.0016315,-1.8276,0.0023566,0.0051972,4.2622e-09,0.68,0.84,0
0.035087,-0.005697,0.005627,-0.00017451,0.0016358,-0.00022513,0,0,0.051886,-0.023533,0,-0.0058535,0,0,0,0.0056357,-0.00018323,0.0016358,-2.219,0.0023627,0.005156,4.2004e-09,0.7,0.84,0
0.036121,-0.0058351,0.0056051,-0.00013621,0.0016407,-0.00025526,0,0,0.051537,-0.023099,0,-0.0066368,0,0,0,0.0056164,-0.00014754,0.0016407,-2.5407,0.0023698,0.0051101,4.1321e-09,0.72,0.84,0
0.037148,-0.005985,0.0055891,-9.5711e-05,0.001648,-0.00027532,0,0,0.051234,-0.022669,0,-0.0071583,0,0,0,0.0056024,-0.00010901,0.001648,-2.7662,0.0023805,0.0050668,4.0736e-09,0.74,0.84,0
0.038168,-0.0061428,0.0055507,-6.0188e-05,0.0016472,-0.00029208,0,0,0.050746,-0.022196,0,-0.007594,0,0,0,0.0055659,-7.5351e-05,0.0016472,-2.9718,0.0023792,0.0050073,3.9703e-09,0.76,0.84,0
0.03918,-0.0063045,0.0055454,-1.183e-05,0.0016601,-0.00029536,0,0,0.050509,-0.021735,0,-0.0076794,0,0,0,0.0055611,-2.7484e-05,0.0016601,-3.0338,0.0023979,0.0049648,3.9247e-09,0.78,0.84,0
0.040186,-0.0064663,0.0055104,2.0993e-05,0.0016594,-0.00029076,0,0,0.050063,-0.0213,0,-0.0075597,0,0,0,0.0055258,5.6357e-06,0.0016594,-3.0235,0.002397,0.0049069,3.8261e-09,0.8,0.84,0
0.041185,-0.0066242,0.005506,6.2965e-05,0.0016707,-0.00028368,0,0,0.049859,-0.0209,0,-0.0073756,0,0,0,0.0055207,4.8221e-05,0.0016707,-2.9754,0.0024132,0.0048684,3.7836e-09,0.82,0.84,0
0.042178,-0.0067749,0.0054775,8.9977e-05,0.0016702,-0.00026102,0,0,0.049494,-0.020543,0,-0.0067866,0,0,0,0.0054901,7.736e-05,0.0016702,-2.7673,0.0024126,0.004818,3.699e-09,0.84,0.84,0
0.043166,-0.0069152,0.0054741,0.00012264,0.001679,-0.00024613,0,0,0.049336,-0.020233,0,-0.0063993,0,0,0,0.0054854,0.00011135,0.001679,-2.6278,0.0024253,0.0047868,3.6638e-09,0.86,0.84,0
0.04415,-0.0070422,0.0054533,0.00014262,0.0016788,-0.00020986,0,0,0.049069,-0.01997,0,-0.0054565,0,0,0,0.0054616,0.00013434,0.0016788,-2.2595,0.0024249,0.0047474,3.5985e-09,0.88,0.84,0
0.04513,-0.0071537,0.005451,0.00016538,0.0016849,-0.00018977,0,0,0.04896,-0.019754,0,-0.0049341,0,0,0,0.0054579,0.00015858,0.0016849,-2.0536,0.0024338,0.0047248,3.5725e-09,0.9,0.84,0
0.046108,-0.0072476,0.0054376,0.00017845,0.0016848,-0.00014433,0,0,0.048786,-0.019583,0,-0.0037525,0,0,0,0.0054416,0.00017449,0.0016848,-1.5708,0.0024336,0.0046977,3.5281e-09,0.92,0.84,0
0.047083,-0.0073222,0.0054363,0.00019209,0.0016885,-0.00012121,0,0,0.048721,-0.019454,0,-0.0031515,0,0,0,0.0054391,0.00018929,0.0016885,-1.3234,0.002439,0.0046838,3.5119e-09,0.94,0.84,0
0.048056,-0.0073764,0.0054293,0.00019897,0.0016885,-7.0426e-05,0,0,0.048631,-0.019364,0,-0.0018311,0,0,0,0.0054302,0.00019802,0.0016885,-0.77129,0.0024389,0.004669,3.4879e-09,0.96,0.84,0
0.049028,-0.0074093,0.0054288,0.00020455,0.00169,-4.5877e-05,0,0,0.048604,-0.019311,0,-0.0011928,0,0,0,0.0054292,0.00020415,0.00169,-0.5031,0.0024411,0.0046631,3.481e-09,0.98,0.84,0
0.05,-0.0074203,0.0054323,0.00021724,0.0016948,-2.1176e-05,0,0,0.048586,-0.019209,0,-0.00055056,0,0,0,0.0054324,0.00021715,0.0016948,-0.23264,0.0024481,0.0046557,3.4773e-09,1,0.84,0
0,0,0.0055916,0.0023964,0.0023964,-0.0013555,0,0,0.041538,-1.0842e-18,0,-0.035242,0,0,0,0.0060892,0.0018989,0.0023964,-20.156,0.0034615,0.003965,3.0322e-09,0,0.86,0
0.00083076,-0.00070484,0.0055377,0.0021286,0.0022999,-0.0013437,0,0,0.042091,-0.0022266,0,-0.034937,0,0,0,0.0060037,0.0016627,0.0022999,-19.125,0.0033221,0.00406,3.1538e-09,0.02,0.86,0
0.0016947,-0.0014098,0.0056947,0.0019181,0.0022839,-0.001305,0,0,0.044341,-0.0047542,0,-0.033929,0,0,0,0.0061018,0.0015111,0.0022839,-17.324,0.0032989,0.0042572,3.5267e-09,0.04,0.86,0
0.002593,-0.0021002,0.0056933,0.0016332,0.0021979,-0.001248,0,0,0.04544,-0.0073421,0,-0.032447,0,0,0,0.0060462,0.0012802,0.0021979,-15.79,0.0031748,0.0043798,3.6846e-09,0.06,0.86,0
0.0035229,-0.0027603,0.0058133,0.0014186,0.0021696,-0.0011202,0,0,0.047368,-0.0097623,0,-0.029125,0,0,0,0.0060824,0.0011496,0.0021696,-13.506,0.0031338,0.0045101,3.9116e-09,0.08,0.86,0
0.004479,-0.0033769,0.0057948,0.0011794,0.0020923,-0.0010245,0,0,0.048134,-0.011868,0,-0.026636,0,0,0,0.006012,0.00096219,0.0020923,-11.969,0.0030222,0.0045903,3.971e-09,0.1,0.86,0
0.0054548,-0.0039404,0.005843,0.0010092,0.0020556,-0.00085073,0,0,0.049235,-0.013604,0,-0.022119,0,0,0,0.0059883,0.00086383,0.0020556,-9.6959,0.0029693,0.0046447,4.0266e-09,0.12,0.86,0
0.0064439,-0.0044452,0.0058083,0.00081902,0.0019882,-0.00071915,0,0,0.049661,-0.015199,0,-0.018698,0,0,0,0.0059099,0.00071743,0.0019882,-8.0406,0.0028718,0.0046881,4.0101e-09,0.14,0.86,0
0.0074412,-0.004889,0.005789,0.00069467,0.0019451,-0.00058421,0,0,0.04997,-0.016255,0,-0.015189,0,0,0,0.0058551,0.00062853,0.0019451,-6.4589,0.0028096,0.0047084,3.9814e-09,0.16,0.86,0
0.0084427,-0.005272,0.0057616,0.00059358,0.0019065,-0.00045787,0,0,0.050116,-0.017069,0,-0.011905,0,0,0,0.0058018,0.00055333,0.0019065,-5.024,0.0027539,0.0047197,3.9406e-09,0.18,0.86,0
0.0094458,-0.0055957,0.0057304,0.00051086,0.0018724,-0.00034164,0,0,0.050154,-0.0177,0,-0.0088826,0,0,0,0.0057527,0.00048859,0.0018724,-3.729,0.0027046,0.0047266,3.8973e-09,0.2,0.86,0
0.010449,-0.0058627,0.0056987,0.00044223,0.0018423,-0.00023589,0,0,0.050133,-0.018201,0,-0.006133,0,0,0,0.0057092,0.00043167,0.0018423,-2.5643,0.0026611,0.0047326,3.858e-09,0.22,0.86,0
0.011451,-0.0060763,0.0056687,0.00038413,0.0018158,-0.00014039,0,0,0.050087,-0.018612,0,-0.0036502,0,0,0,0.0056724,0.0003804,0.0018158,-1.5207,0.0026229,0.0047402,3.8266e-09,0.24,0.86,0
0.012452,-0.0062401,0.005642,0.00033363,0.0017927,-5.4725e-05,0,0,0.050041,-0.018968,0,-0.0014229,0,0,0,0.0056426,0.00033307,0.0017927,-0.59059,0.0025895,0.004751,3.8058e-09,0.26,0.86,0
0.013453,-0.0063581,0.0056197,0.00028837,0.0017724,2.1538e-05,0,0,0.050015,-0.019293,0,0.00055998,0,0,0,0.0056198,0.00028829,0.0017724,0.23146,0.0025602,0.0047661,3.7967e-09,0.28,0.86,0
0.014453,-0.0064343,0.0056024,0.00024646,0.0017547,8.8713e-05,0,0,0.050021,-0.019607,0,0.0023066,0,0,0,0.0056039,0.00024499,0.0017547,0.94867,0.0025345,0.0047861,3.7998e-09,0.3,0.86,0
0.015454,-0.0064731,0.0055903,0.00020642,0.001739,0.00014696,0,0,0.050067,-0.019924,0,0.003821,0,0,0,0.0055943,0.00020241,0.001739,1.5624,0.0025119,0.0048113,3.815e-09,0.32,0.86,0
0.016456,-0.006479,0.0055835,0.00016714,0.0017252,0.00019628,0,0,0.050158,-0.020255,0,0.0051032,0,0,0,0.0055906,0.00016004,0.0017252,2.0727,0.0024919,0.0048416,3.8414e-09,0.34,0.86,0
0.01746,-0.0064568,0.0055817,0.00012788,0.0017129,0.00023653,0,0,0.050294,-0.020605,0,0.0061497,0,0,0,0.0055919,0.00011764,0.0017129,2.4787,0.0024741,0.0048764,3.878e-09,0.36,0.86,0
0.018467,-0.0064113,0.0055846,8.8233e-05,0.0017018,0.00026748,0,0,0.050475,-0.020977,0,0.0069544,0,0,0,0.0055975,7.5247e-05,0.0017018,2.7795,0.0024582,0.0049152,3.9233e-09,0.38,0.86,0
0.019479,-0.0063477,0.0055916,4.8126e-05,0.0016919,0.00028887,0,0,0.050696,-0.021369,0,0.0075106,0,0,0,0.0056066,3.3114e-05,0.0016919,2.9749,0.0024439,0.0049568,3.9753e-09,0.4,0.86,0
0.020495,-0.006271,0.005602,7.81e-06,0.0016829,0.00030048,0,0,0.050948,-0.021777,0,0.0078123,0,0,0,0.0056181,-8.2827e-06,0.0016829,3.0657,0.0024309,0.0050001,4.0319e-09,0.42,0.86,0
0.021517,-0.0061865,0.0056076,-3.7532e-05,0.001671,0.00030113,0,0,0.051175,-0.022211,0,0.0078294,0,0,0,0.0056236,-5.355e-05,0.001671,3.0449,0.0024137,0.0050412,4.0781e-09,0.44,0.86,0
0.022544,-0.0060993,0.0056241,-8.3928e-05,0.0016621,0.00029423,0,0,0.051507,-0.022698,0,0.0076501,0,0,0,0.0056393,-9.9054e-05,0.0016621,2.943,0.0024008,0.0050916,4.1464e-09,0.46,0.86,0
0.023577,-0.0060144,0.0056373,-0.00012546,0.0016535,0.00027707,0,0,0.051788,-0.023127,0,0.0072039,0,0,0,0.0056506,-0.00013875,0.0016535,2.7463,0.0023884,0.0051335,4.2008e-09,0.48,0.86,0
0.024616,-0.0059367,0.0056501,-0.00016342,0.001646,0.0002507,0,0,0.052053,-0.023522,0,0.0065183,0,0,0,0.0056609,-0.00017421,0.001646,2.4647,0.0023775,0.0051711,4.2497e-09,0.5,0.86,0
0.025659,-0.0058703,0.0056616,-0.00019646,0.0016395,0.00021604,0,0,0.052286,-0.023868,0,0.0056172,0,0,0,0.0056695,-0.00020441,0.0016395,2.1093,0.0023682,0.0052031,4.291e-09,0.52,0.86,0
0.026707,-0.0058192,0.005683,-0.00020215,0.0016443,0.00016807,0,0,0.052504,-0.024003,0,0.0043697,0,0,0,0.0056878,-0.00020695,0.0016443,1.6344,0.0023751,0.0052214,4.3341e-09,0.54,0.86,0
0.027758,-0.0057863,0.0056841,-0.00022288,0.0016384,0.00013361,0,0,0.052594,-0.024196,0,0.0034738,0,0,0,0.0056871,-0.0002259,0.0016384,1.2951,0.0023665,0.005236,4.3462e-09,0.56,0.86,0
0.028812,-0.0057742,0.0056804,-0.00025461,0.0016278,7.5959e-05,0,0,0.052685,-0.024471,0,0.0019749,0,0,0,0.0056814,-0.00025558,0.0016278,0.73314,0.0023512,0.0052549,4.3545e-09,0.58,0.86,0
0.029866,-0.0057844,0.0056884,-0.00023606,0.0016357,1.6298e-05,0,0,0.052685,-0.024333,0,0.00042375,0,0,0,0.0056885,-0.0002361,0.0016357,0.15762,0.0023627,0.0052454,4.3566e-09,0.6,0.86,0
0.030919,-0.0058176,0.0056886,-0.00022049,0.0016404,-2.8323e-05,0,0,0.052627,-0.024192,0,-0.00073639,0,0,0,0.0056888,-0.00022063,0.0016404,-0.27461,0.0023695,0.0052332,4.3462e-09,0.62,0.86,0
0.031971,-0.0058735,0.0056791,-0.00020923,0.001641,-7.884e-05,0,0,0.052496,-0.024053,0,-0.0020499,0,0,0,0.0056802,-0.00021028,0.001641,-0.76696,0.0023703,0.0052172,4.3192e-09,0.64,0.86,0
0.033019,-0.0059513,0.0056655,-0.00019162,0.0016422,-0.00012582,0,0,0.052304,-0.023839,0,-0.0032713,0,0,0,0.0056682,-0.00019432,0.0016422,-1.23,0.002372,0.0051938,4.2808e-09,0.66,0.86,0
0.034063,-0.0060491,0.0056484,-0.00016859,0.0016439,-0.00016778,0,0,0.052058,-0.023563,0,-0.0043623,0,0,0,0.0056532,-0.00017342,0.0016439,-1.6508,0.0023746,0.0051637,4.2322e-09,0.68,0.86,0
0.035101,-0.0061646,0.0056284,-0.00014126,0.0016462,-0.00020353,0,0,0.05177,-0.023236,0,-0.0052918,0,0,0,0.0056356,-0.00014843,0.0016462,-2.0178,0.0023778,0.0051279,4.1749e-09,0.7,0.86,0
0.036134,-0.0062948,0.0056064,-0.00011089,0.0016486,-0.0002322,0,0,0.05145,-0.022874,0,-0.0060371,0,0,0,0.0056158,-0.00012031,0.0016486,-2.3219,0.0023814,0.0050877,4.1108e-09,0.72,0.86,0
0.037159,-0.0064364,0.0055922,-7.2048e-05,0.001656,-0.0002492,0,0,0.05117,-0.022465,0,-0.0064791,0,0,0,0.0056031,-8.299e-05,0.001656,-2.5142,0.0023921,0.0050466,4.0559e-09,0.74,0.86,0
0.038178,-0.0065857,0.0055523,-4.7511e-05,0.0016514,-0.00026623,0,0,0.050711,-0.022086,0,-0.006922,0,0,0,0.0055649,-6.014e-05,0.0016514,-2.7159,0.0023854,0.0049943,3.957e-09,0.76,0.86,0
0.03919,-0.0067391,0.0055433,-1.0311e-05,0.0016599,-0.00027036,0,0,0.050485,-0.021713,0,-0.0070294,0,0,0,0.0055565,-2.3442e-05,0.0016599,-2.7805,0.0023976,0.0049574,3.912e-09,0.78,0.86,0
0.040195,-0.0068929,0.0055055,1.2715e-05,0.0016555,-0.00026773,0,0,0.05005,-0.021356,0,-0.0069609,0,0,0,0.0055185,-3.0343e-07,0.0016555,-2.7839,0.0023912,0.0049052,3.8154e-09,0.8,0.86,0
0.041194,-0.0070436,0.0054974,4.5756e-05,0.001663,-0.00026232,0,0,0.049848,-0.021024,0,-0.0068204,0,0,0,0.00551,3.3163e-05,0.001663,-2.7485,0.002402,0.0048709,3.7729e-09,0.82,0.86,0
0.042187,-0.0071877,0.0054652,6.5047e-05,0.0016591,-0.00024256,0,0,0.04948,-0.020722,0,-0.0063065,0,0,0,0.0054761,5.4174e-05,0.0016591,-2.5667,0.0023964,0.004824,3.6879e-09,0.84,0.86,0
0.043175,-0.0073222,0.0054586,9.1442e-05,0.001665,-0.00022968,0,0,0.049316,-0.020456,0,-0.0059717,0,0,0,0.0054684,8.1631e-05,0.001665,-2.4459,0.002405,0.0047953,3.6518e-09,0.86,0.86,0
0.044159,-0.0074444,0.0054338,0.00010598,0.0016619,-0.00019654,0,0,0.049034,-0.020227,0,-0.00511,0,0,0,0.005441,9.8737e-05,0.0016619,-2.1098,0.0024006,0.0047574,3.5843e-09,0.88,0.86,0
0.045138,-0.0075518,0.0054289,0.00012487,0.0016661,-0.00017844,0,0,0.048916,-0.020036,0,-0.0046395,0,0,0,0.0054349,0.00011888,0.0016661,-1.9247,0.0024066,0.0047359,3.557e-09,0.9,0.86,0
0.046114,-0.0076424,0.0054121,0.00013455,0.001664,-0.00013594,0,0,0.048725,-0.019883,0,-0.0035345,0,0,0,0.0054156,0.00013105,0.001664,-1.4746,0.0024035,0.0047091,3.5098e-09,0.92,0.86,0
0.047088,-0.0077146,0.005409,0.00014614,0.0016665,-0.00011464,0,0,0.048652,-0.019765,0,-0.0029807,0,0,0,0.0054115,0.00014364,0.0016665,-1.2473,0.0024072,0.0046954,3.4924e-09,0.94,0.86,0
0.048059,-0.007767,0.0053998,0.0001513,0.0016653,-6.6507e-05,0,0,0.048549,-0.019682,0,-0.0017292,0,0,0,0.0054007,0.00015046,0.0016653,-0.72587,0.0024055,0.0046804,3.4662e-09,0.96,0.86,0
0.04903,-0.0077989,0.0053985,0.00015613,0.0016664,-4.3609e-05,0,0,0.048518,-0.019634,0,-0.0011338,0,0,0,0.0053989,0.00015577,0.0016664,-0.47657,0.002407,0.0046746,3.4588e-09,0.98,0.86,0
0.05,-0.0078096,0.0053923,0.00014668,0.0016617,-2.0524e-05,0,0,0.048497,-0.019695,0,-0.00053363,0,0,0,0.0053923,0.0001466,0.0016617,-0.22418,0.0024002,0.0046761,3.4529e-09,1,0.86,0
0,0,0.0056535,0.0024229,0.0024229,-0.001449,0,0,0.041997,-5.421e-19,0,-0.037673,0,0,0,0.0062082,0.0018683,0.0024229,-20.947,0.0034998,0.0040909,3.2993e-09,0,0.88,0
0.00083995,-0.00075347,0.0055829,0.002094,0.0023031,-0.0014272,0,0,0.042638,-0.0027179,0,-0.037108,0,0,0,0.0060924,0.0015846,0.0023031,-19.644,0.0033267,0.004195,3.4195e-09,0.02,0.88,0
0.0017183,-0.0015143,0.0057482,0.0018172,0.0022696,-0.0013797,0,0,0.045221,-0.0058814,0,-0.035873,0,0,0,0.0061841,0.0013813,0.0022696,-17.534,0.0032784,0.0044261,3.8555e-09,0.04,0.88,0
0.0026358,-0.0022613,0.0057313,0.0014652,0.002159,-0.0012987,0,0,0.04644,-0.0090185,0,-0.033766,0,0,0,0.0060955,0.001101,0.002159,-15.668,0.0031185,0.0045586,3.996e-09,0.06,0.88,0
0.0035873,-0.0029731,0.0058412,0.0012117,0.0021159,-0.0011344,0,0,0.04843,-0.011754,0,-0.029495,0,0,0,0.0061043,0.00094867,0.0021159,-13.054,0.0030563,0.0046824,4.1886e-09,0.08,0.88,0
0.0045644,-0.003633,0.0058106,0.00095979,0.0020311,-0.0010138,0,0,0.049134,-0.013927,0,-0.026358,0,0,0,0.006014,0.00075645,0.0020311,-11.342,0.0029338,0.0047503,4.1978e-09,0.1,0.88,0
0.0055582,-0.0042309,0.0058319,0.00079021,0.0019866,-0.00081122,0,0,0.049988,-0.015553,0,-0.021092,0,0,0,0.0059592,0.00066289,0.0019866,-8.9193,0.0028696,0.0047741,4.1738e-09,0.12,0.88,0
0.006561,-0.004762,0.0058088,0.0006755,0.0019453,-0.00069151,0,0,0.050226,-0.016508,0,-0.017979,0,0,0,0.0059004,0.00058398,0.0019453,-7.5393,0.0028099,0.0047833,4.1238e-09,0.14,0.88,0
0.0075672,-0.0052255,0.00577,0.0005622,0.0018996,-0.00054853,0,0,0.050314,-0.017387,0,-0.014262,0,0,0,0.0058271,0.00050505,0.0018996,-5.948,0.0027439,0.0047799,4.041e-09,0.16,0.88,0
0.0085735,-0.0056233,0.0057266,0.00047319,0.0018599,-0.00041922,0,0,0.050266,-0.018027,0,-0.0109,0,0,0,0.0057598,0.00043995,0.0018599,-4.534,0.0026865,0.0047711,3.9573e-09,0.18,0.88,0
0.0095779,-0.0059582,0.0056833,0.00040237,0.0018257,-0.00030364,0,0,0.050149,-0.018503,0,-0.0078946,0,0,0,0.0057007,0.00038497,0.0018257,-3.2799,0.0026371,0.0047618,3.8818e-09,0.2,0.88,0
0.01058,-0.006234,0.0056434,0.00034497,0.0017965,-0.00020093,0,0,0.05001,-0.01887,0,-0.0052242,0,0,0,0.005651,0.00033736,0.0017965,-2.1687,0.002595,0.0047551,3.8196e-09,0.22,0.88,0
0.011578,-0.0064547,0.0056087,0.00029729,0.0017718,-0.00011,0,0,0.04988,-0.019169,0,-0.00286,0,0,0,0.005611,0.00029501,0.0017718,-1.1859,0.0025593,0.0047529,3.7728e-09,0.24,0.88,0
0.012575,-0.0066247,0.0055803,0.00025649,0.001751,-2.9782e-05,0,0,0.04978,-0.019429,0,-0.00077434,0,0,0,0.0055804,0.00025632,0.001751,-0.32051,0.0025293,0.0047563,3.7422e-09,0.26,0.88,0
0.013569,-0.0067483,0.0055585,0.00022036,0.0017336,4.0591e-05,0,0,0.049723,-0.019673,0,0.0010554,0,0,0,0.0055588,0.00022006,0.0017336,0.43564,0.0025042,0.0047658,3.7275e-09,0.28,0.88,0
0.014564,-0.0068301,0.0055435,0.00018724,0.0017192,0.00010175,0,0,0.049715,-0.019916,0,0.0026455,0,0,0,0.0055454,0.0001853,0.0017192,1.0879,0.0024833,0.0047814,3.728e-09,0.3,0.88,0
0.015558,-0.0068745,0.005535,0.00015582,0.0017072,0.00015409,0,0,0.049761,-0.020168,0,0.0040062,0,0,0,0.0055394,0.00015141,0.0017072,1.6394,0.002466,0.0048029,3.7425e-09,0.32,0.88,0
0.016554,-0.0068864,0.0055327,0.00012519,0.0016974,0.00019778,0,0,0.049859,-0.020438,0,0.0051424,0,0,0,0.0055399,0.00011796,0.0016974,2.0919,0.0024517,0.00483,3.7697e-09,0.34,0.88,0
0.017552,-0.0068705,0.005536,9.4719e-05,0.0016892,0.00023287,0,0,0.050008,-0.020728,0,0.0060547,0,0,0,0.0055459,8.4771e-05,0.0016892,2.4461,0.00244,0.0048617,3.8079e-09,0.36,0.88,0
0.018554,-0.0068319,0.0055442,6.4076e-05,0.0016825,0.00025927,0,0,0.050202,-0.021039,0,0.006741,0,0,0,0.0055565,5.1837e-05,0.0016825,2.7027,0.0024303,0.0048973,3.8551e-09,0.38,0.88,0
0.019561,-0.0067753,0.0055566,3.3193e-05,0.0016769,0.00027685,0,0,0.050436,-0.021369,0,0.0071982,0,0,0,0.0055704,1.9351e-05,0.0016769,2.8623,0.0024222,0.0049357,3.9092e-09,0.4,0.88,0
0.020572,-0.0067061,0.0055722,2.2554e-06,0.0016723,0.00028553,0,0,0.050698,-0.021711,0,0.0074237,0,0,0,0.0055868,-1.2343e-05,0.0016723,2.9268,0.0024156,0.0049755,3.9679e-09,0.42,0.88,0
0.021589,-0.0066291,0.005585,-2.7812e-05,0.0016672,0.00028338,0,0,0.050932,-0.022035,0,0.0073679,0,0,0,0.0055993,-4.2083e-05,0.0016672,2.883,0.0024081,0.0050104,4.017e-09,0.44,0.88,0
0.022611,-0.0065494,0.0056151,-4.4115e-05,0.0016713,0.00027268,0,0,0.051269,-0.0223,0,0.0070898,0,0,0,0.0056282,-5.7224e-05,0.0016713,2.7523,0.0024141,0.0050482,4.0909e-09,0.46,0.88,0
0.023639,-0.0064717,0.0056359,-6.8216e-05,0.0016703,0.00025505,0,0,0.051553,-0.022601,0,0.0066312,0,0,0,0.0056473,-7.9597e-05,0.0016703,2.555,0.0024127,0.0050831,4.1495e-09,0.48,0.88,0
0.024673,-0.0064005,0.0056557,-9.0086e-05,0.0016697,0.00022987,0,0,0.051819,-0.022877,0,0.0059766,0,0,0,0.0056649,-9.9267e-05,0.0016697,2.2873,0.0024118,0.0051145,4.2031e-09,0.5,0.88,0
0.025712,-0.0063399,0.0056734,-0.00010904,0.0016693,0.00019795,0,0,0.052053,-0.023119,0,0.0051468,0,0,0,0.0056802,-0.00011581,0.0016693,1.9584,0.0024112,0.0051413,4.2494e-09,0.52,0.88,0
0.026755,-0.0062934,0.0056841,-0.00014066,0.001663,0.00015656,0,0,0.052273,-0.023448,0,0.0040706,0,0,0,0.0056883,-0.00014486,0.001663,1.5386,0.0024021,0.0051719,4.2893e-09,0.54,0.88,0
0.027802,-0.006264,0.0056878,-0.00015585,0.0016596,0.00012558,0,0,0.052367,-0.023601,0,0.003265,0,0,0,0.0056905,-0.00015855,0.0016596,1.2305,0.0023972,0.0051849,4.3046e-09,0.56,0.88,0
0.028851,-0.0062539,0.0057044,-0.0001427,0.0016685,7.3198e-05,0,0,0.052467,-0.023546,0,0.0019031,0,0,0,0.0057054,-0.00014362,0.0016685,0.71711,0.0024101,0.0051861,4.3269e-09,0.58,0.88,0
0.0299,-0.0062645,0.0056967,-0.00016461,0.0016596,1.944e-05,0,0,0.052482,-0.023715,0,0.00050545,0,0,0,0.0056968,-0.00016468,0.0016596,0.19003,0.0023973,0.0051954,4.3233e-09,0.6,0.88,0
0.03095,-0.0062966,0.0056891,-0.00017089,0.0016555,-2.1474e-05,0,0,0.052438,-0.023743,0,-0.00055832,0,0,0,0.0056892,-0.00017097,0.0016555,-0.20996,0.0023912,0.0051937,4.3108e-09,0.62,0.88,0
0.031998,-0.0063501,0.0056807,-0.00016223,0.0016555,-6.7475e-05,0,0,0.052327,-0.023631,0,-0.0017544,0,0,0,0.0056815,-0.00016301,0.0016555,-0.66154,0.0023913,0.0051804,4.2876e-09,0.64,0.88,0
0.033043,-0.006424,0.0056679,-0.00014874,0.0016557,-0.00011036,0,0,0.052158,-0.023458,0,-0.0028694,0,0,0,0.00567,-0.00015083,0.0016557,-1.0866,0.0023916,0.0051604,4.2528e-09,0.66,0.88,0
0.034084,-0.0065169,0.0056511,-0.0001311,0.001656,-0.00014883,0,0,0.051936,-0.023232,0,-0.0038696,0,0,0,0.0056549,-0.00013493,0.001656,-1.4734,0.002392,0.0051343,4.2077e-09,0.68,0.88,0
0.035121,-0.0066265,0.0056311,-0.00011017,0.0016563,-0.00018182,0,0,0.051672,-0.022964,0,-0.0047273,0,0,0,0.0056368,-0.00011592,0.0016563,-1.8121,0.0023924,0.0051029,4.1536e-09,0.7,0.88,0
0.036151,-0.0067501,0.0056084,-8.6858e-05,0.0016565,-0.00020853,0,0,0.051375,-0.022663,0,-0.0054218,0,0,0,0.0056161,-9.4484e-05,0.0016565,-2.0941,0.0023927,0.0050673,4.0924e-09,0.72,0.88,0
0.037176,-0.0068846,0.005584,-6.2145e-05,0.0016566,-0.00022846,0,0,0.051057,-0.022343,0,-0.00594,0,0,0,0.0055933,-7.1374e-05,0.0016566,-2.3133,0.0023928,0.0050285,4.0259e-09,0.74,0.88,0
0.038193,-0.0070269,0.0055586,-3.6955e-05,0.0016565,-0.00024138,0,0,0.050728,-0.022015,0,-0.006276,0,0,0,0.005569,-4.7348e-05,0.0016565,-2.4655,0.0023927,0.0049877,3.9563e-09,0.76,0.88,0
0.039205,-0.0071732,0.005533,-1.2133e-05,0.0016563,-0.00024733,0,0,0.050398,-0.021689,0,-0.0064306,0,0,0,0.005544,-2.3143e-05,0.0016563,-2.5488,0.0023924,0.0049461,3.8855e-09,0.78,0.88,0
0.040209,-0.0073203,0.0055078,1.16e-05,0.0016558,-0.00024656,0,0,0.050076,-0.021375,0,-0.0064106,0,0,0,0.0055189,5.6175e-07,0.0016558,-2.5634,0.0023918,0.0049048,3.8155e-09,0.8,0.88,0
0.041208,-0.0074646,0.0054838,3.3672e-05,0.0016552,-0.00023951,0,0,0.049771,-0.02108,0,-0.0062274,0,0,0,0.0054943,2.3166e-05,0.0016552,-2.5115,0.0023909,0.0048649,3.7481e-09,0.82,0.88,0
0.0422,-0.007603,0.0054613,5.3665e-05,0.0016545,-0.00022676,0,0,0.049489,-0.020811,0,-0.0058957,0,0,0,0.0054708,4.4172e-05,0.0016545,-2.397,0.0023898,0.0048273,3.6847e-09,0.84,0.88,0
0.043187,-0.0077324,0.0054409,7.1308e-05,0.0016537,-0.00020895,0,0,0.049234,-0.02057,0,-0.0054327,0,0,0,0.005449,6.319e-05,0.0016537,-2.2251,0.0023886,0.0047928,3.6266e-09,0.86,0.88,0
0.04417,-0.0078501,0.0054228,8.6464e-05,0.0016528,-0.00018678,0,0,0.04901,-0.020362,0,-0.0048563,0,0,0,0.0054293,7.9935e-05,0.0016528,-2.0022,0.0023873,0.0047619,3.5749e-09,0.88,0.88,0
0.045148,-0.0079538,0.0054072,9.9097e-05,0.0016519,-0.00016096,0,0,0.048819,-0.020186,0,-0.004185,0,0,0,0.0054121,9.422e-05,0.0016519,-1.7353,0.0023861,0.0047352,3.5303e-09,0.9,0.88,0
0.046122,-0.0080415,0.0053943,0.00010925,0.0016511,-0.00013218,0,0,0.048662,-0.020044,0,-0.0034366,0,0,0,0.0053976,0.00010594,0.0016511,-1.4318,0.0023849,0.0047131,3.4933e-09,0.92,0.88,0
0.047094,-0.0081114,0.0053843,0.00011699,0.0016504,-0.00010109,0,0,0.04854,-0.019934,0,-0.0026282,0,0,0,0.0053862,0.00011505,0.0016504,-1.099,0.0023839,0.0046956,3.4643e-09,0.94,0.88,0
0.048064,-0.0081622,0.005377,0.00012243,0.0016498,-6.8306e-05,0,0,0.048453,-0.019856,0,-0.001776,0,0,0,0.0053779,0.00012154,0.0016498,-0.74464,0.0023831,0.0046831,3.4435e-09,0.96,0.88,0
0.049032,-0.0081931,0.0053727,0.00012566,0.0016495,-3.4425e-05,0,0,0.048401,-0.01981,0,-0.00089505,0,0,0,0.0053729,0.00012543,0.0016495,-0.37589,0.0023826,0.0046756,3.4309e-09,0.98,0.88,0
0.05,-0.0082034,0.0053712,0.00012672,0.0016494,-1.9913e-05,0,0,0.048384,-0.019795,0,-0.00051774,0,0,0,0.0053713,0.00012665,0.0016494,-0.21754,0.0023824,0.0046732,3.4269e-09,1,0.88,0
0,0,0.0057615,0.0024692,0.0024692,-0.001559,0,0,0.0428,2.1684e-19,0,-0.040535,0,0,0,0.0063826,0.0018481,0.0024692,-21.721,0.0035666,0.004258,3.6822e-09,0,0.9,0
0.00085599,-0.00081069,0.0057315,0.0021062,0.0023513,-0.0015338,0,0,0.043943,-0.0031869,0,-0.039879,0,0,0,0.0062934,0.0015443,0.0023513,-20.118,0.0033963,0.0044014,3.8876e-09,0.02,0.9,0
0.0017577,-0.0016385,0.0058193,0.0017305,0.002265,-0.001477,0,0,0.046207,-0.0069476,0,-0.038403,0,0,0,0.0062971,0.0012528,0.002265,-17.924,0.0032716,0.0046221,4.2631e-09,0.04,0.9,0
0.0027043,-0.0024513,0.0058832,0.0013662,0.0021748,-0.0013491,0,0,0.048209,-0.010512,0,-0.035075,0,0,0,0.0062555,0.00099398,0.0021748,-15.425,0.0031414,0.0047817,4.4817e-09,0.06,0.9,0
0.0036861,-0.0032193,0.00591,0.001062,0.0020916,-0.0011753,0,0,0.049639,-0.013385,0,-0.030559,0,0,0,0.00618,0.00079209,0.0020916,-12.934,0.0030212,0.0048699,4.5384e-09,0.08,0.9,0
0.0046898,-0.0039228,0.0058979,0.00082808,0.0020178,-0.0009864,0,0,0.050441,-0.015466,0,-0.025646,0,0,0,0.006083,0.00064293,0.0020178,-10.631,0.0029146,0.0048996,4.4755e-09,0.1,0.9,0
0.0057037,-0.0045522,0.0058561,0.00065418,0.0019531,-0.00080408,0,0,0.050739,-0.016886,0,-0.020906,0,0,0,0.0059775,0.00053272,0.0019531,-8.5895,0.0028211,0.0048918,4.3473e-09,0.12,0.9,0
0.0067194,-0.0051055,0.0057973,0.00052512,0.0018967,-0.00063866,0,0,0.050708,-0.017831,0,-0.016605,0,0,0,0.0058736,0.00044886,0.0018967,-6.8094,0.0027397,0.0048652,4.1963e-09,0.14,0.9,0
0.007732,-0.0055845,0.005733,0.00042861,0.0018485,-0.00049292,0,0,0.050499,-0.018458,0,-0.012816,0,0,0,0.0057785,0.0003832,0.0018485,-5.2642,0.0026701,0.0048322,4.0492e-09,0.16,0.9,0
0.0087394,-0.0059931,0.0056707,0.00035539,0.0018078,-0.00036607,0,0,0.050217,-0.018882,0,-0.0095179,0,0,0,0.0056958,0.0003303,0.0018078,-3.9214,0.0026113,0.0048004,3.9196e-09,0.18,0.9,0
0.0097407,-0.0063358,0.0056146,0.00029875,0.001774,-0.00025603,0,0,0.049927,-0.019178,0,-0.0066569,0,0,0,0.0056269,0.00028644,0.001774,-2.7511,0.0025624,0.0047738,3.8128e-09,0.2,0.9,0
0.010736,-0.0066175,0.0055669,0.00025386,0.0017462,-0.00016054,0,0,0.049669,-0.019401,0,-0.004174,0,0,0,0.0055718,0.00024901,0.0017462,-1.7291,0.0025223,0.0047544,3.7304e-09,0.22,0.9,0
0.011728,-0.0068431,0.0055287,0.00021724,0.0017238,-7.7555e-05,0,0,0.049464,-0.019585,0,-0.0020164,0,0,0,0.0055298,0.0002161,0.0017238,-0.83636,0.0024899,0.0047431,3.6717e-09,0.24,0.9,0
0.012715,-0.0070173,0.0054999,0.00018634,0.0017059,-5.46e-06,0,0,0.049322,-0.019754,0,-0.00014196,0,0,0,0.0054999,0.00018634,0.0017059,-0.058874,0.0024641,0.0047402,3.635e-09,0.26,0.9,0
0.0137,-0.007145,0.0054804,0.00015929,0.0016919,5.697e-05,0,0,0.04925,-0.019924,0,0.0014812,0,0,0,0.005481,0.00015868,0.0016919,0.61334,0.0024439,0.0047452,3.6185e-09,0.28,0.9,0
0.014685,-0.0072309,0.0054694,0.00013467,0.0016812,0.00011059,0,0,0.049246,-0.020105,0,0.0028754,0,0,0,0.0054717,0.00013238,0.0016812,1.1871,0.0024284,0.0047579,3.6201e-09,0.3,0.9,0
0.01567,-0.0072798,0.0054663,0.00011145,0.0016733,0.00015596,0,0,0.049309,-0.020304,0,0.0040549,0,0,0,0.0054709,0.00010692,0.0016733,1.6668,0.002417,0.0047774,3.6378e-09,0.32,0.9,0
0.016657,-0.0072966,0.0054703,8.891e-05,0.0016678,0.00019337,0,0,0.049433,-0.020525,0,0.0050275,0,0,0,0.0054773,8.197e-05,0.0016678,2.0552,0.002409,0.0048029,3.6695e-09,0.34,0.9,0
0.017648,-0.0072859,0.0054804,6.6547e-05,0.0016641,0.00022295,0,0,0.049612,-0.020768,0,0.0057967,0,0,0,0.0054896,5.7382e-05,0.0016641,2.3542,0.0024037,0.0048335,3.7129e-09,0.36,0.9,0
0.018642,-0.0072529,0.0054957,4.4109e-05,0.0016619,0.00024472,0,0,0.049839,-0.021032,0,0.0063626,0,0,0,0.0055066,3.3146e-05,0.0016619,2.5651,0.0024006,0.0048679,3.766e-09,0.38,0.9,0
0.019641,-0.0072024,0.005515,2.154e-05,0.001661,0.00025863,0,0,0.050103,-0.021313,0,0.0067244,0,0,0,0.0055272,9.3905e-06,0.001661,2.6895,0.0023992,0.0049052,3.8262e-09,0.4,0.9,0
0.020646,-0.0071394,0.0055374,-1.0272e-06,0.0016609,0.00026467,0,0,0.050394,-0.021605,0,0.0068815,0,0,0,0.00555,-1.3647e-05,0.0016609,2.7298,0.0023991,0.0049439,3.8911e-09,0.42,0.9,0
0.021657,-0.0070688,0.0055617,-2.3294e-05,0.0016615,0.00026289,0,0,0.050702,-0.021902,0,0.0068352,0,0,0,0.005574,-3.5642e-05,0.0016615,2.6891,0.0024,0.0049828,3.9583e-09,0.44,0.9,0
0.022674,-0.0069954,0.0055867,-4.4827e-05,0.0016626,0.00025346,0,0,0.051014,-0.022196,0,0.00659,0,0,0,0.0055981,-5.6212e-05,0.0016626,2.5718,0.0024015,0.0050206,4.025e-09,0.46,0.9,0
0.023697,-0.0069237,0.0056113,-6.5089e-05,0.0016639,0.00023672,0,0,0.051317,-0.022476,0,0.0061547,0,0,0,0.0056212,-7.4944e-05,0.0016639,2.3839,0.0024033,0.0050561,4.0889e-09,0.48,0.9,0
0.024727,-0.0068581,0.0056344,-8.3488e-05,0.0016653,0.00021321,0,0,0.051599,-0.022734,0,0.0055434,0,0,0,0.0056423,-9.1427e-05,0.0016653,2.1325,0.0024054,0.0050882,4.1475e-09,0.5,0.9,0
0.025761,-0.0068023,0.005655,-9.942e-05,0.0016667,0.00018366,0,0,0.051848,-0.022959,0,0.0047753,0,0,0,0.0056608,-0.00010528,0.0016667,1.8262,0.0024074,0.0051157,4.1986e-09,0.52,0.9,0
0.026801,-0.0067597,0.0056721,-0.00011232,0.0016679,0.00014904,0,0,0.052054,-0.023143,0,0.003875,0,0,0,0.0056759,-0.00011616,0.0016679,1.4749,0.0024092,0.0051379,4.2403e-09,0.54,0.9,0
0.027844,-0.0067332,0.005685,-0.00012172,0.001669,0.00011046,0,0,0.052208,-0.023279,0,0.0028719,0,0,0,0.0056871,-0.00012382,0.001669,1.0894,0.0024108,0.005154,4.271e-09,0.56,0.9,0
0.028889,-0.0067248,0.0056932,-0.00012727,0.0016698,6.9198e-05,0,0,0.052304,-0.023362,0,0.0017991,0,0,0,0.005694,-0.0001281,0.0016698,0.68104,0.0024119,0.0051635,4.2897e-09,0.58,0.9,0
0.029936,-0.0067359,0.0056962,-0.0001288,0.0016702,2.662e-05,0,0,0.052338,-0.023387,0,0.00069211,0,0,0,0.0056964,-0.00012892,0.0016702,0.26183,0.0024126,0.0051663,4.2955e-09,0.6,0.9,0
0.030982,-0.0067673,0.005694,-0.00012628,0.0016703,-1.5878e-05,0,0,0.052308,-0.023356,0,-0.00041284,0,0,0,0.005694,-0.00012632,0.0016703,-0.15631,0.0024127,0.0051621,4.2883e-09,0.62,0.9,0
0.032028,-0.0068188,0.0056865,-0.0001199,0.00167,-5.693e-05,0,0,0.052215,-0.023269,0,-0.0014802,0,0,0,0.0056871,-0.00012046,0.00167,-0.56169,0.0024122,0.0051512,4.2684e-09,0.64,0.9,0
0.033071,-0.0068896,0.0056741,-0.00011,0.0016692,-9.5261e-05,0,0,0.052064,-0.02313,0,-0.0024768,0,0,0,0.0056757,-0.00011157,0.0016692,-0.94328,0.0024111,0.005134,4.2363e-09,0.66,0.9,0
0.034111,-0.0069784,0.0056573,-9.7082e-05,0.001668,-0.00012975,0,0,0.05186,-0.022947,0,-0.0033734,0,0,0,0.0056602,-0.00010001,0.001668,-1.291,0.0024094,0.0051109,4.1932e-09,0.68,0.9,0
0.035146,-0.0070832,0.0056365,-8.1739e-05,0.0016664,-0.00015946,0,0,0.051611,-0.022726,0,-0.0041459,0,0,0,0.005641,-8.6182e-05,0.0016664,-1.5961,0.0024071,0.0050828,4.1406e-09,0.7,0.9,0
0.036175,-0.0072013,0.0056127,-6.4642e-05,0.0016644,-0.00018368,0,0,0.051327,-0.022478,0,-0.0047758,0,0,0,0.0056186,-7.0579e-05,0.0016644,-1.8512,0.0024041,0.0050504,4.0801e-09,0.72,0.9,0
0.037199,-0.0073301,0.0055865,-4.6487e-05,0.001662,-0.00020196,0,0,0.051018,-0.02221,0,-0.0052509,0,0,0,0.0055937,-5.3718e-05,0.001662,-2.0507,0.0024007,0.0050148,4.0138e-09,0.74,0.9,0
0.038216,-0.0074663,0.0055588,-2.7944e-05,0.0016592,-0.00021405,0,0,0.050694,-0.021934,0,-0.0055654,0,0,0,0.005567,-3.6134e-05,0.0016592,-2.191,0.0023967,0.0049769,3.9436e-09,0.76,0.9,0
0.039226,-0.0076067,0.0055304,-9.6306e-06,0.0016562,-0.00021996,0,0,0.050364,-0.021656,0,-0.005719,0,0,0,0.0055391,-1.835e-05,0.0016562,-2.2701,0.0023923,0.0049379,3.8717e-09,0.78,0.9,0
0.04023,-0.0077479,0.0055021,7.9259e-06,0.001653,-0.00021987,0,0,0.050038,-0.021386,0,-0.0057166,0,0,0,0.0055109,-8.5899e-07,0.001653,-2.288,0.0023877,0.0048989,3.8e-09,0.8,0.9,0
0.041228,-0.0078868,0.0054746,2.43e-05,0.0016497,-0.00021413,0,0,0.049724,-0.02113,0,-0.0055673,0,0,0,0.005483,1.59e-05,0.0016497,-2.2464,0.0023829,0.0048607,3.7304e-09,0.82,0.9,0
0.042219,-0.0080201,0.0054486,3.9175e-05,0.0016463,-0.0002032,0,0,0.04943,-0.020893,0,-0.0052832,0,0,0,0.0054562,3.1553e-05,0.0016463,-2.1482,0.002378,0.0048244,3.6645e-09,0.84,0.9,0
0.043205,-0.008145,0.0054246,5.2342e-05,0.0016431,-0.00018765,0,0,0.04916,-0.020679,0,-0.0048788,0,0,0,0.0054311,4.5796e-05,0.0016431,-1.9981,0.0023733,0.0047907,3.6036e-09,0.86,0.9,0
0.044186,-0.0082589,0.005403,6.3687e-05,0.00164,-0.00016807,0,0,0.048919,-0.020492,0,-0.0043697,0,0,0,0.0054083,5.8402e-05,0.00164,-1.8011,0.0023689,0.0047604,3.549e-09,0.88,0.9,0
0.045162,-0.0083592,0.0053842,7.317e-05,0.0016372,-0.00014508,0,0,0.048711,-0.020332,0,-0.0037721,0,0,0,0.0053881,6.921e-05,0.0016372,-1.5636,0.0023648,0.0047339,3.5016e-09,0.9,0.9,0
0.046134,-0.0084441,0.0053685,8.0808e-05,0.0016348,-0.00011931,0,0,0.048538,-0.020202,0,-0.003102,0,0,0,0.0053711,7.8117e-05,0.0016348,-1.2919,0.0023613,0.0047117,3.462e-09,0.92,0.9,0
0.047103,-0.0085119,0.005356,8.6651e-05,0.0016328,-9.1346e-05,0,0,0.048402,-0.0201,0,-0.002375,0,0,0,0.0053576,8.5068e-05,0.0016328,-0.99284,0.0023585,0.0046941,3.4307e-09,0.94,0.9,0
0.04807,-0.0085613,0.0053471,9.0764e-05,0.0016313,-6.1776e-05,0,0,0.048304,-0.020028,0,-0.0016062,0,0,0,0.0053478,9.0037e-05,0.0016313,-0.67326,0.0023564,0.0046814,3.4082e-09,0.96,0.9,0
0.049036,-0.0085913,0.0053416,9.3203e-05,0.0016305,-3.1149e-05,0,0,0.048245,-0.019984,0,-0.00080988,0,0,0,0.0053418,9.3019e-05,0.0016305,-0.34003,0.0023551,0.0046738,3.3946e-09,0.98,0.9,0
0.05,-0.0086013,0.0053398,9.4012e-05,0.0016301,-1.9342e-05,0,0,0.048226,-0.01997,0,-0.0005029,0,0,0,0.0053399,9.394e-05,0.0016301,-0.21125,0.0023547,0.0046713,3.3902e-09,1,0.9,0
0,0,0.0059453,0.002548,0.002548,-0.0016941,0,0,0.044165,-2.1684e-19,0,-0.044047,0,0,0,0.0066457,0.0018476,0.002548,-22.462,0.0036804,0.0044891,4.2674e-09,0,0.92,0
0.0008833,-0.00088094,0.0058996,0.0020812,0.0023942,-0.0016518,0,0,0.04557,-0.0040697,0,-0.042947,0,0,0,0.006515,0.0014658,0.0023942,-20.433,0.0034583,0.0046549,4.4936e-09,0.02,0.92,0
0.0018228,-0.0017922,0.0059845,0.0015902,0.0022724,-0.0015617,0,0,0.048257,-0.0088688,0,-0.040604,0,0,0,0.006483,0.0010917,0.0022724,-17.702,0.0032824,0.0049086,4.9098e-09,0.04,0.92,0
0.0028136,-0.0026818,0.0060289,0.0011595,0.0021565,-0.0013743,0,0,0.050341,-0.012962,0,-0.035732,0,0,0,0.00639,0.00079835,0.0021565,-14.722,0.0031149,0.0050514,5.0418e-09,0.06,0.92,0
0.0038364,-0.0035084,0.0060152,0.00084384,0.0020577,-0.0011436,0,0,0.051447,-0.01578,0,-0.029733,0,0,0,0.0062568,0.00060224,0.0020577,-11.929,0.0029723,0.0050855,4.9362e-09,0.08,0.92,0
0.0048715,-0.0042517,0.0059515,0.00062895,0.0019741,-0.00091904,0,0,0.051706,-0.017487,0,-0.023895,0,0,0,0.0061057,0.00047473,0.0019741,-9.5259,0.0028515,0.0050511,4.7053e-09,0.1,0.92,0
0.0059047,-0.0049063,0.0058584,0.00048016,0.0019016,-0.00072145,0,0,0.051439,-0.018478,0,-0.018758,0,0,0,0.0059535,0.00038507,0.0019016,-7.509,0.0027467,0.0049863,4.4379e-09,0.12,0.92,0
0.006929,-0.0054752,0.0057587,0.00037582,0.0018403,-0.00055459,0,0,0.050938,-0.019039,0,-0.014419,0,0,0,0.0058152,0.00031927,0.0018403,-5.8216,0.0026583,0.0049152,4.1877e-09,0.14,0.92,0
0.0079422,-0.0059639,0.0056648,0.00030103,0.0017898,-0.00041515,0,0,0.050376,-0.019353,0,-0.010794,0,0,0,0.0056968,0.00026909,0.0017898,-4.3997,0.0025852,0.0048496,3.9748e-09,0.16,0.92,0
0.0089441,-0.0063785,0.005583,0.00024615,0.0017488,-0.00029846,0,0,0.049846,-0.019534,0,-0.0077599,0,0,0,0.0055997,0.00022951,0.0017488,-3.1909,0.002526,0.0047946,3.8039e-09,0.18,0.92,0
0.009936,-0.0067253,0.0055155,0.00020479,0.0017161,-0.00020012,0,0,0.049392,-0.019647,0,-0.005203,0,0,0,0.005523,0.00019726,0.0017161,-2.1549,0.0024788,0.004752,3.6729e-09,0.2,0.92,0
0.01092,-0.00701,0.0054624,0.00017269,0.0016905,-0.0001166,0,0,0.049035,-0.019732,0,-0.0030316,0,0,0,0.005465,0.00017012,0.0016905,-1.2621,0.0024419,0.004722,3.5778e-09,0.22,0.92,0
0.011897,-0.0072381,0.0054233,0.00014692,0.0016711,-4.5213e-05,0,0,0.048779,-0.019814,0,-0.0011755,0,0,0,0.0054237,0.00014654,0.0016711,-0.49092,0.0024138,0.004704,3.5142e-09,0.24,0.92,0
0.012871,-0.0074148,0.005397,0.00012545,0.0016567,1.6014e-05,0,0,0.048624,-0.019907,0,0.00041636,0,0,0,0.0053971,0.0001254,0.0016567,0.17405,0.0023931,0.0046971,3.4778e-09,0.26,0.92,0
0.013842,-0.0075453,0.0053824,0.00010681,0.0016467,6.8474e-05,0,0,0.048563,-0.020019,0,0.0017803,0,0,0,0.0053832,0.00010592,0.0016467,0.7435,0.0023786,0.0047003,3.4653e-09,0.28,0.92,0
0.014813,-0.0076343,0.005378,8.9949e-05,0.0016404,0.00011311,0,0,0.048589,-0.020156,0,0.0029408,0,0,0,0.0053805,8.7531e-05,0.0016404,1.2248,0.0023695,0.0047125,3.4733e-09,0.3,0.92,0
0.015786,-0.0076867,0.0053828,7.4102e-05,0.0016371,0.00015051,0,0,0.048695,-0.020319,0,0.0039133,0,0,0,0.0053871,6.9838e-05,0.0016371,1.6227,0.0023647,0.0047324,3.499e-09,0.32,0.92,0
0.016761,-0.0077074,0.0053954,5.874e-05,0.0016362,0.00018103,0,0,0.048869,-0.020507,0,0.0047068,0,0,0,0.0054015,5.2606e-05,0.0016362,1.9406,0.0023635,0.004759,3.5399e-09,0.34,0.92,0
0.017741,-0.0077013,0.0054145,4.3514e-05,0.0016374,0.00020482,0,0,0.049102,-0.020721,0,0.0053254,0,0,0,0.0054223,3.5715e-05,0.0016374,2.1808,0.0023651,0.0047909,3.5934e-09,0.36,0.92,0
0.018725,-0.0076731,0.0054389,2.8244e-05,0.0016401,0.00022194,0,0,0.049384,-0.020955,0,0.0057704,0,0,0,0.005448,1.9155e-05,0.0016401,2.3449,0.0023691,0.004827,3.6569e-09,0.38,0.92,0
0.019716,-0.0076278,0.0054673,1.2889e-05,0.0016441,0.00023238,0,0,0.049702,-0.021205,0,0.0060419,0,0,0,0.0054772,3.0066e-06,0.0016441,2.4351,0.0023748,0.0048658,3.728e-09,0.4,0.92,0
0.020713,-0.0075703,0.0054985,-2.4586e-06,0.0016488,0.00023615,0,0,0.050046,-0.021466,0,0.00614,0,0,0,0.0055086,-1.2578e-05,0.0016488,2.4537,0.0023816,0.0049062,3.8039e-09,0.42,0.92,0
0.021718,-0.0075052,0.005531,-1.7594e-05,0.001654,0.00023333,0,0,0.050401,-0.021731,0,0.0060666,0,0,0,0.0055408,-2.7389e-05,0.001654,2.4037,0.0023892,0.0049467,3.882e-09,0.44,0.92,0
0.022729,-0.0074372,0.0055638,-3.2221e-05,0.0016595,0.00022407,0,0,0.050756,-0.021992,0,0.0058259,0,0,0,0.0055727,-4.1179e-05,0.0016595,2.2894,0.002397,0.0049861,3.9596e-09,0.46,0.92,0
0.023748,-0.0073707,0.0055954,-4.5974e-05,0.0016648,0.0002087,0,0,0.051098,-0.022241,0,0.0054261,0,0,0,0.0056032,-5.3684e-05,0.0016648,2.1157,0.0024048,0.0050231,4.0341e-09,0.48,0.92,0
0.024773,-0.0073099,0.0056249,-5.845e-05,0.0016699,0.00018766,0,0,0.051414,-0.022469,0,0.0048791,0,0,0,0.0056311,-6.464e-05,0.0016699,1.8891,0.0024121,0.0050567,4.1027e-09,0.5,0.92,0
0.025805,-0.0072582,0.005651,-6.924e-05,0.0016745,0.0001616,0,0,0.051694,-0.022669,0,0.0042016,0,0,0,0.0056555,-7.3802e-05,0.0016745,1.6169,0.0024188,0.0050858,4.1632e-09,0.52,0.92,0
0.026841,-0.0072191,0.0056729,-7.7963e-05,0.0016785,0.00013133,0,0,0.051927,-0.022834,0,0.0034144,0,0,0,0.0056759,-8.0961e-05,0.0016785,1.3075,0.0024245,0.0051096,4.2135e-09,0.54,0.92,0
0.027882,-0.0071952,0.0056898,-8.43e-05,0.0016816,9.7782e-05,0,0,0.052106,-0.022957,0,0.0025423,0,0,0,0.0056914,-8.5955e-05,0.0016816,0.96991,0.002429,0.0051274,4.2519e-09,0.56,0.92,0
0.028925,-0.0071883,0.0057011,-8.8016e-05,0.0016839,6.2038e-05,0,0,0.052223,-0.023035,0,0.001613,0,0,0,0.0057017,-8.8681e-05,0.0016839,0.61391,0.0024323,0.0051388,4.277e-09,0.58,0.92,0
0.029971,-0.0072,0.0057064,-8.8988e-05,0.0016852,2.5236e-05,0,0,0.052275,-0.023065,0,0.00065614,0,0,0,0.0057065,-8.9097e-05,0.0016852,0.24949,0.0024342,0.0051434,4.2881e-09,0.6,0.92,0
0.031016,-0.0072309,0.0057057,-8.7209e-05,0.0016855,-1.1455e-05,0,0,0.052262,-0.023046,0,-0.00029784,0,0,0,0.0057057,-8.7232e-05,0.0016855,-0.1133,0.0024347,0.0051411,4.2848e-09,0.62,0.92,0
0.032061,-0.0072809,0.005699,-8.2799e-05,0.0016849,-4.6893e-05,0,0,0.052183,-0.022979,0,-0.0012192,0,0,0,0.0056993,-8.318e-05,0.0016849,-0.46466,0.0024337,0.0051322,4.2674e-09,0.64,0.92,0
0.033104,-0.0073493,0.0056865,-7.599e-05,0.0016832,-8.0009e-05,0,0,0.052044,-0.022869,0,-0.0020803,0,0,0,0.0056876,-7.7101e-05,0.0016832,-0.79532,0.0024312,0.005117,4.2367e-09,0.66,0.92,0
0.034143,-0.0074348,0.0056688,-6.7113e-05,0.0016805,-0.00010986,0,0,0.051848,-0.022719,0,-0.0028563,0,0,0,0.005671,-6.9216e-05,0.0016805,-1.0968,0.0024274,0.0050958,4.1937e-09,0.68,0.92,0
0.035178,-0.0075355,0.0056466,-5.6575e-05,0.001677,-0.00013564,0,0,0.051605,-0.022537,0,-0.0035268,0,0,0,0.0056498,-5.9799e-05,0.001677,-1.3617,0.0024224,0.0050695,4.14e-09,0.7,0.92,0
0.036207,-0.0076492,0.0056206,-4.4829e-05,0.0016727,-0.00015677,0,0,0.051322,-0.022328,0,-0.004076,0,0,0,0.0056249,-4.9163e-05,0.0016727,-1.5838,0.0024161,0.0050388,4.0776e-09,0.72,0.92,0
0.03723,-0.0077731,0.0055915,-3.2344e-05,0.0016678,-0.00017282,0,0,0.051009,-0.022101,0,-0.0044933,0,0,0,0.0055968,-3.765e-05,0.0016678,-1.7585,0.002409,0.0050047,4.0084e-09,0.74,0.92,0
0.038247,-0.0079042,0.0055605,-1.9578e-05,0.0016623,-0.00018358,0,0,0.050677,-0.021864,0,-0.0047731,0,0,0,0.0055665,-2.5612e-05,0.0016623,-1.8823,0.0024011,0.0049681,3.9348e-09,0.76,0.92,0
0.039258,-0.0080395,0.0055283,-6.9521e-06,0.0016564,-0.00018903,0,0,0.050334,-0.021624,0,-0.0049147,0,0,0,0.0055347,-1.34e-05,0.0016564,-1.9536,0.0023926,0.0049301,3.8588e-09,0.78,0.92,0
0.040261,-0.0081757,0.0054958,5.1717e-06,0.0016503,-0.0001893,0,0,0.049992,-0.021387,0,-0.0049218,0,0,0,0.0055023,-1.3471e-06,0.0016503,-1.9723,0.0023838,0.0048917,3.7827e-09,0.8,0.92,0
0.041257,-0.0083098,0.005464,1.6499e-05,0.0016441,-0.00018467,0,0,0.049658,-0.021159,0,-0.0048015,0,0,0,0.0054702,1.0245e-05,0.0016441,-1.9394,0.0023749,0.0048539,3.7084e-09,0.82,0.92,0
0.042247,-0.0084387,0.0054335,2.6808e-05,0.0016381,-0.00017553,0,0,0.04934,-0.020947,0,-0.0045637,0,0,0,0.0054392,2.1116e-05,0.0016381,-1.8575,0.0023661,0.0048176,3.6378e-09,0.84,0.92,0
0.043231,-0.0085596,0.0054051,3.5951e-05,0.0016323,-0.00016233,0,0,0.049046,-0.020753,0,-0.0042205,0,0,0,0.00541,3.1048e-05,0.0016323,-1.7301,0.0023578,0.0047837,3.5722e-09,0.86,0.92,0
0.044209,-0.0086698,0.0053793,4.3842e-05,0.001627,-0.00014558,0,0,0.048781,-0.02058,0,-0.003785,0,0,0,0.0053833,3.9873e-05,0.001627,-1.5617,0.00235,0.0047529,3.5132e-09,0.88,0.92,0
0.045182,-0.0087671,0.0053567,5.045e-05,0.0016221,-0.00012581,0,0,0.04855,-0.020432,0,-0.003271,0,0,0,0.0053597,4.7469e-05,0.0016221,-1.3574,0.0023431,0.0047259,3.4617e-09,0.9,0.92,0
0.046151,-0.0088495,0.0053377,5.5781e-05,0.0016181,-0.00010355,0,0,0.048356,-0.02031,0,-0.0026924,0,0,0,0.0053397,5.3752e-05,0.0016181,-1.1227,0.0023372,0.0047032,3.4186e-09,0.92,0.92,0
0.047116,-0.0089154,0.0053226,5.9865e-05,0.0016147,-7.9346e-05,0,0,0.048202,-0.020213,0,-0.002063,0,0,0,0.0053238,5.8669e-05,0.0016147,-0.86358,0.0023324,0.0046851,3.3845e-09,0.94,0.92,0
0.048079,-0.0089633,0.0053116,6.2743e-05,0.0016123,-5.369e-05,0,0,0.048091,-0.020144,0,-0.0013959,0,0,0,0.0053122,6.2194e-05,0.0016123,-0.58598,0.0023289,0.004672,3.3598e-09,0.96,0.92,0
0.04904,-0.0089925,0.005305,6.4451e-05,0.0016108,-2.7081e-05,0,0,0.048024,-0.020103,0,-0.0007041,0,0,0,0.0053051,6.4311e-05,0.0016108,-0.29607,0.0023267,0.004664,3.3449e-09,0.98,0.92,0
0.05,-0.0090022,0.0053028,6.5018e-05,0.0016103,-1.8803e-05,0,0,0.048002,-0.020089,0,-0.00048888,0,0,0,0.0053028,6.495e-05,0.0016103,-0.20568,0.002326,0.0046614,3.3401e-09,1,0.92,0
0,0,0.0062617,0.0026836,0.0026836,-0.0018721,0,0,0.046516,-4.3368e-19,0,-0.048674,0,0,0,0.0070621,0.0018832,0.0026836,-23.149,0.0038763,0.0048288,5.2511e-09,0,0.94,0
0.00093031,-0.00097348,0.0061799,0.0020199,0.0024599,-0.001783,0,0,0.04836,-0.0057205,0,-0.046359,0,0,0,0.0068395,0.0013603,0.0024599,-20.302,0.0035533,0.0050206,5.4632e-09,0.02,0.94,0
0.0019344,-0.0019933,0.0062381,0.0013446,0.0022748,-0.0016195,0,0,0.051522,-0.012093,0,-0.042108,0,0,0,0.0067255,0.00085717,0.0022748,-16.751,0.0032858,0.0053036,5.856e-09,0.04,0.94,0
0.0029912,-0.0029697,0.0062291,0.00086622,0.0021286,-0.0013246,0,0,0.053307,-0.016411,0,-0.034439,0,0,0,0.0065384,0.00055691,0.0021286,-13.144,0.0030746,0.005371,5.7205e-09,0.06,0.94,0
0.0040667,-0.0038505,0.0061362,0.00059557,0.0020195,-0.0010296,0,0,0.053517,-0.018512,0,-0.02677,0,0,0,0.0063214,0.00041042,0.0020195,-10.194,0.0029171,0.0052931,5.3107e-09,0.08,0.94,0
0.0051319,-0.0046223,0.0059792,0.00042383,0.0019209,-0.00078297,0,0,0.052758,-0.019462,0,-0.020357,0,0,0,0.0060874,0.00031559,0.0019209,-7.871,0.0027746,0.00516,4.8222e-09,0.1,0.94,0
0.006177,-0.0052914,0.0058165,0.00031329,0.0018389,-0.00058924,0,0,0.051708,-0.019833,0,-0.01532,0,0,0,0.0058789,0.0002509,0.0018389,-6.0435,0.0026562,0.0050258,4.3927e-09,0.12,0.94,0
0.0072002,-0.0058671,0.0056704,0.00023945,0.0017729,-0.00043736,0,0,0.050667,-0.019935,0,-0.011371,0,0,0,0.0057054,0.00020445,0.0017729,-4.5748,0.0025609,0.0049084,4.0483e-09,0.14,0.94,0
0.0082036,-0.0063587,0.0055484,0.00018856,0.0017211,-0.00031686,0,0,0.049755,-0.019923,0,-0.0082384,0,0,0,0.005567,0.00016989,0.0017211,-3.3716,0.002486,0.0048128,3.7847e-09,0.16,0.94,0
0.0091904,-0.0067744,0.0054511,0.00015231,0.001681,-0.00021955,0,0,0.049011,-0.019873,0,-0.0057082,0,0,0,0.0054602,0.00014323,0.001681,-2.3685,0.0024282,0.0047391,3.5889e-09,0.18,0.94,0
0.010164,-0.0071217,0.0053769,0.00012563,0.0016508,-0.00013956,0,0,0.04844,-0.019827,0,-0.0036286,0,0,0,0.0053806,0.00012193,0.0016508,-1.5213,0.0023844,0.0046853,3.4485e-09,0.2,0.94,0
0.011128,-0.0074068,0.0053233,0.0001053,0.0016286,-7.282e-05,0,0,0.048031,-0.019803,0,-0.0018933,0,0,0,0.0053243,0.00010428,0.0016286,-0.79939,0.0023524,0.0046492,3.3531e-09,0.22,0.94,0
0.012085,-0.0076356,0.0052877,8.9201e-05,0.0016131,-1.6489e-05,0,0,0.047771,-0.019811,0,-0.00042873,0,0,0,0.0052878,8.9149e-05,0.0016131,-0.18174,0.00233,0.0046288,3.2947e-09,0.24,0.94,0
0.013039,-0.0078136,0.005268,7.5916e-05,0.0016032,3.1373e-05,0,0,0.047642,-0.019854,0,0.0008157,0,0,0,0.0052682,7.5727e-05,0.0016032,0.34619,0.0023157,0.004622,3.2672e-09,0.26,0.94,0
0.013991,-0.0079458,0.0052618,6.4458e-05,0.0015979,7.2078e-05,0,0,0.047631,-0.019935,0,0.001874,0,0,0,0.0052628,6.3458e-05,0.0015979,0.79438,0.0023081,0.0046271,3.2658e-09,0.28,0.94,0
0.014944,-0.0080371,0.0052675,5.4128e-05,0.0015965,0.00010648,0,0,0.047723,-0.020051,0,0.0027685,0,0,0,0.0052696,5.1954e-05,0.0015965,1.1696,0.002306,0.0046423,3.2865e-09,0.3,0.94,0
0.0159,-0.0080926,0.0052831,4.4432e-05,0.0015983,0.00013511,0,0,0.047903,-0.0202,0,0.0035129,0,0,0,0.0052866,4.0949e-05,0.0015983,1.4764,0.0023086,0.0046662,3.3261e-09,0.32,0.94,0
0.01686,-0.0081169,0.0053072,3.5029e-05,0.0016027,0.00015827,0,0,0.048159,-0.020379,0,0.004115,0,0,0,0.0053119,3.0282e-05,0.0016027,1.718,0.002315,0.0046972,3.3816e-09,0.34,0.94,0
0.017826,-0.0081148,0.005338,2.57e-05,0.0016091,0.00017609,0,0,0.048476,-0.020584,0,0.0045784,0,0,0,0.0053439,1.987e-05,0.0016091,1.8964,0.0023243,0.0047339,3.4504e-09,0.36,0.94,0
0.018799,-0.0080911,0.0053742,1.6332e-05,0.0016172,0.00018862,0,0,0.048842,-0.020811,0,0.0049042,0,0,0,0.0053808,9.7001e-06,0.0016172,2.0137,0.0023359,0.0047748,3.5299e-09,0.38,0.94,0
0.01978,-0.0080506,0.0054142,6.9015e-06,0.0016263,0.00019586,0,0,0.049242,-0.021052,0,0.0050924,0,0,0,0.0054212,-1.8358e-07,0.0016263,2.0717,0.0023491,0.0048187,3.6171e-09,0.4,0.94,0
0.020769,-0.0079981,0.0054564,-2.5331e-06,0.0016362,0.00019782,0,0,0.049664,-0.021303,0,0.0051432,0,0,0,0.0054636,-9.6919e-06,0.0016362,2.0726,0.0023634,0.0048639,3.7095e-09,0.42,0.94,0
0.021767,-0.0079381,0.0054996,-1.1843e-05,0.0016463,0.00019454,0,0,0.050093,-0.021556,0,0.0050581,0,0,0,0.0055065,-1.8701e-05,0.0016463,2.0191,0.002378,0.0049092,3.804e-09,0.44,0.94,0
0.022773,-0.0078751,0.0055422,-2.0842e-05,0.0016564,0.00018618,0,0,0.050515,-0.021804,0,0.0048406,0,0,0,0.0055484,-2.7066e-05,0.0016564,1.9146,0.0023926,0.0049532,3.8978e-09,0.46,0.94,0
0.023787,-0.0078133,0.0055829,-2.9303e-05,0.0016661,0.00017297,0,0,0.050919,-0.02204,0,0.0044972,0,0,0,0.0055882,-3.4629e-05,0.0016661,1.7636,0.0024066,0.0049946,3.9878e-09,0.48,0.94,0
0.024809,-0.0077568,0.0056204,-3.6977e-05,0.001675,0.00015529,0,0,0.05129,-0.022256,0,0.0040375,0,0,0,0.0056247,-4.1236e-05,0.001675,1.5711,0.0024195,0.0050323,4.0712e-09,0.5,0.94,0
0.025839,-0.007709,0.0056536,-4.3608e-05,0.001683,0.00013365,0,0,0.051618,-0.022446,0,0.0034748,0,0,0,0.0056568,-4.6741e-05,0.001683,1.3431,0.002431,0.0050652,4.1453e-09,0.52,0.94,0
0.026874,-0.0076731,0.0056815,-4.8962e-05,0.0016898,0.00010869,0,0,0.051893,-0.022603,0,0.0028258,0,0,0,0.0056836,-5.1023e-05,0.0016898,1.0862,0.0024408,0.0050925,4.2077e-09,0.54,0.94,0
0.027914,-0.0076515,0.0057033,-5.284e-05,0.0016951,8.1164e-05,0,0,0.052106,-0.022724,0,0.0021103,0,0,0,0.0057044,-5.3985e-05,0.0016951,0.80768,0.0024485,0.0051134,4.2563e-09,0.56,0.94,0
0.028958,-0.0076462,0.0057183,-5.5099e-05,0.001699,5.1929e-05,0,0,0.052252,-0.022803,0,0.0013502,0,0,0,0.0057188,-5.5566e-05,0.001699,0.51529,0.0024541,0.0051274,4.2897e-09,0.58,0.94,0
0.030004,-0.0076585,0.0057263,-5.566e-05,0.0017012,2.189e-05,0,0,0.052326,-0.022839,0,0.00056913,0,0,0,0.0057264,-5.5743e-05,0.0017012,0.21691,0.0024573,0.0051343,4.3068e-09,0.6,0.94,0
0.031051,-0.0076891,0.005727,-5.452e-05,0.0017018,-8.0234e-06,0,0,0.052329,-0.022832,0,-0.00020861,0,0,0,0.0057271,-5.4531e-05,0.0017018,-0.079513,0.0024581,0.0051339,4.3074e-09,0.62,0.94,0
0.032098,-0.007738,0.0057207,-5.1752e-05,0.0017007,-3.6899e-05,0,0,0.05226,-0.022781,0,-0.00095938,0,0,0,0.0057209,-5.1987e-05,0.0017007,-0.36623,0.0024565,0.0051264,4.2916e-09,0.64,0.94,0
0.033142,-0.0078044,0.0057075,-4.7497e-05,0.001698,-6.3886e-05,0,0,0.052124,-0.022691,0,-0.001661,0,0,0,0.0057082,-4.8206e-05,0.001698,-0.63593,0.0024527,0.0051121,4.2602e-09,0.66,0.94,0
0.034183,-0.0078872,0.0056881,-4.1961e-05,0.0016938,-8.8226e-05,0,0,0.051925,-0.022565,0,-0.0022939,0,0,0,0.0056895,-4.3319e-05,0.0016938,-0.88191,0.0024467,0.0050915,4.2147e-09,0.68,0.94,0
0.035219,-0.0079846,0.0056632,-3.5392e-05,0.0016883,-0.00010929,0,0,0.051673,-0.022409,0,-0.0028415,0,0,0,0.0056653,-3.7488e-05,0.0016883,-1.0983,0.0024387,0.0050654,4.1569e-09,0.7,0.94,0
0.036249,-0.0080945,0.0056336,-2.8072e-05,0.0016817,-0.00012658,0,0,0.051376,-0.022227,0,-0.003291,0,0,0,0.0056365,-3.0901e-05,0.0016817,-1.2801,0.0024291,0.0050345,4.0889e-09,0.72,0.94,0
0.037274,-0.0082141,0.0056004,-2.029e-05,0.001674,-0.00013977,0,0,0.051043,-0.022026,0,-0.0036339,0,0,0,0.0056039,-2.3763e-05,0.001674,-1.4236,0.0024181,0.0049998,4.0131e-09,0.74,0.94,0
0.038291,-0.0083409,0.0055645,-1.2328e-05,0.0016657,-0.00014867,0,0,0.050685,-0.021814,0,-0.0038654,0,0,0,0.0055685,-1.6289e-05,0.0016657,-1.526,0.002406,0.0049624,3.932e-09,0.76,0.94,0
0.039301,-0.0084716,0.0055271,-4.4483e-06,0.0016568,-0.00015326,0,0,0.050313,-0.021596,0,-0.0039848,0,0,0,0.0055313,-8.6915e-06,0.0016568,-1.5859,0.0023931,0.0049233,3.8482e-09,0.78,0.94,0
0.040304,-0.0086034,0.005489,3.124e-06,0.0016477,-0.00015365,0,0,0.049938,-0.021379,0,-0.0039948,0,0,0,0.0054933,-1.1759e-06,0.0016477,-1.603,0.0023799,0.0048835,3.764e-09,0.8,0.94,0
0.041299,-0.0087332,0.0054515,1.0205e-05,0.0016385,-0.00015003,0,0,0.049569,-0.021168,0,-0.0039009,0,0,0,0.0054556,6.0708e-06,0.0016385,-1.5782,0.0023667,0.0048442,3.6818e-09,0.82,0.94,0
0.042286,-0.008858,0.0054153,1.6655e-05,0.0016296,-0.00014273,0,0,0.049214,-0.020968,0,-0.003711,0,0,0,0.0054191,1.2884e-05,0.0016296,-1.5134,0.0023539,0.0048063,3.6034e-09,0.84,0.94,0
0.043267,-0.0089751,0.0053814,2.2381e-05,0.0016211,-0.0001321,0,0,0.048884,-0.020784,0,-0.0034346,0,0,0,0.0053847,1.9126e-05,0.0016211,-1.4112,0.0023416,0.0047707,3.5307e-09,0.86,0.94,0
0.044242,-0.0090821,0.0053505,2.7327e-05,0.0016134,-0.00011855,0,0,0.048583,-0.020618,0,-0.0030823,0,0,0,0.0053532,2.4688e-05,0.0016134,-1.2752,0.0023304,0.0047383,3.4651e-09,0.88,0.94,0
0.045211,-0.0091765,0.0053233,3.1472e-05,0.0016064,-0.00010251,0,0,0.048319,-0.020474,0,-0.0026653,0,0,0,0.0053253,2.9487e-05,0.0016064,-1.1094,0.0023204,0.0047097,3.4078e-09,0.9,0.94,0
0.046175,-0.0092565,0.0053003,3.4819e-05,0.0016005,-8.4423e-05,0,0,0.048097,-0.020354,0,-0.002195,0,0,0,0.0053017,3.3465e-05,0.0016005,-0.91833,0.0023119,0.0046855,3.3598e-09,0.92,0.94,0
0.047135,-0.0093205,0.005282,3.7384e-05,0.0015958,-6.4712e-05,0,0,0.04792,-0.020259,0,-0.0016825,0,0,0,0.0052828,3.6586e-05,0.0015958,-0.70682,0.0023051,0.0046662,3.3218e-09,0.94,0.94,0
0.048091,-0.0093671,0.0052686,3.9192e-05,0.0015923,-4.38e-05,0,0,0.047792,-0.020191,0,-0.0011388,0,0,0,0.005269,3.8826e-05,0.0015923,-0.47985,0.0023001,0.0046522,3.2943e-09,0.96,0.94,0
0.049046,-0.0093954,0.0052606,4.0266e-05,0.0015902,-2.2097e-05,0,0,0.047714,-0.02015,0,-0.00057451,0,0,0,0.0052606,4.0173e-05,0.0015902,-0.24252,0.002297,0.0046437,3.2777e-09,0.98,0.94,0
0.05,-0.0094049,0.0052578,4.0622e-05,0.0015895,-1.8278e-05,0,0,0.047688,-0.020136,0,-0.00047522,0,0,0,0.0052579,4.0559e-05,0.0015895,-0.20072,0.002296,0.0046409,3.2723e-09,1,0.94,0
0,0,0.0068802,0.0029487,0.0029487,-0.0021342,0,0,0.05111,0,0,-0.055488,0,0,0,0.007816,0.0020129,0.0029487,-23.676,0.0042592,0.0053964,7.2597e-09,0,0.96,0
0.0010222,-0.0011098,0.0066275,0.0017799,0.0025222,-0.0019278,0,0,0.053369,-0.0096503,0,-0.050124,0,0,0,0.0073007,0.0011067,0.0025222,-19.249,0.0036432,0.0056215,7.2108e-09,0.02,0.96,0
0.0021347,-0.0022759,0.0066113,0.00086807,0.0022438,-0.0015337,0,0,0.056778,-0.017885,0,-0.039876,0,0,0,0.0069952,0.00048417,0.0022438,-14.053,0.0032411,0.0058338,7.1565e-09,0.04,0.96,0
0.0032933,-0.0033382,0.0065093,0.00055128,0.0021182,-0.0011137,0,0,0.057085,-0.02037,0,-0.028956,0,0,0,0.0067107,0.00034991,0.0021182,-10.249,0.0030596,0.0056867,6.4578e-09,0.06,0.96,0
0.0044182,-0.0042489,0.0062092,0.00035541,0.0019694,-0.00078908,0,0,0.055118,-0.020982,0,-0.020516,0,0,0,0.0063137,0.0002509,0.0019694,-7.544,0.0028447,0.0054122,5.4607e-09,0.08,0.96,0
0.005498,-0.0050301,0.005924,0.00024267,0.00185,-0.00056676,0,0,0.052962,-0.020895,0,-0.014736,0,0,0,0.00598,0.00018668,0.00185,-5.6417,0.0026722,0.0051665,4.6871e-09,0.1,0.96,0
0.0065366,-0.0056996,0.0056884,0.00017368,0.0017586,-0.00040907,0,0,0.051087,-0.020604,0,-0.010636,0,0,0,0.0057185,0.0001435,0.0017586,-4.2193,0.0025402,0.0049684,4.1282e-09,0.12,0.96,0
0.0075415,-0.0062726,0.0055046,0.00012982,0.0016903,-0.00029356,0,0,0.049585,-0.020286,0,-0.0076325,0,0,0,0.0055205,0.00011383,0.0016903,-3.117,0.0024416,0.004816,3.7332e-09,0.14,0.96,0
0.00852,-0.0067608,0.0053653,0.00010066,0.0016398,-0.00020566,0,0,0.048432,-0.020009,0,-0.0053472,0,0,0,0.0053733,9.2638e-05,0.0016398,-2.2337,0.0023686,0.0047021,3.4557e-09,0.16,0.96,0
0.0094788,-0.0071735,0.0052629,8.0468e-05,0.001603,-0.00013658,0,0,0.047579,-0.019793,0,-0.0035511,0,0,0,0.0052665,7.6871e-05,0.001603,-1.5086,0.0023155,0.0046197,3.2634e-09,0.18,0.96,0
0.010423,-0.0075184,0.0051909,6.5914e-05,0.001577,-8.079e-05,0,0,0.04698,-0.019645,0,-0.0021006,0,0,0,0.0051922,6.464e-05,0.001577,-0.90292,0.0022779,0.0045633,3.1346e-09,0.2,0.96,0
0.011358,-0.0078021,0.005144,5.4994e-05,0.0015597,-3.4763e-05,0,0,0.046596,-0.019561,0,-0.00090384,0,0,0,0.0051442,5.4757e-05,0.0015597,-0.39137,0.0022529,0.0045286,3.0547e-09,0.22,0.96,0
0.012287,-0.0080305,0.0051181,4.6448e-05,0.0015494,3.8e-06,0,0,0.046393,-0.019538,0,9.8799e-05,0,0,0,0.0051181,4.6445e-05,0.0015494,0.042929,0.002238,0.004512,3.0136e-09,0.24,0.96,0
0.013214,-0.008209,0.0051099,3.9449e-05,0.0015448,3.6407e-05,0,0,0.046347,-0.01957,0,0.00094657,0,0,0,0.0051102,3.9187e-05,0.0015448,0.41136,0.0022314,0.0045108,3.0043e-09,0.26,0.96,0
0.014141,-0.0083427,0.0051168,3.3438e-05,0.0015451,6.4038e-05,0,0,0.046433,-0.019651,0,0.001665,0,0,0,0.0051176,3.2631e-05,0.0015451,0.72164,0.0022318,0.0045226,3.0217e-09,0.28,0.96,0
0.015071,-0.0084363,0.0051363,2.8026e-05,0.0015493,8.7315e-05,0,0,0.046631,-0.019777,0,0.0022702,0,0,0,0.0051378,2.6534e-05,0.0015493,0.97896,0.0022379,0.0045454,3.0617e-09,0.3,0.96,0
0.016006,-0.0084947,0.0051665,2.2944e-05,0.0015568,0.00010661,0,0,0.046925,-0.01994,0,0.0027718,0,0,0,0.0051687,2.0736e-05,0.0015568,1.1869,0.0022487,0.0045775,3.1211e-09,0.32,0.96,0
0.016948,-0.0085226,0.0052053,1.8006e-05,0.001567,0.00012211,0,0,0.047298,-0.020137,0,0.0031749,0,0,0,0.0052082,1.5133e-05,0.001567,1.3478,0.0022634,0.004617,3.197e-09,0.34,0.96,0
0.017898,-0.0085246,0.005251,1.3094e-05,0.0015792,0.00013391,0,0,0.047733,-0.02036,0,0.0034817,0,0,0,0.0052545,9.6731e-06,0.0015792,1.4635,0.0022811,0.0046625,3.2868e-09,0.36,0.96,0
0.018857,-0.0085056,0.005302,8.1498e-06,0.001593,0.00014202,0,0,0.048216,-0.020604,0,0.0036925,0,0,0,0.0053058,4.3426e-06,0.001593,1.5356,0.002301,0.0047124,3.3878e-09,0.38,0.96,0
0.019827,-0.0084699,0.0053564,3.1613e-06,0.0016079,0.00014642,0,0,0.048731,-0.020861,0,0.0038069,0,0,0,0.0053604,-8.4052e-07,0.0016079,1.5656,0.0023225,0.0047651,3.4971e-09,0.4,0.96,0
0.020807,-0.0084224,0.0054126,-1.8382e-06,0.0016232,0.0001471,0,0,0.049262,-0.021126,0,0.0038247,0,0,0,0.0054166,-5.8319e-06,0.0016232,1.5551,0.0023447,0.004819,3.6118e-09,0.42,0.96,0
0.021797,-0.0083675,0.005469,-6.7782e-06,0.0016387,0.0001441,0,0,0.049794,-0.021391,0,0.0037466,0,0,0,0.0054728,-1.0568e-05,0.0016387,1.5064,0.002367,0.0048728,3.7289e-09,0.44,0.96,0
0.022798,-0.0083094,0.005524,-1.1558e-05,0.0016537,0.0001375,0,0,0.050314,-0.021649,0,0.0035749,0,0,0,0.0055274,-1.4971e-05,0.0016537,1.422,0.0023887,0.0049248,3.8448e-09,0.46,0.96,0
0.02381,-0.0082524,0.0055761,-1.6054e-05,0.001668,0.00012747,0,0,0.050805,-0.021893,0,0.0033141,0,0,0,0.005579,-1.8958e-05,0.001668,1.3051,0.0024093,0.0049739,3.9563e-09,0.48,0.96,0
0.02483,-0.0082001,0.0056238,-2.0132e-05,0.0016811,0.00011427,0,0,0.051255,-0.022116,0,0.002971,0,0,0,0.0056261,-2.2444e-05,0.0016811,1.1594,0.0024282,0.0050185,4.0599e-09,0.5,0.96,0
0.02586,-0.0081561,0.0056659,-2.3655e-05,0.0016927,9.8268e-05,0,0,0.051652,-0.022312,0,0.002555,0,0,0,0.0056676,-2.5352e-05,0.0016927,0.9892,0.002445,0.0050577,4.1525e-09,0.52,0.96,0
0.026897,-0.0081233,0.0057012,-2.6497e-05,0.0017024,7.9919e-05,0,0,0.051985,-0.022476,0,0.0020779,0,0,0,0.0057023,-2.7611e-05,0.0017024,0.79924,0.002459,0.0050904,4.231e-09,0.54,0.96,0
0.027939,-0.0081041,0.005729,-2.855e-05,0.0017101,5.9763e-05,0,0,0.052245,-0.022603,0,0.0015539,0,0,0,0.0057296,-2.917e-05,0.0017101,0.59465,0.0024702,0.0051159,4.2931e-09,0.56,0.96,0
0.028986,-0.0081005,0.0057484,-2.9738e-05,0.0017156,3.8409e-05,0,0,0.052427,-0.02269,0,0.00099864,0,0,0,0.0057487,-2.9993e-05,0.0017156,0.38084,0.0024781,0.0051335,4.3368e-09,0.58,0.96,0
0.030036,-0.0081136,0.0057592,-3.0018e-05,0.0017188,1.6507e-05,0,0,0.052526,-0.022734,0,0.00042919,0,0,0,0.0057593,-3.0065e-05,0.0017188,0.16337,0.0024827,0.005143,4.3608e-09,0.6,0.96,0
0.031088,-0.0081441,0.0057613,-2.9388e-05,0.0017196,-5.2758e-06,0,0,0.052542,-0.022736,0,-0.00013717,0,0,0,0.0057613,-2.9393e-05,0.0017196,-0.052201,0.0024838,0.0051442,4.3648e-09,0.62,0.96,0
0.032138,-0.0081921,0.0057547,-2.7886e-05,0.001718,-2.6286e-05,0,0,0.052477,-0.022697,0,-0.00068344,0,0,0,0.0057548,-2.8006e-05,0.001718,-0.26045,0.0024816,0.0051374,4.349e-09,0.64,0.96,0
0.033187,-0.0082569,0.0057399,-2.5589e-05,0.0017143,-4.5913e-05,0,0,0.052333,-0.022618,0,-0.0011937,0,0,0,0.0057403,-2.5955e-05,0.0017143,-0.45623,0.0024762,0.0051228,4.3146e-09,0.66,0.96,0
0.034231,-0.0083374,0.0057175,-2.2606e-05,0.0017085,-6.3612e-05,0,0,0.052118,-0.022504,0,-0.0016539,0,0,0,0.0057183,-2.3311e-05,0.0017085,-0.63484,0.0024678,0.0051011,4.2631e-09,0.68,0.96,0
0.035271,-0.0084319,0.0056885,-1.907e-05,0.0017008,-7.8927e-05,0,0,0.051839,-0.022359,0,-0.0020521,0,0,0,0.0056896,-2.0161e-05,0.0017008,-0.79211,0.0024567,0.0050731,4.1969e-09,0.7,0.96,0
0.036305,-0.0085383,0.0056537,-1.5131e-05,0.0016916,-9.1506e-05,0,0,0.051508,-0.022187,0,-0.0023792,0,0,0,0.0056552,-1.6607e-05,0.0016916,-0.92454,0.0024434,0.0050397,4.1186e-09,0.72,0.96,0
0.037332,-0.0086541,0.0056144,-1.0943e-05,0.001681,-0.00010111,0,0,0.051134,-0.021996,0,-0.0026288,0,0,0,0.0056162,-1.276e-05,0.001681,-1.0294,0.0024282,0.005002,4.0313e-09,0.74,0.96,0
0.03835,-0.0087767,0.0055718,-6.6591e-06,0.0016695,-0.0001076,0,0,0.050729,-0.021791,0,-0.0027977,0,0,0,0.0055739,-8.734e-06,0.0016695,-1.1046,0.0024116,0.0049612,3.9378e-09,0.76,0.96,0
0.039361,-0.0089033,0.0055272,-2.4185e-06,0.0016574,-0.00011097,0,0,0.050307,-0.021578,0,-0.0028853,0,0,0,0.0055294,-4.6447e-06,0.0016574,-1.1493,0.002394,0.0049183,3.8412e-09,0.78,0.96,0
0.040363,-0.0090309,0.0054817,1.6572e-06,0.001645,-0.00011129,0,0,0.049877,-0.021364,0,-0.0028934,0,0,0,0.005484,-6.0179e-07,0.001645,-1.1629,0.0023761,0.0048747,3.7444e-09,0.8,0.96,0
0.041356,-0.0091565,0.0054367,5.4692e-06,0.0016326,-0.0001087,0,0,0.049452,-0.021153,0,-0.0028262,0,0,0,0.0054389,3.2946e-06,0.0016326,-1.1461,0.0023583,0.0048315,3.65e-09,0.82,0.96,0
0.042341,-0.0092774,0.0053932,8.9425e-06,0.0016206,-0.00010343,0,0,0.049043,-0.020952,0,-0.0026892,0,0,0,0.0053952,6.9564e-06,0.0016206,-1.1001,0.0023409,0.0047898,3.5601e-09,0.84,0.96,0
0.043318,-0.0093909,0.0053523,1.2026e-05,0.0016093,-9.5745e-05,0,0,0.04866,-0.020765,0,-0.0024894,0,0,0,0.0053541,1.031e-05,0.0016093,-1.0268,0.0023246,0.0047506,3.477e-09,0.86,0.96,0
0.044287,-0.0094945,0.005315,1.4691e-05,0.0015989,-8.5938e-05,0,0,0.04831,-0.020595,0,-0.0022344,0,0,0,0.0053165,1.3298e-05,0.0015989,-0.92865,0.0023096,0.0047147,3.4021e-09,0.88,0.96,0
0.04525,-0.0095861,0.0052821,1.6924e-05,0.0015897,-7.4322e-05,0,0,0.048001,-0.020446,0,-0.0019324,0,0,0,0.0052832,1.5875e-05,0.0015897,-0.80856,0.0022963,0.0046831,3.3368e-09,0.9,0.96,0
0.046207,-0.0096637,0.0052543,1.8728e-05,0.0015819,-6.1213e-05,0,0,0.047741,-0.020321,0,-0.0015915,0,0,0,0.005255,1.8012e-05,0.0015819,-0.66977,0.002285,0.0046563,3.2821e-09,0.92,0.96,0
0.04716,-0.0097258,0.005232,2.011e-05,0.0015756,-4.6924e-05,0,0,0.047533,-0.020222,0,-0.00122,0,0,0,0.0052324,1.9688e-05,0.0015756,-0.5158,0.0022759,0.004635,3.2389e-09,0.94,0.96,0
0.048108,-0.009771,0.0052158,2.1085e-05,0.0015711,-3.1762e-05,0,0,0.047382,-0.02015,0,-0.00082582,0,0,0,0.005216,2.089e-05,0.0015711,-0.35031,0.0022693,0.0046194,3.2076e-09,0.96,0.96,0
0.049055,-0.0097985,0.005206,2.1663e-05,0.0015683,-1.6024e-05,0,0,0.04729,-0.020106,0,-0.00041663,0,0,0,0.005206,2.1614e-05,0.0015683,-0.17709,0.0022653,0.0046099,3.1887e-09,0.98,0.96,0
0.05,-0.0098077,0.0052027,2.1855e-05,0.0015673,-1.7739e-05,0,0,0.047259,-0.020092,0,-0.00046123,0,0,0,0.0052027,2.1795e-05,0.0015673,-0.19618,0.0022639,0.0046069,3.1825e-09,1,0.96,0
0,0,0.0080854,0.0034652,0.0034652,-0.0026144,0,0,0.060063,1.7347e-18,0,-0.067974,0,0,0,0.0092641,0.0022865,0.0034652,-24.268,0.0050052,0.0064693,1.2364e-08,0,0.98,0
0.0012013,-0.0013595,0.0073669,0.00072936,0.0024289,-0.0016454,0,0,0.064194,-0.022094,0,-0.042781,0,0,0,0.0077524,0.00034385,0.0024289,-13.186,0.0035084,0.0066171,1.0052e-08,0.02,0.98,0
0.0025678,-0.0027086,0.0074029,0.00057651,0.0023938,-0.0010735,0,0,0.065118,-0.023625,0,-0.027912,0,0,0,0.0075677,0.00041166,0.0023938,-8.7299,0.0034577,0.0063995,9.2352e-09,0.04,0.98,0
0.003806,-0.0037845,0.0066437,0.00030837,0.0020856,-0.00064201,0,0,0.059255,-0.023104,0,-0.016692,0,0,0,0.0067081,0.00024396,0.0020856,-5.7287,0.0030126,0.0057682,6.5758e-09,0.06,0.98,0
0.0049379,-0.0046898,0.0060872,0.00018286,0.001881,-0.00042341,0,0,0.05468,-0.022076,0,-0.011009,0,0,0,0.0061174,0.00015265,0.001881,-4.081,0.002717,0.0053157,5.0545e-09,0.08,0.98,0
0.0059932,-0.0054581,0.0056985,0.0001167,0.0017446,-0.00028943,0,0,0.051401,-0.021162,0,-0.0075253,0,0,0,0.0057135,0.00010173,0.0017446,-2.9604,0.0025199,0.0049971,4.1518e-09,0.1,0.98,0
0.006994,-0.0061155,0.005427,8.025e-05,0.0016522,-0.00020244,0,0,0.049072,-0.020435,0,-0.0052636,0,0,0,0.0054346,7.2595e-05,0.0016522,-2.1653,0.0023865,0.0047725,3.5909e-09,0.12,0.98,0
0.0079561,-0.0066785,0.0052354,5.8502e-05,0.0015882,-0.00014129,0,0,0.047414,-0.019886,0,-0.0036736,0,0,0,0.0052393,5.4648e-05,0.0015882,-1.5622,0.002294,0.0046132,3.228e-09,0.14,0.98,0
0.0088906,-0.007159,0.0051012,4.4676e-05,0.0015438,-9.5938e-05,0,0,0.046247,-0.019488,0,-0.0024944,0,0,0,0.0051031,4.2857e-05,0.0015438,-1.0865,0.0022299,0.0045015,2.9893e-09,0.16,0.98,0
0.009806,-0.0075662,0.0050099,3.5385e-05,0.0015136,-6.0792e-05,0,0,0.045452,-0.019217,0,-0.0015806,0,0,0,0.0050107,3.4642e-05,0.0015136,-0.70004,0.0021863,0.0044259,2.8346e-09,0.18,0.98,0
0.010709,-0.0079075,0.0049521,2.8828e-05,0.0014943,-3.2631e-05,0,0,0.044951,-0.019051,0,-0.00084841,0,0,0,0.0049523,2.8612e-05,0.0014943,-0.37973,0.0021584,0.0043789,2.74e-09,0.2,0.98,0
0.011604,-0.0081892,0.004921,2.398e-05,0.0014835,-9.49e-06,0,0,0.044688,-0.018974,0,-0.00024674,0,0,0,0.004921,2.3962e-05,0.0014835,-0.11103,0.0021428,0.0043548,2.6911e-09,0.22,0.98,0
0.012496,-0.0084171,0.004912,2.0222e-05,0.0014797,9.8685e-06,0,0,0.04462,-0.018973,0,0.00025658,0,0,0,0.004912,2.0202e-05,0.0014797,0.11558,0.0021373,0.0043498,2.6786e-09,0.24,0.98,0
0.013389,-0.0085964,0.0049213,1.7162e-05,0.0014816,2.6233e-05,0,0,0.044717,-0.019037,0,0.00068206,0,0,0,0.0049215,1.7022e-05,0.0014816,0.30647,0.00214,0.0043607,2.696e-09,0.26,0.98,0
0.014285,-0.0087318,0.0049461,1.4539e-05,0.0014882,4.0104e-05,0,0,0.044953,-0.019158,0,0.0010427,0,0,0,0.0049464,1.4213e-05,0.0014882,0.4659,0.0021496,0.0043851,2.7389e-09,0.28,0.98,0
0.015187,-0.0088282,0.0049838,1.2175e-05,0.0014988,5.1789e-05,0,0,0.045305,-0.019326,0,0.0013465,0,0,0,0.0049844,1.1635e-05,0.0014988,0.59675,0.0021649,0.0044209,2.8041e-09,0.3,0.98,0
0.016097,-0.0088902,0.0050323,9.9467e-06,0.0015127,6.1461e-05,0,0,0.045755,-0.019536,0,0.001598,0,0,0,0.0050331,9.1947e-06,0.0015127,0.70102,0.002185,0.0044662,2.8887e-09,0.32,0.98,0
0.017017,-0.0089223,0.0050896,7.7723e-06,0.0015292,6.9207e-05,0,0,0.046285,-0.019779,0,0.0017994,0,0,0,0.0050906,6.83e-06,0.0015292,0.78009,0.0022089,0.0045191,2.9903e-09,0.34,0.98,0
0.017948,-0.0089292,0.0051537,5.5996e-06,0.0015478,7.5051e-05,0,0,0.046877,-0.020049,0,0.0019513,0,0,0,0.0051548,4.5057e-06,0.0015478,0.83504,0.0022357,0.0045781,3.1066e-09,0.36,0.98,0
0.018892,-0.0089152,0.0052228,3.4025e-06,0.0015679,7.8984e-05,0,0,0.047514,-0.020338,0,0.0020536,0,0,0,0.005224,2.2075e-06,0.0015679,0.86678,0.0022647,0.0046414,3.2349e-09,0.38,0.98,0
0.019849,-0.0088851,0.005295,1.1776e-06,0.0015888,8.0986e-05,0,0,0.04818,-0.02064,0,0.0021056,0,0,0,0.0052962,-6.1011e-08,0.0015888,0.87625,0.002295,0.0047074,3.3725e-09,0.4,0.98,0
0.020819,-0.0088431,0.0053684,-1.059e-06,0.0016102,8.1038e-05,0,0,0.048856,-0.020946,0,0.002107,0,0,0,0.0053696,-2.2817e-06,0.0016102,0.86447,0.0023258,0.0047744,3.5162e-09,0.42,0.98,0
0.021803,-0.0087937,0.0054412,-3.2741e-06,0.0016314,7.9147e-05,0,0,0.049527,-0.02125,0,0.0020578,0,0,0,0.0054423,-4.4245e-06,0.0016314,0.83269,0.0023564,0.0048408,3.6625e-09,0.44,0.98,0
0.022801,-0.008741,0.0055115,-5.4211e-06,0.0016518,7.5352e-05,0,0,0.050176,-0.021544,0,0.0019592,0,0,0,0.0055125,-6.4501e-06,0.0016518,0.78237,0.002386,0.0049048,3.8076e-09,0.46,0.98,0
0.02381,-0.0086891,0.0055777,-7.4432e-06,0.0016711,6.9738e-05,0,0,0.050786,-0.021821,0,0.0018132,0,0,0,0.0055786,-8.3139e-06,0.0016711,0.71527,0.0024138,0.004965,3.9474e-09,0.48,0.98,0
0.024832,-0.0086414,0.0056381,-9.2783e-06,0.0016886,6.2442e-05,0,0,0.051342,-0.022073,0,0.0016235,0,0,0,0.0056387,-9.9686e-06,0.0016886,0.63341,0.0024391,0.0050198,4.0777e-09,0.5,0.98,0
0.025864,-0.0086015,0.0056911,-1.0864e-05,0.0017041,5.3654e-05,0,0,0.051832,-0.022294,0,0.001395,0,0,0,0.0056916,-1.1369e-05,0.0017041,0.53907,0.0024615,0.0050679,4.1946e-09,0.52,0.98,0
0.026905,-0.0085721,0.0057357,-1.2142e-05,0.0017171,4.3617e-05,0,0,0.052242,-0.02248,0,0.001134,0,0,0,0.005736,-1.2472e-05,0.0017171,0.43475,0.0024802,0.0051082,4.2942e-09,0.54,0.98,0
0.027954,-0.0085556,0.0057706,-1.3063e-05,0.0017273,3.2621e-05,0,0,0.052564,-0.022624,0,0.00084815,0,0,0,0.0057708,-1.3247e-05,0.0017273,0.32315,0.0024949,0.0051398,4.3734e-09,0.56,0.98,0
0.029008,-0.0085538,0.0057953,-1.3591e-05,0.0017345,2.0993e-05,0,0,0.05279,-0.022725,0,0.00054583,0,0,0,0.0057953,-1.3667e-05,0.0017345,0.20706,0.0025054,0.0051619,4.4298e-09,0.58,0.98,0
0.030065,-0.0085679,0.0058092,-1.3708e-05,0.0017386,9.0836e-06,0,0,0.052917,-0.02278,0,0.00023618,0,0,0,0.0058092,-1.3723e-05,0.0017386,0.089381,0.0025114,0.0051743,4.4616e-09,0.6,0.98,0
0.031124,-0.0085986,0.0058122,-1.3413e-05,0.0017396,-2.7484e-06,0,0,0.052944,-0.02279,0,-7.1459e-05,0,0,0,0.0058122,-1.3414e-05,0.0017396,-0.027031,0.0025128,0.0051767,4.4684e-09,0.62,0.98,0
0.032183,-0.0086458,0.0058047,-1.2721e-05,0.0017376,-1.415e-05,0,0,0.052872,-0.022754,0,-0.00036791,0,0,0,0.0058047,-1.2756e-05,0.0017376,-0.13937,0.0025098,0.0051695,4.4505e-09,0.64,0.98,0
0.033239,-0.0087091,0.005787,-1.1669e-05,0.0017326,-2.4793e-05,0,0,0.052707,-0.022676,0,-0.00064461,0,0,0,0.0057871,-1.1775e-05,0.0017326,-0.24497,0.0025026,0.0051531,4.4094e-09,0.66,0.98,0
0.034291,-0.0087874,0.0057601,-1.0305e-05,0.0017249,-3.4382e-05,0,0,0.052457,-0.022558,0,-0.00089393,0,0,0,0.0057602,-1.051e-05,0.0017249,-0.34137,0.0024916,0.0051282,4.3473e-09,0.68,0.98,0
0.035338,-0.008879,0.0057249,-8.6907e-06,0.0017148,-4.2673e-05,0,0,0.05213,-0.022406,0,-0.0011095,0,0,0,0.0057252,-9.0083e-06,0.0017148,-0.4264,0.002477,0.0050958,4.2672e-09,0.7,0.98,0
0.036377,-0.008982,0.0056827,-6.8933e-06,0.0017028,-4.9476e-05,0,0,0.05174,-0.022225,0,-0.0012864,0,0,0,0.0056831,-7.3235e-06,0.0017028,-0.49818,0.0024595,0.0050571,4.1727e-09,0.72,0.98,0
0.037407,-0.009094,0.005635,-4.9839e-06,0.001689,-5.4663e-05,0,0,0.051298,-0.022022,0,-0.0014212,0,0,0,0.0056355,-5.5136e-06,0.001689,-0.55524,0.0024397,0.0050134,4.0673e-09,0.74,0.98,0
0.038428,-0.0092125,0.0055832,-3.0313e-06,0.0016741,-5.8165e-05,0,0,0.050819,-0.021802,0,-0.0015123,0,0,0,0.0055838,-3.6369e-06,0.0016741,-0.59649,0.0024181,0.0049659,3.9551e-09,0.76,0.98,0
0.03944,-0.0093347,0.005529,-1.0993e-06,0.0016584,-5.9973e-05,0,0,0.050318,-0.021573,0,-0.0015593,0,0,0,0.0055296,-1.7496e-06,0.0016584,-0.62127,0.0023954,0.0049162,3.8396e-09,0.78,0.98,0
0.040441,-0.0094579,0.0054737,7.5697e-07,0.0016423,-6.0128e-05,0,0,0.049808,-0.021341,0,-0.0015633,0,0,0,0.0054744,9.6474e-08,0.0016423,-0.62937,0.0023723,0.0048657,3.7243e-09,0.8,0.98,0
0.041432,-0.0095793,0.005419,2.4924e-06,0.0016264,-5.8715e-05,0,0,0.049303,-0.021111,0,-0.0015266,0,0,0,0.0054196,1.856e-06,0.0016264,-0.62099,0.0023493,0.0048156,3.6124e-09,0.82,0.98,0
0.042413,-0.0096961,0.0053661,4.073e-06,0.0016111,-5.5854e-05,0,0,0.048816,-0.020891,0,-0.0014522,0,0,0,0.0053667,3.4913e-06,0.0016111,-0.59673,0.0023271,0.0047672,3.5065e-09,0.84,0.98,0
0.043385,-0.0098057,0.0053165,5.4758e-06,0.0015966,-5.169e-05,0,0,0.048358,-0.020684,0,-0.0013439,0,0,0,0.005317,4.9727e-06,0.0015966,-0.55757,0.0023062,0.0047218,3.4088e-09,0.86,0.98,0
0.044348,-0.0099059,0.0052711,6.6872e-06,0.0015833,-4.6384e-05,0,0,0.047941,-0.020497,0,-0.001206,0,0,0,0.0052715,6.2786e-06,0.0015833,-0.50477,0.0022871,0.0046804,3.3212e-09,0.88,0.98,0
0.045303,-0.0099944,0.0052311,7.7022e-06,0.0015716,-4.0105e-05,0,0,0.047573,-0.020331,0,-0.0010427,0,0,0,0.0052314,7.3942e-06,0.0015716,-0.43989,0.0022701,0.0046439,3.2452e-09,0.9,0.98,0
0.046251,-0.010069,0.0051972,8.5212e-06,0.0015617,-3.3025e-05,0,0,0.047261,-0.020192,0,-0.00085865,0,0,0,0.0051974,8.311e-06,0.0015617,-0.36466,0.0022558,0.0046129,3.1817e-09,0.92,0.98,0
0.047193,-0.010129,0.0051702,9.1488e-06,0.0015538,-2.5312e-05,0,0,0.047013,-0.02008,0,-0.00065812,0,0,0,0.0051703,9.0247e-06,0.0015538,-0.281,0.0022444,0.0045883,3.1317e-09,0.94,0.98,0
0.048131,-0.010173,0.0051505,9.5911e-06,0.001548,-1.7131e-05,0,0,0.046832,-0.02,0,-0.00044541,0,0,0,0.0051505,9.534e-06,0.001548,-0.19093,0.002236,0.0045703,3.0956e-09,0.96,0.98,0
0.049066,-0.0102,0.0051385,9.8537e-06,0.0015445,-8.6421e-06,0,0,0.046722,-0.019951,0,-0.00022469,0,0,0,0.0051385,9.8392e-06,0.0015445,-0.096546,0.002231,0.0045594,3.0738e-09,0.98,0.98,0
0.05,-0.010209,0.0051345,9.9408e-06,0.0015433,-1.7153e-05,0,0,0.046685,-0.019934,0,-0.00044598,0,0,0,0.0051346,9.8834e-06,0.0015433,-0.19178,0.0022293,0.0045558,3.0666e-09,1,0.98,0
0,0,0.013593,0.0058258,0.0058258,-0.0038337,0,0,0.10098,-6.9389e-18,0,-0.099675,0,0,0,0.015167,0.0042524,0.0058258,-22.314,0.008415,0.010219,5.0456e-08,0,1,0
0.0020196,-0.0019935,0.0097592,0.00069893,0.0031374,-0.0015233,0,0,0.086083,-0.031701,0,-0.039605,0,0,0,0.010009,0.00044969,0.0031374,-9.2927,0.0045319,0.0085383,2.1615e-08,0.02,1,0
0.0034433,-0.0032209,0.0072292,0.00028368,0.0022539,-0.00049782,0,0,0.064679,-0.025612,0,-0.012943,0,0,0,0.0072647,0.00024818,0.0022539,-4.0789,0.0032556,0.0062595,8.3742e-09,0.04,1,0
0.0046068,-0.0042624,0.0060526,-3.1452e-05,0.0018063,-0.00029753,0,0,0.055201,-0.023891,0,-0.0077358,0,0,0,0.0060671,-4.5968e-05,0.0018063,-2.7931,0.0026092,0.0054293,5.1106e-09,0.06,1,0
0.0056514,-0.0051319,0.0055091,-6.8308e-05,0.0016322,-0.00018024,0,0,0.050399,-0.022107,0,-0.0046863,0,0,0,0.0055149,-7.4127e-05,0.0016322,-1.849,0.0023577,0.004961,3.8618e-09,0.08,1,0
0.0066227,-0.0058766,0.0051706,-8.3645e-05,0.0015261,-0.00012112,0,0,0.047379,-0.020927,0,-0.0031491,0,0,0,0.0051734,-8.6436e-05,0.0015261,-1.3198,0.0022044,0.0046674,3.1986e-09,0.1,1,0
0.0075465,-0.006517,0.0049511,-8.4133e-05,0.0014601,-8.309e-05,0,0,0.045383,-0.020075,0,-0.0021604,0,0,0,0.0049524,-8.5504e-05,0.0014601,-0.94515,0.002109,0.0044702,2.8076e-09,0.12,1,0
0.008438,-0.007068,0.0048042,-8.1344e-05,0.0014169,-5.7065e-05,0,0,0.044035,-0.019477,0,-0.0014837,0,0,0,0.0048049,-8.2011e-05,0.0014169,-0.66912,0.0020466,0.0043363,2.5635e-09,0.14,1,0
0.0093079,-0.0075403,0.0047086,-7.7041e-05,0.0013895,-3.7883e-05,0,0,0.043149,-0.019065,0,-0.00098496,0,0,0,0.0047089,-7.734e-05,0.0013895,-0.45351,0.002007,0.0042473,2.4114e-09,0.16,1,0
0.010164,-0.0079421,0.0046514,-7.2222e-05,0.0013738,-2.3077e-05,0,0,0.04261,-0.018798,0,-0.00060001,0,0,0,0.0046515,-7.2335e-05,0.0013738,-0.27991,0.0019843,0.0041922,2.3222e-09,0.18,1,0
0.011012,-0.0082804,0.0046244,-6.7204e-05,0.0013672,-1.1221e-05,0,0,0.042344,-0.018647,0,-0.00029175,0,0,0,0.0046244,-6.7231e-05,0.0013672,-0.13704,0.0019748,0.0041641,2.2795e-09,0.2,1,0
0.011858,-0.0085611,0.004622,-6.2118e-05,0.001368,-1.4704e-06,0,0,0.042302,-0.018591,0,-3.8229e-05,0,0,0,0.004622,-6.2118e-05,0.001368,-0.017985,0.001976,0.0041578,2.2734e-09,0.22,1,0
0.012704,-0.0087894,0.0046401,-5.7009e-05,0.0013749,6.7005e-06,0,0,0.042448,-0.018615,0,0.00017421,0,0,0,0.0046402,-5.7018e-05,0.0013749,0.081733,0.001986,0.0041699,2.2975e-09,0.24,1,0
0.013556,-0.0089705,0.0046757,-5.1889e-05,0.0013871,1.3622e-05,0,0,0.042751,-0.018707,0,0.00035417,0,0,0,0.0046757,-5.1928e-05,0.0013871,0.16509,0.0020036,0.0041974,2.3479e-09,0.26,1,0
0.014414,-0.0091089,0.0047261,-4.676e-05,0.0014038,1.95e-05,0,0,0.043189,-0.018857,0,0.00050699,0,0,0,0.0047261,-4.6839e-05,0.0014038,0.23408,0.0020277,0.0042381,2.4217e-09,0.28,1,0
0.015283,-0.0092093,0.0047891,-4.1624e-05,0.0014242,2.4458e-05,0,0,0.043743,-0.019056,0,0.00063591,0,0,0,0.0047892,-4.1748e-05,0.0014242,0.29008,0.0020572,0.0042901,2.5168e-09,0.3,1,0
0.016164,-0.0092761,0.0048627,-3.6489e-05,0.0014479,2.8565e-05,0,0,0.044393,-0.019297,0,0.00074268,0,0,0,0.0048629,-3.6656e-05,0.0014479,0.33405,0.0020914,0.0043515,2.6314e-09,0.32,1,0
0.017059,-0.0093137,0.004945,-3.137e-05,0.0014741,3.1849e-05,0,0,0.045121,-0.019571,0,0.00082807,0,0,0,0.0049452,-3.1574e-05,0.0014741,0.36668,0.0021292,0.0044206,2.764e-09,0.34,1,0
0.017969,-0.0093266,0.0050339,-2.6293e-05,0.0015023,3.4314e-05,0,0,0.045911,-0.019872,0,0.00089217,0,0,0,0.0050342,-2.6525e-05,0.0015023,0.38851,0.00217,0.0044957,2.9125e-09,0.36,1,0
0.018895,-0.0093191,0.0051276,-2.1291e-05,0.0015319,3.5951e-05,0,0,0.046744,-0.020191,0,0.00093474,0,0,0,0.0051278,-2.1542e-05,0.0015319,0.40003,0.0022127,0.004575,3.0747e-09,0.38,1,0
0.019839,-0.0092955,0.0052239,-1.6407e-05,0.0015623,3.6746e-05,0,0,0.047602,-0.020523,0,0.00095539,0,0,0,0.0052242,-1.6664e-05,0.0015623,0.40174,0.0022566,0.0046567,3.2478e-09,0.4,1,0
0.020799,-0.0092603,0.0053208,-1.1691e-05,0.0015927,3.6685e-05,0,0,0.048465,-0.020858,0,0.00095381,0,0,0,0.0053211,-1.1944e-05,0.0015927,0.39414,0.0023006,0.004739,3.4284e-09,0.42,1,0
0.021777,-0.0092175,0.0054161,-7.2005e-06,0.0016227,3.5768e-05,0,0,0.049315,-0.021188,0,0.00092997,0,0,0,0.0054164,-7.4364e-06,0.0016227,0.37786,0.0023439,0.0048201,3.6125e-09,0.44,1,0
0.022772,-0.0091712,0.0055077,-2.9932e-06,0.0016514,3.401e-05,0,0,0.050132,-0.021507,0,0.00088426,0,0,0,0.0055079,-3.2031e-06,0.0016514,0.35359,0.0023854,0.0048981,3.7956e-09,0.46,1,0
0.023783,-0.0091252,0.0055934,8.7026e-07,0.0016783,3.1446e-05,0,0,0.050897,-0.021806,0,0.00081759,0,0,0,0.0055936,6.9345e-07,0.0016783,0.32215,0.0024242,0.0049712,3.9725e-09,0.48,1,0
0.024808,-0.009083,0.0056714,4.3315e-06,0.0017027,2.8135e-05,0,0,0.051593,-0.022079,0,0.00073151,0,0,0,0.0056715,4.1918e-06,0.0017027,0.28444,0.0024595,0.0050376,4.1381e-09,0.5,1,0
0.025846,-0.0090479,0.0057397,7.3368e-06,0.0017241,2.4161e-05,0,0,0.052203,-0.022318,0,0.00062818,0,0,0,0.0057398,7.235e-06,0.0017241,0.24149,0.0024904,0.0050959,4.287e-09,0.52,1,0
0.026896,-0.0090225,0.0057969,9.8402e-06,0.001742,1.9632e-05,0,0,0.052713,-0.022518,0,0.00051043,0,0,0,0.0057969,9.7736e-06,0.001742,0.19437,0.0025162,0.0051446,4.4142e-09,0.54,1,0
0.027955,-0.0090091,0.0058416,1.1805e-05,0.001756,1.4678e-05,0,0,0.053113,-0.022675,0,0.00038162,0,0,0,0.0058417,1.1768e-05,0.001756,0.14425,0.0025365,0.0051828,4.5156e-09,0.56,1,0
0.029021,-0.0090095,0.005873,1.3208e-05,0.0017659,9.4436e-06,0,0,0.053393,-0.022785,0,0.00024553,0,0,0,0.0058731,1.3192e-05,0.0017659,0.092336,0.0025507,0.0052095,4.5876e-09,0.58,1,0
0.030091,-0.0090248,0.0058906,1.4037e-05,0.0017714,4.0869e-06,0,0,0.05355,-0.022846,0,0.00010626,0,0,0,0.0058906,1.4034e-05,0.0017714,0.039847,0.0025587,0.0052245,4.6283e-09,0.6,1,0
0.031163,-0.0090557,0.0058943,1.4296e-05,0.0017726,-1.2311e-06,0,0,0.053582,-0.022858,0,-3.201e-05,0,0,0,0.0058943,1.4295e-05,0.0017726,-0.011997,0.0025604,0.0052276,4.6367e-09,0.62,1,0
0.032234,-0.0091023,0.0058844,1.4003e-05,0.0017695,-6.3525e-06,0,0,0.053493,-0.022822,0,-0.00016516,0,0,0,0.0058844,1.3996e-05,0.0017695,-0.062002,0.002556,0.005219,4.6136e-09,0.64,1,0
0.033302,-0.0091639,0.0058616,1.3192e-05,0.0017624,-1.1129e-05,0,0,0.053289,-0.02274,0,-0.00028936,0,0,0,0.0058616,1.317e-05,0.0017624,-0.10903,0.0025457,0.0051994,4.5608e-09,0.66,1,0
0.034366,-0.0092397,0.005827,1.1906e-05,0.0017517,-1.543e-05,0,0,0.052979,-0.022617,0,-0.00040118,0,0,0,0.005827,1.1865e-05,0.0017517,-0.15203,0.0025302,0.0051697,4.4816e-09,0.68,1,0
0.035421,-0.0093281,0.005782,1.0203e-05,0.0017377,-1.9145e-05,0,0,0.052576,-0.022457,0,-0.00049777,0,0,0,0.005782,1.014e-05,0.0017377,-0.19005,0.0025099,0.0051311,4.38e-09,0.7,1,0
0.036469,-0.0094273,0.0057282,8.149e-06,0.0017209,-2.219e-05,0,0,0.052095,-0.022266,0,-0.00057693,0,0,0,0.0057283,8.0629e-06,0.0017209,-0.22226,0.0024858,0.005085,4.2606e-09,0.72,1,0
0.037505,-0.009535,0.0056676,5.8154e-06,0.001702,-2.4507e-05,0,0,0.051552,-0.022051,0,-0.00063719,0,0,0,0.0056677,5.7094e-06,0.001702,-0.248,0.0024585,0.005033,4.1285e-09,0.74,1,0
0.038531,-0.0096488,0.0056019,3.2791e-06,0.0016816,-2.6068e-05,0,0,0.050965,-0.021818,0,-0.00067777,0,0,0,0.005602,3.1577e-06,0.0016816,-0.26677,0.0024289,0.0049767,3.9887e-09,0.76,1,0
0.039544,-0.0097662,0.0055333,6.1794e-07,0.0016602,-2.6868e-05,0,0,0.05035,-0.021574,0,-0.00069856,0,0,0,0.0055334,4.8747e-07,0.0016602,-0.27823,0.002398,0.0049178,3.8458e-09,0.78,1,0
0.040545,-0.0098845,0.0054636,-2.0911e-06,0.0016385,-2.6927e-05,0,0,0.049727,-0.021327,0,-0.0007001,0,0,0,0.0054637,-2.2237e-06,0.0016385,-0.28226,0.0023667,0.004858,3.7043e-09,0.8,1,0
0.041533,-0.010001,0.0053947,-4.774e-06,0.001617,-2.6284e-05,0,0,0.04911,-0.021083,0,-0.00068339,0,0,0,0.0053948,-4.9019e-06,0.001617,-0.2789,0.0023356,0.0047989,3.5678e-09,0.82,1,0
0.042509,-0.010113,0.0053284,-7.3617e-06,0.0015963,-2.4994e-05,0,0,0.048517,-0.020848,0,-0.00064985,0,0,0,0.0053285,-7.4788e-06,0.0015963,-0.26838,0.0023058,0.0047421,3.4396e-09,0.84,1,0
0.043474,-0.010218,0.0052662,-9.7913e-06,0.0015769,-2.3123e-05,0,0,0.047961,-0.020627,0,-0.00060119,0,0,0,0.0052663,-9.8926e-06,0.0015769,-0.2511,0.0022778,0.0046887,3.3223e-09,0.86,1,0
0.044427,-0.010314,0.0052095,-1.2007e-05,0.0015593,-2.0743e-05,0,0,0.047454,-0.020427,0,-0.00053931,0,0,0,0.0052096,-1.2089e-05,0.0015593,-0.2276,0.0022523,0.0046401,3.2177e-09,0.88,1,0
0.045372,-0.010399,0.0051596,-1.3961e-05,0.0015437,-1.7929e-05,0,0,0.047007,-0.02025,0,-0.00046617,0,0,0,0.0051597,-1.4023e-05,0.0015437,-0.19856,0.0022298,0.0045972,3.1274e-09,0.9,1,0
0.046308,-0.010471,0.0051175,-1.5612e-05,0.0015306,-1.4761e-05,0,0,0.04663,-0.0201,0,-0.00038377,0,0,0,0.0051175,-1.5655e-05,0.0015306,-0.16476,0.0022108,0.004561,3.0524e-09,0.92,1,0
0.047237,-0.010529,0.0050839,-1.693e-05,0.0015201,-1.1311e-05,0,0,0.046329,-0.019981,0,-0.00029408,0,0,0,0.0050839,-1.6955e-05,0.0015201,-0.12705,0.0021957,0.0045322,2.9935e-09,0.94,1,0
0.048161,-0.010571,0.0050594,-1.7888e-05,0.0015125,-7.6541e-06,0,0,0.04611,-0.019894,0,-0.00019901,0,0,0,0.0050594,-1.7899e-05,0.0015125,-0.086374,0.0021847,0.0045112,2.9512e-09,0.96,1,0
0.049081,-0.010597,0.0050446,-1.847e-05,0.0015078,-3.8609e-06,0,0,0.045978,-0.019842,0,-0.00010038,0,0,0,0.0050446,-1.8472e-05,0.0015078,-0.043691,0.002178,0.0044985,2.9256e-09,0.98,1,0
0.05,-0.010605,0.0050396,-1.8665e-05,0.0015063,-1.6475e-05,0,0,0.045933,-0.019824,0,-0.00042836,0,0,0,0.0050397,-1.8718e-05,0.0015063,-0.18662,0.0021757,0.0044943,2.9173e-09,1,1,0
