"Displacements:0","Displacements:1","Stress/Strain:0","Stress/Strain:1","Stress/Strain:2","Stress/Strain:3","Stress/Strain:4","Stress/Strain:5","Stress/Strain:6","Stress/Strain:7","Stress/Strain:8","Stress/Strain:9","Stress/Strain:10","Stress/Strain:11","Stress/Strain:12","Principal Stress:0","Principal Stress:1","Principal Stress:2","Principal Stress:3","Principal Stress:4","Principal Stress:5","Principal Stress:6","nodes:0","nodes:1","nodes:2"
0,0,0.013372,0.005731,0.005731,0.0038125,0,0,0.11921,3.4694e-18,0,0.11895,0,0,0,0.014949,0.0041542,0.005731,22.469,0.0082781,0.010099,4.8586e-08,0,0,0
0.0023841,0.002379,0.0095702,0.00070555,0.0030827,0.0015214,0,0,0.1012,-0.037084,0,0.047469,0,0,0,0.009824,0.0004517,0.0030827,9.4726,0.0044528,0.0083728,2.0416e-08,0.02,0,0
0.0040482,0.0038681,0.007006,0.00028778,0.0021881,0.0005129,0,0,0.075159,-0.029646,0,0.016003,0,0,0,0.0070449,0.00024885,0.0021881,4.3407,0.0031606,0.0060637,7.6264e-09,0.04,0,0
0.0053904,0.0051411,0.0057827,-3.0132e-05,0.0017258,0.00031477,0,0,0.063288,-0.027392,0,0.0098207,0,0,0,0.0057997,-4.7127e-05,0.0017258,3.0905,0.0024928,0.0051926,4.4668e-09,0.06,0,0
0.0065797,0.0062104,0.005189,-7.1398e-05,0.0015353,0.00019932,0,0,0.056998,-0.025064,0,0.0062188,0,0,0,0.0051965,-7.894e-05,0.0015353,2.1668,0.0022176,0.0046819,3.2367e-09,0.08,0,0
0.0076704,0.0071292,0.0047978,-9.0101e-05,0.0014123,0.00014233,0,0,0.052813,-0.023438,0,0.0044408,0,0,0,0.0048019,-9.4242e-05,0.0014123,1.6665,0.00204,0.0043435,2.5654e-09,0.1,0,0
0.0086922,0.0079206,0.0045203,-9.3567e-05,0.001328,0.00010701,0,0,0.049799,-0.022177,0,0.0033387,0,0,0,0.0045227,-9.6047e-05,0.001328,1.3279,0.0019182,0.0040968,2.147e-09,0.12,0,0
0.0096623,0.0086007,0.0043084,-9.363e-05,0.0012644,8.4066e-05,0,0,0.047486,-0.021186,0,0.0026229,0,0,0,0.00431,-9.5235e-05,0.0012644,1.0937,0.0018264,0.0039071,1.8597e-09,0.14,0,0
0.010592,0.0091802,0.0041398,-9.225e-05,0.0012143,6.8078e-05,0,0,0.045639,-0.020382,0,0.002124,0,0,0,0.0041409,-9.3345e-05,0.0012143,0.92135,0.001754,0.0037553,1.65e-09,0.16,0,0
0.011488,0.0096668,0.0040016,-9.0496e-05,0.0011733,5.6271e-05,0,0,0.044121,-0.019716,0,0.0017557,0,0,0,0.0040023,-9.127e-05,0.0011733,0.78769,0.0016948,0.0036304,1.4902e-09,0.18,0,0
0.012356,0.010065,0.0038863,-8.8657e-05,0.0011393,4.6892e-05,0,0,0.042853,-0.019156,0,0.0014631,0,0,0,0.0038868,-8.921e-05,0.0011393,0.67579,0.0016456,0.0035261,1.3651e-09,0.2,0,0
0.013202,0.01038,0.0037902,-8.6764e-05,0.001111,3.876e-05,0,0,0.041795,-0.018686,0,0.0012093,0,0,0,0.0037906,-8.7152e-05,0.001111,0.57273,0.0016048,0.0034389,1.2662e-09,0.22,0,0
0.014028,0.010613,0.003712,-8.4686e-05,0.0010882,3.1007e-05,0,0,0.040932,-0.018297,0,0.00096741,0,0,0,0.0037123,-8.4939e-05,0.0010882,0.46788,0.0015719,0.0033676,1.1892e-09,0.24,0,0
0.014839,0.010766,0.0036523,-8.2199e-05,0.001071,2.2978e-05,0,0,0.040268,-0.01799,0,0.0007169,0,0,0,0.0036525,-8.234e-05,0.001071,0.35251,0.001547,0.0033123,1.1323e-09,0.26,0,0
0.015639,0.01084,0.0036131,-7.9017e-05,0.0010602,1.4187e-05,0,0,0.039825,-0.017772,0,0.00044262,0,0,0,0.0036132,-7.9072e-05,0.0010602,0.22015,0.0015314,0.0032747,1.0954e-09,0.28,0,0
0.016432,0.010836,0.0035974,-7.482e-05,0.0010568,4.3127e-06,0,0,0.039634,-0.017653,0,0.00013455,0,0,0,0.0035974,-7.4825e-05,0.0010568,0.067288,0.0015265,0.0032574,1.08e-09,0.3,0,0
0.017224,0.010756,0.003609,-6.9276e-05,0.0010619,-6.7826e-06,0,0,0.039734,-0.017646,0,-0.00021162,0,0,0,0.003609,-6.9288e-05,0.0010619,-0.10565,0.0015339,0.0032632,1.0886e-09,0.32,0,0
0.018022,0.010603,0.0036515,-6.2071e-05,0.0010768,-1.9028e-05,0,0,0.040165,-0.017767,0,-0.00059368,0,0,0,0.0036516,-6.2168e-05,0.0010768,-0.29357,0.0015554,0.0032953,1.1252e-09,0.34,0,0
0.018831,0.010382,0.0037282,-5.2947e-05,0.0011026,-3.2118e-05,0,0,0.04096,-0.018026,0,-0.0010021,0,0,0,0.0037285,-5.3219e-05,0.0011026,-0.48663,0.0015926,0.0033565,1.1944e-09,0.36,0,0
0.01966,0.010099,0.0038412,-4.1751e-05,0.0011398,-4.5489e-05,0,0,0.042142,-0.018433,0,-0.0014192,0,0,0,0.0038418,-4.2284e-05,0.0011398,-0.67109,0.0016464,0.0034485,1.3022e-09,0.38,0,0
0.020517,0.0097636,0.0039906,-2.8512e-05,0.0011886,-5.831e-05,0,0,0.043711,-0.018987,0,-0.0018193,0,0,0,0.0039914,-2.9358e-05,0.0011886,-0.83102,0.0017169,0.0035711,1.4549e-09,0.4,0,0
0.021409,0.0093877,0.0041736,-1.3498e-05,0.001248,-6.9495e-05,0,0,0.045639,-0.01968,0,-0.0021682,0,0,0,0.0041748,-1.4651e-05,0.001248,-0.9506,0.0018027,0.0037223,1.658e-09,0.42,0,0
0.022342,0.008987,0.0043843,2.7721e-06,0.0013161,-7.7783e-05,0,0,0.047863,-0.020488,0,-0.0024268,0,0,0,0.0043856,1.3916e-06,0.0013161,-1.0167,0.001901,0.0038969,1.9142e-09,0.44,0,0
0.023323,0.0085797,0.0046126,1.9618e-05,0.0013897,-8.1927e-05,0,0,0.050278,-0.021373,0,-0.0025561,0,0,0,0.0046141,1.8157e-05,0.0013897,-1.0216,0.0020073,0.0040866,2.2205e-09,0.46,0,0
0.024353,0.0081862,0.0048457,3.6349e-05,0.0014646,-8.1009e-05,0,0,0.052745,-0.022281,0,-0.0025275,0,0,0,0.0048471,3.4985e-05,0.0014646,-0.96473,0.0021156,0.0042803,2.565e-09,0.48,0,0
0.025433,0.0078278,0.0050688,5.2368e-05,0.0015363,-7.4772e-05,0,0,0.055106,-0.02315,0,-0.0023329,0,0,0,0.0050699,5.1253e-05,0.0015363,-0.85377,0.0022192,0.0044653,2.926e-09,0.5,0,0
0.026558,0.007525,0.0052674,6.7092e-05,0.0016004,-6.3785e-05,0,0,0.057207,-0.023919,0,-0.0019901,0,0,0,0.0052682,6.6309e-05,0.0016004,-0.70262,0.0023116,0.0046296,3.2739e-09,0.52,0,0
0.027721,0.0072957,0.0054297,7.9778e-05,0.0016528,-4.9253e-05,0,0,0.058919,-0.02454,0,-0.0015367,0,0,0,0.0054301,7.9324e-05,0.0016528,-0.52742,0.0023874,0.0047631,3.577e-09,0.54,0,0
0.028914,0.0071544,0.0055471,8.9457e-05,0.001691,-3.2556e-05,0,0,0.060156,-0.024983,0,-0.0010157,0,0,0,0.0055473,8.9263e-05,0.001691,-0.34177,0.0024425,0.0048594,3.8072e-09,0.56,0,0
0.030127,0.007111,0.0056148,9.5136e-05,0.001713,-1.4779e-05,0,0,0.060868,-0.025238,0,-0.00046111,0,0,0,0.0056148,9.5097e-05,0.001713,-0.15341,0.0024743,0.0049147,3.9442e-09,0.58,0,0
0.031349,0.0071713,0.0056305,9.6164e-05,0.001718,3.4377e-06,0,0,0.061035,-0.025301,0,0.00010726,0,0,0,0.0056305,9.6162e-05,0.001718,0.03559,0.0024815,0.0049278,3.9767e-09,0.6,0,0
0.032569,0.0073362,0.0055936,9.2514e-05,0.0017058,2.1667e-05,0,0,0.060649,-0.025168,0,0.00067601,0,0,0,0.0055937,9.2428e-05,0.0017058,0.22567,0.002464,0.0048981,3.9016e-09,0.62,0,0
0.033775,0.0076026,0.0055052,8.4785e-05,0.001677,3.9271e-05,0,0,0.05972,-0.024839,0,0.0012253,0,0,0,0.0055055,8.4501e-05,0.001677,0.41508,0.0024223,0.004826,3.725e-09,0.64,0,0
0.034958,0.0079625,0.0053692,7.3935e-05,0.0016329,5.5163e-05,0,0,0.058285,-0.02432,0,0.0017211,0,0,0,0.0053698,7.3361e-05,0.0016329,0.5968,0.0023587,0.0047142,3.4627e-09,0.66,0,0
0.036106,0.0084038,0.0051927,6.0909e-05,0.0015761,6.7939e-05,0,0,0.056419,-0.023637,0,0.0021197,0,0,0,0.0051936,6.001e-05,0.0015761,0.75835,0.0022766,0.0045683,3.1403e-09,0.68,0,0
0.037214,0.0089103,0.0049866,4.6437e-05,0.0015099,7.6342e-05,0,0,0.054237,-0.022831,0,0.0023819,0,0,0,0.0049878,4.5257e-05,0.0015099,0.88511,0.002181,0.0043972,2.7893e-09,0.7,0,0
0.038276,0.0094634,0.0047647,3.1089e-05,0.0014387,7.9729e-05,0,0,0.051885,-0.021959,0,0.0024875,0,0,0,0.0047661,2.9747e-05,0.0014387,0.96467,0.0020782,0.0042124,2.4411e-09,0.72,0,0
0.03929,0.010043,0.004541,1.5462e-05,0.0013669,7.8273e-05,0,0,0.049515,-0.021083,0,0.0024421,0,0,0,0.0045423,1.4108e-05,0.0013669,0.99059,0.0019745,0.004026,2.1205e-09,0.74,0,0
0.040257,0.01063,0.0043281,2.4759e-07,0.0012985,7.2809e-05,0,0,0.047261,-0.020253,0,0.0022716,0,0,0,0.0043293,-9.7696e-07,0.0012985,0.96355,0.0018756,0.0038488,1.8425e-09,0.76,0,0
0.04118,0.011208,0.0041356,-1.3862e-05,0.0012365,6.452e-05,0,0,0.045226,-0.019506,0,0.002013,0,0,0,0.0041366,-1.4865e-05,0.0012365,0.8906,0.0017861,0.0036886,1.6131e-09,0.78,0,0
0.042066,0.011761,0.0039697,-2.6325e-05,0.001183,5.4632e-05,0,0,0.043473,-0.018866,0,0.0017045,0,0,0,0.0039705,-2.7072e-05,0.001183,0.78313,0.0017088,0.0035507,1.4312e-09,0.8,0,0
0.042919,0.012278,0.0038331,-3.6846e-05,0.0011389,4.423e-05,0,0,0.042029,-0.018341,0,0.00138,0,0,0,0.0038336,-3.7352e-05,0.0011389,0.65473,0.001645,0.0034372,1.2922e-09,0.82,0,0
0.043747,0.012751,0.0037256,-4.5362e-05,0.0011041,3.418e-05,0,0,0.040895,-0.017931,0,0.0010664,0,0,0,0.0037259,-4.5672e-05,0.0011041,0.51927,0.0015948,0.0033482,1.1894e-09,0.84,0,0
0.044555,0.013173,0.003645,-5.1984e-05,0.0010779,2.5113e-05,0,0,0.040047,-0.017626,0,0.00078352,0,0,0,0.0036452,-5.2155e-05,0.0010779,0.38917,0.001557,0.0032817,1.1162e-09,0.86,0,0
0.045349,0.01354,0.0035879,-5.6928e-05,0.0010593,1.7432e-05,0,0,0.039447,-0.017413,0,0.00054387,0,0,0,0.003588,-5.7011e-05,0.0010593,0.27401,0.0015301,0.0032347,1.0662e-09,0.88,0,0
0.046133,0.013851,0.0035499,-6.0459e-05,0.0010468,1.1328e-05,0,0,0.039048,-0.017274,0,0.00035342,0,0,0,0.00355,-6.0495e-05,0.0010468,0.17977,0.0015121,0.0032037,1.0338e-09,0.9,0,0
0.046911,0.014104,0.0035265,-6.286e-05,0.0010391,6.805e-06,0,0,0.038803,-0.01719,0,0.00021232,0,0,0,0.0035265,-6.2873e-05,0.0010391,0.10863,0.0015009,0.0031847,1.0143e-09,0.92,0,0
0.047685,0.014301,0.0035133,-6.4401e-05,0.0010347,3.7145e-06,0,0,0.038666,-0.017145,0,0.00011589,0,0,0,0.0035133,-6.4405e-05,0.0010347,0.059487,0.0014945,0.0031742,1.0034e-09,0.94,0,0
0.048457,0.01444,0.0035067,-6.5317e-05,0.0010324,1.7901e-06,0,0,0.038598,-0.017124,0,5.5852e-05,0,0,0,0.0035067,-6.5318e-05,0.0010324,0.028714,0.0014912,0.0031691,9.9805e-10,0.96,0,0
0.049229,0.014523,0.0035038,-6.5789e-05,0.0010314,6.845e-07,0,0,0.03857,-0.017116,0,2.1356e-05,0,0,0,0.0035038,-6.5789e-05,0.0010314,0.010987,0.0014898,0.0031669,9.9581e-10,0.98,0,0
0.05,0.014551,0.0035031,-6.5934e-05,0.0010311,4.4476e-05,0,0,0.038562,-0.017115,0,0.0013877,0,0,0,0.0035037,-6.6488e-05,0.0010311,0.71386,0.0014894,0.0031673,9.9585e-10,1,0,0
0,0,0.0078494,0.003364,0.003364,0.0026239,0,0,0.069972,-1.7347e-18,0,0.081866,0,0,0,0.0090585,0.002155,0.003364,24.739,0.0048592,0.0063854,1.1772e-08,0,0.02,0
0.0013994,0.0016373,0.0071443,0.00071302,0.0023572,0.001663,0,0,0.074679,-0.025649,0,0.051886,0,0,0,0.0075489,0.00030845,0.0023572,13.673,0.0034049,0.0064643,9.3209e-09,0.02,0.02,0
0.0029872,0.0032752,0.0071486,0.00056756,0.0023149,0.0011033,0,0,0.075407,-0.027258,0,0.034423,0,0,0,0.0073287,0.00038752,0.0023149,9.268,0.0033437,0.0062061,8.4034e-09,0.04,0.02,0
0.0044157,0.0045933,0.0063635,0.00030289,0.0019999,0.00067883,0,0,0.068072,-0.026474,0,0.02118,0,0,0,0.0064386,0.00022779,0.0019999,6.3133,0.0028888,0.0055415,5.8215e-09,0.06,0.02,0
0.00571,0.0057091,0.0057727,0.00017711,0.0017849,0.00046517,0,0,0.062209,-0.025082,0,0.014513,0,0,0,0.0058111,0.0001387,0.0017849,4.7199,0.0025782,0.0050545,4.338e-09,0.08,0.02,0
0.0069041,0.0066604,0.0053429,0.00010985,0.0016358,0.00033669,0,0,0.057831,-0.023806,0,0.010505,0,0,0,0.0053645,8.8271e-05,0.0016358,3.6662,0.0023629,0.0046977,3.4418e-09,0.1,0.02,0
0.0080233,0.007477,0.0050239,7.2401e-05,0.0015289,0.0002561,0,0,0.054522,-0.022721,0,0.0079903,0,0,0,0.0050371,5.919e-05,0.0015289,2.9529,0.0022084,0.0044299,2.8643e-09,0.12,0.02,0
0.009085,0.008177,0.0047785,5.0163e-05,0.0014486,0.00020199,0,0,0.051946,-0.021816,0,0.006302,0,0,0,0.0047871,4.155e-05,0.0014486,2.4417,0.0020924,0.0042217,2.467e-09,0.14,0.02,0
0.010101,0.0087726,0.0045838,3.6513e-05,0.0013861,0.0001638,0,0,0.049884,-0.021053,0,0.0051107,0,0,0,0.0045897,3.062e-05,0.0013861,2.0604,0.0020021,0.004055,2.179e-09,0.16,0.02,0
0.01108,0.0092724,0.0044259,2.8149e-05,0.0013362,0.00013535,0,0,0.048198,-0.020406,0,0.0042228,0,0,0,0.00443,2.3988e-05,0.0013362,1.7611,0.0019301,0.0039183,1.9621e-09,0.18,0.02,0
0.012029,0.0096824,0.004296,2.3326e-05,0.0012958,0.00011271,0,0,0.046803,-0.01985,0,0.0035165,0,0,0,0.0042989,2.0355e-05,0.0012958,1.51,0.0018717,0.0038047,1.7944e-09,0.2,0.02,0
0.012952,0.010006,0.004189,2.1049e-05,0.001263,9.3211e-05,0,0,0.045645,-0.019374,0,0.0029082,0,0,0,0.004191,1.8965e-05,0.001263,1.2805,0.0018243,0.0037099,1.663e-09,0.22,0.02,0
0.013855,0.010247,0.004102,2.0687e-05,0.0012368,7.489e-05,0,0,0.044698,-0.018972,0,0.0023366,0,0,0,0.0041034,1.9314e-05,0.0012368,1.0509,0.0017865,0.0036318,1.5605e-09,0.24,0.02,0
0.01474,0.010406,0.0040342,2.178e-05,0.0012168,5.627e-05,0,0,0.043951,-0.018642,0,0.0017556,0,0,0,0.0040349,2.0991e-05,0.0012168,0.80332,0.0017576,0.0035696,1.4829e-09,0.26,0.02,0
0.015613,0.010484,0.0039855,2.391e-05,0.0012028,3.6263e-05,0,0,0.04341,-0.018391,0,0.0011314,0,0,0,0.0039858,2.3578e-05,0.0012028,0.52441,0.0017374,0.0035239,1.4283e-09,0.28,0.02,0
0.016477,0.010483,0.003957,2.664e-05,0.0011951,1.4156e-05,0,0,0.043086,-0.018228,0,0.00044165,0,0,0,0.0039571,2.6589e-05,0.0011951,0.20635,0.0017263,0.0034959,1.3964e-09,0.3,0.02,0
0.017336,0.010403,0.0039503,2.9477e-05,0.0011939,-1.0357e-05,0,0,0.042999,-0.018165,0,-0.00032314,0,0,0,0.0039503,2.9449e-05,0.0011939,-0.15135,0.0017246,0.0034876,1.3881e-09,0.32,0.02,0
0.018197,0.010248,0.0039667,3.1862e-05,0.0011996,-3.712e-05,0,0,0.043168,-0.018216,0,-0.0011581,0,0,0,0.0039671,3.1512e-05,0.0011996,-0.54044,0.0017327,0.0035009,1.4051e-09,0.34,0.02,0
0.019063,0.010022,0.0040075,3.3192e-05,0.0012122,-6.5472e-05,0,0,0.043607,-0.018393,0,-0.0020427,0,0,0,0.0040086,3.2114e-05,0.0012122,-0.94354,0.001751,0.0035373,1.4496e-09,0.36,0.02,0
0.019941,0.0097305,0.004073,3.2837e-05,0.0012318,-9.4215e-05,0,0,0.044324,-0.018703,0,-0.0029395,0,0,0,0.0040752,3.0641e-05,0.0012318,-1.3351,0.0017792,0.0035977,1.5239e-09,0.38,0.02,0
0.020836,0.0093839,0.0041623,3.017e-05,0.0012577,-0.0001216,0,0,0.045311,-0.01915,0,-0.0037939,0,0,0,0.0041658,2.6595e-05,0.0012577,-1.6842,0.0018167,0.0036814,1.6299e-09,0.4,0.02,0
0.021753,0.0089941,0.0042727,2.4633e-05,0.0012892,-0.00014537,0,0,0.046543,-0.019727,0,-0.0045356,0,0,0,0.0042777,1.9664e-05,0.0012892,-1.9577,0.0018622,0.0037864,1.7681e-09,0.42,0.02,0
0.022698,0.0085773,0.0043998,1.5933e-05,0.0013247,-0.00016292,0,0,0.047972,-0.020417,0,-0.0050832,0,0,0,0.0044059,9.8866e-06,0.0013247,-2.1254,0.0019135,0.0039081,1.9368e-09,0.44,0.02,0
0.023672,0.0081523,0.0045372,4.3713e-06,0.0013625,-0.00017166,0,0,0.049526,-0.021186,0,-0.0053558,0,0,0,0.0045437,-2.1202e-06,0.0013625,-2.1657,0.001968,0.0040402,2.1306e-09,0.46,0.02,0
0.024679,0.0077406,0.0046769,-8.8299e-06,0.0014004,-0.00016967,0,0,0.051113,-0.021984,0,-0.0052937,0,0,0,0.004683,-1.4966e-05,0.0014004,-2.0711,0.0020228,0.0041743,2.3394e-09,0.48,0.02,0
0.025717,0.0073648,0.0048102,-2.1619e-05,0.0014366,-0.00015645,0,0,0.052628,-0.022748,0,-0.0048811,0,0,0,0.0048152,-2.668e-05,0.0014366,-1.8526,0.002075,0.0043012,2.5495e-09,0.5,0.02,0
0.026784,0.0070466,0.0049288,-3.1862e-05,0.0014691,-0.00013325,0,0,0.053971,-0.023415,0,-0.0041575,0,0,0,0.0049324,-3.5439e-05,0.0014691,-1.5376,0.002122,0.0044123,2.7449e-09,0.52,0.02,0
0.027876,0.0068049,0.0050259,-3.8413e-05,0.0014962,-0.00010275,0,0,0.055062,-0.02394,0,-0.0032059,0,0,0,0.0050279,-4.0497e-05,0.0014962,-1.1619,0.0021612,0.0045013,2.9102e-09,0.54,0.02,0
0.028986,0.0066547,0.0050966,-4.1661e-05,0.0015165,-6.7922e-05,0,0,0.055849,-0.024307,0,-0.0021192,0,0,0,0.0050974,-4.2559e-05,0.0015165,-0.75722,0.0021905,0.0045647,3.0335e-09,0.56,0.02,0
0.03011,0.0066063,0.0051379,-4.2986e-05,0.0015285,-3.1028e-05,0,0,0.056307,-0.024515,0,-0.00096807,0,0,0,0.0051381,-4.3172e-05,0.0015285,-0.34312,0.0022078,0.0046013,3.1068e-09,0.58,0.02,0
0.031239,0.0066653,0.0051483,-4.3564e-05,0.0015314,6.7318e-06,0,0,0.056423,-0.02457,0,0.00021003,0,0,0,0.0051483,-4.3572e-05,0.0015314,0.07429,0.0022121,0.0046108,3.1256e-09,0.6,0.02,0
0.032366,0.0068329,0.0051273,-4.3403e-05,0.0015252,4.4641e-05,0,0,0.056194,-0.02447,0,0.0013928,0,0,0,0.0051277,-4.3788e-05,0.0015252,0.4946,0.002203,0.0045926,3.0885e-09,0.62,0.02,0
0.033486,0.0071058,0.0050756,-4.1333e-05,0.0015103,8.1508e-05,0,0,0.055619,-0.024205,0,0.002543,0,0,0,0.0050769,-4.2631e-05,0.0015103,0.91236,0.0021815,0.0045465,2.9971e-09,0.64,0.02,0
0.034591,0.0074761,0.004995,-3.5937e-05,0.0014877,0.00011506,0,0,0.054714,-0.023769,0,0.00359,0,0,0,0.0049977,-3.8567e-05,0.0014877,1.3095,0.0021489,0.0044728,2.8569e-09,0.66,0.02,0
0.035675,0.0079311,0.0048897,-2.6762e-05,0.0014589,0.00014228,0,0,0.05352,-0.023176,0,0.0044391,0,0,0,0.0048938,-3.0875e-05,0.0014589,1.6562,0.0021073,0.0043744,2.6785e-09,0.68,0.02,0
0.036732,0.0084537,0.0047655,-1.4877e-05,0.0014252,0.00016038,0,0,0.052109,-0.022465,0,0.0050039,0,0,0,0.0047709,-2.0252e-05,0.0014252,1.9194,0.0020586,0.0042566,2.4763e-09,0.7,0.02,0
0.037759,0.0090242,0.0046301,-2.3725e-06,0.0013883,0.00016795,0,0,0.050571,-0.021695,0,0.0052401,0,0,0,0.0046362,-8.4537e-06,0.0013883,2.0737,0.0020053,0.0041275,2.2666e-09,0.72,0.02,0
0.038755,0.0096215,0.0044914,8.7096e-06,0.00135,0.00016531,0,0,0.049006,-0.020925,0,0.0051576,0,0,0,0.0044975,2.622e-06,0.00135,2.109,0.0019501,0.0039954,2.064e-09,0.74,0.02,0
0.039719,0.010225,0.0043572,1.7116e-05,0.0013123,0.00015419,0,0,0.0475,-0.020205,0,0.0048108,0,0,0,0.0043626,1.1645e-05,0.0013123,2.0322,0.0018955,0.0038683,1.8795e-09,0.76,0.02,0
0.040655,0.010818,0.0042333,2.2483e-05,0.0012767,0.00013706,0,0,0.046123,-0.019567,0,0.0042762,0,0,0,0.0042378,1.8027e-05,0.0012767,1.8623,0.0018442,0.0037522,1.7198e-09,0.78,0.02,0
0.041564,0.011384,0.0041242,2.5021e-05,0.0012448,0.00011645,0,0,0.044919,-0.019028,0,0.0036332,0,0,0,0.0041275,2.1716e-05,0.0012448,1.6259,0.001798,0.0036512,1.5872e-09,0.8,0.02,0
0.042452,0.011912,0.004032,2.5194e-05,0.0012172,9.4624e-05,0,0,0.043912,-0.018595,0,0.0029523,0,0,0,0.0040342,2.2961e-05,0.0012172,1.3521,0.0017581,0.0035674,1.4814e-09,0.82,0.02,0
0.043321,0.012392,0.0039575,2.3538e-05,0.0011943,7.3415e-05,0,0,0.043106,-0.018264,0,0.0022905,0,0,0,0.0039589,2.2168e-05,0.0011943,1.0688,0.0017251,0.003501,1.4e-09,0.84,0.02,0
0.044176,0.01282,0.0038998,2.0602e-05,0.0011761,5.4182e-05,0,0,0.04249,-0.018026,0,0.0016905,0,0,0,0.0039006,1.9845e-05,0.0011761,0.80005,0.0016989,0.0034511,1.3399e-09,0.86,0.02,0
0.04502,0.013192,0.0038573,1.6922e-05,0.0011623,3.7812e-05,0,0,0.042043,-0.017868,0,0.0011797,0,0,0,0.0038577,1.655e-05,0.0011623,0.56405,0.0016788,0.0034156,1.2973e-09,0.88,0.02,0
0.045858,0.013505,0.0038276,1.2995e-05,0.0011522,2.4741e-05,0,0,0.041736,-0.017771,0,0.00077193,0,0,0,0.0038277,1.2834e-05,0.0011522,0.3716,0.0016642,0.0033919,1.2685e-09,0.9,0.02,0
0.04669,0.013761,0.0038079,9.2478e-06,0.0011452,1.5004e-05,0,0,0.041539,-0.01772,0,0.00046813,0,0,0,0.003808,9.1885e-06,0.0011452,0.2263,0.0016541,0.0033773,1.2503e-09,0.92,0.02,0
0.047519,0.013958,0.0037958,6.0193e-06,0.0011405,8.2998e-06,0,0,0.041422,-0.017699,0,0.00025896,0,0,0,0.0037958,6.0011e-06,0.0011405,0.12548,0.0016475,0.003369,1.2395e-09,0.94,0.02,0
0.048347,0.014098,0.003789,3.5553e-06,0.0011378,4.0726e-06,0,0,0.041359,-0.017694,0,0.00012706,0,0,0,0.003789,3.5509e-06,0.0011378,0.061643,0.0016434,0.0033649,1.2336e-09,0.96,0.02,0
0.049174,0.014181,0.0037856,2.0174e-06,0.0011363,1.5877e-06,0,0,0.041329,-0.017694,0,4.9536e-05,0,0,0,0.0037856,2.0167e-06,0.0011363,0.024043,0.0016413,0.0033631,1.2308e-09,0.98,0.02,0
0.05,0.014209,0.0037846,1.4952e-06,0.0011358,4.4537e-05,0,0,0.041321,-0.017695,0,0.0013895,0,0,0,0.0037851,9.7101e-07,0.0011358,0.67439,0.0016406,0.0033635,1.2307e-09,1,0.02,0
0,0,0.0066432,0.0028471,0.0028471,0.0021683,0,0,0.059219,4.3368e-18,0,0.067651,0,0,0,0.0076268,0.0018634,0.0028471,24.401,0.0041124,0.00534,6.9345e-09,0,0.04,0
0.0011844,0.001353,0.0064006,0.0017449,0.0024436,0.0019676,0,0,0.061728,-0.010901,0,0.061388,0,0,0,0.0071207,0.0010248,0.0024436,20.103,0.0035297,0.0055249,6.7739e-09,0.02,0.04,0
0.0024691,0.0027777,0.0063619,0.00085235,0.0021643,0.0015856,0,0,0.065483,-0.020466,0,0.04947,0,0,0,0.0067856,0.00042863,0.0021643,14.962,0.0031262,0.0056913,6.5838e-09,0.04,0.04,0
0.0038037,0.0040822,0.0062379,0.00053836,0.0020329,0.0011773,0,0,0.065598,-0.023314,0,0.036731,0,0,0,0.0064715,0.00030476,0.0020329,11.223,0.0029364,0.0055098,5.8278e-09,0.06,0.04,0
0.0050931,0.0052071,0.005913,0.00034149,0.0018763,0.00086379,0,0,0.062972,-0.023944,0,0.02695,0,0,0,0.0060439,0.00021064,0.0018763,8.6136,0.0027103,0.0052043,4.8182e-09,0.08,0.04,0
0.0063226,0.006177,0.0055968,0.0002266,0.001747,0.00065318,0,0,0.060057,-0.023719,0,0.020379,0,0,0,0.0056752,0.0001483,0.001747,6.8361,0.0025235,0.0049261,4.0301e-09,0.1,0.04,0
0.0074953,0.0070117,0.0053238,0.00015579,0.0016439,0.00050829,0,0,0.057407,-0.023214,0,0.015859,0,0,0,0.0053733,0.00010628,0.0016439,5.5642,0.0023745,0.0046912,3.4458e-09,0.12,0.04,0
0.0086189,0.0077281,0.0050963,0.0001111,0.0015622,0.00040634,0,0,0.055132,-0.022638,0,0.012678,0,0,0,0.0051292,7.8193e-05,0.0015622,4.6294,0.0022565,0.0044966,3.0126e-09,0.14,0.04,0
0.0097006,0.0083381,0.0049073,8.2438e-05,0.0014969,0.00033202,0,0,0.053202,-0.022066,0,0.010359,0,0,0,0.00493,5.9698e-05,0.0014969,3.9181,0.0021622,0.0043343,2.6845e-09,0.16,0.04,0
0.010747,0.0088505,0.0047495,6.4278e-05,0.0014441,0.00027552,0,0,0.051563,-0.021526,0,0.0085962,0,0,0,0.0047656,4.8132e-05,0.0014441,3.3539,0.002086,0.0041974,2.4301e-09,0.18,0.04,0
0.011763,0.0092715,0.004617,5.3427e-05,0.0014011,0.0002302,0,0,0.050167,-0.021024,0,0.0071821,0,0,0,0.0046286,4.1845e-05,0.0014011,2.8804,0.0020239,0.0040806,2.229e-09,0.2,0.04,0
0.012754,0.0096052,0.0045057,4.7956e-05,0.0013661,0.00019131,0,0,0.048978,-0.020563,0,0.0059689,0,0,0,0.0045139,3.976e-05,0.0013661,2.4529,0.0019732,0.0039803,2.068e-09,0.22,0.04,0
0.013722,0.0098542,0.0044128,4.659e-05,0.0013378,0.00015532,0,0,0.04797,-0.020143,0,0.004846,0,0,0,0.0044184,4.1071e-05,0.0013378,2.0347,0.0019324,0.0038943,1.9384e-09,0.24,0.04,0
0.014672,0.01002,0.0043369,4.8361e-05,0.0013156,0.00011955,0,0,0.047133,-0.019769,0,0.0037298,0,0,0,0.0043402,4.5031e-05,0.0013156,1.5955,0.0019003,0.0038218,1.8352e-09,0.26,0.04,0
0.015608,0.010104,0.0042772,5.2386e-05,0.0012989,8.2003e-05,0,0,0.046462,-0.019446,0,0.0025585,0,0,0,0.0042788,5.0795e-05,0.0012989,1.1115,0.0018762,0.0037626,1.7555e-09,0.28,0.04,0
0.016531,0.010107,0.0042339,5.7723e-05,0.0012875,4.1387e-05,0,0,0.045964,-0.019184,0,0.0012913,0,0,0,0.0042343,5.7313e-05,0.0012875,0.56775,0.0018597,0.0037178,1.698e-09,0.3,0.04,0
0.017446,0.01003,0.0042071,6.3306e-05,0.0012811,-2.8618e-06,0,0,0.045645,-0.018998,0,-8.9287e-05,0,0,0,0.0042071,6.3304e-05,0.0012811,-0.039569,0.0018505,0.0036889,1.6627e-09,0.32,0.04,0
0.018357,0.0098747,0.0041974,6.7943e-05,0.0012796,-5.0483e-05,0,0,0.045518,-0.018902,0,-0.0015751,0,0,0,0.004198,6.7326e-05,0.0012796,-0.70031,0.0018483,0.0036776,1.6501e-09,0.34,0.04,0
0.019267,0.0096465,0.0042049,7.036e-05,0.0012826,-0.00010033,0,0,0.045589,-0.018911,0,-0.0031303,0,0,0,0.0042074,6.7927e-05,0.0012826,-1.3892,0.0018526,0.0036854,1.661e-09,0.36,0.04,0
0.02018,0.0093511,0.0042295,6.929e-05,0.0012897,-0.00015035,0,0,0.045862,-0.019038,0,-0.004691,0,0,0,0.004235,6.3863e-05,0.0012897,-2.0671,0.0018628,0.0037132,1.6959e-09,0.38,0.04,0
0.021101,0.0089976,0.0042702,6.3498e-05,0.0013001,-0.00019765,0,0,0.046333,-0.019291,0,-0.0061666,0,0,0,0.0042795,5.4232e-05,0.0013001,-2.6841,0.0018779,0.0037604,1.7547e-09,0.4,0.04,0
0.022034,0.0085986,0.0043251,5.1886e-05,0.0013131,-0.00023851,0,0,0.046987,-0.019675,0,-0.0074416,0,0,0,0.0043383,3.8614e-05,0.0013131,-3.1849,0.0018967,0.0038252,1.8358e-09,0.42,0.04,0
0.022981,0.0081703,0.0043912,3.3732e-05,0.0013275,-0.00026867,0,0,0.047794,-0.020182,0,-0.0083826,0,0,0,0.0044077,1.7229e-05,0.0013275,-3.515,0.0019175,0.0039039,1.9358e-09,0.44,0.04,0
0.023945,0.0077323,0.0044643,9.4565e-06,0.0013421,-0.00028374,0,0,0.048706,-0.02079,0,-0.0088528,0,0,0,0.0044823,-8.5431e-06,0.0013421,-3.6298,0.0019386,0.0039908,2.0485e-09,0.46,0.04,0
0.024929,0.0073069,0.0045392,-1.8506e-05,0.0013562,-0.00028039,0,0,0.049655,-0.021446,0,-0.0087481,0,0,0,0.0045564,-3.5691e-05,0.0013562,-3.5072,0.001959,0.0040783,2.1653e-09,0.48,0.04,0
0.025932,0.0069179,0.0046101,-4.5524e-05,0.0013694,-0.0002577,0,0,0.050555,-0.022072,0,-0.0080403,0,0,0,0.0046243,-5.9746e-05,0.0013694,-3.1587,0.001978,0.0041579,2.2755e-09,0.5,0.04,0
0.026951,0.0065884,0.0046719,-6.6514e-05,0.0013816,-0.00021824,0,0,0.051328,-0.022591,0,-0.0068091,0,0,0,0.0046819,-7.6545e-05,0.0013816,-2.6315,0.0019957,0.0042226,2.37e-09,0.52,0.04,0
0.027985,0.0063381,0.0047212,-7.8843e-05,0.0013927,-0.00016719,0,0,0.051924,-0.022956,0,-0.0052164,0,0,0,0.004727,-8.4659e-05,0.0013927,-1.9925,0.0020117,0.0042692,2.443e-09,0.54,0.04,0
0.029028,0.0061821,0.0047564,-8.3844e-05,0.0014018,-0.00011021,0,0,0.052332,-0.023175,0,-0.0034385,0,0,0,0.0047589,-8.6352e-05,0.0014018,-1.3037,0.0020248,0.0042989,2.4933e-09,0.56,0.04,0
0.030078,0.0061304,0.0047772,-8.539e-05,0.0014076,-5.1021e-05,0,0,0.052567,-0.02329,0,-0.0015918,0,0,0,0.0047777,-8.5925e-05,0.0014076,-0.60109,0.0020331,0.0043153,2.5227e-09,0.58,0.04,0
0.031131,0.0061885,0.0047839,-8.6651e-05,0.0014092,9.1366e-06,0,0,0.052646,-0.023335,0,0.00028506,0,0,0,0.0047839,-8.6668e-05,0.0014092,0.10748,0.0020355,0.0043214,2.5328e-09,0.6,0.04,0
0.032184,0.0063574,0.0047761,-8.7659e-05,0.0014065,7.02e-05,0,0,0.052565,-0.023309,0,0.0021902,0,0,0,0.0047771,-8.8672e-05,0.0014065,0.82674,0.0020316,0.0043169,2.5231e-09,0.62,0.04,0
0.033233,0.0066344,0.0047528,-8.5266e-05,0.0014003,0.00013096,0,0,0.052299,-0.023174,0,0.004086,0,0,0,0.0047563,-8.8809e-05,0.0014003,1.5494,0.0020226,0.0042986,2.4906e-09,0.64,0.04,0
0.034276,0.0070118,0.0047133,-7.5523e-05,0.0013913,0.00018771,0,0,0.051823,-0.022883,0,0.0058564,0,0,0,0.0047207,-8.2869e-05,0.0013913,2.2412,0.0020097,0.0042621,2.4323e-09,0.66,0.04,0
0.035306,0.0074768,0.0046586,-5.6933e-05,0.0013805,0.0002347,0,0,0.051138,-0.022424,0,0.0073227,0,0,0,0.0046702,-6.8586e-05,0.0013805,2.8424,0.001994,0.0042058,2.3483e-09,0.68,0.04,0
0.036321,0.0080117,0.0045912,-3.1962e-05,0.0013678,0.00026657,0,0,0.050285,-0.021836,0,0.0083168,0,0,0,0.0046065,-4.7281e-05,0.0013678,3.2891,0.0019757,0.0041322,2.2432e-09,0.7,0.04,0
0.037318,0.0085956,0.0045156,-5.5868e-06,0.001353,0.00028046,0,0,0.049336,-0.021194,0,0.0087502,0,0,0,0.0045329,-2.2917e-05,0.001353,3.5361,0.0019543,0.0040472,2.1258e-09,0.72,0.04,0
0.038295,0.0092061,0.0044369,1.757e-05,0.0013363,0.00027695,0,0,0.048368,-0.020573,0,0.0086407,0,0,0,0.0044541,2.8174e-07,0.0013363,3.572,0.0019303,0.0039587,2.0059e-09,0.74,0.04,0
0.039253,0.0098222,0.0043599,3.5001e-05,0.0013185,0.00025907,0,0,0.047446,-0.020022,0,0.0080829,0,0,0,0.0043754,1.9537e-05,0.0013185,3.4158,0.0019045,0.0038733,1.8923e-09,0.76,0.04,0
0.040193,0.010425,0.0042886,4.6147e-05,0.0013004,0.00023097,0,0,0.046615,-0.019567,0,0.0072064,0,0,0,0.0043011,3.3609e-05,0.0013004,3.1072,0.0018784,0.0037961,1.791e-09,0.78,0.04,0
0.041117,0.011,0.0042254,5.1547e-05,0.0012831,0.00019683,0,0,0.0459,-0.019212,0,0.0061412,0,0,0,0.0042347,4.2285e-05,0.0012831,2.694,0.0018533,0.0037301,1.7053e-09,0.8,0.04,0
0.042029,0.011535,0.004172,5.2091e-05,0.0012672,0.00016038,0,0,0.045315,-0.018956,0,0.0050037,0,0,0,0.0041782,4.5857e-05,0.0012672,2.2259,0.0018304,0.0036771,1.6362e-09,0.82,0.04,0
0.04293,0.01202,0.0041289,4.8807e-05,0.0012533,0.00012469,0,0,0.044859,-0.01879,0,0.0038902,0,0,0,0.0041327,4.5e-05,0.0012533,1.7488,0.0018103,0.0036373,1.5834e-09,0.84,0.04,0
0.043823,0.012452,0.0040958,4.2785e-05,0.0012416,9.2137e-05,0,0,0.044525,-0.018701,0,0.0028747,0,0,0,0.0040979,4.0692e-05,0.0012416,1.3016,0.0017934,0.0036098,1.5453e-09,0.86,0.04,0
0.044711,0.012825,0.0040716,3.5145e-05,0.001232,6.4322e-05,0,0,0.044298,-0.018672,0,0.0020068,0,0,0,0.0040727,3.412e-05,0.001232,0.9127,0.0017796,0.0035927,1.5196e-09,0.88,0.04,0
0.045595,0.01314,0.0040552,2.6944e-05,0.0012246,4.206e-05,0,0,0.044157,-0.018684,0,0.0013123,0,0,0,0.0040556,2.6505e-05,0.0012246,0.59815,0.0017689,0.0035836,1.5037e-09,0.9,0.04,0
0.046477,0.013395,0.0040447,1.9099e-05,0.0012191,2.546e-05,0,0,0.044079,-0.018721,0,0.00079435,0,0,0,0.0040449,1.8938e-05,0.0012191,0.36235,0.001761,0.00358,1.4947e-09,0.92,0.04,0
0.047358,0.013593,0.0040386,1.2334e-05,0.0012153,1.4037e-05,0,0,0.044043,-0.018766,0,0.00043796,0,0,0,0.0040386,1.2285e-05,0.0012153,0.19975,0.0017554,0.0035798,1.4905e-09,0.94,0.04,0
0.048239,0.013732,0.0040353,7.1688e-06,0.0012128,6.8541e-06,0,0,0.044032,-0.018807,0,0.00021385,0,0,0,0.0040354,7.1571e-06,0.0012128,0.09749,0.0017518,0.003581,1.4889e-09,0.96,0.04,0
0.049119,0.013816,0.0040339,3.9448e-06,0.0012113,2.6575e-06,0,0,0.044031,-0.018836,0,8.2913e-05,0,0,0,0.0040339,3.943e-06,0.0012113,0.037783,0.0017497,0.0035822,1.4885e-09,0.98,0.04,0
0.05,0.013843,0.0040335,2.8502e-06,0.0012109,4.4411e-05,0,0,0.044032,-0.018846,0,0.0013856,0,0,0,0.004034,2.3609e-06,0.0012109,0.63121,0.0017491,0.0035836,1.4893e-09,1,0.04,0
0,0,0.0060421,0.0025895,0.0025895,0.0019252,0,0,0.053861,-4.3368e-19,0,0.060065,0,0,0,0.0069016,0.00173,0.0025895,24.058,0.0037404,0.0047999,5.0714e-09,0,0.06,0
0.0010772,0.0012013,0.0059671,0.0019743,0.0023824,0.0018415,0,0,0.055921,-0.0063665,0,0.057455,0,0,0,0.0066867,0.0012547,0.0023824,21.345,0.0034413,0.0049652,5.21e-09,0.02,0.06,0
0.0022368,0.0024565,0.006009,0.0013159,0.0021975,0.0016876,0,0,0.05946,-0.013752,0,0.052653,0,0,0,0.0065528,0.00077212,0.0021975,17.861,0.0031742,0.0052162,5.4958e-09,0.04,0.06,0
0.0034556,0.0036607,0.0059841,0.00084108,0.0020476,0.0014069,0,0,0.06141,-0.018821,0,0.043895,0,0,0,0.0063438,0.00048138,0.0020476,14.342,0.0029576,0.0052573,5.2907e-09,0.06,0.06,0
0.0046933,0.0047513,0.0058729,0.00056802,0.0019323,0.0011282,0,0,0.061474,-0.021283,0,0.035199,0,0,0,0.0061029,0.00033806,0.0019323,11.521,0.0027911,0.005156,4.8374e-09,0.08,0.06,0
0.0059146,0.0057117,0.0056932,0.00039259,0.0018257,0.00089922,0,0,0.060332,-0.022357,0,0.028056,0,0,0,0.0058416,0.0002442,0.0018257,9.3708,0.0026372,0.004998,4.3142e-09,0.1,0.06,0
0.0071065,0.0065485,0.0055022,0.00027904,0.0017344,0.00072444,0,0,0.058778,-0.022703,0,0.022603,0,0,0,0.0056008,0.00018042,0.0017344,7.7519,0.0025052,0.0048345,3.8464e-09,0.12,0.06,0
0.0082657,0.0072714,0.0053219,0.00020391,0.0016577,0.00059225,0,0,0.057161,-0.02268,0,0.018478,0,0,0,0.0053896,0.00013627,0.0016577,6.5155,0.0023945,0.0046818,3.4552e-09,0.14,0.06,0
0.009393,0.0078899,0.0051599,0.00015402,0.0015942,0.00049126,0,0,0.055625,-0.022466,0,0.015327,0,0,0,0.0052076,0.00010627,0.0015942,5.5523,0.0023027,0.0045439,3.1345e-09,0.16,0.06,0
0.010491,0.0084114,0.005017,0.00012147,0.0015415,0.00041209,0,0,0.054217,-0.022153,0,0.012857,0,0,0,0.0050515,8.7025e-05,0.0015415,4.7781,0.0022267,0.0044205,2.8712e-09,0.18,0.06,0
0.011562,0.0088415,0.0048919,0.00010142,0.001498,0.0003475,0,0,0.052945,-0.021787,0,0.010842,0,0,0,0.004917,7.6346e-05,0.001498,4.1274,0.0021638,0.0043094,2.6531e-09,0.2,0.06,0
0.012608,0.0091839,0.0047827,9.0811e-05,0.0014621,0.00029191,0,0,0.051803,-0.021392,0,0.0091076,0,0,0,0.0048008,7.272e-05,0.0014621,3.5465,0.0021119,0.0042091,2.4705e-09,0.22,0.06,0
0.013634,0.0094414,0.0046878,8.7527e-05,0.0014326,0.00024092,0,0,0.050781,-0.020983,0,0.0075169,0,0,0,0.0047003,7.4943e-05,0.0014326,2.9898,0.0020693,0.004118,2.3165e-09,0.24,0.06,0
0.01464,0.0096152,0.0046057,8.991e-05,0.0014087,0.0001911,0,0,0.049873,-0.020573,0,0.0059623,0,0,0,0.0046137,8.1838e-05,0.0014087,2.4189,0.0020348,0.0040355,2.1863e-09,0.26,0.06,0
0.015629,0.0097064,0.0045356,9.6407e-05,0.0013896,0.00013983,0,0,0.049078,-0.020174,0,0.0043626,0,0,0,0.0045401,9.2007e-05,0.0013896,1.8023,0.0020072,0.0039619,2.0773e-09,0.28,0.06,0
0.016603,0.0097153,0.0044773,0.00010533,0.0013748,8.5354e-05,0,0,0.048399,-0.019804,0,0.002663,0,0,0,0.004479,0.00010367,0.0013748,1.118,0.0019858,0.0038984,1.988e-09,0.3,0.06,0
0.017565,0.0096432,0.0044305,0.00011474,0.0013636,2.6897e-05,0,0,0.047844,-0.019482,0,0.00083918,0,0,0,0.0044306,0.00011458,0.0013636,0.35706,0.0019696,0.0038468,1.9183e-09,0.32,0.06,0
0.018517,0.009492,0.0043951,0.00012245,0.0013553,-3.524e-05,0,0,0.047421,-0.019232,0,-0.0010995,0,0,0,0.0043954,0.00012216,0.0013553,-0.47253,0.0019576,0.0038094,1.8687e-09,0.34,0.06,0
0.019461,0.0092653,0.0043709,0.00012616,0.0013491,-9.9583e-05,0,0,0.04714,-0.019078,0,-0.003107,0,0,0,0.0043733,0.00012382,0.0013491,-1.3432,0.0019487,0.0037885,1.8395e-09,0.36,0.06,0
0.020402,0.008969,0.0043576,0.00012364,0.0013444,-0.00016354,0,0,0.047006,-0.019043,0,-0.0051026,0,0,0,0.0043639,0.00011734,0.0013444,-2.2088,0.0019419,0.0037852,1.8307e-09,0.38,0.06,0
0.021342,0.0086122,0.0043542,0.00011298,0.0013402,-0.00022358,0,0,0.047019,-0.019144,0,-0.0069756,0,0,0,0.004366,0.00010122,0.0013402,-3.0093,0.0019358,0.0037999,1.8412e-09,0.4,0.06,0
0.022283,0.0082071,0.0043597,9.237e-05,0.0013356,-0.00027538,0,0,0.047176,-0.019395,0,-0.0085919,0,0,0,0.0043774,7.4673e-05,0.0013356,-3.6771,0.0019292,0.0038312,1.8687e-09,0.42,0.06,0
0.023229,0.00777,0.0043725,6.0517e-05,0.0013299,-0.00031385,0,0,0.047465,-0.019803,0,-0.0097923,0,0,0,0.0043953,3.7793e-05,0.0013299,-4.1412,0.001921,0.0038764,1.9096e-09,0.44,0.06,0
0.024182,0.0073207,0.0043902,1.7401e-05,0.0013223,-0.00033352,0,0,0.047859,-0.020356,0,-0.010406,0,0,0,0.0044154,-7.8907e-06,0.0013223,-4.3366,0.0019099,0.0039308,1.9579e-09,0.46,0.06,0
0.025143,0.0068828,0.004409,-3.3088e-05,0.0013128,-0.00032949,0,0,0.048301,-0.020995,0,-0.01028,0,0,0,0.0044333,-5.7395e-05,0.0013128,-4.2191,0.0018962,0.0039863,2.0051e-09,0.48,0.06,0
0.026114,0.0064819,0.004425,-8.2007e-05,0.0013029,-0.00030037,0,0,0.048705,-0.021605,0,-0.0093716,0,0,0,0.004445,-0.00010194,0.0013029,-3.7961,0.001882,0.0040324,2.0416e-09,0.5,0.06,0
0.027091,0.006143,0.0044356,-0.00011836,0.0012952,-0.00025019,0,0,0.04899,-0.022051,0,-0.007806,0,0,0,0.0044493,-0.00013206,0.0012952,-3.1353,0.0018708,0.0040604,2.0612e-09,0.52,0.06,0
0.028073,0.0058866,0.0044403,-0.00013655,0.0012911,-0.0001879,0,0,0.049127,-0.022272,0,-0.0058626,0,0,0,0.004448,-0.00014425,0.0012911,-2.347,0.0018649,0.0040691,2.0649e-09,0.54,0.06,0
0.029056,0.0057277,0.0044413,-0.0001406,0.0012902,-0.00012239,0,0,0.049157,-0.022321,0,-0.0038186,0,0,0,0.0044445,-0.00014386,0.0012902,-1.529,0.0018636,0.0040657,2.06e-09,0.56,0.06,0
0.03004,0.0056747,0.0044423,-0.00014,0.0012907,-5.8249e-05,0,0,0.049165,-0.022319,0,-0.0018174,0,0,0,0.0044431,-0.00014074,0.0012907,-0.72817,0.0018643,0.0040619,2.0565e-09,0.58,0.06,0
0.031023,0.0057319,0.0044461,-0.00014231,0.0012911,5.5234e-06,0,0,0.049218,-0.022362,0,0.00017233,0,0,0,0.0044461,-0.00014232,0.0012911,0.068971,0.001865,0.0040659,2.0615e-09,0.6,0.06,0
0.032008,0.0059005,0.0044523,-0.00014762,0.0012914,7.2204e-05,0,0,0.04931,-0.022449,0,0.0022528,0,0,0,0.0044535,-0.00014875,0.0012914,0.89906,0.0018654,0.0040776,2.0745e-09,0.62,0.06,0
0.032995,0.0061788,0.0044576,-0.00014846,0.0012928,0.00014289,0,0,0.049372,-0.022483,0,0.0044581,0,0,0,0.0044621,-0.00015289,0.0012928,1.7751,0.0018673,0.0040885,2.0882e-09,0.64,0.06,0
0.033983,0.0065608,0.0044576,-0.00013518,0.0012967,0.00021307,0,0,0.04931,-0.022338,0,0.0066477,0,0,0,0.0044675,-0.00014505,0.0012967,2.6504,0.0018731,0.0040871,2.0923e-09,0.66,0.06,0
0.034968,0.0070341,0.0044494,-0.00010343,0.0013038,0.00027379,0,0,0.049071,-0.021953,0,0.0085424,0,0,0,0.0044658,-0.00011983,0.0013038,3.4291,0.0018832,0.0040653,2.0784e-09,0.68,0.06,0
0.035946,0.0075803,0.0044325,-5.8419e-05,0.0013122,0.00031585,0,0,0.048677,-0.021382,0,0.0098545,0,0,0,0.0044546,-8.0523e-05,0.0013122,4.0033,0.0018954,0.0040238,2.0449e-09,0.7,0.06,0
0.036915,0.0081764,0.0044091,-1.0972e-05,0.0013194,0.0003348,0,0,0.048199,-0.020754,0,0.010446,0,0,0,0.0044343,-3.6188e-05,0.0013194,4.3071,0.0019059,0.0039702,1.9966e-09,0.72,0.06,0
0.037874,0.0087985,0.0043826,2.9969e-05,0.0013238,0.00033157,0,0,0.047717,-0.020183,0,0.010345,0,0,0,0.0044077,4.8567e-06,0.0013238,4.3313,0.0019121,0.0039138,1.9416e-09,0.74,0.06,0
0.038824,0.0094245,0.0043561,6.0371e-05,0.0013249,0.00031063,0,0,0.047286,-0.019727,0,0.0096915,0,0,0,0.0043784,3.8026e-05,0.0013249,4.1146,0.0019138,0.0038613,1.8875e-09,0.76,0.06,0
0.039765,0.010035,0.0043317,7.9989e-05,0.0013235,0.00027716,0,0,0.046928,-0.019399,0,0.0086474,0,0,0,0.0043497,6.1998e-05,0.0013235,3.714,0.0019118,0.0038167,1.8393e-09,0.78,0.06,0
0.040701,0.010615,0.0043109,8.9782e-05,0.0013202,0.00023613,0,0,0.046655,-0.019194,0,0.0073672,0,0,0,0.0043241,7.6614e-05,0.0013202,3.1918,0.0019069,0.0037822,1.7999e-09,0.8,0.06,0
0.041632,0.011153,0.0042943,9.1137e-05,0.0013156,0.00019191,0,0,0.046467,-0.019102,0,0.0059875,0,0,0,0.004303,8.2393e-05,0.0013156,2.6088,0.0019003,0.0037589,1.7708e-09,0.82,0.06,0
0.042559,0.011641,0.0042822,8.5601e-05,0.0013103,0.00014834,0,0,0.046361,-0.019106,0,0.004628,0,0,0,0.0042874,8.0364e-05,0.0013103,2.0218,0.0018927,0.0037467,1.7525e-09,0.84,0.06,0
0.043486,0.012072,0.0042746,7.505e-05,0.0013049,0.00010849,0,0,0.046328,-0.019186,0,0.0033848,0,0,0,0.0042774,7.225e-05,0.0013049,1.4788,0.0018849,0.0037443,1.7439e-09,0.86,0.06,0
0.044413,0.012445,0.0042711,6.1504e-05,0.0012998,7.4503e-05,0,0,0.046352,-0.019317,0,0.0023245,0,0,0,0.0042724,6.0186e-05,0.0012998,1.0136,0.0018774,0.0037494,1.7432e-09,0.88,0.06,0
0.04534,0.012758,0.0042705,4.6909e-05,0.0012952,4.7502e-05,0,0,0.046414,-0.019474,0,0.0014821,0,0,0,0.0042711,4.6375e-05,0.0012952,0.64428,0.0018709,0.0037592,1.7479e-09,0.9,0.06,0
0.046269,0.013012,0.004272,3.2936e-05,0.0012915,2.7656e-05,0,0,0.046496,-0.019633,0,0.00086288,0,0,0,0.0042722,3.2756e-05,0.0012915,0.37379,0.0018655,0.003771,1.7554e-09,0.92,0.06,0
0.0472,0.013207,0.0042744,2.0892e-05,0.0012886,1.4357e-05,0,0,0.046578,-0.019776,0,0.00044794,0,0,0,0.0042744,2.0843e-05,0.0012886,0.19339,0.0018613,0.0037825,1.7636e-09,0.94,0.06,0
0.048132,0.013345,0.0042768,1.1704e-05,0.0012866,6.4133e-06,0,0,0.046648,-0.019888,0,0.00020009,0,0,0,0.0042768,1.1694e-05,0.0012866,0.086154,0.0018583,0.003792,1.7706e-09,0.96,0.06,0
0.049066,0.013428,0.0042785,5.9721e-06,0.0012853,2.2368e-06,0,0,0.046694,-0.019958,0,6.979e-05,0,0,0,0.0042785,5.9709e-06,0.0012853,0.029996,0.0018566,0.0037981,1.7753e-09,0.98,0.06,0
0.05,0.013455,0.0042792,4.0268e-06,0.001285,4.3893e-05,0,0,0.04671,-0.019983,0,0.0013694,0,0,0,0.0042796,3.5762e-06,0.001285,0.58817,0.001856,0.0038009,1.7778e-09,1,0.06,0
0,0,0.0057553,0.0024666,0.0024666,0.0017602,0,0,0.051304,1.301e-18,0,0.054918,0,0,0,0.0065197,0.0017021,0.0024666,23.474,0.0035628,0.0044845,4.1819e-09,0,0.08,0
0.0010261,0.0010984,0.0057138,0.0020297,0.0023231,0.0017232,0,0,0.052896,-0.0045765,0,0.053764,0,0,0,0.0063942,0.0013493,0.0023231,21.545,0.0033555,0.0046353,4.3641e-09,0.02,0.08,0
0.0021158,0.0022277,0.0057886,0.0015483,0.0022011,0.0016411,0,0,0.055966,-0.010184,0,0.051202,0,0,0,0.0063495,0.00098733,0.0022011,18.871,0.0031793,0.0048701,4.7134e-09,0.04,0.08,0
0.0032647,0.0033293,0.0058228,0.0011176,0.0020821,0.0014693,0,0,0.058355,-0.015046,0,0.045842,0,0,0,0.0062439,0.00069651,0.0020821,15.993,0.0030075,0.0050007,4.799e-09,0.06,0.08,0
0.00445,0.0043558,0.0057972,0.00079739,0.0019784,0.0012585,0,0,0.059574,-0.018423,0,0.039265,0,0,0,0.0060961,0.00049849,0.0019784,13.361,0.0028577,0.0050239,4.6579e-09,0.08,0.08,0
0.0056477,0.0052827,0.005718,0.00057684,0.0018885,0.0010567,0,0,0.059742,-0.020461,0,0.032969,0,0,0,0.0059268,0.00036812,0.0018885,11.173,0.0027278,0.0049758,4.3929e-09,0.1,0.08,0
0.0068397,0.0061036,0.0056048,0.00042364,0.0018085,0.00088365,0,0,0.059222,-0.021604,0,0.02757,0,0,0,0.0057514,0.00027708,0.0018085,9.4173,0.0026123,0.0048918,4.0854e-09,0.12,0.08,0
0.0080165,0.0068209,0.0054796,0.00031749,0.0017391,0.00074223,0,0,0.058351,-0.022177,0,0.023158,0,0,0,0.0055842,0.00021289,0.0017391,8.0218,0.0025121,0.004794,3.7854e-09,0.14,0.08,0
0.0091737,0.0074394,0.0053547,0.00024433,0.0016797,0.00062808,0,0,0.057329,-0.022392,0,0.019596,0,0,0,0.0054307,0.00016827,0.0016797,6.9049,0.0024262,0.004693,3.5115e-09,0.16,0.08,0
0.01031,0.0079644,0.005236,0.00019509,0.0016293,0.00053518,0,0,0.056264,-0.022374,0,0.016698,0,0,0,0.0052922,0.00013889,0.0016293,5.9939,0.0023535,0.0045932,3.2677e-09,0.18,0.08,0
0.011424,0.0084001,0.0051259,0.0001638,0.0015869,0.00045767,0,0,0.055208,-0.0222,0,0.01428,0,0,0,0.0051677,0.00012194,0.0015869,5.2259,0.0022922,0.004496,3.0518e-09,0.2,0.08,0
0.012518,0.0087495,0.0050246,0.00014648,0.0015513,0.00039036,0,0,0.054183,-0.021916,0,0.012179,0,0,0,0.0050557,0.00011544,0.0015513,4.5464,0.0022408,0.0044016,2.86e-09,0.22,0.08,0
0.013592,0.0090149,0.0049318,0.00014022,0.0015216,0.00032879,0,0,0.053199,-0.021549,0,0.010258,0,0,0,0.0049542,0.00011777,0.0015216,3.9071,0.0021979,0.0043096,2.6884e-09,0.24,0.08,0
0.014646,0.0091972,0.0048467,0.00014269,0.0014968,0.00026927,0,0,0.052258,-0.021124,0,0.0084012,0,0,0,0.0048621,0.00012732,0.0014968,3.2655,0.0021621,0.0042201,2.5341e-09,0.26,0.08,0
0.015682,0.009297,0.0047687,0.00015159,0.0014761,0.00020885,0,0,0.051365,-0.020662,0,0.006516,0,0,0,0.0047782,0.00014216,0.0014761,2.5846,0.0021321,0.0041337,2.3951e-09,0.28,0.08,0
0.016701,0.0093145,0.0046974,0.00016437,0.0014585,0.00014545,0,0,0.050526,-0.020189,0,0.0045381,0,0,0,0.0047021,0.00015971,0.0014585,1.8359,0.0021068,0.0040522,2.2712e-09,0.3,0.08,0
0.017703,0.0092502,0.0046325,0.00017802,0.0014432,7.8078e-05,0,0,0.049754,-0.019736,0,0.002436,0,0,0,0.0046339,0.00017665,0.0014432,1.0039,0.0020846,0.0039782,2.1631e-09,0.32,0.08,0
0.018691,0.0091055,0.0045738,0.00018903,0.0014289,7.0288e-06,0,0,0.049062,-0.019341,0,0.0002193,0,0,0,0.0045738,0.00018902,0.0014289,0.091844,0.0020639,0.003915,2.0721e-09,0.34,0.08,0
0.019665,0.0088834,0.004521,0.00019372,0.0014144,-6.5951e-05,0,0,0.048463,-0.019043,0,-0.0020577,0,0,0,0.004522,0.00019271,0.0014144,-0.87295,0.0020431,0.0038661,1.9993e-09,0.36,0.08,0
0.020629,0.0085894,0.0044735,0.00018871,0.0013986,-0.00013777,0,0,0.047967,-0.018875,0,-0.0042983,0,0,0,0.0044779,0.00018428,0.0013986,-1.8397,0.0020203,0.0038335,1.9448e-09,0.38,0.08,0
0.021584,0.0082319,0.00443,0.00017132,0.0013804,-0.00020444,0,0,0.047574,-0.018862,0,-0.0063786,0,0,0,0.0044398,0.00016153,0.0013804,-2.7421,0.0019939,0.0038177,1.9065e-09,0.4,0.08,0
0.022532,0.0078229,0.0043901,0.00013994,0.001359,-0.00026154,0,0,0.047285,-0.019018,0,-0.0081599,0,0,0,0.0044062,0.00012391,0.001359,-3.5081,0.001963,0.0038176,1.8817e-09,0.42,0.08,0
0.023476,0.0073782,0.004353,9.2376e-05,0.0013336,-0.00030441,0,0,0.047103,-0.019363,0,-0.0094975,0,0,0,0.0043747,7.0737e-05,0.0013336,-4.066,0.0019263,0.0038319,1.8671e-09,0.44,0.08,0
0.024416,0.006918,0.0043181,2.7613e-05,0.0013037,-0.00032683,0,0,0.047025,-0.019907,0,-0.010197,0,0,0,0.0043429,2.8591e-06,0.0013037,-4.3312,0.0018832,0.0038578,1.8581e-09,0.46,0.08,0
0.025357,0.0064671,0.0042826,-5.1248e-05,0.0012694,-0.00032252,0,0,0.047006,-0.020602,0,-0.010063,0,0,0,0.0043065,-7.5118e-05,0.0012694,-4.2328,0.0018336,0.0038878,1.8464e-09,0.48,0.08,0
0.026297,0.0060537,0.0042436,-0.00012878,0.0012345,-0.00028769,0,0,0.046943,-0.021266,0,-0.0089761,0,0,0,0.0042625,-0.00014763,0.0012345,-3.7484,0.0017831,0.0039069,1.821e-09,0.5,0.08,0
0.027234,0.0057063,0.0042006,-0.00018227,0.0012055,-0.00022934,0,0,0.046723,-0.021649,0,-0.0071553,0,0,0,0.0042125,-0.00019423,0.0012055,-2.9872,0.0017413,0.0039001,1.7769e-09,0.52,0.08,0
0.028165,0.0054472,0.0041566,-0.00020056,0.0011868,-0.00016231,0,0,0.046329,-0.021643,0,-0.0050639,0,0,0,0.0041627,-0.0002066,0.0011868,-2.1303,0.0017143,0.0038657,1.72e-09,0.54,0.08,0
0.029087,0.0052893,0.0041192,-0.00019416,0.0011775,-0.00010181,0,0,0.045891,-0.021398,0,-0.0031764,0,0,0,0.0041216,-0.00019656,0.0011775,-1.3513,0.0017009,0.0038212,1.6667e-09,0.56,0.08,0
0.030001,0.0052377,0.0040977,-0.00018513,0.0011738,-5.1927e-05,0,0,0.045613,-0.021199,0,-0.0016201,0,0,0,0.0040983,-0.00018576,0.0011738,-0.69455,0.0016954,0.0037917,1.635e-09,0.58,0.08,0
0.030912,0.005294,0.0040991,-0.00018872,0.0011731,-6.2783e-06,0,0,0.045646,-0.021245,0,-0.00019588,0,0,0,0.0040991,-0.00018873,0.0011731,-0.083892,0.0016945,0.0037949,1.6371e-09,0.6,0.08,0
0.031827,0.0054595,0.0041234,-0.00020518,0.0011755,4.6568e-05,0,0,0.045988,-0.021538,0,0.0014529,0,0,0,0.004124,-0.00020568,0.0011755,0.6163,0.0016979,0.0038306,1.6729e-09,0.62,0.08,0
0.032752,0.0057351,0.0041629,-0.0002195,0.001183,0.00011324,0,0,0.046486,-0.021879,0,0.0035331,0,0,0,0.0041658,-0.00022242,0.001183,1.4792,0.0017088,0.0038813,1.7299e-09,0.64,0.08,0
0.033686,0.0061183,0.0042077,-0.00020934,0.0011995,0.00018993,0,0,0.046928,-0.021978,0,0.005926,0,0,0,0.0042158,-0.00021749,0.0011995,2.4577,0.0017326,0.0039218,1.79e-09,0.66,0.08,0
0.034629,0.0065987,0.0042496,-0.0001635,0.0012258,0.00026147,0,0,0.04717,-0.021673,0,0.0081577,0,0,0,0.004265,-0.00017894,0.0012258,3.3789,0.0017706,0.0039344,1.8369e-09,0.68,0.08,0
0.035573,0.0071565,0.0042846,-9.243e-05,0.0012576,0.00031261,0,0,0.04722,-0.021061,0,0.0097536,0,0,0,0.0043068,-0.00011464,0.0012576,4.0647,0.0018166,0.0039198,1.8638e-09,0.7,0.08,0
0.036517,0.0077654,0.0043127,-1.8574e-05,0.0012882,0.00033581,0,0,0.047182,-0.020386,0,0.010477,0,0,0,0.0043386,-4.4456e-05,0.0012882,4.4071,0.0018608,0.0038918,1.8742e-09,0.72,0.08,0
0.037461,0.0083988,0.0043363,4.2574e-05,0.0013137,0.00033422,0,0,0.047154,-0.019829,0,0.010428,0,0,0,0.0043622,1.6714e-05,0.0013137,4.4243,0.0018975,0.0038638,1.8766e-09,0.74,0.08,0
0.038404,0.0090332,0.0043578,8.7671e-05,0.0013336,0.00031362,0,0,0.047177,-0.019437,0,0.0097849,0,0,0,0.0043807,6.476e-05,0.0013336,4.1782,0.0019264,0.003842,1.8778e-09,0.76,0.08,0
0.039348,0.0096494,0.0043775,0.00011731,0.0013484,0.00027986,0,0,0.047253,-0.019206,0,0.0087315,0,0,0,0.0043958,9.9005e-05,0.0013484,3.7424,0.0019477,0.0038282,1.8806e-09,0.78,0.08,0
0.040294,0.010232,0.0043959,0.00013312,0.0013587,0.00023741,0,0,0.04738,-0.019119,0,0.0074072,0,0,0,0.0044091,0.00011993,0.0013587,3.1779,0.0019626,0.0038234,1.8875e-09,0.8,0.08,0
0.041243,0.010771,0.0044135,0.00013603,0.0013648,0.00019085,0,0,0.047558,-0.019169,0,0.0059544,0,0,0,0.004422,0.00012753,0.0013648,2.5496,0.0019714,0.0038288,1.9004e-09,0.82,0.08,0
0.042196,0.011256,0.0044308,0.00012809,0.0013677,0.00014455,0,0,0.047785,-0.019337,0,0.0045099,0,0,0,0.0044357,0.00012324,0.0013677,1.9219,0.0019755,0.0038443,1.9205e-09,0.84,0.08,0
0.043154,0.011684,0.0044482,0.00011212,0.0013681,0.00010228,0,0,0.048049,-0.019593,0,0.0031911,0,0,0,0.0044506,0.00010971,0.0013681,1.3505,0.0019761,0.0038684,1.9471e-09,0.86,0.08,0
0.044118,0.012053,0.0044652,9.1377e-05,0.001367,6.6663e-05,0,0,0.048333,-0.0199,0,0.0020799,0,0,0,0.0044663,9.0361e-05,0.001367,0.87299,0.0019745,0.0038977,1.9777e-09,0.88,0.08,0
0.045088,0.012361,0.0044814,6.898e-05,0.0013651,3.9039e-05,0,0,0.048613,-0.02022,0,0.001218,0,0,0,0.0044817,6.8635e-05,0.0013651,0.50688,0.0019718,0.0039287,2.0094e-09,0.9,0.08,0
0.046062,0.01261,0.0044957,4.7573e-05,0.001363,1.9575e-05,0,0,0.048871,-0.020521,0,0.00061074,0,0,0,0.0044958,4.7487e-05,0.001363,0.25213,0.0019688,0.0039581,2.0393e-09,0.92,0.08,0
0.047042,0.012802,0.0045076,2.9162e-05,0.001361,7.522e-06,0,0,0.049087,-0.020777,0,0.00023469,0,0,0,0.0045077,2.915e-05,0.001361,0.096233,0.001966,0.0039832,2.0647e-09,0.94,0.08,0
0.048026,0.012937,0.0045165,1.5148e-05,0.0013595,1.488e-06,0,0,0.04925,-0.020972,0,4.6425e-05,0,0,0,0.0045165,1.5148e-05,0.0013595,0.01894,0.0019637,0.0040023,2.084e-09,0.96,0.08,0
0.049012,0.013017,0.004522,6.4189e-06,0.0013585,-3.3594e-07,0,0,0.04935,-0.021093,0,-1.0481e-05,0,0,0,0.004522,6.4189e-06,0.0013585,-0.0042625,0.0019623,0.0040141,2.096e-09,0.98,0.08,0
0.05,0.013044,0.0045239,3.4585e-06,0.0013582,4.2861e-05,0,0,0.049384,-0.021134,0,0.0013373,0,0,0,0.0045243,3.0521e-06,0.0013582,0.54319,0.0019618,0.0040188,2.1008e-09,1,0.08,0
0,0,0.0056096,0.0024041,0.0024041,0.0016318,0,0,0.050006,-1.5179e-18,0,0.050912,0,0,0,0.0062941,0.0017196,0.0024041,22.757,0.0034726,0.0042736,3.6644e-09,0,0.1,0
0.0010001,0.0010182,0.0055815,0.0020514,0.0022899,0.0016119,0,0,0.051349,-0.0037197,0,0.050292,0,0,0,0.0062068,0.0014261,0.0022899,21.202,0.0033076,0.0044126,3.8491e-09,0.02,0.1,0
0.002054,0.0020492,0.0056655,0.0016754,0.0022023,0.0015623,0,0,0.054027,-0.0082197,0,0.048744,0,0,0,0.0062044,0.0011364,0.0022023,19.032,0.003181,0.0046281,4.1952e-09,0.04,0.1,0
0.0031612,0.0030589,0.0057254,0.0013051,0.0021091,0.0014508,0,0,0.056414,-0.012544,0,0.045266,0,0,0,0.006159,0.0008714,0.0021091,16.641,0.0030465,0.0047902,4.4002e-09,0.06,0.1,0
0.0043105,0.0040144,0.0057466,0.00099232,0.0020217,0.0012999,0,0,0.058109,-0.016058,0,0.040557,0,0,0,0.0060788,0.00066012,0.0020217,14.336,0.0029202,0.0048824,4.4473e-09,0.08,0.1,0
0.0054855,0.0048932,0.0057259,0.00075001,0.0019428,0.0011378,0,0,0.059017,-0.018607,0,0.035498,0,0,0,0.0059737,0.0005022,0.0019428,12.288,0.0028062,0.0049123,4.3692e-09,0.1,0.1,0
0.0066712,0.0056843,0.0056716,0.00056995,0.0018725,0.00098489,0,0,0.059266,-0.020319,0,0.030728,0,0,0,0.0058551,0.00038641,0.0018725,10.556,0.0027047,0.0048978,4.2143e-09,0.12,0.1,0
0.0078562,0.0063844,0.0055956,0.00043836,0.0018102,0.00085025,0,0,0.059053,-0.0214,0,0.026528,0,0,0,0.0057322,0.0003018,0.0018102,9.1245,0.0026147,0.0048552,4.0222e-09,0.14,0.1,0
0.0090333,0.0069943,0.0055087,0.00034399,0.0017558,0.00073544,0,0,0.058545,-0.022024,0,0.022946,0,0,0,0.0056114,0.00024131,0.0017558,7.9483,0.0025362,0.0047957,3.8185e-09,0.16,0.1,0
0.010198,0.0075165,0.005418,0.00027832,0.0017089,0.00063828,0,0,0.057862,-0.022317,0,0.019914,0,0,0,0.005496,0.00020024,0.0017089,6.9743,0.0024684,0.0047257,3.6163e-09,0.18,0.1,0
0.011348,0.0079535,0.0053272,0.00023524,0.0016687,0.00055517,0,0,0.057072,-0.022363,0,0.017321,0,0,0,0.005387,0.00017542,0.0016687,6.1506,0.0024104,0.0046485,3.4211e-09,0.2,0.1,0
0.012481,0.0083073,0.0052383,0.00021035,0.0016346,0.00048211,0,0,0.056218,-0.022218,0,0.015042,0,0,0,0.0052841,0.00016454,0.0016346,5.428,0.0023611,0.0045656,3.2342e-09,0.22,0.1,0
0.013596,0.0085794,0.0051518,0.00020029,0.0016056,0.00041525,0,0,0.05532,-0.021923,0,0.012956,0,0,0,0.0051863,0.0001657,0.0016056,4.7607,0.0023192,0.0044778,3.055e-09,0.24,0.1,0
0.014694,0.0087703,0.0050674,0.00020219,0.0015809,0.00035105,0,0,0.05439,-0.021508,0,0.010953,0,0,0,0.0050926,0.00017699,0.0015809,4.1058,0.0022835,0.0043856,2.8828e-09,0.26,0.1,0
0.015772,0.0088799,0.004985,0.00021314,0.0015594,0.00028647,0,0,0.053438,-0.021002,0,0.008938,0,0,0,0.0050021,0.00019601,0.0015594,3.4233,0.0022525,0.0042901,2.7173e-09,0.28,0.1,0
0.016831,0.0089078,0.0049041,0.00022977,0.0015402,0.0002192,0,0,0.052477,-0.020442,0,0.0068392,0,0,0,0.0049143,0.00021951,0.0015402,2.6791,0.0022247,0.0041935,2.5597e-09,0.3,0.1,0
0.017871,0.0088538,0.0048246,0.00024786,0.0015218,0.00014798,0,0,0.051525,-0.019873,0,0.0046171,0,0,0,0.0048294,0.00024308,0.0015218,1.85,0.0021981,0.0040994,2.4124e-09,0.32,0.1,0
0.018892,0.0087183,0.0047466,0.0002623,0.0015027,7.3029e-05,0,0,0.050605,-0.01935,0,0.0022785,0,0,0,0.0047478,0.00026111,0.0015027,0.93276,0.0021705,0.0040126,2.2788e-09,0.34,0.1,0
0.019895,0.0085036,0.0046697,0.00026755,0.0014812,-3.5712e-06,0,0,0.049741,-0.018933,0,-0.00011142,0,0,0,0.0046697,0.00026755,0.0014812,-0.04648,0.0021395,0.0039382,2.1619e-09,0.36,0.1,0
0.020882,0.008214,0.0045928,0.0002585,0.0014554,-7.7964e-05,0,0,0.048944,-0.018672,0,-0.0024325,0,0,0,0.0045942,0.00025709,0.0014554,-1.0302,0.0021022,0.0038794,2.0622e-09,0.38,0.1,0
0.021853,0.0078578,0.0045143,0.00023202,0.0014239,-0.00014512,0,0,0.04821,-0.018593,0,-0.0045278,0,0,0,0.0045192,0.0002271,0.0014239,-1.9388,0.0020567,0.0038363,1.9769e-09,0.4,0.1,0
0.02281,0.0074465,0.0044312,0.00018661,0.0013854,-0.00020064,0,0,0.047516,-0.0187,0,-0.00626,0,0,0,0.0044407,0.00017714,0.0013854,-2.7003,0.0020011,0.0038061,1.8996e-09,0.42,0.1,0
0.023754,0.0069954,0.004345,0.00012404,0.0013407,-0.00024079,0,0,0.046866,-0.01898,0,-0.0075126,0,0,0,0.0043586,0.00011035,0.0013407,-3.2544,0.0019366,0.0037861,1.8275e-09,0.44,0.1,0
0.024685,0.0065244,0.0042544,3.7899e-05,0.0012877,-0.00026278,0,0,0.04628,-0.019496,0,-0.0081987,0,0,0,0.0042707,2.1585e-05,0.0012877,-3.5525,0.00186,0.0037786,1.7586e-09,0.46,0.1,0
0.025605,0.0060587,0.0041596,-7.206e-05,0.0012263,-0.00025597,0,0,0.045761,-0.020254,0,-0.0079863,0,0,0,0.0041751,-8.7487e-05,0.0012263,-3.449,0.0017713,0.0037809,1.6885e-09,0.48,0.1,0
0.026515,0.0056313,0.004056,-0.00018751,0.0011605,-0.00021507,0,0,0.045169,-0.02103,0,-0.0067102,0,0,0,0.0040668,-0.00019839,0.0011605,-2.894,0.0016763,0.0037739,1.6027e-09,0.5,0.1,0
0.027412,0.005277,0.0039472,-0.00025816,0.0011067,-0.00014577,0,0,0.044312,-0.021292,0,-0.0045479,0,0,0,0.0039523,-0.00026321,0.0011067,-1.9828,0.0015986,0.0037245,1.4945e-09,0.52,0.1,0
0.028288,0.0050209,0.0038432,-0.00025904,0.0010753,-8.0085e-05,0,0,0.04318,-0.020815,0,-0.0024987,0,0,0,0.0038448,-0.0002606,0.0010753,-1.118,0.0015531,0.0036269,1.3772e-09,0.54,0.1,0
0.029139,0.0048718,0.0037554,-0.00022358,0.0010595,-4.0311e-05,0,0,0.042055,-0.020017,0,-0.0012577,0,0,0,0.0037558,-0.00022399,0.0010595,-0.58038,0.0015305,0.0035182,1.2748e-09,0.56,0.1,0
0.02997,0.0048267,0.0037046,-0.00019445,0.001053,-2.9751e-05,0,0,0.041364,-0.019461,0,-0.00092823,0,0,0,0.0037048,-0.00019467,0.001053,-0.43716,0.001521,0.0034492,1.2158e-09,0.58,0.1,0
0.030793,0.0048821,0.0037042,-0.00019939,0.0010514,-2.9593e-05,0,0,0.041383,-0.019513,0,-0.00092331,0,0,0,0.0037044,-0.00019961,0.0010514,-0.43434,0.0015187,0.0034529,1.2169e-09,0.6,0.1,0
0.031625,0.005039,0.0037542,-0.00023893,0.0010546,-1.597e-05,0,0,0.042114,-0.020179,0,-0.00049826,0,0,0,0.0037542,-0.000239,0.0010546,-0.22914,0.0015233,0.003529,1.2777e-09,0.62,0.1,0
0.032478,0.0053037,0.0038409,-0.00028598,0.0010665,3.0478e-05,0,0,0.043281,-0.021098,0,0.00095091,0,0,0,0.0038411,-0.0002862,0.0010665,0.42311,0.0015405,0.0036444,1.3811e-09,0.64,0.1,0
0.033356,0.0056817,0.0039429,-0.00029749,0.0010936,0.00010713,0,0,0.044449,-0.021702,0,0.0033425,0,0,0,0.0039456,-0.0003002,0.0010936,1.4463,0.0015797,0.0037486,1.499e-09,0.66,0.1,0
0.034256,0.0061672,0.0040481,-0.00023857,0.0011429,0.00019194,0,0,0.045322,-0.02155,0,0.0059884,0,0,0,0.0040567,-0.00024714,0.0011429,2.5586,0.0016508,0.0038043,1.6082e-09,0.68,0.1,0
0.035169,0.0067379,0.0041458,-0.00013273,0.0012039,0.0002523,0,0,0.045893,-0.020852,0,0.0078719,0,0,0,0.0041606,-0.00014755,0.0012039,3.3632,0.001739,0.0038163,1.6949e-09,0.7,0.1,0
0.036092,0.007361,0.0042313,-3.0141e-05,0.0012604,0.00028163,0,0,0.046347,-0.020132,0,0.0087869,0,0,0,0.0042499,-4.8673e-05,0.0012604,3.7647,0.0018205,0.0038163,1.7637e-09,0.72,0.1,0
0.037023,0.0080054,0.0043091,5.0606e-05,0.0013079,0.00028447,0,0,0.046819,-0.019614,0,0.0088754,0,0,0,0.004328,3.1688e-05,0.0013079,3.8048,0.0018892,0.0038216,1.8259e-09,0.74,0.1,0
0.037964,0.008647,0.0043787,0.00010945,0.0013465,0.00027083,0,0,0.047304,-0.019297,0,0.0084498,0,0,0,0.0043959,9.2334e-05,0.0013465,3.6153,0.0019449,0.0038335,1.884e-09,0.76,0.1,0
0.038915,0.009267,0.0044411,0.00015222,0.001378,0.00024304,0,0,0.047785,-0.019122,0,0.0075828,0,0,0,0.0044549,0.00013849,0.001378,3.233,0.0019904,0.0038493,1.9381e-09,0.78,0.1,0
0.039876,0.0098506,0.004495,0.00017629,0.0014014,0.00020461,0,0,0.04826,-0.019111,0,0.0063837,0,0,0,0.0045046,0.00016662,0.0014014,2.7064,0.0020242,0.0038713,1.9898e-09,0.8,0.1,0
0.040846,0.010387,0.0045429,0.0001821,0.0014175,0.0001601,0,0,0.048756,-0.019272,0,0.0049951,0,0,0,0.0045488,0.00017623,0.0014175,2.0997,0.0020475,0.0039029,2.0446e-09,0.82,0.1,0
0.041826,0.010867,0.0045866,0.00017178,0.0014275,0.00011509,0,0,0.049281,-0.019589,0,0.0035909,0,0,0,0.0045896,0.00016878,0.0014275,1.4923,0.0020619,0.003945,2.105e-09,0.84,0.1,0
0.042817,0.011288,0.0046267,0.00014964,0.0014329,7.4321e-05,0,0,0.049823,-0.020019,0,0.0023188,0,0,0,0.0046279,0.00014841,0.0014329,0.95078,0.0020697,0.0039953,2.1704e-09,0.86,0.1,0
0.043819,0.011649,0.004663,0.00012064,0.0014351,4.0958e-05,0,0,0.050356,-0.020506,0,0.0012779,0,0,0,0.0046634,0.00012027,0.0014351,0.51657,0.0020729,0.0040491,2.237e-09,0.88,0.1,0
0.044831,0.011949,0.0046949,8.9428e-05,0.0014353,1.6445e-05,0,0,0.05085,-0.020996,0,0.0005131,0,0,0,0.004695,8.9369e-05,0.0014353,0.20459,0.0020732,0.0041018,2.3005e-09,0.9,0.1,0
0.045853,0.012191,0.0047217,5.9754e-05,0.0014344,8.159e-07,0,0,0.051281,-0.021445,0,2.5456e-05,0,0,0,0.0047217,5.9754e-05,0.0014344,0.010027,0.002072,0.0041491,2.3569e-09,0.92,0.1,0
0.046883,0.012376,0.0047428,3.4366e-05,0.0014332,-6.8911e-06,0,0,0.051631,-0.021821,0,-0.000215,0,0,0,0.0047429,3.4356e-05,0.0014332,-0.083855,0.0020701,0.0041881,2.403e-09,0.94,0.1,0
0.047918,0.012506,0.0047581,1.5117e-05,0.0014319,-8.2615e-06,0,0,0.051887,-0.022103,0,-0.00025776,0,0,0,0.0047581,1.5102e-05,0.0014319,-0.0998,0.0020684,0.004217,2.437e-09,0.96,0.1,0
0.048958,0.012584,0.0047672,3.1582e-06,0.0014311,-5.248e-06,0,0,0.052043,-0.022276,0,-0.00016374,0,0,0,0.0047672,3.1524e-06,0.0014311,-0.063116,0.0020672,0.0042347,2.4578e-09,0.98,0.1,0
0.05,0.01261,0.0047703,-8.9245e-07,0.0014308,4.1264e-05,0,0,0.052096,-0.022335,0,0.0012875,0,0,0,0.0047706,-1.2493e-06,0.0014308,0.49548,0.0020667,0.0042412,2.4655e-09,1,0.1,0
0,0,0.0055451,0.0023765,0.0023765,0.0015218,0,0,0.04943,0,0,0.047479,0,0,0,0.0061575,0.001764,0.0023765,21.923,0.0034327,0.0041216,3.3298e-09,0,0.12,0
0.00098861,0.00094958,0.0055212,0.0020656,0.002276,0.00151,0,0,0.050625,-0.0032831,0,0.047113,0,0,0,0.0060881,0.0014987,0.002276,20.576,0.0032876,0.0042543,3.5137e-09,0.02,0.12,0
0.002025,0.0018989,0.0056079,0.001752,0.002208,0.0014743,0,0,0.053038,-0.0071126,0,0.046,0,0,0,0.006107,0.0012529,0.002208,18.703,0.0031893,0.004454,3.8442e-09,0.04,0.12,0
0.0031101,0.0028276,0.0056798,0.0014317,0.0021334,0.0013982,0,0,0.055323,-0.010948,0,0.043624,0,0,0,0.0060987,0.0010127,0.0021334,16.678,0.0030816,0.0046285,4.1037e-09,0.06,0.12,0
0.0042379,0.0037135,0.0057259,0.0011407,0.00206,0.0012896,0,0,0.057188,-0.014341,0,0.040235,0,0,0,0.0060637,0.00080292,0.00206,14.679,0.0029755,0.0047585,4.2592e-09,0.08,0.12,0
0.0053977,0.0045384,0.0057412,0.00089726,0.0019915,0.0011644,0,0,0.058495,-0.017071,0,0.036329,0,0,0,0.0060066,0.00063189,0.0019915,12.838,0.0028767,0.0048403,4.3119e-09,0.1,0.12,0
0.0065777,0.0052908,0.0057274,0.00070373,0.0019294,0.0010375,0,0,0.05925,-0.01912,0,0.032369,0,0,0,0.0059333,0.00049791,0.0019294,11.221,0.0027868,0.0048797,4.2819e-09,0.12,0.12,0
0.0077677,0.0059648,0.0056906,0.00055503,0.0018737,0.00091849,0,0,0.059544,-0.020571,0,0.028657,0,0,0,0.0058499,0.0003957,0.0018737,9.841,0.0027064,0.0048859,4.1941e-09,0.14,0.12,0
0.0089595,0.0065585,0.0056377,0.00044398,0.0018245,0.00081185,0,0,0.059486,-0.021536,0,0.02533,0,0,0,0.0057617,0.00032003,0.0018245,8.6803,0.0026354,0.004867,4.0697e-09,0.16,0.12,0
0.010147,0.0070717,0.0055746,0.00036404,0.0017816,0.00071823,0,0,0.059171,-0.022114,0,0.022409,0,0,0,0.0056718,0.00026685,0.0017816,7.7064,0.0025734,0.0048291,3.9235e-09,0.18,0.12,0
0.011326,0.0075056,0.0055051,0.00030987,0.0017445,0.00063619,0,0,0.058666,-0.02238,0,0.019849,0,0,0,0.0055819,0.0002331,0.0017445,6.8808,0.0025198,0.004776,3.7643e-09,0.2,0.12,0
0.012494,0.0078608,0.0054317,0.00027729,0.0017127,0.00056323,0,0,0.058016,-0.022392,0,0.017573,0,0,0,0.0054925,0.00021646,0.0017127,6.1639,0.0024739,0.0047097,3.5964e-09,0.22,0.12,0
0.013647,0.008138,0.0053551,0.00026289,0.0016854,0.00049638,0,0,0.057247,-0.022191,0,0.015487,0,0,0,0.005403,0.00021495,0.0016854,5.5159,0.0024345,0.0046314,3.422e-09,0.24,0.12,0
0.014784,0.0083369,0.0052756,0.00026359,0.0016618,0.00043258,0,0,0.056376,-0.021811,0,0.013496,0,0,0,0.0053127,0.00022653,0.0016618,4.8969,0.0024003,0.0045419,3.2419e-09,0.26,0.12,0
0.015902,0.0084569,0.0051929,0.00027613,0.0016407,0.00036888,0,0,0.055414,-0.021288,0,0.011509,0,0,0,0.0052204,0.00024861,0.0016407,4.2667,0.0023699,0.0044425,3.0573e-09,0.28,0.12,0
0.017,0.0084968,0.0051069,0.0002965,0.001621,0.00030274,0,0,0.05438,-0.020663,0,0.0094454,0,0,0,0.0051259,0.00027752,0.001621,3.587,0.0023415,0.0043356,2.8707e-09,0.3,0.12,0
0.018077,0.0084553,0.0050176,0.00031935,0.0016011,0.00023249,0,0,0.053297,-0.019995,0,0.0072538,0,0,0,0.0050291,0.00030787,0.0016011,2.8261,0.0023127,0.0042257,2.6869e-09,0.32,0.12,0
0.019132,0.0083315,0.0049254,0.00033774,0.0015789,0.00015809,0,0,0.052205,-0.019363,0,0.0049324,0,0,0,0.0049308,0.00033229,0.0015789,1.9713,0.0022807,0.0041192,2.5124e-09,0.34,0.12,0
0.020165,0.0081261,0.0048304,0.00034338,0.0015521,8.1876e-05,0,0,0.051141,-0.018857,0,0.0025545,0,0,0,0.0048319,0.00034188,0.0015521,1.045,0.002242,0.0040238,2.3538e-09,0.36,0.12,0
0.021178,0.0078425,0.0047317,0.00032867,0.0015181,9.1762e-06,0,0,0.050133,-0.018556,0,0.0002863,0,0,0,0.0047318,0.00032865,0.0015181,0.11941,0.0021929,0.0039452,2.2142e-09,0.38,0.12,0
0.022171,0.0074881,0.0046253,0.00028828,0.0014741,-5.2936e-05,0,0,0.04916,-0.018499,0,-0.0016516,0,0,0,0.004626,0.00028763,0.0014741,-0.69918,0.0021292,0.0038835,2.0887e-09,0.4,0.12,0
0.023144,0.0070748,0.0045065,0.00022415,0.0014192,-9.7139e-05,0,0,0.048162,-0.018643,0,-0.0030307,0,0,0,0.0045087,0.00022195,0.0014192,-1.2988,0.00205,0.0038312,1.9657e-09,0.42,0.12,0
0.024097,0.006619,0.004365,0.00013725,0.0013507,-0.00012251,0,0,0.047024,-0.01893,0,-0.0038223,0,0,0,0.0043686,0.0001337,0.0013507,-1.6584,0.001951,0.0037764,1.8287e-09,0.44,0.12,0
0.025025,0.0061382,0.0042155,4.4145e-05,0.0012779,-0.00012835,0,0,0.045826,-0.019246,0,-0.0040047,0,0,0,0.0042194,4.0199e-05,0.0012779,-1.7608,0.0018458,0.0037182,1.6878e-09,0.46,0.12,0
0.02593,0.0056569,0.0040444,-9.7011e-05,0.0011842,-0.00011946,0,0,0.044619,-0.019987,0,-0.0037271,0,0,0,0.0040479,-0.00010045,0.0011842,-1.6508,0.0017105,0.0036783,1.5447e-09,0.48,0.12,0
0.02681,0.0052125,0.003852,-0.00026684,0.0010756,-6.0473e-05,0,0,0.043313,-0.020941,0,-0.0018867,0,0,0,0.0038529,-0.00026773,0.0010756,-0.84096,0.0015536,0.0036399,1.388e-09,0.5,0.12,0
0.027663,0.0048547,0.0036534,-0.00034772,0.00099172,2.0276e-05,0,0,0.041523,-0.020895,0,0.0006326,0,0,0,0.0036536,-0.00034782,0.00099172,0.29034,0.0014325,0.0035278,1.2084e-09,0.52,0.12,0
0.028471,0.0046146,0.0034644,-0.0002958,0.00095057,8.1847e-05,0,0,0.039215,-0.019443,0,0.0025536,0,0,0,0.0034661,-0.00029758,0.00095057,1.2464,0.001373,0.0033205,1.0243e-09,0.54,0.12,0
0.029231,0.0044886,0.0033122,-0.00019287,0.00093581,7.1057e-05,0,0,0.037072,-0.017607,0,0.002217,0,0,0,0.0033137,-0.00019431,0.00093581,1.1609,0.0013517,0.0031014,8.7472e-10,0.56,0.12,0
0.029954,0.0044593,0.0032166,-0.00014123,0.00092262,1.0249e-05,0,0,0.035786,-0.016596,0,0.00031976,0,0,0,0.0032167,-0.00014126,0.00092262,0.17488,0.0013327,0.0029724,7.895e-10,0.58,0.12,0
0.030663,0.0045135,0.0032146,-0.00014741,0.00092016,-6.7072e-05,0,0,0.035793,-0.016654,0,-0.0020926,0,0,0,0.0032159,-0.00014875,0.00092016,-1.1424,0.0013291,0.0029778,7.9069e-10,0.6,0.12,0
0.031385,0.0046523,0.0033065,-0.00021227,0.00092826,-0.00012515,0,0,0.0371,-0.017792,0,-0.0039045,0,0,0,0.0033109,-0.00021672,0.00092826,-2.0343,0.0013408,0.0031171,8.7774e-10,0.62,0.12,0
0.032147,0.0048911,0.0034551,-0.00033092,0.00093727,-0.00012952,0,0,0.039279,-0.019784,0,-0.004041,0,0,0,0.0034596,-0.00033534,0.00093727,-1.957,0.0013538,0.0033454,1.0273e-09,0.64,0.12,0
0.032957,0.0052502,0.0036404,-0.00040094,0.00097183,-5.626e-05,0,0,0.041629,-0.021415,0,-0.0017553,0,0,0,0.0036412,-0.00040173,0.00097183,-0.79742,0.0014038,0.0035607,1.2098e-09,0.66,0.12,0
0.033812,0.0057367,0.0038339,-0.0003373,0.001049,4.2158e-05,0,0,0.043444,-0.021626,0,0.0013153,0,0,0,0.0038343,-0.00033773,0.001049,0.57901,0.0015152,0.0036801,1.3891e-09,0.68,0.12,0
0.034694,0.0063224,0.0040193,-0.00018052,0.0011516,0.00012365,0,0,0.044735,-0.020781,0,0.0038579,0,0,0,0.0040229,-0.00018416,0.0011516,1.685,0.0016634,0.0037234,1.547e-09,0.7,0.12,0
0.035601,0.0069601,0.0041802,-4.9286e-05,0.0012393,0.00015839,0,0,0.045879,-0.020102,0,0.0049417,0,0,0,0.0041861,-5.5209e-05,0.0012393,2.1416,0.0017901,0.0037649,1.6885e-09,0.72,0.12,0
0.036529,0.0076142,0.0043163,3.6253e-05,0.0013058,0.00018088,0,0,0.046964,-0.019804,0,0.0056434,0,0,0,0.0043239,2.8622e-05,0.0013058,2.4156,0.0018861,0.0038203,1.8221e-09,0.74,0.12,0
0.03748,0.0082612,0.004441,0.00011795,0.0013677,0.00018581,0,0,0.047944,-0.019496,0,0.0057973,0,0,0,0.004449,0.00010998,0.0013677,2.4566,0.0019755,0.0038667,1.9448e-09,0.76,0.12,0
0.038447,0.0088845,0.0045397,0.00017866,0.0014155,0.0001731,0,0,0.048737,-0.019295,0,0.0054006,0,0,0,0.0045465,0.0001718,0.0014155,2.2694,0.0020446,0.0039044,2.0439e-09,0.78,0.12,0
0.039429,0.0094679,0.0046226,0.00021588,0.0014516,0.00014335,0,0,0.049469,-0.019276,0,0.0044724,0,0,0,0.0046273,0.00021122,0.0014516,1.8612,0.0020967,0.0039449,2.1343e-09,0.8,0.12,0
0.040426,0.0099997,0.0046947,0.00022615,0.0014763,0.00010407,0,0,0.050208,-0.019502,0,0.0032471,0,0,0,0.0046971,0.00022373,0.0014763,1.3335,0.0021324,0.0039971,2.227e-09,0.82,0.12,0
0.041438,0.010473,0.00476,0.00021333,0.001492,6.3097e-05,0,0,0.050981,-0.019947,0,0.0019686,0,0,0,0.0047609,0.00021245,0.001492,0.79492,0.0021551,0.0040627,2.3275e-09,0.84,0.12,0
0.042465,0.010884,0.0048194,0.00018396,0.001501,2.687e-05,0,0,0.051767,-0.020546,0,0.00083834,0,0,0,0.0048195,0.00018381,0.001501,0.33211,0.0021681,0.0041375,2.4336e-09,0.86,0.12,0
0.043508,0.011232,0.0048722,0.00014563,0.0015054,-9.3282e-07,0,0,0.052524,-0.021212,0,-2.9104e-05,0,0,0,0.0048722,0.00014563,0.0015054,-0.011308,0.0021744,0.0042146,2.539e-09,0.88,0.12,0
0.044566,0.011521,0.0049177,0.00010481,0.0015068,-1.8995e-05,0,0,0.053211,-0.021871,0,-0.00059265,0,0,0,0.0049178,0.00010473,0.0015068,-0.22612,0.0021764,0.0042876,2.637e-09,0.9,0.12,0
0.045637,0.011752,0.0049551,6.6406e-05,0.0015065,-2.7653e-05,0,0,0.053799,-0.022465,0,-0.00086278,0,0,0,0.0049553,6.625e-05,0.0015065,-0.32408,0.002176,0.0043515,2.722e-09,0.92,0.12,0
0.046718,0.011929,0.0049841,3.3823e-05,0.0015054,-2.8193e-05,0,0,0.054268,-0.022956,0,-0.00087961,0,0,0,0.0049842,3.3662e-05,0.0015054,-0.3263,0.0021744,0.0044032,2.7904e-09,0.94,0.12,0
0.047808,0.012053,0.0050046,9.262e-06,0.0015042,-2.2395e-05,0,0,0.054607,-0.02332,0,-0.00069873,0,0,0,0.0050047,9.1616e-06,0.0015042,-0.25686,0.0021727,0.004441,2.8401e-09,0.96,0.12,0
0.048902,0.012126,0.0050168,-5.9403e-06,0.0015033,-1.2286e-05,0,0,0.054811,-0.023544,0,-0.00038333,0,0,0,0.0050169,-5.9704e-06,0.0015033,-0.14015,0.0021714,0.0044639,2.8701e-09,0.98,0.12,0
0.05,0.012151,0.0050209,-1.1081e-05,0.0015029,3.9108e-05,0,0,0.05488,-0.023619,0,0.0012202,0,0,0,0.0050212,-1.1384e-05,0.0015029,0.44527,0.0021709,0.004472,2.8809e-09,1,0.12,0
0,0,0.005529,0.0023696,0.0023696,0.0014213,0,0,0.049288,-1.301e-18,0,0.044346,0,0,0,0.0060744,0.0018243,0.0023696,20.989,0.0034228,0.0040053,3.095e-09,0,0.14,0
0.00098575,0.00088691,0.0055066,0.0020798,0.0022759,0.0014138,0,0,0.050398,-0.003059,0,0.044109,0,0,0,0.0060146,0.0015719,0.0022759,19.764,0.0032875,0.0041358,3.2813e-09,0.02,0.14,0
0.0020159,0.0017647,0.005594,0.0018036,0.0022193,0.0013849,0,0,0.052646,-0.0064848,0,0.043208,0,0,0,0.0060461,0.0013515,0.0022193,18.078,0.0032056,0.0043264,3.6017e-09,0.04,0.14,0
0.0030916,0.0026209,0.005672,0.0015192,0.0021574,0.0013298,0,0,0.054829,-0.0099554,0,0.04149,0,0,0,0.0060614,0.0011299,0.0021574,16.318,0.0031162,0.0045065,3.8892e-09,0.06,0.14,0
0.0042091,0.0034408,0.0057325,0.0012511,0.0020951,0.0012504,0,0,0.056744,-0.013166,0,0.039012,0,0,0,0.0060578,0.00092585,0.0020951,14.582,0.0030262,0.0046587,4.111e-09,0.08,0.14,0
0.0053613,0.0042104,0.0057703,0.0010153,0.0020357,0.0011549,0,0,0.05826,-0.015918,0,0.036032,0,0,0,0.0060359,0.00074964,0.0020357,12.954,0.0029404,0.004775,4.2542e-09,0.1,0.14,0
0.0065395,0.0049195,0.0057845,0.00081826,0.0019808,0.001053,0,0,0.059337,-0.018136,0,0.032854,0,0,0,0.0059986,0.00060422,0.0019808,11.49,0.0028612,0.0048547,4.3223e-09,0.12,0.14,0
0.0077348,0.0055615,0.0057775,0.00066005,0.0019313,0.00095278,0,0,0.060001,-0.019831,0,0.029727,0,0,0,0.0059492,0.00048842,0.0019313,10.212,0.0027896,0.0049013,4.3271e-09,0.14,0.14,0
0.0089396,0.0061328,0.0057532,0.00053742,0.0018872,0.00085916,0,0,0.06031,-0.021057,0,0.026806,0,0,0,0.0058911,0.00039954,0.0018872,9.1171,0.0027259,0.0049194,4.2823e-09,0.16,0.14,0
0.010147,0.0066319,0.0057157,0.00044619,0.0018486,0.00077435,0,0,0.060327,-0.021877,0,0.02416,0,0,0,0.0058271,0.00033476,0.0018486,8.189,0.0026701,0.0049136,4.1999e-09,0.18,0.14,0
0.011353,0.0070582,0.0056679,0.00038238,0.0018151,0.0006985,0,0,0.060104,-0.02235,0,0.021793,0,0,0,0.0057587,0.00029163,0.0018151,7.4025,0.0026218,0.0048868,4.0885e-09,0.2,0.14,0
0.012551,0.0074116,0.005612,0.00034247,0.0017863,0.00063044,0,0,0.05968,-0.022524,0,0.01967,0,0,0,0.0056864,0.0002681,0.0017863,6.7283,0.0025803,0.0048411,3.9535e-09,0.22,0.14,0
0.01374,0.0076918,0.0055488,0.00032342,0.0017617,0.00056821,0,0,0.059079,-0.022437,0,0.017728,0,0,0,0.0056099,0.00026234,0.0017617,6.1349,0.0025446,0.0047777,3.7978e-09,0.24,0.14,0
0.014915,0.0078978,0.0054784,0.00032227,0.0017402,0.00050938,0,0,0.058316,-0.02212,0,0.015893,0,0,0,0.0055283,0.00027243,0.0017402,5.5883,0.0025136,0.0046972,3.6232e-09,0.26,0.14,0
0.016072,0.0080284,0.0054005,0.00033577,0.0017209,0.00045121,0,0,0.057402,-0.021608,0,0.014078,0,0,0,0.0054404,0.00029589,0.0017209,5.0514,0.0024857,0.0046006,3.4312e-09,0.28,0.14,0
0.017211,0.0080813,0.0053147,0.00035966,0.0017023,0.00039097,0,0,0.056354,-0.020945,0,0.012198,0,0,0,0.0053454,0.000329,0.0017023,4.4838,0.0024589,0.0044901,3.2251e-09,0.3,0.14,0
0.018327,0.008054,0.0052213,0.00038784,0.0016827,0.00032632,0,0,0.055202,-0.0202,0,0.010181,0,0,0,0.0052432,0.00036591,0.0016827,3.845,0.0024306,0.0043703,3.0114e-09,0.32,0.14,0
0.019419,0.0079438,0.0051212,0.0004114,0.0016598,0.00025638,0,0,0.053998,-0.019475,0,0.0079992,0,0,0,0.0051351,0.00039749,0.0016598,3.1067,0.0023975,0.0042495,2.8004e-09,0.34,0.14,0
0.020487,0.0077493,0.0050159,0.00041873,0.0016304,0.00018342,0,0,0.052814,-0.018902,0,0.0057228,0,0,0,0.0050232,0.00041142,0.0016304,2.2812,0.002355,0.0041392,2.6054e-09,0.36,0.14,0
0.021531,0.0074718,0.0049046,0.00039647,0.0015903,0.00011419,0,0,0.051703,-0.018624,0,0.0035627,0,0,0,0.0049075,0.00039358,0.0015903,1.45,0.0022971,0.0040504,2.4352e-09,0.38,0.14,0
0.022555,0.0071178,0.0047849,0.00033764,0.0015368,6.095e-05,0,0,0.050671,-0.018706,0,0.0019016,0,0,0,0.0047858,0.0003368,0.0015368,0.78504,0.0022198,0.0039868,2.2881e-09,0.4,0.14,0
0.023558,0.0067007,0.0046421,0.00023947,0.0014645,3.484e-05,0,0,0.049571,-0.01911,0,0.001087,0,0,0,0.0046424,0.00023919,0.0014645,0.45337,0.0021154,0.0039363,2.1397e-09,0.42,0.14,0
0.024538,0.0062382,0.0044689,0.00012425,0.0013779,4.7556e-05,0,0,0.048218,-0.019557,0,0.0014838,0,0,0,0.0044694,0.00012373,0.0013779,0.62706,0.0019904,0.0038739,1.9649e-09,0.44,0.14,0
0.025487,0.0057545,0.0042109,-2.4581e-05,0.0012559,8.1561e-05,0,0,0.046099,-0.019976,0,0.0025447,0,0,0,0.0042125,-2.6151e-05,0.0012559,1.1028,0.0018141,0.0037651,1.7082e-09,0.46,0.14,0
0.026381,0.0052592,0.0039722,-0.00010782,0.0011593,0.00014745,0,0,0.043881,-0.019767,0,0.0046006,0,0,0,0.0039775,-0.00011315,0.0011593,2.0671,0.0016745,0.0036259,1.4708e-09,0.48,0.14,0
0.027242,0.0047936,0.0036195,-0.00038726,0.00096966,0.00019956,0,0,0.041337,-0.021168,0,0.0062263,0,0,0,0.0036294,-0.00039718,0.00096966,2.8443,0.0014006,0.0035465,1.1973e-09,0.5,0.14,0
0.028035,0.0044412,0.0032619,-0.00047613,0.00083572,0.00034149,0,0,0.037848,-0.020465,0,0.010655,0,0,0,0.0032928,-0.00050707,0.00083572,5.1772,0.0012071,0.0033376,9.2076e-10,0.52,0.14,0
0.028756,0.0042432,0.0029953,-0.00021181,0.00083503,0.00033865,0,0,0.033699,-0.016331,0,0.010566,0,0,0,0.0030306,-0.00024718,0.00083503,5.9626,0.0012062,0.0028927,6.8231e-10,0.54,0.14,0
0.029383,0.0041674,0.0027198,-7.4086e-05,0.00079373,0.0002268,0,0,0.030048,-0.013538,0,0.0070762,0,0,0,0.0027381,-9.2377e-05,0.00079373,4.6109,0.0011465,0.0025078,4.8231e-10,0.56,0.14,0
0.029958,0.0041629,0.0025916,-9.4014e-06,0.00077465,6.1532e-05,0,0,0.028344,-0.012231,0,0.0019198,0,0,0,0.002593,-1.0856e-05,0.00077465,1.3544,0.001119,0.0023134,3.9757e-10,0.58,0.14,0
0.030517,0.0042159,0.0025881,-1.6646e-05,0.00077143,-0.00011268,0,0,0.02834,-0.012294,0,-0.0035156,0,0,0,0.0025929,-2.1511e-05,0.00077143,-2.4725,0.0011143,0.0023218,3.9924e-10,0.6,0.14,0
0.031092,0.0043273,0.0027098,-9.6934e-05,0.00078387,-0.00027588,0,0,0.030045,-0.01374,0,-0.0086075,0,0,0,0.0027367,-0.00012379,0.00078387,-5.5608,0.0011323,0.0025318,4.868e-10,0.62,0.14,0
0.031718,0.0045123,0.0029803,-0.00025384,0.00081793,-0.00038247,0,0,0.033732,-0.01672,0,-0.011933,0,0,0,0.0030249,-0.00029845,0.00081793,-6.6535,0.0011814,0.0029293,6.8763e-10,0.64,0.14,0
0.032441,0.0048251,0.0032419,-0.00054392,0.0008094,-0.00037411,0,0,0.037947,-0.021112,0,-0.011672,0,0,0,0.0032785,-0.00058053,0.0008094,-5.5898,0.0011691,0.0033853,9.2056e-10,0.66,0.14,0
0.033236,0.0053022,0.0035928,-0.00048165,0.00093334,-0.00021217,0,0,0.041487,-0.022074,0,-0.0066196,0,0,0,0.0036038,-0.00049267,0.00093334,-2.9728,0.0013481,0.0036018,1.1943e-09,0.68,0.14,0
0.0341,0.0059066,0.0039392,-0.00021637,0.0011168,-0.00013427,0,0,0.044029,-0.020798,0,-0.0041891,0,0,0,0.0039435,-0.00022071,0.0011168,-1.8486,0.0016132,0.0036824,1.4709e-09,0.7,0.14,0
0.034998,0.0065569,0.0041672,-0.00014634,0.0012063,-4.016e-05,0,0,0.046191,-0.021101,0,-0.001253,0,0,0,0.0041676,-0.00014671,0.0012063,-0.53337,0.0017424,0.0038219,1.7031e-09,0.72,0.14,0
0.035948,0.0072132,0.0044117,-8.231e-06,0.001321,2.5531e-05,0,0,0.048214,-0.020737,0,0.00079658,0,0,0,0.0044118,-8.3784e-06,0.001321,0.33095,0.0019082,0.003928,1.9534e-09,0.74,0.14,0
0.036926,0.0078672,0.0045692,0.00010075,0.001401,7.182e-05,0,0,0.049424,-0.020283,0,0.0022408,0,0,0,0.0045703,9.9596e-05,0.001401,0.92058,0.0020236,0.0039828,2.1154e-09,0.76,0.14,0
0.037925,0.0084952,0.004693,0.00019488,0.0014664,8.0353e-05,0,0,0.050336,-0.019835,0,0.002507,0,0,0,0.0046945,0.00019344,0.0014664,1.0231,0.0021181,0.0040187,2.2407e-09,0.78,0.14,0
0.03894,0.0090796,0.0047916,0.00025025,0.0015126,6.2079e-05,0,0,0.051153,-0.019692,0,0.0019369,0,0,0,0.0047924,0.00024941,0.0015126,0.78302,0.0021848,0.0040615,2.3524e-09,0.8,0.14,0
0.039971,0.0096065,0.0048797,0.00026703,0.001544,2.8502e-05,0,0,0.052036,-0.019921,0,0.00088926,0,0,0,0.0048798,0.00026685,0.001544,0.35402,0.0022302,0.0041254,2.4752e-09,0.82,0.14,0
0.041021,0.010069,0.0049603,0.00025028,0.0015632,-7.1196e-06,0,0,0.052995,-0.020481,0,-0.00022213,0,0,0,0.0049603,0.00025027,0.0015632,-0.086607,0.0022579,0.00421,2.6134e-09,0.84,0.14,0
0.042091,0.010467,0.0050342,0.00021199,0.0015738,-3.6549e-05,0,0,0.053981,-0.021245,0,-0.0011403,0,0,0,0.0050345,0.00021171,0.0015738,-0.43423,0.0022733,0.0043064,2.7608e-09,0.86,0.14,0
0.04318,0.0108,0.0050996,0.00016306,0.0015788,-5.5907e-05,0,0,0.054925,-0.022086,0,-0.0017443,0,0,0,0.0051003,0.00016243,0.0015788,-0.64877,0.0022805,0.0044039,2.9057e-09,0.88,0.14,0
0.044288,0.011074,0.0051552,0.00011208,0.0015802,-6.4588e-05,0,0,0.05577,-0.022902,0,-0.0020151,0,0,0,0.005156,0.00011125,0.0015802,-0.73364,0.0022825,0.0044941,3.0381e-09,0.9,0.14,0
0.045411,0.011292,0.0052001,6.4878e-05,0.0015795,-6.3616e-05,0,0,0.056481,-0.023628,0,-0.0019848,0,0,0,0.0052009,6.409e-05,0.0015795,-0.70964,0.0022815,0.0045715,3.1509e-09,0.92,0.14,0
0.046547,0.011458,0.0052344,2.5267e-05,0.0015779,-5.4702e-05,0,0,0.057041,-0.024221,0,-0.0017067,0,0,0,0.005235,2.4692e-05,0.0015779,-0.60158,0.0022792,0.0046332,3.2403e-09,0.94,0.14,0
0.047693,0.011574,0.0052584,-4.3718e-06,0.0015762,-3.9793e-05,0,0,0.057443,-0.024657,0,-0.0012415,0,0,0,0.0052587,-4.6727e-06,0.0015762,-0.43319,0.0022768,0.0046778,3.3045e-09,0.96,0.14,0
0.048845,0.011642,0.0052727,-2.2634e-05,0.001575,-2.0892e-05,0,0,0.057683,-0.024923,0,-0.00065182,0,0,0,0.0052727,-2.2717e-05,0.001575,-0.22605,0.002275,0.0047047,3.3431e-09,0.98,0.14,0
0.05,0.011665,0.0052774,-2.8796e-05,0.0015746,3.6449e-05,0,0,0.057763,-0.025012,0,0.0011372,0,0,0,0.0052776,-2.9046e-05,0.0015746,0.39355,0.0022744,0.0047141,3.3566e-09,1,0.14,0
0,0,0.0055434,0.0023757,0.0023757,0.0013257,0,0,0.049415,1.0842e-19,0,0.041361,0,0,0,0.006025,0.0018941,0.0023757,19.965,0.0034316,0.0039123,2.919e-09,0,0.16,0
0.0009883,0.00082722,0.005521,0.0020956,0.002285,0.0013204,0,0,0.050482,-0.0029547,0,0.041198,0,0,0,0.005971,0.0016457,0.002285,18.816,0.0033005,0.0040437,3.1117e-09,0.02,0.16,0
0.0020193,0.0016395,0.0056092,0.0018416,0.0022352,0.0012953,0,0,0.052633,-0.0061404,0,0.040414,0,0,0,0.0060115,0.0014392,0.0022352,17.256,0.0032287,0.0042308,3.4301e-09,0.04,0.16,0
0.0030936,0.0024294,0.0056909,0.001582,0.0021819,0.0012535,0,0,0.054741,-0.0093578,0,0.039109,0,0,0,0.0060431,0.0012298,0.0021819,15.695,0.0031516,0.004415,3.7363e-09,0.06,0.16,0
0.0042089,0.0031868,0.0057604,0.0013331,0.002128,0.0011943,0,0,0.056664,-0.012401,0,0.037261,0,0,0,0.006062,0.0010315,0.002128,14.174,0.0030738,0.0045817,4.002e-09,0.08,0.16,0
0.0053602,0.0039017,0.0058131,0.0011075,0.0020762,0.0011215,0,0,0.058295,-0.015111,0,0.034991,0,0,0,0.0060667,0.00085387,0.0020762,12.743,0.0029989,0.0047218,4.2101e-09,0.1,0.16,0
0.0065407,0.0045654,0.0058471,0.0009123,0.0020278,0.0010413,0,0,0.059581,-0.017402,0,0.032488,0,0,0,0.0060578,0.00070158,0.0020278,11.44,0.0029291,0.0048316,4.3551e-09,0.12,0.16,0
0.0077434,0.0051716,0.005863,0.00075004,0.0019839,0.00095945,0,0,0.060514,-0.019248,0,0.029935,0,0,0,0.0060371,0.00057592,0.0019839,10.286,0.0028656,0.004911,4.4396e-09,0.14,0.16,0
0.0089613,0.0057162,0.0058625,0.00062014,0.0019448,0.00088056,0,0,0.061116,-0.020665,0,0.027473,0,0,0,0.0060065,0.00047619,0.0019448,9.2846,0.0028091,0.0049618,4.4704e-09,0.16,0.16,0
0.010188,0.0061967,0.005848,0.00052056,0.0019106,0.0008073,0,0,0.061424,-0.021684,0,0.025188,0,0,0,0.0059677,0.00040091,0.0019106,8.4302,0.0027597,0.0049864,4.4552e-09,0.18,0.16,0
0.011418,0.0066115,0.0058217,0.00044871,0.0018811,0.00074082,0,0,0.061473,-0.022346,0,0.023113,0,0,0,0.005922,0.00034844,0.0018811,7.7082,0.0027172,0.0049871,4.4006e-09,0.2,0.16,0
0.012647,0.0069598,0.0057849,0.00040204,0.0018561,0.00068097,0,0,0.06129,-0.022683,0,0.021246,0,0,0,0.0058698,0.00031723,0.0018561,7.0993,0.002681,0.0049653,4.3113e-09,0.22,0.16,0
0.01387,0.0072405,0.0057383,0.00037809,0.0018349,0.00062674,0,0,0.060893,-0.022727,0,0.019554,0,0,0,0.0058107,0.00030578,0.0018349,6.5809,0.0026505,0.0049218,4.1898e-09,0.24,0.16,0
0.015083,0.0074521,0.0056818,0.00037434,0.0018168,0.00057638,0,0,0.060293,-0.022503,0,0.017983,0,0,0,0.0057436,0.00031247,0.0018168,6.1271,0.0026243,0.004857,4.0375e-09,0.26,0.16,0
0.016282,0.0075926,0.0056144,0.00038786,0.0018007,0.00052757,0,0,0.059494,-0.02204,0,0.01646,0,0,0,0.0056671,0.00033514,0.0018007,5.7068,0.002601,0.0047711,3.8551e-09,0.28,0.16,0
0.017462,0.007659,0.0055354,0.00041464,0.001785,0.00047748,0,0,0.058507,-0.021378,0,0.014897,0,0,0,0.0055796,0.0003705,0.001785,5.2817,0.0025784,0.0046655,3.645e-09,0.3,0.16,0
0.018622,0.0076473,0.0054447,0.00044857,0.001768,0.0004229,0,0,0.057357,-0.020583,0,0.013195,0,0,0,0.0054803,0.00041303,0.001768,4.8043,0.0025538,0.0045439,3.4132e-09,0.32,0.16,0
0.019757,0.0075525,0.0053439,0.00047979,0.0017471,0.00036131,0,0,0.05611,-0.01977,0,0.011273,0,0,0,0.0053706,0.0004531,0.0017471,4.2251,0.0025236,0.0044151,3.1737e-09,0.34,0.16,0
0.020866,0.00737,0.0052359,0.00049174,0.0017183,0.00029311,0,0,0.054874,-0.019134,0,0.0091452,0,0,0,0.0052539,0.0004737,0.0017183,3.5222,0.002482,0.0042953,2.9476e-09,0.36,0.16,0
0.021952,0.0070975,0.0051249,0.00046491,0.0016769,0.00022671,0,0,0.053788,-0.018908,0,0.0070733,0,0,0,0.0051359,0.00045391,0.0016769,2.7787,0.0024222,0.004206,2.7603e-09,0.38,0.16,0
0.023018,0.0067399,0.0050046,0.00037703,0.0016145,0.00017814,0,0,0.052886,-0.019304,0,0.0055578,0,0,0,0.0050115,0.00037018,0.0016145,2.2012,0.0023321,0.0041611,2.6153e-09,0.4,0.16,0
0.024067,0.0063104,0.0048761,0.00024017,0.0015349,0.00017548,0,0,0.052123,-0.020197,0,0.005475,0,0,0,0.0048827,0.00023353,0.0015349,2.1647,0.002217,0.0041543,2.5009e-09,0.42,0.16,0
0.025103,0.0058367,0.0046874,4.6561e-05,0.0014202,0.00022505,0,0,0.050968,-0.021428,0,0.0070216,0,0,0,0.0046982,3.5673e-05,0.0014202,2.7698,0.0020514,0.0041474,2.335e-09,0.44,0.16,0
0.026106,0.0053391,0.0044713,-0.00010342,0.0013104,0.00036659,0,0,0.04931,-0.022055,0,0.011437,0,0,0,0.0045005,-0.00013261,0.0013104,4.5526,0.0018927,0.0041064,2.1327e-09,0.46,0.16,0
0.027075,0.0048662,0.0038605,-0.00045289,0.0010223,0.00050505,0,0,0.044276,-0.023013,0,0.015758,0,0,0,0.0039188,-0.00051124,0.0010223,6.59,0.0014766,0.0038966,1.5294e-09,0.48,0.16,0
0.027877,0.0043658,0.0032963,-0.00066453,0.00078952,0.00095827,0,0,0.039105,-0.022683,0,0.029898,0,0,0,0.0035159,-0.0008842,0.00078952,12.911,0.0011404,0.0038468,1.1701e-09,0.5,0.16,0
0.028639,0.0040361,0.0028697,-0.00019623,0.00080203,0.00082402,0,0,0.032255,-0.015573,0,0.025709,0,0,0,0.0030771,-0.00040367,0.00080203,14.13,0.0011585,0.0030615,7.4076e-10,0.52,0.16,0
0.029167,0.0039614,0.0021887,3.6727e-06,0.00065772,0.00064503,0,0,0.023884,-0.010203,0,0.020125,0,0,0,0.0023649,-0.00017253,0.00065772,15.279,0.00095004,0.0022408,3.2192e-10,0.54,0.16,0
0.029595,0.0039471,0.0019203,0.00012782,0.00061444,0.0003669,0,0,0.020372,-0.0075913,0,0.011447,0,0,0,0.0019925,5.5624e-05,0.00061444,11.131,0.00088752,0.0017267,1.7405e-10,0.56,0.16,0
0.029982,0.00397,0.0018287,0.00019053,0.00060576,0.00010558,0,0,0.019077,-0.0064775,0,0.0032941,0,0,0,0.0018354,0.00018375,0.00060576,3.6725,0.00087498,0.0014863,1.2393e-10,0.58,0.16,0
0.030358,0.0040217,0.0018242,0.00018232,0.00060194,-0.00014882,0,0,0.019067,-0.0065461,0,-0.0046431,0,0,0,0.0018375,0.00016894,0.00060194,-5.1375,0.00086948,0.0014997,1.258e-10,0.6,0.16,0
0.030745,0.0041027,0.0019069,0.00010177,0.0006026,-0.00040847,0,0,0.020347,-0.0078128,0,-0.012744,0,0,0,0.001995,1.3645e-05,0.0006026,-12.175,0.00087042,0.0017623,1.7892e-10,0.62,0.16,0
0.031172,0.0042223,0.0021677,-4.4337e-05,0.000637,-0.00068275,0,0,0.023878,-0.010629,0,-0.021302,0,0,0,0.0023614,-0.0002381,0.000637,-15.844,0.00092011,0.0022909,3.2769e-10,0.64,0.16,0
0.0317,0.0044057,0.0028444,-0.00027541,0.0007707,-0.00085211,0,0,0.03235,-0.016319,0,-0.026586,0,0,0,0.003062,-0.00049298,0.0007707,-14.323,0.0011132,0.0031212,7.4339e-10,0.66,0.16,0
0.032466,0.0048537,0.003261,-0.00078965,0.00074141,-0.00096507,0,0,0.039306,-0.023884,0,-0.03011,0,0,0,0.0034792,-0.0010078,0.00074141,-12.739,0.0010709,0.0039172,1.1438e-09,0.68,0.16,0
0.033272,0.0054905,0.0038216,-0.000586,0.00097069,-0.00048359,0,0,0.044475,-0.024284,0,-0.015088,0,0,0,0.0038741,-0.00063843,0.00097069,-6.1882,0.0014021,0.0039612,1.5089e-09,0.7,0.16,0
0.034245,0.0061161,0.0044201,-0.00025823,0.0012485,-0.00031369,0,0,0.049476,-0.023506,0,-0.009787,0,0,0,0.004441,-0.00027917,0.0012485,-3.819,0.0018035,0.0041717,2.1135e-09,0.72,0.16,0
0.035251,0.0067848,0.0046257,-0.00011969,0.0013518,-0.00013841,0,0,0.051073,-0.022956,0,-0.0043184,0,0,0,0.0046298,-0.00012373,0.0013518,-1.6692,0.0019526,0.0042141,2.3156e-09,0.74,0.16,0
0.036288,0.0074499,0.0047991,6.534e-05,0.0014593,-5.1896e-05,0,0,0.0521,-0.021746,0,-0.0016192,0,0,0,0.0047996,6.4771e-05,0.0014593,-0.62804,0.0021079,0.0042143,2.4732e-09,0.76,0.16,0
0.037335,0.0080911,0.0049112,0.0001989,0.001533,-1.7667e-05,0,0,0.0527,-0.020813,0,-0.00055122,0,0,0,0.0049113,0.00019884,0.001533,-0.21481,0.0022144,0.0042071,2.568e-09,0.78,0.16,0
0.038396,0.0086802,0.0050133,0.00028366,0.0015891,-2.9741e-05,0,0,0.053417,-0.020365,0,-0.00092794,0,0,0,0.0050135,0.00028347,0.0015891,-0.36028,0.0022953,0.0042311,2.6779e-09,0.8,0.16,0
0.039472,0.0092029,0.0051056,0.00030454,0.0016231,-5.9883e-05,0,0,0.054328,-0.020569,0,-0.0018683,0,0,0,0.0051064,0.0003038,0.0016231,-0.71449,0.0023444,0.0042976,2.819e-09,0.82,0.16,0
0.040569,0.0096534,0.0051952,0.00028084,0.0016428,-9.0423e-05,0,0,0.055418,-0.021247,0,-0.0028212,0,0,0,0.0051969,0.00027918,0.0016428,-1.0537,0.002373,0.0043974,2.9933e-09,0.84,0.16,0
0.041689,0.010034,0.0052779,0.0002307,0.0016526,-0.00011102,0,0,0.056555,-0.022181,0,-0.0034639,0,0,0,0.0052804,0.00022825,0.0016526,-1.2595,0.0023871,0.0045118,3.1809e-09,0.86,0.16,0
0.042831,0.010349,0.0053507,0.00017006,0.0016562,-0.0001193,0,0,0.057633,-0.023184,0,-0.0037221,0,0,0,0.0053534,0.00016731,0.0016562,-1.3185,0.0023923,0.004625,3.3626e-09,0.88,0.16,0
0.043994,0.010605,0.0054113,0.00010883,0.001656,-0.00011617,0,0,0.058582,-0.024136,0,-0.0036246,0,0,0,0.0054138,0.00010629,0.001656,-1.2545,0.002392,0.0047272,3.5248e-09,0.9,0.16,0
0.045174,0.010807,0.0054593,5.3232e-05,0.0016538,-0.00010365,0,0,0.059367,-0.024968,0,-0.003234,0,0,0,0.0054613,5.1246e-05,0.0016538,-1.098,0.0023888,0.0048132,3.6602e-09,0.92,0.16,0
0.046368,0.01096,0.0054955,7.1574e-06,0.0016508,-8.3843e-05,0,0,0.059977,-0.025641,0,-0.0026159,0,0,0,0.0054967,5.8769e-06,0.0016508,-0.87502,0.0023845,0.0048809,3.7659e-09,0.94,0.16,0
0.047573,0.011066,0.0055205,-2.7033e-05,0.001648,-5.8745e-05,0,0,0.06041,-0.026131,0,-0.0018328,0,0,0,0.0055211,-2.7655e-05,0.001648,-0.60663,0.0023805,0.0049294,3.841e-09,0.96,0.16,0
0.048785,0.011129,0.0055352,-4.7994e-05,0.0016462,-3.0215e-05,0,0,0.060669,-0.026429,0,-0.0009427,0,0,0,0.0055354,-4.8158e-05,0.0016462,-0.31006,0.0023778,0.0049584,3.8858e-09,0.98,0.16,0
0.05,0.01115,0.00554,-5.5049e-05,0.0016455,3.3386e-05,0,0,0.060755,-0.026528,0,0.0010416,0,0,0,0.0055402,-5.5248e-05,0.0016455,0.34187,0.0023768,0.0049685,3.9013e-09,1,0.16,0
0,0,0.0055764,0.0023899,0.0023899,0.0012319,0,0,0.049709,3.2526e-19,0,0.038436,0,0,0,0.0059971,0.0019691,0.0023899,18.856,0.003452,0.0038349,2.7795e-09,0,0.18,0
0.00099419,0.00076873,0.0055536,0.0021126,0.0022998,0.0012282,0,0,0.050758,-0.0029217,0,0.038318,0,0,0,0.005947,0.0017192,0.0022998,17.76,0.003322,0.0039694,2.9818e-09,0.02,0.18,0
0.0020303,0.0015191,0.0056429,0.0018717,0.0022544,0.0012055,0,0,0.052861,-0.00597,0,0.037611,0,0,0,0.0059953,0.0015193,0.0022544,16.296,0.0032563,0.0041575,3.3052e-09,0.04,0.18,0
0.0031086,0.0022466,0.0057275,0.0016287,0.0022069,0.0011725,0,0,0.054922,-0.0090193,0,0.036583,0,0,0,0.0060393,0.001317,0.0022069,14.888,0.0031877,0.0043462,3.6278e-09,0.06,0.18,0
0.0042272,0.0029447,0.0058033,0.0013946,0.0021594,0.0011275,0,0,0.056845,-0.01193,0,0.035177,0,0,0,0.0060749,0.001123,0.0021594,13.544,0.0031191,0.0045236,3.926e-09,0.08,0.18,0
0.0053824,0.003606,0.0058666,0.0011787,0.0021136,0.0010719,0,0,0.058547,-0.014584,0,0.033442,0,0,0,0.0061,0.0009453,0.0021136,12.287,0.003053,0.0046812,4.183e-09,0.1,0.18,0
0.0065691,0.0042234,0.0059155,0.0009876,0.0020709,0.0010092,0,0,0.059975,-0.0169,0,0.031489,0,0,0,0.0061141,0.00078892,0.0020709,11.137,0.0029913,0.004814,4.3892e-09,0.12,0.18,0
0.0077814,0.0047916,0.0059494,0.00082452,0.0020322,0.00094383,0,0,0.061108,-0.018839,0,0.029447,0,0,0,0.0061177,0.00065623,0.0020322,10.11,0.0029354,0.0049199,4.542e-09,0.14,0.18,0
0.0090134,0.0053062,0.0059689,0.00069046,0.0019978,0.00087926,0,0,0.061949,-0.020395,0,0.027433,0,0,0,0.0061116,0.00054785,0.0019978,9.2128,0.0028857,0.004999,4.643e-09,0.16,0.18,0
0.010259,0.0057645,0.0059754,0.00058488,0.0019681,0.00081828,0,0,0.062515,-0.021578,0,0.02553,0,0,0,0.0060969,0.0004634,0.0019681,8.444,0.0028428,0.0050521,4.6959e-09,0.18,0.18,0
0.011514,0.0061644,0.0059701,0.00050645,0.001943,0.00076246,0,0,0.062823,-0.02241,0,0.023789,0,0,0,0.0060745,0.00040204,0.001943,7.7973,0.0028065,0.0050804,4.7048e-09,0.2,0.18,0
0.012772,0.0065043,0.0059539,0.00045355,0.0019222,0.00071244,0,0,0.062893,-0.022911,0,0.022228,0,0,0,0.0060446,0.00036277,0.0019222,7.2617,0.0027765,0.0050848,4.6727e-09,0.22,0.18,0
0.01403,0.0067827,0.005927,0.00042443,0.0019054,0.00066795,0,0,0.062736,-0.023103,0,0.02084,0,0,0,0.0060069,0.00034451,0.0019054,6.8231,0.0027523,0.0050656,4.6014e-09,0.24,0.18,0
0.015282,0.0069977,0.0058891,0.00041717,0.0018919,0.00062802,0,0,0.062357,-0.023005,0,0.019594,0,0,0,0.0059603,0.00034602,0.0018919,6.464,0.0027327,0.005023,4.491e-09,0.26,0.18,0
0.016524,0.0071468,0.0058391,0.0004294,0.0018805,0.00059093,0,0,0.061753,-0.022638,0,0.018437,0,0,0,0.0059029,0.0003656,0.0018805,6.162,0.0027163,0.0049566,4.3409e-09,0.28,0.18,0
0.017752,0.0072262,0.0057752,0.00045775,0.0018699,0.00055408,0,0,0.060923,-0.022029,0,0.017287,0,0,0,0.0058323,0.00040063,0.0018699,5.886,0.0027009,0.0048664,4.1506e-09,0.3,0.18,0
0.018961,0.0072307,0.005696,0.00049686,0.0018579,0.00051374,0,0,0.059875,-0.021232,0,0.016029,0,0,0,0.0057463,0.00044658,0.0018579,5.5895,0.0026836,0.0047539,3.9225e-09,0.32,0.18,0
0.020147,0.007153,0.0056023,0.00053759,0.001842,0.00046493,0,0,0.058661,-0.020348,0,0.014506,0,0,0,0.0056446,0.00049526,0.001842,5.2017,0.0026606,0.0046254,3.6676e-09,0.34,0.18,0
0.021307,0.0069839,0.0055009,0.00056279,0.0018191,0.00040412,0,0,0.057436,-0.019599,0,0.012608,0,0,0,0.0055338,0.00052993,0.0018191,4.6476,0.0026276,0.0045,3.4174e-09,0.36,0.18,0
0.022444,0.0067155,0.0053956,0.00053465,0.0017791,0.0003351,0,0,0.056418,-0.019413,0,0.010455,0,0,0,0.0054186,0.00051166,0.0017791,3.925,0.0025698,0.0044119,3.2144e-09,0.38,0.18,0
0.023564,0.0063456,0.0053018,0.00042679,0.0017186,0.00028589,0,0,0.055898,-0.020152,0,0.0089199,0,0,0,0.0053185,0.00041008,0.0017186,3.3449,0.0024824,0.0044025,3.1125e-09,0.4,0.18,0
0.02468,0.0058928,0.0051801,0.0001979,0.0016134,0.00028332,0,0,0.055641,-0.022082,0,0.0088396,0,0,0,0.0051962,0.00018184,0.0016134,3.2442,0.0023305,0.0044738,3.0614e-09,0.42,0.18,0
0.02579,0.0053811,0.0051099,-1.4035e-05,0.0015288,0.00039254,0,0,0.055866,-0.024068,0,0.012247,0,0,0,0.0051398,-4.3933e-05,0.0015288,4.3555,0.0022082,0.0046035,3.1104e-09,0.44,0.18,0
0.026915,0.0048723,0.0048721,-0.00035931,0.0013538,0.00052545,0,0,0.054885,-0.026725,0,0.016394,0,0,0,0.0049243,-0.00041157,0.0013538,5.6794,0.0019555,0.0047083,2.9318e-09,0.46,0.18,0
0.027985,0.0043387,0.0052483,-0.00032486,0.001477,0.0009153,0,0,0.058832,-0.028109,0,0.028557,0,0,0,0.0053948,-0.00047134,0.001477,9.0919,0.0021335,0.0051747,3.8666e-09,0.48,0.18,0
0.029268,0.0038863,0.0070682,-0.0012289,0.0017518,0.0011734,0,0,0.028039,-0.012155,0,0.017912,0,0,0,0.0072597,-0.0014205,0.0017518,9.6608,0.0025303,0.0076138,1.4513e-08,0.5,0.18,0
0.029468,0.0038183,0.0058662,0.00042971,0.0018888,0.00092889,0,0,0.0095458,-0.0068879,0,0.020813,0,0,0,0.0062775,1.8353e-05,0.0018888,17.458,0.0027282,0.005613,1.3275e-08,0.52,0.18,0
0.02965,0.0038351,0.0055603,0.0003213,0.0017645,0.00073473,0,0,0.0091099,-0.0047707,0,0.013497,0,0,0,0.0058105,7.1132e-05,0.0017645,16.63,0.0025487,0.0051232,1.1722e-08,0.54,0.18,0
0.029832,0.0038638,0.0056171,0.00043198,0.0018147,0.0003873,0,0,0.0091257,-0.003706,0,0.0072367,0,0,0,0.0057148,0.00033429,0.0018147,12.43,0.0026213,0.0048174,1.1611e-08,0.56,0.18,0
0.030015,0.0039038,0.0056504,0.00047245,0.0018369,0.00011273,0,0,0.0091525,-0.0032914,0,0.0020831,0,0,0,0.0056605,0.00046234,0.0018369,4.6501,0.0026532,0.0046654,1.1653e-08,0.58,0.18,0
0.030198,0.003954,0.0056469,0.00046458,0.0018334,-0.00014653,0,0,0.0091523,-0.0033304,0,-0.0027648,0,0,0,0.0056643,0.00044714,0.0018334,-6.0118,0.0026483,0.0046808,1.1655e-08,0.6,0.18,0
0.030381,0.0040148,0.005608,0.00040782,0.0018047,-0.00041954,0,0,0.0091278,-0.0038313,0,-0.0078978,0,0,0,0.00572,0.00029575,0.0018047,-13.008,0.0026068,0.0048534,1.1629e-08,0.62,0.18,0
0.030563,0.0040872,0.0055474,0.00027499,0.0017467,-0.00076501,0,0,0.0091217,-0.005011,0,-0.014123,0,0,0,0.0058119,1.049e-05,0.0017467,-16.796,0.0025231,0.0051746,1.1782e-08,0.64,0.18,0
0.030746,0.0041723,0.0058697,0.00036847,0.0018715,-0.00094222,0,0,0.0095959,-0.0073029,0,-0.021334,0,0,0,0.0062884,-5.0217e-05,0.0018715,-17.343,0.0027032,0.0056807,1.3476e-08,0.66,0.18,0
0.030947,0.0043468,0.0070303,-0.0014392,0.0016773,-0.0011637,0,0,0.028161,-0.012791,0,-0.017749,0,0,0,0.0072153,-0.0016243,0.0016773,-9.4227,0.0024228,0.007743,1.4369e-08,0.68,0.18,0
0.032234,0.0049352,0.0052011,-0.00049498,0.0014119,-0.00087858,0,0,0.059113,-0.029746,0,-0.027412,0,0,0,0.0053336,-0.00062742,0.0014119,-8.5721,0.0020393,0.0052475,3.8221e-09,0.7,0.18,0
0.033312,0.0056167,0.0048209,-0.00054069,0.0012841,-0.00046443,0,0,0.055175,-0.028466,0,-0.01449,0,0,0,0.0048608,-0.00058062,0.0012841,-4.9143,0.0018548,0.0047896,2.8969e-09,0.72,0.18,0
0.034441,0.006295,0.0050413,-0.00022035,0.0014463,-0.000293,0,0,0.056082,-0.025999,0,-0.0091418,0,0,0,0.0050575,-0.00023662,0.0014463,-3.1775,0.0020891,0.0046852,3.0769e-09,0.74,0.18,0
0.035555,0.0069973,0.0051017,-1.4781e-05,0.0015261,-0.0001454,0,0,0.055779,-0.024037,0,-0.0045365,0,0,0,0.0051058,-1.891e-05,0.0015261,-1.6265,0.0022043,0.0045532,3.0336e-09,0.76,0.18,0
0.036672,0.0076627,0.0052087,0.00021124,0.001626,-0.00010868,0,0,0.05589,-0.02207,0,-0.0033908,0,0,0,0.005211,0.00020888,0.001626,-1.2452,0.0023486,0.0044656,3.0689e-09,0.78,0.18,0
0.037791,0.008265,0.0052889,0.0003187,0.0016823,-0.00012151,0,0,0.056263,-0.021272,0,-0.0037912,0,0,0,0.0052919,0.00031573,0.0016823,-1.3997,0.00243,0.004453,3.1368e-09,0.8,0.18,0
0.038923,0.0087838,0.005381,0.0003409,0.0017166,-0.00015543,0,0,0.057165,-0.021461,0,-0.0048495,0,0,0,0.0053858,0.00033611,0.0017166,-1.7647,0.0024795,0.0045204,3.2952e-09,0.82,0.18,0
0.040077,0.0092195,0.0054715,0.0003017,0.001732,-0.00018037,0,0,0.058337,-0.022312,0,-0.0056275,0,0,0,0.0054778,0.00029542,0.001732,-1.9957,0.0025017,0.0046342,3.5045e-09,0.84,0.18,0
0.041257,0.0095794,0.0055567,0.00023718,0.0017382,-0.00018963,0,0,0.059569,-0.023415,0,-0.0059163,0,0,0,0.0055634,0.00023043,0.0017382,-2.039,0.0025107,0.0047617,3.7286e-09,0.86,0.18,0
0.04246,0.0098731,0.0056293,0.00016461,0.0017382,-0.00018443,0,0,0.060702,-0.024548,0,-0.0057542,0,0,0,0.0056355,0.00015839,0.0017382,-1.9308,0.0025107,0.0048828,3.9373e-09,0.88,0.18,0
0.043685,0.010109,0.0056879,9.3717e-05,0.0017345,-0.00016804,0,0,0.061673,-0.025596,0,-0.005243,0,0,0,0.0056929,8.8674e-05,0.0017345,-1.719,0.0025054,0.0049893,4.1174e-09,0.9,0.18,0
0.044927,0.010294,0.0057333,3.0602e-05,0.0017292,-0.00014325,0,0,0.062464,-0.026498,0,-0.0044693,0,0,0,0.0057369,2.7006e-05,0.0017292,-1.438,0.0024977,0.0050775,4.2645e-09,0.92,0.18,0
0.046183,0.010432,0.0057668,-2.1026e-05,0.0017237,-0.0001123,0,0,0.063072,-0.027218,0,-0.0035038,0,0,0,0.005769,-2.3205e-05,0.0017237,-1.1111,0.0024899,0.0051462,4.3774e-09,0.94,0.18,0
0.04745,0.010528,0.0057898,-5.9002e-05,0.0017192,-7.7084e-05,0,0,0.063501,-0.027741,0,-0.002405,0,0,0,0.0057908,-6.0018e-05,0.0017192,-0.75495,0.0024834,0.005195,4.4568e-09,0.96,0.18,0
0.048723,0.010585,0.0058032,-8.2155e-05,0.0017163,-3.9186e-05,0,0,0.063755,-0.028056,0,-0.0012226,0,0,0,0.0058034,-8.2416e-05,0.0017163,-0.38147,0.0024791,0.0052242,4.5038e-09,0.98,0.18,0
0.05,0.010604,0.0058076,-8.9927e-05,0.0017153,3.0059e-05,0,0,0.063839,-0.028161,0,0.00093784,0,0,0,0.0058077,-9.008e-05,0.0017153,0.29202,0.0024777,0.0052341,4.5198e-09,1,0.18,0
0,0,0.0056201,0.0024086,0.0024086,0.0011384,0,0,0.0501,-4.3368e-19,0,0.035518,0,0,0,0.0059827,0.002046,0.0024086,17.667,0.0034791,0.0037685,2.6631e-09,0,0.2,0
0.001002,0.00071035,0.0055966,0.0021301,0.002318,0.0011355,0,0,0.051146,-0.0029313,0,0.035429,0,0,0,0.0059355,0.0017913,0.002318,16.616,0.0033483,0.0039076,2.8775e-09,0.02,0.2,0
0.0020459,0.0014007,0.0056876,0.0018966,0.0022752,0.0011149,0,0,0.053232,-0.0059074,0,0.034785,0,0,0,0.0059911,0.001593,0.0022752,15.232,0.0032864,0.0040998,3.2114e-09,0.04,0.2,0
0.0031313,0.0020686,0.0057748,0.0016645,0.0022318,0.0010882,0,0,0.055271,-0.0088498,0,0.033951,0,0,0,0.0060451,0.0013942,0.0022318,13.95,0.0032237,0.0042939,3.5501e-09,0.06,0.2,0
0.0042567,0.0027096,0.0058555,0.0014413,0.0021891,0.0010532,0,0,0.057197,-0.011665,0,0.032861,0,0,0,0.0060939,0.0012029,0.0021891,12.755,0.003162,0.0044801,3.8748e-09,0.08,0.2,0
0.0054192,0.0033183,0.005927,0.0012337,0.0021482,0.0010104,0,0,0.058949,-0.014266,0,0.031524,0,0,0,0.0061353,0.0010255,0.0021482,11.647,0.003103,0.0046512,4.1704e-09,0.1,0.2,0
0.0066147,0.0038894,0.0059875,0.0010471,0.0021104,0.00096165,0,0,0.060484,-0.016587,0,0.030003,0,0,0,0.0061681,0.00086652,0.0021104,10.635,0.0030484,0.0048021,4.4268e-09,0.12,0.2,0
0.0078385,0.004418,0.0060362,0.00088482,0.0020763,0.00090991,0,0,0.061775,-0.018587,0,0.028389,0,0,0,0.0061922,0.00072882,0.0020763,9.7283,0.0029991,0.0049298,4.6384e-09,0.14,0.2,0
0.0090857,0.0049004,0.0060731,0.00074852,0.0020465,0.00085805,0,0,0.062815,-0.020248,0,0.026771,0,0,0,0.006208,0.00061367,0.0020465,8.932,0.002956,0.0050333,4.8038e-09,0.16,0.2,0
0.010351,0.0053335,0.0060988,0.00063864,0.0020212,0.00080852,0,0,0.06361,-0.021568,0,0.025226,0,0,0,0.006216,0.00052143,0.0020212,8.2485,0.0029195,0.0051124,4.9239e-09,0.18,0.2,0
0.01163,0.0057152,0.006114,0.00055477,0.0020006,0.00076311,0,0,0.064168,-0.022555,0,0.023809,0,0,0,0.0062168,0.00045192,0.0020006,7.6758,0.0028898,0.0051676,5.0005e-09,0.2,0.2,0
0.012918,0.0060434,0.0061193,0.00049611,0.0019846,0.00072285,0,0,0.064501,-0.023221,0,0.022553,0,0,0,0.0062107,0.00040468,0.0019846,7.2091,0.0028667,0.0051993,5.0352e-09,0.22,0.2,0
0.01421,0.0063164,0.006115,0.0004616,0.001973,0.00068811,0,0,0.064615,-0.023577,0,0.021469,0,0,0,0.0061975,0.00037905,0.001973,6.8408,0.0028498,0.0052078,5.0289e-09,0.24,0.2,0
0.015503,0.0065319,0.0061006,0.00044994,0.0019652,0.0006586,0,0,0.064513,-0.023637,0,0.020548,0,0,0,0.0061763,0.00037419,0.0019652,6.5608,0.0028386,0.0051928,4.9813e-09,0.26,0.2,0
0.016791,0.0066871,0.0060752,0.00045939,0.0019604,0.00063334,0,0,0.064191,-0.023415,0,0.01976,0,0,0,0.0061457,0.00038885,0.0019604,6.3554,0.0028316,0.005154,4.8906e-09,0.28,0.2,0
0.01807,0.0067778,0.0060366,0.00048738,0.0019572,0.00061046,0,0,0.063639,-0.022929,0,0.019047,0,0,0,0.0061029,0.00042101,0.0019572,6.2042,0.002827,0.0050907,4.7538e-09,0.3,0.2,0
0.019336,0.006798,0.0059818,0.0005297,0.0019534,0.00058666,0,0,0.062842,-0.02221,0,0.018304,0,0,0,0.0060442,0.00046729,0.0019534,6.0725,0.0028216,0.0050022,4.5672e-09,0.32,0.2,0
0.020584,0.0067386,0.0059073,0.00057876,0.0019458,0.00055596,0,0,0.061799,-0.021326,0,0.017346,0,0,0,0.0059647,0.00052137,0.0019458,5.8935,0.0028106,0.0048893,4.3296e-09,0.34,0.2,0
0.021808,0.0065861,0.005817,0.00062158,0.0019316,0.00050787,0,0,0.060612,-0.020436,0,0.015846,0,0,0,0.0058661,0.0005724,0.0019316,5.5312,0.00279,0.0047619,4.0605e-09,0.36,0.2,0
0.023008,0.006321,0.0057378,0.00062567,0.001909,0.00043771,0,0,0.059729,-0.020021,0,0.013657,0,0,0,0.005775,0.00058846,0.001909,4.8586,0.0027575,0.0046685,3.8505e-09,0.38,0.2,0
0.024197,0.0059338,0.005643,0.00046913,0.0018337,0.00036066,0,0,0.059426,-0.021286,0,0.011253,0,0,0,0.005668,0.00044412,0.0018337,3.9684,0.0026486,0.0046863,3.7612e-09,0.4,0.2,0
0.025385,0.0054272,0.0056178,0.00020292,0.0017462,0.00037743,0,0,0.060396,-0.024075,0,0.011776,0,0,0,0.0056439,0.00017674,0.0017462,3.9681,0.0025223,0.0048757,3.94e-09,0.42,0.2,0
0.026613,0.004874,0.0054113,-0.00029458,0.001535,0.0004399,0,0,0.06047,-0.028542,0,0.013725,0,0,0,0.005445,-0.0003283,0.001535,4.3828,0.0022172,0.0051034,3.8865e-09,0.44,0.2,0
0.027804,0.0042701,0.005777,-0.00035757,0.0016258,0.00077383,0,0,0.064758,-0.030941,0,0.024144,0,0,0,0.0058731,-0.00045367,0.0016258,7.0797,0.0023484,0.0055853,4.9483e-09,0.46,0.2,0
0.029204,0.0037418,0.0076338,-0.00039417,0.0021719,0.00082916,0,0,0.030013,-0.0132,0,0.013054,0,0,0,0.0077303,-0.00049066,0.0021719,6.8181,0.0031372,0.0072656,1.6461e-08,0.48,0.2,0
0.029404,0.0037614,0.0039911,-0.0011308,0.00085809,0.00032002,0,0,0.0086723,-0.0054475,0,0.0043977,0,0,0,0.0040276,-0.0011673,0.00085809,7.5991,0.0012395,0.0045352,5.0192e-09,0.5,0.2,0
0.029523,0.0037606,0.0070229,-0.00010917,0.0020741,0.00043723,0,0,0.0064335,-0.0028383,0,0.0011368,0,0,0,0.0070496,-0.00013587,0.0020741,3.495,0.002996,0.0063746,8.1145e-09,0.52,0.2,0
0.029662,0.0037705,0.0081492,0.00027441,0.0025271,0.00031445,0,0,0.0073088,-0.0029285,0,0.00081757,0,0,0,0.0081618,0.00026188,0.0025271,2.283,0.0036502,0.0070459,1.1904e-08,0.54,0.2,0
0.029815,0.0037988,0.0088289,0.00049824,0.0027982,0.00021244,0,0,0.00784,-0.0029899,0,0.00055234,0,0,0,0.0088343,0.00049283,0.0027982,1.4598,0.0040418,0.0074609,1.4666e-08,0.56,0.2,0
0.029975,0.0038383,0.009054,0.00056331,0.0028852,6.3991e-05,0,0,0.0080194,-0.0030184,0,0.00016638,0,0,0,0.0090545,0.00056283,0.0028852,0.43178,0.0041675,0.0076014,1.5662e-08,0.58,0.2,0
0.030136,0.0038885,0.009044,0.00055371,0.0028793,-8.3056e-05,0,0,0.0080141,-0.0030233,0,-0.00021595,0,0,0,0.0090449,0.00055289,0.0028793,-0.56042,0.004159,0.0076006,1.5633e-08,0.6,0.2,0
0.030296,0.0039494,0.0087981,0.0004678,0.0027798,-0.00023036,0,0,0.0078238,-0.0030056,0,-0.00059892,0,0,0,0.0088045,0.00046144,0.0027798,-1.5828,0.0040152,0.0074591,1.4579e-08,0.62,0.2,0
0.030449,0.0040219,0.0080916,0.0002155,0.0024921,-0.00032758,0,0,0.0072793,-0.0029596,0,-0.00085171,0,0,0,0.0081052,0.0002019,0.0024921,-2.3776,0.0035998,0.0070432,1.1757e-08,0.64,0.2,0
0.030587,0.0041136,0.0069475,-0.00020431,0.002023,-0.00044966,0,0,0.0064019,-0.0028954,0,-0.0011691,0,0,0,0.0069757,-0.00023247,0.002023,-3.5836,0.002922,0.0063865,7.9715e-09,0.66,0.2,0
0.030705,0.0042165,0.0039233,-0.0012605,0.00079884,-0.0003265,0,0,0.0086559,-0.0056626,0,-0.0044672,0,0,0,0.0039605,-0.0012977,0.00079884,-7.6077,0.0011539,0.0045848,4.7903e-09,0.68,0.2,0
0.030906,0.0043006,0.0075115,-0.00066484,0.002054,-0.00079051,0,0,0.030008,-0.014019,0,-0.012355,0,0,0,0.0075974,-0.00075065,0.002054,-6.3807,0.0029669,0.0073585,1.6076e-08,0.7,0.2,0
0.032305,0.0049774,0.0056959,-0.00059344,0.0015307,-0.00069992,0,0,0.064976,-0.033137,0,-0.021837,0,0,0,0.0057728,-0.00067039,0.0015307,-6.274,0.002211,0.0056725,4.8412e-09,0.72,0.2,0
0.033505,0.0057448,0.005341,-0.00053502,0.0014418,-0.0003354,0,0,0.060828,-0.030838,0,-0.010464,0,0,0,0.0053601,-0.0005541,0.0014418,-3.2563,0.0020826,0.0052113,3.8396e-09,0.74,0.2,0
0.034738,0.0064884,0.0055324,-5.5811e-05,0.001643,-0.00022679,0,0,0.060675,-0.026501,0,-0.0070758,0,0,0,0.0055416,-6.5e-05,0.001643,-2.3202,0.0023732,0.0049774,3.9112e-09,0.76,0.2,0
0.035932,0.0072083,0.0055521,0.00021749,0.0017309,-0.00017065,0,0,0.059611,-0.023609,0,-0.0053243,0,0,0,0.0055576,0.00021204,0.0017309,-1.8304,0.0025002,0.004771,3.7314e-09,0.78,0.2,0
0.037123,0.0078293,0.0056366,0.00037669,0.001804,-0.00021219,0,0,0.059789,-0.022266,0,-0.0066204,0,0,0,0.0056452,0.00036815,0.001804,-2.3064,0.0026058,0.0047256,3.7808e-09,0.8,0.2,0
0.038323,0.0083444,0.0057099,0.00036847,0.0018235,-0.00025117,0,0,0.060628,-0.022699,0,-0.0078366,0,0,0,0.0057217,0.00035669,0.0018235,-2.6863,0.002634,0.0048027,3.9514e-09,0.82,0.2,0
0.039548,0.0087609,0.0057982,0.00030864,0.001832,-0.00026726,0,0,0.061872,-0.023765,0,-0.0083386,0,0,0,0.0058112,0.00029566,0.001832,-2.7807,0.0026463,0.0049302,4.2e-09,0.84,0.2,0
0.040798,0.0090971,0.0058753,0.00023019,0.0018317,-0.00026177,0,0,0.063081,-0.024983,0,-0.0081673,0,0,0,0.0058875,0.00021808,0.0018317,-2.6493,0.0026457,0.0050594,4.4421e-09,0.86,0.2,0
0.042071,0.0093671,0.0059363,0.00014649,0.0018248,-0.00024229,0,0,0.064139,-0.026182,0,-0.0075594,0,0,0,0.0059464,0.00013637,0.0018248,-2.3921,0.0026359,0.0051766,4.6532e-09,0.88,0.2,0
0.043364,0.0095813,0.0059836,6.7007e-05,0.0018152,-0.00021315,0,0,0.065027,-0.027271,0,-0.0066502,0,0,0,0.0059913,5.9339e-05,0.0018152,-2.0605,0.0026219,0.0052778,4.8297e-09,0.9,0.2,0
0.044672,0.0097473,0.0060194,-2.4849e-06,0.0018051,-0.00017712,0,0,0.065744,-0.028198,0,-0.0055261,0,0,0,0.0060246,-7.6898e-06,0.0018051,-1.6833,0.0026073,0.0053609,4.9709e-09,0.92,0.2,0
0.045993,0.0098711,0.0060455,-5.8561e-05,0.0017961,-0.00013632,0,0,0.066291,-0.028932,0,-0.0042531,0,0,0,0.0060485,-6.1603e-05,0.0017961,-1.2787,0.0025944,0.0054253,5.0778e-09,0.94,0.2,0
0.047324,0.0099568,0.0060631,-9.9413e-05,0.0017891,-9.2395e-05,0,0,0.066675,-0.029461,0,-0.0028827,0,0,0,0.0060645,-0.0001008,0.0017891,-0.85878,0.0025843,0.0054709,5.1521e-09,0.96,0.2,0
0.048661,0.010007,0.0060733,-0.00012417,0.0017847,-4.6624e-05,0,0,0.066902,-0.029779,0,-0.0014547,0,0,0,0.0060737,-0.00012452,0.0017847,-0.43101,0.002578,0.0054981,5.1958e-09,0.98,0.2,0
0.05,0.010024,0.0060766,-0.00013245,0.0017832,2.663e-05,0,0,0.066977,-0.029885,0,0.00083084,0,0,0,0.0060767,-0.00013256,0.0017832,0.24572,0.0025758,0.0055073,5.2105e-09,1,0.2,0
0,0,0.0056688,0.0024295,0.0024295,0.001044,0,0,0.050533,-4.3368e-19,0,0.032574,0,0,0,0.0059761,0.0021222,0.0024295,16.403,0.0035093,0.0037099,2.5618e-09,0,0.22,0
0.0010107,0.00065147,0.0056445,0.0021475,0.0023376,0.0010418,0,0,0.051587,-0.0029649,0,0.032504,0,0,0,0.0059313,0.0018607,0.0023376,15.394,0.0033765,0.0038544,2.7897e-09,0.02,0.22,0
0.0020635,0.0012828,0.0057373,0.0019177,0.0022965,0.001023,0,0,0.053677,-0.0059093,0,0.031919,0,0,0,0.0059941,0.001661,0.0022965,14.088,0.0033172,0.0040529,3.1376e-09,0.04,0.22,0
0.0031577,0.0018926,0.0058272,0.0016927,0.002256,0.0010009,0,0,0.055711,-0.0087866,0,0.031228,0,0,0,0.0060567,0.0014632,0.002256,12.918,0.0032586,0.0042529,3.4926e-09,0.06,0.22,0
0.0042919,0.0024781,0.0059121,0.0014773,0.0022168,0.00097323,0,0,0.057646,-0.011536,0,0.030365,0,0,0,0.0061163,0.0012732,0.0022168,11.848,0.0032021,0.004447,3.8401e-09,0.08,0.22,0
0.0054636,0.0030353,0.0059903,0.0012764,0.00218,0.00093975,0,0,0.059441,-0.014097,0,0.02932,0,0,0,0.0061707,0.0010959,0.00218,10.869,0.0031489,0.004629,4.1676e-09,0.1,0.22,0
0.0066695,0.0035599,0.0060604,0.001094,0.0021463,0.00090158,0,0,0.06106,-0.016417,0,0.028129,0,0,0,0.006219,0.00093536,0.0021463,9.9772,0.0031002,0.0047943,4.4656e-09,0.12,0.22,0
0.007906,0.0040481,0.0061215,0.00093312,0.0021164,0.00086064,0,0,0.06248,-0.018459,0,0.026852,0,0,0,0.0062606,0.00079408,0.0021164,9.1768,0.003057,0.0049399,4.728e-09,0.14,0.22,0
0.0091687,0.0044963,0.0061736,0.00079572,0.0020908,0.00081919,0,0,0.063692,-0.020203,0,0.025559,0,0,0,0.0062956,0.0006737,0.0020908,8.4716,0.00302,0.0050643,4.9519e-09,0.16,0.22,0
0.010454,0.0049018,0.0062169,0.00068268,0.0020699,0.00077933,0,0,0.064694,-0.02164,0,0.024315,0,0,0,0.0063246,0.00057503,0.0020699,7.8646,0.0029898,0.0051669,5.1365e-09,0.18,0.22,0
0.011756,0.0052622,0.0062519,0.00059428,0.0020539,0.0007428,0,0,0.06549,-0.02277,0,0.023175,0,0,0,0.0063478,0.00049838,0.0020539,7.3564,0.0029667,0.0052476,5.2821e-09,0.2,0.22,0
0.013073,0.0055755,0.0062792,0.00053034,0.0020429,0.00071086,0,0,0.066087,-0.023595,0,0.022179,0,0,0,0.0063658,0.00044374,0.0020429,6.9454,0.0029508,0.0053064,5.3898e-09,0.22,0.22,0
0.0144,0.0058396,0.0062993,0.00049042,0.0020369,0.00068422,0,0,0.066493,-0.024125,0,0.021348,0,0,0,0.0063788,0.00041091,0.0020369,6.628,0.0029422,0.0053437,5.4602e-09,0.24,0.22,0
0.015733,0.0060522,0.0063122,0.00047381,0.0020358,0.00066306,0,0,0.066712,-0.024367,0,0.020688,0,0,0,0.0063866,0.00039946,0.0020358,6.3985,0.0029406,0.0053597,5.4936e-09,0.26,0.22,0
0.017069,0.0062102,0.0063178,0.00047942,0.0020392,0.000647,0,0,0.066747,-0.024332,0,0.020186,0,0,0,0.0063887,0.00040858,0.0020392,6.2484,0.0029455,0.0053544,5.4891e-09,0.28,0.22,0
0.018403,0.006309,0.0063152,0.00050546,0.0020462,0.00063501,0,0,0.066596,-0.024036,0,0.019813,0,0,0,0.0063838,0.00043686,0.0020462,6.1656,0.0029556,0.0053278,5.4447e-09,0.3,0.22,0
0.019732,0.0063423,0.0063016,0.00054871,0.0020551,0.00062506,0,0,0.066246,-0.0235,0,0.019502,0,0,0,0.0063688,0.00048157,0.0020551,6.13,0.0029685,0.0052793,5.3553e-09,0.32,0.22,0
0.021053,0.0063,0.0062716,0.00060348,0.0020625,0.00061302,0,0,0.065661,-0.022761,0,0.019126,0,0,0,0.0063371,0.00053794,0.0020625,6.1027,0.0029792,0.0052071,5.2103e-09,0.34,0.22,0
0.022359,0.0061665,0.0062112,0.0006564,0.0020603,0.00058855,0,0,0.064755,-0.021901,0,0.018363,0,0,0,0.0062729,0.00059473,0.0020603,5.9821,0.002976,0.0051057,4.9845e-09,0.36,0.22,0
0.023643,0.0059147,0.0061346,0.00069643,0.0020493,0.00052375,0,0,0.063731,-0.021105,0,0.016341,0,0,0,0.0061846,0.00064645,0.0020493,5.4514,0.0029601,0.004987,4.7113e-09,0.38,0.22,0
0.024908,0.0054942,0.0061554,0.00064374,0.0020398,0.00043301,0,0,0.064205,-0.021778,0,0.01351,0,0,0,0.0061893,0.00060993,0.0020398,4.4648,0.0029463,0.0050195,4.7625e-09,0.4,0.22,0
0.026211,0.0049298,0.0059162,-1.877e-05,0.0017692,0.00036733,0,0,0.064693,-0.027893,0,0.011461,0,0,0,0.0059389,-4.1418e-05,0.0017692,3.5282,0.0025556,0.0053117,4.7904e-09,0.42,0.22,0
0.027496,0.0042394,0.0062808,-0.00031152,0.0017908,0.00068953,0,0,0.070044,-0.032796,0,0.021513,0,0,0,0.0063522,-0.00038287,0.0017908,5.9077,0.0025867,0.0059536,6.1707e-09,0.44,0.22,0
0.029013,0.0036347,0.008413,-0.00011113,0.0024906,0.00045122,0,0,0.03254,-0.013834,0,0.0105,0,0,0,0.0084579,-0.00015608,0.0024906,4.2923,0.0035975,0.0076425,2.0824e-08,0.46,0.22,0
0.02923,0.0036443,0.0046648,-0.00036525,0.0012898,-7.6618e-05,0,0,0.0093749,-0.0043875,0,0.00063945,0,0,0,0.0046689,-0.00036943,0.0012898,0.98539,0.0018631,0.0044474,7.1634e-09,0.48,0.22,0
0.029358,0.0036843,0.0070848,-0.0010095,0.0018226,-0.00030592,0,0,0.0068408,-0.0036817,0,-0.0007954,0,0,0,0.0070963,-0.0010211,0.0018226,-2.1614,0.0026326,0.0071341,9.1598e-09,0.5,0.22,0
0.029504,0.0037047,0.0078997,5.4454e-05,0.0023863,-0.00027532,0,0,0.0071675,-0.0030313,0,-0.00071584,0,0,0,0.0079094,4.4803e-05,0.0023863,-2.0074,0.0034468,0.0069942,1.1164e-08,0.52,0.22,0
0.029644,0.0037179,0.0079555,0.00046318,0.0025256,-0.00015675,0,0,0.0070589,-0.0026812,0,-0.00040754,0,0,0,0.0079588,0.0004599,0.0025256,-1.198,0.0036481,0.0067089,1.0696e-08,0.54,0.22,0
0.029787,0.0037442,0.0081489,0.00057861,0.0026183,-3.7749e-05,0,0,0.0071899,-0.0026515,0,-9.8148e-05,0,0,0,0.0081491,0.00057842,0.0026183,-0.28569,0.0037819,0.0067848,1.1288e-08,0.56,0.22,0
0.029932,0.003783,0.0083001,0.00064345,0.0026831,-2.4241e-06,0,0,0.0073021,-0.0026515,0,-6.3026e-06,0,0,0,0.0083001,0.00064344,0.0026831,-0.01814,0.0038755,0.0068679,1.1824e-08,0.58,0.22,0
0.030079,0.0038331,0.0082866,0.0006326,0.0026758,5.6826e-06,0,0,0.0072941,-0.0026561,0,1.4775e-05,0,0,0,0.0082866,0.0006326,0.0026758,0.042539,0.003865,0.0068644,1.1785e-08,0.6,0.22,0
0.030224,0.0038945,0.0081073,0.00054464,0.0025956,4.403e-05,0,0,0.0071652,-0.0026662,0,0.00011448,0,0,0,0.0081075,0.00054438,0.0025956,0.33357,0.0037492,0.0067746,1.1172e-08,0.62,0.22,0
0.030365,0.0039688,0.007888,0.00040272,0.0024872,0.00016814,0,0,0.007021,-0.0027098,0,0.00043717,0,0,0,0.0078918,0.00039895,0.0024872,1.2862,0.0035926,0.0066975,1.0524e-08,0.64,0.22,0
0.030505,0.0040565,0.0078039,-5.5101e-05,0.0023247,0.00029278,0,0,0.0071231,-0.0030937,0,0.00076123,0,0,0,0.0078148,-6.5993e-05,0.0023247,2.1306,0.0033578,0.0069987,1.0932e-08,0.66,0.22,0
0.03065,0.0041373,0.0069748,-0.0011798,0.0017385,0.00031203,0,0,0.0068071,-0.0037937,0,0.00081127,0,0,0,0.0069867,-0.0011917,0.0017385,2.1881,0.0025112,0.0071769,8.8783e-09,0.68,0.22,0
0.030777,0.0041973,0.0045893,-0.00051075,0.0012236,8.5176e-05,0,0,0.0093523,-0.0046209,0,-0.00058075,0,0,0,0.0045937,-0.00051508,0.0012236,-0.85203,0.0017674,0.0044989,6.9946e-09,0.7,0.22,0
0.030994,0.0042912,0.0082436,-0.00047801,0.0023297,-0.00037896,0,0,0.032535,-0.014936,0,-0.0093195,0,0,0,0.008278,-0.00051241,0.0023297,-3.6518,0.0033651,0.0077696,2.0348e-08,0.72,0.22,0
0.032512,0.0050615,0.0061742,-0.00062802,0.0016638,-0.00057682,0,0,0.070361,-0.035753,0,-0.017997,0,0,0,0.0062228,-0.00067659,0.0016638,-4.8129,0.0024033,0.0060771,6.0316e-09,0.74,0.22,0
0.033808,0.0059373,0.0058315,-0.00031869,0.0016538,-0.00021349,0,0,0.065171,-0.030772,0,-0.0066609,0,0,0,0.0058389,-0.00032609,0.0016538,-1.9857,0.0023889,0.0054517,4.7737e-09,0.76,0.22,0
0.035119,0.0067183,0.0060605,0.00035291,0.001924,-0.00023168,0,0,0.064529,-0.024509,0,-0.0072285,0,0,0,0.0060698,0.00034352,0.001924,-2.3207,0.0027791,0.0051223,4.7521e-09,0.78,0.22,0
0.03639,0.0073744,0.0060403,0.00042233,0.0019388,-0.00029346,0,0,0.063984,-0.023657,0,-0.0091559,0,0,0,0.0060556,0.00040705,0.0019388,-2.9821,0.0028005,0.0050597,4.6548e-09,0.8,0.22,0
0.037678,0.0078758,0.0061168,0.00037647,0.001948,-0.00033277,0,0,0.065033,-0.024515,0,-0.010382,0,0,0,0.006136,0.00035724,0.001948,-3.3067,0.0028137,0.0051703,4.899e-09,0.82,0.22,0
0.038991,0.0082689,0.0061871,0.00030423,0.0019474,-0.00033164,0,0,0.066139,-0.025633,0,-0.010347,0,0,0,0.0062057,0.00028559,0.0019474,-3.2164,0.0028129,0.0052888,5.1458e-09,0.84,0.22,0
0.040324,0.0085801,0.0062324,0.00021271,0.0019335,-0.00031245,0,0,0.067063,-0.026845,0,-0.0097485,0,0,0,0.0062486,0.00019653,0.0019335,-2.9633,0.0027929,0.0053974,5.3461e-09,0.86,0.22,0
0.041674,0.0088258,0.006266,0.00011843,0.0019153,-0.00028236,0,0,0.067871,-0.028032,0,-0.0088096,0,0,0,0.006279,0.00010549,0.0019153,-2.6242,0.0027666,0.0054968,5.5168e-09,0.88,0.22,0
0.043038,0.0090181,0.0062919,3.0912e-05,0.0018969,-0.00024404,0,0,0.068563,-0.029109,0,-0.007614,0,0,0,0.0063014,2.1415e-05,0.0018969,-2.2287,0.0027399,0.0055837,5.6594e-09,0.9,0.22,0
0.044416,0.0091656,0.0063116,-4.3964e-05,0.0018803,-0.00019994,0,0,0.069128,-0.030018,0,-0.0062383,0,0,0,0.0063179,-5.0248e-05,0.0018803,-1.8001,0.002716,0.0056556,5.7732e-09,0.92,0.22,0
0.045804,0.0092747,0.0063257,-0.00010341,0.0018667,-0.00015218,0,0,0.06956,-0.030733,0,-0.0047479,0,0,0,0.0063293,-0.00010701,0.0018667,-1.3552,0.0026963,0.0057112,5.8584e-09,0.94,0.22,0
0.047198,0.0093499,0.006335,-0.00014621,0.0018566,-0.00010231,0,0,0.069862,-0.031244,0,-0.0031921,0,0,0,0.0063366,-0.00014783,0.0018566,-0.90417,0.0026818,0.0057504,5.9168e-09,0.96,0.22,0
0.048598,0.009394,0.0063402,-0.00017195,0.0018505,-5.1374e-05,0,0,0.07004,-0.03155,0,-0.0016029,0,0,0,0.0063406,-0.00017236,0.0018505,-0.45197,0.0026729,0.0057737,5.9508e-09,0.98,0.22,0
0.05,0.0094085,0.0063418,-0.00018054,0.0018484,2.3265e-05,0,0,0.070098,-0.031651,0,0.00072588,0,0,0,0.0063419,-0.00018062,0.0018484,0.20437,0.0026699,0.0057815,5.9621e-09,1,0.22,0
0,0,0.0057179,0.0024505,0.0024505,0.00094833,0,0,0.050971,0,0,0.029588,0,0,0,0.0059731,0.0021952,0.0024505,15.067,0.0035396,0.003657,2.4706e-09,0,0.24,0
0.0010194,0.00059176,0.0056927,0.0021642,0.0023571,0.00094651,0,0,0.052036,-0.0030092,0,0.029531,0,0,0,0.0059306,0.0019263,0.0023571,14.107,0.0034046,0.0038072,2.7123e-09,0.02,0.24,0
0.0020814,0.0011643,0.0057876,0.001936,0.0023171,0.00092964,0,0,0.05414,-0.005945,0,0.029005,0,0,0,0.0060002,0.0017233,0.0023171,12.884,0.0033469,0.0040131,3.0759e-09,0.04,0.24,0
0.003185,0.0017171,0.0058799,0.0017155,0.0022786,0.00091095,0,0,0.05618,-0.0087841,0,0.028422,0,0,0,0.0060704,0.001525,0.0022786,11.815,0.0032913,0.0042194,3.4469e-09,0.06,0.24,0
0.0043286,0.0022482,0.0059685,0.0015058,0.0022423,0.0008885,0,0,0.058129,-0.01149,0,0.027721,0,0,0,0.0061389,0.0013354,0.0022423,10.856,0.0032389,0.0044204,3.8143e-09,0.08,0.24,0
0.0055102,0.0027545,0.0060524,0.00131,0.0022087,0.00086173,0,0,0.059961,-0.01402,0,0.026886,0,0,0,0.0062041,0.0011582,0.0022087,9.986,0.0031903,0.0046112,4.1684e-09,0.1,0.24,0
0.0067271,0.0032327,0.0061305,0.0011312,0.0021785,0.00083121,0,0,0.061651,-0.016338,0,0.025934,0,0,0,0.0062651,0.00099663,0.0021785,9.1968,0.0031467,0.0047882,4.5011e-09,0.12,0.24,0
0.0079762,0.0036797,0.0062023,0.00097199,0.0021523,0.00079828,0,0,0.063181,-0.018413,0,0.024907,0,0,0,0.0063215,0.00085286,0.0021523,8.4874,0.0031089,0.0049485,4.807e-09,0.14,0.24,0
0.0092543,0.0040923,0.0062678,0.00083412,0.0021306,0.00076466,0,0,0.064541,-0.020225,0,0.023857,0,0,0,0.0063733,0.00072856,0.0021306,7.8597,0.0030775,0.0050907,5.0829e-09,0.16,0.24,0
0.010558,0.0044679,0.006327,0.00071877,0.0021138,0.0007321,0,0,0.065728,-0.021762,0,0.022842,0,0,0,0.006421,0.00062477,0.0021138,7.3161,0.0030532,0.0052138,5.3273e-09,0.18,0.24,0
0.011883,0.0048044,0.0063807,0.00062662,0.0021022,0.0007022,0,0,0.066744,-0.023019,0,0.021909,0,0,0,0.0064651,0.00054217,0.0021022,6.858,0.0030365,0.0053174,5.5402e-09,0.2,0.24,0
0.013228,0.0050996,0.0064294,0.00055802,0.0020962,0.00067617,0,0,0.067597,-0.023996,0,0.021097,0,0,0,0.0065062,0.00048115,0.0020962,6.4854,0.0030279,0.0054018,5.7223e-09,0.22,0.24,0
0.014587,0.0053514,0.006474,0.00051307,0.0020961,0.0006548,0,0,0.068295,-0.024696,0,0.02043,0,0,0,0.0065451,0.00044199,0.0020961,6.1955,0.0030277,0.0054671,5.8748e-09,0.24,0.24,0
0.015959,0.0055572,0.0065156,0.00049169,0.0021022,0.00063834,0,0,0.068849,-0.025124,0,0.019916,0,0,0,0.0065825,0.00042479,0.0021022,5.983,0.0030365,0.0055138,5.9995e-09,0.26,0.24,0
0.017341,0.0057138,0.0065555,0.0004935,0.0021147,0.00062646,0,0,0.069277,-0.025291,0,0.019546,0,0,0,0.0066196,0.00042944,0.0021147,5.8388,0.0030546,0.0055431,6.0987e-09,0.28,0.24,0
0.018731,0.0058164,0.0065955,0.0005176,0.0021339,0.00061821,0,0,0.0696,-0.025215,0,0.019288,0,0,0,0.0066577,0.00045536,0.0021339,5.7494,0.0030823,0.0055566,6.1764e-09,0.3,0.24,0
0.020125,0.005858,0.0066377,0.0005622,0.00216,0.00061202,0,0,0.069853,-0.024925,0,0.019095,0,0,0,0.0066987,0.00050116,0.00216,5.6955,0.00312,0.0055571,6.2383e-09,0.32,0.24,0
0.021525,0.0058281,0.0066835,0.00062328,0.002192,0.00060525,0,0,0.070067,-0.024472,0,0.018884,0,0,0,0.0067433,0.00056342,0.002192,5.648,0.0031662,0.0055479,6.2892e-09,0.34,0.24,0
0.022928,0.00571,0.0067295,0.00069343,0.0022269,0.00059423,0,0,0.070241,-0.023922,0,0.01854,0,0,0,0.0067875,0.00063549,0.0022269,5.5693,0.0032166,0.0055307,6.3249e-09,0.36,0.24,0
0.024334,0.0054768,0.0067104,0.00072918,0.0022319,0.00055884,0,0,0.069865,-0.023442,0,0.017436,0,0,0,0.0067622,0.00067742,0.0022319,5.2923,0.0032238,0.0054756,6.1969e-09,0.38,0.24,0
0.025722,0.0050627,0.0066438,0.00073604,0.002214,0.00043182,0,0,0.069106,-0.023056,0,0.013473,0,0,0,0.0066752,0.00070464,0.002214,4.1585,0.0031979,0.0053772,5.9151e-09,0.4,0.24,0
0.027099,0.0043114,0.0069858,2.7321e-05,0.0021039,0.00057573,0,0,0.076157,-0.032395,0,0.017963,0,0,0,0.0070331,-1.9992e-05,0.0021039,4.6979,0.003039,0.0062671,7.9215e-09,0.42,0.24,0
0.028769,0.0035622,0.0094964,-9.4052e-05,0.0028207,0.00011752,0,0,0.036088,-0.014983,0,0.0081831,0,0,0,0.0095279,-0.00012549,0.0028207,2.2273,0.0040744,0.0085692,3.0378e-08,0.44,0.24,0
0.029016,0.0035374,0.0053505,-7.8415e-05,0.0015816,-0.00031357,0,0,0.010571,-0.0043875,0,-0.0013047,0,0,0,0.005369,-9.6901e-05,0.0015816,-2.6194,0.0022846,0.0048498,1.0269e-08,0.46,0.24,0
0.029156,0.0035761,0.0079496,-0.00039907,0.0022652,-0.00042908,0,0,0.0073898,-0.0034635,0,-0.0011156,0,0,0,0.0079716,-0.00042106,0.0022652,-2.9344,0.0032719,0.0074235,1.2115e-08,0.48,0.24,0
0.029312,0.0036141,0.0082043,-0.00042595,0.0023335,-0.00028616,0,0,0.0076321,-0.0035873,0,-0.00074401,0,0,0,0.0082138,-0.00043543,0.0023335,-1.897,0.0033706,0.0076503,1.3255e-08,0.5,0.24,0
0.029461,0.0036393,0.0080035,-0.00016284,0.0023522,-0.00037568,0,0,0.0073466,-0.0032695,0,-0.00097676,0,0,0,0.0080207,-0.00018008,0.0023522,-2.6284,0.0033976,0.0072731,1.1989e-08,0.52,0.24,0
0.029606,0.0036633,0.0079868,0.00033218,0.0024957,-0.00029132,0,0,0.0071385,-0.0028126,0,-0.00075744,0,0,0,0.0079979,0.00032111,0.0024957,-2.1764,0.0036049,0.0068533,1.1094e-08,0.54,0.24,0
0.029746,0.0036928,0.007933,0.00054866,0.0025445,-0.00015976,0,0,0.007005,-0.0025946,0,-0.00041537,0,0,0,0.0079364,0.0005452,0.0025445,-1.2388,0.0036754,0.0066219,1.0458e-08,0.56,0.24,0
0.029886,0.0037323,0.0079304,0.00062432,0.0025664,-3.9455e-05,0,0,0.0069732,-0.0025247,0,-0.00010258,0,0,0,0.0079306,0.00062411,0.0025664,-0.3094,0.003707,0.0065548,1.0298e-08,0.58,0.24,0
0.030025,0.0037823,0.0079173,0.00061147,0.0025586,6.7864e-05,0,0,0.0069662,-0.0025313,0,0.00017645,0,0,0,0.0079179,0.00061084,0.0025586,0.53217,0.0036958,0.006554,1.027e-08,0.6,0.24,0
0.030165,0.0038428,0.0078935,0.00050944,0.0025209,0.00019279,0,0,0.0069844,-0.0026149,0,0.00050125,0,0,0,0.0078985,0.00050442,0.0025209,1.4946,0.0036413,0.0066203,1.0374e-08,0.62,0.24,0
0.030305,0.0039135,0.0079193,0.00026166,0.0024543,0.00033169,0,0,0.0071045,-0.0028504,0,0.0008624,0,0,0,0.0079336,0.00024732,0.0024543,2.4756,0.0035451,0.0068547,1.0946e-08,0.64,0.24,0
0.030449,0.0039898,0.007909,-0.00027272,0.0022909,0.00041881,0,0,0.0073035,-0.0033327,0,0.0010889,0,0,0,0.0079304,-0.0002941,0.0022909,2.9227,0.0033091,0.0072845,1.1755e-08,0.66,0.24,0
0.030597,0.0040648,0.0080763,-0.00059448,0.0022446,0.00032499,0,0,0.0075813,-0.0036907,0,0.00084497,0,0,0,0.0080885,-0.00060664,0.0022446,2.1435,0.0032421,0.0076774,1.2902e-08,0.68,0.24,0
0.030752,0.0041266,0.007823,-0.00060939,0.0021641,0.00044363,0,0,0.0073566,-0.0036055,0,0.0011534,0,0,0,0.0078463,-0.00063266,0.0021641,3.0033,0.0031259,0.0074833,1.1832e-08,0.7,0.24,0
0.030891,0.0041862,0.005267,-0.00027017,0.0014991,0.00033217,0,0,0.010575,-0.0047053,0,0.0014479,0,0,0,0.0052873,-0.00029038,0.0014991,2.8206,0.0021653,0.0049328,1.0146e-08,0.72,0.24,0
0.031139,0.0043147,0.0092957,-0.00059858,0.0026091,-5.4184e-06,0,0,0.036194,-0.016511,0,-0.0064119,0,0,0,0.0093202,-0.00062312,0.0026091,-1.402,0.0037687,0.0087855,2.9907e-08,0.74,0.24,0
0.032815,0.0052576,0.0068564,-0.00038387,0.0019417,-0.00040968,0,0,0.076668,-0.03628,0,-0.012782,0,0,0,0.0068795,-0.00040698,0.0019417,-3.2283,0.0028047,0.0064417,7.8308e-09,0.76,0.24,0
0.034205,0.0062279,0.0065613,0.00043755,0.0020997,-0.00022902,0,0,0.069602,-0.025929,0,-0.0071455,0,0,0,0.0065698,0.000429,0.0020997,-2.1388,0.0030328,0.0054993,5.959e-09,0.78,0.24,0
0.035599,0.006883,0.0066125,0.00042917,0.0021125,-0.00033076,0,0,0.0702,-0.02626,0,-0.01032,0,0,0,0.0066301,0.00041153,0.0021125,-3.0532,0.0030514,0.0055666,6.1501e-09,0.8,0.24,0
0.037013,0.0073638,0.0066502,0.00039602,0.0021139,-0.00035098,0,0,0.070767,-0.026798,0,-0.010951,0,0,0,0.0066698,0.00037639,0.0021139,-3.202,0.0030534,0.0056295,6.3065e-09,0.82,0.24,0
0.03843,0.0077356,0.0066264,0.00030249,0.0020787,-0.00034462,0,0,0.070944,-0.027708,0,-0.010752,0,0,0,0.0066451,0.00028376,0.0020787,-3.1101,0.0030025,0.0056807,6.3436e-09,0.84,0.24,0
0.039851,0.0080233,0.0066101,0.00019361,0.0020411,-0.00032678,0,0,0.071276,-0.028821,0,-0.010196,0,0,0,0.0066267,0.00017701,0.0020411,-2.908,0.0029483,0.005749,6.4119e-09,0.86,0.24,0
0.041281,0.0082459,0.0066029,8.5327e-05,0.0020065,-0.00029578,0,0,0.071704,-0.02997,0,-0.0092284,0,0,0,0.0066163,7.1931e-05,0.0020065,-2.5931,0.0028982,0.0058233,6.4974e-09,0.88,0.24,0
0.042719,0.0084169,0.0066009,-1.0767e-05,0.001977,-0.00025472,0,0,0.072132,-0.031009,0,-0.0079473,0,0,0,0.0066107,-2.0566e-05,0.001977,-2.2031,0.0028557,0.0058921,6.5799e-09,0.9,0.24,0
0.044166,0.0085466,0.0066,-9.0462e-05,0.0019528,-0.00020737,0,0,0.072495,-0.031876,0,-0.0064699,0,0,0,0.0066064,-9.6883e-05,0.0019528,-1.7736,0.0028208,0.0059494,6.6468e-09,0.92,0.24,0
0.045619,0.0086418,0.0065988,-0.00015235,0.001934,-0.00015679,0,0,0.072772,-0.032546,0,-0.0048918,0,0,0,0.0066025,-0.00015599,0.001934,-1.3297,0.0027935,0.0059933,6.6954e-09,0.94,0.24,0
0.047077,0.008707,0.0065976,-0.00019626,0.0019204,-0.00010484,0,0,0.072964,-0.03302,0,-0.0032711,0,0,0,0.0065992,-0.00019788,0.0019204,-0.88392,0.0027739,0.006024,6.7274e-09,0.96,0.24,0
0.048538,0.0087452,0.0065965,-0.00022243,0.0019122,-5.2463e-05,0,0,0.073075,-0.033301,0,-0.0016369,0,0,0,0.0065969,-0.00022283,0.0019122,-0.44078,0.0027621,0.0060421,6.7452e-09,0.98,0.24,0
0.05,0.0087577,0.0065961,-0.00023112,0.0019095,2.0117e-05,0,0,0.073111,-0.033394,0,0.00062766,0,0,0,0.0065962,-0.00023118,0.0019095,0.16883,0.0027582,0.0060482,6.7512e-09,1,0.24,0
0,0,0.0057637,0.0024702,0.0024702,0.00085114,0,0,0.051379,-2.1684e-19,0,0.026555,0,0,0,0.0059707,0.0022632,0.0024702,13.666,0.003568,0.0036084,2.3864e-09,0,0.26,0
0.0010276,0.00053111,0.0057378,0.0021794,0.0023752,0.00084954,0,0,0.052457,-0.0030537,0,0.026506,0,0,0,0.0059302,0.001987,0.0023752,12.762,0.0034308,0.0037642,2.6413e-09,0.02,0.26,0
0.0020983,0.001045,0.0058346,0.0019519,0.0023359,0.00083463,0,0,0.054579,-0.0059916,0,0.026041,0,0,0,0.0060064,0.0017801,0.0023359,11.632,0.0033741,0.0039777,3.0205e-09,0.04,0.26,0
0.0032108,0.0015413,0.0059291,0.0017345,0.0022991,0.00081861,0,0,0.056628,-0.0088074,0,0.025541,0,0,0,0.0060832,0.0015804,0.0022991,10.661,0.0033209,0.0041899,3.4062e-09,0.06,0.26,0
0.0043634,0.0020186,0.0060209,0.0015289,0.0022649,0.0007998,0,0,0.058593,-0.011482,0,0.024954,0,0,0,0.006159,0.0013908,0.0022649,9.8005,0.0032716,0.0043969,3.7905e-09,0.08,0.26,0
0.0055545,0.0024745,0.0061094,0.0013372,0.002234,0.0007776,0,0,0.060457,-0.01399,0,0.024261,0,0,0,0.006233,0.0012137,0.002234,9.025,0.0032269,0.0045949,4.1662e-09,0.1,0.26,0
0.0067817,0.0029064,0.0061943,0.0011616,0.0022068,0.00075227,0,0,0.062206,-0.016305,0,0.023471,0,0,0,0.0063044,0.0010516,0.0022068,8.3221,0.0031876,0.0047811,4.5274e-09,0.12,0.26,0
0.0080427,0.0033116,0.0062752,0.001004,0.0021838,0.00072477,0,0,0.063827,-0.018404,0,0.022613,0,0,0,0.0063731,0.00090619,0.0021838,7.6879,0.0031544,0.0049532,4.8696e-09,0.14,0.26,0
0.0093348,0.0036873,0.0063522,0.00086613,0.0021655,0.0006964,0,0,0.065312,-0.02027,0,0.021728,0,0,0,0.0064392,0.00077911,0.0021655,7.1226,0.0031279,0.00511,5.1902e-09,0.16,0.26,0
0.010655,0.0040313,0.0064255,0.00074915,0.0021524,0.0006686,0,0,0.066661,-0.021891,0,0.02086,0,0,0,0.0065032,0.00067147,0.0021524,6.6278,0.003109,0.0052503,5.4877e-09,0.18,0.26,0
0.012001,0.0043414,0.0064959,0.00065406,0.002145,0.00064272,0,0,0.067874,-0.023258,0,0.020053,0,0,0,0.0065658,0.00058418,0.002145,6.2049,0.0030983,0.0053739,5.7623e-09,0.2,0.26,0
0.01337,0.0046156,0.0065641,0.00058162,0.0021437,0.00061981,0,0,0.068959,-0.024369,0,0.019338,0,0,0,0.0066277,0.00051808,0.0021437,5.8532,0.0030965,0.0054807,6.0148e-09,0.22,0.26,0
0.01476,0.0048518,0.0066316,0.00053249,0.0021492,0.00060045,0,0,0.069925,-0.025221,0,0.018734,0,0,0,0.0066901,0.00047394,0.0021492,5.5695,0.0031044,0.0055708,6.2469e-09,0.24,0.26,0
0.016167,0.0050472,0.0066999,0.00050733,0.0021622,0.00058455,0,0,0.070788,-0.025815,0,0.018238,0,0,0,0.0067546,0.00045264,0.0021622,5.3455,0.0031231,0.0056448,6.4615e-09,0.26,0.26,0
0.017591,0.0051985,0.0067717,0.00050673,0.0021835,0.00057112,0,0,0.071576,-0.026158,0,0.017819,0,0,0,0.0068233,0.00045509,0.0021835,5.1664,0.003154,0.005704,6.6637e-09,0.28,0.26,0
0.01903,0.0053004,0.0068515,0.00053117,0.0022148,0.00055798,0,0,0.072333,-0.026265,0,0.017409,0,0,0,0.0069004,0.00048228,0.0022148,5.0067,0.0031992,0.005751,6.8633e-09,0.3,0.26,0
0.020484,0.0053453,0.0069474,0.000581,0.0022585,0.00054125,0,0,0.073146,-0.026169,0,0.016887,0,0,0,0.006993,0.00053531,0.0022585,4.825,0.0032623,0.0057917,7.0807e-09,0.32,0.26,0
0.021956,0.0053211,0.007075,0.00065724,0.0023197,0.00051486,0,0,0.074183,-0.025934,0,0.016064,0,0,0,0.007116,0.0006162,0.0023197,4.5576,0.0033506,0.0058376,7.36e-09,0.34,0.26,0
0.023452,0.0052096,0.007268,0.00076397,0.0024096,0.00046591,0,0,0.075791,-0.025672,0,0.014536,0,0,0,0.0073012,0.00073077,0.0024096,4.0766,0.0034805,0.0059126,7.8011e-09,0.36,0.26,0
0.024988,0.004977,0.0076371,0.00093665,0.0025721,0.00037717,0,0,0.079014,-0.025513,0,0.011768,0,0,0,0.0076583,0.00091549,0.0025721,3.2117,0.0037153,0.006086,8.7503e-09,0.38,0.26,0
0.026612,0.0045719,0.0084158,0.0012479,0.0028991,1.2312e-05,0,0,0.08606,-0.025759,0,0.00038414,0,0,0,0.0084158,0.0012479,0.0028991,0.098414,0.0041876,0.0065016,1.1105e-08,0.4,0.26,0
0.02843,0.003634,0.012283,-0.00068092,0.0034807,0.00044756,0,0,0.041867,-0.017088,0,0.0073617,0,0,0,0.012304,-0.00070211,0.0034807,2.7532,0.0050276,0.011504,7.911e-08,0.42,0.26,0
0.028777,0.0034513,0.0072724,0.00065593,0.0023785,-0.00062159,0,0,0.014316,-0.00478,0,-0.0056112,0,0,0,0.0073373,0.00059103,0.0023785,-7.5362,0.0034356,0.0060539,2.2429e-08,0.44,0.26,0
0.028942,0.0034687,0.0091837,0.00015063,0.0028003,-0.000354,0,0,0.0082985,-0.0034446,0,-0.00092039,0,0,0,0.0091976,0.00013678,0.0028003,-2.2408,0.0040449,0.0080659,1.7378e-08,0.46,0.26,0
0.029109,0.0035057,0.0087973,-0.00016605,0.0025894,-6.7065e-05,0,0,0.0080703,-0.0035821,0,-0.00017437,0,0,0,0.0087978,-0.00016656,0.0025894,-0.42866,0.0037402,0.007953,1.5767e-08,0.48,0.26,0
0.029265,0.0035408,0.0082704,-0.00036692,0.002371,-0.00016066,0,0,0.0076691,-0.0035593,0,-0.00041772,0,0,0,0.0082734,-0.00036991,0.002371,-1.0653,0.0034248,0.0076504,1.3443e-08,0.5,0.26,0
0.029416,0.003574,0.0080856,-9.7659e-05,0.0023964,-0.00022206,0,0,0.007396,-0.0032423,0,-0.00057736,0,0,0,0.0080916,-0.00010368,0.0023964,-1.5533,0.0034614,0.0072749,1.219e-08,0.52,0.26,0
0.029561,0.0036054,0.0079172,0.00020542,0.0024368,-0.00022814,0,0,0.0071245,-0.0029008,0,-0.00059318,0,0,0,0.007924,0.00019867,0.0024368,-1.693,0.0035198,0.0068847,1.0984e-08,0.54,0.26,0
0.029701,0.0036404,0.0078204,0.00044131,0.0024785,-0.00014929,0,0,0.0069444,-0.0026483,0,-0.00038815,0,0,0,0.0078234,0.00043829,0.0024785,-1.1585,0.0035801,0.0066057,1.0182e-08,0.56,0.26,0
0.029838,0.0036821,0.007765,0.00053837,0.002491,-3.6714e-05,0,0,0.0068562,-0.0025384,0,-9.5456e-05,0,0,0,0.0077652,0.00053818,0.002491,-0.29107,0.0035981,0.0064754,9.7881e-09,0.58,0.26,0
0.029975,0.0037319,0.0077559,0.00052227,0.0024834,8.5862e-05,0,0,0.0068542,-0.0025495,0,0.00022324,0,0,0,0.0077569,0.00052125,0.0024834,0.67997,0.0035872,0.0064813,9.7837e-09,0.6,0.26,0
0.030113,0.0037899,0.0077914,0.00039245,0.0024552,0.00020539,0,0,0.0069371,-0.0026815,0,0.00053401,0,0,0,0.0077971,0.00038676,0.0024552,1.5889,0.0035463,0.006623,1.0161e-08,0.62,0.26,0
0.030253,0.0038548,0.0078639,0.00012261,0.0023959,0.00029525,0,0,0.0071083,-0.0029553,0,0.00076765,0,0,0,0.0078751,0.00011136,0.0023959,2.181,0.0034608,0.0069108,1.0917e-08,0.64,0.26,0
0.030397,0.0039232,0.0079987,-0.00021718,0.0023345,0.00029859,0,0,0.0073635,-0.0033171,0,0.00077634,0,0,0,0.0080095,-0.00022802,0.0023345,2.0787,0.003372,0.0073017,1.201e-08,0.66,0.26,0
0.030547,0.0039897,0.0081472,-0.00051957,0.0022883,0.00023293,0,0,0.0076166,-0.0036502,0,0.00060561,0,0,0,0.0081535,-0.00052583,0.0022883,1.5384,0.0033053,0.0076698,1.3098e-08,0.68,0.26,0
0.030702,0.0040531,0.0086409,-0.00036576,0.0024826,0.00011983,0,0,0.0080059,-0.0037028,0,0.00031155,0,0,0,0.0086425,-0.00036735,0.0024826,0.7621,0.0035859,0.0079764,1.5293e-08,0.7,0.26,0
0.030867,0.0041138,0.0090624,-0.00010467,0.0026873,0.00036015,0,0,0.0082876,-0.0036296,0,0.0009364,0,0,0,0.0090765,-0.0001188,0.0026873,2.2464,0.0038817,0.0081624,1.721e-08,0.72,0.26,0
0.031033,0.0041927,0.0072214,0.00039644,0.0022853,0.00065855,0,0,0.014458,-0.0052497,0,0.0060117,0,0,0,0.0072924,0.00032543,0.0022853,7.7882,0.0033011,0.006223,2.3003e-08,0.74,0.26,0
0.031384,0.0044861,0.012093,-0.001395,0.0032094,-0.00027459,0,0,0.042087,-0.019233,0,-0.004434,0,0,0,0.012101,-0.0014026,0.0032094,-1.611,0.0046359,0.011891,7.9044e-08,0.76,0.26,0
0.033207,0.0056812,0.0083066,0.00091527,0.0027666,0.00020644,0,0,0.086425,-0.02888,0,0.006441,0,0,0,0.0083124,0.00090951,0.0027666,1.5986,0.0039961,0.0066711,1.1358e-08,0.78,0.26,0
0.034841,0.006324,0.0075483,0.00062478,0.0024519,-0.00016446,0,0,0.079503,-0.028503,0,-0.005131,0,0,0,0.0075522,0.00062088,0.0024519,-1.3599,0.0035416,0.0062213,8.8507e-09,0.8,0.26,0
0.036388,0.0068039,0.0072063,0.00046645,0.0023018,-0.00024682,0,0,0.07651,-0.028632,0,-0.0077007,0,0,0,0.0072154,0.00045742,0.0023018,-2.0944,0.0033249,0.0060504,7.9132e-09,0.82,0.26,0
0.037901,0.0071606,0.0070485,0.00032503,0.0022121,-0.00029375,0,0,0.075449,-0.029438,0,-0.0091649,0,0,0,0.0070614,0.00031222,0.0022121,-2.4969,0.0031952,0.0060281,7.598e-09,0.84,0.26,0
0.039406,0.0074272,0.0069666,0.00017949,0.0021438,-0.00030073,0,0,0.075235,-0.030644,0,-0.0093829,0,0,0,0.0069799,0.00016619,0.0021438,-2.5322,0.0030966,0.0060714,7.5179e-09,0.86,0.26,0
0.040911,0.0076271,0.0069233,5.2093e-05,0.0020926,-0.00027986,0,0,0.075359,-0.031832,0,-0.0087316,0,0,0,0.0069347,4.0713e-05,0.0020926,-2.3285,0.0030227,0.0061312,7.5228e-09,0.88,0.26,0
0.04242,0.0077777,0.0068946,-5.3675e-05,0.0020523,-0.00024232,0,0,0.07554,-0.032853,0,-0.0075603,0,0,0,0.006903,-6.2115e-05,0.0020523,-1.9949,0.0029644,0.0061852,7.5386e-09,0.9,0.26,0
0.043932,0.0078906,0.0068723,-0.00013778,0.0020204,-0.00019682,0,0,0.07569,-0.033667,0,-0.0061408,0,0,0,0.0068778,-0.0001433,0.0020204,-1.607,0.0029183,0.0062279,7.5474e-09,0.92,0.26,0
0.045447,0.0079729,0.0068547,-0.00020132,0.001996,-0.00014816,0,0,0.075796,-0.034279,0,-0.0046225,0,0,0,0.0068578,-0.00020443,0.001996,-1.2024,0.0028831,0.0062592,7.5485e-09,0.94,0.26,0
0.046964,0.0080291,0.0068417,-0.00024561,0.0019788,-9.8662e-05,0,0,0.075861,-0.034701,0,-0.0030782,0,0,0,0.0068431,-0.00024698,0.0019788,-0.7974,0.0028583,0.0062803,7.5456e-09,0.96,0.26,0
0.048482,0.008062,0.0068337,-0.00027172,0.0019686,-4.9232e-05,0,0,0.075896,-0.034949,0,-0.001536,0,0,0,0.006834,-0.00027206,0.0019686,-0.39697,0.0028435,0.0062924,7.5423e-09,0.98,0.26,0
0.05,0.0080728,0.006831,-0.00028035,0.0019652,1.7302e-05,0,0,0.075907,-0.03503,0,0.00053983,0,0,0,0.006831,-0.00028039,0.0019652,0.1394,0.0028386,0.0062965,7.5411e-09,1,0.26,0
0,0,0.0058035,0.0024872,0.0024872,0.00075258,0,0,0.051734,-1.0842e-18,0,0.023481,0,0,0,0.0059663,0.0023244,0.0024872,12.206,0.0035926,0.0035633,2.3073e-09,0,0.28,0
0.0010347,0.00046961,0.005777,0.0021929,0.002391,0.00075108,0,0,0.052823,-0.0030904,0,0.023434,0,0,0,0.0059281,0.0020419,0.002391,11.37,0.0034536,0.003724,2.5739e-09,0.02,0.28,0
0.0021129,0.00092465,0.0058753,0.0019657,0.0023523,0.0007382,0,0,0.054959,-0.0060312,0,0.023032,0,0,0,0.0060101,0.001831,0.0023523,10.344,0.0033978,0.0039444,2.967e-09,0.04,0.28,0
0.003233,0.0013648,0.0059716,0.0017507,0.0023167,0.00072425,0,0,0.057016,-0.0088292,0,0.022596,0,0,0,0.0060924,0.0016299,0.0023167,9.4705,0.0033463,0.0041618,3.365e-09,0.06,0.28,0
0.0043936,0.0017889,0.0060659,0.0015485,0.0022843,0.00070787,0,0,0.058993,-0.011479,0,0.022085,0,0,0,0.0061742,0.0014402,0.0022843,8.7004,0.0032996,0.0043735,3.7626e-09,0.08,0.28,0
0.0055927,0.0021949,0.0061582,0.0013603,0.0022555,0.00068851,0,0,0.060882,-0.013966,0,0.021481,0,0,0,0.0062551,0.0012634,0.0022555,8.0067,0.003258,0.004577,4.1551e-09,0.1,0.28,0
0.0068288,0.0025805,0.0062486,0.0011875,0.0022308,0.00066631,0,0,0.062677,-0.016276,0,0.020789,0,0,0,0.0063348,0.0011012,0.0022308,7.3758,0.0032223,0.0047702,4.5384e-09,0.12,0.28,0
0.0080998,0.0029435,0.0063368,0.0010317,0.0022105,0.00064196,0,0,0.06437,-0.018391,0,0.020029,0,0,0,0.0064134,0.00095508,0.0022105,6.8023,0.003193,0.0049514,4.9094e-09,0.14,0.28,0
0.0094036,0.0032814,0.0064233,0.00089415,0.0021952,0.00061647,0,0,0.065958,-0.020297,0,0.019234,0,0,0,0.0064912,0.00082625,0.0021952,6.2853,0.0031709,0.0051196,5.2664e-09,0.16,0.28,0
0.010738,0.0035923,0.0065084,0.00077623,0.0021854,0.000591,0,0,0.067439,-0.021983,0,0.018439,0,0,0,0.0065687,0.00071593,0.0021854,5.8256,0.0031567,0.0052739,5.6085e-09,0.18,0.28,0
0.012101,0.003874,0.0065929,0.00067905,0.0021816,0.00056664,0,0,0.068817,-0.02344,0,0.017679,0,0,0,0.0066467,0.00062524,0.0021816,5.424,0.0031512,0.0054138,5.9359e-09,0.2,0.28,0
0.013491,0.0041248,0.0066778,0.00060376,0.0021845,0.0005442,0,0,0.070096,-0.024659,0,0.016979,0,0,0,0.0067262,0.00055539,0.0021845,5.0794,0.0031553,0.0055389,6.2496e-09,0.22,0.28,0
0.014905,0.0043425,0.0067643,0.00055165,0.0021948,0.00052395,0,0,0.071284,-0.025633,0,0.016347,0,0,0,0.0068082,0.00050777,0.0021948,4.787,0.0031702,0.0056491,6.551e-09,0.24,0.28,0
0.016342,0.0045246,0.0068543,0.00052425,0.0022135,0.00050531,0,0,0.072395,-0.026353,0,0.015766,0,0,0,0.0068943,0.00048416,0.0022135,4.5355,0.0031973,0.0057442,6.8422e-09,0.26,0.28,0
0.017801,0.0046675,0.0069504,0.00052348,0.0022422,0.00048631,0,0,0.073448,-0.026811,0,0.015173,0,0,0,0.006987,0.00048689,0.0022422,4.3028,0.0032387,0.0058243,7.1267e-09,0.28,0.28,0
0.01928,0.0047658,0.0070571,0.00055182,0.0022827,0.00046283,0,0,0.074481,-0.027002,0,0.01444,0,0,0,0.0070899,0.00051906,0.0022827,4.0492,0.0032972,0.0058905,7.4118e-09,0.3,0.28,0
0.02078,0.0048113,0.0071825,0.00061263,0.0023385,0.0004273,0,0,0.075566,-0.026924,0,0.013332,0,0,0,0.0072102,0.00058496,0.0023385,3.7057,0.0033779,0.0059457,7.7134e-09,0.32,0.28,0
0.022303,0.0047908,0.0073409,0.0007113,0.0024157,0.00036577,0,0,0.076834,-0.026588,0,0.011412,0,0,0,0.0073611,0.00069118,0.0024157,3.1484,0.0034893,0.0059966,8.0647e-09,0.34,0.28,0
0.023853,0.0046832,0.0075563,0.00085866,0.0025245,0.00025423,0,0,0.078497,-0.025987,0,0.0079321,0,0,0,0.007566,0.00084903,0.0025245,2.1707,0.0036465,0.0060556,8.5299e-09,0.36,0.28,0
0.025443,0.0044563,0.0078523,0.0010815,0.0026801,2.6023e-05,0,0,0.080685,-0.024939,0,0.00081191,0,0,0,0.0078524,0.0010814,0.0026801,0.22021,0.0038713,0.00613,9.1733e-09,0.38,0.28,0
0.027081,0.0040323,0.0078855,0.0013367,0.0027667,-0.00032863,0,0,0.079854,-0.022308,0,-0.010253,0,0,0,0.007902,0.0013202,0.0027667,-2.8656,0.0039963,0.0059909,8.911e-09,0.4,0.28,0
0.028637,0.0034601,0.0066361,-0.0014803,0.0015467,-0.00012126,0,0,0.042272,-0.007265,0,-0.011125,0,0,0,0.0066997,-0.001544,0.0015467,-2.5142,0.0022342,0.0073885,2.5419e-09,0.42,0.28,0
0.028772,0.0033862,0.0078945,-5.9267e-05,0.0023506,-0.00054526,0,0,0.0072071,-0.0031328,0,-0.0014177,0,0,0,0.0079317,-9.6473e-05,0.0023506,-3.9035,0.0033952,0.007127,1.1474e-08,0.44,0.28,0
0.028925,0.0033996,0.0083214,-0.00011637,0.0024615,0.00018249,0,0,0.0076178,-0.0033512,0,0.00047446,0,0,0,0.0083253,-0.00012031,0.0024615,1.2384,0.0035555,0.0074959,1.3299e-08,0.46,0.28,0
0.029077,0.0034328,0.0081672,-0.00029258,0.0023624,0.00015208,0,0,0.0075462,-0.0034514,0,0.00039541,0,0,0,0.0081699,-0.00029531,0.0023624,1.0295,0.0034123,0.0074983,1.2841e-08,0.48,0.28,0
0.029227,0.0034718,0.0080602,-0.0002119,0.0023545,4.7202e-05,0,0,0.0074174,-0.0033363,0,0.00012273,0,0,0,0.0080605,-0.00021217,0.0023545,0.32693,0.0034009,0.0073343,1.2215e-08,0.5,0.28,0
0.029373,0.0035096,0.0079059,-5.4368e-05,0.0023554,-7.1273e-05,0,0,0.0072156,-0.0031328,0,-0.00018531,0,0,0,0.0079065,-5.5006e-05,0.0023554,-0.51295,0.0034023,0.0070714,1.1303e-08,0.52,0.28,0
0.029516,0.0035473,0.0077961,0.00017408,0.002391,-0.00011581,0,0,0.0070265,-0.0028821,0,-0.0003011,0,0,0,0.0077978,0.00017232,0.002391,-0.87029,0.0034537,0.0067935,1.0503e-08,0.54,0.28,0
0.029654,0.0035868,0.0077089,0.00035109,0.002418,-9.1034e-05,0,0,0.0068782,-0.002687,0,-0.00023669,0,0,0,0.00771,0.00034997,0.002418,-0.70874,0.0034927,0.0065747,9.8759e-09,0.56,0.28,0
0.029791,0.0036307,0.0076637,0.00043752,0.0024304,-1.6875e-05,0,0,0.0068033,-0.0025907,0,-4.3875e-05,0,0,0,0.0076638,0.00043748,0.0024304,-0.1338,0.0035105,0.0064645,9.5589e-09,0.58,0.28,0
0.029926,0.0036803,0.0076616,0.00041692,0.0024236,7.5961e-05,0,0,0.0068094,-0.0026086,0,0.0001975,0,0,0,0.0076624,0.00041612,0.0024236,0.60066,0.0035007,0.0064801,9.5872e-09,0.6,0.28,0
0.030063,0.0037355,0.0077006,0.00028947,0.002397,0.0001599,0,0,0.0068946,-0.0027398,0,0.00041573,0,0,0,0.007704,0.00028602,0.002397,1.2354,0.0034623,0.0066199,9.9519e-09,0.62,0.28,0
0.030202,0.0037953,0.0077743,7.2133e-05,0.0023539,0.00020286,0,0,0.0070465,-0.0029663,0,0.00052742,0,0,0,0.0077796,6.6793e-05,0.0023539,1.5076,0.0034001,0.0068614,1.059e-08,0.64,0.28,0
0.030345,0.0038572,0.0078558,-0.00019292,0.0022989,0.00018066,0,0,0.007224,-0.0032393,0,0.00046971,0,0,0,0.0078599,-0.00019697,0.0022989,1.2852,0.0033206,0.0071438,1.1312e-08,0.66,0.28,0
0.030491,0.0039188,0.0079531,-0.00038086,0.0022717,8.0195e-05,0,0,0.0073859,-0.0034483,0,0.00020851,0,0,0,0.0079539,-0.00038163,0.0022717,0.55127,0.0032813,0.0073759,1.1981e-08,0.68,0.28,0
0.03064,0.0039785,0.0079789,-0.00047413,0.0022514,-3.7949e-05,0,0,0.0074457,-0.0035432,0,-9.8667e-05,0,0,0,0.007979,-0.0004743,0.0022514,-0.25722,0.003252,0.0074731,1.2221e-08,0.7,0.28,0
0.030789,0.004041,0.0080876,-0.00031402,0.0023321,-0.00012279,0,0,0.0074822,-0.0034399,0,-0.00031924,0,0,0,0.0080894,-0.00031582,0.0023321,-0.83711,0.0033686,0.0074433,1.25e-08,0.72,0.28,0
0.03094,0.0041216,0.0076747,-0.00046668,0.0021624,0.00055324,0,0,0.0071659,-0.0034178,0,0.0014384,0,0,0,0.0077121,-0.0005041,0.0021624,3.8698,0.0031235,0.00726,1.1092e-08,0.74,0.28,0
0.031076,0.0042948,0.0063543,-0.0021672,0.0012561,0.00022581,0,0,0.042141,-0.0082161,0,0.013875,0,0,0,0.0064406,-0.0022536,0.0012561,3.4905,0.0018144,0.0077712,-1.9405e-10,0.76,0.28,0
0.032625,0.0050727,0.0077157,0.00093288,0.0025946,0.00050408,0,0,0.07989,-0.025923,0,0.015727,0,0,0,0.007753,0.00089562,0.0025946,4.2271,0.0037477,0.0061854,9.1336e-09,0.78,0.28,0
0.034271,0.0057429,0.0077649,0.00079097,0.0025668,0.00017327,0,0,0.081091,-0.027702,0,0.0054059,0,0,0,0.0077692,0.00078667,0.0025668,1.4224,0.0037075,0.0062845,9.3838e-09,0.8,0.28,0
0.035869,0.0062185,0.0075102,0.0005972,0.0024322,-9.0005e-05,0,0,0.079216,-0.028626,0,-0.0028082,0,0,0,0.0075114,0.00059603,0.0024322,-0.74581,0.0035132,0.0062045,8.7418e-09,0.82,0.28,0
0.03744,0.006558,0.0073437,0.00035891,0.0023108,-0.00021167,0,0,0.078514,-0.030449,0,-0.0066042,0,0,0,0.0073501,0.0003525,0.0023108,-1.7342,0.0033378,0.0062529,8.5294e-09,0.84,0.28,0
0.039009,0.0067976,0.0072643,0.00016957,0.0022302,-0.00024885,0,0,0.078533,-0.032145,0,-0.0077641,0,0,0,0.007273,0.00016086,0.0022302,-2.0064,0.0032213,0.0063362,8.5219e-09,0.86,0.28,0
0.040581,0.0069726,0.0072072,2.1548e-05,0.0021686,-0.00023831,0,0,0.078602,-0.033494,0,-0.0074353,0,0,0,0.0072151,1.3654e-05,0.0021686,-1.8974,0.0031325,0.006402,8.5093e-09,0.88,0.28,0
0.042154,0.0071028,0.007158,-9.3604e-05,0.0021193,-0.00020712,0,0,0.078604,-0.034522,0,-0.006462,0,0,0,0.0071639,-9.9514e-05,0.0021193,-1.6347,0.0030613,0.0064471,8.4691e-09,0.9,0.28,0
0.043725,0.0071999,0.007116,-0.00018134,0.0020804,-0.00016764,0,0,0.078556,-0.035283,0,-0.0052304,0,0,0,0.0071199,-0.00018519,0.0020804,-1.3153,0.003005,0.0064766,8.4159e-09,0.92,0.28,0
0.045296,0.0072707,0.0070822,-0.00024577,0.0020509,-0.00012557,0,0,0.078488,-0.035828,0,-0.0039177,0,0,0,0.0070843,-0.00024792,0.0020509,-0.98141,0.0029625,0.0064955,8.3634e-09,0.94,0.28,0
0.046865,0.007319,0.0070575,-0.00028984,0.0020303,-8.3255e-05,0,0,0.078424,-0.036194,0,-0.0025976,0,0,0,0.0070584,-0.00029078,0.0020303,-0.64913,0.0029326,0.0065069,8.3207e-09,0.96,0.28,0
0.048433,0.0073472,0.0070424,-0.00031552,0.0020181,-4.1425e-05,0,0,0.07838,-0.036404,0,-0.0012924,0,0,0,0.0070427,-0.00031576,0.0020181,-0.32256,0.002915,0.0065131,8.2932e-09,0.98,0.28,0
0.05,0.0073565,0.0070374,-0.00032396,0.002014,1.4892e-05,0,0,0.078364,-0.036473,0,0.00046464,0,0,0,0.0070374,-0.00032399,0.002014,0.11591,0.0029092,0.006515,8.2839e-09,1,0.28,0
0,0,0.0058349,0.0025007,0.0025007,0.00065304,0,0,0.052014,-2.1684e-19,0,0.020375,0,0,0,0.0059583,0.0023773,0.0025007,10.695,0.0036121,0.0035209,2.2324e-09,0,0.3,0
0.0010403,0.0004075,0.0058081,0.0022042,0.0024037,0.00065153,0,0,0.053109,-0.0031125,0,0.020328,0,0,0,0.0059222,0.00209,0.0024037,9.9392,0.003472,0.0036854,2.5082e-09,0.02,0.3,0
0.0021244,0.00080371,0.0059074,0.0019777,0.0023655,0.00064073,0,0,0.055253,-0.0060497,0,0.019991,0,0,0,0.0060092,0.0018759,0.0023655,9.0306,0.0034169,0.0039115,2.912e-09,0.04,0.3,0
0.0032504,0.0011881,0.0060047,0.001765,0.0023309,0.00062839,0,0,0.057311,-0.0088281,0,0.019606,0,0,0,0.0060959,0.0016738,0.0023309,8.2558,0.0033669,0.0041329,3.3188e-09,0.06,0.3,0
0.0044168,0.0015594,0.0061008,0.0015659,0.0023,0.0006135,0,0,0.059292,-0.011452,0,0.019141,0,0,0,0.0061823,0.0014844,0.0023,7.57,0.0033222,0.0043479,3.7256e-09,0.08,0.3,0
0.0056221,0.0019158,0.0061959,0.0013809,0.002273,0.00059564,0,0,0.061196,-0.013917,0,0.018584,0,0,0,0.0062685,0.0013083,0.002273,6.9483,0.0032833,0.004555,4.1296e-09,0.1,0.3,0
0.0068646,0.0022554,0.0062902,0.0012109,0.0022503,0.00057489,0,0,0.063022,-0.016215,0,0.017937,0,0,0,0.0063544,0.0011467,0.0022503,6.3775,0.0032505,0.004753,4.5284e-09,0.12,0.3,0
0.0081429,0.0025759,0.006384,0.001057,0.0022323,0.00055179,0,0,0.064767,-0.018335,0,0.017216,0,0,0,0.0064406,0.0010005,0.0022323,5.8521,0.0032245,0.0049407,4.9204e-09,0.14,0.3,0
0.0094553,0.0028754,0.0064778,0.00092038,0.0022195,0.00052715,0,0,0.066431,-0.020266,0,0.016447,0,0,0,0.0065274,0.00087082,0.0022195,5.371,0.0032059,0.0051173,5.3047e-09,0.16,0.3,0
0.0108,0.003152,0.0065721,0.00080222,0.0022123,0.0005019,0,0,0.068013,-0.021997,0,0.015659,0,0,0,0.0066155,0.00075889,0.0022123,4.9345,0.0031956,0.005282,5.6811e-09,0.18,0.3,0
0.012176,0.0034038,0.0066677,0.00070384,0.0022115,0.00047692,0,0,0.069517,-0.023519,0,0.01488,0,0,0,0.0067056,0.00066595,0.0022115,4.5434,0.0031943,0.0054343,6.0501e-09,0.2,0.3,0
0.013581,0.0036293,0.0067654,0.00062676,0.0022176,0.00045284,0,0,0.070945,-0.024818,0,0.014129,0,0,0,0.0067986,0.00059353,0.0022176,4.1964,0.0032033,0.0055734,6.4122e-09,0.22,0.3,0
0.015014,0.0038265,0.0068662,0.00057287,0.0022317,0.00042973,0,0,0.072298,-0.025878,0,0.013408,0,0,0,0.0068955,0.00054366,0.0022317,3.8883,0.0032236,0.0056985,6.7675e-09,0.24,0.3,0
0.016473,0.0039931,0.0069714,0.00054472,0.0022548,0.00040674,0,0,0.073578,-0.026678,0,0.01269,0,0,0,0.006997,0.00051908,0.0022548,3.607,0.003257,0.0058079,7.1151e-09,0.26,0.3,0
0.017957,0.0041261,0.007082,0.00054584,0.0022883,0.00038136,0,0,0.07478,-0.027183,0,0.011898,0,0,0,0.0071041,0.00052366,0.0022883,3.3279,0.0033054,0.0058995,7.4517e-09,0.28,0.3,0
0.019464,0.0042204,0.0071995,0.0005812,0.0023342,0.00034845,0,0,0.075898,-0.027347,0,0.010872,0,0,0,0.0072178,0.00056291,0.0023342,3.0055,0.0033716,0.0059697,7.7705e-09,0.3,0.3,0
0.020993,0.0042683,0.0073254,0.00065794,0.002395,0.00029849,0,0,0.076914,-0.027098,0,0.0093129,0,0,0,0.0073387,0.00064461,0.002395,2.5582,0.0034594,0.0060131,8.0591e-09,0.32,0.3,0
0.022541,0.0042575,0.0074588,0.0007863,0.0024735,0.0002156,0,0,0.077771,-0.026321,0,0.0067267,0,0,0,0.0074658,0.00077934,0.0024735,1.8487,0.0035729,0.0060209,8.2895e-09,0.34,0.3,0
0.024103,0.0041702,0.0075882,0.00098347,0.0025715,7.3467e-05,0,0,0.07826,-0.024773,0,0.0022922,0,0,0,0.007589,0.00098266,0.0025715,0.63722,0.0037144,0.0059726,8.3874e-09,0.36,0.3,0
0.025671,0.0039794,0.0076283,0.0012674,0.0026687,-0.00014572,0,0,0.077369,-0.021861,0,-0.0045465,0,0,0,0.0076316,0.001264,0.0026687,-1.3117,0.0038548,0.0057944,8.0469e-09,0.38,0.3,0
0.027198,0.0036796,0.007562,0.0018318,0.0028181,-0.00039681,0,0,0.074004,-0.015387,0,-0.01238,0,0,0,0.0075893,0.0018045,0.0028181,-3.9426,0.0040707,0.0053506,6.925e-09,0.4,0.3,0
0.028631,0.0033434,0.0073087,-0.00020296,0.0021317,-0.00057675,0,0,0.039566,-0.0056032,0,-0.0095125,0,0,0,0.0073574,-0.00025167,0.0021317,-4.8677,0.0030791,0.0068461,7.211e-09,0.42,0.3,0
0.028781,0.003326,0.0075689,-0.00049316,0.0021227,-0.00024232,0,0,0.0070801,-0.0034006,0,-0.00063003,0,0,0,0.0075762,-0.00050044,0.0021227,-1.7201,0.0030662,0.0071363,1.0522e-08,0.44,0.3,0
0.028914,0.0033347,0.0073227,-0.00033928,0.002095,7.5218e-05,0,0,0.006796,-0.0031646,0,0.00019557,0,0,0,0.0073234,-0.00034002,0.002095,0.5624,0.0030262,0.0067821,9.3389e-09,0.46,0.3,0
0.029053,0.0033677,0.0075632,-0.00021109,0.0022056,0.00018962,0,0,0.0069648,-0.0031418,0,0.00049301,0,0,0,0.0075678,-0.00021571,0.0022056,1.3964,0.0031859,0.0068993,1.0131e-08,0.48,0.3,0
0.029193,0.0034074,0.0076452,-0.00012157,0.0022571,0.00010801,0,0,0.0070046,-0.0030923,0,0.00028083,0,0,0,0.0076467,-0.00012307,0.0022571,0.79661,0.0032602,0.006895,1.0322e-08,0.5,0.3,0
0.029333,0.0034486,0.0076583,2.3256e-05,0.0023045,1.4025e-05,0,0,0.00696,-0.0029656,0,3.6465e-05,0,0,0,0.0076583,2.323e-05,0.0023045,0.10525,0.0033287,0.0067883,1.0163e-08,0.52,0.3,0
0.029471,0.0034901,0.0076286,0.00017518,0.0023411,-4.2323e-05,0,0,0.0068737,-0.0028157,0,-0.00011004,0,0,0,0.0076288,0.00017494,0.0023411,-0.32533,0.0033816,0.0066412,9.8256e-09,0.54,0.3,0
0.029608,0.0035329,0.0075972,0.00029996,0.0023691,-4.3306e-05,0,0,0.0067964,-0.0026899,0,-0.0001126,0,0,0,0.0075974,0.0002997,0.0023691,-0.34001,0.0034221,0.0065144,9.5181e-09,0.56,0.3,0
0.029743,0.0035784,0.0075796,0.00035753,0.0023811,-2.9212e-06,0,0,0.006758,-0.0026307,0,-7.5951e-06,0,0,0,0.0075796,0.00035753,0.0023811,-0.023175,0.0034394,0.0064528,9.3628e-09,0.58,0.3,0
0.029878,0.0036275,0.007587,0.00033188,0.0023756,5.6158e-05,0,0,0.0067747,-0.0026569,0,0.00014601,0,0,0,0.0075874,0.00033144,0.0023756,0.44346,0.0034315,0.0064803,9.4317e-09,0.6,0.3,0
0.030014,0.0036803,0.0076182,0.00022325,0.0023524,0.00010829,0,0,0.0068455,-0.0027679,0,0.00028155,0,0,0,0.0076198,0.00022167,0.0023524,0.83876,0.003398,0.0065961,9.7213e-09,0.62,0.3,0
0.030152,0.0037361,0.0076594,4.8807e-05,0.0023125,0.0001314,0,0,0.0069511,-0.0029428,0,0.00034164,0,0,0,0.0076617,4.6539e-05,0.0023125,0.98884,0.0033402,0.0067727,1.0143e-08,0.64,0.3,0
0.030292,0.0037936,0.0076861,-0.00014918,0.0022611,0.00011281,0,0,0.0070525,-0.0031333,0,0.0002933,0,0,0,0.0076877,-0.00015081,0.0022611,0.8247,0.003266,0.0069537,1.0527e-08,0.66,0.3,0
0.030434,0.0038518,0.0076358,-0.00033087,0.0021915,6.9347e-05,0,0,0.0070777,-0.0032791,0,0.0001803,0,0,0,0.0076365,-0.00033147,0.0021915,0.49868,0.0031655,0.0070534,1.0559e-08,0.68,0.3,0
0.030575,0.0039114,0.0074284,-0.00044478,0.0020951,4.1953e-05,0,0,0.0069333,-0.0033018,0,0.00010908,0,0,0,0.0074286,-0.00044501,0.0020951,0.3053,0.0030262,0.0069603,9.8661e-09,0.7,0.3,0
0.030711,0.0039762,0.0069485,-0.00054858,0.00192,0.00013512,0,0,0.0065371,-0.0032091,0,0.00035132,0,0,0,0.0069509,-0.00055102,0.00192,1.0322,0.0027733,0.0066218,8.2168e-09,0.72,0.3,0
0.030837,0.004056,0.0073652,-0.00053071,0.0020503,0.00032909,0,0,0.0069093,-0.0033554,0,0.00085564,0,0,0,0.0073789,-0.00054441,0.0020503,2.3825,0.0029616,0.0069966,9.7853e-09,0.74,0.3,0
0.030988,0.0041575,0.0069031,-0.0010565,0.001754,0.00051706,0,0,0.038789,-0.0067452,0,0.010635,0,0,0,0.006952,-0.0011054,0.001754,4.6974,0.0025335,0.0072025,5.0008e-09,0.76,0.3,0
0.032388,0.0046443,0.0072558,0.0013131,0.0025706,0.00054124,0,0,0.073088,-0.019618,0,0.016886,0,0,0,0.0073047,0.0012642,0.0025706,5.1617,0.0037132,0.0055048,6.9675e-09,0.78,0.3,0
0.033911,0.0052159,0.0075258,0.0011519,0.0026033,0.00024149,0,0,0.076791,-0.022642,0,0.0075346,0,0,0,0.007535,0.0011427,0.0026033,2.1667,0.0037603,0.0058015,7.9265e-09,0.8,0.3,0
0.03546,0.0056588,0.0075022,0.00069549,0.0024593,-2.7431e-05,0,0,0.078669,-0.027516,0,-0.00085586,0,0,0,0.0075023,0.00069538,0.0024593,-0.2309,0.0035523,0.0061187,8.5524e-09,0.82,0.3,0
0.037058,0.0059426,0.0075356,0.00038055,0.0023748,-0.0001584,0,0,0.080508,-0.031111,0,-0.0049419,0,0,0,0.0075391,0.00037705,0.0023748,-1.2676,0.0034303,0.0064014,9.1811e-09,0.84,0.3,0
0.03868,0.0061414,0.0075093,0.00016058,0.002301,-0.00018566,0,0,0.08125,-0.03339,0,-0.0057926,0,0,0,0.007514,0.00015589,0.002301,-1.4463,0.0033236,0.0065543,9.4122e-09,0.86,0.3,0
0.040308,0.0062873,0.0074471,-3.9761e-06,0.0022329,-0.00017545,0,0,0.081341,-0.034896,0,-0.005474,0,0,0,0.0074512,-8.105e-06,0.0022329,-1.3481,0.0032254,0.0066293,9.4024e-09,0.88,0.3,0
0.041934,0.0063968,0.0073799,-0.00012635,0.0021761,-0.00015059,0,0,0.081179,-0.035917,0,-0.0046984,0,0,0,0.0073829,-0.00012937,0.0021761,-1.1488,0.0031432,0.0066656,9.3039e-09,0.9,0.3,0
0.043555,0.0064792,0.0073194,-0.0002165,0.0021309,-0.00012062,0,0,0.080941,-0.036619,0,-0.0037635,0,0,0,0.0073213,-0.00021843,0.0021309,-0.91679,0.0030779,0.0066824,9.1851e-09,0.92,0.3,0
0.045172,0.0065397,0.0072705,-0.00028106,0.0020968,-8.9577e-05,0,0,0.08071,-0.037095,0,-0.0027948,0,0,0,0.0072716,-0.00028212,0.0020968,-0.67952,0.0030288,0.0066894,9.077e-09,0.94,0.3,0
0.046784,0.0065814,0.007235,-0.00032447,0.0020732,-5.9005e-05,0,0,0.080525,-0.037403,0,-0.001841,0,0,0,0.0072355,-0.00032493,0.0020732,-0.44718,0.0029946,0.0066918,8.9938e-09,0.96,0.3,0
0.048393,0.0066058,0.0072136,-0.0003495,0.0020592,-2.9238e-05,0,0,0.080408,-0.037576,0,-0.00091224,0,0,0,0.0072137,-0.00034961,0.0020592,-0.2215,0.0029744,0.0066923,8.942e-09,0.98,0.3,0
0.05,0.0066139,0.0072064,-0.00035768,0.0020546,1.2909e-05,0,0,0.080368,-0.037632,0,0.00040275,0,0,0,0.0072064,-0.0003577,0.0020546,0.097779,0.0029678,0.0066924,8.9246e-09,1,0.3,0
0,0,0.0058562,0.0025098,0.0025098,0.00055306,0,0,0.052204,0,0,0.017256,0,0,0,0.0059453,0.0024208,0.0025098,9.1454,0.0036253,0.0034808,2.1613e-09,0,0.32,0
0.0010441,0.00034511,0.0058292,0.002213,0.0024127,0.00055148,0,0,0.053298,-0.0031151,0,0.017206,0,0,0,0.0059114,0.0021307,0.0024127,8.4809,0.003485,0.0036479,2.4431e-09,0.02,0.32,0
0.0021319,0.00068267,0.0059288,0.0019881,0.0023751,0.0005428,0,0,0.055438,-0.0060365,0,0.016935,0,0,0,0.0060022,0.0019147,0.0023751,7.701,0.0034306,0.0038778,2.8531e-09,0.04,0.32,0
0.0032616,0.0010117,0.0060265,0.0017781,0.0023414,0.00053174,0,0,0.057488,-0.0087877,0,0.01659,0,0,0,0.0060921,0.0017125,0.0023414,7.0268,0.003382,0.0041015,3.2645e-09,0.06,0.32,0
0.0044315,0.0013308,0.0061234,0.0015822,0.0023117,0.00051764,0,0,0.059463,-0.01138,0,0.016151,0,0,0,0.0061817,0.001524,0.0023117,6.4213,0.0033391,0.0043181,3.6756e-09,0.08,0.32,0
0.0056401,0.0016382,0.00622,0.0014005,0.0022862,0.00050024,0,0,0.061368,-0.013816,0,0.015608,0,0,0,0.0062714,0.0013491,0.0022862,5.8638,0.0033022,0.0045271,4.0854e-09,0.1,0.32,0
0.0068862,0.0019319,0.0063168,0.0012335,0.0022651,0.00047966,0,0,0.063207,-0.016093,0,0.014965,0,0,0,0.0063617,0.0011886,0.0022651,5.3436,0.0032718,0.0047276,4.493e-09,0.12,0.32,0
0.0081684,0.0022101,0.0064143,0.0010819,0.0022489,0.00045634,0,0,0.064981,-0.018205,0,0.014238,0,0,0,0.0064531,0.0010431,0.0022489,4.8562,0.0032484,0.0049192,4.8977e-09,0.14,0.32,0
0.0094854,0.0024708,0.0065131,0.00094667,0.0022379,0.00043094,0,0,0.066692,-0.020144,0,0.013445,0,0,0,0.0065462,0.00091351,0.0022379,4.4008,0.0032326,0.0051011,5.2996e-09,0.16,0.32,0
0.010836,0.0027124,0.0066137,0.00082901,0.0022328,0.00040425,0,0,0.068342,-0.021899,0,0.012612,0,0,0,0.0066418,0.0008009,0.0022328,3.9781,0.0032252,0.0052729,5.6992e-09,0.18,0.32,0
0.012219,0.0029333,0.006717,0.00073031,0.0022342,0.00037702,0,0,0.069931,-0.02346,0,0.011763,0,0,0,0.0067406,0.00070666,0.0022342,3.5894,0.0032271,0.0054337,6.0969e-09,0.2,0.32,0
0.013633,0.0031321,0.0068235,0.00065237,0.0022428,0.00034983,0,0,0.071459,-0.02481,0,0.010915,0,0,0,0.0068433,0.0006326,0.0022428,3.2342,0.0032395,0.0055825,6.4929e-09,0.22,0.32,0
0.015078,0.0033074,0.0069339,0.00059763,0.0022595,0.00032285,0,0,0.072921,-0.025924,0,0.010073,0,0,0,0.0069503,0.00058122,0.0022595,2.9093,0.0032636,0.0057177,6.8855e-09,0.24,0.32,0
0.01655,0.0034575,0.0070482,0.00056956,0.0022853,0.00029543,0,0,0.074301,-0.026766,0,0.0092175,0,0,0,0.0070616,0.00055612,0.0022853,2.6056,0.003301,0.0058363,7.2696e-09,0.26,0.32,0
0.018049,0.0035802,0.0071655,0.00057325,0.0023216,0.00026563,0,0,0.075564,-0.027275,0,0.0082877,0,0,0,0.0071762,0.00056256,0.0023216,2.3037,0.0033535,0.005933,7.6328e-09,0.28,0.32,0
0.019573,0.003672,0.0072831,0.00061617,0.0023698,0.00022924,0,0,0.076647,-0.027356,0,0.0071522,0,0,0,0.0072909,0.0006083,0.0023698,1.967,0.003423,0.0059991,7.9505e-09,0.3,0.32,0
0.021115,0.0037273,0.0073947,0.00070939,0.0024312,0.00017873,0,0,0.07743,-0.02686,0,0.0055762,0,0,0,0.0073994,0.00070462,0.0024312,1.5303,0.0035118,0.0060202,8.1763e-09,0.32,0.32,0
0.02267,0.0037379,0.0074875,0.00086921,0.002507,0.00010238,0,0,0.077696,-0.02555,0,0.0031942,0,0,0,0.0074891,0.00086763,0.002507,0.88602,0.0036212,0.005973,8.2283e-09,0.34,0.32,0
0.024223,0.0036922,0.0075332,0.0011175,0.0025952,-1.0767e-05,0,0,0.077033,-0.023053,0,-0.00033592,0,0,0,0.0075332,0.0011174,0.0025952,-0.096153,0.0037486,0.0058194,7.9637e-09,0.36,0.32,0
0.025751,0.0035818,0.0075086,0.0015029,0.0027034,-0.0001544,0,0,0.07496,-0.018729,0,-0.0048172,0,0,0,0.0075126,0.0014989,0.0027034,-1.4717,0.003905,0.005511,7.2313e-09,0.38,0.32,0
0.027222,0.0034169,0.0074256,0.0020559,0.0028445,-0.00027557,0,0,0.071466,-0.012302,0,-0.0085978,0,0,0,0.0074397,0.0020418,0.0028445,-2.9301,0.0041087,0.0050447,6.035e-09,0.4,0.32,0
0.02861,0.003236,0.0071479,-5.8908e-05,0.0021267,-0.0003222,0,0,0.038341,-0.0052454,0,-0.0056753,0,0,0,0.0071646,-7.5667e-05,0.0021267,-2.9213,0.0030719,0.0065274,6.7295e-09,0.42,0.32,0
0.028755,0.0032502,0.00722,-0.0011873,0.0018098,-0.00026796,0,0,0.0070333,-0.0038962,0,-0.00069668,0,0,0,0.0072286,-0.0011958,0.0018098,-1.8236,0.0026142,0.0073948,9.8051e-09,0.44,0.32,0
0.028891,0.003273,0.0071966,-0.00039759,0.0020397,-5.1584e-05,0,0,0.006704,-0.0031685,0,-0.00013412,0,0,0,0.0071969,-0.00039795,0.0020397,-0.38916,0.0029462,0.0067165,8.935e-09,0.46,0.32,0
0.029024,0.0033072,0.0072316,-0.00017225,0.0021178,5.6974e-05,0,0,0.0066479,-0.0029771,0,0.00014813,0,0,0,0.007232,-0.00017269,0.0021178,0.44087,0.003059,0.0065663,8.8013e-09,0.48,0.32,0
0.029157,0.0033481,0.0073606,-3.0185e-05,0.0021991,5.4371e-05,0,0,0.0067099,-0.0028981,0,0.00014137,0,0,0,0.007361,-3.0585e-05,0.0021991,0.42147,0.0031765,0.006567,9.0946e-09,0.5,0.32,0
0.029292,0.003391,0.0074442,8.2823e-05,0.0022581,6.6179e-06,0,0,0.0067419,-0.0028279,0,1.7206e-05,0,0,0,0.0074442,8.2817e-05,0.0022581,0.051509,0.0032617,0.0065505,9.2519e-09,0.52,0.32,0
0.029427,0.0034346,0.0074872,0.00019003,0.0023032,-2.6345e-05,0,0,0.0067392,-0.0027471,0,-6.8497e-05,0,0,0,0.0074873,0.00018994,0.0023032,-0.20685,0.0033268,0.0065036,9.2629e-09,0.54,0.32,0
0.029561,0.0034792,0.0075046,0.00027111,0.0023327,-2.8683e-05,0,0,0.0067235,-0.0026801,0,-7.4577e-05,0,0,0,0.0075048,0.000271,0.0023327,-0.22719,0.0033695,0.0064548,9.2107e-09,0.56,0.32,0
0.029696,0.0035255,0.0075162,0.00030395,0.002346,-3.9661e-06,0,0,0.0067212,-0.0026547,0,-1.0312e-05,0,0,0,0.0075162,0.00030394,0.002346,-0.031507,0.0033887,0.0064388,9.2049e-09,0.58,0.32,0
0.02983,0.003574,0.007533,0.00027354,0.002342,3.3865e-05,0,0,0.0067484,-0.002689,0,8.8049e-05,0,0,0,0.0075332,0.00027338,0.002342,0.26727,0.0033829,0.0064781,9.3138e-09,0.6,0.32,0
0.029966,0.0036248,0.0075568,0.00017996,0.002321,6.9163e-05,0,0,0.0068065,-0.0027834,0,0.00017982,0,0,0,0.0075575,0.00017931,0.002321,0.53713,0.0033526,0.0065743,9.5438e-09,0.62,0.32,0
0.030103,0.0036776,0.0075794,3.8672e-05,0.0022854,8.985e-05,0,0,0.0068821,-0.0029208,0,0.00023361,0,0,0,0.0075804,3.7602e-05,0.0022854,0.68257,0.0033011,0.0067076,9.8356e-09,0.64,0.32,0
0.030241,0.0037318,0.0075827,-0.00012644,0.0022369,9.7051e-05,0,0,0.0069496,-0.0030723,0,0.00025233,0,0,0,0.0075839,-0.00012766,0.0022369,0.72115,0.0032311,0.0068429,1.0078e-08,0.66,0.32,0
0.030381,0.0037876,0.0075458,-0.00029225,0.0021761,0.00011712,0,0,0.0069807,-0.0032088,0,0.00030451,0,0,0,0.0075476,-0.000294,0.0021761,0.85589,0.0031432,0.0069442,1.0152e-08,0.68,0.32,0
0.03052,0.0038464,0.0074283,-0.00047679,0.0020855,0.00022641,0,0,0.0069457,-0.0033309,0,0.00058867,0,0,0,0.0074348,-0.00048327,0.0020855,1.6392,0.0030123,0.0069968,9.9349e-09,0.7,0.32,0
0.030658,0.0039127,0.0071528,-0.0007718,0.0019143,0.00050296,0,0,0.0068101,-0.0034919,0,0.0013077,0,0,0,0.0071846,-0.0008036,0.0019143,3.6171,0.0027651,0.0070347,9.304e-09,0.72,0.32,0
0.030793,0.0039874,0.0063019,-0.0016,0.0014106,0.00062127,0,0,0.0063588,-0.0039138,0,0.0016153,0,0,0,0.0063505,-0.0016486,0.0014106,4.4681,0.0020375,0.0069909,6.9106e-09,0.74,0.32,0
0.030913,0.004025,0.0060809,-0.0006121,0.0016407,0.0005161,0,0,0.036242,-0.0054066,0,0.0072438,0,0,0,0.006121,-0.00065219,0.0016407,4.5474,0.0023698,0.0060914,3.3306e-09,0.76,0.32,0
0.032242,0.004288,0.0067028,0.0015091,0.0024636,-0.00024705,0,0,0.066132,-0.01489,0,-0.0077081,0,0,0,0.0067146,0.0014974,0.0024636,-2.7173,0.0035585,0.0048074,4.9385e-09,0.78,0.32,0
0.033558,0.0048372,0.0070648,0.0011764,0.0024724,-8.1258e-06,0,0,0.071642,-0.020217,0,-0.00025353,0,0,0,0.0070648,0.0011764,0.0024724,-0.079066,0.0035712,0.0053593,6.3743e-09,0.8,0.32,0
0.035108,0.0051179,0.0076311,0.00070362,0.0025004,-0.00011493,0,0,0.080038,-0.02803,0,-0.0035857,0,0,0,0.007633,0.00070172,0.0025004,-0.95018,0.0036117,0.0062298,9.0166e-09,0.82,0.32,0
0.03676,0.0053136,0.007783,0.00039827,0.0024544,-0.00011412,0,0,0.083127,-0.032075,0,-0.0035605,0,0,0,0.0077848,0.00039651,0.0024544,-0.88514,0.0035452,0.0066043,1.0097e-08,0.84,0.32,0
0.038433,0.005462,0.0077297,0.00015546,0.0023656,-0.00010367,0,0,0.083681,-0.034478,0,-0.0032347,0,0,0,0.0077312,0.00015404,0.0023656,-0.78406,0.0034169,0.0067488,1.0262e-08,0.86,0.32,0
0.040107,0.0055767,0.0076392,-2.0397e-05,0.0022856,-9.0079e-05,0,0,0.083515,-0.035974,0,-0.0028105,0,0,0,0.0076402,-2.1456e-05,0.0022856,-0.6737,0.0033015,0.0068079,1.0155e-08,0.88,0.32,0
0.041774,0.0056661,0.007549,-0.00014754,0.0022205,-7.4248e-05,0,0,0.083126,-0.036941,0,-0.0023165,0,0,0,0.0075498,-0.00014826,0.0022205,-0.55266,0.0032073,0.006829,9.9705e-09,0.9,0.32,0
0.043432,0.0057352,0.0074713,-0.00023882,0.0021697,-5.7854e-05,0,0,0.082704,-0.037574,0,-0.0018051,0,0,0,0.0074717,-0.00023926,0.0021697,-0.4299,0.0031341,0.0068328,9.7836e-09,0.92,0.32,0
0.045082,0.0057868,0.0074097,-0.00030294,0.002132,-4.2032e-05,0,0,0.082332,-0.037986,0,-0.0013114,0,0,0,0.00741,-0.00030317,0.002132,-0.31223,0.0030796,0.0068293,9.6243e-09,0.94,0.32,0
0.046725,0.0058229,0.0073655,-0.00034545,0.002106,-2.7221e-05,0,0,0.082048,-0.038243,0,-0.0008493,0,0,0,0.0073656,-0.00034554,0.002106,-0.20226,0.003042,0.0068241,9.5055e-09,0.96,0.32,0
0.048364,0.0058442,0.007339,-0.00036974,0.0020908,-1.3342e-05,0,0,0.081872,-0.038384,0,-0.00041628,0,0,0,0.007339,-0.00036976,0.0020908,-0.099167,0.00302,0.00682,9.4328e-09,0.98,0.32,0
0.05,0.0058512,0.0073301,-0.00037765,0.0020857,1.1317e-05,0,0,0.081813,-0.038429,0,0.00035309,0,0,0,0.0073302,-0.00037766,0.0020857,0.084125,0.0030127,0.0068185,9.4084e-09,1,0.32,0
0,0,0.0058662,0.0025141,0.0025141,0.00045335,0,0,0.052293,0,0,0.014145,0,0,0,0.0059264,0.0024539,0.0025141,7.5678,0.0036315,0.0034429,2.0938e-09,0,0.34,0
0.0010459,0.00028289,0.0058392,0.0022192,0.0024175,0.00045164,0,0,0.053379,-0.0030945,0,0.014091,0,0,0,0.0058947,0.0021637,0.0024175,7.0051,0.003492,0.0036109,2.3777e-09,0.02,0.34,0
0.0021352,0.00056225,0.0059382,0.001997,0.0023806,0.00044511,0,0,0.0555,-0.0059842,0,0.013887,0,0,0,0.0059879,0.0019473,0.0023806,6.3639,0.0034386,0.0038423,2.7889e-09,0.04,0.34,0
0.0032659,0.00083659,0.0060355,0.0017903,0.0023478,0.00043512,0,0,0.05753,-0.0086966,0,0.013576,0,0,0,0.0060797,0.0017461,0.0023478,5.7923,0.0033912,0.0040663,3.1998e-09,0.06,0.34,0
0.0044364,0.0011042,0.0061322,0.0015981,0.0023191,0.00042134,0,0,0.059485,-0.011248,0,0.013146,0,0,0,0.006171,0.0015593,0.0023191,5.2642,0.0033498,0.0042827,3.6101e-09,0.08,0.34,0
0.0056453,0.0013632,0.0062291,0.0014201,0.0022947,0.0004037,0,0,0.061375,-0.013645,0,0.012595,0,0,0,0.0062627,0.0013864,0.0022947,4.7653,0.0033146,0.0044915,4.0198e-09,0.1,0.34,0
0.0068914,0.0016117,0.0063267,0.0012564,0.0022749,0.00038237,0,0,0.063208,-0.015889,0,0.01193,0,0,0,0.0063554,0.0012277,0.0022749,4.2885,0.003286,0.0046925,4.429e-09,0.12,0.34,0
0.0081736,0.0018477,0.0064259,0.0011076,0.00226,0.00035776,0,0,0.064987,-0.017978,0,0.011162,0,0,0,0.0064498,0.0010836,0.00226,3.8313,0.0032645,0.0048854,4.8381e-09,0.14,0.34,0
0.0094908,0.0020697,0.0065271,0.00097444,0.0022505,0.00033046,0,0,0.066716,-0.019906,0,0.01031,0,0,0,0.0065467,0.00095484,0.0022505,3.3939,0.0032507,0.0050698,5.2478e-09,0.16,0.34,0
0.010842,0.002276,0.0066311,0.00085803,0.0022467,0.00030115,0,0,0.068396,-0.021664,0,0.009396,0,0,0,0.0066468,0.00084237,0.0022467,2.9781,0.0032453,0.0052452,5.659e-09,0.18,0.34,0
0.012227,0.0024654,0.0067386,0.00075982,0.0022495,0.00027057,0,0,0.070029,-0.023239,0,0.0084416,0,0,0,0.0067508,0.00074761,0.0022495,2.5858,0.0032493,0.0054109,6.0723e-09,0.2,0.34,0
0.013643,0.0026369,0.0068501,0.00068178,0.0022596,0.00023937,0,0,0.071612,-0.024613,0,0.0074683,0,0,0,0.0068594,0.0006725,0.0022596,2.219,0.0032638,0.0055657,6.4876e-09,0.22,0.34,0
0.015091,0.0027895,0.0069658,0.00062666,0.0022777,0.00020806,0,0,0.073133,-0.025757,0,0.0064915,0,0,0,0.0069726,0.00061984,0.0022777,1.8779,0.0032901,0.0057073,6.902e-09,0.24,0.34,0
0.016569,0.0029225,0.0070849,0.00059856,0.002305,0.00017681,0,0,0.074566,-0.026621,0,0.0055163,0,0,0,0.0070898,0.00059374,0.002305,1.5602,0.0033295,0.0058318,7.3072e-09,0.26,0.34,0
0.018074,0.0030351,0.0072052,0.00060354,0.0023426,0.00014518,0,0,0.075856,-0.02713,0,0.0045297,0,0,0,0.0072084,0.00060035,0.0023426,1.2592,0.0033838,0.005932,7.685e-09,0.28,0.34,0
0.019603,0.0031261,0.0073209,0.00065078,0.0023915,0.00011184,0,0,0.076898,-0.027155,0,0.0034894,0,0,0,0.0073227,0.0006489,0.0023915,0.96034,0.0034544,0.0059956,7.998e-09,0.3,0.34,0
0.02115,0.0031939,0.0074213,0.00075405,0.0024526,7.4044e-05,0,0,0.077512,-0.026498,0,0.0023102,0,0,0,0.0074221,0.00075322,0.0024526,0.6362,0.0035427,0.0060025,8.179e-09,0.32,0.34,0
0.022703,0.0032356,0.007489,0.00093343,0.0025267,2.7988e-05,0,0,0.077411,-0.024855,0,0.00087322,0,0,0,0.0074891,0.00093331,0.0025267,0.24461,0.0036497,0.0059221,8.1207e-09,0.34,0.34,0
0.024246,0.003248,0.0075047,0.0012168,0.0026164,-2.8723e-05,0,0,0.076256,-0.021835,0,-0.00089615,0,0,0,0.0075048,0.0012166,0.0026164,-0.26172,0.0037793,0.0057182,7.6977e-09,0.36,0.34,0
0.025754,0.0032303,0.0074593,0.0016248,0.0027252,-8.9652e-05,0,0,0.073851,-0.017167,0,-0.0027971,0,0,0,0.0074607,0.0016235,0.0027252,-0.88013,0.0039365,0.0053718,6.8458e-09,0.38,0.34,0
0.0272,0.0031876,0.007363,0.0021317,0.0028484,-0.00013747,0,0,0.070427,-0.011181,0,-0.0042892,0,0,0,0.0073666,0.002128,0.0028484,-1.5043,0.0041143,0.0049181,5.6702e-09,0.4,0.34,0
0.028571,0.0031336,0.0071432,3.658e-05,0.0021539,-0.00016655,0,0,0.037893,-0.0050817,0,-0.0027144,0,0,0,0.0071475,3.23e-05,0.0021539,-1.4906,0.0031112,0.0064218,6.7702e-09,0.42,0.34,0
0.028716,0.0031702,0.0071446,-0.0013584,0.0017358,-0.00016364,0,0,0.0070314,-0.0040226,0,-0.00042546,0,0,0,0.0071477,-0.0013616,0.0017358,-1.1021,0.0025073,0.0074596,9.6036e-09,0.44,0.34,0
0.028852,0.0032079,0.0071132,-0.00056012,0.0019659,-0.00012058,0,0,0.0066915,-0.0032839,0,-0.0003135,0,0,0,0.0071151,-0.00056201,0.0019659,-0.90003,0.0028397,0.0067766,8.811e-09,0.46,0.34,0
0.028984,0.0032486,0.0071493,-0.00016279,0.002096,-7.246e-05,0,0,0.0065693,-0.0029363,0,-0.0001884,0,0,0,0.00715,-0.0001635,0.002096,-0.5677,0.0030275,0.006486,8.4966e-09,0.48,0.34,0
0.029115,0.0032915,0.00724,7.1933e-06,0.0021742,-5.8513e-05,0,0,0.0065856,-0.002817,0,-0.00015213,0,0,0,0.0072404,6.72e-06,0.0021742,-0.46348,0.0031404,0.0064301,8.6081e-09,0.5,0.34,0
0.029247,0.0033355,0.0073424,0.00011048,0.0022359,-5.8585e-05,0,0,0.0066384,-0.002763,0,-0.00015232,0,0,0,0.0073428,0.00011,0.0022359,-0.46411,0.0032296,0.0064387,8.8409e-09,0.52,0.34,0
0.02938,0.0033803,0.0074161,0.00019163,0.0022823,-5.5882e-05,0,0,0.0066739,-0.0027179,0,-0.00014529,0,0,0,0.0074165,0.0001912,0.0022823,-0.44316,0.0032967,0.0064397,8.9984e-09,0.54,0.34,0
0.029514,0.0034257,0.0074608,0.00024952,0.0023131,-4.2103e-05,0,0,0.006692,-0.0026826,0,-0.00010947,0,0,0,0.007461,0.00024927,0.0023131,-0.3345,0.0033411,0.0064331,9.0798e-09,0.56,0.34,0
0.029648,0.0034722,0.007489,0.00026762,0.002327,-1.8382e-05,0,0,0.0067106,-0.0026772,0,-4.7793e-05,0,0,0,0.007489,0.00026757,0.002327,-0.14585,0.0033612,0.0064435,9.157e-09,0.58,0.34,0
0.029782,0.00352,0.0075119,0.00023383,0.0023237,1.0894e-05,0,0,0.0067446,-0.0027169,0,2.8323e-05,0,0,0,0.0075119,0.00023381,0.0023237,0.085758,0.0033565,0.0064906,9.292e-09,0.6,0.34,0
0.029918,0.003569,0.0075334,0.00014799,0.0023044,4.0369e-05,0,0,0.0067977,-0.0028034,0,0.00010496,0,0,0,0.0075337,0.00014777,0.0023044,0.31317,0.0033286,0.0065783,9.4984e-09,0.62,0.34,0
0.030054,0.0036193,0.007551,2.2289e-05,0.002272,6.6518e-05,0,0,0.0068627,-0.0029246,0,0.00017295,0,0,0,0.0075516,2.1701e-05,0.002272,0.50616,0.0032818,0.0066947,9.7459e-09,0.64,0.34,0
0.030192,0.0036707,0.0075665,-0.00012544,0.0022323,9.0737e-05,0,0,0.0069345,-0.0030651,0,0.00023592,0,0,0,0.0075676,-0.00012651,0.0022323,0.67576,0.0032245,0.0068275,1.0012e-08,0.66,0.34,0
0.030332,0.0037234,0.0076094,-0.00028859,0.0021962,0.00012733,0,0,0.0070371,-0.0032303,0,0.00033106,0,0,0,0.0076115,-0.00029065,0.0021962,0.92339,0.0031724,0.0069983,1.0404e-08,0.68,0.34,0
0.030474,0.0037782,0.0077843,-0.00049484,0.0021868,0.00020889,0,0,0.0072767,-0.0034862,0,0.00054311,0,0,0,0.0077895,-0.00050011,0.0021868,1.4444,0.0031588,0.0073256,1.1418e-08,0.7,0.34,0
0.030623,0.0038366,0.0083066,-0.00082836,0.0022435,0.00039086,0,0,0.0078821,-0.0039934,0,0.0010162,0,0,0,0.0083233,-0.00084505,0.0022435,2.4455,0.0032406,0.0080797,1.4357e-08,0.72,0.34,0
0.030789,0.0038995,0.0091398,-0.0013788,0.0023283,0.00051652,0,0,0.008855,-0.0048192,0,0.0013429,0,0,0,0.0091651,-0.0014041,0.0023283,2.8045,0.0033631,0.0092839,1.9845e-08,0.74,0.34,0
0.030977,0.0039412,0.0070395,0.00062522,0.0022994,0.0006056,0,0,0.012828,-0.0040978,0,0.0055119,0,0,0,0.007107,0.00055774,0.0022994,8.4444,0.0033214,0.0058754,2.142e-08,0.76,0.34,0
0.031268,0.0040487,0.011264,0.00069746,0.0035884,7.5103e-05,0,0,0.039752,-0.0084325,0,-0.0089021,0,0,0,0.011324,0.00063726,0.0035884,-2.3218,0.0051833,0.0095867,4.8691e-08,0.78,0.34,0
0.033071,0.0044072,0.0088134,0.0014816,0.0030885,-3.698e-05,0,0,0.089309,-0.025068,0,-0.0011538,0,0,0,0.0088136,0.0014814,0.0030885,-0.28897,0.0044612,0.0066754,1.2344e-08,0.8,0.34,0
0.03484,0.0045376,0.0083789,0.00085227,0.0027693,-4.1209e-05,0,0,0.087509,-0.029906,0,-0.0012857,0,0,0,0.0083791,0.00085204,0.0027693,-0.31369,0.0040002,0.006775,1.1764e-08,0.82,0.34,0
0.036572,0.0046596,0.0080774,0.00043061,0.0025524,6.3146e-06,0,0,0.08619,-0.0331,0,0.00019701,0,0,0,0.0080774,0.00043061,0.0025524,0.047314,0.0036868,0.0068375,1.1245e-08,0.84,0.34,0
0.038288,0.0047624,0.0078985,0.00016079,0.0024178,1.6284e-05,0,0,0.085499,-0.035209,0,0.00050807,0,0,0,0.0078985,0.00016075,0.0024178,0.12058,0.0034924,0.0068922,1.0937e-08,0.86,0.34,0
0.039992,0.0048483,0.0077624,-2.3956e-05,0.0023215,1.8557e-05,0,0,0.084877,-0.036589,0,0.00057898,0,0,0,0.0077624,-2.4001e-05,0.0023215,0.13655,0.0033533,0.0069186,1.0653e-08,0.88,0.34,0
0.041683,0.0049192,0.0076513,-0.00015345,0.0022493,1.827e-05,0,0,0.08427,-0.037484,0,0.00057002,0,0,0,0.0076513,-0.00015349,0.0022493,0.13412,0.003249,0.0069235,1.0383e-08,0.9,0.34,0
0.043362,0.0049763,0.0075612,-0.00024473,0.0021949,1.6626e-05,0,0,0.083714,-0.038059,0,0.00051872,0,0,0,0.0075613,-0.00024477,0.0021949,0.12203,0.0031705,0.0069168,1.0143e-08,0.92,0.34,0
0.045032,0.0050203,0.0074915,-0.00030803,0.0021551,1.3776e-05,0,0,0.083249,-0.038424,0,0.00042982,0,0,0,0.0074916,-0.00030806,0.0021551,0.1012,0.0031129,0.0069058,9.9478e-09,0.94,0.34,0
0.046692,0.0050517,0.007442,-0.00034962,0.0021277,9.8589e-06,0,0,0.082903,-0.038647,0,0.0003076,0,0,0,0.0074421,-0.00034963,0.0021277,0.072497,0.0030734,0.0068953,9.8051e-09,0.96,0.34,0
0.048348,0.0050704,0.0074125,-0.00037325,0.0021118,5.1423e-06,0,0,0.082691,-0.038766,0,0.00016044,0,0,0,0.0074125,-0.00037325,0.0021118,0.037843,0.0030503,0.006888,9.7186e-09,0.98,0.34,0
0.05,0.0050767,0.0074026,-0.00038092,0.0021065,1.0027e-05,0,0,0.082619,-0.038804,0,0.00031284,0,0,0,0.0074027,-0.00038093,0.0021065,0.073808,0.0030427,0.0068855,9.6897e-09,1,0.34,0
0,0,0.0058641,0.0025132,0.0025132,0.00035469,0,0,0.052274,-2.1684e-19,0,0.011066,0,0,0,0.0059012,0.002476,0.0025132,5.9765,0.0036301,0.0034068,2.0299e-09,0,0.36,0
0.0010455,0.00022133,0.0058374,0.0022226,0.002418,0.00035283,0,0,0.053343,-0.0030488,0,0.011008,0,0,0,0.0058715,0.0021884,0.002418,5.5229,0.0034927,0.0035739,2.3118e-09,0.02,0.36,0
0.0021337,0.0004433,0.005935,0.0020044,0.0023818,0.00034848,0,0,0.05543,-0.0058882,0,0.010873,0,0,0,0.0059657,0.0019737,0.0023818,5.0274,0.0034404,0.0038044,2.7185e-09,0.04,0.36,0
0.0032627,0.00066385,0.0060309,0.0018019,0.0023498,0.00033944,0,0,0.057424,-0.0085475,0,0.01059,0,0,0,0.006058,0.0017748,0.0023498,4.56,0.0033942,0.0040265,3.1236e-09,0.06,0.36,0
0.0044307,0.00088091,0.0061262,0.0016141,0.0023221,0.00032571,0,0,0.059345,-0.011045,0,0.010162,0,0,0,0.0061496,0.0015907,0.0023221,4.1075,0.0033541,0.0042408,3.5276e-09,0.08,0.36,0
0.0056365,0.0010924,0.006222,0.0014403,0.0022987,0.00030742,0,0,0.061204,-0.013391,0,0.0095914,0,0,0,0.0062417,0.0014206,0.0022987,3.6634,0.0033203,0.0044475,3.9313e-09,0.1,0.36,0
0.0068788,0.0012964,0.0063189,0.0012805,0.0022798,0.00028481,0,0,0.06301,-0.01559,0,0.0088861,0,0,0,0.0063349,0.0012644,0.0022798,3.2251,0.0032931,0.0046468,4.3353e-09,0.12,0.36,0
0.0081569,0.001491,0.0064176,0.001135,0.0022658,0.00025831,0,0,0.064768,-0.01764,0,0.0080591,0,0,0,0.0064302,0.0011224,0.0022658,2.7927,0.0032728,0.0048385,4.7406e-09,0.14,0.36,0
0.0094696,0.0016746,0.0065188,0.0010046,0.002257,0.00022843,0,0,0.066484,-0.019538,0,0.0071269,0,0,0,0.0065282,0.00099516,0.002257,2.3681,0.0032601,0.0050225,5.1484e-09,0.16,0.36,0
0.010816,0.0018459,0.0066232,0.00089022,0.002254,0.00019582,0,0,0.068159,-0.021275,0,0.0061095,0,0,0,0.0066299,0.00088354,0.002254,1.954,0.0032558,0.0051984,5.5598e-09,0.18,0.36,0
0.012196,0.0020037,0.0067315,0.00079326,0.0022574,0.00016122,0,0,0.069796,-0.022841,0,0.00503,0,0,0,0.0067359,0.00078889,0.0022574,1.554,0.0032608,0.0053657,5.9758e-09,0.2,0.36,0
0.013608,0.0021476,0.0068443,0.0007157,0.002268,0.00012547,0,0,0.07139,-0.024216,0,0.0039146,0,0,0,0.0068469,0.00071313,0.002268,1.1723,0.003276,0.005523,6.3961e-09,0.22,0.36,0
0.015052,0.0022771,0.0069616,0.00066035,0.0022866,8.9531e-05,0,0,0.07293,-0.025369,0,0.0027934,0,0,0,0.0069629,0.00065908,0.0022866,0.81386,0.0033028,0.0056681,6.8182e-09,0.24,0.36,0
0.016525,0.0023926,0.0070827,0.00063137,0.0023142,5.4589e-05,0,0,0.074388,-0.026253,0,0.0017032,0,0,0,0.0070831,0.00063091,0.0023142,0.48477,0.0033428,0.0057969,7.2338e-09,0.26,0.36,0
0.018027,0.002495,0.0072051,0.00063494,0.002352,2.2209e-05,0,0,0.075708,-0.026786,0,0.00069292,0,0,0,0.0072051,0.00063487,0.002352,0.19367,0.0033973,0.0059021,7.624e-09,0.28,0.36,0
0.019554,0.0025857,0.007323,0.00068039,0.002401,-5.3905e-06,0,0,0.076783,-0.026842,0,-0.00016818,0,0,0,0.007323,0.00068039,0.002401,-0.046496,0.0034681,0.0059712,7.9512e-09,0.3,0.36,0
0.021098,0.0026674,0.0074256,0.0007817,0.0024622,-2.4977e-05,0,0,0.077429,-0.026215,0,-0.00077927,0,0,0,0.0074256,0.0007816,0.0024622,-0.21539,0.0035565,0.0059835,8.1463e-09,0.32,0.36,0
0.022651,0.0027437,0.0074951,0.0009592,0.0025363,-3.2617e-05,0,0,0.077357,-0.024603,0,-0.0010177,0,0,0,0.0074953,0.00095903,0.0025363,-0.28592,0.0036635,0.0059077,8.0994e-09,0.34,0.36,0
0.024193,0.0028189,0.0075124,0.0012408,0.002626,-2.5916e-05,0,0,0.076228,-0.021608,0,-0.00080858,0,0,0,0.0075125,0.0012407,0.002626,-0.23676,0.0037931,0.0057067,7.6822e-09,0.36,0.36,0
0.0257,0.0028952,0.0074688,0.0016467,0.0027346,-1.0554e-05,0,0,0.073853,-0.016972,0,-0.0003293,0,0,0,0.0074688,0.0016467,0.0027346,-0.10387,0.00395,0.0053616,6.8301e-09,0.38,0.36,0
0.027147,0.0029696,0.0073746,0.0021492,0.0028572,-1.1172e-06,0,0,0.070473,-0.011044,0,-3.4858e-05,0,0,0,0.0073746,0.0021492,0.0028572,-0.01225,0.004127,0.0049099,5.6553e-09,0.4,0.36,0
0.028519,0.0030327,0.0071601,6.7257e-05,0.0021682,-1.3164e-05,0,0,0.03793,-0.0050422,0,7.2951e-05,0,0,0,0.0071601,6.719e-05,0.0021682,-0.056884,0.0031318,0.0064045,6.81e-09,0.42,0.36,0
0.028664,0.0030893,0.0071639,-0.0013323,0.0017495,-7.285e-05,0,0,0.0070388,-0.0040063,0,-0.00018941,0,0,0,0.0071645,-0.001333,0.0017495,-0.49123,0.002527,0.0074509,9.6506e-09,0.44,0.36,0
0.0288,0.0031417,0.0071356,-0.00055712,0.0019736,-0.00014756,0,0,0.0067107,-0.0032899,0,-0.00038366,0,0,0,0.0071385,-0.00055994,0.0019736,-1.0985,0.0028507,0.0067956,8.894e-09,0.46,0.36,0
0.028932,0.0031897,0.0071738,-0.00017326,0.0021001,-0.00019192,0,0,0.0065957,-0.0029554,0,-0.00049899,0,0,0,0.0071788,-0.00017827,0.0021001,-1.4953,0.0030335,0.0065234,8.6164e-09,0.48,0.36,0
0.029064,0.0032354,0.0072643,-9.9839e-06,0.0021763,-0.00018014,0,0,0.0066144,-0.0028421,0,-0.00046836,0,0,0,0.0072687,-1.4442e-05,0.0021763,-1.4177,0.0031435,0.0064721,8.7367e-09,0.5,0.36,0
0.029197,0.0032805,0.0073652,8.9589e-05,0.0022365,-0.00014242,0,0,0.0066674,-0.0027909,0,-0.00037028,0,0,0,0.007368,8.6802e-05,0.0022365,-1.1209,0.0032304,0.0064796,8.9643e-09,0.52,0.36,0
0.029331,0.0033259,0.0074376,0.0001683,0.0022818,-0.00010073,0,0,0.0067025,-0.0027475,0,-0.00026191,0,0,0,0.007439,0.0001669,0.0022818,-0.79377,0.0032959,0.0064789,9.1153e-09,0.54,0.36,0
0.029465,0.0033719,0.0074814,0.0002245,0.0023118,-6.5892e-05,0,0,0.0067205,-0.0027134,0,-0.00017132,0,0,0,0.007482,0.0002239,0.0023118,-0.52019,0.0033392,0.0064719,9.1941e-09,0.56,0.36,0
0.0296,0.0034184,0.0075091,0.00024114,0.0023251,-3.7812e-05,0,0,0.0067392,-0.0027091,0,-9.8312e-05,0,0,0,0.0075093,0.00024095,0.0023251,-0.29808,0.0033584,0.0064826,9.2717e-09,0.58,0.36,0
0.029735,0.0034653,0.0075321,0.00020601,0.0023214,-1.2551e-05,0,0,0.0067739,-0.00275,0,-3.2632e-05,0,0,0,0.0075321,0.00020599,0.0023214,-0.098157,0.0033532,0.0065306,9.4086e-09,0.6,0.36,0
0.029871,0.0035127,0.0075539,0.00011899,0.0023019,1.4914e-05,0,0,0.0068277,-0.0028377,0,3.8776e-05,0,0,0,0.007554,0.00011896,0.0023019,0.11493,0.0033249,0.0066192,9.6174e-09,0.62,0.36,0
0.030008,0.0035606,0.0075717,-7.5637e-06,0.0022692,4.7371e-05,0,0,0.0068932,-0.0029599,0,0.00012317,0,0,0,0.007572,-7.8597e-06,0.0022692,0.35808,0.0032778,0.0067364,9.8666e-09,0.64,0.36,0
0.030146,0.0036092,0.0075865,-0.00015519,0.0022294,8.1672e-05,0,0,0.0069643,-0.0031,0,0.00021235,0,0,0,0.0075874,-0.00015605,0.0022294,0.60435,0.0032203,0.0068687,1.013e-08,0.66,0.36,0
0.030286,0.0036584,0.0076245,-0.00031712,0.0021922,9.9637e-05,0,0,0.0070619,-0.0032621,0,0.00025906,0,0,0,0.0076257,-0.00031837,0.0021922,0.71869,0.0031665,0.0070333,1.0498e-08,0.68,0.36,0
0.030429,0.003707,0.0077816,-0.00052028,0.0021784,6.1593e-05,0,0,0.0072841,-0.0035083,0,0.00016014,0,0,0,0.007782,-0.00052074,0.0021784,0.42506,0.0031466,0.0073356,1.1412e-08,0.7,0.36,0
0.030578,0.0037529,0.008226,-0.00086418,0.0022086,-0.00010061,0,0,0.0078227,-0.0039946,0,-0.0002616,0,0,0,0.0082271,-0.0008653,0.0022086,-0.63407,0.0031901,0.0080108,1.3903e-08,0.72,0.36,0
0.030742,0.0037946,0.0088485,-0.0014492,0.0022198,-0.00019397,0,0,0.0086173,-0.0047696,0,-0.00050433,0,0,0,0.0088521,-0.0014528,0.0022198,-1.0787,0.0032064,0.0090462,1.7994e-08,0.74,0.36,0
0.030922,0.003863,0.0066675,0.0003878,0.0021166,-0.00026573,0,0,0.012306,-0.0043249,0,-0.0027154,0,0,0,0.0066825,0.00037278,0.0021166,-4.3418,0.0030573,0.0056438,1.8547e-08,0.76,0.36,0
0.031201,0.0039154,0.010919,0.00061897,0.0034614,0.00030665,0,0,0.039656,-0.0076752,0,0.013488,0,0,0,0.011002,0.00053636,0.0034614,4.63,0.0049998,0.0093849,4.2664e-08,0.78,0.36,0
0.033023,0.0038345,0.0088964,0.0015118,0.0031225,0.00029892,0,0,0.090073,-0.025126,0,0.0093262,0,0,0,0.0089085,0.0014997,0.0031225,2.3142,0.0045102,0.0067454,1.2741e-08,0.8,0.36,0
0.034804,0.0039217,0.0084311,0.00087017,0.0027904,0.00025737,0,0,0.087995,-0.029955,0,0.0080301,0,0,0,0.0084399,0.00086142,0.0027904,1.9473,0.0040305,0.0068217,1.2016e-08,0.82,0.36,0
0.036543,0.0039896,0.0081111,0.00044085,0.0025656,0.0001892,0,0,0.086511,-0.033146,0,0.0059029,0,0,0,0.0081158,0.00043619,0.0025656,1.4121,0.0037059,0.0068672,1.14e-08,0.84,0.36,0
0.038265,0.0040536,0.0079264,0.00017036,0.002429,0.00016081,0,0,0.085759,-0.035235,0,0.0050174,0,0,0,0.0079297,0.00016703,0.002429,1.1873,0.0035086,0.006915,1.1058e-08,0.86,0.36,0
0.039973,0.0041132,0.0077869,-1.3699e-05,0.002332,0.00013936,0,0,0.085097,-0.036592,0,0.0043482,0,0,0,0.0077894,-1.6188e-05,0.002332,1.0232,0.0033684,0.0069363,1.0753e-08,0.88,0.36,0
0.041668,0.0041668,0.0076735,-0.00014202,0.0022594,0.00011839,0,0,0.084459,-0.037463,0,0.0036937,0,0,0,0.0076753,-0.00014382,0.0022594,0.86763,0.0032636,0.0069371,1.0467e-08,0.9,0.36,0
0.043352,0.0042128,0.0075817,-0.0002321,0.0022049,9.6332e-05,0,0,0.083879,-0.038017,0,0.0030056,0,0,0,0.0075829,-0.00023329,0.0022049,0.70622,0.0031848,0.0069268,1.0215e-08,0.92,0.36,0
0.045024,0.0042499,0.0075109,-0.00029434,0.002165,7.3187e-05,0,0,0.083396,-0.038365,0,0.0022834,0,0,0,0.0075115,-0.00029503,0.002165,0.53718,0.0031271,0.006913,1.001e-08,0.94,0.36,0
0.046687,0.004277,0.0074605,-0.00033513,0.0021376,4.9223e-05,0,0,0.083037,-0.038575,0,0.0015358,0,0,0,0.0074608,-0.00033544,0.0021376,0.36176,0.0030877,0.0069005,9.8611e-09,0.96,0.36,0
0.048345,0.0042935,0.0074305,-0.00035826,0.0021217,2.4737e-05,0,0,0.082817,-0.038687,0,0.00077181,0,0,0,0.0074306,-0.00035833,0.0021217,0.18197,0.0030646,0.0068921,9.7709e-09,0.98,0.36,0
0.05,0.0042991,0.0074205,-0.00036575,0.0021164,8.8996e-06,0,0,0.082743,-0.038722,0,0.00027767,0,0,0,0.0074205,-0.00036576,0.0021164,0.065488,0.003057,0.0068891,9.7407e-09,1,0.36,0
0,0,0.0058496,0.002507,0.002507,0.00025791,0,0,0.052145,6.5052e-19,0,0.0080469,0,0,0,0.0058694,0.0024872,0.002507,4.3863,0.0036212,0.0033723,1.9696e-09,0,0.38,0
0.0010429,0.00016094,0.0058235,0.0022231,0.002414,0.00025591,0,0,0.053188,-0.0029775,0,0.0079845,0,0,0,0.0058416,0.002205,0.002414,4.0454,0.0034869,0.0035367,2.2454e-09,0.02,0.38,0
0.0021275,0.00032672,0.0059187,0.0020103,0.0023787,0.00025376,0,0,0.055224,-0.0057472,0,0.0079174,0,0,0,0.0059351,0.0019939,0.0023787,3.6993,0.0034359,0.0037636,2.6418e-09,0.04,0.38,0
0.0032519,0.00049469,0.0060123,0.0018131,0.0023476,0.00024566,0,0,0.057168,-0.008338,0,0.0076646,0,0,0,0.0060266,0.0017988,0.0023476,3.3368,0.003391,0.0039818,3.0358e-09,0.06,0.38,0
0.0044143,0.00066239,0.0061052,0.0016304,0.0023207,0.00023191,0,0,0.059039,-0.010769,0,0.0072358,0,0,0,0.0061172,0.0016184,0.0023207,2.9589,0.0033521,0.004192,3.4283e-09,0.08,0.38,0
0.0056134,0.00082755,0.0061986,0.0014614,0.002298,0.00021284,0,0,0.060849,-0.013051,0,0.0066407,0,0,0,0.0062081,0.0014518,0.002298,2.5674,0.0033193,0.0043947,3.8202e-09,0.1,0.38,0
0.0068482,0.00098808,0.006293,0.0013061,0.0022797,0.00018879,0,0,0.062607,-0.015189,0,0.0058904,0,0,0,0.0063001,0.0012989,0.0022797,2.165,0.0032929,0.0045901,4.2126e-09,0.12,0.38,0
0.0081177,0.0011421,0.0063893,0.0011646,0.0022662,0.00016019,0,0,0.06432,-0.017184,0,0.0049978,0,0,0,0.0063942,0.0011597,0.0022662,1.7545,0.0032733,0.0047783,4.6064e-09,0.14,0.38,0
0.009421,0.0012882,0.006488,0.0010376,0.0022577,0.00012752,0,0,0.065993,-0.019033,0,0.0039787,0,0,0,0.006491,0.0010347,0.0022577,1.3396,0.0032611,0.0049592,5.0031e-09,0.16,0.38,0
0.010757,0.001425,0.0065899,0.00092602,0.0022548,9.141e-05,0,0,0.067628,-0.020729,0,0.002852,0,0,0,0.0065914,0.00092454,0.0022548,0.92437,0.0032569,0.0051327,5.4039e-09,0.18,0.38,0
0.012126,0.0015518,0.0066957,0.00083103,0.002258,5.2596e-05,0,0,0.069228,-0.022261,0,0.001641,0,0,0,0.0066962,0.00083056,0.002258,0.51378,0.0032616,0.0052982,5.81e-09,0.2,0.38,0
0.013527,0.0016682,0.0068061,0.00075451,0.0022682,1.2047e-05,0,0,0.070791,-0.023613,0,0.00037586,0,0,0,0.0068061,0.00075448,0.0022682,0.11406,0.0032763,0.0054546,6.2218e-09,0.22,0.38,0
0.014958,0.0017747,0.0069214,0.00069901,0.0022861,-2.8899e-05,0,0,0.07231,-0.024759,0,-0.00090164,0,0,0,0.0069215,0.00069888,0.0022861,-0.26609,0.0033022,0.0056003,6.6378e-09,0.24,0.38,0
0.016419,0.0018724,0.0070415,0.00066825,0.0023129,-6.8243e-05,0,0,0.073765,-0.025657,0,-0.0021292,0,0,0,0.0070422,0.00066752,0.0023129,-0.61342,0.0033409,0.0057319,7.0526e-09,0.26,0.38,0
0.017908,0.0019636,0.0071653,0.00066761,0.0023499,-0.00010283,0,0,0.07512,-0.026243,0,-0.0032082,0,0,0,0.0071669,0.00066599,0.0023499,-0.90642,0.0033943,0.0058439,7.4534e-09,0.28,0.38,0
0.019424,0.0020524,0.0072897,0.00070506,0.0023984,-0.00012751,0,0,0.076304,-0.026416,0,-0.0039783,0,0,0,0.0072922,0.00070259,0.0023984,-1.109,0.0034644,0.0059265,7.8134e-09,0.3,0.38,0
0.020961,0.0021452,0.0074079,0.0007922,0.0024601,-0.00013413,0,0,0.077187,-0.026018,0,-0.0041849,0,0,0,0.0074107,0.00078948,0.0024601,-1.161,0.0035534,0.005964,8.0821e-09,0.32,0.38,0
0.022511,0.0022515,0.0075067,0.00094599,0.0025358,-0.00011079,0,0,0.077546,-0.024801,0,-0.0034566,0,0,0,0.0075086,0.00094412,0.0025358,-0.96717,0.0036628,0.005931,8.1702e-09,0.34,0.38,0
0.024062,0.0023837,0.0075574,0.0011889,0.0026239,-4.6783e-05,0,0,0.076962,-0.022385,0,-0.0014596,0,0,0,0.0075577,0.0011886,0.0026239,-0.42087,0.0037901,0.0057865,7.9252e-09,0.36,0.38,0
0.02559,0.0025514,0.007538,0.0015687,0.002732,5.1283e-05,0,0,0.074973,-0.018148,0,0.0016,0,0,0,0.0075384,0.0015683,0.002732,0.49219,0.0039462,0.0054817,7.1916e-09,0.38,0.38,0
0.027061,0.0027458,0.0074617,0.0021102,0.0028716,0.00013243,0,0,0.071606,-0.011877,0,0.0041317,0,0,0,0.007465,0.0021069,0.0028716,1.4167,0.0041478,0.0050196,5.9907e-09,0.4,0.38,0
0.028454,0.0029319,0.0072011,3.8928e-05,0.002172,0.00013395,0,0,0.038452,-0.0051194,0,0.0029296,0,0,0,0.0072049,3.5132e-05,0.002172,1.3398,0.0031373,0.0064726,6.8676e-09,0.42,0.38,0
0.028599,0.0030099,0.0072781,-0.0011132,0.0018495,2.0956e-05,0,0,0.0070572,-0.0038514,0,5.4485e-05,0,0,0,0.0072782,-0.0011132,0.0018495,0.14309,0.0026715,0.007371,9.9368e-09,0.44,0.38,0
0.028736,0.0030763,0.0072636,-0.00039402,0.0020609,-0.00022082,0,0,0.0067636,-0.0031914,0,-0.00057413,0,0,0,0.00727,-0.00040038,0.0020609,-1.6504,0.0029768,0.0067833,9.208e-09,0.46,0.38,0
0.02887,0.0031304,0.0073042,-0.00020416,0.00213,-0.00031954,0,0,0.0067265,-0.0030344,0,-0.0008308,0,0,0,0.0073178,-0.00021774,0.00213,-2.4325,0.0030767,0.0066787,9.171e-09,0.48,0.38,0
0.029005,0.0031778,0.0074312,-8.082e-05,0.0022051,-0.00028987,0,0,0.0067939,-0.0029717,0,-0.00075367,0,0,0,0.0074424,-9.1989e-05,0.0022051,-2.2066,0.0031852,0.0066885,9.4804e-09,0.5,0.38,0
0.029142,0.0032239,0.0075102,2.0355e-05,0.0022592,-0.0002048,0,0,0.0068263,-0.0029104,0,-0.00053249,0,0,0,0.0075157,1.4759e-05,0.0022592,-1.5652,0.0032632,0.0066684,9.6172e-09,0.52,0.38,0
0.029278,0.0032704,0.0075498,0.0001205,0.0023011,-0.00012838,0,0,0.0068233,-0.0028348,0,-0.00033379,0,0,0,0.007552,0.00011829,0.0023011,-0.9897,0.0033238,0.006618,9.6109e-09,0.54,0.38,0
0.029415,0.0033172,0.007565,0.00019639,0.0023284,-7.8328e-05,0,0,0.0068075,-0.0027716,0,-0.00020365,0,0,0,0.0075658,0.00019556,0.0023284,-0.60896,0.0033633,0.0065689,9.552e-09,0.56,0.38,0
0.029551,0.0033639,0.0075756,0.00022483,0.0023401,-5.2079e-05,0,0,0.0068061,-0.0027499,0,-0.00013541,0,0,0,0.007576,0.00022447,0.0023401,-0.4059,0.0033802,0.006555,9.5484e-09,0.58,0.38,0
0.029687,0.00341,0.0075927,0.00019038,0.0023349,-3.6062e-05,0,0,0.0068351,-0.0027879,0,-9.376e-05,0,0,0,0.0075929,0.0001902,0.0023349,-0.27912,0.0033727,0.0065972,9.6638e-09,0.6,0.38,0
0.029824,0.0034555,0.0076175,9.3166e-05,0.0023132,-1.4917e-05,0,0,0.0068956,-0.0028861,0,-3.8785e-05,0,0,0,0.0076176,9.3137e-05,0.0023132,-0.11359,0.0033413,0.0066964,9.9014e-09,0.62,0.38,0
0.029963,0.0035009,0.0076414,-5.0693e-05,0.0022772,2.3032e-05,0,0,0.0069734,-0.0030263,0,5.9883e-05,0,0,0,0.0076415,-5.0762e-05,0.0022772,0.17156,0.0032893,0.0068325,1.0201e-08,0.64,0.38,0
0.030103,0.0035467,0.0076445,-0.00021598,0.0022286,7.5627e-05,0,0,0.0070408,-0.0031779,0,0.00019663,0,0,0,0.0076453,-0.0002167,0.0022286,0.55118,0.003219,0.0069689,1.0444e-08,0.66,0.38,0
0.030244,0.0035929,0.0076029,-0.00037646,0.0021679,0.00011498,0,0,0.0070655,-0.0033077,0,0.00029895,0,0,0,0.0076046,-0.00037812,0.0021679,0.82538,0.0031315,0.0070627,1.0488e-08,0.68,0.38,0
0.030386,0.0036378,0.0074659,-0.00054929,0.002075,6.2006e-05,0,0,0.0070082,-0.0034116,0,0.00016121,0,0,0,0.0074664,-0.00054977,0.002075,0.4432,0.0029972,0.0070787,1.0136e-08,0.7,0.38,0
0.030525,0.0036768,0.0071572,-0.0008131,0.0019032,-0.00015606,0,0,0.0068302,-0.0035312,0,-0.00040577,0,0,0,0.0071603,-0.00081615,0.0019032,-1.1213,0.0027491,0.0070234,9.224e-09,0.72,0.38,0
0.030659,0.0037087,0.0063939,-0.0015543,0.0014519,-0.00025935,0,0,0.0064246,-0.003908,0,-0.00067432,0,0,0,0.0064024,-0.0015627,0.0014519,-1.8669,0.0020972,0.0069655,7.0497e-09,0.74,0.38,0
0.030782,0.0037723,0.0061397,-0.00069669,0.0016329,-0.00021055,0,0,0.036526,-0.005591,0,-0.0034321,0,0,0,0.0061468,-0.00070372,0.0016329,-1.9361,0.0023586,0.0061605,3.2755e-09,0.76,0.38,0
0.03212,0.0037215,0.0068127,0.0017064,0.0025557,0.00049708,0,0,0.066409,-0.013249,0,0.015509,0,0,0,0.0068607,0.0016585,0.0025557,5.5086,0.0036916,0.0048166,5.0744e-09,0.78,0.38,0
0.033438,0.0034022,0.0071324,0.0012232,0.0025067,0.00026203,0,0,0.072161,-0.020022,0,0.0081753,0,0,0,0.007144,0.0012116,0.0025067,2.534,0.0036207,0.0054025,6.5565e-09,0.8,0.38,0
0.035006,0.0033394,0.007729,0.00073869,0.0025403,0.00034434,0,0,0.080944,-0.028105,0,0.010743,0,0,0,0.0077459,0.00072177,0.0025403,2.8133,0.0036693,0.0063144,9.4064e-09,0.82,0.38,0
0.036676,0.0033337,0.0078724,0.00042742,0.0024899,0.00031757,0,0,0.083966,-0.032175,0,0.009908,0,0,0,0.0078859,0.00041389,0.0024899,2.4381,0.0035966,0.0066805,1.0475e-08,0.84,0.38,0
0.038365,0.0033529,0.0078092,0.0001841,0.002398,0.00028673,0,0,0.084415,-0.034537,0,0.0089461,0,0,0,0.00782,0.00017333,0.002398,2.1505,0.0034637,0.0068124,1.0592e-08,0.86,0.38,0
0.040052,0.0033846,0.0077108,1.0744e-05,0.0023165,0.00025258,0,0,0.084152,-0.035969,0,0.0078806,0,0,0,0.0077191,2.4674e-06,0.0023165,1.8768,0.003346,0.0068589,1.0437e-08,0.88,0.38,0
0.041731,0.0034207,0.0076145,-0.00011287,0.0022505,0.00021443,0,0,0.083679,-0.036868,0,0.0066902,0,0,0,0.0076205,-0.00011882,0.0022505,1.5883,0.0032507,0.0068683,1.0211e-08,0.9,0.38,0
0.0434,0.0034556,0.0075321,-0.00020055,0.0021995,0.00017344,0,0,0.083189,-0.03744,0,0.0054114,0,0,0,0.007536,-0.00020444,0.0021995,1.2843,0.003177,0.0068619,9.9904e-09,0.92,0.38,0
0.045059,0.0034857,0.0074671,-0.00026154,0.0021617,0.00013085,0,0,0.082765,-0.037802,0,0.0040827,0,0,0,0.0074693,-0.00026376,0.0021617,0.96971,0.0031224,0.0068504,9.8053e-09,0.94,0.38,0
0.04671,0.0035087,0.0074206,-0.00030167,0.0021357,8.7488e-05,0,0,0.082445,-0.038023,0,0.0027296,0,0,0,0.0074216,-0.00030266,0.0021357,0.64901,0.0030849,0.0068392,9.6685e-09,0.96,0.38,0
0.048356,0.003523,0.0073927,-0.00032449,0.0021205,4.3798e-05,0,0,0.082247,-0.038141,0,0.0013665,0,0,0,0.007393,-0.00032474,0.0021205,0.32516,0.0030629,0.0068316,9.5852e-09,0.98,0.38,0
0.05,0.0035278,0.0073834,-0.0003319,0.0021155,7.7742e-06,0,0,0.08218,-0.038179,0,0.00024256,0,0,0,0.0073834,-0.00033191,0.0021155,0.057733,0.0030557,0.0068289,9.5573e-09,1,0.38,0
0,0,0.0058229,0.0024955,0.0024955,0.00016383,0,0,0.051907,3.2526e-19,0,0.0051115,0,0,0,0.005831,0.0024875,0.0024955,2.812,0.0036047,0.0033394,1.9127e-09,0,0.4,0
0.0010381,0.00010223,0.0057976,0.0022208,0.0024055,0.00016173,0,0,0.052917,-0.0028814,0,0.0050458,0,0,0,0.0058049,0.0022135,0.0024055,2.5836,0.0034747,0.0034994,2.1785e-09,0.02,0.4,0
0.0021167,0.00021341,0.0058897,0.0020148,0.0023713,0.0001618,0,0,0.054886,-0.0055625,0,0.0050481,0,0,0,0.0058964,0.002008,0.0023713,2.3869,0.0034252,0.0037201,2.5592e-09,0.04,0.4,0
0.0032336,0.00033033,0.0059799,0.0018238,0.0023411,0.00015472,0,0,0.056765,-0.0080696,0,0.0048271,0,0,0,0.0059857,0.0018181,0.0023411,2.129,0.0033816,0.0039322,2.9373e-09,0.06,0.4,0
0.0043873,0.00045015,0.0060694,0.001647,0.0023149,0.00014107,0,0,0.058571,-0.01042,0,0.0044015,0,0,0,0.0060739,0.0016425,0.0023149,1.8252,0.0033438,0.0041365,3.3135e-09,0.08,0.4,0
0.0055764,0.00057038,0.0061591,0.0014835,0.0022928,0.00012137,0,0,0.060315,-0.012625,0,0.0037867,0,0,0,0.0061623,0.0014803,0.0022928,1.4859,0.0033118,0.0043332,3.6885e-09,0.1,0.4,0
0.0067999,0.00068882,0.0062496,0.0013332,0.0022748,9.6042e-05,0,0,0.062006,-0.014689,0,0.0029965,0,0,0,0.0062515,0.0013314,0.0022748,1.1187,0.0032859,0.0045228,4.0633e-09,0.12,0.4,0
0.0080566,0.00080362,0.0063415,0.0011964,0.0022614,6.5538e-05,0,0,0.06365,-0.016613,0,0.0020448,0,0,0,0.0063423,0.0011956,0.0022614,0.72968,0.0032664,0.0047053,4.4388e-09,0.14,0.4,0
0.0093459,0.00091328,0.0064354,0.0010735,0.0022527,3.0339e-05,0,0,0.065251,-0.018395,0,0.00094657,0,0,0,0.0064356,0.0010734,0.0022527,0.32418,0.0032539,0.0048807,4.8162e-09,0.16,0.4,0
0.010667,0.0010167,0.0065321,0.00096536,0.0022492,-8.9934e-06,0,0,0.066812,-0.020028,0,-0.00028059,0,0,0,0.0065321,0.00096535,0.0022492,-0.092565,0.0032489,0.0050488,5.1966e-09,0.18,0.4,0
0.012018,0.0011133,0.0066321,0.00087307,0.0022516,-5.1746e-05,0,0,0.068337,-0.021504,0,-0.0016145,0,0,0,0.0066326,0.0008726,0.0022516,-0.51475,0.0032522,0.0052092,5.5812e-09,0.2,0.4,0
0.0134,0.001203,0.0067363,0.0007982,0.0022603,-9.6939e-05,0,0,0.069825,-0.022809,0,-0.0030245,0,0,0,0.0067379,0.00079662,0.0022603,-0.93502,0.0032649,0.0053614,5.971e-09,0.22,0.4,0
0.014811,0.0012868,0.0068454,0.00074288,0.0022765,-0.00014312,0,0,0.071275,-0.023924,0,-0.0044654,0,0,0,0.0068487,0.00073952,0.0022765,-1.3428,0.0032882,0.0055041,6.3661e-09,0.24,0.4,0
0.016251,0.0013664,0.0069603,0.00071003,0.0023011,-0.00018801,0,0,0.072684,-0.024821,0,-0.0058658,0,0,0,0.006966,0.00070438,0.0023011,-1.7214,0.0033238,0.0056355,6.7652e-09,0.26,0.4,0
0.017719,0.0014453,0.0070819,0.00070371,0.0023357,-0.00022785,0,0,0.074041,-0.025459,0,-0.0071089,0,0,0,0.0070901,0.00069558,0.0023357,-2.0433,0.0033738,0.0057525,7.1638e-09,0.28,0.4,0
0.019213,0.0015291,0.0072113,0.00072958,0.0023822,-0.00025644,0,0,0.075333,-0.025782,0,-0.008001,0,0,0,0.0072214,0.00071945,0.0023822,-2.2621,0.003441,0.0058505,7.553e-09,0.3,0.4,0
0.020732,0.0016267,0.0073491,0.00079562,0.0024434,-0.00026344,0,0,0.076529,-0.025706,0,-0.0082194,0,0,0,0.0073597,0.00078505,0.0024434,-2.2983,0.0035294,0.0059223,7.915e-09,0.32,0.4,0
0.022274,0.0017517,0.0074938,0.00091314,0.0025221,-0.0002325,0,0,0.077559,-0.0251,0,-0.0072541,0,0,0,0.007502,0.00090494,0.0025221,-2.021,0.003643,0.0059555,8.2121e-09,0.34,0.4,0
0.023834,0.0019235,0.0076321,0.0011002,0.0026197,-0.0001377,0,0,0.078194,-0.023704,0,-0.0042961,0,0,0,0.007635,0.0010972,0.0026197,-1.2071,0.003784,0.0059251,8.3526e-09,0.36,0.4,0
0.025402,0.0021693,0.0076805,0.0013763,0.0027171,3.7178e-05,0,0,0.07743,-0.020915,0,0.0011599,0,0,0,0.0076807,0.0013761,0.0027171,0.33788,0.0039246,0.0057526,8.0149e-09,0.38,0.4,0
0.026932,0.0024945,0.0076261,0.0019283,0.0028663,0.00024529,0,0,0.074253,-0.014634,0,0.007653,0,0,0,0.0076367,0.0019177,0.0028663,2.4605,0.0041402,0.0053086,6.8638e-09,0.4,0.4,0
0.028372,0.0028279,0.0074097,-1.4447e-05,0.0022186,0.0003705,0,0,0.039755,-0.0053593,0,0.0065597,0,0,0,0.0074312,-3.5966e-05,0.0022186,3.2532,0.0032046,0.0067346,7.5134e-09,0.42,0.4,0
0.028522,0.0029353,0.0076605,-0.00039731,0.002179,-2.2584e-05,0,0,0.007126,-0.0033491,0,-5.8718e-05,0,0,0,0.0076606,-0.00039737,0.002179,-0.16058,0.0031474,0.007128,1.0742e-08,0.44,0.4,0
0.028657,0.003014,0.0074351,-0.00034305,0.0021276,-0.00034864,0,0,0.0068997,-0.0032119,0,-0.00090646,0,0,0,0.0074507,-0.00035865,0.0021276,-2.5613,0.0030732,0.0069102,9.8498e-09,0.46,0.4,0
0.028798,0.0030684,0.0076782,-0.00026091,0.0022252,-0.00044828,0,0,0.0070889,-0.0032319,0,-0.0011655,0,0,0,0.0077035,-0.00028614,0.0022252,-3.2215,0.0032142,0.0070764,1.0775e-08,0.48,0.4,0
0.02894,0.0031165,0.0077513,-0.00020626,0.0022635,-0.00033847,0,0,0.0071341,-0.0032107,0,-0.00088003,0,0,0,0.0077657,-0.00022063,0.0022635,-2.4312,0.0032695,0.0070791,1.0946e-08,0.5,0.4,0
0.029083,0.003164,0.0077604,-7.9713e-05,0.0023042,-0.00020838,0,0,0.007093,-0.0030991,0,-0.0005418,0,0,0,0.0077659,-8.5248e-05,0.0023042,-1.5214,0.0033283,0.0069707,1.0756e-08,0.52,0.4,0
0.029224,0.0032125,0.0077271,6.0354e-05,0.0023362,-0.00010974,0,0,0.0070081,-0.0029586,0,-0.00028533,0,0,0,0.0077286,5.8783e-05,0.0023362,-0.81991,0.0033746,0.0068224,1.0394e-08,0.54,0.4,0
0.029363,0.0032611,0.0076938,0.00017655,0.0023611,-6.253e-05,0,0,0.0069325,-0.0028399,0,-0.00016258,0,0,0,0.0076943,0.00017603,0.0023611,-0.47656,0.0034105,0.0066986,1.0081e-08,0.56,0.4,0
0.029501,0.0033084,0.0076755,0.00022645,0.0023706,-5.3165e-05,0,0,0.0068964,-0.0027874,0,-0.00013823,0,0,0,0.0076759,0.00022607,0.0023706,-0.4089,0.0034242,0.0066425,9.9333e-09,0.58,0.4,0
0.029639,0.0033538,0.0076836,0.00019399,0.0023633,-5.9421e-05,0,0,0.0069164,-0.0028201,0,-0.00015449,0,0,0,0.0076841,0.00019352,0.0023633,-0.45453,0.0034136,0.0066756,1.0015e-08,0.6,0.4,0
0.029778,0.0033972,0.0077169,7.9416e-05,0.0023389,-5.5993e-05,0,0,0.0069914,-0.0029373,0,-0.00014558,0,0,0,0.0077173,7.9005e-05,0.0023389,-0.42003,0.0033784,0.0067963,1.0318e-08,0.62,0.4,0
0.029919,0.0034395,0.0077608,-9.9845e-05,0.0022983,-2.1006e-05,0,0,0.0071012,-0.0031176,0,-5.4616e-05,0,0,0,0.0077608,-9.9901e-05,0.0022983,-0.15311,0.0033197,0.0069779,1.0756e-08,0.64,0.4,0
0.030062,0.0034821,0.0077906,-0.00029882,0.0022475,5.8319e-05,0,0,0.007206,-0.0033103,0,0.00015163,0,0,0,0.007791,-0.00029924,0.0022475,0.41303,0.0032464,0.0071648,1.116e-08,0.66,0.4,0
0.030207,0.0035261,0.0077428,-0.00047399,0.0021807,0.00016376,0,0,0.0072308,-0.003451,0,0.00042579,0,0,0,0.0077461,-0.00047725,0.0021807,1.1413,0.0031498,0.0072685,1.1203e-08,0.68,0.4,0
0.030351,0.0035705,0.0075449,-0.0005638,0.0020943,0.00025485,0,0,0.0070858,-0.0034556,0,0.00066261,0,0,0,0.0075529,-0.0005718,0.0020943,1.7984,0.0030252,0.0071734,1.0511e-08,0.7,0.4,0
0.030491,0.0036117,0.0070849,-0.00063281,0.0019356,0.00021557,0,0,0.0066941,-0.003339,0,0.00056047,0,0,0,0.0070909,-0.00063882,0.0019356,1.5987,0.0027959,0.0068174,8.7994e-09,0.72,0.4,0
0.030619,0.0036383,0.0074888,-0.00058147,0.0020722,3.5944e-05,0,0,0.0070415,-0.0034498,0,9.3455e-05,0,0,0,0.0074889,-0.00058163,0.0020722,0.25518,0.0029932,0.0071245,1.0263e-08,0.74,0.4,0
0.030772,0.0036393,0.0070493,-0.00094982,0.0018298,-0.00023637,0,0,0.039316,-0.0066712,0,-0.006529,0,0,0,0.0070665,-0.00096704,0.0018298,-2.5127,0.0026431,0.0071919,5.464e-09,0.76,0.4,0
0.032192,0.0033854,0.0073949,0.0014441,0.0026517,-0.00029848,0,0,0.073994,-0.018839,0,-0.0093125,0,0,0,0.0074098,0.0014291,0.0026517,-2.8642,0.0038302,0.0054728,7.0232e-09,0.78,0.4,0
0.033732,0.0030336,0.0076542,0.0012435,0.0026693,3.7521e-06,0,0,0.077764,-0.022243,0,0.00011707,0,0,0,0.0076542,0.0012435,0.0026693,0.033535,0.0038557,0.0058301,8.1619e-09,0.8,0.4,0
0.035302,0.0027975,0.0076323,0.00074924,0.0025145,0.00025982,0,0,0.079838,-0.027537,0,0.0081063,0,0,0,0.0076421,0.00073944,0.0025145,2.1587,0.003632,0.0062084,8.9878e-09,0.82,0.4,0
0.036925,0.0027026,0.0076679,0.00042818,0.0024288,0.00037172,0,0,0.08173,-0.03121,0,0.011598,0,0,0,0.0076869,0.00040914,0.0024288,2.9316,0.0035083,0.0065074,9.6929e-09,0.84,0.4,0
0.038572,0.0026722,0.0076332,0.00020913,0.0023527,0.00037811,0,0,0.082375,-0.033439,0,0.011797,0,0,0,0.0076524,0.00018992,0.0023527,2.9081,0.0033983,0.0066503,9.8954e-09,0.86,0.4,0
0.040221,0.0026744,0.0075613,4.9182e-05,0.0022832,0.00034592,0,0,0.08234,-0.03485,0,0.010793,0,0,0,0.0075772,3.3287e-05,0.0022832,2.6309,0.0032979,0.0067082,9.8293e-09,0.88,0.4,0
0.041865,0.002692,0.0074856,-6.7272e-05,0.0022255,0.00029709,0,0,0.082058,-0.035767,0,0.0092693,0,0,0,0.0074973,-7.894e-05,0.0022255,2.2491,0.0032146,0.0067269,9.6737e-09,0.9,0.4,0
0.043503,0.0027152,0.0074185,-0.00015154,0.0021801,0.00024099,0,0,0.081719,-0.036373,0,0.007519,0,0,0,0.0074261,-0.0001592,0.0021801,1.8216,0.003149,0.006728,9.5059e-09,0.92,0.4,0
0.045134,0.0027378,0.0073646,-0.00021102,0.0021461,0.0001818,0,0,0.081409,-0.036771,0,0.0056721,0,0,0,0.0073689,-0.00021538,0.0021461,1.3739,0.0030999,0.0067222,9.3599e-09,0.94,0.4,0
0.046759,0.0027561,0.0073257,-0.00025058,0.0021225,0.00012144,0,0,0.081169,-0.03702,0,0.003789,0,0,0,0.0073276,-0.00025252,0.0021225,0.91809,0.0030659,0.0067154,9.25e-09,0.96,0.4,0
0.048381,0.0027679,0.0073022,-0.00027322,0.0021087,6.0748e-05,0,0,0.081019,-0.037158,0,0.0018953,0,0,0,0.0073027,-0.00027371,0.0021087,0.45942,0.0030459,0.0067103,9.1825e-09,0.98,0.4,0
0.05,0.0027719,0.0072944,-0.00028059,0.0021041,6.4991e-06,0,0,0.080968,-0.037202,0,0.00020277,0,0,0,0.0072944,-0.0002806,0.0021041,0.049158,0.0030393,0.0067084,9.1598e-09,1,0.4,0
0,0,0.0057846,0.0024791,0.0024791,7.3207e-05,0,0,0.051566,6.5052e-19,0,0.0022841,0,0,0,0.0057863,0.0024775,0.0024791,1.2681,0.003581,0.003308,1.8591e-09,0,0.42,0
0.0010313,4.5681e-05,0.0057604,0.0022157,0.0023928,7.1063e-05,0,0,0.052534,-0.002763,0,0.0022172,0,0,0,0.0057618,0.0022143,0.0023928,1.148,0.0034563,0.0034617,2.1115e-09,0.02,0.42,0
0.0021014,0.00010422,0.0058484,0.0020177,0.0023598,7.3378e-05,0,0,0.054422,-0.005338,0,0.0022894,0,0,0,0.0058499,0.0020162,0.0023598,1.097,0.0034086,0.0036739,2.4719e-09,0.04,0.42,0
0.0032082,0.00017191,0.0059346,0.0018339,0.0023306,6.7479e-05,0,0,0.056223,-0.0077474,0,0.0021054,0,0,0,0.0059357,0.0018328,0.0023306,0.9425,0.0033664,0.0038781,2.8298e-09,0.06,0.42,0
0.0043503,0.00024558,0.0060198,0.0016636,0.002305,5.4219e-05,0,0,0.05795,-0.010006,0,0.0016916,0,0,0,0.0060205,0.001663,0.002305,0.71298,0.0033295,0.0040746,3.1855e-09,0.08,0.42,0
0.0055262,0.00032254,0.0061047,0.0015062,0.0022833,3.4255e-05,0,0,0.059614,-0.012122,0,0.0010688,0,0,0,0.0061049,0.001506,0.0022833,0.42678,0.003298,0.0042638,3.5393e-09,0.1,0.42,0
0.0067348,0.00040051,0.0061898,0.0013616,0.0022654,8.1252e-06,0,0,0.06122,-0.0141,0,0.00025351,0,0,0,0.0061898,0.0013616,0.0022654,0.096421,0.0032723,0.0044458,3.8917e-09,0.12,0.42,0
0.007975,0.00047761,0.0062757,0.0012299,0.0022517,-2.3698e-05,0,0,0.062774,-0.015939,0,-0.00073936,0,0,0,0.0062758,0.0012298,0.0022517,-0.26908,0.0032524,0.0046206,4.2432e-09,0.14,0.42,0
0.0092458,0.0005524,0.0063628,0.0011117,0.0022424,-6.0749e-05,0,0,0.064279,-0.017638,0,-0.0018954,0,0,0,0.0063635,0.001111,0.0022424,-0.66272,0.003239,0.0047881,4.5944e-09,0.16,0.42,0
0.010546,0.00062388,0.0064516,0.0010077,0.0022378,-0.00010252,0,0,0.065736,-0.01919,0,-0.0031986,0,0,0,0.0064535,0.0010057,0.0022378,-1.0785,0.0032324,0.0049482,4.946e-09,0.18,0.42,0
0.011875,0.00069162,0.0065428,0.00091875,0.0022384,-0.00014837,0,0,0.067147,-0.020587,0,-0.0046292,0,0,0,0.0065467,0.00091484,0.0022384,-1.5102,0.0032333,0.0051005,5.299e-09,0.2,0.42,0
0.013232,0.00075586,0.006637,0.00084625,0.002245,-0.00019745,0,0,0.068515,-0.02182,0,-0.0061603,0,0,0,0.0066437,0.00083953,0.002245,-1.9506,0.0032427,0.0052446,5.6543e-09,0.22,0.42,0
0.014616,0.00081774,0.0067352,0.00079179,0.0022581,-0.00024844,0,0,0.069843,-0.022875,0,-0.0077513,0,0,0,0.0067456,0.00078142,0.0022581,-2.3895,0.0032617,0.00538,6.013e-09,0.24,0.42,0
0.016026,0.00087956,0.0068391,0.00075743,0.0022789,-0.00029933,0,0,0.071138,-0.023736,0,-0.0093392,0,0,0,0.0068537,0.00074273,0.0022789,-2.811,0.0032918,0.0055061,6.3765e-09,0.26,0.42,0
0.017461,0.00094528,0.0069508,0.00074581,0.002309,-0.00034688,0,0,0.072412,-0.024385,0,-0.010823,0,0,0,0.0069701,0.00072647,0.002309,-3.1898,0.0033352,0.005622,6.7471e-09,0.28,0.42,0
0.018922,0.0010212,0.0070745,0.00076026,0.0023504,-0.00038583,0,0,0.073696,-0.024807,0,-0.012038,0,0,0,0.007098,0.00073677,0.0023504,-3.4837,0.0033951,0.0057275,7.1298e-09,0.3,0.42,0
0.020409,0.001117,0.0072179,0.00080525,0.0024069,-0.00040763,0,0,0.075051,-0.024986,0,-0.012718,0,0,0,0.0072437,0.00077944,0.0024069,-3.6227,0.0034767,0.0058236,7.5363e-09,0.32,0.42,0
0.021924,0.0012475,0.0073945,0.00088747,0.0024846,-0.00039762,0,0,0.076595,-0.024915,0,-0.012406,0,0,0,0.0074187,0.00086327,0.0024846,-3.4839,0.0035889,0.0059139,7.9924e-09,0.34,0.42,0
0.023473,0.0014355,0.0076273,0.0010195,0.002594,-0.00033139,0,0,0.078519,-0.024563,0,-0.010339,0,0,0,0.0076438,0.0010029,0.002594,-2.8639,0.0037469,0.0060056,8.5479e-09,0.36,0.42,0
0.025065,0.0017148,0.0079343,0.001228,0.0027487,-0.0001448,0,0,0.080896,-0.023723,0,-0.0045178,0,0,0,0.0079375,0.0012249,0.0027487,-1.2363,0.0039704,0.0060952,9.2257e-09,0.38,0.42,0
0.026709,0.0021605,0.0079848,0.0014808,0.0028397,0.00016611,0,0,0.080264,-0.021199,0,0.0051825,0,0,0,0.007989,0.0014765,0.0028397,1.462,0.0041017,0.0059493,8.9302e-09,0.4,0.42,0
0.028276,0.0027175,0.0068132,-0.0011485,0.0016994,-9.9339e-05,0,0,0.042554,-0.006835,0,0.0079565,0,0,0,0.0068715,-0.0012068,0.0016994,0.86923,0.0024547,0.007254,3.6454e-09,0.42,0.42,0
0.028411,0.0028759,0.008008,1.3107e-05,0.0024063,0.00027178,0,0,0.0072822,-0.0031112,0,0.00070662,0,0,0,0.0080172,3.8788e-06,0.0024063,1.9447,0.0034758,0.0071228,1.1692e-08,0.44,0.42,0
0.028567,0.0029479,0.0084683,-0.00010405,0.0025093,-0.00045812,0,0,0.0077468,-0.0033973,0,-0.0011911,0,0,0,0.0084928,-0.00012847,0.0025093,-3.0504,0.0036245,0.0076513,1.4128e-08,0.46,0.42,0
0.028721,0.0030011,0.0082891,-0.00037096,0.0023754,-0.00040731,0,0,0.0076877,-0.0035703,0,-0.001059,0,0,0,0.0083082,-0.00039007,0.0023754,-2.6869,0.0034312,0.0076976,1.3642e-08,0.48,0.42,0
0.028874,0.0030493,0.0081883,-0.00032978,0.0023576,-0.00027683,0,0,0.00758,-0.0034935,0,-0.00071975,0,0,0,0.0081973,-0.00033877,0.0023576,-1.8594,0.0034054,0.0075577,1.3035e-08,0.5,0.42,0
0.029024,0.0030999,0.008033,-0.00019876,0.0023503,-0.00012075,0,0,0.0073876,-0.0033138,0,-0.00031395,0,0,0,0.0080348,-0.00020054,0.0023503,-0.84021,0.0033949,0.0073021,1.2083e-08,0.52,0.42,0
0.02917,0.003152,0.0079244,1.5728e-05,0.002382,-3.5137e-05,0,0,0.007205,-0.0030762,0,-9.1357e-05,0,0,0,0.0079245,1.5571e-05,0.002382,-0.25455,0.0034407,0.007031,1.1273e-08,0.54,0.42,0
0.029312,0.0032036,0.0078372,0.0001799,0.0024051,-1.4882e-05,0,0,0.0070617,-0.0028928,0,-3.8694e-05,0,0,0,0.0078372,0.00017987,0.0024051,-0.11136,0.0034741,0.0068225,1.0653e-08,0.56,0.42,0
0.029452,0.0032524,0.0077928,0.00025465,0.0024142,-4.0091e-05,0,0,0.0069921,-0.0028074,0,-0.00010424,0,0,0,0.007793,0.00025444,0.0024142,-0.30472,0.0034872,0.006724,1.0356e-08,0.58,0.42,0
0.029592,0.0032972,0.007792,0.00022451,0.002405,-8.0455e-05,0,0,0.0070032,-0.0028346,0,-0.00020918,0,0,0,0.0077929,0.00022365,0.002405,-0.60906,0.0034738,0.0067484,1.0403e-08,0.6,0.42,0
0.029732,0.003338,0.0078332,8.951e-05,0.0023768,-0.00010969,0,0,0.0070933,-0.0029735,0,-0.00028519,0,0,0,0.0078348,8.7957e-05,0.0023768,-0.81137,0.0034332,0.0068935,1.0785e-08,0.62,0.42,0
0.029876,0.0033762,0.0079103,-0.00013456,0.0023327,-9.5715e-05,0,0,0.0072508,-0.0032075,0,-0.00024886,0,0,0,0.0079114,-0.00013569,0.0023327,-0.68156,0.0033695,0.0071404,1.1444e-08,0.64,0.42,0
0.030023,0.0034143,0.0079951,-0.00040481,0.0022771,-1.3748e-05,0,0,0.0074334,-0.0034864,0,-3.5746e-05,0,0,0,0.0079951,-0.00040483,0.0022771,-0.093777,0.0032891,0.0074312,1.2198e-08,0.66,0.42,0
0.030173,0.0034549,0.0081,-0.00058479,0.0022546,0.00014982,0,0,0.0075991,-0.0036912,0,0.00038954,0,0,0,0.0081026,-0.00058738,0.0022546,0.98803,0.0032566,0.0076743,1.2942e-08,0.68,0.42,0
0.030326,0.0034996,0.0081342,-0.00065575,0.0022435,0.00032396,0,0,0.0076579,-0.0037691,0,0.0008423,0,0,0,0.0081461,-0.00066767,0.0022435,2.1079,0.0032407,0.0077781,1.3255e-08,0.7,0.42,0
0.030479,0.0035432,0.0082884,-0.00042937,0.0023577,0.00045864,0,0,0.0077099,-0.0036232,0,0.0011925,0,0,0,0.0083125,-0.00045343,0.0023577,3.0033,0.0034056,0.0077525,1.3758e-08,0.72,0.42,0
0.030635,0.0035707,0.0078485,-0.00053941,0.0021927,-0.00021274,0,0,0.0073525,-0.0035518,0,-0.00055312,0,0,0,0.0078539,-0.0005448,0.0021927,-1.4519,0.0031673,0.0074189,1.1755e-08,0.74,0.42,0
0.030773,0.0035055,0.0066133,-0.0018859,0.0014182,6.6369e-05,0,0,0.042955,-0.0079299,0,-0.0096727,0,0,0,0.0066846,-0.0019572,0.0014182,-1.4257,0.0020485,0.0077361,1.0564e-09,0.76,0.42,0
0.032353,0.002968,0.0079066,0.001049,0.0026867,-0.00025661,0,0,0.081431,-0.025548,0,-0.0080062,0,0,0,0.0079162,0.0010394,0.0026867,-2.14,0.0038808,0.006219,9.4932e-09,0.78,0.42,0
0.034031,0.0025124,0.0079527,0.00088283,0.0026507,6.8499e-05,0,0,0.082712,-0.027578,0,0.0021372,0,0,0,0.0079534,0.00088216,0.0026507,0.55506,0.0038287,0.0063737,9.9275e-09,0.8,0.42,0
0.035662,0.0022379,0.0076925,0.00067178,0.0025093,0.00032703,0,0,0.080858,-0.028665,0,0.010203,0,0,0,0.0077077,0.00065658,0.0025093,2.6612,0.0036245,0.0063314,9.3708e-09,0.82,0.42,0
0.037265,0.0020853,0.0075164,0.00042599,0.0023827,0.00043494,0,0,0.080086,-0.030525,0,0.01357,0,0,0,0.007543,0.0003994,0.0023827,3.4972,0.0034417,0.0063872,9.1616e-09,0.84,0.42,0
0.038865,0.0020154,0.0074269,0.00023959,0.0022999,0.00045239,0,0,0.07998,-0.032142,0,0.014115,0,0,0,0.0074552,0.00021122,0.0022999,3.5875,0.0033221,0.0064582,9.1129e-09,0.86,0.42,0
0.040464,0.0019906,0.007359,9.8467e-05,0.0022372,0.00041862,0,0,0.079899,-0.033365,0,0.013061,0,0,0,0.007383,7.441e-05,0.0022372,3.289,0.0032316,0.0065028,9.0362e-09,0.88,0.42,0
0.042061,0.00199,0.0073003,-8.4189e-06,0.0021876,0.00036163,0,0,0.079758,-0.034257,0,0.011283,0,0,0,0.0073181,-2.6268e-05,0.0021876,2.8257,0.0031598,0.0065255,8.9312e-09,0.9,0.42,0
0.043654,0.0020007,0.0072506,-8.8129e-05,0.0021487,0.00029412,0,0,0.079589,-0.034895,0,0.0091765,0,0,0,0.0072624,-9.9898e-05,0.0021487,2.2914,0.0031037,0.0065349,8.8217e-09,0.92,0.42,0
0.045245,0.0020149,0.007211,-0.0001457,0.0021196,0.00022215,0,0,0.079426,-0.035339,0,0.0069311,0,0,0,0.0072177,-0.0001524,0.0021196,1.7281,0.0030616,0.0065372,8.7249e-09,0.94,0.42,0
0.046832,0.0020278,0.0071823,-0.00018459,0.0020993,0.00014848,0,0,0.079295,-0.035629,0,0.0046325,0,0,0,0.0071853,-0.00018758,0.0020993,1.1542,0.0030324,0.0065367,8.6509e-09,0.96,0.42,0
0.048416,0.0020366,0.007165,-0.00020708,0.0020874,7.429e-05,0,0,0.079211,-0.035793,0,0.0023179,0,0,0,0.0071657,-0.00020783,0.0020874,0.57731,0.0030151,0.0065356,8.6048e-09,0.98,0.42,0
0.05,0.0020397,0.0071592,-0.00021444,0.0020834,4.959e-06,0,0,0.079182,-0.035847,0,0.00015472,0,0,0,0.0071592,-0.00021444,0.0020834,0.038533,0.0030094,0.006535,8.5892e-09,1,0.42,0
0,0,0.0057358,0.0024582,0.0024582,-1.3286e-05,0,0,0.05113,-5.421e-19,0,-0.00041453,0,0,0,0.0057358,0.0024581,0.0024582,-0.23225,0.0035507,0.0032777,1.8085e-09,0,0.44,0
0.0010226,-8.2906e-06,0.0057128,0.0022079,0.0023762,-1.5388e-05,0,0,0.05205,-0.0026258,0,-0.0004801,0,0,0,0.0057128,0.0022078,0.0023762,-0.25155,0.0034323,0.0034239,2.0448e-09,0.02,0.44,0
0.002082,-1.0994e-07,0.0057961,0.0020188,0.0023445,-1.0816e-05,0,0,0.053846,-0.0050802,0,-0.00033745,0,0,0,0.0057962,0.0020188,0.0023445,-0.16406,0.0033865,0.0036255,2.3811e-09,0.04,0.44,0
0.0031764,2.0434e-05,0.0058775,0.0018431,0.0023162,-1.53e-05,0,0,0.055557,-0.0073801,0,-0.00047735,0,0,0,0.0058776,0.0018431,0.0023162,-0.21728,0.0033456,0.00382,2.7155e-09,0.06,0.44,0
0.0043043,4.9919e-05,0.0059576,0.00168,0.0022913,-2.777e-05,0,0,0.057195,-0.0095362,0,-0.00086643,0,0,0,0.0059578,0.0016798,0.0022913,-0.37194,0.0033096,0.0040074,3.0475e-09,0.08,0.44,0
0.0054642,8.5498e-05,0.0060368,0.0015291,0.0022698,-4.7421e-05,0,0,0.058766,-0.011554,0,-0.0014796,0,0,0,0.0060373,0.0015286,0.0022698,-0.60267,0.0032786,0.0041876,3.3767e-09,0.1,0.44,0
0.0066549,0.00012483,0.0061155,0.0013905,0.0022518,-7.3627e-05,0,0,0.060274,-0.013436,0,-0.0022972,0,0,0,0.0061167,0.0013894,0.0022518,-0.89252,0.0032526,0.0043605,3.7031e-09,0.12,0.44,0
0.0078752,0.00016605,0.006194,0.0012644,0.0022375,-0.00010587,0,0,0.061721,-0.01518,0,-0.0033033,0,0,0,0.0061963,0.0012622,0.0022375,-1.2298,0.003232,0.004526,4.0263e-09,0.14,0.44,0
0.0091238,0.00020777,0.0062726,0.0011513,0.0022272,-0.0001437,0,0,0.063108,-0.016783,0,-0.0044836,0,0,0,0.0062766,0.0011473,0.0022272,-1.6061,0.003217,0.0046837,4.3462e-09,0.16,0.44,0
0.0104,0.00024911,0.0063515,0.0010519,0.002221,-0.00018665,0,0,0.064435,-0.018239,0,-0.0058236,0,0,0,0.006358,0.0010453,0.002221,-2.0146,0.0032081,0.0048334,4.6628e-09,0.18,0.44,0
0.011701,0.00028979,0.0064311,0.00096689,0.0022194,-0.00023418,0,0,0.065702,-0.019539,0,-0.0073065,0,0,0,0.0064411,0.00095688,0.0022194,-2.4496,0.0032058,0.0049746,4.9762e-09,0.2,0.44,0
0.013028,0.00033023,0.0065119,0.00089744,0.0022228,-0.00028559,0,0,0.06691,-0.020676,0,-0.0089104,0,0,0,0.0065264,0.00088295,0.0022228,-2.9045,0.0032107,0.0051071,5.2867e-09,0.22,0.44,0
0.014378,0.00037178,0.0065947,0.0008447,0.0022318,-0.00033987,0,0,0.068061,-0.021639,0,-0.010604,0,0,0,0.0066147,0.00082468,0.0022318,-3.371,0.0032237,0.0052304,5.5951e-09,0.24,0.44,0
0.01575,0.00041695,0.0066809,0.00081001,0.0022473,-0.00039555,0,0,0.069164,-0.022421,0,-0.012341,0,0,0,0.0067074,0.00078348,0.0022473,-3.8372,0.003246,0.0053445,5.9029e-09,0.26,0.44,0
0.017144,0.00046985,0.0067727,0.00079483,0.0022703,-0.0004504,0,0,0.070238,-0.023016,0,-0.014052,0,0,0,0.0068064,0.00076108,0.0022703,-4.2847,0.0032792,0.0054498,6.2138e-09,0.28,0.44,0
0.01856,0.00053681,0.0068743,0.00080068,0.0023025,-0.00050116,0,0,0.071321,-0.023429,0,-0.015636,0,0,0,0.0069154,0.00075961,0.0023025,-4.6854,0.0033258,0.0055477,6.5361e-09,0.3,0.44,0
0.019997,0.00062724,0.0069938,0.00082919,0.0023469,-0.00054298,0,0,0.072492,-0.023676,0,-0.016941,0,0,0,0.0070412,0.00078173,0.0023469,-4.9954,0.00339,0.0056422,6.8875e-09,0.32,0.44,0
0.021459,0.00075509,0.0071469,0.00088305,0.002409,-0.00056897,0,0,0.073912,-0.023805,0,-0.017752,0,0,0,0.0071982,0.00083179,0.002409,-5.1482,0.0034796,0.0057426,7.3093e-09,0.34,0.44,0
0.022953,0.00094095,0.0073676,0.00096872,0.0025009,-0.00056607,0,0,0.075921,-0.023902,0,-0.017661,0,0,0,0.0074173,0.00091903,0.0025009,-5.0167,0.0036124,0.0058695,7.8981e-09,0.36,0.44,0
0.024496,0.0012204,0.0077692,0.0011267,0.0026688,-0.00051659,0,0,0.079566,-0.024057,0,-0.016118,0,0,0,0.0078091,0.0010867,0.0026688,-4.4205,0.0038549,0.0060875,9.0019e-09,0.38,0.44,0
0.026136,0.0016466,0.0085782,0.0014337,0.0030036,-0.0002045,0,0,0.086964,-0.02449,0,-0.0063804,0,0,0,0.008584,0.0014278,0.0030036,-1.6382,0.0043385,0.0065129,1.1438e-08,0.4,0.44,0
0.027975,0.0025545,0.012465,-0.00019784,0.00368,-0.00073965,0,0,0.042145,-0.015662,0,-0.010784,0,0,0,0.012516,-0.00024954,0.00368,-4.2811,0.0053156,0.011329,7.9518e-08,0.42,0.44,0
0.02832,0.0028108,0.0072629,0.00070462,0.0023903,0.00043343,0,0,0.014242,-0.0046243,0,0.0044852,0,0,0,0.0072985,0.00066897,0.0023903,6.0434,0.0034526,0.0059584,2.1809e-08,0.44,0.44,0
0.028484,0.0028781,0.009224,0.00010031,0.0027973,7.4689e-05,0,0,0.0083547,-0.0035061,0,0.00019419,0,0,0,0.0092246,9.9694e-05,0.0027973,0.469,0.0040405,0.0081194,1.761e-08,0.46,0.44,0
0.028654,0.0029255,0.0089183,-0.00026106,0.0025972,-0.00020919,0,0,0.0082174,-0.0037157,0,-0.00054389,0,0,0,0.008923,-0.00026583,0.0025972,-1.3048,0.0037515,0.008144,1.6628e-08,0.48,0.44,0
0.028813,0.0029768,0.0083981,-0.00053196,0.0023598,-7.4372e-05,0,0,0.0078497,-0.0037593,0,-0.00019337,0,0,0,0.0083987,-0.00053258,0.0023598,-0.47713,0.0034087,0.0078931,1.4302e-08,0.5,0.44,0
0.028968,0.0030315,0.0082318,-0.00028163,0.0023851,2.6331e-05,0,0,0.0076008,-0.0034667,0,6.846e-05,0,0,0,0.0082319,-0.00028172,0.0023851,0.17721,0.0034451,0.0075425,1.3112e-08,0.52,0.44,0
0.029117,0.0030895,0.008069,4.8695e-06,0.0024222,7.4539e-05,0,0,0.0073409,-0.0031425,0,0.0001938,0,0,0,0.0080697,4.1806e-06,0.0024222,0.52954,0.0034987,0.0071692,1.1923e-08,0.54,0.44,0
0.029261,0.0031454,0.0079775,0.0002231,0.0024602,3.9494e-05,0,0,0.0071725,-0.0029082,0,0.00010268,0,0,0,0.0079777,0.00022289,0.0024602,0.29181,0.0035536,0.0069132,1.1171e-08,0.56,0.44,0
0.029404,0.0031961,0.0079252,0.00030137,0.002468,-2.2853e-05,0,0,0.0070944,-0.0028166,0,-5.9418e-05,0,0,0,0.0079253,0.0003013,0.002468,-0.17175,0.0035649,0.0068045,1.0823e-08,0.58,0.44,0
0.029545,0.0032404,0.0079179,0.0002733,0.0024574,-9.0655e-05,0,0,0.0070987,-0.0028393,0,-0.0002357,0,0,0,0.007919,0.00027223,0.0024574,-0.67932,0.0035495,0.0068219,1.0844e-08,0.6,0.44,0
0.029688,0.0032783,0.0079544,0.00013761,0.0024276,-0.0001549,0,0,0.0071848,-0.002977,0,-0.00040275,0,0,0,0.0079575,0.00013455,0.0024276,-1.1348,0.0035065,0.0069655,1.1228e-08,0.62,0.44,0
0.029833,0.0033112,0.0080271,-0.00014013,0.0023661,-0.00019007,0,0,0.0073593,-0.0032581,0,-0.00049419,0,0,0,0.0080315,-0.00014455,0.0023661,-1.3325,0.0034177,0.0072542,1.1983e-08,0.64,0.44,0
0.029982,0.0033427,0.008163,-0.00049012,0.0023018,-0.00013424,0,0,0.0076194,-0.0036296,0,-0.00034902,0,0,0,0.008165,-0.00049221,0.0023018,-0.88856,0.0033249,0.0076528,1.3105e-08,0.66,0.44,0
0.030138,0.0033784,0.008304,-0.00079737,0.002252,-6.1092e-06,0,0,0.0078676,-0.0039642,0,-1.5884e-05,0,0,0,0.008304,-0.00079737,0.002252,-0.038459,0.0032529,0.0080237,1.4198e-08,0.68,0.44,0
0.030297,0.0034197,0.0088029,-0.00059802,0.0024615,0.00017305,0,0,0.0082439,-0.0039773,0,0.00044992,0,0,0,0.0088061,-0.0006012,0.0024615,1.0542,0.0035555,0.0083106,1.6555e-08,0.7,0.44,0
0.030467,0.0034668,0.0091551,-0.00030419,0.0026553,-4.1847e-05,0,0,0.0084498,-0.0038473,0,-0.0001088,0,0,0,0.0091553,-0.00030438,0.0026553,-0.25346,0.0038354,0.0083814,1.802e-08,0.72,0.44,0
0.030635,0.0034962,0.0072588,0.00034042,0.0022798,-0.00043561,0,0,0.01457,-0.0053372,0,-0.0046982,0,0,0,0.0072943,0.00030491,0.0022798,-5.9655,0.003293,0.006241,2.3186e-08,0.74,0.44,0
0.030988,0.0033222,0.012426,-0.0009686,0.0034372,0.00063849,0,0,0.043053,-0.018313,0,0.0087567,0,0,0,0.01246,-0.0010032,0.0034372,3.3744,0.0049648,0.011887,8.2938e-08,0.76,0.44,0
0.032865,0.0023635,0.0085945,0.0010397,0.0028903,6.3734e-05,0,0,0.088986,-0.028869,0,0.0019885,0,0,0,0.008595,0.0010391,0.0028903,0.48331,0.0041748,0.0068214,1.2345e-08,0.78,0.44,0
0.034548,0.0019305,0.0078035,0.000724,0.0025583,0.00042126,0,0,0.081826,-0.028614,0,0.013143,0,0,0,0.0078285,0.00069903,0.0025583,3.3933,0.0036953,0.0064055,9.7631e-09,0.8,0.44,0
0.036138,0.0016509,0.0074338,0.00055406,0.0023964,0.00049718,0,0,0.078585,-0.02874,0,0.015512,0,0,0,0.0074696,0.00051832,0.0023964,4.1121,0.0034614,0.0062284,8.7113e-09,0.82,0.44,0
0.037691,0.0014816,0.0072581,0.00041203,0.002301,0.00052977,0,0,0.07733,-0.029468,0,0.016529,0,0,0,0.0072988,0.00037127,0.002301,4.3989,0.0033237,0.0061925,8.322e-09,0.84,0.44,0
0.039231,0.0013865,0.0071622,0.00027247,0.0022304,0.00051628,0,0,0.076936,-0.030544,0,0.016108,0,0,0,0.0072007,0.000234,0.0022304,4.2617,0.0032217,0.0062138,8.1708e-09,0.86,0.44,0
0.040768,0.0013398,0.0071075,0.00015474,0.0021787,0.00047059,0,0,0.07689,-0.031573,0,0.014683,0,0,0,0.0071392,0.00012303,0.0021787,3.8546,0.003147,0.0062474,8.1051e-09,0.88,0.44,0
0.042306,0.0013217,0.0070692,5.9585e-05,0.0021386,0.00040526,0,0,0.076917,-0.032433,0,0.012644,0,0,0,0.0070926,3.6233e-05,0.0021386,3.2979,0.0030891,0.0062751,8.0549e-09,0.9,0.44,0
0.043845,0.0013194,0.0070395,-1.451e-05,0.0021075,0.00032973,0,0,0.076939,-0.033103,0,0.010288,0,0,0,0.0070548,-2.989e-05,0.0021075,2.6705,0.0030441,0.0062944,8.007e-09,0.92,0.44,0
0.045384,0.0013242,0.0070163,-6.9613e-05,0.002084,0.00024933,0,0,0.076944,-0.033596,0,0.0077789,0,0,0,0.007025,-7.8375e-05,0.002084,2.0127,0.0030102,0.0063067,7.9635e-09,0.94,0.44,0
0.046923,0.0013309,0.0069995,-0.00010758,0.0020676,0.00016681,0,0,0.076938,-0.033932,0,0.0052046,0,0,0,0.0070034,-0.00011149,0.0020676,1.3438,0.0029865,0.006314,7.9288e-09,0.96,0.44,0
0.048461,0.0013361,0.0069893,-0.0001298,0.0020578,8.352e-05,0,0,0.07693,-0.034127,0,0.0026058,0,0,0,0.0069902,-0.00013077,0.0020578,0.67206,0.0029724,0.0063177,7.9066e-09,0.98,0.44,0
0.05,0.0013381,0.0069858,-0.00013711,0.0020546,3.0878e-06,0,0,0.076927,-0.034191,0,9.6338e-05,0,0,0,0.0069858,-0.00013711,0.0020546,0.024837,0.0029678,0.0063189,7.8989e-09,1,0.44,0
0,0,0.0056775,0.0024332,0.0024332,-9.5111e-05,0,0,0.050611,-8.6736e-19,0,-0.0029674,0,0,0,0.0056803,0.0024304,0.0024332,-1.6778,0.0035147,0.0032485,1.7606e-09,0,0.46,0
0.0010122,-5.9349e-05,0.0056559,0.0021974,0.002356,-9.7073e-05,0,0,0.051479,-0.0024741,0,-0.0030287,0,0,0,0.0056586,0.0021947,0.002356,-1.6065,0.0034031,0.0033862,1.9789e-09,0.02,0.46,0
0.0020591,-9.8986e-05,0.0057342,0.0020182,0.0023257,-9.024e-05,0,0,0.053172,-0.004797,0,-0.0028155,0,0,0,0.0057363,0.002016,0.0023257,-1.3903,0.0033594,0.0035755,2.2885e-09,0.04,0.46,0
0.0031391,-0.00012329,0.0058103,0.001851,0.0022984,-9.3036e-05,0,0,0.054786,-0.0069788,0,-0.0029027,0,0,0,0.0058125,0.0018489,0.0022984,-1.3454,0.0033199,0.0037591,2.597e-09,0.06,0.46,0
0.0042506,-0.00013586,0.0058847,0.0016955,0.0022741,-0.00010421,0,0,0.056326,-0.0090256,0,-0.0032515,0,0,0,0.0058873,0.0016929,0.0022741,-1.4242,0.0032848,0.0039361,2.9032e-09,0.08,0.46,0
0.0053921,-0.00013963,0.0059576,0.0015515,0.0022527,-0.00012284,0,0,0.057796,-0.010939,0,-0.0038327,0,0,0,0.005961,0.0015481,0.0022527,-1.5957,0.0032539,0.0041062,3.2058e-09,0.1,0.46,0
0.0065624,-0.00013693,0.0060291,0.0014192,0.0022345,-0.0001482,0,0,0.059196,-0.012719,0,-0.004624,0,0,0,0.0060339,0.0014144,0.0022345,-1.8395,0.0032276,0.0042689,3.5037e-09,0.12,0.46,0
0.00776,-0.0001296,0.0060993,0.0012988,0.0022194,-0.00017974,0,0,0.060525,-0.014361,0,-0.0056079,0,0,0,0.006106,0.0012921,0.0022194,-2.1413,0.0032058,0.0044237,3.7959e-09,0.14,0.46,0
0.0089834,-0.00011893,0.0061681,0.001191,0.0022077,-0.00021697,0,0,0.061781,-0.01586,0,-0.0067696,0,0,0,0.0061775,0.0011816,0.0022077,-2.4915,0.0031889,0.0045701,4.0814e-09,0.16,0.46,0
0.010231,-0.00010567,0.0062356,0.0010964,0.0021996,-0.00025946,0,0,0.062961,-0.017209,0,-0.008095,0,0,0,0.0062486,0.0010834,0.0021996,-2.8829,0.0031772,0.0047075,4.3592e-09,0.18,0.46,0
0.011502,-8.9942e-05,0.0063017,0.0010157,0.0021952,-0.00030671,0,0,0.064061,-0.0184,0,-0.0095693,0,0,0,0.0063194,0.00099799,0.0021952,-3.3097,0.0031709,0.0048353,4.6282e-09,0.2,0.46,0
0.012794,-7.1159e-05,0.0063666,0.0009498,0.0021949,-0.00035815,0,0,0.065078,-0.019424,0,-0.011174,0,0,0,0.0063902,0.00092622,0.0021949,-3.7665,0.0031704,0.004953,4.8874e-09,0.22,0.46,0
0.014105,-4.7822e-05,0.0064304,0.00089948,0.002199,-0.00041303,0,0,0.066011,-0.020272,0,-0.012887,0,0,0,0.0064611,0.00086881,0.002199,-4.2472,0.0031763,0.0050601,5.1363e-09,0.24,0.46,0
0.015434,-1.7283e-05,0.0064937,0.00086562,0.0022078,-0.00047029,0,0,0.06686,-0.020938,0,-0.014673,0,0,0,0.0065328,0.00082659,0.0022078,-4.7439,0.0031891,0.0051562,5.3744e-09,0.26,0.46,0
0.016779,2.4615e-05,0.0065574,0.00084886,0.0022219,-0.00052853,0,0,0.067634,-0.021419,0,-0.01649,0,0,0,0.0066059,0.00080034,0.0022219,-5.2454,0.0032094,0.0052414,5.6024e-09,0.28,0.46,0
0.018139,8.4046e-05,0.0066229,0.00084949,0.0022417,-0.00058587,0,0,0.068347,-0.021719,0,-0.018279,0,0,0,0.0066818,0.00079064,0.0022417,-5.7363,0.0032381,0.0053163,5.8224e-09,0.3,0.46,0
0.019513,0.00016997,0.0066927,0.0008671,0.0022679,-0.00063995,0,0,0.069027,-0.021853,0,-0.019967,0,0,0,0.0067622,0.00079763,0.0022679,-6.1956,0.0032759,0.0053822,6.0385e-09,0.32,0.46,0
0.0209,0.00029529,0.0067682,0.00089953,0.0023003,-0.00068757,0,0,0.069699,-0.021852,0,-0.021452,0,0,0,0.0068477,0.00082005,0.0023003,-6.5938,0.0033227,0.0054407,6.2535e-09,0.34,0.46,0
0.022301,0.00047944,0.0068465,0.00094208,0.0023366,-0.00072457,0,0,0.070355,-0.021754,0,-0.022607,0,0,0,0.0069342,0.00085447,0.0023366,-6.8948,0.0033751,0.0054908,6.4596e-09,0.36,0.46,0
0.023715,0.00075254,0.0068617,0.00095618,0.0023454,-0.00073293,0,0,0.070455,-0.021671,0,-0.022867,0,0,0,0.0069513,0.00086658,0.0023454,-6.9701,0.0033878,0.0054966,6.4935e-09,0.38,0.46,0
0.025119,0.0011809,0.0068038,0.00094869,0.0023257,-0.0006343,0,0,0.069857,-0.021482,0,-0.01979,0,0,0,0.0068717,0.00088077,0.0023257,-6.1126,0.0033594,0.005415,6.2394e-09,0.4,0.46,0
0.026509,0.0019409,0.0072283,0.00035716,0.0022757,-0.00077922,0,0,0.077262,-0.029929,0,-0.024312,0,0,0,0.0073156,0.0002699,0.0022757,-6.3895,0.0032871,0.0062875,8.5238e-09,0.42,0.46,0
0.02821,0.0027046,0.0097453,0.00020921,0.0029864,-0.00042,0,0,0.036683,-0.014128,0,-0.011233,0,0,0,0.009792,0.00016256,0.0029864,-3.9707,0.0043136,0.008574,3.159e-08,0.44,0.46,0
0.02846,0.0028076,0.0053967,-8.8853e-05,0.0015924,0.00011725,0,0,0.010675,-0.0044084,0,0.0002161,0,0,0,0.0053997,-9.1807e-05,0.0015924,0.53905,0.0023001,0.0048731,1.0419e-08,0.46,0.46,0
0.0286,0.0028524,0.0080204,-0.00056612,0.0022363,0.00013395,0,0,0.0075193,-0.0036431,0,0.00034827,0,0,0,0.0080225,-0.00056821,0.0022363,0.89352,0.0032302,0.0075876,1.2544e-08,0.48,0.46,0
0.028761,0.002899,0.0083449,-0.00063412,0.0023132,2.5741e-05,0,0,0.0078411,-0.0038315,0,6.6926e-05,0,0,0,0.0083449,-0.00063419,0.0023132,0.16425,0.0033413,0.0079276,1.418e-08,0.5,0.46,0
0.028914,0.0029613,0.0081578,-0.00039312,0.0023294,0.00017224,0,0,0.0075769,-0.0035393,0,0.00044784,0,0,0,0.0081613,-0.00039658,0.0023294,1.1535,0.0033647,0.0075722,1.2951e-08,0.52,0.46,0
0.029064,0.0030263,0.0081629,9.7172e-05,0.002478,0.0001263,0,0,0.0073904,-0.0030951,0,0.00032838,0,0,0,0.0081649,9.5195e-05,0.002478,0.89688,0.0035794,0.0071812,1.22e-08,0.54,0.46,0
0.02921,0.0030873,0.008118,0.00027982,0.0025194,3.892e-05,0,0,0.0072782,-0.0029114,0,0.00010119,0,0,0,0.0081182,0.00027963,0.0025194,0.28449,0.0036391,0.0069931,1.1682e-08,0.56,0.46,0
0.029355,0.0031397,0.0081249,0.0003263,0.0025354,-2.5451e-05,0,0,0.0072664,-0.0028718,0,-6.6173e-05,0,0,0,0.008125,0.00032622,0.0025354,-0.18698,0.0036622,0.0069622,1.1632e-08,0.58,0.46,0
0.0295,0.0031836,0.0081133,0.00029931,0.0025238,-7.022e-05,0,0,0.0072664,-0.0028918,0,-0.00018257,0,0,0,0.0081139,0.00029868,0.0025238,-0.51483,0.0036455,0.0069742,1.1631e-08,0.6,0.46,0
0.029646,0.0032189,0.0080843,0.00019785,0.0024846,-0.00013527,0,0,0.0072795,-0.0029728,0,-0.0003517,0,0,0,0.0080866,0.00019553,0.0024846,-0.98236,0.0035889,0.0070317,1.1686e-08,0.62,0.46,0
0.029791,0.0032459,0.0081063,-4.8364e-05,0.0024174,-0.00022151,0,0,0.0073956,-0.0032055,0,-0.00057593,0,0,0,0.0081123,-5.4377e-05,0.0024174,-1.5548,0.0034918,0.0072539,1.2206e-08,0.64,0.46,0
0.029941,0.0032691,0.0080829,-0.00061065,0.0022417,-0.00025457,0,0,0.0075936,-0.003708,0,-0.00066189,0,0,0,0.0080903,-0.0006181,0.0022417,-1.6759,0.003238,0.0076884,1.2926e-08,0.66,0.46,0
0.030095,0.0032963,0.0082422,-0.0009449,0.0021892,-8.38e-05,0,0,0.0078689,-0.0040743,0,-0.00021788,0,0,0,0.008243,-0.00094566,0.0021892,-0.52256,0.0031622,0.0080903,1.408e-08,0.68,0.46,0
0.030256,0.0033405,0.0079308,-0.0009308,0.0021,-0.00014173,0,0,0.00758,-0.00394,0,-0.00036849,0,0,0,0.007933,-0.00093306,0.0021,-0.91604,0.0030333,0.0078048,1.2576e-08,0.7,0.46,0
0.030398,0.0033893,0.0053521,-0.00039688,0.0014866,-0.00012197,0,0,0.010863,-0.0049953,0,-0.00028396,0,0,0,0.005355,-0.00039982,0.0014866,-0.62608,0.0021473,0.0050816,1.0697e-08,0.72,0.46,0
0.030653,0.0033733,0.009644,-0.00046884,0.0027525,0.00033213,0,0,0.037454,-0.016462,0,0.0096703,0,0,0,0.009677,-0.0005018,0.0027525,3.1429,0.0039759,0.0090045,3.2682e-08,0.74,0.46,0
0.032391,0.0025901,0.0072011,-0.000137,0.0021193,0.00064932,0,0,0.079278,-0.035197,0,0.020259,0,0,0,0.0072582,-0.00019401,0.0021193,5.0179,0.0030611,0.0066066,8.9222e-09,0.76,0.46,0
0.033824,0.0018132,0.0068243,0.00054912,0.002212,0.00050612,0,0,0.071952,-0.025941,0,0.015791,0,0,0,0.0068649,0.00050856,0.002212,4.5817,0.0031952,0.0056988,6.7205e-09,0.78,0.46,0
0.035269,0.0013679,0.0068817,0.0005303,0.0022236,0.00061213,0,0,0.072667,-0.026416,0,0.019098,0,0,0,0.0069402,0.00047184,0.0022236,5.455,0.0032119,0.0057946,7.0001e-09,0.8,0.46,0
0.036731,0.0010883,0.006901,0.00049624,0.0022192,0.00061886,0,0,0.073037,-0.026878,0,0.019308,0,0,0,0.0069603,0.00043699,0.0022192,5.4688,0.0032055,0.0058398,7.1088e-09,0.82,0.46,0
0.038191,0.00090658,0.0068607,0.00040919,0.002181,0.0005947,0,0,0.073003,-0.02764,0,0.018555,0,0,0,0.006915,0.00035482,0.002181,5.2229,0.0031503,0.0058644,7.0731e-09,0.84,0.46,0
0.039651,0.00079361,0.0068315,0.00031109,0.0021428,0.0005539,0,0,0.073144,-0.028574,0,0.017282,0,0,0,0.0068782,0.00026437,0.0021428,4.8212,0.0030951,0.0059032,7.0713e-09,0.86,0.46,0
0.041116,0.0007277,0.0068141,0.0002156,0.0021089,0.00049602,0,0,0.073401,-0.029536,0,0.015476,0,0,0,0.0068512,0.00017852,0.0021089,4.275,0.0030462,0.0059473,7.0913e-09,0.88,0.46,0
0.042587,0.00069266,0.0068043,0.00013249,0.002081,0.00042518,0,0,0.073682,-0.030397,0,0.013266,0,0,0,0.0068312,0.0001055,0.002081,3.6318,0.0030059,0.0059876,7.1151e-09,0.9,0.46,0
0.044063,0.00067654,0.0067973,6.4621e-05,0.0020586,0.00034594,0,0,0.073924,-0.031106,0,0.010793,0,0,0,0.006815,4.6892e-05,0.0020586,2.9337,0.0029735,0.0060199,7.132e-09,0.92,0.46,0
0.045544,0.00067103,0.0067918,1.2547e-05,0.0020413,0.00026196,0,0,0.074108,-0.031649,0,0.0081731,0,0,0,0.0068019,2.4398e-06,0.0020413,2.2096,0.0029485,0.0060437,7.1412e-09,0.94,0.46,0
0.047028,0.00067055,0.0067875,-2.4075e-05,0.002029,0.00017553,0,0,0.074232,-0.032029,0,0.0054766,0,0,0,0.006792,-2.8595e-05,0.002029,1.4752,0.0029308,0.0060598,7.1449e-09,0.96,0.46,0
0.048514,0.00067156,0.0067848,-4.5775e-05,0.0020217,8.7976e-05,0,0,0.074304,-0.032253,0,0.0027449,0,0,0,0.0067859,-4.6908e-05,0.0020217,0.73779,0.0029202,0.0060689,7.1459e-09,0.98,0.46,0
0.05,0.0006721,0.0067838,-5.296e-05,0.0020193,8.7101e-07,0,0,0.074327,-0.032327,0,2.7175e-05,0,0,0,0.0067838,-5.296e-05,0.0020193,0.0072995,0.0029167,0.0060719,7.146e-09,1,0.46,0
0,0,0.0056115,0.0024049,0.0024049,-0.00017188,0,0,0.050022,1.0842e-19,0,-0.0053628,0,0,0,0.0056207,0.0023957,0.0024049,-3.0596,0.0034738,0.0032203,1.7152e-09,0,0.48,0
0.0010004,-0.00010726,0.0055913,0.0021844,0.0023327,-0.0001736,0,0,0.050834,-0.0023132,0,-0.0054164,0,0,0,0.0056001,0.0021756,0.0023327,-2.9096,0.0033695,0.0033487,1.9144e-09,0.02,0.48,0
0.0020333,-0.00019199,0.0056641,0.0020156,0.0023039,-0.00016452,0,0,0.052419,-0.0044977,0,-0.0051331,0,0,0,0.0056715,0.0020082,0.0023039,-2.5767,0.0033279,0.0035248,2.1958e-09,0.04,0.48,0
0.0030972,-0.00025872,0.0057347,0.0018573,0.0022776,-0.00016534,0,0,0.053931,-0.0065566,0,-0.0051585,0,0,0,0.0057417,0.0018503,0.0022776,-2.4373,0.0032899,0.0036964,2.4774e-09,0.06,0.48,0
0.0041906,-0.0003111,0.0058031,0.0017095,0.0022538,-0.00017467,0,0,0.05537,-0.0084905,0,-0.0054497,0,0,0,0.0058106,0.0017021,0.0022538,-2.4389,0.0032555,0.0038623,2.7566e-09,0.08,0.48,0
0.005312,-0.00035207,0.0058694,0.0015725,0.0022325,-0.00019148,0,0,0.056734,-0.010297,0,-0.0059743,0,0,0,0.0058779,0.0015639,0.0022325,-2.5465,0.0032248,0.0040215,3.0315e-09,0.1,0.48,0
0.0064599,-0.00038393,0.0059333,0.0014464,0.0022139,-0.00021498,0,0,0.058022,-0.011973,0,-0.0067073,0,0,0,0.0059435,0.0014361,0.0022139,-2.7368,0.0031978,0.0041732,3.3001e-09,0.12,0.48,0
0.0076329,-0.0004084,0.0059946,0.0013318,0.0021979,-0.00024452,0,0,0.059228,-0.013511,0,-0.0076292,0,0,0,0.0060074,0.001319,0.0021979,-2.9938,0.0031748,0.0043165,3.5603e-09,0.14,0.48,0
0.0088291,-0.00042665,0.0060531,0.0012293,0.0021847,-0.0002796,0,0,0.060347,-0.014904,0,-0.0087236,0,0,0,0.0060692,0.0012132,0.0021847,-3.3063,0.0031557,0.0044506,3.8104e-09,0.16,0.48,0
0.010047,-0.00043927,0.0061084,0.0011395,0.0021744,-0.00031974,0,0,0.061371,-0.016144,0,-0.0099758,0,0,0,0.0061289,0.001119,0.0021744,-3.6667,0.0031408,0.0045745,4.0481e-09,0.18,0.48,0
0.011284,-0.00044622,0.0061602,0.0010631,0.002167,-0.00036444,0,0,0.062295,-0.017221,0,-0.011371,0,0,0,0.0061862,0.0010371,0.002167,-4.069,0.0031301,0.0046874,4.2713e-09,0.2,0.48,0
0.012538,-0.00044672,0.006208,0.0010007,0.0021626,-0.00041315,0,0,0.063108,-0.018126,0,-0.01289,0,0,0,0.0062406,0.00096815,0.0021626,-4.5083,0.0031238,0.0047883,4.4776e-09,0.22,0.48,0
0.013808,-0.0004391,0.0062514,0.00095307,0.0021613,-0.00046516,0,0,0.063804,-0.018849,0,-0.014513,0,0,0,0.0062919,0.00091254,0.0021613,-4.9795,0.0031219,0.0048764,4.6647e-09,0.24,0.48,0
0.015091,-0.00042058,0.0062896,0.00092058,0.0021631,-0.00051956,0,0,0.064374,-0.019383,0,-0.01621,0,0,0,0.0063394,0.00087077,0.0021631,-5.4768,0.0031244,0.0049507,4.8296e-09,0.26,0.48,0
0.016383,-0.00038691,0.006322,0.00090336,0.0021676,-0.00057508,0,0,0.064809,-0.019722,0,-0.017943,0,0,0,0.0063824,0.000843,0.0021676,-5.9919,0.003131,0.0050102,4.9691e-09,0.28,0.48,0
0.017683,-0.00033195,0.0063473,0.0009009,0.0021745,-0.00063,0,0,0.065096,-0.019868,0,-0.019656,0,0,0,0.0064192,0.00082897,0.0021745,-6.513,0.0031409,0.0050537,5.0787e-09,0.3,0.48,0
0.018987,-0.0002469,0.0063628,0.00091147,0.0021823,-0.0006817,0,0,0.065215,-0.019824,0,-0.021269,0,0,0,0.0064467,0.00082752,0.0021823,-7.021,0.0031522,0.0050792,5.1503e-09,0.32,0.48,0
0.020292,-0.00011901,0.0063626,0.00093126,0.0021882,-0.0007255,0,0,0.065121,-0.019608,0,-0.022636,0,0,0,0.0064578,0.00083602,0.0021882,-7.4787,0.0031607,0.0050825,5.1684e-09,0.34,0.48,0
0.021592,7.0784e-05,0.0063326,0.00094971,0.0021847,-0.00075075,0,0,0.064707,-0.019266,0,-0.023423,0,0,0,0.0064353,0.00084697,0.0021847,-7.793,0.0031556,0.005054,5.0975e-09,0.36,0.48,0
0.02288,0.00035351,0.0062815,0.00095893,0.0021721,-0.00072687,0,0,0.064106,-0.018926,0,-0.022678,0,0,0,0.006379,0.00086145,0.0021721,-7.6382,0.0031375,0.0049929,4.9384e-09,0.38,0.48,0
0.024156,0.0007873,0.0063343,0.00089941,0.0021701,-0.00066327,0,0,0.064961,-0.019823,0,-0.020694,0,0,0,0.0064141,0.00081963,0.0021701,-6.8582,0.0031346,0.0050563,5.077e-09,0.4,0.48,0
0.025478,0.0013574,0.0061177,0.00022761,0.0019036,-0.0005897,0,0,0.06574,-0.026145,0,-0.018399,0,0,0,0.0061762,0.00016915,0.0019036,-5.6614,0.0027496,0.0053548,5.1869e-09,0.42,0.48,0
0.026786,0.0020693,0.0065597,-5.0684e-05,0.0019527,-0.00089019,0,0,0.071869,-0.031253,0,-0.027774,0,0,0,0.0066775,-0.00016846,0.0019527,-7.5369,0.0028206,0.00607,6.9371e-09,0.44,0.48,0
0.028353,0.0027106,0.0087192,4.9546e-05,0.0026306,-0.00076655,0,0,0.033567,-0.013591,0,-0.013568,0,0,0,0.0088041,-3.5287e-05,0.0026306,-6.1441,0.0037998,0.0078535,2.2933e-08,0.46,0.48,0
0.028577,0.0027798,0.0047365,-0.00047714,0.0012778,-0.00013061,0,0,0.0096142,-0.0046372,0,-0.0018098,0,0,0,0.0047428,-0.00048349,0.0012778,-3.2658,0.0018457,0.0046057,7.6153e-09,0.48,0.48,0
0.028707,0.0028235,0.0071707,-0.0013446,0.0017478,2.7905e-05,0,0,0.0070497,-0.0040202,0,7.2554e-05,0,0,0,0.0071708,-0.0013447,0.0017478,0.18776,0.0025246,0.0074661,9.6828e-09,0.5,0.48,0
0.028858,0.0028899,0.0080869,-0.00018734,0.0023699,4.5638e-05,0,0,0.0074322,-0.0033244,0,0.00011866,0,0,0,0.0080872,-0.00018759,0.0023699,0.31601,0.0034231,0.0073382,1.2299e-08,0.52,0.48,0
0.029004,0.0029657,0.0081496,0.00018802,0.0025013,-3.3863e-05,0,0,0.0073428,-0.0030072,0,-8.8044e-05,0,0,0,0.0081497,0.00018788,0.0025013,-0.24369,0.003613,0.0070939,1.1977e-08,0.54,0.48,0
0.029152,0.0030289,0.0083697,0.000246,0.0025847,-0.0001028,0,0,0.0075205,-0.0030403,0,-0.00026728,0,0,0,0.008371,0.0002447,0.0025847,-0.72489,0.0037335,0.0072455,1.2887e-08,0.56,0.48,0
0.029305,0.0030813,0.0085418,0.00027591,0.0026453,-6.9716e-05,0,0,0.0076654,-0.0030802,0,-0.00018126,0,0,0,0.0085424,0.00027532,0.0026453,-0.4832,0.003821,0.0073735,1.3646e-08,0.58,0.48,0
0.029459,0.0031248,0.0085289,0.00024909,0.0026334,-2.7246e-06,0,0,0.0076641,-0.0030996,0,-7.084e-06,0,0,0,0.0085289,0.00024908,0.0026334,-0.018854,0.0038038,0.0073823,1.363e-08,0.6,0.48,0
0.029611,0.0031594,0.0083302,0.00016343,0.0025481,3.0062e-05,0,0,0.0075167,-0.0031001,0,7.8161e-05,0,0,0,0.0083303,0.00016332,0.0025481,0.2109,0.0036806,0.007274,1.2842e-08,0.62,0.48,0
0.029759,0.003183,0.0080911,4.6087e-05,0.0024412,-3.7466e-05,0,0,0.007345,-0.0031136,0,-9.7412e-05,0,0,0,0.0080913,4.5913e-05,0.0024412,-0.26682,0.0035261,0.0071551,1.1952e-08,0.64,0.48,0
0.029905,0.0031943,0.0080009,-0.00042791,0.0022719,-0.00011213,0,0,0.0074477,-0.0035098,0,-0.00029155,0,0,0,0.0080024,-0.0004294,0.0022719,-0.76206,0.0032816,0.0074576,1.2265e-08,0.66,0.48,0
0.030057,0.0032154,0.0070826,-0.0016709,0.0016235,-5.717e-05,0,0,0.0070968,-0.0042827,0,-0.00014864,0,0,0,0.007083,-0.0016713,0.0016235,-0.37418,0.002345,0.0076583,9.5202e-09,0.68,0.48,0
0.030189,0.0032621,0.0046898,-0.00074328,0.001184,0.00011723,0,0,0.0097572,-0.0051437,0,0.0017267,0,0,0,0.0046952,-0.00074868,0.001184,2.9664,0.0017101,0.0047802,7.6665e-09,0.7,0.48,0
0.030416,0.0032782,0.0086109,-0.00053931,0.0024215,0.00068543,0,0,0.03416,-0.015626,0,0.012188,0,0,0,0.0086759,-0.00060424,0.0024215,5.2517,0.0034977,0.0081975,2.3395e-08,0.72,0.48,0
0.032012,0.0026314,0.0065203,-0.0005055,0.0018044,0.00077742,0,0,0.073567,-0.036035,0,0.024256,0,0,0,0.0066053,-0.0005905,0.0018044,6.2394,0.0026064,0.0063468,7.1087e-09,0.74,0.48,0
0.033359,0.0019143,0.0061132,-0.00019457,0.0017756,0.00046323,0,0,0.067667,-0.030735,0,0.014453,0,0,0,0.0061471,-0.0002284,0.0017756,4.1778,0.0025648,0.0056468,5.475e-09,0.76,0.48,0
0.034718,0.0013258,0.0063341,0.00047523,0.0020428,0.00052075,0,0,0.066944,-0.024454,0,0.016247,0,0,0,0.00638,0.00042931,0.0020428,5.0399,0.0029507,0.0053304,5.4431e-09,0.78,0.48,0
0.036036,0.00087386,0.0063004,0.00052958,0.002049,0.00058631,0,0,0.066322,-0.023703,0,0.018293,0,0,0,0.0063593,0.00047061,0.002049,5.7431,0.0029596,0.0052795,5.343e-09,0.8,0.48,0
0.037371,0.00057575,0.0063726,0.00049162,0.0020592,0.00061398,0,0,0.067288,-0.024455,0,0.019156,0,0,0,0.006436,0.00042821,0.0020592,5.897,0.0029745,0.0053809,5.5931e-09,0.82,0.48,0
0.038728,0.000376,0.0064346,0.00043226,0.0020601,0.00059253,0,0,0.068243,-0.025394,0,0.018487,0,0,0,0.0064925,0.00037433,0.0020601,5.5842,0.0029756,0.0054736,5.8078e-09,0.84,0.48,0
0.040101,0.00024353,0.0064725,0.00035622,0.0020486,0.00054825,0,0,0.069013,-0.026401,0,0.017105,0,0,0,0.0065213,0.00030746,0.0020486,5.0818,0.0029591,0.0055519,5.963e-09,0.86,0.48,0
0.041488,0.00015837,0.0065001,0.00027801,0.0020334,0.00048941,0,0,0.06968,-0.027385,0,0.01527,0,0,0,0.0065384,0.00023975,0.0020334,4.47,0.0029372,0.0056207,6.087e-09,0.88,0.48,0
0.042888,0.00010586,0.0065215,0.00020577,0.0020182,0.00041969,0,0,0.070251,-0.028273,0,0.013094,0,0,0,0.0065492,0.000178,0.0020182,3.7852,0.0029151,0.0056793,6.1863e-09,0.9,0.48,0
0.044298,7.5146e-05,0.0065378,0.00014437,0.0020047,0.0003423,0,0,0.070717,-0.029021,0,0.01068,0,0,0,0.0065561,0.00012609,0.0020047,3.056,0.0028956,0.0057267,6.2627e-09,0.92,0.48,0
0.045717,5.8299e-05,0.0065496,9.5906e-05,0.0019937,0.00025994,0,0,0.071073,-0.029605,0,0.0081101,0,0,0,0.0065601,8.5453e-05,0.0019937,2.3028,0.0028797,0.0057626,6.3181e-09,0.94,0.48,0
0.047141,4.98e-05,0.0065574,6.1168e-05,0.0019856,0.0001746,0,0,0.071321,-0.030021,0,0.0054474,0,0,0,0.0065621,5.6479e-05,0.0019856,1.5384,0.0028681,0.0057875,6.3551e-09,0.96,0.48,0
0.04857,4.6048e-05,0.0065619,4.034e-05,0.0019807,8.7644e-05,0,0,0.071467,-0.030269,0,0.0027345,0,0,0,0.006563,3.9162e-05,0.0019807,0.76983,0.002861,0.0058021,6.3761e-09,0.98,0.48,0
0.05,4.5015e-05,0.0065633,3.3405e-05,0.001979,-1.6556e-06,0,0,0.071515,-0.030351,0,-5.1654e-05,0,0,0,0.0065633,3.3405e-05,0.001979,-0.014527,0.0028586,0.0058069,6.3829e-09,1,0.48,0
0,0,0.0055392,0.0023739,0.0023739,-0.0002434,0,0,0.049378,-2.1684e-19,0,-0.0075939,0,0,0,0.0055578,0.0023553,0.0023739,-4.3716,0.003429,0.0031932,1.6721e-09,0,0.5,0
0.00098756,-0.00015188,0.0055205,0.0021692,0.0023069,-0.00024477,0,0,0.050132,-0.0021486,0,-0.0076368,0,0,0,0.0055383,0.0021514,0.0023069,-4.1553,0.0033322,0.0033119,1.8518e-09,0.02,0.5,0
0.0020053,-0.00027889,0.0055878,0.0020108,0.0022796,-0.00023347,0,0,0.051608,-0.0041923,0,-0.0072844,0,0,0,0.005603,0.0019957,0.0022796,-3.7188,0.0032927,0.003474,2.105e-09,0.04,0.5,0
0.0030519,-0.00038556,0.0056527,0.0018615,0.0022543,-0.00023202,0,0,0.053016,-0.0061274,0,-0.0072391,0,0,0,0.0056669,0.0018473,0.0022543,-3.4891,0.0032562,0.0036332,2.3593e-09,0.06,0.5,0
0.0041259,-0.00047548,0.0057151,0.0017214,0.002231,-0.00023896,0,0,0.054353,-0.0079487,0,-0.0074554,0,0,0,0.0057294,0.0017072,0.002231,-3.412,0.0032225,0.0037876,2.6116e-09,0.08,0.5,0
0.005226,-0.00055152,0.0057747,0.0015912,0.0022097,-0.00025314,0,0,0.055613,-0.00965,0,-0.0078981,0,0,0,0.0057899,0.0015759,0.0022097,-3.4502,0.0031919,0.0039356,2.8589e-09,0.1,0.5,0
0.0063504,-0.00061585,0.0058309,0.0014712,0.0021906,-0.00027372,0,0,0.056789,-0.011224,0,-0.0085399,0,0,0,0.005848,0.0014541,0.0021906,-3.5784,0.0031642,0.0040759,3.0984e-09,0.12,0.5,0
0.0074975,-0.00067004,0.0058834,0.0013621,0.0021737,-0.00029997,0,0,0.057873,-0.012661,0,-0.0093589,0,0,0,0.0059032,0.0013423,0.0021737,-3.7791,0.0031397,0.0042074,3.3273e-09,0.14,0.5,0
0.0086654,-0.0007151,0.0059317,0.0012645,0.0021588,-0.0003313,0,0,0.058856,-0.013952,0,-0.010337,0,0,0,0.0059551,0.0012411,0.0021588,-4.0401,0.0031183,0.0043287,3.5427e-09,0.16,0.5,0
0.0098518,-0.00075143,0.005975,0.0011791,0.0021462,-0.00036717,0,0,0.059729,-0.015087,0,-0.011456,0,0,0,0.0060029,0.0011512,0.0021462,-4.3527,0.0031001,0.0044387,3.7417e-09,0.18,0.5,0
0.011055,-0.00077879,0.0060126,0.0011065,0.0021358,-0.00040701,0,0,0.060479,-0.016056,0,-0.012699,0,0,0,0.0060462,0.001073,0.0021358,-4.7103,0.003085,0.0045361,3.9212e-09,0.2,0.5,0
0.012271,-0.00079619,0.0060437,0.0010474,0.0021273,-0.00045016,0,0,0.061096,-0.016847,0,-0.014045,0,0,0,0.0060839,0.0010071,0.0021273,-5.1074,0.0030728,0.0046197,4.0776e-09,0.22,0.5,0
0.013498,-0.00080177,0.0060671,0.0010019,0.0021207,-0.00049579,0,0,0.061564,-0.017453,0,-0.015469,0,0,0,0.0061152,0.00095387,0.0021207,-5.5382,0.0030633,0.0046881,4.2072e-09,0.24,0.5,0
0.014734,-0.00079259,0.0060816,0.00097045,0.0021156,-0.00054281,0,0,0.061869,-0.017864,0,-0.016936,0,0,0,0.0061386,0.00091344,0.0021156,-5.9958,0.0030559,0.0047398,4.3058e-09,0.26,0.5,0
0.015973,-0.00076428,0.0060852,0.00095249,0.0021113,-0.00058963,0,0,0.061992,-0.018077,0,-0.018396,0,0,0,0.006152,0.00088563,0.0021113,-6.4697,0.0030497,0.0047731,4.368e-09,0.28,0.5,0
0.017213,-0.00071066,0.0060755,0.00094686,0.0021067,-0.00063392,0,0,0.061913,-0.018093,0,-0.019778,0,0,0,0.0061526,0.00086967,0.0021067,-6.9429,0.003043,0.0047859,4.3875e-09,0.3,0.5,0
0.01845,-0.00062301,0.006049,0.00095084,0.0021,-0.0006719,0,0,0.061605,-0.017926,0,-0.020963,0,0,0,0.0061361,0.00086378,0.0021,-7.3831,0.0030333,0.0047758,4.3562e-09,0.32,0.5,0
0.019677,-0.00048901,0.006002,0.00095866,0.0020882,-0.00069703,0,0,0.061055,-0.017621,0,-0.021747,0,0,0,0.0060966,0.0008641,0.0020882,-7.7258,0.0030163,0.0047405,4.266e-09,0.34,0.5,0
0.020892,-0.00029118,0.0059371,0.00095966,0.002069,-0.00069756,0,0,0.060342,-0.017306,0,-0.021764,0,0,0,0.006033,0.00086375,0.002069,-7.8288,0.0029886,0.0046844,4.1245e-09,0.36,0.5,0
0.022091,-4.4887e-06,0.0058824,0.0009264,0.0020427,-0.00066639,0,0,0.059901,-0.017413,0,-0.020791,0,0,0,0.0059705,0.00083836,0.0020427,-7.526,0.0029505,0.0046485,4.0151e-09,0.38,0.5,0
0.023288,0.00038796,0.0058101,0.00073655,0.001964,-0.00061242,0,0,0.059999,-0.019148,0,-0.019107,0,0,0,0.005883,0.00066367,0.001964,-6.7862,0.0028369,0.0047059,4.0065e-09,0.4,0.5,0
0.024491,0.00089506,0.0058175,0.00044428,0.0018785,-0.00063411,0,0,0.061448,-0.022374,0,-0.019784,0,0,0,0.0058913,0.00037046,0.0018785,-6.6402,0.0027134,0.0049425,4.3102e-09,0.42,0.5,0
0.025746,0.0014545,0.0056365,-0.00010642,0.001659,-0.00067405,0,0,0.062049,-0.027541,0,-0.02103,0,0,0,0.0057146,-0.00018447,0.001659,-6.6053,0.0023964,0.0052271,4.3782e-09,0.44,0.5,0
0.026973,0.0020892,0.0060916,-0.00019521,0.0017689,-0.00097856,0,0,0.067434,-0.030641,0,-0.030531,0,0,0,0.0062404,-0.00034401,0.0017689,-8.6458,0.0025551,0.0058229,5.824e-09,0.46,0.5,0
0.028443,0.002677,0.0080077,-0.00041446,0.002278,-0.0011567,0,0,0.031516,-0.013733,0,-0.01623,0,0,0,0.0081727,-0.00057949,0.002278,-8.516,0.0032904,0.0077307,1.9507e-08,0.48,0.5,0
0.028653,0.0027382,0.0040394,-0.0014574,0.00077462,-0.00054421,0,0,0.0090666,-0.0061554,0,-0.0058845,0,0,0,0.0041101,-0.0015281,0.00077462,-9.4753,0.0011189,0.0049101,5.3087e-09,0.5,0.5,0
0.028777,0.0028283,0.0071843,-0.00040168,0.0020348,-0.00071866,0,0,0.0066944,-0.0031674,0,-0.0018685,0,0,0,0.0072518,-0.00046916,0.0020348,-5.3643,0.0029392,0.0068228,9.2168e-09,0.52,0.5,0
0.028921,0.002906,0.0083937,-7.7905e-05,0.0024947,-0.00053685,0,0,0.0076686,-0.0033444,0,-0.0013958,0,0,0,0.0084276,-0.00011179,0.0024947,-3.6116,0.0036035,0.00758,1.3779e-08,0.54,0.5,0
0.029083,0.0029657,0.0091228,9.8994e-05,0.0027665,-0.00036637,0,0,0.0082632,-0.0034678,0,-0.00095257,0,0,0,0.0091377,8.4144e-05,0.0027665,-2.3211,0.0039961,0.0080546,1.7148e-08,0.56,0.5,0
0.029252,0.0030165,0.0093541,0.00012438,0.0028435,-0.00013916,0,0,0.0084637,-0.0035349,0,-0.00036181,0,0,0,0.0093562,0.00012228,0.0028435,-0.86359,0.0041073,0.0082184,1.8329e-08,0.58,0.5,0
0.029422,0.0030596,0.0093444,9.7114e-05,0.0028324,8.7905e-05,0,0,0.0084655,-0.0035559,0,0.00022855,0,0,0,0.0093452,9.6279e-05,0.0028324,0.54459,0.0040913,0.0082294,1.8321e-08,0.6,0.5,0
0.02959,0.0030949,0.0090922,1.4993e-05,0.0027322,0.00031713,0,0,0.0082681,-0.0035323,0,0.00082453,0,0,0,0.0091033,3.9276e-06,0.0027322,1.9985,0.0039464,0.008088,1.7118e-08,0.62,0.5,0
0.029753,0.0031213,0.0083324,-0.00022996,0.0024307,0.0004866,0,0,0.0076721,-0.0034589,0,0.0012652,0,0,0,0.0083599,-0.00025752,0.0024307,3.2422,0.003511,0.0076368,1.3688e-08,0.64,0.5,0
0.029897,0.0031287,0.0071171,-0.00062688,0.0019471,0.00068378,0,0,0.0067211,-0.0033461,0,0.0017778,0,0,0,0.007177,-0.0006868,0.0019471,5.0075,0.0028124,0.0069329,9.1638e-09,0.66,0.5,0
0.030021,0.003125,0.0039833,-0.0017147,0.00068057,0.00052895,0,0,0.0091859,-0.0066478,0,0.0058515,0,0,0,0.0040493,-0.0017807,0.00068057,9.0684,0.00098305,0.0050694,5.001e-09,0.68,0.5,0
0.030235,0.003147,0.0079055,-0.0009322,0.002092,0.0010804,0,0,0.031983,-0.015517,0,0.014999,0,0,0,0.0080427,-0.0010694,0.002092,7.5995,0.0030218,0.0080141,1.9481e-08,0.7,0.5,0
0.031727,0.0025629,0.0060429,-0.00060266,0.0016321,0.00087789,0,0,0.068809,-0.034862,0,0.02739,0,0,0,0.0061569,-0.00071668,0.0016321,7.3998,0.0023574,0.0060513,5.8743e-09,0.72,0.5,0
0.032987,0.0019319,0.0056189,-0.00049844,0.0015361,0.00055977,0,0,0.063691,-0.031739,0,0.017465,0,0,0,0.0056697,-0.00054924,0.0015361,5.1855,0.0022189,0.0054823,4.5218e-09,0.74,0.5,0
0.034275,0.0013607,0.0057997,3.2235e-05,0.0017496,0.00049542,0,0,0.063182,-0.02679,0,0.015457,0,0,0,0.0058419,-1.0011e-05,0.0017496,4.8741,0.0025272,0.0052004,4.5343e-09,0.76,0.5,0
0.035515,0.00083504,0.0058064,0.00032081,0.0018382,0.0004616,0,0,0.061904,-0.023671,0,0.014402,0,0,0,0.005845,0.00028224,0.0018382,4.7766,0.0026551,0.0049709,4.2875e-09,0.78,0.5,0
0.036751,0.00041977,0.0058904,0.0004939,0.0019153,0.00050826,0,0,0.062012,-0.022174,0,0.015858,0,0,0,0.0059379,0.00044644,0.0019153,5.3337,0.0027665,0.0049242,4.3428e-09,0.8,0.5,0
0.037995,0.00011013,0.0059638,0.00050035,0.0019393,0.00053636,0,0,0.062784,-0.022447,0,0.016734,0,0,0,0.006016,0.00044819,0.0019393,5.5541,0.0028012,0.0049922,4.5205e-09,0.82,0.5,0
0.039262,-0.00010916,0.0060529,0.00045962,0.0019538,0.00053232,0,0,0.063947,-0.023309,0,0.016608,0,0,0,0.0061031,0.00040941,0.0019538,5.3884,0.0028221,0.0051,4.766e-09,0.84,0.5,0
0.040553,-0.00026245,0.00613,0.00040104,0.0019593,0.00050087,0,0,0.065063,-0.024309,0,0.015627,0,0,0,0.0061735,0.00035758,0.0019593,4.9591,0.0028301,0.0052033,4.9912e-09,0.86,0.5,0
0.041865,-0.00036769,0.006191,0.00033655,0.0019582,0.00045171,0,0,0.06603,-0.025299,0,0.014093,0,0,0,0.0062256,0.0003019,0.0019582,4.3862,0.0028286,0.0052936,5.1796e-09,0.88,0.5,0
0.043194,-0.00043828,0.0062385,0.0002745,0.0019539,0.00039033,0,0,0.06684,-0.026199,0,0.012178,0,0,0,0.006264,0.00024907,0.0019539,3.7286,0.0028223,0.0053695,5.3325e-09,0.9,0.5,0
0.044538,-0.00048428,0.0062749,0.00021994,0.0019485,0.00032035,0,0,0.067493,-0.026965,0,0.009995,0,0,0,0.0062918,0.00020304,0.0019485,3.0201,0.0028145,0.0054307,5.4525e-09,0.92,0.5,0
0.045894,-0.00051316,0.0063017,0.0001758,0.0019433,0.0002445,0,0,0.067992,-0.027572,0,0.0076283,0,0,0,0.0063115,0.00016606,0.0019433,2.2819,0.0028069,0.0054775,5.5423e-09,0.94,0.5,0
0.047258,-0.00053028,0.00632,0.00014361,0.0019391,0.00016483,0,0,0.068343,-0.02801,0,0.0051428,0,0,0,0.0063244,0.00013921,0.0019391,1.5276,0.0028009,0.0055103,5.6042e-09,0.96,0.5,0
0.048628,-0.0005392,0.0063307,0.00012409,0.0019364,8.293e-05,0,0,0.06855,-0.028272,0,0.0025874,0,0,0,0.0063318,0.00012299,0.0019364,0.76538,0.0027971,0.0055298,5.6404e-09,0.98,0.5,0
0.05,-0.00054195,0.0063342,0.00011756,0.0019355,-4.4099e-06,0,0,0.068619,-0.02836,0,-0.00013759,0,0,0,0.0063342,0.00011756,0.0019355,-0.040644,0.0027957,0.0055362,5.6523e-09,1,0.5,0
0,0,0.0054624,0.002341,0.002341,-0.00030961,0,0,0.048693,3.2526e-19,0,-0.0096599,0,0,0,0.0054928,0.0023106,0.002341,-5.6104,0.0033815,0.0031671,1.6311e-09,0,0.52,0
0.00097387,-0.0001932,0.0054452,0.0021518,0.0022791,-0.00031054,0,0,0.049391,-0.0019856,0,-0.0096889,0,0,0,0.0054742,0.0021228,0.0022791,-5.3399,0.0032921,0.0032761,1.792e-09,0.02,0.52,0
0.0019756,-0.00035968,0.0055071,0.0020039,0.0022533,-0.0002971,0,0,0.050759,-0.0038909,0,-0.0092695,0,0,0,0.0055321,0.0019788,0.0022533,-4.8133,0.0032547,0.0034243,2.0176e-09,0.04,0.52,0
0.0030042,-0.00050382,0.0055665,0.0018632,0.0022289,-0.00029313,0,0,0.052067,-0.0057053,0,-0.0091458,0,0,0,0.0055896,0.0018401,0.0022289,-4.4979,0.0032195,0.003571,2.2455e-09,0.06,0.52,0
0.0040583,-0.00062905,0.0056231,0.0017306,0.0022061,-0.00029714,0,0,0.053305,-0.0074182,0,-0.0092709,0,0,0,0.0056456,0.001708,0.0022061,-4.3403,0.0031866,0.0037137,2.4718e-09,0.08,0.52,0
0.0051364,-0.00073807,0.0056761,0.0016067,0.0021848,-0.00030794,0,0,0.054464,-0.0090191,0,-0.0096078,0,0,0,0.0056993,0.0015835,0.0021848,-4.3031,0.0031559,0.0038505,2.6926e-09,0.1,0.52,0
0.0062369,-0.00083287,0.0057251,0.0014923,0.0021652,-0.00032459,0,0,0.055534,-0.010497,0,-0.010127,0,0,0,0.0057498,0.0014676,0.0021652,-4.3598,0.0031275,0.0039795,2.9044e-09,0.12,0.52,0
0.0073578,-0.00091483,0.0057692,0.0013882,0.0021472,-0.00034631,0,0,0.056503,-0.011841,0,-0.010805,0,0,0,0.0057964,0.001361,0.0021472,-4.492,0.0031015,0.0040993,3.1037e-09,0.14,0.52,0
0.008497,-0.00098473,0.0058078,0.001295,0.0021308,-0.00037242,0,0,0.057361,-0.013039,0,-0.01162,0,0,0,0.0058383,0.0012645,0.0021308,-4.6861,0.0030779,0.0042081,3.287e-09,0.16,0.52,0
0.0096522,-0.0010428,0.0058399,0.0012133,0.002116,-0.00040228,0,0,0.058093,-0.014081,0,-0.012551,0,0,0,0.0058746,0.0011786,0.002116,-4.9325,0.0030564,0.0043046,3.4507e-09,0.18,0.52,0
0.010821,-0.0010884,0.0058646,0.0011439,0.0021025,-0.00043517,0,0,0.058688,-0.014955,0,-0.013577,0,0,0,0.0059044,0.0011041,0.0021025,-5.2231,0.003037,0.0043871,3.591e-09,0.2,0.52,0
0.012,-0.0011206,0.0058806,0.001087,0.0020903,-0.0004703,0,0,0.059129,-0.015652,0,-0.014673,0,0,0,0.0059263,0.0010413,0.0020903,-5.5507,0.0030193,0.0044542,3.7039e-09,0.22,0.52,0
0.013186,-0.0011372,0.0058866,0.0010428,0.0020788,-0.00050662,0,0,0.059402,-0.016162,0,-0.015807,0,0,0,0.0059391,0.00099037,0.0020788,-5.9074,0.0030028,0.0045042,3.7854e-09,0.24,0.52,0
0.014376,-0.0011351,0.005881,0.0010111,0.0020676,-0.00054273,0,0,0.059488,-0.016482,0,-0.016933,0,0,0,0.0059407,0.00095135,0.0020676,-6.2827,0.0029866,0.0045355,3.8308e-09,0.26,0.52,0
0.015565,-0.00111,0.0058617,0.00099101,0.0020558,-0.00057668,0,0,0.059371,-0.016611,0,-0.017992,0,0,0,0.005929,0.00092366,0.0020558,-6.661,0.0029695,0.0045463,3.8357e-09,0.28,0.52,0
0.016751,-0.0010557,0.0058265,0.00098048,0.0020421,-0.00060562,0,0,0.059037,-0.016561,0,-0.018895,0,0,0,0.005901,0.00090594,0.0020421,-7.0167,0.0029497,0.004535,3.7958e-09,0.3,0.52,0
0.017927,-0.00096395,0.0057736,0.00097553,0.0020248,-0.00062547,0,0,0.058482,-0.016368,0,-0.019515,0,0,0,0.0058538,0.00089534,0.0020248,-7.3063,0.0029246,0.0045013,3.7089e-09,0.32,0.52,0
0.01909,-0.00082384,0.0057034,0.00096855,0.0020016,-0.00063053,0,0,0.057749,-0.016115,0,-0.019672,0,0,0,0.0057859,0.00088602,0.0020016,-7.4568,0.0028912,0.0044483,3.5802e-09,0.34,0.52,0
0.020237,-0.00062146,0.0056227,0.00094446,0.0019702,-0.00061591,0,0,0.05698,-0.016001,0,-0.019217,0,0,0,0.0057025,0.00086473,0.0019702,-7.3758,0.0028458,0.0043907,3.4358e-09,0.36,0.52,0
0.021369,-0.00034303,0.0055351,0.00086687,0.0019206,-0.0005829,0,0,0.056387,-0.016438,0,-0.018187,0,0,0,0.0056068,0.00079519,0.0019206,-7.0108,0.0027742,0.0043593,3.3178e-09,0.38,0.52,0
0.022492,2.1368e-05,0.0054586,0.00071064,0.0018508,-0.00055681,0,0,0.056282,-0.017786,0,-0.017373,0,0,0,0.005523,0.00064621,0.0018508,-6.6,0.0026733,0.0044,3.2946e-09,0.4,0.52,0
0.02362,0.0004624,0.0053533,0.00042828,0.0017345,-0.00056085,0,0,0.056453,-0.020376,0,-0.017499,0,0,0,0.0054163,0.00036522,0.0017345,-6.4153,0.0025053,0.0045246,3.3298e-09,0.42,0.52,0
0.02475,0.00096766,0.0053089,0.00015989,0.0016406,-0.00066277,0,0,0.057225,-0.0231,0,-0.020678,0,0,0,0.0053929,7.5951e-05,0.0016406,-7.2183,0.0023698,0.0047327,3.5059e-09,0.44,0.52,0
0.025909,0.001485,0.0050951,-0.00026671,0.0014485,-0.00076906,0,0,0.056886,-0.026757,0,-0.023995,0,0,0,0.0052032,-0.00037484,0.0014485,-8.0033,0.0020923,0.0049263,3.4259e-09,0.46,0.52,0
0.027026,0.0020586,0.0055698,-0.00029411,0.0015827,-0.0011289,0,0,0.062198,-0.029278,0,-0.035222,0,0,0,0.0057796,-0.00050393,0.0015827,-10.529,0.0022861,0.005543,4.7539e-09,0.48,0.52,0
0.028397,0.0025962,0.0075882,-0.0015736,0.0018044,-0.0014701,0,0,0.030141,-0.013651,0,-0.021357,0,0,0,0.00785,-0.0018355,0.0018044,-10.675,0.0026063,0.0084805,1.8637e-08,0.5,0.52,0
0.028616,0.0027632,0.0062428,0.00021293,0.0019367,-0.0011597,0,0,0.010334,-0.0089991,0,-0.02437,0,0,0,0.0067213,-0.00026557,0.0019367,-17.673,0.0027975,0.0062506,1.7009e-08,0.52,0.52,0
0.028811,0.0028319,0.0057386,-7.2537e-05,0.0016998,-0.0009411,0,0,0.0096932,-0.0072659,0,-0.016413,0,0,0,0.006038,-0.0003719,0.0016998,-16.503,0.0024553,0.0056953,1.4246e-08,0.54,0.52,0
0.029004,0.0028902,0.0057186,-4.5914e-05,0.0017018,-0.0005232,0,0,0.0096403,-0.0065103,0,-0.0092137,0,0,0,0.0058366,-0.00016386,0.0017018,-11.93,0.0024582,0.0053362,1.3717e-08,0.56,0.52,0
0.029196,0.0029399,0.0057187,-5.6499e-05,0.0016987,-0.00018135,0,0,0.0096481,-0.0063079,0,-0.003095,0,0,0,0.0057342,-7.1962e-05,0.0016987,-4.8078,0.0024536,0.0051656,1.3629e-08,0.58,0.52,0
0.029389,0.0029825,0.0057118,-8.3854e-05,0.0016884,0.00014662,0,0,0.0096562,-0.0064502,0,0.0027477,0,0,0,0.0057238,-9.585e-05,0.0016884,4.2104,0.0024388,0.0051763,1.3651e-08,0.6,0.52,0
0.029583,0.0030181,0.0057001,-0.00012825,0.0016715,0.0004897,0,0,0.0096685,-0.0069482,0,0.0088948,0,0,0,0.005807,-0.00023517,0.0016715,11.261,0.0024145,0.0053696,1.3797e-08,0.62,0.52,0
0.029776,0.0030447,0.005709,-0.00021969,0.0016468,0.00091276,0,0,0.0097493,-0.0080403,0,0.016171,0,0,0,0.0059892,-0.00049988,0.0016468,15.8,0.0023787,0.0057596,1.4413e-08,0.64,0.52,0
0.029973,0.0030605,0.006238,2.0811e-05,0.0018776,0.0011117,0,0,0.010465,-0.0102,0,0.024157,0,0,0,0.0066873,-0.00042851,0.0018776,16.811,0.0027121,0.0063593,1.7542e-08,0.66,0.52,0
0.030195,0.0029708,0.0075113,-0.0020611,0.0016351,0.0013854,0,0,0.030546,-0.015254,0,0.020234,0,0,0,0.0077364,-0.0022862,0.0016351,9.7557,0.0023618,0.0087548,1.7932e-08,0.68,0.52,0
0.031583,0.0024462,0.0055142,-0.00065764,0.001457,0.0010422,0,0,0.063293,-0.032988,0,0.032517,0,0,0,0.0056855,-0.00082888,0.001457,9.3308,0.0021045,0.0057246,4.7163e-09,0.7,0.52,0
0.032727,0.0018837,0.0050678,-0.00061883,0.0013347,0.0006687,0,0,0.058236,-0.030475,0,0.020863,0,0,0,0.0051454,-0.0006964,0.0013347,6.6172,0.0019279,0.0051368,3.4729e-09,0.72,0.52,0
0.033912,0.0013618,0.0052797,-0.00021924,0.0015181,0.00053687,0,0,0.05868,-0.027103,0,0.016751,0,0,0,0.0053316,-0.00027117,0.0015181,5.5244,0.0021929,0.0049566,3.6181e-09,0.74,0.52,0
0.035074,0.00084265,0.0053342,3.8088e-05,0.0016117,0.00041686,0,0,0.058072,-0.024548,0,0.013006,0,0,0,0.0053669,5.4787e-06,0.0016117,4.473,0.002328,0.0047658,3.5054e-09,0.76,0.52,0
0.036235,0.00037901,0.0054458,0.0003041,0.001725,0.00039698,0,0,0.058045,-0.022166,0,0.012386,0,0,0,0.0054763,0.00027363,0.001725,4.3891,0.0024916,0.0046501,3.5189e-09,0.78,0.52,0
0.037396,-1.3094e-05,0.0055327,0.0004407,0.001792,0.00041197,0,0,0.058355,-0.021081,0,0.012854,0,0,0,0.0055658,0.00040759,0.001792,4.5957,0.0025885,0.0046242,3.5858e-09,0.8,0.52,0
0.03857,-0.00032214,0.0056338,0.00048967,0.0018371,0.00043586,0,0,0.05923,-0.021019,0,0.013599,0,0,0,0.0056705,0.000453,0.0018371,4.809,0.0026535,0.0046815,3.7583e-09,0.82,0.52,0
0.039765,-0.00055634,0.0057329,0.00047598,0.0018627,0.00044143,0,0,0.060376,-0.021632,0,0.013773,0,0,0,0.0057697,0.00043917,0.0018627,4.7667,0.0026905,0.0047805,3.9791e-09,0.84,0.52,0
0.040985,-0.00072883,0.0058259,0.00043586,0.0018785,0.00042517,0,0,0.061579,-0.022506,0,0.013265,0,0,0,0.0058592,0.00040253,0.0018785,4.4826,0.0027134,0.0048887,4.2083e-09,0.86,0.52,0
0.042228,-0.00085357,0.0059054,0.00038553,0.0018873,0.00039045,0,0,0.062683,-0.023427,0,0.012182,0,0,0,0.0059329,0.00035805,0.0018873,4.0261,0.0027261,0.0049892,4.4164e-09,0.88,0.52,0
0.043492,-0.00094209,0.0059701,0.00033408,0.0018912,0.000342,0,0,0.06363,-0.024292,0,0.01067,0,0,0,0.0059907,0.0003134,0.0018912,3.4599,0.0027318,0.0050758,4.5934e-09,0.9,0.52,0
0.044773,-0.0010034,0.0060208,0.00028714,0.0018924,0.00028357,0,0,0.064403,-0.025042,0,0.0088473,0,0,0,0.0060348,0.00027315,0.0018924,2.8245,0.0027334,0.0051467,4.7365e-09,0.92,0.52,0
0.046068,-0.0010446,0.0060587,0.00024819,0.0018921,0.00021806,0,0,0.065,-0.025645,0,0.0068034,0,0,0,0.0060669,0.00024002,0.0018921,2.1462,0.002733,0.0052015,4.846e-09,0.94,0.52,0
0.047373,-0.0010706,0.006085,0.00021929,0.0018913,0.00014778,0,0,0.065422,-0.026083,0,0.0046108,0,0,0,0.0060887,0.00021557,0.0018913,1.4423,0.0027319,0.0052402,4.9229e-09,0.96,0.52,0
0.048685,-0.0010849,0.0061004,0.00020158,0.0018906,7.4583e-05,0,0,0.065673,-0.026349,0,0.002327,0,0,0,0.0061013,0.00020064,0.0018906,0.72428,0.0027309,0.0052633,4.9685e-09,0.98,0.52,0
0.05,-0.0010894,0.0061055,0.00019562,0.0018903,-7.2731e-06,0,0,0.065756,-0.026437,0,-0.00022692,0,0,0,0.0061055,0.00019561,0.0018903,-0.070512,0.0027305,0.005271,4.9836e-09,1,0.52,0
0,0,0.0053828,0.0023069,0.0023069,-0.00037067,0,0,0.047984,-5.421e-19,0,-0.011565,0,0,0,0.0054269,0.0022629,0.0023069,-6.7754,0.0033322,0.0031422,1.5923e-09,0,0.54,0
0.00095968,-0.0002313,0.0053671,0.0021327,0.0022499,-0.00037108,0,0,0.048628,-0.0018295,0,-0.011578,0,0,0,0.0054091,0.0020906,0.0022499,-6.4615,0.0032499,0.0032418,1.7355e-09,0.02,0.54,0
0.0019451,-0.00043453,0.0054238,0.0019945,0.0022255,-0.00035558,0,0,0.049893,-0.0036031,0,-0.011094,0,0,0,0.0054603,0.001958,0.0022255,-5.858,0.0032146,0.0033765,1.9352e-09,0.04,0.54,0
0.0029554,-0.00061377,0.005478,0.001862,0.002202,-0.0003489,0,0,0.051106,-0.0053038,0,-0.010886,0,0,0,0.0055114,0.0018287,0.002202,-5.4613,0.0031807,0.003511,2.1383e-09,0.06,0.54,0
0.0039894,-0.00077221,0.0055291,0.0017363,0.0021796,-0.00034954,0,0,0.052252,-0.006916,0,-0.010906,0,0,0,0.0055611,0.0017044,0.0021796,-5.2217,0.0031483,0.0036424,2.3401e-09,0.08,0.54,0
0.0050455,-0.00091228,0.0055762,0.0016183,0.0021583,-0.00035628,0,0,0.053319,-0.0084252,0,-0.011116,0,0,0,0.005608,0.0015865,0.0021583,-5.1029,0.0031176,0.0037683,2.5362e-09,0.1,0.54,0
0.0061221,-0.0010357,0.0056185,0.0015089,0.0021382,-0.00036814,0,0,0.054292,-0.0098176,0,-0.011486,0,0,0,0.0056512,0.0014762,0.0021382,-5.0787,0.0030885,0.0038865,2.7226e-09,0.12,0.54,0
0.0072172,-0.0011437,0.0056551,0.001409,0.0021192,-0.00038426,0,0,0.05516,-0.01108,0,-0.011989,0,0,0,0.0056896,0.0013745,0.0021192,-5.1296,0.0030611,0.0039951,2.8952e-09,0.14,0.54,0
0.0083285,-0.0012367,0.0056851,0.0013193,0.0021013,-0.0004039,0,0,0.055907,-0.012199,0,-0.012602,0,0,0,0.0057221,0.0012822,0.0021013,-5.2414,0.0030352,0.0040923,3.05e-09,0.16,0.54,0
0.0094535,-0.0013147,0.0057074,0.0012405,0.0020844,-0.00042629,0,0,0.056519,-0.013164,0,-0.0133,0,0,0,0.0057477,0.0012002,0.0020844,-5.4029,0.0030108,0.0041762,3.183e-09,0.18,0.54,0
0.010589,-0.001377,0.005721,0.0011731,0.0020682,-0.00045061,0,0,0.056983,-0.013964,0,-0.014059,0,0,0,0.0057652,0.0011289,0.0020682,-5.6043,0.0029875,0.0042453,3.2904e-09,0.2,0.54,0
0.011733,-0.0014222,0.0057246,0.0011173,0.0020526,-0.0004759,0,0,0.057283,-0.01459,0,-0.014848,0,0,0,0.0057732,0.0010687,0.0020526,-5.8361,0.0029648,0.0042979,3.3682e-09,0.22,0.54,0
0.012881,-0.0014483,0.0057167,0.001073,0.0020369,-0.00050091,0,0,0.057404,-0.015037,0,-0.015629,0,0,0,0.0057701,0.0010196,0.0020369,-6.0872,0.0029422,0.0043324,3.4127e-09,0.24,0.54,0
0.014029,-0.0014518,0.0056958,0.0010396,0.0020206,-0.00052405,0,0,0.057333,-0.015304,0,-0.016351,0,0,0,0.0057541,0.00098134,0.0020206,-6.3429,0.0029187,0.0043473,3.4205e-09,0.26,0.54,0
0.015174,-0.0014287,0.0056604,0.0010155,0.0020028,-0.00054318,0,0,0.057059,-0.015401,0,-0.016947,0,0,0,0.0057231,0.00095286,0.0020028,-6.5819,0.0028929,0.0043415,3.3887e-09,0.28,0.54,0
0.016311,-0.0013731,0.0056091,0.00099805,0.0019822,-0.00055549,0,0,0.056581,-0.015352,0,-0.017331,0,0,0,0.0056751,0.00093208,0.0019822,-6.7732,0.0028631,0.0043149,3.3168e-09,0.3,0.54,0
0.017437,-0.0012777,0.0055416,0.00098212,0.0019571,-0.00055755,0,0,0.055918,-0.01521,0,-0.017396,0,0,0,0.0056088,0.00091493,0.0019571,-6.8715,0.0028269,0.0042693,3.2079e-09,0.32,0.54,0
0.018548,-0.0011336,0.0054595,0.00095901,0.0019256,-0.00054613,0,0,0.055129,-0.015078,0,-0.017039,0,0,0,0.0055248,0.00089369,0.0019256,-6.821,0.0027814,0.0042111,3.073e-09,0.34,0.54,0
0.019642,-0.00093121,0.0053657,0.00091323,0.0018837,-0.00052033,0,0,0.054319,-0.015139,0,-0.016234,0,0,0,0.0054257,0.00085323,0.0018837,-6.5777,0.0027208,0.0041542,2.9323e-09,0.36,0.54,0
0.020721,-0.00066202,0.0052651,0.0008261,0.0018274,-0.00048668,0,0,0.053629,-0.01562,0,-0.015185,0,0,0,0.0053178,0.00077337,0.0018274,-6.1839,0.0026395,0.0041199,2.8146e-09,0.38,0.54,0
0.021788,-0.00032349,0.0051518,0.00067459,0.0017479,-0.00045895,0,0,0.053101,-0.016744,0,-0.014319,0,0,0,0.0051984,0.00062803,0.0017479,-5.793,0.0025248,0.004126,2.7315e-09,0.4,0.54,0
0.022845,7.9999e-05,0.0050285,0.00046982,0.0016495,-0.00046398,0,0,0.052713,-0.018403,0,-0.014476,0,0,0,0.0050753,0.00042307,0.0016495,-5.7529,0.0023826,0.0041763,2.682e-09,0.42,0.54,0
0.023896,0.00053056,0.004841,0.00019829,0.0015118,-0.00050678,0,0,0.051935,-0.02049,0,-0.015811,0,0,0,0.0048956,0.00014362,0.0015118,-6.1576,0.0021837,0.004237,2.5774e-09,0.44,0.54,0
0.024922,0.0010189,0.0046243,-3.8258e-05,0.0013758,-0.00063073,0,0,0.050676,-0.022059,0,-0.019679,0,0,0,0.0047081,-0.00012207,0.0013758,-7.5695,0.0019873,0.0042824,2.4332e-09,0.46,0.54,0
0.025923,0.0015059,0.0039821,-0.00050789,0.0010423,-0.00073559,0,0,0.045861,-0.024182,0,-0.02295,0,0,0,0.0040995,-0.00062533,0.0010423,-9.071,0.0015055,0.0041504,1.7753e-09,0.48,0.54,0
0.026757,0.0020611,0.0033847,-0.00087968,0.00075149,-0.0011812,0,0,0.041077,-0.025446,0,-0.036853,0,0,0,0.00369,-0.001185,0.00075149,-14.493,0.0010855,0.0042515,1.3694e-09,0.5,0.54,0
0.027566,0.0024683,0.0029243,-0.0005546,0.0007109,-0.0010116,0,0,0.034528,-0.019742,0,-0.031563,0,0,0,0.003197,-0.00082738,0.0007109,-15.091,0.0010269,0.0035173,8.8155e-10,0.52,0.54,0
0.028138,0.0026154,0.00219,-0.0004496,0.00052211,-0.00080014,0,0,0.026019,-0.015159,0,-0.024964,0,0,0,0.0024136,-0.0006732,0.00052211,-15.614,0.00075416,0.0026958,3.8109e-10,0.54,0.54,0
0.028607,0.0027053,0.0018851,-0.00039772,0.00044622,-0.0004759,0,0,0.022447,-0.013165,0,-0.014848,0,0,0,0.0019803,-0.00049296,0.00044622,-11.317,0.00064453,0.0021625,2.0894e-10,0.56,0.54,0
0.029036,0.0027642,0.0017753,-0.0003809,0.00041833,-0.00016294,0,0,0.021169,-0.012468,0,-0.0050838,0,0,0,0.0017876,-0.00039314,0.00041833,-4.2973,0.00060425,0.001909,1.5215e-10,0.58,0.54,0
0.029454,0.0028016,0.0017669,-0.00040933,0.00040726,0.00014529,0,0,0.02121,-0.012739,0,0.0045329,0,0,0,0.0017765,-0.00041899,0.00040726,3.8026,0.00058827,0.0019207,1.5021e-10,0.6,0.54,0
0.029884,0.002817,0.0018606,-0.00048474,0.00041275,0.00045873,0,0,0.022586,-0.014001,0,0.014312,0,0,0,0.0019471,-0.00057127,0.00041275,10.682,0.0005962,0.0021983,2.0061e-10,0.62,0.54,0
0.030357,0.0027997,0.0021546,-0.00059984,0.00046644,0.00078315,0,0,0.026336,-0.016634,0,0.024434,0,0,0,0.0023617,-0.00080694,0.00046644,14.812,0.00067374,0.0027617,3.5925e-10,0.64,0.54,0
0.030937,0.0027207,0.0028916,-0.00078004,0.00063348,0.00098648,0,0,0.035227,-0.022051,0,0.030778,0,0,0,0.0031399,-0.0010283,0.00063348,14.126,0.00091503,0.0036344,8.4404e-10,0.66,0.54,0
0.031766,0.002364,0.003342,-0.0012046,0.00064121,0.0011291,0,0,0.042132,-0.028794,0,0.035227,0,0,0,0.0036069,-0.0014695,0.00064121,13.206,0.0009262,0.004417,1.269e-09,0.68,0.54,0
0.032623,0.0018275,0.0039521,-0.00081998,0.00093962,0.00065053,0,0,0.046994,-0.02745,0,0.020297,0,0,0,0.0040391,-0.00090707,0.00093962,7.6254,0.0013572,0.0043291,1.7584e-09,0.7,0.54,0
0.033646,0.0013439,0.0045901,-0.00037764,0.0012637,0.00052151,0,0,0.051891,-0.025605,0,0.016271,0,0,0,0.0046443,-0.0004318,0.0012637,5.9288,0.0018254,0.004476,2.4779e-09,0.72,0.54,0
0.034698,0.00084783,0.0048136,-0.00015602,0.0013973,0.00037769,0,0,0.053294,-0.024231,0,0.011784,0,0,0,0.0048421,-0.00018456,0.0013973,4.3214,0.0020183,0.0044518,2.6784e-09,0.74,0.54,0
0.035778,0.00037874,0.0050032,9.6408e-05,0.0015299,0.00031517,0,0,0.054184,-0.022362,0,0.0098334,0,0,0,0.0050234,7.6247e-05,0.0015299,3.6602,0.0022098,0.0044041,2.8301e-09,0.76,0.54,0
0.036866,-5.158e-05,0.0051311,0.00028253,0.0016241,0.00029345,0,0,0.05471,-0.020928,0,0.0091557,0,0,0,0.0051488,0.00026484,0.0016241,3.4509,0.0023459,0.0043661,2.9194e-09,0.78,0.54,0
0.037966,-0.00042346,0.0052505,0.00041077,0.0016984,0.00030652,0,0,0.055413,-0.020087,0,0.0095633,0,0,0,0.0052698,0.00039143,0.0016984,3.6095,0.0024532,0.0043739,3.0394e-09,0.8,0.54,0
0.039082,-0.00073063,0.0053603,0.00046867,0.0017487,0.00032686,0,0,0.056341,-0.019968,0,0.010198,0,0,0,0.0053821,0.00044692,0.0017487,3.806,0.0025259,0.0044301,3.1998e-09,0.82,0.54,0
0.04022,-0.00097445,0.0054669,0.00047777,0.0017834,0.00033914,0,0,0.057463,-0.020368,0,0.010581,0,0,0,0.0054899,0.00045482,0.0017834,3.871,0.002576,0.0045197,3.3968e-09,0.84,0.54,0
0.041381,-0.0011627,0.0055653,0.00045664,0.0018066,0.00033539,0,0,0.058636,-0.021059,0,0.010464,0,0,0,0.0055873,0.00043472,0.0018066,3.7401,0.0026095,0.0046219,3.6053e-09,0.86,0.54,0
0.042565,-0.0013048,0.0056523,0.00042125,0.0018221,0.0003153,0,0,0.059752,-0.021853,0,0.0098375,0,0,0,0.0056712,0.00040232,0.0018221,3.437,0.0026319,0.0047219,3.8049e-09,0.88,0.54,0
0.043771,-0.00141,0.0057254,0.00038129,0.001832,0.00028135,0,0,0.060737,-0.022631,0,0.008778,0,0,0,0.0057402,0.00036652,0.001832,3.0053,0.0026462,0.0048113,3.9819e-09,0.9,0.54,0
0.044995,-0.0014859,0.0057841,0.00034291,0.0018381,0.00023658,0,0,0.061557,-0.023325,0,0.0073813,0,0,0,0.0057944,0.00033264,0.0018381,2.4849,0.002655,0.0048861,4.1297e-09,0.92,0.54,0
0.046233,-0.0015389,0.0058288,0.00031004,0.0018417,0.00018381,0,0,0.062199,-0.023893,0,0.0057348,0,0,0,0.0058349,0.00030392,0.0018417,1.9055,0.0026602,0.0049448,4.2453e-09,0.94,0.54,0
0.047483,-0.0015736,0.0058601,0.00028514,0.0018436,0.00012545,0,0,0.062658,-0.024312,0,0.003914,0,0,0,0.005863,0.00028232,0.0018436,1.2884,0.0026629,0.0049868,4.3279e-09,0.96,0.54,0
0.048739,-0.0015931,0.0058787,0.0002697,0.0018445,6.3573e-05,0,0,0.062933,-0.024567,0,0.0019835,0,0,0,0.0058794,0.00026898,0.0018445,0.64928,0.0026643,0.005012,4.3774e-09,0.98,0.54,0
0.05,-0.0015995,0.0058848,0.00026447,0.0018448,-1.0107e-05,0,0,0.063025,-0.024653,0,-0.00031533,0,0,0,0.0058848,0.00026445,0.0018448,-0.10303,0.0026647,0.0050204,4.394e-09,1,0.54,0
0,0,0.0053021,0.0022723,0.0022723,-0.00042688,0,0,0.047265,-4.3368e-19,0,-0.013319,0,0,0,0.0053611,0.0022133,0.0022723,-7.8687,0.0032823,0.0031187,1.556e-09,0,0.56,0
0.00094529,-0.00026638,0.0052878,0.0021119,0.0022199,-0.0004267,0,0,0.047859,-0.0016849,0,-0.013313,0,0,0,0.0053441,0.0020556,0.0022199,-7.5204,0.0032065,0.0032095,1.683e-09,0.02,0.56,0
0.0019143,-0.0005038,0.0053397,0.0019828,0.0021967,-0.00040928,0,0,0.04903,-0.0033375,0,-0.012769,0,0,0,0.0053889,0.0019336,0.0021967,-6.8519,0.0031731,0.0033315,1.8591e-09,0.04,0.56,0
0.0029065,-0.00071597,0.0053892,0.0018578,0.0021741,-0.00039975,0,0,0.050156,-0.0049349,0,-0.012472,0,0,0,0.0054339,0.0018131,0.0021741,-6.3782,0.0031404,0.0034545,2.0396e-09,0.06,0.56,0
0.0039206,-0.00090569,0.0054354,0.0017381,0.0021521,-0.00039666,0,0,0.05122,-0.0064573,0,-0.012376,0,0,0,0.0054775,0.0016961,0.0021521,-6.0552,0.0031085,0.0035753,2.2191e-09,0.08,0.56,0
0.0049553,-0.0010751,0.0054772,0.0016252,0.0021307,-0.00039881,0,0,0.052206,-0.0078867,0,-0.012443,0,0,0,0.0055181,0.0015843,0.0021307,-5.8492,0.0030777,0.003691,2.393e-09,0.1,0.56,0
0.0060088,-0.0012256,0.0055137,0.0015199,0.0021101,-0.00040516,0,0,0.053096,-0.0092066,0,-0.012641,0,0,0,0.0055544,0.0014792,0.0021101,-5.7347,0.0030479,0.0037992,2.5567e-09,0.12,0.56,0
0.0070792,-0.001358,0.0055439,0.0014234,0.0020902,-0.00041485,0,0,0.053877,-0.010402,0,-0.012943,0,0,0,0.0055852,0.001382,0.0020902,-5.6925,0.0030191,0.0038977,2.7059e-09,0.14,0.56,0
0.0081639,-0.0014727,0.0055666,0.0013363,0.0020709,-0.00042705,0,0,0.054534,-0.011459,0,-0.013324,0,0,0,0.0056093,0.0012936,0.0020709,-5.7073,0.0029913,0.0039843,2.8363e-09,0.16,0.56,0
0.0092605,-0.0015693,0.005581,0.0012594,0.0020521,-0.00044094,0,0,0.05505,-0.012367,0,-0.013757,0,0,0,0.0056255,0.0012148,0.0020521,-5.7668,0.0029642,0.0040574,2.9441e-09,0.18,0.56,0
0.010366,-0.001647,0.0055858,0.0011929,0.0020336,-0.00045559,0,0,0.055414,-0.013115,0,-0.014214,0,0,0,0.0056325,0.0011461,0.0020336,-5.8592,0.0029374,0.0041151,3.0254e-09,0.2,0.56,0
0.011477,-0.0017042,0.0055798,0.001137,0.002015,-0.00046995,0,0,0.05561,-0.013698,0,-0.014662,0,0,0,0.005629,0.0010878,0.002015,-5.9725,0.0029106,0.0041559,3.0768e-09,0.22,0.56,0
0.01259,-0.0017387,0.0055618,0.0010911,0.0019959,-0.00048269,0,0,0.055629,-0.014114,0,-0.01506,0,0,0,0.0056134,0.0010396,0.0019959,-6.0925,0.002883,0.0041785,3.0956e-09,0.24,0.56,0
0.013702,-0.0017473,0.0055307,0.0010544,0.0019755,-0.00049215,0,0,0.055461,-0.014369,0,-0.015355,0,0,0,0.0055842,0.001001,0.0019755,-6.2007,0.0028536,0.004182,3.0797e-09,0.26,0.56,0
0.014809,-0.0017261,0.0054854,0.0010249,0.0019531,-0.0004963,0,0,0.055105,-0.01448,0,-0.015484,0,0,0,0.00554,0.00097031,0.0019531,-6.2727,0.0028211,0.0041662,3.0287e-09,0.28,0.56,0
0.015906,-0.0016698,0.0054255,0.00099909,0.0019274,-0.00049275,0,0,0.05457,-0.014481,0,-0.015374,0,0,0,0.0054796,0.0009449,0.0019274,-6.2759,0.002784,0.0041321,2.9445e-09,0.3,0.56,0
0.016992,-0.0015723,0.0053511,0.00097171,0.0018968,-0.00047914,0,0,0.053886,-0.014432,0,-0.014949,0,0,0,0.0054029,0.0009199,0.0018968,-6.1713,0.0027399,0.0040832,2.833e-09,0.32,0.56,0
0.018062,-0.001427,0.0052636,0.00093432,0.0018594,-0.00045397,0,0,0.053106,-0.014431,0,-0.014164,0,0,0,0.0053107,0.00088723,0.0018594,-5.9222,0.0026858,0.0040264,2.7052e-09,0.34,0.56,0
0.019116,-0.001227,0.0051651,0.00087577,0.0018123,-0.00041838,0,0,0.052305,-0.014609,0,-0.013053,0,0,0,0.0052055,0.00083534,0.0018123,-5.5192,0.0026177,0.0039729,2.5759e-09,0.36,0.56,0
0.020154,-0.00096782,0.0050554,0.00078277,0.0017515,-0.00037747,0,0,0.051542,-0.015111,0,-0.011777,0,0,0,0.0050885,0.00074968,0.0017515,-5.0101,0.0025299,0.0039348,2.4584e-09,0.38,0.56,0
0.021177,-0.00064839,0.0049327,0.00064804,0.0016742,-0.00034173,0,0,0.050832,-0.016008,0,-0.010662,0,0,0,0.0049598,0.00062095,0.0016742,-4.5315,0.0024183,0.0039198,2.3568e-09,0.4,0.56,0
0.022187,-0.00027372,0.0047827,0.00046732,0.001575,-0.00032053,0,0,0.05004,-0.01728,0,-0.010001,0,0,0,0.0048064,0.00044364,0.001575,-4.2249,0.002275,0.0039214,2.25e-09,0.42,0.56,0
0.023179,0.00014805,0.0045985,0.00026196,0.0014582,-0.00032476,0,0,0.04899,-0.018661,0,-0.010132,0,0,0,0.0046227,0.00023777,0.0014582,-4.2591,0.0021062,0.0039199,2.1128e-09,0.44,0.56,0
0.024147,0.00060262,0.0043236,1.0906e-05,0.0013004,-0.00033499,0,0,0.047163,-0.020116,0,-0.010452,0,0,0,0.0043495,-1.4959e-05,0.0013004,-4.4151,0.0018783,0.0038779,1.8748e-09,0.46,0.56,0
0.025066,0.0010914,0.0040737,-0.00018409,0.0011669,-0.0003649,0,0,0.045347,-0.021075,0,-0.011385,0,0,0,0.0041048,-0.00021514,0.0011669,-4.863,0.0016855,0.0038212,1.6535e-09,0.48,0.56,0
0.025961,0.0015783,0.0037029,-0.00061968,0.00092498,-0.00037434,0,0,0.043336,-0.024097,0,-0.01168,0,0,0,0.0037351,-0.00065186,0.00092498,-4.9131,0.0013361,0.0038489,1.3594e-09,0.5,0.56,0
0.026799,0.0019736,0.0033239,-0.00086829,0.00073669,-0.00048995,0,0,0.040361,-0.025038,0,-0.015286,0,0,0,0.0033804,-0.00092479,0.00073669,-6.5781,0.0010641,0.0037606,1.0459e-09,0.52,0.56,0
0.027575,0.0022256,0.0030433,-0.00070756,0.00070072,-0.00046074,0,0,0.036544,-0.021969,0,-0.014375,0,0,0,0.0030991,-0.00076333,0.00070072,-6.9013,0.0010122,0.0033774,8.001e-10,0.54,0.56,0
0.028261,0.0023636,0.0027486,-0.00064548,0.00063093,-0.00031527,0,0,0.033035,-0.019912,0,-0.0098365,0,0,0,0.0027776,-0.00067451,0.00063093,-5.2622,0.00091134,0.0030191,5.7543e-10,0.56,0.56,0
0.028897,0.0024412,0.0026084,-0.00062946,0.00059367,-0.00011007,0,0,0.031429,-0.019081,0,-0.0034341,0,0,0,0.0026121,-0.00063319,0.00059367,-1.9448,0.00085752,0.0028382,4.7851e-10,0.58,0.56,0
0.029518,0.002473,0.0026036,-0.00065756,0.0005838,0.00010625,0,0,0.031508,-0.019365,0,0.0033151,0,0,0,0.002607,-0.00066102,0.0005838,1.8641,0.00084327,0.0028569,4.7732e-10,0.6,0.56,0
0.030157,0.002458,0.0027359,-0.00073098,0.00060147,0.00030993,0,0,0.033297,-0.020786,0,0.0096699,0,0,0,0.0027634,-0.00075847,0.00060147,5.0686,0.0008688,0.0030762,5.7143e-10,0.62,0.56,0
0.03085,0.0023793,0.0030278,-0.00085441,0.000652,0.00044994,0,0,0.037062,-0.0235,0,0.014038,0,0,0,0.0030792,-0.00090588,0.000652,6.5253,0.00094178,0.0034785,7.9348e-10,0.64,0.56,0
0.031639,0.0021785,0.0033062,-0.0010851,0.00066632,0.00046425,0,0,0.041182,-0.027322,0,0.014485,0,0,0,0.0033547,-0.0011336,0.00066632,5.9694,0.00096246,0.0039123,1.0296e-09,0.66,0.56,0
0.032497,0.001819,0.003681,-0.00089579,0.00083555,0.0003197,0,0,0.044388,-0.027009,0,0.0099746,0,0,0,0.0037032,-0.00091801,0.00083555,3.9765,0.0012069,0.0040406,1.3658e-09,0.68,0.56,0
0.033415,0.0013483,0.0040528,-0.0004789,0.0010722,0.00027972,0,0,0.046498,-0.024197,0,0.0087273,0,0,0,0.00407,-0.0004961,0.0010722,3.5187,0.0015487,0.0040185,1.7034e-09,0.7,0.56,0
0.034357,0.00085949,0.004298,-0.0003026,0.0011986,0.0002264,0,0,0.04835,-0.023419,0,0.0070635,0,0,0,0.0043091,-0.00031371,0.0011986,2.8105,0.0017313,0.0040825,1.9472e-09,0.72,0.56,0
0.035349,0.0003926,0.0045692,-7.2607e-05,0.001349,0.00019473,0,0,0.050236,-0.022177,0,0.0060757,0,0,0,0.0045774,-8.0763e-05,0.001349,2.3981,0.0019485,0.0041331,2.2177e-09,0.74,0.56,0
0.036367,-5.1844e-05,0.0047527,0.00011323,0.0014598,0.00017082,0,0,0.05137,-0.021006,0,0.0053295,0,0,0,0.004759,0.00010695,0.0014598,2.1057,0.0021086,0.0041446,2.3865e-09,0.76,0.56,0
0.037404,-0.00045813,0.004903,0.00027231,0.0015526,0.00017352,0,0,0.052266,-0.019972,0,0.0054138,0,0,0,0.0049095,0.00026582,0.0015526,2.143,0.0022426,0.0041526,2.5223e-09,0.78,0.56,0
0.038457,-0.00081656,0.0050281,0.00038231,0.0016231,0.00019207,0,0,0.053117,-0.019356,0,0.0059927,0,0,0,0.005036,0.00037439,0.0016231,2.3635,0.0023445,0.0041796,2.6522e-09,0.8,0.56,0
0.039529,-0.0011209,0.0051426,0.00044555,0.0016764,0.00021635,0,0,0.054072,-0.019202,0,0.0067501,0,0,0,0.0051526,0.00043561,0.0016764,2.6316,0.0024215,0.0042351,2.8019e-09,0.82,0.56,0
0.04062,-0.0013711,0.0052488,0.00046841,0.0017152,0.00023495,0,0,0.055125,-0.019449,0,0.0073304,0,0,0,0.0052603,0.00045689,0.0017152,2.807,0.0024775,0.0043142,2.972e-09,0.84,0.56,0
0.041733,-0.0015712,0.0053467,0.00046374,0.0017431,0.00024174,0,0,0.056216,-0.019959,0,0.0075424,0,0,0,0.0053587,0.00045181,0.0017431,2.8273,0.0025179,0.0044055,3.1528e-09,0.86,0.56,0
0.042869,-0.0017277,0.0054341,0.0004429,0.0017631,0.00023475,0,0,0.057267,-0.020595,0,0.0073241,0,0,0,0.0054451,0.00043188,0.0017631,2.6869,0.0025467,0.0044979,3.3303e-09,0.88,0.56,0
0.044024,-0.0018473,0.0055089,0.00041479,0.0017771,0.00021486,0,0,0.058216,-0.021252,0,0.0067036,0,0,0,0.005518,0.00040574,0.0017771,2.4109,0.0025669,0.0045831,3.4927e-09,0.9,0.56,0
0.045197,-0.0019364,0.0055702,0.00038558,0.0017867,0.00018418,0,0,0.059022,-0.021858,0,0.0057463,0,0,0,0.0055768,0.00037905,0.0017867,2.0319,0.0025808,0.0046563,3.632e-09,0.92,0.56,0
0.046385,-0.0020003,0.0056177,0.00035945,0.0017931,0.00014511,0,0,0.059663,-0.022365,0,0.0045273,0,0,0,0.0056216,0.00035545,0.0017931,1.5796,0.0025901,0.0047147,3.7434e-09,0.94,0.56,0
0.047584,-0.002043,0.0056513,0.00033912,0.0017971,9.9978e-05,0,0,0.060125,-0.022745,0,0.0031193,0,0,0,0.0056532,0.00033724,0.0017971,1.0778,0.0025958,0.0047571,3.8241e-09,0.96,0.56,0
0.04879,-0.0020675,0.0056713,0.00032631,0.0017993,5.0943e-05,0,0,0.060404,-0.022978,0,0.0015894,0,0,0,0.0056718,0.00032583,0.0017993,0.54602,0.002599,0.0047826,3.873e-09,0.98,0.56,0
0.05,-0.0020755,0.005678,0.00032195,0.0018,-1.2775e-05,0,0,0.060497,-0.023057,0,-0.00039858,0,0,0,0.005678,0.00032192,0.0018,-0.13666,0.0026,0.0047912,3.8894e-09,1,0.56,0
0,0,0.0052217,0.0022379,0.0022379,-0.00047868,0,0,0.046548,3.2526e-19,0,-0.014935,0,0,0,0.0052967,0.002163,0.0022379,-8.8944,0.0032325,0.0030969,1.5225e-09,0,0.58,0
0.00093096,-0.0002987,0.0052087,0.0020898,0.0021895,-0.00047786,0,0,0.047098,-0.001556,0,-0.014909,0,0,0,0.0052802,0.0020182,0.0021895,-8.5184,0.0031627,0.0031798,1.6352e-09,0.02,0.58,0
0.0018839,-0.00056803,0.0052564,0.0019687,0.0021675,-0.00045867,0,0,0.048186,-0.0031014,0,-0.014311,0,0,0,0.0053192,0.0019059,0.0021675,-7.7953,0.0031309,0.0032903,1.7905e-09,0.04,0.58,0
0.0028584,-0.00081117,0.0053019,0.0018502,0.0021456,-0.00044625,0,0,0.049238,-0.0046091,0,-0.013923,0,0,0,0.0053586,0.0017934,0.0021456,-7.2486,0.0030992,0.0034028,1.9508e-09,0.06,0.58,0
0.0038534,-0.0010305,0.0053438,0.0017357,0.0021239,-0.00043919,0,0,0.050232,-0.0060552,0,-0.013703,0,0,0,0.0053965,0.001683,0.0021239,-6.8411,0.0030678,0.0035139,2.1106e-09,0.08,0.58,0
0.0048677,-0.0012277,0.0053812,0.0016268,0.0021024,-0.00043633,0,0,0.051149,-0.0074189,0,-0.013614,0,0,0,0.0054313,0.0015768,0.0021024,-6.5428,0.0030368,0.0036204,2.265e-09,0.1,0.58,0
0.0058994,-0.001404,0.0054129,0.0015248,0.0020813,-0.00043668,0,0,0.051973,-0.0086813,0,-0.013624,0,0,0,0.0054613,0.0014764,0.0020813,-6.33,0.0030064,0.0037196,2.4091e-09,0.12,0.58,0
0.0069466,-0.0015597,0.0054378,0.0014307,0.0020605,-0.00043934,0,0,0.052686,-0.0098262,0,-0.013707,0,0,0,0.0054854,0.0013831,0.0020605,-6.1839,0.0029763,0.0038091,2.5384e-09,0.14,0.58,0
0.0080068,-0.001695,0.0054549,0.0013452,0.00204,-0.00044346,0,0,0.053272,-0.01084,0,-0.013836,0,0,0,0.0055022,0.0012979,0.00204,-6.0892,0.0029467,0.0038868,2.6489e-09,0.16,0.58,0
0.0090775,-0.0018093,0.0054632,0.001269,0.0020197,-0.00044821,0,0,0.053719,-0.01171,0,-0.013984,0,0,0,0.0055105,0.0012216,0.0020197,-6.0321,0.0029173,0.0039508,2.7367e-09,0.18,0.58,0
0.010156,-0.0019016,0.0054615,0.0012023,0.0019991,-0.00045263,0,0,0.054013,-0.01243,0,-0.014122,0,0,0,0.0055091,0.0011548,0.0019991,-5.9997,0.0028877,0.0039995,2.7985e-09,0.2,0.58,0
0.011238,-0.0019702,0.0054489,0.0011451,0.0019782,-0.00045565,0,0,0.054143,-0.012997,0,-0.014216,0,0,0,0.0054966,0.0010974,0.0019782,-5.9776,0.0028574,0.0040317,2.8317e-09,0.22,0.58,0
0.012321,-0.0020128,0.0054245,0.0010965,0.0019563,-0.00045598,0,0,0.054104,-0.013412,0,-0.014226,0,0,0,0.005472,0.001049,0.0019563,-5.9494,0.0028258,0.0040464,2.8345e-09,0.24,0.58,0
0.013402,-0.0020266,0.0053875,0.0010554,0.0019329,-0.00045207,0,0,0.053892,-0.013688,0,-0.014105,0,0,0,0.0054342,0.0010088,0.0019329,-5.8944,0.0027919,0.0040433,2.8064e-09,0.26,0.58,0
0.014477,-0.0020079,0.0053374,0.0010194,0.001907,-0.00044218,0,0,0.053513,-0.013847,0,-0.013796,0,0,0,0.0053822,0.00097463,0.001907,-5.7873,0.0027546,0.0040232,2.7486e-09,0.28,0.58,0
0.015543,-0.0019523,0.0052742,0.00098502,0.0018778,-0.00042448,0,0,0.052985,-0.013927,0,-0.013244,0,0,0,0.0053158,0.00094341,0.0018778,-5.5979,0.0027124,0.0039882,2.665e-09,0.3,0.58,0
0.016596,-0.001855,0.0051986,0.00094696,0.0018437,-0.00039749,0,0,0.052338,-0.013989,0,-0.012402,0,0,0,0.0052355,0.00091012,0.0018437,-5.2954,0.0026631,0.0039424,2.562e-09,0.32,0.58,0
0.017636,-0.0017109,0.0051118,0.00089829,0.001803,-0.00036072,0,0,0.051617,-0.014114,0,-0.011255,0,0,0,0.0051425,0.00086763,0.001803,-4.858,0.0026044,0.0038924,2.4492e-09,0.34,0.58,0
0.018661,-0.0015156,0.0050147,0.00083055,0.0017536,-0.00031552,0,0,0.050874,-0.014399,0,-0.0098444,0,0,0,0.0050384,0.00080689,0.0017536,-4.2883,0.0025329,0.0038465,2.3369e-09,0.36,0.58,0
0.019671,-0.0012665,0.0049076,0.00073586,0.001693,-0.00026578,0,0,0.050147,-0.014932,0,-0.0082922,0,0,0,0.0049244,0.000719,0.001693,-3.6307,0.0024455,0.0038129,2.2329e-09,0.38,0.58,0
0.020667,-0.00096383,0.0047874,0.00060837,0.0016187,-0.00021681,0,0,0.049432,-0.015762,0,-0.0067644,0,0,0,0.0047986,0.00059715,0.0016187,-2.9619,0.0023382,0.0037953,2.1369e-09,0.4,0.58,0
0.021648,-0.00061119,0.0046511,0.00044944,0.0015302,-0.00017427,0,0,0.048686,-0.016859,0,-0.0054371,0,0,0,0.0046583,0.00044222,0.0015302,-2.371,0.0022102,0.003791,2.0409e-09,0.42,0.58,0
0.022614,-0.00021587,0.0044894,0.00025884,0.0014245,-0.00013751,0,0,0.047813,-0.018184,0,-0.0042902,0,0,0,0.0044938,0.00025437,0.0014245,-1.8597,0.0020576,0.0037923,1.9284e-09,0.44,0.58,0
0.023561,0.00021425,0.004321,5.2545e-05,0.0013121,-0.00010703,0,0,0.04694,-0.019649,0,-0.0033393,0,0,0,0.0043237,4.9863e-05,0.0013121,-1.4354,0.0018952,0.0038032,1.812e-09,0.46,0.58,0
0.024492,0.00066288,0.0041337,-0.00021823,0.0011746,-8.0264e-05,0,0,0.046162,-0.021729,0,-0.0025042,0,0,0,0.0041352,-0.00021971,0.0011746,-1.0562,0.0016967,0.0038519,1.6916e-09,0.48,0.58,0
0.025407,0.0010972,0.0039274,-0.00053434,0.0010179,-0.0001024,0,0,0.045388,-0.024215,0,-0.0031949,0,0,0,0.0039297,-0.00053669,0.0010179,-1.3141,0.0014703,0.0039271,1.5483e-09,0.5,0.58,0
0.026308,0.0014668,0.0037169,-0.00075827,0.00088759,-0.00015113,0,0,0.044137,-0.025675,0,-0.0047152,0,0,0,0.003722,-0.00076337,0.00088759,-1.932,0.0012821,0.0039292,1.365e-09,0.52,0.58,0
0.027173,0.0017366,0.0035175,-0.00082214,0.00080862,-0.00018544,0,0,0.042259,-0.02544,0,-0.0057857,0,0,0,0.0035254,-0.00083005,0.00080862,-2.4424,0.001168,0.0038103,1.1737e-09,0.54,0.58,0
0.027998,0.0019088,0.0033568,-0.00080068,0.00076683,-0.00014571,0,0,0.040403,-0.024453,0,-0.004546,0,0,0,0.0033619,-0.00080578,0.00076683,-2.0048,0.0011076,0.0036453,1.0193e-09,0.56,0.58,0
0.028789,0.002001,0.0032549,-0.00080023,0.0007364,-5.3004e-05,0,0,0.039288,-0.023971,0,-0.0016537,0,0,0,0.0032556,-0.00080092,0.0007364,-0.74873,0.0010637,0.0035472,9.2746e-10,0.58,0.58,0
0.029569,0.002027,0.0032526,-0.00082734,0.00072757,5.7268e-05,0,0,0.03939,-0.024257,0,0.0017868,0,0,0,0.0032534,-0.00082814,0.00072757,0.80403,0.0010509,0.0035678,9.279e-10,0.6,0.58,0
0.030364,0.0019855,0.0033508,-0.00088274,0.00074041,0.00014615,0,0,0.040722,-0.025321,0,0.0045599,0,0,0,0.0033558,-0.00088778,0.00074041,1.9748,0.0010695,0.0037081,1.021e-09,0.62,0.58,0
0.031198,0.0018597,0.003509,-0.00096124,0.00076432,0.00017646,0,0,0.042817,-0.026919,0,0.0055055,0,0,0,0.0035159,-0.00096819,0.00076432,2.257,0.001104,0.0039166,1.1772e-09,0.64,0.58,0
0.032077,0.0016278,0.0037058,-0.00095341,0.00082571,0.00012453,0,0,0.044929,-0.027754,0,0.0038854,0,0,0,0.0037091,-0.00095674,0.00082571,1.53,0.0011927,0.004078,1.3763e-09,0.66,0.58,0
0.032995,0.0012836,0.0039128,-0.00077512,0.00094129,5.0766e-05,0,0,0.046355,-0.026776,0,0.0015839,0,0,0,0.0039133,-0.00077567,0.00094129,0.62037,0.0013597,0.004109,1.5817e-09,0.68,0.58,0
0.033931,0.00085962,0.0041148,-0.00048845,0.0010879,1.3635e-06,0,0,0.047219,-0.024591,0,4.254e-05,0,0,0,0.0041148,-0.00048846,0.0010879,0.016971,0.0015714,0.004052,1.7564e-09,0.7,0.58,0
0.034884,0.00040712,0.0042962,-0.0002395,0.001217,3.1209e-06,0,0,0.048035,-0.022721,0,9.7373e-05,0,0,0,0.0042962,-0.0002395,0.001217,0.039424,0.0017579,0.0040109,1.9014e-09,0.72,0.58,0
0.035853,-3.9247e-05,0.0044582,-5.4097e-05,0.0013212,1.1197e-05,0,0,0.048937,-0.021455,0,0.00034935,0,0,0,0.0044583,-5.4124e-05,0.0013212,0.14218,0.0019084,0.0040059,2.0375e-09,0.74,0.58,0
0.036842,-0.00046151,0.0046149,0.00011507,0.001419,2.6896e-05,0,0,0.049856,-0.020341,0,0.00083916,0,0,0,0.0046151,0.00011491,0.001419,0.34245,0.0020497,0.0040104,2.1704e-09,0.76,0.58,0
0.037847,-0.00085047,0.0047481,0.00025128,0.0014998,4.9402e-05,0,0,0.050674,-0.019477,0,0.0015413,0,0,0,0.0047487,0.00025074,0.0014998,0.62934,0.0021664,0.0040216,2.2863e-09,0.78,0.58,0
0.038869,-0.0011977,0.0048669,0.00035309,0.001566,7.8956e-05,0,0,0.051494,-0.018921,0,0.0024634,0,0,0,0.0048683,0.00035171,0.001566,1.0018,0.002262,0.0040484,2.4026e-09,0.8,0.58,0
0.039907,-0.0014987,0.0049748,0.00041799,0.0016178,0.00010946,0,0,0.052368,-0.018718,0,0.003415,0,0,0,0.0049774,0.00041536,0.0016178,1.3752,0.0023369,0.0040954,2.5296e-09,0.82,0.58,0
0.040963,-0.0017524,0.0050749,0.00045089,0.0016577,0.0001349,0,0,0.053308,-0.018827,0,0.004209,0,0,0,0.0050789,0.00044696,0.0016577,1.6697,0.0023945,0.0041608,2.6707e-09,0.84,0.58,0
0.042039,-0.001961,0.0051671,0.00045926,0.0016879,0.00015074,0,0,0.054275,-0.019167,0,0.0047032,0,0,0,0.0051719,0.00045444,0.0016879,1.8321,0.0024381,0.0042376,2.8207e-09,0.86,0.58,0
0.043134,-0.0021286,0.0052499,0.00045147,0.0017104,0.00015503,0,0,0.055217,-0.01964,0,0.004837,0,0,0,0.005255,0.00044647,0.0017104,1.8486,0.0024706,0.0043176,2.9706e-09,0.88,0.58,0
0.044248,-0.00226,0.0053219,0.00043477,0.001727,0.00014785,0,0,0.05608,-0.020159,0,0.004613,0,0,0,0.0053264,0.0004303,0.001727,1.7313,0.0024946,0.0043936,3.111e-09,0.9,0.58,0
0.045378,-0.0023603,0.0053817,0.00041481,0.0017389,0.00013054,0,0,0.056827,-0.020657,0,0.0040728,0,0,0,0.0053851,0.00041138,0.0017389,1.5045,0.0025118,0.0044607,3.2341e-09,0.92,0.58,0
0.046521,-0.0024336,0.0054285,0.00039568,0.0017473,0.00010501,0,0,0.057428,-0.021085,0,0.0032763,0,0,0,0.0054307,0.00039349,0.0017473,1.1948,0.0025238,0.0045152,3.3344e-09,0.94,0.58,0
0.047675,-0.0024834,0.0054621,0.00038023,0.0017527,7.3359e-05,0,0,0.057867,-0.021411,0,0.0022888,0,0,0,0.0054632,0.00037917,0.0017527,0.82686,0.0025317,0.0045553,3.4082e-09,0.96,0.58,0
0.048835,-0.0025123,0.0054823,0.00037028,0.0017558,3.7677e-05,0,0,0.058133,-0.021614,0,0.0011755,0,0,0,0.0054825,0.00037,0.0017558,0.42226,0.0025361,0.0045797,3.4532e-09,0.98,0.58,0
0.05,-0.0025218,0.005489,0.00036685,0.0017568,-1.5162e-05,0,0,0.058223,-0.021682,0,-0.00047307,0,0,0,0.005489,0.00036681,0.0017568,-0.16961,0.0025375,0.004588,3.4684e-09,1,0.58,0
0,0,0.0051431,0.0022042,0.0022042,-0.00052663,0,0,0.045847,-3.7947e-19,0,-0.016431,0,0,0,0.0052346,0.0021127,0.0022042,-9.8583,0.0031838,0.0030772,1.4921e-09,0,0.6,0
0.00091694,-0.00032861,0.0051311,0.0020667,0.0021593,-0.00052515,0,0,0.04636,-0.0014458,0,-0.016385,0,0,0,0.0052186,0.0019792,0.0021593,-9.4592,0.003119,0.0031532,1.5925e-09,0.02,0.6,0
0.0018544,-0.00062786,0.0051753,0.0019523,0.0021383,-0.00050438,0,0,0.047378,-0.002901,0,-0.015737,0,0,0,0.0052524,0.0018752,0.0021383,-8.6897,0.0030887,0.0032536,1.7301e-09,0.04,0.6,0
0.002812,-0.00090033,0.0052174,0.0018391,0.0021169,-0.00048905,0,0,0.048367,-0.0043348,0,-0.015258,0,0,0,0.0052868,0.0017697,0.0021169,-8.0735,0.0030578,0.0033569,1.873e-09,0.06,0.6,0
0.0037891,-0.0011479,0.005256,0.0017287,0.0020954,-0.00047789,0,0,0.049305,-0.0057202,0,-0.01491,0,0,0,0.0053196,0.0016651,0.0020954,-7.5808,0.0030267,0.0034594,2.0159e-09,0.08,0.6,0
0.0047842,-0.0013718,0.0052898,0.0016229,0.0020738,-0.0004698,0,0,0.050169,-0.0070338,0,-0.014658,0,0,0,0.0053491,0.0015637,0.0020738,-7.1861,0.0029955,0.0035578,2.1535e-09,0.1,0.6,0
0.0057959,-0.0015728,0.0053178,0.0015231,0.0020523,-0.0004638,0,0,0.050942,-0.0082551,0,-0.014471,0,0,0,0.0053736,0.0014672,0.0020523,-6.8682,0.0029644,0.0036493,2.2812e-09,0.12,0.6,0
0.0068219,-0.0017511,0.0053388,0.0014303,0.0020307,-0.00045906,0,0,0.051605,-0.0093666,0,-0.014323,0,0,0,0.005392,0.0013771,0.0020307,-6.6098,0.0029333,0.0037312,2.3943e-09,0.14,0.6,0
0.0078601,-0.0019063,0.0053517,0.0013454,0.0020091,-0.00045477,0,0,0.052144,-0.010354,0,-0.014189,0,0,0,0.0054027,0.0012944,0.0020091,-6.3955,0.0029021,0.0038016,2.489e-09,0.16,0.6,0
0.0089077,-0.0020377,0.0053557,0.001269,0.0019874,-0.00045011,0,0,0.052546,-0.011208,0,-0.014043,0,0,0,0.0054047,0.00122,0.0019874,-6.2113,0.0028707,0.0038587,2.5618e-09,0.18,0.6,0
0.0099619,-0.0021442,0.0053498,0.0012011,0.0019653,-0.00044419,0,0,0.052799,-0.011921,0,-0.013859,0,0,0,0.0053968,0.0011541,0.0019653,-6.0432,0.0028387,0.0039009,2.6099e-09,0.2,0.6,0
0.01102,-0.0022241,0.0053333,0.0011416,0.0019425,-0.000436,0,0,0.052897,-0.012493,0,-0.013603,0,0,0,0.0053781,0.0010967,0.0019425,-5.8758,0.0028058,0.0039274,2.6316e-09,0.22,0.6,0
0.012078,-0.0022752,0.0053055,0.0010895,0.0019185,-0.00042439,0,0,0.052837,-0.012932,0,-0.013241,0,0,0,0.0053478,0.0010472,0.0019185,-5.6915,0.0027712,0.0039379,2.6261e-09,0.24,0.6,0
0.013133,-0.0022949,0.0052661,0.0010433,0.0018928,-0.00040805,0,0,0.052623,-0.013252,0,-0.012731,0,0,0,0.0053051,0.0010043,0.0018928,-5.4692,0.0027341,0.0039326,2.5942e-09,0.26,0.6,0
0.014183,-0.0022799,0.005215,0.0010007,0.0018647,-0.00038561,0,0,0.052265,-0.013479,0,-0.012031,0,0,0,0.00525,0.00096566,0.0018647,-5.1851,0.0026935,0.0039131,2.5383e-09,0.28,0.6,0
0.015224,-0.0022268,0.0051528,0.00095795,0.0018332,-0.00035577,0,0,0.051785,-0.013654,0,-0.0111,0,0,0,0.0051827,0.00092799,0.0018332,-4.8136,0.002648,0.0038821,2.4629e-09,0.3,0.6,0
0.016254,-0.0021319,0.0050801,0.00091059,0.0017972,-0.00031769,0,0,0.051213,-0.013831,0,-0.0099118,0,0,0,0.0051042,0.00088652,0.0017972,-4.3322,0.002596,0.0038441,2.3746e-09,0.32,0.6,0
0.017272,-0.0019915,0.0049983,0.00085279,0.0017553,-0.00027134,0,0,0.050591,-0.01408,0,-0.0084658,0,0,0,0.005016,0.00083511,0.0017553,-3.729,0.0025355,0.0038052,2.2815e-09,0.34,0.6,0
0.018278,-0.001803,0.0049085,0.00077832,0.001706,-0.00021801,0,0,0.049958,-0.014472,0,-0.0068018,0,0,0,0.00492,0.00076685,0.001706,-3.0131,0.0024643,0.0037723,2.1915e-09,0.36,0.6,0
0.019271,-0.0015651,0.0048112,0.00068136,0.0016478,-0.00016025,0,0,0.049349,-0.015076,0,-0.0049999,0,0,0,0.0048174,0.00067515,0.0016478,-2.2188,0.0023801,0.0037517,2.1101e-09,0.38,0.6,0
0.020252,-0.0012789,0.0047065,0.00055821,0.0015794,-0.00010154,0,0,0.048782,-0.015931,0,-0.0031681,0,0,0,0.004709,0.00055573,0.0015794,-1.4014,0.0022814,0.0037478,2.0389e-09,0.4,0.6,0
0.021222,-0.00094809,0.0045938,0.00040685,0.0015002,-4.4711e-05,0,0,0.04826,-0.017056,0,-0.001395,0,0,0,0.0045943,0.00040638,0.0015002,-0.61175,0.0021669,0.0037622,1.9756e-09,0.42,0.6,0
0.022182,-0.0005793,0.004477,0.00022877,0.0014117,7.5361e-06,0,0,0.047818,-0.018454,0,0.00023513,0,0,0,0.004477,0.00022876,0.0014117,0.10164,0.0020392,0.0037976,1.9201e-09,0.44,0.6,0
0.023135,-0.00018332,0.0043578,1.6535e-05,0.0013123,5.2146e-05,0,0,0.04751,-0.020214,0,0.001627,0,0,0,0.0043584,1.5909e-05,0.0013123,0.68808,0.0018956,0.0038612,1.8721e-09,0.46,0.6,0
0.024082,0.00022221,0.0042385,-0.00023006,0.0012025,7.5315e-05,0,0,0.047361,-0.022348,0,0.0023498,0,0,0,0.0042398,-0.00023132,0.0012025,0.96532,0.001737,0.0039542,1.8255e-09,0.48,0.6,0
0.025029,0.00060972,0.0041146,-0.00048821,0.0010879,6.6734e-05,0,0,0.047216,-0.024587,0,0.0020821,0,0,0,0.0041155,-0.00048918,0.0010879,0.83048,0.0015714,0.0040532,1.7575e-09,0.5,0.6,0
0.025971,0.00094654,0.0039897,-0.00069494,0.00098843,2.7452e-05,0,0,0.04682,-0.02626,0,0.00085649,0,0,0,0.0039898,-0.0006951,0.00098843,0.33574,0.0014277,0.0041104,1.6567e-09,0.52,0.6,0
0.026902,0.001208,0.0038732,-0.00081051,0.00091882,-1.0933e-05,0,0,0.046089,-0.026978,0,-0.00034111,0,0,0,0.0038733,-0.00081053,0.00091882,-0.13374,0.0013272,0.0041023,1.5411e-09,0.54,0.6,0
0.027815,0.0013855,0.0037761,-0.00086024,0.00087475,-2.4515e-05,0,0,0.045261,-0.027066,0,-0.00076486,0,0,0,0.0037762,-0.00086037,0.00087475,-0.30294,0.0012635,0.0040575,1.4386e-09,0.56,0.6,0
0.028712,0.0014823,0.0037196,-0.00088404,0.00085068,-8.6341e-06,0,0,0.044756,-0.027062,0,-0.00026938,0,0,0,0.0037197,-0.00088406,0.00085068,-0.10746,0.0012288,0.0040271,1.3796e-09,0.58,0.6,0
0.029605,0.0015027,0.0037183,-0.00090938,0.00084267,1.7337e-05,0,0,0.044859,-0.027332,0,0.00054091,0,0,0,0.0037183,-0.00090944,0.00084267,0.21465,0.0012172,0.0040469,1.3812e-09,0.6,0.6,0
0.030507,0.0014452,0.003772,-0.00093637,0.0008507,2.8144e-05,0,0,0.045573,-0.027878,0,0.00087809,0,0,0,0.0037722,-0.00093654,0.0008507,0.34246,0.0012288,0.0041172,1.4438e-09,0.62,0.6,0
0.031428,0.0013026,0.0038666,-0.00093694,0.00087889,3.6496e-06,0,0,0.046608,-0.028327,0,0.00011387,0,0,0,0.0038666,-0.00093695,0.00087889,0.043532,0.0012695,0.004201,1.552e-09,0.64,0.6,0
0.032371,0.0010683,0.0039797,-0.00086852,0.00093335,-5.1958e-05,0,0,0.047523,-0.028109,0,-0.0016211,0,0,0,0.0039802,-0.00086907,0.00093335,-0.61395,0.0013482,0.0042455,1.6785e-09,0.66,0.6,0
0.033329,0.00074797,0.0040999,-0.00070169,0.0010195,-0.00011367,0,0,0.048055,-0.02685,0,-0.0035466,0,0,0,0.0041026,-0.00070438,0.0010195,-1.3554,0.0014726,0.0042181,1.7987e-09,0.68,0.6,0
0.034293,0.00036461,0.0042178,-0.00047433,0.001123,-0.00014705,0,0,0.048278,-0.024919,0,-0.004588,0,0,0,0.0042224,-0.00047893,0.001123,-1.7933,0.0016222,0.0041397,1.8907e-09,0.7,0.6,0
0.03526,-4.9364e-05,0.0043296,-0.00025238,0.0012232,-0.00014842,0,0,0.048461,-0.023019,0,-0.0046307,0,0,0,0.0043345,-0.00025718,0.0012232,-1.8533,0.0017668,0.0040592,1.9589e-09,0.72,0.6,0
0.036232,-0.00046561,0.0044409,-6.2352e-05,0.0013136,-0.00012714,0,0,0.048787,-0.021464,0,-0.0039666,0,0,0,0.0044445,-6.5938e-05,0.0013136,-1.6158,0.0018974,0.0040031,2.0243e-09,0.74,0.6,0
0.037211,-0.0008655,0.0045503,9.359e-05,0.0013932,-9.712e-05,0,0,0.049251,-0.020273,0,-0.0030302,0,0,0,0.0045524,9.1474e-05,0.0013932,-1.2478,0.0020123,0.0039733,2.0947e-09,0.76,0.6,0
0.038202,-0.0012372,0.0046568,0.00022145,0.0014635,-6.1859e-05,0,0,0.049816,-0.019376,0,-0.00193,0,0,0,0.0046577,0.00022059,0.0014635,-0.7989,0.0021139,0.0039645,2.172e-09,0.78,0.6,0
0.039204,-0.0015734,0.0047568,0.00031859,0.0015226,-2.441e-05,0,0,0.050454,-0.018783,0,-0.0007616,0,0,0,0.004757,0.00031846,0.0015226,-0.31511,0.0021994,0.0039756,2.2572e-09,0.8,0.6,0
0.04022,-0.0018696,0.0048512,0.00038595,0.0015712,1.1977e-05,0,0,0.051169,-0.018489,0,0.00037367,0,0,0,0.0048513,0.00038592,0.0015712,0.15368,0.0022695,0.0040064,2.3545e-09,0.82,0.6,0
0.041251,-0.0021241,0.00494,0.00042643,0.0016099,4.3371e-05,0,0,0.051949,-0.018463,0,0.0013532,0,0,0,0.0049404,0.00042602,0.0016099,0.55049,0.0023255,0.0040542,2.4642e-09,0.84,0.6,0
0.042298,-0.0023379,0.0050226,0.00044535,0.0016404,6.6739e-05,0,0,0.052762,-0.018642,0,0.0020822,0,0,0,0.0050235,0.00044438,0.0016404,0.83517,0.0023694,0.0041137,2.5828e-09,0.86,0.6,0
0.043361,-0.0025133,0.0050976,0.00044875,0.0016639,8.0425e-05,0,0,0.053565,-0.018956,0,0.0025093,0,0,0,0.005099,0.00044735,0.0016639,0.99082,0.0024034,0.0041783,2.7035e-09,0.88,0.6,0
0.04444,-0.0026537,0.0051635,0.00044241,0.0016818,8.4204e-05,0,0,0.054315,-0.019334,0,0.0026272,0,0,0,0.005165,0.00044091,0.0016818,1.0215,0.0024292,0.004242,2.819e-09,0.9,0.6,0
0.045534,-0.0027627,0.0052189,0.00043121,0.001695,7.8903e-05,0,0,0.054972,-0.019715,0,0.0024618,0,0,0,0.0052202,0.00042991,0.001695,0.94392,0.0024484,0.0042996,2.9223e-09,0.92,0.6,0
0.046639,-0.0028437,0.0052628,0.00041895,0.0017045,6.5988e-05,0,0,0.055509,-0.020055,0,0.0020588,0,0,0,0.0052637,0.00041805,0.0017045,0.78036,0.0024621,0.0043476,3.0079e-09,0.94,0.6,0
0.047754,-0.0028995,0.0052945,0.00040837,0.0017109,4.7249e-05,0,0,0.055905,-0.020319,0,0.0014742,0,0,0,0.0052949,0.00040791,0.0017109,0.55399,0.0024712,0.0043833,3.0717e-09,0.96,0.6,0
0.048875,-0.0029321,0.0053136,0.00040132,0.0017145,2.4603e-05,0,0,0.056147,-0.020486,0,0.0007676,0,0,0,0.0053138,0.0004012,0.0017145,0.28695,0.0024765,0.0044053,3.111e-09,0.98,0.6,0
0.05,-0.0029428,0.0053201,0.00039885,0.0017157,-1.7189e-05,0,0,0.056228,-0.020542,0,-0.00053629,0,0,0,0.0053201,0.00039879,0.0017157,-0.20012,0.0024782,0.0044128,3.1244e-09,1,0.6,0
0,0,0.0050674,0.0021717,0.0021717,-0.00057136,0,0,0.045172,5.9631e-19,0,-0.017826,0,0,0,0.005176,0.0020631,0.0021717,-10.768,0.0031369,0.0030601,1.4654e-09,0,0.62,0
0.00090344,-0.00035653,0.0050563,0.0020427,0.0021297,-0.00056922,0,0,0.045655,-0.0013567,0,-0.01776,0,0,0,0.0051602,0.0019388,0.0021297,-10.348,0.0030762,0.0031303,1.5557e-09,0.02,0.62,0
0.0018262,-0.00068407,0.0050977,0.0019337,0.0021094,-0.00054707,0,0,0.046617,-0.0027407,0,-0.017069,0,0,0,0.0051896,0.0018418,0.0021094,-9.5382,0.003047,0.0032223,1.6785e-09,0.04,0.62,0
0.0027681,-0.00098456,0.0051371,0.0018245,0.0020885,-0.00052893,0,0,0.047559,-0.0041183,0,-0.016503,0,0,0,0.0052195,0.0017421,0.0020885,-8.8552,0.0030167,0.0033178,1.807e-09,0.06,0.62,0
0.0037285,-0.0012593,0.0051731,0.001717,0.002067,-0.00051362,0,0,0.048455,-0.0054601,0,-0.016025,0,0,0,0.0052478,0.0016423,0.002067,-8.2768,0.0029857,0.003413,1.9357e-09,0.08,0.62,0
0.0047063,-0.0015091,0.0052044,0.0016132,0.0020453,-0.00050016,0,0,0.049282,-0.0067404,0,-0.015605,0,0,0,0.0052727,0.0015448,0.0020453,-7.7825,0.0029543,0.0035046,2.0596e-09,0.1,0.62,0
0.0056998,-0.0017342,0.0052297,0.0015144,0.0020232,-0.00048766,0,0,0.050021,-0.0079372,0,-0.015215,0,0,0,0.0052926,0.0014515,0.0020232,-7.3547,0.0029225,0.0035896,2.1737e-09,0.12,0.62,0
0.0067071,-0.0019344,0.005248,0.001422,0.002001,-0.00047537,0,0,0.050653,-0.0090322,0,-0.014832,0,0,0,0.0053061,0.0013638,0.002001,-6.9776,0.0028903,0.0036655,2.2739e-09,0.14,0.62,0
0.0077259,-0.0021092,0.0052582,0.0013368,0.0019785,-0.00046256,0,0,0.051164,-0.010011,0,-0.014432,0,0,0,0.005312,0.0012829,0.0019785,-6.6371,0.0028578,0.0037303,2.3565e-09,0.16,0.62,0
0.0087537,-0.0022576,0.0052596,0.0012592,0.0019556,-0.00044852,0,0,0.051542,-0.010865,0,-0.013994,0,0,0,0.0053092,0.0012095,0.0019556,-6.3193,0.0028248,0.0037823,2.4185e-09,0.18,0.62,0
0.0097876,-0.0023784,0.0052514,0.0011894,0.0019322,-0.00043247,0,0,0.051779,-0.011588,0,-0.013493,0,0,0,0.0052969,0.0011438,0.0019322,-6.0103,0.002791,0.0038204,2.4577e-09,0.2,0.62,0
0.010825,-0.0024699,0.0052331,0.0011269,0.001908,-0.00041357,0,0,0.051871,-0.012185,0,-0.012903,0,0,0,0.0052743,0.0010857,0.001908,-5.6946,0.002756,0.003844,2.4732e-09,0.22,0.62,0
0.011862,-0.0025301,0.0052043,0.0010708,0.0018825,-0.00039088,0,0,0.05182,-0.012663,0,-0.012195,0,0,0,0.005241,0.0010342,0.0018825,-5.3548,0.0027192,0.0038533,2.4651e-09,0.24,0.62,0
0.012898,-0.0025567,0.0051652,0.0010194,0.0018554,-0.00036338,0,0,0.051633,-0.013041,0,-0.011338,0,0,0,0.0051968,0.00098779,0.0018554,-4.9715,0.00268,0.0038493,2.4351e-09,0.26,0.62,0
0.013928,-0.0025471,0.005116,0.00097027,0.0018259,-0.00033009,0,0,0.051326,-0.013347,0,-0.010299,0,0,0,0.0051421,0.00094415,0.0018259,-4.524,0.0026374,0.0038339,2.3863e-09,0.28,0.62,0
0.014951,-0.0024985,0.0050574,0.00092014,0.0017933,-0.00029018,0,0,0.050921,-0.013621,0,-0.0090535,0,0,0,0.0050777,0.00089989,0.0017933,-3.9925,0.0025903,0.0038105,2.3235e-09,0.3,0.62,0
0.015965,-0.0024083,0.0049906,0.00086492,0.0017567,-0.00024325,0,0,0.05045,-0.013911,0,-0.0075894,0,0,0,0.0050049,0.00085063,0.0017567,-3.3626,0.0025374,0.0037835,2.2531e-09,0.32,0.62,0
0.016969,-0.0022741,0.0049169,0.00079987,0.001715,-0.0001896,0,0,0.049949,-0.014277,0,-0.0059155,0,0,0,0.0049256,0.00079115,0.001715,-2.6311,0.0024773,0.0037587,2.1818e-09,0.34,0.62,0
0.017963,-0.0020945,0.0048378,0.00072006,0.0016674,-0.00013039,0,0,0.049459,-0.014778,0,-0.0040681,0,0,0,0.004842,0.00071593,0.0016674,-1.8118,0.0024084,0.0037422,2.1163e-09,0.36,0.62,0
0.018947,-0.0018695,0.0047548,0.00062105,0.0016128,-6.769e-05,0,0,0.049016,-0.015471,0,-0.0021119,0,0,0,0.0047559,0.00061994,0.0016128,-0.93787,0.0023295,0.0037397,2.0616e-09,0.38,0.62,0
0.019923,-0.0016011,0.0046692,0.0004994,0.0015506,-4.1967e-06,0,0,0.04865,-0.016398,0,-0.00013094,0,0,0,0.0046692,0.00049939,0.0015506,-0.057665,0.0022397,0.0037562,2.0203e-09,0.4,0.62,0
0.020893,-0.0012934,0.0045832,0.00035319,0.0014809,5.6862e-05,0,0,0.048395,-0.017592,0,0.0017741,0,0,0,0.0045839,0.00035243,0.0014809,0.77001,0.0021391,0.0037953,1.9934e-09,0.42,0.62,0
0.021859,-0.00095404,0.0044991,0.0001804,0.0014039,0.00011153,0,0,0.048286,-0.019086,0,0.0034796,0,0,0,0.004502,0.00017752,0.0014039,1.4783,0.0020278,0.0038603,1.9805e-09,0.44,0.62,0
0.022824,-0.00059431,0.0044193,-1.896e-05,0.0013201,0.00015301,0,0,0.048347,-0.020889,0,0.0047741,0,0,0,0.0044246,-2.4229e-05,0.0013201,1.9722,0.0019068,0.003952,1.9778e-09,0.46,0.62,0
0.023793,-0.00023106,0.0043432,-0.00023901,0.0012312,0.00017294,0,0,0.048546,-0.022936,0,0.0053958,0,0,0,0.0043497,-0.00024553,0.0012312,2.1584,0.0017785,0.0040633,1.9746e-09,0.48,0.62,0
0.024766,0.00011375,0.0042692,-0.00045817,0.0011433,0.00016429,0,0,0.048764,-0.024983,0,0.0051259,0,0,0,0.0042749,-0.00046387,0.0011433,1.988,0.0016515,0.0041741,1.9553e-09,0.5,0.62,0
0.025743,0.0004164,0.0041974,-0.00064397,0.001066,0.00013129,0,0,0.048849,-0.026676,0,0.0040962,0,0,0,0.004201,-0.00064753,0.001066,1.5522,0.0015398,0.0042586,1.9122e-09,0.52,0.62,0
0.02672,0.00065751,0.0041309,-0.00077483,0.0010068,8.7574e-05,0,0,0.048735,-0.027794,0,0.0027323,0,0,0,0.0041324,-0.00077639,0.0010068,1.0224,0.0014543,0.0043038,1.8535e-09,0.54,0.62,0
0.027693,0.00082614,0.0040772,-0.00085336,0.00096714,4.8652e-05,0,0,0.048516,-0.0284,0,0.0015179,0,0,0,0.0040776,-0.00085384,0.00096714,0.5653,0.001397,0.0043192,1.7982e-09,0.56,0.62,0
0.028661,0.00091849,0.0040458,-0.00089742,0.00094452,1.9112e-05,0,0,0.04838,-0.028734,0,0.00059628,0,0,0,0.0040459,-0.00089749,0.00094452,0.22151,0.0013643,0.0043272,1.7653e-09,0.58,0.62,0
0.029628,0.00093371,0.0040444,-0.00092041,0.0009372,-7.3156e-06,0,0,0.048473,-0.028979,0,-0.00022825,0,0,0,0.0040444,-0.00092042,0.0009372,-0.084425,0.0013537,0.0043448,1.7672e-09,0.6,0.62,0
0.0306,0.00087041,0.0040729,-0.00092197,0.00094526,-4.2238e-05,0,0,0.04879,-0.029129,0,-0.0013178,0,0,0,0.0040732,-0.00092233,0.00094526,-0.48446,0.0013654,0.0043719,1.8045e-09,0.62,0.62,0
0.03158,0.00072663,0.0041231,-0.00088766,0.00097065,-9.203e-05,0,0,0.049179,-0.02899,0,-0.0028713,0,0,0,0.0041248,-0.00088935,0.00097065,-1.0518,0.001402,0.0043904,1.8662e-09,0.64,0.62,0
0.032567,0.00050347,0.0041853,-0.00079781,0.0010162,-0.00015188,0,0,0.049437,-0.028299,0,-0.0047386,0,0,0,0.0041899,-0.00080244,0.0010162,-1.7441,0.0014679,0.0043763,1.9353e-09,0.66,0.62,0
0.033557,0.0002096,0.0042513,-0.00064786,0.001081,-0.00020523,0,0,0.049457,-0.026971,0,-0.0064031,0,0,0,0.0042599,-0.00065644,0.001081,-2.3946,0.0015615,0.0043183,1.9938e-09,0.68,0.62,0
0.034545,-0.00013714,0.004318,-0.00045876,0.0011578,-0.0002367,0,0,0.049299,-0.025218,0,-0.0073849,0,0,0,0.0043296,-0.00047046,0.0011578,-2.8299,0.0016723,0.0042281,2.0315e-09,0.7,0.62,0
0.035529,-0.00051363,0.0043855,-0.00026422,0.0012364,-0.00024038,0,0,0.049126,-0.023409,0,-0.0074997,0,0,0,0.0043979,-0.00027662,0.0012364,-2.9515,0.0017859,0.0041313,2.0526e-09,0.72,0.62,0
0.03651,-0.00089782,0.0044561,-8.8012e-05,0.0013104,-0.00022233,0,0,0.049072,-0.021815,0,-0.0069367,0,0,0,0.0044669,-9.8864e-05,0.0013104,-2.7945,0.0018928,0.0040494,2.0703e-09,0.74,0.62,0
0.037492,-0.0012724,0.004531,6.2059e-05,0.0013779,-0.0001907,0,0,0.049188,-0.020527,0,-0.0059499,0,0,0,0.0045391,5.3936e-05,0.0013779,-2.4391,0.0019903,0.0039914,2.0956e-09,0.76,0.62,0
0.038478,-0.0016255,0.0046085,0.00018448,0.0014379,-0.0001524,0,0,0.049461,-0.019553,0,-0.0047548,0,0,0,0.0046137,0.00017923,0.0014379,-1.9706,0.0020769,0.0039582,2.1331e-09,0.78,0.62,0
0.03947,-0.001949,0.0046867,0.00028011,0.00149,-0.00011165,0,0,0.049868,-0.018875,0,-0.0034835,0,0,0,0.0046895,0.00027728,0.00149,-1.4505,0.0021523,0.0039481,2.1844e-09,0.8,0.62,0
0.040473,-0.0022383,0.0047637,0.00034991,0.0015341,-7.2004e-05,0,0,0.050382,-0.018473,0,-0.0022465,0,0,0,0.0047649,0.00034874,0.0015341,-0.93437,0.0022159,0.0039588,2.2499e-09,0.82,0.62,0
0.041486,-0.0024909,0.0048382,0.00039656,0.0015704,-3.6479e-05,0,0,0.050977,-0.018312,0,-0.0011382,0,0,0,0.0048385,0.00039626,0.0015704,-0.47053,0.0022684,0.003987,2.3285e-09,0.84,0.62,0
0.042512,-0.0027067,0.0049087,0.00042395,0.0015998,-7.4574e-06,0,0,0.051619,-0.018343,0,-0.00023267,0,0,0,0.0049087,0.00042393,0.0015998,-0.095273,0.0023108,0.0040277,2.4166e-09,0.86,0.62,0
0.04355,-0.0028868,0.0049737,0.00043667,0.0016231,1.3664e-05,0,0,0.052269,-0.018509,0,0.00042632,0,0,0,0.0049738,0.00043663,0.0016231,0.17255,0.0023445,0.0040755,2.509e-09,0.88,0.62,0
0.044602,-0.0030334,0.0050316,0.00043934,0.0016413,2.6502e-05,0,0,0.052888,-0.01875,0,0.00082686,0,0,0,0.0050317,0.00043919,0.0016413,0.33064,0.0023707,0.004125,2.5996e-09,0.9,0.62,0
0.045666,-0.0031489,0.0050808,0.00043604,0.001655,3.1532e-05,0,0,0.053441,-0.019016,0,0.00098378,0,0,0,0.005081,0.00043582,0.001655,0.38894,0.0023906,0.0041714,2.6822e-09,0.92,0.62,0
0.04674,-0.0032357,0.0051201,0.00043012,0.0016651,2.9838e-05,0,0,0.053899,-0.019265,0,0.00093095,0,0,0,0.0051203,0.00042993,0.0016651,0.3645,0.0024051,0.0042109,2.7518e-09,0.94,0.62,0
0.047822,-0.0032961,0.0051488,0.00042415,0.0016719,2.2886e-05,0,0,0.05424,-0.019465,0,0.00071406,0,0,0,0.0051489,0.00042404,0.0016719,0.27753,0.0024149,0.004241,2.8043e-09,0.96,0.62,0
0.04891,-0.0033317,0.0051662,0.00041988,0.0016758,1.2349e-05,0,0,0.05445,-0.019593,0,0.0003853,0,0,0,0.0051662,0.00041985,0.0016758,0.14907,0.0024206,0.0042596,2.8369e-09,0.98,0.62,0
0.05,-0.0033434,0.0051721,0.00041835,0.0016771,-1.881e-05,0,0,0.054521,-0.019637,0,-0.00058686,0,0,0,0.0051721,0.00041827,0.0016771,-0.2267,0.0024225,0.0042661,2.8482e-09,1,0.62,0
0,0,0.0049955,0.0021409,0.0021409,-0.00061359,0,0,0.044531,-1.0842e-19,0,-0.019144,0,0,0,0.0051218,0.0020146,0.0021409,-11.632,0.0030924,0.003046,1.4431e-09,0,0.64,0
0.00089062,-0.00038288,0.0049851,0.0020183,0.002101,-0.00061081,0,0,0.044992,-0.0012904,0,-0.019057,0,0,0,0.005106,0.0018975,0.002101,-11.19,0.0030348,0.0031117,1.5251e-09,0.02,0.64,0
0.0017997,-0.00073749,0.0050245,0.0019131,0.0020813,-0.0005875,0,0,0.045914,-0.0026236,0,-0.01833,0,0,0,0.0051317,0.0018059,0.0020813,-10.344,0.0030063,0.0031971,1.6364e-09,0.04,0.64,0
0.0027272,-0.0010651,0.0050621,0.0018064,0.0020605,-0.00056665,0,0,0.046824,-0.0039641,0,-0.01768,0,0,0,0.0051579,0.0017106,0.0020605,-9.5967,0.0029764,0.0032863,1.7533e-09,0.06,0.64,0
0.0036726,-0.0013663,0.0050963,0.0017006,0.0020391,-0.00054724,0,0,0.047693,-0.0052803,0,-0.017074,0,0,0,0.0051823,0.0016146,0.0020391,-8.9323,0.0029453,0.0033756,1.8706e-09,0.08,0.64,0
0.0046349,-0.0016415,0.0051259,0.0015975,0.002017,-0.00052838,0,0,0.048499,-0.0065447,0,-0.016486,0,0,0,0.0052033,0.0015201,0.002017,-8.3365,0.0029135,0.0034617,1.9832e-09,0.1,0.64,0
0.0056126,-0.0018903,0.0051496,0.0014988,0.0019945,-0.00050934,0,0,0.049219,-0.0077335,0,-0.015891,0,0,0,0.0052193,0.001429,0.0019945,-7.7954,0.0028809,0.0035416,2.0867e-09,0.12,0.64,0
0.0066037,-0.0021124,0.0051662,0.0014057,0.0019716,-0.00048949,0,0,0.049837,-0.0088278,0,-0.015272,0,0,0,0.0052289,0.001343,0.0019716,-7.2959,0.0028478,0.0036128,2.1769e-09,0.14,0.64,0
0.007606,-0.0023067,0.005175,0.0013192,0.0019483,-0.00046823,0,0,0.050337,-0.0098132,0,-0.014609,0,0,0,0.0052311,0.0012632,0.0019483,-6.8257,0.0028142,0.0036736,2.2506e-09,0.16,0.64,0
0.0086172,-0.0024723,0.0051752,0.0012398,0.0019245,-0.00044503,0,0,0.05071,-0.010681,0,-0.013885,0,0,0,0.0052249,0.0011901,0.0019245,-6.3721,0.0027798,0.0037223,2.3051e-09,0.18,0.64,0
0.0096344,-0.0026077,0.0051662,0.0011675,0.0019001,-0.0004193,0,0,0.050951,-0.011429,0,-0.013082,0,0,0,0.0052097,0.001124,0.0019001,-5.9221,0.0027446,0.0037582,2.3392e-09,0.2,0.64,0
0.010655,-0.0027115,0.0051478,0.0011017,0.0018748,-0.0003904,0,0,0.051057,-0.012061,0,-0.012181,0,0,0,0.0051851,0.0010644,0.0018748,-5.4614,0.0027081,0.0037812,2.3523e-09,0.22,0.64,0
0.011677,-0.0027817,0.0051199,0.0010415,0.0018484,-0.00035767,0,0,0.051035,-0.012588,0,-0.011159,0,0,0,0.005151,0.0010103,0.0018484,-4.9741,0.0026699,0.0037917,2.3454e-09,0.24,0.64,0
0.012697,-0.0028165,0.0050828,0.00098508,0.0018204,-0.0003204,0,0,0.050895,-0.013031,0,-0.0099965,0,0,0,0.0051077,0.00096018,0.0018204,-4.4439,0.0026294,0.0037914,2.3207e-09,0.26,0.64,0
0.013713,-0.0028138,0.0050373,0.00093016,0.0017902,-0.00027798,0,0,0.050654,-0.013417,0,-0.0086729,0,0,0,0.005056,0.00091143,0.0017902,-3.8544,0.0025859,0.0037825,2.2818e-09,0.28,0.64,0
0.014723,-0.0027717,0.0049842,0.00087373,0.0017574,-0.00022999,0,0,0.050338,-0.013785,0,-0.0071756,0,0,0,0.004997,0.0008609,0.0017574,-3.1925,0.0025384,0.0037687,2.2335e-09,0.3,0.64,0
0.015726,-0.0026883,0.0049248,0.0008122,0.0017211,-0.0001764,0,0,0.049978,-0.014179,0,-0.0055036,0,0,0,0.0049324,0.00080464,0.0017211,-2.4515,0.002486,0.0037544,2.1816e-09,0.32,0.64,0
0.016722,-0.0025626,0.0048608,0.00074161,0.0016807,-0.00011774,0,0,0.049609,-0.01465,0,-0.0036734,0,0,0,0.0048642,0.00073825,0.0016807,-1.6359,0.0024277,0.0037447,2.132e-09,0.34,0.64,0
0.01771,-0.0023941,0.0047939,0.00065797,0.0016356,-5.523e-05,0,0,0.04927,-0.015251,0,-0.0017232,0,0,0,0.0047947,0.00065724,0.0016356,-0.76493,0.0023625,0.0037454,2.0904e-09,0.36,0.64,0
0.018693,-0.0021839,0.004726,0.00055765,0.0015851,9.1661e-06,0,0,0.048998,-0.016028,0,0.00028598,0,0,0,0.004726,0.00055763,0.0015851,0.12599,0.0022896,0.0037614,2.0612e-09,0.38,0.64,0
0.01967,-0.0019348,0.0046591,0.00043781,0.0015291,7.2746e-05,0,0,0.048829,-0.017024,0,0.0022697,0,0,0,0.0046604,0.00043656,0.0015291,0.98698,0.0022087,0.0037973,2.0472e-09,0.4,0.64,0
0.020646,-0.0016518,0.0045955,0.00029652,0.0014676,0.000132,0,0,0.048795,-0.018269,0,0.0041184,0,0,0,0.0045995,0.00029247,0.0014676,1.7571,0.0021199,0.0038562,2.0493e-09,0.42,0.64,0
0.021622,-0.0013427,0.004537,0.00013337,0.0014011,0.00018221,0,0,0.048919,-0.019777,0,0.0056849,0,0,0,0.0045445,0.00012584,0.0014011,2.3654,0.0020238,0.003939,2.0656e-09,0.44,0.64,0
0.022603,-0.0010189,0.0044846,-4.9341e-05,0.0013306,0.00021749,0,0,0.049203,-0.021527,0,0.0067856,0,0,0,0.004495,-5.975e-05,0.0013306,2.74,0.0019219,0.0040431,2.0908e-09,0.46,0.64,0
0.02359,-0.00069523,0.0044379,-0.00024337,0.0012584,0.0002316,0,0,0.049601,-0.023427,0,0.0072259,0,0,0,0.0044493,-0.0002548,0.0012584,2.8254,0.0018176,0.0041594,2.115e-09,0.48,0.64,0
0.024587,-0.00038961,0.0043953,-0.00043312,0.0011887,0.00022121,0,0,0.050024,-0.0253,0,0.0069019,0,0,0,0.0044054,-0.00044323,0.0011887,2.6177,0.001717,0.0042732,2.1273e-09,0.5,0.64,0
0.025591,-0.0001205,0.0043558,-0.00059909,0.001127,0.00018851,0,0,0.050369,-0.026927,0,0.0058816,0,0,0,0.004363,-0.00060625,0.001127,2.1757,0.0016279,0.0043686,2.1222e-09,0.52,0.64,0
0.026601,9.6216e-05,0.0043203,-0.00072707,0.001078,0.0001414,0,0,0.050581,-0.028159,0,0.0044116,0,0,0,0.0043243,-0.00073103,0.001078,1.6034,0.0015571,0.0044366,2.1033e-09,0.54,0.64,0
0.027614,0.00024946,0.004292,-0.00081412,0.0010434,8.8566e-05,0,0,0.050679,-0.028977,0,0.0027633,0,0,0,0.0042935,-0.00081566,0.0010434,0.9934,0.0015071,0.004479,2.081e-09,0.56,0.64,0
0.028629,0.00033294,0.0042753,-0.00086523,0.001023,3.4956e-05,0,0,0.050736,-0.029457,0,0.0010906,0,0,0,0.0042756,-0.00086547,0.001023,0.38959,0.0014777,0.0045042,2.0668e-09,0.58,0.64,0
0.029644,0.00034356,0.0042735,-0.00088565,0.0010164,-1.9912e-05,0,0,0.050812,-0.029671,0,-0.00062126,0,0,0,0.0042736,-0.00088573,0.0010164,-0.22113,0.0014681,0.0045192,2.0683e-09,0.6,0.64,0
0.030661,0.00028006,0.0042863,-0.00087493,0.0010234,-7.8707e-05,0,0,0.050901,-0.029614,0,-0.0024557,0,0,0,0.0042875,-0.00087613,0.0010234,-0.87347,0.0014783,0.0045236,2.0859e-09,0.62,0.64,0
0.03168,0.00014299,0.0043101,-0.00082675,0.001045,-0.00014177,0,0,0.050936,-0.029199,0,-0.0044234,0,0,0,0.004314,-0.00083066,0.001045,-1.5797,0.0015095,0.0045096,2.1135e-09,0.64,0.64,0
0.032698,-6.3686e-05,0.00434,-0.00073494,0.0010815,-0.00020373,0,0,0.050833,-0.028337,0,-0.0063565,0,0,0,0.0043482,-0.0007431,0.0010815,-2.2952,0.0015622,0.0044678,2.1406e-09,0.66,0.64,0
0.033713,-0.00033086,0.0043726,-0.00060141,0.0011314,-0.00025502,0,0,0.050564,-0.027031,0,-0.0079567,0,0,0,0.0043857,-0.00061445,0.0011314,-2.9274,0.0016342,0.0043954,2.1571e-09,0.68,0.64,0
0.034721,-0.0006441,0.0044069,-0.00044014,0.00119,-0.00028654,0,0,0.050183,-0.025431,0,-0.0089401,0,0,0,0.0044238,-0.00045702,0.00119,-3.3715,0.0017189,0.0043007,2.1584e-09,0.7,0.64,0
0.035721,-0.00098574,0.004444,-0.00027132,0.0012518,-0.00029496,0,0,0.049799,-0.023761,0,-0.0092028,0,0,0,0.0044624,-0.0002897,0.0012518,-3.5655,0.0018082,0.0041992,2.148e-09,0.72,0.64,0
0.036713,-0.0013382,0.004486,-0.00011193,0.0013122,-0.00028281,0,0,0.049511,-0.022217,0,-0.0088236,0,0,0,0.0045033,-0.00012926,0.0013122,-3.5065,0.0018954,0.0041062,2.1352e-09,0.74,0.64,0
0.037701,-0.0016866,0.0045339,2.835e-05,0.0013687,-0.00025595,0,0,0.049377,-0.020909,0,-0.0079856,0,0,0,0.0045484,1.3856e-05,0.0013687,-3.2409,0.001977,0.0040316,2.1291e-09,0.76,0.64,0
0.038688,-0.0020193,0.0045873,0.00014588,0.0014199,-0.00022022,0,0,0.04941,-0.019875,0,-0.006871,0,0,0,0.0045981,0.00013499,0.0014199,-2.8317,0.002051,0.0039794,2.1355e-09,0.78,0.64,0
0.039677,-0.0023284,0.0046445,0.00023998,0.0014653,-0.00018048,0,0,0.049594,-0.019116,0,-0.0056309,0,0,0,0.0046518,0.00023259,0.0014653,-2.3425,0.0021166,0.0039499,2.1568e-09,0.8,0.64,0
0.040672,-0.0026085,0.0047037,0.00031164,0.0015046,-0.00014042,0,0,0.049906,-0.01861,0,-0.0043811,0,0,0,0.0047082,0.00030716,0.0015046,-1.8294,0.0021733,0.0039412,2.1933e-09,0.82,0.64,0
0.041674,-0.0028566,0.004763,0.00036296,0.0015378,-0.00010298,0,0,0.050313,-0.018327,0,-0.0032129,0,0,0,0.0047654,0.00036055,0.0015378,-1.34,0.0022213,0.0039501,2.2433e-09,0.84,0.64,0
0.042684,-0.0030716,0.0048206,0.00039696,0.0015653,-7.0295e-05,0,0,0.050783,-0.018225,0,-0.0021932,0,0,0,0.0048217,0.00039584,0.0015653,-0.91017,0.0022609,0.0039724,2.3037e-09,0.86,0.64,0
0.043705,-0.0032536,0.0048746,0.00041721,0.0015876,-4.3708e-05,0,0,0.051278,-0.018257,0,-0.0013637,0,0,0,0.0048751,0.00041678,0.0015876,-0.56175,0.0022931,0.0040034,2.3701e-09,0.88,0.64,0
0.044735,-0.0034037,0.0049234,0.00042738,0.0016052,-2.3735e-05,0,0,0.051764,-0.018375,0,-0.00074052,0,0,0,0.0049236,0.00042725,0.0016052,-0.30245,0.0023187,0.0040383,2.4372e-09,0.9,0.64,0
0.045775,-0.0035234,0.0049655,0.00043085,0.0016189,-1.0178e-05,0,0,0.052207,-0.018534,0,-0.00031755,0,0,0,0.0049655,0.00043083,0.0016189,-0.1286,0.0023384,0.0040727,2.5001e-09,0.92,0.64,0
0.046824,-0.0036143,0.0049994,0.00043054,0.001629,-2.2836e-06,0,0,0.052579,-0.018696,0,-7.1248e-05,0,0,0,0.0049994,0.00043053,0.001629,-0.028637,0.002353,0.0041031,2.5539e-09,0.94,0.64,0
0.047879,-0.0036781,0.0050244,0.0004287,0.0016359,1.0927e-06,0,0,0.05286,-0.018833,0,3.4092e-05,0,0,0,0.0050244,0.0004287,0.0016359,0.013623,0.002363,0.0041267,2.5952e-09,0.96,0.64,0
0.048938,-0.0037158,0.0050396,0.00042695,0.00164,1.3432e-06,0,0,0.053034,-0.018923,0,4.1908e-05,0,0,0,0.0050396,0.00042695,0.00164,0.016685,0.0023688,0.0041416,2.621e-09,0.98,0.64,0
0.05,-0.0037283,0.0050447,0.00042627,0.0016413,-2.0016e-05,0,0,0.053093,-0.018954,0,-0.00062449,0,0,0,0.0050448,0.00042618,0.0016413,-0.24831,0.0023708,0.0041468,2.63e-09,1,0.64,0
0,0,0.0049283,0.0021121,0.0021121,-0.00065408,0,0,0.043932,-2.7105e-19,0,-0.020407,0,0,0,0.0050728,0.0019676,0.0021121,-12.458,0.0030508,0.0030355,1.4255e-09,0,0.66,0
0.00087864,-0.00040814,0.0049185,0.0019937,0.0020736,-0.00065066,0,0,0.044379,-0.0012476,0,-0.020301,0,0,0,0.0050567,0.0018554,0.0020736,-11.993,0.0029952,0.0030979,1.5014e-09,0.02,0.66,0
0.0017752,-0.00078901,0.0049565,0.0018906,0.0020541,-0.00062641,0,0,0.045278,-0.0025517,0,-0.019544,0,0,0,0.0050796,0.0017675,0.0020541,-11.113,0.0029671,0.0031785,1.6041e-09,0.04,0.66,0
0.0026897,-0.0011431,0.004993,0.001785,0.0020334,-0.00060301,0,0,0.04617,-0.0038752,0,-0.018814,0,0,0,0.0051027,0.0016754,0.0020334,-10.302,0.0029372,0.003263,1.7121e-09,0.06,0.66,0
0.003622,-0.0014705,0.0050264,0.0016794,0.0020117,-0.00057957,0,0,0.047029,-0.0051846,0,-0.018083,0,0,0,0.0051239,0.0015819,0.0020117,-9.551,0.0029058,0.0033479,1.8205e-09,0.08,0.66,0
0.0045709,-0.0017709,0.0050551,0.0015758,0.0019893,-0.00055536,0,0,0.047827,-0.0064502,0,-0.017327,0,0,0,0.0051416,0.0014893,0.0019893,-8.8525,0.0028734,0.0034298,1.9245e-09,0.1,0.66,0
0.0055351,-0.0020435,0.005078,0.001476,0.0019662,-0.00052981,0,0,0.048544,-0.0076471,0,-0.01653,0,0,0,0.0051543,0.0013997,0.0019662,-8.1964,0.0028401,0.0035059,2.0197e-09,0.12,0.66,0
0.0065127,-0.0022875,0.005094,0.0013814,0.0019426,-0.00050247,0,0,0.049162,-0.008755,0,-0.015677,0,0,0,0.0051608,0.0013146,0.0019426,-7.573,0.002806,0.0035738,2.1024e-09,0.14,0.66,0
0.0075015,-0.0025017,0.0051023,0.001293,0.0019186,-0.00047295,0,0,0.049666,-0.0097596,0,-0.014756,0,0,0,0.0051601,0.0012351,0.0019186,-6.9726,0.0027713,0.0036318,2.1696e-09,0.16,0.66,0
0.0084993,-0.0026849,0.0051023,0.0012112,0.001894,-0.00044093,0,0,0.050049,-0.010653,0,-0.013757,0,0,0,0.0051516,0.0011618,0.001894,-6.3848,0.0027358,0.0036788,2.2194e-09,0.18,0.66,0
0.0095035,-0.0028356,0.0050937,0.001136,0.0018689,-0.00040606,0,0,0.050306,-0.011433,0,-0.012669,0,0,0,0.0051349,0.0010948,0.0018689,-5.7981,0.0026995,0.0037141,2.2508e-09,0.2,0.66,0
0.010512,-0.0029523,0.0050763,0.0010669,0.001843,-0.00036797,0,0,0.05044,-0.012107,0,-0.011481,0,0,0,0.0051098,0.0010334,0.001843,-5.2006,0.002662,0.0037379,2.264e-09,0.22,0.66,0
0.011521,-0.0030336,0.0050504,0.0010027,0.0018159,-0.00032628,0,0,0.050458,-0.012686,0,-0.01018,0,0,0,0.0050766,0.0009766,0.0018159,-4.5791,0.002623,0.0037514,2.2606e-09,0.24,0.66,0
0.01253,-0.0030779,0.0050166,0.00094189,0.0017876,-0.00028061,0,0,0.050374,-0.013192,0,-0.0087551,0,0,0,0.0050359,0.00092266,0.0017876,-3.9211,0.002582,0.0037562,2.243e-09,0.26,0.66,0
0.013536,-0.0030838,0.0049757,0.00088213,0.0017574,-0.00023069,0,0,0.050207,-0.013654,0,-0.0071976,0,0,0,0.0049887,0.00086917,0.0017574,-3.2153,0.0025384,0.0037551,2.215e-09,0.28,0.66,0
0.014538,-0.0030499,0.0049289,0.00082071,0.0017249,-0.00017645,0,0,0.049983,-0.014105,0,-0.0055054,0,0,0,0.0049365,0.00081314,0.0017249,-2.4549,0.0024915,0.0037515,2.1812e-09,0.3,0.66,0
0.015535,-0.0029754,0.0048776,0.0007545,0.0016896,-0.00011817,0,0,0.049733,-0.014588,0,-0.003687,0,0,0,0.004881,0.00075112,0.0016896,-1.6403,0.0024406,0.0037498,2.1468e-09,0.32,0.66,0
0.016527,-0.0028601,0.0048236,0.00068017,0.0016511,-5.6601e-05,0,0,0.04949,-0.015147,0,-0.0017659,0,0,0,0.0048244,0.00067939,0.0016511,-0.78248,0.002385,0.0037546,2.1169e-09,0.34,0.66,0
0.017515,-0.0027045,0.0047687,0.00059442,0.0016089,6.9227e-06,0,0,0.049292,-0.015826,0,0.00021599,0,0,0,0.0047687,0.0005944,0.0016089,0.095021,0.002324,0.0037708,2.0964e-09,0.36,0.66,0
0.018499,-0.0025106,0.0047148,0.00049433,0.0015627,7.0388e-05,0,0,0.049172,-0.016667,0,0.0021961,0,0,0,0.004716,0.00049316,0.0015627,0.95521,0.0022573,0.0038026,2.0888e-09,0.38,0.66,0
0.019482,-0.002282,0.0046641,0.00037769,0.0015125,0.00013106,0,0,0.049164,-0.017703,0,0.0040891,0,0,0,0.004668,0.00037369,0.0015125,1.7497,0.0021848,0.0038533,2.0963e-09,0.4,0.66,0
0.020466,-0.0020242,0.0046182,0.00024342,0.0014585,0.00018539,0,0,0.049292,-0.018955,0,0.0057842,0,0,0,0.0046261,0.00023557,0.0014585,2.4222,0.0021067,0.0039246,2.1187e-09,0.42,0.66,0
0.021454,-0.0017451,0.0045786,9.2135e-05,0.0014012,0.00022904,0,0,0.049567,-0.020422,0,0.0071461,0,0,0,0.0045903,8.0472e-05,0.0014012,2.9149,0.002024,0.0040158,2.1537e-09,0.44,0.66,0
0.022448,-0.0014554,0.0045456,-7.2626e-05,0.0013419,0.00025717,0,0,0.049978,-0.022067,0,0.0080236,0,0,0,0.0045599,-8.6902e-05,0.0013419,3.1774,0.0019383,0.0041225,2.1955e-09,0.46,0.66,0
0.023453,-0.0011681,0.0045185,-0.00024337,0.0012825,0.00026553,0,0,0.050481,-0.023804,0,0.0082846,0,0,0,0.0045333,-0.00025813,0.0012825,3.1818,0.0018526,0.0042367,2.2363e-09,0.48,0.66,0
0.024468,-0.00089824,0.0044958,-0.0004086,0.0012262,0.00025205,0,0,0.051007,-0.025502,0,0.0078641,0,0,0,0.0045087,-0.00042152,0.0012262,2.9343,0.0017711,0.0043473,2.2681e-09,0.5,0.66,0
0.025493,-0.00066069,0.0044761,-0.00055537,0.0011762,0.00021821,0,0,0.051479,-0.027013,0,0.006808,0,0,0,0.0044856,-0.00056481,0.0011762,2.4786,0.001699,0.0044435,2.2866e-09,0.52,0.66,0
0.026527,-0.00046884,0.0044591,-0.00067344,0.0011357,0.00016859,0,0,0.051845,-0.028222,0,0.00526,0,0,0,0.0044646,-0.00067897,0.0011357,1.8793,0.0016404,0.0045183,2.2925e-09,0.54,0.66,0
0.027567,-0.00033293,0.0044455,-0.00075797,0.0011063,0.00010896,0,0,0.052092,-0.029082,0,0.0033994,0,0,0,0.0044477,-0.00076025,0.0011063,1.199,0.0015979,0.0045702,2.291e-09,0.56,0.66,0
0.02861,-0.00025979,0.0044369,-0.00080871,0.0010884,4.376e-05,0,0,0.052235,-0.029596,0,0.0013653,0,0,0,0.0044373,-0.00080908,0.0010884,0.47793,0.0015722,0.004601,2.2884e-09,0.58,0.66,0
0.029656,-0.00025314,0.0044345,-0.00082664,0.0010823,-2.4574e-05,0,0,0.052293,-0.02978,0,-0.00076671,0,0,0,0.0044346,-0.00082675,0.0010823,-0.26761,0.0015634,0.0046132,2.2889e-09,0.6,0.66,0
0.030702,-0.00031416,0.004438,-0.00081131,0.001088,-9.4574e-05,0,0,0.05226,-0.029629,0,-0.0029507,0,0,0,0.0044397,-0.00081302,0.001088,-1.0318,0.0015716,0.0046064,2.2931e-09,0.62,0.66,0
0.031746,-0.00044135,0.0044459,-0.00076089,0.0011055,-0.00016362,0,0,0.05211,-0.029116,0,-0.005105,0,0,0,0.004451,-0.00076603,0.0011055,-1.7981,0.0015968,0.0045778,2.2975e-09,0.64,0.66,0
0.032787,-0.00063,0.0044563,-0.00067481,0.0011344,-0.00022681,0,0,0.05182,-0.028224,0,-0.0070766,0,0,0,0.0044663,-0.00068482,0.0011344,-2.5261,0.0016386,0.0045246,2.2967e-09,0.66,0.66,0
0.033819,-0.00087165,0.004468,-0.00055733,0.0011732,-0.00027771,0,0,0.051399,-0.026996,0,-0.0086645,0,0,0,0.0044833,-0.00057263,0.0011732,-3.1535,0.0016946,0.0044478,2.2858e-09,0.68,0.66,0
0.034842,-0.0011544,0.0044814,-0.0004186,0.0012188,-0.00031084,0,0,0.050896,-0.025544,0,-0.0096981,0,0,0,0.004501,-0.00043824,0.0012188,-3.6153,0.0017606,0.004354,2.2633e-09,0.7,0.66,0
0.035855,-0.0014641,0.004498,-0.00027205,0.0012678,-0.00032389,0,0,0.050392,-0.024022,0,-0.010105,0,0,0,0.0045199,-0.00029394,0.0012678,-3.8668,0.0018313,0.0042537,2.2324e-09,0.72,0.66,0
0.036858,-0.0017865,0.0045197,-0.00013011,0.0013169,-0.00031831,0,0,0.049964,-0.022573,0,-0.0099314,0,0,0,0.0045414,-0.0001518,0.0013169,-3.8981,0.0019021,0.0041581,2.1998e-09,0.74,0.66,0
0.037854,-0.0021088,0.0045475,-1.3669e-06,0.0013638,-0.00029796,0,0,0.049665,-0.021297,0,-0.0092964,0,0,0,0.0045669,-2.0801e-05,0.0013638,-3.7318,0.00197,0.0040758,2.1728e-09,0.76,0.66,0
0.038845,-0.0024205,0.0045814,0.00010954,0.0014073,-0.00026754,0,0,0.049517,-0.020245,0,-0.0083471,0,0,0,0.0045974,9.3593e-05,0.0014073,-3.4116,0.0020328,0.0040117,2.1568e-09,0.78,0.66,0
0.039834,-0.0027137,0.0046207,0.00020097,0.0014465,-0.0002314,0,0,0.049517,-0.01943,0,-0.0072198,0,0,0,0.0046328,0.00018889,0.0014465,-2.9889,0.0020894,0.0039675,2.1546e-09,0.8,0.66,0
0.040826,-0.0029827,0.0046636,0.00027312,0.001481,-0.00019321,0,0,0.049649,-0.018843,0,-0.0060282,0,0,0,0.0046721,0.00026463,0.001481,-2.5149,0.0021393,0.0039426,2.167e-09,0.82,0.66,0
0.04182,-0.003224,0.0047085,0.00032745,0.0015108,-0.00015582,0,0,0.049884,-0.01846,0,-0.0048615,0,0,0,0.004714,0.00032192,0.0015108,-2.0344,0.0021822,0.0039347,2.1927e-09,0.84,0.66,0
0.042821,-0.0034357,0.0047533,0.00036623,0.0015359,-0.00012133,0,0,0.050193,-0.018246,0,-0.0037855,0,0,0,0.0047567,0.00036288,0.0015359,-1.583,0.0022185,0.0039405,2.2292e-09,0.86,0.66,0
0.043828,-0.0036171,0.0047964,0.00039222,0.0015566,-9.1114e-05,0,0,0.050542,-0.018164,0,-0.0028427,0,0,0,0.0047983,0.00039034,0.0015566,-1.1846,0.0022484,0.003956,2.2727e-09,0.88,0.66,0
0.044843,-0.0037684,0.004836,0.00040834,0.0015733,-6.5834e-05,0,0,0.050898,-0.018174,0,-0.002054,0,0,0,0.004837,0.00040736,0.0015733,-0.85166,0.0022726,0.003977,2.3191e-09,0.9,0.66,0
0.045864,-0.0038902,0.0048706,0.00041736,0.0015864,-4.5537e-05,0,0,0.051234,-0.018237,0,-0.0014207,0,0,0,0.0048711,0.00041689,0.0015864,-0.5858,0.0022914,0.0039998,2.3639e-09,0.92,0.66,0
0.046892,-0.0039836,0.0048988,0.00042173,0.0015962,-2.9763e-05,0,0,0.051521,-0.018321,0,-0.0009286,0,0,0,0.004899,0.00042153,0.0015962,-0.38087,0.0023056,0.004021,2.4034e-09,0.94,0.66,0
0.047925,-0.0040494,0.0049197,0.00042342,0.0016029,-1.7674e-05,0,0,0.051741,-0.0184,0,-0.00055142,0,0,0,0.0049198,0.00042335,0.0016029,-0.22521,0.0023153,0.004038,2.434e-09,0.96,0.66,0
0.048961,-0.0040886,0.0049325,0.00042385,0.0016069,-8.1716e-06,0,0,0.051879,-0.018456,0,-0.00025495,0,0,0,0.0049325,0.00042384,0.0016069,-0.10384,0.0023211,0.0040489,2.4534e-09,0.98,0.66,0
0.05,-0.0041016,0.0049368,0.0004239,0.0016082,-2.0825e-05,0,0,0.051926,-0.018475,0,-0.00064975,0,0,0,0.0049369,0.00042381,0.0016082,-0.26439,0.002323,0.0040529,2.4603e-09,1,0.66,0
0,0,0.0048664,0.0020856,0.0020856,-0.00069357,0,0,0.04338,5.9631e-19,0,-0.021639,0,0,0,0.0050298,0.0019222,0.0020856,-13.256,0.0030125,0.0030292,1.4136e-09,0,0.68,0
0.00086761,-0.00043279,0.0048569,0.001969,0.0020478,-0.00068956,0,0,0.043822,-0.0012288,0,-0.021514,0,0,0,0.0050131,0.0018128,0.0020478,-12.764,0.0029579,0.0030895,1.4851e-09,0.02,0.68,0
0.0017529,-0.00083956,0.0048945,0.0018663,0.0020283,-0.00066459,0,0,0.044714,-0.002526,0,-0.020735,0,0,0,0.0050339,0.0017269,0.0020283,-11.849,0.0029297,0.0031671,1.5819e-09,0.04,0.68,0
0.0026561,-0.0012201,0.0049307,0.0017603,0.0020073,-0.00063878,0,0,0.045605,-0.0038533,0,-0.01993,0,0,0,0.0050546,0.0016364,0.0020073,-10.974,0.0028994,0.0032486,1.6837e-09,0.06,0.68,0
0.0035771,-0.0015737,0.0049638,0.0016535,0.0019852,-0.0006114,0,0,0.046467,-0.005175,0,-0.019076,0,0,0,0.0050732,0.0015441,0.0019852,-10.137,0.0028675,0.0033304,1.7856e-09,0.08,0.68,0
0.0045148,-0.0018995,0.0049925,0.0015481,0.0019622,-0.00058189,0,0,0.047273,-0.0064592,0,-0.018155,0,0,0,0.0050881,0.0014525,0.0019622,-9.3346,0.0028343,0.0034095,1.8831e-09,0.1,0.68,0
0.005468,-0.0021962,0.0050153,0.0014462,0.0019385,-0.00054989,0,0,0.047999,-0.0076791,0,-0.017157,0,0,0,0.0050981,0.0013634,0.0019385,-8.563,0.0028,0.003483,1.9722e-09,0.12,0.68,0
0.0064348,-0.0024626,0.0050314,0.0013492,0.0019142,-0.00051516,0,0,0.048629,-0.0088133,0,-0.016073,0,0,0,0.0051021,0.0012785,0.0019142,-7.8162,0.002765,0.0035487,2.0493e-09,0.14,0.68,0
0.0074131,-0.0026971,0.00504,0.0012582,0.0018895,-0.0004776,0,0,0.049148,-0.0098471,0,-0.014901,0,0,0,0.0050994,0.0011989,0.0018895,-7.0877,0.0027292,0.0036052,2.112e-09,0.16,0.68,0
0.0084007,-0.0028984,0.0050406,0.0011737,0.0018643,-0.00043713,0,0,0.04955,-0.010773,0,-0.013638,0,0,0,0.0050893,0.0011249,0.0018643,-6.3699,0.0026928,0.0036513,2.1587e-09,0.18,0.68,0
0.0093951,-0.0030651,0.0050329,0.0010956,0.0018386,-0.00039369,0,0,0.049832,-0.01159,0,-0.012283,0,0,0,0.0050719,0.0010566,0.0018386,-5.6544,0.0026557,0.0036871,2.1891e-09,0.2,0.68,0
0.010394,-0.0031957,0.0050173,0.0010233,0.0018122,-0.00034722,0,0,0.05,-0.012306,0,-0.010833,0,0,0,0.0050473,0.00099335,0.0018122,-4.9317,0.0026176,0.0037129,2.2038e-09,0.22,0.68,0
0.011395,-0.0032891,0.0049941,0.00095575,0.0017849,-0.00029761,0,0,0.050063,-0.012936,0,-0.0092855,0,0,0,0.0050159,0.00093393,0.0017849,-4.1923,0.0025783,0.00373,2.2048e-09,0.24,0.68,0
0.012396,-0.0033442,0.004964,0.00089128,0.0017566,-0.00024481,0,0,0.050036,-0.013499,0,-0.0076382,0,0,0,0.0049787,0.00087661,0.0017566,-3.4276,0.0025373,0.0037406,2.1947e-09,0.26,0.68,0
0.013397,-0.00336,0.0049281,0.0008278,0.0017268,-0.00018886,0,0,0.049941,-0.014024,0,-0.0058924,0,0,0,0.0049368,0.00081912,0.0017268,-2.6316,0.0024942,0.0037473,2.1773e-09,0.28,0.68,0
0.014394,-0.0033359,0.0048877,0.00076285,0.0016952,-0.00012997,0,0,0.049804,-0.014544,0,-0.0040551,0,0,0,0.0048918,0.00075875,0.0016952,-1.803,0.0024486,0.0037535,2.1568e-09,0.3,0.68,0
0.015389,-0.0032719,0.0048443,0.00069367,0.0016614,-6.8675e-05,0,0,0.049654,-0.015097,0,-0.0021427,0,0,0,0.0048455,0.00069253,0.0016614,-0.94764,0.0023998,0.0037632,2.1377e-09,0.32,0.68,0
0.01638,-0.0031685,0.0047996,0.00061743,0.0016251,-5.9016e-06,0,0,0.049522,-0.01572,0,-0.00018413,0,0,0,0.0047996,0.00061742,0.0016251,-0.080851,0.0023474,0.0037805,2.1245e-09,0.34,0.68,0
0.01737,-0.0030272,0.0047555,0.00053143,0.0015861,5.6905e-05,0,0,0.049443,-0.016452,0,0.0017755,0,0,0,0.0047563,0.00053066,0.0015861,0.77169,0.002291,0.0038092,2.1211e-09,0.36,0.68,0
0.018358,-0.0028506,0.0047137,0.00043339,0.0015441,0.00011772,0,0,0.049446,-0.017327,0,0.003673,0,0,0,0.004717,0.00043016,0.0015441,1.5743,0.0022304,0.0038526,2.1301e-09,0.38,0.68,0
0.019347,-0.0026429,0.0046761,0.00032178,0.0014993,0.00017391,0,0,0.049557,-0.01837,0,0.005426,0,0,0,0.004683,0.00031485,0.0014993,2.2835,0.0021657,0.0039128,2.1527e-09,0.4,0.68,0
0.02034,-0.00241,0.0046439,0.00019621,0.001452,0.00022221,0,0,0.049793,-0.019591,0,0.0069328,0,0,0,0.004655,0.00018514,0.001452,2.853,0.0020974,0.0039902,2.1884e-09,0.42,0.68,0
0.021339,-0.0021596,0.004618,5.8007e-05,0.0014028,0.0002589,0,0,0.050158,-0.020979,0,0.0080777,0,0,0,0.0046327,4.3354e-05,0.0014028,3.2392,0.0020263,0.004083,2.2342e-09,0.44,0.68,0
0.022347,-0.0019016,0.0045985,-8.9183e-05,0.0013528,0.00028026,0,0,0.050633,-0.022495,0,0.0087441,0,0,0,0.0046152,-0.00010588,0.0013528,3.4093,0.001954,0.0041868,2.2852e-09,0.46,0.68,0
0.023364,-0.0016474,0.0045843,-0.00023901,0.0013036,0.00028329,0,0,0.051179,-0.024064,0,0.0088385,0,0,0,0.0046009,-0.00025559,0.0013036,3.3498,0.001883,0.0042947,2.3349e-09,0.48,0.68,0
0.024394,-0.0014097,0.0045741,-0.00038285,0.0012574,0.00026668,0,0,0.051741,-0.025587,0,0.0083204,0,0,0,0.0045884,-0.00039716,0.0012574,3.0707,0.0018162,0.0043982,2.3775e-09,0.5,0.68,0
0.025434,-0.001201,0.0045663,-0.00051142,0.0012165,0.00023143,0,0,0.052257,-0.026955,0,0.0072206,0,0,0,0.0045768,-0.00052195,0.0012165,2.6042,0.0017571,0.0044895,2.409e-09,0.52,0.68,0
0.026484,-0.0010327,0.0045599,-0.00061684,0.0011829,0.00018062,0,0,0.052681,-0.028076,0,0.0056353,0,0,0,0.0045662,-0.00062313,0.0011829,1.9958,0.0017086,0.0045627,2.4289e-09,0.54,0.68,0
0.027541,-0.00091381,0.0045545,-0.00069409,0.0011581,0.00011841,0,0,0.052983,-0.028894,0,0.0036943,0,0,0,0.0045572,-0.00069676,0.0011581,1.2917,0.0016728,0.0046151,2.4392e-09,0.56,0.68,0
0.028603,-0.00085089,0.0045502,-0.0007409,0.0011428,4.8893e-05,0,0,0.053156,-0.029385,0,0.0015255,0,0,0,0.0045506,-0.00074135,0.0011428,0.52939,0.0016507,0.0046459,2.4429e-09,0.58,0.68,0
0.029668,-0.00084765,0.0045472,-0.00075649,0.0011372,-2.443e-05,0,0,0.053196,-0.029542,0,-0.00076222,0,0,0,0.0045473,-0.00075661,0.0011372,-0.26391,0.0016426,0.0046555,2.4422e-09,0.6,0.68,0
0.030731,-0.00090512,0.0045452,-0.00074053,0.0011414,-9.8329e-05,0,0,0.0531,-0.029358,0,-0.0030679,0,0,0,0.0045471,-0.00074236,0.0011414,-1.0654,0.0016487,0.0046435,2.4376e-09,0.62,0.68,0
0.031792,-0.0010216,0.0045438,-0.0006931,0.0011552,-0.00016912,0,0,0.052862,-0.028834,0,-0.0052766,0,0,0,0.0045493,-0.00069855,0.0011552,-1.8478,0.0016687,0.0046095,2.4275e-09,0.64,0.68,0
0.032846,-0.0011927,0.0045425,-0.00061589,0.001178,-0.00023233,0,0,0.052486,-0.027984,0,-0.0072487,0,0,0,0.0045529,-0.00062634,0.001178,-2.5737,0.0017015,0.0045536,2.4095e-09,0.66,0.68,0
0.033891,-0.0014107,0.0045414,-0.00051359,0.0012083,-0.00028325,0,0,0.051995,-0.026862,0,-0.0088376,0,0,0,0.0045572,-0.00052941,0.0012083,-3.1972,0.0017454,0.0044782,2.3817e-09,0.68,0.68,0
0.034925,-0.0016659,0.0045414,-0.00039405,0.0012442,-0.00031817,0,0,0.051437,-0.025557,0,-0.0099268,0,0,0,0.0045619,-0.00041448,0.0012442,-3.6733,0.0017972,0.0043887,2.3444e-09,0.7,0.68,0
0.035949,-0.0019466,0.0045443,-0.00026694,0.0012832,-0.00033545,0,0,0.050873,-0.024182,0,-0.010466,0,0,0,0.0045676,-0.00029022,0.0012832,-3.9692,0.0018535,0.0042931,2.3008e-09,0.72,0.68,0
0.03696,-0.0022411,0.0045517,-0.00014156,0.001323,-0.0003359,0,0,0.050367,-0.022848,0,-0.01048,0,0,0,0.0045756,-0.00016548,0.001323,-4.0731,0.0019111,0.0041996,2.2559e-09,0.74,0.68,0
0.037963,-0.0025385,0.0045648,-2.511e-05,0.0013619,-0.00032218,0,0,0.049965,-0.021637,0,-0.010052,0,0,0,0.0045873,-4.7614e-05,0.0013619,-3.9957,0.0019672,0.0041153,2.2154e-09,0.76,0.68,0
0.038959,-0.0028291,0.0045838,7.7835e-05,0.0013985,-0.00029784,0,0,0.049691,-0.020602,0,-0.0092926,0,0,0,0.0046034,5.8233e-05,0.0013985,-3.7654,0.00202,0.0040451,2.1841e-09,0.78,0.68,0
0.039951,-0.0031056,0.0046084,0.00016504,0.001432,-0.00026656,0,0,0.049551,-0.019765,0,-0.0083167,0,0,0,0.0046243,0.00014911,0.001432,-3.4209,0.0020685,0.0039915,2.1648e-09,0.8,0.68,0
0.040941,-0.0033622,0.0046374,0.00023606,0.001462,-0.00023163,0,0,0.049536,-0.019125,0,-0.0072269,0,0,0,0.0046496,0.0002239,0.001462,-3.0043,0.0021118,0.0039547,2.1586e-09,0.82,0.68,0
0.041932,-0.003595,0.0046694,0.00029165,0.0014883,-0.00019575,0,0,0.049624,-0.018668,0,-0.0061074,0,0,0,0.0046781,0.00028292,0.0014883,-2.5552,0.0021498,0.0039335,2.1648e-09,0.84,0.68,0
0.042926,-0.0038015,0.0047026,0.00033341,0.0015108,-0.00016097,0,0,0.049792,-0.018367,0,-0.0050224,0,0,0,0.0047085,0.00032749,0.0015108,-2.1071,0.0021823,0.0039255,2.1815e-09,0.86,0.68,0
0.043924,-0.0039802,0.0047354,0.00036342,0.0015296,-0.00012871,0,0,0.05001,-0.018193,0,-0.0040159,0,0,0,0.0047392,0.00035963,0.0015296,-1.6849,0.0022095,0.0039275,2.2058e-09,0.88,0.68,0
0.044926,-0.0041306,0.0047662,0.00038395,0.001545,-9.977e-05,0,0,0.05025,-0.018113,0,-0.0031128,0,0,0,0.0047684,0.00038168,0.001545,-1.3036,0.0022317,0.0039362,2.2344e-09,0.9,0.68,0
0.045934,-0.0042528,0.0047935,0.00039725,0.0015572,-7.4403e-05,0,0,0.050485,-0.018096,0,-0.0023214,0,0,0,0.0047947,0.00039599,0.0015572,-0.96932,0.0022493,0.0039483,2.2638e-09,0.92,0.68,0
0.046946,-0.0043472,0.004816,0.00040533,0.0015664,-5.2412e-05,0,0,0.050694,-0.018113,0,-0.0016352,0,0,0,0.0048166,0.0004047,0.0015664,-0.68071,0.0022626,0.003961,2.2905e-09,0.94,0.68,0
0.047962,-0.0044141,0.0048328,0.00040986,0.0015728,-3.3247e-05,0,0,0.050857,-0.018142,0,-0.0010373,0,0,0,0.0048331,0.00040961,0.0015728,-0.43065,0.0022718,0.0039718,2.3118e-09,0.96,0.68,0
0.04898,-0.004454,0.0048432,0.00041208,0.0015766,-1.6099e-05,0,0,0.05096,-0.018166,0,-0.0005023,0,0,0,0.0048433,0.00041202,0.0015766,-0.20816,0.0022773,0.0039789,2.3254e-09,0.98,0.68,0
0.05,-0.0044673,0.0048468,0.00041273,0.0015778,-2.1277e-05,0,0,0.050995,-0.018176,0,-0.00066383,0,0,0,0.0048468,0.00041263,0.0015778,-0.27493,0.0022791,0.0039816,2.3303e-09,1,0.68,0
0,0,0.0048104,0.0020616,0.0020616,-0.00073285,0,0,0.042881,7.0473e-19,0,-0.022865,0,0,0,0.0049936,0.0018784,0.0020616,-14.034,0.0029779,0.0030277,1.4079e-09,0,0.7,0
0.00085762,-0.0004573,0.004801,0.0019446,0.0020237,-0.00072828,0,0,0.043326,-0.0012339,0,-0.022722,0,0,0,0.0049759,0.0017696,0.0020237,-13.509,0.0029231,0.0030872,1.4767e-09,0.02,0.7,0
0.001733,-0.00089005,0.0048389,0.0018406,0.0020038,-0.00070277,0,0,0.044227,-0.0025471,0,-0.021927,0,0,0,0.0049954,0.001684,0.0020038,-12.558,0.0028944,0.0031637,1.5704e-09,0.04,0.7,0
0.0026267,-0.0012973,0.0048755,0.0017324,0.0019824,-0.00067469,0,0,0.045133,-0.0038996,0,-0.02105,0,0,0,0.0050142,0.0015937,0.0019824,-11.617,0.0028634,0.0032437,1.6683e-09,0.06,0.7,0
0.0035384,-0.0016775,0.0049091,0.0016228,0.0019596,-0.00064344,0,0,0.046013,-0.0052532,0,-0.020075,0,0,0,0.0050306,0.0015014,0.0019596,-10.693,0.0028305,0.0033239,1.7659e-09,0.08,0.7,0
0.0044672,-0.0020293,0.0049383,0.0015145,0.0019358,-0.00060866,0,0,0.046838,-0.0065731,0,-0.01899,0,0,0,0.0050433,0.0014095,0.0019358,-9.7862,0.0027962,0.0034013,1.8589e-09,0.1,0.7,0
0.0054119,-0.0023507,0.0049617,0.0014094,0.0019113,-0.00057021,0,0,0.047586,-0.0078301,0,-0.017791,0,0,0,0.005051,0.0013201,0.0019113,-8.8992,0.0027608,0.0034732,1.9434e-09,0.12,0.7,0
0.0063706,-0.0026401,0.0049784,0.0013093,0.0018863,-0.00052817,0,0,0.048236,-0.0090013,0,-0.016479,0,0,0,0.0050529,0.0012348,0.0018863,-8.0306,0.0027247,0.0035376,2.0164e-09,0.14,0.7,0
0.0073413,-0.0028956,0.0049876,0.0012153,0.0018609,-0.00048273,0,0,0.048778,-0.010071,0,-0.015061,0,0,0,0.0050484,0.0011545,0.0018609,-7.1778,0.0026879,0.0035932,2.0757e-09,0.16,0.7,0
0.0083217,-0.0031158,0.0049891,0.0011278,0.0018351,-0.00043415,0,0,0.049203,-0.011033,0,-0.013546,0,0,0,0.0050374,0.0010796,0.0018351,-6.3367,0.0026507,0.0036393,2.1204e-09,0.18,0.7,0
0.0093095,-0.0032992,0.0049829,0.0010469,0.0018089,-0.00038269,0,0,0.049514,-0.011888,0,-0.01194,0,0,0,0.0050198,0.00101,0.0018089,-5.5021,0.0026129,0.003676,2.1506e-09,0.2,0.7,0
0.010302,-0.0034446,0.0049692,0.00097188,0.0017823,-0.00032858,0,0,0.049716,-0.012643,0,-0.010252,0,0,0,0.0049961,0.00094505,0.0017823,-4.6678,0.0025745,0.003704,2.1672e-09,0.22,0.7,0
0.011298,-0.0035511,0.0049488,0.00090162,0.0017551,-0.00027201,0,0,0.049821,-0.013315,0,-0.0084868,0,0,0,0.004967,0.00088342,0.0017551,-3.8279,0.0025352,0.003725,2.1725e-09,0.24,0.7,0
0.012295,-0.0036179,0.0049225,0.00083452,0.0017271,-0.00021322,0,0,0.049848,-0.013924,0,-0.0066526,0,0,0,0.0049336,0.00082343,0.0017271,-2.9777,0.0024947,0.0037411,2.1694e-09,0.26,0.7,0
0.013292,-0.0036447,0.0048914,0.00076862,0.001698,-0.0001525,0,0,0.049817,-0.014498,0,-0.0047581,0,0,0,0.0048971,0.00076299,0.001698,-2.1155,0.0024527,0.0037549,2.1612e-09,0.28,0.7,0
0.014288,-0.0036317,0.004857,0.00070166,0.0016676,-9.0303e-05,0,0,0.049755,-0.015069,0,-0.0028175,0,0,0,0.004859,0.00069969,0.0016676,-1.2444,0.0024087,0.0037697,2.1519e-09,0.3,0.7,0
0.015282,-0.0035793,0.0048207,0.00063121,0.0016356,-2.7332e-05,0,0,0.049688,-0.015668,0,-0.00085277,0,0,0,0.0048209,0.00063103,0.0016356,-0.37377,0.0023625,0.0037888,2.1455e-09,0.32,0.7,0
0.016275,-0.0034889,0.0047843,0.00055488,0.0016018,3.5357e-05,0,0,0.049648,-0.016331,0,0.0011031,0,0,0,0.0047846,0.00055459,0.0016018,0.47893,0.0023136,0.0038158,2.1454e-09,0.34,0.7,0
0.017268,-0.0033626,0.0047493,0.00047047,0.0015659,9.6288e-05,0,0,0.049661,-0.017089,0,0.0030042,0,0,0,0.0047515,0.00046831,0.0015659,1.2885,0.0022619,0.0038535,2.1548e-09,0.36,0.7,0
0.018262,-0.0032037,0.0047175,0.00037625,0.0015281,0.00015351,0,0,0.049754,-0.017969,0,0.0047896,0,0,0,0.0047229,0.00037082,0.0015281,2.0227,0.0022073,0.0039043,2.1755e-09,0.38,0.7,0
0.019258,-0.0030168,0.0046901,0.00027122,0.0014884,0.00020461,0,0,0.049946,-0.018988,0,0.0063838,0,0,0,0.0046995,0.00026177,0.0014884,2.6455,0.0021499,0.0039692,2.208e-09,0.4,0.7,0
0.02026,-0.0028078,0.0046681,0.00015553,0.0014471,0.00024675,0,0,0.050248,-0.020148,0,0.0076986,0,0,0,0.0046816,0.00014207,0.0014471,3.1205,0.0020903,0.004048,2.2513e-09,0.42,0.7,0
0.021268,-0.0025843,0.0046521,3.0744e-05,0.0014049,0.00027691,0,0,0.050657,-0.021436,0,0.0086396,0,0,0,0.0046686,1.4211e-05,0.0014049,3.4169,0.0020292,0.0041382,2.3024e-09,0.44,0.7,0
0.022286,-0.0023552,0.0046416,-9.9732e-05,0.0013626,0.00029225,0,0,0.051153,-0.022812,0,0.0091183,0,0,0,0.0046596,-0.00011768,0.0013626,3.5139,0.0019682,0.0042358,2.3572e-09,0.46,0.7,0
0.023314,-0.0021307,0.0046358,-0.00023068,0.0013215,0.00029068,0,0,0.051703,-0.024215,0,0.0090692,0,0,0,0.0046531,-0.00024798,0.0013215,3.4061,0.0019089,0.004335,2.4105e-09,0.48,0.7,0
0.024354,-0.0019217,0.0046333,-0.00035549,0.0012833,0.00027136,0,0,0.052259,-0.025566,0,0.0084666,0,0,0,0.004648,-0.00037021,0.0012833,3.1044,0.0018537,0.0044293,2.4576e-09,0.5,0.7,0
0.025405,-0.0017389,0.0046325,-0.00046714,0.0012496,0.00023511,0,0,0.052773,-0.026781,0,0.0073356,0,0,0,0.0046433,-0.00047796,0.0012496,2.6341,0.001805,0.0045127,2.4952e-09,0.52,0.7,0
0.026465,-0.0015919,0.004632,-0.0005594,0.0012218,0.00018424,0,0,0.0532,-0.027786,0,0.0057482,0,0,0,0.0046385,-0.00056593,0.0012218,2.0299,0.0017648,0.0045802,2.5218e-09,0.54,0.7,0
0.027533,-0.0014887,0.004631,-0.00062769,0.001201,0.00012205,0,0,0.053508,-0.028527,0,0.0038078,0,0,0,0.0046338,-0.00063052,0.001201,1.3288,0.0017348,0.0046288,2.5378e-09,0.56,0.7,0
0.028605,-0.0014352,0.0046289,-0.00066924,0.0011879,5.2248e-05,0,0,0.053679,-0.028971,0,0.0016301,0,0,0,0.0046294,-0.00066975,0.0011879,0.56496,0.0017158,0.004657,2.5443e-09,0.58,0.7,0
0.02968,-0.0014348,0.0046253,-0.00068271,0.0011828,-2.1413e-05,0,0,0.053704,-0.029102,0,-0.00066808,0,0,0,0.0046254,-0.0006828,0.0011828,-0.23113,0.0017085,0.0046642,2.5424e-09,0.6,0.7,0
0.030753,-0.0014885,0.0046202,-0.00066784,0.0011857,-9.5191e-05,0,0,0.053578,-0.028915,0,-0.0029699,0,0,0,0.0046219,-0.00066955,0.0011857,-1.0309,0.0017127,0.0046502,2.5323e-09,0.62,0.7,0
0.031823,-0.0015947,0.0046135,-0.00062545,0.0011964,-0.00016519,0,0,0.053306,-0.028421,0,-0.0051539,0,0,0,0.0046187,-0.00063065,0.0011964,-1.8042,0.0017281,0.0046155,2.5138e-09,0.64,0.7,0
0.032886,-0.0017494,0.0046053,-0.00055792,0.0012142,-0.0002274,0,0,0.052901,-0.027645,0,-0.0070947,0,0,0,0.0046153,-0.00056792,0.0012142,-2.5169,0.0017539,0.0045612,2.4859e-09,0.66,0.7,0
0.033939,-0.0019461,0.0045965,-0.00046962,0.0012381,-0.00027808,0,0,0.052391,-0.02664,0,-0.008676,0,0,0,0.0046117,-0.00048484,0.0012381,-3.1324,0.0017883,0.0044902,2.4486e-09,0.68,0.7,0
0.034981,-0.0021766,0.0045882,-0.00036681,0.0012664,-0.00031445,0,0,0.051819,-0.025478,0,-0.0098107,0,0,0,0.004608,-0.00038669,0.0012664,-3.6167,0.0018293,0.0044072,2.4031e-09,0.7,0.7,0
0.036012,-0.0024314,0.004582,-0.0002568,0.0012976,-0.00033523,0,0,0.051238,-0.024248,0,-0.010459,0,0,0,0.0046051,-0.00027992,0.0012976,-3.9443,0.0018743,0.0043181,2.3523e-09,0.72,0.7,0
0.037031,-0.0027004,0.0045796,-0.00014675,0.0013299,-0.00034085,0,0,0.050696,-0.023035,0,-0.010634,0,0,0,0.004604,-0.0001712,0.0013299,-4.1037,0.0019209,0.0042294,2.3004e-09,0.74,0.7,0
0.03804,-0.0029743,0.004582,-4.256e-05,0.0013618,-0.00033312,0,0,0.050234,-0.021908,0,-0.010393,0,0,0,0.0046059,-6.6434e-05,0.0013618,-4.0991,0.0019671,0.0041469,2.2519e-09,0.76,0.7,0
0.03904,-0.0032446,0.0045898,5.1586e-05,0.0013924,-0.00031473,0,0,0.049879,-0.020917,0,-0.0098195,0,0,0,0.0046115,2.9863e-05,0.0013924,-3.9483,0.0020113,0.004075,2.2107e-09,0.78,0.7,0
0.040035,-0.0035043,0.0046029,0.00013329,0.0014208,-0.00028862,0,0,0.049639,-0.020086,0,-0.0090048,0,0,0,0.0046214,0.00011473,0.0014208,-3.6794,0.0020523,0.0040162,2.1795e-09,0.8,0.7,0
0.041026,-0.0037477,0.0046204,0.00020163,0.0014466,-0.00025761,0,0,0.049512,-0.019422,0,-0.0080375,0,0,0,0.0046354,0.00018666,0.0014466,-3.3253,0.0020896,0.0039716,2.1596e-09,0.82,0.7,0
0.042015,-0.0039707,0.0046414,0.00025683,0.0014695,-0.00022416,0,0,0.049482,-0.018917,0,-0.0069939,0,0,0,0.0046529,0.0002454,0.0014695,-2.9191,0.0021226,0.0039407,2.1509e-09,0.84,0.7,0
0.043005,-0.0041704,0.0046645,0.00029988,0.0014893,-0.00019021,0,0,0.049533,-0.018555,0,-0.0059346,0,0,0,0.0046727,0.0002916,0.0014893,-2.4907,0.0021512,0.0039219,2.152e-09,0.86,0.7,0
0.043997,-0.0043448,0.0046881,0.00033227,0.0015061,-0.00015718,0,0,0.049639,-0.018312,0,-0.0049041,0,0,0,0.0046937,0.00032661,0.0015061,-2.064,0.0021755,0.0039131,2.1609e-09,0.88,0.7,0
0.044991,-0.0044929,0.0047108,0.00035575,0.00152,-0.00012598,0,0,0.049777,-0.018162,0,-0.0039305,0,0,0,0.0047145,0.00035211,0.00152,-1.6555,0.0021955,0.0039114,2.1749e-09,0.9,0.7,0
0.045988,-0.004614,0.0047314,0.00037209,0.001531,-9.7024e-05,0,0,0.049925,-0.01808,0,-0.0030271,0,0,0,0.0047336,0.00036993,0.001531,-1.2744,0.0022115,0.0039144,2.1913e-09,0.92,0.7,0
0.046988,-0.0047081,0.0047486,0.00038291,0.0015395,-7.0355e-05,0,0,0.050063,-0.018042,0,-0.0021951,0,0,0,0.0047498,0.00038178,0.0015395,-0.92302,0.0022237,0.0039195,2.2073e-09,0.94,0.7,0
0.04799,-0.0047751,0.0047617,0.0003896,0.0015454,-4.5677e-05,0,0,0.050174,-0.01803,0,-0.0014251,0,0,0,0.0047621,0.00038912,0.0015454,-0.59851,0.0022322,0.0039248,2.2206e-09,0.96,0.7,0
0.048995,-0.0048153,0.0047697,0.00039319,0.0015489,-2.2455e-05,0,0,0.050245,-0.018029,0,-0.00070059,0,0,0,0.0047698,0.00039307,0.0015489,-0.29396,0.0022373,0.0039285,2.2293e-09,0.98,0.7,0
0.05,-0.0048286,0.0047725,0.00039431,0.00155,-2.142e-05,0,0,0.05027,-0.018029,0,-0.00066831,0,0,0,0.0047726,0.0003942,0.00155,-0.28031,0.0022389,0.0039301,2.2325e-09,1,0.7,0
0,0,0.0047607,0.0020403,0.0020403,-0.00077267,0,0,0.042438,0,0,-0.024107,0,0,0,0.0049648,0.0018361,0.0020403,-14.8,0.0029471,0.0030318,1.4094e-09,0,0.72,0
0.00084876,-0.00048215,0.0047512,0.0019206,0.0020015,-0.00076758,0,0,0.042895,-0.0012628,0,-0.023949,0,0,0,0.0049459,0.0017258,0.0020015,-14.236,0.0028911,0.0030915,1.4769e-09,0.02,0.72,0
0.0017158,-0.00094144,0.0047901,0.0018134,0.001981,-0.00074171,0,0,0.043821,-0.0026154,0,-0.023141,0,0,0,0.0049647,0.0016388,0.001981,-13.244,0.0028615,0.0031686,1.5699e-09,0.04,0.72,0
0.0026016,-0.001376,0.0048278,0.0017013,0.0019587,-0.00071144,0,0,0.044757,-0.0040155,0,-0.022197,0,0,0,0.0049821,0.0015471,0.0019587,-12.235,0.0028293,0.0032488,1.6662e-09,0.06,0.72,0
0.0035061,-0.0017838,0.0048626,0.0015875,0.001935,-0.00067631,0,0,0.04567,-0.0054211,0,-0.021101,0,0,0,0.0049967,0.0014534,0.001935,-11.22,0.002795,0.0033288,1.7615e-09,0.08,0.72,0
0.0044284,-0.0021624,0.0048928,0.0014748,0.0019103,-0.00063617,0,0,0.046527,-0.0067937,0,-0.019848,0,0,0,0.0050073,0.0013602,0.0019103,-10.209,0.0027593,0.0034056,1.8515e-09,0.1,0.72,0
0.0053672,-0.0025094,0.0049171,0.0013655,0.0018848,-0.00059119,0,0,0.047304,-0.0081006,0,-0.018445,0,0,0,0.0050129,0.0012697,0.0018848,-9.2067,0.0027225,0.0034767,1.9327e-09,0.12,0.72,0
0.0063206,-0.0028226,0.0049346,0.0012616,0.0018589,-0.0005418,0,0,0.047982,-0.0093172,0,-0.016904,0,0,0,0.0050129,0.0011834,0.0018589,-8.2185,0.002685,0.0035404,2.0024e-09,0.14,0.72,0
0.0072864,-0.0031,0.0049447,0.0011642,0.0018327,-0.00048859,0,0,0.048548,-0.010428,0,-0.015244,0,0,0,0.0050068,0.0011021,0.0018327,-7.2463,0.0026472,0.0035955,2.059e-09,0.16,0.72,0
0.0082625,-0.0033398,0.0049472,0.0010739,0.0018063,-0.00043217,0,0,0.048997,-0.011426,0,-0.013484,0,0,0,0.0049948,0.0010263,0.0018063,-6.2899,0.0026092,0.0036417,2.102e-09,0.18,0.72,0
0.0092463,-0.0035406,0.0049422,0.00099054,0.0017798,-0.00037315,0,0,0.049334,-0.012313,0,-0.011642,0,0,0,0.0049772,0.00095561,0.0017798,-5.3473,0.0025709,0.0036794,2.1318e-09,0.2,0.72,0
0.010236,-0.0037015,0.0049304,0.00091341,0.0017531,-0.00031206,0,0,0.049565,-0.0131,0,-0.0097363,0,0,0,0.0049545,0.00088931,0.0017531,-4.4157,0.0025323,0.0037095,2.15e-09,0.22,0.72,0
0.011229,-0.0038218,0.0049125,0.00084135,0.0017262,-0.0002494,0,0,0.049707,-0.013803,0,-0.0077811,0,0,0,0.0049277,0.00082613,0.0017262,-3.4925,0.0024933,0.0037338,2.1589e-09,0.24,0.72,0
0.012224,-0.0039012,0.0048895,0.00077278,0.0016987,-0.00018561,0,0,0.049777,-0.014444,0,-0.0057909,0,0,0,0.0048979,0.00076443,0.0016987,-2.5762,0.0024537,0.0037545,2.1613e-09,0.26,0.72,0
0.01322,-0.0039399,0.0048627,0.00070581,0.0016706,-0.00012119,0,0,0.049798,-0.01505,0,-0.0037812,0,0,0,0.0048663,0.00070228,0.0016706,-1.6685,0.002413,0.0037742,2.1606e-09,0.28,0.72,0
0.014216,-0.0039386,0.0048335,0.00063838,0.0016416,-5.6776e-05,0,0,0.049795,-0.01565,0,-0.0017714,0,0,0,0.0048343,0.00063761,0.0016416,-0.77524,0.0023712,0.0037956,2.1601e-09,0.3,0.72,0
0.015212,-0.0038986,0.0048034,0.00056833,0.0016115,6.8285e-06,0,0,0.049794,-0.016274,0,0.00021305,0,0,0,0.0048034,0.00056832,0.0016115,0.09238,0.0023278,0.0038218,2.1631e-09,0.32,0.72,0
0.016208,-0.0038217,0.0047739,0.00049361,0.0015803,6.8524e-05,0,0,0.049821,-0.016952,0,0.0021379,0,0,0,0.004775,0.00049252,0.0015803,0.91694,0.0022826,0.0038555,2.1727e-09,0.34,0.72,0
0.017205,-0.0037107,0.0047465,0.00041245,0.0015477,0.00012688,0,0,0.049901,-0.01771,0,0.0039586,0,0,0,0.0047502,0.00040874,0.0015477,1.6754,0.0022355,0.0038988,2.1909e-09,0.36,0.72,0
0.018204,-0.0035694,0.0047225,0.00032353,0.0015138,0.0001801,0,0,0.050055,-0.018568,0,0.0056191,0,0,0,0.0047298,0.00031617,0.0015138,2.3406,0.0021866,0.0039533,2.2191e-09,0.38,0.72,0
0.019207,-0.0034024,0.0047029,0.00022628,0.0014788,0.00022606,0,0,0.050297,-0.019539,0,0.0070531,0,0,0,0.0047143,0.00021489,0.0014788,2.8836,0.002136,0.0040193,2.2571e-09,0.4,0.72,0
0.020216,-0.0032159,0.0046885,0.00012111,0.0014429,0.00026241,0,0,0.050631,-0.020619,0,0.008187,0,0,0,0.0047035,0.00010608,0.0014429,3.2774,0.0020841,0.004096,2.3037e-09,0.42,0.72,0
0.021232,-0.003017,0.0046793,9.6412e-06,0.0014067,0.00028674,0,0,0.051053,-0.021794,0,0.0089463,0,0,0,0.0046968,-7.9001e-06,0.0014067,3.5007,0.0020319,0.0041809,2.3564e-09,0.44,0.72,0
0.022258,-0.002814,0.0046749,-0.00010515,0.0013709,0.00029695,0,0,0.051542,-0.023027,0,0.0092648,0,0,0,0.0046933,-0.00012353,0.0013709,3.5412,0.0019802,0.0042705,2.4113e-09,0.46,0.72,0
0.023294,-0.002616,0.0046745,-0.000219,0.0013366,0.00029158,0,0,0.05207,-0.024268,0,0.0090972,0,0,0,0.0046918,-0.00023632,0.0013366,3.3979,0.0019307,0.0043599,2.4645e-09,0.48,0.72,0
0.024341,-0.0024323,0.0046765,-0.00032674,0.0013049,0.00027017,0,0,0.052597,-0.025454,0,0.0084292,0,0,0,0.0046911,-0.00034129,0.0013049,3.0819,0.0018849,0.0044441,2.5121e-09,0.5,0.72,0
0.025398,-0.0022723,0.0046796,-0.00042292,0.001277,0.00023347,0,0,0.05308,-0.026519,0,0.0072844,0,0,0,0.0046902,-0.00043358,0.001277,2.6144,0.0018445,0.0045183,2.5511e-09,0.52,0.72,0
0.026464,-0.0021441,0.0046823,-0.00050257,0.0012539,0.0001834,0,0,0.053482,-0.027401,0,0.0057221,0,0,0,0.0046888,-0.00050905,0.0012539,2.0233,0.0018112,0.0045784,2.5799e-09,0.54,0.72,0
0.027537,-0.0020549,0.0046834,-0.00056174,0.0012365,0.00012274,0,0,0.053772,-0.028053,0,0.0038295,0,0,0,0.0046863,-0.00056461,0.0012365,1.3398,0.0017861,0.0046216,2.5978e-09,0.56,0.72,0
0.028615,-0.0020097,0.0046823,-0.00059779,0.0012254,5.4833e-05,0,0,0.053929,-0.028441,0,0.0017108,0,0,0,0.0046829,-0.00059836,0.0012254,0.59492,0.00177,0.0046461,2.605e-09,0.58,0.72,0
0.029694,-0.0020117,0.0046784,-0.00060933,0.0012207,-1.6733e-05,0,0,0.05394,-0.028549,0,-0.00052206,0,0,0,0.0046785,-0.00060939,0.0012207,-0.18131,0.0017633,0.0046512,2.602e-09,0.6,0.72,0
0.030772,-0.0020617,0.0046716,-0.00059617,0.0012226,-8.8252e-05,0,0,0.053804,-0.028373,0,-0.0027535,0,0,0,0.0046731,-0.00059765,0.0012226,-0.95954,0.001766,0.0046368,2.5888e-09,0.62,0.72,0
0.031846,-0.0021585,0.0046619,-0.00055933,0.0012308,-0.00015601,0,0,0.053526,-0.027926,0,-0.0048675,0,0,0,0.0046666,-0.00056399,0.0012308,-1.7099,0.0017778,0.0046035,2.5658e-09,0.64,0.72,0
0.032913,-0.0022985,0.00465,-0.00050118,0.0012446,-0.00021644,0,0,0.053123,-0.027235,0,-0.0067528,0,0,0,0.0046591,-0.00051026,0.0012446,-2.4017,0.0017978,0.004553,2.533e-09,0.66,0.72,0
0.033971,-0.0024763,0.0046367,-0.00042554,0.0012634,-0.00026642,0,0,0.052624,-0.026347,0,-0.0083124,0,0,0,0.0046507,-0.00043952,0.0012634,-3.0044,0.0018248,0.004488,2.4911e-09,0.68,0.72,0
0.035018,-0.002685,0.0046234,-0.00033743,0.0012858,-0.0003037,0,0,0.052066,-0.025322,0,-0.0094756,0,0,0,0.0046419,-0.00035595,0.0012858,-3.4903,0.0018572,0.0044123,2.4419e-09,0.7,0.72,0
0.036054,-0.0029165,0.0046114,-0.00024255,0.0013107,-0.00032718,0,0,0.051492,-0.02423,0,-0.010208,0,0,0,0.0046334,-0.00026451,0.0013107,-3.8389,0.0018932,0.0043308,2.388e-09,0.72,0.72,0
0.037078,-0.0031625,0.0046023,-0.00014653,0.0013367,-0.000337,0,0,0.050943,-0.023139,0,-0.010514,0,0,0,0.0046261,-0.00017033,0.0013367,-4.039,0.0019309,0.0042484,2.3329e-09,0.74,0.72,0
0.038092,-0.0034148,0.0045972,-5.4203e-05,0.0013629,-0.0003344,0,0,0.050455,-0.022107,0,-0.010433,0,0,0,0.0046212,-7.812e-05,0.0013629,-4.091,0.0019687,0.0041699,2.2802e-09,0.76,0.72,0
0.039096,-0.0036658,0.0045967,3.0777e-05,0.0013882,-0.00032135,0,0,0.050052,-0.021177,0,-0.010026,0,0,0,0.0046192,8.2711e-06,0.0013882,-4.0062,0.0020053,0.0040991,2.2332e-09,0.78,0.72,0
0.040094,-0.003909,0.0046009,0.00010606,0.0014121,-0.00030019,0,0,0.049746,-0.020374,0,-0.0093661,0,0,0,0.0046209,8.6094e-05,0.0014121,-3.804,0.0020397,0.0040385,2.1943e-09,0.8,0.72,0
0.041086,-0.0041391,0.0046094,0.00017047,0.001434,-0.00027327,0,0,0.049537,-0.019711,0,-0.0085261,0,0,0,0.0046262,0.00015371,0.001434,-3.5096,0.0020713,0.0039895,2.165e-09,0.82,0.72,0
0.042075,-0.0043517,0.0046214,0.00022383,0.0014536,-0.00024273,0,0,0.049418,-0.019184,0,-0.007573,0,0,0,0.0046348,0.00021047,0.0014536,-3.1497,0.0020996,0.0039522,2.1453e-09,0.84,0.72,0
0.043063,-0.0045437,0.0046358,0.00026667,0.0014708,-0.00021034,0,0,0.049375,-0.018784,0,-0.0065627,0,0,0,0.004646,0.00025656,0.0014708,-2.7499,0.0021244,0.0039257,2.1346e-09,0.86,0.72,0
0.04405,-0.0047126,0.0046515,0.0003,0.0014854,-0.0001775,0,0,0.04939,-0.018493,0,-0.0055381,0,0,0,0.0046587,0.00029277,0.0014854,-2.332,0.0021456,0.0039086,2.1315e-09,0.88,0.72,0
0.045038,-0.0048571,0.0046672,0.00032509,0.0014977,-0.00014517,0,0,0.049445,-0.018292,0,-0.0045293,0,0,0,0.004672,0.00032024,0.0014977,-1.9127,0.0021633,0.0038988,2.134e-09,0.9,0.72,0
0.046028,-0.004976,0.0046818,0.00034331,0.0015075,-0.0001139,0,0,0.049519,-0.018162,0,-0.0035538,0,0,0,0.0046848,0.00034032,0.0015075,-1.5029,0.0021775,0.0038943,2.1399e-09,0.92,0.72,0
0.047019,-0.0050689,0.0046943,0.00035595,0.0015151,-8.3924e-05,0,0,0.049596,-0.018082,0,-0.0026184,0,0,0,0.0046959,0.00035433,0.0015151,-1.1078,0.0021884,0.0038932,2.1472e-09,0.94,0.72,0
0.048012,-0.0051353,0.0047038,0.00036413,0.0015204,-5.5161e-05,0,0,0.049661,-0.018038,0,-0.001721,0,0,0,0.0047045,0.00036343,0.0015204,-0.72813,0.0021961,0.0038937,2.1538e-09,0.96,0.72,0
0.049006,-0.0051752,0.0047098,0.00036868,0.0015235,-2.733e-05,0,0,0.049705,-0.018016,0,-0.00085269,0,0,0,0.0047099,0.0003685,0.0015235,-0.36069,0.0022007,0.0038946,2.1584e-09,0.98,0.72,0
0.05,-0.0051885,0.0047118,0.00037013,0.0015246,-2.1312e-05,0,0,0.049721,-0.018009,0,-0.00066494,0,0,0,0.0047119,0.00037003,0.0015246,-0.28124,0.0022022,0.0038951,2.1603e-09,1,0.72,0
0,0,0.0047178,0.0020219,0.0020219,-0.0008138,0,0,0.042056,5.421e-19,0,-0.02539,0,0,0,0.0049444,0.0017953,0.0020219,-15.56,0.0029205,0.0030421,1.4189e-09,0,0.74,0
0.00084112,-0.00050781,0.004708,0.0018973,0.0019816,-0.00080821,0,0,0.042532,-0.0013154,0,-0.025216,0,0,0,0.0049238,0.0016814,0.0019816,-14.951,0.0028623,0.0031032,1.4866e-09,0.02,0.74,0
0.0017013,-0.00099467,0.0047487,0.001785,0.0019601,-0.00078211,0,0,0.043502,-0.0027319,0,-0.024402,0,0,0,0.0049424,0.0015912,0.0019601,-13.912,0.0028312,0.0031828,1.5812e-09,0.04,0.74,0
0.0025812,-0.0014579,0.0047881,0.0016671,0.0019366,-0.00074967,0,0,0.044484,-0.0042032,0,-0.02339,0,0,0,0.0049588,0.0014964,0.0019366,-12.83,0.0027973,0.0032647,1.6781e-09,0.06,0.74,0
0.0034807,-0.0018944,0.0048245,0.0015473,0.0019115,-0.00071051,0,0,0.045442,-0.0056819,0,-0.022168,0,0,0,0.0049719,0.0013999,0.0019115,-11.721,0.0027611,0.0033456,1.7727e-09,0.08,0.74,0
0.0043989,-0.002301,0.004856,0.0014288,0.0018855,-0.00066477,0,0,0.046341,-0.0071238,0,-0.020741,0,0,0,0.0049805,0.0013044,0.0018855,-10.601,0.0027234,0.0034228,1.861e-09,0.1,0.74,0
0.0053343,-0.0026747,0.0048815,0.0013144,0.0018588,-0.00061301,0,0,0.047154,-0.0084922,0,-0.019126,0,0,0,0.0049839,0.001212,0.0018588,-9.484,0.0026849,0.0034937,1.9396e-09,0.12,0.74,0
0.006285,-0.0030127,0.0048998,0.0012061,0.0018318,-0.0005561,0,0,0.047861,-0.0097601,0,-0.01735,0,0,0,0.0049817,0.0011242,0.0018318,-8.3788,0.0026459,0.0035569,2.0063e-09,0.14,0.74,0
0.0072487,-0.0033127,0.0049105,0.0011053,0.0018047,-0.00049507,0,0,0.04845,-0.010912,0,-0.015446,0,0,0,0.0049739,0.0010419,0.0018047,-7.2926,0.0026068,0.0036115,2.0601e-09,0.16,0.74,0
0.008223,-0.0035728,0.0049136,0.0010123,0.0017778,-0.00043098,0,0,0.048919,-0.011941,0,-0.013447,0,0,0,0.0049607,0.00096527,0.0017778,-6.2294,0.0025679,0.0036575,2.1008e-09,0.18,0.74,0
0.0092055,-0.0037917,0.0049096,0.00092703,0.001751,-0.00036478,0,0,0.049274,-0.012854,0,-0.011381,0,0,0,0.0049427,0.0008939,0.001751,-5.1904,0.0025292,0.0036956,2.1296e-09,0.2,0.74,0
0.010194,-0.0039686,0.0048991,0.00084863,0.0017243,-0.00029731,0,0,0.049526,-0.013661,0,-0.0092762,0,0,0,0.0049208,0.00082692,0.0017243,-4.1758,0.0024907,0.0037271,2.1483e-09,0.22,0.74,0
0.011187,-0.0041032,0.0048831,0.00077584,0.0016977,-0.0002293,0,0,0.049692,-0.014381,0,-0.0071542,0,0,0,0.0048958,0.00076308,0.0016977,-3.1856,0.0024522,0.0037538,2.1594e-09,0.24,0.74,0
0.012182,-0.0041957,0.0048628,0.00070705,0.001671,-0.00016139,0,0,0.049793,-0.015037,0,-0.0050354,0,0,0,0.004869,0.00070079,0.001671,-2.2207,0.0024136,0.0037778,2.1656e-09,0.26,0.74,0
0.013178,-0.0042467,0.0048395,0.00064042,0.001644,-9.4213e-05,0,0,0.04985,-0.015655,0,-0.0029395,0,0,0,0.0048416,0.00063831,0.001644,-1.2847,0.0023746,0.0038016,2.17e-09,0.28,0.74,0
0.014176,-0.0042577,0.0048146,0.00057402,0.0016166,-2.8479e-05,0,0,0.049889,-0.016264,0,-0.00088856,0,0,0,0.0048148,0.00057383,0.0016166,-0.38477,0.0023351,0.0038276,2.1757e-09,0.3,0.74,0
0.015174,-0.0042302,0.0047895,0.00050592,0.0015886,3.4957e-05,0,0,0.049934,-0.01689,0,0.0010907,0,0,0,0.0047898,0.00050564,0.0015886,0.46753,0.0022947,0.0038584,2.1853e-09,0.32,0.74,0
0.016173,-0.0041669,0.0047656,0.00043435,0.00156,9.503e-05,0,0,0.050008,-0.01756,0,0.0029649,0,0,0,0.0047677,0.00043226,0.00156,1.2563,0.0022533,0.003896,2.2012e-09,0.34,0.74,0
0.017174,-0.004071,0.0047441,0.00035783,0.0015306,0.00015042,0,0,0.050131,-0.018295,0,0.004693,0,0,0,0.0047493,0.00035268,0.0015306,1.9618,0.0022109,0.0039419,2.2248e-09,0.36,0.74,0
0.018178,-0.0039465,0.0047262,0.0002754,0.0015005,0.00019954,0,0,0.050321,-0.019111,0,0.0062257,0,0,0,0.0047351,0.00026648,0.0015005,2.5619,0.0021674,0.0039971,2.2569e-09,0.38,0.74,0
0.019187,-0.0037984,0.0047125,0.00018675,0.0014698,0.00024061,0,0,0.050587,-0.020015,0,0.0075069,0,0,0,0.0047253,0.00017399,0.0014698,3.0347,0.002123,0.0040615,2.2972e-09,0.4,0.74,0
0.020202,-0.0036326,0.0047035,9.2391e-05,0.0014388,0.0002717,0,0,0.05093,-0.021004,0,0.0084771,0,0,0,0.0047195,7.6437e-05,0.0014388,3.3605,0.0020782,0.0041338,2.3442e-09,0.42,0.74,0
0.021224,-0.003456,0.0046991,-6.1424e-06,0.0014079,0.00029099,0,0,0.051343,-0.022059,0,0.0090787,0,0,0,0.0047171,-2.4069e-05,0.0014079,3.5254,0.0020336,0.0042119,2.3956e-09,0.44,0.74,0
0.022256,-0.0032763,0.0046989,-0.00010631,0.0013778,0.00029691,0,0,0.051809,-0.023151,0,0.0092637,0,0,0,0.0047171,-0.00012459,0.0013778,3.5225,0.0019901,0.0042925,2.4484e-09,0.46,0.74,0
0.023297,-0.0031014,0.0047017,-0.00020465,0.0013491,0.00028852,0,0,0.0523,-0.024239,0,0.0090018,0,0,0,0.0047186,-0.00022156,0.0013491,3.3539,0.0019487,0.0043718,2.4992e-09,0.48,0.74,0
0.024348,-0.0029399,0.0047064,-0.00029706,0.0013228,0.00026563,0,0,0.052784,-0.02527,0,0.0082877,0,0,0,0.0047205,-0.00031113,0.0013228,3.0305,0.0019107,0.0044458,2.5448e-09,0.5,0.74,0
0.025408,-0.0027996,0.0047116,-0.00037927,0.0012997,0.00022901,0,0,0.053225,-0.026192,0,0.0071452,0,0,0,0.0047218,-0.00038955,0.0012997,2.5706,0.0018773,0.0045106,2.5825e-09,0.52,0.74,0
0.026477,-0.0026879,0.0047158,-0.00044729,0.0012806,0.00018034,0,0,0.05359,-0.026954,0,0.0056266,0,0,0,0.0047221,-0.00045358,0.0012806,1.998,0.0018497,0.0045629,2.6108e-09,0.54,0.74,0
0.027551,-0.0026108,0.004718,-0.00049785,0.001266,0.00012205,0,0,0.053851,-0.027517,0,0.003808,0,0,0,0.0047209,-0.00050071,0.001266,1.3397,0.0018287,0.0046001,2.6284e-09,0.56,0.74,0
0.02863,-0.0025728,0.0047173,-0.00052865,0.0012566,5.7117e-05,0,0,0.053987,-0.02785,0,0.0017821,0,0,0,0.004718,-0.00052927,0.0012566,0.62372,0.0018151,0.0046208,2.6353e-09,0.58,0.74,0
0.029711,-0.0025768,0.0047132,-0.00053845,0.0012524,-1.1164e-05,0,0,0.053988,-0.027938,0,-0.0003483,0,0,0,0.0047133,-0.00053847,0.0012524,-0.12179,0.0018091,0.0046241,2.6313e-09,0.6,0.74,0
0.03079,-0.0026234,0.0047055,-0.00052711,0.0012535,-7.9367e-05,0,0,0.053851,-0.027778,0,-0.0024763,0,0,0,0.0047067,-0.00052831,0.0012535,-0.86877,0.0018107,0.0046101,2.6167e-09,0.62,0.74,0
0.031865,-0.0027117,0.0046945,-0.00049561,0.0012597,-0.00014411,0,0,0.053583,-0.027382,0,-0.0044961,0,0,0,0.0046985,-0.00049961,0.0012597,-1.5892,0.0018195,0.0045794,2.5918e-09,0.64,0.74,0
0.032933,-0.0028388,0.0046807,-0.00044607,0.0012704,-0.00020223,0,0,0.053201,-0.026777,0,-0.0063097,0,0,0,0.0046886,-0.00045404,0.0012704,-2.2555,0.001835,0.0045335,2.5572e-09,0.66,0.74,0
0.033993,-0.003,0.004665,-0.0003817,0.001285,-0.00025108,0,0,0.052729,-0.026001,0,-0.0078335,0,0,0,0.0046775,-0.00039416,0.001285,-2.8411,0.0018561,0.004475,2.5141e-09,0.68,0.74,0
0.035042,-0.0031895,0.0046488,-0.00030655,0.0013027,-0.00028869,0,0,0.0522,-0.025104,0,-0.0090073,0,0,0,0.0046656,-0.00032331,0.0013027,-3.323,0.0018816,0.0044069,2.4642e-09,0.7,0.74,0
0.036081,-0.0034006,0.0046333,-0.00022512,0.0013225,-0.00031407,0,0,0.05165,-0.024142,0,-0.009799,0,0,0,0.0046536,-0.00024534,0.0013225,-3.6834,0.0019102,0.0043332,2.4099e-09,0.72,0.74,0
0.037109,-0.003626,0.0046199,-0.00014189,0.0013434,-0.00032715,0,0,0.051114,-0.023171,0,-0.010207,0,0,0,0.0046423,-0.00016426,0.0013434,-3.9119,0.0019405,0.0042579,2.3542e-09,0.74,0.74,0
0.038126,-0.0038586,0.0046096,-6.0818e-05,0.0013647,-0.00032875,0,0,0.050622,-0.022237,0,-0.010257,0,0,0,0.0046327,-8.3845e-05,0.0013647,-4.0067,0.0019712,0.0041847,2.3001e-09,0.76,0.74,0
0.039133,-0.0040917,0.0046031,1.4953e-05,0.0013854,-0.0003203,0,0,0.050196,-0.021379,0,-0.0099934,0,0,0,0.0046254,-7.2996e-06,0.0013854,-3.9741,0.0020012,0.004117,2.2502e-09,0.78,0.74,0
0.040134,-0.0043192,0.0046007,8.324e-05,0.0014052,-0.00030362,0,0,0.04985,-0.020622,0,-0.0094729,0,0,0,0.004621,6.2925e-05,0.0014052,-3.8279,0.0020297,0.004057,2.2069e-09,0.8,0.74,0
0.041127,-0.0045361,0.0046021,0.00014279,0.0014235,-0.00028062,0,0,0.049586,-0.019978,0,-0.0087553,0,0,0,0.0046197,0.0001252,0.0014235,-3.5867,0.0020561,0.0040063,2.1713e-09,0.82,0.74,0
0.042117,-0.0047381,0.0046069,0.00019316,0.00144,-0.00025312,0,0,0.049403,-0.019451,0,-0.0078975,0,0,0,0.0046213,0.00017869,0.00144,-3.2716,0.00208,0.0039654,2.1441e-09,0.84,0.74,0
0.043104,-0.0049218,0.0046142,0.00023453,0.0014546,-0.00022274,0,0,0.049289,-0.019033,0,-0.0069496,0,0,0,0.0046255,0.00022323,0.0014546,-2.904,0.0021011,0.0039339,2.125e-09,0.86,0.74,0
0.044089,-0.0050846,0.0046232,0.00026753,0.0014672,-0.00019078,0,0,0.049233,-0.018715,0,-0.0059524,0,0,0,0.0046315,0.00025919,0.0014672,-2.5032,0.0021193,0.0039109,2.1129e-09,0.88,0.74,0
0.045073,-0.0052246,0.0046329,0.00029306,0.0014778,-0.00015821,0,0,0.049219,-0.018482,0,-0.0049361,0,0,0,0.0046386,0.0002873,0.0014778,-2.085,0.0021346,0.003895,2.1065e-09,0.9,0.74,0
0.046057,-0.0053405,0.0046423,0.00031214,0.0014863,-0.00012568,0,0,0.049233,-0.018317,0,-0.0039213,0,0,0,0.0046459,0.0003085,0.0014863,-1.6611,0.0021469,0.0038848,2.1043e-09,0.92,0.74,0
0.047042,-0.0054314,0.0046506,0.00032577,0.0014929,-9.3568e-05,0,0,0.04926,-0.018207,0,-0.0029193,0,0,0,0.0046526,0.00032374,0.0014929,-1.2388,0.0021564,0.0038788,2.1046e-09,0.94,0.74,0
0.048028,-0.0054966,0.004657,0.00033481,0.0014976,-6.1985e-05,0,0,0.049288,-0.018139,0,-0.0019339,0,0,0,0.0046579,0.00033392,0.0014976,-0.82145,0.0021631,0.0038755,2.106e-09,0.96,0.74,0
0.049014,-0.0055359,0.0046611,0.00033995,0.0015003,-3.0861e-05,0,0,0.049309,-0.018102,0,-0.00096287,0,0,0,0.0046613,0.00033973,0.0015003,-0.40917,0.0021671,0.003874,2.1073e-09,0.98,0.74,0
0.05,-0.005549,0.0046625,0.00034161,0.0015012,-2.101e-05,0,0,0.049316,-0.01809,0,-0.0006555,0,0,0,0.0046626,0.00034151,0.0015012,-0.27858,0.0021685,0.0038737,2.1081e-09,1,0.74,0
0,0,0.0046823,0.0020067,0.0020067,-0.00085699,0,0,0.041739,2.1684e-19,0,-0.026738,0,0,0,0.0049332,0.0017557,0.0020067,-16.322,0.0028986,0.0030597,1.4379e-09,0,0.76,0
0.00083478,-0.00053476,0.004672,0.0018748,0.0019641,-0.00085091,0,0,0.042244,-0.0013921,0,-0.026548,0,0,0,0.0049105,0.0016363,0.0019641,-15.658,0.002837,0.0031233,1.5069e-09,0.02,0.76,0
0.0016898,-0.0010507,0.004715,0.0017553,0.0019411,-0.00082467,0,0,0.043274,-0.0028988,0,-0.02573,0,0,0,0.0049293,0.001541,0.0019411,-14.564,0.0028038,0.003207,1.6055e-09,0.04,0.76,0
0.0025657,-0.0015442,0.0047568,0.0016296,0.0019159,-0.00078992,0,0,0.044318,-0.0044671,0,-0.024646,0,0,0,0.004945,0.0014413,0.0019159,-13.401,0.0027674,0.0032921,1.7049e-09,0.06,0.76,0
0.0034625,-0.0020111,0.0047952,0.0015019,0.0018891,-0.00074641,0,0,0.045335,-0.0060412,0,-0.023288,0,0,0,0.0049564,0.0013406,0.0018891,-12.192,0.0027287,0.0033752,1.8002e-09,0.08,0.76,0
0.0043791,-0.0024473,0.0048283,0.0013761,0.0018613,-0.00069459,0,0,0.046284,-0.0075691,0,-0.021671,0,0,0,0.0049628,0.0012416,0.0018613,-10.96,0.0026886,0.0034533,1.8875e-09,0.1,0.76,0
0.0053139,-0.0028491,0.0048546,0.0012556,0.0018331,-0.00063554,0,0,0.047136,-0.0090086,0,-0.019829,0,0,0,0.0049636,0.0011467,0.0018331,-9.726,0.0026478,0.0035242,1.9637e-09,0.12,0.76,0
0.0062646,-0.003213,0.0048734,0.0011426,0.0018048,-0.00057072,0,0,0.04787,-0.01033,0,-0.017806,0,0,0,0.0049587,0.0010572,0.0018048,-8.5058,0.0026069,0.0035866,2.027e-09,0.14,0.76,0
0.0072287,-0.0035364,0.0048842,0.0010383,0.0017767,-0.0005017,0,0,0.048476,-0.011519,0,-0.015653,0,0,0,0.0049486,0.00097397,0.0017767,-7.3114,0.0025664,0.0036402,2.077e-09,0.16,0.76,0
0.0082036,-0.0038174,0.0048873,0.00094324,0.0017492,-0.00043,0,0,0.048955,-0.012572,0,-0.013416,0,0,0,0.0049336,0.00089691,0.0017492,-6.1504,0.0025266,0.0036853,2.1144e-09,0.18,0.76,0
0.0091869,-0.0040547,0.0048833,0.00085688,0.0017221,-0.00035695,0,0,0.049316,-0.013497,0,-0.011137,0,0,0,0.0049147,0.00082548,0.0017221,-5.0271,0.0024874,0.0037228,2.1408e-09,0.2,0.76,0
0.010176,-0.0042479,0.0048733,0.00077825,0.0016955,-0.00028366,0,0,0.049575,-0.014309,0,-0.00885,0,0,0,0.0048929,0.00075869,0.0016955,-3.9436,0.002449,0.0037545,2.1583e-09,0.22,0.76,0
0.01117,-0.004397,0.0048584,0.00070593,0.0016693,-0.00021102,0,0,0.04975,-0.015029,0,-0.0065837,0,0,0,0.0048691,0.00069524,0.0016693,-2.9016,0.0024112,0.0037821,2.1697e-09,0.24,0.76,0
0.012166,-0.0045026,0.0048399,0.00063824,0.0016435,-0.0001398,0,0,0.049865,-0.015681,0,-0.0043616,0,0,0,0.0048446,0.0006336,0.0016435,-1.9035,0.0023739,0.0038079,2.1776e-09,0.26,0.76,0
0.013165,-0.0045661,0.0048192,0.00057336,0.0016178,-7.0687e-05,0,0,0.049943,-0.016293,0,-0.0022054,0,0,0,0.0048204,0.00057218,0.0016178,-0.95353,0.0023368,0.0038339,2.1849e-09,0.28,0.76,0
0.014164,-0.0045892,0.0047977,0.00050943,0.0015921,-4.4133e-06,0,0,0.050007,-0.01689,0,-0.0001377,0,0,0,0.0047977,0.00050942,0.0015921,-0.058967,0.0022998,0.0038624,2.1942e-09,0.3,0.76,0
0.015165,-0.0045742,0.0047766,0.00044468,0.0015664,5.8208e-05,0,0,0.050079,-0.017498,0,0.0018161,0,0,0,0.0047773,0.00044389,0.0015664,0.76971,0.0022625,0.0038954,2.2076e-09,0.32,0.76,0
0.016167,-0.0045241,0.0047571,0.00037756,0.0015404,0.00011621,0,0,0.05018,-0.01814,0,0.0036256,0,0,0,0.0047601,0.00037448,0.0015404,1.5189,0.002225,0.0039345,2.2269e-09,0.34,0.76,0
0.017172,-0.0044425,0.0047403,0.00030685,0.0015141,0.00016842,0,0,0.050328,-0.018834,0,0.0052547,0,0,0,0.0047466,0.00030046,0.0015141,2.1724,0.0021871,0.0039806,2.2532e-09,0.36,0.76,0
0.01818,-0.0043338,0.004727,0.00023178,0.0014876,0.00021351,0,0,0.050534,-0.019591,0,0.0066616,0,0,0,0.0047371,0.00022167,0.0014876,2.7133,0.0021488,0.0040343,2.2866e-09,0.38,0.76,0
0.019193,-0.004203,0.0047177,0.00015221,0.001461,0.00025002,0,0,0.050805,-0.020417,0,0.0078007,0,0,0,0.0047314,0.00013856,0.001461,3.1253,0.0021103,0.004095,2.3268e-09,0.4,0.76,0
0.020212,-0.0040561,0.0047127,6.8695e-05,0.0014344,0.00027645,0,0,0.051141,-0.021305,0,0.0086253,0,0,0,0.0047291,5.2296e-05,0.0014344,3.3948,0.0020719,0.0041616,2.3722e-09,0.42,0.76,0
0.021239,-0.0038994,0.0047117,-1.7424e-05,0.0014083,0.00029141,0,0,0.051534,-0.022241,0,0.0090921,0,0,0,0.0047296,-3.5314e-05,0.0014083,3.5129,0.0020342,0.004232,2.4208e-09,0.44,0.76,0
0.022274,-0.0037401,0.0047142,-0.00010401,0.001383,0.00029383,0,0,0.051965,-0.023198,0,0.0091674,0,0,0,0.004732,-0.00012186,0.001383,3.4769,0.0019977,0.0043035,2.4701e-09,0.46,0.76,0
0.023318,-0.0035855,0.0047191,-0.00018827,0.0013592,0.00028309,0,0,0.052413,-0.024141,0,0.0088325,0,0,0,0.0047354,-0.00020454,0.0013592,3.2907,0.0019633,0.004373,2.5171e-09,0.48,0.76,0
0.02437,-0.0034431,0.0047253,-0.00026693,0.0013375,0.00025927,0,0,0.05285,-0.025029,0,0.0080892,0,0,0,0.0047387,-0.00028036,0.0013375,2.965,0.001932,0.0044372,2.5593e-09,0.5,0.76,0
0.025431,-0.0033199,0.0047315,-0.00033661,0.0013185,0.00022314,0,0,0.053244,-0.025819,0,0.0069621,0,0,0,0.0047414,-0.00034641,0.0013185,2.5162,0.0019045,0.0044929,2.5944e-09,0.52,0.76,0
0.0265,-0.0032223,0.0047365,-0.00039413,0.0013027,0.00017625,0,0,0.053568,-0.026471,0,0.0054988,0,0,0,0.0047426,-0.00040018,0.0013027,1.9651,0.0018817,0.0045377,2.6208e-09,0.54,0.76,0
0.027574,-0.0031556,0.0047392,-0.00043684,0.0012907,0.00012074,0,0,0.053797,-0.02695,0,0.0037669,0,0,0,0.0047421,-0.00043966,0.0012907,1.3355,0.0018644,0.0045693,2.6372e-09,0.56,0.76,0
0.028652,-0.0031237,0.0047388,-0.00046283,0.0012828,5.9259e-05,0,0,0.053914,-0.027232,0,0.0018489,0,0,0,0.0047395,-0.00046351,0.0012828,0.65263,0.0018529,0.0045863,2.6432e-09,0.58,0.76,0
0.029731,-0.0031292,0.0047347,-0.00047105,0.0012791,-5.2309e-06,0,0,0.053907,-0.027302,0,-0.0001632,0,0,0,0.0047347,-0.00047106,0.0012791,-0.057573,0.0018476,0.0045882,2.6386e-09,0.6,0.76,0
0.030808,-0.0031729,0.0047267,-0.00046142,0.0012796,-6.9662e-05,0,0,0.053775,-0.02716,0,-0.0021735,0,0,0,0.0047277,-0.00046235,0.0012796,-0.76913,0.0018483,0.0045749,2.6235e-09,0.62,0.76,0
0.031882,-0.0032538,0.0047152,-0.00043479,0.0012841,-0.00013102,0,0,0.053525,-0.026815,0,-0.0040877,0,0,0,0.0047186,-0.00043812,0.0012841,-1.4564,0.0018549,0.0045471,2.5985e-09,0.64,0.76,0
0.032949,-0.0033695,0.0047007,-0.00039295,0.0012923,-0.00018652,0,0,0.053171,-0.02629,0,-0.0058195,0,0,0,0.0047075,-0.00039977,0.0012923,-2.0943,0.0018667,0.0045062,2.5642e-09,0.66,0.76,0
0.034009,-0.0035163,0.0046841,-0.00033854,0.0013037,-0.00023385,0,0,0.052735,-0.025618,0,-0.007296,0,0,0,0.0046949,-0.0003494,0.0013037,-2.6599,0.0018831,0.0044541,2.5219e-09,0.68,0.76,0
0.035059,-0.0036891,0.0046664,-0.00027481,0.0013175,-0.00027128,0,0,0.052243,-0.02484,0,-0.0084638,0,0,0,0.0046813,-0.00028966,0.0013175,-3.133,0.001903,0.0043936,2.4732e-09,0.7,0.76,0
0.036098,-0.0038822,0.0046489,-0.00020536,0.0013331,-0.00029784,0,0,0.051728,-0.023999,0,-0.0092926,0,0,0,0.0046672,-0.00022356,0.0013331,-3.498,0.0019256,0.0043277,2.4204e-09,0.72,0.76,0
0.037128,-0.0040894,0.0046328,-0.00013376,0.0013497,-0.00031333,0,0,0.051216,-0.023142,0,-0.009776,0,0,0,0.0046533,-0.00015427,0.0013497,-3.7449,0.0019496,0.0042596,2.3659e-09,0.74,0.76,0
0.038147,-0.0043043,0.004619,-6.3261e-05,0.0013667,-0.00031825,0,0,0.050736,-0.022308,0,-0.0099293,0,0,0,0.0046406,-8.4793e-05,0.0013667,-3.8706,0.0019742,0.0041925,2.3122e-09,0.76,0.76,0
0.039157,-0.004521,0.0046082,3.4734e-06,0.0013835,-0.00031361,0,0,0.050306,-0.021529,0,-0.0097847,0,0,0,0.0046295,-1.7787e-05,0.0013835,-3.8783,0.0019984,0.004129,2.2617e-09,0.78,0.76,0
0.040159,-0.0047339,0.0046008,6.4487e-05,0.0013996,-0.00030082,0,0,0.049939,-0.020828,0,-0.0093855,0,0,0,0.0046207,4.4626e-05,0.0013996,-3.7774,0.0020216,0.0040713,2.2162e-09,0.8,0.76,0
0.041155,-0.0049382,0.0045968,0.00011854,0.0014146,-0.00028141,0,0,0.049642,-0.020219,0,-0.0087799,0,0,0,0.0046144,0.00010093,0.0014146,-3.5816,0.0020433,0.004021,2.177e-09,0.82,0.76,0
0.042145,-0.0051297,0.0045959,0.00016504,0.0014283,-0.00025691,0,0,0.049415,-0.019706,0,-0.0080158,0,0,0,0.0046107,0.0001502,0.0014283,-3.3074,0.0020631,0.0039785,2.1449e-09,0.84,0.76,0
0.043131,-0.005305,0.0045975,0.00020394,0.0014404,-0.00022875,0,0,0.04925,-0.019289,0,-0.007137,0,0,0,0.0046094,0.00019207,0.0014404,-2.9724,0.0020806,0.0039442,2.1198e-09,0.86,0.76,0
0.044115,-0.0054612,0.004601,0.00023558,0.001451,-0.00019812,0,0,0.04914,-0.01896,0,-0.0061814,0,0,0,0.00461,0.00022661,0.001451,-2.5932,0.0020958,0.0039174,2.1013e-09,0.88,0.76,0
0.045097,-0.0055964,0.0046057,0.00026057,0.0014599,-0.00016598,0,0,0.049074,-0.018709,0,-0.0051786,0,0,0,0.004612,0.00025423,0.0014599,-2.1845,0.0021087,0.0038974,2.0884e-09,0.9,0.76,0
0.046078,-0.0057087,0.0046107,0.00027962,0.0014671,-0.00013305,0,0,0.04904,-0.018524,0,-0.004151,0,0,0,0.0046148,0.00027554,0.0014671,-1.7578,0.0021191,0.0038831,2.0801e-09,0.92,0.76,0
0.047059,-0.0057972,0.0046154,0.0002935,0.0014727,-9.9784e-05,0,0,0.049027,-0.018395,0,-0.0031133,0,0,0,0.0046177,0.00029119,0.0014727,-1.3219,0.0021272,0.0038733,2.0751e-09,0.94,0.76,0
0.048039,-0.0058608,0.0046192,0.00030287,0.0014766,-6.6467e-05,0,0,0.049024,-0.018311,0,-0.0020738,0,0,0,0.0046202,0.00030184,0.0014766,-0.88202,0.0021329,0.0038672,2.0724e-09,0.96,0.76,0
0.04902,-0.0058992,0.0046217,0.00030826,0.001479,-3.3206e-05,0,0,0.049026,-0.018263,0,-0.001036,0,0,0,0.0046219,0.00030801,0.001479,-0.44104,0.0021363,0.0038639,2.0712e-09,0.98,0.76,0
0.05,-0.0059121,0.0046225,0.00031003,0.0014798,-2.0567e-05,0,0,0.049027,-0.018248,0,-0.0006417,0,0,0,0.0046226,0.00030993,0.0014798,-0.27325,0.0021374,0.003863,2.0711e-09,1,0.76,0
0,0,0.0046549,0.001995,0.001995,-0.00090303,0,0,0.041495,-5.421e-19,0,-0.028175,0,0,0,0.0049325,0.0017173,0.001995,-17.088,0.0028816,0.0030857,1.4679e-09,0,0.78,0
0.0008299,-0.00056349,0.004644,0.0018535,0.0019492,-0.00089643,0,0,0.042038,-0.0014941,0,-0.027969,0,0,0,0.0049071,0.0015903,0.0019492,-16.36,0.0028156,0.0031527,1.5394e-09,0.02,0.78,0
0.0016815,-0.0011106,0.00469,0.0017243,0.0019243,-0.00087008,0,0,0.043146,-0.0031205,0,-0.027147,0,0,0,0.0049264,0.0014878,0.0019243,-15.201,0.0027795,0.0032425,1.6445e-09,0.04,0.78,0
0.0025557,-0.0016366,0.0047346,0.0015882,0.0018968,-0.0008327,0,0,0.044269,-0.0048151,0,-0.02598,0,0,0,0.0049414,0.0013814,0.0018968,-13.946,0.0027399,0.0033323,1.7482e-09,0.06,0.78,0
0.0034523,-0.002136,0.0047752,0.0014505,0.0018677,-0.00078417,0,0,0.045357,-0.0065089,0,-0.024466,0,0,0,0.0049509,0.0012748,0.0018677,-12.627,0.0026978,0.0034184,1.8453e-09,0.08,0.78,0
0.00437,-0.0026038,0.0048097,0.001316,0.0018377,-0.00072544,0,0,0.046363,-0.0081388,0,-0.022634,0,0,0,0.0049543,0.0011713,0.0018377,-11.276,0.0026545,0.0034977,1.9317e-09,0.1,0.78,0
0.0053068,-0.0030351,0.0048365,0.0011885,0.0018075,-0.0006583,0,0,0.047252,-0.0096562,0,-0.020539,0,0,0,0.0049517,0.0010734,0.0018075,-9.9225,0.0026108,0.0035683,2.0046e-09,0.12,0.78,0
0.0062601,-0.003426,0.0048549,0.0010706,0.0017776,-0.00058493,0,0,0.048005,-0.01103,0,-0.01825,0,0,0,0.0049432,0.00098223,0.0017776,-8.5891,0.0025677,0.0036293,2.0632e-09,0.14,0.78,0
0.007227,-0.0037735,0.0048648,0.00096336,0.0017484,-0.00050759,0,0,0.048615,-0.012247,0,-0.015837,0,0,0,0.0049297,0.0008984,0.0017484,-7.2926,0.0025255,0.0036807,2.1078e-09,0.16,0.78,0
0.0082047,-0.0040757,0.0048668,0.00086693,0.0017201,-0.00042829,0,0,0.049088,-0.01331,0,-0.013362,0,0,0,0.0049121,0.00082159,0.0017201,-6.0437,0.0024846,0.0037235,2.1399e-09,0.18,0.78,0
0.0091905,-0.0043316,0.0048618,0.00078056,0.0016927,-0.00034871,0,0,0.049438,-0.01423,0,-0.01088,0,0,0,0.0048914,0.00075099,0.0016927,-4.8486,0.002445,0.0037591,2.1617e-09,0.2,0.78,0
0.010182,-0.004541,0.0048512,0.00070296,0.0016662,-0.00027016,0,0,0.049686,-0.015027,0,-0.0084289,0,0,0,0.0048687,0.00068543,0.0016662,-3.7105,0.0024068,0.0037893,2.1761e-09,0.22,0.78,0
0.011178,-0.0047043,0.0048364,0.00063245,0.0016407,-0.00019363,0,0,0.049854,-0.015728,0,-0.0060414,0,0,0,0.0048453,0.00062356,0.0016407,-2.6316,0.0023698,0.0038163,2.1856e-09,0.24,0.78,0
0.012176,-0.0048229,0.0048188,0.00056725,0.0016158,-0.00011993,0,0,0.049966,-0.016358,0,-0.0037417,0,0,0,0.0048222,0.00056387,0.0016158,-1.6145,0.0023339,0.0038419,2.193e-09,0.26,0.78,0
0.013177,-0.0048985,0.0047997,0.00050547,0.0015916,-4.9703e-05,0,0,0.050047,-0.016943,0,-0.0015507,0,0,0,0.0048003,0.00050489,0.0015916,-0.66304,0.0022989,0.0038683,2.2009e-09,0.28,0.78,0
0.014178,-0.0049333,0.0047805,0.00044532,0.0015678,1.6382e-05,0,0,0.050119,-0.01751,0,0.00051113,0,0,0,0.0047806,0.00044525,0.0015678,0.21651,0.0022645,0.0038973,2.2115e-09,0.3,0.78,0
0.015181,-0.0049302,0.0047624,0.00038515,0.0015443,7.7613e-05,0,0,0.050203,-0.018082,0,0.0024215,0,0,0,0.0047638,0.00038377,0.0015443,1.0155,0.0022306,0.0039304,2.2264e-09,0.32,0.78,0
0.016186,-0.0048925,0.0047464,0.00032358,0.001521,0.00013316,0,0,0.050316,-0.01868,0,0.0041547,0,0,0,0.0047504,0.00031957,0.001521,1.723,0.002197,0.0039689,2.2469e-09,0.34,0.78,0
0.017194,-0.0048243,0.0047332,0.00025955,0.0014978,0.00018207,0,0,0.050472,-0.019317,0,0.0056806,0,0,0,0.0047406,0.00025216,0.0014978,2.3267,0.0021635,0.0040133,2.2736e-09,0.36,0.78,0
0.018205,-0.0047301,0.0047236,0.00019246,0.0014748,0.00022326,0,0,0.050681,-0.020005,0,0.0069656,0,0,0,0.0047346,0.00018149,0.0014748,2.814,0.0021303,0.0040638,2.3066e-09,0.38,0.78,0
0.019221,-0.004615,0.0047178,0.00012223,0.001452,0.00025556,0,0,0.050946,-0.020744,0,0.0079736,0,0,0,0.004732,0.00010806,0.001452,3.1732,0.0020973,0.0041198,2.3451e-09,0.4,0.78,0
0.020243,-0.0044848,0.0047158,4.9379e-05,0.0014296,0.00027786,0,0,0.051266,-0.021531,0,0.0086693,0,0,0,0.0047323,3.2892e-05,0.0014296,3.3957,0.0020649,0.0041799,2.3878e-09,0.42,0.78,0
0.021272,-0.0043457,0.0047173,-2.4936e-05,0.0014077,0.00028914,0,0,0.05163,-0.02235,0,0.0090213,0,0,0,0.0047349,-4.2501e-05,0.0014077,3.4763,0.0020334,0.0042425,2.4328e-09,0.44,0.78,0
0.022308,-0.0042042,0.0047217,-9.8958e-05,0.0013868,0.00028869,0,0,0.052024,-0.023178,0,0.0090072,0,0,0,0.004739,-0.00011618,0.0013868,3.415,0.0020032,0.0043051,2.4779e-09,0.46,0.78,0
0.023353,-0.0040671,0.0047281,-0.00017043,0.0013673,0.0002762,0,0,0.052428,-0.023988,0,0.0086173,0,0,0,0.0047436,-0.00018595,0.0013673,3.217,0.001975,0.0043653,2.5208e-09,0.48,0.78,0
0.024405,-0.0039411,0.0047353,-0.00023675,0.0013496,0.00025188,0,0,0.052817,-0.024746,0,0.0078586,0,0,0,0.004748,-0.00024948,0.0013496,2.8927,0.0019494,0.0044205,2.5592e-09,0.5,0.78,0
0.025465,-0.0038324,0.0047422,-0.00029525,0.0013341,0.00021656,0,0,0.053166,-0.025417,0,0.0067567,0,0,0,0.0047515,-0.00030454,0.0013341,2.4571,0.001927,0.004468,2.5912e-09,0.52,0.78,0
0.026532,-0.0037468,0.0047476,-0.0003434,0.0013213,0.00017166,0,0,0.053451,-0.025969,0,0.0053557,0,0,0,0.0047534,-0.00034919,0.0013213,1.9289,0.0019085,0.0045059,2.6151e-09,0.54,0.78,0
0.027604,-0.0036888,0.0047506,-0.00037908,0.0013115,0.0001191,0,0,0.053651,-0.026372,0,0.0037158,0,0,0,0.0047533,-0.00038185,0.0013115,1.3293,0.0018943,0.0045323,2.63e-09,0.56,0.78,0
0.028678,-0.0036621,0.0047504,-0.00040075,0.0013049,6.1233e-05,0,0,0.053749,-0.026608,0,0.0019105,0,0,0,0.0047511,-0.00040148,0.0013049,0.68097,0.0018848,0.0045463,2.6351e-09,0.58,0.78,0
0.029754,-0.0036688,0.0047465,-0.00040756,0.0013017,6.7944e-07,0,0,0.053739,-0.026664,0,2.1199e-05,0,0,0,0.0047465,-0.00040756,0.0013017,0.0075532,0.0018802,0.0045471,2.6303e-09,0.6,0.78,0
0.030828,-0.0037098,0.0047387,-0.00039944,0.0013018,-5.9843e-05,0,0,0.053616,-0.026539,0,-0.0018671,0,0,0,0.0047394,-0.00040014,0.0013018,-0.66719,0.0018804,0.0045348,2.6156e-09,0.62,0.78,0
0.031898,-0.0037843,0.0047273,-0.00037712,0.0013051,-0.00011767,0,0,0.053388,-0.026242,0,-0.0036714,0,0,0,0.0047301,-0.00037984,0.0013051,-1.3199,0.0018851,0.00451,2.5914e-09,0.64,0.78,0
0.032963,-0.0038904,0.0047129,-0.00034208,0.0013112,-0.00017037,0,0,0.053065,-0.025792,0,-0.0053156,0,0,0,0.0047186,-0.00034782,0.0013112,-1.9282,0.001894,0.0044739,2.5587e-09,0.66,0.78,0
0.034021,-0.0040247,0.004696,-0.00029643,0.0013199,-0.00021589,0,0,0.052668,-0.025215,0,-0.0067357,0,0,0,0.0047054,-0.00030575,0.0013199,-2.4715,0.0019065,0.0044281,2.5184e-09,0.68,0.78,0
0.03507,-0.0041831,0.0046779,-0.00024279,0.0013305,-0.00025268,0,0,0.052219,-0.024544,0,-0.0078835,0,0,0,0.0046908,-0.00025573,0.0013305,-2.9319,0.0019219,0.0043747,2.4722e-09,0.7,0.78,0
0.03611,-0.0043606,0.0046594,-0.00018402,0.0013426,-0.00027981,0,0,0.051742,-0.023815,0,-0.00873,0,0,0,0.0046755,-0.00020013,0.0013426,-3.2954,0.0019393,0.0043162,2.422e-09,0.72,0.78,0
0.03714,-0.0045517,0.0046416,-0.000123,0.0013556,-0.00029696,0,0,0.051262,-0.023066,0,-0.0092652,0,0,0,0.0046601,-0.00014143,0.0013556,-3.5527,0.0019581,0.0042553,2.3698e-09,0.74,0.78,0
0.03816,-0.0047509,0.0046255,-6.2362e-05,0.001369,-0.0003044,0,0,0.050803,-0.022329,0,-0.0094972,0,0,0,0.0046452,-8.2044e-05,0.001369,-3.6997,0.0019774,0.0041944,2.3178e-09,0.76,0.78,0
0.039172,-0.0049528,0.0046117,-4.3499e-06,0.0013822,-0.00030283,0,0,0.050381,-0.02163,0,-0.0094484,0,0,0,0.0046315,-2.4132e-05,0.0013822,-3.7375,0.0019965,0.0041359,2.2679e-09,0.78,0.78,0
0.040175,-0.0051523,0.0046007,4.9324e-05,0.001395,-0.00029332,0,0,0.050009,-0.020993,0,-0.0091516,0,0,0,0.0046195,3.0498e-05,0.001395,-3.6723,0.002015,0.0040816,2.2219e-09,0.8,0.78,0
0.041172,-0.0053449,0.0045925,9.7497e-05,0.001407,-0.00027709,0,0,0.049694,-0.020428,0,-0.0086453,0,0,0,0.0046095,8.048e-05,0.001407,-3.5142,0.0020323,0.0040329,2.1811e-09,0.82,0.78,0
0.042163,-0.0055264,0.0045871,0.00013952,0.001418,-0.00025542,0,0,0.049438,-0.019944,0,-0.0079692,0,0,0,0.0046017,0.0001249,0.001418,-3.2761,0.0020482,0.0039906,2.146e-09,0.84,0.78,0
0.04315,-0.0056933,0.0045842,0.0001752,0.0014278,-0.00022954,0,0,0.049239,-0.019541,0,-0.0071616,0,0,0,0.0045961,0.00016328,0.0014278,-2.9722,0.0020624,0.0039552,2.1171e-09,0.86,0.78,0
0.044133,-0.005843,0.0045832,0.00020466,0.0014364,-0.00020053,0,0,0.049091,-0.019214,0,-0.0062565,0,0,0,0.0045924,0.0001955,0.0014364,-2.6168,0.0020747,0.0039264,2.0942e-09,0.88,0.78,0
0.045113,-0.005973,0.0045837,0.00022829,0.0014436,-0.00016932,0,0,0.048985,-0.018959,0,-0.0052829,0,0,0,0.0045902,0.00022172,0.0014436,-2.223,0.0020852,0.0039037,2.0766e-09,0.9,0.78,0
0.046092,-0.0060815,0.004585,0.00024659,0.0014495,-0.00013665,0,0,0.048914,-0.018765,0,-0.0042635,0,0,0,0.0045893,0.00024229,0.0014495,-1.8023,0.0020937,0.0038867,2.0638e-09,0.92,0.78,0
0.04707,-0.0061672,0.0045867,0.00026011,0.001454,-0.00010306,0,0,0.04887,-0.018625,0,-0.0032153,0,0,0,0.0045892,0.00025766,0.001454,-1.3637,0.0021003,0.0038744,2.0549e-09,0.94,0.78,0
0.048047,-0.0062291,0.0045883,0.00026935,0.0014573,-6.8929e-05,0,0,0.048843,-0.018532,0,-0.0021506,0,0,0,0.0045894,0.00026825,0.0014573,-0.91412,0.002105,0.0038663,2.0492e-09,0.96,0.78,0
0.049023,-0.0062664,0.0045894,0.00027473,0.0014592,-3.4523e-05,0,0,0.04883,-0.018478,0,-0.0010771,0,0,0,0.0045896,0.00027445,0.0014592,-0.4584,0.0021078,0.0038616,2.046e-09,0.98,0.78,0
0.05,-0.0062789,0.0045898,0.00027648,0.0014599,-2.0034e-05,0,0,0.048826,-0.018461,0,-0.00062506,0,0,0,0.0045898,0.00027639,0.0014599,-0.26612,0.0021087,0.0038603,2.0452e-09,1,0.78,0
0,0,0.0046367,0.0019872,0.0019872,-0.00095277,0,0,0.041333,-6.5052e-19,0,-0.029726,0,0,0,0.0049438,0.0016801,0.0019872,-17.862,0.0028704,0.0031215,1.5112e-09,0,0.8,0
0.00082666,-0.00059453,0.004625,0.0018334,0.0019375,-0.00094555,0,0,0.041925,-0.0016243,0,-0.029501,0,0,0,0.0049151,0.0015433,0.0019375,-17.057,0.0027986,0.003193,1.5864e-09,0.02,0.8,0
0.001677,-0.0011755,0.0046747,0.0016916,0.0019099,-0.00091902,0,0,0.043131,-0.0034053,0,-0.028673,0,0,0,0.0049351,0.0014312,0.0019099,-15.82,0.0027587,0.0032908,1.7005e-09,0.04,0.8,0
0.0025519,-0.0017368,0.0047225,0.0015422,0.0018794,-0.00087835,0,0,0.044352,-0.0052605,0,-0.027404,0,0,0,0.0049489,0.0013157,0.0018794,-14.457,0.0027147,0.0033868,1.8103e-09,0.06,0.8,0
0.0034511,-0.0022714,0.0047653,0.001392,0.0018472,-0.00082368,0,0,0.045522,-0.0071008,0,-0.025699,0,0,0,0.0049557,0.0012016,0.0018472,-13.014,0.0026682,0.0034765,1.9096e-09,0.08,0.8,0
0.0043728,-0.0027729,0.0048007,0.0012472,0.0018143,-0.00075672,0,0,0.046586,-0.0088477,0,-0.023609,0,0,0,0.0049551,0.0010928,0.0018143,-11.535,0.0026207,0.0035568,1.9942e-09,0.1,0.8,0
0.0053145,-0.0032353,0.0048269,0.0011122,0.0017817,-0.00068025,0,0,0.047505,-0.010445,0,-0.021224,0,0,0,0.0049476,0.00099153,0.0017817,-10.057,0.0025736,0.0036261,2.0622e-09,0.12,0.8,0
0.006273,-0.0036542,0.0048436,0.00098956,0.0017499,-0.00059745,0,0,0.048261,-0.011862,0,-0.018641,0,0,0,0.0049341,0.00089906,0.0017499,-8.6127,0.0025277,0.003684,2.1135e-09,0.14,0.8,0
0.007245,-0.0040263,0.0048511,0.00088018,0.0017194,-0.00051135,0,0,0.048854,-0.013091,0,-0.015954,0,0,0,0.0049159,0.00081539,0.0017194,-7.2214,0.0024835,0.0037315,2.1498e-09,0.16,0.8,0
0.0082272,-0.0043498,0.0048504,0.00078364,0.0016902,-0.00042449,0,0,0.049299,-0.014142,0,-0.013244,0,0,0,0.0048942,0.00073981,0.0016902,-5.8959,0.0024414,0.0037701,2.1739e-09,0.18,0.8,0
0.0092169,-0.0046239,0.004843,0.00069868,0.0016625,-0.0003388,0,0,0.049615,-0.015036,0,-0.010571,0,0,0,0.0048705,0.00067116,0.0016625,-4.6429,0.0024014,0.0038019,2.1887e-09,0.2,0.8,0
0.010212,-0.004849,0.0048305,0.00062355,0.0016362,-0.0002557,0,0,0.049831,-0.015798,0,-0.0079778,0,0,0,0.004846,0.00060807,0.0016362,-3.4654,0.0023634,0.0038288,2.1973e-09,0.22,0.8,0
0.01121,-0.0050261,0.0048147,0.00055632,0.0016113,-0.00017616,0,0,0.049973,-0.016458,0,-0.0054963,0,0,0,0.0048219,0.00054904,0.0016113,-2.3649,0.0023274,0.0038532,2.2027e-09,0.24,0.8,0
0.012211,-0.0051569,0.0047969,0.00049497,0.0015876,-0.00010088,0,0,0.050066,-0.017045,0,-0.0031476,0,0,0,0.0047993,0.0004926,0.0015876,-1.3427,0.0022931,0.003877,2.2076e-09,0.26,0.8,0
0.013213,-0.0052438,0.0047786,0.00043758,0.0015649,-3.0418e-05,0,0,0.050135,-0.017586,0,-0.00094905,0,0,0,0.0047789,0.00043737,0.0015649,-0.40145,0.0022604,0.0039019,2.214e-09,0.28,0.8,0
0.014216,-0.0052896,0.0047611,0.00038239,0.001543,3.4724e-05,0,0,0.050202,-0.018106,0,0.0010834,0,0,0,0.0047614,0.00038212,0.001543,0.45433,0.0022288,0.0039296,2.2239e-09,0.3,0.8,0
0.015221,-0.0052975,0.0047453,0.00032785,0.0015219,9.3988e-05,0,0,0.050284,-0.018628,0,0.0029324,0,0,0,0.0047472,0.00032585,0.0015219,1.2183,0.0021983,0.0039612,2.2384e-09,0.32,0.8,0
0.016227,-0.0052713,0.004732,0.00027268,0.0015014,0.00014673,0,0,0.050397,-0.019168,0,0.004578,0,0,0,0.0047368,0.00026786,0.0015014,1.8826,0.0021687,0.0039975,2.2585e-09,0.34,0.8,0
0.017237,-0.0052152,0.0047218,0.00021598,0.0014813,0.00019221,0,0,0.050552,-0.01974,0,0.0059969,0,0,0,0.00473,0.00020779,0.0014813,2.4382,0.0021397,0.004039,2.2844e-09,0.36,0.8,0
0.018249,-0.005134,0.0047152,0.00015722,0.0014617,0.00022959,0,0,0.050755,-0.020351,0,0.0071631,0,0,0,0.0047268,0.00014568,0.0014617,2.8763,0.0021114,0.0040853,2.3158e-09,0.38,0.8,0
0.019267,-0.0050328,0.0047123,9.6367e-05,0.0014426,0.000258,0,0,0.051007,-0.021001,0,0.0080497,0,0,0,0.0047267,8.1991e-05,0.0014426,3.1892,0.0020838,0.0041358,2.3519e-09,0.4,0.8,0
0.02029,-0.0049173,0.0047129,3.3871e-05,0.001424,0.00027663,0,0,0.051306,-0.021686,0,0.0086308,0,0,0,0.0047292,1.7573e-05,0.001424,3.3718,0.0020569,0.0041893,2.3915e-09,0.42,0.8,0
0.021319,-0.0047934,0.0047165,-2.9307e-05,0.0014062,0.00028477,0,0,0.051641,-0.022393,0,0.008885,0,0,0,0.0047335,-4.6334e-05,0.0014062,3.4217,0.0020311,0.0042443,2.4327e-09,0.44,0.8,0
0.022356,-0.0046672,0.0047225,-9.1736e-05,0.0013892,0.000282,0,0,0.052,-0.023103,0,0.0087983,0,0,0,0.004739,-0.0001082,0.0013892,3.3409,0.0020067,0.0042988,2.4739e-09,0.46,0.8,0
0.023399,-0.0045451,0.0047301,-0.00015161,0.0013736,0.00026821,0,0,0.052362,-0.023793,0,0.0083683,0,0,0,0.0047448,-0.0001663,0.0013736,3.1354,0.001984,0.0043506,2.5128e-09,0.48,0.8,0
0.02445,-0.004433,0.0047382,-0.00020688,0.0013594,0.00024377,0,0,0.052709,-0.024434,0,0.0076056,0,0,0,0.0047501,-0.00021886,0.0013594,2.8154,0.0019636,0.0043977,2.5476e-09,0.5,0.8,0
0.025507,-0.0043366,0.0047456,-0.00025542,0.0013471,0.0002095,0,0,0.053018,-0.024999,0,0.0065363,0,0,0,0.0047544,-0.00026418,0.0013471,2.3946,0.0019458,0.004438,2.5766e-09,0.52,0.8,0
0.026571,-0.0042611,0.0047515,-0.00029526,0.0013369,0.00016671,0,0,0.053268,-0.025461,0,0.0052014,0,0,0,0.004757,-0.00030076,0.0013369,1.8899,0.001931,0.0044699,2.5983e-09,0.54,0.8,0
0.027638,-0.0042105,0.0047548,-0.0003247,0.001329,0.00011715,0,0,0.053442,-0.025798,0,0.003655,0,0,0,0.0047576,-0.0003274,0.001329,1.3205,0.0019197,0.0044919,2.6117e-09,0.56,0.8,0
0.028708,-0.004188,0.004755,-0.00034252,0.0013237,6.2897e-05,0,0,0.053528,-0.025994,0,0.0019624,0,0,0,0.0047558,-0.0003433,0.0013237,0.70681,0.0019121,0.0045032,2.6163e-09,0.58,0.8,0
0.029779,-0.0041958,0.0047515,-0.00034806,0.001321,6.2612e-06,0,0,0.053516,-0.026038,0,0.00019535,0,0,0,0.0047515,-0.00034807,0.001321,0.070346,0.0019082,0.0045033,2.6116e-09,0.6,0.8,0
0.030849,-0.0042344,0.0047443,-0.00034127,0.0013209,-5.0365e-05,0,0,0.053405,-0.02593,0,-0.0015714,0,0,0,0.0047448,-0.00034177,0.0013209,-0.56736,0.001908,0.0044922,2.5978e-09,0.62,0.8,0
0.031915,-0.0043035,0.0047334,-0.00032274,0.0013232,-0.00010464,0,0,0.053199,-0.025677,0,-0.0032648,0,0,0,0.0047356,-0.00032491,0.0013232,-1.1851,0.0019113,0.0044704,2.5753e-09,0.64,0.8,0
0.032977,-0.0044012,0.0047194,-0.00029366,0.0013277,-0.00015443,0,0,0.05291,-0.025294,0,-0.0048181,0,0,0,0.0047242,-0.00029842,0.0013277,-1.7628,0.0019178,0.0044388,2.5447e-09,0.66,0.8,0
0.034032,-0.0045249,0.0047029,-0.00025573,0.0013342,-0.0001979,0,0,0.052552,-0.024802,0,-0.0061745,0,0,0,0.0047108,-0.00026361,0.0013342,-2.2818,0.0019271,0.0043988,2.5072e-09,0.68,0.8,0
0.035079,-0.0046709,0.0046847,-0.00021101,0.0013421,-0.00023367,0,0,0.052145,-0.024229,0,-0.0072905,0,0,0,0.0046959,-0.00022214,0.0013421,-2.7264,0.0019386,0.0043521,2.4641e-09,0.7,0.8,0
0.036118,-0.0048348,0.0046659,-0.00016179,0.0013512,-0.00026083,0,0,0.051708,-0.023603,0,-0.0081379,0,0,0,0.0046799,-0.00017584,0.0013512,-3.0836,0.0019518,0.0043006,2.4169e-09,0.72,0.8,0
0.037147,-0.005012,0.0046472,-0.00011036,0.0013611,-0.000279,0,0,0.051264,-0.022954,0,-0.0087047,0,0,0,0.0046635,-0.00012667,0.0013611,-3.3447,0.001966,0.0042465,2.3676e-09,0.74,0.8,0
0.038168,-0.0051974,0.0046296,-5.8876e-05,0.0013712,-0.00028825,0,0,0.050831,-0.022309,0,-0.0089935,0,0,0,0.0046472,-7.6532e-05,0.0013712,-3.505,0.0019806,0.0041918,2.318e-09,0.76,0.8,0
0.039181,-0.0053862,0.0046137,-9.186e-06,0.0013813,-0.00028908,0,0,0.050424,-0.021692,0,-0.0090194,0,0,0,0.0046317,-2.7193e-05,0.0013813,-3.5644,0.0019953,0.0041384,2.2697e-09,0.78,0.8,0
0.040185,-0.0055736,0.0045999,3.7241e-05,0.0013911,-0.00028227,0,0,0.050056,-0.021121,0,-0.0088069,0,0,0,0.0046173,1.9845e-05,0.0013911,-3.5267,0.0020094,0.0040881,2.2243e-09,0.8,0.8,0
0.041183,-0.0057554,0.0045885,7.9357e-05,0.0014004,-0.0002688,0,0,0.049735,-0.020608,0,-0.0083864,0,0,0,0.0046045,6.339e-05,0.0014004,-3.3994,0.0020227,0.004042,2.1829e-09,0.82,0.8,0
0.042175,-0.0059275,0.0045796,0.00011652,0.0014088,-0.00024971,0,0,0.049464,-0.02016,0,-0.007791,0,0,0,0.0045935,0.00010259,0.0014088,-3.1925,0.002035,0.004001,2.1464e-09,0.84,0.8,0
0.043161,-0.0060866,0.0045729,0.00014844,0.0014164,-0.00022608,0,0,0.049242,-0.01978,0,-0.0070535,0,0,0,0.0045844,0.00013692,0.0014164,-2.9175,0.0020459,0.0039657,2.1152e-09,0.86,0.8,0
0.044144,-0.0062298,0.0045683,0.00017512,0.001423,-0.00019887,0,0,0.049066,-0.019467,0,-0.0062046,0,0,0,0.0045773,0.00016614,0.001423,-2.5866,0.0020555,0.0039362,2.0893e-09,0.88,0.8,0
0.045124,-0.0063547,0.0045653,0.00019679,0.0014286,-0.00016896,0,0,0.048932,-0.019217,0,-0.0052714,0,0,0,0.0045718,0.00019026,0.0014286,-2.2115,0.0020636,0.0039122,2.0686e-09,0.9,0.8,0
0.046102,-0.0064593,0.0045636,0.00021376,0.0014332,-0.00013708,0,0,0.048834,-0.019023,0,-0.0042768,0,0,0,0.0045679,0.00020945,0.0014332,-1.8032,0.0020702,0.0038936,2.0526e-09,0.92,0.8,0
0.047077,-0.0065422,0.0045627,0.00022643,0.0014367,-0.00010382,0,0,0.048765,-0.018881,0,-0.0032392,0,0,0,0.0045652,0.00022395,0.0014367,-1.3707,0.0020753,0.0038797,2.0409e-09,0.94,0.8,0
0.048052,-0.0066021,0.0045624,0.00023518,0.0014393,-6.966e-05,0,0,0.04872,-0.018784,0,-0.0021734,0,0,0,0.0045635,0.00023405,0.0014393,-0.92204,0.0020789,0.0038702,2.033e-09,0.96,0.8,0
0.049026,-0.0066384,0.0045623,0.00024029,0.0014408,-3.4956e-05,0,0,0.048695,-0.018728,0,-0.0010906,0,0,0,0.0045626,0.00024001,0.0014408,-0.46337,0.0020811,0.0038647,2.0284e-09,0.98,0.8,0
0.05,-0.0066505,0.0045623,0.00024197,0.0014413,-1.9451e-05,0,0,0.048687,-0.018709,0,-0.00060689,0,0,0,0.0045623,0.00024188,0.0014413,-0.25796,0.0020818,0.003863,2.0271e-09,1,0.8,0
0,0,0.0046296,0.0019841,0.0019841,-0.0010072,0,0,0.041269,-1.0842e-19,0,-0.031423,0,0,0,0.0049694,0.0016443,0.0019841,-18.643,0.0028659,0.0031688,1.5711e-09,0,0.82,0
0.00082539,-0.00062846,0.0046167,0.0018149,0.0019295,-0.00099915,0,0,0.041921,-0.001788,0,-0.031173,0,0,0,0.0049365,0.0014951,0.0019295,-17.748,0.002787,0.0032461,1.6512e-09,0.02,0.82,0
0.0016768,-0.0012468,0.0046708,0.0016567,0.0018983,-0.00097216,0,0,0.043252,-0.0037679,0,-0.030331,0,0,0,0.0049571,0.0013704,0.0018983,-16.413,0.0027419,0.0033541,1.7773e-09,0.04,0.82,0
0.0025554,-0.001847,0.004722,0.0014902,0.0018637,-0.00092703,0,0,0.04459,-0.0058261,0,-0.028923,0,0,0,0.004969,0.0012432,0.0018637,-14.921,0.0026919,0.0034576,1.8946e-09,0.06,0.82,0
0.0034605,-0.00242,0.0047666,0.0013247,0.0018274,-0.00086438,0,0,0.045852,-0.0078422,0,-0.026969,0,0,0,0.0049715,0.0011198,0.0018274,-13.334,0.0026396,0.0035512,1.9957e-09,0.08,0.82,0
0.0043895,-0.0029577,0.0048017,0.001168,0.0017909,-0.00078717,0,0,0.046968,-0.0097172,0,-0.02456,0,0,0,0.0049649,0.0010048,0.0017909,-11.713,0.0025869,0.0036314,2.0763e-09,0.1,0.82,0
0.0053392,-0.0034529,0.0048257,0.0010253,0.0017553,-0.00069967,0,0,0.047898,-0.011388,0,-0.02183,0,0,0,0.0049504,0.00090057,0.0017553,-10.107,0.0025354,0.0036973,2.1356e-09,0.12,0.82,0
0.0063055,-0.0039005,0.0048386,0.00089883,0.0017212,-0.00060635,0,0,0.048631,-0.012829,0,-0.018918,0,0,0,0.0049298,0.00080762,0.0017212,-8.5544,0.0024862,0.0037498,2.1756e-09,0.14,0.82,0
0.0072844,-0.0042972,0.0048414,0.00078876,0.0016891,-0.00051108,0,0,0.049177,-0.014045,0,-0.015946,0,0,0,0.0049049,0.0007253,0.0016891,-7.0779,0.0024398,0.0037907,2.1998e-09,0.16,0.82,0
0.0082725,-0.0046414,0.004836,0.00069383,0.0016589,-0.00041686,0,0,0.049562,-0.015056,0,-0.013006,0,0,0,0.0048775,0.00065229,0.0016589,-5.6901,0.0023963,0.0038226,2.2122e-09,0.18,0.82,0
0.0092669,-0.004933,0.0048244,0.00061202,0.0016309,-0.00032575,0,0,0.049818,-0.015895,0,-0.010163,0,0,0,0.0048494,0.00058698,0.0016309,-4.3959,0.0023558,0.0038482,2.2168e-09,0.2,0.82,0
0.010265,-0.0051729,0.0048086,0.00054105,0.0016049,-0.00023907,0,0,0.049978,-0.016596,0,-0.0074589,0,0,0,0.004822,0.0005277,0.0016049,-3.1963,0.0023182,0.0038698,2.2172e-09,0.22,0.82,0
0.011266,-0.0053626,0.0047906,0.00047858,0.0015807,-0.00015761,0,0,0.050074,-0.017194,0,-0.0049176,0,0,0,0.0047963,0.00047283,0.0015807,-2.0906,0.0022833,0.0038898,2.2163e-09,0.24,0.82,0
0.012268,-0.0055047,0.0047719,0.00042243,0.0015583,-8.1871e-05,0,0,0.050132,-0.017719,0,-0.0025544,0,0,0,0.0047734,0.00042089,0.0015583,-1.078,0.0022509,0.0039099,2.2167e-09,0.26,0.82,0
0.013271,-0.0056019,0.0047537,0.00037062,0.0015373,-1.2169e-05,0,0,0.050176,-0.0182,0,-0.00037966,0,0,0,0.0047538,0.00037058,0.0015373,-0.15907,0.0022205,0.0039318,2.2201e-09,0.28,0.82,0
0.014275,-0.0056575,0.0047373,0.00032139,0.0015176,5.119e-05,0,0,0.050227,-0.018661,0,0.0015971,0,0,0,0.0047378,0.00032079,0.0015176,0.66407,0.0021921,0.0039568,2.2279e-09,0.3,0.82,0
0.01528,-0.0056753,0.0047233,0.00027328,0.001499,0.00010786,0,0,0.050299,-0.019121,0,0.0033651,0,0,0,0.0047259,0.00027067,0.001499,1.3876,0.0021652,0.0039857,2.2409e-09,0.32,0.82,0
0.016287,-0.0056593,0.0047124,0.00022514,0.0014813,0.00015739,0,0,0.050406,-0.019596,0,0.0049107,0,0,0,0.0047179,0.00021963,0.0014813,2.0064,0.0021396,0.0040189,2.2597e-09,0.34,0.82,0
0.017297,-0.0056139,0.004705,0.00017615,0.0014643,0.00019928,0,0,0.050554,-0.020096,0,0.0062174,0,0,0,0.0047138,0.0001674,0.0014643,2.5146,0.0021152,0.0040565,2.284e-09,0.36,0.82,0
0.018309,-0.0055441,0.0047012,0.00012587,0.0014481,0.00023291,0,0,0.050749,-0.020627,0,0.0072668,0,0,0,0.0047131,0.00011404,0.0014481,2.9066,0.0020917,0.0040982,2.3135e-09,0.38,0.82,0
0.019326,-0.0054551,0.004701,7.4255e-05,0.0014326,0.00025768,0,0,0.050988,-0.02119,0,0.0080396,0,0,0,0.0047153,5.9948e-05,0.0014326,3.1779,0.0020693,0.0041433,2.3472e-09,0.4,0.82,0
0.020349,-0.0053523,0.004704,2.1683e-05,0.0014177,0.00027301,0,0,0.051267,-0.021778,0,0.008518,0,0,0,0.0047199,5.8188e-06,0.0014177,3.3257,0.0020478,0.0041905,2.3838e-09,0.42,0.82,0
0.021377,-0.0052414,0.0047098,-3.1065e-05,0.0014036,0.00027847,0,0,0.051576,-0.022381,0,0.0086882,0,0,0,0.0047261,-4.7365e-05,0.0014036,3.3501,0.0020275,0.0042385,2.4219e-09,0.44,0.82,0
0.022412,-0.0051283,0.0047176,-8.2846e-05,0.0013904,0.00027382,0,0,0.051903,-0.022983,0,0.0085432,0,0,0,0.0047331,-9.8414e-05,0.0013904,3.2542,0.0020084,0.0042857,2.4596e-09,0.46,0.82,0
0.023453,-0.0050188,0.0047265,-0.00013223,0.0013783,0.00025915,0,0,0.052232,-0.023564,0,0.0080855,0,0,0,0.0047402,-0.00014601,0.0013783,3.0445,0.0019908,0.0043302,2.4953e-09,0.48,0.82,0
0.024501,-0.0049184,0.0047355,-0.00017759,0.0013674,0.00023489,0,0,0.052543,-0.024102,0,0.0073284,0,0,0,0.0047468,-0.0001888,0.0013674,2.7309,0.0019751,0.0043704,2.5272e-09,0.5,0.82,0
0.025555,-0.0048324,0.0047438,-0.00021729,0.001358,0.00020186,0,0,0.052819,-0.024574,0,0.0062979,0,0,0,0.004752,-0.00022549,0.001358,2.3261,0.0019615,0.0044047,2.5538e-09,0.52,0.82,0
0.026614,-0.0047652,0.0047504,-0.00024976,0.0013502,0.00016128,0,0,0.053043,-0.024959,0,0.0050319,0,0,0,0.0047555,-0.00025496,0.0013502,1.8455,0.0019502,0.0044316,2.5739e-09,0.54,0.82,0
0.027677,-0.0047208,0.0047543,-0.0002737,0.0013442,0.00011472,0,0,0.053198,-0.025239,0,0.0035794,0,0,0,0.0047569,-0.00027632,0.0013442,1.3064,0.0019416,0.0044501,2.5865e-09,0.56,0.82,0
0.028742,-0.0047019,0.0047551,-0.00028814,0.0013401,6.4039e-05,0,0,0.053274,-0.0254,0,0.001998,0,0,0,0.0047559,-0.00028895,0.0013401,0.72738,0.0019357,0.0044594,2.5909e-09,0.58,0.82,0
0.029808,-0.0047104,0.0047523,-0.00029255,0.0013379,1.1254e-05,0,0,0.053264,-0.025435,0,0.00035114,0,0,0,0.0047523,-0.00029258,0.0013379,0.12782,0.0019325,0.0044591,2.5869e-09,0.6,0.82,0
0.030873,-0.004747,0.0047458,-0.00028692,0.0013377,-4.1528e-05,0,0,0.053167,-0.025343,0,-0.0012957,0,0,0,0.0047461,-0.00028726,0.0013377,-0.47274,0.0019322,0.0044493,2.5744e-09,0.62,0.82,0
0.031934,-0.0048114,0.0047357,-0.00027171,0.0013392,-9.2255e-05,0,0,0.052985,-0.02513,0,-0.0028784,0,0,0,0.0047374,-0.00027341,0.0013392,-1.0551,0.0019344,0.0044304,2.5539e-09,0.64,0.82,0
0.032992,-0.0049021,0.0047224,-0.00024786,0.0013423,-0.00013904,0,0,0.052728,-0.024807,0,-0.0043381,0,0,0,0.0047262,-0.00025175,0.0013423,-1.6012,0.001939,0.004403,2.5258e-09,0.66,0.82,0
0.034043,-0.0050168,0.0047064,-0.00021671,0.0013469,-0.00018027,0,0,0.052408,-0.024392,0,-0.0056244,0,0,0,0.004713,-0.00022331,0.0013469,-2.0943,0.0019455,0.0043682,2.4913e-09,0.68,0.82,0
0.035088,-0.0051523,0.0046885,-0.0001799,0.0013526,-0.00021468,0,0,0.052041,-0.023907,0,-0.006698,0,0,0,0.004698,-0.00018935,0.0013526,-2.52,0.0019537,0.0043276,2.4514e-09,0.7,0.82,0
0.036125,-0.0053047,0.0046696,-0.00013922,0.0013591,-0.00024141,0,0,0.051644,-0.023374,0,-0.0075319,0,0,0,0.0046817,-0.00015131,0.0013591,-2.8667,0.0019632,0.0042825,2.4075e-09,0.72,0.82,0
0.037154,-0.0054698,0.0046504,-9.6509e-05,0.0013662,-0.00026002,0,0,0.051234,-0.022818,0,-0.0081127,0,0,0,0.0046646,-0.00011071,0.0013662,-3.126,0.0019734,0.0042346,2.3613e-09,0.74,0.82,0
0.038175,-0.0056433,0.0046317,-5.348e-05,0.0013735,-0.00027048,0,0,0.050828,-0.02226,0,-0.0084391,0,0,0,0.0046473,-6.9044e-05,0.0013735,-3.2932,0.0019839,0.0041858,2.3142e-09,0.76,0.82,0
0.039187,-0.0058205,0.0046142,-1.1653e-05,0.0013808,-0.0002731,0,0,0.050441,-0.021722,0,-0.0085209,0,0,0,0.0046302,-2.7721e-05,0.0013808,-3.3671,0.0019944,0.0041376,2.2679e-09,0.78,0.82,0
0.040192,-0.0059972,0.0045982,2.7742e-05,0.0013878,-0.00026846,0,0,0.050083,-0.021217,0,-0.0083761,0,0,0,0.004614,1.2027e-05,0.0013878,-3.3501,0.0020046,0.0040914,2.2236e-09,0.8,0.82,0
0.04119,-0.0061692,0.0045843,6.3788e-05,0.0013944,-0.00025733,0,0,0.049762,-0.020758,0,-0.0080287,0,0,0,0.0045989,4.9187e-05,0.0013944,-3.2476,0.0020142,0.0040484,2.1825e-09,0.82,0.82,0
0.042183,-0.0063327,0.0045725,9.5886e-05,0.0014005,-0.00024058,0,0,0.049483,-0.020352,0,-0.007506,0,0,0,0.0045854,8.2994e-05,0.0014005,-3.0674,0.0020229,0.0040094,2.1454e-09,0.84,0.82,0
0.04317,-0.0064846,0.0045628,0.00012372,0.0014059,-0.00021911,0,0,0.049246,-0.020003,0,-0.0068361,0,0,0,0.0045736,0.00011293,0.0014059,-2.8189,0.0020308,0.0039751,2.1129e-09,0.86,0.82,0
0.044152,-0.0066217,0.004555,0.00014722,0.0014107,-0.0001938,0,0,0.049052,-0.01971,0,-0.0060465,0,0,0,0.0045636,0.00013871,0.0014107,-2.5126,0.0020376,0.0039457,2.0851e-09,0.88,0.82,0
0.045132,-0.0067416,0.0045491,0.00016647,0.0014147,-0.00016546,0,0,0.048898,-0.019472,0,-0.0051622,0,0,0,0.0045554,0.00016023,0.0014147,-2.1589,0.0020434,0.0039214,2.0622e-09,0.9,0.82,0
0.046108,-0.0068424,0.0045448,0.00018169,0.0014179,-0.0001348,0,0,0.048779,-0.019286,0,-0.0042057,0,0,0,0.0045489,0.00017753,0.0014179,-1.7679,0.0020481,0.003902,2.0441e-09,0.92,0.82,0
0.047083,-0.0069224,0.0045417,0.00019315,0.0014205,-0.00010244,0,0,0.048692,-0.019146,0,-0.0031961,0,0,0,0.0045441,0.00019074,0.0014205,-1.3487,0.0020518,0.0038873,2.0304e-09,0.94,0.82,0
0.048056,-0.0069804,0.0045397,0.0002011,0.0014222,-6.8902e-05,0,0,0.048633,-0.01905,0,-0.0021498,0,0,0,0.0045408,0.00020001,0.0014222,-0.90962,0.0020544,0.003877,2.0208e-09,0.96,0.82,0
0.049028,-0.0070155,0.0045386,0.00020578,0.0014233,-3.4628e-05,0,0,0.048598,-0.018993,0,-0.0010804,0,0,0,0.0045389,0.0002055,0.0014233,-0.45787,0.0020559,0.0038709,2.0152e-09,0.98,0.82,0
0.05,-0.0070273,0.0045382,0.00020732,0.0014237,-1.8853e-05,0,0,0.048587,-0.018975,0,-0.00058822,0,0,0,0.0045383,0.00020724,0.0014237,-0.24941,0.0020564,0.003869,2.0135e-09,1,0.82,0
0,0,0.0046362,0.0019869,0.0019869,-0.0010674,0,0,0.041328,5.421e-19,0,-0.033302,0,0,0,0.0050127,0.0016104,0.0019869,-19.431,0.00287,0.0032305,1.6526e-09,0,0.84,0
0.00082656,-0.00066605,0.0046219,0.0017981,0.001926,-0.0010582,0,0,0.042056,-0.0019954,0,-0.033016,0,0,0,0.0049745,0.0014455,0.001926,-18.426,0.002782,0.0033149,1.7391e-09,0.02,0.84,0
0.0016822,-0.0013262,0.0046809,0.0016184,0.0018898,-0.0010302,0,0,0.043541,-0.0042339,0,-0.032141,0,0,0,0.0049951,0.0013041,0.0018898,-16.965,0.0027297,0.0034358,1.8807e-09,0.04,0.84,0
0.0025682,-0.0019698,0.0047354,0.0014298,0.0018495,-0.00097849,0,0,0.045019,-0.0065489,0,-0.030529,0,0,0,0.0050033,0.0011618,0.0018495,-15.313,0.0026716,0.003548,2.0065e-09,0.06,0.84,0
0.003483,-0.0025851,0.0047807,0.0012456,0.0018079,-0.00090492,0,0,0.046376,-0.0087714,0,-0.028234,0,0,0,0.0049989,0.0010275,0.0018079,-13.555,0.0026114,0.0036445,2.1069e-09,0.08,0.84,0
0.0044232,-0.0031616,0.0048134,0.001076,0.0017668,-0.00081454,0,0,0.047527,-0.010776,0,-0.025414,0,0,0,0.0049832,0.00090623,0.0017668,-11.776,0.0025521,0.0037221,2.1786e-09,0.1,0.84,0
0.0053841,-0.0036909,0.0048323,0.00092632,0.0017276,-0.0007138,0,0,0.048434,-0.0125,0,-0.022271,0,0,0,0.0049587,0.00079996,0.0017276,-10.038,0.0024954,0.0037812,2.2234e-09,0.12,0.84,0
0.0063606,-0.0041674,0.0048383,0.00079785,0.0016908,-0.00060879,0,0,0.0491,-0.013931,0,-0.018994,0,0,0,0.004928,0.00070811,0.0016908,-8.385,0.0024423,0.0038244,2.2461e-09,0.14,0.84,0
0.0073481,-0.0045881,0.0048335,0.00068937,0.0016569,-0.00050422,0,0,0.049556,-0.015093,0,-0.015732,0,0,0,0.004894,0.00062891,0.0016569,-6.8383,0.0023932,0.0038553,2.2527e-09,0.16,0.84,0
0.0083428,-0.004952,0.0048208,0.00059835,0.0016258,-0.0004033,0,0,0.049843,-0.016027,0,-0.012583,0,0,0,0.004859,0.00056018,0.0016258,-5.4073,0.0023483,0.0038774,2.2492e-09,0.18,0.84,0
0.0093418,-0.0052597,0.004803,0.0005218,0.0015974,-0.00030792,0,0,0.050007,-0.01678,0,-0.0096071,0,0,0,0.004825,0.00049977,0.0015974,-4.0929,0.0023074,0.0038942,2.2403e-09,0.2,0.84,0
0.010343,-0.0055128,0.0047825,0.00045677,0.0015718,-0.00021907,0,0,0.050087,-0.017394,0,-0.0068349,0,0,0,0.0047935,0.00044571,0.0015718,-2.8918,0.0022703,0.0039084,2.2299e-09,0.22,0.84,0
0.011345,-0.0057138,0.0047612,0.00040058,0.0015486,-0.00013716,0,0,0.050118,-0.017908,0,-0.0042793,0,0,0,0.0047656,0.00039627,0.0015486,-1.7997,0.0022368,0.0039222,2.221e-09,0.24,0.84,0
0.012348,-0.0058657,0.0047409,0.00035087,0.0015275,-6.2316e-05,0,0,0.050128,-0.018356,0,-0.0019443,0,0,0,0.0047418,0.00034998,0.0015275,-0.81309,0.0022064,0.0039374,2.2155e-09,0.26,0.84,0
0.01335,-0.0059718,0.0047225,0.00030561,0.0015084,5.4268e-06,0,0,0.05014,-0.018764,0,0.00016931,0,0,0,0.0047225,0.0003056,0.0015084,0.070395,0.0021788,0.0039552,2.2149e-09,0.28,0.84,0
0.014353,-0.006036,0.004707,0.00026311,0.001491,6.6033e-05,0,0,0.050169,-0.019155,0,0.0020602,0,0,0,0.004708,0.00026213,0.001491,0.85112,0.0021537,0.0039765,2.22e-09,0.3,0.84,0
0.015357,-0.0060623,0.0046949,0.00022201,0.0014751,0.00011938,0,0,0.050229,-0.019548,0,0.0037247,0,0,0,0.004698,0.00021882,0.0014751,1.5278,0.0021306,0.0040018,2.2311e-09,0.32,0.84,0
0.016362,-0.0060551,0.0046864,0.00018126,0.0014603,0.00016526,0,0,0.050328,-0.019953,0,0.005156,0,0,0,0.0046925,0.00017521,0.0014603,2.0979,0.0021093,0.0040314,2.2483e-09,0.34,0.84,0
0.01737,-0.0060191,0.0046819,0.00014014,0.0014466,0.00020333,0,0,0.050471,-0.020381,0,0.0063439,0,0,0,0.004691,0.00013106,0.0014466,2.5583,0.0020895,0.0040651,2.2712e-09,0.36,0.84,0
0.018381,-0.0059591,0.0046811,9.8268e-05,0.0014338,0.00023322,0,0,0.050658,-0.020835,0,0.0072766,0,0,0,0.004693,8.643e-05,0.0014338,2.9058,0.0020711,0.0041023,2.2991e-09,0.38,0.84,0
0.019397,-0.0058804,0.0046838,5.5591e-05,0.0014218,0.00025453,0,0,0.050887,-0.021313,0,0.0079412,0,0,0,0.0046978,4.1635e-05,0.0014218,3.1383,0.0020538,0.0041423,2.331e-09,0.4,0.84,0
0.020417,-0.0057884,0.0046896,1.2408e-05,0.0014106,0.00026687,0,0,0.051153,-0.021812,0,0.0083264,0,0,0,0.0047048,-2.77e-06,0.0014106,3.2551,0.0020375,0.0041839,2.3656e-09,0.42,0.84,0
0.021443,-0.0056886,0.0046978,-3.0661e-05,0.0014001,0.00027002,0,0,0.051444,-0.022321,0,0.0084246,0,0,0,0.0047132,-4.603e-05,0.0014001,3.2577,0.0020224,0.004226,2.4015e-09,0.44,0.84,0
0.022475,-0.0055866,0.0047077,-7.2715e-05,0.0013905,0.0002639,0,0,0.051749,-0.022826,0,0.0082336,0,0,0,0.0047222,-8.7239e-05,0.0013905,3.1502,0.0020085,0.004267,2.437e-09,0.46,0.84,0
0.023513,-0.0054876,0.0047184,-0.00011263,0.0013817,0.0002487,0,0,0.052052,-0.023312,0,0.0077593,0,0,0,0.0047312,-0.0001254,0.0013817,2.9392,0.0019958,0.0043056,2.4706e-09,0.48,0.84,0
0.024557,-0.0053971,0.004729,-0.00014916,0.0013739,0.0002249,0,0,0.052338,-0.02376,0,0.0070168,0,0,0,0.0047393,-0.00015951,0.0013739,2.6341,0.0019846,0.0043403,2.5007e-09,0.5,0.84,0
0.025606,-0.0053196,0.0047385,-0.00018102,0.0013672,0.00019331,0,0,0.052591,-0.024153,0,0.0060311,0,0,0,0.0047461,-0.0001886,0.0013672,2.2468,0.0019749,0.0043697,2.526e-09,0.52,0.84,0
0.02666,-0.0052594,0.0047461,-0.000207,0.0013617,0.00015505,0,0,0.052796,-0.024472,0,0.0048375,0,0,0,0.0047509,-0.00021185,0.0013617,1.7912,0.0019669,0.0043927,2.5454e-09,0.54,0.84,0
0.027718,-0.00522,0.004751,-0.0002261,0.0013575,0.00011153,0,0,0.052939,-0.024704,0,0.0034798,0,0,0,0.0047535,-0.0002286,0.0013575,1.2831,0.0019608,0.0044085,2.5578e-09,0.56,0.84,0
0.028778,-0.0052041,0.0047527,-0.00023756,0.0013545,6.4397e-05,0,0,0.053012,-0.024837,0,0.0020092,0,0,0,0.0047536,-0.00023839,0.0013545,0.73921,0.0019566,0.0044165,2.5627e-09,0.58,0.84,0
0.029839,-0.0052132,0.0047509,-0.00024099,0.001353,1.5429e-05,0,0,0.053007,-0.024866,0,0.00048138,0,0,0,0.0047509,-0.00024104,0.001353,0.17709,0.0019543,0.0044163,2.5597e-09,0.6,0.84,0
0.030898,-0.0052482,0.0047453,-0.00023637,0.0013527,-3.3531e-05,0,0,0.052924,-0.024789,0,-0.0010462,0,0,0,0.0047455,-0.0002366,0.0013527,-0.38563,0.0019539,0.0044078,2.5489e-09,0.62,0.84,0
0.031955,-0.0053087,0.004736,-0.00022407,0.0013536,-8.0682e-05,0,0,0.052766,-0.024612,0,-0.0025173,0,0,0,0.0047374,-0.00022539,0.0013536,-0.93166,0.0019552,0.0043916,2.5306e-09,0.64,0.84,0
0.033009,-0.0053935,0.0047235,-0.00020482,0.0013556,-0.00012437,0,0,0.052539,-0.024343,0,-0.0038802,0,0,0,0.0047266,-0.00020796,0.0013556,-1.4446,0.0019581,0.004368,2.5051e-09,0.66,0.84,0
0.034057,-0.0055006,0.0047082,-0.00017966,0.0013586,-0.00016314,0,0,0.052254,-0.023996,0,-0.00509,0,0,0,0.0047136,-0.0001851,0.0013586,-1.9096,0.0019623,0.004338,2.4735e-09,0.68,0.84,0
0.035099,-0.0056272,0.0046907,-0.00014987,0.0013622,-0.00019587,0,0,0.051923,-0.023589,0,-0.0061112,0,0,0,0.0046986,-0.00015778,0.0013622,-2.3134,0.0019677,0.0043027,2.4366e-09,0.7,0.84,0
0.036134,-0.0057698,0.0046717,-0.00011685,0.0013665,-0.00022175,0,0,0.051562,-0.02314,0,-0.0069185,0,0,0,0.004682,-0.00012709,0.0013665,-2.6457,0.0019738,0.0042632,2.3958e-09,0.72,0.84,0
0.037162,-0.0059247,0.0046521,-8.2024e-05,0.001371,-0.00024031,0,0,0.051185,-0.022667,0,-0.0074976,0,0,0,0.0046642,-9.4191e-05,0.001371,-2.8985,0.0019804,0.0042211,2.3524e-09,0.74,0.84,0
0.038181,-0.0060878,0.0046325,-4.6771e-05,0.0013757,-0.00025144,0,0,0.050806,-0.022191,0,-0.0078448,0,0,0,0.0046459,-6.0243e-05,0.0013757,-3.067,0.0019871,0.0041776,2.3078e-09,0.76,0.84,0
0.039194,-0.0062551,0.0046135,-1.2304e-05,0.0013804,-0.00025531,0,0,0.050437,-0.021726,0,-0.0079658,0,0,0,0.0046276,-2.6353e-05,0.0013804,-3.1496,0.0019939,0.0041341,2.2633e-09,0.78,0.84,0
0.040199,-0.0064223,0.0045958,2.0366e-05,0.0013848,-0.00025237,0,0,0.05009,-0.021286,0,-0.0078739,0,0,0,0.0046096,6.4879e-06,0.0013848,-3.1476,0.0020003,0.0040919,2.2202e-09,0.8,0.84,0
0.041197,-0.0065857,0.0045796,5.0466e-05,0.001389,-0.0002432,0,0,0.049773,-0.020881,0,-0.0075878,0,0,0,0.0045926,3.7444e-05,0.001389,-3.0649,0.0020064,0.0040521,2.1796e-09,0.82,0.84,0
0.04219,-0.0067416,0.0045652,7.7464e-05,0.0013928,-0.00022853,0,0,0.04949,-0.020519,0,-0.0071301,0,0,0,0.0045768,6.5857e-05,0.0013928,-2.9076,0.0020118,0.0040154,2.1423e-09,0.84,0.84,0
0.043177,-0.0068867,0.0045528,0.00010105,0.0013962,-0.00020913,0,0,0.049244,-0.020204,0,-0.0065249,0,0,0,0.0045626,9.1251e-05,0.0013962,-2.6837,0.0020167,0.0039826,2.109e-09,0.86,0.84,0
0.044159,-0.0070182,0.0045424,0.00012112,0.001399,-0.00018579,0,0,0.049036,-0.019936,0,-0.0057965,0,0,0,0.0045502,0.00011332,0.001399,-2.402,0.0020208,0.003954,2.0801e-09,0.88,0.84,0
0.045138,-0.0071336,0.0045339,0.00013768,0.0014015,-0.00015923,0,0,0.048866,-0.019715,0,-0.004968,0,0,0,0.0045396,0.00013192,0.0014015,-2.0716,0.0020243,0.0039299,2.0557e-09,0.9,0.84,0
0.046114,-0.0072307,0.0045272,0.00015086,0.0014034,-0.00013015,0,0,0.048731,-0.01954,0,-0.0040608,0,0,0,0.0045311,0.00014699,0.0014034,-1.702,0.0020272,0.0039103,2.036e-09,0.92,0.84,0
0.047088,-0.007308,0.0045222,0.00016085,0.0014049,-9.9172e-05,0,0,0.048629,-0.019407,0,-0.0030942,0,0,0,0.0045244,0.00015859,0.0014049,-1.302,0.0020293,0.0038952,2.0208e-09,0.94,0.84,0
0.048059,-0.0073641,0.0045187,0.00016782,0.0014059,-6.6834e-05,0,0,0.048559,-0.019315,0,-0.0020852,0,0,0,0.0045197,0.00016679,0.0014059,-0.87985,0.0020308,0.0038845,2.0101e-09,0.96,0.84,0
0.04903,-0.0073981,0.0045167,0.00017193,0.0014066,-3.3628e-05,0,0,0.048517,-0.01926,0,-0.0010492,0,0,0,0.0045169,0.00017167,0.0014066,-0.44344,0.0020317,0.0038782,2.0037e-09,0.98,0.84,0
0.05,-0.0074095,0.004516,0.00017328,0.0014068,-1.8264e-05,0,0,0.048504,-0.019243,0,-0.00056985,0,0,0,0.0045161,0.00017321,0.0014068,-0.24097,0.002032,0.0038762,2.0017e-09,1,0.84,0
0,0,0.0046609,0.0019975,0.0019975,-0.0011351,0,0,0.041549,-5.421e-19,0,-0.035414,0,0,0,0.005079,0.0015795,0.0019975,-20.221,0.0028853,0.0033104,1.7634e-09,0,0.86,0
0.00083098,-0.00070828,0.0046447,0.0017832,0.0019284,-0.001124,0,0,0.042375,-0.0022651,0,-0.03507,0,0,0,0.0050334,0.0013944,0.0019284,-19.077,0.0027854,0.0034036,1.8582e-09,0.02,0.86,0
0.001695,-0.0014162,0.0047089,0.0015741,0.0018849,-0.0010935,0,0,0.044055,-0.0048487,0,-0.034118,0,0,0,0.0050527,0.0012304,0.0018849,-17.451,0.0027227,0.0035407,2.0197e-09,0.04,0.86,0
0.0025932,-0.0021089,0.0047661,0.0013568,0.0018369,-0.0010317,0,0,0.045697,-0.0074897,0,-0.032188,0,0,0,0.005054,0.0010689,0.0018369,-15.591,0.0026532,0.003662,2.1531e-09,0.06,0.86,0
0.0035229,-0.0027709,0.0048098,0.0011507,0.0017882,-0.00094256,0,0,0.047138,-0.0099448,0,-0.029408,0,0,0,0.0050384,0.00092215,0.0017882,-13.628,0.0025829,0.0037588,2.2471e-09,0.08,0.86,0
0.0044787,-0.0033887,0.0048364,0.00096816,0.0017414,-0.00083492,0,0,0.048282,-0.012062,0,-0.02605,0,0,0,0.0050089,0.00079565,0.0017414,-11.675,0.0025153,0.003829,2.3011e-09,0.1,0.86,0
0.0054542,-0.0039529,0.0048456,0.00081377,0.0016978,-0.00071842,0,0,0.049106,-0.013791,0,-0.022415,0,0,0,0.0049698,0.00068959,0.0016978,-9.8073,0.0024524,0.0038757,2.3218e-09,0.12,0.86,0
0.0064429,-0.0044577,0.0048401,0.00068656,0.001658,-0.0006009,0,0,0.049641,-0.015154,0,-0.018748,0,0,0,0.0049253,0.00060137,0.001658,-8.0688,0.0023949,0.0039043,2.3187e-09,0.14,0.86,0
0.0074398,-0.0049009,0.0048238,0.00058298,0.001622,-0.00048762,0,0,0.049947,-0.016209,0,-0.015214,0,0,0,0.0048791,0.00052764,0.001622,-6.4755,0.0023429,0.0039206,2.3013e-09,0.16,0.86,0
0.0084408,-0.0052825,0.0048009,0.00049876,0.0015899,-0.00038148,0,0,0.050091,-0.017022,0,-0.011902,0,0,0,0.0048344,0.00046519,0.0015899,-5.0283,0.0022965,0.0039295,2.2771e-09,0.18,0.86,0
0.0094434,-0.0056042,0.0047748,0.00042979,0.0015614,-0.00028375,0,0,0.050129,-0.017653,0,-0.0088528,0,0,0,0.0047932,0.00041134,0.0015614,-3.7206,0.0022553,0.003935,2.2517e-09,0.2,0.86,0
0.010446,-0.0058686,0.0047482,0.00037252,0.0015362,-0.00019473,0,0,0.050107,-0.018154,0,-0.0060756,0,0,0,0.0047569,0.00036387,0.0015362,-2.5431,0.002219,0.0039399,2.2288e-09,0.22,0.86,0
0.011448,-0.006079,0.0047232,0.00032397,0.0015141,-0.00011427,0,0,0.050061,-0.018567,0,-0.0035653,0,0,0,0.0047262,0.00032101,0.0015141,-1.487,0.0021871,0.0039463,2.2108e-09,0.24,0.86,0
0.012448,-0.0062389,0.004701,0.0002817,0.0014948,-4.2026e-05,0,0,0.050017,-0.018925,0,-0.0013112,0,0,0,0.0047014,0.0002813,0.0014948,-0.54479,0.0021592,0.0039555,2.1991e-09,0.26,0.86,0
0.013448,-0.0063525,0.0046825,0.00024372,0.0014779,2.2348e-05,0,0,0.049992,-0.019253,0,0.00069726,0,0,0,0.0046826,0.00024361,0.0014779,0.28846,0.0021347,0.0039685,2.1944e-09,0.28,0.86,0
0.014448,-0.0064237,0.0046682,0.00020845,0.001463,7.9093e-05,0,0,0.050001,-0.019571,0,0.0024677,0,0,0,0.0046696,0.00020705,0.001463,1.0157,0.0021132,0.0039858,2.1969e-09,0.3,0.86,0
0.015448,-0.0064572,0.0046583,0.00017465,0.0014499,0.00012832,0,0,0.050051,-0.019894,0,0.0040036,0,0,0,0.004662,0.00017098,0.0014499,1.638,0.0020943,0.0040076,2.2065e-09,0.32,0.86,0
0.01645,-0.0064574,0.0046529,0.0001414,0.0014383,0.00017001,0,0,0.050148,-0.020231,0,0.0053042,0,0,0,0.0046593,0.000135,0.0014383,2.155,0.0020775,0.0040338,2.2228e-09,0.34,0.86,0
0.017454,-0.0064292,0.0046517,0.00010807,0.0014279,0.00020401,0,0,0.050291,-0.02059,0,0.0063651,0,0,0,0.0046609,9.8925e-05,0.0014279,2.5657,0.0020626,0.0040638,2.2451e-09,0.36,0.86,0
0.018462,-0.0063775,0.0046545,7.4325e-05,0.0014187,0.00023012,0,0,0.050479,-0.020972,0,0.0071797,0,0,0,0.004666,6.2792e-05,0.0014187,2.869,0.0020492,0.0040972,2.2725e-09,0.38,0.86,0
0.019474,-0.0063076,0.0046608,4.0124e-05,0.0014103,0.00024809,0,0,0.050708,-0.021374,0,0.0077404,0,0,0,0.0046741,2.6842e-05,0.0014103,3.0645,0.0020371,0.004133,2.3038e-09,0.4,0.86,0
0.02049,-0.0062247,0.00467,5.6916e-06,0.0014027,0.00025772,0,0,0.05097,-0.021793,0,0.0080408,0,0,0,0.0046842,-8.5048e-06,0.0014027,3.153,0.0020261,0.0041702,2.3377e-09,0.42,0.86,0
0.021512,-0.0061342,0.0046813,-2.8494e-05,0.0013959,0.00025889,0,0,0.051254,-0.02222,0,0.0080774,0,0,0,0.0046955,-4.2683e-05,0.0013959,3.1369,0.0020162,0.0042076,2.3729e-09,0.44,0.86,0
0.02254,-0.0060414,0.004694,-6.1738e-05,0.0013897,0.00025166,0,0,0.051548,-0.022642,0,0.0078519,0,0,0,0.0047073,-7.5018e-05,0.0013897,3.0207,0.0020073,0.004244,2.4078e-09,0.46,0.86,0
0.023574,-0.0059513,0.0047072,-9.3178e-05,0.0013842,0.00023628,0,0,0.051839,-0.023047,0,0.007372,0,0,0,0.0047188,-0.00010478,0.0013842,2.8111,0.0019994,0.0042781,2.4408e-09,0.48,0.86,0
0.024614,-0.0058688,0.0047199,-0.00012186,0.0013794,0.00021325,0,0,0.052112,-0.02342,0,0.0066534,0,0,0,0.0047293,-0.00013123,0.0013794,2.517,0.0019925,0.0043086,2.4706e-09,0.5,0.86,0
0.025659,-0.0057985,0.0047313,-0.0001468,0.0013753,0.00018333,0,0,0.052353,-0.023745,0,0.0057201,0,0,0,0.0047382,-0.00015368,0.0013753,2.1493,0.0019866,0.0043345,2.4959e-09,0.52,0.86,0
0.026708,-0.0057441,0.0047405,-0.00016709,0.001372,0.00014756,0,0,0.052548,-0.02401,0,0.004604,0,0,0,0.0047449,-0.00017152,0.001372,1.7207,0.0019818,0.0043549,2.5156e-09,0.54,0.86,0
0.027761,-0.0057089,0.0047469,-0.00018195,0.0013695,0.0001072,0,0,0.052687,-0.024202,0,0.0033445,0,0,0,0.0047492,-0.00018428,0.0013695,1.2453,0.0019781,0.004369,2.5288e-09,0.56,0.86,0
0.028815,-0.0056953,0.0047499,-0.00019082,0.0013677,6.3678e-05,0,0,0.052762,-0.024313,0,0.0019867,0,0,0,0.0047507,-0.00019164,0.0013677,0.73829,0.0019756,0.0043762,2.5349e-09,0.58,0.86,0
0.029871,-0.005705,0.0047492,-0.00019341,0.0013667,1.8576e-05,0,0,0.052766,-0.024338,0,0.00057956,0,0,0,0.0047493,-0.00019348,0.0013667,0.21533,0.0019742,0.0043764,2.5335e-09,0.6,0.86,0
0.030926,-0.0057386,0.0047447,-0.00018969,0.0013665,-2.6499e-05,0,0,0.052699,-0.024276,0,-0.00082678,0,0,0,0.0047448,-0.00018983,0.0013665,-0.30769,0.0019738,0.0043695,2.5247e-09,0.62,0.86,0
0.031979,-0.0057959,0.0047364,-0.00017994,0.0013669,-6.9973e-05,0,0,0.052563,-0.024131,0,-0.0021832,0,0,0,0.0047374,-0.00018094,0.0013669,-0.81526,0.0019744,0.0043558,2.5085e-09,0.64,0.86,0
0.033029,-0.0058758,0.0047246,-0.00016474,0.0013679,-0.00011039,0,0,0.052363,-0.02391,0,-0.0034441,0,0,0,0.0047271,-0.00016723,0.0013679,-1.2927,0.0019759,0.0043356,2.4855e-09,0.66,0.86,0
0.034074,-0.0059767,0.0047098,-0.00014487,0.0013695,-0.00014647,0,0,0.052109,-0.023624,0,-0.0045699,0,0,0,0.0047142,-0.00014928,0.0013695,-1.7266,0.0019781,0.0043097,2.4564e-09,0.68,0.86,0
0.035113,-0.0060958,0.0046924,-0.0001213,0.0013713,-0.00017719,0,0,0.051809,-0.023285,0,-0.0055284,0,0,0,0.004699,-0.00012782,0.0013713,-2.1052,0.0019808,0.0042789,2.4221e-09,0.7,0.86,0
0.036146,-0.0062302,0.0046733,-9.512e-05,0.0013735,-0.0002018,0,0,0.051478,-0.02291,0,-0.0062963,0,0,0,0.0046819,-0.00010365,0.0013735,-2.419,0.0019839,0.0042443,2.3838e-09,0.72,0.86,0
0.037172,-0.0063765,0.0046531,-6.7424e-05,0.0013757,-0.00021985,0,0,0.051128,-0.022513,0,-0.0068593,0,0,0,0.0046634,-7.7641e-05,0.0013757,-2.6608,0.0019871,0.004207,2.3426e-09,0.74,0.86,0
0.038191,-0.0065309,0.0046325,-3.9277e-05,0.001378,-0.00023116,0,0,0.050771,-0.022109,0,-0.0072122,0,0,0,0.0046439,-5.0686e-05,0.001378,-2.8258,0.0019904,0.0041681,2.2999e-09,0.76,0.86,0
0.039203,-0.0066895,0.0046121,-1.1633e-05,0.0013801,-0.00023582,0,0,0.050419,-0.021712,0,-0.0073577,0,0,0,0.0046241,-2.363e-05,0.0013801,-2.9122,0.0019935,0.0041289,2.2568e-09,0.78,0.86,0
0.040208,-0.0068486,0.0045925,1.47e-05,0.0013822,-0.00023415,0,0,0.050081,-0.021332,0,-0.0073055,0,0,0,0.0046044,2.7547e-06,0.0013822,-2.9205,0.0019964,0.0040903,2.2146e-09,0.8,0.86,0
0.041206,-0.0070044,0.0045741,3.9093e-05,0.001384,-0.00022661,0,0,0.049766,-0.02098,0,-0.0070704,0,0,0,0.0045854,2.7797e-05,0.001384,-2.8536,0.0019991,0.0040534,2.1743e-09,0.82,0.86,0
0.042198,-0.0071535,0.0045573,6.1096e-05,0.0013855,-0.00021382,0,0,0.04948,-0.020661,0,-0.006671,0,0,0,0.0045674,5.0951e-05,0.0013855,-2.7165,0.0020013,0.004019,2.1369e-09,0.84,0.86,0
0.043185,-0.0072927,0.0045423,8.0433e-05,0.0013868,-0.00019641,0,0,0.049225,-0.02038,0,-0.006128,0,0,0,0.0045509,7.1804e-05,0.0013868,-2.5156,0.0020032,0.0039877,2.1029e-09,0.86,0.86,0
0.044167,-0.0074191,0.0045293,9.6973e-05,0.0013879,-0.00017508,0,0,0.049006,-0.020138,0,-0.0054626,0,0,0,0.0045362,9.0068e-05,0.0013879,-2.2586,0.0020047,0.0039601,2.073e-09,0.88,0.86,0
0.045146,-0.0075302,0.0045183,0.0001107,0.0013887,-0.00015051,0,0,0.048822,-0.019937,0,-0.0046961,0,0,0,0.0045235,0.00010557,0.0013887,-1.9535,0.0020059,0.0039364,2.0474e-09,0.9,0.86,0
0.04612,-0.007624,0.0045094,0.00012169,0.0013893,-0.00012335,0,0,0.048673,-0.019775,0,-0.0038484,0,0,0,0.0045129,0.00011823,0.0013893,-1.609,0.0020068,0.003917,2.0264e-09,0.92,0.86,0
0.047093,-0.0076987,0.0045026,0.00013005,0.0013898,-9.4179e-05,0,0,0.048559,-0.019652,0,-0.0029384,0,0,0,0.0045046,0.00012803,0.0013898,-1.2333,0.0020075,0.0039018,2.01e-09,0.94,0.86,0
0.048063,-0.007753,0.0044977,0.00013591,0.0013901,-6.3564e-05,0,0,0.048479,-0.019565,0,-0.0019832,0,0,0,0.0044986,0.00013499,0.0013901,-0.83473,0.0020079,0.003891,1.9983e-09,0.96,0.86,0
0.049032,-0.007786,0.0044948,0.00013938,0.0013903,-3.2012e-05,0,0,0.048431,-0.019514,0,-0.00099878,0,0,0,0.004495,0.00013914,0.0013903,-0.42109,0.0020082,0.0038845,1.9913e-09,0.98,0.86,0
0.05,-0.007797,0.0044938,0.00014052,0.0013903,-1.7702e-05,0,0,0.048415,-0.019497,0,-0.00055229,0,0,0,0.0044939,0.00014045,0.0013903,-0.23297,0.0020082,0.0038825,1.9891e-09,1,0.86,0
0,0,0.0047114,0.0020191,0.0020191,-0.0012126,0,0,0.041998,3.2526e-19,0,-0.037832,0,0,0,0.005177,0.0015535,0.0020191,-21.006,0.0029166,0.0034145,1.9171e-09,0,0.88,0
0.00083997,-0.00075665,0.0046921,0.0017697,0.0019385,-0.0011982,0,0,0.042955,-0.0026333,0,-0.037384,0,0,0,0.0051205,0.0013413,0.0019385,-19.676,0.0028001,0.0035188,2.0222e-09,0.02,0.88,0
0.0017182,-0.0015202,0.0047615,0.0015192,0.0018842,-0.0011623,0,0,0.044885,-0.005694,0,-0.036264,0,0,0,0.0051351,0.0011456,0.0018842,-17.82,0.0027216,0.0036763,2.2086e-09,0.04,0.88,0
0.0026354,-0.0022694,0.0048191,0.0012643,0.001825,-0.0010838,0,0,0.046708,-0.0087476,0,-0.033815,0,0,0,0.0051235,0.00095989,0.001825,-15.687,0.0026361,0.0038055,2.3449e-09,0.06,0.88,0
0.0035865,-0.0029829,0.0048566,0.0010337,0.0017671,-0.00097191,0,0,0.048196,-0.01144,0,-0.030324,0,0,0,0.0050895,0.00080082,0.0017671,-13.476,0.0025524,0.0038964,2.4199e-09,0.08,0.88,0
0.0045632,-0.0036441,0.0048704,0.00084103,0.0017134,-0.00084181,0,0,0.049249,-0.013609,0,-0.026264,0,0,0,0.0050392,0.00067224,0.0017134,-11.338,0.002475,0.0039506,2.4408e-09,0.1,0.88,0
0.0055565,-0.0042425,0.0048628,0.00068696,0.0016649,-0.00070731,0,0,0.049887,-0.015256,0,-0.022068,0,0,0,0.0049793,0.00057041,0.0016649,-9.3573,0.0024049,0.0039763,2.4231e-09,0.12,0.88,0
0.0065587,-0.0047736,0.0048395,0.00056616,0.0016217,-0.00057771,0,0,0.050198,-0.016466,0,-0.018025,0,0,0,0.0049163,0.00048944,0.0016217,-7.5648,0.0023425,0.0039833,2.3834e-09,0.14,0.88,0
0.0075644,-0.0052365,0.004807,0.00047177,0.0015836,-0.00045776,0,0,0.050285,-0.017345,0,-0.014282,0,0,0,0.0048548,0.00042396,0.0015836,-5.9623,0.0022875,0.0039798,2.3348e-09,0.16,0.88,0
0.0085701,-0.0056329,0.0047707,0.00039758,0.0015505,-0.00034917,0,0,0.050236,-0.017985,0,-0.010894,0,0,0,0.0047984,0.00036988,0.0015505,-4.5365,0.0022396,0.0039721,2.286e-09,0.18,0.88,0
0.0095738,-0.0059658,0.0047347,0.00033853,0.001522,-0.00025201,0,0,0.050118,-0.018462,0,-0.0078628,0,0,0,0.0047491,0.00032413,0.001522,-3.2703,0.0021984,0.0039642,2.2422e-09,0.2,0.88,0
0.010575,-0.006239,0.0047014,0.00029062,0.0014976,-0.00016559,0,0,0.04998,-0.018829,0,-0.0051664,0,0,0,0.0047076,0.00028441,0.0014976,-2.1469,0.0021632,0.0039586,2.2062e-09,0.22,0.88,0
0.011573,-0.0064565,0.0046726,0.00025077,0.001477,-8.8987e-05,0,0,0.049851,-0.019129,0,-0.0027764,0,0,0,0.0046744,0.00024898,0.001477,-1.1524,0.0021334,0.003957,2.1794e-09,0.24,0.88,0
0.012569,-0.0066227,0.004649,0.0002166,0.0014597,-2.134e-05,0,0,0.049753,-0.019392,0,-0.00066582,0,0,0,0.0046491,0.0002165,0.0014597,-0.27585,0.0021084,0.0039602,2.1622e-09,0.26,0.88,0
0.013563,-0.006742,0.0046311,0.00018628,0.0014452,3.806e-05,0,0,0.049699,-0.019639,0,0.0011875,0,0,0,0.0046314,0.00018596,0.0014452,0.49057,0.0020875,0.0039686,2.1543e-09,0.28,0.88,0
0.014557,-0.0068189,0.0046188,0.0001584,0.0014332,8.9721e-05,0,0,0.049696,-0.019886,0,0.0027993,0,0,0,0.0046206,0.00015659,0.0014332,1.1519,0.0020701,0.0039823,2.1554e-09,0.3,0.88,0
0.015551,-0.0068581,0.0046121,0.00013187,0.0014232,0.00013395,0,0,0.049747,-0.020144,0,0.0041793,0,0,0,0.0046161,0.00012787,0.0014232,1.711,0.0020557,0.004001,2.1648e-09,0.32,0.88,0
0.016547,-0.0068644,0.0046106,0.00010593,0.001415,0.00017089,0,0,0.049851,-0.020421,0,0.0053317,0,0,0,0.004617,9.9461e-05,0.001415,2.1694,0.0020438,0.0040244,2.1816e-09,0.34,0.88,0
0.017545,-0.0068427,0.0046138,8.0061e-05,0.0014081,0.00020053,0,0,0.050008,-0.020718,0,0.0062565,0,0,0,0.0046226,7.1208e-05,0.0014081,2.5277,0.002034,0.0040519,2.2048e-09,0.36,0.88,0
0.018547,-0.006798,0.0046212,5.3977e-05,0.0014025,0.00022279,0,0,0.05021,-0.021038,0,0.006951,0,0,0,0.004632,4.3135e-05,0.0014025,2.7861,0.0020259,0.0040826,2.2333e-09,0.38,0.88,0
0.019553,-0.0067354,0.004632,2.7636e-05,0.0013979,0.00023755,0,0,0.050452,-0.021376,0,0.0074114,0,0,0,0.0046442,1.5414e-05,0.0013979,2.9455,0.0020192,0.0041156,2.2659e-09,0.4,0.88,0
0.020565,-0.0066602,0.0046456,1.2081e-06,0.001394,0.0002447,0,0,0.050725,-0.021728,0,0.0076348,0,0,0,0.0046585,-1.1649e-05,0.001394,3.0077,0.0020136,0.0041499,2.3011e-09,0.42,0.88,0
0.021582,-0.0065774,0.0046611,-2.4948e-05,0.0013908,0.00024424,0,0,0.051016,-0.022086,0,0.0076204,0,0,0,0.0046738,-3.7644e-05,0.0013908,2.9756,0.002009,0.0041843,2.3376e-09,0.44,0.88,0
0.022606,-0.0064922,0.0046776,-5.031e-05,0.0013882,0.00023628,0,0,0.051315,-0.02244,0,0.007372,0,0,0,0.0046894,-6.2089e-05,0.0013882,2.854,0.0020052,0.0042177,2.3737e-09,0.46,0.88,0
0.023635,-0.0064095,0.0046942,-7.4232e-05,0.001386,0.0002211,0,0,0.051608,-0.022779,0,0.0068984,0,0,0,0.0047044,-8.4462e-05,0.001386,2.6492,0.002002,0.0042489,2.4082e-09,0.48,0.88,0
0.02467,-0.0063339,0.0047099,-9.5999e-05,0.0013842,0.0001992,0,0,0.051881,-0.02309,0,0.006215,0,0,0,0.0047181,-0.00010424,0.0013842,2.3694,0.0019993,0.004277,2.4395e-09,0.5,0.88,0
0.02571,-0.0062694,0.0047239,-0.00011489,0.0013827,0.00017128,0,0,0.052122,-0.023362,0,0.0053438,0,0,0,0.0047299,-0.00012094,0.0013827,2.0247,0.0019972,0.0043009,2.4664e-09,0.52,0.88,0
0.026755,-0.0062198,0.0047354,-0.00013021,0.0013816,0.00013826,0,0,0.05232,-0.023584,0,0.0043137,0,0,0,0.0047393,-0.00013414,0.0013816,1.6264,0.0019956,0.0043199,2.4878e-09,0.54,0.88,0
0.027803,-0.0061881,0.0047438,-0.00014141,0.0013807,0.00010127,0,0,0.052464,-0.023745,0,0.0031595,0,0,0,0.0047459,-0.0001435,0.0013807,1.187,0.0019944,0.0043332,2.5028e-09,0.56,0.88,0
0.028854,-0.0061766,0.0047485,-0.00014805,0.0013801,6.156e-05,0,0,0.052546,-0.02384,0,0.0019207,0,0,0,0.0047492,-0.00014882,0.0013801,0.72019,0.0019935,0.0043405,2.5109e-09,0.58,0.88,0
0.029905,-0.0061867,0.0047492,-0.00014992,0.0013798,2.0507e-05,0,0,0.052563,-0.023863,0,0.00063981,0,0,0,0.0047493,-0.00015,0.0013798,0.23982,0.001993,0.0043415,2.5116e-09,0.6,0.88,0
0.030956,-0.0062192,0.0047459,-0.000147,0.0013797,-2.0494e-05,0,0,0.052513,-0.023816,0,-0.00063942,0,0,0,0.0047459,-0.00014709,0.0013797,-0.23998,0.0019928,0.0043362,2.5048e-09,0.62,0.88,0
0.032005,-0.0062739,0.0047385,-0.00013951,0.0013797,-6.0073e-05,0,0,0.052397,-0.023699,0,-0.0018743,0,0,0,0.0047392,-0.00014025,0.0013797,-0.70547,0.0019929,0.0043247,2.4907e-09,0.64,0.88,0
0.033052,-0.0063499,0.0047273,-0.00012786,0.0013798,-9.6958e-05,0,0,0.05222,-0.02352,0,-0.0030251,0,0,0,0.0047292,-0.0001298,0.0013798,-1.1436,0.0019931,0.0043074,2.4698e-09,0.66,0.88,0
0.034094,-0.0064456,0.0047127,-0.00011265,0.00138,-0.00013003,0,0,0.05199,-0.023286,0,-0.004057,0,0,0,0.0047162,-0.00011615,0.00138,-1.5425,0.0019934,0.0042849,2.4427e-09,0.68,0.88,0
0.035132,-0.0065586,0.0046953,-9.4594e-05,0.0013802,-0.00015837,0,0,0.051715,-0.023007,0,-0.0049413,0,0,0,0.0047005,-9.9824e-05,0.0013802,-1.8917,0.0019936,0.0042578,2.4102e-09,0.7,0.88,0
0.036163,-0.0066862,0.0046757,-7.4498e-05,0.0013804,-0.00018131,0,0,0.051407,-0.022696,0,-0.0056568,0,0,0,0.0046826,-8.1408e-05,0.0013804,-2.1827,0.0019938,0.0042271,2.3735e-09,0.72,0.88,0
0.037188,-0.0068252,0.0046545,-5.3191e-05,0.0013804,-0.00019839,0,0,0.051076,-0.022364,0,-0.0061898,0,0,0,0.0046628,-6.1537e-05,0.0013804,-2.4089,0.0019939,0.0041937,2.3336e-09,0.74,0.88,0
0.038206,-0.0069722,0.0046325,-3.1474e-05,0.0013803,-0.00020943,0,0,0.050734,-0.022024,0,-0.0065342,0,0,0,0.0046419,-4.086e-05,0.0013803,-2.5659,0.0019938,0.0041585,2.2918e-09,0.76,0.88,0
0.039217,-0.0071235,0.0046103,-1.0075e-05,0.0013801,-0.00021445,0,0,0.050392,-0.021686,0,-0.0066909,0,0,0,0.0046202,-2.0008e-05,0.0013801,-2.6518,0.0019934,0.0041225,2.2493e-09,0.78,0.88,0
0.040222,-0.0072756,0.0045885,1.0386e-05,0.0013797,-0.00021369,0,0,0.050058,-0.021361,0,-0.006667,0,0,0,0.0045985,4.336e-07,0.0013797,-2.6666,0.0019929,0.0040869,2.2072e-09,0.8,0.88,0
0.041219,-0.0074249,0.0045677,2.9416e-05,0.0013791,-0.00020751,0,0,0.049741,-0.021056,0,-0.0064742,0,0,0,0.0045772,1.9947e-05,0.0013791,-2.6125,0.0019921,0.0040523,2.1667e-09,0.82,0.88,0
0.042211,-0.007568,0.0045482,4.6654e-05,0.0013785,-0.00019641,0,0,0.049448,-0.020776,0,-0.0061278,0,0,0,0.0045568,3.8101e-05,0.0013785,-2.4935,0.0019911,0.0040197,2.1285e-09,0.84,0.88,0
0.043197,-0.0077019,0.0045305,6.1869e-05,0.0013777,-0.00018094,0,0,0.049184,-0.020527,0,-0.0056454,0,0,0,0.0045378,5.4554e-05,0.0013777,-2.315,0.00199,0.0039898,2.0936e-09,0.86,0.88,0
0.044179,-0.0078238,0.0045148,7.4939e-05,0.0013769,-0.00016172,0,0,0.048951,-0.020311,0,-0.0050458,0,0,0,0.0045207,6.9056e-05,0.0013769,-2.0833,0.0019889,0.003963,2.0625e-09,0.88,0.88,0
0.045155,-0.0079311,0.0045014,8.5835e-05,0.0013762,-0.00013935,0,0,0.048753,-0.020129,0,-0.0043478,0,0,0,0.0045057,8.1441e-05,0.0013762,-1.8058,0.0019878,0.0039399,2.0356e-09,0.9,0.88,0
0.046129,-0.0080217,0.0044902,9.4588e-05,0.0013754,-0.00011442,0,0,0.04859,-0.019981,0,-0.00357,0,0,0,0.0044932,9.1612e-05,0.0013754,-1.4901,0.0019867,0.0039206,2.0133e-09,0.92,0.88,0
0.047099,-0.0080941,0.0044815,0.00010127,0.0013748,-8.7502e-05,0,0,0.048464,-0.019867,0,-0.00273,0,0,0,0.0044832,9.9523e-05,0.0013748,-1.144,0.0019859,0.0039055,1.9958e-09,0.94,0.88,0
0.048067,-0.0081467,0.0044752,0.00010596,0.0013744,-5.9125e-05,0,0,0.048373,-0.019787,0,-0.0018447,0,0,0,0.004476,0.00010516,0.0013744,-0.77514,0.0019852,0.0038946,1.9833e-09,0.96,0.88,0
0.049034,-0.0081787,0.0044715,0.00010875,0.0013741,-2.9797e-05,0,0,0.048319,-0.019739,0,-0.00092967,0,0,0,0.0044717,0.00010854,0.0013741,-0.3913,0.0019847,0.003888,1.9757e-09,0.98,0.88,0
0.05,-0.0081894,0.0044702,0.00010967,0.001374,-1.7174e-05,0,0,0.048301,-0.019723,0,-0.00053582,0,0,0,0.0044703,0.0001096,0.001374,-0.22565,0.0019846,0.0038859,1.9733e-09,1,0.88,0
0,0,0.0048003,0.0020573,0.0020573,-0.0013039,0,0,0.042791,2.1684e-19,0,-0.040681,0,0,0,0.0053212,0.0015364,0.0020573,-21.776,0.0029716,0.0035531,2.1378e-09,0,0.9,0
0.00085583,-0.00081361,0.0047755,0.0017561,0.0019595,-0.0012828,0,0,0.04393,-0.0031732,0,-0.040024,0,0,0,0.0052469,0.0012847,0.0019595,-20.177,0.0028304,0.0036717,2.2555e-09,0.02,0.9,0
0.0017572,-0.0016439,0.0048483,0.0014437,0.0018876,-0.0012351,0,0,0.046187,-0.0069244,0,-0.038537,0,0,0,0.0052492,0.0010429,0.0018876,-17.982,0.0027266,0.003854,2.4707e-09,0.04,0.9,0
0.0027033,-0.0024588,0.0049013,0.0011406,0.0018126,-0.0011281,0,0,0.048184,-0.010483,0,-0.035195,0,0,0,0.0052137,0.00082815,0.0018126,-15.48,0.0026181,0.0039856,2.595e-09,0.06,0.9,0
0.0036846,-0.0032285,0.0049233,0.0008873,0.0017432,-0.00098279,0,0,0.04961,-0.013352,0,-0.030663,0,0,0,0.0051499,0.00066071,0.0017432,-12.983,0.002518,0.0040578,2.6259e-09,0.08,0.9,0
0.0046877,-0.0039331,0.004913,0.00069247,0.0016817,-0.00082472,0,0,0.050409,-0.015431,0,-0.025731,0,0,0,0.0050685,0.00053704,0.0016817,-10.673,0.002429,0.0040813,2.5879e-09,0.1,0.9,0
0.0057009,-0.0045631,0.004878,0.00054761,0.0016277,-0.00067211,0,0,0.050705,-0.016849,0,-0.02097,0,0,0,0.0049799,0.00044569,0.0016277,-8.6226,0.0023511,0.0040739,2.5124e-09,0.12,0.9,0
0.0067159,-0.0051163,0.0048289,0.00044008,0.0015807,-0.00053352,0,0,0.050672,-0.017794,0,-0.016646,0,0,0,0.0048928,0.00037615,0.0015807,-6.8325,0.0022832,0.004051,2.4242e-09,0.14,0.9,0
0.0077278,-0.0055947,0.0047752,0.00035966,0.0015405,-0.00041132,0,0,0.050462,-0.018421,0,-0.012833,0,0,0,0.0048132,0.00032167,0.0015405,-5.2767,0.0022251,0.0040231,2.3386e-09,0.16,0.9,0
0.0087344,-0.0060019,0.0047232,0.00029862,0.0015065,-0.00030484,0,0,0.05018,-0.018844,0,-0.0095109,0,0,0,0.0047441,0.00027771,0.0015065,-3.9227,0.0021761,0.0039963,2.2633e-09,0.18,0.9,0
0.009735,-0.0063427,0.0046765,0.00025137,0.0014784,-0.00021236,0,0,0.049891,-0.019141,0,-0.0066256,0,0,0,0.0046866,0.0002412,0.0014784,-2.7412,0.0021354,0.003974,2.2016e-09,0.2,0.9,0
0.01073,-0.0066218,0.0046369,0.00021389,0.0014552,-0.00013201,0,0,0.049633,-0.019365,0,-0.0041185,0,0,0,0.0046408,0.00020996,0.0014552,-1.708,0.002102,0.003958,2.1541e-09,0.22,0.9,0
0.01172,-0.0068441,0.0046051,0.00018328,0.0014365,-6.2099e-05,0,0,0.04943,-0.019551,0,-0.0019375,0,0,0,0.004606,0.00018241,0.0014365,-0.80443,0.002075,0.0039488,2.1205e-09,0.24,0.9,0
0.012707,-0.0070146,0.0045814,0.00015741,0.0014216,-1.2965e-06,0,0,0.049293,-0.019722,0,-4.0451e-05,0,0,0,0.0045814,0.00015741,0.0014216,-0.016791,0.0020535,0.0039468,2.0999e-09,0.26,0.9,0
0.013692,-0.007138,0.0045655,0.00013469,0.00141,5.1408e-05,0,0,0.049224,-0.019895,0,0.0016039,0,0,0,0.0045661,0.0001341,0.00141,0.66466,0.0020367,0.0039516,2.0911e-09,0.28,0.9,0
0.014676,-0.0072192,0.0045567,0.00011397,0.0014012,9.6714e-05,0,0,0.049226,-0.020081,0,0.0030175,0,0,0,0.0045588,0.00011186,0.0014012,1.2465,0.002024,0.0039629,2.0929e-09,0.3,0.9,0
0.015661,-0.007263,0.0045547,9.4364e-05,0.0013947,0.00013506,0,0,0.049295,-0.020285,0,0.004214,0,0,0,0.0045588,9.0277e-05,0.0013947,1.7329,0.0020146,0.00398,2.1042e-09,0.32,0.9,0
0.016648,-0.0072742,0.0045585,7.5265e-05,0.0013901,0.00016669,0,0,0.049427,-0.020512,0,0.0052007,0,0,0,0.0045647,6.9076e-05,0.0013901,2.1264,0.002008,0.0040021,2.1236e-09,0.34,0.9,0
0.017638,-0.0072579,0.0045676,5.627e-05,0.0013871,0.00019169,0,0,0.049614,-0.020762,0,0.0059806,0,0,0,0.0045757,4.814e-05,0.0013871,2.4287,0.0020037,0.0040285,2.15e-09,0.36,0.9,0
0.018633,-0.007219,0.0045809,3.7165e-05,0.0013854,0.00021004,0,0,0.04985,-0.021033,0,0.0065533,0,0,0,0.0045906,2.7476e-05,0.0013854,2.641,0.0020012,0.0040583,2.182e-09,0.38,0.9,0
0.019632,-0.0071626,0.0045978,1.791e-05,0.0013847,0.00022171,0,0,0.050124,-0.021322,0,0.0069174,0,0,0,0.0046085,7.2023e-06,0.0013847,2.7651,0.0020001,0.0040903,2.2181e-09,0.4,0.9,0
0.020638,-0.0070939,0.0046171,-1.3725e-06,0.0013847,0.00022666,0,0,0.050425,-0.021623,0,0.007072,0,0,0,0.0046282,-1.247e-05,0.0013847,2.803,0.0020002,0.0041236,2.257e-09,0.42,0.9,0
0.021649,-0.0070177,0.004638,-2.0422e-05,0.0013853,0.00022494,0,0,0.050743,-0.021929,0,0.007018,0,0,0,0.0046489,-3.1258e-05,0.0013853,2.758,0.002001,0.004157,2.2972e-09,0.44,0.9,0
0.022667,-0.006939,0.0046596,-3.8861e-05,0.0013862,0.00021666,0,0,0.051064,-0.022231,0,0.00676,0,0,0,0.0046695,-4.8831e-05,0.0013862,2.6347,0.0020023,0.0041894,2.337e-09,0.46,0.9,0
0.023692,-0.0068624,0.0046807,-5.6224e-05,0.0013873,0.00020214,0,0,0.051376,-0.02252,0,0.0063067,0,0,0,0.0046893,-6.4834e-05,0.0013873,2.4391,0.0020039,0.0042198,2.3751e-09,0.48,0.9,0
0.024722,-0.0067925,0.0047005,-7.1996e-05,0.0013885,0.00018181,0,0,0.051666,-0.022784,0,0.0056725,0,0,0,0.0047074,-7.8912e-05,0.0013885,2.1785,0.0020057,0.0042472,2.4099e-09,0.5,0.9,0
0.025758,-0.006733,0.0047181,-8.5657e-05,0.0013897,0.00015632,0,0,0.051922,-0.023016,0,0.0048771,0,0,0,0.0047232,-9.0738e-05,0.0013897,1.8618,0.0020074,0.0042707,2.4402e-09,0.52,0.9,0
0.026799,-0.0066874,0.0047327,-9.6719e-05,0.0013908,0.00012647,0,0,0.052134,-0.023205,0,0.0039458,0,0,0,0.004736,-0.00010003,0.0013908,1.499,0.0020089,0.0042895,2.4649e-09,0.54,0.9,0
0.027844,-0.0066587,0.0047437,-0.00010477,0.0013917,9.3234e-05,0,0,0.052291,-0.023345,0,0.0029089,0,0,0,0.0047455,-0.00010657,0.0013917,1.1012,0.0020102,0.0043032,2.483e-09,0.56,0.9,0
0.028891,-0.0066489,0.0047505,-0.00010952,0.0013923,5.7706e-05,0,0,0.052388,-0.023428,0,0.0018004,0,0,0,0.0047512,-0.00011021,0.0013923,0.68017,0.0020111,0.0043112,2.4939e-09,0.58,0.9,0
0.029939,-0.0066595,0.0047529,-0.0001108,0.0013926,2.1057e-05,0,0,0.052421,-0.023454,0,0.00065697,0,0,0,0.004753,-0.0001109,0.0013926,0.24805,0.0020116,0.0043134,2.4971e-09,0.6,0.9,0
0.030988,-0.0066912,0.0047508,-0.00010861,0.0013927,-1.5512e-05,0,0,0.052387,-0.02342,0,-0.00048397,0,0,0,0.0047509,-0.00010866,0.0013927,-0.18289,0.0020116,0.0043097,2.4926e-09,0.62,0.9,0
0.032035,-0.0067439,0.0047442,-0.0001031,0.0013923,-5.0825e-05,0,0,0.052289,-0.023329,0,-0.0015857,0,0,0,0.0047447,-0.00010363,0.0013923,-0.60067,0.0020112,0.0043002,2.4804e-09,0.64,0.9,0
0.033079,-0.0068166,0.0047333,-9.4555e-05,0.0013916,-8.3786e-05,0,0,0.052131,-0.023185,0,-0.0026141,0,0,0,0.0047348,-9.6009e-05,0.0013916,-0.99395,0.0020101,0.0042852,2.4609e-09,0.66,0.9,0
0.03412,-0.0069081,0.0047186,-8.341e-05,0.0013906,-0.00011343,0,0,0.051918,-0.022994,0,-0.003539,0,0,0,0.0047213,-8.6088e-05,0.0013906,-1.3524,0.0020086,0.0042653,2.4349e-09,0.68,0.9,0
0.035156,-0.0070161,0.0047006,-7.018e-05,0.0013891,-0.00013895,0,0,0.051659,-0.022765,0,-0.0043353,0,0,0,0.0047046,-7.4223e-05,0.0013891,-1.6669,0.0020065,0.0042409,2.4032e-09,0.7,0.9,0
0.036186,-0.0071381,0.0046798,-5.544e-05,0.0013873,-0.00015975,0,0,0.051363,-0.022507,0,-0.0049841,0,0,0,0.0046852,-6.0823e-05,0.0013873,-1.93,0.0020039,0.004213,2.3668e-09,0.72,0.9,0
0.037211,-0.0072711,0.0046571,-3.9788e-05,0.0013852,-0.00017541,0,0,0.051042,-0.02223,0,-0.0054727,0,0,0,0.0046636,-4.633e-05,0.0013852,-2.1358,0.0020008,0.0041822,2.3269e-09,0.74,0.9,0
0.038228,-0.0074118,0.0046331,-2.3803e-05,0.0013828,-0.00018574,0,0,0.050704,-0.021943,0,-0.0057951,0,0,0,0.0046405,-3.12e-05,0.0013828,-2.2804,0.0019974,0.0041495,2.2847e-09,0.76,0.9,0
0.039239,-0.007557,0.0046085,-8.0155e-06,0.0013801,-0.00019074,0,0,0.050362,-0.021655,0,-0.0059511,0,0,0,0.0046163,-1.5883e-05,0.0013801,-2.3619,0.0019935,0.0041158,2.2415e-09,0.78,0.9,0
0.040243,-0.007703,0.0045839,7.1199e-06,0.0013773,-0.00019057,0,0,0.050023,-0.021375,0,-0.0059457,0,0,0,0.0045919,-8.0096e-07,0.0013773,-2.3801,0.0019895,0.004082,2.1984e-09,0.8,0.9,0
0.04124,-0.0078466,0.0045601,2.1236e-05,0.0013744,-0.00018552,0,0,0.049697,-0.02111,0,-0.0057881,0,0,0,0.0045677,1.3666e-05,0.0013744,-2.3366,0.0019853,0.004049,2.1565e-09,0.82,0.9,0
0.04223,-0.0079846,0.0045376,3.4062e-05,0.0013715,-0.000176,0,0,0.049391,-0.020864,0,-0.0054912,0,0,0,0.0045445,2.7194e-05,0.0013715,-2.2346,0.001981,0.0040175,2.1168e-09,0.84,0.9,0
0.043215,-0.0081138,0.0045168,4.5415e-05,0.0013687,-0.00016249,0,0,0.049111,-0.020643,0,-0.0050698,0,0,0,0.0045227,3.9518e-05,0.0013687,-2.0785,0.0019769,0.0039883,2.0802e-09,0.86,0.9,0
0.044195,-0.0082315,0.0044981,5.5198e-05,0.001366,-0.00014551,0,0,0.048861,-0.020448,0,-0.00454,0,0,0,0.0045028,5.0437e-05,0.001366,-1.8739,0.0019731,0.0039619,2.0474e-09,0.88,0.9,0
0.04517,-0.0083354,0.0044818,6.3376e-05,0.0013636,-0.0001256,0,0,0.048644,-0.020283,0,-0.0039186,0,0,0,0.0044853,5.9809e-05,0.0013636,-1.6269,0.0019696,0.003939,2.0188e-09,0.9,0.9,0
0.046141,-0.0084233,0.0044682,6.9964e-05,0.0013614,-0.00010327,0,0,0.048465,-0.020147,0,-0.0032222,0,0,0,0.0044706,6.754e-05,0.0013614,-1.3444,0.0019665,0.0039197,1.995e-09,0.92,0.9,0
0.047108,-0.0084934,0.0044574,7.5004e-05,0.0013597,-7.9066e-05,0,0,0.048324,-0.020042,0,-0.0024669,0,0,0,0.0044588,7.3578e-05,0.0013597,-1.0333,0.001964,0.0039044,1.9762e-09,0.94,0.9,0
0.048073,-0.0085445,0.0044496,7.8551e-05,0.0013585,-5.3469e-05,0,0,0.048222,-0.019967,0,-0.0016682,0,0,0,0.0044503,7.7898e-05,0.0013585,-0.70072,0.0019622,0.0038934,1.9626e-09,0.96,0.9,0
0.049037,-0.0085755,0.0044449,8.0656e-05,0.0013577,-2.696e-05,0,0,0.048161,-0.019922,0,-0.00084115,0,0,0,0.0044451,8.049e-05,0.0013577,-0.35392,0.0019611,0.0038867,1.9545e-09,0.98,0.9,0
0.05,-0.0085859,0.0044434,8.1354e-05,0.0013574,-1.668e-05,0,0,0.048141,-0.019907,0,-0.00052043,0,0,0,0.0044434,8.129e-05,0.0013574,-0.2191,0.0019607,0.0038846,1.9518e-09,1,0.9,0
0,0,0.0049526,0.0021225,0.0021225,-0.001416,0,0,0.044149,2.1684e-19,0,-0.044179,0,0,0,0.0055394,0.0015357,0.0021225,-22.51,0.0030659,0.0037449,2.4756e-09,0,0.92,0
0.00088297,-0.00088358,0.0049147,0.001735,0.0019949,-0.0013807,0,0,0.045549,-0.0040549,0,-0.043078,0,0,0,0.0054306,0.0012191,0.0019949,-20.486,0.0028815,0.0038821,2.605e-09,0.02,0.92,0
0.001822,-0.0017972,0.0049851,0.0013265,0.0018935,-0.0013053,0,0,0.048229,-0.0088451,0,-0.040726,0,0,0,0.005403,0.00090849,0.0018935,-17.755,0.002735,0.004092,2.8435e-09,0.04,0.92,0
0.0028121,-0.0026887,0.0050217,0.00096781,0.0017969,-0.0011488,0,0,0.050307,-0.012933,0,-0.035844,0,0,0,0.0053246,0.00066487,0.0017969,-14.772,0.0025955,0.0042095,2.9175e-09,0.06,0.92,0
0.0038343,-0.003517,0.00501,0.00070492,0.0017145,-0.00095606,0,0,0.05141,-0.015749,0,-0.029829,0,0,0,0.0052128,0.00050215,0.0017145,-11.974,0.0024765,0.0042366,2.8543e-09,0.08,0.92,0
0.0048686,-0.0042613,0.0049567,0.00052589,0.0016448,-0.00076836,0,0,0.051666,-0.017455,0,-0.023973,0,0,0,0.0050861,0.00039643,0.0016448,-9.564,0.0023758,0.0042068,2.7192e-09,0.1,0.92,0
0.0059009,-0.0049165,0.0048789,0.00040191,0.0015842,-0.00060306,0,0,0.051396,-0.018444,0,-0.018815,0,0,0,0.0049587,0.0003221,0.0015842,-7.5389,0.0022883,0.004152,2.5633e-09,0.12,0.92,0
0.0069244,-0.0054853,0.0047956,0.00031495,0.0015332,-0.00046332,0,0,0.050894,-0.019004,0,-0.014456,0,0,0,0.004843,0.00026755,0.0015332,-5.8423,0.0022146,0.0040922,2.4178e-09,0.14,0.92,0
0.0079366,-0.0059733,0.0047173,0.00025261,0.001491,-0.00034644,0,0,0.050331,-0.019318,0,-0.010809,0,0,0,0.004744,0.00022589,0.001491,-4.4107,0.0021536,0.0040371,2.2943e-09,0.16,0.92,0
0.0089376,-0.0063866,0.0046491,0.00020685,0.0014568,-0.00024849,0,0,0.0498,-0.019499,0,-0.0077528,0,0,0,0.0046629,0.00019299,0.0014568,-3.1917,0.0021042,0.0039911,2.1954e-09,0.18,0.92,0
0.0099286,-0.0067315,0.0045928,0.00017234,0.0014296,-0.00016584,0,0,0.049347,-0.019613,0,-0.0051742,0,0,0,0.0045991,0.00016613,0.0014296,-2.1455,0.0020649,0.0039556,2.1198e-09,0.2,0.92,0
0.010911,-0.0070136,0.0045488,0.00014554,0.0014083,-9.556e-05,0,0,0.048992,-0.019699,0,-0.0029815,0,0,0,0.0045509,0.00014347,0.0014083,-1.2427,0.0020342,0.0039307,2.0651e-09,0.22,0.92,0
0.011888,-0.0072385,0.0045165,0.000124,0.0013921,-3.5408e-05,0,0,0.04874,-0.019783,0,-0.0011047,0,0,0,0.0045168,0.00012371,0.0013921,-0.46182,0.0020109,0.0039161,2.0288e-09,0.24,0.92,0
0.012861,-0.0074116,0.0044949,0.00010601,0.0013803,1.6246e-05,0,0,0.048589,-0.019879,0,0.00050687,0,0,0,0.004495,0.00010595,0.0013803,0.21208,0.0019937,0.0039108,2.0084e-09,0.26,0.92,0
0.013832,-0.0075378,0.0044832,9.036e-05,0.0013721,6.0551e-05,0,0,0.048534,-0.019995,0,0.0018892,0,0,0,0.004484,8.9525e-05,0.0013721,0.78958,0.0019819,0.0039141,2.002e-09,0.28,0.92,0
0.014802,-0.0076221,0.0044801,7.6158e-05,0.0013669,9.8281e-05,0,0,0.048567,-0.020135,0,0.0030664,0,0,0,0.0044823,7.3966e-05,0.0013669,1.2778,0.0019744,0.003925,2.0076e-09,0.3,0.92,0
0.015775,-0.0076695,0.0044848,6.2771e-05,0.0013643,0.00012992,0,0,0.04868,-0.020303,0,0.0040535,0,0,0,0.0044886,5.8957e-05,0.0013643,1.6814,0.0019706,0.0039425,2.0236e-09,0.32,0.92,0
0.01675,-0.0076849,0.004496,4.9752e-05,0.0013637,0.00015573,0,0,0.048863,-0.020498,0,0.0048589,0,0,0,0.0045014,4.4304e-05,0.0013637,2.0036,0.0019698,0.0039656,2.0485e-09,0.34,0.92,0
0.017729,-0.0076731,0.0045127,3.6815e-05,0.0013648,0.00017585,0,0,0.049106,-0.020717,0,0.0054864,0,0,0,0.0045196,2.9917e-05,0.0013648,2.2464,0.0019715,0.0039932,2.0808e-09,0.36,0.92,0
0.018714,-0.0076393,0.0045338,2.3808e-05,0.0013673,0.00019029,0,0,0.049398,-0.020958,0,0.0059369,0,0,0,0.0045419,1.5793e-05,0.0013673,2.4117,0.001975,0.0040243,2.119e-09,0.38,0.92,0
0.019705,-0.0075883,0.0045584,1.0704e-05,0.0013707,0.00019904,0,0,0.049727,-0.021216,0,0.0062101,0,0,0,0.0045671,2.0087e-06,0.0013707,2.5013,0.0019799,0.0040577,2.1615e-09,0.4,0.92,0
0.020703,-0.0075251,0.0045852,-2.4146e-06,0.0013748,0.00020211,0,0,0.050082,-0.021485,0,0.0063057,0,0,0,0.0045941,-1.1301e-05,0.0013748,2.5176,0.0019859,0.0040923,2.2069e-09,0.42,0.92,0
0.021708,-0.0074546,0.0046132,-1.5367e-05,0.0013793,0.00019953,0,0,0.050448,-0.021757,0,0.0062253,0,0,0,0.0046218,-2.3953e-05,0.0013793,2.4638,0.0019924,0.0041271,2.2535e-09,0.44,0.92,0
0.022721,-0.0073815,0.0046413,-2.7896e-05,0.001384,0.00019145,0,0,0.050813,-0.022026,0,0.0059733,0,0,0,0.0046491,-3.5733e-05,0.001384,2.3441,0.0019991,0.0041608,2.2998e-09,0.46,0.92,0
0.023741,-0.0073103,0.0046684,-3.9684e-05,0.0013886,0.00017813,0,0,0.051164,-0.022281,0,0.0055577,0,0,0,0.0046751,-4.6414e-05,0.0013886,2.1637,0.0020058,0.0041924,2.3441e-09,0.48,0.92,0
0.024768,-0.0072452,0.0046935,-5.0381e-05,0.0013929,0.00015997,0,0,0.051489,-0.022516,0,0.0049909,0,0,0,0.0046989,-5.5769e-05,0.0013929,1.9291,0.002012,0.0042211,2.3849e-09,0.5,0.92,0
0.0258,-0.00719,0.0047158,-5.9636e-05,0.0013969,0.0001375,0,0,0.051776,-0.022721,0,0.0042898,0,0,0,0.0047198,-6.3591e-05,0.0013969,1.6478,0.0020177,0.0042459,2.4208e-09,0.52,0.92,0
0.026839,-0.007148,0.0047344,-6.7117e-05,0.0014002,0.00011141,0,0,0.052014,-0.02289,0,0.003476,0,0,0,0.004737,-6.9701e-05,0.0014002,1.3285,0.0020225,0.0042661,2.4505e-09,0.54,0.92,0
0.027881,-0.0071219,0.0047487,-7.2549e-05,0.0014029,8.2525e-05,0,0,0.052196,-0.023016,0,0.0025748,0,0,0,0.0047501,-7.3961e-05,0.0014029,0.98034,0.0020264,0.0042812,2.4731e-09,0.56,0.92,0
0.028926,-0.0071137,0.0047582,-7.5728e-05,0.0014047,5.1758e-05,0,0,0.052314,-0.023095,0,0.0016148,0,0,0,0.0047588,-7.6282e-05,0.0014047,0.61338,0.0020291,0.0042907,2.4878e-09,0.58,0.92,0
0.029974,-0.0071249,0.0047626,-7.6547e-05,0.0014058,2.0089e-05,0,0,0.052366,-0.023125,0,0.00062677,0,0,0,0.0047627,-7.6631e-05,0.0014058,0.23785,0.0020306,0.0042945,2.4941e-09,0.6,0.92,0
0.031021,-0.007156,0.0047617,-7.5001e-05,0.001406,-1.1477e-05,0,0,0.052349,-0.023104,0,-0.00035808,0,0,0,0.0047617,-7.5028e-05,0.001406,-0.13595,0.0020309,0.0042924,2.4917e-09,0.62,0.92,0
0.032067,-0.007207,0.0047557,-7.119e-05,0.0014053,-4.1956e-05,0,0,0.052265,-0.023034,0,-0.001309,0,0,0,0.004756,-7.1554e-05,0.0014053,-0.49797,0.0020299,0.0042845,2.481e-09,0.64,0.92,0
0.033112,-0.0072773,0.0047447,-6.5314e-05,0.0014038,-7.0428e-05,0,0,0.052118,-0.022918,0,-0.0021973,0,0,0,0.0047457,-6.6345e-05,0.0014038,-0.83869,0.0020277,0.0042712,2.4622e-09,0.66,0.92,0
0.034152,-0.0073653,0.0047292,-5.7658e-05,0.0014015,-9.6079e-05,0,0,0.051913,-0.022762,0,-0.0029977,0,0,0,0.0047311,-5.9586e-05,0.0014015,-1.1494,0.0020243,0.0042528,2.4361e-09,0.68,0.92,0
0.035188,-0.0074692,0.0047098,-4.8572e-05,0.0013984,-0.00011823,0,0,0.051659,-0.022572,0,-0.0036888,0,0,0,0.0047127,-5.1507e-05,0.0013984,-1.4224,0.0020199,0.00423,2.4037e-09,0.7,0.92,0
0.036219,-0.0075865,0.0046871,-3.8445e-05,0.0013946,-0.00013636,0,0,0.051363,-0.022356,0,-0.0042544,0,0,0,0.0046911,-4.2377e-05,0.0013946,-1.6515,0.0020144,0.0042034,2.366e-09,0.72,0.92,0
0.037243,-0.0077144,0.0046619,-2.7683e-05,0.0013903,-0.00015011,0,0,0.051038,-0.02212,0,-0.0046835,0,0,0,0.0046667,-3.2483e-05,0.0013903,-1.8315,0.0020082,0.0041738,2.3243e-09,0.74,0.92,0
0.03826,-0.0078499,0.0046349,-1.6679e-05,0.0013855,-0.00015931,0,0,0.050692,-0.021874,0,-0.0049703,0,0,0,0.0046404,-2.2128e-05,0.0013855,-1.9592,0.0020012,0.0041422,2.2799e-09,0.76,0.92,0
0.03927,-0.0079898,0.004607,-5.7944e-06,0.0013804,-0.00016392,0,0,0.050336,-0.021624,0,-0.0051143,0,0,0,0.0046128,-1.1612e-05,0.0013804,-2.0326,0.0019939,0.0041093,2.2342e-09,0.78,0.92,0
0.040273,-0.0081306,0.0045789,4.6571e-06,0.0013751,-0.00016407,0,0,0.04998,-0.021378,0,-0.005119,0,0,0,0.0045848,-1.2203e-06,0.0013751,-2.0516,0.0019862,0.004076,2.1884e-09,0.8,0.92,0
0.041269,-0.0082693,0.0045513,1.4422e-05,0.0013697,-0.00016,0,0,0.049632,-0.021143,0,-0.0049919,0,0,0,0.0045569,8.7866e-06,0.0013697,-2.0172,0.0019785,0.0040432,2.1437e-09,0.82,0.92,0
0.042259,-0.0084026,0.0045249,2.331e-05,0.0013644,-0.00015203,0,0,0.049302,-0.020922,0,-0.0047433,0,0,0,0.00453,1.8182e-05,0.0013644,-1.9321,0.0019709,0.0040118,2.1012e-09,0.84,0.92,0
0.043242,-0.0085276,0.0045002,3.1193e-05,0.0013594,-0.00014056,0,0,0.048997,-0.02072,0,-0.0043855,0,0,0,0.0045047,2.6777e-05,0.0013594,-1.7997,0.0019636,0.0039825,2.0618e-09,0.86,0.92,0
0.044219,-0.0086417,0.0044779,3.7998e-05,0.0013548,-0.00012604,0,0,0.048721,-0.020542,0,-0.0039323,0,0,0,0.0044815,3.4423e-05,0.0013548,-1.6247,0.0019569,0.0039558,2.0263e-09,0.88,0.92,0
0.04519,-0.0087424,0.0044584,4.3696e-05,0.0013506,-0.00010891,0,0,0.048481,-0.020388,0,-0.0033978,0,0,0,0.0044611,4.1011e-05,0.0013506,-1.4123,0.0019509,0.0039323,1.9953e-09,0.9,0.92,0
0.046158,-0.0088276,0.0044419,4.8294e-05,0.0013471,-8.9633e-05,0,0,0.04828,-0.020261,0,-0.0027966,0,0,0,0.0044437,4.6466e-05,0.0013471,-1.1682,0.0019457,0.0039126,1.9694e-09,0.92,0.92,0
0.047122,-0.0088957,0.0044288,5.1816e-05,0.0013442,-6.8674e-05,0,0,0.04812,-0.020161,0,-0.0021426,0,0,0,0.0044299,5.0739e-05,0.0013442,-0.89866,0.0019416,0.0038969,1.9489e-09,0.94,0.92,0
0.048083,-0.0089454,0.0044193,5.4298e-05,0.0013421,-4.6466e-05,0,0,0.048005,-0.020089,0,-0.0014497,0,0,0,0.0044198,5.3804e-05,0.0013421,-0.60983,0.0019386,0.0038855,1.9341e-09,0.96,0.92,0
0.049042,-0.0089755,0.0044135,5.5772e-05,0.0013408,-2.3437e-05,0,0,0.047935,-0.020046,0,-0.00073123,0,0,0,0.0044137,5.5646e-05,0.0013408,-0.30813,0.0019367,0.0038786,1.9252e-09,0.98,0.92,0
0.05,-0.0089856,0.0044116,5.626e-05,0.0013404,-1.6214e-05,0,0,0.047912,-0.020032,0,-0.00050589,0,0,0,0.0044117,5.62e-05,0.0013404,-0.2133,0.0019361,0.0038764,1.9223e-09,1,0.92,0
0,0,0.0052156,0.0022353,0.0022353,-0.0015638,0,0,0.046493,2.1684e-18,0,-0.04879,0,0,0,0.0058855,0.0015653,0.0022353,-23.19,0.0032287,0.0040273,3.0441e-09,0,0.94,0
0.00092987,-0.00097581,0.0051477,0.0016838,0.0020494,-0.0014896,0,0,0.048333,-0.0057042,0,-0.046475,0,0,0,0.0057002,0.0011313,0.0020494,-20.349,0.0029603,0.004186,3.1648e-09,0.02,0.94,0
0.0019333,-0.0019978,0.0051956,0.0011215,0.0018951,-0.0013532,0,0,0.051488,-0.012069,0,-0.042218,0,0,0,0.0056041,0.00071304,0.0018951,-16.797,0.0027374,0.0044202,3.3892e-09,0.04,0.94,0
0.0029894,-0.0029762,0.0051878,0.00072299,0.0017732,-0.001107,0,0,0.053267,-0.016384,0,-0.034539,0,0,0,0.0054472,0.00046359,0.0017732,-13.188,0.0025613,0.0044749,3.308e-09,0.06,0.94,0
0.004064,-0.0038585,0.00511,0.00049748,0.0016822,-0.00086074,0,0,0.053472,-0.018482,0,-0.026855,0,0,0,0.0052653,0.0003421,0.0016822,-10.233,0.0024299,0.0044087,3.0688e-09,0.08,0.94,0
0.0051283,-0.0046313,0.0049787,0.00035437,0.0015999,-0.00065464,0,0,0.052709,-0.019431,0,-0.020425,0,0,0,0.0050696,0.00026348,0.0015999,-7.9042,0.002311,0.0042967,2.7848e-09,0.1,0.94,0
0.0061723,-0.0053009,0.0048428,0.00026223,0.0015315,-0.00049261,0,0,0.051656,-0.019801,0,-0.01537,0,0,0,0.0048952,0.00020985,0.0015315,-6.0694,0.0022122,0.0041841,2.5354e-09,0.12,0.94,0
0.0071945,-0.0058765,0.0047208,0.00020068,0.0014764,-0.00036546,0,0,0.050612,-0.019902,0,-0.011402,0,0,0,0.0047501,0.00017132,0.0014764,-4.5927,0.0021326,0.0040857,2.3357e-09,0.14,0.94,0
0.0081968,-0.0063674,0.004619,0.00015825,0.0014332,-0.00026444,0,0,0.049698,-0.019889,0,-0.0082507,0,0,0,0.0046346,0.00014263,0.0014332,-3.3809,0.0020701,0.0040058,2.183e-09,0.16,0.94,0
0.0091825,-0.0067819,0.0045379,0.00012802,0.0013998,-0.00018275,0,0,0.048955,-0.019839,0,-0.005702,0,0,0,0.0045455,0.00012046,0.0013998,-2.369,0.0020219,0.0039442,2.0698e-09,0.18,0.94,0
0.010155,-0.0071272,0.0044762,0.00010576,0.0013746,-0.00011552,0,0,0.048385,-0.019794,0,-0.0036042,0,0,0,0.0044792,0.00010271,0.0013746,-1.513,0.0019855,0.0038994,1.9889e-09,0.2,0.94,0
0.011118,-0.0074097,0.0044317,8.8775e-05,0.0013561,-5.9334e-05,0,0,0.047979,-0.019771,0,-0.0018512,0,0,0,0.0044326,8.7965e-05,0.0013561,-0.78259,0.0019589,0.0038696,1.9341e-09,0.22,0.94,0
0.012074,-0.0076355,0.0044025,7.5313e-05,0.0013433,-1.1846e-05,0,0,0.047723,-0.019781,0,-0.00036959,0,0,0,0.0044025,7.5281e-05,0.0013433,-0.15685,0.0019404,0.003853,1.901e-09,0.24,0.94,0
0.013027,-0.0078098,0.0043865,6.4182e-05,0.0013352,2.8557e-05,0,0,0.0476,-0.019828,0,0.00089098,0,0,0,0.0043867,6.3994e-05,0.0013352,0.37853,0.0019286,0.0038479,1.8858e-09,0.26,0.94,0
0.013978,-0.0079378,0.004382,5.4558e-05,0.001331,6.2958e-05,0,0,0.047596,-0.019912,0,0.0019643,0,0,0,0.0043829,5.3642e-05,0.001331,0.83334,0.0019225,0.0038528,1.8859e-09,0.28,0.94,0
0.014931,-0.0080246,0.0043874,4.5855e-05,0.00133,9.2062e-05,0,0,0.047696,-0.020032,0,0.0028723,0,0,0,0.0043894,4.3903e-05,0.00133,1.2142,0.0019211,0.0038663,1.899e-09,0.3,0.94,0
0.015886,-0.0080751,0.0044013,3.766e-05,0.0013317,0.0001163,0,0,0.047886,-0.020187,0,0.0036285,0,0,0,0.0044044,3.4563e-05,0.0013317,1.5256,0.0019235,0.0038871,1.9231e-09,0.32,0.94,0
0.016846,-0.0080941,0.0044222,2.9689e-05,0.0013356,0.0001359,0,0,0.048152,-0.020372,0,0.0042402,0,0,0,0.0044264,2.5488e-05,0.0013356,1.7705,0.0019292,0.003914,1.9566e-09,0.34,0.94,0
0.017812,-0.0080866,0.0044489,2.1759e-05,0.0013412,0.00015098,0,0,0.048481,-0.020583,0,0.0047107,0,0,0,0.0044541,1.6615e-05,0.0013412,1.951,0.0019373,0.0039456,1.9979e-09,0.36,0.94,0
0.018785,-0.0080573,0.0044801,1.3776e-05,0.0013482,0.00016156,0,0,0.048858,-0.020816,0,0.0050408,0,0,0,0.0044859,7.9391e-06,0.0013482,2.069,0.0019474,0.0039809,2.0454e-09,0.38,0.94,0
0.019766,-0.0080113,0.0045144,5.7245e-06,0.001356,0.00016763,0,0,0.049271,-0.021065,0,0.0052302,0,0,0,0.0045207,-4.9954e-07,0.001356,2.1263,0.0019587,0.0040185,2.0975e-09,0.4,0.94,0
0.020756,-0.0079533,0.0045507,-2.3425e-06,0.0013645,0.00016919,0,0,0.049705,-0.021323,0,0.0052788,0,0,0,0.004557,-8.621e-06,0.0013645,2.1252,0.001971,0.0040573,2.1526e-09,0.42,0.94,0
0.021755,-0.007888,0.0045877,-1.0312e-05,0.0013732,0.00016628,0,0,0.050146,-0.021583,0,0.005188,0,0,0,0.0045937,-1.6318e-05,0.0013732,2.0684,0.0019835,0.004096,2.209e-09,0.44,0.94,0
0.022762,-0.00782,0.0046242,-1.8023e-05,0.0013819,0.00015901,0,0,0.05058,-0.021838,0,0.0049611,0,0,0,0.0046296,-2.3463e-05,0.0013819,1.9595,0.001996,0.0041336,2.2648e-09,0.46,0.94,0
0.023778,-0.0077537,0.004659,-2.5277e-05,0.0013901,0.00014759,0,0,0.050994,-0.02208,0,0.0046048,0,0,0,0.0046636,-2.9923e-05,0.0013901,1.8029,0.0020079,0.004169,2.3183e-09,0.48,0.94,0
0.024802,-0.0076931,0.004691,-3.1859e-05,0.0013977,0.00013234,0,0,0.051375,-0.022302,0,0.0041289,0,0,0,0.0046947,-3.5564e-05,0.0013977,1.6038,0.002019,0.0042012,2.3679e-09,0.5,0.94,0
0.025833,-0.0076418,0.0047193,-3.7548e-05,0.0014045,0.00011369,0,0,0.05171,-0.022496,0,0.0035471,0,0,0,0.004722,-4.0263e-05,0.0014045,1.3683,0.0020288,0.0042292,2.4119e-09,0.52,0.94,0
0.02687,-0.007603,0.004743,-4.2141e-05,0.0014103,9.2194e-05,0,0,0.051991,-0.022658,0,0.0028764,0,0,0,0.0047448,-4.3917e-05,0.0014103,1.1034,0.002037,0.0042524,2.4488e-09,0.54,0.94,0
0.027912,-0.0075794,0.0047614,-4.5467e-05,0.0014148,6.8502e-05,0,0,0.052208,-0.02278,0,0.0021373,0,0,0,0.0047624,-4.6443e-05,0.0014148,0.81629,0.0020436,0.0042701,2.4774e-09,0.56,0.94,0
0.028958,-0.0075727,0.0047741,-4.74e-05,0.001418,4.3344e-05,0,0,0.052355,-0.02286,0,0.0013523,0,0,0,0.0047745,-4.779e-05,0.001418,0.51502,0.0020482,0.0042818,2.4969e-09,0.58,0.94,0
0.030007,-0.0075845,0.0047806,-4.7874e-05,0.0014198,1.7501e-05,0,0,0.052428,-0.022896,0,0.00054603,0,0,0,0.0047807,-4.7937e-05,0.0014198,0.20767,0.0020508,0.0042875,2.5067e-09,0.6,0.94,0
0.031056,-0.0076154,0.0047809,-4.6884e-05,0.0014202,-8.228e-06,0,0,0.052427,-0.022887,0,-0.00025671,0,0,0,0.0047809,-4.6898e-05,0.0014202,-0.097649,0.0020514,0.0042869,2.5066e-09,0.62,0.94,0
0.032104,-0.0076652,0.0047751,-4.4492e-05,0.0014192,-3.3059e-05,0,0,0.052352,-0.022833,0,-0.0010314,0,0,0,0.0047753,-4.4719e-05,0.0014192,-0.39298,0.0020499,0.0042801,2.4966e-09,0.64,0.94,0
0.03315,-0.0077334,0.0047634,-4.0821e-05,0.0014168,-5.6258e-05,0,0,0.052208,-0.022739,0,-0.0017552,0,0,0,0.0047641,-4.148e-05,0.0014168,-0.67081,0.0020465,0.0042676,2.4773e-09,0.66,0.94,0
0.034192,-0.0078186,0.0047464,-3.6047e-05,0.0014131,-7.7174e-05,0,0,0.051999,-0.022607,0,-0.0024078,0,0,0,0.0047476,-3.7292e-05,0.0014131,-0.92425,0.0020412,0.0042496,2.4496e-09,0.68,0.94,0
0.03523,-0.007919,0.0047247,-3.0384e-05,0.0014083,-9.5261e-05,0,0,0.051735,-0.022443,0,-0.0029721,0,0,0,0.0047266,-3.2292e-05,0.0014083,-1.1472,0.0020342,0.0042269,2.4145e-09,0.7,0.94,0
0.036261,-0.0080323,0.0046989,-2.4074e-05,0.0014024,-0.0001101,0,0,0.051425,-0.022254,0,-0.0034351,0,0,0,0.0047015,-2.6639e-05,0.0014024,-1.3347,0.0020258,0.0042001,2.3734e-09,0.72,0.94,0
0.037287,-0.0081559,0.00467,-1.7366e-05,0.0013958,-0.0001214,0,0,0.051078,-0.022045,0,-0.0037876,0,0,0,0.0046732,-2.0508e-05,0.0013958,-1.4826,0.0020161,0.00417,2.3276e-09,0.74,0.94,0
0.038304,-0.0082868,0.0046388,-1.0503e-05,0.0013885,-0.00012901,0,0,0.050705,-0.021825,0,-0.004025,0,0,0,0.0046424,-1.408e-05,0.0013885,-1.5882,0.0020056,0.0041375,2.2787e-09,0.76,0.94,0
0.039315,-0.0084219,0.0046063,-3.7105e-06,0.0013808,-0.0001329,0,0,0.050318,-0.021598,0,-0.0041464,0,0,0,0.0046102,-7.5385e-06,0.0013808,-1.6499,0.0019945,0.0041036,2.2282e-09,0.78,0.94,0
0.040317,-0.0085582,0.0045734,2.8169e-06,0.0013728,-0.00013316,0,0,0.049928,-0.021372,0,-0.0041546,0,0,0,0.0045772,-1.0593e-06,0.0013728,-1.6674,0.001983,0.0040692,2.1775e-09,0.8,0.94,0
0.041312,-0.0086923,0.0045408,8.9208e-06,0.0013649,-0.00012998,0,0,0.049544,-0.021153,0,-0.0040553,0,0,0,0.0045445,5.196e-06,0.0013649,-1.6415,0.0019715,0.0040351,2.128e-09,0.82,0.94,0
0.042299,-0.0088214,0.0045095,1.4482e-05,0.0013572,-0.00012361,0,0,0.049175,-0.020946,0,-0.0038567,0,0,0,0.0045128,1.1085e-05,0.0013572,-1.574,0.0019604,0.0040023,2.0809e-09,0.84,0.94,0
0.043279,-0.0089426,0.0044801,1.9418e-05,0.0013499,-0.00011438,0,0,0.048832,-0.020755,0,-0.0035686,0,0,0,0.004483,1.6487e-05,0.0013499,-1.4679,0.0019498,0.0039714,2.0372e-09,0.86,0.94,0
0.044252,-0.0090532,0.0044533,2.3683e-05,0.0013431,-0.00010263,0,0,0.04852,-0.020583,0,-0.003202,0,0,0,0.0044557,2.1307e-05,0.0013431,-1.3265,0.00194,0.0039433,1.9978e-09,0.88,0.94,0
0.04522,-0.0091509,0.0044298,2.7258e-05,0.0013371,-8.8733e-05,0,0,0.048245,-0.020434,0,-0.0027685,0,0,0,0.0044316,2.547e-05,0.0013371,-1.1542,0.0019314,0.0039185,1.9634e-09,0.9,0.94,0
0.046182,-0.0092337,0.0044099,3.0144e-05,0.001332,-7.3067e-05,0,0,0.048015,-0.020309,0,-0.0022797,0,0,0,0.0044111,2.8925e-05,0.001332,-0.95552,0.001924,0.0038976,1.9346e-09,0.92,0.94,0
0.04714,-0.0092999,0.004394,3.2356e-05,0.0013279,-5.6003e-05,0,0,0.047831,-0.02021,0,-0.0017473,0,0,0,0.0043947,3.1637e-05,0.0013279,-0.73552,0.0019181,0.0038808,1.9118e-09,0.94,0.94,0
0.048095,-0.0093481,0.0043824,3.3916e-05,0.0013249,-3.7904e-05,0,0,0.047697,-0.020139,0,-0.0011826,0,0,0,0.0043828,3.3585e-05,0.0013249,-0.49937,0.0019138,0.0038687,1.8953e-09,0.96,0.94,0
0.049048,-0.0093774,0.0043754,3.4842e-05,0.0013231,-1.9121e-05,0,0,0.047617,-0.020096,0,-0.00059659,0,0,0,0.0043755,3.4758e-05,0.0013231,-0.2524,0.0019111,0.0038613,1.8853e-09,0.98,0.94,0
0.05,-0.0093872,0.0043731,3.5149e-05,0.0013225,-1.576e-05,0,0,0.047589,-0.020082,0,-0.00049171,0,0,0,0.0043731,3.5092e-05,0.0013225,-0.20816,0.0019102,0.0038589,1.8821e-09,1,0.94,0
0,0,0.0057308,0.0024561,0.0024561,-0.0017816,0,0,0.051086,2.6021e-18,0,-0.055587,0,0,0,0.0065132,0.0016737,0.0024561,-23.708,0.0035476,0.0044997,4.2062e-09,0,0.96,0
0.0010217,-0.0011118,0.0055205,0.0014837,0.0021013,-0.0016097,0,0,0.05334,-0.0096335,0,-0.050222,0,0,0,0.0060837,0.00092046,0.0021013,-19.286,0.0030351,0.0046858,4.1745e-09,0.02,0.96,0
0.0021336,-0.0022799,0.0055063,0.00072404,0.0018691,-0.0012811,0,0,0.05674,-0.017863,0,-0.039969,0,0,0,0.0058278,0.00040249,0.0018691,-14.09,0.0026998,0.0048609,4.139e-09,0.04,0.96,0
0.0032913,-0.0033441,0.0054206,0.0004601,0.0017642,-0.0009307,0,0,0.05704,-0.020344,0,-0.029038,0,0,0,0.0055895,0.00029123,0.0017642,-10.284,0.0025483,0.0047368,3.7318e-09,0.06,0.96,0
0.0044152,-0.0042563,0.0051699,0.00029686,0.00164,-0.00065973,0,0,0.055066,-0.020953,0,-0.020584,0,0,0,0.0052576,0.00020913,0.00164,-7.5753,0.0023689,0.0045068,3.1531e-09,0.08,0.96,0
0.005494,-0.0050385,0.0049316,0.0002029,0.0015403,-0.00047398,0,0,0.052903,-0.020864,0,-0.014788,0,0,0,0.0049786,0.00015585,0.0015403,-5.668,0.0022249,0.004301,2.7045e-09,0.1,0.96,0
0.0065313,-0.0057085,0.0047347,0.00014538,0.001464,-0.0003421,0,0,0.051022,-0.020571,0,-0.010674,0,0,0,0.0047601,0.00012002,0.001464,-4.2397,0.0021147,0.0041352,2.3806e-09,0.12,0.96,0
0.0075349,-0.0062814,0.0045812,0.00010881,0.001407,-0.00024537,0,0,0.049517,-0.020252,0,-0.0076557,0,0,0,0.0045946,9.5388e-05,0.001407,-3.131,0.0020323,0.0040077,2.1518e-09,0.14,0.96,0
0.008512,-0.0067688,0.0044649,8.4495e-05,0.0013648,-0.00017167,0,0,0.048362,-0.019973,0,-0.0053562,0,0,0,0.0044717,7.7778e-05,0.0013648,-2.2409,0.0019714,0.0039125,1.9913e-09,0.16,0.96,0
0.0094693,-0.0071802,0.0043796,6.7651e-05,0.0013342,-0.00011366,0,0,0.047509,-0.019758,0,-0.0035463,0,0,0,0.0043826,6.4657e-05,0.0013342,-1.5089,0.0019271,0.0038438,1.8802e-09,0.18,0.96,0
0.010412,-0.0075232,0.0043197,5.5504e-05,0.0013126,-6.6742e-05,0,0,0.046911,-0.01961,0,-0.0020823,0,0,0,0.0043207,5.446e-05,0.0013126,-0.89649,0.0018959,0.0037969,1.8061e-09,0.2,0.96,0
0.011346,-0.0078044,0.0042809,4.6383e-05,0.0012982,-2.797e-05,0,0,0.04653,-0.019528,0,-0.00087266,0,0,0,0.0042811,4.6198e-05,0.0012982,-0.37843,0.0018751,0.0037682,1.7603e-09,0.22,0.96,0
0.012273,-0.0080298,0.0042598,3.9234e-05,0.0012897,4.5647e-06,0,0,0.046333,-0.019507,0,0.00014242,0,0,0,0.0042598,3.9229e-05,0.0012897,0.061967,0.0018629,0.0037549,1.7373e-09,0.24,0.96,0
0.013199,-0.0082047,0.0042536,3.3369e-05,0.0012861,3.2113e-05,0,0,0.046294,-0.019543,0,0.0010019,0,0,0,0.0042539,3.3124e-05,0.0012861,0.43595,0.0018577,0.0037545,1.7328e-09,0.26,0.96,0
0.014125,-0.0083342,0.0042601,2.8318e-05,0.0012865,5.5489e-05,0,0,0.046388,-0.019628,0,0.0017312,0,0,0,0.0042609,2.759e-05,0.0012865,0.7511,0.0018583,0.0037651,1.7438e-09,0.28,0.96,0
0.015055,-0.0084234,0.0042773,2.3758e-05,0.0012903,7.5201e-05,0,0,0.046597,-0.019758,0,0.0023463,0,0,0,0.0042787,2.2429e-05,0.0012903,1.0125,0.0018638,0.0037851,1.7681e-09,0.3,0.96,0
0.015989,-0.008477,0.0043035,1.946e-05,0.0012969,9.155e-05,0,0,0.046903,-0.019928,0,0.0028564,0,0,0,0.0043054,1.7505e-05,0.0012969,1.2237,0.0018733,0.0038128,1.8038e-09,0.32,0.96,0
0.016931,-0.0084997,0.004337,1.5272e-05,0.0013057,0.00010469,0,0,0.047288,-0.02013,0,0.0032665,0,0,0,0.0043395,1.2737e-05,0.0013057,1.3869,0.001886,0.0038469,1.8493e-09,0.34,0.96,0
0.017881,-0.0084965,0.0043763,1.1095e-05,0.0013162,0.00011469,0,0,0.047738,-0.02036,0,0.0035784,0,0,0,0.0043793,8.0837e-06,0.0013162,1.504,0.0019012,0.003886,1.9029e-09,0.36,0.96,0
0.01884,-0.0084719,0.00442,6.8799e-06,0.0013281,0.00012155,0,0,0.048235,-0.020611,0,0.0037923,0,0,0,0.0044234,3.5348e-06,0.0013281,1.5764,0.0019183,0.0039288,1.9631e-09,0.38,0.96,0
0.01981,-0.0084309,0.0044667,2.6192e-06,0.0013408,0.00012524,0,0,0.048764,-0.020875,0,0.0039075,0,0,0,0.0044702,-8.9163e-07,0.0013408,1.6058,0.0019367,0.0039739,2.0282e-09,0.4,0.96,0
0.020791,-0.008378,0.0045148,-1.6572e-06,0.001354,0.00012576,0,0,0.04931,-0.021147,0,0.0039236,0,0,0,0.0045183,-5.156e-06,0.001354,1.5937,0.0019557,0.0040201,2.0966e-09,0.42,0.96,0
0.021782,-0.0083179,0.0045631,-5.8875e-06,0.0013672,0.00012312,0,0,0.049856,-0.02142,0,0.0038413,0,0,0,0.0045664,-9.2027e-06,0.0013672,1.5424,0.0019748,0.0040661,2.1662e-09,0.44,0.96,0
0.022785,-0.008255,0.0046101,-9.9839e-06,0.00138,0.0001174,0,0,0.050389,-0.021684,0,0.0036628,0,0,0,0.0046131,-1.2965e-05,0.00138,1.4547,0.0019934,0.0041106,2.2352e-09,0.46,0.96,0
0.023798,-0.0081935,0.0046546,-1.384e-05,0.0013922,0.00010874,0,0,0.050892,-0.021934,0,0.0033927,0,0,0,0.0046571,-1.6371e-05,0.0013922,1.3336,0.002011,0.0041524,2.3015e-09,0.48,0.96,0
0.024821,-0.0081373,0.0046952,-1.7339e-05,0.0014034,9.7365e-05,0,0,0.051353,-0.022163,0,0.0030378,0,0,0,0.0046973,-1.935e-05,0.0014034,1.1831,0.0020271,0.0041905,2.3631e-09,0.5,0.96,0
0.025852,-0.0080899,0.0047311,-2.0362e-05,0.0014132,8.3585e-05,0,0,0.051759,-0.022364,0,0.0026079,0,0,0,0.0047325,-2.1832e-05,0.0014132,1.0075,0.0020413,0.0042238,2.418e-09,0.52,0.96,0
0.026891,-0.0080543,0.0047611,-2.2801e-05,0.0014215,6.7791e-05,0,0,0.052098,-0.022531,0,0.0021151,0,0,0,0.0047621,-2.3761e-05,0.0014215,0.8117,0.0020533,0.0042516,2.4646e-09,0.54,0.96,0
0.027936,-0.0080331,0.0047846,-2.4562e-05,0.001428,5.0447e-05,0,0,0.052362,-0.02266,0,0.0015739,0,0,0,0.0047851,-2.5091e-05,0.001428,0.60094,0.0020627,0.0042731,2.5012e-09,0.56,0.96,0
0.028986,-0.0080281,0.0048009,-2.558e-05,0.0014326,3.2076e-05,0,0,0.052546,-0.022748,0,0.0010008,0,0,0,0.0048011,-2.5793e-05,0.0014326,0.38075,0.0020693,0.004288,2.5267e-09,0.58,0.96,0
0.030038,-0.0080407,0.0048098,-2.5816e-05,0.0014352,1.3237e-05,0,0,0.052644,-0.022792,0,0.000413,0,0,0,0.0048099,-2.5852e-05,0.0014352,0.15684,0.0020731,0.0042958,2.5405e-09,0.6,0.96,0
0.031091,-0.0080715,0.0048112,-2.527e-05,0.0014358,-5.4958e-06,0,0,0.052656,-0.022792,0,-0.00017147,0,0,0,0.0048112,-2.5276e-05,0.0014358,-0.065106,0.0020739,0.0042965,2.5423e-09,0.62,0.96,0
0.032144,-0.0081204,0.0048051,-2.3973e-05,0.0014343,-2.356e-05,0,0,0.052584,-0.02275,0,-0.00073509,0,0,0,0.0048052,-2.4088e-05,0.0014343,-0.27953,0.0020718,0.0042902,2.5322e-09,0.64,0.96,0
0.033195,-0.0081868,0.004792,-2.1992e-05,0.001431,-4.0431e-05,0,0,0.052431,-0.022667,0,-0.0012614,0,0,0,0.0047923,-2.2331e-05,0.001431,-0.48116,0.002067,0.0042774,2.5109e-09,0.66,0.96,0
0.034241,-0.0082696,0.0047723,-1.9419e-05,0.0014259,-5.5638e-05,0,0,0.052205,-0.022547,0,-0.0017359,0,0,0,0.004773,-2.0065e-05,0.0014259,-0.66515,0.0020596,0.0042584,2.4795e-09,0.68,0.96,0
0.035283,-0.0083669,0.0047469,-1.6371e-05,0.0014192,-6.879e-05,0,0,0.051913,-0.022395,0,-0.0021463,0,0,0,0.0047479,-1.7364e-05,0.0014192,-0.82722,0.0020499,0.0042339,2.4392e-09,0.7,0.96,0
0.036318,-0.0084766,0.0047167,-1.2975e-05,0.0014111,-7.9584e-05,0,0,0.051567,-0.022216,0,-0.002483,0,0,0,0.004718,-1.4314e-05,0.0014111,-0.96373,0.0020383,0.0042049,2.3918e-09,0.72,0.96,0
0.037346,-0.0085962,0.0046825,-9.366e-06,0.0014019,-8.7811e-05,0,0,0.051177,-0.022016,0,-0.0027397,0,0,0,0.0046841,-1.1009e-05,0.0014019,-1.0718,0.002025,0.0041722,2.339e-09,0.74,0.96,0
0.038365,-0.0087229,0.0046455,-5.6735e-06,0.001392,-9.3362e-05,0,0,0.050755,-0.021803,0,-0.0029129,0,0,0,0.0046474,-7.5468e-06,0.001392,-1.1495,0.0020106,0.0041367,2.2826e-09,0.76,0.96,0
0.039376,-0.0088537,0.0046067,-2.0183e-06,0.0013814,-9.6216e-05,0,0,0.050315,-0.021582,0,-0.0030019,0,0,0,0.0046087,-4.0262e-06,0.0013814,-1.1955,0.0019954,0.0040996,2.2244e-09,0.78,0.96,0
0.040378,-0.0089855,0.0045673,1.4949e-06,0.0013706,-9.6437e-05,0,0,0.049868,-0.021359,0,-0.0030088,0,0,0,0.0045694,-5.4109e-07,0.0013706,-1.2094,0.0019798,0.0040618,2.1661e-09,0.8,0.96,0
0.04137,-0.0091154,0.0045283,4.7809e-06,0.0013599,-9.4158e-05,0,0,0.049427,-0.02114,0,-0.0029377,0,0,0,0.0045303,2.8218e-06,0.0013599,-1.1919,0.0019643,0.0040243,2.1092e-09,0.82,0.96,0
0.042355,-0.0092404,0.0044906,7.7752e-06,0.0013495,-8.9566e-05,0,0,0.049001,-0.020931,0,-0.0027945,0,0,0,0.0044924,5.9864e-06,0.0013495,-1.1441,0.0019493,0.0039882,2.0553e-09,0.84,0.96,0
0.043331,-0.0093578,0.0044553,1.0434e-05,0.0013397,-8.2892e-05,0,0,0.048602,-0.020737,0,-0.0025862,0,0,0,0.0044568,8.8886e-06,0.0013397,-1.068,0.0019351,0.0039542,2.0053e-09,0.86,0.96,0
0.044299,-0.009465,0.004423,1.2731e-05,0.0013307,-7.4388e-05,0,0,0.048239,-0.02056,0,-0.0023209,0,0,0,0.0044242,1.1477e-05,0.0013307,-0.96605,0.0019221,0.0039232,1.9604e-09,0.88,0.96,0
0.04526,-0.0095597,0.0043944,1.4657e-05,0.0013227,-6.4325e-05,0,0,0.047919,-0.020406,0,-0.0020069,0,0,0,0.0043954,1.3713e-05,0.0013227,-0.84125,0.0019106,0.0038957,1.9212e-09,0.9,0.96,0
0.046215,-0.00964,0.0043703,1.6212e-05,0.001316,-5.2973e-05,0,0,0.047648,-0.020276,0,-0.0016528,0,0,0,0.004371,1.5568e-05,0.001316,-0.69694,0.0019008,0.0038726,1.8885e-09,0.92,0.96,0
0.047166,-0.0097042,0.0043511,1.7404e-05,0.0013105,-4.0605e-05,0,0,0.047432,-0.020173,0,-0.0012669,0,0,0,0.0043514,1.7024e-05,0.0013105,-0.53678,0.001893,0.003854,1.8626e-09,0.94,0.96,0
0.048113,-0.0097509,0.004337,1.8245e-05,0.0013066,-2.7484e-05,0,0,0.047275,-0.020098,0,-0.00085749,0,0,0,0.0043372,1.807e-05,0.0013066,-0.3646,0.0018873,0.0038406,1.8438e-09,0.96,0.96,0
0.049057,-0.0097794,0.0043285,1.8744e-05,0.0013042,-1.3865e-05,0,0,0.04718,-0.020053,0,-0.00043259,0,0,0,0.0043285,1.8699e-05,0.0013042,-0.18433,0.0018838,0.0038324,1.8325e-09,0.98,0.96,0
0.05,-0.0097889,0.0043257,1.891e-05,0.0013034,-1.5294e-05,0,0,0.047148,-0.020037,0,-0.00047718,0,0,0,0.0043257,1.8855e-05,0.0013034,-0.20347,0.0018826,0.0038297,1.8288e-09,1,0.96,0
0,0,0.0067359,0.0028868,0.0028868,-0.0021813,0,0,0.060046,1.7347e-18,0,-0.068057,0,0,0,0.0077203,0.0019024,0.0028868,-24.289,0.0041698,0.0053935,7.1617e-09,0,0.98,0
0.0012009,-0.0013611,0.0061371,0.00060794,0.0020235,-0.0013733,0,0,0.064172,-0.022083,0,-0.042847,0,0,0,0.0064594,0.00028564,0.0020235,-13.208,0.0029228,0.0055142,5.8157e-09,0.02,0.98,0
0.0025669,-0.0027123,0.006166,0.0004808,0.001994,-0.00089653,0,0,0.065083,-0.023607,0,-0.027972,0,0,0,0.0063041,0.00034277,0.001994,-8.7523,0.0028803,0.005331,5.3386e-09,0.04,0.98,0
0.0038042,-0.0037899,0.0055321,0.00025735,0.0017368,-0.00053659,0,0,0.059206,-0.02308,0,-0.016741,0,0,0,0.0055861,0.00020332,0.0017368,-5.7501,0.0025088,0.0048033,3.7972e-09,0.06,0.98,0
0.0049351,-0.0046966,0.0050671,0.00015273,0.001566,-0.0003541,0,0,0.054618,-0.022046,0,-0.011048,0,0,0,0.0050925,0.00012735,0.001566,-4.1001,0.0022619,0.0044249,2.9157e-09,0.08,0.98,0
0.005989,-0.0054659,0.0047423,9.7581e-05,0.001452,-0.00024215,0,0,0.051329,-0.021128,0,-0.0075551,0,0,0,0.0047549,8.499e-05,0.001452,-2.9763,0.0020973,0.0041585,2.3928e-09,0.1,0.98,0
0.0069882,-0.0061237,0.0045152,6.7184e-05,0.0013747,-0.00016938,0,0,0.048992,-0.020398,0,-0.0052846,0,0,0,0.0045217,6.0744e-05,0.0013747,-2.1776,0.0019857,0.0039705,2.068e-09,0.12,0.98,0
0.0079486,-0.0066866,0.0043551,4.9046e-05,0.0013212,-0.00011815,0,0,0.047328,-0.019846,0,-0.0036864,0,0,0,0.0043584,4.5806e-05,0.0013212,-1.5706,0.0019085,0.0038372,1.858e-09,0.14,0.98,0
0.0088814,-0.0071663,0.004243,3.7513e-05,0.0012842,-8.0105e-05,0,0,0.046158,-0.019448,0,-0.0024993,0,0,0,0.0042445,3.5988e-05,0.0012842,-1.0908,0.0018549,0.0037439,1.7201e-09,0.16,0.98,0
0.009795,-0.0075722,0.0041669,2.9761e-05,0.001259,-5.0573e-05,0,0,0.045363,-0.019176,0,-0.0015779,0,0,0,0.0041675,2.9143e-05,0.001259,-0.70025,0.0018185,0.0036809,1.6308e-09,0.18,0.98,0
0.010696,-0.0079116,0.0041189,2.4287e-05,0.0012429,-2.6871e-05,0,0,0.044864,-0.019011,0,-0.00083839,0,0,0,0.004119,2.4111e-05,0.0012429,-0.37599,0.0017954,0.0036418,1.5765e-09,0.2,0.98,0
0.01159,-0.0081909,0.0040934,2.0236e-05,0.0012341,-7.3612e-06,0,0,0.044605,-0.018936,0,-0.00022967,0,0,0,0.0040934,2.0223e-05,0.0012341,-0.10355,0.0017826,0.0036222,1.5488e-09,0.22,0.98,0
0.01248,-0.0084158,0.0040865,1.7093e-05,0.0012311,8.9865e-06,0,0,0.044544,-0.018938,0,0.00028038,0,0,0,0.0040865,1.7073e-05,0.0012311,0.12653,0.0017782,0.0036185,1.5422e-09,0.24,0.98,0
0.013371,-0.0085915,0.0040951,1.4527e-05,0.0012329,2.2827e-05,0,0,0.04465,-0.019006,0,0.00071221,0,0,0,0.0040952,1.4399e-05,0.0012329,0.32051,0.0017808,0.0036284,1.5532e-09,0.26,0.98,0
0.014266,-0.0087229,0.0041167,1.2322e-05,0.0012387,3.4575e-05,0,0,0.044896,-0.019131,0,0.0010787,0,0,0,0.004117,1.2031e-05,0.0012387,0.48261,0.0017892,0.0036496,1.5791e-09,0.28,0.98,0
0.015167,-0.008815,0.0041492,1.0328e-05,0.0012479,4.4482e-05,0,0,0.045261,-0.019306,0,0.0013878,0,0,0,0.0041497,9.8505e-06,0.0012479,0.61567,0.0018025,0.0036805,1.6181e-09,0.3,0.98,0
0.016077,-0.0088722,0.0041909,8.4438e-06,0.0012598,5.269e-05,0,0,0.045726,-0.019522,0,0.0016439,0,0,0,0.0041916,7.7801e-06,0.0012598,0.72164,0.0018197,0.0037194,1.6685e-09,0.32,0.98,0
0.016996,-0.0088993,0.0042401,6.5985e-06,0.001274,5.9265e-05,0,0,0.046271,-0.019772,0,0.0018491,0,0,0,0.0042409,5.769e-06,0.001274,0.80188,0.0018402,0.0037648,1.729e-09,0.34,0.98,0
0.017927,-0.008901,0.004295,4.7496e-06,0.0012899,6.4224e-05,0,0,0.046879,-0.020049,0,0.0020038,0,0,0,0.004296,3.7884e-06,0.0012899,0.85744,0.0018632,0.0038153,1.7982e-09,0.36,0.98,0
0.018871,-0.0088818,0.0043542,2.8757e-06,0.0013071,6.7556e-05,0,0,0.047534,-0.020346,0,0.0021077,0,0,0,0.0043552,1.8271e-06,0.0013071,0.88926,0.0018881,0.0038695,1.8745e-09,0.38,0.98,0
0.019829,-0.0088463,0.0044159,9.7447e-07,0.0013251,6.9238e-05,0,0,0.048217,-0.020656,0,0.0021602,0,0,0,0.004417,-1.1109e-07,0.0013251,0.89825,0.001914,0.003926,1.9563e-09,0.4,0.98,0
0.0208,-0.0087992,0.0044787,-9.3947e-07,0.0013433,6.9254e-05,0,0,0.048912,-0.02097,0,0.0021607,0,0,0,0.0044798,-2.0098e-06,0.0013433,0.88549,0.0019404,0.0039833,2.0418e-09,0.42,0.98,0
0.021785,-0.0087448,0.0045409,-2.8372e-06,0.0013614,6.7605e-05,0,0,0.0496,-0.021282,0,0.0021093,0,0,0,0.0045419,-3.8429e-06,0.0013614,0.85224,0.0019665,0.00404,2.1289e-09,0.44,0.98,0
0.022784,-0.0086874,0.004601,-4.678e-06,0.0013789,6.4325e-05,0,0,0.050264,-0.021584,0,0.0020069,0,0,0,0.0046019,-5.5763e-06,0.0013789,0.80002,0.0019917,0.0040947,2.2152e-09,0.46,0.98,0
0.023796,-0.0086311,0.0046574,-6.4128e-06,0.0013953,5.9485e-05,0,0,0.050889,-0.021867,0,0.0018559,0,0,0,0.0046582,-7.1714e-06,0.0013953,0.73062,0.0020154,0.004146,2.2984e-09,0.48,0.98,0
0.02482,-0.0085796,0.0047089,-7.9879e-06,0.0014103,5.3202e-05,0,0,0.051458,-0.022125,0,0.0016599,0,0,0,0.0047095,-8.5878e-06,0.0014103,0.64613,0.0020371,0.0041928,2.3758e-09,0.5,0.98,0
0.025854,-0.0085364,0.0047541,-9.349e-06,0.0014234,4.5637e-05,0,0,0.051958,-0.022351,0,0.0014239,0,0,0,0.0047545,-9.7862e-06,0.0014234,0.54887,0.002056,0.0042337,2.4452e-09,0.52,0.98,0
0.026898,-0.0085043,0.0047919,-1.0446e-05,0.0014344,3.7001e-05,0,0,0.052376,-0.02254,0,0.0011544,0,0,0,0.0047922,-1.0731e-05,0.0014344,0.44142,0.002072,0.004268,2.5043e-09,0.54,0.98,0
0.027949,-0.0084858,0.0048215,-1.1236e-05,0.0014431,2.7542e-05,0,0,0.052703,-0.022687,0,0.0008593,0,0,0,0.0048216,-1.1393e-05,0.0014431,0.32652,0.0020844,0.0042947,2.5511e-09,0.56,0.98,0
0.029006,-0.0084826,0.0048422,-1.169e-05,0.0014491,1.754e-05,0,0,0.052931,-0.022789,0,0.00054725,0,0,0,0.0048423,-1.1753e-05,0.0014491,0.20704,0.0020932,0.0043133,2.5842e-09,0.58,0.98,0
0.030066,-0.0084962,0.0048537,-1.1789e-05,0.0014526,7.2978e-06,0,0,0.053057,-0.022844,0,0.00022769,0,0,0,0.0048537,-1.1799e-05,0.0014526,0.085939,0.0020982,0.0043235,2.6025e-09,0.6,0.98,0
0.031128,-0.008527,0.0048558,-1.1532e-05,0.0014533,-2.8763e-06,0,0,0.05308,-0.022851,0,-8.9741e-05,0,0,0,0.0048558,-1.1534e-05,0.0014533,-0.033858,0.0020992,0.0043252,2.6058e-09,0.62,0.98,0
0.03219,-0.0085752,0.0048488,-1.0936e-05,0.0014514,-1.2679e-05,0,0,0.053,-0.022812,0,-0.00039558,0,0,0,0.0048489,-1.0969e-05,0.0014514,-0.14948,0.0020964,0.0043185,2.5943e-09,0.64,0.98,0
0.033248,-0.00864,0.0048332,-1.0028e-05,0.0014469,-2.1826e-05,0,0,0.052825,-0.022729,0,-0.00068096,0,0,0,0.0048332,-1.0126e-05,0.0014469,-0.2582,0.00209,0.004304,2.5688e-09,0.66,0.98,0
0.034303,-0.0087204,0.0048095,-8.8523e-06,0.0014402,-3.0065e-05,0,0,0.052561,-0.022605,0,-0.00093802,0,0,0,0.0048097,-9.0399e-06,0.0014402,-0.35749,0.0020803,0.0042822,2.5309e-09,0.68,0.98,0
0.035351,-0.0088148,0.0047788,-7.4606e-06,0.0014314,-3.7185e-05,0,0,0.052219,-0.022446,0,-0.0011602,0,0,0,0.0047791,-7.7494e-06,0.0014314,-0.4451,0.0020676,0.0042539,2.4822e-09,0.7,0.98,0
0.036391,-0.0089209,0.0047421,-5.9114e-06,0.0014208,-4.3022e-05,0,0,0.051811,-0.022257,0,-0.0013423,0,0,0,0.0047425,-6.3012e-06,0.0014208,-0.51911,0.0020523,0.0042202,2.4248e-09,0.72,0.98,0
0.037423,-0.0090365,0.0047006,-4.2657e-06,0.0014089,-4.7466e-05,0,0,0.051351,-0.022045,0,-0.0014809,0,0,0,0.0047011,-4.7445e-06,0.0014089,-0.57796,0.0020351,0.0041822,2.3611e-09,0.74,0.98,0
0.038445,-0.0091589,0.0046557,-2.5828e-06,0.0013959,-5.0459e-05,0,0,0.050852,-0.021817,0,-0.0015743,0,0,0,0.0046562,-3.1293e-06,0.0013959,-0.62054,0.0020163,0.004141,2.2933e-09,0.76,0.98,0
0.039457,-0.0092852,0.0046086,-9.1752e-07,0.0013823,-5.1991e-05,0,0,0.05033,-0.021578,0,-0.0016221,0,0,0,0.0046092,-1.5039e-06,0.0013823,-0.64613,0.0019967,0.0040979,2.2237e-09,0.78,0.98,0
0.040459,-0.0094125,0.0045607,6.8247e-07,0.0013684,-5.2098e-05,0,0,0.049799,-0.021337,0,-0.0016255,0,0,0,0.0045613,8.7327e-08,0.0013684,-0.65449,0.0019766,0.0040541,2.1543e-09,0.8,0.98,0
0.041449,-0.0095379,0.0045132,2.1784e-06,0.0013546,-5.0854e-05,0,0,0.049274,-0.021098,0,-0.0015866,0,0,0,0.0045138,1.6052e-06,0.0013546,-0.64579,0.0019567,0.0040107,2.087e-09,0.82,0.98,0
0.04243,-0.0096587,0.0044675,3.541e-06,0.0013413,-4.8361e-05,0,0,0.048768,-0.020869,0,-0.0015089,0,0,0,0.004468,3.0171e-06,0.0013413,-0.62063,0.0019374,0.0039688,2.0234e-09,0.84,0.98,0
0.0434,-0.0097721,0.0044245,4.7503e-06,0.0013288,-4.4746e-05,0,0,0.048293,-0.020655,0,-0.0013961,0,0,0,0.0044249,4.2973e-06,0.0013288,-0.57999,0.0019193,0.0039295,1.9648e-09,0.86,0.98,0
0.044361,-0.0098756,0.0043852,5.7948e-06,0.0013173,-4.0146e-05,0,0,0.047859,-0.020459,0,-0.0012526,0,0,0,0.0043856,5.4268e-06,0.0013173,-0.52517,0.0019028,0.0038937,1.9123e-09,0.88,0.98,0
0.045314,-0.0099672,0.0043506,6.6699e-06,0.0013072,-3.4707e-05,0,0,0.047477,-0.020288,0,-0.0010829,0,0,0,0.0043508,6.3926e-06,0.0013072,-0.45774,0.0018881,0.003862,1.8667e-09,0.9,0.98,0
0.04626,-0.010045,0.0043212,7.3762e-06,0.0012986,-2.8577e-05,0,0,0.047154,-0.020143,0,-0.0008916,0,0,0,0.0043214,7.1869e-06,0.0012986,-0.37953,0.0018757,0.0038352,1.8288e-09,0.92,0.98,0
0.047201,-0.010107,0.0042978,7.9174e-06,0.0012917,-2.1901e-05,0,0,0.046895,-0.020028,0,-0.00068332,0,0,0,0.004298,7.8056e-06,0.0012917,-0.2925,0.0018658,0.0038139,1.7988e-09,0.94,0.98,0
0.048136,-0.010152,0.0042808,8.2988e-06,0.0012867,-1.4822e-05,0,0,0.046708,-0.019944,0,-0.00046245,0,0,0,0.0042809,8.2474e-06,0.0012867,-0.19876,0.0018586,0.0037983,1.7772e-09,0.96,0.98,0
0.049069,-0.010179,0.0042705,8.5253e-06,0.0012837,-7.477e-06,0,0,0.046594,-0.019893,0,-0.00023328,0,0,0,0.0042705,8.5122e-06,0.0012837,-0.10052,0.0018542,0.0037889,1.7642e-09,0.98,0.98,0
0.05,-0.010189,0.004267,8.6004e-06,0.0012827,-1.4787e-05,0,0,0.046555,-0.019876,0,-0.00046136,0,0,0,0.004267,8.5491e-06,0.0012827,-0.19895,0.0018528,0.0037858,1.7599e-09,1,0.98,0
0,0,0.011331,0.004856,0.004856,-0.0031972,0,0,0.10101,-2.0817e-17,0,-0.099753,0,0,0,0.012643,0.0035434,0.004856,-22.321,0.0070143,0.0085199,2.9238e-08,0,1,0
0.0020201,-0.0019951,0.0081334,0.00058323,0.002615,-0.0012707,0,0,0.086088,-0.031696,0,-0.039645,0,0,0,0.0083415,0.00037512,0.002615,-9.3013,0.0037772,0.007116,1.2513e-08,0.02,1,0
0.0034435,-0.0032242,0.0060215,0.00023669,0.0018775,-0.00041581,0,0,0.064647,-0.025596,0,-0.012973,0,0,0,0.0060513,0.00020696,0.0018775,-4.0903,0.0027119,0.0052138,4.8396e-09,0.04,1,0
0.004606,-0.0042673,0.0050384,-2.6293e-05,0.0015036,-0.0002487,0,0,0.055142,-0.023867,0,-0.0077595,0,0,0,0.0050506,-3.8476e-05,0.0015036,-2.8045,0.0021719,0.0045198,2.9484e-09,0.06,1,0
0.0056492,-0.0051381,0.0045836,-5.7191e-05,0.0013579,-0.00015078,0,0,0.050321,-0.022076,0,-0.0047045,0,0,0,0.0045885,-6.2085e-05,0.0013579,-1.859,0.0019614,0.004128,2.2245e-09,0.08,1,0
0.0066188,-0.0058837,0.0043002,-7.0084e-05,0.001269,-0.00010137,0,0,0.047286,-0.02089,0,-0.0031628,0,0,0,0.0043025,-7.2434e-05,0.001269,-1.3281,0.001833,0.0038822,1.8402e-09,0.1,1,0
0.0075406,-0.0065244,0.0041162,-7.0559e-05,0.0012137,-6.9548e-05,0,0,0.04528,-0.020035,0,-0.0021699,0,0,0,0.0041174,-7.1714e-05,0.0012137,-0.9514,0.0017531,0.003717,1.6136e-09,0.12,1,0
0.00843,-0.0070752,0.0039932,-6.8274e-05,0.0011775,-4.7738e-05,0,0,0.043925,-0.019434,0,-0.0014894,0,0,0,0.0039938,-6.8835e-05,0.0011775,-0.67333,0.0017008,0.0036048,1.4724e-09,0.14,1,0
0.0092977,-0.0075467,0.0039132,-6.4707e-05,0.0011546,-3.1639e-05,0,0,0.043035,-0.01902,0,-0.00098713,0,0,0,0.0039135,-6.4958e-05,0.0011546,-0.45567,0.0016677,0.0035304,1.3844e-09,0.16,1,0
0.010151,-0.0079473,0.0038655,-6.0694e-05,0.0011415,-1.9191e-05,0,0,0.042496,-0.018753,0,-0.00059875,0,0,0,0.0038656,-6.0788e-05,0.0011415,-0.28005,0.0016488,0.0034845,1.3331e-09,0.18,1,0
0.010998,-0.0082837,0.0038433,-5.6501e-05,0.001136,-9.2056e-06,0,0,0.042233,-0.018603,0,-0.00028722,0,0,0,0.0038433,-5.6522e-05,0.001136,-0.13525,0.0016409,0.0034612,1.3088e-09,0.2,1,0
0.011841,-0.0085619,0.0038418,-5.2239e-05,0.0011369,-9.788e-07,0,0,0.042197,-0.01855,0,-3.0539e-05,0,0,0,0.0038418,-5.2239e-05,0.0011369,-0.014402,0.0016421,0.0034564,1.3057e-09,0.22,1,0
0.012685,-0.0087873,0.0038577,-4.7947e-05,0.0011429,5.9267e-06,0,0,0.04235,-0.018578,0,0.00018491,0,0,0,0.0038577,-4.7956e-05,0.0011429,0.086945,0.0016509,0.0034671,1.3204e-09,0.24,1,0
0.013535,-0.0089649,0.0038883,-4.3636e-05,0.0011534,1.1785e-05,0,0,0.042664,-0.018674,0,0.0003677,0,0,0,0.0038883,-4.3671e-05,0.0011534,0.17173,0.001666,0.0034909,1.3504e-09,0.26,1,0
0.014392,-0.0090995,0.0039315,-3.9308e-05,0.0011677,1.6768e-05,0,0,0.043116,-0.018829,0,0.00052316,0,0,0,0.0039316,-3.9379e-05,0.0011677,0.24194,0.0016866,0.0035259,1.3943e-09,0.28,1,0
0.015259,-0.0091956,0.0039855,-3.4967e-05,0.0011852,2.0976e-05,0,0,0.043685,-0.019034,0,0.00065445,0,0,0,0.0039856,-3.5076e-05,0.0011852,0.29892,0.0017119,0.0035705,1.4506e-09,0.3,1,0
0.016139,-0.0092578,0.0040484,-3.0619e-05,0.0012053,2.4464e-05,0,0,0.044352,-0.019281,0,0.00076328,0,0,0,0.0040486,-3.0766e-05,0.0012053,0.34362,0.0017411,0.0036231,1.5186e-09,0.32,1,0
0.017034,-0.0092906,0.0041188,-2.6279e-05,0.0012277,2.7255e-05,0,0,0.0451,-0.019563,0,0.00085035,0,0,0,0.0041189,-2.6458e-05,0.0012277,0.37671,0.0017734,0.0036821,1.5972e-09,0.34,1,0
0.017943,-0.0092984,0.0041948,-2.1968e-05,0.0012519,2.935e-05,0,0,0.04591,-0.019872,0,0.00091571,0,0,0,0.004195,-2.2172e-05,0.0012519,0.39876,0.0018082,0.0037463,1.6854e-09,0.36,1,0
0.01887,-0.0092858,0.0042749,-1.7717e-05,0.0012771,3.0738e-05,0,0,0.046765,-0.0202,0,0.00095903,0,0,0,0.0042751,-1.7937e-05,0.0012771,0.41025,0.0018448,0.0038141,1.7817e-09,0.38,1,0
0.019814,-0.0092571,0.0043572,-1.3564e-05,0.0013031,3.1407e-05,0,0,0.047644,-0.02054,0,0.00097989,0,0,0,0.0043574,-1.3789e-05,0.0013031,0.41168,0.0018822,0.003884,1.8845e-09,0.4,1,0
0.020776,-0.0092168,0.0044399,-9.5509e-06,0.0013291,3.1344e-05,0,0,0.048529,-0.020883,0,0.00097794,0,0,0,0.0044402,-9.7717e-06,0.0013291,0.40359,0.0019198,0.0039543,1.9919e-09,0.42,1,0
0.021755,-0.0091692,0.0045213,-5.7274e-06,0.0013547,3.0548e-05,0,0,0.0494,-0.021222,0,0.0009531,0,0,0,0.0045216,-5.9335e-06,0.0013547,0.3866,0.0019568,0.0040236,2.1015e-09,0.44,1,0
0.022752,-0.0091184,0.0045995,-2.1446e-06,0.0013792,2.903e-05,0,0,0.050237,-0.021549,0,0.00090575,0,0,0,0.0045997,-2.3278e-06,0.0013792,0.36144,0.0019922,0.0040902,2.2104e-09,0.46,1,0
0.023765,-0.0090682,0.0046727,1.1452e-06,0.0014021,2.6821e-05,0,0,0.05102,-0.021856,0,0.00083683,0,0,0,0.0046728,9.9119e-07,0.0014021,0.32895,0.0020253,0.0041525,2.3157e-09,0.48,1,0
0.024792,-0.0090223,0.0047391,4.0915e-06,0.001423,2.3971e-05,0,0,0.051732,-0.022134,0,0.0007479,0,0,0,0.0047392,3.9702e-06,0.001423,0.29005,0.0020554,0.0042092,2.4142e-09,0.5,1,0
0.025834,-0.0089839,0.0047973,6.6479e-06,0.0014412,2.0552e-05,0,0,0.052355,-0.022379,0,0.00064121,0,0,0,0.0047974,6.5598e-06,0.0014412,0.24579,0.0020817,0.0042588,2.5028e-09,0.52,1,0
0.026887,-0.0089559,0.0048459,8.7744e-06,0.0014564,1.6656e-05,0,0,0.052876,-0.022583,0,0.00051966,0,0,0,0.0048459,8.717e-06,0.0014564,0.19729,0.0021037,0.0043002,2.5783e-09,0.54,1,0
0.027949,-0.0089406,0.0048838,1.0439e-05,0.0014683,1.2394e-05,0,0,0.053282,-0.022742,0,0.0003867,0,0,0,0.0048838,1.0408e-05,0.0014683,0.14572,0.0021208,0.0043325,2.6383e-09,0.56,1,0
0.029018,-0.0089397,0.0049102,1.1622e-05,0.0014765,7.8928e-06,0,0,0.053565,-0.022853,0,0.00024626,0,0,0,0.0049102,1.1609e-05,0.0014765,0.092317,0.0021328,0.004355,2.6806e-09,0.58,1,0
0.030091,-0.0089545,0.0049247,1.2312e-05,0.0014811,3.2864e-06,0,0,0.05372,-0.022913,0,0.00010254,0,0,0,0.0049247,1.231e-05,0.0014811,0.038331,0.0021394,0.0043674,2.7041e-09,0.6,1,0
0.031167,-0.0089855,0.0049273,1.2513e-05,0.001482,-1.2861e-06,0,0,0.053748,-0.022923,0,-4.0127e-05,0,0,0,0.0049273,1.2513e-05,0.001482,-0.014993,0.0021406,0.0043695,2.7083e-09,0.62,1,0
0.032241,-0.0090329,0.0049182,1.2241e-05,0.0014791,-5.6888e-06,0,0,0.053649,-0.022884,0,-0.00017749,0,0,0,0.0049182,1.2234e-05,0.0014791,-0.066438,0.0021365,0.0043616,2.6934e-09,0.64,1,0
0.033313,-0.009096,0.004898,1.1523e-05,0.0014729,-9.7943e-06,0,0,0.053432,-0.022797,0,-0.00030558,0,0,0,0.004898,1.1503e-05,0.0014729,-0.11484,0.0021275,0.0043443,2.6608e-09,0.66,1,0
0.034379,-0.0091738,0.0048677,1.0398e-05,0.0014634,-1.3489e-05,0,0,0.053107,-0.022667,0,-0.00042087,0,0,0,0.0048677,1.0361e-05,0.0014634,-0.15912,0.0021138,0.0043183,2.6124e-09,0.68,1,0
0.035437,-0.0092648,0.0048285,8.9151e-06,0.0014512,-1.668e-05,0,0,0.052685,-0.0225,0,-0.0005204,0,0,0,0.0048285,8.8573e-06,0.0014512,-0.19829,0.0020962,0.0042846,2.5505e-09,0.7,1,0
0.036486,-0.0093669,0.0047817,7.1303e-06,0.0014367,-1.9292e-05,0,0,0.052183,-0.022301,0,-0.00060192,0,0,0,0.0047818,7.0524e-06,0.0014367,-0.2315,0.0020752,0.0042445,2.4782e-09,0.72,1,0
0.037524,-0.0094781,0.004729,5.1062e-06,0.0014202,-2.1278e-05,0,0,0.051617,-0.022076,0,-0.00066387,0,0,0,0.0047291,5.0104e-06,0.0014202,-0.25807,0.0020514,0.0041993,2.3982e-09,0.74,1,0
0.038551,-0.0095956,0.0046721,2.9085e-06,0.0014025,-2.2611e-05,0,0,0.051005,-0.021833,0,-0.00070548,0,0,0,0.0046722,2.799e-06,0.0014025,-0.27746,0.0020258,0.0041505,2.3138e-09,0.76,1,0
0.039565,-0.0097168,0.0046126,6.0428e-07,0.0013839,-2.3289e-05,0,0,0.050366,-0.02158,0,-0.00072663,0,0,0,0.0046127,4.8667e-07,0.0013839,-0.28932,0.001999,0.0040995,2.2277e-09,0.78,1,0
0.040565,-0.009839,0.0045522,-1.7401e-06,0.0013651,-2.3329e-05,0,0,0.049718,-0.021323,0,-0.00072785,0,0,0,0.0045523,-1.8596e-06,0.0013651,-0.2935,0.0019719,0.0040476,2.1425e-09,0.8,1,0
0.041553,-0.0099593,0.0044925,-4.061e-06,0.0013465,-2.2763e-05,0,0,0.049077,-0.021069,0,-0.0007102,0,0,0,0.0044926,-4.1762e-06,0.0013465,-0.29004,0.001945,0.0039965,2.0605e-09,0.82,1,0
0.042528,-0.010075,0.0044351,-6.2988e-06,0.0013286,-2.164e-05,0,0,0.048461,-0.020825,0,-0.00067515,0,0,0,0.0044352,-6.4043e-06,0.0013286,-0.27915,0.0019191,0.0039472,1.9836e-09,0.84,1,0
0.043492,-0.010184,0.0043813,-8.3995e-06,0.0013119,-2.0015e-05,0,0,0.047883,-0.020596,0,-0.00062446,0,0,0,0.0043814,-8.4907e-06,0.0013119,-0.26123,0.0018949,0.003901,1.9133e-09,0.86,1,0
0.044444,-0.010283,0.0043323,-1.0315e-05,0.0012966,-1.7951e-05,0,0,0.047356,-0.020388,0,-0.00056009,0,0,0,0.0043323,-1.0389e-05,0.0012966,-0.23685,0.0018728,0.0038589,1.8506e-09,0.88,1,0
0.045386,-0.010371,0.0042891,-1.2004e-05,0.0012831,-1.5515e-05,0,0,0.046893,-0.020204,0,-0.00048407,0,0,0,0.0042891,-1.206e-05,0.0012831,-0.20668,0.0018534,0.0038219,1.7966e-09,0.9,1,0
0.046319,-0.010446,0.0042526,-1.3431e-05,0.0012718,-1.2771e-05,0,0,0.046501,-0.020049,0,-0.00039847,0,0,0,0.0042526,-1.3469e-05,0.0012718,-0.17153,0.001837,0.0037906,1.7518e-09,0.92,1,0
0.047246,-0.010505,0.0042235,-1.4569e-05,0.0012627,-9.786e-06,0,0,0.046189,-0.019925,0,-0.00030532,0,0,0,0.0042235,-1.4592e-05,0.0012627,-0.1323,0.0018239,0.0037656,1.7166e-09,0.94,1,0
0.048167,-0.010549,0.0042024,-1.5397e-05,0.0012561,-6.6219e-06,0,0,0.045962,-0.019835,0,-0.0002066,0,0,0,0.0042024,-1.5408e-05,0.0012561,-0.089954,0.0018143,0.0037475,1.6913e-09,0.96,1,0
0.049084,-0.010575,0.0041895,-1.59e-05,0.0012521,-3.3401e-06,0,0,0.045824,-0.019781,0,-0.00010421,0,0,0,0.0041895,-1.5903e-05,0.0012521,-0.045506,0.0018086,0.0037365,1.6761e-09,0.98,1,0
0.05,-0.010584,0.0041852,-1.6069e-05,0.0012507,-1.4201e-05,0,0,0.045778,-0.019762,0,-0.00044306,0,0,0,0.0041853,-1.6117e-05,0.0012507,-0.19366,0.0018066,0.0037328,1.6711e-09,1,1,0
