"Displacements:0","Displacements:1","Stress/Strain:0","Stress/Strain:1","Stress/Strain:2","Stress/Strain:3","Stress/Strain:4","Stress/Strain:5","Stress/Strain:6","Stress/Strain:7","Stress/Strain:8","Stress/Strain:9","Stress/Strain:10","Stress/Strain:11","Stress/Strain:12","Principal Stress:0","Principal Stress:1","Principal Stress:2","Principal Stress:3","Principal Stress:4","Principal Stress:5","Principal Stress:6","nodes:0","nodes:1","nodes:2"
0,0,0.0726,0.031114,0.031114,0.020398,0,0,0.10786,0,0,0.10607,0,0,0,0.080949,0.022765,0.031114,22.26,0.044943,0.054491,7.6566e-06,0,0,0
0.0021572,0.0021214,0.052185,0.0037094,0.016768,0.0080925,0,0,0.092084,-0.033953,0,0.042081,0,0,0,0.053501,0.0023942,0.016768,9.2315,0.024221,0.04565,3.3024e-06,0.02,0,0
0.0036834,0.0034235,0.038808,0.0015113,0.012096,0.0026252,0,0,0.069452,-0.02752,0,0.013651,0,0,0,0.038992,0.0013274,0.012096,4.0065,0.017472,0.0336,1.295e-06,0.04,0,0
0.0049353,0.0045296,0.032613,-0.00015868,0.0097364,0.0015692,0,0,0.05948,-0.025727,0,0.0081597,0,0,0,0.032688,-0.00023364,0.0097364,2.7351,0.014064,0.029241,7.9896e-07,0.06,0,0
0.0060626,0.0054567,0.029754,-0.00034904,0.0088215,0.00095849,0,0,0.054424,-0.023843,0,0.0049841,0,0,0,0.029784,-0.00037953,0.0088215,1.8219,0.012742,0.026777,6.079e-07,0.08,0,0
0.0071123,0.0062563,0.027943,-0.00042816,0.0082545,0.00065998,0,0,0.051191,-0.022575,0,0.0034319,0,0,0,0.027959,-0.0004435,0.0082545,1.3319,0.011923,0.025205,5.0443e-07,0.1,0,0
0.0081102,0.006951,0.026719,-0.00043088,0.0078866,0.00047532,0,0,0.048965,-0.021625,0,0.0024716,0,0,0,0.026728,-0.0004392,0.0078866,1.0027,0.011392,0.024108,4.4095e-07,0.12,0,0
0.0090709,0.007557,0.025834,-0.00041863,0.0076245,0.00035543,0,0,0.047344,-0.020912,0,0.0018482,0,0,0,0.025839,-0.00042345,0.0076245,0.77554,0.011013,0.023305,3.9838e-07,0.14,0,0
0.010004,0.0080853,0.025171,-0.00040063,0.0074312,0.00027213,0,0,0.046124,-0.020363,0,0.001415,0,0,0,0.025174,-0.00040353,0.0074312,0.60963,0.010734,0.022698,3.683e-07,0.16,0,0
0.010916,0.0085439,0.024664,-0.00038198,0.0072847,0.00021148,0,0,0.045187,-0.019933,0,0.0010997,0,0,0,0.024666,-0.00038377,0.0072847,0.48373,0.010522,0.022231,3.4628e-07,0.18,0,0
0.011811,0.0089391,0.024272,-0.00036407,0.0071725,0.00016505,0,0,0.04446,-0.019595,0,0.00085826,0,0,0,0.024273,-0.00036518,0.0071725,0.38383,0.01036,0.021867,3.2983e-07,0.2,0,0
0.012694,0.0092755,0.023971,-0.00034718,0.007087,0.00012742,0,0,0.043897,-0.019329,0,0.00066261,0,0,0,0.023971,-0.00034785,0.007087,0.30022,0.010237,0.021584,3.1749e-07,0.22,0,0
0.013567,0.0095567,0.023745,-0.00033098,0.0070243,9.4839e-05,0,0,0.043475,-0.019124,0,0.00049317,0,0,0,0.023746,-0.00033135,0.0070243,0.22569,0.010146,0.021371,3.0843e-07,0.24,0,0
0.014433,0.0097858,0.02359,-0.00031483,0.0069827,6.4555e-05,0,0,0.04318,-0.018974,0,0.00033569,0,0,0,0.023591,-0.00031501,0.0069827,0.15472,0.010086,0.02122,3.0224e-07,0.26,0,0
0.015295,0.009965,0.023505,-0.00029791,0.0069622,3.4545e-05,0,0,0.043012,-0.018876,0,0.00017963,0,0,0,0.023505,-0.00029796,0.0069622,0.083151,0.010056,0.02113,2.9876e-07,0.28,0,0
0.016154,0.010096,0.023494,-0.00027927,0.0069643,3.3705e-06,0,0,0.042976,-0.018833,0,1.7527e-05,0,0,0,0.023494,-0.00027927,0.0069643,0.0081234,0.01006,0.021105,2.9808e-07,0.3,0,0
0.017014,0.010182,0.023562,-0.00025791,0.0069912,-2.9832e-05,0,0,0.043084,-0.018848,0,-0.00015513,0,0,0,0.023562,-0.00025795,0.0069912,-0.071758,0.010098,0.021149,3.0039e-07,0.32,0,0
0.017877,0.010225,0.023718,-0.00023291,0.0070456,-6.5311e-05,0,0,0.043349,-0.018924,0,-0.00033962,0,0,0,0.023718,-0.00023309,0.0070456,-0.15624,0.010177,0.021268,3.0607e-07,0.34,0,0
0.018748,0.010228,0.02397,-0.00020349,0.00713,-0.00010262,0,0,0.043784,-0.019067,0,-0.0005336,0,0,0,0.023971,-0.00020392,0.00713,-0.24321,0.010299,0.021469,3.155e-07,0.36,0,0
0.019629,0.010194,0.024323,-0.00016916,0.0072461,-0.00014051,0,0,0.044399,-0.01928,0,-0.00073067,0,0,0,0.024324,-0.00016997,0.0072461,-0.3287,0.010467,0.021755,3.2912e-07,0.38,0,0
0.020524,0.010128,0.024776,-0.00012997,0.0073939,-0.00017692,0,0,0.045194,-0.019562,0,-0.00091999,0,0,0,0.024778,-0.00013123,0.0073939,-0.40697,0.01068,0.022128,3.4727e-07,0.4,0,0
0.021436,0.010036,0.025324,-8.6597e-05,0.0075712,-0.00020894,0,0,0.046157,-0.01991,0,-0.0010865,0,0,0,0.025326,-8.8315e-05,0.0075712,-0.47108,0.010936,0.02258,3.7012e-07,0.42,0,0
0.02237,0.0099258,0.025949,-4.0385e-05,0.0077727,-0.00023309,0,0,0.047259,-0.020314,0,-0.0012121,0,0,0,0.025951,-4.2475e-05,0.0077727,-0.5138,0.011227,0.0231,3.9746e-07,0.44,0,0
0.023327,0.0098057,0.026626,6.9215e-06,0.0079899,-0.00024584,0,0,0.048454,-0.020756,0,-0.0012784,0,0,0,0.026628,4.6512e-06,0.0079899,-0.5291,0.011541,0.023664,4.2855e-07,0.46,0,0
0.024308,0.0096851,0.027318,5.3545e-05,0.0082116,-0.00024455,0,0,0.049678,-0.021211,0,-0.0012717,0,0,0,0.027321,5.1352e-05,0.0082116,-0.51385,0.011861,0.024242,4.62e-07,0.48,0,0
0.025314,0.0095739,0.027985,9.7922e-05,0.008425,-0.00022829,0,0,0.050857,-0.02165,0,-0.0011871,0,0,0,0.027987,9.6053e-05,0.008425,-0.46899,0.012169,0.024799,4.9582e-07,0.5,0,0
0.026342,0.0094816,0.028587,0.00013852,0.0086176,-0.0001984,0,0,0.05192,-0.022045,0,-0.0010317,0,0,0,0.028588,0.00013714,0.0086176,-0.39955,0.012448,0.0253,5.2766e-07,0.52,0,0
0.027391,0.0094167,0.029088,0.00017344,0.0087784,-0.00015796,0,0,0.052804,-0.022373,0,-0.00082141,0,0,0,0.029089,0.00017258,0.0087784,-0.313,0.01268,0.025717,5.5517e-07,0.54,0,0
0.028454,0.0093859,0.029464,0.00020024,0.0088992,-0.00011075,0,0,0.053468,-0.022617,0,-0.00057591,0,0,0,0.029464,0.00019982,0.0088992,-0.21684,0.012854,0.026029,5.7642e-07,0.56,0,0
0.029529,0.009394,0.0297,0.00021649,0.0089748,-5.9988e-05,0,0,0.053884,-0.022772,0,-0.00031194,0,0,0,0.0297,0.00021637,0.0089748,-0.11658,0.012964,0.026225,5.9003e-07,0.58,0,0
0.03061,0.0094438,0.029788,0.00022064,0.0090026,-7.9472e-06,0,0,0.054042,-0.022833,0,-4.1325e-05,0,0,0,0.029788,0.00022063,0.0090026,-0.0154,0.013004,0.0263,5.9523e-07,0.6,0,0
0.031691,0.0095358,0.029729,0.00021269,0.0089824,4.3557e-05,0,0,0.05394,-0.022801,0,0.0002265,0,0,0,0.029729,0.00021263,0.0089824,0.084553,0.012974,0.026254,5.9184e-07,0.62,0,0
0.032767,0.0096688,0.029526,0.00019424,0.0089161,9.2252e-05,0,0,0.053586,-0.022677,0,0.00047971,0,0,0,0.029527,0.00019395,0.0089161,0.1802,0.012879,0.026089,5.8022e-07,0.64,0,0
0.033834,0.0098391,0.029195,0.00016775,0.0088087,0.00013493,0,0,0.053003,-0.022467,0,0.00070163,0,0,0,0.029195,0.00016712,0.0088087,0.26633,0.012724,0.025816,5.6143e-07,0.66,0,0
0.034888,0.010041,0.028757,0.00013564,0.0086678,0.00016787,0,0,0.052232,-0.022183,0,0.00087293,0,0,0,0.028758,0.00013466,0.0086678,0.33604,0.01252,0.025453,5.3718e-07,0.68,0,0
0.035924,0.010269,0.028245,9.9833e-05,0.0085036,0.00018805,0,0,0.051329,-0.02185,0,0.00097784,0,0,0,0.028247,9.8577e-05,0.0085036,0.38278,0.012283,0.025028,5.097e-07,0.7,0,0
0.036941,0.010512,0.027699,6.1864e-05,0.0083282,0.00019421,0,0,0.050363,-0.021492,0,0.0010099,0,0,0,0.0277,6.0499e-05,0.0083282,0.40261,0.01203,0.024572,4.8136e-07,0.72,0,0
0.037938,0.010765,0.027155,2.333e-05,0.0081536,0.00018735,0,0,0.049404,-0.021139,0,0.00097421,0,0,0,0.027157,2.2036e-05,0.0081536,0.39561,0.011777,0.02412,4.5425e-07,0.74,0,0
0.038917,0.011017,0.026648,-1.3953e-05,0.0079903,0.00017016,0,0,0.048511,-0.020811,0,0.00088482,0,0,0,0.026649,-1.5039e-05,0.0079903,0.36564,0.011541,0.023698,4.299e-07,0.76,0,0
0.039879,0.011263,0.026202,-4.8197e-05,0.0078461,0.0001462,0,0,0.047725,-0.020525,0,0.00076022,0,0,0,0.026203,-4.9011e-05,0.0078461,0.31909,0.011333,0.023328,4.0921e-07,0.78,0,0
0.040826,0.011496,0.02583,-7.8024e-05,0.0077255,0.00011899,0,0,0.047071,-0.020289,0,0.00061875,0,0,0,0.02583,-7.857e-05,0.0077255,0.26314,0.011159,0.023021,3.925e-07,0.8,0,0
0.041761,0.011711,0.025536,-0.0001027,0.00763,9.1535e-05,0,0,0.046556,-0.020105,0,0.00047598,0,0,0,0.025536,-0.00010303,0.00763,0.20455,0.011021,0.02278,3.7966e-07,0.82,0,0
0.042688,0.011907,0.025318,-0.00012213,0.0075587,6.6079e-05,0,0,0.046174,-0.01997,0,0.00034361,0,0,0,0.025318,-0.0001223,0.0075587,0.14882,0.010918,0.022601,3.7032e-07,0.84,0,0
0.043608,0.01208,0.025167,-0.00013669,0.007509,4.4122e-05,0,0,0.04591,-0.019879,0,0.00022943,0,0,0,0.025167,-0.00013677,0.007509,0.099906,0.010846,0.022478,3.6395e-07,0.86,0,0
0.044525,0.01223,0.025071,-0.00014704,0.0074773,2.6487e-05,0,0,0.045744,-0.019823,0,0.00013773,0,0,0,0.025071,-0.00014707,0.0074773,0.060178,0.0108,0.022401,3.5998e-07,0.88,0,0
0.045438,0.012355,0.025018,-0.00015399,0.0074593,1.3434e-05,0,0,0.045653,-0.019794,0,6.9859e-05,0,0,0,0.025018,-0.000154,0.0074593,0.030579,0.010774,0.02236,3.5782e-07,0.9,0,0
0.046351,0.012458,0.024995,-0.00015834,0.0074511,4.7691e-06,0,0,0.045615,-0.019785,0,2.4799e-05,0,0,0,0.024995,-0.00015834,0.0074511,0.010863,0.010763,0.022343,3.569e-07,0.92,0,0
0.047263,0.012537,0.02499,-0.00016084,0.0074489,-4.9417e-08,0,0,0.045608,-0.019785,0,-2.5697e-07,0,0,0,0.02499,-0.00016084,0.0074489,-0.00011257,0.010759,0.022341,3.5673e-07,0.94,0,0
0.048175,0.012592,0.024994,-0.00016214,0.0074497,-1.8053e-06,0,0,0.045616,-0.019791,0,-9.3874e-06,0,0,0,0.024994,-0.00016214,0.0074497,-0.0041116,0.010761,0.022345,3.5692e-07,0.96,0,0
0.049087,0.012626,0.025,-0.00016272,0.0074511,-1.4428e-06,0,0,0.045627,-0.019796,0,-7.5027e-06,0,0,0,0.025,-0.00016272,0.0074511,-0.0032854,0.010763,0.02235,3.5716e-07,0.98,0,0
0.05,0.012637,0.025002,-0.00016288,0.0074518,0.00010659,0,0,0.045631,-0.019798,0,0.00055427,0,0,0,0.025003,-0.00016333,0.0074518,0.24268,0.010764,0.022353,3.5728e-07,1,0,0
0,0,0.043317,0.018565,0.018565,0.013869,0,0,0.064357,-1.7347e-18,0,0.072117,0,0,0,0.049529,0.012353,0.018565,24.127,0.026815,0.034492,1.8793e-06,0,0.02,0
0.0012871,0.0014423,0.039472,0.0038866,0.013008,0.0087104,0,0,0.068808,-0.023715,0,0.045294,0,0,0,0.04149,0.0018689,0.013008,13.042,0.018789,0.035392,1.5396e-06,0.02,0.02,0
0.0027523,0.002873,0.039698,0.0030534,0.012825,0.0056698,0,0,0.069868,-0.025407,0,0.029483,0,0,0,0.040555,0.0021962,0.012825,8.5973,0.018526,0.034302,1.4217e-06,0.04,0.02,0
0.0040819,0.004015,0.035671,0.0016124,0.011185,0.0033915,0,0,0.063664,-0.024889,0,0.017636,0,0,0,0.036006,0.001278,0.011185,5.6317,0.016156,0.030986,1.0179e-06,0.06,0.02,0
0.0052989,0.0049799,0.032707,0.00093607,0.010093,0.0022568,0,0,0.058797,-0.023808,0,0.011735,0,0,0,0.032867,0.00077657,0.010093,4.0428,0.014579,0.028594,7.8509e-07,0.08,0.02,0
0.0064338,0.0058048,0.030611,0.00057841,0.0093568,0.0015785,0,0,0.05526,-0.022824,0,0.0082085,0,0,0,0.030693,0.00049566,0.0093568,3.0005,0.013515,0.026886,6.4488e-07,0.1,0.02,0
0.0075093,0.0065185,0.029105,0.00038091,0.0088459,0.0011543,0,0,0.052675,-0.022009,0,0.0060025,0,0,0,0.029152,0.0003346,0.0088459,2.2976,0.012778,0.025644,5.554e-07,0.12,0.02,0
0.0085408,0.0071388,0.027991,0.00026361,0.0084764,0.00086983,0,0,0.050738,-0.021353,0,0.0045231,0,0,0,0.028018,0.00023635,0.0084764,1.7951,0.012244,0.024715,4.9476e-07,0.14,0.02,0
0.0095388,0.007678,0.027145,0.00019045,0.0082005,0.00066989,0,0,0.049255,-0.020826,0,0.0034834,0,0,0,0.027161,0.00017381,0.0082005,1.4228,0.011845,0.024003,4.5174e-07,0.16,0.02,0
0.010511,0.0081452,0.02649,0.00014351,0.0079901,0.00052299,0,0,0.0481,-0.020401,0,0.0027196,0,0,0,0.026501,0.00013313,0.0079901,1.1367,0.011541,0.023448,4.202e-07,0.18,0.02,0
0.011463,0.0085472,0.025979,0.00011335,0.0078277,0.0004101,0,0,0.047193,-0.020057,0,0.0021325,0,0,0,0.025985,0.00010685,0.0078277,0.90813,0.011307,0.023011,3.9656e-07,0.2,0.02,0
0.012399,0.0088889,0.025579,9.4671e-05,0.0077022,0.00031874,0,0,0.046481,-0.01978,0,0.0016574,0,0,0,0.025583,9.0685e-05,0.0077022,0.71644,0.011125,0.022667,3.7867e-07,0.22,0.02,0
0.013322,0.0091743,0.025272,8.4253e-05,0.0076069,0.0002402,0,0,0.045929,-0.019559,0,0.0012491,0,0,0,0.025274,8.1962e-05,0.0076069,0.54633,0.010988,0.022399,3.6523e-07,0.24,0.02,0
0.014236,0.0094063,0.025044,7.9959e-05,0.0075373,0.00016818,0,0,0.045518,-0.019389,0,0.00087454,0,0,0,0.025045,7.8826e-05,0.0075373,0.38597,0.010887,0.022198,3.5544e-07,0.26,0.02,0
0.015143,0.0095874,0.02489,8.0156e-05,0.0074911,9.8022e-05,0,0,0.045237,-0.019268,0,0.00050971,0,0,0,0.02489,7.9769e-05,0.0074911,0.22637,0.01082,0.022059,3.4886e-07,0.28,0.02,0
0.016045,0.0097198,0.024807,8.3379e-05,0.0074671,2.6442e-05,0,0,0.045083,-0.019198,0,0.0001375,0,0,0,0.024807,8.335e-05,0.0074671,0.061279,0.010786,0.021982,3.453e-07,0.3,0.02,0
0.016946,0.0098054,0.024795,8.8126e-05,0.0074648,-4.8539e-05,0,0,0.045057,-0.019179,0,-0.0002524,0,0,0,0.024795,8.8031e-05,0.0074648,-0.11256,0.010783,0.021968,3.4472e-07,0.32,0.02,0
0.017848,0.0098467,0.024855,9.2758e-05,0.0074842,-0.00012753,0,0,0.045163,-0.019218,0,-0.00066314,0,0,0,0.024855,9.2101e-05,0.0074842,-0.29507,0.010811,0.022018,3.4719e-07,0.34,0.02,0
0.018753,0.0098463,0.024988,9.5455e-05,0.0075251,-0.00020961,0,0,0.045404,-0.019317,0,-0.00109,0,0,0,0.02499,9.3691e-05,0.0075251,-0.48243,0.01087,0.022137,3.5285e-07,0.36,0.02,0
0.019664,0.009808,0.025195,9.4231e-05,0.0075867,-0.00029223,0,0,0.045781,-0.019481,0,-0.0015196,0,0,0,0.025198,9.0829e-05,0.0075867,-0.66693,0.010959,0.022324,3.6181e-07,0.38,0.02,0
0.020584,0.0097365,0.025472,8.7029e-05,0.0076677,-0.00037105,0,0,0.046291,-0.01971,0,-0.0019295,0,0,0,0.025477,8.1606e-05,0.0076677,-0.83725,0.011076,0.022579,3.7412e-07,0.4,0.02,0
0.021515,0.0096378,0.025812,7.1988e-05,0.007765,-0.00044006,0,0,0.046921,-0.020002,0,-0.0022883,0,0,0,0.025819,6.4466e-05,0.007765,-0.97918,0.011216,0.022897,3.8967e-07,0.42,0.02,0
0.022461,0.0095195,0.026201,4.8068e-05,0.0078748,-0.00049202,0,0,0.047649,-0.02035,0,-0.0025585,0,0,0,0.026211,3.8815e-05,0.0078748,-1.0774,0.011375,0.023266,4.0812e-07,0.44,0.02,0
0.023421,0.0093906,0.026624,1.5968e-05,0.0079919,-0.00051963,0,0,0.048442,-0.020737,0,-0.0027021,0,0,0,0.026634,5.8236e-06,0.0079919,-1.1184,0.011544,0.023668,4.2879e-07,0.46,0.02,0
0.024398,0.0092609,0.027055,-2.1072e-05,0.0081103,-0.00051726,0,0,0.049258,-0.021142,0,-0.0026897,0,0,0,0.027065,-3.095e-05,0.0081103,-1.094,0.011715,0.024081,4.5063e-07,0.48,0.02,0
0.025392,0.0091409,0.027472,-5.7577e-05,0.0082244,-0.00048309,0,0,0.050045,-0.021533,0,-0.0025121,0,0,0,0.027481,-6.6051e-05,0.0082244,-1.005,0.01188,0.024478,4.7234e-07,0.5,0.02,0
0.0264,0.0090407,0.02785,-8.7763e-05,0.0083287,-0.00042003,0,0,0.050756,-0.021883,0,-0.0021842,0,0,0,0.027856,-9.4076e-05,0.0083287,-0.86116,0.01203,0.024835,4.9248e-07,0.52,0.02,0
0.027422,0.0089692,0.028168,-0.00010824,0.008418,-0.00033494,0,0,0.051351,-0.022168,0,-0.0017417,0,0,0,0.028172,-0.00011221,0.008418,-0.67855,0.012159,0.02513,5.0975e-07,0.54,0.02,0
0.028454,0.0089335,0.028412,-0.0001194,0.0084876,-0.00023593,0,0,0.051802,-0.022378,0,-0.0012269,0,0,0,0.028414,-0.00012136,0.0084876,-0.47376,0.01226,0.025351,5.2312e-07,0.56,0.02,0
0.029494,0.0089386,0.02857,-0.00012419,0.0085339,-0.00012981,0,0,0.052095,-0.022511,0,-0.00067501,0,0,0,0.028571,-0.00012478,0.0085339,-0.25919,0.012327,0.025494,5.3192e-07,0.58,0.02,0
0.030538,0.0089871,0.02864,-0.00012521,0.0085544,-2.1077e-05,0,0,0.052222,-0.022567,0,-0.0001096,0,0,0,0.02864,-0.00012522,0.0085544,-0.041981,0.012356,0.025556,5.3578e-07,0.6,0.02,0
0.031583,0.0090798,0.028619,-0.00012245,0.008549,8.6824e-05,0,0,0.052182,-0.022546,0,0.00045149,0,0,0,0.028619,-0.00012271,0.008549,0.17308,0.012349,0.025535,5.3458e-07,0.62,0.02,0
0.032625,0.0092152,0.028511,-0.00011333,0.0085193,0.00018939,0,0,0.051978,-0.022445,0,0.00098484,0,0,0,0.028512,-0.00011459,0.0085193,0.37907,0.012306,0.025434,5.2845e-07,0.64,0.02,0
0.033662,0.0093898,0.028324,-9.4964e-05,0.0084686,0.00027987,0,0,0.051623,-0.022265,0,0.0014553,0,0,0,0.028326,-9.7719e-05,0.0084686,0.56417,0.012232,0.025255,5.1787e-07,0.66,0.02,0
0.03469,0.0095978,0.02807,-6.7034e-05,0.0084009,0.00035021,0,0,0.05114,-0.022017,0,0.0018211,0,0,0,0.028074,-7.1392e-05,0.0084009,0.71299,0.012135,0.02501,5.0368e-07,0.68,0.02,0
0.035708,0.0098316,0.027769,-3.2996e-05,0.0083207,0.00039374,0,0,0.050565,-0.02172,0,0.0020475,0,0,0,0.027774,-3.8572e-05,0.0083207,0.81124,0.012019,0.024717,4.871e-07,0.7,0.02,0
0.036713,0.010083,0.027442,1.3624e-06,0.0082329,0.00040772,0,0,0.049943,-0.021402,0,0.0021201,0,0,0,0.027448,-4.6942e-06,0.0082329,0.85107,0.011892,0.0244,4.6951e-07,0.72,0.02,0
0.037705,0.010342,0.027111,3.0618e-05,0.0081425,0.00039413,0,0,0.049318,-0.021091,0,0.0020495,0,0,0,0.027117,2.4883e-05,0.0081425,0.83365,0.011761,0.024082,4.5221e-07,0.74,0.02,0
0.038686,0.010601,0.026797,5.1587e-05,0.0080547,0.00035872,0,0,0.048731,-0.020808,0,0.0018653,0,0,0,0.026802,4.6776e-05,0.0080547,0.76827,0.011635,0.023785,4.3626e-07,0.76,0.02,0
0.039655,0.010852,0.026516,6.3569e-05,0.0079738,0.00030888,0,0,0.048209,-0.020567,0,0.0016062,0,0,0,0.026519,5.9962e-05,0.0079738,0.66892,0.011518,0.023523,4.2235e-07,0.78,0.02,0
0.040614,0.01109,0.026276,6.7517e-05,0.007903,0.00025201,0,0,0.047769,-0.020372,0,0.0013104,0,0,0,0.026278,6.5094e-05,0.007903,0.55087,0.011415,0.023305,4.1084e-07,0.8,0.02,0
0.041565,0.011309,0.026082,6.5118e-05,0.0078441,0.00019436,0,0,0.047418,-0.020225,0,0.0010107,0,0,0,0.026083,6.3666e-05,0.0078441,0.42799,0.01133,0.023133,4.0179e-07,0.82,0.02,0
0.042511,0.011507,0.025934,5.819e-05,0.0077976,0.00014067,0,0,0.047154,-0.020122,0,0.00073151,0,0,0,0.025934,5.7425e-05,0.0077976,0.31148,0.011263,0.023005,3.9504e-07,0.84,0.02,0
0.043451,0.011682,0.025827,4.844e-05,0.0077627,9.4193e-05,0,0,0.046968,-0.020057,0,0.0004898,0,0,0,0.025828,4.8096e-05,0.0077627,0.20935,0.011213,0.022918,3.9033e-07,0.86,0.02,0
0.044389,0.011833,0.025757,3.7368e-05,0.0077382,5.6735e-05,0,0,0.046848,-0.020022,0,0.00029502,0,0,0,0.025757,3.7243e-05,0.0077382,0.12639,0.011177,0.022863,3.873e-07,0.88,0.02,0
0.045325,0.011959,0.025714,2.6227e-05,0.0077221,2.8925e-05,0,0,0.04678,-0.020009,0,0.00015041,0,0,0,0.025714,2.6195e-05,0.0077221,0.064515,0.011154,0.022834,3.8556e-07,0.9,0.02,0
0.046261,0.012062,0.025693,1.6006e-05,0.0077125,1.0405e-05,0,0,0.046748,-0.020011,0,5.4104e-05,0,0,0,0.025693,1.6002e-05,0.0077125,0.023217,0.01114,0.022823,3.8475e-07,0.92,0.02,0
0.047195,0.012141,0.025684,7.4355e-06,0.0077074,6.4208e-08,0,0,0.046739,-0.02002,0,3.3388e-07,0,0,0,0.025684,7.4355e-06,0.0077074,0.00014328,0.011133,0.022822,3.845e-07,0.94,0.02,0
0.04813,0.012197,0.025683,1.0134e-06,0.0077051,-3.745e-06,0,0,0.046742,-0.020031,0,-1.9474e-05,0,0,0,0.025683,1.0128e-06,0.0077051,-0.0083551,0.01113,0.022826,3.8455e-07,0.96,0.02,0
0.049065,0.01223,0.025684,-2.9495e-06,0.0077043,-3.0281e-06,0,0,0.046747,-0.020039,0,-1.5746e-05,0,0,0,0.025684,-2.9499e-06,0.0077043,-0.0067542,0.011128,0.022831,3.8466e-07,0.98,0.02,0
0.05,0.012241,0.025685,-4.2877e-06,0.0077041,0.00010619,0,0,0.046749,-0.020042,0,0.0005522,0,0,0,0.025685,-4.7266e-06,0.0077041,0.23684,0.011128,0.022833,3.8475e-07,1,0.02,0
0,0,0.036883,0.015807,0.015807,0.011277,0,0,0.054798,0,0,0.058641,0,0,0,0.04178,0.010911,0.015807,23.47,0.022832,0.028735,1.1003e-06,0,0.04,0
0.001096,0.0011728,0.035519,0.0094806,0.0135,0.01018,0,0,0.05725,-0.01045,0,0.052935,0,0,0,0.039027,0.0059733,0.0135,19.011,0.0195,0.030006,1.0988e-06,0.02,0.04,0
0.00229,0.0024072,0.035453,0.0045837,0.012011,0.0080973,0,0,0.06095,-0.019311,0,0.042106,0,0,0,0.037449,0.0025887,0.012011,13.841,0.01735,0.031233,1.0981e-06,0.04,0.04,0
0.003534,0.003534,0.034915,0.0028725,0.011336,0.0058953,0,0,0.061304,-0.022005,0,0.030655,0,0,0,0.035965,0.0018223,0.011336,10.101,0.016374,0.030519,9.9589e-07,0.06,0.04,0
0.0047422,0.0045044,0.033304,0.0018121,0.010535,0.0042174,0,0,0.0592,-0.022679,0,0.021931,0,0,0,0.033859,0.001257,0.010535,7.4971,0.015217,0.029094,8.4485e-07,0.08,0.04,0
0.005902,0.0053434,0.031753,0.0011995,0.0098857,0.0030959,0,0,0.056855,-0.022584,0,0.016099,0,0,0,0.032063,0.00088895,0.0098857,5.7281,0.014279,0.027791,7.2545e-07,0.1,0.04,0
0.0070164,0.0060707,0.030441,0.00082431,0.0093797,0.0023263,0,0,0.054761,-0.022244,0,0.012097,0,0,0,0.030623,0.00064269,0.0093797,4.4639,0.013548,0.026706,6.3695e-07,0.12,0.04,0
0.0080924,0.0067029,0.029379,0.00058707,0.0089898,0.0017858,0,0,0.053012,-0.021847,0,0.0092861,0,0,0,0.029489,0.00047673,0.0089898,3.5356,0.012985,0.02583,5.7191e-07,0.14,0.04,0
0.0091368,0.0072522,0.028525,0.00043243,0.0086871,0.0013935,0,0,0.051578,-0.021462,0,0.0072464,0,0,0,0.028594,0.00036347,0.0086871,2.8329,0.012548,0.025125,5.2339e-07,0.16,0.04,0
0.010155,0.0077279,0.027837,0.00033002,0.0084502,0.0010995,0,0,0.050406,-0.021112,0,0.0057173,0,0,0,0.027881,0.00028614,0.0084502,2.2853,0.012206,0.024553,4.8654e-07,0.18,0.04,0
0.011153,0.0081368,0.027283,0.00026242,0.0082635,0.00087078,0,0,0.04945,-0.020803,0,0.0045281,0,0,0,0.027311,0.00023439,0.0082635,1.8439,0.011936,0.024087,4.5814e-07,0.2,0.04,0
0.012134,0.0084843,0.026836,0.00021926,0.0081166,0.00068508,0,0,0.04867,-0.020533,0,0.0035624,0,0,0,0.026853,0.00020164,0.0081166,1.4734,0.011724,0.023707,4.3603e-07,0.22,0.04,0
0.0131,0.0087744,0.026478,0.00019399,0.0080018,0.00052639,0,0,0.04804,-0.0203,0,0.0027372,0,0,0,0.026489,0.00018345,0.0080018,1.1468,0.011558,0.023398,4.1878e-07,0.24,0.04,0
0.014055,0.0090102,0.026198,0.0001821,0.007914,0.00038294,0,0,0.047538,-0.020103,0,0.0019913,0,0,0,0.026204,0.00017646,0.007914,0.84313,0.011431,0.023149,4.0547e-07,0.26,0.04,0
0.015001,0.0091942,0.025986,0.00018009,0.0078498,0.00024604,0,0,0.047154,-0.019941,0,0.0012794,0,0,0,0.025988,0.00017775,0.0078498,0.54621,0.011339,0.022957,3.9551e-07,0.28,0.04,0
0.015941,0.0093285,0.025837,0.00018479,0.0078065,0.0001095,0,0,0.046879,-0.019817,0,0.00056938,0,0,0,0.025837,0.00018432,0.0078065,0.24456,0.011276,0.022818,3.8854e-07,0.3,0.04,0
0.016877,0.0094152,0.025748,0.00019297,0.0077824,-3.0467e-05,0,0,0.046712,-0.019733,0,-0.00015843,0,0,0,0.025748,0.00019293,0.0077824,-0.068308,0.011241,0.022732,3.8439e-07,0.32,0.04,0
0.01781,0.0094564,0.025718,0.00020111,0.0077758,-0.00017515,0,0,0.04665,-0.019694,0,-0.00091077,0,0,0,0.025719,0.00019991,0.0077758,-0.39325,0.011232,0.0227,3.8297e-07,0.34,0.04,0
0.018743,0.009455,0.025745,0.00020539,0.0077851,-0.00032319,0,0,0.046696,-0.019707,0,-0.0016806,0,0,0,0.025749,0.0002013,0.0077851,-0.72489,0.011245,0.022726,3.8428e-07,0.36,0.04,0
0.019678,0.0094144,0.025827,0.00020175,0.0078086,-0.00047042,0,0,0.046848,-0.019778,0,-0.0024462,0,0,0,0.025836,0.00019312,0.0078086,-1.0514,0.011279,0.022809,3.8831e-07,0.38,0.04,0
0.020616,0.0093393,0.025961,0.00018602,0.007844,-0.00060981,0,0,0.047103,-0.019911,0,-0.003171,0,0,0,0.025975,0.0001716,0.007844,-1.3546,0.01133,0.02295,3.9501e-07,0.4,0.04,0
0.021562,0.0092359,0.02614,0.00015433,0.0078884,-0.00073153,0,0,0.047455,-0.020109,0,-0.003804,0,0,0,0.026161,0.00013375,0.0078884,-1.6113,0.011394,0.023145,4.042e-07,0.42,0.04,0
0.022515,0.0091118,0.026357,0.00010412,0.0079385,-0.00082365,0,0,0.047889,-0.020369,0,-0.004283,0,0,0,0.026383,7.8309e-05,0.0079385,-1.7952,0.011467,0.023387,4.1557e-07,0.44,0.04,0
0.023477,0.0089762,0.0266,3.6292e-05,0.0079909,-0.00087361,0,0,0.048384,-0.020682,0,-0.0045428,0,0,0,0.026629,7.5919e-06,0.0079909,-1.8816,0.011542,0.023662,4.2852e-07,0.46,0.04,0
0.02445,0.0088394,0.026853,-4.2658e-05,0.008043,-0.00087154,0,0,0.048905,-0.021023,0,-0.004532,0,0,0,0.026881,-7.0871e-05,0.008043,-1.8541,0.011618,0.023949,4.4218e-07,0.48,0.04,0
0.025433,0.0087125,0.027098,-0.0001204,0.0080932,-0.00081411,0,0,0.049412,-0.021355,0,-0.0042334,0,0,0,0.027122,-0.00014473,0.0080932,-1.7117,0.01169,0.024222,4.5549e-07,0.5,0.04,0
0.026426,0.0086063,0.02732,-0.00018327,0.008141,-0.00070716,0,0,0.049865,-0.021643,0,-0.0036772,0,0,0,0.027338,-0.00020144,0.008141,-1.4719,0.011759,0.02446,4.6746e-07,0.52,0.04,0
0.027428,0.0085299,0.027507,-0.00022352,0.008185,-0.00056397,0,0,0.050237,-0.021862,0,-0.0029326,0,0,0,0.027518,-0.00023498,0.008185,-1.1646,0.011823,0.024647,4.7735e-07,0.54,0.04,0
0.028436,0.0084907,0.027652,-0.00024312,0.0082226,-0.00039987,0,0,0.050516,-0.022011,0,-0.0020793,0,0,0,0.027658,-0.00024885,0.0082226,-0.8211,0.011877,0.024782,4.8486e-07,0.56,0.04,0
0.029449,0.0084936,0.027752,-0.00025055,0.0082504,-0.00022632,0,0,0.050704,-0.022102,0,-0.0011769,0,0,0,0.027754,-0.00025237,0.0082504,-0.46304,0.011917,0.02487,4.8998e-07,0.58,0.04,0
0.030464,0.0085411,0.027806,-0.00025295,0.0082659,-4.9274e-05,0,0,0.050804,-0.022149,0,-0.00025622,0,0,0,0.027806,-0.00025303,0.0082659,-0.10062,0.01194,0.024917,4.9277e-07,0.6,0.04,0
0.031481,0.008634,0.027814,-0.0002503,0.008269,0.00012793,0,0,0.050816,-0.02215,0,0.00066525,0,0,0,0.027814,-0.00025089,0.008269,0.26119,0.011944,0.024922,4.9316e-07,0.62,0.04,0
0.032497,0.008771,0.027773,-0.00023549,0.0082613,0.00029935,0,0,0.050731,-0.022092,0,0.0015566,0,0,0,0.027776,-0.00023869,0.0082613,0.61227,0.011933,0.024879,4.9094e-07,0.64,0.04,0
0.03351,0.0089485,0.027686,-0.00020014,0.0082458,0.00045355,0,0,0.050545,-0.021959,0,0.0023585,0,0,0,0.027693,-0.00020752,0.0082458,0.93155,0.01191,0.02478,4.8599e-07,0.66,0.04,0
0.034519,0.0091608,0.027557,-0.00014249,0.0082243,0.00057538,0,0,0.050265,-0.021754,0,0.002992,0,0,0,0.027569,-0.00015444,0.0082243,1.1895,0.01188,0.024627,4.7851e-07,0.68,0.04,0
0.035521,0.0093998,0.027396,-7.0474e-05,0.0081976,0.00065184,0,0,0.049916,-0.021497,0,0.0033896,0,0,0,0.027411,-8.5935e-05,0.0081976,1.3587,0.011841,0.024432,4.6913e-07,0.7,0.04,0
0.036515,0.0096564,0.027217,2.2401e-06,0.0081656,0.00067747,0,0,0.049532,-0.021225,0,0.0035228,0,0,0,0.027233,-1.4614e-05,0.0081656,1.4251,0.011795,0.024217,4.5878e-07,0.72,0.04,0
0.037502,0.009921,0.027033,6.345e-05,0.0081291,0.00065593,0,0,0.049152,-0.020971,0,0.0034108,0,0,0,0.02705,4.7507e-05,0.0081291,1.3924,0.011742,0.024004,4.4844e-07,0.74,0.04,0
0.038481,0.010185,0.02686,0.00010678,0.00809,0.00059736,0,0,0.048802,-0.020756,0,0.0031063,0,0,0,0.026873,9.3448e-05,0.00809,1.2785,0.011686,0.023811,4.3892e-07,0.76,0.04,0
0.039454,0.01044,0.026705,0.00013133,0.008051,0.00051451,0,0,0.048501,-0.020591,0,0.0026755,0,0,0,0.026715,0.00012137,0.008051,1.1088,0.011629,0.023648,4.3072e-07,0.78,0.04,0
0.040421,0.010681,0.026575,0.00013944,0.0080144,0.00041968,0,0,0.048258,-0.020475,0,0.0021823,0,0,0,0.026582,0.00013277,0.0080144,0.90929,0.011576,0.02352,4.2409e-07,0.8,0.04,0
0.041384,0.010902,0.026472,0.00013454,0.0079819,0.00032322,0,0,0.048074,-0.020403,0,0.0016807,0,0,0,0.026476,0.00013057,0.0079819,0.70301,0.011529,0.023428,4.1907e-07,0.82,0.04,0
0.042344,0.011102,0.026395,0.00012026,0.0079547,0.00023312,0,0,0.047946,-0.020369,0,0.0012122,0,0,0,0.026397,0.00011819,0.0079547,0.50829,0.01149,0.023368,4.1555e-07,0.84,0.04,0
0.043302,0.011277,0.026343,0.00010003,0.0079329,0.00015491,0,0,0.047866,-0.020365,0,0.00080554,0,0,0,0.026344,9.9117e-05,0.0079329,0.3382,0.011459,0.023336,4.1335e-07,0.86,0.04,0
0.044259,0.011429,0.026311,7.695e-05,0.0079164,9.185e-05,0,0,0.047826,-0.020383,0,0.00047762,0,0,0,0.026311,7.6629e-05,0.0079164,0.2006,0.011435,0.023325,4.1221e-07,0.88,0.04,0
0.045215,0.011555,0.026295,5.3656e-05,0.0079046,4.5138e-05,0,0,0.047815,-0.020413,0,0.00023472,0,0,0,0.026295,5.3578e-05,0.0079046,0.098554,0.011418,0.023329,4.1184e-07,0.9,0.04,0
0.046171,0.011657,0.02629,3.2249e-05,0.0078968,1.4268e-05,0,0,0.047823,-0.020448,0,7.4195e-05,0,0,0,0.02629,3.2241e-05,0.0078968,0.031134,0.011406,0.023342,4.1197e-07,0.92,0.04,0
0.047128,0.011736,0.026292,1.4282e-05,0.0078919,-2.5944e-06,0,0,0.04784,-0.020482,0,-1.3491e-05,0,0,0,0.026292,1.4282e-05,0.0078919,-0.0056568,0.011399,0.023357,4.1235e-07,0.94,0.04,0
0.048085,0.011791,0.026296,8.1241e-07,0.0078891,-8.2446e-06,0,0,0.047859,-0.02051,0,-4.2872e-05,0,0,0,0.026296,8.0983e-07,0.0078891,-0.017964,0.011395,0.023372,4.1278e-07,0.96,0.04,0
0.049043,0.011824,0.0263,-7.5013e-06,0.0078878,-6.1113e-06,0,0,0.047872,-0.020528,0,-3.1779e-05,0,0,0,0.0263,-7.5027e-06,0.0078878,-0.01331,0.011394,0.023382,4.131e-07,0.98,0.04,0
0.05,0.011835,0.026302,-1.0309e-05,0.0078874,0.00010544,0,0,0.047877,-0.020534,0,0.00054827,0,0,0,0.026302,-1.0731e-05,0.0078874,0.22959,0.011393,0.023386,4.1324e-07,1,0.04,0
0,0,0.033565,0.014385,0.014385,0.0098493,0,0,0.049869,-2.1684e-19,0,0.051216,0,0,0,0.037722,0.010228,0.014385,22.882,0.020779,0.025669,7.9244e-07,0,0.06,0
0.00099737,0.0010243,0.033114,0.010748,0.013159,0.0093816,0,0,0.051884,-0.0062679,0,0.048785,0,0,0,0.036528,0.0073338,0.013159,19.997,0.019007,0.026762,8.2935e-07,0.02,0.06,0
0.0020754,0.0021006,0.033443,0.007089,0.01216,0.0085402,0,0,0.055337,-0.013184,0,0.044409,0,0,0,0.035969,0.0045636,0.01216,16.474,0.017564,0.02838,8.9657e-07,0.04,0.06,0
0.0032109,0.0031348,0.033402,0.0044976,0.01137,0.0070182,0,0,0.057283,-0.017868,0,0.036495,0,0,0,0.035016,0.0028837,0.01137,12.951,0.016423,0.028841,8.8202e-07,0.06,0.06,0
0.0043667,0.0040727,0.032898,0.0030244,0.010777,0.0055156,0,0,0.057514,-0.020156,0,0.028681,0,0,0,0.033883,0.0020386,0.010777,10.134,0.015566,0.028499,8.2288e-07,0.08,0.06,0
0.0055114,0.0049014,0.032034,0.002087,0.010236,0.0042855,0,0,0.056674,-0.021188,0,0.022285,0,0,0,0.032635,0.0014857,0.010236,7.9858,0.014786,0.027826,7.4883e-07,0.1,0.06,0
0.0066337,0.0056288,0.03112,0.0014833,0.009781,0.0033483,0,0,0.055481,-0.021574,0,0.017411,0,0,0,0.031494,0.0011097,0.009781,6.3663,0.014128,0.027109,6.814e-07,0.12,0.06,0
0.0077307,0.0062649,0.030272,0.0010828,0.0094065,0.0026406,0,0,0.054251,-0.021642,0,0.013731,0,0,0,0.030509,0.00084582,0.0094065,5.1277,0.013587,0.026444,6.2499e-07,0.14,0.06,0
0.0088037,0.0068195,0.029529,0.00081222,0.0091024,0.0021024,0,0,0.053109,-0.021554,0,0.010932,0,0,0,0.029682,0.00065912,0.0091024,4.1651,0.013148,0.025857,5.7921e-07,0.16,0.06,0
0.0098551,0.0073007,0.028893,0.00062783,0.0088562,0.0016857,0,0,0.052096,-0.021394,0,0.0087658,0,0,0,0.028993,0.00052765,0.0088562,3.401,0.012792,0.025349,5.4227e-07,0.18,0.06,0
0.010887,0.0077151,0.028355,0.00050308,0.0086573,0.0013549,0,0,0.051213,-0.021201,0,0.0070457,0,0,0,0.02842,0.00043732,0.0086573,2.7786,0.012505,0.024912,5.1239e-07,0.2,0.06,0
0.011904,0.0080676,0.027902,0.0004213,0.0084969,0.0010836,0,0,0.050453,-0.020997,0,0.0056347,0,0,0,0.027945,0.00037864,0.0084969,2.2546,0.012273,0.024536,4.8809e-07,0.22,0.06,0
0.012906,0.0083622,0.027523,0.00037158,0.0083684,0.00085167,0,0,0.049802,-0.020792,0,0.0044287,0,0,0,0.02755,0.00034489,0.0083684,1.7949,0.012088,0.024212,4.6823e-07,0.24,0.06,0
0.013896,0.0086022,0.027209,0.00034618,0.0082664,0.00064395,0,0,0.04925,-0.020593,0,0.0033485,0,0,0,0.027224,0.00033075,0.0082664,1.3724,0.01194,0.023933,4.52e-07,0.26,0.06,0
0.014876,0.0087898,0.026951,0.00033892,0.008187,0.00044884,0,0,0.048786,-0.020405,0,0.002334,0,0,0,0.026959,0.00033135,0.008187,0.96599,0.011826,0.023697,4.3884e-07,0.28,0.06,0
0.015847,0.0089271,0.026745,0.00034413,0.0081266,0.00025795,0,0,0.048407,-0.020234,0,0.0013413,0,0,0,0.026747,0.00034161,0.0081266,0.55974,0.011739,0.023501,4.2837e-07,0.3,0.06,0
0.016812,0.0090161,0.026586,0.00035594,0.0080825,6.5958e-05,0,0,0.048108,-0.020089,0,0.00034298,0,0,0,0.026586,0.00035578,0.0080825,0.14408,0.011675,0.023346,4.2038e-07,0.32,0.06,0
0.017771,0.0090589,0.026471,0.00036802,0.0080517,-0.00012919,0,0,0.04789,-0.019978,0,-0.00067181,0,0,0,0.026472,0.00036738,0.0080517,-0.28357,0.01163,0.023235,4.1475e-07,0.34,0.06,0
0.018728,0.009058,0.026398,0.0003735,0.0080315,-0.00032615,0,0,0.047754,-0.019911,0,-0.001696,0,0,0,0.026402,0.00036942,0.0080315,-0.7179,0.011601,0.023172,4.1145e-07,0.36,0.06,0
0.019682,0.0090169,0.026365,0.0003653,0.0080191,-0.00052009,0,0,0.0477,-0.0199,0,-0.0027045,0,0,0,0.026376,0.0003549,0.0080191,-1.1455,0.011583,0.02316,4.1045e-07,0.38,0.06,0
0.020636,0.00894,0.026369,0.00033645,0.0080117,-0.00070281,0,0,0.047729,-0.019956,0,-0.0036546,0,0,0,0.026388,0.00031749,0.0080117,-1.5453,0.011572,0.023201,4.1168e-07,0.4,0.06,0
0.021591,0.0088335,0.026407,0.00028026,0.0080062,-0.00086293,0,0,0.047842,-0.020087,0,-0.0044872,0,0,0,0.026435,0.00025179,0.0080062,-1.8897,0.011565,0.023295,4.1506e-07,0.42,0.06,0
0.022549,0.0087048,0.026474,0.00019173,0.0079998,-0.00098597,0,0,0.048034,-0.020301,0,-0.0051271,0,0,0,0.026511,0.00015479,0.0079998,-2.1454,0.011555,0.02344,4.2033e-07,0.44,0.06,0
0.023512,0.0085633,0.026563,7.0468e-05,0.0079902,-0.0010558,0,0,0.04829,-0.020591,0,-0.00549,0,0,0,0.026605,2.846e-05,0.0079902,-2.2785,0.011541,0.023625,4.2703e-07,0.46,0.06,0
0.024481,0.00842,0.026663,-7.2981e-05,0.0079772,-0.0010578,0,0,0.048584,-0.02093,0,-0.0055007,0,0,0,0.026705,-0.00011477,0.0079772,-2.2622,0.011522,0.023828,4.3434e-07,0.48,0.06,0
0.025455,0.0082867,0.026762,-0.00021484,0.0079641,-0.00098686,0,0,0.048874,-0.021265,0,-0.0051316,0,0,0,0.026798,-0.00025089,0.0079641,-2.0923,0.011504,0.024019,4.4121e-07,0.5,0.06,0
0.026436,0.008175,0.026848,-0.000326,0.0079565,-0.000852,0,0,0.049117,-0.021535,0,-0.0044304,0,0,0,0.026874,-0.00035269,0.0079565,-1.7941,0.011493,0.024169,4.4674e-07,0.52,0.06,0
0.02742,0.0080947,0.026917,-0.00039019,0.007958,-0.0006757,0,0,0.049293,-0.021705,0,-0.0035137,0,0,0,0.026934,-0.0004069,0.007958,-1.4166,0.011495,0.024265,4.5061e-07,0.54,0.06,0
0.028407,0.0080531,0.026971,-0.0004146,0.0079669,-0.00048183,0,0,0.04941,-0.021792,0,-0.0025055,0,0,0,0.026979,-0.00042307,0.0079669,-1.0077,0.011508,0.024318,4.5318e-07,0.56,0.06,0
0.029397,0.0080545,0.027016,-0.00042053,0.0079786,-0.00028494,0,0,0.049497,-0.021838,0,-0.0014817,0,0,0,0.027019,-0.00042349,0.0079786,-0.59496,0.011525,0.024354,4.5517e-07,0.58,0.06,0
0.030387,0.0081011,0.027057,-0.00042529,0.0079895,-8.6913e-05,0,0,0.049575,-0.021878,0,-0.00045195,0,0,0,0.027057,-0.00042557,0.0079895,-0.1812,0.01154,0.024389,4.5713e-07,0.6,0.06,0
0.03138,0.0081938,0.027093,-0.00042883,0.0079992,0.00011563,0,0,0.049643,-0.021913,0,0.00060128,0,0,0,0.027093,-0.00042931,0.0079992,0.24072,0.011554,0.024424,4.5902e-07,0.62,0.06,0
0.032373,0.0083316,0.027117,-0.00041382,0.0080108,0.00032077,0,0,0.049675,-0.021904,0,0.001668,0,0,0,0.02712,-0.00041755,0.0080108,0.66747,0.011571,0.024439,4.6019e-07,0.64,0.06,0
0.033367,0.0085114,0.02712,-0.00035915,0.0080284,0.00051393,0,0,0.049639,-0.021808,0,0.0026724,0,0,0,0.02713,-0.00036876,0.0080284,1.0711,0.011597,0.024409,4.5983e-07,0.66,0.06,0
0.034359,0.0087276,0.0271,-0.00025811,0.0080527,0.0006714,0,0,0.049524,-0.021608,0,0.0034913,0,0,0,0.027117,-0.00027458,0.0080527,1.4049,0.011632,0.024322,4.5752e-07,0.68,0.06,0
0.035348,0.0089717,0.027059,-0.00012739,0.0080796,0.00077122,0,0,0.049347,-0.021338,0,0.0040103,0,0,0,0.027081,-0.00014925,0.0080796,1.6236,0.011671,0.02419,4.5352e-07,0.7,0.06,0
0.036332,0.0092337,0.027005,3.8504e-06,0.0081028,0.00080485,0,0,0.049147,-0.021057,0,0.0041852,0,0,0,0.027029,-2.0119e-05,0.0081028,1.7058,0.011704,0.02404,4.4864e-07,0.72,0.06,0
0.037313,0.0095031,0.026949,0.00011215,0.0081183,0.0007781,0,0,0.048959,-0.020816,0,0.0040461,0,0,0,0.026971,8.961e-05,0.0081183,1.6594,0.011726,0.023901,4.4381e-07,0.74,0.06,0
0.038291,0.0097706,0.026898,0.00018727,0.0081256,0.00070584,0,0,0.048808,-0.02064,0,0.0036704,0,0,0,0.026917,0.00016863,0.0081256,1.5127,0.011737,0.02379,4.3971e-07,0.76,0.06,0
0.039266,0.010028,0.026858,0.00022957,0.0081263,0.00060454,0,0,0.048703,-0.020532,0,0.0031436,0,0,0,0.026872,0.00021586,0.0081263,1.2999,0.011738,0.023712,4.3667e-07,0.78,0.06,0
0.040239,0.010271,0.026831,0.00024354,0.0081222,0.00048918,0,0,0.048642,-0.020485,0,0.0025437,0,0,0,0.02684,0.00023455,0.0081222,1.0537,0.011732,0.023668,4.3476e-07,0.8,0.06,0
0.041211,0.010493,0.026816,0.00023505,0.0081152,0.00037199,0,0,0.048621,-0.020488,0,0.0019344,0,0,0,0.026821,0.00022984,0.0081152,0.80163,0.011722,0.023655,4.3394e-07,0.82,0.06,0
0.042184,0.010692,0.026812,0.00020996,0.0081067,0.00026265,0,0,0.048635,-0.020532,0,0.0013658,0,0,0,0.026815,0.00020737,0.0081067,0.56562,0.01171,0.023668,4.3405e-07,0.84,0.06,0
0.043157,0.010868,0.026819,0.00017418,0.008098,0.0001681,0,0,0.048675,-0.020602,0,0.0008741,0,0,0,0.02682,0.00017312,0.008098,0.36144,0.011697,0.0237,4.3491e-07,0.86,0.06,0
0.044131,0.011018,0.026833,0.0001332,0.00809,9.2516e-05,0,0,0.048733,-0.020688,0,0.00048109,0,0,0,0.026834,0.00013288,0.00809,0.19853,0.011686,0.023744,4.3629e-07,0.88,0.06,0
0.045106,0.011143,0.026852,9.1785e-05,0.0080832,3.7513e-05,0,0,0.0488,-0.020778,0,0.00019507,0,0,0,0.026852,9.1733e-05,0.0080832,0.080318,0.011676,0.023794,4.3792e-07,0.9,0.06,0
0.046083,0.011244,0.026873,5.3713e-05,0.0080779,2.4855e-06,0,0,0.048866,-0.020863,0,1.2924e-05,0,0,0,0.026873,5.3713e-05,0.0080779,0.0053099,0.011668,0.023842,4.3959e-07,0.92,0.06,0
0.047061,0.011321,0.026892,2.1769e-05,0.0080741,-1.4882e-05,0,0,0.048926,-0.020936,0,-7.7388e-05,0,0,0,0.026892,2.176e-05,0.0080741,-0.031734,0.011662,0.023885,4.4109e-07,0.94,0.06,0
0.04804,0.011376,0.026907,-2.1684e-06,0.0080715,-1.8123e-05,0,0,0.048973,-0.020991,0,-9.4237e-05,0,0,0,0.026907,-2.1806e-06,0.0080715,-0.038587,0.011659,0.023917,4.4227e-07,0.96,0.06,0
0.04902,0.011409,0.026917,-1.6937e-05,0.0080701,-1.1564e-05,0,0,0.049002,-0.021026,0,-6.0132e-05,0,0,0,0.026917,-1.6942e-05,0.0080701,-0.024599,0.011657,0.023938,4.4303e-07,0.98,0.06,0
0.05,0.01142,0.026921,-2.1924e-05,0.0080696,0.00010378,0,0,0.049013,-0.021038,0,0.00053967,0,0,0,0.026921,-2.2324e-05,0.0080696,0.2207,0.011656,0.023946,4.4331e-07,1,0.06,0
0,0,0.031861,0.013655,0.013655,0.0088664,0,0,0.047337,6.5052e-19,0,0.046105,0,0,0,0.035466,0.010051,0.013655,22.122,0.019724,0.023818,6.4075e-07,0,0.08,0
0.00094674,0.0009221,0.031603,0.011051,0.012796,0.0086525,0,0,0.048898,-0.0045381,0,0.044993,0,0,0,0.03476,0.007893,0.012796,20.049,0.018483,0.024782,6.7973e-07,0.02,0.08,0
0.0019559,0.0018798,0.032081,0.0083523,0.01213,0.0082135,0,0,0.051873,-0.0098223,0,0.04271,0,0,0,0.034647,0.0057866,0.01213,17.347,0.017521,0.026269,7.512e-07,0.04,0.08,0
0.0030217,0.0028193,0.032333,0.0059925,0.011498,0.0072787,0,0,0.054171,-0.014313,0,0.037849,0,0,0,0.03421,0.004115,0.011498,14.464,0.016608,0.027167,7.7912e-07,0.06,0.08,0
0.0041227,0.0036982,0.03226,0.0042615,0.010957,0.0061336,0,0,0.05539,-0.017407,0,0.031895,0,0,0,0.033545,0.0029767,0.010957,11.83,0.015826,0.027462,7.6873e-07,0.08,0.08,0
0.0052373,0.0044959,0.031906,0.0030803,0.010496,0.0050392,0,0,0.055666,-0.01928,0,0.026204,0,0,0,0.032761,0.0022248,0.010496,9.6357,0.015161,0.027355,7.364e-07,0.1,0.08,0
0.0063494,0.0052077,0.031377,0.0022634,0.010092,0.0041014,0,0,0.055341,-0.020355,0,0.021327,0,0,0,0.031944,0.0016967,0.010092,7.8676,0.014578,0.027045,6.9568e-07,0.12,0.08,0
0.0074509,0.0058372,0.030794,0.0016951,0.0097467,0.0033358,0,0,0.054722,-0.020934,0,0.017346,0,0,0,0.031171,0.0013176,0.0097467,6.4566,0.014079,0.026658,6.5513e-07,0.14,0.08,0
0.0085383,0.00639,0.030221,0.0012963,0.0094553,0.00272,0,0,0.053992,-0.021213,0,0.014144,0,0,0,0.030475,0.0010427,0.0094553,5.3258,0.013658,0.026257,6.1815e-07,0.16,0.08,0
0.0096106,0.0068721,0.029691,0.0010161,0.0092121,0.0022243,0,0,0.053245,-0.02131,0,0.011566,0,0,0,0.029863,0.0008446,0.0092121,4.4093,0.013306,0.02587,5.857e-07,0.18,0.08,0
0.010668,0.0072888,0.029213,0.00082144,0.0090105,0.0018201,0,0,0.052528,-0.021292,0,0.0094647,0,0,0,0.02933,0.00070524,0.0090105,3.6532,0.013015,0.025507,5.5764e-07,0.2,0.08,0
0.011712,0.0076444,0.02879,0.00069033,0.0088441,0.0014833,0,0,0.051859,-0.0212,0,0.0077131,0,0,0,0.028868,0.00061225,0.0088441,3.0133,0.012775,0.025171,5.3346e-07,0.22,0.08,0
0.012742,0.0079427,0.028417,0.00060773,0.0087074,0.0011938,0,0,0.051245,-0.021059,0,0.0062078,0,0,0,0.028468,0.00055657,0.0087074,2.4536,0.012577,0.024859,5.1256e-07,0.24,0.08,0
0.013761,0.0081865,0.02809,0.00056258,0.0085957,0.00093541,0,0,0.050685,-0.020886,0,0.0048641,0,0,0,0.028122,0.00053083,0.0085957,1.944,0.012416,0.024572,4.9444e-07,0.26,0.08,0
0.01477,0.008378,0.027803,0.0005458,0.0085047,0.00069517,0,0,0.050176,-0.020693,0,0.0036149,0,0,0,0.027821,0.00052808,0.0085047,1.46,0.012285,0.024307,4.7869e-07,0.28,0.08,0
0.015769,0.0085192,0.027553,0.00054884,0.0084304,0.00046331,0,0,0.049718,-0.020492,0,0.0024092,0,0,0,0.027561,0.00054089,0.0084304,0.98266,0.012177,0.024065,4.6504e-07,0.3,0.08,0
0.016758,0.0086117,0.027335,0.00056269,0.0083692,0.00023335,0,0,0.04931,-0.020297,0,0.0012134,0,0,0,0.027337,0.00056066,0.0083692,0.49935,0.012089,0.023851,4.5335e-07,0.32,0.08,0
0.017741,0.0086573,0.027147,0.00057744,0.0083172,2.4905e-06,0,0,0.048956,-0.020123,0,1.2951e-05,0,0,0,0.027147,0.00057744,0.0083172,0.0053708,0.012014,0.023668,4.4357e-07,0.34,0.08,0
0.018717,0.0086585,0.026986,0.00058241,0.0082704,-0.0002281,0,0,0.048659,-0.019989,0,-0.0011861,0,0,0,0.026988,0.00058044,0.0082704,-0.49493,0.011946,0.023525,4.357e-07,0.36,0.08,0
0.019687,0.0086184,0.026849,0.00056691,0.0082249,-0.00045327,0,0,0.048424,-0.019911,0,-0.002357,0,0,0,0.026857,0.0005591,0.0082249,-0.98772,0.01188,0.023426,4.2976e-07,0.38,0.08,0
0.020654,0.0085411,0.026736,0.00052087,0.008177,-0.00066453,0,0,0.048253,-0.019906,0,-0.0034556,0,0,0,0.026753,0.00050404,0.008177,-1.4512,0.011811,0.023377,4.2572e-07,0.4,0.08,0
0.021617,0.0084324,0.026644,0.000436,0.008124,-0.00085048,0,0,0.048152,-0.019989,0,-0.0044225,0,0,0,0.026672,0.00040843,0.008124,-1.8567,0.011735,0.02338,4.2354e-07,0.42,0.08,0
0.02258,0.0082998,0.026572,0.00030347,0.0080627,-0.00099707,0,0,0.048125,-0.020174,0,-0.0051848,0,0,0,0.02661,0.00026568,0.0080627,-2.1706,0.011646,0.02344,4.2312e-07,0.44,0.08,0
0.023542,0.0081525,0.026519,0.00011958,0.0079915,-0.0010852,0,0,0.048171,-0.020467,0,-0.005643,0,0,0,0.026563,7.5049e-05,0.0079915,-2.35,0.011543,0.02355,4.2421e-07,0.46,0.08,0
0.024507,0.0080022,0.026475,-0.00010593,0.0079108,-0.0010953,0,0,0.048268,-0.020844,0,-0.0056958,0,0,0,0.02652,-0.00015099,0.0079108,-2.3557,0.011427,0.023692,4.2601e-07,0.48,0.08,0
0.025473,0.0078619,0.026432,-0.00033243,0.0078297,-0.0010157,0,0,0.048365,-0.021222,0,-0.0052817,0,0,0,0.02647,-0.00037092,0.0078297,-2.1702,0.01131,0.023824,4.2727e-07,0.5,0.08,0
0.026441,0.0077449,0.026382,-0.00050115,0.0077641,-0.00086142,0,0,0.048405,-0.02149,0,-0.0044794,0,0,0,0.026409,-0.00052872,0.0077641,-1.8335,0.011215,0.023896,4.2693e-07,0.52,0.08,0
0.027409,0.0076617,0.026329,-0.00057997,0.0077245,-0.00066927,0,0,0.04837,-0.021592,0,-0.0034802,0,0,0,0.026345,-0.00059661,0.0077245,-1.4239,0.011158,0.023894,4.2494e-07,0.54,0.08,0
0.028376,0.0076191,0.026285,-0.0005896,0.0077088,-0.0004789,0,0,0.0483,-0.021576,0,-0.0024902,0,0,0,0.026294,-0.00059813,0.0077088,-1.0205,0.011135,0.02385,4.2252e-07,0.56,0.08,0
0.029341,0.00762,0.026271,-0.0005806,0.0077072,-0.00030524,0,0,0.048267,-0.021548,0,-0.0015873,0,0,0,0.026275,-0.00058407,0.0077072,-0.6512,0.011133,0.023821,4.2138e-07,0.58,0.08,0
0.030307,0.007666,0.026301,-0.00058878,0.0077137,-0.00013841,0,0,0.048327,-0.021586,0,-0.0007197,0,0,0,0.026302,-0.00058949,0.0077137,-0.2949,0.011142,0.02385,4.2275e-07,0.6,0.08,0
0.031274,0.0077575,0.026374,-0.00061399,0.0077279,4.3035e-05,0,0,0.048479,-0.021689,0,0.00022378,0,0,0,0.026374,-0.00061405,0.0077279,0.091364,0.011163,0.023933,4.2659e-07,0.62,0.08,0
0.032246,0.0078948,0.026472,-0.00062028,0.0077554,0.00024882,0,0,0.048662,-0.021777,0,0.0012939,0,0,0,0.026474,-0.00062257,0.0077554,0.52616,0.011202,0.024029,4.3158e-07,0.64,0.08,0
0.033221,0.0080762,0.026575,-0.00055735,0.0078053,0.00046379,0,0,0.048801,-0.021743,0,0.0024117,0,0,0,0.026583,-0.00056528,0.0078053,0.97902,0.011274,0.02408,4.3596e-07,0.66,0.08,0
0.034198,0.0082965,0.026668,-0.00040543,0.0078789,0.00064842,0,0,0.048853,-0.021539,0,0.0033718,0,0,0,0.026684,-0.00042095,0.0078789,1.3712,0.011381,0.024054,4.3849e-07,0.68,0.08,0
0.035175,0.0085463,0.026747,-0.00019762,0.0079647,0.00076659,0,0,0.048833,-0.021222,0,0.0039863,0,0,0,0.026768,-0.00021941,0.0079647,1.6284,0.011505,0.023968,4.3922e-07,0.7,0.08,0
0.036151,0.0088141,0.026814,7.2066e-06,0.0080463,0.00080411,0,0,0.048796,-0.020902,0,0.0041814,0,0,0,0.026838,-1.6892e-05,0.0080463,1.7166,0.011622,0.023868,4.3913e-07,0.72,0.08,0
0.037127,0.0090884,0.026878,0.00016919,0.0081141,0.0007736,0,0,0.048786,-0.020657,0,0.0040227,0,0,0,0.0269,0.0001468,0.0081141,1.6577,0.01172,0.023792,4.3929e-07,0.74,0.08,0
0.038103,0.0093592,0.026944,0.00027926,0.008167,0.00069492,0,0,0.048821,-0.020508,0,0.0036136,0,0,0,0.026962,0.00026116,0.008167,1.4918,0.011797,0.023756,4.4029e-07,0.76,0.08,0
0.03908,0.0096187,0.027013,0.000341,0.0082062,0.00058741,0,0,0.048897,-0.020449,0,0.0030546,0,0,0,0.027026,0.00032806,0.0082062,1.2611,0.011853,0.023759,4.4221e-07,0.78,0.08,0
0.040059,0.0098612,0.027082,0.00036225,0.0082334,0.00046564,0,0,0.049008,-0.020465,0,0.0024213,0,0,0,0.027091,0.00035414,0.0082334,0.99806,0.011893,0.023796,4.4493e-07,0.8,0.08,0
0.04104,0.010083,0.027152,0.00034982,0.0082504,0.00034219,0,0,0.049143,-0.020542,0,0.0017794,0,0,0,0.027156,0.00034545,0.0082504,0.73137,0.011917,0.023861,4.4834e-07,0.82,0.08,0
0.042024,0.01028,0.02722,0.00031196,0.0082595,0.00022751,0,0,0.049296,-0.020664,0,0.001183,0,0,0,0.027221,0.00031004,0.0082595,0.4844,0.01193,0.023948,4.5226e-07,0.84,0.08,0
0.043012,0.010453,0.027285,0.00025743,0.0082628,0.00012953,0,0,0.049459,-0.020814,0,0.00067353,0,0,0,0.027286,0.00025681,0.0082628,0.27457,0.011935,0.024047,4.5648e-07,0.86,0.08,0
0.044003,0.010601,0.027347,0.00019479,0.0082626,5.3062e-05,0,0,0.04962,-0.020976,0,0.00027592,0,0,0,0.027347,0.00019468,0.0082626,0.11197,0.011935,0.024151,4.6073e-07,0.88,0.08,0
0.044997,0.010724,0.027404,0.00013147,0.0082605,-1.0024e-07,0,0,0.049772,-0.021136,0,-5.2124e-07,0,0,0,0.027404,0.00013147,0.0082605,-0.00021059,0.011932,0.024252,4.6475e-07,0.9,0.08,0
0.045993,0.010823,0.027452,7.336e-05,0.0082577,-3.0766e-05,0,0,0.049906,-0.021279,0,-0.00015998,0,0,0,0.027452,7.3326e-05,0.0082577,-0.064384,0.011928,0.024342,4.6831e-07,0.92,0.08,0
0.046993,0.010898,0.027492,2.4688e-05,0.0082549,-4.1669e-05,0,0,0.050016,-0.021399,0,-0.00021668,0,0,0,0.027492,2.4625e-05,0.0082549,-0.086921,0.011924,0.024415,4.7124e-07,0.94,0.08,0
0.047994,0.010951,0.027521,-1.1728e-05,0.0082527,-3.6857e-05,0,0,0.050097,-0.021487,0,-0.00019165,0,0,0,0.027521,-1.1777e-05,0.0082527,-0.076699,0.011921,0.02447,4.734e-07,0.96,0.08,0
0.048997,0.010983,0.027538,-3.4172e-05,0.0082513,-2.1192e-05,0,0,0.050146,-0.021542,0,-0.0001102,0,0,0,0.027538,-3.4188e-05,0.0082513,-0.044037,0.011919,0.024504,4.7472e-07,0.98,0.08,0
0.05,0.010994,0.027544,-4.1746e-05,0.0082508,0.00010091,0,0,0.050163,-0.021561,0,0.00052475,0,0,0,0.027545,-4.2115e-05,0.0082508,0.20959,0.011918,0.024516,4.752e-07,1,0.08,0
0,0,0.03087,0.01323,0.01323,0.0081039,0,0,0.045864,4.3368e-19,0,0.04214,0,0,0,0.034028,0.010072,0.01323,21.288,0.01911,0.022543,5.4967e-07,0,0.1,0
0.00091728,0.0008428,0.030694,0.01115,0.012553,0.0079851,0,0,0.047165,-0.0036481,0,0.041523,0,0,0,0.033541,0.0083024,0.012553,19.627,0.018132,0.023405,5.8594e-07,0.02,0.1,0
0.0018866,0.0017077,0.031199,0.0090422,0.012072,0.007734,0,0,0.04973,-0.0078787,0,0.040217,0,0,0,0.033632,0.0066097,0.012072,17.459,0.017438,0.024747,6.5235e-07,0.04,0.1,0
0.0029065,0.0025623,0.031567,0.0070129,0.011574,0.0071282,0,0,0.051983,-0.011859,0,0.037067,0,0,0,0.033487,0.0050936,0.011574,15.07,0.016718,0.025771,6.9525e-07,0.06,0.1,0
0.0039659,0.0033764,0.031726,0.0053225,0.011114,0.0063014,0,0,0.053589,-0.015059,0,0.032767,0,0,0,0.033152,0.0038957,0.011114,12.758,0.016054,0.026398,7.1202e-07,0.08,0.1,0
0.00505,0.0041302,0.031662,0.0040238,0.010706,0.0054121,0,0,0.054486,-0.017373,0,0.028143,0,0,0,0.032684,0.0030018,0.010706,10.694,0.015464,0.026678,7.0797e-07,0.1,0.1,0
0.0061454,0.0048146,0.031425,0.0030616,0.010346,0.0045729,0,0,0.054805,-0.018939,0,0.023779,0,0,0,0.032144,0.0023426,0.010346,8.9361,0.014944,0.026714,6.9102e-07,0.12,0.1,0
0.0072422,0.0054275,0.031081,0.0023547,0.010031,0.0038338,0,0,0.05473,-0.019957,0,0.019936,0,0,0,0.031583,0.0018518,0.010031,7.4725,0.014489,0.026603,6.6773e-07,0.14,0.1,0
0.0083346,0.005971,0.030688,0.0018379,0.0097579,0.0032049,0,0,0.054419,-0.020592,0,0.016665,0,0,0,0.03104,0.0014861,0.0097579,6.263,0.014095,0.026408,6.4246e-07,0.16,0.1,0
0.009419,0.0064484,0.030286,0.0014626,0.0095247,0.002677,0,0,0.05398,-0.020961,0,0.01392,0,0,0,0.030533,0.0012161,0.0095247,5.2614,0.013758,0.026171,6.1751e-07,0.18,0.1,0
0.010494,0.0068634,0.029896,0.0011943,0.009327,0.0022337,0,0,0.053479,-0.021145,0,0.011615,0,0,0,0.030069,0.0010215,0.009327,4.4236,0.013472,0.025913,5.9391e-07,0.2,0.1,0
0.011558,0.0072196,0.029527,0.0010084,0.0091605,0.0018572,0,0,0.052952,-0.021195,0,0.0096576,0,0,0,0.029647,0.00088801,0.0091605,3.7105,0.013232,0.025644,5.72e-07,0.22,0.1,0
0.012612,0.0075199,0.029182,0.00088732,0.0090209,0.0015308,0,0,0.05242,-0.021147,0,0.00796,0,0,0,0.029265,0.00080475,0.0090209,3.0877,0.01303,0.02537,5.5174e-07,0.24,0.1,0
0.013655,0.0077667,0.028862,0.00081733,0.0089039,0.0012393,0,0,0.051892,-0.021025,0,0.0064443,0,0,0,0.028917,0.00076268,0.0089039,2.5253,0.012861,0.025094,5.3299e-07,0.26,0.1,0
0.014687,0.0079621,0.028564,0.00078693,0.0088054,0.00096995,0,0,0.051373,-0.020848,0,0.0050438,0,0,0,0.028598,0.0007531,0.0088054,1.9975,0.012719,0.024819,5.1558e-07,0.28,0.1,0
0.01571,0.0081075,0.028286,0.00078482,0.0087212,0.00071239,0,0,0.050868,-0.020635,0,0.0037044,0,0,0,0.028304,0.00076637,0.0087212,1.4829,0.012597,0.024547,4.9941e-07,0.3,0.1,0
0.016722,0.0082043,0.028024,0.00079871,0.0086468,0.00045931,0,0,0.050381,-0.020405,0,0.0023884,0,0,0,0.028032,0.00079096,0.0086468,0.96626,0.01249,0.024285,4.8449e-07,0.32,0.1,0
0.017725,0.008254,0.027777,0.00081458,0.0085776,0.00020729,0,0,0.049919,-0.020184,0,0.0010779,0,0,0,0.027779,0.00081299,0.0085776,0.44045,0.01239,0.024043,4.7092e-07,0.34,0.1,0
0.018719,0.0082585,0.027543,0.00081708,0.0085081,-4.2514e-05,0,0,0.049491,-0.019997,0,-0.00022107,0,0,0,0.027543,0.00081702,0.0085081,-0.091141,0.01229,0.023831,4.5882e-07,0.36,0.1,0
0.019705,0.0082205,0.027319,0.0007908,0.008433,-0.00028427,0,0,0.049104,-0.01987,0,-0.0014782,0,0,0,0.027322,0.00078776,0.008433,-0.61388,0.012181,0.023657,4.483e-07,0.38,0.1,0
0.020683,0.0081438,0.027102,0.0007232,0.0083474,-0.00050836,0,0,0.048761,-0.019823,0,-0.0026435,0,0,0,0.027111,0.0007134,0.0083474,-1.1036,0.012057,0.023529,4.3929e-07,0.4,0.1,0
0.021655,0.0080339,0.026887,0.00060401,0.0082472,-0.00070431,0,0,0.048463,-0.019872,0,-0.0036624,0,0,0,0.026905,0.00058515,0.0082472,-1.5339,0.011913,0.023448,4.3162e-07,0.42,0.1,0
0.022622,0.0078978,0.026679,0.00042963,0.0081325,-0.00086019,0,0,0.04822,-0.020028,0,-0.004473,0,0,0,0.026707,0.00040147,0.0081325,-1.8749,0.011747,0.023418,4.2536e-07,0.44,0.1,0
0.023584,0.0077446,0.026477,0.00018256,0.007998,-0.00096269,0,0,0.048046,-0.02032,0,-0.005006,0,0,0,0.026513,0.00014737,0.007998,-2.0939,0.011553,0.023447,4.2053e-07,0.46,0.1,0
0.024543,0.0075862,0.026282,-0.00013517,0.007844,-0.00098062,0,0,0.047938,-0.020746,0,-0.0050992,0,0,0,0.026318,-0.00017152,0.007844,-2.123,0.01133,0.023529,4.1669e-07,0.48,0.1,0
0.025501,0.0074378,0.026078,-0.00047283,0.0076816,-0.00089543,0,0,0.047831,-0.021202,0,-0.0046562,0,0,0,0.026108,-0.000503,0.0076816,-1.9294,0.011096,0.023608,4.1218e-07,0.5,0.1,0
0.026457,0.0073154,0.025869,-0.00070628,0.0075488,-0.00071865,0,0,0.047632,-0.021463,0,-0.003737,0,0,0,0.025888,-0.0007257,0.0075488,-1.5479,0.010904,0.023592,4.0538e-07,0.52,0.1,0
0.027407,0.0072311,0.025672,-0.00076479,0.0074721,-0.00052543,0,0,0.047319,-0.021416,0,-0.0027322,0,0,0,0.025682,-0.00077523,0.0074721,-1.1382,0.010793,0.023448,3.966e-07,0.54,0.1,0
0.028349,0.0071901,0.025508,-0.00071836,0.0074369,-0.00037543,0,0,0.046985,-0.021204,0,-0.0019522,0,0,0,0.025513,-0.00072373,0.0074369,-0.81996,0.010742,0.023257,3.8815e-07,0.56,0.1,0
0.029286,0.0071925,0.025422,-0.00066823,0.0074261,-0.00028337,0,0,0.046789,-0.021045,0,-0.0014735,0,0,0,0.025425,-0.00067131,0.0074261,-0.6222,0.010727,0.023136,3.8338e-07,0.58,0.1,0
0.030221,0.0072377,0.025442,-0.0006809,0.0074285,-0.00021174,0,0,0.046836,-0.021084,0,-0.001101,0,0,0,0.025444,-0.00068261,0.0074285,-0.46436,0.01073,0.023162,3.8441e-07,0.6,0.1,0
0.03116,0.0073263,0.025569,-0.00075617,0.0074437,-0.00010966,0,0,0.047125,-0.02132,0,-0.00057022,0,0,0,0.025569,-0.00075663,0.0074437,-0.23866,0.010752,0.023333,3.9116e-07,0.62,0.1,0
0.032106,0.0074605,0.025769,-0.00082713,0.0074825,6.0124e-05,0,0,0.047545,-0.021605,0,0.00031265,0,0,0,0.025769,-0.00082727,0.0074825,0.12953,0.010808,0.023567,4.0139e-07,0.64,0.1,0
0.033062,0.0076417,0.025998,-0.00079248,0.0075616,0.00028234,0,0,0.047934,-0.021721,0,0.0014682,0,0,0,0.026001,-0.00079545,0.0075616,0.60375,0.010922,0.023747,4.1171e-07,0.66,0.1,0
0.034023,0.007866,0.026232,-0.0005838,0.0076944,0.00049704,0,0,0.048197,-0.021523,0,0.0025846,0,0,0,0.026241,-0.00059301,0.0076944,1.0615,0.011114,0.023798,4.199e-07,0.68,0.1,0
0.034989,0.0081228,0.026452,-0.00027448,0.0078531,0.00062999,0,0,0.048356,-0.021132,0,0.0032759,0,0,0,0.026466,-0.00028932,0.0078531,1.3496,0.011343,0.023755,4.2574e-07,0.7,0.1,0
0.035958,0.0083976,0.026653,1.1332e-05,0.0079993,0.00067138,0,0,0.0485,-0.020769,0,0.0034912,0,0,0,0.02667,-5.5766e-06,0.0079993,1.4426,0.011555,0.023709,4.3073e-07,0.72,0.1,0
0.036929,0.0086768,0.026847,0.00022492,0.0081217,0.00064078,0,0,0.048687,-0.020532,0,0.0033321,0,0,0,0.026863,0.00020951,0.0081217,1.378,0.011731,0.023709,4.3634e-07,0.74,0.1,0
0.037905,0.0089503,0.027033,0.00036559,0.0082197,0.0005695,0,0,0.048916,-0.020421,0,0.0029614,0,0,0,0.027046,0.00035343,0.0082197,1.2228,0.011873,0.023757,4.4271e-07,0.76,0.1,0
0.038886,0.0092105,0.027209,0.00045039,0.0082979,0.00047065,0,0,0.049169,-0.020404,0,0.0024474,0,0,0,0.027217,0.00044212,0.0082979,1.0073,0.011986,0.023839,4.4961e-07,0.78,0.1,0
0.039872,0.0094521,0.027369,0.00048113,0.008355,0.00035665,0,0,0.049436,-0.020472,0,0.0018546,0,0,0,0.027373,0.0004764,0.008355,0.75982,0.012068,0.02395,4.5679e-07,0.8,0.1,0
0.040863,0.0096713,0.027514,0.00046566,0.008394,0.00023936,0,0,0.049713,-0.020614,0,0.0012447,0,0,0,0.027516,0.00046355,0.008394,0.50697,0.012125,0.024088,4.6427e-07,0.82,0.1,0
0.04186,0.0098659,0.027647,0.00041383,0.0084182,0.00013083,0,0,0.049994,-0.020811,0,0.00068034,0,0,0,0.027647,0.0004132,0.0084182,0.27526,0.01216,0.024244,4.7195e-07,0.84,0.1,0
0.042863,0.010035,0.027767,0.00033825,0.0084316,4.0283e-05,0,0,0.050272,-0.021043,0,0.00020947,0,0,0,0.027767,0.00033819,0.0084316,0.084146,0.012179,0.02441,4.7958e-07,0.86,0.1,0
0.043871,0.010179,0.027874,0.00025133,0.0084375,-2.6844e-05,0,0,0.050534,-0.021284,0,-0.00013959,0,0,0,0.027874,0.0002513,0.0084375,-0.055682,0.012188,0.024574,4.8683e-07,0.88,0.1,0
0.044885,0.010298,0.027966,0.00016378,0.0084388,-6.8846e-05,0,0,0.05077,-0.021515,0,-0.000358,0,0,0,0.027966,0.00016361,0.0084388,-0.14188,0.012189,0.024726,4.9338e-07,0.9,0.1,0
0.045902,0.010393,0.028042,8.3777e-05,0.0084376,-8.6944e-05,0,0,0.05097,-0.02172,0,-0.00045211,0,0,0,0.028042,8.3507e-05,0.0084376,-0.17818,0.012188,0.024858,4.9897e-07,0.92,0.1,0
0.046923,0.010466,0.028101,1.7036e-05,0.0084354,-8.4358e-05,0,0,0.051131,-0.021888,0,-0.00043866,0,0,0,0.028101,1.6783e-05,0.0084354,-0.1721,0.012184,0.024963,5.0344e-07,0.94,0.1,0
0.047947,0.010517,0.028143,-3.2746e-05,0.0084332,-6.5527e-05,0,0,0.051246,-0.022011,0,-0.00034074,0,0,0,0.028143,-3.2898e-05,0.0084332,-0.13325,0.012181,0.025041,5.0667e-07,0.96,0.1,0
0.048973,0.010547,0.028169,-6.3367e-05,0.0084316,-3.558e-05,0,0,0.051317,-0.022087,0,-0.00018501,0,0,0,0.028169,-6.3412e-05,0.0084316,-0.072207,0.012179,0.025088,5.0862e-07,0.98,0.1,0
0.05,0.010557,0.028177,-7.3691e-05,0.008431,9.6696e-05,0,0,0.05134,-0.022112,0,0.00050282,0,0,0,0.028178,-7.4021e-05,0.008431,0.19611,0.012178,0.025104,5.093e-07,1,0.1,0
0,0,0.030286,0.01298,0.01298,0.0074633,0,0,0.044997,-4.3368e-19,0,0.038809,0,0,0,0.03306,0.010206,0.01298,20.389,0.018749,0.021601,4.8901e-07,0,0.12,0
0.00089993,0.00077618,0.030142,0.011193,0.012401,0.0073905,0,0,0.046128,-0.0031395,0,0.03843,0,0,0,0.032683,0.0086514,0.012401,18.978,0.017912,0.022394,5.2273e-07,0.02,0.12,0
0.0018451,0.0015647,0.030641,0.0094526,0.012028,0.007224,0,0,0.048393,-0.006696,0,0.037565,0,0,0,0.032869,0.007224,0.012028,17.145,0.017374,0.023613,5.8294e-07,0.04,0.12,0
0.0028356,0.0023449,0.031055,0.0077066,0.011628,0.0068129,0,0,0.050508,-0.010197,0,0.035427,0,0,0,0.032897,0.005864,0.011628,15.134,0.016797,0.024662,6.3076e-07,0.06,0.12,0
0.0038654,0.0030958,0.031328,0.0061395,0.01124,0.0062123,0,0,0.052229,-0.013262,0,0.032304,0,0,0,0.032777,0.0046907,0.01124,13.128,0.016236,0.025452,6.615e-07,0.08,0.12,0
0.0049248,0.0038009,0.031438,0.0048367,0.010882,0.0055157,0,0,0.053445,-0.015719,0,0.028682,0,0,0,0.032537,0.0037384,0.010882,11.262,0.015719,0.025974,6.757e-07,0.1,0.12,0
0.0060033,0.0044502,0.031398,0.0038022,0.01056,0.0048074,0,0,0.054178,-0.01757,0,0.024998,0,0,0,0.032211,0.0029887,0.01056,9.6045,0.015253,0.026269,6.7682e-07,0.12,0.12,0
0.0070919,0.0050389,0.031242,0.0030015,0.010273,0.0041422,0,0,0.05452,-0.018906,0,0.021539,0,0,0,0.031837,0.0024065,0.010273,8.1745,0.014839,0.026392,6.6903e-07,0.14,0.12,0
0.0081841,0.0055664,0.031011,0.0023912,0.010021,0.0035461,0,0,0.054575,-0.019837,0,0.01844,0,0,0,0.031444,0.0019584,0.010021,6.959,0.014474,0.026395,6.5587e-07,0.16,0.12,0
0.0092749,0.0060336,0.030738,0.0019327,0.0098011,0.0030253,0,0,0.054435,-0.020458,0,0.015731,0,0,0,0.031052,0.0016184,0.0098011,5.9314,0.014157,0.026314,6.3981e-07,0.18,0.12,0
0.010361,0.006443,0.030444,0.001595,0.0096117,0.0025749,0,0,0.054164,-0.020843,0,0.013389,0,0,0,0.030672,0.001367,0.0096117,5.0605,0.013884,0.026175,6.224e-07,0.2,0.12,0
0.011442,0.0067966,0.030144,0.0013543,0.0094496,0.0021848,0,0,0.053806,-0.021048,0,0.011361,0,0,0,0.030309,0.0011895,0.0094496,4.3151,0.013649,0.025993,6.0447e-07,0.22,0.12,0
0.012514,0.0070968,0.029846,0.0011923,0.0093114,0.0018431,0,0,0.053389,-0.02111,0,0.0095841,0,0,0,0.029964,0.0010742,0.0093114,3.6653,0.01345,0.025778,5.8643e-07,0.24,0.12,0
0.013577,0.0073455,0.029551,0.0010941,0.0091935,0.0015374,0,0,0.052929,-0.021058,0,0.0079947,0,0,0,0.029634,0.0010113,0.0091935,3.0836,0.013279,0.025534,5.6841e-07,0.26,0.12,0
0.014631,0.0075441,0.029259,0.0010468,0.0090918,0.0012562,0,0,0.052435,-0.020917,0,0.006532,0,0,0,0.029315,0.00099101,0.0090918,2.5444,0.013133,0.025267,5.5049e-07,0.28,0.12,0
0.015675,0.0076938,0.02897,0.001037,0.0090022,0.00098897,0,0,0.051917,-0.020709,0,0.0051426,0,0,0,0.029005,0.0010021,0.0090022,2.0252,0.013003,0.024983,5.3275e-07,0.3,0.12,0
0.016708,0.0077954,0.028682,0.0010495,0.0089196,0.00072791,0,0,0.051383,-0.020462,0,0.0037851,0,0,0,0.028702,0.0010303,0.0089196,1.5079,0.012884,0.024691,5.1536e-07,0.32,0.12,0
0.01773,0.00785,0.028395,0.0010657,0.0088383,0.00046882,0,0,0.050848,-0.020209,0,0.0024379,0,0,0,0.028403,0.0010577,0.0088383,0.98248,0.012766,0.024404,4.9866e-07,0.34,0.12,0
0.018742,0.0078587,0.028107,0.0010643,0.0087515,0.00021296,0,0,0.050325,-0.019987,0,0.0011074,0,0,0,0.028109,0.0010626,0.0087515,0.45116,0.012641,0.024139,4.8299e-07,0.36,0.12,0
0.019743,0.0078236,0.027816,0.0010237,0.0086519,-3.1697e-05,0,0,0.049827,-0.019833,0,-0.00016482,0,0,0,0.027816,0.0010237,0.0086519,-0.067784,0.012497,0.023909,4.6861e-07,0.38,0.12,0
0.020734,0.0077482,0.027513,0.00092544,0.0085316,-0.00025246,0,0,0.049352,-0.019776,0,-0.0013128,0,0,0,0.027516,0.00092304,0.0085316,-0.54398,0.012323,0.023722,4.5536e-07,0.4,0.12,0
0.021717,0.0076376,0.027191,0.00076413,0.0083867,-0.00043436,0,0,0.048892,-0.019819,0,-0.0022587,0,0,0,0.027199,0.000757,0.0083867,-0.94137,0.012114,0.023572,4.4275e-07,0.42,0.12,0
0.02269,0.0074987,0.026833,0.00053199,0.0082095,-0.0005725,0,0,0.048421,-0.019962,0,-0.002977,0,0,0,0.026845,0.00051953,0.0082095,-1.2464,0.011858,0.023447,4.2991e-07,0.44,0.12,0
0.023654,0.0073397,0.026472,0.00025376,0.0080179,-0.0006585,0,0,0.047982,-0.020187,0,-0.0034242,0,0,0,0.026489,0.00023724,0.0080179,-1.4378,0.011581,0.023355,4.1784e-07,0.46,0.12,0
0.024609,0.0071724,0.026086,-0.00015666,0.0077788,-0.00068997,0,0,0.047599,-0.020632,0,-0.0035878,0,0,0,0.026104,-0.00017479,0.0077788,-1.505,0.011236,0.023342,4.0669e-07,0.48,0.12,0
0.025558,0.0070139,0.02567,-0.0006471,0.007507,-0.00058177,0,0,0.047225,-0.021201,0,-0.0030252,0,0,0,0.025683,-0.00065996,0.007507,-1.2657,0.010844,0.023356,3.9492e-07,0.5,0.12,0
0.026499,0.0068864,0.02525,-0.00094457,0.0072916,-0.00038436,0,0,0.046692,-0.021414,0,-0.0019986,0,0,0,0.025256,-0.0009502,0.0072916,-0.84047,0.010532,0.02321,3.7988e-07,0.52,0.12,0
0.027425,0.0068051,0.024858,-0.00090854,0.0071848,-0.00019752,0,0,0.04595,-0.021043,0,-0.0010271,0,0,0,0.024859,-0.00091005,0.0071848,-0.43918,0.010378,0.022825,3.6193e-07,0.54,0.12,0
0.028337,0.0067709,0.024546,-0.00071985,0.0071477,-0.00015335,0,0,0.045235,-0.020456,0,-0.00079741,0,0,0,0.024547,-0.00072078,0.0071477,-0.34774,0.010325,0.022395,3.4601e-07,0.56,0.12,0
0.029235,0.0067782,0.024356,-0.00062046,0.0071206,-0.00021664,0,0,0.044811,-0.020127,0,-0.0011265,0,0,0,0.024358,-0.00062234,0.0071206,-0.49692,0.010285,0.022148,3.3681e-07,0.58,0.12,0
0.030129,0.0068226,0.024369,-0.00063839,0.0071193,-0.00031364,0,0,0.04485,-0.02017,0,-0.0016309,0,0,0,0.024373,-0.00064233,0.0071193,-0.71844,0.010283,0.022178,3.3773e-07,0.6,0.12,0
0.031029,0.0069047,0.024585,-0.00077416,0.0071433,-0.0003649,0,0,0.045349,-0.020585,0,-0.0018975,0,0,0,0.024591,-0.00077941,0.0071433,-0.82422,0.010318,0.022481,3.4866e-07,0.62,0.12,0
0.031943,0.0070306,0.02492,-0.00099885,0.0071763,-0.00029636,0,0,0.046133,-0.021255,0,-0.001541,0,0,0,0.024923,-0.0010022,0.0071763,-0.65501,0.010366,0.022956,3.6597e-07,0.64,0.12,0
0.032874,0.0072074,0.025329,-0.0010682,0.0072782,-7.3848e-05,0,0,0.046932,-0.021701,0,-0.00038401,0,0,0,0.025329,-0.0010684,0.0072782,-0.16029,0.010513,0.02337,3.8485e-07,0.66,0.12,0
0.03382,0.0074355,0.02576,-0.00080367,0.007487,0.00016893,0,0,0.04751,-0.021556,0,0.00087844,0,0,0,0.025761,-0.00080474,0.007487,0.36435,0.010814,0.023542,4.0069e-07,0.68,0.12,0
0.034774,0.007701,0.026177,-0.00035332,0.0077473,0.00033349,0,0,0.047919,-0.021062,0,0.0017341,0,0,0,0.026182,-0.00035751,0.0077473,0.72004,0.011191,0.023557,4.133e-07,0.7,0.12,0
0.035737,0.0079834,0.026556,1.054e-05,0.0079699,0.00037251,0,0,0.048323,-0.020694,0,0.0019371,0,0,0,0.026561,5.3138e-06,0.0079699,0.80383,0.011512,0.023604,4.2529e-07,0.72,0.12,0
0.036707,0.0082671,0.026896,0.00024124,0.0081412,0.00037258,0,0,0.048763,-0.02054,0,0.0019374,0,0,0,0.026901,0.00023603,0.0081412,0.80068,0.01176,0.023722,4.3775e-07,0.74,0.12,0
0.037687,0.0085423,0.02722,0.00042712,0.0082942,0.00033492,0,0,0.049208,-0.020454,0,0.0017416,0,0,0,0.027224,0.00042293,0.0082942,0.71607,0.01198,0.02386,4.5031e-07,0.76,0.12,0
0.038676,0.0088025,0.027492,0.00054149,0.00841,0.00026715,0,0,0.049613,-0.020458,0,0.0013892,0,0,0,0.027495,0.00053884,0.00841,0.56788,0.012148,0.024008,4.6173e-07,0.78,0.12,0
0.039672,0.0090423,0.027728,0.00058933,0.0084952,0.00017451,0,0,0.050005,-0.020555,0,0.00090747,0,0,0,0.027729,0.00058821,0.0084952,0.36841,0.012271,0.024178,4.7278e-07,0.8,0.12,0
0.040676,0.0092581,0.027936,0.0005725,0.0085524,7.3667e-05,0,0,0.050396,-0.020748,0,0.00038307,0,0,0,0.027936,0.00057231,0.0085524,0.15425,0.012353,0.024374,4.8382e-07,0.82,0.12,0
0.041688,0.009448,0.028122,0.00050575,0.0085882,-1.9812e-05,0,0,0.050787,-0.021014,0,-0.00010302,0,0,0,0.028122,0.00050573,0.0085882,-0.041105,0.012405,0.024592,4.9494e-07,0.84,0.12,0
0.042707,0.0096116,0.028287,0.00040681,0.0086081,-9.4048e-05,0,0,0.051165,-0.021323,0,-0.00048905,0,0,0,0.028287,0.0004065,0.0086081,-0.19327,0.012434,0.024818,5.058e-07,0.86,0.12,0
0.043734,0.0097497,0.028431,0.00029359,0.0086175,-0.00014306,0,0,0.051516,-0.021642,0,-0.00074393,0,0,0,0.028432,0.00029286,0.0086175,-0.2913,0.012447,0.025037,5.1594e-07,0.88,0.12,0
0.044768,0.0098633,0.028553,0.00018048,0.0086201,-0.00016564,0,0,0.051826,-0.021943,0,-0.00086134,0,0,0,0.028554,0.00017951,0.0086201,-0.33448,0.012451,0.025236,5.2493e-07,0.9,0.12,0
0.045807,0.0099539,0.028652,7.7953e-05,0.008619,-0.00016381,0,0,0.052086,-0.022207,0,-0.00085184,0,0,0,0.028653,7.7014e-05,0.008619,-0.32846,0.01245,0.025406,5.3247e-07,0.92,0.12,0
0.046851,0.010023,0.028728,-7.0199e-06,0.0086162,-0.00014141,0,0,0.05229,-0.02242,0,-0.00073535,0,0,0,0.028728,-7.7159e-06,0.0086162,-0.28196,0.012446,0.025541,5.384e-07,0.94,0.12,0
0.047899,0.010071,0.028781,-7.0107e-05,0.0086133,-0.00010318,0,0,0.052436,-0.022577,0,-0.00053656,0,0,0,0.028781,-7.0476e-05,0.0086133,-0.20491,0.012441,0.025638,5.4265e-07,0.96,0.12,0
0.048949,0.0101,0.028813,-0.0001088,0.0086112,-5.4275e-05,0,0,0.052524,-0.022672,0,-0.00028223,0,0,0,0.028813,-0.0001089,0.0086112,-0.10752,0.012438,0.025696,5.452e-07,0.98,0.12,0
0.05,0.010109,0.028823,-0.00012182,0.0086104,9.1152e-05,0,0,0.052553,-0.022704,0,0.00047399,0,0,0,0.028823,-0.00012211,0.0086104,0.18043,0.012437,0.025716,5.4607e-07,1,0.12,0
0,0,0.029946,0.012834,0.012834,0.0068964,0,0,0.044492,-2.1684e-19,0,0.035861,0,0,0,0.03238,0.010401,0.012834,19.435,0.018538,0.020869,4.4546e-07,0,0.14,0
0.00088983,0.00071722,0.029818,0.011226,0.012313,0.0068476,0,0,0.045512,-0.0028259,0,0.035608,0,0,0,0.032068,0.0089766,0.012313,18.188,0.017786,0.021617,4.774e-07,0.02,0.14,0
0.0018205,0.0014399,0.0303,0.009721,0.012006,0.0067241,0,0,0.047564,-0.0059421,0,0.034965,0,0,0,0.032303,0.0077188,0.012006,16.582,0.017343,0.022745,5.3268e-07,0.04,0.14,0
0.0027924,0.0021544,0.030729,0.0081891,0.011676,0.0064298,0,0,0.04954,-0.0090647,0,0.033435,0,0,0,0.032434,0.0064839,0.011676,14.853,0.016865,0.023783,5.8152e-07,0.06,0.14,0
0.0038021,0.0028459,0.031062,0.0067558,0.011345,0.005986,0,0,0.051264,-0.011933,0,0.031127,0,0,0,0.032456,0.0053616,0.011345,13.111,0.016388,0.024654,6.1945e-07,0.08,0.14,0
0.004843,0.0035015,0.031275,0.0054995,0.011032,0.0054448,0,0,0.052631,-0.014386,0,0.028313,0,0,0,0.032378,0.0043965,0.011032,11.451,0.015936,0.025324,6.4504e-07,0.1,0.14,0
0.0059073,0.0041118,0.031366,0.0044483,0.010744,0.004864,0,0,0.053617,-0.01637,0,0.025293,0,0,0,0.032218,0.0035963,0.010744,9.9349,0.01552,0.025801,6.5921e-07,0.12,0.14,0
0.0069876,0.0046713,0.031351,0.0035961,0.010484,0.0042901,0,0,0.054253,-0.017909,0,0.022309,0,0,0,0.031998,0.0029481,0.010484,8.5895,0.015144,0.026111,6.6409e-07,0.14,0.14,0
0.0080774,0.0051775,0.031252,0.0029208,0.010252,0.0037526,0,0,0.054601,-0.019061,0,0.019514,0,0,0,0.031741,0.0024322,0.010252,7.4187,0.014808,0.026286,6.6205e-07,0.16,0.14,0
0.0091717,0.0056301,0.031095,0.0023964,0.010047,0.0032658,0,0,0.054724,-0.019893,0,0.016982,0,0,0,0.031462,0.0020295,0.010047,6.4109,0.014513,0.026355,6.5511e-07,0.18,0.14,0
0.010266,0.0060297,0.030898,0.0019986,0.0098691,0.0028333,0,0,0.054676,-0.020463,0,0.014733,0,0,0,0.031173,0.0017235,0.0098691,5.5469,0.014255,0.026339,6.448e-07,0.2,0.14,0
0.011359,0.0063777,0.030676,0.0017069,0.0097148,0.0024519,0,0,0.054498,-0.02082,0,0.01275,0,0,0,0.030882,0.0015008,0.0097148,4.8039,0.014032,0.026256,6.3212e-07,0.22,0.14,0
0.012446,0.0066755,0.030435,0.0015043,0.0095818,0.0021146,0,0,0.054218,-0.021002,0,0.010996,0,0,0,0.030589,0.0013505,0.0095818,4.1584,0.01384,0.026114,6.1767e-07,0.24,0.14,0
0.013527,0.0069244,0.03018,0.0013763,0.009467,0.0018125,0,0,0.053855,-0.021036,0,0.009425,0,0,0,0.030294,0.0012627,0.009467,3.5865,0.013675,0.025922,6.0179e-07,0.26,0.14,0
0.014601,0.0071254,0.029913,0.0013097,0.0093667,0.0015358,0,0,0.05342,-0.020948,0,0.0079864,0,0,0,0.029995,0.0012275,0.0093667,3.0648,0.01353,0.025684,5.8468e-07,0.28,0.14,0
0.015664,0.0072791,0.029632,0.0012902,0.0092766,0.0012748,0,0,0.052923,-0.020765,0,0.0066287,0,0,0,0.029689,0.001233,0.0092766,2.5701,0.013399,0.025408,5.6654e-07,0.3,0.14,0
0.016717,0.0073858,0.029337,0.0013006,0.0091913,0.0010205,0,0,0.052379,-0.020516,0,0.0053066,0,0,0,0.029374,0.0012635,0.0091913,2.0818,0.013276,0.025104,5.4774e-07,0.32,0.14,0
0.017759,0.0074456,0.02903,0.0013181,0.0091045,0.00076747,0,0,0.051807,-0.020245,0,0.0039908,0,0,0,0.029051,0.0012969,0.0091045,1.5852,0.013151,0.024791,5.2882e-07,0.34,0.14,0
0.01879,0.007459,0.028712,0.001314,0.0090079,0.00051664,0,0,0.051231,-0.020004,0,0.0026865,0,0,0,0.028722,0.0013043,0.0090079,1.0799,0.013011,0.024492,5.1056e-07,0.36,0.14,0
0.019809,0.0074271,0.028381,0.0012549,0.0088907,0.0002784,0,0,0.050674,-0.019853,0,0.0014477,0,0,0,0.028384,0.001252,0.0088907,0.58796,0.012842,0.024233,4.9351e-07,0.38,0.14,0
0.020817,0.0073528,0.028029,0.0011169,0.0087439,7.5105e-05,0,0,0.050142,-0.01983,0,0.00039054,0,0,0,0.028029,0.0011167,0.0087439,0.15989,0.01263,0.024025,4.7774e-07,0.4,0.14,0
0.021814,0.0072412,0.027627,0.00088269,0.008553,-7.101e-05,0,0,0.049593,-0.019943,0,-0.00036925,0,0,0,0.027627,0.0008825,0.008553,-0.15213,0.012354,0.023853,4.618e-07,0.42,0.14,0
0.0228,0.0070993,0.027161,0.00058562,0.0083239,-0.00013493,0,0,0.048976,-0.020119,0,-0.00070164,0,0,0,0.027161,0.00058493,0.0083239,-0.2909,0.012023,0.023675,4.4416e-07,0.44,0.14,0
0.023773,0.0069371,0.026527,0.00018414,0.0080135,-0.00014848,0,0,0.048136,-0.020356,0,-0.00077211,0,0,0,0.026528,0.0001833,0.0080135,-0.32293,0.011575,0.023432,4.2065e-07,0.46,0.14,0
0.024726,0.0067609,0.025951,-0.00012663,0.0077472,-8.4324e-05,0,0,0.047329,-0.020472,0,-0.00043849,0,0,0,0.025951,-0.0001269,0.0077472,-0.18527,0.01119,0.023167,3.9881e-07,0.48,0.14,0
0.025666,0.0065898,0.025173,-0.00086952,0.0072911,-1.9381e-05,0,0,0.046494,-0.021218,0,-0.00010078,0,0,0,0.025173,-0.00086953,0.0072911,-0.04264,0.010532,0.023072,3.7507e-07,0.5,0.14,0
0.026586,0.0064588,0.024381,-0.0012736,0.0069323,0.00028706,0,0,0.045367,-0.021335,0,0.0014927,0,0,0,0.024384,-0.0012768,0.0069323,0.641,0.010013,0.022699,3.4661e-07,0.52,0.14,0
0.027481,0.0063894,0.023816,-0.00080273,0.0069041,0.00034551,0,0,0.043972,-0.020038,0,0.0017966,0,0,0,0.023821,-0.00080758,0.0069041,0.80389,0.0099726,0.02182,3.1763e-07,0.54,0.14,0
0.028345,0.0063718,0.023241,-0.00052375,0.0068152,0.00016958,0,0,0.042707,-0.019081,0,0.00088183,0,0,0,0.023242,-0.00052496,0.0068152,0.40883,0.0098442,0.021079,2.9177e-07,0.56,0.14,0
0.02919,0.0063875,0.022971,-0.00040411,0.00677,-0.00012191,0,0,0.042122,-0.018653,0,-0.00063395,0,0,0,0.022971,-0.00040475,0.00677,-0.29882,0.0097789,0.020741,2.8028e-07,0.58,0.14,0
0.030029,0.0064309,0.022979,-0.00042769,0.0067654,-0.00043066,0,0,0.042156,-0.018702,0,-0.0022395,0,0,0,0.022987,-0.00043561,0.0067654,-1.0537,0.0097723,0.02078,2.8123e-07,0.6,0.14,0
0.030876,0.0065028,0.023266,-0.00059551,0.0068012,-0.00070922,0,0,0.042809,-0.019231,0,-0.0036879,0,0,0,0.023287,-0.00061657,0.0068012,-1.7009,0.0098239,0.021192,2.946e-07,0.62,0.14,0
0.031742,0.0066103,0.023854,-0.00092674,0.0068782,-0.00085735,0,0,0.044137,-0.020293,0,-0.0044582,0,0,0,0.023883,-0.00095636,0.0068782,-1.9791,0.0099351,0.021995,3.22e-07,0.64,0.14,0
0.032641,0.0067737,0.024425,-0.0014457,0.0068937,-0.00075502,0,0,0.045581,-0.021682,0,-0.0039261,0,0,0,0.024447,-0.0014677,0.0068937,-1.6703,0.0099576,0.022908,3.5168e-07,0.66,0.14,0
0.033565,0.0070038,0.02522,-0.001077,0.007243,-0.00039498,0,0,0.046741,-0.021632,0,-0.0020539,0,0,0,0.025226,-0.0010829,0.007243,-0.86032,0.010462,0.02329,3.8045e-07,0.68,0.14,0
0.034511,0.0072804,0.025988,-0.00039049,0.0076792,-0.00026632,0,0,0.047602,-0.020981,0,-0.0013849,0,0,0,0.02599,-0.00039318,0.0076792,-0.5784,0.011092,0.023415,4.0492e-07,0.7,0.14,0
0.035469,0.0075698,0.026545,-0.00014578,0.0079198,-0.0001194,0,0,0.048426,-0.02097,0,-0.00062091,0,0,0,0.026546,-0.00014631,0.0079198,-0.25631,0.01144,0.023711,4.2714e-07,0.72,0.14,0
0.036448,0.0078552,0.027149,0.00019456,0.008203,-3.3023e-05,0,0,0.049259,-0.020822,0,-0.00017172,0,0,0,0.027149,0.00019452,0.008203,-0.070197,0.011849,0.023975,4.5073e-07,0.74,0.14,0
0.037439,0.0081321,0.027571,0.00043199,0.0084008,1.7935e-05,0,0,0.049842,-0.020719,0,9.3261e-05,0,0,0,0.027571,0.00043198,0.0084008,0.037864,0.012134,0.024161,4.6765e-07,0.76,0.14,0
0.038442,0.0083922,0.027915,0.00060625,0.0085564,3.583e-07,0,0,0.050333,-0.02067,0,1.8632e-06,0,0,0,0.027915,0.00060625,0.0085564,0.00075174,0.012359,0.024328,4.8207e-07,0.78,0.14,0
0.039453,0.0086299,0.028196,0.00067968,0.0086628,-6.0329e-05,0,0,0.050787,-0.020756,0,-0.00031371,0,0,0,0.028196,0.00067955,0.0086628,-0.12562,0.012513,0.02452,4.9543e-07,0.8,0.14,0
0.040473,0.0088414,0.028445,0.00066468,0.0087328,-0.0001399,0,0,0.051251,-0.020977,0,-0.00072748,0,0,0,0.028445,0.00066398,0.0087328,-0.28853,0.012614,0.024754,5.0912e-07,0.82,0.14,0
0.041503,0.0090253,0.028667,0.00058012,0.0087741,-0.00021267,0,0,0.051721,-0.021304,0,-0.0011059,0,0,0,0.028668,0.00057851,0.0087741,-0.43381,0.012674,0.02502,5.2308e-07,0.84,0.14,0
0.042542,0.009182,0.028865,0.0004549,0.0087958,-0.00026384,0,0,0.052179,-0.021687,0,-0.001372,0,0,0,0.028867,0.00045245,0.0087958,-0.53204,0.012705,0.025297,5.3676e-07,0.86,0.14,0
0.04359,0.009313,0.029036,0.00031353,0.0088047,-0.00028738,0,0,0.0526,-0.022077,0,-0.0014944,0,0,0,0.029038,0.00031065,0.0088047,-0.57321,0.012718,0.025562,5.4942e-07,0.88,0.14,0
0.044646,0.0094199,0.029178,0.00017448,0.0088058,-0.00028361,0,0,0.052968,-0.022441,0,-0.0014748,0,0,0,0.029181,0.00017171,0.0088058,-0.56019,0.012719,0.025799,5.605e-07,0.9,0.14,0
0.045709,0.0095046,0.029292,4.9986e-05,0.0088025,-0.00025587,0,0,0.053272,-0.022757,0,-0.0013305,0,0,0,0.029294,4.7747e-05,0.0088025,-0.5013,0.012715,0.025999,5.6967e-07,0.92,0.14,0
0.046777,0.0095688,0.029378,-5.2293e-05,0.0087977,-0.00020875,0,0,0.053508,-0.02301,0,-0.0010855,0,0,0,0.029379,-5.3773e-05,0.0087977,-0.40637,0.012708,0.026156,5.7679e-07,0.94,0.14,0
0.047849,0.0096136,0.029438,-0.00012777,0.008793,-0.00014714,0,0,0.053676,-0.023194,0,-0.00076512,0,0,0,0.029438,-0.0001285,0.008793,-0.28514,0.012701,0.026268,5.8185e-07,0.96,0.14,0
0.048924,0.0096402,0.029473,-0.00017389,0.0087897,-7.5949e-05,0,0,0.053776,-0.023305,0,-0.00039494,0,0,0,0.029473,-0.00017408,0.0087897,-0.14678,0.012696,0.026335,5.8486e-07,0.98,0.14,0
0.05,0.009649,0.029485,-0.00018938,0.0087885,8.4436e-05,0,0,0.05381,-0.023343,0,0.00043907,0,0,0,0.029485,-0.00018962,0.0087885,0.16303,0.012694,0.026358,5.8588e-07,1,0.14,0
0,0,0.029762,0.012755,0.012755,0.0063764,0,0,0.044218,-4.3368e-19,0,0.033157,0,0,0,0.031887,0.01063,0.012755,18.432,0.018424,0.020278,4.1245e-07,0,0.16,0
0.00088436,0.00066314,0.029642,0.011262,0.012271,0.0063415,0,0,0.045164,-0.0026242,0,0.032976,0,0,0,0.031617,0.0092861,0.012271,17.304,0.017725,0.020998,4.4332e-07,0.02,0.16,0
0.0018066,0.001327,0.030108,0.0099119,0.012006,0.0062416,0,0,0.047066,-0.0054449,0,0.032457,0,0,0,0.031882,0.0081387,0.012006,15.86,0.017342,0.022065,4.9509e-07,0.04,0.16,0
0.002767,0.0019823,0.030539,0.008537,0.011723,0.0060212,0,0,0.048923,-0.0082835,0,0.03131,0,0,0,0.032079,0.006997,0.011723,14.346,0.016933,0.023085,5.4367e-07,0.06,0.16,0
0.0037635,0.0026185,0.030903,0.0072216,0.011437,0.0056859,0,0,0.050611,-0.010961,0,0.029567,0,0,0,0.032198,0.0059272,0.011437,12.825,0.016521,0.023995,5.8535e-07,0.08,0.16,0
0.0047915,0.0032255,0.031179,0.0060287,0.011162,0.0052642,0,0,0.052043,-0.013347,0,0.027374,0,0,0,0.032236,0.0049714,0.011162,11.358,0.016123,0.024757,6.1809e-07,0.1,0.16,0
0.0058452,0.0037954,0.031358,0.0049918,0.010905,0.004794,0,0,0.053177,-0.015374,0,0.024929,0,0,0,0.032202,0.0041472,0.010905,9.9919,0.015751,0.025361,6.415e-07,0.12,0.16,0
0.0069185,0.0043226,0.031445,0.0041195,0.010669,0.0043109,0,0,0.054016,-0.017029,0,0.022417,0,0,0,0.032109,0.0034555,0.010669,8.7559,0.015411,0.025814,6.5635e-07,0.14,0.16,0
0.0080058,0.0048039,0.031453,0.0034044,0.010457,0.003842,0,0,0.054588,-0.018337,0,0.019978,0,0,0,0.031969,0.0028877,0.010457,7.6603,0.015105,0.026132,6.6394e-07,0.16,0.16,0
0.0091021,0.0052379,0.031397,0.0028319,0.010268,0.0034043,0,0,0.054933,-0.019335,0,0.017702,0,0,0,0.031797,0.0024318,0.010268,6.7033,0.014832,0.026336,6.6568e-07,0.18,0.16,0
0.010203,0.0056244,0.031291,0.0023852,0.010103,0.0030062,0,0,0.05509,-0.020066,0,0.015632,0,0,0,0.031601,0.0020759,0.010103,5.8749,0.014593,0.026441,6.6279e-07,0.2,0.16,0
0.011306,0.0059638,0.031148,0.0020484,0.0099589,0.0026496,0,0,0.055092,-0.020567,0,0.013778,0,0,0,0.031387,0.0018091,0.0099589,5.1604,0.014385,0.026462,6.562e-07,0.22,0.16,0
0.012407,0.0062568,0.030974,0.0018073,0.0098344,0.0023321,0,0,0.054963,-0.020871,0,0.012127,0,0,0,0.031159,0.001622,0.0098344,4.5428,0.014205,0.026407,6.4653e-07,0.24,0.16,0
0.013504,0.0065041,0.030773,0.001649,0.0097266,0.0020482,0,0,0.054721,-0.021002,0,0.010651,0,0,0,0.030916,0.0015057,0.0097266,4.0031,0.01405,0.026283,6.3417e-07,0.26,0.16,0
0.014596,0.0067062,0.030546,0.0015611,0.0096322,0.0017903,0,0,0.054377,-0.020985,0,0.0093096,0,0,0,0.030656,0.0014509,0.0096322,3.5211,0.013913,0.026095,6.1936e-07,0.28,0.16,0
0.015679,0.0068632,0.030293,0.0015299,0.0095469,0.0015495,0,0,0.05394,-0.020844,0,0.0080573,0,0,0,0.030376,0.0014467,0.0095469,3.0747,0.01379,0.02585,6.0231e-07,0.3,0.16,0
0.016753,0.0069748,0.030013,0.001538,0.0094654,0.0013159,0,0,0.053424,-0.020611,0,0.0068429,0,0,0,0.030074,0.0014773,0.0094654,2.6403,0.013672,0.025557,5.8342e-07,0.32,0.16,0
0.017816,0.0070402,0.02971,0.0015602,0.0093809,0.0010813,0,0,0.052855,-0.020334,0,0.0056227,0,0,0,0.029751,0.0015187,0.0093809,2.1965,0.01355,0.025237,5.6349e-07,0.34,0.16,0
0.018867,0.0070585,0.029387,0.0015581,0.0092835,0.00084313,0,0,0.052269,-0.020086,0,0.0043843,0,0,0,0.029412,0.0015326,0.0092835,1.7338,0.013409,0.024925,5.4374e-07,0.36,0.16,0
0.019907,0.0070295,0.029052,0.0014855,0.0091613,0.00061483,0,0,0.051716,-0.019957,0,0.0031971,0,0,0,0.029066,0.0014718,0.0091613,1.277,0.013233,0.024665,5.2571e-07,0.38,0.16,0
0.020936,0.006955,0.028692,0.0012871,0.0089936,0.00042656,0,0,0.051215,-0.020037,0,0.0022181,0,0,0,0.028698,0.0012804,0.0089936,0.89153,0.012991,0.02449,5.0979e-07,0.4,0.16,0
0.021956,0.0068398,0.028301,0.00096737,0.0087805,0.00033551,0,0,0.050753,-0.020314,0,0.0017446,0,0,0,0.028305,0.00096325,0.0087805,0.70314,0.012683,0.024391,4.9539e-07,0.42,0.16,0
0.022966,0.0066939,0.027763,0.00049328,0.0084768,0.00036189,0,0,0.050143,-0.020757,0,0.0018819,0,0,0,0.027767,0.00048848,0.0084768,0.7602,0.012244,0.024291,4.7669e-07,0.44,0.16,0
0.023961,0.0065255,0.027131,6.5517e-05,0.0081591,0.0005892,0,0,0.049328,-0.021043,0,0.0030638,0,0,0,0.027144,5.2697e-05,0.0081591,1.2465,0.011785,0.024084,4.5308e-07,0.46,0.16,0
0.024939,0.0063535,0.025684,-0.00079042,0.0074682,0.00081792,0,0,0.047362,-0.021472,0,0.0042532,0,0,0,0.02571,-0.00081567,0.0074682,1.7678,0.010787,0.023505,3.9848e-07,0.48,0.16,0
0.025856,0.0061652,0.024453,-0.0012544,0.0069595,0.0016233,0,0,0.045482,-0.021356,0,0.008441,0,0,0,0.024555,-0.0013565,0.0069595,3.5989,0.010053,0.022915,3.5484e-07,0.5,0.16,0
0.026759,0.006033,0.023398,-0.00080264,0.0067787,0.0013088,0,0,0.043211,-0.019711,0,0.006806,0,0,0,0.023469,-0.00087321,0.0067787,3.0867,0.0097915,0.02156,3.047e-07,0.52,0.16,0
0.027584,0.0060036,0.022024,-0.00037611,0.0064942,0.00097869,0,0,0.040376,-0.017863,0,0.0050892,0,0,0,0.022066,-0.00041879,0.0064942,2.497,0.0093805,0.019948,2.4878e-07,0.54,0.16,0
0.028374,0.0060077,0.021444,-0.00015924,0.0063855,0.0004483,0,0,0.039153,-0.017016,0,0.0023312,0,0,0,0.021454,-0.00016854,0.0063855,1.1883,0.0092236,0.019203,2.2603e-07,0.56,0.16,0
0.02915,0.0060321,0.021273,-5.2022e-05,0.0063664,-4.6723e-05,0,0,0.038758,-0.016688,0,-0.00024296,0,0,0,0.021274,-5.2125e-05,0.0063664,-0.12553,0.0091959,0.01895,2.1913e-07,0.58,0.16,0
0.029924,0.0060745,0.021277,-8.1083e-05,0.0063587,-0.00051715,0,0,0.038787,-0.016744,0,-0.0026892,0,0,0,0.021289,-9.3598e-05,0.0063587,-1.3863,0.0091848,0.018997,2.2007e-07,0.6,0.16,0
0.030702,0.0061354,0.021456,-0.00024828,0.0063623,-0.0010006,0,0,0.039243,-0.017187,0,-0.0052029,0,0,0,0.021502,-0.00029431,0.0063623,-2.6339,0.00919,0.019347,2.2894e-07,0.62,0.16,0
0.031494,0.0062189,0.022049,-0.00052988,0.0064557,-0.0015035,0,0,0.040542,-0.018162,0,-0.0078181,0,0,0,0.022148,-0.00062956,0.0064557,-3.7929,0.0093249,0.02019,2.5395e-07,0.64,0.16,0
0.032323,0.0063401,0.023423,-0.0010383,0.0067155,-0.0017851,0,0,0.04344,-0.02016,0,-0.0092825,0,0,0,0.023553,-0.0011679,0.0067155,-4.1519,0.0097002,0.021872,3.1156e-07,0.66,0.16,0
0.033231,0.0065702,0.02448,-0.0015222,0.0068872,-0.0020343,0,0,0.04574,-0.021864,0,-0.010578,0,0,0,0.024638,-0.0016804,0.0068872,-4.4466,0.0099482,0.02325,3.6254e-07,0.68,0.16,0
0.034153,0.0068618,0.025692,-0.0011405,0.0073653,-0.0011485,0,0,0.047648,-0.022115,0,-0.0059721,0,0,0,0.025741,-0.0011896,0.0073653,-2.4464,0.010639,0.023834,4.0544e-07,0.7,0.16,0
0.035137,0.0071446,0.027114,-0.00036008,0.0080263,-0.00082579,0,0,0.049629,-0.021805,0,-0.0042941,0,0,0,0.027139,-0.00038488,0.0080263,-1.72,0.011594,0.02443,4.6058e-07,0.72,0.16,0
0.036138,0.0074343,0.027701,-1e-05,0.0083073,-0.00048672,0,0,0.050424,-0.021625,0,-0.0025309,0,0,0,0.02771,-1.8546e-05,0.0083073,-1.0059,0.011999,0.024644,4.8334e-07,0.74,0.16,0
0.037154,0.0077136,0.028186,0.00039053,0.0085729,-0.00033422,0,0,0.050994,-0.021274,0,-0.0017379,0,0,0,0.02819,0.00038651,0.0085729,-0.6888,0.012383,0.024747,5.0096e-07,0.76,0.16,0
0.038178,0.0079757,0.028515,0.00063761,0.0087457,-0.00028603,0,0,0.0514,-0.021081,0,-0.0014874,0,0,0,0.028518,0.00063468,0.0087457,-0.5878,0.012633,0.024841,5.1366e-07,0.78,0.16,0
0.03921,0.0082121,0.028805,0.0007576,0.0088689,-0.00032165,0,0,0.051835,-0.021089,0,-0.0016726,0,0,0,0.028809,0.00075391,0.0088689,-0.65696,0.012811,0.025005,5.2717e-07,0.8,0.16,0
0.040251,0.008419,0.029063,0.00073941,0.0089406,-0.00038188,0,0,0.052318,-0.021323,0,-0.0019858,0,0,0,0.029068,0.00073427,0.0089406,-0.77233,0.012914,0.025251,5.4208e-07,0.82,0.16,0
0.041303,0.0085958,0.029302,0.00063154,0.00898,-0.00043256,0,0,0.052836,-0.021706,0,-0.0022493,0,0,0,0.029308,0.00062501,0.00898,-0.8642,0.012971,0.025552,5.5816e-07,0.84,0.16,0
0.042365,0.0087442,0.029515,0.00047528,0.0089971,-0.00045543,0,0,0.053347,-0.022157,0,-0.0023683,0,0,0,0.029522,0.00046814,0.0089971,-0.89828,0.012996,0.025867,5.7402e-07,0.86,0.16,0
0.043437,0.0088666,0.029698,0.0003046,0.0090008,-0.00044755,0,0,0.053813,-0.02261,0,-0.0023273,0,0,0,0.029705,0.00029779,0.0090008,-0.87213,0.013001,0.026165,5.8857e-07,0.88,0.16,0
0.044517,0.0089657,0.029848,0.00014051,0.0089966,-0.00041223,0,0,0.054214,-0.023026,0,-0.0021436,0,0,0,0.029854,0.00013479,0.0089966,-0.79484,0.012995,0.026427,6.0108e-07,0.9,0.16,0
0.045605,0.0090436,0.029966,-4.1735e-06,0.0089885,-0.00035466,0,0,0.054541,-0.023381,0,-0.0018442,0,0,0,0.02997,-8.3699e-06,0.0089885,-0.6779,0.012983,0.026645,6.1128e-07,0.92,0.16,0
0.046699,0.0091024,0.030054,-0.00012179,0.0089795,-0.00028007,0,0,0.054792,-0.023663,0,-0.0014564,0,0,0,0.030056,-0.00012439,0.0089795,-0.53173,0.01297,0.026814,6.191e-07,0.94,0.16,0
0.047797,0.0091433,0.030114,-0.00020798,0.0089717,-0.00019325,0,0,0.054969,-0.023867,0,-0.0010049,0,0,0,0.030115,-0.00020921,0.0089717,-0.36515,0.012959,0.026934,6.2459e-07,0.96,0.16,0
0.048898,0.0091675,0.030149,-0.00026042,0.0089666,-9.8553e-05,0,0,0.055074,-0.02399,0,-0.00051248,0,0,0,0.030149,-0.00026074,0.0089666,-0.18569,0.012952,0.027006,6.2784e-07,0.98,0.16,0
0.05,0.0091755,0.03016,-0.000278,0.0089647,7.6819e-05,0,0,0.055109,-0.024031,0,0.00039946,0,0,0,0.030161,-0.00027819,0.0089647,0.1446,0.012949,0.02703,6.2894e-07,1,0.16,0
0,0,0.029679,0.012719,0.012719,0.0058871,0,0,0.044094,3.2526e-19,0,0.030613,0,0,0,0.031522,0.010876,0.012719,17.385,0.018373,0.019789,3.8637e-07,0,0.18,0
0.00088188,0.00061226,0.029563,0.011301,0.012259,0.0058609,0,0,0.044989,-0.0024912,0,0.030477,0,0,0,0.031282,0.0095817,0.012259,16.348,0.017708,0.020493,4.1669e-07,0.02,0.18,0
0.0017996,0.0012221,0.030017,0.010057,0.012022,0.0057757,0,0,0.046786,-0.0051091,0,0.030034,0,0,0,0.031567,0.0085063,0.012022,15.03,0.017365,0.02152,4.6612e-07,0.04,0.18,0
0.0027533,0.0018231,0.030446,0.0087968,0.011773,0.0056043,0,0,0.048549,-0.0077373,0,0.029142,0,0,0,0.03181,0.0074321,0.011773,13.686,0.017005,0.022524,5.1418e-07,0.06,0.18,0
0.0037415,0.0024075,0.030826,0.0075781,0.011521,0.0053453,0,0,0.050193,-0.010252,0,0.027795,0,0,0,0.031996,0.006408,0.011521,12.348,0.016642,0.023453,5.5789e-07,0.08,0.18,0
0.004761,0.0029676,0.031141,0.0064489,0.011277,0.0050139,0,0,0.051646,-0.012553,0,0.026072,0,0,0,0.03212,0.0054696,0.011277,11.052,0.016289,0.024274,5.9523e-07,0.1,0.18,0
0.0058074,0.0034968,0.03138,0.0054406,0.011046,0.0046347,0,0,0.052868,-0.014575,0,0.0241,0,0,0,0.032183,0.0046374,0.011046,9.8321,0.015956,0.024966,6.2521e-07,0.12,0.18,0
0.0068757,0.0039901,0.031543,0.0045677,0.010833,0.0042335,0,0,0.053845,-0.01629,0,0.022014,0,0,0,0.032192,0.0039188,0.010833,8.713,0.015648,0.025528,6.4779e-07,0.14,0.18,0
0.0079612,0.004444,0.031635,0.0038316,0.01064,0.003833,0,0,0.054587,-0.017702,0,0.019932,0,0,0,0.032154,0.0033129,0.01064,7.7073,0.015369,0.025965,6.6351e-07,0.16,0.18,0
0.0090592,0.0048566,0.031666,0.0032262,0.010468,0.0034499,0,0,0.055116,-0.018828,0,0.01794,0,0,0,0.032079,0.0028137,0.010468,6.8186,0.01512,0.026287,6.732e-07,0.18,0.18,0
0.010166,0.005227,0.031645,0.0027414,0.010316,0.0030948,0,0,0.055456,-0.019694,0,0.016093,0,0,0,0.031973,0.0024138,0.010316,6.0436,0.014901,0.026507,6.7769e-07,0.2,0.18,0
0.011277,0.005555,0.031581,0.0023661,0.010184,0.0027729,0,0,0.055632,-0.020327,0,0.014419,0,0,0,0.031842,0.0021052,0.010184,5.3741,0.01471,0.026633,6.7773e-07,0.22,0.18,0
0.012391,0.0058407,0.03148,0.0020893,0.010071,0.0024851,0,0,0.055664,-0.020752,0,0.012922,0,0,0,0.031689,0.0018807,0.010071,4.7991,0.014547,0.026673,6.7383e-07,0.24,0.18,0
0.013504,0.0060843,0.031345,0.0019007,0.0099737,0.0022292,0,0,0.055566,-0.02099,0,0.011592,0,0,0,0.031513,0.0017328,0.0099737,4.305,0.014406,0.026634,6.6634e-07,0.26,0.18,0
0.014614,0.006286,0.031177,0.0017895,0.0098898,0.0020001,0,0,0.055346,-0.021061,0,0.010401,0,0,0,0.031312,0.001654,0.0098898,3.8758,0.014285,0.026517,6.5546e-07,0.28,0.18,0
0.015718,0.0064453,0.030973,0.001744,0.009815,0.0017905,0,0,0.05501,-0.020985,0,0.0093104,0,0,0,0.031082,0.0016347,0.009815,3.4923,0.014177,0.026328,6.4131e-07,0.3,0.18,0
0.016814,0.0065613,0.030732,0.0017482,0.009744,0.0015898,0,0,0.054568,-0.020789,0,0.0082671,0,0,0,0.030819,0.0016613,0.009744,3.1303,0.014075,0.026073,6.2412e-07,0.32,0.18,0
0.017901,0.0066323,0.030455,0.0017784,0.0096702,0.0013855,0,0,0.054042,-0.020519,0,0.0072046,0,0,0,0.030522,0.0017116,0.0096702,2.7596,0.013968,0.02577,6.0462e-07,0.34,0.18,0
0.018976,0.0066556,0.030157,0.0017937,0.0095852,0.0011677,0,0,0.053486,-0.020258,0,0.0060719,0,0,0,0.030205,0.0017457,0.0095852,2.3535,0.013845,0.025461,5.8468e-07,0.36,0.18,0
0.02004,0.0066288,0.029845,0.0017151,0.0094679,0.00094109,0,0,0.05298,-0.020157,0,0.0048937,0,0,0,0.029876,0.0016836,0.0094679,1.914,0.013676,0.025218,5.6684e-07,0.38,0.18,0
0.021095,0.0065513,0.029549,0.0014745,0.0093069,0.00075705,0,0,0.052628,-0.020364,0,0.0039367,0,0,0,0.029569,0.0014541,0.0093069,1.5435,0.013443,0.025126,5.5449e-07,0.4,0.18,0
0.022145,0.0064286,0.029192,0.00096628,0.0090475,0.00067587,0,0,0.052376,-0.021011,0,0.0035145,0,0,0,0.029208,0.00095011,0.0090475,1.3709,0.013069,0.025205,5.4531e-07,0.42,0.18,0
0.02319,0.0062691,0.028902,0.00041324,0.0087945,0.00084627,0,0,0.052279,-0.021791,0,0.0044006,0,0,0,0.028927,0.00038812,0.0087945,1.7,0.012703,0.025401,5.4147e-07,0.44,0.18,0
0.024236,0.0060954,0.028169,-0.00049749,0.0083016,0.0011351,0,0,0.051656,-0.022877,0,0.0059023,0,0,0,0.028214,-0.00054236,0.0083016,2.2639,0.011991,0.025511,5.2017e-07,0.46,0.18,0
0.025256,0.005902,0.028359,-0.00076366,0.0082786,0.0020577,0,0,0.052209,-0.02351,0,0.0107,0,0,0,0.028504,-0.00090833,0.0082786,4.0217,0.011958,0.026062,5.4308e-07,0.48,0.18,0
0.026325,0.0057355,0.031392,-0.0015396,0.0089557,0.0022073,0,0,0.040965,-0.018662,0,0.0087188,0,0,0,0.031549,-0.0016965,0.0089557,4.0268,0.012936,0.029408,8.2511e-07,0.5,0.18,0
0.027019,0.0056704,0.028376,-0.0003953,0.0083941,0.0016399,0,0,0.034635,-0.015959,0,0.007145,0,0,0,0.028511,-0.00053008,0.0083941,3.8973,0.012125,0.025779,7.0995e-07,0.52,0.18,0
0.02771,0.0056748,0.02863,-1.2257e-05,0.0085853,0.0010697,0,0,0.034744,-0.015286,0,0.0044845,0,0,0,0.028682,-6.4805e-05,0.0085853,2.527,0.012401,0.025549,7.1504e-07,0.54,0.18,0
0.028409,0.0056912,0.029021,0.00026847,0.0087867,0.00043795,0,0,0.035072,-0.01503,0,0.0018648,0,0,0,0.02903,0.00025917,0.0087867,1.0562,0.012692,0.025597,7.3403e-07,0.56,0.18,0
0.029113,0.0057199,0.029193,0.00036254,0.0088666,-5.6078e-05,0,0,0.035232,-0.014958,0,-0.00017593,0,0,0,0.029193,0.00036242,0.0088666,-0.10085,0.012807,0.025659,7.439e-07,0.58,0.18,0
0.029819,0.0057611,0.029198,0.00033044,0.0088587,-0.00051183,0,0,0.035256,-0.015004,0,-0.0020533,0,0,0,0.029209,0.00031969,0.0088587,-1.1633,0.012796,0.025708,7.4594e-07,0.6,0.18,0
0.030523,0.0058153,0.02904,0.00017056,0.0087631,-0.00099599,0,0,0.035146,-0.015172,0,-0.0040561,0,0,0,0.029082,0.00012852,0.0087631,-2.2852,0.012658,0.025748,7.4037e-07,0.62,0.18,0
0.031224,0.0058838,0.028674,-0.0001814,0.0085477,-0.0016084,0,0,0.034885,-0.015537,0,-0.0065994,0,0,0,0.028784,-0.00029201,0.0085477,-3.6771,0.012347,0.025822,7.2657e-07,0.64,0.18,0
0.031919,0.0059673,0.028489,-0.000632,0.0083571,-0.0021253,0,0,0.034895,-0.016346,0,-0.0090534,0,0,0,0.028696,-0.00083913,0.0083571,-4.8583,0.012071,0.026194,7.2892e-07,0.66,0.18,0
0.03262,0.0061293,0.031516,-0.0019531,0.008869,-0.002641,0,0,0.041344,-0.019228,0,-0.010309,0,0,0,0.031733,-0.0021702,0.008869,-4.696,0.012811,0.029955,8.4953e-07,0.68,0.18,0
0.033698,0.0063958,0.028404,-0.0011798,0.0081674,-0.0023422,0,0,0.052616,-0.024303,0,-0.01218,0,0,0,0.028589,-0.001364,0.0081674,-4.4989,0.011797,0.026505,5.5622e-07,0.7,0.18,0
0.034725,0.0066976,0.028133,-0.0010233,0.0081328,-0.0013239,0,0,0.052,-0.023806,0,-0.0068842,0,0,0,0.028193,-0.0010833,0.0081328,-2.5945,0.011747,0.025927,5.2882e-07,0.72,0.18,0
0.035778,0.0069902,0.028805,-0.00021162,0.008578,-0.0009189,0,0,0.05259,-0.022853,0,-0.0047783,0,0,0,0.028834,-0.00024069,0.008578,-1.812,0.012391,0.025821,5.4904e-07,0.74,0.18,0
0.036828,0.0072811,0.029037,0.0002545,0.0087874,-0.00061592,0,0,0.052649,-0.022186,0,-0.0032028,0,0,0,0.02905,0.00024132,0.0087874,-1.2253,0.012693,0.025628,5.5153e-07,0.76,0.18,0
0.037884,0.0075489,0.029331,0.00067781,0.0090026,-0.00055099,0,0,0.052853,-0.021644,0,-0.0028651,0,0,0,0.029341,0.00066722,0.0090026,-1.1012,0.013004,0.025548,5.5915e-07,0.78,0.18,0
0.038943,0.0077863,0.029562,0.00082818,0.0091171,-0.00057763,0,0,0.053157,-0.021551,0,-0.0030037,0,0,0,0.029574,0.00081657,0.0091171,-1.1512,0.013169,0.025635,5.6932e-07,0.8,0.18,0
0.04001,0.0079884,0.029807,0.0007998,0.0091821,-0.00063273,0,0,0.053625,-0.021794,0,-0.0032902,0,0,0,0.029821,0.000786,0.0091821,-1.249,0.013263,0.025879,5.8457e-07,0.82,0.18,0
0.041088,0.0081571,0.030039,0.00065336,0.0092078,-0.00066057,0,0,0.054162,-0.022242,0,-0.0034349,0,0,0,0.030054,0.00063852,0.0092078,-1.2871,0.0133,0.026204,6.0192e-07,0.84,0.18,0
0.042176,0.0082958,0.030249,0.00046199,0.0092134,-0.00065054,0,0,0.054694,-0.022754,0,-0.0033828,0,0,0,0.030264,0.00044779,0.0092134,-1.2505,0.013308,0.026542,6.1911e-07,0.86,0.18,0
0.043275,0.0084086,0.030426,0.00026265,0.0092065,-0.00060685,0,0,0.05517,-0.023254,0,-0.0031556,0,0,0,0.030438,0.00025044,0.0092065,-1.1521,0.013298,0.026854,6.3447e-07,0.88,0.18,0
0.044383,0.0084989,0.030566,7.5965e-05,0.0091926,-0.00053748,0,0,0.055571,-0.023703,0,-0.0027949,0,0,0,0.030575,6.6493e-05,0.0091926,-1.0096,0.013278,0.027123,6.4737e-07,0.9,0.18,0
0.045498,0.0085694,0.030673,-8.5902e-05,0.0091763,-0.00044919,0,0,0.055893,-0.024082,0,-0.0023358,0,0,0,0.03068,-9.246e-05,0.0091763,-0.83647,0.013255,0.027343,6.5768e-07,0.92,0.18,0
0.046619,0.0086222,0.030752,-0.00021602,0.0091608,-0.00034737,0,0,0.056137,-0.02438,0,-0.0018063,0,0,0,0.030756,-0.00021991,0.0091608,-0.64258,0.013232,0.027512,6.6547e-07,0.94,0.18,0
0.047744,0.008659,0.030805,-0.00031064,0.0091484,-0.00023631,0,0,0.056308,-0.024594,0,-0.0012288,0,0,0,0.030807,-0.00031244,0.0091484,-0.4351,0.013214,0.027632,6.7089e-07,0.96,0.18,0
0.048871,0.0086806,0.030836,-0.00036793,0.0091405,-0.00011953,0,0,0.056409,-0.024722,0,-0.00062153,0,0,0,0.030837,-0.00036839,0.0091405,-0.21946,0.013203,0.027703,6.7408e-07,0.98,0.18,0
0.05,0.0086877,0.030846,-0.0003871,0.0091378,6.8661e-05,0,0,0.056442,-0.024765,0,0.00035704,0,0,0,0.030846,-0.00038725,0.0091378,0.12595,0.013199,0.027727,6.7515e-07,1,0.18,0
0,0,0.029661,0.012712,0.012712,0.0054182,0,0,0.044067,-1.0842e-19,0,0.028175,0,0,0,0.031245,0.011128,0.012712,16.297,0.018361,0.019374,3.6506e-07,0,0.2,0
0.00088134,0.00056349,0.029547,0.011343,0.012267,0.0053977,0,0,0.044928,-0.0024023,0,0.028068,0,0,0,0.031027,0.0098627,0.012267,15.335,0.017719,0.02007,3.9521e-07,0.02,0.2,0
0.0017971,0.0011226,0.029991,0.010173,0.012049,0.0053231,0,0,0.046649,-0.0048782,0,0.02768,0,0,0,0.03133,0.0088338,0.012049,14.122,0.017404,0.021074,4.4318e-07,0.04,0.2,0
0.0027473,0.0016728,0.030417,0.0089971,0.011824,0.0051856,0,0,0.048341,-0.0073506,0,0.026965,0,0,0,0.031606,0.0078077,0.011824,12.918,0.017079,0.022066,4.9078e-07,0.06,0.2,0
0.0037308,0.0022084,0.030807,0.0078552,0.011599,0.0049815,0,0,0.049942,-0.0097333,0,0.025903,0,0,0,0.031842,0.0068207,0.011599,11.732,0.016754,0.023007,5.3568e-07,0.08,0.2,0
0.004745,0.0027234,0.031148,0.0067833,0.011379,0.0047183,0,0,0.051399,-0.01195,0,0.024535,0,0,0,0.03203,0.0059015,0.011379,10.586,0.016437,0.023866,5.7607e-07,0.1,0.2,0
0.0057867,0.0032124,0.03143,0.0058081,0.011171,0.0044117,0,0,0.052673,-0.013945,0,0.022941,0,0,0,0.032169,0.0050697,0.011171,9.501,0.016137,0.024622,6.108e-07,0.12,0.2,0
0.0068519,0.003671,0.03165,0.0049452,0.010979,0.0040805,0,0,0.053747,-0.015687,0,0.021218,0,0,0,0.03226,0.0043357,0.010979,8.4964,0.015858,0.025267,6.394e-07,0.14,0.2,0
0.0079366,0.0040958,0.031811,0.0042008,0.010804,0.0037426,0,0,0.054619,-0.017167,0,0.019461,0,0,0,0.032309,0.0037025,0.010804,7.5843,0.015605,0.0258,6.6191e-07,0.16,0.2,0
0.0090367,0.0044848,0.031916,0.0035742,0.010647,0.003413,0,0,0.055299,-0.018389,0,0.017748,0,0,0,0.032321,0.003169,0.010647,6.7709,0.015379,0.026225,6.7872e-07,0.18,0.2,0
0.010148,0.0048367,0.031972,0.0030605,0.01051,0.0031029,0,0,0.055802,-0.019368,0,0.016135,0,0,0,0.032302,0.0027312,0.01051,6.0572,0.015181,0.02655,6.9033e-07,0.2,0.2,0
0.011269,0.0051507,0.031986,0.0026528,0.010392,0.0028191,0,0,0.056146,-0.020121,0,0.014659,0,0,0,0.032255,0.0023843,0.010392,5.44,0.01501,0.02678,6.9724e-07,0.22,0.2,0
0.012394,0.0054267,0.031963,0.0023435,0.010292,0.0025651,0,0,0.056344,-0.020666,0,0.013338,0,0,0,0.032183,0.002123,0.010292,4.9132,0.014866,0.026922,6.9988e-07,0.24,0.2,0
0.013522,0.0056645,0.031904,0.0021248,0.010209,0.0023413,0,0,0.056408,-0.021018,0,0.012175,0,0,0,0.032087,0.0019418,0.010209,4.4681,0.014746,0.026979,6.9851e-07,0.26,0.2,0
0.014651,0.0058637,0.031811,0.0019885,0.01014,0.0021454,0,0,0.056345,-0.021193,0,0.011156,0,0,0,0.031964,0.0018349,0.01014,4.0937,0.014646,0.026954,6.9327e-07,0.28,0.2,0
0.015776,0.0060238,0.03168,0.0019251,0.010082,0.001972,0,0,0.056157,-0.021207,0,0.010254,0,0,0,0.031811,0.001795,0.010082,3.7752,0.014562,0.026849,6.8416e-07,0.3,0.2,0
0.016897,0.0061433,0.031508,0.0019218,0.010029,0.001812,0,0,0.055846,-0.021079,0,0.0094223,0,0,0,0.031619,0.0018113,0.010029,3.4916,0.014486,0.026666,6.7113e-07,0.32,0.2,0
0.01801,0.0062195,0.03129,0.0019588,0.0099746,0.0016502,0,0,0.055419,-0.020841,0,0.008581,0,0,0,0.031382,0.0018663,0.0099746,3.21,0.014408,0.026412,6.5436e-07,0.34,0.2,0
0.019114,0.0062482,0.031035,0.0020025,0.0099111,0.0014631,0,0,0.054921,-0.020563,0,0.0076082,0,0,0,0.031108,0.0019289,0.0099111,2.8778,0.014316,0.02612,6.353e-07,0.36,0.2,0
0.020207,0.0062232,0.030793,0.0019779,0.0098313,0.0012381,0,0,0.054501,-0.020419,0,0.0064384,0,0,0,0.030846,0.0019248,0.0098313,2.4559,0.014201,0.02589,6.1906e-07,0.38,0.2,0
0.021294,0.0061404,0.030537,0.0016585,0.0096588,0.0010007,0,0,0.054284,-0.0208,0,0.0052036,0,0,0,0.030572,0.0016239,0.0096588,1.9822,0.013952,0.025884,6.0984e-07,0.4,0.2,0
0.022378,0.0059994,0.030428,0.0010727,0.0094502,0.00093828,0,0,0.054542,-0.021781,0,0.0048791,0,0,0,0.030458,0.0010428,0.0094502,1.8289,0.01365,0.026242,6.171e-07,0.42,0.2,0
0.023475,0.0058223,0.029991,-8.7178e-05,0.0089711,0.0010201,0,0,0.054651,-0.023552,0,0.0053045,0,0,0,0.030025,-0.00012173,0.0089711,1.9402,0.012958,0.026784,6.1715e-07,0.44,0.2,0
0.024564,0.0056104,0.030694,-0.00055166,0.0090429,0.0017479,0,0,0.056294,-0.024946,0,0.0090889,0,0,0,0.030792,-0.00064913,0.0090429,3.1918,0.013062,0.027888,6.7743e-07,0.46,0.2,0
0.025727,0.0054131,0.035129,-0.00068759,0.010332,0.0016225,0,0,0.045147,-0.019865,0,0.0067756,0,0,0,0.035216,-0.00077429,0.010332,2.8182,0.014925,0.031921,1.1299e-06,0.48,0.2,0
0.0265,0.0053905,0.028334,-0.0010303,0.0081911,0.00079992,0,0,0.035848,-0.016301,0,0.0039912,0,0,0,0.028384,-0.0010805,0.0081911,2.0467,0.011832,0.026095,6.4714e-07,0.5,0.2,0
0.027105,0.0053946,0.033922,-0.00050148,0.010026,0.00060751,0,0,0.031065,-0.013686,0,0.0015795,0,0,0,0.033933,-0.0005122,0.010026,1.0107,0.014482,0.03057,9.011e-07,0.52,0.2,0
0.027743,0.0053921,0.035741,0.00018707,0.010778,0.00027321,0,0,0.032452,-0.013769,0,0.00071035,0,0,0,0.035743,0.00018497,0.010778,0.44025,0.015569,0.031622,1.0309e-06,0.54,0.2,0
0.028403,0.0054065,0.036772,0.00051115,0.011185,7.0763e-05,0,0,0.033264,-0.013876,0,0.00018398,0,0,0,0.036773,0.00051101,0.011185,0.11181,0.016156,0.032277,1.1118e-06,0.56,0.2,0
0.029073,0.0054338,0.037162,0.00060102,0.011329,-0.00016554,0,0,0.033583,-0.013946,0,-0.00043041,0,0,0,0.037162,0.00060027,0.011329,-0.25942,0.016364,0.032552,1.1446e-06,0.58,0.2,0
0.029746,0.0054744,0.037152,0.00056108,0.011314,-0.00039683,0,0,0.03359,-0.013979,0,-0.0010318,0,0,0,0.037156,0.00055678,0.011314,-0.62128,0.016342,0.032581,1.1455e-06,0.6,0.2,0
0.030417,0.0055286,0.036741,0.0003882,0.011139,-0.00062296,0,0,0.033283,-0.013976,0,-0.0016197,0,0,0,0.036752,0.00037753,0.011139,-0.98145,0.016089,0.032365,1.1144e-06,0.62,0.2,0
0.031078,0.0055975,0.035673,-3.3218e-05,0.010692,-0.0008024,0,0,0.032475,-0.013943,0,-0.0020862,0,0,0,0.035691,-5.1241e-05,0.010692,-1.2867,0.015444,0.031764,1.0337e-06,0.64,0.2,0
0.031716,0.0056863,0.0338,-0.00084236,0.0098873,-0.0011029,0,0,0.031087,-0.013949,0,-0.0028677,0,0,0,0.033835,-0.00087744,0.0098873,-1.8217,0.014282,0.030776,9.0314e-07,0.66,0.2,0
0.032321,0.0057729,0.028217,-0.0014981,0.0080156,-0.0011704,0,0,0.035965,-0.016822,0,-0.0053196,0,0,0,0.028291,-0.0015726,0.0080156,-2.7322,0.011578,0.026409,6.4942e-07,0.68,0.2,0
0.033098,0.0058897,0.035027,-0.0013258,0.01011,-0.0019323,0,0,0.045375,-0.020606,0,-0.0078662,0,0,0,0.035141,-0.0014404,0.01011,-3.2511,0.014604,0.03239,1.1418e-06,0.7,0.2,0
0.034267,0.0061923,0.030617,-0.0011914,0.0088278,-0.0018812,0,0,0.056653,-0.02605,0,-0.0097823,0,0,0,0.030728,-0.0013023,0.0088278,-3.3729,0.012751,0.028357,6.8728e-07,0.72,0.2,0
0.035364,0.0065201,0.02986,-0.00083663,0.0087071,-0.0010402,0,0,0.054998,-0.024814,0,-0.0054092,0,0,0,0.029895,-0.00087184,0.0087071,-1.9386,0.012577,0.02727,6.2495e-07,0.74,0.2,0
0.036467,0.0068262,0.030238,0.00021586,0.0091362,-0.00081918,0,0,0.054865,-0.023193,0,-0.0042597,0,0,0,0.03026,0.00019353,0.0091362,-1.5618,0.013197,0.026742,6.2469e-07,0.76,0.2,0
0.037558,0.00711,0.030293,0.00071217,0.0093017,-0.00073343,0,0,0.054579,-0.022333,0,-0.0038138,0,0,0,0.030312,0.000694,0.0093017,-1.4194,0.013436,0.026388,6.1635e-07,0.78,0.2,0
0.03865,0.00735,0.030492,0.00093075,0.0094269,-0.00081326,0,0,0.05477,-0.02209,0,-0.0042289,0,0,0,0.030514,0.0009084,0.0094269,-1.5747,0.013617,0.026399,6.2382e-07,0.8,0.2,0
0.039749,0.0075472,0.030683,0.00083469,0.0094552,-0.00087025,0,0,0.055191,-0.022413,0,-0.0045253,0,0,0,0.030708,0.00080934,0.0094552,-1.6686,0.013657,0.026649,6.3829e-07,0.82,0.2,0
0.040858,0.0077062,0.030892,0.00063857,0.0094592,-0.00087185,0,0,0.055726,-0.022934,0,-0.0045336,0,0,0,0.030917,0.00061346,0.0094592,-1.6493,0.013663,0.026991,6.5634e-07,0.84,0.2,0
0.041978,0.007834,0.031074,0.00041277,0.0094459,-0.00082399,0,0,0.056232,-0.023486,0,-0.0042847,0,0,0,0.031096,0.00039065,0.0094459,-1.5383,0.013644,0.027327,6.7326e-07,0.86,0.2,0
0.043107,0.0079365,0.031216,0.00018773,0.0094213,-0.00074395,0,0,0.056668,-0.024007,0,-0.0038685,0,0,0,0.031234,0.00016991,0.0094213,-1.3727,0.013609,0.027626,6.8768e-07,0.88,0.2,0
0.044245,0.0080176,0.031326,-1.7826e-05,0.0093924,-0.00064258,0,0,0.057027,-0.024466,0,-0.0033414,0,0,0,0.031339,-3.0994e-05,0.0093924,-1.174,0.013567,0.027879,6.9945e-07,0.9,0.2,0
0.045388,0.0080804,0.031407,-0.00019317,0.0093641,-0.00052686,0,0,0.057311,-0.024849,0,-0.0027397,0,0,0,0.031416,-0.00020195,0.0093641,-0.95492,0.013526,0.028084,7.0868e-07,0.92,0.2,0
0.046537,0.0081272,0.031465,-0.00033245,0.0093398,-0.00040168,0,0,0.057526,-0.025148,0,-0.0020887,0,0,0,0.03147,-0.00033752,0.0093398,-0.72364,0.013491,0.028241,7.1557e-07,0.94,0.2,0
0.04769,0.0081596,0.031504,-0.00043289,0.0093212,-0.00027058,0,0,0.057674,-0.025361,0,-0.001407,0,0,0,0.031506,-0.00043518,0.0093212,-0.48538,0.013464,0.028351,7.2031e-07,0.96,0.2,0
0.048844,0.0081786,0.031526,-0.00049339,0.0093096,-0.00013606,0,0,0.057761,-0.025488,0,-0.00070751,0,0,0,0.031526,-0.00049397,0.0093096,-0.24346,0.013447,0.028416,7.2307e-07,0.98,0.2,0
0.05,0.0081849,0.031533,-0.00051358,0.0093057,6.0378e-05,0,0,0.05779,-0.02553,0,0.00031396,0,0,0,0.031533,-0.00051369,0.0093057,0.10795,0.013442,0.028438,7.2399e-07,1,0.2,0
0,0,0.029683,0.012721,0.012721,0.0049631,0,0,0.0441,-6.5052e-19,0,0.025808,0,0,0,0.031028,0.011376,0.012721,15.169,0.018375,0.019015,3.4718e-07,0,0.22,0
0.00088199,0.00051616,0.02957,0.011386,0.012287,0.0049466,0,0,0.044936,-0.0023419,0,0.025722,0,0,0,0.030828,0.010127,0.012287,14.275,0.017747,0.01971,3.774e-07,0.02,0.22,0
0.0017974,0.0010269,0.030007,0.010269,0.012083,0.0048803,0,0,0.046604,-0.0047165,0,0.025378,0,0,0,0.031148,0.0091281,0.012083,13.156,0.017453,0.020702,4.2452e-07,0.04,0.22,0
0.0027462,0.001529,0.03043,0.0091556,0.011876,0.0047676,0,0,0.048242,-0.0070725,0,0.024791,0,0,0,0.03145,0.0081361,0.011876,12.071,0.017154,0.021687,4.7181e-07,0.06,0.22,0
0.0037271,0.0020181,0.030827,0.0080743,0.01167,0.0046035,0,0,0.049807,-0.0093498,0,0.023938,0,0,0,0.031723,0.0071782,0.01167,11.015,0.016857,0.022636,5.1747e-07,0.08,0.22,0
0.0047384,0.0024896,0.031186,0.0070516,0.011471,0.0043917,0,0,0.051258,-0.011491,0,0.022837,0,0,0,0.03196,0.0062772,0.011471,9.9991,0.01657,0.02352,5.5997e-07,0.1,0.22,0
0.0057775,0.002939,0.0315,0.0061089,0.011283,0.0041422,0,0,0.052565,-0.013452,0,0.021539,0,0,0,0.032159,0.0054502,0.011283,9.035,0.016297,0.024322,5.9819e-07,0.12,0.22,0
0.006841,0.0033626,0.031765,0.0052611,0.011108,0.0038684,0,0,0.053709,-0.015201,0,0.020116,0,0,0,0.032318,0.004708,0.011108,8.1365,0.016045,0.025031,6.3149e-07,0.14,0.22,0
0.0079258,0.0037574,0.031981,0.0045161,0.010949,0.0035844,0,0,0.054682,-0.016726,0,0.018639,0,0,0,0.032441,0.004056,0.010949,7.3145,0.015815,0.025643,6.5964e-07,0.16,0.22,0
0.0090283,0.0041211,0.03215,0.0038765,0.010808,0.0033031,0,0,0.055489,-0.018022,0,0.017176,0,0,0,0.032531,0.0034958,0.010808,6.5758,0.015611,0.026157,6.8273e-07,0.18,0.22,0
0.010145,0.0044523,0.032277,0.0033412,0.010685,0.0030351,0,0,0.056137,-0.019095,0,0.015782,0,0,0,0.032592,0.0030262,0.010685,5.9239,0.015434,0.026577,7.01e-07,0.2,0.22,0
0.011274,0.0047501,0.032366,0.0029065,0.010582,0.0027879,0,0,0.056639,-0.019955,0,0.014497,0,0,0,0.032627,0.002645,0.010582,5.3588,0.015285,0.026907,7.1479e-07,0.22,0.22,0
0.012411,0.005014,0.032421,0.002568,0.010497,0.0025664,0,0,0.057004,-0.020615,0,0.013345,0,0,0,0.032641,0.002349,0.010497,4.8779,0.015162,0.027151,7.2442e-07,0.24,0.22,0
0.013554,0.0052436,0.032447,0.0023204,0.01043,0.002373,0,0,0.057243,-0.021085,0,0.01234,0,0,0,0.032633,0.0021347,0.01043,4.4764,0.015066,0.027312,7.3013e-07,0.26,0.22,0
0.014701,0.0054383,0.032443,0.002158,0.01038,0.0022075,0,0,0.057364,-0.021378,0,0.011479,0,0,0,0.032604,0.001998,0.01038,4.1471,0.014994,0.027394,7.3207e-07,0.28,0.22,0
0.015849,0.005597,0.03241,0.0020739,0.010345,0.002067,0,0,0.057369,-0.021506,0,0.010748,0,0,0,0.032551,0.0019337,0.010345,3.88,0.014943,0.027397,7.3026e-07,0.3,0.22,0
0.016995,0.0057182,0.032343,0.0020586,0.01032,0.0019453,0,0,0.057259,-0.021481,0,0.010115,0,0,0,0.032468,0.0019341,0.01032,3.6602,0.014908,0.027323,7.2454e-07,0.32,0.22,0
0.018139,0.0057986,0.032232,0.0020973,0.010299,0.0018297,0,0,0.057027,-0.021324,0,0.0095145,0,0,0,0.032343,0.0019867,0.010299,3.4619,0.014876,0.027171,7.1451e-07,0.34,0.22,0
0.019276,0.0058331,0.032059,0.0021618,0.010266,0.0016935,0,0,0.056662,-0.021072,0,0.0088064,0,0,0,0.032155,0.0020661,0.010266,3.2317,0.014829,0.026942,6.9959e-07,0.36,0.22,0
0.020405,0.0058121,0.031862,0.0022142,0.010223,0.0014776,0,0,0.056261,-0.020822,0,0.0076835,0,0,0,0.031935,0.0021407,0.010223,2.8462,0.014766,0.026688,6.8288e-07,0.38,0.22,0
0.021527,0.0057193,0.031841,0.0020808,0.010177,0.0011929,0,0,0.056328,-0.021049,0,0.0062032,0,0,0,0.031889,0.0020331,0.010177,2.2917,0.0147,0.026731,6.828e-07,0.4,0.22,0
0.022659,0.0055574,0.031478,0.00087414,0.0097056,0.00092549,0,0,0.056608,-0.022962,0,0.0048125,0,0,0,0.031506,0.00084618,0.0097056,1.7306,0.014019,0.027329,6.8896e-07,0.42,0.22,0
0.023791,0.005327,0.032259,-6.6863e-05,0.0096577,0.0013812,0,0,0.058764,-0.025284,0,0.007182,0,0,0,0.032318,-0.00012577,0.0096577,2.4421,0.01395,0.028826,7.6947e-07,0.44,0.22,0
0.025009,0.0050976,0.036881,-0.00033432,0.010964,0.00095601,0,0,0.047204,-0.020449,0,0.0043779,0,0,0,0.036919,-0.00037229,0.010964,1.6938,0.015837,0.033113,1.2871e-06,0.46,0.22,0
0.025816,0.0050616,0.029472,-0.00056979,0.0086706,-4.3091e-05,0,0,0.037132,-0.016406,0,0.00055185,0,0,0,0.029482,-0.00058035,0.0086706,0.20389,0.012524,0.026669,7.0758e-07,0.48,0.22,0
0.02643,0.0051025,0.034335,-0.00095509,0.010014,-0.00067014,0,0,0.031617,-0.01426,0,-0.0017424,0,0,0,0.034348,-0.00096781,0.010014,-1.0875,0.014465,0.031304,9.469e-07,0.5,0.22,0
0.027081,0.0051229,0.035627,-4.96e-06,0.010687,-0.00055169,0,0,0.032422,-0.013899,0,-0.0014344,0,0,0,0.035635,-1.35e-05,0.010687,-0.88682,0.015436,0.031684,1.0277e-06,0.52,0.22,0
0.027727,0.0051241,0.03576,0.00049741,0.010877,-0.00047138,0,0,0.032348,-0.013494,0,-0.0012256,0,0,0,0.035766,0.00049111,0.010877,-0.76572,0.015712,0.031398,1.0232e-06,0.54,0.22,0
0.028375,0.0051361,0.036034,0.00066617,0.01101,-0.00033604,0,0,0.032531,-0.013447,0,-0.00087371,0,0,0,0.036037,0.00066298,0.01101,-0.54433,0.015903,0.031502,1.041e-06,0.56,0.22,0
0.029028,0.0051621,0.036238,0.00073674,0.011092,-0.00028082,0,0,0.032689,-0.013462,0,-0.00073013,0,0,0,0.03624,0.00073452,0.011092,-0.45318,0.016022,0.031626,1.0566e-06,0.58,0.22,0
0.029683,0.005202,0.036214,0.00069034,0.011071,-0.00025106,0,0,0.032686,-0.013495,0,-0.00065275,0,0,0,0.036216,0.00068856,0.011071,-0.4049,0.015992,0.031641,1.0559e-06,0.6,0.22,0
0.030335,0.0052563,0.035959,0.00052377,0.010945,-0.00018092,0,0,0.032518,-0.013547,0,-0.0004704,0,0,0,0.03596,0.00052285,0.010945,-0.29252,0.015809,0.031545,1.0389e-06,0.62,0.22,0
0.030983,0.0053261,0.035633,0.00025061,0.010765,-1.4544e-05,0,0,0.032329,-0.013669,0,-3.7814e-05,0,0,0,0.035633,0.00025061,0.010765,-0.023551,0.01555,0.031471,1.0193e-06,0.64,0.22,0
0.031628,0.0054094,0.035452,-0.00038612,0.01052,0.00011003,0,0,0.032412,-0.014178,0,0.00028607,0,0,0,0.035453,-0.00038646,0.01052,0.1759,0.015195,0.03182,1.0233e-06,0.66,0.22,0
0.03228,0.0054763,0.034094,-0.0015407,0.009766,0.00026725,0,0,0.031627,-0.014699,0,0.00069485,0,0,0,0.034096,-0.0015427,0.009766,0.42967,0.014106,0.031543,9.4144e-07,0.68,0.22,0
0.032893,0.0055245,0.029271,-0.0011778,0.0084279,-0.00022779,0,0,0.037215,-0.017051,0,-0.0015044,0,0,0,0.029282,-0.0011895,0.0084279,-0.70467,0.012174,0.026981,7.0635e-07,0.7,0.22,0
0.033703,0.0056556,0.036624,-0.0012493,0.010613,-0.0011236,0,0,0.047392,-0.021457,0,-0.0049273,0,0,0,0.036669,-0.0012941,0.010613,-1.9024,0.015329,0.03363,1.2914e-06,0.72,0.22,0
0.034927,0.0059977,0.03207,-0.00097573,0.0093283,-0.0013514,0,0,0.059129,-0.026791,0,-0.0070273,0,0,0,0.032125,-0.0010309,0.0093283,-2.3379,0.013474,0.02938,7.7769e-07,0.74,0.22,0
0.036068,0.0063534,0.031261,-0.00012598,0.0093405,-0.0007575,0,0,0.056993,-0.024613,0,-0.003939,0,0,0,0.031279,-0.00014425,0.0093405,-1.3817,0.013492,0.027917,6.9815e-07,0.76,0.22,0
0.037207,0.0066556,0.031573,0.00098115,0.0097663,-0.0008704,0,0,0.056698,-0.022841,0,-0.0045261,0,0,0,0.031598,0.00095641,0.0097663,-1.6284,0.014107,0.027323,6.9225e-07,0.78,0.22,0
0.038336,0.0069027,0.031555,0.0010152,0.0097711,-0.0010055,0,0,0.056639,-0.022766,0,-0.0052287,0,0,0,0.031588,0.00098213,0.0097711,-1.8837,0.014114,0.027294,6.9095e-07,0.8,0.22,0
0.039473,0.0070919,0.031718,0.00082714,0.0097636,-0.0010628,0,0,0.057082,-0.023235,0,-0.0055268,0,0,0,0.031755,0.00079061,0.0097636,-1.9682,0.014103,0.027595,7.0702e-07,0.82,0.22,0
0.040619,0.0072397,0.031873,0.00059076,0.0097391,-0.0010256,0,0,0.057548,-0.023786,0,-0.0053329,0,0,0,0.031906,0.00055718,0.0097391,-1.8757,0.014068,0.027915,7.2332e-07,0.84,0.22,0
0.041775,0.0073563,0.031979,0.0003339,0.0096939,-0.00094288,0,0,0.057941,-0.024336,0,-0.0049029,0,0,0,0.032007,0.00030584,0.0096939,-1.7051,0.014002,0.028205,7.3667e-07,0.86,0.22,0
0.042937,0.0074483,0.032055,8.6334e-05,0.0096425,-0.0008347,0,0,0.058273,-0.024846,0,-0.0043405,0,0,0,0.032077,6.4555e-05,0.0096425,-1.4946,0.013928,0.028459,7.4764e-07,0.88,0.22,0
0.044106,0.0075202,0.032111,-0.00013493,0.0095927,-0.00071004,0,0,0.058547,-0.025292,0,-0.0036922,0,0,0,0.032126,-0.00015055,0.0095927,-1.2608,0.013856,0.028675,7.5648e-07,0.9,0.22,0
0.045279,0.0075754,0.03215,-0.0003202,0.009549,-0.00057507,0,0,0.058763,-0.02566,0,-0.0029904,0,0,0,0.03216,-0.00033038,0.009549,-1.0143,0.013793,0.028849,7.6335e-07,0.92,0.22,0
0.046456,0.0076163,0.032177,-0.00046537,0.0095135,-0.00043425,0,0,0.058925,-0.025945,0,-0.0022581,0,0,0,0.032183,-0.00047114,0.0095135,-0.76204,0.013742,0.028982,7.6839e-07,0.94,0.22,0
0.047636,0.0076445,0.032194,-0.00056905,0.0094874,-0.00029049,0,0,0.059037,-0.026147,0,-0.0015106,0,0,0,0.032196,-0.00057162,0.0094874,-0.50796,0.013704,0.029074,7.7181e-07,0.96,0.22,0
0.048817,0.0076611,0.032203,-0.0006311,0.0094715,-0.00014546,0,0,0.059102,-0.026267,0,-0.00075639,0,0,0,0.032204,-0.00063175,0.0094715,-0.25382,0.013681,0.029129,7.7379e-07,0.98,0.22,0
0.05,0.0076665,0.032206,-0.00065175,0.0094662,5.2389e-05,0,0,0.059123,-0.026307,0,0.00027242,0,0,0,0.032206,-0.00065184,0.0094662,0.091353,0.013673,0.029147,7.7444e-07,1,0.22,0
0,0,0.029726,0.01274,0.01274,0.0045175,0,0,0.044165,-1.0842e-19,0,0.023491,0,0,0,0.030853,0.011613,0.01274,14.004,0.018402,0.018702,3.3184e-07,0,0.24,0
0.00088329,0.00046982,0.029614,0.011428,0.012313,0.0045038,0,0,0.044983,-0.0022995,0,0.02342,0,0,0,0.030668,0.010374,0.012313,13.175,0.017785,0.019398,3.6227e-07,0.02,0.24,0
0.0017993,0.00093396,0.030047,0.01035,0.012119,0.0044449,0,0,0.046612,-0.0046,0,0.023114,0,0,0,0.031003,0.0093932,0.012119,12.146,0.017505,0.020384,4.0893e-07,0.04,0.24,0
0.0027478,0.0013899,0.030468,0.0092842,0.011926,0.0043507,0,0,0.04821,-0.0068676,0,0.022624,0,0,0,0.031326,0.0084254,0.011926,11.165,0.017226,0.021367,4.5603e-07,0.06,0.24,0
0.0037277,0.0018344,0.030868,0.0082508,0.011736,0.0042163,0,0,0.049745,-0.0090608,0,0.021925,0,0,0,0.031629,0.0074904,0.011736,10.223,0.016952,0.022321,5.022e-07,0.08,0.24,0
0.0047376,0.0022637,0.031241,0.0072693,0.011553,0.0040431,0,0,0.051188,-0.011138,0,0.021024,0,0,0,0.031904,0.0066057,0.011553,9.3202,0.016688,0.023224,5.4618e-07,0.1,0.24,0
0.0057753,0.0026743,0.031579,0.0063565,0.011381,0.0038375,0,0,0.052516,-0.013063,0,0.019955,0,0,0,0.03215,0.0057856,0.011381,8.4624,0.016439,0.02406,5.8699e-07,0.12,0.24,0
0.0068382,0.0030629,0.031879,0.0055255,0.011221,0.0036094,0,0,0.053711,-0.014809,0,0.018769,0,0,0,0.032365,0.0050401,0.011221,7.6594,0.016209,0.024818,6.2397e-07,0.14,0.24,0
0.0079237,0.0034268,0.032141,0.0047844,0.011078,0.0033697,0,0,0.054765,-0.016362,0,0.017523,0,0,0,0.03255,0.0043755,0.011078,6.9198,0.016001,0.025493,6.5676e-07,0.16,0.24,0
0.0090288,0.003764,0.032365,0.0041377,0.010951,0.0031292,0,0,0.055677,-0.017714,0,0.016272,0,0,0,0.032708,0.003795,0.010951,6.2505,0.015818,0.026082,6.8527e-07,0.18,0.24,0
0.010151,0.0040729,0.032555,0.0035864,0.010842,0.0028972,0,0,0.056453,-0.018866,0,0.015066,0,0,0,0.032842,0.0032995,0.010842,5.6557,0.015661,0.026586,7.0961e-07,0.2,0.24,0
0.011287,0.0043525,0.032714,0.0031298,0.010753,0.0026814,0,0,0.057099,-0.019821,0,0.013943,0,0,0,0.032955,0.0028888,0.010753,5.1373,0.015532,0.027007,7.2999e-07,0.22,0.24,0
0.012435,0.0046021,0.032848,0.0027658,0.010684,0.0024872,0,0,0.057626,-0.020588,0,0.012933,0,0,0,0.033052,0.0025616,0.010684,4.6947,0.015433,0.027349,7.4666e-07,0.24,0.24,0
0.013592,0.0048211,0.03296,0.0024917,0.010635,0.0023175,0,0,0.058043,-0.021174,0,0.012051,0,0,0,0.033135,0.0023165,0.010635,4.325,0.015362,0.027615,7.5989e-07,0.26,0.24,0
0.014756,0.0050086,0.033054,0.0023043,0.010607,0.0021733,0,0,0.05836,-0.021588,0,0.011301,0,0,0,0.033207,0.0021515,0.010607,4.0229,0.015322,0.027809,7.6996e-07,0.28,0.24,0
0.015926,0.0051636,0.033134,0.0021996,0.0106,0.002053,0,0,0.058589,-0.021841,0,0.010675,0,0,0,0.03327,0.0020639,0.0106,3.7803,0.015311,0.027934,7.7712e-07,0.3,0.24,0
0.0171,0.005284,0.033204,0.0021719,0.010613,0.0019521,0,0,0.058738,-0.021947,0,0.010151,0,0,0,0.033327,0.0020496,0.010613,3.5854,0.01533,0.027995,7.8164e-07,0.32,0.24,0
0.018276,0.0053665,0.033264,0.0022119,0.010643,0.0018622,0,0,0.058814,-0.02192,0,0.0096832,0,0,0,0.033375,0.0021006,0.010643,3.4197,0.015373,0.027998,7.8359e-07,0.34,0.24,0
0.019453,0.0054053,0.033298,0.0023019,0.01068,0.0017663,0,0,0.058808,-0.021783,0,0.0091846,0,0,0,0.033399,0.0022015,0.01068,3.2508,0.015427,0.02794,7.8226e-07,0.36,0.24,0
0.020628,0.0053903,0.033218,0.0023776,0.010679,0.0016092,0,0,0.058602,-0.021583,0,0.0083676,0,0,0,0.033301,0.0022939,0.010679,2.9788,0.015425,0.027781,7.7244e-07,0.38,0.24,0
0.021797,0.0052984,0.033113,0.0024249,0.010661,0.0012355,0,0,0.058375,-0.021415,0,0.0064249,0,0,0,0.033163,0.0023752,0.010661,2.3018,0.0154,0.027594,7.601e-07,0.4,0.24,0
0.022963,0.0050809,0.033937,0.001433,0.010611,0.0010994,0,0,0.060648,-0.023863,0,0.0057166,0,0,0,0.033974,0.0013958,0.010611,1.9349,0.015327,0.029087,8.4945e-07,0.42,0.24,0
0.024223,0.0048109,0.038652,-9.6139e-06,0.011593,0.00047374,0,0,0.049198,-0.020924,0,0.0025594,0,0,0,0.038669,-2.6721e-05,0.011593,0.91086,0.016745,0.034391,1.473e-06,0.44,0.24,0
0.025069,0.0047405,0.030925,-0.00012145,0.0092409,-0.00057117,0,0,0.038767,-0.016634,0,-0.0016189,0,0,0,0.030939,-0.00013554,0.0092409,-0.8912,0.013348,0.027608,8.0123e-07,0.46,0.24,0
0.025702,0.0047802,0.035616,-0.00025897,0.010607,-0.00095935,0,0,0.032512,-0.014126,0,-0.0024943,0,0,0,0.035642,-0.0002846,0.010607,-1.5307,0.015321,0.031906,1.0366e-06,0.48,0.24,0
0.026369,0.0048201,0.036265,-0.00024587,0.010806,-0.00063727,0,0,0.033097,-0.014367,0,-0.0016569,0,0,0,0.036276,-0.00025699,0.010806,-0.99966,0.015608,0.032448,1.0919e-06,0.5,0.24,0
0.027026,0.0048386,0.035935,-0.00021354,0.010716,-0.00075953,0,0,0.032784,-0.014209,0,-0.0019748,0,0,0,0.035951,-0.00022949,0.010716,-1.2032,0.015479,0.032137,1.062e-06,0.52,0.24,0
0.027681,0.0048524,0.035975,0.00034949,0.010897,-0.00067044,0,0,0.032601,-0.013712,0,-0.0017431,0,0,0,0.035988,0.00033687,0.010897,-1.0777,0.015741,0.031718,1.0474e-06,0.54,0.24,0
0.02833,0.0048686,0.035916,0.00061707,0.01096,-0.0005087,0,0,0.032442,-0.013446,0,-0.0013226,0,0,0,0.035923,0.00060974,0.01096,-0.82549,0.015831,0.031443,1.0329e-06,0.56,0.24,0
0.028978,0.0048953,0.035901,0.00069663,0.010979,-0.00032922,0,0,0.032399,-0.013368,0,-0.00085597,0,0,0,0.035904,0.00069355,0.010979,-0.53574,0.015859,0.03136,1.0286e-06,0.58,0.24,0
0.029626,0.0049345,0.035872,0.00064223,0.010954,-0.00015258,0,0,0.032393,-0.013406,0,-0.00039671,0,0,0,0.035873,0.00064157,0.010954,-0.24814,0.015823,0.031373,1.0275e-06,0.6,0.24,0
0.030274,0.0049867,0.035828,0.00045144,0.010884,4.5484e-05,0,0,0.032427,-0.013562,0,0.00011826,0,0,0,0.035828,0.00045138,0.010884,0.073666,0.015721,0.031484,1.0297e-06,0.62,0.24,0
0.030923,0.0050507,0.035829,6.2083e-05,0.010767,0.00024237,0,0,0.03258,-0.013917,0,0.00063016,0,0,0,0.03583,6.044e-05,0.010767,0.38823,0.015553,0.031799,1.0424e-06,0.64,0.24,0
0.031577,0.0051192,0.035728,-0.00064852,0.010524,0.00037499,0,0,0.032766,-0.014524,0,0.00097497,0,0,0,0.035732,-0.00065238,0.010524,0.59055,0.015201,0.032281,1.0556e-06,0.66,0.24,0
0.032234,0.0051849,0.035997,-0.00085816,0.010542,0.00029427,0,0,0.033092,-0.01482,0,0.0007651,0,0,0,0.036,-0.00086051,0.010542,0.45743,0.015227,0.032686,1.0856e-06,0.68,0.24,0
0.032901,0.0052317,0.035305,-0.0010518,0.010276,0.00065069,0,0,0.032537,-0.014726,0,0.0016918,0,0,0,0.035316,-0.0010635,0.010276,1.025,0.014843,0.032242,1.0312e-06,0.7,0.24,0
0.033535,0.0052803,0.030667,-0.00093268,0.0089204,0.00040889,0,0,0.038889,-0.017501,0,0.0010697,0,0,0,0.030676,-0.00094101,0.0089204,0.59308,0.012885,0.02802,8.0087e-07,0.72,0.24,0
0.034385,0.0054485,0.038279,-0.0012834,0.011099,-0.00047464,0,0,0.049433,-0.022319,0,-0.0024782,0,0,0,0.038294,-0.001298,0.011099,-0.87127,0.016032,0.035077,1.4774e-06,0.74,0.24,0
0.035652,0.0058416,0.033657,0.00022726,0.010165,-0.0008804,0,0,0.061078,-0.025839,0,-0.0045781,0,0,0,0.03368,0.00020409,0.010165,-1.5075,0.014683,0.029773,8.6163e-07,0.76,0.24,0
0.036828,0.0061963,0.03284,0.0012029,0.010213,-0.00087499,0,0,0.05883,-0.023426,0,-0.00455,0,0,0,0.032864,0.0011787,0.010213,-1.583,0.014752,0.028272,7.7369e-07,0.78,0.24,0
0.038005,0.0064394,0.0329,0.0010294,0.010179,-0.0011059,0,0,0.059076,-0.023789,0,-0.0057505,0,0,0,0.032939,0.00099106,0.010179,-1.9849,0.014703,0.028487,7.8433e-07,0.8,0.24,0
0.039191,0.0066178,0.03298,0.00081864,0.010139,-0.001123,0,0,0.059384,-0.024234,0,-0.0058396,0,0,0,0.033019,0.00077947,0.010139,-1.9974,0.014646,0.028727,7.9603e-07,0.82,0.24,0
0.04038,0.0067547,0.032955,0.00053548,0.010047,-0.0010645,0,0,0.059561,-0.024731,0,-0.0055354,0,0,0,0.03299,0.00050056,0.010047,-1.8786,0.014513,0.028923,8.0163e-07,0.84,0.24,0
0.041573,0.0068606,0.032927,0.0002436,0.0099513,-0.00097391,0,0,0.059738,-0.02524,0,-0.0050643,0,0,0,0.032956,0.00021461,0.0099513,-1.7053,0.014374,0.029121,8.0686e-07,0.86,0.24,0
0.04277,0.0069426,0.032907,-2.9426e-05,0.0098632,-0.00085808,0,0,0.059913,-0.025721,0,-0.004462,0,0,0,0.032929,-5.1766e-05,0.0098632,-1.4914,0.014247,0.029309,8.1192e-07,0.88,0.24,0
0.04397,0.0070059,0.032892,-0.00026525,0.009788,-0.0007254,0,0,0.06007,-0.026138,0,-0.0037721,0,0,0,0.032908,-0.00028112,0.009788,-1.2527,0.014138,0.029474,8.1634e-07,0.9,0.24,0
0.045173,0.007054,0.032879,-0.00045793,0.0097263,-0.00058352,0,0,0.060197,-0.026479,0,-0.0030343,0,0,0,0.032889,-0.00046814,0.0097263,-1.0025,0.014049,0.029607,8.1977e-07,0.92,0.24,0
0.046378,0.0070894,0.032867,-0.00060623,0.0096782,-0.00043789,0,0,0.060291,-0.026739,0,-0.002277,0,0,0,0.032873,-0.00061196,0.0096782,-0.74936,0.01398,0.029708,8.2219e-07,0.94,0.24,0
0.047584,0.0071137,0.032857,-0.00071088,0.0096438,-0.0002915,0,0,0.060354,-0.026922,0,-0.0015158,0,0,0,0.032859,-0.00071341,0.0096438,-0.4975,0.01393,0.029777,8.2376e-07,0.96,0.24,0
0.048792,0.0071279,0.03285,-0.00077305,0.0096231,-0.00014552,0,0,0.06039,-0.02703,0,-0.0007567,0,0,0,0.032851,-0.00077368,0.0096231,-0.24797,0.0139,0.029818,8.2463e-07,0.98,0.24,0
0.05,0.0071326,0.032848,-0.00079366,0.0096162,4.5063e-05,0,0,0.060402,-0.027066,0,0.00023433,0,0,0,0.032848,-0.00079372,0.0096162,0.076748,0.01389,0.029831,8.2491e-07,1,0.24,0
0,0,0.029778,0.012762,0.012762,0.0040787,0,0,0.044241,-1.0842e-19,0,0.021209,0,0,0,0.030705,0.011835,0.012762,12.806,0.018434,0.018424,3.1846e-07,0,0.26,0
0.00088482,0.00042418,0.029666,0.011468,0.01234,0.0040669,0,0,0.045047,-0.0022677,0,0.021148,0,0,0,0.030533,0.0106,0.01234,12.042,0.017825,0.019123,3.4913e-07,0.02,0.26,0
0.0018019,0.00084295,0.030095,0.010419,0.012154,0.0040151,0,0,0.046646,-0.0045113,0,0.020878,0,0,0,0.030883,0.0096313,0.012154,11.101,0.017556,0.020109,3.9556e-07,0.04,0.26,0
0.0027506,0.0012543,0.030514,0.0093906,0.011971,0.0039351,0,0,0.04821,-0.0067098,0,0.020463,0,0,0,0.031223,0.0086814,0.011971,10.217,0.017292,0.02109,4.4253e-07,0.06,0.26,0
0.0037303,0.0016557,0.030917,0.0083958,0.011794,0.0038227,0,0,0.049721,-0.008835,0,0.019878,0,0,0,0.031548,0.0077647,0.011794,9.3755,0.017036,0.022047,4.89e-07,0.08,0.26,0
0.0047395,0.0020441,0.0313,0.0074489,0.011625,0.0036783,0,0,0.051155,-0.010857,0,0.019127,0,0,0,0.031854,0.0068945,0.011625,8.5709,0.016791,0.022963,5.3401e-07,0.1,0.26,0
0.0057765,0.0024165,0.031656,0.0065629,0.011466,0.003506,0,0,0.052496,-0.012748,0,0.018231,0,0,0,0.032137,0.0060823,0.011466,7.8061,0.016562,0.023824,5.7672e-07,0.12,0.26,0
0.0068393,0.0027702,0.031985,0.0057487,0.01132,0.0033131,0,0,0.053729,-0.014486,0,0.017228,0,0,0,0.032397,0.0053368,0.01132,7.0871,0.016351,0.02462,6.1652e-07,0.14,0.26,0
0.0079256,0.0031029,0.032284,0.0050142,0.011189,0.0031081,0,0,0.054846,-0.016056,0,0.016162,0,0,0,0.032634,0.0046645,0.011189,6.4206,0.016163,0.025345,6.5304e-07,0.16,0.26,0
0.0090331,0.0034125,0.032555,0.0043644,0.011076,0.0028997,0,0,0.055845,-0.01745,0,0.015079,0,0,0,0.03285,0.0040692,0.011076,5.8125,0.015998,0.025996,6.8612e-07,0.18,0.26,0
0.01016,0.0036977,0.0328,0.003802,0.010981,0.0026964,0,0,0.05673,-0.018664,0,0.014021,0,0,0,0.033048,0.0035534,0.010981,5.2675,0.015861,0.026572,7.1578e-07,0.2,0.26,0
0.011302,0.0039573,0.033023,0.0033281,0.010905,0.0025047,0,0,0.057505,-0.0197,0,0.013025,0,0,0,0.033232,0.0031183,0.010905,4.7878,0.015752,0.027074,7.4215e-07,0.22,0.26,0
0.01246,0.0041905,0.033228,0.0029429,0.010851,0.00233,0,0,0.058179,-0.020561,0,0.012116,0,0,0,0.033406,0.0027647,0.010851,4.3738,0.015674,0.027505,7.6544e-07,0.24,0.26,0
0.013629,0.0043967,0.033421,0.0026462,0.01082,0.0021749,0,0,0.058762,-0.021252,0,0.01131,0,0,0,0.033574,0.0024933,0.01082,4.0226,0.015629,0.027866,7.8596e-07,0.26,0.26,0
0.01481,0.0045747,0.033609,0.0024376,0.010814,0.0020398,0,0,0.059266,-0.021778,0,0.010607,0,0,0,0.033742,0.0023047,0.010814,3.7283,0.01562,0.028163,8.0409e-07,0.28,0.26,0
0.016,0.0047234,0.0338,0.0023168,0.010835,0.0019217,0,0,0.05971,-0.022148,0,0.009993,0,0,0,0.033917,0.0021999,0.010835,3.4801,0.015651,0.028402,8.2039e-07,0.3,0.26,0
0.017198,0.0048403,0.034011,0.0022835,0.010888,0.0018136,0,0,0.060119,-0.022373,0,0.0094307,0,0,0,0.034114,0.0021802,0.010888,3.2609,0.015728,0.028593,8.358e-07,0.32,0.26,0
0.018405,0.0049218,0.034265,0.0023382,0.010981,0.001703,0,0,0.060539,-0.022471,0,0.0088557,0,0,0,0.034356,0.0022476,0.010981,3.0447,0.015862,0.028754,8.5202e-07,0.34,0.26,0
0.01962,0.0049617,0.03461,0.0024855,0.011129,0.0015663,0,0,0.061051,-0.022472,0,0.0081448,0,0,0,0.034686,0.0024093,0.011129,2.7848,0.016075,0.02892,8.7219e-07,0.36,0.26,0
0.020847,0.0049488,0.035153,0.0027566,0.011373,0.0013602,0,0,0.061829,-0.022403,0,0.0070732,0,0,0,0.03521,0.0026996,0.011373,2.4,0.016428,0.029158,9.0369e-07,0.38,0.26,0
0.022093,0.0048627,0.036111,0.0032419,0.011806,0.00071624,0,0,0.063194,-0.022267,0,0.0037244,0,0,0,0.036127,0.0032263,0.011806,1.2477,0.017053,0.02956,9.5947e-07,0.4,0.26,0
0.023375,0.0046029,0.041655,0.0014309,0.012926,0.00094353,0,0,0.051837,-0.020493,0,0.0038876,0,0,0,0.041681,0.001405,0.012926,1.4759,0.018671,0.03593,1.8177e-06,0.42,0.26,0
0.024289,0.0044412,0.033326,0.0005291,0.010157,-0.0010158,0,0,0.04155,-0.017136,0,-0.0038292,0,0,0,0.033358,0.00049695,0.010157,-1.8405,0.01467,0.029253,9.7222e-07,0.44,0.26,0
0.024953,0.0044566,0.037174,0.00034011,0.011254,-0.00092505,0,0,0.033696,-0.014188,0,-0.0024051,0,0,0,0.037198,0.00031689,0.011254,-1.4377,0.016256,0.032809,1.1576e-06,0.46,0.26,0
0.025637,0.0044966,0.037181,0.00010595,0.011186,-0.00042313,0,0,0.033793,-0.014404,0,-0.0011001,0,0,0,0.037186,0.00010113,0.011186,-0.6538,0.016158,0.03297,1.1639e-06,0.48,0.26,0
0.026305,0.0045278,0.036478,-0.00031989,0.010847,-0.00054004,0,0,0.033319,-0.014517,0,-0.0014041,0,0,0,0.036485,-0.00032782,0.010847,-0.84063,0.015668,0.032691,1.1131e-06,0.5,0.26,0
0.02697,0.0045546,0.036283,-7.8555e-05,0.010861,-0.00058688,0,0,0.033048,-0.014222,0,-0.0015259,0,0,0,0.036292,-8.8025e-05,0.010861,-0.92443,0.015689,0.032328,1.088e-06,0.52,0.26,0
0.027627,0.0045756,0.036059,0.00020386,0.010879,-0.00059429,0,0,0.032734,-0.013877,0,-0.0015451,0,0,0,0.036069,0.00019401,0.010879,-0.94932,0.015714,0.031904,1.059e-06,0.54,0.26,0
0.028279,0.0045983,0.035932,0.0004612,0.010918,-0.00048306,0,0,0.032518,-0.013594,0,-0.001256,0,0,0,0.035938,0.00045462,0.010918,-0.7801,0.01577,0.03158,1.0392e-06,0.56,0.26,0
0.028928,0.0046274,0.035846,0.00055107,0.010919,-0.00031171,0,0,0.032405,-0.013478,0,-0.00081043,0,0,0,0.035848,0.00054832,0.010919,-0.50596,0.015772,0.031426,1.0284e-06,0.58,0.26,0
0.029575,0.0046658,0.035818,0.00048679,0.010891,-0.0001152,0,0,0.032404,-0.013526,0,-0.00029952,0,0,0,0.035818,0.00048641,0.010891,-0.18682,0.015732,0.031448,1.0278e-06,0.6,0.26,0
0.030224,0.0047138,0.035847,0.00026578,0.010834,7.7083e-05,0,0,0.032517,-0.013739,0,0.00020042,0,0,0,0.035847,0.00026562,0.010834,0.12412,0.015649,0.03165,1.0374e-06,0.62,0.26,0
0.030876,0.0047694,0.035914,-0.00013103,0.010735,0.00022663,0,0,0.032733,-0.014126,0,0.00058925,0,0,0,0.035916,-0.00013246,0.010735,0.36023,0.015506,0.032028,1.0559e-06,0.64,0.26,0
0.031533,0.0048284,0.036071,-0.0005658,0.010652,0.00026685,0,0,0.033045,-0.014583,0,0.00069382,0,0,0,0.036073,-0.00056774,0.010652,0.4173,0.015386,0.032517,1.0833e-06,0.66,0.26,0
0.032198,0.0048835,0.036196,-0.00096985,0.010568,0.00026354,0,0,0.033316,-0.014999,0,0.00068519,0,0,0,0.036197,-0.00097172,0.010568,0.40625,0.015265,0.032951,1.1068e-06,0.68,0.26,0
0.032866,0.0049355,0.036836,-0.00072491,0.010833,0.00018258,0,0,0.033804,-0.015026,0,0.00047471,0,0,0,0.036837,-0.0007258,0.010833,0.2785,0.015648,0.033323,1.1583e-06,0.7,0.26,0
0.03355,0.0049809,0.036821,-0.00069631,0.010837,0.00071381,0,0,0.033779,-0.014994,0,0.0018559,0,0,0,0.036834,-0.00070989,0.010837,1.0896,0.015654,0.033307,1.1575e-06,0.72,0.26,0
0.034217,0.0050535,0.03304,-0.00057604,0.0097392,0.00098972,0,0,0.041795,-0.018347,0,0.0038047,0,0,0,0.033071,-0.00060645,0.0097392,1.7753,0.014068,0.02988,9.7991e-07,0.74,0.26,0
0.035137,0.0053199,0.041211,-0.00023456,0.012293,-0.00074059,0,0,0.052179,-0.02234,0,-0.0030283,0,0,0,0.041227,-0.0002498,0.012293,-1.1191,0.017757,0.036844,1.8377e-06,0.76,0.26,0
0.036427,0.0057186,0.035788,0.0018616,0.011295,-0.00031148,0,0,0.063682,-0.024526,0,-0.0016197,0,0,0,0.035791,0.0018588,0.011295,-0.52599,0.016315,0.030335,9.7995e-07,0.78,0.26,0
0.037685,0.0059511,0.034842,0.0012857,0.010838,-0.00084951,0,0,0.06241,-0.024837,0,-0.0044174,0,0,0,0.034864,0.0012642,0.010838,-1.4492,0.015655,0.029982,9.2326e-07,0.8,0.26,0
0.038924,0.0061225,0.034318,0.00088686,0.010561,-0.00093805,0,0,0.061766,-0.025154,0,-0.0048779,0,0,0,0.034344,0.00086056,0.010561,-1.606,0.015255,0.02984,8.9428e-07,0.82,0.26,0
0.040155,0.0062505,0.034017,0.00051632,0.01036,-0.00095395,0,0,0.061509,-0.025594,0,-0.0049606,0,0,0,0.034044,0.00048918,0.01036,-1.6298,0.014965,0.029869,8.8175e-07,0.84,0.26,0
0.041384,0.0063467,0.033834,0.00016012,0.010198,-0.00090257,0,0,0.061452,-0.026099,0,-0.0046934,0,0,0,0.033858,0.00013595,0.010198,-1.5343,0.014731,0.029985,8.7729e-07,0.86,0.26,0
0.042613,0.0064194,0.033717,-0.0001455,0.010072,-0.00080495,0,0,0.061479,-0.026564,0,-0.0041857,0,0,0,0.033737,-0.00016463,0.010072,-1.3609,0.014548,0.030117,8.7621e-07,0.88,0.26,0
0.043843,0.0064747,0.033631,-0.00039661,0.0099705,-0.00068116,0,0,0.061519,-0.026954,0,-0.003542,0,0,0,0.033645,-0.00041024,0.0099705,-1.1463,0.014402,0.030232,8.7576e-07,0.9,0.26,0
0.045074,0.0065163,0.033563,-0.00059508,0.0098904,-0.00054621,0,0,0.061549,-0.027262,0,-0.0028403,0,0,0,0.033572,-0.00060381,0.0098904,-0.91589,0.014286,0.030322,8.7522e-07,0.92,0.26,0
0.046305,0.0065467,0.033509,-0.00074447,0.0098294,-0.00040821,0,0,0.061567,-0.027492,0,-0.0021227,0,0,0,0.033514,-0.00074933,0.0098294,-0.68267,0.014198,0.030388,8.7456e-07,0.94,0.26,0
0.047537,0.0065676,0.03347,-0.00084834,0.0097865,-0.00027076,0,0,0.061577,-0.027651,0,-0.0014079,0,0,0,0.033472,-0.00085048,0.0097865,-0.452,0.014136,0.030432,8.7392e-07,0.96,0.26,0
0.048768,0.0065799,0.033446,-0.00090949,0.0097609,-0.00013484,0,0,0.061581,-0.027743,0,-0.00070117,0,0,0,0.033446,-0.00091002,0.0097609,-0.22487,0.014099,0.030457,8.7347e-07,0.98,0.26,0
0.05,0.0065839,0.033438,-0.00092968,0.0097525,3.867e-05,0,0,0.061582,-0.027774,0,0.00020108,0,0,0,0.033438,-0.00092972,0.0097525,0.064468,0.014087,0.030465,8.7331e-07,1,0.26,0
0,0,0.029826,0.012783,0.012783,0.0036453,0,0,0.044313,-1.0842e-19,0,0.018956,0,0,0,0.030573,0.012036,0.012783,11.58,0.018464,0.018176,3.0662e-07,0,0.28,0
0.00088627,0.00037911,0.029715,0.011504,0.012365,0.0036349,0,0,0.045108,-0.0022408,0,0.018902,0,0,0,0.030413,0.010805,0.012365,10.881,0.017861,0.018877,3.3751e-07,0.02,0.28,0
0.0018043,0.00075351,0.03014,0.010479,0.012186,0.0035898,0,0,0.046682,-0.004438,0,0.018667,0,0,0,0.030775,0.0098439,0.012186,10.03,0.017602,0.019864,3.8377e-07,0.04,0.28,0
0.0027535,0.0011215,0.030557,0.0094806,0.012011,0.003521,0,0,0.048219,-0.00658,0,0.018309,0,0,0,0.03113,0.0089079,0.012011,9.2377,0.01735,0.020844,4.3058e-07,0.06,0.28,0
0.0037331,0.001481,0.030962,0.0085176,0.011844,0.003425,0,0,0.049707,-0.0086483,0,0.01781,0,0,0,0.031473,0.0080066,0.011844,8.4862,0.017108,0.021803,4.7719e-07,0.08,0.28,0
0.0047418,0.0018295,0.031351,0.0076002,0.011685,0.0033017,0,0,0.051132,-0.010622,0,0.017169,0,0,0,0.031802,0.0071497,0.011685,7.7686,0.016879,0.022726,5.2283e-07,0.1,0.28,0
0.0057783,0.0021644,0.031722,0.0067381,0.011538,0.003154,0,0,0.052479,-0.01248,0,0.016401,0,0,0,0.032114,0.0063461,0.011538,7.085,0.016666,0.023604,5.6685e-07,0.12,0.28,0
0.006841,0.0024835,0.032072,0.0059404,0.011404,0.0029872,0,0,0.053738,-0.014205,0,0.015534,0,0,0,0.03241,0.0056033,0.011404,6.439,0.016472,0.024428,6.0874e-07,0.14,0.28,0
0.0079279,0.0027846,0.032401,0.005214,0.011285,0.002808,0,0,0.054904,-0.015784,0,0.014602,0,0,0,0.032689,0.004927,0.011285,5.8357,0.0163,0.025192,6.4815e-07,0.16,0.28,0
0.0090371,0.003066,0.03271,0.0045643,0.011182,0.0026236,0,0,0.055973,-0.017207,0,0.013643,0,0,0,0.032953,0.0043218,0.011182,5.2802,0.016152,0.025892,6.8492e-07,0.18,0.28,0
0.010167,0.0033263,0.033001,0.0039948,0.011099,0.0024409,0,0,0.056946,-0.018471,0,0.012693,0,0,0,0.033205,0.0037908,0.011099,4.7767,0.016032,0.026527,7.19e-07,0.2,0.28,0
0.011315,0.0035645,0.033278,0.0035081,0.011036,0.0022658,0,0,0.057829,-0.019572,0,0.011782,0,0,0,0.033449,0.0033367,0.011036,4.3277,0.015941,0.027096,7.5049e-07,0.22,0.28,0
0.01248,0.0037796,0.033545,0.0031065,0.010995,0.0021027,0,0,0.058628,-0.020511,0,0.010934,0,0,0,0.033689,0.0029619,0.010995,3.9332,0.015882,0.027602,7.7956e-07,0.24,0.28,0
0.01366,0.003971,0.033807,0.0027922,0.01098,0.0019535,0,0,0.059351,-0.021288,0,0.010158,0,0,0,0.03393,0.0026696,0.01098,3.59,0.01586,0.028044,8.0644e-07,0.26,0.28,0
0.014854,0.0041375,0.034073,0.0025683,0.010992,0.001817,0,0,0.060009,-0.021902,0,0.0094486,0,0,0,0.034177,0.0024638,0.010992,3.29,0.015878,0.028425,8.3148e-07,0.28,0.28,0
0.01606,0.0042777,0.034352,0.0024392,0.011037,0.001687,0,0,0.060618,-0.022355,0,0.0087726,0,0,0,0.034441,0.0023503,0.011037,3.0177,0.015943,0.028749,8.552e-07,0.3,0.28,0
0.017279,0.0043891,0.034662,0.0024117,0.011122,0.0015502,0,0,0.061205,-0.022648,0,0.0080612,0,0,0,0.034737,0.0023373,0.011122,2.7457,0.016065,0.029022,8.7853e-07,0.32,0.28,0
0.018509,0.0044677,0.035035,0.0024971,0.01126,0.0013813,0,0,0.061817,-0.022783,0,0.0071829,0,0,0,0.035094,0.0024386,0.01126,2.4265,0.016264,0.02926,9.033e-07,0.34,0.28,0
0.019751,0.0045064,0.035527,0.0027193,0.011474,0.0011349,0,0,0.062537,-0.022762,0,0.0059015,0,0,0,0.035566,0.00268,0.011474,1.9789,0.016573,0.029489,9.3297e-07,0.36,0.28,0
0.02101,0.0044942,0.036242,0.0031492,0.011817,0.00070616,0,0,0.063503,-0.022537,0,0.003672,0,0,0,0.036256,0.0031341,0.011817,1.2219,0.017069,0.029747,9.7368e-07,0.38,0.28,0
0.022291,0.0044078,0.036899,0.0038247,0.012217,-3.9829e-05,0,0,0.064173,-0.02182,0,-0.00020711,0,0,0,0.036899,0.0038246,0.012217,-0.068997,0.017647,0.029779,1.0018e-06,0.4,0.28,0
0.023577,0.0042271,0.036196,0.0011376,0.0112,-0.00011324,0,0,0.048564,-0.017442,0,-0.0012758,0,0,0,0.036209,0.001125,0.0112,-0.29633,0.016178,0.031368,1.0041e-06,0.42,0.28,0
0.024234,0.0041524,0.036978,0.00037612,0.011206,-0.0009434,0,0,0.033504,-0.014079,0,-0.0024528,0,0,0,0.037003,0.00035182,0.011206,-1.4755,0.016187,0.032608,1.1383e-06,0.44,0.28,0
0.024917,0.004173,0.037323,0.00036098,0.011305,-5.0007e-05,0,0,0.033823,-0.014228,0,-0.00013002,0,0,0,0.037324,0.00036092,0.011305,-0.077517,0.01633,0.032886,1.1679e-06,0.46,0.28,0
0.025587,0.0042041,0.036704,-0.00011793,0.010976,-0.00014987,0,0,0.033446,-0.014422,0,-0.00038966,0,0,0,0.036705,-0.00011854,0.010976,-0.23319,0.015854,0.032718,1.1264e-06,0.48,0.28,0
0.026255,0.0042394,0.036502,-0.00010788,0.010918,-0.00024993,0,0,0.033259,-0.014334,0,-0.00064981,0,0,0,0.036503,-0.00010958,0.010918,-0.39113,0.015771,0.032532,1.1077e-06,0.5,0.28,0
0.026917,0.0042698,0.036248,-3.4112e-05,0.010864,-0.00039104,0,0,0.032999,-0.014168,0,-0.0010167,0,0,0,0.036252,-3.8326e-05,0.010864,-0.61742,0.015693,0.032253,1.0828e-06,0.52,0.28,0
0.027575,0.0042973,0.036083,0.00016872,0.010876,-0.00043512,0,0,0.03277,-0.013919,0,-0.0011313,0,0,0,0.036089,0.00016345,0.010876,-0.69402,0.015709,0.031946,1.0618e-06,0.54,0.28,0
0.028228,0.0043248,0.035947,0.00032753,0.010882,-0.00038763,0,0,0.032584,-0.013721,0,-0.0010078,0,0,0,0.035951,0.00032331,0.010882,-0.62342,0.015719,0.031696,1.0446e-06,0.56,0.28,0
0.028878,0.0043562,0.035868,0.00038702,0.010877,-0.00026609,0,0,0.032489,-0.013636,0,-0.00069184,0,0,0,0.03587,0.00038502,0.010877,-0.42966,0.015711,0.031575,1.0355e-06,0.58,0.28,0
0.029528,0.0043935,0.035847,0.00031143,0.010847,-0.00011265,0,0,0.032499,-0.013697,0,-0.00029288,0,0,0,0.035847,0.00031108,0.010847,-0.18162,0.015668,0.031613,1.0359e-06,0.6,0.28,0
0.030178,0.0044371,0.035881,9.8878e-05,0.010794,3.1915e-05,0,0,0.032613,-0.013903,0,8.2978e-05,0,0,0,0.035881,9.8849e-05,0.010794,0.051104,0.015591,0.031812,1.0455e-06,0.62,0.28,0
0.030832,0.0044857,0.035966,-0.00021797,0.010724,0.00012328,0,0,0.032814,-0.014225,0,0.00032053,0,0,0,0.035966,-0.00021839,0.010724,0.19521,0.015491,0.032142,1.063e-06,0.64,0.28,0
0.031491,0.0045359,0.036066,-0.00058401,0.010644,0.00013835,0,0,0.033047,-0.014597,0,0.00035971,0,0,0,0.036066,-0.00058453,0.010644,0.21629,0.015375,0.032524,1.0832e-06,0.66,0.28,0
0.032154,0.004585,0.036227,-0.00082349,0.010621,6.0992e-05,0,0,0.033288,-0.014878,0,0.00015858,0,0,0,0.036227,-0.00082359,0.010621,0.094318,0.015342,0.032859,1.105e-06,0.68,0.28,0
0.032822,0.0046307,0.036319,-0.00098912,0.010599,2.3715e-06,0,0,0.033436,-0.015064,0,6.1658e-06,0,0,0,0.036319,-0.00098912,0.010599,0.003642,0.01531,0.033073,1.1184e-06,0.7,0.28,0
0.033492,0.0046805,0.036886,-0.00067696,0.010863,-8.6418e-05,0,0,0.03383,-0.015001,0,-0.00022469,0,0,0,0.036886,-0.00067716,0.010863,-0.13181,0.015691,0.033327,1.1613e-06,0.72,0.28,0
0.034176,0.0047427,0.036537,-0.0010594,0.010643,0.00084994,0,0,0.033662,-0.015213,0,0.0022099,0,0,0,0.036556,-0.0010786,0.010643,1.2944,0.015374,0.033356,1.143e-06,0.74,0.28,0
0.034838,0.0049106,0.035715,-0.00059666,0.010535,0.00027134,0,0,0.048905,-0.019296,0,0.0020804,0,0,0,0.035735,-0.00061725,0.010535,0.57085,0.015218,0.032347,1.0074e-06,0.76,0.28,0
0.036132,0.0052153,0.036488,0.0022424,0.011619,0.00041289,0,0,0.064659,-0.02438,0,0.002147,0,0,0,0.036493,0.0022374,0.011619,0.69066,0.016783,0.030661,1.0265e-06,0.78,0.28,0
0.037424,0.0054459,0.035919,0.00161,0.011259,-0.00019113,0,0,0.064116,-0.025086,0,-0.00099386,0,0,0,0.03592,0.0016089,0.011259,-0.31917,0.016262,0.030647,9.9937e-07,0.8,0.28,0
0.038697,0.0056117,0.035261,0.001077,0.010901,-0.00058016,0,0,0.063336,-0.025544,0,-0.0030168,0,0,0,0.035271,0.0010671,0.010901,-0.97201,0.015747,0.0305,9.6285e-07,0.82,0.28,0
0.039958,0.005731,0.034844,0.00052671,0.010611,-0.00073764,0,0,0.063006,-0.02622,0,-0.0038358,0,0,0,0.03486,0.00051086,0.010611,-1.2308,0.015327,0.030577,9.4635e-07,0.84,0.28,0
0.041217,0.0058166,0.03461,9.1182e-05,0.01041,-0.00074985,0,0,0.062919,-0.02683,0,-0.0038992,0,0,0,0.034626,7.49e-05,0.01041,-1.2439,0.015037,0.030716,9.4025e-07,0.86,0.28,0
0.042475,0.0058801,0.034435,-0.00025059,0.010255,-0.00068109,0,0,0.062867,-0.027315,0,-0.0035417,0,0,0,0.034448,-0.00026396,0.010255,-1.1245,0.014813,0.030829,9.3559e-07,0.88,0.28,0
0.043731,0.0059277,0.03429,-0.00051671,0.010132,-0.00057795,0,0,0.062812,-0.027687,0,-0.0030053,0,0,0,0.0343,-0.0005263,0.010132,-0.95101,0.014635,0.030908,9.3092e-07,0.9,0.28,0
0.044987,0.0059635,0.034171,-0.00071956,0.010035,-0.00046232,0,0,0.062753,-0.027963,0,-0.0024041,0,0,0,0.034177,-0.00072569,0.010035,-0.75902,0.014496,0.030958,9.2645e-07,0.92,0.28,0
0.046241,0.0059897,0.034077,-0.00086855,0.0099626,-0.00034422,0,0,0.062698,-0.028161,0,-0.00179,0,0,0,0.03408,-0.00087194,0.0099626,-0.5643,0.01439,0.03099,9.226e-07,0.94,0.28,0
0.047495,0.0060077,0.034009,-0.00097045,0.0099116,-0.00022754,0,0,0.062654,-0.028293,0,-0.0011832,0,0,0,0.034011,-0.00097193,0.0099116,-0.37269,0.014317,0.031008,9.1966e-07,0.96,0.28,0
0.048748,0.0060182,0.033968,-0.0010298,0.0098816,-0.00011306,0,0,0.062626,-0.02837,0,-0.00058792,0,0,0,0.033969,-0.0010302,0.0098816,-0.18509,0.014273,0.031018,9.1783e-07,0.98,0.28,0
0.05,0.0060217,0.033955,-0.0010494,0.0098716,3.3352e-05,0,0,0.062616,-0.028394,0,0.00017343,0,0,0,0.033955,-0.0010494,0.0098716,0.054591,0.014259,0.031021,9.1721e-07,1,0.28,0
0,0,0.029864,0.012799,0.012799,0.0032168,0,0,0.044369,1.1926e-18,0,0.016728,0,0,0,0.03045,0.012212,0.012799,10.329,0.018487,0.017951,2.9605e-07,0,0.3,0
0.00088738,0.00033455,0.029753,0.011534,0.012386,0.0032074,0,0,0.045153,-0.0022145,0,0.016678,0,0,0,0.030301,0.010986,0.012386,9.6987,0.017891,0.018654,3.2706e-07,0.02,0.3,0
0.0018061,0.00066543,0.030174,0.010531,0.012212,0.0031689,0,0,0.046704,-0.0043705,0,0.016478,0,0,0,0.030673,0.010032,0.012212,8.9407,0.017639,0.019642,3.7311e-07,0.04,0.3,0
0.0027555,0.00099113,0.030589,0.0095581,0.012044,0.0031091,0,0,0.048216,-0.0064634,0,0.016168,0,0,0,0.031039,0.0091081,0.012044,8.2359,0.017397,0.02062,4.1967e-07,0.06,0.3,0
0.0037348,0.0013098,0.030993,0.0086225,0.011885,0.0030253,0,0,0.049682,-0.0084819,0,0.015731,0,0,0,0.031395,0.0082206,0.011885,7.5672,0.017167,0.021577,4.6619e-07,0.08,0.3,0
0.0047428,0.0016192,0.031387,0.0077308,0.011735,0.0029172,0,0,0.051094,-0.010412,0,0.01517,0,0,0,0.031741,0.0073763,0.011735,6.9273,0.016951,0.022504,5.1211e-07,0.1,0.3,0
0.0057785,0.0019173,0.031767,0.0068905,0.011597,0.0027871,0,0,0.052442,-0.012238,0,0.014493,0,0,0,0.032075,0.0065821,0.011597,6.3149,0.016752,0.023393,5.5693e-07,0.12,0.3,0
0.0068405,0.002202,0.032133,0.0061088,0.011473,0.0026389,0,0,0.053717,-0.013946,0,0.013722,0,0,0,0.032398,0.0058439,0.011473,5.7321,0.016571,0.024235,6.0024e-07,0.14,0.3,0
0.0079272,0.0024715,0.032485,0.0053918,0.011363,0.0024779,0,0,0.054917,-0.015525,0,0.012885,0,0,0,0.03271,0.0051671,0.011363,5.1829,0.016413,0.025026,6.4174e-07,0.16,0.3,0
0.0090371,0.0027242,0.032823,0.0047448,0.01127,0.00231,0,0,0.056037,-0.016966,0,0.012012,0,0,0,0.033012,0.004556,0.01127,4.6718,0.016279,0.025763,6.8128e-07,0.18,0.3,0
0.010169,0.0029588,0.03315,0.0041718,0.011197,0.0021408,0,0,0.057079,-0.018264,0,0.011132,0,0,0,0.033307,0.0040145,0.011197,4.2024,0.016173,0.026444,7.188e-07,0.2,0.3,0
0.01132,0.0031744,0.033469,0.0036766,0.011144,0.0019754,0,0,0.058046,-0.019415,0,0.010272,0,0,0,0.0336,0.0035462,0.011144,3.777,0.016096,0.027067,7.5436e-07,0.22,0.3,0
0.01249,0.0033701,0.033784,0.0032633,0.011114,0.0018174,0,0,0.058942,-0.020413,0,0.0094504,0,0,0,0.033892,0.0031555,0.011114,3.3957,0.016054,0.027631,7.8803e-07,0.24,0.3,0
0.013678,0.0035451,0.034099,0.0029366,0.011111,0.001668,0,0,0.059771,-0.021253,0,0.0086739,0,0,0,0.034189,0.0028475,0.011111,3.0552,0.016049,0.028135,8.1992e-07,0.26,0.3,0
0.014881,0.0036986,0.03442,0.0027033,0.011137,0.0015251,0,0,0.060536,-0.021928,0,0.0079303,0,0,0,0.034493,0.0026301,0.011137,2.7465,0.016087,0.028576,8.5008e-07,0.28,0.3,0
0.016099,0.0038292,0.034752,0.0025735,0.011198,0.0013802,0,0,0.061241,-0.022423,0,0.0071772,0,0,0,0.034811,0.0025144,0.011198,2.4516,0.016174,0.028949,8.7846e-07,0.3,0.3,0
0.017331,0.0039344,0.035102,0.0025624,0.011299,0.0012161,0,0,0.061887,-0.022716,0,0.0063236,0,0,0,0.035147,0.002517,0.011299,2.1373,0.016321,0.029245,9.0489e-07,0.32,0.3,0
0.018575,0.0040105,0.035476,0.0026924,0.011451,0.0010006,0,0,0.062466,-0.022771,0,0.0052032,0,0,0,0.035506,0.0026619,0.011451,1.7466,0.01654,0.029451,9.2878e-07,0.34,0.3,0
0.01983,0.0040513,0.035868,0.0030006,0.011661,0.0006801,0,0,0.06294,-0.022516,0,0.0035365,0,0,0,0.035882,0.0029865,0.011661,1.1849,0.016843,0.02953,9.4799e-07,0.36,0.3,0
0.021093,0.0040473,0.036163,0.0035342,0.011909,0.00018737,0,0,0.06306,-0.021775,0,0.00097432,0,0,0,0.036164,0.0035331,0.011909,0.32901,0.017202,0.029353,9.512e-07,0.38,0.3,0
0.022352,0.0039898,0.036099,0.0045335,0.01219,-0.00040258,0,0,0.062165,-0.019906,0,-0.0020934,0,0,0,0.036104,0.0045284,0.01219,-0.73057,0.017608,0.028528,9.0877e-07,0.4,0.3,0
0.023579,0.0039052,0.036124,0.0022656,0.011517,-0.000762,0,0,0.047327,-0.016035,0,-0.0031211,0,0,0,0.036142,0.0022471,0.011517,-1.3313,0.016635,0.030401,9.7643e-07,0.42,0.3,0
0.024245,0.0038781,0.036237,0.00010512,0.010903,-0.00027279,0,0,0.032934,-0.014037,0,-0.00070925,0,0,0,0.036239,0.00010306,0.010903,-0.43255,0.015748,0.032127,1.077e-06,0.44,0.3,0
0.024896,0.0038875,0.035962,-5.0711e-05,0.010773,-1.4686e-05,0,0,0.032745,-0.014071,0,-3.8184e-05,0,0,0,0.035962,-5.0717e-05,0.010773,-0.023366,0.015561,0.032004,1.0574e-06,0.46,0.3,0
0.025555,0.0039197,0.036192,3.079e-05,0.010867,2.7579e-05,0,0,0.032922,-0.014087,0,7.1705e-05,0,0,0,0.036192,3.0769e-05,0.010867,0.043698,0.015696,0.032143,1.0752e-06,0.48,0.3,0
0.026213,0.0039545,0.036159,-4.0161e-06,0.010846,-0.00011908,0,0,0.032906,-0.014105,0,-0.0003096,0,0,0,0.036159,-4.4082e-06,0.010846,-0.18866,0.015667,0.032142,1.0734e-06,0.5,0.3,0
0.026871,0.0039879,0.036109,6.6826e-05,0.010853,-0.00024433,0,0,0.032833,-0.014021,0,-0.00063526,0,0,0,0.03611,6.5169e-05,0.010853,-0.38839,0.015676,0.032043,1.0668e-06,0.52,0.3,0
0.027527,0.0040188,0.036023,0.00016166,0.010855,-0.00031178,0,0,0.032718,-0.013902,0,-0.00081062,0,0,0,0.036026,0.00015895,0.010855,-0.49808,0.01568,0.031893,1.0564e-06,0.54,0.3,0
0.02818,0.0040494,0.035949,0.00024445,0.010858,-0.00029875,0,0,0.032618,-0.013798,0,-0.00077676,0,0,0,0.035951,0.00024195,0.010858,-0.47937,0.015684,0.031761,1.0472e-06,0.56,0.3,0
0.028831,0.0040819,0.035899,0.00025527,0.010846,-0.00022472,0,0,0.032568,-0.013768,0,-0.00058427,0,0,0,0.0359,0.00025385,0.010846,-0.36121,0.015667,0.031706,1.0423e-06,0.58,0.3,0
0.029483,0.0041179,0.035886,0.00016816,0.010816,-0.00012044,0,0,0.032591,-0.013843,0,-0.00031314,0,0,0,0.035887,0.00016776,0.010816,-0.19319,0.015624,0.031763,1.0439e-06,0.6,0.3,0
0.030135,0.0041577,0.035911,-1.8347e-05,0.010768,-2.24e-05,0,0,0.032687,-0.014022,0,-5.8241e-05,0,0,0,0.035911,-1.8361e-05,0.010768,-0.035721,0.015554,0.031933,1.0519e-06,0.62,0.3,0
0.03079,0.0042004,0.035958,-0.00028047,0.010703,3.8866e-05,0,0,0.032831,-0.014279,0,0.00010105,0,0,0,0.035958,-0.00028051,0.010703,0.06145,0.01546,0.032184,1.0642e-06,0.64,0.3,0
0.031448,0.0042445,0.036003,-0.00055842,0.010634,4.4474e-05,0,0,0.032981,-0.014549,0,0.00011563,0,0,0,0.036003,-0.00055848,0.010634,0.069696,0.015359,0.032447,1.0768e-06,0.66,0.3,0
0.032109,0.0042884,0.035979,-0.00081192,0.01055,1.5635e-05,0,0,0.033057,-0.014771,0,4.0652e-05,0,0,0,0.035979,-0.00081193,0.01055,0.024349,0.015239,0.032629,1.0823e-06,0.68,0.3,0
0.032771,0.0043329,0.035844,-0.00095664,0.010466,-2.3227e-05,0,0,0.032991,-0.01485,0,-6.039e-05,0,0,0,0.035844,-0.00095666,0.010466,-0.036162,0.015118,0.032625,1.0746e-06,0.7,0.3,0
0.033429,0.0043809,0.035345,-0.001169,0.010253,5.4886e-05,0,0,0.03262,-0.014848,0,0.0001427,0,0,0,0.035345,-0.0011691,0.010253,0.086124,0.014809,0.032352,1.0367e-06,0.72,0.3,0
0.034075,0.004445,0.035797,-0.0010254,0.010431,0.00026722,0,0,0.032975,-0.014894,0,0.00069476,0,0,0,0.035799,-0.0010273,0.010431,0.41576,0.015068,0.032642,1.0726e-06,0.74,0.3,0
0.034748,0.004548,0.035418,0.00010351,0.010656,0.00073365,0,0,0.047565,-0.018292,0,0.0033124,0,0,0,0.035439,8.2632e-05,0.010656,1.2844,0.015393,0.031502,9.7839e-07,0.76,0.3,0
0.035978,0.0047434,0.035487,0.0026618,0.011445,0.00080613,0,0,0.062511,-0.022836,0,0.0041919,0,0,0,0.035507,0.0026421,0.011445,1.406,0.016531,0.029467,9.2954e-07,0.78,0.3,0
0.037248,0.0049477,0.035846,0.0022263,0.011422,0.00019251,0,0,0.063504,-0.023908,0,0.0010011,0,0,0,0.035847,0.0022251,0.011422,0.32806,0.016498,0.030097,9.7204e-07,0.8,0.3,0
0.038518,0.0051008,0.035533,0.0012301,0.011029,-0.000308,0,0,0.063711,-0.025477,0,-0.0016016,0,0,0,0.035536,0.0012274,0.011029,-0.51439,0.015931,0.030609,9.7974e-07,0.82,0.3,0
0.039797,0.0052017,0.035408,0.00053478,0.010783,-0.00052501,0,0,0.064026,-0.026645,0,-0.0027301,0,0,0,0.035416,0.00052688,0.010783,-0.86232,0.015575,0.031058,9.9211e-07,0.84,0.3,0
0.041079,0.0052735,0.035233,3.7362e-05,0.010581,-0.00054852,0,0,0.064094,-0.027413,0,-0.0028523,0,0,0,0.035241,2.8815e-05,0.010581,-0.89267,0.015284,0.0313,9.927e-07,0.86,0.3,0
0.042361,0.0053268,0.035029,-0.00033564,0.010408,-0.00049926,0,0,0.064014,-0.027933,0,-0.0025962,0,0,0,0.035036,-0.00034269,0.010408,-0.80867,0.015034,0.031414,9.8644e-07,0.88,0.3,0
0.04364,0.0053672,0.034837,-0.00061403,0.010267,-0.00042183,0,0,0.063883,-0.028291,0,-0.0021935,0,0,0,0.034842,-0.00061905,0.010267,-0.68163,0.01483,0.031464,9.7817e-07,0.9,0.3,0
0.044916,0.0053977,0.034674,-0.00081963,0.010156,-0.00033548,0,0,0.063746,-0.028537,0,-0.0017445,0,0,0,0.034677,-0.0008228,0.010156,-0.54149,0.01467,0.03148,9.7011e-07,0.92,0.3,0
0.04619,0.0054203,0.034545,-0.00096715,0.010073,-0.00024835,0,0,0.063626,-0.028705,0,-0.0012914,0,0,0,0.034546,-0.00096889,0.010073,-0.40067,0.01455,0.031482,9.6329e-07,0.94,0.3,0
0.047461,0.0054359,0.034452,-0.0010665,0.010016,-0.0001634,0,0,0.063534,-0.028813,0,-0.00084968,0,0,0,0.034452,-0.0010672,0.010016,-0.26358,0.014467,0.031477,9.582e-07,0.96,0.3,0
0.048731,0.0054451,0.034396,-0.0011237,0.0099816,-8.0941e-05,0,0,0.063477,-0.028874,0,-0.00042089,0,0,0,0.034396,-0.0011239,0.0099816,-0.13056,0.014418,0.031473,9.5508e-07,0.98,0.3,0
0.05,0.0054481,0.034377,-0.0011425,0.0099705,2.9112e-05,0,0,0.063458,-0.028894,0,0.00015138,0,0,0,0.034377,-0.0011425,0.0099705,0.04696,0.014402,0.031471,9.5403e-07,1,0.3,0
0,0,0.029884,0.012807,0.012807,0.0027936,0,0,0.044399,-1.0842e-19,0,0.014527,0,0,0,0.030329,0.012362,0.012807,9.0587,0.018499,0.017749,2.8655e-07,0,0.32,0
0.00088797,0.00029053,0.029774,0.011559,0.0124,0.0027847,0,0,0.045172,-0.0021855,0,0.014481,0,0,0,0.03019,0.011143,0.0124,8.5011,0.017911,0.018451,3.1755e-07,0.02,0.32,0
0.0018069,0.00057869,0.030191,0.010575,0.01223,0.0027528,0,0,0.046698,-0.0043018,0,0.014315,0,0,0,0.03057,0.010196,0.01223,7.8391,0.017665,0.019437,3.6324e-07,0.04,0.32,0
0.0027559,0.000863,0.030601,0.0096261,0.012068,0.0027004,0,0,0.048185,-0.0063491,0,0.014042,0,0,0,0.030943,0.009284,0.012068,7.2197,0.017432,0.02041,4.0939e-07,0.06,0.32,0
0.0037343,0.0011417,0.031003,0.0087149,0.011916,0.0026255,0,0,0.049629,-0.0083216,0,0.013653,0,0,0,0.031309,0.0084098,0.011916,6.6285,0.017211,0.021363,4.556e-07,0.08,0.32,0
0.0047411,0.001413,0.031398,0.0078466,0.011773,0.0025283,0,0,0.051024,-0.01021,0,0.013147,0,0,0,0.031666,0.0075782,0.011773,6.0588,0.017006,0.022289,5.0146e-07,0.1,0.32,0
0.0057752,0.0016749,0.031783,0.0070267,0.011643,0.0024103,0,0,0.052365,-0.012003,0,0.012534,0,0,0,0.032016,0.0067942,0.011643,5.5093,0.016818,0.023181,5.4659e-07,0.12,0.32,0
0.0068357,0.0019257,0.03216,0.0062608,0.011526,0.0022748,0,0,0.053647,-0.01369,0,0.011829,0,0,0,0.032358,0.0060625,0.011526,4.9817,0.016649,0.024034,5.9068e-07,0.14,0.32,0
0.0079211,0.0021636,0.032526,0.0055544,0.011424,0.0021258,0,0,0.054865,-0.015261,0,0.011054,0,0,0,0.032693,0.0053879,0.011424,4.479,0.016502,0.024843,6.3349e-07,0.16,0.32,0
0.0090303,0.0023873,0.032885,0.0049124,0.011339,0.0019682,0,0,0.056019,-0.01671,0,0.010235,0,0,0,0.033023,0.0047746,0.011339,4.0052,0.016379,0.025605,6.7489e-07,0.18,0.32,0
0.010162,0.0025957,0.033238,0.0043392,0.011273,0.0018067,0,0,0.057108,-0.018028,0,0.0093949,0,0,0,0.03335,0.0042267,0.011273,3.5636,0.016283,0.026318,7.1484e-07,0.2,0.32,0
0.011315,0.0027879,0.033587,0.0038395,0.011228,0.0016456,0,0,0.058134,-0.01921,0,0.0085571,0,0,0,0.033678,0.0037488,0.011228,3.1567,0.016218,0.026979,7.5331e-07,0.22,0.32,0
0.012487,0.0029631,0.033937,0.0034186,0.011207,0.0014882,0,0,0.059098,-0.020249,0,0.0077384,0,0,0,0.034009,0.0033462,0.011207,2.7851,0.016187,0.027586,7.9032e-07,0.24,0.32,0
0.013678,0.0031208,0.034288,0.0030836,0.011211,0.0013358,0,0,0.059999,-0.021133,0,0.0069462,0,0,0,0.034345,0.0030265,0.011211,2.4468,0.016194,0.028134,8.2576e-07,0.26,0.32,0
0.014887,0.0032604,0.034643,0.0028447,0.011246,0.001187,0,0,0.060831,-0.021844,0,0.0061722,0,0,0,0.034687,0.0028005,0.011246,2.1348,0.016245,0.028614,8.5928e-07,0.28,0.32,0
0.016112,0.0033808,0.034998,0.0027176,0.011315,0.001035,0,0,0.061577,-0.022353,0,0.0053822,0,0,0,0.035032,0.0026845,0.011315,1.8346,0.016344,0.029011,8.9003e-07,0.3,0.32,0
0.01735,0.0034805,0.035346,0.0027259,0.011422,0.00086564,0,0,0.062204,-0.022609,0,0.0045013,0,0,0,0.035369,0.0027029,0.011422,1.519,0.016498,0.029297,9.1627e-07,0.32,0.32,0
0.0186,0.0035568,0.035665,0.0029053,0.011571,0.00065374,0,0,0.062644,-0.022531,0,0.0033994,0,0,0,0.035678,0.0028922,0.011571,1.1428,0.016714,0.029423,9.3463e-07,0.34,0.32,0
0.019856,0.0036058,0.035903,0.0033058,0.011763,0.0003674,0,0,0.062765,-0.021988,0,0.0019105,0,0,0,0.035907,0.0033017,0.011763,0.64567,0.016991,0.029306,9.3864e-07,0.36,0.32,0
0.021111,0.0036232,0.035977,0.0040155,0.011998,5.9216e-06,0,0,0.062346,-0.020754,0,3.0792e-05,0,0,0,0.035977,0.0040155,0.011998,0.010615,0.01733,0.028812,9.1793e-07,0.38,0.32,0
0.02235,0.0036115,0.03593,0.0052,0.012339,-0.00033526,0,0,0.061337,-0.018561,0,-0.0017434,0,0,0,0.035934,0.0051964,0.012339,-0.625,0.017823,0.027861,8.6952e-07,0.4,0.32,0
0.023564,0.0035857,0.035731,0.0021892,0.011376,-0.00044391,0,0,0.046838,-0.015924,0,-0.001798,0,0,0,0.035738,0.002183,0.011376,-0.78017,0.016432,0.030092,9.4522e-07,0.42,0.32,0
0.024223,0.0035909,0.035739,-0.00058483,0.010546,-0.00032527,0,0,0.032751,-0.014471,0,-0.0008457,0,0,0,0.035742,-0.00058774,0.010546,-0.51301,0.015234,0.032239,1.0545e-06,0.44,0.32,0
0.024874,0.0036101,0.035712,3.0331e-05,0.010723,-9.9058e-05,0,0,0.032486,-0.0139,0,-0.00025755,0,0,0,0.035713,3.0056e-05,0.010723,-0.15906,0.015489,0.031718,1.0331e-06,0.46,0.32,0
0.025523,0.0036406,0.03577,9.8157e-05,0.01076,-5.9636e-05,0,0,0.032512,-0.013861,0,-0.00015505,0,0,0,0.03577,9.8058e-05,0.01076,-0.095786,0.015543,0.031715,1.0359e-06,0.48,0.32,0
0.026174,0.0036752,0.0359,0.0001301,0.010809,-0.00012227,0,0,0.032618,-0.013883,0,-0.00031789,0,0,0,0.0359,0.00012969,0.010809,-0.19584,0.015613,0.031805,1.0463e-06,0.5,0.32,0
0.026828,0.0037089,0.035953,0.00014288,0.010829,-0.00020781,0,0,0.032662,-0.013892,0,-0.00054029,0,0,0,0.035955,0.00014167,0.010829,-0.33247,0.015642,0.031844,1.0507e-06,0.52,0.32,0
0.027481,0.0037412,0.035965,0.00017445,0.010842,-0.00025328,0,0,0.03266,-0.013867,0,-0.00065852,0,0,0,0.035966,0.00017265,0.010842,-0.40544,0.01566,0.03183,1.0507e-06,0.54,0.32,0
0.028134,0.0037729,0.03595,0.00019188,0.010842,-0.00024806,0,0,0.032639,-0.013846,0,-0.00064496,0,0,0,0.035951,0.00019016,0.010842,-0.39745,0.015661,0.031802,1.0488e-06,0.56,0.32,0
0.028787,0.0038055,0.035934,0.00016343,0.010829,-0.00019993,0,0,0.032636,-0.013866,0,-0.00051981,0,0,0,0.035935,0.00016231,0.010829,-0.32022,0.015642,0.03181,1.0483e-06,0.58,0.32,0
0.02944,0.0038398,0.035932,6.5728e-05,0.010799,-0.00012954,0,0,0.032673,-0.013954,0,-0.00033682,0,0,0,0.035932,6.526e-05,0.010799,-0.20694,0.015599,0.031885,1.0512e-06,0.6,0.32,0
0.030093,0.0038762,0.035945,-0.00010273,0.010753,-5.9737e-05,0,0,0.03275,-0.014112,0,-0.00015532,0,0,0,0.035945,-0.00010283,0.010753,-0.094947,0.015532,0.032031,1.0576e-06,0.62,0.32,0
0.030749,0.0039145,0.035965,-0.00032108,0.010693,-9.3753e-06,0,0,0.032853,-0.014318,0,-2.4376e-05,0,0,0,0.035965,-0.00032109,0.010693,-0.014804,0.015445,0.032223,1.066e-06,0.64,0.32,0
0.031408,0.0039539,0.035966,-0.0005584,0.010622,1.8691e-05,0,0,0.032947,-0.014535,0,4.8596e-05,0,0,0,0.035966,-0.00055841,0.010622,0.02932,0.015343,0.032414,1.0735e-06,0.66,0.32,0
0.032067,0.0039942,0.035926,-0.00078126,0.010543,4.6305e-05,0,0,0.032997,-0.014722,0,0.00012039,0,0,0,0.035926,-0.00078131,0.010543,0.072277,0.015229,0.032557,1.0766e-06,0.68,0.32,0
0.032727,0.0040367,0.035767,-0.0010253,0.010422,0.00015634,0,0,0.032947,-0.014882,0,0.00040648,0,0,0,0.035767,-0.0010259,0.010422,0.24346,0.015055,0.032613,1.0698e-06,0.7,0.32,0
0.033385,0.0040866,0.035371,-0.0013613,0.010203,0.00043512,0,0,0.032719,-0.015034,0,0.0011313,0,0,0,0.035377,-0.0013664,0.010203,0.67858,0.014738,0.032539,1.045e-06,0.72,0.32,0
0.034036,0.0041469,0.034416,-0.0021887,0.0096683,0.00065671,0,0,0.032173,-0.015414,0,0.0017074,0,0,0,0.034428,-0.0022005,0.0096683,1.0275,0.013965,0.03237,9.8558e-07,0.74,0.32,0
0.034672,0.0041789,0.034492,0.00036822,0.010458,0.0010035,0,0,0.046591,-0.017489,0,0.0042366,0,0,0,0.034525,0.00033492,0.010458,1.7498,0.015106,0.030498,8.8987e-07,0.76,0.32,0
0.0359,0.0043018,0.034974,0.0035639,0.011561,-0.00015946,0,0,0.060873,-0.020794,0,-0.00082918,0,0,0,0.034975,0.003563,0.011561,-0.29086,0.0167,0.028274,8.5534e-07,0.78,0.32,0
0.037107,0.0044896,0.035046,0.0023338,0.011214,-2.6987e-06,0,0,0.061964,-0.023089,0,-1.4033e-05,0,0,0,0.035046,0.0023338,0.011214,-0.0047267,0.016198,0.0293,9.0303e-07,0.8,0.32,0
0.038378,0.0045926,0.035828,0.0012651,0.011128,-0.00028653,0,0,0.064221,-0.025644,0,-0.00149,0,0,0,0.035831,0.0012627,0.011128,-0.47494,0.016074,0.030842,1.0035e-06,0.82,0.32,0
0.039676,0.0046652,0.035938,0.00055224,0.010947,-0.00032091,0,0,0.064977,-0.027027,0,-0.0016687,0,0,0,0.035941,0.00054933,0.010947,-0.51955,0.015813,0.031507,1.0364e-06,0.84,0.32,0
0.040978,0.0047201,0.035733,4.7631e-06,0.010721,-0.00030452,0,0,0.06503,-0.027863,0,-0.0015835,0,0,0,0.035736,2.1678e-06,0.010721,-0.4883,0.015486,0.031761,1.0359e-06,0.86,0.32,0
0.042277,0.0047627,0.035481,-0.00039146,0.010527,-0.00026752,0,0,0.064881,-0.028388,0,-0.0013911,0,0,0,0.035483,-0.00039345,0.010527,-0.42726,0.015206,0.031853,1.0261e-06,0.88,0.32,0
0.043573,0.0047961,0.035245,-0.00067841,0.01037,-0.00022129,0,0,0.064676,-0.028726,0,-0.0011507,0,0,0,0.035247,-0.00067978,0.01037,-0.35292,0.014979,0.031872,1.0142e-06,0.9,0.32,0
0.044864,0.004822,0.035046,-0.00088494,0.010248,-0.00017296,0,0,0.064474,-0.028947,0,-0.00089941,0,0,0,0.035047,-0.00088578,0.010248,-0.2758,0.014803,0.03186,1.003e-06,0.92,0.32,0
0.046152,0.0048415,0.034889,-0.0010303,0.010158,-0.00012614,0,0,0.064302,-0.029089,0,-0.00065593,0,0,0,0.03489,-0.0010308,0.010158,-0.2012,0.014672,0.031837,9.9376e-07,0.94,0.32,0
0.047436,0.0048551,0.034777,-0.0011268,0.010095,-8.2009e-05,0,0,0.064173,-0.029177,0,-0.00042645,0,0,0,0.034777,-0.001127,0.010095,-0.13087,0.014582,0.031814,9.8693e-07,0.96,0.32,0
0.048719,0.0048633,0.03471,-0.0011821,0.010058,-4.0311e-05,0,0,0.064094,-0.029225,0,-0.00020962,0,0,0,0.03471,-0.0011821,0.010058,-0.06435,0.014529,0.031799,9.8278e-07,0.98,0.32,0
0.05,0.0048659,0.034688,-0.0012,0.010046,2.5821e-05,0,0,0.064068,-0.02924,0,0.00013427,0,0,0,0.034688,-0.0012001,0.010046,0.041224,0.014511,0.031793,9.8139e-07,1,0.32,0
0,0,0.029882,0.012806,0.012806,0.0023763,0,0,0.044396,-4.3368e-19,0,0.012357,0,0,0,0.030206,0.012482,0.012806,7.7767,0.018498,0.017564,2.7798e-07,0,0.34,0
0.00088791,0.00024713,0.029773,0.011578,0.012405,0.0023678,0,0,0.045156,-0.0021515,0,0.012313,0,0,0,0.030076,0.011275,0.012405,7.2942,0.017919,0.018262,3.0878e-07,0.02,0.34,0
0.0018062,0.00049336,0.030184,0.010614,0.012239,0.0023424,0,0,0.046656,-0.0042268,0,0.012181,0,0,0,0.030461,0.010337,0.012239,6.7312,0.017679,0.019243,3.5393e-07,0.04,0.34,0
0.0027542,0.00073717,0.030589,0.0096867,0.012083,0.0022962,0,0,0.048116,-0.0062293,0,0.01194,0,0,0,0.030838,0.0094374,0.012083,6.1959,0.017453,0.020208,3.9947e-07,0.06,0.34,0
0.0037309,0.0009769,0.030987,0.0087985,0.011936,0.0022282,0,0,0.049534,-0.0081568,0,0.011587,0,0,0,0.031209,0.0085769,0.011936,5.6781,0.01724,0.021153,4.4511e-07,0.08,0.34,0
0.0047355,0.0012108,0.03138,0.0079521,0.011799,0.0021385,0,0,0.050909,-0.010003,0,0.01112,0,0,0,0.031573,0.0077585,0.011799,5.1732,0.017044,0.022073,4.9056e-07,0.1,0.34,0
0.0057672,0.0014372,0.031766,0.0071517,0.011675,0.0020288,0,0,0.052236,-0.011761,0,0.01055,0,0,0,0.031932,0.0069856,0.011675,4.6804,0.016864,0.022964,5.3555e-07,0.12,0.34,0
0.006825,0.0016544,0.032146,0.0064019,0.011564,0.0019015,0,0,0.053512,-0.013423,0,0.0098878,0,0,0,0.032286,0.0062622,0.011564,4.2015,0.016704,0.023819,5.7982e-07,0.14,0.34,0
0.0079077,0.0018611,0.032521,0.0057073,0.011468,0.00176,0,0,0.054736,-0.014979,0,0.0091519,0,0,0,0.032636,0.0055923,0.011468,3.7394,0.016566,0.024637,6.2322e-07,0.16,0.34,0
0.0090144,0.0020558,0.032891,0.0050725,0.011389,0.0016081,0,0,0.055905,-0.016423,0,0.0083622,0,0,0,0.032984,0.0049798,0.011389,3.2975,0.016451,0.025413,6.656e-07,0.18,0.34,0
0.010144,0.0022377,0.033259,0.0045021,0.011328,0.0014499,0,0,0.05702,-0.017748,0,0.0075396,0,0,0,0.033332,0.0044292,0.011328,2.8791,0.016363,0.026145,7.0693e-07,0.2,0.34,0
0.011295,0.002406,0.033627,0.0040012,0.011288,0.0012893,0,0,0.05808,-0.018947,0,0.0067042,0,0,0,0.033683,0.0039452,0.011288,2.4872,0.016306,0.026831,7.4718e-07,0.22,0.34,0
0.012467,0.0025602,0.033997,0.003576,0.011272,0.0011295,0,0,0.059085,-0.020009,0,0.0058736,0,0,0,0.034039,0.0035341,0.011272,2.1235,0.016282,0.027466,7.8627e-07,0.24,0.34,0
0.013659,0.0026999,0.03437,0.0032351,0.011281,0.00097326,0,0,0.06003,-0.020921,0,0.0050609,0,0,0,0.0344,0.0032046,0.011281,1.7887,0.016296,0.028043,8.2395e-07,0.26,0.34,0
0.014868,0.0028249,0.034744,0.002991,0.01132,0.00082148,0,0,0.060901,-0.021656,0,0.0042717,0,0,0,0.034765,0.0029698,0.01132,1.481,0.016352,0.028551,8.5959e-07,0.28,0.34,0
0.016095,0.002935,0.035111,0.0028632,0.011392,0.00067305,0,0,0.061668,-0.022175,0,0.0034998,0,0,0,0.035125,0.0028491,0.011392,1.1951,0.016455,0.028965,8.9175e-07,0.3,0.34,0
0.017335,0.0030301,0.035451,0.0028811,0.0115,0.00052344,0,0,0.062273,-0.022408,0,0.0027219,0,0,0,0.035459,0.0028727,0.0115,0.92051,0.016611,0.029244,9.1761e-07,0.32,0.34,0
0.018586,0.0031093,0.035729,0.0030895,0.011646,0.00036419,0,0,0.062617,-0.022246,0,0.0018938,0,0,0,0.035733,0.0030854,0.011646,0.6392,0.016821,0.02932,9.3224e-07,0.34,0.34,0
0.01984,0.0031718,0.035897,0.0035536,0.011835,0.00018758,0,0,0.062561,-0.021532,0,0.00097543,0,0,0,0.035898,0.0035525,0.011835,0.33228,0.017095,0.029102,9.2871e-07,0.36,0.34,0
0.021088,0.0032172,0.035929,0.0043453,0.012082,6.0383e-07,0,0,0.062002,-0.020116,0,3.1399e-06,0,0,0,0.035929,0.0043453,0.012082,0.0010954,0.017452,0.028514,9.017e-07,0.38,0.34,0
0.02232,0.0032474,0.035842,0.0054334,0.012383,-0.00015351,0,0,0.060995,-0.018068,0,-0.00079825,0,0,0,0.035843,0.0054327,0.012383,-0.28923,0.017886,0.0276,8.5332e-07,0.4,0.34,0
0.023528,0.0032682,0.035651,0.0022202,0.011362,-0.00023949,0,0,0.046677,-0.015845,0,-0.00091513,0,0,0,0.035653,0.0022185,0.011362,-0.4136,0.016411,0.029988,9.3822e-07,0.42,0.34,0
0.024187,0.0032993,0.035617,-0.00078507,0.01045,-0.00024146,0,0,0.032718,-0.014605,0,-0.00062779,0,0,0,0.035619,-0.00078667,0.01045,-0.38002,0.015094,0.032288,1.0496e-06,0.44,0.34,0
0.024837,0.0033315,0.035598,-6.6394e-05,0.010659,-0.00021636,0,0,0.03242,-0.013943,0,-0.00056253,0,0,0,0.035599,-6.7707e-05,0.010659,-0.34757,0.015397,0.031695,1.0262e-06,0.46,0.34,0
0.025484,0.0033653,0.035674,0.00017345,0.010754,-0.00020499,0,0,0.032396,-0.013755,0,-0.00053297,0,0,0,0.035675,0.00017227,0.010754,-0.33082,0.015534,0.031571,1.0254e-06,0.48,0.34,0
0.026132,0.0033992,0.035795,0.00019787,0.010798,-0.00022776,0,0,0.032496,-0.01378,0,-0.00059218,0,0,0,0.035796,0.00019642,0.010798,-0.36658,0.015597,0.03166,1.0351e-06,0.5,0.34,0
0.026783,0.0034322,0.035903,0.00018563,0.010827,-0.00024915,0,0,0.032599,-0.013833,0,-0.0006478,0,0,0,0.035905,0.00018389,0.010827,-0.39965,0.015638,0.031766,1.045e-06,0.52,0.34,0
0.027436,0.0034641,0.035962,0.00017352,0.010841,-0.00025269,0,0,0.032658,-0.013867,0,-0.00065699,0,0,0,0.035964,0.00017174,0.010841,-0.40451,0.015659,0.031829,1.0506e-06,0.54,0.34,0
0.02809,0.0034956,0.035985,0.00015356,0.010842,-0.00023183,0,0,0.032687,-0.013894,0,-0.00060274,0,0,0,0.035986,0.00015206,0.010842,-0.37067,0.01566,0.031864,1.0531e-06,0.56,0.34,0
0.028744,0.0035273,0.035991,9.9744e-05,0.010827,-0.000191,0,0,0.032713,-0.013946,0,-0.00049659,0,0,0,0.035992,9.8728e-05,0.010827,-0.30489,0.015639,0.031911,1.0553e-06,0.58,0.34,0
0.029398,0.0035597,0.035995,-6.4691e-06,0.010797,-0.00013794,0,0,0.032758,-0.014044,0,-0.00035864,0,0,0,0.035996,-6.9976e-06,0.010797,-0.21952,0.015595,0.031999,1.059e-06,0.6,0.34,0
0.030054,0.0035932,0.036004,-0.00016669,0.010751,-8.178e-05,0,0,0.032828,-0.014193,0,-0.00021263,0,0,0,0.036004,-0.00016688,0.010751,-0.12954,0.015529,0.032134,1.0647e-06,0.62,0.34,0
0.030711,0.0036277,0.03601,-0.00036518,0.010693,-2.9364e-05,0,0,0.032912,-0.014376,0,-7.6347e-05,0,0,0,0.03601,-0.00036521,0.010693,-0.046252,0.015446,0.032299,1.0714e-06,0.64,0.34,0
0.031371,0.0036631,0.036012,-0.00057719,0.01063,1.7667e-05,0,0,0.032996,-0.01457,0,4.5934e-05,0,0,0,0.036012,-0.0005772,0.01063,0.027665,0.015355,0.03247,1.0781e-06,0.66,0.34,0
0.032031,0.0036995,0.03603,-0.00079158,0.010571,7.3334e-05,0,0,0.033096,-0.014772,0,0.00019067,0,0,0,0.03603,-0.00079172,0.010571,0.11411,0.01527,0.032658,1.0862e-06,0.68,0.34,0
0.032694,0.0037377,0.036171,-0.0010299,0.010542,0.00017245,0,0,0.033317,-0.015044,0,0.00044837,0,0,0,0.036171,-0.0010307,0.010542,0.2656,0.015228,0.032976,1.1062e-06,0.7,0.34,0
0.033364,0.0037795,0.036682,-0.0013941,0.010586,0.00040523,0,0,0.033924,-0.015574,0,0.0010536,0,0,0,0.036686,-0.0013984,0.010586,0.60968,0.015291,0.033729,1.1649e-06,0.72,0.34,0
0.034051,0.0038284,0.037525,-0.0020915,0.01063,0.00055524,0,0,0.034963,-0.016538,0,0.0014436,0,0,0,0.037533,-0.0020993,0.01063,0.80282,0.015355,0.035046,1.268e-06,0.74,0.34,0
0.034763,0.0038485,0.033432,0.001057,0.010347,0.0011899,0,0,0.040905,-0.016207,0,0.0050126,0,0,0,0.033488,0.0010003,0.010347,2.441,0.014945,0.02897,1.0055e-06,0.76,0.34,0
0.035634,0.0039116,0.041163,0.0025957,0.013128,-6.3902e-05,0,0,0.051102,-0.018434,0,-0.001285,0,0,0,0.041181,0.0025776,0.013128,-0.38139,0.018962,0.034568,1.6352e-06,0.78,0.34,0
0.036957,0.0040241,0.037615,0.0028695,0.012145,-3.2735e-05,0,0,0.066221,-0.024117,0,-0.00017022,0,0,0,0.037615,0.0028695,0.012145,-0.053981,0.017543,0.031161,1.1023e-06,0.8,0.34,0
0.038283,0.004075,0.036988,0.0015135,0.011551,-7.6195e-05,0,0,0.066138,-0.026096,0,-0.00039622,0,0,0,0.036989,0.0015134,0.011551,-0.12306,0.016684,0.031673,1.0964e-06,0.82,0.34,0
0.039603,0.0041206,0.036456,0.00059868,0.011116,-1.6803e-05,0,0,0.065883,-0.027346,0,-8.7378e-05,0,0,0,0.036456,0.00059868,0.011116,-0.02685,0.016057,0.031925,1.0802e-06,0.84,0.34,0
0.040918,0.004159,0.036078,9.2008e-07,0.010823,-1.8551e-06,0,0,0.06566,-0.028139,0,-9.6463e-06,0,0,0,0.036078,9.1998e-07,0.010823,-0.0029462,0.015634,0.032066,1.066e-06,0.86,0.34,0
0.042229,0.0041913,0.035759,-0.00041169,0.010604,6.3466e-06,0,0,0.065404,-0.028642,0,3.3002e-05,0,0,0,0.035759,-0.00041169,0.010604,0.010053,0.015317,0.032113,1.0507e-06,0.88,0.34,0
0.043534,0.0042181,0.035489,-0.00070224,0.010436,1.1663e-05,0,0,0.065138,-0.02896,0,6.0646e-05,0,0,0,0.035489,-0.00070225,0.010436,0.018464,0.015074,0.032106,1.0358e-06,0.9,0.34,0
0.044834,0.0042399,0.035267,-0.0009077,0.010308,1.4312e-05,0,0,0.064894,-0.02916,0,7.4422e-05,0,0,0,0.035267,-0.00090771,0.010308,0.022668,0.014889,0.032073,1.0225e-06,0.92,0.34,0
0.04613,0.0042568,0.035094,-0.0010505,0.010213,1.4026e-05,0,0,0.06469,-0.029285,0,7.2936e-05,0,0,0,0.035094,-0.0010505,0.010213,0.022234,0.014752,0.032034,1.0117e-06,0.94,0.34,0
0.047422,0.0042688,0.034971,-0.0011445,0.010148,1.1047e-05,0,0,0.064539,-0.02936,0,5.7446e-05,0,0,0,0.034971,-0.0011445,0.010148,0.017526,0.014658,0.032,1.0038e-06,0.96,0.34,0
0.048712,0.0042761,0.034897,-0.0011979,0.01011,6.0564e-06,0,0,0.064447,-0.0294,0,3.1493e-05,0,0,0,0.034897,-0.0011979,0.01011,0.0096137,0.014603,0.031978,9.9901e-07,0.98,0.34,0
0.05,0.0042785,0.034873,-0.0012153,0.010097,2.3232e-05,0,0,0.064416,-0.029413,0,0.00012081,0,0,0,0.034873,-0.0012153,0.010097,0.036885,0.014585,0.03197,9.9741e-07,1,0.34,0
0,0,0.029855,0.012795,0.012795,0.0019661,0,0,0.044356,4.3368e-19,0,0.010224,0,0,0,0.030079,0.012571,0.012795,6.4898,0.018482,0.017396,2.7025e-07,0,0.36,0
0.00088711,0.00020447,0.029748,0.011589,0.012401,0.0019578,0,0,0.045102,-0.002111,0,0.010181,0,0,0,0.029957,0.01138,0.012401,6.0844,0.017913,0.018087,3.0065e-07,0.02,0.36,0
0.0018041,0.00040961,0.030151,0.010646,0.012239,0.001939,0,0,0.046572,-0.0041423,0,0.010083,0,0,0,0.030342,0.010455,0.012239,5.6224,0.017679,0.019058,3.4502e-07,0.04,0.36,0
0.00275,0.00061382,0.030549,0.0097413,0.012087,0.0018983,0,0,0.048001,-0.0060988,0,0.0098714,0,0,0,0.030721,0.0095695,0.012087,5.1704,0.017459,0.020011,3.8971e-07,0.06,0.36,0
0.0037241,0.00081546,0.030941,0.0088754,0.011945,0.0018357,0,0,0.04939,-0.0079808,0,0.0095455,0,0,0,0.031093,0.0087237,0.011945,4.7233,0.017254,0.020945,4.3452e-07,0.08,0.36,0
0.0047256,0.0010129,0.031328,0.0080502,0.011813,0.0017516,0,0,0.050738,-0.0097846,0,0.0091082,0,0,0,0.031459,0.0079192,0.011813,4.2792,0.017064,0.021855,4.7924e-07,0.1,0.36,0
0.0057536,0.0012045,0.031711,0.0072691,0.011694,0.0016475,0,0,0.052044,-0.011505,0,0.0085669,0,0,0,0.031822,0.0071586,0.011694,3.8388,0.016891,0.022737,5.2365e-07,0.12,0.36,0
0.0068073,0.0013888,0.03209,0.0065358,0.011588,0.0015255,0,0,0.053305,-0.013135,0,0.0079326,0,0,0,0.03218,0.006445,0.011588,3.4043,0.016738,0.023588,5.6757e-07,0.14,0.36,0
0.0078858,0.0015644,0.032465,0.0058542,0.011496,0.0013884,0,0,0.05452,-0.014668,0,0.0072196,0,0,0,0.032537,0.005782,0.011496,2.9786,0.016605,0.024405,6.1085e-07,0.16,0.36,0
0.0089881,0.0017304,0.032838,0.0052287,0.01142,0.0012393,0,0,0.055687,-0.016097,0,0.0064443,0,0,0,0.032893,0.0051732,0.01142,2.5649,0.016495,0.025185,6.5338e-07,0.18,0.36,0
0.010113,0.0018858,0.033211,0.0046638,0.011362,0.0010816,0,0,0.056806,-0.017416,0,0.0056245,0,0,0,0.033252,0.0046228,0.011362,2.1668,0.016412,0.025925,6.9512e-07,0.2,0.36,0
0.01126,0.00203,0.033585,0.0041646,0.011325,0.00091908,0,0,0.057877,-0.018617,0,0.0047792,0,0,0,0.033614,0.0041359,0.011325,1.7875,0.016358,0.026622,7.3603e-07,0.22,0.36,0
0.012428,0.0021628,0.033963,0.0037376,0.01131,0.00075533,0,0,0.058898,-0.019689,0,0.0039277,0,0,0,0.033982,0.0037187,0.01131,1.4306,0.016337,0.027272,7.7602e-07,0.24,0.36,0
0.013616,0.002284,0.034346,0.0033919,0.011321,0.00059438,0,0,0.059863,-0.020616,0,0.0030908,0,0,0,0.034357,0.0033805,0.011321,1.0997,0.016353,0.027868,8.1482e-07,0.26,0.36,0
0.014823,0.0023941,0.03473,0.0031404,0.011361,0.00044083,0,0,0.060758,-0.021374,0,0.0022923,0,0,0,0.034736,0.0031343,0.011361,0.79936,0.01641,0.028396,8.5175e-07,0.28,0.36,0
0.016047,0.0024938,0.035107,0.0030031,0.011433,0.00030049,0,0,0.061552,-0.021918,0,0.0015626,0,0,0,0.03511,0.0030002,0.011433,0.53623,0.016514,0.028833,8.8537e-07,0.3,0.36,0
0.017285,0.0025841,0.035458,0.00301,0.01154,0.00018138,0,0,0.062185,-0.022179,0,0.0009432,0,0,0,0.035459,0.0030089,0.01154,0.32027,0.016669,0.029136,9.1278e-07,0.32,0.36,0
0.018534,0.002667,0.035746,0.0032065,0.011686,9.4294e-05,0,0,0.062556,-0.022046,0,0.00049033,0,0,0,0.035746,0.0032063,0.011686,0.16603,0.016879,0.029237,9.2895e-07,0.34,0.36,0
0.019787,0.0027445,0.035923,0.0036585,0.011874,4.8234e-05,0,0,0.062526,-0.021361,0,0.00025082,0,0,0,0.035923,0.0036585,0.011874,0.085655,0.017152,0.029042,9.2683e-07,0.36,0.36,0
0.021035,0.0028185,0.035964,0.0044377,0.01212,3.7619e-05,0,0,0.061993,-0.019975,0,0.00019562,0,0,0,0.035964,0.0044377,0.01212,0.068369,0.017507,0.028473,9.0096e-07,0.38,0.36,0
0.022267,0.0028888,0.035886,0.0055108,0.012419,2.292e-05,0,0,0.061013,-0.017961,0,0.00011918,0,0,0,0.035886,0.0055108,0.012419,0.043234,0.017938,0.027577,8.5358e-07,0.4,0.36,0
0.023476,0.0029519,0.035704,0.0022941,0.011399,-3.7857e-05,0,0,0.046704,-0.015783,0,-6.2522e-05,0,0,0,0.035704,0.0022939,0.011399,-0.051933,0.016466,0.029974,9.4015e-07,0.42,0.36,0
0.024135,0.0030067,0.035679,-0.00072108,0.010487,-0.00017565,0,0,0.032749,-0.014571,0,-0.00045668,0,0,0,0.03568,-0.00072193,0.010487,-0.27647,0.015148,0.032291,1.0531e-06,0.44,0.36,0
0.024785,0.0030524,0.035668,-2.9385e-05,0.010692,-0.0003034,0,0,0.032469,-0.013937,0,-0.00078884,0,0,0,0.035671,-3.1963e-05,0.010692,-0.48692,0.015443,0.03173,1.0313e-06,0.46,0.36,0
0.025434,0.0030904,0.035752,0.00018833,0.010782,-0.00036937,0,0,0.032461,-0.013772,0,-0.00096036,0,0,0,0.035756,0.0001845,0.010782,-0.595,0.015574,0.031633,1.0319e-06,0.48,0.36,0
0.026084,0.003124,0.035877,0.00019527,0.010822,-0.00036097,0,0,0.032572,-0.013815,0,-0.00093852,0,0,0,0.035881,0.00019162,0.010822,-0.57954,0.015631,0.031739,1.0427e-06,0.5,0.36,0
0.026737,0.0031556,0.035989,0.000169,0.010847,-0.00032174,0,0,0.032684,-0.013882,0,-0.00083652,0,0,0,0.035992,0.00016611,0.010847,-0.51458,0.015668,0.031857,1.0532e-06,0.52,0.36,0
0.027391,0.0031865,0.03605,0.00014528,0.010859,-0.00027425,0,0,0.032749,-0.013928,0,-0.00071305,0,0,0,0.036053,0.00014318,0.010859,-0.4376,0.015685,0.03193,1.0592e-06,0.54,0.36,0
0.028047,0.0032172,0.036075,0.00011591,0.010857,-0.00022998,0,0,0.032783,-0.013964,0,-0.00059796,0,0,0,0.036076,0.00011444,0.010857,-0.36643,0.015682,0.031974,1.0622e-06,0.56,0.36,0
0.028703,0.0032476,0.036081,5.4552e-05,0.010841,-0.00018864,0,0,0.032813,-0.014022,0,-0.00049045,0,0,0,0.036082,5.3565e-05,0.010841,-0.29999,0.015659,0.032028,1.0647e-06,0.58,0.36,0
0.029359,0.003278,0.036086,-5.7335e-05,0.010809,-0.00014631,0,0,0.032861,-0.014126,0,-0.00038041,0,0,0,0.036087,-5.7927e-05,0.010809,-0.23194,0.015613,0.032121,1.0687e-06,0.6,0.36,0
0.030017,0.0033085,0.036095,-0.00022127,0.010762,-9.7791e-05,0,0,0.032932,-0.014278,0,-0.00025426,0,0,0,0.036095,-0.00022153,0.010762,-0.15428,0.015545,0.032259,1.0745e-06,0.62,0.36,0
0.030676,0.0033395,0.0361,-0.00042128,0.010704,-4.0493e-05,0,0,0.033016,-0.014462,0,-0.00010528,0,0,0,0.036101,-0.00042132,0.010704,-0.063525,0.015461,0.032424,1.0813e-06,0.64,0.36,0
0.031338,0.0033711,0.036101,-0.00063223,0.010641,2.2342e-05,0,0,0.033098,-0.014655,0,5.8089e-05,0,0,0,0.036101,-0.00063224,0.010641,0.034849,0.01537,0.032593,1.0877e-06,0.66,0.36,0
0.032,0.0034033,0.036115,-0.00084287,0.010582,7.0941e-05,0,0,0.033193,-0.014852,0,0.00018445,0,0,0,0.036115,-0.00084301,0.010582,0.10998,0.015284,0.032774,1.0954e-06,0.68,0.36,0
0.032665,0.0034349,0.036248,-0.0010743,0.010552,6.4113e-05,0,0,0.033405,-0.015114,0,0.00016669,0,0,0,0.036248,-0.0010744,0.010552,0.098423,0.015242,0.033079,1.1145e-06,0.7,0.36,0
0.033337,0.0034636,0.036739,-0.0014326,0.010592,-9.4786e-05,0,0,0.033992,-0.015632,0,-0.00024644,0,0,0,0.03674,-0.0014328,0.010592,-0.14227,0.0153,0.033804,1.1709e-06,0.72,0.36,0
0.034025,0.0034854,0.037536,-0.0021301,0.010622,-0.00018084,0,0,0.034989,-0.016577,0,-0.00047018,0,0,0,0.037537,-0.0021309,0.010622,-0.2612,0.015343,0.035076,1.2694e-06,0.74,0.36,0
0.034736,0.0035369,0.033425,0.00097583,0.01032,-0.00079502,0,0,0.040947,-0.016321,0,-0.0035592,0,0,0,0.033456,0.00094516,0.01032,-1.7162,0.014907,0.028985,1.005e-06,0.76,0.36,0
0.035609,0.0035537,0.041272,0.0026518,0.013177,0.0005404,0,0,0.051226,-0.018418,0,0.0030166,0,0,0,0.041298,0.0026258,0.013177,1.0888,0.019034,0.034634,1.6445e-06,0.78,0.36,0
0.036937,0.0035249,0.037737,0.0028888,0.012188,0.00042021,0,0,0.066427,-0.024177,0,0.0021851,0,0,0,0.037742,0.0028837,0.012188,0.69076,0.017604,0.031262,1.1133e-06,0.8,0.36,0
0.038266,0.0035487,0.037076,0.0015235,0.01158,0.00044406,0,0,0.066289,-0.026146,0,0.0023091,0,0,0,0.037081,0.0015179,0.01158,0.7155,0.016726,0.031751,1.1047e-06,0.82,0.36,0
0.039588,0.0035713,0.036529,0.0006073,0.011141,0.00037105,0,0,0.066008,-0.027387,0,0.0019295,0,0,0,0.036532,0.00060347,0.011141,0.59176,0.016092,0.031989,1.0869e-06,0.84,0.36,0
0.040906,0.0035946,0.036144,1.3115e-05,0.010847,0.00033629,0,0,0.065772,-0.028168,0,0.0017487,0,0,0,0.036147,9.9856e-06,0.010847,0.53321,0.015668,0.03212,1.0719e-06,0.86,0.36,0
0.042219,0.0036171,0.035822,-0.00039525,0.010628,0.00030017,0,0,0.065504,-0.02866,0,0.0015609,0,0,0,0.035824,-0.00039774,0.010628,0.47484,0.015352,0.032159,1.056e-06,0.88,0.36,0
0.043527,0.0036377,0.035548,-0.00068169,0.01046,0.00025852,0,0,0.065229,-0.028968,0,0.0013443,0,0,0,0.03555,-0.00068353,0.01046,0.4088,0.015109,0.032145,1.0405e-06,0.9,0.36,0
0.044829,0.0036556,0.035323,-0.00088356,0.010332,0.00021178,0,0,0.064977,-0.02916,0,0.0011013,0,0,0,0.035325,-0.00088479,0.010332,0.33512,0.014924,0.032106,1.0268e-06,0.92,0.36,0
0.046126,0.0036701,0.035148,-0.0010235,0.010238,0.00016145,0,0,0.064769,-0.029278,0,0.00083955,0,0,0,0.035149,-0.0010242,0.010238,0.25573,0.014788,0.032062,1.0157e-06,0.94,0.36,0
0.047419,0.0036807,0.035024,-0.0011153,0.010173,0.00010878,0,0,0.064614,-0.029349,0,0.00056566,0,0,0,0.035024,-0.0011157,0.010173,0.17246,0.014694,0.032025,1.0076e-06,0.96,0.36,0
0.04871,0.0036872,0.03495,-0.0011675,0.010135,5.4715e-05,0,0,0.064519,-0.029386,0,0.00028452,0,0,0,0.03495,-0.0011676,0.010135,0.086798,0.014639,0.032,1.0027e-06,0.98,0.36,0
0.05,0.0036894,0.034925,-0.0011845,0.010122,2.1013e-05,0,0,0.064488,-0.029397,0,0.00010927,0,0,0,0.034925,-0.0011845,0.010122,0.033342,0.014621,0.031992,1.001e-06,1,0.36,0
0,0,0.029802,0.012772,0.012772,0.0015643,0,0,0.044277,3.2526e-19,0,0.0081346,0,0,0,0.029944,0.01263,0.012772,5.2052,0.018449,0.017244,2.6328e-07,0,0.38,0
0.00088553,0.00016269,0.029697,0.011593,0.012387,0.0015563,0,0,0.045005,-0.0020635,0,0.0080928,0,0,0,0.02983,0.011461,0.012387,4.8779,0.017892,0.017924,2.9308e-07,0.02,0.38,0
0.0018002,0.00032767,0.030091,0.010673,0.012229,0.001544,0,0,0.046441,-0.0040465,0,0.0080289,0,0,0,0.030213,0.010551,0.012229,4.518,0.017664,0.018879,3.3641e-07,0.04,0.38,0
0.0027432,0.00049321,0.03048,0.0097908,0.012081,0.0015086,0,0,0.047836,-0.0059548,0,0.0078445,0,0,0,0.030589,0.0096814,0.012081,4.1486,0.017451,0.019817,3.8002e-07,0.06,0.38,0
0.0037137,0.00065767,0.030863,0.008947,0.011943,0.0014505,0,0,0.049192,-0.0077896,0,0.0075428,0,0,0,0.030958,0.0088514,0.011943,3.7703,0.017251,0.020735,4.2375e-07,0.08,0.38,0
0.0047108,0.00081944,0.031242,0.008143,0.011815,0.0013709,0,0,0.050509,-0.0095485,0,0.0071288,0,0,0,0.031323,0.0080619,0.011815,3.3847,0.017067,0.02163,4.6743e-07,0.1,0.38,0
0.005734,0.00097702,0.031617,0.0073812,0.011699,0.0012711,0,0,0.051786,-0.011228,0,0.0066098,0,0,0,0.031684,0.0073147,0.011699,2.9941,0.016899,0.022499,5.1088e-07,0.12,0.38,0
0.0067823,0.001129,0.031989,0.0066649,0.011596,0.001153,0,0,0.053021,-0.012821,0,0.0059955,0,0,0,0.032041,0.0066125,0.011596,2.6015,0.01675,0.023339,5.5394e-07,0.14,0.38,0
0.0078549,0.0012744,0.032358,0.0059975,0.011507,0.0010188,0,0,0.054213,-0.014323,0,0.0052976,0,0,0,0.032397,0.0059582,0.011507,2.21,0.016621,0.024148,5.9647e-07,0.16,0.38,0
0.0089508,0.0014119,0.032725,0.0053832,0.011432,0.00087107,0,0,0.055361,-0.015728,0,0.0045295,0,0,0,0.032753,0.0053555,0.011432,1.8229,0.016514,0.024921,6.3838e-07,0.18,0.38,0
0.010069,0.0015411,0.033093,0.0048261,0.011376,0.00071284,0,0,0.056465,-0.017029,0,0.0037067,0,0,0,0.033111,0.0048081,0.011376,1.4437,0.016432,0.025657,6.7962e-07,0.2,0.38,0
0.011209,0.0016613,0.033463,0.0043311,0.011338,0.0005474,0,0,0.057524,-0.018218,0,0.0028465,0,0,0,0.033473,0.0043209,0.011338,1.0761,0.016377,0.026354,7.2015e-07,0.22,0.38,0
0.01237,0.0017726,0.033836,0.0039046,0.011322,0.00037871,0,0,0.058537,-0.019286,0,0.0019693,0,0,0,0.033841,0.0038998,0.011322,0.72477,0.016355,0.027006,7.599e-07,0.24,0.38,0
0.013551,0.0018752,0.034216,0.0035548,0.011331,0.00021185,0,0,0.0595,-0.020219,0,0.0011016,0,0,0,0.034217,0.0035533,0.011331,0.39585,0.016367,0.027609,7.987e-07,0.26,0.38,0
0.01475,0.0019699,0.034601,0.0032933,0.011368,5.4109e-05,0,0,0.060405,-0.020995,0,0.00028137,0,0,0,0.034601,0.0032932,0.011368,0.099024,0.016421,0.028153,8.3612e-07,0.28,0.38,0
0.015967,0.0020583,0.034989,0.0031374,0.011438,-8.3244e-05,0,0,0.061232,-0.021581,0,-0.00043287,0,0,0,0.034989,0.0031371,0.011438,-0.14974,0.016521,0.028619,8.7121e-07,0.3,0.38,0
0.017199,0.0021429,0.035368,0.0031122,0.011544,-0.0001822,0,0,0.061943,-0.021923,0,-0.00094743,0,0,0,0.035369,0.0031112,0.011544,-0.32362,0.016675,0.028977,9.0206e-07,0.32,0.38,0
0.018445,0.0022275,0.035718,0.0032555,0.011692,-0.00021527,0,0,0.062467,-0.021935,0,-0.0011194,0,0,0,0.035719,0.0032541,0.011692,-0.37993,0.016888,0.029176,9.2504e-07,0.34,0.38,0
0.019698,0.0023173,0.035984,0.0036192,0.011881,-0.00014936,0,0,0.062667,-0.02148,0,-0.0007767,0,0,0,0.035984,0.0036185,0.011881,-0.26442,0.017161,0.029127,9.3331e-07,0.36,0.38,0
0.020952,0.0024182,0.036083,0.0042919,0.012113,1.6362e-05,0,0,0.062324,-0.020334,0,8.5083e-05,0,0,0,0.036083,0.0042919,0.012113,0.029488,0.017496,0.028692,9.161e-07,0.38,0.38,0
0.022191,0.002529,0.036063,0.0054339,0.012449,0.00018807,0,0,0.061396,-0.018239,0,0.00097795,0,0,0,0.036064,0.0054328,0.012449,0.35178,0.017982,0.027796,8.7054e-07,0.4,0.38,0
0.023407,0.0026369,0.035893,0.0024135,0.011492,0.00014675,0,0,0.046923,-0.015736,0,0.00074601,0,0,0,0.035894,0.0024122,0.011492,0.28281,0.016599,0.03005,9.5116e-07,0.42,0.38,0
0.024068,0.0027164,0.035927,-0.00039509,0.01066,-0.00011184,0,0,0.032847,-0.014371,0,-0.00029079,0,0,0,0.035927,-0.00039544,0.01066,-0.17642,0.015397,0.032249,1.065e-06,0.44,0.38,0
0.024721,0.002774,0.035925,0.00013765,0.010819,-0.00043651,0,0,0.032638,-0.013886,0,-0.0011349,0,0,0,0.03593,0.00013233,0.010819,-0.69872,0.015627,0.03183,1.0488e-06,0.46,0.38,0
0.025374,0.0028144,0.036003,0.00014073,0.010843,-0.00052486,0,0,0.032708,-0.013913,0,-0.0013647,0,0,0,0.036011,0.00013305,0.010843,-0.83831,0.015662,0.031901,1.0559e-06,0.48,0.38,0
0.02603,0.0028466,0.036147,0.00012176,0.010881,-0.00047351,0,0,0.032847,-0.013987,0,-0.0012311,0,0,0,0.036154,0.00011554,0.010881,-0.75291,0.015717,0.032042,1.0691e-06,0.5,0.38,0
0.026687,0.0028769,0.03621,9.2031e-05,0.010891,-0.00036797,0,0,0.032915,-0.014038,0,-0.00095673,0,0,0,0.036214,8.8283e-05,0.010891,-0.58366,0.015731,0.032117,1.0753e-06,0.52,0.38,0
0.027346,0.002907,0.036228,8.9205e-05,0.010895,-0.00027718,0,0,0.032933,-0.014048,0,-0.00072067,0,0,0,0.03623,8.7079e-05,0.010895,-0.43942,0.015737,0.032132,1.0768e-06,0.54,0.38,0
0.028005,0.0029371,0.036217,7.8387e-05,0.010889,-0.00021615,0,0,0.032927,-0.014053,0,-0.00056199,0,0,0,0.036219,7.7095e-05,0.010889,-0.34267,0.015728,0.03213,1.0761e-06,0.56,0.38,0
0.028663,0.0029664,0.036205,2.7382e-05,0.01087,-0.00018116,0,0,0.032936,-0.014095,0,-0.000471,0,0,0,0.036206,2.6475e-05,0.01087,-0.28689,0.015701,0.032159,1.0766e-06,0.58,0.38,0
0.029322,0.0029947,0.036204,-8.7353e-05,0.010835,-0.00015521,0,0,0.03298,-0.014199,0,-0.00040354,0,0,0,0.036205,-8.8016e-05,0.010835,-0.24503,0.015651,0.03225,1.0801e-06,0.6,0.38,0
0.029982,0.0030221,0.036217,-0.00026698,0.010785,-0.00011929,0,0,0.033062,-0.014368,0,-0.00031016,0,0,0,0.036218,-0.00026737,0.010785,-0.18734,0.015579,0.032405,1.087e-06,0.62,0.38,0
0.030645,0.0030492,0.036234,-0.00048993,0.010723,-5.863e-05,0,0,0.033164,-0.014577,0,-0.00015244,0,0,0,0.036235,-0.00049002,0.010723,-0.091471,0.015489,0.032598,1.0954e-06,0.64,0.38,0
0.031309,0.0030769,0.036231,-0.00072439,0.010652,2.4971e-05,0,0,0.033253,-0.014789,0,6.4923e-05,0,0,0,0.036231,-0.0007244,0.010652,0.038714,0.015386,0.032783,1.1024e-06,0.66,0.38,0
0.031975,0.0031054,0.036184,-0.00093544,0.010574,0.00010461,0,0,0.033292,-0.014963,0,0.000272,0,0,0,0.036184,-0.00093574,0.010574,0.16148,0.015274,0.03291,1.1045e-06,0.68,0.38,0
0.032641,0.0031331,0.03601,-0.0011593,0.010455,9.159e-05,0,0,0.033221,-0.015099,0,0.00023813,0,0,0,0.03601,-0.0011595,0.010455,0.14119,0.015102,0.032936,1.0954e-06,0.7,0.38,0
0.033304,0.0031542,0.035596,-0.0014634,0.01024,-0.00010364,0,0,0.032963,-0.015214,0,-0.00026946,0,0,0,0.035597,-0.0014637,0.01024,-0.16023,0.014791,0.032813,1.0672e-06,0.72,0.38,0
0.033959,0.0031653,0.03465,-0.0022499,0.00972,-0.00026798,0,0,0.032409,-0.015561,0,-0.00069674,0,0,0,0.034652,-0.0022518,0.00972,-0.41607,0.01404,0.03261,1.0059e-06,0.74,0.38,0
0.0346,0.0032031,0.034704,0.00030724,0.010503,-0.00059739,0,0,0.046902,-0.017673,0,-0.0027067,0,0,0,0.034718,0.00029313,0.010503,-1.0614,0.015171,0.030703,9.0586e-07,0.76,0.38,0
0.035835,0.0031645,0.035207,0.0036429,0.011655,0.00055957,0,0,0.061235,-0.020831,0,0.0029098,0,0,0,0.035217,0.003633,0.011655,1.0153,0.016835,0.028435,8.7159e-07,0.78,0.38,0
0.037049,0.0030571,0.035258,0.0023473,0.011281,0.00039633,0,0,0.062338,-0.023229,0,0.0020609,0,0,0,0.035263,0.0023425,0.011281,0.68986,0.016296,0.029485,9.2004e-07,0.8,0.38,0
0.038329,0.0030292,0.036051,0.0012819,0.0112,0.00066829,0,0,0.064613,-0.025787,0,0.0034751,0,0,0,0.036064,0.0012691,0.0112,1.1007,0.016178,0.031045,1.0233e-06,0.82,0.38,0
0.039634,0.0030251,0.036149,0.0005774,0.011018,0.00068558,0,0,0.06534,-0.027145,0,0.003565,0,0,0,0.036162,0.00056419,0.011018,1.1038,0.015915,0.031691,1.0552e-06,0.84,0.38,0
0.040942,0.0030323,0.035929,4.1796e-05,0.010791,0.00064758,0,0,0.065359,-0.027949,0,0.0033674,0,0,0,0.035941,3.0114e-05,0.010791,1.0334,0.015588,0.031921,1.053e-06,0.86,0.38,0
0.042248,0.0030449,0.035666,-0.00034141,0.010597,0.00058095,0,0,0.065179,-0.028441,0,0.0030209,0,0,0,0.035675,-0.00035078,0.010597,0.9241,0.015307,0.031989,1.0415e-06,0.88,0.38,0
0.04355,0.0030594,0.035421,-0.00061605,0.010441,0.0004968,0,0,0.064947,-0.02875,0,0.0025834,0,0,0,0.035428,-0.0006229,0.010441,0.78968,0.015082,0.031988,1.0281e-06,0.9,0.38,0
0.044846,0.0030735,0.035215,-0.00081189,0.010321,0.00040301,0,0,0.064724,-0.028945,0,0.0020957,0,0,0,0.035219,-0.0008164,0.010321,0.64084,0.014908,0.031957,1.0158e-06,0.92,0.38,0
0.046138,0.0030856,0.035053,-0.00094869,0.010231,0.00030438,0,0,0.064536,-0.029068,0,0.0015828,0,0,0,0.035055,-0.00095126,0.010231,0.48438,0.014778,0.03192,1.0056e-06,0.94,0.38,0
0.047428,0.0030949,0.034937,-0.001039,0.010169,0.00020358,0,0,0.064396,-0.029142,0,0.0010586,0,0,0,0.034938,-0.0010401,0.010169,0.32421,0.014689,0.031887,9.9814e-07,0.96,0.38,0
0.048714,0.0031006,0.034868,-0.0010904,0.010133,0.00010192,0,0,0.06431,-0.029182,0,0.00053001,0,0,0,0.034868,-0.0010907,0.010133,0.1624,0.014637,0.031866,9.9361e-07,0.98,0.38,0
0.05,0.0031026,0.034845,-0.0011072,0.010121,1.879e-05,0,0,0.064282,-0.029194,0,9.7709e-05,0,0,0,0.034845,-0.0011072,0.010121,0.029945,0.01462,0.031858,9.921e-07,1,0.38,0
0,0,0.029722,0.012738,0.012738,0.0011724,0,0,0.044158,-8.6736e-19,0,0.0060966,0,0,0,0.029802,0.012657,0.012738,3.9304,0.018399,0.017105,2.5701e-07,0,0.4,0
0.00088316,0.00012193,0.02962,0.01159,0.012363,0.0011647,0,0,0.044867,-0.0020089,0,0.0060563,0,0,0,0.029695,0.011515,0.012363,3.6809,0.017858,0.017771,2.8601e-07,0.02,0.4,0
0.0017947,0.00024775,0.030003,0.010694,0.012209,0.001159,0,0,0.046265,-0.0039394,0,0.0060266,0,0,0,0.030073,0.010625,0.012209,3.4226,0.017636,0.018706,3.2806e-07,0.04,0.4,0
0.0027338,0.00037563,0.030381,0.0098354,0.012065,0.0011287,0,0,0.047622,-0.0057968,0,0.0058692,0,0,0,0.030443,0.0097736,0.012065,3.135,0.017427,0.019624,3.7037e-07,0.06,0.4,0
0.0036996,0.00050387,0.030753,0.009014,0.01193,0.0010752,0,0,0.04894,-0.0075822,0,0.0055911,0,0,0,0.030807,0.0089609,0.01193,2.8246,0.017233,0.020523,4.1278e-07,0.08,0.4,0
0.0046914,0.00063092,0.031121,0.0082311,0.011806,0.00099988,0,0,0.050221,-0.0092941,0,0.0051994,0,0,0,0.031165,0.0081875,0.011806,2.4964,0.017053,0.021399,4.5515e-07,0.1,0.4,0
0.0057084,0.00075535,0.031485,0.0074888,0.011692,0.00090414,0,0,0.051462,-0.010929,0,0.0047015,0,0,0,0.031519,0.0074548,0.011692,2.1547,0.016889,0.02225,4.973e-07,0.12,0.4,0
0.0067498,0.0008759,0.031845,0.00679,0.011591,0.00078966,0,0,0.052661,-0.012481,0,0.0041062,0,0,0,0.03187,0.0067651,0.011591,1.8034,0.016742,0.023074,5.3907e-07,0.14,0.4,0
0.0078148,0.00099149,0.032201,0.006138,0.011502,0.00065832,0,0,0.053819,-0.013946,0,0.0034233,0,0,0,0.032218,0.0061213,0.011502,1.446,0.016614,0.023866,5.8031e-07,0.16,0.4,0
0.0089026,0.0011013,0.032556,0.0055363,0.011428,0.00051226,0,0,0.054933,-0.015317,0,0.0026638,0,0,0,0.032565,0.0055266,0.011428,1.0858,0.016507,0.024624,6.2093e-07,0.18,0.4,0
0.010012,0.0012046,0.032909,0.0049891,0.011369,0.00035393,0,0,0.056002,-0.016589,0,0.0018404,0,0,0,0.032913,0.0049846,0.011369,0.72616,0.016422,0.025347,6.6084e-07,0.2,0.4,0
0.011143,0.0013013,0.033263,0.0045009,0.011329,0.00018624,0,0,0.057027,-0.017753,0,0.00096845,0,0,0,0.033264,0.0044997,0.011329,0.37099,0.016364,0.02603,7e-07,0.22,0.4,0
0.012293,0.0013913,0.03362,0.004077,0.011309,1.2942e-05,0,0,0.058008,-0.018803,0,6.73e-05,0,0,0,0.03362,0.004077,0.011309,0.025101,0.016335,0.026672,7.3839e-07,0.24,0.4,0
0.013463,0.0014753,0.033983,0.0037245,0.011312,-0.00016073,0,0,0.058943,-0.019728,0,-0.00083577,0,0,0,0.033983,0.0037237,0.011312,-0.30433,0.01634,0.027269,7.7596e-07,0.26,0.4,0
0.014651,0.0015543,0.034355,0.0034525,0.011342,-0.00032678,0,0,0.059833,-0.020513,0,-0.0016992,0,0,0,0.034358,0.003449,0.011342,-0.60578,0.016383,0.027816,8.1262e-07,0.28,0.4,0
0.015856,0.0016305,0.034741,0.0032735,0.011404,-0.00047235,0,0,0.060674,-0.02114,0,-0.0024562,0,0,0,0.034748,0.0032665,0.011404,-0.85981,0.016473,0.028304,8.4816e-07,0.3,0.4,0
0.017078,0.0017072,0.035145,0.0032055,0.011505,-0.00057619,0,0,0.061463,-0.021579,0,-0.0029962,0,0,0,0.035155,0.0031951,0.011505,-1.0332,0.016618,0.028721,8.8218e-07,0.32,0.4,0
0.018315,0.0017896,0.035572,0.0032738,0.011654,-0.00060359,0,0,0.062187,-0.021788,0,-0.0031387,0,0,0,0.035583,0.0032625,0.011654,-1.0703,0.016833,0.029049,9.1376e-07,0.34,0.4,0
0.019565,0.0018853,0.036013,0.0035183,0.011859,-0.00049942,0,0,0.062799,-0.021687,0,-0.002597,0,0,0,0.03602,0.0035106,0.011859,-0.88033,0.01713,0.029243,9.4023e-07,0.36,0.4,0
0.020827,0.0020052,0.03635,0.0039893,0.012102,-0.00019754,0,0,0.063046,-0.021093,0,-0.0010272,0,0,0,0.036352,0.0039881,0.012102,-0.34974,0.01748,0.029166,9.4955e-07,0.38,0.4,0
0.022087,0.0021592,0.03633,0.0049258,0.012377,0.00022367,0,0,0.062279,-0.019373,0,0.0011631,0,0,0,0.036332,0.0049242,0.012377,0.40805,0.017878,0.028424,9.1174e-07,0.4,0.4,0
0.023318,0.0023225,0.036407,0.0026559,0.011719,0.00042657,0,0,0.047478,-0.015709,0,0.0019272,0,0,0,0.036414,0.0026485,0.011719,0.77613,0.016927,0.030326,9.8685e-07,0.42,0.4,0
0.023986,0.0024319,0.036553,0.00040667,0.011088,-0.00020468,0,0,0.033105,-0.013886,0,-0.00053217,0,0,0,0.036554,0.00040551,0.011088,-0.32443,0.016016,0.032167,1.0955e-06,0.44,0.4,0
0.024642,0.002497,0.03632,0.00011643,0.010931,-0.00054661,0,0,0.033006,-0.014059,0,-0.0014212,0,0,0,0.036329,0.00010818,0.010931,-0.86479,0.015789,0.032203,1.0849e-06,0.46,0.4,0
0.025307,0.0025339,0.036583,0.0001003,0.011005,-0.00063135,0,0,0.033252,-0.014176,0,-0.0016415,0,0,0,0.036594,8.9376e-05,0.011005,-0.99113,0.015896,0.032454,1.1095e-06,0.48,0.4,0
0.025972,0.0025645,0.036567,-2.2278e-05,0.010963,-0.00049001,0,0,0.033285,-0.014282,0,-0.001274,0,0,0,0.036574,-2.8839e-05,0.010963,-0.76713,0.015836,0.032531,1.1115e-06,0.5,0.4,0
0.026638,0.0025941,0.036533,-2.0129e-05,0.010954,-0.00034148,0,0,0.033253,-0.014266,0,-0.00088785,0,0,0,0.036536,-2.3319e-05,0.010954,-0.5352,0.015822,0.032493,1.1079e-06,0.52,0.4,0
0.027302,0.0026246,0.036458,1.7444e-05,0.010943,-0.00022573,0,0,0.03317,-0.014203,0,-0.00058691,0,0,0,0.036459,1.6046e-05,0.010943,-0.3549,0.015806,0.032393,1.0997e-06,0.54,0.4,0
0.027965,0.002655,0.036392,5.3624e-05,0.010934,-0.00017032,0,0,0.033096,-0.014144,0,-0.00044284,0,0,0,0.036393,5.2826e-05,0.010934,-0.26855,0.015793,0.032304,1.0925e-06,0.56,0.4,0
0.028626,0.0026838,0.036346,2.6788e-05,0.010912,-0.00015915,0,0,0.033065,-0.014151,0,-0.0004138,0,0,0,0.036347,2.6091e-05,0.010912,-0.25107,0.015762,0.032285,1.0892e-06,0.58,0.4,0
0.029287,0.0027101,0.036336,-8.8672e-05,0.010874,-0.00016509,0,0,0.033101,-0.014252,0,-0.00042924,0,0,0,0.036337,-8.942e-05,0.010874,-0.25968,0.015707,0.032369,1.092e-06,0.6,0.4,0
0.02995,0.0027338,0.036361,-0.00029377,0.01082,-0.00015533,0,0,0.033203,-0.014448,0,-0.00040386,0,0,0,0.036362,-0.00029443,0.01082,-0.2428,0.015629,0.032554,1.1008e-06,0.62,0.4,0
0.030616,0.0027564,0.036404,-0.00056391,0.010752,-0.0001033,0,0,0.033348,-0.014711,0,-0.00026858,0,0,0,0.036404,-0.0005642,0.010752,-0.1601,0.015531,0.032808,1.1131e-06,0.64,0.4,0
0.031284,0.0027795,0.036444,-0.00083728,0.010682,5.7351e-06,0,0,0.03349,-0.014975,0,1.4911e-05,0,0,0,0.036444,-0.00083728,0.010682,0.008814,0.015429,0.033062,1.1252e-06,0.66,0.4,0
0.031955,0.0028048,0.036409,-0.0010723,0.010601,0.00014523,0,0,0.033551,-0.015175,0,0.0003776,0,0,0,0.03641,-0.0010729,0.010601,0.222,0.015313,0.033221,1.1293e-06,0.68,0.4,0
0.032626,0.002831,0.036264,-0.0011808,0.010525,0.00028642,0,0,0.033461,-0.015218,0,0.0007447,0,0,0,0.036266,-0.001183,0.010525,0.43823,0.015203,0.033182,1.1194e-06,0.7,0.4,0
0.033294,0.0028551,0.035748,-0.0013484,0.01032,0.00029249,0,0,0.033057,-0.015169,0,0.00076048,0,0,0,0.035751,-0.0013507,0.01032,0.45171,0.014907,0.032859,1.0777e-06,0.72,0.4,0
0.033948,0.002863,0.036188,-0.0011445,0.010513,0.00013704,0,0,0.033377,-0.015155,0,0.0003563,0,0,0,0.036188,-0.001145,0.010513,0.21031,0.015185,0.033082,1.1111e-06,0.74,0.4,0
0.034629,0.00283,0.035801,9.2896e-05,0.010768,-0.00032927,0,0,0.048076,-0.018504,0,-0.0017794,0,0,0,0.035809,8.4736e-05,0.010768,-0.6189,0.015554,0.03183,1.0094e-06,0.76,0.4,0
0.035871,0.0027205,0.035859,0.0027117,0.011571,-0.00041211,0,0,0.063149,-0.023035,0,-0.002143,0,0,0,0.035865,0.0027066,0.011571,-0.71219,0.016714,0.029734,9.5653e-07,0.78,0.4,0
0.037155,0.0025957,0.036209,0.0022566,0.01154,0.00020643,0,0,0.064141,-0.024136,0,0.0010734,0,0,0,0.036211,0.0022553,0.01154,0.34834,0.016669,0.030396,1.0016e-06,0.8,0.4,0
0.038437,0.0025173,0.035886,0.0012566,0.011143,0.00070398,0,0,0.064333,-0.025704,0,0.0036607,0,0,0,0.035901,0.0012423,0.011143,1.1641,0.016095,0.030921,1.0101e-06,0.82,0.4,0
0.039728,0.0024855,0.035747,0.00057776,0.010897,0.00090728,0,0,0.064609,-0.026831,0,0.0047178,0,0,0,0.03577,0.00055437,0.010897,1.4768,0.015741,0.031351,1.0215e-06,0.84,0.4,0
0.041021,0.0024766,0.035553,0.00010138,0.010696,0.00090711,0,0,0.064627,-0.027547,0,0.004717,0,0,0,0.035576,7.8182e-05,0.010696,1.4648,0.01545,0.031558,1.0197e-06,0.86,0.4,0
0.042313,0.0024794,0.035332,-0.0002498,0.010525,0.00082538,0,0,0.064499,-0.028014,0,0.004292,0,0,0,0.035351,-0.00026893,0.010525,1.3281,0.015202,0.031636,1.011e-06,0.88,0.4,0
0.043601,0.0024877,0.035127,-0.00050787,0.010386,0.00070718,0,0,0.064327,-0.028323,0,0.0036773,0,0,0,0.035141,-0.00052189,0.010386,1.1365,0.015001,0.031651,1.0006e-06,0.9,0.4,0
0.044886,0.0024978,0.034953,-0.00069595,0.010277,0.00057281,0,0,0.064157,-0.02853,0,0.0029786,0,0,0,0.034962,-0.00070516,0.010277,0.92032,0.014845,0.031639,9.9069e-07,0.92,0.4,0
0.046168,0.0025074,0.034816,-0.00082947,0.010196,0.00043168,0,0,0.064012,-0.028666,0,0.0022447,0,0,0,0.034821,-0.0008347,0.010196,0.69374,0.014727,0.031618,9.8249e-07,0.94,0.4,0
0.047447,0.0025151,0.034718,-0.00091862,0.01014,0.00028817,0,0,0.063903,-0.028752,0,0.0014985,0,0,0,0.03472,-0.00092095,0.01014,0.46328,0.014646,0.031598,9.7644e-07,0.96,0.4,0
0.048724,0.00252,0.034659,-0.00096978,0.010107,0.0001441,0,0,0.063836,-0.028799,0,0.0007493,0,0,0,0.03466,-0.00097036,0.010107,0.23172,0.014599,0.031584,9.7276e-07,0.98,0.4,0
0.05,0.0025217,0.034639,-0.00098646,0.010096,1.6209e-05,0,0,0.063813,-0.028814,0,8.4289e-05,0,0,0,0.034639,-0.00098647,0.010096,0.026069,0.014583,0.031579,9.7152e-07,1,0.4,0
0,0,0.029617,0.012693,0.012693,0.00079167,0,0,0.044002,2.1684e-19,0,0.0041167,0,0,0,0.029653,0.012656,0.012693,2.6724,0.018334,0.016979,2.514e-07,0,0.42,0
0.00088003,8.2333e-05,0.029517,0.01158,0.012329,0.00078432,0,0,0.04469,-0.0019481,0,0.0040785,0,0,0,0.029552,0.011546,0.012329,2.4989,0.017809,0.017627,2.7943e-07,0.02,0.42,0
0.0017876,0.00017009,0.029889,0.01071,0.01218,0.00078522,0,0,0.046045,-0.0038221,0,0.0040831,0,0,0,0.029921,0.010677,0.01218,2.3405,0.017593,0.018538,3.1999e-07,0.04,0.42,0
0.0027218,0.00026134,0.030254,0.009875,0.012039,0.00076041,0,0,0.04736,-0.005626,0,0.0039541,0,0,0,0.030283,0.0098467,0.012039,2.1339,0.017389,0.019433,3.6079e-07,0.06,0.42,0
0.003682,0.00035438,0.030614,0.0090762,0.011907,0.0007119,0,0,0.048638,-0.0073603,0,0.0037019,0,0,0,0.030638,0.0090527,0.011907,1.8911,0.017199,0.020309,4.017e-07,0.08,0.42,0
0.0046673,0.00044768,0.030968,0.0083144,0.011785,0.00064139,0,0,0.049877,-0.0090232,0,0.0033352,0,0,0,0.030987,0.0082962,0.011785,1.6205,0.017022,0.021163,4.4253e-07,0.1,0.42,0
0.0056771,0.00053987,0.031317,0.0075917,0.011673,0.00055044,0,0,0.051076,-0.010611,0,0.0028623,0,0,0,0.03133,0.0075789,0.011673,1.3283,0.016861,0.021992,4.8309e-07,0.12,0.42,0
0.0067104,0.0006298,0.031661,0.0069107,0.011572,0.00044059,0,0,0.052233,-0.012118,0,0.0022911,0,0,0,0.031669,0.0069029,0.011572,1.0195,0.016715,0.022793,5.2322e-07,0.14,0.42,0
0.0077664,0.00071651,0.032,0.0062747,0.011482,0.00031344,0,0,0.053345,-0.01354,0,0.0016299,0,0,0,0.032004,0.0062709,0.011482,0.69798,0.016586,0.023563,5.6273e-07,0.16,0.42,0
0.0088442,0.00079924,0.032334,0.005687,0.011406,0.00017075,0,0,0.054412,-0.01487,0,0.0008879,0,0,0,0.032335,0.005686,0.011406,0.36712,0.016476,0.024299,6.0148e-07,0.18,0.42,0
0.0099429,0.00087752,0.032664,0.0051514,0.011345,1.4477e-05,0,0,0.055431,-0.016102,0,7.5281e-05,0,0,0,0.032664,0.0051514,0.011345,0.030149,0.016387,0.024998,6.3936e-07,0.2,0.42,0
0.011062,0.00095119,0.032992,0.004672,0.011299,-0.00015298,0,0,0.056402,-0.017231,0,-0.00079552,0,0,0,0.032993,0.0046711,0.011299,-0.3095,0.016321,0.025658,6.763e-07,0.22,0.42,0
0.012199,0.0010205,0.03332,0.0042532,0.011272,-0.00032849,0,0,0.057325,-0.018249,0,-0.0017082,0,0,0,0.033324,0.0042495,0.011272,-0.64741,0.016282,0.026276,7.1226e-07,0.24,0.42,0
0.013354,0.0010861,0.03365,0.0039004,0.011265,-0.00050759,0,0,0.058202,-0.019149,0,-0.0026395,0,0,0,0.033659,0.0038918,0.011265,-0.97718,0.016272,0.026851,7.4727e-07,0.26,0.42,0
0.014527,0.0011494,0.033989,0.0036201,0.011283,-0.0006835,0,0,0.059037,-0.019923,0,-0.0035542,0,0,0,0.034005,0.0036047,0.011283,-1.2887,0.016297,0.027381,7.8145e-07,0.28,0.42,0
0.015716,0.0012128,0.034345,0.0034201,0.011329,-0.0008456,0,0,0.05984,-0.020564,0,-0.0043971,0,0,0,0.034368,0.003397,0.011329,-1.5651,0.016365,0.027865,8.1509e-07,0.3,0.42,0
0.016921,0.0012798,0.034733,0.0033109,0.011413,-0.00097686,0,0,0.060632,-0.021066,0,-0.0050797,0,0,0,0.034763,0.0032806,0.011413,-1.7789,0.016486,0.028307,8.4889e-07,0.32,0.42,0
0.018141,0.001356,0.035183,0.0033076,0.011547,-0.0010492,0,0,0.061453,-0.021423,0,-0.0054558,0,0,0,0.035218,0.0032731,0.011547,-1.8832,0.016679,0.028716,8.8436e-07,0.34,0.42,0
0.019379,0.0014498,0.035749,0.0034381,0.011756,-0.0010151,0,0,0.062382,-0.021627,0,-0.0052784,0,0,0,0.035781,0.0034062,0.011756,-1.7976,0.016981,0.029112,9.2457e-07,0.36,0.42,0
0.020636,0.0015745,0.036531,0.003776,0.012092,-0.00077036,0,0,0.063541,-0.021622,0,-0.0040058,0,0,0,0.036549,0.0037579,0.012092,-1.3465,0.017466,0.02952,9.7477e-07,0.38,0.42,0
0.02192,0.0017541,0.037248,0.0043691,0.012485,-0.00018788,0,0,0.064383,-0.021101,0,-0.000977,0,0,0,0.037249,0.0043681,0.012485,-0.3274,0.018034,0.029667,1.0103e-06,0.4,0.42,0
0.023212,0.0020086,0.036621,0.0017157,0.011501,-0.00027947,0,0,0.048798,-0.016961,0,-0.00011818,0,0,0,0.036638,0.0016985,0.011501,-0.33695,0.016612,0.031293,1.0243e-06,0.42,0.42,0
0.023872,0.002161,0.037426,0.00074767,0.011452,0.0004277,0,0,0.033766,-0.013916,0,0.001112,0,0,0,0.037431,0.00074268,0.011452,0.66801,0.016542,0.032677,1.1647e-06,0.44,0.42,0
0.024562,0.0022116,0.037844,0.00060524,0.011535,-0.00054893,0,0,0.034202,-0.014208,0,-0.0014272,0,0,0,0.037852,0.00059715,0.011535,-0.84435,0.016661,0.033168,1.21e-06,0.46,0.42,0
0.02524,0.0022473,0.037237,-3.6379e-05,0.01116,-0.00047838,0,0,0.0339,-0.014556,0,-0.0012438,0,0,0,0.037243,-4.2518e-05,0.01116,-0.73519,0.01612,0.033136,1.1741e-06,0.48,0.42,0
0.025918,0.0022753,0.037069,-0.00013816,0.011079,-0.0003809,0,0,0.033787,-0.014583,0,-0.00099034,0,0,0,0.037073,-0.00014206,0.011079,-0.58647,0.016003,0.033064,1.1614e-06,0.5,0.42,0
0.026592,0.0023063,0.036835,-0.00016263,0.011002,-0.00020971,0,0,0.033583,-0.014514,0,-0.00054524,0,0,0,0.036836,-0.00016382,0.011002,-0.32475,0.015891,0.032871,1.14e-06,0.52,0.42,0
0.027262,0.0023389,0.036687,-3.6965e-05,0.010995,-0.00011356,0,0,0.0334,-0.014342,0,-0.00029525,0,0,0,0.036687,-3.7316e-05,0.010995,-0.17717,0.015882,0.032638,1.1222e-06,0.54,0.42,0
0.027928,0.0023713,0.036561,5.6309e-05,0.010985,-8.8866e-05,0,0,0.033249,-0.014208,0,-0.00023105,0,0,0,0.036561,5.6093e-05,0.010985,-0.13948,0.015868,0.032452,1.1077e-06,0.56,0.42,0
0.028592,0.0024004,0.036489,6.3062e-05,0.010966,-0.00012171,0,0,0.03318,-0.014173,0,-0.00031644,0,0,0,0.036489,6.2655e-05,0.010966,-0.19144,0.015839,0.032382,1.1009e-06,0.58,0.42,0
0.029255,0.0024246,0.03647,-5.2087e-05,0.010925,-0.00017326,0,0,0.033208,-0.014271,0,-0.00045047,0,0,0,0.03647,-5.2909e-05,0.010925,-0.27181,0.015781,0.032458,1.1029e-06,0.6,0.42,0
0.02992,0.0024441,0.036502,-0.0002903,0.010863,-0.00020682,0,0,0.03333,-0.0145,0,-0.00053774,0,0,0,0.036503,-0.00029146,0.010863,-0.32207,0.015692,0.032678,1.1135e-06,0.62,0.42,0
0.030588,0.0024608,0.036582,-0.00061832,0.010789,-0.00018181,0,0,0.033531,-0.01483,0,-0.0004727,0,0,0,0.036583,-0.00061921,0.010789,-0.28001,0.015584,0.033011,1.1313e-06,0.64,0.42,0
0.031261,0.0024779,0.036673,-0.00097973,0.010708,-7.9229e-05,0,0,0.033754,-0.015194,0,-0.000206,0,0,0,0.036673,-0.0009799,0.010708,-0.12056,0.015467,0.033381,1.1508e-06,0.66,0.42,0
0.031938,0.0024984,0.036824,-0.001192,0.01069,0.00011282,0,0,0.033975,-0.015446,0,0.00029332,0,0,0,0.036825,-0.0011923,0.01069,0.17003,0.015441,0.033686,1.1717e-06,0.68,0.42,0
0.03262,0.0025244,0.036901,-0.0013118,0.010677,0.00027299,0,0,0.034092,-0.015585,0,0.00070977,0,0,0,0.036903,-0.0013137,0.010677,0.40929,0.015422,0.033853,1.1828e-06,0.7,0.42,0
0.033302,0.0025475,0.037473,-0.00091793,0.010967,0.0004496,0,0,0.034458,-0.01545,0,0.001169,0,0,0,0.037478,-0.00092319,0.010967,0.67087,0.015841,0.034051,1.2258e-06,0.72,0.42,0
0.033999,0.0025591,0.037088,-0.0012324,0.010757,-0.0004478,0,0,0.034231,-0.015586,0,-0.0011643,0,0,0,0.037094,-0.0012376,0.010757,-0.66941,0.015537,0.033961,1.1986e-06,0.74,0.42,0
0.034671,0.0024629,0.03627,-0.00056469,0.010712,0.00015119,0,0,0.049632,-0.019545,0,-0.00050579,0,0,0,0.036289,-0.00058405,0.010712,0.09105,0.015472,0.032814,1.0539e-06,0.76,0.42,0
0.035984,0.0022431,0.037017,0.0022648,0.011785,-6.172e-06,0,0,0.065605,-0.024751,0,-3.2095e-05,0,0,0,0.037017,0.0022648,0.011785,-0.010176,0.017022,0.031105,1.0716e-06,0.78,0.42,0
0.037296,0.0020916,0.036438,0.0016349,0.011422,0.00060802,0,0,0.065042,-0.025446,0,0.0031617,0,0,0,0.036449,0.0016243,0.011422,1.0006,0.016498,0.031105,1.0445e-06,0.8,0.42,0
0.038586,0.002001,0.03575,0.0011166,0.01106,0.0009996,0,0,0.064195,-0.025853,0,0.0051979,0,0,0,0.035779,0.0010877,0.01106,1.6518,0.015976,0.030935,1.0049e-06,0.82,0.42,0
0.039863,0.0019519,0.035305,0.00059088,0.010769,0.0011431,0,0,0.063794,-0.026462,0,0.0059442,0,0,0,0.035342,0.00055328,0.010769,1.884,0.015555,0.030972,9.8506e-07,0.84,0.42,0
0.041137,0.0019304,0.035046,0.00018576,0.01057,0.0011289,0,0,0.063639,-0.026998,0,0.0058703,0,0,0,0.035082,0.00014924,0.01057,1.8529,0.015267,0.031063,9.7571e-07,0.86,0.42,0
0.042409,0.0019244,0.034851,-0.00012552,0.010418,0.0010238,0,0,0.063526,-0.027412,0,0.0053238,0,0,0,0.034881,-0.00015546,0.010418,1.6752,0.015048,0.031127,9.6798e-07,0.88,0.42,0
0.043678,0.0019265,0.03469,-0.00036369,0.010298,0.00087611,0,0,0.063419,-0.02772,0,0.0045558,0,0,0,0.034712,-0.00038557,0.010298,1.4308,0.014875,0.031161,9.6064e-07,0.9,0.42,0
0.044946,0.0019323,0.034558,-0.00054265,0.010205,0.00070909,0,0,0.063319,-0.027943,0,0.0036873,0,0,0,0.034572,-0.00055697,0.010205,1.1568,0.01474,0.031174,9.5401e-07,0.92,0.42,0
0.046211,0.001939,0.034455,-0.00067262,0.010135,0.00053412,0,0,0.063233,-0.028099,0,0.0027774,0,0,0,0.034463,-0.00068074,0.010135,0.87091,0.014639,0.031176,9.485e-07,0.94,0.42,0
0.047475,0.0019448,0.034381,-0.00076077,0.010086,0.00035643,0,0,0.063167,-0.028202,0,0.0018535,0,0,0,0.034385,-0.00076439,0.010086,0.58105,0.014569,0.031174,9.444e-07,0.96,0.42,0
0.048738,0.0019487,0.034337,-0.00081187,0.010058,0.00017819,0,0,0.063127,-0.028261,0,0.00092661,0,0,0,0.034338,-0.00081277,0.010058,0.29046,0.014528,0.031171,9.4188e-07,0.98,0.42,0
0.05,0.00195,0.034322,-0.00082861,0.010048,1.2983e-05,0,0,0.063113,-0.028279,0,6.751e-05,0,0,0,0.034322,-0.00082861,0.010048,0.021162,0.014514,0.03117,9.4103e-07,1,0.42,0
0,0,0.029488,0.012638,0.012638,0.00042316,0,0,0.043811,0,0,0.0022004,0,0,0,0.029499,0.012627,0.012638,1.4377,0.018254,0.016866,2.4642e-07,0,0.44,0
0.00087621,4.4009e-05,0.029392,0.011562,0.012287,0.00041642,0,0,0.044475,-0.0018822,0,0.0021654,0,0,0,0.029402,0.011553,0.012287,1.3372,0.017747,0.017494,2.7334e-07,0.02,0.44,0
0.001779,9.4867e-05,0.029751,0.010719,0.012141,0.00042396,0,0,0.045785,-0.0036967,0,0.0022046,0,0,0,0.02976,0.01071,0.012141,1.2755,0.017537,0.018377,3.1222e-07,0.04,0.44,0
0.0027076,0.00015059,0.030103,0.0099091,0.012004,0.00040509,0,0,0.047057,-0.0054454,0,0.0021065,0,0,0,0.030111,0.009901,0.012004,1.1488,0.017338,0.019245,3.5138e-07,0.06,0.44,0
0.0036613,0.00020946,0.030448,0.0091329,0.011874,0.00036238,0,0,0.048292,-0.0071275,0,0.0018844,0,0,0,0.030454,0.0091267,0.011874,0.97373,0.017152,0.020095,3.9062e-07,0.08,0.44,0
0.0046393,0.00027,0.030787,0.008392,0.011754,0.00029785,0,0,0.049486,-0.0087402,0,0.0015488,0,0,0,0.030791,0.008388,0.011754,0.76187,0.016977,0.020924,4.2974e-07,0.1,0.44,0
0.0056407,0.00033092,0.031119,0.0076886,0.011642,0.00021319,0,0,0.050639,-0.010279,0,0.0011086,0,0,0,0.03112,0.0076867,0.011642,0.52129,0.016817,0.021728,4.6852e-07,0.12,0.44,0
0.0066648,0.00039117,0.031443,0.0070256,0.011541,0.0001099,0,0,0.051747,-0.011739,0,0.00057147,0,0,0,0.031444,0.007025,0.011541,0.25787,0.01667,0.022503,5.0674e-07,0.14,0.44,0
0.0077106,0.0004499,0.03176,0.0064058,0.01145,-1.0609e-05,0,0,0.052806,-0.013114,0,-5.5166e-05,0,0,0,0.03176,0.0064058,0.01145,-0.023974,0.016538,0.023246,5.4418e-07,0.16,0.44,0
0.0087771,0.00050647,0.032068,0.0058327,0.01137,-0.00014689,0,0,0.053815,-0.014398,0,-0.00076383,0,0,0,0.032069,0.0058319,0.01137,-0.32078,0.016424,0.023953,5.8065e-07,0.18,0.44,0
0.0098632,0.00056053,0.032369,0.0053098,0.011304,-0.00029737,0,0,0.05477,-0.015584,0,-0.0015463,0,0,0,0.032372,0.0053065,0.011304,-0.62955,0.016328,0.024621,6.1597e-07,0.2,0.44,0
0.010968,0.00061205,0.032663,0.0048406,0.011251,-0.00046018,0,0,0.05567,-0.016667,0,-0.0023929,0,0,0,0.03267,0.004833,0.011251,-0.94733,0.016251,0.025248,6.5e-07,0.22,0.44,0
0.01209,0.00066137,0.03295,0.004429,0.011214,-0.00063289,0,0,0.056514,-0.01764,0,-0.003291,0,0,0,0.032964,0.004415,0.011214,-1.2706,0.016198,0.02583,6.8266e-07,0.24,0.44,0
0.013229,0.00070931,0.033233,0.0040789,0.011194,-0.00081218,0,0,0.057303,-0.018498,0,-0.0042233,0,0,0,0.033256,0.0040563,0.011194,-1.5945,0.016168,0.026366,7.139e-07,0.26,0.44,0
0.014382,0.00075739,0.033516,0.0037943,0.011193,-0.00099322,0,0,0.05804,-0.019237,0,-0.0051648,0,0,0,0.033549,0.0037611,0.011193,-1.9118,0.016168,0.026855,7.4383e-07,0.28,0.44,0
0.01555,0.00080795,0.033807,0.0035794,0.011216,-0.001169,0,0,0.058736,-0.019855,0,-0.006079,0,0,0,0.033852,0.0035342,0.011216,-2.2115,0.0162,0.0273,7.7273e-07,0.3,0.44,0
0.016732,0.00086459,0.034117,0.0034383,0.011267,-0.0013294,0,0,0.059411,-0.020354,0,-0.0069127,0,0,0,0.034174,0.0033808,0.011267,-2.4766,0.016274,0.027706,8.013e-07,0.32,0.44,0
0.017927,0.00093267,0.034472,0.0033762,0.011354,-0.0014594,0,0,0.060105,-0.020743,0,-0.0075888,0,0,0,0.03454,0.0033078,0.011354,-2.6812,0.016401,0.028087,8.31e-07,0.34,0.44,0
0.019136,0.0010202,0.034917,0.0034028,0.011496,-0.0015339,0,0,0.060896,-0.021042,0,-0.0079762,0,0,0,0.034992,0.0033283,0.011496,-2.7799,0.016605,0.028472,8.6483e-07,0.36,0.44,0
0.020362,0.0011403,0.035568,0.0035581,0.011738,-0.0015086,0,0,0.061957,-0.021267,0,-0.0078448,0,0,0,0.035638,0.0034872,0.011738,-2.6924,0.016954,0.028922,9.1014e-07,0.38,0.44,0
0.021614,0.0013152,0.036633,0.0039404,0.012172,-0.0010294,0,0,0.063599,-0.021402,0,-0.0053528,0,0,0,0.036665,0.003908,0.012172,-1.8017,0.017582,0.029507,9.788e-07,0.4,0.44,0
0.022906,0.001644,0.042336,0.0022547,0.013377,-0.0014663,0,0,0.052254,-0.019805,0,-0.0057678,0,0,0,0.042393,0.0021973,0.013377,-2.2256,0.019322,0.035936,1.8701e-06,0.42,0.44,0
0.023828,0.0018753,0.033794,0.00095587,0.010425,0.00054744,0,0,0.041898,-0.016838,0,0.0021889,0,0,0,0.033804,0.00094573,0.010425,1.0364,0.015058,0.029293,9.9768e-07,0.44,0.44,0
0.024499,0.0019286,0.037761,0.0005862,0.011504,0.00029917,0,0,0.034134,-0.014193,0,0.00077784,0,0,0,0.037763,0.00058379,0.011504,0.46105,0.016617,0.033099,1.202e-06,0.46,0.44,0
0.025193,0.0019517,0.037867,0.00021575,0.011425,-0.00025136,0,0,0.034375,-0.014572,0,-0.00065353,0,0,0,0.037869,0.00021408,0.011425,-0.38248,0.016503,0.033488,1.2253e-06,0.48,0.44,0
0.025874,0.0019812,0.037185,-0.00038115,0.011041,-0.00011773,0,0,0.033987,-0.014849,0,-0.00030611,0,0,0,0.037185,-0.00038152,0.011041,-0.17957,0.015948,0.033356,1.18e-06,0.5,0.44,0
0.026553,0.0020135,0.037029,-0.00025064,0.011033,-3.6444e-05,0,0,0.033794,-0.014669,0,-9.4754e-05,0,0,0,0.037029,-0.00025068,0.011033,-0.056011,0.015937,0.033113,1.1609e-06,0.52,0.44,0
0.027225,0.002051,0.036824,-6.8624e-05,0.011027,3.0199e-05,0,0,0.033537,-0.014424,0,7.8516e-05,0,0,0,0.036824,-6.8649e-05,0.011027,0.046899,0.015928,0.032785,1.1359e-06,0.54,0.44,0
0.027894,0.0020867,0.036713,0.00010535,0.011045,-4.1426e-06,0,0,0.033368,-0.014222,0,-1.0771e-05,0,0,0,0.036713,0.00010535,0.011045,-0.0064837,0.015955,0.032547,1.1199e-06,0.56,0.44,0
0.02856,0.0021169,0.036635,0.00012568,0.011028,-8.0684e-05,0,0,0.033288,-0.014173,0,-0.00020978,0,0,0,0.036635,0.0001255,0.011028,-0.12662,0.015929,0.032461,1.1121e-06,0.58,0.44,0
0.029226,0.0021392,0.036608,1.1351e-05,0.010986,-0.00016912,0,0,0.033309,-0.014267,0,-0.00043971,0,0,0,0.036609,1.0569e-05,0.010986,-0.26477,0.015869,0.03253,1.1135e-06,0.6,0.44,0
0.029892,0.0021538,0.036633,-0.00024042,0.010918,-0.00024547,0,0,0.03343,-0.014506,0,-0.00063823,0,0,0,0.036635,-0.00024205,0.010918,-0.3814,0.01577,0.032755,1.124e-06,0.62,0.44,0
0.030563,0.0021632,0.03669,-0.00065154,0.010811,-0.00027532,0,0,0.033642,-0.014902,0,-0.00071583,0,0,0,0.036692,-0.00065357,0.010811,-0.42241,0.015617,0.033135,1.1424e-06,0.64,0.44,0
0.031238,0.0021718,0.036833,-0.0010807,0.010726,-0.00019382,0,0,0.03394,-0.015348,0,-0.00050392,0,0,0,0.036834,-0.0010817,0.010726,-0.29289,0.015493,0.033606,1.1692e-06,0.66,0.44,0
0.03192,0.0021869,0.036936,-0.0014565,0.010644,-7.3835e-05,0,0,0.03418,-0.01573,0,-0.00019197,0,0,0,0.036936,-0.0014566,0.010644,-0.11019,0.015374,0.033998,1.1903e-06,0.68,0.44,0
0.032605,0.0022076,0.037567,-0.0011351,0.01093,0.00011569,0,0,0.034629,-0.015684,0,0.0003008,0,0,0,0.037567,-0.0011354,0.01093,0.17127,0.015787,0.0343,1.2414e-06,0.7,0.44,0
0.033306,0.0022371,0.037498,-0.0010287,0.010941,-0.00034825,0,0,0.034524,-0.01556,0,-0.00090544,0,0,0,0.037501,-0.0010319,0.010941,-0.51785,0.015803,0.034158,1.2316e-06,0.72,0.44,0
0.033986,0.0022395,0.033618,-0.00076299,0.0098564,-0.00063689,0,0,0.042616,-0.018892,0,-0.0025519,0,0,0,0.033631,-0.00077615,0.0098564,-1.1529,0.014237,0.030514,1.0361e-06,0.74,0.44,0
0.034924,0.0020482,0.042066,-0.00014347,0.012577,0.0012187,0,0,0.05322,-0.022704,0,0.0047932,0,0,0,0.042104,-0.00018109,0.012577,1.7567,0.018167,0.037569,1.9526e-06,0.76,0.44,0
0.036241,0.0017304,0.036502,0.0018778,0.011514,0.00075205,0,0,0.064969,-0.025054,0,0.0039106,0,0,0,0.036518,0.0018614,0.011514,1.2437,0.016631,0.03098,1.0422e-06,0.78,0.44,0
0.037523,0.0015779,0.035496,0.0013094,0.011042,0.0013071,0,0,0.063581,-0.025304,0,0.006797,0,0,0,0.035546,0.0012595,0.011042,2.1864,0.015949,0.030592,9.7949e-07,0.8,0.44,0
0.038785,0.0014831,0.034923,0.00093846,0.010758,0.0013908,0,0,0.062828,-0.025532,0,0.0072321,0,0,0,0.03498,0.00088164,0.010758,2.3396,0.01554,0.030388,9.4472e-07,0.82,0.44,0
0.040036,0.001427,0.034588,0.00060559,0.010558,0.0013873,0,0,0.062477,-0.025876,0,0.0072141,0,0,0,0.034644,0.00054905,0.010558,2.334,0.01525,0.030354,9.2762e-07,0.84,0.44,0
0.041284,0.0013967,0.034377,0.0002896,0.0104,0.0013045,0,0,0.062339,-0.026287,0,0.0067833,0,0,0,0.034426,0.00023975,0.0104,2.1884,0.015022,0.030408,9.1928e-07,0.86,0.44,0
0.04253,0.0013829,0.034239,2.2956e-05,0.010279,0.0011658,0,0,0.062297,-0.026665,0,0.0060619,0,0,0,0.034279,-1.6715e-05,0.010279,1.9491,0.014847,0.030481,9.1485e-07,0.88,0.44,0
0.043776,0.0013789,0.034137,-0.00019308,0.010183,0.00099308,0,0,0.062279,-0.026978,0,0.005164,0,0,0,0.034165,-0.00022178,0.010183,1.6556,0.014709,0.030544,9.1158e-07,0.9,0.44,0
0.045021,0.0013801,0.034056,-0.00036185,0.010108,0.00080302,0,0,0.062264,-0.027222,0,0.0041757,0,0,0,0.034075,-0.00038057,0.010108,1.3358,0.014601,0.030591,9.0878e-07,0.92,0.44,0
0.046266,0.0013834,0.033993,-0.00048772,0.010052,0.00060501,0,0,0.062248,-0.027402,0,0.003146,0,0,0,0.034004,-0.00049833,0.010052,1.0049,0.014519,0.030622,9.0639e-07,0.94,0.44,0
0.047511,0.001387,0.033948,-0.00057465,0.010012,0.00040394,0,0,0.062234,-0.027526,0,0.0021005,0,0,0,0.033953,-0.00057937,0.010012,0.67026,0.014462,0.030642,9.0454e-07,0.96,0.44,0
0.048756,0.0013896,0.033921,-0.0006256,0.0099887,0.00020202,0,0,0.062225,-0.027597,0,0.0010505,0,0,0,0.033922,-0.00062678,0.0099887,0.33504,0.014428,0.030652,9.0338e-07,0.98,0.44,0
0.05,0.0013905,0.033912,-0.00064238,0.0099809,8.924e-06,0,0,0.062221,-0.027621,0,4.6405e-05,0,0,0,0.033912,-0.00064238,0.0099809,0.014797,0.014417,0.030656,9.0298e-07,1,0.44,0
0,0,0.029339,0.012574,0.012574,6.7728e-05,0,0,0.043589,-5.421e-19,0,0.00035219,0,0,0,0.029339,0.012573,0.012574,0.23146,0.018162,0.016765,2.4203e-07,0,0.46,0
0.00087178,7.0437e-06,0.029247,0.011538,0.012235,6.1809e-05,0,0,0.04423,-0.0018131,0,0.00032141,0,0,0,0.029247,0.011538,0.012235,0.19998,0.017674,0.017371,2.6775e-07,0.02,0.46,0
0.0017692,2.2221e-05,0.029591,0.010722,0.012094,7.6004e-05,0,0,0.045493,-0.0035664,0,0.00039522,0,0,0,0.029592,0.010722,0.012094,0.23078,0.017469,0.018222,3.0483e-07,0.04,0.46,0
0.0026915,4.3529e-05,0.029929,0.009937,0.01196,6.3705e-05,0,0,0.04672,-0.0052592,0,0.00033127,0,0,0,0.029929,0.0099368,0.01196,0.18257,0.017275,0.019061,3.4224e-07,0.06,0.46,0
0.003638,6.9284e-05,0.030259,0.009183,0.011833,2.7925e-05,0,0,0.047909,-0.006889,0,0.00014521,0,0,0,0.030259,0.009183,0.011833,0.075915,0.017092,0.019884,3.7972e-07,0.08,0.46,0
0.0046078,9.8069e-05,0.030581,0.0084624,0.011713,-2.9023e-05,0,0,0.049057,-0.0084517,0,-0.00015092,0,0,0,0.030581,0.0084624,0.011713,-0.075181,0.016919,0.020686,4.1703e-07,0.1,0.46,0
0.0056003,0.00012871,0.030894,0.0077778,0.011602,-0.00010531,0,0,0.050161,-0.009942,0,-0.00054761,0,0,0,0.030895,0.0077773,0.011602,-0.26101,0.016758,0.021462,4.539e-07,0.12,0.46,0
0.0066143,0.00016024,0.031197,0.007132,0.011499,-0.00019942,0,0,0.051216,-0.011354,0,-0.001037,0,0,0,0.031199,0.0071304,0.011499,-0.47473,0.016609,0.022209,4.9005e-07,0.14,0.46,0
0.0076489,0.00019195,0.031489,0.0065282,0.011405,-0.00031001,0,0,0.052219,-0.01268,0,-0.0016121,0,0,0,0.031493,0.0065243,0.011405,-0.71145,0.016474,0.022922,5.2522e-07,0.16,0.46,0
0.008703,0.00022332,0.031769,0.0059696,0.011322,-0.00043583,0,0,0.053164,-0.013915,0,-0.0022663,0,0,0,0.031776,0.0059623,0.011322,-0.96753,0.016353,0.023595,5.5914e-07,0.18,0.46,0
0.0097754,0.00025415,0.032036,0.0054596,0.011249,-0.00057555,0,0,0.054047,-0.015052,0,-0.0029928,0,0,0,0.032048,0.0054472,0.011249,-1.24,0.016248,0.024227,5.9157e-07,0.2,0.46,0
0.010865,0.00028451,0.032289,0.0050014,0.011187,-0.00072764,0,0,0.054865,-0.016083,0,-0.0037837,0,0,0,0.032308,0.0049821,0.011187,-1.5264,0.016159,0.024813,6.2227e-07,0.22,0.46,0
0.01197,0.00031487,0.032528,0.0045982,0.011138,-0.00089019,0,0,0.055615,-0.017003,0,-0.004629,0,0,0,0.032557,0.0045699,0.011138,-1.8237,0.016088,0.025349,6.5106e-07,0.24,0.46,0
0.01309,0.00034615,0.032753,0.0042528,0.011102,-0.0010607,0,0,0.056294,-0.017808,0,-0.0055154,0,0,0,0.032793,0.0042134,0.011102,-2.1283,0.016036,0.025833,6.7776e-07,0.26,0.46,0
0.014222,0.00037992,0.032965,0.0039675,0.01108,-0.0012355,0,0,0.056902,-0.018492,0,-0.0064247,0,0,0,0.033018,0.0039149,0.01108,-2.4354,0.016004,0.026264,7.0226e-07,0.28,0.46,0
0.015366,0.00041857,0.033165,0.0037437,0.011073,-0.00141,0,0,0.05744,-0.019055,0,-0.0073318,0,0,0,0.033232,0.0036763,0.011073,-2.7375,0.015994,0.026639,7.2451e-07,0.3,0.46,0
0.016519,0.00046561,0.033354,0.003581,0.011081,-0.0015773,0,0,0.057911,-0.019499,0,-0.0082017,0,0,0,0.033438,0.0034977,0.011081,-3.024,0.016005,0.02696,7.445e-07,0.32,0.46,0
0.017682,0.00052621,0.033532,0.0034752,0.011102,-0.0017272,0,0,0.058317,-0.01983,0,-0.0089814,0,0,0,0.033631,0.0033763,0.011102,-3.2781,0.016036,0.027227,7.6207e-07,0.34,0.46,0
0.018852,0.00060814,0.033684,0.0034146,0.01113,-0.0018418,0,0,0.058642,-0.020059,0,-0.0095775,0,0,0,0.033796,0.0033029,0.01113,-3.4692,0.016076,0.027431,7.7629e-07,0.36,0.46,0
0.020028,0.00072378,0.033719,0.0033422,0.011118,-0.0018674,0,0,0.058762,-0.020218,0,-0.0097105,0,0,0,0.033833,0.0032278,0.011118,-3.5047,0.01606,0.027522,7.8142e-07,0.38,0.46,0
0.021202,0.00089795,0.033704,0.0032508,0.011086,-0.001638,0,0,0.058805,-0.020373,0,-0.0085176,0,0,0,0.033792,0.0031629,0.011086,-3.07,0.016014,0.027536,7.805e-07,0.4,0.46,0
0.02238,0.0011848,0.034683,0.0022339,0.011075,-0.0016056,0,0,0.061382,-0.022987,0,-0.0083491,0,0,0,0.034763,0.0021547,0.011075,-2.8258,0.015998,0.029189,8.8656e-07,0.42,0.46,0
0.023658,0.001513,0.039561,0.00073633,0.012089,-0.0011471,0,0,0.049943,-0.02046,0,-0.0049876,0,0,0,0.039606,0.00069162,0.012089,-1.8944,0.017462,0.034651,1.5509e-06,0.44,0.46,0
0.024517,0.0016439,0.031548,0.00016361,0.0095135,-2.6743e-06,0,0,0.039387,-0.0166,0,-0.00040196,0,0,0,0.031551,0.00016051,0.0095135,-0.15546,0.013742,0.027915,8.4122e-07,0.46,0.46,0
0.025162,0.0016645,0.036375,-0.00019896,0.010853,0.00025195,0,0,0.033179,-0.014367,0,0.00065506,0,0,0,0.036376,-0.00020069,0.010853,0.39467,0.015676,0.032493,1.0992e-06,0.48,0.46,0
0.025844,0.0016814,0.037132,-0.00032446,0.011042,-6.9329e-05,0,0,0.033917,-0.014777,0,-0.00018025,0,0,0,0.037132,-0.00032459,0.011042,-0.10605,0.01595,0.033263,1.173e-06,0.5,0.46,0
0.026518,0.0017195,0.036825,-0.00044637,0.010913,0.0001098,0,0,0.033684,-0.014768,0,0.00028548,0,0,0,0.036825,-0.00044669,0.010913,0.16879,0.015764,0.033088,1.1482e-06,0.52,0.46,0
0.027192,0.001762,0.036903,9.8097e-06,0.011074,8.3096e-05,0,0,0.033578,-0.014383,0,0.00021605,0,0,0,0.036904,9.6225e-06,0.011074,0.12905,0.015996,0.032793,1.1406e-06,0.54,0.46,0
0.027862,0.0018024,0.03686,0.00016704,0.011108,6.6047e-06,0,0,0.033478,-0.014224,0,1.7172e-05,0,0,0,0.03686,0.00016704,0.011108,0.010313,0.016045,0.032629,1.1313e-06,0.56,0.46,0
0.028531,0.0018335,0.036857,0.00015945,0.011105,-6.7619e-05,0,0,0.033477,-0.014229,0,-0.00017581,0,0,0,0.036857,0.00015933,0.011105,-0.10558,0.01604,0.032632,1.1313e-06,0.58,0.46,0
0.029201,0.001854,0.036825,4.5731e-05,0.011061,-0.00012527,0,0,0.033493,-0.01432,0,-0.00032571,0,0,0,0.036826,4.5304e-05,0.011061,-0.19515,0.015977,0.032695,1.1322e-06,0.6,0.46,0
0.029871,0.0018639,0.036769,-0.00017701,0.010978,-0.00019948,0,0,0.033529,-0.014501,0,-0.00051865,0,0,0,0.03677,-0.00017808,0.010978,-0.30935,0.015856,0.032824,1.1344e-06,0.62,0.46,0
0.030542,0.0018647,0.036752,-0.00057857,0.010852,-0.00027273,0,0,0.03367,-0.01486,0,-0.00070911,0,0,0,0.036754,-0.00058056,0.010852,-0.41857,0.015675,0.033132,1.1459e-06,0.64,0.46,0
0.031217,0.001864,0.036623,-0.0012915,0.010599,-0.00028157,0,0,0.03383,-0.015458,0,-0.00073208,0,0,0,0.036625,-0.0012936,0.010599,-0.42547,0.01531,0.03359,1.1559e-06,0.66,0.46,0
0.031895,0.0018692,0.03687,-0.0014583,0.010623,-7.3303e-05,0,0,0.03412,-0.015706,0,-0.00019059,0,0,0,0.03687,-0.0014585,0.010623,-0.10958,0.015345,0.03394,1.1841e-06,0.68,0.46,0
0.032582,0.001897,0.036111,-0.0015753,0.010361,-0.00033182,0,0,0.033475,-0.015517,0,-0.00086272,0,0,0,0.036114,-0.0015782,0.010361,-0.50442,0.014965,0.033365,1.1171e-06,0.7,0.46,0
0.033234,0.0019251,0.031355,-0.0012798,0.0090224,-7.5112e-05,0,0,0.039933,-0.018309,0,0.00012359,0,0,0,0.031358,-0.001283,0.0090224,0.011977,0.013032,0.028901,8.6382e-07,0.72,0.46,0
0.034106,0.0018326,0.039245,-0.0014313,0.011344,0.00092327,0,0,0.050741,-0.023042,0,0.004122,0,0,0,0.039275,-0.0014612,0.011344,1.4811,0.016386,0.036081,1.5987e-06,0.74,0.46,0
0.035406,0.0015155,0.034495,0.00021638,0.010413,0.0013191,0,0,0.062612,-0.026512,0,0.0068591,0,0,0,0.034546,0.0001657,0.010413,2.2004,0.015042,0.030573,9.3107e-07,0.76,0.46,0
0.03661,0.001241,0.033591,0.0011867,0.010433,0.0013612,0,0,0.060209,-0.024041,0,0.0070783,0,0,0,0.033648,0.0011296,0.010433,2.4012,0.01507,0.029008,8.3265e-07,0.78,0.46,0
0.037815,0.0010795,0.033624,0.0010484,0.010402,0.0016056,0,0,0.060379,-0.024319,0,0.0083493,0,0,0,0.033703,0.0009695,0.010402,2.815,0.015025,0.029184,8.4153e-07,0.8,0.46,0
0.039026,0.00097974,0.033672,0.00088591,0.010367,0.0016102,0,0,0.060592,-0.024652,0,0.0083729,0,0,0,0.033751,0.00080703,0.010367,2.8049,0.014975,0.029355,8.4987e-07,0.82,0.46,0
0.040238,0.00091686,0.033619,0.0006539,0.010282,0.0015253,0,0,0.060676,-0.025032,0,0.0079317,0,0,0,0.033689,0.00058347,0.010282,2.6437,0.014851,0.029478,8.5159e-07,0.84,0.46,0
0.041453,0.00087895,0.033567,0.00041268,0.010194,0.0013975,0,0,0.06077,-0.025431,0,0.0072669,0,0,0,0.033626,0.00035388,0.010194,2.4094,0.014724,0.029605,8.5326e-07,0.86,0.46,0
0.042669,0.00085777,0.033528,0.00018678,0.010115,0.0012355,0,0,0.060876,-0.025812,0,0.0064248,0,0,0,0.033574,0.00014106,0.010115,2.1193,0.01461,0.029729,8.5523e-07,0.88,0.46,0
0.043888,0.00084736,0.0335,-7.4215e-06,0.010048,0.0010497,0,0,0.060976,-0.026143,0,0.0054585,0,0,0,0.033533,-4.0275e-05,0.010048,1.7926,0.014513,0.029837,8.5706e-07,0.9,0.46,0
0.045108,0.0008434,0.033477,-0.00016524,0.0099935,0.00084914,0,0,0.061057,-0.026413,0,0.0044155,0,0,0,0.033498,-0.00018666,0.0099935,1.4449,0.014435,0.029923,8.584e-07,0.92,0.46,0
0.04633,0.00084289,0.033458,-0.00028614,0.0099516,0.00064061,0,0,0.061117,-0.026618,0,0.0033312,0,0,0,0.03347,-0.0002983,0.0099516,1.0872,0.014375,0.029988,8.5925e-07,0.94,0.46,0
0.047553,0.00084378,0.033444,-0.00037113,0.0099218,0.00042828,0,0,0.061157,-0.026762,0,0.002227,0,0,0,0.033449,-0.00037655,0.0099218,0.72552,0.014331,0.030031,8.5971e-07,0.96,0.46,0
0.048776,0.00084479,0.033434,-0.00042149,0.0099039,0.00021439,0,0,0.06118,-0.026846,0,0.0011148,0,0,0,0.033436,-0.00042285,0.0099039,0.3628,0.014306,0.030057,8.5993e-07,0.98,0.46,0
0.05,0.0008452,0.033431,-0.00043817,0.009898,3.9698e-06,0,0,0.061187,-0.026874,0,2.0643e-05,0,0,0,0.033431,-0.00043817,0.009898,0.0067155,0.014297,0.030065,8.5999e-07,1,0.46,0
0,0,0.029173,0.012503,0.012503,-0.0002742,0,0,0.043342,2.1684e-19,0,-0.0014258,0,0,0,0.029177,0.012498,0.012503,-0.94208,0.018059,0.016677,2.3822e-07,0,0.48,0
0.00086685,-2.8516e-05,0.029085,0.011507,0.012178,-0.00027904,0,0,0.043958,-0.0017428,0,-0.001451,0,0,0,0.029089,0.011503,0.012178,-0.90924,0.01759,0.017259,2.6267e-07,0.02,0.48,0
0.0017583,-4.7787e-05,0.029415,0.010719,0.01204,-0.00025821,0,0,0.045174,-0.0034347,0,-0.0013427,0,0,0,0.029419,0.010716,0.01204,-0.79112,0.017391,0.018077,2.979e-07,0.04,0.48,0
0.0026738,-5.9777e-05,0.029738,0.0099578,0.011909,-0.00026325,0,0,0.046356,-0.0050725,0,-0.0013689,0,0,0,0.029742,0.0099543,0.011909,-0.76236,0.017202,0.018886,3.3351e-07,0.06,0.48,0
0.0036126,-6.6099e-05,0.030053,0.0092251,0.011783,-0.0002908,0,0,0.0475,-0.0066514,0,-0.0015122,0,0,0,0.030057,0.0092211,0.011783,-0.79978,0.01702,0.01968,3.692e-07,0.08,0.48,0
0.0045738,-6.8072e-05,0.030358,0.0085238,0.011664,-0.00033831,0,0,0.048602,-0.0081657,0,-0.0017592,0,0,0,0.030363,0.0085186,0.011664,-0.88749,0.016849,0.020454,4.0465e-07,0.1,0.48,0
0.0055567,-6.6756e-05,0.030651,0.0078567,0.011552,-0.00040379,0,0,0.049657,-0.0096088,0,-0.0020997,0,0,0,0.030659,0.0078496,0.011552,-1.0145,0.016687,0.021201,4.3956e-07,0.12,0.48,0
0.0065601,-6.2975e-05,0.030932,0.0072271,0.011448,-0.00048565,0,0,0.050659,-0.010974,0,-0.0025254,0,0,0,0.030942,0.0072172,0.011448,-1.1732,0.016536,0.021918,4.7359e-07,0.14,0.48,0
0.007583,-5.732e-05,0.031198,0.0066381,0.011351,-0.00058257,0,0,0.051603,-0.012253,0,-0.0030294,0,0,0,0.031212,0.0066243,0.011351,-1.3581,0.016396,0.022598,5.064e-07,0.16,0.48,0
0.0086242,-5.0142e-05,0.031448,0.0060932,0.011262,-0.00069332,0,0,0.052482,-0.013439,0,-0.0036053,0,0,0,0.031466,0.0060742,0.011262,-1.5652,0.016268,0.023237,5.3768e-07,0.18,0.48,0
0.0096823,-4.1529e-05,0.031678,0.0055954,0.011182,-0.00081664,0,0,0.05329,-0.014526,0,-0.0042465,0,0,0,0.031704,0.0055698,0.011182,-1.7915,0.016152,0.023829,5.671e-07,0.2,0.48,0
0.010756,-3.1264e-05,0.031889,0.0051476,0.011111,-0.00095109,0,0,0.054023,-0.015505,0,-0.0049457,0,0,0,0.031923,0.0051139,0.011111,-2.0344,0.016049,0.02437,5.9435e-07,0.22,0.48,0
0.011843,-1.8764e-05,0.032077,0.0047526,0.011049,-0.0010949,0,0,0.054674,-0.016371,0,-0.0056933,0,0,0,0.032121,0.0047088,0.011049,-2.2908,0.01596,0.024856,6.1911e-07,0.24,0.48,0
0.012943,-2.9851e-06,0.032241,0.0044122,0.010996,-0.0012455,0,0,0.055237,-0.017118,0,-0.0064767,0,0,0,0.032297,0.0043566,0.010996,-2.5575,0.015883,0.025283,6.4109e-07,0.26,0.48,0
0.014053,1.7711e-05,0.032377,0.0041275,0.010951,-0.0013997,0,0,0.055708,-0.017742,0,-0.0072783,0,0,0,0.032447,0.0040583,0.010951,-2.8295,0.015819,0.025646,6.5995e-07,0.28,0.48,0
0.015171,4.5748e-05,0.032483,0.0038977,0.010914,-0.0015524,0,0,0.056078,-0.018243,0,-0.0080723,0,0,0,0.032567,0.0038137,0.010914,-3.0994,0.015765,0.025942,6.7536e-07,0.3,0.48,0
0.016296,8.4637e-05,0.03255,0.0037192,0.010881,-0.0016959,0,0,0.056341,-0.01862,0,-0.0088188,0,0,0,0.03265,0.0036198,0.010881,-3.3549,0.015717,0.026166,6.8683e-07,0.32,0.48,0
0.017425,0.00013947,0.032569,0.0035829,0.010846,-0.0018168,0,0,0.056481,-0.018883,0,-0.0094474,0,0,0,0.032683,0.0034695,0.010846,-3.5726,0.015666,0.026312,6.9366e-07,0.34,0.48,0
0.018555,0.00021784,0.032521,0.0034665,0.010796,-0.0018878,0,0,0.056484,-0.019057,0,-0.0098164,0,0,0,0.032643,0.0033444,0.010796,-3.702,0.015595,0.026374,6.9483e-07,0.36,0.48,0
0.019684,0.00033157,0.032438,0.0033393,0.010733,-0.0018471,0,0,0.056432,-0.019224,0,-0.0096046,0,0,0,0.032554,0.0032226,0.010733,-3.6176,0.015503,0.026391,6.9258e-07,0.38,0.48,0
0.020812,0.00050028,0.032532,0.0030493,0.010674,-0.001702,0,0,0.05683,-0.019825,0,-0.0088504,0,0,0,0.03263,0.0029514,0.010674,-3.293,0.015419,0.026669,7.0585e-07,0.4,0.48,0
0.021957,0.00072453,0.032262,0.0016834,0.010184,-0.0015176,0,0,0.057404,-0.0221,0,-0.0078914,0,0,0,0.032337,0.0016083,0.010184,-2.8343,0.01471,0.027464,7.2474e-07,0.42,0.48,0
0.023109,0.0010099,0.033207,0.00064535,0.010156,-0.0020241,0,0,0.059934,-0.024727,0,-0.010525,0,0,0,0.033333,0.00052001,0.010156,-3.5434,0.014669,0.029212,8.2644e-07,0.44,0.48,0
0.024355,0.0012882,0.038026,0.00023684,0.011479,-0.0017482,0,0,0.048343,-0.020338,0,-0.0072458,0,0,0,0.03812,0.00014335,0.011479,-2.8581,0.016581,0.033767,1.3957e-06,0.46,0.48,0
0.025182,0.001377,0.030256,-0.00049825,0.0089272,-0.00060901,0,0,0.038067,-0.01673,0,-0.0028673,0,0,0,0.030278,-0.00052029,0.0089272,-1.4086,0.012895,0.027328,7.6393e-07,0.48,0.48,0
0.025812,0.0013901,0.035266,-0.0011487,0.010235,-7.0595e-05,0,0,0.03254,-0.014799,0,-0.00018355,0,0,0,0.035266,-0.0011488,0.010235,-0.11107,0.014784,0.032266,1.0293e-06,0.5,0.48,0
0.026484,0.0014228,0.036688,-0.00027074,0.010925,-0.00014589,0,0,0.033492,-0.014555,0,-0.00037933,0,0,0,0.036689,-0.00027131,0.010925,-0.22617,0.015781,0.032827,1.1299e-06,0.52,0.48,0
0.027151,0.0014756,0.03684,7.3194e-05,0.011074,-0.00014918,0,0,0.033496,-0.014301,0,-0.00038787,0,0,0,0.03684,7.2589e-05,0.011074,-0.23247,0.015996,0.032686,1.1327e-06,0.54,0.48,0
0.027823,0.0015178,0.037145,0.00010461,0.011175,-0.00018586,0,0,0.033761,-0.014391,0,-0.00048324,0,0,0,0.037146,0.00010368,0.011175,-0.28749,0.016141,0.032933,1.1601e-06,0.56,0.48,0
0.028502,0.0015478,0.037364,7.3575e-05,0.011231,-0.00011757,0,0,0.033972,-0.014505,0,-0.00030569,0,0,0,0.037364,7.3205e-05,0.011231,-0.18065,0.016223,0.033151,1.1817e-06,0.58,0.48,0
0.029182,0.0015664,0.037331,-3.9666e-05,0.011187,-1.2013e-05,0,0,0.033986,-0.014595,0,-3.1235e-05,0,0,0,0.037331,-3.967e-05,0.011187,-0.018419,0.01616,0.033212,1.1823e-06,0.6,0.48,0
0.029861,0.0015738,0.037047,-0.00023941,0.011042,5.4809e-05,0,0,0.033806,-0.014666,0,0.0001425,0,0,0,0.037047,-0.00023949,0.011042,0.084222,0.01595,0.033119,1.1622e-06,0.62,0.48,0
0.030534,0.0015688,0.036686,-0.00051209,0.010852,1.9028e-05,0,0,0.033584,-0.014774,0,4.9472e-05,0,0,0,0.036686,-0.0005121,0.010852,0.029308,0.015676,0.033017,1.1374e-06,0.64,0.48,0
0.031204,0.0015534,0.036469,-0.001148,0.010596,2.1441e-05,0,0,0.033635,-0.015268,0,5.5746e-05,0,0,0,0.036469,-0.001148,0.010596,0.032657,0.015306,0.033335,1.1371e-06,0.66,0.48,0
0.03188,0.0015587,0.035022,-0.0022924,0.0098187,-1.0037e-05,0,0,0.032764,-0.015745,0,-2.6097e-05,0,0,0,0.035022,-0.0022924,0.0098187,-0.015412,0.014183,0.032971,1.0388e-06,0.68,0.48,0
0.032515,0.0015869,0.030058,-0.0017189,0.0085018,0.00054166,0,0,0.038486,-0.018158,0,0.0026427,0,0,0,0.030077,-0.0017382,0.0085018,1.2466,0.01228,0.02813,7.7741e-07,0.7,0.48,0
0.033352,0.0015318,0.03771,-0.0016186,0.010827,0.0015533,0,0,0.048969,-0.022527,0,0.0065042,0,0,0,0.037782,-0.0016912,0.010827,2.4573,0.01564,0.034939,1.4255e-06,0.72,0.48,0
0.034616,0.001264,0.032996,-0.0011647,0.0095494,0.0017737,0,0,0.060961,-0.027857,0,0.0092231,0,0,0,0.033088,-0.0012566,0.0095494,2.9642,0.013794,0.030417,8.5452e-07,0.74,0.48,0
0.03579,0.00098767,0.032104,-0.00023356,0.009561,0.0012358,0,0,0.058611,-0.025466,0,0.0064264,0,0,0,0.032151,-0.00028072,0.009561,2.1854,0.01381,0.028801,7.6143e-07,0.76,0.48,0
0.036961,0.00076876,0.032386,0.00095089,0.010001,0.0013903,0,0,0.0582,-0.02353,0,0.0072295,0,0,0,0.032447,0.00088952,0.010001,2.5275,0.014446,0.028131,7.5208e-07,0.78,0.48,0
0.038118,0.00060516,0.032337,0.0010405,0.010013,0.0015333,0,0,0.058042,-0.023329,0,0.0079734,0,0,0,0.032412,0.00096556,0.010013,2.7982,0.014464,0.028039,7.4755e-07,0.8,0.48,0
0.039282,0.00049708,0.03248,0.00091593,0.010019,0.0015758,0,0,0.0584,-0.023668,0,0.008194,0,0,0,0.032559,0.00083746,0.010019,2.8509,0.014472,0.028272,7.6136e-07,0.82,0.48,0
0.040454,0.00042575,0.032617,0.00074347,0.010008,0.0015075,0,0,0.058783,-0.024088,0,0.0078389,0,0,0,0.032688,0.00067234,0.010008,2.7018,0.014456,0.028518,7.7505e-07,0.84,0.48,0
0.041633,0.00037945,0.032708,0.00054713,0.0099766,0.0013828,0,0,0.059102,-0.024517,0,0.0071907,0,0,0,0.032767,0.00048778,0.0099766,2.4575,0.014411,0.028735,7.8576e-07,0.86,0.48,0
0.042819,0.00035045,0.032773,0.00035434,0.0099382,0.0012243,0,0,0.059371,-0.024918,0,0.0063664,0,0,0,0.032819,0.00030817,0.0099382,2.1597,0.014355,0.028924,7.9432e-07,0.88,0.48,0
0.044008,0.00033318,0.03282,0.00018059,0.0099003,0.0010429,0,0,0.059592,-0.025271,0,0.0054231,0,0,0,0.032854,0.0001473,0.0099003,1.8282,0.0143,0.029083,8.0112e-07,0.9,0.48,0
0.045202,0.00032357,0.032855,3.4611e-05,0.0098668,0.00084639,0,0,0.059768,-0.025564,0,0.0044012,0,0,0,0.032876,1.2798e-05,0.0098668,1.4763,0.014252,0.029211,8.0634e-07,0.92,0.48,0
0.046399,0.0003187,0.032878,-7.9905e-05,0.0098395,0.00064051,0,0,0.059901,-0.02579,0,0.0033307,0,0,0,0.032891,-9.2349e-05,0.0098395,1.1129,0.014213,0.029308,8.1015e-07,0.94,0.48,0
0.047598,0.00031652,0.032893,-0.00016173,0.0098194,0.00042926,0,0,0.059992,-0.025951,0,0.0022322,0,0,0,0.032899,-0.00016731,0.0098194,0.74389,0.014184,0.029375,8.1271e-07,0.96,0.48,0
0.048799,0.00031572,0.032902,-0.00021072,0.0098072,0.00021521,0,0,0.060045,-0.026047,0,0.0011191,0,0,0,0.032903,-0.00021212,0.0098072,0.37237,0.014166,0.029414,8.1418e-07,0.98,0.48,0
0.05,0.00031553,0.032904,-0.00022702,0.0098031,-1.8122e-06,0,0,0.060062,-0.026078,0,-9.4232e-06,0,0,0,0.032904,-0.00022702,0.0098031,-0.0031339,0.01416,0.029427,8.1466e-07,1,0.48,0
0,0,0.028994,0.012426,0.012426,-0.00060258,0,0,0.043076,1.0842e-19,0,-0.0031334,0,0,0,0.029016,0.012404,0.012426,-2.0802,0.017948,0.016601,2.3497e-07,0,0.5,0
0.00086153,-6.2669e-05,0.028909,0.01147,0.012114,-0.00060609,0,0,0.043668,-0.0016735,0,-0.0031517,0,0,0,0.028931,0.011449,0.012114,-1.9881,0.017498,0.017159,2.5815e-07,0.02,0.5,0
0.0017467,-0.00011517,0.029226,0.010709,0.01198,-0.00057872,0,0,0.044838,-0.0033059,0,-0.0030093,0,0,0,0.029244,0.010691,0.01198,-1.7884,0.017305,0.017943,2.9153e-07,0.04,0.5,0
0.002655,-0.00015937,0.029535,0.0099703,0.011851,-0.00057581,0,0,0.045976,-0.004891,0,-0.0029942,0,0,0,0.029552,0.0099534,0.011851,-1.6844,0.017119,0.018721,3.2535e-07,0.06,0.5,0
0.0035858,-0.00019677,0.029834,0.0092576,0.011728,-0.00059378,0,0,0.047077,-0.0064218,0,-0.0030876,0,0,0,0.029851,0.0092405,0.011728,-1.6516,0.01694,0.019487,3.5926e-07,0.08,0.5,0
0.0045381,-0.00022856,0.030122,0.0085739,0.011609,-0.00062988,0,0,0.048135,-0.0078908,0,-0.0032754,0,0,0,0.030141,0.0085555,0.011609,-1.6729,0.016768,0.020232,3.9288e-07,0.1,0.5,0
0.0055112,-0.00025565,0.030397,0.0079227,0.011496,-0.000682,0,0,0.049142,-0.0092901,0,-0.0035464,0,0,0,0.030418,0.0079021,0.011496,-1.7366,0.016605,0.020951,4.2585e-07,0.12,0.5,0
0.0065038,-0.00027871,0.030655,0.0073075,0.011389,-0.00074845,0,0,0.050093,-0.010612,0,-0.0038919,0,0,0,0.030679,0.0072835,0.011389,-1.8342,0.016451,0.021637,4.5778e-07,0.14,0.5,0
0.0075149,-0.00029818,0.030896,0.0067316,0.011288,-0.00082782,0,0,0.05098,-0.011847,0,-0.0043047,0,0,0,0.030924,0.0067033,0.011288,-1.9598,0.016305,0.022285,4.8829e-07,0.16,0.5,0
0.008543,-0.00031425,0.031116,0.0061985,0.011194,-0.00091883,0,0,0.051795,-0.012989,0,-0.0047779,0,0,0,0.031149,0.0061647,0.011194,-2.109,0.016169,0.022888,5.1699e-07,0.18,0.5,0
0.0095867,-0.00032687,0.031311,0.0057111,0.011107,-0.0010201,0,0,0.052532,-0.014029,0,-0.0053046,0,0,0,0.031352,0.0056705,0.011107,-2.2783,0.016043,0.023441,5.435e-07,0.2,0.5,0
0.010644,-0.00033568,0.031481,0.0052721,0.011026,-0.0011301,0,0,0.053183,-0.01496,0,-0.0058765,0,0,0,0.03153,0.0052235,0.011026,-2.4644,0.015926,0.023938,5.6743e-07,0.22,0.5,0
0.011714,-0.00033996,0.031621,0.0048836,0.010951,-0.0012467,0,0,0.053741,-0.015776,0,-0.006483,0,0,0,0.031679,0.0048256,0.010951,-2.6639,0.015819,0.024375,5.884e-07,0.24,0.5,0
0.012794,-0.00033856,0.031727,0.0045465,0.010882,-0.0013672,0,0,0.054197,-0.016473,0,-0.0071095,0,0,0,0.031796,0.0044779,0.010882,-2.8723,0.015719,0.024745,6.0604e-07,0.26,0.5,0
0.013882,-0.00032977,0.031796,0.0042606,0.010817,-0.0014874,0,0,0.054545,-0.017046,0,-0.0077347,0,0,0,0.031876,0.0041805,0.010817,-3.0831,0.015624,0.025045,6.1993e-07,0.28,0.5,0
0.014976,-0.00031114,0.03182,0.0040233,0.010753,-0.0016013,0,0,0.054774,-0.017497,0,-0.0083269,0,0,0,0.031912,0.0039314,0.010753,-3.2862,0.015532,0.02527,6.2966e-07,0.3,0.5,0
0.016073,-0.0002792,0.031794,0.003828,0.010687,-0.0016994,0,0,0.054879,-0.017833,0,-0.0088367,0,0,0,0.031897,0.0037251,0.010687,-3.4646,0.015436,0.025417,6.3485e-07,0.32,0.5,0
0.017171,-0.00022911,0.031712,0.0036604,0.010612,-0.0017661,0,0,0.05486,-0.018073,0,-0.009184,0,0,0,0.031823,0.0035497,0.010612,-3.5885,0.015328,0.025487,6.3531e-07,0.34,0.5,0
0.018267,-0.00015415,0.031582,0.0034931,0.010522,-0.0017773,0,0,0.054754,-0.018276,0,-0.0092419,0,0,0,0.031694,0.0033811,0.010522,-3.6062,0.015199,0.025503,6.3209e-07,0.36,0.5,0
0.019361,-4.5168e-05,0.031455,0.0032592,0.010414,-0.0017184,0,0,0.054706,-0.018603,0,-0.0089355,0,0,0,0.031559,0.0031549,0.010414,-3.4747,0.015043,0.02556,6.3014e-07,0.38,0.5,0
0.020456,0.00010494,0.031303,0.0027347,0.010211,-0.001609,0,0,0.054838,-0.019439,0,-0.0083669,0,0,0,0.031393,0.0026444,0.010211,-3.2135,0.01475,0.025811,6.3397e-07,0.4,0.5,0
0.021555,0.00030075,0.0313,0.0019595,0.0099779,-0.0016358,0,0,0.055438,-0.020848,0,-0.0085061,0,0,0,0.031391,0.0018686,0.0099779,-3.1812,0.014412,0.026418,6.5486e-07,0.42,0.5,0
0.022673,0.00052389,0.030947,0.00058931,0.009461,-0.0017528,0,0,0.055865,-0.023066,0,-0.0091146,0,0,0,0.031048,0.00048844,0.009461,-3.2935,0.013666,0.027207,6.6781e-07,0.44,0.5,0
0.023789,0.00077921,0.031822,-2.2045e-05,0.0095401,-0.0024936,0,0,0.057934,-0.024862,0,-0.012967,0,0,0,0.032016,-0.00021612,0.0095401,-4.4504,0.01378,0.02863,7.5037e-07,0.46,0.5,0
0.02499,0.0010188,0.036497,-0.00038712,0.010833,-0.0024942,0,0,0.04671,-0.020219,0,-0.0099487,0,0,0,0.036678,-0.00056811,0.010833,-4.0741,0.015648,0.033055,1.2682e-06,0.48,0.5,0
0.025791,0.0010894,0.029266,-0.0012593,0.0084021,-0.0015079,0,0,0.037132,-0.017088,0,-0.0065481,0,0,0,0.02937,-0.0013627,0.0084021,-3.2973,0.012136,0.027198,7.2099e-07,0.5,0.5,0
0.026418,0.0011373,0.035066,-0.00087741,0.010256,-0.001374,0,0,0.032252,-0.014474,0,-0.0035724,0,0,0,0.035118,-0.00092986,0.010256,-2.186,0.014815,0.031959,1.0104e-06,0.52,0.5,0
0.027081,0.0011899,0.036999,-0.00035692,0.010993,-0.00093768,0,0,0.033808,-0.014754,0,-0.002438,0,0,0,0.037022,-0.00038044,0.010993,-1.437,0.015878,0.03321,1.1645e-06,0.54,0.5,0
0.02777,0.0012268,0.038076,-0.00017762,0.011369,-0.00060607,0,0,0.034718,-0.015011,0,-0.0015758,0,0,0,0.038085,-0.00018722,0.011369,-0.90747,0.016422,0.034001,1.2606e-06,0.56,0.5,0
0.02847,0.0012533,0.038465,-0.00020168,0.011479,-0.00022545,0,0,0.035082,-0.015185,0,-0.00058618,0,0,0,0.038466,-0.000203,0.011479,-0.33406,0.016581,0.034352,1.2993e-06,0.58,0.5,0
0.029173,0.0012702,0.038435,-0.00031466,0.011436,0.00015744,0,0,0.035098,-0.015276,0,0.00040936,0,0,0,0.038435,-0.0003153,0.011436,0.2328,0.016519,0.034414,1.3002e-06,0.6,0.5,0
0.029874,0.0012773,0.037985,-0.00052111,0.011239,0.0005377,0,0,0.034769,-0.015288,0,0.001398,0,0,0,0.037992,-0.00052862,0.011239,0.79987,0.016234,0.034191,1.2632e-06,0.62,0.5,0
0.030564,0.0012737,0.036841,-0.00094873,0.010768,0.000864,0,0,0.033895,-0.015231,0,0.0022464,0,0,0,0.036861,-0.00096847,0.010768,1.3091,0.015553,0.033538,1.1681e-06,0.64,0.5,0
0.03123,0.0012533,0.034868,-0.0017412,0.0099379,0.0013175,0,0,0.032409,-0.015183,0,0.0034255,0,0,0,0.034915,-0.0017886,0.0099379,2.0584,0.014355,0.032469,1.0165e-06,0.66,0.5,0
0.03186,0.0012394,0.029079,-0.0022884,0.0080372,0.0014662,0,0,0.03746,-0.018284,0,0.0064325,0,0,0,0.029177,-0.0023865,0.0080372,3.1436,0.011609,0.027855,7.2814e-07,0.68,0.5,0
0.032669,0.0011972,0.036205,-0.0019523,0.010276,0.0023372,0,0,0.047204,-0.022051,0,0.0093616,0,0,0,0.036359,-0.0021071,0.010276,3.7037,0.014843,0.034011,1.2852e-06,0.7,0.5,0
0.033884,0.0009667,0.031605,-0.0015842,0.0090061,0.0022887,0,0,0.058756,-0.027535,0,0.011901,0,0,0,0.031762,-0.0017413,0.0090061,3.9264,0.013009,0.029629,7.6768e-07,0.72,0.5,0
0.035019,0.00071829,0.030765,-0.0011097,0.0088966,0.001506,0,0,0.056858,-0.026016,0,0.0078313,0,0,0,0.030836,-0.0011807,0.0088966,2.6991,0.012851,0.028355,6.9186e-07,0.74,0.5,0
0.036159,0.00049682,0.031116,6.7336e-05,0.009355,0.0013351,0,0,0.056578,-0.024148,0,0.0069425,0,0,0,0.031173,1.0033e-05,0.009355,2.4577,0.013513,0.027699,6.8745e-07,0.76,0.5,0
0.037282,0.00029976,0.031144,0.00065941,0.0095412,0.0012744,0,0,0.056169,-0.023093,0,0.006627,0,0,0,0.031198,0.00060622,0.0095412,2.3897,0.013782,0.027246,6.7467e-07,0.78,0.5,0
0.038405,0.00014631,0.031329,0.00096557,0.0096884,0.0013577,0,0,0.056266,-0.022679,0,0.00706,0,0,0,0.03139,0.00090498,0.0096884,2.5551,0.013994,0.027179,6.7979e-07,0.8,0.5,0
0.039533,3.3042e-05,0.031509,0.00094974,0.0097377,0.0013968,0,0,0.056606,-0.022849,0,0.0072633,0,0,0,0.031573,0.00088603,0.0097377,2.6116,0.014065,0.027357,6.9239e-07,0.82,0.5,0
0.040669,-4.6663e-05,0.031713,0.00082988,0.0097628,0.0013647,0,0,0.05707,-0.023225,0,0.0070965,0,0,0,0.031773,0.00076969,0.0097628,2.5253,0.014102,0.027627,7.0878e-07,0.84,0.5,0
0.041816,-0.00010172,0.03189,0.00067399,0.0097691,0.0012717,0,0,0.057514,-0.023647,0,0.006613,0,0,0,0.031941,0.00062226,0.0097691,2.3291,0.014111,0.027894,7.2405e-07,0.86,0.5,0
0.04297,-0.00013895,0.032031,0.00051077,0.0097624,0.0011384,0,0,0.057897,-0.024054,0,0.0059197,0,0,0,0.032072,0.00046971,0.0097624,2.0658,0.014101,0.028131,7.3696e-07,0.88,0.5,0
0.044131,-0.00016349,0.03214,0.00035788,0.0097493,0.00097791,0,0,0.058215,-0.024418,0,0.0050851,0,0,0,0.03217,0.00032782,0.0097493,1.7607,0.014082,0.028332,7.4744e-07,0.9,0.5,0
0.045299,-0.00017914,0.032222,0.00022553,0.0097343,0.00079895,0,0,0.058469,-0.024723,0,0.0041546,0,0,0,0.032242,0.00020559,0.0097343,1.4295,0.014061,0.028493,7.5566e-07,0.92,0.5,0
0.04647,-0.00018873,0.032282,0.00011944,0.0097205,0.00060776,0,0,0.05866,-0.024963,0,0.0031604,0,0,0,0.032294,0.00010796,0.0097205,1.0822,0.014041,0.028617,7.6179e-07,0.94,0.5,0
0.047645,-0.00019427,0.032323,4.2474e-05,0.0097095,0.00040883,0,0,0.058794,-0.025134,0,0.0021259,0,0,0,0.032328,3.7297e-05,0.0097095,0.7255,0.014025,0.028704,7.6602e-07,0.96,0.5,0
0.048822,-0.00019708,0.032346,-4.0449e-06,0.0097026,0.00020543,0,0,0.058873,-0.025237,0,0.0010682,0,0,0,0.032347,-5.3494e-06,0.0097026,0.36382,0.014015,0.028755,7.685e-07,0.98,0.5,0
0.05,-0.00019794,0.032354,-1.9596e-05,0.0097002,-8.2284e-06,0,0,0.058899,-0.025271,0,-4.2788e-05,0,0,0,0.032354,-1.9598e-05,0.0097002,-0.014563,0.014011,0.028772,7.6931e-07,1,0.5,0
0,0,0.028806,0.012345,0.012345,-0.00091785,0,0,0.042798,3.2526e-19,0,-0.0047728,0,0,0,0.028857,0.012294,0.012345,-3.1817,0.017832,0.016537,2.3227e-07,0,0.52,0
0.00085595,-9.5456e-05,0.028725,0.011428,0.012046,-0.00091978,0,0,0.043367,-0.0016074,0,-0.0047829,0,0,0,0.028774,0.011379,0.012046,-3.0352,0.0174,0.017071,2.5421e-07,0.02,0.52,0
0.0017347,-0.00018002,0.029028,0.010691,0.011916,-0.00088601,0,0,0.044492,-0.0031839,0,-0.0046073,0,0,0,0.029071,0.010649,0.011916,-2.7599,0.017212,0.017823,2.8581e-07,0.04,0.52,0
0.0026356,-0.00025541,0.029324,0.0099738,0.011789,-0.00087453,0,0,0.04559,-0.0047203,0,-0.0045475,0,0,0,0.029363,0.0099343,0.011789,-2.5825,0.017029,0.018571,3.1791e-07,0.06,0.52,0
0.0035583,-0.00032297,0.029609,0.0092789,0.011666,-0.00088162,0,0,0.046651,-0.0062074,0,-0.0045844,0,0,0,0.029647,0.0092407,0.011666,-2.4784,0.016851,0.019308,3.5011e-07,0.08,0.52,0
0.0045017,-0.0003837,0.029881,0.0086107,0.011548,-0.00090442,0,0,0.047668,-0.007636,0,-0.004703,0,0,0,0.02992,0.0085723,0.011548,-2.4303,0.01668,0.020026,3.8198e-07,0.1,0.52,0
0.005465,-0.00043836,0.030138,0.0079731,0.011433,-0.0009407,0,0,0.048632,-0.0089966,0,-0.0048916,0,0,0,0.030178,0.0079332,0.011433,-2.4259,0.016515,0.020717,4.1311e-07,0.12,0.52,0
0.006447,-0.00048744,0.030376,0.0073699,0.011324,-0.00098869,0,0,0.049536,-0.01028,0,-0.0051412,0,0,0,0.030418,0.0073275,0.011324,-2.4562,0.016356,0.021375,4.4305e-07,0.14,0.52,0
0.0074464,-0.00053121,0.030593,0.0068047,0.011219,-0.0010469,0,0,0.050371,-0.011478,0,-0.0054438,0,0,0,0.030639,0.0067587,0.011219,-2.515,0.016206,0.021992,4.7139e-07,0.16,0.52,0
0.0084618,-0.00056969,0.030785,0.0062809,0.01112,-0.0011138,0,0,0.051129,-0.012581,0,-0.005792,0,0,0,0.030835,0.0062304,0.01112,-2.5973,0.016062,0.022561,4.9769e-07,0.18,0.52,0
0.0094915,-0.00060268,0.030949,0.0058014,0.011025,-0.0011881,0,0,0.051802,-0.013581,0,-0.0061781,0,0,0,0.031005,0.0057454,0.011025,-2.6989,0.015925,0.023077,5.2153e-07,0.2,0.52,0
0.010534,-0.00062966,0.031082,0.0053684,0.010935,-0.0012678,0,0,0.052381,-0.014473,0,-0.0065925,0,0,0,0.031144,0.005306,0.010935,-2.8159,0.015795,0.023534,5.425e-07,0.22,0.52,0
0.011587,-0.00064981,0.031179,0.0049833,0.010849,-0.0013505,0,0,0.052859,-0.01525,0,-0.0070227,0,0,0,0.031249,0.0049138,0.010849,-2.9435,0.01567,0.023926,5.602e-07,0.24,0.52,0
0.012648,-0.00066189,0.031237,0.0046462,0.010765,-0.0014329,0,0,0.053228,-0.015909,0,-0.0074514,0,0,0,0.031314,0.0045692,0.010765,-3.0757,0.01555,0.024248,5.7425e-07,0.26,0.52,0
0.013716,-0.00066414,0.031252,0.0043554,0.010682,-0.0015104,0,0,0.053481,-0.016449,0,-0.0078539,0,0,0,0.031336,0.0042709,0.010682,-3.2041,0.01543,0.024497,5.8428e-07,0.28,0.52,0
0.014787,-0.00065414,0.031217,0.0041062,0.010597,-0.001576,0,0,0.053611,-0.016876,0,-0.0081951,0,0,0,0.031308,0.0040149,0.010597,-3.3158,0.015307,0.02467,5.9002e-07,0.3,0.52,0
0.01586,-0.00062866,0.031129,0.0038889,0.010505,-0.0016203,0,0,0.053622,-0.017203,0,-0.0084258,0,0,0,0.031225,0.0037928,0.010505,-3.3922,0.015175,0.024768,5.9141e-07,0.32,0.52,0
0.016932,-0.00058346,0.03099,0.003685,0.010403,-0.001631,0,0,0.053528,-0.017466,0,-0.0084814,0,0,0,0.031087,0.003588,0.010403,-3.4063,0.015026,0.024805,5.8892e-07,0.34,0.52,0
0.018002,-0.00051322,0.030813,0.0034593,0.010282,-0.0015979,0,0,0.053381,-0.017738,0,-0.0083089,0,0,0,0.030906,0.0033663,0.010282,-3.3318,0.014851,0.024816,5.8422e-07,0.36,0.52,0
0.019068,-0.00041255,0.030607,0.0031372,0.010123,-0.0015237,0,0,0.053257,-0.018163,0,-0.0079232,0,0,0,0.030691,0.003053,0.010123,-3.1652,0.014622,0.024868,5.7994e-07,0.38,0.52,0
0.020132,-0.00027728,0.030404,0.0026561,0.0099179,-0.0014577,0,0,0.053263,-0.018881,0,-0.0075801,0,0,0,0.03048,0.0025797,0.0099179,-2.999,0.014326,0.025051,5.7994e-07,0.4,0.52,0
0.021198,-0.00010938,0.030127,0.0019071,0.0096101,-0.0014559,0,0,0.053343,-0.020028,0,-0.0075709,0,0,0,0.030201,0.0018322,0.0096101,-2.9457,0.013881,0.02539,5.8235e-07,0.42,0.52,0
0.022266,8.7284e-05,0.029917,0.0011235,0.0093123,-0.0016706,0,0,0.053574,-0.021291,0,-0.0086873,0,0,0,0.030014,0.0010269,0.0093123,-3.3095,0.013451,0.02586,5.9053e-07,0.44,0.52,0
0.023341,0.00029378,0.029242,-4.1755e-05,0.0087599,-0.0019571,0,0,0.053252,-0.022884,0,-0.010177,0,0,0,0.029372,-0.00017197,0.0087599,-3.8066,0.012653,0.026244,5.7882e-07,0.46,0.52,0
0.024396,0.00052196,0.029583,-0.00050046,0.0087248,-0.0028683,0,0,0.054232,-0.023986,0,-0.014915,0,0,0,0.029854,-0.0007715,0.0087248,-5.3981,0.012603,0.027153,6.2033e-07,0.48,0.52,0
0.02551,0.00072713,0.032903,-0.0016213,0.0093844,-0.0030951,0,0,0.042904,-0.019558,0,-0.011993,0,0,0,0.033189,-0.0019073,0.0093844,-5.2984,0.013555,0.031035,9.6513e-07,0.5,0.52,0
0.02624,0.00084385,0.029618,-0.0007878,0.0086489,-0.0024008,0,0,0.036346,-0.017199,0,-0.010022,0,0,0,0.029856,-0.001026,0.0086489,-5.1511,0.012493,0.027377,8.2513e-07,0.52,0.52,0
0.026964,0.00088545,0.029734,-0.00066107,0.008722,-0.0017305,0,0,0.036421,-0.016784,0,-0.0069911,0,0,0,0.029851,-0.00077754,0.008722,-3.6901,0.012598,0.027162,8.2504e-07,0.54,0.52,0
0.027697,0.00091734,0.030059,-0.00056504,0.0088482,-0.00095663,0,0,0.036765,-0.016739,0,-0.0038336,0,0,0,0.030094,-0.00060001,0.0088482,-2.0292,0.012781,0.027232,8.436e-07,0.56,0.52,0
0.028435,0.00094036,0.030188,-0.00060118,0.0088762,-0.00031186,0,0,0.036941,-0.016818,0,-0.0012181,0,0,0,0.030192,-0.0006047,0.0088762,-0.64452,0.012821,0.027323,8.533e-07,0.58,0.52,0
0.029175,0.00095539,0.030161,-0.00071279,0.0088344,0.00030091,0,0,0.036966,-0.016953,0,0.0012588,0,0,0,0.030165,-0.00071664,0.0088344,0.6612,0.012761,0.027388,8.5431e-07,0.6,0.52,0
0.029913,0.00096226,0.029978,-0.00090323,0.0087223,0.00094429,0,0,0.036843,-0.017151,0,0.0038703,0,0,0,0.030013,-0.00093888,0.0087223,2.0249,0.012599,0.027434,8.4677e-07,0.62,0.52,0
0.030648,0.00095954,0.029599,-0.0012428,0.0085069,0.0017177,0,0,0.03656,-0.017494,0,0.0070282,0,0,0,0.029716,-0.0013591,0.0085069,3.6417,0.012288,0.027511,8.3042e-07,0.64,0.52,0
0.031376,0.00094611,0.02947,-0.0016189,0.0083552,0.002354,0,0,0.036598,-0.018253,0,0.009951,0,0,0,0.029701,-0.0018497,0.0083552,4.9744,0.012069,0.027907,8.358e-07,0.66,0.52,0
0.032112,0.00085051,0.032656,-0.0029246,0.0089195,0.002975,0,0,0.043305,-0.021072,0,0.011565,0,0,0,0.032914,-0.0031823,0.0089195,4.9589,0.012884,0.031825,9.7044e-07,0.68,0.52,0
0.033238,0.00065355,0.029369,-0.001817,0.0082655,0.0027224,0,0,0.054869,-0.026215,0,0.014156,0,0,0,0.029605,-0.0020529,0.0082655,4.9517,0.011939,0.027965,6.2959e-07,0.7,0.52,0
0.034307,0.0004304,0.029048,-0.0015018,0.008264,0.0017634,0,0,0.054039,-0.025391,0,0.0091697,0,0,0,0.02915,-0.0016032,0.008264,3.2926,0.011937,0.027197,5.9353e-07,0.72,0.52,0
0.035399,0.0002233,0.029712,-0.00053306,0.0087538,0.0014149,0,0,0.054492,-0.024146,0,0.0073577,0,0,0,0.029778,-0.00059911,0.0087538,2.6726,0.012644,0.026947,6.1212e-07,0.74,0.52,0
0.036487,2.176e-05,0.029931,6.7551e-05,0.0089996,0.0011483,0,0,0.054422,-0.023223,0,0.0059713,0,0,0,0.029975,2.3461e-05,0.0089996,2.1988,0.013,0.026624,6.109e-07,0.76,0.52,0
0.037576,-0.00015494,0.030221,0.00061415,0.0092504,0.0011018,0,0,0.054522,-0.022454,0,0.0057292,0,0,0,0.030262,0.00057321,0.0092504,2.1283,0.013362,0.02644,6.1609e-07,0.78,0.52,0
0.038668,-0.00030201,0.030451,0.00087333,0.0093973,0.001126,0,0,0.054739,-0.022162,0,0.005855,0,0,0,0.030494,0.00083053,0.0093973,2.177,0.013574,0.026442,6.2439e-07,0.8,0.52,0
0.039766,-0.00041687,0.0307,0.00094369,0.009493,0.0011603,0,0,0.055137,-0.022228,0,0.0060334,0,0,0,0.030745,0.00089851,0.009493,2.2296,0.013712,0.026611,6.3846e-07,0.82,0.52,0
0.040873,-0.00050327,0.030938,0.00088618,0.0095472,0.0011522,0,0,0.055616,-0.022519,0,0.0059914,0,0,0,0.030982,0.00084207,0.0095472,2.1925,0.01379,0.026867,6.5491e-07,0.84,0.52,0
0.04199,-0.00056644,0.031156,0.00077381,0.009579,0.0010951,0,0,0.056101,-0.022893,0,0.0056947,0,0,0,0.031196,0.00073438,0.009579,2.0617,0.013836,0.027142,6.7137e-07,0.86,0.52,0
0.043117,-0.00061173,0.031341,0.00064271,0.0095952,0.00099662,0,0,0.05654,-0.023277,0,0.0051824,0,0,0,0.031374,0.00061039,0.0095952,1.8575,0.01386,0.027399,6.8614e-07,0.88,0.52,0
0.044252,-0.00064353,0.031491,0.0005131,0.0096013,0.00086719,0,0,0.056914,-0.023629,0,0.0045094,0,0,0,0.031516,0.00048884,0.0096013,1.6022,0.013869,0.027622,6.986e-07,0.9,0.52,0
0.045394,-0.00066535,0.031608,0.0003971,0.0096016,0.0007155,0,0,0.057217,-0.023932,0,0.0037206,0,0,0,0.031625,0.00038071,0.0096016,1.3126,0.013869,0.027805,7.0862e-07,0.92,0.52,0
0.046541,-0.00067981,0.031695,0.00030196,0.0095991,0.00054827,0,0,0.05745,-0.024173,0,0.002851,0,0,0,0.031705,0.00029238,0.0095991,1.0002,0.013865,0.027946,7.1625e-07,0.94,0.52,0
0.047692,-0.00068885,0.031755,0.00023184,0.0095961,0.00037069,0,0,0.057613,-0.024347,0,0.0019276,0,0,0,0.031759,0.00022749,0.0095961,0.67363,0.013861,0.028047,7.2159e-07,0.96,0.52,0
0.048845,-0.00069377,0.03179,0.00018905,0.0095937,0.00018682,0,0,0.05771,-0.024452,0,0.00097147,0,0,0,0.031791,0.00018794,0.0095937,0.33871,0.013858,0.028106,7.2475e-07,0.98,0.52,0
0.05,-0.00069533,0.031802,0.00017467,0.0095929,-1.4987e-05,0,0,0.057743,-0.024487,0,-7.7934e-05,0,0,0,0.031802,0.00017467,0.0095929,-0.027151,0.013856,0.028126,7.2579e-07,1,0.52,0
0,0,0.028614,0.012263,0.012263,-0.0012208,0,0,0.042512,-1.0842e-19,0,-0.0063483,0,0,0,0.028704,0.012172,0.012263,-4.2466,0.017713,0.016487,2.3014e-07,0,0.54,0
0.00085024,-0.00012697,0.028537,0.01138,0.011975,-0.001221,0,0,0.04306,-0.0015468,0,-0.0063491,0,0,0,0.028623,0.011294,0.011975,-4.0504,0.017297,0.016999,2.5092e-07,0.02,0.54,0
0.0017224,-0.00024253,0.028827,0.010666,0.011848,-0.001181,0,0,0.044146,-0.0030728,0,-0.0061414,0,0,0,0.028904,0.01059,0.011848,-3.7052,0.017114,0.017719,2.8084e-07,0.04,0.54,0
0.0026161,-0.00034818,0.029111,0.0099671,0.011723,-0.0011605,0,0,0.045207,-0.0045662,0,-0.0060344,0,0,0,0.029181,0.009897,0.011723,-3.4563,0.016934,0.018439,3.1134e-07,0.06,0.54,0
0.0035307,-0.00044507,0.029383,0.0092875,0.011601,-0.0011555,0,0,0.046233,-0.0060156,0,-0.0060087,0,0,0,0.029449,0.0092213,0.011601,-3.2801,0.016757,0.019149,3.4194e-07,0.08,0.54,0
0.0044654,-0.000534,0.029641,0.008632,0.011482,-0.0011633,0,0,0.047214,-0.0074098,0,-0.0060491,0,0,0,0.029705,0.0085678,0.011482,-3.1596,0.016585,0.019842,3.7219e-07,0.1,0.54,0
0.0054192,-0.00061551,0.029882,0.0080052,0.011366,-0.0011815,0,0,0.048141,-0.0087383,0,-0.0061438,0,0,0,0.029945,0.0079415,0.011366,-3.0825,0.016418,0.020507,4.0161e-07,0.12,0.54,0
0.006391,-0.00068991,0.030101,0.0074111,0.011254,-0.0012083,0,0,0.049004,-0.0099908,0,-0.0062833,0,0,0,0.030166,0.007347,0.011254,-3.0397,0.016255,0.021138,4.2974e-07,0.14,0.54,0
0.0073794,-0.00075728,0.030297,0.0068538,0.011145,-0.0012422,0,0,0.049794,-0.011158,0,-0.0064593,0,0,0,0.030363,0.0067881,0.011145,-3.0246,0.016099,0.021726,4.5612e-07,0.16,0.54,0
0.0083828,-0.00081748,0.030465,0.0063363,0.01104,-0.0012816,0,0,0.050504,-0.012231,0,-0.006664,0,0,0,0.030533,0.0062685,0.01104,-3.0318,0.015947,0.022265,4.8029e-07,0.18,0.54,0
0.0093996,-0.00087013,0.030602,0.0058615,0.010939,-0.0013248,0,0,0.051123,-0.013201,0,-0.0068889,0,0,0,0.030673,0.0057908,0.010939,-3.0564,0.015801,0.022749,5.0183e-07,0.2,0.54,0
0.010428,-0.0009146,0.030704,0.0054312,0.010841,-0.0013699,0,0,0.051645,-0.014065,0,-0.0071234,0,0,0,0.030778,0.0053571,0.010841,-3.0936,0.015659,0.023171,5.2032e-07,0.22,0.54,0
0.011465,-0.00094996,0.030768,0.0050459,0.010744,-0.0014142,0,0,0.052062,-0.014815,0,-0.0073536,0,0,0,0.030845,0.0049684,0.010744,-3.1374,0.015519,0.023527,5.3539e-07,0.24,0.54,0
0.01251,-0.00097492,0.030789,0.0047048,0.010648,-0.001454,0,0,0.052367,-0.015453,0,-0.0075609,0,0,0,0.03087,0.004624,0.010648,-3.1807,0.015381,0.023813,5.4673e-07,0.26,0.54,0
0.01356,-0.00098774,0.030765,0.0044048,0.010551,-0.0014846,0,0,0.052556,-0.01598,0,-0.0077197,0,0,0,0.030848,0.0043215,0.010551,-3.2133,0.01524,0.024025,5.5409e-07,0.28,0.54,0
0.014613,-0.00098616,0.030691,0.0041393,0.010449,-0.0014994,0,0,0.052629,-0.016406,0,-0.0077969,0,0,0,0.030776,0.0040548,0.010449,-3.2219,0.015093,0.024167,5.574e-07,0.3,0.54,0
0.015665,-0.00096732,0.030568,0.0038962,0.010339,-0.0014908,0,0,0.052594,-0.016752,0,-0.0077523,0,0,0,0.030651,0.0038132,0.010339,-3.1894,0.014934,0.024243,5.5688e-07,0.32,0.54,0
0.016716,-0.00092774,0.030397,0.0036553,0.010216,-0.0014516,0,0,0.052472,-0.017057,0,-0.0075483,0,0,0,0.030476,0.0035768,0.010216,-3.098,0.014756,0.02427,5.5323e-07,0.34,0.54,0
0.017764,-0.00086368,0.030186,0.0033823,0.01007,-0.0013793,0,0,0.0523,-0.017389,0,-0.0071722,0,0,0,0.030257,0.0033115,0.01007,-2.938,0.014546,0.024282,5.4774e-07,0.36,0.54,0
0.018808,-0.00077171,0.029942,0.0030344,0.009893,-0.0012862,0,0,0.052128,-0.017832,0,-0.0066881,0,0,0,0.030004,0.0029731,0.009893,-2.7304,0.01429,0.02432,5.4214e-07,0.38,0.54,0
0.019849,-0.00065029,0.029654,0.002559,0.0096639,-0.0012003,0,0,0.051974,-0.018473,0,-0.0062415,0,0,0,0.029707,0.0025059,0.0096639,-2.5315,0.013959,0.024422,5.3714e-07,0.4,0.54,0
0.020887,-0.00050036,0.02932,0.0019636,0.0093851,-0.0011774,0,0,0.051831,-0.019296,0,-0.0061227,0,0,0,0.029371,0.001913,0.0093851,-2.46,0.013556,0.024588,5.3252e-07,0.42,0.54,0
0.021922,-0.00032775,0.028819,0.0012108,0.0090089,-0.001235,0,0,0.051506,-0.020275,0,-0.0064219,0,0,0,0.028874,0.0011557,0.0090089,-2.5562,0.013013,0.024745,5.2212e-07,0.44,0.54,0
0.022947,-0.00013617,0.028214,0.00051168,0.0086178,-0.0014615,0,0,0.050951,-0.021076,0,-0.0075999,0,0,0,0.028291,0.00043479,0.0086178,-3.0116,0.012448,0.024799,5.0545e-07,0.46,0.54,0
0.02396,5.9401e-05,0.02673,-0.00065164,0.0078235,-0.0016455,0,0,0.049157,-0.022035,0,-0.0085567,0,0,0,0.026829,-0.00075017,0.0078235,-3.4268,0.011301,0.024447,4.5114e-07,0.48,0.54,0
0.024914,0.00027824,0.025472,-0.0013979,0.0072223,-0.0024041,0,0,0.04745,-0.022412,0,-0.012501,0,0,0,0.025686,-0.0016113,0.0072223,-5.0725,0.010432,0.024125,4.0886e-07,0.5,0.54,0
0.025858,0.00044932,0.024351,-0.0013326,0.0069055,-0.0019959,0,0,0.045358,-0.021419,0,-0.010379,0,0,0,0.024505,-0.0014868,0.0069055,-4.4171,0.0099746,0.022976,3.544e-07,0.52,0.54,0
0.026728,0.00051858,0.022907,-0.001143,0.0065291,-0.0015722,0,0,0.042582,-0.019948,0,-0.0081752,0,0,0,0.023009,-0.0012453,0.0065291,-3.7243,0.009431,0.021451,2.9167e-07,0.54,0.54,0
0.027562,0.00055723,0.022256,-0.0011177,0.0063414,-0.0009198,0,0,0.041377,-0.019394,0,-0.004783,0,0,0,0.022292,-0.0011538,0.0063414,-2.2501,0.0091598,0.02074,2.6467e-07,0.56,0.54,0
0.028383,0.00058056,0.022036,-0.0011466,0.0062667,-0.00028496,0,0,0.040999,-0.019275,0,-0.0014818,0,0,0,0.022039,-0.0011501,0.0062667,-0.70414,0.0090519,0.020512,2.5587e-07,0.58,0.54,0
0.029202,0.00059202,0.022007,-0.0012574,0.006225,0.00033256,0,0,0.041034,-0.019454,0,0.0017293,0,0,0,0.022012,-0.0012621,0.006225,0.81879,0.0089917,0.020579,2.5612e-07,0.6,0.54,0
0.030024,0.00059124,0.022174,-0.0014536,0.006216,0.00096373,0,0,0.04149,-0.019941,0,0.0050114,0,0,0,0.022213,-0.0014928,0.006216,2.3319,0.0089787,0.020944,2.6546e-07,0.62,0.54,0
0.030861,0.00057397,0.022786,-0.0017123,0.006322,0.0016046,0,0,0.042805,-0.020889,0,0.0083442,0,0,0,0.02289,-0.0018169,0.006322,3.7317,0.0091318,0.021808,2.9347e-07,0.64,0.54,0
0.031737,0.00052316,0.024199,-0.0021663,0.0066099,0.0019964,0,0,0.045733,-0.022818,0,0.010381,0,0,0,0.02435,-0.0023166,0.0066099,4.3056,0.0095477,0.02351,3.5772e-07,0.66,0.54,0
0.032691,0.00036394,0.025292,-0.0024746,0.0068451,0.0023428,0,0,0.047961,-0.024231,0,0.012182,0,0,0,0.025488,-0.0026709,0.0068451,4.7892,0.0098874,0.02481,4.1327e-07,0.68,0.54,0
0.033655,0.00014863,0.02654,-0.0018745,0.0073998,0.0015171,0,0,0.049766,-0.024113,0,0.007889,0,0,0,0.026621,-0.0019552,0.0073998,3.0476,0.010689,0.025235,4.5937e-07,0.7,0.54,0
0.034681,-4.8941e-05,0.028005,-0.00090026,0.0081314,0.0012707,0,0,0.051671,-0.023482,0,0.0066078,0,0,0,0.028061,-0.00095601,0.0081314,2.5124,0.011745,0.025707,5.1927e-07,0.72,0.54,0
0.035722,-0.00024754,0.028605,-0.00038142,0.0084671,0.00098435,0,0,0.052359,-0.023006,0,0.0051186,0,0,0,0.028639,-0.00041481,0.0084671,1.9427,0.01223,0.025786,5.4138e-07,0.74,0.54,0
0.036776,-0.00043211,0.029102,0.00017745,0.008784,0.00086591,0,0,0.052828,-0.022377,0,0.0045027,0,0,0,0.029128,0.00015155,0.008784,1.7132,0.012688,0.025769,5.5789e-07,0.76,0.54,0
0.037835,-0.00059841,0.029444,0.00056776,0.0090034,0.00083075,0,0,0.053145,-0.021933,0,0.0043199,0,0,0,0.029468,0.00054388,0.0090034,1.6466,0.013005,0.025758,5.6916e-07,0.78,0.54,0
0.038901,-0.00074018,0.02975,0.00081716,0.00917,0.00085996,0,0,0.053507,-0.021718,0,0.0044718,0,0,0,0.029775,0.00079162,0.00917,1.701,0.013246,0.025834,5.8173e-07,0.8,0.54,0
0.039975,-0.00085609,0.030026,0.0009141,0.0092819,0.00089638,0,0,0.053933,-0.021756,0,0.0046612,0,0,0,0.030053,0.00088653,0.0092819,1.762,0.013407,0.026006,5.9614e-07,0.82,0.54,0
0.041059,-0.00094741,0.030285,0.00090762,0.0093578,0.00090933,0,0,0.054411,-0.021971,0,0.0047285,0,0,0,0.030313,0.0008795,0.0093578,1.7712,0.013517,0.026243,6.121e-07,0.84,0.54,0
0.042152,-0.0010175,0.03052,0.00083898,0.0094078,0.00088415,0,0,0.054893,-0.022279,0,0.0045976,0,0,0,0.030547,0.00081266,0.0094078,1.7047,0.013589,0.026503,6.2811e-07,0.86,0.54,0
0.043254,-0.00107,0.030725,0.00074224,0.0094403,0.00082123,0,0,0.055341,-0.022615,0,0.0042704,0,0,0,0.030748,0.00071976,0.0094403,1.5678,0.013636,0.026756,6.4298e-07,0.88,0.54,0
0.044366,-0.0011087,0.030896,0.00063872,0.0094605,0.00072652,0,0,0.055733,-0.022937,0,0.0037779,0,0,0,0.030914,0.00062129,0.0094605,1.3747,0.013665,0.026982,6.5592e-07,0.9,0.54,0
0.045484,-0.0011364,0.031033,0.00054187,0.0094725,0.00060717,0,0,0.056057,-0.02322,0,0.0031573,0,0,0,0.031045,0.00052979,0.0094725,1.1403,0.013682,0.027171,6.666e-07,0.92,0.54,0
0.046608,-0.0011556,0.031137,0.00046018,0.009479,0.00046969,0,0,0.056309,-0.023449,0,0.0024424,0,0,0,0.031144,0.00045299,0.009479,0.87699,0.013692,0.02732,6.7489e-07,0.94,0.54,0
0.047736,-0.0011681,0.031209,0.00039886,0.0094823,0.00031964,0,0,0.056489,-0.023617,0,0.0016621,0,0,0,0.031212,0.00039555,0.0094823,0.59433,0.013697,0.027426,6.8077e-07,0.96,0.54,0
0.048867,-0.0011752,0.031252,0.00036102,0.0094838,0.00016171,0,0,0.056596,-0.023719,0,0.00084089,0,0,0,0.031252,0.00036017,0.0094838,0.29993,0.013699,0.02749,6.8428e-07,0.98,0.54,0
0.05,-0.0011774,0.031266,0.00034824,0.0094842,-2.1747e-05,0,0,0.056632,-0.023754,0,-0.00011309,0,0,0,0.031266,0.00034822,0.0094842,-0.040301,0.013699,0.027512,6.8545e-07,1,0.54,0
0,0,0.028421,0.012181,0.012181,-0.0015128,0,0,0.042226,0,0,-0.0078664,0,0,0,0.028561,0.012041,0.012181,-5.2764,0.017594,0.016451,2.2859e-07,0,0.56,0
0.00084451,-0.00015733,0.028347,0.011328,0.011902,-0.001511,0,0,0.042756,-0.0014935,0,-0.0078571,0,0,0,0.02848,0.011195,0.011902,-5.0344,0.017193,0.016942,2.4831e-07,0.02,0.56,0
0.0017102,-0.00030293,0.028627,0.010634,0.011778,-0.0014652,0,0,0.043808,-0.0029762,0,-0.0076189,0,0,0,0.028746,0.010515,0.011778,-4.6248,0.017013,0.017633,2.7672e-07,0.04,0.56,0
0.0025968,-0.00043806,0.0289,0.0099497,0.011655,-0.0014351,0,0,0.044838,-0.0044337,0,-0.0074626,0,0,0,0.029008,0.0098416,0.011655,-4.3063,0.016835,0.018327,3.0576e-07,0.06,0.56,0
0.0035037,-0.00056359,0.029161,0.009282,0.011533,-0.0014172,0,0,0.045834,-0.0058526,0,-0.0073693,0,0,0,0.029262,0.0091815,0.011533,-4.0572,0.016659,0.019014,3.3492e-07,0.08,0.56,0
0.0044302,-0.0006801,0.029407,0.008636,0.011413,-0.0014084,0,0,0.046785,-0.0072201,0,-0.0073239,0,0,0,0.029502,0.008541,0.011413,-3.8615,0.016485,0.019683,3.637e-07,0.1,0.56,0
0.0053751,-0.00078789,0.029634,0.0080167,0.011295,-0.0014067,0,0,0.047681,-0.0085242,0,-0.0073148,0,0,0,0.029725,0.0079256,0.011295,-3.7075,0.016315,0.020325,3.9161e-07,0.12,0.56,0
0.0063374,-0.00088707,0.029839,0.0074287,0.01118,-0.0014101,0,0,0.048512,-0.0097538,0,-0.0073325,0,0,0,0.029927,0.0073403,0.01118,-3.5864,0.016149,0.020932,4.1814e-07,0.14,0.56,0
0.0073156,-0.00097752,0.030017,0.0068758,0.011068,-0.0014171,0,0,0.049267,-0.010899,0,-0.0073688,0,0,0,0.030103,0.0067894,0.011068,-3.4913,0.015987,0.021496,4.4281e-07,0.16,0.56,0
0.0083081,-0.0010589,0.030165,0.0063615,0.010958,-0.0014261,0,0,0.049938,-0.011951,0,-0.007416,0,0,0,0.03025,0.0062763,0.010958,-3.4165,0.015828,0.02201,4.6517e-07,0.18,0.56,0
0.0093131,-0.0011307,0.03028,0.005888,0.01085,-0.0014356,0,0,0.050517,-0.012902,0,-0.0074654,0,0,0,0.030364,0.0058038,0.01085,-3.3568,0.015673,0.022466,4.848e-07,0.2,0.56,0
0.010329,-0.0011922,0.030359,0.0054569,0.010745,-0.0014435,0,0,0.050996,-0.013748,0,-0.0075062,0,0,0,0.030442,0.0053735,0.010745,-3.3066,0.01552,0.022861,5.0132e-07,0.22,0.56,0
0.011353,-0.0012424,0.030397,0.0050679,0.01064,-0.0014471,0,0,0.05137,-0.014486,0,-0.0075247,0,0,0,0.03048,0.0049855,0.01064,-3.2591,0.015368,0.02319,5.1442e-07,0.24,0.56,0
0.012384,-0.00128,0.030393,0.0047192,0.010534,-0.0014428,0,0,0.051635,-0.015118,0,-0.0075026,0,0,0,0.030474,0.0046384,0.010534,-3.2064,0.015215,0.023451,5.2389e-07,0.26,0.56,0
0.013418,-0.0013033,0.030344,0.0044065,0.010425,-0.0014263,0,0,0.051789,-0.015649,0,-0.0074166,0,0,0,0.030422,0.0043283,0.010425,-3.138,0.015059,0.023643,5.2963e-07,0.28,0.56,0
0.014455,-0.0013104,0.030249,0.0041219,0.010311,-0.0013922,0,0,0.051837,-0.016092,0,-0.0072393,0,0,0,0.030323,0.004048,0.010311,-3.0415,0.014894,0.02377,5.3172e-07,0.3,0.56,0
0.015492,-0.0012987,0.030107,0.0038527,0.010188,-0.0013351,0,0,0.05179,-0.016472,0,-0.0069424,0,0,0,0.030175,0.003785,0.010188,-2.9036,0.014716,0.023842,5.3053e-07,0.32,0.56,0
0.016527,-0.0012657,0.029923,0.0035795,0.010051,-0.0012513,0,0,0.051668,-0.016825,0,-0.0065068,0,0,0,0.029982,0.0035202,0.010051,-2.7134,0.014518,0.023876,5.2675e-07,0.34,0.56,0
0.017559,-0.0012088,0.0297,0.0032762,0.0098928,-0.0011423,0,0,0.051498,-0.017203,0,-0.0059399,0,0,0,0.029749,0.0032269,0.0098928,-2.4707,0.01429,0.023897,5.2137e-07,0.36,0.56,0
0.018587,-0.0011259,0.029438,0.0029119,0.0097048,-0.0010175,0,0,0.051305,-0.017662,0,-0.0052911,0,0,0,0.029476,0.0028729,0.0097048,-2.1936,0.014018,0.023931,5.1525e-07,0.38,0.56,0
0.019611,-0.0010162,0.029133,0.0024649,0.0094794,-0.00089759,0,0,0.051099,-0.018238,0,-0.0046675,0,0,0,0.029163,0.0024347,0.0094794,-1.9255,0.013692,0.023995,5.0876e-07,0.4,0.56,0
0.020631,-0.00088122,0.028757,0.0019191,0.0092029,-0.00080216,0,0,0.050841,-0.018938,0,-0.0041712,0,0,0,0.028781,0.0018951,0.0092029,-1.7105,0.013293,0.024079,5.0064e-07,0.42,0.56,0
0.021644,-0.00072372,0.028299,0.0013107,0.0088828,-0.00075454,0,0,0.050481,-0.019688,0,-0.0039236,0,0,0,0.02832,0.0012896,0.0088828,-1.6002,0.012831,0.024146,4.8933e-07,0.44,0.56,0
0.02265,-0.00054926,0.027651,0.00059399,0.0084736,-0.00071884,0,0,0.049862,-0.020487,0,-0.0037379,0,0,0,0.02767,0.0005749,0.0084736,-1.5208,0.01224,0.024136,4.7e-07,0.46,0.56,0
0.023639,-0.00035946,0.027057,-2.3264e-05,0.00811,-0.00072408,0,0,0.049261,-0.021146,0,-0.0037652,0,0,0,0.027076,-4.2611e-05,0.00811,-1.5306,0.011714,0.0241,4.5137e-07,0.48,0.56,0
0.02462,-0.00016938,0.026252,-0.0011077,0.0075432,-0.00069401,0,0,0.048642,-0.022492,0,-0.0036088,0,0,0,0.026269,-0.0011253,0.0075432,-1.4521,0.010896,0.024251,4.2958e-07,0.5,0.56,0
0.025585,-1.2921e-05,0.025414,-0.0018825,0.0070594,-0.00090947,0,0,0.047721,-0.023249,0,-0.0047292,0,0,0,0.025444,-0.0019127,0.0070594,-1.9062,0.010197,0.024155,4.0166e-07,0.52,0.56,0
0.026529,8.7545e-05,0.024813,-0.0016878,0.0069375,-0.00087477,0,0,0.046476,-0.022426,0,-0.0045488,0,0,0,0.024842,-0.0017166,0.0069375,-1.8886,0.010021,0.02346,3.719e-07,0.54,0.56,0
0.027444,0.00014159,0.024192,-0.0016132,0.0067735,-0.00058848,0,0,0.045287,-0.021805,0,-0.0030601,0,0,0,0.024205,-0.0016266,0.0067735,-1.3057,0.0097839,0.022822,3.4347e-07,0.56,0.56,0
0.028341,0.00016937,0.023878,-0.0016385,0.0066719,-0.00017095,0,0,0.044736,-0.021607,0,-0.00088893,0,0,0,0.023879,-0.0016396,0.0066719,-0.38383,0.0096371,0.022543,3.302e-07,0.58,0.56,0
0.029233,0.00017722,0.023856,-0.0017463,0.0066329,0.00027071,0,0,0.04478,-0.021786,0,0.0014077,0,0,0,0.023859,-0.0017492,0.0066329,0.60574,0.0095808,0.022614,3.3065e-07,0.6,0.56,0
0.030132,0.00016462,0.024129,-0.0019389,0.0066569,0.00067931,0,0,0.045427,-0.022349,0,0.0035324,0,0,0,0.024146,-0.0019566,0.0066569,1.4918,0.0096156,0.023037,3.4495e-07,0.62,0.56,0
0.03105,0.00012398,0.024715,-0.0022402,0.0067425,0.0009434,0,0,0.046729,-0.023355,0,0.0049057,0,0,0,0.024748,-0.0022732,0.0067425,2.002,0.0097392,0.023829,3.7461e-07,0.64,0.56,0
0.032001,3.3378e-05,0.025284,-0.0026687,0.0067845,0.00093448,0,0,0.048098,-0.024578,0,0.0048593,0,0,0,0.025315,-0.0026999,0.0067845,1.9126,0.0097998,0.024679,4.0545e-07,0.66,0.56,0
0.032974,-0.00011875,0.026091,-0.0021033,0.0071964,0.00065469,0,0,0.049127,-0.024179,0,0.0034044,0,0,0,0.026106,-0.0021185,0.0071964,1.3295,0.010395,0.02491,4.36e-07,0.68,0.56,0
0.033966,-0.00031097,0.026872,-0.00119,0.0077046,0.00061593,0,0,0.049835,-0.023126,0,0.0032028,0,0,0,0.026885,-0.0012035,0.0077046,1.2568,0.011129,0.024862,4.6136e-07,0.7,0.56,0
0.034967,-0.00050889,0.02744,-0.00074967,0.0080072,0.00054556,0,0,0.050526,-0.022768,0,0.0028369,0,0,0,0.027451,-0.00076023,0.0080072,1.1083,0.011566,0.025008,4.8314e-07,0.72,0.56,0
0.035987,-0.00069695,0.028068,-0.00021827,0.008355,0.00051464,0,0,0.051255,-0.022291,0,0.0026761,0,0,0,0.028078,-0.00022763,0.008355,1.042,0.012068,0.025138,5.0683e-07,0.74,0.56,0
0.037018,-0.00087332,0.028516,0.00019736,0.0086141,0.00049485,0,0,0.051746,-0.021884,0,0.0025732,0,0,0,0.028525,0.00018872,0.0086141,1.0008,0.012443,0.025203,5.2313e-07,0.76,0.56,0
0.038057,-0.0010322,0.02889,0.0005359,0.0088277,0.00052182,0,0,0.052162,-0.021559,0,0.0027135,0,0,0,0.0289,0.0005263,0.0088277,1.054,0.012751,0.025267,5.3703e-07,0.78,0.56,0
0.039104,-0.0011707,0.029203,0.00075703,0.0089881,0.00057234,0,0,0.05256,-0.021401,0,0.0029761,0,0,0,0.029215,0.00074551,0.0089881,1.1522,0.012983,0.025373,5.5018e-07,0.8,0.56,0
0.040159,-0.0012871,0.029487,0.00087236,0.0091079,0.00062545,0,0,0.052986,-0.021412,0,0.0032523,0,0,0,0.029501,0.0008587,0.0091079,1.2515,0.013156,0.025537,5.6414e-07,0.82,0.56,0
0.041224,-0.0013821,0.029747,0.00090042,0.0091941,0.00065909,0,0,0.053436,-0.021564,0,0.0034273,0,0,0,0.029762,0.00088537,0.0091941,1.3082,0.01328,0.025748,5.7879e-07,0.84,0.56,0
0.042297,-0.0014576,0.029982,0.00087044,0.0092557,0.00066215,0,0,0.053888,-0.021802,0,0.0034432,0,0,0,0.029997,0.00085539,0.0092557,1.3023,0.013369,0.025981,5.9349e-07,0.86,0.56,0
0.043379,-0.0015163,0.030189,0.00080763,0.0092991,0.00063188,0,0,0.054315,-0.022078,0,0.0032858,0,0,0,0.030203,0.00079405,0.0092991,1.2314,0.013432,0.026213,6.0737e-07,0.88,0.56,0
0.044469,-0.001561,0.030366,0.00073156,0.0093292,0.00057119,0,0,0.054695,-0.022354,0,0.0029702,0,0,0,0.030377,0.00072056,0.0093292,1.1038,0.013475,0.026425,6.1975e-07,0.9,0.56,0
0.045567,-0.0015941,0.030509,0.0006558,0.0093495,0.00048533,0,0,0.055015,-0.022604,0,0.0025237,0,0,0,0.030517,0.00064791,0.0093495,0.93114,0.013505,0.026608,6.3019e-07,0.92,0.56,0
0.04667,-0.0016178,0.03062,0.00058946,0.0093628,0.00038005,0,0,0.055268,-0.022811,0,0.0019763,0,0,0,0.030625,0.00058465,0.0093628,0.72495,0.013524,0.026754,6.3842e-07,0.94,0.56,0
0.047778,-0.0016335,0.030698,0.00053851,0.009371,0.0002608,0,0,0.05545,-0.022964,0,0.0013562,0,0,0,0.0307,0.00053626,0.009371,0.49541,0.013536,0.02686,6.4435e-07,0.96,0.56,0
0.048888,-0.0016425,0.030745,0.00050663,0.0093754,0.00013259,0,0,0.05556,-0.023059,0,0.00068945,0,0,0,0.030745,0.00050604,0.0093754,0.25122,0.013542,0.026923,6.4791e-07,0.98,0.56,0
0.05,-0.0016455,0.03076,0.00049579,0.0093767,-2.8169e-05,0,0,0.055597,-0.02309,0,-0.00014648,0,0,0,0.03076,0.00049576,0.0093767,-0.053329,0.013544,0.026945,6.4911e-07,1,0.56,0
0,0,0.028232,0.012099,0.012099,-0.0017952,0,0,0.041945,4.8789e-19,0,-0.0093353,0,0,0,0.028429,0.011902,0.012099,-6.2737,0.017477,0.016429,2.2766e-07,0,0.58,0
0.00083889,-0.00018671,0.028161,0.011272,0.01183,-0.0017914,0,0,0.04246,-0.0014493,0,-0.0093152,0,0,0,0.028348,0.011085,0.01183,-5.9888,0.017088,0.016904,2.4643e-07,0.02,0.58,0
0.0016984,-0.00036157,0.028432,0.010593,0.011708,-0.0017401,0,0,0.043484,-0.0028973,0,-0.0090485,0,0,0,0.0286,0.010425,0.011708,-5.5196,0.016911,0.017569,2.7353e-07,0.04,0.58,0
0.0025782,-0.00052553,0.028696,0.0099207,0.011585,-0.0017003,0,0,0.044489,-0.0043275,0,-0.0088418,0,0,0,0.028849,0.009768,0.011585,-5.1331,0.016734,0.018241,3.0129e-07,0.06,0.58,0
0.003478,-0.00067917,0.028949,0.0092613,0.011463,-0.0016686,0,0,0.045463,-0.0057243,0,-0.0086769,0,0,0,0.029089,0.0091209,0.011463,-4.8105,0.016558,0.018906,3.292e-07,0.08,0.58,0
0.0043967,-0.0008228,0.029185,0.0086212,0.011342,-0.0016422,0,0,0.046392,-0.0070736,0,-0.0085396,0,0,0,0.029315,0.0084909,0.011342,-4.5374,0.016383,0.019555,3.5671e-07,0.1,0.58,0
0.0053336,-0.00095648,0.029401,0.0080059,0.011222,-0.001619,0,0,0.047265,-0.0083619,0,-0.0084187,0,0,0,0.029523,0.0078841,0.011222,-4.303,0.01621,0.020178,3.833e-07,0.12,0.58,0
0.0062874,-0.0010801,0.029593,0.0074203,0.011104,-0.0015972,0,0,0.048071,-0.0095775,0,-0.0083054,0,0,0,0.029707,0.0073059,0.011104,-4.0991,0.016039,0.020765,4.0846e-07,0.14,0.58,0
0.0072565,-0.0011932,0.029757,0.0068686,0.010988,-0.0015754,0,0,0.048801,-0.01071,0,-0.0081923,0,0,0,0.029865,0.0067607,0.010988,-3.9191,0.015871,0.021308,4.3169e-07,0.16,0.58,0
0.0082394,-0.0012955,0.029891,0.006354,0.010873,-0.0015524,0,0,0.049445,-0.01175,0,-0.0080725,0,0,0,0.029992,0.0062521,0.010873,-3.7574,0.015706,0.0218,4.5256e-07,0.18,0.58,0
0.0092343,-0.0013862,0.029989,0.0058788,0.01076,-0.0015265,0,0,0.049995,-0.012692,0,-0.0079381,0,0,0,0.030086,0.0057825,0.01076,-3.6084,0.015543,0.022236,4.7067e-07,0.2,0.58,0
0.010239,-0.0014645,0.030051,0.0054437,0.010648,-0.001496,0,0,0.050447,-0.013532,0,-0.0077794,0,0,0,0.030142,0.005353,0.010648,-3.4664,0.015381,0.022611,4.8571e-07,0.22,0.58,0
0.011252,-0.0015294,0.030073,0.005048,0.010536,-0.0014585,0,0,0.050796,-0.01427,0,-0.0075841,0,0,0,0.030158,0.0049633,0.010536,-3.3242,0.015219,0.022922,4.9745e-07,0.24,0.58,0
0.012271,-0.0015796,0.030053,0.0046891,0.010423,-0.0014108,0,0,0.05104,-0.014908,0,-0.0073364,0,0,0,0.030132,0.0046109,0.010423,-3.1739,0.015055,0.023168,5.0575e-07,0.26,0.58,0
0.013294,-0.0016137,0.029991,0.0043618,0.010306,-0.0013495,0,0,0.051182,-0.015455,0,-0.0070172,0,0,0,0.030062,0.0042909,0.010306,-3.0057,0.014886,0.023352,5.1066e-07,0.28,0.58,0
0.014318,-0.0016298,0.029887,0.0040576,0.010183,-0.0012704,0,0,0.051229,-0.015927,0,-0.0066062,0,0,0,0.029949,0.0039953,0.010183,-2.8091,0.014709,0.023479,5.1238e-07,0.3,0.58,0
0.015343,-0.0016262,0.029741,0.0037642,0.010052,-0.0011702,0,0,0.051193,-0.016347,0,-0.0060852,0,0,0,0.029794,0.0037116,0.010052,-2.5742,0.014519,0.023561,5.1134e-07,0.32,0.58,0
0.016366,-0.0016007,0.029558,0.0034649,0.0099068,-0.0010474,0,0,0.051093,-0.016749,0,-0.0054463,0,0,0,0.0296,0.003423,0.0099068,-2.2949,0.01431,0.023612,5.0819e-07,0.34,0.58,0
0.017387,-0.0015518,0.02934,0.0031393,0.0097436,-0.00090388,0,0,0.050949,-0.017171,0,-0.0047002,0,0,0,0.029371,0.0031081,0.0097436,-1.9735,0.014074,0.023654,5.0367e-07,0.36,0.58,0
0.018404,-0.0014782,0.029088,0.0027669,0.0095565,-0.000747,0,0,0.050782,-0.017653,0,-0.0038844,0,0,0,0.029109,0.0027457,0.0095565,-1.6243,0.013804,0.023704,4.9843e-07,0.38,0.58,0
0.019418,-0.0013798,0.028799,0.0023305,0.009339,-0.00058739,0,0,0.050597,-0.018222,0,-0.0030544,0,0,0,0.028813,0.0023174,0.009339,-1.2707,0.01349,0.023775,4.9267e-07,0.4,0.58,0
0.020428,-0.0012579,0.02847,0.0018265,0.009089,-0.00043736,0,0,0.050391,-0.018883,0,-0.0022743,0,0,0,0.028477,0.0018193,0.009089,-0.94018,0.013129,0.023869,4.8619e-07,0.42,0.58,0
0.021434,-0.0011152,0.028087,0.0012483,0.0088006,-0.00029862,0,0,0.050145,-0.019636,0,-0.0015528,0,0,0,0.02809,0.0012449,0.0088006,-0.63739,0.012712,0.023978,4.7824e-07,0.44,0.58,0
0.022434,-0.00095564,0.027691,0.00062406,0.0084946,-0.00017771,0,0,0.049911,-0.020463,0,-0.0009241,0,0,0,0.027692,0.00062289,0.0084946,-0.37616,0.01227,0.024117,4.7021e-07,0.46,0.58,0
0.02343,-0.00078646,0.027265,-0.00013786,0.008138,-7.7455e-05,0,0,0.049729,-0.021517,0,-0.00040277,0,0,0,0.027265,-0.00013808,0.008138,-0.16195,0.011755,0.024344,4.6259e-07,0.48,0.58,0
0.024423,-0.00062145,0.026807,-0.00098882,0.0077455,-9.5432e-05,0,0,0.04956,-0.022709,0,-0.00049625,0,0,0,0.026807,-0.00098915,0.0077455,-0.19671,0.011188,0.02462,4.5397e-07,0.5,0.58,0
0.025412,-0.00048064,0.026342,-0.0016354,0.0074121,-0.00019449,0,0,0.049219,-0.023523,0,-0.0010113,0,0,0,0.026344,-0.0016367,0.0074121,-0.39827,0.010706,0.024731,4.4087e-07,0.52,0.58,0
0.026392,-0.00037845,0.025907,-0.0018949,0.0072036,-0.00028099,0,0,0.048628,-0.023656,0,-0.0014612,0,0,0,0.02591,-0.0018978,0.0072036,-0.57901,0.010405,0.024556,4.2344e-07,0.54,0.58,0
0.027357,-0.00031499,0.025552,-0.0019289,0.0070869,-0.00021713,0,0,0.048009,-0.023441,0,-0.001129,0,0,0,0.025554,-0.0019306,0.0070869,-0.45265,0.010237,0.024267,4.0701e-07,0.56,0.58,0
0.028312,-0.00028372,0.025322,-0.0019826,0.0070017,-3.7102e-05,0,0,0.047632,-0.023359,0,-0.00019293,0,0,0,0.025322,-0.0019826,0.0070017,-0.077855,0.010114,0.024102,3.9692e-07,0.58,0.58,0
0.029263,-0.00027942,0.025303,-0.0020857,0.0069651,0.00018004,0,0,0.047677,-0.023532,0,0.0009362,0,0,0,0.025304,-0.0020868,0.0069651,0.37662,0.010061,0.024171,3.9743e-07,0.6,0.58,0
0.030219,-0.00030272,0.025496,-0.0022398,0.0069769,0.00034688,0,0,0.04815,-0.023963,0,0.0018038,0,0,0,0.0255,-0.0022442,0.0069769,0.71641,0.010078,0.024474,4.0858e-07,0.62,0.58,0
0.031189,-0.00036023,0.025816,-0.0024164,0.0070198,0.00038184,0,0,0.048869,-0.024534,0,0.0019856,0,0,0,0.025821,-0.0024216,0.0070198,0.77474,0.01014,0.024902,4.261e-07,0.64,0.58,0
0.032174,-0.00045997,0.026217,-0.0023646,0.0071557,0.00024857,0,0,0.049559,-0.024753,0,0.0012926,0,0,0,0.026219,-0.0023668,0.0071557,0.49824,0.010336,0.025212,4.449e-07,0.66,0.58,0
0.033171,-0.00060323,0.026648,-0.0019116,0.0074209,8.7838e-05,0,0,0.04999,-0.024264,0,0.00045676,0,0,0,0.026648,-0.0019119,0.0074209,0.17622,0.010719,0.025224,4.601e-07,0.68,0.58,0
0.034173,-0.00077641,0.027073,-0.0012386,0.0077503,9.3782e-07,0,0,0.050239,-0.023371,0,4.8767e-06,0,0,0,0.027073,-0.0012386,0.0077503,0.0018979,0.011195,0.025057,4.7151e-07,0.7,0.58,0
0.035181,-0.00095966,0.027469,-0.00065204,0.008045,3.0142e-05,0,0,0.050502,-0.022612,0,0.00015674,0,0,0,0.027469,-0.00065208,0.008045,0.061413,0.011621,0.024937,4.8219e-07,0.72,0.58,0
0.036194,-0.0011392,0.027838,-0.00020951,0.0082885,7.837e-05,0,0,0.050828,-0.022095,0,0.00040752,0,0,0,0.027838,-0.00020973,0.0082885,0.16009,0.011972,0.024911,4.9367e-07,0.74,0.58,0
0.037214,-0.0013074,0.028202,0.00017681,0.0085136,0.00014181,0,0,0.051189,-0.021676,0,0.00073741,0,0,0,0.028203,0.0001761,0.0085136,0.28991,0.012297,0.024926,5.058e-07,0.76,0.58,0
0.038241,-0.0014608,0.028521,0.00047527,0.0086987,0.00021384,0,0,0.051537,-0.021381,0,0.001112,0,0,0,0.028522,0.00047364,0.0086987,0.43685,0.012565,0.024973,5.1721e-07,0.78,0.58,0
0.039275,-0.0015962,0.028809,0.00068793,0.008849,0.00029233,0,0,0.051895,-0.021219,0,0.0015201,0,0,0,0.028812,0.0006849,0.008849,0.59554,0.012782,0.025063,5.2879e-07,0.8,0.58,0
0.040317,-0.0017126,0.029072,0.00081484,0.008966,0.00036428,0,0,0.052275,-0.021193,0,0.0018943,0,0,0,0.029076,0.00081014,0.008966,0.73848,0.012951,0.025198,5.4092e-07,0.82,0.58,0
0.041366,-0.00181,0.029314,0.00087029,0.0090554,0.00041803,0,0,0.052673,-0.021281,0,0.0021737,0,0,0,0.02932,0.00086415,0.0090554,0.84181,0.01308,0.025372,5.5361e-07,0.84,0.58,0
0.042424,-0.0018895,0.029535,0.00087265,0.0091225,0.0004454,0,0,0.053074,-0.021449,0,0.0023161,0,0,0,0.029542,0.00086573,0.0091225,0.89004,0.013177,0.025569,5.6639e-07,0.86,0.58,0
0.043489,-0.0019531,0.029733,0.00084113,0.0091722,0.0004436,0,0,0.053458,-0.021661,0,0.0023067,0,0,0,0.02974,0.00083433,0.0091722,0.87943,0.013249,0.025769,5.7865e-07,0.88,0.58,0
0.044562,-0.0020028,0.029903,0.00079203,0.0092085,0.00041389,0,0,0.053805,-0.021883,0,0.0021522,0,0,0,0.029909,0.00078615,0.0092085,0.81439,0.013301,0.025957,5.8979e-07,0.9,0.58,0
0.045642,-0.0020405,0.030043,0.00073793,0.0092344,0.00035998,0,0,0.054103,-0.022091,0,0.0018719,0,0,0,0.030048,0.0007335,0.0092344,0.70366,0.013339,0.026123,5.9936e-07,0.92,0.58,0
0.046726,-0.0020681,0.030153,0.00068791,0.0092523,0.00028665,0,0,0.054342,-0.022267,0,0.0014906,0,0,0,0.030156,0.00068512,0.0092523,0.55733,0.013364,0.026257,6.0703e-07,0.94,0.58,0
0.047815,-0.0020867,0.030232,0.00064825,0.0092639,0.00019894,0,0,0.054516,-0.022401,0,0.0010345,0,0,0,0.030233,0.00064691,0.0092639,0.38527,0.013381,0.026356,6.1261e-07,0.96,0.58,0
0.048907,-0.0020975,0.030278,0.00062297,0.0092704,0.0001018,0,0,0.054621,-0.022483,0,0.00052935,0,0,0,0.030279,0.00062262,0.0092704,0.19667,0.013391,0.026416,6.16e-07,0.98,0.58,0
0.05,-0.0021011,0.030294,0.0006143,0.0092725,-3.3966e-05,0,0,0.054656,-0.022511,0,-0.00017662,0,0,0,0.030294,0.00061426,0.0092725,-0.06557,0.013394,0.026436,6.1714e-07,1,0.58,0
0,0,0.02805,0.012021,0.012021,-0.0020702,0,0,0.041674,2.7105e-19,0,-0.010765,0,0,0,0.028313,0.011758,0.012021,-7.2419,0.017364,0.016425,2.2737e-07,0,0.6,0
0.00083348,-0.0002153,0.02798,0.011214,0.011758,-0.0020642,0,0,0.042178,-0.0014157,0,-0.010734,0,0,0,0.028231,0.010963,0.011758,-6.9162,0.016984,0.016884,2.4536e-07,0.02,0.6,0
0.0016871,-0.00041883,0.028246,0.010545,0.011637,-0.0020078,0,0,0.043182,-0.0028389,0,-0.010441,0,0,0,0.02847,0.01032,0.011637,-6.3912,0.01681,0.017529,2.7136e-07,0.04,0.6,0
0.0025607,-0.00061116,0.028504,0.0098799,0.011515,-0.0019583,0,0,0.04417,-0.0042513,0,-0.010183,0,0,0,0.028707,0.0096762,0.011515,-5.9382,0.016633,0.018181,2.9806e-07,0.06,0.6,0
0.0034539,-0.00079256,0.028749,0.0092246,0.011392,-0.0019123,0,0,0.045129,-0.0056357,0,-0.0099438,0,0,0,0.028935,0.0090391,0.011392,-5.5415,0.016455,0.01883,3.2491e-07,0.08,0.6,0
0.0043659,-0.00096304,0.028978,0.0085863,0.011269,-0.0018672,0,0,0.046043,-0.006976,0,-0.0097097,0,0,0,0.029148,0.0084168,0.011269,-5.1889,0.016278,0.019462,3.5136e-07,0.1,0.6,0
0.0052956,-0.0011224,0.029186,0.0079712,0.011147,-0.0018213,0,0,0.046902,-0.0082578,0,-0.0094707,0,0,0,0.029342,0.007816,0.011147,-4.8712,0.016102,0.020068,3.7684e-07,0.12,0.6,0
0.0062419,-0.0012702,0.029369,0.0073844,0.011026,-0.001773,0,0,0.047692,-0.0094684,0,-0.0092195,0,0,0,0.029511,0.0072424,0.011026,-4.5812,0.015927,0.020639,4.0086e-07,0.14,0.6,0
0.0072033,-0.0014059,0.029524,0.0068305,0.010906,-0.0017212,0,0,0.048405,-0.010597,0,-0.0089504,0,0,0,0.029653,0.0067007,0.010906,-4.3129,0.015754,0.021166,4.2291e-07,0.16,0.6,0
0.0081782,-0.0015289,0.029646,0.0063126,0.010788,-0.001665,0,0,0.049032,-0.011635,0,-0.0086579,0,0,0,0.029764,0.0061944,0.010788,-4.061,0.015582,0.021642,4.4259e-07,0.18,0.6,0
0.0091646,-0.0016384,0.029734,0.0058326,0.01067,-0.0016031,0,0,0.049566,-0.012577,0,-0.0083363,0,0,0,0.029841,0.0057256,0.01067,-3.8203,0.015412,0.022062,4.5954e-07,0.2,0.6,0
0.010161,-0.0017335,0.029784,0.0053911,0.010553,-0.0015343,0,0,0.050002,-0.01342,0,-0.0079782,0,0,0,0.02988,0.005295,0.010553,-3.5849,0.015243,0.022424,4.7351e-07,0.22,0.6,0
0.011165,-0.0018132,0.029796,0.0049868,0.010435,-0.0014566,0,0,0.05034,-0.014165,0,-0.007574,0,0,0,0.029882,0.0049016,0.010435,-3.3484,0.015073,0.022724,4.8435e-07,0.24,0.6,0
0.012174,-0.0018763,0.029769,0.0046163,0.010316,-0.0013677,0,0,0.050579,-0.014818,0,-0.0071119,0,0,0,0.029843,0.0045422,0.010316,-3.1033,0.0149,0.022965,4.9204e-07,0.26,0.6,0
0.013188,-0.0019215,0.029703,0.004274,0.010193,-0.001265,0,0,0.050725,-0.015389,0,-0.0065782,0,0,0,0.029766,0.0042112,0.010193,-2.841,0.014723,0.02315,4.9668e-07,0.28,0.6,0
0.014203,-0.0019474,0.029598,0.0039515,0.010065,-0.001146,0,0,0.050787,-0.015895,0,-0.0059591,0,0,0,0.029649,0.0039004,0.010065,-2.5534,0.014538,0.023287,4.9859e-07,0.3,0.6,0
0.015219,-0.0019526,0.029459,0.0036372,0.0099288,-0.0010086,0,0,0.050778,-0.016358,0,-0.0052447,0,0,0,0.029498,0.0035979,0.0099288,-2.2335,0.014342,0.023387,4.9823e-07,0.32,0.6,0
0.016234,-0.0019357,0.029287,0.003317,0.0097813,-0.00085258,0,0,0.050715,-0.016807,0,-0.0044334,0,0,0,0.029315,0.0032891,0.0097813,-1.8783,0.014129,0.023464,4.9619e-07,0.34,0.6,0
0.017248,-0.0018956,0.029088,0.0029748,0.0096188,-0.00068018,0,0,0.050619,-0.017274,0,-0.0035369,0,0,0,0.029105,0.0029571,0.0096188,-1.4911,0.013894,0.023536,4.9313e-07,0.36,0.6,0
0.018259,-0.001832,0.028864,0.0025948,0.0094375,-0.00049654,0,0,0.050508,-0.017791,0,-0.002582,0,0,0,0.028873,0.0025854,0.0094375,-1.0825,0.013632,0.023619,4.8964e-07,0.38,0.6,0
0.019268,-0.0017451,0.028618,0.0021646,0.0092347,-0.00030927,0,0,0.050396,-0.018382,0,-0.0016082,0,0,0,0.028621,0.002161,0.0092347,-0.66973,0.013339,0.023728,4.8613e-07,0.4,0.6,0
0.020275,-0.0016365,0.028352,0.0016751,0.0090082,-0.00012596,0,0,0.050294,-0.019066,0,-0.000655,0,0,0,0.028353,0.0016745,0.0090082,-0.27053,0.013012,0.023872,4.8281e-07,0.42,0.6,0
0.02128,-0.0015092,0.028079,0.0011251,0.0087611,4.4162e-05,0,0,0.050226,-0.019854,0,0.00022964,0,0,0,0.028079,0.001125,0.0087611,0.093875,0.012655,0.024062,4.8013e-07,0.44,0.6,0
0.022284,-0.0013678,0.027803,0.00049894,0.0084907,0.00018917,0,0,0.050213,-0.020778,0,0.00098369,0,0,0,0.027805,0.00049763,0.0084907,0.39693,0.012264,0.024317,4.7845e-07,0.46,0.6,0
0.023289,-0.0012201,0.027532,-0.00019865,0.0082,0.00027503,0,0,0.050263,-0.021836,0,0.0014302,0,0,0,0.027535,-0.00020137,0.0082,0.56818,0.011845,0.024634,4.776e-07,0.48,0.6,0
0.024295,-0.0010777,0.027255,-0.00090989,0.0079035,0.00027619,0,0,0.050313,-0.022915,0,0.0014362,0,0,0,0.027258,-0.0009126,0.0079035,0.56179,0.011416,0.024959,4.7567e-07,0.5,0.6,0
0.025301,-0.00095386,0.026976,-0.0014925,0.0076451,0.00019518,0,0,0.050261,-0.023758,0,0.0010149,0,0,0,0.026978,-0.0014938,0.0076451,0.3928,0.011043,0.025178,4.7064e-07,0.52,0.6,0
0.026305,-0.0008587,0.026715,-0.0018503,0.0074594,0.00010255,0,0,0.050065,-0.024205,0,0.00053327,0,0,0,0.026715,-0.0018507,0.0074594,0.20569,0.010775,0.025234,4.6263e-07,0.54,0.6,0
0.027304,-0.00079606,0.026494,-0.0020364,0.0073372,5.7116e-05,0,0,0.049807,-0.024371,0,0.000297,0,0,0,0.026494,-0.0020365,0.0073372,0.1147,0.010598,0.025188,4.5411e-07,0.56,0.6,0
0.028297,-0.00076499,0.026358,-0.002145,0.0072639,7.2933e-05,0,0,0.049645,-0.024463,0,0.00037925,0,0,0,0.026358,-0.0021452,0.0072639,0.14661,0.010492,0.025155,4.4882e-07,0.58,0.6,0
0.029289,-0.00076406,0.026339,-0.0022418,0.0072293,0.0001091,0,0,0.049686,-0.024625,0,0.00056731,0,0,0,0.02634,-0.0022422,0.0072293,0.2187,0.010442,0.025218,4.4923e-07,0.6,0.6,0
0.030285,-0.00079392,0.026438,-0.002327,0.0072332,0.00010964,0,0,0.049932,-0.024857,0,0.00057013,0,0,0,0.026438,-0.0023274,0.0072332,0.21838,0.010448,0.025374,4.5534e-07,0.62,0.6,0
0.031287,-0.00085739,0.026622,-0.0023342,0.0072863,3.3004e-05,0,0,0.050272,-0.025013,0,0.00017162,0,0,0,0.026622,-0.0023343,0.0072863,0.065306,0.010525,0.025543,4.6477e-07,0.64,0.6,0
0.032296,-0.00095673,0.026846,-0.0021658,0.007404,-0.00010656,0,0,0.050549,-0.024882,0,-0.00055409,0,0,0,0.026846,-0.0021662,0.007404,-0.21044,0.010695,0.025606,4.7394e-07,0.66,0.6,0
0.033309,-0.0010893,0.027087,-0.001765,0.0075966,-0.00024767,0,0,0.050675,-0.02434,0,-0.0012879,0,0,0,0.027089,-0.0017671,0.0075966,-0.4918,0.010973,0.025498,4.8065e-07,0.68,0.6,0
0.034323,-0.0012458,0.027327,-0.0012282,0.0078297,-0.00031552,0,0,0.050693,-0.02355,0,-0.0016407,0,0,0,0.027331,-0.0012317,0.0078297,-0.63298,0.01131,0.02528,4.8479e-07,0.7,0.6,0
0.035336,-0.0014134,0.027563,-0.00070379,0.0080577,-0.00030409,0,0,0.050713,-0.02278,0,-0.0015812,0,0,0,0.027566,-0.00070706,0.0080577,-0.61628,0.011639,0.025067,4.8825e-07,0.72,0.6,0
0.036351,-0.0015807,0.027806,-0.00025589,0.008265,-0.00023762,0,0,0.050806,-0.022154,0,-0.0012357,0,0,0,0.027808,-0.0002579,0.008265,-0.48513,0.011938,0.024922,4.9296e-07,0.74,0.6,0
0.037369,-0.0017403,0.028053,0.00010594,0.0084478,-0.00015009,0,0,0.050974,-0.021689,0,-0.00078048,0,0,0,0.028054,0.00010514,0.0084478,-0.3077,0.012202,0.024851,4.9921e-07,0.76,0.6,0
0.03839,-0.0018875,0.0283,0.00039332,0.0086081,-5.3742e-05,0,0,0.0512,-0.021358,0,-0.00027946,0,0,0,0.0283,0.00039321,0.0086081,-0.11034,0.012434,0.02484,5.0678e-07,0.78,0.6,0
0.039417,-0.0020195,0.028537,0.00060385,0.0087423,4.1863e-05,0,0,0.051466,-0.02116,0,0.00021769,0,0,0,0.028537,0.00060379,0.0087423,0.085868,0.012628,0.024883,5.1535e-07,0.8,0.6,0
0.040449,-0.0021348,0.028763,0.00074326,0.0088518,0.0001286,0,0,0.051768,-0.021082,0,0.00066874,0,0,0,0.028763,0.00074267,0.0088518,0.26297,0.012786,0.024974,5.2487e-07,0.82,0.6,0
0.041487,-0.0022333,0.028975,0.000821,0.0089388,0.0001983,0,0,0.052094,-0.021106,0,0.0010311,0,0,0,0.028976,0.0008196,0.0089388,0.40352,0.012912,0.025102,5.351e-07,0.84,0.6,0
0.042533,-0.0023156,0.029172,0.00085072,0.0090069,0.0002453,0,0,0.05243,-0.021206,0,0.0012755,0,0,0,0.029174,0.00084859,0.0090069,0.4962,0.01301,0.025255,5.4562e-07,0.86,0.6,0
0.043585,-0.0023827,0.02935,0.00084687,0.0090592,0.00026707,0,0,0.052757,-0.021352,0,0.0013888,0,0,0,0.029353,0.00084437,0.0090592,0.53679,0.013085,0.025417,5.5591e-07,0.88,0.6,0
0.044643,-0.0024363,0.029506,0.00082283,0.0090987,0.00026409,0,0,0.053059,-0.021517,0,0.0013733,0,0,0,0.029509,0.0008204,0.0090987,0.52748,0.013142,0.025574,5.6543e-07,0.9,0.6,0
0.045707,-0.0024778,0.029636,0.00078966,0.0091278,0.00023894,0,0,0.053322,-0.021679,0,0.0012425,0,0,0,0.029638,0.00078768,0.0091278,0.47454,0.013185,0.025716,5.7375e-07,0.92,0.6,0
0.046776,-0.0025085,0.029739,0.0007559,0.0091486,0.00019545,0,0,0.053536,-0.021821,0,0.0010163,0,0,0,0.029741,0.00075458,0.0091486,0.38635,0.013215,0.025833,5.8053e-07,0.94,0.6,0
0.047848,-0.0025296,0.029814,0.00072773,0.0091624,0.00013804,0,0,0.053693,-0.02193,0,0.0007178,0,0,0,0.029814,0.00072708,0.0091624,0.27191,0.013235,0.02592,5.8551e-07,0.96,0.6,0
0.048924,-0.0025419,0.029858,0.00070927,0.0091703,7.1338e-05,0,0,0.053789,-0.021999,0,0.00037096,0,0,0,0.029859,0.00070909,0.0091703,0.14022,0.013246,0.025974,5.8856e-07,0.98,0.6,0
0.05,-0.0025459,0.029873,0.00070286,0.0091729,-3.8929e-05,0,0,0.053821,-0.022022,0,-0.00020243,0,0,0,0.029874,0.00070281,0.0091729,-0.076463,0.01325,0.025992,5.8959e-07,1,0.6,0
0,0,0.027878,0.011948,0.011948,-0.0023397,0,0,0.041418,4.8789e-19,0,-0.012167,0,0,0,0.028214,0.011611,0.011948,-8.1851,0.017258,0.016438,2.2778e-07,0,0.62,0
0.00082837,-0.00024333,0.02781,0.011153,0.011689,-0.0023315,0,0,0.041915,-0.0013937,0,-0.012124,0,0,0,0.02813,0.010833,0.011689,-7.8196,0.016884,0.016886,2.4514e-07,0.02,0.62,0
0.0016766,-0.00047513,0.028071,0.01049,0.011568,-0.0022706,0,0,0.042907,-0.0028033,0,-0.011807,0,0,0,0.02836,0.010202,0.011568,-7.2417,0.01671,0.017515,2.7029e-07,0.04,0.62,0
0.0025446,-0.00069559,0.028325,0.0098269,0.011446,-0.0022113,0,0,0.043887,-0.0042086,0,-0.011499,0,0,0,0.028586,0.0095662,0.011446,-6.723,0.016532,0.018153,2.9616e-07,0.06,0.62,0
0.0034321,-0.0009046,0.028567,0.0091711,0.011321,-0.0021506,0,0,0.044838,-0.0055908,0,-0.011183,0,0,0,0.028802,0.0089355,0.011321,-6.2517,0.016353,0.018788,3.2217e-07,0.08,0.62,0
0.0043382,-0.0011018,0.028791,0.0085303,0.011196,-0.0020861,0,0,0.045747,-0.0069321,0,-0.010848,0,0,0,0.029004,0.0083177,0.011196,-5.818,0.016173,0.019408,3.4775e-07,0.1,0.62,0
0.0052619,-0.0012868,0.028994,0.0079113,0.011072,-0.0020165,0,0,0.046599,-0.0082169,0,-0.010486,0,0,0,0.029185,0.0077201,0.011072,-5.4148,0.015992,0.020001,3.7235e-07,0.12,0.62,0
0.0062021,-0.0014588,0.029171,0.0073198,0.010947,-0.0019407,0,0,0.047382,-0.0094314,0,-0.010092,0,0,0,0.029342,0.0071488,0.010947,-5.0362,0.015813,0.020559,3.9544e-07,0.14,0.62,0
0.0071572,-0.0016171,0.029319,0.0067604,0.010824,-0.001858,0,0,0.048087,-0.010565,0,-0.0096619,0,0,0,0.029471,0.0066084,0.010824,-4.6773,0.015634,0.021073,4.1655e-07,0.16,0.62,0
0.0081256,-0.0017609,0.029434,0.0062364,0.010701,-0.0017681,0,0,0.048705,-0.011608,0,-0.009194,0,0,0,0.029568,0.0061024,0.010701,-4.3336,0.015457,0.021538,4.3529e-07,0.18,0.62,0
0.0091054,-0.0018893,0.029514,0.0057495,0.010579,-0.0016703,0,0,0.049232,-0.012557,0,-0.0086853,0,0,0,0.029631,0.0056327,0.010579,-4.0007,0.015281,0.021947,4.5138e-07,0.2,0.62,0
0.010095,-0.0020013,0.029559,0.0053,0.010458,-0.0015638,0,0,0.049663,-0.01341,0,-0.0081319,0,0,0,0.029659,0.0051996,0.010458,-3.6732,0.015105,0.022301,4.646e-07,0.22,0.62,0
0.011092,-0.002096,0.029566,0.0048859,0.010336,-0.0014477,0,0,0.05,-0.014169,0,-0.0075281,0,0,0,0.029651,0.0048013,0.010336,-3.3456,0.014929,0.022597,4.7489e-07,0.24,0.62,0
0.012095,-0.0021724,0.029537,0.0045037,0.010212,-0.0013205,0,0,0.050245,-0.014842,0,-0.0068668,0,0,0,0.029607,0.0044342,0.010212,-3.0113,0.014751,0.022838,4.8231e-07,0.26,0.62,0
0.013102,-0.0022293,0.029472,0.0041475,0.010086,-0.0011807,0,0,0.050405,-0.01544,0,-0.0061398,0,0,0,0.029527,0.0040926,0.010086,-2.6636,0.014569,0.023031,4.8706e-07,0.28,0.62,0
0.014111,-0.0022657,0.029375,0.0038091,0.0099551,-0.0010269,0,0,0.050491,-0.01598,0,-0.00534,0,0,0,0.029416,0.0037679,0.0099551,-2.2965,0.01438,0.023182,4.8949e-07,0.3,0.62,0
0.015121,-0.0022805,0.029247,0.003478,0.0098175,-0.00085841,0,0,0.050517,-0.016483,0,-0.0044637,0,0,0,0.029276,0.0034494,0.0098175,-1.9058,0.014181,0.023304,4.9007e-07,0.32,0.62,0
0.016132,-0.002273,0.029094,0.0031419,0.0096708,-0.0006758,0,0,0.0505,-0.016975,0,-0.0035142,0,0,0,0.029112,0.0031243,0.0096708,-1.4907,0.013969,0.023411,4.8939e-07,0.34,0.62,0
0.017141,-0.0022428,0.028921,0.0027877,0.0095125,-0.00048162,0,0,0.050461,-0.017484,0,-0.0025044,0,0,0,0.02893,0.0027788,0.0095125,-1.0555,0.01374,0.023518,4.8806e-07,0.36,0.62,0
0.01815,-0.0021898,0.028732,0.0024027,0.0093404,-0.00028053,0,0,0.050418,-0.018038,0,-0.0014587,0,0,0,0.028735,0.0023997,0.0093404,-0.61037,0.013492,0.023642,4.8667e-07,0.38,0.62,0
0.019158,-0.0021151,0.028534,0.0019757,0.0091529,-7.9153e-05,0,0,0.05039,-0.018661,0,-0.0004116,0,0,0,0.028534,0.0019755,0.0091529,-0.17076,0.013221,0.023796,4.857e-07,0.4,0.62,0
0.020166,-0.0020205,0.028333,0.0014994,0.0089498,0.00011369,0,0,0.050397,-0.019371,0,0.00059118,0,0,0,0.028334,0.0014989,0.0089498,0.24274,0.012927,0.023993,4.856e-07,0.42,0.62,0
0.021174,-0.0019094,0.028138,0.00096722,0.0087315,0.0002864,0,0,0.050456,-0.020187,0,0.0014893,0,0,0,0.028141,0.0009642,0.0087315,0.60385,0.012612,0.024245,4.8668e-07,0.44,0.62,0
0.022184,-0.0017868,0.027953,0.00037997,0.0085,0.00042076,0,0,0.050579,-0.021112,0,0.002188,0,0,0,0.02796,0.00037355,0.0085,0.87404,0.012278,0.024553,4.8899e-07,0.46,0.62,0
0.023197,-0.0016599,0.027779,-0.00024552,0.0082601,0.00049557,0,0,0.05075,-0.022115,0,0.002577,0,0,0,0.027788,-0.00025428,0.0082601,1.0128,0.011931,0.024902,4.9183e-07,0.48,0.62,0
0.024214,-0.001538,0.027611,-0.00085699,0.0080262,0.00049448,0,0,0.05092,-0.023096,0,0.0025713,0,0,0,0.027619,-0.00086558,0.0080262,0.99481,0.011593,0.025242,4.9385e-07,0.5,0.62,0
0.025234,-0.001431,0.027446,-0.0013787,0.0078204,0.00042724,0,0,0.051028,-0.023918,0,0.0022217,0,0,0,0.027453,-0.001385,0.0078204,0.84898,0.011296,0.025513,4.9376e-07,0.52,0.62,0
0.026255,-0.0013467,0.027292,-0.0017595,0.0076598,0.00032638,0,0,0.051044,-0.02449,0,0.0016972,0,0,0,0.027296,-0.0017631,0.0076598,0.64359,0.011064,0.025679,4.9146e-07,0.54,0.62,0
0.027276,-0.0012898,0.027163,-0.0020046,0.0075476,0.00022916,0,0,0.051,-0.024836,0,0.0011916,0,0,0,0.027165,-0.0020064,0.0075476,0.45011,0.010902,0.025759,4.8826e-07,0.56,0.62,0
0.028295,-0.0012622,0.02708,-0.0021557,0.0074774,0.00014862,0,0,0.050968,-0.025046,0,0.00077283,0,0,0,0.027081,-0.0021565,0.0074774,0.29125,0.010801,0.025807,4.8608e-07,0.58,0.62,0
0.029314,-0.0012644,0.027061,-0.0022451,0.0074447,7.2378e-05,0,0,0.051002,-0.025193,0,0.00037637,0,0,0,0.027061,-0.0022452,0.0074447,0.1415,0.010753,0.025861,4.8631e-07,0.6,0.62,0
0.030335,-0.001297,0.027104,-0.0022723,0.0074494,-2.3982e-05,0,0,0.051101,-0.025277,0,-0.00012471,0,0,0,0.027104,-0.0022723,0.0074494,-0.046775,0.01076,0.025921,4.8897e-07,0.62,0.62,0
0.031358,-0.0013608,0.027193,-0.0022043,0.0074965,-0.00015269,0,0,0.05121,-0.025222,0,-0.00079396,0,0,0,0.027194,-0.0022051,0.0074965,-0.29758,0.010828,0.025946,4.9274e-07,0.64,0.62,0
0.032384,-0.0014552,0.027307,-0.0019978,0.0075927,-0.00029981,0,0,0.051257,-0.024935,0,-0.001559,0,0,0,0.02731,-0.0020009,0.0075927,-0.5861,0.010967,0.025884,4.9587e-07,0.66,0.62,0
0.033409,-0.0015768,0.02743,-0.0016463,0.0077351,-0.00042608,0,0,0.051207,-0.024392,0,-0.0022156,0,0,0,0.027436,-0.0016526,0.0077351,-0.83937,0.011173,0.025714,4.9719e-07,0.68,0.62,0
0.034432,-0.0017184,0.027557,-0.0012022,0.0079065,-0.00049627,0,0,0.051092,-0.023682,0,-0.0025806,0,0,0,0.027566,-0.0012107,0.0079065,-0.9883,0.011421,0.025472,4.9688e-07,0.7,0.62,0
0.035452,-0.0018709,0.027691,-0.00074475,0.008084,-0.00049823,0,0,0.050979,-0.022955,0,-0.0025908,0,0,0,0.0277,-0.00075347,0.008084,-1.0035,0.011677,0.025224,4.9618e-07,0.72,0.62,0
0.036471,-0.0020253,0.027839,-0.00033092,0.0082524,-0.00044695,0,0,0.050925,-0.022316,0,-0.0023242,0,0,0,0.027846,-0.00033801,0.0082524,-0.90878,0.01192,0.02502,4.9645e-07,0.74,0.62,0
0.037489,-0.002175,0.028002,1.8073e-05,0.008406,-0.00036322,0,0,0.05095,-0.021809,0,-0.0018888,0,0,0,0.028007,1.336e-05,0.008406,-0.74351,0.012142,0.024882,4.9844e-07,0.76,0.62,0
0.038509,-0.0023151,0.028177,0.0002976,0.0085423,-0.00026529,0,0,0.05105,-0.021436,0,-0.0013795,0,0,0,0.028179,0.00029507,0.0085423,-0.54514,0.012339,0.024811,5.0221e-07,0.78,0.62,0
0.039531,-0.0024426,0.028358,0.00051046,0.0086604,-0.00016502,0,0,0.051213,-0.02119,0,-0.00085812,0,0,0,0.028358,0.00050948,0.0086604,-0.33952,0.012509,0.024799,5.0757e-07,0.8,0.62,0
0.040558,-0.0025559,0.028538,0.00066101,0.0087597,-7.1566e-05,0,0,0.051423,-0.021057,0,-0.00037214,0,0,0,0.028538,0.00066083,0.0087597,-0.14709,0.012653,0.024839,5.1423e-07,0.82,0.62,0
0.041588,-0.0026542,0.028714,0.00075736,0.0088413,8.1395e-06,0,0,0.051668,-0.021018,0,4.2325e-05,0,0,0,0.028714,0.00075735,0.0088413,0.016682,0.012771,0.024918,5.2184e-07,0.84,0.62,0
0.042624,-0.0027378,0.028881,0.0008098,0.0089071,6.9238e-05,0,0,0.051931,-0.021053,0,0.00036004,0,0,0,0.028881,0.00080963,0.0089071,0.14132,0.012866,0.025025,5.2997e-07,0.86,0.62,0
0.043666,-0.0028072,0.029034,0.00082969,0.0089592,0.00010932,0,0,0.052195,-0.021137,0,0.00056849,0,0,0,0.029035,0.00082927,0.0089592,0.22208,0.012941,0.025146,5.3816e-07,0.88,0.62,0
0.044712,-0.0028635,0.029171,0.00082789,0.0089996,0.00012827,0,0,0.052445,-0.021246,0,0.00066702,0,0,0,0.029171,0.00082731,0.0089996,0.2593,0.012999,0.025269,5.4591e-07,0.9,0.62,0
0.045763,-0.0029077,0.029286,0.00081392,0.0090301,0.00012779,0,0,0.052666,-0.021362,0,0.00066449,0,0,0,0.029287,0.00081335,0.0090301,0.25714,0.013043,0.025383,5.5281e-07,0.92,0.62,0
0.046819,-0.0029409,0.029379,0.00079546,0.0090522,0.00011083,0,0,0.052849,-0.021468,0,0.00057629,0,0,0,0.029379,0.00079503,0.0090522,0.22215,0.013076,0.025479,5.5851e-07,0.94,0.62,0
0.047877,-0.0029639,0.029446,0.00077832,0.0090673,8.1103e-05,0,0,0.052984,-0.021551,0,0.00042174,0,0,0,0.029446,0.00077809,0.0090673,0.16209,0.013097,0.025552,5.6275e-07,0.96,0.62,0
0.048938,-0.0029775,0.029487,0.00076648,0.0090759,4.273e-05,0,0,0.053068,-0.021604,0,0.0002222,0,0,0,0.029487,0.00076642,0.0090759,0.085246,0.01311,0.025598,5.6537e-07,0.98,0.62,0
0.05,-0.0029819,0.0295,0.00076229,0.0090788,-4.294e-05,0,0,0.053096,-0.021623,0,-0.00022329,0,0,0,0.0295,0.00076222,0.0090788,-0.085612,0.013114,0.025613,5.6626e-07,1,0.62,0
0,0,0.027719,0.01188,0.01188,-0.0026062,0,0,0.041182,-1.0842e-19,0,-0.013552,0,0,0,0.028137,0.011462,0.01188,-9.1077,0.017159,0.01647,2.2897e-07,0,0.64,0
0.00082365,-0.00027105,0.027652,0.01109,0.011623,-0.0025958,0,0,0.041677,-0.0013843,0,-0.013498,0,0,0,0.02805,0.010693,0.011623,-8.7023,0.016789,0.016911,2.4585e-07,0.02,0.64,0
0.0016671,-0.00053096,0.027911,0.010428,0.011502,-0.0025309,0,0,0.042665,-0.0027923,0,-0.013161,0,0,0,0.028271,0.010069,0.011502,-8.0732,0.016614,0.017529,2.7041e-07,0.04,0.64,0
0.0025303,-0.00077951,0.028164,0.0097614,0.011378,-0.0024618,0,0,0.043645,-0.0042022,0,-0.012801,0,0,0,0.028488,0.0094378,0.011378,-7.4893,0.016434,0.018158,2.9568e-07,0.06,0.64,0
0.0034129,-0.0010162,0.028404,0.0091001,0.011251,-0.002386,0,0,0.044597,-0.0055931,0,-0.012407,0,0,0,0.028695,0.0088096,0.011251,-6.9425,0.016252,0.018784,3.2107e-07,0.08,0.64,0
0.0043142,-0.0012403,0.028627,0.0084522,0.011124,-0.0023015,0,0,0.045508,-0.0069458,0,-0.011968,0,0,0,0.028886,0.008193,0.011124,-6.4263,0.016067,0.019394,3.4601e-07,0.1,0.64,0
0.0052332,-0.001451,0.028827,0.0078252,0.010996,-0.0022074,0,0,0.046361,-0.0082431,0,-0.011479,0,0,0,0.029056,0.0075957,0.010996,-5.9357,0.015883,0.019979,3.6991e-07,0.12,0.64,0
0.0061686,-0.0016474,0.029,0.0072254,0.010868,-0.0021032,0,0,0.047145,-0.0094702,0,-0.010937,0,0,0,0.029202,0.0070241,0.010868,-5.4668,0.015698,0.020528,3.9227e-07,0.14,0.64,0
0.007119,-0.0018285,0.029144,0.0066576,0.010741,-0.0019891,0,0,0.047849,-0.010615,0,-0.010343,0,0,0,0.029319,0.006483,0.010741,-5.0162,0.015514,0.021032,4.1263e-07,0.16,0.64,0
0.0080826,-0.0019932,0.029255,0.0061252,0.010614,-0.0018651,0,0,0.048466,-0.011671,0,-0.0096986,0,0,0,0.029404,0.0059758,0.010614,-4.5807,0.015331,0.021488,4.3064e-07,0.18,0.64,0
0.0090576,-0.0021407,0.029332,0.0056299,0.010488,-0.0017317,0,0,0.048992,-0.012632,0,-0.0090048,0,0,0,0.029457,0.005504,0.010488,-4.1567,0.01515,0.021891,4.4606e-07,0.2,0.64,0
0.010042,-0.0022699,0.029373,0.0051714,0.010363,-0.0015889,0,0,0.049425,-0.013499,0,-0.0082623,0,0,0,0.029477,0.0050675,0.010363,-3.7402,0.014969,0.022239,4.5876e-07,0.22,0.64,0
0.011035,-0.00238,0.029379,0.0047477,0.010238,-0.0014365,0,0,0.049767,-0.014275,0,-0.0074701,0,0,0,0.029463,0.0046642,0.010238,-3.3265,0.014788,0.022535,4.6872e-07,0.24,0.64,0
0.012033,-0.00247,0.029352,0.0043549,0.010112,-0.0012742,0,0,0.050023,-0.014968,0,-0.0066261,0,0,0,0.029417,0.0042901,0.010112,-2.9107,0.014606,0.02278,4.761e-07,0.26,0.64,0
0.013036,-0.0025391,0.029292,0.0039869,0.0099838,-0.0011015,0,0,0.050202,-0.015592,0,-0.0057279,0,0,0,0.02934,0.003939,0.0099838,-2.4878,0.014421,0.022983,4.8113e-07,0.28,0.64,0
0.014041,-0.0025866,0.029204,0.0036359,0.0098521,-0.00091808,0,0,0.050316,-0.016162,0,-0.004774,0,0,0,0.029237,0.003603,0.0098521,-2.0538,0.014231,0.023151,4.842e-07,0.3,0.64,0
0.015048,-0.0026119,0.029092,0.0032925,0.0097153,-0.00072427,0,0,0.050379,-0.016699,0,-0.0037662,0,0,0,0.029112,0.0032722,0.0097153,-1.6068,0.014033,0.023297,4.8581e-07,0.32,0.64,0
0.016056,-0.0026147,0.02896,0.0029459,0.0095718,-0.00052155,0,0,0.05041,-0.017227,0,-0.002712,0,0,0,0.028971,0.0029354,0.0095718,-1.1481,0.013826,0.023433,4.8649e-07,0.34,0.64,0
0.017065,-0.002595,0.028814,0.0025849,0.0094198,-0.00031288,0,0,0.050426,-0.017771,0,-0.001627,0,0,0,0.028818,0.0025811,0.0094198,-0.68333,0.013606,0.023574,4.8685e-07,0.36,0.64,0
0.018073,-0.0025535,0.028661,0.0021988,0.0092581,-0.00010309,0,0,0.050449,-0.018354,0,-0.00053604,0,0,0,0.028662,0.0021984,0.0092581,-0.22319,0.013373,0.023734,4.8741e-07,0.38,0.64,0
0.019082,-0.0024915,0.028507,0.0017788,0.0090858,0.00010094,0,0,0.050496,-0.018998,0,0.00052488,0,0,0,0.028508,0.0017785,0.0090858,0.21637,0.013124,0.023928,4.8868e-07,0.4,0.64,0
0.020093,-0.0024114,0.028359,0.0013184,0.0089031,0.00028987,0,0,0.050585,-0.01972,0,0.0015073,0,0,0,0.028362,0.0013153,0.0089031,0.61411,0.01286,0.024163,4.9101e-07,0.42,0.64,0
0.021106,-0.0023166,0.028222,0.00081543,0.0087112,0.00045122,0,0,0.050728,-0.020529,0,0.0023464,0,0,0,0.028229,0.00080801,0.0087112,0.94298,0.012583,0.024447,4.9457e-07,0.44,0.64,0
0.022122,-0.0022123,0.028099,0.00027591,0.0085125,0.00056984,0,0,0.050925,-0.021415,0,0.0029632,0,0,0,0.028111,0.00026424,0.0085125,1.1728,0.012296,0.024775,4.9915e-07,0.46,0.64,0
0.023143,-0.0021047,0.02799,-0.00027967,0.008313,0.0006305,0,0,0.051159,-0.022341,0,0.0032786,0,0,0,0.028004,-0.00029372,0.008313,1.277,0.012008,0.025125,5.0408e-07,0.48,0.64,0
0.024169,-0.0020016,0.027889,-0.00081369,0.0081225,0.00062546,0,0,0.051392,-0.023234,0,0.0032524,0,0,0,0.027903,-0.00082731,0.0081225,1.2478,0.011733,0.025463,5.0835e-07,0.5,0.64,0
0.025199,-0.0019106,0.027794,-0.0012803,0.007954,0.00056048,0,0,0.051583,-0.024009,0,0.0029145,0,0,0,0.027805,-0.0012911,0.007954,1.104,0.011489,0.02575,5.111e-07,0.52,0.64,0
0.026232,-0.0018383,0.027706,-0.0016464,0.0078178,0.00045483,0,0,0.051709,-0.024607,0,0.0023651,0,0,0,0.027713,-0.0016535,0.0078178,0.88755,0.011292,0.02596,5.1212e-07,0.54,0.64,0
0.027267,-0.0017895,0.027631,-0.0019052,0.0077177,0.00033008,0,0,0.051775,-0.02502,0,0.0017164,0,0,0,0.027635,-0.0019089,0.0077177,0.64019,0.011148,0.026098,5.1197e-07,0.56,0.64,0
0.028303,-0.0017668,0.027579,-0.0020688,0.0076532,0.0001992,0,0,0.051809,-0.025277,0,0.0010358,0,0,0,0.027581,-0.0020702,0.0076532,0.38493,0.011055,0.02618,5.1155e-07,0.58,0.64,0
0.029339,-0.0017718,0.027558,-0.0021504,0.0076224,6.2753e-05,0,0,0.051833,-0.025409,0,0.00032631,0,0,0,0.027558,-0.0021505,0.0076224,0.12102,0.01101,0.026226,5.1156e-07,0.6,0.64,0
0.030376,-0.001805,0.027567,-0.0021494,0.0076254,-8.381e-05,0,0,0.051849,-0.025414,0,-0.00043581,0,0,0,0.027568,-0.0021497,0.0076254,-0.16159,0.011014,0.026233,5.1205e-07,0.62,0.64,0
0.031413,-0.0018663,0.027599,-0.0020524,0.007664,-0.00023955,0,0,0.051831,-0.025263,0,-0.0012456,0,0,0,0.027601,-0.0020543,0.007664,-0.46284,0.01107,0.026185,5.1239e-07,0.64,0.64,0
0.032449,-0.0019541,0.027643,-0.0018464,0.007739,-0.00039054,0,0,0.051751,-0.024922,0,-0.0020308,0,0,0,0.027648,-0.0018516,0.007739,-0.75861,0.011179,0.026063,5.118e-07,0.66,0.64,0
0.033483,-0.002065,0.027694,-0.0015383,0.0078466,-0.00051369,0,0,0.051602,-0.024401,0,-0.0026712,0,0,0,0.027703,-0.0015473,0.0078466,-1.0065,0.011334,0.025866,5.0984e-07,0.68,0.64,0
0.034514,-0.0021931,0.02775,-0.0011625,0.0079761,-0.00058787,0,0,0.051411,-0.023761,0,-0.0030569,0,0,0,0.027762,-0.0011744,0.0079761,-1.1643,0.011521,0.025617,5.0678e-07,0.7,0.64,0
0.03554,-0.0023316,0.027815,-0.0007676,0.0081143,-0.00060564,0,0,0.051223,-0.023093,0,-0.0031493,0,0,0,0.027828,-0.00078043,0.0081143,-1.2133,0.011721,0.02536,5.0351e-07,0.72,0.64,0
0.036562,-0.0024734,0.027897,-0.00039481,0.0082505,-0.00057361,0,0,0.051079,-0.022478,0,-0.0029828,0,0,0,0.027908,-0.00040643,0.0082505,-1.161,0.011917,0.02513,5.0104e-07,0.74,0.64,0
0.037583,-0.0026127,0.027996,-6.8431e-05,0.0083781,-0.00050647,0,0,0.051005,-0.021961,0,-0.0026336,0,0,0,0.028005,-7.7568e-05,0.0083781,-1.0336,0.012102,0.024953,5.0006e-07,0.76,0.64,0
0.038603,-0.0027449,0.028112,0.00020198,0.0084941,-0.00041927,0,0,0.051006,-0.021559,0,-0.0021802,0,0,0,0.028118,0.00019568,0.0084941,-0.86045,0.012269,0.024836,5.0087e-07,0.78,0.64,0
0.039623,-0.0028671,0.02824,0.00041496,0.0085966,-0.00032461,0,0,0.051074,-0.021272,0,-0.001688,0,0,0,0.028244,0.00041118,0.0085966,-0.6683,0.012417,0.024776,5.0338e-07,0.8,0.64,0
0.040646,-0.0029771,0.028376,0.00057381,0.008685,-0.00023201,0,0,0.051197,-0.021089,0,-0.0012065,0,0,0,0.028378,0.00057187,0.008685,-0.47809,0.012545,0.024767,5.0737e-07,0.82,0.64,0
0.041671,-0.0030741,0.028514,0.00068452,0.0087596,-0.00014851,0,0,0.051362,-0.020995,0,-0.00077225,0,0,0,0.028515,0.00068373,0.0087596,-0.30574,0.012653,0.0248,5.1248e-07,0.84,0.64,0
0.0427,-0.0031577,0.028649,0.00075514,0.0088212,-7.8868e-05,0,0,0.051552,-0.020972,0,-0.00041011,0,0,0,0.028649,0.00075492,0.0088212,-0.162,0.012742,0.024862,5.1833e-07,0.86,0.64,0
0.043733,-0.0032282,0.028776,0.00079458,0.008871,-2.5719e-05,0,0,0.051752,-0.020999,0,-0.00013374,0,0,0,0.028776,0.00079456,0.008871,-0.052664,0.012814,0.024944,5.2446e-07,0.88,0.64,0
0.04477,-0.0032862,0.02889,0.00081169,0.0089105,1.0256e-05,0,0,0.051947,-0.021057,0,5.3329e-05,0,0,0,0.02889,0.00081168,0.0089105,0.020927,0.012871,0.025032,5.3044e-07,0.9,0.64,0
0.045811,-0.0033322,0.028989,0.00081448,0.0089409,2.999e-05,0,0,0.052124,-0.021129,0,0.00015595,0,0,0,0.028989,0.00081445,0.0089409,0.060989,0.012915,0.025117,5.3589e-07,0.92,0.64,0
0.046855,-0.0033672,0.029068,0.0008097,0.0089634,3.5631e-05,0,0,0.052272,-0.021199,0,0.00018528,0,0,0,0.029068,0.00080966,0.0089634,0.072243,0.012947,0.025192,5.4047e-07,0.94,0.64,0
0.047902,-0.0033916,0.029126,0.00080259,0.0089787,3.0146e-05,0,0,0.052384,-0.021258,0,0.00015676,0,0,0,0.029126,0.00080256,0.0089787,0.060981,0.012969,0.025249,5.4391e-07,0.96,0.64,0
0.048951,-0.0034061,0.029162,0.00079686,0.0089877,1.7015e-05,0,0,0.052453,-0.021296,0,8.8477e-05,0,0,0,0.029162,0.00079685,0.0089877,0.034369,0.012982,0.025285,5.4606e-07,0.98,0.64,0
0.05,-0.0034108,0.029174,0.00079471,0.0089906,-4.5965e-05,0,0,0.052477,-0.021309,0,-0.00023902,0,0,0,0.029174,0.00079463,0.0089906,-0.092799,0.012986,0.025298,5.4679e-07,1,0.64,0
0,0,0.027576,0.011818,0.011818,-0.0028722,0,0,0.04097,-2.7105e-19,0,-0.014935,0,0,0,0.028083,0.011311,0.011818,-10.014,0.017071,0.016524,2.31e-07,0,0.66,0
0.0008194,-0.00029871,0.02751,0.011027,0.011561,-0.0028596,0,0,0.041466,-0.0013882,0,-0.01487,0,0,0,0.027992,0.010545,0.011561,-9.5679,0.016699,0.016961,2.4759e-07,0.02,0.66,0
0.0016587,-0.00058682,0.027769,0.010359,0.011438,-0.002791,0,0,0.042461,-0.0028075,0,-0.014513,0,0,0,0.028206,0.0099222,0.011438,-8.8881,0.016522,0.017575,2.7182e-07,0.04,0.66,0
0.0025178,-0.00086367,0.028023,0.0096833,0.011312,-0.0027123,0,0,0.043449,-0.0042343,0,-0.014104,0,0,0,0.028416,0.0092906,0.011312,-8.2386,0.016339,0.018199,2.9673e-07,0.06,0.66,0
0.0033966,-0.0011283,0.028264,0.0090111,0.011183,-0.002621,0,0,0.044412,-0.0056459,0,-0.013629,0,0,0,0.028615,0.0086606,0.011183,-7.6153,0.016153,0.01882,3.2173e-07,0.08,0.66,0
0.0042943,-0.0013797,0.028487,0.0083512,0.011052,-0.0025158,0,0,0.045332,-0.0070207,0,-0.013082,0,0,0,0.028797,0.0080416,0.011052,-7.015,0.015963,0.019426,3.4622e-07,0.1,0.66,0
0.0052099,-0.0016165,0.028687,0.007712,0.01092,-0.0023963,0,0,0.046194,-0.0083399,0,-0.012461,0,0,0,0.028957,0.0074417,0.01092,-6.4354,0.015773,0.020004,3.6961e-07,0.12,0.66,0
0.0061421,-0.0018376,0.028859,0.0071003,0.010788,-0.0022629,0,0,0.046985,-0.0095874,0,-0.011767,0,0,0,0.029092,0.0068675,0.010788,-5.875,0.015582,0.020547,3.9139e-07,0.14,0.66,0
0.0070893,-0.0020417,0.029001,0.0065215,0.010657,-0.0021165,0,0,0.047694,-0.010751,0,-0.011006,0,0,0,0.029198,0.006324,0.010657,-5.3323,0.015393,0.021045,4.1115e-07,0.16,0.66,0
0.0080499,-0.0022277,0.029109,0.0059791,0.010526,-0.0019585,0,0,0.048315,-0.011823,0,-0.010184,0,0,0,0.029274,0.0058144,0.010526,-4.8058,0.015205,0.021494,4.2856e-07,0.18,0.66,0
0.0090219,-0.0023946,0.029184,0.0054744,0.010397,-0.00179,0,0,0.048844,-0.0128,0,-0.009308,0,0,0,0.029318,0.00534,0.010397,-4.2932,0.015019,0.021892,4.4344e-07,0.2,0.66,0
0.010004,-0.0025413,0.029224,0.0050071,0.010269,-0.0016121,0,0,0.049282,-0.013682,0,-0.0083831,0,0,0,0.029331,0.0049003,0.010269,-3.7919,0.014833,0.022238,4.5572e-07,0.22,0.66,0
0.010993,-0.002667,0.029231,0.0045748,0.010142,-0.0014258,0,0,0.049632,-0.014474,0,-0.007414,0,0,0,0.029313,0.0044926,0.010142,-3.2985,0.014649,0.022534,4.6547e-07,0.24,0.66,0
0.011989,-0.0027711,0.029207,0.0041733,0.010014,-0.0012315,0,0,0.049901,-0.015186,0,-0.0064038,0,0,0,0.029267,0.0041129,0.010014,-2.8096,0.014465,0.022784,4.7286e-07,0.26,0.66,0
0.012989,-0.0028529,0.029154,0.0037966,0.0098852,-0.0010298,0,0,0.050099,-0.01583,0,-0.0053551,0,0,0,0.029196,0.0037549,0.0098852,-2.3218,0.014279,0.022997,4.7821e-07,0.28,0.66,0
0.013993,-0.0029121,0.029077,0.0034373,0.0097542,-0.00082149,0,0,0.050239,-0.016424,0,-0.0042717,0,0,0,0.029103,0.003411,0.0097542,-1.8333,0.014089,0.023181,4.8191e-07,0.3,0.66,0
0.014999,-0.0029485,0.02898,0.0030866,0.0096199,-0.00060769,0,0,0.050336,-0.016987,0,-0.00316,0,0,0,0.028994,0.0030723,0.0096199,-1.3437,0.013895,0.023347,4.8444e-07,0.32,0.66,0
0.016006,-0.0029621,0.028868,0.002735,0.009481,-0.00039059,0,0,0.050407,-0.01754,0,-0.0020311,0,0,0,0.028874,0.0027291,0.009481,-0.85609,0.013695,0.023508,4.8632e-07,0.34,0.66,0
0.017015,-0.0029536,0.028749,0.0023729,0.0093365,-0.00017363,0,0,0.050472,-0.018105,0,-0.00090285,0,0,0,0.02875,0.0023718,0.0093365,-0.37714,0.013486,0.023677,4.881e-07,0.36,0.66,0
0.018025,-0.002924,0.028627,0.0019917,0.0091855,3.8152e-05,0,0,0.050547,-0.018704,0,0.00019839,0,0,0,0.028627,0.0019916,0.0091855,0.08207,0.013268,0.023866,4.9024e-07,0.38,0.66,0
0.019037,-0.002875,0.028509,0.001584,0.0090278,0.00023779,0,0,0.05065,-0.019354,0,0.0012365,0,0,0,0.028511,0.0015819,0.0090278,0.50597,0.01304,0.024085,4.9316e-07,0.4,0.66,0
0.020051,-0.0028093,0.0284,0.001146,0.0088638,0.00041623,0,0,0.050794,-0.020066,0,0.0021644,0,0,0,0.028407,0.0011397,0.0088638,0.87476,0.012803,0.024342,4.971e-07,0.42,0.66,0
0.021069,-0.0027305,0.028305,0.00067831,0.008695,0.00056245,0,0,0.050986,-0.020843,0,0.0029247,0,0,0,0.028316,0.00066686,0.008695,1.1658,0.012559,0.024637,5.021e-07,0.44,0.66,0
0.022091,-0.0026434,0.028224,0.00018912,0.0085241,0.00066448,0,0,0.051221,-0.021671,0,0.0034553,0,0,0,0.02824,0.00017338,0.0085241,1.357,0.012313,0.024962,5.0788e-07,0.46,0.66,0
0.023118,-0.0025535,0.028157,-0.0003035,0.008356,0.00071219,0,0,0.051482,-0.022515,0,0.0037034,0,0,0,0.028175,-0.00032131,0.008356,1.4326,0.01207,0.025299,5.1385e-07,0.48,0.66,0
0.02415,-0.0024674,0.028098,-0.00077226,0.0081978,0.00070105,0,0,0.051741,-0.023322,0,0.0036455,0,0,0,0.028115,-0.00078927,0.0081978,1.3902,0.011841,0.025622,5.1927e-07,0.5,0.66,0
0.025187,-0.0023913,0.028045,-0.0011868,0.0080575,0.0006352,0,0,0.051968,-0.024035,0,0.003303,0,0,0,0.028059,-0.0012006,0.0080575,1.2442,0.011639,0.025903,5.2348e-07,0.52,0.66,0
0.026229,-0.0023309,0.027996,-0.0015234,0.0079419,0.00052636,0,0,0.052142,-0.02461,0,0.002737,0,0,0,0.028006,-0.0015328,0.0079419,1.0212,0.011472,0.026123,5.2622e-07,0.54,0.66,0
0.027273,-0.0022906,0.027953,-0.0017713,0.0078545,0.00038904,0,0,0.052256,-0.025027,0,0.002023,0,0,0,0.027958,-0.0017764,0.0078545,0.74974,0.011345,0.026278,5.2763e-07,0.56,0.66,0
0.028319,-0.0022733,0.027919,-0.0019306,0.0077964,0.00023487,0,0,0.052318,-0.02529,0,0.0012213,0,0,0,0.027921,-0.0019325,0.0077964,0.45079,0.011262,0.026371,5.2808e-07,0.58,0.66,0
0.029366,-0.0022808,0.027896,-0.0020043,0.0077675,7.0706e-05,0,0,0.052334,-0.025407,0,0.00036767,0,0,0,0.027896,-0.0020045,0.0077675,0.13549,0.01122,0.026408,5.2788e-07,0.6,0.66,0
0.030412,-0.0023136,0.027885,-0.0019923,0.0077678,-9.8776e-05,0,0,0.052305,-0.025376,0,-0.00051364,0,0,0,0.027885,-0.0019927,0.0077678,-0.18942,0.01122,0.026388,5.2708e-07,0.62,0.66,0
0.031458,-0.0023713,0.027882,-0.0018913,0.0077973,-0.00026632,0,0,0.052221,-0.02519,0,-0.0013848,0,0,0,0.027885,-0.0018936,0.0077973,-0.51244,0.011263,0.026307,5.2546e-07,0.64,0.66,0
0.032501,-0.0024521,0.027884,-0.001701,0.007855,-0.00041951,0,0,0.052076,-0.024846,0,-0.0021815,0,0,0,0.02789,-0.001707,0.007855,-0.81222,0.011346,0.026162,5.2274e-07,0.66,0.66,0
0.033541,-0.0025529,0.02789,-0.0014329,0.0079371,-0.00054271,0,0,0.051877,-0.024362,0,-0.0028221,0,0,0,0.0279,-0.0014429,0.0079371,-1.06,0.011465,0.025957,5.1887e-07,0.68,0.66,0
0.034576,-0.0026688,0.0279,-0.001112,0.0080365,-0.00062289,0,0,0.051646,-0.023786,0,-0.003239,0,0,0,0.027914,-0.0011253,0.0080365,-1.2294,0.011608,0.025713,5.142e-07,0.7,0.66,0
0.035607,-0.0027946,0.027921,-0.00077095,0.0081449,-0.00065472,0,0,0.051417,-0.023181,0,-0.0034046,0,0,0,0.027935,-0.00078588,0.0081449,-1.3065,0.011765,0.025459,5.094e-07,0.72,0.66,0
0.036633,-0.0029244,0.027955,-0.0004401,0.0082545,-0.00064187,0,0,0.051222,-0.022606,0,-0.0033377,0,0,0,0.02797,-0.0004546,0.0082545,-1.2943,0.011923,0.025224,5.0524e-07,0.74,0.66,0
0.037656,-0.0030535,0.028007,-0.00014076,0.00836,-0.000594,0,0,0.051083,-0.022102,0,-0.0030888,0,0,0,0.02802,-0.00015329,0.00836,-1.2084,0.012076,0.025027,5.0232e-07,0.76,0.66,0
0.038676,-0.0031775,0.028077,0.00011544,0.0084578,-0.00052293,0,0,0.051011,-0.02169,0,-0.0027192,0,0,0,0.028087,0.00010566,0.0084578,-1.071,0.012217,0.02488,5.0096e-07,0.78,0.66,0
0.039696,-0.0032935,0.028162,0.00032446,0.0085461,-0.00043972,0,0,0.051002,-0.021376,0,-0.0022865,0,0,0,0.028169,0.00031752,0.0085461,-0.90472,0.012344,0.024784,5.0123e-07,0.8,0.66,0
0.040716,-0.0033994,0.028259,0.00048717,0.0086237,-0.00035354,0,0,0.051051,-0.021155,0,-0.0018384,0,0,0,0.028263,0.00048267,0.0086237,-0.72923,0.012457,0.024736,5.0297e-07,0.82,0.66,0
0.041738,-0.003494,0.028361,0.0006076,0.0086906,-0.00027136,0,0,0.051143,-0.021016,0,-0.0014111,0,0,0,0.028364,0.00060494,0.0086906,-0.56014,0.012553,0.024728,5.0591e-07,0.84,0.66,0
0.042762,-0.0035766,0.028465,0.00069168,0.0087469,-0.00019808,0,0,0.051266,-0.020944,0,-0.00103,0,0,0,0.028466,0.00069027,0.0087469,-0.4086,0.012634,0.024751,5.0969e-07,0.86,0.66,0
0.043789,-0.0036472,0.028565,0.00074636,0.0087933,-0.00013664,0,0,0.051405,-0.020922,0,-0.00071053,0,0,0,0.028565,0.00074568,0.0087933,-0.28142,0.012701,0.024796,5.1394e-07,0.88,0.66,0
0.044818,-0.0037058,0.028657,0.00077873,0.0088307,-8.827e-05,0,0,0.051548,-0.020935,0,-0.000459,0,0,0,0.028657,0.00077846,0.0088307,-0.18141,0.012755,0.024851,5.1828e-07,0.9,0.66,0
0.045851,-0.0037529,0.028738,0.00079547,0.0088599,-5.2723e-05,0,0,0.051682,-0.020968,0,-0.00027416,0,0,0,0.028738,0.00079537,0.0088599,-0.10811,0.012798,0.024909,5.2235e-07,0.92,0.66,0
0.046885,-0.0037889,0.028803,0.00080231,0.0088817,-2.8609e-05,0,0,0.051797,-0.021007,0,-0.00014877,0,0,0,0.028803,0.00080229,0.0088817,-0.058539,0.012829,0.024962,5.2584e-07,0.94,0.66,0
0.047922,-0.0038142,0.028852,0.00080388,0.0088968,-1.37e-05,0,0,0.051884,-0.021042,0,-7.1242e-05,0,0,0,0.028852,0.00080387,0.0088968,-0.027987,0.012851,0.025004,5.2851e-07,0.96,0.66,0
0.048961,-0.0038293,0.028882,0.00080348,0.0089057,-5.2072e-06,0,0,0.051939,-0.021066,0,-2.7077e-05,0,0,0,0.028882,0.00080348,0.0089057,-0.010625,0.012864,0.025031,5.3018e-07,0.98,0.66,0
0.05,-0.0038343,0.028892,0.00080313,0.0089086,-4.8035e-05,0,0,0.051957,-0.021074,0,-0.00024978,0,0,0,0.028892,0.00080304,0.0089086,-0.097982,0.012868,0.025041,5.3075e-07,1,0.66,0
0,0,0.027451,0.011765,0.011765,-0.0031402,0,0,0.040784,5.421e-20,0,-0.016329,0,0,0,0.028056,0.011159,0.011765,-10.91,0.016993,0.016602,2.3398e-07,0,0.68,0
0.00081568,-0.00032658,0.027384,0.010963,0.011504,-0.0031254,0,0,0.041288,-0.001406,0,-0.016252,0,0,0,0.027959,0.010389,0.011504,-10.42,0.016617,0.01704,2.5044e-07,0.02,0.68,0
0.0016515,-0.00064326,0.027648,0.010283,0.011379,-0.0030537,0,0,0.042298,-0.0028505,0,-0.015879,0,0,0,0.028169,0.0097614,0.011379,-9.6886,0.016436,0.017654,2.7462e-07,0.04,0.68,0
0.0025076,-0.00094888,0.027905,0.0095923,0.011249,-0.0029652,0,0,0.043305,-0.0043076,0,-0.015419,0,0,0,0.028373,0.0091241,0.011249,-8.9722,0.016249,0.018279,2.9944e-07,0.06,0.68,0
0.0033837,-0.001242,0.028149,0.0089033,0.011116,-0.0028579,0,0,0.044286,-0.0057523,0,-0.014861,0,0,0,0.028564,0.0084878,0.011116,-8.2706,0.016056,0.0189,3.2427e-07,0.08,0.68,0
0.0042791,-0.0015211,0.028374,0.0082261,0.01098,-0.0027311,0,0,0.045225,-0.0071603,0,-0.014202,0,0,0,0.028738,0.0078625,0.01098,-7.5841,0.01586,0.019504,3.4848e-07,0.1,0.68,0
0.0051927,-0.0017846,0.028575,0.0075704,0.010844,-0.002585,0,0,0.046102,-0.0085106,0,-0.013442,0,0,0,0.028889,0.0072569,0.010844,-6.9138,0.015663,0.02008,3.7151e-07,0.12,0.68,0
0.0061231,-0.0020309,0.028748,0.0069436,0.010707,-0.0024213,0,0,0.046905,-0.0097858,0,-0.012591,0,0,0,0.029013,0.006678,0.010707,-6.2609,0.015466,0.020618,3.9283e-07,0.14,0.68,0
0.0070689,-0.0022585,0.028888,0.0063516,0.010572,-0.002242,0,0,0.047623,-0.010973,0,-0.011658,0,0,0,0.029109,0.0061307,0.010572,-5.6264,0.015271,0.021111,4.1207e-07,0.16,0.68,0
0.0080281,-0.0024662,0.028996,0.0057979,0.010438,-0.0020495,0,0,0.04825,-0.012064,0,-0.010658,0,0,0,0.029175,0.0056182,0.010438,-5.0104,0.015077,0.021555,4.2894e-07,0.18,0.68,0
0.0089988,-0.0026527,0.029069,0.0052838,0.010306,-0.0018463,0,0,0.048784,-0.013057,0,-0.009601,0,0,0,0.029211,0.0051414,0.010306,-4.4125,0.014886,0.021948,4.4332e-07,0.2,0.68,0
0.0099794,-0.0028172,0.029108,0.0048087,0.010175,-0.0016347,0,0,0.049226,-0.013953,0,-0.0085002,0,0,0,0.029218,0.0046992,0.010175,-3.8314,0.014697,0.022291,4.5521e-07,0.22,0.68,0
0.010968,-0.002959,0.029116,0.0043697,0.010046,-0.0014164,0,0,0.049583,-0.014758,0,-0.007365,0,0,0,0.029197,0.0042889,0.010046,-3.2651,0.014511,0.022587,4.6472e-07,0.24,0.68,0
0.011963,-0.0030774,0.029095,0.0039625,0.0099172,-0.001193,0,0,0.049862,-0.015482,0,-0.0062037,0,0,0,0.029152,0.003906,0.0099172,-2.7116,0.014325,0.022841,4.721e-07,0.26,0.68,0
0.012962,-0.0031723,0.029049,0.003581,0.0097888,-0.00096605,0,0,0.050075,-0.01614,0,-0.0050235,0,0,0,0.029085,0.0035444,0.0097888,-2.1692,0.014139,0.023061,4.7767e-07,0.28,0.68,0
0.013966,-0.0032436,0.028981,0.0032179,0.0096597,-0.000737,0,0,0.050236,-0.016749,0,-0.0038324,0,0,0,0.029002,0.0031969,0.0096597,-1.6373,0.013953,0.023257,4.8185e-07,0.3,0.68,0
0.014972,-0.0032914,0.028898,0.0028653,0.009529,-0.00050775,0,0,0.050359,-0.017326,0,-0.0026403,0,0,0,0.028908,0.0028554,0.009529,-1.117,0.013764,0.023439,4.851e-07,0.32,0.68,0
0.01598,-0.0033163,0.028804,0.0025146,0.0093957,-0.00028097,0,0,0.050463,-0.017891,0,-0.0014611,0,0,0,0.028807,0.0025116,0.0093957,-0.61226,0.013572,0.023619,4.879e-07,0.34,0.68,0
0.01699,-0.0033192,0.028706,0.0021575,0.0092592,-6.0381e-05,0,0,0.050563,-0.018464,0,-0.00031398,0,0,0,0.028706,0.0021574,0.0092592,-0.13031,0.013374,0.023806,4.9072e-07,0.36,0.68,0
0.018003,-0.0033017,0.02861,0.0017869,0.009119,0.00014897,0,0,0.050676,-0.019063,0,0.00077466,0,0,0,0.02861,0.0017861,0.009119,0.31821,0.013172,0.024013,4.9396e-07,0.38,0.68,0
0.019017,-0.0032657,0.028519,0.0013975,0.0089751,0.00034051,0,0,0.050815,-0.019702,0,0.0017707,0,0,0,0.028524,0.0013933,0.0089751,0.7192,0.012964,0.024245,4.9794e-07,0.4,0.68,0
0.020035,-0.003214,0.02844,0.00098704,0.0088281,0.0005062,0,0,0.050991,-0.020387,0,0.0026322,0,0,0,0.028449,0.00097771,0.0088281,1.056,0.012752,0.024508,5.028e-07,0.42,0.68,0
0.021057,-0.0031504,0.028374,0.00055773,0.0086794,0.00063695,0,0,0.051205,-0.021116,0,0.0033121,0,0,0,0.028388,0.00054316,0.0086794,1.3111,0.012537,0.024799,5.085e-07,0.44,0.68,0
0.022083,-0.0030791,0.028321,0.00011782,0.0085317,0.00072382,0,0,0.051453,-0.021876,0,0.0037639,0,0,0,0.02834,9.9257e-05,0.0085317,1.4692,0.012324,0.02511,5.1475e-07,0.46,0.68,0
0.023115,-0.0030053,0.028281,-0.00031787,0.0083888,0.00075993,0,0,0.051718,-0.022637,0,0.0039516,0,0,0,0.028301,-0.00033805,0.0083888,1.5211,0.012117,0.025425,5.2107e-07,0.48,0.68,0
0.024152,-0.0029345,0.028248,-0.00072922,0.0082556,0.0007427,0,0,0.05198,-0.02336,0,0.003862,0,0,0,0.028267,-0.00074824,0.0082556,1.4672,0.011925,0.025723,5.2688e-07,0.5,0.68,0
0.025194,-0.002872,0.02822,-0.0010946,0.0081375,0.0006752,0,0,0.052214,-0.024004,0,0.003511,0,0,0,0.028235,-0.0011102,0.0081375,1.3188,0.011754,0.025986,5.3167e-07,0.52,0.68,0
0.026241,-0.0028227,0.028193,-0.0013961,0.0080391,0.00056556,0,0,0.0524,-0.024532,0,0.0029409,0,0,0,0.028204,-0.0014069,0.0080391,1.0946,0.011612,0.026198,5.3512e-07,0.54,0.68,0
0.02729,-0.0027906,0.028167,-0.0016226,0.0079634,0.0004245,0,0,0.05253,-0.024923,0,0.0022074,0,0,0,0.028173,-0.0016286,0.0079634,0.81624,0.011503,0.02635,5.3719e-07,0.56,0.68,0
0.028342,-0.0027785,0.028142,-0.0017694,0.0079118,0.00026261,0,0,0.052599,-0.025171,0,0.0013655,0,0,0,0.028144,-0.0017717,0.0079118,0.50297,0.011428,0.02644,5.3797e-07,0.58,0.68,0
0.029394,-0.0027881,0.028118,-0.0018355,0.0078849,8.9034e-05,0,0,0.052607,-0.025273,0,0.00046298,0,0,0,0.028119,-0.0018358,0.0078849,0.1703,0.011389,0.026468,5.3758e-07,0.6,0.68,0
0.030446,-0.00282,0.028096,-0.001821,0.0078824,-8.771e-05,0,0,0.052555,-0.025229,0,-0.00045609,0,0,0,0.028096,-0.0018212,0.0078824,-0.16798,0.011386,0.026437,5.3607e-07,0.62,0.68,0
0.031496,-0.0028739,0.028073,-0.0017269,0.007904,-0.00025816,0,0,0.052441,-0.02504,0,-0.0013424,0,0,0,0.028076,-0.0017291,0.007904,-0.4963,0.011417,0.026344,5.3341e-07,0.64,0.68,0
0.032544,-0.002948,0.028051,-0.0015581,0.0079478,-0.00041112,0,0,0.052268,-0.024716,0,-0.0021379,0,0,0,0.028057,-0.0015638,0.0079478,-0.79536,0.01148,0.026194,5.2957e-07,0.66,0.68,0
0.033587,-0.0030395,0.028029,-0.0013266,0.0080107,-0.00053508,0,0,0.052048,-0.024277,0,-0.0027824,0,0,0,0.028039,-0.0013364,0.0080107,-1.0439,0.011571,0.025994,5.2472e-07,0.68,0.68,0
0.034626,-0.0031446,0.028011,-0.0010518,0.0080878,-0.00062099,0,0,0.051801,-0.023763,0,-0.0032292,0,0,0,0.028024,-0.0010651,0.0080878,-1.2235,0.011682,0.025763,5.192e-07,0.7,0.68,0
0.035659,-0.0032588,0.028001,-0.00075736,0.0081732,-0.00066499,0,0,0.051553,-0.023219,0,-0.0034579,0,0,0,0.028017,-0.00077273,0.0081732,-1.3239,0.011806,0.025521,5.1357e-07,0.72,0.68,0
0.036688,-0.0033776,0.028004,-0.00046596,0.0082614,-0.00066905,0,0,0.051331,-0.022691,0,-0.0034791,0,0,0,0.02802,-0.00048167,0.0082614,-1.3455,0.011933,0.02529,5.0844e-07,0.74,0.68,0
0.037712,-0.0034968,0.028022,-0.00019541,0.0083481,-0.00063972,0,0,0.051153,-0.022213,0,-0.0033266,0,0,0,0.028037,-0.00020991,0.0083481,-1.298,0.012058,0.025088,5.043e-07,0.76,0.68,0
0.038734,-0.0036125,0.028057,4.2922e-05,0.0084301,-0.00058584,0,0,0.051031,-0.021807,0,-0.0030464,0,0,0,0.02807,3.0676e-05,0.0084301,-1.1975,0.012177,0.024924,5.0148e-07,0.78,0.68,0
0.039754,-0.0037221,0.028108,0.00024355,0.0085054,-0.00051656,0,0,0.050966,-0.021481,0,-0.0026861,0,0,0,0.028117,0.00023398,0.0085054,-1.0617,0.012285,0.024805,5.0008e-07,0.8,0.68,0
0.040773,-0.0038233,0.028171,0.00040549,0.0085728,-0.00043999,0,0,0.050954,-0.021235,0,-0.0022879,0,0,0,0.028177,0.00039852,0.0085728,-0.90766,0.012383,0.024727,5.0006e-07,0.82,0.68,0
0.041792,-0.0039147,0.028242,0.00053085,0.0086318,-0.00036273,0,0,0.050986,-0.021062,0,-0.0018862,0,0,0,0.028247,0.0005261,0.0086318,-0.74982,0.012468,0.024687,5.0121e-07,0.84,0.68,0
0.042812,-0.0039954,0.028317,0.00062374,0.0086823,-0.00028965,0,0,0.051051,-0.020952,0,-0.0015062,0,0,0,0.02832,0.00062071,0.0086823,-0.59918,0.012541,0.024677,5.0325e-07,0.86,0.68,0
0.043834,-0.0040651,0.028393,0.00068936,0.0087246,-0.00022394,0,0,0.051137,-0.020892,0,-0.0011645,0,0,0,0.028394,0.00068754,0.0087246,-0.46311,0.012602,0.02469,5.0588e-07,0.88,0.68,0
0.044858,-0.0041236,0.028464,0.0007333,0.0087591,-0.00016727,0,0,0.051232,-0.020867,0,-0.00086981,0,0,0,0.028465,0.00073229,0.0087591,-0.34559,0.012652,0.024717,5.0876e-07,0.9,0.68,0
0.045883,-0.0041709,0.028527,0.00076096,0.0087864,-0.00012,0,0,0.051326,-0.020866,0,-0.00062401,0,0,0,0.028528,0.00076045,0.0087864,-0.24762,0.012691,0.02475,5.1158e-07,0.92,0.68,0
0.046911,-0.0042074,0.02858,0.00077717,0.008807,-8.1425e-05,0,0,0.051409,-0.020878,0,-0.00042341,0,0,0,0.02858,0.00077693,0.008807,-0.1678,0.012721,0.024783,5.1408e-07,0.94,0.68,0
0.047939,-0.0042333,0.028619,0.00078583,0.0088214,-5.0021e-05,0,0,0.051473,-0.020892,0,-0.00026011,0,0,0,0.028619,0.00078574,0.0088214,-0.10297,0.012742,0.024811,5.1602e-07,0.96,0.68,0
0.048969,-0.0042487,0.028643,0.00078986,0.0088298,-2.3697e-05,0,0,0.051514,-0.020904,0,-0.00012323,0,0,0,0.028643,0.00078984,0.0088298,-0.048747,0.012754,0.024829,5.1726e-07,0.98,0.68,0
0.05,-0.0042538,0.028651,0.000791,0.0088326,-4.9237e-05,0,0,0.051528,-0.020908,0,-0.00025603,0,0,0,0.028651,0.00079092,0.0088326,-0.10126,0.012758,0.024836,5.1769e-07,1,0.68,0
0,0,0.027346,0.01172,0.01172,-0.0034129,0,0,0.040629,-2.1684e-19,0,-0.017747,0,0,0,0.028059,0.011007,0.01172,-11.798,0.016929,0.016707,2.3805e-07,0,0.7,0
0.00081258,-0.00035495,0.027279,0.010901,0.011454,-0.003396,0,0,0.041145,-0.0014384,0,-0.017659,0,0,0,0.027955,0.010224,0.011454,-11.262,0.016544,0.017149,2.5454e-07,0.02,0.7,0
0.0016458,-0.00070084,0.027548,0.0102,0.011325,-0.0033215,0,0,0.042181,-0.0029228,0,-0.017272,0,0,0,0.028162,0.0095862,0.011325,-10.477,0.016358,0.017771,2.7896e-07,0.04,0.7,0
0.0024998,-0.001036,0.027811,0.0094879,0.01119,-0.0032231,0,0,0.043216,-0.0044249,0,-0.01676,0,0,0,0.028362,0.0089375,0.01119,-9.6909,0.016163,0.018402,3.0393e-07,0.06,0.7,0
0.0033744,-0.0013584,0.028061,0.0087756,0.011051,-0.0030989,0,0,0.044226,-0.0059159,0,-0.016114,0,0,0,0.028547,0.0082899,0.011051,-8.9081,0.015963,0.019027,3.2881e-07,0.08,0.7,0
0.0042689,-0.0016661,0.02829,0.0080757,0.01091,-0.002949,0,0,0.045189,-0.0073687,0,-0.015335,0,0,0,0.028712,0.0076543,0.01091,-8.1327,0.015759,0.019633,3.5293e-07,0.1,0.7,0
0.005182,-0.0019569,0.028494,0.0073989,0.010768,-0.0027748,0,0,0.046088,-0.0087591,0,-0.014429,0,0,0,0.028853,0.00704,0.010768,-7.3697,0.015553,0.020208,3.7569e-07,0.12,0.7,0
0.0061124,-0.002229,0.028667,0.0067539,0.010626,-0.0025792,0,0,0.046906,-0.010068,0,-0.013412,0,0,0,0.028966,0.0064544,0.010626,-6.6232,0.015349,0.020743,3.9662e-07,0.14,0.7,0
0.0070582,-0.0024807,0.028807,0.0061469,0.010486,-0.0023657,0,0,0.047634,-0.011282,0,-0.012302,0,0,0,0.029051,0.0059026,0.010486,-5.897,0.015147,0.021231,4.1535e-07,0.16,0.7,0
0.0080177,-0.0027103,0.028912,0.0055815,0.010348,-0.0021382,0,0,0.048267,-0.012393,0,-0.011119,0,0,0,0.029107,0.0053872,0.010348,-5.1935,0.014947,0.021669,4.3166e-07,0.18,0.7,0
0.0089889,-0.0029169,0.028983,0.0050588,0.010213,-0.0019006,0,0,0.048804,-0.0134,0,-0.009883,0,0,0,0.029133,0.0049088,0.010213,-4.5139,0.014752,0.022056,4.4549e-07,0.2,0.7,0
0.0099699,-0.0030994,0.029021,0.0045777,0.01008,-0.0016561,0,0,0.049248,-0.014305,0,-0.0086117,0,0,0,0.029133,0.004466,0.01008,-3.8584,0.014559,0.022394,4.5691e-07,0.22,0.7,0
0.010959,-0.0032573,0.029029,0.0041349,0.0099491,-0.0014077,0,0,0.049607,-0.015117,0,-0.0073203,0,0,0,0.029108,0.0040555,0.0099491,-3.2264,0.014371,0.022687,4.6608e-07,0.24,0.7,0
0.011954,-0.0033904,0.029009,0.0037256,0.0098205,-0.001158,0,0,0.049891,-0.015847,0,-0.0060214,0,0,0,0.029062,0.0036727,0.0098205,-2.6168,0.014185,0.022942,4.733e-07,0.26,0.7,0
0.012955,-0.0034986,0.028967,0.0033437,0.0096933,-0.00090895,0,0,0.050112,-0.016509,0,-0.0047265,0,0,0,0.029,0.0033115,0.0096933,-2.029,0.014001,0.023166,4.7892e-07,0.28,0.7,0
0.013959,-0.0035821,0.028907,0.002982,0.0095669,-0.0006628,0,0,0.050286,-0.017121,0,-0.0034466,0,0,0,0.028924,0.002965,0.0095669,-1.4635,0.013819,0.023369,4.8335e-07,0.3,0.7,0
0.014966,-0.0036415,0.028835,0.0026329,0.0094404,-0.00042189,0,0,0.050426,-0.017699,0,-0.0021938,0,0,0,0.028842,0.0026261,0.0094404,-0.92223,0.013636,0.02356,4.8704e-07,0.32,0.7,0
0.015976,-0.0036778,0.028756,0.0022889,0.0093133,-0.00018912,0,0,0.05055,-0.018264,0,-0.00098343,0,0,0,0.028757,0.0022875,0.0093133,-0.40939,0.013453,0.023749,4.9041e-07,0.34,0.7,0
0.016988,-0.0036922,0.028674,0.0019426,0.0091851,3.1784e-05,0,0,0.050672,-0.01883,0,0.00016527,0,0,0,0.028674,0.0019426,0.0091851,0.068123,0.013267,0.023947,4.9387e-07,0.36,0.7,0
0.018003,-0.0036865,0.028597,0.0015883,0.0090555,0.00023607,0,0,0.050807,-0.019415,0,0.0012276,0,0,0,0.028599,0.0015862,0.0090555,0.50075,0.01308,0.02416,4.9774e-07,0.38,0.7,0
0.01902,-0.0036631,0.028527,0.0012219,0.0089246,0.00041791,0,0,0.050965,-0.020027,0,0.0021731,0,0,0,0.028533,0.0012155,0.0089246,0.87666,0.012891,0.024394,5.0226e-07,0.4,0.7,0
0.020041,-0.0036248,0.028467,0.00084247,0.008793,0.00057056,0,0,0.051154,-0.020671,0,0.0029669,0,0,0,0.028479,0.00083069,0.008793,1.1827,0.012701,0.024651,5.075e-07,0.42,0.7,0
0.021066,-0.0035752,0.028421,0.00045271,0.0086621,0.00068691,0,0,0.051373,-0.021344,0,0.0035719,0,0,0,0.028438,0.00043585,0.0086621,1.4061,0.012512,0.024929,5.1337e-07,0.44,0.7,0
0.022096,-0.0035184,0.028387,5.9982e-05,0.008534,0.00076045,0,0,0.051617,-0.022033,0,0.0039544,0,0,0,0.028407,3.9582e-05,0.008534,1.5367,0.012327,0.025217,5.1962e-07,0.46,0.7,0
0.023131,-0.003459,0.028363,-0.00032384,0.0084117,0.0007866,0,0,0.051873,-0.022712,0,0.0040903,0,0,0,0.028384,-0.00034539,0.0084117,1.5695,0.01215,0.025505,5.2583e-07,0.48,0.7,0
0.024171,-0.0034018,0.028345,-0.0006836,0.0082986,0.00076404,0,0,0.052122,-0.023354,0,0.003973,0,0,0,0.028366,-0.00070369,0.0082986,1.5066,0.011987,0.025775,5.3154e-07,0.5,0.7,0
0.025216,-0.0033515,0.028331,-0.0010032,0.0081984,0.0006954,0,0,0.052346,-0.023924,0,0.003616,0,0,0,0.028348,-0.0010197,0.0081984,1.3572,0.011842,0.026014,5.3634e-07,0.52,0.7,0
0.026265,-0.0033122,0.028317,-0.0012687,0.0081145,0.00058695,0,0,0.052527,-0.024396,0,0.0030522,0,0,0,0.028329,-0.0012804,0.0081145,1.1361,0.011721,0.026207,5.3993e-07,0.54,0.7,0
0.027317,-0.0032876,0.0283,-0.00147,0.0080491,0.00044737,0,0,0.052653,-0.02475,0,0.0023263,0,0,0,0.028307,-0.0014767,0.0080491,0.86075,0.011626,0.026346,5.4215e-07,0.56,0.7,0
0.028371,-0.0032802,0.02828,-0.0016011,0.0080037,0.00028624,0,0,0.052719,-0.024973,0,0.0014884,0,0,0,0.028283,-0.0016039,0.0080037,0.54877,0.011561,0.026427,5.4297e-07,0.58,0.7,0
0.029426,-0.0032917,0.028256,-0.00166,0.0079788,0.00011314,0,0,0.052721,-0.025061,0,0.00058834,0,0,0,0.028256,-0.0016604,0.0079788,0.21669,0.011525,0.026449,5.4243e-07,0.6,0.7,0
0.03048,-0.0033227,0.028227,-0.0016465,0.0079742,-6.2353e-05,0,0,0.052658,-0.025014,0,-0.00032423,0,0,0,0.028227,-0.0016466,0.0079742,-0.11959,0.011518,0.026412,5.4055e-07,0.62,0.7,0
0.031532,-0.0033729,0.028194,-0.0015635,0.0079893,-0.00023043,0,0,0.052533,-0.024837,0,-0.0011982,0,0,0,0.028196,-0.0015652,0.0079893,-0.44363,0.01154,0.026319,5.3741e-07,0.64,0.7,0
0.032581,-0.0034407,0.028158,-0.0014172,0.0080223,-0.00038108,0,0,0.052353,-0.024543,0,-0.0019816,0,0,0,0.028163,-0.0014221,0.0080223,-0.7381,0.011588,0.026174,5.331e-07,0.66,0.7,0
0.033626,-0.0035239,0.028121,-0.0012187,0.0080706,-0.00050512,0,0,0.05213,-0.024152,0,-0.0026266,0,0,0,0.028129,-0.0012274,0.0080706,-0.98603,0.011657,0.025987,5.2785e-07,0.68,0.7,0
0.034666,-0.0036194,0.028085,-0.00098355,0.0081306,-0.00059567,0,0,0.051883,-0.023697,0,-0.0030975,0,0,0,0.028098,-0.00099576,0.0081306,-1.1734,0.011744,0.025772,5.22e-07,0.7,0.7,0
0.035701,-0.0037233,0.028057,-0.0007296,0.0081981,-0.00064961,0,0,0.051632,-0.023212,0,-0.0033779,0,0,0,0.028071,-0.00074425,0.0081981,-1.2921,0.011842,0.025546,5.1603e-07,0.72,0.7,0
0.036732,-0.0038321,0.028038,-0.00047439,0.008269,-0.00066789,0,0,0.051399,-0.022733,0,-0.003473,0,0,0,0.028053,-0.00049002,0.008269,-1.3412,0.011944,0.025327,5.1042e-07,0.74,0.7,0
0.037757,-0.003942,0.028032,-0.00023249,0.00834,-0.00065495,0,0,0.051201,-0.022288,0,-0.0034057,0,0,0,0.028048,-0.00024766,0.00834,-1.3267,0.012047,0.025127,5.0559e-07,0.76,0.7,0
0.03878,-0.0040497,0.028042,-1.4209e-05,0.0084083,-0.00061732,0,0,0.051047,-0.021898,0,-0.0032101,0,0,0,0.028055,-2.7785e-05,0.0084083,-1.2599,0.012145,0.024958,5.0183e-07,0.78,0.7,0
0.039799,-0.0041527,0.028065,0.00017454,0.0084719,-0.00056226,0,0,0.050943,-0.021573,0,-0.0029237,0,0,0,0.028077,0.00016321,0.0084719,-1.1544,0.012237,0.024825,4.9929e-07,0.8,0.7,0
0.040817,-0.0042488,0.028101,0.00033155,0.0085298,-0.00049666,0,0,0.050886,-0.021316,0,-0.0025826,0,0,0,0.02811,0.00032267,0.0085298,-1.0243,0.012321,0.024727,4.9796e-07,0.82,0.7,0
0.041835,-0.0043365,0.028147,0.00045744,0.0085812,-0.00042646,0,0,0.05087,-0.021122,0,-0.0022176,0,0,0,0.028153,0.00045087,0.0085812,-0.88217,0.012395,0.024663,4.9772e-07,0.84,0.7,0
0.042852,-0.0044147,0.028198,0.00055477,0.0086257,-0.00035629,0,0,0.050887,-0.020984,0,-0.0018527,0,0,0,0.028202,0.00055017,0.0086257,-0.73831,0.012459,0.024628,4.9836e-07,0.86,0.7,0
0.04387,-0.0044828,0.028251,0.00062726,0.0086635,-0.00028943,0,0,0.050928,-0.020894,0,-0.001505,0,0,0,0.028254,0.00062423,0.0086635,-0.60023,0.012514,0.024615,4.9964e-07,0.88,0.7,0
0.044889,-0.0045405,0.028303,0.00067917,0.0086947,-0.00022788,0,0,0.050982,-0.020841,0,-0.001185,0,0,0,0.028305,0.00067729,0.0086947,-0.47261,0.012559,0.024619,5.0129e-07,0.9,0.7,0
0.045909,-0.0045875,0.028351,0.00071479,0.0087197,-0.00017249,0,0,0.051041,-0.020813,0,-0.00089694,0,0,0,0.028352,0.00071372,0.0087197,-0.35759,0.012595,0.024631,5.0304e-07,0.92,0.7,0
0.046931,-0.004624,0.028391,0.00073803,0.0087386,-0.00012313,0,0,0.051095,-0.020802,0,-0.0006403,0,0,0,0.028391,0.00073748,0.0087386,-0.25512,0.012622,0.024647,5.0468e-07,0.94,0.7,0
0.047953,-0.0046499,0.028421,0.00075217,0.0087519,-7.8944e-05,0,0,0.051139,-0.020799,0,-0.00041051,0,0,0,0.028421,0.00075194,0.0087519,-0.16347,0.012642,0.024662,5.0599e-07,0.96,0.7,0
0.048976,-0.0046655,0.028439,0.00075964,0.0087598,-3.8493e-05,0,0,0.051167,-0.0208,0,-0.00020016,0,0,0,0.02844,0.00075959,0.0087598,-0.079678,0.012653,0.024673,5.0683e-07,0.98,0.7,0
0.05,-0.0046706,0.028446,0.00076196,0.0087624,-4.9688e-05,0,0,0.051177,-0.020801,0,-0.00025838,0,0,0,0.028446,0.00076187,0.0087624,-0.10283,0.012657,0.024677,5.0713e-07,1,0.7,0
0,0,0.027265,0.011685,0.011685,-0.0036934,0,0,0.040508,2.1684e-19,0,-0.019206,0,0,0,0.028096,0.010854,0.011685,-12.683,0.016878,0.016842,2.4336e-07,0,0.72,0
0.00081016,-0.00038411,0.027196,0.010839,0.01141,-0.0036742,0,0,0.041042,-0.001486,0,-0.019106,0,0,0,0.027983,0.010051,0.01141,-12.096,0.016482,0.017292,2.6005e-07,0.02,0.72,0
0.0016417,-0.00076017,0.027474,0.010112,0.011276,-0.0035971,0,0,0.042115,-0.0030266,0,-0.018705,0,0,0,0.02819,0.0093958,0.011276,-11.254,0.016287,0.017928,2.8501e-07,0.04,0.72,0
0.0024948,-0.0011259,0.027745,0.0093692,0.011134,-0.0034882,0,0,0.043189,-0.0045896,0,-0.018139,0,0,0,0.028385,0.0087293,0.011134,-10.394,0.016083,0.018571,3.1041e-07,0.06,0.72,0
0.0033692,-0.0014787,0.028002,0.0086265,0.010989,-0.0033458,0,0,0.044236,-0.0061417,0,-0.017398,0,0,0,0.028564,0.008065,0.010989,-9.5262,0.015873,0.019205,3.3554e-07,0.08,0.72,0
0.0042642,-0.0018159,0.028237,0.0078977,0.01084,-0.0031707,0,0,0.045231,-0.0076511,0,-0.016488,0,0,0,0.02872,0.0074149,0.01084,-8.6582,0.015658,0.019816,3.5969e-07,0.1,0.72,0
0.0051785,-0.002135,0.028444,0.0071954,0.010692,-0.0029661,0,0,0.046155,-0.0090902,0,-0.015423,0,0,0,0.02885,0.0067892,0.010692,-7.7995,0.015444,0.020391,3.8226e-07,0.12,0.72,0
0.0061104,-0.0024336,0.028617,0.0065294,0.010544,-0.0027363,0,0,0.04699,-0.010438,0,-0.014229,0,0,0,0.028951,0.0061954,0.010544,-6.958,0.01523,0.020923,4.0278e-07,0.14,0.72,0
0.0070581,-0.0027098,0.028755,0.0059062,0.010398,-0.0024869,0,0,0.047727,-0.01168,0,-0.012932,0,0,0,0.029023,0.0056387,0.010398,-6.1404,0.01502,0.021405,4.2094e-07,0.16,0.72,0
0.0080195,-0.0029619,0.028857,0.0053295,0.010256,-0.0022235,0,0,0.048363,-0.012809,0,-0.011562,0,0,0,0.029066,0.0051213,0.010256,-5.3516,0.014814,0.021834,4.3658e-07,0.18,0.72,0
0.0089926,-0.0031887,0.028924,0.0047999,0.010117,-0.0019512,0,0,0.048898,-0.013825,0,-0.010146,0,0,0,0.029081,0.0046431,0.010117,-4.5944,0.014614,0.022212,4.4972e-07,0.2,0.72,0
0.0099754,-0.0033894,0.028958,0.0043155,0.0099821,-0.0016748,0,0,0.049337,-0.014733,0,-0.0087087,0,0,0,0.029071,0.0042023,0.0099821,-3.8702,0.014419,0.022542,4.6048e-07,0.22,0.72,0
0.010966,-0.0035636,0.028963,0.0038725,0.0098506,-0.001398,0,0,0.049692,-0.015543,0,-0.0072698,0,0,0,0.029041,0.0037949,0.0098506,-3.1794,0.014229,0.022828,4.6912e-07,0.24,0.72,0
0.011963,-0.0037113,0.028942,0.0034655,0.0097224,-0.0011242,0,0,0.049972,-0.016268,0,-0.0058461,0,0,0,0.028992,0.003416,0.0097224,-2.5218,0.014044,0.023078,4.7597e-07,0.26,0.72,0
0.012965,-0.0038327,0.028902,0.0030881,0.009597,-0.00085609,0,0,0.050193,-0.016923,0,-0.0044517,0,0,0,0.02893,0.0030597,0.009597,-1.8974,0.013862,0.0233,4.814e-07,0.28,0.72,0
0.013971,-0.0039284,0.028847,0.002733,0.0094739,-0.00059605,0,0,0.050369,-0.017526,0,-0.0030995,0,0,0,0.02886,0.0027194,0.0094739,-1.3069,0.013685,0.023503,4.8581e-07,0.3,0.72,0
0.01498,-0.0039994,0.028782,0.0023931,0.0093524,-0.00034665,0,0,0.050516,-0.018094,0,-0.0018026,0,0,0,0.028786,0.0023885,0.0093524,-0.75249,0.013509,0.023696,4.8962e-07,0.32,0.72,0
0.015991,-0.0040468,0.028712,0.0020612,0.0092319,-0.00011079,0,0,0.050648,-0.018644,0,-0.00057609,0,0,0,0.028712,0.0020607,0.0092319,-0.23817,0.013335,0.023887,4.9321e-07,0.34,0.72,0
0.017006,-0.0040725,0.028643,0.0017311,0.0091121,0.00010808,0,0,0.050779,-0.019191,0,0.000562,0,0,0,0.028643,0.0017306,0.0091121,0.23009,0.013162,0.024085,4.9693e-07,0.36,0.72,0
0.018023,-0.0040782,0.028578,0.0013977,0.0089928,0.00030575,0,0,0.050922,-0.019747,0,0.0015899,0,0,0,0.028582,0.0013943,0.0089928,0.64441,0.01299,0.024296,5.0103e-07,0.38,0.72,0
0.019043,-0.0040667,0.028522,0.0010581,0.0088741,0.00047736,0,0,0.051085,-0.020322,0,0.0024823,0,0,0,0.028531,0.0010498,0.0088741,0.99545,0.012818,0.024523,5.0567e-07,0.4,0.72,0
0.020066,-0.0040409,0.028477,0.00071179,0.0087567,0.00061752,0,0,0.051273,-0.020917,0,0.0032111,0,0,0,0.028491,0.00069806,0.0087567,1.2734,0.012649,0.024767,5.1088e-07,0.42,0.72,0
0.021094,-0.0040041,0.028443,0.00036158,0.0086415,0.00072089,0,0,0.051485,-0.021528,0,0.0037486,0,0,0,0.028462,0.00034309,0.0086415,1.4695,0.012482,0.025024,5.1656e-07,0.44,0.72,0
0.022125,-0.0039604,0.028421,1.3656e-05,0.0085303,0.00078289,0,0,0.051715,-0.022143,0,0.004071,0,0,0,0.028442,-7.9042e-06,0.0085303,1.5775,0.012322,0.025286,5.2248e-07,0.46,0.72,0
0.023162,-0.0039138,0.028407,-0.0003226,0.0084252,0.00080064,0,0,0.051951,-0.022744,0,0.0041633,0,0,0,0.028429,-0.00034489,0.0084252,1.5951,0.01217,0.025544,5.2829e-07,0.48,0.72,0
0.024203,-0.0038686,0.028398,-0.00063557,0.0083287,0.00077373,0,0,0.05218,-0.023307,0,0.0040234,0,0,0,0.028419,-0.00065617,0.0083287,1.5254,0.01203,0.025784,5.3362e-07,0.5,0.72,0
0.025249,-0.0038289,0.028392,-0.00091302,0.0082436,0.0007047,0,0,0.052385,-0.023807,0,0.0036645,0,0,0,0.028408,-0.00092996,0.0082436,1.3768,0.011907,0.025995,5.3812e-07,0.52,0.72,0
0.026299,-0.0037985,0.028384,-0.0011439,0.008172,0.00059888,0,0,0.052551,-0.024221,0,0.0031142,0,0,0,0.028396,-0.001156,0.008172,1.1614,0.011804,0.026166,5.4151e-07,0.54,0.72,0
0.027351,-0.0037806,0.028372,-0.0013196,0.0081158,0.00046364,0,0,0.052667,-0.024532,0,0.0024109,0,0,0,0.028379,-0.0013268,0.0081158,0.89439,0.011723,0.026289,5.4362e-07,0.56,0.72,0
0.028406,-0.0037774,0.028355,-0.0014345,0.0080761,0.00030762,0,0,0.052725,-0.024727,0,0.0015996,0,0,0,0.028358,-0.0014377,0.0080761,0.59158,0.011665,0.02636,5.4434e-07,0.58,0.72,0
0.02946,-0.0037905,0.028331,-0.0014863,0.0080533,0.00014,0,0,0.052721,-0.024803,0,0.00072801,0,0,0,0.028331,-0.0014869,0.0080533,0.26902,0.011633,0.026375,5.4368e-07,0.6,0.72,0
0.030514,-0.0038206,0.028299,-0.001475,0.0080473,-2.9848e-05,0,0,0.052655,-0.024758,0,-0.00015521,0,0,0,0.028299,-0.001475,0.0080473,-0.057438,0.011624,0.026337,5.4167e-07,0.62,0.72,0
0.031566,-0.0038674,0.028261,-0.0014037,0.0080573,-0.0001926,0,0,0.052531,-0.024599,0,-0.0010015,0,0,0,0.028263,-0.001405,0.0080573,-0.37198,0.011638,0.026248,5.3839e-07,0.64,0.72,0
0.032616,-0.0039297,0.028218,-0.0012787,0.0080819,-0.00033938,0,0,0.052355,-0.024338,0,-0.0017648,0,0,0,0.028222,-0.0012826,0.0080819,-0.65911,0.011674,0.026114,5.3399e-07,0.66,0.72,0
0.033661,-0.0040056,0.028173,-0.0011096,0.008119,-0.00046246,0,0,0.05214,-0.023994,0,-0.0024048,0,0,0,0.02818,-0.0011169,0.008119,-0.90458,0.011727,0.025943,5.2872e-07,0.68,0.72,0
0.034701,-0.0040924,0.028128,-0.00090883,0.0081658,-0.00055622,0,0,0.051902,-0.023594,0,-0.0028923,0,0,0,0.028139,-0.00091948,0.0081658,-1.097,0.011795,0.025747,5.2291e-07,0.7,0.72,0
0.035737,-0.0041873,0.028088,-0.00069038,0.0082192,-0.00061786,0,0,0.051658,-0.023165,0,-0.0032129,0,0,0,0.028101,-0.00070364,0.0082192,-1.2294,0.011872,0.02554,5.1692e-07,0.72,0.72,0
0.036768,-0.004287,0.028055,-0.00046806,0.0082762,-0.00064766,0,0,0.051426,-0.022735,0,-0.0033678,0,0,0,0.02807,-0.00048276,0.0082762,-1.3001,0.011954,0.025336,5.1118e-07,0.74,0.72,0
0.037794,-0.0043883,0.028034,-0.00025376,0.008334,-0.00064857,0,0,0.051219,-0.022328,0,-0.0033725,0,0,0,0.028049,-0.00026862,0.008334,-1.3127,0.012038,0.025145,5.0603e-07,0.76,0.72,0
0.038816,-0.0044885,0.028025,-5.6494e-05,0.0083905,-0.00062534,0,0,0.051049,-0.021962,0,-0.0032517,0,0,0,0.028039,-7.0412e-05,0.0083905,-1.2751,0.01212,0.024977,5.0174e-07,0.78,0.72,0
0.039836,-0.004585,0.028028,0.00011794,0.0084438,-0.00058362,0,0,0.050919,-0.021647,0,-0.0030348,0,0,0,0.02804,0.00010575,0.0084438,-1.1974,0.012197,0.024838,4.9846e-07,0.8,0.72,0
0.040853,-0.0046759,0.028043,0.00026672,0.008493,-0.00052911,0,0,0.05083,-0.021388,0,-0.0027514,0,0,0,0.028053,0.00025664,0.008493,-1.0909,0.012268,0.024729,4.9622e-07,0.82,0.72,0
0.041869,-0.0047596,0.028067,0.0003894,0.0085371,-0.00046695,0,0,0.050779,-0.021184,0,-0.0024281,0,0,0,0.028075,0.00038152,0.0085371,-0.96625,0.012331,0.02465,4.9495e-07,0.84,0.72,0
0.042884,-0.0048348,0.028099,0.00048733,0.0085758,-0.00040139,0,0,0.050759,-0.02103,0,-0.0020873,0,0,0,0.028105,0.0004815,0.0085758,-0.83269,0.012387,0.024596,4.9452e-07,0.86,0.72,0
0.043899,-0.0049009,0.028134,0.00056302,0.008609,-0.00033567,0,0,0.050764,-0.02092,0,-0.0017455,0,0,0,0.028138,0.00055893,0.008609,-0.69744,0.012435,0.024564,4.9474e-07,0.88,0.72,0
0.044915,-0.0049572,0.028169,0.0006196,0.0086366,-0.00027196,0,0,0.050785,-0.020844,0,-0.0014142,0,0,0,0.028172,0.00061691,0.0086366,-0.56554,0.012475,0.024548,4.9539e-07,0.9,0.72,0
0.045931,-0.0050035,0.028202,0.00066035,0.0086589,-0.00021147,0,0,0.050813,-0.020796,0,-0.0010997,0,0,0,0.028204,0.00065873,0.0086589,-0.43989,0.012507,0.024544,4.9627e-07,0.92,0.72,0
0.046947,-0.0050395,0.028231,0.0006884,0.0086759,-0.00015458,0,0,0.050844,-0.020768,0,-0.0008038,0,0,0,0.028232,0.00068753,0.0086759,-0.32154,0.012532,0.024546,4.9718e-07,0.94,0.72,0
0.047965,-0.0050653,0.028253,0.00070639,0.0086879,-0.00010097,0,0,0.05087,-0.020752,0,-0.00052502,0,0,0,0.028254,0.00070602,0.0086879,-0.21,0.012549,0.02455,4.9795e-07,0.96,0.72,0
0.048982,-0.0050807,0.028267,0.00071635,0.008695,-4.9824e-05,0,0,0.050887,-0.020745,0,-0.00025908,0,0,0,0.028267,0.00071626,0.008695,-0.10362,0.012559,0.024554,4.9846e-07,0.98,0.72,0
0.05,-0.0050859,0.028272,0.00071953,0.0086974,-4.9521e-05,0,0,0.050894,-0.020743,0,-0.00025751,0,0,0,0.028272,0.00071944,0.0086974,-0.10298,0.012563,0.024556,4.9865e-07,1,0.72,0
0,0,0.02721,0.011661,0.011661,-0.0039845,0,0,0.040426,8.6736e-19,0,-0.020719,0,0,0,0.028172,0.0107,0.011661,-13.568,0.016844,0.017011,2.5011e-07,0,0.74,0
0.00080853,-0.00041439,0.027138,0.010779,0.011375,-0.0039629,0,0,0.040984,-0.0015501,0,-0.020607,0,0,0,0.028047,0.0098695,0.011375,-12.925,0.016431,0.017474,2.6718e-07,0.02,0.74,0
0.0016393,-0.0008219,0.027428,0.010016,0.011233,-0.0038835,0,0,0.042106,-0.003165,0,-0.020194,0,0,0,0.028255,0.009189,0.011233,-12.02,0.016226,0.01813,2.9301e-07,0.04,0.74,0
0.0024928,-0.0012196,0.02771,0.0092347,0.011083,-0.0037629,0,0,0.04323,-0.004807,0,-0.019567,0,0,0,0.028447,0.0084977,0.011083,-11.081,0.016009,0.018791,3.1911e-07,0.06,0.74,0
0.0033685,-0.0016041,0.027976,0.0084534,0.010929,-0.0035999,0,0,0.044323,-0.0064362,0,-0.01872,0,0,0,0.028619,0.0078107,0.010929,-10.122,0.015786,0.019437,3.4468e-07,0.08,0.74,0
0.0042657,-0.0019721,0.028217,0.0076893,0.010772,-0.0033967,0,0,0.045357,-0.0080146,0,-0.017663,0,0,0,0.028764,0.0071418,0.010772,-9.1557,0.015559,0.020055,3.6897e-07,0.1,0.74,0
0.0051828,-0.0023206,0.028426,0.0069569,0.010615,-0.0031582,0,0,0.046308,-0.0095104,0,-0.016423,0,0,0,0.028881,0.006502,0.010615,-8.1973,0.015332,0.020632,3.9134e-07,0.12,0.74,0
0.006118,-0.0026466,0.028598,0.0062674,0.01046,-0.0028912,0,0,0.04716,-0.0109,0,-0.015034,0,0,0,0.028966,0.0058992,0.01046,-7.2588,0.015108,0.021159,4.1135e-07,0.14,0.74,0
0.0070692,-0.0029478,0.028732,0.0056278,0.010308,-0.0026035,0,0,0.047902,-0.012168,0,-0.013538,0,0,0,0.029022,0.0053381,0.010308,-6.3502,0.014889,0.021631,4.2876e-07,0.16,0.74,0
0.0080341,-0.0032227,0.028827,0.0050412,0.010161,-0.0023025,0,0,0.048534,-0.01331,0,-0.011973,0,0,0,0.029048,0.0048204,0.010161,-5.4784,0.014676,0.022048,4.4352e-07,0.18,0.74,0
0.0090106,-0.0034699,0.028887,0.0045074,0.010018,-0.0019953,0,0,0.049058,-0.014328,0,-0.010375,0,0,0,0.029049,0.0043452,0.010018,-4.648,0.014471,0.022412,4.5571e-07,0.2,0.74,0
0.0099964,-0.0036887,0.028913,0.0040236,0.0098811,-0.0016876,0,0,0.049484,-0.015229,0,-0.0087755,0,0,0,0.029027,0.0039097,0.0098811,-3.8613,0.014273,0.022728,4.6558e-07,0.22,0.74,0
0.01099,-0.0038791,0.028912,0.0035849,0.009749,-0.0013842,0,0,0.049823,-0.016027,0,-0.0071978,0,0,0,0.028987,0.0035095,0.009749,-3.119,0.014082,0.023002,4.7342e-07,0.24,0.74,0
0.011989,-0.0040411,0.028887,0.0031851,0.0096216,-0.0010888,0,0,0.05009,-0.016735,0,-0.0056616,0,0,0,0.028933,0.0031391,0.0096216,-2.4213,0.013898,0.023241,4.7962e-07,0.26,0.74,0
0.012993,-0.0041755,0.028845,0.0028173,0.0094986,-0.00080429,0,0,0.0503,-0.017371,0,-0.0041823,0,0,0,0.028869,0.0027925,0.0094986,-1.7683,0.01372,0.023454,4.8457e-07,0.28,0.74,0
0.014001,-0.0042831,0.02879,0.0024743,0.0093793,-0.00053332,0,0,0.050468,-0.017953,0,-0.0027732,0,0,0,0.028801,0.0024635,0.0093793,-1.1605,0.013548,0.02365,4.8866e-07,0.3,0.74,0
0.015012,-0.0043653,0.028728,0.0021487,0.0092631,-0.00027827,0,0,0.050609,-0.018497,0,-0.001447,0,0,0,0.028731,0.0021458,0.0092631,-0.59976,0.01338,0.023837,4.9228e-07,0.32,0.74,0
0.016026,-0.0044235,0.028664,0.0018341,0.0091496,-4.1749e-05,0,0,0.050739,-0.01902,0,-0.00021709,0,0,0,0.028664,0.0018341,0.0091496,-0.089153,0.013216,0.024023,4.9577e-07,0.34,0.74,0
0.017042,-0.0044598,0.028603,0.0015247,0.0090383,0.00017327,0,0,0.050868,-0.019536,0,0.00090098,0,0,0,0.028604,0.0015236,0.0090383,0.3666,0.013055,0.024214,4.9941e-07,0.36,0.74,0
0.018061,-0.0044764,0.028548,0.0012161,0.0089291,0.00036333,0,0,0.051008,-0.020054,0,0.0018893,0,0,0,0.028553,0.0012113,0.0089291,0.76148,0.012898,0.024415,5.034e-07,0.38,0.74,0
0.019082,-0.0044759,0.028501,0.00090593,0.0088221,0.00052459,0,0,0.051165,-0.020582,0,0.0027279,0,0,0,0.028511,0.00089596,0.0088221,1.0887,0.012743,0.024628,5.0785e-07,0.4,0.74,0
0.020107,-0.0044615,0.028465,0.000594,0.0087176,0.00065299,0,0,0.051343,-0.021122,0,0.0033955,0,0,0,0.02848,0.00057871,0.0087176,1.3414,0.012592,0.024852,5.1276e-07,0.42,0.74,0
0.021136,-0.0044363,0.028439,0.00028272,0.0086166,0.0007447,0,0,0.051539,-0.021668,0,0.0038724,0,0,0,0.028459,0.00026304,0.0086166,1.514,0.012446,0.025085,5.1801e-07,0.44,0.74,0
0.022169,-0.0044042,0.028424,-2.2843e-05,0.0085202,0.00079668,0,0,0.051749,-0.022212,0,0.0041427,0,0,0,0.028446,-4.5137e-05,0.0085202,1.603,0.012307,0.025319,5.2341e-07,0.46,0.74,0
0.023206,-0.0043688,0.028415,-0.0003153,0.00843,0.00080732,0,0,0.051962,-0.022738,0,0.0041981,0,0,0,0.028438,-0.00033797,0.00843,1.6083,0.012177,0.025546,5.2866e-07,0.48,0.74,0
0.024247,-0.0043341,0.028412,-0.00058568,0.0083478,0.00077697,0,0,0.052166,-0.023227,0,0.0040403,0,0,0,0.028432,-0.00060648,0.0083478,1.5337,0.012058,0.025757,5.3346e-07,0.5,0.74,0
0.025292,-0.0043038,0.028409,-0.00082454,0.0082755,0.00070822,0,0,0.052348,-0.02366,0,0.0036828,0,0,0,0.028427,-0.00084169,0.0082755,1.387,0.011953,0.02594,5.3751e-07,0.52,0.74,0
0.026341,-0.004281,0.028405,-0.0010232,0.0082146,0.00060582,0,0,0.052496,-0.024018,0,0.0031503,0,0,0,0.028418,-0.0010356,0.0082146,1.1788,0.011865,0.026089,5.4056e-07,0.54,0.74,0
0.027392,-0.0042688,0.028396,-0.0011745,0.0081665,0.00047629,0,0,0.052597,-0.024287,0,0.0024767,0,0,0,0.028404,-0.0011822,0.0081665,0.92254,0.011796,0.026194,5.4243e-07,0.56,0.74,0
0.028445,-0.0042693,0.028381,-0.0012737,0.0081321,0.00032738,0,0,0.052646,-0.024455,0,0.0017024,0,0,0,0.028384,-0.0012774,0.0081321,0.63243,0.011746,0.026254,5.4302e-07,0.58,0.74,0
0.029498,-0.0042838,0.028357,-0.0013187,0.0081116,0.00016751,0,0,0.052639,-0.024519,0,0.00087104,0,0,0,0.028358,-0.0013196,0.0081116,0.32339,0.011717,0.026265,5.4229e-07,0.6,0.74,0
0.030551,-0.004313,0.028326,-0.0013096,0.0081049,5.3482e-06,0,0,0.052575,-0.024478,0,2.7811e-05,0,0,0,0.028326,-0.0013096,0.0081049,0.01034,0.011707,0.026228,5.4028e-07,0.62,0.74,0
0.031601,-0.0043568,0.028287,-0.0012494,0.0081112,-0.0001506,0,0,0.052457,-0.024338,0,-0.00078311,0,0,0,0.028288,-0.0012502,0.0081112,-0.29213,0.011716,0.026146,5.3708e-07,0.64,0.74,0
0.032649,-0.0044142,0.028242,-0.0011436,0.0081294,-0.00029246,0,0,0.052292,-0.02411,0,-0.0015208,0,0,0,0.028245,-0.0011465,0.0081294,-0.57016,0.011742,0.026024,5.3284e-07,0.66,0.74,0
0.033693,-0.0044837,0.028193,-0.0010002,0.0081578,-0.00041357,0,0,0.052092,-0.023811,0,-0.0021506,0,0,0,0.028199,-0.0010061,0.0081578,-0.81147,0.011784,0.02587,5.2779e-07,0.68,0.74,0
0.034732,-0.0045631,0.028144,-0.00082942,0.0081943,-0.00050907,0,0,0.051869,-0.023462,0,-0.0026472,0,0,0,0.028153,-0.00083836,0.0081943,-1.0063,0.011836,0.025694,5.2222e-07,0.7,0.74,0
0.035768,-0.0046499,0.028097,-0.00064225,0.0082365,-0.00057635,0,0,0.051638,-0.023085,0,-0.002997,0,0,0,0.028109,-0.0006538,0.0082365,-1.1484,0.011897,0.025507,5.1645e-07,0.72,0.74,0
0.036798,-0.0047415,0.028057,-0.0004497,0.0082822,-0.00061516,0,0,0.051414,-0.022703,0,-0.0031988,0,0,0,0.02807,-0.00046297,0.0082822,-1.2357,0.011963,0.02532,5.1082e-07,0.74,0.74,0
0.037824,-0.0048351,0.028025,-0.00026151,0.008329,-0.00062737,0,0,0.051209,-0.022335,0,-0.0032623,0,0,0,0.028039,-0.00027542,0.008329,-1.2699,0.012031,0.025142,5.0563e-07,0.76,0.74,0
0.038846,-0.0049282,0.028003,-8.5412e-05,0.0083753,-0.0006164,0,0,0.051032,-0.021998,0,-0.0032053,0,0,0,0.028017,-9.8932e-05,0.0083753,-1.2566,0.012098,0.024981,5.0111e-07,0.78,0.74,0
0.039865,-0.0050186,0.027992,7.3228e-05,0.0084196,-0.00058659,0,0,0.050888,-0.021701,0,-0.0030503,0,0,0,0.028004,6.0908e-05,0.0084196,-1.2031,0.012162,0.024842,4.974e-07,0.8,0.74,0
0.040882,-0.0051043,0.027991,0.00021133,0.0084608,-0.00054253,0,0,0.050779,-0.021448,0,-0.0028212,0,0,0,0.028002,0.00020074,0.0084608,-1.1184,0.012221,0.024728,4.9458e-07,0.82,0.74,0
0.041897,-0.0051839,0.027999,0.00032782,0.0084981,-0.00048859,0,0,0.050703,-0.021243,0,-0.0025407,0,0,0,0.028008,0.00031919,0.0084981,-1.0112,0.012275,0.024639,4.926e-07,0.84,0.74,0
0.04291,-0.0052559,0.028014,0.00042314,0.0085313,-0.00042857,0,0,0.050656,-0.021081,0,-0.0022286,0,0,0,0.028021,0.00041649,0.0085313,-0.88969,0.012323,0.024573,4.9138e-07,0.86,0.74,0
0.043923,-0.0053196,0.028034,0.00049887,0.0085598,-0.00036554,0,0,0.050633,-0.020959,0,-0.0019008,0,0,0,0.028039,0.00049401,0.0085598,-0.76044,0.012364,0.024528,4.9079e-07,0.88,0.74,0
0.044935,-0.0053742,0.028056,0.00055718,0.0085838,-0.00030172,0,0,0.050627,-0.020869,0,-0.001569,0,0,0,0.028059,0.00055387,0.0085838,-0.62857,0.012399,0.024498,4.9067e-07,0.9,0.74,0
0.045948,-0.0054194,0.028077,0.00060054,0.0086033,-0.00023859,0,0,0.050632,-0.020807,0,-0.0012407,0,0,0,0.028079,0.00059847,0.0086033,-0.49748,0.012427,0.02448,4.9085e-07,0.92,0.74,0
0.046961,-0.0054547,0.028096,0.00063135,0.0086183,-0.0001769,0,0,0.050643,-0.020766,0,-0.00091987,0,0,0,0.028097,0.00063021,0.0086183,-0.36902,0.012449,0.024471,4.9117e-07,0.94,0.74,0
0.047974,-0.00548,0.028111,0.00065171,0.0086289,-0.00011681,0,0,0.050654,-0.020741,0,-0.0006074,0,0,0,0.028112,0.00065122,0.0086289,-0.24372,0.012464,0.024467,4.9151e-07,0.96,0.74,0
0.048987,-0.0054953,0.028121,0.00066325,0.0086352,-5.8036e-05,0,0,0.050662,-0.020727,0,-0.00030178,0,0,0,0.028121,0.00066313,0.0086352,-0.1211,0.012473,0.024466,4.9175e-07,0.98,0.74,0
0.05,-0.0055003,0.028124,0.00066698,0.0086373,-4.8877e-05,0,0,0.050665,-0.020723,0,-0.00025416,0,0,0,0.028124,0.00066689,0.0086373,-0.10199,0.012476,0.024466,4.9184e-07,1,0.74,0
0,0,0.027185,0.011651,0.011651,-0.0042895,0,0,0.04039,-4.3368e-19,0,-0.022306,0,0,0,0.028291,0.010545,0.011651,-14.455,0.016829,0.01722,2.586e-07,0,0.76,0
0.00080779,-0.00044611,0.02711,0.010722,0.01135,-0.0042653,0,0,0.040977,-0.0016323,0,-0.02218,0,0,0,0.028154,0.009678,0.01135,-13.749,0.016394,0.017699,2.7621e-07,0.02,0.76,0
0.0016391,-0.00088677,0.027414,0.0099124,0.011198,-0.0041833,0,0,0.042162,-0.0033425,0,-0.021753,0,0,0,0.028363,0.0089639,0.011198,-12.775,0.016175,0.018384,3.0328e-07,0.04,0.76,0
0.0024943,-0.0013181,0.02771,0.009082,0.011038,-0.0040492,0,0,0.043348,-0.0050846,0,-0.021056,0,0,0,0.028552,0.0082398,0.011038,-11.748,0.015943,0.019068,3.3037e-07,0.06,0.76,0
0.003373,-0.0017361,0.027986,0.0082527,0.010871,-0.0038623,0,0,0.044497,-0.0068089,0,-0.020084,0,0,0,0.028715,0.0075237,0.010871,-10.689,0.015703,0.019731,3.5655e-07,0.08,0.76,0
0.0042742,-0.0021365,0.028232,0.007446,0.010703,-0.0036264,0,0,0.045575,-0.0084694,0,-0.018857,0,0,0,0.028847,0.0068315,0.010703,-9.6175,0.015461,0.020357,3.8099e-07,0.1,0.76,0
0.005196,-0.0025154,0.028442,0.0066792,0.010536,-0.0033493,0,0,0.046554,-0.010028,0,-0.017416,0,0,0,0.028945,0.0061754,0.010536,-8.5542,0.015219,0.020933,4.0305e-07,0.12,0.76,0
0.0061363,-0.0028696,0.02861,0.0059646,0.010372,-0.0030408,0,0,0.047417,-0.01146,0,-0.015812,0,0,0,0.029011,0.0055634,0.010372,-7.5163,0.014982,0.021451,4.2234e-07,0.14,0.76,0
0.0070927,-0.0031965,0.028735,0.0053094,0.010213,-0.0027114,0,0,0.048157,-0.01275,0,-0.014099,0,0,0,0.029045,0.0049996,0.010213,-6.5169,0.014753,0.021909,4.3872e-07,0.16,0.76,0
0.0080626,-0.0034943,0.02882,0.0047156,0.010061,-0.0023711,0,0,0.048773,-0.013897,0,-0.01233,0,0,0,0.029051,0.0044846,0.010061,-5.5652,0.014532,0.022307,4.5225e-07,0.18,0.76,0
0.0090436,-0.0037618,0.028866,0.0041817,0.0099145,-0.0020286,0,0,0.049275,-0.014905,0,-0.010549,0,0,0,0.029032,0.0040161,0.0099145,-4.6668,0.014321,0.02265,4.6316e-07,0.2,0.76,0
0.010034,-0.0039986,0.028881,0.0037033,0.0097752,-0.0016905,0,0,0.049675,-0.015787,0,-0.0087907,0,0,0,0.028994,0.0035903,0.0097752,-3.8242,0.01412,0.022945,4.7178e-07,0.22,0.76,0
0.011031,-0.0042047,0.028868,0.0032742,0.0096428,-0.0013623,0,0,0.049986,-0.016558,0,-0.007084,0,0,0,0.028941,0.0032019,0.0096428,-3.0383,0.013928,0.023199,4.785e-07,0.24,0.76,0
0.012033,-0.0043807,0.028835,0.0028872,0.0095167,-0.0010478,0,0,0.050228,-0.017237,0,-0.0054488,0,0,0,0.028877,0.002845,0.0095167,-2.3087,0.013746,0.02342,4.8374e-07,0.26,0.76,0
0.01304,-0.0045275,0.028787,0.0025346,0.0093964,-0.00075,0,0,0.050415,-0.017841,0,-0.0039,0,0,0,0.028808,0.0025132,0.0093964,-1.6351,0.013573,0.023618,4.879e-07,0.28,0.76,0
0.01405,-0.0046465,0.028729,0.0022088,0.0092814,-0.00047109,0,0,0.050564,-0.018389,0,-0.0024497,0,0,0,0.028738,0.0022005,0.0092814,-1.0173,0.013407,0.0238,4.9138e-07,0.3,0.76,0
0.015062,-0.0047393,0.028667,0.0019027,0.0091711,-0.00021316,0,0,0.050691,-0.018898,0,-0.0011084,0,0,0,0.028669,0.001901,0.0091711,-0.45627,0.013247,0.023975,4.9452e-07,0.32,0.76,0
0.016077,-0.0048077,0.028606,0.0016098,0.0090648,2.1731e-05,0,0,0.050807,-0.019383,0,0.000113,0,0,0,0.028606,0.0016098,0.0090648,0.046121,0.013094,0.024148,4.9763e-07,0.34,0.76,0
0.017095,-0.0048539,0.028549,0.0013249,0.0089622,0.00023127,0,0,0.050926,-0.019857,0,0.0012026,0,0,0,0.028551,0.001323,0.0089622,0.48668,0.012945,0.024325,5.0092e-07,0.36,0.76,0
0.018114,-0.0048804,0.028499,0.0010441,0.008863,0.00041287,0,0,0.051054,-0.020329,0,0.0021469,0,0,0,0.028505,0.0010379,0.008863,0.86136,0.012802,0.02451,5.0456e-07,0.38,0.76,0
0.019137,-0.00489,0.028459,0.00076523,0.0087671,0.00056371,0,0,0.051198,-0.020805,0,0.0029313,0,0,0,0.02847,0.00075376,0.0087671,1.1656,0.012664,0.024704,5.086e-07,0.4,0.76,0
0.020162,-0.0048857,0.028428,0.00048812,0.0086749,0.00068094,0,0,0.051359,-0.021286,0,0.0035409,0,0,0,0.028445,0.00047153,0.0086749,1.3953,0.01253,0.024906,5.1303e-07,0.42,0.76,0
0.021191,-0.0048709,0.028408,0.00021474,0.0085868,0.00076202,0,0,0.051535,-0.021767,0,0.0039625,0,0,0,0.028429,0.00019416,0.0085868,1.5471,0.012403,0.025113,5.1773e-07,0.44,0.76,0
0.022224,-0.0048489,0.028397,-5.0865e-05,0.0085038,0.00080514,0,0,0.051722,-0.022242,0,0.0041867,0,0,0,0.02842,-7.3634e-05,0.0085038,1.6199,0.012283,0.025319,5.2252e-07,0.46,0.76,0
0.02326,-0.0048233,0.028392,-0.00030293,0.0084268,0.00080968,0,0,0.05191,-0.022697,0,0.0042104,0,0,0,0.028415,-0.00032575,0.0084268,1.615,0.012172,0.025516,5.2715e-07,0.48,0.76,0
0.0243,-0.0047977,0.028392,-0.00053449,0.0083571,0.00077658,0,0,0.05209,-0.023118,0,0.0040382,0,0,0,0.028412,-0.00055533,0.0083571,1.5368,0.012071,0.025698,5.3138e-07,0.5,0.76,0
0.025344,-0.0047753,0.028392,-0.00073824,0.0082961,0.00070852,0,0,0.052249,-0.023489,0,0.0036843,0,0,0,0.028409,-0.00075547,0.0082961,1.3925,0.011983,0.025856,5.3493e-07,0.52,0.76,0
0.02639,-0.0047593,0.02839,-0.00090733,0.0082448,0.00060988,0,0,0.052377,-0.023795,0,0.0031714,0,0,0,0.028403,-0.00092002,0.0082448,1.192,0.011909,0.025982,5.3761e-07,0.54,0.76,0
0.027439,-0.004752,0.028383,-0.0010361,0.0082041,0.00048652,0,0,0.052465,-0.024025,0,0.0025299,0,0,0,0.028391,-0.0010441,0.0082041,0.94719,0.01185,0.026072,5.3922e-07,0.56,0.76,0
0.028489,-0.0047556,0.028369,-0.0011207,0.0081747,0.00034538,0,0,0.052507,-0.024168,0,0.001796,0,0,0,0.028374,-0.0011247,0.0081747,0.67092,0.011808,0.026121,5.3969e-07,0.58,0.76,0
0.029539,-0.0047713,0.028348,-0.0011592,0.0081566,0.00019405,0,0,0.052498,-0.024221,0,0.0010091,0,0,0,0.028349,-0.0011605,0.0081566,0.37678,0.011782,0.026128,5.3896e-07,0.6,0.76,0
0.030589,-0.0047997,0.028318,-0.0011519,0.0081498,4.033e-05,0,0,0.052437,-0.024185,0,0.00020972,0,0,0,0.028318,-0.001152,0.0081498,0.07841,0.011772,0.026094,5.3705e-07,0.62,0.76,0
0.031636,-0.0048409,0.02828,-0.0011014,0.0081536,-0.00010817,0,0,0.052329,-0.024063,0,-0.00056248,0,0,0,0.028281,-0.0011018,0.0081536,-0.21093,0.011777,0.02602,5.3406e-07,0.64,0.76,0
0.032682,-0.0048941,0.028236,-0.0010125,0.0081671,-0.00024449,0,0,0.052179,-0.023867,0,-0.0012713,0,0,0,0.028238,-0.0010145,0.0081671,-0.47889,0.011797,0.025912,5.3012e-07,0.66,0.76,0
0.033724,-0.004958,0.028188,-0.0008916,0.0081888,-0.00036278,0,0,0.051997,-0.023609,0,-0.0018864,0,0,0,0.028192,-0.00089612,0.0081888,-0.71464,0.011828,0.025776,5.2543e-07,0.68,0.76,0
0.034762,-0.0050309,0.028137,-0.00074697,0.0082171,-0.00045871,0,0,0.051793,-0.023307,0,-0.0023853,0,0,0,0.028145,-0.00075426,0.0082171,-0.9096,0.011869,0.02562,5.2025e-07,0.7,0.76,0
0.035795,-0.0051107,0.028089,-0.00058745,0.0082504,-0.00052978,0,0,0.05158,-0.022978,0,-0.0027549,0,0,0,0.028098,-0.00059724,0.0082504,-1.058,0.011917,0.025453,5.1484e-07,0.72,0.76,0
0.036825,-0.0051951,0.028044,-0.00042184,0.0082867,-0.00057535,0,0,0.051369,-0.022642,0,-0.0029918,0,0,0,0.028056,-0.00043347,0.0082867,-1.1574,0.01197,0.025283,5.0949e-07,0.74,0.76,0
0.03785,-0.0052817,0.028006,-0.00025811,0.0083243,-0.00059651,0,0,0.051172,-0.022314,0,-0.0031019,0,0,0,0.028018,-0.0002707,0.0083243,-1.2085,0.012024,0.02512,5.0444e-07,0.76,0.76,0
0.038872,-0.0053684,0.027976,-0.00010281,0.0083619,-0.00059566,0,0,0.050996,-0.022008,0,-0.0030974,0,0,0,0.027988,-0.00011544,0.0083619,-1.2147,0.012078,0.024969,4.9991e-07,0.78,0.76,0
0.03989,-0.0054531,0.027955,3.9258e-05,0.0083981,-0.00057608,0,0,0.050847,-0.021733,0,-0.0029956,0,0,0,0.027966,2.7374e-05,0.0083981,-1.1817,0.012131,0.024835,4.9602e-07,0.8,0.76,0
0.040905,-0.0055339,0.027942,0.00016503,0.0084322,-0.00054144,0,0,0.050726,-0.021494,0,-0.0028155,0,0,0,0.027953,0.00015448,0.0084322,-1.1163,0.01218,0.024722,4.9286e-07,0.82,0.76,0
0.041919,-0.0056093,0.027938,0.00027308,0.0084633,-0.00049539,0,0,0.050634,-0.021295,0,-0.002576,0,0,0,0.027947,0.00026421,0.0084633,-1.0256,0.012225,0.024629,4.9043e-07,0.84,0.76,0
0.042931,-0.0056781,0.02794,0.00036325,0.008491,-0.00044126,0,0,0.050568,-0.021132,0,-0.0022946,0,0,0,0.027947,0.00035619,0.008491,-0.91648,0.012265,0.024556,4.8867e-07,0.86,0.76,0
0.043942,-0.0057392,0.027948,0.0004364,0.0085152,-0.00038187,0,0,0.050524,-0.021005,0,-0.0019857,0,0,0,0.027953,0.0004311,0.0085152,-0.7951,0.0123,0.024501,4.875e-07,0.88,0.76,0
0.044952,-0.005792,0.027958,0.00049397,0.0085356,-0.00031945,0,0,0.050498,-0.020908,0,-0.0016611,0,0,0,0.027962,0.00049026,0.0085356,-0.66632,0.012329,0.024462,4.868e-07,0.9,0.76,0
0.045962,-0.0058357,0.02797,0.00053775,0.0085522,-0.0002556,0,0,0.050485,-0.020837,0,-0.0013291,0,0,0,0.027972,0.00053537,0.0085522,-0.5338,0.012353,0.024435,4.8644e-07,0.92,0.76,0
0.046971,-0.0058701,0.02798,0.00056953,0.008565,-0.00019136,0,0,0.05048,-0.020788,0,-0.00099508,0,0,0,0.027982,0.00056819,0.008565,-0.39997,0.012372,0.024418,4.8632e-07,0.94,0.76,0
0.047981,-0.0058949,0.027989,0.00059094,0.0085741,-0.00012728,0,0,0.05048,-0.020756,0,-0.00066187,0,0,0,0.02799,0.00059035,0.0085741,-0.26616,0.012385,0.024407,4.8631e-07,0.96,0.76,0
0.04899,-0.0059098,0.027995,0.00060324,0.0085795,-6.3527e-05,0,0,0.050481,-0.020738,0,-0.00033034,0,0,0,0.027995,0.00060309,0.0085795,-0.13288,0.012393,0.024402,4.8634e-07,0.98,0.76,0
0.05,-0.0059148,0.027997,0.00060725,0.0085813,-4.7888e-05,0,0,0.050481,-0.020733,0,-0.00024902,0,0,0,0.027997,0.00060717,0.0085813,-0.10018,0.012395,0.024401,4.8636e-07,1,0.76,0
0,0,0.027196,0.011655,0.011655,-0.0046123,0,0,0.040406,-2.1684e-19,0,-0.023984,0,0,0,0.028462,0.01039,0.011655,-15.346,0.016836,0.017474,2.6918e-07,0,0.78,0
0.00080812,-0.00047968,0.027117,0.010668,0.011335,-0.0045849,0,0,0.041031,-0.0017355,0,-0.023841,0,0,0,0.028308,0.0094762,0.011335,-14.569,0.016373,0.017975,2.8754e-07,0.02,0.78,0
0.0016413,-0.0009556,0.027439,0.0097999,0.011171,-0.0044998,0,0,0.042294,-0.0035663,0,-0.023399,0,0,0,0.02852,0.0087183,0.011171,-13.516,0.016137,0.018696,3.1626e-07,0.04,0.78,0
0.0024999,-0.0014229,0.027749,0.0089072,0.010997,-0.0043491,0,0,0.043556,-0.0054335,0,-0.022616,0,0,0,0.028705,0.0079518,0.010997,-12.39,0.015884,0.019411,3.4465e-07,0.06,0.78,0
0.0033835,-0.0018764,0.028036,0.0080189,0.010816,-0.0041329,0,0,0.044771,-0.0072737,0,-0.021491,0,0,0,0.028856,0.0071991,0.010816,-11.219,0.015624,0.020094,3.7157e-07,0.08,0.78,0
0.0042907,-0.0023109,0.028286,0.0071617,0.010634,-0.0038578,0,0,0.045895,-0.0090292,0,-0.02006,0,0,0,0.028969,0.0064792,0.010634,-10.032,0.015361,0.020727,3.9608e-07,0.1,0.78,0
0.0052193,-0.0027217,0.028493,0.0063564,0.010455,-0.0035354,0,0,0.046899,-0.010656,0,-0.018384,0,0,0,0.029044,0.0058055,0.010455,-8.8573,0.015101,0.021298,4.1756e-07,0.12,0.78,0
0.0061667,-0.0031049,0.028651,0.0056165,0.01028,-0.0031798,0,0,0.047765,-0.012126,0,-0.016535,0,0,0,0.029082,0.0051856,0.01028,-7.7171,0.014849,0.021801,4.3574e-07,0.14,0.78,0
0.0071299,-0.0034579,0.028762,0.0049482,0.010113,-0.002805,0,0,0.048488,-0.013429,0,-0.014586,0,0,0,0.029088,0.0046223,0.010113,-6.6278,0.014608,0.022235,4.5063e-07,0.16,0.78,0
0.0081062,-0.0037785,0.028829,0.0043518,0.0099542,-0.0024234,0,0,0.049074,-0.014566,0,-0.012602,0,0,0,0.029066,0.0041142,0.0099542,-5.6003,0.014378,0.022605,4.6246e-07,0.18,0.78,0
0.0090929,-0.004066,0.028857,0.0038235,0.0098041,-0.0020454,0,0,0.049537,-0.01555,0,-0.010636,0,0,0,0.029023,0.0036575,0.0098041,-4.6403,0.014162,0.022919,4.7163e-07,0.2,0.78,0
0.010088,-0.0043202,0.028853,0.0033567,0.0096629,-0.0016783,0,0,0.049894,-0.016396,0,-0.0087274,0,0,0,0.028963,0.0032467,0.0096629,-3.75,0.013958,0.023184,4.7858e-07,0.22,0.78,0
0.011089,-0.0045414,0.028824,0.0029434,0.0095303,-0.0013278,0,0,0.050165,-0.017126,0,-0.0069047,0,0,0,0.028892,0.0028755,0.0095303,-2.9293,0.013766,0.02341,4.838e-07,0.24,0.78,0
0.012094,-0.0047306,0.028778,0.0025751,0.0094059,-0.00099746,0,0,0.050367,-0.01776,0,-0.0051868,0,0,0,0.028816,0.0025372,0.0094059,-2.1769,0.013586,0.023606,4.8775e-07,0.26,0.78,0
0.013103,-0.0048891,0.02872,0.0022433,0.009289,-0.00068967,0,0,0.050521,-0.018319,0,-0.0035863,0,0,0,0.028738,0.0022253,0.009289,-1.4911,0.013417,0.023781,4.9083e-07,0.28,0.78,0
0.014115,-0.0050187,0.028656,0.0019399,0.0091789,-0.00040615,0,0,0.050641,-0.018821,0,-0.002112,0,0,0,0.028663,0.0019337,0.0091789,-0.87075,0.013258,0.023943,4.9344e-07,0.3,0.78,0
0.015129,-0.0051212,0.028592,0.0016577,0.0090748,-0.00014829,0,0,0.050744,-0.019285,0,-0.00077111,0,0,0,0.028592,0.0016569,0.0090748,-0.31544,0.013108,0.024099,4.9586e-07,0.32,0.78,0
0.016145,-0.0051988,0.02853,0.0013905,0.0089762,8.2567e-05,0,0,0.05084,-0.019723,0,0.00042935,0,0,0,0.02853,0.0013902,0.0089762,0.17431,0.012966,0.024254,4.9837e-07,0.34,0.78,0
0.017163,-0.0052541,0.028475,0.0011332,0.0088825,0.00028493,0,0,0.050941,-0.020148,0,0.0014816,0,0,0,0.028478,0.0011302,0.0088825,0.597,0.01283,0.024413,5.0113e-07,0.36,0.78,0
0.018183,-0.0052896,0.028428,0.00088232,0.0087932,0.00045712,0,0,0.051052,-0.020568,0,0.002377,0,0,0,0.028436,0.00087474,0.0087932,0.95045,0.012701,0.024578,5.0425e-07,0.38,0.78,0
0.019205,-0.0053081,0.028392,0.00063581,0.0087083,0.0005973,0,0,0.051178,-0.020989,0,0.003106,0,0,0,0.028405,0.00062296,0.0087083,1.2322,0.012579,0.02475,5.0777e-07,0.4,0.78,0
0.02023,-0.0053129,0.028366,0.00039341,0.0086278,0.00070369,0,0,0.051319,-0.021409,0,0.0036592,0,0,0,0.028384,0.00037571,0.0086278,1.4402,0.012462,0.024928,5.1163e-07,0.42,0.78,0
0.021257,-0.005307,0.02835,0.00015662,0.0085519,0.00077483,0,0,0.051474,-0.021828,0,0.0040291,0,0,0,0.028371,0.00013534,0.0085519,1.5731,0.012353,0.025109,5.1574e-07,0.44,0.78,0
0.022288,-0.0052939,0.028342,-7.1421e-05,0.0084811,0.0008099,0,0,0.051638,-0.022237,0,0.0042115,0,0,0,0.028365,-9.4487e-05,0.0084811,1.6314,0.01225,0.025287,5.1992e-07,0.46,0.78,0
0.023323,-0.0052767,0.02834,-0.00028622,0.0084162,0.00080904,0,0,0.051803,-0.022626,0,0.004207,0,0,0,0.028363,-0.00030907,0.0084162,1.6176,0.012157,0.025457,5.2396e-07,0.48,0.78,0
0.024361,-0.0052588,0.028342,-0.00048242,0.0083579,0.00077364,0,0,0.051959,-0.022985,0,0.0040229,0,0,0,0.028363,-0.00050317,0.0083579,1.5363,0.012073,0.025612,5.2764e-07,0.5,0.78,0
0.025401,-0.0052433,0.028345,-0.00065433,0.0083071,0.00070646,0,0,0.052098,-0.0233,0,0.0036736,0,0,0,0.028362,-0.00067153,0.0083071,1.3947,0.011999,0.025746,5.3074e-07,0.52,0.78,0
0.026445,-0.0052329,0.028345,-0.00079663,0.0082645,0.00061161,0,0,0.052209,-0.023559,0,0.0031804,0,0,0,0.028358,-0.00080946,0.0082645,1.2018,0.011938,0.025854,5.3307e-07,0.54,0.78,0
0.02749,-0.0052298,0.028341,-0.00090485,0.0082308,0.00049439,0,0,0.052286,-0.023753,0,0.0025708,0,0,0,0.028349,-0.00091321,0.0082308,0.96821,0.011889,0.025929,5.3448e-07,0.56,0.78,0
0.028536,-0.005236,0.02833,-0.00097591,0.0082062,0.00036102,0,0,0.052321,-0.023873,0,0.0018773,0,0,0,0.028334,-0.00098035,0.0082062,0.70569,0.011853,0.02597,5.3487e-07,0.58,0.78,0
0.029583,-0.0052527,0.028311,-0.0010083,0.0081908,0.00021827,0,0,0.052312,-0.023918,0,0.001135,0,0,0,0.028313,-0.0010099,0.0081908,0.4265,0.011831,0.025975,5.342e-07,0.6,0.78,0
0.030628,-0.0052804,0.028284,-0.0010024,0.0081845,7.3075e-05,0,0,0.052259,-0.023886,0,0.00037999,0,0,0,0.028284,-0.0010026,0.0081845,0.14296,0.011822,0.025943,5.3248e-07,0.62,0.78,0
0.031673,-0.0053193,0.028249,-0.00096033,0.0081867,-6.7803e-05,0,0,0.052163,-0.023782,0,-0.00035257,0,0,0,0.02825,-0.00096049,0.0081867,-0.133,0.011825,0.025879,5.2978e-07,0.64,0.78,0
0.032715,-0.0053689,0.028208,-0.00088596,0.0081966,-0.00019822,0,0,0.05203,-0.023615,0,-0.0010307,0,0,0,0.028209,-0.00088731,0.0081966,-0.39033,0.01184,0.025784,5.2623e-07,0.66,0.78,0
0.033754,-0.0054281,0.028162,-0.00078468,0.0082132,-0.00031299,0,0,0.051867,-0.023394,0,-0.0016275,0,0,0,0.028165,-0.00078807,0.0082132,-0.61942,0.011864,0.025665,5.22e-07,0.68,0.78,0
0.03479,-0.0054954,0.028113,-0.000663,0.0082351,-0.00040821,0,0,0.051684,-0.023135,0,-0.0021227,0,0,0,0.028119,-0.00066879,0.0082351,-0.81256,0.011895,0.025528,5.1729e-07,0.7,0.78,0
0.035821,-0.0055691,0.028065,-0.00052801,0.0082611,-0.00048145,0,0,0.05149,-0.022852,0,-0.0025036,0,0,0,0.028073,-0.00053611,0.0082611,-0.9644,0.011933,0.025381,5.1233e-07,0.72,0.78,0
0.036849,-0.0056472,0.028019,-0.00038678,0.0082897,-0.00053182,0,0,0.051296,-0.022559,0,-0.0027655,0,0,0,0.028029,-0.00039673,0.0082897,-1.0722,0.011974,0.02523,5.0736e-07,0.74,0.78,0
0.037873,-0.0057277,0.027978,-0.00024581,0.0083195,-0.0005598,0,0,0.051111,-0.02227,0,-0.002911,0,0,0,0.027989,-0.00025691,0.0083195,-1.1358,0.012017,0.025082,5.0259e-07,0.76,0.78,0
0.038894,-0.0058085,0.027942,-0.0001106,0.0083496,-0.00056705,0,0,0.050942,-0.021996,0,-0.0029486,0,0,0,0.027954,-0.00012206,0.0083496,-1.1575,0.012061,0.024944,4.9819e-07,0.78,0.78,0
0.039911,-0.0058879,0.027914,1.4649e-05,0.0083787,-0.00055601,0,0,0.050793,-0.021747,0,-0.0028912,0,0,0,0.027925,3.5727e-06,0.0083787,-1.1412,0.012103,0.024818,4.943e-07,0.8,0.78,0
0.040925,-0.0059641,0.027894,0.00012707,0.0084063,-0.00052958,0,0,0.050668,-0.021526,0,-0.0027538,0,0,0,0.027904,0.00011698,0.0084063,-1.0922,0.012142,0.024708,4.91e-07,0.82,0.78,0
0.041938,-0.0060357,0.02788,0.00022508,0.0084316,-0.00049078,0,0,0.050567,-0.021337,0,-0.0025521,0,0,0,0.027889,0.00021638,0.0084316,-1.0164,0.012179,0.024616,4.883e-07,0.84,0.78,0
0.042948,-0.0061012,0.027873,0.00030818,0.0084543,-0.00044249,0,0,0.050488,-0.02118,0,-0.002301,0,0,0,0.02788,0.00030108,0.0084543,-0.91945,0.012212,0.02454,4.862e-07,0.86,0.78,0
0.043957,-0.0061598,0.027871,0.00037669,0.0084742,-0.00038728,0,0,0.050431,-0.021053,0,-0.0020139,0,0,0,0.027876,0.00037123,0.0084742,-0.80686,0.01224,0.024481,4.8463e-07,0.88,0.78,0
0.044965,-0.0062106,0.027872,0.00043152,0.008491,-0.00032728,0,0,0.05039,-0.020955,0,-0.0017019,0,0,0,0.027876,0.00042762,0.008491,-0.68324,0.012265,0.024435,4.8352e-07,0.9,0.78,0
0.045973,-0.0062529,0.027875,0.0004739,0.0085048,-0.00026418,0,0,0.050363,-0.02088,0,-0.0013737,0,0,0,0.027878,0.00047135,0.0085048,-0.55233,0.012285,0.024403,4.8278e-07,0.92,0.78,0
0.04698,-0.0062862,0.02788,0.00050514,0.0085154,-0.00019921,0,0,0.050347,-0.020827,0,-0.0010359,0,0,0,0.027881,0.00050369,0.0085154,-0.41692,0.0123,0.02438,4.8231e-07,0.94,0.78,0
0.047987,-0.0063103,0.027884,0.00052646,0.008523,-0.00013321,0,0,0.050337,-0.020791,0,-0.00069268,0,0,0,0.027884,0.00052581,0.008523,-0.27897,0.012311,0.024365,4.8204e-07,0.96,0.78,0
0.048993,-0.0063248,0.027886,0.00053884,0.0085275,-6.6702e-05,0,0,0.050333,-0.020771,0,-0.00034685,0,0,0,0.027887,0.00053867,0.0085275,-0.13975,0.012318,0.024357,4.8191e-07,0.98,0.78,0
0.05,-0.0063296,0.027887,0.00054289,0.008529,-4.6676e-05,0,0,0.050331,-0.020764,0,-0.00024271,0,0,0,0.027887,0.00054281,0.008529,-0.097801,0.01232,0.024354,4.8187e-07,1,0.78,0
0,0,0.027251,0.011679,0.011679,-0.0049571,0,0,0.040487,-1.0842e-19,0,-0.025777,0,0,0,0.028695,0.010235,0.011679,-16.242,0.01687,0.017782,2.8237e-07,0,0.8,0
0.00080974,-0.00051553,0.027166,0.010618,0.011335,-0.0049257,0,0,0.04116,-0.001864,0,-0.025614,0,0,0,0.028521,0.0092631,0.011335,-15.383,0.016373,0.01831,3.0171e-07,0.02,0.8,0
0.0016464,-0.0010294,0.027509,0.0096755,0.011155,-0.0048363,0,0,0.042519,-0.0038473,0,-0.025149,0,0,0,0.028736,0.0084484,0.011155,-14.238,0.016113,0.019079,3.3259e-07,0.04,0.8,0
0.0025105,-0.0015355,0.027837,0.0087042,0.010962,-0.004664,0,0,0.043873,-0.0058709,0,-0.024253,0,0,0,0.028913,0.0076278,0.010962,-12.996,0.015834,0.019829,3.6258e-07,0.06,0.8,0
0.0034013,-0.0020271,0.028133,0.0077436,0.010763,-0.0044104,0,0,0.045162,-0.0078506,0,-0.022934,0,0,0,0.029046,0.0068304,0.010763,-11.697,0.015546,0.020534,3.9026e-07,0.08,0.8,0
0.004317,-0.0024977,0.028384,0.0068277,0.010564,-0.0040867,0,0,0.046333,-0.0097131,0,-0.021251,0,0,0,0.029133,0.006079,0.010564,-10.382,0.015258,0.021171,4.1459e-07,0.1,0.8,0
0.0052547,-0.0029417,0.028581,0.0059814,0.010369,-0.0037102,0,0,0.047353,-0.011407,0,-0.019293,0,0,0,0.029175,0.0053878,0.010369,-9.0885,0.014977,0.021729,4.3502e-07,0.12,0.8,0
0.0062111,-0.0033547,0.028722,0.005218,0.010182,-0.0033005,0,0,0.048204,-0.012907,0,-0.017163,0,0,0,0.029177,0.0047633,0.010182,-7.8436,0.014707,0.022206,4.5147e-07,0.14,0.8,0
0.0071828,-0.0037337,0.028809,0.0045417,0.010005,-0.0028759,0,0,0.04889,-0.014205,0,-0.014955,0,0,0,0.029145,0.0042055,0.010005,-6.667,0.014452,0.022605,4.642e-07,0.16,0.8,0
0.0081667,-0.004077,0.028849,0.0039495,0.0098396,-0.0024515,0,0,0.049425,-0.015314,0,-0.012748,0,0,0,0.029088,0.0037105,0.0098396,-5.5698,0.014213,0.022936,4.737e-07,0.18,0.8,0
0.0091598,-0.0043838,0.02885,0.0034343,0.0096853,-0.0020386,0,0,0.049828,-0.016252,0,-0.010601,0,0,0,0.029012,0.0032719,0.0096853,-4.557,0.01399,0.023208,4.8056e-07,0.2,0.8,0
0.01016,-0.0046544,0.028821,0.0029866,0.0095422,-0.0016451,0,0,0.050124,-0.017045,0,-0.0085547,0,0,0,0.028925,0.0028822,0.0095422,-3.6291,0.013783,0.023434,4.8537e-07,0.22,0.8,0
0.011165,-0.0048897,0.028771,0.0025961,0.00941,-0.0012759,0,0,0.050337,-0.017716,0,-0.0066346,0,0,0,0.028833,0.002534,0.00941,-2.7841,0.013592,0.023623,4.887e-07,0.24,0.8,0
0.012173,-0.0050911,0.028706,0.0022528,0.0092878,-0.00093372,0,0,0.050489,-0.018291,0,-0.0048554,0,0,0,0.028739,0.0022199,0.0092878,-2.019,0.013416,0.023787,4.9103e-07,0.26,0.8,0
0.013184,-0.0052603,0.028636,0.0019472,0.0091748,-0.00062015,0,0,0.050598,-0.018792,0,-0.0032248,0,0,0,0.02865,0.0019328,0.0091748,-1.3304,0.013253,0.023932,4.9278e-07,0.28,0.8,0
0.014197,-0.0053994,0.028563,0.0016709,0.0090702,-0.00033594,0,0,0.050681,-0.019238,0,-0.0017469,0,0,0,0.028567,0.0016668,0.0090702,-0.71559,0.013101,0.024068,4.943e-07,0.3,0.8,0
0.015212,-0.0055106,0.028494,0.0014167,0.008973,-8.1535e-05,0,0,0.050753,-0.019647,0,-0.00042398,0,0,0,0.028494,0.0014164,0.008973,-0.17253,0.012961,0.024201,4.9584e-07,0.32,0.8,0
0.016227,-0.0055966,0.02843,0.0011783,0.0088826,0.0001426,0,0,0.050824,-0.020031,0,0.00074152,0,0,0,0.028431,0.0011775,0.0088826,0.2998,0.01283,0.024334,4.9761e-07,0.34,0.8,0
0.017245,-0.0056598,0.028376,0.00095098,0.0087981,0.00033586,0,0,0.050902,-0.020402,0,0.0017465,0,0,0,0.02838,0.00094686,0.0087981,0.70153,0.012708,0.024471,4.9974e-07,0.36,0.8,0
0.018263,-0.0057031,0.028332,0.00073141,0.008719,0.00049745,0,0,0.050994,-0.020768,0,0.0025868,0,0,0,0.028341,0.00072245,0.008719,1.0322,0.012594,0.024614,5.0228e-07,0.38,0.8,0
0.019284,-0.0057295,0.028299,0.00051769,0.008645,0.00062648,0,0,0.0511,-0.021131,0,0.0032577,0,0,0,0.028313,0.00050356,0.008645,1.2912,0.012487,0.024764,5.0524e-07,0.4,0.8,0
0.020307,-0.0057421,0.028277,0.0003094,0.0085759,0.00072207,0,0,0.051222,-0.021493,0,0.0037548,0,0,0,0.028296,0.00029077,0.0085759,1.478,0.012387,0.024918,5.0855e-07,0.42,0.8,0
0.021333,-0.005744,0.028265,0.00010764,0.0085117,0.00078366,0,0,0.051358,-0.02185,0,0.0040751,0,0,0,0.028286,8.5842e-05,0.0085117,1.593,0.012295,0.025073,5.1211e-07,0.44,0.8,0
0.022362,-0.0057384,0.028261,-8.5222e-05,0.0084526,0.00081119,0,0,0.051501,-0.022198,0,0.0042182,0,0,0,0.028284,-0.00010842,0.0084526,1.6379,0.012209,0.025226,5.1574e-07,0.46,0.8,0
0.023393,-0.0057284,0.028262,-0.00026572,0.008399,0.00080539,0,0,0.051645,-0.022528,0,0.004188,0,0,0,0.028285,-0.00028844,0.008399,1.6158,0.012132,0.025371,5.1927e-07,0.48,0.8,0
0.024428,-0.0057171,0.028267,-0.00042973,0.0083513,0.00076797,0,0,0.051782,-0.022831,0,0.0039935,0,0,0,0.028288,-0.00045026,0.0083513,1.5318,0.012063,0.025503,5.225e-07,0.5,0.8,0
0.025465,-0.0057073,0.028273,-0.00057286,0.00831,0.00070173,0,0,0.051904,-0.023096,0,0.003649,0,0,0,0.02829,-0.00058992,0.00831,1.3927,0.012003,0.025617,5.2523e-07,0.52,0.8,0
0.026504,-0.0057016,0.028276,-0.00069098,0.0082757,0.00061054,0,0,0.052002,-0.023313,0,0.0031748,0,0,0,0.028289,-0.00070385,0.0082757,1.2069,0.011954,0.025708,5.2731e-07,0.54,0.8,0
0.027545,-0.0057021,0.028275,-0.00078064,0.0082485,0.00049923,0,0,0.05207,-0.023476,0,0.002596,0,0,0,0.028284,-0.00078921,0.0082485,0.98404,0.011914,0.025772,5.2859e-07,0.56,0.8,0
0.028587,-0.0057105,0.028268,-0.0008394,0.0082287,0.00037334,0,0,0.052103,-0.023577,0,0.0019414,0,0,0,0.028273,-0.00084419,0.0082287,0.73473,0.011886,0.025806,5.2898e-07,0.58,0.8,0
0.029629,-0.005728,0.028254,-0.00086615,0.0082162,0.0002389,0,0,0.052097,-0.023614,0,0.0012423,0,0,0,0.028255,-0.00086811,0.0082162,0.47002,0.011868,0.02581,5.2844e-07,0.6,0.8,0
0.03067,-0.0057551,0.028231,-0.00086119,0.0082109,0.00010207,0,0,0.052052,-0.023587,0,0.00053075,0,0,0,0.028231,-0.00086154,0.0082109,0.20101,0.01186,0.025783,5.2697e-07,0.62,0.8,0
0.031711,-0.0057922,0.0282,-0.00082627,0.0082123,-3.1207e-05,0,0,0.051969,-0.0235,0,-0.00016228,0,0,0,0.0282,-0.0008263,0.0082123,-0.061599,0.011862,0.025727,5.2464e-07,0.64,0.8,0
0.032749,-0.0058387,0.028164,-0.00076455,0.0082197,-0.00015548,0,0,0.051854,-0.023359,0,-0.0008085,0,0,0,0.028164,-0.00076538,0.0082197,-0.30794,0.011873,0.025646,5.2153e-07,0.66,0.8,0
0.033785,-0.0058938,0.028121,-0.00068034,0.0082323,-0.00026614,0,0,0.051712,-0.023173,0,-0.0013839,0,0,0,0.028124,-0.0006828,0.0082323,-0.52938,0.011891,0.025544,5.178e-07,0.68,0.8,0
0.034818,-0.0059563,0.028076,-0.00057883,0.0082491,-0.00035964,0,0,0.05155,-0.022953,0,-0.0018701,0,0,0,0.02808,-0.00058334,0.0082491,-0.71896,0.011915,0.025425,5.136e-07,0.7,0.8,0
0.035847,-0.0060248,0.028029,-0.00046567,0.0082691,-0.00043364,0,0,0.051377,-0.022711,0,-0.0022549,0,0,0,0.028036,-0.00047226,0.0082691,-0.87166,0.011944,0.025297,5.0915e-07,0.72,0.8,0
0.036873,-0.0060974,0.027984,-0.00034652,0.0082913,-0.00048706,0,0,0.051201,-0.022458,0,-0.0025327,0,0,0,0.027992,-0.00035489,0.0082913,-0.98463,0.011976,0.025164,5.0462e-07,0.74,0.8,0
0.037895,-0.0061725,0.027942,-0.00022666,0.0083145,-0.00051997,0,0,0.051031,-0.022207,0,-0.0027039,0,0,0,0.027951,-0.00023625,0.0083145,-1.0572,0.01201,0.025032,5.0019e-07,0.76,0.8,0
0.038914,-0.0062483,0.027904,-0.00011064,0.0083379,-0.00053347,0,0,0.050871,-0.021966,0,-0.002774,0,0,0,0.027914,-0.00012079,0.0083379,-1.0905,0.012044,0.024907,4.9603e-07,0.78,0.8,0
0.03993,-0.0063229,0.027871,-2.0618e-06,0.0083608,-0.00052934,0,0,0.050728,-0.021743,0,-0.0027525,0,0,0,0.027881,-1.2111e-05,0.0083608,-1.0876,0.012077,0.024791,4.9226e-07,0.8,0.8,0
0.040943,-0.0063949,0.027845,9.6492e-05,0.0083824,-0.00050986,0,0,0.050603,-0.021544,0,-0.0026513,0,0,0,0.027854,8.7127e-05,0.0083824,-1.0523,0.012108,0.024688,4.8895e-07,0.82,0.8,0
0.041954,-0.0064628,0.027825,0.00018344,0.0084024,-0.00047753,0,0,0.050498,-0.021369,0,-0.0024831,0,0,0,0.027833,0.0001752,0.0084024,-0.98944,0.012137,0.024599,4.8614e-07,0.84,0.8,0
0.042963,-0.0065253,0.02781,0.00025809,0.0084204,-0.0004348,0,0,0.050413,-0.021222,0,-0.002261,0,0,0,0.027817,0.00025122,0.0084204,-0.90389,0.012163,0.024524,4.8384e-07,0.86,0.8,0
0.04397,-0.0065814,0.0278,0.00032042,0.0084361,-0.00038398,0,0,0.050346,-0.021101,0,-0.0019967,0,0,0,0.027805,0.00031506,0.0084361,-0.8004,0.012186,0.024463,4.8202e-07,0.88,0.8,0
0.044977,-0.0066301,0.027794,0.00037096,0.0084495,-0.0003271,0,0,0.050296,-0.021004,0,-0.0017009,0,0,0,0.027798,0.00036706,0.0084495,-0.68328,0.012205,0.024415,4.8063e-07,0.9,0.8,0
0.045982,-0.0066709,0.027791,0.0004105,0.0084604,-0.00026584,0,0,0.050259,-0.02093,0,-0.0013824,0,0,0,0.027794,0.00040792,0.0084604,-0.55622,0.012221,0.024378,4.7961e-07,0.92,0.8,0
0.046987,-0.0067032,0.02779,0.00043998,0.0084689,-0.00020157,0,0,0.050234,-0.020875,0,-0.0010481,0,0,0,0.027791,0.0004385,0.0084689,-0.42223,0.012233,0.024352,4.789e-07,0.94,0.8,0
0.047992,-0.0067265,0.02779,0.0004603,0.008475,-0.00013533,0,0,0.050218,-0.020838,0,-0.00070371,0,0,0,0.02779,0.00045963,0.008475,-0.28371,0.012242,0.024334,4.7844e-07,0.96,0.8,0
0.048996,-0.0067406,0.02779,0.00047217,0.0084786,-6.7932e-05,0,0,0.050209,-0.020817,0,-0.00035325,0,0,0,0.02779,0.000472,0.0084786,-0.14248,0.012247,0.024324,4.7818e-07,0.98,0.8,0
0.05,-0.0067453,0.02779,0.00047607,0.0084798,-4.5343e-05,0,0,0.050206,-0.02081,0,-0.00023579,0,0,0,0.02779,0.000476,0.0084798,-0.095116,0.012249,0.024321,4.781e-07,1,0.8,0
0,0,0.02736,0.011726,0.011726,-0.0053292,0,0,0.04065,9.7578e-19,0,-0.027712,0,0,0,0.029004,0.010082,0.011726,-17.142,0.016937,0.018156,2.9891e-07,0,0.82,0
0.000813,-0.00055424,0.027269,0.010574,0.011353,-0.0052924,0,0,0.041382,-0.0020251,0,-0.027521,0,0,0,0.028805,0.0090376,0.011353,-16.188,0.016398,0.018718,3.195e-07,0.02,0.82,0
0.0016553,-0.0011095,0.027636,0.0095345,0.011151,-0.0051964,0,0,0.04286,-0.0042032,0,-0.027021,0,0,0,0.029021,0.0081488,0.011151,-14.931,0.016107,0.019545,3.5318e-07,0.04,0.82,0
0.0025274,-0.0016578,0.027982,0.0084633,0.010934,-0.0049943,0,0,0.044326,-0.0064228,0,-0.025971,0,0,0,0.029186,0.0072596,0.010934,-13.55,0.015793,0.02034,3.8506e-07,0.06,0.82,0
0.0034283,-0.0021905,0.028286,0.0074145,0.01071,-0.0046911,0,0,0.045697,-0.0085685,0,-0.024394,0,0,0,0.029292,0.0064086,0.01071,-12.103,0.01547,0.021064,4.1336e-07,0.08,0.82,0
0.0043553,-0.0026994,0.028531,0.0064323,0.010489,-0.0043053,0,0,0.046908,-0.010547,0,-0.022388,0,0,0,0.02934,0.0056232,0.010489,-10.644,0.015151,0.021697,4.3695e-07,0.1,0.82,0
0.0053046,-0.003178,0.028708,0.0055447,0.010276,-0.0038632,0,0,0.047924,-0.012301,0,-0.020088,0,0,0,0.029335,0.0049174,0.010276,-9.2233,0.014843,0.022229,4.555e-07,0.12,0.82,0
0.0062722,-0.0036212,0.028819,0.0047633,0.010075,-0.0033914,0,0,0.048735,-0.013809,0,-0.017635,0,0,0,0.029288,0.0042944,0.010075,-7.8732,0.014552,0.022663,4.6927e-07,0.14,0.82,0
0.007254,-0.0040261,0.028869,0.0040878,0.0098871,-0.002913,0,0,0.049354,-0.015078,0,-0.015148,0,0,0,0.029207,0.00375,0.0098871,-6.6148,0.014281,0.023011,4.7893e-07,0.16,0.82,0
0.0082464,-0.0043911,0.028871,0.0035097,0.0097141,-0.0024454,0,0,0.049807,-0.016132,0,-0.012716,0,0,0,0.029104,0.0032761,0.0097141,-5.4577,0.014032,0.023287,4.853e-07,0.18,0.82,0
0.0092463,-0.0047161,0.028835,0.0030173,0.0095556,-0.0020003,0,0,0.050126,-0.017,0,-0.010402,0,0,0,0.028989,0.0028632,0.0095556,-4.4042,0.013803,0.023505,4.8919e-07,0.2,0.82,0
0.010251,-0.005002,0.028773,0.0025974,0.0094111,-0.0015846,0,0,0.050341,-0.017716,0,-0.0082398,0,0,0,0.028868,0.0025018,0.0094111,-3.4517,0.013594,0.023681,4.9136e-07,0.22,0.82,0
0.01126,-0.00525,0.028695,0.0022372,0.0092797,-0.0012018,0,0,0.05048,-0.01831,0,-0.0062494,0,0,0,0.02875,0.0021827,0.0092797,-2.5954,0.013404,0.023825,4.9242e-07,0.24,0.82,0
0.012271,-0.0054622,0.02861,0.0019252,0.0091604,-0.00085332,0,0,0.050568,-0.018812,0,-0.0044373,0,0,0,0.028637,0.0018979,0.0091604,-1.8297,0.013232,0.023948,4.9287e-07,0.26,0.82,0
0.013283,-0.0056408,0.028523,0.0016511,0.0090522,-0.00053921,0,0,0.050624,-0.019243,0,-0.0028039,0,0,0,0.028534,0.0016403,0.0090522,-1.1491,0.013075,0.02406,4.9311e-07,0.28,0.82,0
0.014296,-0.0057882,0.02844,0.0014061,0.008954,-0.00025897,0,0,0.050665,-0.019624,0,-0.0013467,0,0,0,0.028443,0.0014036,0.008954,-0.54879,0.012934,0.024165,4.9341e-07,0.3,0.82,0
0.015309,-0.005907,0.028365,0.001183,0.0088645,-1.1955e-05,0,0,0.050702,-0.019972,0,-6.2168e-05,0,0,0,0.028365,0.001183,0.0088645,-0.0252,0.012804,0.024271,4.94e-07,0.32,0.82,0
0.016324,-0.0060001,0.0283,0.00097574,0.0087828,0.00020237,0,0,0.050745,-0.020298,0,0.0010523,0,0,0,0.028302,0.00097424,0.0087828,0.42431,0.012686,0.02438,4.9499e-07,0.34,0.82,0
0.017339,-0.0060702,0.028247,0.0007799,0.0087081,0.00038429,0,0,0.050801,-0.020613,0,0.0019983,0,0,0,0.028252,0.00077452,0.0087081,0.80141,0.012578,0.024494,4.9648e-07,0.36,0.82,0
0.018356,-0.0061203,0.028206,0.0005923,0.0086395,0.00053386,0,0,0.050873,-0.020923,0,0.0027761,0,0,0,0.028216,0.00058198,0.0086395,1.1072,0.012479,0.024615,4.9848e-07,0.38,0.82,0
0.019374,-0.0061534,0.028178,0.00041113,0.0085766,0.000651,0,0,0.050962,-0.02123,0,0.0033852,0,0,0,0.028193,0.00039588,0.0085766,1.3423,0.012388,0.024743,5.0093e-07,0.4,0.82,0
0.020394,-0.0061726,0.02816,0.00023591,0.0085189,0.0007356,0,0,0.051068,-0.021536,0,0.0038251,0,0,0,0.02818,0.00021655,0.0085189,1.5079,0.012305,0.024874,5.0378e-07,0.42,0.82,0
0.021417,-0.006181,0.028153,6.735e-05,0.0084662,0.00078779,0,0,0.051187,-0.021837,0,0.0040965,0,0,0,0.028175,4.527e-05,0.0084662,1.6054,0.012229,0.025007,5.0688e-07,0.44,0.82,0
0.022442,-0.0061818,0.028154,-9.2764e-05,0.0084185,0.00080809,0,0,0.051313,-0.022129,0,0.0042021,0,0,0,0.028178,-0.00011586,0.0084185,1.6373,0.01216,0.025137,5.101e-07,0.46,0.82,0
0.023469,-0.0061778,0.028161,-0.0002418,0.0083758,0.00079767,0,0,0.051442,-0.022406,0,0.0041479,0,0,0,0.028184,-0.00026419,0.0083758,1.6074,0.012098,0.025261,5.1326e-07,0.48,0.82,0
0.024499,-0.0061721,0.028171,-0.00037661,0.0083383,0.00075844,0,0,0.051565,-0.022659,0,0.0039439,0,0,0,0.028191,-0.00039674,0.0083383,1.5208,0.012044,0.025374,5.1617e-07,0.5,0.82,0
0.025532,-0.0061671,0.028181,-0.00049381,0.0083062,0.00069319,0,0,0.051675,-0.02288,0,0.0036046,0,0,0,0.028198,-0.00051056,0.0083062,1.384,0.011998,0.025472,5.1868e-07,0.52,0.82,0
0.026566,-0.0061654,0.028189,-0.00059025,0.0082797,0.00060553,0,0,0.051765,-0.023062,0,0.0031488,0,0,0,0.028202,-0.00060298,0.0082797,1.2048,0.01196,0.025549,5.2062e-07,0.54,0.82,0
0.027602,-0.0061689,0.028193,-0.00066325,0.0082589,0.00049987,0,0,0.051829,-0.023198,0,0.0025993,0,0,0,0.028202,-0.0006719,0.0082589,0.99212,0.01193,0.025604,5.2188e-07,0.56,0.82,0
0.028639,-0.0061791,0.028191,-0.00071095,0.0082439,0.00038116,0,0,0.051862,-0.023283,0,0.0019821,0,0,0,0.028196,-0.00071597,0.0082439,0.75546,0.011908,0.025634,5.2236e-07,0.58,0.82,0
0.029677,-0.0061972,0.028181,-0.00073249,0.0082346,0.00025476,0,0,0.051861,-0.023314,0,0.0013247,0,0,0,0.028184,-0.00073474,0.0082346,0.50478,0.011895,0.025639,5.2202e-07,0.6,0.82,0
0.030714,-0.0062239,0.028164,-0.00072816,0.0082308,0.00012608,0,0,0.051826,-0.023293,0,0.00065563,0,0,0,0.028164,-0.00072871,0.0082308,0.25003,0.011889,0.025617,5.2087e-07,0.62,0.82,0
0.03175,-0.0062594,0.028139,-0.00069937,0.0082319,3.9675e-07,0,0,0.051759,-0.023221,0,2.0631e-06,0,0,0,0.028139,-0.00069937,0.0082319,0.00078825,0.011891,0.025571,5.1894e-07,0.64,0.82,0
0.032784,-0.0063033,0.028107,-0.00064864,0.0082376,-0.00011749,0,0,0.051661,-0.023104,0,-0.00061097,0,0,0,0.028108,-0.00064912,0.0082376,-0.2341,0.011899,0.025503,5.1631e-07,0.66,0.82,0
0.033816,-0.006355,0.02807,-0.00057937,0.0082472,-0.00022347,0,0,0.05154,-0.022949,0,-0.0011621,0,0,0,0.028072,-0.00058111,0.0082472,-0.44688,0.011913,0.025416,5.131e-07,0.68,0.82,0
0.034846,-0.0064135,0.028029,-0.00049566,0.00826,-0.00031431,0,0,0.051399,-0.022765,0,-0.0016344,0,0,0,0.028032,-0.00049913,0.00826,-0.63124,0.011931,0.025315,5.0944e-07,0.7,0.82,0
0.035872,-0.0064775,0.027985,-0.00040199,0.0082751,-0.00038779,0,0,0.051247,-0.02256,0,-0.0020165,0,0,0,0.027991,-0.00040729,0.0082751,-0.78249,0.011953,0.025205,5.055e-07,0.72,0.82,0
0.036896,-0.0065455,0.027942,-0.00030286,0.0082917,-0.00044271,0,0,0.05109,-0.022346,0,-0.0023021,0,0,0,0.027949,-0.00030979,0.0082917,-0.89776,0.011977,0.025089,5.0143e-07,0.74,0.82,0
0.037916,-0.0066159,0.0279,-0.0002025,0.0083092,-0.00047887,0,0,0.050935,-0.02213,0,-0.0024902,0,0,0,0.027908,-0.00021066,0.0083092,-0.97597,0.012002,0.024973,4.974e-07,0.76,0.82,0
0.038933,-0.0066872,0.02786,-0.00010464,0.0083268,-0.00049693,0,0,0.050788,-0.021922,0,-0.002584,0,0,0,0.027869,-0.00011347,0.0083268,-1.0177,0.012027,0.024862,4.9353e-07,0.78,0.82,0
0.039947,-0.0067577,0.027825,-1.2309e-05,0.0083439,-0.00049819,0,0,0.050652,-0.021726,0,-0.0025906,0,0,0,0.027834,-2.1222e-05,0.0083439,-1.025,0.012052,0.024757,4.8994e-07,0.8,0.82,0
0.040959,-0.0068259,0.027795,7.2258e-05,0.0083602,-0.00048445,0,0,0.05053,-0.021549,0,-0.0025191,0,0,0,0.027803,6.3795e-05,0.0083602,-1.0008,0.012076,0.024661,4.8671e-07,0.82,0.82,0
0.041969,-0.0068904,0.02777,0.00014758,0.0083752,-0.00045772,0,0,0.050426,-0.021392,0,-0.0023802,0,0,0,0.027777,0.00014,0.0083752,-0.94909,0.012098,0.024577,4.8389e-07,0.84,0.82,0
0.042976,-0.0069501,0.027749,0.00021289,0.0083886,-0.00042013,0,0,0.050338,-0.021257,0,-0.0021847,0,0,0,0.027756,0.00020648,0.0083886,-0.87391,0.012117,0.024505,4.815e-07,0.86,0.82,0
0.043982,-0.0070038,0.027733,0.00026798,0.0084004,-0.00037373,0,0,0.050266,-0.021144,0,-0.0019434,0,0,0,0.027738,0.0002629,0.0084004,-0.77945,0.012134,0.024445,4.7953e-07,0.88,0.82,0
0.044987,-0.0070507,0.027721,0.00031309,0.0084104,-0.0003204,0,0,0.050209,-0.021053,0,-0.0016661,0,0,0,0.027725,0.00030935,0.0084104,-0.66965,0.012148,0.024396,4.7796e-07,0.9,0.82,0
0.045991,-0.0070901,0.027713,0.00034873,0.0084185,-0.0002618,0,0,0.050166,-0.020982,0,-0.0013614,0,0,0,0.027716,0.00034623,0.0084185,-0.5481,0.01216,0.024358,4.7675e-07,0.92,0.82,0
0.046994,-0.0071212,0.027707,0.00037552,0.0084249,-0.00019937,0,0,0.050134,-0.020928,0,-0.0010367,0,0,0,0.027709,0.00037407,0.0084249,-0.4179,0.012169,0.02433,4.7586e-07,0.94,0.82,0
0.047996,-0.0071438,0.027704,0.00039412,0.0084294,-0.00013427,0,0,0.050113,-0.020892,0,-0.00069823,0,0,0,0.027704,0.00039346,0.0084294,-0.2817,0.012176,0.02431,4.7526e-07,0.96,0.82,0
0.048998,-0.0071575,0.027702,0.00040504,0.008432,-6.7532e-05,0,0,0.050101,-0.02087,0,-0.00035117,0,0,0,0.027702,0.00040487,0.008432,-0.14175,0.01218,0.024299,4.7492e-07,0.98,0.82,0
0.05,-0.007162,0.027701,0.00040864,0.0084329,-4.3976e-05,0,0,0.050097,-0.020863,0,-0.00022868,0,0,0,0.027701,0.00040857,0.0084329,-0.09232,0.012181,0.024296,4.7481e-07,1,0.82,0
0,0,0.027543,0.011804,0.011804,-0.0057359,0,0,0.04092,6.5052e-19,0,-0.029827,0,0,0,0.029411,0.0099353,0.011804,-18.044,0.01705,0.018612,3.1991e-07,0,0.84,0
0.00081841,-0.00059654,0.027442,0.010535,0.011393,-0.0056912,0,0,0.041727,-0.0022307,0,-0.029594,0,0,0,0.029179,0.0087979,0.011393,-16.975,0.016457,0.019216,3.421e-07,0.02,0.84,0
0.0016691,-0.0011975,0.027837,0.0093684,0.011162,-0.0055838,0,0,0.043356,-0.0046622,0,-0.029036,0,0,0,0.029394,0.0078114,0.011162,-15.58,0.016122,0.020118,3.7937e-07,0.04,0.84,0
0.0025526,-0.0017924,0.028201,0.0081687,0.010911,-0.0053384,0,0,0.044954,-0.0071295,0,-0.02776,0,0,0,0.029535,0.0068349,0.010911,-14.028,0.01576,0.020961,4.1336e-07,0.06,0.84,0
0.0034672,-0.0023698,0.028505,0.0070136,0.010656,-0.0049668,0,0,0.046409,-0.0094693,0,-0.025827,0,0,0,0.029598,0.0059213,0.010656,-12.403,0.015392,0.0217,4.4176e-07,0.08,0.84,0
0.004409,-0.0029195,0.028731,0.0059597,0.010407,-0.0045004,0,0,0.047642,-0.011564,0,-0.023402,0,0,0,0.029588,0.0051026,0.010407,-10.784,0.015033,0.022312,4.6355e-07,0.1,0.84,0
0.0053729,-0.0034337,0.028872,0.0050359,0.010172,-0.0039781,0,0,0.04862,-0.013355,0,-0.020686,0,0,0,0.029519,0.0043895,0.010172,-9.229,0.014694,0.022795,4.7886e-07,0.12,0.84,0
0.0063538,-0.003907,0.028935,0.0042479,0.0099548,-0.003436,0,0,0.049348,-0.014838,0,-0.017867,0,0,0,0.029404,0.0037786,0.0099548,-7.7777,0.014379,0.023164,4.886e-07,0.14,0.84,0
0.0073468,-0.0043368,0.028932,0.0035866,0.0097556,-0.0029017,0,0,0.049859,-0.016039,0,-0.015089,0,0,0,0.02926,0.0032586,0.0097556,-6.4484,0.014091,0.023438,4.9399e-07,0.16,0.84,0
0.0083481,-0.0047222,0.028881,0.0030359,0.009575,-0.0023935,0,0,0.050195,-0.017001,0,-0.012446,0,0,0,0.0291,0.0028161,0.009575,-5.2467,0.013831,0.023641,4.9626e-07,0.18,0.84,0
0.0093546,-0.0050638,0.028797,0.0025779,0.0094124,-0.0019215,0,0,0.050399,-0.01777,0,-0.009992,0,0,0,0.028937,0.0024379,0.0094124,-4.1694,0.013596,0.023791,4.965e-07,0.2,0.84,0
0.010364,-0.0053631,0.028694,0.0021955,0.009267,-0.0014906,0,0,0.050511,-0.018386,0,-0.0077511,0,0,0,0.028778,0.0021119,0.009267,-3.2095,0.013386,0.023905,4.9555e-07,0.22,0.84,0
0.011375,-0.0056222,0.028584,0.0018734,0.0091373,-0.0011018,0,0,0.050562,-0.018886,0,-0.0057291,0,0,0,0.02863,0.001828,0.0091373,-2.358,0.013198,0.023997,4.9405e-07,0.24,0.84,0
0.012387,-0.0058436,0.028475,0.0015987,0.009022,-0.00075414,0,0,0.050577,-0.019301,0,-0.0039215,0,0,0,0.028496,0.0015775,0.009022,-1.606,0.013032,0.024075,4.9247e-07,0.26,0.84,0
0.013398,-0.00603,0.028372,0.0013605,0.0089197,-0.00044597,0,0,0.050575,-0.019654,0,-0.0023191,0,0,0,0.028379,0.0013532,0.0089197,-0.94564,0.012884,0.024149,4.9112e-07,0.28,0.84,0
0.01441,-0.0061844,0.028279,0.0011501,0.0088288,-0.00017526,0,0,0.050571,-0.019965,0,-0.00091133,0,0,0,0.02828,0.001149,0.0088288,-0.37011,0.012753,0.024222,4.9021e-07,0.3,0.84,0
0.015421,-0.0063095,0.0282,0.00096035,0.008748,5.9867e-05,0,0,0.050574,-0.020248,0,0.00031131,0,0,0,0.0282,0.00096022,0.008748,0.12592,0.012636,0.0243,4.8987e-07,0.32,0.84,0
0.016433,-0.0064085,0.028134,0.00078565,0.008676,0.00026091,0,0,0.050592,-0.020515,0,0.0013567,0,0,0,0.028137,0.00078317,0.008676,0.54653,0.012532,0.024385,4.9018e-07,0.34,0.84,0
0.017445,-0.0064843,0.028084,0.00062185,0.0086118,0.00042899,0,0,0.050628,-0.020774,0,0.0022308,0,0,0,0.028091,0.00061515,0.0086118,0.89474,0.012439,0.024477,4.9112e-07,0.36,0.84,0
0.018458,-0.00654,0.028048,0.00046605,0.0085543,0.00056492,0,0,0.050684,-0.021029,0,0.0029376,0,0,0,0.02806,0.00045449,0.0085543,1.1728,0.012356,0.024578,4.9269e-07,0.38,0.84,0
0.019472,-0.0065788,0.028026,0.0003166,0.0085028,0.00066927,0,0,0.050761,-0.021284,0,0.0034802,0,0,0,0.028042,0.00030044,0.0085028,1.3828,0.012282,0.024685,4.9479e-07,0.4,0.84,0
0.020488,-0.0066035,0.028016,0.00017292,0.0084568,0.00074253,0,0,0.050855,-0.021538,0,0.0038611,0,0,0,0.028036,0.00015313,0.0084568,1.5265,0.012215,0.024797,4.9732e-07,0.42,0.84,0
0.021506,-0.0066175,0.028017,3.5469e-05,0.0084157,0.00078535,0,0,0.050963,-0.021789,0,0.0040838,0,0,0,0.028039,1.3444e-05,0.0084157,1.6064,0.012156,0.024911,5.0016e-07,0.44,0.84,0
0.022527,-0.0066235,0.028025,-9.4432e-05,0.0083793,0.00079867,0,0,0.05108,-0.022032,0,0.0041531,0,0,0,0.028048,-0.0001171,0.0083793,1.6256,0.012103,0.025023,5.0314e-07,0.46,0.84,0
0.023549,-0.0066246,0.028039,-0.00021481,0.0083474,0.00078392,0,0,0.051199,-0.022262,0,0.0040764,0,0,0,0.028061,-0.00023654,0.0083474,1.5881,0.012057,0.02513,5.061e-07,0.48,0.84,0
0.024575,-0.0066235,0.028056,-0.00032327,0.0083199,0.00074313,0,0,0.051314,-0.022472,0,0.0038643,0,0,0,0.028076,-0.00034271,0.0083199,1.499,0.012018,0.025228,5.0888e-07,0.5,0.84,0
0.025602,-0.0066225,0.028073,-0.00041725,0.0082968,0.000679,0,0,0.051419,-0.022656,0,0.0035308,0,0,0,0.028089,-0.00043342,0.0082968,1.3645,0.011984,0.025313,5.1132e-07,0.52,0.84,0
0.026631,-0.0066241,0.028088,-0.00049434,0.0082781,0.0005949,0,0,0.051506,-0.022808,0,0.0030935,0,0,0,0.0281,-0.00050672,0.0082781,1.1918,0.011957,0.025382,5.1328e-07,0.54,0.84,0
0.027662,-0.00663,0.028098,-0.00055251,0.0082637,0.0004948,0,0,0.05157,-0.022922,0,0.0025729,0,0,0,0.028107,-0.00056106,0.0082637,0.9891,0.011936,0.025431,5.1463e-07,0.56,0.84,0
0.028694,-0.0066418,0.028103,-0.00059035,0.0082537,0.00038314,0,0,0.051607,-0.022994,0,0.0019923,0,0,0,0.028108,-0.00059546,0.0082537,0.76489,0.011922,0.025459,5.1531e-07,0.58,0.84,0
0.029726,-0.0066605,0.0281,-0.00060721,0.0082477,0.00026464,0,0,0.051615,-0.023023,0,0.0013761,0,0,0,0.028102,-0.00060965,0.0082477,0.52813,0.011913,0.025466,5.1527e-07,0.6,0.84,0
0.030759,-0.0066869,0.028089,-0.00060333,0.0082457,0.00014409,0,0,0.051592,-0.023007,0,0.00074925,0,0,0,0.02809,-0.00060406,0.0082457,0.28772,0.01191,0.02545,5.1448e-07,0.62,0.84,0
0.03179,-0.006721,0.02807,-0.00057984,0.0082471,2.6113e-05,0,0,0.05154,-0.02295,0,0.00013579,0,0,0,0.02807,-0.00057986,0.0082471,0.052222,0.011913,0.025414,5.1299e-07,0.64,0.84,0
0.03282,-0.0067628,0.028045,-0.00053869,0.0082518,-8.5037e-05,0,0,0.051461,-0.022855,0,-0.00044219,0,0,0,0.028045,-0.00053894,0.0082518,-0.17046,0.011919,0.025358,5.1085e-07,0.66,0.84,0
0.033849,-0.0068117,0.028013,-0.00048256,0.0082591,-0.0001857,0,0,0.05136,-0.022728,0,-0.00096564,0,0,0,0.028014,-0.00048377,0.0082591,-0.37337,0.01193,0.025286,5.0816e-07,0.68,0.84,0
0.034875,-0.0068669,0.027976,-0.00041463,0.0082684,-0.00027295,0,0,0.05124,-0.022576,0,-0.0014193,0,0,0,0.027979,-0.00041726,0.0082684,-0.55077,0.011943,0.025202,5.0503e-07,0.7,0.84,0
0.035898,-0.0069272,0.027936,-0.0003384,0.0082794,-0.00034469,0,0,0.051108,-0.022406,0,-0.0017924,0,0,0,0.027941,-0.0003426,0.0082794,-0.69833,0.011959,0.025108,5.0159e-07,0.72,0.84,0
0.036919,-0.0069913,0.027895,-0.00025741,0.0082913,-0.00039969,0,0,0.05097,-0.022227,0,-0.0020784,0,0,0,0.027901,-0.00026308,0.0082913,-0.81323,0.011976,0.025009,4.9799e-07,0.74,0.84,0
0.037937,-0.0070577,0.027854,-0.00017501,0.0083036,-0.00043757,0,0,0.05083,-0.022045,0,-0.0022754,0,0,0,0.027861,-0.00018184,0.0083036,-0.89418,0.011994,0.024908,4.9434e-07,0.76,0.84,0
0.038952,-0.0071251,0.027814,-9.4201e-05,0.008316,-0.00045866,0,0,0.050695,-0.021866,0,-0.0023851,0,0,0,0.027822,-0.00010174,0.008316,-0.9413,0.012012,0.02481,4.9078e-07,0.78,0.84,0
0.039965,-0.007192,0.027777,-1.7451e-05,0.0083279,-0.00046393,0,0,0.050568,-0.021698,0,-0.0024124,0,0,0,0.027785,-2.5192e-05,0.0083279,-0.95598,0.012029,0.024716,4.8741e-07,0.8,0.84,0
0.040975,-0.0072568,0.027744,5.3342e-05,0.0083391,-0.00045474,0,0,0.050452,-0.021543,0,-0.0023646,0,0,0,0.027751,4.5876e-05,0.0083391,-0.94059,0.012045,0.024629,4.843e-07,0.82,0.84,0
0.041983,-0.0073184,0.027714,0.00011687,0.0083493,-0.00043278,0,0,0.050349,-0.021404,0,-0.0022505,0,0,0,0.027721,0.00011009,0.0083493,-0.89822,0.01206,0.024551,4.8152e-07,0.84,0.84,0
0.042989,-0.0073755,0.027689,0.00017239,0.0083585,-0.00039986,0,0,0.05026,-0.021284,0,-0.0020792,0,0,0,0.027695,0.00016658,0.0083585,-0.83235,0.012073,0.024483,4.791e-07,0.86,0.84,0
0.043993,-0.0074271,0.027668,0.00021959,0.0083664,-0.00035778,0,0,0.050185,-0.021182,0,-0.0018605,0,0,0,0.027673,0.00021492,0.0083664,-0.74665,0.012085,0.024425,4.7704e-07,0.88,0.84,0
0.044996,-0.0074723,0.027652,0.00025853,0.008373,-0.00030829,0,0,0.050124,-0.021098,0,-0.0016031,0,0,0,0.027655,0.00025506,0.008373,-0.64472,0.012094,0.024377,4.7535e-07,0.9,0.84,0
0.045998,-0.0075102,0.027639,0.00028952,0.0083785,-0.00025299,0,0,0.050077,-0.021031,0,-0.0013156,0,0,0,0.027641,0.00028717,0.0083785,-0.52995,0.012102,0.024339,4.7402e-07,0.92,0.84,0
0.046999,-0.0075403,0.027629,0.00031297,0.0083826,-0.00019331,0,0,0.050041,-0.020981,0,-0.0010052,0,0,0,0.02763,0.0003116,0.0083826,-0.40545,0.012108,0.02431,4.7301e-07,0.94,0.84,0
0.048,-0.0075622,0.027623,0.00032932,0.0083856,-0.00013052,0,0,0.050016,-0.020946,0,-0.00067871,0,0,0,0.027623,0.0003287,0.0083856,-0.27399,0.012113,0.02429,4.723e-07,0.96,0.84,0
0.049,-0.0075754,0.027619,0.00033897,0.0083873,-6.5743e-05,0,0,0.050002,-0.020926,0,-0.00034186,0,0,0,0.027619,0.00033881,0.0083873,-0.13808,0.012115,0.024278,4.7189e-07,0.98,0.84,0
0.05,-0.0075798,0.027617,0.00034215,0.0083879,-4.2638e-05,0,0,0.049997,-0.020919,0,-0.00022172,0,0,0,0.027617,0.00034209,0.0083879,-0.089567,0.012116,0.024274,4.7176e-07,1,0.84,0
0,0,0.027824,0.011925,0.011925,-0.0061872,0,0,0.041339,-3.2526e-19,0,-0.032173,0,0,0,0.029948,0.0098007,0.011925,-18.947,0.017225,0.019174,3.4711e-07,0,0.86,0
0.00082678,-0.00064347,0.027711,0.010502,0.011464,-0.0061297,0,0,0.042243,-0.0025014,0,-0.031874,0,0,0,0.029671,0.0085417,0.011464,-17.733,0.016559,0.01983,3.7137e-07,0.02,0.86,0
0.0016897,-0.001296,0.028136,0.0091616,0.011189,-0.0060018,0,0,0.044062,-0.0052724,0,-0.031209,0,0,0,0.029875,0.0074226,0.011189,-16.159,0.016162,0.020827,4.1326e-07,0.04,0.86,0
0.0025893,-0.001943,0.028514,0.0077949,0.010893,-0.0056901,0,0,0.045816,-0.0080544,0,-0.029588,0,0,0,0.029974,0.0063351,0.010893,-14.389,0.015734,0.021722,4.4926e-07,0.06,0.86,0
0.0035223,-0.0025692,0.028806,0.0065147,0.010596,-0.0052213,0,0,0.047345,-0.010612,0,-0.027151,0,0,0,0.029968,0.0053523,0.010596,-12.551,0.015306,0.022458,4.7655e-07,0.08,0.86,0
0.0044831,-0.003162,0.028991,0.0053904,0.010315,-0.0046489,0,0,0.04856,-0.012803,0,-0.024175,0,0,0,0.029874,0.0045077,0.010315,-10.751,0.014899,0.023019,4.9461e-07,0.1,0.86,0
0.0054647,-0.0037122,0.02907,0.004445,0.010054,-0.0040305,0,0,0.04944,-0.014585,0,-0.020959,0,0,0,0.029713,0.0038021,0.010054,-9.063,0.014523,0.023419,5.0457e-07,0.12,0.86,0
0.0064607,-0.0042147,0.029058,0.0036701,0.0098184,-0.0034122,0,0,0.050023,-0.015986,0,-0.017744,0,0,0,0.029509,0.0032195,0.0098184,-7.523,0.014182,0.023689,5.0837e-07,0.14,0.86,0
0.0074656,-0.0046676,0.02898,0.0030426,0.0096067,-0.0028243,0,0,0.05037,-0.017067,0,-0.014686,0,0,0,0.029284,0.0027386,0.0096067,-6.1431,0.013876,0.023864,5.0802e-07,0.16,0.86,0
0.0084755,-0.0050712,0.028859,0.0025359,0.0094185,-0.0022828,0,0,0.050545,-0.017895,0,-0.011871,0,0,0,0.029056,0.0023394,0.0094185,-4.9199,0.013604,0.023974,5.0518e-07,0.18,0.86,0
0.0094874,-0.0054269,0.028716,0.0021255,0.0092525,-0.001794,0,0,0.050606,-0.01853,0,-0.0093289,0,0,0,0.028837,0.002005,0.0092525,-3.8424,0.013365,0.024042,5.0113e-07,0.2,0.86,0
0.0105,-0.0057374,0.028567,0.0017904,0.0091072,-0.0013585,0,0,0.050595,-0.019024,0,-0.0070641,0,0,0,0.028636,0.0017216,0.0091072,-2.8969,0.013155,0.024086,4.9673e-07,0.22,0.86,0
0.011511,-0.0060055,0.028422,0.0015134,0.0089806,-0.00097373,0,0,0.050547,-0.019415,0,-0.0050634,0,0,0,0.028457,0.0014782,0.0089806,-2.0697,0.012972,0.024119,4.9256e-07,0.24,0.86,0
0.012522,-0.0062343,0.028288,0.0012809,0.0088707,-0.00063605,0,0,0.050485,-0.019734,0,-0.0033074,0,0,0,0.028303,0.0012659,0.0088707,-1.3484,0.012813,0.02415,4.8895e-07,0.26,0.86,0
0.013531,-0.0064269,0.02817,0.001082,0.0087756,-0.00034157,0,0,0.050425,-0.020003,0,-0.0017761,0,0,0,0.028174,0.0010777,0.0087756,-0.72232,0.012676,0.024185,4.861e-07,0.28,0.86,0
0.014539,-0.0065868,0.02807,0.00090817,0.0086934,-8.6706e-05,0,0,0.050379,-0.020242,0,-0.00045087,0,0,0,0.02807,0.00090789,0.0086934,-0.1829,0.012557,0.024227,4.8413e-07,0.3,0.86,0
0.015546,-0.006717,0.027989,0.00075287,0.0086225,0.00013154,0,0,0.050352,-0.020461,0,0.00068399,0,0,0,0.027989,0.00075223,0.0086225,0.2767,0.012455,0.024278,4.8305e-07,0.32,0.86,0
0.016553,-0.0068207,0.027927,0.000611,0.0085613,0.00031556,0,0,0.05035,-0.020671,0,0.0016409,0,0,0,0.02793,0.00060735,0.0085613,0.66177,0.012366,0.024341,4.8285e-07,0.34,0.86,0
0.01756,-0.0069011,0.027883,0.00047884,0.0085085,0.00046717,0,0,0.050373,-0.020877,0,0.0024293,0,0,0,0.027891,0.00047088,0.0085085,0.97638,0.01229,0.024414,4.8346e-07,0.36,0.86,0
0.018568,-0.0069615,0.027856,0.00035387,0.0084629,0.00058776,0,0,0.050422,-0.021084,0,0.0030563,0,0,0,0.027868,0.00034131,0.0084629,1.2237,0.012224,0.024498,4.8481e-07,0.38,0.86,0
0.019577,-0.0070047,0.027844,0.00023459,0.0084235,0.00067837,0,0,0.050493,-0.021291,0,0.0035275,0,0,0,0.02786,0.00021793,0.0084235,1.4066,0.012167,0.024589,4.8677e-07,0.4,0.86,0
0.020587,-0.0070341,0.027845,0.00012045,0.0083896,0.00073994,0,0,0.050584,-0.0215,0,0.0038477,0,0,0,0.027865,0.00010072,0.0083896,1.5277,0.012118,0.024686,4.8923e-07,0.42,0.86,0
0.0216,-0.0070526,0.027856,1.1731e-05,0.0083604,0.00077345,0,0,0.050689,-0.021707,0,0.0040219,0,0,0,0.027878,-9.7372e-06,0.0083604,1.5899,0.012076,0.024786,4.9202e-07,0.44,0.86,0
0.022615,-0.0070631,0.027876,-9.0629e-05,0.0083355,0.00078009,0,0,0.050804,-0.021908,0,0.0040565,0,0,0,0.027897,-0.00011237,0.0083355,1.5966,0.01204,0.024886,4.95e-07,0.46,0.86,0
0.023632,-0.0070683,0.0279,-0.00018515,0.0083145,0.00076143,0,0,0.050923,-0.022099,0,0.0039594,0,0,0,0.027921,-0.00020578,0.0083145,1.5518,0.01201,0.024981,4.9799e-07,0.48,0.86,0
0.024652,-0.007071,0.027927,-0.00027005,0.0082971,0.00071948,0,0,0.051038,-0.022274,0,0.0037413,0,0,0,0.027945,-0.0002884,0.0082971,1.4607,0.011985,0.025069,5.0085e-07,0.5,0.86,0
0.025674,-0.0070734,0.027953,-0.0003434,0.008283,0.00065683,0,0,0.051143,-0.022429,0,0.0034155,0,0,0,0.027969,-0.00035864,0.008283,1.329,0.011964,0.025146,5.0341e-07,0.52,0.86,0
0.026698,-0.0070777,0.027977,-0.00040339,0.0082722,0.00057655,0,0,0.051233,-0.022556,0,0.0029981,0,0,0,0.027989,-0.0004151,0.0082722,1.1633,0.011949,0.025209,5.0554e-07,0.54,0.86,0
0.027723,-0.0070857,0.027996,-0.0004485,0.0082643,0.00048222,0,0,0.051303,-0.022653,0,0.0025075,0,0,0,0.028004,-0.00045667,0.0082643,0.97095,0.011937,0.025256,5.0714e-07,0.56,0.86,0
0.02875,-0.0070989,0.028009,-0.00047765,0.0082593,0.00037777,0,0,0.051348,-0.022716,0,0.0019644,0,0,0,0.028014,-0.00048266,0.0082593,0.75964,0.01193,0.025285,5.0813e-07,0.58,0.86,0
0.029777,-0.0071181,0.028014,-0.00049039,0.008257,0.00026735,0,0,0.051368,-0.022743,0,0.0013902,0,0,0,0.028016,-0.0004929,0.008257,0.53734,0.011927,0.025296,5.0845e-07,0.6,0.86,0
0.030804,-0.0071442,0.028011,-0.00048689,0.0082571,0.00015518,0,0,0.051359,-0.022734,0,0.00080692,0,0,0,0.028011,-0.00048774,0.0082571,0.31198,0.011927,0.025287,5.0809e-07,0.62,0.86,0
0.031831,-0.0071774,0.027999,-0.00046804,0.0082593,4.5299e-05,0,0,0.051323,-0.022691,0,0.00023556,0,0,0,0.027999,-0.00046811,0.0082593,0.091174,0.01193,0.025261,5.0707e-07,0.64,0.86,0
0.032857,-0.0072175,0.02798,-0.00043532,0.0082633,-5.8546e-05,0,0,0.051263,-0.022616,0,-0.00030444,0,0,0,0.02798,-0.00043544,0.0082633,-0.11805,0.011936,0.025217,5.0543e-07,0.66,0.86,0
0.033882,-0.0072641,0.027953,-0.00039078,0.0082688,-0.00015311,0,0,0.05118,-0.022515,0,-0.00079616,0,0,0,0.027954,-0.00039161,0.0082688,-0.30949,0.011944,0.02516,5.0324e-07,0.68,0.86,0
0.034904,-0.0073165,0.027921,-0.00033687,0.0082754,-0.00023575,0,0,0.05108,-0.022392,0,-0.0012259,0,0,0,0.027923,-0.00033883,0.0082754,-0.47796,0.011953,0.02509,5.0061e-07,0.7,0.86,0
0.035925,-0.0073738,0.027885,-0.00027625,0.0082827,-0.00030454,0,0,0.050966,-0.022253,0,-0.0015836,0,0,0,0.027889,-0.00027955,0.0082827,-0.61952,0.011964,0.025011,4.9764e-07,0.72,0.86,0
0.036943,-0.0074346,0.027846,-0.00021167,0.0082903,-0.00035827,0,0,0.050845,-0.022105,0,-0.001863,0,0,0,0.027851,-0.00021624,0.0082903,-0.73145,0.011975,0.024927,4.9446e-07,0.74,0.86,0
0.037959,-0.0074977,0.027806,-0.00014572,0.008298,-0.00039643,0,0,0.05072,-0.021954,0,-0.0020614,0,0,0,0.027811,-0.00015134,0.008298,-0.8124,0.011986,0.02484,4.9117e-07,0.76,0.86,0
0.038972,-0.0075619,0.027766,-8.0754e-05,0.0083055,-0.00041916,0,0,0.050597,-0.021804,0,-0.0021796,0,0,0,0.027772,-8.7062e-05,0.0083055,-0.86219,0.011997,0.024754,4.879e-07,0.78,0.86,0
0.039983,-0.0076256,0.027727,-1.8745e-05,0.0083125,-0.00042714,0,0,0.050478,-0.021661,0,-0.0022211,0,0,0,0.027734,-2.5319e-05,0.0083125,-0.88177,0.012007,0.024671,4.8473e-07,0.8,0.86,0
0.040991,-0.0076876,0.027691,3.8764e-05,0.0083189,-0.00042144,0,0,0.050367,-0.021528,0,-0.0021915,0,0,0,0.027697,3.2342e-05,0.0083189,-0.87297,0.012016,0.024592,4.8175e-07,0.82,0.86,0
0.041997,-0.0077466,0.027658,9.0673e-05,0.0083246,-0.00040346,0,0,0.050267,-0.021408,0,-0.002098,0,0,0,0.027664,8.4769e-05,0.0083246,-0.83832,0.012024,0.024521,4.7902e-07,0.84,0.86,0
0.043002,-0.0078014,0.027629,0.0001363,0.0083295,-0.00037474,0,0,0.050178,-0.021302,0,-0.0019486,0,0,0,0.027634,0.00013119,0.0083295,-0.78078,0.012032,0.024457,4.7658e-07,0.86,0.86,0
0.044005,-0.0078511,0.027603,0.00017533,0.0083336,-0.00033687,0,0,0.050101,-0.021212,0,-0.0017517,0,0,0,0.027608,0.00017119,0.0083336,-0.70356,0.012037,0.024401,4.7447e-07,0.88,0.86,0
0.045006,-0.0078946,0.027582,0.00020772,0.0083369,-0.00029144,0,0,0.050037,-0.021136,0,-0.0015155,0,0,0,0.027585,0.00020462,0.0083369,-0.60991,0.012042,0.024355,4.727e-07,0.9,0.86,0
0.046006,-0.0079313,0.027565,0.00023363,0.0083396,-0.00023997,0,0,0.049986,-0.021076,0,-0.0012478,0,0,0,0.027567,0.00023152,0.0083396,-0.503,0.012046,0.024317,4.7126e-07,0.92,0.86,0
0.047005,-0.0079605,0.027552,0.00025333,0.0083416,-0.00018385,0,0,0.049947,-0.021029,0,-0.000956,0,0,0,0.027553,0.0002521,0.0083416,-0.38584,0.012049,0.024289,4.7015e-07,0.94,0.86,0
0.048004,-0.0079816,0.027543,0.00026713,0.0083429,-0.00012437,0,0,0.049919,-0.020997,0,-0.00064672,0,0,0,0.027543,0.00026657,0.0083429,-0.26125,0.012051,0.024268,4.6937e-07,0.96,0.86,0
0.049002,-0.0079945,0.027537,0.00027529,0.0083437,-6.2718e-05,0,0,0.049903,-0.020978,0,-0.00032613,0,0,0,0.027537,0.00027515,0.0083437,-0.13181,0.012052,0.024256,4.6891e-07,0.98,0.86,0
0.05,-0.0079988,0.027535,0.00027799,0.008344,-4.1372e-05,0,0,0.049897,-0.020972,0,-0.00021514,0,0,0,0.027535,0.00027793,0.008344,-0.086966,0.012052,0.024252,4.6876e-07,1,0.86,0
0,0,0.02825,0.012107,0.012107,-0.006698,0,0,0.041971,-4.3368e-19,0,-0.03483,0,0,0,0.030667,0.0096898,0.012107,-19.844,0.017488,0.019879,3.8343e-07,0,0.88,0
0.00083942,-0.00069659,0.028116,0.01047,0.011576,-0.0066185,0,0,0.043005,-0.0028752,0,-0.034416,0,0,0,0.030323,0.0082637,0.011576,-18.437,0.016721,0.020604,4.1036e-07,0.02,0.88,0
0.0017202,-0.0014084,0.028573,0.0088842,0.011237,-0.006451,0,0,0.045073,-0.0061176,0,-0.033545,0,0,0,0.030498,0.0069589,0.011237,-16.618,0.016231,0.021719,4.581e-07,0.04,0.88,0
0.0026423,-0.0021146,0.028952,0.0072993,0.010875,-0.0060332,0,0,0.047,-0.0092981,0,-0.031373,0,0,0,0.03052,0.0057317,0.010875,-14.565,0.015709,0.022659,4.9525e-07,0.06,0.88,0
0.0036002,-0.0027943,0.029205,0.0058811,0.010526,-0.0054235,0,0,0.048565,-0.012076,0,-0.028202,0,0,0,0.030404,0.0046816,0.010526,-12.471,0.015204,0.023356,5.1879e-07,0.08,0.88,0
0.004585,-0.0034316,0.029312,0.0047038,0.010205,-0.0047135,0,0,0.049678,-0.014302,0,-0.02451,0,0,0,0.030183,0.0038318,0.010205,-10.481,0.01474,0.023814,5.2975e-07,0.1,0.88,0
0.0055873,-0.0040171,0.029287,0.003767,0.0099161,-0.003985,0,0,0.050363,-0.015988,0,-0.020722,0,0,0,0.029895,0.0031593,0.0099161,-8.672,0.014323,0.024079,5.312e-07,0.12,0.88,0
0.0065995,-0.0045465,0.029165,0.0030358,0.0096602,-0.003292,0,0,0.050712,-0.017223,0,-0.017118,0,0,0,0.029573,0.0026274,0.0096602,-7.0714,0.013954,0.024208,5.2665e-07,0.14,0.88,0
0.0076158,-0.0050195,0.028984,0.0024671,0.0094355,-0.0026612,0,0,0.050827,-0.018118,0,-0.013838,0,0,0,0.029249,0.0022027,0.0094355,-5.6746,0.013629,0.024253,5.1895e-07,0.16,0.88,0
0.0086326,-0.005438,0.028778,0.0020232,0.0092402,-0.0021015,0,0,0.050797,-0.018764,0,-0.010928,0,0,0,0.028942,0.0018591,0.0092402,-4.464,0.013347,0.02425,5.1013e-07,0.18,0.88,0
0.0096477,-0.005805,0.028567,0.0016734,0.0090722,-0.0016117,0,0,0.050687,-0.019237,0,-0.0083811,0,0,0,0.028663,0.0015772,0.0090722,-3.4174,0.013104,0.024224,5.0141e-07,0.2,0.88,0
0.01066,-0.006124,0.028368,0.0013943,0.0089286,-0.0011864,0,0,0.050542,-0.019589,0,-0.0061695,0,0,0,0.02842,0.0013422,0.0089286,-2.5137,0.012897,0.024194,4.9352e-07,0.22,0.88,0
0.011669,-0.0063987,0.028189,0.0011679,0.0088069,-0.0008187,0,0,0.050392,-0.019862,0,-0.0042572,0,0,0,0.028213,0.0011431,0.0088069,-1.7339,0.012721,0.024168,4.868e-07,0.24,0.88,0
0.012676,-0.0066329,0.028034,0.00098072,0.0087043,-0.00050178,0,0,0.050256,-0.020081,0,-0.0026092,0,0,0,0.028043,0.00097142,0.0087043,-1.0622,0.012573,0.024152,4.8141e-07,0.26,0.88,0
0.01368,-0.0068302,0.027905,0.00082267,0.0086183,-0.00022972,0,0,0.050145,-0.020269,0,-0.0011945,0,0,0,0.027907,0.00082072,0.0086183,-0.48595,0.012449,0.024151,4.7738e-07,0.28,0.88,0
0.014682,-0.006994,0.027803,0.00068596,0.0085466,2.421e-06,0,0,0.050066,-0.020438,0,1.259e-05,0,0,0,0.027803,0.00068596,0.0085466,0.0051155,0.012345,0.024165,4.7465e-07,0.3,0.88,0
0.015682,-0.007128,0.027726,0.00056478,0.0084871,0.00019859,0,0,0.05002,-0.020598,0,0.0010326,0,0,0,0.027727,0.00056333,0.0084871,0.41889,0.012259,0.024195,4.7315e-07,0.32,0.88,0
0.016682,-0.0072353,0.027672,0.00045479,0.0084381,0.00036181,0,0,0.050008,-0.020757,0,0.0018814,0,0,0,0.027677,0.00044998,0.0084381,0.76147,0.012188,0.024241,4.7275e-07,0.34,0.88,0
0.017683,-0.0073194,0.02764,0.00035286,0.0083978,0.00049438,0,0,0.050029,-0.020917,0,0.0025708,0,0,0,0.027649,0.0003439,0.0083978,1.0376,0.01213,0.024301,4.7335e-07,0.36,0.88,0
0.018684,-0.0073834,0.027627,0.00025686,0.0083651,0.00059804,0,0,0.050081,-0.021081,0,0.0031098,0,0,0,0.02764,0.0002438,0.0083651,1.2511,0.012083,0.024372,4.7478e-07,0.38,0.88,0
0.019686,-0.0074304,0.02763,0.00016557,0.0083386,0.00067412,0,0,0.050157,-0.02125,0,0.0035054,0,0,0,0.027647,0.00014903,0.0083386,1.4052,0.012045,0.024454,4.7691e-07,0.4,0.88,0
0.02069,-0.0074635,0.027647,7.8483e-05,0.0083175,0.0007238,0,0,0.050255,-0.021421,0,0.0037638,0,0,0,0.027665,5.9493e-05,0.0083175,1.5029,0.012014,0.024542,4.7957e-07,0.42,0.88,0
0.021696,-0.0074857,0.027673,-4.2355e-06,0.0083008,0.00074822,0,0,0.050369,-0.021593,0,0.0038908,0,0,0,0.027694,-2.4448e-05,0.0083008,1.5474,0.01199,0.024634,4.8261e-07,0.44,0.88,0
0.022705,-0.0074998,0.027708,-8.1907e-05,0.0082878,0.00074868,0,0,0.050492,-0.021761,0,0.0038932,0,0,0,0.027728,-0.00010206,0.0082878,1.5421,0.011971,0.024727,4.8586e-07,0.46,0.88,0
0.023716,-0.0075086,0.027747,-0.00015346,0.008278,0.00072675,0,0,0.050619,-0.021922,0,0.0037791,0,0,0,0.027766,-0.00017237,0.008278,1.4911,0.011957,0.024816,4.8914e-07,0.48,0.88,0
0.024729,-0.0075144,0.027787,-0.00021756,0.0082708,0.00068436,0,0,0.050742,-0.02207,0,0.0035587,0,0,0,0.027804,-0.00023427,0.0082708,1.399,0.011947,0.0249,4.923e-07,0.5,0.88,0
0.025745,-0.0075197,0.027826,-0.00027281,0.008266,0.00062388,0,0,0.050856,-0.022201,0,0.0032442,0,0,0,0.02784,-0.00028666,0.008266,1.2713,0.01194,0.024974,4.952e-07,0.52,0.88,0
0.026764,-0.0075264,0.027862,-0.00031787,0.0082632,0.00054808,0,0,0.050957,-0.022311,0,0.00285,0,0,0,0.027873,-0.00032853,0.0082632,1.1138,0.011936,0.025036,4.977e-07,0.54,0.88,0
0.027784,-0.0075362,0.027892,-0.00035161,0.0082621,0.00046012,0,0,0.051037,-0.022395,0,0.0023927,0,0,0,0.027899,-0.00035911,0.0082621,0.9331,0.011934,0.025085,4.997e-07,0.56,0.88,0
0.028805,-0.0075505,0.027914,-0.00037326,0.0082624,0.00036347,0,0,0.051096,-0.022453,0,0.00189,0,0,0,0.027919,-0.00037793,0.0082624,0.73603,0.011935,0.025117,5.0111e-07,0.58,0.88,0
0.029827,-0.0075703,0.027929,-0.00038246,0.0082639,0.00026174,0,0,0.051129,-0.022481,0,0.001361,0,0,0,0.027931,-0.00038488,0.0082639,0.52964,0.011937,0.025134,5.0188e-07,0.6,0.88,0
0.03085,-0.0075962,0.027934,-0.00037937,0.0082664,0.00015858,0,0,0.051136,-0.022479,0,0.00082463,0,0,0,0.027935,-0.00038026,0.0082664,0.3209,0.01194,0.025133,5.0199e-07,0.62,0.88,0
0.031873,-0.0076287,0.02793,-0.00036462,0.0082696,5.754e-05,0,0,0.051117,-0.022449,0,0.00029921,0,0,0,0.02793,-0.00036474,0.0082696,0.11652,0.011945,0.025117,5.0145e-07,0.64,0.88,0
0.032895,-0.0076675,0.027917,-0.00033935,0.0082734,-3.8133e-05,0,0,0.051074,-0.022393,0,-0.00019829,0,0,0,0.027917,-0.0003394,0.0082734,-0.077322,0.01195,0.025085,5.003e-07,0.66,0.88,0
0.033916,-0.0077123,0.027897,-0.00030506,0.0082775,-0.00012558,0,0,0.05101,-0.022315,0,-0.00065303,0,0,0,0.027897,-0.00030562,0.0082775,-0.25513,0.011956,0.02504,4.9859e-07,0.68,0.88,0
0.034935,-0.0077626,0.027869,-0.00026357,0.0082816,-0.00020247,0,0,0.050927,-0.022217,0,-0.0010528,0,0,0,0.02787,-0.00026503,0.0082816,-0.41232,0.011962,0.024984,4.9641e-07,0.7,0.88,0
0.035953,-0.0078173,0.027836,-0.00021689,0.0082856,-0.00026702,0,0,0.05083,-0.022107,0,-0.0013885,0,0,0,0.027838,-0.00021944,0.0082856,-0.54532,0.011968,0.024918,4.9385e-07,0.72,0.88,0
0.036969,-0.0078755,0.027798,-0.00016706,0.0082893,-0.00031811,0,0,0.050723,-0.021987,0,-0.0016542,0,0,0,0.027802,-0.00017068,0.0082893,-0.65164,0.011973,0.024847,4.9102e-07,0.74,0.88,0
0.037982,-0.0079359,0.027758,-0.00011605,0.0082927,-0.00035517,0,0,0.050611,-0.021863,0,-0.0018469,0,0,0,0.027763,-0.00012058,0.0082927,-0.7299,0.011978,0.024772,4.8803e-07,0.76,0.88,0
0.038993,-0.0079973,0.027717,-6.5636e-05,0.0082955,-0.00037822,0,0,0.050497,-0.021739,0,-0.0019668,0,0,0,0.027722,-7.0784e-05,0.0082955,-0.7798,0.011982,0.024697,4.8498e-07,0.78,0.88,0
0.040002,-0.0080584,0.027676,-1.734e-05,0.0082977,-0.00038773,0,0,0.050385,-0.021619,0,-0.0020162,0,0,0,0.027682,-2.2767e-05,0.0082977,-0.80197,0.011986,0.024622,4.8197e-07,0.8,0.88,0
0.041008,-0.008118,0.027637,2.7632e-05,0.0082994,-0.00038457,0,0,0.050278,-0.021507,0,-0.0019997,0,0,0,0.027643,2.2276e-05,0.0082994,-0.79785,0.011988,0.024551,4.7907e-07,0.82,0.88,0
0.042013,-0.0081748,0.0276,6.8397e-05,0.0083006,-0.00036986,0,0,0.050179,-0.021404,0,-0.0019233,0,0,0,0.027605,6.3429e-05,0.0083006,-0.76952,0.01199,0.024485,4.7637e-07,0.84,0.88,0
0.043015,-0.0082276,0.027567,0.00010439,0.0083013,-0.00034493,0,0,0.05009,-0.021312,0,-0.0017936,0,0,0,0.027571,0.00010006,0.0083013,-0.7195,0.011991,0.024426,4.7391e-07,0.86,0.88,0
0.044017,-0.0082756,0.027536,0.00013531,0.0083015,-0.00031118,0,0,0.050011,-0.021232,0,-0.0016182,0,0,0,0.02754,0.00013177,0.0083015,-0.65057,0.011991,0.024373,4.7173e-07,0.88,0.88,0
0.045016,-0.0083177,0.027511,0.00016108,0.0083016,-0.00027005,0,0,0.049944,-0.021165,0,-0.0014043,0,0,0,0.027513,0.00015841,0.0083016,-0.56566,0.011991,0.024328,4.6987e-07,0.9,0.88,0
0.046014,-0.0083532,0.02749,0.00018178,0.0083014,-0.00022292,0,0,0.049889,-0.021111,0,-0.0011592,0,0,0,0.027491,0.00017996,0.0083014,-0.46769,0.011991,0.024291,4.6833e-07,0.92,0.88,0
0.047011,-0.0083815,0.027473,0.00019757,0.0083011,-0.00017113,0,0,0.049847,-0.021069,0,-0.0008899,0,0,0,0.027474,0.0001965,0.0083011,-0.35947,0.01199,0.024263,4.6714e-07,0.94,0.88,0
0.048008,-0.0084021,0.027461,0.00020866,0.0083009,-0.00011594,0,0,0.049816,-0.02104,0,-0.00060288,0,0,0,0.027461,0.00020817,0.0083009,-0.24374,0.01199,0.024242,4.6628e-07,0.96,0.88,0
0.049004,-0.0084145,0.027454,0.00021524,0.0083007,-5.8517e-05,0,0,0.049798,-0.021022,0,-0.00030429,0,0,0,0.027454,0.00021511,0.0083007,-0.12309,0.01199,0.02423,4.6577e-07,0.98,0.88,0
0.05,-0.0084187,0.027451,0.00021741,0.0083006,-4.0203e-05,0,0,0.049792,-0.021016,0,-0.00020906,0,0,0,0.027452,0.00021735,0.0083006,-0.08458,0.01199,0.024226,4.656e-07,1,0.88,0
0,0,0.028894,0.012383,0.012383,-0.007293,0,0,0.042929,4.3368e-19,0,-0.037924,0,0,0,0.031654,0.0096233,0.012383,-20.729,0.017887,0.020789,4.3415e-07,0,0.9,0
0.00085857,-0.00075847,0.028726,0.010428,0.011746,-0.0071711,0,0,0.044147,-0.0034273,0,-0.03729,0,0,0,0.031201,0.0079524,0.011746,-19.045,0.016967,0.021603,4.6446e-07,0.02,0.9,0
0.0017659,-0.0015407,0.029204,0.0084762,0.011304,-0.0069242,0,0,0.046541,-0.0073528,0,-0.036006,0,0,0,0.031305,0.0063759,0.011304,-16.873,0.016328,0.022866,5.1922e-07,0.04,0.9,0
0.0027202,-0.0023149,0.029556,0.0066117,0.01085,-0.0063283,0,0,0.048635,-0.011021,0,-0.032907,0,0,0,0.031186,0.004982,0.01085,-14.441,0.015673,0.023818,5.5453e-07,0.06,0.9,0
0.0037113,-0.0030523,0.029717,0.0050677,0.010435,-0.0055144,0,0,0.050132,-0.013956,0,-0.028675,0,0,0,0.030894,0.0038903,0.010435,-12.053,0.015073,0.024399,5.6896e-07,0.08,0.9,0
0.0047255,-0.0037341,0.029679,0.0038863,0.01007,-0.0046338,0,0,0.050985,-0.016077,0,-0.024096,0,0,0,0.030486,0.0030791,0.01007,-9.8818,0.014545,0.024667,5.6719e-07,0.1,0.9,0
0.0057507,-0.0043517,0.02949,0.0030112,0.0097504,-0.0037938,0,0,0.051323,-0.017522,0,-0.019728,0,0,0,0.030023,0.0024784,0.0097504,-7.9949,0.014084,0.024724,5.5582e-07,0.12,0.9,0
0.0067784,-0.0049037,0.029213,0.002364,0.0094731,-0.0030434,0,0,0.051324,-0.018484,0,-0.015825,0,0,0,0.029554,0.0020234,0.0094731,-6.3866,0.013683,0.024664,5.402e-07,0.14,0.9,0
0.0078036,-0.0053924,0.028904,0.0018821,0.0092357,-0.0023946,0,0,0.051137,-0.019119,0,-0.012452,0,0,0,0.029114,0.0016715,0.0092357,-5.0252,0.01334,0.024551,5.2385e-07,0.16,0.9,0
0.0088239,-0.0058217,0.028598,0.0015185,0.0090349,-0.0018419,0,0,0.050864,-0.019543,0,-0.0095779,0,0,0,0.028723,0.0013938,0.0090349,-3.8734,0.01305,0.024422,5.0864e-07,0.18,0.9,0
0.0098382,-0.0061964,0.028317,0.0012399,0.0088671,-0.0013737,0,0,0.05057,-0.019831,0,-0.0071433,0,0,0,0.028387,0.0011703,0.0088671,-2.8969,0.012808,0.0243,4.9539e-07,0.2,0.9,0
0.010847,-0.006521,0.028071,0.0010224,0.008728,-0.00097751,0,0,0.050292,-0.020035,0,-0.005083,0,0,0,0.028106,0.00098709,0.008728,-2.067,0.012607,0.024196,4.844e-07,0.22,0.9,0
0.01185,-0.0067999,0.027864,0.00084916,0.0086139,-0.000642,0,0,0.05005,-0.020188,0,-0.0033384,0,0,0,0.027879,0.00083391,0.0086139,-1.3606,0.012442,0.024115,4.7566e-07,0.24,0.9,0
0.012849,-0.0070375,0.027696,0.00070804,0.0085211,-0.00035778,0,0,0.049854,-0.020314,0,-0.0018605,0,0,0,0.0277,0.0007033,0.0085211,-0.75941,0.012308,0.02406,4.6904e-07,0.26,0.9,0
0.013844,-0.0072377,0.027565,0.00059021,0.0084464,-0.00011732,0,0,0.049707,-0.020426,0,-0.00061009,0,0,0,0.027565,0.00058969,0.0084464,-0.2492,0.0122,0.02403,4.6434e-07,0.28,0.9,0
0.014837,-0.0074043,0.027468,0.00048918,0.0083873,8.5218e-05,0,0,0.049611,-0.020535,0,0.00044313,0,0,0,0.027469,0.00048891,0.0083873,0.18098,0.012115,0.024025,4.6136e-07,0.3,0.9,0
0.015828,-0.0075409,0.027403,0.00040022,0.008341,0.0002543,0,0,0.049562,-0.020646,0,0.0013223,0,0,0,0.027406,0.00039783,0.008341,0.53951,0.012048,0.024041,4.5989e-07,0.32,0.9,0
0.016819,-0.0076509,0.027366,0.00031986,0.0083058,0.00039325,0,0,0.049557,-0.020763,0,0.0020449,0,0,0,0.027372,0.00031414,0.0083058,0.83284,0.011997,0.024078,4.5974e-07,0.34,0.9,0
0.017811,-0.0077378,0.027353,0.00024564,0.0082796,0.00050453,0,0,0.049591,-0.020888,0,0.0026236,0,0,0,0.027362,0.00023625,0.0082796,1.0659,0.011959,0.024132,4.6071e-07,0.36,0.9,0
0.018803,-0.0078047,0.02736,0.00017593,0.0082609,0.00059,0,0,0.049659,-0.021021,0,0.003068,0,0,0,0.027373,0.00016313,0.0082609,1.2427,0.011932,0.0242,4.6262e-07,0.38,0.9,0
0.019797,-0.0078548,0.027385,0.00010975,0.0082484,0.00065108,0,0,0.049755,-0.02116,0,0.0033856,0,0,0,0.0274,9.4214e-05,0.0082484,1.3667,0.011914,0.024279,4.6527e-07,0.4,0.9,0
0.020793,-0.007891,0.027423,4.6722e-05,0.0082408,0.00068898,0,0,0.049873,-0.021305,0,0.0035827,0,0,0,0.02744,2.9393e-05,0.0082408,1.4408,0.011903,0.024366,4.6849e-07,0.42,0.9,0
0.021792,-0.0079163,0.027471,-1.3055e-05,0.0082373,0.00070486,0,0,0.050007,-0.021451,0,0.0036653,0,0,0,0.027489,-3.1121e-05,0.0082373,1.4682,0.011898,0.024457,4.721e-07,0.44,0.9,0
0.022794,-0.0079335,0.027525,-6.9104e-05,0.0082368,0.00069999,0,0,0.050149,-0.021595,0,0.0036399,0,0,0,0.027543,-8.685e-05,0.0082368,1.4522,0.011898,0.02455,4.7592e-07,0.46,0.9,0
0.023798,-0.0079452,0.027583,-0.00012066,0.0082387,0.00067581,0,0,0.050295,-0.021734,0,0.0035142,0,0,0,0.027599,-0.00013713,0.0082387,1.3966,0.0119,0.02464,4.7978e-07,0.48,0.9,0
0.024805,-0.0079538,0.027641,-0.00016677,0.0082422,0.0006341,0,0,0.050437,-0.021863,0,0.0032973,0,0,0,0.027655,-0.00018122,0.0082422,1.3056,0.011905,0.024726,4.8351e-07,0.5,0.9,0
0.025815,-0.0079614,0.027696,-0.00020644,0.008247,0.00057694,0,0,0.050569,-0.021979,0,0.0030001,0,0,0,0.027708,-0.00021836,0.008247,1.184,0.011912,0.024802,4.8698e-07,0.52,0.9,0
0.026828,-0.0079702,0.027747,-0.0002387,0.0082525,0.00050677,0,0,0.050686,-0.022077,0,0.0026352,0,0,0,0.027756,-0.00024787,0.0082525,1.0371,0.01192,0.024868,4.9004e-07,0.54,0.9,0
0.027843,-0.0079816,0.02779,-0.00026276,0.0082583,0.00042633,0,0,0.050784,-0.022155,0,0.0022169,0,0,0,0.027797,-0.00026923,0.0082583,0.87047,0.011929,0.024922,4.9259e-07,0.56,0.9,0
0.028859,-0.007997,0.027825,-0.00027805,0.0082642,0.00033859,0,0,0.050859,-0.02221,0,0.0017607,0,0,0,0.027829,-0.00028213,0.0082642,0.69017,0.011937,0.024961,4.9455e-07,0.58,0.9,0
0.029877,-0.0080173,0.02785,-0.00028433,0.0082698,0.00024667,0,0,0.050909,-0.022241,0,0.0012827,0,0,0,0.027852,-0.0002865,0.0082698,0.50228,0.011945,0.024985,4.9586e-07,0.6,0.9,0
0.030896,-0.0080434,0.027865,-0.00028171,0.0082749,0.00015368,0,0,0.050934,-0.022247,0,0.00079913,0,0,0,0.027866,-0.00028255,0.0082749,0.31282,0.011953,0.024993,4.9649e-07,0.62,0.9,0
0.031915,-0.0080753,0.027869,-0.00027064,0.0082795,6.2664e-05,0,0,0.050932,-0.02223,0,0.00032585,0,0,0,0.027869,-0.00027078,0.0082795,0.12759,0.011959,0.024987,4.9644e-07,0.64,0.9,0
0.032933,-0.0081132,0.027862,-0.00025192,0.0082832,-2.358e-05,0,0,0.050906,-0.022191,0,-0.00012261,0,0,0,0.027862,-0.00025194,0.0082832,-0.048054,0.011965,0.024966,4.9575e-07,0.66,0.9,0
0.033951,-0.0081567,0.027847,-0.00022665,0.008286,-0.00010259,0,0,0.050858,-0.022133,0,-0.00053345,0,0,0,0.027847,-0.00022702,0.008286,-0.20937,0.011969,0.024932,4.9446e-07,0.68,0.9,0
0.034967,-0.0082052,0.027822,-0.00019611,0.0082879,-0.00017232,0,0,0.05079,-0.022058,0,-0.00089605,0,0,0,0.027824,-0.00019717,0.0082879,-0.35236,0.011971,0.024888,4.9266e-07,0.7,0.9,0
0.035982,-0.008258,0.027791,-0.00016174,0.0082888,-0.00023122,0,0,0.050706,-0.021971,0,-0.0012023,0,0,0,0.027793,-0.00016365,0.0082888,-0.47389,0.011973,0.024834,4.9042e-07,0.72,0.9,0
0.036996,-0.008314,0.027754,-0.00012502,0.0082887,-0.00027823,0,0,0.05061,-0.021876,0,-0.0014468,0,0,0,0.027757,-0.0001278,0.0082887,-0.57173,0.011973,0.024773,4.8786e-07,0.74,0.9,0
0.038007,-0.0083722,0.027713,-8.7371e-05,0.0082878,-0.00031283,0,0,0.050506,-0.021775,0,-0.0016267,0,0,0,0.027717,-9.089e-05,0.0082878,-0.64462,0.011971,0.024708,4.8506e-07,0.76,0.9,0
0.039016,-0.0084314,0.02767,-5.0083e-05,0.008286,-0.00033494,0,0,0.050398,-0.021674,0,-0.0017417,0,0,0,0.027674,-5.4129e-05,0.008286,-0.69217,0.011969,0.02464,4.8214e-07,0.78,0.9,0
0.040023,-0.0084904,0.027626,-1.4274e-05,0.0082835,-0.00034491,0,0,0.05029,-0.021574,0,-0.0017935,0,0,0,0.02763,-1.8577e-05,0.0082835,-0.71482,0.011965,0.024573,4.792e-07,0.8,0.9,0
0.041028,-0.0085479,0.027582,1.9162e-05,0.0082804,-0.00034342,0,0,0.050185,-0.021479,0,-0.0017858,0,0,0,0.027587,1.4884e-05,0.0082804,-0.71372,0.011961,0.024508,4.7631e-07,0.82,0.9,0
0.04203,-0.0086027,0.02754,4.956e-05,0.008277,-0.0003314,0,0,0.050085,-0.021391,0,-0.0017233,0,0,0,0.027544,4.5566e-05,0.008277,-0.69056,0.011956,0.024446,4.7357e-07,0.84,0.9,0
0.043031,-0.0086539,0.027502,7.6479e-05,0.0082734,-0.00030998,0,0,0.049993,-0.021312,0,-0.0016119,0,0,0,0.027505,7.2976e-05,0.0082734,-0.6475,0.01195,0.024389,4.7103e-07,0.86,0.9,0
0.04403,-0.0087004,0.027466,9.9675e-05,0.0082698,-0.00028038,0,0,0.049911,-0.021242,0,-0.001458,0,0,0,0.027469,9.6803e-05,0.0082698,-0.58694,0.011945,0.024338,4.6874e-07,0.88,0.9,0
0.045027,-0.0087413,0.027436,0.00011906,0.0082664,-0.00024386,0,0,0.04984,-0.021183,0,-0.0012681,0,0,0,0.027438,0.00011689,0.0082664,-0.51144,0.01194,0.024294,4.6676e-07,0.9,0.9,0
0.046023,-0.0087758,0.02741,0.00013468,0.0082633,-0.00020168,0,0,0.04978,-0.021134,0,-0.0010487,0,0,0,0.027411,0.00013319,0.0082633,-0.42362,0.011936,0.024257,4.651e-07,0.92,0.9,0
0.047018,-0.0088032,0.027389,0.00014662,0.0082607,-0.00015505,0,0,0.049734,-0.021097,0,-0.00080624,0,0,0,0.02739,0.00014574,0.0082607,-0.32607,0.011932,0.024228,4.6379e-07,0.94,0.9,0
0.048013,-0.0088232,0.027374,0.00015503,0.0082588,-0.00010515,0,0,0.0497,-0.02107,0,-0.00054677,0,0,0,0.027375,0.00015462,0.0082588,-0.22133,0.011929,0.024208,4.6285e-07,0.96,0.9,0
0.049007,-0.0088354,0.027365,0.00016002,0.0082576,-5.3105e-05,0,0,0.04968,-0.021054,0,-0.00027614,0,0,0,0.027365,0.00015991,0.0082576,-0.11184,0.011928,0.024195,4.6228e-07,0.98,0.9,0
0.05,-0.0088394,0.027362,0.00016167,0.0082572,-3.9133e-05,0,0,0.049673,-0.021048,0,-0.00020349,0,0,0,0.027362,0.00016161,0.0082572,-0.08243,0.011927,0.024191,4.621e-07,1,0.9,0
0,0,0.029902,0.012815,0.012815,-0.0080162,0,0,0.044426,-6.5052e-19,0,-0.041684,0,0,0,0.033074,0.0096432,0.012815,-21.588,0.018511,0.022017,5.0999e-07,0,0.92,0
0.00088852,-0.00083368,0.029652,0.01033,0.011994,-0.0078064,0,0,0.04591,-0.0043286,0,-0.040593,0,0,0,0.032412,0.00757,0.011994,-19.469,0.017325,0.022952,5.4399e-07,0.02,0.92,0
0.0018364,-0.0017026,0.030121,0.0078096,0.011379,-0.0073832,0,0,0.048728,-0.0092806,0,-0.038393,0,0,0,0.032343,0.0055876,0.011379,-16.749,0.016436,0.024381,6.051e-07,0.04,0.92,0
0.0028376,-0.0025554,0.030378,0.0056264,0.010801,-0.0064852,0,0,0.0509,-0.013455,0,-0.033723,0,0,0,0.031975,0.0040302,0.010801,-13.828,0.015602,0.025249,6.3063e-07,0.06,0.92,0
0.0038724,-0.0033525,0.030341,0.0040365,0.010313,-0.0053834,0,0,0.052073,-0.01632,0,-0.027994,0,0,0,0.0314,0.0029774,0.010313,-11.13,0.014897,0.025557,6.2519e-07,0.08,0.92,0
0.0049205,-0.0040747,0.030051,0.0029577,0.0099027,-0.0043224,0,0,0.052386,-0.018057,0,-0.022477,0,0,0,0.030724,0.0022849,0.0099027,-8.8483,0.014304,0.025499,6.0225e-07,0.1,0.92,0
0.0059678,-0.004718,0.029611,0.0022131,0.0095471,-0.0034024,0,0,0.052165,-0.019068,0,-0.017693,0,0,0,0.030027,0.0017969,0.0095471,-6.9743,0.01379,0.025263,5.7291e-07,0.12,0.92,0
0.0070072,-0.0052858,0.029132,0.0016924,0.0092473,-0.0026396,0,0,0.0517,-0.019643,0,-0.013726,0,0,0,0.029383,0.0014408,0.0092473,-5.4451,0.013357,0.024972,5.4421e-07,0.14,0.92,0
0.0080358,-0.0057843,0.028676,0.0013206,0.0089989,-0.0020156,0,0,0.05116,-0.019963,0,-0.010481,0,0,0,0.028823,0.0011729,0.0089989,-4.1915,0.012998,0.024686,5.1895e-07,0.16,0.92,0
0.0090535,-0.0062197,0.028271,0.0010492,0.0087961,-0.0015058,0,0,0.050635,-0.020142,0,-0.0078302,0,0,0,0.028354,0.00096619,0.0087961,-3.1565,0.012705,0.024433,4.9795e-07,0.18,0.92,0
0.010061,-0.0065982,0.027928,0.00084658,0.0086324,-0.0010874,0,0,0.050169,-0.020243,0,-0.0056543,0,0,0,0.027972,0.00080298,0.0086324,-2.2956,0.012469,0.024222,4.811e-07,0.2,0.92,0
0.01106,-0.0069254,0.027648,0.00069164,0.0085018,-0.00074175,0,0,0.049779,-0.020306,0,-0.0038571,0,0,0,0.027668,0.00067124,0.0085018,-1.575,0.01228,0.024057,4.6801e-07,0.22,0.92,0
0.012052,-0.0072063,0.027426,0.00057022,0.0083989,-0.00045456,0,0,0.049471,-0.020355,0,-0.0023637,0,0,0,0.027434,0.00056253,0.0083989,-0.96941,0.012132,0.023935,4.5819e-07,0.24,0.92,0
0.013039,-0.0074455,0.027258,0.00047256,0.0083192,-0.00021493,0,0,0.049241,-0.020401,0,-0.0011177,0,0,0,0.02726,0.00047084,0.0083192,-0.45972,0.012017,0.023853,4.5118e-07,0.26,0.92,0
0.014022,-0.0076472,0.027138,0.0003918,0.0082588,-1.4755e-05,0,0,0.049085,-0.020454,0,-7.6724e-05,0,0,0,0.027138,0.00039179,0.0082588,-0.031608,0.011929,0.023808,4.4657e-07,0.28,0.92,0
0.015003,-0.0078154,0.027059,0.00032305,0.0082146,0.00015199,0,0,0.048995,-0.020518,0,0.00079033,0,0,0,0.02706,0.00032219,0.0082146,0.3257,0.011866,0.023794,4.4399e-07,0.3,0.92,0
0.015982,-0.0079538,0.027017,0.0002628,0.0081838,0.00028969,0,0,0.048965,-0.020595,0,0.0015064,0,0,0,0.02702,0.00025966,0.0081838,0.6203,0.011821,0.023808,4.4315e-07,0.32,0.92,0
0.016961,-0.0080659,0.027005,0.00020853,0.0081642,0.00040157,0,0,0.048987,-0.020685,0,0.0020882,0,0,0,0.027011,0.00020252,0.0081642,0.85836,0.011793,0.023847,4.4377e-07,0.34,0.92,0
0.017941,-0.0081549,0.02702,0.00015849,0.0081536,0.00048995,0,0,0.049053,-0.020787,0,0.0025477,0,0,0,0.027029,0.00014956,0.0081536,1.0446,0.011777,0.023904,4.4559e-07,0.36,0.92,0
0.018923,-0.0082242,0.027056,0.00011153,0.0081504,0.00055653,0,0,0.049155,-0.020901,0,0.002894,0,0,0,0.027068,0.00010004,0.0081504,1.1827,0.011773,0.023978,4.4841e-07,0.38,0.92,0
0.019908,-0.0082768,0.02711,6.6954e-05,0.008153,0.00060263,0,0,0.049287,-0.021024,0,0.0031337,0,0,0,0.027123,5.3532e-05,0.008153,1.276,0.011777,0.024065,4.52e-07,0.4,0.92,0
0.020895,-0.0083157,0.027176,2.451e-05,0.0081601,0.00062935,0,0,0.049441,-0.021153,0,0.0032726,0,0,0,0.02719,9.9299e-06,0.0081601,1.3271,0.011787,0.024159,4.5617e-07,0.42,0.92,0
0.021885,-0.0083438,0.027251,-1.5742e-05,0.0081706,0.0006377,0,0,0.049609,-0.021284,0,0.0033161,0,0,0,0.027266,-3.0649e-05,0.0081706,1.339,0.011802,0.024259,4.6071e-07,0.44,0.92,0
0.022879,-0.0083637,0.027331,-5.3473e-05,0.0081834,0.00062881,0,0,0.049785,-0.021416,0,0.0032698,0,0,0,0.027346,-6.7904e-05,0.0081834,1.3147,0.01182,0.02436,4.6545e-07,0.46,0.92,0
0.023877,-0.0083779,0.027413,-8.8158e-05,0.0081976,0.00060392,0,0,0.049961,-0.021543,0,0.0031404,0,0,0,0.027427,-0.00010141,0.0081976,1.2574,0.011841,0.024458,4.7019e-07,0.48,0.92,0
0.024878,-0.008389,0.027494,-0.00011915,0.0082124,0.00056454,0,0,0.050132,-0.021662,0,0.0029356,0,0,0,0.027505,-0.00013069,0.0082124,1.1707,0.011862,0.024552,4.7479e-07,0.5,0.92,0
0.025882,-0.0083988,0.02757,-0.00014578,0.0082272,0.00051243,0,0,0.050291,-0.02177,0,0.0026647,0,0,0,0.027579,-0.00015525,0.0082272,1.0589,0.011884,0.024637,4.7907e-07,0.52,0.92,0
0.026889,-0.0084094,0.027639,-0.00016738,0.0082414,0.00044966,0,0,0.050433,-0.021863,0,0.0023382,0,0,0,0.027646,-0.00017465,0.0082414,0.92622,0.011904,0.024712,4.829e-07,0.54,0.92,0
0.027899,-0.0084224,0.027699,-0.00018342,0.0082545,0.00037851,0,0,0.050554,-0.021939,0,0.0019682,0,0,0,0.027704,-0.00018855,0.0082545,0.77761,0.011923,0.024774,4.8618e-07,0.56,0.92,0
0.028911,-0.0084388,0.027748,-0.00019351,0.0082662,0.00030145,0,0,0.050651,-0.021995,0,0.0015675,0,0,0,0.027751,-0.00019676,0.0082662,0.61805,0.01194,0.024823,4.8881e-07,0.58,0.92,0
0.029925,-0.0084599,0.027785,-0.00019749,0.0082761,0.00022108,0,0,0.050722,-0.022031,0,0.0011496,0,0,0,0.027786,-0.00019923,0.0082761,0.45265,0.011954,0.024856,4.9073e-07,0.6,0.92,0
0.03094,-0.0084861,0.027809,-0.00019541,0.0082841,0.00014002,0,0,0.050765,-0.022047,0,0.00072811,0,0,0,0.02781,-0.00019611,0.0082841,0.28647,0.011966,0.024875,4.9191e-07,0.62,0.92,0
0.031956,-0.0085179,0.027821,-0.00018761,0.00829,6.0786e-05,0,0,0.05078,-0.022042,0,0.00031609,0,0,0,0.027821,-0.00018774,0.00829,0.12435,0.011975,0.024878,4.9236e-07,0.64,0.92,0
0.032971,-0.0085551,0.027821,-0.0001746,0.0082938,-1.4283e-05,0,0,0.05077,-0.022018,0,-7.4271e-05,0,0,0,0.027821,-0.0001746,0.0082938,-0.029232,0.01198,0.024867,4.9209e-07,0.66,0.92,0
0.033987,-0.0085977,0.027809,-0.00015711,0.0082955,-8.3118e-05,0,0,0.050734,-0.021977,0,-0.00043221,0,0,0,0.027809,-0.00015736,0.0082955,-0.17029,0.011982,0.024843,4.9115e-07,0.68,0.92,0
0.035001,-0.0086449,0.027786,-0.00013604,0.0082951,-0.000144,0,0,0.050678,-0.021921,0,-0.00074878,0,0,0,0.027787,-0.00013678,0.0082951,-0.29546,0.011982,0.024807,4.8962e-07,0.7,0.92,0
0.036014,-0.0086961,0.027755,-0.00011234,0.0082929,-0.00019559,0,0,0.050602,-0.021854,0,-0.0010171,0,0,0,0.027757,-0.00011371,0.0082929,-0.40211,0.011979,0.024762,4.8759e-07,0.72,0.92,0
0.037025,-0.0087505,0.027717,-8.7012e-05,0.008289,-0.000237,0,0,0.050513,-0.021778,0,-0.0012324,0,0,0,0.027719,-8.9032e-05,0.008289,-0.48834,0.011973,0.024708,4.8515e-07,0.74,0.92,0
0.038034,-0.0088069,0.027673,-6.102e-05,0.0082837,-0.00026773,0,0,0.050413,-0.021696,0,-0.0013922,0,0,0,0.027676,-6.3604e-05,0.0082837,-0.55303,0.011965,0.02465,4.8241e-07,0.76,0.92,0
0.039041,-0.0088643,0.027626,-3.525e-05,0.0082772,-0.00028769,0,0,0.050306,-0.021612,0,-0.001496,0,0,0,0.027629,-3.8242e-05,0.0082772,-0.59582,0.011956,0.024588,4.7949e-07,0.78,0.92,0
0.040046,-0.0089214,0.027576,-1.0467e-05,0.0082698,-0.00029712,0,0,0.050197,-0.021529,0,-0.0015451,0,0,0,0.02758,-1.3667e-05,0.0082698,-0.61701,0.011945,0.024524,4.7648e-07,0.8,0.92,0
0.041049,-0.0089771,0.027527,1.2712e-05,0.0082618,-0.00029658,0,0,0.050089,-0.021448,0,-0.0015422,0,0,0,0.02753,9.5154e-06,0.0082618,-0.61752,0.011934,0.024462,4.7348e-07,0.82,0.92,0
0.04205,-0.0090304,0.027478,3.3822e-05,0.0082537,-0.00028684,0,0,0.049984,-0.021372,0,-0.0014916,0,0,0,0.027481,3.0825e-05,0.0082537,-0.59874,0.011922,0.024401,4.7059e-07,0.84,0.92,0
0.043049,-0.0090801,0.027433,5.2551e-05,0.0082456,-0.00026882,0,0,0.049887,-0.021302,0,-0.0013978,0,0,0,0.027435,4.9912e-05,0.0082456,-0.56246,0.01191,0.024345,4.6787e-07,0.86,0.92,0
0.044046,-0.0091253,0.027391,6.8719e-05,0.0082379,-0.00024355,0,0,0.049798,-0.02124,0,-0.0012665,0,0,0,0.027393,6.6548e-05,0.0082379,-0.51069,0.011899,0.024294,4.654e-07,0.88,0.92,0
0.045041,-0.009165,0.027354,8.2258e-05,0.0082308,-0.00021213,0,0,0.04972,-0.021186,0,-0.0011031,0,0,0,0.027355,8.0608e-05,0.0082308,-0.44564,0.011889,0.02425,4.6323e-07,0.9,0.92,0
0.046034,-0.0091986,0.027322,9.318e-05,0.0082247,-0.00017564,0,0,0.049654,-0.021142,0,-0.00091333,0,0,0,0.027324,9.2047e-05,0.0082247,-0.36956,0.01188,0.024212,4.6141e-07,0.92,0.92,0
0.047027,-0.0092254,0.027297,0.00010155,0.0082197,-0.00013516,0,0,0.049602,-0.021107,0,-0.00070281,0,0,0,0.027298,0.00010087,0.0082197,-0.28474,0.011873,0.024182,4.5996e-07,0.94,0.92,0
0.048018,-0.0092449,0.027279,0.00010744,0.008216,-9.1721e-05,0,0,0.049564,-0.021082,0,-0.00047695,0,0,0,0.02728,0.00010713,0.008216,-0.1934,0.011868,0.024161,4.589e-07,0.96,0.92,0
0.049009,-0.0092567,0.027268,0.00011094,0.0082137,-4.6342e-05,0,0,0.049542,-0.021067,0,-0.00024098,0,0,0,0.027268,0.00011086,0.0082137,-0.097771,0.011864,0.024148,4.5826e-07,0.98,0.92,0
0.05,-0.0092607,0.027265,0.0001121,0.008213,-3.8146e-05,0,0,0.049534,-0.021062,0,-0.00019836,0,0,0,0.027265,0.00011204,0.008213,-0.080495,0.011863,0.024144,4.5805e-07,1,0.92,0
0,0,0.031547,0.01352,0.01352,-0.0089579,0,0,0.04687,-1.301e-18,0,-0.046581,0,0,0,0.035242,0.0098261,0.01352,-22.411,0.019529,0.023785,6.3521e-07,0,0.94,0
0.00093741,-0.00093162,0.031113,0.010037,0.012345,-0.0085132,0,0,0.048798,-0.0060017,0,-0.044269,0,0,0,0.034122,0.0070276,0.012345,-19.466,0.017832,0.024866,6.6956e-07,0.02,0.94,0
0.0019519,-0.0019119,0.031458,0.0066128,0.011421,-0.0077139,0,0,0.052096,-0.012502,0,-0.040113,0,0,0,0.033658,0.0044126,0.011421,-15.919,0.016497,0.026447,7.2991e-07,0.04,0.94,0
0.0030212,-0.0028531,0.03146,0.0042087,0.0107,-0.0062761,0,0,0.053974,-0.016879,0,-0.032636,0,0,0,0.032836,0.0028327,0.0107,-12.366,0.015456,0.026945,7.2343e-07,0.06,0.94,0
0.0041109,-0.0037051,0.031039,0.0028524,0.010167,-0.0048524,0,0,0.054265,-0.019019,0,-0.025232,0,0,0,0.03185,0.0020405,0.010167,-9.4996,0.014686,0.026691,6.8006e-07,0.08,0.94,0
0.0051918,-0.0044563,0.030295,0.0019946,0.0096869,-0.0036776,0,0,0.053581,-0.02,0,-0.019124,0,0,0,0.030765,0.0015245,0.0096869,-7.2844,0.013992,0.026134,6.2425e-07,0.1,0.94,0
0.0062541,-0.0051144,0.029518,0.0014439,0.0092887,-0.0027707,0,0,0.052597,-0.020396,0,-0.014408,0,0,0,0.029789,0.0011731,0.0092887,-5.5829,0.013417,0.025544,5.738e-07,0.12,0.94,0
0.0072957,-0.0056894,0.028816,0.0010771,0.0089679,-0.0020743,0,0,0.051605,-0.020516,0,-0.010786,0,0,0,0.02897,0.00092285,0.0089679,-4.2529,0.012954,0.025015,5.3251e-07,0.14,0.94,0
0.0083183,-0.0061909,0.028223,0.00082513,0.0087144,-0.0015347,0,0,0.050722,-0.020512,0,-0.0079805,0,0,0,0.028309,0.00073943,0.0087144,-3.1962,0.012587,0.024572,5.002e-07,0.16,0.94,0
0.0093246,-0.0066274,0.027741,0.00064662,0.0085164,-0.0011105,0,0,0.049985,-0.020461,0,-0.0057746,0,0,0,0.027787,0.00060119,0.0085164,-2.3431,0.012301,0.024218,4.7549e-07,0.18,0.94,0
0.010318,-0.0070061,0.027361,0.00051639,0.0083633,-0.00077185,0,0,0.049395,-0.020402,0,-0.0040136,0,0,0,0.027384,0.00049421,0.0083633,-1.6456,0.01208,0.023945,4.5696e-07,0.2,0.94,0
0.0113,-0.0073332,0.027071,0.0004186,0.0082468,-0.0004978,0,0,0.048942,-0.020353,0,-0.0025886,0,0,0,0.02708,0.0004093,0.0082468,-1.0696,0.011912,0.023743,4.434e-07,0.22,0.94,0
0.012275,-0.0076141,0.026857,0.00034303,0.0081599,-0.00027358,0,0,0.048612,-0.020324,0,-0.0014226,0,0,0,0.02686,0.0003402,0.0081599,-0.59111,0.011787,0.023602,4.3384e-07,0.24,0.94,0
0.013245,-0.0078536,0.026708,0.00028289,0.0080973,-8.8734e-05,0,0,0.048388,-0.020317,0,-0.00046142,0,0,0,0.026708,0.00028259,0.0080973,-0.19239,0.011696,0.023513,4.2755e-07,0.26,0.94,0
0.014211,-0.0080559,0.026615,0.00023353,0.0080546,6.4154e-05,0,0,0.048257,-0.020335,0,0.0003336,0,0,0,0.026615,0.00023337,0.0080546,0.13933,0.011634,0.02347,4.2393e-07,0.28,0.94,0
0.015175,-0.008225,0.026569,0.00019172,0.0080282,0.00019038,0,0,0.048206,-0.020375,0,0.00098996,0,0,0,0.02657,0.00019035,0.0080282,0.4135,0.011596,0.023464,4.2254e-07,0.3,0.94,0
0.016139,-0.0083647,0.026562,0.00015519,0.0080152,0.0002937,0,0,0.048222,-0.020436,0,0.0015272,0,0,0,0.026566,0.00015192,0.0080152,0.63713,0.011578,0.023491,4.2298e-07,0.32,0.94,0
0.017104,-0.0084783,0.026589,0.00012233,0.0080132,0.00037678,0,0,0.048296,-0.020516,0,0.0019593,0,0,0,0.026594,0.00011696,0.0080132,0.81546,0.011575,0.023544,4.2494e-07,0.34,0.94,0
0.018071,-0.0085693,0.026641,9.2014e-05,0.0080201,0.00044152,0,0,0.048416,-0.020613,0,0.0022959,0,0,0,0.026649,8.4674e-05,0.0080201,0.95249,0.011584,0.023618,4.2815e-07,0.36,0.94,0
0.019041,-0.0086407,0.026716,6.3537e-05,0.0080338,0.00048929,0,0,0.048573,-0.020723,0,0.0025443,0,0,0,0.026725,5.4557e-05,0.0080338,1.0514,0.011604,0.02371,4.3236e-07,0.38,0.94,0
0.020014,-0.0086957,0.026807,3.6477e-05,0.0080529,0.0005211,0,0,0.04876,-0.020843,0,0.0027097,0,0,0,0.026817,2.6338e-05,0.0080529,1.1147,0.011632,0.023814,4.3733e-07,0.4,0.94,0
0.020991,-0.0087371,0.026909,1.0677e-05,0.0080759,0.00053782,0,0,0.048966,-0.02097,0,0.0027967,0,0,0,0.02692,-7.2052e-08,0.0080759,1.145,0.011665,0.023927,4.4286e-07,0.42,0.94,0
0.021972,-0.0087677,0.027019,-1.3816e-05,0.0081015,0.00054024,0,0,0.049185,-0.0211,0,0.0028093,0,0,0,0.02703,-2.4609e-05,0.0081015,1.1444,0.011702,0.024044,4.4873e-07,0.44,0.94,0
0.022958,-0.0087901,0.027131,-3.6792e-05,0.0081284,0.00052923,0,0,0.049408,-0.02123,0,0.002752,0,0,0,0.027142,-4.7097e-05,0.0081284,1.1155,0.011741,0.024162,4.5475e-07,0.46,0.94,0
0.023949,-0.0088069,0.027244,-5.7919e-05,0.0081557,0.00050575,0,0,0.049629,-0.021355,0,0.0026299,0,0,0,0.027253,-6.7285e-05,0.0081557,1.0609,0.01178,0.024277,4.6072e-07,0.48,0.94,0
0.024944,-0.0088202,0.027352,-7.6795e-05,0.0081825,0.00047101,0,0,0.04984,-0.021474,0,0.0024493,0,0,0,0.02736,-8.4881e-05,0.0081825,0.98351,0.011819,0.024386,4.6648e-07,0.5,0.94,0
0.025943,-0.0088322,0.027453,-9.2992e-05,0.0082079,0.00042639,0,0,0.050036,-0.021582,0,0.0022172,0,0,0,0.027459,-9.9591e-05,0.0082079,0.88662,0.011856,0.024486,4.7184e-07,0.52,0.94,0
0.026945,-0.0088447,0.027544,-0.00010611,0.0082313,0.00037351,0,0,0.050212,-0.021677,0,0.0019422,0,0,0,0.027549,-0.00011115,0.0082313,0.77379,0.01189,0.024575,4.7668e-07,0.54,0.94,0
0.027951,-0.0088591,0.027623,-0.0001158,0.0082521,0.00031417,0,0,0.050364,-0.021757,0,0.0016337,0,0,0,0.027626,-0.00011936,0.0082521,0.64882,0.01192,0.02465,4.8086e-07,0.56,0.94,0
0.02896,-0.0088768,0.027688,-0.00012183,0.0082699,0.00025034,0,0,0.050487,-0.021818,0,0.0013017,0,0,0,0.02769,-0.00012408,0.0082699,0.5157,0.011945,0.024711,4.8429e-07,0.58,0.94,0
0.029971,-0.0088986,0.027738,-0.0001241,0.0082843,0.00018406,0,0,0.050581,-0.021862,0,0.00095712,0,0,0,0.02774,-0.00012531,0.0082843,0.37848,0.011966,0.024756,4.869e-07,0.6,0.94,0
0.030983,-0.0089252,0.027773,-0.00012264,0.0082953,0.00011741,0,0,0.050643,-0.021886,0,0.00061053,0,0,0,0.027774,-0.00012313,0.0082953,0.24114,0.011982,0.024785,4.8867e-07,0.62,0.94,0
0.031996,-0.008957,0.027793,-0.00011764,0.0083026,5.2377e-05,0,0,0.050675,-0.021893,0,0.00027236,0,0,0,0.027793,-0.00011773,0.0083026,0.10752,0.011993,0.024797,4.8958e-07,0.64,0.94,0
0.03301,-0.0089939,0.027798,-0.00010942,0.0083064,-9.1763e-06,0,0,0.050677,-0.021881,0,-4.7717e-05,0,0,0,0.027798,-0.00010943,0.0083064,-0.01884,0.011998,0.024795,4.8966e-07,0.66,0.94,0
0.034023,-0.0090358,0.027788,-9.8449e-05,0.0083069,-6.5608e-05,0,0,0.050651,-0.021854,0,-0.00034116,0,0,0,0.027788,-9.8603e-05,0.0083069,-0.1348,0.011999,0.024778,4.8896e-07,0.68,0.94,0
0.035036,-0.0090821,0.027766,-8.5251e-05,0.0083042,-0.00011554,0,0,0.0506,-0.021813,0,-0.00060083,0,0,0,0.027766,-8.5731e-05,0.0083042,-0.23769,0.011995,0.024748,4.8757e-07,0.7,0.94,0
0.036047,-0.0091322,0.027733,-7.0427e-05,0.0082987,-0.00015792,0,0,0.050528,-0.02176,0,-0.00082119,0,0,0,0.027734,-7.1324e-05,0.0082987,-0.32542,0.011987,0.024707,4.8558e-07,0.72,0.94,0
0.037057,-0.0091851,0.02769,-5.459e-05,0.0082907,-0.00019201,0,0,0.050439,-0.021698,0,-0.00099844,0,0,0,0.027692,-5.5918e-05,0.0082907,-0.39649,0.011976,0.024657,4.8309e-07,0.74,0.94,0
0.038065,-0.0092401,0.027641,-3.8338e-05,0.0082807,-0.0002174,0,0,0.050336,-0.02163,0,-0.0011305,0,0,0,0.027643,-4.0045e-05,0.0082807,-0.44998,0.011961,0.024601,4.8023e-07,0.76,0.94,0
0.039071,-0.0092959,0.027586,-2.2218e-05,0.0082692,-0.00023401,0,0,0.050224,-0.021558,0,-0.0012169,0,0,0,0.027588,-2.4202e-05,0.0082692,-0.4856,0.011944,0.02454,4.7712e-07,0.78,0.94,0
0.040074,-0.0093515,0.027529,-6.7069e-06,0.0082566,-0.00024203,0,0,0.050108,-0.021485,0,-0.0012586,0,0,0,0.027531,-8.8342e-06,0.0082566,-0.50357,0.011926,0.024477,4.7387e-07,0.8,0.94,0
0.041075,-0.0094058,0.02747,7.8107e-06,0.0082435,-0.00024189,0,0,0.04999,-0.021413,0,-0.0012578,0,0,0,0.027473,5.6803e-06,0.0082435,-0.5046,0.011907,0.024414,4.706e-07,0.82,0.94,0
0.042073,-0.0094576,0.027413,2.1043e-05,0.0082302,-0.00023419,0,0,0.049875,-0.021344,0,-0.0012178,0,0,0,0.027415,1.9042e-05,0.0082302,-0.4898,0.011888,0.024352,4.674e-07,0.84,0.94,0
0.04307,-0.009506,0.027358,3.2793e-05,0.0082174,-0.00021968,0,0,0.049767,-0.02128,0,-0.0011423,0,0,0,0.02736,3.1028e-05,0.0082174,-0.46058,0.011869,0.024293,4.6438e-07,0.86,0.94,0
0.044064,-0.00955,0.027308,4.2946e-05,0.0082053,-0.0001992,0,0,0.049667,-0.021222,0,-0.0010358,0,0,0,0.02731,4.149e-05,0.0082053,-0.41857,0.011852,0.02424,4.6161e-07,0.88,0.94,0
0.045056,-0.0095887,0.027263,5.1454e-05,0.0081944,-0.00017362,0,0,0.049579,-0.021172,0,-0.00090282,0,0,0,0.027264,5.0346e-05,0.0081944,-0.36555,0.011836,0.024193,4.5916e-07,0.9,0.94,0
0.046047,-0.0096214,0.027225,5.8322e-05,0.008185,-0.00014384,0,0,0.049504,-0.021129,0,-0.00074795,0,0,0,0.027226,5.756e-05,0.008185,-0.30334,0.011823,0.024153,4.5709e-07,0.92,0.94,0
0.047037,-0.0096475,0.027194,6.3587e-05,0.0081774,-0.00011073,0,0,0.049444,-0.021096,0,-0.00057581,0,0,0,0.027195,6.3135e-05,0.0081774,-0.23384,0.011812,0.024121,4.5543e-07,0.94,0.94,0
0.048025,-0.0096665,0.027172,6.7297e-05,0.0081718,-7.517e-05,0,0,0.049401,-0.021072,0,-0.00039089,0,0,0,0.027172,6.7088e-05,0.0081718,-0.1589,0.011804,0.024098,4.5423e-07,0.96,0.94,0
0.049013,-0.0096781,0.027158,6.9501e-05,0.0081684,-3.7988e-05,0,0,0.049374,-0.021057,0,-0.00019754,0,0,0,0.027159,6.9447e-05,0.0081684,-0.080347,0.011799,0.024084,4.535e-07,0.98,0.94,0
0.05,-0.0096819,0.027154,7.0231e-05,0.0081673,-3.7209e-05,0,0,0.049365,-0.021052,0,-0.00019349,0,0,0,0.027154,7.018e-05,0.0081673,-0.078716,0.011797,0.024079,4.5325e-07,1,0.94,0
0,0,0.034653,0.014851,0.014851,-0.010325,0,0,0.051485,0,0,-0.053688,0,0,0,0.039057,0.010448,0.014851,-23.1,0.021452,0.026681,8.8663e-07,0,0.96,0
0.0010297,-0.0010738,0.033368,0.0088407,0.012663,-0.0092977,0,0,0.053834,-0.009937,0,-0.048348,0,0,0,0.036494,0.0057145,0.012663,-18.584,0.01829,0.027961,8.933e-07,0.02,0.96,0
0.0021534,-0.0022026,0.033364,0.0042693,0.01129,-0.0073456,0,0,0.057392,-0.018253,0,-0.038197,0,0,0,0.035113,0.0025199,0.01129,-13.396,0.016308,0.029213,9.0207e-07,0.04,0.96,0
0.0033254,-0.0032306,0.03292,0.0026809,0.01068,-0.0052854,0,0,0.057824,-0.020799,0,-0.027484,0,0,0,0.033818,0.0017837,0.01068,-9.634,0.015427,0.028641,8.2582e-07,0.06,0.96,0
0.0044663,-0.0041133,0.031493,0.0017031,0.009959,-0.0037115,0,0,0.05599,-0.021465,0,-0.0193,0,0,0,0.031949,0.0012477,0.009959,-6.9958,0.014385,0.027404,7.0814e-07,0.08,0.96,0
0.0055649,-0.0048747,0.030135,0.0011421,0.0093833,-0.0026505,0,0,0.053956,-0.021427,0,-0.013782,0,0,0,0.030376,0.00090176,0.0093833,-5.1806,0.013554,0.026281,6.1541e-07,0.1,0.96,0
0.0066246,-0.0055338,0.029014,0.00079974,0.008944,-0.0019121,0,0,0.052181,-0.021175,0,-0.0099431,0,0,0,0.029142,0.00067074,0.008944,-3.8596,0.012919,0.025368,5.4768e-07,0.12,0.96,0
0.0076522,-0.0061065,0.028135,0.00058267,0.0086154,-0.0013836,0,0,0.050752,-0.020885,0,-0.0071948,0,0,0,0.028205,0.00051336,0.0086154,-2.8676,0.012445,0.02466,4.9922e-07,0.14,0.96,0
0.0086546,-0.0066048,0.027463,0.00043887,0.0083705,-0.00099196,0,0,0.04964,-0.020622,0,-0.0051582,0,0,0,0.027499,0.00040251,0.0083705,-2.0994,0.012091,0.024121,4.6456e-07,0.16,0.96,0
0.0096378,-0.0070382,0.026957,0.00033979,0.008189,-0.00069314,0,0,0.048796,-0.020408,0,-0.0036043,0,0,0,0.026975,0.00032176,0.008189,-1.4907,0.011829,0.023719,4.3981e-07,0.18,0.96,0
0.010606,-0.0074143,0.026584,0.000269,0.008056,-0.00045947,0,0,0.048174,-0.020246,0,-0.0023892,0,0,0,0.026592,0.00026098,0.008056,-0.99999,0.011636,0.023428,4.2235e-07,0.2,0.96,0
0.011565,-0.0077395,0.02632,0.00021668,0.0079609,-0.00027309,0,0,0.047733,-0.020135,0,-0.0014201,0,0,0,0.026322,0.00021382,0.0079609,-0.59935,0.011499,0.023225,4.1039e-07,0.22,0.96,0
0.012516,-0.0080192,0.026143,0.00017672,0.0078958,-0.00012219,0,0,0.047442,-0.02007,0,-0.00063541,0,0,0,0.026143,0.00017615,0.0078958,-0.26962,0.011405,0.023096,4.0268e-07,0.24,0.96,0
0.013462,-0.0082582,0.026038,0.00014519,0.0078549,1.2242e-06,0,0,0.047275,-0.020045,0,6.3659e-06,0,0,0,0.026038,0.00014519,0.0078549,0.002709,0.011346,0.023027,3.9833e-07,0.26,0.96,0
0.014407,-0.0084606,0.025992,0.00011946,0.0078335,0.00010265,0,0,0.047213,-0.020057,0,0.00053379,0,0,0,0.025993,0.00011905,0.0078335,0.22732,0.011315,0.023008,3.9669e-07,0.28,0.96,0
0.015351,-0.0086304,0.025996,9.7738e-05,0.007828,0.00018589,0,0,0.047236,-0.020099,0,0.00096661,0,0,0,0.025997,9.6404e-05,0.007828,0.41122,0.011307,0.02303,3.9726e-07,0.3,0.96,0
0.016296,-0.0087713,0.026039,7.878e-05,0.0078355,0.00025356,0,0,0.04733,-0.020167,0,0.0013185,0,0,0,0.026042,7.6303e-05,0.0078355,0.55955,0.011318,0.023086,3.9966e-07,0.32,0.96,0
0.017244,-0.0088865,0.026116,6.1715e-05,0.0078533,0.00030751,0,0,0.047483,-0.020258,0,0.0015991,0,0,0,0.02612,5.8086e-05,0.0078533,0.67612,0.011344,0.023169,4.0356e-07,0.34,0.96,0
0.018196,-0.0089794,0.026219,4.5952e-05,0.0078794,0.00034899,0,0,0.047682,-0.020367,0,0.0018147,0,0,0,0.026223,4.1299e-05,0.0078794,0.7638,0.011381,0.023275,4.0867e-07,0.36,0.96,0
0.019151,-0.0090531,0.026342,3.1109e-05,0.0079118,0.00037889,0,0,0.047918,-0.02049,0,0.0019702,0,0,0,0.026347,2.5654e-05,0.0079118,0.82487,0.011428,0.023397,4.1476e-07,0.38,0.96,0
0.020112,-0.0091105,0.026479,1.6971e-05,0.0079489,0.00039787,0,0,0.048179,-0.020623,0,0.0020689,0,0,0,0.026485,1.099e-05,0.0079489,0.8612,0.011482,0.023532,4.2157e-07,0.4,0.96,0
0.021079,-0.0091545,0.026627,3.4602e-06,0.007989,0.00040646,0,0,0.048458,-0.020762,0,0.0021136,0,0,0,0.026633,-2.7439e-06,0.007989,0.87448,0.01154,0.023674,4.289e-07,0.42,0.96,0
0.022051,-0.0091877,0.026779,-9.3906e-06,0.0080309,0.00040519,0,0,0.048745,-0.020905,0,0.002107,0,0,0,0.026785,-1.5518e-05,0.0080309,0.86637,0.0116,0.02382,4.3651e-07,0.44,0.96,0
0.023028,-0.0092128,0.026932,-2.1462e-05,0.008073,0.00039461,0,0,0.049032,-0.021046,0,0.002052,0,0,0,0.026937,-2.7238e-05,0.008073,0.83861,0.011661,0.023964,4.442e-07,0.46,0.96,0
0.024012,-0.0092322,0.027081,-3.2573e-05,0.0081144,0.00037539,0,0,0.049312,-0.021182,0,0.001952,0,0,0,0.027086,-3.7769e-05,0.0081144,0.79308,0.011721,0.024105,4.5177e-07,0.48,0.96,0
0.025001,-0.0092479,0.027222,-4.2501e-05,0.0081539,0.00034834,0,0,0.049577,-0.021311,0,0.0018114,0,0,0,0.027227,-4.6951e-05,0.0081539,0.73187,0.011778,0.024237,4.5901e-07,0.5,0.96,0
0.025995,-0.0092621,0.027353,-5.1017e-05,0.0081906,0.00031444,0,0,0.049822,-0.021428,0,0.0016351,0,0,0,0.027356,-5.4624e-05,0.0081906,0.6573,0.011831,0.024359,4.6575e-07,0.52,0.96,0
0.026994,-0.0092765,0.02747,-5.7898e-05,0.0082237,0.0002748,0,0,0.050041,-0.021532,0,0.001429,0,0,0,0.027473,-6.0641e-05,0.0082237,0.57188,0.011879,0.024467,4.7183e-07,0.54,0.96,0
0.027997,-0.0092926,0.027571,-6.2963e-05,0.0082526,0.00023072,0,0,0.050229,-0.02162,0,0.0011997,0,0,0,0.027573,-6.4889e-05,0.0082526,0.47831,0.01192,0.02456,4.771e-07,0.56,0.96,0
0.029003,-0.0093116,0.027655,-6.608e-05,0.0082767,0.00018358,0,0,0.050384,-0.021691,0,0.0009546,0,0,0,0.027656,-6.7296e-05,0.0082767,0.3794,0.011955,0.024635,4.8147e-07,0.58,0.96,0
0.030012,-0.0093344,0.02772,-6.7192e-05,0.0082959,0.00013483,0,0,0.050503,-0.021744,0,0.00070111,0,0,0,0.027721,-6.7846e-05,0.0082959,0.278,0.011983,0.024693,4.8485e-07,0.6,0.96,0
0.031023,-0.0093616,0.027766,-6.6317e-05,0.0083099,8.5949e-05,0,0,0.050586,-0.021778,0,0.00044693,0,0,0,0.027766,-6.6583e-05,0.0083099,0.17693,0.012003,0.024732,4.872e-07,0.62,0.96,0
0.032035,-0.0093936,0.027792,-6.3555e-05,0.0083187,3.8358e-05,0,0,0.050632,-0.021794,0,0.00019946,0,0,0,0.027793,-6.3608e-05,0.0083187,0.078896,0.012016,0.024753,4.8853e-07,0.64,0.96,0
0.033048,-0.0094304,0.0278,-5.9079e-05,0.0083224,-6.6182e-06,0,0,0.050643,-0.021792,0,-3.4415e-05,0,0,0,0.0278,-5.9081e-05,0.0083224,-0.013611,0.012021,0.024757,4.8887e-07,0.66,0.96,0
0.034061,-0.0094718,0.027791,-5.3129e-05,0.0083214,-4.7806e-05,0,0,0.050621,-0.021774,0,-0.00024859,0,0,0,0.027791,-5.3211e-05,0.0083214,-0.098371,0.01202,0.024744,4.8827e-07,0.68,0.96,0
0.035073,-0.0095174,0.027766,-4.5992e-05,0.0083161,-8.4225e-05,0,0,0.05057,-0.021741,0,-0.00043797,0,0,0,0.027766,-4.6247e-05,0.0083161,-0.17351,0.012012,0.024716,4.8683e-07,0.7,0.96,0
0.036084,-0.0095665,0.027727,-3.7987e-05,0.0083068,-0.00011512,0,0,0.050494,-0.021697,0,-0.00059861,0,0,0,0.027728,-3.8464e-05,0.0083068,-0.23755,0.011999,0.024676,4.8467e-07,0.72,0.96,0
0.037093,-0.0096184,0.027677,-2.9442e-05,0.0082944,-0.00013996,0,0,0.050396,-0.021642,0,-0.00072777,0,0,0,0.027678,-3.0149e-05,0.0082944,-0.28941,0.011981,0.024625,4.8191e-07,0.74,0.96,0
0.0381,-0.0096721,0.027618,-2.0676e-05,0.0082793,-0.00015846,0,0,0.050282,-0.02158,0,-0.00082399,0,0,0,0.027619,-2.1584e-05,0.0082793,-0.32847,0.011959,0.024566,4.7869e-07,0.76,0.96,0
0.039104,-0.0097266,0.027553,-1.1983e-05,0.0082623,-0.00017056,0,0,0.050156,-0.021513,0,-0.00088694,0,0,0,0.027554,-1.3039e-05,0.0082623,-0.35451,0.011935,0.024501,4.7514e-07,0.78,0.96,0
0.040106,-0.0097808,0.027484,-3.6188e-06,0.008244,-0.00017641,0,0,0.050023,-0.021444,0,-0.00091734,0,0,0,0.027485,-4.751e-06,0.008244,-0.3677,0.011908,0.024433,4.7143e-07,0.8,0.96,0
0.041105,-0.0098337,0.027413,4.2105e-06,0.0082252,-0.00017631,0,0,0.049889,-0.021375,0,-0.00091681,0,0,0,0.027414,3.0764e-06,0.0082252,-0.36854,0.011881,0.024364,4.6766e-07,0.82,0.96,0
0.042102,-0.0098842,0.027343,1.1348e-05,0.0082065,-0.0001707,0,0,0.049756,-0.021307,0,-0.00088766,0,0,0,0.027345,1.0282e-05,0.0082065,-0.35782,0.011854,0.024296,4.6397e-07,0.84,0.96,0
0.043095,-0.0099313,0.027277,1.7686e-05,0.0081884,-0.00016013,0,0,0.04963,-0.021244,0,-0.0008327,0,0,0,0.027278,1.6746e-05,0.0081884,-0.33657,0.011828,0.024232,4.6046e-07,0.86,0.96,0
0.044087,-0.0099742,0.027215,2.3164e-05,0.0081716,-0.00014521,0,0,0.049514,-0.021186,0,-0.00075509,0,0,0,0.027216,2.2388e-05,0.0081716,-0.30595,0.011803,0.024172,4.5724e-07,0.88,0.96,0
0.045076,-0.010012,0.027161,2.7755e-05,0.0081565,-0.00012657,0,0,0.049411,-0.021135,0,-0.00065816,0,0,0,0.027161,2.7164e-05,0.0081565,-0.26726,0.011782,0.02412,4.5439e-07,0.9,0.96,0
0.046063,-0.010044,0.027114,3.1461e-05,0.0081436,-0.00010486,0,0,0.049323,-0.021091,0,-0.00054527,0,0,0,0.027114,3.1055e-05,0.0081436,-0.22184,0.011763,0.024075,4.5196e-07,0.92,0.96,0
0.047049,-0.010069,0.027076,3.4303e-05,0.0081332,-8.0728e-05,0,0,0.049252,-0.021057,0,-0.00041979,0,0,0,0.027076,3.4062e-05,0.0081332,-0.17104,0.011748,0.024039,4.5002e-07,0.94,0.96,0
0.048033,-0.010088,0.027049,3.6305e-05,0.0081255,-5.4803e-05,0,0,0.0492,-0.021032,0,-0.00028498,0,0,0,0.027049,3.6194e-05,0.0081255,-0.11624,0.011737,0.024013,4.4861e-07,0.96,0.96,0
0.049017,-0.010099,0.027032,3.7495e-05,0.0081209,-2.7695e-05,0,0,0.049169,-0.021017,0,-0.00014402,0,0,0,0.027032,3.7466e-05,0.0081209,-0.058783,0.01173,0.023997,4.4775e-07,0.98,0.96,0
0.05,-0.010103,0.027026,3.7889e-05,0.0081193,-3.6267e-05,0,0,0.049159,-0.021012,0,-0.00018859,0,0,0,0.027026,3.784e-05,0.0081193,-0.076993,0.011728,0.023991,4.4747e-07,1,0.96,0
0,0,0.040591,0.017396,0.017396,-0.01278,0,0,0.060306,0,0,-0.066455,0,0,0,0.046251,0.011736,0.017396,-23.889,0.025127,0.032062,1.5164e-06,0,0.98,0
0.0012061,-0.0013291,0.037006,0.0036293,0.012191,-0.0079972,0,0,0.06452,-0.02226,0,-0.041585,0,0,0,0.038823,0.001812,0.012191,-12.802,0.017609,0.033067,1.2589e-06,0.02,0.98,0
0.0025808,-0.002642,0.037294,0.0028406,0.01204,-0.0051597,0,0,0.065659,-0.023919,0,-0.026831,0,0,0,0.03805,0.0020845,0.01204,-8.337,0.017392,0.032165,1.1733e-06,0.04,0.98,0
0.0038325,-0.003685,0.033641,0.0015008,0.010542,-0.0030397,0,0,0.060055,-0.023508,0,-0.015807,0,0,0,0.033926,0.0012158,0.010542,-5.3556,0.015228,0.029186,8.5115e-07,0.06,0.98,0
0.004983,-0.0045637,0.030988,0.00087645,0.0095594,-0.0019814,0,0,0.055715,-0.022576,0,-0.010303,0,0,0,0.031118,0.00074663,0.0095594,-3.7486,0.013808,0.027063,6.6603e-07,0.08,0.98,0
0.0060611,-0.0053134,0.029152,0.00054862,0.0089101,-0.0013434,0,0,0.052628,-0.02174,0,-0.0069859,0,0,0,0.029215,0.00048566,0.0089101,-2.6832,0.01287,0.025579,5.5579e-07,0.1,0.98,0
0.0070881,-0.0059614,0.027875,0.00036855,0.0084732,-0.00093811,0,0,0.050446,-0.021072,0,-0.0048782,0,0,0,0.027907,0.00033659,0.0084732,-1.951,0.012239,0.024536,4.8694e-07,0.12,0.98,0
0.0080789,-0.0065248,0.026974,0.00026142,0.0081706,-0.00066027,0,0,0.048888,-0.020564,0,-0.0034334,0,0,0,0.02699,0.00024511,0.0081706,-1.4151,0.011802,0.023794,4.4195e-07,0.14,0.98,0
0.0090437,-0.0070158,0.026334,0.00019355,0.0079583,-0.00046013,0,0,0.047777,-0.020188,0,-0.0023927,0,0,0,0.026342,0.00018546,0.0079583,-1.0081,0.011495,0.023265,4.118e-07,0.16,0.98,0
0.00999,-0.0074437,0.025885,0.00014817,0.0078099,-0.00031001,0,0,0.046995,-0.01992,0,-0.001612,0,0,0,0.025888,0.00014444,0.0078099,-0.69002,0.011281,0.022895,3.9151e-07,0.18,0.98,0
0.010923,-0.007816,0.025579,0.00011642,0.0077087,-0.00019389,0,0,0.046463,-0.01974,0,-0.0010082,0,0,0,0.025581,0.00011494,0.0077087,-0.43625,0.011135,0.022645,3.7816e-07,0.2,0.98,0
0.011848,-0.0081386,0.025385,9.3294e-05,0.0076435,-0.00010192,0,0,0.046128,-0.019631,0,-0.00052997,0,0,0,0.025385,9.2883e-05,0.0076435,-0.23088,0.011041,0.022489,3.6991e-07,0.22,0.98,0
0.012769,-0.0084169,0.02528,7.5817e-05,0.0076066,-2.7796e-05,0,0,0.04595,-0.01958,0,-0.00014454,0,0,0,0.02528,7.5786e-05,0.0076066,-0.063188,0.010987,0.022409,3.6556e-07,0.24,0.98,0
0.013687,-0.0086554,0.025245,6.2119e-05,0.0075923,3.2635e-05,0,0,0.045898,-0.019578,0,0.0001697,0,0,0,0.025245,6.2076e-05,0.0075923,0.074249,0.010967,0.022389,3.6429e-07,0.26,0.98,0
0.014604,-0.0088581,0.025269,5.0984e-05,0.0075961,8.2168e-05,0,0,0.04595,-0.019617,0,0.00042728,0,0,0,0.025269,5.0716e-05,0.0075961,0.18668,0.010972,0.022419,3.6551e-07,0.28,0.98,0
0.015525,-0.009029,0.02534,4.1596e-05,0.0076146,0.0001227,0,0,0.046087,-0.01969,0,0.00063805,0,0,0,0.025341,4.1001e-05,0.0076146,0.27788,0.010999,0.022491,3.6877e-07,0.3,0.98,0
0.016448,-0.0091714,0.02545,3.3393e-05,0.007645,0.00015552,0,0,0.046293,-0.01979,0,0.00080873,0,0,0,0.025451,3.2441e-05,0.007645,0.35058,0.011043,0.022595,3.7373e-07,0.32,0.98,0
0.017376,-0.0092887,0.02559,2.5989e-05,0.0076849,0.00018151,0,0,0.046554,-0.019913,0,0.00094386,0,0,0,0.025592,2.47e-05,0.0076849,0.40678,0.0111,0.022727,3.801e-07,0.34,0.98,0
0.01831,-0.009384,0.025755,1.9124e-05,0.0077323,0.00020125,0,0,0.046859,-0.020054,0,0.0010465,0,0,0,0.025757,1.755e-05,0.0077323,0.44801,0.011169,0.022879,3.8761e-07,0.36,0.98,0
0.019251,-0.0094603,0.025938,1.2632e-05,0.0077851,0.00021515,0,0,0.047197,-0.020208,0,0.0011188,0,0,0,0.02594,1.0846e-05,0.0077851,0.47545,0.011245,0.023047,3.9604e-07,0.38,0.98,0
0.020198,-0.0095206,0.026133,6.4223e-06,0.0078417,0.00022349,0,0,0.047556,-0.020372,0,0.0011622,0,0,0,0.026135,4.5105e-06,0.0078417,0.49009,0.011327,0.023225,4.0514e-07,0.4,0.98,0
0.021153,-0.0095676,0.026334,4.6558e-07,0.0079004,0.00022652,0,0,0.047928,-0.02054,0,0.0011779,0,0,0,0.026336,-1.4828e-06,0.0079004,0.4928,0.011412,0.023409,4.147e-07,0.42,0.98,0
0.022115,-0.0096039,0.026538,-5.2183e-06,0.0079598,0.00022446,0,0,0.048303,-0.020709,0,0.0011672,0,0,0,0.02654,-7.1163e-06,0.0079598,0.48448,0.011498,0.023595,4.2449e-07,0.44,0.98,0
0.023085,-0.009632,0.026738,-1.0571e-05,0.0080183,0.00021758,0,0,0.048672,-0.020875,0,0.0011314,0,0,0,0.02674,-1.234e-05,0.0080183,0.46602,0.011582,0.023777,4.3427e-07,0.46,0.98,0
0.024062,-0.0096542,0.026931,-1.5505e-05,0.0080748,0.00020621,0,0,0.049027,-0.021035,0,0.0010723,0,0,0,0.026933,-1.7083e-05,0.0080748,0.43842,0.011664,0.023952,4.4381e-07,0.48,0.98,0
0.025046,-0.0096727,0.027113,-1.9919e-05,0.0081279,0.00019076,0,0,0.049361,-0.021184,0,0.00099196,0,0,0,0.027114,-2.126e-05,0.0081279,0.4028,0.01174,0.024117,4.529e-07,0.5,0.98,0
0.026037,-0.0096893,0.027279,-2.3703e-05,0.0081767,0.00017173,0,0,0.049667,-0.021321,0,0.00089302,0,0,0,0.02728,-2.4783e-05,0.0081767,0.36037,0.011811,0.024267,4.6133e-07,0.52,0.98,0
0.027033,-0.009706,0.027427,-2.6756e-05,0.0082201,0.00014972,0,0,0.049938,-0.021442,0,0.00077856,0,0,0,0.027428,-2.7573e-05,0.0082201,0.31246,0.011874,0.0244,4.6892e-07,0.54,0.98,0
0.028034,-0.0097239,0.027554,-2.8992e-05,0.0082576,0.0001254,0,0,0.050171,-0.021545,0,0.0006521,0,0,0,0.027555,-2.9562e-05,0.0082576,0.26048,0.011928,0.024515,4.7549e-07,0.56,0.98,0
0.02904,-0.0097444,0.027659,-3.0351e-05,0.0082885,9.9515e-05,0,0,0.050362,-0.021629,0,0.00051748,0,0,0,0.027659,-3.0709e-05,0.0082885,0.20592,0.011972,0.024608,4.8092e-07,0.58,0.98,0
0.030048,-0.0097684,0.027739,-3.0805e-05,0.0083125,7.2835e-05,0,0,0.050509,-0.021693,0,0.00037874,0,0,0,0.027739,-3.0996e-05,0.0083125,0.15027,0.012007,0.02468,4.8513e-07,0.6,0.98,0
0.03106,-0.0097964,0.027796,-3.0361e-05,0.0083295,4.6149e-05,0,0,0.050612,-0.021736,0,0.00023997,0,0,0,0.027796,-3.0438e-05,0.0083295,0.095024,0.012032,0.02473,4.8807e-07,0.62,0.98,0
0.032073,-0.0098288,0.027828,-2.9064e-05,0.0083396,2.022e-05,0,0,0.050669,-0.021759,0,0.00010514,0,0,0,0.027828,-2.9079e-05,0.0083396,0.041589,0.012046,0.024757,4.8975e-07,0.64,0.98,0
0.033087,-0.0098656,0.027837,-2.6992e-05,0.008343,-4.241e-06,0,0,0.050685,-0.021762,0,-2.2053e-05,0,0,0,0.027837,-2.6993e-05,0.008343,-0.0087206,0.012051,0.024764,4.902e-07,0.66,0.98,0
0.0341,-0.0099067,0.027825,-2.4254e-05,0.0083402,-2.6606e-05,0,0,0.05066,-0.021747,0,-0.00013835,0,0,0,0.027825,-2.4279e-05,0.0083402,-0.054739,0.012047,0.024751,4.895e-07,0.68,0.98,0
0.035113,-0.0099517,0.027793,-2.098e-05,0.0083317,-4.6351e-05,0,0,0.0506,-0.021717,0,-0.00024102,0,0,0,0.027793,-2.1057e-05,0.0083317,-0.09548,0.012035,0.02472,4.8778e-07,0.7,0.98,0
0.036124,-0.01,0.027745,-1.7314e-05,0.0083182,-6.307e-05,0,0,0.050509,-0.021672,0,-0.00032796,0,0,0,0.027745,-1.7457e-05,0.0083182,-0.13017,0.012015,0.024674,4.8517e-07,0.72,0.98,0
0.037133,-0.010051,0.027682,-1.3406e-05,0.0083007,-7.6487e-05,0,0,0.050392,-0.021617,0,-0.00039773,0,0,0,0.027682,-1.3617e-05,0.0083007,-0.15823,0.01199,0.024616,4.8183e-07,0.74,0.98,0
0.03814,-0.010103,0.027609,-9.4005e-06,0.0082799,-8.6453e-05,0,0,0.050256,-0.021552,0,-0.00044955,0,0,0,0.027609,-9.6711e-06,0.0082799,-0.17935,0.01196,0.024547,4.7794e-07,0.76,0.98,0
0.039144,-0.010156,0.027528,-5.4315e-06,0.0082567,-9.294e-05,0,0,0.050105,-0.021482,0,-0.00048329,0,0,0,0.027528,-5.7453e-06,0.0082567,-0.1934,0.011926,0.024472,4.7366e-07,0.78,0.98,0
0.040144,-0.010209,0.027442,-1.6146e-06,0.0082321,-9.603e-05,0,0,0.049945,-0.021408,0,-0.00049935,0,0,0,0.027442,-1.9506e-06,0.0082321,-0.20048,0.011891,0.024393,4.6918e-07,0.8,0.98,0
0.041141,-0.010261,0.027355,1.9562e-06,0.0082069,-9.5895e-05,0,0,0.049784,-0.021333,0,-0.00049865,0,0,0,0.027355,1.62e-06,0.0082069,-0.20087,0.011855,0.024312,4.6465e-07,0.82,0.98,0
0.042136,-0.01031,0.027268,5.2097e-06,0.0081821,-9.278e-05,0,0,0.049624,-0.02126,0,-0.00048246,0,0,0,0.027269,4.894e-06,0.0081821,-0.19498,0.011818,0.024233,4.6021e-07,0.84,0.98,0
0.043126,-0.010356,0.027186,8.0976e-06,0.0081583,-8.6984e-05,0,0,0.049472,-0.02119,0,-0.00045232,0,0,0,0.027186,7.8192e-06,0.0081583,-0.18338,0.011784,0.024157,4.56e-07,0.86,0.98,0
0.044115,-0.010397,0.02711,1.0592e-05,0.0081362,-7.8837e-05,0,0,0.049332,-0.021127,0,-0.00040995,0,0,0,0.02711,1.0362e-05,0.0081362,-0.16668,0.011752,0.024088,4.5214e-07,0.88,0.98,0
0.0451,-0.010434,0.027042,1.2681e-05,0.0081165,-6.8686e-05,0,0,0.049207,-0.02107,0,-0.00035717,0,0,0,0.027043,1.2507e-05,0.0081165,-0.1456,0.011724,0.024026,4.4872e-07,0.9,0.98,0
0.046083,-0.010465,0.026985,1.4367e-05,0.0080997,-5.6885e-05,0,0,0.049101,-0.021022,0,-0.0002958,0,0,0,0.026985,1.4247e-05,0.0080997,-0.12085,0.0117,0.023973,4.4582e-07,0.92,0.98,0
0.047064,-0.01049,0.026938,1.5659e-05,0.0080862,-4.3782e-05,0,0,0.049015,-0.020983,0,-0.00022767,0,0,0,0.026938,1.5588e-05,0.0080862,-0.093175,0.01168,0.023931,4.435e-07,0.94,0.98,0
0.048043,-0.010508,0.026905,1.657e-05,0.0080763,-2.9716e-05,0,0,0.048953,-0.020955,0,-0.00015452,0,0,0,0.026905,1.6537e-05,0.0080763,-0.063322,0.011666,0.0239,4.4181e-07,0.96,0.98,0
0.049022,-0.010519,0.026884,1.711e-05,0.0080703,-1.5016e-05,0,0,0.048915,-0.020938,0,-7.808e-05,0,0,0,0.026884,1.7102e-05,0.0080703,-0.032022,0.011657,0.023881,4.4079e-07,0.98,0.98,0
0.05,-0.010522,0.026877,1.7289e-05,0.0080683,-3.5249e-05,0,0,0.048903,-0.020933,0,-0.00018329,0,0,0,0.026877,1.7243e-05,0.0080683,-0.07519,0.011654,0.023875,4.4045e-07,1,0.98,0
0,0,0.067588,0.028966,0.028966,-0.018886,0,0,0.10042,-6.9389e-18,0,-0.098207,0,0,0,0.075288,0.021266,0.028966,-22.181,0.04184,0.050613,6.1426e-06,0,1,0
0.0020083,-0.0019641,0.048659,0.003408,0.01562,-0.0074759,0,0,0.085902,-0.031752,0,-0.038875,0,0,0,0.049862,0.0022049,0.01562,-9.1422,0.022563,0.042566,2.6752e-06,0.02,1,0
0.0034361,-0.0031594,0.036396,0.001385,0.011334,-0.0023857,0,0,0.06516,-0.025868,0,-0.012405,0,0,0,0.036558,0.0012232,0.011334,-3.8803,0.016372,0.03152,1.068e-06,0.04,1,0
0.0046147,-0.0041709,0.030794,-0.00014984,0.0091933,-0.0014058,0,0,0.056162,-0.024292,0,-0.00731,0,0,0,0.030858,-0.00021357,0.0091933,-2.5958,0.013279,0.027598,6.7195e-07,0.06,1,0
0.0056826,-0.0050163,0.028279,-0.0003145,0.0083893,-0.00083809,0,0,0.051713,-0.02263,0,-0.0043581,0,0,0,0.028303,-0.00033904,0.0083893,-1.6775,0.012118,0.025428,5.2125e-07,0.08,1,0
0.0066832,-0.0057443,0.026736,-0.00037916,0.0079071,-0.00055809,0,0,0.048956,-0.021544,0,-0.0029021,0,0,0,0.026748,-0.00039064,0.0079071,-1.1786,0.011421,0.024086,4.4112e-07,0.1,1,0
0.0076408,-0.0063767,0.025746,-0.00037436,0.0076114,-0.00038187,0,0,0.047149,-0.020763,0,-0.0019858,0,0,0,0.025751,-0.00037995,0.0076114,-0.83743,0.010994,0.023192,3.9369e-07,0.12,1,0
0.0085692,-0.006929,0.025082,-0.00035617,0.0074177,-0.00026458,0,0,0.045927,-0.020212,0,-0.0013758,0,0,0,0.025085,-0.00035892,0.0074177,-0.59585,0.010715,0.022583,3.6374e-07,0.14,1,0
0.0094779,-0.0074123,0.024642,-0.00033259,0.0072927,-0.00018076,0,0,0.045107,-0.019826,0,-0.00093997,0,0,0,0.024643,-0.0003339,0.0072927,-0.41468,0.010534,0.02217,3.4459e-07,0.16,1,0
0.010374,-0.007835,0.024362,-0.00030816,0.0072162,-0.00011827,0,0,0.04458,-0.019563,0,-0.000615,0,0,0,0.024363,-0.00030873,0.0072162,-0.27467,0.010423,0.021901,3.3267e-07,0.18,1,0
0.011261,-0.0082039,0.024205,-0.00028418,0.0071761,-7.006e-05,0,0,0.044274,-0.019397,0,-0.00036431,0,0,0,0.024205,-0.00028438,0.0071761,-0.16392,0.010365,0.021741,3.2593e-07,0.2,1,0
0.012144,-0.0085247,0.024142,-0.00026112,0.0071642,-3.1926e-05,0,0,0.044142,-0.019306,0,-0.00016602,0,0,0,0.024142,-0.00026116,0.0071642,-0.074959,0.010348,0.021667,3.2309e-07,0.22,1,0
0.013027,-0.0088024,0.024155,-0.00023909,0.0071748,-1.204e-06,0,0,0.044149,-0.019276,0,-6.2608e-06,0,0,0,0.024155,-0.00023909,0.0071748,-0.0028279,0.010364,0.021661,3.2331e-07,0.24,1,0
0.01391,-0.0090413,0.02423,-0.00021805,0.0072036,2.3844e-05,0,0,0.044269,-0.019296,0,0.00012399,0,0,0,0.02423,-0.00021808,0.0072036,0.055879,0.010405,0.021711,3.2602e-07,0.26,1,0
0.014797,-0.0092453,0.024355,-0.00019791,0.0072473,4.4374e-05,0,0,0.044481,-0.019357,0,0.00023074,0,0,0,0.024356,-0.00019799,0.0072473,0.10355,0.010468,0.021806,3.3081e-07,0.28,1,0
0.01569,-0.009418,0.024522,-0.00017859,0.0073031,6.1164e-05,0,0,0.04477,-0.019453,0,0.00031805,0,0,0,0.024522,-0.00017874,0.0073031,0.14187,0.010549,0.021939,3.3737e-07,0.3,1,0
0.016588,-0.0095629,0.024723,-0.00016001,0.0073689,7.4737e-05,0,0,0.045121,-0.019575,0,0.00038864,0,0,0,0.024723,-0.00016023,0.0073689,0.17209,0.010644,0.022103,3.4542e-07,0.32,1,0
0.017494,-0.0096831,0.02495,-0.00014213,0.0074424,8.5442e-05,0,0,0.04552,-0.01972,0,0.0004443,0,0,0,0.024951,-0.00014242,0.0074424,0.19509,0.01075,0.02229,3.5475e-07,0.34,1,0
0.018409,-0.0097816,0.025198,-0.00012494,0.0075219,9.3507e-05,0,0,0.045958,-0.019882,0,0.00048624,0,0,0,0.025198,-0.00012529,0.0075219,0.21157,0.010865,0.022497,3.6514e-07,0.36,1,0
0.019333,-0.0098615,0.02546,-0.00010846,0.0076055,9.9085e-05,0,0,0.046422,-0.020056,0,0.00051524,0,0,0,0.025461,-0.00010884,0.0076055,0.22203,0.010986,0.022717,3.7639e-07,0.38,1,0
0.020266,-0.0099254,0.025731,-9.2716e-05,0.0076916,0.00010228,0,0,0.046903,-0.020239,0,0.00053188,0,0,0,0.025732,-9.3121e-05,0.0076916,0.22693,0.01111,0.022945,3.8827e-07,0.4,1,0
0.021209,-0.0099761,0.026006,-7.7774e-05,0.0077783,0.00010319,0,0,0.047391,-0.020426,0,0.00053658,0,0,0,0.026006,-7.8182e-05,0.0077783,0.22667,0.011235,0.023177,4.0056e-07,0.42,1,0
0.022162,-0.010016,0.026278,-6.371e-05,0.0078642,0.00010189,0,0,0.047875,-0.020612,0,0.00052983,0,0,0,0.026278,-6.4104e-05,0.0078642,0.22162,0.011359,0.023408,4.13e-07,0.44,1,0
0.023124,-0.010048,0.026542,-5.0612e-05,0.0079474,9.8493e-05,0,0,0.048346,-0.020795,0,0.00051216,0,0,0,0.026542,-5.0977e-05,0.0079474,0.21221,0.01148,0.023632,4.2536e-07,0.46,1,0
0.024095,-0.010074,0.026794,-3.8573e-05,0.0080265,9.3134e-05,0,0,0.048795,-0.020969,0,0.0004843,0,0,0,0.026794,-3.8896e-05,0.0080265,0.19887,0.011594,0.023846,4.3736e-07,0.48,1,0
0.025076,-0.010095,0.027028,-2.7687e-05,0.0081002,8.5988e-05,0,0,0.049213,-0.021132,0,0.00044714,0,0,0,0.027029,-2.796e-05,0.0081002,0.18209,0.0117,0.024046,4.4874e-07,0.5,1,0
0.026064,-0.010115,0.027241,-1.8039e-05,0.008167,7.7275e-05,0,0,0.049593,-0.021281,0,0.00040183,0,0,0,0.027241,-1.8258e-05,0.008167,0.16242,0.011797,0.024227,4.5925e-07,0.52,1,0
0.027059,-0.010134,0.027429,-9.7014e-06,0.0082259,6.7254e-05,0,0,0.049929,-0.021413,0,0.00034972,0,0,0,0.027429,-9.8662e-06,0.0082259,0.14043,0.011882,0.024388,4.6867e-07,0.54,1,0
0.028061,-0.010154,0.027589,-2.729e-06,0.008276,5.6224e-05,0,0,0.050215,-0.021525,0,0.00029237,0,0,0,0.02759,-2.8436e-06,0.008276,0.11675,0.011954,0.024524,4.7679e-07,0.56,1,0
0.029068,-0.010177,0.02772,2.8473e-06,0.0083167,4.4515e-05,0,0,0.050447,-0.021616,0,0.00023148,0,0,0,0.02772,2.7758e-06,0.0083167,0.09202,0.012013,0.024636,4.8346e-07,0.58,1,0
0.030079,-0.010202,0.027818,7.0227e-06,0.0083477,3.2471e-05,0,0,0.050624,-0.021686,0,0.00016885,0,0,0,0.027818,6.9848e-06,0.0083477,0.066895,0.012058,0.02472,4.8858e-07,0.6,1,0
0.031093,-0.010231,0.027886,9.8207e-06,0.0083687,2.0444e-05,0,0,0.050745,-0.021733,0,0.00010631,0,0,0,0.027886,9.8057e-06,0.0083687,0.04202,0.012088,0.024778,4.9208e-07,0.62,1,0
0.032109,-0.010264,0.027922,1.1293e-05,0.0083801,8.7742e-06,0,0,0.05081,-0.021759,0,4.5626e-05,0,0,0,0.027922,1.1291e-05,0.0083801,0.018012,0.012105,0.024809,4.9398e-07,0.64,1,0
0.033125,-0.010301,0.027929,1.1521e-05,0.0083822,-2.221e-06,0,0,0.050822,-0.021764,0,-1.1549e-05,0,0,0,0.027929,1.1521e-05,0.0083822,-0.0045581,0.012108,0.024815,4.9434e-07,0.66,1,0
0.034142,-0.010342,0.027908,1.0609e-05,0.0083757,-1.2261e-05,0,0,0.050785,-0.021749,0,-6.3758e-05,0,0,0,0.027908,1.0604e-05,0.0083757,-0.025181,0.012098,0.024797,4.9327e-07,0.68,1,0
0.035157,-0.010386,0.027863,8.6857e-06,0.0083616,-2.1113e-05,0,0,0.050705,-0.021718,0,-0.00010978,0,0,0,0.027863,8.6697e-06,0.0083616,-0.043427,0.012078,0.024759,4.9092e-07,0.7,1,0
0.03617,-0.010433,0.027797,5.8957e-06,0.0083409,-2.8596e-05,0,0,0.050586,-0.021671,0,-0.0001487,0,0,0,0.027797,5.8663e-06,0.0083409,-0.058954,0.012048,0.024702,4.8748e-07,0.72,1,0
0.03718,-0.010483,0.027714,2.3974e-06,0.0083148,-3.4588e-05,0,0,0.050437,-0.021612,0,-0.00017986,0,0,0,0.027714,2.3542e-06,0.0083148,-0.071514,0.01201,0.024631,4.8316e-07,0.74,1,0
0.038187,-0.010534,0.027617,-1.6438e-06,0.0082845,-3.9026e-05,0,0,0.050264,-0.021544,0,-0.00020293,0,0,0,0.027617,-1.6989e-06,0.0082845,-0.080961,0.011966,0.024548,4.7819e-07,0.76,1,0
0.039191,-0.010586,0.027511,-6.0601e-06,0.0082513,-4.1898e-05,0,0,0.050074,-0.021469,0,-0.00021787,0,0,0,0.027511,-6.1239e-06,0.0082513,-0.087242,0.011919,0.024457,4.7277e-07,0.78,1,0
0.04019,-0.010637,0.027399,-1.0687e-05,0.0082165,-4.3245e-05,0,0,0.049875,-0.021391,0,-0.00022488,0,0,0,0.027399,-1.0755e-05,0.0082165,-0.090398,0.011868,0.024361,4.6713e-07,0.8,1,0
0.041186,-0.010687,0.027286,-1.5365e-05,0.0081812,-4.3147e-05,0,0,0.049673,-0.021311,0,-0.00022436,0,0,0,0.027286,-1.5433e-05,0.0081812,-0.090549,0.011817,0.024265,4.6146e-07,0.82,1,0
0.042177,-0.010735,0.027175,-1.9949e-05,0.0081466,-4.1714e-05,0,0,0.049475,-0.021233,0,-0.00021691,0,0,0,0.027175,-2.0013e-05,0.0081466,-0.087884,0.011767,0.02417,4.5595e-07,0.84,1,0
0.043165,-0.010779,0.02707,-2.4304e-05,0.0081137,-3.9082e-05,0,0,0.049286,-0.021159,0,-0.00020323,0,0,0,0.02707,-2.4361e-05,0.0081137,-0.082647,0.01172,0.02408,4.5075e-07,0.86,1,0
0.044149,-0.010819,0.026973,-2.8312e-05,0.0080834,-3.5402e-05,0,0,0.049113,-0.021091,0,-0.00018409,0,0,0,0.026973,-2.8358e-05,0.0080834,-0.075121,0.011676,0.023997,4.46e-07,0.88,1,0
0.045129,-0.010855,0.026887,-3.1871e-05,0.0080565,-3.0829e-05,0,0,0.048959,-0.02103,0,-0.00016031,0,0,0,0.026887,-3.1906e-05,0.0080565,-0.065619,0.011637,0.023923,4.418e-07,0.9,1,0
0.046107,-0.010885,0.026814,-3.4895e-05,0.0080337,-2.5523e-05,0,0,0.048828,-0.020978,0,-0.00013272,0,0,0,0.026814,-3.492e-05,0.0080337,-0.054466,0.011604,0.02386,4.3826e-07,0.92,1,0
0.047082,-0.010908,0.026755,-3.7317e-05,0.0080153,-1.9638e-05,0,0,0.048724,-0.020937,0,-0.00010212,0,0,0,0.026755,-3.7331e-05,0.0080153,-0.041995,0.011578,0.02381,4.3543e-07,0.94,1,0
0.048056,-0.010926,0.026712,-3.9083e-05,0.008002,-1.3326e-05,0,0,0.048647,-0.020907,0,-6.9294e-05,0,0,0,0.026712,-3.909e-05,0.008002,-0.028541,0.011558,0.023774,4.3338e-07,0.96,1,0
0.049028,-0.010937,0.026686,-4.0157e-05,0.0079939,-6.7325e-06,0,0,0.0486,-0.020889,0,-3.5009e-05,0,0,0,0.026686,-4.0159e-05,0.0079939,-0.014433,0.011547,0.023751,4.3213e-07,0.98,1,0
0.05,-0.01094,0.026678,-4.0518e-05,0.0079911,-3.4065e-05,0,0,0.048585,-0.020882,0,-0.00017714,0,0,0,0.026678,-4.0561e-05,0.0079911,-0.073051,0.011543,0.023744,4.3172e-07,1,1,0
