"Displacements:0","Displacements:1","Stress/Strain:0","Stress/Strain:1","Stress/Strain:2","Stress/Strain:3","Stress/Strain:4","Stress/Strain:5","Stress/Strain:6","Stress/Strain:7","Stress/Strain:8","Stress/Strain:9","Stress/Strain:10","Stress/Strain:11","Stress/Strain:12","Principal Stress:0","Principal Stress:1","Principal Stress:2","Principal Stress:3","Principal Stress:4","Principal Stress:5","Principal Stress:6","nodes:0","nodes:1","nodes:2"
0,0,0.0081089,0.0034752,0.0034752,0.0023153,0,0,0.12047,1.7347e-17,0,0.12039,0,0,0,0.0090674,0.0025167,0.0034752,22.49,0.0050198,0.006128,1.085e-08,0,0,0
0.0024095,0.0024079,0.0058007,0.00042917,0.001869,0.00092447,0,0,0.10222,-0.037435,0,0.048072,0,0,0,0.0059553,0.00027452,0.001869,9.497,0.0026996,0.0050751,4.5473e-09,0.02,0,0
0.004089,0.0039178,0.0042397,0.00017504,0.0013244,0.0003128,0,0,0.075797,-0.029884,0,0.016265,0,0,0,0.0042636,0.00015111,0.0013244,4.3749,0.001913,0.0036694,1.6903e-09,0.04,0,0
0.0054414,0.0052093,0.0034929,-1.8373e-05,0.0010424,0.00019242,0,0,0.063714,-0.027579,0,0.010006,0,0,0,0.0035034,-2.8886e-05,0.0010424,3.1273,0.0015056,0.003137,9.8474e-10,0.06,0,0
0.0066376,0.0062942,0.0031289,-4.3772e-05,0.00092554,0.00012222,0,0,0.057287,-0.025202,0,0.0063555,0,0,0,0.0031336,-4.8473e-05,0.00092554,2.2029,0.0013369,0.002824,7.0992e-10,0.08,0,0
0.0077329,0.0072261,0.0028882,-5.536e-05,0.00084986,8.7534e-05,0,0,0.052998,-0.023536,0,0.0045518,0,0,0,0.0028908,-5.7961e-05,0.00084986,1.7018,0.0012276,0.0026158,5.5998e-10,0.1,0,0
0.0087575,0.0080279,0.0027169,-5.7638e-05,0.00079778,6.6026e-05,0,0,0.049897,-0.022241,0,0.0034333,0,0,0,0.0027185,-5.9208e-05,0.00079778,1.3624,0.0011523,0.0024636,4.6647e-10,0.12,0,0
0.0097287,0.0087158,0.0025856,-5.7812e-05,0.00075834,5.2052e-05,0,0,0.047509,-0.02122,0,0.0027067,0,0,0,0.0025866,-5.8836e-05,0.00075834,1.1276,0.0010954,0.0023461,4.0223e-10,0.14,0,0
0.010658,0.0093006,0.0024807,-5.7086e-05,0.00072709,4.2306e-05,0,0,0.045594,-0.020388,0,0.0021999,0,0,0,0.0024814,-5.7791e-05,0.00072709,0.95479,0.0010502,0.0022518,3.5531e-10,0.16,0,0
0.011553,0.0097896,0.0023943,-5.6115e-05,0.00070146,3.5095e-05,0,0,0.044014,-0.019697,0,0.0018249,0,0,0,0.0023948,-5.6617e-05,0.00070146,0.82036,0.0010132,0.0021739,3.1951e-10,0.18,0,0
0.012418,0.010188,0.002322,-5.5078e-05,0.00068008,2.9345e-05,0,0,0.04269,-0.019114,0,0.0015259,0,0,0,0.0023224,-5.544e-05,0.00068008,0.70716,0.00098234,0.0021086,2.9145e-10,0.2,0,0
0.01326,0.0105,0.0022616,-5.3991e-05,0.00066227,2.4327e-05,0,0,0.041581,-0.018623,0,0.001265,0,0,0,0.0022618,-5.4247e-05,0.00066227,0.60186,0.00095661,0.0020538,2.6926e-10,0.22,0,0
0.014082,0.010726,0.0022122,-5.2771e-05,0.00064783,1.9509e-05,0,0,0.040674,-0.018216,0,0.0010144,0,0,0,0.0022124,-5.2939e-05,0.00064783,0.49345,0.00093576,0.0020088,2.5198e-10,0.24,0,0
0.014887,0.01087,0.0021744,-5.1277e-05,0.00063695,1.4485e-05,0,0,0.039975,-0.017894,0,0.0007532,0,0,0,0.0021745,-5.1371e-05,0.00063695,0.37285,0.00092003,0.0019739,2.3919e-10,0.26,0,0
0.015681,0.010931,0.0021496,-4.9328e-05,0.00063007,8.957e-06,0,0,0.039507,-0.017664,0,0.00046576,0,0,0,0.0021496,-4.9364e-05,0.00063007,0.23339,0.0009101,0.0019501,2.309e-10,0.28,0,0
0.016467,0.010912,0.0021396,-4.6723e-05,0.00062785,2.7316e-06,0,0,0.039304,-0.017539,0,0.00014204,0,0,0,0.0021396,-4.6726e-05,0.00062785,0.071588,0.00090689,0.0019391,2.2743e-10,0.3,0,0
0.017253,0.010813,0.0021467,-4.3254e-05,0.00063105,-4.2701e-06,0,0,0.039408,-0.017532,0,-0.00022205,0,0,0,0.0021468,-4.3262e-05,0.00063105,-0.11172,0.00091151,0.0019427,2.2935e-10,0.32,0,0
0.018044,0.010638,0.0021735,-3.8724e-05,0.00064044,-1.1995e-05,0,0,0.03986,-0.017658,0,-0.00062376,0,0,0,0.0021736,-3.8789e-05,0.00064044,-0.31066,0.00092508,0.001963,2.375e-10,0.34,0,0
0.018847,0.010392,0.0022219,-3.297e-05,0.00065668,-2.0244e-05,0,0,0.040696,-0.017931,0,-0.0010527,0,0,0,0.0022221,-3.3152e-05,0.00065668,-0.51435,0.00094854,0.0020016,2.53e-10,0.36,0,0
0.019672,0.010081,0.0022932,-2.5896e-05,0.00068019,-2.8659e-05,0,0,0.041938,-0.018358,0,-0.0014903,0,0,0,0.0022935,-2.625e-05,0.00068019,-0.70791,0.00098249,0.0020595,2.7721e-10,0.38,0,0
0.020525,0.0097162,0.0023873,-1.7519e-05,0.00071095,-3.6714e-05,0,0,0.043586,-0.01894,0,-0.0019092,0,0,0,0.0023879,-1.8079e-05,0.00071095,-0.87444,0.0010269,0.0021369,3.1159e-10,0.4,0,0
0.021415,0.0093094,0.0025027,-8.0091e-06,0.00074841,-4.3728e-05,0,0,0.045612,-0.019667,0,-0.0022739,0,0,0,0.0025035,-8.7705e-06,0.00074841,-0.9975,0.001081,0.0022321,3.5751e-10,0.42,0,0
0.022349,0.0088772,0.0026353,2.3015e-06,0.00079129,-4.8908e-05,0,0,0.047945,-0.020514,0,-0.0025432,0,0,0,0.0026363,1.3933e-06,0.00079129,-1.0638,0.001143,0.002342,4.1568e-10,0.44,0,0
0.023333,0.0084389,0.0027791,1.2979e-05,0.00083761,-5.1468e-05,0,0,0.050478,-0.021441,0,-0.0026763,0,0,0,0.00278,1.2021e-05,0.00083761,-1.0656,0.0012099,0.0024613,4.8548e-10,0.46,0,0
0.024368,0.0080162,0.0029257,2.3585e-05,0.00088477,-5.0834e-05,0,0,0.053063,-0.022391,0,-0.0026433,0,0,0,0.0029265,2.2695e-05,0.00088477,-1.0032,0.001278,0.002583,5.6423e-10,0.48,0,0
0.025455,0.0076314,0.0030658,3.3743e-05,0.00092986,-4.6851e-05,0,0,0.055534,-0.023299,0,-0.0024362,0,0,0,0.0030665,3.3019e-05,0.00092986,-0.88505,0.0013431,0.0026992,6.4696e-10,0.5,0,0
0.02659,0.007306,0.0031904,4.309e-05,0.00097004,-3.9893e-05,0,0,0.057729,-0.024101,0,-0.0020744,0,0,0,0.0031909,4.2584e-05,0.00097004,-0.72609,0.0014012,0.0028022,7.2683e-10,0.52,0,0
0.027764,0.0070591,0.003292,5.1152e-05,0.0010029,-3.0736e-05,0,0,0.059514,-0.024746,0,-0.0015983,0,0,0,0.0032922,5.0861e-05,0.0010029,-0.54333,0.0014487,0.0028857,7.9645e-10,0.54,0,0
0.02897,0.0069057,0.0033653,5.7311e-05,0.0010268,-2.0258e-05,0,0,0.060802,-0.025206,0,-0.0010534,0,0,0,0.0033654,5.7187e-05,0.0010268,-0.35086,0.0014831,0.0029457,8.4929e-10,0.56,0,0
0.030197,0.0068565,0.0034075,6.0925e-05,0.0010405,-9.1335e-06,0,0,0.061541,-0.02547,0,-0.00047494,0,0,0,0.0034075,6.09e-05,0.0010405,-0.15637,0.001503,0.0029801,8.8067e-10,0.58,0,0
0.031432,0.0069171,0.0034171,6.1575e-05,0.0010436,2.258e-06,0,0,0.061711,-0.025533,0,0.00011742,0,0,0,0.0034171,6.1573e-05,0.0010436,0.038556,0.0015074,0.0029881,8.8795e-10,0.6,0,0
0.032665,0.0070889,0.0033937,5.9241e-05,0.0010359,1.3679e-05,0,0,0.061303,-0.025393,0,0.0007113,0,0,0,0.0033938,5.9185e-05,0.0010359,0.23504,0.0014963,0.0029692,8.7045e-10,0.62,0,0
0.033884,0.0073685,0.003338,5.4308e-05,0.0010177,2.4753e-05,0,0,0.060327,-0.025048,0,0.0012871,0,0,0,0.0033381,5.4121e-05,0.0010177,0.43187,0.00147,0.0029238,8.2951e-10,0.64,0,0
0.035078,0.0077476,0.0032521,4.739e-05,0.00098984,3.4804e-05,0,0,0.058818,-0.024504,0,0.0018098,0,0,0,0.0032525,4.7012e-05,0.00098984,0.62216,0.0014298,0.0028534,7.6879e-10,0.66,0,0
0.036237,0.0082133,0.0031406,3.9092e-05,0.00095389,4.2939e-05,0,0,0.056853,-0.023785,0,0.0022328,0,0,0,0.0031411,3.8498e-05,0.00095389,0.79305,0.0013778,0.0027612,6.9422e-10,0.68,0,0
0.037352,0.0087488,0.0030101,2.9876e-05,0.00091201,4.8347e-05,0,0,0.054552,-0.022935,0,0.0025141,0,0,0,0.0030109,2.9092e-05,0.00091201,0.92915,0.0013173,0.0026529,6.1317e-10,0.7,0,0
0.038419,0.0093343,0.0028694,2.01e-05,0.00086684,5.0602e-05,0,0,0.052066,-0.022015,0,0.0026313,0,0,0,0.0028703,1.9202e-05,0.00086684,1.0171,0.0012521,0.0025358,5.3293e-10,0.72,0,0
0.039435,0.0099488,0.0027271,1.0138e-05,0.00082119,4.9797e-05,0,0,0.049555,-0.021087,0,0.0025894,0,0,0,0.0027281,9.2253e-06,0.00082119,1.0496,0.0011862,0.0024174,4.5923e-10,0.74,0,0
0.040401,0.010572,0.0025915,4.2755e-07,0.00077758,4.6448e-05,0,0,0.047162,-0.020206,0,0.0024153,0,0,0,0.0025923,-4.0481e-07,0.00077758,1.0267,0.0011232,0.0023044,3.9554e-10,0.76,0,0
0.041321,0.011185,0.0024685,-8.5887e-06,0.00073798,4.1295e-05,0,0,0.044994,-0.019411,0,0.0021474,0,0,0,0.0024692,-9.277e-06,0.00073798,0.95481,0.001066,0.0022021,3.4313e-10,0.78,0,0
0.042201,0.011774,0.0023621,-1.6565e-05,0.00070367,3.5106e-05,0,0,0.04312,-0.018726,0,0.0018255,0,0,0,0.0023626,-1.7083e-05,0.00070367,0.84535,0.0010164,0.0021136,3.017e-10,0.8,0,0
0.043046,0.012324,0.0022741,-2.3311e-05,0.00067525,2.856e-05,0,0,0.041571,-0.018163,0,0.0014851,0,0,0,0.0022745,-2.3666e-05,0.00067525,0.71212,0.00097536,0.0020405,2.7006e-10,0.82,0,0
0.043864,0.012828,0.0022045,-2.8786e-05,0.00065272,2.2204e-05,0,0,0.040347,-0.017719,0,0.0011546,0,0,0,0.0022048,-2.9007e-05,0.00065272,0.56958,0.00094282,0.0019828,2.4668e-10,0.84,0,0
0.04466,0.013278,0.002152,-3.306e-05,0.0006357,1.644e-05,0,0,0.039425,-0.017388,0,0.00085487,0,0,0,0.0021522,-3.3183e-05,0.0006357,0.43103,0.00091823,0.0019394,2.2998e-10,0.86,0,0
0.045441,0.01367,0.0021145,-3.6266e-05,0.00062347,1.1527e-05,0,0,0.038767,-0.017153,0,0.00059941,0,0,0,0.0021146,-3.6328e-05,0.00062347,0.30707,0.00090057,0.0019085,2.1853e-10,0.88,0,0
0.046211,0.014002,0.0020892,-3.8571e-05,0.00061519,7.5947e-06,0,0,0.038324,-0.016998,0,0.00039492,0,0,0,0.0020892,-3.8598e-05,0.00061519,0.2045,0.00088861,0.0018878,2.1104e-10,0.9,0,0
0.046974,0.014273,0.0020733,-4.015e-05,0.00060995,4.6522e-06,0,0,0.038047,-0.016903,0,0.00024191,0,0,0,0.0020733,-4.016e-05,0.00060995,0.12612,0.00088104,0.001875,2.0645e-10,0.92,0,0
0.047732,0.014482,0.0020641,-4.1173e-05,0.00060689,2.6109e-06,0,0,0.037889,-0.01685,0,0.00013577,0,0,0,0.0020641,-4.1176e-05,0.00060689,0.071055,0.00087662,0.0018676,2.0384e-10,0.94,0,0
0.048489,0.014632,0.0020594,-4.1787e-05,0.00060528,1.3061e-06,0,0,0.037807,-0.016824,0,6.7917e-05,0,0,0,0.0020594,-4.1788e-05,0.00060528,0.035615,0.00087429,0.0018639,2.025e-10,0.96,0,0
0.049245,0.014721,0.0020573,-4.2107e-05,0.00060455,5.1956e-07,0,0,0.037771,-0.016813,0,2.7017e-05,0,0,0,0.0020573,-4.2107e-05,0.00060455,0.01418,0.00087324,0.0018622,2.0191e-10,0.98,0,0
0.05,0.014751,0.0020567,-4.2206e-05,0.00060434,2.8557e-05,0,0,0.037761,-0.01681,0,0.001485,0,0,0,0.0020571,-4.2594e-05,0.00060434,0.77935,0.00087294,0.0018625,2.019e-10,1,0,0
0,0,0.0047521,0.0020366,0.0020366,0.0015953,0,0,0.070603,1.7347e-18,0,0.082958,0,0,0,0.0054893,0.0012995,0.0020366,24.8,0.0029418,0.0038742,2.6258e-09,0,0.02,0
0.0014121,0.0016592,0.0043248,0.00043224,0.0014271,0.001012,0,0,0.075339,-0.025866,0,0.052625,0,0,0,0.0045721,0.00018485,0.0014271,13.737,0.0020614,0.0039168,2.072e-09,0.02,0.02,0
0.0030136,0.0033201,0.0043251,0.00034451,0.0014009,0.00067259,0,0,0.07603,-0.027466,0,0.034975,0,0,0,0.0044357,0.00023393,0.0014009,9.336,0.0020235,0.0037568,1.8635e-09,0.04,0.02,0
0.0044533,0.0046578,0.0038464,0.00018405,0.0012091,0.00041488,0,0,0.068569,-0.026652,0,0.021574,0,0,0,0.0038928,0.00013764,0.0012091,6.3829,0.0017465,0.0033505,1.2867e-09,0.06,0.02,0
0.0057563,0.0057902,0.0034855,0.0001077,0.001078,0.00028502,0,0,0.062595,-0.025226,0,0.014821,0,0,0,0.0035094,8.3822e-05,0.001078,4.7895,0.001557,0.0030524,9.5542e-10,0.08,0.02,0
0.0069571,0.0067554,0.0032223,6.6832e-05,0.00098674,0.00020688,0,0,0.058125,-0.023918,0,0.010758,0,0,0,0.0032358,5.3326e-05,0.00098674,3.7351,0.0014253,0.0028335,7.5531e-10,0.1,0.02,0
0.0080813,0.0075831,0.0030264,4.4064e-05,0.00092114,0.00015784,0,0,0.054737,-0.022804,0,0.0082075,0,0,0,0.0030347,3.5733e-05,0.00092114,3.021,0.0013305,0.0026688,6.2636e-10,0.12,0.02,0
0.0091465,0.0082914,0.0028752,3.0543e-05,0.00087173,0.0001249,0,0,0.052091,-0.021871,0,0.0064946,0,0,0,0.0028807,2.507e-05,0.00087173,2.5091,0.0012592,0.0025404,5.3757e-10,0.14,0.02,0
0.010165,0.0088928,0.0027549,2.2259e-05,0.00083316,0.00010163,0,0,0.049966,-0.021084,0,0.005285,0,0,0,0.0027587,1.8484e-05,0.00083316,2.127,0.0012035,0.0024373,4.7317e-10,0.16,0.02,0
0.011145,0.0093957,0.0026571,1.7206e-05,0.00080228,8.4265e-05,0,0,0.048224,-0.020412,0,0.0043818,0,0,0,0.0026597,1.4519e-05,0.00080228,1.8264,0.0011588,0.0023524,4.2462e-10,0.18,0.02,0
0.012094,0.0098059,0.0025763,1.4326e-05,0.00077719,7.0399e-05,0,0,0.046777,-0.019834,0,0.0036607,0,0,0,0.0025782,1.2393e-05,0.00077719,1.5728,0.0011226,0.0022817,3.8704e-10,0.2,0.02,0
0.013016,0.010127,0.0025096,1.3013e-05,0.00075678,5.8386e-05,0,0,0.045573,-0.019338,0,0.0030361,0,0,0,0.002511,1.1648e-05,0.00075678,1.339,0.0010931,0.0022225,3.5759e-10,0.22,0.02,0
0.013917,0.010362,0.0024553,1.2881e-05,0.00074044,4.702e-05,0,0,0.044585,-0.018917,0,0.002445,0,0,0,0.0024562,1.1976e-05,0.00074044,1.1025,0.0010695,0.0021735,3.3461e-10,0.24,0.02,0
0.0148,0.010512,0.0024128,1.3642e-05,0.00072792,3.5391e-05,0,0,0.043806,-0.018571,0,0.0018403,0,0,0,0.0024133,1.312e-05,0.00072792,0.84497,0.0010514,0.0021345,3.1719e-10,0.26,0.02,0
0.015669,0.010578,0.0023822,1.5037e-05,0.00071918,2.2834e-05,0,0,0.043239,-0.018308,0,0.0011873,0,0,0,0.0023825,1.4817e-05,0.00071918,0.5526,0.0010388,0.0021057,3.0493e-10,0.28,0.02,0
0.016529,0.010561,0.0023644,1.6788e-05,0.00071435,8.9163e-06,0,0,0.042901,-0.018137,0,0.00046365,0,0,0,0.0023644,1.6754e-05,0.00071435,0.21761,0.0010318,0.0020882,2.9778e-10,0.3,0.02,0
0.017385,0.010462,0.0023602,1.8583e-05,0.00071363,-6.5333e-06,0,0,0.04281,-0.018071,0,-0.00033973,0,0,0,0.0023602,1.8565e-05,0.00071363,-0.15986,0.0010308,0.002083,2.9593e-10,0.32,0.02,0
0.018242,0.010285,0.0023705,2.0074e-05,0.00071719,-2.3399e-05,0,0,0.042987,-0.018125,0,-0.0012168,0,0,0,0.0023708,1.9841e-05,0.00071719,-0.57031,0.0010359,0.0020914,2.9976e-10,0.34,0.02,0
0.019105,0.010034,0.0023962,2.0884e-05,0.00072514,-4.1249e-05,0,0,0.043449,-0.018311,0,-0.002145,0,0,0,0.002397,2.0168e-05,0.00072514,-0.99457,0.0010474,0.0021144,3.0978e-10,0.36,0.02,0
0.01998,0.0097143,0.0024374,2.0627e-05,0.00073742,-5.9319e-05,0,0,0.0442,-0.018637,0,-0.0030846,0,0,0,0.0024389,1.9172e-05,0.00073742,-1.4052,0.0010652,0.0021524,3.2652e-10,0.38,0.02,0
0.020873,0.0093374,0.0024935,1.8917e-05,0.00075373,-7.6506e-05,0,0,0.045234,-0.019105,0,-0.0039783,0,0,0,0.0024959,1.6554e-05,0.00075373,-1.7691,0.0010887,0.0022052,3.5042e-10,0.4,0.02,0
0.021789,0.008916,0.0025629,1.5405e-05,0.00077348,-9.1394e-05,0,0,0.046524,-0.01971,0,-0.0047525,0,0,0,0.0025661,1.213e-05,0.00077348,-2.0521,0.0011172,0.0022711,3.8165e-10,0.42,0.02,0
0.022734,0.0084669,0.0026426,9.9062e-06,0.00079575,-0.00010234,0,0,0.048018,-0.020432,0,-0.0053218,0,0,0,0.0026466,5.9338e-06,0.00079575,-2.2228,0.0011494,0.0023476,4.1981e-10,0.44,0.02,0
0.02371,0.0080101,0.0027287,2.6076e-06,0.0008194,-0.00010773,0,0,0.049642,-0.021236,0,-0.0056017,0,0,0,0.002733,-1.6427e-06,0.0008194,-2.2594,0.0011836,0.0024304,4.6369e-10,0.46,0.02,0
0.024719,0.0075684,0.0028161,-5.7129e-06,0.00084313,-0.00010634,0,0,0.051298,-0.02207,0,-0.0055298,0,0,0,0.0028202,-9.7148e-06,0.00084313,-2.1551,0.0012178,0.0025144,5.1104e-10,0.48,0.02,0
0.025762,0.0071654,0.0028994,-1.3743e-05,0.00086571,-9.7895e-05,0,0,0.052877,-0.022866,0,-0.0050905,0,0,0,0.0029027,-1.7029e-05,0.00086571,-1.9225,0.0012505,0.0025936,5.5869e-10,0.5,0.02,0
0.026834,0.006824,0.0029734,-2.0121e-05,0.00088599,-8.3211e-05,0,0,0.054273,-0.023559,0,-0.004327,0,0,0,0.0029757,-2.2432e-05,0.00088599,-1.591,0.0012798,0.0026628,6.0297e-10,0.52,0.02,0
0.027933,0.0065642,0.0030338,-2.4133e-05,0.00090291,-6.4005e-05,0,0,0.055404,-0.024103,0,-0.0033283,0,0,0,0.0030352,-2.5472e-05,0.00090291,-1.1985,0.0013042,0.0027181,6.4042e-10,0.54,0.02,0
0.02905,0.0064016,0.0030777,-2.6061e-05,0.0009155,-4.2172e-05,0,0,0.056218,-0.02448,0,-0.0021929,0,0,0,0.0030783,-2.6634e-05,0.0009155,-0.7783,0.0013224,0.0027573,6.6827e-10,0.56,0.02,0
0.030181,0.0063471,0.0031032,-2.6825e-05,0.00092292,-1.9118e-05,0,0,0.056688,-0.024693,0,-0.00099413,0,0,0,0.0031033,-2.6942e-05,0.00092292,-0.34993,0.0013331,0.0027799,6.8475e-10,0.58,0.02,0
0.031318,0.0064065,0.0031095,-2.7202e-05,0.00092468,4.4569e-06,0,0,0.056804,-0.024749,0,0.00023176,0,0,0,0.0031095,-2.7208e-05,0.00092468,0.081412,0.0013357,0.0027855,6.8886e-10,0.6,0.02,0
0.032454,0.0065811,0.0030961,-2.72e-05,0.00092067,2.8174e-05,0,0,0.056561,-0.024645,0,0.001465,0,0,0,0.0030964,-2.7454e-05,0.00092067,0.51678,0.0013299,0.0027741,6.8026e-10,0.62,0.02,0
0.03358,0.0068675,0.0030634,-2.6046e-05,0.00091122,5.1341e-05,0,0,0.055958,-0.024369,0,0.0026697,0,0,0,0.0030643,-2.6899e-05,0.00091122,0.95178,0.0013162,0.0027451,6.5928e-10,0.64,0.02,0
0.034692,0.0072575,0.0030127,-2.2797e-05,0.00089696,7.2551e-05,0,0,0.055008,-0.023914,0,0.0037726,0,0,0,0.0030144,-2.453e-05,0.00089696,1.3684,0.0012956,0.0026989,6.2718e-10,0.66,0.02,0
0.035781,0.0077376,0.0029462,-1.7122e-05,0.00087871,8.9876e-05,0,0,0.053754,-0.023292,0,0.0046735,0,0,0,0.0029489,-1.9845e-05,0.00087871,1.7356,0.0012693,0.0026369,5.8631e-10,0.68,0.02,0
0.036842,0.0082901,0.0028677,-9.6792e-06,0.0008574,0.00010153,0,0,0.052267,-0.022544,0,0.0052794,0,0,0,0.0028713,-1.3257e-05,0.0008574,2.0183,0.0012385,0.0025626,5.4001e-10,0.7,0.02,0
0.037872,0.008894,0.0027819,-1.7972e-06,0.00083402,0.00010656,0,0,0.050644,-0.021731,0,0.0055411,0,0,0,0.0027859,-5.8704e-06,0.00083402,2.189,0.0012047,0.0024809,4.9197e-10,0.72,0.02,0
0.038868,0.009527,0.0026938,5.2175e-06,0.00080972,0.00010514,0,0,0.048987,-0.020917,0,0.0054674,0,0,0,0.0026979,1.112e-06,0.00080972,2.2361,0.0011696,0.0023971,4.4561e-10,0.74,0.02,0
0.039831,0.010168,0.0026083,1.0565e-05,0.00078567,9.8354e-05,0,0,0.047389,-0.020153,0,0.0051144,0,0,0,0.002612,6.8461e-06,0.00078567,2.1651,0.0011348,0.0023162,4.0343e-10,0.76,0.02,0
0.040763,0.010797,0.0025292,1.4013e-05,0.00076297,8.7721e-05,0,0,0.045923,-0.019473,0,0.0045615,0,0,0,0.0025323,1.0957e-05,0.00076297,1.995,0.0011021,0.002242,3.6691e-10,0.78,0.02,0
0.041668,0.011399,0.0024593,1.5691e-05,0.00074248,7.4835e-05,0,0,0.044636,-0.018897,0,0.0038914,0,0,0,0.0024615,1.3402e-05,0.00074248,1.7525,0.0010725,0.0021772,3.366e-10,0.8,0.02,0
0.042549,0.011961,0.0023999,1.5886e-05,0.00072474,6.111e-05,0,0,0.043555,-0.01843,0,0.0031777,0,0,0,0.0024015,1.432e-05,0.00072474,1.4674,0.0010468,0.0021231,3.1238e-10,0.82,0.02,0
0.04341,0.012474,0.0023517,1.4922e-05,0.00070999,4.7703e-05,0,0,0.042685,-0.018072,0,0.0024805,0,0,0,0.0023527,1.3949e-05,0.00070999,1.169,0.0010255,0.00208,2.9373e-10,0.84,0.02,0
0.044256,0.01293,0.0023142,1.3137e-05,0.00069819,3.5477e-05,0,0,0.042015,-0.017811,0,0.0018448,0,0,0,0.0023147,1.259e-05,0.00069819,0.8831,0.0010085,0.0020473,2.7989e-10,0.86,0.02,0
0.045091,0.013327,0.0022863,1.0863e-05,0.00068914,2.5008e-05,0,0,0.041525,-0.017635,0,0.0013004,0,0,0,0.0022865,1.0588e-05,0.00068914,0.6296,0.00099542,0.0020239,2.7003e-10,0.88,0.02,0
0.045917,0.013662,0.0022665,8.4137e-06,0.00068249,1.6587e-05,0,0,0.041185,-0.017526,0,0.0008625,0,0,0,0.0022667,8.2919e-06,0.00068249,0.42082,0.00098581,0.002008,2.6333e-10,0.9,0.02,0
0.046738,0.013935,0.0022534,6.0617e-06,0.00067783,1.0251e-05,0,0,0.040964,-0.017466,0,0.00053304,0,0,0,0.0022534,6.0149e-06,0.00067783,0.26134,0.00097908,0.0019981,2.5901e-10,0.92,0.02,0
0.047556,0.014145,0.0022451,4.0262e-06,0.00067474,5.8222e-06,0,0,0.040829,-0.017438,0,0.00030275,0,0,0,0.0022451,4.0111e-06,0.00067474,0.14885,0.00097462,0.0019923,2.5641e-10,0.94,0.02,0
0.048371,0.014295,0.0022403,2.4681e-06,0.00067284,2.9571e-06,0,0,0.040754,-0.01743,0,0.00015377,0,0,0,0.0022403,2.4642e-06,0.00067284,0.07571,0.00097187,0.0019893,2.5496e-10,0.96,0.02,0
0.049186,0.014385,0.0022379,1.4938e-06,0.00067182,1.1943e-06,0,0,0.040718,-0.017429,0,6.2104e-05,0,0,0,0.0022379,1.4932e-06,0.00067182,0.030598,0.00097041,0.0019879,2.5426e-10,0.98,0.02,0
0.05,0.014414,0.0022372,1.1627e-06,0.00067151,2.861e-05,0,0,0.040708,-0.017429,0,0.0014877,0,0,0,0.0022376,7.9674e-07,0.00067151,0.73293,0.00096996,0.0019882,2.5422e-10,1,0.02,0
0,0,0.0040195,0.0017227,0.0017227,0.0013204,0,0,0.059719,-3.0358e-18,0,0.06866,0,0,0,0.004621,0.0011212,0.0017227,24.492,0.0024883,0.0032413,1.5479e-09,0,0.04,0
0.0011944,0.0013732,0.003873,0.0010581,0.0014793,0.0011987,0,0,0.062235,-0.010952,0,0.062335,0,0,0,0.0043143,0.00061678,0.0014793,20.211,0.0021368,0.0033506,1.5088e-09,0.02,0.04,0
0.0024894,0.0028191,0.0038479,0.00051741,0.0013096,0.00096716,0,0,0.065996,-0.020597,0,0.050292,0,0,0,0.0041084,0.00025692,0.0013096,15.074,0.0018916,0.0034479,1.4624e-09,0.04,0.04,0
0.0038342,0.0041433,0.0037712,0.00032707,0.0012295,0.00071935,0,0,0.066085,-0.023463,0,0.037406,0,0,0,0.0039154,0.00018286,0.0012295,11.336,0.0017759,0.0033348,1.2914e-09,0.06,0.04,0
0.0051328,0.0052852,0.0035726,0.00020759,0.001134,0.00052896,0,0,0.063402,-0.024088,0,0.027506,0,0,0,0.0036538,0.0001264,0.001134,8.7263,0.0016381,0.003147,1.0649e-09,0.08,0.04,0
0.0063703,0.0062694,0.0033791,0.0001378,0.0010551,0.00040097,0,0,0.060424,-0.023849,0,0.02085,0,0,0,0.0034279,8.8935e-05,0.0010551,6.9484,0.001524,0.002976,8.8833e-10,0.1,0.04,0
0.0075498,0.0071157,0.0032117,9.4767e-05,0.00099193,0.00031288,0,0,0.057713,-0.023326,0,0.01627,0,0,0,0.0032427,6.3669e-05,0.00099193,5.676,0.0014328,0.0028315,7.5748e-10,0.12,0.04,0
0.0086788,0.007841,0.0030719,6.7607e-05,0.00094184,0.00025087,0,0,0.05538,-0.02273,0,0.013045,0,0,0,0.0030927,4.6802e-05,0.00094184,4.7408,0.0013604,0.0027115,6.6044e-10,0.14,0.04,0
0.009765,0.0084572,0.0029554,5.0224e-05,0.00090169,0.00020563,0,0,0.053397,-0.022138,0,0.010693,0,0,0,0.0029699,3.5741e-05,0.00090169,4.0286,0.0013024,0.0026112,5.869e-10,0.16,0.04,0
0.010815,0.0089731,0.0028579,3.9259e-05,0.00086916,0.00017118,0,0,0.051708,-0.021577,0,0.0089014,0,0,0,0.0028683,2.8901e-05,0.00086916,3.4626,0.0012554,0.0025263,5.2986e-10,0.18,0.04,0
0.011833,0.0093948,0.0027759,3.2777e-05,0.0008426,0.00014345,0,0,0.050266,-0.021056,0,0.0074596,0,0,0,0.0027834,2.5295e-05,0.0008426,2.9855,0.0012171,0.0024537,4.847e-10,0.2,0.04,0
0.012825,0.0097261,0.0027068,2.9603e-05,0.00082092,0.00011954,0,0,0.049033,-0.020574,0,0.0062162,0,0,0,0.0027121,2.4276e-05,0.00082092,2.5516,0.0011858,0.0023912,4.4849e-10,0.22,0.04,0
0.013795,0.0099698,0.002649,2.8957e-05,0.0008034,9.7271e-05,0,0,0.047987,-0.020135,0,0.0050581,0,0,0,0.0026526,2.5351e-05,0.0008034,2.1232,0.0011605,0.0023375,4.1934e-10,0.24,0.04,0
0.014745,0.010127,0.0026017,3.0241e-05,0.00078958,7.499e-05,0,0,0.047115,-0.019743,0,0.0038995,0,0,0,0.0026039,2.8056e-05,0.00078958,1.669,0.0011405,0.002292,3.961e-10,0.26,0.04,0
0.015679,0.010199,0.0025644,3.2897e-05,0.0007792,5.1485e-05,0,0,0.046416,-0.019404,0,0.0026772,0,0,0,0.0025655,3.1851e-05,0.0007792,1.1646,0.0011255,0.0022549,3.7815e-10,0.28,0.04,0
0.016601,0.010186,0.0025373,3.6332e-05,0.00077209,2.5973e-05,0,0,0.045896,-0.01913,0,0.0013506,0,0,0,0.0025376,3.6062e-05,0.00077209,0.59493,0.0011152,0.0022267,3.6521e-10,0.3,0.04,0
0.017515,0.01009,0.0025206,3.9871e-05,0.00076813,-1.8649e-06,0,0,0.045563,-0.018935,0,-9.6974e-05,0,0,0,0.0025206,3.9869e-05,0.00076813,-0.043072,0.0011095,0.0022086,3.5727e-10,0.32,0.04,0
0.018424,0.0099133,0.0025145,4.2764e-05,0.00076718,-3.1826e-05,0,0,0.04543,-0.018835,0,-0.001655,0,0,0,0.0025149,4.2354e-05,0.00076718,-0.73758,0.0011082,0.0022015,3.5446e-10,0.34,0.04,0
0.019332,0.0096597,0.0025192,4.4223e-05,0.00076903,-6.3156e-05,0,0,0.045505,-0.018845,0,-0.0032841,0,0,0,0.0025208,4.2612e-05,0.00076903,-1.4608,0.0011108,0.0022066,3.5695e-10,0.36,0.04,0
0.020244,0.009336,0.0025346,4.3469e-05,0.00077341,-9.4547e-05,0,0,0.04579,-0.018978,0,-0.0049164,0,0,0,0.0025381,3.9886e-05,0.00077341,-2.1704,0.0011171,0.0022241,3.6484e-10,0.38,0.04,0
0.021164,0.008952,0.0025599,3.975e-05,0.00077989,-0.00012416,0,0,0.04628,-0.019244,0,-0.0064565,0,0,0,0.002566,3.3647e-05,0.00077989,-2.8138,0.0011265,0.0022539,3.7808e-10,0.4,0.04,0
0.022095,0.008521,0.0025941,3.2388e-05,0.00078793,-0.00014969,0,0,0.046959,-0.019644,0,-0.0077838,0,0,0,0.0026028,2.367e-05,0.00078793,-3.3329,0.0011381,0.0022945,3.9633e-10,0.42,0.04,0
0.023042,0.0080599,0.0026351,2.0923e-05,0.00079681,-0.00016844,0,0,0.047796,-0.020173,0,-0.0087591,0,0,0,0.0026459,1.0114e-05,0.00079681,-3.6716,0.001151,0.0023437,4.1879e-10,0.44,0.04,0
0.024007,0.0075895,0.0026805,5.6085e-06,0.00080583,-0.00017768,0,0,0.048741,-0.020806,0,-0.0092393,0,0,0,0.0026922,-6.1422e-06,0.00080583,-3.7837,0.001164,0.0023978,4.4407e-10,0.46,0.04,0
0.024992,0.0071334,0.0027268,-1.2009e-05,0.00081444,-0.0001753,0,0,0.049721,-0.021488,0,-0.0091158,0,0,0,0.002738,-2.3185e-05,0.00081444,-3.6475,0.0011764,0.0024521,4.7014e-10,0.48,0.04,0
0.025996,0.0067167,0.0027705,-2.8962e-05,0.00082245,-0.00016079,0,0,0.050648,-0.022137,0,-0.0083609,0,0,0,0.0027797,-3.8167e-05,0.00082245,-3.2765,0.001188,0.0025012,4.9464e-10,0.5,0.04,0
0.027018,0.0063636,0.0028084,-4.1998e-05,0.00082991,-0.0001358,0,0,0.05144,-0.02267,0,-0.0070616,0,0,0,0.0028148,-4.8453e-05,0.00082991,-2.7215,0.0011988,0.0025407,5.1548e-10,0.52,0.04,0
0.028054,0.0060949,0.0028384,-4.9473e-05,0.00083668,-0.00010369,0,0,0.052045,-0.02304,0,-0.0053921,0,0,0,0.0028421,-5.3192e-05,0.00083668,-2.0538,0.0012085,0.0025687,5.3143e-10,0.54,0.04,0
0.0291,0.0059265,0.0028597,-5.2324e-05,0.00084221,-6.807e-05,0,0,0.052455,-0.023258,0,-0.0035396,0,0,0,0.0028613,-5.3914e-05,0.00084221,-1.3383,0.0012165,0.0025863,5.4232e-10,0.56,0.04,0
0.030152,0.0058687,0.0028722,-5.3116e-05,0.00084573,-3.1232e-05,0,0,0.052688,-0.02337,0,-0.0016241,0,0,0,0.0028725,-5.3449e-05,0.00084573,-0.61162,0.0012216,0.002596,5.4861e-10,0.58,0.04,0
0.031207,0.0059272,0.0028761,-5.3935e-05,0.00084665,6.158e-06,0,0,0.052766,-0.023415,0,0.00032021,0,0,0,0.0028761,-5.3948e-05,0.00084665,0.12042,0.0012229,0.0025995,5.5074e-10,0.6,0.04,0
0.032262,0.0061032,0.0028711,-5.4807e-05,0.00084489,4.4214e-05,0,0,0.052682,-0.023392,0,0.0022991,0,0,0,0.0028718,-5.5475e-05,0.00084489,0.86554,0.0012204,0.0025969,5.4857e-10,0.62,0.04,0
0.033314,0.0063937,0.0028566,-5.3668e-05,0.00084088,8.2301e-05,0,0,0.052408,-0.023258,0,0.0042797,0,0,0,0.0028589,-5.5994e-05,0.00084088,1.6186,0.0012146,0.0025859,5.4138e-10,0.64,0.04,0
0.034359,0.006791,0.002832,-4.7898e-05,0.00083524,0.00011813,0,0,0.051916,-0.022961,0,0.0061426,0,0,0,0.0028369,-5.2735e-05,0.00083524,2.3449,0.0012064,0.0025637,5.2841e-10,0.66,0.04,0
0.035391,0.0072816,0.0027978,-3.644e-05,0.0008284,0.00014804,0,0,0.051204,-0.022486,0,0.0076982,0,0,0,0.0028055,-4.4152e-05,0.0008284,2.9819,0.0011966,0.0025289,5.096e-10,0.68,0.04,0
0.036407,0.0078471,0.0027555,-2.0813e-05,0.0008204,0.00016856,0,0,0.050312,-0.021872,0,0.0087651,0,0,0,0.0027657,-3.101e-05,0.0008204,3.4617,0.001185,0.002483,4.8595e-10,0.7,0.04,0
0.037404,0.008465,0.0027078,-4.193e-06,0.00081109,0.0001778,0,0,0.049315,-0.021197,0,0.0092456,0,0,0,0.0027194,-1.58e-05,0.00081109,3.735,0.0011716,0.0024297,4.5937e-10,0.72,0.04,0
0.03838,0.0091121,0.002658,1.0459e-05,0.00080054,0.00017606,0,0,0.048294,-0.020542,0,0.0091551,0,0,0,0.0026697,-1.1974e-06,0.00080054,3.7879,0.0011563,0.0023738,4.3214e-10,0.74,0.04,0
0.039335,0.0097659,0.0026091,2.1543e-05,0.00078919,0.00016521,0,0,0.047317,-0.019959,0,0.0085909,0,0,0,0.0026196,1.1038e-05,0.00078919,3.6385,0.0011399,0.0023195,4.0623e-10,0.76,0.04,0
0.040272,0.010407,0.0025635,2.8709e-05,0.00077767,0.00014784,0,0,0.046432,-0.019473,0,0.0076876,0,0,0,0.0025721,2.0115e-05,0.00077767,3.3266,0.0011233,0.0022701,3.8303e-10,0.78,0.04,0
0.041193,0.011018,0.002523,3.2289e-05,0.00076659,0.00012654,0,0,0.045667,-0.019092,0,0.0065801,0,0,0,0.0025294,2.5876e-05,0.00076659,2.9009,0.0011073,0.0022276,3.633e-10,0.8,0.04,0
0.042099,0.011587,0.0024885,3.2825e-05,0.00075641,0.00010365,0,0,0.045035,-0.018813,0,0.0053896,0,0,0,0.0024929,2.8458e-05,0.00075641,2.4125,0.0010926,0.002193,3.4734e-10,0.82,0.04,0
0.042994,0.012105,0.0024605,3.0936e-05,0.00074743,8.1099e-05,0,0,0.04454,-0.018629,0,0.0042172,0,0,0,0.0024632,2.8232e-05,0.00074743,1.9097,0.0010796,0.0021668,3.3505e-10,0.84,0.04,0
0.043881,0.012565,0.0024388,2.7287e-05,0.00073982,6.0412e-05,0,0,0.044173,-0.018526,0,0.0031414,0,0,0,0.0024403,2.5774e-05,0.00073982,1.4342,0.0010686,0.0021484,3.2611e-10,0.86,0.04,0
0.044761,0.012964,0.0024228,2.2571e-05,0.00073361,4.2618e-05,0,0,0.043919,-0.018487,0,0.0022162,0,0,0,0.0024236,2.1815e-05,0.00073361,1.0169,0.0010597,0.0021367,3.2001e-10,0.88,0.04,0
0.045637,0.013301,0.0024117,1.7458e-05,0.00072876,2.8267e-05,0,0,0.043758,-0.018494,0,0.0014699,0,0,0,0.0024121,1.7124e-05,0.00072876,0.67631,0.0010527,0.0021302,3.1614e-10,0.9,0.04,0
0.046511,0.013574,0.0024046,1.2535e-05,0.00072513,1.7455e-05,0,0,0.043665,-0.018527,0,0.00090766,0,0,0,0.0024047,1.2407e-05,0.00072513,0.41806,0.0010474,0.0021274,3.1391e-10,0.92,0.04,0
0.047384,0.013785,0.0024003,8.269e-06,0.00072256,9.8969e-06,0,0,0.04362,-0.018572,0,0.00051464,0,0,0,0.0024003,8.2281e-06,0.00072256,0.23706,0.0010437,0.0021269,3.1278e-10,0.94,0.04,0
0.048256,0.013935,0.0023979,5.003e-06,0.00072087,5.0138e-06,0,0,0.043603,-0.018613,0,0.00026072,0,0,0,0.0023979,4.9924e-06,0.00072087,0.12005,0.0010413,0.0021273,3.1231e-10,0.96,0.04,0
0.049128,0.014024,0.0023968,2.9605e-06,0.00071993,2.0195e-06,0,0,0.043599,-0.018641,0,0.00010501,0,0,0,0.0023968,2.9588e-06,0.00071993,0.048336,0.0010399,0.002128,3.1215e-10,0.98,0.04,0
0.05,0.014054,0.0023965,2.2664e-06,0.00071962,2.8541e-05,0,0,0.043598,-0.018651,0,0.0014841,0,0,0,0.0023968,1.9262e-06,0.00071962,0.68288,0.0010395,0.0021288,3.1231e-10,1,0.04,0
0,0,0.0036558,0.0015668,0.0015668,0.0011741,0,0,0.054315,2.1684e-19,0,0.061054,0,0,0,0.0041828,0.0010398,0.0015668,24.172,0.0022631,0.0029154,1.1338e-09,0,0.06,0
0.0010863,0.0012211,0.0036108,0.001197,0.0014423,0.0011236,0,0,0.05638,-0.0063786,0,0.058425,0,0,0,0.0040528,0.00075498,0.0014423,21.476,0.0020834,0.0030135,1.1628e-09,0.02,0.06,0
0.0022552,0.0024962,0.0036351,0.0007987,0.0013301,0.0010302,0,0,0.059929,-0.013818,0,0.053572,0,0,0,0.0039698,0.000464,0.0013301,17.998,0.0019213,0.003163,1.2237e-09,0.04,0.06,0
0.0034835,0.0037192,0.003619,0.00051088,0.001239,0.00085995,0,0,0.061881,-0.01893,0,0.044717,0,0,0,0.0038411,0.00028882,0.001239,14.479,0.0017896,0.0031853,1.1755e-09,0.06,0.06,0
0.0047304,0.0048267,0.0035505,0.00034519,0.0011687,0.00069077,0,0,0.061927,-0.021411,0,0.03592,0,0,0,0.003693,0.00020266,0.0011687,11.658,0.0016881,0.0031215,1.0726e-09,0.08,0.06,0
0.0059605,0.0058014,0.0034403,0.00023865,0.0011037,0.00055174,0,0,0.060752,-0.022491,0,0.028691,0,0,0,0.0035327,0.00014624,0.0011037,9.5085,0.0015942,0.0030237,9.5467e-10,0.1,0.06,0
0.0071605,0.00665,0.0033232,0.00016966,0.0010478,0.00044558,0,0,0.059159,-0.022833,0,0.02317,0,0,0,0.0033849,0.00010791,0.0010478,7.8899,0.0015136,0.0029227,8.494e-10,0.12,0.06,0
0.0083269,0.0073822,0.0032124,0.00012403,0.0010009,0.00036525,0,0,0.057499,-0.0228,0,0.018993,0,0,0,0.0032551,8.1419e-05,0.0010009,6.6538,0.0014458,0.0028283,7.6142e-10,0.14,0.06,0
0.0094605,0.0080073,0.0031128,9.3786e-05,0.00096196,0.00030384,0,0,0.05592,-0.022572,0,0.0158,0,0,0,0.003143,6.351e-05,0.00096196,5.6903,0.0013895,0.002743,6.8926e-10,0.16,0.06,0
0.010564,0.0085326,0.0030246,7.4138e-05,0.00092963,0.00025561,0,0,0.05447,-0.022243,0,0.013292,0,0,0,0.0030466,5.2157e-05,0.00092963,4.915,0.0013428,0.0026663,6.2997e-10,0.18,0.06,0
0.011639,0.0089637,0.0029473,6.2159e-05,0.00090284,0.00021616,0,0,0.053156,-0.021858,0,0.011241,0,0,0,0.0029634,4.6054e-05,0.00090284,4.261,0.0013041,0.0025972,5.8079e-10,0.2,0.06,0
0.01269,0.0093042,0.0028797,5.5984e-05,0.0008807,0.00018205,0,0,0.051973,-0.021442,0,0.0094667,0,0,0,0.0028914,4.4295e-05,0.0008807,3.6738,0.0012721,0.0025346,5.3957e-10,0.22,0.06,0
0.013718,0.0095567,0.0028207,5.432e-05,0.0008625,0.00015058,0,0,0.050912,-0.021013,0,0.0078302,0,0,0,0.0028288,4.6147e-05,0.0008625,3.1066,0.0012458,0.0024775,5.0476e-10,0.24,0.06,0
0.014727,0.0097223,0.0027696,5.6139e-05,0.00084771,0.00011964,0,0,0.049968,-0.020581,0,0.0062211,0,0,0,0.0027748,5.0874e-05,0.00084771,2.5197,0.0012245,0.0024258,4.7531e-10,0.26,0.06,0
0.015717,0.0098019,0.0027259,6.0464e-05,0.00083591,8.7623e-05,0,0,0.04914,-0.020161,0,0.0045564,0,0,0,0.0027288,5.7587e-05,0.00083591,1.8808,0.0012074,0.0023795,4.5061e-10,0.28,0.06,0
0.016692,0.0097958,0.0026894,6.6229e-05,0.0008267,5.3485e-05,0,0,0.048431,-0.019772,0,0.0027812,0,0,0,0.0026905,6.5139e-05,0.0008267,1.1676,0.0011941,0.0023395,4.3039e-10,0.3,0.06,0
0.017654,0.009705,0.0026601,7.2202e-05,0.00081969,1.678e-05,0,0,0.047851,-0.019435,0,0.00087259,0,0,0,0.0026602,7.2094e-05,0.00081969,0.3715,0.001184,0.002307,4.1461e-10,0.32,0.06,0
0.018606,0.0095317,0.0026379,7.7006e-05,0.00081447,-2.2242e-05,0,0,0.047409,-0.019174,0,-0.0011566,0,0,0,0.0026381,7.6813e-05,0.00081447,-0.49758,0.0011764,0.0022836,4.034e-10,0.34,0.06,0
0.01955,0.0092797,0.0026226,7.9209e-05,0.00081055,-6.2601e-05,0,0,0.047114,-0.019015,0,-0.0032553,0,0,0,0.0026242,7.7669e-05,0.00081055,-1.4091,0.0011708,0.0022706,3.9683e-10,0.36,0.06,0
0.020491,0.0089552,0.002614,7.7457e-05,0.00080744,-0.00010263,0,0,0.046971,-0.018979,0,-0.0053369,0,0,0,0.0026182,7.3311e-05,0.00080744,-2.3133,0.0011663,0.0022687,3.9484e-10,0.38,0.06,0
0.021429,0.0085677,0.0026115,7.059e-05,0.00080463,-0.0001401,0,0,0.046979,-0.019085,0,-0.0072851,0,0,0,0.0026192,6.2889e-05,0.00080463,-3.1464,0.0011622,0.0022779,3.9715e-10,0.4,0.06,0
0.02237,0.0081303,0.0026144,5.7523e-05,0.00080157,-0.00017231,0,0,0.047133,-0.019345,0,-0.0089603,0,0,0,0.0026259,4.5962e-05,0.00080157,-3.8382,0.0011578,0.0022973,4.032e-10,0.42,0.06,0
0.023315,0.00766,0.0026216,3.7427e-05,0.00079772,-0.00019611,0,0,0.047422,-0.019768,0,-0.010198,0,0,0,0.0026364,2.2629e-05,0.00079772,-4.3151,0.0011523,0.0023253,4.1215e-10,0.44,0.06,0
0.024267,0.0071779,0.0026317,1.0248e-05,0.00079259,-0.00020806,0,0,0.047817,-0.020341,0,-0.010819,0,0,0,0.0026481,-6.1627e-06,0.00079259,-4.5098,0.0011448,0.0023586,4.2261e-10,0.46,0.06,0
0.025227,0.0067089,0.0026423,-2.1558e-05,0.00078624,-0.00020509,0,0,0.048259,-0.021003,0,-0.010665,0,0,0,0.002658,-3.7256e-05,0.00078624,-4.3768,0.0011357,0.0023923,4.3263e-10,0.48,0.06,0
0.026197,0.0062799,0.002651,-5.2244e-05,0.00077964,-0.00018638,0,0,0.048657,-0.021629,0,-0.0096919,0,0,0,0.0026638,-6.5034e-05,0.00077964,-3.9256,0.0011262,0.0024198,4.4007e-10,0.5,0.06,0
0.027174,0.0059172,0.0026562,-7.4741e-05,0.00077444,-0.00015457,0,0,0.048926,-0.022079,0,-0.0080377,0,0,0,0.0026649,-8.3462e-05,0.00077444,-3.2292,0.0011186,0.0024355,4.436e-10,0.52,0.06,0
0.028154,0.0056425,0.0026577,-8.5553e-05,0.00077164,-0.00011546,0,0,0.049037,-0.022287,0,-0.0060041,0,0,0,0.0026625,-9.0405e-05,0.00077164,-2.4059,0.0011146,0.002439,4.4354e-10,0.54,0.06,0
0.029135,0.0054713,0.0026571,-8.7434e-05,0.0007709,-7.4735e-05,0,0,0.049041,-0.022317,0,-0.0038862,0,0,0,0.0026591,-8.9467e-05,0.0007709,-1.5587,0.0011135,0.0024352,4.417e-10,0.56,0.06,0
0.030116,0.0054123,0.0026569,-8.6652e-05,0.00077108,-3.5206e-05,0,0,0.049032,-0.022301,0,-0.0018307,0,0,0,0.0026574,-8.7103e-05,0.00077108,-0.73507,0.0011138,0.0024317,4.4046e-10,0.58,0.06,0
0.031096,0.0054699,0.002659,-8.8145e-05,0.00077124,3.9737e-06,0,0,0.049081,-0.022344,0,0.00020663,0,0,0,0.002659,-8.8151e-05,0.00077124,0.082878,0.001114,0.002434,4.4142e-10,0.6,0.06,0
0.032079,0.0056454,0.0026631,-9.1987e-05,0.00077132,4.5139e-05,0,0,0.049185,-0.022446,0,0.0023472,0,0,0,0.0026638,-9.2726e-05,0.00077132,0.93841,0.0011141,0.002442,4.4453e-10,0.62,0.06,0
0.033064,0.0059372,0.002667,-9.3306e-05,0.0007721,8.9212e-05,0,0,0.049267,-0.022501,0,0.004639,0,0,0,0.0026699,-9.6187e-05,0.0007721,1.8492,0.0011153,0.0024501,4.481e-10,0.64,0.06,0
0.03405,0.006339,0.0026678,-8.5731e-05,0.00077461,0.00013344,0,0,0.049222,-0.022369,0,0.0069391,0,0,0,0.0026742,-9.2183e-05,0.00077461,2.7681,0.0011189,0.0024508,4.4963e-10,0.66,0.06,0
0.035033,0.0068382,0.0026634,-6.6253e-05,0.00077914,0.00017212,0,0,0.04899,-0.02198,0,0.0089504,0,0,0,0.0026742,-7.7063e-05,0.00077914,3.5939,0.0011254,0.0024386,4.4716e-10,0.68,0.06,0
0.036009,0.0074152,0.0026534,-3.8099e-05,0.00078461,0.00019926,0,0,0.04859,-0.02139,0,0.010362,0,0,0,0.0026681,-5.2771e-05,0.00078461,4.2111,0.0011333,0.0024137,4.4015e-10,0.7,0.06,0
0.036976,0.0080461,0.0026392,-8.1993e-06,0.00078929,0.00021191,0,0,0.048097,-0.020735,0,0.011019,0,0,0,0.002656,-2.5055e-05,0.00078929,4.5477,0.0011401,0.0023808,4.2962e-10,0.72,0.06,0
0.037933,0.0087053,0.0026227,1.7696e-05,0.00079212,0.00021057,0,0,0.047595,-0.020135,0,0.01095,0,0,0,0.0026396,7.8449e-07,0.00079212,4.5917,0.0011442,0.0023455,4.1739e-10,0.74,0.06,0
0.03888,0.0093695,0.002606,3.702e-05,0.00079291,0.00019801,0,0,0.047141,-0.019653,0,0.010297,0,0,0,0.0026212,2.1847e-05,0.00079291,4.3818,0.0011453,0.0023123,4.0515e-10,0.76,0.06,0
0.039819,0.010018,0.0025905,4.9644e-05,0.00079205,0.00017745,0,0,0.04676,-0.019303,0,0.0092275,0,0,0,0.0026028,3.7311e-05,0.00079205,3.9758,0.0011441,0.0022837,3.9407e-10,0.78,0.06,0
0.040751,0.010636,0.002577,5.6161e-05,0.00078995,0.00015196,0,0,0.046463,-0.019078,0,0.0079018,0,0,0,0.0025861,4.7034e-05,0.00078995,3.4373,0.001141,0.0022611,3.8485e-10,0.8,0.06,0
0.041677,0.011209,0.002566,5.7395e-05,0.00078702,0.00012425,0,0,0.046254,-0.01897,0,0.006461,0,0,0,0.0025722,5.1256e-05,0.00078702,2.8286,0.0011368,0.0022453,3.779e-10,0.82,0.06,0
0.042601,0.011728,0.0025579,5.4256e-05,0.00078364,9.6745e-05,0,0,0.04613,-0.018964,0,0.0050307,0,0,0,0.0025616,5.0523e-05,0.00078364,2.2096,0.0011319,0.0022365,3.7335e-10,0.84,0.06,0
0.043522,0.012189,0.0025525,4.7881e-05,0.00078013,7.1413e-05,0,0,0.046083,-0.019038,0,0.0037135,0,0,0,0.0025546,4.5846e-05,0.00078013,1.6319,0.0011268,0.002234,3.7104e-10,0.86,0.06,0
0.044444,0.012587,0.0025498,3.9527e-05,0.00077679,4.9651e-05,0,0,0.046098,-0.019169,0,0.0025819,0,0,0,0.0025508,3.8545e-05,0.00077679,1.1327,0.001122,0.0022364,3.7056e-10,0.88,0.06,0
0.045366,0.012922,0.002549,3.0426e-05,0.00077383,3.2214e-05,0,0,0.046155,-0.019328,0,0.0016751,0,0,0,0.0025494,3.0014e-05,0.00077383,0.73269,0.0011178,0.002242,3.7135e-10,0.9,0.06,0
0.04629,0.013193,0.0025496,2.1655e-05,0.00077137,1.925e-05,0,0,0.046233,-0.019492,0,0.001001,0,0,0,0.0025497,2.1508e-05,0.00077137,0.43627,0.0011142,0.0022491,3.7286e-10,0.92,0.06,0
0.047216,0.013402,0.0025508,1.4059e-05,0.00076946,1.0403e-05,0,0,0.046315,-0.019641,0,0.00054094,0,0,0,0.0025509,1.4017e-05,0.00076946,0.23495,0.0011114,0.0022561,3.7456e-10,0.94,0.06,0
0.048143,0.013551,0.0025521,8.2477e-06,0.00076812,4.9362e-06,0,0,0.046385,-0.019757,0,0.00025668,0,0,0,0.0025522,8.2381e-06,0.00076812,0.11118,0.0011095,0.0022618,3.7606e-10,0.96,0.06,0
0.049071,0.013639,0.0025531,4.6159e-06,0.00076732,1.8536e-06,0,0,0.046431,-0.01983,0,9.6389e-05,0,0,0,0.0025531,4.6145e-06,0.00076732,0.041673,0.0011084,0.0022656,3.7707e-10,0.98,0.06,0
0.05,0.013668,0.0025535,3.3821e-06,0.00076706,2.822e-05,0,0,0.046447,-0.019856,0,0.0014674,0,0,0,0.0025538,3.0699e-06,0.00076706,0.63394,0.001108,0.0022674,3.7761e-10,1,0.06,0
0,0,0.0034836,0.001493,0.001493,0.001075,0,0,0.051757,0,0,0.055903,0,0,0,0.0039534,0.0010233,0.001493,23.603,0.0021565,0.0027258,9.3688e-10,0,0.08,0
0.0010351,0.0011181,0.0034589,0.0012306,0.0014069,0.0010528,0,0,0.053353,-0.0045819,0,0.054743,0,0,0,0.0038776,0.00081191,0.0014069,21.689,0.0020321,0.0028157,9.7624e-10,0.02,0.08,0
0.0021341,0.0022664,0.0035034,0.0009396,0.0013329,0.0010028,0,0,0.056433,-0.010226,0,0.052148,0,0,0,0.0038491,0.00059394,0.0013329,19.018,0.0019253,0.0029558,1.052e-09,0.04,0.08,0
0.0032925,0.0033861,0.0035235,0.0006787,0.0012607,0.00089862,0,0,0.058833,-0.015131,0,0.046728,0,0,0,0.0037835,0.00041861,0.0012607,16.142,0.0018209,0.0030329,1.0692e-09,0.06,0.08,0
0.0044874,0.0044287,0.0035072,0.00048443,0.0011975,0.00077076,0,0,0.060053,-0.01854,0,0.04008,0,0,0,0.0036924,0.00029924,0.0011975,13.51,0.0017297,0.0030451,1.036e-09,0.08,0.08,0
0.0056946,0.0053698,0.0034584,0.0003505,0.0011427,0.00064832,0,0,0.060209,-0.020596,0,0.033713,0,0,0,0.0035882,0.00022068,0.0011427,11.323,0.0016505,0.0030142,9.756e-10,0.1,0.08,0
0.0068958,0.0062024,0.0033888,0.00025746,0.0010939,0.00054331,0,0,0.059668,-0.021747,0,0.028252,0,0,0,0.0034804,0.00016587,0.0010939,9.5687,0.00158,0.0029617,9.0591e-10,0.12,0.08,0
0.0080813,0.006929,0.0033118,0.00019301,0.0010515,0.00045746,0,0,0.05877,-0.022319,0,0.023788,0,0,0,0.0033776,0.0001273,0.0010515,8.1746,0.0015188,0.0029008,8.3806e-10,0.14,0.08,0
0.0092466,0.0075543,0.003235,0.00014868,0.0010151,0.00038812,0,0,0.057717,-0.022527,0,0.020182,0,0,0,0.003283,0.00010062,0.0010151,7.0589,0.0014663,0.0028379,7.761e-10,0.16,0.08,0
0.01039,0.0080834,0.0031618,0.00011898,0.00098424,0.00033162,0,0,0.056617,-0.022497,0,0.017244,0,0,0,0.0031975,8.3254e-05,0.00098424,6.1482,0.0014217,0.0027757,7.2091e-10,0.18,0.08,0
0.011511,0.0085205,0.0030938,0.00010028,0.00095822,0.00028436,0,0,0.055524,-0.022306,0,0.014787,0,0,0,0.0031205,7.3512e-05,0.00095822,5.3786,0.0013841,0.002715,6.72e-10,0.2,0.08,0
0.012611,0.0088684,0.003031,9.0176e-05,0.00093637,0.00024314,0,0,0.054462,-0.022001,0,0.012644,0,0,0,0.003051,7.0209e-05,0.00093637,4.6946,0.0013525,0.0026559,6.2846e-10,0.22,0.08,0
0.01369,0.0091293,0.0029734,8.6886e-05,0.00091808,0.00020524,0,0,0.053438,-0.021611,0,0.010673,0,0,0,0.0029879,7.2365e-05,0.00091808,4.0469,0.0013261,0.0025981,5.8945e-10,0.24,0.08,0
0.014748,0.0093038,0.0029204,8.8955e-05,0.00090281,0.00016838,0,0,0.052458,-0.02116,0,0.0087559,0,0,0,0.0029304,7.8977e-05,0.00090281,3.3914,0.0013041,0.0025417,5.543e-10,0.26,0.08,0
0.015788,0.0093925,0.0028717,9.4948e-05,0.00089001,0.00013076,0,0,0.051525,-0.020671,0,0.0067993,0,0,0,0.0028779,8.8805e-05,0.00089001,2.69,0.0012856,0.0024872,5.2265e-10,0.28,0.08,0
0.01681,0.0093954,0.0028271,0.00010325,0.00087912,9.1111e-05,0,0,0.050649,-0.020173,0,0.0047378,0,0,0,0.0028302,0.0001002,0.00087912,1.9136,0.0012698,0.0024358,4.9442e-10,0.3,0.08,0
0.017814,0.0093128,0.0027865,0.00011192,0.00086952,4.8883e-05,0,0,0.049841,-0.019697,0,0.0025419,0,0,0,0.0027874,0.00011103,0.00086952,1.0467,0.001256,0.0023892,4.6981e-10,0.32,0.08,0
0.018803,0.0091463,0.0027496,0.00011877,0.00086052,4.3393e-06,0,0,0.049117,-0.019285,0,0.00022564,0,0,0,0.0027496,0.00011877,0.00086052,0.094503,0.001243,0.0023495,4.4915e-10,0.34,0.08,0
0.019779,0.0088991,0.0027163,0.00012148,0.00085134,-4.1339e-05,0,0,0.04849,-0.018976,0,-0.0021496,0,0,0,0.002717,0.00012082,0.00085134,-0.91249,0.0012297,0.0023189,4.3268e-10,0.36,0.08,0
0.020743,0.0085768,0.0026861,0.00011801,0.00084125,-8.6137e-05,0,0,0.047968,-0.018804,0,-0.0044791,0,0,0,0.002689,0.00011512,0.00084125,-1.9188,0.0012151,0.0022985,4.2031e-10,0.38,0.08,0
0.021697,0.0081886,0.0026583,0.00010676,0.00082953,-0.00012753,0,0,0.047549,-0.018792,0,-0.0066317,0,0,0,0.0026647,0.0001004,0.00082953,-2.8543,0.0011982,0.0022886,4.1154e-10,0.4,0.08,0
0.022645,0.0077472,0.0026325,8.6841e-05,0.00081579,-0.00016278,0,0,0.047233,-0.018953,0,-0.0084645,0,0,0,0.0026428,7.6475e-05,0.00081579,-3.644,0.0011784,0.0022881,4.0567e-10,0.42,0.08,0
0.023587,0.0072692,0.002608,5.6873e-05,0.00079947,-0.00018905,0,0,0.047022,-0.019307,0,-0.0098307,0,0,0,0.002622,4.294e-05,0.00079947,-4.2152,0.0011548,0.0022962,4.0188e-10,0.44,0.08,0
0.024526,0.0067758,0.0025846,1.6113e-05,0.00078023,-0.00020248,0,0,0.046915,-0.019867,0,-0.010529,0,0,0,0.0026005,2.4845e-07,0.00078023,-4.4799,0.001127,0.0023112,3.9919e-10,0.46,0.08,0
0.025463,0.0062933,0.0025605,-3.3585e-05,0.00075808,-0.00019911,0,0,0.046864,-0.020583,0,-0.010353,0,0,0,0.0025757,-4.8778e-05,0.00075808,-4.3636,0.001095,0.0023284,3.9565e-10,0.48,0.08,0
0.0264,0.0058516,0.002534,-8.2247e-05,0.00073551,-0.00017654,0,0,0.04676,-0.021262,0,-0.0091802,0,0,0,0.0025458,-9.4106e-05,0.00073551,-3.8431,0.0010624,0.0023382,3.8885e-10,0.5,0.08,0
0.027334,0.0054805,0.0025047,-0.00011516,0.00071685,-0.00013943,0,0,0.046483,-0.021632,0,-0.0072502,0,0,0,0.0025121,-0.00012256,0.00071685,-3.0379,0.0010355,0.0023312,3.7773e-10,0.52,0.08,0
0.028259,0.0052035,0.0024748,-0.00012537,0.00070483,-9.743e-05,0,0,0.046019,-0.021585,0,-0.0050664,0,0,0,0.0024785,-0.00012901,0.00070483,-2.1429,0.0010181,0.0023065,3.6386e-10,0.54,0.08,0
0.029174,0.0050338,0.0024494,-0.00011998,0.00069884,-6.0313e-05,0,0,0.045516,-0.021289,0,-0.0031363,0,0,0,0.0024509,-0.0001214,0.00069884,-1.3439,0.0010094,0.0022758,3.5103e-10,0.56,0.08,0
0.03008,0.0049767,0.0024347,-0.0001135,0.00069635,-3.0478e-05,0,0,0.045196,-0.021056,0,-0.0015849,0,0,0,0.002435,-0.00011386,0.00069635,-0.68518,0.0010058,0.0022557,3.434e-10,0.58,0.08,0
0.030982,0.0050334,0.0024353,-0.0001158,0.00069584,-3.5389e-06,0,0,0.045225,-0.021103,0,-0.00018402,0,0,0,0.0024353,-0.00011581,0.00069584,-0.079482,0.0010051,0.0022575,3.4375e-10,0.6,0.08,0
0.031889,0.0052053,0.0024511,-0.00012709,0.00069721,2.8181e-05,0,0,0.045602,-0.021432,0,0.0014654,0,0,0,0.0024514,-0.00012739,0.00069721,0.62617,0.0010071,0.0022812,3.5206e-10,0.62,0.08,0
0.032806,0.0054937,0.0024772,-0.00013763,0.00070187,6.9251e-05,0,0,0.046159,-0.021827,0,0.0036011,0,0,0,0.0024791,-0.00013946,0.00070187,1.516,0.0010138,0.0023155,3.6549e-10,0.64,0.08,0
0.033735,0.0058963,0.002507,-0.00013279,0.00071226,0.00011748,0,0,0.046663,-0.021971,0,0.006109,0,0,0,0.0025122,-0.000138,0.00071226,2.5432,0.0010288,0.0023437,3.799e-10,0.66,0.08,0
0.034673,0.0064024,0.0025349,-0.00010491,0.00072901,0.00016314,0,0,0.046954,-0.021682,0,0.0084831,0,0,0,0.002545,-0.00011495,0.00072901,3.5229,0.001053,0.0023543,3.9147e-10,0.68,0.08,0
0.035614,0.0069914,0.0025584,-6.0429e-05,0.0007494,0.0001963,0,0,0.047035,-0.021056,0,0.010207,0,0,0,0.0025731,-7.5061e-05,0.0007494,4.2629,0.0010825,0.0023471,3.9846e-10,0.7,0.08,0
0.036554,0.0076356,0.0025773,-1.3852e-05,0.00076903,0.0002119,0,0,0.047015,-0.020355,0,0.011019,0,0,0,0.0025945,-3.1066e-05,0.00076903,4.6444,0.0011108,0.0023309,4.015e-10,0.72,0.08,0
0.037494,0.0083067,0.0025929,2.4785e-05,0.0007853,0.00021187,0,0,0.046997,-0.019773,0,0.011017,0,0,0,0.0026103,7.4235e-06,0.0007853,4.6847,0.0011343,0.0023141,4.025e-10,0.74,0.08,0
0.038434,0.0089797,0.0026069,5.3432e-05,0.00079809,0.00019981,0,0,0.047028,-0.019361,0,0.01039,0,0,0,0.0026224,3.7892e-05,0.00079809,4.4474,0.0011528,0.0023006,4.0296e-10,0.76,0.08,0
0.039375,0.0096345,0.0026194,7.2542e-05,0.00080759,0.00017933,0,0,0.047108,-0.019111,0,0.0093252,0,0,0,0.002632,5.9977e-05,0.00080759,4.0079,0.0011665,0.0022916,4.0356e-10,0.78,0.08,0
0.040319,0.010255,0.0026309,8.3114e-05,0.00081422,0.00015314,0,0,0.047235,-0.019009,0,0.0079634,0,0,0,0.0026401,7.3942e-05,0.00081422,3.4274,0.0011761,0.0022877,4.0486e-10,0.8,0.08,0
0.041265,0.010828,0.0026417,8.5613e-05,0.0008182,0.00012406,0,0,0.047412,-0.019047,0,0.0064509,0,0,0,0.0026477,7.9606e-05,0.0008182,2.7721,0.0011818,0.00229,4.074e-10,0.82,0.08,0
0.042215,0.011347,0.0026523,8.1202e-05,0.00082006,9.4845e-05,0,0,0.047639,-0.01921,0,0.004932,0,0,0,0.0026558,7.7708e-05,0.00082006,2.1097,0.0011845,0.0022987,4.1153e-10,0.84,0.08,0
0.04317,0.011804,0.0026629,7.158e-05,0.00082035,6.7945e-05,0,0,0.047907,-0.019468,0,0.0035331,0,0,0,0.0026647,6.98e-05,0.00082035,1.5009,0.0011849,0.0023128,4.1716e-10,0.86,0.08,0
0.044131,0.012198,0.0026734,5.8789e-05,0.00081966,4.5084e-05,0,0,0.048197,-0.019783,0,0.0023444,0,0,0,0.0026742,5.8012e-05,0.00081966,0.98757,0.001184,0.0023306,4.2381e-10,0.88,0.08,0
0.045098,0.012528,0.0026833,4.4818e-05,0.00081844,2.7177e-05,0,0,0.048487,-0.020114,0,0.0014132,0,0,0,0.0026836,4.4538e-05,0.00081844,0.59007,0.0011822,0.0023497,4.308e-10,0.9,0.08,0
0.046071,0.012794,0.0026922,3.1371e-05,0.00081708,1.438e-05,0,0,0.048754,-0.020428,0,0.00074776,0,0,0,0.0026923,3.1293e-05,0.00081708,0.30963,0.0011802,0.002368,4.3742e-10,0.92,0.08,0
0.047048,0.012999,0.0026996,1.9753e-05,0.00081581,6.253e-06,0,0,0.048979,-0.020697,0,0.00032515,0,0,0,0.0026996,1.9739e-05,0.00081581,0.13369,0.0011784,0.0023837,4.4311e-10,0.94,0.08,0
0.04803,0.013144,0.0027051,1.0884e-05,0.00081481,1.9326e-06,0,0,0.049149,-0.020902,0,0.0001005,0,0,0,0.0027051,1.0883e-05,0.00081481,0.041099,0.0011769,0.0023957,4.4744e-10,0.96,0.08,0
0.049014,0.013231,0.0027086,5.3504e-06,0.00081417,2.8092e-07,0,0,0.049254,-0.021029,0,1.4608e-05,0,0,0,0.0027086,5.3503e-06,0.00081417,0.0059543,0.001176,0.0024032,4.5013e-10,0.98,0.08,0
0.05,0.013259,0.0027097,3.472e-06,0.00081396,2.757e-05,0,0,0.04929,-0.021073,0,0.0014336,0,0,0,0.00271,3.1911e-06,0.00081396,0.58362,0.0011757,0.0024062,4.5124e-10,1,0.08,0
0,0,0.0033976,0.0014561,0.0014561,0.0009979,0,0,0.050479,-1.9516e-18,0,0.051891,0,0,0,0.0038191,0.0010347,0.0014561,22.895,0.0021033,0.0025994,8.2271e-10,0,0.1,0
0.0010096,0.0010378,0.0033808,0.0012441,0.0013875,0.00098596,0,0,0.051827,-0.0037287,0,0.05127,0,0,0,0.0037663,0.00085862,0.0013875,21.351,0.0020041,0.0026826,8.6304e-10,0.02,0.1,0
0.0020731,0.0020872,0.0034313,0.0010167,0.0013344,0.00095562,0,0,0.054518,-0.0082596,0,0.049692,0,0,0,0.0037637,0.00068428,0.0013344,19.182,0.0019275,0.0028113,9.3869e-10,0.04,0.1,0
0.0031903,0.003114,0.0034671,0.00079237,0.0012778,0.00088798,0,0,0.056921,-0.012622,0,0.046175,0,0,0,0.0037351,0.00052441,0.0012778,16.792,0.0018458,0.0029081,9.8304e-10,0.06,0.1,0
0.0043499,0.0040851,0.0034795,0.00060265,0.0012246,0.00079647,0,0,0.058626,-0.016172,0,0.041417,0,0,0,0.0036853,0.00039686,0.0012246,14.487,0.0017689,0.0029626,9.9228e-10,0.08,0.1,0
0.0055354,0.0049776,0.0034664,0.00045554,0.0011766,0.0006982,0,0,0.059536,-0.018747,0,0.036307,0,0,0,0.0036205,0.00030151,0.0011766,12.441,0.0016995,0.0029794,9.7371e-10,0.1,0.1,0
0.0067314,0.0057802,0.0034329,0.0003462,0.0011337,0.00060553,0,0,0.059778,-0.020476,0,0.031488,0,0,0,0.0035474,0.00023166,0.0011337,10.711,0.0016376,0.0029693,9.381e-10,0.12,0.1,0
0.0079265,0.0064894,0.0033861,0.00026634,0.0010957,0.00052391,0,0,0.059549,-0.021564,0,0.027243,0,0,0,0.0034717,0.00018071,0.0010957,9.2828,0.0015827,0.0029422,8.9425e-10,0.14,0.1,0
0.0091133,0.0071062,0.0033325,0.00020919,0.0010625,0.00045427,0,0,0.059021,-0.022187,0,0.023622,0,0,0,0.0033973,0.00014446,0.0010625,8.1095,0.0015348,0.0029047,8.4786e-10,0.16,0.1,0
0.010287,0.0076327,0.0032765,0.00016959,0.0010338,0.00039528,0,0,0.05831,-0.02247,0,0.020554,0,0,0,0.003326,0.00012009,0.0010338,7.1379,0.0014933,0.0028607,8.018e-10,0.18,0.1,0
0.011446,0.0080714,0.0032204,0.00014385,0.0010093,0.0003447,0,0,0.05749,-0.022501,0,0.017924,0,0,0,0.0032586,0.00010571,0.0010093,6.3151,0.0014578,0.0028121,7.5729e-10,0.2,0.1,0
0.012587,0.0084242,0.0031653,0.00012931,0.00098839,0.00030009,0,0,0.0566,-0.022336,0,0.015605,0,0,0,0.0031947,9.9932e-05,0.00098839,5.5912,0.0014277,0.0027599,7.1459e-10,0.22,0.1,0
0.01371,0.0086923,0.0031115,0.0001239,0.00097062,0.00025905,0,0,0.055663,-0.022015,0,0.013471,0,0,0,0.0031338,0.0001016,0.00097062,4.9191,0.001402,0.0027045,6.736e-10,0.24,0.1,0
0.014813,0.0088759,0.0030589,0.00012585,0.00095544,0.00021941,0,0,0.054691,-0.021569,0,0.011409,0,0,0,0.0030753,0.00010952,0.00095544,4.2545,0.0013801,0.0026462,6.3414e-10,0.26,0.1,0
0.015897,0.008975,0.0030074,0.00013333,0.00094222,0.00017931,0,0,0.053695,-0.021031,0,0.0093241,0,0,0,0.0030186,0.00012218,0.00094222,3.5562,0.001361,0.0025858,5.9622e-10,0.28,0.1,0
0.016961,0.0089889,0.0029568,0.00014418,0.00093028,0.00013733,0,0,0.052688,-0.020439,0,0.0071413,0,0,0,0.0029634,0.00013749,0.00093028,2.7888,0.0013437,0.0025247,5.601e-10,0.3,0.1,0
0.018005,0.0089172,0.0029069,0.00015571,0.00091879,9.2757e-05,0,0,0.051692,-0.01984,0,0.0048233,0,0,0,0.00291,0.00015259,0.00091879,1.9288,0.0013271,0.0024653,5.2641e-10,0.32,0.1,0
0.019029,0.0087603,0.0028579,0.00016468,0.00090678,4.5823e-05,0,0,0.050729,-0.019294,0,0.0023828,0,0,0,0.0028587,0.0001639,0.00090678,0.97446,0.0013098,0.0024108,4.9595e-10,0.34,0.1,0
0.020034,0.0085206,0.0028095,0.0001676,0.00089313,-2.0341e-06,0,0,0.049826,-0.018864,0,-0.00010577,0,0,0,0.0028095,0.00016759,0.00089313,-0.044114,0.0012901,0.0023642,4.6941e-10,0.36,0.1,0
0.021022,0.008203,0.002761,0.00016131,0.00087668,-4.8265e-05,0,0,0.048992,-0.0186,0,-0.0025098,0,0,0,0.0027619,0.00016041,0.00087668,-1.0633,0.0012663,0.0023275,4.4683e-10,0.38,0.1,0
0.021994,0.007816,0.0027111,0.00014405,0.00085653,-8.9635e-05,0,0,0.048218,-0.018525,0,-0.004661,0,0,0,0.0027142,0.00014092,0.00085653,-1.9974,0.0012372,0.0023005,4.2739e-10,0.4,0.1,0
0.022951,0.0073722,0.0026579,0.00011512,0.0008319,-0.00012343,0,0,0.047476,-0.018636,0,-0.0064186,0,0,0,0.0026639,0.00010914,0.0008319,-2.7726,0.0012016,0.0022809,4.0953e-10,0.42,0.1,0
0.023893,0.0068877,0.0026022,7.5807e-05,0.0008034,-0.0001475,0,0,0.046769,-0.018918,0,-0.0076699,0,0,0,0.0026108,6.7225e-05,0.0008034,-3.33,0.0011605,0.002267,3.9255e-10,0.44,0.1,0
0.024821,0.0063832,0.0025433,2.173e-05,0.00076951,-0.00016029,0,0,0.046119,-0.019442,0,-0.0083348,0,0,0,0.0025535,1.1582e-05,0.00076951,-3.6226,0.0011115,0.0022603,3.761e-10,0.46,0.1,0
0.025737,0.0058855,0.0024813,-4.7599e-05,0.00073011,-0.00015495,0,0,0.045531,-0.02022,0,-0.0080574,0,0,0,0.0024907,-5.7058e-05,0.00073011,-3.4932,0.0010546,0.0022595,3.592e-10,0.48,0.1,0
0.026643,0.0054294,0.002413,-0.0001203,0.00068781,-0.00012813,0,0,0.044855,-0.021011,0,-0.0066626,0,0,0,0.0024195,-0.00012677,0.00068781,-2.888,0.00099351,0.0022523,3.386e-10,0.5,0.1,0
0.027532,0.0050519,0.0023413,-0.00016334,0.00065338,-8.3702e-05,0,0,0.043885,-0.021235,0,-0.0043525,0,0,0,0.0023441,-0.00016613,0.00065338,-1.9119,0.00094377,0.0022171,3.1293e-10,0.52,0.1,0
0.028398,0.0047791,0.0022726,-0.00016122,0.0006334,-4.2737e-05,0,0,0.042618,-0.02066,0,-0.0022223,0,0,0,0.0022733,-0.00016197,0.0006334,-1.0057,0.00091492,0.0021509,2.8553e-10,0.54,0.1,0
0.029236,0.0046197,0.0022145,-0.00013642,0.00062341,-1.9421e-05,0,0,0.041367,-0.019756,0,-0.0010099,0,0,0,0.0022146,-0.00013658,0.00062341,-0.47328,0.00090049,0.0020782,2.6182e-10,0.56,0.1,0
0.030053,0.00457,0.0021807,-0.00011666,0.00061921,-1.5534e-05,0,0,0.040599,-0.019133,0,-0.00080776,0,0,0,0.0021808,-0.00011677,0.00061921,-0.38739,0.00089442,0.0020321,2.4821e-10,0.58,0.1,0
0.03086,0.0046258,0.0021801,-0.00011981,0.0006181,-1.8532e-05,0,0,0.040613,-0.019186,0,-0.00096364,0,0,0,0.0021803,-0.00011996,0.0006181,-0.46161,0.0008928,0.0020342,2.4836e-10,0.6,0.1,0
0.031677,0.0047881,0.0022127,-0.00014623,0.00061995,-1.2738e-05,0,0,0.041412,-0.019921,0,-0.00066235,0,0,0,0.0022128,-0.0001463,0.00061995,-0.30937,0.00089549,0.0020844,2.6218e-10,0.62,0.1,0
0.032517,0.0050641,0.0022696,-0.00017857,0.0006273,1.4783e-05,0,0,0.042699,-0.020953,0,0.0007687,0,0,0,0.0022697,-0.00017866,0.0006273,0.34596,0.0009061,0.0021612,2.8593e-10,0.64,0.1,0
0.033385,0.0054602,0.0023365,-0.00018886,0.0006443,6.2761e-05,0,0,0.043998,-0.021662,0,0.0032636,0,0,0,0.0023381,-0.00019042,0.0006443,1.4227,0.00093065,0.0022315,3.1328e-10,0.66,0.1,0
0.034277,0.0059709,0.0024055,-0.00015358,0.00067558,0.0001172,0,0,0.044978,-0.021558,0,0.0060943,0,0,0,0.0024109,-0.00015893,0.00067558,2.6167,0.00097583,0.0022706,3.3901e-10,0.68,0.1,0
0.035184,0.006573,0.0024695,-8.7086e-05,0.00071473,0.00015664,0,0,0.045624,-0.020847,0,0.0081452,0,0,0,0.0024791,-9.6647e-05,0.00071473,3.493,0.0010324,0.002281,3.5975e-10,0.7,0.1,0
0.036102,0.0072319,0.0025252,-2.2315e-05,0.00075088,0.00017651,0,0,0.046134,-0.020103,0,0.0091784,0,0,0,0.0025374,-3.4486e-05,0.00075088,3.9446,0.0010846,0.0022829,3.762e-10,0.72,0.1,0
0.03703,0.0079144,0.0025756,2.8615e-05,0.00078126,0.00017963,0,0,0.046652,-0.019569,0,0.0093407,0,0,0,0.0025882,1.6009e-05,0.00078126,4.0144,0.0011285,0.0022877,3.9095e-10,0.74,0.1,0
0.037968,0.0085951,0.0026203,6.5926e-05,0.00080586,0.00017241,0,0,0.047175,-0.019238,0,0.0089653,0,0,0,0.0026319,5.4341e-05,0.00080586,3.844,0.001164,0.002296,4.045e-10,0.76,0.1,0
0.038917,0.0092539,0.00266,9.3617e-05,0.00082609,0.0001561,0,0,0.047682,-0.019044,0,0.008117,0,0,0,0.0026695,8.4158e-05,0.00082609,3.4679,0.0011933,0.0023057,4.168e-10,0.78,0.1,0
0.039875,0.0098753,0.002694,0.00010982,0.00084115,0.00013269,0,0,0.048174,-0.019015,0,0.0069,0,0,0,0.0027008,0.00010303,0.00084115,2.9317,0.001215,0.0023186,4.2826e-10,0.8,0.1,0
0.040844,0.010447,0.0027241,0.00011456,0.00085159,0.000105,0,0,0.048685,-0.019163,0,0.0054599,0,0,0,0.0027283,0.00011034,0.00085159,2.3004,0.0012301,0.0023372,4.4025e-10,0.82,0.1,0
0.041823,0.01096,0.0027514,0.00010895,0.0008581,7.6589e-05,0,0,0.049225,-0.019478,0,0.0039826,0,0,0,0.0027536,0.00010673,0.0008581,1.6588,0.0012395,0.0023626,4.5353e-10,0.84,0.1,0
0.042813,0.01141,0.0027765,9.5642e-05,0.00086164,5.0565e-05,0,0,0.049786,-0.019916,0,0.0026293,0,0,0,0.0027774,9.4688e-05,0.00086164,1.0802,0.0012446,0.0023933,4.6802e-10,0.86,0.1,0
0.043814,0.011796,0.0027993,7.7748e-05,0.00086311,2.9045e-05,0,0,0.05034,-0.020419,0,0.0015104,0,0,0,0.0027996,7.7438e-05,0.00086311,0.6114,0.0012467,0.0024266,4.8294e-10,0.88,0.1,0
0.044826,0.012117,0.0028193,5.8255e-05,0.00086328,1.3033e-05,0,0,0.050858,-0.020931,0,0.00067772,0,0,0,0.0028194,5.8193e-05,0.00086328,0.27044,0.001247,0.0024596,4.9728e-10,0.9,0.1,0
0.045848,0.012376,0.0028362,3.9592e-05,0.00086274,2.6065e-06,0,0,0.05131,-0.021402,0,0.00013554,0,0,0,0.0028362,3.959e-05,0.00086274,0.0534,0.0012462,0.0024893,5.1007e-10,0.92,0.1,0
0.046879,0.012575,0.0028496,2.3555e-05,0.00086194,-2.8098e-06,0,0,0.051679,-0.021798,0,-0.00014611,0,0,0,0.0028496,2.3553e-05,0.00086194,-0.056967,0.001245,0.002514,5.2059e-10,0.94,0.1,0
0.047915,0.012715,0.0028592,1.1362e-05,0.00086117,-4.2054e-06,0,0,0.051949,-0.022095,0,-0.00021868,0,0,0,0.0028592,1.1356e-05,0.00086117,-0.084608,0.0012439,0.0025323,5.2836e-10,0.96,0.1,0
0.048957,0.012798,0.002865,3.7748e-06,0.00086064,-2.8138e-06,0,0,0.052114,-0.022278,0,-0.00014632,0,0,0,0.002865,3.772e-06,0.00086064,-0.056345,0.0012431,0.0025435,5.3311e-10,0.98,0.1,0
0.05,0.012826,0.002867,1.2027e-06,0.00086045,2.6558e-05,0,0,0.052169,-0.02234,0,0.001381,0,0,0,0.0028672,9.5658e-07,0.00086045,0.53092,0.0012429,0.0025476,5.3489e-10,1,0.1,0
0,0,0.0033612,0.0014405,0.0014405,0.00093164,0,0,0.049938,-4.3368e-19,0,0.048445,0,0,0,0.0037388,0.0010629,0.0014405,22.066,0.0020807,0.0025086,7.492e-10,0,0.12,0
0.00099875,0.00096891,0.0033469,0.001253,0.00138,0.00092462,0,0,0.051139,-0.0033,0,0.04808,0,0,0,0.0036967,0.00090321,0.00138,20.725,0.0019933,0.0025883,7.8965e-10,0.02,0.12,0
0.0020456,0.0019361,0.0033991,0.0010633,0.0013387,0.00090263,0,0,0.05357,-0.0071606,0,0.046937,0,0,0,0.0037073,0.00075517,0.0013387,18.85,0.0019337,0.0027079,8.6231e-10,0.04,0.12,0
0.0031415,0.0028812,0.0034425,0.00086912,0.0012935,0.00085639,0,0,0.055874,-0.011033,0,0.044532,0,0,0,0.0037014,0.00061018,0.0012935,16.823,0.0018684,0.0028126,9.1931e-10,0.06,0.12,0
0.0042805,0.0037819,0.0034702,0.00069258,0.0012488,0.00079058,0,0,0.057756,-0.014463,0,0.04111,0,0,0,0.0036795,0.00048332,0.0012488,14.825,0.0018039,0.0028904,9.5319e-10,0.08,0.12,0
0.0054518,0.0046199,0.0034792,0.00054474,0.0012072,0.00071479,0,0,0.059073,-0.017223,0,0.037169,0,0,0,0.0036441,0.00037989,0.0012072,12.987,0.0017437,0.0029392,9.6414e-10,0.1,0.12,0
0.0066434,0.0053834,0.0034705,0.00042723,0.0011693,0.00063796,0,0,0.05983,-0.019294,0,0.033174,0,0,0,0.0035988,0.00029891,0.0011693,11.373,0.001689,0.0029622,9.5663e-10,0.12,0.12,0
0.007845,0.0060664,0.0034477,0.00033702,0.0011354,0.00056595,0,0,0.060119,-0.020758,0,0.02943,0,0,0,0.0035474,0.00023725,0.0011354,9.9977,0.00164,0.002965,9.3619e-10,0.14,0.12,0
0.0090482,0.0066669,0.003415,0.00026979,0.0011054,0.0005014,0,0,0.060048,-0.021727,0,0.026073,0,0,0,0.003493,0.00019179,0.0011054,8.842,0.0015967,0.0029524,9.0754e-10,0.16,0.12,0
0.010247,0.0071846,0.003376,0.0002216,0.0010793,0.00044468,0,0,0.059714,-0.022299,0,0.023123,0,0,0,0.0034374,0.00016012,0.0010793,7.8728,0.0015589,0.002928,8.7395e-10,0.18,0.12,0
0.011437,0.0076204,0.003333,0.00018925,0.0010567,0.00039489,0,0,0.059184,-0.022553,0,0.020534,0,0,0,0.0033818,0.00014041,0.0010567,7.0511,0.0015263,0.0028942,8.3735e-10,0.2,0.12,0
0.012614,0.007975,0.0032873,0.00017019,0.0010373,0.00035047,0,0,0.058502,-0.022544,0,0.018225,0,0,0,0.0033263,0.00013127,0.0010373,6.3366,0.0014983,0.002852,7.9874e-10,0.22,0.12,0
0.013777,0.0082487,0.0032397,0.00016234,0.0010206,0.0003096,0,0,0.057696,-0.022315,0,0.016099,0,0,0,0.0032705,0.0001315,0.0010206,5.6884,0.0014742,0.0028023,7.5856e-10,0.24,0.12,0
0.014922,0.0084411,0.00319,0.00016379,0.0010061,0.00027036,0,0,0.056781,-0.021901,0,0.014059,0,0,0,0.003214,0.00013983,0.0010061,5.0652,0.0014533,0.0027455,7.1704e-10,0.26,0.12,0
0.016048,0.0085513,0.0031383,0.00017249,0.00099323,0.00023092,0,0,0.055771,-0.021339,0,0.012008,0,0,0,0.0031561,0.00015462,0.00099323,4.4257,0.0014347,0.0026824,6.7446e-10,0.28,0.12,0
0.017153,0.0085778,0.0030843,0.00018587,0.00098106,0.00018974,0,0,0.054685,-0.020675,0,0.0098667,0,0,0,0.0030967,0.0001735,0.00098106,3.7296,0.0014171,0.0026147,6.3147e-10,0.3,0.12,0
0.018236,0.0085193,0.0030283,0.00020051,0.00096863,0.00014583,0,0,0.05355,-0.019971,0,0.0075831,0,0,0,0.0030358,0.00019301,0.00096863,2.9444,0.0013991,0.0025452,5.8922e-10,0.32,0.12,0
0.019295,0.0083746,0.0029704,0.00021194,0.0009547,9.9256e-05,0,0,0.052408,-0.019312,0,0.0051613,0,0,0,0.0029739,0.00020838,0.0009547,2.0581,0.001379,0.0024782,5.493e-10,0.34,0.12,0
0.020332,0.0081445,0.0029107,0.0002149,0.00093769,5.1672e-05,0,0,0.051299,-0.018792,0,0.002687,0,0,0,0.0029117,0.00021391,0.00093769,1.0977,0.0013544,0.0024186,5.1322e-10,0.36,0.12,0
0.021347,0.0078328,0.0028486,0.00020466,0.00091599,6.647e-06,0,0,0.050249,-0.018495,0,0.00034565,0,0,0,0.0028487,0.00020464,0.00091599,0.14404,0.0013231,0.0023698,4.8164e-10,0.38,0.12,0
0.022342,0.0074476,0.0027814,0.00017813,0.00088786,-3.1195e-05,0,0,0.049232,-0.018453,0,-0.0016221,0,0,0,0.0027818,0.00017775,0.00088786,-0.68644,0.0012825,0.0023315,4.5318e-10,0.4,0.12,0
0.023316,0.0070017,0.0027058,0.00013697,0.00085283,-5.7223e-05,0,0,0.048177,-0.018612,0,-0.0029756,0,0,0,0.0027071,0.0001357,0.00085283,-1.2755,0.0012319,0.0022983,4.2499e-10,0.42,0.12,0
0.024269,0.0065125,0.002615,8.2218e-05,0.00080916,-7.1178e-05,0,0,0.046952,-0.018901,0,-0.0037013,0,0,0,0.002617,8.0219e-05,0.00080916,-1.6085,0.0011688,0.0022622,3.931e-10,0.44,0.12,0
0.025194,0.0059981,0.0025187,2.4537e-05,0.00076296,-7.3043e-05,0,0,0.045649,-0.019199,0,-0.0037982,0,0,0,0.0025208,2.24e-05,0.00076296,-1.676,0.0011021,0.0022227,3.6015e-10,0.46,0.12,0
0.026095,0.0054845,0.0024076,-6.4741e-05,0.00070286,-6.601e-05,0,0,0.044324,-0.019958,0,-0.0034325,0,0,0,0.0024094,-6.6502e-05,0.00070286,-1.5283,0.0010153,0.0021948,3.2665e-10,0.48,0.12,0
0.026967,0.0050111,0.0022819,-0.00017265,0.00063277,-2.6629e-05,0,0,0.042877,-0.020941,0,-0.0013847,0,0,0,0.0022822,-0.00017294,0.00063277,-0.62151,0.000914,0.0021676,2.8998e-10,0.5,0.12,0
0.02781,0.0046311,0.002152,-0.00022044,0.00057948,2.5672e-05,0,0,0.040887,-0.020798,0,0.0013349,0,0,0,0.0021523,-0.00022072,0.00057948,0.61988,0.00083703,0.0020911,2.4844e-10,0.52,0.12,0
0.028603,0.0043771,0.002028,-0.0001824,0.00055368,6.3849e-05,0,0,0.038332,-0.019138,0,0.0033202,0,0,0,0.0020299,-0.00018424,0.00055368,1.6532,0.00079976,0.0019527,2.0652e-10,0.54,0.12,0
0.029343,0.0042436,0.0019281,-0.0001132,0.00054446,5.3709e-05,0,0,0.035974,-0.017099,0,0.0027928,0,0,0,0.0019295,-0.00011461,0.00054446,1.5061,0.00078645,0.0018071,1.7281e-10,0.56,0.12,0
0.030042,0.0042114,0.0018652,-7.8994e-05,0.00053585,1.0899e-05,0,0,0.034562,-0.015986,0,0.00056676,0,0,0,0.0018652,-7.9055e-05,0.00053585,0.32119,0.00077401,0.0017213,1.5371e-10,0.58,0.12,0
0.030726,0.004266,0.0018636,-8.2892e-05,0.0005342,-4.2688e-05,0,0,0.034563,-0.016044,0,-0.0022197,0,0,0,0.0018645,-8.3828e-05,0.0005342,-1.2557,0.00077162,0.0017245,1.539e-10,0.6,0.12,0
0.031424,0.0044085,0.0019234,-0.00012548,0.00053939,-8.3848e-05,0,0,0.035985,-0.017287,0,-0.0043601,0,0,0,0.0019269,-0.00012891,0.00053939,-2.3395,0.00077912,0.0018163,1.7323e-10,0.62,0.12,0
0.032165,0.0046556,0.0020207,-0.00020482,0.00054475,-9.0052e-05,0,0,0.038373,-0.019489,0,-0.0046827,0,0,0,0.0020243,-0.00020846,0.00054475,-2.3134,0.00078686,0.0019674,2.0676e-10,0.64,0.12,0
0.032959,0.0050298,0.0021418,-0.00025484,0.00056608,-4.451e-05,0,0,0.040968,-0.021344,0,-0.0023145,0,0,0,0.0021426,-0.00025567,0.00056608,-1.0636,0.00081768,0.002111,2.4808e-10,0.66,0.12,0
0.033804,0.0055401,0.002268,-0.00021854,0.00061483,1.9175e-05,0,0,0.042982,-0.021668,0,0.00099711,0,0,0,0.0022681,-0.00021869,0.00061483,0.44181,0.00088809,0.0021923,2.8939e-10,0.68,0.12,0
0.034678,0.0061576,0.0023889,-0.00011903,0.00068095,7.3131e-05,0,0,0.044406,-0.020799,0,0.0038028,0,0,0,0.002391,-0.00012116,0.00068095,1.6689,0.0009836,0.0022224,3.2627e-10,0.7,0.12,0
0.03558,0.0068315,0.0024932,-3.579e-05,0.00073721,9.6804e-05,0,0,0.045655,-0.020098,0,0.0050338,0,0,0,0.0024969,-3.949e-05,0.00073721,2.1889,0.0010649,0.0022508,3.5927e-10,0.72,0.12,0
0.036505,0.0075239,0.0025806,1.7505e-05,0.00077943,0.000113,0,0,0.04683,-0.01981,0,0.0058759,0,0,0,0.0025856,1.2532e-05,0.00077943,2.5195,0.0011258,0.0022881,3.9033e-10,0.74,0.12,0
0.037453,0.0082102,0.0026605,6.9434e-05,0.00081897,0.00011822,0,0,0.047879,-0.019488,0,0.0061475,0,0,0,0.0026658,6.4051e-05,0.00081897,2.607,0.001183,0.0023184,4.1874e-10,0.76,0.12,0
0.03842,0.0088727,0.0027231,0.000109,0.00084964,0.00011198,0,0,0.048711,-0.019257,0,0.0058227,0,0,0,0.0027279,0.00010421,0.00084964,2.4483,0.0012273,0.0023417,4.4126e-10,0.78,0.12,0
0.039402,0.0094942,0.0027754,0.00013416,0.00087288,9.4311e-05,0,0,0.049466,-0.019207,0,0.0049042,0,0,0,0.0027788,0.0001308,0.00087288,2.0424,0.0012608,0.0023659,4.614e-10,0.8,0.12,0
0.040398,0.010062,0.0028207,0.00014227,0.00088888,6.9953e-05,0,0,0.050227,-0.019412,0,0.0036376,0,0,0,0.0028225,0.00014044,0.00088888,1.4951,0.0012839,0.0023971,4.8192e-10,0.82,0.12,0
0.041411,0.010567,0.0028617,0.00013546,0.00089914,4.3996e-05,0,0,0.051026,-0.019856,0,0.0022878,0,0,0,0.0028624,0.00013475,0.00089914,0.92433,0.0012988,0.0024371,5.0431e-10,0.84,0.12,0
0.042439,0.011007,0.002899,0.00011779,0.00090504,2.0718e-05,0,0,0.051843,-0.020468,0,0.0010773,0,0,0,0.0028992,0.00011764,0.00090504,0.42678,0.0013073,0.0024833,5.2817e-10,0.86,0.12,0
0.043485,0.011381,0.0029324,9.409e-05,0.00090795,2.6071e-06,0,0,0.052636,-0.02116,0,0.00013557,0,0,0,0.0029324,9.4088e-05,0.00090795,0.052628,0.0013115,0.0025315,5.5212e-10,0.88,0.12,0
0.044545,0.01169,0.0029612,6.8541e-05,0.00090892,-9.3969e-06,0,0,0.053359,-0.02185,0,-0.00048864,0,0,0,0.0029612,6.8511e-05,0.00090892,-0.18612,0.0013129,0.0025774,5.7452e-10,0.9,0.12,0
0.045619,0.011938,0.0029849,4.4348e-05,0.00090879,-1.545e-05,0,0,0.05398,-0.022475,0,-0.0008034,0,0,0,0.002985,4.4267e-05,0.00090879,-0.30102,0.0013127,0.0026178,5.9405e-10,0.92,0.12,0
0.046704,0.012127,0.0030034,2.3736e-05,0.00090813,-1.6341e-05,0,0,0.054476,-0.022994,0,-0.00084975,0,0,0,0.0030034,2.3646e-05,0.00090813,-0.31422,0.0013117,0.0026507,6.0982e-10,0.94,0.12,0
0.047798,0.01226,0.0030164,8.1583e-06,0.00090738,-1.3193e-05,0,0,0.054836,-0.02338,0,-0.00068605,0,0,0,0.0030165,8.1005e-06,0.00090738,-0.25127,0.0013107,0.0026747,6.213e-10,0.96,0.12,0
0.048898,0.012339,0.0030242,-1.4986e-06,0.00090682,-7.2921e-06,0,0,0.055053,-0.023616,0,-0.00037919,0,0,0,0.0030243,-1.5162e-06,0.00090682,-0.13808,0.0013098,0.0026892,6.2826e-10,0.98,0.12,0
0.05,0.012366,0.0030268,-4.7662e-06,0.00090662,2.5188e-05,0,0,0.055126,-0.023696,0,0.0013098,0,0,0,0.003027,-4.9754e-06,0.00090662,0.476,0.0013096,0.0026945,6.3076e-10,1,0.12,0
0,0,0.0033544,0.0014376,0.0014376,0.00087097,0,0,0.049836,-2.1684e-19,0,0.04529,0,0,0,0.003691,0.001101,0.0014376,21.132,0.0020765,0.0024392,6.9776e-10,0,0.14,0
0.00099673,0.00090581,0.0033408,0.0012622,0.0013809,0.00086645,0,0,0.050958,-0.0030857,0,0.045055,0,0,0,0.0036546,0.00094844,0.0013809,19.909,0.0019947,0.002518,7.3904e-10,0.02,0.14,0
0.0020383,0.0018008,0.0033938,0.0010948,0.0013466,0.00084853,0,0,0.053227,-0.0065465,0,0.044123,0,0,0,0.003673,0.00081551,0.0013466,18.217,0.001945,0.0026325,8.0991e-10,0.04,0.14,0
0.0031258,0.0026727,0.003441,0.00092219,0.001309,0.00081502,0,0,0.055434,-0.010056,0,0.042381,0,0,0,0.0036817,0.00068148,0.001309,16.454,0.0018907,0.0027409,8.7361e-10,0.06,0.14,0
0.0042556,0.0035066,0.0034776,0.00075939,0.0012711,0.00076695,0,0,0.05737,-0.013305,0,0.039882,0,0,0,0.0036791,0.00055793,0.0012711,14.718,0.0018361,0.0028327,9.2272e-10,0.08,0.14,0
0.0054206,0.0042886,0.0035005,0.00061613,0.001235,0.00070922,0,0,0.058903,-0.01609,0,0.036879,0,0,0,0.0036654,0.00045118,0.001235,13.093,0.0017839,0.0029028,9.543e-10,0.1,0.14,0
0.0066118,0.0050084,0.0035089,0.00049649,0.0012016,0.00064769,0,0,0.05999,-0.018334,0,0.03368,0,0,0,0.0036423,0.00036314,0.0012016,11.634,0.0017357,0.0029507,9.6904e-10,0.12,0.14,0
0.0078202,0.0056591,0.0035045,0.00040051,0.0011715,0.00058716,0,0,0.060657,-0.020046,0,0.030532,0,0,0,0.0036118,0.00029315,0.0011715,10.362,0.0016922,0.0029783,9.6953e-10,0.14,0.14,0
0.0090381,0.0062371,0.0034894,0.00032629,0.0011447,0.00053063,0,0,0.060962,-0.021279,0,0.027593,0,0,0,0.003576,0.00023964,0.0011447,9.2737,0.0016535,0.0029885,9.5883e-10,0.16,0.14,0
0.010259,0.0067407,0.0034661,0.00027132,0.0011212,0.0004794,0,0,0.060966,-0.022097,0,0.024929,0,0,0,0.0035365,0.00020094,0.0011212,8.3527,0.0016195,0.0029838,9.3958e-10,0.18,0.14,0
0.011477,0.0071693,0.0034365,0.00023321,0.0011009,0.00043353,0,0,0.060724,-0.02256,0,0.022544,0,0,0,0.0034941,0.00017558,0.0011009,7.573,0.0015902,0.0029661,9.137e-10,0.2,0.14,0
0.012688,0.0075224,0.0034017,0.00020985,0.0010834,0.00039228,0,0,0.060273,-0.022714,0,0.020398,0,0,0,0.0034492,0.00016234,0.0010834,6.9048,0.001565,0.0029367,8.8238e-10,0.22,0.14,0
0.013888,0.0077997,0.0033622,0.00019934,0.0010685,0.00035442,0,0,0.059638,-0.022597,0,0.01843,0,0,0,0.0034015,0.00016012,0.0010685,6.3159,0.0015433,0.0028961,8.4627e-10,0.24,0.14,0
0.015073,0.0079999,0.0033182,0.0001999,0.0010554,0.00031842,0,0,0.058832,-0.022244,0,0.016558,0,0,0,0.0033504,0.00016772,0.0010554,5.7712,0.0015245,0.0028447,8.0574e-10,0.26,0.14,0
0.016241,0.0081214,0.0032693,0.00020944,0.0010436,0.00028258,0,0,0.057869,-0.021689,0,0.014694,0,0,0,0.0032952,0.00018356,0.0010436,5.2322,0.0015075,0.0027831,7.6119e-10,0.28,0.14,0
0.017388,0.0081619,0.0032155,0.00022525,0.0010322,0.00024518,0,0,0.056765,-0.020981,0,0.012749,0,0,0,0.0032354,0.00020528,0.0010322,4.6565,0.001491,0.0027129,7.1342e-10,0.3,0.14,0
0.018512,0.0081183,0.0031567,0.00024341,0.00102,0.00020481,0,0,0.055554,-0.020192,0,0.01065,0,0,0,0.0031711,0.00022909,0.00102,4.0017,0.0014734,0.002637,6.6402e-10,0.32,0.14,0
0.01961,0.0079879,0.0030939,0.00025814,0.0010056,0.00016099,0,0,0.054295,-0.019434,0,0.0083713,0,0,0,0.003103,0.00024903,0.0010056,3.2388,0.0014525,0.0025609,6.1553e-10,0.34,0.14,0
0.020683,0.0077689,0.0030279,0.00026198,0.00098695,0.00011535,0,0,0.053064,-0.018849,0,0.0059985,0,0,0,0.0030327,0.00025718,0.00098695,2.3841,0.0014256,0.0024921,5.7109e-10,0.36,0.14,0
0.021733,0.0074632,0.0029582,0.00024645,0.00096139,7.2487e-05,0,0,0.051917,-0.018589,0,0.0037693,0,0,0,0.0029601,0.00024451,0.00096139,1.5301,0.0013887,0.0024376,5.3268e-10,0.38,0.14,0
0.02276,0.0070779,0.0028831,0.00020751,0.00092717,4.0481e-05,0,0,0.050853,-0.018711,0,0.002105,0,0,0,0.0028837,0.0002069,0.00092717,0.86662,0.0013392,0.0023992,4.9968e-10,0.4,0.14,0
0.023767,0.0066277,0.0027929,0.00014406,0.00088109,2.6495e-05,0,0,0.049707,-0.019163,0,0.0013777,0,0,0,0.0027932,0.0001438,0.00088109,0.57301,0.0012727,0.0023684,4.6605e-10,0.42,0.14,0
0.024748,0.0061316,0.0026825,7.1004e-05,0.00082605,3.7768e-05,0,0,0.048268,-0.019631,0,0.0019639,0,0,0,0.002683,7.0458e-05,0.00082605,0.8284,0.0011932,0.0023286,4.258e-10,0.44,0.14,0
0.025698,0.0056152,0.0025166,-2.1992e-05,0.00074839,6.2282e-05,0,0,0.045974,-0.02003,0,0.0032386,0,0,0,0.0025182,-2.3519e-05,0.00074839,1.4045,0.001081,0.002257,3.6609e-10,0.46,0.14,0
0.026587,0.0050872,0.0023636,-7.2048e-05,0.00068745,0.0001068,0,0,0.043579,-0.019747,0,0.0055538,0,0,0,0.0023682,-7.6722e-05,0.00068745,2.5061,0.00099299,0.0021664,3.1165e-10,0.48,0.14,0
0.027441,0.0045918,0.0021322,-0.0002555,0.000563,0.00014297,0,0,0.040798,-0.021281,0,0.0074343,0,0,0,0.0021407,-0.00026403,0.000563,3.4145,0.00081322,0.0021161,2.481e-10,0.5,0.14,0
0.028219,0.00422,0.0019002,-0.00030233,0.00047937,0.00023715,0,0,0.036942,-0.020324,0,0.012332,0,0,0,0.0019255,-0.00032758,0.00047937,6.0763,0.00069242,0.0019772,1.8579e-10,0.52,0.14,0
0.028918,0.0040136,0.0017257,-0.00012298,0.00048081,0.00023189,0,0,0.032366,-0.015698,0,0.012058,0,0,0,0.0017543,-0.00015162,0.00048081,7.0419,0.0006945,0.0016814,1.3287e-10,0.54,0.14,0
0.029514,0.0039357,0.0015446,-3.2891e-05,0.0004535,0.0001554,0,0,0.028368,-0.012646,0,0.0080806,0,0,0,0.0015597,-4.8053e-05,0.0004535,5.5729,0.00065506,0.0014248,8.8893e-11,0.56,0.14,0
0.030053,0.0039306,0.0014612,9.8575e-06,0.00044131,4.4483e-05,0,0,0.026516,-0.011218,0,0.0023131,0,0,0,0.0014625,8.4953e-06,0.00044131,1.7539,0.00063745,0.0012932,7.0573e-11,0.58,0.14,0
0.030575,0.003984,0.0014586,5.3187e-06,0.00043918,-7.2003e-05,0,0,0.026505,-0.01128,0,-0.0037441,0,0,0,0.0014622,1.76e-06,0.00043918,-2.8295,0.00063437,0.0012982,7.0871e-11,0.6,0.14,0
0.031113,0.0040967,0.0015372,-4.7259e-05,0.00044698,-0.00018171,0,0,0.028345,-0.01285,0,-0.0094488,0,0,0,0.0015578,-6.7831e-05,0.00044698,-6.4591,0.00064563,0.001439,8.9636e-11,0.62,0.14,0
0.031708,0.0042846,0.0017146,-0.00014954,0.00046951,-0.00025509,0,0,0.032372,-0.016095,0,-0.013265,0,0,0,0.0017489,-0.00018381,0.00046951,-7.653,0.00067819,0.0017028,1.3353e-10,0.64,0.14,0
0.032408,0.0046064,0.0018856,-0.00034577,0.00046195,-0.00025347,0,0,0.037015,-0.021001,0,-0.013181,0,0,0,0.001914,-0.0003742,0.00046195,-6.3999,0.00066726,0.0020055,1.8484e-10,0.66,0.14,0
0.033189,0.0051042,0.0021127,-0.00031714,0.00053865,-0.00014646,0,0,0.040924,-0.022251,0,-0.0076156,0,0,0,0.0021214,-0.00032593,0.00053865,-3.4369,0.00077806,0.0021497,2.4618e-10,0.68,0.14,0
0.034045,0.0057411,0.0023398,-0.00014249,0.0006592,-9.3501e-05,0,0,0.043696,-0.020844,0,-0.004862,0,0,0,0.0023434,-0.00014601,0.0006592,-2.1541,0.00095218,0.0022002,3.1035e-10,0.7,0.14,0
0.034937,0.006428,0.0024858,-0.00010026,0.00071566,-3.0997e-05,0,0,0.046024,-0.021214,0,-0.0016118,0,0,0,0.0024862,-0.00010063,0.00071566,-0.68663,0.0010337,0.0022905,3.6336e-10,0.72,0.14,0
0.035886,0.007122,0.0026428,-1.3673e-05,0.00078874,1.3602e-05,0,0,0.048206,-0.020863,0,0.00070732,0,0,0,0.0026429,-1.3742e-05,0.00078874,0.29337,0.0011393,0.00236,4.2139e-10,0.74,0.14,0
0.036865,0.0078155,0.0027432,5.605e-05,0.00083977,4.6025e-05,0,0,0.049489,-0.020377,0,0.0023933,0,0,0,0.002744,5.5262e-05,0.00083977,0.98097,0.001213,0.0023948,4.5868e-10,0.76,0.14,0
0.037866,0.0084837,0.0028213,0.00011765,0.00088169,5.3748e-05,0,0,0.050431,-0.019865,0,0.0027949,0,0,0,0.0028224,0.00011658,0.00088169,1.1384,0.0012736,0.0024159,4.8689e-10,0.78,0.14,0
0.038882,0.009107,0.0028831,0.00015522,0.0009115,4.3481e-05,0,0,0.051262,-0.019663,0,0.002261,0,0,0,0.0028838,0.00015453,0.0009115,0.91295,0.0013166,0.0024405,5.1155e-10,0.8,0.14,0
0.039916,0.0096702,0.0029383,0.00016816,0.00093193,2.2591e-05,0,0,0.052165,-0.019858,0,0.0011747,0,0,0,0.0029385,0.00016798,0.00093193,0.46722,0.0013461,0.0024785,5.3876e-10,0.82,0.14,0
0.040969,0.010166,0.0029889,0.00015926,0.00094446,-2.034e-07,0,0,0.053156,-0.020415,0,-1.0577e-05,0,0,0,0.0029889,0.00015926,0.00094446,-0.0041185,0.0013642,0.0025302,5.6978e-10,0.84,0.14,0
0.042042,0.010592,0.0030356,0.00013611,0.00095151,-1.9382e-05,0,0,0.054186,-0.0212,0,-0.0010078,0,0,0,0.0030357,0.00013598,0.00095151,-0.38297,0.0013744,0.0025901,6.0327e-10,0.86,0.14,0
0.043136,0.010949,0.0030771,0.00010573,0.00095484,-3.2278e-05,0,0,0.055178,-0.022077,0,-0.0016785,0,0,0,0.0030774,0.00010538,0.00095484,-0.62231,0.0013792,0.0026514,6.3653e-10,0.88,0.14,0
0.044249,0.011243,0.0031124,7.3735e-05,0.00095585,-3.8409e-05,0,0,0.056071,-0.022935,0,-0.0019972,0,0,0,0.0031129,7.325e-05,0.00095585,-0.72406,0.0013807,0.0027084,6.6709e-10,0.9,0.14,0
0.045379,0.011477,0.0031411,4.3932e-05,0.0009555,-3.838e-05,0,0,0.056825,-0.023701,0,-0.0019958,0,0,0,0.0031415,4.3456e-05,0.0009555,-0.70987,0.0013802,0.0027576,6.9327e-10,0.92,0.14,0
0.046522,0.011655,0.003163,1.8828e-05,0.00095455,-3.3269e-05,0,0,0.05742,-0.024329,0,-0.00173,0,0,0,0.0031634,1.8476e-05,0.00095455,-0.60617,0.0013788,0.0027969,7.1408e-10,0.94,0.14,0
0.047676,0.011779,0.0031784,-3.0647e-11,0.00095351,-2.4314e-05,0,0,0.057847,-0.024791,0,-0.0012643,0,0,0,0.0031786,-1.8602e-07,0.00095351,-0.43827,0.0013773,0.0028253,7.2907e-10,0.96,0.14,0
0.048836,0.011853,0.0031875,-1.1618e-05,0.00095276,-1.2797e-05,0,0,0.058103,-0.025074,0,-0.00066542,0,0,0,0.0031875,-1.1669e-05,0.00095276,-0.22918,0.0013762,0.0028425,7.3808e-10,0.98,0.14,0
0.05,0.011878,0.0031905,-1.554e-05,0.00095248,2.3494e-05,0,0,0.058188,-0.025169,0,0.0012217,0,0,0,0.0031907,-1.5712e-05,0.00095248,0.41984,0.0013758,0.0028485,7.4125e-10,1,0.14,0
0,0,0.003366,0.0014426,0.0014426,0.00081296,0,0,0.05001,-8.6736e-19,0,0.042274,0,0,0,0.0036636,0.001145,0.0014426,20.104,0.0020837,0.0023838,6.5929e-10,0,0.16,0
0.0010002,0.00084548,0.0033525,0.0012724,0.0013875,0.00080986,0,0,0.051091,-0.0029921,0,0.042113,0,0,0,0.0036306,0.00099426,0.0013875,18.953,0.0020041,0.0024634,7.0228e-10,0.02,0.16,0
0.0020436,0.0016742,0.0034061,0.001118,0.0013572,0.00079416,0,0,0.05327,-0.0062188,0,0.041296,0,0,0,0.0036547,0.00086942,0.0013572,17.384,0.0019604,0.0025762,7.7312e-10,0.04,0.16,0
0.003131,0.0024789,0.0034558,0.00096026,0.0013248,0.00076869,0,0,0.055405,-0.0094785,0,0.039972,0,0,0,0.0036736,0.00074249,0.0013248,15.818,0.0019136,0.0026877,8.4147e-10,0.06,0.16,0
0.0042598,0.0032497,0.003498,0.00080895,0.0012921,0.00073287,0,0,0.057354,-0.012562,0,0.038109,0,0,0,0.0036848,0.00062219,0.0012921,14.297,0.0018664,0.0027887,9.0084e-10,0.08,0.16,0
0.0054252,0.0039763,0.0035301,0.0006718,0.0012606,0.00068898,0,0,0.059008,-0.015308,0,0.035827,0,0,0,0.0036875,0.00051439,0.0012606,12.869,0.0018208,0.0028736,9.4734e-10,0.1,0.16,0
0.0066202,0.00465,0.0035508,0.00055322,0.0012312,0.00064064,0,0,0.06031,-0.017628,0,0.033313,0,0,0,0.003682,0.00042204,0.0012312,11.572,0.0017784,0.0029401,9.7964e-10,0.12,0.16,0
0.0078376,0.0052646,0.0035605,0.00045477,0.0012046,0.00059138,0,0,0.061253,-0.019495,0,0.030752,0,0,0,0.0036693,0.00034597,0.0012046,10.424,0.0017399,0.002988,9.983e-10,0.14,0.16,0
0.0090703,0.0058157,0.00356,0.00037616,0.0011809,0.0005439,0,0,0.061859,-0.020922,0,0.028283,0,0,0,0.0036504,0.00028581,0.0011809,9.4316,0.0017057,0.0030183,1.0048e-09,0.16,0.16,0
0.010312,0.0063007,0.003551,0.00031617,0.0011602,0.00049983,0,0,0.062162,-0.021944,0,0.025991,0,0,0,0.0036265,0.0002407,0.0011602,8.5863,0.0016758,0.0030325,1.0008e-09,0.18,0.16,0
0.011557,0.006718,0.0035346,0.00027326,0.0011424,0.00045981,0,0,0.062199,-0.022597,0,0.02391,0,0,0,0.0035982,0.00020967,0.0011424,7.8735,0.0016501,0.0030318,9.8785e-10,0.2,0.16,0
0.0128,0.0070665,0.0035117,0.00024589,0.0011273,0.00042375,0,0,0.061996,-0.022916,0,0.022035,0,0,0,0.0035658,0.0001918,0.0011273,7.2738,0.0016283,0.0030171,9.6685e-10,0.22,0.16,0
0.014037,0.0073448,0.0034826,0.00023257,0.0011146,0.00039098,0,0,0.06157,-0.022932,0,0.020331,0,0,0,0.003529,0.00018619,0.0011146,6.764,0.0016099,0.0029888,9.3842e-10,0.24,0.16,0
0.015263,0.0075513,0.0034472,0.00023173,0.0011037,0.0003604,0,0,0.060931,-0.02267,0,0.018741,0,0,0,0.0034871,0.00019183,0.0011037,6.3175,0.0015942,0.0029471,9.0281e-10,0.26,0.16,0
0.016474,0.0076837,0.0034049,0.00024153,0.0010939,0.00033055,0,0,0.060085,-0.022162,0,0.017188,0,0,0,0.003439,0.00020736,0.0010939,5.9021,0.0015801,0.0028922,8.6023e-10,0.28,0.16,0
0.017666,0.0077386,0.0033552,0.00025941,0.0010844,0.00029962,0,0,0.059041,-0.021449,0,0.01558,0,0,0,0.0033839,0.00023068,0.0010844,5.4775,0.0015663,0.0028248,8.1124e-10,0.3,0.16,0
0.018836,0.0077116,0.0032981,0.00028143,0.0010739,0.0002656,0,0,0.05783,-0.020603,0,0.013811,0,0,0,0.0033213,0.00025822,0.0010739,4.9935,0.0015511,0.0027476,7.5735e-10,0.32,0.16,0
0.019979,0.0075972,0.0032347,0.00030116,0.0010608,0.00022693,0,0,0.056523,-0.01975,0,0.011801,0,0,0,0.0032522,0.00028371,0.0010608,4.3974,0.0015322,0.0026662,7.0194e-10,0.34,0.16,0
0.021096,0.0073905,0.003167,0.00030781,0.0010424,0.00018404,0,0,0.055238,-0.0191,0,0.0095702,0,0,0,0.0031788,0.00029602,0.0010424,3.6679,0.0015057,0.0025915,6.5016e-10,0.36,0.16,0
0.022189,0.0070893,0.0030978,0.00028884,0.001016,0.00014269,0,0,0.054127,-0.018906,0,0.0074197,0,0,0,0.003105,0.00028161,0.001016,2.9005,0.0014675,0.0025372,6.0801e-10,0.38,0.16,0
0.023262,0.0066992,0.0030229,0.00023033,0.00097596,0.00011354,0,0,0.05322,-0.019386,0,0.0059041,0,0,0,0.0030275,0.00022572,0.00097596,2.3244,0.0014097,0.0025121,5.7607e-10,0.4,0.16,0
0.024317,0.0062352,0.002943,0.00014151,0.00092534,0.00011479,0,0,0.052458,-0.02038,0,0.0059689,0,0,0,0.0029477,0.00013682,0.00092534,2.3424,0.0013366,0.0025112,5.5118e-10,0.42,0.16,0
0.02536,0.0057272,0.0028248,1.8411e-05,0.00085296,0.00014991,0,0,0.051268,-0.021698,0,0.0077953,0,0,0,0.0028328,1.0426e-05,0.00085296,3.049,0.0012321,0.0025095,5.14e-10,0.44,0.16,0
0.026368,0.0051969,0.0026884,-7.5161e-05,0.00078397,0.00024399,0,0,0.049515,-0.022337,0,0.012687,0,0,0,0.0027098,-9.6537e-05,0.00078397,5.0069,0.0011324,0.0024859,4.6831e-10,0.46,0.16,0
0.02734,0.0046946,0.0022953,-0.00029681,0.00059956,0.0003354,0,0,0.04409,-0.023306,0,0.017441,0,0,0,0.002338,-0.0003395,0.00059956,7.2543,0.00086603,0.002353,3.2787e-10,0.48,0.16,0
0.028132,0.0041599,0.0019225,-0.00045315,0.00044079,0.00064087,0,0,0.038523,-0.023242,0,0.033325,0,0,0,0.0020843,-0.00061501,0.00044079,14.175,0.0006367,0.0023561,2.4613e-10,0.5,0.16,0
0.028881,0.0038181,0.0016538,-0.00010724,0.00046396,0.00055324,0,0,0.030935,-0.014851,0,0.028769,0,0,0,0.0018132,-0.00026662,0.00046396,16.071,0.00067017,0.0018275,1.5309e-10,0.52,0.16,0
0.029369,0.0037491,0.0012009,1.9635e-05,0.00036615,0.000432,0,0,0.021702,-0.0090093,0,0.022464,0,0,0,0.001342,-0.0001215,0.00036615,18.092,0.00052888,0.0012907,5.9668e-11,0.54,0.16,0
0.029749,0.0037378,0.001028,0.0001017,0.00033891,0.00024643,0,0,0.017916,-0.0061674,0,0.012814,0,0,0,0.0010895,4.022e-05,0.00033891,14.008,0.00048954,0.00093635,2.8153e-11,0.56,0.16,0
0.030086,0.0037627,0.00096849,0.00014315,0.00033349,7.3356e-05,0,0,0.01651,-0.004949,0,0.0038145,0,0,0,0.00097496,0.00013668,0.00033349,5.0397,0.00048171,0.00075926,1.749e-11,0.58,0.16,0
0.03041,0.0038148,0.00096537,0.00013801,0.00033101,-9.5296e-05,0,0,0.016493,-0.0050181,0,-0.0049554,0,0,0,0.00097621,0.00012717,0.00033101,-6.4862,0.00047813,0.00076769,1.7831e-11,0.6,0.16,0
0.030746,0.0038945,0.0010186,8.5367e-05,0.0003312,-0.00026735,0,0,0.017873,-0.0063916,0,-0.013902,0,0,0,0.0010898,1.4204e-05,0.0003312,-14.905,0.0004784,0.00095729,2.8966e-11,0.62,0.16,0
0.031125,0.0040118,0.0011858,-1.0672e-05,0.00035254,-0.00045065,0,0,0.021665,-0.0094435,0,-0.023434,0,0,0,0.0013365,-0.00016141,0.00035254,-18.495,0.00050922,0.0013184,6.0276e-11,0.64,0.16,0
0.031612,0.0041897,0.0016356,-0.00015737,0.00044347,-0.00056608,0,0,0.030995,-0.015622,0,-0.029436,0,0,0,0.0017994,-0.00032114,0.00044347,-16.135,0.00064056,0.0018601,1.5229e-10,0.66,0.16,0
0.032364,0.0046501,0.0018969,-0.0005352,0.0004085,-0.00063993,0,0,0.038698,-0.024536,0,-0.033276,0,0,0,0.002055,-0.0006933,0.0004085,-13.877,0.00059006,0.0023956,2.3667e-10,0.68,0.16,0
0.03316,0.0053238,0.0022676,-0.00038222,0.00056561,-0.00031662,0,0,0.044251,-0.024644,0,-0.016464,0,0,0,0.0023049,-0.00041953,0.00056561,-6.7202,0.00081699,0.0023894,3.2068e-10,0.7,0.16,0
0.034135,0.0059829,0.002652,-0.00017456,0.00074323,-0.00020526,0,0,0.049628,-0.023863,0,-0.010674,0,0,0,0.0026668,-0.00018939,0.00074323,-4.1319,0.0010736,0.0025227,4.6087e-10,0.72,0.16,0
0.035145,0.0066894,0.0027821,-8.7526e-05,0.00080838,-9.0014e-05,0,0,0.051318,-0.023294,0,-0.0046807,0,0,0,0.002785,-9.0347e-05,0.00080838,-1.7949,0.0011677,0.0025477,5.0683e-10,0.74,0.16,0
0.036187,0.0073951,0.0028906,3.075e-05,0.00087641,-3.1619e-05,0,0,0.05237,-0.021987,0,-0.0016442,0,0,0,0.002891,3.0401e-05,0.00087641,-0.63337,0.0012659,0.0025453,5.4226e-10,0.76,0.16,0
0.03724,0.0080781,0.0029604,0.00011839,0.00092364,-7.2973e-06,0,0,0.052956,-0.020936,0,-0.00037946,0,0,0,0.0029604,0.00011837,0.00092364,-0.14711,0.0013341,0.0025371,5.6276e-10,0.78,0.16,0
0.038305,0.0087077,0.003024,0.00017595,0.00096,-1.379e-05,0,0,0.053665,-0.020385,0,-0.00071708,0,0,0,0.0030241,0.00017589,0.00096,-0.27741,0.0013867,0.0025483,5.8651e-10,0.8,0.16,0
0.039387,0.0092675,0.0030818,0.00019228,0.00098221,-3.2875e-05,0,0,0.054588,-0.020538,0,-0.0017095,0,0,0,0.0030821,0.0001919,0.00098221,-0.65176,0.0014188,0.0025873,6.1769e-10,0.82,0.16,0
0.040489,0.0097507,0.0031382,0.0001793,0.00099524,-5.2838e-05,0,0,0.055716,-0.021215,0,-0.0027476,0,0,0,0.0031391,0.00017835,0.00099524,-1.0227,0.0014376,0.0026486,6.5713e-10,0.84,0.16,0
0.041615,0.010159,0.0031906,0.00014867,0.0010018,-6.6674e-05,0,0,0.056909,-0.022181,0,-0.0034671,0,0,0,0.003192,0.00014721,0.0010018,-1.255,0.001447,0.0027202,7.0021e-10,0.86,0.16,0
0.042765,0.010498,0.0032369,0.00011084,0.0010043,-7.2674e-05,0,0,0.058047,-0.023231,0,-0.0037791,0,0,0,0.0032386,0.00010915,0.0010043,-1.3311,0.0014507,0.0027917,7.4233e-10,0.88,0.16,0
0.043937,0.010773,0.0032756,7.2283e-05,0.0010044,-7.1365e-05,0,0,0.059052,-0.024234,0,-0.003711,0,0,0,0.0032772,7.0694e-05,0.0010044,-1.2756,0.0014507,0.0028565,7.8014e-10,0.9,0.16,0
0.045128,0.01099,0.0033064,3.7088e-05,0.001003,-6.4008e-05,0,0,0.059887,-0.025115,0,-0.0033284,0,0,0,0.0033076,3.5835e-05,0.001003,-1.1212,0.0014488,0.0029113,8.1184e-10,0.92,0.16,0
0.046333,0.011154,0.0033296,7.8263e-06,0.0010012,-5.195e-05,0,0,0.060537,-0.025828,0,-0.0027014,0,0,0,0.0033304,7.014e-06,0.0010012,-0.89578,0.0014462,0.0029545,8.3664e-10,0.94,0.16,0
0.047549,0.011269,0.0033456,-1.3933e-05,0.00099951,-3.6476e-05,0,0,0.060999,-0.02635,0,-0.0018967,0,0,0,0.003346,-1.4329e-05,0.00099951,-0.62198,0.0014437,0.0029855,8.5432e-10,0.96,0.16,0
0.048773,0.011336,0.0033551,-2.729e-05,0.00099833,-1.8783e-05,0,0,0.061275,-0.026666,0,-0.00097672,0,0,0,0.0033552,-2.7394e-05,0.00099833,-0.31816,0.001442,0.003004,8.6487e-10,0.98,0.16,0
0.05,0.011359,0.0033582,-3.1788e-05,0.00099792,2.154e-05,0,0,0.061367,-0.026772,0,0.0011201,0,0,0,0.0033583,-3.1925e-05,0.00099792,0.36403,0.0014414,0.0030105,8.6852e-10,1,0.16,0
0,0,0.003389,0.0014525,0.0014525,0.00075589,0,0,0.050352,-2.1684e-19,0,0.039306,0,0,0,0.0036492,0.0011924,0.0014525,18.988,0.002098,0.0023376,6.2877e-10,0,0.18,0
0.001007,0.00078613,0.0033751,0.0012833,0.0013975,0.00075366,0,0,0.051418,-0.00297,0,0.03919,0,0,0,0.0036184,0.0010401,0.0013975,17.888,0.0020187,0.0024195,6.7421e-10,0.02,0.18,0
0.0020567,0.001552,0.0034296,0.0011365,0.0013698,0.00073945,0,0,0.053555,-0.0060665,0,0.038451,0,0,0,0.0036474,0.00091876,0.0013698,16.41,0.0019787,0.0025334,7.4664e-10,0.04,0.18,0
0.0031492,0.0022936,0.0034813,0.00098855,0.001341,0.00071934,0,0,0.055649,-0.0091626,0,0.037406,0,0,0,0.003674,0.00079586,0.001341,14.996,0.0019369,0.002648,8.1907e-10,0.06,0.18,0
0.0042827,0.0030041,0.0035276,0.00084603,0.0013121,0.00069212,0,0,0.057603,-0.012117,0,0.03599,0,0,0,0.0036957,0.00067793,0.0013121,13.652,0.0018952,0.0027559,8.8616e-10,0.08,0.18,0
0.0054533,0.0036763,0.0035663,0.0007147,0.0012843,0.00065866,0,0,0.059332,-0.014809,0,0.03425,0,0,0,0.0037111,0.00056992,0.0012843,12.398,0.0018551,0.0028519,9.4401e-10,0.1,0.18,0
0.0066559,0.0043033,0.0035962,0.00059851,0.0012584,0.00062107,0,0,0.060782,-0.017157,0,0.032296,0,0,0,0.0037198,0.00047493,0.0012584,11.254,0.0018177,0.0029327,9.9045e-10,0.12,0.18,0
0.0078846,0.0048793,0.003617,0.00049953,0.001235,0.00058183,0,0,0.061933,-0.019121,0,0.030255,0,0,0,0.003722,0.00039448,0.001235,10.235,0.0017838,0.002997,1.0248e-09,0.14,0.18,0
0.0091333,0.0054002,0.003629,0.00041839,0.0012142,0.00054315,0,0,0.062784,-0.020692,0,0.028244,0,0,0,0.0037184,0.00032899,0.0012142,9.3465,0.0017539,0.0030449,1.0474e-09,0.16,0.18,0
0.010396,0.005863,0.003633,0.00035478,0.0011963,0.00050664,0,0,0.063353,-0.02188,0,0.026345,0,0,0,0.0037095,0.00027826,0.0011963,8.5881,0.001728,0.0030767,1.059e-09,0.18,0.18,0
0.011667,0.0062654,0.0036296,0.00030792,0.0011813,0.00047326,0,0,0.063658,-0.022707,0,0.024609,0,0,0,0.0036958,0.00024181,0.0011813,7.9523,0.0017063,0.0030931,1.0606e-09,0.2,0.18,0
0.012942,0.0066058,0.0036195,0.00027684,0.0011689,0.00044334,0,0,0.063716,-0.023194,0,0.023054,0,0,0,0.0036773,0.00021904,0.0011689,7.4281,0.0016884,0.0030947,1.0527e-09,0.22,0.18,0
0.014216,0.0068824,0.0036028,0.00026049,0.001159,0.00041672,0,0,0.063539,-0.023361,0,0.02167,0,0,0,0.0036539,0.00020932,0.001159,7.001,0.0016741,0.0030816,1.0358e-09,0.24,0.18,0
0.015484,0.0070931,0.0035791,0.00025767,0.001151,0.00039276,0,0,0.063129,-0.023227,0,0.020424,0,0,0,0.0036249,0.00021186,0.001151,6.6531,0.0016626,0.0030537,1.0097e-09,0.26,0.18,0
0.016741,0.0072349,0.0035476,0.0002669,0.0011444,0.00037036,0,0,0.062485,-0.022814,0,0.019259,0,0,0,0.0035889,0.00022561,0.0011444,6.3614,0.001653,0.003011,9.7448e-10,0.28,0.18,0
0.017983,0.0073039,0.0035074,0.00028601,0.001138,0.00034787,0,0,0.061604,-0.022153,0,0.018089,0,0,0,0.0035446,0.00024887,0.001138,6.0935,0.0016438,0.0029533,9.2985e-10,0.3,0.18,0
0.019205,0.0072942,0.0034575,0.00031155,0.0011307,0.00032288,0,0,0.060496,-0.021298,0,0.01679,0,0,0,0.0034903,0.00027875,0.0011307,5.8,0.0016332,0.0028816,8.7644e-10,0.32,0.18,0
0.020403,0.0071979,0.0033984,0.00033758,0.0011208,0.00029221,0,0,0.059217,-0.020363,0,0.015195,0,0,0,0.003426,0.00030993,0.0011208,5.4049,0.0016189,0.0028001,8.1699e-10,0.34,0.18,0
0.021574,0.0070049,0.0033348,0.00035288,0.0011063,0.00025365,0,0,0.057941,-0.019589,0,0.01319,0,0,0,0.0033562,0.00033146,0.0011063,4.8275,0.001598,0.0027214,7.592e-10,0.36,0.18,0
0.022721,0.0067069,0.0032691,0.00033245,0.0010805,0.00021002,0,0,0.056904,-0.019448,0,0.010921,0,0,0,0.003284,0.00031751,0.0010805,4.0699,0.0015607,0.0026682,7.1334e-10,0.38,0.18,0
0.02385,0.0063024,0.0032112,0.00025984,0.0010413,0.00018023,0,0,0.056417,-0.020318,0,0.0093718,0,0,0,0.0032222,0.00024888,0.0010413,3.4816,0.0015041,0.0026669,6.9203e-10,0.4,0.18,0
0.024977,0.0058125,0.0031354,0.00011042,0.00097374,0.00018145,0,0,0.056203,-0.022446,0,0.0094354,0,0,0,0.0031462,9.9578e-05,0.00097374,3.4205,0.0014065,0.0027172,6.8226e-10,0.42,0.18,0
0.026098,0.0052637,0.0030951,-2.2145e-05,0.00092188,0.00025443,0,0,0.056503,-0.024545,0,0.01323,0,0,0,0.0031157,-4.2776e-05,0.00092188,4.6357,0.0013316,0.0028035,6.966e-10,0.44,0.18,0
0.027238,0.0047218,0.0029534,-0.00023577,0.00081529,0.00033934,0,0,0.055591,-0.027327,0,0.017646,0,0,0,0.0029891,-0.00027147,0.00081529,6.0069,0.0011776,0.0028756,6.595e-10,0.46,0.18,0
0.028322,0.004155,0.0032297,-0.00019634,0.00091002,0.00058079,0,0,0.060313,-0.028765,0,0.030201,0,0,0,0.0033255,-0.00029212,0.00091002,9.3644,0.0013145,0.0031912,9.0606e-10,0.48,0.18,0
0.02965,0.0036621,0.0044783,-0.00089966,0.0010736,0.00077801,0,0,0.026489,-0.011116,0,0.018621,0,0,0,0.0046102,-0.0010316,0.0010736,10.131,0.0015507,0.0049427,3.89e-09,0.5,0.18,0
0.029781,0.0036259,0.0037221,0.00036826,0.0012271,0.00061284,0,0,0.006178,-0.0056814,0,0.022849,0,0,0,0.0040374,5.2921e-05,0.0012271,19.348,0.0017725,0.0035842,3.5731e-09,0.52,0.18,0
0.029897,0.0036532,0.0034546,0.00024719,0.0011105,0.00049584,0,0,0.0058044,-0.0033994,0,0.014577,0,0,0,0.0036574,4.441e-05,0.0011105,19.46,0.0016041,0.0032286,3.0378e-09,0.54,0.18,0
0.030013,0.003689,0.0034707,0.00031227,0.0011349,0.0002622,0,0,0.0057839,-0.0022268,0,0.0078817,0,0,0,0.003562,0.000221,0.0011349,16.492,0.0016393,0.002994,2.956e-09,0.56,0.18,0
0.030129,0.0037326,0.0034841,0.00033552,0.0011459,7.9009e-05,0,0,0.0057899,-0.0017669,0,0.0023371,0,0,0,0.0034968,0.00032288,0.0011459,8.2438,0.0016552,0.0028529,2.9481e-09,0.58,0.18,0
0.030245,0.0037833,0.0034811,0.00033061,0.0011435,-9.4087e-05,0,0,0.0057883,-0.0018053,0,-0.0028846,0,0,0,0.0034996,0.00031216,0.0011435,-9.6474,0.0016517,0.0028637,2.9462e-09,0.6,0.18,0
0.03036,0.003841,0.0034626,0.00029724,0.001128,-0.0002763,0,0,0.0057811,-0.0023502,0,-0.0084082,0,0,0,0.0035618,0.00019809,0.001128,-16.754,0.0016293,0.0030126,2.9534e-09,0.62,0.18,0
0.030476,0.0039068,0.0034427,0.0002181,0.0010983,-0.00050882,0,0,0.0058054,-0.0036371,0,-0.015068,0,0,0,0.0036519,8.9871e-06,0.0010983,-19.45,0.0015864,0.0032531,3.0415e-09,0.64,0.18,0
0.030592,0.0039816,0.0037199,0.00033063,0.0012152,-0.00061483,0,0,0.0062022,-0.0060945,0,-0.023258,0,0,0,0.0040369,1.3617e-05,0.0012152,-19.135,0.0017552,0.0036172,3.6113e-09,0.66,0.18,0
0.030724,0.0041228,0.0044446,-0.0010391,0.0010216,-0.00076443,0,0,0.026546,-0.011726,0,-0.018308,0,0,0,0.0045701,-0.0011646,0.0010216,-9.8183,0.0014757,0.0050176,3.8108e-09,0.68,0.18,0
0.032054,0.0047553,0.0031933,-0.0003067,0.00086597,-0.00055205,0,0,0.06051,-0.030489,0,-0.028706,0,0,0,0.0032783,-0.00039171,0.00086597,-8.7541,0.0012508,0.0032303,8.8868e-10,0.7,0.18,0
0.033144,0.0054735,0.0029166,-0.00035138,0.00076958,-0.00029603,0,0,0.055824,-0.029145,0,-0.015394,0,0,0,0.0029433,-0.00037798,0.00076958,-5.1345,0.0011116,0.0029217,6.4705e-10,0.72,0.18,0
0.034287,0.0061902,0.0030473,-0.00015359,0.00086811,-0.00018663,0,0,0.056659,-0.026564,0,-0.009705,0,0,0,0.0030581,-0.00016444,0.00086811,-3.3257,0.0012539,0.0028502,6.8458e-10,0.74,0.18,0
0.03541,0.0069361,0.003082,-2.4106e-05,0.00091737,-8.9553e-05,0,0,0.056281,-0.024478,0,-0.0046568,0,0,0,0.0030846,-2.6686e-05,0.00091737,-1.6501,0.0013251,0.002763,6.7238e-10,0.76,0.18,0
0.036538,0.0076462,0.003149,0.0001245,0.00098204,-6.3661e-05,0,0,0.05634,-0.022296,0,-0.0033104,0,0,0,0.0031503,0.00012316,0.00098204,-1.2053,0.0014185,0.0027021,6.7887e-10,0.78,0.18,0
0.037664,0.0082916,0.0031987,0.00019821,0.0010191,-7.0919e-05,0,0,0.05667,-0.021342,0,-0.0036878,0,0,0,0.0032003,0.00019653,0.0010191,-1.3532,0.001472,0.0026886,6.9227e-10,0.8,0.18,0
0.038805,0.0088487,0.0032565,0.00021625,0.0010418,-9.3102e-05,0,0,0.057581,-0.021465,0,-0.0048413,0,0,0,0.0032593,0.0002134,0.0010418,-1.7524,0.0015048,0.0027277,7.2742e-10,0.82,0.18,0
0.039967,0.0093171,0.0033137,0.00019341,0.0010521,-0.00010997,0,0,0.0588,-0.022326,0,-0.0057184,0,0,0,0.0033175,0.00018954,0.0010521,-2.016,0.0015197,0.0027982,7.7535e-10,0.84,0.18,0
0.041157,0.0097042,0.003368,0.00015358,0.0010565,-0.00011682,0,0,0.060099,-0.023475,0,-0.0060749,0,0,0,0.0033722,0.00014934,0.0010565,-2.0787,0.001526,0.0028786,8.2745e-10,0.86,0.18,0
0.042371,0.01002,0.0034145,0.00010808,0.0010568,-0.00011435,0,0,0.0613,-0.024666,0,-0.005946,0,0,0,0.0034184,0.00010413,0.0010568,-1.9784,0.0015264,0.0029555,8.7632e-10,0.88,0.18,0
0.043609,0.010274,0.003452,6.3296e-05,0.0010546,-0.00010463,0,0,0.062333,-0.025774,0,-0.0054405,0,0,0,0.0034553,6.0069e-05,0.0010546,-1.7667,0.0015233,0.0030232,9.187e-10,0.9,0.18,0
0.044865,0.010473,0.0034812,2.3239e-05,0.0010513,-8.9445e-05,0,0,0.063177,-0.026731,0,-0.0046511,0,0,0,0.0034835,2.0927e-05,0.0010513,-1.4807,0.0015186,0.0030795,9.5341e-10,0.92,0.18,0
0.046136,0.010622,0.0035028,-9.6242e-06,0.001048,-7.0261e-05,0,0,0.063826,-0.027497,0,-0.0036536,0,0,0,0.0035042,-1.1029e-05,0.001048,-1.1455,0.0015137,0.0031234,9.8012e-10,0.94,0.18,0
0.047418,0.010725,0.0035176,-3.3842e-05,0.0010451,-4.8289e-05,0,0,0.064285,-0.028053,0,-0.002511,0,0,0,0.0035183,-3.4499e-05,0.0010451,-0.77886,0.0015096,0.0031547,9.9894e-10,0.96,0.18,0
0.048707,0.010786,0.0035263,-4.8624e-05,0.0010433,-2.4566e-05,0,0,0.064557,-0.02839,0,-0.0012774,0,0,0,0.0035264,-4.8793e-05,0.0010433,-0.39371,0.001507,0.0031734,1.0101e-09,0.98,0.18,0
0.05,0.010807,0.0035291,-5.3589e-05,0.0010427,1.9412e-05,0,0,0.064647,-0.028502,0,0.0010094,0,0,0,0.0035292,-5.3694e-05,0.0010427,0.31044,0.0015061,0.0031798,1.0139e-09,1,0.18,0
0,0,0.0034185,0.0014651,0.0014651,0.00069873,0,0,0.050789,6.5052e-19,0,0.036334,0,0,0,0.0036427,0.0012409,0.0014651,17.79,0.0021162,0.0022979,6.0326e-10,0,0.2,0
0.0010158,0.00072668,0.0034041,0.0012946,0.0014096,0.00069706,0,0,0.051857,-0.0029905,0,0.036247,0,0,0,0.0036136,0.0010851,0.0014096,16.73,0.0020361,0.0023829,6.5169e-10,0.02,0.2,0
0.0020743,0.0014315,0.0034598,0.0011519,0.0013835,0.00068408,0,0,0.053983,-0.0060223,0,0.035572,0,0,0,0.0036473,0.00096433,0.0013835,15.33,0.0019984,0.0024999,7.2693e-10,0.04,0.2,0
0.0031751,0.0021124,0.0035132,0.0010102,0.001357,0.00066774,0,0,0.056061,-0.0090168,0,0.034723,0,0,0,0.0036802,0.00084324,0.001357,14.041,0.0019602,0.0026182,8.0341e-10,0.06,0.2,0
0.0043167,0.002765,0.0035627,0.00087413,0.001331,0.00064667,0,0,0.058023,-0.01188,0,0.033627,0,0,0,0.0037101,0.00072668,0.001331,12.845,0.0019226,0.0027319,8.7686e-10,0.08,0.2,0
0.005496,0.0033839,0.0036066,0.0007477,0.0013063,0.00062096,0,0,0.059807,-0.014523,0,0.03229,0,0,0,0.0037356,0.00061864,0.0013063,11.74,0.0018868,0.0028364,9.438e-10,0.1,0.2,0
0.006709,0.0039637,0.0036437,0.00063417,0.0012834,0.00059182,0,0,0.06137,-0.016879,0,0.030775,0,0,0,0.003756,0.00052197,0.0012834,10.735,0.0018538,0.0029285,1.0019e-09,0.12,0.2,0
0.0079508,0.0044998,0.0036737,0.00053562,0.0012628,0.00056093,0,0,0.062684,-0.018907,0,0.029168,0,0,0,0.003771,0.00043837,0.0012628,9.8358,0.0018241,0.0030064,1.0499e-09,0.14,0.2,0
0.0092164,0.004988,0.0036965,0.00045309,0.0012449,0.00053002,0,0,0.063743,-0.020587,0,0.027561,0,0,0,0.003781,0.00036868,0.0012449,9.0494,0.0017982,0.0030695,1.0873e-09,0.16,0.2,0
0.0105,0.0054255,0.0037125,0.00038686,0.0012298,0.00050056,0,0,0.064549,-0.021916,0,0.026029,0,0,0,0.0037862,0.00031316,0.0012298,8.3767,0.0017764,0.0031175,1.1145e-09,0.18,0.2,0
0.011798,0.0058097,0.003722,0.00033672,0.0012176,0.00047359,0,0,0.065113,-0.022903,0,0.024627,0,0,0,0.003787,0.00027171,0.0012176,7.8158,0.0017588,0.0031507,1.1317e-09,0.2,0.2,0
0.013105,0.0061387,0.0037254,0.00030219,0.0012083,0.00044976,0,0,0.065445,-0.023558,0,0.023387,0,0,0,0.0037835,0.00024409,0.0012083,7.3614,0.0017453,0.0031693,1.1392e-09,0.22,0.2,0
0.014416,0.0064103,0.0037228,0.00028263,0.0012016,0.00042924,0,0,0.06555,-0.023894,0,0.02232,0,0,0,0.0037755,0.00022989,0.0012016,7.0059,0.0017357,0.0031734,1.1374e-09,0.24,0.2,0
0.015727,0.0066222,0.0037139,0.00027725,0.0011974,0.00041183,0,0,0.065431,-0.023923,0,0.021415,0,0,0,0.0037626,0.00022858,0.0011974,6.7389,0.0017295,0.0031629,1.1259e-09,0.26,0.2,0
0.017033,0.0067711,0.0036981,0.00028493,0.0011949,0.00039692,0,0,0.065083,-0.023659,0,0.02064,0,0,0,0.0037436,0.00023938,0.0011949,6.5466,0.001726,0.0031376,1.1045e-09,0.28,0.2,0
0.01833,0.0068525,0.0036739,0.00030404,0.0011934,0.0003833,0,0,0.064494,-0.023123,0,0.019932,0,0,0,0.003717,0.00026099,0.0011934,6.4079,0.0017238,0.0030969,1.0722e-09,0.3,0.2,0
0.019613,0.0068596,0.0036394,0.00033184,0.0011914,0.00036886,0,0,0.063649,-0.022348,0,0.019181,0,0,0,0.0036801,0.00029121,0.0011914,6.2866,0.0017209,0.0030404,1.0284e-09,0.32,0.2,0
0.020876,0.0067827,0.0035923,0.00036337,0.0011867,0.00034974,0,0,0.062545,-0.021406,0,0.018186,0,0,0,0.0036297,0.00032592,0.0011867,6.1116,0.0017141,0.0029685,9.7246e-10,0.34,0.2,0
0.022115,0.006607,0.0035351,0.00039027,0.0011776,0.00031908,0,0,0.061294,-0.020471,0,0.016592,0,0,0,0.0035671,0.00035822,0.0011776,5.7355,0.001701,0.0028877,9.0931e-10,0.36,0.2,0
0.023328,0.0063113,0.0034862,0.00039109,0.0011632,0.00027409,0,0,0.060398,-0.020074,0,0.014253,0,0,0,0.0035103,0.00036701,0.0011632,5.0218,0.0016802,0.0028304,8.6142e-10,0.38,0.2,0
0.024531,0.0058864,0.003426,0.00028377,0.0011129,0.00022573,0,0,0.060139,-0.021558,0,0.011738,0,0,0,0.0034421,0.00026764,0.0011129,4.0881,0.0016075,0.0028475,8.4303e-10,0.4,0.2,0
0.025734,0.0053373,0.0034101,0.00010794,0.0010554,0.00024131,0,0,0.061223,-0.024635,0,0.012548,0,0,0,0.0034277,9.0397e-05,0.0010554,4.1574,0.0015245,0.0029746,8.8769e-10,0.42,0.2,0
0.02698,0.0047454,0.0032755,-0.00020696,0.00092057,0.00028399,0,0,0.061229,-0.029316,0,0.014767,0,0,0,0.0032985,-0.00022997,0.00092057,4.6315,0.0013297,0.0031168,8.7111e-10,0.44,0.2,0
0.028183,0.0041039,0.0035115,-0.0002307,0.00098425,0.00049611,0,0,0.065709,-0.031589,0,0.025798,0,0,0,0.0035762,-0.00029535,0.00098425,7.4248,0.0014217,0.0034165,1.122e-09,0.46,0.2,0
0.029608,0.003544,0.004669,-0.0002424,0.001328,0.00054573,0,0,0.027894,-0.012193,0,0.013172,0,0,0,0.0047358,-0.00030921,0.001328,7.2679,0.0019182,0.004458,3.8888e-09,0.48,0.2,0
0.029732,0.0035775,0.0022674,-0.00083089,0.00043097,0.00020846,0,0,0.0053361,-0.0036498,0,0.0032891,0,0,0,0.0022899,-0.0008533,0.00043097,8.753,0.00062251,0.0027372,1.0493e-09,0.5,0.2,0
0.029804,0.0035909,0.0042894,-5.5428e-05,0.0012702,0.00029536,0,0,0.003925,-0.0017233,0,0.00076794,0,0,0,0.0043094,-7.5415e-05,0.0012702,3.8712,0.0018347,0.0038906,1.8503e-09,0.52,0.2,0
0.029889,0.0036131,0.0050624,0.0001985,0.0015783,0.00021832,0,0,0.0045294,-0.0017937,0,0.00056763,0,0,0,0.0050722,0.00018872,0.0015783,2.5648,0.0022798,0.0043582,2.84e-09,0.54,0.2,0
0.029985,0.0036487,0.0055333,0.00035098,0.0017653,0.00015069,0,0,0.0048984,-0.0018386,0,0.00039179,0,0,0,0.0055377,0.0003466,0.0017653,1.6641,0.0025499,0.0046471,3.581e-09,0.56,0.2,0
0.030085,0.003692,0.0056844,0.00039393,0.0018235,4.8592e-05,0,0,0.0050192,-0.0018584,0,0.00012634,0,0,0,0.0056849,0.00039348,0.0018235,0.52619,0.002634,0.004741,3.8411e-09,0.58,0.2,0
0.030186,0.0037426,0.005677,0.00038805,0.0018195,-5.2316e-05,0,0,0.0050148,-0.0018609,0,-0.00013602,0,0,0,0.0056775,0.00038753,0.0018195,-0.56667,0.0026282,0.0047392,3.8311e-09,0.6,0.2,0
0.030286,0.0038005,0.0055106,0.0003323,0.0017529,-0.0001539,0,0,0.004885,-0.0018467,0,-0.00040013,0,0,0,0.0055151,0.00032773,0.0017529,-1.7008,0.0025319,0.0046419,3.5518e-09,0.62,0.2,0
0.030381,0.0038663,0.0050209,0.00016211,0.0015549,-0.00021881,0,0,0.0045058,-0.0018106,0,-0.0005689,0,0,0,0.0050307,0.00015227,0.0015549,-2.5733,0.002246,0.0043502,2.7937e-09,0.64,0.2,0
0.030466,0.003946,0.0042366,-0.00011406,0.0012368,-0.00029635,0,0,0.0038998,-0.0017561,0,-0.00077052,0,0,0,0.0042567,-0.00013415,0.0012368,-3.879,0.0017864,0.003891,1.8082e-09,0.66,0.2,0
0.030537,0.0040346,0.0022216,-0.00091044,0.00039337,-0.00020899,0,0,0.0053165,-0.0037876,0,-0.0033167,0,0,0,0.0022441,-0.00093284,0.00039337,-8.7048,0.00056819,0.0027638,9.7951e-10,0.68,0.2,0
0.030661,0.0041042,0.0045805,-0.00041862,0.0012486,-0.00051512,0,0,0.027837,-0.012982,0,-0.012338,0,0,0,0.0046389,-0.00047697,0.0012486,-6.7435,0.0018035,0.0045082,3.7673e-09,0.7,0.2,0
0.032084,0.0048172,0.0034533,-0.00038231,0.00092129,-0.0004448,0,0,0.065832,-0.033894,0,-0.02313,0,0,0,0.0035042,-0.00043322,0.00092129,-6.529,0.0013308,0.0034648,1.0885e-09,0.72,0.2,0
0.033294,0.0056269,0.0032267,-0.00035938,0.0008602,-0.00021396,0,0,0.06153,-0.031709,0,-0.011126,0,0,0,0.0032395,-0.0003721,0.0008602,-3.4024,0.0012425,0.0031798,8.547e-10,0.74,0.2,0
0.034545,0.006416,0.0033518,-5.6012e-05,0.00098875,-0.00014182,0,0,0.061441,-0.027164,0,-0.0073745,0,0,0,0.0033578,-6.1904e-05,0.00098875,-2.3789,0.0014282,0.003034,8.7606e-10,0.76,0.2,0
0.035752,0.0071863,0.003365,0.00012596,0.0010473,-0.00010153,0,0,0.060261,-0.023955,0,-0.0052794,0,0,0,0.0033682,0.00012278,0.0010473,-1.7935,0.0015128,0.002896,8.3235e-10,0.78,0.2,0
0.036956,0.007854,0.0034192,0.0002366,0.0010968,-0.00012787,0,0,0.060385,-0.022364,0,-0.0066494,0,0,0,0.0034244,0.00023147,0.0010968,-2.2971,0.0015842,0.0028602,8.413e-10,0.8,0.2,0
0.038168,0.0084089,0.003465,0.00023486,0.00111,-0.000154,0,0,0.061232,-0.022753,0,-0.0080082,0,0,0,0.0034724,0.00022754,0.00111,-2.7235,0.0016033,0.0029059,8.7954e-10,0.82,0.2,0
0.039405,0.0088577,0.0035216,0.00019873,0.0011161,-0.00016554,0,0,0.062542,-0.023851,0,-0.0086079,0,0,0,0.0035298,0.0001905,0.0011161,-2.845,0.0016121,0.0029861,9.3763e-10,0.84,0.2,0
0.040669,0.0092201,0.0035712,0.00014999,0.0011164,-0.00016306,0,0,0.063826,-0.025125,0,-0.0084791,0,0,0,0.003579,0.00014224,0.0011164,-2.7226,0.0016125,0.0030679,9.9462e-10,0.86,0.2,0
0.041958,0.0095111,0.0036104,9.7314e-05,0.0011123,-0.00015151,0,0,0.06495,-0.02639,0,-0.0078783,0,0,0,0.0036169,9.0792e-05,0.0011123,-2.4649,0.0016067,0.0031425,1.0445e-09,0.88,0.2,0
0.043267,0.0097419,0.0036409,4.6934e-05,0.0011063,-0.00013366,0,0,0.065898,-0.027544,0,-0.0069505,0,0,0,0.0036458,4.197e-05,0.0011063,-2.127,0.001598,0.003207,1.0864e-09,0.9,0.2,0
0.044594,0.0099209,0.003664,2.7029e-06,0.0011,-0.0001113,0,0,0.066664,-0.02853,0,-0.0057877,0,0,0,0.0036674,-6.7753e-07,0.0011,-1.7396,0.0015889,0.0032602,1.12e-09,0.92,0.2,0
0.045934,0.010054,0.0036809,-3.3082e-05,0.0010944,-8.5789e-05,0,0,0.067251,-0.029313,0,-0.004461,0,0,0,0.0036829,-3.5062e-05,0.0010944,-1.3225,0.0015807,0.0033015,1.1455e-09,0.94,0.2,0
0.047284,0.010147,0.0036923,-5.9194e-05,0.0010899,-5.8204e-05,0,0,0.067662,-0.029878,0,-0.0030266,0,0,0,0.0036932,-6.0097e-05,0.0010899,-0.88865,0.0015744,0.0033307,1.1632e-09,0.96,0.2,0
0.04864,0.010201,0.0036989,-7.5031e-05,0.0010872,-2.9387e-05,0,0,0.067906,-0.030217,0,-0.0015281,0,0,0,0.0036992,-7.526e-05,0.0010872,-0.44611,0.0015704,0.0033481,1.1737e-09,0.98,0.2,0
0.05,0.010219,0.0037011,-8.0334e-05,0.0010862,1.7215e-05,0,0,0.067987,-0.030331,0,0.00089516,0,0,0,0.0037012,-8.0412e-05,0.0010862,0.26083,0.001569,0.0033541,1.1772e-09,1,0.2,0
0,0,0.0034508,0.0014789,0.0014789,0.00064087,0,0,0.051268,0,0,0.033325,0,0,0,0.0036407,0.0012889,0.0014789,16.512,0.0021362,0.0022628,5.8096e-10,0,0.22,0
0.0010254,0.00066651,0.0034358,0.0013058,0.0014225,0.00063957,0,0,0.052346,-0.0030344,0,0.033258,0,0,0,0.0036131,0.0011285,0.0014225,15.493,0.0020547,0.0023514,6.327e-10,0.02,0.22,0
0.0020938,0.0013111,0.0034928,0.0011649,0.0013973,0.00062776,0,0,0.054483,-0.0060422,0,0.032643,0,0,0,0.0036513,0.0010064,0.0013973,14.17,0.0020184,0.0024727,7.1154e-10,0.04,0.22,0
0.0032047,0.0019329,0.003548,0.0010273,0.0013726,0.00061421,0,0,0.056561,-0.0089772,0,0.031939,0,0,0,0.0036897,0.00088563,0.0013726,12.991,0.0019826,0.0025951,7.9211e-10,0.06,0.22,0
0.0043563,0.0025289,0.0036002,0.00089577,0.0013488,0.00059754,0,0,0.058537,-0.011779,0,0.031072,0,0,0,0.0037264,0.00076963,0.0013488,11.92,0.0019483,0.0027139,8.7108e-10,0.08,0.22,0
0.0055462,0.0030954,0.0036484,0.00077321,0.0013265,0.00057752,0,0,0.060369,-0.014385,0,0.030031,0,0,0,0.00376,0.00066154,0.0013265,10.944,0.001916,0.0028253,9.4559e-10,0.1,0.22,0
0.006771,0.0036281,0.0036916,0.00066213,0.0013061,0.00055478,0,0,0.062022,-0.016744,0,0.028849,0,0,0,0.00379,0.00056373,0.0013061,10.058,0.0018866,0.0029265,1.0135e-09,0.12,0.22,0
0.0080271,0.004123,0.0037294,0.00056439,0.0012881,0.00053046,0,0,0.063473,-0.018817,0,0.027584,0,0,0,0.0038159,0.00047786,0.0012881,9.2657,0.0018606,0.0030157,1.0733e-09,0.14,0.22,0
0.00931,0.0045768,0.0037617,0.00048115,0.0012729,0.00050589,0,0,0.06471,-0.020584,0,0.026306,0,0,0,0.0038379,0.00040491,0.0012729,8.5703,0.0018386,0.0030918,1.1243e-09,0.16,0.22,0
0.010615,0.0049863,0.0037887,0.00041299,0.0012605,0.00048233,0,0,0.065732,-0.022035,0,0.025081,0,0,0,0.0038562,0.00034542,0.0012605,7.9741,0.0018207,0.0031544,1.1665e-09,0.18,0.22,0
0.011939,0.0053493,0.0038106,0.00036009,0.0012512,0.00046082,0,0,0.066544,-0.023169,0,0.023963,0,0,0,0.0038711,0.0002996,0.0012512,7.4774,0.0018073,0.0032035,1.1997e-09,0.2,0.22,0
0.013277,0.0056635,0.0038278,0.00032237,0.001245,0.0004421,0,0,0.067151,-0.02399,0,0.022989,0,0,0,0.0038827,0.00026747,0.001245,7.0784,0.0017984,0.003239,1.2243e-09,0.22,0.22,0
0.014625,0.0059266,0.0038406,0.00029957,0.001242,0.00042659,0,0,0.067562,-0.024504,0,0.022183,0,0,0,0.0038912,0.00024891,0.001242,6.7734,0.0017941,0.0032612,1.2403e-09,0.24,0.22,0
0.01598,0.0061362,0.003849,0.00029126,0.0012421,0.00041437,0,0,0.06778,-0.024721,0,0.021547,0,0,0,0.0038966,0.00024364,0.0012421,6.5562,0.0017941,0.0032702,1.2478e-09,0.26,0.22,0
0.017337,0.0062886,0.003853,0.00029673,0.0012449,0.00040518,0,0,0.067809,-0.024653,0,0.021069,0,0,0,0.0038986,0.00025115,0.0012449,6.4184,0.0017982,0.003266,1.2466e-09,0.28,0.22,0
0.018692,0.006379,0.0038518,0.00031483,0.00125,0.00039839,0,0,0.067647,-0.024314,0,0.020716,0,0,0,0.0038961,0.00027051,0.00125,6.3475,0.0018055,0.0032486,1.2361e-09,0.3,0.22,0
0.020042,0.0064003,0.0038438,0.00034342,0.0012562,0.0003927,0,0,0.067279,-0.023732,0,0.02042,0,0,0,0.0038874,0.00029991,0.0012562,6.3231,0.0018145,0.0032177,1.2153e-09,0.32,0.22,0
0.021383,0.0063416,0.0038253,0.00037877,0.0012612,0.00038554,0,0,0.066666,-0.022944,0,0.020048,0,0,0,0.0038679,0.00033617,0.0012612,6.3055,0.0018218,0.0031721,1.1814e-09,0.34,0.22,0
0.022709,0.0061861,0.0037866,0.00041187,0.0012595,0.00037026,0,0,0.065704,-0.02204,0,0.019253,0,0,0,0.0038268,0.00037173,0.0012595,6.188,0.0018193,0.0031078,1.128e-09,0.36,0.22,0
0.024011,0.005904,0.0037373,0.00043613,0.001252,0.00032852,0,0,0.064617,-0.021213,0,0.017083,0,0,0,0.0037697,0.00040375,0.001252,5.6282,0.0018085,0.0030321,1.0629e-09,0.38,0.22,0
0.025294,0.0054401,0.0037541,0.00039748,0.0012455,0.00027152,0,0,0.065225,-0.022048,0,0.014119,0,0,0,0.0037759,0.00037566,0.0012455,4.5948,0.001799,0.0030595,1.08e-09,0.4,0.22,0
0.02662,0.0048271,0.0035875,-5.4692e-05,0.0010598,0.00023615,0,0,0.065719,-0.028978,0,0.01228,0,0,0,0.0036027,-6.994e-05,0.0010598,3.6944,0.0015309,0.0032582,1.0832e-09,0.42,0.22,0
0.027922,0.0040911,0.003823,-0.00021605,0.0010821,0.00045663,0,0,0.071264,-0.033752,0,0.023745,0,0,0,0.003874,-0.00026703,0.0010821,6.3703,0.001563,0.0036581,1.4103e-09,0.44,0.22,0
0.029471,0.0034582,0.00519,-3.9162e-05,0.0015453,0.00029019,0,0,0.030329,-0.012756,0,0.011195,0,0,0,0.0052215,-7.0613e-05,0.0015453,4.6132,0.002232,0.0046974,5.011e-09,0.46,0.22,0
0.029607,0.0034837,0.0027629,-0.00023235,0.00075916,-5.6333e-05,0,0,0.0058266,-0.0027208,0,0.00042311,0,0,0,0.0027652,-0.0002347,0.00075916,1.0524,0.0010966,0.0026469,1.6944e-09,0.48,0.22,0
0.029685,0.0035277,0.0043314,-0.0007372,0.0010782,-0.00020526,0,0,0.004229,-0.0023601,0,-0.00053369,0,0,0,0.0043396,-0.0007455,0.0010782,-2.3153,0.0015575,0.0044621,2.129e-09,0.5,0.22,0
0.029776,0.003557,0.0048865,4.2549e-05,0.0014787,-0.00019256,0,0,0.0044301,-0.001867,0,-0.00050066,0,0,0,0.0048941,3.4906e-05,0.0014787,-2.2729,0.0021359,0.0043221,2.6407e-09,0.52,0.22,0
0.029862,0.0035815,0.0049195,0.00032966,0.0015748,-0.00010426,0,0,0.0043482,-0.0016186,0,-0.00027108,0,0,0,0.0049219,0.0003273,0.0015748,-1.3006,0.0022747,0.0041152,2.5017e-09,0.54,0.22,0
0.02995,0.0036155,0.005054,0.00040446,0.0016375,-1.914e-05,0,0,0.0044414,-0.001603,0,-4.9764e-05,0,0,0,0.0050541,0.00040438,0.0016375,-0.23585,0.0023654,0.0041722,2.6607e-09,0.56,0.22,0
0.03004,0.0036583,0.0051604,0.0004481,0.0016826,4.423e-06,0,0,0.0045213,-0.0016048,0,1.15e-05,0,0,0,0.0051604,0.00044809,0.0016826,0.053778,0.0024304,0.0042324,2.806e-09,0.58,0.22,0
0.030131,0.0037088,0.005151,0.00044151,0.0016778,7.9857e-06,0,0,0.0045152,-0.0016071,0,2.0763e-05,0,0,0,0.005151,0.0004415,0.0016778,0.097153,0.0024234,0.0042292,2.795e-09,0.6,0.22,0
0.03022,0.0037671,0.0050251,0.00038382,0.0016227,3.318e-05,0,0,0.0044231,-0.0016105,0,8.6267e-05,0,0,0,0.0050253,0.00038358,0.0016227,0.40957,0.0023439,0.0041629,2.6285e-09,0.62,0.22,0
0.030308,0.0038344,0.0048728,0.00029294,0.0015497,0.00012083,0,0,0.00432,-0.0016338,0,0.00031417,0,0,0,0.004876,0.00028975,0.0015497,1.5103,0.0022385,0.0041039,2.4545e-09,0.64,0.22,0
0.030393,0.0039113,0.0048199,-2.5394e-05,0.0014383,0.00021187,0,0,0.004396,-0.0019029,0,0.00055086,0,0,0,0.0048291,-3.4641e-05,0.0014383,2.499,0.0020776,0.0043199,2.5761e-09,0.66,0.22,0
0.030483,0.0039836,0.0042562,-0.00084236,0.0010242,0.00021488,0,0,0.0042017,-0.0024265,0,0.00055869,0,0,0,0.0042652,-0.0008514,0.0010242,2.4091,0.0014793,0.0044834,2.0493e-09,0.68,0.22,0
0.030561,0.0040403,0.0027132,-0.00031993,0.00071797,6.4027e-05,0,0,0.0058032,-0.0028675,0,-0.00036992,0,0,0,0.0027157,-0.00032251,0.00071797,-0.86398,0.0010371,0.0026744,1.646e-09,0.7,0.22,0
0.030696,0.0041177,0.0050714,-0.00027761,0.0014381,-0.00023963,0,0,0.030276,-0.013818,0,-0.0099021,0,0,0,0.0050952,-0.00030141,0.0014381,-3.8926,0.0020773,0.004771,4.87e-09,0.72,0.22,0
0.032243,0.0049219,0.003749,-0.00041826,0.00099922,-0.00038174,0,0,0.071494,-0.036854,0,-0.01985,0,0,0,0.0037837,-0.00045294,0.00099922,-5.191,0.0014433,0.003729,1.3665e-09,0.74,0.22,0
0.033556,0.0058495,0.0035297,-0.00024459,0.00098553,-0.00013562,0,0,0.066148,-0.031983,0,-0.007052,0,0,0,0.0035346,-0.00024946,0.00098553,-2.0552,0.0014235,0.0033423,1.0726e-09,0.76,0.22,0
0.034889,0.006688,0.0036902,0.00021499,0.0011715,-0.00014059,0,0,0.065484,-0.024871,0,-0.0073107,0,0,0,0.0036959,0.00020931,0.0011715,-2.3129,0.0016922,0.0031188,1.0727e-09,0.78,0.22,0
0.036175,0.007397,0.0036747,0.00026664,0.0011824,-0.00017991,0,0,0.064799,-0.02381,0,-0.009355,0,0,0,0.0036842,0.00025717,0.0011824,-3.0134,0.0017079,0.0030708,1.0446e-09,0.8,0.22,0
0.037481,0.0079386,0.0037245,0.00024054,0.0011895,-0.00020648,0,0,0.06591,-0.024673,0,-0.010737,0,0,0,0.0037367,0.00022835,0.0011895,-3.3799,0.0017182,0.0031401,1.1024e-09,0.82,0.22,0
0.038812,0.0083631,0.0037704,0.00019701,0.0011902,-0.00020682,0,0,0.067085,-0.025824,0,-0.010755,0,0,0,0.0037824,0.00018508,0.0011902,-3.3015,0.0017192,0.0032148,1.1609e-09,0.84,0.22,0
0.040164,0.0086992,0.0037996,0.00013988,0.0011818,-0.0001956,0,0,0.068062,-0.027091,0,-0.010171,0,0,0,0.00381,0.00012945,0.0011818,-3.0507,0.0017071,0.0032834,1.2083e-09,0.86,0.22,0
0.041534,0.0089647,0.0038212,8.0285e-05,0.0011704,-0.00017735,0,0,0.06892,-0.028344,0,-0.0092222,0,0,0,0.0038296,7.1896e-05,0.0011704,-2.7082,0.0016907,0.0033465,1.2489e-09,0.88,0.22,0
0.042921,0.0091722,0.003838,2.4597e-05,0.0011588,-0.00015368,0,0,0.06966,-0.029489,0,-0.0079915,0,0,0,0.0038442,1.8414e-05,0.0011588,-2.3041,0.0016738,0.0034021,1.283e-09,0.9,0.22,0
0.044321,0.0093314,0.0038508,-2.322e-05,0.0011483,-0.00012616,0,0,0.070267,-0.030459,0,-0.0065601,0,0,0,0.003855,-2.7324e-05,0.0011483,-1.8632,0.0016586,0.0034482,1.3103e-09,0.92,0.22,0
0.045732,0.0094492,0.0038601,-6.1263e-05,0.0011397,-9.6146e-05,0,0,0.070732,-0.031224,0,-0.0049996,0,0,0,0.0038625,-6.3619e-05,0.0011397,-1.4037,0.0016462,0.0034839,1.3308e-09,0.94,0.22,0
0.04715,0.0095303,0.0038662,-8.8692e-05,0.0011333,-6.4697e-05,0,0,0.071057,-0.031771,0,-0.0033642,0,0,0,0.0038673,-8.975e-05,0.0011333,-0.93694,0.0016369,0.0035092,1.3449e-09,0.96,0.22,0
0.048574,0.0095778,0.0038697,-0.0001052,0.0011294,-3.2502e-05,0,0,0.071249,-0.032098,0,-0.0016901,0,0,0,0.00387,-0.00010547,0.0011294,-0.46846,0.0016313,0.0035242,1.3531e-09,0.98,0.22,0
0.05,0.0095935,0.0038708,-0.00011071,0.001128,1.5054e-05,0,0,0.071312,-0.032207,0,0.00078279,0,0,0,0.0038709,-0.00011077,0.001128,0.21662,0.0016294,0.0035292,1.3559e-09,1,0.22,0
0,0,0.003483,0.0014927,0.0014927,0.00058202,0,0,0.051748,-4.3368e-19,0,0.030265,0,0,0,0.0036407,0.001335,0.0014927,15.161,0.0021562,0.002231,5.6075e-10,0,0.24,0
0.001035,0.0006053,0.0034675,0.0013164,0.0014352,0.00058095,0,0,0.052841,-0.0030882,0,0.030209,0,0,0,0.0036144,0.0011695,0.0014352,14.188,0.002073,0.0023234,6.159e-10,0.02,0.24,0
0.0021136,0.0011898,0.0035259,0.0011762,0.0014107,0.00057033,0,0,0.054998,-0.0060946,0,0.029657,0,0,0,0.0036571,0.0010451,0.0014107,12.947,0.0020376,0.0024497,6.987e-10,0.04,0.24,0
0.0032349,0.0017533,0.0035828,0.0010412,0.0013872,0.00055888,0,0,0.057086,-0.0089969,0,0.029062,0,0,0,0.0037003,0.00092368,0.0013872,11.87,0.0020037,0.0025763,7.8327e-10,0.06,0.24,0
0.0043971,0.0022938,0.0036374,0.00091282,0.0013651,0.00054537,0,0,0.059081,-0.011759,0,0.028359,0,0,0,0.0037425,0.00080771,0.0013651,10.909,0.0019718,0.0026996,8.671e-10,0.08,0.24,0
0.0055981,0.0028085,0.0036892,0.00079324,0.0013447,0.0005294,0,0,0.060956,-0.014339,0,0.027529,0,0,0,0.0037829,0.0006995,0.0013447,10.042,0.0019424,0.0028168,9.4794e-10,0.1,0.24,0
0.0068353,0.003294,0.0037375,0.00068428,0.0013265,0.00051128,0,0,0.062685,-0.016699,0,0.026586,0,0,0,0.0038208,0.00060094,0.0013265,9.2582,0.0019161,0.0029254,1.024e-09,0.12,0.24,0
0.0081055,0.0037471,0.003782,0.00058745,0.0013108,0.00049179,0,0,0.064251,-0.018808,0,0.025573,0,0,0,0.003856,0.00051346,0.0013108,8.5565,0.0018934,0.0030238,1.094e-09,0.14,0.24,0
0.0094053,0.0041647,0.0038227,0.00050387,0.001298,0.00047194,0,0,0.065643,-0.020647,0,0.024541,0,0,0,0.0038885,0.00043806,0.001298,7.938,0.0018748,0.0031109,1.1572e-09,0.16,0.24,0
0.010731,0.0045441,0.0038597,0.00043427,0.0012882,0.0004528,0,0,0.066859,-0.022202,0,0.023546,0,0,0,0.0039185,0.00037542,0.0012882,7.4044,0.0018607,0.0031864,1.2133e-09,0.18,0.24,0
0.01208,0.004883,0.0038933,0.00037908,0.0012817,0.00043529,0,0,0.067902,-0.023469,0,0.022635,0,0,0,0.0039464,0.00032597,0.0012817,6.9569,0.0018514,0.0032498,1.2623e-09,0.2,0.24,0
0.013447,0.0051791,0.003924,0.00033854,0.0012788,0.00042015,0,0,0.068776,-0.024446,0,0.021848,0,0,0,0.0039726,0.00028997,0.0012788,6.595,0.0018471,0.0033012,1.3042e-09,0.22,0.24,0
0.014831,0.0054302,0.0039523,0.00031274,0.0012795,0.00040781,0,0,0.069493,-0.025136,0,0.021206,0,0,0,0.0039975,0.0002676,0.0012795,6.3156,0.0018482,0.0033409,1.3395e-09,0.24,0.24,0
0.016227,0.0056334,0.0039789,0.00030161,0.0012842,0.00039839,0,0,0.070064,-0.025546,0,0.020716,0,0,0,0.0040216,0.00025895,0.0012842,6.1128,0.0018549,0.0033691,1.3684e-09,0.26,0.24,0
0.017633,0.005785,0.0040047,0.00030493,0.0012929,0.00039164,0,0,0.070507,-0.025687,0,0.020366,0,0,0,0.0040457,0.00026392,0.0012929,5.9769,0.0018675,0.0033866,1.3916e-09,0.28,0.24,0
0.019047,0.0058799,0.0040309,0.00032208,0.0013059,0.00038695,0,0,0.070849,-0.025579,0,0.020121,0,0,0,0.0040708,0.00028214,0.0013059,5.8933,0.0018863,0.0033946,1.4102e-09,0.3,0.24,0
0.020467,0.0059103,0.004059,0.00035186,0.0013232,0.00038331,0,0,0.071129,-0.025256,0,0.019932,0,0,0,0.0040982,0.00031264,0.0013232,5.8418,0.0019114,0.003395,1.4256e-09,0.32,0.24,0
0.021892,0.0058649,0.0040901,0.00039154,0.0013445,0.00037908,0,0,0.071385,-0.024776,0,0.019712,0,0,0,0.0041285,0.00035309,0.0013445,5.7922,0.001942,0.0033903,1.4394e-09,0.34,0.24,0
0.023323,0.0057254,0.0041223,0.0004362,0.0013675,0.00037227,0,0,0.071623,-0.024215,0,0.019358,0,0,0,0.0041595,0.00039898,0.0013675,5.7097,0.0019753,0.0033819,1.451e-09,0.36,0.24,0
0.024757,0.0054628,0.0041096,0.00045515,0.0013694,0.00034996,0,0,0.071245,-0.023771,0,0.018198,0,0,0,0.0041428,0.00042194,0.0013694,5.4211,0.0019781,0.0033492,1.4216e-09,0.38,0.24,0
0.026173,0.0050045,0.0040632,0.00045362,0.001355,0.00026945,0,0,0.070412,-0.023437,0,0.014011,0,0,0,0.0040832,0.00043362,0.001355,4.2457,0.0019573,0.0032872,1.3526e-09,0.4,0.24,0
0.027574,0.0041782,0.0042662,-6.4539e-05,0.0012605,0.00039392,0,0,0.078148,-0.034451,0,0.020484,0,0,0,0.0043017,-0.00010008,0.0012605,5.1552,0.0018207,0.0039036,1.8511e-09,0.42,0.24,0
0.029298,0.0033954,0.0059125,-8.2255e-06,0.0017713,5.5512e-05,0,0,0.033918,-0.013869,0,0.009425,0,0,0,0.0059381,-3.3759e-05,0.0017713,2.3774,0.0025585,0.005305,7.4866e-09,0.44,0.24,0
0.029454,0.0033983,0.0031939,-5.244e-05,0.00094244,-0.00020681,0,0,0.0066146,-0.0027153,0,-0.00087754,0,0,0,0.0032072,-6.5764e-05,0.00094244,-2.8249,0.0013613,0.0029034,2.4905e-09,0.46,0.24,0
0.02954,0.003441,0.0049333,-0.00028053,0.0013958,-0.00028273,0,0,0.0045987,-0.0021793,0,-0.00073511,0,0,0,0.0049486,-0.00029581,0.0013958,-3.0949,0.0020162,0.0046361,2.9163e-09,0.48,0.24,0
0.029638,0.0034831,0.0050918,-0.00031812,0.0014321,-0.00019175,0,0,0.0047576,-0.0022753,0,-0.00049856,0,0,0,0.0050986,-0.00032491,0.0014321,-2.0274,0.0020686,0.004793,3.2006e-09,0.5,0.24,0
0.02973,0.0035162,0.0049581,-0.00011601,0.0014526,-0.00025672,0,0,0.0045571,-0.0020392,0,-0.00066748,0,0,0,0.0049711,-0.00012896,0.0014526,-2.889,0.0020982,0.0045217,2.8642e-09,0.52,0.24,0
0.02982,0.0035484,0.0049414,0.00023555,0.0015531,-0.00019705,0,0,0.0044048,-0.0017128,0,-0.00051233,0,0,0,0.0049496,0.00022731,0.0015531,-2.3936,0.0022433,0.0042187,2.6113e-09,0.54,0.24,0
0.029906,0.0035846,0.0049016,0.00038502,0.001586,-0.000104,0,0,0.0043103,-0.0015612,0,-0.0002704,0,0,0,0.0049039,0.00038263,0.001586,-1.3184,0.0022909,0.0040558,2.437e-09,0.56,0.24,0
0.029992,0.0036278,0.0048999,0.00043648,0.0016009,-2.1347e-05,0,0,0.0042887,-0.0015138,0,-5.5502e-05,0,0,0,0.0049,0.00043638,0.0016009,-0.27402,0.0023124,0.0040102,2.3949e-09,0.58,0.24,0
0.030078,0.0036783,0.004891,0.00042871,0.0015959,5.11e-05,0,0,0.0042836,-0.0015174,0,0.00013286,0,0,0,0.0048916,0.00042812,0.0015959,0.65601,0.0023052,0.0040092,2.3876e-09,0.6,0.24,0
0.030164,0.003736,0.0048747,0.00036137,0.0015708,0.00013646,0,0,0.004295,-0.0015723,0,0.0003548,0,0,0,0.0048788,0.00035725,0.0015708,1.7303,0.002269,0.0040534,2.4151e-09,0.62,0.24,0
0.03025,0.0038009,0.0048952,0.00019294,0.0015264,0.00023362,0,0,0.0043794,-0.0017335,0,0.0006074,0,0,0,0.0049068,0.00018137,0.0015264,2.8372,0.0022049,0.0042169,2.5718e-09,0.64,0.24,0
0.030339,0.0038699,0.0048932,-0.00018232,0.0014133,0.00029378,0,0,0.0045239,-0.0020743,0,0.00076382,0,0,0,0.0049102,-0.00019927,0.0014133,3.3016,0.0020414,0.0045241,2.7995e-09,0.66,0.24,0
0.030431,0.0039376,0.0050032,-0.00042126,0.0013746,0.00022419,0,0,0.0047172,-0.0023346,0,0.0005829,0,0,0,0.0050125,-0.00043051,0.0013746,2.3626,0.0019855,0.004802,3.0979e-09,0.68,0.24,0
0.030527,0.0039961,0.0048457,-0.00040892,0.001331,0.00029609,0,0,0.0045691,-0.0022619,0,0.00076984,0,0,0,0.0048623,-0.00042555,0.001331,3.215,0.0019226,0.0046646,2.8314e-09,0.7,0.24,0
0.030614,0.0040529,0.0031369,-0.00016962,0.00089017,0.00021872,0,0,0.0066048,-0.0029173,0,0.00097237,0,0,0,0.0031514,-0.0001842,0.00089017,3.0418,0.0012858,0.0029492,2.4472e-09,0.72,0.24,0
0.030769,0.0041527,0.0057718,-0.0003346,0.0016312,1.8813e-05,0,0,0.033974,-0.015331,0,-0.0075668,0,0,0,0.0057926,-0.00035541,0.0016312,-1.492,0.0023561,0.0054344,7.3377e-09,0.74,0.24,0
0.032497,0.0051367,0.004177,-0.00032877,0.0011545,-0.00028618,0,0,0.078587,-0.038565,0,-0.014881,0,0,0,0.0041951,-0.00034688,0.0011545,-3.6196,0.0016676,0.0040081,1.8114e-09,0.76,0.24,0
0.033912,0.0061915,0.0040075,0.00026782,0.0012826,-0.00013841,0,0,0.070847,-0.026384,0,-0.0071973,0,0,0,0.0040126,0.0002627,0.0012826,-2.1168,0.0018526,0.0033582,1.3573e-09,0.78,0.24,0
0.035331,0.0069016,0.004044,0.00026989,0.0012942,-0.00020351,0,0,0.071496,-0.026631,0,-0.010582,0,0,0,0.004055,0.00025894,0.0012942,-3.0776,0.0018694,0.0033988,1.4037e-09,0.8,0.24,0
0.036772,0.007422,0.0040698,0.00025509,0.0012975,-0.0002174,0,0,0.07208,-0.027102,0,-0.011305,0,0,0,0.0040821,0.00024274,0.0012975,-3.2512,0.0018741,0.0034357,1.4402e-09,0.82,0.24,0
0.038214,0.0078247,0.0040528,0.00019764,0.0012751,-0.0002146,0,0,0.072219,-0.028015,0,-0.011159,0,0,0,0.0040647,0.00018573,0.0012751,-3.1763,0.0018418,0.0034652,1.4465e-09,0.84,0.24,0
0.039661,0.0081364,0.0040416,0.00012909,0.0012512,-0.00020472,0,0,0.07255,-0.029175,0,-0.010646,0,0,0,0.0040523,0.00011841,0.0012512,-2.9871,0.0018073,0.0035074,1.4619e-09,0.86,0.24,0
0.041116,0.0083773,0.0040368,6.0159e-05,0.0012291,-0.00018615,0,0,0.073,-0.030392,0,-0.00968,0,0,0,0.0040455,5.1463e-05,0.0012291,-2.6744,0.0017753,0.0035546,1.4822e-09,0.88,0.24,0
0.042581,0.0085623,0.0040357,-1.2997e-06,0.0012103,-0.00016083,0,0,0.07346,-0.031502,0,-0.0083629,0,0,0,0.0040421,-7.6965e-06,0.0012103,-2.2777,0.0017482,0.0035988,1.5023e-09,0.9,0.24,0
0.044054,0.0087025,0.0040354,-5.2395e-05,0.0011949,-0.0001312,0,0,0.073853,-0.03243,0,-0.0068227,0,0,0,0.0040396,-5.6602e-05,0.0011949,-1.8365,0.001726,0.0036358,1.5186e-09,0.92,0.24,0
0.045535,0.0088053,0.004035,-9.213e-05,0.0011829,-9.9339e-05,0,0,0.074156,-0.03315,0,-0.0051656,0,0,0,0.0040374,-9.452e-05,0.0011829,-1.378,0.0017086,0.0036642,1.5306e-09,0.94,0.24,0
0.047021,0.0088758,0.0040344,-0.00012035,0.0011742,-6.6484e-05,0,0,0.074365,-0.033659,0,-0.0034571,0,0,0,0.0040355,-0.00012141,0.0011742,-0.91653,0.0016961,0.0036841,1.5385e-09,0.96,0.24,0
0.048509,0.0089169,0.0040339,-0.00013717,0.001169,-3.3283e-05,0,0,0.074486,-0.03396,0,-0.0017307,0,0,0,0.0040341,-0.00013743,0.001169,-0.45716,0.0016886,0.0036958,1.5429e-09,0.98,0.24,0
0.05,0.0089305,0.0040336,-0.00014275,0.0011673,1.3025e-05,0,0,0.074526,-0.034061,0,0.00067733,0,0,0,0.0040337,-0.0001428,0.0011673,0.17869,0.001686,0.0036997,1.5444e-09,1,0.24,0
0,0,0.0035131,0.0015056,0.0015056,0.00052209,0,0,0.052194,0,0,0.027149,0,0,0,0.0036407,0.0013779,0.0015056,13.741,0.0021748,0.0022017,5.4197e-10,0,0.26,0
0.0010439,0.00054298,0.0034971,0.0013261,0.001447,0.00052115,0,0,0.053303,-0.0031412,0,0.0271,0,0,0,0.0036157,0.0012075,0.001447,12.823,0.0020901,0.0022978,6.0037e-10,0.02,0.26,0
0.0021321,0.0010673,0.0035568,0.0011861,0.0014229,0.00051177,0,0,0.055482,-0.0061561,0,0.026612,0,0,0,0.0036626,0.0010803,0.0014229,11.676,0.0020553,0.0024291,6.8709e-10,0.04,0.26,0
0.0032632,0.001573,0.0036151,0.0010526,0.0014003,0.00050195,0,0,0.057585,-0.0090401,0,0.026101,0,0,0,0.0037099,0.00095782,0.0014003,10.697,0.0020227,0.0025597,7.7533e-10,0.06,0.26,0
0.0044355,0.0020586,0.0036718,0.00092667,0.0013796,0.00049062,0,0,0.059599,-0.011775,0,0.025512,0,0,0,0.0037569,0.00084162,0.0013796,9.8346,0.0019927,0.002687,8.633e-10,0.08,0.26,0
0.0056472,0.0025218,0.0037266,0.00080945,0.0013608,0.00047738,0,0,0.061511,-0.014336,0,0.024824,0,0,0,0.0038028,0.00073332,0.0013608,9.0614,0.0019656,0.0028088,9.4937e-10,0.1,0.26,0
0.0068959,0.0029601,0.0037792,0.0007023,0.0013445,0.00046236,0,0,0.063304,-0.016696,0,0.024043,0,0,0,0.0038472,0.00063432,0.0013445,8.3637,0.001942,0.0029232,1.0322e-09,0.12,0.26,0
0.0081793,0.0033707,0.0038295,0.0006064,0.0013308,0.0004461,0,0,0.064966,-0.018833,0,0.023197,0,0,0,0.0038901,0.0005458,0.0013308,7.7365,0.0019222,0.0030291,1.1108e-09,0.14,0.26,0
0.0094946,0.0037509,0.0038774,0.00052275,0.00132,0.00042938,0,0,0.066491,-0.02073,0,0.022328,0,0,0,0.0039315,0.00046867,0.00132,7.1794,0.0019067,0.0031254,1.1845e-09,0.16,0.26,0
0.010839,0.0040983,0.0039232,0.00045213,0.0013126,0.00041305,0,0,0.067877,-0.022373,0,0.021479,0,0,0,0.0039717,0.00040366,0.0013126,6.6935,0.001896,0.0032116,1.253e-09,0.18,0.26,0
0.01221,0.0044106,0.0039674,0.00039515,0.0013088,0.00039791,0,0,0.069124,-0.023754,0,0.020691,0,0,0,0.0040112,0.00035136,0.0013088,6.2796,0.0018904,0.0032874,1.3164e-09,0.2,0.26,0
0.013604,0.0046857,0.0040104,0.0003523,0.0013088,0.00038456,0,0,0.070241,-0.024869,0,0.019997,0,0,0,0.0040504,0.00031231,0.0013088,5.9367,0.0018905,0.0033528,1.3748e-09,0.22,0.26,0
0.015019,0.0049212,0.004053,0.00032402,0.0013131,0.0003733,0,0,0.071238,-0.025717,0,0.019412,0,0,0,0.0040901,0.00028702,0.0013131,5.6608,0.0018967,0.0034079,1.4287e-09,0.24,0.26,0
0.016453,0.0051143,0.0040965,0.00031074,0.0013222,0.00036402,0,0,0.072133,-0.026297,0,0.018929,0,0,0,0.0041312,0.00027606,0.0013222,5.4428,0.0019098,0.003453,1.4787e-09,0.26,0.26,0
0.017905,0.0052611,0.0041425,0.00031284,0.0013366,0.00035601,0,0,0.072953,-0.026618,0,0.018512,0,0,0,0.0041753,0.00028002,0.0013366,5.2661,0.0019306,0.0034891,1.5261e-09,0.28,0.26,0
0.019372,0.0053558,0.004194,0.0003306,0.0013574,0.00034777,0,0,0.073752,-0.026696,0,0.018084,0,0,0,0.0042251,0.00029955,0.0013574,5.1029,0.0019607,0.003518,1.5734e-09,0.3,0.26,0
0.020855,0.00539,0.0042565,0.00036424,0.0013862,0.00033671,0,0,0.074627,-0.026572,0,0.017509,0,0,0,0.0042854,0.00033532,0.0013862,4.9079,0.0020023,0.0035435,1.6258e-09,0.32,0.26,0
0.022357,0.0053506,0.0043408,0.0004144,0.0014266,0.00031879,0,0,0.07577,-0.026316,0,0.016577,0,0,0,0.0043665,0.00038869,0.0014266,4.6117,0.0020606,0.0035738,1.6948e-09,0.34,0.26,0
0.023886,0.0052175,0.0044704,0.00048393,0.0014863,0.00028523,0,0,0.077587,-0.026062,0,0.014832,0,0,0,0.0044907,0.00046363,0.0014863,4.0718,0.0021469,0.0036256,1.807e-09,0.36,0.26,0
0.02546,0.0049531,0.0047253,0.00059845,0.0015971,0.00022498,0,0,0.081332,-0.025965,0,0.011699,0,0,0,0.0047375,0.00058622,0.0015971,3.1113,0.0023069,0.0037495,2.0584e-09,0.38,0.26,0
0.027139,0.0045026,0.0052765,0.0008096,0.0018258,-2.7954e-05,0,0,0.089718,-0.026422,0,-0.0014536,0,0,0,0.0052767,0.00080942,0.0018258,-0.35853,0.0026373,0.0040558,2.7145e-09,0.4,0.26,0
0.029049,0.003449,0.0079747,-0.00064386,0.0021992,0.0002767,0,0,0.039594,-0.016203,0,0.0075075,0,0,0,0.0079879,-0.00065711,0.0021992,2.7492,0.0031767,0.0076318,2.334e-08,0.42,0.26,0
0.029282,0.0033272,0.0046118,0.00054123,0.0015459,-0.00042553,0,0,0.009514,-0.002926,0,-0.0043987,0,0,0,0.0046602,0.00049286,0.0015459,-8.8696,0.002233,0.0037533,6.3415e-09,0.44,0.26,0
0.029387,0.0033552,0.0058439,0.00012355,0.0017902,-0.00022238,0,0,0.0052698,-0.0021667,0,-0.0005782,0,0,0,0.0058525,0.00011492,0.0017902,-2.2229,0.0025859,0.0051102,4.453e-09,0.46,0.26,0
0.029493,0.0033965,0.0055211,-0.00011929,0.0016205,-3.1958e-05,0,0,0.0050707,-0.0022618,0,-8.309e-05,0,0,0,0.0055213,-0.00011947,0.0016205,-0.32461,0.0023408,0.0050031,3.9077e-09,0.48,0.26,0
0.02959,0.0034367,0.0051439,-0.0002608,0.0014649,-9.8591e-05,0,0,0.0047827,-0.0022435,0,-0.00025634,0,0,0,0.0051457,-0.0002626,0.0014649,-1.0447,0.002116,0.0047845,3.2532e-09,0.5,0.26,0
0.029684,0.0034754,0.0050086,-7.1679e-05,0.0014811,-0.00014537,0,0,0.0045858,-0.0020186,0,-0.00037796,0,0,0,0.0050128,-7.5836e-05,0.0014811,-1.6377,0.0021393,0.0045161,2.9051e-09,0.52,0.26,0
0.029773,0.003513,0.0048896,0.00014503,0.0015104,-0.00015096,0,0,0.0043929,-0.0017749,0,-0.00039249,0,0,0,0.0048943,0.00014023,0.0015104,-1.8206,0.0021816,0.0042385,2.5775e-09,0.54,0.26,0
0.02986,0.003553,0.0048203,0.00031099,0.0015394,-9.6817e-05,0,0,0.0042652,-0.0015969,0,-0.00025172,0,0,0,0.0048224,0.00030891,0.0015394,-1.2294,0.0022236,0.0040413,2.3604e-09,0.56,0.26,0
0.029944,0.0035977,0.0047813,0.00037906,0.0015481,-1.9837e-05,0,0,0.0042032,-0.0015198,0,-5.1576e-05,0,0,0,0.0047814,0.00037897,0.0015481,-0.25817,0.0022362,0.0039498,2.2551e-09,0.58,0.26,0
0.030028,0.0036481,0.0047753,0.00036925,0.0015434,6.3447e-05,0,0,0.0042015,-0.0015264,0,0.00016496,0,0,0,0.0047762,0.00036833,0.0015434,0.82483,0.0022293,0.0039536,2.2542e-09,0.6,0.26,0
0.030112,0.0037042,0.0048011,0.00028128,0.0015247,0.00014485,0,0,0.0042593,-0.0016165,0,0.0003766,0,0,0,0.0048057,0.00027665,0.0015247,1.8337,0.0022024,0.0040519,2.3556e-09,0.62,0.26,0
0.030198,0.0037651,0.0048538,9.5e-05,0.0014846,0.00020586,0,0,0.0043799,-0.0018066,0,0.00053523,0,0,0,0.0048627,8.6112e-05,0.0014846,2.4723,0.0021445,0.0042534,2.5599e-09,0.64,0.26,0
0.030287,0.0038283,0.0049496,-0.00014342,0.0014418,0.00020575,0,0,0.0045601,-0.0020608,0,0.00053496,0,0,0,0.0049579,-0.00015172,0.0014418,2.3097,0.0020827,0.0045282,2.8545e-09,0.66,0.26,0
0.03038,0.0038902,0.0050595,-0.00035121,0.0014125,0.0001546,0,0,0.0047411,-0.0022928,0,0.00040197,0,0,0,0.0050639,-0.00035563,0.0014125,1.6354,0.0020402,0.004787,3.1532e-09,0.68,0.26,0
0.030477,0.0039498,0.0054133,-0.00023797,0.0015526,7.2347e-05,0,0,0.0050189,-0.0023277,0,0.0001881,0,0,0,0.0054142,-0.0002389,0.0015526,0.73333,0.0022427,0.005004,3.7656e-09,0.7,0.26,0
0.030581,0.0040075,0.0057605,-3.0514e-05,0.001719,0.0002268,0,0,0.005254,-0.0022744,0,0.00058967,0,0,0,0.0057694,-3.9382e-05,0.001719,2.2393,0.002483,0.0051594,4.3912e-09,0.72,0.26,0
0.030687,0.0040774,0.0045788,0.00038457,0.001489,0.0004467,0,0,0.0096031,-0.0032247,0,0.0046707,0,0,0,0.0046308,0.00033264,0.001489,9.0905,0.0021508,0.0038524,6.5094e-09,0.74,0.26,0
0.030922,0.0043069,0.0078446,-0.0011143,0.0020191,-0.00016443,0,0,0.039735,-0.018265,0,-0.0044391,0,0,0,0.007849,-0.0011188,0.0020191,-1.5732,0.0029164,0.0078846,2.3179e-08,0.76,0.26,0
0.032836,0.0056327,0.0052026,0.00060244,0.0017415,0.00016916,0,0,0.089989,-0.029616,0,0.0087962,0,0,0,0.0052089,0.00059623,0.0017415,2.1031,0.0025155,0.0041599,2.7742e-09,0.78,0.26,0
0.034522,0.0063318,0.0046653,0.00040652,0.0015215,-8.946e-05,0,0,0.081738,-0.028991,0,-0.0046519,0,0,0,0.0046672,0.00040464,0.0015215,-1.2028,0.0021978,0.0038283,2.0762e-09,0.8,0.26,0
0.036105,0.0068545,0.0044292,0.00030453,0.0014201,-0.00014686,0,0,0.078236,-0.029005,0,-0.0076368,0,0,0,0.0044344,0.00029931,0.0014201,-2.0366,0.0020513,0.0037041,1.8272e-09,0.82,0.26,0
0.037651,0.0072425,0.0043233,0.00021497,0.0013615,-0.00018092,0,0,0.077007,-0.029809,0,-0.0094077,0,0,0,0.0043312,0.00020701,0.0013615,-2.5166,0.0019666,0.0036852,1.7457e-09,0.84,0.26,0
0.039186,0.0075322,0.0042694,0.00012181,0.0013174,-0.000188,0,0,0.076754,-0.031085,0,-0.009776,0,0,0,0.0042779,0.0001133,0.0013174,-2.59,0.0019029,0.0037121,1.7255e-09,0.86,0.26,0
0.040721,0.007749,0.0042418,4.0004e-05,0.0012845,-0.0001763,0,0,0.076888,-0.032358,0,-0.0091675,0,0,0,0.0042492,3.262e-05,0.0012845,-2.3984,0.0018554,0.0037507,1.7272e-09,0.88,0.26,0
0.042261,0.0079121,0.0042237,-2.8022e-05,0.0012587,-0.00015328,0,0,0.077091,-0.033455,0,-0.0079705,0,0,0,0.0042293,-3.3541e-05,0.0012587,-2.062,0.0018181,0.0037859,1.7318e-09,0.9,0.26,0
0.043805,0.0080342,0.0042099,-8.2164e-05,0.0012383,-0.0001248,0,0,0.077261,-0.034333,0,-0.0064895,0,0,0,0.0042135,-8.579e-05,0.0012383,-1.6641,0.0017887,0.0038137,1.7345e-09,0.92,0.26,0
0.045352,0.0081232,0.004199,-0.0001231,0.0012228,-9.4075e-05,0,0,0.077381,-0.034992,0,-0.0048919,0,0,0,0.004201,-0.00012514,0.0012228,-1.2463,0.0017662,0.0038342,1.7352e-09,0.94,0.26,0
0.0469,0.008184,0.0041909,-0.00015163,0.0012118,-6.2698e-05,0,0,0.077456,-0.035449,0,-0.0032603,0,0,0,0.0041918,-0.00015254,0.0012118,-0.82703,0.0017503,0.003848,1.7348e-09,0.96,0.26,0
0.04845,0.0082194,0.0041859,-0.00016846,0.0012052,-3.13e-05,0,0,0.077497,-0.035716,0,-0.0016276,0,0,0,0.0041861,-0.00016869,0.0012052,-0.41183,0.0017409,0.003856,1.7342e-09,0.98,0.26,0
0.05,0.0082311,0.0041842,-0.00017402,0.001203,1.1206e-05,0,0,0.077509,-0.035804,0,0.0005827,0,0,0,0.0041842,-0.00017405,0.001203,0.14732,0.0017377,0.0038586,1.734e-09,1,0.26,0
0,0,0.0035391,0.0015168,0.0015168,0.0004612,0,0,0.052581,-4.3368e-19,0,0.023983,0,0,0,0.0036393,0.0014165,0.0015168,12.259,0.0021909,0.0021744,5.2423e-10,0,0.28,0
0.0010516,0.00047965,0.0035227,0.0013347,0.0014572,0.00046031,0,0,0.053702,-0.0031849,0,0.023936,0,0,0,0.0036156,0.0012418,0.0014572,11.41,0.0021049,0.0022737,5.8549e-10,0.02,0.28,0
0.0021481,0.00094361,0.0035835,0.0011947,0.0014335,0.00045221,0,0,0.055901,-0.0062081,0,0.023515,0,0,0,0.0036662,0.0011119,0.0014335,10.368,0.0020705,0.0024097,6.7569e-10,0.04,0.28,0
0.0032877,0.0013917,0.003643,0.0010625,0.0014116,0.00044365,0,0,0.058016,-0.0090785,0,0.02307,0,0,0,0.0037172,0.00098833,0.0014116,9.4875,0.002039,0.0025437,7.6702e-10,0.06,0.28,0
0.0044687,0.0018228,0.0037014,0.00093841,0.0013919,0.00043377,0,0,0.060046,-0.011792,0,0.022556,0,0,0,0.0037679,0.00087192,0.0013919,8.7157,0.0020106,0.0026741,8.583e-10,0.08,0.28,0
0.0056895,0.0022351,0.0037586,0.00082319,0.0013745,0.00042219,0,0,0.061986,-0.014335,0,0.021954,0,0,0,0.0038181,0.00076367,0.0013745,8.0241,0.0019854,0.0027995,9.4844e-10,0.1,0.28,0
0.0069481,0.0026262,0.0038147,0.00071767,0.0013597,0.00040899,0,0,0.063829,-0.016693,0,0.021268,0,0,0,0.0038678,0.00066457,0.0013597,7.3977,0.001964,0.0029184,1.0365e-09,0.12,0.28,0
0.0082426,0.0029937,0.0038696,0.00062276,0.0013477,0.00039456,0,0,0.065569,-0.018849,0,0.020517,0,0,0,0.0039168,0.0005755,0.0013477,6.8302,0.0019467,0.00303,1.1219e-09,0.14,0.28,0
0.0095709,0.0033355,0.0039235,0.0005393,0.0013388,0.00037948,0,0,0.067201,-0.020788,0,0.019733,0,0,0,0.0039655,0.00049727,0.0013388,6.3201,0.0019339,0.0031334,1.2042e-09,0.16,0.28,0
0.010931,0.0036492,0.0039768,0.00046808,0.0013335,0.00036444,0,0,0.068726,-0.0225,0,0.018951,0,0,0,0.0040142,0.00043063,0.0013335,5.8678,0.0019261,0.0032283,1.2832e-09,0.18,0.28,0
0.01232,0.0039328,0.0040298,0.00040983,0.0013319,0.00035009,0,0,0.070146,-0.023974,0,0.018204,0,0,0,0.0040634,0.00037628,0.0013319,5.4735,0.0019238,0.0033142,1.359e-09,0.2,0.28,0
0.013737,0.0041843,0.0040832,0.00036529,0.0013346,0.00033686,0,0,0.071465,-0.025201,0,0.017517,0,0,0,0.0041135,0.00033502,0.0013346,5.1356,0.0019277,0.0033911,1.4317e-09,0.22,0.28,0
0.015179,0.0044015,0.0041378,0.0003353,0.0013419,0.00032488,0,0,0.072693,-0.026173,0,0.016893,0,0,0,0.0041654,0.00030775,0.0013419,4.8483,0.0019384,0.0034585,1.5017e-09,0.24,0.28,0
0.016644,0.0045815,0.0041948,0.00032087,0.0013547,0.00031366,0,0,0.073843,-0.02688,0,0.01631,0,0,0,0.0042201,0.00029564,0.0013547,4.5991,0.0019568,0.0035166,1.5695e-09,0.26,0.28,0
0.018132,0.0047203,0.0042559,0.00032323,0.0013737,0.00030185,0,0,0.074937,-0.027313,0,0.015696,0,0,0,0.004279,0.0003002,0.0013737,4.3636,0.0019843,0.0035653,1.6359e-09,0.28,0.28,0
0.019642,0.0048121,0.0043241,0.000344,0.0014004,0.00028664,0,0,0.076016,-0.027467,0,0.014905,0,0,0,0.0043447,0.00032346,0.0014004,4.0981,0.0020229,0.0036054,1.7028e-09,0.3,0.28,0
0.021173,0.0048475,0.0044047,0.00038533,0.001437,0.00026294,0,0,0.077159,-0.027343,0,0.013673,0,0,0,0.0044218,0.00036821,0.001437,3.7271,0.0020757,0.0036389,1.7739e-09,0.32,0.28,0
0.022728,0.0048123,0.004507,0.00045073,0.0014873,0.00022134,0,0,0.078512,-0.026952,0,0.01151,0,0,0,0.0045191,0.00043869,0.0014873,3.1141,0.0021484,0.0036702,1.8577e-09,0.34,0.28,0
0.024313,0.0046829,0.0046468,0.00054723,0.0015582,0.00014572,0,0,0.080303,-0.026285,0,0.0075773,0,0,0,0.0046519,0.00054206,0.0015582,2.0331,0.0022507,0.0037078,1.9701e-09,0.36,0.28,0
0.02594,0.0044242,0.0048363,0.00069173,0.0016584,-1.0266e-05,0,0,0.082625,-0.025134,0,-0.00053383,0,0,0,0.0048363,0.0006917,0.0016584,-0.14192,0.0023955,0.0037558,2.1253e-09,0.38,0.28,0
0.027618,0.0039476,0.0048205,0.00084704,0.0017003,-0.00024685,0,0,0.081127,-0.022184,0,-0.012836,0,0,0,0.0048358,0.00083177,0.0017003,-3.5413,0.0024559,0.0036482,2.0252e-09,0.4,0.28,0
0.029185,0.0033275,0.0038692,-0.0012323,0.00079105,-8.7185e-05,0,0,0.041214,-0.0050103,0,-0.013564,0,0,0,0.0039229,-0.0012861,0.00079105,-3.1627,0.0011426,0.0046772,-1.5506e-10,0.42,0.28,0
0.029267,0.003288,0.0048262,-1.5685e-05,0.0014432,-0.00037202,0,0,0.004398,-0.0018965,0,-0.00096724,0,0,0,0.0048546,-4.4101e-05,0.0014432,-4.368,0.0020846,0.0043501,2.6223e-09,0.44,0.28,0
0.029361,0.0033117,0.0051303,-9.0641e-05,0.0015119,0.00014628,0,0,0.004704,-0.0020833,0,0.00038033,0,0,0,0.0051344,-9.4736e-05,0.0015119,1.6036,0.0021839,0.0046394,3.1324e-09,0.46,0.28,0
0.029455,0.0033505,0.0050569,-0.0002065,0.0014551,0.0001274,0,0,0.0046824,-0.0021601,0,0.00033125,0,0,0,0.00506,-0.00020958,0.0014551,1.3858,0.0021019,0.0046656,3.0661e-09,0.48,0.28,0
0.029548,0.0033933,0.0049839,-0.00015101,0.0014499,4.8205e-05,0,0,0.0045943,-0.0020811,0,0.00012533,0,0,0,0.0049844,-0.00015146,0.0014499,0.53782,0.0020943,0.0045516,2.8998e-09,0.5,0.28,0
0.029639,0.0034354,0.0048765,-3.8354e-05,0.0014514,-3.7781e-05,0,0,0.0044526,-0.0019367,0,-9.823e-05,0,0,0,0.0048768,-3.8644e-05,0.0014514,-0.4404,0.0020965,0.0043655,2.6551e-09,0.52,0.28,0
0.029727,0.0034774,0.0047992,0.00012357,0.0014768,-7.1474e-05,0,0,0.004319,-0.0017592,0,-0.00018583,0,0,0,0.0048002,0.00012248,0.0014768,-0.87559,0.0021332,0.004169,2.4405e-09,0.54,0.28,0
0.029812,0.0035207,0.0047382,0.00024923,0.0014962,-5.6132e-05,0,0,0.0042146,-0.0016211,0,-0.00014594,0,0,0,0.0047389,0.00024853,0.0014962,-0.7163,0.0021612,0.0040147,2.2733e-09,0.56,0.28,0
0.029895,0.003567,0.0047067,0.00031097,0.0015053,-6.4244e-06,0,0,0.0041619,-0.0015527,0,-1.6703e-05,0,0,0,0.0047068,0.00031096,0.0015053,-0.083737,0.0021743,0.0039369,2.189e-09,0.58,0.28,0
0.029978,0.0036172,0.0047057,0.00029822,0.0015012,5.6092e-05,0,0,0.0041659,-0.0015639,0,0.00014584,0,0,0,0.0047065,0.0002975,0.0015012,0.72902,0.0021684,0.0039472,2.1966e-09,0.6,0.28,0
0.030062,0.0036714,0.0047338,0.00021121,0.0014835,0.00011229,0,0,0.0042254,-0.001654,0,0.00029197,0,0,0,0.0047366,0.00020842,0.0014835,1.4215,0.0021428,0.0040443,2.2937e-09,0.62,0.28,0
0.030147,0.0037287,0.0047862,6.1079e-05,0.0014542,0.00013973,0,0,0.0043316,-0.001811,0,0.00036329,0,0,0,0.0047903,5.695e-05,0.0014542,1.6924,0.0021005,0.0042123,2.4632e-09,0.64,0.28,0
0.030235,0.0037874,0.0048443,-0.00012227,0.0014166,0.00012082,0,0,0.004456,-0.0020005,0,0.00031414,0,0,0,0.0048472,-0.00012521,0.0014166,1.3927,0.0020462,0.0044086,2.6551e-09,0.66,0.28,0
0.030325,0.0038459,0.0049121,-0.00025157,0.0013982,4.6411e-05,0,0,0.0045681,-0.0021447,0,0.00012067,0,0,0,0.0049125,-0.00025199,0.0013982,0.51492,0.0020196,0.0045687,2.8314e-09,0.68,0.28,0
0.030418,0.003903,0.0049277,-0.00031101,0.001385,-4.3618e-05,0,0,0.0046055,-0.0022048,0,-0.00011341,0,0,0,0.0049281,-0.00031138,0.001385,-0.47701,0.0020006,0.0046305,2.8887e-09,0.7,0.28,0
0.03051,0.0039619,0.0049682,-0.00020028,0.0014304,-0.00010348,0,0,0.0045991,-0.0021198,0,-0.00026904,0,0,0,0.0049702,-0.00020235,0.0014304,-1.1465,0.0020661,0.00458,2.9039e-09,0.72,0.28,0
0.030602,0.0040345,0.0046733,-0.00026628,0.0013221,0.00037329,0,0,0.0043566,-0.0020649,0,0.00097057,0,0,0,0.0047014,-0.00029433,0.0013221,4.2974,0.0019097,0.0044153,2.5068e-09,0.74,0.28,0
0.030684,0.0041738,0.0036711,-0.0016839,0.00059618,0.00015064,0,0,0.040935,-0.0056458,0,0.016435,0,0,0,0.0037424,-0.0017552,0.00059618,4.1851,0.00086114,0.0049271,-1.0448e-09,0.76,0.28,0
0.032239,0.0050068,0.0047025,0.00059135,0.0015882,0.00035713,0,0,0.080973,-0.025917,0,0.018571,0,0,0,0.0047333,0.00056056,0.0015882,4.928,0.002294,0.0037656,2.0694e-09,0.78,0.28,0
0.033923,0.005742,0.0047766,0.00051506,0.0015875,0.00013608,0,0,0.082917,-0.027884,0,0.0070763,0,0,0,0.004781,0.00051072,0.0015875,1.8271,0.0022931,0.0038466,2.1693e-09,0.8,0.28,0
0.035556,0.0062618,0.0046153,0.00039352,0.0015026,-4.4397e-05,0,0,0.080928,-0.028837,0,-0.0023086,0,0,0,0.0046157,0.00039305,0.0015026,-0.60245,0.0021705,0.0037917,2.0126e-09,0.82,0.28,0
0.03716,0.0066324,0.0045084,0.00023958,0.0014244,-0.00012837,0,0,0.080185,-0.030805,0,-0.0066755,0,0,0,0.0045123,0.00023572,0.0014244,-1.721,0.0020575,0.0038234,1.963e-09,0.84,0.28,0
0.038763,0.006893,0.0044587,0.00011712,0.0013728,-0.00015547,0,0,0.080235,-0.032647,0,-0.0080842,0,0,0,0.0044643,0.00011156,0.0013728,-2.0482,0.0019829,0.0038791,1.9643e-09,0.86,0.28,0
0.040369,0.007083,0.0044233,2.1451e-05,0.0013334,-0.00015035,0,0,0.080337,-0.034111,0,-0.0078184,0,0,0,0.0044284,1.6321e-05,0.0013334,-1.954,0.001926,0.003923,1.9637e-09,0.88,0.28,0
0.041977,0.0072241,0.0043926,-5.2957e-05,0.0013019,-0.00013126,0,0,0.080358,-0.035226,0,-0.0068256,0,0,0,0.0043965,-5.6829e-05,0.0013019,-1.6898,0.0018805,0.0039531,1.9555e-09,0.9,0.28,0
0.043584,0.0073292,0.0043662,-0.00010964,0.001277,-0.00010649,0,0,0.08032,-0.036052,0,-0.0055377,0,0,0,0.0043688,-0.00011217,0.001277,-1.3622,0.0018445,0.0039729,1.9436e-09,0.92,0.28,0
0.04519,0.0074056,0.0043449,-0.00015126,0.0012581,-7.9874e-05,0,0,0.080257,-0.036643,0,-0.0041534,0,0,0,0.0043463,-0.00015268,0.0012581,-1.0174,0.0018172,0.0039855,1.9315e-09,0.94,0.28,0
0.046794,0.0074579,0.0043293,-0.00017972,0.0012449,-5.2999e-05,0,0,0.080195,-0.037039,0,-0.0027559,0,0,0,0.0043299,-0.00018035,0.0012449,-0.67333,0.0017981,0.0039932,1.9216e-09,0.96,0.28,0
0.048397,0.0074883,0.0043198,-0.00019631,0.001237,-2.638e-05,0,0,0.080151,-0.037267,0,-0.0013718,0,0,0,0.0043199,-0.00019647,0.001237,-0.33468,0.0017868,0.0039973,1.9151e-09,0.98,0.28,0
0.05,0.0074983,0.0043166,-0.00020176,0.0012344,9.6414e-06,0,0,0.080135,-0.037341,0,0.00050135,0,0,0,0.0043166,-0.00020179,0.0012344,0.12226,0.0017831,0.0039986,1.913e-09,1,0.28,0
0,0,0.0035597,0.0015256,0.0015256,0.0003996,0,0,0.052887,4.3368e-19,0,0.020779,0,0,0,0.0036353,0.0014499,0.0015256,10.725,0.0022036,0.0021486,5.0732e-10,0,0.3,0
0.0010577,0.00041558,0.003543,0.0013419,0.0014655,0.0003987,0,0,0.054016,-0.0032124,0,0.020732,0,0,0,0.003613,0.0012719,0.0014655,9.9571,0.0021168,0.0022505,5.7086e-10,0.02,0.3,0
0.0021606,0.00081901,0.0036045,0.0012021,0.001442,0.00039191,0,0,0.056225,-0.0062361,0,0.020379,0,0,0,0.0036668,0.0011398,0.001442,9.035,0.0020829,0.0023903,6.6377e-10,0.04,0.3,0
0.0033067,0.0012099,0.0036648,0.0010712,0.0014208,0.00038433,0,0,0.058344,-0.00909,0,0.019985,0,0,0,0.0037206,0.0010154,0.0014208,8.254,0.0020523,0.002527,7.5734e-10,0.06,0.3,0
0.0044944,0.0015869,0.0037243,0.00094889,0.001402,0.00037531,0,0,0.060381,-0.01178,0,0.019516,0,0,0,0.0037742,0.00089903,0.001402,7.5669,0.0020251,0.0026596,8.5091e-10,0.08,0.3,0
0.005722,0.0019485,0.0037833,0.00083554,0.0013857,0.00036458,0,0,0.062339,-0.014303,0,0.018958,0,0,0,0.0038277,0.00079112,0.0013857,6.9468,0.0020015,0.0027873,9.4387e-10,0.1,0.3,0
0.006988,0.0022924,0.0038419,0.00073164,0.0013721,0.00035216,0,0,0.064216,-0.016651,0,0.018312,0,0,0,0.0038813,0.00069227,0.0013721,6.3797,0.0019819,0.0029093,1.0357e-09,0.12,0.3,0
0.0082907,0.0026168,0.0039004,0.00063785,0.0013615,0.00033837,0,0,0.066012,-0.018814,0,0.017595,0,0,0,0.0039351,0.00060313,0.0013615,5.8592,0.0019666,0.003025,1.1261e-09,0.14,0.3,0
0.0096284,0.0029194,0.003959,0.00055489,0.0013541,0.00032367,0,0,0.067725,-0.020781,0,0.016831,0,0,0,0.0039895,0.00052439,0.0013541,5.3835,0.001956,0.0031337,1.2148e-09,0.16,0.3,0
0.011,0.0031983,0.004018,0.00048351,0.0013505,0.00030861,0,0,0.069356,-0.02254,0,0.016048,0,0,0,0.0040447,0.00045676,0.0013505,4.9528,0.0019506,0.0032351,1.3019e-09,0.18,0.3,0
0.012403,0.0034516,0.0040779,0.00042454,0.0013507,0.00029372,0,0,0.070907,-0.024081,0,0.015273,0,0,0,0.0041014,0.00040108,0.0013507,4.5672,0.0019511,0.0033287,1.3873e-09,0.2,0.3,0
0.013836,0.0036776,0.0041394,0.00037897,0.0013555,0.00027932,0,0,0.072381,-0.02539,0,0.014524,0,0,0,0.00416,0.00035833,0.0013555,4.2249,0.0019579,0.0034141,1.4714e-09,0.22,0.3,0
0.015298,0.0038743,0.0042029,0.00034803,0.0013653,0.00026539,0,0,0.073778,-0.026448,0,0.013801,0,0,0,0.0042211,0.00032984,0.0013653,3.92,0.0019721,0.0034907,1.5539e-09,0.24,0.3,0
0.016787,0.0040391,0.0042692,0.00033339,0.0013808,0.0002513,0,0,0.075099,-0.027232,0,0.013068,0,0,0,0.0042852,0.00031741,0.0013808,3.6386,0.0019945,0.0035574,1.6346e-09,0.26,0.3,0
0.018302,0.0041686,0.004339,0.00033735,0.0014029,0.00023532,0,0,0.076339,-0.027705,0,0.012237,0,0,0,0.0043528,0.00032356,0.0014029,3.3539,0.0020264,0.0036126,1.7127e-09,0.28,0.3,0
0.019841,0.0042571,0.0044133,0.00036317,0.0014329,0.00021398,0,0,0.077489,-0.027814,0,0.011127,0,0,0,0.0044245,0.0003519,0.0014329,3.0159,0.0020698,0.0036541,1.7862e-09,0.3,0.3,0
0.021401,0.0042963,0.0044927,0.00041549,0.0014724,0.0001809,0,0,0.078526,-0.027481,0,0.009407,0,0,0,0.0045007,0.00040748,0.0014724,2.5356,0.0021269,0.0036782,1.852e-09,0.32,0.3,0
0.022982,0.0042725,0.0045763,0.00050099,0.0015232,0.00012558,0,0,0.079382,-0.026578,0,0.0065299,0,0,0,0.0045802,0.00049712,0.0015232,1.7632,0.0022002,0.003679,1.9026e-09,0.34,0.3,0
0.024577,0.0041661,0.0046556,0.00063096,0.001586,3.0525e-05,0,0,0.079811,-0.02483,0,0.0015873,0,0,0,0.0046559,0.00063073,0.001586,0.43453,0.0022909,0.0036427,1.9189e-09,0.36,0.3,0
0.026174,0.0039478,0.0046705,0.00081662,0.0016461,-0.00011432,0,0,0.078633,-0.021567,0,-0.0059444,0,0,0,0.0046739,0.00081324,0.0016461,-1.6975,0.0023777,0.0035189,1.8223e-09,0.38,0.3,0
0.027722,0.0036153,0.0046226,0.0011968,0.0017458,-0.00027769,0,0,0.074797,-0.014275,0,-0.01444,0,0,0,0.004645,0.0011744,0.0017458,-4.6042,0.0025217,0.0032231,1.539e-09,0.4,0.3,0
0.029166,0.0032486,0.0044189,-0.00027117,0.0012443,-0.00040184,0,0,0.038421,-0.0037526,0,-0.010343,0,0,0,0.0044568,-0.0003091,0.0012443,-5.4971,0.0017974,0.004289,1.4733e-09,0.42,0.3,0
0.029259,0.0032513,0.0046183,-0.00035734,0.0012783,-0.0001767,0,0,0.004342,-0.0021263,0,-0.00045942,0,0,0,0.0046246,-0.0003636,0.0012783,-2.0313,0.0018464,0.0044031,2.4186e-09,0.44,0.3,0
0.02934,0.0032718,0.0044386,-0.00023224,0.0012619,5.8141e-05,0,0,0.0041297,-0.0019424,0,0.00015117,0,0,0,0.0044393,-0.00023296,0.0012619,0.71305,0.0018227,0.0041328,2.0917e-09,0.46,0.3,0
0.029424,0.0033101,0.0046133,-0.00015029,0.0013389,0.00014558,0,0,0.0042567,-0.001936,0,0.00037851,0,0,0,0.0046178,-0.00015474,0.0013389,1.7488,0.001934,0.0042284,2.3129e-09,0.48,0.3,0
0.02951,0.0033535,0.004682,-8.5281e-05,0.001379,8.9025e-05,0,0,0.0042939,-0.0019036,0,0.00023146,0,0,0,0.0046837,-8.6943e-05,0.001379,1.0694,0.0019919,0.0042325,2.378e-09,0.5,0.3,0
0.029596,0.0033979,0.0046951,1.7773e-05,0.0014139,2.1153e-05,0,0,0.0042656,-0.0018149,0,5.4997e-05,0,0,0,0.0046952,1.7678e-05,0.0014139,0.25911,0.0020422,0.0041591,2.3401e-09,0.52,0.3,0
0.02968,0.0034426,0.0046762,0.00012618,0.0014407,-2.0408e-05,0,0,0.0042062,-0.0017089,0,-5.3062e-05,0,0,0,0.0046763,0.00012609,0.0014407,-0.25698,0.0020811,0.004056,2.2526e-09,0.54,0.3,0
0.029764,0.0034882,0.0046553,0.00021527,0.0014612,-2.326e-05,0,0,0.0041523,-0.0016197,0,-6.0477e-05,0,0,0,0.0046554,0.00021515,0.0014612,-0.30015,0.0021106,0.0039668,2.1719e-09,0.56,0.3,0
0.029847,0.0035356,0.0046437,0.00025727,0.0014703,2.7721e-06,0,0,0.0041255,-0.0015769,0,7.2075e-06,0,0,0,0.0046438,0.00025727,0.0014703,0.036209,0.0021238,0.0039232,2.1311e-09,0.58,0.3,0
0.029929,0.0035856,0.0046494,0.00024116,0.0014672,4.1731e-05,0,0,0.0041369,-0.0015938,0,0.0001085,0,0,0,0.0046498,0.00024076,0.0014672,0.54233,0.0021193,0.0039416,2.1493e-09,0.6,0.3,0
0.030012,0.0036381,0.0046717,0.0001672,0.0014517,7.5692e-05,0,0,0.0041861,-0.0016698,0,0.0001968,0,0,0,0.004673,0.00016593,0.0014517,0.96242,0.0020969,0.0040214,2.2253e-09,0.62,0.3,0
0.030097,0.0036926,0.0047007,4.7364e-05,0.0014244,8.9163e-05,0,0,0.0042591,-0.0017902,0,0.00023183,0,0,0,0.0047024,4.5656e-05,0.0014244,1.0973,0.0020575,0.0041431,2.3356e-09,0.64,0.3,0
0.030183,0.0037483,0.0047185,-8.8903e-05,0.0013889,7.3299e-05,0,0,0.0043285,-0.0019211,0,0.00019058,0,0,0,0.0047196,-9.0021e-05,0.0013889,0.87333,0.0020061,0.0042669,2.4344e-09,0.66,0.3,0
0.03027,0.0038044,0.0046805,-0.00021295,0.0013403,3.9913e-05,0,0,0.0043423,-0.0020192,0,0.00010377,0,0,0,0.0046808,-0.00021327,0.0013403,0.46729,0.0019359,0.0043315,2.4365e-09,0.68,0.3,0
0.030356,0.0038616,0.0045246,-0.00028962,0.0012705,2.0372e-05,0,0,0.0042304,-0.0020282,0,5.2968e-05,0,0,0,0.0045247,-0.0002897,0.0012705,0.24245,0.0018352,0.0042546,2.2375e-09,0.7,0.3,0
0.030439,0.0039227,0.0041803,-0.00034872,0.0011495,9.1315e-05,0,0,0.0039401,-0.0019477,0,0.00023742,0,0,0,0.0041822,-0.00035056,0.0011495,1.1546,0.0016604,0.0039996,1.7963e-09,0.72,0.3,0
0.030514,0.0039948,0.004479,-0.00034159,0.0012412,0.00023519,0,0,0.0042091,-0.0020577,0,0.00061149,0,0,0,0.0044904,-0.00035304,0.0012412,2.7866,0.0017929,0.0042754,2.2142e-09,0.74,0.3,0
0.030607,0.0040811,0.0041389,-0.00083018,0.00099262,0.00034987,0,0,0.037417,-0.0045136,0,0.011426,0,0,0,0.0041751,-0.00086638,0.00099262,5.2371,0.0014338,0.0045116,7.8005e-10,0.76,0.3,0
0.03201,0.004596,0.0044113,0.00086196,0.001582,0.0003629,0,0,0.073563,-0.018721,0,0.018871,0,0,0,0.0044481,0.00082523,0.001582,5.7784,0.0022851,0.00331,1.5394e-09,0.78,0.3,0
0.03355,0.0052164,0.0045993,0.00075698,0.0016069,0.00016938,0,0,0.077803,-0.022097,0,0.0088079,0,0,0,0.0046067,0.00074953,0.0016069,2.5193,0.0023211,0.003508,1.7787e-09,0.8,0.3,0
0.035123,0.005701,0.0045972,0.00046044,0.0015173,-8.958e-06,0,0,0.080077,-0.027478,0,-0.00046582,0,0,0,0.0045972,0.00046042,0.0015173,-0.12407,0.0021916,0.0037226,1.9472e-09,0.82,0.3,0
0.036753,0.0060103,0.0046272,0.00025523,0.0014647,-9.7381e-05,0,0,0.082224,-0.031447,0,-0.0050638,0,0,0,0.0046294,0.00025306,0.0014647,-1.2754,0.0021157,0.0039138,2.1134e-09,0.84,0.3,0
0.038412,0.0062264,0.004615,0.00011255,0.0014183,-0.0001167,0,0,0.083115,-0.033948,0,-0.0060681,0,0,0,0.004618,0.00010953,0.0014183,-1.4837,0.0020486,0.0040173,2.1775e-09,0.86,0.3,0
0.040077,0.0063845,0.0045772,5.8367e-06,0.0013749,-0.00011106,0,0,0.083259,-0.035596,0,-0.0057752,0,0,0,0.0045799,3.14e-06,0.0013749,-1.3909,0.001986,0.0040682,2.1791e-09,0.88,0.3,0
0.041742,0.0065031,0.0045351,-7.3464e-05,0.0013385,-9.5642e-05,0,0,0.083111,-0.036711,0,-0.0049734,0,0,0,0.004537,-7.5448e-05,0.0013385,-1.1884,0.0019334,0.004093,2.1573e-09,0.9,0.3,0
0.043402,0.0065922,0.0044969,-0.00013185,0.0013095,-7.675e-05,0,0,0.082872,-0.037475,0,-0.003991,0,0,0,0.0044981,-0.00013313,0.0013095,-0.94969,0.0018915,0.0041047,2.1297e-09,0.92,0.3,0
0.045057,0.0066575,0.0044659,-0.00017366,0.0012877,-5.7057e-05,0,0,0.082633,-0.037994,0,-0.002967,0,0,0,0.0044666,-0.00017436,0.0012877,-0.70449,0.00186,0.0041098,2.1041e-09,0.94,0.3,0
0.046707,0.0067024,0.0044433,-0.00020175,0.0012725,-3.7608e-05,0,0,0.082442,-0.03833,0,-0.0019556,0,0,0,0.0044436,-0.00020206,0.0012725,-0.46384,0.001838,0.0041117,2.0844e-09,0.96,0.3,0
0.048354,0.0067287,0.0044297,-0.00021795,0.0012635,-1.8642e-05,0,0,0.08232,-0.038518,0,-0.00096936,0,0,0,0.0044297,-0.00021802,0.0012635,-0.22981,0.0018251,0.0041123,2.072e-09,0.98,0.3,0
0.05,0.0067374,0.0044251,-0.00022324,0.0012606,8.3479e-06,0,0,0.082278,-0.038579,0,0.00043409,0,0,0,0.0044251,-0.00022325,0.0012606,0.1029,0.0018208,0.0041124,2.0679e-09,1,0.3,0
0,0,0.0035737,0.0015316,0.0015316,0.00033765,0,0,0.053095,6.5052e-19,0,0.017558,0,0,0,0.0036281,0.0014772,0.0015316,9.1492,0.0022123,0.0021242,4.9119e-10,0,0.32,0
0.0010619,0.00035116,0.0035569,0.0013475,0.0014713,0.00033669,0,0,0.054225,-0.0032184,0,0.017508,0,0,0,0.0036071,0.0012974,0.0014713,8.4753,0.0021252,0.0022278,5.5622e-10,0.02,0.32,0
0.002169,0.00069416,0.0036186,0.0012086,0.0014482,0.00033125,0,0,0.056432,-0.0062291,0,0.017225,0,0,0,0.0036633,0.0011639,0.0014482,7.6852,0.0020918,0.0023701,6.5076e-10,0.04,0.32,0
0.0033192,0.0010281,0.0036792,0.0010791,0.0014275,0.00032445,0,0,0.058545,-0.0090578,0,0.016871,0,0,0,0.0037191,0.0010393,0.0014275,7.0064,0.002062,0.0025084,7.4553e-10,0.06,0.32,0
0.0045108,0.0013516,0.0037393,0.00095874,0.0014094,0.00031587,0,0,0.060578,-0.011718,0,0.016425,0,0,0,0.0037748,0.00092331,0.0014094,6.4,0.0020358,0.0026421,8.4025e-10,0.08,0.32,0
0.0057423,0.0016629,0.0037993,0.00084734,0.001394,0.00030533,0,0,0.062538,-0.014213,0,0.015877,0,0,0,0.0038306,0.00081609,0.001394,5.8439,0.0020135,0.0027711,9.3467e-10,0.1,0.32,0
0.0070123,0.0019601,0.0038595,0.0007452,0.0013814,0.0002929,0,0,0.064431,-0.016542,0,0.015231,0,0,0,0.0038868,0.0007179,0.0013814,5.3264,0.0019954,0.0028948,1.0286e-09,0.12,0.32,0
0.0083195,0.0022412,0.0039203,0.00065278,0.0013719,0.00027883,0,0,0.066258,-0.018698,0,0.014499,0,0,0,0.0039439,0.00062916,0.0013719,4.8426,0.0019817,0.0030129,1.122e-09,0.14,0.32,0
0.0096626,0.0025042,0.003982,0.00057067,0.0013658,0.00026351,0,0,0.068021,-0.020674,0,0.013703,0,0,0,0.0040022,0.00055043,0.0013658,4.3912,0.0019728,0.0031249,1.2149e-09,0.16,0.32,0
0.01104,0.0027476,0.004045,0.00049958,0.0013634,0.00024741,0,0,0.069722,-0.022458,0,0.012866,0,0,0,0.0040622,0.0004824,0.0013634,3.9727,0.0019693,0.0032307,1.3074e-09,0.18,0.32,0
0.012452,0.0029696,0.0041097,0.00044044,0.0013651,0.00023097,0,0,0.071362,-0.02404,0,0.012011,0,0,0,0.0041242,0.00042596,0.0013651,3.5878,0.0019717,0.0033296,1.3996e-09,0.2,0.32,0
0.013895,0.0031688,0.0041767,0.0003944,0.0013713,0.00021451,0,0,0.072939,-0.0254,0,0.011155,0,0,0,0.0041888,0.00038227,0.0013713,3.2357,0.0019808,0.003421,1.4915e-09,0.22,0.32,0
0.015369,0.0033436,0.0042461,0.00036307,0.0013827,0.00019808,0,0,0.074447,-0.026512,0,0.0103,0,0,0,0.0042562,0.00035299,0.0013827,2.9126,0.0019973,0.0035037,1.5827e-09,0.24,0.32,0
0.016873,0.0034922,0.0043179,0.00034871,0.0014,0.00018119,0,0,0.075866,-0.027333,0,0.0094217,0,0,0,0.0043262,0.00034046,0.0014,2.6082,0.0020222,0.0035757,1.6716e-09,0.26,0.32,0
0.018404,0.0036121,0.0043915,0.00035466,0.0014238,0.00016249,0,0,0.077159,-0.027799,0,0.0084493,0,0,0,0.004398,0.00034813,0.0014238,2.3013,0.0020567,0.0036335,1.7552e-09,0.28,0.32,0
0.019959,0.0036995,0.0044649,0.00038583,0.0014552,0.00013915,0,0,0.078252,-0.027804,0,0.0072358,0,0,0,0.0044697,0.00038109,0.0014552,1.9515,0.002102,0.0036713,1.8272e-09,0.3,0.32,0
0.021534,0.0037483,0.0045339,0.00044945,0.001495,0.00010618,0,0,0.079011,-0.027184,0,0.0055215,0,0,0,0.0045366,0.00044669,0.001495,1.4882,0.0021594,0.0036796,1.8758e-09,0.32,0.32,0
0.02312,0.0037492,0.0045897,0.00055619,0.0015438,5.591e-05,0,0,0.079195,-0.025677,0,0.0029073,0,0,0,0.0045905,0.00055541,0.0015438,0.79399,0.0022299,0.0036429,1.8805e-09,0.34,0.32,0
0.024702,0.0036897,0.0046132,0.00072022,0.0016,-1.837e-05,0,0,0.078343,-0.022875,0,-0.00095526,0,0,0,0.0046133,0.00072013,0.0016,-0.27036,0.0023112,0.0035363,1.806e-09,0.36,0.32,0
0.026253,0.0035615,0.0045913,0.00097481,0.0016698,-0.00011165,0,0,0.075959,-0.018071,0,-0.0058057,0,0,0,0.0045948,0.00097136,0.0016698,-1.7666,0.002412,0.0033296,1.6181e-09,0.38,0.32,0
0.02774,0.0033766,0.0045311,0.0013346,0.0017597,-0.00018772,0,0,0.072057,-0.011054,0,-0.0097614,0,0,0,0.0045421,0.0013236,0.0017597,-3.3494,0.0025418,0.0030241,1.3214e-09,0.4,0.32,0
0.029136,0.0031774,0.0043271,-0.00013954,0.0012563,-0.00022063,0,0,0.037136,-0.0034563,0,-0.0061754,0,0,0,0.00434,-0.00015237,0.0012563,-3.2898,0.0018146,0.0040529,1.413e-09,0.42,0.32,0
0.029225,0.003203,0.0043803,-0.00086322,0.0010551,-0.00019128,0,0,0.0043227,-0.0024939,0,-0.00049732,0,0,0,0.0043873,-0.00087019,0.0010551,-2.0864,0.0015241,0.0046071,2.229e-09,0.44,0.32,0
0.029308,0.003234,0.0043625,-0.0002853,0.0012232,-3.7118e-05,0,0,0.0040812,-0.001961,0,-9.6507e-05,0,0,0,0.0043628,-0.0002856,0.0012232,-0.45753,0.0017668,0.0041074,2.0083e-09,0.46,0.32,0
0.029389,0.0032731,0.0043847,-0.00012126,0.001279,4.6115e-05,0,0,0.0040374,-0.0018204,0,0.0001199,0,0,0,0.0043852,-0.00012174,0.001279,0.58629,0.0018475,0.0039952,1.9697e-09,0.48,0.32,0
0.02947,0.0033172,0.0044776,-2.0135e-05,0.0013372,4.7276e-05,0,0,0.0040825,-0.0017646,0,0.00012292,0,0,0,0.0044781,-2.0632e-05,0.0013372,0.60215,0.0019316,0.0039967,2.0486e-09,0.5,0.32,0
0.029552,0.0033629,0.0045398,6.1311e-05,0.0013804,1.3773e-05,0,0,0.0041074,-0.0017147,0,3.581e-05,0,0,0,0.0045399,6.1269e-05,0.0013804,0.1762,0.0019938,0.0039863,2.093e-09,0.52,0.32,0
0.029634,0.003409,0.0045724,0.00013833,0.0014132,-1.0663e-05,0,0,0.0041069,-0.0016573,0,-2.7723e-05,0,0,0,0.0045724,0.0001383,0.0014132,-0.13778,0.0020413,0.0039539,2.0976e-09,0.54,0.32,0
0.029716,0.0034559,0.0045862,0.00019698,0.0014349,-1.4042e-05,0,0,0.0040966,-0.0016094,0,-3.651e-05,0,0,0,0.0045862,0.00019694,0.0014349,-0.1833,0.0020727,0.0039198,2.0849e-09,0.56,0.32,0
0.029798,0.0035039,0.0045953,0.00022185,0.0014452,1.309e-06,0,0,0.0040952,-0.0015903,0,3.4035e-06,0,0,0,0.0045953,0.00022185,0.0014452,0.01715,0.0020874,0.0039082,2.0836e-09,0.58,0.32,0
0.02988,0.0035535,0.0046077,0.00020257,0.0014431,2.5687e-05,0,0,0.004114,-0.0016127,0,6.6787e-05,0,0,0,0.0046079,0.00020242,0.0014431,0.33409,0.0020845,0.0039347,2.112e-09,0.6,0.32,0
0.029963,0.0036046,0.0046245,0.00013925,0.0014291,4.8165e-05,0,0,0.004154,-0.0016768,0,0.00012523,0,0,0,0.0046251,0.00013874,0.0014291,0.61517,0.0020643,0.0040004,2.1716e-09,0.62,0.32,0
0.030046,0.0036571,0.00464,4.2727e-05,0.0014048,6.0358e-05,0,0,0.0042057,-0.0017707,0,0.00015693,0,0,0,0.0046407,4.1934e-05,0.0014048,0.75208,0.0020292,0.0040913,2.2467e-09,0.64,0.32,0
0.030131,0.0037106,0.0046413,-7.0205e-05,0.0013713,6.3238e-05,0,0,0.004251,-0.001874,0,0.00016442,0,0,0,0.0046421,-7.1054e-05,0.0013713,0.76885,0.0019808,0.0041829,2.3076e-09,0.66,0.32,0
0.030216,0.0037651,0.0046135,-0.00018348,0.001329,7.6179e-05,0,0,0.0042698,-0.0019662,0,0.00019807,0,0,0,0.0046147,-0.00018469,0.001329,0.90959,0.0019197,0.0042498,2.3226e-09,0.68,0.32,0
0.030302,0.0038219,0.0045313,-0.00030831,0.0012669,0.00015434,0,0,0.0042437,-0.0020478,0,0.00040129,0,0,0,0.0045362,-0.00031323,0.0012669,1.8248,0.0018299,0.0042838,2.2643e-09,0.7,0.32,0
0.030386,0.003884,0.0043453,-0.00051339,0.0011496,0.0003544,0,0,0.0041544,-0.0021618,0,0.00092143,0,0,0,0.004371,-0.0005391,0.0011496,4.1499,0.0016605,0.0043208,2.112e-09,0.72,0.32,0
0.030468,0.0039522,0.003747,-0.0011116,0.00079059,0.00043517,0,0,0.0038433,-0.0024729,0,0.0011314,0,0,0,0.0037856,-0.0011503,0.00079059,5.078,0.001142,0.004307,1.4764e-09,0.74,0.32,0
0.03054,0.0039933,0.0035787,-0.00048543,0.000928,0.00033241,0,0,0.03477,-0.0034999,0,0.006703,0,0,0,0.0036058,-0.00051252,0.000928,4.7401,0.0013404,0.0037113,5.3034e-10,0.76,0.32,0
0.031859,0.004258,0.0040236,0.00095788,0.0014945,-0.00018542,0,0,0.065758,-0.013951,0,-0.009642,0,0,0,0.0040348,0.00094671,0.0014945,-3.4486,0.0021586,0.0028539,1.0472e-09,0.78,0.32,0
0.03317,0.0048581,0.0042939,0.00077311,0.0015201,-8.4784e-06,0,0,0.072119,-0.019422,0,-0.00044088,0,0,0,0.0042939,0.00077309,0.0015201,-0.13797,0.0021957,0.0032131,1.3983e-09,0.8,0.32,0
0.034743,0.0051627,0.00468,0.00046481,0.0015434,-7.509e-05,0,0,0.08155,-0.028044,0,-0.0039046,0,0,0,0.0046813,0.00046347,0.0015434,-1.0203,0.0022294,0.0037949,2.0594e-09,0.82,0.32,0
0.036432,0.0053745,0.004789,0.00026773,0.001517,-7.3073e-05,0,0,0.085071,-0.032482,0,-0.0037998,0,0,0,0.0047902,0.00026655,0.001517,-0.9257,0.0021913,0.004046,2.3384e-09,0.84,0.32,0
0.038146,0.0055351,0.0047581,0.00011,0.0014604,-6.5909e-05,0,0,0.085739,-0.035111,0,-0.0034272,0,0,0,0.004759,0.00010906,0.0014604,-0.81222,0.0021095,0.004143,2.3853e-09,0.86,0.32,0
0.039862,0.0056592,0.0047013,-4.2103e-06,0.0014091,-5.7225e-05,0,0,0.085597,-0.036747,0,-0.0029757,0,0,0,0.004702,-4.9062e-06,0.0014091,-0.69665,0.0020354,0.0041832,2.3626e-09,0.88,0.32,0
0.04157,0.0057557,0.0046442,-8.6749e-05,0.0013672,-4.7206e-05,0,0,0.0852,-0.037803,0,-0.0024547,0,0,0,0.0046446,-8.722e-05,0.0013672,-0.57164,0.0019749,0.0041981,2.3195e-09,0.9,0.32,0
0.04327,0.0058302,0.0045947,-0.00014597,0.0013346,-3.682e-05,0,0,0.084762,-0.038495,0,-0.0019146,0,0,0,0.004595,-0.00014626,0.0013346,-0.44498,0.0019278,0.0042013,2.2751e-09,0.92,0.32,0
0.044961,0.0058859,0.0045554,-0.00018755,0.0013104,-2.6771e-05,0,0,0.084372,-0.038946,0,-0.0013921,0,0,0,0.0045556,-0.0001877,0.0013104,-0.32339,0.0018927,0.0041997,2.237e-09,0.94,0.32,0
0.046644,0.0059247,0.0045272,-0.0002151,0.0012936,-1.7347e-05,0,0,0.084073,-0.039227,0,-0.00090207,0,0,0,0.0045273,-0.00021516,0.0012936,-0.20959,0.0018686,0.0041966,2.2085e-09,0.96,0.32,0
0.048323,0.0059476,0.0045103,-0.00023084,0.0012838,-8.5053e-06,0,0,0.083888,-0.039381,0,-0.00044228,0,0,0,0.0045103,-0.00023086,0.0012838,-0.10279,0.0018544,0.0041942,2.1911e-09,0.98,0.32,0
0.05,0.0059552,0.0045046,-0.00023596,0.0012806,7.305e-06,0,0,0.083825,-0.039431,0,0.00037986,0,0,0,0.0045046,-0.00023598,0.0012806,0.088289,0.0018498,0.0041933,2.1852e-09,1,0.32,0
0,0,0.0035804,0.0015344,0.0015344,0.00027581,0,0,0.053194,-6.5052e-19,0,0.014342,0,0,0,0.0036169,0.0014979,0.0015344,7.5446,0.0022164,0.002101,4.7581e-10,0,0.34,0
0.0010639,0.00028684,0.0035636,0.0013515,0.0014745,0.00027476,0,0,0.054316,-0.0031994,0,0.014288,0,0,0,0.0035972,0.0013178,0.0014745,6.9754,0.0021299,0.0022052,5.4141e-10,0.02,0.34,0
0.0021726,0.00056985,0.003625,0.0012141,0.0014517,0.00027069,0,0,0.056506,-0.0061793,0,0.014076,0,0,0,0.003655,0.0011841,0.0014517,6.3278,0.0020969,0.0023486,6.3633e-10,0.04,0.34,0
0.0033241,0.00084755,0.0036854,0.0010866,0.0014316,0.00026454,0,0,0.058599,-0.0089698,0,0.013756,0,0,0,0.0037121,0.00106,0.0014316,5.7536,0.0020679,0.0024872,7.3109e-10,0.06,0.34,0
0.0045166,0.0011182,0.0037454,0.00096841,0.0014141,0.0002561,0,0,0.060613,-0.011589,0,0.013317,0,0,0,0.0037688,0.00094499,0.0014141,5.2252,0.0020427,0.0026209,8.257e-10,0.08,0.34,0
0.0057486,0.0013799,0.0038056,0.00085923,0.0013994,0.00024533,0,0,0.062559,-0.014046,0,0.012757,0,0,0,0.0038259,0.00083894,0.0013994,4.7274,0.0020214,0.0027498,9.2017e-10,0.1,0.34,0
0.007019,0.0016308,0.0038664,0.00075911,0.0013876,0.00023232,0,0,0.064447,-0.016342,0,0.012081,0,0,0,0.0038836,0.00074184,0.0013876,4.2524,0.0020044,0.0028738,1.0146e-09,0.12,0.34,0
0.0083265,0.0018689,0.0039282,0.00066837,0.001379,0.00021732,0,0,0.066279,-0.018475,0,0.011301,0,0,0,0.0039426,0.00065395,0.001379,3.7974,0.0019918,0.0029927,1.1091e-09,0.14,0.34,0
0.0096701,0.0020924,0.0039914,0.0005875,0.0013737,0.00020068,0,0,0.068061,-0.02044,0,0.010436,0,0,0,0.0040032,0.00057571,0.0013737,3.3624,0.0019842,0.0031063,1.2038e-09,0.16,0.34,0
0.011049,0.0022999,0.0040565,0.00051719,0.0013721,0.00018281,0,0,0.069794,-0.022228,0,0.0095062,0,0,0,0.0040659,0.00050778,0.0013721,2.949,0.0019819,0.0032144,1.299e-09,0.18,0.34,0
0.012462,0.00249,0.0041239,0.00045837,0.0013747,0.00016415,0,0,0.07148,-0.023824,0,0.0085357,0,0,0,0.0041313,0.00045103,0.0013747,2.559,0.0019856,0.0033163,1.3948e-09,0.2,0.34,0
0.013908,0.0026616,0.0041939,0.0004123,0.0013819,0.00014509,0,0,0.073113,-0.025208,0,0.0075446,0,0,0,0.0041995,0.00040675,0.0013819,2.194,0.001996,0.0034113,1.4912e-09,0.22,0.34,0
0.015386,0.0028138,0.0042665,0.00038082,0.0013942,0.00012592,0,0,0.074681,-0.026348,0,0.0065477,0,0,0,0.0042706,0.00037674,0.0013942,1.8541,0.0020139,0.0034979,1.5873e-09,0.24,0.34,0
0.016895,0.0029458,0.0043413,0.00036659,0.0014124,0.0001067,0,0,0.076152,-0.02719,0,0.0055482,0,0,0,0.0043441,0.00036373,0.0014124,1.5366,0.0020401,0.0035734,1.681e-09,0.26,0.34,0
0.018433,0.0030566,0.0044164,0.0003736,0.001437,8.7108e-05,0,0,0.077465,-0.027648,0,0.0045296,0,0,0,0.0044183,0.00037172,0.001437,1.2338,0.0020757,0.003633,1.7676e-09,0.28,0.34,0
0.019994,0.003145,0.0044881,0.00040786,0.0014688,6.6225e-05,0,0,0.078502,-0.027584,0,0.0034437,0,0,0,0.0044892,0.00040679,0.0014688,0.92963,0.0021216,0.0036686,1.8376e-09,0.3,0.34,0
0.021573,0.0032089,0.0045492,0.00047841,0.0015083,4.2228e-05,0,0,0.079064,-0.026777,0,0.0021959,0,0,0,0.0045497,0.00047797,0.0015083,0.59427,0.0021786,0.0036668,1.8742e-09,0.32,0.34,0
0.023157,0.0032454,0.0045882,0.00059833,0.0015559,1.2681e-05,0,0,0.078838,-0.024898,0,0.00065939,0,0,0,0.0045882,0.00059829,0.0015559,0.1821,0.0022475,0.0036077,1.8509e-09,0.34,0.34,0
0.024726,0.0032511,0.0045928,0.00078573,0.0016136,-2.3805e-05,0,0,0.077461,-0.021524,0,-0.0012378,0,0,0,0.004593,0.00078558,0.0016136,-0.35824,0.0023307,0.0034683,1.7381e-09,0.36,0.34,0
0.026255,0.0032249,0.0045576,0.0010528,0.0016831,-6.255e-05,0,0,0.074737,-0.016389,0,-0.0032526,0,0,0,0.0045588,0.0010517,0.0016831,-1.0221,0.0024312,0.0032379,1.5223e-09,0.38,0.34,0
0.027716,0.0031731,0.0044898,0.0013812,0.0017613,-9.2448e-05,0,0,0.070942,-0.009883,0,-0.0048073,0,0,0,0.0044926,0.0013785,0.0017613,-1.7019,0.0025441,0.0029415,1.2328e-09,0.4,0.34,0
0.029093,0.0031104,0.0043326,-6.0776e-05,0.0012815,-0.00011199,0,0,0.03667,-0.0033238,0,-0.0029044,0,0,0,0.0043358,-6.3951e-05,0.0012815,-1.6527,0.0018511,0.0039746,1.4485e-09,0.42,0.34,0
0.029182,0.0031515,0.0043325,-0.00098288,0.0010049,-0.00011264,0,0,0.0043259,-0.0025841,0,-0.00029287,0,0,0,0.0043349,-0.00098527,0.0010049,-1.2134,0.0014515,0.0046558,2.1758e-09,0.44,0.34,0
0.029266,0.0031934,0.0043085,-0.00040795,0.0011702,-8.222e-05,0,0,0.0040798,-0.0020515,0,-0.00021377,0,0,0,0.0043099,-0.00040938,0.0011702,-0.99842,0.0016902,0.0041608,1.9834e-09,0.46,0.34,0
0.029346,0.0032373,0.0043302,-0.00011787,0.0012637,-4.5961e-05,0,0,0.0039864,-0.001796,0,-0.0001195,0,0,0,0.0043307,-0.00011835,0.0012637,-0.59195,0.0018253,0.003944,1.8963e-09,0.48,0.34,0
0.029425,0.0032829,0.0043926,6.6164e-06,0.0013197,-3.4484e-05,0,0,0.0039946,-0.0017071,0,-8.9658e-05,0,0,0,0.0043928,6.3452e-06,0.0013197,-0.45044,0.0019063,0.0038994,1.9214e-09,0.5,0.34,0
0.029505,0.0033294,0.0044655,8.1768e-05,0.0013642,-3.4364e-05,0,0,0.0040317,-0.0016672,0,-8.9347e-05,0,0,0,0.0044658,8.1498e-05,0.0013642,-0.4491,0.0019705,0.0039043,1.9816e-09,0.52,0.34,0
0.029586,0.0033763,0.0045192,0.00014085,0.001398,-3.3191e-05,0,0,0.0040575,-0.0016343,0,-8.6297e-05,0,0,0,0.0045194,0.00014059,0.001398,-0.43431,0.0020194,0.0039051,2.0236e-09,0.54,0.34,0
0.029668,0.0034238,0.0045521,0.00018345,0.0014207,-2.4738e-05,0,0,0.0040709,-0.0016084,0,-6.4317e-05,0,0,0,0.0045523,0.00018331,0.0014207,-0.32442,0.0020521,0.0039004,2.0455e-09,0.56,0.34,0
0.029749,0.003472,0.004573,0.00019819,0.0014314,-9.5947e-06,0,0,0.0040841,-0.0016031,0,-2.4946e-05,0,0,0,0.004573,0.00019817,0.0014314,-0.12566,0.0020675,0.003907,2.0659e-09,0.58,0.34,0
0.029831,0.0035211,0.0045896,0.00017668,0.0014299,9.2551e-06,0,0,0.0041077,-0.0016292,0,2.4063e-05,0,0,0,0.0045897,0.00017666,0.0014299,0.12016,0.0020654,0.0039389,2.1008e-09,0.6,0.34,0
0.029913,0.003571,0.0046047,0.00011887,0.0014171,2.8146e-05,0,0,0.0041439,-0.0016877,0,7.3179e-05,0,0,0,0.0046049,0.00011869,0.0014171,0.35948,0.0020469,0.0039984,2.1539e-09,0.62,0.34,0
0.029997,0.0036218,0.0046165,3.3326e-05,0.001395,4.4691e-05,0,0,0.004188,-0.0017701,0,0.0001162,0,0,0,0.0046169,3.2891e-05,0.001395,0.55863,0.0020149,0.0040774,2.2169e-09,0.64,0.34,0
0.030081,0.0036734,0.0046265,-6.748e-05,0.0013677,6.0046e-05,0,0,0.0042365,-0.0018658,0,0.00015612,0,0,0,0.0046273,-6.8248e-05,0.0013677,0.73277,0.0019756,0.0041674,2.2842e-09,0.66,0.34,0
0.030166,0.0037258,0.0046566,-0.00017911,0.0013433,8.4537e-05,0,0,0.0043074,-0.0019791,0,0.0002198,0,0,0,0.0046581,-0.00018058,0.0013433,1.0012,0.0019402,0.004285,2.386e-09,0.68,0.34,0
0.030253,0.0037797,0.0047819,-0.00032259,0.0013378,0.00014148,0,0,0.0044773,-0.0021585,0,0.00036784,0,0,0,0.0047858,-0.0003265,0.0013378,1.5864,0.0019324,0.0045163,2.6572e-09,0.7,0.34,0
0.030345,0.0038362,0.005156,-0.00055873,0.0013792,0.00026795,0,0,0.0049098,-0.0025193,0,0.00069666,0,0,0,0.0051685,-0.00057127,0.0013792,2.6786,0.0019921,0.0050551,3.4605e-09,0.72,0.34,0
0.03045,0.0038958,0.0057546,-0.00094494,0.0014429,0.00035622,0,0,0.0056052,-0.0031042,0,0.00092616,0,0,0,0.0057735,-0.00096382,0.0014429,3.035,0.0020842,0.0059134,5.0001e-09,0.74,0.34,0
0.03057,0.0039411,0.004386,0.00043244,0.0014455,0.00039707,0,0,0.0083458,-0.0025573,0,0.0040415,0,0,0,0.0044311,0.00038736,0.0014455,9.4533,0.002088,0.0036322,5.7813e-09,0.76,0.34,0
0.03076,0.0040379,0.0072,0.00039818,0.0022795,5.6115e-05,0,0,0.037472,-0.0066341,0,-0.010664,0,0,0,0.0072468,0.00035137,0.0022795,-2.8001,0.0032925,0.0061821,1.3495e-08,0.78,0.34,0
0.032627,0.0044395,0.0054874,0.00097706,0.0019393,-2.5905e-05,0,0,0.09225,-0.025019,0,-0.001347,0,0,0,0.0054875,0.00097692,0.0019393,-0.32906,0.0028013,0.0041147,2.9288e-09,0.8,0.34,0
0.03445,0.0045793,0.0051888,0.00056552,0.0017263,-2.9455e-05,0,0,0.090024,-0.03018,0,-0.0015317,0,0,0,0.005189,0.00056533,0.0017263,-0.36501,0.0024935,0.0041663,2.7648e-09,0.82,0.34,0
0.036228,0.004711,0.0049865,0.00028976,0.0015829,3.6102e-06,0,0,0.088494,-0.033621,0,0.00018773,0,0,0,0.0049865,0.00028976,0.0015829,0.044042,0.0022864,0.0042021,2.6297e-09,0.84,0.34,0
0.03799,0.0048219,0.0048694,0.00011398,0.001495,1.0523e-05,0,0,0.087735,-0.035907,0,0.00054721,0,0,0,0.0048695,0.00011396,0.001495,0.12679,0.0021595,0.0042373,2.5539e-09,0.86,0.34,0
0.039738,0.0049146,0.0047816,-6.2049e-06,0.0014326,1.2071e-05,0,0,0.087074,-0.03741,0,0.00062767,0,0,0,0.0047817,-6.2353e-06,0.0014326,0.14445,0.0020694,0.004255,2.4854e-09,0.88,0.34,0
0.041473,0.004991,0.0047104,-9.0366e-05,0.001386,1.1852e-05,0,0,0.086434,-0.038386,0,0.0006163,0,0,0,0.0047104,-9.0396e-05,0.001386,0.14145,0.002002,0.0042591,2.4205e-09,0.9,0.34,0
0.043195,0.0050524,0.0046527,-0.00014965,0.0013509,1.0752e-05,0,0,0.085847,-0.039015,0,0.0005591,0,0,0,0.0046528,-0.00014968,0.0013509,0.12828,0.0019513,0.0042554,2.3628e-09,0.92,0.34,0
0.044907,0.0050997,0.0046082,-0.00019074,0.0013252,8.8888e-06,0,0,0.085356,-0.039415,0,0.00046222,0,0,0,0.0046082,-0.00019076,0.0013252,0.10613,0.0019142,0.0042489,2.3158e-09,0.94,0.34,0
0.046609,0.0051333,0.0045765,-0.00021772,0.0013076,6.3524e-06,0,0,0.08499,-0.039659,0,0.00033033,0,0,0,0.0045765,-0.00021773,0.0013076,0.075918,0.0018888,0.0042425,2.2814e-09,0.96,0.34,0
0.048306,0.0051535,0.0045576,-0.00023305,0.0012974,3.311e-06,0,0,0.084765,-0.03979,0,0.00017217,0,0,0,0.0045576,-0.00023305,0.0012974,0.039599,0.001874,0.004238,2.2606e-09,0.98,0.34,0
0.05,0.0051602,0.0045513,-0.00023802,0.001294,6.4557e-06,0,0,0.08469,-0.039832,0,0.0003357,0,0,0,0.0045513,-0.00023803,0.001294,0.077231,0.0018691,0.0042364,2.2536e-09,1,0.34,0
0,0,0.0035793,0.001534,0.001534,0.0002146,0,0,0.053178,-2.1684e-19,0,0.011159,0,0,0,0.0036015,0.0015117,0.001534,5.9256,0.0022157,0.0020788,4.612e-10,0,0.36,0
0.0010635,0.00022318,0.0035627,0.0013536,0.0014749,0.00021345,0,0,0.054283,-0.0031532,0,0.011099,0,0,0,0.0035831,0.0013332,0.0014749,5.4687,0.0021304,0.0021825,5.2637e-10,0.02,0.36,0
0.0021713,0.00044699,0.0036232,0.0012186,0.0014526,0.00021075,0,0,0.056438,-0.0060821,0,0.010959,0,0,0,0.0036416,0.0012003,0.0014526,4.9713,0.0020982,0.0023254,6.2029e-10,0.04,0.36,0
0.0033211,0.00066933,0.0036827,0.0010938,0.0014329,0.00020518,0,0,0.058494,-0.0088188,0,0.010669,0,0,0,0.0036989,0.0010776,0.0014329,4.5033,0.0020698,0.0024629,7.1377e-10,0.06,0.36,0
0.0045111,0.00088808,0.0037419,0.00097821,0.0014161,0.00019673,0,0,0.060473,-0.011384,0,0.01023,0,0,0,0.0037559,0.00096428,0.0014161,4.0512,0.0020454,0.0025954,8.0695e-10,0.08,0.36,0
0.00574,0.0011011,0.0038015,0.00087159,0.0014019,0.00018547,0,0,0.062388,-0.013788,0,0.0096444,0,0,0,0.0038131,0.0008599,0.0014019,3.6078,0.002025,0.002723,9.0004e-10,0.1,0.36,0
0.0070066,0.0013064,0.0038618,0.00077385,0.0013907,0.00017156,0,0,0.064248,-0.016038,0,0.0089213,0,0,0,0.0038713,0.00076434,0.0013907,3.1704,0.0020088,0.0028459,9.9326e-10,0.12,0.36,0
0.0083099,0.0015022,0.0039233,0.00068517,0.0013825,0.00015526,0,0,0.066059,-0.018131,0,0.0080734,0,0,0,0.0039307,0.00067775,0.0013825,2.7388,0.001997,0.0029641,1.0869e-09,0.14,0.36,0
0.009649,0.0016866,0.0039865,0.00060599,0.0013778,0.00013688,0,0,0.067828,-0.020066,0,0.0071176,0,0,0,0.003992,0.00060045,0.0013778,2.3148,0.0019901,0.0030775,1.1812e-09,0.16,0.36,0
0.011023,0.0018585,0.0040519,0.00053692,0.0013766,0.00011682,0,0,0.069556,-0.021833,0,0.0060744,0,0,0,0.0040558,0.00053304,0.0013766,1.9014,0.0019885,0.0031858,1.2764e-09,0.18,0.36,0
0.012431,0.0020166,0.0041198,0.00047886,0.0013796,9.5532e-05,0,0,0.071245,-0.023419,0,0.0049677,0,0,0,0.0041223,0.00047636,0.0013796,1.502,0.0019927,0.0032887,1.3729e-09,0.2,0.36,0
0.013873,0.0021604,0.0041905,0.00043311,0.0013871,7.3547e-05,0,0,0.072889,-0.024804,0,0.0038245,0,0,0,0.004192,0.00043167,0.0013871,1.1209,0.0020036,0.0033853,1.4704e-09,0.22,0.36,0
0.015347,0.0022896,0.0042642,0.00040149,0.0013997,5.1472e-05,0,0,0.074476,-0.025953,0,0.0026766,0,0,0,0.0042648,0.00040081,0.0013997,0.76331,0.0020218,0.003474,1.5683e-09,0.24,0.36,0
0.016852,0.0024046,0.0043401,0.00038673,0.001418,3.0062e-05,0,0,0.075973,-0.026814,0,0.0015632,0,0,0,0.0043403,0.0003865,0.001418,0.43565,0.0020483,0.0035522,1.6644e-09,0.26,0.36,0
0.018386,0.0025062,0.0044165,0.0003929,0.0014428,1.0331e-05,0,0,0.077316,-0.027298,0,0.0005372,0,0,0,0.0044165,0.00039287,0.0014428,0.14711,0.0020841,0.0036149,1.7539e-09,0.28,0.36,0
0.019945,0.0025962,0.0044896,0.00042609,0.0014747,-6.2764e-06,0,0,0.078387,-0.027264,0,-0.00032637,0,0,0,0.0044896,0.00042608,0.0014747,-0.088498,0.0021301,0.0036538,1.8271e-09,0.3,0.36,0
0.021521,0.0026772,0.004552,0.00049547,0.0015142,-1.7648e-05,0,0,0.078981,-0.026488,0,-0.00091772,0,0,0,0.0045521,0.00049539,0.0015142,-0.24927,0.0021872,0.0036553,1.8669e-09,0.32,0.36,0
0.023104,0.0027533,0.0045921,0.00061429,0.0015619,-2.1279e-05,0,0,0.078784,-0.024638,0,-0.0011065,0,0,0,0.0045922,0.00061417,0.0015619,-0.3065,0.0022561,0.003599,1.8462e-09,0.34,0.36,0
0.024673,0.0028288,0.0045977,0.00080065,0.0016195,-1.5746e-05,0,0,0.077433,-0.021291,0,-0.00081879,0,0,0,0.0045978,0.00080058,0.0016195,-0.23759,0.0023393,0.0034612,1.7343e-09,0.36,0.36,0
0.026201,0.002906,0.0045637,0.0010663,0.001689,-5.1319e-06,0,0,0.074742,-0.01619,0,-0.00026686,0,0,0,0.0045637,0.0010663,0.001689,-0.084074,0.0024396,0.0032314,1.5183e-09,0.38,0.36,0
0.027662,0.0029813,0.0044973,0.0013918,0.0017668,1.3476e-06,0,0,0.070995,-0.0097478,0,7.0073e-05,0,0,0,0.0044973,0.0013918,0.0017668,0.024862,0.002552,0.002936,1.2287e-09,0.4,0.36,0
0.029041,0.0030445,0.0043438,-3.9683e-05,0.0012912,-5.5372e-06,0,0,0.036712,-0.0032956,0,0.00015501,0,0,0,0.0043438,-3.9718e-05,0.0012912,-0.015053,0.0018651,0.0039619,1.4608e-09,0.42,0.36,0
0.029131,0.0030996,0.0043453,-0.00096486,0.0010141,-4.3961e-05,0,0,0.0043305,-0.0025727,0,-0.0001143,0,0,0,0.0043456,-0.00096523,0.0010141,-0.4743,0.0014648,0.0046488,2.1877e-09,0.44,0.36,0
0.029214,0.0031519,0.0043232,-0.00040657,0.001175,-9.5756e-05,0,0,0.0040927,-0.002056,0,-0.00024897,0,0,0,0.0043251,-0.00040851,0.001175,-1.1593,0.0016972,0.0041736,2.0037e-09,0.46,0.36,0
0.029294,0.0032013,0.0043462,-0.00012575,0.0012661,-0.00012831,0,0,0.0040041,-0.0018094,0,-0.00033361,0,0,0,0.0043499,-0.00012942,0.0012661,-1.6421,0.0018288,0.0039699,1.9262e-09,0.48,0.36,0
0.029374,0.0032489,0.0044081,-5.4763e-06,0.0013208,-0.0001212,0,0,0.0040135,-0.0017242,0,-0.00031511,0,0,0,0.0044115,-8.8018e-06,0.0013208,-1.5717,0.0019078,0.003928,1.9531e-09,0.5,0.36,0
0.029455,0.0032962,0.0044798,6.753e-05,0.0013642,-9.5216e-05,0,0,0.0040503,-0.0016857,0,-0.00024756,0,0,0,0.0044819,6.5477e-05,0.0013642,-1.2357,0.0019705,0.0039314,2.0113e-09,0.52,0.36,0
0.029536,0.0033437,0.0045322,0.0001253,0.0013973,-6.6426e-05,0,0,0.0040755,-0.0016535,0,-0.00017271,0,0,0,0.0045332,0.0001243,0.0013973,-0.86335,0.0020183,0.0039302,2.051e-09,0.54,0.36,0
0.029618,0.0033916,0.0045644,0.00016704,0.0014194,-4.2686e-05,0,0,0.0040885,-0.0016281,0,-0.00011098,0,0,0,0.0045648,0.00016663,0.0014194,-0.55611,0.0020503,0.0039247,2.0718e-09,0.56,0.36,0
0.0297,0.0034398,0.0045848,0.000181,0.0014298,-2.3974e-05,0,0,0.0041016,-0.0016234,0,-6.2332e-05,0,0,0,0.004585,0.00018087,0.0014298,-0.3119,0.0020652,0.0039314,2.0919e-09,0.58,0.36,0
0.029782,0.0034883,0.0046014,0.00015867,0.001428,-7.424e-06,0,0,0.0041254,-0.0016501,0,-1.9303e-05,0,0,0,0.0046014,0.00015866,0.001428,-0.095744,0.0020627,0.0039636,2.1272e-09,0.6,0.36,0
0.029865,0.0035371,0.0046166,0.00010005,0.001415,1.0599e-05,0,0,0.0041621,-0.0017094,0,2.7556e-05,0,0,0,0.0046166,0.00010003,0.001415,0.13445,0.0020439,0.0040236,2.1807e-09,0.62,0.36,0
0.029948,0.0035863,0.0046284,1.3843e-05,0.0013927,3.2149e-05,0,0,0.0042065,-0.0017925,0,8.3588e-05,0,0,0,0.0046286,1.3619e-05,0.0013927,0.39915,0.0020116,0.0041031,2.244e-09,0.64,0.36,0
0.030033,0.0036359,0.0046376,-8.7053e-05,0.0013652,5.4975e-05,0,0,0.0042542,-0.0018879,0,0.00014294,0,0,0,0.0046383,-8.7692e-05,0.0013652,0.66656,0.0019719,0.0041928,2.3103e-09,0.66,0.36,0
0.030119,0.0036859,0.0046634,-0.00019812,0.0013396,6.6034e-05,0,0,0.0043209,-0.001999,0,0.00017169,0,0,0,0.0046643,-0.00019902,0.0013396,0.77806,0.0019349,0.0043054,2.4043e-09,0.68,0.36,0
0.030206,0.0037355,0.0047735,-0.00034004,0.00133,3.6837e-05,0,0,0.0044765,-0.0021711,0,9.5777e-05,0,0,0,0.0047737,-0.0003403,0.00133,0.41273,0.0019211,0.0045168,2.644e-09,0.7,0.36,0
0.030298,0.0037832,0.0050801,-0.00058732,0.0013478,-7.943e-05,0,0,0.0048519,-0.0025157,0,-0.00020652,0,0,0,0.0050812,-0.00058843,0.0013478,-0.80281,0.0019469,0.0049916,3.3005e-09,0.72,0.36,0
0.0304,0.003828,0.0054935,-0.0010069,0.001346,-0.0001429,0,0,0.0053918,-0.0030587,0,-0.00037155,0,0,0,0.0054967,-0.00101,0.001346,-1.2588,0.0019442,0.005706,4.3531e-09,0.74,0.36,0
0.030513,0.0038921,0.0040528,0.00022839,0.0012844,-0.00015775,0,0,0.0078345,-0.0027512,0,-0.0017527,0,0,0,0.0040607,0.00022045,0.0012844,-4.4004,0.0018552,0.0034343,4.6973e-09,0.76,0.36,0
0.030692,0.0039489,0.0068319,0.00029496,0.0021381,0.00019084,0,0,0.03733,-0.0056417,0,0.015349,0,0,0,0.0068963,0.00023059,0.0021381,5.2157,0.0030883,0.0059714,1.0951e-08,0.78,0.36,0
0.032575,0.0038573,0.0055352,0.00099596,0.0019594,0.00020132,0,0,0.092973,-0.025048,0,0.010469,0,0,0,0.0055442,0.00098705,0.0019594,2.5345,0.0028302,0.0041571,3.0203e-09,0.8,0.36,0
0.034411,0.0039555,0.005223,0.00057776,0.0017402,0.00017073,0,0,0.090551,-0.030224,0,0.0088777,0,0,0,0.0052292,0.0005715,0.0017402,2.102,0.0025137,0.0041972,2.8283e-09,0.82,0.36,0
0.036197,0.0040296,0.0050088,0.00029674,0.0015917,0.00012305,0,0,0.088845,-0.033668,0,0.0063984,0,0,0,0.005012,0.00029352,0.0015917,1.4948,0.0022991,0.0042218,2.6687e-09,0.84,0.36,0
0.037964,0.0040988,0.0048878,0.00012034,0.0015025,0.00010371,0,0,0.08802,-0.035935,0,0.0053929,0,0,0,0.0048901,0.00011809,0.0015025,1.2456,0.0021702,0.0042523,2.5842e-09,0.86,0.36,0
0.039718,0.0041628,0.0047977,4.94e-07,0.0014395,8.9546e-05,0,0,0.087315,-0.037413,0,0.0046564,0,0,0,0.0047994,-1.1769e-06,0.0014395,1.069,0.0020792,0.0042667,2.5103e-09,0.88,0.36,0
0.041457,0.0042203,0.0047249,-8.2974e-05,0.0013926,7.5956e-05,0,0,0.08664,-0.038364,0,0.0039497,0,0,0,0.0047261,-8.4173e-05,0.0013926,0.90488,0.0020115,0.004268,2.4413e-09,0.9,0.36,0
0.043183,0.0042696,0.0046661,-0.00014152,0.0013574,6.1768e-05,0,0,0.086027,-0.038971,0,0.0032119,0,0,0,0.0046669,-0.00014231,0.0013574,0.73597,0.0019606,0.004262,2.3805e-09,0.92,0.36,0
0.044898,0.0043093,0.0046207,-0.00018194,0.0013316,4.6913e-05,0,0,0.085515,-0.039353,0,0.0024395,0,0,0,0.0046211,-0.0001824,0.0013316,0.55961,0.0019234,0.0042537,2.3312e-09,0.94,0.36,0
0.046604,0.0043383,0.0045884,-0.00020842,0.001314,3.1548e-05,0,0,0.085135,-0.039583,0,0.0016405,0,0,0,0.0045886,-0.00020863,0.001314,0.3768,0.001898,0.0042459,2.2952e-09,0.96,0.36,0
0.048303,0.004356,0.0045692,-0.00022343,0.0013037,1.5854e-05,0,0,0.084902,-0.039706,0,0.0008244,0,0,0,0.0045693,-0.00022348,0.0013037,0.18953,0.0018832,0.0042407,2.2734e-09,0.98,0.36,0
0.05,0.0043619,0.0045628,-0.0002283,0.0013004,5.7116e-06,0,0,0.084824,-0.039745,0,0.000297,0,0,0,0.0045628,-0.0002283,0.0013004,0.068303,0.0018783,0.0042388,2.2661e-09,1,0.36,0
0,0,0.0035702,0.0015301,0.0015301,0.00015454,0,0,0.053043,0,0,0.0080359,0,0,0,0.0035818,0.0015184,0.0015301,4.3074,0.0022101,0.0020576,4.4736e-10,0,0.38,0
0.0010609,0.00016072,0.003554,0.0013539,0.0014724,0.00015329,0,0,0.054121,-0.0030792,0,0.0079712,0,0,0,0.0035646,0.0013433,0.0014724,3.9667,0.0021268,0.0021596,5.1111e-10,0.02,0.38,0
0.0021649,0.00032657,0.0036131,0.0012223,0.0014506,0.000152,0,0,0.056224,-0.0059361,0,0.007904,0,0,0,0.0036227,0.0012127,0.0014506,3.6233,0.0020953,0.0023003,6.0264e-10,0.04,0.38,0
0.0033098,0.0004948,0.0036711,0.0011007,0.0014315,0.000147,0,0,0.058229,-0.0086022,0,0.007644,0,0,0,0.0036795,0.0010923,0.0014315,3.2625,0.0020678,0.0024353,6.9355e-10,0.06,0.38,0
0.004494,0.00066285,0.0037288,0.00098827,0.0014151,0.00013849,0,0,0.060156,-0.011098,0,0.0072016,0,0,0,0.0037358,0.00098129,0.0014151,2.8856,0.0020441,0.0025652,7.8405e-10,0.08,0.38,0
0.005716,0.00082839,0.0037868,0.00088463,0.0014014,0.00012668,0,0,0.062019,-0.013437,0,0.0065872,0,0,0,0.0037923,0.00087911,0.0014014,2.4946,0.0020243,0.0026903,8.7439e-10,0.1,0.38,0
0.0069748,0.00098927,0.0038456,0.00078965,0.0013906,0.00011177,0,0,0.06383,-0.015624,0,0.0058122,0,0,0,0.0038496,0.00078557,0.0013906,2.0919,0.0020086,0.0028108,9.6486e-10,0.12,0.38,0
0.0082692,0.0011436,0.0039055,0.00070345,0.0013827,9.4042e-05,0,0,0.065594,-0.01766,0,0.0048902,0,0,0,0.0039083,0.00070069,0.0013827,1.6808,0.0019972,0.0029268,1.0558e-09,0.14,0.38,0
0.0095985,0.0012898,0.0039672,0.00062639,0.0013781,7.3798e-05,0,0,0.067317,-0.019544,0,0.0038375,0,0,0,0.0039688,0.00062476,0.0013781,1.2648,0.0019906,0.0030383,1.1474e-09,0.16,0.38,0
0.010962,0.0014266,0.004031,0.00055902,0.001377,5.1421e-05,0,0,0.069003,-0.021267,0,0.0026739,0,0,0,0.0040317,0.00055826,0.001377,0.84833,0.001989,0.0031451,1.2402e-09,0.18,0.38,0
0.012359,0.0015533,0.0040973,0.00050218,0.0013798,2.7388e-05,0,0,0.070654,-0.022819,0,0.0014241,0,0,0,0.0040975,0.00050197,0.0013798,0.43645,0.0019931,0.0032469,1.3343e-09,0.2,0.38,0
0.013788,0.0016695,0.0041665,0.00045704,0.0013871,2.3177e-06,0,0,0.072266,-0.024181,0,0.00012052,0,0,0,0.0041665,0.00045704,0.0013871,0.035798,0.0020036,0.003343,1.4298e-09,0.22,0.38,0
0.015249,0.0017757,0.0042389,0.00042527,0.0013993,-2.2917e-05,0,0,0.073831,-0.025324,0,-0.0011917,0,0,0,0.0042391,0.00042513,0.0013993,-0.34429,0.0020212,0.0034322,1.5264e-09,0.24,0.38,0
0.016741,0.0018732,0.0043143,0.0004093,0.0014171,-4.7005e-05,0,0,0.075328,-0.026203,0,-0.0024443,0,0,0,0.0043149,0.00040874,0.0014171,-0.68954,0.0020469,0.0035123,1.6225e-09,0.26,0.38,0
0.018263,0.0019647,0.0043919,0.00041266,0.0014414,-6.7861e-05,0,0,0.076714,-0.026746,0,-0.0035288,0,0,0,0.0043931,0.0004115,0.0014414,-0.97672,0.002082,0.0035795,1.7148e-09,0.28,0.38,0
0.01981,0.0020544,0.0044695,0.00044054,0.001473,-8.2085e-05,0,0,0.077909,-0.026844,0,-0.0042684,0,0,0,0.0044712,0.00043887,0.001473,-1.1667,0.0021277,0.0036275,1.7965e-09,0.3,0.38,0
0.021379,0.0021494,0.0045425,0.00050054,0.0015129,-8.4318e-05,0,0,0.07877,-0.026322,0,-0.0043846,0,0,0,0.0045443,0.00049878,0.0015129,-1.1945,0.0021853,0.0036458,1.8549e-09,0.32,0.38,0
0.022961,0.0022599,0.0046019,0.0006037,0.0015617,-6.6795e-05,0,0,0.079046,-0.024908,0,-0.0034733,0,0,0,0.004603,0.00060259,0.0015617,-0.95683,0.0022558,0.0036176,1.8675e-09,0.34,0.38,0
0.024541,0.0023994,0.0046286,0.00076462,0.0016179,-2.2977e-05,0,0,0.078275,-0.022187,0,-0.0011948,0,0,0,0.0046287,0.00076448,0.0016179,-0.34069,0.002337,0.003516,1.7968e-09,0.36,0.38,0
0.026092,0.0025773,0.00461,0.0010156,0.0016877,4.2015e-05,0,0,0.075981,-0.017475,0,0.0021848,0,0,0,0.0046105,0.0010151,0.0016877,0.66961,0.0024377,0.0033108,1.6076e-09,0.38,0.38,0
0.02758,0.0027832,0.0045542,0.0013675,0.0017765,9.3515e-05,0,0,0.07222,-0.010634,0,0.0048628,0,0,0,0.0045569,0.0013648,0.0017765,1.6794,0.0025661,0.0030075,1.3093e-09,0.4,0.38,0
0.02898,0.0029786,0.0043628,-7.1843e-05,0.0012873,9.7237e-05,0,0,0.037263,-0.0033655,0,0.0033154,0,0,0,0.004366,-7.4972e-05,0.0012873,1.589,0.0018594,0.0040123,1.4567e-09,0.42,0.38,0
0.02907,0.0030486,0.0044185,-0.00081249,0.0010818,2.7399e-05,0,0,0.0043377,-0.0024626,0,7.1238e-05,0,0,0,0.0044187,-0.00081263,0.0010818,0.30009,0.0015626,0.0045875,2.2616e-09,0.44,0.38,0
0.029154,0.0031112,0.0044066,-0.00028527,0.0012364,-0.00014329,0,0,0.0041212,-0.0019782,0,-0.00037256,0,0,0,0.004411,-0.00028964,0.0012364,-1.7477,0.0017859,0.0041534,2.0759e-09,0.46,0.38,0
0.029235,0.0031649,0.0044321,-0.00014505,0.0012861,-0.00021838,0,0,0.0040897,-0.0018605,0,-0.00056779,0,0,0,0.0044425,-0.00015545,0.0012861,-2.7254,0.0018577,0.0040732,2.0623e-09,0.48,0.38,0
0.029318,0.0032139,0.0045225,-5.5678e-05,0.00134,-0.00020012,0,0,0.0041372,-0.0018145,0,-0.00052031,0,0,0,0.0045312,-6.4409e-05,0.00134,-2.4981,0.0019356,0.004079,2.1438e-09,0.5,0.38,0
0.029401,0.0032619,0.0045807,1.8796e-05,0.0013798,-0.00014091,0,0,0.0041611,-0.0017694,0,-0.00036638,0,0,0,0.004585,1.4447e-05,0.0013798,-1.7676,0.0019931,0.0040637,2.1807e-09,0.52,0.38,0
0.029484,0.0033102,0.0046102,9.2052e-05,0.0014107,-8.7285e-05,0,0,0.0041594,-0.0017142,0,-0.00022694,0,0,0,0.0046119,9.0366e-05,0.0014107,-1.1063,0.0020376,0.0040271,2.1791e-09,0.54,0.38,0
0.029567,0.0033587,0.004622,0.00014804,0.001431,-5.2438e-05,0,0,0.0041483,-0.0016679,0,-0.00013634,0,0,0,0.0046226,0.00014743,0.001431,-0.67143,0.002067,0.0039913,2.1633e-09,0.56,0.38,0
0.02965,0.0034071,0.0046301,0.00017053,0.0014402,-3.459e-05,0,0,0.0041469,-0.0016506,0,-8.9934e-05,0,0,0,0.0046304,0.00017026,0.0014402,-0.44437,0.0020803,0.0039801,2.1617e-09,0.58,0.38,0
0.029733,0.0034551,0.0046425,0.00014879,0.0014374,-2.4102e-05,0,0,0.0041666,-0.0016752,0,-6.2665e-05,0,0,0,0.0046426,0.00014866,0.0014374,-0.3073,0.0020762,0.0040081,2.1911e-09,0.6,0.38,0
0.029817,0.0035026,0.0046598,8.2985e-05,0.0014228,-1.0031e-05,0,0,0.0042081,-0.0017418,0,-2.6081e-05,0,0,0,0.0046598,8.2963e-05,0.0014228,-0.12558,0.0020552,0.0040756,2.2524e-09,0.62,0.38,0
0.029901,0.0035501,0.0046759,-1.5598e-05,0.0013981,1.5952e-05,0,0,0.0042611,-0.0018378,0,4.1475e-05,0,0,0,0.0046759,-1.5653e-05,0.0013981,0.19481,0.0020194,0.0041686,2.3292e-09,0.64,0.38,0
0.029987,0.0035978,0.0046765,-0.00012916,0.0013642,5.2369e-05,0,0,0.004306,-0.0019414,0,0.00013616,0,0,0,0.0046771,-0.00012973,0.0013642,0.62427,0.0019705,0.004261,2.3898e-09,0.66,0.38,0
0.030073,0.0036458,0.0046443,-0.00023939,0.0013215,7.9031e-05,0,0,0.0043197,-0.0020291,0,0.00020548,0,0,0,0.0046456,-0.00024067,0.0013215,0.92688,0.0019088,0.0043223,2.3955e-09,0.68,0.38,0
0.03016,0.0036929,0.0045456,-0.00035696,0.0012566,3.9279e-05,0,0,0.0042757,-0.0020976,0,0.00010213,0,0,0,0.0045459,-0.00035728,0.0012566,0.45901,0.0018151,0.0043281,2.2972e-09,0.7,0.38,0
0.030245,0.0037356,0.0043321,-0.00054047,0.0011375,-0.00011777,0,0,0.004153,-0.0021814,0,-0.00030619,0,0,0,0.004335,-0.00054331,0.0011375,-1.3837,0.0016431,0.0042923,2.0631e-09,0.72,0.38,0
0.030326,0.0037735,0.0038119,-0.001071,0.00082226,-0.00018829,0,0,0.0038865,-0.0024612,0,-0.00048956,0,0,0,0.0038191,-0.0010782,0.00082226,-2.2051,0.0011877,0.0042765,1.5109e-09,0.74,0.38,0
0.0304,0.003834,0.0036178,-0.00055863,0.00091776,-0.00012946,0,0,0.03503,-0.0036558,0,-0.0030426,0,0,0,0.003622,-0.00056283,0.00091776,-1.9183,0.0013257,0.0037704,4.9671e-10,0.76,0.38,0
0.031727,0.0037885,0.0041012,0.0011092,0.0015631,0.0003423,0,0,0.06599,-0.011802,0,0.017799,0,0,0,0.0041399,0.0010705,0.0015631,6.4439,0.0022578,0.0028551,1.0763e-09,0.78,0.38,0
0.03304,0.0034376,0.0043377,0.00080855,0.0015439,0.00017485,0,0,0.07264,-0.019119,0,0.009092,0,0,0,0.0043464,0.00079991,0.0015439,2.8294,0.0022301,0.0032392,1.44e-09,0.8,0.38,0
0.034633,0.0033703,0.0047447,0.00048974,0.0015703,0.00022504,0,0,0.082534,-0.028095,0,0.011702,0,0,0,0.0047566,0.00047787,0.0015703,3.0191,0.0022683,0.0038505,2.1559e-09,0.82,0.38,0
0.036341,0.0033643,0.0048479,0.00028766,0.0015407,0.00020512,0,0,0.085988,-0.032578,0,0.010666,0,0,0,0.0048571,0.00027845,0.0015407,2.5702,0.0022254,0.0040961,2.4327e-09,0.84,0.38,0
0.038072,0.0033845,0.0048102,0.00012903,0.0014818,0.0001842,0,0,0.08654,-0.035171,0,0.0095782,0,0,0,0.0048175,0.0001218,0.0014818,2.2498,0.0021404,0.0041848,2.4676e-09,0.86,0.38,0
0.039803,0.0034181,0.0047481,1.6134e-05,0.0014293,0.00016195,0,0,0.08629,-0.036742,0,0.0084212,0,0,0,0.0047537,1.0598e-05,0.0014293,1.9578,0.0020645,0.0042167,2.4327e-09,0.88,0.38,0
0.041524,0.0034564,0.0046868,-6.4302e-05,0.0013868,0.0001374,0,0,0.085802,-0.037728,0,0.0071446,0,0,0,0.0046908,-6.8272e-05,0.0013868,1.6551,0.0020031,0.0042239,2.3791e-09,0.9,0.38,0
0.043235,0.0034935,0.0046342,-0.00012131,0.0013539,0.00011111,0,0,0.085289,-0.038354,0,0.0057779,0,0,0,0.0046368,-0.0001239,0.0013539,1.3378,0.0019556,0.0042205,2.3261e-09,0.92,0.38,0
0.044936,0.0035256,0.0045926,-0.00016093,0.0013295,8.3828e-05,0,0,0.084841,-0.038751,0,0.0043591,0,0,0,0.0045941,-0.00016241,0.0013295,1.01,0.0019204,0.0042135,2.2815e-09,0.94,0.38,0
0.046628,0.00355,0.0045628,-0.00018699,0.0013128,5.6047e-05,0,0,0.084502,-0.038993,0,0.0029145,0,0,0,0.0045635,-0.00018765,0.0013128,0.67596,0.0018962,0.0042067,2.2485e-09,0.96,0.38,0
0.048316,0.0035652,0.004545,-0.0002018,0.001303,2.8058e-05,0,0,0.084293,-0.039124,0,0.001459,0,0,0,0.0045452,-0.00020196,0.001303,0.33866,0.001882,0.0042019,2.2284e-09,0.98,0.38,0
0.05,0.0035704,0.0045391,-0.00020661,0.0012997,4.9687e-06,0,0,0.084222,-0.039165,0,0.00025837,0,0,0,0.0045391,-0.00020661,0.0012997,0.059988,0.0018774,0.0042002,2.2217e-09,1,0.38,0
0,0,0.0035533,0.0015228,0.0015228,9.6165e-05,0,0,0.052792,-4.3368e-19,0,0.0050006,0,0,0,0.0035578,0.0015183,0.0015228,2.7055,0.0021997,0.0020373,4.3427e-10,0,0.4,0
0.0010558,0.00010001,0.0035376,0.0013524,0.001467,9.485e-05,0,0,0.053835,-0.0029786,0,0.0049322,0,0,0,0.0035417,0.0013483,0.001467,2.4808,0.002119,0.0021365,4.9566e-10,0.02,0.4,0
0.0021534,0.00020955,0.0035947,0.001225,0.0014459,9.4972e-05,0,0,0.055867,-0.0057428,0,0.0049386,0,0,0,0.0035984,0.0012212,0.0014459,2.2915,0.0020885,0.0022732,5.835e-10,0.04,0.4,0
0.0032905,0.00032525,0.0036506,0.0011073,0.0014274,9.0599e-05,0,0,0.057804,-0.0083216,0,0.0047111,0,0,0,0.0036538,0.0011041,0.0014274,2.0376,0.0020618,0.0024045,6.7065e-10,0.06,0.4,0
0.0044656,0.00044415,0.0037062,0.00099857,0.0014114,8.2116e-05,0,0,0.059663,-0.010734,0,0.00427,0,0,0,0.0037086,0.00099608,0.0014114,1.7355,0.0020387,0.0025306,7.573e-10,0.08,0.4,0
0.0056771,0.00056365,0.0037618,0.00089835,0.0013981,6.9838e-05,0,0,0.061458,-0.012992,0,0.0036316,0,0,0,0.0037635,0.00089665,0.0013981,1.3963,0.0020194,0.002652,8.4366e-10,0.1,0.4,0
0.0069239,0.00068149,0.0038181,0.00080653,0.0013874,5.4048e-05,0,0,0.063198,-0.015102,0,0.0028105,0,0,0,0.0038191,0.00080556,0.0013874,1.0278,0.002004,0.0027688,9.2999e-10,0.12,0.4,0
0.008205,0.00079574,0.0038753,0.00072321,0.0013796,3.5027e-05,0,0,0.06489,-0.017065,0,0.0018214,0,0,0,0.0038757,0.00072282,0.0013796,0.63658,0.0019927,0.0028812,1.0166e-09,0.14,0.4,0
0.0095195,0.00090487,0.0039339,0.00064869,0.0013748,1.308e-05,0,0,0.066538,-0.018879,0,0.00068018,0,0,0,0.003934,0.00064863,0.0013748,0.22812,0.0019858,0.0029892,1.1037e-09,0.16,0.4,0
0.010866,0.0010078,0.0039944,0.00058347,0.0013733,-1.1432e-05,0,0,0.068146,-0.020537,0,-0.00059447,0,0,0,0.0039944,0.00058343,0.0013733,-0.19203,0.0019837,0.0030926,1.1916e-09,0.18,0.4,0
0.012245,0.0011038,0.004057,0.00052828,0.0013756,-3.805e-05,0,0,0.069717,-0.02203,0,-0.0019786,0,0,0,0.0040574,0.00052786,0.0013756,-0.61772,0.001987,0.0031913,1.2806e-09,0.2,0.4,0
0.013655,0.0011932,0.0041224,0.00048411,0.001382,-6.6133e-05,0,0,0.071252,-0.023344,0,-0.0034389,0,0,0,0.0041236,0.00048291,0.001382,-1.041,0.0019962,0.0032848,1.371e-09,0.22,0.4,0
0.015095,0.0012767,0.004191,0.00045235,0.001393,-9.4725e-05,0,0,0.072748,-0.024457,0,-0.0049257,0,0,0,0.0041934,0.00044996,0.001393,-1.4505,0.0020121,0.0033723,1.4627e-09,0.24,0.4,0
0.016565,0.0013565,0.0042633,0.0004349,0.0014095,-0.00012231,0,0,0.0742,-0.025339,0,-0.00636,0,0,0,0.0042672,0.000431,0.0014095,-1.828,0.0020359,0.0034526,1.5554e-09,0.26,0.4,0
0.018063,0.0014363,0.0043399,0.00043438,0.0014323,-0.0001464,0,0,0.075598,-0.025945,0,-0.0076127,0,0,0,0.0043454,0.0004289,0.0014323,-2.1437,0.0020689,0.0035236,1.6478e-09,0.28,0.4,0
0.019589,0.0015224,0.0044214,0.00045449,0.0014628,-0.00016287,0,0,0.076924,-0.026215,0,-0.0084693,0,0,0,0.004428,0.00044781,0.0014628,-2.3472,0.0021129,0.0035822,1.7376e-09,0.3,0.4,0
0.02114,0.0016243,0.0045081,0.0005004,0.0015025,-0.00016486,0,0,0.078144,-0.026056,0,-0.008573,0,0,0,0.0045148,0.00049363,0.0015025,-2.3517,0.0021703,0.0036237,1.8202e-09,0.32,0.4,0
0.022715,0.0017569,0.0045986,0.00057944,0.0015534,-0.0001416,0,0,0.079174,-0.025323,0,-0.0073634,0,0,0,0.0046035,0.00057446,0.0015534,-2.0153,0.0022438,0.0036397,1.8857e-09,0.34,0.4,0
0.024307,0.0019413,0.0046832,0.00070341,0.001616,-7.5937e-05,0,0,0.079749,-0.023727,0,-0.0039488,0,0,0,0.0046847,0.00070196,0.001616,-1.0927,0.0023342,0.0036135,1.9106e-09,0.36,0.4,0
0.025905,0.002207,0.0047036,0.00088464,0.0016765,4.115e-05,0,0,0.078705,-0.020588,0,0.0021398,0,0,0,0.004704,0.0008842,0.0016765,0.61728,0.0024216,0.0034918,1.8128e-09,0.38,0.4,0
0.027456,0.0025559,0.0046637,0.0012559,0.0017759,0.00017755,0,0,0.075084,-0.01352,0,0.0092328,0,0,0,0.0046729,0.0012467,0.0017759,2.9745,0.0025652,0.0031947,1.5209e-09,0.4,0.4,0
0.028908,0.0029099,0.0044872,-0.00013974,0.0013042,0.00026571,0,0,0.038636,-0.0035755,0,0.0072576,0,0,0,0.0045047,-0.00015727,0.0013042,3.7711,0.0018839,0.0042059,1.5751e-09,0.42,0.4,0
0.029001,0.0030011,0.0046777,-0.00029444,0.001315,9.9982e-07,0,0,0.0043715,-0.0020922,0,2.5995e-06,0,0,0,0.0046777,-0.00029444,0.001315,0.011521,0.0018994,0.0043943,2.4698e-09,0.44,0.4,0
0.029083,0.0030728,0.0045125,-0.00023879,0.0012821,-0.00023789,0,0,0.0041995,-0.0019772,0,-0.00061851,0,0,0,0.0045244,-0.00025068,0.0012821,-2.8592,0.0018519,0.0042227,2.2201e-09,0.46,0.4,0
0.029169,0.0031269,0.0046872,-0.00018712,0.00135,-0.00031373,0,0,0.0043384,-0.0019983,0,-0.00081569,0,0,0,0.0047073,-0.00020723,0.00135,-3.6676,0.0019501,0.0043502,2.4746e-09,0.48,0.4,0
0.029257,0.0031764,0.0047481,-0.00014449,0.0013811,-0.00023732,0,0,0.0043771,-0.0019833,0,-0.00061703,0,0,0,0.0047596,-0.00015597,0.0013811,-2.7705,0.0019949,0.0043554,2.5308e-09,0.5,0.4,0
0.029344,0.0032254,0.0047573,-5.2161e-05,0.0014115,-0.00014484,0,0,0.0043494,-0.0019028,0,-0.00037657,0,0,0,0.0047616,-5.6519e-05,0.0014115,-1.7234,0.0020389,0.0042774,2.4816e-09,0.52,0.4,0
0.02943,0.0032751,0.0047351,4.991e-05,0.0014355,-7.508e-05,0,0,0.0042895,-0.0018013,0,-0.00019521,0,0,0,0.0047363,4.8707e-05,0.0014355,-0.91785,0.0020735,0.0041709,2.3851e-09,0.54,0.4,0
0.029516,0.0033249,0.0047122,0.0001346,0.001454,-4.195e-05,0,0,0.0042356,-0.0017153,0,-0.00010907,0,0,0,0.0047125,0.00013421,0.001454,-0.52502,0.0021003,0.0040817,2.3013e-09,0.56,0.4,0
0.0296,0.0033738,0.0046997,0.00017236,0.0014616,-3.5764e-05,0,0,0.0042095,-0.001676,0,-9.2985e-05,0,0,0,0.0047,0.00017208,0.0014616,-0.45257,0.0021112,0.0040405,2.261e-09,0.58,0.4,0
0.029684,0.0034213,0.0047056,0.00015211,0.0014573,-4.0677e-05,0,0,0.0042228,-0.0016968,0,-0.00010576,0,0,0,0.004706,0.00015175,0.0014573,-0.51177,0.002105,0.0040619,2.2815e-09,0.6,0.4,0
0.029769,0.0034674,0.0047291,7.4051e-05,0.0014409,-3.8775e-05,0,0,0.0042746,-0.001777,0,-0.00010082,0,0,0,0.0047294,7.3729e-05,0.0014409,-0.47722,0.0020814,0.0041448,2.3606e-09,0.62,0.4,0
0.029855,0.0035128,0.0047597,-4.9661e-05,0.001413,-1.443e-05,0,0,0.0043507,-0.0019015,0,-3.7518e-05,0,0,0,0.0047598,-4.9704e-05,0.001413,-0.17191,0.002041,0.0042703,2.4751e-09,0.64,0.4,0
0.029943,0.0035583,0.0047796,-0.00018759,0.0013776,4.1567e-05,0,0,0.0044226,-0.0020347,0,0.00010807,0,0,0,0.0047799,-0.00018794,0.0013776,0.47942,0.0019899,0.0043992,2.5795e-09,0.66,0.4,0
0.030032,0.0036048,0.0047431,-0.00030827,0.0013304,0.00011672,0,0,0.0044364,-0.0021303,0,0.00030347,0,0,0,0.0047458,-0.00031097,0.0013304,1.323,0.0019218,0.0044682,2.5851e-09,0.68,0.4,0
0.03012,0.0036516,0.0045947,-0.00036929,0.0012676,0.00018048,0,0,0.0043252,-0.002128,0,0.00046924,0,0,0,0.0046012,-0.00037584,0.0012676,2.0795,0.001831,0.0043923,2.3881e-09,0.7,0.4,0
0.030205,0.003696,0.004269,-0.00040527,0.0011591,0.00014767,0,0,0.0040429,-0.0020337,0,0.00038395,0,0,0,0.0042737,-0.00040993,0.0011591,1.8077,0.0016743,0.0041291,1.9352e-09,0.72,0.4,0
0.030282,0.0037296,0.0045569,-0.00038472,0.0012516,1.2195e-05,0,0,0.0042968,-0.0021273,0,3.1708e-05,0,0,0,0.0045569,-0.00038476,0.0012516,0.1414,0.0018079,0.0043602,2.3249e-09,0.74,0.4,0
0.030377,0.0037459,0.0042357,-0.0007538,0.0010446,-0.00016925,0,0,0.037955,-0.0044531,0,-0.0072904,0,0,0,0.0042491,-0.00076717,0.0010446,-2.947,0.0015088,0.0044962,9.1277e-10,0.76,0.4,0
0.0318,0.0034769,0.0045036,0.00095741,0.0016383,-0.00020743,0,0,0.074498,-0.017703,0,-0.010786,0,0,0,0.0045157,0.00094531,0.0016383,-3.3362,0.0023664,0.0032793,1.542e-09,0.78,0.4,0
0.033357,0.0030926,0.0046823,0.00082302,0.0016516,-9.4646e-06,0,0,0.078798,-0.021543,0,-0.00049216,0,0,0,0.0046823,0.000823,0.0016516,-0.14051,0.0023856,0.0035189,1.8266e-09,0.8,0.4,0
0.034952,0.0028316,0.0046815,0.00049831,0.0015539,0.00016064,0,0,0.081317,-0.027447,0,0.0083533,0,0,0,0.0046877,0.00049215,0.0015539,2.1959,0.0022446,0.0037782,2.0502e-09,0.82,0.4,0
0.036609,0.0027265,0.0047135,0.00028771,0.0015004,0.00023602,0,0,0.083542,-0.031529,0,0.012273,0,0,0,0.0047261,0.00027516,0.0015004,3.0439,0.0021672,0.0039823,2.2385e-09,0.84,0.4,0
0.038294,0.002692,0.0046958,0.0001448,0.0014522,0.00024128,0,0,0.084334,-0.033992,0,0.012547,0,0,0,0.0047085,0.00013204,0.0014522,3.0264,0.0020976,0.0040799,2.2966e-09,0.86,0.4,0
0.039983,0.0026931,0.0046516,4.0577e-05,0.0014076,0.00022113,0,0,0.084342,-0.035544,0,0.011499,0,0,0,0.0046621,2.9996e-05,0.0014076,2.7394,0.0020333,0.0041199,2.2844e-09,0.88,0.4,0
0.041667,0.0027112,0.0046038,-3.5195e-05,0.0013706,0.00019008,0,0,0.084064,-0.03655,0,0.0098843,0,0,0,0.0046116,-4.2971e-05,0.0013706,2.3424,0.0019797,0.0041332,2.2484e-09,0.9,0.4,0
0.043345,0.0027354,0.0045611,-8.9966e-05,0.0013413,0.00015426,0,0,0.083714,-0.037214,0,0.0080216,0,0,0,0.0045662,-9.5076e-05,0.0013413,1.8975,0.0019375,0.0041347,2.2086e-09,0.92,0.4,0
0.045016,0.0027592,0.0045267,-0.0001286,0.0013194,0.0001164,0,0,0.08339,-0.037649,0,0.0060529,0,0,0,0.0045296,-0.0001315,0.0013194,1.4314,0.0019059,0.0041314,2.1735e-09,0.94,0.4,0
0.046681,0.0027786,0.0045019,-0.00015427,0.0013043,7.777e-05,0,0,0.083137,-0.037922,0,0.004044,0,0,0,0.0045032,-0.00015557,0.0013043,0.95664,0.001884,0.0041272,2.1471e-09,0.96,0.4,0
0.048342,0.002791,0.0044869,-0.00016896,0.0012954,3.8906e-05,0,0,0.082979,-0.038073,0,0.0020231,0,0,0,0.0044872,-0.00016929,0.0012954,0.47874,0.0018711,0.0041241,2.1308e-09,0.98,0.4,0
0.05,0.0027953,0.0044819,-0.00017374,0.0012924,4.1296e-06,0,0,0.082925,-0.038121,0,0.00021474,0,0,0,0.0044819,-0.00017375,0.0012924,0.050822,0.0018669,0.0041229,2.1253e-09,1,0.4,0
0,0,0.0035289,0.0015124,0.0015124,3.9976e-05,0,0,0.05243,2.1684e-19,0,0.0020788,0,0,0,0.0035297,0.0015116,0.0015124,1.1353,0.0021846,0.0020177,4.219e-10,0,0.42,0
0.0010486,4.1575e-05,0.0035139,0.0013491,0.0014589,3.8631e-05,0,0,0.053429,-0.0028538,0,0.0020088,0,0,0,0.0035146,0.0013484,0.0014589,1.022,0.0021073,0.002113,4.801e-10,0.02,0.42,0
0.0021372,9.6856e-05,0.0035684,0.0012268,0.0014386,4.0179e-05,0,0,0.055377,-0.0055066,0,0.0020893,0,0,0,0.0035691,0.0012261,0.0014386,0.98271,0.0020779,0.0022443,5.6311e-10,0.04,0.42,0
0.0032637,0.00016193,0.0036218,0.0011136,0.0014206,3.6538e-05,0,0,0.057231,-0.0079827,0,0.0019,0,0,0,0.0036223,0.0011131,0.0014206,0.83442,0.002052,0.0023705,6.4549e-10,0.06,0.42,0
0.0044264,0.00023349,0.0036746,0.001009,0.0014051,2.8259e-05,0,0,0.059008,-0.010299,0,0.0014695,0,0,0,0.0036749,0.0010087,0.0014051,0.60731,0.0020296,0.0024918,7.2729e-10,0.08,0.42,0
0.005624,0.0003087,0.0037272,0.00091256,0.0013919,1.5762e-05,0,0,0.060718,-0.012464,0,0.00081961,0,0,0,0.0037273,0.00091247,0.0013919,0.32083,0.0020106,0.0026084,8.0863e-10,0.1,0.42,0
0.0068551,0.00038518,0.0037801,0.00082426,0.0013813,-6.0929e-07,0,0,0.062369,-0.014483,0,-3.1683e-05,0,0,0,0.0037801,0.00082426,0.0013813,-0.01181,0.0019952,0.0027204,8.8965e-10,0.12,0.42,0
0.0081187,0.00046099,0.0038335,0.00074416,0.0013733,-2.0551e-05,0,0,0.063965,-0.016358,0,-0.0010686,0,0,0,0.0038337,0.00074403,0.0013733,-0.38112,0.0019837,0.002828,9.7052e-10,0.14,0.42,0
0.0094137,0.00053464,0.0038878,0.00067256,0.0013681,-4.3766e-05,0,0,0.065512,-0.018084,0,-0.0022758,0,0,0,0.0038884,0.00067197,0.0013681,-0.77972,0.0019761,0.002931,1.0514e-09,0.16,0.42,0
0.010739,0.00060513,0.0039432,0.00060989,0.0013659,-6.9923e-05,0,0,0.06701,-0.019657,0,-0.003636,0,0,0,0.0039447,0.00060843,0.0013659,-1.2012,0.001973,0.0030294,1.1325e-09,0.18,0.42,0
0.012094,0.00067205,0.0040003,0.00055678,0.0013671,-9.8611e-05,0,0,0.068462,-0.021069,0,-0.0051278,0,0,0,0.0040031,0.00055396,0.0013671,-1.639,0.0019747,0.003123,1.2141e-09,0.2,0.42,0
0.013478,0.00073572,0.0040594,0.00051403,0.001372,-0.00012925,0,0,0.069871,-0.022308,0,-0.0067213,0,0,0,0.0040641,0.00050932,0.001372,-2.0852,0.0019818,0.0032115,1.2964e-09,0.22,0.42,0
0.014889,0.00079741,0.0041212,0.00048269,0.0013812,-0.000161,0,0,0.071241,-0.02336,0,-0.0083719,0,0,0,0.0041283,0.00047558,0.0013812,-2.5287,0.001995,0.0032946,1.3796e-09,0.24,0.42,0
0.016327,0.00085968,0.0041867,0.00046408,0.0013952,-0.00019249,0,0,0.072577,-0.02421,0,-0.01001,0,0,0,0.0041966,0.00045415,0.0013952,-2.9522,0.0020153,0.0033719,1.4641e-09,0.26,0.42,0
0.017792,0.00092685,0.0042574,0.00045989,0.0014152,-0.00022158,0,0,0.073897,-0.024837,0,-0.011522,0,0,0,0.0042702,0.00044701,0.0014152,-3.3282,0.0020441,0.0034428,1.5505e-09,0.28,0.42,0
0.019283,0.0010058,0.004336,0.00047227,0.0014425,-0.00024476,0,0,0.075232,-0.025226,0,-0.012728,0,0,0,0.0043514,0.00045683,0.0014425,-3.6104,0.0020836,0.0035072,1.6399e-09,0.3,0.42,0
0.020801,0.0011072,0.0044276,0.00050408,0.0014795,-0.00025635,0,0,0.07665,-0.025361,0,-0.01333,0,0,0,0.0044443,0.0004874,0.0014795,-3.7224,0.0021371,0.0035659,1.7353e-09,0.32,0.42,0
0.022349,0.001247,0.0045411,0.00055965,0.0015302,-0.00024651,0,0,0.078284,-0.025235,0,-0.012819,0,0,0,0.0045563,0.00054444,0.0015302,-3.5294,0.0022103,0.0036211,1.843e-09,0.34,0.42,0
0.023933,0.0014503,0.0046914,0.00064709,0.0016015,-0.00019892,0,0,0.080337,-0.024816,0,-0.010344,0,0,0,0.0047012,0.00063733,0.0016015,-2.8091,0.0023134,0.0036778,1.9752e-09,0.36,0.42,0
0.025563,0.0017538,0.0048873,0.00078312,0.0017011,-6.9243e-05,0,0,0.082841,-0.023868,0,-0.0036007,0,0,0,0.0048885,0.00078195,0.0017011,-0.96629,0.0024572,0.0037328,2.1352e-09,0.38,0.42,0
0.027246,0.0022424,0.0048843,0.00093836,0.0017468,0.00013916,0,0,0.081575,-0.021019,0,0.0072363,0,0,0,0.0048892,0.00093346,0.0017468,2.0173,0.0025232,0.0036183,2.0247e-09,0.4,0.42,0
0.028826,0.0028355,0.0039928,-0.00099685,0.00089878,-5.7524e-05,0,0,0.041532,-0.0046939,0,0.010204,0,0,0,0.0040406,-0.0010447,0.00089878,1.4059,0.0012982,0.0045736,2.1535e-10,0.42,0.42,0
0.028908,0.002965,0.0048981,2.7246e-05,0.0014776,0.00019104,0,0,0.0044466,-0.0018855,0,0.00049669,0,0,0,0.0049056,1.9765e-05,0.0014776,2.2426,0.0021343,0.0043444,2.6683e-09,0.44,0.42,0
0.029004,0.0030321,0.0052236,-8.6747e-05,0.0015411,-0.00032568,0,0,0.0047873,-0.0021161,0,-0.00084677,0,0,0,0.0052435,-0.00010665,0.0015411,-3.4964,0.002226,0.0047459,3.3426e-09,0.46,0.42,0
0.029099,0.003085,0.0051306,-0.00026364,0.0014601,-0.00029193,0,0,0.0047716,-0.0022408,0,-0.00075903,0,0,0,0.0051463,-0.0002794,0.0014601,-3.0888,0.002109,0.0047986,3.264e-09,0.48,0.42,0
0.029194,0.0031346,0.0050608,-0.00023333,0.0014482,-0.00019495,0,0,0.0046963,-0.002186,0,-0.00050687,0,0,0,0.0050679,-0.0002405,0.0014482,-2.1061,0.0020919,0.0046975,3.0978e-09,0.5,0.42,0
0.029287,0.0031858,0.004952,-0.00013625,0.0014447,-8.3429e-05,0,0,0.0045595,-0.0020553,0,-0.00021692,0,0,0,0.0049534,-0.00013762,0.0014447,-0.9391,0.0020868,0.0045129,2.8388e-09,0.52,0.42,0
0.029377,0.0032381,0.0048747,1.8708e-05,0.001468,-2.2517e-05,0,0,0.0044287,-0.0018841,0,-5.8545e-05,0,0,0,0.0048749,1.8603e-05,0.001468,-0.26567,0.0021205,0.004318,2.6191e-09,0.54,0.42,0
0.029464,0.0032901,0.0048131,0.00013763,0.0014852,-8.6038e-06,0,0,0.0043263,-0.0017519,0,-2.237e-05,0,0,0,0.0048131,0.00013762,0.0014852,-0.10543,0.0021453,0.0041684,2.4515e-09,0.56,0.42,0
0.02955,0.00334,0.0047817,0.00019272,0.0014923,-2.681e-05,0,0,0.0042762,-0.0016895,0,-6.9705e-05,0,0,0,0.0047819,0.00019256,0.0014923,-0.33471,0.0021556,0.0040971,2.3709e-09,0.58,0.42,0
0.029635,0.0033872,0.0047814,0.00017413,0.0014866,-5.5656e-05,0,0,0.0042831,-0.0017063,0,-0.0001447,0,0,0,0.0047821,0.00017346,0.0014866,-0.692,0.0021474,0.0041124,2.3825e-09,0.6,0.42,0
0.029721,0.0034315,0.0048108,8.195e-05,0.0014678,-7.6734e-05,0,0,0.0043459,-0.0018017,0,-0.00019951,0,0,0,0.0048121,8.0705e-05,0.0014678,-0.92939,0.0021202,0.0042127,2.4833e-09,0.62,0.42,0
0.029809,0.003474,0.0048656,-7.372e-05,0.0014376,-6.7295e-05,0,0,0.0044564,-0.0019647,0,-0.00017497,0,0,0,0.0048665,-7.4637e-05,0.0014376,-0.78043,0.0020765,0.0043852,2.6588e-09,0.64,0.42,0
0.029899,0.0035164,0.0049262,-0.00026239,0.0013991,-8.9692e-06,0,0,0.0045851,-0.00216,0,-2.332e-05,0,0,0,0.0049262,-0.0002624,0.0013991,-0.099044,0.002021,0.0045892,2.8602e-09,0.66,0.42,0
0.029992,0.0035606,0.0049998,-0.00038819,0.0013835,0.00010797,0,0,0.0047012,-0.0023032,0,0.00028071,0,0,0,0.005002,-0.00039035,0.0013835,1.1475,0.0019984,0.0047601,3.0588e-09,0.68,0.42,0
0.030087,0.0036077,0.0050229,-0.00043398,0.0013767,0.00023594,0,0,0.0047401,-0.0023539,0,0.00061344,0,0,0,0.0050331,-0.00044416,0.0013767,2.4711,0.0019885,0.0048314,3.1421e-09,0.7,0.42,0
0.030182,0.0036542,0.0050978,-0.00028023,0.0014453,0.00032922,0,0,0.0047482,-0.0022431,0,0.00085598,0,0,0,0.0051178,-0.00030031,0.0014453,3.4901,0.0020876,0.0047901,3.2227e-09,0.72,0.42,0
0.030277,0.0036884,0.0047854,-0.00031996,0.0013396,-0.00014597,0,0,0.0044795,-0.0021575,0,-0.00037953,0,0,0,0.0047896,-0.00032413,0.0013396,-1.6364,0.001935,0.0045178,2.6623e-09,0.74,0.42,0
0.030361,0.0036559,0.0038502,-0.0014754,0.00071242,3.9198e-05,0,0,0.041791,-0.0054175,0,-0.012091,0,0,0,0.0039087,-0.001534,0.00071242,-2.0095,0.0010291,0.0048846,-6.4358e-10,0.76,0.42,0
0.031949,0.0030803,0.0048276,0.00067457,0.0016507,-0.00019711,0,0,0.082601,-0.025378,0,-0.01025,0,0,0,0.0048369,0.00066524,0.0016507,-2.7112,0.0023843,0.0037767,2.1446e-09,0.78,0.42,0
0.033665,0.0025759,0.0048971,0.00058059,0.0016433,2.0955e-05,0,0,0.084599,-0.027631,0,0.0010896,0,0,0,0.0048972,0.00058049,0.0016433,0.27814,0.0023737,0.0038956,2.2916e-09,0.8,0.42,0
0.035333,0.0022725,0.0047327,0.00044557,0.0015535,0.00019848,0,0,0.08266,-0.028806,0,0.010321,0,0,0,0.0047419,0.0004364,0.0015535,2.645,0.0022439,0.0038698,2.1615e-09,0.82,0.42,0
0.036972,0.0021031,0.0046203,0.0002851,0.0014716,0.00027334,0,0,0.081865,-0.030849,0,0.014214,0,0,0,0.0046374,0.00026794,0.0014716,3.5937,0.0021257,0.0039092,2.1161e-09,0.84,0.42,0
0.038608,0.0020249,0.0045642,0.00016355,0.0014183,0.00028735,0,0,0.081793,-0.032624,0,0.014942,0,0,0,0.0045829,0.00014486,0.0014183,3.7202,0.0020487,0.0039581,2.1087e-09,0.86,0.42,0
0.040243,0.0019964,0.0045217,7.1723e-05,0.001378,0.00026697,0,0,0.081736,-0.033964,0,0.013883,0,0,0,0.0045377,5.5764e-05,0.001378,3.421,0.0019905,0.0039887,2.0928e-09,0.88,0.42,0
0.041877,0.0019944,0.0044847,2.2644e-06,0.0013461,0.00023105,0,0,0.081605,-0.03494,0,0.012015,0,0,0,0.0044966,-9.6139e-06,0.0013461,2.943,0.0019444,0.0040044,2.0687e-09,0.9,0.42,0
0.043507,0.002005,0.0044532,-4.9481e-05,0.0013211,0.0001881,0,0,0.081435,-0.035636,0,0.0097813,0,0,0,0.0044611,-5.7326e-05,0.0013211,2.388,0.0019083,0.004011,2.0429e-09,0.92,0.42,0
0.045134,0.0020196,0.0044281,-8.6824e-05,0.0013024,0.00014215,0,0,0.081268,-0.036119,0,0.0073919,0,0,0,0.0044325,-9.1295e-05,0.0013024,1.8016,0.0018812,0.0040128,2.0198e-09,0.94,0.42,0
0.046758,0.0020331,0.0044098,-0.00011204,0.0012893,9.5039e-05,0,0,0.081132,-0.036436,0,0.004942,0,0,0,0.0044118,-0.00011404,0.0012893,1.2035,0.0018624,0.0040126,2.002e-09,0.96,0.42,0
0.04838,0.0020423,0.0043987,-0.00012662,0.0012816,4.7559e-05,0,0,0.081045,-0.036615,0,0.0024731,0,0,0,0.0043992,-0.00012711,0.0012816,0.60206,0.0018513,0.004012,1.9909e-09,0.98,0.42,0
0.05,0.0020456,0.004395,-0.00013138,0.0012791,3.1209e-06,0,0,0.081015,-0.036672,0,0.00016229,0,0,0,0.004395,-0.00013139,0.0012791,0.039505,0.0018476,0.0040117,1.9871e-09,1,0.42,0
0,0,0.0034977,0.001499,0.001499,-1.3596e-05,0,0,0.051966,2.1684e-19,0,-0.000707,0,0,0,0.0034978,0.0014989,0.001499,-0.38973,0.0021653,0.0019988,4.1017e-10,0,0.44,0
0.0010393,-1.414e-05,0.0034835,0.0013441,0.0014483,-1.4919e-05,0,0,0.052915,-0.0027086,0,-0.0007758,0,0,0,0.0034836,0.001344,0.0014483,-0.39953,0.0020919,0.0020894,4.6454e-10,0.02,0.44,0
0.0021166,-1.0713e-05,0.0035351,0.0012274,0.0014287,-1.1938e-05,0,0,0.054764,-0.0052341,0,-0.00062075,0,0,0,0.0035351,0.0012274,0.0014287,-0.29639,0.0020638,0.0022139,5.4182e-10,0.04,0.44,0
0.0032299,5.9391e-06,0.0035854,0.0011193,0.0014114,-1.4697e-05,0,0,0.056524,-0.0075948,0,-0.00076424,0,0,0,0.0035855,0.0011192,0.0014114,-0.34144,0.0020387,0.002334,6.1861e-10,0.06,0.44,0
0.0043776,3.2207e-05,0.003635,0.0010192,0.0013963,-2.2511e-05,0,0,0.058207,-0.0098029,0,-0.0011706,0,0,0,0.0036352,0.001019,0.0013963,-0.49303,0.0020168,0.0024494,6.9479e-10,0.08,0.44,0
0.0055582,6.5098e-05,0.003684,0.00092694,0.0013833,-3.4862e-05,0,0,0.059819,-0.011865,0,-0.0018128,0,0,0,0.0036845,0.0009265,0.0013833,-0.72432,0.0019981,0.0025603,7.7031e-10,0.1,0.44,0
0.0067703,0.00010216,0.0037328,0.00084243,0.0013726,-5.1348e-05,0,0,0.061366,-0.013784,0,-0.0026701,0,0,0,0.0037337,0.00084152,0.0013726,-1.0175,0.0019826,0.0026666,8.4515e-10,0.12,0.44,0
0.0080128,0.00014144,0.0037815,0.00076583,0.0013642,-7.1641e-05,0,0,0.06285,-0.015558,0,-0.0037253,0,0,0,0.0037832,0.00076413,0.0013642,-1.3601,0.0019705,0.0027682,9.1931e-10,0.14,0.44,0
0.0092843,0.00018151,0.0038303,0.00069742,0.0013583,-9.5442e-05,0,0,0.064272,-0.017184,0,-0.004963,0,0,0,0.0038332,0.00069452,0.0013583,-1.7433,0.001962,0.0028651,9.9278e-10,0.16,0.44,0
0.010584,0.00022148,0.0038795,0.00063762,0.0013551,-0.00012245,0,0,0.065633,-0.018655,0,-0.0063675,0,0,0,0.0038841,0.000633,0.0013551,-2.1601,0.0019574,0.0029569,1.0656e-09,0.18,0.44,0
0.01191,0.00026109,0.0039292,0.00058695,0.0013548,-0.00015232,0,0,0.066933,-0.019965,0,-0.0079204,0,0,0,0.0039361,0.00058002,0.0013548,-2.6039,0.001957,0.0030436,1.1378e-09,0.2,0.44,0
0.013261,0.00030086,0.0039798,0.00054605,0.0013578,-0.00018457,0,0,0.068173,-0.021104,0,-0.0095975,0,0,0,0.0039897,0.00053616,0.0013578,-3.0679,0.0019612,0.0031248,1.2095e-09,0.22,0.44,0
0.014637,0.00034228,0.0040319,0.00051568,0.0013643,-0.00021855,0,0,0.069357,-0.022063,0,-0.011364,0,0,0,0.0040454,0.00050215,0.0013643,-3.543,0.0019706,0.0032005,1.2809e-09,0.24,0.44,0
0.016035,0.00038811,0.0040862,0.00049668,0.0013749,-0.00025326,0,0,0.070495,-0.022833,0,-0.01317,0,0,0,0.004104,0.0004789,0.0013749,-4.016,0.0019859,0.0032705,1.3524e-09,0.26,0.44,0
0.017456,0.00044285,0.0041445,0.00048996,0.0013903,-0.00028725,0,0,0.071608,-0.02341,0,-0.014937,0,0,0,0.0041669,0.00046752,0.0013903,-4.467,0.0020083,0.0033352,1.425e-09,0.28,0.44,0
0.0189,0.00051336,0.0042095,0.00049648,0.0014118,-0.00031835,0,0,0.07274,-0.023798,0,-0.016554,0,0,0,0.0042366,0.00046938,0.0014118,-4.8652,0.0020392,0.0033955,1.5008e-09,0.3,0.44,0
0.020366,0.00060987,0.0042866,0.00051723,0.0014411,-0.00034335,0,0,0.073982,-0.024022,0,-0.017854,0,0,0,0.0043176,0.00048621,0.0014411,-5.1624,0.0020817,0.0034544,1.5843e-09,0.32,0.44,0
0.021859,0.00074753,0.0043867,0.00055397,0.0014822,-0.00035771,0,0,0.075518,-0.024134,0,-0.018601,0,0,0,0.0044198,0.00052087,0.0014822,-5.2866,0.002141,0.0035182,1.6864e-09,0.34,0.44,0
0.023387,0.00094864,0.0045335,0.00061104,0.0015434,-0.00035262,0,0,0.077744,-0.024241,0,-0.018336,0,0,0,0.004565,0.00057959,0.0015434,-5.0963,0.0022293,0.0036015,1.8326e-09,0.36,0.44,0
0.024969,0.0012522,0.0048082,0.00071729,0.0016577,-0.00031676,0,0,0.081915,-0.024449,0,-0.016472,0,0,0,0.0048326,0.00069291,0.0016577,-4.4015,0.0023944,0.0037516,2.1192e-09,0.38,0.44,0
0.026663,0.0017152,0.0053767,0.00092686,0.0018911,-9.9304e-05,0,0,0.090626,-0.025069,0,-0.0051638,0,0,0,0.0053789,0.00092464,0.0018911,-1.2778,0.0027315,0.0040583,2.7876e-09,0.4,0.44,0
0.028594,0.0027221,0.0080774,-0.00030663,0.0023312,-0.00047065,0,0,0.039861,-0.014702,0,-0.010988,0,0,0,0.0081105,-0.00033971,0.0023312,-4.3308,0.0033673,0.0074846,2.3292e-08,0.42,0.44,0
0.028824,0.0029257,0.0045877,0.00056263,0.0015451,0.00030442,0,0,0.0094324,-0.0028202,0,0.0036123,0,0,0,0.004615,0.0005353,0.0015451,7.356,0.0022318,0.0036802,6.0823e-09,0.44,0.44,0
0.028929,0.0029882,0.0058527,8.1824e-05,0.0017804,4.0144e-05,0,0,0.0052941,-0.0022081,0,0.00010437,0,0,0,0.005853,8.1545e-05,0.0017804,0.39854,0.0025716,0.0051372,4.4828e-09,0.46,0.44,0
0.029036,0.0030372,0.0055878,-0.00018921,0.0016196,-0.00014704,0,0,0.0051587,-0.0023514,0,-0.0003823,0,0,0,0.0055916,-0.00019295,0.0016196,-1.4571,0.0023394,0.0051246,4.1103e-09,0.48,0.44,0
0.029135,0.0030889,0.0052162,-0.0003761,0.001452,-5.1458e-05,0,0,0.0048934,-0.0023765,0,-0.00013379,0,0,0,0.0052166,-0.00037657,0.001452,-0.52716,0.0020973,0.0049396,3.4529e-09,0.5,0.44,0
0.029232,0.0031432,0.0050933,-0.00019633,0.0014691,2.2398e-05,0,0,0.0047115,-0.0021651,0,5.8234e-05,0,0,0,0.0050934,-0.00019642,0.0014691,0.2426,0.002122,0.0046847,3.1188e-09,0.52,0.44,0
0.029324,0.0031997,0.0049777,1.2849e-05,0.0014972,5.581e-05,0,0,0.0045247,-0.0019296,0,0.00014511,0,0,0,0.0049784,1.2222e-05,0.0014972,0.64395,0.0021626,0.0044151,2.7936e-09,0.54,0.44,0
0.029413,0.0032548,0.0049116,0.00016921,0.0015242,2.9821e-05,0,0,0.0044035,-0.0017615,0,7.7535e-05,0,0,0,0.0049118,0.00016902,0.0015242,0.36027,0.0022017,0.0042312,2.5875e-09,0.56,0.44,0
0.0295,0.0033062,0.0048743,0.00022585,0.0015301,-1.4904e-05,0,0,0.0043475,-0.0016955,0,-3.8751e-05,0,0,0,0.0048744,0.0002258,0.0015301,-0.1837,0.0022101,0.004153,2.4927e-09,0.58,0.44,0
0.029587,0.0033531,0.0048693,0.00020873,0.0015234,-6.2964e-05,0,0,0.0043497,-0.0017091,0,-0.00016371,0,0,0,0.0048702,0.00020788,0.0015234,-0.77387,0.0022005,0.0041634,2.4974e-09,0.6,0.44,0
0.029674,0.0033954,0.0048958,0.00011701,0.0015038,-0.00010901,0,0,0.0044095,-0.0018029,0,-0.00028342,0,0,0,0.0048983,0.00011453,0.0015038,-1.3061,0.0021722,0.0042624,2.5995e-09,0.62,0.44,0
0.029763,0.0034342,0.0049489,-7.5846e-05,0.0014619,-0.00013506,0,0,0.0045331,-0.0019991,0,-0.00035115,0,0,0,0.0049525,-7.9474e-05,0.0014619,-1.5386,0.0021116,0.0044655,2.8042e-09,0.64,0.44,0
0.029855,0.0034719,0.0050457,-0.00032422,0.0014165,-9.6184e-05,0,0,0.0047181,-0.0022629,0,-0.00025008,0,0,0,0.0050475,-0.00032594,0.0014165,-1.0258,0.002046,0.0047483,3.1075e-09,0.66,0.44,0
0.029952,0.0035126,0.0051508,-0.00053862,0.0013836,-2.9323e-06,0,0,0.0048973,-0.002499,0,-7.6239e-06,0,0,0,0.0051508,-0.00053862,0.0013836,-0.02953,0.0019986,0.0050128,3.4102e-09,0.68,0.44,0
0.030051,0.0035575,0.0055081,-0.00039623,0.0015336,0.00012422,0,0,0.0051669,-0.0025087,0,0.00032299,0,0,0,0.0055107,-0.00039885,0.0015336,1.2048,0.0022151,0.0052189,4.0711e-09,0.7,0.44,0
0.030159,0.0036063,0.0058052,-0.00016872,0.001691,-1.4167e-05,0,0,0.0053485,-0.0024176,0,-3.6835e-05,0,0,0,0.0058052,-0.00016875,0.001691,-0.13588,0.0024425,0.005295,4.5756e-09,0.72,0.44,0
0.030265,0.0036433,0.004586,0.00034234,0.0014785,-0.00030222,0,0,0.0096461,-0.0032744,0,-0.0037568,0,0,0,0.0046124,0.00031592,0.0014785,-7.2158,0.0021356,0.0038492,6.4802e-09,0.74,0.44,0
0.030501,0.0035292,0.008052,-0.00080352,0.0021745,0.00040642,0,0,0.040686,-0.017213,0,0.0088335,0,0,0,0.008074,-0.00082549,0.0021745,3.3999,0.003141,0.0078452,2.4186e-08,0.76,0.44,0
0.03247,0.0024617,0.0053873,0.0006892,0.001823,7.335e-06,0,0,0.092673,-0.029478,0,0.00038142,0,0,0,0.0053873,0.00068919,0.001823,0.089454,0.0026331,0.0042463,3.0077e-09,0.78,0.44,0
0.034208,0.0019873,0.0048298,0.00047629,0.0015918,0.0002555,0,0,0.084188,-0.029004,0,0.013286,0,0,0,0.0048448,0.00046134,0.0015918,3.3472,0.0022993,0.0039417,2.295e-09,0.8,0.44,0
0.035838,0.0016794,0.004576,0.00036514,0.0014823,0.0003091,0,0,0.080434,-0.029047,0,0.016073,0,0,0,0.0045985,0.00034258,0.0014823,4.176,0.0021412,0.0038159,2.0189e-09,0.82,0.44,0
0.037426,0.0014925,0.0044586,0.00027368,0.0014197,0.00033393,0,0,0.079012,-0.029796,0,0.017365,0,0,0,0.0044851,0.0002472,0.0014197,4.5336,0.0020507,0.0037902,1.9208e-09,0.84,0.44,0
0.038998,0.001387,0.0043959,0.00018333,0.0013738,0.00032767,0,0,0.078575,-0.030951,0,0.017039,0,0,0,0.0044212,0.000158,0.0013738,4.4213,0.0019843,0.0038039,1.8841e-09,0.86,0.44,0
0.040569,0.0013346,0.0043608,0.00010707,0.0013404,0.00029978,0,0,0.078532,-0.032066,0,0.015589,0,0,0,0.0043818,8.6045e-05,0.0013404,4.0115,0.0019361,0.0038261,1.8689e-09,0.88,0.44,0
0.042139,0.0013136,0.0043365,4.5436e-05,0.0013146,0.00025868,0,0,0.07857,-0.032998,0,0.013451,0,0,0,0.004352,2.9899e-05,0.0013146,3.4373,0.0018989,0.0038443,1.8574e-09,0.9,0.44,0
0.043711,0.00131,0.0043177,-2.544e-06,0.0012945,0.00021071,0,0,0.078602,-0.033724,0,0.010957,0,0,0,0.0043279,-1.2797e-05,0.0012945,2.7857,0.0018699,0.003857,1.8462e-09,0.92,0.44,0
0.045283,0.0013144,0.004303,-3.8215e-05,0.0012794,0.00015943,0,0,0.078613,-0.034259,0,0.0082906,0,0,0,0.0043089,-4.4062e-05,0.0012794,2.1004,0.0018481,0.0038651,1.8358e-09,0.94,0.44,0
0.046856,0.0013211,0.0042924,-6.2785e-05,0.0012689,0.00010671,0,0,0.078611,-0.034623,0,0.0055491,0,0,0,0.004295,-6.5399e-05,0.0012689,1.4028,0.0018328,0.0038698,1.8275e-09,0.96,0.44,0
0.048428,0.0013265,0.0042859,-7.7161e-05,0.0012626,5.344e-05,0,0,0.078605,-0.034834,0,0.0027789,0,0,0,0.0042865,-7.7815e-05,0.0012626,0.70163,0.0018238,0.0038722,1.8222e-09,0.98,0.44,0
0.05,0.0013284,0.0042837,-8.1892e-05,0.0012605,1.9015e-06,0,0,0.078602,-0.034903,0,9.888e-05,0,0,0,0.0042837,-8.1892e-05,0.0012605,0.024956,0.0018208,0.003873,1.8203e-09,1,0.44,0
0,0,0.0034606,0.0014831,0.0014831,-6.4202e-05,0,0,0.051414,-7.5894e-19,0,-0.0033385,0,0,0,0.0034626,0.001481,0.0014831,-1.8576,0.0021422,0.0019806,3.9903e-10,0,0.46,0
0.0010283,-6.677e-05,0.0034471,0.0013373,0.0014353,-6.5441e-05,0,0,0.052306,-0.0025478,0,-0.0034029,0,0,0,0.0034491,0.0013353,0.0014353,-1.7749,0.0020733,0.0020656,4.491e-10,0.02,0.46,0
0.0020922,-0.00011251,0.0034955,0.001227,0.0014167,-6.1023e-05,0,0,0.054047,-0.0049339,0,-0.0031732,0,0,0,0.0034971,0.0012253,0.0014167,-1.5398,0.0020464,0.0021824,5.2003e-10,0.04,0.46,0
0.0031902,-0.00014186,0.0035425,0.0011243,0.0014,-6.2727e-05,0,0,0.055704,-0.0071698,0,-0.0032618,0,0,0,0.0035441,0.0011226,0.0014,-1.4849,0.0020223,0.0022954,5.9067e-10,0.06,0.46,0
0.0043204,-0.00015863,0.0035884,0.001029,0.0013852,-6.9754e-05,0,0,0.057283,-0.0092623,0,-0.0036272,0,0,0,0.0035903,0.0010271,0.0013852,-1.56,0.0020009,0.0024043,6.6071e-10,0.08,0.46,0
0.0054815,-0.0001659,0.0036334,0.00094102,0.0013723,-8.1505e-05,0,0,0.058789,-0.011214,0,-0.0042382,0,0,0,0.0036359,0.00093856,0.0013723,-1.7323,0.0019823,0.0025087,7.2989e-10,0.1,0.46,0
0.006672,-0.00016616,0.0036776,0.00086047,0.0013614,-9.7521e-05,0,0,0.060221,-0.013025,0,-0.0050711,0,0,0,0.003681,0.0008571,0.0013614,-1.9802,0.0019665,0.0026086,7.9799e-10,0.12,0.46,0
0.0078904,-0.00016131,0.003721,0.00078751,0.0013526,-0.00011744,0,0,0.06158,-0.014691,0,-0.0061069,0,0,0,0.0037257,0.00078281,0.0013526,-2.2889,0.0019537,0.0027034,8.648e-10,0.14,0.46,0
0.0091352,-0.0001527,0.0037637,0.00072245,0.0013458,-0.00014095,0,0,0.062864,-0.016208,0,-0.0073296,0,0,0,0.0037702,0.00071593,0.0013458,-2.648,0.001944,0.0027931,9.3011e-10,0.16,0.46,0
0.010405,-0.00014108,0.0038055,0.00066568,0.0013414,-0.00016777,0,0,0.064069,-0.017568,0,-0.008724,0,0,0,0.0038145,0.00065675,0.0013414,-3.0499,0.0019375,0.0028772,9.937e-10,0.18,0.46,0
0.011698,-0.00012656,0.0038467,0.00061768,0.0013393,-0.00019758,0,0,0.065192,-0.018763,0,-0.010274,0,0,0,0.0038587,0.00060563,0.0013393,-3.4885,0.0019346,0.0029554,1.0554e-09,0.2,0.46,0
0.013013,-0.00010845,0.0038872,0.00057894,0.0013398,-0.00022999,0,0,0.066231,-0.019783,0,-0.01196,0,0,0,0.0039031,0.00056303,0.0013398,-3.9579,0.0019353,0.0030273,1.1149e-09,0.22,0.46,0
0.014347,-8.5109e-05,0.0039272,0.00055002,0.0013431,-0.00026452,0,0,0.067184,-0.020622,0,-0.013755,0,0,0,0.0039477,0.00052942,0.0013431,-4.4515,0.0019401,0.0030928,1.1722e-09,0.24,0.46,0
0.0157,-5.3639e-05,0.003967,0.0005314,0.0013495,-0.00030046,0,0,0.068055,-0.021271,0,-0.015624,0,0,0,0.0039931,0.00050532,0.0013495,-4.9607,0.0019493,0.0031516,1.2273e-09,0.26,0.46,0
0.017069,-9.5314e-06,0.0040073,0.00052349,0.0013592,-0.00033691,0,0,0.06885,-0.02173,0,-0.01752,0,0,0,0.0040396,0.00049121,0.0013592,-5.4733,0.0019634,0.0032038,1.2803e-09,0.28,0.46,0
0.018454,5.3893e-05,0.0040493,0.00052641,0.0013727,-0.00037266,0,0,0.069592,-0.022004,0,-0.019378,0,0,0,0.0040883,0.00048742,0.0013727,-5.9728,0.0019828,0.00325,1.3319e-09,0.3,0.46,0
0.019853,0.00014631,0.0040945,0.00053985,0.0013903,-0.00040621,0,0,0.07031,-0.022112,0,-0.021123,0,0,0,0.0041404,0.00049402,0.0013903,-6.4369,0.0020082,0.003291,1.3832e-09,0.32,0.46,0
0.021266,0.0002816,0.0041442,0.00056229,0.0014119,-0.00043558,0,0,0.071038,-0.022091,0,-0.02265,0,0,0,0.0041964,0.00051008,0.0014119,-6.8349,0.0020395,0.0033283,1.4353e-09,0.34,0.46,0
0.022694,0.00048072,0.0041966,0.00059057,0.0014362,-0.00045849,0,0,0.071772,-0.021985,0,-0.023841,0,0,0,0.004254,0.00053319,0.0014362,-7.1336,0.0020744,0.0033616,1.4867e-09,0.36,0.46,0
0.024137,0.00077586,0.0042057,0.00059744,0.001441,-0.00046354,0,0,0.071885,-0.021931,0,-0.024104,0,0,0,0.0042643,0.00053884,0.001441,-7.2047,0.0020814,0.0033664,1.4952e-09,0.38,0.46,0
0.02557,0.0012396,0.004163,0.00058859,0.0014255,-0.00040043,0,0,0.071175,-0.021759,0,-0.020822,0,0,0,0.0042073,0.00054428,0.0014255,-6.3145,0.002059,0.0033115,1.4294e-09,0.4,0.46,0
0.026984,0.0020669,0.0044214,0.00015763,0.0013737,-0.00052274,0,0,0.07924,-0.031618,0,-0.027182,0,0,0,0.0044846,9.4478e-05,0.0013737,-6.8886,0.0019842,0.0039107,2.0002e-09,0.42,0.46,0
0.02874,0.0028607,0.0060649,0.00019149,0.0018769,-0.00025312,0,0,0.034476,-0.012961,0,-0.012323,0,0,0,0.0060989,0.00015754,0.0018769,-4.1977,0.0027111,0.0052954,7.7335e-09,0.44,0.46,0
0.028896,0.0029437,0.0032131,-6.4041e-05,0.00094473,8.2375e-05,0,0,0.0066695,-0.0027273,0,0.00015308,0,0,0,0.0032154,-6.6324e-05,0.00094473,0.60929,0.0013646,0.0029111,2.507e-09,0.46,0.46,0
0.028983,0.0029909,0.0049638,-0.00039962,0.0013693,8.9667e-05,0,0,0.0046729,-0.0022996,0,0.00023313,0,0,0,0.0049653,-0.00040112,0.0013693,0.95752,0.0019778,0.0047363,2.9989e-09,0.48,0.46,0
0.029083,0.0030395,0.0051687,-0.00046536,0.001411,2.4515e-05,0,0,0.004885,-0.0024393,0,6.3739e-05,0,0,0,0.0051688,-0.00046547,0.001411,0.2493,0.0020381,0.0049693,3.4081e-09,0.5,0.46,0
0.029178,0.0030992,0.0050453,-0.00027154,0.0014321,0.00012926,0,0,0.0046971,-0.0022148,0,0.00033608,0,0,0,0.0050484,-0.00027468,0.0014321,1.3919,0.0020686,0.0047078,3.0815e-09,0.52,0.46,0
0.029271,0.0031609,0.0050431,8.2157e-05,0.0015376,9.4449e-05,0,0,0.0045572,-0.001892,0,0.00024557,0,0,0,0.0050449,8.0359e-05,0.0015376,1.0903,0.0022209,0.0044199,2.8642e-09,0.54,0.46,0
0.029361,0.0032196,0.005009,0.00021069,0.0015659,2.9379e-05,0,0,0.004476,-0.0017618,0,7.6384e-05,0,0,0,0.0050092,0.00021051,0.0015659,0.35079,0.0022619,0.0042849,2.7195e-09,0.56,0.46,0
0.02945,0.0032722,0.0050139,0.00024333,0.0015772,-1.7025e-05,0,0,0.0044677,-0.001734,0,-4.4266e-05,0,0,0,0.0050139,0.00024327,0.0015772,-0.20447,0.0022781,0.0042632,2.7057e-09,0.58,0.46,0
0.029539,0.0033188,0.0050059,0.00022693,0.0015698,-4.8639e-05,0,0,0.0044668,-0.0017458,0,-0.00012646,0,0,0,0.0050063,0.00022643,0.0015698,-0.58306,0.0022675,0.0042698,2.7043e-09,0.6,0.46,0
0.029629,0.0033594,0.0049857,0.00016087,0.001544,-9.5437e-05,0,0,0.0044742,-0.001798,0,-0.00024814,0,0,0,0.0049876,0.00015898,0.001544,-1.1327,0.0022302,0.0043065,2.7173e-09,0.62,0.46,0
0.029718,0.0033941,0.005004,-6.9185e-06,0.0014991,-0.00015959,0,0,0.0045563,-0.0019579,0,-0.00041494,0,0,0,0.0050091,-1.1996e-05,0.0014991,-1.8223,0.0021654,0.0044618,2.8604e-09,0.64,0.46,0
0.029811,0.0034259,0.0049934,-0.00040601,0.0013762,-0.00018524,0,0,0.0047024,-0.0023169,0,-0.00048162,0,0,0,0.0049998,-0.00041236,0.0013762,-1.9626,0.0019879,0.004776,3.0659e-09,0.66,0.46,0
0.029906,0.0034607,0.0050975,-0.00066,0.0013312,-6.303e-05,0,0,0.0048961,-0.0025886,0,-0.00016388,0,0,0,0.0050982,-0.00066069,0.0013312,-0.62715,0.0019229,0.0050657,3.3654e-09,0.68,0.46,0
0.030007,0.0035074,0.0049009,-0.00062756,0.001282,-9.2793e-05,0,0,0.0047046,-0.0024824,0,-0.00024126,0,0,0,0.0049025,-0.00062911,0.001282,-0.96133,0.0018518,0.0048661,2.9901e-09,0.7,0.46,0
0.030095,0.0035575,0.0031811,-0.00025267,0.00087853,-8.2784e-05,0,0,0.0067814,-0.0031033,0,-0.00018423,0,0,0,0.0031833,-0.00025484,0.00087853,-0.66082,0.001269,0.0030346,2.564e-09,0.72,0.46,0
0.030254,0.0035676,0.0059936,-0.0002398,0.0017262,0.00019748,0,0,0.035194,-0.015168,0,0.010692,0,0,0,0.0060181,-0.00026428,0.0017262,3.3314,0.0024933,0.0055613,7.9975e-09,0.74,0.46,0
0.032047,0.0027499,0.0044022,-0.00015099,0.0012754,0.00043888,0,0,0.081298,-0.037086,0,0.022822,0,0,0,0.0044442,-0.00019291,0.0012754,5.4557,0.0018422,0.0041048,2.0811e-09,0.76,0.46,0
0.033506,0.0019012,0.0041762,0.00034649,0.0013568,0.00031744,0,0,0.073303,-0.026268,0,0.016507,0,0,0,0.0042023,0.00032036,0.0013568,4.7064,0.0019598,0.0034814,1.5372e-09,0.78,0.46,0
0.034979,0.0014157,0.0042183,0.00034073,0.0013677,0.00038562,0,0,0.074115,-0.026701,0,0.020052,0,0,0,0.0042563,0.00030275,0.0013677,5.6246,0.0019756,0.0035432,1.608e-09,0.8,0.46,0
0.036471,0.0011106,0.0042317,0.00032374,0.0013666,0.00039081,0,0,0.074491,-0.027115,0,0.020322,0,0,0,0.0042704,0.00028504,0.0013666,5.6552,0.001974,0.0035696,1.6334e-09,0.82,0.46,0
0.037959,0.00091127,0.0042039,0.00026918,0.0013419,0.00037663,0,0,0.074411,-0.027891,0,0.019585,0,0,0,0.0042396,0.00023346,0.0013419,5.4188,0.0019383,0.0035829,1.6224e-09,0.84,0.46,0
0.039447,0.00078682,0.0041842,0.0002066,0.0013173,0.0003519,0,0,0.074542,-0.028877,0,0.018299,0,0,0,0.0042151,0.00017571,0.0013173,5.0171,0.0019027,0.0036068,1.6211e-09,0.86,0.46,0
0.04094,0.00071375,0.0041729,0.00014521,0.0012954,0.00031588,0,0,0.074814,-0.029906,0,0.016426,0,0,0,0.0041975,0.00012059,0.0012954,4.4573,0.0018712,0.0036348,1.6257e-09,0.88,0.46,0
0.04244,0.00067447,0.0041666,9.1641e-05,0.0012775,0.00027121,0,0,0.075117,-0.030832,0,0.014103,0,0,0,0.0041846,7.3669e-05,0.0012775,3.7911,0.0018452,0.0036606,1.6314e-09,0.9,0.46,0
0.043945,0.00065598,0.0041623,4.7847e-05,0.001263,0.00022091,0,0,0.07538,-0.031595,0,0.011487,0,0,0,0.0041741,3.602e-05,0.001263,3.0646,0.0018244,0.0036813,1.6356e-09,0.92,0.46,0
0.045455,0.00064924,0.0041589,1.4231e-05,0.0012519,0.0001674,0,0,0.075581,-0.03218,0,0.0087046,0,0,0,0.0041656,7.4816e-06,0.0012519,2.3091,0.0018084,0.0036965,1.6378e-09,0.94,0.46,0
0.046968,0.00064818,0.0041563,-9.414e-06,0.0012441,0.00011221,0,0,0.075718,-0.03259,0,0.0058351,0,0,0,0.0041593,-1.2435e-05,0.0012441,1.5419,0.001797,0.0037068,1.6387e-09,0.96,0.46,0
0.048484,0.00064895,0.0041546,-2.3426e-05,0.0012393,5.6255e-05,0,0,0.075796,-0.032832,0,0.0029252,0,0,0,0.0041553,-2.4183e-05,0.0012393,0.77127,0.0017902,0.0037127,1.6389e-09,0.98,0.46,0
0.05,0.00064943,0.004154,-2.8065e-05,0.0012378,4.6352e-07,0,0,0.075822,-0.032912,0,2.4103e-05,0,0,0,0.004154,-2.8065e-05,0.0012378,0.0063505,0.0017879,0.0037146,1.6389e-09,1,0.46,0
0,0,0.0034183,0.001465,0.001465,-0.00011159,0,0,0.050786,3.2526e-19,0,-0.0058027,0,0,0,0.0034247,0.0014586,0.001465,-3.2591,0.0021161,0.0019628,3.8839e-10,0,0.48,0
0.0010157,-0.00011605,0.0034058,0.001329,0.0014204,-0.00011268,0,0,0.051619,-0.0023769,0,-0.0058593,0,0,0,0.0034119,0.0013229,0.0014204,-3.0966,0.0020518,0.0020419,4.3392e-10,0.02,0.48,0
0.0020648,-0.00020807,0.0034507,0.0012252,0.0014028,-0.00010683,0,0,0.053246,-0.0046161,0,-0.0055553,0,0,0,0.0034558,0.0012201,0.0014028,-2.7421,0.0020262,0.0021502,4.9816e-10,0.04,0.48,0
0.0031455,-0.00028085,0.0034942,0.0011282,0.0013867,-0.0001073,0,0,0.054794,-0.0067215,0,-0.0055794,0,0,0,0.003499,0.0011233,0.0013867,-2.5912,0.002003,0.0022556,5.6237e-10,0.06,0.48,0
0.0042565,-0.00033828,0.0035363,0.0010378,0.0013722,-0.00011318,0,0,0.056265,-0.0086944,0,-0.0058855,0,0,0,0.0035414,0.0010327,0.0013722,-2.5885,0.0019821,0.0023573,6.2601e-10,0.08,0.48,0
0.0053962,-0.00038347,0.0035771,0.00095429,0.0013594,-0.00012383,0,0,0.057659,-0.010533,0,-0.006439,0,0,0,0.0035829,0.00094845,0.0013594,-2.6971,0.0019636,0.0024549,6.8861e-10,0.1,0.48,0
0.0065629,-0.00041884,0.0036164,0.00087771,0.0013482,-0.00013872,0,0,0.058972,-0.012233,0,-0.0072133,0,0,0,0.0036234,0.00087071,0.0013482,-2.8922,0.0019474,0.0025477,7.4974e-10,0.12,0.48,0
0.007755,-0.00044622,0.0036542,0.00080839,0.0013388,-0.00015745,0,0,0.0602,-0.01379,0,-0.0081873,0,0,0,0.0036629,0.00079971,0.0013388,-3.1572,0.0019338,0.0026353,8.0897e-10,0.14,0.48,0
0.0089709,-0.00046681,0.0036902,0.00074666,0.0013311,-0.00017968,0,0,0.061338,-0.015194,0,-0.0093434,0,0,0,0.0037011,0.00073573,0.0013311,-3.4802,0.0019226,0.0027171,8.6587e-10,0.16,0.48,0
0.010209,-0.00048124,0.0037244,0.00069292,0.0013252,-0.00020511,0,0,0.062379,-0.016439,0,-0.010666,0,0,0,0.0037382,0.0006791,0.0013252,-3.8532,0.0019142,0.0027927,9.1996e-10,0.18,0.48,0
0.011466,-0.00048941,0.0037564,0.00064758,0.0013212,-0.00023341,0,0,0.063315,-0.017514,0,-0.012137,0,0,0,0.0037738,0.00063015,0.0013212,-4.27,0.0019084,0.0028614,9.7078e-10,0.2,0.48,0
0.012741,-0.00049047,0.0037859,0.00061107,0.0013191,-0.00026423,0,0,0.064138,-0.018409,0,-0.01374,0,0,0,0.0038078,0.00058923,0.0013191,-4.7251,0.0019054,0.0029228,1.0178e-09,0.22,0.48,0
0.014032,-0.00048258,0.0038128,0.00058376,0.001319,-0.0002971,0,0,0.06484,-0.019115,0,-0.015449,0,0,0,0.0038399,0.00055666,0.001319,-5.2133,0.0019052,0.0029763,1.0605e-09,0.24,0.48,0
0.015335,-0.00046273,0.0038366,0.00056593,0.0013208,-0.00033142,0,0,0.065412,-0.019626,0,-0.017234,0,0,0,0.0038699,0.00053268,0.0013208,-5.7282,0.0019078,0.0030213,1.0981e-09,0.26,0.48,0
0.016648,-0.00042635,0.003857,0.0005576,0.0013244,-0.0003664,0,0,0.065847,-0.019936,0,-0.019053,0,0,0,0.0038971,0.0005174,0.0013244,-6.2613,0.001913,0.0030572,1.1301e-09,0.28,0.48,0
0.017969,-0.0003668,0.003873,0.00055841,0.0013294,-0.00040095,0,0,0.066132,-0.020046,0,-0.020849,0,0,0,0.0039208,0.0005106,0.0013294,-6.8002,0.0019203,0.0030834,1.1553e-09,0.3,0.48,0
0.019293,-0.00027462,0.0038829,0.0005672,0.001335,-0.00043341,0,0,0.066245,-0.019964,0,-0.022537,0,0,0,0.0039386,0.00051148,0.001335,-7.3254,0.0019284,0.0030986,1.1718e-09,0.32,0.48,0
0.020618,-0.00013611,0.003883,0.00058142,0.0013393,-0.00046087,0,0,0.066135,-0.019706,0,-0.023965,0,0,0,0.0039461,0.00051829,0.0013393,-7.7994,0.0019346,0.0031,1.1758e-09,0.34,0.48,0
0.021939,6.9226e-05,0.0038632,0.00059395,0.0013372,-0.00047648,0,0,0.065678,-0.019323,0,-0.024777,0,0,0,0.0039313,0.00052592,0.0013372,-8.1254,0.0019314,0.0030809,1.1582e-09,0.36,0.48,0
0.023246,0.00037498,0.0038295,0.00060023,0.0013289,-0.00046012,0,0,0.065016,-0.018946,0,-0.023926,0,0,0,0.0038938,0.00053595,0.0013289,-7.953,0.0019196,0.00304,1.1186e-09,0.38,0.48,0
0.024539,0.00084482,0.0038662,0.00056049,0.001328,-0.0004195,0,0,0.065994,-0.019956,0,-0.021814,0,0,0,0.0039187,0.00050809,0.001328,-7.1205,0.0019183,0.0030835,1.1544e-09,0.4,0.48,0
0.025885,0.0014574,0.0037138,0.00010646,0.0011461,-0.00037662,0,0,0.066761,-0.02703,0,-0.019584,0,0,0,0.0037527,6.7562e-05,0.0011461,-5.8971,0.0016554,0.0032816,1.1761e-09,0.42,0.48,0
0.02721,0.002213,0.0039996,-4.3362e-05,0.0011869,-0.0005802,0,0,0.073131,-0.031986,0,-0.03017,0,0,0,0.0040812,-0.00012498,0.0011869,-8.0071,0.0017144,0.0037276,1.5922e-09,0.44,0.48,0
0.02881,0.0028841,0.0053771,6.3442e-05,0.0016322,-0.00049369,0,0,0.031314,-0.012469,0,-0.014036,0,0,0,0.005435,5.598e-06,0.0016322,-6.5265,0.0023576,0.0048262,5.5084e-09,0.46,0.48,0
0.02895,0.0029452,0.0027979,-0.00030883,0.00074671,-7.4391e-05,0,0,0.0059692,-0.0028852,0,-0.0011973,0,0,0,0.002801,-0.00031193,0.00074671,-3.4755,0.0010786,0.0027415,1.7918e-09,0.48,0.48,0
0.02903,0.0029913,0.0043676,-0.0009758,0.0010175,2.5959e-05,0,0,0.0043551,-0.0025913,0,6.7493e-05,0,0,0,0.0043677,-0.00097592,0.0010175,0.27834,0.0014698,0.0046772,2.2224e-09,0.5,0.48,0
0.029124,0.0030546,0.0049933,-0.00011807,0.0014626,4.7603e-05,0,0,0.0045899,-0.0020548,0,0.00012377,0,0,0,0.0049937,-0.00011851,0.0014626,0.53355,0.0021126,0.0045334,2.8972e-09,0.52,0.48,0
0.029213,0.0031241,0.0050303,0.00015155,0.0015546,-1.6468e-05,0,0,0.0045185,-0.0018239,0,-4.2817e-05,0,0,0,0.0050304,0.00015149,0.0015546,-0.1934,0.0022455,0.0043505,2.7936e-09,0.54,0.48,0
0.029305,0.0031843,0.0051838,0.00018798,0.0016115,-6.9685e-05,0,0,0.0046439,-0.0018506,0,-0.00018118,0,0,0,0.0051848,0.00018701,0.0016115,-0.79899,0.0023278,0.0044595,3.0374e-09,0.56,0.48,0
0.029399,0.0032368,0.0053057,0.00020898,0.0016544,-4.8057e-05,0,0,0.0047466,-0.001879,0,-0.00012495,0,0,0,0.0053061,0.00020853,0.0016544,-0.54019,0.0023897,0.0045503,3.243e-09,0.58,0.48,0
0.029494,0.0032832,0.0052968,0.00019261,0.0016468,-1.6634e-06,0,0,0.004745,-0.0018905,0,-4.3248e-06,0,0,0,0.0052968,0.00019261,0.0016468,-0.018672,0.0023787,0.0045547,3.2374e-09,0.6,0.48,0
0.029589,0.0033234,0.0051566,0.0001375,0.0015882,1.9942e-05,0,0,0.0046388,-0.0018859,0,5.185e-05,0,0,0,0.0051566,0.00013742,0.0015882,0.22765,0.0022941,0.0044739,3.0215e-09,0.62,0.48,0
0.02968,0.0033559,0.00499,6.4784e-05,0.0015164,-3.2087e-05,0,0,0.0045156,-0.0018871,0,-8.3426e-05,0,0,0,0.0049902,6.4575e-05,0.0015164,-0.37325,0.0021904,0.0043839,2.7813e-09,0.64,0.48,0
0.029769,0.0033792,0.0049342,-0.00026835,0.0013998,-9.2589e-05,0,0,0.0045948,-0.0021685,0,-0.00024073,0,0,0,0.0049359,-0.00026999,0.0013998,-1.0193,0.0020219,0.004604,2.8808e-09,0.66,0.48,0
0.029864,0.0034091,0.0043068,-0.0011826,0.00093726,-4.4719e-05,0,0,0.0043805,-0.0027559,0,-0.00011627,0,0,0,0.0043072,-0.001183,0.00093726,-0.4667,0.0013538,0.0047955,2.164e-09,0.68,0.48,0
0.029945,0.0034582,0.0027669,-0.00047091,0.00068881,6.7083e-05,0,0,0.0060564,-0.0032102,0,0.0011466,0,0,0,0.0027696,-0.00047353,0.00068881,3.1678,0.00099495,0.0028459,1.7971e-09,0.7,0.48,0
0.030086,0.0034888,0.0053031,-0.00031323,0.001497,0.0004417,0,0,0.031863,-0.01441,0,0.012581,0,0,0,0.0053473,-0.00035739,0.001497,5.5736,0.0021623,0.0050403,5.6139e-09,0.72,0.48,0
0.031715,0.0028089,0.0039735,-0.00032649,0.0010941,0.0005068,0,0,0.074863,-0.036935,0,0.026353,0,0,0,0.0040324,-0.00038541,0.0010941,6.6319,0.0015804,0.0038948,1.6251e-09,0.74,0.48,0
0.03308,0.0020457,0.0037109,-0.00015351,0.0010672,0.00029481,0,0,0.068736,-0.031739,0,0.01533,0,0,0,0.0037333,-0.00017587,0.0010672,4.3375,0.0015416,0.0034594,1.2379e-09,0.76,0.48,0
0.034465,0.001411,0.0038661,0.00030176,0.0012504,0.00032723,0,0,0.068009,-0.024664,0,0.017016,0,0,0,0.0038959,0.00027197,0.0012504,5.2022,0.0018061,0.0032472,1.2353e-09,0.78,0.48,0
0.035801,0.00091929,0.0038418,0.00034095,0.0012548,0.00036944,0,0,0.067261,-0.023761,0,0.019211,0,0,0,0.0038803,0.00030239,0.0012548,5.9589,0.0018125,0.0032095,1.2075e-09,0.8,0.48,0
0.037155,0.00059481,0.0038891,0.00031868,0.0012623,0.00038863,0,0,0.068295,-0.024535,0,0.020209,0,0,0,0.0039309,0.00027687,0.0012623,6.1407,0.0018234,0.0032745,1.2678e-09,0.82,0.48,0
0.038533,0.00037691,0.0039295,0.00028231,0.0012636,0.00037589,0,0,0.069315,-0.025512,0,0.019546,0,0,0,0.0039679,0.00024398,0.0012636,5.8235,0.0018251,0.0033332,1.3192e-09,0.84,0.48,0
0.039928,0.00023191,0.0039537,0.00023427,0.0012564,0.00034845,0,0,0.070131,-0.026575,0,0.018119,0,0,0,0.0039861,0.00020191,0.0012564,5.3061,0.0018148,0.0033826,1.3559e-09,0.86,0.48,0
0.041338,0.00013833,0.0039714,0.00018437,0.0012467,0.00031157,0,0,0.070842,-0.027622,0,0.016202,0,0,0,0.0039969,0.00015891,0.0012467,4.672,0.0018009,0.0034261,1.3853e-09,0.88,0.48,0
0.042761,8.0338e-05,0.0039852,0.00013805,0.001237,0.00026754,0,0,0.071454,-0.028572,0,0.013912,0,0,0,0.0040037,0.00011953,0.001237,3.9591,0.0017867,0.0034634,1.4089e-09,0.9,0.48,0
0.044196,4.6164e-05,0.0039958,9.8584e-05,0.0012283,0.00021842,0,0,0.071954,-0.029373,0,0.011358,0,0,0,0.004008,8.6381e-05,0.0012283,3.1978,0.0017742,0.0034935,1.4271e-09,0.92,0.48,0
0.045639,2.7224e-05,0.0040035,6.7397e-05,0.0012213,0.00016597,0,0,0.072338,-0.03,0,0.0086306,0,0,0,0.0040105,6.0411e-05,0.0012213,2.4103,0.0017641,0.0035164,1.4403e-09,0.94,0.48,0
0.047089,1.7529e-05,0.0040086,4.5028e-05,0.0012161,0.00011153,0,0,0.072605,-0.030447,0,0.0057995,0,0,0,0.0040117,4.1892e-05,0.0012161,1.6105,0.0017566,0.0035323,1.4491e-09,0.96,0.48,0
0.048544,1.3173e-05,0.0040115,3.1612e-05,0.0012129,5.5999e-05,0,0,0.072762,-0.030714,0,0.002912,0,0,0,0.0040123,3.0824e-05,0.0012129,0.80598,0.001752,0.0035416,1.4541e-09,0.98,0.48,0
0.05,1.1957e-05,0.0040124,2.7144e-05,0.0012119,-1.1692e-06,0,0,0.072814,-0.030803,0,-6.08e-05,0,0,0,0.0040124,2.7144e-05,0.0012119,-0.01681,0.0017505,0.0035446,1.4557e-09,1,0.48,0
0,0,0.003372,0.0014452,0.0014452,-0.00015562,0,0,0.050099,0,0,-0.0080923,0,0,0,0.0033845,0.0014327,0.0014452,-4.5878,0.0020874,0.0019456,3.7823e-10,0,0.5,0
0.001002,-0.00016185,0.0033605,0.0013192,0.0014039,-0.00015649,0,0,0.050871,-0.0022016,0,-0.0081377,0,0,0,0.0033724,0.0013073,0.0014039,-4.3586,0.0020279,0.0020185,4.1915e-10,0.02,0.5,0
0.0020348,-0.00029715,0.0034019,0.0012222,0.0013872,-0.00014924,0,0,0.052381,-0.0042911,0,-0.0077606,0,0,0,0.003412,0.001212,0.0013872,-3.8988,0.0020037,0.0021179,4.7664e-10,0.04,0.5,0
0.0030972,-0.00041072,0.0034417,0.0011308,0.0013718,-0.00014828,0,0,0.053819,-0.0062649,0,-0.0077107,0,0,0,0.0034512,0.0011213,0.0013718,-3.6564,0.0019814,0.0022153,5.3439e-10,0.06,0.5,0
0.0041876,-0.0005064,0.00348,0.0010454,0.0013576,-0.00015267,0,0,0.055182,-0.0081181,0,-0.0079391,0,0,0,0.0034896,0.0010359,0.0013576,-3.5743,0.001961,0.0023097,5.9163e-10,0.08,0.5,0
0.0053045,-0.00058722,0.0035165,0.00096616,0.0013448,-0.0001617,0,0,0.056464,-0.0098445,0,-0.0084082,0,0,0,0.0035267,0.00095595,0.0013448,-3.6134,0.0019425,0.0024001,6.4768e-10,0.1,0.5,0
0.0064462,-0.0006555,0.0035509,0.00089344,0.0013333,-0.00017479,0,0,0.057658,-0.011437,0,-0.0090889,0,0,0,0.0035624,0.000882,0.0013333,-3.7469,0.0019259,0.0024857,7.0191e-10,0.12,0.5,0
0.0076108,-0.0007129,0.0035831,0.00082759,0.0013232,-0.00019149,0,0,0.058757,-0.012886,0,-0.0099577,0,0,0,0.0035963,0.00081435,0.0013232,-3.9564,0.0019113,0.0025657,7.537e-10,0.14,0.5,0
0.0087965,-0.00076048,0.0036126,0.000769,0.0013145,-0.00021143,0,0,0.059751,-0.014182,0,-0.010994,0,0,0,0.0036282,0.00075336,0.0013145,-4.2292,0.0018987,0.0026394,8.0239e-10,0.16,0.5,0
0.010001,-0.00079864,0.003639,0.00071805,0.0013071,-0.00023425,0,0,0.06063,-0.015316,0,-0.012181,0,0,0,0.0036577,0.00069939,0.0013071,-4.556,0.0018881,0.0027061,8.4732e-10,0.18,0.5,0
0.011222,-0.00082711,0.003662,0.00067514,0.0013011,-0.00025957,0,0,0.061382,-0.016276,0,-0.013498,0,0,0,0.0036844,0.00065275,0.0013011,-4.9299,0.0018794,0.002765,8.8776e-10,0.2,0.5,0
0.012456,-0.00084481,0.0036809,0.0006406,0.0012964,-0.00028697,0,0,0.061995,-0.017052,0,-0.014923,0,0,0,0.0037077,0.00061375,0.0012964,-5.3452,0.0018726,0.0028154,9.2294e-10,0.22,0.5,0
0.013702,-0.00084973,0.003695,0.00061467,0.0012929,-0.00031593,0,0,0.062455,-0.017634,0,-0.016428,0,0,0,0.0037271,0.0005826,0.0012929,-5.796,0.0018675,0.0028564,9.52e-10,0.24,0.5,0
0.014954,-0.00083867,0.0037036,0.00059741,0.0012903,-0.00034572,0,0,0.062745,-0.018015,0,-0.017977,0,0,0,0.0037416,0.00055939,0.0012903,-6.2748,0.0018638,0.002887,9.7392e-10,0.26,0.5,0
0.016211,-0.00080697,0.0037054,0.00058855,0.0012882,-0.00037535,0,0,0.062848,-0.01819,0,-0.019518,0,0,0,0.00375,0.00054398,0.0012882,-6.771,0.0018607,0.0029062,9.8751e-10,0.28,0.5,0
0.017468,-0.00074795,0.0036988,0.00058727,0.0012858,-0.00040332,0,0,0.062738,-0.018163,0,-0.020973,0,0,0,0.0037503,0.00053585,0.0012858,-7.2667,0.0018573,0.0029128,9.912e-10,0.3,0.5,0
0.018721,-0.00065224,0.0036817,0.00059181,0.0012821,-0.00042721,0,0,0.062391,-0.017946,0,-0.022215,0,0,0,0.0037397,0.00053383,0.0012821,-7.7285,0.0018519,0.0029049,9.8304e-10,0.32,0.5,0
0.019964,-0.00050662,0.0036514,0.00059837,0.0012749,-0.00044278,0,0,0.061789,-0.017591,0,-0.023025,0,0,0,0.0037143,0.00053546,0.0012749,-8.0877,0.0018416,0.0028812,9.6102e-10,0.34,0.5,0
0.021192,-0.00029221,0.0036098,0.00060013,0.001263,-0.00044235,0,0,0.061018,-0.017234,0,-0.023002,0,0,0,0.0036735,0.00053646,0.001263,-8.1904,0.0018243,0.0028442,9.2686e-10,0.36,0.5,0
0.022405,1.8015e-05,0.0035759,0.00057909,0.0012465,-0.00042145,0,0,0.060565,-0.017353,0,-0.021916,0,0,0,0.0036341,0.00052095,0.0012465,-7.8548,0.0018005,0.0028212,9.012e-10,0.38,0.5,0
0.023615,0.0004414,0.0035295,0.00045297,0.0011947,-0.00038667,0,0,0.060703,-0.019286,0,-0.020107,0,0,0,0.0035773,0.00040511,0.0011947,-7.0552,0.0017257,0.0028603,9.0025e-10,0.4,0.5,0
0.024833,0.00098565,0.0035345,0.00026318,0.0011393,-0.00040363,0,0,0.062275,-0.022779,0,-0.020989,0,0,0,0.0035836,0.00021411,0.0011393,-6.931,0.0016457,0.0030153,9.7401e-10,0.42,0.5,0
0.026106,0.0015813,0.0034163,-8.4666e-05,0.0009995,-0.00042948,0,0,0.062837,-0.028188,0,-0.022333,0,0,0,0.0034682,-0.00013658,0.0009995,-6.8925,0.0014437,0.0031922,9.8541e-10,0.44,0.5,0
0.027346,0.0022552,0.003711,-0.00012394,0.0010761,-0.00062005,0,0,0.068507,-0.031202,0,-0.032242,0,0,0,0.0038088,-0.0002217,0.0010761,-8.9597,0.0015544,0.0035635,1.3278e-09,0.46,0.5,0
0.028846,0.0028815,0.0048979,-0.00026097,0.0013911,-0.00075708,0,0,0.02934,-0.012694,0,-0.016073,0,0,0,0.0050115,-0.00037458,0.0013911,-8.9899,0.0020094,0.0047561,4.6282e-09,0.48,0.5,0
0.028976,0.0029359,0.0022747,-0.0010632,0.00036347,-0.00035132,0,0,0.0055766,-0.0041597,0,-0.0043311,0,0,0,0.0023201,-0.0011086,0.00036347,-10.649,0.00052501,0.0029792,1.0497e-09,0.5,0.5,0
0.029051,0.003017,0.0043747,-0.00024713,0.0012383,-0.00047742,0,0,0.0040773,-0.001931,0,-0.0012413,0,0,0,0.0044235,-0.00029594,0.0012383,-5.8364,0.0017886,0.0041697,2.0958e-09,0.52,0.5,0
0.029139,0.003088,0.0052066,-3.205e-05,0.0015524,-0.00036164,0,0,0.0047505,-0.0020597,0,-0.00094026,0,0,0,0.0052315,-5.6897e-05,0.0015524,-3.9304,0.0022423,0.0046954,3.2878e-09,0.54,0.5,0
0.029241,0.0031456,0.0057141,9.0842e-05,0.0017415,-0.00024911,0,0,0.0051644,-0.0021458,0,-0.00064768,0,0,0,0.0057252,7.9829e-05,0.0017415,-2.5315,0.0025155,0.005025,4.1954e-09,0.56,0.5,0
0.029346,0.0031971,0.0058699,0.00010802,0.0017934,-9.4613e-05,0,0,0.0052995,-0.002191,0,-0.00024599,0,0,0,0.0058714,0.00010647,0.0017934,-0.94049,0.0025904,0.0051338,4.504e-09,0.58,0.5,0
0.029453,0.0032432,0.0058633,9.1264e-05,0.0017864,5.9357e-05,0,0,0.0053,-0.0022037,0,0.00015433,0,0,0,0.0058639,9.0654e-05,0.0017864,0.58912,0.0025803,0.0051397,4.5004e-09,0.6,0.5,0
0.029558,0.003284,0.0056934,3.915e-05,0.0017198,0.00021547,0,0,0.0051657,-0.0021848,0,0.00056021,0,0,0,0.0057016,3.0951e-05,0.0017198,2.1792,0.0024841,0.005043,4.183e-09,0.62,0.5,0
0.029659,0.0033186,0.0051645,-0.00012636,0.0015114,0.00032764,0,0,0.004749,-0.0021291,0,0.00085185,0,0,0,0.0051847,-0.00014658,0.0015114,3.53,0.0021832,0.0047257,3.2571e-09,0.64,0.5,0
0.029748,0.0033392,0.0043286,-0.00038664,0.0011826,0.00045412,0,0,0.0040898,-0.00204,0,0.0011807,0,0,0,0.004372,-0.00042998,0.0011826,5.4512,0.0017082,0.0042327,2.0756e-09,0.66,0.5,0
0.029823,0.0033504,0.0022362,-0.0012246,0.0003035,0.00034217,0,0,0.0056493,-0.0044859,0,0.0043196,0,0,0,0.0022786,-0.0012669,0.0003035,10.225,0.00043839,0.0030771,9.4011e-10,0.68,0.5,0
0.029955,0.0033865,0.0048282,-0.0005935,0.0012704,0.00070729,0,0,0.029768,-0.014409,0,0.014763,0,0,0,0.0049225,-0.00068778,0.0012704,8.0017,0.001835,0.0049322,4.6019e-09,0.7,0.5,0
0.031477,0.0027617,0.0036788,-0.00037898,0.00098995,0.0005538,0,0,0.06991,-0.035592,0,0.028798,0,0,0,0.003753,-0.0004532,0.00098995,7.6337,0.0014299,0.003702,1.3346e-09,0.72,0.5,0
0.032751,0.0020902,0.0034053,-0.00032677,0.00092355,0.00035519,0,0,0.064525,-0.032508,0,0.01847,0,0,0,0.0034388,-0.00036027,0.00092355,5.3885,0.001334,0.0033472,1.0149e-09,0.74,0.5,0
0.034058,0.0014803,0.0035231,9.6689e-06,0.0010598,0.00031367,0,0,0.064046,-0.027304,0,0.016311,0,0,0,0.0035509,-1.8115e-05,0.0010598,5.0618,0.0015309,0.0031706,1.0219e-09,0.76,0.5,0
0.035313,0.00091467,0.0035274,0.00019952,0.0011181,0.0002891,0,0,0.062643,-0.023883,0,0.015033,0,0,0,0.0035523,0.00017459,0.0011181,4.9282,0.001615,0.0030187,9.6148e-10,0.78,0.5,0
0.036564,0.00046532,0.0035814,0.00031733,0.0011696,0.00031944,0,0,0.062706,-0.022159,0,0.016611,0,0,0,0.0036124,0.00028636,0.0011696,5.5372,0.0016894,0.0029841,9.7244e-10,0.8,0.5,0
0.037821,0.0001292,0.0036273,0.00032364,0.0011853,0.00033875,0,0,0.063493,-0.022403,0,0.017615,0,0,0,0.0036617,0.00028926,0.0011853,5.7946,0.0017121,0.0030256,1.0132e-09,0.82,0.5,0
0.039103,-0.00010922,0.0036844,0.00029881,0.001195,0.00033735,0,0,0.064726,-0.0233,0,0.017542,0,0,0,0.0037177,0.00026553,0.001195,5.6352,0.0017261,0.003094,1.0712e-09,0.84,0.5,0
0.040411,-0.00027619,0.003734,0.00026208,0.0011988,0.00031811,0,0,0.065914,-0.024355,0,0.016542,0,0,0,0.0037629,0.00023318,0.0011988,5.192,0.0017316,0.0031596,1.1244e-09,0.86,0.5,0
0.04174,-0.00039111,0.0037731,0.00022116,0.0011983,0.00028734,0,0,0.066946,-0.025405,0,0.014941,0,0,0,0.0037962,0.00019807,0.0011983,4.5951,0.0017309,0.0032169,1.169e-09,0.88,0.5,0
0.043088,-0.0004684,0.0038037,0.00018156,0.0011956,0.0002486,0,0,0.067811,-0.026365,0,0.012927,0,0,0,0.0038207,0.00016458,0.0011956,3.9079,0.001727,0.0032651,1.2052e-09,0.9,0.5,0
0.044452,-0.00051893,0.0038272,0.00014662,0.0011921,0.00020422,0,0,0.068511,-0.027183,0,0.010619,0,0,0,0.0038385,0.00013532,0.0011921,3.1662,0.001722,0.003304,1.2337e-09,0.92,0.5,0
0.045829,-0.00055078,0.0038444,0.0001183,0.0011888,0.00015596,0,0,0.069046,-0.027834,0,0.0081102,0,0,0,0.003851,0.00011179,0.0011888,2.3927,0.0017172,0.0033338,1.255e-09,0.94,0.5,0
0.047214,-0.00056972,0.0038563,9.7634e-05,0.0011862,0.00010519,0,0,0.069422,-0.028302,0,0.00547,0,0,0,0.0038592,9.4692e-05,0.0011862,1.6019,0.0017133,0.0033547,1.2696e-09,0.96,0.5,0
0.048606,-0.00057962,0.0038631,8.5096e-05,0.0011845,5.2938e-05,0,0,0.069645,-0.028584,0,0.0027528,0,0,0,0.0038639,8.4354e-05,0.0011845,0.80262,0.0017109,0.0033671,1.2782e-09,0.98,0.5,0
0.05,-0.00058268,0.0038654,8.0898e-05,0.0011839,-2.9436e-06,0,0,0.069719,-0.028678,0,-0.00015307,0,0,0,0.0038654,8.0896e-05,0.0011839,-0.044565,0.0017101,0.0033711,1.281e-09,1,0.5,0
0,0,0.0033229,0.0014241,0.0014241,-0.00019627,0,0,0.049368,3.2526e-19,0,-0.010206,0,0,0,0.0033429,0.001404,0.0014241,-5.8401,0.002057,0.001929,3.685e-10,0,0.52,0
0.00098736,-0.00020412,0.0033123,0.0013081,0.0013861,-0.00019686,0,0,0.05008,-0.0020278,0,-0.010237,0,0,0,0.0033315,0.001289,0.0013861,-5.5572,0.0020022,0.0019957,4.0496e-10,0.02,0.52,0
0.0020032,-0.00037971,0.0033502,0.0012177,0.0013703,-0.00018825,0,0,0.051475,-0.0039697,0,-0.0097889,0,0,0,0.0033667,0.0012012,0.0013703,-5.0062,0.0019794,0.002086,4.559e-10,0.04,0.52,0
0.0030464,-0.00053145,0.0033865,0.0011319,0.0013555,-0.0001857,0,0,0.052806,-0.0058148,0,-0.0096566,0,0,0,0.0034017,0.0011167,0.0013555,-4.6772,0.001958,0.0021755,5.0737e-10,0.06,0.52,0
0.0041155,-0.00066301,0.0034211,0.0010512,0.0013417,-0.00018827,0,0,0.054064,-0.0075525,0,-0.00979,0,0,0,0.0034359,0.0010363,0.0013417,-4.514,0.001938,0.0022624,5.5841e-10,0.08,0.52,0
0.0052089,-0.00077725,0.0034534,0.00097607,0.0013288,-0.00019518,0,0,0.055239,-0.009172,0,-0.010149,0,0,0,0.0034687,0.00096079,0.0013288,-4.4773,0.0019194,0.0023456,6.0818e-10,0.1,0.52,0
0.006325,-0.00087631,0.0034832,0.00090695,0.001317,-0.00020583,0,0,0.05632,-0.010662,0,-0.010703,0,0,0,0.0034995,0.0008906,0.001317,-4.5394,0.0019024,0.002424,6.5585e-10,0.12,0.52,0
0.0074617,-0.00096165,0.00351,0.00084426,0.0013063,-0.00021973,0,0,0.057296,-0.012012,0,-0.011426,0,0,0,0.003528,0.00082626,0.0013063,-4.6807,0.0018868,0.0024966,7.0064e-10,0.14,0.52,0
0.0086169,-0.0010341,0.0035333,0.00078843,0.0012965,-0.00023643,0,0,0.058156,-0.01321,0,-0.012294,0,0,0,0.0035535,0.00076821,0.0012965,-4.8872,0.0018728,0.0025623,7.4172e-10,0.16,0.52,0
0.009788,-0.0010939,0.0035526,0.00073987,0.0012877,-0.00025551,0,0,0.058886,-0.014245,0,-0.013286,0,0,0,0.0035756,0.00071684,0.0012877,-5.1485,0.0018601,0.0026204,7.7829e-10,0.18,0.52,0
0.010972,-0.0011405,0.0035673,0.00069891,0.0012798,-0.00027652,0,0,0.059473,-0.015104,0,-0.014379,0,0,0,0.0035937,0.00067249,0.0012798,-5.4565,0.0018487,0.0026698,8.0948e-10,0.2,0.52,0
0.012167,-0.0011725,0.0035765,0.00066579,0.0012727,-0.00029893,0,0,0.0599,-0.015779,0,-0.015544,0,0,0,0.0036069,0.00063541,0.0012727,-5.8035,0.0018383,0.0027097,8.3437e-10,0.22,0.52,0
0.013368,-0.0011879,0.0035795,0.00064061,0.001266,-0.00032208,0,0,0.06015,-0.016261,0,-0.016748,0,0,0,0.0036144,0.00060573,0.001266,-6.1814,0.0018287,0.0027389,8.5202e-10,0.24,0.52,0
0.014573,-0.0011833,0.0035752,0.00062319,0.0012595,-0.00034506,0,0,0.060208,-0.016545,0,-0.017943,0,0,0,0.003615,0.00058339,0.0012595,-6.5792,0.0018193,0.0027565,8.6139e-10,0.26,0.52,0
0.015777,-0.001154,0.0035623,0.00061292,0.0012526,-0.00036663,0,0,0.060053,-0.016631,0,-0.019065,0,0,0,0.0036072,0.00056802,0.0012526,-6.9807,0.0018093,0.0027613,8.6139e-10,0.28,0.52,0
0.016975,-0.0010933,0.0035394,0.00060848,0.0012444,-0.00038494,0,0,0.059671,-0.016533,0,-0.020017,0,0,0,0.0035891,0.00055876,0.0012444,-7.3589,0.0017974,0.0027524,8.5102e-10,0.3,0.52,0
0.018163,-0.00099247,0.0035053,0.00060726,0.0012338,-0.00039737,0,0,0.05906,-0.016289,0,-0.020663,0,0,0,0.0035588,0.00055376,0.0012338,-7.6677,0.0017821,0.0027293,8.2976e-10,0.32,0.52,0
0.019337,-0.00083973,0.0034604,0.00060434,0.0012194,-0.00040021,0,0,0.058265,-0.015992,0,-0.020811,0,0,0,0.0035154,0.00054932,0.0012194,-7.8279,0.0017614,0.0026943,7.989e-10,0.34,0.52,0
0.020494,-0.00062014,0.0034093,0.00058986,0.0011997,-0.00039037,0,0,0.057448,-0.015857,0,-0.020299,0,0,0,0.0034623,0.00053681,0.0011997,-7.7391,0.001733,0.0026568,7.6477e-10,0.36,0.52,0
0.021635,-0.00031912,0.0033542,0.00053975,0.0011682,-0.0003689,0,0,0.056835,-0.016339,0,-0.019183,0,0,0,0.0034017,0.0004922,0.0011682,-7.3449,0.0016874,0.0026373,7.3758e-10,0.38,0.52,0
0.022767,7.3387e-05,0.0033068,0.00043832,0.0011235,-0.00035285,0,0,0.056764,-0.017815,0,-0.018348,0,0,0,0.0033495,0.00039555,0.0011235,-6.9108,0.0016229,0.0026656,7.3371e-10,0.4,0.52,0
0.023906,0.00054621,0.0032411,0.00025658,0.0010493,-0.00035694,0,0,0.056986,-0.020611,0,-0.018561,0,0,0,0.0032832,0.00021448,0.0010493,-6.7261,0.0015156,0.0027481,7.4366e-10,0.42,0.52,0
0.025047,0.0010854,0.0032178,8.9188e-05,0.00099208,-0.00042368,0,0,0.057868,-0.023475,0,-0.022031,0,0,0,0.0032741,3.2827e-05,0.00099208,-7.5773,0.001433,0.0028839,7.8811e-10,0.44,0.52,0
0.026221,0.0016361,0.0030932,-0.00017588,0.00087519,-0.00048991,0,0,0.057668,-0.027328,0,-0.025475,0,0,0,0.003165,-0.00024772,0.00087519,-8.3424,0.0012642,0.0030126,7.7509e-10,0.46,0.52,0
0.027354,0.0022473,0.0034379,-0.00017559,0.0009787,-0.00070913,0,0,0.06394,-0.030011,0,-0.036875,0,0,0,0.0035721,-0.00030977,0.0009787,-10.715,0.0014137,0.0034245,1.1219e-09,0.48,0.52,0
0.028778,0.0028388,0.0048273,-0.0011553,0.0011016,-0.00096673,0,0,0.028538,-0.012578,0,-0.021914,0,0,0,0.0050033,-0.0013313,0.0011016,-11.028,0.0015912,0.00554,5.0356e-09,0.5,0.52,0
0.028922,0.0029773,0.0039808,0.00024034,0.0012663,-0.0007573,0,0,0.0067215,-0.0078299,0,-0.026472,0,0,0,0.0043383,-0.00011717,0.0012663,-19.324,0.0018292,0.0039991,4.6457e-09,0.52,0.52,0
0.029047,0.0030417,0.0035668,-7.7486e-06,0.0010677,-0.00062732,0,0,0.0061881,-0.0059596,0,-0.017468,0,0,0,0.0037982,-0.00023915,0.0010677,-18.82,0.0015422,0.0035919,3.7194e-09,0.54,0.52,0
0.02917,0.0030985,0.0035268,7.413e-07,0.0010582,-0.00034723,0,0,0.0061125,-0.0051128,0,-0.0098242,0,0,0,0.003626,-9.8461e-05,0.0010582,-14.794,0.0015286,0.0033164,3.5006e-09,0.56,0.52,0
0.029292,0.0031492,0.0035164,-9.9062e-06,0.0010519,-0.00012072,0,0,0.0061024,-0.004874,0,-0.0033092,0,0,0,0.003531,-2.4513e-05,0.0010519,-6.8034,0.0015195,0.0031679,3.4501e-09,0.58,0.52,0
0.029414,0.0031951,0.0035118,-2.6837e-05,0.0010455,9.6522e-05,0,0,0.0061071,-0.005016,0,0.0029115,0,0,0,0.003523,-3.7954e-05,0.0010455,5.9205,0.0015102,0.0031722,3.4549e-09,0.6,0.52,0
0.029536,0.003236,0.003515,-5.0035e-05,0.0010395,0.00032395,0,0,0.0061299,-0.0055501,0,0.0094582,0,0,0,0.0036045,-0.00013952,0.0010395,13.984,0.0015015,0.0033321,3.5203e-09,0.62,0.52,0
0.029659,0.0032707,0.0035486,-9.88e-05,0.0010349,0.00060784,0,0,0.0062242,-0.0067343,0,0.017185,0,0,0,0.0037647,-0.00031499,0.0010349,18.055,0.0014949,0.0036265,3.7639e-09,0.64,0.52,0
0.029785,0.0032976,0.0039821,0.00012493,0.0012321,0.00072442,0,0,0.0068095,-0.0090346,0,0.026274,0,0,0,0.0043186,-0.00021155,0.0012321,18.436,0.0017797,0.0040628,4.802e-09,0.66,0.52,0
0.029931,0.0032452,0.0047778,-0.0014753,0.00099076,0.00090962,0,0,0.028907,-0.014131,0,0.020722,0,0,0,0.0049287,-0.0016261,0.00099076,10.068,0.0014311,0.0057199,4.7964e-09,0.68,0.52,0
0.031373,0.0026653,0.0034019,-0.0004047,0.00089915,0.00065122,0,0,0.065071,-0.0339,0,0.033864,0,0,0,0.0035102,-0.00051302,0.00089915,9.4444,0.0012988,0.0035354,1.1102e-09,0.7,0.52,0
0.032534,0.0020651,0.0030762,-0.00039447,0.00080452,0.0004241,0,0,0.059064,-0.031174,0,0.022053,0,0,0,0.0031273,-0.00044554,0.00080452,6.8667,0.0011621,0.0031403,7.8326e-10,0.72,0.52,0
0.033735,0.0015086,0.0031992,-0.00014525,0.00091619,0.00034156,0,0,0.059359,-0.027598,0,0.017761,0,0,0,0.0032337,-0.00017978,0.00091619,5.772,0.0013234,0.0030186,8.1074e-10,0.74,0.52,0
0.034908,0.00095356,0.0032294,1.714e-05,0.00097395,0.00026348,0,0,0.058641,-0.024877,0,0.013701,0,0,0,0.0032508,-4.3282e-06,0.00097395,4.6581,0.0014068,0.0028929,7.81e-10,0.76,0.52,0
0.036081,0.00045573,0.0032991,0.00019051,0.0010469,0.00024944,0,0,0.058558,-0.022266,0,0.012971,0,0,0,0.003319,0.00017062,0.0010469,4.5587,0.0015122,0.0028145,7.8198e-10,0.78,0.52,0
0.037251,3.2907e-05,0.0033532,0.00028169,0.0010905,0.00025868,0,0,0.058831,-0.021028,0,0.013452,0,0,0,0.0033748,0.00026005,0.0010905,4.7806,0.0015751,0.0027937,7.9531e-10,0.8,0.52,0
0.038434,-0.00030131,0.0034169,0.00031582,0.0011198,0.00027469,0,0,0.059725,-0.020904,0,0.014284,0,0,0,0.0034411,0.00029168,0.0011198,5.0231,0.0016175,0.0028278,8.3433e-10,0.82,0.52,0
0.03964,-0.0005551,0.0034798,0.00030849,0.0011365,0.00027918,0,0,0.060926,-0.021528,0,0.014517,0,0,0,0.0035042,0.0002841,0.0011365,4.9927,0.0016416,0.0028897,8.855e-10,0.84,0.52,0
0.040871,-0.0007423,0.0035392,0.00028364,0.0011469,0.00026958,0,0,0.062201,-0.022443,0,0.014018,0,0,0,0.0035614,0.00026147,0.0011469,4.7019,0.0016566,0.0029583,9.3915e-10,0.86,0.52,0
0.042128,-0.00087788,0.0035901,0.00025192,0.0011526,0.00024802,0,0,0.063375,-0.023418,0,0.012897,0,0,0,0.0036085,0.00023359,0.0011526,4.226,0.0016649,0.0030221,9.8808e-10,0.88,0.52,0
0.043406,-0.00097425,0.0036316,0.00021922,0.0011553,0.00021753,0,0,0.064386,-0.024337,0,0.011312,0,0,0,0.0036454,0.00020541,0.0011553,3.6328,0.0016687,0.0030771,1.0298e-09,0.9,0.52,0
0.044703,-0.0010412,0.0036642,0.00018929,0.001156,0.00018054,0,0,0.065212,-0.025136,0,0.009388,0,0,0,0.0036735,0.00017993,0.001156,2.9662,0.0016698,0.0031222,1.0635e-09,0.92,0.52,0
0.046015,-0.0010861,0.0036886,0.00016438,0.0011559,0.00013893,0,0,0.06585,-0.025779,0,0.0072243,0,0,0,0.003694,0.00015891,0.0011559,2.254,0.0016696,0.003157,1.0894e-09,0.94,0.52,0
0.047337,-0.0011145,0.0037055,0.00014588,0.0011554,9.4199e-05,0,0,0.066302,-0.026248,0,0.0048984,0,0,0,0.003708,0.00014338,0.0011554,1.5148,0.0016689,0.0031817,1.1075e-09,0.96,0.52,0
0.048667,-0.0011302,0.0037154,0.00013452,0.001155,4.7553e-05,0,0,0.066571,-0.026532,0,0.0024728,0,0,0,0.003716,0.00013389,0.001155,0.76069,0.0016683,0.0031964,1.1183e-09,0.98,0.52,0
0.05,-0.0011351,0.0037187,0.0001307,0.0011548,-4.7833e-06,0,0,0.066661,-0.026627,0,-0.00024873,0,0,0,0.0037187,0.0001307,0.0011548,-0.076384,0.0016681,0.0032013,1.1219e-09,1,0.52,0
0,0,0.0032719,0.0014022,0.0014022,-0.00023361,0,0,0.048611,-1.0842e-19,0,-0.012148,0,0,0,0.0033006,0.0013735,0.0014022,-7.0154,0.0020254,0.0019129,3.5924e-10,0,0.54,0
0.00097222,-0.00024296,0.0032623,0.0012959,0.0013674,-0.00023388,0,0,0.049265,-0.001861,0,-0.012162,0,0,0,0.0032897,0.0012684,0.0013674,-6.6902,0.0019752,0.0019736,3.9149e-10,0.02,0.54,0
0.0019706,-0.00045594,0.0032968,0.0012117,0.0013526,-0.00022396,0,0,0.05055,-0.0036622,0,-0.011646,0,0,0,0.0033206,0.0011879,0.0013526,-6.062,0.0019537,0.0020553,4.3628e-10,0.04,0.54,0
0.0029942,-0.00064331,0.0033298,0.0011312,0.0013383,-0.00021971,0,0,0.05178,-0.0053857,0,-0.011425,0,0,0,0.0033516,0.0011094,0.0013383,-5.651,0.0019331,0.0021369,4.8185e-10,0.06,0.54,0
0.0040418,-0.0008085,0.0033609,0.0010549,0.0013247,-0.00022016,0,0,0.05294,-0.0070158,0,-0.011448,0,0,0,0.0033817,0.0010341,0.0013247,-5.4051,0.0019135,0.0022166,5.271e-10,0.08,0.54,0
0.0051118,-0.0009541,0.0033894,0.00098351,0.0013119,-0.00022453,0,0,0.054016,-0.0085374,0,-0.011676,0,0,0,0.0034102,0.00096273,0.0013119,-5.2864,0.0018949,0.0022929,5.7102e-10,0.1,0.54,0
0.0062024,-0.001082,0.0034149,0.00091757,0.0012997,-0.00023219,0,0,0.054994,-0.0099365,0,-0.012074,0,0,0,0.0034363,0.00089616,0.0012997,-5.267,0.0018774,0.0023643,6.1267e-10,0.12,0.54,0
0.0073116,-0.0011934,0.0034369,0.00085759,0.0012883,-0.0002426,0,0,0.055862,-0.011199,0,-0.012615,0,0,0,0.0034595,0.00083497,0.0012883,-5.3268,0.0018609,0.0024298,6.5112e-10,0.14,0.54,0
0.0084369,-0.0012889,0.0034547,0.00080404,0.0012776,-0.00025526,0,0,0.056604,-0.012313,0,-0.013273,0,0,0,0.0034791,0.00077968,0.0012776,-5.4508,0.0018454,0.0024881,6.8547e-10,0.16,0.54,0
0.0095757,-0.0013684,0.0034677,0.00075729,0.0012675,-0.00026967,0,0,0.057206,-0.013266,0,-0.014023,0,0,0,0.0034943,0.00073072,0.0012675,-5.6271,0.0018308,0.0025381,7.1481e-10,0.18,0.54,0
0.010725,-0.0014313,0.0034753,0.00071764,0.0012579,-0.00028533,0,0,0.057653,-0.014046,0,-0.014837,0,0,0,0.0035045,0.00068843,0.0012579,-5.8457,0.0018169,0.002579,7.3823e-10,0.2,0.54,0
0.011882,-0.001476,0.0034766,0.00068522,0.0012485,-0.00030158,0,0,0.057929,-0.014646,0,-0.015682,0,0,0,0.0035088,0.00065301,0.0012485,-6.0965,0.0018035,0.0026095,7.5485e-10,0.22,0.54,0
0.013042,-0.0015002,0.0034707,0.00065993,0.0012392,-0.00031764,0,0,0.058019,-0.015061,0,-0.016518,0,0,0,0.0035061,0.00062449,0.0012392,-6.368,0.0017899,0.0026288,7.638e-10,0.24,0.54,0
0.014203,-0.0015004,0.0034566,0.00064136,0.0012294,-0.00033248,0,0,0.057908,-0.015289,0,-0.017289,0,0,0,0.0034954,0.00060262,0.0012294,-6.6448,0.0017758,0.0026358,7.6428e-10,0.26,0.54,0
0.015359,-0.0014722,0.0034334,0.00062852,0.0012186,-0.00034472,0,0,0.057586,-0.015342,0,-0.017926,0,0,0,0.0034752,0.00058677,0.0012186,-6.9047,0.0017602,0.00263,7.5568e-10,0.28,0.54,0
0.016506,-0.0014093,0.0034002,0.00061959,0.0012059,-0.00035256,0,0,0.057051,-0.015245,0,-0.018333,0,0,0,0.0034442,0.00057558,0.0012059,-7.1146,0.0017419,0.0026112,7.3785e-10,0.3,0.54,0
0.017641,-0.0013038,0.0033568,0.0006113,0.0011904,-0.00035379,0,0,0.056326,-0.015058,0,-0.018397,0,0,0,0.0034017,0.00056644,0.0011904,-7.2259,0.0017195,0.0025805,7.1156e-10,0.32,0.54,0
0.018759,-0.0011463,0.0033044,0.00059798,0.0011707,-0.00034637,0,0,0.055477,-0.014891,0,-0.018011,0,0,0,0.0033481,0.00055435,0.0011707,-7.1784,0.001691,0.0025422,6.7952e-10,0.34,0.54,0
0.01986,-0.00092648,0.0032449,0.00056949,0.0011443,-0.00032981,0,0,0.054616,-0.014946,0,-0.01715,0,0,0,0.003285,0.00052944,0.0011443,-6.9249,0.0016529,0.0025053,6.4659e-10,0.36,0.54,0
0.020944,-0.00063554,0.0031816,0.00051383,0.0011086,-0.00030861,0,0,0.053897,-0.015465,0,-0.016048,0,0,0,0.0032168,0.0004786,0.0011086,-6.5135,0.0016014,0.0024839,6.1966e-10,0.38,0.54,0
0.022016,-0.00027121,0.0031104,0.00041646,0.0010581,-0.0002919,0,0,0.053362,-0.016682,0,-0.015179,0,0,0,0.0031417,0.0003852,0.0010581,-6.1136,0.0015283,0.0024892,6.0135e-10,0.4,0.54,0
0.023078,0.00016123,0.0030334,0.0002858,0.00099577,-0.00029704,0,0,0.052979,-0.018459,0,-0.015446,0,0,0,0.0030652,0.00025406,0.00099577,-6.1002,0.0014383,0.0025234,5.9121e-10,0.42,0.54,0
0.024135,0.00064226,0.0029158,0.00011391,0.0009089,-0.00032675,0,0,0.052178,-0.02067,0,-0.016991,0,0,0,0.0029534,7.6303e-05,0.0009089,-6.5645,0.0013129,0.0025642,5.6818e-10,0.44,0.54,0
0.025165,0.0011621,0.0027785,-3.501e-05,0.00082304,-0.00040854,0,0,0.050841,-0.022309,0,-0.021244,0,0,0,0.0028366,-9.3134e-05,0.00082304,-8.0971,0.0011888,0.0025959,5.3575e-10,0.46,0.54,0
0.026169,0.0016811,0.0023648,-0.00033434,0.00060913,-0.00047759,0,0,0.045647,-0.02453,0,-0.024834,0,0,0,0.0024468,-0.00041635,0.00060913,-9.744,0.00087985,0.0025126,3.8125e-10,0.48,0.54,0
0.026991,0.0022783,0.0019678,-0.00060215,0.00040969,-0.00078079,0,0,0.04051,-0.026308,0,-0.040601,0,0,0,0.0021864,-0.00082077,0.00040969,-15.642,0.00059178,0.0026186,2.8438e-10,0.5,0.54,0
0.027789,0.0027038,0.0016787,-0.00034091,0.00040133,-0.00067075,0,0,0.033211,-0.019298,0,-0.034879,0,0,0,0.0018812,-0.00054338,0.00040133,-16.797,0.0005797,0.0021167,1.8077e-10,0.52,0.54,0
0.02832,0.0028496,0.0011882,-0.00027644,0.00027353,-0.00052854,0,0,0.023781,-0.014299,0,-0.027484,0,0,0,0.001359,-0.00044725,0.00027353,-17.91,0.00039509,0.0015749,6.8438e-11,0.54,0.54,0
0.02874,0.0029411,0.00099212,-0.00024106,0.00022532,-0.00031342,0,0,0.019937,-0.012126,0,-0.016298,0,0,0,0.0010672,-0.00031614,0.00022532,-13.472,0.00032546,0.0012074,3.3044e-11,0.56,0.54,0
0.029117,0.0030021,0.00092122,-0.00022903,0.00020766,-0.00010782,0,0,0.018553,-0.011354,0,-0.0056068,0,0,0,0.00093124,-0.00023905,0.00020766,-5.3092,0.00029995,0.0010229,2.1774e-11,0.58,0.54,0
0.029482,0.0030426,0.00091576,-0.00024676,0.0002007,9.4678e-05,0,0,0.018592,-0.011634,0,0.0049233,0,0,0,0.00092342,-0.00025442,0.0002007,4.6257,0.0002899,0.0010288,2.1328e-11,0.6,0.54,0
0.029861,0.003062,0.00097625,-0.00029535,0.00020427,0.00030067,0,0,0.020071,-0.01299,0,0.015635,0,0,0,0.0010438,-0.00036286,0.00020427,12.655,0.00029506,0.0012258,3.1007e-11,0.62,0.54,0
0.030285,0.0030492,0.0011651,-0.00037039,0.0002384,0.00051626,0,0,0.024093,-0.015828,0,0.026845,0,0,0,0.0013225,-0.00052782,0.0002384,16.959,0.00034436,0.0016103,6.2674e-11,0.64,0.54,0
0.030825,0.0029778,0.0016581,-0.00048181,0.00035289,0.00065367,0,0,0.033936,-0.021702,0,0.033991,0,0,0,0.001842,-0.00066568,0.00035289,15.711,0.00050974,0.0021844,1.703e-10,0.66,0.54,0
0.031643,0.0026078,0.00194,-0.00081003,0.00033899,0.00074618,0,0,0.041626,-0.029874,0,0.038801,0,0,0,0.0021294,-0.00099945,0.00033899,14.244,0.00048965,0.0027191,2.5508e-10,0.68,0.54,0
0.03249,0.0020305,0.0023461,-0.00052951,0.00054498,0.00042119,0,0,0.046829,-0.027937,0,0.021902,0,0,0,0.0024065,-0.00058993,0.00054498,8.1637,0.00078719,0.0026203,3.7451e-10,0.7,0.54,0
0.033516,0.0015148,0.0027568,-0.00024617,0.0007532,0.0003367,0,0,0.052095,-0.025984,0,0.017509,0,0,0,0.0027941,-0.00028346,0.0007532,6.3196,0.001088,0.0027121,5.431e-10,0.72,0.54,0
0.034573,0.00098631,0.0028989,-0.00010472,0.00083825,0.00024247,0,0,0.053576,-0.024517,0,0.012608,0,0,0,0.0029183,-0.00012417,0.00083825,4.5856,0.0012108,0.0026935,5.8882e-10,0.74,0.54,0
0.035659,0.00048524,0.0030179,5.6858e-05,0.00092244,0.00020035,0,0,0.054483,-0.022505,0,0.010418,0,0,0,0.0030314,4.3364e-05,0.00092244,3.8532,0.0013324,0.0026598,6.2256e-10,0.76,0.54,0
0.036753,2.4045e-05,0.003098,0.00017767,0.00098271,0.00018482,0,0,0.054998,-0.020931,0,0.0096106,0,0,0,0.0031097,0.00016602,0.00098271,3.6069,0.0014195,0.0026321,6.4157e-10,0.78,0.54,0
0.037859,-0.00037581,0.0031731,0.00026232,0.0010306,0.0001925,0,0,0.055704,-0.019976,0,0.01001,0,0,0,0.0031857,0.00024965,0.0010306,3.7673,0.0014887,0.0026339,6.678e-10,0.8,0.54,0
0.038981,-0.00070697,0.0032423,0.00030156,0.0010631,0.0002056,0,0,0.056657,-0.019801,0,0.010691,0,0,0,0.0032566,0.00028725,0.0010631,3.9801,0.0015357,0.0026674,7.0386e-10,0.82,0.54,0
0.040125,-0.00097032,0.0033098,0.0003089,0.0010856,0.00021397,0,0,0.057829,-0.020195,0,0.011126,0,0,0,0.003325,0.00029372,0.0010856,4.0579,0.0015681,0.0027231,7.4904e-10,0.84,0.54,0
0.041294,-0.0011739,0.0033725,0.00029632,0.0011006,0.00021217,0,0,0.059068,-0.020913,0,0.011033,0,0,0,0.0033871,0.00028175,0.0011006,3.927,0.0015898,0.0027876,7.9738e-10,0.86,0.54,0
0.042488,-0.0013278,0.0034281,0.00027424,0.0011107,0.00019987,0,0,0.060252,-0.021748,0,0.010393,0,0,0,0.0034407,0.00026162,0.0011107,3.6118,0.0016043,0.002851,8.4394e-10,0.88,0.54,0
0.043704,-0.0014419,0.0034749,0.000249,0.0011172,0.00017862,0,0,0.0613,-0.022572,0,0.009288,0,0,0,0.0034847,0.00023914,0.0011172,3.1596,0.0016137,0.0029078,8.8539e-10,0.9,0.54,0
0.04494,-0.0015244,0.0035125,0.00022463,0.0011211,0.00015036,0,0,0.062176,-0.023309,0,0.0078188,0,0,0,0.0035194,0.00021776,0.0011211,2.613,0.0016194,0.0029553,9.2007e-10,0.92,0.54,0
0.046191,-0.0015819,0.0035412,0.00020368,0.0011235,0.00011691,0,0,0.062861,-0.023914,0,0.0060795,0,0,0,0.0035453,0.00019959,0.0011235,2.0038,0.0016228,0.0029927,9.4726e-10,0.94,0.54,0
0.047454,-0.0016196,0.0035613,0.00018779,0.0011247,7.9836e-05,0,0,0.063352,-0.024361,0,0.0041515,0,0,0,0.0035632,0.0001859,0.0011247,1.3549,0.0016246,0.0030194,9.667e-10,0.96,0.54,0
0.048725,-0.0016409,0.0035733,0.00017792,0.0011254,4.047e-05,0,0,0.063645,-0.024633,0,0.0021044,0,0,0,0.0035737,0.00017744,0.0011254,0.68279,0.0016255,0.0030354,9.7835e-10,0.98,0.54,0
0.05,-0.0016478,0.0035772,0.00017458,0.0011255,-6.6e-06,0,0,0.063743,-0.024725,0,-0.0003432,0,0,0,0.0035772,0.00017457,0.0011255,-0.11113,0.0016258,0.0030408,9.8224e-10,1,0.54,0
0,0,0.0032201,0.0013801,0.0013801,-0.00026785,0,0,0.047842,-4.3368e-19,0,-0.013928,0,0,0,0.0032583,0.0013419,0.0013801,-8.1158,0.0019934,0.0018977,3.505e-10,0,0.56,0
0.00095684,-0.00027856,0.0032114,0.0012826,0.0013482,-0.00026774,0,0,0.048443,-0.0017063,0,-0.013922,0,0,0,0.0032479,0.0012461,0.0013482,-7.7578,0.0019474,0.0019527,3.7891e-10,0.02,0.56,0
0.0019377,-0.0005262,0.0032429,0.0012042,0.0013341,-0.0002566,0,0,0.049628,-0.0033776,0,-0.013343,0,0,0,0.0032747,0.0011724,0.0013341,-7.0649,0.0019271,0.0020263,4.1811e-10,0.04,0.56,0
0.0029419,-0.00074688,0.0032729,0.0011285,0.0013204,-0.00025056,0,0,0.050765,-0.0049905,0,-0.013029,0,0,0,0.0033018,0.0010996,0.0013204,-6.5765,0.0019073,0.0021005,4.583e-10,0.06,0.56,0
0.0039683,-0.00094364,0.0033008,0.0010562,0.0013071,-0.00024867,0,0,0.051836,-0.0065242,0,-0.012931,0,0,0,0.003328,0.0010289,0.0013071,-6.2465,0.001888,0.0021734,4.9828e-10,0.08,0.56,0
0.0050154,-0.0011187,0.0033259,0.00098803,0.0012942,-0.00025016,0,0,0.052825,-0.0079601,0,-0.013008,0,0,0,0.0033524,0.00096156,0.0012942,-6.0396,0.0018694,0.0022431,5.3693e-10,0.1,0.56,0
0.0060813,-0.0012738,0.0033477,0.00092477,0.0012817,-0.00025438,0,0,0.053715,-0.0092814,0,-0.013228,0,0,0,0.0033741,0.00089835,0.0012817,-5.9292,0.0018514,0.0023081,5.7322e-10,0.12,0.56,0
0.007164,-0.0014096,0.0033656,0.00086696,0.0012698,-0.00026076,0,0,0.054491,-0.010473,0,-0.013559,0,0,0,0.0033925,0.00084003,0.0012698,-5.8948,0.0018341,0.002367,6.0615e-10,0.14,0.56,0
0.008261,-0.0015266,0.0033788,0.00081508,0.0012581,-0.00026876,0,0,0.055136,-0.01152,0,-0.013976,0,0,0,0.0034066,0.00078721,0.0012581,-5.9208,0.0018173,0.0024186,6.3476e-10,0.16,0.56,0
0.0093694,-0.0016245,0.0033867,0.0007695,0.0012469,-0.00027785,0,0,0.055636,-0.012411,0,-0.014448,0,0,0,0.0034159,0.00074033,0.0012469,-5.9938,0.001801,0.0024617,6.5814e-10,0.18,0.56,0
0.010486,-0.0017023,0.0033886,0.00073044,0.0012357,-0.00028744,0,0,0.055976,-0.013137,0,-0.014947,0,0,0,0.0034194,0.00069971,0.0012357,-6.1017,0.0017849,0.0024952,6.7543e-10,0.2,0.56,0
0.011609,-0.0017584,0.0033838,0.00069791,0.0012245,-0.00029684,0,0,0.056142,-0.013692,0,-0.015436,0,0,0,0.0034162,0.00066549,0.0012245,-6.2321,0.0017687,0.0025182,6.8586e-10,0.22,0.56,0
0.012732,-0.0017904,0.0033715,0.00067164,0.0012129,-0.00030519,0,0,0.056122,-0.014074,0,-0.01587,0,0,0,0.0034055,0.00063757,0.0012129,-6.3697,0.001752,0.0025299,6.8879e-10,0.24,0.56,0
0.013853,-0.0017949,0.0033509,0.00065095,0.0012005,-0.00031143,0,0,0.055908,-0.014289,0,-0.016195,0,0,0,0.0033863,0.00061549,0.0012005,-6.4954,0.0017341,0.0025296,6.8376e-10,0.26,0.56,0
0.014968,-0.0017676,0.0033213,0.00063456,0.0011868,-0.00031425,0,0,0.055499,-0.014357,0,-0.016341,0,0,0,0.0033576,0.00059829,0.0011868,-6.583,0.0017142,0.0025172,6.7068e-10,0.28,0.56,0
0.016073,-0.0017031,0.0032826,0.00062029,0.0011709,-0.00031212,0,0,0.054905,-0.014315,0,-0.01623,0,0,0,0.0033187,0.00058419,0.0011709,-6.5981,0.0016913,0.0024935,6.5007e-10,0.3,0.56,0
0.017165,-0.0015948,0.0032349,0.00060465,0.0011519,-0.00030355,0,0,0.054158,-0.014227,0,-0.015784,0,0,0,0.0032695,0.00057007,0.0011519,-6.4986,0.0016638,0.0024606,6.2335e-10,0.32,0.56,0
0.01824,-0.0014354,0.003179,0.00058218,0.0011284,-0.00028763,0,0,0.053317,-0.014201,0,-0.014957,0,0,0,0.0032105,0.0005507,0.0011284,-6.2452,0.0016299,0.0024232,5.9312e-10,0.34,0.56,0
0.019297,-0.001218,0.0031164,0.0005457,0.0010986,-0.00026521,0,0,0.052462,-0.014376,0,-0.013791,0,0,0,0.0031435,0.00051862,0.0010986,-5.8292,0.0015869,0.0023883,5.6298e-10,0.36,0.56,0
0.020338,-0.00093772,0.0030469,0.00048673,0.0010601,-0.00023976,0,0,0.051657,-0.014907,0,-0.012467,0,0,0,0.0030691,0.00046447,0.0010601,-5.3043,0.0015312,0.0023638,5.3593e-10,0.38,0.56,0
0.021364,-0.00059389,0.0029691,0.00040095,0.001011,-0.00021818,0,0,0.050911,-0.015862,0,-0.011345,0,0,0,0.0029876,0.00038255,0.001011,-4.8216,0.0014604,0.0023545,5.1284e-10,0.4,0.56,0
0.022375,-0.00019216,0.0028738,0.00028616,0.00094797,-0.0002065,0,0,0.05007,-0.017207,0,-0.010738,0,0,0,0.0028901,0.00026978,0.00094797,-4.5342,0.0013693,0.0023556,4.8849e-10,0.42,0.56,0
0.023366,0.00025865,0.0027558,0.00015642,0.00087367,-0.00021144,0,0,0.048936,-0.018648,0,-0.010995,0,0,0,0.0027729,0.00013934,0.00087367,-4.62,0.001262,0.0023539,4.5668e-10,0.44,0.56,0
0.024332,0.00074369,0.0025787,-1.5418e-06,0.00077314,-0.00021979,0,0,0.046944,-0.020142,0,-0.011429,0,0,0,0.0025973,-2.013e-05,0.00077314,-4.8341,0.0011168,0.0023246,4.0102e-10,0.46,0.56,0
0.025244,0.0012661,0.0024186,-0.0001238,0.00068844,-0.00024055,0,0,0.044984,-0.021118,0,-0.012509,0,0,0,0.0024412,-0.00014636,0.00068844,-5.3576,0.00099442,0.0022874,3.5014e-10,0.48,0.56,0
0.026131,0.0017865,0.0021747,-0.00041096,0.00052913,-0.00024971,0,0,0.042785,-0.024442,0,-0.012985,0,0,0,0.0021986,-0.00043485,0.00052913,-5.466,0.0007643,0.0023078,2.8045e-10,0.5,0.56,0
0.026956,0.0022054,0.001929,-0.00056003,0.00041069,-0.00032852,0,0,0.039476,-0.025239,0,-0.017083,0,0,0,0.0019716,-0.00060266,0.00041069,-7.3937,0.00059321,0.0022461,2.0862e-10,0.52,0.56,0
0.02771,0.0024697,0.0017452,-0.00044588,0.00038979,-0.00030694,0,0,0.03524,-0.021728,0,-0.015961,0,0,0,0.0017874,-0.00048807,0.00038979,-7.8257,0.00056304,0.0019877,1.5458e-10,0.54,0.56,0
0.028365,0.0026134,0.0015511,-0.00040441,0.00034401,-0.0002094,0,0,0.031385,-0.019459,0,-0.010889,0,0,0,0.0015733,-0.00042658,0.00034401,-6.0439,0.0004969,0.001747,1.0537e-10,0.56,0.56,0
0.028966,0.0026951,0.0014602,-0.00039272,0.00032024,-7.351e-05,0,0,0.029639,-0.018537,0,-0.0038225,0,0,0,0.0014631,-0.00039563,0.00032024,-2.2683,0.00046257,0.0016238,8.4737e-11,0.58,0.56,0
0.029551,0.0027297,0.0014571,-0.00041028,0.00031405,6.9247e-05,0,0,0.02972,-0.018833,0,0.0036008,0,0,0,0.0014597,-0.00041284,0.00031405,2.1208,0.00045363,0.0016351,8.4365e-11,0.6,0.56,0
0.030155,0.0027164,0.001543,-0.00045788,0.00032554,0.00020429,0,0,0.031654,-0.020369,0,0.010623,0,0,0,0.0015636,-0.00047852,0.00032554,5.7707,0.00047022,0.0017818,1.0407e-10,0.62,0.56,0
0.030817,0.0026376,0.0017355,-0.00053778,0.00035932,0.00029859,0,0,0.035781,-0.023325,0,0.015527,0,0,0,0.0017741,-0.00057634,0.00035932,7.3594,0.00051901,0.0020496,1.5222e-10,0.64,0.56,0
0.031586,0.0024295,0.0019182,-0.00069657,0.00036648,0.00031085,0,0,0.040344,-0.027639,0,0.016164,0,0,0,0.0019546,-0.00073302,0.00036648,6.6872,0.00052936,0.0023404,2.032e-10,0.66,0.56,0
0.032431,0.0020502,0.0021612,-0.0005857,0.00047265,0.00021312,0,0,0.043903,-0.027517,0,0.011082,0,0,0,0.0021777,-0.00060213,0.00047265,4.4102,0.00068272,0.0024279,2.7977e-10,0.68,0.56,0
0.033342,0.0015478,0.0024062,-0.00030841,0.00062934,0.00018396,0,0,0.046199,-0.024382,0,0.0095659,0,0,0,0.0024186,-0.00032082,0.00062934,3.8592,0.00090905,0.0024092,3.6006e-10,0.7,0.56,0
0.034279,0.0010258,0.0025633,-0.0001961,0.00071015,0.00014826,0,0,0.048181,-0.023563,0,0.0077094,0,0,0,0.0025712,-0.00020404,0.00071015,3.0667,0.0010258,0.0024496,4.1593e-10,0.72,0.56,0
0.035269,0.0005279,0.002738,-4.9849e-05,0.00080645,0.0001264,0,0,0.050221,-0.022264,0,0.0065727,0,0,0,0.0027437,-5.5568e-05,0.00080645,2.5906,0.0011649,0.0024832,4.7887e-10,0.74,0.56,0
0.036287,5.3352e-05,0.0028556,6.9314e-05,0.00087748,0.00010915,0,0,0.051432,-0.021012,0,0.0056758,0,0,0,0.0028599,6.5045e-05,0.00087748,2.2399,0.0012675,0.0024901,5.1777e-10,0.76,0.56,0
0.037326,-0.00038151,0.0029512,0.00017226,0.00093704,0.00010934,0,0,0.052368,-0.019884,0,0.0056858,0,0,0,0.0029555,0.00016797,0.00093704,2.2498,0.0013535,0.0024936,5.4841e-10,0.78,0.56,0
0.038382,-0.00076612,0.0030304,0.00024432,0.00098243,0.00012033,0,0,0.053248,-0.019191,0,0.0062573,0,0,0,0.0030356,0.00023914,0.00098243,2.4685,0.0014191,0.0025088,5.7746e-10,0.8,0.56,0
0.039456,-0.0010934,0.003103,0.00028646,0.0010168,0.00013561,0,0,0.05424,-0.01899,0,0.0070519,0,0,0,0.0031095,0.00027994,0.0010168,2.7503,0.0014688,0.0025425,6.112e-10,0.82,0.56,0
0.040552,-0.0013629,0.0031704,0.0003024,0.0010418,0.00014768,0,0,0.055342,-0.019225,0,0.0076794,0,0,0,0.003178,0.00029482,0.0010418,2.94,0.0015049,0.0025917,6.4998e-10,0.84,0.56,0
0.04167,-0.0015788,0.0032327,0.00030035,0.0010599,0.0001524,0,0,0.056493,-0.019749,0,0.0079247,0,0,0,0.0032406,0.00029245,0.0010599,2.9671,0.001531,0.0026491,6.916e-10,0.86,0.56,0
0.042811,-0.0017478,0.0032884,0.00028763,0.0010728,0.00014834,0,0,0.057606,-0.020415,0,0.0077138,0,0,0,0.0032957,0.00028031,0.0010728,2.8232,0.0015496,0.0027076,7.3273e-10,0.88,0.56,0
0.043974,-0.0018771,0.0033363,0.00027004,0.0010819,0.00013602,0,0,0.058614,-0.021108,0,0.0070732,0,0,0,0.0033423,0.00026401,0.0010819,2.5351,0.0015627,0.0027617,7.7054e-10,0.9,0.56,0
0.045156,-0.0019736,0.0033755,0.00025159,0.0010881,0.00011676,0,0,0.059472,-0.02175,0,0.0060713,0,0,0,0.0033799,0.00024723,0.0010881,2.1374,0.0015718,0.0028083,8.0306e-10,0.92,0.56,0
0.046353,-0.0020427,0.0034059,0.00023501,0.0010923,9.2075e-05,0,0,0.060155,-0.022289,0,0.0047879,0,0,0,0.0034086,0.00023234,0.0010923,1.6619,0.0015777,0.0028455,8.2912e-10,0.94,0.56,0
0.047562,-0.002089,0.0034275,0.00022208,0.0010949,6.348e-05,0,0,0.060648,-0.022693,0,0.0033009,0,0,0,0.0034287,0.00022083,0.0010949,1.1341,0.0015815,0.0028724,8.4805e-10,0.96,0.56,0
0.048779,-0.0021155,0.0034404,0.00021393,0.0010963,3.2358e-05,0,0,0.060946,-0.022941,0,0.0016826,0,0,0,0.0034407,0.0002136,0.0010963,0.57454,0.0015835,0.0028887,8.595e-10,0.98,0.56,0
0.05,-0.0021241,0.0034446,0.00021114,0.0010967,-8.3068e-06,0,0,0.061046,-0.023025,0,-0.00043195,0,0,0,0.0034447,0.00021112,0.0010967,-0.14719,0.0015842,0.0028942,8.6336e-10,1,0.56,0
0,0,0.0031686,0.001358,0.001358,-0.00029924,0,0,0.047076,-2.1684e-19,0,-0.01556,0,0,0,0.0032167,0.0013098,0.001358,-9.1454,0.0019615,0.0018833,3.4233e-10,0,0.58,0
0.00094152,-0.00031121,0.0031607,0.0012684,0.0013287,-0.00029873,0,0,0.04763,-0.0015678,0,-0.015534,0,0,0,0.0032067,0.0012224,0.0013287,-8.7616,0.0019193,0.0019333,3.6736e-10,0.02,0.58,0
0.0019052,-0.00059104,0.0031894,0.0011952,0.0013154,-0.00028648,0,0,0.048725,-0.003124,0,-0.014897,0,0,0,0.0032298,0.0011549,0.0013154,-8.015,0.0019,0.0019995,4.0164e-10,0.04,0.58,0
0.0028905,-0.00084293,0.0032168,0.0011237,0.0013021,-0.0002786,0,0,0.049781,-0.0046402,0,-0.014487,0,0,0,0.0032533,0.0010872,0.0013021,-7.4534,0.0018809,0.002067,4.3706e-10,0.06,0.58,0
0.0038965,-0.0010695,0.003242,0.0010547,0.001289,-0.00027422,0,0,0.050778,-0.0060916,0,-0.014259,0,0,0,0.0032759,0.0010209,0.001289,-7.0381,0.0018619,0.0021336,4.7238e-10,0.08,0.58,0
0.0049216,-0.0012725,0.0032643,0.00098928,0.0012761,-0.00027258,0,0,0.051694,-0.0074566,0,-0.014174,0,0,0,0.0032965,0.00095708,0.0012761,-6.7378,0.0018432,0.0021974,5.0641e-10,0.1,0.58,0
0.0059642,-0.0014532,0.003283,0.00092811,0.0012633,-0.00027303,0,0,0.052512,-0.0087159,0,-0.014198,0,0,0,0.0033143,0.00089687,0.0012633,-6.5277,0.0018248,0.0022566,5.3808e-10,0.12,0.58,0
0.0070221,-0.0016123,0.0032975,0.00087186,0.0012508,-0.000275,0,0,0.053214,-0.0098527,0,-0.0143,0,0,0,0.0033283,0.00084107,0.0012508,-6.3879,0.0018067,0.0023098,5.6634e-10,0.14,0.58,0
0.0080928,-0.0017497,0.0033071,0.00082102,0.0012384,-0.00027795,0,0,0.053785,-0.010853,0,-0.014453,0,0,0,0.0033378,0.00079032,0.0012384,-6.3022,0.0017888,0.0023556,5.9025e-10,0.16,0.58,0
0.0091735,-0.0018649,0.0033111,0.00077594,0.0012261,-0.00028131,0,0,0.05421,-0.011705,0,-0.014628,0,0,0,0.003342,0.0007451,0.0012261,-6.2564,0.001771,0.0023929,6.0895e-10,0.18,0.58,0
0.010261,-0.0019568,0.0033089,0.00073676,0.0012137,-0.00028449,0,0,0.054476,-0.012401,0,-0.014793,0,0,0,0.00334,0.00070567,0.0012137,-6.2366,0.0017531,0.0024206,6.2169e-10,0.2,0.58,0
0.011352,-0.0020237,0.0032999,0.00070339,0.001201,-0.00028677,0,0,0.054572,-0.012937,0,-0.014912,0,0,0,0.0033312,0.00067209,0.001201,-6.228,0.0017347,0.0024381,6.2785e-10,0.22,0.58,0
0.012444,-0.0020631,0.0032834,0.00067537,0.0011876,-0.00028732,0,0,0.05449,-0.013319,0,-0.014941,0,0,0,0.0033147,0.00064409,0.0011876,-6.2129,0.0017155,0.0024446,6.2707e-10,0.24,0.58,0
0.013532,-0.002072,0.003259,0.00065185,0.0011733,-0.00028516,0,0,0.05423,-0.013557,0,-0.014828,0,0,0,0.0032899,0.00062102,0.0011733,-6.1695,0.0016947,0.0024401,6.1923e-10,0.26,0.58,0
0.014613,-0.0020465,0.0032264,0.00063133,0.0011573,-0.00027916,0,0,0.053797,-0.013676,0,-0.014516,0,0,0,0.0032561,0.00060164,0.0011573,-6.0708,0.0016717,0.0024249,6.0467e-10,0.28,0.58,0
0.015684,-0.0019819,0.0031857,0.00061151,0.0011392,-0.00026816,0,0,0.053209,-0.013719,0,-0.013944,0,0,0,0.0032133,0.00058387,0.0011392,-5.8845,0.0016454,0.0024005,5.8428e-10,0.3,0.58,0
0.016742,-0.0018729,0.0031371,0.00058905,0.0011179,-0.00025124,0,0,0.052501,-0.013749,0,-0.013064,0,0,0,0.0031617,0.00056451,0.0011179,-5.5777,0.0016147,0.0023694,5.5964e-10,0.32,0.58,0
0.017784,-0.0017143,0.0030816,0.00055944,0.0010923,-0.00022815,0,0,0.051721,-0.013855,0,-0.011864,0,0,0,0.0031021,0.00053897,0.0010923,-5.1273,0.0015778,0.0023361,5.33e-10,0.34,0.58,0
0.018811,-0.0015015,0.0030197,0.00051729,0.0010611,-0.00019984,0,0,0.050923,-0.014139,0,-0.010392,0,0,0,0.0030355,0.00050143,0.0010611,-4.5373,0.0015327,0.0023058,5.0677e-10,0.36,0.58,0
0.019821,-0.0012318,0.0029514,0.00045766,0.0010227,-0.00016891,0,0,0.050146,-0.014692,0,-0.0087834,0,0,0,0.0029628,0.00044627,0.0010227,-3.8574,0.0014773,0.0022835,4.8269e-10,0.38,0.58,0
0.020816,-0.00090569,0.0028748,0.00037703,0.00097553,-0.00013884,0,0,0.04938,-0.015561,0,-0.0072195,0,0,0,0.0028824,0.00036933,0.00097553,-3.1718,0.0014091,0.0022715,4.6053e-10,0.4,0.58,0
0.021796,-0.00052707,0.0027874,0.00027661,0.0009192,-0.00011316,0,0,0.048573,-0.016707,0,-0.0058843,0,0,0,0.0027925,0.00027152,0.0009192,-2.5753,0.0013277,0.0022676,4.3822e-10,0.42,0.58,0
0.022759,-0.00010368,0.0026833,0.00015652,0.00085195,-9.1139e-05,0,0,0.047615,-0.018081,0,-0.0047393,0,0,0,0.0026866,0.00015324,0.00085195,-2.0631,0.0012306,0.0022663,4.1182e-10,0.44,0.58,0
0.023701,0.00035647,0.0025749,2.6853e-05,0.00078052,-7.2743e-05,0,0,0.046654,-0.019595,0,-0.0037826,0,0,0,0.002577,2.4778e-05,0.00078052,-1.634,0.0011274,0.0022707,3.8444e-10,0.46,0.58,0
0.024625,0.00083633,0.0024535,-0.00014604,0.00069224,-5.6471e-05,0,0,0.045793,-0.021795,0,-0.0029365,0,0,0,0.0024547,-0.00014727,0.00069224,-1.2439,0.0009999,0.0023002,3.5601e-10,0.48,0.58,0
0.025532,0.0013006,0.0023189,-0.00034892,0.000591,-7.254e-05,0,0,0.044926,-0.024438,0,-0.0037721,0,0,0,0.0023209,-0.00035089,0.000591,-1.5564,0.00085366,0.0023471,3.2187e-10,0.5,0.58,0
0.026422,0.0016943,0.0021816,-0.00048882,0.00050783,-0.00010515,0,0,0.043518,-0.025913,0,-0.0054679,0,0,0,0.0021857,-0.00049295,0.00050783,-2.2515,0.00073354,0.0023444,2.7873e-10,0.52,0.58,0
0.027273,0.0019805,0.0020511,-0.00052472,0.0004579,-0.00012682,0,0,0.041422,-0.025548,0,-0.0065947,0,0,0,0.0020573,-0.00053095,0.0004579,-2.8119,0.00066142,0.0022622,2.3486e-10,0.54,0.58,0
0.028079,0.0021627,0.0019457,-0.00050737,0.0004315,-9.8945e-05,0,0,0.039369,-0.024411,0,-0.0051451,0,0,0,0.0019497,-0.00051135,0.0004315,-2.306,0.00062328,0.0021506,2.0012e-10,0.56,0.58,0
0.028848,0.0022606,0.0018789,-0.00050573,0.00041196,-3.6516e-05,0,0,0.038141,-0.02386,0,-0.0018988,0,0,0,0.0018795,-0.00050629,0.00041196,-0.87709,0.00059505,0.0020843,1.7958e-10,0.58,0.58,0
0.029605,0.0022893,0.0018775,-0.0005227,0.00040645,3.7355e-05,0,0,0.038248,-0.024158,0,0.0019425,0,0,0,0.0018781,-0.00052328,0.00040645,0.89141,0.00058709,0.0020972,1.7955e-10,0.6,0.58,0
0.030378,0.0022473,0.0019421,-0.00055876,0.00041501,9.743e-05,0,0,0.039705,-0.025318,0,0.0050664,0,0,0,0.0019459,-0.00056255,0.00041501,2.2276,0.00059946,0.0021899,2.0009e-10,0.62,0.58,0
0.031193,0.0021162,0.0020462,-0.00061201,0.00043024,0.00011941,0,0,0.042014,-0.027099,0,0.0062092,0,0,0,0.0020515,-0.00061737,0.00043024,2.5669,0.00062146,0.002329,2.3488e-10,0.64,0.58,0
0.032058,0.0018722,0.0021753,-0.00061156,0.00046913,8.6469e-05,0,0,0.044361,-0.028098,0,0.0044964,0,0,0,0.002178,-0.00061424,0.00046913,1.7754,0.00067763,0.0024383,2.8021e-10,0.66,0.58,0
0.032967,0.0015071,0.0023106,-0.00050024,0.00054312,3.7636e-05,0,0,0.045955,-0.027127,0,0.0019571,0,0,0,0.0023111,-0.00050075,0.00054312,0.76697,0.0007845,0.0024619,3.2839e-10,0.68,0.58,0
0.033897,0.0010552,0.0024426,-0.00031486,0.00063833,3.9026e-06,0,0,0.046912,-0.024783,0,0.00020293,0,0,0,0.0024426,-0.00031486,0.00063833,0.081088,0.00092204,0.0024257,3.6998e-10,0.7,0.58,0
0.034844,0.00057225,0.0025603,-0.00015421,0.00072184,4.1617e-06,0,0,0.047801,-0.022777,0,0.00021641,0,0,0,0.0025603,-0.00015421,0.00072184,0.08784,0.0010427,0.0023996,4.0406e-10,0.72,0.58,0
0.035809,9.5761e-05,0.0026647,-3.6135e-05,0.00078858,8.4166e-06,0,0,0.04878,-0.021443,0,0.00043766,0,0,0,0.0026648,-3.6161e-05,0.00078858,0.17855,0.0011391,0.0023974,4.3572e-10,0.74,0.58,0
0.036795,-0.00035525,0.0027656,7.2054e-05,0.0008513,1.7267e-05,0,0,0.049772,-0.020261,0,0.00089788,0,0,0,0.0027657,7.1944e-05,0.0008513,0.36727,0.0012297,0.0024009,4.6653e-10,0.76,0.58,0
0.0378,-0.00077132,0.002851,0.00015987,0.00090325,3.0516e-05,0,0,0.050641,-0.019328,0,0.0015868,0,0,0,0.0028513,0.00015952,0.00090325,0.64959,0.0013047,0.0024077,4.93e-10,0.78,0.58,0
0.038821,-0.0011434,0.0029267,0.00022609,0.00094583,4.8633e-05,0,0,0.051502,-0.018713,0,0.0025289,0,0,0,0.0029276,0.00022521,0.00094583,1.0313,0.0013662,0.0024238,5.1925e-10,0.8,0.58,0
0.03986,-0.0014666,0.0029953,0.0002688,0.00097924,6.7777e-05,0,0,0.052419,-0.018471,0,0.0035244,0,0,0,0.002997,0.00026712,0.00097924,1.4231,0.0014145,0.0024526,5.4793e-10,0.82,0.58,0
0.040918,-0.0017393,0.003059,0.00029092,0.001005,8.4034e-05,0,0,0.053406,-0.018566,0,0.0043698,0,0,0,0.0030616,0.00028837,0.001005,1.7372,0.0014517,0.0024934,5.8001e-10,0.84,0.58,0
0.041996,-0.0019639,0.0031177,0.00029711,0.0010245,9.4363e-05,0,0,0.054425,-0.018911,0,0.0049069,0,0,0,0.0031209,0.00029395,0.0010245,1.914,0.0014798,0.0025417,6.1436e-10,0.86,0.58,0
0.043095,-0.0021444,0.0031706,0.00029273,0.001039,9.7407e-05,0,0,0.055422,-0.019403,0,0.0050652,0,0,0,0.0031739,0.00028944,0.001039,1.9363,0.0015008,0.0025923,6.4891e-10,0.88,0.58,0
0.044213,-0.0022862,0.0032166,0.00028246,0.0010497,9.3145e-05,0,0,0.056338,-0.019949,0,0.0048435,0,0,0,0.0032195,0.00027951,0.0010497,1.8164,0.0015163,0.0026406,6.8141e-10,0.9,0.58,0
0.045348,-0.0023944,0.0032548,0.00026996,0.0010574,8.2396e-05,0,0,0.057132,-0.020474,0,0.0042846,0,0,0,0.0032571,0.00026769,0.0010574,1.58,0.0015274,0.0026832,7.1002e-10,0.92,0.58,0
0.046498,-0.0024735,0.0032848,0.0002579,0.0010628,6.6371e-05,0,0,0.057772,-0.020928,0,0.0034513,0,0,0,0.0032863,0.00025645,0.0010628,1.2555,0.0015352,0.0027179,7.3337e-10,0.94,0.58,0
0.047659,-0.0025273,0.0033063,0.00024812,0.0010663,4.6407e-05,0,0,0.05824,-0.021274,0,0.0024132,0,0,0,0.003307,0.00024742,0.0010663,0.86918,0.0015403,0.0027434,7.5058e-10,0.96,0.58,0
0.048828,-0.0025586,0.0033193,0.00024181,0.0010683,2.3847e-05,0,0,0.058524,-0.021489,0,0.00124,0,0,0,0.0033194,0.00024162,0.0010683,0.44394,0.0015431,0.002759,7.611e-10,0.98,0.58,0
0.05,-0.0025688,0.0033236,0.00023963,0.001069,-9.831e-06,0,0,0.058619,-0.021562,0,-0.00051121,0,0,0,0.0033236,0.0002396,0.001069,-0.18265,0.001544,0.0027643,7.6466e-10,1,0.58,0
0,0,0.0031181,0.0013363,0.0013363,-0.00032815,0,0,0.046326,1.6263e-19,0,-0.017064,0,0,0,0.0031766,0.0012778,0.0013363,-10.11,0.0019303,0.0018702,3.3487e-10,0,0.6,0
0.00092652,-0.00034127,0.0031109,0.0012536,0.0013093,-0.00032722,0,0,0.04684,-0.0014491,0,-0.017016,0,0,0,0.0031668,0.0011976,0.0013093,-9.7055,0.0018913,0.0019158,3.5699e-10,0.02,0.6,0
0.0018736,-0.00065116,0.0031374,0.0011848,0.0012967,-0.00031397,0,0,0.047859,-0.0029077,0,-0.016327,0,0,0,0.0031866,0.0011356,0.0012967,-8.9139,0.001873,0.0019754,3.8706e-10,0.04,0.6,0
0.0028409,-0.00093248,0.0031626,0.0011167,0.0012838,-0.00030428,0,0,0.048848,-0.0043437,0,-0.015822,0,0,0,0.0032069,0.0010724,0.0012838,-8.2828,0.0018544,0.002037,4.1838e-10,0.06,0.6,0
0.0038275,-0.0011873,0.0031856,0.0010505,0.0012708,-0.00029732,0,0,0.049783,-0.0057291,0,-0.015461,0,0,0,0.0032262,0.0010098,0.0012708,-7.7814,0.0018356,0.0020981,4.4969e-10,0.08,0.6,0
0.0048322,-0.001417,0.0032056,0.00098703,0.0012578,-0.00029239,0,0,0.050643,-0.0070395,0,-0.015204,0,0,0,0.0032435,0.00094914,0.0012578,-7.3832,0.0018168,0.0021566,4.7979e-10,0.1,0.6,0
0.0058532,-0.0016224,0.0032219,0.00092731,0.0012448,-0.00028887,0,0,0.051406,-0.0082539,0,-0.015021,0,0,0,0.0032577,0.0008915,0.0012448,-7.0661,0.001798,0.0022108,5.0757e-10,0.12,0.6,0
0.0068884,-0.0018037,0.0032338,0.00087197,0.0012317,-0.00028621,0,0,0.052055,-0.0093542,0,-0.014883,0,0,0,0.003268,0.00083778,0.0012317,-6.8116,0.0017792,0.0022592,5.3202e-10,0.14,0.6,0
0.0079354,-0.0019607,0.0032408,0.00082154,0.0012187,-0.00028388,0,0,0.052574,-0.010326,0,-0.014762,0,0,0,0.0032736,0.00078867,0.0012187,-6.6036,0.0017603,0.0023003,5.5223e-10,0.16,0.6,0
0.0089914,-0.0020927,0.0032421,0.00077632,0.0012055,-0.00028135,0,0,0.052951,-0.011159,0,-0.01463,0,0,0,0.0032738,0.00074463,0.0012055,-6.4274,0.0017413,0.0023331,5.6742e-10,0.18,0.6,0
0.010053,-0.0021983,0.0032372,0.00073641,0.0011921,-0.00027803,0,0,0.053173,-0.011848,0,-0.014458,0,0,0,0.0032677,0.00070587,0.0011921,-6.268,0.0017219,0.0023567,5.7697e-10,0.2,0.6,0
0.011118,-0.0022759,0.0032256,0.00070158,0.0011782,-0.00027328,0,0,0.053234,-0.012391,0,-0.01421,0,0,0,0.0032549,0.00067233,0.0011782,-6.1091,0.0017018,0.0023705,5.8049e-10,0.22,0.6,0
0.012183,-0.0023231,0.003207,0.00067129,0.0011635,-0.00026634,0,0,0.053132,-0.012797,0,-0.01385,0,0,0,0.0032347,0.00064361,0.0011635,-5.9318,0.0016806,0.0023742,5.7782e-10,0.24,0.6,0
0.013244,-0.0023372,0.0031811,0.00064452,0.0011477,-0.00025638,0,0,0.052869,-0.013083,0,-0.013332,0,0,0,0.0032068,0.00061886,0.0011477,-5.7139,0.0016578,0.0023682,5.6916e-10,0.26,0.6,0
0.014298,-0.0023147,0.0031479,0.0006197,0.0011303,-0.0002425,0,0,0.052459,-0.013275,0,-0.01261,0,0,0,0.003171,0.00059665,0.0011303,-5.4297,0.0016326,0.0023533,5.5511e-10,0.28,0.6,0
0.015342,-0.0022519,0.0031077,0.0005946,0.0011107,-0.00022391,0,0,0.051923,-0.013418,0,-0.011643,0,0,0,0.0031275,0.0005748,0.0011107,-5.0518,0.0016043,0.0023314,5.3673e-10,0.3,0.6,0
0.016375,-0.0021447,0.003061,0.00056621,0.0010882,-0.00020007,0,0,0.051294,-0.013571,0,-0.010404,0,0,0,0.003077,0.00055027,0.0010882,-4.556,0.0015718,0.0023053,5.156e-10,0.32,0.6,0
0.017394,-0.0019896,0.0030086,0.00053087,0.0010618,-0.00017103,0,0,0.050616,-0.013805,0,-0.0088934,0,0,0,0.0030204,0.00051912,0.0010618,-3.93,0.0015338,0.0022789,4.9356e-10,0.34,0.6,0
0.018399,-0.0017835,0.0029511,0.0004846,0.0010307,-0.00013765,0,0,0.049931,-0.014199,0,-0.0071577,0,0,0,0.0029588,0.00047694,0.0010307,-3.1843,0.0014888,0.0022565,4.7245e-10,0.36,0.6,0
0.019391,-0.0015254,0.0028889,0.0004238,0.00099381,-0.00010162,0,0,0.049272,-0.01482,0,-0.0052842,0,0,0,0.0028931,0.00041962,0.00099381,-2.3566,0.0014355,0.0022422,4.5348e-10,0.38,0.6,0
0.02037,-0.0012163,0.0028218,0.00034627,0.00095042,-6.5157e-05,0,0,0.048656,-0.015708,0,-0.0033882,0,0,0,0.0028235,0.00034455,0.00095042,-1.5067,0.0013728,0.0022384,4.369e-10,0.4,0.6,0
0.021337,-0.00086045,0.0027493,0.00025088,0.00090007,-2.9958e-05,0,0,0.048081,-0.016879,0,-0.0015578,0,0,0,0.0027497,0.00025052,0.00090007,-0.68687,0.0013001,0.002246,4.2201e-10,0.42,0.6,0
0.022293,-0.00046459,0.0026741,0.00013864,0.00084382,2.4399e-06,0,0,0.047587,-0.018335,0,0.00012688,0,0,0,0.0026741,0.00013864,0.00084382,0.055137,0.0012189,0.0022667,4.0877e-10,0.44,0.6,0
0.023241,-4.0129e-05,0.002597,4.325e-06,0.00078041,3.0212e-05,0,0,0.047232,-0.020178,0,0.0015711,0,0,0,0.0025974,3.973e-06,0.00078041,0.66754,0.0011272,0.0023054,3.9714e-10,0.46,0.6,0
0.024182,0.00039427,0.0025196,-0.00015259,0.0007101,4.4289e-05,0,0,0.047047,-0.02243,0,0.002303,0,0,0,0.0025203,-0.00015332,0.0007101,0.94928,0.0010257,0.0023633,3.8561e-10,0.48,0.6,0
0.025123,0.00080898,0.0024387,-0.00031711,0.00063649,3.7929e-05,0,0,0.046859,-0.024794,0,0.0019723,0,0,0,0.0024393,-0.00031763,0.00063649,0.78835,0.00091938,0.002425,3.6877e-10,0.5,0.6,0
0.026057,0.0011689,0.0023571,-0.00044754,0.00057288,1.2064e-05,0,0,0.046391,-0.026531,0,0.00062734,0,0,0,0.0023572,-0.00044759,0.00057288,0.24645,0.00082749,0.0024588,3.4433e-10,0.52,0.6,0
0.026978,0.0014478,0.0022809,-0.00051878,0.00052862,-1.2291e-05,0,0,0.045558,-0.027232,0,-0.00063913,0,0,0,0.0022809,-0.00051884,0.00052862,-0.25154,0.00076357,0.0024501,3.1698e-10,0.54,0.6,0
0.027879,0.001637,0.0022171,-0.00054829,0.00050065,-1.9766e-05,0,0,0.044628,-0.027272,0,-0.0010278,0,0,0,0.0022173,-0.00054843,0.00050065,-0.4095,0.00072317,0.0024183,2.9312e-10,0.56,0.6,0
0.028763,0.0017407,0.0021802,-0.00056213,0.00048541,-7.6544e-06,0,0,0.044064,-0.027236,0,-0.00039803,0,0,0,0.0021802,-0.00056215,0.00048541,-0.15992,0.00070115,0.0023969,2.795e-10,0.58,0.6,0
0.029642,0.0017634,0.0021794,-0.000578,0.00048043,1.1135e-05,0,0,0.044174,-0.027519,0,0.00057903,0,0,0,0.0021795,-0.00057805,0.00048043,0.23137,0.00069395,0.0024095,2.7975e-10,0.6,0.6,0
0.03053,0.0017037,0.002215,-0.00059602,0.00048569,2.0046e-05,0,0,0.044962,-0.028124,0,0.0010424,0,0,0,0.0022151,-0.00059616,0.00048569,0.40857,0.00070155,0.0024561,2.9398e-10,0.62,0.6,0
0.03144,0.0015536,0.0022773,-0.00059809,0.00050377,5.6327e-06,0,0,0.046113,-0.028649,0,0.0002929,0,0,0,0.0022773,-0.00059811,0.00050377,0.11224,0.00072767,0.0025127,3.1895e-10,0.64,0.6,0
0.032375,0.0013056,0.0023518,-0.0005564,0.00053861,-2.976e-05,0,0,0.047142,-0.02847,0,-0.0015475,0,0,0,0.0023521,-0.00055671,0.00053861,-0.58623,0.00077799,0.0025445,3.4871e-10,0.66,0.6,0
0.033326,0.00096512,0.0024307,-0.0004507,0.00059399,-7.0067e-05,0,0,0.047754,-0.027162,0,-0.0036435,0,0,0,0.0024324,-0.0004524,0.00059399,-1.3922,0.00085799,0.0025295,3.7763e-10,0.68,0.6,0
0.034285,0.0005565,0.0025078,-0.0003047,0.00066094,-9.2368e-05,0,0,0.048019,-0.025106,0,-0.0048031,0,0,0,0.0025108,-0.00030773,0.00066094,-1.879,0.00095469,0.0024804,4.0012e-10,0.7,0.6,0
0.035247,0.00011469,0.0025806,-0.00016208,0.00072556,-9.3945e-05,0,0,0.048231,-0.023079,0,-0.0048851,0,0,0,0.0025838,-0.0001653,0.00072556,-1.9595,0.001048,0.0024294,4.1664e-10,0.72,0.6,0
0.036214,-0.0003298,0.0026526,-4.0348e-05,0.00078369,-8.09e-05,0,0,0.048593,-0.021425,0,-0.0042068,0,0,0,0.0026551,-4.2776e-05,0.00078369,-1.7191,0.001132,0.0023941,4.3211e-10,0.74,0.6,0
0.03719,-0.00075707,0.0027232,5.9462e-05,0.00083479,-6.2401e-05,0,0,0.049098,-0.020159,0,-0.0032449,0,0,0,0.0027246,5.8001e-05,0.00083479,-1.3413,0.0012058,0.0023755,4.4847e-10,0.76,0.6,0
0.038178,-0.0011546,0.0027916,0.00014166,0.00087999,-4.0576e-05,0,0,0.049703,-0.019197,0,-0.00211,0,0,0,0.0027923,0.00014103,0.00087999,-0.87703,0.0012711,0.0023698,4.6616e-10,0.78,0.6,0
0.039178,-0.0015146,0.0028557,0.00020451,0.00091806,-1.7202e-05,0,0,0.050379,-0.018552,0,-0.00089449,0,0,0,0.0028558,0.0002044,0.00091806,-0.37173,0.0013261,0.0023764,4.8544e-10,0.8,0.6,0
0.040193,-0.0018322,0.002916,0.00024845,0.00094933,5.7425e-06,0,0,0.051133,-0.018223,0,0.00029861,0,0,0,0.002916,0.00024843,0.00094933,0.12334,0.0013713,0.0023953,5.074e-10,0.82,0.6,0
0.041224,-0.0021055,0.0029726,0.00027516,0.00097432,2.5739e-05,0,0,0.051955,-0.018178,0,0.0013384,0,0,0,0.0029728,0.00027491,0.00097432,0.54665,0.0014073,0.0024251,5.3228e-10,0.84,0.6,0
0.042271,-0.0023352,0.0030252,0.00028796,0.00099396,4.0785e-05,0,0,0.052813,-0.018356,0,0.0021209,0,0,0,0.0030258,0.00028735,0.00099396,0.85346,0.0014357,0.0024624,5.5932e-10,0.86,0.6,0
0.043336,-0.0025239,0.0030731,0.00029068,0.0010091,4.9754e-05,0,0,0.053663,-0.01868,0,0.0025872,0,0,0,0.003074,0.00028979,0.0010091,1.0241,0.0014576,0.0025033,5.8701e-10,0.88,0.6,0
0.044418,-0.0026751,0.0031152,0.00028703,0.0010207,5.2444e-05,0,0,0.054458,-0.019075,0,0.0027271,0,0,0,0.0031162,0.00028606,0.0010207,1.062,0.0014743,0.0025437,6.1362e-10,0.9,0.6,0
0.045515,-0.0027925,0.0031506,0.00028015,0.0010292,4.9345e-05,0,0,0.055156,-0.019476,0,0.002566,0,0,0,0.0031515,0.0002793,0.0010292,0.98457,0.0014867,0.0025803,6.3751e-10,0.92,0.6,0
0.046624,-0.0028798,0.0031787,0.00027249,0.0010354,4.1377e-05,0,0,0.055727,-0.019835,0,0.0021516,0,0,0,0.0031793,0.00027191,0.0010354,0.81553,0.0014955,0.0026108,6.5735e-10,0.94,0.6,0
0.047744,-0.0029399,0.003199,0.00026585,0.0010395,2.9676e-05,0,0,0.056149,-0.020114,0,0.0015432,0,0,0,0.0031993,0.00026555,0.0010395,0.5796,0.0015014,0.0026335,6.7216e-10,0.96,0.6,0
0.04887,-0.0029751,0.0032113,0.0002614,0.0010418,1.5466e-05,0,0,0.056407,-0.020291,0,0.00080424,0,0,0,0.0032114,0.00026132,0.0010418,0.30039,0.0015048,0.0026475,6.8129e-10,0.98,0.6,0
0.05,-0.0029866,0.0032154,0.00025984,0.0010426,-1.1122e-05,0,0,0.056494,-0.020351,0,-0.00057832,0,0,0,0.0032154,0.0002598,0.0010426,-0.2156,0.0015059,0.0026523,6.8441e-10,1,0.6,0
0,0,0.0030694,0.0013155,0.0013155,-0.00035497,0,0,0.045603,3.7947e-19,0,-0.018459,0,0,0,0.0031385,0.0012464,0.0013155,-11.018,0.0019001,0.0018586,3.2821e-10,0,0.62,0
0.00091206,-0.00036917,0.0030628,0.0012383,0.0012903,-0.00035363,0,0,0.046084,-0.0013525,0,-0.018389,0,0,0,0.0031289,0.0011722,0.0012903,-10.595,0.0018638,0.0019004,3.4793e-10,0.02,0.62,0
0.0018434,-0.00070735,0.0030875,0.001173,0.0012782,-0.00033951,0,0,0.047043,-0.0027334,0,-0.017655,0,0,0,0.0031459,0.0011146,0.0012782,-9.7643,0.0018462,0.0019547,3.7453e-10,0.04,0.62,0
0.0027938,-0.0010167,0.0031109,0.0011076,0.0012656,-0.00032805,0,0,0.04798,-0.0041078,0,-0.017058,0,0,0,0.0031633,0.0010552,0.0012656,-9.0666,0.001828,0.0020112,4.0244e-10,0.06,0.62,0
0.0037626,-0.0012986,0.0031323,0.0010432,0.0012526,-0.00031849,0,0,0.04887,-0.0054449,0,-0.016561,0,0,0,0.0031797,0.00099574,0.0012526,-8.4786,0.0018094,0.0020675,4.3039e-10,0.08,0.62,0
0.0047486,-0.0015541,0.0031506,0.00098112,0.0012395,-0.00031019,0,0,0.049688,-0.0067183,0,-0.01613,0,0,0,0.0031941,0.00093764,0.0012395,-7.9792,0.0017904,0.0021217,4.5722e-10,0.1,0.62,0
0.0057501,-0.0017834,0.0031652,0.00092217,0.0012262,-0.0003026,0,0,0.050414,-0.0079052,0,-0.015735,0,0,0,0.0032053,0.00088206,0.0012262,-7.5499,0.0017712,0.0021717,4.8183e-10,0.12,0.62,0
0.0067651,-0.0019865,0.0031754,0.00086712,0.0012128,-0.00029521,0,0,0.051029,-0.0089867,0,-0.015351,0,0,0,0.0032126,0.00082996,0.0012128,-7.1739,0.0017518,0.0022162,5.0326e-10,0.14,0.62,0
0.0077913,-0.0021627,0.0031806,0.0008165,0.0011991,-0.00028755,0,0,0.051519,-0.0099486,0,-0.014953,0,0,0,0.0032151,0.00078202,0.0011991,-6.8362,0.0017321,0.0022537,5.2065e-10,0.16,0.62,0
0.0088259,-0.0023112,0.0031803,0.0007706,0.0011853,-0.00027915,0,0,0.05187,-0.010781,0,-0.014516,0,0,0,0.0032122,0.00073868,0.0011853,-6.5223,0.001712,0.0022832,5.3333e-10,0.18,0.62,0
0.0098661,-0.0024307,0.0031739,0.00072944,0.001171,-0.00026949,0,0,0.052076,-0.011481,0,-0.014013,0,0,0,0.0032033,0.00070008,0.001171,-6.2171,0.0016914,0.0023041,5.4084e-10,0.2,0.62,0
0.010909,-0.0025193,0.0031612,0.00069275,0.0011562,-0.00025803,0,0,0.052131,-0.01205,0,-0.013418,0,0,0,0.0031879,0.00066607,0.0011562,-5.9041,0.0016701,0.002316,5.4296e-10,0.22,0.62,0
0.011951,-0.002575,0.003142,0.00065988,0.0011406,-0.00024415,0,0,0.052038,-0.012498,0,-0.012696,0,0,0,0.0031658,0.00063609,0.0011406,-5.5646,0.0016475,0.002319,5.3975e-10,0.24,0.62,0
0.01299,-0.0025953,0.0031163,0.00062975,0.0011238,-0.00022719,0,0,0.051805,-0.012846,0,-0.011814,0,0,0,0.0031369,0.00060917,0.0011238,-5.1778,0.0016233,0.0023137,5.316e-10,0.26,0.62,0
0.014023,-0.0025775,0.0030843,0.00060082,0.0011055,-0.00020652,0,0,0.051448,-0.013123,0,-0.010739,0,0,0,0.0031014,0.00058376,0.0011055,-4.7214,0.0015969,0.0023015,5.1928e-10,0.28,0.62,0
0.015048,-0.0025186,0.0030464,0.00057097,0.0010852,-0.00018163,0,0,0.050992,-0.013371,0,-0.0094449,0,0,0,0.0030597,0.00055771,0.0010852,-4.1742,0.0015675,0.0022844,5.0392e-10,0.3,0.62,0
0.016063,-0.0024157,0.0030034,0.0005376,0.0010623,-0.00015228,0,0,0.050469,-0.013643,0,-0.0079186,0,0,0,0.0030128,0.00052823,0.0010623,-3.5205,0.0015344,0.0022653,4.8697e-10,0.32,0.62,0
0.017067,-0.0022665,0.0029561,0.00049769,0.0010362,-0.00011868,0,0,0.04992,-0.014,0,-0.0061712,0,0,0,0.0029618,0.00049197,0.0010362,-2.7573,0.0014967,0.0022477,4.7002e-10,0.34,0.62,0
0.01806,-0.0020695,0.0029054,0.00044814,0.0010061,-8.1597e-05,0,0,0.049383,-0.014506,0,-0.004243,0,0,0,0.0029081,0.00044544,0.0010061,-1.8998,0.0014532,0.0022357,4.5458e-10,0.36,0.62,0
0.019042,-0.0018246,0.0028522,0.0003862,0.00097151,-4.2372e-05,0,0,0.048897,-0.015218,0,-0.0022033,0,0,0,0.0028529,0.00038547,0.00097151,-0.98411,0.0014033,0.0022328,4.4171e-10,0.38,0.62,0
0.020016,-0.001534,0.0027972,0.00030975,0.00093207,-2.6907e-06,0,0,0.048492,-0.01618,0,-0.00013992,0,0,0,0.0027972,0.00030975,0.00093207,-0.061978,0.0013463,0.002242,4.3196e-10,0.4,0.62,0
0.020982,-0.0012022,0.0027418,0.00021764,0.00088783,3.5463e-05,0,0,0.048203,-0.017425,0,0.0018441,0,0,0,0.0027423,0.00021714,0.00088783,0.80476,0.0012824,0.0022655,4.2548e-10,0.42,0.62,0
0.021944,-0.00083707,0.0026875,0.00010852,0.0008388,6.9654e-05,0,0,0.048066,-0.018987,0,0.003622,0,0,0,0.0026894,0.00010664,0.0008388,1.546,0.0012116,0.0023055,4.2208e-10,0.44,0.62,0
0.022905,-0.00045066,0.0026358,-1.7781e-05,0.0007854,9.5562e-05,0,0,0.04811,-0.020883,0,0.0049692,0,0,0,0.0026392,-2.1218e-05,0.0007854,2.0598,0.0011345,0.0023628,4.209e-10,0.46,0.62,0
0.023868,-6.0861e-05,0.0025863,-0.00015762,0.0007286,0.00010776,0,0,0.0483,-0.023042,0,0.0056035,0,0,0,0.0025905,-0.00016185,0.0007286,2.2455,0.0010524,0.0024326,4.1934e-10,0.48,0.62,0
0.024837,0.00030883,0.002538,-0.00029692,0.00067233,0.00010169,0,0,0.048508,-0.025201,0,0.0052877,0,0,0,0.0025417,-0.00030056,0.00067233,2.0516,0.00097114,0.0025019,4.138e-10,0.5,0.62,0
0.025809,0.00063305,0.002491,-0.00041452,0.00062294,8.0229e-05,0,0,0.048569,-0.026974,0,0.0041719,0,0,0,0.0024932,-0.00041673,0.00062294,1.5805,0.0008998,0.0025541,4.0269e-10,0.52,0.62,0
0.02678,0.0008912,0.0024473,-0.00049664,0.00058521,5.2366e-05,0,0,0.048415,-0.028128,0,0.002723,0,0,0,0.0024483,-0.00049757,0.00058521,1.0187,0.0008453,0.0025808,3.8819e-10,0.54,0.62,0
0.027745,0.0010718,0.0024121,-0.00054538,0.00056001,2.8152e-05,0,0,0.048154,-0.02874,0,0.0014639,0,0,0,0.0024124,-0.00054565,0.00056001,0.54534,0.00080891,0.0025888,3.7482e-10,0.56,0.62,0
0.028706,0.0011712,0.0023916,-0.00057258,0.00054571,1.0383e-05,0,0,0.047993,-0.029076,0,0.00053991,0,0,0,0.0023916,-0.00057262,0.00054571,0.20069,0.00078824,0.0025928,3.6693e-10,0.58,0.62,0
0.029665,0.0011885,0.0023909,-0.00058698,0.00054117,-5.216e-06,0,0,0.048093,-0.029332,0,-0.00027123,0,0,0,0.0023909,-0.00058699,0.00054117,-0.10036,0.00078169,0.002604,3.673e-10,0.6,0.62,0
0.030629,0.0011223,0.0024098,-0.00058836,0.00054645,-2.6408e-05,0,0,0.048448,-0.029505,0,-0.0013732,0,0,0,0.0024101,-0.00058859,0.00054645,-0.50461,0.00078931,0.0026223,3.7607e-10,0.62,0.62,0
0.031603,0.00097029,0.0024432,-0.00056728,0.00056278,-5.7556e-05,0,0,0.048892,-0.029382,0,-0.0029929,0,0,0,0.0024443,-0.00056838,0.00056278,-1.0949,0.00081291,0.0026359,3.9081e-10,0.64,0.62,0
0.032585,0.00073342,0.0024844,-0.00051071,0.0005921,-9.5742e-05,0,0,0.049199,-0.028673,0,-0.0049786,0,0,0,0.0024874,-0.00051377,0.0005921,-1.829,0.00085525,0.0026289,4.0771e-10,0.66,0.62,0
0.033571,0.00042065,0.002528,-0.0004152,0.00063384,-0.00013023,0,0,0.049248,-0.027275,0,-0.0067719,0,0,0,0.0025337,-0.00042095,0.00063384,-2.5286,0.00091554,0.0025935,4.2243e-10,0.68,0.62,0
0.034555,5.0957e-05,0.0025718,-0.00029404,0.00068333,-0.00015087,0,0,0.0491,-0.025412,0,-0.0078455,0,0,0,0.0025797,-0.00030196,0.00068333,-3.0053,0.00098703,0.0025368,4.323e-10,0.7,0.62,0
0.035535,-0.0003509,0.002616,-0.00016921,0.00073402,-0.00015367,0,0,0.04893,-0.023484,0,-0.0079908,0,0,0,0.0026244,-0.00017766,0.00073402,-3.1485,0.0010602,0.0024755,4.3798e-10,0.72,0.62,0
0.036512,-0.00076124,0.0026618,-5.6231e-05,0.00078167,-0.00014253,0,0,0.048884,-0.021785,0,-0.0074113,0,0,0,0.0026693,-6.3684e-05,0.00078167,-2.9935,0.0011291,0.0024235,4.4252e-10,0.74,0.62,0
0.03749,-0.0011616,0.0027103,3.9982e-05,0.00082507,-0.00012272,0,0,0.049015,-0.020412,0,-0.0063813,0,0,0,0.0027159,3.4354e-05,0.00082507,-2.6257,0.0011918,0.0023865,4.4852e-10,0.76,0.62,0
0.038473,-0.0015392,0.0027602,0.00011862,0.00086364,-9.8657e-05,0,0,0.04931,-0.019371,0,-0.0051301,0,0,0,0.0027639,0.00011494,0.00086364,-2.1359,0.0012475,0.0023652,4.5706e-10,0.78,0.62,0
0.039463,-0.0018855,0.0028104,0.00018029,0.00089721,-7.2968e-05,0,0,0.049743,-0.01864,0,-0.0037943,0,0,0,0.0028124,0.00017827,0.00089721,-1.5879,0.001296,0.0023584,4.6863e-10,0.8,0.62,0
0.040462,-0.0021955,0.0028597,0.00022555,0.00092557,-4.7844e-05,0,0,0.050287,-0.018201,0,-0.0024879,0,0,0,0.0028606,0.00022468,0.00092557,-1.0402,0.0013369,0.0023647,4.8336e-10,0.82,0.62,0
0.041474,-0.0024665,0.0029073,0.00025601,0.00094899,-2.5196e-05,0,0,0.050916,-0.018017,0,-0.0013102,0,0,0,0.0029075,0.00025577,0.00094899,-0.54444,0.0013708,0.002382,5.0109e-10,0.84,0.62,0
0.042499,-0.0026981,0.0029523,0.0002741,0.00096793,-6.5672e-06,0,0,0.051595,-0.01804,0,-0.00034149,0,0,0,0.0029524,0.00027408,0.00096793,-0.14049,0.0013981,0.0024075,5.211e-10,0.86,0.62,0
0.043538,-0.0028916,0.0029939,0.00028271,0.00098297,7.1113e-06,0,0,0.052283,-0.018207,0,0.00036979,0,0,0,0.0029939,0.00028269,0.00098297,0.15028,0.0014199,0.0024377,5.4219e-10,0.88,0.62,0
0.04459,-0.0030492,0.0030308,0.00028478,0.00099468,1.5555e-05,0,0,0.05294,-0.018457,0,0.00080888,0,0,0,0.0030309,0.0002847,0.00099468,0.32455,0.0014368,0.002469,5.6294e-10,0.9,0.62,0
0.045656,-0.0031734,0.0030623,0.00028294,0.0010036,1.9039e-05,0,0,0.053526,-0.018736,0,0.00099002,0,0,0,0.0030624,0.00028282,0.0010036,0.39246,0.0014496,0.0024984,5.8196e-10,0.92,0.62,0
0.046732,-0.0032669,0.0030875,0.00027936,0.00101,1.8236e-05,0,0,0.054013,-0.018998,0,0.00094829,0,0,0,0.0030876,0.00027924,0.00101,0.37207,0.001459,0.0025236,5.9802e-10,0.94,0.62,0
0.047816,-0.0033319,0.0031058,0.00027566,0.0010144,1.4074e-05,0,0,0.054376,-0.019208,0,0.00073185,0,0,0,0.0031059,0.00027559,0.0010144,0.28491,0.0014653,0.0025427,6.1016e-10,0.96,0.62,0
0.048906,-0.0033702,0.003117,0.000273,0.001017,7.6172e-06,0,0,0.054599,-0.019344,0,0.0003961,0,0,0,0.003117,0.00027298,0.001017,0.15346,0.001469,0.0025546,6.1771e-10,0.98,0.62,0
0.05,-0.0033828,0.0031207,0.00027204,0.0010178,-1.2151e-05,0,0,0.054675,-0.01939,0,-0.00063186,0,0,0,0.0031208,0.00027199,0.0010178,-0.24439,0.0014702,0.0025587,6.2031e-10,1,0.62,0
0,0,0.0030232,0.0012956,0.0012956,-0.00038017,0,0,0.044916,-6.5052e-19,0,-0.019769,0,0,0,0.0031031,0.0012157,0.0012956,-11.878,0.0018715,0.0018488,3.2249e-10,0,0.64,0
0.00089832,-0.00039537,0.003017,0.0012227,0.0012719,-0.00037842,0,0,0.045373,-0.0012797,0,-0.019678,0,0,0,0.0030936,0.0011462,0.0012719,-11.435,0.0018372,0.0018877,3.403e-10,0.02,0.64,0
0.0018149,-0.0007605,0.0030404,0.0011599,0.0012601,-0.00036357,0,0,0.046288,-0.0026045,0,-0.018906,0,0,0,0.0031082,0.0010921,0.0012601,-10.57,0.0018201,0.0019376,3.6416e-10,0.04,0.64,0
0.0027498,-0.0010968,0.0030626,0.0010962,0.0012477,-0.00035041,0,0,0.047189,-0.0039371,0,-0.018221,0,0,0,0.0031232,0.0010356,0.0012477,-9.8079,0.0018022,0.00199,3.8932e-10,0.06,0.64,0
0.0037025,-0.0014051,0.0030828,0.001033,0.0012347,-0.00033828,0,0,0.048049,-0.0052448,0,-0.01759,0,0,0,0.0031372,0.00097863,0.0012347,-9.1331,0.0017835,0.0020426,4.1456e-10,0.08,0.64,0
0.0046718,-0.0016857,0.0031,0.00097148,0.0012215,-0.00032661,0,0,0.048843,-0.0064992,0,-0.016984,0,0,0,0.003149,0.00092249,0.0012215,-8.5303,0.0017643,0.0020931,4.3876e-10,0.1,0.64,0
0.0056562,-0.0019386,0.0031136,0.00091263,0.0012079,-0.00031493,0,0,0.049548,-0.0076758,0,-0.016376,0,0,0,0.0031577,0.00086846,0.0012079,-7.9851,0.0017447,0.0021399,4.6086e-10,0.12,0.64,0
0.0066537,-0.0021632,0.0031228,0.00085726,0.001194,-0.00030282,0,0,0.050147,-0.0087553,0,-0.015747,0,0,0,0.0031625,0.00081748,0.001194,-7.4835,0.0017247,0.0021813,4.7995e-10,0.14,0.64,0
0.0076621,-0.0023587,0.003127,0.00080591,0.0011799,-0.00028988,0,0,0.050625,-0.009723,0,-0.015074,0,0,0,0.0031627,0.00077026,0.0011799,-7.0122,0.0017043,0.0022162,4.9527e-10,0.16,0.64,0
0.0086787,-0.0025239,0.0031259,0.00075887,0.0011654,-0.00027575,0,0,0.050972,-0.01057,0,-0.014339,0,0,0,0.0031576,0.00072717,0.0011654,-6.5579,0.0016834,0.0022436,5.0626e-10,0.18,0.64,0
0.0097009,-0.0026575,0.003119,0.00071612,0.0011505,-0.00026004,0,0,0.051181,-0.011295,0,-0.013522,0,0,0,0.0031469,0.0006883,0.0011505,-6.1063,0.0016619,0.0022631,5.126e-10,0.2,0.64,0
0.010726,-0.0027579,0.0031063,0.00067734,0.0011351,-0.00024233,0,0,0.051252,-0.011902,0,-0.012601,0,0,0,0.0031303,0.0006534,0.0011351,-5.6421,0.0016396,0.0022746,5.1422e-10,0.22,0.64,0
0.011751,-0.0028231,0.0030877,0.00064183,0.0011189,-0.00022217,0,0,0.05119,-0.012403,0,-0.011553,0,0,0,0.0031077,0.00062181,0.0011189,-5.1482,0.0016161,0.0022784,5.1135e-10,0.24,0.64,0
0.012774,-0.002851,0.0030633,0.0006085,0.0011015,-0.0001991,0,0,0.051007,-0.012819,0,-0.010353,0,0,0,0.0030794,0.00059246,0.0011015,-4.6068,0.0015911,0.0022755,5.0453e-10,0.26,0.64,0
0.013791,-0.0028396,0.0030337,0.00057586,0.0010829,-0.00017273,0,0,0.050721,-0.013182,0,-0.0089822,0,0,0,0.0030458,0.00056378,0.0010829,-4.0005,0.0015641,0.0022675,4.9459e-10,0.28,0.64,0
0.014802,-0.0027867,0.0029993,0.00054198,0.0010624,-0.0001428,0,0,0.05036,-0.013531,0,-0.0074258,0,0,0,0.0030076,0.00053371,0.0010624,-3.3148,0.0015346,0.0022565,4.8266e-10,0.3,0.64,0
0.015806,-0.0026904,0.0029611,0.00050459,0.0010397,-0.0001093,0,0,0.049955,-0.013913,0,-0.0056836,0,0,0,0.0029659,0.00049974,0.0010397,-2.5427,0.0015018,0.0022454,4.7006e-10,0.32,0.64,0
0.016801,-0.0025496,0.0029199,0.00046119,0.0010143,-7.2572e-05,0,0,0.049545,-0.014382,0,-0.0037737,0,0,0,0.002922,0.00045905,0.0010143,-1.6892,0.0014651,0.0022376,4.5816e-10,0.34,0.64,0
0.017788,-0.0023638,0.0028769,0.00040927,0.00098586,-3.3408e-05,0,0,0.049168,-0.014991,0,-0.0017372,0,0,0,0.0028774,0.00040881,0.00098586,-0.7755,0.001424,0.0022366,4.4825e-10,0.36,0.64,0
0.018767,-0.0021341,0.0028333,0.00034654,0.00095395,6.9459e-06,0,0,0.048863,-0.015793,0,0.00036119,0,0,0,0.0028333,0.00034652,0.00095395,0.16004,0.0013779,0.0022456,4.4128e-10,0.38,0.64,0
0.019742,-0.0018636,0.0027903,0.00027127,0.00091846,4.6791e-05,0,0,0.048667,-0.016827,0,0.0024331,0,0,0,0.0027911,0.0002704,0.00091846,1.0638,0.0013267,0.0022673,4.3782e-10,0.4,0.64,0
0.020714,-0.0015574,0.0027492,0.00018222,0.00087943,8.3932e-05,0,0,0.048614,-0.018128,0,0.0043645,0,0,0,0.002752,0.00017948,0.00087943,1.8707,0.0012703,0.0023037,4.38e-10,0.42,0.64,0
0.021687,-0.0012241,0.0027114,7.9095e-05,0.00083715,0.0001154,0,0,0.048731,-0.019709,0,0.0060006,0,0,0,0.0027165,7.4046e-05,0.00083715,2.5053,0.0012092,0.0023555,4.4139e-10,0.44,0.64,0
0.022663,-0.00087544,0.0026774,-3.6692e-05,0.00079222,0.00013742,0,0,0.049016,-0.021552,0,0.007146,0,0,0,0.0026844,-4.3632e-05,0.00079222,2.8912,0.0011443,0.0024208,4.4664e-10,0.46,0.64,0
0.023647,-0.0005274,0.002647,-0.00015989,0.00074614,0.00014599,0,0,0.049423,-0.023557,0,0.0075916,0,0,0,0.0026546,-0.00016746,0.00074614,2.9694,0.0010777,0.0024941,4.5147e-10,0.48,0.64,0
0.02464,-0.00019904,0.0026191,-0.0002804,0.00070162,0.00013898,0,0,0.049855,-0.025532,0,0.0072267,0,0,0,0.0026258,-0.00028704,0.00070162,2.7378,0.0010134,0.0025656,4.5336e-10,0.5,0.64,0
0.025641,8.9942e-05,0.0025932,-0.0003856,0.00066228,0.00011783,0,0,0.050204,-0.027245,0,0.0061273,0,0,0,0.0025979,-0.00039026,0.00066228,2.2618,0.00095662,0.0026252,4.5114e-10,0.52,0.64,0
0.026648,0.00032266,0.0025699,-0.00046641,0.00063104,8.7738e-05,0,0,0.05041,-0.028534,0,0.0045624,0,0,0,0.0025724,-0.00046895,0.00063104,1.6538,0.0009115,0.0026673,4.4586e-10,0.54,0.64,0
0.027658,0.00048742,0.0025513,-0.00052112,0.00060905,5.4304e-05,0,0,0.050498,-0.029385,0,0.0028238,0,0,0,0.0025523,-0.00052208,0.00060905,1.0123,0.00087975,0.0026932,4.4005e-10,0.56,0.64,0
0.028668,0.00057764,0.0025405,-0.00055312,0.0005962,2.0635e-05,0,0,0.050551,-0.029882,0,0.001073,0,0,0,0.0025406,-0.00055326,0.0005962,0.38215,0.00086118,0.0027087,4.3643e-10,0.58,0.64,0
0.02968,0.00059013,0.0025395,-0.00056589,0.00059208,-1.3736e-05,0,0,0.050632,-0.030107,0,-0.00071428,0,0,0,0.0025395,-0.00056595,0.00059208,-0.25343,0.00085522,0.0027183,4.3674e-10,0.6,0.64,0
0.030693,0.00052352,0.0025482,-0.00055914,0.00059672,-5.0707e-05,0,0,0.050739,-0.030052,0,-0.0026368,0,0,0,0.002549,-0.00055996,0.00059672,-0.93465,0.00086193,0.0027217,4.4112e-10,0.62,0.64,0
0.031709,0.00037835,0.0025643,-0.00052867,0.00061067,-9.0665e-05,0,0,0.050793,-0.029623,0,-0.0047146,0,0,0,0.0025669,-0.00053133,0.00061067,-1.6776,0.00088209,0.0027139,4.4814e-10,0.64,0.64,0
0.032725,0.00015868,0.0025843,-0.00047029,0.00063422,-0.00013023,0,0,0.050703,-0.028717,0,-0.0067718,0,0,0,0.0025899,-0.00047583,0.00063422,-2.4368,0.00091609,0.0026884,4.5533e-10,0.66,0.64,0
0.033737,-0.00012588,0.0026061,-0.000385,0.00066634,-0.00016321,0,0,0.050435,-0.027335,0,-0.008487,0,0,0,0.002615,-0.00039388,0.00066634,-3.114,0.00096249,0.0026434,4.6025e-10,0.68,0.64,0
0.034743,-0.00045996,0.0026289,-0.00028169,0.00070416,-0.00018365,0,0,0.050043,-0.025632,0,-0.00955,0,0,0,0.0026404,-0.00029323,0.00070416,-3.5962,0.0010171,0.0025836,4.6158e-10,0.7,0.64,0
0.035739,-0.00082468,0.0026534,-0.00017342,0.00074399,-0.00018932,0,0,0.049644,-0.023853,0,-0.0098446,0,0,0,0.002666,-0.00018605,0.00074399,-3.8146,0.0010746,0.0025192,4.5996e-10,0.72,0.64,0
0.036728,-0.0012012,0.0026808,-7.1186e-05,0.00078289,-0.0001818,0,0,0.049346,-0.022206,0,-0.0094538,0,0,0,0.0026928,-8.3144e-05,0.00078289,-3.7633,0.0011308,0.00246,4.5746e-10,0.74,0.64,0
0.037713,-0.0015736,0.0027119,1.881e-05,0.00081922,-0.00016488,0,0,0.04921,-0.020811,0,-0.008574,0,0,0,0.002722,8.7524e-06,0.00081922,-3.4905,0.0011833,0.0024124,4.5624e-10,0.76,0.64,0
0.038697,-0.0019295,0.0027464,9.4304e-05,0.0008522,-0.00014229,0,0,0.049248,-0.019705,0,-0.0073991,0,0,0,0.002754,8.6691e-05,0.0008522,-3.0623,0.001231,0.0023788,4.5767e-10,0.78,0.64,0
0.039683,-0.0022602,0.0027832,0.00015489,0.00088142,-0.00011708,0,0,0.049446,-0.01889,0,-0.0060883,0,0,0,0.0027884,0.00014968,0.00088142,-2.5456,0.0012732,0.0023595,4.6238e-10,0.8,0.64,0
0.040675,-0.0025603,0.0028212,0.00020119,0.0009067,-9.1597e-05,0,0,0.049776,-0.018343,0,-0.004763,0,0,0,0.0028244,0.00019799,0.0009067,-1.9999,0.0013097,0.0023534,4.7049e-10,0.82,0.64,0
0.041674,-0.0028262,0.0028591,0.0002345,0.00092809,-6.768e-05,0,0,0.050207,-0.018033,0,-0.0035194,0,0,0,0.0028609,0.00023275,0.00092809,-1.4762,0.0013406,0.0023586,4.8168e-10,0.84,0.64,0
0.042683,-0.0030568,0.0028959,0.0002567,0.0009458,-4.6707e-05,0,0,0.050704,-0.017916,0,-0.0024288,0,0,0,0.0028968,0.00025588,0.0009458,-1.0135,0.0013662,0.0023724,4.9531e-10,0.86,0.64,0
0.043702,-0.0032522,0.0029305,0.00027005,0.00096017,-2.9549e-05,0,0,0.051229,-0.017943,0,-0.0015366,0,0,0,0.0029308,0.00026972,0.00096017,-0.63626,0.0013869,0.0023918,5.1036e-10,0.88,0.64,0
0.044732,-0.0034134,0.0029617,0.00027688,0.00097158,-1.6561e-05,0,0,0.051743,-0.018062,0,-0.00086118,0,0,0,0.0029618,0.00027678,0.00097158,-0.35341,0.0014034,0.0024138,5.2567e-10,0.9,0.64,0
0.045772,-0.003542,0.0029886,0.00027936,0.00098038,-7.6398e-06,0,0,0.052213,-0.018227,0,-0.00039727,0,0,0,0.0029886,0.00027933,0.00098038,-0.16157,0.0014161,0.0024356,5.4005e-10,0.92,0.64,0
0.046821,-0.0036397,0.0030103,0.00027934,0.00098689,-2.3187e-06,0,0,0.052609,-0.018396,0,-0.00012057,0,0,0,0.0030103,0.00027933,0.00098689,-0.048646,0.0014255,0.0024549,5.5242e-10,0.94,0.64,0
0.047876,-0.0037082,0.0030262,0.00027828,0.00099136,1.2339e-07,0,0,0.052907,-0.01854,0,6.4162e-06,0,0,0,0.0030262,0.00027828,0.00099136,0.0025727,0.001432,0.0024699,5.619e-10,0.96,0.64,0
0.048937,-0.0037488,0.003036,0.00027724,0.00099397,5.7066e-07,0,0,0.053093,-0.018635,0,2.9674e-05,0,0,0,0.003036,0.00027724,0.00099397,0.011852,0.0014357,0.0024793,5.6785e-10,0.98,0.64,0
0.05,-0.0037622,0.0030393,0.00027682,0.00099483,-1.2915e-05,0,0,0.053155,-0.018668,0,-0.00067158,0,0,0,0.0030393,0.00027676,0.00099483,-0.26786,0.001437,0.0024827,5.6993e-10,1,0.64,0
0,0,0.0029799,0.0012771,0.0012771,-0.00040419,0,0,0.044272,1.6263e-19,0,-0.021018,0,0,0,0.0030709,0.001186,0.0012771,-12.698,0.0018447,0.0018411,3.1787e-10,0,0.66,0
0.00088545,-0.00042036,0.0029741,0.0012069,0.0012543,-0.00040205,0,0,0.044714,-0.0012317,0,-0.020907,0,0,0,0.0030612,0.0011198,0.0012543,-12.233,0.0018118,0.0018778,3.3421e-10,0.02,0.66,0
0.0017886,-0.00081153,0.0029966,0.0011456,0.0012427,-0.00038662,0,0,0.045602,-0.0025228,0,-0.020104,0,0,0,0.0030741,0.0010681,0.0012427,-11.336,0.001795,0.0019246,3.5602e-10,0.04,0.66,0
0.0027095,-0.0011742,0.0030181,0.0010828,0.0012303,-0.00037186,0,0,0.046483,-0.0038346,0,-0.019336,0,0,0,0.0030871,0.0010138,0.0012303,-10.511,0.001777,0.001974,3.7908e-10,0.06,0.66,0
0.0036479,-0.0015084,0.0030376,0.0010198,0.0012172,-0.00035721,0,0,0.04733,-0.0051324,0,-0.018575,0,0,0,0.003099,0.00095846,0.0012172,-9.7486,0.0017582,0.0020236,4.0222e-10,0.08,0.66,0
0.0046027,-0.0018141,0.0030543,0.00095811,0.0012037,-0.00034221,0,0,0.048115,-0.0063858,0,-0.017795,0,0,0,0.0031087,0.00090366,0.0012037,-9.0412,0.0017387,0.0020714,4.2437e-10,0.1,0.66,0
0.0055725,-0.0020904,0.0030673,0.00089869,0.0011898,-0.00032648,0,0,0.048815,-0.0075689,0,-0.016977,0,0,0,0.0031154,0.00085061,0.0011898,-8.3782,0.0017186,0.0021157,4.4454e-10,0.12,0.66,0
0.0065553,-0.0023367,0.0030761,0.00084243,0.0011756,-0.0003097,0,0,0.049414,-0.0086613,0,-0.016104,0,0,0,0.0031182,0.00080028,0.0011756,-7.7493,0.001698,0.002155,4.6187e-10,0.14,0.66,0
0.007549,-0.0025516,0.00308,0.00078989,0.001161,-0.00029161,0,0,0.049896,-0.0096483,0,-0.015164,0,0,0,0.0031166,0.00075334,0.001161,-7.1438,0.001677,0.0021881,4.7572e-10,0.16,0.66,0
0.0085512,-0.0027341,0.0030788,0.00074137,0.0011461,-0.00027199,0,0,0.050252,-0.010522,0,-0.014143,0,0,0,0.0031101,0.00071014,0.0011461,-6.5504,0.0016554,0.0022144,4.8563e-10,0.18,0.66,0
0.0095591,-0.0028825,0.0030722,0.00069683,0.0011307,-0.00025058,0,0,0.050479,-0.011281,0,-0.01303,0,0,0,0.0030984,0.00067069,0.0011307,-5.9567,0.0016333,0.0022335,4.9141e-10,0.2,0.66,0
0.01057,-0.0029954,0.0030602,0.00065591,0.0011148,-0.00022713,0,0,0.05058,-0.011932,0,-0.011811,0,0,0,0.0030815,0.00063464,0.0011148,-5.3496,0.0016103,0.0022456,4.9313e-10,0.22,0.66,0
0.011582,-0.0030711,0.0030429,0.00061789,0.0010983,-0.00020139,0,0,0.050562,-0.012489,0,-0.010472,0,0,0,0.0030595,0.00060128,0.0010983,-4.715,0.0015864,0.0022513,4.9114e-10,0.24,0.66,0
0.012593,-0.0031081,0.0030207,0.00058171,0.0010807,-0.00017309,0,0,0.050439,-0.012974,0,-0.0090005,0,0,0,0.0030329,0.00056949,0.0010807,-4.0391,0.001561,0.0022518,4.8605e-10,0.26,0.66,0
0.0136,-0.0031048,0.002994,0.00054595,0.001062,-0.00014205,0,0,0.050233,-0.013417,0,-0.0073867,0,0,0,0.0030023,0.00053774,0.001062,-3.3098,0.001534,0.0022487,4.7872e-10,0.28,0.66,0
0.014602,-0.0030598,0.0029637,0.00050888,0.0010418,-0.00010824,0,0,0.04997,-0.013855,0,-0.0056284,0,0,0,0.0029685,0.00050411,0.0010418,-2.5198,0.0015048,0.0022444,4.7021e-10,0.3,0.66,0
0.015599,-0.0029723,0.0029306,0.0004685,0.0010197,-7.1824e-05,0,0,0.049683,-0.014332,0,-0.0037349,0,0,0,0.0029327,0.00046641,0.0010197,-1.6695,0.001473,0.0022415,4.6173e-10,0.32,0.66,0
0.01659,-0.0028418,0.0028958,0.00042272,0.00099557,-3.3291e-05,0,0,0.049407,-0.014894,0,-0.0017312,0,0,0,0.0028963,0.00042227,0.00099557,-0.77109,0.001438,0.002243,4.5444e-10,0.34,0.66,0
0.017575,-0.0026692,0.0028605,0.00036945,0.00096899,6.5041e-06,0,0,0.04918,-0.015588,0,0.00033822,0,0,0,0.0028605,0.00036943,0.00096899,0.1496,0.0013996,0.002252,4.4941e-10,0.36,0.66,0
0.018557,-0.0024563,0.0028259,0.00030687,0.00093983,4.6289e-05,0,0,0.049037,-0.016457,0,0.002407,0,0,0,0.0028267,0.00030602,0.00093983,1.0524,0.0013575,0.0022711,4.4743e-10,0.38,0.66,0
0.019536,-0.0022071,0.0027932,0.0002336,0.00090804,8.4335e-05,0,0,0.049014,-0.017535,0,0.0043854,0,0,0,0.002796,0.00023083,0.00090804,1.8851,0.0013116,0.0023025,4.4892e-10,0.4,0.66,0
0.020517,-0.0019273,0.0027636,0.00014894,0.00087378,0.0001184,0,0,0.049137,-0.018846,0,0.006157,0,0,0,0.002769,0.00014359,0.00087378,2.5875,0.0012621,0.0023471,4.5384e-10,0.42,0.66,0
0.021502,-0.0016255,0.002738,5.3296e-05,0.0008374,0.00014573,0,0,0.049417,-0.020387,0,0.0075781,0,0,0,0.0027459,4.5408e-05,0.0008374,3.098,0.0012096,0.0024044,4.6154e-10,0.44,0.66,0
0.022494,-0.0013127,0.0027166,-5.1113e-05,0.00079965,0.00016323,0,0,0.049841,-0.02212,0,0.0084881,0,0,0,0.0027262,-6.0706e-05,0.00079965,3.3636,0.001155,0.0024717,4.707e-10,0.46,0.66,0
0.023496,-0.0010031,0.0026989,-0.00015948,0.00076183,0.00016818,0,0,0.050364,-0.023954,0,0.0087453,0,0,0,0.0027088,-0.00016934,0.00076183,3.3557,0.0011004,0.0025438,4.7945e-10,0.48,0.66,0
0.024508,-0.00071247,0.002684,-0.00026439,0.00072589,0.00015924,0,0,0.050911,-0.025747,0,0.0082806,0,0,0,0.0026926,-0.00027296,0.00072589,3.0826,0.0010485,0.0026134,4.8599e-10,0.5,0.66,0
0.025532,-0.00045675,0.002671,-0.00035749,0.00069406,0.0001374,0,0,0.051401,-0.027341,0,0.0071447,0,0,0,0.0026772,-0.00036372,0.00069406,2.5923,0.0010025,0.0026739,4.8938e-10,0.52,0.66,0
0.026565,-0.00025015,0.0026598,-0.00043225,0.00066826,0.00010564,0,0,0.05178,-0.028613,0,0.005493,0,0,0,0.0026634,-0.00043586,0.00066826,1.9544,0.00096526,0.0027208,4.8997e-10,0.54,0.66,0
0.027603,-0.00010355,0.0026509,-0.00048564,0.00064957,6.7649e-05,0,0,0.052034,-0.029515,0,0.0035178,0,0,0,0.0026523,-0.0004871,0.00064957,1.235,0.00093826,0.0027531,4.8905e-10,0.56,0.66,0
0.028646,-2.4115e-05,0.0026453,-0.00051759,0.00063833,2.6257e-05,0,0,0.052182,-0.030054,0,0.0013654,0,0,0,0.0026456,-0.0005178,0.00063833,0.47559,0.00092203,0.0027724,4.8815e-10,0.58,0.66,0
0.029691,-1.5796e-05,0.002644,-0.00052877,0.00063456,-1.7079e-05,0,0,0.052245,-0.030247,0,-0.0008881,0,0,0,0.0026441,-0.00052886,0.00063456,-0.30841,0.00091659,0.0027802,4.8828e-10,0.6,0.66,0
0.030736,-7.9817e-05,0.0026466,-0.00051891,0.00063832,-6.1525e-05,0,0,0.052216,-0.030088,0,-0.0031993,0,0,0,0.0026478,-0.00052011,0.00063832,-1.113,0.00092202,0.0027763,4.8957e-10,0.62,0.66,0
0.031779,-0.00021463,0.0026523,-0.00048673,0.00064966,-0.00010549,0,0,0.052068,-0.029546,0,-0.0054856,0,0,0,0.0026558,-0.00049027,0.00064966,-1.9226,0.0009384,0.0027588,4.9122e-10,0.64,0.66,0
0.032818,-0.00041527,0.0026596,-0.00043174,0.00066835,-0.00014588,0,0,0.051772,-0.028602,0,-0.0075857,0,0,0,0.0026664,-0.00043861,0.00066835,-2.6958,0.00096539,0.0027257,4.9188e-10,0.66,0.66,0
0.03385,-0.00067274,0.0026677,-0.00035656,0.00069335,-0.00017853,0,0,0.051334,-0.027298,0,-0.0092835,0,0,0,0.0026782,-0.00036706,0.00069335,-3.3667,0.0010015,0.0026775,4.903e-10,0.68,0.66,0
0.034872,-0.00097433,0.0026769,-0.00026765,0.00072279,-0.00019988,0,0,0.050808,-0.025751,0,-0.010394,0,0,0,0.0026905,-0.00028116,0.00072279,-3.8656,0.001044,0.0026182,4.8597e-10,0.7,0.66,0
0.035882,-0.001305,0.0026881,-0.00017367,0.00075434,-0.0002084,0,0,0.050279,-0.024128,0,-0.010837,0,0,0,0.0027032,-0.00018876,0.00075434,-4.1433,0.0010896,0.0025545,4.7951e-10,0.72,0.66,0
0.036883,-0.0016495,0.0027024,-8.2599e-05,0.00078595,-0.00020499,0,0,0.049829,-0.022582,0,-0.01066,0,0,0,0.0027174,-9.7606e-05,0.00078595,-4.1872,0.0011353,0.0024936,4.7244e-10,0.74,0.66,0
0.037875,-0.001994,0.0027206,2.6245e-08,0.00081618,-0.00019213,0,0,0.049515,-0.02122,0,-0.0099906,0,0,0,0.0027341,-1.3475e-05,0.00081618,-4.0197,0.0011789,0.0024409,4.6641e-10,0.76,0.66,0
0.038864,-0.0023274,0.0027426,7.1267e-05,0.00084417,-0.0001728,0,0,0.04936,-0.020095,0,-0.0089858,0,0,0,0.0027538,6.0135e-05,0.00084417,-3.6859,0.0012193,0.0023997,4.6271e-10,0.78,0.66,0
0.03985,-0.0026411,0.0027679,0.00013008,0.0008694,-0.0001498,0,0,0.049362,-0.019222,0,-0.0077895,0,0,0,0.0027764,0.00012161,0.0008694,-3.2399,0.0012558,0.002371,4.6206e-10,0.8,0.66,0
0.040838,-0.0029292,0.0027955,0.00017661,0.00089164,-0.00012542,0,0,0.049501,-0.018591,0,-0.0065219,0,0,0,0.0028015,0.00017062,0.00089164,-2.7356,0.0012879,0.0023547,4.6467e-10,0.82,0.66,0
0.04183,-0.0031878,0.0028243,0.00021175,0.0009108,-0.00010149,0,0,0.04975,-0.018175,0,-0.0052773,0,0,0,0.0028282,0.00020781,0.0009108,-2.2213,0.0013156,0.0023491,4.7031e-10,0.84,0.66,0
0.042828,-0.0034148,0.002853,0.00023692,0.00092697,-7.9338e-05,0,0,0.050076,-0.017941,0,-0.0041256,0,0,0,0.0028554,0.00023452,0.00092697,-1.7355,0.001339,0.0023524,4.7842e-10,0.86,0.66,0
0.043833,-0.0036093,0.0028806,0.00025388,0.00094033,-5.9857e-05,0,0,0.050446,-0.017848,0,-0.0031125,0,0,0,0.0028819,0.00025251,0.00094033,-1.3048,0.0013583,0.0023618,4.882e-10,0.88,0.66,0
0.044846,-0.0037717,0.0029059,0.00026447,0.0009511,-4.3481e-05,0,0,0.050824,-0.017853,0,-0.002261,0,0,0,0.0029066,0.00026375,0.0009511,-0.94283,0.0013738,0.002375,4.9869e-10,0.9,0.66,0
0.045866,-0.0039025,0.002928,0.00027046,0.00095953,-3.0256e-05,0,0,0.05118,-0.017916,0,-0.0015733,0,0,0,0.0029283,0.00027012,0.00095953,-0.65221,0.001386,0.0023893,5.089e-10,0.92,0.66,0
0.046893,-0.0040027,0.002946,0.00027342,0.00096584,-1.99e-05,0,0,0.051485,-0.018003,0,-0.0010348,0,0,0,0.0029462,0.00027328,0.00096584,-0.42658,0.0013951,0.0024027,5.1789e-10,0.94,0.66,0
0.047925,-0.0040735,0.0029594,0.00027462,0.0009702,-1.1886e-05,0,0,0.051719,-0.018085,0,-0.00061807,0,0,0,0.0029595,0.00027457,0.0009702,-0.25365,0.0014014,0.0024135,5.249e-10,0.96,0.66,0
0.048962,-0.0041156,0.0029676,0.00027497,0.00097277,-5.5191e-06,0,0,0.051865,-0.018143,0,-0.000287,0,0,0,0.0029676,0.00027496,0.00097277,-0.11744,0.0014051,0.0024204,5.2935e-10,0.98,0.66,0
0.05,-0.0041295,0.0029704,0.00027502,0.00097361,-1.3425e-05,0,0,0.051915,-0.018163,0,-0.00069811,0,0,0,0.0029704,0.00027495,0.00097361,-0.28537,0.0014063,0.0024229,5.3092e-10,1,0.66,0
0,0,0.0029399,0.00126,0.00126,-0.00042754,0,0,0.043679,2.7105e-19,0,-0.022232,0,0,0,0.0030425,0.0011574,0.00126,-13.488,0.00182,0.0018359,3.1449e-10,0,0.68,0
0.00087358,-0.00044464,0.0029343,0.0011911,0.0012376,-0.00042503,0,0,0.044114,-0.0012088,0,-0.022101,0,0,0,0.0030324,0.001093,0.0012376,-12.998,0.0017877,0.0018713,3.2978e-10,0.02,0.68,0
0.0017645,-0.00086141,0.0029565,0.0011303,0.001226,-0.00040914,0,0,0.044992,-0.0024895,0,-0.021275,0,0,0,0.003044,0.0010428,0.001226,-12.068,0.0017709,0.0019161,3.502e-10,0.04,0.68,0
0.0026732,-0.0012502,0.0029777,0.0010673,0.0012135,-0.00039288,0,0,0.04587,-0.003802,0,-0.02043,0,0,0,0.0030554,0.00098963,0.0012135,-11.179,0.0017528,0.0019634,3.7175e-10,0.06,0.68,0
0.0035994,-0.0016104,0.0029971,0.0010037,0.0012002,-0.00037579,0,0,0.046719,-0.0051098,0,-0.019541,0,0,0,0.0030656,0.00093523,0.0012002,-10.329,0.0017337,0.002011,3.9335e-10,0.08,0.68,0
0.004542,-0.0019412,0.0030137,0.00094102,0.0011864,-0.0003575,0,0,0.047509,-0.0063802,0,-0.01859,0,0,0,0.0030736,0.00088109,0.0011864,-9.5164,0.0017137,0.0020569,4.1397e-10,0.1,0.68,0
0.0054997,-0.0022414,0.0030267,0.00088037,0.0011721,-0.00033776,0,0,0.048219,-0.0075855,0,-0.017563,0,0,0,0.0030786,0.00082848,0.0011721,-8.7352,0.0016931,0.0020995,4.3269e-10,0.12,0.68,0
0.0064708,-0.0025096,0.0030355,0.00082269,0.0011575,-0.0003164,0,0,0.048829,-0.008704,0,-0.016452,0,0,0,0.0030799,0.00077834,0.0011575,-7.9793,0.0016719,0.0021373,4.4874e-10,0.14,0.68,0
0.0074529,-0.0027446,0.0030397,0.00076859,0.0011425,-0.00029331,0,0,0.049327,-0.0097209,0,-0.015252,0,0,0,0.0030769,0.00073132,0.0011425,-7.2416,0.0016502,0.0021694,4.6156e-10,0.16,0.68,0
0.0084438,-0.0029448,0.0030388,0.00071837,0.0011272,-0.00026844,0,0,0.049703,-0.010629,0,-0.013959,0,0,0,0.0030695,0.00068772,0.0011272,-6.5136,0.0016281,0.0021953,4.7081e-10,0.18,0.68,0
0.009441,-0.0031088,0.0030329,0.00067198,0.0011115,-0.00024171,0,0,0.049958,-0.011427,0,-0.012569,0,0,0,0.0030574,0.00064749,0.0011115,-5.7859,0.0016055,0.0022147,4.7643e-10,0.2,0.68,0
0.010442,-0.0032352,0.0030221,0.00062904,0.0010953,-0.00021306,0,0,0.050096,-0.012124,0,-0.011079,0,0,0,0.0030409,0.00061022,0.0010953,-5.0482,0.0015822,0.0022281,4.7857e-10,0.22,0.68,0
0.011445,-0.0033226,0.0030065,0.00058883,0.0010786,-0.00018239,0,0,0.050126,-0.012734,0,-0.0094844,0,0,0,0.0030202,0.00057514,0.0010786,-4.29,0.001558,0.0022363,4.7769e-10,0.24,0.68,0
0.012447,-0.00337,0.0029867,0.0005503,0.0010611,-0.00014967,0,0,0.050066,-0.013281,0,-0.0077828,0,0,0,0.0029959,0.00054115,0.0010611,-3.5021,0.0015327,0.0022405,4.7442e-10,0.26,0.68,0
0.013447,-0.0033763,0.0029634,0.00051215,0.0010427,-0.0001149,0,0,0.049938,-0.013793,0,-0.0059746,0,0,0,0.0029687,0.00050677,0.0010427,-2.6778,0.0015061,0.0022425,4.6962e-10,0.28,0.68,0
0.014445,-0.0033409,0.0029372,0.00047278,0.001023,-7.8211e-05,0,0,0.049769,-0.014305,0,-0.004067,0,0,0,0.0029396,0.0004703,0.001023,-1.8159,0.0014776,0.0022446,4.6427e-10,0.3,0.68,0
0.015438,-0.0032637,0.0029091,0.00043048,0.0010019,-3.9946e-05,0,0,0.049589,-0.014857,0,-0.0020772,0,0,0,0.0029098,0.00042983,0.0010019,-0.92305,0.0014472,0.0022492,4.594e-10,0.32,0.68,0
0.016428,-0.0031453,0.0028804,0.00038345,0.00097914,-6.955e-07,0,0,0.049432,-0.015488,0,-3.6166e-05,0,0,0,0.0028804,0.00038345,0.00097914,-0.015959,0.0014143,0.0022588,4.5601e-10,0.34,0.68,0
0.017416,-0.0029873,0.002852,0.00032999,0.00095459,3.8622e-05,0,0,0.049332,-0.01624,0,0.0020083,0,0,0,0.0028526,0.0003294,0.00095459,0.87716,0.0013789,0.0022759,4.5496e-10,0.36,0.68,0
0.018402,-0.0027924,0.0028251,0.00026869,0.00092814,7.6723e-05,0,0,0.049321,-0.017146,0,0.0039896,0,0,0,0.0028274,0.00026639,0.00092814,1.7175,0.0013407,0.0023026,4.5682e-10,0.38,0.68,0
0.019388,-0.002565,0.0028009,0.00019856,0.00089983,0.00011193,0,0,0.049427,-0.018233,0,0.0058203,0,0,0,0.0028057,0.00019376,0.00089983,2.4583,0.0012998,0.0023402,4.6185e-10,0.4,0.68,0
0.020379,-0.0023113,0.0027801,0.00011938,0.00086986,0.00014217,0,0,0.049668,-0.019512,0,0.0073929,0,0,0,0.0027877,0.00011181,0.00086986,3.0499,0.0012565,0.0023889,4.6984e-10,0.42,0.68,0
0.021375,-0.0020396,0.0027634,3.1997e-05,0.00083863,0.00016508,0,0,0.050045,-0.020973,0,0.0085844,0,0,0,0.0027734,2.2056e-05,0.00083863,3.4461,0.0012113,0.0024474,4.8009e-10,0.44,0.68,0
0.02238,-0.0017602,0.0027507,-6.1263e-05,0.00080684,0.00017828,0,0,0.050541,-0.022571,0,0.0092704,0,0,0,0.002762,-7.2521e-05,0.00080684,3.6132,0.0011654,0.002513,4.9142e-10,0.46,0.68,0
0.023397,-0.0014856,0.0027415,-0.00015632,0.00077554,0.00017983,0,0,0.051114,-0.024228,0,0.0093511,0,0,0,0.0027526,-0.00016744,0.00077554,3.5375,0.0011202,0.0025811,5.0234e-10,0.48,0.68,0
0.024425,-0.0012289,0.0027347,-0.00024764,0.00074612,0.00016891,0,0,0.051703,-0.025838,0,0.0087833,0,0,0,0.0027443,-0.00025718,0.00074612,3.2312,0.0010777,0.0026465,5.115e-10,0.5,0.68,0
0.025465,-0.0010037,0.0027295,-0.00032924,0.00072009,0.00014616,0,0,0.052246,-0.027283,0,0.0076003,0,0,0,0.0027365,-0.00033621,0.00072009,2.7295,0.0010401,0.002704,5.181e-10,0.52,0.68,0
0.026515,-0.00082187,0.0027253,-0.00039608,0.00069876,0.00011357,0,0,0.05269,-0.028466,0,0.0059057,0,0,0,0.0027294,-0.00040021,0.00069876,2.081,0.0010093,0.0027501,5.2208e-10,0.54,0.68,0
0.027572,-0.0006932,0.0027218,-0.00044498,0.00068304,7.3805e-05,0,0,0.053007,-0.029328,0,0.0038378,0,0,0,0.0027235,-0.0004467,0.00068304,1.3344,0.00098661,0.002783,5.24e-10,0.56,0.68,0
0.028635,-0.00062451,0.0027191,-0.00047451,0.00067337,2.946e-05,0,0,0.053188,-0.029845,0,0.0015319,0,0,0,0.0027194,-0.00047479,0.00067337,0.52847,0.00097264,0.0028024,5.2462e-10,0.58,0.68,0
0.0297,-0.00061974,0.0027173,-0.00048422,0.00066993,-1.7279e-05,0,0,0.053233,-0.030008,0,-0.00089853,0,0,0,0.0027174,-0.00048432,0.00066993,-0.30922,0.00096768,0.0028085,5.2451e-10,0.6,0.68,0
0.030764,-0.00068,0.0027164,-0.00047387,0.00067276,-6.4402e-05,0,0,0.053135,-0.029812,0,-0.0033489,0,0,0,0.0027177,-0.00047517,0.00067276,-1.156,0.00097177,0.0028012,5.2374e-10,0.62,0.68,0
0.031825,-0.0008035,0.0027159,-0.00044345,0.00068174,-0.0001096,0,0,0.052889,-0.029255,0,-0.0056992,0,0,0,0.0027197,-0.00044725,0.00068174,-1.9844,0.00098473,0.0027801,5.2195e-10,0.64,0.68,0
0.03288,-0.00098541,0.0027155,-0.000394,0.00069646,-0.00015003,0,0,0.052496,-0.028352,0,-0.0078014,0,0,0,0.0027227,-0.00040123,0.00069646,-2.7559,0.001006,0.002745,5.1849e-10,0.66,0.68,0
0.033925,-0.0012178,0.0027153,-0.00032845,0.00071605,-0.00018266,0,0,0.05198,-0.027157,0,-0.0094984,0,0,0,0.0027262,-0.00033937,0.00071605,-3.4221,0.0010343,0.0026975,5.1284e-10,0.68,0.68,0
0.034959,-0.00149,0.0027158,-0.0002518,0.00073921,-0.00020509,0,0,0.051392,-0.025766,0,-0.010665,0,0,0,0.0027299,-0.0002659,0.00073921,-3.9347,0.0010677,0.0026409,5.0496e-10,0.7,0.68,0
0.035981,-0.0017898,0.0027181,-0.00017026,0.00076435,-0.00021625,0,0,0.050797,-0.0243,0,-0.011245,0,0,0,0.0027342,-0.00018636,0.00076435,-4.258,0.0011041,0.0025801,4.9547e-10,0.72,0.68,0
0.036991,-0.0021045,0.0027232,-8.9797e-05,0.00079001,-0.00021663,0,0,0.050262,-0.022875,0,-0.011265,0,0,0,0.0027397,-0.00010638,0.00079001,-4.3779,0.0011411,0.0025205,4.8551e-10,0.74,0.68,0
0.037991,-0.0024224,0.0027318,-1.5042e-05,0.00081503,-0.00020792,0,0,0.049836,-0.021582,0,-0.010812,0,0,0,0.0027474,-3.0692e-05,0.00081503,-4.3043,0.0011773,0.0024665,4.7638e-10,0.76,0.68,0
0.038984,-0.0027333,0.0027442,5.1085e-05,0.0008386,-0.00019241,0,0,0.049547,-0.020475,0,-0.010006,0,0,0,0.0027579,3.7408e-05,0.0008386,-4.066,0.0012113,0.0024214,4.6918e-10,0.78,0.68,0
0.039973,-0.0030291,0.0027601,0.00010716,0.00086019,-0.00017243,0,0,0.049399,-0.019579,0,-0.0089666,0,0,0,0.0027713,9.6004e-05,0.00086019,-3.7033,0.0012425,0.0023868,4.6462e-10,0.8,0.68,0
0.04096,-0.0033039,0.0027788,0.0001529,0.00087952,-0.00015008,0,0,0.049382,-0.018892,0,-0.0078042,0,0,0,0.0027874,0.00014435,0.00087952,-3.2605,0.0012704,0.0023628,4.6298e-10,0.82,0.68,0
0.041948,-0.0035532,0.0027993,0.00018878,0.00089643,-0.00012707,0,0,0.049475,-0.018399,0,-0.0066075,0,0,0,0.0028055,0.00018261,0.00089643,-2.7801,0.0012948,0.0023488,4.6415e-10,0.84,0.68,0
0.042939,-0.0037745,0.0028206,0.00021579,0.00091093,-0.00010471,0,0,0.049652,-0.018073,0,-0.0054449,0,0,0,0.0028248,0.00021159,0.00091093,-2.2982,0.0013158,0.0023432,4.6774e-10,0.86,0.68,0
0.043935,-0.0039661,0.0028416,0.00023526,0.00092307,-8.3909e-05,0,0,0.049883,-0.017883,0,-0.0043633,0,0,0,0.0028443,0.00023257,0.00092307,-1.842,0.0013333,0.0023441,4.7312e-10,0.88,0.68,0
0.044935,-0.0041275,0.0028613,0.00024863,0.00093299,-6.5188e-05,0,0,0.050137,-0.017793,0,-0.0033898,0,0,0,0.0028629,0.00024701,0.00093299,-1.4284,0.0013476,0.0023493,4.7951e-10,0.9,0.68,0
0.04594,-0.0042586,0.0028788,0.00025734,0.00094084,-4.8721e-05,0,0,0.050387,-0.017771,0,-0.0025335,0,0,0,0.0028797,0.00025643,0.00094084,-1.0644,0.001359,0.0023568,4.8611e-10,0.92,0.68,0
0.04695,-0.0043598,0.0028932,0.00026266,0.00094676,-3.439e-05,0,0,0.050608,-0.017787,0,-0.0017883,0,0,0,0.0028937,0.00026221,0.00094676,-0.74887,0.0013675,0.0023647,4.9216e-10,0.94,0.68,0
0.047964,-0.0044316,0.002904,0.00026566,0.0009509,-2.185e-05,0,0,0.05078,-0.017816,0,-0.0011362,0,0,0,0.0029042,0.00026548,0.0009509,-0.47447,0.0013735,0.0023715,4.9698e-10,0.96,0.68,0
0.048981,-0.0044745,0.0029106,0.00026714,0.00095333,-1.0592e-05,0,0,0.05089,-0.017841,0,-0.00055078,0,0,0,0.0029107,0.0002671,0.00095333,-0.22957,0.001377,0.002376,5.0009e-10,0.98,0.68,0
0.05,-0.0044888,0.0029129,0.00026758,0.00095414,-1.3706e-05,0,0,0.050927,-0.01785,0,-0.00071273,0,0,0,0.002913,0.00026751,0.00095414,-0.29686,0.0013782,0.0023777,5.0121e-10,1,0.68,0
0,0,0.0029037,0.0012444,0.0012444,-0.00045069,0,0,0.04314,7.5894e-19,0,-0.023436,0,0,0,0.0030182,0.0011299,0.0012444,-14.256,0.0017975,0.0018337,3.125e-10,0,0.7,0
0.0008628,-0.00046871,0.0028981,0.0011755,0.0012221,-0.00044783,0,0,0.043577,-0.0012109,0,-0.023287,0,0,0,0.0030076,0.0010661,0.0012221,-13.736,0.0017653,0.0018684,3.2714e-10,0.02,0.7,0
0.0017431,-0.00091111,0.0029204,0.001114,0.0012103,-0.00043161,0,0,0.044463,-0.0025048,0,-0.022444,0,0,0,0.0030182,0.0010161,0.0012103,-12.771,0.0017482,0.0019124,3.4677e-10,0.04,0.7,0
0.0026413,-0.0013262,0.0029419,0.0010498,0.0011975,-0.00041396,0,0,0.045354,-0.0038404,0,-0.021526,0,0,0,0.0030285,0.0009632,0.0011975,-11.816,0.0017297,0.0019587,3.6738e-10,0.06,0.7,0
0.0035572,-0.0017128,0.0029615,0.0009847,0.0011839,-0.00039447,0,0,0.046219,-0.0051785,0,-0.020512,0,0,0,0.0030373,0.00090889,0.0011839,-10.878,0.00171,0.0020052,3.8794e-10,0.08,0.7,0
0.0044901,-0.0020693,0.0029784,0.00092023,0.0011696,-0.00037292,0,0,0.04703,-0.0064835,0,-0.019392,0,0,0,0.0030439,0.00085475,0.0011696,-9.9595,0.0016894,0.00205,4.0748e-10,0.1,0.7,0
0.0054384,-0.0023939,0.0029918,0.00085771,0.0011549,-0.00034919,0,0,0.04776,-0.0077256,0,-0.018158,0,0,0,0.0030475,0.00080203,0.0011549,-9.0604,0.0016681,0.0020915,4.2514e-10,0.12,0.7,0
0.0064005,-0.0026848,0.003001,0.00079814,0.0011397,-0.0003233,0,0,0.048392,-0.0088814,0,-0.016812,0,0,0,0.0030474,0.00075167,0.0011397,-8.1794,0.0016463,0.0021284,4.4025e-10,0.14,0.7,0
0.0073741,-0.0029405,0.0030056,0.00074219,0.0011243,-0.00029536,0,0,0.048912,-0.0099356,0,-0.015359,0,0,0,0.0030435,0.00070428,0.0011243,-7.3136,0.001624,0.00216,4.5233e-10,0.16,0.7,0
0.008357,-0.0031592,0.0030054,0.00069016,0.0011087,-0.00026547,0,0,0.049315,-0.010881,0,-0.013804,0,0,0,0.0030354,0.00066011,0.0011087,-6.458,0.0016014,0.0021859,4.6118e-10,0.18,0.7,0
0.0093467,-0.0033396,0.0030004,0.000642,0.0010927,-0.00023378,0,0,0.049601,-0.011719,0,-0.012156,0,0,0,0.0030234,0.00061905,0.0010927,-5.6066,0.0015784,0.002206,4.6681e-10,0.2,0.7,0
0.010341,-0.0034803,0.0029909,0.0005973,0.0010765,-0.00020039,0,0,0.049776,-0.012458,0,-0.01042,0,0,0,0.0030076,0.00058064,0.0010765,-4.7527,0.0015549,0.0022209,4.6949e-10,0.22,0.7,0
0.011338,-0.0035805,0.0029772,0.00055534,0.0010598,-0.00016543,0,0,0.049854,-0.013115,0,-0.0086024,0,0,0,0.0029885,0.00054409,0.0010598,-3.8896,0.0015308,0.0022317,4.6971e-10,0.24,0.7,0
0.012335,-0.0036393,0.0029599,0.0005151,0.0010425,-0.00012901,0,0,0.049852,-0.013712,0,-0.0067084,0,0,0,0.0029667,0.00050831,0.0010425,-3.0123,0.0015058,0.0022396,4.6814e-10,0.26,0.7,0
0.013332,-0.0036565,0.0029396,0.00047534,0.0010245,-9.13e-05,0,0,0.049794,-0.014278,0,-0.0047476,0,0,0,0.002943,0.00047197,0.0010245,-2.1189,0.0014798,0.0022463,4.6558e-10,0.28,0.7,0
0.014327,-0.003632,0.0029174,0.00043464,0.0010056,-5.2591e-05,0,0,0.049706,-0.014845,0,-0.0027347,0,0,0,0.0029185,0.00043353,0.0010056,-1.213,0.0014525,0.002254,4.6291e-10,0.3,0.7,0
0.01532,-0.0035665,0.002894,0.00039148,0.00098564,-1.3327e-05,0,0,0.049617,-0.015448,0,-0.00069298,0,0,0,0.002894,0.00039141,0.00098564,-0.30511,0.0014237,0.0022648,4.6101e-10,0.32,0.7,0
0.016312,-0.0034613,0.0028705,0.00034434,0.00096446,2.5822e-05,0,0,0.049558,-0.016123,0,0.0013428,0,0,0,0.0028708,0.00034408,0.00096446,0.58559,0.0013931,0.0022807,4.6071e-10,0.34,0.7,0
0.017302,-0.0033187,0.0028481,0.00029184,0.00094197,6.3917e-05,0,0,0.049558,-0.016903,0,0.0033237,0,0,0,0.0028497,0.00029025,0.00094197,1.4314,0.0013606,0.0023038,4.6266e-10,0.36,0.7,0
0.018294,-0.0031422,0.0028276,0.0002329,0.00091815,9.9716e-05,0,0,0.049646,-0.017816,0,0.0051852,0,0,0,0.0028314,0.00022908,0.00091815,2.1976,0.0013262,0.0023353,4.6726e-10,0.38,0.7,0
0.019288,-0.0029364,0.00281,0.00016692,0.00089308,0.00013168,0,0,0.04984,-0.01888,0,0.0068472,0,0,0,0.0028166,0.00016037,0.00089308,2.845,0.00129,0.0023761,4.7458e-10,0.4,0.7,0
0.020287,-0.0027078,0.0027959,9.3961e-05,0.00086696,0.000158,0,0,0.050153,-0.020098,0,0.0082158,0,0,0,0.0028051,8.4754e-05,0.00086696,3.3352,0.0012523,0.0024258,4.8436e-10,0.42,0.7,0
0.021294,-0.0024644,0.0027855,1.5069e-05,0.00084019,0.00017674,0,0,0.050579,-0.021453,0,0.0091906,0,0,0,0.0027968,3.8392e-06,0.00084019,3.6355,0.0012136,0.0024828,4.9588e-10,0.44,0.7,0
0.022311,-0.0022156,0.0027788,-6.7587e-05,0.00081336,0.0001861,0,0,0.051101,-0.022905,0,0.009677,0,0,0,0.0027909,-7.9703e-05,0.00081336,3.7249,0.0011749,0.0025445,5.0816e-10,0.46,0.7,0
0.023338,-0.0019723,0.002775,-0.00015065,0.0007873,0.00018471,0,0,0.05168,-0.024387,0,0.0096049,0,0,0,0.0027866,-0.00016227,0.0007873,3.5983,0.0011372,0.0026072,5.2001e-10,0.48,0.7,0
0.024378,-0.001746,0.0027733,-0.00022988,0.00076302,0.00017206,0,0,0.052267,-0.025815,0,0.0089469,0,0,0,0.0027831,-0.0002397,0.00076302,3.2683,0.0011022,0.0026668,5.3037e-10,0.5,0.7,0
0.025429,-0.0015481,0.0027727,-0.00030075,0.00074158,0.00014865,0,0,0.052809,-0.027101,0,0.0077297,0,0,0,0.0027799,-0.00030793,0.00074158,2.7626,0.0010712,0.0027194,5.3851e-10,0.52,0.7,0
0.02649,-0.0013888,0.0027724,-0.00035929,0.00072392,0.00011597,0,0,0.05326,-0.028164,0,0.0060303,0,0,0,0.0027766,-0.00036358,0.00072392,2.1178,0.0010457,0.002762,5.4419e-10,0.54,0.7,0
0.027559,-0.0012767,0.0027717,-0.00040256,0.00071075,7.6128e-05,0,0,0.053586,-0.028946,0,0.0039587,0,0,0,0.0027736,-0.00040438,0.00071075,1.3731,0.0010266,0.0027927,5.4754e-10,0.56,0.7,0
0.028634,-0.0012179,0.0027705,-0.0004288,0.0007025,3.1486e-05,0,0,0.053767,-0.029414,0,0.0016373,0,0,0,0.0027708,-0.00042911,0.0007025,0.56382,0.0010147,0.0028105,5.4888e-10,0.58,0.7,0
0.02971,-0.0012161,0.0027684,-0.00043716,0.00069937,-1.5594e-05,0,0,0.053795,-0.02955,0,-0.00081087,0,0,0,0.0027685,-0.00043724,0.00069937,-0.27871,0.0010102,0.0028151,5.4849e-10,0.6,0.7,0
0.030786,-0.0012723,0.0027654,-0.00042747,0.00070137,-6.2747e-05,0,0,0.053664,-0.02935,0,-0.0032628,0,0,0,0.0027666,-0.0004287,0.00070137,-1.1254,0.0010131,0.0028064,5.4644e-10,0.62,0.7,0
0.031857,-0.0013848,0.0027614,-0.00040021,0.00070835,-0.00010751,0,0,0.053379,-0.028823,0,-0.0055903,0,0,0,0.002765,-0.00040386,0.00070835,-1.9453,0.0010232,0.0027847,5.4259e-10,0.64,0.7,0
0.032921,-0.0015493,0.0027565,-0.00035688,0.00071989,-0.00014731,0,0,0.052952,-0.027996,0,-0.0076604,0,0,0,0.0027635,-0.00036384,0.00071989,-2.703,0.0010398,0.0027505,5.3672e-10,0.66,0.7,0
0.033975,-0.001759,0.0027512,-0.00030024,0.00073529,-0.00017978,0,0,0.052414,-0.026924,0,-0.0093485,0,0,0,0.0027618,-0.0003108,0.00073529,-3.3601,0.0010621,0.0027057,5.2873e-10,0.68,0.7,0
0.035017,-0.002005,0.0027462,-0.00023428,0.00075359,-0.0002031,0,0,0.051809,-0.025685,0,-0.010561,0,0,0,0.00276,-0.00024806,0.00075359,-3.8804,0.0010885,0.0026531,5.1881e-10,0.7,0.7,0
0.036047,-0.002277,0.0027426,-0.00016369,0.00077368,-0.00021645,0,0,0.051193,-0.024372,0,-0.011255,0,0,0,0.0027587,-0.00017972,0.00077368,-4.236,0.0011175,0.0025965,5.0758e-10,0.72,0.7,0
0.037065,-0.0025645,0.0027413,-9.305e-05,0.00079448,-0.00022009,0,0,0.050618,-0.023076,0,-0.011444,0,0,0,0.0027583,-0.00011004,0.00079448,-4.4137,0.0011476,0.0025399,4.9595e-10,0.74,0.7,0
0.038072,-0.0028573,0.0027431,-2.6156e-05,0.00081509,-0.00021517,0,0,0.050129,-0.021872,0,-0.011189,0,0,0,0.0027597,-4.2775e-05,0.00081509,-4.4165,0.0011773,0.0024871,4.8495e-10,0.76,0.7,0
0.03907,-0.0031464,0.0027483,3.4321e-05,0.00083478,-0.0002034,0,0,0.049751,-0.020812,0,-0.010577,0,0,0,0.0027635,1.9161e-05,0.00083478,-4.2624,0.0012058,0.0024409,4.7549e-10,0.78,0.7,0
0.040062,-0.0034243,0.0027568,8.6845e-05,0.00085309,-0.00018668,0,0,0.049496,-0.019922,0,-0.0097072,0,0,0,0.0027698,7.3857e-05,0.00085309,-3.9802,0.0012322,0.002403,4.6822e-10,0.8,0.7,0
0.04105,-0.0036849,0.0027682,0.00013083,0.00086969,-0.00016679,0,0,0.04936,-0.01921,0,-0.0086729,0,0,0,0.0027787,0.00012032,0.00086969,-3.6043,0.0012562,0.0023741,4.6347e-10,0.82,0.7,0
0.042036,-0.0039238,0.0027817,0.0001664,0.00088442,-0.00014529,0,0,0.049328,-0.018668,0,-0.0075552,0,0,0,0.0027897,0.00015835,0.00088442,-3.1701,0.0012775,0.0023539,4.6124e-10,0.84,0.7,0
0.043023,-0.0041377,0.0027964,0.00019419,0.00089718,-0.00012344,0,0,0.04938,-0.018278,0,-0.0064187,0,0,0,0.0028023,0.00018835,0.00089718,-2.7097,0.0012959,0.0023414,4.6127e-10,0.86,0.7,0
0.044012,-0.0043247,0.0028115,0.00021515,0.00090801,-0.00010213,0,0,0.049492,-0.018014,0,-0.0053108,0,0,0,0.0028156,0.00021113,0.00090801,-2.2491,0.0013116,0.0023353,4.631e-10,0.88,0.7,0
0.045003,-0.0044834,0.0028261,0.00023037,0.00091694,-8.1955e-05,0,0,0.049638,-0.017851,0,-0.0042617,0,0,0,0.0028287,0.00022778,0.00091694,-1.8066,0.0013245,0.0023339,4.6614e-10,0.9,0.7,0
0.045997,-0.0046133,0.0028393,0.00024099,0.00092408,-6.3192e-05,0,0,0.049795,-0.01776,0,-0.003286,0,0,0,0.0028408,0.00023945,0.00092408,-1.3924,0.0013348,0.0023356,4.6975e-10,0.92,0.7,0
0.046995,-0.0047142,0.0028503,0.00024804,0.00092951,-4.5869e-05,0,0,0.049941,-0.017718,0,-0.0023852,0,0,0,0.0028511,0.00024724,0.00092951,-1.0095,0.0013426,0.0023386,4.7331e-10,0.94,0.7,0
0.047995,-0.0047861,0.0028586,0.00025241,0.00093331,-2.9802e-05,0,0,0.050058,-0.017703,0,-0.0015497,0,0,0,0.002859,0.00025207,0.00093331,-0.65507,0.0013481,0.0023418,4.7627e-10,0.96,0.7,0
0.048997,-0.0048292,0.0028638,0.00025476,0.00093557,-1.4658e-05,0,0,0.050134,-0.017701,0,-0.00076223,0,0,0,0.0028639,0.00025468,0.00093557,-0.32189,0.0013514,0.0023441,4.7823e-10,0.98,0.7,0
0.05,-0.0048436,0.0028656,0.0002555,0.00093632,-1.3791e-05,0,0,0.05016,-0.017701,0,-0.00071715,0,0,0,0.0028656,0.00025543,0.00093632,-0.30274,0.0013525,0.0023451,4.7897e-10,1,0.7,0
0,0,0.0028714,0.0012306,0.0012306,-0.00047411,0,0,0.04266,9.2157e-19,0,-0.024654,0,0,0,0.0029985,0.0011034,0.0012306,-15.012,0.0017775,0.0018348,3.1211e-10,0,0.72,0
0.0008532,-0.00049308,0.0028658,0.0011602,0.0012078,-0.00047093,0,0,0.043108,-0.0012377,0,-0.024488,0,0,0,0.0029872,0.0010388,0.0012078,-14.454,0.0017446,0.0018696,3.2642e-10,0.02,0.72,0
0.0017243,-0.0009616,0.0028886,0.0010968,0.0011956,-0.0004545,0,0,0.044018,-0.0025691,0,-0.023634,0,0,0,0.0029973,0.00098814,0.0011956,-13.45,0.001727,0.0019139,3.4584e-10,0.04,0.72,0
0.0026139,-0.0014038,0.0029108,0.0010304,0.0011823,-0.00043551,0,0,0.044939,-0.0039508,0,-0.022646,0,0,0,0.0030067,0.00093443,0.0011823,-12.427,0.0017078,0.0019601,3.6602e-10,0.06,0.72,0
0.0035219,-0.0018175,0.0029311,0.00096278,0.0011682,-0.00041364,0,0,0.045836,-0.0053399,0,-0.021509,0,0,0,0.0030145,0.00087938,0.0011682,-11.399,0.0016873,0.0020064,3.8599e-10,0.08,0.72,0
0.0044474,-0.0022005,0.0029486,0.00089571,0.0011533,-0.00038879,0,0,0.046678,-0.0066971,0,-0.020217,0,0,0,0.0030198,0.00082455,0.0011533,-10.373,0.0016659,0.0020507,4.0482e-10,0.1,0.72,0
0.005389,-0.0025504,0.0029625,0.00083069,0.001138,-0.00036104,0,0,0.047439,-0.0079892,0,-0.018774,0,0,0,0.003022,0.0007712,0.001138,-9.3561,0.0016437,0.0020917,4.2172e-10,0.12,0.72,0
0.0063449,-0.0028649,0.0029723,0.00076881,0.0011223,-0.00033065,0,0,0.048098,-0.0091912,0,-0.017194,0,0,0,0.0030208,0.00072027,0.0011223,-8.3527,0.0016211,0.0021282,4.3609e-10,0.14,0.72,0
0.0073129,-0.003142,0.0029774,0.00071082,0.0011065,-0.00029791,0,0,0.048645,-0.010287,0,-0.015491,0,0,0,0.0030159,0.00067232,0.0011065,-7.364,0.0015983,0.0021595,4.4759e-10,0.16,0.72,0
0.0082907,-0.0033801,0.002978,0.000657,0.0010905,-0.0002632,0,0,0.049074,-0.011271,0,-0.013686,0,0,0,0.0030074,0.00062753,0.0010905,-6.3893,0.0015751,0.0021855,4.561e-10,0.18,0.72,0
0.0092759,-0.0035776,0.0029739,0.00060728,0.0010744,-0.00022685,0,0,0.049389,-0.012144,0,-0.011796,0,0,0,0.0029955,0.00058573,0.0010744,-5.4261,0.0015519,0.0022064,4.6176e-10,0.2,0.72,0
0.010266,-0.0037335,0.0029656,0.00056121,0.0010581,-0.00018918,0,0,0.049598,-0.012918,0,-0.0098373,0,0,0,0.0029804,0.00054642,0.0010581,-4.4713,0.0015283,0.0022228,4.649e-10,0.22,0.72,0
0.01126,-0.0038472,0.0029536,0.00051806,0.0010415,-0.00015046,0,0,0.049716,-0.01361,0,-0.0078239,0,0,0,0.0029629,0.0005088,0.0010415,-3.5216,0.0015044,0.0022359,4.6605e-10,0.24,0.72,0
0.012255,-0.0039185,0.0029385,0.00047682,0.0010246,-0.00011097,0,0,0.049763,-0.014242,0,-0.0057704,0,0,0,0.0029436,0.00047183,0.0010246,-2.5758,0.00148,0.0022469,4.6588e-10,0.26,0.72,0
0.01325,-0.0039474,0.0029211,0.00043632,0.0010072,-7.1011e-05,0,0,0.049762,-0.014844,0,-0.0036926,0,0,0,0.0029232,0.0004343,0.0010072,-1.6356,0.0014549,0.0022576,4.6513e-10,0.28,0.72,0
0.014245,-0.0039347,0.0029023,0.00039525,0.00098926,-3.0971e-05,0,0,0.049739,-0.015444,0,-0.0016105,0,0,0,0.0029027,0.00039487,0.00098926,-0.70767,0.0014289,0.0022698,4.6458e-10,0.3,0.72,0
0.01524,-0.0038816,0.0028829,0.00035227,0.00097056,8.6333e-06,0,0,0.049721,-0.016075,0,0.00044893,0,0,0,0.002883,0.00035224,0.00097056,0.19546,0.0014019,0.0022852,4.6496e-10,0.32,0.72,0
0.016234,-0.0037903,0.002864,0.00030608,0.00095102,4.7103e-05,0,0,0.049737,-0.016768,0,0.0024494,0,0,0,0.0028648,0.00030522,0.00095102,1.0546,0.0013737,0.0023056,4.6693e-10,0.34,0.72,0
0.017229,-0.0036634,0.0028464,0.00025558,0.0009306,8.3525e-05,0,0,0.049811,-0.01755,0,0.0043433,0,0,0,0.0028491,0.00025289,0.0009306,1.8446,0.0013442,0.0023324,4.7097e-10,0.36,0.72,0
0.018227,-0.003505,0.002831,0.00019995,0.00090929,0.00011675,0,0,0.049965,-0.018443,0,0.0060712,0,0,0,0.0028362,0.00019478,0.00090929,2.5358,0.0013134,0.0023665,4.7732e-10,0.38,0.72,0
0.019228,-0.0033202,0.0028185,0.00013885,0.00088721,0.00014543,0,0,0.050214,-0.019457,0,0.0075624,0,0,0,0.0028264,0.00013098,0.00088721,3.0974,0.0012815,0.0024081,4.8596e-10,0.4,0.72,0
0.020235,-0.0031152,0.0028093,7.2537e-05,0.00086454,0.00016805,0,0,0.050563,-0.020592,0,0.0087385,0,0,0,0.0028196,6.2256e-05,0.00086454,3.5007,0.0012488,0.0024565,4.9654e-10,0.42,0.72,0
0.02125,-0.0028977,0.0028034,2.0703e-06,0.00084165,0.00018307,0,0,0.051006,-0.021829,0,0.0095198,0,0,0,0.0028153,-9.8431e-06,0.00084165,3.7233,0.0012157,0.0025102,5.0846e-10,0.44,0.72,0
0.022275,-0.0026764,0.0028006,-7.0636e-05,0.000819,0.00018915,0,0,0.051523,-0.023131,0,0.0098356,0,0,0,0.0028131,-8.3042e-05,0.000819,3.7528,0.001183,0.0025668,5.2085e-10,0.46,0.72,0
0.023311,-0.002461,0.0028004,-0.00014284,0.00079725,0.00018533,0,0,0.052081,-0.024442,0,0.0096372,0,0,0,0.002812,-0.00015447,0.00079725,3.589,0.0011516,0.0026234,5.3277e-10,0.48,0.72,0
0.024359,-0.0022615,0.0028017,-0.00021122,0.00077713,0.00017133,0,0,0.052638,-0.025697,0,0.0089092,0,0,0,0.0028114,-0.00022094,0.00077713,3.2442,0.0011225,0.0026767,5.4336e-10,0.5,0.72,0
0.025417,-0.0020877,0.0028036,-0.00027228,0.00075941,0.00014762,0,0,0.05315,-0.026824,0,0.0076763,0,0,0,0.0028107,-0.00027935,0.00075941,2.7414,0.0010969,0.0027235,5.5197e-10,0.52,0.72,0
0.026485,-0.0019484,0.0028054,-0.00032283,0.00074478,0.00011542,0,0,0.053576,-0.027758,0,0.0060018,0,0,0,0.0028097,-0.00032708,0.00074478,2.1102,0.0010758,0.0027615,5.5826e-10,0.54,0.72,0
0.02756,-0.001851,0.0028062,-0.00036033,0.00073377,7.6507e-05,0,0,0.053884,-0.028447,0,0.0039784,0,0,0,0.0028081,-0.00036218,0.00073377,1.3832,0.0010599,0.0027888,5.6215e-10,0.56,0.72,0
0.02864,-0.0018011,0.0028056,-0.0003831,0.00072676,3.3003e-05,0,0,0.054051,-0.028856,0,0.0017162,0,0,0,0.002806,-0.00038344,0.00072676,0.59293,0.0010498,0.0028043,5.6371e-10,0.58,0.72,0
0.029722,-0.0018017,0.0028033,-0.00039025,0.00072392,-1.2809e-05,0,0,0.054064,-0.028968,0,-0.00066605,0,0,0,0.0028034,-0.0003903,0.00072392,-0.22979,0.0010457,0.0028076,5.6306e-10,0.6,0.72,0
0.030803,-0.001854,0.0027991,-0.00038164,0.00072525,-5.8579e-05,0,0,0.053921,-0.028779,0,-0.0030461,0,0,0,0.0028002,-0.00038272,0.00072525,-1.0547,0.0010476,0.0027986,5.6025e-10,0.62,0.72,0
0.031879,-0.0019564,0.0027932,-0.00035791,0.00073059,-0.00010194,0,0,0.053628,-0.028301,0,-0.0053011,0,0,0,0.0027965,-0.00036121,0.00073059,-1.851,0.0010553,0.0027777,5.5529e-10,0.64,0.72,0
0.032948,-0.0021052,0.0027858,-0.00032055,0.00073958,-0.00014063,0,0,0.053202,-0.027564,0,-0.0073127,0,0,0,0.0027922,-0.00032691,0.00073958,-2.5868,0.0010683,0.0027459,5.4817e-10,0.66,0.72,0
0.034007,-0.0022947,0.0027776,-0.00027199,0.00075168,-0.00017264,0,0,0.052674,-0.026616,0,-0.0089772,0,0,0,0.0027873,-0.00028173,0.00075168,-3.2298,0.0010858,0.0027047,5.39e-10,0.68,0.72,0
0.035055,-0.0025174,0.0027693,-0.00021544,0.00076616,-0.00019652,0,0,0.052082,-0.025521,0,-0.010219,0,0,0,0.0027822,-0.00022832,0.00076616,-3.7509,0.0011067,0.0026567,5.2811e-10,0.7,0.72,0
0.03609,-0.0027647,0.0027619,-0.00015454,0.00078221,-0.00021156,0,0,0.051472,-0.024355,0,-0.011001,0,0,0,0.0027772,-0.0001698,0.00078221,-4.1275,0.0011299,0.0026049,5.1607e-10,0.72,0.72,0
0.037114,-0.0030275,0.0027563,-9.2892e-05,0.00079902,-0.00021785,0,0,0.050889,-0.02319,0,-0.011328,0,0,0,0.0027729,-0.00010945,0.00079902,-4.3472,0.0011542,0.0025524,5.0364e-10,0.74,0.72,0
0.038126,-0.0032973,0.0027532,-3.3604e-05,0.00081588,-0.00021617,0,0,0.050371,-0.022087,0,-0.011241,0,0,0,0.0027699,-5.0273e-05,0.00081588,-4.4093,0.0011785,0.0025022,4.9165e-10,0.76,0.72,0
0.039128,-0.0035657,0.002753,2.0986e-05,0.00083221,-0.00020779,0,0,0.049942,-0.021092,0,-0.010805,0,0,0,0.0027688,5.2723e-06,0.00083221,-4.3246,0.0012021,0.0024567,4.8085e-10,0.78,0.72,0
0.040123,-0.003826,0.0027558,6.9371e-05,0.00084757,-0.00019419,0,0,0.049615,-0.020233,0,-0.010098,0,0,0,0.0027698,5.5406e-05,0.00084757,-4.1131,0.0012243,0.0024177,4.7184e-10,0.8,0.72,0
0.041113,-0.0040723,0.0027614,0.0001108,0.00086165,-0.00017688,0,0,0.049393,-0.019522,0,-0.0091977,0,0,0,0.0027731,9.9054e-05,0.00086165,-3.801,0.0012446,0.002386,4.6494e-10,0.82,0.72,0
0.042099,-0.0043,0.0027691,0.00014516,0.00087428,-0.00015721,0,0,0.049265,-0.018957,0,-0.0081751,0,0,0,0.0027785,0.00013578,0.00087428,-3.4166,0.0012629,0.0023617,4.6023e-10,0.84,0.72,0
0.043084,-0.0045056,0.0027784,0.00017278,0.00088534,-0.00013634,0,0,0.049218,-0.018527,0,-0.0070896,0,0,0,0.0027855,0.00016567,0.00088534,-2.9872,0.0012788,0.0023443,4.5757e-10,0.86,0.72,0
0.044068,-0.0046867,0.0027884,0.0001943,0.00089481,-0.00011514,0,0,0.049233,-0.018213,0,-0.0059874,0,0,0,0.0027935,0.0001892,0.00089481,-2.5365,0.0012925,0.0023329,4.5665e-10,0.88,0.72,0
0.045053,-0.0048415,0.0027985,0.00021052,0.00090269,-9.4237e-05,0,0,0.04929,-0.017996,0,-0.0049003,0,0,0,0.0028019,0.00020709,0.00090269,-2.0827,0.0013039,0.0023263,4.5703e-10,0.9,0.72,0
0.046039,-0.004969,0.0028078,0.00022232,0.00090903,-7.3991e-05,0,0,0.049368,-0.017854,0,-0.0038475,0,0,0,0.0028099,0.00022021,0.00090903,-1.6379,0.0013131,0.0023232,4.5824e-10,0.92,0.72,0
0.047028,-0.0050685,0.0028158,0.00023052,0.00091389,-5.4548e-05,0,0,0.049449,-0.017767,0,-0.0028365,0,0,0,0.0028169,0.00022937,0.00091389,-1.2082,0.0013201,0.0023222,4.5978e-10,0.94,0.72,0
0.048017,-0.0051398,0.0028219,0.00023583,0.00091731,-3.5869e-05,0,0,0.049518,-0.017718,0,-0.0018652,0,0,0,0.0028223,0.00023534,0.00091731,-0.79451,0.001325,0.0023224,4.6122e-10,0.96,0.72,0
0.049008,-0.0051826,0.0028257,0.00023879,0.00091934,-1.7777e-05,0,0,0.049565,-0.017694,0,-0.00092438,0,0,0,0.0028258,0.00023867,0.00091934,-0.3937,0.0013279,0.0023228,4.6223e-10,0.98,0.72,0
0.05,-0.0051968,0.002827,0.00023974,0.00092001,-1.3716e-05,0,0,0.049581,-0.017687,0,-0.00071324,0,0,0,0.002827,0.00023967,0.00092001,-0.30374,0.0013289,0.0023232,4.6264e-10,1,0.72,0
0,0,0.0028433,0.0012186,0.0012186,-0.00049829,0,0,0.042243,4.3368e-19,0,-0.025911,0,0,0,0.0029839,0.0010779,0.0012186,-15.762,0.0017601,0.0018398,3.1352e-10,0,0.74,0
0.00084487,-0.00051822,0.0028376,0.0011453,0.0011949,-0.0004948,0,0,0.042711,-0.001289,0,-0.02573,0,0,0,0.0029716,0.0010112,0.0011949,-15.159,0.0017259,0.0018754,3.2782e-10,0.02,0.74,0
0.0017084,-0.0010139,0.0028614,0.0010789,0.0011821,-0.00047825,0,0,0.043663,-0.0026832,0,-0.024869,0,0,0,0.0029817,0.0009587,0.0011821,-14.109,0.0017075,0.001921,3.4755e-10,0.04,0.74,0
0.0025914,-0.0014843,0.0028846,0.0010091,0.0011681,-0.00045793,0,0,0.044629,-0.0041352,0,-0.023812,0,0,0,0.0029904,0.00090321,0.0011681,-13.014,0.0016872,0.0019682,3.6779e-10,0.06,0.74,0
0.0034936,-0.0019264,0.0029059,0.00093786,0.0011531,-0.00043361,0,0,0.045572,-0.0055969,0,-0.022548,0,0,0,0.0029972,0.00084656,0.0011531,-11.89,0.0016656,0.0020149,3.8756e-10,0.08,0.74,0
0.0044142,-0.0023372,0.0029243,0.00086735,0.0011375,-0.00040534,0,0,0.046456,-0.0070235,0,-0.021078,0,0,0,0.0030013,0.00079035,0.0011375,-10.755,0.001643,0.0020594,4.0596e-10,0.1,0.74,0
0.0053519,-0.0027134,0.0029389,0.00079921,0.0011214,-0.00037345,0,0,0.047254,-0.0083776,0,-0.019419,0,0,0,0.0030022,0.00073591,0.0011214,-9.6214,0.0016198,0.0021002,4.2227e-10,0.12,0.74,0
0.0063044,-0.0030525,0.0029492,0.0007347,0.0011052,-0.00033845,0,0,0.047944,-0.009632,0,-0.017599,0,0,0,0.0029997,0.00068413,0.0011052,-8.4984,0.0015963,0.0021364,4.3599e-10,0.14,0.74,0
0.0072696,-0.003352,0.0029548,0.00067457,0.0010888,-0.00030093,0,0,0.048516,-0.010771,0,-0.015648,0,0,0,0.0029939,0.00063552,0.0010888,-7.3929,0.0015727,0.0021675,4.4689e-10,0.16,0.74,0
0.0082451,-0.00361,0.0029558,0.0006191,0.0010725,-0.00026152,0,0,0.048967,-0.011788,0,-0.013599,0,0,0,0.0029847,0.00059019,0.0010725,-6.3084,0.0015491,0.0021935,4.5499e-10,0.18,0.74,0
0.0092283,-0.0038253,0.0029525,0.00056817,0.0010562,-0.00022078,0,0,0.049303,-0.012689,0,-0.01148,0,0,0,0.0029728,0.0005479,0.0010562,-5.2459,0.0015256,0.0022149,4.6051e-10,0.2,0.74,0
0.010217,-0.003997,0.0029452,0.00052125,0.0010399,-0.0001792,0,0,0.049536,-0.013485,0,-0.0093184,0,0,0,0.0029583,0.00050808,0.0010399,-4.2054,0.0015021,0.0022324,4.6389e-10,0.22,0.74,0
0.01121,-0.0041249,0.0029345,0.00047757,0.0010236,-0.00013722,0,0,0.049683,-0.014197,0,-0.0071352,0,0,0,0.0029422,0.00046993,0.0010236,-3.1867,0.0014786,0.0022471,4.6566e-10,0.24,0.74,0
0.012205,-0.004209,0.0029212,0.00043612,0.0010072,-9.5215e-05,0,0,0.049765,-0.014849,0,-0.0049512,0,0,0,0.0029249,0.00043247,0.0010072,-2.1909,0.0014549,0.0022605,4.6649e-10,0.26,0.74,0
0.0132,-0.0042503,0.0029062,0.00039574,0.00099058,-5.3591e-05,0,0,0.049806,-0.015466,0,-0.0027868,0,0,0,0.0029073,0.0003946,0.00099058,-1.2224,0.0014308,0.0022741,4.6705e-10,0.28,0.74,0
0.014197,-0.0042498,0.0028902,0.00035524,0.00097363,-1.2788e-05,0,0,0.049831,-0.016078,0,-0.00066498,0,0,0,0.0028903,0.00035518,0.00097363,-0.28903,0.0014064,0.0022894,4.6801e-10,0.3,0.74,0
0.015194,-0.0042095,0.0028741,0.00031341,0.00095626,2.6652e-05,0,0,0.049865,-0.016714,0,0.0013859,0,0,0,0.0028744,0.00031313,0.00095626,0.59624,0.0013813,0.0023079,4.6999e-10,0.32,0.74,0
0.016191,-0.0041321,0.0028589,0.00026913,0.0009384,6.4046e-05,0,0,0.049932,-0.017401,0,0.0033304,0,0,0,0.0028605,0.00026755,0.0009384,1.4158,0.0013555,0.002331,4.7347e-10,0.34,0.74,0
0.017191,-0.0040208,0.0028452,0.00022151,0.00092002,9.8549e-05,0,0,0.050055,-0.018161,0,0.0051245,0,0,0,0.0028489,0.00021782,0.00092002,2.1481,0.0013289,0.0023597,4.7881e-10,0.36,0.74,0
0.018194,-0.0038799,0.0028338,0.00016994,0.00090112,0.00012915,0,0,0.050249,-0.019011,0,0.0067157,0,0,0,0.00284,0.00016369,0.00090112,2.7691,0.0013016,0.0023944,4.8612e-10,0.38,0.74,0
0.019201,-0.0037147,0.0028251,0.00011423,0.00088181,0.00015469,0,0,0.050526,-0.019957,0,0.008044,0,0,0,0.0028339,0.00010543,0.00088181,3.2554,0.0012737,0.002435,4.9531e-10,0.4,0.74,0
0.020215,-0.0035315,0.0028194,5.4747e-05,0.00086226,0.00017396,0,0,0.050887,-0.020995,0,0.0090457,0,0,0,0.0028303,4.3844e-05,0.00086226,3.5862,0.0012455,0.0024807,5.0603e-10,0.42,0.74,0
0.021236,-0.0033375,0.0028167,-7.5316e-06,0.00084276,0.00018575,0,0,0.051323,-0.022107,0,0.0096592,0,0,0,0.0028289,-1.9696e-05,0.00084276,3.7469,0.0012173,0.0025301,5.1772e-10,0.44,0.74,0
0.022267,-0.0031408,0.0028166,-7.0964e-05,0.00082369,0.00018909,0,0,0.051816,-0.023261,0,0.0098328,0,0,0,0.0028289,-8.3294e-05,0.00082369,3.7308,0.0011898,0.0025811,5.2968e-10,0.46,0.74,0
0.023309,-0.00295,0.0028185,-0.00013332,0.00080555,0.00018334,0,0,0.052336,-0.024411,0,0.0095339,0,0,0,0.0028298,-0.00014466,0.00080555,3.5406,0.0011636,0.0026314,5.4113e-10,0.48,0.74,0
0.024361,-0.0027739,0.0028216,-0.00019197,0.00078888,0.00016839,0,0,0.05285,-0.025502,0,0.0087564,0,0,0,0.0028309,-0.00020135,0.00078888,3.1884,0.0011395,0.0026782,5.5135e-10,0.5,0.74,0
0.025423,-0.002621,0.0028249,-0.00024416,0.00077423,0.00014472,0,0,0.053318,-0.026478,0,0.0075255,0,0,0,0.0028317,-0.00025096,0.00077423,2.6938,0.0011183,0.0027191,5.5977e-10,0.52,0.74,0
0.026494,-0.0024991,0.0028277,-0.00028732,0.00076213,0.00011339,0,0,0.053706,-0.027286,0,0.0058965,0,0,0,0.0028319,-0.00029144,0.00076213,2.082,0.0011009,0.0027522,5.6603e-10,0.54,0.74,0
0.027571,-0.0024146,0.0028293,-0.00031937,0.00075297,7.5965e-05,0,0,0.053984,-0.027881,0,0.0039502,0,0,0,0.0028311,-0.0003212,0.00075297,1.3813,0.0010876,0.0027757,5.6993e-10,0.56,0.74,0
0.028653,-0.0023722,0.002829,-0.00033882,0.00074704,3.4327e-05,0,0,0.05413,-0.028232,0,0.001785,0,0,0,0.0028293,-0.00033919,0.00074704,0.62077,0.0010791,0.0027888,5.7145e-10,0.58,0.74,0
0.029736,-0.0023749,0.0028265,-0.00034488,0.00074448,-9.4235e-06,0,0,0.054132,-0.028323,0,-0.00049002,0,0,0,0.0028265,-0.00034491,0.00074448,-0.17025,0.0010754,0.002791,5.7058e-10,0.6,0.74,0
0.030818,-0.0024235,0.0028217,-0.00033744,0.00074529,-5.3106e-05,0,0,0.053987,-0.028151,0,-0.0027615,0,0,0,0.0028226,-0.00033833,0.00074529,-0.96278,0.0010765,0.0027822,5.6739e-10,0.62,0.74,0
0.031896,-0.0025169,0.0028148,-0.00031712,0.00074932,-9.4562e-05,0,0,0.053704,-0.027727,0,-0.0049172,0,0,0,0.0028177,-0.00031997,0.00074932,-1.7278,0.0010823,0.0027628,5.6193e-10,0.64,0.74,0
0.032966,-0.0026519,0.0028062,-0.00028527,0.00075628,-0.00013178,0,0,0.053298,-0.02708,0,-0.0068526,0,0,0,0.0028118,-0.00029088,0.00075628,-2.4365,0.0010924,0.0027339,5.5431e-10,0.66,0.74,0
0.034028,-0.0028236,0.0027964,-0.00024392,0.00076574,-0.00016305,0,0,0.052797,-0.026251,0,-0.0084787,0,0,0,0.0028051,-0.00025264,0.00076574,-3.0611,0.0011061,0.0026969,5.4474e-10,0.68,0.74,0
0.035078,-0.0030258,0.0027862,-0.00019566,0.00077716,-0.00018713,0,0,0.052235,-0.025293,0,-0.0097309,0,0,0,0.0027979,-0.00020736,0.00077716,-3.577,0.0011226,0.0026537,5.336e-10,0.7,0.74,0
0.036117,-0.0032512,0.0027765,-0.00014338,0.00078993,-0.00020337,0,0,0.05165,-0.024266,0,-0.010575,0,0,0,0.0027906,-0.00015747,0.00078993,-3.9651,0.001141,0.0026068,5.214e-10,0.72,0.74,0
0.037144,-0.0034921,0.002768,-8.9936e-05,0.00080343,-0.00021172,0,0,0.05108,-0.023228,0,-0.011009,0,0,0,0.0027836,-0.00010553,0.00080343,-4.2138,0.0011605,0.0025588,5.0878e-10,0.74,0.74,0
0.03816,-0.0037408,0.0027616,-3.7871e-05,0.00081711,-0.0002127,0,0,0.050556,-0.022229,0,-0.01106,0,0,0,0.0027776,-5.394e-05,0.00081711,-4.3202,0.0011803,0.002512,4.9642e-10,0.76,0.74,0
0.039167,-0.0039901,0.0027575,1.0803e-05,0.0008305,-0.00020723,0,0,0.050103,-0.021312,0,-0.010776,0,0,0,0.0027731,-4.7432e-06,0.0008305,-4.2904,0.0011996,0.0024685,4.8498e-10,0.78,0.74,0
0.040164,-0.0042336,0.002756,5.4689e-05,0.00084321,-0.00019646,0,0,0.049733,-0.020502,0,-0.010216,0,0,0,0.0027702,4.0475e-05,0.00084321,-4.138,0.001218,0.00243,4.7494e-10,0.8,0.74,0
0.041156,-0.0044658,0.002757,9.2983e-05,0.00085499,-0.00018163,0,0,0.049452,-0.019812,0,-0.009445,0,0,0,0.0027693,8.0656e-05,0.00085499,-3.8825,0.001235,0.0023972,4.6664e-10,0.82,0.74,0
0.042143,-0.004682,0.0027601,0.00012539,0.00086564,-0.0001639,0,0,0.049255,-0.019246,0,-0.0085229,0,0,0,0.0027702,0.00011524,0.00086564,-3.5461,0.0012504,0.0023706,4.6022e-10,0.84,0.74,0
0.043126,-0.0048788,0.0027648,0.00015204,0.00087505,-0.00014429,0,0,0.049133,-0.018798,0,-0.0075033,0,0,0,0.0027727,0.0001441,0.00087505,-3.1515,0.001264,0.00235,4.5561e-10,0.86,0.74,0
0.044108,-0.0050532,0.0027706,0.00017332,0.00088316,-0.00012364,0,0,0.049072,-0.018456,0,-0.0064295,0,0,0,0.0027764,0.00016745,0.00088316,-2.7194,0.0012757,0.0023349,4.5264e-10,0.88,0.74,0
0.045089,-0.0052033,0.0027768,0.0001898,0.00088997,-0.00010258,0,0,0.049057,-0.018204,0,-0.0053342,0,0,0,0.0027808,0.00018574,0.00088997,-2.2672,0.0012855,0.0023244,4.5101e-10,0.9,0.74,0
0.04607,-0.0053275,0.0027828,0.00020213,0.00089547,-8.1525e-05,0,0,0.04907,-0.018027,0,-0.0042393,0,0,0,0.0027853,0.00019955,0.00089547,-1.8076,0.0012935,0.0023176,4.5034e-10,0.92,0.74,0
0.047052,-0.0054249,0.0027881,0.00021094,0.0008997,-6.0715e-05,0,0,0.049098,-0.017908,0,-0.0031572,0,0,0,0.0027895,0.00020951,0.0008997,-1.3488,0.0012996,0.0023134,4.5029e-10,0.94,0.74,0
0.048034,-0.0054949,0.0027922,0.00021679,0.0009027,-4.0232e-05,0,0,0.049127,-0.017833,0,-0.002092,0,0,0,0.0027928,0.00021617,0.0009027,-0.89475,0.0013039,0.0023112,4.5053e-10,0.96,0.74,0
0.049017,-0.005537,0.0027948,0.00022012,0.00090448,-2.0034e-05,0,0,0.049149,-0.017793,0,-0.0010418,0,0,0,0.002795,0.00021997,0.00090448,-0.44579,0.0013065,0.0023101,4.5078e-10,0.98,0.74,0
0.05,-0.005551,0.0027957,0.0002212,0.00090508,-1.3517e-05,0,0,0.049157,-0.017781,0,-0.0007029,0,0,0,0.0027958,0.00022113,0.00090508,-0.30081,0.0013073,0.0023099,4.5093e-10,1,0.74,0
0,0,0.0028198,0.0012085,0.0012085,-0.00052369,0,0,0.041895,-4.8789e-19,0,-0.027232,0,0,0,0.0029751,0.0010532,0.0012085,-16.512,0.0017456,0.0018491,3.17e-10,0,0.76,0
0.00083789,-0.00054464,0.0028138,0.0011309,0.0011834,-0.0005199,0,0,0.042391,-0.0013651,0,-0.027035,0,0,0,0.0029615,0.00098327,0.0011834,-15.855,0.0017094,0.0018861,3.3157e-10,0.02,0.76,0
0.0016956,-0.0010689,0.0028391,0.0010602,0.0011698,-0.00050329,0,0,0.043402,-0.0028488,0,-0.026171,0,0,0,0.0029716,0.00092772,0.0011698,-14.752,0.0016897,0.0019343,3.5213e-10,0.04,0.76,0
0.002574,-0.0015692,0.0028637,0.00098566,0.0011548,-0.00048158,0,0,0.044431,-0.0043976,0,-0.025042,0,0,0,0.00298,0.00086937,0.0011548,-13.576,0.001668,0.0019833,3.7287e-10,0.06,0.76,0
0.0034728,-0.0020414,0.0028862,0.00090975,0.0011388,-0.00045462,0,0,0.045432,-0.0059547,0,-0.02364,0,0,0,0.0029857,0.00081019,0.0011388,-12.352,0.0016449,0.0020313,3.9276e-10,0.08,0.76,0
0.0043913,-0.0024815,0.0029055,0.0008349,0.0011221,-0.00042266,0,0,0.046368,-0.0074677,0,-0.021978,0,0,0,0.0029885,0.00075195,0.0011221,-11.104,0.0016208,0.0020763,4.1091e-10,0.1,0.76,0
0.0053276,-0.0028855,0.0029207,0.00076308,0.0011052,-0.00038635,0,0,0.047205,-0.0088937,0,-0.02009,0,0,0,0.0029878,0.00069599,0.0011052,-9.8516,0.0015963,0.0021171,4.2667e-10,0.12,0.76,0
0.0062795,-0.0032502,0.0029314,0.00069567,0.0010881,-0.00034653,0,0,0.047925,-0.010203,0,-0.01802,0,0,0,0.0029838,0.00064319,0.0010881,-8.6117,0.0015717,0.0021529,4.3966e-10,0.14,0.76,0
0.0072445,-0.0035729,0.0029372,0.00063346,0.0010712,-0.00030415,0,0,0.048515,-0.011381,0,-0.015816,0,0,0,0.0029766,0.00059398,0.0010712,-7.3957,0.0015473,0.0021835,4.4979e-10,0.16,0.76,0
0.0082201,-0.0038516,0.0029383,0.00057665,0.0010545,-0.0002601,0,0,0.048979,-0.012424,0,-0.013525,0,0,0,0.0029666,0.00054834,0.0010545,-6.2112,0.0015231,0.0022091,4.5723e-10,0.18,0.76,0
0.0092037,-0.0040851,0.0029351,0.00052499,0.001038,-0.00021519,0,0,0.049325,-0.013339,0,-0.01119,0,0,0,0.0029542,0.00050593,0.001038,-5.0622,0.0014994,0.0022303,4.6232e-10,0.2,0.76,0
0.010193,-0.0042729,0.0029283,0.00047787,0.0010218,-0.00017006,0,0,0.049568,-0.014143,0,-0.008843,0,0,0,0.00294,0.00046613,0.0010218,-3.951,0.001476,0.0022482,4.6557e-10,0.22,0.76,0
0.011186,-0.0044151,0.0029185,0.00043441,0.0010059,-0.00012526,0,0,0.049728,-0.014858,0,-0.0065137,0,0,0,0.0029248,0.00042811,0.0010059,-2.8795,0.0014529,0.0022638,4.6756e-10,0.24,0.76,0
0.012182,-0.0045124,0.0029065,0.00039355,0.00099003,-8.1266e-05,0,0,0.049829,-0.015508,0,-0.0042258,0,0,0,0.0029092,0.00039093,0.00099003,-1.8503,0.00143,0.0022785,4.6892e-10,0.26,0.76,0
0.01318,-0.004566,0.0028933,0.00035418,0.00097424,-3.85e-05,0,0,0.049895,-0.016122,0,-0.002002,0,0,0,0.0028938,0.0003536,0.00097424,-0.8685,0.0014072,0.0022938,4.7025e-10,0.28,0.76,0
0.014178,-0.0045778,0.0028795,0.00031514,0.0009584,2.5811e-06,0,0,0.049949,-0.016725,0,0.00013422,0,0,0,0.0028795,0.00031513,0.0009584,0.057668,0.0013843,0.0023109,4.7215e-10,0.3,0.76,0
0.015178,-0.0045502,0.0028661,0.00027533,0.00094243,4.1453e-05,0,0,0.050015,-0.017344,0,0.0021556,0,0,0,0.0028668,0.00027467,0.00094243,0.91644,0.0013613,0.0023311,4.7509e-10,0.32,0.76,0
0.016179,-0.0044863,0.0028537,0.00023379,0.00092626,7.7491e-05,0,0,0.050115,-0.018004,0,0.0040295,0,0,0,0.002856,0.0002315,0.00092626,1.6927,0.0013379,0.0023553,4.7945e-10,0.34,0.76,0
0.017182,-0.0043899,0.0028432,0.00018977,0.00090988,0.00010995,0,0,0.050265,-0.018723,0,0.0057174,0,0,0,0.0028477,0.00018522,0.00090988,2.3688,0.0013143,0.0023842,4.8544e-10,0.36,0.76,0
0.018189,-0.0042655,0.0028348,0.00014281,0.00089328,0.00013797,0,0,0.050479,-0.019512,0,0.0071744,0,0,0,0.0028419,0.00013575,0.00089328,2.9263,0.0012903,0.002418,4.9311e-10,0.38,0.76,0
0.019201,-0.0041185,0.002829,9.2811e-05,0.00087655,0.0001606,0,0,0.050765,-0.020377,0,0.0083514,0,0,0,0.0028384,8.3417e-05,0.00087655,3.3477,0.0012661,0.0024564,5.0231e-10,0.4,0.76,0
0.02022,-0.003955,0.002826,4.0164e-05,0.00085984,0.00017689,0,0,0.051119,-0.021312,0,0.0091982,0,0,0,0.0028372,2.8977e-05,0.00085984,3.6187,0.001242,0.0024986,5.1271e-10,0.42,0.76,0
0.021246,-0.003782,0.0028255,-1.4261e-05,0.00084336,0.00018593,0,0,0.051535,-0.022298,0,0.0096683,0,0,0,0.0028376,-2.6383e-05,0.00084336,3.7302,0.0012182,0.0025432,5.238e-10,0.44,0.76,0
0.022281,-0.0036069,0.0028272,-6.9086e-05,0.00082742,0.00018703,0,0,0.051993,-0.023309,0,0.0097254,0,0,0,0.0028392,-8.1113e-05,0.00082742,3.6795,0.0011952,0.0025885,5.35e-10,0.46,0.76,0
0.023326,-0.0034375,0.0028304,-0.0001225,0.00081237,0.00017979,0,0,0.052469,-0.024307,0,0.0093489,0,0,0,0.0028413,-0.00013341,0.00081237,3.4713,0.0011734,0.0026325,5.4566e-10,0.48,0.76,0
0.02438,-0.0032816,0.0028345,-0.00017242,0.00079863,0.00016424,0,0,0.052933,-0.025247,0,0.0085403,0,0,0,0.0028434,-0.00018136,0.00079863,3.1171,0.0011536,0.0026731,5.5518e-10,0.5,0.76,0
0.025443,-0.0031468,0.0028386,-0.00021665,0.00078659,0.00014088,0,0,0.053352,-0.026084,0,0.0073257,0,0,0,0.0028451,-0.00022313,0.00078659,2.6345,0.0011362,0.0027084,5.6307e-10,0.52,0.76,0
0.026514,-0.0030398,0.0028419,-0.00025315,0.00077663,0.00011068,0,0,0.053697,-0.026774,0,0.0057552,0,0,0,0.0028459,-0.0002571,0.00077663,2.0454,0.0011218,0.0027367,5.6896e-10,0.54,0.76,0
0.027591,-0.0029663,0.0028437,-0.00028022,0.00076906,7.5013e-05,0,0,0.053942,-0.027281,0,0.0039007,0,0,0,0.0028455,-0.00028202,0.00076906,1.3747,0.0011109,0.0027566,5.7262e-10,0.56,0.76,0
0.028672,-0.0029304,0.0028436,-0.00029663,0.00076408,3.5568e-05,0,0,0.054067,-0.027578,0,0.0018495,0,0,0,0.002844,-0.00029703,0.00076408,0.64887,0.0011037,0.0027675,5.7396e-10,0.58,0.76,0
0.029754,-0.0029347,0.0028411,-0.0003017,0.00076181,-5.7758e-06,0,0,0.05406,-0.027651,0,-0.00030034,0,0,0,0.0028411,-0.00030171,0.00076181,-0.1053,0.0011004,0.0027687,5.7295e-10,0.6,0.76,0
0.030834,-0.00298,0.0028361,-0.00029537,0.00076223,-4.706e-05,0,0,0.053921,-0.027498,0,-0.0024471,0,0,0,0.0028368,-0.00029608,0.00076223,-0.86077,0.001101,0.0027604,5.6962e-10,0.62,0.76,0
0.031911,-0.0030655,0.0028289,-0.00027818,0.00076522,-8.6358e-05,0,0,0.053656,-0.027128,0,-0.0044906,0,0,0,0.0028313,-0.00028057,0.00076522,-1.5908,0.0011053,0.0027428,5.6407e-10,0.64,0.76,0
0.03298,-0.0031885,0.0028198,-0.00025126,0.00077055,-0.0001219,0,0,0.05328,-0.026567,0,-0.0063388,0,0,0,0.0028246,-0.00025609,0.00077055,-2.2695,0.001113,0.002717,5.5643e-10,0.66,0.76,0
0.034042,-0.0033448,0.0028093,-0.00021629,0.00077789,-0.00015219,0,0,0.052815,-0.025849,0,-0.007914,0,0,0,0.0028169,-0.00022392,0.00077789,-2.8725,0.0011236,0.002684,5.4697e-10,0.68,0.76,0
0.035093,-0.0035291,0.0027981,-0.00017535,0.00078682,-0.00017614,0,0,0.052293,-0.025016,0,-0.0091593,0,0,0,0.0028085,-0.00018575,0.00078682,-3.3783,0.0011365,0.0026456,5.3604e-10,0.7,0.76,0
0.036133,-0.0037353,0.002787,-0.00013075,0.00079688,-0.00019312,0,0,0.051743,-0.024118,0,-0.010042,0,0,0,0.0027997,-0.00014348,0.00079688,-3.7703,0.001151,0.0026037,5.241e-10,0.72,0.76,0
0.037163,-0.0039566,0.0027768,-8.4772e-05,0.0008076,-0.00020299,0,0,0.051199,-0.023202,0,-0.010556,0,0,0,0.0027911,-9.91e-05,0.0008076,-4.0374,0.0011665,0.0025603,5.1171e-10,0.74,0.76,0
0.038181,-0.0041864,0.002768,-3.9495e-05,0.00081856,-0.00020607,0,0,0.050686,-0.022309,0,-0.010716,0,0,0,0.0027831,-5.454e-05,0.00081856,-4.1757,0.0011824,0.0025173,4.9943e-10,0.76,0.76,0
0.03919,-0.0044182,0.0027612,3.3751e-06,0.00082937,-0.00020302,0,0,0.050228,-0.021476,0,-0.010557,0,0,0,0.0027761,-1.149e-05,0.00082937,-4.1878,0.001198,0.0024766,4.8781e-10,0.78,0.76,0
0.04019,-0.0046461,0.0027565,4.2583e-05,0.00083973,-0.00019473,0,0,0.049836,-0.020726,0,-0.010126,0,0,0,0.0027704,2.8682e-05,0.00083973,-4.0832,0.0012129,0.0024395,4.7729e-10,0.8,0.76,0
0.041184,-0.0048648,0.002754,7.7333e-05,0.00084939,-0.00018217,0,0,0.049519,-0.020074,0,-0.0094731,0,0,0,0.0027663,6.4991e-05,0.00084939,-3.8758,0.0012269,0.002407,4.6818e-10,0.82,0.76,0
0.042171,-0.0050698,0.0027534,0.00010724,0.00085819,-0.00016635,0,0,0.049275,-0.019525,0,-0.00865,0,0,0,0.0027638,9.6829e-05,0.00085819,-3.583,0.0012396,0.0023795,4.6064e-10,0.84,0.76,0
0.043155,-0.0052575,0.0027544,0.00013228,0.00086601,-0.00014814,0,0,0.049099,-0.019077,0,-0.0077035,0,0,0,0.0027628,0.00012394,0.00086601,-3.2234,0.0012509,0.0023571,4.547e-10,0.86,0.76,0
0.044135,-0.0054249,0.0027567,0.00015266,0.0008728,-0.00012834,0,0,0.048981,-0.018724,0,-0.0066736,0,0,0,0.002763,0.00014636,0.0008728,-2.8147,0.0012607,0.0023396,4.5026e-10,0.88,0.76,0
0.045114,-0.0055697,0.0027596,0.00016877,0.00087852,-0.00010755,0,0,0.048909,-0.018454,0,-0.0055925,0,0,0,0.0027641,0.00016431,0.00087852,-2.3729,0.001269,0.0023264,4.4713e-10,0.9,0.76,0
0.046092,-0.0056901,0.0027628,0.00018106,0.00088317,-8.6228e-05,0,0,0.048872,-0.018255,0,-0.0044839,0,0,0,0.0027657,0.00017819,0.00088317,-1.9108,0.0012757,0.0023169,4.4507e-10,0.92,0.76,0
0.047069,-0.0057849,0.0027659,0.00019002,0.00088676,-6.4685e-05,0,0,0.048856,-0.018115,0,-0.0033636,0,0,0,0.0027675,0.0001884,0.00088676,-1.4376,0.0012809,0.0023105,4.4381e-10,0.94,0.76,0
0.048046,-0.0058531,0.0027683,0.00019608,0.00088931,-4.3094e-05,0,0,0.048854,-0.018024,0,-0.0022409,0,0,0,0.002769,0.00019536,0.00088931,-0.95956,0.0012846,0.0023064,4.431e-10,0.96,0.76,0
0.049023,-0.0058943,0.0027699,0.00019957,0.00089083,-2.1531e-05,0,0,0.048855,-0.017973,0,-0.0011196,0,0,0,0.0027701,0.00019939,0.00089083,-0.47992,0.0012867,0.0023041,4.4277e-10,0.98,0.76,0
0.05,-0.0059081,0.0027704,0.0002007,0.00089134,-1.3229e-05,0,0,0.048856,-0.017956,0,-0.00068793,0,0,0,0.0027705,0.00020064,0.00089134,-0.29496,0.0012875,0.0023035,4.4272e-10,1,0.76,0
0,0,0.0028014,0.0012006,0.0012006,-0.00055079,0,0,0.04162,-3.2526e-19,0,-0.028641,0,0,0,0.0029726,0.0010294,0.0012006,-17.267,0.0017342,0.0018635,3.2292e-10,0,0.78,0
0.0008324,-0.00057282,0.002795,0.0011172,0.0011737,-0.00054669,0,0,0.042154,-0.001467,0,-0.028428,0,0,0,0.0029574,0.00095483,0.0011737,-16.546,0.0016953,0.0019026,3.3801e-10,0.02,0.78,0
0.0016862,-0.0011278,0.0028221,0.0010408,0.0011589,-0.00053004,0,0,0.043244,-0.0030703,0,-0.027562,0,0,0,0.0029679,0.00089499,0.0011589,-15.379,0.0016739,0.0019544,3.5994e-10,0.04,0.78,0
0.0025622,-0.0016602,0.0028483,0.00095998,0.0011425,-0.00050676,0,0,0.044352,-0.0047454,0,-0.026351,0,0,0,0.0029758,0.00083259,0.0011425,-14.112,0.0016503,0.0020062,3.8159e-10,0.06,0.78,0
0.0034602,-0.0021646,0.0028722,0.00087806,0.0011251,-0.00047677,0,0,0.045426,-0.0064227,0,-0.024792,0,0,0,0.0029804,0.00076993,0.0011251,-12.778,0.0016251,0.002056,4.0183e-10,0.08,0.78,0
0.0043792,-0.0026359,0.0028924,0.00079793,0.0011071,-0.00044065,0,0,0.046418,-0.0080385,0,-0.022914,0,0,0,0.0029814,0.000709,0.0011071,-11.41,0.0015992,0.0021018,4.1976e-10,0.1,0.78,0
0.005317,-0.0030692,0.002908,0.00072191,0.001089,-0.00039944,0,0,0.047295,-0.0095436,0,-0.020771,0,0,0,0.0029787,0.00065122,0.001089,-10.037,0.001573,0.0021424,4.3483e-10,0.12,0.78,0
0.006271,-0.0034606,0.0029185,0.00065151,0.001071,-0.00035445,0,0,0.048035,-0.010907,0,-0.018432,0,0,0,0.0029726,0.00059739,0.001071,-8.6825,0.001547,0.0021774,4.4681e-10,0.14,0.78,0
0.0072384,-0.0038072,0.0029239,0.00058746,0.0010534,-0.00030703,0,0,0.048632,-0.012114,0,-0.015965,0,0,0,0.0029635,0.00054778,0.0010534,-7.3628,0.0015216,0.0022068,4.5581e-10,0.16,0.78,0
0.0082163,-0.004107,0.0029244,0.00052979,0.0010363,-0.00025837,0,0,0.049092,-0.013168,0,-0.013435,0,0,0,0.002952,0.00050223,0.0010363,-6.0887,0.0014968,0.0022312,4.6218e-10,0.18,0.78,0
0.0092021,-0.0043589,0.0029208,0.00047808,0.0010197,-0.0002095,0,0,0.04943,-0.014081,0,-0.010894,0,0,0,0.0029387,0.00046024,0.0010197,-4.8666,0.0014729,0.0022514,4.664e-10,0.2,0.78,0
0.010193,-0.0045628,0.0029138,0.00043151,0.0010036,-0.00016119,0,0,0.049666,-0.014874,0,-0.0083819,0,0,0,0.0029242,0.00042109,0.0010036,-3.6999,0.0014496,0.0022687,4.6907e-10,0.22,0.78,0
0.011189,-0.0047192,0.0029042,0.00038908,0.000988,-0.00011406,0,0,0.049822,-0.015572,0,-0.0059308,0,0,0,0.0029094,0.00038392,0.000988,-2.5911,0.0014271,0.0022842,4.7079e-10,0.24,0.78,0
0.012186,-0.0048294,0.002893,0.00034968,0.0009728,-6.8574e-05,0,0,0.049925,-0.016201,0,-0.0035659,0,0,0,0.0028949,0.00034783,0.0009728,-1.5433,0.0014052,0.0022991,4.7218e-10,0.26,0.78,0
0.013186,-0.0048951,0.0028809,0.00031215,0.00095792,-2.5171e-05,0,0,0.049998,-0.01679,0,-0.0013089,0,0,0,0.0028812,0.0003119,0.00095792,-0.56135,0.0013837,0.0023149,4.7378e-10,0.28,0.78,0
0.014186,-0.0049188,0.0028688,0.00027539,0.00094327,1.5738e-05,0,0,0.050065,-0.017365,0,0.00081836,0,0,0,0.0028689,0.00027529,0.00094327,0.34767,0.0013625,0.0023325,4.7608e-10,0.3,0.78,0
0.015188,-0.0049033,0.0028575,0.00023838,0.00092875,5.3689e-05,0,0,0.050146,-0.01795,0,0.0027918,0,0,0,0.0028586,0.00023728,0.00092875,1.1739,0.0013415,0.002353,4.7945e-10,0.32,0.78,0
0.016192,-0.0048522,0.0028474,0.00020026,0.00091431,8.8148e-05,0,0,0.050261,-0.018565,0,0.0045837,0,0,0,0.0028504,0.00019733,0.00091431,1.9051,0.0013207,0.0023771,4.8415e-10,0.34,0.78,0
0.017199,-0.0047697,0.0028393,0.0001604,0.00089989,0.00011849,0,0,0.050423,-0.019227,0,0.0061615,0,0,0,0.0028445,0.00015516,0.00089989,2.5277,0.0012998,0.0024051,4.9032e-10,0.36,0.78,0
0.018209,-0.0046604,0.0028333,0.00011841,0.00088552,0.00014401,0,0,0.050643,-0.019945,0,0.0074887,0,0,0,0.0028409,0.0001108,0.00088552,3.028,0.0012791,0.002437,4.9793e-10,0.38,0.78,0
0.019224,-0.0045298,0.0028298,7.4288e-05,0.00087123,0.00016397,0,0,0.050923,-0.02072,0,0.0085266,0,0,0,0.0028395,6.4565e-05,0.00087123,3.3935,0.0012584,0.0024724,5.0679e-10,0.4,0.78,0
0.020246,-0.004384,0.0028288,2.8369e-05,0.00085713,0.00017763,0,0,0.051262,-0.021548,0,0.0092368,0,0,0,0.00284,1.7147e-05,0.00085713,3.615,0.0012381,0.0025105,5.166e-10,0.42,0.78,0
0.021275,-0.0042294,0.0028299,-1.8591e-05,0.00084339,0.00018433,0,0,0.051649,-0.022412,0,0.0095853,0,0,0,0.0028418,-3.047e-05,0.00084339,3.6873,0.0012182,0.0025502,5.269e-10,0.44,0.78,0
0.022312,-0.0040731,0.0028329,-6.5453e-05,0.00083022,0.00018361,0,0,0.052069,-0.023288,0,0.0095477,0,0,0,0.0028445,-7.7039e-05,0.00083022,3.6105,0.0011992,0.0025899,5.372e-10,0.46,0.78,0
0.023358,-0.0039222,0.0028371,-0.00011076,0.00081789,0.00017525,0,0,0.052498,-0.024145,0,0.0091132,0,0,0,0.0028475,-0.00012114,0.00081789,3.3904,0.0011814,0.0026281,5.4696e-10,0.48,0.78,0
0.024412,-0.0037838,0.0028418,-0.00015284,0.00080669,0.0001594,0,0,0.052913,-0.024948,0,0.0082888,0,0,0,0.0028503,-0.0001613,0.00080669,3.0383,0.0011652,0.002663,5.5566e-10,0.5,0.78,0
0.025474,-0.0036644,0.0028463,-0.00018997,0.00079691,0.00013656,0,0,0.053285,-0.025659,0,0.0071012,0,0,0,0.0028525,-0.0001961,0.00079691,2.5701,0.0011511,0.002693,5.6287e-10,0.52,0.78,0
0.026543,-0.0035701,0.0028499,-0.00022053,0.00078882,0.00010764,0,0,0.053589,-0.026243,0,0.0055972,0,0,0,0.0028537,-0.0002243,0.00078882,2.0053,0.0011394,0.002717,5.6827e-10,0.54,0.78,0
0.027618,-0.0035058,0.0028519,-0.00024314,0.00078263,7.3858e-05,0,0,0.053802,-0.02667,0,0.0038406,0,0,0,0.0028537,-0.0002449,0.00078263,1.3662,0.0011305,0.0027337,5.7161e-10,0.56,0.78,0
0.028695,-0.0034753,0.0028519,-0.00025682,0.00077852,3.672e-05,0,0,0.053907,-0.026919,0,0.0019094,0,0,0,0.0028523,-0.00025725,0.00077852,0.67665,0.0011245,0.0027425,5.7276e-10,0.58,0.78,0
0.029774,-0.0034809,0.0028495,-0.00026101,0.00077654,-2.1103e-06,0,0,0.053896,-0.026976,0,-0.00010974,0,0,0,0.0028495,-0.00026101,0.00077654,-0.038873,0.0011217,0.0027431,5.7169e-10,0.6,0.78,0
0.030851,-0.0035234,0.0028446,-0.00025567,0.00077669,-4.0897e-05,0,0,0.053766,-0.026841,0,-0.0021266,0,0,0,0.0028452,-0.00025621,0.00077669,-0.75563,0.0011219,0.0027353,5.684e-10,0.62,0.78,0
0.031925,-0.003602,0.0028375,-0.00024125,0.00077886,-7.794e-05,0,0,0.053523,-0.026523,0,-0.0040529,0,0,0,0.0028394,-0.00024322,0.00077886,-1.4492,0.001125,0.0027197,5.63e-10,0.64,0.78,0
0.032992,-0.0037146,0.0028283,-0.00021869,0.00078288,-0.00011168,0,0,0.05318,-0.026041,0,-0.0058074,0,0,0,0.0028324,-0.00022278,0.00078288,-2.0963,0.0011308,0.0026968,5.5565e-10,0.66,0.78,0
0.034052,-0.0038576,0.0028176,-0.00018935,0.00078847,-0.00014081,0,0,0.052757,-0.025423,0,-0.007322,0,0,0,0.0028242,-0.00019593,0.00078847,-2.6752,0.0011389,0.0026678,5.4659e-10,0.68,0.78,0
0.035103,-0.0040265,0.002806,-0.00015488,0.00079535,-0.00016433,0,0,0.052278,-0.024706,0,-0.0085454,0,0,0,0.0028151,-0.00016398,0.00079535,-3.167,0.0011488,0.0026339,5.3615e-10,0.7,0.78,0
0.036143,-0.0042159,0.0027943,-0.00011714,0.00080314,-0.00018166,0,0,0.051769,-0.023927,0,-0.0094463,0,0,0,0.0028056,-0.00012843,0.00080314,-3.5566,0.0011601,0.0025967,5.2475e-10,0.72,0.78,0
0.037173,-0.0044201,0.002783,-7.7943e-05,0.00081151,-0.00019258,0,0,0.051258,-0.023126,0,-0.010014,0,0,0,0.0027959,-9.0848e-05,0.00081151,-3.8338,0.0011722,0.0025578,5.1285e-10,0.74,0.78,0
0.038193,-0.0046331,0.0027727,-3.8998e-05,0.00082011,-0.00019726,0,0,0.050767,-0.022337,0,-0.010258,0,0,0,0.0027865,-5.277e-05,0.00082011,-3.9937,0.0011846,0.0025189,5.0093e-10,0.76,0.78,0
0.039204,-0.0048491,0.0027639,-1.7321e-06,0.00082865,-0.00019616,0,0,0.050317,-0.02159,0,-0.0102,0,0,0,0.0027777,-1.5576e-05,0.00082865,-4.037,0.0011969,0.0024814,4.8946e-10,0.78,0.78,0
0.040206,-0.0050626,0.0027568,3.2756e-05,0.00083688,-0.00018995,0,0,0.049919,-0.020907,0,-0.0098776,0,0,0,0.00277,1.9574e-05,0.00083688,-3.9697,0.0012088,0.0024464,4.7882e-10,0.8,0.78,0
0.041201,-0.0052687,0.0027516,6.3719e-05,0.0008446,-0.00017942,0,0,0.049582,-0.020303,0,-0.00933,0,0,0,0.0027635,5.1795e-05,0.0008446,-3.8021,0.00122,0.002415,4.6931e-10,0.82,0.78,0
0.042189,-0.005463,0.0027481,9.0744e-05,0.00085167,-0.00016539,0,0,0.049309,-0.019784,0,-0.0086003,0,0,0,0.0027584,8.049e-05,0.00085167,-3.5477,0.0012302,0.0023876,4.6112e-10,0.84,0.78,0
0.043173,-0.0056419,0.0027462,0.0001137,0.00085799,-0.00014864,0,0,0.049095,-0.019352,0,-0.0077292,0,0,0,0.0027546,0.00010533,0.00085799,-3.2214,0.0012393,0.0023646,4.5432e-10,0.86,0.78,0
0.044153,-0.0058021,0.0027456,0.00013266,0.00086348,-0.00012987,0,0,0.048935,-0.019001,0,-0.0067532,0,0,0,0.0027521,0.00012622,0.00086348,-2.8384,0.0012473,0.0023458,4.4888e-10,0.88,0.78,0
0.04513,-0.0059414,0.0027459,0.00014788,0.00086814,-0.00010967,0,0,0.048822,-0.018727,0,-0.005703,0,0,0,0.0027505,0.00014326,0.00086814,-2.4129,0.001254,0.002331,4.4469e-10,0.9,0.78,0
0.046106,-0.0060577,0.0027468,0.00015968,0.00087193,-8.852e-05,0,0,0.048745,-0.018519,0,-0.004603,0,0,0,0.0027498,0.00015665,0.00087193,-1.9574,0.0012595,0.0023197,4.4161e-10,0.92,0.78,0
0.04708,-0.0061495,0.0027478,0.0001684,0.00087486,-6.6766e-05,0,0,0.048697,-0.018368,0,-0.0034718,0,0,0,0.0027495,0.00016667,0.00087486,-1.4817,0.0012637,0.0023116,4.3945e-10,0.94,0.78,0
0.048054,-0.0062158,0.0027488,0.00017436,0.00087695,-4.4661e-05,0,0,0.048668,-0.018267,0,-0.0023223,0,0,0,0.0027496,0.00017358,0.00087695,-0.99355,0.0012667,0.0023062,4.3805e-10,0.96,0.78,0
0.049027,-0.0062559,0.0027495,0.00017782,0.0008782,-2.2369e-05,0,0,0.048654,-0.01821,0,-0.0011632,0,0,0,0.0027497,0.00017763,0.0008782,-0.49833,0.0012685,0.0023031,4.3727e-10,0.98,0.78,0
0.05,-0.0062693,0.0027497,0.00017896,0.00087861,-1.2884e-05,0,0,0.048649,-0.018191,0,-0.00066997,0,0,0,0.0027498,0.0001789,0.00087861,-0.28714,0.0012691,0.0023022,4.3707e-10,1,0.78,0
0,0,0.0027886,0.0011951,0.0011951,-0.00058011,0,0,0.04143,2.1684e-19,0,-0.030166,0,0,0,0.0029774,0.0010063,0.0011951,-18.029,0.0017263,0.0018838,3.3175e-10,0,0.8,0
0.00082861,-0.00060332,0.0027817,0.0011044,0.0011658,-0.00057565,0,0,0.042013,-0.0015973,0,-0.029934,0,0,0,0.0029603,0.00092584,0.0011658,-17.233,0.001684,0.0019257,3.4762e-10,0.02,0.8,0
0.0016805,-0.0011917,0.002811,0.0010204,0.0011494,-0.00055891,0,0,0.043202,-0.0033555,0,-0.029064,0,0,0,0.0029712,0.00086023,0.0011494,-15.987,0.0016603,0.0019822,3.7148e-10,0.04,0.8,0
0.0025567,-0.001759,0.0028392,0.00093156,0.0011312,-0.00053369,0,0,0.044408,-0.0051918,0,-0.027752,0,0,0,0.0029784,0.0007924,0.0011312,-14.614,0.001634,0.0020378,3.9442e-10,0.06,0.8,0
0.0034568,-0.0022983,0.0028645,0.00084212,0.001112,-0.00050003,0,0,0.045565,-0.0070163,0,-0.026001,0,0,0,0.0029813,0.00072525,0.001112,-13.156,0.0016062,0.0020898,4.1512e-10,0.08,0.8,0
0.0043793,-0.002803,0.0028852,0.00075576,0.0010923,-0.00045895,0,0,0.046617,-0.0087501,0,-0.023866,0,0,0,0.0029799,0.00066105,0.0010923,-11.659,0.0015778,0.0021362,4.3267e-10,0.1,0.8,0
0.0053215,-0.0032672,0.0029006,0.00067516,0.0010727,-0.00041213,0,0,0.047524,-0.010337,0,-0.021431,0,0,0,0.0029745,0.00060129,0.0010727,-10.162,0.0015495,0.0021761,4.4665e-10,0.12,0.8,0
0.0062803,-0.0036865,0.0029101,0.0006019,0.0010536,-0.00036146,0,0,0.04827,-0.011744,0,-0.018796,0,0,0,0.0029654,0.00054662,0.0010536,-8.695,0.0015219,0.0022094,4.5709e-10,0.14,0.8,0
0.0072523,-0.0040574,0.0029141,0.0005365,0.0010352,-0.00030875,0,0,0.048853,-0.012966,0,-0.016055,0,0,0,0.0029536,0.00049706,0.0010352,-7.2794,0.0014953,0.0022365,4.6437e-10,0.16,0.8,0
0.0082344,-0.0043783,0.0029132,0.00047871,0.0010176,-0.00025553,0,0,0.049287,-0.014011,0,-0.013288,0,0,0,0.0029398,0.00045218,0.0010176,-5.9277,0.0014698,0.0022586,4.6907e-10,0.18,0.8,0
0.0092237,-0.0046484,0.0029083,0.00042779,0.0010008,-0.00020297,0,0,0.049594,-0.014899,0,-0.010554,0,0,0,0.0029248,0.00041129,0.0010008,-4.6471,0.0014456,0.0022767,4.7186e-10,0.2,0.8,0
0.010218,-0.0048679,0.0029003,0.00038267,0.00098489,-0.00015192,0,0,0.049801,-0.015658,0,-0.0078998,0,0,0,0.0029094,0.00037353,0.00098489,-3.4407,0.0014226,0.0022922,4.7341e-10,0.22,0.8,0
0.011216,-0.005038,0.0028903,0.00034217,0.00096974,-0.00010298,0,0,0.049934,-0.016317,0,-0.005355,0,0,0,0.0028944,0.00033801,0.00096974,-2.3105,0.0014007,0.0023064,4.7437e-10,0.24,0.8,0
0.012216,-0.0051605,0.0028792,0.00030506,0.00095527,-5.6583e-05,0,0,0.050021,-0.016905,0,-0.0029423,0,0,0,0.0028804,0.00030382,0.00095527,-1.2587,0.0013798,0.0023205,4.7531e-10,0.26,0.8,0
0.013217,-0.0052376,0.0028678,0.00027018,0.00094138,-1.308e-05,0,0,0.050086,-0.017451,0,-0.00068016,0,0,0,0.0028678,0.00027011,0.00094138,-0.2885,0.0013598,0.0023356,4.7671e-10,0.28,0.8,0
0.014219,-0.0052724,0.0028569,0.00023643,0.00092799,2.7195e-05,0,0,0.050151,-0.017981,0,0.0014142,0,0,0,0.0028572,0.00023614,0.00092799,0.59454,0.0013404,0.0023526,4.7897e-10,0.3,0.8,0
0.015223,-0.0052682,0.0028471,0.00020286,0.00091498,6.3878e-05,0,0,0.050234,-0.018515,0,0.0033217,0,0,0,0.0028486,0.00020132,0.00091498,1.3831,0.0013216,0.0023724,4.8235e-10,0.32,0.8,0
0.016228,-0.0052289,0.0028389,0.0001687,0.00090228,9.6545e-05,0,0,0.050352,-0.019073,0,0.0050203,0,0,0,0.0028424,0.00016521,0.00090228,2.068,0.0013033,0.0023953,4.8703e-10,0.34,0.8,0
0.017237,-0.0051589,0.0028327,0.00013338,0.00088984,0.00012471,0,0,0.050515,-0.019668,0,0.0064847,0,0,0,0.0028385,0.00012764,0.00088984,2.6395,0.0012853,0.0024214,4.9305e-10,0.36,0.8,0
0.018249,-0.0050633,0.0028288,9.6616e-05,0.00087763,0.00014782,0,0,0.050731,-0.020306,0,0.0076865,0,0,0,0.0028368,8.8642e-05,0.00087763,3.0878,0.0012677,0.0024508,5.0034e-10,0.38,0.8,0
0.019266,-0.0049473,0.0028272,5.8382e-05,0.00086567,0.00016531,0,0,0.051,-0.02099,0,0.0085961,0,0,0,0.002837,4.8547e-05,0.00086567,3.4047,0.0012504,0.0024829,5.0869e-10,0.4,0.8,0
0.020289,-0.0048169,0.0028278,1.899e-05,0.00085403,0.00017664,0,0,0.051318,-0.021711,0,0.0091853,0,0,0,0.0028388,7.9246e-06,0.00085403,3.5844,0.0012336,0.0025169,5.1781e-10,0.42,0.8,0
0.021319,-0.0046784,0.0028303,-2.0931e-05,0.00084282,0.00018136,0,0,0.051675,-0.022457,0,0.0094307,0,0,0,0.0028418,-3.242e-05,0.00084282,3.625,0.0012174,0.0025518,5.2729e-10,0.44,0.8,0
0.022356,-0.0045384,0.0028344,-6.0452e-05,0.00083217,0.00017917,0,0,0.052057,-0.023208,0,0.009317,0,0,0,0.0028454,-7.15e-05,0.00083217,3.5283,0.001202,0.0025863,5.3671e-10,0.46,0.8,0
0.023401,-0.0044033,0.0028394,-9.8406e-05,0.00082228,0.00017001,0,0,0.052444,-0.023938,0,0.0088406,0,0,0,0.0028492,-0.00010821,0.00082228,3.3011,0.0011877,0.0026192,5.4559e-10,0.48,0.8,0
0.024454,-0.0042795,0.0028446,-0.00013347,0.00081335,0.00015409,0,0,0.052813,-0.024617,0,0.0080128,0,0,0,0.0028526,-0.00014142,0.00081335,2.9541,0.0011748,0.002649,5.5351e-10,0.5,0.8,0
0.025514,-0.0041732,0.0028495,-0.00016428,0.00080557,0.00013194,0,0,0.053143,-0.025216,0,0.0068607,0,0,0,0.0028553,-0.00017005,0.00080557,2.5019,0.0011636,0.0026745,5.6007e-10,0.52,0.8,0
0.026579,-0.0040896,0.0028534,-0.00018956,0.00079915,0.00010438,0,0,0.05341,-0.025706,0,0.0054276,0,0,0,0.002857,-0.00019314,0.00079915,1.9623,0.0011543,0.0026946,5.6498e-10,0.54,0.8,0
0.02765,-0.0040331,0.0028556,-0.00020822,0.00079422,7.2523e-05,0,0,0.053596,-0.026063,0,0.0037712,0,0,0,0.0028573,-0.00020993,0.00079422,1.3552,0.0011472,0.0027086,5.6802e-10,0.56,0.8,0
0.028723,-0.0040071,0.0028558,-0.00021947,0.00079089,3.77e-05,0,0,0.053687,-0.026269,0,0.0019604,0,0,0,0.0028562,-0.00021993,0.00079089,0.70227,0.0011424,0.0027157,5.6905e-10,0.58,0.8,0
0.029797,-0.0040137,0.0028536,-0.00022287,0.00078922,1.3807e-06,0,0,0.053674,-0.026315,0,7.1796e-05,0,0,0,0.0028536,-0.00022287,0.00078922,0.025714,0.00114,0.0027158,5.68e-10,0.6,0.8,0
0.03087,-0.0040537,0.002849,-0.0002184,0.00078919,-3.4908e-05,0,0,0.053556,-0.026197,0,-0.0018152,0,0,0,0.0028494,-0.0002188,0.00078919,-0.65193,0.0011399,0.0027088,5.6489e-10,0.62,0.8,0
0.03194,-0.0041264,0.0028421,-0.00020643,0.00079072,-6.9673e-05,0,0,0.053337,-0.025926,0,-0.003623,0,0,0,0.0028437,-0.00020802,0.00079072,-1.3085,0.0011421,0.002695,5.5981e-10,0.64,0.8,0
0.033004,-0.0042301,0.0028332,-0.0001877,0.00079365,-0.00010154,0,0,0.053029,-0.025515,0,-0.0052802,0,0,0,0.0028366,-0.00019111,0.00079365,-1.923,0.0011464,0.002675,5.5291e-10,0.66,0.8,0
0.034061,-0.0043617,0.0028227,-0.00016331,0.00079781,-0.00012935,0,0,0.052647,-0.024989,0,-0.0067264,0,0,0,0.0028283,-0.0001689,0.00079781,-2.4759,0.0011524,0.0026496,5.4441e-10,0.68,0.8,0
0.03511,-0.0045174,0.0028111,-0.00013458,0.00080296,-0.00015222,0,0,0.052212,-0.024376,0,-0.0079152,0,0,0,0.0028189,-0.00014242,0.00080296,-2.9502,0.0011598,0.0026199,5.3461e-10,0.7,0.8,0
0.036149,-0.0046924,0.002799,-0.00010296,0.00080882,-0.00016955,0,0,0.051746,-0.023706,0,-0.0088166,0,0,0,0.0028089,-0.00011283,0.00080882,-3.3324,0.0011683,0.0025871,5.2388e-10,0.72,0.8,0
0.037179,-0.0048817,0.0027871,-6.9927e-05,0.00081515,-0.00018111,0,0,0.051271,-0.023012,0,-0.0094176,0,0,0,0.0027985,-8.1362e-05,0.00081515,-3.6127,0.0011774,0.0025526,5.126e-10,0.74,0.8,0
0.0382,-0.0050799,0.0027758,-3.6859e-05,0.00082169,-0.00018694,0,0,0.050807,-0.022322,0,-0.009721,0,0,0,0.0027882,-4.923e-05,0.00082169,-3.7859,0.0011869,0.0025176,5.0121e-10,0.76,0.8,0
0.039212,-0.0052818,0.0027656,-4.9404e-06,0.0008282,-0.00018736,0,0,0.050373,-0.021662,0,-0.0097429,0,0,0,0.0027782,-1.7554e-05,0.0008282,-3.8514,0.0011963,0.0024834,4.9008e-10,0.78,0.8,0
0.040215,-0.0054824,0.0027568,2.4889e-05,0.0008345,-0.00018288,0,0,0.049979,-0.02105,0,-0.0095095,0,0,0,0.002769,1.2701e-05,0.0008345,-3.8127,0.0012054,0.002451,4.7957e-10,0.8,0.8,0
0.041211,-0.0056769,0.0027495,5.1954e-05,0.00084043,-0.0001741,0,0,0.049635,-0.0205,0,-0.0090532,0,0,0,0.0027607,4.0764e-05,0.00084043,-3.6776,0.001214,0.0024212,4.6995e-10,0.82,0.8,0
0.0422,-0.0058612,0.0027437,7.5844e-05,0.00084587,-0.00016172,0,0,0.049344,-0.020021,0,-0.0084092,0,0,0,0.0027535,6.6077e-05,0.00084587,-3.4562,0.0012218,0.0023947,4.6143e-10,0.84,0.8,0
0.043185,-0.0060316,0.0027394,9.6374e-05,0.00085074,-0.0001464,0,0,0.049106,-0.019614,0,-0.0076127,0,0,0,0.0027475,8.8289e-05,0.00085074,-3.1607,0.0012289,0.0023718,4.5411e-10,0.86,0.8,0
0.044165,-0.006185,0.0027364,0.00011354,0.000855,-0.00012878,0,0,0.048918,-0.019278,0,-0.0066964,0,0,0,0.0027427,0.00010724,0.000855,-2.8041,0.001235,0.0023525,4.4801e-10,0.88,0.8,0
0.045141,-0.0063187,0.0027345,0.00012749,0.0008586,-0.00010941,0,0,0.048773,-0.019009,0,-0.0056894,0,0,0,0.0027391,0.0001229,0.0008586,-2.399,0.0012402,0.0023369,4.431e-10,0.9,0.8,0
0.046115,-0.0064308,0.0027334,0.00013842,0.00086154,-8.877e-05,0,0,0.048668,-0.018801,0,-0.0046161,0,0,0,0.0027364,0.00013539,0.00086154,-1.957,0.0012444,0.0023246,4.393e-10,0.92,0.8,0
0.047088,-0.0065196,0.0027328,0.00014658,0.00086381,-6.7238e-05,0,0,0.048593,-0.018648,0,-0.0034964,0,0,0,0.0027345,0.00014484,0.00086381,-1.4883,0.0012477,0.0023155,4.365e-10,0.94,0.8,0
0.048059,-0.0065838,0.0027325,0.00015222,0.00086543,-4.5116e-05,0,0,0.048545,-0.018544,0,-0.002346,0,0,0,0.0027333,0.00015143,0.00086543,-1.0014,0.0012501,0.0023092,4.3459e-10,0.96,0.8,0
0.04903,-0.0066227,0.0027325,0.00015552,0.0008664,-2.264e-05,0,0,0.048518,-0.018483,0,-0.0011773,0,0,0,0.0027327,0.00015532,0.0008664,-0.50333,0.0012515,0.0023056,4.3349e-10,0.98,0.8,0
0.05,-0.0066357,0.0027325,0.0001566,0.00086672,-1.2508e-05,0,0,0.048509,-0.018463,0,-0.0006504,0,0,0,0.0027325,0.00015654,0.00086672,-0.2782,0.0012519,0.0023045,4.3317e-10,1,0.8,0
0,0,0.0027825,0.0011925,0.0011925,-0.00061223,0,0,0.04134,1.1926e-18,0,-0.031836,0,0,0,0.0029909,0.00098409,0.0011925,-18.8,0.0017225,0.0019112,3.442e-10,0,0.82,0
0.00082681,-0.00063672,0.002775,0.0010925,0.0011603,-0.00060729,0,0,0.041983,-0.0017613,0,-0.031579,0,0,0,0.0029713,0.0008962,0.0011603,-17.913,0.0016759,0.0019565,3.6112e-10,0.02,0.82,0
0.0016793,-0.0012621,0.0028069,0.00099864,0.0011417,-0.00059033,0,0,0.043297,-0.0037189,0,-0.030697,0,0,0,0.0029826,0.00082298,0.0011417,-16.571,0.0016491,0.0020192,3.8757e-10,0.04,0.82,0
0.0025587,-0.0018678,0.0028372,0.00089953,0.001121,-0.00056246,0,0,0.044621,-0.0057588,0,-0.029248,0,0,0,0.0029887,0.0007481,0.001121,-15.069,0.0016193,0.0020793,4.1212e-10,0.06,0.82,0
0.0034642,-0.0024453,0.0028636,0.00080086,0.0010993,-0.00052404,0,0,0.045871,-0.0077603,0,-0.02725,0,0,0,0.0029891,0.00067536,0.0010993,-13.468,0.0015879,0.0021336,4.3317e-10,0.08,0.82,0
0.0043935,-0.0029859,0.0028843,0.00070734,0.0010775,-0.00047683,0,0,0.046976,-0.0096235,0,-0.024795,0,0,0,0.0029841,0.00060748,0.0010775,-11.829,0.0015563,0.00218,4.4983e-10,0.1,0.82,0
0.0053432,-0.0034826,0.0028983,0.00062206,0.0010561,-0.00042338,0,0,0.047897,-0.011285,0,-0.022016,0,0,0,0.0029745,0.00054586,0.0010561,-10.203,0.0015255,0.002218,4.6197e-10,0.12,0.82,0
0.0063094,-0.0039304,0.0029057,0.00054644,0.0010356,-0.00036638,0,0,0.04862,-0.012719,0,-0.019052,0,0,0,0.0029612,0.00049085,0.0010356,-8.6272,0.0014959,0.0022481,4.7001e-10,0.14,0.82,0
0.007288,-0.0043259,0.002907,0.00048057,0.0010163,-0.00030816,0,0,0.049159,-0.013928,0,-0.016024,0,0,0,0.0029455,0.00044205,0.0010163,-7.1259,0.0014679,0.0022714,4.7471e-10,0.16,0.82,0
0.0082757,-0.0046674,0.0029033,0.0004237,0.00099811,-0.00025051,0,0,0.049536,-0.014935,0,-0.013027,0,0,0,0.0029284,0.00039865,0.00099811,-5.7115,0.0014417,0.0022896,4.7697e-10,0.18,0.82,0
0.0092695,-0.0049549,0.002896,0.00037463,0.00098119,-0.00019469,0,0,0.049785,-0.015771,0,-0.010124,0,0,0,0.002911,0.00035969,0.00098119,-4.3895,0.0014173,0.0023043,4.7765e-10,0.2,0.82,0
0.010267,-0.0051891,0.0028862,0.00033197,0.00096545,-0.0001415,0,0,0.049939,-0.01647,0,-0.0073583,0,0,0,0.002894,0.00032416,0.00096545,-3.1613,0.0013945,0.0023168,4.7751e-10,0.22,0.82,0
0.011267,-0.0053719,0.002875,0.00029432,0.00095081,-9.1439e-05,0,0,0.05003,-0.017069,0,-0.0047548,0,0,0,0.0028783,0.00029108,0.00095081,-2.0267,0.0013734,0.0023285,4.7722e-10,0.24,0.82,0
0.012268,-0.0055056,0.0028635,0.00026033,0.00093715,-4.48e-05,0,0,0.050085,-0.017597,0,-0.0023296,0,0,0,0.0028643,0.00025956,0.00093715,-0.98567,0.0013537,0.0023407,4.773e-10,0.26,0.82,0
0.01327,-0.0055932,0.0028524,0.00022882,0.00092435,-1.8105e-06,0,0,0.050128,-0.018084,0,-9.4147e-05,0,0,0,0.0028524,0.00022882,0.00092435,-0.03954,0.0013352,0.0023541,4.7813e-10,0.28,0.82,0
0.014273,-0.005638,0.0028423,0.0001987,0.0009123,3.7322e-05,0,0,0.05018,-0.018554,0,0.0019408,0,0,0,0.0028428,0.00019817,0.0009123,0.80868,0.0013178,0.0023697,4.8003e-10,0.3,0.82,0
0.015278,-0.0056439,0.0028338,0.00016908,0.00090087,7.2358e-05,0,0,0.050257,-0.019027,0,0.0037626,0,0,0,0.0028358,0.00016712,0.00090087,1.5543,0.0013013,0.0023879,4.8315e-10,0.32,0.82,0
0.016284,-0.0056152,0.0028273,0.00013926,0.00088997,0.000103,0,0,0.05037,-0.019518,0,0.005356,0,0,0,0.0028312,0.00013532,0.00088997,2.1912,0.0012855,0.0024089,4.8759e-10,0.34,0.82,0
0.017292,-0.0055564,0.0028229,0.00010875,0.00087951,0.00012889,0,0,0.050529,-0.02004,0,0.0067026,0,0,0,0.0028291,0.00010264,0.00087951,2.7128,0.0012704,0.0024329,4.9331e-10,0.36,0.82,0
0.018305,-0.0054726,0.0028209,7.7276e-05,0.00086944,0.00014965,0,0,0.050737,-0.020596,0,0.0077816,0,0,0,0.002829,6.9138e-05,0.00086944,3.1128,0.0012559,0.0024594,5.0019e-10,0.38,0.82,0
0.019322,-0.0053694,0.002821,4.4844e-05,0.00085976,0.00016484,0,0,0.050993,-0.021188,0,0.0085717,0,0,0,0.0028308,3.509e-05,0.00085976,3.3862,0.0012419,0.0024881,5.0802e-10,0.4,0.82,0
0.020345,-0.0052524,0.0028232,1.1705e-05,0.00085048,0.0001741,0,0,0.051291,-0.021808,0,0.0090533,0,0,0,0.002834,9.6515e-07,0.00085048,3.5301,0.0012285,0.0025181,5.165e-10,0.42,0.82,0
0.021374,-0.0051277,0.0028271,-2.1627e-05,0.00084165,0.00017713,0,0,0.051622,-0.022445,0,0.009211,0,0,0,0.0028381,-3.2599e-05,0.00084165,3.5444,0.0012157,0.0025486,5.2527e-10,0.44,0.82,0
0.022409,-0.0050015,0.0028323,-5.4408e-05,0.00083336,0.00017378,0,0,0.051971,-0.023082,0,0.0090366,0,0,0,0.0028427,-6.4832e-05,0.00083336,3.4327,0.0012037,0.0025785,5.3393e-10,0.46,0.82,0
0.023453,-0.0048798,0.0028381,-8.5711e-05,0.00082572,0.00016408,0,0,0.052322,-0.023697,0,0.0085321,0,0,0,0.0028473,-9.489e-05,0.00082572,3.2019,0.0011927,0.0026068,5.4209e-10,0.48,0.82,0
0.024502,-0.0047684,0.002844,-0.0001145,0.00081886,0.0001483,0,0,0.052654,-0.024267,0,0.0077115,0,0,0,0.0028515,-0.00012191,0.00081886,2.8624,0.0011828,0.0026322,5.4937e-10,0.5,0.82,0
0.025559,-0.004673,0.0028494,-0.00013969,0.00081292,0.00012696,0,0,0.052949,-0.024768,0,0.0066017,0,0,0,0.0028548,-0.00014508,0.00081292,2.4277,0.0011742,0.0026539,5.5543e-10,0.52,0.82,0
0.02662,-0.0045983,0.0028537,-0.0001603,0.00080801,0.00010083,0,0,0.053187,-0.025176,0,0.0052431,0,0,0,0.002857,-0.00016367,0.00080801,1.9139,0.0011671,0.0026709,5.5998e-10,0.54,0.82,0
0.027686,-0.0045483,0.0028563,-0.00017547,0.00080424,7.0911e-05,0,0,0.053353,-0.025472,0,0.0036874,0,0,0,0.0028579,-0.00017713,0.00080424,1.3392,0.0011617,0.0026826,5.6282e-10,0.56,0.82,0
0.028754,-0.0045261,0.0028568,-0.00018458,0.00080167,3.8382e-05,0,0,0.053434,-0.025642,0,0.0019959,0,0,0,0.0028573,-0.00018507,0.00080167,0.72291,0.001158,0.0026884,5.6381e-10,0.58,0.82,0
0.029823,-0.0045335,0.002855,-0.00018729,0.00080032,4.5363e-06,0,0,0.053422,-0.025678,0,0.00023589,0,0,0,0.002855,-0.0001873,0.00080032,0.085432,0.001156,0.0026882,5.6288e-10,0.6,0.82,0
0.030891,-0.0045713,0.0028509,-0.00018358,0.00080019,-2.9284e-05,0,0,0.053318,-0.025578,0,-0.0015228,0,0,0,0.0028512,-0.00018387,0.00080019,-0.55287,0.0011558,0.002682,5.6005e-10,0.62,0.82,0
0.031956,-0.004639,0.0028444,-0.00017375,0.0008012,-6.1768e-05,0,0,0.053124,-0.025349,0,-0.003212,0,0,0,0.0028457,-0.00017502,0.0008012,-1.1719,0.0011573,0.00267,5.5538e-10,0.64,0.82,0
0.033016,-0.0047352,0.0028359,-0.0001584,0.00080325,-9.171e-05,0,0,0.052848,-0.025003,0,-0.0047689,0,0,0,0.0028387,-0.0001612,0.00080325,-1.7527,0.0011602,0.0026526,5.4901e-10,0.66,0.82,0
0.03407,-0.0048572,0.0028257,-0.00013837,0.00080619,-0.00011808,0,0,0.052506,-0.024558,0,-0.00614,0,0,0,0.0028304,-0.00014306,0.00080619,-2.2777,0.0011645,0.0026305,5.4114e-10,0.68,0.82,0
0.035117,-0.0050015,0.0028142,-0.00011471,0.00080985,-0.00014006,0,0,0.052113,-0.024039,0,-0.007283,0,0,0,0.0028209,-0.00012139,0.00080985,-2.7315,0.0011698,0.0026047,5.3204e-10,0.7,0.82,0
0.036155,-0.0051642,0.002802,-8.858e-05,0.00081404,-0.00015711,0,0,0.051688,-0.023468,0,-0.0081696,0,0,0,0.0028106,-9.7094e-05,0.00081404,-3.1019,0.0011758,0.0025759,5.22e-10,0.72,0.82,0
0.037184,-0.0053406,0.0027897,-6.1144e-05,0.00081857,-0.00016894,0,0,0.05125,-0.022873,0,-0.0087851,0,0,0,0.0027997,-7.1121e-05,0.00081857,-3.3796,0.0011824,0.0025454,5.1139e-10,0.74,0.82,0
0.038205,-0.005526,0.0027777,-3.3508e-05,0.00082326,-0.00017554,0,0,0.050816,-0.022276,0,-0.0091282,0,0,0,0.0027886,-4.4427e-05,0.00082326,-3.5593,0.0011892,0.0025141,5.0057e-10,0.76,0.82,0
0.039217,-0.0057156,0.0027664,-6.6403e-06,0.00082794,-0.0001771,0,0,0.050401,-0.021699,0,-0.0092094,0,0,0,0.0027777,-1.7905e-05,0.00082794,-3.6395,0.0011959,0.0024832,4.8986e-10,0.78,0.82,0
0.040221,-0.0059046,0.0027562,1.8668e-05,0.00083246,-0.000174,0,0,0.050017,-0.021159,0,-0.0090479,0,0,0,0.0027672,7.6529e-06,0.00083246,-3.6223,0.0012024,0.0024534,4.796e-10,0.8,0.82,0
0.041217,-0.0060887,0.0027472,4.183e-05,0.00083671,-0.00016672,0,0,0.049673,-0.020667,0,-0.0086694,0,0,0,0.0027574,3.1595e-05,0.00083671,-3.5131,0.0012086,0.0024257,4.7005e-10,0.82,0.82,0
0.042208,-0.0062638,0.0027396,6.2461e-05,0.00084062,-0.00015583,0,0,0.049373,-0.020232,0,-0.0081029,0,0,0,0.0027486,5.3421e-05,0.00084062,-3.32,0.0012142,0.0024005,4.614e-10,0.84,0.82,0
0.043192,-0.0064264,0.0027333,8.0357e-05,0.0008441,-0.0001419,0,0,0.04912,-0.019857,0,-0.0073785,0,0,0,0.0027409,7.2789e-05,0.0008441,-3.0529,0.0012193,0.0023782,4.5378e-10,0.86,0.82,0
0.044172,-0.0065733,0.0027283,9.5468e-05,0.00084714,-0.00012549,0,0,0.048911,-0.019543,0,-0.0065255,0,0,0,0.0027343,8.9501e-05,0.00084714,-2.7227,0.0012236,0.0023591,4.4727e-10,0.88,0.82,0
0.045149,-0.0067018,0.0027245,0.00010786,0.00084971,-0.00010713,0,0,0.048745,-0.019288,0,-0.0055709,0,0,0,0.0027289,0.00010348,0.00084971,-2.3406,0.0012274,0.0023432,4.4187e-10,0.9,0.82,0
0.046122,-0.0068097,0.0027217,0.00011765,0.0008518,-8.7279e-05,0,0,0.048617,-0.019088,0,-0.0045385,0,0,0,0.0027246,0.00011473,0.0008518,-1.9175,0.0012304,0.0023304,4.3758e-10,0.92,0.82,0
0.047093,-0.0068954,0.0027197,0.00012503,0.00085341,-6.6327e-05,0,0,0.048523,-0.018938,0,-0.003449,0,0,0,0.0027214,0.00012334,0.00085341,-1.4634,0.0012327,0.0023208,4.3432e-10,0.94,0.82,0
0.048063,-0.0069576,0.0027184,0.00013015,0.00085456,-4.4613e-05,0,0,0.048459,-0.018835,0,-0.0023199,0,0,0,0.0027192,0.00012939,0.00085456,-0.98721,0.0012344,0.002314,4.3205e-10,0.96,0.82,0
0.049032,-0.0069952,0.0027176,0.00013317,0.00085524,-2.2421e-05,0,0,0.048422,-0.018774,0,-0.0011659,0,0,0,0.0027178,0.00013297,0.00085524,-0.49701,0.0012354,0.00231,4.3071e-10,0.98,0.82,0
0.05,-0.0070078,0.0027174,0.00013416,0.00085547,-1.2122e-05,0,0,0.04841,-0.018754,0,-0.00063032,0,0,0,0.0027175,0.0001341,0.00085547,-0.26884,0.0012357,0.0023088,4.3031e-10,1,0.82,0
0,0,0.0027848,0.0011935,0.0011935,-0.00064785,0,0,0.041374,8.6736e-19,0,-0.033688,0,0,0,0.0030152,0.00096309,0.0011935,-19.577,0.0017239,0.0019472,3.6133e-10,0,0.84,0
0.00082749,-0.00067377,0.0027764,0.0010817,0.0011574,-0.00064224,0,0,0.042094,-0.0019689,0,-0.033397,0,0,0,0.0029923,0.00086583,0.0011574,-18.58,0.0016719,0.0019967,3.7962e-10,0.02,0.84,0
0.0016837,-0.0013405,0.0028113,0.00097488,0.0011359,-0.00062469,0,0,0.043562,-0.0041856,0,-0.032484,0,0,0,0.0030037,0.00078253,0.0011359,-17.114,0.0016407,0.0020673,4.0941e-10,0.04,0.84,0
0.00257,-0.0019894,0.0028437,0.00086248,0.0011118,-0.00059294,0,0,0.045027,-0.0064833,0,-0.030833,0,0,0,0.0030076,0.00069858,0.0011118,-15.452,0.001606,0.0021326,4.3575e-10,0.06,0.84,0
0.0034848,-0.0026087,0.0028705,0.00075259,0.0010869,-0.000548,0,0,0.046373,-0.0086926,0,-0.028496,0,0,0,0.0030039,0.0006192,0.0010869,-13.681,0.00157,0.0021886,4.5664e-10,0.08,0.84,0
0.0044249,-0.0031879,0.0028898,0.00065125,0.0010623,-0.0004929,0,0,0.047514,-0.010688,0,-0.025631,0,0,0,0.0029935,0.00054752,0.0010623,-11.884,0.0015344,0.0022335,4.7139e-10,0.1,0.84,0
0.0053854,-0.0037186,0.0029008,0.00056171,0.0010387,-0.00043152,0,0,0.048413,-0.012403,0,-0.022439,0,0,0,0.0029779,0.00048464,0.0010387,-10.126,0.0015004,0.0022675,4.804e-10,0.12,0.84,0
0.0063614,-0.0041952,0.0029041,0.00048482,0.0010167,-0.00036751,0,0,0.049073,-0.013828,0,-0.01911,0,0,0,0.0029587,0.00043022,0.0010167,-8.4499,0.0014685,0.0022922,4.8474e-10,0.14,0.84,0
0.0073483,-0.0046146,0.0029009,0.00041985,0.00099624,-0.00030371,0,0,0.049522,-0.014986,0,-0.015793,0,0,0,0.0029376,0.00038322,0.00099624,-6.8783,0.001439,0.0023097,4.8573e-10,0.16,0.84,0
0.0083423,-0.0049757,0.002893,0.00036529,0.0009775,-0.00024205,0,0,0.049804,-0.015918,0,-0.012587,0,0,0,0.002916,0.00034232,0.0009775,-5.4209,0.0014119,0.0023222,4.8461e-10,0.18,0.84,0
0.0093405,-0.0052792,0.0028821,0.00031934,0.00096043,-0.00018369,0,0,0.049963,-0.016668,0,-0.0095519,0,0,0,0.0028952,0.00030624,0.00096043,-4.079,0.0013873,0.0023317,4.8246e-10,0.2,0.84,0
0.010341,-0.0055267,0.0028696,0.00028023,0.00094494,-0.00012922,0,0,0.05004,-0.017282,0,-0.0067195,0,0,0,0.002876,0.0002738,0.00094494,-2.8499,0.0013649,0.00234,4.8011e-10,0.22,0.84,0
0.011342,-0.0057208,0.0028567,0.00024634,0.0009309,-7.8916e-05,0,0,0.05007,-0.017798,0,-0.0041037,0,0,0,0.002859,0.00024396,0.0009309,-1.7301,0.0013446,0.0023482,4.7817e-10,0.24,0.84,0
0.012344,-0.0058643,0.0028443,0.00021624,0.00091816,-3.287e-05,0,0,0.05008,-0.01825,0,-0.0017092,0,0,0,0.0028447,0.00021583,0.00091816,-0.71647,0.0013262,0.0023575,4.7707e-10,0.26,0.84,0
0.013345,-0.005961,0.0028332,0.00018869,0.00090657,8.8806e-06,0,0,0.050092,-0.018665,0,0.00046179,0,0,0,0.0028332,0.00018866,0.00090657,0.1924,0.0013095,0.0023687,4.7712e-10,0.28,0.84,0
0.014347,-0.0060146,0.0028239,0.00016268,0.00089597,4.6286e-05,0,0,0.050126,-0.019065,0,0.0024069,0,0,0,0.0028247,0.00016188,0.00089597,0.99613,0.0012942,0.0023822,4.7849e-10,0.3,0.84,0
0.01535,-0.0060293,0.0028167,0.00013737,0.00088622,7.9245e-05,0,0,0.050192,-0.01947,0,0.0041208,0,0,0,0.002819,0.00013503,0.00088622,1.6926,0.0012801,0.0023983,4.8125e-10,0.32,0.84,0
0.016355,-0.0060096,0.0028118,0.00011212,0.00087718,0.00010759,0,0,0.0503,-0.019891,0,0.0055949,0,0,0,0.0028161,0.00010784,0.00087718,2.2787,0.001267,0.0024172,4.8539e-10,0.34,0.84,0
0.017362,-0.0059605,0.0028093,8.6505e-05,0.00086875,0.00013111,0,0,0.050455,-0.020338,0,0.0068176,0,0,0,0.0028156,8.0206e-05,0.00086875,2.7504,0.0012549,0.0024387,4.9082e-10,0.36,0.84,0
0.018373,-0.0058871,0.0028092,6.029e-05,0.00086085,0.00014952,0,0,0.050658,-0.020815,0,0.0077748,0,0,0,0.0028173,5.2182e-05,0.00086085,3.1042,0.0012434,0.0024625,4.9738e-10,0.38,0.84,0
0.019389,-0.0057948,0.0028113,3.3469e-05,0.00085342,0.00016254,0,0,0.050904,-0.021319,0,0.0084523,0,0,0,0.0028207,2.399e-05,0.00085342,3.3375,0.0012327,0.002488,5.0481e-10,0.4,0.84,0
0.020409,-0.0056892,0.0028152,6.244e-06,0.00084644,0.00016994,0,0,0.051188,-0.021845,0,0.0088371,0,0,0,0.0028255,-4.0002e-06,0.00084644,3.4496,0.0012226,0.0025145,5.1284e-10,0.42,0.84,0
0.021436,-0.0055762,0.0028207,-2.0975e-05,0.00083992,0.00017154,0,0,0.0515,-0.022383,0,0.0089201,0,0,0,0.002831,-3.1293e-05,0.00083992,3.4421,0.0012132,0.0025413,5.2112e-10,0.44,0.84,0
0.022469,-0.0054616,0.0028272,-4.7603e-05,0.00083387,0.00016728,0,0,0.051826,-0.022918,0,0.0086986,0,0,0,0.0028369,-5.7304e-05,0.00083387,3.3191,0.0012045,0.0025673,5.2929e-10,0.46,0.84,0
0.023509,-0.0053511,0.0028341,-7.2911e-05,0.00082837,0.00015727,0,0,0.05215,-0.023433,0,0.0081783,0,0,0,0.0028426,-8.1395e-05,0.00082837,3.0877,0.0011965,0.0025918,5.3698e-10,0.48,0.84,0
0.024555,-0.0052502,0.002841,-9.6092e-05,0.00082347,0.00014182,0,0,0.052456,-0.023909,0,0.0073746,0,0,0,0.0028478,-0.00010292,0.00082347,2.758,0.0011895,0.0026137,5.4387e-10,0.5,0.84,0
0.025607,-0.0051639,0.0028471,-0.00011632,0.00081925,0.00012142,0,0,0.052725,-0.024325,0,0.0063141,0,0,0,0.0028521,-0.00012128,0.00081925,2.3424,0.0011834,0.0026323,5.4963e-10,0.52,0.84,0
0.026664,-0.0050966,0.002852,-0.00013281,0.00081577,9.6802e-05,0,0,0.052943,-0.024663,0,0.0050337,0,0,0,0.0028552,-0.00013594,0.00081577,1.8556,0.0011783,0.0026469,5.5401e-10,0.54,0.84,0
0.027725,-0.005052,0.0028552,-0.00014491,0.00081309,6.8848e-05,0,0,0.053095,-0.024908,0,0.0035801,0,0,0,0.0028568,-0.00014649,0.00081309,1.3139,0.0011745,0.0026568,5.5682e-10,0.56,0.84,0
0.028788,-0.0050328,0.0028563,-0.00015215,0.00081125,3.8606e-05,0,0,0.053171,-0.025048,0,0.0020075,0,0,0,0.0028568,-0.00015264,0.00081125,0.73509,0.0011718,0.0026618,5.579e-10,0.58,0.84,0
0.029852,-0.0050408,0.0028551,-0.00015425,0.00081025,7.2154e-06,0,0,0.053165,-0.025077,0,0.0003752,0,0,0,0.0028551,-0.00015427,0.00081025,0.13738,0.0011703,0.0026616,5.5721e-10,0.6,0.84,0
0.030915,-0.0050768,0.0028515,-0.00015121,0.00081007,-2.4147e-05,0,0,0.053076,-0.024993,0,-0.0012557,0,0,0,0.0028516,-0.00015141,0.00081007,-0.46073,0.0011701,0.0026562,5.5473e-10,0.62,0.84,0
0.031975,-0.0051404,0.0028455,-0.00014326,0.00081067,-5.4333e-05,0,0,0.052906,-0.024802,0,-0.0028253,0,0,0,0.0028465,-0.00014425,0.00081067,-1.0411,0.001171,0.0026458,5.5051e-10,0.64,0.84,0
0.033031,-0.0052302,0.0028374,-0.00013087,0.00081196,-8.2279e-05,0,0,0.052662,-0.024514,0,-0.0042785,0,0,0,0.0028397,-0.00013314,0.00081196,-1.5866,0.0011728,0.0026309,5.4469e-10,0.66,0.84,0
0.034082,-0.0053441,0.0028275,-0.00011469,0.00081385,-0.00010707,0,0,0.052356,-0.024142,0,-0.0055676,0,0,0,0.0028314,-0.00011858,0.00081385,-2.0814,0.0011756,0.0026117,5.3744e-10,0.68,0.84,0
0.035125,-0.0054789,0.0028163,-9.5543e-05,0.00081621,-0.00012797,0,0,0.052001,-0.023706,0,-0.0066544,0,0,0,0.0028219,-0.00010116,0.00081621,-2.5116,0.001179,0.0025892,5.2898e-10,0.7,0.84,0
0.036161,-0.0056311,0.0028041,-7.4328e-05,0.00081892,-0.00014446,0,0,0.051613,-0.023224,0,-0.0075121,0,0,0,0.0028113,-8.1561e-05,0.00081892,-2.866,0.0011829,0.0025641,5.1961e-10,0.72,0.84,0
0.03719,-0.0057966,0.0027914,-5.1962e-05,0.00082183,-0.00015626,0,0,0.051209,-0.022719,0,-0.0081256,0,0,0,0.0028,-6.0524e-05,0.00082183,-3.1362,0.0011871,0.0025371,5.0961e-10,0.74,0.84,0
0.03821,-0.005971,0.0027788,-2.932e-05,0.00082483,-0.00016328,0,0,0.050802,-0.022208,0,-0.0084907,0,0,0,0.0027882,-3.8783e-05,0.00082483,-3.3167,0.0011914,0.0025093,4.9931e-10,0.76,0.84,0
0.039222,-0.0061498,0.0027665,-7.1825e-06,0.00082781,-0.00016565,0,0,0.050407,-0.02171,0,-0.0086136,0,0,0,0.0027764,-1.704e-05,0.00082781,-3.4056,0.0011957,0.0024813,4.8902e-10,0.78,0.84,0
0.040226,-0.0063287,0.0027551,1.3804e-05,0.00083067,-0.00016362,0,0,0.050035,-0.021238,0,-0.0085084,0,0,0,0.0027648,4.0718e-06,0.00083067,-3.4038,0.0011998,0.0024542,4.7903e-10,0.8,0.84,0
0.041223,-0.0065036,0.0027446,3.3143e-05,0.00083333,-0.0001576,0,0,0.049694,-0.020805,0,-0.0081954,0,0,0,0.0027538,2.4013e-05,0.00083333,-3.3154,0.0012037,0.0024284,4.6958e-10,0.82,0.84,0
0.042214,-0.0066705,0.0027354,5.0493e-05,0.00083575,-0.00014804,0,0,0.04939,-0.020417,0,-0.0076983,0,0,0,0.0027435,4.2354e-05,0.00083575,-3.1466,0.0012072,0.0024047,4.6089e-10,0.84,0.84,0
0.043199,-0.0068259,0.0027273,6.5656e-05,0.0008379,-0.00013545,0,0,0.049126,-0.020078,0,-0.0070432,0,0,0,0.0027342,5.8781e-05,0.0008379,-2.9056,0.0012103,0.0023834,4.5311e-10,0.86,0.84,0
0.044179,-0.0069667,0.0027206,7.8556e-05,0.00083975,-0.0001203,0,0,0.048902,-0.019791,0,-0.0062558,0,0,0,0.0027261,7.3089e-05,0.00083975,-2.6018,0.001213,0.0023648,4.4632e-10,0.88,0.84,0
0.045155,-0.0070903,0.0027151,8.9207e-05,0.00084129,-0.0001031,0,0,0.048719,-0.019554,0,-0.005361,0,0,0,0.0027191,8.5166e-05,0.00084129,-2.2449,0.0012152,0.002349,4.406e-10,0.9,0.84,0
0.046128,-0.0071943,0.0027108,9.769e-05,0.00084253,-8.4263e-05,0,0,0.048574,-0.019366,0,-0.0043817,0,0,0,0.0027135,9.4976e-05,0.00084253,-1.8451,0.001217,0.0023362,4.3594e-10,0.92,0.84,0
0.047098,-0.0072771,0.0027075,0.00010412,0.00084348,-6.4202e-05,0,0,0.048464,-0.019224,0,-0.0033385,0,0,0,0.0027091,0.00010253,0.00084348,-1.4118,0.0012184,0.0023263,4.3236e-10,0.94,0.84,0
0.048066,-0.0073372,0.0027052,0.0001086,0.00084415,-4.3266e-05,0,0,0.048388,-0.019124,0,-0.0022498,0,0,0,0.002706,0.00010788,0.00084415,-0.95433,0.0012193,0.0023193,4.2982e-10,0.96,0.84,0
0.049033,-0.0073736,0.0027039,0.00011125,0.00084455,-2.1769e-05,0,0,0.048343,-0.019066,0,-0.001132,0,0,0,0.0027041,0.00011107,0.00084455,-0.48104,0.0012199,0.0023151,4.2831e-10,0.98,0.84,0
0.05,-0.0073859,0.0027035,0.00011212,0.00084468,-1.1742e-05,0,0,0.048329,-0.019047,0,-0.00061057,0,0,0,0.0027035,0.00011207,0.00084468,-0.2596,0.0012201,0.0023138,4.2785e-10,1,0.84,0
0,0,0.0027981,0.0011992,0.0011992,-0.00068795,0,0,0.041572,-9.7578e-19,0,-0.035774,0,0,0,0.0030534,0.00094395,0.0011992,-20.356,0.0017322,0.0019941,3.8485e-10,0,0.86,0
0.00083144,-0.00071547,0.0027886,0.0010721,0.0011582,-0.00068123,0,0,0.04239,-0.0022385,0,-0.035424,0,0,0,0.0030261,0.00083461,0.0011582,-19.221,0.001673,0.0020489,4.0488e-10,0.02,0.86,0
0.0016956,-0.0014295,0.0028267,0.00094764,0.0011323,-0.00066228,0,0,0.044054,-0.0048008,0,-0.034439,0,0,0,0.0030366,0.00073768,0.0011323,-17.59,0.0016355,0.0021293,4.3894e-10,0.04,0.86,0
0.0025936,-0.0021272,0.0028606,0.00081795,0.0011036,-0.00062449,0,0,0.045683,-0.0074258,0,-0.032474,0,0,0,0.0030364,0.00064215,0.0011036,-15.722,0.001594,0.0022001,4.669e-10,0.06,0.86,0
0.0035229,-0.002793,0.0028865,0.0006948,0.0010744,-0.00057027,0,0,0.047114,-0.0098692,0,-0.029654,0,0,0,0.003026,0.0005553,0.0010744,-13.746,0.0015519,0.0022564,4.8638e-10,0.08,0.86,0
0.0044782,-0.0034134,0.0029021,0.00058563,0.0010463,-0.00050484,0,0,0.048251,-0.011978,0,-0.026252,0,0,0,0.0030074,0.00048039,0.0010463,-11.775,0.0015114,0.0022969,4.973e-10,0.1,0.86,0
0.0054529,-0.0039788,0.0029074,0.00049322,0.0010202,-0.00043402,0,0,0.049068,-0.013701,0,-0.022569,0,0,0,0.0029831,0.00041756,0.0010202,-9.8882,0.0014736,0.0023236,5.0113e-10,0.12,0.86,0
0.0064409,-0.0044835,0.0029038,0.00041702,0.00099626,-0.00036252,0,0,0.049597,-0.01506,0,-0.018851,0,0,0,0.0029556,0.00036525,0.00099626,-8.1272,0.0014391,0.0023396,4.9996e-10,0.14,0.86,0
0.0074368,-0.0049253,0.0028939,0.00035495,0.00097465,-0.00029351,0,0,0.0499,-0.016112,0,-0.015263,0,0,0,0.0029274,0.00032146,0.00097465,-6.5093,0.0014078,0.0023485,4.9581e-10,0.16,0.86,0
0.0084369,-0.0053041,0.0028799,0.00030443,0.00095531,-0.00022875,0,0,0.05004,-0.016923,0,-0.011895,0,0,0,0.0029001,0.00028427,0.00095531,-5.0363,0.0013799,0.0023532,4.9032e-10,0.18,0.86,0
0.0094384,-0.0056216,0.0028641,0.00026301,0.00093814,-0.000169,0,0,0.050076,-0.017553,0,-0.008788,0,0,0,0.0028751,0.00025207,0.00093814,-3.7019,0.0013551,0.0023561,4.8469e-10,0.2,0.86,0
0.01044,-0.0058804,0.0028481,0.00022855,0.000923,-0.00011448,0,0,0.050053,-0.018056,0,-0.0059528,0,0,0,0.0028531,0.00022356,0.000923,-2.4975,0.0013332,0.0023589,4.7971e-10,0.22,0.86,0
0.01144,-0.0060838,0.0028331,0.00019925,0.00090969,-6.5094e-05,0,0,0.050007,-0.018471,0,-0.0033849,0,0,0,0.0028347,0.00019764,0.00090969,-1.4149,0.001314,0.0023629,4.7589e-10,0.24,0.86,0
0.01244,-0.0062356,0.0028198,0.00017364,0.00089802,-2.0665e-05,0,0,0.049965,-0.018834,0,-0.0010746,0,0,0,0.0028199,0.00017348,0.00089802,-0.44742,0.0012971,0.0023688,4.7352e-10,0.26,0.86,0
0.013439,-0.0063398,0.0028088,0.00015052,0.00088778,1.8992e-05,0,0,0.049945,-0.019169,0,0.00098759,0,0,0,0.0028089,0.00015039,0.00088778,0.40933,0.0012824,0.0023772,4.7274e-10,0.28,0.86,0
0.014438,-0.0064006,0.0028003,0.00012893,0.00087878,5.4e-05,0,0,0.04996,-0.019496,0,0.002808,0,0,0,0.0028014,0.00012783,0.00087878,1.1576,0.0012693,0.0023884,4.7361e-10,0.3,0.86,0
0.015438,-0.0064227,0.0027947,0.0001081,0.00087083,8.44e-05,0,0,0.05002,-0.019831,0,0.0043888,0,0,0,0.0027973,0.00010545,0.00087083,1.7976,0.0012579,0.0024024,4.7608e-10,0.32,0.86,0
0.016439,-0.0064108,0.0027917,8.7488e-05,0.00086376,0.00011015,0,0,0.050127,-0.020183,0,0.0057277,0,0,0,0.0027962,8.3009e-05,0.00086376,2.3286,0.0012477,0.0024192,4.8006e-10,0.34,0.86,0
0.017443,-0.0063699,0.0027915,6.6715e-05,0.00085745,0.00013113,0,0,0.050284,-0.020559,0,0.0068188,0,0,0,0.0027977,6.0418e-05,0.00085745,2.7489,0.0012385,0.0024385,4.8538e-10,0.36,0.86,0
0.01845,-0.0063052,0.0027936,4.5585e-05,0.00085176,0.00014719,0,0,0.050488,-0.020961,0,0.0076538,0,0,0,0.0028015,3.7724e-05,0.00085176,3.0572,0.0012303,0.0024599,4.9183e-10,0.38,0.86,0
0.019462,-0.0062222,0.002798,2.4084e-05,0.00084661,0.00015815,0,0,0.050735,-0.021386,0,0.0082238,0,0,0,0.0028069,1.5097e-05,0.00084661,3.2526,0.0012229,0.0024828,4.9915e-10,0.4,0.86,0
0.02048,-0.0061262,0.0028041,2.3702e-06,0.00084194,0.00016387,0,0,0.051016,-0.021829,0,0.0085211,0,0,0,0.0028136,-7.1817e-06,0.00084194,3.336,0.0012161,0.0025066,5.0703e-10,0.42,0.86,0
0.021503,-0.0060231,0.0028115,-1.9241e-05,0.00083769,0.00016426,0,0,0.05132,-0.02228,0,0.0085413,0,0,0,0.002821,-2.874e-05,0.00083769,3.3098,0.00121,0.0025304,5.1516e-10,0.44,0.86,0
0.022532,-0.0059182,0.0028198,-4.0295e-05,0.00083385,0.00015933,0,0,0.051634,-0.022728,0,0.0082853,0,0,0,0.0028286,-4.9144e-05,0.00083385,3.1788,0.0012044,0.0025535,5.2318e-10,0.46,0.86,0
0.023568,-0.0058171,0.0028283,-6.0233e-05,0.00083041,0.00014925,0,0,0.051944,-0.023157,0,0.0077611,0,0,0,0.002836,-6.7925e-05,0.00083041,2.95,0.0011995,0.0025751,5.3076e-10,0.48,0.86,0
0.02461,-0.0057248,0.0028364,-7.8436e-05,0.0008274,0.00013432,0,0,0.052235,-0.023552,0,0.0069848,0,0,0,0.0028426,-8.4613e-05,0.0008274,2.6328,0.0011951,0.0025944,5.3758e-10,0.5,0.86,0
0.025658,-0.005646,0.0028437,-9.4273e-05,0.00082484,0.00011503,0,0,0.052491,-0.023897,0,0.0059815,0,0,0,0.0028482,-9.877e-05,0.00082484,2.2387,0.0011914,0.0026107,5.4334e-10,0.52,0.86,0
0.02671,-0.0055848,0.0028496,-0.00010715,0.00082274,9.2023e-05,0,0,0.052699,-0.024177,0,0.0047852,0,0,0,0.0028525,-0.00011001,0.00082274,1.7809,0.0011884,0.0026236,5.478e-10,0.54,0.86,0
0.027765,-0.0055446,0.0028537,-0.00011658,0.00082112,6.6104e-05,0,0,0.052846,-0.02438,0,0.0034374,0,0,0,0.0028551,-0.00011805,0.00082112,1.2743,0.0011861,0.0026324,5.5077e-10,0.56,0.86,0
0.028824,-0.005528,0.0028555,-0.00012218,0.00082,3.8193e-05,0,0,0.052923,-0.024497,0,0.0019861,0,0,0,0.002856,-0.00012267,0.00082,0.73474,0.0011845,0.0026369,5.5211e-10,0.58,0.86,0
0.029882,-0.0055366,0.002855,-0.00012376,0.00081937,9.2917e-06,0,0,0.052926,-0.024521,0,0.00048317,0,0,0,0.002855,-0.00012379,0.00081937,0.17872,0.0011835,0.0026369,5.5175e-10,0.6,0.86,0
0.030941,-0.005571,0.002852,-0.00012132,0.0008192,-1.9573e-05,0,0,0.052853,-0.024454,0,-0.0010178,0,0,0,0.0028521,-0.00012145,0.0008192,-0.37715,0.0011833,0.0026325,5.4967e-10,0.62,0.86,0
0.031997,-0.0056311,0.0028466,-0.00011503,0.00081947,-4.7394e-05,0,0,0.052705,-0.024297,0,-0.0024645,0,0,0,0.0028473,-0.00011578,0.00081947,-0.91659,0.0011837,0.0026236,5.4593e-10,0.64,0.86,0
0.033049,-0.0057157,0.0028389,-0.00010524,0.0008201,-7.3241e-05,0,0,0.052489,-0.024059,0,-0.0038085,0,0,0,0.0028407,-0.00010706,0.0008201,-1.4242,0.0011846,0.0026107,5.4062e-10,0.66,0.86,0
0.034096,-0.0058228,0.0028293,-9.2459e-05,0.00082105,-9.6298e-05,0,0,0.052214,-0.023751,0,-0.0050075,0,0,0,0.0028325,-9.5629e-05,0.00082105,-1.8857,0.001186,0.0025942,5.339e-10,0.68,0.86,0
0.035137,-0.0059498,0.0028181,-7.7316e-05,0.00082224,-0.00011591,0,0,0.051893,-0.023388,0,-0.0060272,0,0,0,0.0028227,-8.1949e-05,0.00082224,-2.2888,0.0011877,0.0025746,5.26e-10,0.7,0.86,0
0.036172,-0.0060932,0.0028057,-6.0498e-05,0.00082357,-0.00013159,0,0,0.051536,-0.022986,0,-0.0068428,0,0,0,0.0028118,-6.6526e-05,0.00082357,-2.6231,0.0011896,0.0025524,5.1714e-10,0.72,0.86,0
0.037199,-0.0062494,0.0027927,-4.271e-05,0.00082499,-0.00014306,0,0,0.05116,-0.02256,0,-0.0074389,0,0,0,0.0027999,-4.9909e-05,0.00082499,-2.8811,0.0011917,0.0025285,5.0762e-10,0.74,0.86,0
0.038218,-0.0064144,0.0027793,-2.4632e-05,0.00082641,-0.00015019,0,0,0.050776,-0.022127,0,-0.0078101,0,0,0,0.0027874,-3.2654e-05,0.00082641,-3.0574,0.0011937,0.0025036,4.9772e-10,0.76,0.86,0
0.03923,-0.006584,0.0027662,-6.8783e-06,0.00082778,-0.00015306,0,0,0.050398,-0.021701,0,-0.0079592,0,0,0,0.0027746,-1.5301e-05,0.00082778,-3.1498,0.0011957,0.0024783,4.8773e-10,0.78,0.86,0
0.040234,-0.0067542,0.0027535,1.0036e-05,0.00082905,-0.00015186,0,0,0.050035,-0.021294,0,-0.0078965,0,0,0,0.0027618,1.6559e-06,0.00082905,-3.1586,0.0011975,0.0024535,4.7793e-10,0.8,0.86,0
0.041231,-0.0069209,0.0027416,2.5706e-05,0.00083018,-0.00014689,0,0,0.049696,-0.020916,0,-0.007638,0,0,0,0.0027495,1.7785e-05,0.00083018,-3.0868,0.0011991,0.0024296,4.6856e-10,0.82,0.86,0
0.042222,-0.0070805,0.0027307,3.9844e-05,0.00083116,-0.00013853,0,0,0.049388,-0.020574,0,-0.0072036,0,0,0,0.0027378,3.2731e-05,0.00083116,-2.9393,0.0012006,0.0024073,4.5982e-10,0.84,0.86,0
0.043207,-0.0072295,0.002721,5.2271e-05,0.00083198,-0.00012721,0,0,0.049114,-0.020272,0,-0.0066151,0,0,0,0.002727,4.6221e-05,0.00083198,-2.7229,0.0012017,0.002387,4.5188e-10,0.86,0.86,0
0.044187,-0.0073649,0.0027126,6.2904e-05,0.00083264,-0.00011337,0,0,0.048878,-0.020013,0,-0.0058955,0,0,0,0.0027174,5.8062e-05,0.00083264,-2.4456,0.0012027,0.002369,4.4487e-10,0.88,0.86,0
0.045162,-0.0074839,0.0027055,7.1733e-05,0.00083316,-9.7449e-05,0,0,0.04868,-0.019797,0,-0.0050673,0,0,0,0.0027091,6.8133e-05,0.00083316,-2.1161,0.0012035,0.0023536,4.3888e-10,0.9,0.86,0
0.046134,-0.0075844,0.0026997,7.8802e-05,0.00083355,-7.9849e-05,0,0,0.04852,-0.019623,0,-0.0041522,0,0,0,0.0027021,7.6371e-05,0.00083355,-1.7434,0.001204,0.0023409,4.3394e-10,0.92,0.86,0
0.047103,-0.0076644,0.0026953,8.418e-05,0.00083383,-6.0963e-05,0,0,0.048397,-0.019491,0,-0.0031701,0,0,0,0.0026967,8.2758e-05,0.00083383,-1.3368,0.0012044,0.002331,4.3009e-10,0.94,0.86,0
0.04807,-0.0077225,0.0026921,8.7949e-05,0.00083402,-4.1143e-05,0,0,0.04831,-0.019398,0,-0.0021395,0,0,0,0.0026928,8.7299e-05,0.00083402,-0.90492,0.0012047,0.0023239,4.2735e-10,0.96,0.86,0
0.049035,-0.0077579,0.0026902,9.0178e-05,0.00083412,-2.072e-05,0,0,0.048259,-0.019343,0,-0.0010774,0,0,0,0.0026904,9.0013e-05,0.00083412,-0.45656,0.0012048,0.0023196,4.257e-10,0.98,0.86,0
0.05,-0.0077697,0.0026896,9.0916e-05,0.00083416,-1.1379e-05,0,0,0.048242,-0.019324,0,-0.0005917,0,0,0,0.0026897,9.0866e-05,0.00083416,-0.25087,0.0012049,0.0023183,4.2519e-10,1,0.86,0
0,0,0.0028269,0.0012115,0.0012115,-0.00073395,0,0,0.042,0,0,-0.038165,0,0,0,0.0031106,0.00092788,0.0012115,-21.131,0.00175,0.0020556,4.1762e-10,0,0.88,0
0.00084,-0.00076331,0.0028155,0.0010635,0.0011637,-0.00072524,0,0,0.042948,-0.002606,0,-0.037713,0,0,0,0.0030768,0.00080223,0.0011637,-19.81,0.0016809,0.0021171,4.3985e-10,0.02,0.88,0
0.0017179,-0.0015325,0.0028567,0.00091409,0.0011313,-0.00070315,0,0,0.044863,-0.0056461,0,-0.036564,0,0,0,0.0030845,0.0006863,0.0011313,-17.951,0.001634,0.0022096,4.7922e-10,0.04,0.88,0
0.0026345,-0.0022864,0.002891,0.00076177,0.0010958,-0.00065543,0,0,0.046674,-0.0086852,0,-0.034083,0,0,0,0.0030765,0.00057619,0.0010958,-15.81,0.0015829,0.0022853,5.0776e-10,0.06,0.88,0
0.0035849,-0.0030035,0.0029131,0.00062385,0.0010611,-0.00058759,0,0,0.048153,-0.011368,0,-0.030555,0,0,0,0.0030551,0.00048184,0.0010611,-13.587,0.0015327,0.0023381,5.2312e-10,0.08,0.88,0
0.0045606,-0.0036671,0.0029211,0.00050849,0.0010289,-0.00050872,0,0,0.049199,-0.013531,0,-0.026454,0,0,0,0.003024,0.00040561,0.0010289,-11.433,0.0014862,0.0023691,5.2688e-10,0.1,0.88,0
0.0055528,-0.0042667,0.0029164,0.00041619,0.00099977,-0.00042713,0,0,0.049832,-0.015173,0,-0.022211,0,0,0,0.0029873,0.00034523,0.00099977,-9.4321,0.0014441,0.0023832,5.2247e-10,0.12,0.88,0
0.0065539,-0.0047976,0.0029022,0.00034378,0.00097381,-0.00034841,0,0,0.050139,-0.01638,0,-0.018117,0,0,0,0.0029488,0.00029719,0.00097381,-7.6178,0.0014066,0.0023864,5.1344e-10,0.14,0.88,0
0.0075584,-0.0052591,0.0028826,0.00028718,0.00095092,-0.00027543,0,0,0.050223,-0.017257,0,-0.014322,0,0,0,0.0029115,0.00025827,0.00095092,-5.9914,0.0013736,0.0023836,5.0262e-10,0.16,0.88,0
0.0085628,-0.0056526,0.0028607,0.00024265,0.00093101,-0.00020924,0,0,0.050172,-0.017897,0,-0.01088,0,0,0,0.0028773,0.00022604,0.00093101,-4.5407,0.0013448,0.0023785,4.9189e-10,0.18,0.88,0
0.0095653,-0.0059813,0.002839,0.00020717,0.00091385,-0.00014988,0,0,0.050054,-0.018374,0,-0.007794,0,0,0,0.0028475,0.00019866,0.00091385,-3.249,0.00132,0.0023735,4.8237e-10,0.2,0.88,0
0.010565,-0.0062489,0.0028191,0.00017833,0.00089922,-9.6975e-05,0,0,0.049916,-0.018743,0,-0.0050427,0,0,0,0.0028226,0.00017477,0.00089922,-2.1003,0.0012989,0.0023702,4.7464e-10,0.22,0.88,0
0.011562,-0.0064596,0.0028019,0.00015427,0.00088684,-4.9975e-05,0,0,0.049791,-0.019047,0,-0.0025987,0,0,0,0.0028028,0.00015333,0.00088684,-1.081,0.001281,0.0023695,4.6899e-10,0.24,0.88,0
0.012557,-0.0066177,0.0027879,0.00013356,0.00087643,-8.3831e-06,0,0,0.049697,-0.019315,0,-0.00043592,0,0,0,0.0027879,0.00013354,0.00087643,-0.18095,0.001266,0.0023718,4.6548e-10,0.26,0.88,0
0.01355,-0.0067277,0.0027774,0.0001151,0.00086774,2.8208e-05,0,0,0.04965,-0.019569,0,0.0014668,0,0,0,0.0027777,0.0001148,0.00086774,0.60698,0.0012534,0.0023775,4.6408e-10,0.28,0.88,0
0.014543,-0.0067944,0.0027703,9.8016e-05,0.00086051,6.008e-05,0,0,0.049656,-0.019825,0,0.0031242,0,0,0,0.0027717,9.6666e-05,0.00086051,1.2873,0.001243,0.0023866,4.6469e-10,0.3,0.88,0
0.015536,-0.0068225,0.0027667,8.1667e-05,0.00085452,8.7395e-05,0,0,0.049718,-0.020094,0,0.0045445,0,0,0,0.0027696,7.8826e-05,0.00085452,1.8622,0.0012343,0.0023989,4.6715e-10,0.32,0.88,0
0.016531,-0.006817,0.0027663,6.5581e-05,0.00084958,0.00011021,0,0,0.049836,-0.020384,0,0.0057308,0,0,0,0.0027708,6.1091e-05,0.00084958,2.3329,0.0012272,0.0024141,4.7126e-10,0.34,0.88,0
0.017529,-0.0067829,0.0027689,4.9447e-05,0.00084549,0.0001285,0,0,0.050008,-0.020697,0,0.0066817,0,0,0,0.0027749,4.3389e-05,0.00084549,2.6993,0.0012213,0.0024318,4.7681e-10,0.36,0.88,0
0.018532,-0.0067255,0.0027739,3.3106e-05,0.00084212,0.00014218,0,0,0.050228,-0.021034,0,0.0073932,0,0,0,0.0027813,2.575e-05,0.00084212,2.9615,0.0012164,0.0024515,4.8353e-10,0.38,0.88,0
0.019539,-0.0066502,0.0027812,1.654e-05,0.00083932,0.00015116,0,0,0.050488,-0.021392,0,0.0078603,0,0,0,0.0027894,8.2997e-06,0.00083932,3.1203,0.0012123,0.0024727,4.9113e-10,0.4,0.88,0
0.020551,-0.0065624,0.0027901,-1.3315e-07,0.00083698,0.00015536,0,0,0.05078,-0.021765,0,0.0080789,0,0,0,0.0027987,-8.7574e-06,0.00083698,3.1772,0.001209,0.0024945,4.9931e-10,0.42,0.88,0
0.02157,-0.0064674,0.0028001,-1.6674e-05,0.00083503,0.00015476,0,0,0.051092,-0.022144,0,0.0080477,0,0,0,0.0028086,-2.5152e-05,0.00083503,3.1355,0.0012062,0.0025164,5.0772e-10,0.44,0.88,0
0.022595,-0.0063707,0.0028107,-3.2742e-05,0.0008334,0.00014942,0,0,0.051411,-0.02252,0,0.00777,0,0,0,0.0028186,-4.0572e-05,0.0008334,2.9999,0.0012038,0.0025376,5.1604e-10,0.46,0.88,0
0.023626,-0.0062774,0.0028213,-4.7917e-05,0.00083203,0.00013951,0,0,0.051722,-0.022879,0,0.0072548,0,0,0,0.0028281,-5.4685e-05,0.00083203,2.7772,0.0012018,0.0025575,5.2394e-10,0.48,0.88,0
0.024664,-0.0061923,0.0028314,-6.1739e-05,0.00083089,0.00012534,0,0,0.052013,-0.023208,0,0.0065179,0,0,0,0.0028368,-6.7159e-05,0.00083089,2.4761,0.0012002,0.0025752,5.3108e-10,0.5,0.88,0
0.025707,-0.0061198,0.0028403,-7.3735e-05,0.00082997,0.00010736,0,0,0.052268,-0.023496,0,0.0055825,0,0,0,0.0028442,-7.7685e-05,0.00082997,2.107,0.0011988,0.0025903,5.372e-10,0.52,0.88,0
0.026755,-0.0060637,0.0028476,-8.3469e-05,0.00082923,8.6139e-05,0,0,0.052477,-0.02373,0,0.0044792,0,0,0,0.0028501,-8.5998e-05,0.00082923,1.6819,0.0011978,0.0026021,5.4205e-10,0.54,0.88,0
0.027806,-0.0060272,0.0028528,-9.0569e-05,0.00082867,6.2401e-05,0,0,0.052628,-0.0239,0,0.0032449,0,0,0,0.0028541,-9.1891e-05,0.00082867,1.214,0.001197,0.0026105,5.4542e-10,0.56,0.88,0
0.02886,-0.0060127,0.0028557,-9.4765e-05,0.00082828,3.6949e-05,0,0,0.052713,-0.023999,0,0.0019213,0,0,0,0.0028562,-9.5228e-05,0.00082828,0.71736,0.0011964,0.002615,5.4719e-10,0.58,0.88,0
0.029914,-0.0060217,0.002856,-9.5911e-05,0.00082803,1.0652e-05,0,0,0.052728,-0.024023,0,0.00055393,0,0,0,0.0028561,-9.595e-05,0.00082803,0.20675,0.001196,0.0026154,5.4727e-10,0.6,0.88,0
0.030969,-0.0060549,0.0028537,-9.4e-05,0.00082791,-1.5593e-05,0,0,0.052671,-0.02397,0,-0.00081083,0,0,0,0.0028538,-9.4082e-05,0.00082791,-0.30307,0.0011959,0.0026119,5.4563e-10,0.62,0.88,0
0.032021,-0.0061122,0.0028488,-8.9162e-05,0.00082789,-4.0913e-05,0,0,0.052544,-0.023843,0,-0.0021275,0,0,0,0.0028494,-8.9732e-05,0.00082789,-0.79767,0.0011958,0.0026045,5.4233e-10,0.64,0.88,0
0.03307,-0.0061925,0.0028415,-8.1665e-05,0.00082794,-6.4493e-05,0,0,0.052352,-0.02365,0,-0.0033536,0,0,0,0.0028429,-8.3087e-05,0.00082794,-1.2633,0.0011959,0.0025934,5.3744e-10,0.66,0.88,0
0.034115,-0.0062941,0.002832,-7.1884e-05,0.00082802,-8.5619e-05,0,0,0.052102,-0.023398,0,-0.0044522,0,0,0,0.0028345,-7.4406e-05,0.00082802,-1.6874,0.001196,0.0025789,5.3113e-10,0.68,0.88,0
0.035154,-0.0064145,0.0028206,-6.0282e-05,0.0008281,-0.0001037,0,0,0.051805,-0.023098,0,-0.0053927,0,0,0,0.0028244,-6.401e-05,0.0008281,-2.0589,0.0011961,0.0025616,5.2359e-10,0.7,0.88,0
0.036187,-0.0065505,0.0028079,-4.7375e-05,0.00082815,-0.00011831,0,0,0.051473,-0.022764,0,-0.0061522,0,0,0,0.0028128,-5.2269e-05,0.00082815,-2.3687,0.0011962,0.0025419,5.1506e-10,0.72,0.88,0
0.037213,-0.006699,0.0027942,-3.3691e-05,0.00082814,-0.00012916,0,0,0.051116,-0.022408,0,-0.0067164,0,0,0,0.0028,-3.9579e-05,0.00082814,-2.6097,0.0011962,0.0025204,5.058e-10,0.74,0.88,0
0.038232,-0.006856,0.0027799,-1.9745e-05,0.00082804,-0.00013613,0,0,0.050748,-0.022042,0,-0.0070786,0,0,0,0.0027865,-2.6349e-05,0.00082804,-2.7772,0.0011961,0.0024977,4.9609e-10,0.76,0.88,0
0.039243,-0.0070178,0.0027655,-6.0027e-06,0.00082785,-0.00013923,0,0,0.050379,-0.02168,0,-0.00724,0,0,0,0.0027725,-1.298e-05,0.00082785,-2.8687,0.0011958,0.0024746,4.862e-10,0.78,0.88,0
0.040247,-0.0071805,0.0027514,7.1388e-06,0.00082756,-0.00013861,0,0,0.05002,-0.021331,0,-0.0072079,0,0,0,0.0027584,1.5509e-07,0.00082756,-2.8843,0.0011954,0.0024516,4.7641e-10,0.8,0.88,0
0.041244,-0.0073402,0.0027379,1.9362e-05,0.00082718,-0.00013452,0,0,0.049679,-0.021003,0,-0.0069949,0,0,0,0.0027445,1.2723e-05,0.00082718,-2.8259,0.0011948,0.0024292,4.6696e-10,0.82,0.88,0
0.042234,-0.0074934,0.0027253,3.0437e-05,0.00082672,-0.00012726,0,0,0.049363,-0.020703,0,-0.0066175,0,0,0,0.0027313,2.4441e-05,0.00082672,-2.6977,0.0011941,0.0024081,4.5807e-10,0.84,0.88,0
0.043219,-0.0076368,0.0027138,4.0214e-05,0.00082621,-0.0001172,0,0,0.049078,-0.020436,0,-0.0060943,0,0,0,0.002719,3.5086e-05,0.00082621,-2.5052,0.0011934,0.0023887,4.4991e-10,0.86,0.88,0
0.044198,-0.0077672,0.0027037,4.8615e-05,0.00082568,-0.00010472,0,0,0.048828,-0.020204,0,-0.0054455,0,0,0,0.0027078,4.4491e-05,0.00082568,-2.2552,0.0011926,0.0023713,4.4263e-10,0.88,0.88,0
0.045172,-0.0078822,0.0026949,5.5619e-05,0.00082516,-9.0216e-05,0,0,0.048614,-0.020008,0,-0.0046913,0,0,0,0.002698,5.2539e-05,0.00082516,-1.9554,0.0011919,0.0023562,4.3635e-10,0.9,0.88,0
0.046142,-0.0079793,0.0026877,6.1248e-05,0.00082469,-7.4066e-05,0,0,0.048439,-0.019849,0,-0.0038514,0,0,0,0.0026898,5.9161e-05,0.00082469,-1.614,0.0011912,0.0023436,4.3113e-10,0.92,0.88,0
0.047109,-0.0080567,0.0026821,6.5545e-05,0.00082428,-5.6634e-05,0,0,0.048302,-0.019727,0,-0.002945,0,0,0,0.0026833,6.432e-05,0.00082428,-1.2394,0.0011906,0.0023337,4.2704e-10,0.94,0.88,0
0.048074,-0.0081131,0.002678,6.8564e-05,0.00082397,-3.8265e-05,0,0,0.048205,-0.019641,0,-0.0019898,0,0,0,0.0026786,6.8004e-05,0.00082397,-0.83996,0.0011902,0.0023266,4.2409e-10,0.96,0.88,0
0.049037,-0.0081473,0.0026756,7.0354e-05,0.00082377,-1.9284e-05,0,0,0.048146,-0.019589,0,-0.0010027,0,0,0,0.0026757,7.0211e-05,0.00082377,-0.42407,0.0011899,0.0023223,4.2232e-10,0.98,0.88,0
0.05,-0.0081588,0.0026747,7.0947e-05,0.00082371,-1.1038e-05,0,0,0.048127,-0.019572,0,-0.00057399,0,0,0,0.0026748,7.09e-05,0.00082371,-0.24289,0.0011898,0.0023209,4.2176e-10,1,0.88,0
0,0,0.002879,0.0012339,0.0012339,-0.00078818,0,0,0.042774,1.301e-18,0,-0.040986,0,0,0,0.0031957,0.00091719,0.0012339,-21.889,0.0017822,0.0021378,4.6489e-10,0,0.9,0
0.00085547,-0.00081971,0.0028643,0.0010548,0.0011757,-0.0007755,0,0,0.043903,-0.0031444,0,-0.040326,0,0,0,0.0031512,0.00076793,0.0011757,-20.3,0.0016983,0.0022078,4.8976e-10,0.02,0.9,0
0.0017561,-0.0016553,0.0029075,0.00086831,0.0011328,-0.00074644,0,0,0.046144,-0.0068757,0,-0.038815,0,0,0,0.0031516,0.00062428,0.0011328,-18.104,0.0016362,0.0023153,5.3528e-10,0.04,0.9,0
0.0027013,-0.0024746,0.0029389,0.00068692,0.0010877,-0.00068165,0,0,0.04813,-0.010422,0,-0.035446,0,0,0,0.0031292,0.00049667,0.0010877,-15.595,0.0015712,0.0023924,5.6116e-10,0.06,0.9,0
0.0036814,-0.0032477,0.0029519,0.00053526,0.0010461,-0.00059384,0,0,0.049549,-0.013283,0,-0.03088,0,0,0,0.0030899,0.00039722,0.0010461,-13.086,0.0015111,0.002434,5.6693e-10,0.08,0.9,0
0.0046832,-0.0039546,0.0029454,0.00041851,0.0010092,-0.00049822,0,0,0.050342,-0.015357,0,-0.025907,0,0,0,0.0030401,0.00032383,0.0010092,-10.761,0.0014577,0.0024467,5.5799e-10,0.1,0.9,0
0.005695,-0.0045857,0.0029242,0.00033167,0.00097675,-0.0004058,0,0,0.050633,-0.016772,0,-0.021101,0,0,0,0.0029862,0.00026963,0.00097675,-8.6915,0.0014109,0.0024411,5.4114e-10,0.12,0.9,0
0.0067085,-0.0051388,0.0028946,0.00026718,0.00094852,-0.00032173,0,0,0.050597,-0.017715,0,-0.01673,0,0,0,0.0029334,0.00022835,0.00094852,-6.8806,0.0013701,0.0024265,5.217e-10,0.14,0.9,0
0.0077189,-0.0056156,0.0028622,0.00021892,0.00092434,-0.00024745,0,0,0.050385,-0.018341,0,-0.012867,0,0,0,0.0028852,0.00019595,0.00092434,-5.3023,0.0013352,0.0024091,5.0298e-10,0.16,0.9,0
0.0087239,-0.00602,0.002831,0.00018227,0.00090396,-0.00018258,0,0,0.050102,-0.018764,0,-0.0094943,0,0,0,0.0028435,0.00016974,0.00090396,-3.9248,0.0013057,0.0023927,4.8662e-10,0.18,0.9,0
0.009723,-0.0063565,0.0028029,0.00015386,0.00088704,-0.00012611,0,0,0.049813,-0.019063,0,-0.0065579,0,0,0,0.0028089,0.00014787,0.00088704,-2.7195,0.0012813,0.0023792,4.7329e-10,0.2,0.9,0
0.010717,-0.0066301,0.0027793,0.00013129,0.00087317,-7.6929e-05,0,0,0.049559,-0.019289,0,-0.0040003,0,0,0,0.0027815,0.00012906,0.00087317,-1.6627,0.0012613,0.0023697,4.6315e-10,0.22,0.9,0
0.011705,-0.0068457,0.0027605,0.00011281,0.00086198,-3.4036e-05,0,0,0.049361,-0.019479,0,-0.0017699,0,0,0,0.0027609,0.00011237,0.00086198,-0.73638,0.0012451,0.0023646,4.5608e-10,0.24,0.9,0
0.012691,-0.0070082,0.0027466,9.7118e-05,0.0008531,3.356e-06,0,0,0.04923,-0.019656,0,0.00017451,0,0,0,0.0027466,9.7114e-05,0.0008531,0.072576,0.0012323,0.0023639,4.519e-10,0.26,0.9,0
0.013674,-0.0071225,0.0027374,8.3278e-05,0.0008462,3.5834e-05,0,0,0.049171,-0.019836,0,0.0018633,0,0,0,0.0027379,8.2794e-05,0.0008462,0.77337,0.0012223,0.0023676,4.5034e-10,0.28,0.9,0
0.014658,-0.0071936,0.0027327,7.0574e-05,0.00084097,6.3797e-05,0,0,0.049184,-0.02003,0,0.0033175,0,0,0,0.0027342,6.9046e-05,0.00084097,1.372,0.0012147,0.0023752,4.5115e-10,0.3,0.9,0
0.015642,-0.0072265,0.002732,5.8483e-05,0.00083716,8.7492e-05,0,0,0.049267,-0.020245,0,0.0045496,0,0,0,0.0027349,5.5623e-05,0.00083716,1.8723,0.0012092,0.0023865,4.5405e-10,0.32,0.9,0
0.016628,-0.0072262,0.0027351,4.6633e-05,0.00083451,0.00010704,0,0,0.049414,-0.020485,0,0.0055659,0,0,0,0.0027393,4.2378e-05,0.00083451,2.2764,0.0012054,0.002401,4.5877e-10,0.34,0.9,0
0.017618,-0.0071978,0.0027413,3.4781e-05,0.00083281,0.00012246,0,0,0.049619,-0.020749,0,0.0063681,0,0,0,0.0027468,2.9251e-05,0.00083281,2.5855,0.0012029,0.0024181,4.6503e-10,0.36,0.9,0
0.018613,-0.0071466,0.0027501,2.2805e-05,0.00083188,0.00013375,0,0,0.049874,-0.021036,0,0.0069548,0,0,0,0.0027566,1.6262e-05,0.00083188,2.8008,0.0012016,0.0024372,4.7252e-10,0.38,0.9,0
0.019613,-0.0070778,0.0027611,1.0688e-05,0.00083153,0.00014084,0,0,0.050168,-0.021342,0,0.0073236,0,0,0,0.0027683,3.4953e-06,0.00083153,2.9237,0.0012011,0.0024577,4.8094e-10,0.4,0.9,0
0.02062,-0.0069968,0.0027736,-1.483e-06,0.00083163,0.00014371,0,0,0.050491,-0.021661,0,0.0074727,0,0,0,0.002781,-8.905e-06,0.00083163,2.9565,0.0012013,0.0024789,4.8994e-10,0.42,0.9,0
0.021633,-0.0069088,0.002787,-1.3536e-05,0.00083205,0.00014236,0,0,0.05083,-0.021985,0,0.0074026,0,0,0,0.0027942,-2.0754e-05,0.00083205,2.9025,0.0012018,0.0025002,4.9919e-10,0.44,0.9,0
0.022653,-0.006819,0.0028008,-2.5223e-05,0.00083267,0.00013687,0,0,0.051171,-0.022305,0,0.0071174,0,0,0,0.0028074,-3.1836e-05,0.00083267,2.7664,0.0012028,0.0025207,5.0834e-10,0.46,0.9,0
0.02368,-0.0067322,0.0028142,-3.6242e-05,0.0008334,0.00012743,0,0,0.051502,-0.022611,0,0.0066262,0,0,0,0.0028199,-4.1927e-05,0.0008334,2.5545,0.0012038,0.00254,5.1705e-10,0.48,0.9,0
0.024713,-0.0066531,0.0028268,-4.6261e-05,0.00083417,0.0001143,0,0,0.051809,-0.022891,0,0.0059437,0,0,0,0.0028314,-5.0801e-05,0.00083417,2.2746,0.0012049,0.0025572,5.25e-10,0.5,0.9,0
0.025752,-0.0065859,0.0028379,-5.4942e-05,0.0008349,9.79e-05,0,0,0.052079,-0.023136,0,0.0050908,0,0,0,0.0028412,-5.8251e-05,0.0008349,1.936,0.001206,0.002572,5.3189e-10,0.52,0.9,0
0.026796,-0.006534,0.0028471,-6.1971e-05,0.00083554,7.8736e-05,0,0,0.052301,-0.023335,0,0.0040943,0,0,0,0.0028492,-6.41e-05,0.00083554,1.5492,0.0012069,0.0025838,5.3747e-10,0.54,0.9,0
0.027844,-0.0065007,0.002854,-6.7083e-05,0.00083606,5.7425e-05,0,0,0.052465,-0.023482,0,0.0029861,0,0,0,0.0028551,-6.8212e-05,0.00083606,1.1258,0.0012076,0.0025923,5.4153e-10,0.56,0.9,0
0.028895,-0.006488,0.0028581,-7.0085e-05,0.00083641,3.4663e-05,0,0,0.052565,-0.023569,0,0.0018025,0,0,0,0.0028585,-7.0495e-05,0.00083641,0.67812,0.0012082,0.0025972,5.4392e-10,0.58,0.9,0
0.029947,-0.0064975,0.0028595,-7.0872e-05,0.00083658,1.12e-05,0,0,0.052595,-0.023594,0,0.00058238,0,0,0,0.0028595,-7.0915e-05,0.00083658,0.21898,0.0012084,0.0025984,5.4455e-10,0.6,0.9,0
0.030999,-0.0065298,0.0028579,-6.9438e-05,0.00083653,-1.2199e-05,0,0,0.052555,-0.023555,0,-0.00063434,0,0,0,0.0028579,-6.9489e-05,0.00083653,-0.23876,0.0012083,0.0025958,5.4338e-10,0.62,0.9,0
0.032049,-0.0065849,0.0028534,-6.5878e-05,0.00083625,-3.4781e-05,0,0,0.052445,-0.023455,0,-0.0018086,0,0,0,0.0028538,-6.6292e-05,0.00083625,-0.68251,0.0012079,0.0025896,5.4045e-10,0.64,0.9,0
0.033097,-0.0066617,0.0028462,-6.0381e-05,0.00083574,-5.5846e-05,0,0,0.052271,-0.023299,0,-0.002904,0,0,0,0.0028472,-6.1454e-05,0.00083574,-1.1003,0.0012072,0.0025799,5.3586e-10,0.66,0.9,0
0.03414,-0.0067587,0.0028365,-5.3217e-05,0.00083499,-7.4775e-05,0,0,0.05204,-0.023093,0,-0.0038883,0,0,0,0.0028384,-5.5151e-05,0.00083499,-1.4813,0.0012061,0.002567,5.2975e-10,0.68,0.9,0
0.035178,-0.0068737,0.0028247,-4.4718e-05,0.000834,-9.1054e-05,0,0,0.051759,-0.022847,0,-0.0047348,0,0,0,0.0028276,-4.7604e-05,0.000834,-1.8157,0.0012047,0.0025513,5.2232e-10,0.7,0.9,0
0.03621,-0.0070037,0.0028112,-3.5251e-05,0.00083278,-0.0001043,0,0,0.051439,-0.022569,0,-0.0054234,0,0,0,0.002815,-3.9068e-05,0.00083278,-2.0956,0.0012029,0.0025333,5.1383e-10,0.72,0.9,0
0.037236,-0.0071457,0.0027964,-2.5201e-05,0.00083136,-0.00011424,0,0,0.051091,-0.022271,0,-0.0059405,0,0,0,0.002801,-2.9818e-05,0.00083136,-2.3147,0.0012009,0.0025134,5.0451e-10,0.74,0.9,0
0.038254,-0.007296,0.0027808,-1.4936e-05,0.00082976,-0.00012076,0,0,0.050727,-0.021962,0,-0.0062796,0,0,0,0.002786,-2.0143e-05,0.00082976,-2.4688,0.0011985,0.0024923,4.9467e-10,0.76,0.9,0
0.039265,-0.0074512,0.0027648,-4.7981e-06,0.00082801,-0.00012386,0,0,0.050357,-0.021653,0,-0.0064405,0,0,0,0.0027703,-1.0326e-05,0.00082801,-2.5555,0.001196,0.0024706,4.8459e-10,0.78,0.9,0
0.040268,-0.0076074,0.0027489,4.9219e-06,0.00082615,-0.00012363,0,0,0.049992,-0.021352,0,-0.0064287,0,0,0,0.0027545,-6.3684e-07,0.00082615,-2.5745,0.0011933,0.0024487,4.7454e-10,0.8,0.9,0
0.041264,-0.007761,0.0027335,1.3989e-05,0.00082424,-0.00012027,0,0,0.04964,-0.021066,0,-0.006254,0,0,0,0.0027388,8.68e-06,0.00082424,-2.5273,0.0011906,0.0024273,4.6477e-10,0.82,0.9,0
0.042254,-0.0079086,0.0027189,2.2227e-05,0.00082233,-0.00011404,0,0,0.04931,-0.020803,0,-0.0059301,0,0,0,0.0027237,1.7413e-05,0.00082233,-2.4173,0.0011878,0.002407,4.5552e-10,0.84,0.9,0
0.043237,-0.008047,0.0027054,2.9522e-05,0.00082047,-0.00010525,0,0,0.049007,-0.020564,0,-0.0054728,0,0,0,0.0027095,2.5389e-05,0.00082047,-2.2489,0.0011851,0.002388,4.4698e-10,0.86,0.9,0
0.044214,-0.008173,0.0026932,3.5809e-05,0.00081871,-9.4219e-05,0,0,0.048738,-0.020355,0,-0.0048994,0,0,0,0.0026966,3.2472e-05,0.00081871,-2.028,0.0011826,0.0023709,4.3931e-10,0.88,0.9,0
0.045186,-0.0082842,0.0026827,4.1065e-05,0.00081713,-8.1304e-05,0,0,0.048505,-0.020178,0,-0.0042278,0,0,0,0.0026852,3.8565e-05,0.00081713,-1.7612,0.0011803,0.0023559,4.3265e-10,0.9,0.9,0
0.046154,-0.0083783,0.0026739,4.53e-05,0.00081575,-6.6843e-05,0,0,0.048311,-0.020032,0,-0.0034758,0,0,0,0.0026756,4.3602e-05,0.00081575,-1.4557,0.0011783,0.0023433,4.2708e-10,0.92,0.9,0
0.047119,-0.0084535,0.0026669,4.8542e-05,0.00081463,-5.1168e-05,0,0,0.048159,-0.019918,0,-0.0026607,0,0,0,0.0026679,4.7542e-05,0.00081463,-1.1191,0.0011767,0.0023334,4.227e-10,0.94,0.9,0
0.048081,-0.0085082,0.0026619,5.0823e-05,0.00081381,-3.46e-05,0,0,0.04805,-0.019838,0,-0.0017992,0,0,0,0.0026623,5.0364e-05,0.00081381,-0.75907,0.0011755,0.0023262,4.1953e-10,0.96,0.9,0
0.049041,-0.0085414,0.0026588,5.2176e-05,0.0008133,-1.7445e-05,0,0,0.047984,-0.019789,0,-0.00090715,0,0,0,0.0026589,5.206e-05,0.0008133,-0.38343,0.0011748,0.0023218,4.1762e-10,0.98,0.9,0
0.05,-0.0085526,0.0026578,5.2625e-05,0.00081313,-1.072e-05,0,0,0.047962,-0.019773,0,-0.00055744,0,0,0,0.0026578,5.2581e-05,0.00081313,-0.23576,0.0011745,0.0023204,4.1701e-10,1,0.9,0
0,0,0.0029692,0.0012725,0.0012725,-0.00085489,0,0,0.044114,-4.3368e-19,0,-0.044454,0,0,0,0.0033252,0.00091649,0.0012725,-22.61,0.0018381,0.0022519,5.3745e-10,0,0.92,0
0.00088228,-0.00088908,0.0029468,0.0010418,0.0011966,-0.00083371,0,0,0.045505,-0.0040237,0,-0.043353,0,0,0,0.0032601,0.00072848,0.0011966,-20.598,0.0017284,0.0023331,5.6474e-10,0.02,0.92,0
0.0018202,-0.0018076,0.0029884,0.00079751,0.0011358,-0.00078813,0,0,0.048169,-0.0087952,0,-0.040983,0,0,0,0.0032425,0.00054345,0.0011358,-17.866,0.0016406,0.002457,6.1513e-10,0.04,0.92,0
0.002809,-0.0027033,0.00301,0.00058269,0.0010778,-0.00069377,0,0,0.050237,-0.012873,0,-0.036076,0,0,0,0.0031943,0.00039839,0.0010778,-14.877,0.0015568,0.0025257,6.3003e-10,0.06,0.92,0
0.0038297,-0.0035348,0.0030026,0.00042511,0.0010283,-0.00057748,0,0,0.051332,-0.015683,0,-0.030029,0,0,0,0.0031261,0.00030165,0.0010283,-12.068,0.0014854,0.0025403,6.1545e-10,0.08,0.92,0
0.0048623,-0.0042813,0.0029703,0.00031776,0.00098642,-0.00046412,0,0,0.051581,-0.017385,0,-0.024134,0,0,0,0.0030492,0.0002389,0.00098642,-9.6436,0.0014248,0.002521,5.8557e-10,0.1,0.92,0
0.0058929,-0.0049376,0.0029233,0.00024339,0.00095002,-0.00036413,0,0,0.051306,-0.018372,0,-0.018935,0,0,0,0.0029719,0.00019479,0.00095002,-7.6013,0.0013722,0.0024871,5.5143e-10,0.12,0.92,0
0.0069146,-0.0055062,0.0028732,0.0001912,0.00091931,-0.00027943,0,0,0.0508,-0.018931,0,-0.014531,0,0,0,0.002902,0.0001624,0.00091931,-5.8854,0.0013279,0.0024504,5.1972e-10,0.14,0.92,0
0.0079249,-0.0059927,0.0028261,0.00015378,0.00089395,-0.00020843,0,0,0.050235,-0.019245,0,-0.010838,0,0,0,0.0028422,0.00013762,0.00089395,-4.4331,0.0012913,0.0024169,4.929e-10,0.16,0.92,0
0.008924,-0.0064032,0.0027851,0.00012628,0.00087342,-0.00014877,0,0,0.049704,-0.019425,0,-0.0077363,0,0,0,0.0027934,0.00011798,0.00087342,-3.1927,0.0012616,0.002389,4.715e-10,0.18,0.92,0
0.0099131,-0.0067438,0.0027515,0.00010553,0.0008571,-9.831e-05,0,0,0.049253,-0.019541,0,-0.0051121,0,0,0,0.0027551,0.00010188,0.0008571,-2.1249,0.001238,0.0023677,4.5525e-10,0.2,0.92,0
0.010894,-0.0070205,0.0027252,8.9381e-05,0.00084439,-5.5279e-05,0,0,0.048902,-0.01963,0,-0.0028745,0,0,0,0.0027264,8.8222e-05,0.00084439,-1.2009,0.0012197,0.0023531,4.436e-10,0.22,0.92,0
0.011869,-0.0072388,0.0027062,7.6367e-05,0.00083477,-1.8354e-05,0,0,0.048657,-0.019718,0,-0.00095443,0,0,0,0.0027063,7.6239e-05,0.00083477,-0.39986,0.0012058,0.0023447,4.36e-10,0.24,0.92,0
0.01284,-0.0074039,0.0026937,6.5457e-05,0.00082776,1.3433e-05,0,0,0.048515,-0.01982,0,0.0006985,0,0,0,0.0026938,6.5388e-05,0.00082776,0.29282,0.0011956,0.0023422,4.3193e-10,0.26,0.92,0
0.01381,-0.0075212,0.0026873,5.5914e-05,0.00082295,4.0757e-05,0,0,0.048472,-0.019943,0,0.0021194,0,0,0,0.0026879,5.5283e-05,0.00082295,0.88718,0.0011887,0.002345,4.3092e-10,0.28,0.92,0
0.014779,-0.0075956,0.0026861,4.7205e-05,0.00082,6.4068e-05,0,0,0.04852,-0.020093,0,0.0033315,0,0,0,0.0026877,4.565e-05,0.00082,1.3899,0.0011845,0.0023525,4.3259e-10,0.3,0.92,0
0.015751,-0.0076323,0.0026897,3.8943e-05,0.0008186,8.3636e-05,0,0,0.048649,-0.020271,0,0.0043491,0,0,0,0.0026924,3.6307e-05,0.0008186,1.8054,0.0011824,0.0023641,4.3655e-10,0.32,0.92,0
0.016725,-0.0076364,0.0026974,3.0859e-05,0.00081846,9.9607e-05,0,0,0.048851,-0.020478,0,0.0051796,0,0,0,0.0027011,2.7143e-05,0.00081846,2.1363,0.0011822,0.0023791,4.4249e-10,0.34,0.92,0
0.017705,-0.0076128,0.0027084,2.2781e-05,0.00081935,0.00011203,0,0,0.049115,-0.020711,0,0.0058258,0,0,0,0.002713,1.8115e-05,0.00081935,2.3847,0.0011835,0.002397,4.5007e-10,0.36,0.92,0
0.01869,-0.007567,0.0027221,1.4622e-05,0.00082102,0.00012092,0,0,0.049429,-0.020966,0,0.0062877,0,0,0,0.0027275,9.232e-06,0.00082102,2.5521,0.0011859,0.0024169,4.5895e-10,0.38,0.92,0
0.019682,-0.0075039,0.0027379,6.3699e-06,0.00082329,0.00012623,0,0,0.049781,-0.02124,0,0.0065642,0,0,0,0.0027438,5.4864e-07,0.00082329,2.6403,0.0011892,0.0024383,4.688e-10,0.4,0.92,0
0.020681,-0.0074288,0.0027551,-1.9155e-06,0.00082595,0.00012797,0,0,0.050158,-0.021525,0,0.0066543,0,0,0,0.002761,-7.8424e-06,0.00082595,2.6518,0.001193,0.0024603,4.7926e-10,0.42,0.92,0
0.021688,-0.0073469,0.002773,-1.0115e-05,0.00082885,0.00012614,0,0,0.050547,-0.021813,0,0.0065593,0,0,0,0.0027787,-1.5821e-05,0.00082885,2.5898,0.0011972,0.0024824,4.8998e-10,0.44,0.92,0
0.022703,-0.0072629,0.0027908,-1.8061e-05,0.00083182,0.00012083,0,0,0.050933,-0.022097,0,0.0062833,0,0,0,0.002796,-2.3249e-05,0.00083182,2.4587,0.0012015,0.0025037,5.0058e-10,0.46,0.92,0
0.023725,-0.0071819,0.002808,-2.5546e-05,0.00083473,0.0001122,0,0,0.051305,-0.022367,0,0.0058345,0,0,0,0.0028124,-2.9982e-05,0.00083473,2.2641,0.0012057,0.0025237,5.1071e-10,0.48,0.92,0
0.024755,-0.0071079,0.0028239,-3.2345e-05,0.00083746,0.0001005,0,0,0.051647,-0.022615,0,0.0052259,0,0,0,0.0028274,-3.5876e-05,0.00083746,2.0127,0.0012097,0.0025418,5.2001e-10,0.5,0.92,0
0.025791,-0.0070452,0.0028379,-3.8229e-05,0.00083991,8.6061e-05,0,0,0.051948,-0.022832,0,0.0044751,0,0,0,0.0028405,-4.0802e-05,0.00083991,1.7124,0.0012132,0.0025573,5.2817e-10,0.52,0.92,0
0.026833,-0.0069971,0.0028496,-4.2985e-05,0.00084198,6.9329e-05,0,0,0.052198,-0.023009,0,0.0036051,0,0,0,0.0028512,-4.4646e-05,0.00084198,1.3722,0.0012162,0.00257,5.3489e-10,0.54,0.92,0
0.027879,-0.0069665,0.0028584,-4.6435e-05,0.0008436,5.082e-05,0,0,0.052386,-0.023141,0,0.0026426,0,0,0,0.0028593,-4.7324e-05,0.0008436,1.002,0.0012185,0.0025793,5.3995e-10,0.56,0.92,0
0.028928,-0.0069554,0.0028642,-4.8446e-05,0.00084473,3.1119e-05,0,0,0.052507,-0.023223,0,0.0016182,0,0,0,0.0028645,-4.8779e-05,0.00084473,0.61207,0.0012202,0.0025851,5.4318e-10,0.58,0.92,0
0.029979,-0.0069654,0.0028667,-4.895e-05,0.00084532,1.0854e-05,0,0,0.052556,-0.023251,0,0.00056439,0,0,0,0.0028667,-4.899e-05,0.00084532,0.21328,0.001221,0.0025872,5.4445e-10,0.6,0.92,0
0.031031,-0.0069971,0.0028658,-4.7941e-05,0.00084536,-9.3357e-06,0,0,0.052532,-0.023226,0,-0.00048546,0,0,0,0.0028658,-4.797e-05,0.00084536,-0.18357,0.0012211,0.0025856,5.4375e-10,0.62,0.92,0
0.032081,-0.0070504,0.0028616,-4.5482e-05,0.00084484,-2.8819e-05,0,0,0.052436,-0.023148,0,-0.0014986,0,0,0,0.0028619,-4.5768e-05,0.00084484,-0.56792,0.0012203,0.0025803,5.411e-10,0.64,0.92,0
0.033128,-0.0071245,0.0028543,-4.1702e-05,0.00084377,-4.701e-05,0,0,0.052273,-0.023022,0,-0.0024445,0,0,0,0.002855,-4.2465e-05,0.00084377,-0.92974,0.0012188,0.0025716,5.3661e-10,0.66,0.92,0
0.034172,-0.0072178,0.0028441,-3.6782e-05,0.00084218,-6.3385e-05,0,0,0.052049,-0.022853,0,-0.003296,0,0,0,0.0028455,-3.8176e-05,0.00084218,-1.2598,0.0012165,0.0025596,5.3042e-10,0.68,0.92,0
0.03521,-0.0073283,0.0028313,-3.0946e-05,0.00084012,-7.751e-05,0,0,0.051771,-0.022648,0,-0.0040305,0,0,0,0.0028334,-3.3043e-05,0.00084012,-1.55,0.0012135,0.0025448,5.2278e-10,0.7,0.92,0
0.036242,-0.0074533,0.0028165,-2.4443e-05,0.00083762,-8.905e-05,0,0,0.051451,-0.022414,0,-0.0046306,0,0,0,0.0028193,-2.7232e-05,0.00083762,-1.7936,0.0012099,0.0025276,5.1392e-10,0.72,0.92,0
0.037268,-0.0075898,0.0028001,-1.7533e-05,0.00083476,-9.7781e-05,0,0,0.051098,-0.02216,0,-0.0050846,0,0,0,0.0028034,-2.0922e-05,0.00083476,-1.9852,0.0012058,0.0025085,5.0416e-10,0.74,0.92,0
0.038286,-0.0077345,0.0027825,-1.0467e-05,0.00083161,-0.00010358,0,0,0.050723,-0.021894,0,-0.0053864,0,0,0,0.0027863,-1.4304e-05,0.00083161,-2.1211,0.0012012,0.002488,4.9377e-10,0.76,0.92,0
0.039297,-0.007884,0.0027644,-3.4787e-06,0.00082826,-0.00010645,0,0,0.050338,-0.021625,0,-0.0055351,0,0,0,0.0027684,-7.5663e-06,0.00082826,-2.1991,0.0011964,0.0024667,4.8308e-10,0.78,0.92,0
0.0403,-0.0080346,0.0027461,3.2326e-06,0.0008248,-0.00010644,0,0,0.049954,-0.021361,0,-0.0055349,0,0,0,0.0027502,-8.9165e-07,0.0008248,-2.219,0.0011914,0.0024452,4.7239e-10,0.8,0.92,0
0.041295,-0.0081829,0.0027282,9.5039e-06,0.00082131,-0.00010372,0,0,0.049579,-0.021107,0,-0.0053935,0,0,0,0.0027321,5.5526e-06,0.00082131,-2.1817,0.0011863,0.0024239,4.6196e-10,0.82,0.92,0
0.042283,-0.0083255,0.0027111,1.5213e-05,0.00081788,-9.8501e-05,0,0,0.049223,-0.020869,0,-0.005122,0,0,0,0.0027146,1.1619e-05,0.00081788,-2.0898,0.0011814,0.0024035,4.5205e-10,0.84,0.92,0
0.043264,-0.0084594,0.0026951,2.0277e-05,0.00081461,-9.1033e-05,0,0,0.048892,-0.020653,0,-0.0047337,0,0,0,0.0026982,1.7183e-05,0.00081461,-1.947,0.0011767,0.0023845,4.4286e-10,0.86,0.92,0
0.044239,-0.0085814,0.0026806,2.465e-05,0.00081158,-8.1598e-05,0,0,0.048595,-0.02046,0,-0.0042431,0,0,0,0.0026831,2.2145e-05,0.00081158,-1.7581,0.0011723,0.0023672,4.3459e-10,0.88,0.92,0
0.045208,-0.0086893,0.002668,2.8312e-05,0.00080888,-7.0491e-05,0,0,0.048336,-0.020295,0,-0.0036655,0,0,0,0.0026698,2.6431e-05,0.00080888,-1.5286,0.0011684,0.0023519,4.2739e-10,0.9,0.92,0
0.046172,-0.0087805,0.0026573,3.1267e-05,0.00080656,-5.8006e-05,0,0,0.048119,-0.020158,0,-0.0030163,0,0,0,0.0026586,2.9986e-05,0.00080656,-1.2648,0.001165,0.0023391,4.2135e-10,0.92,0.92,0
0.047133,-0.0088535,0.0026488,3.3532e-05,0.0008047,-4.4436e-05,0,0,0.047947,-0.02005,0,-0.0023107,0,0,0,0.0026496,3.2777e-05,0.0008047,-0.97314,0.0011623,0.0023288,4.1658e-10,0.94,0.92,0
0.04809,-0.0089066,0.0026426,3.5127e-05,0.00080333,-3.0064e-05,0,0,0.047822,-0.019973,0,-0.0015633,0,0,0,0.002643,3.4781e-05,0.00080333,-0.66048,0.0011604,0.0023214,4.1313e-10,0.96,0.92,0
0.049046,-0.0089389,0.0026389,3.6075e-05,0.0008025,-1.5163e-05,0,0,0.047747,-0.019927,0,-0.00078848,0,0,0,0.002639,3.5987e-05,0.0008025,-0.33376,0.0011592,0.0023169,4.1104e-10,0.98,0.92,0
0.05,-0.0089498,0.0026377,3.6389e-05,0.00080222,-1.0419e-05,0,0,0.047722,-0.019912,0,-0.00054179,0,0,0,0.0026377,3.6348e-05,0.00080222,-0.22948,0.0011588,0.0023155,4.1037e-10,1,0.92,0
0,0,0.0031262,0.0013398,0.0013398,-0.00094294,0,0,0.046446,0,0,-0.049033,0,0,0,0.0035318,0.00093417,0.0013398,-23.276,0.0019353,0.0024205,6.5989e-10,0,0.94,0
0.00092892,-0.00098066,0.0030857,0.0010109,0.001229,-0.00089842,0,0,0.048275,-0.00567,0,-0.046718,0,0,0,0.0034207,0.00067597,0.001229,-20.447,0.0017752,0.0025142,6.8504e-10,0.02,0.94,0
0.001931,-0.0020071,0.0031139,0.00067416,0.0011364,-0.00081633,0,0,0.051414,-0.012018,0,-0.042449,0,0,0,0.0033618,0.00042622,0.0011364,-16.895,0.0016415,0.0026528,7.3214e-10,0.04,0.94,0
0.0029855,-0.0029895,0.0031086,0.00043523,0.0010631,-0.00066821,0,0,0.053182,-0.016326,0,-0.034747,0,0,0,0.0032663,0.00027751,0.0010631,-13.28,0.0015357,0.0026837,7.1337e-10,0.06,0.94,0
0.0040583,-0.003875,0.0030614,0.00029997,0.0010084,-0.00051984,0,0,0.053378,-0.01842,0,-0.027032,0,0,0,0.003156,0.00020535,0.0010084,-10.316,0.0014566,0.0026423,6.6079e-10,0.08,0.94,0
0.0051206,-0.00465,0.0029822,0.0002141,0.00095889,-0.00039549,0,0,0.052606,-0.019364,0,-0.020566,0,0,0,0.0030376,0.0001587,0.00095889,-7.9737,0.0013851,0.0025738,5.9884e-10,0.1,0.94,0
0.0061625,-0.0053206,0.0029002,0.0001588,0.00091771,-0.00029754,0,0,0.051546,-0.019732,0,-0.015472,0,0,0,0.0029322,0.00012688,0.00091771,-6.1236,0.0013256,0.0025053,5.4462e-10,0.12,0.94,0
0.0071824,-0.005896,0.0028267,0.00012184,0.00088457,-0.00022049,0,0,0.050496,-0.019831,0,-0.011466,0,0,0,0.0028446,0.00010399,0.00088457,-4.6299,0.0012777,0.0024456,5.0131e-10,0.14,0.94,0
0.0081824,-0.0063854,0.0027655,9.6357e-05,0.00085855,-0.00015914,0,0,0.04958,-0.019817,0,-0.008275,0,0,0,0.0027749,8.6903e-05,0.00085855,-3.4,0.0012401,0.0023972,4.6828e-10,0.16,0.94,0
0.0091656,-0.006797,0.0027168,7.8188e-05,0.0008385,-0.00010938,0,0,0.048836,-0.019768,0,-0.0056875,0,0,0,0.0027213,7.3662e-05,0.0008385,-2.3696,0.0012112,0.0023601,4.4388e-10,0.18,0.94,0
0.010136,-0.0071382,0.0026799,6.4794e-05,0.00082341,-6.83e-05,0,0,0.048269,-0.019724,0,-0.0035516,0,0,0,0.0026817,6.3011e-05,0.00082341,-1.4951,0.0011894,0.0023334,4.2652e-10,0.2,0.94,0
0.011096,-0.0074153,0.0026536,5.4557e-05,0.00081243,-3.3875e-05,0,0,0.047869,-0.019705,0,-0.0017615,0,0,0,0.002654,5.4116e-05,0.00081243,-0.74662,0.0011735,0.0023158,4.1491e-10,0.22,0.94,0
0.012051,-0.0076344,0.0026365,4.6421e-05,0.00080486,-4.6948e-06,0,0,0.047622,-0.01972,0,-0.00024413,0,0,0,0.0026365,4.6412e-05,0.00080486,-0.10386,0.0011626,0.0023063,4.0803e-10,0.24,0.94,0
0.013001,-0.007801,0.0026275,3.9666e-05,0.00080015,2.0198e-05,0,0,0.047511,-0.019772,0,0.0010503,0,0,0,0.0026277,3.9508e-05,0.00080015,0.44717,0.0011558,0.002304,4.0512e-10,0.26,0.94,0
0.013951,-0.0079202,0.0026256,3.3795e-05,0.00079781,4.1444e-05,0,0,0.047522,-0.019864,0,0.0021551,0,0,0,0.0026262,3.3132e-05,0.00079781,0.91588,0.0011524,0.0023078,4.0556e-10,0.28,0.94,0
0.014902,-0.0079973,0.0026298,2.8454e-05,0.00079746,5.9453e-05,0,0,0.04764,-0.019994,0,0.0030915,0,0,0,0.0026311,2.7096e-05,0.00079746,1.3086,0.0011519,0.002317,4.0888e-10,0.3,0.94,0
0.015857,-0.0080373,0.0026391,2.3393e-05,0.00079875,7.4469e-05,0,0,0.04785,-0.020159,0,0.0038724,0,0,0,0.0026412,2.1274e-05,0.00079875,1.6294,0.0011538,0.0023306,4.1464e-10,0.32,0.94,0
0.016816,-0.0080453,0.0026528,1.8439e-05,0.00080139,8.662e-05,0,0,0.048138,-0.020357,0,0.0045042,0,0,0,0.0026557,1.5594e-05,0.00080139,1.8812,0.0011576,0.002348,4.2249e-10,0.34,0.94,0
0.017782,-0.0080262,0.0026701,1.3483e-05,0.00080508,9.5955e-05,0,0,0.048491,-0.020581,0,0.0049897,0,0,0,0.0026736,1.0022e-05,0.00080508,2.0659,0.0011629,0.0023683,4.3208e-10,0.36,0.94,0
0.018756,-0.0079852,0.0026901,8.4715e-06,0.00080957,0.00010247,0,0,0.048894,-0.020829,0,0.0053287,0,0,0,0.002694,4.5612e-06,0.00080957,2.1852,0.0011694,0.0023908,4.4305e-10,0.38,0.94,0
0.019738,-0.0079274,0.002712,3.3977e-06,0.00081463,0.00010616,0,0,0.049333,-0.021092,0,0.0055204,0,0,0,0.0027162,-7.568e-07,0.00081463,2.2411,0.0011767,0.0024148,4.5505e-10,0.4,0.94,0
0.020729,-0.0078578,0.0027351,-1.7009e-06,0.00082003,0.00010701,0,0,0.049793,-0.021365,0,0.0055643,0,0,0,0.0027393,-5.8782e-06,0.00082003,2.2356,0.0011845,0.0024395,4.677e-10,0.42,0.94,0
0.02173,-0.0077814,0.0027586,-6.7494e-06,0.00082556,0.00010502,0,0,0.050259,-0.02164,0,0.0054612,0,0,0,0.0027626,-1.0732e-05,0.00082556,2.1718,0.0011925,0.002464,4.8062e-10,0.44,0.94,0
0.022739,-0.0077029,0.0027817,-1.1642e-05,0.00083102,0.00010028,0,0,0.050718,-0.021909,0,0.0052146,0,0,0,0.0027853,-1.5238e-05,0.00083102,2.0534,0.0012004,0.0024878,4.9339e-10,0.46,0.94,0
0.023758,-0.0076269,0.0028037,-1.6251e-05,0.00083623,9.2907e-05,0,0,0.051154,-0.022165,0,0.0048311,0,0,0,0.0028067,-1.9309e-05,0.00083623,1.885,0.0012079,0.0025101,5.0562e-10,0.48,0.94,0
0.024786,-0.0075577,0.0028239,-2.0436e-05,0.00084103,8.3099e-05,0,0,0.051554,-0.022398,0,0.0043211,0,0,0,0.0028263,-2.2862e-05,0.00084103,1.672,0.0012148,0.0025303,5.1692e-10,0.5,0.94,0
0.02582,-0.0074991,0.0028416,-2.4056e-05,0.00084527,7.1133e-05,0,0,0.051905,-0.022603,0,0.0036989,0,0,0,0.0028434,-2.5821e-05,0.00084527,1.421,0.0012209,0.0025479,5.269e-10,0.52,0.94,0
0.026862,-0.0074544,0.0028564,-2.6978e-05,0.00084884,5.7358e-05,0,0,0.052198,-0.022771,0,0.0029826,0,0,0,0.0028576,-2.8118e-05,0.00084884,1.1392,0.0012261,0.0025624,5.3525e-10,0.54,0.94,0
0.027908,-0.0074263,0.0028678,-2.9092e-05,0.00085162,4.2188e-05,0,0,0.052422,-0.022899,0,0.0021937,0,0,0,0.0028684,-2.9706e-05,0.00085162,0.83415,0.0012301,0.0025733,5.4167e-10,0.56,0.94,0
0.028959,-0.0074169,0.0028755,-3.0316e-05,0.00085356,2.6088e-05,0,0,0.052571,-0.022981,0,0.0013566,0,0,0,0.0028758,-3.055e-05,0.00085356,0.51433,0.0012329,0.0025805,5.4598e-10,0.58,0.94,0
0.030011,-0.0074275,0.0028793,-3.0608e-05,0.00085461,9.557e-06,0,0,0.052642,-0.023016,0,0.00049697,0,0,0,0.0028793,-3.0639e-05,0.00085461,0.18817,0.0012344,0.0025837,5.4802e-10,0.6,0.94,0
0.031064,-0.0074588,0.0028791,-2.9963e-05,0.00085474,-6.893e-06,0,0,0.052633,-0.023002,0,-0.00035844,0,0,0,0.0028791,-2.9979e-05,0.00085474,-0.13576,0.0012346,0.002583,5.4777e-10,0.62,0.94,0
0.032116,-0.0075108,0.002875,-2.8421e-05,0.00085396,-2.2761e-05,0,0,0.052546,-0.022942,0,-0.0011836,0,0,0,0.0028751,-2.86e-05,0.00085396,-0.44914,0.0012335,0.0025784,5.4524e-10,0.64,0.94,0
0.033166,-0.0075826,0.0028671,-2.6061e-05,0.00085231,-3.7578e-05,0,0,0.052385,-0.022838,0,-0.0019541,0,0,0,0.0028676,-2.6549e-05,0.00085231,-0.74403,0.0012311,0.00257,5.4057e-10,0.66,0.94,0
0.034212,-0.0076729,0.0028558,-2.2993e-05,0.00084985,-5.0928e-05,0,0,0.052155,-0.022694,0,-0.0026482,0,0,0,0.0028567,-2.3894e-05,0.00084985,-1.0132,0.0012276,0.0025582,5.3395e-10,0.68,0.94,0
0.035252,-0.0077796,0.0028415,-1.9357e-05,0.00084665,-6.2459e-05,0,0,0.051867,-0.022516,0,-0.0032479,0,0,0,0.0028429,-2.072e-05,0.00084665,-1.2501,0.0012229,0.0025434,5.2563e-10,0.7,0.94,0
0.036287,-0.0079003,0.0028247,-1.5305e-05,0.00084281,-7.1903e-05,0,0,0.051528,-0.022311,0,-0.003739,0,0,0,0.0028265,-1.7124e-05,0.00084281,-1.4494,0.0012174,0.0025259,5.1592e-10,0.72,0.94,0
0.037313,-0.0080321,0.0028058,-1.0998e-05,0.00083844,-7.9075e-05,0,0,0.051151,-0.022085,0,-0.0041119,0,0,0,0.002808,-1.3216e-05,0.00083844,-1.6068,0.0012111,0.0025064,5.0515e-10,0.74,0.94,0
0.038333,-0.0081718,0.0027855,-6.5925e-06,0.00083367,-8.3878e-05,0,0,0.050748,-0.021847,0,-0.0043616,0,0,0,0.002788,-9.11e-06,0.00083367,-1.7192,0.0012042,0.0024853,4.9368e-10,0.76,0.94,0
0.039343,-0.0083162,0.0027644,-2.2315e-06,0.00082864,-8.6293e-05,0,0,0.050329,-0.021603,0,-0.0044872,0,0,0,0.002767,-4.9204e-06,0.00082864,-1.7848,0.0011969,0.0024633,4.8186e-10,0.78,0.94,0
0.040346,-0.0084618,0.0027429,1.9598e-06,0.00082347,-8.6378e-05,0,0,0.049906,-0.021359,0,-0.0044916,0,0,0,0.0027457,-7.5961e-07,0.00082347,-1.8032,0.0011895,0.002441,4.7002e-10,0.8,0.94,0
0.04134,-0.0086053,0.0027218,5.8795e-06,0.00081831,-8.425e-05,0,0,0.049491,-0.021123,0,-0.004381,0,0,0,0.0027244,3.2685e-06,0.00081831,-1.7751,0.001182,0.0024189,4.5847e-10,0.82,0.94,0
0.042325,-0.0087434,0.0027015,9.4511e-06,0.00081328,-8.0079e-05,0,0,0.049093,-0.0209,0,-0.0041641,0,0,0,0.0027039,7.0711e-06,0.00081328,-1.7023,0.0011747,0.0023976,4.4749e-10,0.84,0.94,0
0.043303,-0.0088731,0.0026824,1.2622e-05,0.00080852,-7.4065e-05,0,0,0.048722,-0.020693,0,-0.0038514,0,0,0,0.0026845,1.0569e-05,0.00080852,-1.5878,0.0011679,0.0023776,4.3732e-10,0.86,0.94,0
0.044274,-0.0089914,0.0026651,1.5362e-05,0.00080414,-6.6434e-05,0,0,0.048385,-0.020508,0,-0.0034546,0,0,0,0.0026668,1.3698e-05,0.00080414,-1.4353,0.0011615,0.0023594,4.2815e-10,0.88,0.94,0
0.045239,-0.009096,0.0026499,1.7659e-05,0.00080025,-5.7425e-05,0,0,0.04809,-0.020347,0,-0.0029861,0,0,0,0.0026511,1.6407e-05,0.00080025,-1.2492,0.0011559,0.0023432,4.2016e-10,0.9,0.94,0
0.046198,-0.0091847,0.0026369,1.9514e-05,0.00079694,-4.7278e-05,0,0,0.04784,-0.020213,0,-0.0024584,0,0,0,0.0026378,1.866e-05,0.00079694,-1.0345,0.0011511,0.0023296,4.1347e-10,0.92,0.94,0
0.047152,-0.0092555,0.0026267,2.0936e-05,0.00079428,-3.6232e-05,0,0,0.047642,-0.020107,0,-0.001884,0,0,0,0.0026272,2.0433e-05,0.00079428,-0.79647,0.0011473,0.0023188,4.0818e-10,0.94,0.94,0
0.048104,-0.0093071,0.0026192,2.1939e-05,0.00079234,-2.452e-05,0,0,0.047498,-0.02003,0,-0.001275,0,0,0,0.0026194,2.1708e-05,0.00079234,-0.54085,0.0011445,0.0023109,4.0435e-10,0.96,0.94,0
0.049052,-0.0093385,0.0026147,2.2535e-05,0.00079116,-1.2369e-05,0,0,0.047411,-0.019984,0,-0.00064318,0,0,0,0.0026147,2.2476e-05,0.00079116,-0.27339,0.0011428,0.0023061,4.0204e-10,0.98,0.94,0
0.05,-0.009349,0.0026131,2.2732e-05,0.00079076,-1.0125e-05,0,0,0.047382,-0.019969,0,-0.00052652,0,0,0,0.0026132,2.2693e-05,0.00079076,-0.22395,0.0011422,0.0023045,4.0129e-10,1,0.94,0
0,0,0.003435,0.0014722,0.0014722,-0.001073,0,0,0.051035,1.7347e-18,0,-0.055794,0,0,0,0.0039077,0.00099947,0.0014722,-23.776,0.0021265,0.0027031,9.107e-10,0,0.96,0
0.0010207,-0.0011159,0.0033091,0.00089083,0.00126,-0.00096975,0,0,0.053277,-0.0095978,0,-0.050427,0,0,0,0.0036499,0.00055,0.00126,-19.365,0.00182,0.002813,9.0236e-10,0.02,0.96,0
0.0021311,-0.0022883,0.0032997,0.00043523,0.0011205,-0.00077237,0,0,0.056659,-0.017816,0,-0.040163,0,0,0,0.0034947,0.00024024,0.0011205,-14.169,0.0016185,0.0029157,8.9284e-10,0.04,0.96,0
0.0032871,-0.0033563,0.0032475,0.00027694,0.0010573,-0.00056169,0,0,0.056945,-0.02029,0,-0.029208,0,0,0,0.0033502,0.00017428,0.0010573,-10.357,0.0015273,0.0028393,8.0361e-10,0.06,0.96,0
0.0044089,-0.0042716,0.0030962,0.00017899,0.00098256,-0.00039853,0,0,0.054955,-0.020893,0,-0.020724,0,0,0,0.0031497,0.00012553,0.00098256,-7.6409,0.0014193,0.0026997,6.7785e-10,0.08,0.96,0
0.0054853,-0.0050559,0.0029525,0.00012258,0.00092251,-0.00028649,0,0,0.052779,-0.020798,0,-0.014897,0,0,0,0.0029812,9.3871e-05,0.00092251,-5.7231,0.0013325,0.002575,5.8053e-10,0.1,0.96,0
0.00652,-0.0057268,0.0028337,8.8049e-05,0.00087652,-0.00020676,0,0,0.050887,-0.0205,0,-0.010752,0,0,0,0.0028492,7.2566e-05,0.00087652,-4.2825,0.0012661,0.0024746,5.1036e-10,0.12,0.96,0
0.0075207,-0.0062994,0.0027411,6.6079e-05,0.00084216,-0.00014814,0,0,0.049373,-0.020178,0,-0.0077034,0,0,0,0.0027493,5.79e-05,0.00084216,-3.1601,0.0012165,0.0023975,4.6088e-10,0.14,0.96,0
0.0084949,-0.0067854,0.0026712,5.1468e-05,0.00081679,-0.00010335,0,0,0.048214,-0.019898,0,-0.0053743,0,0,0,0.0026752,4.7397e-05,0.00081679,-2.2557,0.0011798,0.00234,4.2624e-10,0.16,0.96,0
0.0094493,-0.0071939,0.0026199,4.1339e-05,0.00079838,-6.7987e-05,0,0,0.04736,-0.019683,0,-0.0035353,0,0,0,0.0026217,3.9548e-05,0.00079838,-1.5093,0.0011532,0.0022987,4.0236e-10,0.18,0.96,0
0.010389,-0.0075328,0.0025841,3.4028e-05,0.00078545,-3.9292e-05,0,0,0.046766,-0.019537,0,-0.0020432,0,0,0,0.0025848,3.3423e-05,0.00078545,-0.88253,0.0011345,0.0022707,3.8651e-10,0.2,0.96,0
0.01132,-0.0078087,0.0025613,2.8528e-05,0.00077694,-1.5505e-05,0,0,0.046393,-0.019459,0,-0.00080624,0,0,0,0.0025614,2.8433e-05,0.00077694,-0.35073,0.0011222,0.0022539,3.7688e-10,0.22,0.96,0
0.012245,-0.0080275,0.0025492,2.4205e-05,0.00077203,4.5179e-06,0,0,0.046207,-0.019443,0,0.00023493,0,0,0,0.0025492,2.4197e-05,0.00077203,0.10252,0.0011152,0.0022465,3.7222e-10,0.24,0.96,0
0.013168,-0.0081948,0.0025464,2.0644e-05,0.0007701,2.1521e-05,0,0,0.046183,-0.019486,0,0.0011191,0,0,0,0.0025465,2.0461e-05,0.0007701,0.48816,0.0011124,0.0022471,3.7163e-10,0.26,0.96,0
0.014092,-0.0083158,0.0025512,1.7561e-05,0.00077064,3.5986e-05,0,0,0.046296,-0.01958,0,0.0018712,0,0,0,0.0025518,1.705e-05,0.00077064,0.81354,0.0011132,0.0022544,3.7447e-10,0.28,0.96,0
0.01502,-0.0083954,0.0025627,1.476e-05,0.00077324,4.8208e-05,0,0,0.046526,-0.019721,0,0.0025068,0,0,0,0.0025636,1.3849e-05,0.00077324,1.0835,0.0011169,0.0022676,3.8026e-10,0.3,0.96,0
0.015953,-0.0084387,0.0025797,1.2104e-05,0.00077755,5.8361e-05,0,0,0.046857,-0.019902,0,0.0030348,0,0,0,0.0025811,1.0778e-05,0.00077755,1.3014,0.0011231,0.0022855,3.8858e-10,0.32,0.96,0
0.016894,-0.0084506,0.0026013,9.4988e-06,0.00078323,6.6528e-05,0,0,0.047269,-0.020117,0,0.0034594,0,0,0,0.002603,7.7923e-06,0.00078323,1.4694,0.0011313,0.0023074,3.9908e-10,0.34,0.96,0
0.017844,-0.0084361,0.0026264,6.8863e-06,0.00078999,7.2733e-05,0,0,0.047747,-0.020361,0,0.0037821,0,0,0,0.0026284,4.8683e-06,0.00078999,1.5892,0.0011411,0.0023323,4.1141e-10,0.36,0.96,0
0.018804,-0.0084001,0.0026542,4.2377e-06,0.00079755,7.6969e-05,0,0,0.048274,-0.020626,0,0.0040024,0,0,0,0.0026565,2.004e-06,0.00079755,1.6623,0.001152,0.0023595,4.2522e-10,0.38,0.96,0
0.019775,-0.0083476,0.0026839,1.5506e-06,0.00080563,7.9216e-05,0,0,0.048834,-0.020906,0,0.0041192,0,0,0,0.0026862,-7.8681e-07,0.00080563,1.6901,0.0011637,0.0023882,4.4015e-10,0.4,0.96,0
0.020758,-0.0082834,0.0027144,-1.1541e-06,0.00081397,7.9459e-05,0,0,0.049411,-0.021193,0,0.0041319,0,0,0,0.0027167,-3.4772e-06,0.00081397,1.6746,0.0011757,0.0024174,4.558e-10,0.42,0.96,0
0.021752,-0.0082125,0.0027449,-3.8357e-06,0.00082233,7.7705e-05,0,0,0.049987,-0.02148,0,0.0040406,0,0,0,0.0027471,-6.0306e-06,0.00082233,1.618,0.0011878,0.0024465,4.7174e-10,0.44,0.96,0
0.022757,-0.0081393,0.0027746,-6.4367e-06,0.00083045,7.3996e-05,0,0,0.050548,-0.021759,0,0.0038478,0,0,0,0.0027766,-8.4042e-06,0.00083045,1.5231,0.0011995,0.0024746,4.8751e-10,0.46,0.96,0
0.023773,-0.0080684,0.0028026,-8.8881e-06,0.00083813,6.8421e-05,0,0,0.051077,-0.022022,0,0.0035579,0,0,0,0.0028043,-1.0552e-05,0.00083813,1.3933,0.0012106,0.002501,5.0265e-10,0.48,0.96,0
0.0248,-0.0080039,0.0028282,-1.1114e-05,0.00084513,6.112e-05,0,0,0.05156,-0.022262,0,0.0031783,0,0,0,0.0028295,-1.2429e-05,0.00084513,1.2326,0.0012208,0.0025249,5.1669e-10,0.5,0.96,0
0.025836,-0.0079493,0.0028507,-1.3039e-05,0.00085129,5.2289e-05,0,0,0.051984,-0.022473,0,0.002719,0,0,0,0.0028516,-1.3993e-05,0.00085129,1.0457,0.0012297,0.0025458,5.2918e-10,0.52,0.96,0
0.02688,-0.007908,0.0028694,-1.4591e-05,0.00085645,4.2176e-05,0,0,0.052337,-0.022647,0,0.0021932,0,0,0,0.00287,-1.5208e-05,0.00085645,0.83766,0.0012371,0.0025631,5.3971e-10,0.54,0.96,0
0.027929,-0.0078824,0.002884,-1.5712e-05,0.00086047,3.1077e-05,0,0,0.05261,-0.022781,0,0.001616,0,0,0,0.0028843,-1.6045e-05,0.00086047,0.61398,0.0012429,0.0025764,5.4794e-10,0.56,0.96,0
0.028984,-0.0078747,0.0028939,-1.6356e-05,0.00086327,1.9327e-05,0,0,0.052797,-0.02287,0,0.001005,0,0,0,0.002894,-1.6485e-05,0.00086327,0.38047,0.0012469,0.0025855,5.5359e-10,0.58,0.96,0
0.030041,-0.0078861,0.0028991,-1.6502e-05,0.00086478,7.2811e-06,0,0,0.052893,-0.022913,0,0.00037862,0,0,0,0.0028991,-1.652e-05,0.00086478,0.14308,0.0012491,0.00259,5.5652e-10,0.6,0.96,0
0.0311,-0.0079172,0.0028995,-1.6147e-05,0.000865,-4.6923e-06,0,0,0.052896,-0.02291,0,-0.000244,0,0,0,0.0028995,-1.6155e-05,0.000865,-0.092209,0.0012494,0.00259,5.5665e-10,0.62,0.96,0
0.032157,-0.0079681,0.0028951,-1.5312e-05,0.00086394,-1.6234e-05,0,0,0.05281,-0.02286,0,-0.00084416,0,0,0,0.0028952,-1.5403e-05,0.00086394,-0.31957,0.0012479,0.0025856,5.5403e-10,0.64,0.96,0
0.033212,-0.008038,0.0028862,-1.4038e-05,0.00086165,-2.7006e-05,0,0,0.052638,-0.022768,0,-0.0014043,0,0,0,0.0028865,-1.429e-05,0.00086165,-0.53346,0.0012446,0.002577,5.4882e-10,0.66,0.96,0
0.034263,-0.0081256,0.0028732,-1.2386e-05,0.00085823,-3.6711e-05,0,0,0.052388,-0.022636,0,-0.0019089,0,0,0,0.0028736,-1.2853e-05,0.00085823,-0.72877,0.0012397,0.0025644,5.4127e-10,0.68,0.96,0
0.035308,-0.008229,0.0028564,-1.0429e-05,0.00085381,-4.5095e-05,0,0,0.052069,-0.02247,0,-0.0023449,0,0,0,0.0028572,-1.1138e-05,0.00085381,-0.90094,0.0012333,0.0025484,5.3169e-10,0.7,0.96,0
0.036345,-0.0083458,0.0028366,-8.249e-06,0.00084851,-5.1964e-05,0,0,0.051691,-0.022276,0,-0.0027021,0,0,0,0.0028376,-9.1978e-06,0.00084851,-1.0461,0.0012256,0.0025294,5.2046e-10,0.72,0.96,0
0.037375,-0.0084732,0.0028143,-5.9319e-06,0.00084251,-5.7186e-05,0,0,0.051267,-0.02206,0,-0.0029737,0,0,0,0.0028155,-7.091e-06,0.00084251,-1.1612,0.001217,0.0025081,5.0801e-10,0.74,0.96,0
0.038396,-0.0086084,0.0027902,-3.5615e-06,0.000836,-6.069e-05,0,0,0.05081,-0.021829,0,-0.0031559,0,0,0,0.0027915,-4.8793e-06,0.000836,-1.2439,0.0012075,0.0024851,4.9475e-10,0.76,0.96,0
0.039408,-0.0087481,0.002765,-1.2149e-06,0.00082914,-6.2462e-05,0,0,0.050333,-0.021589,0,-0.003248,0,0,0,0.0027664,-2.6246e-06,0.00082914,-1.2929,0.0011976,0.002461,4.8112e-10,0.78,0.96,0
0.040409,-0.0088889,0.0027394,1.0407e-06,0.00082214,-6.2544e-05,0,0,0.049849,-0.021349,0,-0.0032523,0,0,0,0.0027409,-3.8701e-07,0.00082214,-1.3077,0.0011875,0.0024364,4.6749e-10,0.8,0.96,0
0.041402,-0.0090278,0.0027141,3.1508e-06,0.00081518,-6.102e-05,0,0,0.049372,-0.021113,0,-0.0031731,0,0,0,0.0027155,1.778e-06,0.00081518,-1.2888,0.0011775,0.0024122,4.5424e-10,0.82,0.96,0
0.042384,-0.0091615,0.0026897,5.0738e-06,0.00080843,-5.8012e-05,0,0,0.048913,-0.020887,0,-0.0030166,0,0,0,0.0026909,3.8208e-06,0.00080843,-1.2373,0.0011677,0.0023887,4.4167e-10,0.84,0.96,0
0.043358,-0.0092871,0.0026668,6.7815e-06,0.00080206,-5.3666e-05,0,0,0.048482,-0.020677,0,-0.0027906,0,0,0,0.0026678,5.6992e-06,0.00080206,-1.1553,0.0011585,0.0023667,4.3006e-10,0.86,0.96,0
0.044324,-0.0094018,0.0026458,8.2575e-06,0.00079623,-4.8144e-05,0,0,0.04809,-0.020487,0,-0.0025035,0,0,0,0.0026467,7.3789e-06,0.00079623,-1.0454,0.0011501,0.0023466,4.1963e-10,0.88,0.96,0
0.045282,-0.0095032,0.0026274,9.4949e-06,0.00079106,-4.1621e-05,0,0,0.047744,-0.020321,0,-0.0021643,0,0,0,0.002628,8.8333e-06,0.00079106,-0.91061,0.0011426,0.0023288,4.1055e-10,0.9,0.96,0
0.046233,-0.0095891,0.0026117,1.0494e-05,0.00078667,-3.427e-05,0,0,0.047452,-0.020181,0,-0.001782,0,0,0,0.0026122,1.0043e-05,0.00078667,-0.75465,0.0011363,0.0023138,4.0297e-10,0.92,0.96,0
0.04718,-0.0096578,0.0025993,1.1261e-05,0.00078316,-2.6265e-05,0,0,0.047219,-0.02007,0,-0.0013658,0,0,0,0.0025995,1.0994e-05,0.00078316,-0.58139,0.0011312,0.0023017,3.9697e-10,0.94,0.96,0
0.048122,-0.0097078,0.0025902,1.1801e-05,0.0007806,-1.7776e-05,0,0,0.04705,-0.019989,0,-0.00092433,0,0,0,0.0025903,1.1678e-05,0.0007806,-0.39497,0.0011275,0.002293,3.9265e-10,0.96,0.96,0
0.049062,-0.0097383,0.0025847,1.2122e-05,0.00077905,-8.9671e-06,0,0,0.046947,-0.01994,0,-0.00046629,0,0,0,0.0025847,1.2091e-05,0.00077905,-0.19971,0.0011253,0.0022877,3.9003e-10,0.98,0.96,0
0.05,-0.0097485,0.0025828,1.2228e-05,0.00077852,-9.8244e-06,0,0,0.046913,-0.019924,0,-0.00051087,0,0,0,0.0025829,1.2191e-05,0.00077852,-0.21897,0.0011245,0.002286,3.8918e-10,1,0.96,0
0,0,0.004039,0.001731,0.001731,-0.0013121,0,0,0.060007,5.2042e-18,0,-0.068229,0,0,0,0.0046323,0.0011376,0.001731,-24.334,0.0025003,0.003239,1.5497e-09,0,0.98,0
0.0012001,-0.0013646,0.0036796,0.00036493,0.0012134,-0.00082661,0,0,0.064123,-0.022059,0,-0.042984,0,0,0,0.0038743,0.00017023,0.0012134,-13.254,0.0017526,0.0033083,1.2554e-09,0.02,0.98,0
0.0025649,-0.0027198,0.0036957,0.00028895,0.0011954,-0.00054032,0,0,0.065008,-0.023568,0,-0.028096,0,0,0,0.0037794,0.00020531,0.0011954,-8.7995,0.0017267,0.0031962,1.1504e-09,0.04,0.98,0
0.0038005,-0.0038011,0.0033137,0.00015489,0.0010406,-0.00032393,0,0,0.059101,-0.023028,0,-0.016844,0,0,0,0.0033466,0.00012201,0.0010406,-5.7951,0.0015031,0.0028774,8.1641e-10,0.06,0.98,0
0.004929,-0.0047107,0.0030332,9.2086e-05,0.0009376,-0.00021403,0,0,0.054487,-0.021983,0,-0.011129,0,0,0,0.0030487,7.6592e-05,0.0009376,-4.1403,0.0013543,0.0026488,6.2554e-10,0.08,0.98,0
0.00598,-0.0054819,0.0028371,5.8962e-05,0.00086882,-0.00014648,0,0,0.051175,-0.021056,0,-0.007617,0,0,0,0.0028448,5.126e-05,0.00086882,-3.0099,0.001255,0.0024877,5.1236e-10,0.1,0.98,0
0.006976,-0.0061406,0.0026999,4.07e-05,0.00082219,-0.00010247,0,0,0.048821,-0.020319,0,-0.0053282,0,0,0,0.0027039,3.6758e-05,0.00082219,-2.2034,0.0011876,0.002374,4.4213e-10,0.12,0.98,0
0.0079328,-0.0067031,0.0026033,2.9799e-05,0.00078992,-7.1399e-05,0,0,0.047147,-0.019763,0,-0.0037127,0,0,0,0.0026052,2.782e-05,0.00078992,-1.588,0.001141,0.0022934,3.9677e-10,0.14,0.98,0
0.0088618,-0.0071813,0.0025357,2.2865e-05,0.00076756,-4.8251e-05,0,0,0.045971,-0.019362,0,-0.0025091,0,0,0,0.0025366,2.1939e-05,0.00076756,-1.0997,0.0011087,0.0022371,3.6705e-10,0.16,0.98,0
0.0097716,-0.0075843,0.00249,1.8201e-05,0.00075245,-3.0225e-05,0,0,0.045175,-0.01909,0,-0.0015717,0,0,0,0.0024903,1.7832e-05,0.00075245,-0.70048,0.0010869,0.0021992,3.479e-10,0.18,0.98,0
0.010669,-0.0079197,0.0024614,1.4904e-05,0.00074288,-1.5708e-05,0,0,0.044681,-0.018927,0,-0.00081684,0,0,0,0.0024615,1.4804e-05,0.00074288,-0.36787,0.0010731,0.002176,3.3636e-10,0.2,0.98,0
0.011559,-0.0081937,0.0024466,1.2461e-05,0.00073772,-3.7179e-06,0,0,0.044431,-0.018857,0,-0.00019333,0,0,0,0.0024466,1.2455e-05,0.00073772,-0.087514,0.0010656,0.0021647,3.3064e-10,0.22,0.98,0
0.012446,-0.0084122,0.0024432,1.0559e-05,0.00073613,6.3623e-06,0,0,0.044384,-0.018865,0,0.00033084,0,0,0,0.0024432,1.0542e-05,0.00073613,0.14985,0.0010633,0.0021632,3.2955e-10,0.24,0.98,0
0.013334,-0.0085804,0.0024494,8.9999e-06,0.00073751,1.4923e-05,0,0,0.044508,-0.018941,0,0.00077599,0,0,0,0.0024495,8.9087e-06,0.00073751,0.35035,0.0010653,0.00217,3.3232e-10,0.26,0.98,0
0.014226,-0.0087034,0.0024636,7.6529e-06,0.00074137,2.2209e-05,0,0,0.044778,-0.019077,0,0.0011549,0,0,0,0.0024638,7.4521e-06,0.00074137,0.51806,0.0010709,0.0021839,3.3841e-10,0.28,0.98,0
0.015125,-0.0087862,0.0024846,6.4273e-06,0.0007473,2.8367e-05,0,0,0.045169,-0.019263,0,0.0014751,0,0,0,0.0024849,6.1026e-06,0.0007473,0.65573,0.0010794,0.0022038,3.474e-10,0.3,0.98,0
0.016033,-0.0088334,0.0025113,5.2609e-06,0.00075495,3.3477e-05,0,0,0.045664,-0.019492,0,0.0017408,0,0,0,0.0025117,4.8138e-06,0.00075495,0.76521,0.0010905,0.0022286,3.5897e-10,0.32,0.98,0
0.016952,-0.00885,0.0025425,4.1118e-06,0.00076399,3.7573e-05,0,0,0.046242,-0.019757,0,0.0019538,0,0,0,0.0025431,3.5558e-06,0.00076399,0.84784,0.0011035,0.0022575,3.728e-10,0.34,0.98,0
0.017883,-0.0088407,0.0025774,2.9541e-06,0.0007741,4.0661e-05,0,0,0.046885,-0.02005,0,0.0021144,0,0,0,0.002578,2.3121e-06,0.0007741,0.90463,0.0011182,0.0022896,3.8859e-10,0.36,0.98,0
0.018827,-0.0088103,0.0026149,1.7754e-06,0.00078499,4.2727e-05,0,0,0.047577,-0.020364,0,0.0022218,0,0,0,0.0026156,1.0769e-06,0.00078499,0.93652,0.0011339,0.0023239,4.0602e-10,0.38,0.98,0
0.019786,-0.0087637,0.0026539,5.7524e-07,0.00079635,4.3754e-05,0,0,0.048297,-0.02069,0,0.0022752,0,0,0,0.0026547,-1.4606e-07,0.00079635,0.94446,0.0011503,0.0023596,4.2472e-10,0.4,0.98,0
0.020759,-0.0087055,0.0026936,-6.3635e-07,0.00080789,4.3727e-05,0,0,0.049029,-0.021022,0,0.0022738,0,0,0,0.0026943,-1.3458e-06,0.00080789,0.92958,0.0011669,0.0023958,4.4425e-10,0.42,0.98,0
0.021747,-0.0086406,0.0027329,-1.8403e-06,0.00081931,4.2646e-05,0,0,0.049753,-0.02135,0,0.0022176,0,0,0,0.0027335,-2.5051e-06,0.00081931,0.8932,0.0011834,0.0024316,4.6414e-10,0.44,0.98,0
0.022749,-0.0085732,0.0027708,-3.0099e-06,0.00083033,4.0529e-05,0,0,0.050451,-0.021667,0,0.0021075,0,0,0,0.0027714,-3.602e-06,0.00083033,0.83694,0.0011994,0.0024661,4.8387e-10,0.46,0.98,0
0.023765,-0.0085078,0.0028063,-4.1135e-06,0.00084066,3.742e-05,0,0,0.051107,-0.021964,0,0.0019459,0,0,0,0.0028068,-4.6117e-06,0.00084066,0.7627,0.0012143,0.0024984,5.0287e-10,0.48,0.98,0
0.024794,-0.0084482,0.0028386,-5.1163e-06,0.00085006,3.3393e-05,0,0,0.051703,-0.022235,0,0.0017364,0,0,0,0.0028391,-5.5084e-06,0.00085006,0.67267,0.0012279,0.0025278,5.2055e-10,0.5,0.98,0
0.025833,-0.008398,0.002867,-5.9834e-06,0.00085829,2.855e-05,0,0,0.052225,-0.022471,0,0.0014846,0,0,0,0.0028673,-6.2671e-06,0.00085829,0.5693,0.0012398,0.0025535,5.3636e-10,0.52,0.98,0
0.026883,-0.0083603,0.0028906,-6.6822e-06,0.00086516,2.3024e-05,0,0,0.05266,-0.022668,0,0.0011972,0,0,0,0.0028907,-6.8651e-06,0.00086516,0.45528,0.0012497,0.0025748,5.4977e-10,0.54,0.98,0
0.02794,-0.0083375,0.0029089,-7.1854e-06,0.00087051,1.6974e-05,0,0,0.052998,-0.02282,0,0.00088265,0,0,0,0.002909,-7.2842e-06,0.00087051,0.3335,0.0012574,0.0025914,5.6031e-10,0.56,0.98,0
0.029003,-0.0083317,0.0029215,-7.473e-06,0.00087422,1.0579e-05,0,0,0.05323,-0.022924,0,0.00055012,0,0,0,0.0029216,-7.5112e-06,0.00087422,0.20694,0.0012628,0.0026028,5.6766e-10,0.58,0.98,0
0.030069,-0.0083441,0.0029283,-7.5343e-06,0.00087622,4.0322e-06,0,0,0.053353,-0.022978,0,0.00020967,0,0,0,0.0029283,-7.5398e-06,0.00087622,0.078693,0.0012657,0.0026087,5.7158e-10,0.6,0.98,0
0.031137,-0.0083752,0.002929,-7.3682e-06,0.0008765,-2.4692e-06,0,0,0.053366,-0.022981,0,-0.0001284,0,0,0,0.002929,-7.3702e-06,0.0008765,-0.04818,0.0012661,0.0026093,5.72e-10,0.62,0.98,0
0.032204,-0.0084252,0.002924,-6.9841e-06,0.0008751,-8.7309e-06,0,0,0.053271,-0.022934,0,-0.00045401,0,0,0,0.002924,-7.0101e-06,0.0008751,-0.17067,0.001264,0.0026045,5.6898e-10,0.64,0.98,0
0.033267,-0.0084933,0.0029134,-6.4009e-06,0.00087209,-1.4571e-05,0,0,0.053073,-0.022841,0,-0.0007577,0,0,0,0.0029134,-6.4736e-06,0.00087209,-0.28592,0.0012597,0.0025947,5.6273e-10,0.66,0.98,0
0.034327,-0.0085783,0.0028977,-5.6459e-06,0.00086761,-1.9828e-05,0,0,0.052782,-0.022705,0,-0.0010311,0,0,0,0.0028978,-5.7813e-06,0.00086761,-0.39127,0.0012532,0.0025802,5.5358e-10,0.68,0.98,0
0.035379,-0.0086784,0.0028775,-4.7524e-06,0.00086181,-2.4366e-05,0,0,0.052407,-0.022531,0,-0.0012671,0,0,0,0.0028777,-4.9584e-06,0.00086181,-0.48433,0.0012448,0.0025617,5.4196e-10,0.7,0.98,0
0.036423,-0.0087913,0.0028534,-3.758e-06,0.0008549,-2.8081e-05,0,0,0.051962,-0.022325,0,-0.0014602,0,0,0,0.0028537,-4.034e-06,0.0008549,-0.56305,0.0012349,0.0025397,5.2837e-10,0.72,0.98,0
0.037457,-0.0089144,0.0028264,-2.7017e-06,0.00084711,-3.0902e-05,0,0,0.051461,-0.022095,0,-0.0016069,0,0,0,0.0028267,-3.0392e-06,0.00084711,-0.62575,0.0012236,0.0025149,5.1334e-10,0.74,0.98,0
0.038481,-0.0090449,0.0027971,-1.6215e-06,0.00083866,-3.2792e-05,0,0,0.050921,-0.021847,0,-0.0017052,0,0,0,0.0027975,-2.0056e-06,0.00083866,-0.67118,0.0012114,0.0024881,4.974e-10,0.76,0.98,0
0.039494,-0.0091798,0.0027666,-5.5248e-07,0.0008298,-3.3743e-05,0,0,0.050356,-0.021589,0,-0.0017546,0,0,0,0.002767,-9.639e-07,0.0008298,-0.69854,0.0011986,0.0024601,4.8108e-10,0.78,0.98,0
0.040495,-0.0093158,0.0027355,4.7471e-07,0.00082078,-3.378e-05,0,0,0.049782,-0.021328,0,-0.0017565,0,0,0,0.0027359,5.7557e-08,0.00082078,-0.70751,0.0011856,0.0024317,4.6487e-10,0.8,0.98,0
0.041485,-0.0094498,0.0027047,1.4352e-06,0.00081184,-3.2949e-05,0,0,0.049215,-0.021071,0,-0.0017133,0,0,0,0.0027051,1.0337e-06,0.00081184,-0.69821,0.0011727,0.0024035,4.4919e-10,0.82,0.98,0
0.042464,-0.0095789,0.002675,2.3102e-06,0.00080321,-3.1317e-05,0,0,0.048668,-0.020823,0,-0.0016285,0,0,0,0.0026754,1.9433e-06,0.00080321,-0.67122,0.0011602,0.0023764,4.3439e-10,0.84,0.98,0
0.043432,-0.0097002,0.0026472,3.0869e-06,0.00079509,-2.8963e-05,0,0,0.048155,-0.020592,0,-0.0015061,0,0,0,0.0026475,2.7697e-06,0.00079509,-0.62751,0.0011485,0.002351,4.208e-10,0.86,0.98,0
0.04439,-0.0098109,0.0026218,3.7579e-06,0.00078766,-2.5977e-05,0,0,0.047687,-0.020382,0,-0.0013508,0,0,0,0.002622,3.5002e-06,0.00078766,-0.56844,0.0011377,0.0023277,4.0864e-10,0.88,0.98,0
0.045339,-0.0099089,0.0025994,4.3202e-06,0.00078111,-2.2452e-05,0,0,0.047275,-0.020196,0,-0.0011675,0,0,0,0.0025996,4.1259e-06,0.00078111,-0.49567,0.0011283,0.0023072,3.9811e-10,0.9,0.98,0
0.046281,-0.0099919,0.0025804,4.774e-06,0.00077555,-1.8483e-05,0,0,0.046926,-0.02004,0,-0.00096113,0,0,0,0.0025805,4.6414e-06,0.00077555,-0.41114,0.0011202,0.0022899,3.8934e-10,0.92,0.98,0
0.047217,-0.010058,0.0025652,5.1219e-06,0.00077111,-1.4164e-05,0,0,0.046648,-0.019916,0,-0.00073651,0,0,0,0.0025653,5.0436e-06,0.00077111,-0.31697,0.0011138,0.0022761,3.8244e-10,0.94,0.98,0
0.048147,-0.010107,0.0025542,5.3671e-06,0.00076788,-9.5847e-06,0,0,0.046445,-0.019825,0,-0.0004984,0,0,0,0.0025543,5.3311e-06,0.00076788,-0.21545,0.0011092,0.002266,3.7746e-10,0.96,0.98,0
0.049074,-0.010136,0.0025475,5.5127e-06,0.00076592,-4.8347e-06,0,0,0.046322,-0.01977,0,-0.00025141,0,0,0,0.0025475,5.5035e-06,0.00076592,-0.10897,0.0011063,0.0022599,3.7446e-10,0.98,0.98,0
0.05,-0.010146,0.0025453,5.561e-06,0.00076526,-9.4963e-06,0,0,0.046281,-0.019752,0,-0.00049381,0,0,0,0.0025453,5.5255e-06,0.00076526,-0.21423,0.0011054,0.0022579,3.7348e-10,1,0.98,0
0,0,0.0068019,0.0029151,0.0029151,-0.0019214,0,0,0.10106,-1.3878e-17,0,-0.099913,0,0,0,0.0075913,0.0021256,0.0029151,-22.337,0.0042107,0.0051169,6.3321e-09,0,1,0
0.0020211,-0.0019983,0.0048809,0.00035091,0.0015695,-0.00076396,0,0,0.086095,-0.031684,0,-0.039726,0,0,0,0.0050062,0.00022554,0.0015695,-9.3194,0.0022671,0.0042704,2.7047e-09,0.02,1,0
0.0034438,-0.003231,0.0036093,0.00014237,0.0011255,-0.00025068,0,0,0.064578,-0.025561,0,-0.013036,0,0,0,0.0036273,0.00012434,0.0011255,-4.1144,0.0016257,0.0031251,1.0423e-09,0.04,1,0
0.0046043,-0.0042774,0.0030161,-1.5884e-05,0.00090007,-0.00015017,0,0,0.055018,-0.023815,0,-0.0078088,0,0,0,0.0030235,-2.3304e-05,0.00090007,-2.8285,0.0013001,0.002706,6.3263e-10,0.06,1,0
0.0056445,-0.0051509,0.0027409,-3.4655e-05,0.00081187,-9.1202e-05,0,0,0.050155,-0.02201,0,-0.0047425,0,0,0,0.0027439,-3.7648e-05,0.00081187,-1.88,0.0011727,0.002469,4.7578e-10,0.08,1,0
0.0066105,-0.0058982,0.0025691,-4.2532e-05,0.00075798,-6.1369e-05,0,0,0.04709,-0.020813,0,-0.0031912,0,0,0,0.0025706,-4.3974e-05,0.00075798,-1.3454,0.0010949,0.0023199,3.9255e-10,0.1,1,0
0.0075281,-0.0065396,0.0024575,-4.2902e-05,0.00072438,-4.211e-05,0,0,0.045061,-0.019949,0,-0.0021897,0,0,0,0.0024582,-4.3611e-05,0.00072438,-0.96456,0.0010463,0.0022198,3.4352e-10,0.12,1,0
0.0084129,-0.00709,0.0023829,-4.1581e-05,0.0007024,-2.8871e-05,0,0,0.043693,-0.019343,0,-0.0015013,0,0,0,0.0023832,-4.1925e-05,0.0007024,-0.68215,0.0010146,0.0021518,3.1299e-10,0.14,1,0
0.0092758,-0.0075598,0.0023345,-3.9464e-05,0.00068852,-1.9067e-05,0,0,0.042796,-0.018927,0,-0.00099146,0,0,0,0.0023347,-3.9617e-05,0.00068852,-0.46013,0.00099452,0.0021068,2.9405e-10,0.16,1,0
0.010125,-0.0079575,0.0023059,-3.7059e-05,0.00068064,-1.146e-05,0,0,0.042256,-0.01866,0,-0.00059591,0,0,0,0.0023059,-3.7115e-05,0.00068064,-0.28024,0.00098315,0.0020792,2.8307e-10,0.18,1,0
0.010966,-0.0082899,0.0022928,-3.4528e-05,0.00067749,-5.3359e-06,0,0,0.041999,-0.018513,0,-0.00027747,0,0,0,0.0022928,-3.454e-05,0.00067749,-0.13136,0.0009786,0.0020656,2.7799e-10,0.2,1,0
0.011805,-0.008563,0.0022926,-3.1941e-05,0.0006782,-2.7254e-07,0,0,0.041974,-0.018464,0,-1.4172e-05,0,0,0,0.0022926,-3.1941e-05,0.0006782,-0.0067176,0.00097962,0.0020633,2.7758e-10,0.22,1,0
0.012645,-0.0087821,0.0023031,-2.9322e-05,0.00068213,3.9922e-06,0,0,0.042145,-0.018498,0,0.00020759,0,0,0,0.0023031,-2.9329e-05,0.00068213,0.098067,0.00098531,0.0020705,2.8107e-10,0.24,1,0
0.013491,-0.0089525,0.0023228,-2.6679e-05,0.00068882,7.6219e-06,0,0,0.042482,-0.018603,0,0.00039634,0,0,0,0.0023228,-2.6704e-05,0.00068882,0.18587,0.00099497,0.0020859,2.8796e-10,0.26,1,0
0.014344,-0.0090788,0.0023503,-2.4015e-05,0.00069787,1.0717e-05,0,0,0.042962,-0.018769,0,0.00055731,0,0,0,0.0023503,-2.4064e-05,0.00069787,0.25862,0.001008,0.0021082,2.9793e-10,0.28,1,0
0.015209,-0.0091659,0.0023845,-2.1333e-05,0.00070894,1.3338e-05,0,0,0.043563,-0.018987,0,0.00069357,0,0,0,0.0023845,-2.1406e-05,0.00070894,0.31764,0.001024,0.0021365,3.1073e-10,0.3,1,0
0.016087,-0.0092184,0.0024243,-1.8637e-05,0.0007217,1.5514e-05,0,0,0.044268,-0.019249,0,0.00080673,0,0,0,0.0024244,-1.8736e-05,0.0007217,0.36384,0.0010425,0.0021698,3.2615e-10,0.32,1,0
0.01698,-0.0092409,0.0024688,-1.5938e-05,0.00073585,1.7256e-05,0,0,0.045056,-0.019546,0,0.00089733,0,0,0,0.0024689,-1.6058e-05,0.00073585,0.3979,0.0010629,0.0022072,3.4399e-10,0.34,1,0
0.017889,-0.0092381,0.0025168,-1.3252e-05,0.00075106,1.8564e-05,0,0,0.045909,-0.019872,0,0.00096531,0,0,0,0.0025169,-1.3388e-05,0.00075106,0.42037,0.0010849,0.0022478,3.6401e-10,0.36,1,0
0.018816,-0.0092146,0.0025673,-1.0597e-05,0.00076702,1.9427e-05,0,0,0.046808,-0.020218,0,0.0010102,0,0,0,0.0025675,-1.0744e-05,0.00076702,0.43175,0.0011079,0.0022906,3.8593e-10,0.38,1,0
0.019761,-0.0091752,0.0026193,-7.9991e-06,0.00078339,1.9837e-05,0,0,0.047734,-0.020576,0,0.0010315,0,0,0,0.0026195,-8.1489e-06,0.00078339,0.43256,0.0011316,0.0023347,4.0937e-10,0.4,1,0
0.020725,-0.0091243,0.0026715,-5.486e-06,0.00079981,1.9783e-05,0,0,0.048664,-0.020938,0,0.0010287,0,0,0,0.0026717,-5.6322e-06,0.00079981,0.42339,0.0011553,0.0023791,4.3388e-10,0.42,1,0
0.021708,-0.0090665,0.0027228,-3.0894e-06,0.00081593,1.9265e-05,0,0,0.04958,-0.021294,0,0.0010018,0,0,0,0.002723,-3.2256e-06,0.00081593,0.4049,0.0011786,0.0024228,4.5891e-10,0.44,1,0
0.022709,-0.009006,0.0027721,-8.4289e-07,0.00083138,1.8288e-05,0,0,0.050459,-0.021638,0,0.00095097,0,0,0,0.0027722,-9.6349e-07,0.00083138,0.37785,0.0012009,0.0024648,4.8383e-10,0.46,1,0
0.023726,-0.008947,0.0028181,1.2198e-06,0.00084581,1.6871e-05,0,0,0.051281,-0.021959,0,0.00087729,0,0,0,0.0028182,1.1188e-06,0.00084581,0.34314,0.0012217,0.002504,5.0792e-10,0.48,1,0
0.02476,-0.0088933,0.0028599,3.066e-06,0.00085889,1.5046e-05,0,0,0.052026,-0.022251,0,0.00078237,0,0,0,0.00286,2.9867e-06,0.00085889,0.30174,0.0012406,0.0025396,5.3045e-10,0.5,1,0
0.025807,-0.0088482,0.0028963,4.6654e-06,0.00087031,1.2858e-05,0,0,0.052677,-0.022507,0,0.0006686,0,0,0,0.0028964,4.6082e-06,0.00087031,0.25476,0.0012571,0.0025707,5.5066e-10,0.52,1,0
0.026867,-0.0088147,0.0029267,5.9922e-06,0.0008798,1.0366e-05,0,0,0.053219,-0.022719,0,0.00053903,0,0,0,0.0029267,5.9554e-06,0.0008798,0.20335,0.0012708,0.0025966,5.6786e-10,0.54,1,0
0.027936,-0.0087952,0.0029502,7.0259e-06,0.00088716,7.6412e-06,0,0,0.053638,-0.022884,0,0.00039734,0,0,0,0.0029502,7.0061e-06,0.00088716,0.14875,0.0012815,0.0026166,5.8142e-10,0.56,1,0
0.029013,-0.0087916,0.0029664,7.7527e-06,0.00089223,4.7637e-06,0,0,0.053927,-0.022996,0,0.00024771,0,0,0,0.0029664,7.745e-06,0.00089223,0.092253,0.0012888,0.0026304,5.9088e-10,0.58,1,0
0.030093,-0.0088052,0.0029749,8.1663e-06,0.00089493,1.8198e-06,0,0,0.05408,-0.023056,0,9.463e-05,0,0,0,0.0029749,8.1652e-06,0.00089493,0.035145,0.0012927,0.0026377,5.9594e-10,0.6,1,0
0.031176,-0.0088365,0.0029759,8.2684e-06,0.00089524,-1.1018e-06,0,0,0.054096,-0.023061,0,-5.7291e-05,0,0,0,0.0029759,8.268e-06,0.00089524,-0.021271,0.0012931,0.0026384,5.9648e-10,0.62,1,0
0.032257,-0.0088855,0.0029693,8.0688e-06,0.00089322,-3.9139e-06,0,0,0.053979,-0.023014,0,-0.00020352,0,0,0,0.0029693,8.0636e-06,0.00089322,-0.075727,0.0012902,0.0026328,5.926e-10,0.64,1,0
0.033335,-0.0089517,0.0029558,7.5851e-06,0.000889,-6.535e-06,0,0,0.053735,-0.022917,0,-0.00033982,0,0,0,0.0029558,7.5706e-06,0.000889,-0.127,0.0012841,0.0026211,5.846e-10,0.66,1,0
0.034406,-0.0090338,0.0029357,6.8422e-06,0.00088276,-8.8926e-06,0,0,0.053376,-0.022774,0,-0.00046241,0,0,0,0.0029357,6.8152e-06,0.00088276,-0.17396,0.0012751,0.0026039,5.7293e-10,0.68,1,0
0.03547,-0.0091302,0.0029099,5.8711e-06,0.00087474,-1.0926e-05,0,0,0.052915,-0.02259,0,-0.00056815,0,0,0,0.00291,5.83e-06,0.00087474,-0.21556,0.0012635,0.0025818,5.5818e-10,0.7,1,0
0.036523,-0.0092388,0.0028794,4.7081e-06,0.00086522,-1.2589e-05,0,0,0.052368,-0.022373,0,-0.00065462,0,0,0,0.0028794,4.653e-06,0.00086522,-0.2509,0.0012498,0.0025556,5.4102e-10,0.72,1,0
0.037565,-0.009357,0.0028451,3.393e-06,0.00085454,-1.3849e-05,0,0,0.051754,-0.02213,0,-0.00072017,0,0,0,0.0028451,3.3255e-06,0.00085454,-0.27923,0.0012343,0.0025262,5.2217e-10,0.74,1,0
0.038593,-0.0094823,0.002808,1.9679e-06,0.000843,-1.4691e-05,0,0,0.051091,-0.021867,0,-0.00076394,0,0,0,0.0028081,1.8909e-06,0.000843,-0.29996,0.0012177,0.0024944,5.0232e-10,0.76,1,0
0.039608,-0.0096116,0.0027694,4.7571e-07,0.00083097,-1.5112e-05,0,0,0.0504,-0.021593,0,-0.00078584,0,0,0,0.0027695,3.9324e-07,0.00083097,-0.31269,0.0012003,0.0024613,4.8216e-10,0.78,1,0
0.040609,-0.0097421,0.0027303,-1.0409e-06,0.00081877,-1.5123e-05,0,0,0.049699,-0.021315,0,-0.00078641,0,0,0,0.0027303,-1.1247e-06,0.00081877,-0.31723,0.0011827,0.0024277,4.6227e-10,0.8,1,0
0.041596,-0.0098706,0.0026916,-2.5413e-06,0.00080672,-1.4746e-05,0,0,0.049007,-0.021041,0,-0.00076679,0,0,0,0.0026917,-2.622e-06,0.00080672,-0.31359,0.0011653,0.0023945,4.4318e-10,0.82,1,0
0.04257,-0.0099945,0.0026544,-3.9871e-06,0.00079514,-1.4011e-05,0,0,0.048342,-0.020777,0,-0.00072855,0,0,0,0.0026545,-4.0609e-06,0.00079514,-0.30195,0.0011485,0.0023626,4.2532e-10,0.84,1,0
0.04353,-0.010111,0.0026196,-5.3437e-06,0.00078428,-1.2953e-05,0,0,0.047719,-0.02053,0,-0.00067357,0,0,0,0.0026197,-5.4077e-06,0.00078428,-0.28273,0.0011328,0.0023327,4.0902e-10,0.86,1,0
0.044478,-0.010217,0.0025879,-6.5803e-06,0.00077439,-1.1614e-05,0,0,0.047151,-0.020305,0,-0.00060394,0,0,0,0.0025879,-6.6323e-06,0.00077439,-0.25648,0.0011186,0.0023055,3.9455e-10,0.88,1,0
0.045416,-0.010311,0.00256,-7.6703e-06,0.00076569,-1.0035e-05,0,0,0.046651,-0.020107,0,-0.00052184,0,0,0,0.00256,-7.7095e-06,0.00076569,-0.22393,0.001106,0.0022815,3.8209e-10,0.9,1,0
0.046344,-0.010391,0.0025364,-8.5915e-06,0.00075834,-8.2594e-06,0,0,0.046229,-0.01994,0,-0.00042949,0,0,0,0.0025364,-8.6183e-06,0.00075834,-0.18594,0.0010954,0.0022613,3.7177e-10,0.92,1,0
0.047265,-0.010454,0.0025176,-9.326e-06,0.00075248,-6.3279e-06,0,0,0.045893,-0.019807,0,-0.00032905,0,0,0,0.0025176,-9.3419e-06,0.00075248,-0.14348,0.0010869,0.0022452,3.6369e-10,0.94,1,0
0.04818,-0.010501,0.0025039,-9.8603e-06,0.00074822,-4.2815e-06,0,0,0.045648,-0.01971,0,-0.00022264,0,0,0,0.0025039,-9.8676e-06,0.00074822,-0.097587,0.0010808,0.0022334,3.5788e-10,0.96,1,0
0.049091,-0.010529,0.0024956,-1.0185e-05,0.00074563,-2.1595e-06,0,0,0.0455,-0.019651,0,-0.00011229,0,0,0,0.0024956,-1.0186e-05,0.00074563,-0.049377,0.001077,0.0022263,3.5438e-10,0.98,1,0
0.05,-0.010539,0.0024928,-1.0293e-05,0.00074476,-9.1173e-06,0,0,0.04545,-0.019631,0,-0.0004741,0,0,0,0.0024929,-1.0327e-05,0.00074476,-0.20869,0.0010758,0.002224,3.5324e-10,1,1,0
