"Displacements:0","Displacements:1","Stress/Strain:0","Stress/Strain:1","Stress/Strain:2","Stress/Strain:3","Stress/Strain:4","Stress/Strain:5","Stress/Strain:6","Stress/Strain:7","Stress/Strain:8","Stress/Strain:9","Stress/Strain:10","Stress/Strain:11","Stress/Strain:12","Principal Stress:0","Principal Stress:1","Principal Stress:2","Principal Stress:3","Principal Stress:4","Principal Stress:5","Principal Stress:6","nodes:0","nodes:1","nodes:2"
0,0,0.050091,0.021468,0.021468,0.014147,0,0,0.11163,3.4694e-18,0,0.11035,0,0,0,0.055903,0.015655,0.021468,22.334,0.031009,0.03768,2.5286e-06,0,0,0
0.0022326,0.002207,0.035951,0.0025892,0.011562,0.0056244,0,0,0.095116,-0.034993,0,0.04387,0,0,0,0.036873,0.0016665,0.011562,9.3166,0.016701,0.031449,1.0805e-06,0.02,0,0
0.0038046,0.0035713,0.026588,0.0010556,0.008293,0.0018504,0,0,0.071349,-0.028226,0,0.014433,0,0,0,0.026721,0.00092221,0.008293,4.1237,0.011979,0.023016,4.1655e-07,0.04,0,0
0.0050866,0.0047331,0.022204,-0.0001103,0.0066281,0.001117,0,0,0.060746,-0.02628,0,0.0087129,0,0,0,0.02226,-0.00016608,0.0066281,2.8587,0.0095739,0.019918,2.5237e-07,0.06,0,0
0.0062344,0.0057078,0.020141,-0.0002499,0.0059674,0.00069183,0,0,0.055278,-0.024248,0,0.0053963,0,0,0,0.020165,-0.00027334,0.0059674,1.9409,0.0086196,0.018142,1.8881e-07,0.08,0,0
0.0072977,0.0065474,0.018815,-0.00031001,0.0055514,0.00048327,0,0,0.051727,-0.02286,0,0.0037695,0,0,0,0.018827,-0.00032221,0.0055514,1.4466,0.0080187,0.016992,1.5422e-07,0.1,0,0
0.0083035,0.0072748,0.0179,-0.00031586,0.0052753,0.00035419,0,0,0.049237,-0.021805,0,0.0027627,0,0,0,0.017907,-0.00032275,0.0052753,1.1135,0.0076199,0.016175,1.3283e-07,0.12,0,0
0.0092672,0.007906,0.017223,-0.00031054,0.0050738,0.00027041,0,0,0.047383,-0.020999,0,0.0021092,0,0,0,0.017227,-0.00031471,0.0050738,0.88336,0.0073289,0.015564,1.183e-07,0.14,0,0
0.010199,0.0084519,0.016703,-0.00030074,0.0049207,0.00021217,0,0,0.045951,-0.020364,0,0.001655,0,0,0,0.016706,-0.00030339,0.0049207,0.71478,0.0071077,0.015091,1.0786e-07,0.16,0,0
0.011105,0.0089206,0.016292,-0.00029018,0.0048006,0.00016958,0,0,0.044817,-0.019854,0,0.0013227,0,0,0,0.016294,-0.00029192,0.0048006,0.58587,0.0069342,0.014716,1.0005e-07,0.18,0,0
0.011992,0.0093178,0.015963,-0.00027985,0.0047048,0.00013656,0,0,0.043905,-0.01944,0,0.0010651,0,0,0,0.015964,-0.000281,0.0047048,0.48167,0.0067958,0.014414,9.4065e-08,0.2,0,0
0.012861,0.0096478,0.015698,-0.00026992,0.0046286,0.0001091,0,0,0.043173,-0.019104,0,0.00085101,0,0,0,0.015699,-0.00027067,0.0046286,0.39145,0.0066857,0.01417,8.9433e-08,0.22,0,0
0.013718,0.0099139,0.015492,-0.00026007,0.0045695,8.4385e-05,0,0,0.042597,-0.018835,0,0.00065821,0,0,0,0.015492,-0.00026052,0.0045695,0.30693,0.0066004,0.013978,8.5906e-08,0.24,0,0
0.014565,0.010119,0.015341,-0.00024971,0.0045273,6.0293e-05,0,0,0.042173,-0.018631,0,0.00047029,0,0,0,0.015341,-0.00024994,0.0045273,0.22157,0.0065395,0.013835,8.3371e-08,0.26,0,0
0.015405,0.010264,0.015248,-0.00023808,0.004503,3.5252e-05,0,0,0.041906,-0.01849,0,0.00027497,0,0,0,0.015248,-0.00023816,0.004503,0.13043,0.0065043,0.013743,8.1808e-08,0.28,0,0
0.016242,0.010351,0.015219,-0.00022433,0.0044985,8.1636e-06,0,0,0.041811,-0.018419,0,6.3676e-05,0,0,0,0.015219,-0.00022433,0.0044985,0.030287,0.0064978,0.013707,8.1272e-08,0.3,0,0
0.017078,0.010382,0.015263,-0.00020755,0.0045166,-2.1577e-05,0,0,0.04191,-0.018424,0,-0.0001683,0,0,0,0.015263,-0.00020758,0.0045166,-0.079913,0.0065239,0.013732,8.1875e-08,0.32,0,0
0.017918,0.01036,0.015387,-0.00018688,0.0045601,-5.4018e-05,0,0,0.042226,-0.018513,0,-0.00042134,0,0,0,0.015387,-0.00018707,0.0045601,-0.19873,0.0065868,0.013826,8.3773e-08,0.34,0,0
0.018767,0.010289,0.015601,-0.00016162,0.0046318,-8.857e-05,0,0,0.04278,-0.018694,0,-0.00069085,0,0,0,0.015602,-0.00016212,0.0046318,-0.32193,0.0066904,0.013997,8.7158e-08,0.36,0,0
0.019629,0.010171,0.015909,-0.00013135,0.0047334,-0.00012392,0,0,0.043586,-0.018973,0,-0.00096662,0,0,0,0.01591,-0.00013231,0.0047334,-0.44261,0.0068372,0.014247,9.2238e-08,0.38,0,0
0.02051,0.010015,0.016313,-9.6133e-05,0.0048651,-0.00015801,0,0,0.044647,-0.019349,0,-0.0012325,0,0,0,0.016315,-9.7654e-05,0.0048651,-0.55164,0.0070274,0.014579,9.9208e-08,0.4,0,0
0.021415,0.0098282,0.016806,-5.663e-05,0.0050248,-0.000188,0,0,0.045946,-0.019817,0,-0.0014664,0,0,0,0.016808,-5.8726e-05,0.0050248,-0.6387,0.007258,0.014986,1.082e-07,0.42,0,0
0.022348,0.0096201,0.017372,-1.4144e-05,0.0052074,-0.00021058,0,0,0.047442,-0.020364,0,-0.0016425,0,0,0,0.017375,-1.6695e-05,0.0052074,-0.69383,0.0075218,0.015456,1.1919e-07,0.44,0,0
0.023313,0.0094029,0.017987,2.9626e-05,0.0054049,-0.00022241,0,0,0.049069,-0.020963,0,-0.0017348,0,0,0,0.017989,2.6872e-05,0.0054049,-0.70949,0.0078071,0.015968,1.3195e-07,0.46,0,0
0.024311,0.00919,0.018616,7.2948e-05,0.0056066,-0.00022097,0,0,0.050736,-0.021581,0,-0.0017236,0,0,0,0.018618,7.0315e-05,0.0056066,-0.68264,0.0080985,0.016492,1.4592e-07,0.48,0,0
0.025342,0.0089951,0.019221,0.00011429,0.0058006,-0.00020543,0,0,0.052339,-0.022176,0,-0.0016023,0,0,0,0.019223,0.00011208,0.0058006,-0.61593,0.0083786,0.016996,1.6024e-07,0.5,0,0
0.026404,0.0088316,0.019764,0.00015215,0.0059748,-0.00017706,0,0,0.053777,-0.022708,0,-0.0013811,0,0,0,0.019765,0.00015055,0.0059748,-0.51723,0.0086302,0.017448,1.7385e-07,0.52,0,0
0.027493,0.0087113,0.020212,0.00018467,0.0061189,-0.00013883,0,0,0.054962,-0.023143,0,-0.0010829,0,0,0,0.020213,0.00018371,0.0061189,-0.39717,0.0088384,0.017819,1.8562e-07,0.54,0,0
0.028603,0.0086436,0.020541,0.00020948,0.0062252,-9.4302e-05,0,0,0.055833,-0.023461,0,-0.00073556,0,0,0,0.020542,0.00020904,0.0062252,-0.26574,0.008992,0.018091,1.946e-07,0.56,0,0
0.029727,0.0086354,0.020738,0.00022418,0.0062888,-4.6478e-05,0,0,0.056354,-0.023652,0,-0.00036253,0,0,0,0.020739,0.00022408,0.0062888,-0.12981,0.0090838,0.018254,2.0011e-07,0.58,0,0
0.030857,0.0086902,0.020797,0.00022724,0.0063072,2.5751e-06,0,0,0.056509,-0.023712,0,2.0086e-05,0,0,0,0.020797,0.00022724,0.0063072,0.007173,0.0091104,0.018303,2.0177e-07,0.6,0,0
0.031987,0.0088088,0.020715,0.00021863,0.0062801,5.1255e-05,0,0,0.056296,-0.02364,0,0.00039979,0,0,0,0.020715,0.00021851,0.0062801,0.14328,0.0090712,0.018238,1.9949e-07,0.62,0,0
0.033109,0.0089891,0.020498,0.00019988,0.0062093,9.7495e-05,0,0,0.055725,-0.023437,0,0.00076046,0,0,0,0.020498,0.00019941,0.0062093,0.2752,0.0089689,0.01806,1.9346e-07,0.64,0,0
0.034216,0.0092259,0.020157,0.00017334,0.0060991,0.00013828,0,0,0.054826,-0.02311,0,0.0010786,0,0,0,0.020158,0.00017238,0.0060991,0.39645,0.0088098,0.017779,1.8422e-07,0.66,0,0
0.035302,0.0095113,0.019714,0.00014136,0.0059566,0.00017004,0,0,0.053654,-0.02268,0,0.0013264,0,0,0,0.019716,0.00013988,0.0059566,0.49773,0.0086041,0.017412,1.7264e-07,0.68,0,0
0.036362,0.009835,0.0192,0.00010578,0.0057917,0.00018981,0,0,0.052292,-0.022175,0,0.0014805,0,0,0,0.019202,0.0001039,0.0057917,0.56949,0.0083657,0.016984,1.5978e-07,0.7,0,0
0.037394,0.010185,0.01865,6.8104e-05,0.0056155,0.00019627,0,0,0.050835,-0.021635,0,0.0015309,0,0,0,0.018652,6.6031e-05,0.0056155,0.60509,0.0081113,0.016526,1.4675e-07,0.72,0,0
0.038395,0.010549,0.018102,2.9863e-05,0.0054396,0.00019023,0,0,0.049384,-0.021098,0,0.0014838,0,0,0,0.018104,2.7861e-05,0.0054396,0.603,0.0078572,0.016069,1.3448e-07,0.74,0,0
0.039369,0.010915,0.017588,-7.181e-06,0.0052742,0.00017415,0,0,0.048023,-0.020597,0,0.0013583,0,0,0,0.01759,-8.9044e-06,0.0052742,0.56701,0.0076183,0.015641,1.2361e-07,0.76,0,0
0.040316,0.011272,0.017131,-4.1302e-05,0.0051268,0.00015132,0,0,0.046815,-0.020156,0,0.0011803,0,0,0,0.017132,-4.2635e-05,0.0051268,0.50482,0.0074054,0.015261,1.1445e-07,0.78,0,0
0.041242,0.011612,0.016745,-7.1162e-05,0.0050021,0.00012506,0,0,0.045797,-0.019786,0,0.00097544,0,0,0,0.016746,-7.2092e-05,0.0050021,0.42606,0.0072253,0.014942,1.0709e-07,0.8,0,0
0.042148,0.011929,0.016435,-9.6046e-05,0.0049018,9.8227e-05,0,0,0.044981,-0.019491,0,0.00076617,0,0,0,0.016436,-9.663e-05,0.0049018,0.34043,0.0070803,0.014686,1.0142e-07,0.82,0,0
0.043041,0.012216,0.0162,-0.00011584,0.0048252,7.3016e-05,0,0,0.044361,-0.01927,0,0.00056952,0,0,0,0.0162,-0.00011616,0.0048252,0.2564,0.0069697,0.014492,9.7253e-08,0.84,0,0
0.043923,0.012471,0.016031,-0.00013087,0.00477,5.0928e-05,0,0,0.043918,-0.019113,0,0.00039724,0,0,0,0.016031,-0.00013103,0.00477,0.18054,0.00689,0.014353,9.4341e-08,0.86,0,0
0.044797,0.012693,0.015918,-0.00014176,0.004733,3.2835e-05,0,0,0.043623,-0.019012,0,0.00025611,0,0,0,0.015918,-0.00014183,0.004733,0.11714,0.0068365,0.014262,9.2436e-08,0.88,0,0
0.045668,0.012879,0.01585,-0.00014925,0.0047102,1.9058e-05,0,0,0.043445,-0.018952,0,0.00014865,0,0,0,0.01585,-0.00014927,0.0047102,0.068249,0.0068036,0.014207,9.1297e-08,0.9,0,0
0.046535,0.013031,0.015814,-0.0001541,0.0046978,9.4667e-06,0,0,0.043351,-0.018922,0,7.384e-05,0,0,0,0.015814,-0.0001541,0.0046978,0.033969,0.0067858,0.014179,9.07e-08,0.92,0,0
0.047402,0.013148,0.015798,-0.00015702,0.0046923,3.5801e-06,0,0,0.043312,-0.018912,0,2.7925e-05,0,0,0,0.015798,-0.00015702,0.0046923,0.012856,0.0067778,0.014167,9.0451e-08,0.94,0,0
0.048268,0.013231,0.015794,-0.00015863,0.0046906,6.6121e-07,0,0,0.043303,-0.018912,0,5.1574e-06,0,0,0,0.015794,-0.00015863,0.0046906,0.0023748,0.0067753,0.014165,9.0393e-08,0.96,0,0
0.049134,0.013281,0.015794,-0.00015941,0.0046905,-1.9632e-07,0,0,0.043306,-0.018915,0,-1.5313e-06,0,0,0,0.015794,-0.00015941,0.0046905,-0.00070505,0.0067752,0.014166,9.0406e-08,0.98,0,0
0.05,0.013297,0.015795,-0.00015963,0.0046907,0.00010573,0,0,0.043308,-0.018916,0,0.00082472,0,0,0,0.015796,-0.00016033,0.0046907,0.37968,0.0067754,0.014168,9.0435e-08,1,0,0
0,0,0.029714,0.012735,0.012735,0.009661,0,0,0.06622,1.7347e-18,0,0.075356,0,0,0,0.034086,0.0083632,0.012735,24.346,0.018395,0.023839,6.177e-07,0,0.02,0
0.0013244,0.0015071,0.027065,0.0026774,0.0089229,0.0060877,0,0,0.070756,-0.024357,0,0.047484,0,0,0,0.028501,0.0012423,0.0089229,13.265,0.012889,0.024344,4.9995e-07,0.02,0.02,0
0.0028302,0.0030068,0.027171,0.0021133,0.0087854,0.0039905,0,0,0.071705,-0.026021,0,0.031126,0,0,0,0.027792,0.0014932,0.0087854,8.8333,0.01269,0.023516,4.5778e-07,0.04,0.02,0
0.0041926,0.0042075,0.024335,0.0011202,0.0076366,0.0024124,0,0,0.065124,-0.025414,0,0.018816,0,0,0,0.024583,0.00087212,0.0076366,5.8703,0.011031,0.021156,3.2398e-07,0.06,0.02,0
0.0054352,0.0052228,0.02223,0.00065191,0.0068646,0.0016234,0,0,0.059925,-0.02423,0,0.012663,0,0,0,0.022351,0.00053046,0.0068646,4.2785,0.0099155,0.019444,2.4689e-07,0.08,0.02,0
0.0065896,0.0060902,0.020725,0.0004033,0.0063385,0.0011509,0,0,0.056107,-0.023147,0,0.0089769,0,0,0,0.02079,0.00033832,0.0063385,3.2311,0.0091556,0.018209,2.0037e-07,0.1,0.02,0
0.0076795,0.0068386,0.01963,0.00026559,0.0059687,0.0008551,0,0,0.05328,-0.022242,0,0.0066698,0,0,0,0.019668,0.00022791,0.0059687,2.5235,0.0086215,0.017299,1.7054e-07,0.12,0.02,0
0.0087208,0.007486,0.018807,0.0001838,0.0056972,0.00065671,0,0,0.051128,-0.021502,0,0.0051223,0,0,0,0.01883,0.00016067,0.0056972,2.0171,0.0082293,0.016608,1.5017e-07,0.14,0.02,0
0.0097246,0.0080447,0.01817,0.00013307,0.005491,0.00051716,0,0,0.049449,-0.020896,0,0.0040338,0,0,0,0.018185,0.00011825,0.005491,1.641,0.0079315,0.016069,1.3556e-07,0.16,0.02,0
0.010699,0.0085235,0.017668,0.00010104,0.0053307,0.00041416,0,0,0.048115,-0.020396,0,0.0032305,0,0,0,0.017677,9.1277e-05,0.0053307,1.3498,0.0076998,0.015639,1.2471e-07,0.18,0.02,0
0.011649,0.008929,0.017266,8.1198e-05,0.0052042,0.00033405,0,0,0.047041,-0.01998,0,0.0026056,0,0,0,0.017273,7.4706e-05,0.0052042,1.1132,0.0075172,0.015293,1.1644e-07,0.2,0.02,0
0.01258,0.0092657,0.016944,6.9872e-05,0.0051043,0.00026769,0,0,0.046176,-0.019634,0,0.002088,0,0,0,0.016949,6.5627e-05,0.0051043,0.9086,0.0073728,0.015012,1.1006e-07,0.22,0.02,0
0.013496,0.0095372,0.01669,6.481e-05,0.0050265,0.00020856,0,0,0.045488,-0.019351,0,0.0016268,0,0,0,0.016693,6.2194e-05,0.0050265,0.71863,0.0072605,0.014787,1.0517e-07,0.24,0.02,0
0.0144,0.0097459,0.016497,6.446e-05,0.0049683,0.00015187,0,0,0.044961,-0.019125,0,0.0011846,0,0,0,0.016498,6.3056e-05,0.0049683,0.52949,0.0071765,0.014613,1.0152e-07,0.26,0.02,0
0.015295,0.0098937,0.016362,6.756e-05,0.0049287,9.4038e-05,0,0,0.044588,-0.018958,0,0.0007335,0,0,0,0.016362,6.7018e-05,0.0049287,0.33066,0.0071192,0.014489,9.9001e-08,0.28,0.02,0
0.016183,0.0099824,0.016285,7.2893e-05,0.0049073,3.2581e-05,0,0,0.044372,-0.018854,0,0.00025414,0,0,0,0.016285,7.2827e-05,0.0049073,0.11515,0.0070884,0.014416,9.7568e-08,0.3,0.02,0
0.01707,0.010014,0.016269,7.9135e-05,0.0049045,-3.386e-05,0,0,0.044322,-0.018819,0,-0.00026411,0,0,0,0.016269,7.9064e-05,0.0049045,-0.11983,0.0070842,0.014397,9.7243e-08,0.32,0.02,0
0.017956,0.0099901,0.016317,8.4799e-05,0.0049205,-0.00010542,0,0,0.044446,-0.018859,0,-0.00082228,0,0,0,0.016318,8.4114e-05,0.0049205,-0.37209,0.0071074,0.014436,9.8083e-08,0.34,0.02,0
0.018847,0.0099147,0.016431,8.8219e-05,0.0049557,-0.00018086,0,0,0.044753,-0.018983,0,-0.0014107,0,0,0,0.016433,8.6218e-05,0.0049557,-0.63396,0.0071582,0.014537,1.0017e-07,0.36,0.02,0
0.019747,0.0097921,0.016611,8.7593e-05,0.0050097,-0.00025741,0,0,0.045247,-0.019196,0,-0.0020078,0,0,0,0.016615,8.3584e-05,0.0050097,-0.89226,0.0072362,0.014701,1.0357e-07,0.38,0.02,0
0.020657,0.0096284,0.016856,8.1073e-05,0.0050812,-0.00033073,0,0,0.045922,-0.0195,0,-0.0025797,0,0,0,0.016863,7.4555e-05,0.0050812,-1.129,0.0073395,0.014928,1.0833e-07,0.4,0.02,0
0.021583,0.0094318,0.017159,6.7006e-05,0.0051677,-0.00039498,0,0,0.046765,-0.019893,0,-0.0030808,0,0,0,0.017168,5.7883e-05,0.0051677,-1.3231,0.0074645,0.015213,1.1445e-07,0.42,0.02,0
0.022528,0.0092128,0.017507,4.4496e-05,0.0052656,-0.00044323,0,0,0.047743,-0.020362,0,-0.0034572,0,0,0,0.017519,3.3254e-05,0.0052656,-1.453,0.0076058,0.015544,1.2181e-07,0.44,0.02,0
0.023493,0.0089836,0.017885,1.4258e-05,0.0053699,-0.00046855,0,0,0.048811,-0.020887,0,-0.0036547,0,0,0,0.017898,1.9826e-06,0.0053699,-1.5008,0.0077566,0.015906,1.3014e-07,0.46,0.02,0
0.02448,0.0087584,0.018272,-2.0613e-05,0.0054754,-0.00046564,0,0,0.049906,-0.021434,0,-0.003632,0,0,0,0.018284,-3.2458e-05,0.0054754,-1.4572,0.0079089,0.016277,1.3902e-07,0.48,0.02,0
0.025489,0.0085515,0.018643,-5.4911e-05,0.0055765,-0.00043283,0,0,0.05096,-0.021963,0,-0.003376,0,0,0,0.018653,-6.4925e-05,0.0055765,-1.3253,0.008055,0.016631,1.4789e-07,0.5,0.02,0
0.026519,0.0083774,0.018977,-8.3145e-05,0.0056682,-0.00037293,0,0,0.051905,-0.02243,0,-0.0029089,0,0,0,0.018985,-9.0439e-05,0.0056682,-1.1205,0.0081875,0.016946,1.5612e-07,0.52,0.02,0
0.027566,0.0082484,0.019255,-0.00010213,0.0057458,-0.0002925,0,0,0.052685,-0.022807,0,-0.0022815,0,0,0,0.019259,-0.00010655,0.0057458,-0.86553,0.0082995,0.017203,1.6312e-07,0.54,0.02,0
0.028626,0.0081744,0.019462,-0.00011236,0.0058048,-0.00019921,0,0,0.053262,-0.023077,0,-0.0015539,0,0,0,0.019464,-0.00011438,0.0058048,-0.58304,0.0083847,0.017391,1.6844e-07,0.56,0.02,0
0.029696,0.0081623,0.019589,-0.00011674,0.0058417,-9.9399e-05,0,0,0.053615,-0.023238,0,-0.00077531,0,0,0,0.01959,-0.00011724,0.0058417,-0.289,0.0084381,0.017505,1.7175e-07,0.58,0.02,0
0.030771,0.0082159,0.019633,-0.00011787,0.0058545,2.9011e-06,0,0,0.053735,-0.023292,0,2.2628e-05,0,0,0,0.019633,-0.00011787,0.0058545,0.008416,0.0084564,0.017544,1.7289e-07,0.6,0.02,0
0.031845,0.008336,0.019591,-0.00011576,0.0058427,0.0001047,0,0,0.05362,-0.023238,0,0.00081664,0,0,0,0.019592,-0.00011631,0.0058427,0.30438,0.0084394,0.017507,1.718e-07,0.62,0.02,0
0.032916,0.0085204,0.019468,-0.00010779,0.005808,0.00020194,0,0,0.053273,-0.023072,0,0.0015752,0,0,0,0.01947,-0.00010987,0.005808,0.59099,0.0083893,0.017393,1.6855e-07,0.64,0.02,0
0.033976,0.0087637,0.019269,-9.1043e-05,0.0057533,0.0002883,0,0,0.05271,-0.022793,0,0.0022487,0,0,0,0.019273,-9.5335e-05,0.0057533,0.85299,0.0083103,0.017206,1.6337e-07,0.66,0.02,0
0.035024,0.0090577,0.019006,-6.5027e-05,0.0056824,0.00035606,0,0,0.051963,-0.022415,0,0.0027773,0,0,0,0.019013,-7.1672e-05,0.0056824,1.0692,0.0082079,0.016956,1.5665e-07,0.68,0.02,0
0.036055,0.0093915,0.018698,-3.2906e-05,0.0055995,0.00039867,0,0,0.051084,-0.021966,0,0.0031096,0,0,0,0.018706,-4.1388e-05,0.0055995,1.2188,0.0080881,0.01666,1.4895e-07,0.7,0.02,0
0.037067,0.0097522,0.018364,-1.4224e-07,0.0055091,0.00041324,0,0,0.050134,-0.021486,0,0.0032233,0,0,0,0.018373,-9.4365e-06,0.0055091,1.2884,0.0079577,0.016338,1.4088e-07,0.72,0.02,0
0.03806,0.010127,0.018026,2.8092e-05,0.0054162,0.00040138,0,0,0.049178,-0.021014,0,0.0031308,0,0,0,0.018035,1.9145e-05,0.0054162,1.277,0.0078234,0.016015,1.3301e-07,0.74,0.02,0
0.039034,0.010503,0.017703,4.8712e-05,0.0053256,0.00036829,0,0,0.048273,-0.02058,0,0.0028727,0,0,0,0.017711,4.1032e-05,0.0053256,1.1946,0.0076925,0.015709,1.258e-07,0.76,0.02,0
0.039991,0.010869,0.017411,6.0955e-05,0.0052416,0.00032083,0,0,0.04746,-0.020204,0,0.0025025,0,0,0,0.017417,5.5025e-05,0.0052416,1.059,0.0075711,0.015436,1.1953e-07,0.78,0.02,0
0.040933,0.011217,0.017159,6.56e-05,0.0051672,0.00026592,0,0,0.046766,-0.019897,0,0.0020742,0,0,0,0.017163,6.1464e-05,0.0051672,0.89107,0.0074638,0.015206,1.1432e-07,0.8,0.02,0
0.041862,0.011539,0.016951,6.4123e-05,0.0051046,0.00020953,0,0,0.046201,-0.019658,0,0.0016343,0,0,0,0.016954,6.1524e-05,0.0051046,0.71076,0.0073733,0.01502,1.1019e-07,0.82,0.02,0
0.042781,0.011831,0.016789,5.8162e-05,0.0050541,0.0001563,0,0,0.045765,-0.019484,0,0.0012191,0,0,0,0.01679,5.6702e-05,0.0050541,0.53519,0.0073003,0.014878,1.0706e-07,0.84,0.02,0
0.043692,0.012089,0.016668,4.9298e-05,0.0050152,0.00010946,0,0,0.045446,-0.019367,0,0.00085377,0,0,0,0.016669,4.8577e-05,0.0050152,0.37735,0.0072442,0.014777,1.0481e-07,0.86,0.02,0
0.044599,0.012312,0.016584,3.8965e-05,0.0049869,7.0936e-05,0,0,0.045229,-0.019297,0,0.0005533,0,0,0,0.016584,3.866e-05,0.0049869,0.24565,0.0072033,0.01471,1.0329e-07,0.88,0.02,0
0.045502,0.0125,0.016529,2.8398e-05,0.0049673,4.1488e-05,0,0,0.045092,-0.019262,0,0.0003236,0,0,0,0.016529,2.8294e-05,0.0049673,0.14406,0.007175,0.014669,1.0233e-07,0.9,0.02,0
0.046402,0.012652,0.016497,1.8598e-05,0.0049546,2.0893e-05,0,0,0.045015,-0.019251,0,0.00016297,0,0,0,0.016497,1.8572e-05,0.0049546,0.072646,0.0071567,0.014648,1.018e-07,0.92,0.02,0
0.047302,0.012769,0.01648,1.0318e-05,0.0049471,8.166e-06,0,0,0.044978,-0.019253,0,6.3695e-05,0,0,0,0.01648,1.0314e-05,0.0049471,0.028409,0.0071458,0.014639,1.0154e-07,0.94,0.02,0
0.048202,0.012853,0.016472,4.082e-06,0.0049429,1.7606e-06,0,0,0.044965,-0.019262,0,1.3733e-05,0,0,0,0.016472,4.0818e-06,0.0049429,0.0061255,0.0071398,0.014638,1.0144e-07,0.96,0.02,0
0.049101,0.012902,0.01647,2.214e-07,0.004941,-2.4551e-07,0,0,0.044962,-0.019269,0,-1.915e-06,0,0,0,0.01647,2.214e-07,0.004941,-0.0008541,0.007137,0.014638,1.0141e-07,0.98,0.02,0
0.05,0.012919,0.016469,-1.0842e-06,0.0049404,0.00010556,0,0,0.044962,-0.019272,0,0.00082333,0,0,0,0.01647,-1.7607e-06,0.0049404,0.36718,0.0071361,0.01464,1.0143e-07,1,0.02,0
0,0,0.025246,0.010819,0.010819,0.0079019,0,0,0.056261,3.4694e-18,0,0.061635,0,0,0,0.028732,0.0073335,0.010819,23.805,0.015628,0.019886,3.6238e-07,0,0.04,0
0.0011252,0.0012327,0.024316,0.0065388,0.0092564,0.0071467,0,0,0.058732,-0.010599,0,0.055744,0,0,0,0.026833,0.004022,0.0092564,19.4,0.01337,0.020696,3.5899e-07,0.02,0.04,0
0.0023493,0.0025304,0.024235,0.0031728,0.0082224,0.0057123,0,0,0.062449,-0.019693,0,0.044556,0,0,0,0.025684,0.0017233,0.0082224,14.238,0.011877,0.021463,3.5523e-07,0.04,0.04,0
0.0036232,0.0037165,0.02383,0.0019939,0.0077472,0.0041897,0,0,0.062723,-0.022438,0,0.03268,0,0,0,0.024606,0.0012176,0.0077472,10.497,0.01119,0.020903,3.1942e-07,0.06,0.04,0
0.0048582,0.0047386,0.022681,0.0012601,0.0071823,0.0030265,0,0,0.060444,-0.023096,0,0.023606,0,0,0,0.0231,0.00084074,0.0071823,7.8895,0.010374,0.019863,2.6853e-07,0.08,0.04,0
0.006041,0.0056215,0.02157,0.00083474,0.0067213,0.0022476,0,0,0.057909,-0.022958,0,0.017531,0,0,0,0.021811,0.0005939,0.0067213,6.1161,0.0097086,0.018913,2.2847e-07,0.1,0.04,0
0.0071746,0.0063851,0.020622,0.00057358,0.0063588,0.0017128,0,0,0.055628,-0.022562,0,0.013359,0,0,0,0.020768,0.00042831,0.0063588,4.8479,0.0091849,0.018117,1.9875e-07,0.12,0.04,0
0.0082661,0.0070459,0.019846,0.00040852,0.0060764,0.001337,0,0,0.053703,-0.022105,0,0.010428,0,0,0,0.019938,0.00031699,0.0060764,3.9163,0.0087771,0.017468,1.7681e-07,0.14,0.04,0
0.0093227,0.0076161,0.019214,0.00030154,0.0058546,0.0010639,0,0,0.052101,-0.021657,0,0.0082986,0,0,0,0.019274,0.00024188,0.0058546,3.2097,0.0084567,0.016938,1.6032e-07,0.16,0.04,0
0.01035,0.0081048,0.018697,0.00023178,0.0056787,0.00085833,0,0,0.050772,-0.021243,0,0.0066949,0,0,0,0.018737,0.00019197,0.0056787,2.6557,0.0082025,0.016501,1.4767e-07,0.18,0.04,0
0.011354,0.0085186,0.018273,0.00018727,0.0055381,0.00069669,0,0,0.049666,-0.020868,0,0.0054342,0,0,0,0.0183,0.00016047,0.0055381,2.2028,0.0079994,0.016137,1.378e-07,0.2,0.04,0
0.012337,0.0088625,0.017925,0.00016082,0.0054257,0.00056272,0,0,0.048747,-0.020533,0,0.0043892,0,0,0,0.017943,0.00014302,0.0054257,1.8126,0.0078371,0.015834,1.3e-07,0.22,0.04,0
0.013303,0.0091399,0.017641,0.00014788,0.0053367,0.00044456,0,0,0.047987,-0.020236,0,0.0034676,0,0,0,0.017652,0.00013659,0.0053367,1.4548,0.0077085,0.015581,1.2382e-07,0.24,0.04,0
0.014256,0.0093535,0.017414,0.00014517,0.0052677,0.00033334,0,0,0.04737,-0.019978,0,0.0026001,0,0,0,0.01742,0.00013874,0.0052677,1.1055,0.0076088,0.015373,1.1897e-07,0.26,0.04,0
0.015198,0.0095051,0.017239,0.00015001,0.0052166,0.00022245,0,0,0.046886,-0.019759,0,0.0017351,0,0,0,0.017241,0.00014711,0.0052166,0.74569,0.007535,0.015207,1.1528e-07,0.28,0.04,0
0.016132,0.0095966,0.017113,0.00015977,0.0051819,0.00010729,0,0,0.046532,-0.019586,0,0.0008369,0,0,0,0.017114,0.00015909,0.0051819,0.3626,0.007485,0.015084,1.1264e-07,0.3,0.04,0
0.017059,0.0096295,0.017037,0.0001716,0.0051626,-1.4699e-05,0,0,0.046311,-0.019465,0,-0.00011465,0,0,0,0.017037,0.00017158,0.0051626,-0.049934,0.0074571,0.015006,1.1104e-07,0.32,0.04,0
0.017984,0.009606,0.01701,0.00018232,0.0051578,-0.00014389,0,0,0.046225,-0.019404,0,-0.0011223,0,0,0,0.017011,0.00018109,0.0051578,-0.48987,0.0074501,0.014976,1.1047e-07,0.34,0.04,0
0.018908,0.0095293,0.017032,0.00018844,0.0051662,-0.00027823,0,0,0.046278,-0.019413,0,-0.0021702,0,0,0,0.017037,0.00018385,0.0051662,-0.94608,0.0074623,0.014996,1.1095e-07,0.36,0.04,0
0.019835,0.0094037,0.017102,0.00018629,0.0051867,-0.00041313,0,0,0.046472,-0.019501,0,-0.0032224,0,0,0,0.017113,0.00017621,0.0051867,-1.3982,0.0074918,0.015069,1.1249e-07,0.38,0.04,0
0.020767,0.0092353,0.017218,0.00017214,0.0052172,-0.00054142,0,0,0.046805,-0.019675,0,-0.0042231,0,0,0,0.017236,0.00015496,0.0052172,-1.8174,0.0075359,0.015196,1.151e-07,0.4,0.04,0
0.021707,0.0090325,0.017375,0.00014261,0.0052553,-0.00065351,0,0,0.047267,-0.019939,0,-0.0050974,0,0,0,0.0174,0.00011786,0.0052553,-2.1687,0.007591,0.015371,1.1871e-07,0.42,0.04,0
0.022658,0.0088056,0.017565,9.5503e-05,0.0052981,-0.00073797,0,0,0.04784,-0.02029,0,-0.0057561,0,0,0,0.017596,6.4384e-05,0.0052981,-2.4146,0.0076528,0.015588,1.2319e-07,0.44,0.04,0
0.023621,0.0085674,0.017776,3.1781e-05,0.0053425,-0.00078291,0,0,0.048493,-0.020712,0,-0.0061067,0,0,0,0.017811,-2.695e-06,0.0053425,-2.5214,0.0077169,0.015833,1.2828e-07,0.46,0.04,0
0.024598,0.0083326,0.017996,-4.2348e-05,0.005386,-0.00077909,0,0,0.049178,-0.02117,0,-0.0060769,0,0,0,0.018029,-7.5935e-05,0.005386,-2.4686,0.0077798,0.016085,1.3364e-07,0.48,0.04,0
0.025588,0.0081166,0.018207,-0.00011517,0.0054275,-0.00072343,0,0,0.049839,-0.021616,0,-0.0056427,0,0,0,0.018235,-0.00014369,0.0054275,-2.2576,0.0078397,0.016323,1.3881e-07,0.5,0.04,0
0.026591,0.0079343,0.018395,-0.00017371,0.0054665,-0.00062162,0,0,0.050422,-0.021997,0,-0.0048486,0,0,0,0.018416,-0.0001945,0.0054665,-1.9152,0.007896,0.016524,1.4337e-07,0.52,0.04,0
0.027605,0.007799,0.01855,-0.00021067,0.0055019,-0.00048635,0,0,0.050889,-0.022279,0,-0.0037935,0,0,0,0.018563,-0.00022326,0.0055019,-1.484,0.0079472,0.016678,1.4706e-07,0.54,0.04,0
0.028627,0.0077205,0.018666,-0.00022819,0.0055314,-0.00033214,0,0,0.051226,-0.022462,0,-0.0025907,0,0,0,0.018672,-0.00023403,0.0055314,-1.0068,0.0079898,0.016783,1.4974e-07,0.56,0.04,0
0.029654,0.0077058,0.018741,-0.00023471,0.0055518,-0.0001696,0,0,0.051437,-0.022567,0,-0.0013229,0,0,0,0.018742,-0.00023622,0.0055518,-0.51204,0.0080192,0.016847,1.5145e-07,0.58,0.04,0
0.030684,0.0077585,0.018773,-0.00023728,0.0055607,-3.8504e-06,0,0,0.051528,-0.022612,0,-3.0033e-05,0,0,0,0.018773,-0.00023728,0.0055607,-0.011605,0.0080322,0.016876,1.522e-07,0.6,0.04,0
0.031715,0.0078793,0.018763,-0.00023592,0.005558,0.00016256,0,0,0.051498,-0.022596,0,0.001268,0,0,0,0.018764,-0.00023731,0.005558,0.4902,0.0080282,0.016868,1.5198e-07,0.62,0.04,0
0.032744,0.0080662,0.018708,-0.00022353,0.0055453,0.00032449,0,0,0.051334,-0.022498,0,0.002531,0,0,0,0.018713,-0.00022909,0.0055453,0.9817,0.0080099,0.016816,1.5069e-07,0.64,0.04,0
0.033768,0.0083142,0.018609,-0.00019168,0.0055253,0.00047133,0,0,0.051027,-0.022296,0,0.0036764,0,0,0,0.018621,-0.00020348,0.0055253,1.4352,0.0079809,0.016713,1.4827e-07,0.66,0.04,0
0.034785,0.0086147,0.018471,-0.0001382,0.0054998,0.00058853,0,0,0.050587,-0.021988,0,0.0045905,0,0,0,0.018489,-0.00015679,0.0054998,1.8096,0.0079442,0.016559,1.4478e-07,0.68,0.04,0
0.035792,0.0089563,0.018302,-7.0368e-05,0.0054694,0.00066336,0,0,0.050046,-0.021605,0,0.0051742,0,0,0,0.018326,-9.4288e-05,0.0054694,2.0652,0.0079003,0.016364,1.4048e-07,0.7,0.04,0
0.036787,0.0093255,0.018114,-1.1058e-06,0.005434,0.00069006,0,0,0.049454,-0.021197,0,0.0053825,0,0,0,0.018141,-2.7354e-05,0.005434,2.1783,0.0078491,0.016146,1.3574e-07,0.72,0.04,0
0.03777,0.0097083,0.017923,5.7956e-05,0.0053942,0.0006716,0,0,0.048862,-0.020812,0,0.0052385,0,0,0,0.017948,3.2744e-05,0.0053942,2.1499,0.0077917,0.015926,1.3099e-07,0.74,0.04,0
0.038742,0.010092,0.017739,0.00010064,0.005352,0.00061709,0,0,0.048311,-0.02048,0,0.0048133,0,0,0,0.017761,7.9075e-05,0.005352,2.0012,0.0077307,0.015723,1.2658e-07,0.76,0.04,0
0.039703,0.010464,0.017574,0.00012586,0.0053099,0.0005383,0,0,0.047829,-0.020218,0,0.0041987,0,0,0,0.01759,0.00010927,0.0053099,1.7654,0.0076698,0.015547,1.2273e-07,0.78,0.04,0
0.040655,0.010817,0.017431,0.00013555,0.0052701,0.00044671,0,0,0.047429,-0.020025,0,0.0034843,0,0,0,0.017443,0.00012402,0.0052701,1.4785,0.0076124,0.015405,1.1955e-07,0.8,0.04,0
0.0416,0.011142,0.017316,0.00013267,0.0052345,0.00035222,0,0,0.047116,-0.019897,0,0.0027473,0,0,0,0.017323,0.00012546,0.0052345,1.1738,0.0075609,0.015297,1.1708e-07,0.82,0.04,0
0.042539,0.011437,0.017226,0.00012048,0.005204,0.00026262,0,0,0.046886,-0.019826,0,0.0020485,0,0,0,0.01723,0.00011645,0.005204,0.87939,0.0075168,0.015222,1.1527e-07,0.84,0.04,0
0.043475,0.011697,0.017161,0.00010213,0.005179,0.00018351,0,0,0.046731,-0.0198,0,0.0014314,0,0,0,0.017163,0.00010015,0.005179,0.61625,0.0074808,0.015175,1.1405e-07,0.86,0.04,0
0.044409,0.011921,0.017118,8.06e-05,0.0051595,0.00011831,0,0,0.046637,-0.019808,0,0.0009228,0,0,0,0.017119,7.9778e-05,0.0051595,0.39784,0.0074526,0.015152,1.1331e-07,0.88,0.04,0
0.045341,0.012109,0.017092,5.8511e-05,0.005145,6.846e-05,0,0,0.046592,-0.019837,0,0.00053398,0,0,0,0.017092,5.8236e-05,0.005145,0.23028,0.0074317,0.015145,1.1293e-07,0.9,0.04,0
0.046272,0.012261,0.017078,3.7988e-05,0.0051348,3.3696e-05,0,0,0.046578,-0.019877,0,0.00026283,0,0,0,0.017078,3.7922e-05,0.0051348,0.1133,0.0074169,0.015149,1.128e-07,0.92,0.04,0
0.047204,0.012378,0.017073,2.0632e-05,0.005128,1.2393e-05,0,0,0.046584,-0.019919,0,9.6665e-05,0,0,0,0.017073,2.0623e-05,0.005128,0.041641,0.0074071,0.015158,1.1282e-07,0.94,0.04,0
0.048136,0.01246,0.017072,7.5549e-06,0.0051238,1.9329e-06,0,0,0.046597,-0.019953,0,1.5076e-05,0,0,0,0.017072,7.5547e-06,0.0051238,0.0064899,0.007401,0.015168,1.129e-07,0.96,0.04,0
0.049068,0.01251,0.017072,-5.4197e-07,0.0051216,-9.6938e-07,0,0,0.046608,-0.019976,0,-7.5612e-06,0,0,0,0.017072,-5.4202e-07,0.0051216,-0.0032532,0.0073978,0.015175,1.1297e-07,0.98,0.04,0
0.05,0.012526,0.017073,-3.2804e-06,0.0051209,0.00010499,0,0,0.046613,-0.019984,0,0.00081891,0,0,0,0.017073,-3.9259e-06,0.0051209,0.35225,0.0073968,0.015178,1.1301e-07,1,0.04,0
0,0,0.022969,0.0098437,0.0098437,0.0069433,0,0,0.051187,4.3368e-19,0,0.054158,0,0,0,0.02596,0.0068523,0.0098437,23.308,0.014219,0.017802,2.6237e-07,0,0.06,0
0.0010237,0.0010832,0.022668,0.0074074,0.0090227,0.0066241,0,0,0.053217,-0.0062993,0,0.051668,0,0,0,0.025142,0.0049333,0.0090227,20.481,0.013033,0.018506,2.727e-07,0.02,0.06,0
0.0021287,0.002219,0.02287,0.0049039,0.0083322,0.0060453,0,0,0.056698,-0.01337,0,0.047153,0,0,0,0.024715,0.0030592,0.0083322,16.97,0.012035,0.01956,2.9223e-07,0.04,0.06,0
0.0032917,0.00331,0.022818,0.0031193,0.0077813,0.0049951,0,0,0.058644,-0.018182,0,0.038962,0,0,0,0.024012,0.0019251,0.0077813,13.446,0.01124,0.019819,2.8529e-07,0.06,0.06,0
0.0044745,0.004299,0.022446,0.0021006,0.0073639,0.0039561,0,0,0.058819,-0.020527,0,0.030858,0,0,0,0.023188,0.0013584,0.0073639,10.626,0.010637,0.019532,2.6426e-07,0.08,0.06,0
0.0056444,0.0051719,0.021822,0.0014501,0.0069816,0.0031047,0,0,0.057877,-0.021573,0,0.024216,0,0,0,0.022284,0.00098742,0.0069816,8.4756,0.010084,0.019022,2.3878e-07,0.1,0.06,0
0.0067895,0.0059362,0.021161,0.0010304,0.0066573,0.0024556,0,0,0.056563,-0.021945,0,0.019154,0,0,0,0.021456,0.00073515,0.0066573,6.8553,0.0096161,0.018485,2.1572e-07,0.12,0.06,0
0.0079069,0.0066018,0.020543,0.00075213,0.0063886,0.0019653,0,0,0.055203,-0.021982,0,0.015329,0,0,0,0.020736,0.00055886,0.0063886,5.6166,0.009228,0.017986,1.9641e-07,0.14,0.06,0
0.0089976,0.0071784,0.019996,0.00056532,0.0061685,0.001592,0,0,0.053928,-0.021852,0,0.012417,0,0,0,0.020126,0.00043575,0.0061685,4.6529,0.00891,0.017541,1.8067e-07,0.16,0.06,0
0.010064,0.0076738,0.019522,0.00043992,0.0059887,0.0013018,0,0,0.052781,-0.02164,0,0.010154,0,0,0,0.019611,0.00035152,0.0059887,3.8847,0.0086503,0.01715,1.6786e-07,0.18,0.06,0
0.011109,0.0080943,0.019116,0.00035773,0.005842,0.0010692,0,0,0.051767,-0.021389,0,0.00834,0,0,0,0.019176,0.00029698,0.005842,3.2519,0.0084384,0.016807,1.5738e-07,0.2,0.06,0
0.012135,0.0084444,0.018768,0.00030731,0.0057226,0.00087505,0,0,0.050877,-0.021119,0,0.0068254,0,0,0,0.018809,0.00026592,0.0057226,2.7078,0.0082659,0.016506,1.4874e-07,0.22,0.06,0
0.013144,0.0087277,0.018472,0.00028102,0.0056259,0.00070446,0,0,0.0501,-0.020845,0,0.0054948,0,0,0,0.018499,0.00025378,0.0056259,2.2144,0.0081263,0.01624,1.4157e-07,0.24,0.06,0
0.014139,0.0089467,0.018222,0.00027329,0.0055485,0.00054601,0,0,0.049425,-0.020573,0,0.0042589,0,0,0,0.018238,0.0002567,0.0055485,1.7409,0.0080145,0.016006,1.3561e-07,0.26,0.06,0
0.015121,0.0091033,0.018013,0.00027937,0.0054876,0.00039098,0,0,0.048848,-0.020312,0,0.0030496,0,0,0,0.018021,0.00027075,0.0054876,1.2624,0.0079266,0.015802,1.3069e-07,0.28,0.06,0
0.016093,0.0091989,0.017842,0.00029456,0.005441,0.00023313,0,0,0.048364,-0.020071,0,0.0018184,0,0,0,0.017845,0.00029146,0.005441,0.76102,0.0078592,0.015629,1.2671e-07,0.3,0.06,0
0.017056,0.0092351,0.017708,0.00031372,0.0054065,6.8871e-05,0,0,0.047975,-0.019862,0,0.00053719,0,0,0,0.017708,0.00031345,0.0054065,0.22685,0.0078094,0.015489,1.2362e-07,0.32,0.06,0
0.018012,0.009214,0.017609,0.00033107,0.005382,-0.00010251,0,0,0.047685,-0.019699,0,-0.00079956,0,0,0,0.01761,0.00033046,0.005382,-0.33992,0.007774,0.015388,1.2142e-07,0.34,0.06,0
0.018963,0.0091382,0.017544,0.00034035,0.0053653,-0.00027861,0,0,0.047497,-0.019597,0,-0.0021731,0,0,0,0.017549,0.00033584,0.0053653,-0.92755,0.0077499,0.01533,1.2011e-07,0.36,0.06,0
0.019911,0.009012,0.017512,0.00033512,0.0053541,-0.00045387,0,0,0.047415,-0.019574,0,-0.0035402,0,0,0,0.017524,0.00032314,0.0053541,-1.5126,0.0077337,0.015318,1.197e-07,0.38,0.06,0
0.02086,0.0088413,0.017511,0.00030927,0.005346,-0.00061976,0,0,0.047442,-0.019643,0,-0.0048341,0,0,0,0.017533,0.00028697,0.005346,-2.0608,0.007722,0.015355,1.2017e-07,0.4,0.06,0
0.021809,0.0086342,0.017538,0.000257,0.0053384,-0.00076506,0,0,0.047577,-0.019817,0,-0.0059675,0,0,0,0.017572,0.0002232,0.0053384,-2.53,0.007711,0.01544,1.2146e-07,0.42,0.06,0
0.022763,0.0084012,0.017589,0.00017414,0.005329,-0.00087593,0,0,0.047815,-0.020104,0,-0.0068323,0,0,0,0.017633,0.00013019,0.005329,-2.8722,0.0076974,0.015569,1.2347e-07,0.44,0.06,0
0.023722,0.0081552,0.017658,6.0537e-05,0.0053156,-0.00093719,0,0,0.048136,-0.020495,0,-0.0073101,0,0,0,0.017708,1.0766e-05,0.0053156,-3.0399,0.0076781,0.015731,1.2597e-07,0.46,0.06,0
0.024688,0.0079115,0.017735,-7.377e-05,0.0052984,-0.00093528,0,0,0.048503,-0.020951,0,-0.0072952,0,0,0,0.017784,-0.00012275,0.0052984,-2.9981,0.0076532,0.015905,1.2862e-07,0.48,0.06,0
0.025662,0.0076869,0.017808,-0.00020624,0.0052806,-0.00086546,0,0,0.048857,-0.021399,0,-0.0067506,0,0,0,0.01785,-0.00024772,0.0052806,-2.7442,0.0076275,0.016063,1.31e-07,0.5,0.06,0
0.026642,0.0074975,0.017868,-0.00030916,0.0052678,-0.0007366,0,0,0.049143,-0.02175,0,-0.0057455,0,0,0,0.017898,-0.00033896,0.0052678,-2.3167,0.007609,0.01618,1.3275e-07,0.52,0.06,0
0.027628,0.0073572,0.017913,-0.00036719,0.0052637,-0.00057027,0,0,0.049331,-0.02196,0,-0.0044481,0,0,0,0.01793,-0.00038496,0.0052637,-1.7851,0.0076031,0.016245,1.3381e-07,0.54,0.06,0
0.028616,0.0072759,0.017944,-0.00038773,0.0052668,-0.00038911,0,0,0.04944,-0.022053,0,-0.0030351,0,0,0,0.017952,-0.00039598,0.0052668,-1.2154,0.0076076,0.016273,1.3437e-07,0.56,0.06,0
0.029605,0.0072596,0.017968,-0.00039191,0.0052728,-0.00020652,0,0,0.049511,-0.022093,0,-0.0016109,0,0,0,0.01797,-0.00039423,0.0052728,-0.64439,0.0076163,0.016288,1.3477e-07,0.58,0.06,0
0.030596,0.0073114,0.017991,-0.00039684,0.0052783,-2.3312e-05,0,0,0.04958,-0.022133,0,-0.00018183,0,0,0,0.017991,-0.00039687,0.0052783,-0.072639,0.0076242,0.016309,1.3525e-07,0.6,0.06,0
0.031588,0.0074322,0.018012,-0.00040252,0.0052828,0.00016491,0,0,0.049644,-0.022173,0,0.0012863,0,0,0,0.018013,-0.000404,0.0052828,0.51304,0.0076308,0.016334,1.3581e-07,0.62,0.06,0
0.032582,0.0076204,0.018024,-0.00039183,0.0052896,0.00035733,0,0,0.049663,-0.022157,0,0.0027872,0,0,0,0.018031,-0.00039876,0.0052896,1.1112,0.0076405,0.016345,1.3615e-07,0.64,0.06,0
0.033575,0.0078719,0.018018,-0.0003436,0.0053023,0.00054056,0,0,0.049591,-0.022019,0,0.0042164,0,0,0,0.018034,-0.0003595,0.0053023,1.6848,0.0076588,0.016317,1.3593e-07,0.66,0.06,0
0.034565,0.0081782,0.01799,-0.0002504,0.0053218,0.00069191,0,0,0.049405,-0.021732,0,0.0053969,0,0,0,0.018016,-0.00027661,0.0053218,2.1693,0.0076871,0.016234,1.349e-07,0.68,0.06,0
0.035551,0.0085273,0.017941,-0.00012757,0.0053441,0.0007898,0,0,0.049129,-0.02134,0,0.0061604,0,0,0,0.017976,-0.00016203,0.0053441,2.4981,0.0077193,0.016107,1.3312e-07,0.7,0.06,0
0.036531,0.0089044,0.017879,-2.7271e-06,0.005363,0.0008253,0,0,0.048814,-0.020926,0,0.0064374,0,0,0,0.017917,-4.0736e-05,0.005363,2.6369,0.0077465,0.015958,1.309e-07,0.72,0.06,0
0.037504,0.0092944,0.017814,0.00010177,0.0053747,0.00080306,0,0,0.048513,-0.020564,0,0.0062639,0,0,0,0.01785,6.5436e-05,0.0053747,2.5907,0.0077635,0.015813,1.2861e-07,0.74,0.06,0
0.038471,0.0096836,0.017753,0.00017599,0.0053787,0.00073644,0,0,0.048259,-0.02029,0,0.0057442,0,0,0,0.017784,0.00014519,0.0053787,2.395,0.0077692,0.015691,1.2655e-07,0.76,0.06,0
0.039434,0.01006,0.017701,0.00021982,0.0053764,0.00064047,0,0,0.048068,-0.02011,0,0.0049956,0,0,0,0.017725,0.00019639,0.0053764,2.0954,0.0077659,0.015598,1.249e-07,0.78,0.06,0
0.040394,0.010416,0.017662,0.0002369,0.0053695,0.00052908,0,0,0.047939,-0.020017,0,0.0041268,0,0,0,0.017678,0.00022085,0.0053695,1.7376,0.007756,0.015536,1.237e-07,0.8,0.06,0
0.041352,0.010743,0.017634,0.0002322,0.0053599,0.000414,0,0,0.047869,-0.019998,0,0.0032292,0,0,0,0.017644,0.00022236,0.0053599,1.3621,0.007742,0.015505,1.2298e-07,0.82,0.06,0
0.042309,0.011038,0.017618,0.00021091,0.0053488,0.00030475,0,0,0.047852,-0.020038,0,0.002377,0,0,0,0.017624,0.00020558,0.0053488,1.0027,0.0077261,0.0155,1.2269e-07,0.84,0.06,0
0.043266,0.011297,0.017614,0.0001785,0.0053377,0.00020842,0,0,0.047877,-0.020121,0,0.0016257,0,0,0,0.017616,0.00017601,0.0053377,0.68479,0.00771,0.015517,1.2276e-07,0.86,0.06,0
0.044224,0.01152,0.017618,0.00014029,0.0053274,0.0001295,0,0,0.047932,-0.02023,0,0.0010101,0,0,0,0.017619,0.00013933,0.0053274,0.42452,0.0076951,0.015548,1.2309e-07,0.88,0.06,0
0.045183,0.011706,0.017627,0.000101,0.0053185,6.9912e-05,0,0,0.048005,-0.020348,0,0.00054531,0,0,0,0.017628,0.00010072,0.0053185,0.22854,0.0076823,0.015587,1.2358e-07,0.9,0.06,0
0.046144,0.011857,0.01764,6.4481e-05,0.0053114,2.9356e-05,0,0,0.048082,-0.020463,0,0.00022898,0,0,0,0.01764,6.4432e-05,0.0053114,0.095698,0.007672,0.015628,1.2412e-07,0.92,0.06,0
0.047106,0.011973,0.017653,3.3612e-05,0.0053061,5.7859e-06,0,0,0.048154,-0.020563,0,4.513e-05,0,0,0,0.017653,3.361e-05,0.0053061,0.018815,0.0076644,0.015664,1.2464e-07,0.94,0.06,0
0.04807,0.012054,0.017664,1.0367e-05,0.0053025,-4.1132e-06,0,0,0.048212,-0.020639,0,-3.2083e-05,0,0,0,0.017664,1.0366e-05,0.0053025,-0.013349,0.0076591,0.015692,1.2505e-07,0.96,0.06,0
0.049035,0.012103,0.017672,-4.0192e-06,0.0053004,-4.4931e-06,0,0,0.048249,-0.020687,0,-3.5046e-05,0,0,0,0.017672,-4.0203e-06,0.0053004,-0.014564,0.0076561,0.01571,1.2532e-07,0.98,0.06,0
0.05,0.012119,0.017674,-8.8834e-06,0.0052997,0.00010351,0,0,0.048262,-0.020703,0,0.00080737,0,0,0,0.017675,-9.4893e-06,0.0052997,0.33536,0.0076551,0.015717,1.2542e-07,1,0.06,0
0,0,0.021828,0.0093548,0.0093548,0.0062867,0,0,0.048645,4.3368e-19,0,0.049037,0,0,0,0.024447,0.006736,0.0093548,22.615,0.013513,0.016557,2.136e-07,0,0.08,0
0.0009729,0.00098073,0.021658,0.0076154,0.0087819,0.0061424,0,0,0.050216,-0.0045494,0,0.047911,0,0,0,0.023965,0.0053078,0.0087819,20.59,0.012685,0.017186,2.2521e-07,0.02,0.08,0
0.0020086,0.0019956,0.02197,0.0057746,0.0083233,0.0058383,0,0,0.053221,-0.0099401,0,0.045539,0,0,0,0.023855,0.0038894,0.0083233,17.896,0.012023,0.018159,2.4684e-07,0.04,0.08,0
0.0031018,0.0029892,0.022127,0.0041519,0.0078837,0.0051942,0,0,0.055549,-0.014554,0,0.040515,0,0,0,0.02352,0.0027589,0.0078837,15.013,0.011388,0.018732,2.5433e-07,0.06,0.08,0
0.0042306,0.0039175,0.022061,0.0029557,0.0075049,0.0044048,0,0,0.056767,-0.017742,0,0.034357,0,0,0,0.023027,0.0019891,0.0075049,12.378,0.01084,0.018894,2.4947e-07,0.08,0.08,0
0.0053724,0.0047586,0.021797,0.0021367,0.0071802,0.0036498,0,0,0.057006,-0.019669,0,0.028469,0,0,0,0.022453,0.001481,0.0071802,10.185,0.010371,0.018782,2.3766e-07,0.1,0.08,0
0.0065108,0.0055073,0.021411,0.0015693,0.0068941,0.0030029,0,0,0.056616,-0.020766,0,0.023423,0,0,0,0.021855,0.0011248,0.0068941,8.4202,0.0099581,0.018532,2.2327e-07,0.12,0.08,0
0.0076371,0.0061666,0.020984,0.0011752,0.0066479,0.0024747,0,0,0.055912,-0.021344,0,0.019302,0,0,0,0.021289,0.00087069,0.0066479,7.0141,0.0096025,0.01823,2.0905e-07,0.14,0.08,0
0.0087473,0.006742,0.020563,0.00090027,0.006439,0.0020494,0,0,0.055084,-0.021601,0,0.015986,0,0,0,0.020774,0.00068893,0.006439,5.8876,0.0093008,0.017916,1.9606e-07,0.16,0.08,0
0.0098404,0.0072392,0.020169,0.00071003,0.0062636,0.0017059,0,0,0.05423,-0.021659,0,0.013306,0,0,0,0.020317,0.00056161,0.0062636,4.9725,0.0090474,0.017611,1.8459e-07,0.18,0.08,0
0.010917,0.0076631,0.019809,0.0005818,0.0061173,0.0014236,0,0,0.053398,-0.021588,0,0.011104,0,0,0,0.019914,0.00047696,0.0061173,4.2116,0.008836,0.01732,1.7456e-07,0.2,0.08,0
0.011976,0.0080177,0.019485,0.00050052,0.0059957,0.0011848,0,0,0.052609,-0.021431,0,0.0092412,0,0,0,0.019559,0.00042687,0.0059957,3.5573,0.0086605,0.017044,1.6579e-07,0.22,0.08,0
0.013021,0.0083061,0.019195,0.00045576,0.0058952,0.00097459,0,0,0.051869,-0.021214,0,0.0076018,0,0,0,0.019245,0.00040521,0.0058952,2.9692,0.0085153,0.016783,1.5809e-07,0.24,0.08,0
0.014051,0.0085305,0.018935,0.00043954,0.0058124,0.00078081,0,0,0.051178,-0.020954,0,0.0060903,0,0,0,0.018968,0.00040663,0.0058124,2.4131,0.0083956,0.016535,1.5128e-07,0.26,0.08,0
0.015068,0.0086926,0.018703,0.0004449,0.0057443,0.00059363,0,0,0.050538,-0.020667,0,0.0046303,0,0,0,0.018722,0.00042562,0.0057443,1.8603,0.0082973,0.016301,1.4526e-07,0.28,0.08,0
0.016073,0.0087937,0.018495,0.00046476,0.0056879,0.00040577,0,0,0.049948,-0.02037,0,0.003165,0,0,0,0.018504,0.00045564,0.0056879,1.2886,0.0082159,0.016084,1.3994e-07,0.3,0.08,0
0.017066,0.008835,0.01831,0.00049119,0.0056404,0.00021278,0,0,0.049412,-0.020082,0,0.0016597,0,0,0,0.018313,0.00048865,0.0056404,0.68404,0.0081473,0.015888,1.3532e-07,0.32,0.08,0
0.018049,0.0088181,0.018147,0.00051514,0.0055987,1.3527e-05,0,0,0.048939,-0.019826,0,0.00010551,0,0,0,0.018147,0.00051513,0.0055987,0.043958,0.008087,0.015719,1.3142e-07,0.34,0.08,0
0.019023,0.0087454,0.018004,0.00052675,0.0055592,-0.00018943,0,0,0.048534,-0.019627,0,-0.0014776,0,0,0,0.018006,0.00052469,0.0055592,-0.62092,0.0080299,0.015586,1.2827e-07,0.36,0.08,0
0.019991,0.0086207,0.017879,0.00051629,0.0055187,-0.00038988,0,0,0.048206,-0.019509,0,-0.0030411,0,0,0,0.017888,0.00050754,0.0055187,-1.2857,0.0079714,0.015495,1.2588e-07,0.38,0.08,0
0.020952,0.0084496,0.017771,0.00047496,0.0054739,-0.00057866,0,0,0.04796,-0.019496,0,-0.0045136,0,0,0,0.017791,0.00045562,0.0054739,-1.914,0.0079068,0.01545,1.2423e-07,0.4,0.08,0
0.021909,0.0082398,0.017679,0.00039602,0.0054226,-0.00074429,0,0,0.047801,-0.019604,0,-0.0058054,0,0,0,0.017711,0.00036402,0.0054226,-2.4613,0.0078327,0.015452,1.2329e-07,0.42,0.08,0
0.022864,0.0080014,0.017602,0.00027215,0.0053622,-0.00087342,0,0,0.047735,-0.019851,0,-0.0068127,0,0,0,0.017646,0.00022824,0.0053622,-2.878,0.0077455,0.015502,1.2298e-07,0.44,0.08,0
0.023818,0.0077476,0.017538,0.0001005,0.0052915,-0.00094834,0,0,0.04776,-0.020245,0,-0.007397,0,0,0,0.017589,4.9076e-05,0.0052915,-3.1039,0.0076432,0.015594,1.2316e-07,0.46,0.08,0
0.024774,0.0074945,0.017479,-0.00010992,0.0052107,-0.00095116,0,0,0.047846,-0.02075,0,-0.0074191,0,0,0,0.01753,-0.0001612,0.0052107,-3.0864,0.0075266,0.01571,1.2349e-07,0.48,0.08,0
0.025732,0.0072606,0.017417,-0.00032068,0.0051289,-0.00087098,0,0,0.047924,-0.021253,0,-0.0067937,0,0,0,0.01746,-0.00036335,0.0051289,-2.8044,0.0074084,0.015809,1.2346e-07,0.5,0.08,0
0.026691,0.0070643,0.017347,-0.00047567,0.0050615,-0.00072274,0,0,0.047915,-0.021595,0,-0.0056374,0,0,0,0.017377,-0.00050493,0.0050615,-2.3183,0.0073111,0.015849,1.2271e-07,0.52,0.08,0
0.027649,0.0069206,0.017275,-0.00054448,0.0050191,-0.00054183,0,0,0.047797,-0.021698,0,-0.0042263,0,0,0,0.017291,-0.00056094,0.0050191,-1.7401,0.0072498,0.015818,1.2131e-07,0.54,0.08,0
0.028603,0.0068385,0.017214,-0.00054792,0.0049997,-0.00036619,0,0,0.047634,-0.021636,0,-0.0028563,0,0,0,0.017221,-0.00055547,0.0049997,-1.1806,0.0072218,0.015752,1.1982e-07,0.56,0.08,0
0.029554,0.0068221,0.017183,-0.00053603,0.0049941,-0.00020924,0,0,0.047537,-0.021567,0,-0.0016321,0,0,0,0.017185,-0.0005385,0.0049941,-0.67648,0.0072137,0.015706,1.1897e-07,0.58,0.08,0
0.030505,0.0068731,0.017198,-0.00054414,0.0049963,-5.9936e-05,0,0,0.047588,-0.021608,0,-0.00046751,0,0,0,0.017199,-0.00054434,0.0049963,-0.19355,0.0072168,0.015723,1.1928e-07,0.6,0.08,0
0.031458,0.0069924,0.017259,-0.00057231,0.005006,0.00010427,0,0,0.047787,-0.021756,0,0.00081332,0,0,0,0.01726,-0.00057292,0.005006,0.33503,0.0072309,0.0158,1.2073e-07,0.62,0.08,0
0.032416,0.0071799,0.017348,-0.0005852,0.0050288,0.00029449,0,0,0.048045,-0.021895,0,0.002297,0,0,0,0.017353,-0.00059004,0.0050288,0.94055,0.0072639,0.015897,1.2279e-07,0.64,0.08,0
0.033379,0.0074335,0.017444,-0.00053264,0.0050735,0.00049732,0,0,0.048246,-0.021864,0,0.0038791,0,0,0,0.017458,-0.00054639,0.0050735,1.5834,0.0073284,0.015955,1.2471e-07,0.66,0.08,0
0.034346,0.0077455,0.017532,-0.00039374,0.0051414,0.00067475,0,0,0.048322,-0.021587,0,0.0052631,0,0,0,0.017557,-0.0004191,0.0051414,2.1527,0.0074265,0.015941,1.2593e-07,0.68,0.08,0
0.035312,0.0081027,0.017604,-0.00019903,0.0052216,0.00079142,0,0,0.048292,-0.02114,0,0.0061731,0,0,0,0.017639,-0.00023414,0.0052216,2.5403,0.0075422,0.015866,1.2634e-07,0.7,0.08,0
0.036277,0.0084884,0.017664,-4.5101e-06,0.005298,0.00083239,0,0,0.048229,-0.02068,0,0.0064927,0,0,0,0.017704,-4.3638e-05,0.005298,2.6913,0.0076526,0.01577,1.2629e-07,0.72,0.08,0
0.037241,0.0088857,0.017719,0.00015181,0.0053614,0.00080851,0,0,0.048196,-0.020317,0,0.0063063,0,0,0,0.017757,0.00011468,0.0053614,2.6295,0.0077442,0.015691,1.2621e-07,0.74,0.08,0
0.038205,0.00928,0.017775,0.00026117,0.0054108,0.00073733,0,0,0.04822,-0.020084,0,0.0057512,0,0,0,0.017806,0.00023018,0.0054108,2.4065,0.0078156,0.015643,1.2636e-07,0.76,0.08,0
0.03917,0.0096596,0.017831,0.00032604,0.0054471,0.00063631,0,0,0.048297,-0.019972,0,0.0049632,0,0,0,0.017854,0.00030294,0.0054471,2.0791,0.0078681,0.015628,1.2681e-07,0.78,0.08,0
0.040137,0.010016,0.017888,0.00035271,0.0054721,0.00051884,0,0,0.04842,-0.019966,0,0.0040469,0,0,0,0.017903,0.00033737,0.0054721,1.6933,0.0079041,0.015644,1.2758e-07,0.8,0.08,0
0.041107,0.010342,0.017944,0.00034647,0.005487,0.00039708,0,0,0.048581,-0.020048,0,0.0030972,0,0,0,0.017953,0.00033751,0.005487,1.292,0.0079257,0.015688,1.2865e-07,0.82,0.08,0
0.04208,0.010635,0.017999,0.00031458,0.0054942,0.00028157,0,0,0.04877,-0.0202,0,0.0021962,0,0,0,0.018004,0.0003101,0.0054942,0.91193,0.007936,0.015755,1.2999e-07,0.84,0.08,0
0.043058,0.010892,0.018054,0.00026522,0.0054958,0.00018058,0,0,0.048977,-0.020399,0,0.0014085,0,0,0,0.018056,0.00026338,0.0054958,0.58154,0.0079384,0.015838,1.3151e-07,0.86,0.08,0
0.04404,0.011111,0.018107,0.00020674,0.005494,9.9359e-05,0,0,0.049189,-0.02062,0,0.000775,0,0,0,0.018107,0.00020619,0.005494,0.31803,0.0079358,0.015929,1.3311e-07,0.88,0.08,0
0.045025,0.011295,0.018155,0.00014661,0.0054904,4.0109e-05,0,0,0.049391,-0.020841,0,0.00031285,0,0,0,0.018155,0.00014652,0.0054904,0.12761,0.0079306,0.016019,1.3466e-07,0.9,0.08,0
0.046015,0.011442,0.018197,9.0809e-05,0.0054863,2.3754e-06,0,0,0.049571,-0.021042,0,1.8528e-05,0,0,0,0.018197,9.0809e-05,0.0054863,0.0075167,0.0079247,0.016101,1.3605e-07,0.92,0.08,0
0.047008,0.011555,0.018231,4.3736e-05,0.0054825,-1.6288e-05,0,0,0.049721,-0.021211,0,-0.00012705,0,0,0,0.018231,4.3721e-05,0.0054825,-0.051312,0.0079192,0.016169,1.3721e-07,0.94,0.08,0
0.048004,0.011635,0.018257,8.3492e-06,0.0054795,-1.9701e-05,0,0,0.049831,-0.021338,0,-0.00015367,0,0,0,0.018257,8.328e-06,0.0054795,-0.061857,0.0079149,0.01622,1.3807e-07,0.96,0.08,0
0.049002,0.011682,0.018272,-1.3525e-05,0.0054777,-1.2547e-05,0,0,0.049899,-0.021416,0,-9.7868e-05,0,0,0,0.018272,-1.3533e-05,0.0054777,-0.039314,0.0079122,0.016252,1.386e-07,0.98,0.08,0
0.05,0.011698,0.018278,-2.0916e-05,0.005477,0.00010081,0,0,0.049922,-0.021442,0,0.00078631,0,0,0,0.018278,-2.1472e-05,0.005477,0.31564,0.0079112,0.016263,1.388e-07,1,0.08,0
0,0,0.021192,0.0090824,0.0090824,0.0057768,0,0,0.047228,-1.9516e-18,0,0.045059,0,0,0,0.023506,0.0067687,0.0090824,21.827,0.013119,0.015709,1.8461e-07,0,0.1,0
0.00094457,0.00090118,0.021076,0.0076882,0.0086293,0.0056976,0,0,0.048543,-0.0036706,0,0.044442,0,0,0,0.023173,0.0055917,0.0086293,20.201,0.012465,0.016276,1.9571e-07,0.02,0.1,0
0.0019417,0.0018214,0.021413,0.0062502,0.0082989,0.0055203,0,0,0.051145,-0.00799,0,0.043058,0,0,0,0.02321,0.0044534,0.0082989,18.03,0.011987,0.01716,2.1623e-07,0.04,0.1,0
0.0029904,0.0027278,0.021656,0.0048548,0.0079533,0.0051029,0,0,0.053441,-0.012084,0,0.039803,0,0,0,0.023085,0.0034264,0.0079533,15.638,0.011488,0.017831,2.2913e-07,0.06,0.1,0
0.0040794,0.0035893,0.021755,0.0036866,0.0076324,0.0045347,0,0,0.055077,-0.015388,0,0.035371,0,0,0,0.022829,0.0026124,0.0076324,13.328,0.011024,0.018232,2.3355e-07,0.08,0.1,0
0.0051934,0.0043851,0.021698,0.0027864,0.0073455,0.0039239,0,0,0.055977,-0.017781,0,0.030606,0,0,0,0.02248,0.0020045,0.0073455,11.268,0.01061,0.018396,2.3123e-07,0.1,0.1,0
0.0063185,0.0051055,0.021521,0.0021186,0.0070917,0.0033477,0,0,0.056272,-0.019395,0,0.026112,0,0,0,0.022082,0.0015572,0.0070917,9.5195,0.010244,0.018393,2.2473e-07,0.12,0.1,0
0.0074443,0.005748,0.021266,0.0016288,0.0068684,0.0028403,0,0,0.05615,-0.020435,0,0.022155,0,0,0,0.021669,0.0012262,0.0068684,8.0671,0.0099211,0.018286,2.1619e-07,0.14,0.1,0
0.0085645,0.0063143,0.020976,0.0012732,0.0066746,0.0024084,0,0,0.055774,-0.021066,0,0.018786,0,0,0,0.021266,0.00098305,0.0066746,6.8692,0.0096411,0.01812,2.0702e-07,0.16,0.1,0
0.0096752,0.0068075,0.020675,0.0010188,0.0065083,0.002045,0,0,0.055252,-0.021409,0,0.015951,0,0,0,0.020886,0.00080826,0.0065083,5.877,0.0094008,0.017921,1.9793e-07,0.18,0.1,0
0.010775,0.0072307,0.02038,0.00084206,0.0063668,0.0017379,0,0,0.054654,-0.021546,0,0.013556,0,0,0,0.020534,0.00068868,0.0063668,5.0436,0.0091964,0.017703,1.8925e-07,0.2,0.1,0
0.011861,0.0075872,0.020097,0.00072639,0.0062471,0.0014739,0,0,0.054016,-0.021531,0,0.011497,0,0,0,0.020209,0.00061488,0.0062471,4.3264,0.0090237,0.017473,1.8107e-07,0.22,0.1,0
0.012935,0.0078792,0.019828,0.0006595,0.0061464,0.0012404,0,0,0.05336,-0.021399,0,0.0096749,0,0,0,0.019908,0.00057957,0.0061464,3.687,0.0088781,0.017233,1.7337e-07,0.24,0.1,0
0.013996,0.0081086,0.019573,0.00063164,0.0060614,0.0010258,0,0,0.052695,-0.021176,0,0.0080013,0,0,0,0.019628,0.00057625,0.0060614,3.0909,0.0087553,0.016987,1.6611e-07,0.26,0.1,0
0.015043,0.0082766,0.01933,0.00063397,0.0059891,0.00082036,0,0,0.052028,-0.020885,0,0.0063988,0,0,0,0.019366,0.00059804,0.0059891,2.5077,0.0086509,0.016736,1.5924e-07,0.28,0.1,0
0.016077,0.0083841,0.019097,0.00065713,0.0059261,0.00061618,0,0,0.051365,-0.020549,0,0.0048062,0,0,0,0.019117,0.00063656,0.0059261,1.9118,0.00856,0.016485,1.5276e-07,0.3,0.1,0
0.017098,0.0084318,0.018873,0.00069025,0.0058689,0.00040809,0,0,0.050715,-0.020197,0,0.0031831,0,0,0,0.018882,0.00068109,0.0058689,1.2851,0.0084773,0.016241,1.467e-07,0.32,0.1,0
0.018106,0.0084209,0.018657,0.0007204,0.0058132,0.00019448,0,0,0.05009,-0.019862,0,0.001517,0,0,0,0.018659,0.00071829,0.0058132,0.62115,0.0083968,0.016013,1.4116e-07,0.34,0.1,0
0.019101,0.0083531,0.018448,0.00073326,0.0057543,-2.1846e-05,0,0,0.049505,-0.019582,0,-0.0001704,0,0,0,0.018448,0.00073323,0.0057543,-0.070657,0.0083118,0.015814,1.3622e-07,0.36,0.1,0
0.020086,0.0082316,0.018244,0.00071457,0.0056875,-0.00023363,0,0,0.048969,-0.019394,0,-0.0018223,0,0,0,0.018247,0.00071145,0.0056875,-0.76347,0.0082152,0.015652,1.3193e-07,0.38,0.1,0
0.02106,0.0080615,0.018041,0.00065345,0.0056083,-0.00043009,0,0,0.048488,-0.019324,0,-0.0033547,0,0,0,0.018052,0.00064281,0.0056083,-1.4161,0.008101,0.015533,1.2826e-07,0.4,0.1,0
0.022025,0.0078501,0.017836,0.00054177,0.0055132,-0.00060025,0,0,0.048057,-0.019389,0,-0.0046819,0,0,0,0.017856,0.00052096,0.0055132,-1.9855,0.0079635,0.015456,1.2509e-07,0.42,0.1,0
0.022982,0.0076071,0.017631,0.0003788,0.0054031,-0.00073261,0,0,0.04769,-0.019595,0,-0.0057143,0,0,0,0.017662,0.00034775,0.0054031,-2.4272,0.0078044,0.015421,1.2239e-07,0.44,0.1,0
0.023933,0.0073454,0.017427,0.00014897,0.0052728,-0.00081588,0,0,0.047402,-0.019983,0,-0.0063638,0,0,0,0.017466,0.00011053,0.0052728,-2.6975,0.0076163,0.015436,1.2012e-07,0.46,0.1,0
0.024878,0.0070815,0.017223,-0.00014595,0.0051232,-0.0008214,0,0,0.04719,-0.020549,0,-0.0064069,0,0,0,0.017262,-0.0001847,0.0051232,-2.7015,0.0074001,0.01549,1.1809e-07,0.48,0.1,0
0.02582,0.0068368,0.017007,-0.00045914,0.0049643,-0.00073283,0,0,0.046966,-0.021151,0,-0.0057161,0,0,0,0.017038,-0.00048983,0.0049643,-2.3984,0.0071706,0.015536,1.1563e-07,0.5,0.1,0
0.026757,0.0066337,0.016782,-0.00067144,0.0048333,-0.00056137,0,0,0.046602,-0.021469,0,-0.0043787,0,0,0,0.0168,-0.00068948,0.0048333,-1.8403,0.0069814,0.015486,1.1219e-07,0.52,0.1,0
0.027685,0.0064893,0.016569,-0.00071502,0.0047563,-0.00038032,0,0,0.046071,-0.021338,0,-0.0029665,0,0,0,0.016578,-0.00072338,0.0047563,-1.2599,0.0068702,0.015315,1.0805e-07,0.54,0.1,0
0.0286,0.0064105,0.016391,-0.00065976,0.0047193,-0.0002466,0,0,0.045519,-0.020979,0,-0.0019235,0,0,0,0.016394,-0.00066333,0.0047193,-0.82843,0.0068168,0.015104,1.0419e-07,0.56,0.1,0
0.029505,0.0063969,0.016291,-0.00060521,0.0047059,-0.00017323,0,0,0.045184,-0.020713,0,-0.0013512,0,0,0,0.016293,-0.00060698,0.0047059,-0.58734,0.0067974,0.014968,1.0196e-07,0.58,0.1,0
0.030407,0.0064471,0.016301,-0.00061717,0.0047051,-0.00012148,0,0,0.045223,-0.020757,0,-0.00094751,0,0,0,0.016302,-0.00061805,0.0047051,-0.41137,0.0067963,0.014985,1.0218e-07,0.6,0.1,0
0.031314,0.0065619,0.016418,-0.00069595,0.0047167,-3.9457e-05,0,0,0.045636,-0.021109,0,-0.00030777,0,0,0,0.016418,-0.00069604,0.0047167,-0.1321,0.006813,0.015152,1.0484e-07,0.62,0.1,0
0.032233,0.0067446,0.016613,-0.00077583,0.0047511,0.00011183,0,0,0.04626,-0.021555,0,0.0008723,0,0,0,0.016613,-0.00077655,0.0047511,0.36847,0.0068626,0.01539,1.0906e-07,0.64,0.1,0
0.033165,0.0069973,0.016838,-0.00075672,0.0048243,0.00031953,0,0,0.046853,-0.021766,0,0.0024923,0,0,0,0.016844,-0.00076252,0.0048243,1.0401,0.0069685,0.015583,1.135e-07,0.66,0.1,0
0.034107,0.0073147,0.017069,-0.00056839,0.0049502,0.00052653,0,0,0.047264,-0.021522,0,0.0041069,0,0,0,0.017085,-0.00058409,0.0049502,1.7084,0.0071503,0.015654,1.1721e-07,0.68,0.1,0
0.035055,0.0076816,0.017285,-0.00027931,0.0051018,0.00065947,0,0,0.047516,-0.020987,0,0.0051439,0,0,0,0.01731,-0.00030404,0.0051018,2.1471,0.0073693,0.015629,1.1993e-07,0.7,0.1,0
0.036007,0.0080772,0.017481,-8.6807e-06,0.0052416,0.00070743,0,0,0.047732,-0.020476,0,0.0055179,0,0,0,0.017509,-3.7249e-05,0.0052416,2.3125,0.0075712,0.015592,1.2214e-07,0.72,0.1,0
0.036964,0.0084817,0.017666,0.00019782,0.0053591,0.00068667,0,0,0.047997,-0.020129,0,0.005356,0,0,0,0.017693,0.00017087,0.0053591,2.2477,0.007741,0.015589,1.2442e-07,0.74,0.1,0
0.037927,0.0088802,0.01784,0.00033903,0.0054536,0.00062529,0,0,0.048305,-0.019947,0,0.0048773,0,0,0,0.017862,0.00031672,0.0054536,2.0437,0.0078774,0.015624,1.2687e-07,0.76,0.1,0
0.038897,0.0092615,0.018001,0.00042986,0.0055294,0.00053393,0,0,0.048641,-0.019888,0,0.0041646,0,0,0,0.018018,0.00041365,0.0055294,1.7389,0.0079869,0.015685,1.2944e-07,0.78,0.1,0
0.039873,0.0096171,0.018146,0.00046922,0.0055847,0.00042401,0,0,0.048991,-0.01995,0,0.0033073,0,0,0,0.018156,0.00045905,0.0055847,1.3733,0.0080668,0.015772,1.321e-07,0.8,0.1,0
0.040856,0.0099411,0.018278,0.00046293,0.0056223,0.00030735,0,0,0.049357,-0.020122,0,0.0023973,0,0,0,0.018283,0.00045763,0.0056223,0.98808,0.0081211,0.015886,1.3493e-07,0.82,0.1,0
0.041847,0.01023,0.018398,0.00041953,0.0056454,0.00019649,0,0,0.049737,-0.020381,0,0.0015326,0,0,0,0.018401,0.00041738,0.0056454,0.62609,0.0081544,0.016022,1.3791e-07,0.84,0.1,0
0.042846,0.010481,0.018508,0.00035102,0.0056577,0.00010127,0,0,0.050116,-0.020696,0,0.00078993,0,0,0,0.018509,0.00035046,0.0056577,0.31956,0.0081722,0.016171,1.4096e-07,0.86,0.1,0
0.043852,0.010695,0.018606,0.00026969,0.0056627,2.7745e-05,0,0,0.050479,-0.021033,0,0.00021641,0,0,0,0.018606,0.00026965,0.0056627,0.086695,0.0081794,0.016322,1.4391e-07,0.88,0.1,0
0.044865,0.010873,0.018691,0.00018636,0.0056631,-2.191e-05,0,0,0.050808,-0.02136,0,-0.0001709,0,0,0,0.018691,0.00018633,0.0056631,-0.06784,0.0081801,0.016464,1.4663e-07,0.9,0.1,0
0.045884,0.011015,0.018761,0.00010939,0.0056612,-4.8545e-05,0,0,0.05109,-0.021652,0,-0.00037865,0,0,0,0.018761,0.00010927,0.0056612,-0.14912,0.0081773,0.016588,1.4897e-07,0.92,0.1,0
0.046908,0.011124,0.018816,4.4748e-05,0.0056583,-5.5106e-05,0,0,0.051316,-0.021893,0,-0.00042983,0,0,0,0.018816,4.4587e-05,0.0056583,-0.1682,0.0081732,0.016689,1.5086e-07,0.94,0.1,0
0.047937,0.011201,0.018856,-3.6867e-06,0.0056556,-4.5825e-05,0,0,0.051481,-0.022071,0,-0.00035743,0,0,0,0.018856,-3.7981e-06,0.0056556,-0.13922,0.0081693,0.016763,1.5223e-07,0.96,0.1,0
0.048968,0.011246,0.01888,-3.3561e-05,0.0056538,-2.5671e-05,0,0,0.05158,-0.022181,0,-0.00020023,0,0,0,0.01888,-3.3596e-05,0.0056538,-0.077768,0.0081666,0.016807,1.5306e-07,0.98,0.1,0
0.05,0.011262,0.018887,-4.3646e-05,0.0056531,9.6761e-05,0,0,0.051614,-0.022217,0,0.00075473,0,0,0,0.018888,-4.4141e-05,0.0056531,0.29284,0.0081656,0.016823,1.5335e-07,1,0.1,0
0,0,0.020846,0.0089339,0.0089339,0.0053456,0,0,0.046456,4.3368e-19,0,0.041695,0,0,0,0.022893,0.0068868,0.0089339,20.954,0.012905,0.015087,1.6548e-07,0,0.12,0
0.00092913,0.00083391,0.02075,0.0077257,0.0085427,0.0052977,0,0,0.047608,-0.0031862,0,0.041322,0,0,0,0.022633,0.005843,0.0085427,19.564,0.012339,0.015616,1.7603e-07,0.02,0.12,0
0.0019043,0.001676,0.021087,0.0065344,0.0082864,0.0051765,0,0,0.049922,-0.0068328,0,0.040377,0,0,0,0.02274,0.0048809,0.0082864,17.714,0.011969,0.016424,1.9496e-07,0.04,0.12,0
0.002926,0.0025059,0.021367,0.0053314,0.0080095,0.0048928,0,0,0.052094,-0.010445,0,0.038163,0,0,0,0.022742,0.0039564,0.0080095,15.697,0.011569,0.017122,2.0993e-07,0.06,0.12,0
0.0039881,0.003302,0.02155,0.0042471,0.007739,0.0044815,0,0,0.053862,-0.013619,0,0.034956,0,0,0,0.022642,0.0031552,0.007739,13.693,0.011179,0.017647,2.1934e-07,0.08,0.12,0
0.0050805,0.0040474,0.021619,0.0033434,0.0074887,0.0040056,0,0,0.055108,-0.016167,0,0.031244,0,0,0,0.022458,0.002504,0.0074887,11.835,0.010817,0.017988,2.2333e-07,0.1,0.12,0
0.0061924,0.0047315,0.021583,0.0026254,0.0072624,0.0035222,0,0,0.055848,-0.018084,0,0.027473,0,0,0,0.022216,0.0019922,0.0072624,10.192,0.01049,0.018171,2.23e-07,0.12,0.12,0
0.0073144,0.0053492,0.021464,0.0020712,0.0070606,0.0030686,0,0,0.056174,-0.019459,0,0.023935,0,0,0,0.021938,0.0015972,0.0070606,8.7804,0.010199,0.018234,2.197e-07,0.14,0.12,0
0.0084393,0.0058994,0.021291,0.0016517,0.0068827,0.0026622,0,0,0.056191,-0.020401,0,0.020765,0,0,0,0.021645,0.0012972,0.0068827,7.5846,0.0099417,0.018209,2.1458e-07,0.16,0.12,0
0.0095621,0.0063828,0.021085,0.0013412,0.0067277,0.0023067,0,0,0.055992,-0.021007,0,0.017992,0,0,0,0.021351,0.0010753,0.0067277,6.5761,0.0097179,0.018123,2.0843e-07,0.18,0.12,0
0.010679,0.0068012,0.020861,0.0011189,0.006594,0.0019979,0,0,0.055642,-0.021353,0,0.015584,0,0,0,0.021061,0.0009187,0.006594,5.7211,0.0095247,0.017989,2.0175e-07,0.2,0.12,0
0.011788,0.0071564,0.02063,0.00096857,0.0064795,0.0017281,0,0,0.055186,-0.021493,0,0.013479,0,0,0,0.020781,0.00081783,0.0064795,4.9851,0.0093593,0.01782,1.9479e-07,0.22,0.12,0
0.012887,0.0074501,0.020394,0.00087775,0.0063817,0.001488,0,0,0.05465,-0.021465,0,0.011606,0,0,0,0.020507,0.00076496,0.0063817,4.3349,0.009218,0.017619,1.8767e-07,0.24,0.12,0
0.013974,0.0076835,0.020157,0.00083589,0.0062978,0.0012678,0,0,0.05405,-0.021301,0,0.009889,0,0,0,0.02024,0.00075305,0.0062978,3.7384,0.0090968,0.01739,1.8043e-07,0.26,0.12,0
0.015048,0.0078573,0.019916,0.00083301,0.0062247,0.0010585,0,0,0.053396,-0.021028,0,0.0082565,0,0,0,0.019974,0.00077447,0.0062247,3.1652,0.0089912,0.017138,1.7311e-07,0.28,0.12,0
0.01611,0.0079718,0.019671,0.0008581,0.0061588,0.00085201,0,0,0.052699,-0.020673,0,0.0066457,0,0,0,0.01971,0.00081959,0.0061588,2.5877,0.0088961,0.016867,1.6576e-07,0.3,0.12,0
0.017156,0.0080271,0.019422,0.00089755,0.006096,0.00064226,0,0,0.051973,-0.020274,0,0.0050097,0,0,0,0.019445,0.00087531,0.006096,1.9833,0.0088053,0.016587,1.5849e-07,0.32,0.12,0
0.018188,0.0080236,0.019169,0.00093425,0.0060309,0.00042694,0,0,0.051238,-0.019877,0,0.0033301,0,0,0,0.019179,0.00092426,0.0060309,1.3405,0.0087114,0.016312,1.5149e-07,0.34,0.12,0
0.019206,0.0079621,0.018911,0.00094771,0.0059575,0.00020902,0,0,0.050517,-0.019538,0,0.0016304,0,0,0,0.018913,0.00094528,0.0059575,0.66659,0.0086053,0.016059,1.4496e-07,0.36,0.12,0
0.020209,0.0078449,0.018645,0.00091774,0.005869,-1.7405e-06,0,0,0.049828,-0.01931,0,-1.3576e-05,0,0,0,0.018645,0.00091774,0.005869,-0.0056252,0.0084774,0.015843,1.3902e-07,0.38,0.12,0
0.021199,0.0076766,0.018365,0.00082756,0.0057579,-0.000191,0,0,0.049169,-0.019228,0,-0.0014898,0,0,0,0.018368,0.00082548,0.0057579,-0.6239,0.008317,0.015669,1.336e-07,0.4,0.12,0
0.022176,0.0074642,0.018062,0.00067479,0.0056211,-0.00034239,0,0,0.048521,-0.019291,0,-0.0026706,0,0,0,0.018069,0.00066805,0.0056211,-1.1277,0.0081194,0.015529,1.2842e-07,0.42,0.12,0
0.02314,0.0072176,0.017717,0.00045474,0.0054514,-0.00045094,0,0,0.047834,-0.019487,0,-0.0035173,0,0,0,0.017728,0.00044297,0.0054514,-1.4954,0.0078742,0.015404,1.2302e-07,0.44,0.12,0
0.024089,0.0069483,0.017362,0.00019822,0.005268,-0.00050968,0,0,0.047166,-0.019772,0,-0.0039755,0,0,0,0.017377,0.0001831,0.005268,-1.6994,0.0076094,0.015299,1.1776e-07,0.46,0.12,0
0.025027,0.0066726,0.016973,-0.0001804,0.0050379,-0.0005216,0,0,0.046548,-0.020351,0,-0.0040684,0,0,0,0.016989,-0.00019625,0.0050379,-1.7401,0.0072769,0.015257,1.1268e-07,0.48,0.12,0
0.025951,0.0064146,0.01655,-0.00063434,0.0047746,-0.00040459,0,0,0.045922,-0.021095,0,-0.0031558,0,0,0,0.016559,-0.00064386,0.0047746,-1.348,0.0068966,0.015234,1.072e-07,0.5,0.12,0
0.026863,0.0062056,0.016117,-0.00089981,0.004565,-0.00021122,0,0,0.045051,-0.021313,0,-0.0016476,0,0,0,0.016119,-0.00090243,0.004565,-0.71106,0.006594,0.015052,1.0045e-07,0.52,0.12,0
0.027753,0.006067,0.01571,-0.00084319,0.0044601,-3.6947e-05,0,0,0.043875,-0.020683,0,-0.00028819,0,0,0,0.01571,-0.00084328,0.0044601,-0.12788,0.0064424,0.014641,9.2804e-08,0.54,0.12,0
0.028618,0.0059993,0.015385,-0.00064217,0.0044228,-1.0799e-05,0,0,0.042752,-0.019753,0,-8.4229e-05,0,0,0,0.015385,-0.00064218,0.0044228,-0.038604,0.0063885,0.01419,8.6205e-08,0.56,0.12,0
0.029463,0.0059936,0.015183,-0.00053652,0.004394,-9.4802e-05,0,0,0.042078,-0.019229,0,-0.00073946,0,0,0,0.015184,-0.00053709,0.004394,-0.34552,0.0063469,0.013926,8.2373e-08,0.58,0.12,0
0.030302,0.0060429,0.015188,-0.00055264,0.0043906,-0.00021439,0,0,0.04211,-0.019279,0,-0.0016723,0,0,0,0.015191,-0.00055556,0.0043906,-0.7802,0.006342,0.013947,8.2583e-08,0.6,0.12,0
0.031148,0.006148,0.015399,-0.0006916,0.0044121,-0.00028894,0,0,0.042847,-0.019904,0,-0.0022538,0,0,0,0.015404,-0.00069679,0.0044121,-1.0285,0.006373,0.01425,8.6805e-08,0.62,0.12,0
0.032016,0.0063177,0.015731,-0.00092774,0.0044409,-0.00024281,0,0,0.044031,-0.020938,0,-0.0018939,0,0,0,0.015734,-0.00093128,0.0044409,-0.83488,0.0064147,0.014733,9.3692e-08,0.64,0.12,0
0.032909,0.0065628,0.016141,-0.0010192,0.0045366,-3.7349e-05,0,0,0.045258,-0.021667,0,-0.00029132,0,0,0,0.016141,-0.0010193,0.0045366,-0.1247,0.0065528,0.015166,1.015e-07,0.66,0.12,0
0.033826,0.0068846,0.016573,-0.00078665,0.004736,0.00019763,0,0,0.046165,-0.021538,0,0.0015415,0,0,0,0.016575,-0.0007889,0.004736,0.65217,0.0068408,0.015366,1.084e-07,0.68,0.12,0
0.034756,0.0072633,0.016989,-0.00036631,0.0049869,0.00036642,0,0,0.04681,-0.020878,0,0.0028581,0,0,0,0.016997,-0.00037404,0.0049869,1.2089,0.0072033,0.015407,1.1405e-07,0.7,0.12,0
0.035698,0.0076694,0.017362,-2.2576e-05,0.0052018,0.00041709,0,0,0.047425,-0.020375,0,0.0032533,0,0,0,0.017372,-3.2577e-05,0.0052018,1.3736,0.0075137,0.015467,1.1925e-07,0.72,0.12,0
0.036653,0.0080805,0.017691,0.0002008,0.0053676,0.00043197,0,0,0.048062,-0.02015,0,0.0033694,0,0,0,0.017702,0.00019014,0.0053676,1.4139,0.0077532,0.015582,1.2445e-07,0.74,0.12,0
0.037621,0.0084821,0.018,0.00039111,0.0055175,0.00040663,0,0,0.048684,-0.019993,0,0.0031717,0,0,0,0.01801,0.00038173,0.0055175,1.3221,0.0079697,0.015703,1.2953e-07,0.76,0.12,0
0.0386,0.0088641,0.018255,0.00051576,0.0056314,0.00034674,0,0,0.049234,-0.019951,0,0.0027046,0,0,0,0.018262,0.00050899,0.0056314,1.1193,0.0081342,0.015827,1.3402e-07,0.78,0.12,0
0.03959,0.0092179,0.018475,0.00057646,0.0057156,0.00025703,0,0,0.049763,-0.020043,0,0.0020048,0,0,0,0.018479,0.00057277,0.0057156,0.82255,0.0082558,0.015969,1.3834e-07,0.8,0.12,0
0.040591,0.0095376,0.018669,0.00057222,0.0057722,0.00015491,0,0,0.050295,-0.02028,0,0.0012083,0,0,0,0.01867,0.00057089,0.0057722,0.49042,0.0083376,0.01614,1.4274e-07,0.82,0.12,0
0.041602,0.00982,0.018842,0.00051644,0.0058076,5.6943e-05,0,0,0.050835,-0.020636,0,0.00044415,0,0,0,0.018842,0.00051626,0.0058076,0.17803,0.0083888,0.016336,1.4728e-07,0.84,0.12,0
0.042624,0.010064,0.018998,0.00042637,0.0058273,-2.4018e-05,0,0,0.051365,-0.021063,0,-0.00018734,0,0,0,0.018998,0.00042634,0.0058273,-0.074099,0.0084172,0.016546,1.5183e-07,0.86,0.12,0
0.043656,0.01027,0.019134,0.00031999,0.0058363,-8.1264e-05,0,0,0.051863,-0.021514,0,-0.00063386,0,0,0,0.019135,0.00031964,0.0058363,-0.24747,0.0084303,0.016753,1.5615e-07,0.88,0.12,0
0.044698,0.01044,0.01925,0.00021195,0.0058387,-0.00011308,0,0,0.052305,-0.021944,0,-0.00088201,0,0,0,0.019251,0.00021128,0.0058387,-0.34029,0.0084337,0.016942,1.6003e-07,0.9,0.12,0
0.045749,0.010576,0.019345,0.00011307,0.0058373,-0.00012115,0,0,0.052679,-0.022325,0,-0.000945,0,0,0,0.019345,0.0001123,0.0058373,-0.36093,0.0084317,0.017105,1.6333e-07,0.92,0.12,0
0.046805,0.010679,0.019417,3.0587e-05,0.0058343,-0.0001091,0,0,0.052973,-0.022634,0,-0.00085099,0,0,0,0.019418,2.9973e-05,0.0058343,-0.32243,0.0084274,0.017235,1.6593e-07,0.94,0.12,0
0.047868,0.010752,0.019468,-3.0903e-05,0.0058312,-8.1504e-05,0,0,0.053185,-0.022862,0,-0.00063573,0,0,0,0.019469,-3.1244e-05,0.0058312,-0.23948,0.0084229,0.017329,1.678e-07,0.96,0.12,0
0.048933,0.010795,0.019499,-6.871e-05,0.005829,-4.3396e-05,0,0,0.053311,-0.023001,0,-0.00033849,0,0,0,0.019499,-6.8806e-05,0.005829,-0.12707,0.0084196,0.017386,1.6893e-07,0.98,0.12,0
0.05,0.010809,0.019509,-8.1453e-05,0.0058282,9.1383e-05,0,0,0.053354,-0.023047,0,0.00071279,0,0,0,0.019509,-8.188e-05,0.0058282,0.26726,0.0084184,0.017406,1.6932e-07,1,0.12,0
0,0,0.020673,0.0088597,0.0088597,0.0049599,0,0,0.046071,1.301e-18,0,0.038687,0,0,0,0.022479,0.0070535,0.0088597,20.011,0.012797,0.014606,1.5183e-07,0,0.14,0
0.00092141,0.00077374,0.020586,0.0077592,0.0085035,0.0049281,0,0,0.047121,-0.0029026,0,0.03844,0,0,0,0.02226,0.0060845,0.0085035,18.77,0.012283,0.015112,1.6206e-07,0.02,0.14,0
0.0018848,0.0015481,0.020917,0.006722,0.0082916,0.0048351,0,0,0.049238,-0.0061214,0,0.037714,0,0,0,0.022407,0.0052315,0.0082916,17.133,0.011977,0.015868,1.7977e-07,0.04,0.14,0
0.0028909,0.00231,0.021211,0.0056621,0.008062,0.0046314,0,0,0.051282,-0.0093596,0,0.036125,0,0,0,0.022486,0.0043871,0.008062,15.391,0.011645,0.01657,1.9548e-07,0.06,0.14,0
0.0039361,0.0030445,0.02144,0.0046676,0.0078322,0.0043288,0,0,0.053069,-0.012342,0,0.033765,0,0,0,0.022491,0.0036163,0.0078322,13.651,0.011313,0.01716,2.0765e-07,0.08,0.14,0
0.0050137,0.0037385,0.021585,0.0037947,0.0076138,0.0039615,0,0,0.054486,-0.014894,0,0.0309,0,0,0,0.022427,0.0029524,0.0076138,12.003,0.010998,0.017613,2.1574e-07,0.1,0.14,0
0.0061156,0.0043821,0.021644,0.0030646,0.0074126,0.0035682,0,0,0.055502,-0.016957,0,0.027832,0,0,0,0.022306,0.0024029,0.0074126,10.506,0.010707,0.017931,2.2001e-07,0.12,0.14,0
0.0072338,0.0049697,0.021628,0.0024747,0.0072307,0.0031802,0,0,0.056148,-0.018548,0,0.024806,0,0,0,0.022142,0.0019605,0.0072307,9.1853,0.010444,0.01813,2.2113e-07,0.14,0.14,0
0.0083615,0.0054983,0.021552,0.0020109,0.0070687,0.0028172,0,0,0.056483,-0.019725,0,0.021975,0,0,0,0.02195,0.0016128,0.0070687,8.0424,0.01021,0.018232,2.1985e-07,0.16,0.14,0
0.0094931,0.0059672,0.021431,0.001656,0.0069262,0.0024886,0,0,0.05657,-0.020554,0,0.019411,0,0,0,0.02174,0.0013476,0.0069262,7.0637,0.010004,0.018254,2.1683e-07,0.18,0.14,0
0.010624,0.0063766,0.02128,0.001394,0.0068023,0.0021962,0,0,0.056464,-0.021092,0,0.01713,0,0,0,0.02152,0.0011544,0.0068023,6.2276,0.0098255,0.018211,2.1256e-07,0.2,0.14,0
0.011752,0.0067275,0.021106,0.0012113,0.0066953,0.0019368,0,0,0.056203,-0.021388,0,0.015107,0,0,0,0.021293,0.0010245,0.0066953,5.5089,0.0096709,0.018112,2.0733e-07,0.22,0.14,0
0.012872,0.0070206,0.020915,0.0010962,0.0066033,0.0017049,0,0,0.055814,-0.021478,0,0.013298,0,0,0,0.02106,0.00095062,0.0066033,4.8811,0.009538,0.017963,2.0134e-07,0.24,0.14,0
0.013984,0.0072565,0.020707,0.0010387,0.0065237,0.0014932,0,0,0.055315,-0.021392,0,0.011647,0,0,0,0.02082,0.00092597,0.0065237,4.3168,0.0094231,0.017769,1.9468e-07,0.26,0.14,0
0.015085,0.0074355,0.020483,0.0010286,0.0064536,0.0012936,0,0,0.054716,-0.021157,0,0.010091,0,0,0,0.020569,0.00094294,0.0064536,3.7877,0.0093218,0.017533,1.8741e-07,0.28,0.14,0
0.016173,0.0075572,0.020243,0.0010542,0.0063891,0.0010982,0,0,0.054029,-0.020806,0,0.0085661,0,0,0,0.020305,0.00099157,0.0063891,3.265,0.0092286,0.01726,1.7964e-07,0.3,0.14,0
0.017246,0.0076209,0.019985,0.0011003,0.0063256,0.00089977,0,0,0.053272,-0.020379,0,0.0070182,0,0,0,0.020028,0.0010575,0.0063256,2.7217,0.009137,0.016961,1.7152e-07,0.32,0.14,0
0.018304,0.0076258,0.019712,0.0011453,0.0062571,0.00069423,0,0,0.052473,-0.019936,0,0.005415,0,0,0,0.019738,0.0011193,0.0062571,2.1384,0.0090381,0.016655,1.6337e-07,0.34,0.14,0
0.019345,0.0075716,0.019425,0.0011616,0.006176,0.00048423,0,0,0.051672,-0.019557,0,0.003777,0,0,0,0.019438,0.0011487,0.006176,1.5177,0.0089209,0.016365,1.5557e-07,0.36,0.14,0
0.020371,0.0074592,0.019123,0.0011166,0.006072,0.00028202,0,0,0.050901,-0.019326,0,0.0021998,0,0,0,0.019128,0.0011121,0.006072,0.89707,0.0087706,0.016119,1.4842e-07,0.38,0.14,0
0.021381,0.0072924,0.018801,0.00098849,0.0059367,0.00011223,0,0,0.050169,-0.019298,0,0.00087543,0,0,0,0.018801,0.00098778,0.0059367,0.36101,0.0085752,0.015926,1.4194e-07,0.4,0.14,0
0.022377,0.0070785,0.018425,0.00076249,0.0057564,-1.0249e-06,0,0,0.049409,-0.019476,0,-7.9942e-06,0,0,0,0.018425,0.00076249,0.0057564,-0.0033246,0.0083147,0.01577,1.3545e-07,0.42,0.14,0
0.023357,0.0068277,0.017984,0.00047838,0.0055388,-3.0598e-05,0,0,0.048537,-0.019736,0,-0.00023867,0,0,0,0.017984,0.00047832,0.0055388,-0.10015,0.0080005,0.015604,1.2818e-07,0.44,0.14,0
0.024319,0.0065545,0.017365,9.4862e-05,0.0052381,-9.7981e-06,0,0,0.047297,-0.020059,0,-7.6425e-05,0,0,0,0.017365,9.4857e-05,0.0052381,-0.032505,0.0075662,0.015359,1.1818e-07,0.46,0.14,0
0.025249,0.0062675,0.016796,-0.00017393,0.0049867,8.778e-05,0,0,0.046058,-0.020127,0,0.00068468,0,0,0,0.016797,-0.00017438,0.0049867,0.29635,0.007203,0.015069,1.0876e-07,0.48,0.14,0
0.026161,0.005993,0.016015,-0.00086469,0.004545,0.00016931,0,0,0.044732,-0.021098,0,0.0013206,0,0,0,0.016016,-0.00086639,0.004545,0.57463,0.006565,0.014932,9.8374e-08,0.5,0.14,0
0.027039,0.0057812,0.01521,-0.0012206,0.0041969,0.00047838,0,0,0.042952,-0.021128,0,0.0037314,0,0,0,0.015224,-0.0012346,0.0041969,1.6663,0.0060621,0.014526,8.6461e-08,0.52,0.14,0
0.027879,0.005662,0.01463,-0.00071824,0.0041736,0.00052231,0,0,0.040781,-0.019078,0,0.004074,0,0,0,0.014648,-0.00073599,0.0041736,1.9468,0.0060286,0.01361,7.4993e-08,0.54,0.14,0
0.02867,0.0056203,0.014038,-0.00042506,0.0040839,0.00032639,0,0,0.038821,-0.017585,0,0.0025459,0,0,0,0.014045,-0.00043243,0.0040839,1.2921,0.005899,0.01283,6.4912e-08,0.56,0.14,0
0.029432,0.0056278,0.013757,-0.00029488,0.0040385,1.0513e-05,0,0,0.037901,-0.0169,0,8.2001e-05,0,0,0,0.013757,-0.00029489,0.0040385,0.042867,0.0058334,0.012463,6.0429e-08,0.58,0.14,0
0.030186,0.005676,0.013758,-0.00031512,0.0040327,-0.00032524,0,0,0.037927,-0.016957,0,-0.0025369,0,0,0,0.013765,-0.00032264,0.0040327,-1.3233,0.005825,0.012493,6.066e-08,0.6,0.14,0
0.030949,0.0057658,0.014041,-0.00048738,0.0040662,-0.00063197,0,0,0.038903,-0.017759,0,-0.0049294,0,0,0,0.014069,-0.00051482,0.0040662,-2.486,0.0058734,0.012918,6.5603e-08,0.62,0.14,0
0.031742,0.0059071,0.014635,-0.00082841,0.0041421,-0.00080724,0,0,0.040924,-0.019385,0,-0.0062965,0,0,0,0.014677,-0.00087043,0.0041421,-2.9802,0.005983,0.013745,7.6059e-08,0.64,0.14,0
0.032586,0.0061306,0.015213,-0.0013816,0.0041494,-0.00072783,0,0,0.043148,-0.021571,0,-0.005677,0,0,0,0.015245,-0.0014134,0.0041494,-2.5065,0.0059936,0.014689,8.762e-08,0.66,0.14,0
0.033468,0.0064532,0.016013,-0.0010664,0.004484,-0.00037029,0,0,0.044964,-0.021647,0,-0.0028883,0,0,0,0.016021,-0.0010745,0.004484,-1.2414,0.0064769,0.015104,9.9589e-08,0.68,0.14,0
0.034385,0.0068465,0.016783,-0.0004198,0.0049088,-0.00023042,0,0,0.046308,-0.020782,0,-0.0017972,0,0,0,0.016786,-0.00042289,0.0049088,-0.76726,0.0070905,0.015258,1.1019e-07,0.7,0.14,0
0.03532,0.0072622,0.01733,-0.00020053,0.0051389,-6.0878e-05,0,0,0.047546,-0.020824,0,-0.00047485,0,0,0,0.01733,-0.00020074,0.0051389,-0.19897,0.0074229,0.015564,1.1961e-07,0.72,0.14,0
0.036286,0.0076757,0.01792,0.00014003,0.0054179,4.4476e-05,0,0,0.048757,-0.020584,0,0.00034691,0,0,0,0.01792,0.00013992,0.0054179,0.14333,0.0078258,0.015816,1.2953e-07,0.74,0.14,0
0.03727,0.0080805,0.01832,0.00038641,0.005612,0.00010915,0,0,0.049563,-0.02038,0,0.00085141,0,0,0,0.018321,0.00038574,0.005612,0.34871,0.0081063,0.015977,1.3639e-07,0.76,0.14,0
0.038269,0.0084635,0.018645,0.00057708,0.0057666,9.8067e-05,0,0,0.050226,-0.020239,0,0.00076493,0,0,0,0.018646,0.00057654,0.0057666,0.31097,0.0083296,0.016114,1.4213e-07,0.78,0.14,0
0.03928,0.0088155,0.018909,0.0006682,0.0058731,3.789e-05,0,0,0.050839,-0.020299,0,0.00029554,0,0,0,0.018909,0.00066812,0.0058731,0.11902,0.0084834,0.016275,1.4746e-07,0.8,0.14,0
0.040303,0.0091299,0.019143,0.00066941,0.0059437,-4.588e-05,0,0,0.051477,-0.02057,0,-0.00035787,0,0,0,0.019143,0.0006693,0.0059437,-0.1423,0.0085854,0.016482,1.5308e-07,0.82,0.14,0
0.041339,0.0094042,0.019354,0.00059809,0.0059856,-0.00012588,0,0,0.052136,-0.021011,0,-0.00098183,0,0,0,0.019355,0.00059725,0.0059856,-0.38451,0.0086458,0.016727,1.5898e-07,0.84,0.14,0
0.042388,0.0096385,0.019543,0.00048318,0.0060079,-0.00018609,0,0,0.052788,-0.021546,0,-0.0014515,0,0,0,0.019545,0.00048137,0.0060079,-0.55932,0.0086781,0.016989,1.6491e-07,0.86,0.14,0
0.04345,0.0098347,0.019708,0.00034956,0.0060173,-0.00021973,0,0,0.053394,-0.022104,0,-0.0017139,0,0,0,0.01971,0.00034707,0.0060173,-0.65022,0.0086916,0.017242,1.705e-07,0.88,0.14,0
0.044524,0.0099951,0.019846,0.0002162,0.0060186,-0.00022667,0,0,0.053926,-0.02263,0,-0.001768,0,0,0,0.019849,0.00021359,0.0060186,-0.66148,0.0086936,0.017471,1.7544e-07,0.9,0.14,0
0.045607,0.010122,0.019956,9.5734e-05,0.0060156,-0.00021002,0,0,0.054369,-0.023088,0,-0.0016382,0,0,0,0.019959,9.3513e-05,0.0060156,-0.6058,0.0086893,0.017665,1.7957e-07,0.92,0.14,0
0.046698,0.010219,0.02004,-3.8044e-06,0.0060109,-0.00017422,0,0,0.054714,-0.023457,0,-0.0013589,0,0,0,0.020042,-5.3186e-06,0.0060109,-0.49795,0.0086824,0.017818,1.828e-07,0.94,0.14,0
0.047796,0.010287,0.020098,-7.7537e-05,0.0060063,-0.00012406,0,0,0.05496,-0.023727,0,-0.00096767,0,0,0,0.020099,-7.83e-05,0.0060063,-0.35229,0.0086757,0.017927,1.8509e-07,0.96,0.14,0
0.048897,0.010327,0.020133,-0.00012269,0.0060031,-6.4395e-05,0,0,0.055106,-0.02389,0,-0.00050228,0,0,0,0.020133,-0.0001229,0.0060031,-0.18215,0.0086711,0.017993,1.8646e-07,0.98,0.14,0
0.05,0.01034,0.020144,-0.00013788,0.0060019,8.4825e-05,0,0,0.055155,-0.023945,0,0.00066163,0,0,0,0.020144,-0.00013824,0.0060019,0.23962,0.0086694,0.018015,1.8693e-07,1,0.14,0
0,0,0.020609,0.0088325,0.0088325,0.0046013,0,0,0.045929,-2.1684e-19,0,0.03589,0,0,0,0.022194,0.007248,0.0088325,19.002,0.012758,0.01422,1.4152e-07,0,0.16,0
0.00091858,0.0007178,0.020526,0.0077955,0.0084965,0.0045789,0,0,0.046915,-0.0027336,0,0.035716,0,0,0,0.022002,0.0063197,0.0084965,17.865,0.012273,0.014715,1.5165e-07,0.02,0.16,0
0.0018766,0.0014312,0.020851,0.0068572,0.0083124,0.0045014,0,0,0.0489,-0.0056755,0,0.035111,0,0,0,0.022174,0.0055343,0.0083124,16.378,0.012007,0.015439,1.6857e-07,0.04,0.16,0
0.0028746,0.0021315,0.021151,0.0059,0.0081154,0.0043481,0,0,0.05084,-0.0086402,0,0.033916,0,0,0,0.022304,0.0047474,0.0081154,14.846,0.011722,0.016138,1.8458e-07,0.06,0.16,0
0.0039102,0.0028083,0.021406,0.0049834,0.0079167,0.0041206,0,0,0.052607,-0.01144,0,0.032141,0,0,0,0.022382,0.0040075,0.0079167,13.325,0.011435,0.016765,1.9836e-07,0.08,0.16,0
0.0049789,0.0034516,0.021598,0.0041523,0.0077252,0.0038368,0,0,0.054105,-0.013934,0,0.029927,0,0,0,0.022405,0.0033458,0.0077252,11.871,0.011159,0.017291,2.0917e-07,0.1,0.16,0
0.0060744,0.0040532,0.021723,0.0034309,0.0075463,0.0035214,0,0,0.05529,-0.01605,0,0.027467,0,0,0,0.022378,0.0027765,0.0075463,10.529,0.0109,0.017705,2.1683e-07,0.12,0.16,0
0.0071905,0.0046073,0.021783,0.0028266,0.0073829,0.0031984,0,0,0.056161,-0.01777,0,0.024947,0,0,0,0.022308,0.0023015,0.0073829,9.3233,0.010664,0.018012,2.2154e-07,0.14,0.16,0
0.0083209,0.0051104,0.021786,0.0023353,0.0072363,0.0028856,0,0,0.056743,-0.019114,0,0.022507,0,0,0,0.022205,0.0019163,0.0072363,8.263,0.010452,0.018221,2.2371e-07,0.16,0.16,0
0.0094602,0.0055607,0.021742,0.0019478,0.0071068,0.0025942,0,0,0.057076,-0.02012,0,0.020235,0,0,0,0.022076,0.0016135,0.0071068,7.3441,0.010265,0.018343,2.2379e-07,0.18,0.16,0
0.010604,0.0059575,0.02166,0.0016533,0.0069939,0.0023296,0,0,0.057196,-0.020828,0,0.018171,0,0,0,0.021927,0.0013857,0.0069939,6.5549,0.010102,0.018391,2.2215e-07,0.2,0.16,0
0.011748,0.0063009,0.021547,0.0014415,0.0068965,0.0020924,0,0,0.057136,-0.021274,0,0.016321,0,0,0,0.021762,0.001226,0.0068965,5.8789,0.0099615,0.01837,2.1908e-07,0.22,0.16,0
0.012889,0.006591,0.021407,0.0013027,0.0068129,0.0018801,0,0,0.056917,-0.02149,0,0.014665,0,0,0,0.021581,0.0011284,0.0068129,5.2969,0.0098408,0.018286,2.1475e-07,0.24,0.16,0
0.014025,0.0068278,0.021241,0.0012282,0.0067409,0.0016879,0,0,0.056552,-0.0215,0,0.013166,0,0,0,0.021383,0.0010868,0.0067409,4.7873,0.0097369,0.018142,2.0926e-07,0.26,0.16,0
0.015151,0.007011,0.02105,0.0012086,0.0066776,0.0015096,0,0,0.056053,-0.021329,0,0.011775,0,0,0,0.021164,0.0010944,0.0066776,4.3259,0.0096454,0.017942,2.0269e-07,0.28,0.16,0
0.016267,0.0071395,0.020831,0.0012329,0.0066192,0.0013372,0,0,0.055426,-0.021006,0,0.01043,0,0,0,0.020922,0.0011421,0.0066192,3.8852,0.0095611,0.017689,1.951e-07,0.3,0.16,0
0.017368,0.007212,0.020584,0.0012856,0.0065608,0.0011621,0,0,0.05469,-0.020573,0,0.0090646,0,0,0,0.020654,0.0012159,0.0065608,3.4338,0.0094768,0.017392,1.8667e-07,0.32,0.16,0
0.018454,0.0072261,0.020311,0.0013432,0.0064963,0.00097727,0,0,0.053878,-0.020097,0,0.0076227,0,0,0,0.020361,0.0012929,0.0064963,2.9416,0.0093836,0.017072,1.778e-07,0.34,0.16,0
0.019524,0.0071798,0.020018,0.0013679,0.0064159,0.00078137,0,0,0.05305,-0.019687,0,0.0060947,0,0,0,0.020051,0.0013352,0.0064159,2.3948,0.0092674,0.016763,1.6912e-07,0.36,0.16,0
0.020576,0.0070719,0.019714,0.001314,0.0063084,0.00058962,0,0,0.052281,-0.019478,0,0.004599,0,0,0,0.019733,0.0012951,0.0063084,1.8335,0.0091121,0.016512,1.6139e-07,0.38,0.16,0
0.021615,0.0069047,0.019384,0.0011268,0.0061531,0.00043441,0,0,0.051599,-0.019603,0,0.0033884,0,0,0,0.019394,0.0011165,0.0061531,1.3623,0.0088879,0.016352,1.5482e-07,0.4,0.16,0
0.02264,0.0066852,0.019026,0.00081644,0.0059528,0.00037631,0,0,0.050986,-0.020032,0,0.0029352,0,0,0,0.019034,0.00080867,0.0059528,1.1834,0.0085985,0.016275,1.4912e-07,0.42,0.16,0
0.023654,0.0064282,0.018522,0.00035245,0.0056623,0.00043522,0,0,0.050153,-0.020709,0,0.0033947,0,0,0,0.018532,0.00034203,0.0056623,1.3714,0.0081789,0.016199,1.4158e-07,0.44,0.16,0
0.024646,0.006146,0.017939,-4.647e-05,0.0053679,0.00070071,0,0,0.049029,-0.021116,0,0.0054655,0,0,0,0.017967,-7.3727e-05,0.0053679,2.2277,0.0077536,0.016028,1.3223e-07,0.46,0.16,0
0.025615,0.0058675,0.016504,-0.00089073,0.0046839,0.00096428,0,0,0.046097,-0.021741,0,0.0075214,0,0,0,0.016557,-0.00094402,0.0046839,3.1633,0.0067656,0.015475,1.0896e-07,0.48,0.16,0
0.02649,0.0055707,0.015269,-0.0013002,0.0041906,0.0018341,0,0,0.043206,-0.021414,0,0.014306,0,0,0,0.01547,-0.0015008,0.0041906,6.2417,0.0060532,0.01496,9.1858e-08,0.5,0.16,0
0.027344,0.0053605,0.01422,-0.00072496,0.0040486,0.0015273,0,0,0.03967,-0.018617,0,0.011913,0,0,0,0.014375,-0.00087945,0.0040486,5.7757,0.005848,0.013484,7.1568e-08,0.52,0.16,0
0.028077,0.0053039,0.012803,-0.00027302,0.0037589,0.0011822,0,0,0.035271,-0.015724,0,0.0092211,0,0,0,0.012909,-0.00037904,0.0037589,5.1248,0.0054295,0.011777,5.0322e-08,0.54,0.16,0
0.028754,0.0052959,0.012202,-3.1164e-05,0.0036512,0.00062418,0,0,0.033347,-0.014361,0,0.0048686,0,0,0,0.012233,-6.293e-05,0.0036512,2.9134,0.0052739,0.010924,4.1791e-08,0.56,0.16,0
0.029411,0.0053176,0.012013,9.0385e-05,0.003631,9.6954e-05,0,0,0.03269,-0.013808,0,0.00075624,0,0,0,0.012014,8.9596e-05,0.003631,0.46589,0.0052448,0.010607,3.9046e-08,0.58,0.16,0
0.030062,0.0053646,0.01201,6.6328e-05,0.003623,-0.00040961,0,0,0.032711,-0.013871,0,-0.003195,0,0,0,0.012024,5.2297e-05,0.003623,-1.9619,0.0052332,0.010646,3.9282e-08,0.6,0.16,0
0.03072,0.0054376,0.012195,-0.00010576,0.0036267,-0.00092923,0,0,0.033416,-0.014557,0,-0.007248,0,0,0,0.012265,-0.00017556,0.0036267,-4.2958,0.0052386,0.011042,4.2515e-08,0.62,0.16,0
0.031399,0.0055423,0.012797,-0.00040453,0.0037178,-0.0014688,0,0,0.03541,-0.016077,0,-0.011456,0,0,0,0.012959,-0.00056597,0.0037178,-6.2723,0.0053702,0.011972,5.161e-08,0.64,0.16,0
0.032136,0.0057,0.014212,-0.00093278,0.0039837,-0.0017778,0,0,0.03989,-0.019174,0,-0.013867,0,0,0,0.014418,-0.0011387,0.0039837,-6.6062,0.0057543,0.013732,7.331e-08,0.66,0.16,0
0.032994,0.0060187,0.015255,-0.0015618,0.0041079,-0.0020298,0,0,0.043473,-0.022112,0,-0.015833,0,0,0,0.015496,-0.0018033,0.0041079,-6.786,0.0059337,0.01523,9.366e-08,0.68,0.16,0
0.033875,0.006432,0.016475,-0.0012098,0.0045795,-0.0010879,0,0,0.046392,-0.022578,0,-0.0084857,0,0,0,0.016542,-0.0012765,0.0045795,-3.507,0.0066149,0.01573,1.1055e-07,0.7,0.16,0
0.03485,0.0068364,0.017888,-0.00042519,0.005239,-0.00074291,0,0,0.049333,-0.02209,0,-0.0057947,0,0,0,0.017919,-0.00045528,0.005239,-2.3192,0.0075674,0.016291,1.3407e-07,0.72,0.16,0
0.035848,0.0072572,0.018436,-7.9324e-05,0.0055068,-0.00038383,0,0,0.050422,-0.021786,0,-0.0029939,0,0,0,0.018443,-8.7277e-05,0.0055068,-1.1871,0.0079543,0.016463,1.4314e-07,0.74,0.16,0
0.036867,0.0076669,0.018895,0.00033804,0.00577,-0.00022148,0,0,0.051189,-0.021185,0,-0.0017275,0,0,0,0.018898,0.0003354,0.00577,-0.68367,0.0083345,0.016529,1.5025e-07,0.76,0.16,0
0.037896,0.0080545,0.019203,0.00060741,0.0059431,-0.00016966,0,0,0.051713,-0.020809,0,-0.0013233,0,0,0,0.019204,0.00060586,0.0059431,-0.52268,0.0085845,0.016587,1.5518e-07,0.78,0.16,0
0.038935,0.008406,0.019477,0.00075103,0.0060685,-0.00020873,0,0,0.052294,-0.020738,0,-0.0016281,0,0,0,0.01948,0.00074871,0.0060685,-0.63853,0.0087656,0.016718,1.6063e-07,0.8,0.16,0
0.039987,0.0087148,0.019722,0.00075214,0.0061423,-0.00027678,0,0,0.052962,-0.021022,0,-0.0021589,0,0,0,0.019726,0.00074811,0.0061423,-0.83573,0.0088723,0.016938,1.6691e-07,0.82,0.16,0
0.041054,0.0089795,0.019953,0.00065923,0.0061835,-0.00033772,0,0,0.053699,-0.021545,0,-0.0026342,0,0,0,0.019958,0.00065332,0.0061835,-1.0025,0.0089317,0.017219,1.7394e-07,0.84,0.16,0
0.042135,0.0092021,0.02016,0.00051412,0.0062022,-0.00037188,0,0,0.054435,-0.022183,0,-0.0029006,0,0,0,0.020167,0.00050709,0.0062022,-1.084,0.0089587,0.017521,1.8105e-07,0.86,0.16,0
0.043231,0.009386,0.020339,0.00035172,0.0062071,-0.00037574,0,0,0.055113,-0.022836,0,-0.0029308,0,0,0,0.020346,0.00034466,0.0062071,-1.0766,0.0089659,0.017809,1.8766e-07,0.88,0.16,0
0.04434,0.0095351,0.020486,0.0001936,0.0062039,-0.00035235,0,0,0.0557,-0.02344,0,-0.0027484,0,0,0,0.020492,0.00018749,0.0062039,-0.99448,0.0089611,0.018064,1.9341e-07,0.9,0.16,0
0.045459,0.0096525,0.020602,5.3107e-05,0.0061965,-0.0003068,0,0,0.056181,-0.023959,0,-0.002393,0,0,0,0.020606,4.8527e-05,0.0061965,-0.8552,0.0089504,0.018277,1.9813e-07,0.92,0.16,0
0.046587,0.0097411,0.020688,-6.1702e-05,0.0061879,-0.00024422,0,0,0.056551,-0.024374,0,-0.001905,0,0,0,0.020691,-6.4576e-05,0.0061879,-0.67424,0.0089381,0.018442,2.0176e-07,0.94,0.16,0
0.047721,0.0098029,0.020748,-0.00014612,0.0061805,-0.00016939,0,0,0.056812,-0.024674,0,-0.0013212,0,0,0,0.020749,-0.0001475,0.0061805,-0.46446,0.0089274,0.01856,2.0432e-07,0.96,0.16,0
0.04886,0.0098394,0.020782,-0.00019759,0.0061755,-8.6631e-05,0,0,0.056967,-0.024855,0,-0.00067572,0,0,0,0.020783,-0.00019795,0.0061755,-0.23658,0.0089201,0.018631,2.0584e-07,0.98,0.16,0
0.05,0.0098515,0.020794,-0.00021487,0.0061737,7.7346e-05,0,0,0.057019,-0.024916,0,0.0006033,0,0,0,0.020794,-0.00021515,0.0061737,0.21094,0.0089176,0.018654,2.0636e-07,1,0.16,0
0,0,0.020616,0.0088353,0.0088353,0.0042589,0,0,0.045943,2.1684e-19,0,0.03322,0,0,0,0.021994,0.0074569,0.0088353,17.934,0.012762,0.013899,1.3335e-07,0,0.18,0
0.00091887,0.00066439,0.020534,0.0078353,0.0085107,0.0042423,0,0,0.04689,-0.0026342,0,0.03309,0,0,0,0.021821,0.0065484,0.0085107,16.875,0.012293,0.014392,1.4355e-07,0.02,0.18,0
0.0018756,0.0013211,0.020855,0.0069614,0.0083448,0.0041746,0,0,0.048788,-0.0053953,0,0.032562,0,0,0,0.022012,0.0058035,0.0083448,15.502,0.012053,0.0151,1.6006e-07,0.04,0.18,0
0.0028704,0.0019644,0.021158,0.0060773,0.0081706,0.0040549,0,0,0.050651,-0.0081639,0,0.031628,0,0,0,0.022179,0.0050561,0.0081706,14.135,0.011802,0.015798,1.7626e-07,0.06,0.18,0
0.0039016,0.0025869,0.021428,0.0052233,0.0079954,0.0038802,0,0,0.052387,-0.010811,0,0.030265,0,0,0,0.022309,0.0043421,0.0079954,12.795,0.011549,0.016448,1.9107e-07,0.08,0.18,0
0.0049659,0.0031811,0.021652,0.0044334,0.0078257,0.0036593,0,0,0.053924,-0.01323,0,0.028543,0,0,0,0.022398,0.003688,0.0078257,11.514,0.011304,0.017022,2.0375e-07,0.1,0.18,0
0.0060586,0.0037401,0.021824,0.0037301,0.0076662,0.0034079,0,0,0.055215,-0.015351,0,0.026582,0,0,0,0.022444,0.0031095,0.0076662,10.321,0.011073,0.017507,2.1394e-07,0.12,0.18,0
0.0071745,0.0042589,0.021942,0.0031243,0.0075198,0.0031431,0,0,0.056245,-0.017142,0,0.024516,0,0,0,0.022453,0.0026132,0.0075198,9.2364,0.010862,0.017898,2.2155e-07,0.14,0.18,0
0.0083084,0.0047337,0.022009,0.0026181,0.007388,0.0028799,0,0,0.057021,-0.018603,0,0.022463,0,0,0,0.022427,0.0021994,0.007388,8.2717,0.010672,0.018197,2.2675e-07,0.16,0.18,0
0.0094553,0.0051623,0.022031,0.0022079,0.0072717,0.0026292,0,0,0.057562,-0.019749,0,0.020508,0,0,0,0.022374,0.0018651,0.0072717,7.4283,0.010504,0.018411,2.2978e-07,0.18,0.18,0
0.010611,0.0055435,0.022015,0.0018876,0.0071706,0.002398,0,0,0.057891,-0.020604,0,0.018704,0,0,0,0.022296,0.0016058,0.0071706,6.7015,0.010358,0.018545,2.3088e-07,0.2,0.18,0
0.011771,0.0058765,0.021964,0.0016502,0.0070843,0.0021894,0,0,0.058032,-0.021193,0,0.017077,0,0,0,0.022198,0.0014169,0.0070843,6.0821,0.010233,0.018606,2.3028e-07,0.22,0.18,0
0.012932,0.006161,0.021883,0.0014886,0.0070115,0.0020035,0,0,0.057999,-0.021539,0,0.015627,0,0,0,0.022078,0.0012936,0.0070115,5.5577,0.010128,0.018597,2.281e-07,0.24,0.18,0
0.014091,0.0063965,0.021772,0.0013957,0.0069503,0.001838,0,0,0.057805,-0.021663,0,0.014336,0,0,0,0.021936,0.0012313,0.0069503,5.1131,0.010039,0.01852,2.2444e-07,0.26,0.18,0
0.015244,0.0065823,0.021629,0.001364,0.006898,0.0016883,0,0,0.057452,-0.021583,0,0.013169,0,0,0,0.021769,0.0012243,0.006898,4.7299,0.0099638,0.018377,2.1931e-07,0.28,0.18,0
0.016389,0.0067169,0.021452,0.0013839,0.0068509,0.0015478,0,0,0.056946,-0.021321,0,0.012073,0,0,0,0.021571,0.0012653,0.0068509,4.3844,0.0098958,0.018169,2.1273e-07,0.3,0.18,0
0.017522,0.006798,0.021238,0.0014417,0.006804,0.0014069,0,0,0.056294,-0.020913,0,0.010974,0,0,0,0.021338,0.0013422,0.006804,4.0448,0.009828,0.017901,2.0479e-07,0.32,0.18,0
0.018641,0.0068219,0.020988,0.0015152,0.006751,0.0012537,0,0,0.055525,-0.02042,0,0.0097786,0,0,0,0.021069,0.0014349,0.006751,3.6685,0.0097515,0.017589,1.9581e-07,0.34,0.18,0
0.019743,0.0067841,0.020716,0.0015649,0.0066842,0.0010789,0,0,0.054723,-0.019965,0,0.0084153,0,0,0,0.020776,0.0015043,0.0066842,3.2143,0.0096549,0.017275,1.8671e-07,0.36,0.18,0
0.02083,0.0066801,0.02043,0.0015102,0.0065819,0.00088815,0,0,0.054006,-0.01978,0,0.0069275,0,0,0,0.020471,0.0014686,0.0065819,2.6818,0.0095072,0.017032,1.7876e-07,0.38,0.18,0
0.021903,0.0065083,0.020162,0.0012844,0.0064339,0.00073624,0,0,0.053539,-0.020083,0,0.0057427,0,0,0,0.020191,0.0012558,0.0064339,2.2301,0.0092934,0.01695,1.7366e-07,0.4,0.18,0
0.022971,0.0062772,0.019832,0.00078045,0.0061836,0.00068462,0,0,0.053227,-0.021073,0,0.0053401,0,0,0,0.019856,0.00075588,0.0061836,2.0554,0.0089319,0.017047,1.702e-07,0.42,0.18,0
0.024032,0.0059993,0.019584,0.00024819,0.0059495,0.00088748,0,0,0.053173,-0.022235,0,0.0069223,0,0,0,0.019624,0.00020754,0.0059495,2.6225,0.0085938,0.017277,1.696e-07,0.44,0.18,0
0.025098,0.0057099,0.018892,-0.00064216,0.0054749,0.0011908,0,0,0.052326,-0.023857,0,0.0092885,0,0,0,0.018964,-0.00071448,0.0054749,3.4757,0.0079082,0.017429,1.6084e-07,0.46,0.18,0
0.026125,0.0053978,0.019274,-0.00080226,0.0055415,0.0021403,0,0,0.053557,-0.024741,0,0.016694,0,0,0,0.0195,-0.0010279,0.0055415,6.018,0.0080044,0.018157,1.7731e-07,0.48,0.18,0
0.027241,0.0051364,0.022578,-0.0017665,0.0062435,0.0023892,0,0,0.036631,-0.016838,0,0.012341,0,0,0,0.022832,-0.0020202,0.0062435,6.0796,0.0090184,0.021928,3.4983e-07,0.5,0.18,0
0.027782,0.0050365,0.019594,-0.00010089,0.0058479,0.0018483,0,0,0.026805,-0.013132,0,0.011248,0,0,0,0.019886,-0.00039265,0.0058479,7.2784,0.008447,0.018019,3.06e-07,0.52,0.18,0
0.028313,0.005033,0.019654,0.00017516,0.0059487,0.0013058,0,0,0.026725,-0.01202,0,0.007398,0,0,0,0.019786,4.2785e-05,0.0059487,5.2219,0.0085926,0.01756,3.0228e-07,0.54,0.18,0
0.028851,0.0050459,0.019998,0.00046678,0.0061396,0.0006306,0,0,0.027025,-0.011541,0,0.0036001,0,0,0,0.020031,0.00043444,0.0061396,2.6179,0.0088683,0.01746,3.108e-07,0.56,0.18,0
0.029394,0.0050754,0.020156,0.00057136,0.0062182,9.5653e-05,0,0,0.027179,-0.011377,0,0.00058569,0,0,0,0.020157,0.00057046,0.0062182,0.42926,0.0089819,0.017463,3.1559e-07,0.58,0.18,0
0.029938,0.0051211,0.020159,0.0005463,0.0062115,-0.00040317,0,0,0.027197,-0.011423,0,-0.0022146,0,0,0,0.020171,0.00053416,0.0062115,-1.6214,0.0089721,0.017504,3.1646e-07,0.6,0.18,0
0.030482,0.0051835,0.020008,0.0003899,0.0061195,-0.00093165,0,0,0.027083,-0.011684,0,-0.0051972,0,0,0,0.020075,0.00032377,0.0061195,-3.7389,0.0088393,0.017588,3.1352e-07,0.62,0.18,0
0.031021,0.005264,0.019679,3.8185e-05,0.0059152,-0.001595,0,0,0.026839,-0.012278,0,-0.0089342,0,0,0,0.019868,-0.00015076,0.0059152,-6.1893,0.0085441,0.017789,3.0727e-07,0.64,0.18,0
0.031555,0.0053637,0.019677,-0.00029261,0.0058153,-0.0020936,0,0,0.02703,-0.013546,0,-0.012584,0,0,0,0.020031,-0.0006462,0.0058153,-7.9432,0.0083999,0.018355,3.1463e-07,0.66,0.18,0
0.032103,0.0055687,0.022646,-0.0021817,0.0061394,-0.0025887,0,0,0.036999,-0.01748,0,-0.013247,0,0,0,0.022935,-0.0024705,0.0061394,-6.4173,0.0088679,0.022386,3.5913e-07,0.68,0.18,0
0.033228,0.0059434,0.019277,-0.0011881,0.0054267,-0.0022251,0,0,0.054016,-0.025798,0,-0.017356,0,0,0,0.019516,-0.0014272,0.0054267,-6.1341,0.0078386,0.018495,1.8095e-07,0.7,0.18,0
0.034263,0.0063785,0.018839,-0.0011027,0.0053207,-0.0011975,0,0,0.052719,-0.025051,0,-0.0093405,0,0,0,0.01891,-0.0011743,0.0053207,-3.4243,0.0076855,0.017752,1.6306e-07,0.72,0.18,0
0.035336,0.0068042,0.019481,-0.00028724,0.0057581,-0.00079451,0,0,0.053519,-0.023577,0,-0.0061972,0,0,0,0.019513,-0.00031912,0.0057581,-2.2979,0.0083173,0.017599,1.7157e-07,0.74,0.18,0
0.036404,0.0072331,0.019686,0.00019332,0.0059639,-0.0004833,0,0,0.053518,-0.022505,0,-0.0037698,0,0,0,0.019699,0.00018135,0.0059639,-1.4194,0.0086146,0.017364,1.7179e-07,0.76,0.18,0
0.037477,0.0076311,0.019968,0.00065105,0.0061858,-0.00041949,0,0,0.053752,-0.021586,0,-0.003272,0,0,0,0.019977,0.00064194,0.0061858,-1.2434,0.0089351,0.017245,1.7457e-07,0.78,0.18,0
0.038554,0.0079859,0.020188,0.00082986,0.0063053,-0.00045326,0,0,0.054141,-0.021354,0,-0.0035354,0,0,0,0.020198,0.00081926,0.0063053,-1.3406,0.0091076,0.017301,1.7861e-07,0.8,0.18,0
0.039643,0.008289,0.020425,0.00082366,0.0063747,-0.00052006,0,0,0.054797,-0.021649,0,-0.0040564,0,0,0,0.020439,0.00080987,0.0063747,-1.5187,0.0092079,0.017523,1.8528e-07,0.82,0.18,0
0.040746,0.0085424,0.020652,0.00069268,0.0064035,-0.00056068,0,0,0.05557,-0.022272,0,-0.0043733,0,0,0,0.020668,0.00067695,0.0064035,-1.6078,0.0092495,0.017831,1.9316e-07,0.84,0.18,0
0.041865,0.0087512,0.02086,0.00051287,0.0064118,-0.00056362,0,0,0.056347,-0.023006,0,-0.0043962,0,0,0,0.020875,0.00049727,0.0064118,-1.5855,0.0092615,0.018158,2.0112e-07,0.86,0.18,0
0.043,0.0089212,0.021034,0.000322,0.0064069,-0.00053285,0,0,0.057047,-0.023731,0,-0.0041563,0,0,0,0.021048,0.0003083,0.0064069,-1.4727,0.0092544,0.018462,2.0831e-07,0.88,0.18,0
0.044147,0.0090575,0.021174,0.00014131,0.0063945,-0.00047628,0,0,0.057639,-0.024387,0,-0.003715,0,0,0,0.021184,0.00013053,0.0063945,-1.2966,0.0092365,0.018725,2.1439e-07,0.9,0.18,0
0.045305,0.0091641,0.021281,-1.6473e-05,0.0063793,-0.0004006,0,0,0.058116,-0.024944,0,-0.0031247,0,0,0,0.021288,-2.4006e-05,0.0063793,-1.0772,0.0092145,0.018941,2.1928e-07,0.92,0.18,0
0.046472,0.009244,0.021359,-0.00014391,0.0063646,-0.00031117,0,0,0.058479,-0.025383,0,-0.0024271,0,0,0,0.021364,-0.00014841,0.0063646,-0.82888,0.0091933,0.019107,2.2299e-07,0.94,0.18,0
0.047645,0.0092995,0.021413,-0.00023687,0.0063528,-0.0002123,0,0,0.058734,-0.0257,0,-0.0016559,0,0,0,0.021415,-0.00023895,0.0063528,-0.56177,0.0091762,0.019225,2.2558e-07,0.96,0.18,0
0.048821,0.0093323,0.021444,-0.00029327,0.0063451,-0.00010755,0,0,0.058884,-0.02589,0,-0.00083891,0,0,0,0.021444,-0.0002938,0.0063451,-0.28349,0.0091652,0.019295,2.271e-07,0.98,0.18,0
0.05,0.0093431,0.021454,-0.00031215,0.0063425,6.9299e-05,0,0,0.058934,-0.025953,0,0.00054053,0,0,0,0.021454,-0.00031237,0.0063425,0.18242,0.0091614,0.019319,2.2762e-07,1,0.18,0
0,0,0.020665,0.0088566,0.0088566,0.0039259,0,0,0.046054,3.2526e-19,0,0.030622,0,0,0,0.021851,0.0076705,0.0088566,16.81,0.012793,0.013627,1.2664e-07,0,0.2,0
0.00092109,0.00061244,0.020583,0.0078771,0.0085381,0.0039131,0,0,0.046977,-0.0025783,0,0.030522,0,0,0,0.021692,0.0067687,0.0085381,15.815,0.012333,0.014122,1.3702e-07,0.02,0.2,0
0.0018791,0.0012154,0.020902,0.0070457,0.0083844,0.0038526,0,0,0.04882,-0.0052209,0,0.030051,0,0,0,0.021901,0.0060465,0.0083844,14.539,0.012111,0.014825,1.534e-07,0.04,0.2,0
0.0028739,0.0018049,0.021208,0.0062135,0.0082264,0.0037563,0,0,0.050628,-0.0078502,0,0.029299,0,0,0,0.022096,0.0053251,0.0082264,13.306,0.011883,0.015525,1.6979e-07,0.06,0.2,0
0.0039042,0.0023759,0.021489,0.0054082,0.0080692,0.0036195,0,0,0.052337,-0.010378,0,0.028232,0,0,0,0.022266,0.0046311,0.0080692,12.118,0.011655,0.016192,1.8533e-07,0.08,0.2,0
0.0049674,0.0029224,0.021736,0.0046548,0.0079172,0.0034459,0,0,0.053893,-0.012723,0,0.026878,0,0,0,0.022405,0.0039858,0.0079172,10.986,0.011436,0.016802,1.9938e-07,0.1,0.2,0
0.0060599,0.0034392,0.021942,0.0039721,0.0077742,0.0032453,0,0,0.055254,-0.014828,0,0.025313,0,0,0,0.02251,0.003404,0.0077742,9.9297,0.011229,0.017339,2.1148e-07,0.12,0.2,0
0.0071775,0.0039216,0.022105,0.0033718,0.007643,0.0030298,0,0,0.056401,-0.016658,0,0.023632,0,0,0,0.022583,0.002894,0.007643,8.9624,0.01104,0.017796,2.2146e-07,0.14,0.2,0
0.0083159,0.0043663,0.022225,0.0028587,0.0075252,0.0028113,0,0,0.057331,-0.018199,0,0.021928,0,0,0,0.022625,0.0024589,0.0075252,8.0947,0.01087,0.018171,2.2929e-07,0.16,0.2,0
0.0094708,0.0047707,0.022306,0.0024332,0.0074219,0.0025998,0,0,0.05805,-0.019456,0,0.020279,0,0,0,0.022641,0.0020987,0.0074219,7.3311,0.010721,0.018465,2.3506e-07,0.18,0.2,0
0.010638,0.0051334,0.022352,0.0020926,0.0073333,0.0024025,0,0,0.058572,-0.020439,0,0.01874,0,0,0,0.022633,0.0018116,0.0073333,6.6715,0.010592,0.018683,2.3892e-07,0.2,0.2,0
0.011814,0.0054532,0.022365,0.001833,0.0072593,0.0022241,0,0,0.058911,-0.021163,0,0.017348,0,0,0,0.022603,0.0015948,0.0072593,6.112,0.010486,0.018826,2.41e-07,0.22,0.2,0
0.012994,0.0057295,0.022348,0.0016495,0.0071992,0.0020664,0,0,0.05908,-0.021644,0,0.016118,0,0,0,0.022552,0.0014452,0.0071992,5.6459,0.010399,0.018899,2.4141e-07,0.24,0.2,0
0.014177,0.0059613,0.022302,0.0015373,0.0071518,0.0019294,0,0,0.059086,-0.021897,0,0.01505,0,0,0,0.02248,0.0013595,0.0071518,5.2638,0.01033,0.018902,2.402e-07,0.26,0.2,0
0.015358,0.0061477,0.022225,0.0014905,0.0071148,0.0018107,0,0,0.058931,-0.021935,0,0.014123,0,0,0,0.022382,0.0013335,0.0071148,4.9534,0.010277,0.018836,2.3737e-07,0.28,0.2,0
0.016534,0.0062867,0.022114,0.0015018,0.0070849,0.0017053,0,0,0.058615,-0.021774,0,0.013302,0,0,0,0.022254,0.0013617,0.0070849,4.6977,0.010234,0.0187,2.3284e-07,0.3,0.2,0
0.017702,0.0063755,0.021963,0.0015604,0.007057,0.0016049,0,0,0.058133,-0.021437,0,0.012518,0,0,0,0.022088,0.001435,0.007057,4.4702,0.010193,0.018495,2.2656e-07,0.32,0.2,0
0.018859,0.0064094,0.021765,0.0016481,0.007024,0.0014949,0,0,0.057491,-0.020966,0,0.01166,0,0,0,0.021876,0.0015376,0.007024,4.2266,0.010146,0.018225,2.1855e-07,0.34,0.2,0
0.020002,0.0063812,0.02153,0.001733,0.0069788,0.0013518,0,0,0.056748,-0.020459,0,0.010544,0,0,0,0.021621,0.0016412,0.0069788,3.8884,0.01008,0.017918,2.0947e-07,0.36,0.2,0
0.021129,0.0062807,0.021309,0.0017419,0.0069154,0.0011633,0,0,0.056137,-0.020177,0,0.0090738,0,0,0,0.021378,0.001673,0.0069154,3.3904,0.0099889,0.017677,2.0184e-07,0.38,0.2,0
0.022247,0.0061014,0.021069,0.0014347,0.006751,0.00095557,0,0,0.055839,-0.020734,0,0.0074535,0,0,0,0.021115,0.0013883,0.006751,2.7798,0.0097515,0.017667,1.9772e-07,0.4,0.2,0
0.023363,0.0058423,0.020982,0.0008582,0.0065519,0.00092879,0,0,0.056276,-0.022206,0,0.0072445,0,0,0,0.021024,0.00081542,0.0065519,2.637,0.0094639,0.018038,2.0187e-07,0.42,0.2,0
0.024498,0.0055388,0.020532,-0.00030848,0.0060672,0.0010346,0,0,0.056414,-0.024865,0,0.0080696,0,0,0,0.020584,-0.00035971,0.0060672,2.8349,0.0087637,0.018583,2.0162e-07,0.44,0.2,0
0.025619,0.0051917,0.0213,-0.00068822,0.0061835,0.0017999,0,0,0.058954,-0.0268,0,0.014039,0,0,0,0.021446,-0.00083459,0.0061835,4.6489,0.0089317,0.019731,2.3289e-07,0.46,0.2,0
0.026857,0.0048779,0.025811,-0.00081297,0.0074993,0.0017461,0,0,0.040938,-0.018167,0,0.0096214,0,0,0,0.025945,-0.00094757,0.0074993,4.2072,0.010832,0.023821,5.0306e-07,0.48,0.2,0
0.027466,0.0048484,0.01845,-0.0014076,0.0051127,0.00079189,0,0,0.027497,-0.013277,0,0.0053302,0,0,0,0.01852,-0.0014774,0.0051127,3.4145,0.007385,0.01765,2.3231e-07,0.5,0.2,0
0.027897,0.0048352,0.02446,-0.00045797,0.0072005,0.00077044,0,0,0.022437,-0.009956,0,0.0020031,0,0,0,0.024484,-0.00048177,0.0072005,1.7693,0.010401,0.022147,3.4006e-07,0.52,0.2,0
0.028364,0.0048231,0.026478,0.00030032,0.0080334,0.00045168,0,0,0.023977,-0.010053,0,0.0011744,0,0,0,0.026485,0.00029253,0.0080334,0.98824,0.011604,0.023307,4.1671e-07,0.54,0.2,0
0.028856,0.0048343,0.027643,0.00068459,0.0084982,0.00024168,0,0,0.024888,-0.010158,0,0.00062838,0,0,0,0.027645,0.00068242,0.0084982,0.51361,0.012275,0.024028,4.6662e-07,0.56,0.2,0
0.029359,0.0048625,0.028072,0.00079941,0.0086614,-1.96e-05,0,0,0.025234,-0.010221,0,-5.096e-05,0,0,0,0.028072,0.0007994,0.0086614,-0.041176,0.012511,0.024314,4.8643e-07,0.58,0.2,0
0.029865,0.0049077,0.028061,0.00076805,0.0086488,-0.00027785,0,0,0.025236,-0.010245,0,-0.00072242,0,0,0,0.028064,0.00076522,0.0086488,-0.58321,0.012493,0.024334,4.867e-07,0.6,0.2,0
0.030369,0.0049703,0.027608,0.00058707,0.0084584,-0.00053223,0,0,0.024894,-0.010233,0,-0.0013838,0,0,0,0.027618,0.00057659,0.0084584,-1.128,0.012218,0.024088,4.673e-07,0.62,0.2,0
0.030861,0.0050512,0.026402,0.00012113,0.007957,-0.00072477,0,0,0.023979,-0.010187,0,-0.0018844,0,0,0,0.026422,0.00010116,0.007957,-1.5785,0.011493,0.023404,4.1702e-07,0.64,0.2,0
0.031328,0.0051582,0.024337,-0.00074186,0.0070786,-0.001023,0,0,0.022436,-0.010167,0,-0.0026597,0,0,0,0.024379,-0.00078352,0.0070786,-2.3319,0.010225,0.022297,3.3989e-07,0.66,0.2,0
0.031759,0.0052693,0.01833,-0.0017988,0.0049594,-0.00096036,0,0,0.027583,-0.013776,0,-0.00605,0,0,0,0.018414,-0.001883,0.0049594,-3.8463,0.0071635,0.017886,2.3166e-07,0.68,0.2,0
0.032371,0.0054001,0.025676,-0.0014158,0.0072782,-0.0018466,0,0,0.041149,-0.018996,0,-0.0099865,0,0,0,0.02582,-0.0015595,0.0072782,-4.3237,0.010513,0.024204,5.0589e-07,0.7,0.2,0
0.033615,0.0058344,0.021208,-0.0012595,0.0059846,-0.0017641,0,0,0.059372,-0.028252,0,-0.01376,0,0,0,0.021346,-0.0013972,0.0059846,-4.4623,0.0086444,0.020096,2.3521e-07,0.72,0.2,0
0.034746,0.0063141,0.020416,-0.00094544,0.0058411,-0.00090652,0,0,0.056842,-0.026468,0,-0.0070709,0,0,0,0.020454,-0.00098384,0.0058411,-2.4257,0.0084372,0.01897,2.0378e-07,0.74,0.2,0
0.035889,0.0067667,0.020819,0.00015024,0.0062908,-0.00068257,0,0,0.05666,-0.023948,0,-0.005324,0,0,0,0.020841,0.00012773,0.0062908,-1.8894,0.0090867,0.018422,2.0415e-07,0.76,0.2,0
0.037012,0.0071911,0.020871,0.00068755,0.0064674,-0.00059317,0,0,0.056172,-0.022542,0,-0.0046267,0,0,0,0.020888,0.00067013,0.0064674,-1.682,0.0093419,0.018032,1.9955e-07,0.78,0.2,0
0.038136,0.0075518,0.021071,0.00094575,0.006605,-0.00068413,0,0,0.056417,-0.022071,0,-0.0053362,0,0,0,0.021094,0.00092252,0.006605,-1.9447,0.0095405,0.018016,2.0266e-07,0.8,0.2,0
0.039269,0.0078489,0.021258,0.00087075,0.0066388,-0.0007548,0,0,0.057017,-0.022495,0,-0.0058875,0,0,0,0.021286,0.00084284,0.0066388,-2.1174,0.0095893,0.018249,2.093e-07,0.82,0.2,0
0.040417,0.0080886,0.021469,0.0006906,0.0066478,-0.0007703,0,0,0.057801,-0.023233,0,-0.0060083,0,0,0,0.021497,0.00066209,0.0066478,-2.1202,0.0096024,0.01858,2.1785e-07,0.84,0.2,0
0.041581,0.0082819,0.02165,0.00047686,0.0066382,-0.00073615,0,0,0.058548,-0.024029,0,-0.005742,0,0,0,0.021676,0.0004513,0.0066382,-1.9888,0.0095885,0.018906,2.2593e-07,0.86,0.2,0
0.042759,0.0084368,0.021794,0.00026023,0.0066163,-0.00066975,0,0,0.059193,-0.024789,0,-0.005224,0,0,0,0.021815,0.00023942,0.0066163,-1.7797,0.0095568,0.019198,2.3286e-07,0.88,0.2,0
0.043949,0.0085596,0.021904,6.0338e-05,0.0065893,-0.0005817,0,0,0.059728,-0.025463,0,-0.0045373,0,0,0,0.02192,4.4858e-05,0.0065893,-1.5244,0.0095179,0.019447,2.3856e-07,0.9,0.2,0
0.045148,0.0086548,0.021986,-0.00011129,0.0065625,-0.00047886,0,0,0.060153,-0.026028,0,-0.0037351,0,0,0,0.021997,-0.00012167,0.0065625,-1.2408,0.0094792,0.019648,2.4304e-07,0.92,0.2,0
0.046355,0.0087258,0.022046,-0.00024822,0.0065392,-0.0003661,0,0,0.060475,-0.026471,0,-0.0028556,0,0,0,0.022052,-0.00025423,0.0065392,-0.94056,0.0094455,0.019803,2.464e-07,0.94,0.2,0
0.047567,0.0087749,0.022085,-0.00034724,0.0065214,-0.00024706,0,0,0.060699,-0.026788,0,-0.0019271,0,0,0,0.022088,-0.00034996,0.0065214,-0.63092,0.0094197,0.019912,2.4872e-07,0.96,0.2,0
0.048782,0.0088038,0.022108,-0.00040699,0.0065102,-0.00012436,0,0,0.06083,-0.026977,0,-0.00097001,0,0,0,0.022108,-0.00040767,0.0065102,-0.31646,0.0094037,0.019977,2.5007e-07,0.98,0.2,0
0.05,0.0088133,0.022115,-0.00042694,0.0065064,6.1089e-05,0,0,0.060874,-0.02704,0,0.00047649,0,0,0,0.022115,-0.0004271,0.0065064,0.15527,0.0093982,0.019998,2.5053e-07,1,0.2,0
0,0,0.02074,0.0088884,0.0088884,0.0035978,0,0,0.046219,-1.0842e-19,0,0.028063,0,0,0,0.021746,0.0078816,0.0088884,15.632,0.012839,0.01339,1.2094e-07,0,0.22,0
0.00092439,0.00056126,0.020657,0.0079191,0.0085728,0.0035876,0,0,0.047128,-0.0025494,0,0.027983,0,0,0,0.021598,0.0069782,0.0085728,14.696,0.012383,0.013891,1.3157e-07,0.02,0.22,0
0.0018851,0.0011123,0.020975,0.0071161,0.0084274,0.0035334,0,0,0.048937,-0.0051141,0,0.027561,0,0,0,0.021824,0.0062673,0.0084274,13.508,0.012173,0.014597,1.4802e-07,0.04,0.22,0
0.0028819,0.0016504,0.021283,0.0063212,0.0082813,0.0034541,0,0,0.050707,-0.0076444,0,0.026942,0,0,0,0.022042,0.0055623,0.0082813,12.392,0.011962,0.015303,1.6463e-07,0.06,0.22,0
0.0039134,0.0021718,0.021573,0.0055532,0.0081378,0.0033447,0,0,0.052396,-0.01008,0,0.026089,0,0,0,0.022243,0.0048829,0.0081378,11.332,0.011755,0.015983,1.8074e-07,0.08,0.22,0
0.0049777,0.0026721,0.021837,0.0048303,0.0080001,0.0032065,0,0,0.053963,-0.012362,0,0.02501,0,0,0,0.022421,0.0042458,0.0080001,10.331,0.011556,0.016619,1.9581e-07,0.1,0.22,0
0.0060719,0.003147,0.02207,0.0041676,0.0078712,0.0030453,0,0,0.055374,-0.014444,0,0.023753,0,0,0,0.022574,0.0036638,0.0078712,9.3945,0.01137,0.017197,2.0942e-07,0.12,0.22,0
0.0071927,0.0035926,0.022269,0.0035758,0.0077535,0.0028697,0,0,0.056611,-0.016293,0,0.022384,0,0,0,0.0227,0.0031452,0.0077535,8.534,0.011199,0.017706,2.2132e-07,0.14,0.22,0
0.0083364,0.0040058,0.022435,0.0030608,0.0076487,0.0026891,0,0,0.057666,-0.017893,0,0.020975,0,0,0,0.022801,0.0026945,0.0076487,7.7572,0.011048,0.018144,2.3141e-07,0.16,0.22,0
0.0094993,0.0043841,0.022568,0.0026252,0.0075579,0.002512,0,0,0.058539,-0.019238,0,0.019593,0,0,0,0.022879,0.0023137,0.0075579,7.0698,0.010917,0.018509,2.3969e-07,0.18,0.22,0
0.010678,0.0047259,0.022671,0.0022687,0.0074819,0.0023454,0,0,0.059237,-0.020331,0,0.018294,0,0,0,0.022937,0.0020026,0.0074819,6.4741,0.010807,0.018803,2.4623e-07,0.2,0.22,0
0.011869,0.00503,0.022747,0.0019898,0.0074209,0.0021945,0,0,0.05977,-0.021181,0,0.017117,0,0,0,0.022976,0.0017603,0.0074209,5.9696,0.010719,0.019028,2.5111e-07,0.22,0.22,0
0.013069,0.0052952,0.022798,0.0017858,0.007375,0.0020624,0,0,0.060148,-0.021798,0,0.016087,0,0,0,0.022998,0.0015853,0.007375,5.5534,0.010653,0.019185,2.5441e-07,0.24,0.22,0
0.014275,0.0055207,0.022825,0.0016537,0.0073437,0.0019506,0,0,0.060378,-0.022191,0,0.015215,0,0,0,0.023003,0.0014755,0.0073437,5.2203,0.010608,0.019276,2.5617e-07,0.26,0.22,0
0.015484,0.0057049,0.022829,0.0015898,0.0073258,0.0018583,0,0,0.060464,-0.02237,0,0.014495,0,0,0,0.022991,0.0014285,0.0073258,4.9627,0.010582,0.019302,2.5641e-07,0.28,0.22,0
0.016693,0.005846,0.022808,0.001589,0.0073192,0.0017829,0,0,0.060408,-0.022348,0,0.013907,0,0,0,0.022957,0.0014402,0.0073192,4.7696,0.010572,0.019262,2.5509e-07,0.3,0.22,0
0.0179,0.0059405,0.022757,0.0016433,0.00732,0.0017187,0,0,0.060203,-0.022139,0,0.013406,0,0,0,0.022896,0.0015043,0.00732,4.6235,0.010573,0.019157,2.5208e-07,0.32,0.22,0
0.019101,0.0059833,0.022663,0.0017394,0.0073207,0.0016542,0,0,0.059835,-0.021767,0,0.012903,0,0,0,0.022793,0.0016094,0.0073207,4.4926,0.010574,0.018984,2.4712e-07,0.34,0.22,0
0.020294,0.0059658,0.022506,0.0018494,0.0073066,0.0015638,0,0,0.059277,-0.021283,0,0.012198,0,0,0,0.022624,0.0017317,0.0073066,4.3049,0.010554,0.018737,2.3975e-07,0.36,0.22,0
0.021472,0.0058731,0.022318,0.0019394,0.0072772,0.0013869,0,0,0.058659,-0.020818,0,0.010817,0,0,0,0.022412,0.0018454,0.0072772,3.8754,0.010512,0.01846,2.3128e-07,0.38,0.22,0
0.02264,0.0056789,0.022319,0.0018391,0.0072474,0.0011382,0,0,0.058779,-0.021092,0,0.0088776,0,0,0,0.022382,0.001776,0.0072474,3.1712,0.010469,0.018488,2.3128e-07,0.4,0.22,0
0.023824,0.005389,0.021914,0.0005792,0.0067479,0.00090488,0,0,0.059147,-0.024058,0,0.007058,0,0,0,0.021952,0.00054089,0.0067479,2.4243,0.009747,0.019081,2.3365e-07,0.42,0.22,0
0.025006,0.0050047,0.022732,-0.00031381,0.0067255,0.0014478,0,0,0.062426,-0.027453,0,0.011293,0,0,0,0.022823,-0.00040441,0.0067255,3.5807,0.0097146,0.020609,2.7491e-07,0.44,0.22,0
0.026321,0.0046379,0.027543,-0.00043736,0.0081316,0.0010225,0,0,0.04343,-0.018906,0,0.0065337,0,0,0,0.027602,-0.00049694,0.0081316,2.5637,0.011746,0.024931,5.9635e-07,0.46,0.22,0
0.026966,0.0045928,0.019589,-0.00070253,0.005666,-6.2692e-05,0,0,0.028858,-0.013029,0,0.00091089,0,0,0,0.019602,-0.00071473,0.005666,0.45226,0.0081843,0.017996,2.6421e-07,0.48,0.22,0
0.027407,0.0046278,0.024754,-0.0012917,0.0070389,-0.00063485,0,0,0.02303,-0.01083,0,-0.0016506,0,0,0,0.02477,-0.0013071,0.0070389,-1.3954,0.010167,0.023066,3.6345e-07,0.5,0.22,0
0.027887,0.0046383,0.026211,1.4494e-05,0.0078675,-0.00051305,0,0,0.023846,-0.010209,0,-0.0013339,0,0,0,0.026221,4.4492e-06,0.0078675,-1.1216,0.011364,0.023302,4.0917e-07,0.52,0.22,0
0.028361,0.0046309,0.026351,0.00063453,0.0080956,-0.00038572,0,0,0.023732,-0.0096994,0,-0.0010029,0,0,0,0.026357,0.00062874,0.0080956,-0.85913,0.011694,0.022925,4.0476e-07,0.54,0.22,0
0.028837,0.0046396,0.02667,0.00084646,0.008255,-0.00021476,0,0,0.02394,-0.0096312,0,-0.00055836,0,0,0,0.026672,0.00084468,0.008255,-0.47644,0.011924,0.023034,4.1567e-07,0.56,0.22,0
0.029318,0.0046666,0.026912,0.00094752,0.0083577,-0.00014903,0,0,0.02412,-0.0096332,0,-0.00038748,0,0,0,0.026912,0.00094666,0.0083577,-0.32886,0.012072,0.023167,4.2523e-07,0.58,0.22,0
0.029801,0.0047113,0.026888,0.00091131,0.0083399,-0.00011752,0,0,0.024113,-0.0096572,0,-0.00030555,0,0,0,0.026889,0.00091077,0.0083399,-0.2592,0.012047,0.023175,4.2478e-07,0.6,0.22,0
0.030283,0.0047742,0.026599,0.00073449,0.0081999,-4.0016e-05,0,0,0.023918,-0.009705,0,-0.00010404,0,0,0,0.026599,0.00073443,0.0081999,-0.088645,0.011844,0.023056,4.142e-07,0.62,0.22,0
0.030758,0.0048566,0.02623,0.00043835,0.0080006,0.0001547,0,0,0.023699,-0.009831,0,0.00040222,0,0,0,0.026231,0.00043742,0.0080006,0.34364,0.011557,0.022966,4.0229e-07,0.64,0.22,0
0.031231,0.004957,0.026044,-0.00030304,0.0077222,0.00031471,0,0,0.023818,-0.010433,0,0.00081824,0,0,0,0.026047,-0.0003068,0.0077222,0.68426,0.011154,0.023397,4.0619e-07,0.66,0.22,0
0.031711,0.0050416,0.024536,-0.0017865,0.0068249,0.00045211,0,0,0.023025,-0.011195,0,0.0011755,0,0,0,0.024544,-0.0017943,0.0068249,0.9837,0.0098583,0.023259,3.5991e-07,0.68,0.22,0
0.032152,0.0051019,0.019418,-0.0011871,0.0054693,-3.6031e-05,0,0,0.028921,-0.013624,0,-0.0013028,0,0,0,0.01943,-0.0011987,0.0054693,-0.70998,0.0079001,0.018233,2.6282e-07,0.7,0.22,0
0.032799,0.0052485,0.027282,-0.0012813,0.0078001,-0.0010113,0,0,0.043614,-0.020026,0,-0.0063511,0,0,0,0.027336,-0.0013361,0.0078001,-2.4589,0.011267,0.02537,5.9575e-07,0.72,0.22,0
0.034121,0.0057455,0.022558,-0.0011072,0.0064354,-0.001285,0,0,0.06288,-0.029416,0,-0.010023,0,0,0,0.022628,-0.0011768,0.0064354,-3.099,0.0092955,0.021057,2.7689e-07,0.74,0.22,0
0.035314,0.0062752,0.021742,-0.00024419,0.0064494,-0.00062796,0,0,0.059642,-0.026105,0,-0.0048981,0,0,0,0.02176,-0.00026211,0.0064494,-1.6347,0.0093157,0.01955,2.3688e-07,0.76,0.22,0
0.036507,0.0067295,0.02211,0.00097424,0.0069253,-0.00073529,0,0,0.059221,-0.023209,0,-0.0057353,0,0,0,0.022136,0.00094869,0.0069253,-1.9901,0.010003,0.01892,2.3444e-07,0.78,0.22,0
0.037683,0.0071031,0.02209,0.0010398,0.0069388,-0.00087819,0,0,0.059088,-0.023006,0,-0.0068499,0,0,0,0.022126,0.0010032,0.0069388,-2.3848,0.010023,0.018869,2.3343e-07,0.8,0.22,0
0.03887,0.0073892,0.02226,0.00087465,0.0069403,-0.00094839,0,0,0.059745,-0.023656,0,-0.0073974,0,0,0,0.022301,0.00083267,0.0069403,-2.5343,0.010025,0.01916,2.4135e-07,0.82,0.22,0
0.040073,0.0076131,0.022418,0.00065707,0.0069225,-0.0009243,0,0,0.060432,-0.024435,0,-0.0072095,0,0,0,0.022457,0.00061788,0.0069225,-2.4278,0.0099992,0.019468,2.4932e-07,0.84,0.22,0
0.041288,0.00779,0.022526,0.00041245,0.0068814,-0.00085593,0,0,0.061012,-0.025229,0,-0.0066763,0,0,0,0.022559,0.00037937,0.0068814,-2.2133,0.0099398,0.019748,2.5583e-07,0.86,0.22,0
0.042513,0.0079297,0.022603,0.00017272,0.0068329,-0.00076212,0,0,0.061506,-0.025975,0,-0.0059446,0,0,0,0.022629,0.00014685,0.0068329,-1.9437,0.0098697,0.019996,2.6122e-07,0.88,0.22,0
0.043748,0.008039,0.022661,-4.3674e-05,0.0067853,-0.00065112,0,0,0.061916,-0.026633,0,-0.0050787,0,0,0,0.02268,-6.2332e-05,0.0067853,-1.6413,0.009801,0.020208,2.6561e-07,0.9,0.22,0
0.04499,0.008123,0.022703,-0.00022594,0.0067432,-0.00052898,0,0,0.062245,-0.02718,0,-0.0041261,0,0,0,0.022716,-0.00023814,0.0067432,-1.3209,0.0097402,0.02038,2.6904e-07,0.92,0.22,0
0.046238,0.0081852,0.022732,-0.00036927,0.0067089,-0.00040028,0,0,0.062491,-0.027605,0,-0.0031221,0,0,0,0.022739,-0.0003762,0.0067089,-0.99235,0.0096907,0.020512,2.7158e-07,0.94,0.22,0
0.047489,0.008228,0.022751,-0.00047188,0.0066837,-0.00026811,0,0,0.062662,-0.027907,0,-0.0020912,0,0,0,0.022754,-0.00047497,0.0066837,-0.66136,0.0096543,0.020605,2.733e-07,0.96,0.22,0
0.048744,0.0082532,0.022761,-0.00053338,0.0066683,-0.00013435,0,0,0.062762,-0.028087,0,-0.0010479,0,0,0,0.022762,-0.00053415,0.0066683,-0.33043,0.009632,0.020659,2.7429e-07,0.98,0.22,0
0.05,0.0082615,0.022764,-0.00055386,0.0066632,5.3128e-05,0,0,0.062795,-0.028146,0,0.0004144,0,0,0,0.022765,-0.00055398,0.0066632,0.13054,0.0096246,0.020677,2.7462e-07,1,0.22,0
0,0,0.020824,0.0089245,0.0089245,0.0032722,0,0,0.046407,-8.6736e-19,0,0.025523,0,0,0,0.021664,0.0080841,0.0089245,14.405,0.012891,0.01318,1.1598e-07,0,0.24,0
0.00092815,0.00051046,0.02074,0.0079598,0.0086101,0.0032637,0,0,0.047309,-0.0025361,0,0.025457,0,0,0,0.021526,0.0071746,0.0086101,13.527,0.012437,0.01369,1.269e-07,0.02,0.24,0
0.0018923,0.0010108,0.021059,0.0071761,0.0084707,0.0032153,0,0,0.049096,-0.0050487,0,0.02508,0,0,0,0.021768,0.0064676,0.0084707,12.427,0.012235,0.014404,1.4352e-07,0.04,0.24,0
0.002892,0.0014992,0.02137,0.0064084,0.0083334,0.0031488,0,0,0.050841,-0.0075074,0,0.024561,0,0,0,0.022005,0.0057727,0.0083334,11.414,0.012037,0.015116,1.6036e-07,0.06,0.24,0
0.003926,0.0019727,0.021666,0.0056691,0.0082005,0.0030595,0,0,0.052515,-0.0098724,0,0.023865,0,0,0,0.022231,0.0051039,0.0082005,10.466,0.011845,0.015808,1.7693e-07,0.08,0.24,0
0.0049926,0.0024279,0.021943,0.0049713,0.0080744,0.0029473,0,0,0.054089,-0.012102,0,0.022989,0,0,0,0.022441,0.0044741,0.0080744,9.5764,0.011663,0.016464,1.9279e-07,0.1,0.24,0
0.0060895,0.0028614,0.022198,0.0043267,0.0079575,0.0028159,0,0,0.055539,-0.01416,0,0.021964,0,0,0,0.022631,0.0038936,0.0079575,8.7455,0.011494,0.017073,2.0757e-07,0.12,0.24,0
0.0072141,0.0032699,0.022428,0.0037444,0.0078516,0.0026713,0,0,0.056847,-0.016018,0,0.020836,0,0,0,0.022802,0.00337,0.0078516,7.979,0.011341,0.017624,2.2105e-07,0.14,0.24,0
0.0083634,0.0036505,0.022631,0.0032304,0.0077585,0.0025207,0,0,0.058004,-0.01766,0,0.019662,0,0,0,0.022954,0.0029082,0.0077585,7.2832,0.011207,0.018114,2.3307e-07,0.16,0.24,0
0.0095343,0.0040012,0.02281,0.0027882,0.0076796,0.0023715,0,0,0.05901,-0.019076,0,0.018498,0,0,0,0.023087,0.0025112,0.0076796,6.6635,0.011093,0.01854,2.4359e-07,0.18,0.24,0
0.010724,0.0043201,0.022966,0.0024194,0.0076157,0.0022299,0,0,0.059867,-0.020266,0,0.017393,0,0,0,0.023206,0.0021802,0.0076157,6.1231,0.011,0.018903,2.5265e-07,0.2,0.24,0
0.011929,0.004606,0.023102,0.0021241,0.0075679,0.0021011,0,0,0.060584,-0.021231,0,0.016388,0,0,0,0.023311,0.0019157,0.0075679,5.6635,0.010931,0.019203,2.6028e-07,0.22,0.24,0
0.013147,0.0048575,0.023221,0.0019016,0.0075367,0.0019885,0,0,0.061168,-0.021977,0,0.01551,0,0,0,0.023405,0.0017177,0.0075367,5.2834,0.010886,0.019442,2.6657e-07,0.24,0.24,0
0.014376,0.0050737,0.023325,0.0017507,0.0075227,0.0018941,0,0,0.061629,-0.022511,0,0.014774,0,0,0,0.02349,0.0015857,0.0075227,4.9795,0.010866,0.019621,2.7159e-07,0.26,0.24,0
0.015612,0.0052528,0.023418,0.0016699,0.0075263,0.001818,0,0,0.061977,-0.02284,0,0.01418,0,0,0,0.023569,0.001519,0.0075263,4.7456,0.010871,0.019744,2.7542e-07,0.28,0.24,0
0.016855,0.0053928,0.023503,0.0016564,0.0075478,0.0017581,0,0,0.062225,-0.022976,0,0.013713,0,0,0,0.023644,0.0015158,0.0075478,4.5717,0.010902,0.019813,2.7817e-07,0.3,0.24,0
0.018101,0.0054899,0.023583,0.001706,0.0075868,0.0017106,0,0,0.062387,-0.022935,0,0.013342,0,0,0,0.023716,0.001573,0.0075868,4.4439,0.010959,0.019832,2.7994e-07,0.32,0.24,0
0.01935,0.0055387,0.023659,0.00181,0.0076408,0.0016676,0,0,0.062472,-0.02274,0,0.013007,0,0,0,0.023786,0.0016835,0.0076408,4.3395,0.011037,0.019807,2.8077e-07,0.34,0.24,0
0.0206,0.0055299,0.023718,0.001952,0.0077009,0.0016148,0,0,0.062466,-0.022421,0,0.012595,0,0,0,0.023837,0.0018329,0.0077009,4.2199,0.011124,0.019736,2.8031e-07,0.36,0.24,0
0.021849,0.005448,0.023653,0.0020608,0.0077142,0.0015004,0,0,0.062163,-0.022049,0,0.011703,0,0,0,0.023757,0.001957,0.0077142,3.9559,0.011143,0.019567,2.7546e-07,0.38,0.24,0
0.023087,0.0052577,0.023536,0.0021284,0.0076993,0.0011658,0,0,0.061763,-0.021727,0,0.0090935,0,0,0,0.023599,0.0020651,0.0076993,3.108,0.011121,0.019343,2.6812e-07,0.4,0.24,0
0.024319,0.00488,0.0244,0.0010639,0.007639,0.0011408,0,0,0.065366,-0.025643,0,0.0088982,0,0,0,0.024455,0.0010082,0.007639,2.7921,0.011034,0.020935,3.1676e-07,0.42,0.24,0
0.025701,0.0044407,0.029489,-0.00025069,0.0087715,0.0004698,0,0,0.046138,-0.019715,0,0.0040282,0,0,0,0.029517,-0.00027872,0.0087715,1.3694,0.01267,0.026459,7.3204e-07,0.44,0.24,0
0.026395,0.0043476,0.021078,-0.00020354,0.0062624,-0.00060974,0,0,0.030814,-0.013243,0,-0.0019052,0,0,0,0.021099,-0.00022419,0.0062624,-1.3262,0.0090457,0.018933,3.1896e-07,0.46,0.24,0
0.026857,0.0043811,0.026171,-0.0004876,0.0077049,-0.0009401,0,0,0.024005,-0.01065,0,-0.0024443,0,0,0,0.026204,-0.00052071,0.0077049,-2.0172,0.011129,0.023707,4.1698e-07,0.48,0.24,0
0.027355,0.0044152,0.026832,-0.00044318,0.0079166,-0.00060221,0,0,0.02459,-0.010868,0,-0.0015658,0,0,0,0.026845,-0.00045647,0.0079166,-1.2642,0.011435,0.024226,4.4706e-07,0.5,0.24,0
0.027841,0.0044268,0.026466,-0.00026618,0.00786,-0.00073629,0,0,0.024188,-0.010564,0,-0.0019143,0,0,0,0.026486,-0.00028644,0.00786,-1.5765,0.011353,0.023771,4.2665e-07,0.52,0.24,0
0.028322,0.0044351,0.026496,0.00044812,0.0080834,-0.00061659,0,0,0.023937,-0.0099259,0,-0.0016031,0,0,0,0.026511,0.00043353,0.0080834,-1.3552,0.011676,0.023218,4.1546e-07,0.54,0.24,0
0.028798,0.004449,0.026427,0.00078718,0.0081644,-0.0004175,0,0,0.023742,-0.0095904,0,-0.0010855,0,0,0,0.026434,0.00078039,0.0081644,-0.93261,0.011793,0.022874,4.0567e-07,0.56,0.24,0
0.029272,0.0044772,0.026419,0.00090189,0.0081963,-0.0002096,0,0,0.02369,-0.0094827,0,-0.00054496,0,0,0,0.026421,0.00090017,0.0081963,-0.47059,0.011839,0.022767,4.0288e-07,0.58,0.24,0
0.029746,0.0045214,0.026393,0.00085916,0.0081756,-1.0787e-05,0,0,0.023682,-0.0095114,0,-2.8047e-05,0,0,0,0.026393,0.00085916,0.0081756,-0.024206,0.011809,0.022775,4.0233e-07,0.6,0.24,0
0.030219,0.0045821,0.026349,0.00065672,0.0081017,0.00021242,0,0,0.023721,-0.0096784,0,0.00055229,0,0,0,0.026351,0.00065497,0.0081017,0.47367,0.011702,0.022899,4.0401e-07,0.62,0.24,0
0.030694,0.004658,0.026365,0.00021879,0.0079751,0.00043934,0,0,0.023907,-0.010083,0,0.0011423,0,0,0,0.026372,0.00021141,0.0079751,0.96241,0.01152,0.023271,4.1276e-07,0.64,0.24,0
0.031175,0.0047408,0.026282,-0.00061819,0.007699,0.00058856,0,0,0.024157,-0.010812,0,0.0015302,0,0,0,0.026294,-0.00063106,0.007699,1.2528,0.011121,0.023876,4.2307e-07,0.66,0.24,0
0.031661,0.0048215,0.02659,-0.00095098,0.0076917,0.00047683,0,0,0.024568,-0.011235,0,0.0012398,0,0,0,0.026598,-0.00095923,0.0076917,0.9916,0.01111,0.02441,4.4307e-07,0.68,0.24,0
0.032158,0.0048809,0.025907,-0.0011385,0.0074305,0.00081763,0,0,0.024019,-0.01114,0,0.0021258,0,0,0,0.025932,-0.0011632,0.0074305,1.7301,0.010733,0.023982,4.1401e-07,0.7,0.24,0
0.032622,0.0049406,0.02088,-0.00083891,0.0060123,0.00058152,0,0,0.030933,-0.014037,0,0.001837,0,0,0,0.020898,-0.00085713,0.0060123,1.2496,0.0086844,0.019262,3.1875e-07,0.72,0.24,0
0.033318,0.0051375,0.029143,-0.0014189,0.0083172,-0.0003282,0,0,0.046402,-0.021269,0,-0.0032063,0,0,0,0.029163,-0.0014387,0.0083172,-1.0237,0.012014,0.027076,7.3269e-07,0.74,0.24,0
0.034709,0.0057225,0.024161,3.2063e-05,0.0072578,-0.00082443,0,0,0.065921,-0.02818,0,-0.0064305,0,0,0,0.024189,3.9265e-06,0.0072578,-1.9546,0.010483,0.021496,3.2123e-07,0.76,0.24,0
0.035955,0.0062627,0.02334,0.001191,0.0073593,-0.00074129,0,0,0.062325,-0.024057,0,-0.0057821,0,0,0,0.023365,0.0011662,0.0073593,-1.9147,0.01063,0.019841,2.7332e-07,0.78,0.24,0
0.037202,0.0066315,0.023421,0.0010595,0.0073443,-0.00097786,0,0,0.062701,-0.024511,0,-0.0076273,0,0,0,0.023464,0.0010168,0.0073443,-2.4991,0.010608,0.020047,2.7907e-07,0.8,0.24,0
0.038463,0.0069026,0.023504,0.00088411,0.0073163,-0.0010059,0,0,0.06313,-0.025086,0,-0.0078461,0,0,0,0.023548,0.00083946,0.0073163,-2.5413,0.010568,0.020262,2.8471e-07,0.82,0.24,0
0.039728,0.0071112,0.023474,0.00061938,0.0072279,-0.00096291,0,0,0.063358,-0.025773,0,-0.0075107,0,0,0,0.023514,0.00057889,0.0072279,-2.4083,0.01044,0.020439,2.8717e-07,0.84,0.24,0
0.040997,0.0072727,0.023445,0.00033837,0.007135,-0.00088926,0,0,0.063609,-0.026507,0,-0.0069362,0,0,0,0.023479,0.00030419,0.007135,-2.2007,0.010306,0.020626,2.897e-07,0.86,0.24,0
0.042272,0.0073978,0.023427,7.131e-05,0.0070496,-0.00078898,0,0,0.063873,-0.027215,0,-0.0061541,0,0,0,0.023454,4.4688e-05,0.0070496,-1.9326,0.010183,0.020811,2.9228e-07,0.88,0.24,0
0.043552,0.0074943,0.023417,-0.00016107,0.0069767,-0.00067014,0,0,0.064116,-0.027837,0,-0.0052271,0,0,0,0.023436,-0.0001801,0.0069767,-1.6267,0.010077,0.020974,2.9459e-07,0.9,0.24,0
0.044837,0.0075676,0.023408,-0.00035173,0.0069168,-0.00054066,0,0,0.064315,-0.028347,0,-0.0042171,0,0,0,0.02342,-0.00036403,0.0069168,-1.3029,0.0099909,0.021108,2.964e-07,0.92,0.24,0
0.046125,0.0076216,0.023399,-0.00049887,0.0068701,-0.00040645,0,0,0.064463,-0.028739,0,-0.0031703,0,0,0,0.023406,-0.00050579,0.0068701,-0.97409,0.0099234,0.021209,2.9769e-07,0.94,0.24,0
0.047415,0.0076586,0.023391,-0.00060287,0.0068366,-0.00027084,0,0,0.064564,-0.029014,0,-0.0021126,0,0,0,0.023395,-0.00060593,0.0068366,-0.64663,0.0098751,0.021279,2.9852e-07,0.96,0.24,0
0.048707,0.0076803,0.023386,-0.00066472,0.0068165,-0.00013527,0,0,0.064622,-0.029177,0,-0.0010551,0,0,0,0.023387,-0.00066548,0.0068165,-0.32225,0.009846,0.02132,2.9899e-07,0.98,0.24,0
0.05,0.0076875,0.023384,-0.00068523,0.0068098,4.5784e-05,0,0,0.064641,-0.02923,0,0.00035711,0,0,0,0.023384,-0.00068532,0.0068098,0.10898,0.0098363,0.021334,2.9914e-07,1,0.24,0
0,0,0.020907,0.0089603,0.0089603,0.0029475,0,0,0.046594,2.1684e-19,0,0.022991,0,0,0,0.021595,0.0082727,0.0089603,13.132,0.012943,0.012992,1.1157e-07,0,0.26,0
0.00093187,0.00045982,0.020823,0.0079976,0.0086462,0.0029402,0,0,0.04749,-0.0025299,0,0.022934,0,0,0,0.021465,0.0073557,0.0086462,12.316,0.012489,0.01351,1.2277e-07,0.02,0.26,0
0.0018996,0.00091032,0.021143,0.0072278,0.0085113,0.0028975,0,0,0.049264,-0.0050054,0,0.022601,0,0,0,0.021722,0.0066486,0.0085113,11.305,0.012294,0.014234,1.3961e-07,0.04,0.26,0
0.0029024,0.0013501,0.021455,0.0064807,0.0083808,0.0028409,0,0,0.050991,-0.0074105,0,0.022159,0,0,0,0.021976,0.0059598,0.0083808,10.389,0.012106,0.014954,1.5667e-07,0.06,0.26,0
0.0039392,0.0017769,0.021757,0.005764,0.0082564,0.0027662,0,0,0.052653,-0.00972,0,0.021576,0,0,0,0.022222,0.0052991,0.0082564,9.5409,0.011926,0.015655,1.736e-07,0.08,0.26,0
0.0050085,0.0021881,0.022045,0.005087,0.0081397,0.0026728,0,0,0.054232,-0.011905,0,0.020848,0,0,0,0.022457,0.0046757,0.0081397,8.7479,0.011757,0.016327,1.9005e-07,0.1,0.26,0
0.0061085,0.0025806,0.022318,0.0044584,0.0080328,0.002563,0,0,0.05571,-0.01394,0,0.019991,0,0,0,0.022678,0.0040979,0.0080328,8.0074,0.011603,0.016959,2.0575e-07,0.12,0.26,0
0.007237,0.0029519,0.022572,0.0038856,0.0079372,0.0024412,0,0,0.057074,-0.015801,0,0.019041,0,0,0,0.022885,0.003572,0.0079372,7.3216,0.011465,0.017543,2.2048e-07,0.14,0.26,0
0.0083915,0.0032994,0.022808,0.0033743,0.0078546,0.0023131,0,0,0.058317,-0.017473,0,0.018042,0,0,0,0.023079,0.0031028,0.0078546,6.695,0.011345,0.018075,2.341e-07,0.16,0.26,0
0.0095696,0.0036211,0.023026,0.0029283,0.0077863,0.0021845,0,0,0.059435,-0.018946,0,0.017039,0,0,0,0.023261,0.0026937,0.0077863,6.1322,0.011247,0.018553,2.4656e-07,0.18,0.26,0
0.010769,0.0039153,0.023229,0.0025503,0.0077339,0.002061,0,0,0.060432,-0.020216,0,0.016076,0,0,0,0.023433,0.0023469,0.0077339,5.6365,0.011171,0.018975,2.5787e-07,0.2,0.26,0
0.011987,0.0041808,0.02342,0.0022416,0.0076984,0.0019472,0,0,0.061313,-0.021281,0,0.015188,0,0,0,0.023597,0.0020641,0.0076984,5.2098,0.01112,0.019342,2.6806e-07,0.22,0.26,0
0.013221,0.0044162,0.023601,0.0020034,0.0076813,0.0018463,0,0,0.062087,-0.022144,0,0.014401,0,0,0,0.023758,0.0018468,0.0076813,4.8512,0.011095,0.019654,2.772e-07,0.24,0.26,0
0.01447,0.0046203,0.023777,0.0018366,0.0076842,0.0017598,0,0,0.062764,-0.022806,0,0.013727,0,0,0,0.023918,0.0016963,0.0076842,4.5567,0.011099,0.019915,2.8541e-07,0.26,0.26,0
0.015732,0.0047913,0.023955,0.0017418,0.0077091,0.0016869,0,0,0.06336,-0.023273,0,0.013158,0,0,0,0.024083,0.0016144,0.0077091,4.3179,0.011135,0.020125,2.9285e-07,0.28,0.26,0
0.017005,0.0049269,0.024143,0.0017199,0.007759,0.0016237,0,0,0.063899,-0.023553,0,0.012665,0,0,0,0.024261,0.001603,0.007759,4.1202,0.011208,0.020292,2.9976e-07,0.3,0.26,0
0.018288,0.0050231,0.024357,0.0017716,0.0078387,0.0015628,0,0,0.064422,-0.023661,0,0.01219,0,0,0,0.024465,0.001664,0.0078387,3.9396,0.011322,0.020426,3.0662e-07,0.32,0.26,0
0.019582,0.0050737,0.024624,0.0018985,0.0079568,0.0014915,0,0,0.065003,-0.023627,0,0.011634,0,0,0,0.024722,0.001801,0.0079568,3.7391,0.011493,0.020546,3.1437e-07,0.34,0.26,0
0.020888,0.0050689,0.024998,0.0021069,0.0081314,0.0013853,0,0,0.065779,-0.023495,0,0.010805,0,0,0,0.025081,0.0020234,0.0081314,3.4506,0.011745,0.020691,3.2487e-07,0.36,0.26,0
0.022213,0.0049911,0.025622,0.0024411,0.0084189,0.0012023,0,0,0.067091,-0.023313,0,0.0093781,0,0,0,0.025684,0.0023789,0.0084189,2.9612,0.012161,0.020949,3.4319e-07,0.38,0.26,0
0.023572,0.0048098,0.026782,0.0030092,0.0089374,0.00054136,0,0,0.069595,-0.02312,0,0.0042226,0,0,0,0.026794,0.0029969,0.0089374,1.3038,0.01291,0.021453,3.7907e-07,0.4,0.26,0
0.024997,0.0043632,0.033153,0.00075444,0.010172,0.0010265,0,0,0.050099,-0.019859,0,0.0055082,0,0,0,0.033191,0.00071603,0.010172,2.09,0.014693,0.028933,1.0593e-06,0.42,0.26,0
0.025787,0.0041312,0.023836,0.00055306,0.0073167,-0.0011166,0,0,0.03465,-0.01395,0,-0.0053404,0,0,0,0.023893,0.00049622,0.0073167,-3.0343,0.010569,0.020841,4.3655e-07,0.44,0.26,0
0.026285,0.0041335,0.027941,0.00021641,0.0084472,-0.00089342,0,0,0.025342,-0.0107,0,-0.0023229,0,0,0,0.02797,0.00018765,0.0084472,-1.8438,0.012202,0.02471,4.9312e-07,0.46,0.26,0
0.026801,0.0041668,0.027801,-8.4381e-05,0.0083151,-0.00033432,0,0,0.025332,-0.010919,0,-0.00086922,0,0,0,0.027805,-8.8389e-05,0.0083151,-0.68678,0.012011,0.024785,4.8967e-07,0.48,0.26,0
0.027298,0.0041931,0.026991,-0.00048971,0.0079502,-0.00046841,0,0,0.024752,-0.010972,0,-0.0012178,0,0,0,0.026999,-0.00049769,0.0079502,-0.97624,0.011484,0.024395,4.5542e-07,0.5,0.26,0
0.027791,0.0042157,0.026752,-0.00013305,0.0079856,-0.00052809,0,0,0.024396,-0.010554,0,-0.001373,0,0,0,0.026762,-0.00014341,0.0079856,-1.1249,0.011535,0.023901,4.376e-07,0.52,0.26,0
0.028274,0.0042338,0.026494,0.00026411,0.0080273,-0.00053015,0,0,0.024006,-0.010092,0,-0.0013784,0,0,0,0.026504,0.0002534,0.0080273,-1.1574,0.011595,0.023355,4.1829e-07,0.54,0.26,0
0.028751,0.004256,0.02635,0.0006045,0.0080862,-0.00039627,0,0,0.023742,-0.0097262,0,-0.0010303,0,0,0,0.026356,0.0005984,0.0080862,-0.88162,0.01168,0.022949,4.0525e-07,0.56,0.26,0
0.029224,0.0042873,0.026258,0.00073786,0.0080988,-0.00019832,0,0,0.023607,-0.0095693,0,-0.00051563,0,0,0,0.02626,0.00073632,0.0080988,-0.44521,0.011698,0.022754,3.9838e-07,0.58,0.26,0
0.029695,0.0043309,0.026236,0.0006865,0.0080768,2.4012e-05,0,0,0.023607,-0.0096073,0,6.2431e-05,0,0,0,0.026236,0.00068648,0.0080768,0.053847,0.011666,0.022772,3.9816e-07,0.6,0.26,0
0.030168,0.004387,0.026281,0.00044814,0.0080188,0.00024018,0,0,0.023741,-0.0098418,0,0.00062448,0,0,0,0.026283,0.00044591,0.0080188,0.53265,0.011583,0.023006,4.0456e-07,0.62,0.26,0
0.030645,0.0044532,0.026374,-4.1594e-06,0.0079109,0.00040601,0,0,0.024002,-0.01029,0,0.0010556,0,0,0,0.02638,-1.0407e-05,0.0079109,0.88161,0.011427,0.023456,4.1693e-07,0.64,0.26,0
0.031128,0.0045245,0.02657,-0.00052425,0.0078138,0.00044012,0,0,0.024383,-0.01084,0,0.0011443,0,0,0,0.026578,-0.00053139,0.0078138,0.93037,0.011287,0.024048,4.3513e-07,0.66,0.26,0
0.03162,0.0045922,0.026744,-0.0010082,0.0077209,0.00040351,0,0,0.024731,-0.011348,0,0.0010491,0,0,0,0.02675,-0.0010141,0.0077209,0.83281,0.011152,0.024589,4.5152e-07,0.68,0.26,0
0.032118,0.0046563,0.027497,-0.0007514,0.0080237,0.00027697,0,0,0.025316,-0.011408,0,0.00072013,0,0,0,0.0275,-0.00075412,0.0080237,0.5617,0.01159,0.025047,4.856e-07,0.7,0.26,0
0.032633,0.0047141,0.027662,-0.00061609,0.0081137,0.00082148,0,0,0.025412,-0.011349,0,0.0021359,0,0,0,0.027685,-0.00063994,0.0081137,1.6626,0.01172,0.02512,4.9339e-07,0.72,0.26,0
0.033134,0.0048034,0.023648,-0.00031514,0.0069998,0.0011826,0,0,0.034935,-0.015077,0,0.0057528,0,0,0,0.023711,-0.00037815,0.0069998,3.1626,0.010111,0.021378,4.427e-07,0.74,0.26,0
0.033932,0.005148,0.032769,-0.00078544,0.0095952,-0.00071675,0,0,0.0505,-0.021938,0,-0.0038223,0,0,0,0.032787,-0.00080337,0.0095952,-1.4055,0.01386,0.029788,1.0727e-06,0.76,0.26,0
0.035366,0.0057672,0.026537,0.0019552,0.0085477,-8.0282e-05,0,0,0.070159,-0.025711,0,-0.0006262,0,0,0,0.026537,0.001955,0.0085477,-0.18712,0.012347,0.022038,3.8843e-07,0.78,0.26,0
0.036738,0.0061227,0.025406,0.0013665,0.0080317,-0.00069117,0,0,0.067759,-0.025994,0,-0.0053911,0,0,0,0.025426,0.0013467,0.0080317,-1.6455,0.011601,0.021529,3.5087e-07,0.8,0.26,0
0.038077,0.0063858,0.024819,0.00098072,0.0077399,-0.00080919,0,0,0.066608,-0.026361,0,-0.0063116,0,0,0,0.024846,0.00095329,0.0077399,-1.9419,0.01118,0.021326,3.3335e-07,0.82,0.26,0
0.039402,0.0065822,0.024505,0.00062279,0.0075382,-0.00085284,0,0,0.066169,-0.02697,0,-0.0066522,0,0,0,0.024535,0.00059237,0.0075382,-2.0426,0.010889,0.021335,3.264e-07,0.84,0.26,0
0.040724,0.0067297,0.024322,0.00027201,0.0073782,-0.00082289,0,0,0.066081,-0.027714,0,-0.0064186,0,0,0,0.02435,0.00024388,0.0073782,-1.9574,0.010657,0.021448,3.242e-07,0.86,0.26,0
0.042045,0.0068411,0.024212,-3.072e-05,0.0072544,-0.00074186,0,0,0.066135,-0.028412,0,-0.0057865,0,0,0,0.024235,-5.34e-05,0.0072544,-1.7511,0.010478,0.021583,3.2388e-07,0.88,0.26,0
0.043369,0.0069255,0.024133,-0.00028026,0.0071557,-0.00063137,0,0,0.06621,-0.029,0,-0.0049247,0,0,0,0.024149,-0.00029658,0.0071557,-1.4805,0.010336,0.021701,3.2386e-07,0.9,0.26,0
0.044694,0.0069891,0.02407,-0.00047787,0.0070777,-0.00050782,0,0,0.06627,-0.029467,0,-0.003961,0,0,0,0.024081,-0.00048837,0.0070777,-1.1846,0.010223,0.021794,3.2374e-07,0.92,0.26,0
0.04602,0.0070356,0.024021,-0.00062681,0.0070182,-0.0003801,0,0,0.06631,-0.029815,0,-0.0029648,0,0,0,0.024026,-0.00063267,0.0070182,-0.88331,0.010137,0.021862,3.2351e-07,0.94,0.26,0
0.047346,0.0070675,0.023984,-0.00073046,0.0069762,-0.00025231,0,0,0.066332,-0.030056,0,-0.001968,0,0,0,0.023987,-0.00073303,0.0069762,-0.58483,0.010077,0.021908,3.2326e-07,0.96,0.26,0
0.048673,0.0070861,0.023962,-0.00079151,0.0069513,-0.00012569,0,0,0.066343,-0.030197,0,-0.0009804,0,0,0,0.023963,-0.00079214,0.0069513,-0.29092,0.010041,0.021934,3.2307e-07,0.98,0.26,0
0.05,0.0070922,0.023955,-0.00081167,0.006943,3.9327e-05,0,0,0.066347,-0.030243,0,0.00030675,0,0,0,0.023955,-0.00081173,0.006943,0.090981,0.010029,0.021942,3.23e-07,1,0.26,0
0,0,0.020982,0.0089922,0.0089922,0.0026235,0,0,0.046759,0,0,0.020463,0,0,0,0.021531,0.0084432,0.0089922,11.818,0.012989,0.012822,1.0759e-07,0,0.28,0
0.00093518,0.00040926,0.020897,0.0080312,0.0086784,0.0026169,0,0,0.047652,-0.0025242,0,0.020412,0,0,0,0.021409,0.0075193,0.0086784,11.068,0.012535,0.013348,1.1904e-07,0.02,0.28,0
0.0019061,0.00081057,0.021217,0.0072726,0.0085469,0.0025799,0,0,0.049414,-0.0049699,0,0.020123,0,0,0,0.021679,0.0068106,0.0085469,10.153,0.012346,0.014081,1.3607e-07,0.04,0.28,0
0.0029117,0.0012027,0.021531,0.006542,0.0084219,0.002531,0,0,0.051125,-0.0073315,0,0.019741,0,0,0,0.021947,0.0061262,0.0084219,9.3302,0.012165,0.014807,1.533e-07,0.06,0.28,0
0.0039511,0.0015839,0.021837,0.005844,0.0083042,0.0024667,0,0,0.052777,-0.009595,0,0.01924,0,0,0,0.022209,0.0054722,0.0083042,8.5719,0.011995,0.015515,1.7049e-07,0.08,0.28,0
0.0050228,0.0019517,0.022133,0.0051846,0.0081953,0.0023864,0,0,0.054358,-0.011742,0,0.018614,0,0,0,0.022463,0.004855,0.0081953,7.8638,0.011838,0.016198,1.8737e-07,0.1,0.28,0
0.0061254,0.0023038,0.022419,0.0045703,0.0080967,0.0022916,0,0,0.055856,-0.013753,0,0.017874,0,0,0,0.022708,0.0042808,0.0080967,7.2007,0.011695,0.016847,2.0374e-07,0.12,0.28,0
0.0072571,0.0026378,0.022693,0.004007,0.0080099,0.0021855,0,0,0.057262,-0.015611,0,0.017047,0,0,0,0.022945,0.0037548,0.0080099,6.5831,0.01157,0.017456,2.1942e-07,0.14,0.28,0
0.0084159,0.0029516,0.022955,0.0034996,0.0079363,0.0020726,0,0,0.058571,-0.017303,0,0.016166,0,0,0,0.023173,0.0032813,0.0079363,6.014,0.011463,0.018021,2.3432e-07,0.16,0.28,0
0.0095999,0.0032434,0.023206,0.0030522,0.0078775,0.0019577,0,0,0.059782,-0.018819,0,0.01527,0,0,0,0.023394,0.0028638,0.0078775,5.497,0.011379,0.01854,2.4837e-07,0.18,0.28,0
0.010807,0.0035115,0.023449,0.0026677,0.007835,0.0018453,0,0,0.060894,-0.020152,0,0.014394,0,0,0,0.023612,0.0025052,0.007835,5.0352,0.011317,0.01901,2.6158e-07,0.2,0.28,0
0.012036,0.0037547,0.023686,0.0023491,0.0078105,0.0017395,0,0,0.061914,-0.0213,0,0.013568,0,0,0,0.023827,0.0022082,0.0078105,4.6303,0.011282,0.019433,2.7397e-07,0.22,0.28,0
0.013284,0.0039718,0.023921,0.0020987,0.0078058,0.0016427,0,0,0.062848,-0.022258,0,0.012813,0,0,0,0.024044,0.0019758,0.0078058,4.2809,0.011275,0.019807,2.8562e-07,0.24,0.28,0
0.01455,0.0041614,0.024158,0.0019198,0.0078234,0.0015555,0,0,0.063706,-0.023024,0,0.012133,0,0,0,0.024267,0.0018116,0.0078234,3.9818,0.0113,0.020134,2.9662e-07,0.26,0.28,0
0.015832,0.0043219,0.024405,0.0018163,0.0078664,0.0014753,0,0,0.064501,-0.023595,0,0.011507,0,0,0,0.024501,0.0017204,0.0078664,3.721,0.011363,0.020414,3.0709e-07,0.28,0.28,0
0.01713,0.0044507,0.024671,0.0017935,0.0079394,0.0013948,0,0,0.065254,-0.023969,0,0.010879,0,0,0,0.024756,0.0017087,0.0079394,3.4759,0.011468,0.020649,3.1727e-07,0.3,0.28,0
0.018442,0.0045434,0.024974,0.0018588,0.0080498,0.0012994,0,0,0.066004,-0.024145,0,0.010135,0,0,0,0.025047,0.001786,0.0080498,3.2073,0.011628,0.020847,3.276e-07,0.32,0.28,0
0.01977,0.0045936,0.025345,0.0020244,0.0082107,0.0011622,0,0,0.066822,-0.024126,0,0.0090653,0,0,0,0.025402,0.0019667,0.0082107,2.8461,0.01186,0.021021,3.39e-07,0.34,0.28,0
0.021115,0.0045901,0.025839,0.002315,0.0084463,0.00093559,0,0,0.067833,-0.023912,0,0.0072976,0,0,0,0.025877,0.0022779,0.0084463,2.2739,0.0122,0.021199,3.5321e-07,0.36,0.28,0
0.022483,0.0045155,0.026552,0.0027994,0.0088054,0.00050439,0,0,0.069212,-0.023423,0,0.0039343,0,0,0,0.026563,0.0027887,0.0088054,1.216,0.012719,0.02141,3.7303e-07,0.38,0.28,0
0.023883,0.0043329,0.027095,0.0034889,0.009175,-0.00023891,0,0,0.069886,-0.022176,0,-0.0018635,0,0,0,0.027097,0.0034864,0.009175,-0.5798,0.013253,0.021343,3.8228e-07,0.4,0.28,0
0.025279,0.0040258,0.025928,3.0648e-05,0.0077877,-0.00015177,0,0,0.046835,-0.015126,0,-0.0030211,0,0,0,0.02596,-1.0552e-06,0.0077877,-0.65228,0.011249,0.023219,3.6005e-07,0.42,0.28,0
0.025757,0.0039131,0.027157,6.8502e-05,0.0081677,-0.0010105,0,0,0.024686,-0.010529,0,-0.0026273,0,0,0,0.027195,3.086e-05,0.0081677,-2.1333,0.011798,0.024147,4.5602e-07,0.44,0.28,0
0.026266,0.0039196,0.027678,0.00010834,0.0083358,7.0637e-05,0,0,0.025145,-0.010696,0,0.00018366,0,0,0,0.027678,0.00010816,0.0083358,0.1468,0.012041,0.024514,4.7931e-07,0.46,0.28,0
0.026763,0.0039444,0.027087,-0.00033165,0.0080266,-1.8311e-05,0,0,0.024779,-0.010866,0,-4.761e-05,0,0,0,0.027087,-0.00033166,0.0080266,-0.038264,0.011594,0.024341,4.5702e-07,0.48,0.28,0
0.027257,0.0039763,0.026878,-0.00025,0.0079885,-0.00013913,0,0,0.024557,-0.01071,0,-0.00036173,0,0,0,0.026879,-0.00025072,0.0079885,-0.29383,0.011539,0.024091,4.4521e-07,0.5,0.28,0
0.027745,0.0040046,0.026605,-8.4584e-05,0.0079561,-0.00030265,0,0,0.024244,-0.010453,0,-0.00078689,0,0,0,0.026608,-8.8016e-05,0.0079561,-0.64961,0.011492,0.02372,4.2918e-07,0.52,0.28,0
0.028227,0.0040314,0.026424,0.00021438,0.0079916,-0.00035268,0,0,0.023963,-0.01011,0,-0.00091698,0,0,0,0.026429,0.00020964,0.0079916,-0.77079,0.011543,0.023323,4.1549e-07,0.54,0.28,0
0.028703,0.0040599,0.026277,0.00044751,0.0080175,-0.00029618,0,0,0.023738,-0.009841,0,-0.00077007,0,0,0,0.026281,0.00044411,0.0080175,-0.65687,0.011581,0.023005,4.0448e-07,0.56,0.28,0
0.029176,0.0040944,0.026197,0.00055171,0.0080247,-0.00015683,0,0,0.023624,-0.0097149,0,-0.00040777,0,0,0,0.026198,0.00055075,0.0080247,-0.35037,0.011591,0.022847,3.988e-07,0.58,0.28,0
0.029648,0.0041371,0.026184,0.00049,0.0080022,1.6401e-05,0,0,0.023636,-0.0097658,0,4.2643e-05,0,0,0,0.026184,0.00048999,0.0080022,0.036574,0.011559,0.022882,3.992e-07,0.6,0.28,0
0.030122,0.0041884,0.026235,0.00026109,0.0079489,0.00017708,0,0,0.023772,-0.0099942,0,0.00046041,0,0,0,0.026236,0.00025988,0.0079489,0.39059,0.011482,0.023112,4.0558e-07,0.62,0.28,0
0.030599,0.0042464,0.026345,-9.9866e-05,0.0078734,0.00027373,0,0,0.024012,-0.010365,0,0.00071171,0,0,0,0.026347,-0.0001027,0.0078734,0.593,0.011373,0.0235,4.1693e-07,0.64,0.28,0
0.031082,0.0043073,0.026468,-0.00052783,0.0077821,0.00027585,0,0,0.024292,-0.010803,0,0.00071722,0,0,0,0.026471,-0.00053064,0.0077821,0.58538,0.011241,0.023953,4.2994e-07,0.66,0.28,0
0.031571,0.0043676,0.026648,-0.00081972,0.0077484,0.00016359,0,0,0.024569,-0.011139,0,0.00042533,0,0,0,0.026649,-0.0008207,0.0077484,0.34123,0.011192,0.024344,4.4335e-07,0.68,0.28,0
0.032065,0.0044246,0.026736,-0.0010079,0.0077183,5.7339e-05,0,0,0.024723,-0.011344,0,0.00014908,0,0,0,0.026736,-0.001008,0.0077183,0.11842,0.011149,0.024572,4.5069e-07,0.7,0.28,0
0.03256,0.0044867,0.027269,-0.00068544,0.0079752,-6.4038e-05,0,0,0.025083,-0.011259,0,-0.0001665,0,0,0,0.02727,-0.00068558,0.0079752,-0.13125,0.01152,0.024787,4.7244e-07,0.72,0.28,0
0.033068,0.0045669,0.026764,-0.0011259,0.0076915,0.0010107,0,0,0.024794,-0.011463,0,0.0026277,0,0,0,0.026801,-0.0011624,0.0076915,2.0726,0.01111,0.024754,4.5641e-07,0.74,0.28,0
0.033552,0.0047771,0.025476,-0.0015168,0.0071877,0.00038195,0,0,0.047165,-0.016974,0,0.0045775,0,0,0,0.025524,-0.0015652,0.0071877,1.2023,0.010382,0.024109,3.5116e-07,0.76,0.28,0
0.034955,0.0052343,0.026765,0.0022694,0.0087103,0.00064691,0,0,0.070413,-0.025119,0,0.0050459,0,0,0,0.026782,0.0022523,0.0087103,1.5118,0.012582,0.022023,3.9371e-07,0.78,0.28,0
0.036368,0.0055918,0.026337,0.001714,0.0084152,-3.2441e-06,0,0,0.069894,-0.026135,0,-2.5304e-05,0,0,0,0.026337,0.001714,0.0084152,-0.0075488,0.012155,0.022049,3.8398e-07,0.8,0.28,0
0.037751,0.0058482,0.025694,0.0012049,0.0080697,-0.00045247,0,0,0.068735,-0.026773,0,-0.0035293,0,0,0,0.025702,0.0011966,0.0080697,-1.0581,0.011656,0.021894,3.6535e-07,0.82,0.28,0
0.039117,0.0060324,0.025287,0.0006545,0.0077823,-0.00064608,0,0,0.068267,-0.027799,0,-0.0050395,0,0,0,0.025304,0.00063757,0.0077823,-1.5014,0.011241,0.021982,3.576e-07,0.84,0.28,0
0.040481,0.0061641,0.025068,0.00021861,0.007586,-0.00068098,0,0,0.06818,-0.028733,0,-0.0053117,0,0,0,0.025087,0.00019996,0.007586,-1.5686,0.010958,0.022138,3.5532e-07,0.86,0.28,0
0.041845,0.0062613,0.024907,-0.00012336,0.007435,-0.00062711,0,0,0.06814,-0.029478,0,-0.0048915,0,0,0,0.024922,-0.00013906,0.007435,-1.4343,0.010739,0.022263,3.535e-07,0.88,0.28,0
0.043207,0.0063343,0.024772,-0.00038965,0.0073146,-0.00053534,0,0,0.068083,-0.030047,0,-0.0041757,0,0,0,0.024783,-0.00040103,0.0073146,-1.2183,0.010566,0.022349,3.5145e-07,0.9,0.28,0
0.044568,0.006389,0.02466,-0.00059268,0.0072201,-0.00042937,0,0,0.068014,-0.03047,0,-0.0033491,0,0,0,0.024667,-0.00059998,0.0072201,-0.97383,0.010429,0.022405,3.4938e-07,0.92,0.28,0
0.045928,0.006429,0.024571,-0.00074184,0.0071487,-0.00032003,0,0,0.067946,-0.030773,0,-0.0024963,0,0,0,0.024575,-0.00074588,0.0071487,-0.72425,0.010326,0.02244,3.4753e-07,0.94,0.28,0
0.047286,0.0064564,0.024506,-0.00084388,0.0070988,-0.00021163,0,0,0.06789,-0.030976,0,-0.0016507,0,0,0,0.024508,-0.00084564,0.0070988,-0.47827,0.010254,0.022461,3.461e-07,0.96,0.28,0
0.048643,0.0064725,0.024467,-0.00090336,0.0070693,-0.00010516,0,0,0.067853,-0.031093,0,-0.00082026,0,0,0,0.024468,-0.00090379,0.0070693,-0.23748,0.010211,0.022472,3.4521e-07,0.98,0.28,0
0.05,0.0064778,0.024455,-0.0009229,0.0070595,3.391e-05,0,0,0.067841,-0.031131,0,0.0002645,0,0,0,0.024455,-0.00092295,0.0070595,0.07656,0.010197,0.022476,3.449e-07,1,0.28,0
0,0,0.02104,0.0090171,0.0090171,0.0023003,0,0,0.046889,2.1684e-19,0,0.017942,0,0,0,0.021465,0.008592,0.0090171,10.47,0.013025,0.012666,1.0396e-07,0,0.3,0
0.00093778,0.00035885,0.020955,0.0080597,0.0087044,0.0022941,0,0,0.047777,-0.0025141,0,0.017894,0,0,0,0.021351,0.0076638,0.0087044,9.7931,0.012573,0.013197,1.1559e-07,0.02,0.3,0
0.0019111,0.00071152,0.021275,0.0073115,0.0085758,0.0022628,0,0,0.049526,-0.0049311,0,0.01765,0,0,0,0.021632,0.0069539,0.0085758,8.9788,0.012387,0.013938,1.3275e-07,0.04,0.3,0
0.0029188,0.0010569,0.021589,0.0065953,0.0084552,0.0022199,0,0,0.051221,-0.0072536,0,0.017315,0,0,0,0.02191,0.0062735,0.0084552,8.2476,0.012213,0.014668,1.5007e-07,0.06,0.3,0
0.0039599,0.0013931,0.021897,0.0059135,0.0083431,0.002163,0,0,0.05286,-0.0094754,0,0.016871,0,0,0,0.022184,0.005626,0.0083431,7.5723,0.012051,0.015381,1.6739e-07,0.08,0.3,0
0.0050332,0.0017184,0.022199,0.0052699,0.0082406,0.0020914,0,0,0.054437,-0.011586,0,0.016313,0,0,0,0.022453,0.0050153,0.0082406,6.9393,0.011903,0.01607,1.8453e-07,0.1,0.3,0
0.0061374,0.0020305,0.022494,0.0046689,0.0081488,0.0020062,0,0,0.055946,-0.013572,0,0.015648,0,0,0,0.022717,0.0044459,0.0081488,6.3429,0.011771,0.01673,2.0134e-07,0.12,0.3,0
0.007271,0.0023274,0.022782,0.0041152,0.0080692,0.0019099,0,0,0.057381,-0.015421,0,0.014897,0,0,0,0.022976,0.0039217,0.0080692,5.7824,0.011656,0.017356,2.177e-07,0.14,0.3,0
0.0084326,0.0026073,0.023064,0.0036129,0.0080032,0.0018061,0,0,0.058738,-0.017122,0,0.014087,0,0,0,0.023231,0.0034467,0.0080032,5.2601,0.01156,0.017945,2.3353e-07,0.16,0.3,0
0.0096206,0.0028683,0.023341,0.0031661,0.0079522,0.0016986,0,0,0.060018,-0.018666,0,0.013249,0,0,0,0.023483,0.0030241,0.0079522,4.7789,0.011487,0.018494,2.4879e-07,0.18,0.3,0
0.010833,0.0031092,0.023615,0.0027781,0.007918,0.0015912,0,0,0.06122,-0.020046,0,0.012411,0,0,0,0.023736,0.0026573,0.007918,4.3417,0.011437,0.019003,2.6348e-07,0.2,0.3,0
0.012069,0.0033288,0.023889,0.0024527,0.0079025,0.0014872,0,0,0.062347,-0.021254,0,0.0116,0,0,0,0.023992,0.00235,0.0079025,3.9498,0.011415,0.019469,2.7764e-07,0.22,0.3,0
0.013327,0.0035259,0.024166,0.0021939,0.0079078,0.0013886,0,0,0.063405,-0.022284,0,0.010831,0,0,0,0.024253,0.0021065,0.0079078,3.602,0.011422,0.019891,2.9128e-07,0.24,0.3,0
0.014606,0.0036993,0.024449,0.0020071,0.0079367,0.0012952,0,0,0.064396,-0.023125,0,0.010103,0,0,0,0.024523,0.0019326,0.0079367,3.2923,0.011464,0.020267,3.0443e-07,0.26,0.3,0
0.015903,0.0038475,0.024742,0.0019,0.0079926,0.0012034,0,0,0.065323,-0.023761,0,0.0093866,0,0,0,0.024805,0.0018368,0.0079926,3.0075,0.011545,0.020593,3.1707e-07,0.28,0.3,0
0.017218,0.0039682,0.025051,0.0018832,0.0080801,0.0011037,0,0,0.066185,-0.024168,0,0.0086088,0,0,0,0.025103,0.0018308,0.0080801,2.7213,0.011671,0.020862,3.2911e-07,0.3,0.3,0
0.01855,0.0040573,0.02538,0.0019727,0.0082058,0.00097719,0,0,0.06698,-0.024309,0,0.0076221,0,0,0,0.025421,0.001932,0.0082058,2.3864,0.011853,0.021065,3.4038e-07,0.32,0.3,0
0.019898,0.0041087,0.025735,0.0021916,0.0083778,0.00079067,0,0,0.067691,-0.024126,0,0.0061672,0,0,0,0.025761,0.0021651,0.0083778,1.9213,0.012101,0.021184,3.5041e-07,0.34,0.3,0
0.021258,0.0041124,0.026103,0.0025776,0.008604,0.00048875,0,0,0.068244,-0.023503,0,0.0038123,0,0,0,0.026113,0.0025675,0.008604,1.1897,0.012428,0.021182,3.5778e-07,0.36,0.3,0
0.022627,0.0040542,0.02635,0.0031769,0.008858,1.0273e-05,0,0,0.068218,-0.022156,0,8.0126e-05,0,0,0,0.02635,0.0031769,0.008858,0.025399,0.012795,0.020919,3.5587e-07,0.38,0.3,0
0.023987,0.0039228,0.026265,0.004274,0.0091618,-0.00056321,0,0,0.066704,-0.019062,0,-0.0043931,0,0,0,0.02628,0.0042596,0.0091618,-1.4661,0.013234,0.020024,3.3055e-07,0.4,0.3,0
0.025295,0.0037582,0.026162,0.0014976,0.008298,-0.00091371,0,0,0.045036,-0.013261,0,-0.0050196,0,0,0,0.026199,0.0014608,0.008298,-2.2345,0.011986,0.022227,3.646e-07,0.42,0.3,0
0.025788,0.0037101,0.026386,-0.00033226,0.0078162,-0.00032556,0,0,0.024141,-0.010593,0,-0.00084645,0,0,0,0.02639,-0.00033623,0.0078162,-0.69799,0.01129,0.023725,4.2286e-07,0.44,0.3,0
0.026261,0.0037057,0.026055,-0.00035502,0.00771,4.4799e-05,0,0,0.023848,-0.010485,0,0.00011648,0,0,0,0.026055,-0.0003551,0.00771,0.09719,0.011137,0.023442,4.0732e-07,0.46,0.3,0
0.026742,0.0037322,0.026364,-0.00017937,0.0078553,0.00014072,0,0,0.024061,-0.010445,0,0.00036587,0,0,0,0.026364,-0.00018012,0.0078553,0.30374,0.011347,0.023577,4.1904e-07,0.48,0.3,0
0.027224,0.0037647,0.026377,-0.00013008,0.007874,-9.5215e-06,0,0,0.024053,-0.010405,0,-2.4756e-05,0,0,0,0.026377,-0.00013008,0.007874,-0.020581,0.011373,0.023548,4.1878e-07,0.5,0.3,0
0.027704,0.0037976,0.026347,2.7383e-05,0.0079123,-0.00014823,0,0,0.023965,-0.01025,0,-0.00038541,0,0,0,0.026348,2.6548e-05,0.0079123,-0.32268,0.011429,0.023397,4.1477e-07,0.52,0.3,0
0.028182,0.0038294,0.026269,0.00020264,0.0079414,-0.00022302,0,0,0.023825,-0.01006,0,-0.00057986,0,0,0,0.026271,0.00020073,0.0079414,-0.49018,0.011471,0.02319,4.0818e-07,0.54,0.3,0
0.028657,0.0038623,0.026199,0.00035006,0.0079648,-0.00020683,0,0,0.023705,-0.0098992,0,-0.00053777,0,0,0,0.026201,0.0003484,0.0079648,-0.45841,0.011505,0.02301,4.0242e-07,0.56,0.3,0
0.02913,0.0038987,0.026156,0.0004018,0.0079674,-0.00012223,0,0,0.023645,-0.0098352,0,-0.0003178,0,0,0,0.026157,0.00040122,0.0079674,-0.27192,0.011508,0.022929,3.9947e-07,0.58,0.3,0
0.029603,0.0039403,0.026156,0.00032928,0.0079455,-5.0535e-06,0,0,0.023673,-0.009901,0,-1.3139e-05,0,0,0,0.026156,0.00032928,0.0079455,-0.011211,0.011477,0.022985,4.0065e-07,0.6,0.3,0
0.030077,0.0039873,0.026197,0.00013161,0.0078985,0.00010278,0,0,0.023788,-0.010097,0,0.00026723,0,0,0,0.026197,0.00013121,0.0078985,0.22593,0.011409,0.02318,4.0594e-07,0.62,0.3,0
0.030555,0.0040386,0.02626,-0.00016334,0.0078289,0.00016592,0,0,0.02396,-0.01039,0,0.0004314,0,0,0,0.026261,-0.00016439,0.0078289,0.35977,0.011308,0.023472,4.1386e-07,0.64,0.3,0
0.031036,0.0040924,0.026314,-0.00048632,0.0077484,0.00016296,0,0,0.024136,-0.010705,0,0.00042371,0,0,0,0.026315,-0.00048731,0.0077484,0.34838,0.011192,0.02378,4.2175e-07,0.66,0.3,0
0.03152,0.0041466,0.026274,-0.00078489,0.0076467,0.00011933,0,0,0.024216,-0.010961,0,0.00031027,0,0,0,0.026275,-0.00078541,0.0076467,0.25268,0.011045,0.023983,4.2457e-07,0.68,0.3,0
0.032004,0.0042025,0.026069,-0.00096488,0.0075312,7.3182e-05,0,0,0.024099,-0.011045,0,0.00019028,0,0,0,0.026069,-0.00096508,0.0075312,0.1551,0.010878,0.023945,4.1755e-07,0.7,0.3,0
0.032484,0.0042637,0.025427,-0.0012046,0.0072666,0.00017358,0,0,0.023608,-0.011013,0,0.00045131,0,0,0,0.025428,-0.0012057,0.0072666,0.37343,0.010496,0.023569,3.9127e-07,0.72,0.3,0
0.032949,0.0043449,0.026001,-0.001074,0.0074781,0.00042877,0,0,0.02408,-0.011118,0,0.0011148,0,0,0,0.026008,-0.0010807,0.0074781,0.90705,0.010802,0.023983,4.1638e-07,0.74,0.3,0
0.033447,0.0044691,0.025466,-0.00045035,0.0075048,0.00090469,0,0,0.045123,-0.015513,0,0.0056438,0,0,0,0.02551,-0.00049362,0.0075048,2.2415,0.01084,0.023188,3.5566e-07,0.76,0.3,0
0.034754,0.0047624,0.025704,0.0028011,0.0085514,0.00097481,0,0,0.066894,-0.022426,0,0.0076035,0,0,0,0.025745,0.0027597,0.0085514,2.4328,0.012352,0.020706,3.3855e-07,0.78,0.3,0
0.036123,0.0050773,0.026131,0.0023954,0.0085579,0.00032332,0,0,0.068535,-0.024034,0,0.0025219,0,0,0,0.026135,0.002391,0.0085579,0.78028,0.012361,0.02134,3.6218e-07,0.8,0.3,0
0.037495,0.0053149,0.025882,0.0013798,0.0081785,-0.00021626,0,0,0.069043,-0.026515,0,-0.0016868,0,0,0,0.025884,0.0013779,0.0081785,-0.50565,0.011813,0.021912,3.7006e-07,0.82,0.3,0
0.038885,0.0054702,0.025814,0.00067684,0.0079471,-0.00045948,0,0,0.069679,-0.028354,0,-0.003584,0,0,0,0.025822,0.00066844,0.0079471,-1.0469,0.011479,0.022419,3.7973e-07,0.84,0.3,0
0.040282,0.0055804,0.02567,0.00017648,0.007754,-0.00049625,0,0,0.069873,-0.029552,0,-0.0038707,0,0,0,0.02568,0.00016682,0.007754,-1.1147,0.0112,0.022692,3.8175e-07,0.86,0.3,0
0.04168,0.005662,0.025484,-0.0001985,0.0075857,-0.00045659,0,0,0.069804,-0.030358,0,-0.0035614,0,0,0,0.025492,-0.00020662,0.0075857,-1.0182,0.010957,0.022823,3.7931e-07,0.88,0.3,0
0.043074,0.0057236,0.025303,-0.0004782,0.0074476,-0.0003873,0,0,0.069638,-0.030911,0,-0.0030209,0,0,0,0.025309,-0.00048401,0.0074476,-0.86045,0.010758,0.022883,3.7544e-07,0.9,0.3,0
0.044465,0.0057703,0.025147,-0.00068467,0.0073388,-0.00030838,0,0,0.069454,-0.031292,0,-0.0024054,0,0,0,0.025151,-0.00068835,0.0073388,-0.68386,0.010601,0.022906,3.7148e-07,0.92,0.3,0
0.045852,0.0058047,0.025024,-0.00083279,0.0072572,-0.00022829,0,0,0.069288,-0.031551,0,-0.0017807,0,0,0,0.025025,-0.00083481,0.0072572,-0.50583,0.010483,0.022912,3.6808e-07,0.94,0.3,0
0.047237,0.0058284,0.024934,-0.00093248,0.0072005,-0.00015014,0,0,0.069161,-0.031719,0,-0.0011711,0,0,0,0.024935,-0.00093335,0.0072005,-0.33255,0.010401,0.022911,3.6552e-07,0.96,0.3,0
0.048619,0.0058424,0.02488,-0.00098999,0.0071671,-7.4342e-05,0,0,0.069082,-0.031813,0,-0.00057987,0,0,0,0.02488,-0.00099021,0.0071671,-0.16465,0.010353,0.022908,3.6395e-07,0.98,0.3,0
0.05,0.005847,0.024862,-0.0010088,0.0071561,2.9549e-05,0,0,0.069055,-0.031843,0,0.00023048,0,0,0,0.024862,-0.0010088,0.0071561,0.06544,0.010337,0.022907,3.6342e-07,1,0.3,0
0,0,0.021077,0.0090329,0.0090329,0.0019788,0,0,0.046971,-3.2526e-19,0,0.015435,0,0,0,0.021394,0.0087162,0.0090329,9.0954,0.013048,0.012522,1.0063e-07,0,0.32,0
0.00093943,0.0003087,0.020992,0.0080824,0.0087223,0.0019728,0,0,0.047852,-0.0024956,0,0.015388,0,0,0,0.021287,0.0077877,0.0087223,8.4975,0.012599,0.013057,1.1235e-07,0.02,0.32,0
0.0019141,0.00061333,0.02131,0.007345,0.0085965,0.0019472,0,0,0.049583,-0.0048809,0,0.015188,0,0,0,0.021577,0.0070786,0.0085965,7.7909,0.012417,0.013802,1.2954e-07,0.04,0.32,0
0.0029228,0.00091259,0.021623,0.0066428,0.0084797,0.0019092,0,0,0.051258,-0.007164,0,0.014892,0,0,0,0.021862,0.0064033,0.0084797,7.1502,0.012249,0.014533,1.4684e-07,0.06,0.32,0
0.0039644,0.0012048,0.021931,0.0059762,0.0083722,0.0018573,0,0,0.05288,-0.0093446,0,0.014487,0,0,0,0.022145,0.0057628,0.0083722,6.553,0.012093,0.015246,1.6416e-07,0.08,0.32,0
0.005038,0.0014883,0.022236,0.0053473,0.0082749,0.001791,0,0,0.054447,-0.011418,0,0.01397,0,0,0,0.022423,0.0051595,0.0082749,5.9875,0.011953,0.015936,1.8138e-07,0.1,0.32,0
0.0061423,0.0017609,0.022537,0.0047592,0.0081887,0.0017113,0,0,0.055956,-0.013375,0,0.013348,0,0,0,0.0227,0.004596,0.0081887,5.4489,0.011828,0.016602,1.9841e-07,0.12,0.32,0
0.0072762,0.002021,0.022834,0.0042155,0.0081149,0.0016202,0,0,0.057405,-0.015208,0,0.012638,0,0,0,0.022974,0.0040756,0.0081149,4.9365,0.011722,0.017238,2.1515e-07,0.14,0.32,0
0.0084385,0.0022668,0.02313,0.0037198,0.0080549,0.0015205,0,0,0.058792,-0.016907,0,0.01186,0,0,0,0.023248,0.0036014,0.0080549,4.4521,0.011635,0.017842,2.3157e-07,0.16,0.32,0
0.0096279,0.0024967,0.023425,0.0032756,0.00801,0.0014153,0,0,0.060116,-0.018464,0,0.01104,0,0,0,0.023523,0.0031767,0.00801,3.9985,0.01157,0.018412,2.4765e-07,0.18,0.32,0
0.010843,0.0027097,0.02372,0.0028868,0.0079822,0.001308,0,0,0.061379,-0.019872,0,0.010202,0,0,0,0.023802,0.002805,0.0079822,3.5784,0.01153,0.018947,2.6338e-07,0.2,0.32,0
0.012083,0.0029045,0.02402,0.0025577,0.0079733,0.0012012,0,0,0.062582,-0.021121,0,0.0093695,0,0,0,0.024087,0.0024907,0.0079733,3.1935,0.011517,0.019444,2.7878e-07,0.22,0.32,0
0.013346,0.0030804,0.024325,0.0022937,0.0079857,0.0010969,0,0,0.063725,-0.022199,0,0.0085562,0,0,0,0.02438,0.0022392,0.0079857,2.8434,0.011535,0.0199,2.9384e-07,0.24,0.32,0
0.014632,0.0032364,0.024638,0.0021022,0.0080222,0.00099532,0,0,0.064803,-0.023088,0,0.0077635,0,0,0,0.024682,0.0020583,0.0080222,2.5239,0.011588,0.02031,3.0848e-07,0.26,0.32,0
0.015939,0.0033715,0.024959,0.0019942,0.0080858,0.00089351,0,0,0.065804,-0.023758,0,0.0069694,0,0,0,0.024993,0.0019595,0.0080858,2.2248,0.01168,0.020663,3.2246e-07,0.28,0.32,0
0.017264,0.0034839,0.025283,0.0019859,0.0081805,0.00078381,0,0,0.066698,-0.024159,0,0.0061137,0,0,0,0.025309,0.0019596,0.0081805,1.9248,0.011816,0.020944,3.3526e-07,0.3,0.32,0
0.018607,0.0035711,0.0256,0.0021019,0.0083105,0.00065078,0,0,0.067428,-0.024214,0,0.0050761,0,0,0,0.025618,0.0020838,0.0083105,1.5852,0.012004,0.021121,3.4586e-07,0.32,0.32,0
0.019961,0.0036285,0.025886,0.0023783,0.0084794,0.00046869,0,0,0.067887,-0.023794,0,0.0036558,0,0,0,0.025896,0.002369,0.0084794,1.1417,0.012248,0.021144,3.523e-07,0.34,0.32,0
0.021322,0.00365,0.026087,0.0028656,0.0086859,0.00020699,0,0,0.067866,-0.022699,0,0.0016145,0,0,0,0.026089,0.0028637,0.0086859,0.51065,0.012546,0.020931,3.5099e-07,0.36,0.32,0
0.022676,0.0036292,0.026125,0.0036567,0.0089346,-0.00013148,0,0,0.067044,-0.020584,0,-0.0010255,0,0,0,0.026126,0.0036559,0.0089346,-0.33525,0.012906,0.020351,3.3669e-07,0.38,0.32,0
0.024004,0.0035704,0.02604,0.0048943,0.0092803,-0.00044585,0,0,0.065363,-0.017106,0,-0.0034776,0,0,0,0.026049,0.0048848,0.0092803,-1.2073,0.013405,0.019345,3.081e-07,0.4,0.32,0
0.025291,0.0034954,0.025735,0.0014652,0.0081601,-0.0005373,0,0,0.044294,-0.013055,0,-0.0029576,0,0,0,0.025748,0.0014522,0.0081601,-1.3389,0.011787,0.021832,3.4586e-07,0.42,0.32,0
0.025775,0.0034894,0.025791,-0.0012343,0.007367,-0.00039067,0,0,0.023951,-0.011182,0,-0.0010157,0,0,0,0.025797,-0.0012399,0.007367,-0.82802,0.010641,0.023924,4.0879e-07,0.44,0.32,0
0.026249,0.0035002,0.025764,-0.00031976,0.0076332,-8.8572e-05,0,0,0.02357,-0.010339,0,-0.00023029,0,0,0,0.025764,-0.00032006,0.0076332,-0.19456,0.011026,0.023156,3.9334e-07,0.46,0.32,0
0.026718,0.0035266,0.025835,-0.00011685,0.0077156,2.4702e-06,0,0,0.023556,-0.010182,0,6.4224e-06,0,0,0,0.025835,-0.00011685,0.0077156,0.0054535,0.011145,0.023056,3.9335e-07,0.48,0.32,0
0.027191,0.0035601,0.026009,1.4531e-05,0.0078069,-4.2513e-05,0,0,0.023662,-0.01013,0,-0.00011053,0,0,0,0.026009,1.4462e-05,0.0078069,-0.093706,0.011277,0.023105,3.9916e-07,0.5,0.32,0
0.027665,0.0035946,0.026097,0.00011035,0.0078622,-0.00012761,0,0,0.023705,-0.010077,0,-0.00033179,0,0,0,0.026098,0.00010973,0.0078622,-0.28135,0.011357,0.023109,4.0168e-07,0.52,0.32,0
0.028139,0.003629,0.026132,0.00021375,0.0079038,-0.00017358,0,0,0.023697,-0.0099971,0,-0.00045132,0,0,0,0.026134,0.00021259,0.0079038,-0.3837,0.011417,0.023058,4.0161e-07,0.54,0.32,0
0.028613,0.003664,0.026135,0.0002881,0.0079268,-0.00016461,0,0,0.02367,-0.0099303,0,-0.00042798,0,0,0,0.026135,0.00028705,0.0079268,-0.36488,0.01145,0.023001,4.0044e-07,0.56,0.32,0
0.029086,0.003701,0.026134,0.00029706,0.0079292,-0.00010874,0,0,0.023666,-0.0099218,0,-0.00028272,0,0,0,0.026134,0.0002966,0.0079292,-0.24114,0.011453,0.022992,4.0022e-07,0.58,0.32,0
0.029559,0.0037411,0.026146,0.00021459,0.0079083,-2.9434e-05,0,0,0.02371,-0.010002,0,-7.6529e-05,0,0,0,0.026146,0.00021455,0.0079083,-0.065034,0.011423,0.023068,4.0218e-07,0.6,0.32,0
0.030034,0.0037845,0.026175,3.9702e-05,0.0078645,4.7341e-05,0,0,0.023804,-0.010172,0,0.00012308,0,0,0,0.026176,3.9617e-05,0.0078645,0.10378,0.01136,0.023234,4.0647e-07,0.62,0.32,0
0.030511,0.0038308,0.026209,-0.00020292,0.0078017,0.00010057,0,0,0.023929,-0.010406,0,0.00026148,0,0,0,0.026209,-0.00020331,0.0078017,0.21816,0.011269,0.023457,4.1206e-07,0.64,0.32,0
0.030991,0.0038791,0.026218,-0.00047631,0.0077226,0.00012866,0,0,0.024044,-0.010659,0,0.0003345,0,0,0,0.026219,-0.00047693,0.0077226,0.27613,0.011155,0.023686,4.1699e-07,0.66,0.32,0
0.031473,0.0039292,0.026175,-0.00074177,0.0076299,0.00016211,0,0,0.024108,-0.010883,0,0.00042147,0,0,0,0.026176,-0.00074275,0.0076299,0.34505,0.011021,0.02386,4.1916e-07,0.68,0.32,0
0.031956,0.0039828,0.025992,-0.0010379,0.0074861,0.00030493,0,0,0.024057,-0.011081,0,0.00079281,0,0,0,0.025995,-0.0010413,0.0074861,0.64626,0.010813,0.02394,4.1519e-07,0.7,0.32,0
0.032435,0.0040462,0.025527,-0.0014645,0.0072188,0.00066531,0,0,0.023801,-0.011288,0,0.0017298,0,0,0,0.025543,-0.0014809,0.0072188,1.4111,0.010427,0.023893,4.0043e-07,0.72,0.32,0
0.032908,0.0041222,0.024305,-0.0025436,0.0065284,0.0009002,0,0,0.02311,-0.011794,0,0.0023405,0,0,0,0.024335,-0.0025738,0.0065284,1.9182,0.00943,0.023707,3.5995e-07,0.74,0.32,0
0.03336,0.0041566,0.024229,-4.0271e-05,0.0072565,0.0011228,0,0,0.043582,-0.014229,0,0.0062073,0,0,0,0.024285,-9.6661e-05,0.0072565,2.7743,0.010482,0.021792,2.9703e-07,0.76,0.32,0
0.034651,0.0043373,0.024967,0.003626,0.0085778,-0.00022312,0,0,0.063917,-0.019312,0,-0.0017404,0,0,0,0.024969,0.0036237,0.0085778,-0.59895,0.01239,0.01935,2.9149e-07,0.78,0.32,0
0.035917,0.0046304,0.025234,0.0024817,0.0083147,2.2701e-05,0,0,0.065985,-0.022749,0,0.00017707,0,0,0,0.025234,0.0024817,0.0083147,0.057167,0.01201,0.020469,3.2285e-07,0.8,0.32,0
0.03729,0.0047876,0.026174,0.0014143,0.0082766,-0.00025716,0,0,0.069802,-0.026763,0,-0.0020059,0,0,0,0.026177,0.0014116,0.0082766,-0.59499,0.011955,0.022146,3.8245e-07,0.82,0.32,0
0.038709,0.0048982,0.02635,0.00070302,0.0081159,-0.00028412,0,0,0.071113,-0.02891,0,-0.0022161,0,0,0,0.026353,0.00069987,0.0081159,-0.63462,0.011723,0.022866,4.0334e-07,0.84,0.32,0
0.040135,0.004982,0.026168,0.00015212,0.0078961,-0.00026833,0,0,0.071261,-0.030201,0,-0.002093,0,0,0,0.026171,0.00014935,0.0078961,-0.59086,0.011406,0.023142,4.0441e-07,0.86,0.32,0
0.041559,0.005047,0.025929,-0.00024684,0.0077047,-0.00023536,0,0,0.071075,-0.031011,0,-0.0018358,0,0,0,0.025931,-0.00024895,0.0077047,-0.51513,0.011129,0.023247,3.9987e-07,0.88,0.32,0
0.042978,0.0050978,0.025702,-0.0005357,0.0075498,-0.00019431,0,0,0.070792,-0.031533,0,-0.0015157,0,0,0,0.025703,-0.00053714,0.0075498,-0.4243,0.010905,0.023276,3.9394e-07,0.9,0.32,0
0.044391,0.0051373,0.025508,-0.00074351,0.0074295,-0.00015144,0,0,0.070508,-0.031875,0,-0.0011812,0,0,0,0.025509,-0.00074438,0.0074295,-0.3305,0.010731,0.02327,3.8827e-07,0.92,0.32,0
0.045798,0.0051669,0.025356,-0.00088973,0.00734,-0.00011006,0,0,0.070264,-0.032096,0,-0.00085849,0,0,0,0.025357,-0.00089019,0.00734,-0.24026,0.010602,0.023251,3.8354e-07,0.94,0.32,0
0.047201,0.0051877,0.025247,-0.0009868,0.0072782,-7.1329e-05,0,0,0.07008,-0.032233,0,-0.00055636,0,0,0,0.025248,-0.00098699,0.0072782,-0.15578,0.010513,0.023232,3.8005e-07,0.96,0.32,0
0.048601,0.0052,0.025182,-0.0010423,0.007242,-3.4983e-05,0,0,0.069967,-0.032309,0,-0.00027287,0,0,0,0.025182,-0.0010424,0.007242,-0.076432,0.010461,0.023219,3.7792e-07,0.98,0.32,0
0.05,0.005204,0.02516,-0.0010604,0.00723,2.6129e-05,0,0,0.069929,-0.032333,0,0.00020381,0,0,0,0.02516,-0.0010604,0.00723,0.057096,0.010443,0.023214,3.7721e-07,1,0.32,0
0,0,0.021089,0.0090382,0.0090382,0.0016604,0,0,0.046998,-1.301e-18,0,0.012951,0,0,0,0.021314,0.0088136,0.0090382,7.7032,0.013055,0.012389,9.7562e-08,0,0.34,0
0.00093997,0.00025902,0.021005,0.0080987,0.0087311,0.0016543,0,0,0.047868,-0.002466,0,0.012904,0,0,0,0.021213,0.00789,0.0087311,7.1896,0.012611,0.012923,1.0927e-07,0.02,0.34,0
0.0019147,0.00051629,0.02132,0.0073738,0.008608,0.0016344,0,0,0.049575,-0.0048134,0,0.012749,0,0,0,0.021508,0.0071848,0.008608,6.596,0.012434,0.013668,1.2635e-07,0.04,0.34,0
0.002923,0.00077029,0.021629,0.0066859,0.0084945,0.0016006,0,0,0.051225,-0.0070536,0,0.012485,0,0,0,0.021799,0.0065164,0.0084945,6.0458,0.01227,0.014396,1.4351e-07,0.06,0.34,0
0.0039637,0.0010194,0.021935,0.0060344,0.0083909,0.0015521,0,0,0.052824,-0.0091905,0,0.012106,0,0,0,0.022086,0.0058843,0.0083909,5.523,0.01212,0.015105,1.6069e-07,0.08,0.34,0
0.0050359,0.0012617,0.022239,0.0054202,0.0082978,0.0014887,0,0,0.054372,-0.011223,0,0.011612,0,0,0,0.02237,0.0052894,0.0082978,5.0195,0.011986,0.015793,1.7781e-07,0.1,0.34,0
0.0061386,0.0014955,0.022542,0.0048453,0.0082161,0.0014115,0,0,0.05587,-0.013146,0,0.01101,0,0,0,0.022654,0.0047334,0.0082161,4.532,0.011868,0.016457,1.9483e-07,0.12,0.34,0
0.0072707,0.0017191,0.022843,0.0043124,0.0081467,0.0013222,0,0,0.057317,-0.014954,0,0.010313,0,0,0,0.022937,0.0042185,0.0081467,4.0607,0.011768,0.017097,2.1169e-07,0.14,0.34,0
0.0084312,0.001931,0.023146,0.0038245,0.0080911,0.001223,0,0,0.058713,-0.01664,0,0.0095393,0,0,0,0.023223,0.0037474,0.0080911,3.6075,0.011687,0.017708,2.2837e-07,0.16,0.34,0
0.0096192,0.0021298,0.02345,0.0033851,0.0080506,0.0011165,0,0,0.060058,-0.018195,0,0.0087089,0,0,0,0.023512,0.0033232,0.0080506,3.1752,0.011629,0.018289,2.4486e-07,0.18,0.34,0
0.010834,0.0023144,0.023759,0.002998,0.008027,0.0010056,0,0,0.061354,-0.019613,0,0.007844,0,0,0,0.023807,0.0029495,0.008027,2.7668,0.011595,0.018839,2.6117e-07,0.2,0.34,0
0.012073,0.0024839,0.024073,0.002668,0.0080224,0.000893,0,0,0.062599,-0.020882,0,0.0069654,0,0,0,0.024111,0.0026308,0.0080224,2.3848,0.011588,0.019356,2.773e-07,0.22,0.34,0
0.013338,0.0026379,0.024396,0.0024011,0.008039,0.00078086,0,0,0.063791,-0.021988,0,0.0060907,0,0,0,0.024423,0.0023734,0.008039,2.0307,0.011612,0.019834,2.9321e-07,0.24,0.34,0
0.014625,0.0027758,0.024726,0.0022062,0.0080795,0.0006707,0,0,0.06492,-0.022906,0,0.0052314,0,0,0,0.024746,0.0021863,0.0080795,1.7044,0.01167,0.020266,3.0875e-07,0.26,0.34,0
0.015934,0.0028972,0.02506,0.0020965,0.0081469,0.00056266,0,0,0.065961,-0.023597,0,0.0043888,0,0,0,0.025074,0.0020828,0.0081469,1.4028,0.011768,0.020638,3.2353e-07,0.28,0.34,0
0.017263,0.0030018,0.025389,0.002092,0.0082443,0.00045474,0,0,0.066864,-0.023994,0,0.003547,0,0,0,0.025398,0.0020831,0.0082443,1.1178,0.011908,0.020926,3.3672e-07,0.3,0.34,0
0.018609,0.0030887,0.025692,0.0022229,0.0083745,0.00034168,0,0,0.067538,-0.023991,0,0.0026651,0,0,0,0.025697,0.0022179,0.0083745,0.83391,0.012096,0.021086,3.4672e-07,0.32,0.34,0
0.019965,0.0031569,0.025931,0.0025347,0.0085398,0.00021464,0,0,0.067827,-0.02342,0,0.0016742,0,0,0,0.025933,0.0025327,0.0085398,0.52556,0.012335,0.02105,3.5079e-07,0.34,0.34,0
0.021322,0.0032045,0.02606,0.0030921,0.0087455,6.621e-05,0,0,0.067525,-0.022048,0,0.00051644,0,0,0,0.02606,0.0030919,0.0087455,0.16517,0.012632,0.020728,3.4524e-07,0.36,0.34,0
0.022666,0.0032308,0.026052,0.0039611,0.009004,-9.4968e-05,0,0,0.066488,-0.019667,0,-0.00074075,0,0,0,0.026052,0.0039607,0.009004,-0.2463,0.013006,0.020052,3.2743e-07,0.38,0.34,0
0.023981,0.0032386,0.025926,0.0051028,0.0093087,-0.00022644,0,0,0.064808,-0.016403,0,-0.0017663,0,0,0,0.025929,0.0051004,0.0093087,-0.62297,0.013446,0.019075,2.9883e-07,0.4,0.34,0
0.025258,0.003236,0.025652,0.0015149,0.0081501,-0.00029533,0,0,0.044032,-0.012939,0,-0.0015193,0,0,0,0.025656,0.0015112,0.0081501,-0.72268,0.011772,0.021702,3.4212e-07,0.42,0.34,0
0.025743,0.0032628,0.025638,-0.0014949,0.007243,-0.00027906,0,0,0.023914,-0.011359,0,-0.00072556,0,0,0,0.025641,-0.0014977,0.007243,-0.5892,0.010462,0.023994,4.052e-07,0.44,0.34,0
0.026215,0.0032922,0.025611,-0.00048301,0.0075384,-0.00022522,0,0,0.023494,-0.010428,0,-0.00058558,0,0,0,0.025613,-0.00048495,0.0075384,-0.49448,0.010889,0.023154,3.8904e-07,0.46,0.34,0
0.026683,0.0033249,0.025698,-5.8513e-05,0.0076919,-0.00018378,0,0,0.023408,-0.010076,0,-0.00047782,0,0,0,0.0257,-5.9824e-05,0.0076919,-0.40878,0.011111,0.02289,3.8628e-07,0.48,0.34,0
0.027151,0.0033595,0.025847,7.9201e-05,0.0077779,-0.00018778,0,0,0.02349,-0.010008,0,-0.00048822,0,0,0,0.025848,7.7833e-05,0.0077779,-0.4175,0.011235,0.022912,3.9079e-07,0.5,0.34,0
0.027622,0.0033945,0.02599,0.00015115,0.0078424,-0.00019791,0,0,0.023592,-0.0099986,0,-0.00051455,0,0,0,0.025992,0.00014963,0.0078424,-0.4388,0.011328,0.022982,3.9614e-07,0.52,0.34,0
0.028095,0.0034295,0.02608,0.00020761,0.0078861,-0.00019301,0,0,0.023651,-0.0099821,0,-0.00050183,0,0,0,0.026081,0.00020617,0.0078861,-0.42741,0.011391,0.023017,3.993e-07,0.54,0.34,0
0.028568,0.0034651,0.026125,0.00024148,0.00791,-0.00016395,0,0,0.02368,-0.0099691,0,-0.00042626,0,0,0,0.026126,0.00024044,0.00791,-0.36289,0.011426,0.02303,4.0081e-07,0.56,0.34,0
0.029042,0.0035018,0.02615,0.00022373,0.0079121,-0.00011487,0,0,0.023709,-0.0099948,0,-0.00029867,0,0,0,0.02615,0.00022322,0.0079121,-0.25386,0.011428,0.023065,4.0221e-07,0.58,0.34,0
0.029517,0.0035402,0.026172,0.00013363,0.0078915,-5.4118e-05,0,0,0.023764,-0.010085,0,-0.00014071,0,0,0,0.026172,0.00013351,0.0078915,-0.11908,0.011399,0.023155,4.0471e-07,0.6,0.34,0
0.029993,0.0035804,0.026196,-3.0013e-05,0.0078497,8.4157e-06,0,0,0.02385,-0.010244,0,2.1881e-05,0,0,0,0.026196,-3.0015e-05,0.0078497,0.018386,0.011338,0.023307,4.0858e-07,0.62,0.34,0
0.030471,0.0036224,0.026218,-0.00024826,0.0077908,6.5581e-05,0,0,0.023955,-0.010451,0,0.00017051,0,0,0,0.026218,-0.00024842,0.0077908,0.14197,0.011253,0.023502,4.1322e-07,0.64,0.34,0
0.030951,0.003666,0.026235,-0.00049207,0.007723,0.00011683,0,0,0.024066,-0.01068,0,0.00030376,0,0,0,0.026236,-0.00049258,0.007723,0.25044,0.011155,0.023713,4.1805e-07,0.66,0.34,0
0.031433,0.0037113,0.02628,-0.00074874,0.0076594,0.00018058,0,0,0.024207,-0.010931,0,0.0004695,0,0,0,0.026281,-0.00074995,0.0076594,0.38276,0.011064,0.02396,4.2434e-07,0.68,0.34,0
0.031919,0.0037593,0.026492,-0.0010475,0.0076332,0.00030136,0,0,0.024516,-0.011285,0,0.00078353,0,0,0,0.026495,-0.0010508,0.0076332,0.62688,0.011026,0.024392,4.3943e-07,0.7,0.34,0
0.032414,0.0038122,0.027179,-0.0015089,0.0077011,0.00058148,0,0,0.025321,-0.011973,0,0.0015119,0,0,0,0.027191,-0.0015207,0.0077011,1.1607,0.011124,0.025389,4.8213e-07,0.72,0.34,0
0.032932,0.0038732,0.028298,-0.0023446,0.007786,0.00076915,0,0,0.026666,-0.01317,0,0.0019998,0,0,0,0.028317,-0.0023639,0.007786,1.4369,0.011246,0.027073,5.5746e-07,0.74,0.34,0
0.033481,0.0038999,0.023909,0.001162,0.0075213,0.0012984,0,0,0.033466,-0.012545,0,0.006886,0,0,0,0.024004,0.0010671,0.0075213,4.0984,0.010864,0.020488,4.5849e-07,0.76,0.34,0
0.03421,0.0039899,0.032303,0.0024678,0.010431,1.315e-05,0,0,0.048816,-0.015896,0,-0.0025933,0,0,0,0.032342,0.0024287,0.010431,-0.69969,0.015067,0.026844,8.6348e-07,0.78,0.34,0
0.03568,0.0041673,0.028212,0.0030749,0.009386,-2.9229e-05,0,0,0.07342,-0.024613,0,-0.00022799,0,0,0,0.028212,0.0030749,0.009386,-0.066624,0.013558,0.022651,4.4431e-07,0.8,0.34,0
0.037147,0.0042444,0.027482,0.0016901,0.0087516,-5.7949e-05,0,0,0.073049,-0.02754,0,-0.000452,0,0,0,0.027482,0.00169,0.0087516,-0.12873,0.012641,0.023086,4.3832e-07,0.82,0.34,0
0.038602,0.0043138,0.026908,0.00075987,0.0083002,1.1748e-05,0,0,0.072568,-0.029407,0,9.1636e-05,0,0,0,0.026908,0.00075986,0.0083002,0.025743,0.011989,0.023311,4.2849e-07,0.84,0.34,0
0.04005,0.0043724,0.02652,0.00015517,0.0080027,2.6451e-05,0,0,0.072219,-0.030605,0,0.00020631,0,0,0,0.02652,0.00015515,0.0080027,0.057481,0.011559,0.023448,4.2077e-07,0.86,0.34,0
0.04149,0.0044215,0.026204,-0.00026129,0.0077829,3.1328e-05,0,0,0.071843,-0.031372,0,0.00024436,0,0,0,0.026204,-0.00026133,0.0077829,0.067822,0.011242,0.0235,4.128e-07,0.88,0.34,0
0.042923,0.0044623,0.025938,-0.00055423,0.0076153,3.2558e-05,0,0,0.07146,-0.031861,0,0.00025395,0,0,0,0.025938,-0.00055427,0.0076153,0.070413,0.011,0.023498,4.0505e-07,0.9,0.34,0
0.044349,0.0044953,0.025721,-0.00076123,0.0074878,3.0982e-05,0,0,0.071108,-0.032171,0,0.00024166,0,0,0,0.025721,-0.00076127,0.0074878,0.067032,0.010816,0.023471,3.9816e-07,0.92,0.34,0
0.045768,0.0045208,0.025552,-0.00090502,0.007394,2.6488e-05,0,0,0.070815,-0.032366,0,0.00020661,0,0,0,0.025552,-0.00090505,0.007394,0.057365,0.01068,0.023436,3.9257e-07,0.94,0.34,0
0.047182,0.0045391,0.025431,-0.00099963,0.0073295,1.9337e-05,0,0,0.070597,-0.032484,0,0.00015082,0,0,0,0.025431,-0.00099964,0.0073295,0.041917,0.010587,0.023406,3.8848e-07,0.96,0.34,0
0.048592,0.00455,0.025359,-0.0010534,0.0072918,1.0196e-05,0,0,0.070464,-0.032546,0,7.9527e-05,0,0,0,0.025359,-0.0010534,0.0072918,0.022117,0.010533,0.023385,3.8601e-07,0.98,0.34,0
0.05,0.0045537,0.025336,-0.0010709,0.0072794,2.3415e-05,0,0,0.070419,-0.032566,0,0.00018264,0,0,0,0.025336,-0.0010709,0.0072794,0.050805,0.010515,0.023378,3.8518e-07,1,0.34,0
0,0,0.021074,0.0090317,0.0090317,0.0013465,0,0,0.046965,7.5894e-19,0,0.010503,0,0,0,0.021223,0.008883,0.0090317,6.303,0.013046,0.012266,9.4738e-08,0,0.36,0
0.0009393,0.00021006,0.020991,0.0081083,0.0087298,0.0013404,0,0,0.047819,-0.0024237,0,0.010455,0,0,0,0.021129,0.0079703,0.0087298,5.8775,0.01261,0.012796,1.0633e-07,0.02,0.36,0
0.0019127,0.00042079,0.0213,0.0073981,0.0086096,0.0013262,0,0,0.049494,-0.0047248,0,0.010345,0,0,0,0.021426,0.0072727,0.0086096,5.4009,0.012436,0.013534,1.2315e-07,0.04,0.36,0
0.0029191,0.00063044,0.021605,0.0067257,0.0084992,0.0012961,0,0,0.051113,-0.0069166,0,0.01011,0,0,0,0.021717,0.0066137,0.0084992,4.9413,0.012277,0.014254,1.4002e-07,0.06,0.36,0
0.0039572,0.00083722,0.021907,0.0060899,0.008399,0.0012499,0,0,0.05268,-0.0090053,0,0.0097491,0,0,0,0.022005,0.0059917,0.008399,4.4905,0.012132,0.014955,1.569e-07,0.08,0.36,0
0.0050263,0.0010393,0.022207,0.0054907,0.0083092,0.001188,0,0,0.0542,-0.010992,0,0.0092668,0,0,0,0.022291,0.0054067,0.0083092,4.0451,0.012002,0.015636,1.7376e-07,0.1,0.36,0
0.0061252,0.0012351,0.022506,0.0049296,0.0082308,0.0011115,0,0,0.055675,-0.012875,0,0.00867,0,0,0,0.022576,0.0048596,0.0082308,3.6042,0.011889,0.016295,1.9055e-07,0.12,0.36,0
0.0072533,0.0014228,0.022807,0.0044085,0.0081646,0.0010218,0,0,0.057105,-0.014649,0,0.0079703,0,0,0,0.022863,0.0043519,0.0081646,3.1692,0.011793,0.01693,2.0726e-07,0.14,0.36,0
0.0084094,0.0016012,0.023109,0.0039301,0.0081118,0.00092085,0,0,0.05849,-0.016309,0,0.0071826,0,0,0,0.023154,0.003886,0.0081118,2.7425,0.011717,0.017541,2.2388e-07,0.16,0.36,0
0.0095929,0.0017689,0.023415,0.0034975,0.0080739,0.00081084,0,0,0.059832,-0.017848,0,0.0063246,0,0,0,0.023449,0.0034646,0.0080739,2.3273,0.011662,0.018124,2.404e-07,0.18,0.36,0
0.010803,0.0019251,0.023727,0.0031145,0.0080526,0.0006943,0,0,0.061131,-0.019258,0,0.0054155,0,0,0,0.023751,0.0030912,0.0080526,1.927,0.011631,0.01868,2.5684e-07,0.2,0.36,0
0.012038,0.0020692,0.024046,0.0027859,0.0080497,0.00057391,0,0,0.062387,-0.020529,0,0.0044765,0,0,0,0.024062,0.0027704,0.0080497,1.5451,0.011627,0.019204,2.732e-07,0.22,0.36,0
0.013298,0.0022009,0.024374,0.0025178,0.0080677,0.00045256,0,0,0.063596,-0.021644,0,0.00353,0,0,0,0.024384,0.0025085,0.0080677,1.1857,0.011653,0.019693,2.8943e-07,0.24,0.36,0
0.014582,0.0023202,0.024711,0.0023196,0.0081092,0.00033352,0,0,0.064747,-0.022579,0,0.0026015,0,0,0,0.024716,0.0023146,0.0081092,0.85318,0.011713,0.020139,3.0539e-07,0.26,0.36,0
0.015888,0.0024276,0.025053,0.0022046,0.0081772,0.00022078,0,0,0.065814,-0.023293,0,0.001722,0,0,0,0.025055,0.0022025,0.0081772,0.55357,0.011812,0.020528,3.2067e-07,0.28,0.36,0
0.017215,0.0025242,0.025389,0.0021933,0.0082748,0.00011966,0,0,0.066747,-0.023718,0,0.00093335,0,0,0,0.02539,0.0021927,0.0082748,0.29556,0.011952,0.020833,3.3442e-07,0.3,0.36,0
0.018558,0.0026114,0.0257,0.0023165,0.0084049,3.778e-05,0,0,0.06745,-0.023745,0,0.00029468,0,0,0,0.0257,0.0023164,0.0084049,0.09257,0.01214,0.021012,3.4502e-07,0.32,0.36,0
0.019913,0.0026917,0.025946,0.0026201,0.0085699,-1.4764e-05,0,0,0.067768,-0.023204,0,-0.00011516,0,0,0,0.025946,0.0026201,0.0085699,-0.036263,0.012379,0.020993,3.4966e-07,0.34,0.36,0
0.021269,0.0027681,0.026081,0.0031697,0.0087751,-3.0119e-05,0,0,0.067492,-0.021861,0,-0.00023493,0,0,0,0.026081,0.0031697,0.0087751,-0.075322,0.012675,0.020686,3.4458e-07,0.36,0.36,0
0.022612,0.0028425,0.026079,0.0040305,0.0090329,-1.5908e-05,0,0,0.06648,-0.019509,0,-0.00012408,0,0,0,0.026079,0.0040305,0.0090329,-0.041338,0.013048,0.020022,3.2709e-07,0.38,0.36,0
0.023928,0.0029143,0.025959,0.0051609,0.0093361,-1.0222e-05,0,0,0.064831,-0.016283,0,-7.9729e-05,0,0,0,0.025959,0.0051609,0.0093361,-0.028159,0.013485,0.019057,2.9875e-07,0.4,0.36,0
0.025205,0.0029779,0.025694,0.0015771,0.0081814,-5.439e-05,0,0,0.04406,-0.012878,0,-0.00013207,0,0,0,0.025694,0.0015769,0.0081814,-0.10752,0.011817,0.021684,3.4288e-07,0.42,0.36,0
0.02569,0.003035,0.025687,-0.001442,0.0072737,-0.00018682,0,0,0.023938,-0.01133,0,-0.00048574,0,0,0,0.025689,-0.0014433,0.0072737,-0.39453,0.010506,0.023992,4.0666e-07,0.44,0.36,0
0.026163,0.0030831,0.025668,-0.00046165,0.0075619,-0.0003171,0,0,0.023538,-0.010431,0,-0.00082446,0,0,0,0.025672,-0.0004655,0.0075619,-0.69518,0.010923,0.02319,3.9141e-07,0.46,0.36,0
0.026632,0.0031235,0.025761,-6.0494e-05,0.0077103,-0.00038173,0,0,0.023466,-0.010102,0,-0.0009925,0,0,0,0.025767,-6.6136e-05,0.0077103,-0.84677,0.011137,0.022955,3.8943e-07,0.48,0.36,0
0.027102,0.0031598,0.025914,6.0861e-05,0.0077924,-0.00035998,0,0,0.023558,-0.010051,0,-0.00093594,0,0,0,0.025919,5.5849e-05,0.0077924,-0.79758,0.011256,0.022992,3.9435e-07,0.5,0.36,0
0.027574,0.0031947,0.026058,0.00012078,0.0078538,-0.00030243,0,0,0.023666,-0.010053,0,-0.00078633,0,0,0,0.026062,0.00011726,0.0078538,-0.66795,0.011344,0.023071,3.9991e-07,0.52,0.36,0
0.028048,0.0032297,0.026149,0.00016774,0.0078949,-0.00023767,0,0,0.02373,-0.010045,0,-0.00061794,0,0,0,0.026151,0.00016557,0.0078949,-0.52407,0.011404,0.023111,4.0321e-07,0.54,0.36,0
0.028523,0.0032652,0.026195,0.0001942,0.0079168,-0.00017997,0,0,0.023762,-0.010039,0,-0.00046793,0,0,0,0.026196,0.00019295,0.0079168,-0.39657,0.011435,0.02313,4.0486e-07,0.56,0.36,0
0.028999,0.0033012,0.02622,0.0001706,0.0079173,-0.00012892,0,0,0.023794,-0.010071,0,-0.00033519,0,0,0,0.026221,0.00016996,0.0079173,-0.28355,0.011436,0.02317,4.0639e-07,0.58,0.36,0
0.029475,0.0033377,0.026242,7.6123e-05,0.0078956,-7.9361e-05,0,0,0.023851,-0.010165,0,-0.00020634,0,0,0,0.026243,7.5882e-05,0.0078956,-0.17377,0.011405,0.023265,4.09e-07,0.6,0.36,0
0.029953,0.0033748,0.026267,-9.0284e-05,0.0078531,-2.4571e-05,0,0,0.023938,-0.010326,0,-6.3884e-05,0,0,0,0.026267,-9.0307e-05,0.0078531,-0.053411,0.011343,0.023419,4.1294e-07,0.62,0.36,0
0.030433,0.0034128,0.026289,-0.00030942,0.0077939,3.8916e-05,0,0,0.024044,-0.010534,0,0.00010118,0,0,0,0.026289,-0.00030948,0.0077939,0.083829,0.011258,0.023614,4.176e-07,0.64,0.36,0
0.030915,0.0034519,0.026306,-0.00055159,0.0077262,0.00010694,0,0,0.024153,-0.010761,0,0.00027805,0,0,0,0.026306,-0.00055201,0.0077262,0.22814,0.01116,0.023823,4.2236e-07,0.66,0.36,0
0.031399,0.0034919,0.026346,-0.00080382,0.0076627,0.00015459,0,0,0.024289,-0.011007,0,0.00040193,0,0,0,0.026347,-0.00080471,0.0076627,0.32622,0.011068,0.024063,4.2836e-07,0.68,0.36,0
0.031886,0.0035314,0.026545,-0.0010942,0.0076353,0.00012863,0,0,0.024583,-0.011348,0,0.00033445,0,0,0,0.026546,-0.0010948,0.0076353,0.26664,0.011029,0.024473,4.4264e-07,0.7,0.36,0
0.032382,0.0035673,0.027188,-0.0015521,0.0076907,-8.4579e-05,0,0,0.025346,-0.012016,0,-0.00021991,0,0,0,0.027188,-0.0015524,0.0076907,-0.16862,0.011109,0.025412,4.8247e-07,0.72,0.36,0
0.0329,0.0035954,0.028193,-0.0023969,0.0077388,-0.00021342,0,0,0.02659,-0.013176,0,-0.00055489,0,0,0,0.028194,-0.0023984,0.0077388,-0.39972,0.011178,0.026992,5.5094e-07,0.74,0.36,0
0.033446,0.0036606,0.023767,0.0010086,0.0074327,-0.00074472,0,0,0.033374,-0.012714,0,-0.0043787,0,0,0,0.023806,0.00096944,0.0074327,-2.5847,0.010736,0.02039,4.5046e-07,0.76,0.36,0
0.034174,0.0036867,0.03235,0.0025379,0.010467,0.00065741,0,0,0.048929,-0.01576,0,0.0056262,0,0,0,0.032407,0.0024809,0.010467,2.0089,0.015118,0.026862,8.6066e-07,0.78,0.36,0
0.035653,0.0036459,0.028367,0.0031173,0.0094452,0.00052566,0,0,0.073794,-0.024679,0,0.0041002,0,0,0,0.028378,0.0031063,0.0094452,1.1921,0.013643,0.022773,4.5189e-07,0.8,0.36,0
0.037126,0.003686,0.027577,0.0017128,0.0087869,0.00050643,0,0,0.073281,-0.027589,0,0.0039501,0,0,0,0.027587,0.0017028,0.0087869,1.1213,0.012692,0.023169,4.4321e-07,0.82,0.36,0
0.038584,0.0037219,0.026977,0.0007754,0.0083258,0.00040846,0,0,0.07274,-0.029446,0,0.003186,0,0,0,0.026984,0.00076904,0.0083258,0.89289,0.012026,0.023371,4.32e-07,0.84,0.36,0
0.040035,0.0037578,0.026582,0.00017261,0.0080263,0.00036253,0,0,0.072366,-0.03063,0,0.0028277,0,0,0,0.026587,0.00016763,0.0080263,0.78632,0.011594,0.023497,4.2372e-07,0.86,0.36,0
0.041479,0.0037921,0.02626,-0.00024044,0.0078059,0.0003203,0,0,0.071972,-0.031381,0,0.0024984,0,0,0,0.026264,-0.00024431,0.0078059,0.69238,0.011275,0.023539,4.1534e-07,0.88,0.36,0
0.042914,0.0038234,0.02599,-0.00052968,0.0076383,0.0002744,0,0,0.071574,-0.031855,0,0.0021403,0,0,0,0.025993,-0.00053252,0.0076383,0.59274,0.011033,0.02353,4.0726e-07,0.9,0.36,0
0.044342,0.0038504,0.02577,-0.0007333,0.007511,0.00022416,0,0,0.07121,-0.032153,0,0.0017485,0,0,0,0.025772,-0.00073519,0.007511,0.48456,0.010849,0.023495,4.0012e-07,0.92,0.36,0
0.045763,0.0038723,0.025599,-0.00087431,0.0074173,0.00017063,0,0,0.070907,-0.032337,0,0.0013309,0,0,0,0.0256,-0.00087541,0.0074173,0.36927,0.010714,0.023455,3.9432e-07,0.94,0.36,0
0.047178,0.0038883,0.025477,-0.00096686,0.007353,0.00011487,0,0,0.070683,-0.032447,0,0.00089596,0,0,0,0.025477,-0.00096736,0.007353,0.24888,0.010621,0.023421,3.901e-07,0.96,0.36,0
0.04859,0.0038981,0.025404,-0.0010194,0.0073154,5.7752e-05,0,0,0.070546,-0.032506,0,0.00045046,0,0,0,0.025404,-0.0010195,0.0073154,0.12523,0.010567,0.023398,3.8755e-07,0.98,0.36,0
0.05,0.0039014,0.02538,-0.0010365,0.0073031,2.1074e-05,0,0,0.0705,-0.032524,0,0.00016438,0,0,0,0.02538,-0.0010365,0.0073031,0.045709,0.010549,0.02339,3.8669e-07,1,0.36,0
0,0,0.021031,0.0090132,0.0090132,0.0010389,0,0,0.046869,-3.2526e-19,0,0.0081038,0,0,0,0.02112,0.0089241,0.0090132,4.9048,0.013019,0.012152,9.214e-08,0,0.38,0
0.00093737,0.00016207,0.020949,0.0081109,0.0087181,0.0010327,0,0,0.047702,-0.0023681,0,0.008055,0,0,0,0.021032,0.0080284,0.0087181,4.5695,0.012593,0.012673,1.0349e-07,0.02,0.38,0
0.0019081,0.00032729,0.021252,0.0074179,0.0086009,0.0010243,0,0,0.049339,-0.0046137,0,0.0079898,0,0,0,0.021327,0.0073425,0.0086009,4.2119,0.012424,0.0134,1.1991e-07,0.04,0.38,0
0.0029109,0.00049363,0.021549,0.0067627,0.0084936,0.0009977,0,0,0.050917,-0.0067504,0,0.0077821,0,0,0,0.021616,0.0066957,0.0084936,3.8427,0.012268,0.014108,1.3635e-07,0.06,0.38,0
0.0039448,0.00065914,0.021844,0.0061436,0.0083962,0.00095347,0,0,0.052445,-0.0087852,0,0.0074371,0,0,0,0.021901,0.0060859,0.0083962,3.4626,0.012128,0.014796,1.5279e-07,0.08,0.38,0
0.0050087,0.000822,0.022137,0.0055603,0.0083091,0.00089249,0,0,0.053928,-0.010721,0,0.0069614,0,0,0,0.022185,0.0055123,0.0083091,3.073,0.012002,0.015465,1.6921e-07,0.1,0.38,0
0.0061019,0.00098053,0.02243,0.0050137,0.0082331,0.00081583,0,0,0.055367,-0.012555,0,0.0063635,0,0,0,0.022468,0.0049756,0.0082331,2.6761,0.011892,0.016112,1.8558e-07,0.12,0.38,0
0.0072234,0.0011332,0.022724,0.0045056,0.0081688,0.00072486,0,0,0.056764,-0.014287,0,0.0056539,0,0,0,0.022753,0.0044768,0.0081688,2.2749,0.011799,0.016738,2.019e-07,0.14,0.38,0
0.0083725,0.0012786,0.02302,0.0040382,0.0081175,0.00062121,0,0,0.05812,-0.015909,0,0.0048455,0,0,0,0.02304,0.0040179,0.0081175,1.8724,0.011725,0.01734,2.1816e-07,0.16,0.38,0
0.0095482,0.0014158,0.02332,0.0036144,0.0080804,0.00050681,0,0,0.059436,-0.017417,0,0.0039531,0,0,0,0.023333,0.0036014,0.0080804,1.4723,0.011672,0.017917,2.3435e-07,0.18,0.38,0
0.01075,0.001544,0.023626,0.0032377,0.0080591,0.00038388,0,0,0.060711,-0.018804,0,0.0029943,0,0,0,0.023633,0.0032305,0.0080591,1.0783,0.011641,0.018468,2.5049e-07,0.2,0.38,0
0.011977,0.0016628,0.023939,0.0029125,0.0080556,0.00025508,0,0,0.061947,-0.020058,0,0.0019896,0,0,0,0.023943,0.0029095,0.0080556,0.69492,0.011636,0.01899,2.666e-07,0.22,0.38,0
0.013228,0.0017721,0.024262,0.0026449,0.0080721,0.00012375,0,0,0.063141,-0.021166,0,0.00096526,0,0,0,0.024263,0.0026442,0.0080721,0.32799,0.01166,0.01948,2.8264e-07,0.24,0.38,0
0.014502,0.0018726,0.024595,0.002443,0.0081114,-5.4574e-06,0,0,0.064286,-0.022107,0,-4.2567e-05,0,0,0,0.024595,0.002443,0.0081114,-0.014115,0.011716,0.019932,2.9853e-07,0.26,0.38,0
0.015799,0.0019655,0.024938,0.0023189,0.0081769,-0.00012556,0,0,0.065366,-0.022846,0,-0.00097939,0,0,0,0.024938,0.0023182,0.0081769,-0.31805,0.011811,0.020334,3.14e-07,0.28,0.38,0
0.017117,0.0020531,0.025285,0.00229,0.0082724,-0.00022539,0,0,0.066348,-0.023331,0,-0.001758,0,0,0,0.025287,0.0022878,0.0082724,-0.56154,0.011949,0.020667,3.2849e-07,0.3,0.38,0
0.018453,0.002139,0.025625,0.0023823,0.0084022,-0.00028694,0,0,0.067169,-0.023478,0,-0.0022382,0,0,0,0.025629,0.0023787,0.0084022,-0.7072,0.012136,0.0209,3.4088e-07,0.32,0.38,0
0.019804,0.0022287,0.025933,0.0026337,0.0085701,-0.00028297,0,0,0.067716,-0.023152,0,-0.0022072,0,0,0,0.025937,0.0026303,0.0085701,-0.69572,0.012379,0.020977,3.4906e-07,0.34,0.38,0
0.021162,0.00233,0.026153,0.0030966,0.008775,-0.0001827,0,0,0.067776,-0.022146,0,-0.0014251,0,0,0,0.026155,0.0030952,0.008775,-0.45397,0.012675,0.020809,3.4919e-07,0.36,0.38,0
0.022515,0.0024504,0.026209,0.0038641,0.0090219,1.0382e-05,0,0,0.067029,-0.020115,0,8.0978e-05,0,0,0,0.026209,0.0038641,0.0090219,0.02662,0.013032,0.020264,3.3586e-07,0.38,0.38,0
0.023843,0.0025872,0.026143,0.0050709,0.0093642,0.00019713,0,0,0.065438,-0.016744,0,0.0015376,0,0,0,0.026145,0.005069,0.0093642,0.53595,0.013526,0.01929,3.0795e-07,0.4,0.38,0
0.025132,0.0027209,0.025864,0.0016572,0.0082563,0.0001701,0,0,0.044378,-0.012868,0,0.0012245,0,0,0,0.025866,0.0016548,0.0082563,0.47396,0.011926,0.021776,3.4823e-07,0.42,0.38,0
0.025618,0.0028096,0.02594,-0.0010789,0.0074584,-9.4592e-05,0,0,0.024026,-0.011099,0,-0.00024594,0,0,0,0.025941,-0.0010792,0.0074584,-0.20058,0.010773,0.023922,4.1319e-07,0.44,0.38,0
0.026093,0.0028749,0.025935,-0.0002611,0.0077023,-0.0004675,0,0,0.023703,-0.010352,0,-0.0012155,0,0,0,0.025944,-0.00026944,0.0077023,-1.0221,0.011125,0.023275,4.0077e-07,0.46,0.38,0
0.026566,0.0029209,0.026024,-0.00012482,0.0077699,-0.00057442,0,0,0.023731,-0.010263,0,-0.0014935,0,0,0,0.026037,-0.00013743,0.0077699,-1.2578,0.011223,0.023252,4.0296e-07,0.48,0.38,0
0.027043,0.0029575,0.026207,-4.0357e-05,0.00785,-0.00050867,0,0,0.023864,-0.010257,0,-0.0013225,0,0,0,0.026217,-5.0211e-05,0.00785,-1.1098,0.011339,0.023342,4.0991e-07,0.5,0.38,0
0.027521,0.0029924,0.0263,1.8694e-05,0.0078955,-0.00037473,0,0,0.023925,-0.01024,0,-0.0009743,0,0,0,0.026305,1.3352e-05,0.0078955,-0.81674,0.011405,0.02337,4.1298e-07,0.52,0.38,0
0.028,0.0030277,0.026338,9.4109e-05,0.0079296,-0.00025869,0,0,0.023931,-0.010186,0,-0.0006726,0,0,0,0.026341,9.156e-05,0.0079296,-0.5647,0.011454,0.023339,4.1333e-07,0.54,0.38,0
0.028478,0.0030635,0.026342,0.00014613,0.0079466,-0.00018071,0,0,0.023915,-0.010141,0,-0.00046984,0,0,0,0.026344,0.00014488,0.0079466,-0.39521,0.011478,0.023299,4.1257e-07,0.56,0.38,0
0.028956,0.003099,0.026344,0.00013754,0.0079443,-0.00013634,0,0,0.023919,-0.010149,0,-0.00035448,0,0,0,0.026344,0.00013683,0.0079443,-0.29807,0.011475,0.023306,4.1273e-07,0.58,0.38,0
0.029435,0.0031336,0.026358,4.1938e-05,0.00792,-0.00010514,0,0,0.02397,-0.010242,0,-0.00027337,0,0,0,0.026359,4.1518e-05,0.00792,-0.22891,0.01144,0.023395,4.1503e-07,0.6,0.38,0
0.029915,0.0031673,0.026388,-0.00014132,0.0078741,-6.4249e-05,0,0,0.024068,-0.01042,0,-0.00016705,0,0,0,0.026388,-0.00014147,0.0078741,-0.13876,0.011374,0.023568,4.1953e-07,0.62,0.38,0
0.030398,0.003201,0.026422,-0.00038663,0.0078106,3.9702e-06,0,0,0.024195,-0.010656,0,1.0322e-05,0,0,0,0.026422,-0.00038663,0.0078106,0.0084851,0.011282,0.023794,4.2521e-07,0.64,0.38,0
0.030883,0.0032356,0.02643,-0.00065562,0.0077322,9.6896e-05,0,0,0.024307,-0.010904,0,0.00025193,0,0,0,0.02643,-0.00065597,0.0077322,0.20497,0.011169,0.024017,4.2999e-07,0.66,0.38,0
0.03137,0.003271,0.02638,-0.00090665,0.0076419,0.00017916,0,0,0.024359,-0.011113,0,0.00046581,0,0,0,0.026381,-0.00090782,0.0076419,0.37617,0.011038,0.024175,4.3162e-07,0.68,0.38,0
0.031857,0.0033053,0.026179,-0.001178,0.0075001,0.00014025,0,0,0.024282,-0.011282,0,0.00036465,0,0,0,0.026179,-0.0011787,0.0075001,0.29373,0.010833,0.024214,4.2605e-07,0.7,0.38,0
0.032341,0.0033316,0.025687,-0.0015599,0.007238,-0.00012988,0,0,0.023983,-0.011437,0,-0.00033769,0,0,0,0.025687,-0.0015605,0.007238,-0.27312,0.010455,0.024085,4.0822e-07,0.72,0.38,0
0.032816,0.0033461,0.024504,-0.0025633,0.0065822,-0.00031839,0,0,0.023298,-0.011889,0,-0.00082783,0,0,0,0.024508,-0.0025671,0.0065822,-0.67385,0.0095076,0.023855,3.6738e-07,0.74,0.38,0
0.033273,0.0033988,0.024394,-0.00011182,0.0072847,-0.00056393,0,0,0.043899,-0.014423,0,-0.0034991,0,0,0,0.024411,-0.0001289,0.0072847,-1.444,0.010522,0.021932,3.0169e-07,0.76,0.38,0
0.034572,0.0033475,0.025181,0.0038094,0.0086971,0.00074414,0,0,0.064286,-0.019062,0,0.0058043,0,0,0,0.025207,0.0037836,0.0086971,1.9918,0.012562,0.019438,2.9749e-07,0.78,0.38,0
0.035844,0.0031802,0.025411,0.0025286,0.008382,0.00047759,0,0,0.066414,-0.022828,0,0.0037252,0,0,0,0.025421,0.0025187,0.008382,1.1951,0.012107,0.020606,3.2975e-07,0.8,0.38,0
0.037229,0.0031408,0.026383,0.0014573,0.0083522,0.00072507,0,0,0.070322,-0.02689,0,0.0056555,0,0,0,0.026405,0.0014362,0.0083522,1.6648,0.012064,0.022329,3.9227e-07,0.82,0.38,0
0.038657,0.003136,0.026545,0.00074769,0.0081878,0.00071697,0,0,0.071593,-0.029016,0,0.0055924,0,0,0,0.026565,0.00072777,0.0081878,1.5908,0.011827,0.023032,4.1273e-07,0.84,0.38,0
0.040093,0.0031472,0.026347,0.00020459,0.0079655,0.00066739,0,0,0.071688,-0.030267,0,0.0052056,0,0,0,0.026364,0.00018757,0.0079655,1.4614,0.011506,0.023283,4.1279e-07,0.86,0.38,0
0.041525,0.0031663,0.026094,-0.00018354,0.0077732,0.00059498,0,0,0.071452,-0.031032,0,0.0046408,0,0,0,0.026108,-0.000197,0.0077732,1.2964,0.011228,0.023363,4.0722e-07,0.88,0.38,0
0.042951,0.0031881,0.025856,-0.00046128,0.0076185,0.00050745,0,0,0.071128,-0.031511,0,0.0039581,0,0,0,0.025866,-0.00047106,0.0076185,1.1042,0.011005,0.023367,4.0039e-07,0.9,0.38,0
0.04437,0.0032092,0.025655,-0.00065903,0.0074988,0.00041118,0,0,0.070809,-0.031815,0,0.0032072,0,0,0,0.025661,-0.00066545,0.0074988,0.89501,0.010832,0.023341,3.9399e-07,0.92,0.38,0
0.045783,0.0032273,0.025497,-0.00079698,0.00741,0.00031041,0,0,0.070539,-0.032007,0,0.0024212,0,0,0,0.0255,-0.00080065,0.00741,0.67628,0.010703,0.023307,3.8871e-07,0.94,0.38,0
0.047191,0.0032412,0.025384,-0.00088797,0.0073488,0.00020758,0,0,0.070337,-0.032123,0,0.0016191,0,0,0,0.025386,-0.00088961,0.0073488,0.45266,0.010615,0.023276,3.8482e-07,0.96,0.38,0
0.048597,0.0032498,0.025316,-0.00093978,0.007313,0.00010392,0,0,0.070213,-0.032186,0,0.00081058,0,0,0,0.025317,-0.00094019,0.007313,0.22677,0.010563,0.023256,3.8247e-07,0.98,0.38,0
0.05,0.0032527,0.025294,-0.00095661,0.0073012,1.8734e-05,0,0,0.070171,-0.032205,0,0.00014613,0,0,0,0.025294,-0.00095663,0.0073012,0.040891,0.010546,0.023249,3.8168e-07,1,0.38,0
0,0,0.02096,0.0089827,0.0089827,0.00073934,0,0,0.04671,-8.6736e-19,0,0.0057668,0,0,0,0.021005,0.0089373,0.0089827,3.5191,0.012975,0.012045,8.9754e-08,0,0.4,0
0.0009342,0.00011534,0.020881,0.0081066,0.0086962,0.00073306,0,0,0.04752,-0.0022995,0,0.0057179,0,0,0,0.020923,0.0080646,0.0086962,3.2737,0.012561,0.012554,1.0076e-07,0.02,0.4,0
0.0019008,0.00023624,0.021174,0.0074334,0.0085822,0.00073055,0,0,0.049108,-0.0044804,0,0.0056983,0,0,0,0.021213,0.0073946,0.0085822,3.0349,0.012396,0.013264,1.1662e-07,0.04,0.4,0
0.0028985,0.00036043,0.021462,0.0067969,0.0084777,0.00070754,0,0,0.050639,-0.006555,0,0.0055188,0,0,0,0.021496,0.0067629,0.0084777,2.7558,0.012246,0.013955,1.325e-07,0.06,0.4,0
0.0039264,0.00048582,0.021747,0.0061956,0.0083828,0.0006654,0,0,0.052121,-0.0085301,0,0.0051902,0,0,0,0.021775,0.0061672,0.0083828,2.4456,0.012108,0.014627,1.4837e-07,0.08,0.4,0
0.0049833,0.00061052,0.02203,0.0056291,0.0082978,0.0006054,0,0,0.053557,-0.010408,0,0.0047221,0,0,0,0.022053,0.0056067,0.0082978,2.1111,0.011986,0.015279,1.6421e-07,0.1,0.4,0
0.0060686,0.00073286,0.022313,0.005098,0.0082232,0.00052875,0,0,0.054949,-0.012188,0,0.0041242,0,0,0,0.022329,0.0050818,0.0082232,1.7576,0.011878,0.015911,1.7999e-07,0.12,0.4,0
0.0071813,0.00085136,0.022596,0.004604,0.0081599,0.00043674,0,0,0.056299,-0.013868,0,0.0034066,0,0,0,0.022606,0.0045934,0.0081599,1.3897,0.011787,0.016521,1.957e-07,0.14,0.4,0
0.0083206,0.00096479,0.02288,0.004149,0.0081086,0.00033081,0,0,0.057607,-0.015443,0,0.0025803,0,0,0,0.022886,0.0041432,0.0081086,1.0115,0.011713,0.017108,2.1133e-07,0.16,0.4,0
0.0094856,0.0010722,0.023167,0.0037357,0.0080707,0.00021258,0,0,0.058874,-0.016907,0,0.0016581,0,0,0,0.023169,0.0037334,0.0080707,0.62673,0.011658,0.017671,2.2687e-07,0.18,0.4,0
0.010676,0.001173,0.023458,0.0033673,0.0080476,8.399e-05,0,0,0.0601,-0.018253,0,0.00065512,0,0,0,0.023458,0.003367,0.0080476,0.23952,0.011624,0.018208,2.4233e-07,0.2,0.4,0
0.01189,0.0012669,0.023755,0.0030478,0.0080409,-5.2524e-05,0,0,0.061286,-0.019473,0,-0.00040969,0,0,0,0.023755,0.0030477,0.0080409,-0.14533,0.011615,0.018718,2.5773e-07,0.22,0.4,0
0.013127,0.0013542,0.024061,0.0027823,0.0080531,-0.00019362,0,0,0.062432,-0.020556,0,-0.0015102,0,0,0,0.024063,0.0027806,0.0080531,-0.52128,0.011632,0.019197,2.7306e-07,0.24,0.4,0
0.014387,0.0014359,0.024378,0.0025776,0.0080867,-0.00033431,0,0,0.063536,-0.021486,0,-0.0026076,0,0,0,0.024383,0.0025724,0.0080867,-0.87835,0.011681,0.019643,2.8832e-07,0.26,0.4,0
0.015668,0.0015138,0.024709,0.0024427,0.0081455,-0.00046668,0,0,0.064597,-0.022241,0,-0.0036401,0,0,0,0.024719,0.002433,0.0081455,-1.2002,0.011766,0.020049,3.0344e-07,0.28,0.4,0
0.016971,0.0015909,0.025057,0.0023907,0.0082343,-0.0005777,0,0,0.065609,-0.02279,0,-0.004506,0,0,0,0.025072,0.002376,0.0082343,-1.459,0.011894,0.020407,3.1827e-07,0.3,0.4,0
0.018293,0.0016723,0.025427,0.0024395,0.0083599,-0.00064563,0,0,0.066561,-0.023089,0,-0.0050359,0,0,0,0.025445,0.0024214,0.0083599,-1.6076,0.012075,0.020703,3.325e-07,0.32,0.4,0
0.019633,0.0017657,0.02582,0.002615,0.0085305,-0.00063517,0,0,0.067429,-0.02307,0,-0.0049543,0,0,0,0.025837,0.0025976,0.0085305,-1.5668,0.012322,0.020914,3.4549e-07,0.34,0.4,0
0.02099,0.0018822,0.026222,0.0029576,0.008754,-0.00049035,0,0,0.068127,-0.022606,0,-0.0038248,0,0,0,0.026233,0.0029472,0.008754,-1.2069,0.012645,0.020993,3.5546e-07,0.36,0.4,0
0.022358,0.0020379,0.026498,0.0035168,0.0090045,-0.0001523,0,0,0.068226,-0.021402,0,-0.001188,0,0,0,0.026499,0.0035158,0.0090045,-0.37969,0.013007,0.02079,3.5534e-07,0.38,0.4,0
0.023719,0.0022445,0.026446,0.0045742,0.009306,0.00029272,0,0,0.066846,-0.018454,0,0.0022832,0,0,0,0.02645,0.0045703,0.009306,0.76663,0.013442,0.019938,3.3095e-07,0.4,0.4,0
0.025032,0.0024631,0.026395,0.0018457,0.0084722,0.00051272,0,0,0.045185,-0.012922,0,0.0031326,0,0,0,0.026409,0.0018319,0.0084722,1.3123,0.012238,0.022118,3.6874e-07,0.42,0.4,0
0.025526,0.0025911,0.026635,-9.623e-05,0.0079618,-0.00019803,0,0,0.024276,-0.010475,0,-0.00051488,0,0,0,0.026637,-9.7697e-05,0.0079618,-0.42442,0.0115,0.023754,4.3072e-07,0.44,0.4,0
0.026003,0.002669,0.026344,-0.00027199,0.0078215,-0.00061986,0,0,0.024079,-0.010521,0,-0.0016117,0,0,0,0.026358,-0.00028642,0.0078215,-1.3334,0.011298,0.023657,4.205e-07,0.46,0.4,0
0.026489,0.002713,0.026678,-0.00019192,0.0079459,-0.00072449,0,0,0.024352,-0.010579,0,-0.0018837,0,0,0,0.026698,-0.00021144,0.0079459,-1.5433,0.011477,0.023898,4.3563e-07,0.48,0.4,0
0.026977,0.0027495,0.026699,-0.00022493,0.0079421,-0.00054829,0,0,0.024383,-0.010617,0,-0.0014256,0,0,0,0.02671,-0.00023609,0.0079421,-1.1662,0.011472,0.023929,4.3663e-07,0.5,0.4,0
0.027465,0.0027851,0.026678,-0.0001261,0.0079656,-0.00035919,0,0,0.024326,-0.010519,0,-0.00093388,0,0,0,0.026683,-0.00013091,0.0079656,-0.76761,0.011506,0.023821,4.3352e-07,0.52,0.4,0
0.02795,0.0028223,0.026605,2.46e-06,0.0079823,-0.00021302,0,0,0.02421,-0.010374,0,-0.00055386,0,0,0,0.026607,7.5434e-07,0.0079823,-0.45876,0.01153,0.023648,4.2759e-07,0.54,0.4,0
0.028433,0.0028596,0.026541,0.00011305,0.0079962,-0.00014175,0,0,0.024108,-0.010248,0,-0.00036854,0,0,0,0.026542,0.00011229,0.0079962,-0.30729,0.01155,0.023501,4.2252e-07,0.56,0.4,0
0.028915,0.0028952,0.026501,0.00013529,0.007991,-0.00012551,0,0,0.024063,-0.010212,0,-0.00032634,0,0,0,0.026502,0.00013469,0.007991,-0.27274,0.011543,0.023448,4.2023e-07,0.58,0.4,0
0.029396,0.002928,0.026504,4.0864e-05,0.0079633,-0.00013152,0,0,0.024102,-0.010299,0,-0.00034196,0,0,0,0.026504,4.021e-05,0.0079633,-0.28476,0.011503,0.023525,4.2198e-07,0.6,0.4,0
0.029879,0.002958,0.026547,-0.00017067,0.0079129,-0.00012089,0,0,0.024224,-0.010509,0,-0.00031431,0,0,0,0.026548,-0.00017122,0.0079129,-0.25924,0.01143,0.023733,4.2765e-07,0.62,0.4,0
0.030365,0.0029865,0.02661,-0.00047065,0.0078419,-6.1486e-05,0,0,0.024399,-0.010806,0,-0.00015986,0,0,0,0.02661,-0.00047079,0.0078419,-0.13009,0.011327,0.024029,4.3573e-07,0.64,0.4,0
0.030855,0.0030157,0.026664,-0.00078672,0.0077633,6.4854e-05,0,0,0.024571,-0.011115,0,0.00016862,0,0,0,0.026664,-0.00078687,0.0077633,0.13536,0.011214,0.02433,4.4358e-07,0.66,0.4,0
0.031348,0.0030474,0.02662,-0.0010636,0.0076668,0.00022767,0,0,0.024639,-0.01135,0,0.00059195,0,0,0,0.026622,-0.0010655,0.0076668,0.47117,0.011074,0.024517,4.4592e-07,0.68,0.4,0
0.03184,0.0030801,0.026414,-0.0011981,0.0075647,0.00038547,0,0,0.024504,-0.011392,0,0.0010022,0,0,0,0.026419,-0.0012035,0.0075647,0.79967,0.010927,0.024448,4.3807e-07,0.7,0.4,0
0.032328,0.0031098,0.025766,-0.0013797,0.0073158,0.00037517,0,0,0.023985,-0.011304,0,0.00097545,0,0,0,0.025771,-0.0013849,0.0073158,0.79167,0.010567,0.024018,4.0967e-07,0.72,0.4,0
0.0328,0.0031198,0.026327,-0.0011674,0.0075479,0.00016755,0,0,0.024413,-0.01133,0,0.00043564,0,0,0,0.026328,-0.0011684,0.0075479,0.34914,0.010903,0.024339,4.331e-07,0.74,0.4,0
0.033304,0.0030836,0.025798,-0.00037544,0.0076267,-0.00035827,0,0,0.045632,-0.015604,0,-0.0029373,0,0,0,0.025812,-0.00038969,0.0076267,-1.0038,0.011016,0.023375,3.6753e-07,0.76,0.4,0
0.034625,0.0029242,0.026027,0.0029413,0.0086906,-0.00047242,0,0,0.067613,-0.022422,0,-0.0036849,0,0,0,0.026037,0.0029316,0.0086906,-1.1718,0.012553,0.020832,3.4744e-07,0.78,0.4,0
0.036009,0.0027328,0.026447,0.0024923,0.0086818,0.00017279,0,0,0.069284,-0.024139,0,0.0013478,0,0,0,0.026448,0.002491,0.0086818,0.41326,0.01254,0.02154,3.7392e-07,0.8,0.4,0
0.037396,0.0026104,0.026195,0.0014472,0.0082926,0.00069521,0,0,0.069819,-0.026697,0,0.0054226,0,0,0,0.026214,0.0014276,0.0082926,1.6079,0.011978,0.022166,3.8383e-07,0.82,0.4,0
0.038802,0.0025613,0.026119,0.00075118,0.0080611,0.00091118,0,0,0.070427,-0.028509,0,0.0071072,0,0,0,0.026152,0.00071849,0.0080611,2.0545,0.011644,0.022672,3.9375e-07,0.84,0.4,0
0.040213,0.0025471,0.025957,0.00026603,0.007867,0.00091257,0,0,0.070552,-0.029644,0,0.007118,0,0,0,0.02599,0.00023366,0.007867,2.0318,0.011364,0.022914,3.9465e-07,0.86,0.4,0
0.041624,0.0025509,0.025753,-9.0455e-05,0.0076987,0.00083059,0,0,0.070411,-0.030378,0,0.0064786,0,0,0,0.025779,-0.00011712,0.0076987,1.8389,0.01112,0.023007,3.9081e-07,0.88,0.4,0
0.04303,0.0025629,0.025557,-0.0003517,0.0075615,0.00071171,0,0,0.070181,-0.030861,0,0.0055513,0,0,0,0.025576,-0.00037124,0.0075615,1.5723,0.010922,0.02303,3.8563e-07,0.9,0.4,0
0.044431,0.0025778,0.025389,-0.00054169,0.0074541,0.00057655,0,0,0.069945,-0.031183,0,0.0044971,0,0,0,0.025401,-0.0005545,0.0074541,1.2731,0.010767,0.023021,3.8058e-07,0.92,0.4,0
0.045828,0.002592,0.025256,-0.00067633,0.0073738,0.00043456,0,0,0.069739,-0.031396,0,0.0033896,0,0,0,0.025263,-0.00068361,0.0073738,0.95979,0.010651,0.023002,3.7635e-07,0.94,0.4,0
0.04722,0.0026034,0.02516,-0.00076612,0.0073183,0.00029013,0,0,0.069584,-0.031529,0,0.002263,0,0,0,0.025164,-0.00076937,0.0073183,0.64106,0.010571,0.022982,3.732e-07,0.96,0.4,0
0.048611,0.0026107,0.025103,-0.00081761,0.0072857,0.00014509,0,0,0.069488,-0.031603,0,0.0011317,0,0,0,0.025104,-0.00081843,0.0072857,0.32069,0.010524,0.022969,3.7129e-07,0.98,0.4,0
0.05,0.0026132,0.025084,-0.0008344,0.0072749,1.6039e-05,0,0,0.069456,-0.031626,0,0.00012511,0,0,0,0.025084,-0.00083441,0.0072749,0.035456,0.010508,0.022964,3.7064e-07,1,0.4,0
0,0,0.020862,0.0089408,0.0089408,0.00044932,0,0,0.046492,5.421e-19,0,0.0035047,0,0,0,0.020879,0.0089239,0.0089408,2.1555,0.012915,0.011947,8.7567e-08,0,0.42,0
0.00092984,7.0094e-05,0.020786,0.0080952,0.0086643,0.00044317,0,0,0.047273,-0.0022193,0,0.0034567,0,0,0,0.020801,0.0080797,0.0086643,1.9976,0.012515,0.012439,9.8125e-08,0.02,0.42,0
0.0018909,0.00014808,0.021068,0.0074442,0.0085537,0.00044655,0,0,0.048806,-0.004327,0,0.0034831,0,0,0,0.021083,0.0074296,0.0085537,1.8753,0.012355,0.013127,1.1332e-07,0.04,0.42,0
0.0028821,0.00023143,0.021345,0.0068281,0.008452,0.0004275,0,0,0.050284,-0.0063332,0,0.0033345,0,0,0,0.021358,0.0068156,0.008452,1.6853,0.012209,0.013797,1.2852e-07,0.06,0.42,0
0.0039023,0.00031793,0.021619,0.0062457,0.0083593,0.00038805,0,0,0.051712,-0.0082433,0,0.0030267,0,0,0,0.021629,0.0062359,0.0083593,1.445,0.012075,0.014448,1.437e-07,0.08,0.42,0
0.0049506,0.00040568,0.021889,0.0056967,0.0082759,0.00032979,0,0,0.053093,-0.010059,0,0.0025724,0,0,0,0.021896,0.00569,0.0082759,1.1663,0.011954,0.015081,1.5883e-07,0.1,0.42,0
0.006026,0.00049299,0.022158,0.005182,0.0082021,0.00025413,0,0,0.054429,-0.011778,0,0.0019822,0,0,0,0.022162,0.0051782,0.0082021,0.85743,0.011848,0.015692,1.7387e-07,0.12,0.42,0
0.0071277,0.00057846,0.022426,0.0047029,0.0081386,0.00016233,0,0,0.05572,-0.013399,0,0.0012662,0,0,0,0.022427,0.0047014,0.0081386,0.52474,0.011756,0.016282,1.888e-07,0.14,0.42,0
0.0082548,0.00066093,0.022693,0.0042615,0.0080862,5.5685e-05,0,0,0.056965,-0.014917,0,0.00043434,0,0,0,0.022693,0.0042613,0.0080862,0.1731,0.01168,0.016848,2.0359e-07,0.16,0.42,0
0.0094064,0.00073958,0.02296,0.0038601,0.008046,-6.4437e-05,0,0,0.058164,-0.016325,0,-0.00050261,0,0,0,0.02296,0.0038599,0.008046,-0.1933,0.011622,0.017389,2.1821e-07,0.18,0.42,0
0.010581,0.00081391,0.023229,0.0035018,0.0080191,-0.00019643,0,0,0.059317,-0.017618,0,-0.0015321,0,0,0,0.023231,0.0034999,0.0080191,-0.57045,0.011583,0.017904,2.3266e-07,0.2,0.42,0
0.011779,0.00088385,0.0235,0.0031899,0.0080071,-0.00033824,0,0,0.060424,-0.018787,0,-0.0026383,0,0,0,0.023506,0.0031843,0.0080071,-0.95382,0.011566,0.018391,2.4694e-07,0.22,0.42,0
0.012998,0.00094988,0.023778,0.0029287,0.0080119,-0.000487,0,0,0.061486,-0.019824,0,-0.0037986,0,0,0,0.023789,0.0029173,0.0080119,-1.3374,0.011573,0.018848,2.6106e-07,0.24,0.42,0
0.014238,0.0010132,0.024063,0.002723,0.0080359,-0.00063841,0,0,0.062507,-0.02072,0,-0.0049796,0,0,0,0.024082,0.0027039,0.0080359,-1.712,0.011607,0.019274,2.7505e-07,0.26,0.42,0
0.015499,0.0010759,0.024363,0.0025793,0.0080827,-0.00078571,0,0,0.063493,-0.021463,0,-0.0061285,0,0,0,0.024391,0.002551,0.0080827,-2.063,0.011675,0.019667,2.8898e-07,0.28,0.42,0
0.016778,0.0011415,0.024685,0.0025055,0.0081572,-0.00091805,0,0,0.064459,-0.022041,0,-0.0071608,0,0,0,0.024723,0.0024676,0.0081572,-2.3662,0.011783,0.020026,3.03e-07,0.3,0.42,0
0.018077,0.0012154,0.025046,0.002512,0.0082674,-0.0010179,0,0,0.065437,-0.022446,0,-0.0079396,0,0,0,0.025092,0.0024661,0.0082674,-2.5811,0.011942,0.020355,3.1746e-07,0.32,0.42,0
0.019396,0.0013059,0.025476,0.0026144,0.008427,-0.0010559,0,0,0.06649,-0.022669,0,-0.0082359,0,0,0,0.025524,0.0025657,0.008427,-2.6388,0.012172,0.020661,3.3309e-07,0.34,0.42,0
0.020737,0.0014258,0.026028,0.0028412,0.0086607,-0.00098257,0,0,0.067732,-0.022696,0,-0.0076641,0,0,0,0.026069,0.0027996,0.0086607,-2.4222,0.01251,0.020963,3.514e-07,0.36,0.42,0
0.022105,0.0015944,0.026788,0.0032634,0.0090154,-0.00068439,0,0,0.069313,-0.022433,0,-0.0053383,0,0,0,0.026808,0.0032435,0.0090154,-1.665,0.013022,0.021274,3.7452e-07,0.38,0.42,0
0.023509,0.0018491,0.027371,0.0039054,0.0093828,-6.4937e-05,0,0,0.070153,-0.021362,0,-0.00050651,0,0,0,0.027371,0.0039053,0.0093828,-0.15856,0.013553,0.021263,3.8546e-07,0.4,0.42,0
0.024911,0.002204,0.026289,0.00058041,0.0080609,-0.00029465,0,0,0.047063,-0.014587,0,0.00095522,0,0,0,0.026326,0.00054401,0.0080609,-0.33164,0.011644,0.023104,3.7055e-07,0.42,0.42,0
0.025392,0.0023906,0.0275,0.00032731,0.0083482,0.00045821,0,0,0.024897,-0.010427,0,0.0011914,0,0,0,0.027508,0.00031959,0.0083482,0.96582,0.012058,0.024195,4.6656e-07,0.44,0.42,0
0.025907,0.0024541,0.028094,0.00024328,0.0085012,-0.00067375,0,0,0.025471,-0.010735,0,-0.0017518,0,0,0,0.02811,0.00022699,0.0085012,-1.385,0.012279,0.024804,4.9984e-07,0.46,0.42,0
0.02641,0.0024977,0.027495,-0.00036598,0.0081388,-0.00057992,0,0,0.025163,-0.011056,0,-0.0015078,0,0,0,0.027507,-0.00037805,0.0081388,-1.1919,0.011756,0.024751,4.7936e-07,0.48,0.42,0
0.026913,0.0025328,0.027314,-0.00038499,0.0080786,-0.00043323,0,0,0.025006,-0.011003,0,-0.0011264,0,0,0,0.027321,-0.00039177,0.0080786,-0.89586,0.011669,0.024596,4.6994e-07,0.5,0.42,0
0.027411,0.0025716,0.027053,-0.00030405,0.0080246,-0.00021395,0,0,0.024736,-0.010827,0,-0.00055626,0,0,0,0.027054,-0.00030572,0.0080246,-0.44806,0.011591,0.024291,4.5491e-07,0.52,0.42,0
0.027903,0.0026128,0.026885,-6.6746e-05,0.0080455,-9.1023e-05,0,0,0.024491,-0.010546,0,-0.00023666,0,0,0,0.026885,-6.7054e-05,0.0080455,-0.1935,0.011621,0.02395,4.4233e-07,0.54,0.42,0
0.02839,0.0026536,0.026746,0.00011403,0.008058,-5.8381e-05,0,0,0.024294,-0.010327,0,-0.00015179,0,0,0,0.026746,0.0001139,0.008058,-0.1256,0.011639,0.023682,4.3235e-07,0.56,0.42,0
0.028875,0.0026905,0.026672,0.00017639,0.0080545,-9.5158e-05,0,0,0.024203,-0.010242,0,-0.00024741,0,0,0,0.026672,0.00017604,0.0080545,-0.20577,0.011634,0.023566,4.2768e-07,0.58,0.42,0
0.029358,0.0027216,0.026662,8.4041e-05,0.0080239,-0.00015514,0,0,0.02423,-0.010322,0,-0.00040336,0,0,0,0.026663,8.3135e-05,0.0080239,-0.33443,0.01159,0.023632,4.2886e-07,0.6,0.42,0
0.029844,0.002747,0.026715,-0.00016367,0.0079654,-0.00019575,0,0,0.024375,-0.010568,0,-0.00050894,0,0,0,0.026717,-0.00016509,0.0079654,-0.41723,0.011506,0.023878,4.3575e-07,0.62,0.42,0
0.030333,0.0027688,0.026824,-0.00053152,0.0078878,-0.00016846,0,0,0.024617,-0.010945,0,-0.00043799,0,0,0,0.026825,-0.00053255,0.0078878,-0.35281,0.011394,0.024269,4.4735e-07,0.64,0.42,0
0.030829,0.002791,0.026945,-0.00095319,0.0077975,-4.5829e-05,0,0,0.024892,-0.011376,0,-0.00011915,0,0,0,0.026945,-0.00095326,0.0077975,-0.094121,0.011263,0.024713,4.6033e-07,0.66,0.42,0
0.031329,0.0028171,0.027123,-0.0012139,0.0077729,0.00018917,0,0,0.025156,-0.011683,0,0.00049183,0,0,0,0.027125,-0.0012151,0.0077729,0.38245,0.011227,0.025084,4.7379e-07,0.68,0.42,0
0.031835,0.0028497,0.027206,-0.0013493,0.0077569,0.00040272,0,0,0.025283,-0.011838,0,0.0010471,0,0,0,0.027211,-0.001355,0.0077569,0.80785,0.011204,0.025274,4.8055e-07,0.7,0.42,0
0.03234,0.0028794,0.027771,-0.00091744,0.008056,0.00061763,0,0,0.025629,-0.011666,0,0.0016058,0,0,0,0.027784,-0.00093073,0.008056,1.2328,0.011636,0.025441,5.0379e-07,0.72,0.42,0
0.03286,0.0028929,0.027221,-0.0012743,0.0077839,-0.00042999,0,0,0.025268,-0.011776,0,-0.001118,0,0,0,0.027227,-0.0012808,0.0077839,-0.86432,0.011243,0.025228,4.8018e-07,0.74,0.42,0
0.033351,0.0027747,0.025981,-0.0013026,0.0074034,0.00017928,0,0,0.047896,-0.016977,0,-0.0018724,0,0,0,0.026023,-0.0013452,0.0074034,-0.011062,0.010694,0.024376,3.7062e-07,0.76,0.42,0
0.034776,0.0024507,0.027223,0.0023864,0.0088829,-0.0001394,0,0,0.071528,-0.025337,0,-0.0010873,0,0,0,0.027224,0.0023856,0.0088829,-0.32157,0.012831,0.022311,4.1154e-07,0.78,0.42,0
0.036212,0.0022146,0.026798,0.001813,0.0085834,0.00050701,0,0,0.071038,-0.026404,0,0.0039547,0,0,0,0.026808,0.0018027,0.0085834,1.162,0.012398,0.022399,4.0385e-07,0.8,0.42,0
0.037617,0.0020729,0.026131,0.0013007,0.0082297,0.00095076,0,0,0.069817,-0.027023,0,0.0074159,0,0,0,0.026168,0.0012644,0.0082297,2.1896,0.011887,0.022254,3.8472e-07,0.82,0.42,0
0.039005,0.0019956,0.025697,0.00076158,0.0079376,0.0011209,0,0,0.069262,-0.027987,0,0.0087427,0,0,0,0.025747,0.00071129,0.0079376,2.5686,0.011465,0.022318,3.7569e-07,0.84,0.42,0
0.040388,0.0019614,0.025454,0.00034882,0.0077409,0.0011194,0,0,0.069082,-0.028829,0,0.008731,0,0,0,0.025504,0.00029901,0.0077409,2.5479,0.011181,0.02243,3.7181e-07,0.86,0.42,0
0.041768,0.0019512,0.025271,3.3062e-05,0.0075912,0.0010196,0,0,0.068951,-0.029477,0,0.0079527,0,0,0,0.025312,-8.0605e-06,0.0075912,2.3097,0.010965,0.022504,3.6828e-07,0.88,0.42,0
0.043146,0.0019536,0.025118,-0.00020775,0.0074731,0.00087428,0,0,0.068815,-0.029955,0,0.0068194,0,0,0,0.025148,-0.0002379,0.0074731,1.9748,0.010794,0.022542,3.6467e-07,0.9,0.42,0
0.044521,0.0019618,0.024992,-0.00038828,0.007381,0.00070836,0,0,0.068682,-0.0303,0,0.0055252,0,0,0,0.025011,-0.00040804,0.007381,1.5975,0.010662,0.022557,3.6131e-07,0.92,0.42,0
0.045893,0.0019715,0.024893,-0.00051917,0.007312,0.00053389,0,0,0.068564,-0.030542,0,0.0041643,0,0,0,0.024904,-0.00053038,0.007312,1.203,0.010562,0.02256,3.5846e-07,0.94,0.42,0
0.047263,0.00198,0.024821,-0.00060784,0.0072641,0.00035641,0,0,0.068474,-0.0307,0,0.00278,0,0,0,0.024827,-0.00061283,0.0072641,0.80283,0.010493,0.022557,3.5633e-07,0.96,0.42,0
0.048632,0.0019857,0.024779,-0.00065919,0.0072358,0.00017822,0,0,0.068417,-0.030791,0,0.0013901,0,0,0,0.02478,-0.00066044,0.0072358,0.40138,0.010452,0.022554,3.5502e-07,0.98,0.42,0
0.05,0.0019877,0.024764,-0.00067601,0.0072265,1.2705e-05,0,0,0.068398,-0.03082,0,9.9099e-05,0,0,0,0.024764,-0.00067602,0.0072265,0.028614,0.010438,0.022553,3.5458e-07,1,0.42,0
0,0,0.02074,0.0088884,0.0088884,0.00017028,0,0,0.04622,-1.0842e-19,0,0.0013282,0,0,0,0.020742,0.008886,0.0088884,0.82302,0.012839,0.011855,8.557e-08,0,0.44,0
0.0009244,2.6564e-05,0.020667,0.0080771,0.0086231,0.00016445,0,0,0.046969,-0.0021295,0,0.0012827,0,0,0,0.020669,0.0080749,0.0086231,0.74825,0.012456,0.012329,9.5606e-08,0.02,0.44,0
0.0018788,6.3164e-05,0.020937,0.0074502,0.0085161,0.00017376,0,0,0.048441,-0.0041572,0,0.0013553,0,0,0,0.020939,0.007448,0.0085161,0.73804,0.012301,0.01299,1.1002e-07,0.04,0.44,0
0.002862,0.0001071,0.021202,0.0068557,0.0084173,0.00015922,0,0,0.04986,-0.0060899,0,0.0012419,0,0,0,0.021204,0.006854,0.0084173,0.63578,0.012158,0.013635,1.2445e-07,0.06,0.44,0
0.0038732,0.00015609,0.021462,0.006293,0.0083265,0.00012336,0,0,0.051229,-0.0079307,0,0.00096221,0,0,0,0.021463,0.006292,0.0083265,0.46591,0.012027,0.014263,1.3886e-07,0.08,0.44,0
0.0049112,0.00020817,0.021718,0.0057621,0.0082441,6.8153e-05,0,0,0.052549,-0.0096797,0,0.00053159,0,0,0,0.021719,0.0057618,0.0082441,0.24472,0.011908,0.014872,1.5319e-07,0.1,0.44,0
0.0059751,0.00026172,0.021971,0.0052641,0.0081704,-4.8472e-06,0,0,0.053821,-0.011335,0,-3.7808e-05,0,0,0,0.021971,0.0052641,0.0081704,-0.016623,0.011802,0.01546,1.6739e-07,0.12,0.44,0
0.007064,0.00031539,0.02222,0.0048005,0.0081061,-9.4327e-05,0,0,0.055043,-0.012891,0,-0.00073575,0,0,0,0.02222,0.0048,0.0081061,-0.31025,0.011709,0.016025,1.814e-07,0.14,0.44,0
0.0081768,0.00036813,0.022465,0.0043734,0.0080515,-0.00019909,0,0,0.056213,-0.014345,0,-0.0015529,0,0,0,0.022467,0.0043712,0.0080515,-0.63042,0.01163,0.016566,1.9518e-07,0.16,0.44,0
0.0093125,0.00041922,0.022707,0.0039849,0.0080077,-0.00031796,0,0,0.057329,-0.015689,0,-0.0024801,0,0,0,0.022713,0.0039795,0.0080077,-0.97267,0.011567,0.017079,2.0869e-07,0.18,0.44,0
0.01047,0.00046829,0.022947,0.0036379,0.0079755,-0.00044962,0,0,0.05839,-0.016917,0,-0.003507,0,0,0,0.022958,0.0036274,0.0079755,-1.3332,0.01152,0.017565,2.2187e-07,0.2,0.44,0
0.011648,0.00051544,0.023185,0.0033353,0.0079561,-0.00059243,0,0,0.059393,-0.018021,0,-0.0046209,0,0,0,0.023203,0.0033176,0.0079561,-1.708,0.011492,0.018019,2.3471e-07,0.22,0.44,0
0.012846,0.00056127,0.023423,0.0030803,0.0079509,-0.00074417,0,0,0.06034,-0.018995,0,-0.0058046,0,0,0,0.02345,0.0030531,0.0079509,-2.0923,0.011485,0.018442,2.4718e-07,0.24,0.44,0
0.014062,0.00060712,0.023662,0.0028765,0.0079617,-0.00090166,0,0,0.061233,-0.019832,0,-0.007033,0,0,0,0.023701,0.0028375,0.0079617,-2.4792,0.0115,0.018832,2.5932e-07,0.26,0.44,0
0.015295,0.00065527,0.023908,0.0027279,0.0079909,-0.0010602,0,0,0.062078,-0.020526,0,-0.0082694,0,0,0,0.023961,0.002675,0.0079909,-2.8584,0.011542,0.019189,2.7118e-07,0.28,0.44,0
0.016545,0.00070927,0.024169,0.0026383,0.0080421,-0.0012127,0,0,0.062894,-0.021075,0,-0.0094592,0,0,0,0.024237,0.0025702,0.0080421,-3.2137,0.011616,0.019515,2.8293e-07,0.3,0.44,0
0.017811,0.00077448,0.024458,0.0026121,0.0081209,-0.001349,0,0,0.063713,-0.021484,0,-0.010522,0,0,0,0.02454,0.0025291,0.0081209,-3.5203,0.01173,0.019816,2.9497e-07,0.32,0.44,0
0.019093,0.00085889,0.024802,0.0026548,0.0082371,-0.0014541,0,0,0.064604,-0.021771,0,-0.011342,0,0,0,0.024897,0.0025597,0.0082371,-3.7403,0.011898,0.020109,3.0814e-07,0.34,0.44,0
0.020395,0.00097438,0.025258,0.0027781,0.0084107,-0.001502,0,0,0.065703,-0.021967,0,-0.011716,0,0,0,0.025358,0.0026782,0.0084107,-3.8059,0.012149,0.020425,3.2423e-07,0.36,0.44,0
0.021722,0.0011406,0.025973,0.0030361,0.0087027,-0.0014499,0,0,0.067353,-0.0221,0,-0.01131,0,0,0,0.026064,0.0029448,0.0087027,-3.6028,0.012571,0.020845,3.4833e-07,0.38,0.44,0
0.023089,0.0013901,0.027228,0.0035465,0.0092323,-0.00091693,0,0,0.070183,-0.022175,0,-0.007152,0,0,0,0.027263,0.003511,0.0092323,-2.214,0.013336,0.021471,3.893e-07,0.4,0.44,0
0.024529,0.0018796,0.033734,0.0015679,0.01059,-0.0016007,0,0,0.0505,-0.01897,0,-0.0080915,0,0,0,0.03382,0.0014813,0.01059,-3.1439,0.015297,0.028885,1.0886e-06,0.42,0.44,0
0.025324,0.002174,0.024115,0.00083438,0.0074849,0.00066155,0,0,0.034872,-0.013681,0,0.0034731,0,0,0,0.024138,0.00081179,0.0074849,1.9406,0.010811,0.020809,4.4421e-07,0.44,0.44,0
0.025826,0.0022396,0.028331,0.0003009,0.0085895,0.00027466,0,0,0.025664,-0.010775,0,0.00071412,0,0,0,0.028334,0.00029821,0.0085895,0.56137,0.012407,0.024945,5.1047e-07,0.46,0.44,0
0.02635,0.0022708,0.028308,-0.00011844,0.0084568,-0.00030705,0,0,0.025806,-0.011148,0,-0.00079834,0,0,0,0.028311,-0.00012176,0.0084568,-0.6188,0.012215,0.025261,5.1749e-07,0.48,0.44,0
0.026858,0.0023094,0.027511,-0.00068644,0.0080473,-0.00012472,0,0,0.025302,-0.011354,0,-0.00032428,0,0,0,0.027511,-0.00068699,0.0080473,-0.25343,0.011624,0.025003,4.8503e-07,0.5,0.44,0
0.027363,0.002352,0.02731,-0.00041783,0.0080676,-6.6722e-06,0,0,0.025015,-0.011031,0,-1.7348e-05,0,0,0,0.02731,-0.00041783,0.0080676,-0.013787,0.011653,0.024608,4.6985e-07,0.52,0.44,0
0.027859,0.0024004,0.027068,-0.00010091,0.0080903,7.3494e-05,0,0,0.024672,-0.010648,0,0.00019108,0,0,0,0.027069,-0.00010111,0.0080903,0.15499,0.011686,0.02414,4.5204e-07,0.54,0.44,0
0.028349,0.0024465,0.026939,0.00017227,0.0081335,3.1017e-05,0,0,0.024448,-0.01035,0,8.0644e-05,0,0,0,0.02694,0.00017223,0.0081335,0.066392,0.011748,0.023807,4.4077e-07,0.56,0.44,0
0.028837,0.0024856,0.026856,0.0002485,0.0081315,-5.9627e-05,0,0,0.024342,-0.010248,0,-0.00015503,0,0,0,0.026857,0.00024837,0.0081315,-0.1284,0.011746,0.023672,4.3535e-07,0.58,0.44,0
0.029323,0.0025151,0.026838,0.00015844,0.0080989,-0.00016336,0,0,0.024361,-0.010323,0,-0.00042475,0,0,0,0.026839,0.00015744,0.0080989,-0.35082,0.011698,0.023729,4.361e-07,0.6,0.44,0
0.029811,0.0025353,0.026882,-0.00010064,0.0080344,-0.00025579,0,0,0.024502,-0.010576,0,-0.00066505,0,0,0,0.026884,-0.00010306,0.0080344,-0.54308,0.011605,0.023978,4.4292e-07,0.62,0.44,0
0.030303,0.0025487,0.026969,-0.00056156,0.0079223,-0.00029655,0,0,0.024761,-0.011029,0,-0.00077103,0,0,0,0.026972,-0.00056476,0.0079223,-0.61707,0.011443,0.024426,4.5525e-07,0.64,0.44,0
0.030802,0.0025607,0.027159,-0.001075,0.0078252,-0.00020323,0,0,0.025134,-0.01157,0,-0.0005284,0,0,0,0.02716,-0.0010764,0.0078252,-0.41239,0.011303,0.025004,4.7337e-07,0.66,0.44,0
0.031309,0.0025801,0.027314,-0.0015328,0.0077344,-4.3396e-05,0,0,0.025454,-0.012047,0,-0.00011283,0,0,0,0.027314,-0.0015329,0.0077344,-0.086194,0.011172,0.025509,4.8881e-07,0.68,0.44,0
0.03182,0.0026066,0.028068,-0.0011836,0.0080653,0.00020206,0,0,0.026003,-0.012024,0,0.00052536,0,0,0,0.028069,-0.001185,0.0080653,0.39575,0.01165,0.025899,5.2378e-07,0.7,0.44,0
0.032349,0.0026431,0.028154,-0.00096585,0.0081564,-0.00027998,0,0,0.025997,-0.011859,0,-0.00072794,0,0,0,0.028157,-0.00096854,0.0081564,-0.55082,0.011781,0.025802,5.2477e-07,0.72,0.44,0
0.03286,0.0026488,0.024039,-0.00044386,0.0070785,-0.00072597,0,0,0.035583,-0.015489,0,-0.0038629,0,0,0,0.024065,-0.00047032,0.0070785,-2.0453,0.010224,0.021767,4.652e-07,0.74,0.44,0
0.033672,0.0024046,0.033578,-0.00042707,0.0099453,0.001357,0,0,0.051565,-0.021947,0,0.0067674,0,0,0,0.033636,-0.00048506,0.0099453,2.5006,0.014365,0.030287,1.1424e-06,0.76,0.44,0
0.035141,0.0019108,0.027204,0.0020838,0.0087862,0.00062114,0,0,0.071828,-0.026139,0,0.0048449,0,0,0,0.027219,0.0020685,0.0087862,1.4156,0.012691,0.022555,4.1785e-07,0.78,0.44,0
0.036545,0.0016766,0.026003,0.0014755,0.0082435,0.0012349,0,0,0.069261,-0.026395,0,0.009632,0,0,0,0.026065,0.0014135,0.0082435,2.875,0.011907,0.022045,3.7741e-07,0.8,0.44,0
0.037912,0.0015295,0.025361,0.0010984,0.0079377,0.0013406,0,0,0.067949,-0.026673,0,0.010457,0,0,0,0.025434,0.0010246,0.0079377,3.153,0.011465,0.021792,3.5675e-07,0.82,0.44,0
0.039263,0.0014418,0.025008,0.00076566,0.0077322,0.0013563,0,0,0.067377,-0.027169,0,0.010579,0,0,0,0.025084,0.00069001,0.0077322,3.1923,0.011169,0.021746,3.4744e-07,0.84,0.44,0
0.040607,0.001394,0.024796,0.00044701,0.007573,0.0012857,0,0,0.067171,-0.027791,0,0.010028,0,0,0,0.024864,0.00037931,0.007573,3.0142,0.010939,0.021797,3.4315e-07,0.86,0.44,0
0.04195,0.0013718,0.024663,0.00017839,0.0074525,0.0011542,0,0,0.067122,-0.028369,0,0.0090029,0,0,0,0.024718,0.0001241,0.0074525,2.6929,0.010765,0.021871,3.4097e-07,0.88,0.44,0
0.043292,0.0013647,0.024566,-3.9009e-05,0.0073581,0.00098571,0,0,0.067111,-0.028849,0,0.0076885,0,0,0,0.024605,-7.8434e-05,0.0073581,2.2904,0.010628,0.021933,3.3933e-07,0.9,0.44,0
0.044634,0.0013658,0.02449,-0.00020864,0.0072844,0.0007982,0,0,0.067101,-0.029223,0,0.006226,0,0,0,0.024516,-0.00023441,0.0072844,1.8491,0.010522,0.021977,3.3788e-07,0.92,0.44,0
0.045976,0.0013703,0.024431,-0.00033503,0.0072287,0.00060187,0,0,0.067088,-0.029499,0,0.0046946,0,0,0,0.024445,-0.00034965,0.0072287,1.3914,0.010441,0.022007,3.3663e-07,0.94,0.44,0
0.047317,0.0013754,0.024388,-0.00042225,0.0071897,0.00040204,0,0,0.067073,-0.029687,0,0.0031359,0,0,0,0.024394,-0.00042876,0.0071897,0.92813,0.010385,0.022025,3.3565e-07,0.96,0.44,0
0.048659,0.001379,0.024362,-0.00047335,0.0071666,0.00020112,0,0,0.067062,-0.029796,0,0.0015688,0,0,0,0.024364,-0.00047497,0.0071666,0.46396,0.010352,0.022035,3.3503e-07,0.98,0.44,0
0.05,0.0013804,0.024353,-0.00049017,0.007159,8.5532e-06,0,0,0.067058,-0.029832,0,6.6715e-05,0,0,0,0.024353,-0.00049017,0.007159,0.019726,0.010341,0.022038,3.3482e-07,1,0.44,0
0,0,0.020596,0.0088268,0.0088268,-9.6703e-05,0,0,0.0459,-5.421e-19,0,-0.00075428,0,0,0,0.020597,0.008826,0.0088268,-0.47074,0.01275,0.01177,8.3751e-08,0,0.46,0
0.00091799,-1.5086e-05,0.020526,0.0080524,0.0085736,-0.00010198,0,0,0.046615,-0.0020327,0,-0.00079548,0,0,0,0.020527,0.0080515,0.0085736,-0.4684,0.012384,0.012223,9.3211e-08,0.02,0.46,0
0.0018646,-1.8209e-05,0.020784,0.007451,0.0084704,-8.6724e-05,0,0,0.048022,-0.0039756,0,-0.00067644,0,0,0,0.020784,0.0074504,0.0084704,-0.37267,0.012235,0.012854,1.0677e-07,0.04,0.46,0
0.0028388,-1.217e-05,0.021035,0.0068789,0.0083742,-9.6119e-05,0,0,0.049377,-0.0058315,0,-0.00074973,0,0,0,0.021036,0.0068783,0.0083742,-0.38901,0.012096,0.013472,1.2037e-07,0.06,0.46,0
0.0038397,7.052e-07,0.021281,0.0063362,0.0082852,-0.00012719,0,0,0.050684,-0.0076009,0,-0.00099204,0,0,0,0.021282,0.0063351,0.0082852,-0.48756,0.011968,0.014074,1.3395e-07,0.08,0.46,0
0.0048662,1.849e-05,0.021521,0.0058236,0.0082035,-0.00017767,0,0,0.051939,-0.0092815,0,-0.0013858,0,0,0,0.021523,0.0058216,0.0082035,-0.64836,0.01185,0.014657,1.4741e-07,0.1,0.46,0
0.0059173,3.9607e-05,0.021756,0.0053424,0.0081294,-0.00024582,0,0,0.053143,-0.010869,0,-0.0019174,0,0,0,0.021759,0.0053387,0.0081294,-0.85785,0.011742,0.015218,1.607e-07,0.12,0.46,0
0.0069919,6.2801e-05,0.021984,0.0048944,0.0080635,-0.00033026,0,0,0.05429,-0.01236,0,-0.002576,0,0,0,0.02199,0.004888,0.0080635,-1.1067,0.011647,0.015756,1.7372e-07,0.14,0.46,0
0.0080889,8.7139e-05,0.022205,0.0044815,0.008006,-0.00042979,0,0,0.055377,-0.013746,0,-0.0033523,0,0,0,0.022216,0.0044711,0.008006,-1.3883,0.011564,0.016268,1.864e-07,0.16,0.46,0
0.009207,0.00011202,0.022419,0.0041063,0.0079577,-0.00054332,0,0,0.0564,-0.01502,0,-0.0042379,0,0,0,0.022435,0.0040902,0.0079577,-1.6979,0.011494,0.01675,1.9866e-07,0.18,0.46,0
0.010345,0.00013724,0.022626,0.0037711,0.007919,-0.00066969,0,0,0.057356,-0.016177,0,-0.0052236,0,0,0,0.022649,0.0037473,0.007919,-2.0317,0.011439,0.0172,2.1042e-07,0.2,0.46,0
0.011501,0.000163,0.022824,0.0034785,0.0078908,-0.00080756,0,0,0.05824,-0.017208,0,-0.006299,0,0,0,0.022858,0.0034449,0.0078908,-2.3862,0.011398,0.017616,2.2162e-07,0.22,0.46,0
0.012675,0.00019007,0.023014,0.0032312,0.0078737,-0.00095516,0,0,0.059049,-0.018106,0,-0.0074503,0,0,0,0.02306,0.0031852,0.0078737,-2.7578,0.011373,0.017995,2.3219e-07,0.24,0.46,0
0.013863,0.0002199,0.023197,0.0030316,0.0078686,-0.0011101,0,0,0.059781,-0.018864,0,-0.0086589,0,0,0,0.023258,0.0029707,0.0078686,-3.1415,0.011366,0.018336,2.4208e-07,0.26,0.46,0
0.015066,0.00025485,0.023373,0.0028817,0.0078764,-0.0012691,0,0,0.060436,-0.019479,0,-0.009899,0,0,0,0.023451,0.0028034,0.0078764,-3.5306,0.011377,0.018637,2.5126e-07,0.28,0.46,0
0.016281,0.00029848,0.023544,0.0027829,0.0078981,-0.0014276,0,0,0.061019,-0.019949,0,-0.011135,0,0,0,0.023642,0.0026852,0.0078981,-3.9152,0.011408,0.018897,2.5973e-07,0.3,0.46,0
0.017507,0.00035601,0.023713,0.0027347,0.0079343,-0.0015793,0,0,0.061537,-0.020279,0,-0.012318,0,0,0,0.023831,0.0026165,0.0079343,-4.2811,0.011461,0.019119,2.6751e-07,0.32,0.46,0
0.018742,0.00043506,0.02388,0.002733,0.0079838,-0.0017149,0,0,0.061994,-0.020478,0,-0.013376,0,0,0,0.024018,0.0025949,0.0079838,-4.6064,0.011532,0.019301,2.7454e-07,0.34,0.46,0
0.019986,0.00054711,0.024032,0.0027671,0.0080397,-0.0018189,0,0,0.062369,-0.020563,0,-0.014188,0,0,0,0.024186,0.0026127,0.0080397,-4.8539,0.011613,0.019437,2.8036e-07,0.36,0.46,0
0.021237,0.00071037,0.024062,0.0027738,0.0080507,-0.0018415,0,0,0.062443,-0.02058,0,-0.014364,0,0,0,0.02422,0.0026157,0.0080507,-4.9077,0.011629,0.019464,2.8154e-07,0.38,0.46,0
0.022484,0.00096207,0.024006,0.0027523,0.0080274,-0.0016084,0,0,0.062316,-0.020573,0,-0.012545,0,0,0,0.024127,0.0026313,0.0080274,-4.3032,0.011595,0.01937,2.7788e-07,0.4,0.46,0
0.02373,0.0013901,0.025029,0.0017596,0.0080367,-0.0016416,0,0,0.066272,-0.024481,0,-0.012805,0,0,0,0.025145,0.0016444,0.0080367,-4.0155,0.011609,0.021045,3.3403e-07,0.42,0.46,0
0.025135,0.0018718,0.03024,0.00040519,0.0091935,-0.0011388,0,0,0.046885,-0.019167,0,-0.0069857,0,0,0,0.030303,0.0003415,0.0091935,-2.639,0.013279,0.026663,7.7281e-07,0.44,0.46,0
0.025839,0.0020231,0.021468,-7.5865e-05,0.0064176,9.1075e-05,0,0,0.031297,-0.013274,0,-0.00021728,0,0,0,0.021471,-7.9159e-05,0.0064176,-0.055805,0.0092698,0.019148,3.3341e-07,0.46,0.46,0
0.026309,0.0020518,0.026674,-0.00061626,0.0078172,0.00026942,0,0,0.024513,-0.010963,0,0.0007005,0,0,0,0.026676,-0.00061892,0.0078172,0.56559,0.011291,0.024206,4.4142e-07,0.48,0.46,0
0.026819,0.0020786,0.027458,-0.00068476,0.008032,-4.0004e-05,0,0,0.025254,-0.011332,0,-0.00010401,0,0,0,0.027458,-0.00068481,0.008032,-0.081444,0.011602,0.024954,4.8221e-07,0.5,0.46,0
0.027319,0.0021304,0.027113,-0.00063303,0.0079441,0.00017813,0,0,0.02492,-0.01115,0,0.00046314,0,0,0,0.027115,-0.00063417,0.0079441,0.36782,0.011475,0.024608,4.6362e-07,0.52,0.46,0
0.027816,0.0021868,0.027185,3.5173e-06,0.0081565,0.00013607,0,0,0.024737,-0.010599,0,0.00035377,0,0,0,0.027186,2.8362e-06,0.0081565,0.28681,0.011782,0.024161,4.5605e-07,0.54,0.46,0
0.028308,0.0022396,0.027134,0.00024768,0.0082144,3.4425e-05,0,0,0.024595,-0.010357,0,8.9504e-05,0,0,0,0.027134,0.00024764,0.0082144,0.07336,0.011865,0.023919,4.4902e-07,0.56,0.46,0
0.0288,0.0022806,0.02714,0.00028778,0.0082282,-5.5997e-05,0,0,0.024585,-0.010323,0,-0.00014559,0,0,0,0.02714,0.00028767,0.0082282,-0.11948,0.011885,0.023893,4.4859e-07,0.58,0.46,0
0.029292,0.0023087,0.027115,0.00019922,0.0081942,-0.00012456,0,0,0.024597,-0.010393,0,-0.00032386,0,0,0,0.027115,0.00019864,0.0081942,-0.26515,0.011836,0.023942,4.49e-07,0.6,0.46,0
0.029784,0.002324,0.027061,-2.0699e-05,0.0081122,-0.00021607,0,0,0.024634,-0.010573,0,-0.00056178,0,0,0,0.027063,-2.2423e-05,0.0081122,-0.45708,0.011718,0.024072,4.5037e-07,0.62,0.46,0
0.030277,0.0023276,0.027064,-0.00045993,0.0079813,-0.00031589,0,0,0.024808,-0.010974,0,-0.00082132,0,0,0,0.027068,-0.00046356,0.0079813,-0.65746,0.011529,0.02443,4.5834e-07,0.64,0.46,0
0.030776,0.0023282,0.026954,-0.0013042,0.007695,-0.00033873,0,0,0.025037,-0.011699,0,-0.00088069,0,0,0,0.026958,-0.0013082,0.007695,-0.68666,0.011115,0.025011,4.6673e-07,0.66,0.46,0
0.031279,0.0023352,0.027246,-0.0015984,0.0076944,-8.7331e-05,0,0,0.025418,-0.012081,0,-0.00022706,0,0,0,0.027247,-0.0015987,0.0076944,-0.17347,0.011114,0.025502,4.863e-07,0.68,0.46,0
0.031793,0.0023687,0.026478,-0.0017103,0.0074302,-0.00032307,0,0,0.024762,-0.011883,0,-0.00083998,0,0,0,0.026481,-0.001714,0.0074302,-0.65656,0.010733,0.024915,4.4883e-07,0.7,0.46,0
0.032269,0.002405,0.021351,-0.0011439,0.0060623,-0.0001469,0,0,0.031814,-0.014767,0,-4.0832e-05,0,0,0,0.021355,-0.0011474,0.0060623,-0.10275,0.0087566,0.019903,3.4363e-07,0.72,0.46,0
0.032985,0.0023062,0.030011,-0.0014086,0.0085809,0.00092341,0,0,0.047767,-0.021828,0,0.0058599,0,0,0,0.030055,-0.0014518,0.0085809,2.0784,0.012395,0.027879,7.9954e-07,0.74,0.46,0
0.034419,0.0018279,0.024933,0.00022357,0.007547,0.0013488,0,0,0.067806,-0.028562,0,0.010521,0,0,0,0.025007,0.00015017,0.007547,3.1152,0.010901,0.022107,3.5269e-07,0.76,0.46,0
0.035698,0.0014051,0.023995,0.0012888,0.0075851,0.0013222,0,0,0.063999,-0.024556,0,0.010313,0,0,0,0.024072,0.001212,0.0075851,3.3215,0.010956,0.020433,2.9873e-07,0.78,0.46,0
0.036979,0.0011588,0.024062,0.0011696,0.0075694,0.0015684,0,0,0.06432,-0.024959,0,0.012233,0,0,0,0.024169,0.0010626,0.0075694,3.9012,0.010934,0.020637,3.0473e-07,0.8,0.46,0
0.03827,0.001006,0.02411,0.0010259,0.0075408,0.0015739,0,0,0.064621,-0.025408,0,0.012277,0,0,0,0.024217,0.00091903,0.0075408,3.8826,0.010892,0.020793,3.0881e-07,0.82,0.46,0
0.039564,0.00090882,0.024049,0.00080076,0.0074548,0.0014954,0,0,0.064716,-0.025951,0,0.011664,0,0,0,0.024144,0.00070496,0.0074548,3.6655,0.010768,0.020899,3.0923e-07,0.84,0.46,0
0.040859,0.00084978,0.023995,0.00056257,0.0073672,0.0013751,0,0,0.064848,-0.026538,0,0.010726,0,0,0,0.024075,0.00048214,0.0073672,3.3471,0.010642,0.021014,3.0985e-07,0.86,0.46,0
0.042158,0.00081642,0.023958,0.00033751,0.0072886,0.0012193,0,0,0.06501,-0.027109,0,0.0095109,0,0,0,0.024021,0.00027473,0.0072886,2.9474,0.010528,0.021131,3.1072e-07,0.88,0.46,0
0.043459,0.00079968,0.023932,0.00014352,0.0072228,0.0010381,0,0,0.065168,-0.027609,0,0.008097,0,0,0,0.023978,9.8306e-05,0.0072228,2.4939,0.010433,0.021233,3.1157e-07,0.9,0.46,0
0.044764,0.00079293,0.023913,-1.4282e-05,0.0071696,0.00084085,0,0,0.065299,-0.028017,0,0.0065586,0,0,0,0.023942,-4.3795e-05,0.0071696,2.0102,0.010356,0.021315,3.1217e-07,0.92,0.46,0
0.046071,0.00079159,0.023897,-0.00013519,0.0071284,0.0006349,0,0,0.065396,-0.028328,0,0.0049522,0,0,0,0.023913,-0.00015195,0.0071284,1.5123,0.010297,0.021376,3.1254e-07,0.94,0.46,0
0.04738,0.00079256,0.023884,-0.00022018,0.0070992,0.00042468,0,0,0.065462,-0.028546,0,0.0033125,0,0,0,0.023892,-0.00022766,0.0070992,1.0091,0.010254,0.021417,3.1273e-07,0.96,0.46,0
0.04869,0.00079386,0.023876,-0.00027055,0.0070817,0.00021265,0,0,0.065499,-0.028674,0,0.0016587,0,0,0,0.023878,-0.00027242,0.0070817,0.50453,0.010229,0.021441,3.1281e-07,0.98,0.46,0
0.05,0.00079441,0.023874,-0.00028722,0.0070759,3.5271e-06,0,0,0.065511,-0.028716,0,2.7511e-05,0,0,0,0.023874,-0.00028722,0.0070759,0.0083643,0.010221,0.021449,3.1283e-07,1,0.46,0
0,0,0.020434,0.0087576,0.0087576,-0.00035093,0,0,0.045539,0,0,-0.0027373,0,0,0,0.020445,0.008747,0.0087576,-1.7199,0.01265,0.011693,8.2102e-08,0,0.48,0
0.00091079,-5.4746e-05,0.020368,0.0080215,0.0085169,-0.00035541,0,0,0.04622,-0.0019322,0,-0.0027722,0,0,0,0.020379,0.0080113,0.0085169,-1.6475,0.012302,0.012122,9.0954e-08,0.02,0.48,0
0.0018488,-9.5859e-05,0.020612,0.0074462,0.0084175,-0.00033423,0,0,0.047559,-0.0037879,0,-0.002607,0,0,0,0.02062,0.0074377,0.0084175,-1.4533,0.012159,0.012721,1.0362e-07,0.04,0.48,0
0.0028131,-0.00012616,0.02085,0.0068967,0.0083239,-0.00033777,0,0,0.04885,-0.005566,0,-0.0026346,0,0,0,0.020858,0.0068886,0.0083239,-1.3859,0.012023,0.01331,1.1636e-07,0.06,0.48,0
0.0038028,-0.00014795,0.021081,0.0063739,0.0082364,-0.00036272,0,0,0.050093,-0.0072636,0,-0.0028292,0,0,0,0.02109,0.006365,0.0082364,-1.412,0.011897,0.013884,1.2907e-07,0.08,0.48,0
0.0048169,-0.00016309,0.021304,0.0058792,0.0081551,-0.00040657,0,0,0.051283,-0.008876,0,-0.0031712,0,0,0,0.021315,0.0058685,0.0081551,-1.5088,0.01178,0.01444,1.4165e-07,0.1,0.48,0
0.0058541,-0.00017306,0.02152,0.0054143,0.0080803,-0.0004674,0,0,0.052415,-0.010397,0,-0.0036457,0,0,0,0.021534,0.0054007,0.0080803,-1.6609,0.011671,0.014974,1.5399e-07,0.12,0.48,0
0.0069134,-0.00017899,0.021726,0.0049812,0.0080123,-0.0005437,0,0,0.053485,-0.011821,0,-0.0042409,0,0,0,0.021744,0.0049636,0.0080123,-1.8577,0.011573,0.015483,1.6598e-07,0.14,0.48,0
0.0079935,-0.00018169,0.021922,0.0045822,0.0079514,-0.00063421,0,0,0.054487,-0.01314,0,-0.0049469,0,0,0,0.021945,0.0045591,0.0079514,-2.0918,0.011485,0.015963,1.7752e-07,0.16,0.48,0
0.0090929,-0.0001816,0.022107,0.0042197,0.0078979,-0.00073779,0,0,0.055414,-0.014345,0,-0.0057548,0,0,0,0.022137,0.0041893,0.0078979,-2.358,0.011408,0.016411,1.885e-07,0.18,0.48,0
0.01021,-0.00017878,0.022278,0.0038959,0.0078521,-0.00085328,0,0,0.05626,-0.015429,0,-0.0066556,0,0,0,0.022317,0.0038563,0.0078521,-2.6521,0.011342,0.016823,1.988e-07,0.2,0.48,0
0.011343,-0.00017287,0.022434,0.0036131,0.0078142,-0.00097935,0,0,0.057018,-0.016384,0,-0.0076389,0,0,0,0.022485,0.0035623,0.0078142,-2.9707,0.011287,0.017196,2.083e-07,0.22,0.48,0
0.012491,-0.00016295,0.022575,0.0033735,0.0077844,-0.0011143,0,0,0.057681,-0.017202,0,-0.0086915,0,0,0,0.022639,0.003309,0.0077844,-3.3103,0.011244,0.017526,2.169e-07,0.24,0.48,0
0.013651,-0.00014744,0.022696,0.0031785,0.0077624,-0.0012559,0,0,0.058242,-0.017877,0,-0.0097957,0,0,0,0.022777,0.0030981,0.0077624,-3.6665,0.011212,0.017811,2.2447e-07,0.26,0.48,0
0.014821,-0.00012389,0.022797,0.003029,0.0077479,-0.0014008,0,0,0.058693,-0.018404,0,-0.010927,0,0,0,0.022896,0.0029303,0.0077479,-4.0333,0.011191,0.018046,2.3087e-07,0.28,0.48,0
0.015998,-8.87e-05,0.022816,0.0028289,0.0076936,-0.0015578,0,0,0.058979,-0.018972,0,-0.012151,0,0,0,0.022937,0.0027082,0.0076936,-4.4299,0.011113,0.018254,2.3562e-07,0.3,0.48,0
0.017181,-3.6659e-05,0.022889,0.0027709,0.0076979,-0.0016512,0,0,0.059244,-0.019215,0,-0.01288,0,0,0,0.023023,0.0026362,0.0076979,-4.6611,0.011119,0.018387,2.3955e-07,0.32,0.48,0
0.018367,3.9771e-05,0.022922,0.0028293,0.0077254,-0.0017946,0,0,0.059267,-0.019095,0,-0.013997,0,0,0,0.023081,0.0026703,0.0077254,-5.0639,0.011159,0.018411,2.4093e-07,0.34,0.48,0
0.019552,0.00015186,0.022859,0.0028084,0.0077002,-0.0018615,0,0,0.059119,-0.019078,0,-0.01452,0,0,0,0.02303,0.0026371,0.0077002,-5.2595,0.011123,0.018392,2.3976e-07,0.36,0.48,0
0.020732,0.0003174,0.022757,0.0027709,0.0076584,-0.0018161,0,0,0.058885,-0.019061,0,-0.014166,0,0,0,0.022921,0.0026073,0.0076584,-5.1502,0.011062,0.018318,2.3662e-07,0.38,0.48,0
0.021907,0.00056715,0.022851,0.0025748,0.0076279,-0.001667,0,0,0.059372,-0.019707,0,-0.013003,0,0,0,0.022988,0.0024386,0.0076279,-4.6687,0.011018,0.018508,2.4139e-07,0.4,0.48,0
0.023107,0.00090042,0.022518,0.0012116,0.0071189,-0.001472,0,0,0.060057,-0.023039,0,-0.011482,0,0,0,0.02262,0.0011103,0.0071189,-3.9335,0.010283,0.019223,2.4824e-07,0.42,0.48,0
0.02431,0.0013261,0.023502,0.0002781,0.007134,-0.0020246,0,0,0.063835,-0.026738,0,-0.015792,0,0,0,0.023677,0.00010292,0.007134,-4.9452,0.010305,0.020962,2.9992e-07,0.44,0.48,0
0.02566,0.0017331,0.028474,4.839e-07,0.0085424,-0.0017701,0,0,0.044598,-0.018817,0,-0.0098375,0,0,0,0.028605,-0.00013013,0.0085424,-3.9951,0.012339,0.025529,6.531e-07,0.46,0.48,0
0.026323,0.0018322,0.020084,-0.00079606,0.0057862,-0.00050561,0,0,0.029632,-0.013455,0,-0.0032647,0,0,0,0.020108,-0.00082007,0.0057862,-1.997,0.0083579,0.01853,2.8562e-07,0.48,0.48,0
0.026775,0.0018561,0.025369,-0.0016991,0.007101,-4.013e-05,0,0,0.023749,-0.01144,0,-0.00010434,0,0,0,0.025369,-0.0016992,0.007101,-0.084943,0.010257,0.023915,3.9539e-07,0.5,0.48,0
0.027273,0.001906,0.026982,-0.00039394,0.0079763,-9.5718e-05,0,0,0.024707,-0.010881,0,-0.00024887,0,0,0,0.026982,-0.00039428,0.0079763,-0.20033,0.011521,0.024297,4.5282e-07,0.52,0.48,0
0.027764,0.0019765,0.027139,9.4564e-05,0.0081702,-0.00013365,0,0,0.02466,-0.010498,0,-0.00034748,0,0,0,0.02714,9.3903e-05,0.0081702,-0.28313,0.011801,0.024048,4.5213e-07,0.54,0.48,0
0.028259,0.0020322,0.027498,0.0001807,0.0083037,-0.00019472,0,0,0.024953,-0.01056,0,-0.00050627,0,0,0,0.0275,0.00017931,0.0083037,-0.40838,0.011994,0.024299,4.6878e-07,0.56,0.48,0
0.028762,0.0020727,0.027762,0.0001942,0.008387,-0.00012345,0,0,0.025188,-0.010651,0,-0.00032098,0,0,0,0.027763,0.00019364,0.008387,-0.25657,0.012115,0.024522,4.8213e-07,0.58,0.48,0
0.029267,0.0020994,0.027735,0.00010645,0.0083526,-6.6131e-06,0,0,0.025198,-0.01072,0,-1.7194e-05,0,0,0,0.027735,0.00010645,0.0083526,-0.013714,0.012065,0.024567,4.8235e-07,0.6,0.48,0
0.02977,0.0021123,0.027417,-8.6981e-05,0.0081991,6.274e-05,0,0,0.024984,-0.010772,0,0.00016312,0,0,0,0.027417,-8.7124e-05,0.0081991,0.1307,0.011843,0.024439,4.6946e-07,0.62,0.48,0
0.030266,0.0021098,0.027016,-0.00036298,0.007996,2.2426e-06,0,0,0.024726,-0.010867,0,5.8307e-06,0,0,0,0.027016,-0.00036298,0.007996,0.004693,0.01155,0.024303,4.54e-07,0.64,0.48,0
0.030759,0.0020927,0.026802,-0.0011022,0.0077099,-2.9707e-05,0,0,0.02482,-0.011456,0,-7.7238e-05,0,0,0,0.026802,-0.0011022,0.0077099,-0.060997,0.011137,0.024706,4.5552e-07,0.66,0.48,0
0.031259,0.0020969,0.025179,-0.002625,0.0067661,-3.1583e-05,0,0,0.023936,-0.012209,0,-8.2116e-05,0,0,0,0.025179,-0.0026251,0.0067661,-0.065084,0.0097732,0.024498,3.9824e-07,0.68,0.48,0
0.031716,0.0021313,0.019953,-0.0017086,0.0054733,0.0004502,0,0,0.030025,-0.014716,0,0.0030419,0,0,0,0.019974,-0.0017294,0.0054733,1.7791,0.0079058,0.019146,2.9084e-07,0.7,0.48,0
0.032388,0.0020811,0.028232,-0.0015573,0.0080023,0.00158,0,0,0.045289,-0.021084,0,0.0088694,0,0,0,0.028333,-0.0016586,0.0080023,3.4349,0.011559,0.026516,6.6814e-07,0.72,0.48,0
0.033761,0.0016817,0.023376,-0.0011223,0.0066762,0.0017716,0,0,0.06513,-0.030414,0,0.013819,0,0,0,0.023504,-0.0012497,0.0066762,4.1149,0.0096434,0.021894,3.1062e-07,0.74,0.48,0
0.034994,0.0012621,0.022456,-0.00020204,0.0066761,0.0011853,0,0,0.06154,-0.026825,0,0.0092449,0,0,0,0.022517,-0.00026387,0.0066761,2.9863,0.0096433,0.020225,2.624e-07,0.76,0.48,0
0.036223,0.00092854,0.0228,0.0010707,0.0071612,0.0013468,0,0,0.060991,-0.023753,0,0.010505,0,0,0,0.022883,0.00098756,0.0071612,3.5332,0.010344,0.019554,2.5891e-07,0.78,0.48,0
0.037433,0.00067824,0.02275,0.001163,0.0071738,0.0014949,0,0,0.060746,-0.023442,0,0.01166,0,0,0,0.022853,0.0010599,0.0071738,3.9427,0.010362,0.01947,2.5686e-07,0.8,0.48,0
0.038653,0.00051316,0.022905,0.0010462,0.0071854,0.0015426,0,0,0.061307,-0.023943,0,0.012033,0,0,0,0.023013,0.00093787,0.0071854,4.017,0.010379,0.019709,2.6412e-07,0.82,0.48,0
0.039885,0.0004038,0.023047,0.00088176,0.0071786,0.0014783,0,0,0.061887,-0.024558,0,0.011531,0,0,0,0.023145,0.0007836,0.0071786,3.7988,0.010369,0.019948,2.7091e-07,0.84,0.48,0
0.041128,0.00033244,0.02314,0.00069011,0.0071491,0.0013585,0,0,0.062365,-0.02519,0,0.010597,0,0,0,0.023222,0.0006082,0.0071491,3.4504,0.010326,0.020156,2.7609e-07,0.86,0.48,0
0.04238,0.00028742,0.023207,0.00049999,0.0071122,0.001205,0,0,0.062771,-0.025787,0,0.009399,0,0,0,0.023271,0.00043623,0.0071122,3.0292,0.010273,0.020336,2.8022e-07,0.88,0.48,0
0.043639,0.00026037,0.023257,0.00032768,0.0070754,0.001028,0,0,0.063108,-0.026316,0,0.0080184,0,0,0,0.023303,0.00028168,0.0070754,2.5619,0.01022,0.020487,2.835e-07,0.9,0.48,0
0.044904,0.00024511,0.023294,0.00018252,0.0070429,0.00083524,0,0,0.063379,-0.026756,0,0.0065149,0,0,0,0.023324,0.00015237,0.0070429,2.0671,0.010173,0.020609,2.8601e-07,0.92,0.48,0
0.046174,0.0002372,0.023267,-3.0094e-05,0.0069711,0.00062502,0,0,0.063554,-0.027305,0,0.0048752,0,0,0,0.023284,-4.685e-05,0.0069711,1.5357,0.010069,0.020733,2.8717e-07,0.94,0.48,0
0.047448,0.00023353,0.023306,-0.000101,0.0069614,0.00042434,0,0,0.063742,-0.027543,0,0.0033099,0,0,0,0.023313,-0.00010869,0.0069614,1.0383,0.010055,0.020808,2.8908e-07,0.96,0.48,0
0.048723,0.00023209,0.023346,-6.1878e-05,0.0069852,0.00021271,0,0,0.063807,-0.027484,0,0.0016592,0,0,0,0.023348,-6.3811e-05,0.0069852,0.52061,0.01009,0.020803,2.8977e-07,0.98,0.48,0
0.05,0.00023173,0.023349,-7.8128e-05,0.0069812,-2.3024e-06,0,0,0.063834,-0.027531,0,-1.7959e-05,0,0,0,0.023349,-7.8128e-05,0.0069812,-0.0056311,0.010084,0.020815,2.9e-07,1,0.48,0
0,0,0.020259,0.0086823,0.0086823,-0.00059213,0,0,0.045148,4.3368e-19,0,-0.0046186,0,0,0,0.020289,0.0086521,0.0086823,-2.9205,0.012541,0.011622,8.0618e-08,0,0.5,0
0.00090296,-9.2372e-05,0.020196,0.0079849,0.0084544,-0.00059555,0,0,0.045794,-0.001831,0,-0.0046453,0,0,0,0.020225,0.0079559,0.0084544,-2.7855,0.012212,0.012028,8.8854e-08,0.02,0.5,0
0.0018318,-0.00016972,0.020427,0.0074355,0.0083586,-0.00056852,0,0,0.047065,-0.0036001,0,-0.0044345,0,0,0,0.020451,0.0074107,0.0083586,-2.501,0.012074,0.012594,1.0062e-07,0.04,0.5,0
0.0027856,-0.00023481,0.02065,0.0069081,0.0082676,-0.00056551,0,0,0.048293,-0.0053017,0,-0.004411,0,0,0,0.020674,0.0068849,0.0082676,-2.3525,0.011942,0.013152,1.125e-07,0.06,0.5,0
0.0037635,-0.00028984,0.020867,0.0064045,0.0081813,-0.00058299,0,0,0.049473,-0.0069295,0,-0.0045473,0,0,0,0.02089,0.0063811,0.0081813,-2.3047,0.011817,0.013698,1.2435e-07,0.08,0.5,0
0.0047645,-0.00033655,0.020979,0.0058622,0.0080525,-0.00062393,0,0,0.050415,-0.0085419,0,-0.0048666,0,0,0,0.021005,0.0058365,0.0080525,-2.3594,0.011631,0.014191,1.3479e-07,0.1,0.5,0
0.0057874,-0.00037629,0.021333,0.0054761,0.0080428,-0.00066091,0,0,0.051833,-0.01001,0,-0.0051551,0,0,0,0.021361,0.0054486,0.0080428,-2.3825,0.011617,0.014787,1.4897e-07,0.12,0.5,0
0.0068309,-0.00041005,0.021455,0.0050578,0.007954,-0.00073421,0,0,0.052656,-0.011295,0,-0.0057268,0,0,0,0.021488,0.005025,0.007954,-2.5586,0.011489,0.015212,1.5843e-07,0.14,0.5,0
0.0078936,-0.00043845,0.021626,0.0046714,0.0078893,-0.00081184,0,0,0.053574,-0.01255,0,-0.0063323,0,0,0,0.021665,0.0046326,0.0078893,-2.7351,0.011396,0.01566,1.6885e-07,0.16,0.5,0
0.0089739,-0.00046178,0.021781,0.0043202,0.0078304,-0.00090081,0,0,0.054408,-0.01369,0,-0.0070263,0,0,0,0.021828,0.0042738,0.0078304,-2.9455,0.011311,0.016073,1.7858e-07,0.18,0.5,0
0.01007,-0.00047994,0.021918,0.0040064,0.0077773,-0.00099982,0,0,0.055149,-0.014707,0,-0.0077986,0,0,0,0.021974,0.0039507,0.0077773,-3.185,0.011234,0.016447,1.8746e-07,0.2,0.5,0
0.01118,-0.00049238,0.022034,0.003732,0.0077298,-0.0011073,0,0,0.055786,-0.015591,0,-0.0086369,0,0,0,0.022101,0.0036652,0.0077298,-3.4497,0.011165,0.016777,1.9536e-07,0.22,0.5,0
0.012301,-0.00049803,0.022126,0.0034985,0.0076874,-0.0012212,0,0,0.056311,-0.016337,0,-0.0095258,0,0,0,0.022206,0.0034188,0.0076874,-3.7351,0.011104,0.017058,2.0212e-07,0.24,0.5,0
0.013432,-0.00049519,0.022191,0.0033067,0.0076493,-0.001339,0,0,0.056713,-0.016936,0,-0.010444,0,0,0,0.022285,0.0032123,0.0076493,-4.0355,0.011049,0.017287,2.0757e-07,0.26,0.5,0
0.01457,-0.00048129,0.022224,0.0031561,0.0076141,-0.0014565,0,0,0.056979,-0.017386,0,-0.011361,0,0,0,0.022335,0.0030455,0.0076141,-4.3429,0.010998,0.017459,2.1154e-07,0.28,0.5,0
0.015711,-0.00045269,0.022249,0.0031194,0.0076106,-0.0015812,0,0,0.057091,-0.017516,0,-0.012333,0,0,0,0.022379,0.0029896,0.0076106,-4.6933,0.010993,0.017542,2.1372e-07,0.3,0.5,0
0.016854,-0.00040425,0.022195,0.0030398,0.0075703,-0.0016221,0,0,0.057035,-0.017669,0,-0.012652,0,0,0,0.022331,0.0029034,0.0075703,-4.8063,0.010935,0.017565,2.1352e-07,0.32,0.5,0
0.017994,-0.00032873,0.022068,0.0029029,0.0074914,-0.0017294,0,0,0.05685,-0.017895,0,-0.01349,0,0,0,0.022223,0.0027481,0.0074914,-5.1151,0.010821,0.01759,2.125e-07,0.34,0.5,0
0.019128,-0.00021601,0.021922,0.0028338,0.0074268,-0.0017388,0,0,0.056532,-0.017913,0,-0.013562,0,0,0,0.022079,0.0026767,0.0074268,-5.1624,0.010728,0.017517,2.0916e-07,0.36,0.5,0
0.020255,-5.2067e-05,0.021786,0.0026923,0.0073435,-0.0016762,0,0,0.056325,-0.018139,0,-0.013075,0,0,0,0.021932,0.0025463,0.0073435,-4.9793,0.010607,0.017488,2.0658e-07,0.38,0.5,0
0.021381,0.00017379,0.021622,0.0022388,0.0071582,-0.0015594,0,0,0.056408,-0.019186,0,-0.012164,0,0,0,0.021746,0.0021141,0.0071582,-4.5705,0.01034,0.017659,2.0697e-07,0.4,0.5,0
0.022511,0.00046857,0.021623,0.0015306,0.006946,-0.0015864,0,0,0.05724,-0.02112,0,-0.012374,0,0,0,0.021747,0.0014061,0.006946,-4.4867,0.010033,0.018215,2.1631e-07,0.42,0.5,0
0.02367,0.00080232,0.021242,0.00019668,0.0064317,-0.0016909,0,0,0.057762,-0.024317,0,-0.013189,0,0,0,0.021377,6.1686e-05,0.0064317,-4.5644,0.0092903,0.018951,2.2109e-07,0.44,0.5,0
0.024822,0.001184,0.021643,-0.00060793,0.0063105,-0.0026018,0,0,0.059796,-0.026982,0,-0.020294,0,0,0,0.021943,-0.00090811,0.0063105,-6.5813,0.0091151,0.020232,2.5004e-07,0.46,0.5,0
0.026107,0.0015383,0.025893,-0.00075982,0.0075399,-0.0023365,0,0,0.039855,-0.017676,0,-0.011553,0,0,0,0.026109,-0.00097592,0.0075399,-5.4109,0.010891,0.023989,5.5034e-07,0.48,0.5,0
0.026741,0.001621,0.020436,-0.00054057,0.0059687,-0.00040275,0,0,0.029381,-0.013632,0,-0.0053542,0,0,0,0.02056,-0.00066395,0.0059687,-3.009,0.0086214,0.018808,3.1704e-07,0.5,0.5,0
0.027189,0.0016951,0.025741,-0.0007046,0.0075109,-0.0010529,0,0,0.023699,-0.01068,0,-0.0027375,0,0,0,0.025783,-0.00074645,0.0075109,-2.2763,0.010849,0.023515,4.0081e-07,0.52,0.5,0
0.027676,0.0017669,0.027187,-0.00026828,0.0080756,-0.0007841,0,0,0.024845,-0.010847,0,-0.0020386,0,0,0,0.02721,-0.00029066,0.0080756,-1.6345,0.011665,0.024417,4.6249e-07,0.54,0.5,0
0.028192,0.0018172,0.028864,0.00017272,0.0087109,-0.00063975,0,0,0.026198,-0.0111,0,-0.0016634,0,0,0,0.028878,0.00015846,0.0087109,-1.2767,0.012582,0.025541,5.4345e-07,0.56,0.5,0
0.02872,0.0018546,0.029123,0.00011329,0.008771,-0.00019761,0,0,0.026458,-0.011255,0,-0.00051379,0,0,0,0.029125,0.00011195,0.008771,-0.39026,0.012669,0.025797,5.5851e-07,0.58,0.5,0
0.029251,0.0018799,0.029107,2.8976e-05,0.0087407,9.8676e-05,0,0,0.026476,-0.011325,0,0.00025656,0,0,0,0.029107,2.8641e-05,0.0087407,0.19443,0.012625,0.025848,5.5922e-07,0.6,0.5,0
0.02978,0.0018931,0.028787,-9.5817e-05,0.0086075,0.00054214,0,0,0.026234,-0.011314,0,0.0014096,0,0,0,0.028798,-0.00010599,0.0086075,1.075,0.012433,0.025681,5.4428e-07,0.62,0.5,0
0.030297,0.0018929,0.027066,-0.0007276,0.0079015,0.00067339,0,0,0.024914,-0.011218,0,0.0017508,0,0,0,0.027082,-0.00074391,0.0079015,1.3871,0.011413,0.024667,4.6383e-07,0.64,0.5,0
0.030786,0.0018699,0.025098,-0.0016785,0.0070259,0.001394,0,0,0.023494,-0.011316,0,0.0036244,0,0,0,0.02517,-0.0017509,0.0070259,2.9722,0.010148,0.02378,3.8702e-07,0.66,0.5,0
0.031237,0.0018468,0.018891,-0.002628,0.0048788,0.001357,0,0,0.028917,-0.01535,0,0.0078125,0,0,0,0.019016,-0.0027532,0.0048788,4.6829,0.0070472,0.019131,2.6176e-07,0.68,0.5,0
0.031879,0.0018085,0.02669,-0.0020154,0.0074022,0.0023826,0,0,0.043117,-0.020591,0,0.012373,0,0,0,0.026903,-0.0022292,0.0074022,5.128,0.010692,0.025708,5.8306e-07,0.7,0.5,0
0.033182,0.001464,0.022048,-0.0015101,0.0061612,0.0022247,0,0,0.061956,-0.029918,0,0.017353,0,0,0,0.022256,-0.0017183,0.0061612,5.3479,0.0088996,0.021164,2.6925e-07,0.72,0.5,0
0.034357,0.0010896,0.02115,-0.001079,0.0060213,0.0014368,0,0,0.059002,-0.027691,0,0.011207,0,0,0,0.021243,-0.0011715,0.0060213,3.6829,0.0086975,0.019822,2.2973e-07,0.74,0.5,0
0.035542,0.00075492,0.021531,0.00014171,0.0065019,0.0012769,0,0,0.058615,-0.024805,0,0.0099596,0,0,0,0.021607,6.5761e-05,0.0065019,3.4042,0.0093916,0.019152,2.2826e-07,0.76,0.5,0
0.036702,0.00045497,0.021559,0.00075702,0.0066947,0.001218,0,0,0.057969,-0.023157,0,0.0095002,0,0,0,0.02163,0.00068595,0.0066947,3.3396,0.0096701,0.018679,2.2166e-07,0.78,0.5,0
0.03786,0.0002211,0.021752,0.0010859,0.0068513,0.001312,0,0,0.058112,-0.022485,0,0.010233,0,0,0,0.021835,0.001003,0.0068513,3.618,0.0098964,0.01861,2.2416e-07,0.8,0.5,0
0.039026,4.8258e-05,0.021936,0.0010765,0.0069036,0.001359,0,0,0.058624,-0.022726,0,0.0106,0,0,0,0.022024,0.00098836,0.0069036,3.712,0.0099719,0.01879,2.3033e-07,0.82,0.5,0
0.040205,-7.3488e-05,0.022145,0.00096258,0.0069321,0.0013329,0,0,0.059328,-0.023281,0,0.010397,0,0,0,0.022228,0.00087903,0.0069321,3.5866,0.010013,0.019058,2.3834e-07,0.84,0.5,0
0.041399,-0.00015782,0.022326,0.00081145,0.0069412,0.0012449,0,0,0.06,-0.023906,0,0.0097103,0,0,0,0.022398,0.00073966,0.0069412,3.3007,0.010026,0.019319,2.4574e-07,0.86,0.5,0
0.042605,-0.00021508,0.02247,0.00065152,0.0069363,0.0011163,0,0,0.06058,-0.024511,0,0.0087074,0,0,0,0.022527,0.00059455,0.0069363,2.9214,0.010019,0.019548,2.5196e-07,0.88,0.5,0
0.043822,-0.00025297,0.022581,0.00050078,0.0069247,0.00096026,0,0,0.061061,-0.025053,0,0.00749,0,0,0,0.022623,0.0004591,0.0069247,2.4855,0.010002,0.019742,2.5701e-07,0.9,0.5,0
0.045048,-0.00027729,0.022666,0.00036982,0.0069108,0.00078535,0,0,0.061446,-0.02551,0,0.0061258,0,0,0,0.022694,0.00034219,0.0069108,2.0148,0.0099823,0.019898,2.6097e-07,0.92,0.5,0
0.04628,-0.00029229,0.022673,0.00024087,0.0068741,0.00057774,0,0,0.061615,-0.02587,0,0.0045064,0,0,0,0.022688,0.00022599,0.0068741,1.4744,0.0099292,0.019985,2.6224e-07,0.94,0.5,0
0.047517,-0.00030102,0.022806,0.0002037,0.006903,0.00041602,0,0,0.062023,-0.026127,0,0.003245,0,0,0,0.022814,0.00019604,0.006903,1.0541,0.009971,0.020121,2.6705e-07,0.96,0.5,0
0.048758,-0.00030548,0.02275,5.0168e-05,0.0068401,0.00019927,0,0,0.06205,-0.026481,0,0.0015543,0,0,0,0.022752,4.8419e-05,0.0068401,0.5029,0.0098802,0.020184,2.6676e-07,0.98,0.5,0
0.05,-0.00030685,0.022688,-0.00014067,0.0067642,-8.7429e-06,0,0,0.062102,-0.026929,0,-6.8195e-05,0,0,0,0.022688,-0.00014067,0.0067642,-0.021943,0.0097705,0.020278,2.6686e-07,1,0.5,0
0,0,0.020073,0.0086029,0.0086029,-0.00082042,0,0,0.044735,-2.1684e-19,0,-0.0063993,0,0,0,0.020132,0.0085445,0.0086029,-4.0705,0.012426,0.011558,7.9297e-08,0,0.52,0
0.0008947,-0.00012799,0.01992,0.0078966,0.008345,-0.0008395,0,0,0.045143,-0.0017487,0,-0.0065481,0,0,0,0.019978,0.0078383,0.008345,-3.9748,0.012054,0.011895,8.5909e-08,0.02,0.52,0
0.0018139,-0.00023986,0.020315,0.0074434,0.0083275,-0.00077495,0,0,0.046751,-0.0034479,0,-0.0060446,0,0,0,0.020361,0.007397,0.0083275,-3.4331,0.012029,0.012525,9.9042e-08,0.04,0.52,0
0.0027568,-0.00033823,0.020442,0.0069121,0.0082063,-0.00077966,0,0,0.04772,-0.0050472,0,-0.0060813,0,0,0,0.020487,0.0068674,0.0082063,-3.2871,0.011853,0.013002,1.0886e-07,0.06,0.52,0
0.0037227,-0.00042513,0.020644,0.0064264,0.0081212,-0.0007884,0,0,0.04884,-0.0066097,0,-0.0061495,0,0,0,0.020688,0.0063828,0.0081212,-3.1642,0.011731,0.01352,1.1988e-07,0.08,0.52,0
0.0047104,-0.00050214,0.02077,0.0059585,0.0080186,-0.00082286,0,0,0.049732,-0.0080346,0,-0.0064183,0,0,0,0.020816,0.0059129,0.0080186,-3.17,0.011583,0.01397,1.2936e-07,0.1,0.52,0
0.0057188,-0.00057043,0.021101,0.0055905,0.0080074,-0.00084344,0,0,0.051064,-0.0094257,0,-0.0065788,0,0,0,0.021146,0.0055448,0.0080074,-3.1035,0.011566,0.014528,1.4234e-07,0.12,0.52,0
0.0067465,-0.0006308,0.02118,0.0051208,0.0078901,-0.00090255,0,0,0.051829,-0.0108,0,-0.0070399,0,0,0,0.02123,0.0050703,0.0078901,-3.2067,0.011397,0.014951,1.5126e-07,0.14,0.52,0
0.007792,-0.00068369,0.021327,0.0047451,0.0078216,-0.0009637,0,0,0.052671,-0.011998,0,-0.0075169,0,0,0,0.021383,0.0046892,0.0078216,-3.315,0.011298,0.015369,1.6064e-07,0.16,0.52,0
0.0088534,-0.0007292,0.021455,0.0044031,0.0077573,-0.0010338,0,0,0.053419,-0.013081,0,-0.008064,0,0,0,0.021517,0.0043407,0.0077573,-3.457,0.011205,0.015748,1.6921e-07,0.18,0.52,0
0.0099287,-0.00076705,0.02156,0.0040971,0.0076971,-0.0011114,0,0,0.054065,-0.01404,0,-0.0086688,0,0,0,0.02163,0.0040267,0.0076971,-3.627,0.011118,0.016086,1.7682e-07,0.2,0.52,0
0.011016,-0.00079653,0.02164,0.0038286,0.0076405,-0.0011945,0,0,0.054596,-0.014866,0,-0.0093168,0,0,0,0.021719,0.0037489,0.0076405,-3.8196,0.011036,0.016375,1.833e-07,0.22,0.52,0
0.012113,-0.00081642,0.02169,0.0035985,0.0075866,-0.0012806,0,0,0.055003,-0.015553,0,-0.0099887,0,0,0,0.02178,0.0035083,0.0075866,-4.0289,0.010958,0.016612,1.8849e-07,0.24,0.52,0
0.013216,-0.00082489,0.021707,0.0034067,0.0075341,-0.0013665,0,0,0.055274,-0.016097,0,-0.010658,0,0,0,0.021809,0.0033052,0.0075341,-4.2468,0.010883,0.016793,1.9222e-07,0.26,0.52,0
0.014324,-0.00081934,0.021686,0.0032512,0.0074812,-0.0014473,0,0,0.055399,-0.016497,0,-0.011289,0,0,0,0.021799,0.0031382,0.0074812,-4.4619,0.010806,0.016913,1.9433e-07,0.28,0.52,0
0.015432,-0.00079616,0.021622,0.0031274,0.0074248,-0.0015165,0,0,0.055369,-0.01676,0,-0.011829,0,0,0,0.021745,0.0030039,0.0074248,-4.6566,0.010725,0.016969,1.9469e-07,0.3,0.52,0
0.016538,-0.00075052,0.021511,0.003026,0.007361,-0.0015643,0,0,0.055184,-0.016907,0,-0.012202,0,0,0,0.021642,0.0028945,0.007361,-4.8033,0.010632,0.016961,1.9325e-07,0.32,0.52,0
0.017639,-0.00067603,0.021353,0.0029289,0.0072845,-0.0015781,0,0,0.054866,-0.016987,0,-0.012309,0,0,0,0.021487,0.0027947,0.0072845,-4.8605,0.010522,0.016901,1.902e-07,0.34,0.52,0
0.018733,-0.00056464,0.021162,0.0028013,0.007189,-0.001547,0,0,0.054495,-0.017112,0,-0.012067,0,0,0,0.021292,0.0026718,0.007189,-4.7826,0.010384,0.016822,1.8636e-07,0.36,0.52,0
0.019819,-0.00040818,0.020948,0.0025663,0.0070541,-0.0014731,0,0,0.054184,-0.017503,0,-0.01149,0,0,0,0.021065,0.002449,0.0070541,-4.5531,0.010189,0.016794,1.8299e-07,0.38,0.52,0
0.0209,-0.00020027,0.020745,0.0021615,0.0068719,-0.0014075,0,0,0.054104,-0.018371,0,-0.010979,0,0,0,0.020851,0.0020555,0.0068719,-4.3068,0.0099261,0.01691,1.8208e-07,0.4,0.52,0
0.021983,5.561e-05,0.020471,0.0014729,0.0065832,-0.0014058,0,0,0.054163,-0.01993,0,-0.010966,0,0,0,0.020575,0.0013694,0.0065832,-4.2092,0.0095091,0.017202,1.8272e-07,0.42,0.52,0
0.023067,0.00035344,0.02029,0.0007596,0.0063148,-0.0016266,0,0,0.054502,-0.021665,0,-0.012687,0,0,0,0.020424,0.00062505,0.0063148,-4.7285,0.0091214,0.017656,1.8688e-07,0.44,0.52,0
0.024164,0.0006634,0.019897,1.3508e-05,0.0059732,-0.0018625,0,0,0.054303,-0.023243,0,-0.014527,0,0,0,0.02007,-0.00015945,0.0059732,-5.3054,0.0086279,0.017966,1.8508e-07,0.46,0.52,0
0.025229,0.0010059,0.020669,-0.00032707,0.0061024,-0.0026174,0,0,0.056808,-0.025075,0,-0.020416,0,0,0,0.02099,-0.00064845,0.0061024,-7.0001,0.0088147,0.019176,2.1667e-07,0.48,0.52,0
0.0264,0.0013108,0.017867,0.0001138,0.0053942,-0.0029644,0,0,0.048643,-0.020594,0,-0.023122,0,0,0,0.018349,-0.00036809,0.0053942,-9.2335,0.0077916,0.016603,1.4319e-07,0.5,0.52,0
0.026975,0.001476,0.020269,-0.0007287,0.0058621,-0.0030093,0,0,0.028188,-0.014749,0,-0.015773,0,0,0,0.02078,-0.0012398,0.0058621,-9.5304,0.0084674,0.019504,3.5934e-07,0.52,0.52,0
0.027535,0.0015352,0.020258,-0.00066363,0.0058782,-0.0018011,0,0,0.028082,-0.013929,0,-0.0099793,0,0,0,0.020475,-0.00088038,0.0058782,-6.3862,0.0084908,0.01892,3.481e-07,0.54,0.52,0
0.028102,0.0015813,0.020697,-0.00046703,0.006069,-0.0010958,0,0,0.028497,-0.013692,0,-0.0057644,0,0,0,0.020771,-0.00054061,0.006069,-3.7952,0.0087664,0.018904,3.6604e-07,0.56,0.52,0
0.028673,0.0016155,0.020702,-0.00052385,0.0060533,-0.00029938,0,0,0.028576,-0.013699,0,-0.0017068,0,0,0,0.020708,-0.00053043,0.0060533,-1.1268,0.0087437,0.018838,3.6388e-07,0.58,0.52,0
0.029246,0.0016394,0.020697,-0.00060367,0.0060281,0.00025864,0,0,0.028611,-0.013839,0,0.0016253,0,0,0,0.020703,-0.00060995,0.0060281,1.0617,0.0087072,0.018898,3.6537e-07,0.6,0.52,0
0.029818,0.0016527,0.02062,-0.00073751,0.0059649,0.0010597,0,0,0.028558,-0.014121,0,0.0056991,0,0,0,0.020691,-0.00080844,0.0059649,3.6956,0.008616,0.01905,3.6683e-07,0.62,0.52,0
0.030387,0.0016535,0.020182,-0.0011115,0.0057212,0.0017598,0,0,0.028233,-0.014675,0,0.0099139,0,0,0,0.020392,-0.001321,0.0057212,6.187,0.0082639,0.019205,3.5232e-07,0.64,0.52,0
0.03095,0.0016401,0.020437,-0.001266,0.0057512,0.0024271,0,0,0.028636,-0.015874,0,0.014282,0,0,0,0.020843,-0.0016724,0.0057512,8.1685,0.0083073,0.019921,3.7261e-07,0.66,0.52,0
0.031532,0.0015113,0.023621,-0.0032307,0.0061172,0.0030269,0,0,0.039158,-0.019682,0,0.015281,0,0,0,0.023981,-0.0035905,0.0061172,6.8736,0.008836,0.02423,4.2215e-07,0.68,0.52,0
0.032717,0.0012186,0.020044,-0.001721,0.0054969,0.0026552,0,0,0.056734,-0.02815,0,0.02071,0,0,0,0.020363,-0.0020402,0.0054969,6.8557,0.0079399,0.019745,2.1002e-07,0.7,0.52,0
0.033801,0.00088435,0.019534,-0.001462,0.0054216,0.0016924,0,0,0.055038,-0.026846,0,0.0132,0,0,0,0.019669,-0.0015976,0.0054216,4.5789,0.0078312,0.018769,1.8648e-07,0.72,0.52,0
0.034919,0.00057408,0.020173,-0.00047702,0.0059088,0.0013553,0,0,0.05563,-0.024905,0,0.010571,0,0,0,0.020262,-0.00056559,0.0059088,3.739,0.0085349,0.018462,1.9432e-07,0.74,0.52,0
0.036027,0.00026992,0.02037,0.00013527,0.0061517,0.0010867,0,0,0.055453,-0.023464,0,0.008476,0,0,0,0.020429,7.708e-05,0.0061517,3.0651,0.0088858,0.018096,1.9275e-07,0.76,0.52,0
0.037137,2.2679e-06,0.020657,0.00070813,0.0064097,0.0010452,0,0,0.055566,-0.022236,0,0.008153,0,0,0,0.020712,0.00065351,0.0064097,2.9911,0.0092584,0.017889,1.9467e-07,0.78,0.52,0
0.038249,-0.00022116,0.020885,0.00098359,0.0065606,0.0010761,0,0,0.055866,-0.02175,0,0.0083938,0,0,0,0.020943,0.00092557,0.0065606,3.0861,0.0094765,0.017879,1.9823e-07,0.8,0.52,0
0.039371,-0.00039587,0.021136,0.001065,0.0066602,0.0011183,0,0,0.056454,-0.021821,0,0.0087223,0,0,0,0.021198,0.0010029,0.0066602,3.1792,0.0096203,0.018044,2.0476e-07,0.82,0.52,0
0.040507,-0.00052744,0.021376,0.0010138,0.0067171,0.0011167,0,0,0.057172,-0.022243,0,0.0087107,0,0,0,0.021438,0.00095278,0.0067171,3.1298,0.0097025,0.018297,2.1254e-07,0.84,0.52,0
0.041658,-0.0006238,0.021598,0.00090624,0.0067513,0.0010653,0,0,0.057903,-0.022796,0,0.0083092,0,0,0,0.021653,0.00085154,0.0067513,2.9394,0.0097519,0.018568,2.2037e-07,0.86,0.52,0
0.042824,-0.00069301,0.021786,0.00077868,0.0067695,0.00097177,0,0,0.058566,-0.023364,0,0.0075798,0,0,0,0.021831,0.00073383,0.0067695,2.6429,0.0097782,0.01882,2.2741e-07,0.88,0.52,0
0.044001,-0.00074175,0.021939,0.00065159,0.0067772,0.000847,0,0,0.059131,-0.02389,0,0.0066066,0,0,0,0.021973,0.00061794,0.0067772,2.2749,0.0097892,0.019038,2.3336e-07,0.9,0.52,0
0.045189,-0.00077528,0.022058,0.00053733,0.0067786,0.00069971,0,0,0.05959,-0.024341,0,0.0054577,0,0,0,0.022081,0.0005146,0.0067786,1.8602,0.0097914,0.019216,2.3815e-07,0.92,0.52,0
0.046385,-0.00079758,0.02216,0.00051793,0.0068035,0.00052236,0,0,0.059892,-0.024514,0,0.0040744,0,0,0,0.022173,0.00050533,0.0068035,1.3818,0.0098273,0.019305,2.4129e-07,0.94,0.52,0
0.047586,-0.00081156,0.022259,0.00046473,0.0068171,0.00036652,0,0,0.060223,-0.024774,0,0.0028588,0,0,0,0.022265,0.00045857,0.0068171,0.96318,0.009847,0.019424,2.4492e-07,0.96,0.52,0
0.048792,-0.00081919,0.022273,0.00041296,0.0068058,0.00017589,0,0,0.060322,-0.024932,0,0.001372,0,0,0,0.022274,0.00041154,0.0068058,0.46099,0.0098305,0.01947,2.4582e-07,0.98,0.52,0
0.05,-0.00082161,0.022364,0.00057089,0.0068806,-1.5507e-05,0,0,0.060387,-0.024608,0,-0.00012095,0,0,0,0.022364,0.00057087,0.0068806,-0.040767,0.0099387,0.019423,2.4681e-07,1,0.52,0
0,0,0.019882,0.008521,0.008521,-0.0010364,0,0,0.044309,1.0842e-19,0,-0.0080839,0,0,0,0.019976,0.0084273,0.008521,-5.1697,0.012308,0.011502,7.8142e-08,0,0.54,0
0.00088619,-0.00016168,0.019743,0.007866,0.0082828,-0.0010552,0,0,0.044696,-0.0016255,0,-0.0082303,0,0,0,0.019836,0.007773,0.0082828,-5.0375,0.011964,0.011817,8.4212e-08,0.02,0.54,0
0.0017956,-0.00030646,0.020122,0.0074436,0.0082696,-0.00098333,0,0,0.046223,-0.0032212,0,-0.00767,0,0,0,0.020198,0.0073678,0.0082696,-4.4088,0.011945,0.012403,9.626e-08,0.04,0.54,0
0.0027276,-0.0004367,0.02023,0.0069079,0.0081414,-0.00098101,0,0,0.047146,-0.0048106,0,-0.0076519,0,0,0,0.020302,0.006836,0.0081414,-4.189,0.01176,0.012863,1.0552e-07,0.06,0.54,0
0.0036814,-0.00055422,0.020419,0.0064381,0.0080572,-0.00097989,0,0,0.048212,-0.0063143,0,-0.0076431,0,0,0,0.020487,0.0063698,0.0080572,-3.9897,0.011638,0.013354,1.1576e-07,0.08,0.54,0
0.004656,-0.00066038,0.020597,0.0059893,0.0079757,-0.00099259,0,0,0.049221,-0.0077471,0,-0.0077422,0,0,0,0.020664,0.0059222,0.0079757,-3.8697,0.01152,0.013829,1.2581e-07,0.1,0.54,0
0.0056502,-0.00075613,0.02076,0.0055647,0.0078973,-0.0010168,0,0,0.050163,-0.0090972,0,-0.0079309,0,0,0,0.020827,0.0054969,0.0078973,-3.8114,0.011407,0.014282,1.3549e-07,0.12,0.54,0
0.0066626,-0.00084205,0.020906,0.0051673,0.0078219,-0.0010505,0,0,0.051027,-0.010353,0,-0.0081942,0,0,0,0.020976,0.0050974,0.0078219,-3.802,0.011298,0.014707,1.4465e-07,0.14,0.54,0
0.0076913,-0.00091838,0.021032,0.0047998,0.0077497,-0.0010922,0,0,0.051803,-0.011505,0,-0.0085188,0,0,0,0.021106,0.0047266,0.0077497,-3.8319,0.011194,0.015096,1.5309e-07,0.16,0.54,0
0.0087347,-0.00098503,0.021137,0.0044646,0.0076804,-0.00114,0,0,0.052479,-0.012542,0,-0.0088918,0,0,0,0.021214,0.004387,0.0076804,-3.8935,0.011094,0.015446,1.6065e-07,0.18,0.54,0
0.0097905,-0.0010415,0.021215,0.0041635,0.0076136,-0.0011922,0,0,0.053046,-0.013455,0,-0.0092989,0,0,0,0.021298,0.0040806,0.0076136,-3.98,0.010997,0.015751,1.6716e-07,0.2,0.54,0
0.010856,-0.001087,0.021265,0.0038978,0.0075488,-0.0012465,0,0,0.053492,-0.014239,0,-0.0097231,0,0,0,0.021354,0.0038088,0.0075488,-4.0846,0.010904,0.016006,1.7247e-07,0.22,0.54,0
0.01193,-0.0011202,0.021282,0.0036676,0.0074848,-0.0013003,0,0,0.053808,-0.014887,0,-0.010142,0,0,0,0.021377,0.0035721,0.0074848,-4.1993,0.010811,0.016207,1.7642e-07,0.24,0.54,0
0.013009,-0.0011391,0.021263,0.0034718,0.0074203,-0.0013497,0,0,0.053985,-0.015399,0,-0.010528,0,0,0,0.021364,0.00337,0.0074203,-4.3138,0.010718,0.01635,1.7889e-07,0.26,0.54,0
0.01409,-0.0011412,0.021203,0.003307,0.0073531,-0.0013897,0,0,0.054016,-0.01578,0,-0.01084,0,0,0,0.02131,0.0031997,0.0073531,-4.4139,0.010621,0.016433,1.7976e-07,0.28,0.54,0
0.01517,-0.0011231,0.021101,0.0031668,0.0072803,-0.0014138,0,0,0.0539,-0.016043,0,-0.011028,0,0,0,0.021212,0.003056,0.0072803,-4.48,0.010516,0.016455,1.79e-07,0.3,0.54,0
0.016246,-0.0010805,0.020954,0.0030395,0.007198,-0.0014141,0,0,0.053648,-0.016218,0,-0.01103,0,0,0,0.021065,0.0029286,0.007198,-4.4857,0.010397,0.016423,1.7673e-07,0.32,0.54,0
0.017315,-0.0010082,0.020766,0.0029049,0.0071012,-0.0013831,0,0,0.053292,-0.016366,0,-0.010788,0,0,0,0.020872,0.0027984,0.0071012,-4.4017,0.010257,0.016353,1.7327e-07,0.34,0.54,0
0.018377,-0.00090049,0.020543,0.0027283,0.0069812,-0.001318,0,0,0.052889,-0.016586,0,-0.01028,0,0,0,0.02064,0.0026314,0.0069812,-4.2085,0.010084,0.016275,1.6924e-07,0.36,0.54,0
0.019431,-0.00075217,0.020294,0.0024669,0.0068282,-0.0012316,0,0,0.052515,-0.017009,0,-0.0096062,0,0,0,0.020378,0.0023823,0.0068282,-3.9334,0.0098629,0.016236,1.6552e-07,0.38,0.54,0
0.020478,-0.00056103,0.020006,0.0020667,0.0066219,-0.0011527,0,0,0.052199,-0.017765,0,-0.0089906,0,0,0,0.02008,0.0019929,0.0066219,-3.6613,0.0095649,0.016274,1.6247e-07,0.4,0.54,0
0.021519,-0.00032864,0.019682,0.0015393,0.0063664,-0.0011397,0,0,0.051931,-0.018826,0,-0.0088895,0,0,0,0.019753,0.0014679,0.0063664,-3.5804,0.0091959,0.016394,1.6006e-07,0.42,0.54,0
0.022555,-6.4296e-05,0.019196,0.00084684,0.006013,-0.0012092,0,0,0.051416,-0.020148,0,-0.0094317,0,0,0,0.019276,0.0007675,0.006013,-3.754,0.0086855,0.016522,1.5538e-07,0.44,0.54,0
0.023575,0.0002264,0.018627,0.00021716,0.0056532,-0.0014569,0,0,0.050597,-0.021201,0,-0.011364,0,0,0,0.018742,0.00010257,0.0056532,-4.497,0.0081658,0.016576,1.4856e-07,0.46,0.54,0
0.024579,0.00051988,0.017137,-0.00091079,0.004868,-0.0016612,0,0,0.047851,-0.022537,0,-0.012958,0,0,0,0.017289,-0.0010624,0.004868,-5.2154,0.0070316,0.016221,1.2455e-07,0.48,0.54,0
0.02549,0.00084812,0.015862,-0.0016042,0.0042774,-0.0024857,0,0,0.045181,-0.022938,0,-0.019388,0,0,0,0.016209,-0.001951,0.0042774,-7.9439,0.0061785,0.015984,1.0749e-07,0.5,0.54,0
0.026386,0.0011052,0.014736,-0.001415,0.0039962,-0.0020882,0,0,0.041883,-0.021103,0,-0.016288,0,0,0,0.015001,-0.0016806,0.0039962,-7.2495,0.0057722,0.01469,8.4701e-08,0.52,0.54,0
0.027165,0.0012098,0.013236,-0.0011812,0.0036164,-0.0016571,0,0,0.037516,-0.018711,0,-0.012926,0,0,0,0.013424,-0.0013692,0.0036164,-6.4732,0.0052237,0.013036,6.025e-08,0.54,0.54,0
0.027887,0.0012696,0.012557,-0.001114,0.0034328,-0.00098258,0,0,0.035583,-0.017733,0,-0.0076641,0,0,0,0.012627,-0.0011843,0.0034328,-4.0901,0.0049585,0.012178,4.9831e-08,0.56,0.54,0
0.028588,0.0013066,0.012323,-0.0011106,0.0033636,-0.00032096,0,0,0.03494,-0.017449,0,-0.0025035,0,0,0,0.01233,-0.0011183,0.0033636,-1.3679,0.0048585,0.011861,4.6288e-08,0.58,0.54,0
0.029285,0.0013263,0.012301,-0.0011975,0.0033309,0.00032636,0,0,0.034981,-0.017661,0,0.0025456,0,0,0,0.012308,-0.0012054,0.0033309,1.3842,0.0048113,0.011912,4.6301e-08,0.6,0.54,0
0.029988,0.0013283,0.012493,-0.0013784,0.0033343,0.0009863,0,0,0.035718,-0.01838,0,0.0076931,0,0,0,0.012563,-0.0014481,0.0033343,4.0468,0.0048163,0.012336,4.9861e-08,0.62,0.54,0
0.030713,0.001306,0.013145,-0.0016316,0.003454,0.0016538,0,0,0.037794,-0.019834,0,0.012899,0,0,0,0.013328,-0.0018144,0.003454,6.3085,0.0049891,0.013314,6.0384e-08,0.64,0.54,0
0.031499,0.001235,0.014632,-0.0020826,0.0037647,0.0020574,0,0,0.042381,-0.022804,0,0.016048,0,0,0,0.014881,-0.0023321,0.0037647,6.9151,0.0054379,0.015117,8.5123e-08,0.66,0.54,0
0.032408,0.0010014,0.015739,-0.0024832,0.0039767,0.0023939,0,0,0.045872,-0.025193,0,0.018672,0,0,0,0.016048,-0.0027924,0.0039767,7.3608,0.0057441,0.01653,1.0779e-07,0.68,0.54,0
0.033334,0.00068255,0.017022,-0.001859,0.0045488,0.0015009,0,0,0.048644,-0.02499,0,0.011707,0,0,0,0.01714,-0.0019775,0.0045488,4.5169,0.0065705,0.016832,1.2665e-07,0.7,0.54,0
0.034354,0.00039011,0.0185,-0.00085326,0.0052941,0.0012376,0,0,0.051504,-0.023975,0,0.0096536,0,0,0,0.018579,-0.00093208,0.0052941,3.6443,0.007647,0.017262,1.5301e-07,0.72,0.54,0
0.035394,9.3441e-05,0.019075,-0.00032895,0.0056239,0.00093618,0,0,0.05246,-0.023216,0,0.0073022,0,0,0,0.01912,-0.00037401,0.0056239,2.7558,0.0081234,0.017294,1.6195e-07,0.74,0.54,0
0.036453,-0.00018365,0.019562,0.00024844,0.005943,0.00081306,0,0,0.053113,-0.022209,0,0.0063419,0,0,0,0.019596,0.00021427,0.005943,2.4064,0.0085844,0.017246,1.6879e-07,0.76,0.54,0
0.037519,-0.00043447,0.019895,0.0006559,0.0061652,0.00077723,0,0,0.053545,-0.021486,0,0.0060624,0,0,0,0.019926,0.00062456,0.0061652,2.3097,0.0089052,0.017213,1.7338e-07,0.78,0.54,0
0.038594,-0.00064892,0.020198,0.00092106,0.0063356,0.00081027,0,0,0.054061,-0.021117,0,0.0063201,0,0,0,0.020231,0.00088706,0.0063356,2.4027,0.0091514,0.017277,1.7878e-07,0.8,0.54,0
0.039681,-0.00082459,0.020473,0.0010288,0.0064504,0.0008522,0,0,0.054686,-0.021144,0,0.0066472,0,0,0,0.02051,0.00099152,0.0064504,2.5048,0.0093172,0.017442,1.8523e-07,0.82,0.54,0
0.040782,-0.0009632,0.020733,0.0010298,0.0065289,0.00087107,0,0,0.055397,-0.021447,0,0.0067943,0,0,0,0.020772,0.00099136,0.0065289,2.5264,0.0094307,0.017675,1.9257e-07,0.84,0.54,0
0.041897,-0.0010696,0.020971,0.0009663,0.0065811,0.00085147,0,0,0.05612,-0.021898,0,0.0066414,0,0,0,0.021007,0.00093013,0.0065811,2.4329,0.0095061,0.017932,2.0003e-07,0.86,0.54,0
0.043027,-0.0011497,0.021178,0.00087333,0.0066155,0.00079376,0,0,0.056795,-0.022394,0,0.0061913,0,0,0,0.021209,0.00084235,0.0066155,2.2353,0.0095557,0.018181,2.07e-07,0.88,0.54,0
0.044169,-0.0012086,0.021352,0.00077255,0.0066372,0.00070398,0,0,0.057386,-0.022872,0,0.0054911,0,0,0,0.021376,0.00074849,0.0066372,1.957,0.0095871,0.018403,2.1311e-07,0.9,0.54,0
0.045322,-0.0012509,0.02149,0.00067765,0.0066504,0.00058937,0,0,0.057875,-0.023294,0,0.0045971,0,0,0,0.021507,0.00066097,0.0066504,1.6208,0.0096061,0.018589,2.1816e-07,0.92,0.54,0
0.046484,-0.0012803,0.021596,0.00059729,0.0066578,0.00045648,0,0,0.058257,-0.023636,0,0.0035606,0,0,0,0.021605,0.00058737,0.0066578,1.2448,0.0096169,0.018735,2.221e-07,0.94,0.54,0
0.047652,-0.0012995,0.021669,0.00053685,0.0066618,0.0003109,0,0,0.058528,-0.023887,0,0.002425,0,0,0,0.021674,0.00053228,0.0066618,0.8427,0.0096226,0.01884,2.2489e-07,0.96,0.54,0
0.048825,-0.0013103,0.021713,0.00049949,0.0066636,0.00015736,0,0,0.058691,-0.02404,0,0.0012274,0,0,0,0.021714,0.00049832,0.0066636,0.425,0.0096252,0.018902,2.2656e-07,0.98,0.54,0
0.05,-0.0013138,0.021727,0.00048687,0.0066641,-2.2256e-05,0,0,0.058745,-0.024091,0,-0.0001736,0,0,0,0.021727,0.00048685,0.0066641,-0.060036,0.009626,0.018923,2.2712e-07,1,0.54,0
0,0,0.01969,0.0084385,0.0084385,-0.001241,0,0,0.04388,-3.2526e-19,0,-0.0096798,0,0,0,0.019825,0.0083032,0.0084385,-6.22,0.012189,0.011455,7.7158e-08,0,0.56,0
0.0008776,-0.0001936,0.019638,0.007846,0.0082451,-0.00124,0,0,0.044431,-0.0015566,0,-0.0096719,0,0,0,0.019767,0.007717,0.0082451,-5.9385,0.01191,0.011795,8.37e-08,0.02,0.56,0
0.0017772,-0.0003698,0.019831,0.0073653,0.008159,-0.0011966,0,0,0.045523,-0.0030955,0,-0.0093337,0,0,0,0.019945,0.0072515,0.008159,-5.4337,0.011785,0.012265,9.3019e-08,0.04,0.56,0
0.0026985,-0.00053066,0.020019,0.0068946,0.008074,-0.0011708,0,0,0.046584,-0.0045995,0,-0.0091322,0,0,0,0.020122,0.006791,0.008074,-5.0581,0.011662,0.012738,1.0254e-07,0.06,0.56,0
0.0036406,-0.00067771,0.020196,0.0064384,0.0079904,-0.0011589,0,0,0.047603,-0.0060529,0,-0.0090396,0,0,0,0.020293,0.0063414,0.0079904,-4.7815,0.011542,0.013205,1.1206e-07,0.08,0.56,0
0.0046026,-0.00081203,0.020361,0.0060006,0.0079086,-0.0011581,0,0,0.048566,-0.0074412,0,-0.0090335,0,0,0,0.020454,0.0059077,0.0079086,-4.5812,0.011423,0.013656,1.2139e-07,0.1,0.56,0
0.0055832,-0.00093432,0.020511,0.0055849,0.0078286,-0.0011661,0,0,0.04946,-0.0087508,0,-0.0090955,0,0,0,0.020601,0.0054943,0.0078286,-4.4404,0.011308,0.014086,1.3034e-07,0.12,0.56,0
0.006581,-0.0010449,0.020642,0.0051946,0.0077508,-0.0011808,0,0,0.050273,-0.0099692,0,-0.0092104,0,0,0,0.020731,0.0051049,0.0077508,-4.3463,0.011196,0.014486,1.3872e-07,0.14,0.56,0
0.0075942,-0.0011439,0.020751,0.0048327,0.007675,-0.0012005,0,0,0.050995,-0.011085,0,-0.0093641,0,0,0,0.020841,0.0047427,0.007675,-4.2888,0.011086,0.014851,1.4635e-07,0.16,0.56,0
0.0086208,-0.0012309,0.020836,0.0045013,0.0076011,-0.0012234,0,0,0.051615,-0.012089,0,-0.0095429,0,0,0,0.020927,0.0044102,0.0076011,-4.2598,0.010979,0.015175,1.5306e-07,0.18,0.56,0
0.0096588,-0.0013053,0.020893,0.0042022,0.0075285,-0.0012476,0,0,0.052121,-0.012972,0,-0.0097316,0,0,0,0.020986,0.0041095,0.0075285,-4.2514,0.010875,0.015453,1.5869e-07,0.2,0.56,0
0.010706,-0.0013661,0.020919,0.003936,0.0074566,-0.0012708,0,0,0.052505,-0.01373,0,-0.009912,0,0,0,0.021014,0.0038415,0.0074566,-4.2555,0.010771,0.015681,1.6309e-07,0.22,0.56,0
0.011759,-0.0014119,0.020912,0.0037022,0.0073843,-0.0012899,0,0,0.052758,-0.01436,0,-0.010061,0,0,0,0.021008,0.0036061,0.0073843,-4.2626,0.010666,0.015854,1.6615e-07,0.24,0.56,0
0.012816,-0.0014409,0.020868,0.0034987,0.00731,-0.0013012,0,0,0.052876,-0.014864,0,-0.01015,0,0,0,0.020965,0.0034018,0.00731,-4.2607,0.010559,0.015972,1.6777e-07,0.26,0.56,0
0.013874,-0.0014505,0.020785,0.0033211,0.0072318,-0.0013001,0,0,0.052857,-0.015252,0,-0.010141,0,0,0,0.020881,0.0032248,0.0072318,-4.2344,0.010446,0.016033,1.6793e-07,0.28,0.56,0
0.01493,-0.0014379,0.020661,0.0031615,0.0071468,-0.0012811,0,0,0.052706,-0.015543,0,-0.0099923,0,0,0,0.020754,0.0030682,0.0071468,-4.1647,0.010323,0.016041,1.6667e-07,0.3,0.56,0
0.015982,-0.0013993,0.020497,0.0030074,0.0070515,-0.0012384,0,0,0.05244,-0.015772,0,-0.0096594,0,0,0,0.020585,0.0029202,0.0070515,-4.03,0.010186,0.016004,1.6418e-07,0.32,0.56,0
0.017028,-0.0013307,0.020296,0.0028395,0.0069408,-0.0011683,0,0,0.052087,-0.015995,0,-0.0091124,0,0,0,0.020374,0.0027617,0.0069408,-3.8117,0.010026,0.015939,1.6078e-07,0.34,0.56,0
0.018066,-0.0012281,0.020062,0.0026319,0.0068082,-0.0010722,0,0,0.051691,-0.016288,0,-0.0083632,0,0,0,0.020128,0.0025662,0.0068082,-3.5069,0.0098341,0.015872,1.5696e-07,0.36,0.56,0
0.019096,-0.0010885,0.019795,0.0023533,0.0066444,-0.00096019,0,0,0.051286,-0.016735,0,-0.0074894,0,0,0,0.019848,0.0023006,0.0066444,-3.1416,0.0095975,0.015828,1.5314e-07,0.38,0.56,0
0.020117,-0.00091088,0.019491,0.0019832,0.0064422,-0.0008539,0,0,0.050889,-0.01739,0,-0.0066604,0,0,0,0.019532,0.0019416,0.0064422,-2.7857,0.0093053,0.015828,1.495e-07,0.4,0.56,0
0.021131,-0.00069742,0.01912,0.0015063,0.0061878,-0.00077404,0,0,0.050434,-0.018258,0,-0.0060375,0,0,0,0.019154,0.0014723,0.0061878,-2.5115,0.0089379,0.015858,1.4543e-07,0.42,0.56,0
0.022135,-0.00045249,0.01867,0.00096387,0.0058902,-0.00074571,0,0,0.049842,-0.019213,0,-0.0058165,0,0,0,0.018701,0.00093252,0.0058902,-2.4074,0.0085081,0.015882,1.4017e-07,0.44,0.56,0
0.023125,-0.00018463,0.018025,0.00030802,0.0054998,-0.00073109,0,0,0.048847,-0.020248,0,-0.0057025,0,0,0,0.018055,0.0002779,0.0054998,-2.359,0.0079442,0.015826,1.3137e-07,0.46,0.56,0
0.024088,0.00010442,0.017432,-0.00023529,0.0051591,-0.00075947,0,0,0.047866,-0.021038,0,-0.0059238,0,0,0,0.017465,-0.00026788,0.0051591,-2.4569,0.0074521,0.015738,1.2289e-07,0.48,0.56,0
0.025039,0.0003933,0.01662,-0.0012574,0.0046087,-0.00074117,0,0,0.046843,-0.022878,0,-0.0057811,0,0,0,0.01665,-0.0012881,0.0046087,-2.37,0.006657,0.015836,1.1276e-07,0.5,0.56,0
0.025962,0.00063189,0.015768,-0.0019808,0.0041362,-0.00096626,0,0,0.045365,-0.023856,0,-0.0075368,0,0,0,0.015821,-0.0020332,0.0041362,-3.107,0.0059745,0.015706,1.005e-07,0.52,0.56,0
0.026854,0.00078679,0.015156,-0.0017384,0.0040253,-0.00092906,0,0,0.04341,-0.022478,0,-0.0072467,0,0,0,0.015207,-0.0017894,0.0040253,-3.1382,0.0058143,0.014962,8.859e-08,0.54,0.56,0
0.027699,0.00087196,0.014522,-0.0016312,0.0038673,-0.00063526,0,0,0.041555,-0.021444,0,-0.004955,0,0,0,0.014547,-0.0016562,0.0038673,-2.2486,0.0055861,0.014268,7.7344e-08,0.56,0.56,0
0.028516,0.00091754,0.014207,-0.0016273,0.0037738,-0.00020579,0,0,0.040688,-0.021064,0,-0.0016052,0,0,0,0.014209,-0.0016299,0.0037738,-0.7445,0.0054511,0.013946,7.2124e-08,0.58,0.56,0
0.029326,0.00093297,0.014192,-0.0017121,0.0037439,0.00024989,0,0,0.040747,-0.021278,0,0.0019491,0,0,0,0.014196,-0.0017161,0.0037439,0.89995,0.0054079,0.014004,7.2228e-08,0.6,0.56,0
0.030146,0.00091754,0.014481,-0.0018881,0.003778,0.00067255,0,0,0.041743,-0.022097,0,0.0052459,0,0,0,0.014509,-0.0019157,0.003778,2.3488,0.005457,0.014445,7.7696e-08,0.62,0.56,0
0.030996,0.00086013,0.015096,-0.0021761,0.0038761,0.00094782,0,0,0.043759,-0.023604,0,0.007393,0,0,0,0.015148,-0.002228,0.0038761,3.1315,0.0055988,0.015269,8.9275e-08,0.64,0.56,0
0.031896,0.00072791,0.015691,-0.0026091,0.0039246,0.00094499,0,0,0.04589,-0.025481,0,0.0073709,0,0,0,0.01574,-0.0026577,0.0039246,2.9482,0.0056689,0.016146,1.0142e-07,0.66,0.56,0
0.032831,0.00050359,0.016526,-0.0020486,0.0043431,0.00065622,0,0,0.047512,-0.024928,0,0.0051185,0,0,0,0.016549,-0.0020717,0.0043431,2.0209,0.0062734,0.016384,1.1476e-07,0.68,0.56,0
0.033797,0.00021898,0.017328,-0.0011334,0.0048584,0.0006074,0,0,0.048631,-0.023368,0,0.0047377,0,0,0,0.017348,-0.0011534,0.0048584,1.8824,0.0070176,0.016347,1.2637e-07,0.7,0.56,0
0.034777,-7.463e-05,0.017904,-0.00069903,0.0051614,0.00051992,0,0,0.049695,-0.022856,0,0.0040553,0,0,0,0.017918,-0.00071355,0.0051614,1.5997,0.0074554,0.016498,1.3594e-07,0.72,0.56,0
0.035785,-0.00035456,0.018537,-0.00015692,0.0055139,0.00047648,0,0,0.050789,-0.022116,0,0.0037165,0,0,0,0.018549,-0.00016906,0.0055139,1.4591,0.0079645,0.016622,1.4628e-07,0.74,0.56,0
0.036808,-0.00061844,0.018981,0.00027013,0.0057752,0.00044819,0,0,0.051501,-0.02147,0,0.0034959,0,0,0,0.018991,0.0002594,0.0057752,1.3714,0.008342,0.016673,1.5319e-07,0.76,0.56,0
0.037845,-0.00085718,0.019351,0.0006227,0.0059921,0.00047233,0,0,0.0521,-0.020941,0,0.0036842,0,0,0,0.019363,0.00061079,0.0059921,1.4438,0.0086553,0.016724,1.5905e-07,0.78,0.56,0
0.038892,-0.0010658,0.019662,0.00085628,0.0061555,0.00052385,0,0,0.052676,-0.020667,0,0.004086,0,0,0,0.019677,0.0008417,0.0061555,1.5944,0.0088913,0.01682,1.6468e-07,0.8,0.56,0
0.039952,-0.0012416,0.019945,0.00098171,0.0062781,0.00058055,0,0,0.053302,-0.020656,0,0.0045283,0,0,0,0.019963,0.00096395,0.0062781,1.7519,0.0090684,0.016978,1.7082e-07,0.82,0.56,0
0.041024,-0.0013853,0.020205,0.0010172,0.0063667,0.00061895,0,0,0.05397,-0.020863,0,0.0048278,0,0,0,0.020225,0.00099722,0.0063667,1.8457,0.0091964,0.017184,1.7742e-07,0.84,0.56,0
0.042111,-0.0014997,0.020442,0.00099257,0.0064304,0.00062716,0,0,0.054646,-0.021208,0,0.0048919,0,0,0,0.020462,0.00097237,0.0064304,1.845,0.0092884,0.017415,1.8414e-07,0.86,0.56,0
0.04321,-0.0015888,0.020652,0.00093367,0.0064756,0.00060208,0,0,0.055286,-0.021613,0,0.0046962,0,0,0,0.02067,0.0009153,0.0064756,1.7473,0.0093536,0.017644,1.9055e-07,0.88,0.56,0
0.044322,-0.0016566,0.02083,0.00086046,0.0065071,0.00054652,0,0,0.055859,-0.022022,0,0.0042629,0,0,0,0.020845,0.00084551,0.0065071,1.5665,0.0093992,0.017855,1.9632e-07,0.9,0.56,0
0.045444,-0.001707,0.020975,0.00078676,0.0065286,0.00046572,0,0,0.056342,-0.022393,0,0.0036326,0,0,0,0.020986,0.00077602,0.0065286,1.3208,0.0094302,0.018035,2.012e-07,0.92,0.56,0
0.046576,-0.001743,0.021087,0.00072186,0.0065428,0.0003654,0,0,0.056724,-0.022701,0,0.0028502,0,0,0,0.021094,0.00071531,0.0065428,1.0276,0.0094507,0.018179,2.0507e-07,0.94,0.56,0
0.047713,-0.0017671,0.021167,0.00067186,0.0065516,0.00025107,0,0,0.056999,-0.022931,0,0.0019584,0,0,0,0.02117,0.00066878,0.0065516,0.70176,0.0094634,0.018284,2.0786e-07,0.96,0.56,0
0.048856,-0.0017808,0.021214,0.00064051,0.0065563,0.00012773,0,0,0.057165,-0.023072,0,0.00099632,0,0,0,0.021215,0.00063972,0.0065563,0.35571,0.0094702,0.018347,2.0954e-07,0.98,0.56,0
0.05,-0.0017853,0.02123,0.00062984,0.0065578,-2.8656e-05,0,0,0.05722,-0.023119,0,-0.00022352,0,0,0,0.02123,0.0006298,0.0065578,-0.079704,0.0094724,0.018368,2.101e-07,1,0.56,0
0,0,0.019499,0.0083568,0.0083568,-0.0014355,0,0,0.043455,-5.421e-20,0,-0.011197,0,0,0,0.019681,0.0081748,0.0083568,-7.2246,0.012071,0.011416,7.6357e-08,0,0.58,0
0.00086911,-0.00022394,0.01945,0.007792,0.0081726,-0.0014327,0,0,0.043982,-0.0014843,0,-0.011175,0,0,0,0.019624,0.0076185,0.0081726,-6.9047,0.011805,0.011738,8.2435e-08,0.02,0.58,0
0.0017593,-0.00043028,0.019634,0.0073288,0.008089,-0.0013846,0,0,0.045027,-0.0029645,0,-0.0108,0,0,0,0.019788,0.007175,0.008089,-6.3413,0.011684,0.012182,9.109e-08,0.04,0.58,0
0.0026702,-0.00062068,0.019812,0.0068718,0.0080053,-0.0013506,0,0,0.046048,-0.0044203,0,-0.010535,0,0,0,0.019952,0.0067324,0.0080053,-5.8953,0.011563,0.012631,9.9968e-08,0.06,0.58,0
0.0036012,-0.00079634,0.01998,0.0064262,0.007922,-0.0013273,0,0,0.047028,-0.0058337,0,-0.010353,0,0,0,0.020109,0.0062974,0.007922,-5.5406,0.011443,0.013075,1.0886e-07,0.08,0.58,0
0.0045513,-0.00095803,0.020135,0.0059965,0.0078395,-0.001312,0,0,0.047953,-0.0071878,0,-0.010234,0,0,0,0.020256,0.0058757,0.0078395,-5.2569,0.011324,0.013506,1.1756e-07,0.1,0.58,0
0.0055193,-0.0011062,0.020273,0.0055868,0.0077581,-0.0013024,0,0,0.04881,-0.0084678,0,-0.010158,0,0,0,0.020388,0.0054722,0.0077581,-5.0286,0.011206,0.013914,1.2587e-07,0.12,0.58,0
0.0065037,-0.0012408,0.020392,0.0052009,0.0076778,-0.0012965,0,0,0.049585,-0.00966,0,-0.010112,0,0,0,0.020502,0.0050911,0.0076778,-4.8433,0.01109,0.014294,1.3359e-07,0.14,0.58,0
0.0075027,-0.0013618,0.020487,0.0048416,0.0075987,-0.0012926,0,0,0.050266,-0.010753,0,-0.010082,0,0,0,0.020594,0.0047356,0.0075987,-4.6912,0.010976,0.014638,1.4054e-07,0.16,0.58,0
0.0085144,-0.0014686,0.020557,0.0045113,0.0075206,-0.001289,0,0,0.050844,-0.011737,0,-0.010054,0,0,0,0.02066,0.0044084,0.0075206,-4.5636,0.010863,0.014941,1.4656e-07,0.18,0.58,0
0.0095365,-0.0015604,0.020599,0.0042111,0.007443,-0.0012838,0,0,0.051308,-0.012605,0,-0.010013,0,0,0,0.020699,0.0041112,0.007443,-4.4521,0.010751,0.015198,1.515e-07,0.2,0.58,0
0.010567,-0.0016362,0.020609,0.0039414,0.0073653,-0.0012746,0,0,0.051652,-0.013353,0,-0.0099421,0,0,0,0.020706,0.0038445,0.0073653,-4.3478,0.010639,0.015406,1.5525e-07,0.22,0.58,0
0.011602,-0.0016946,0.020586,0.0037011,0.0072862,-0.0012588,0,0,0.05187,-0.013982,0,-0.0098187,0,0,0,0.020679,0.0036078,0.0072862,-4.2402,0.010524,0.015562,1.5771e-07,0.24,0.58,0
0.012641,-0.0017336,0.020528,0.0034873,0.0072045,-0.0012329,0,0,0.05196,-0.014497,0,-0.0096167,0,0,0,0.020616,0.0033985,0.0072045,-4.1169,0.010406,0.015665,1.5885e-07,0.26,0.58,0
0.013681,-0.0017512,0.020432,0.0032946,0.0071181,-0.0011929,0,0,0.051926,-0.014912,0,-0.009305,0,0,0,0.020515,0.003212,0.0071181,-3.9628,0.010282,0.015718,1.587e-07,0.28,0.58,0
0.014719,-0.0017448,0.020301,0.0031148,0.0070247,-0.0011347,0,0,0.051777,-0.015248,0,-0.0088507,0,0,0,0.020375,0.0030402,0.0070247,-3.7612,0.010147,0.015726,1.5735e-07,0.3,0.58,0
0.015752,-0.0017114,0.020134,0.0029357,0.0069209,-0.0010545,0,0,0.051531,-0.015542,0,-0.0082253,0,0,0,0.020198,0.0028713,0.0069209,-3.4957,0.0099968,0.015699,1.5503e-07,0.32,0.58,0
0.01678,-0.001648,0.019935,0.0027408,0.0068027,-0.00095079,0,0,0.051215,-0.015841,0,-0.0074162,0,0,0,0.019987,0.0026884,0.0068027,-3.1555,0.0098261,0.015652,1.5204e-07,0.34,0.58,0
0.017801,-0.001552,0.019706,0.00251,0.0066647,-0.0008257,0,0,0.05086,-0.016204,0,-0.0064404,0,0,0,0.019745,0.0024704,0.0066647,-2.7428,0.0096269,0.015607,1.4872e-07,0.36,0.58,0
0.018814,-0.0014216,0.019449,0.0022233,0.0065016,-0.0006869,0,0,0.050494,-0.016685,0,-0.0053578,0,0,0,0.019476,0.0021959,0.0065016,-2.28,0.0093912,0.01558,1.4538e-07,0.38,0.58,0
0.01982,-0.0012566,0.019158,0.0018643,0.0063069,-0.00054567,0,0,0.050121,-0.017326,0,-0.0042562,0,0,0,0.019176,0.0018471,0.0063069,-1.8054,0.0091099,0.015585,1.4208e-07,0.4,0.58,0
0.020819,-0.0010589,0.018831,0.0014315,0.0060786,-0.00041498,0,0,0.049733,-0.018124,0,-0.0032369,0,0,0,0.01884,0.0014216,0.0060786,-1.3655,0.0087803,0.01562,1.3867e-07,0.42,0.58,0
0.02181,-0.00083281,0.018448,0.00092017,0.0058106,-0.00029617,0,0,0.049288,-0.019073,0,-0.0023101,0,0,0,0.018454,0.00091517,0.0058106,-0.96773,0.0083931,0.015675,1.3471e-07,0.44,0.58,0
0.022791,-0.00058353,0.018054,0.00036311,0.005525,-0.0001945,0,0,0.048862,-0.020131,0,-0.0015171,0,0,0,0.018056,0.00036097,0.005525,-0.62986,0.0079806,0.015761,1.3071e-07,0.46,0.58,0
0.023764,-0.00032165,0.017625,-0.00033386,0.0051875,-0.00010842,0,0,0.048508,-0.021533,0,-0.00084568,0,0,0,0.017626,-0.00033452,0.0051875,-0.34587,0.0074931,0.015934,1.268e-07,0.48,0.58,0
0.024731,-6.6996e-05,0.017165,-0.0011279,0.004811,-0.00013559,0,0,0.048179,-0.023162,0,-0.0010576,0,0,0,0.017166,-0.0011289,0.004811,-0.42467,0.0069492,0.016165,1.2235e-07,0.5,0.58,0
0.025691,0.00015094,0.016696,-0.0017283,0.0044904,-0.00023814,0,0,0.047603,-0.024253,0,-0.0018575,0,0,0,0.016699,-0.0017314,0.0044904,-0.74039,0.0064861,0.01624,1.1614e-07,0.52,0.58,0
0.026635,0.00031063,0.016257,-0.0019516,0.0042917,-0.00032547,0,0,0.046666,-0.024349,0,-0.0025387,0,0,0,0.016263,-0.0019574,0.0042917,-1.0237,0.0061992,0.016037,1.0857e-07,0.54,0.58,0
0.027558,0.00041179,0.015902,-0.0019548,0.0041843,-0.00025943,0,0,0.045701,-0.023942,0,-0.0020235,0,0,0,0.015906,-0.0019586,0.0041843,-0.83214,0.006044,0.015721,1.0177e-07,0.56,0.58,0
0.028463,0.00046403,0.015675,-0.0019828,0.0041077,-7.535e-05,0,0,0.045113,-0.023753,0,-0.00058773,0,0,0,0.015676,-0.0019831,0.0041077,-0.24448,0.0059334,0.015536,9.7627e-08,0.58,0.58,0
0.029362,0.00047518,0.015664,-0.002064,0.0040801,0.0001473,0,0,0.045179,-0.023962,0,0.001149,0,0,0,0.015666,-0.0020652,0.0040801,0.47602,0.0058935,0.015594,9.7788e-08,0.6,0.58,0
0.03027,0.00044435,0.015871,-0.0021998,0.0041015,0.00032003,0,0,0.045902,-0.024575,0,0.0024962,0,0,0,0.015877,-0.0022055,0.0041015,1.0143,0.0059243,0.015897,1.0227e-07,0.62,0.58,0
0.031199,0.00036182,0.016208,-0.0023633,0.0041533,0.00036029,0,0,0.047012,-0.025415,0,0.0028102,0,0,0,0.016215,-0.0023703,0.0041533,1.111,0.0059992,0.016331,1.0943e-07,0.64,0.58,0
0.032151,0.00021575,0.016628,-0.0023027,0.0042976,0.00022945,0,0,0.048089,-0.025741,0,0.0017897,0,0,0,0.016631,-0.0023055,0.0042976,0.69432,0.0062077,0.016648,1.1752e-07,0.66,0.58,0
0.033122,4.3032e-06,0.017077,-0.001846,0.0045694,6.8515e-05,0,0,0.048781,-0.02502,0,0.00053442,0,0,0,0.017078,-0.0018463,0.0045694,0.20745,0.0066002,0.016669,1.2461e-07,0.68,0.58,0
0.034102,-0.00025217,0.017518,-0.0011717,0.004904,-2.2814e-05,0,0,0.049196,-0.023695,0,-0.00017795,0,0,0,0.017518,-0.0011717,0.004904,-0.069936,0.0070836,0.016513,1.3018e-07,0.7,0.58,0
0.03509,-0.00052411,0.017926,-0.00058531,0.0052021,5.7327e-08,0,0,0.049622,-0.022571,0,4.4715e-07,0,0,0,0.017926,-0.00058531,0.0052021,0.00017744,0.0075142,0.016402,1.3519e-07,0.72,0.58,0
0.036087,-0.00079121,0.018302,-0.00014029,0.0054484,4.0054e-05,0,0,0.050127,-0.021796,0,0.00031242,0,0,0,0.018302,-0.00014037,0.0054484,0.12444,0.0078699,0.016379,1.403e-07,0.74,0.58,0
0.037095,-0.0010424,0.018669,0.00025412,0.005677,9.7232e-05,0,0,0.05067,-0.021149,0,0.00075841,0,0,0,0.01867,0.00025361,0.005677,0.30251,0.0082001,0.016392,1.4555e-07,0.76,0.58,0
0.038114,-0.0012721,0.018989,0.0005622,0.0058652,0.00016604,0,0,0.051181,-0.020682,0,0.0012951,0,0,0,0.01899,0.00056071,0.0058652,0.51624,0.008472,0.016432,1.504e-07,0.78,0.58,0
0.039142,-0.0014756,0.019277,0.00078463,0.0060185,0.00024452,0,0,0.051708,-0.020412,0,0.0019073,0,0,0,0.01928,0.00078139,0.0060185,0.75744,0.0086934,0.016515,1.5535e-07,0.8,0.58,0
0.040182,-0.0016508,0.01954,0.00091995,0.006138,0.00031883,0,0,0.052269,-0.020351,0,0.0024869,0,0,0,0.019546,0.00091449,0.006138,0.98069,0.0088661,0.016646,1.6063e-07,0.82,0.58,0
0.041233,-0.0017977,0.019784,0.00098215,0.0062298,0.00037646,0,0,0.05286,-0.020466,0,0.0029364,0,0,0,0.019791,0.00097462,0.0062298,1.1466,0.0089985,0.016817,1.6625e-07,0.84,0.58,0
0.042296,-0.001918,0.020006,0.00098966,0.0062988,0.00040852,0,0,0.05346,-0.020706,0,0.0031864,0,0,0,0.020015,0.00098088,0.0062988,1.2301,0.0090983,0.017011,1.7201e-07,0.86,0.58,0
0.043371,-0.0020142,0.020205,0.000962,0.0063502,0.00041179,0,0,0.054035,-0.021014,0,0.003212,0,0,0,0.020214,0.00095319,0.0063502,1.2253,0.0091725,0.017209,1.776e-07,0.88,0.58,0
0.044458,-0.0020894,0.020377,0.00091576,0.0063879,0.00038732,0,0,0.054558,-0.021341,0,0.0030211,0,0,0,0.020385,0.00090805,0.0063879,1.1397,0.0092269,0.017397,1.8272e-07,0.9,0.58,0
0.045554,-0.0021467,0.020519,0.00086374,0.0064149,0.00033871,0,0,0.055007,-0.02165,0,0.0026419,0,0,0,0.020525,0.0008579,0.0064149,0.98694,0.009266,0.017561,1.8714e-07,0.92,0.58,0
0.046658,-0.0021884,0.02063,0.0008152,0.0064337,0.0002707,0,0,0.055367,-0.021912,0,0.0021114,0,0,0,0.020634,0.0008115,0.0064337,0.78253,0.0092931,0.017695,1.9071e-07,0.94,0.58,0
0.047768,-0.0022167,0.02071,0.00077651,0.0064459,0.00018831,0,0,0.055629,-0.022111,0,0.0014688,0,0,0,0.020712,0.00077473,0.0064459,0.5412,0.0093108,0.017793,1.9331e-07,0.96,0.58,0
0.048883,-0.0022332,0.020758,0.00075178,0.0064528,9.6485e-05,0,0,0.055788,-0.022234,0,0.00075258,0,0,0,0.020758,0.00075132,0.0064528,0.27632,0.0093207,0.017852,1.9489e-07,0.98,0.58,0
0.05,-0.0022385,0.020773,0.0007433,0.006455,-3.4425e-05,0,0,0.055842,-0.022276,0,-0.00026851,0,0,0,0.020773,0.00074323,0.006455,-0.098471,0.0093239,0.017872,1.9542e-07,1,0.58,0
0,0,0.019314,0.0082775,0.0082775,-0.0016216,0,0,0.043043,-5.421e-20,0,-0.012648,0,0,0,0.019547,0.0080442,0.0082775,-8.1879,0.011956,0.011388,7.5754e-08,0,0.6,0
0.00086086,-0.00025297,0.019267,0.0077354,0.0081008,-0.001617,0,0,0.04355,-0.0014253,0,-0.012613,0,0,0,0.01949,0.0075129,0.0081008,-7.8326,0.011701,0.011694,8.1434e-08,0.02,0.6,0
0.001742,-0.00048838,0.019444,0.007286,0.008019,-0.0015645,0,0,0.044558,-0.002859,0,-0.012203,0,0,0,0.019642,0.0070879,0.008019,-7.2162,0.011583,0.012116,8.9524e-08,0.04,0.6,0
0.0026432,-0.00070747,0.019615,0.0068391,0.0079362,-0.0015223,0,0,0.045547,-0.0042785,0,-0.011874,0,0,0,0.019794,0.0066603,0.0079362,-6.7021,0.011463,0.012544,9.7853e-08,0.06,0.6,0
0.0035638,-0.00091105,0.019776,0.0064008,0.0078529,-0.0014872,0,0,0.046498,-0.0056632,0,-0.0116,0,0,0,0.019939,0.0062374,0.0078529,-6.2688,0.011343,0.012969,1.062e-07,0.08,0.6,0
0.0045031,-0.0010995,0.019922,0.005976,0.0077695,-0.0014566,0,0,0.047396,-0.0069948,0,-0.011361,0,0,0,0.020073,0.0058255,0.0077695,-5.8992,0.011223,0.013382,1.1436e-07,0.1,0.6,0
0.0054597,-0.001273,0.020052,0.0055693,0.0076864,-0.0014284,0,0,0.048226,-0.0082567,0,-0.011141,0,0,0,0.020192,0.0054298,0.0076864,-5.5792,0.011103,0.013773,1.2213e-07,0.12,0.6,0
0.0064321,-0.0014313,0.020161,0.0051847,0.0076038,-0.0014008,0,0,0.048974,-0.0094344,0,-0.010927,0,0,0,0.020291,0.0050548,0.0076038,-5.2979,0.010983,0.014135,1.293e-07,0.14,0.6,0
0.0074187,-0.001574,0.020247,0.0048253,0.0075217,-0.0013724,0,0,0.049629,-0.010516,0,-0.010704,0,0,0,0.020368,0.0047041,0.0075217,-5.0458,0.010865,0.014463,1.3571e-07,0.16,0.6,0
0.0084173,-0.0017003,0.020307,0.0044931,0.0074399,-0.0013414,0,0,0.05018,-0.011493,0,-0.010463,0,0,0,0.02042,0.0043801,0.0074399,-4.8144,0.010747,0.01475,1.4119e-07,0.18,0.6,0
0.0094259,-0.0018094,0.020338,0.0041893,0.0073581,-0.0013063,0,0,0.05062,-0.012358,0,-0.010189,0,0,0,0.020443,0.0040844,0.0073581,-4.5952,0.010628,0.014992,1.4563e-07,0.2,0.6,0
0.010442,-0.0019002,0.020338,0.0039138,0.0072755,-0.0012651,0,0,0.050943,-0.013111,0,-0.009868,0,0,0,0.020435,0.003817,0.0072755,-4.379,0.010509,0.015187,1.4892e-07,0.22,0.6,0
0.011464,-0.0019712,0.020306,0.003665,0.0071913,-0.0012155,0,0,0.051147,-0.013753,0,-0.0094806,0,0,0,0.020394,0.0035766,0.0071913,-4.1555,0.010387,0.015333,1.5104e-07,0.24,0.6,0
0.012488,-0.0020207,0.020235,0.0034289,0.0070991,-0.0012036,0,0,0.051229,-0.014314,0,-0.0093878,0,0,0,0.02032,0.0033432,0.0070991,-4.0756,0.010254,0.015446,1.5219e-07,0.26,0.6,0
0.013513,-0.002047,0.020134,0.0032224,0.007007,-0.0010802,0,0,0.051197,-0.01476,0,-0.0084257,0,0,0,0.020203,0.0031537,0.007007,-3.6399,0.010121,0.015487,1.5168e-07,0.28,0.6,0
0.014536,-0.0020478,0.020013,0.0030319,0.0069134,-0.00098684,0,0,0.051087,-0.015138,0,-0.0076974,0,0,0,0.02007,0.0029748,0.0069134,-3.3149,0.009986,0.015506,1.5062e-07,0.3,0.6,0
0.015556,-0.0020209,0.019853,0.0028309,0.0068051,-0.00087497,0,0,0.050886,-0.015499,0,-0.0068248,0,0,0,0.019898,0.002786,0.0068051,-2.9348,0.0098296,0.015498,1.4871e-07,0.32,0.6,0
0.016572,-0.0019643,0.019666,0.002614,0.0066841,-0.00074331,0,0,0.050631,-0.015873,0,-0.0057978,0,0,0,0.019699,0.0025817,0.0066841,-2.4912,0.0096548,0.015479,1.4633e-07,0.34,0.6,0
0.017582,-0.0018762,0.019457,0.0023657,0.0065467,-0.00059419,0,0,0.050349,-0.016306,0,-0.0046347,0,0,0,0.019477,0.0023451,0.0065467,-1.9888,0.0094564,0.015466,1.4377e-07,0.36,0.6,0
0.018586,-0.0017559,0.019227,0.0020708,0.0063892,-0.00043299,0,0,0.050065,-0.016842,0,-0.0033773,0,0,0,0.019237,0.0020599,0.0063892,-1.4448,0.0092289,0.015474,1.4127e-07,0.38,0.6,0
0.019584,-0.0016039,0.018978,0.0017183,0.0062088,-0.00026755,0,0,0.049799,-0.017513,0,-0.0020869,0,0,0,0.018982,0.0017141,0.0062088,-0.8879,0.0089683,0.015517,1.3898e-07,0.4,0.6,0
0.020578,-0.0014224,0.018711,0.0013003,0.0060035,-0.00010544,0,0,0.049561,-0.018343,0,-0.00082241,0,0,0,0.018712,0.0012997,0.0060035,-0.34696,0.0086717,0.015602,1.3694e-07,0.42,0.6,0
0.021567,-0.0012154,0.018438,0.00081761,0.0057766,4.4748e-05,0,0,0.049378,-0.01934,0,0.00034903,0,0,0,0.018438,0.00081749,0.0057766,0.14551,0.008344,0.015738,1.3524e-07,0.44,0.6,0
0.022553,-0.00098989,0.018162,0.00025537,0.0055253,0.00017271,0,0,0.049284,-0.020553,0,0.0013472,0,0,0,0.018164,0.00025371,0.0055253,0.55255,0.0079809,0.015942,1.3398e-07,0.46,0.6,0
0.023538,-0.00075691,0.017891,-0.00038287,0.0052523,0.00024572,0,0,0.049289,-0.021977,0,0.0019166,0,0,0,0.017894,-0.00038617,0.0052523,0.77027,0.0075867,0.016214,1.3301e-07,0.48,0.6,0
0.024525,-0.00053317,0.017613,-0.0010426,0.0049712,0.00023887,0,0,0.049304,-0.023454,0,0.0018632,0,0,0,0.017616,-0.0010456,0.0049712,0.73346,0.0071806,0.016498,1.3151e-07,0.5,0.6,0
0.02551,-0.00033822,0.017335,-0.0015829,0.0047257,0.00015332,0,0,0.049177,-0.024604,0,0.0011959,0,0,0,0.017337,-0.0015842,0.0047257,0.46431,0.006826,0.016686,1.2873e-07,0.52,0.6,0
0.026492,-0.00018717,0.017076,-0.0019066,0.0045509,5.8534e-05,0,0,0.048849,-0.025184,0,0.00045657,0,0,0,0.017077,-0.0019068,0.0045509,0.17667,0.0065736,0.016718,1.2491e-07,0.54,0.6,0
0.027464,-8.5745e-05,0.016859,-0.0020646,0.0044384,1.2235e-05,0,0,0.048442,-0.025362,0,9.5432e-05,0,0,0,0.016859,-0.0020647,0.0044384,0.037043,0.006411,0.016654,1.2112e-07,0.56,0.6,0
0.028429,-3.2581e-05,0.01673,-0.0021492,0.0043743,2.8349e-05,0,0,0.048188,-0.025441,0,0.00022112,0,0,0,0.01673,-0.0021492,0.0043743,0.086033,0.0063184,0.016608,1.1884e-07,0.58,0.6,0
0.029392,-2.5514e-05,0.01672,-0.002225,0.0043486,6.5761e-05,0,0,0.04825,-0.025637,0,0.00051293,0,0,0,0.01672,-0.0022253,0.0043486,0.19888,0.0062813,0.016662,1.19e-07,0.6,0.6,0
0.030359,-6.5461e-05,0.01683,-0.0022923,0.0043613,6.8315e-05,0,0,0.048627,-0.025949,0,0.00053285,0,0,0,0.01683,-0.0022925,0.0043613,0.20469,0.0062996,0.016814,1.216e-07,0.62,0.6,0
0.031337,-0.00015646,0.017027,-0.0022847,0.0044227,-6.0829e-06,0,0,0.049157,-0.026159,0,-4.7447e-05,0,0,0,0.017027,-0.0022847,0.0044227,-0.018047,0.0063883,0.016982,1.2575e-07,0.64,0.6,0
0.032326,-0.00030174,0.017265,-0.0021053,0.0045479,-0.00014364,0,0,0.049597,-0.025948,0,-0.0011204,0,0,0,0.017266,-0.0021064,0.0045479,-0.42483,0.0065692,0.017049,1.3006e-07,0.66,0.6,0
0.033321,-0.00049721,0.01752,-0.0016973,0.0047469,-0.00028394,0,0,0.049817,-0.025133,0,-0.0022147,0,0,0,0.017525,-0.0017015,0.0047469,-0.84628,0.0068567,0.016948,1.3355e-07,0.68,0.6,0
0.034318,-0.00072884,0.017774,-0.0011568,0.0049851,-0.00035244,0,0,0.049876,-0.023953,0,-0.002749,0,0,0,0.01778,-0.0011633,0.0049851,-1.0662,0.0072007,0.016739,1.3594e-07,0.7,0.6,0
0.035316,-0.00097747,0.01802,-0.00063047,0.0052169,-0.00034365,0,0,0.049933,-0.022805,0,-0.0026805,0,0,0,0.018027,-0.0006368,0.0052169,-1.0552,0.0075356,0.016533,1.3784e-07,0.72,0.6,0
0.036316,-0.0012264,0.018272,-0.00017979,0.0054277,-0.00028089,0,0,0.050093,-0.021869,0,-0.0021909,0,0,0,0.018276,-0.00018407,0.0054277,-0.87193,0.0078399,0.016391,1.4006e-07,0.74,0.6,0
0.037319,-0.0014644,0.018525,0.00018695,0.0056136,-0.00019688,0,0,0.050354,-0.021164,0,-0.0015357,0,0,0,0.018527,0.00018484,0.0056136,-0.61504,0.0081085,0.01632,1.4281e-07,0.76,0.6,0
0.03833,-0.0016845,0.018776,0.00048111,0.005777,-0.00010245,0,0,0.050695,-0.020654,0,-0.00079908,0,0,0,0.018776,0.00048054,0.005777,-0.32083,0.0083446,0.016306,1.4604e-07,0.78,0.6,0
0.039347,-0.0018823,0.019015,0.00069884,0.005914,-6.708e-06,0,0,0.051092,-0.020339,0,-5.2322e-05,0,0,0,0.019015,0.00069884,0.005914,-0.020984,0.0085425,0.016345,1.4969e-07,0.8,0.6,0
0.040373,-0.0020557,0.019242,0.00084498,0.006026,8.2071e-05,0,0,0.051541,-0.020206,0,0.00064016,0,0,0,0.019242,0.00084462,0.006026,0.2556,0.0087042,0.016431,1.538e-07,0.82,0.6,0
0.041409,-0.0022039,0.019456,0.00092844,0.0061153,0.00015523,0,0,0.052028,-0.020229,0,0.0012108,0,0,0,0.019457,0.00092714,0.0061153,0.48002,0.0088331,0.016557,1.5828e-07,0.84,0.6,0
0.042454,-0.0023279,0.019654,0.00096277,0.0061852,0.00020666,0,0,0.05253,-0.020367,0,0.0016119,0,0,0,0.019657,0.00096049,0.0061852,0.63336,0.0089341,0.016708,1.6296e-07,0.86,0.6,0
0.04351,-0.0024293,0.019834,0.0009625,0.006239,0.00023343,0,0,0.053021,-0.020578,0,0.0018208,0,0,0,0.019837,0.00095962,0.006239,0.70858,0.0090119,0.016869,1.6759e-07,0.88,0.6,0
0.044575,-0.0025103,0.019992,0.00094118,0.0062799,0.00023579,0,0,0.053476,-0.020821,0,0.0018392,0,0,0,0.019995,0.00093826,0.0062799,0.70902,0.0090709,0.017026,1.7192e-07,0.9,0.6,0
0.045649,-0.002573,0.020124,0.00091002,0.0063101,0.00021616,0,0,0.053873,-0.02106,0,0.0016861,0,0,0,0.020126,0.00090759,0.0063101,0.6445,0.0091146,0.017167,1.7573e-07,0.92,0.6,0
0.04673,-0.0026195,0.020228,0.0008777,0.0063317,0.0001783,0,0,0.054195,-0.021271,0,0.0013908,0,0,0,0.02023,0.00087605,0.0063317,0.52789,0.0091457,0.017284,1.7884e-07,0.94,0.6,0
0.047817,-0.0026515,0.020303,0.00085048,0.0063461,0.00012658,0,0,0.054432,-0.021433,0,0.00098735,0,0,0,0.020304,0.00084966,0.0063461,0.37282,0.0091665,0.017371,1.8114e-07,0.96,0.6,0
0.048907,-0.0026702,0.020348,0.00083257,0.0063543,6.5603e-05,0,0,0.054577,-0.021535,0,0.00051171,0,0,0,0.020349,0.00083235,0.0063543,0.1926,0.0091784,0.017424,1.8255e-07,0.98,0.6,0
0.05,-0.0026763,0.020364,0.00082634,0.006357,-3.9355e-05,0,0,0.054626,-0.021569,0,-0.00030697,0,0,0,0.020364,0.00082626,0.006357,-0.11542,0.0091823,0.017443,1.8303e-07,1,0.6,0
0,0,0.019138,0.0082018,0.0082018,-0.001801,0,0,0.042649,4.3368e-19,0,-0.014048,0,0,0,0.019426,0.0079128,0.0082018,-9.1154,0.011847,0.011372,7.5367e-08,0,0.62,0
0.00085299,-0.00028096,0.019093,0.0076767,0.0080308,-0.0017945,0,0,0.043141,-0.0013811,0,-0.013997,0,0,0,0.019368,0.0074012,0.0080308,-8.7263,0.0116,0.011665,8.072e-08,0.02,0.62,0
0.0017257,-0.00054464,0.019264,0.0072369,0.0079502,-0.0017382,0,0,0.044123,-0.0027821,0,-0.013558,0,0,0,0.01951,0.0069907,0.0079502,-8.061,0.011484,0.012068,8.835e-08,0.04,0.62,0
0.0026179,-0.00079182,0.019429,0.0067964,0.0078677,-0.0016879,0,0,0.04509,-0.0041782,0,-0.013165,0,0,0,0.019651,0.0065747,0.0078677,-7.4805,0.011364,0.01248,9.6228e-08,0.06,0.62,0
0.0035293,-0.0010229,0.019585,0.0063616,0.0077839,-0.0016407,0,0,0.046023,-0.005547,0,-0.012797,0,0,0,0.019785,0.0061611,0.0077839,-6.9684,0.011243,0.01289,1.0413e-07,0.08,0.62,0
0.0044588,-0.0012378,0.019726,0.0059383,0.0076993,-0.0015943,0,0,0.046905,-0.0068682,0,-0.012436,0,0,0,0.019908,0.0057563,0.0076993,-6.5108,0.011121,0.013287,1.1185e-07,0.1,0.62,0
0.0054055,-0.0014364,0.01985,0.0055314,0.0076144,-0.0015469,0,0,0.047719,-0.0081238,0,-0.012066,0,0,0,0.020015,0.0053662,0.0076144,-6.0963,0.010999,0.013664,1.1917e-07,0.12,0.62,0
0.0063676,-0.0016182,0.019953,0.0051452,0.0075295,-0.0014971,0,0,0.048452,-0.0092987,0,-0.011677,0,0,0,0.020103,0.0049953,0.0075295,-5.7156,0.010876,0.014013,1.259e-07,0.14,0.62,0
0.0073435,-0.0017824,0.020032,0.0047828,0.0074445,-0.0014435,0,0,0.049092,-0.010381,0,-0.011259,0,0,0,0.020168,0.0046474,0.0074445,-5.3601,0.010753,0.014328,1.3187e-07,0.16,0.62,0
0.0083313,-0.0019283,0.020085,0.0044465,0.0073595,-0.001385,0,0,0.049631,-0.011361,0,-0.010803,0,0,0,0.020207,0.0043248,0.0073595,-5.0222,0.01063,0.014603,1.3695e-07,0.18,0.62,0
0.0093288,-0.0020548,0.02011,0.004137,0.0072741,-0.0013204,0,0,0.05006,-0.012235,0,-0.010299,0,0,0,0.020219,0.0040286,0.0072741,-4.6939,0.010507,0.014836,1.4103e-07,0.2,0.62,0
0.010334,-0.0021607,0.020105,0.0038541,0.0071878,-0.0012482,0,0,0.050378,-0.013002,0,-0.0097359,0,0,0,0.020201,0.0037587,0.0071878,-4.3665,0.010382,0.015024,1.4405e-07,0.22,0.62,0
0.011344,-0.0022447,0.02007,0.0035955,0.0070997,-0.0011666,0,0,0.050585,-0.013666,0,-0.0090996,0,0,0,0.020152,0.0035133,0.0070997,-4.0305,0.010255,0.015167,1.4598e-07,0.24,0.62,0
0.012357,-0.0023053,0.020001,0.0033547,0.0070066,-0.0010754,0,0,0.050677,-0.014242,0,-0.0083885,0,0,0,0.02007,0.0032855,0.0070066,-3.6813,0.010121,0.015268,1.4683e-07,0.26,0.62,0
0.013371,-0.0023411,0.019905,0.0031283,0.0069099,-0.00091061,0,0,0.05068,-0.014748,0,-0.0071028,0,0,0,0.019954,0.003079,0.0069099,-3.0978,0.009981,0.015323,1.4657e-07,0.28,0.62,0
0.014385,-0.0023503,0.019788,0.0029183,0.0068119,-0.00084582,0,0,0.050607,-0.015185,0,-0.0065974,0,0,0,0.01983,0.002876,0.0068119,-2.8631,0.0098394,0.015369,1.4604e-07,0.3,0.62,0
0.015395,-0.0023314,0.019642,0.002699,0.0067022,-0.00070813,0,0,0.050464,-0.015613,0,-0.0055235,0,0,0,0.019671,0.0026695,0.0067022,-2.3892,0.009681,0.015387,1.4467e-07,0.32,0.62,0
0.016403,-0.002283,0.019475,0.0024648,0.006582,-0.00055478,0,0,0.050283,-0.016057,0,-0.0043273,0,0,0,0.019493,0.0024468,0.006582,-1.866,0.0095073,0.015401,1.4301e-07,0.34,0.62,0
0.017407,-0.0022042,0.019292,0.0022032,0.0064486,-0.00038823,0,0,0.05009,-0.016557,0,-0.0030282,0,0,0,0.019301,0.0021944,0.0064486,-1.3008,0.0093147,0.015426,1.413e-07,0.36,0.62,0
0.018407,-0.0020952,0.019098,0.0019022,0.0063,-0.0002132,0,0,0.049911,-0.017151,0,-0.001663,0,0,0,0.0191,0.0018995,0.0063,-0.71024,0.0091,0.015477,1.3979e-07,0.38,0.62,0
0.019403,-0.0019571,0.018897,0.0015519,0.0061345,-3.6293e-05,0,0,0.049772,-0.017872,0,-0.00028309,0,0,0,0.018897,0.0015518,0.0061345,-0.11989,0.0088609,0.015568,1.3866e-07,0.4,0.62,0
0.020398,-0.0017927,0.018695,0.001146,0.0059522,0.00013392,0,0,0.049696,-0.018744,0,0.0010446,0,0,0,0.018696,0.001145,0.0059522,0.43722,0.0085977,0.015709,1.3804e-07,0.42,0.62,0
0.021391,-0.0016064,0.018499,0.00067901,0.0057535,0.0002865,0,0,0.049708,-0.01979,0,0.0022347,0,0,0,0.018504,0.0006744,0.0057535,0.92083,0.0083105,0.01591,1.38e-07,0.44,0.62,0
0.022386,-0.0014056,0.018315,0.00015204,0.0055402,0.00040404,0,0,0.049823,-0.021014,0,0.0031515,0,0,0,0.018324,0.00014306,0.0055402,1.2737,0.0080026,0.016173,1.385e-07,0.46,0.62,0
0.023384,-0.0012007,0.018143,-0.000419,0.0053171,0.00046603,0,0,0.050019,-0.022371,0,0.003635,0,0,0,0.018154,-0.00043069,0.0053171,1.4373,0.0076802,0.016481,1.392e-07,0.48,0.62,0
0.024387,-0.0010052,0.017976,-0.0009832,0.005098,0.00045598,0,0,0.050226,-0.023717,0,0.0035566,0,0,0,0.017988,-0.00099416,0.005098,1.3769,0.0073638,0.016786,1.3949e-07,0.5,0.62,0
0.025393,-0.00083321,0.017816,-0.0014654,0.0049051,0.00038286,0,0,0.050351,-0.024845,0,0.0029863,0,0,0,0.017823,-0.001473,0.0049051,1.1371,0.0070851,0.017028,1.3891e-07,0.52,0.62,0
0.026401,-0.00069675,0.017666,-0.0018138,0.0047557,0.00027811,0,0,0.050351,-0.025621,0,0.0021692,0,0,0,0.01767,-0.0018177,0.0047557,0.81777,0.0068694,0.017172,1.3751e-07,0.54,0.62,0
0.027407,-0.00060269,0.017544,-0.0020319,0.0046535,0.00017826,0,0,0.050272,-0.026073,0,0.0013905,0,0,0,0.017545,-0.0020336,0.0046535,0.5217,0.0067218,0.017237,1.3589e-07,0.56,0.62,0
0.028412,-0.00055363,0.017469,-0.0021601,0.0045926,9.6049e-05,0,0,0.050218,-0.026336,0,0.00074919,0,0,0,0.017469,-0.0021606,0.0045926,0.28035,0.0066338,0.017274,1.3487e-07,0.58,0.62,0
0.029416,-0.0005503,0.017458,-0.0022295,0.0045687,1.9059e-05,0,0,0.05027,-0.026513,0,0.00014866,0,0,0,0.017458,-0.0022295,0.0045687,0.055466,0.0065992,0.01732,1.3498e-07,0.6,0.62,0
0.030422,-0.0005936,0.017512,-0.0022394,0.0045817,-7.7147e-05,0,0,0.050427,-0.026602,0,-0.00060175,0,0,0,0.017512,-0.0022397,0.0045817,-0.22379,0.006618,0.017376,1.3624e-07,0.62,0.62,0
0.031433,-0.00068453,0.017612,-0.0021569,0.0046365,-0.0002049,0,0,0.050604,-0.026494,0,-0.0015983,0,0,0,0.017614,-0.002159,0.0046365,-0.59379,0.0066972,0.017401,1.3814e-07,0.64,0.62,0
0.032447,-0.00082215,0.017738,-0.0019388,0.0047396,-0.00035066,0,0,0.050692,-0.026046,0,-0.0027352,0,0,0,0.017744,-0.0019451,0.0047396,-1.0207,0.0068461,0.017341,1.3993e-07,0.66,0.62,0
0.033461,-0.001001,0.017873,-0.0015791,0.0048881,-0.00047564,0,0,0.05064,-0.025222,0,-0.00371,0,0,0,0.017884,-0.0015907,0.0048881,-1.3999,0.0070605,0.017178,1.4105e-07,0.68,0.62,0
0.034472,-0.0012103,0.018011,-0.0011296,0.0050645,-0.00054519,0,0,0.050492,-0.024157,0,-0.0042525,0,0,0,0.018027,-0.0011452,0.0050645,-1.6302,0.0073153,0.016943,1.4143e-07,0.7,0.62,0
0.03548,-0.0014363,0.018156,-0.00066871,0.0052461,-0.00054745,0,0,0.050347,-0.023068,0,-0.0042701,0,0,0,0.018172,-0.00068462,0.0052461,-1.6644,0.0075777,0.0167,1.415e-07,0.72,0.62,0
0.036486,-0.001666,0.018311,-0.00025172,0.0054179,-0.00049724,0,0,0.050285,-0.022111,0,-0.0038785,0,0,0,0.018325,-0.00026503,0.0054179,-1.5333,0.0078259,0.016499,1.4182e-07,0.74,0.62,0
0.037492,-0.001889,0.018481,0.00010124,0.0055748,-0.00041458,0,0,0.050336,-0.021347,0,-0.0032337,0,0,0,0.018491,9.189e-05,0.0055748,-1.2915,0.0080524,0.016362,1.4275e-07,0.76,0.62,0
0.038499,-0.0020983,0.018661,0.00038563,0.005714,-0.00031696,0,0,0.050493,-0.020781,0,-0.0024723,0,0,0,0.018666,0.00038014,0.005714,-0.99333,0.0082535,0.016288,1.4436e-07,0.78,0.62,0
0.039511,-0.0022892,0.018845,0.00060385,0.0058347,-0.00021574,0,0,0.050741,-0.0204,0,-0.0016828,0,0,0,0.018848,0.0006013,0.0058347,-0.67752,0.0084279,0.016274,1.4663e-07,0.8,0.62,0
0.040529,-0.0024591,0.019028,0.0007596,0.0059364,-0.00011997,0,0,0.051058,-0.020189,0,-0.00093573,0,0,0,0.019029,0.00075882,0.0059364,-0.37622,0.0085748,0.01631,1.4948e-07,0.82,0.62,0
0.041554,-0.0026069,0.019206,0.0008606,0.0060201,-3.675e-05,0,0,0.051426,-0.020122,0,-0.00028665,0,0,0,0.019206,0.00086053,0.0060201,-0.11478,0.0086957,0.016387,1.5278e-07,0.84,0.62,0
0.042586,-0.0027327,0.019375,0.00091697,0.0060877,2.8767e-05,0,0,0.051821,-0.020166,0,0.00022438,0,0,0,0.019375,0.00091692,0.0060877,0.089295,0.0087933,0.016493,1.5636e-07,0.86,0.62,0
0.043627,-0.0028373,0.019531,0.00094001,0.0061412,7.3911e-05,0,0,0.052219,-0.020285,0,0.0005765,0,0,0,0.019531,0.00093971,0.0061412,0.22779,0.0088706,0.016613,1.6e-07,0.88,0.62,0
0.044675,-0.0029223,0.019669,0.00094067,0.0061828,9.834e-05,0,0,0.052595,-0.020444,0,0.00076705,0,0,0,0.019669,0.00094015,0.0061828,0.30085,0.0089307,0.016735,1.6349e-07,0.9,0.62,0
0.04573,-0.0029891,0.019786,0.00092854,0.0062143,0.00010361,0,0,0.052929,-0.020614,0,0.00080815,0,0,0,0.019786,0.00092797,0.0062143,0.31479,0.0089762,0.016849,1.6661e-07,0.92,0.62,0
0.046792,-0.0030392,0.019879,0.00091142,0.0062372,9.2575e-05,0,0,0.053204,-0.020771,0,0.00072209,0,0,0,0.01988,0.00091097,0.0062372,0.27963,0.0090093,0.016946,1.6921e-07,0.94,0.62,0
0.047859,-0.0030741,0.019947,0.00089518,0.0062528,6.8886e-05,0,0,0.053409,-0.020895,0,0.00053731,0,0,0,0.019948,0.00089494,0.0062528,0.20716,0.0090318,0.017018,1.7114e-07,0.96,0.62,0
0.048928,-0.0030946,0.019989,0.00088387,0.0062618,3.6608e-05,0,0,0.053535,-0.020974,0,0.00028554,0,0,0,0.019989,0.0008838,0.0062618,0.10979,0.0090448,0.017064,1.7234e-07,0.98,0.62,0
0.05,-0.0031013,0.020002,0.00087984,0.0062647,-4.3334e-05,0,0,0.053578,-0.021001,0,-0.000338,0,0,0,0.020003,0.00087974,0.0062647,-0.12984,0.009049,0.017079,1.7275e-07,1,0.62,0
0,0,0.018972,0.0081308,0.0081308,-0.0019757,0,0,0.04228,-5.421e-20,0,-0.015411,0,0,0,0.019321,0.007782,0.0081308,-10.013,0.011744,0.011368,7.5221e-08,0,0.64,0
0.0008456,-0.00030821,0.018929,0.0076166,0.0079635,-0.0019674,0,0,0.042763,-0.0013529,0,-0.015346,0,0,0,0.019261,0.0072842,0.0079635,-9.5902,0.011503,0.011652,8.0317e-08,0.02,0.64,0
0.0017105,-0.00059966,0.019096,0.0071819,0.0078834,-0.0019077,0,0,0.04373,-0.002736,0,-0.01488,0,0,0,0.019394,0.0068839,0.0078834,-8.8787,0.011387,0.012042,8.7598e-08,0.04,0.64,0
0.0025948,-0.0008746,0.019259,0.0067434,0.0078006,-0.0018495,0,0,0.044686,-0.0041228,0,-0.014426,0,0,0,0.019526,0.0064758,0.0078006,-8.2329,0.011267,0.012441,9.5125e-08,0.06,0.64,0
0.003498,-0.0011329,0.019411,0.0063083,0.0077158,-0.0017901,0,0,0.045611,-0.005489,0,-0.013963,0,0,0,0.019651,0.0060681,0.0077158,-7.6415,0.011145,0.012839,1.0268e-07,0.08,0.64,0
0.0044192,-0.0013743,0.019549,0.0058828,0.0076296,-0.0017277,0,0,0.046487,-0.0068125,0,-0.013476,0,0,0,0.019764,0.0056678,0.0076296,-7.0946,0.011021,0.013225,1.1004e-07,0.1,0.64,0
0.0053574,-0.001598,0.01967,0.0054725,0.0075427,-0.0016607,0,0,0.047296,-0.0080739,0,-0.012953,0,0,0,0.019862,0.0052808,0.0075427,-6.5836,0.010895,0.013592,1.1701e-07,0.12,0.64,0
0.0063111,-0.0018033,0.019769,0.0050817,0.0074553,-0.0015881,0,0,0.048024,-0.0092569,0,-0.012387,0,0,0,0.019939,0.0049119,0.0074553,-6.1014,0.010769,0.013931,1.2339e-07,0.14,0.64,0
0.0072784,-0.0019892,0.019845,0.004714,0.0073676,-0.0015093,0,0,0.048661,-0.010349,0,-0.011772,0,0,0,0.019994,0.0045649,0.0073676,-5.6411,0.010642,0.014236,1.2903e-07,0.16,0.64,0
0.0082575,-0.0021548,0.019859,0.0043588,0.0072654,-0.0014604,0,0,0.049116,-0.011336,0,-0.011391,0,0,0,0.019996,0.0042224,0.0072654,-5.3357,0.010495,0.014493,1.3342e-07,0.18,0.64,0
0.0092463,-0.0022988,0.019922,0.0040677,0.0071969,-0.0013797,0,0,0.049627,-0.012204,0,-0.010761,0,0,0,0.020041,0.0039486,0.0071969,-4.9365,0.010396,0.014739,1.3791e-07,0.2,0.64,0
0.010243,-0.0024203,0.019918,0.0037817,0.0071099,-0.0012859,0,0,0.049951,-0.01298,0,-0.01003,0,0,0,0.02002,0.0036799,0.0071099,-4.528,0.01027,0.014923,1.4077e-07,0.22,0.64,0
0.011244,-0.0025178,0.019892,0.0035089,0.0070202,-0.0011125,0,0,0.0502,-0.013694,0,-0.0086772,0,0,0,0.019967,0.0034337,0.0070202,-3.8669,0.01014,0.015064,1.4258e-07,0.24,0.64,0
0.012249,-0.0025903,0.019814,0.0032459,0.006918,-0.00099562,0,0,0.050295,-0.014321,0,-0.0077658,0,0,0,0.019874,0.0031863,0.006918,-3.4266,0.0099926,0.01517,1.4337e-07,0.26,0.64,0
0.013256,-0.0026365,0.019727,0.0030097,0.006821,-0.00086239,0,0,0.050333,-0.014864,0,-0.0067267,0,0,0,0.019771,0.0029654,0.006821,-2.9453,0.0098525,0.015248,1.4359e-07,0.28,0.64,0
0.014263,-0.0026552,0.019617,0.0027794,0.0067188,-0.00071684,0,0,0.050301,-0.015364,0,-0.0055914,0,0,0,0.019647,0.002749,0.0067188,-2.4335,0.009705,0.015304,1.4319e-07,0.3,0.64,0
0.015268,-0.0026454,0.019487,0.0025459,0.00661,-0.00055898,0,0,0.050222,-0.01585,0,-0.0043601,0,0,0,0.019506,0.0025275,0.00661,-1.8877,0.0095478,0.01535,1.424e-07,0.32,0.64,0
0.016272,-0.0026066,0.019363,0.0023286,0.0065074,-0.00045804,0,0,0.050136,-0.016297,0,-0.0035727,0,0,0,0.019375,0.0023163,0.0065074,-1.5392,0.0093996,0.015397,1.4169e-07,0.34,0.64,0
0.017273,-0.0025385,0.019228,0.002118,0.0064038,-0.00033148,0,0,0.050014,-0.016714,0,-0.0025856,0,0,0,0.019234,0.0021116,0.0064038,-1.1095,0.0092499,0.015431,1.4065e-07,0.36,0.64,0
0.018272,-0.002442,0.019042,0.0017561,0.0062393,-4.5828e-05,0,0,0.049929,-0.017485,0,-0.00035746,0,0,0,0.019042,0.001756,0.0062393,-0.1519,0.0090123,0.015537,1.3993e-07,0.38,0.64,0
0.01927,-0.0023188,0.018875,0.0013796,0.0060764,0.00014493,0,0,0.049915,-0.018318,0,0.0011305,0,0,0,0.018876,0.0013784,0.0060764,0.4746,0.0087771,0.015686,1.3992e-07,0.4,0.64,0
0.020269,-0.0021721,0.018726,0.0009872,0.005914,0.00030984,0,0,0.049968,-0.019215,0,0.0024168,0,0,0,0.018732,0.00098179,0.005914,1.0004,0.0085425,0.01587,1.404e-07,0.42,0.64,0
0.021269,-0.002007,0.01859,0.00054646,0.005741,0.00045029,0,0,0.050112,-0.020259,0,0.0035122,0,0,0,0.018601,0.00053523,0.005741,1.4286,0.0082926,0.016107,1.4148e-07,0.44,0.64,0
0.022273,-0.0018304,0.018469,6.3372e-05,0.0055599,0.00055155,0,0,0.050348,-0.021436,0,0.0043021,0,0,0,0.018486,4.686e-05,0.0055599,1.7148,0.0080309,0.016393,1.4302e-07,0.46,0.64,0
0.023283,-0.0016517,0.018363,-0.00044187,0.0053763,0.00059857,0,0,0.050648,-0.022691,0,0.0046688,0,0,0,0.018382,-0.00046091,0.0053763,1.8213,0.0077658,0.016707,1.447e-07,0.48,0.64,0
0.024299,-0.0014818,0.018266,-0.00093218,0.0052002,0.00058338,0,0,0.050958,-0.023916,0,0.0045504,0,0,0,0.018284,-0.00094989,0.0052002,1.7389,0.0075114,0.017014,1.4607e-07,0.5,0.64,0
0.025321,-0.001332,0.018177,-0.0013619,0.0050444,0.00051106,0,0,0.051215,-0.024984,0,0.0039862,0,0,0,0.01819,-0.0013752,0.0050444,1.4973,0.0072864,0.017274,1.4681e-07,0.52,0.64,0
0.026348,-0.001212,0.018095,-0.0016971,0.0049194,0.00040011,0,0,0.051385,-0.025804,0,0.0031209,0,0,0,0.018103,-0.0017052,0.0049194,1.1576,0.0071058,0.017465,1.4689e-07,0.54,0.64,0
0.027377,-0.0011287,0.018028,-0.00193,0.0048294,0.00027149,0,0,0.051475,-0.026362,0,0.0021176,0,0,0,0.018032,-0.0019337,0.0048294,0.7792,0.0069758,0.017588,1.466e-07,0.56,0.64,0
0.028407,-0.001086,0.017985,-0.0020717,0.004774,0.00013787,0,0,0.051523,-0.026699,0,0.0010754,0,0,0,0.017986,-0.0020727,0.004774,0.39382,0.0068958,0.017661,1.4633e-07,0.58,0.64,0
0.029438,-0.001086,0.017973,-0.0021343,0.0047517,-2.8035e-07,0,0,0.051564,-0.026855,0,-2.1867e-06,0,0,0,0.017973,-0.0021343,0.0047517,-0.00079885,0.0068635,0.017699,1.4637e-07,0.6,0.64,0
0.030469,-0.0011296,0.017992,-0.002117,0.0047625,-0.0001475,0,0,0.051595,-0.02683,0,-0.0011505,0,0,0,0.017993,-0.0021181,0.0047625,-0.42023,0.0068792,0.017704,1.4675e-07,0.62,0.64,0
0.031502,-0.0012162,0.018034,-0.0020061,0.0048083,-0.00030291,0,0,0.051579,-0.026576,0,-0.0023627,0,0,0,0.018038,-0.0020107,0.0048083,-0.86579,0.0069453,0.017656,1.4721e-07,0.64,0.64,0
0.032532,-0.0013436,0.018088,-0.001789,0.0048898,-0.00045284,0,0,0.051474,-0.026047,0,-0.0035321,0,0,0,0.018099,-0.0017993,0.0048898,-1.3044,0.0070631,0.017538,1.4737e-07,0.66,0.64,0
0.03356,-0.0015061,0.018149,-0.0014724,0.0050031,-0.00057456,0,0,0.05127,-0.025254,0,-0.0044816,0,0,0,0.018166,-0.0014892,0.0050031,-1.6758,0.0072267,0.017346,1.47e-07,0.68,0.64,0
0.034583,-0.0016951,0.018215,-0.0010905,0.0051375,-0.00064735,0,0,0.051004,-0.024289,0,-0.0050493,0,0,0,0.018237,-0.0011122,0.0051375,-1.9183,0.0074208,0.017103,1.4612e-07,0.7,0.64,0
0.035601,-0.0019002,0.01829,-0.00069131,0.0052797,-0.00066409,0,0,0.050742,-0.023287,0,-0.0051799,0,0,0,0.018314,-0.00071451,0.0052797,-2.0013,0.0076263,0.016851,1.4503e-07,0.72,0.64,0
0.036613,-0.0021109,0.01838,-0.00031496,0.0054194,-0.00063134,0,0,0.050545,-0.022364,0,-0.0049244,0,0,0,0.018401,-0.00033625,0.0054194,-1.932,0.007828,0.016624,1.4416e-07,0.74,0.64,0
0.037622,-0.0023183,0.018485,1.495e-05,0.0055501,-0.00056348,0,0,0.050448,-0.021587,0,-0.0043952,0,0,0,0.018503,-2.2245e-06,0.0055501,-1.7458,0.0080168,0.016447,1.4381e-07,0.76,0.64,0
0.038631,-0.0025157,0.018607,0.00028921,0.0056688,-0.00047511,0,0,0.050458,-0.02098,0,-0.0037059,0,0,0,0.018619,0.00027689,0.0056688,-1.4848,0.0081883,0.016328,1.4416e-07,0.78,0.64,0
0.039641,-0.0026983,0.01874,0.00050625,0.0057738,-0.00037849,0,0,0.050567,-0.020543,0,-0.0029522,0,0,0,0.018748,0.0004984,0.0057738,-1.1887,0.0083399,0.016266,1.4521e-07,0.8,0.64,0
0.040654,-0.0028632,0.018879,0.0006691,0.0058644,-0.00028297,0,0,0.050757,-0.020262,0,-0.0022071,0,0,0,0.018883,0.00066471,0.0058644,-0.89004,0.0084708,0.016255,1.4689e-07,0.82,0.64,0
0.041671,-0.0030088,0.01902,0.00078351,0.0059409,-0.00019561,0,0,0.051007,-0.020114,0,-0.0015257,0,0,0,0.019022,0.00078141,0.0059409,-0.61449,0.0085813,0.016286,1.4909e-07,0.84,0.64,0
0.042694,-0.0031346,0.019157,0.00085734,0.0060042,-0.00012133,0,0,0.051294,-0.020073,0,-0.00094635,0,0,0,0.019157,0.00085653,0.0060042,-0.37986,0.0086727,0.016347,1.5163e-07,0.86,0.64,0
0.043723,-0.0032407,0.019285,0.00089944,0.0060554,-6.2927e-05,0,0,0.051596,-0.020108,0,-0.00049083,0,0,0,0.019286,0.00089922,0.0060554,-0.1961,0.0087467,0.016427,1.5433e-07,0.88,0.64,0
0.044758,-0.0033281,0.019401,0.00091867,0.006096,-2.1256e-05,0,0,0.051891,-0.020192,0,-0.0001658,0,0,0,0.019401,0.00091864,0.006096,-0.065893,0.0088054,0.016515,1.5699e-07,0.9,0.64,0
0.045798,-0.0033976,0.019501,0.0009231,0.0061274,4.4877e-06,0,0,0.052159,-0.020297,0,3.5004e-05,0,0,0,0.019501,0.0009231,0.0061274,0.01384,0.0088506,0.0166,1.5943e-07,0.92,0.64,0
0.046844,-0.0034503,0.019582,0.00091951,0.0061505,1.6349e-05,0,0,0.052383,-0.020401,0,0.00012752,0,0,0,0.019582,0.0009195,0.0061505,0.050193,0.008884,0.016674,1.6149e-07,0.94,0.64,0
0.047894,-0.0034873,0.019641,0.00091322,0.0061663,1.7223e-05,0,0,0.052552,-0.020487,0,0.00013434,0,0,0,0.019641,0.0009132,0.0061663,0.052692,0.0089069,0.016732,1.6305e-07,0.96,0.64,0
0.048946,-0.0035091,0.019677,0.00090796,0.0061756,1.0534e-05,0,0,0.052657,-0.020544,0,8.2168e-05,0,0,0,0.019677,0.00090796,0.0061756,0.032157,0.0089203,0.016768,1.6402e-07,0.98,0.64,0
0.05,-0.0035163,0.019689,0.00090596,0.0061786,-4.6327e-05,0,0,0.052692,-0.020563,0,-0.00036135,0,0,0,0.01969,0.00090585,0.0061786,-0.14131,0.0089247,0.016781,1.6436e-07,1,0.64,0
0,0,0.018819,0.0080655,0.0080655,-0.0021479,0,0,0.04194,3.2526e-19,0,-0.016754,0,0,0,0.019233,0.0076524,0.0080655,-10.887,0.01165,0.011379,7.5342e-08,0,0.66,0
0.00083881,-0.00033507,0.018777,0.0075559,0.0078998,-0.0021378,0,0,0.042421,-0.0013414,0,-0.016675,0,0,0,0.01917,0.0071624,0.0078998,-10.429,0.011411,0.011657,8.0253e-08,0.02,0.66,0
0.0016968,-0.00065408,0.018943,0.0071213,0.0078194,-0.0020753,0,0,0.043383,-0.0027224,0,-0.016187,0,0,0,0.019297,0.0067676,0.0078194,-9.6728,0.011295,0.012038,8.7294e-08,0.04,0.66,0
0.0025741,-0.00095673,0.019105,0.0066804,0.0077355,-0.0020093,0,0,0.04434,-0.004115,0,-0.015673,0,0,0,0.019422,0.0063635,0.0077355,-8.9619,0.011173,0.012429,9.4572e-08,0.06,0.66,0
0.0034704,-0.0012424,0.019256,0.0062407,0.0076491,-0.0019377,0,0,0.045268,-0.0054926,0,-0.015114,0,0,0,0.019539,0.0059584,0.0076491,-8.2906,0.011049,0.012819,1.0187e-07,0.08,0.66,0
0.0043849,-0.0015103,0.019394,0.0058092,0.0075609,-0.0018589,0,0,0.046148,-0.0068314,0,-0.0145,0,0,0,0.019643,0.0055594,0.0075609,-7.6531,0.010921,0.013198,1.0896e-07,0.1,0.66,0
0.0053163,-0.0017594,0.019513,0.005392,0.0074715,-0.001772,0,0,0.046962,-0.00811,0,-0.013821,0,0,0,0.019732,0.005173,0.0074715,-7.0443,0.010792,0.013557,1.1566e-07,0.12,0.66,0
0.0062633,-0.0019885,0.019611,0.004994,0.0073815,-0.0016764,0,0,0.047695,-0.0093113,0,-0.013076,0,0,0,0.019801,0.0048042,0.0073815,-6.4596,0.010662,0.013888,1.2177e-07,0.14,0.66,0
0.0072241,-0.0021964,0.019685,0.0046188,0.0072911,-0.0015723,0,0,0.048336,-0.010422,0,-0.012264,0,0,0,0.019847,0.0044564,0.0072911,-5.8947,0.010532,0.014188,1.2716e-07,0.16,0.66,0
0.0081968,-0.002382,0.019692,0.0042418,0.0071801,-0.0014701,0,0,0.048796,-0.011459,0,-0.011467,0,0,0,0.019831,0.0041032,0.0071801,-5.3872,0.010371,0.014437,1.3119e-07,0.18,0.66,0
0.0091792,-0.002544,0.019739,0.0039058,0.0070933,-0.0012873,0,0,0.049317,-0.012431,0,-0.010041,0,0,0,0.019843,0.0038018,0.0070933,-4.618,0.010246,0.014675,1.3518e-07,0.2,0.66,0
0.010169,-0.0026815,0.019731,0.0036006,0.0069995,-0.0011502,0,0,0.049653,-0.013256,0,-0.0089718,0,0,0,0.019813,0.0035189,0.0069995,-4.0583,0.01011,0.014862,1.3794e-07,0.22,0.66,0
0.011165,-0.0027932,0.019726,0.0033564,0.0069247,-0.00102,0,0,0.049924,-0.013916,0,-0.0079563,0,0,0,0.019789,0.0032931,0.0069247,-3.552,0.010002,0.015013,1.4011e-07,0.24,0.66,0
0.012165,-0.0028782,0.019663,0.0031078,0.0068311,-0.00092351,0,0,0.050043,-0.014521,0,-0.0072034,0,0,0,0.019714,0.0030564,0.0068311,-3.1831,0.0098672,0.015128,1.4118e-07,0.26,0.66,0
0.013167,-0.0029357,0.019585,0.0028612,0.0067338,-0.0007674,0,0,0.050119,-0.015103,0,-0.0059857,0,0,0,0.01962,0.0028261,0.0067338,-2.6218,0.0097266,0.015221,1.4166e-07,0.28,0.66,0
0.01417,-0.0029649,0.019488,0.0026204,0.0066325,-0.00060244,0,0,0.050136,-0.015647,0,-0.004699,0,0,0,0.019509,0.0025989,0.0066325,-2.0429,0.0095803,0.015298,1.4168e-07,0.3,0.66,0
0.015173,-0.0029653,0.019377,0.0023772,0.0065261,-0.00042947,0,0,0.050117,-0.016181,0,-0.0033499,0,0,0,0.019387,0.0023663,0.0065261,-1.4463,0.0094266,0.015369,1.4143e-07,0.32,0.66,0
0.016175,-0.0029371,0.019245,0.0020933,0.0064014,-0.00024688,0,0,0.050089,-0.016802,0,-0.0019256,0,0,0,0.019248,0.0020897,0.0064014,-0.82449,0.0092464,0.01546,1.412e-07,0.34,0.66,0
0.017176,-0.0028808,0.019086,0.0017492,0.0062507,3.7484e-05,0,0,0.05006,-0.017556,0,0.00029237,0,0,0,0.019087,0.0017491,0.0062507,0.12387,0.0090288,0.015582,1.4103e-07,0.36,0.66,0
0.018177,-0.0027976,0.018992,0.0015131,0.0061514,0.00017407,0,0,0.050077,-0.018089,0,0.0013577,0,0,0,0.018993,0.0015114,0.0061514,0.57053,0.0088854,0.015685,1.4129e-07,0.38,0.66,0
0.019179,-0.0026899,0.018885,0.0012111,0.0060288,0.00028202,0,0,0.050139,-0.018789,0,0.0021998,0,0,0,0.01889,0.0012066,0.0060288,0.91396,0.0087083,0.015832,1.419e-07,0.4,0.66,0
0.020182,-0.0025612,0.018777,0.00083811,0.0058846,0.00043497,0,0,0.050282,-0.019682,0,0.0033928,0,0,0,0.018788,0.00082756,0.0058846,1.3881,0.0085,0.016041,1.4314e-07,0.42,0.66,0
0.02119,-0.0024168,0.018684,0.00042909,0.0057341,0.00055925,0,0,0.050507,-0.020689,0,0.0043621,0,0,0,0.018702,0.00041198,0.0057341,1.753,0.0082826,0.016294,1.449e-07,0.44,0.66,0
0.022203,-0.0022631,0.018607,-7.4336e-06,0.00558,0.00064302,0,0,0.050807,-0.021791,0,0.0050156,0,0,0,0.01863,-2.9619e-05,0.00558,1.9761,0.00806,0.016582,1.4703e-07,0.46,0.66,0
0.023222,-0.0021084,0.018544,-0.00045347,0.0054273,0.0006761,0,0,0.051157,-0.022935,0,0.0052736,0,0,0,0.018568,-0.0004775,0.0054273,2.0356,0.0078394,0.016886,1.4924e-07,0.48,0.66,0
0.024249,-0.0019618,0.018491,-0.00088175,0.0052829,0.00065364,0,0,0.051513,-0.024042,0,0.0050984,0,0,0,0.018513,-0.00090378,0.0052829,1.9302,0.0076308,0.017181,1.5121e-07,0.5,0.66,0
0.025283,-0.0018326,0.018445,-0.0012618,0.005155,0.00057924,0,0,0.051831,-0.025025,0,0.0045181,0,0,0,0.018462,-0.0012788,0.005155,1.6822,0.0074461,0.017438,1.5268e-07,0.52,0.66,0
0.026322,-0.0017289,0.018404,-0.0015693,0.0050503,0.00046402,0,0,0.052078,-0.025816,0,0.0036193,0,0,0,0.018414,-0.00158,0.0050503,1.3302,0.0072949,0.01764,1.5358e-07,0.54,0.66,0
0.027366,-0.0016572,0.018369,-0.0017927,0.0049728,0.00032199,0,0,0.052244,-0.026385,0,0.0025115,0,0,0,0.018374,-0.0017978,0.0049728,0.91474,0.0071829,0.017781,1.5401e-07,0.56,0.66,0
0.028412,-0.0016216,0.018343,-0.0019311,0.0049236,0.00016446,0,0,0.052336,-0.026734,0,0.0012828,0,0,0,0.018344,-0.0019325,0.0049236,0.46472,0.0071119,0.017864,1.5414e-07,0.58,0.66,0
0.029459,-0.0016245,0.01833,-0.0019871,0.0049028,-1.8333e-06,0,0,0.052365,-0.02687,0,-1.43e-05,0,0,0,0.01833,-0.0019871,0.0049028,-0.0051702,0.0070818,0.017896,1.5412e-07,0.6,0.66,0
0.030507,-0.0016668,0.018328,-0.0019598,0.0049105,-0.00017228,0,0,0.052329,-0.026794,0,-0.0013438,0,0,0,0.01833,-0.0019612,0.0049105,-0.48651,0.0070929,0.017875,1.5395e-07,0.62,0.66,0
0.031552,-0.0017476,0.018335,-0.0018458,0.0049467,-0.00033972,0,0,0.052214,-0.026491,0,-0.0026498,0,0,0,0.018341,-0.0018515,0.0049467,-0.96413,0.0071453,0.017795,1.5354e-07,0.64,0.66,0
0.032595,-0.001864,0.018347,-0.001645,0.0050105,-0.00049192,0,0,0.052011,-0.025957,0,-0.0038369,0,0,0,0.018359,-0.0016571,0.0050105,-1.4087,0.0072374,0.017653,1.5273e-07,0.66,0.66,0
0.033633,-0.0020112,0.018361,-0.0013687,0.0050978,-0.00061351,0,0,0.051728,-0.025219,0,-0.0047854,0,0,0,0.018381,-0.0013877,0.0050978,-1.7793,0.0073635,0.017454,1.5146e-07,0.68,0.66,0
0.034664,-0.0021819,0.018381,-0.0010416,0.0052019,-0.0006918,0,0,0.051399,-0.024349,0,-0.005396,0,0,0,0.018406,-0.0010662,0.0052019,-2.0373,0.0075138,0.017216,1.498e-07,0.7,0.66,0
0.035689,-0.0023678,0.01841,-0.00069589,0.0053141,-0.00072168,0,0,0.051072,-0.023439,0,-0.0056291,0,0,0,0.018437,-0.00072311,0.0053141,-2.1601,0.0076759,0.016967,1.4801e-07,0.72,0.66,0
0.036707,-0.0025605,0.018452,-0.00036135,0.0054271,-0.00070689,0,0,0.050796,-0.022575,0,-0.0055137,0,0,0,0.018478,-0.00038787,0.0054271,-2.1488,0.0078392,0.016734,1.4639e-07,0.74,0.66,0
0.037721,-0.0027525,0.018511,-5.873e-05,0.0055356,-0.00065696,0,0,0.050603,-0.021818,0,-0.0051243,0,0,0,0.018534,-8.1943e-05,0.0055356,-2.0237,0.0079958,0.016539,1.4521e-07,0.76,0.66,0
0.038731,-0.0029375,0.018586,0.00020067,0.005636,-0.00058349,0,0,0.050505,-0.021198,0,-0.0045512,0,0,0,0.018604,0.00018217,0.005636,-1.8159,0.0081408,0.016391,1.4463e-07,0.78,0.66,0
0.039741,-0.0031109,0.018676,0.0004129,0.0057265,-0.00049732,0,0,0.050501,-0.020723,0,-0.0038791,0,0,0,0.018689,0.00039936,0.0057265,-1.5587,0.0082716,0.016293,1.4472e-07,0.8,0.66,0
0.040751,-0.0032695,0.018775,0.00057872,0.0058062,-0.00040749,0,0,0.050579,-0.020387,0,-0.0031784,0,0,0,0.018784,0.00056959,0.0058062,-1.2822,0.0083867,0.016242,1.4543e-07,0.82,0.66,0
0.041764,-0.0034114,0.018881,0.00070203,0.0058748,-0.00032095,0,0,0.050723,-0.020174,0,-0.0025034,0,0,0,0.018886,0.00069637,0.0058748,-1.0111,0.0084858,0.016233,1.4666e-07,0.84,0.66,0
0.04278,-0.0035356,0.018987,0.00078868,0.0059326,-0.00024266,0,0,0.050911,-0.020061,0,-0.0018927,0,0,0,0.01899,0.00078544,0.0059326,-0.76382,0.0085693,0.016254,1.4829e-07,0.86,0.66,0
0.0438,-0.0036417,0.019089,0.00084552,0.0059803,-0.00017567,0,0,0.051123,-0.020026,0,-0.0013702,0,0,0,0.01909,0.00084383,0.0059803,-0.55166,0.0086382,0.016297,1.5014e-07,0.88,0.66,0
0.044825,-0.00373,0.019183,0.00087967,0.0060187,-0.00012133,0,0,0.05134,-0.020042,0,-0.00094635,0,0,0,0.019183,0.00087887,0.0060187,-0.37978,0.0086937,0.016352,1.5204e-07,0.9,0.66,0
0.045854,-0.0038009,0.019265,0.00089779,0.0060488,-7.9488e-05,0,0,0.051542,-0.020089,0,-0.00062001,0,0,0,0.019265,0.00089744,0.0060488,-0.24796,0.0087371,0.01641,1.5385e-07,0.92,0.66,0
0.046887,-0.0038553,0.019332,0.00090566,0.0060712,-4.8856e-05,0,0,0.051716,-0.020146,0,-0.00038108,0,0,0,0.019332,0.00090553,0.0060712,-0.15192,0.0087695,0.016463,1.554e-07,0.94,0.66,0
0.047923,-0.0038935,0.019381,0.00090793,0.0060868,-2.7277e-05,0,0,0.051849,-0.020197,0,-0.00021276,0,0,0,0.019381,0.00090789,0.0060868,-0.0846,0.008792,0.016505,1.566e-07,0.96,0.66,0
0.048961,-0.0039163,0.019412,0.00090795,0.0060959,-1.2018e-05,0,0,0.051931,-0.020233,0,-9.374e-05,0,0,0,0.019412,0.00090794,0.0060959,-0.037213,0.0088052,0.016532,1.5735e-07,0.98,0.66,0
0.05,-0.0039239,0.019422,0.00090773,0.0060989,-4.8372e-05,0,0,0.05196,-0.020245,0,-0.0003773,0,0,0,0.019422,0.0009076,0.0060989,-0.14969,0.0088095,0.016542,1.5761e-07,1,0.66,0
0,0,0.018682,0.0080067,0.0080067,-0.0023197,0,0,0.041635,-2.1684e-19,0,-0.018094,0,0,0,0.019165,0.0075244,0.0080067,-11.744,0.011565,0.011407,7.5765e-08,0,0.68,0
0.00083269,-0.00036187,0.01864,0.0074951,0.0078405,-0.0023078,0,0,0.042118,-0.0013471,0,-0.018001,0,0,0,0.019099,0.0070361,0.0078405,-11.248,0.011325,0.011681,8.0559e-08,0.02,0.68,0
0.0016847,-0.00070856,0.018807,0.0070556,0.0077588,-0.0022429,0,0,0.043089,-0.0027427,0,-0.017495,0,0,0,0.019221,0.006642,0.0077588,-10.447,0.011207,0.012059,8.7469e-08,0.04,0.68,0
0.0025562,-0.0010392,0.01897,0.0066072,0.0076731,-0.0021695,0,0,0.044057,-0.0041568,0,-0.016922,0,0,0,0.019339,0.0062376,0.0076731,-9.6699,0.011083,0.012446,9.4598e-08,0.06,0.68,0
0.003447,-0.0013526,0.019123,0.0061585,0.0075843,-0.0020855,0,0,0.044999,-0.0055607,0,-0.016267,0,0,0,0.01945,0.0058312,0.0075843,-8.9176,0.010955,0.012832,1.0173e-07,0.08,0.68,0
0.0043562,-0.0016475,0.019261,0.005717,0.0074934,-0.00199,0,0,0.045893,-0.0069278,0,-0.015522,0,0,0,0.019547,0.0054307,0.0074934,-8.1881,0.010824,0.013207,1.0864e-07,0.1,0.68,0
0.0052827,-0.0019224,0.019381,0.0052896,0.0074011,-0.0018827,0,0,0.046721,-0.008235,0,-0.014685,0,0,0,0.019628,0.0050424,0.0074011,-7.4804,0.010691,0.013561,1.1513e-07,0.12,0.68,0
0.006225,-0.0021757,0.019479,0.0048817,0.0073082,-0.0017638,0,0,0.047466,-0.0094634,0,-0.013758,0,0,0,0.019689,0.0046716,0.0073082,-6.793,0.010556,0.013888,1.2104e-07,0.14,0.68,0
0.0071814,-0.0024061,0.019553,0.0044972,0.007215,-0.0016343,0,0,0.048118,-0.0106,0,-0.012748,0,0,0,0.019728,0.0043218,0.007215,-6.1244,0.010422,0.014183,1.2622e-07,0.16,0.68,0
0.0081498,-0.0026122,0.019602,0.0041383,0.0071219,-0.001495,0,0,0.04867,-0.011636,0,-0.011661,0,0,0,0.019745,0.0039951,0.0071219,-5.472,0.010287,0.014442,1.306e-07,0.18,0.68,0
0.0091282,-0.0027927,0.019624,0.0038057,0.0070289,-0.0013471,0,0,0.04912,-0.01257,0,-0.010507,0,0,0,0.019738,0.0036918,0.0070289,-4.8328,0.010153,0.014665,1.3414e-07,0.2,0.68,0
0.010115,-0.0029466,0.019621,0.0034983,0.0069357,-0.0011912,0,0,0.049472,-0.013406,0,-0.0092915,0,0,0,0.019708,0.0034108,0.0069357,-4.2029,0.010018,0.014852,1.3685e-07,0.22,0.68,0
0.011107,-0.003073,0.019593,0.0032133,0.006842,-0.0010282,0,0,0.04973,-0.014152,0,-0.0080203,0,0,0,0.019658,0.0031491,0.006842,-3.578,0.0098829,0.015007,1.3878e-07,0.24,0.68,0
0.012104,-0.0031712,0.019544,0.0029467,0.0067472,-0.00085873,0,0,0.049908,-0.014822,0,-0.0066981,0,0,0,0.019588,0.0029024,0.0067472,-2.9539,0.009746,0.015134,1.4005e-07,0.26,0.68,0
0.013103,-0.0032406,0.019476,0.002693,0.0066506,-0.00068333,0,0,0.050018,-0.015435,0,-0.00533,0,0,0,0.019503,0.0026652,0.0066506,-2.3277,0.0096064,0.015241,1.4079e-07,0.28,0.68,0
0.014105,-0.0032811,0.019392,0.0024456,0.0065513,-0.00050299,0,0,0.050079,-0.016012,0,-0.0039233,0,0,0,0.019407,0.0024307,0.0065513,-1.6986,0.009463,0.015337,1.4117e-07,0.3,0.68,0
0.015107,-0.0032927,0.019297,0.0021974,0.0064484,-0.0003192,0,0,0.050111,-0.016579,0,-0.0024898,0,0,0,0.019303,0.0021915,0.0064484,-1.0691,0.0093144,0.01543,1.4139e-07,0.32,0.68,0
0.016109,-0.0032759,0.019196,0.0019407,0.0063412,-0.00013439,0,0,0.050136,-0.017162,0,-0.0010482,0,0,0,0.019197,0.0019397,0.0063412,-0.44618,0.0091595,0.015532,1.4162e-07,0.34,0.68,0
0.017112,-0.0032319,0.019095,0.0016683,0.0062289,4.79e-05,0,0,0.050176,-0.017786,0,0.00037362,0,0,0,0.019095,0.0016681,0.0062289,0.15749,0.0089972,0.015653,1.4205e-07,0.36,0.68,0
0.018116,-0.0031625,0.018997,0.0013737,0.0061111,0.00022269,0,0,0.050254,-0.018476,0,0.001737,0,0,0,0.018999,0.0013709,0.0061111,0.72384,0.0088272,0.015801,1.4284e-07,0.38,0.68,0
0.019122,-0.0030704,0.018907,0.0010526,0.005988,0.00038346,0,0,0.050386,-0.019248,0,0.002991,0,0,0,0.018916,0.0010444,0.005988,1.2298,0.0086493,0.015984,1.4407e-07,0.4,0.68,0
0.020131,-0.0029594,0.018831,0.00070347,0.0058602,0.00052224,0,0,0.050584,-0.020111,0,0.0040735,0,0,0,0.018846,0.00068844,0.0058602,1.6488,0.0084648,0.016203,1.4578e-07,0.42,0.68,0
0.021145,-0.0028346,0.018769,0.0003291,0.0057293,0.00062996,0,0,0.050853,-0.021061,0,0.0049137,0,0,0,0.01879,0.00030761,0.0057293,1.9544,0.0082756,0.016456,1.4791e-07,0.44,0.68,0
0.022166,-0.0027021,0.018721,-6.194e-05,0.0055977,0.00069763,0,0,0.051181,-0.022073,0,0.0054415,0,0,0,0.018747,-8.7815e-05,0.0055977,2.1242,0.0080856,0.016733,1.5032e-07,0.46,0.68,0
0.023193,-0.0025691,0.018686,-0.00045462,0.0054695,0.00071817,0,0,0.051545,-0.023104,0,0.0056018,0,0,0,0.018713,-0.00048153,0.0054695,2.1458,0.0079004,0.017018,1.5276e-07,0.48,0.68,0
0.024227,-0.0024435,0.01866,-0.00082862,0.0053495,0.00068868,0,0,0.051912,-0.024095,0,0.0053717,0,0,0,0.018685,-0.00085292,0.0053495,2.0213,0.0077271,0.017292,1.5499e-07,0.5,0.68,0
0.025269,-0.002333,0.01864,-0.001162,0.0052433,0.00061173,0,0,0.052246,-0.024981,0,0.0047715,0,0,0,0.018659,-0.0011809,0.0052433,1.7678,0.0075736,0.017533,1.568e-07,0.52,0.68,0
0.026317,-0.0022447,0.018621,-0.0014364,0.0051554,0.00049495,0,0,0.052517,-0.025708,0,0.0038606,0,0,0,0.018633,-0.0014486,0.0051554,1.4127,0.0074468,0.017728,1.5809e-07,0.54,0.68,0
0.02737,-0.0021841,0.018604,-0.0016398,0.0050892,0.00034865,0,0,0.052707,-0.026243,0,0.0027194,0,0,0,0.01861,-0.0016458,0.0050892,0.98638,0.0073511,0.017867,1.5886e-07,0.56,0.68,0
0.028425,-0.0021554,0.018588,-0.0017672,0.0050462,0.00018309,0,0,0.052812,-0.026572,0,0.0014281,0,0,0,0.018589,-0.0017688,0.0050462,0.5153,0.007289,0.017949,1.5917e-07,0.58,0.68,0
0.029482,-0.0021609,0.018573,-0.0018167,0.0050269,7.242e-06,0,0,0.05283,-0.02669,0,5.6488e-05,0,0,0,0.018573,-0.0018167,0.0050269,0.02035,0.0072611,0.017973,1.5908e-07,0.6,0.68,0
0.030539,-0.0022013,0.01856,-0.0017881,0.0050314,-0.00017051,0,0,0.05276,-0.026596,0,-0.00133,0,0,0,0.018561,-0.0017895,0.0050314,-0.48007,0.0072676,0.017941,1.5859e-07,0.62,0.68,0
0.031593,-0.0022759,0.018546,-0.0016822,0.0050592,-0.00034082,0,0,0.052599,-0.026291,0,-0.0026584,0,0,0,0.018552,-0.0016879,0.0050592,-0.96498,0.0073078,0.01785,1.577e-07,0.64,0.68,0
0.032643,-0.0023818,0.018533,-0.0015037,0.0051086,-0.00049267,0,0,0.052353,-0.025788,0,-0.0038429,0,0,0,0.018545,-0.0015158,0.0051086,-1.4077,0.0073791,0.017704,1.5635e-07,0.66,0.68,0
0.033687,-0.0025149,0.018519,-0.0012645,0.0051764,-0.00061478,0,0,0.052037,-0.025119,0,-0.0047953,0,0,0,0.018538,-0.0012836,0.0051764,-1.7782,0.0074771,0.01751,1.5458e-07,0.68,0.68,0
0.034724,-0.0026691,0.018509,-0.00098366,0.0052577,-0.00069834,0,0,0.051681,-0.024341,0,-0.005447,0,0,0,0.018534,-0.0010087,0.0052577,-2.0491,0.0075945,0.017284,1.5249e-07,0.7,0.68,0
0.035754,-0.0028377,0.018507,-0.00068459,0.0053468,-0.00073969,0,0,0.051326,-0.023522,0,-0.0057696,0,0,0,0.018536,-0.00071305,0.0053468,-2.2039,0.0077231,0.017047,1.5029e-07,0.72,0.68,0
0.036777,-0.0030139,0.018517,-0.00038956,0.0054382,-0.00074089,0,0,0.051007,-0.022728,0,-0.0057789,0,0,0,0.018546,-0.00041855,0.0054382,-2.2407,0.0078551,0.016819,1.4823e-07,0.74,0.68,0
0.037794,-0.003191,0.018541,-0.00011597,0.0055276,-0.00070848,0,0,0.050753,-0.02201,0,-0.0055261,0,0,0,0.018568,-0.00014283,0.0055276,-2.1715,0.0079843,0.016618,1.4652e-07,0.76,0.68,0
0.038807,-0.0033636,0.018582,0.00012511,0.005612,-0.0006512,0,0,0.050581,-0.021399,0,-0.0050793,0,0,0,0.018604,0.00010217,0.005612,-2.0182,0.0081062,0.016454,1.4532e-07,0.78,0.68,0
0.039818,-0.0035272,0.018636,0.00032833,0.0056894,-0.00057806,0,0,0.050493,-0.020908,0,-0.0045089,0,0,0,0.018654,0.00031009,0.0056894,-1.8067,0.008218,0.016333,1.447e-07,0.8,0.68,0
0.040827,-0.0036787,0.018703,0.0004927,0.0057586,-0.00049712,0,0,0.050481,-0.020537,0,-0.0038775,0,0,0,0.018716,0.00047914,0.0057586,-1.5626,0.0083179,0.016254,1.4464e-07,0.82,0.68,0
0.041837,-0.0038158,0.018777,0.00062031,0.0058191,-0.00041494,0,0,0.050535,-0.020275,0,-0.0032365,0,0,0,0.018786,0.00061083,0.0058191,-1.3085,0.0084054,0.016211,1.451e-07,0.84,0.68,0
0.042848,-0.003937,0.018855,0.0007152,0.005871,-0.0003364,0,0,0.050637,-0.020108,0,-0.0026239,0,0,0,0.018861,0.00070896,0.005871,-1.0621,0.0084803,0.0162,1.4595e-07,0.86,0.68,0
0.043862,-0.0040418,0.018932,0.00078254,0.0059144,-0.00026478,0,0,0.050769,-0.020014,0,-0.0020653,0,0,0,0.018936,0.00077868,0.0059144,-0.83564,0.008543,0.016212,1.4707e-07,0.88,0.68,0
0.044879,-0.0041298,0.019005,0.00082791,0.0059498,-0.00020182,0,0,0.050915,-0.019976,0,-0.0015742,0,0,0,0.019007,0.00082567,0.0059498,-0.63605,0.0085942,0.016237,1.4832e-07,0.9,0.68,0
0.045899,-0.0042011,0.019069,0.00085671,0.0059779,-0.00014796,0,0,0.051057,-0.019973,0,-0.0011541,0,0,0,0.019071,0.00085551,0.0059779,-0.46542,0.0086347,0.016271,1.4955e-07,0.92,0.68,0
0.046921,-0.0042562,0.019123,0.00087376,0.005999,-0.00010257,0,0,0.051183,-0.019988,0,-0.00080004,0,0,0,0.019124,0.00087318,0.005999,-0.32201,0.0086653,0.016303,1.5065e-07,0.94,0.68,0
0.047946,-0.0042952,0.019163,0.00088301,0.0060138,-6.4198e-05,0,0,0.051282,-0.02001,0,-0.00050074,0,0,0,0.019163,0.00088279,0.0060138,-0.20122,0.0086866,0.016331,1.5151e-07,0.96,0.68,0
0.048973,-0.0043184,0.019187,0.00088738,0.0060225,-3.0809e-05,0,0,0.051344,-0.020027,0,-0.00024031,0,0,0,0.019188,0.00088733,0.0060225,-0.09646,0.0086991,0.016349,1.5206e-07,0.98,0.68,0
0.05,-0.0043261,0.019196,0.00088864,0.0060253,-4.9552e-05,0,0,0.051365,-0.020033,0,-0.00038651,0,0,0,0.019196,0.00088851,0.0060253,-0.15508,0.0087033,0.016356,1.5225e-07,1,0.68,0
0,0,0.018562,0.0079551,0.0079551,-0.0024933,0,0,0.041367,-5.421e-20,0,-0.019448,0,0,0,0.019119,0.0073982,0.0079551,-12.59,0.011491,0.011452,7.6528e-08,0,0.7,0
0.00082733,-0.00038896,0.018519,0.0074348,0.0077862,-0.0024797,0,0,0.041859,-0.0013705,0,-0.019342,0,0,0,0.019049,0.0069053,0.0077862,-12.053,0.011247,0.011728,8.1271e-08,0.02,0.7,0
0.0016744,-0.00076379,0.01869,0.0069849,0.0077023,-0.0024129,0,0,0.04285,-0.0027981,0,-0.018821,0,0,0,0.019168,0.006507,0.0077023,-11.203,0.011126,0.012107,8.816e-08,0.04,0.7,0
0.0025413,-0.001123,0.018855,0.0065239,0.0076138,-0.002332,0,0,0.043842,-0.0042506,0,-0.01819,0,0,0,0.019282,0.0060976,0.0076138,-10.359,0.010998,0.012495,9.524e-08,0.06,0.7,0
0.0034281,-0.0014649,0.019011,0.0060612,0.0075217,-0.0022354,0,0,0.044809,-0.0056962,0,-0.017436,0,0,0,0.019386,0.0056862,0.0075217,-9.5232,0.010865,0.012881,1.0229e-07,0.08,0.7,0
0.0043337,-0.0017874,0.019152,0.0056055,0.0074273,-0.0021226,0,0,0.045727,-0.007105,0,-0.016557,0,0,0,0.019477,0.0052807,0.0074273,-8.7,0.010728,0.013254,1.0908e-07,0.1,0.7,0
0.0052571,-0.0020888,0.019274,0.0051645,0.0073315,-0.0019942,0,0,0.046575,-0.0084513,0,-0.015555,0,0,0,0.01955,0.0048881,0.0073315,-7.8922,0.01059,0.013606,1.1543e-07,0.12,0.7,0
0.0061967,-0.002367,0.019373,0.0047443,0.0072353,-0.0018515,0,0,0.047338,-0.0097147,0,-0.014441,0,0,0,0.019604,0.0045136,0.0072353,-7.1023,0.010451,0.01393,1.2117e-07,0.14,0.7,0
0.0071506,-0.0026204,0.019448,0.0043491,0.0071391,-0.0016962,0,0,0.048004,-0.010881,0,-0.013231,0,0,0,0.019636,0.0041609,0.0071391,-6.3316,0.010312,0.014222,1.2618e-07,0.16,0.7,0
0.0081169,-0.0028474,0.019497,0.0039812,0.0070434,-0.0015306,0,0,0.048568,-0.011942,0,-0.011939,0,0,0,0.019646,0.0038317,0.0070434,-5.5805,0.010174,0.014479,1.304e-07,0.18,0.7,0
0.0090934,-0.0030469,0.01952,0.0036411,0.0069484,-0.0013566,0,0,0.04903,-0.012899,0,-0.010581,0,0,0,0.019635,0.003526,0.0069484,-4.8481,0.010037,0.0147,1.3381e-07,0.2,0.7,0
0.010078,-0.0032177,0.019519,0.0033273,0.0068539,-0.001176,0,0,0.049394,-0.013754,0,-0.0091728,0,0,0,0.019604,0.0032423,0.0068539,-4.1325,0.0099,0.014888,1.3645e-07,0.22,0.7,0
0.011069,-0.0033592,0.019495,0.003037,0.0067596,-0.0009904,0,0,0.049669,-0.014518,0,-0.0077251,0,0,0,0.019555,0.0029776,0.0067596,-3.4314,0.0097639,0.015047,1.384e-07,0.24,0.7,0
0.012065,-0.0034711,0.019452,0.0027659,0.0066653,-0.00080116,0,0,0.049867,-0.015208,0,-0.006249,0,0,0,0.01949,0.0027275,0.0066653,-2.7426,0.0096276,0.015182,1.3977e-07,0.26,0.7,0
0.013064,-0.003553,0.019392,0.0025087,0.0065701,-0.00060962,0,0,0.050004,-0.01584,0,-0.004755,0,0,0,0.019414,0.0024867,0.0065701,-2.0653,0.0094902,0.0153,1.4071e-07,0.28,0.7,0
0.014065,-0.0036053,0.019319,0.0022591,0.0064736,-0.0004173,0,0,0.050099,-0.016436,0,-0.003255,0,0,0,0.01933,0.0022489,0.0064736,-1.4004,0.0093507,0.015409,1.4137e-07,0.3,0.7,0
0.015068,-0.0036285,0.019239,0.0020107,0.006375,-0.00022619,0,0,0.05017,-0.017021,0,-0.0017643,0,0,0,0.019242,0.0020077,0.006375,-0.75205,0.0092083,0.015519,1.4194e-07,0.32,0.7,0
0.016072,-0.0036236,0.019156,0.0017567,0.0062737,-3.8953e-05,0,0,0.05024,-0.017616,0,-0.00030384,0,0,0,0.019156,0.0017566,0.0062737,-0.12828,0.009062,0.015638,1.4256e-07,0.34,0.7,0
0.017077,-0.0035922,0.019074,0.001491,0.0061693,0.00014077,0,0,0.050326,-0.018246,0,0.001098,0,0,0,0.019075,0.0014898,0.0061693,0.4587,0.0089113,0.015775,1.434e-07,0.36,0.7,0
0.018085,-0.0035366,0.018997,0.0012086,0.0060617,0.00030827,0,0,0.050448,-0.018927,0,0.0024045,0,0,0,0.019002,0.0012033,0.0060617,0.99251,0.0087558,0.015935,1.4456e-07,0.38,0.7,0
0.019095,-0.0034598,0.01893,0.00090649,0.0059511,0.00045766,0,0,0.050619,-0.019674,0,0.0035698,0,0,0,0.018942,0.00089488,0.0059511,1.4536,0.008596,0.016125,1.4612e-07,0.4,0.7,0
0.02011,-0.0033657,0.018876,0.00058433,0.0058381,0.00058216,0,0,0.050848,-0.02049,0,0.0045408,0,0,0,0.018895,0.00056582,0.0058381,1.8211,0.0084328,0.016343,1.4807e-07,0.42,0.7,0
0.021129,-0.0032592,0.018835,0.0002455,0.0057242,0.00067453,0,0,0.051133,-0.021367,0,0.0052613,0,0,0,0.01886,0.00022106,0.0057242,2.0753,0.0082683,0.016586,1.5034e-07,0.44,0.7,0
0.022155,-0.003146,0.018808,-0.0001022,0.0056116,0.00072808,0,0,0.051464,-0.022284,0,0.005679,0,0,0,0.018836,-0.00013019,0.0056116,2.2017,0.0081056,0.016845,1.5281e-07,0.46,0.7,0
0.023188,-0.0030325,0.018791,-0.00044657,0.0055032,0.00073795,0,0,0.051821,-0.023204,0,0.005756,0,0,0,0.018819,-0.00047484,0.0055032,2.1936,0.0079491,0.017107,1.5528e-07,0.48,0.7,0
0.024228,-0.0029256,0.018781,-0.0007721,0.0054027,0.00070244,0,0,0.052176,-0.024082,0,0.005479,0,0,0,0.018806,-0.0007973,0.0054027,2.0548,0.0078039,0.017355,1.5755e-07,0.5,0.7,0
0.025275,-0.0028318,0.018775,-0.0010624,0.0053138,0.00062376,0,0,0.052499,-0.024867,0,0.0048654,0,0,0,0.018795,-0.001082,0.0053138,1.7992,0.0076755,0.017574,1.5945e-07,0.52,0.7,0
0.026328,-0.0027573,0.018769,-0.0013028,0.0052399,0.00050775,0,0,0.052765,-0.025517,0,0.0039604,0,0,0,0.018782,-0.0013157,0.0052399,1.4481,0.0075688,0.017752,1.6087e-07,0.54,0.7,0
0.027385,-0.0027069,0.018761,-0.0014829,0.0051836,0.00036266,0,0,0.052954,-0.025999,0,0.0028288,0,0,0,0.018768,-0.0014893,0.0051836,1.026,0.0074874,0.01788,1.6175e-07,0.56,0.7,0
0.028446,-0.0026845,0.01875,-0.0015961,0.0051462,0.00019778,0,0,0.053055,-0.026295,0,0.0015427,0,0,0,0.018752,-0.001598,0.0051462,0.55688,0.0074334,0.017954,1.6211e-07,0.58,0.7,0
0.029507,-0.0026921,0.018735,-0.0016397,0.0051284,2.2461e-05,0,0,0.053063,-0.026396,0,0.0001752,0,0,0,0.018735,-0.0016397,0.0051284,0.063165,0.0074078,0.017973,1.6195e-07,0.6,0.7,0
0.030568,-0.0027306,0.018714,-0.0016134,0.0051303,-0.0001539,0,0,0.052978,-0.0263,0,-0.0012004,0,0,0,0.018715,-0.0016145,0.0051303,-0.43374,0.0074104,0.017935,1.613e-07,0.62,0.7,0
0.031627,-0.0027992,0.01869,-0.0015196,0.005151,-0.00032164,0,0,0.052801,-0.026015,0,-0.0025088,0,0,0,0.018695,-0.0015247,0.005151,-0.91157,0.0074404,0.017844,1.6016e-07,0.64,0.7,0
0.032681,-0.0028956,0.018662,-0.0013645,0.0051891,-0.00047094,0,0,0.052542,-0.025559,0,-0.0036733,0,0,0,0.018673,-0.0013756,0.0051891,-1.3464,0.0074954,0.017704,1.5855e-07,0.66,0.7,0
0.033728,-0.0030159,0.018632,-0.0011589,0.0052419,-0.00059279,0,0,0.052221,-0.024963,0,-0.0046238,0,0,0,0.018649,-0.0011767,0.0052419,-1.7141,0.0075716,0.017522,1.5655e-07,0.68,0.7,0
0.034769,-0.0031555,0.018604,-0.00091818,0.0053057,-0.00068055,0,0,0.051863,-0.024273,0,-0.0053083,0,0,0,0.018628,-0.00094188,0.0053057,-1.9941,0.0076638,0.017313,1.5426e-07,0.7,0.7,0
0.035803,-0.0033087,0.018582,-0.00065989,0.0053765,-0.00073123,0,0,0.0515,-0.023542,0,-0.0057036,0,0,0,0.018609,-0.00068764,0.0053765,-2.1732,0.0077661,0.017092,1.5188e-07,0.72,0.7,0
0.036829,-0.0034696,0.018569,-0.00040128,0.0054504,-0.00074592,0,0,0.051163,-0.022821,0,-0.0058182,0,0,0,0.018598,-0.00043056,0.0054504,-2.2483,0.0078727,0.016875,1.4958e-07,0.74,0.7,0
0.037849,-0.0036329,0.018569,-0.00015661,0.0055238,-0.00072908,0,0,0.050877,-0.022154,0,-0.0056868,0,0,0,0.018598,-0.00018496,0.0055238,-2.2263,0.0079788,0.016678,1.4756e-07,0.76,0.7,0
0.038864,-0.0037934,0.018583,6.4036e-05,0.0055942,-0.00068722,0,0,0.050658,-0.021568,0,-0.0053603,0,0,0,0.018609,3.857e-05,0.0055942,-2.1223,0.0080805,0.016509,1.4596e-07,0.78,0.7,0
0.039876,-0.0039472,0.018611,0.00025489,0.0056597,-0.00062754,0,0,0.050509,-0.021079,0,-0.0048948,0,0,0,0.018632,0.00023347,0.0056597,-1.9557,0.0081752,0.016375,1.4484e-07,0.8,0.7,0
0.040885,-0.004091,0.01865,0.00041382,0.0057192,-0.0005569,0,0,0.050431,-0.020691,0,-0.0043438,0,0,0,0.018667,0.00039683,0.0057192,-1.7475,0.008261,0.016275,1.4423e-07,0.82,0.7,0
0.041893,-0.0042224,0.018698,0.00054145,0.0057719,-0.00048122,0,0,0.050413,-0.020399,0,-0.0037535,0,0,0,0.018711,0.0005287,0.0057719,-1.5171,0.0083372,0.01621,1.4408e-07,0.84,0.7,0
0.042901,-0.0043399,0.018752,0.00064032,0.0058176,-0.00040514,0,0,0.050443,-0.020192,0,-0.0031601,0,0,0,0.018761,0.00063126,0.0058176,-1.2808,0.0084032,0.016173,1.4432e-07,0.86,0.7,0
0.043911,-0.0044422,0.018807,0.00071414,0.0058564,-0.00033199,0,0,0.050508,-0.020055,0,-0.0025895,0,0,0,0.018813,0.00070805,0.0058564,-1.0508,0.0084592,0.016158,1.4484e-07,0.88,0.7,0
0.044922,-0.004529,0.018861,0.00076717,0.0058884,-0.00026382,0,0,0.050592,-0.019973,0,-0.0020578,0,0,0,0.018865,0.00076332,0.0058884,-0.83518,0.0085054,0.01616,1.4553e-07,0.9,0.7,0
0.045934,-0.0045998,0.018909,0.00080367,0.0059139,-0.00020154,0,0,0.050682,-0.01993,0,-0.001572,0,0,0,0.018912,0.00080143,0.0059139,-0.63765,0.0085423,0.016172,1.4628e-07,0.92,0.7,0
0.046949,-0.0046548,0.01895,0.00082759,0.0059333,-0.00014509,0,0,0.050766,-0.019912,0,-0.0011317,0,0,0,0.018951,0.00082642,0.0059333,-0.45866,0.0085704,0.016187,1.4699e-07,0.94,0.7,0
0.047965,-0.0046939,0.018981,0.00084219,0.005947,-9.3657e-05,0,0,0.050833,-0.019909,0,-0.00073052,0,0,0,0.018981,0.0008417,0.005947,-0.29583,0.00859,0.016202,1.4756e-07,0.96,0.7,0
0.048982,-0.0047174,0.019,0.00084994,0.005955,-4.5873e-05,0,0,0.050876,-0.01991,0,-0.00035781,0,0,0,0.019,0.00084982,0.005955,-0.14481,0.0086017,0.016212,1.4792e-07,0.98,0.7,0
0.05,-0.0047252,0.019007,0.00085235,0.0059577,-4.9987e-05,0,0,0.050891,-0.019911,0,-0.0003899,0,0,0,0.019007,0.00085221,0.0059577,-0.15776,0.0086056,0.016216,1.4806e-07,1,0.7,0
0,0,0.01846,0.0079115,0.0079115,-0.0026711,0,0,0.04114,-1.6263e-19,0,-0.020835,0,0,0,0.019098,0.0072737,0.0079115,-13.43,0.011428,0.011519,7.7682e-08,0,0.72,0
0.0008228,-0.00041669,0.018417,0.0073757,0.0077377,-0.0026558,0,0,0.041648,-0.001412,0,-0.020715,0,0,0,0.019022,0.0067701,0.0077377,-12.846,0.011177,0.011798,8.2438e-08,0.02,0.72,0
0.0016659,-0.00082048,0.018592,0.0069095,0.0076505,-0.0025874,0,0,0.042673,-0.0028903,0,-0.020182,0,0,0,0.01914,0.0063621,0.0076505,-11.945,0.011051,0.012185,8.9416e-08,0.04,0.72,0
0.0025297,-0.0012092,0.018763,0.00643,0.007558,-0.0024989,0,0,0.043701,-0.0043993,0,-0.019491,0,0,0,0.019251,0.0059429,0.007558,-11.03,0.010917,0.012578,9.6545e-08,0.06,0.72,0
0.003414,-0.0015805,0.018924,0.005948,0.0074616,-0.002389,0,0,0.044703,-0.0059029,0,-0.018634,0,0,0,0.01935,0.0055222,0.0074616,-10.107,0.010778,0.012967,1.0359e-07,0.08,0.72,0
0.0043179,-0.0019317,0.019069,0.0054737,0.0073627,-0.002258,0,0,0.045653,-0.0073671,0,-0.017612,0,0,0,0.019434,0.0051085,0.0073627,-9.1876,0.010635,0.013342,1.1033e-07,0.1,0.72,0
0.0052401,-0.0022604,0.019193,0.0050158,0.0072626,-0.0021073,0,0,0.046528,-0.0087625,0,-0.016437,0,0,0,0.019499,0.0047092,0.0072626,-8.2781,0.01049,0.013693,1.1657e-07,0.12,0.72,0
0.006179,-0.0025643,0.019294,0.0045812,0.0071624,-0.0019396,0,0,0.047311,-0.010067,0,-0.015129,0,0,0,0.019545,0.0043298,0.0071624,-7.3855,0.010346,0.014015,1.2215e-07,0.14,0.72,0
0.0071325,-0.0028413,0.019369,0.0041744,0.0070628,-0.001758,0,0,0.047992,-0.011265,0,-0.013713,0,0,0,0.019569,0.0039736,0.0070628,-6.5148,0.010202,0.014303,1.2698e-07,0.16,0.72,0
0.0080987,-0.0030899,0.019417,0.0037976,0.0069644,-0.001566,0,0,0.048566,-0.012351,0,-0.012214,0,0,0,0.019573,0.0036422,0.0069644,-5.6691,0.01006,0.014557,1.3102e-07,0.18,0.72,0
0.0090752,-0.0033086,0.01944,0.0034511,0.0068675,-0.0013665,0,0,0.049035,-0.013324,0,-0.010659,0,0,0,0.019556,0.0033351,0.0068675,-4.8498,0.0099197,0.014775,1.3429e-07,0.2,0.72,0
0.01006,-0.0034967,0.01944,0.003133,0.0067719,-0.0011624,0,0,0.049405,-0.014192,0,-0.0090667,0,0,0,0.019522,0.0030506,0.0067719,-4.0569,0.0097816,0.014962,1.3683e-07,0.22,0.72,0
0.011051,-0.0036537,0.019418,0.0028402,0.0066776,-0.00095607,0,0,0.049689,-0.014966,0,-0.0074573,0,0,0,0.019473,0.0027853,0.0066776,-3.2897,0.0096454,0.015122,1.3874e-07,0.24,0.72,0
0.012048,-0.0037795,0.019379,0.0025681,0.0065841,-0.0007495,0,0,0.0499,-0.015662,0,-0.0058461,0,0,0,0.019412,0.0025348,0.0065841,-2.5478,0.0095104,0.015261,1.4014e-07,0.26,0.72,0
0.013047,-0.0038742,0.019325,0.0023114,0.006491,-0.00054457,0,0,0.050054,-0.0163,0,-0.0042476,0,0,0,0.019343,0.002294,0.006491,-1.8314,0.0093759,0.015386,1.4119e-07,0.28,0.72,0
0.01405,-0.0039385,0.019262,0.0020641,0.0063978,-0.00034317,0,0,0.05017,-0.016902,0,-0.0026767,0,0,0,0.019269,0.0020573,0.0063978,-1.1427,0.0092413,0.015504,1.4203e-07,0.3,0.72,0
0.015054,-0.0039735,0.019193,0.0018201,0.006304,-0.00014751,0,0,0.050268,-0.017487,0,-0.0011506,0,0,0,0.019194,0.0018189,0.006304,-0.48644,0.0091058,0.015624,1.4281e-07,0.32,0.72,0
0.01606,-0.0039806,0.019123,0.0015736,0.0062091,3.9667e-05,0,0,0.050366,-0.018078,0,0.00030941,0,0,0,0.019123,0.0015735,0.0062091,0.1295,0.0089686,0.015752,1.4369e-07,0.34,0.72,0
0.017069,-0.0039617,0.019057,0.0013193,0.0061127,0.00021491,0,0,0.050481,-0.018694,0,0.0016763,0,0,0,0.019059,0.0013167,0.0061127,0.69408,0.0088295,0.015897,1.4477e-07,0.36,0.72,0
0.01808,-0.0039195,0.018996,0.0010532,0.0060149,0.00037396,0,0,0.050628,-0.01935,0,0.0029169,0,0,0,0.019004,0.0010454,0.0060149,1.1934,0.0086882,0.016061,1.4614e-07,0.38,0.72,0
0.019094,-0.0038573,0.018946,0.00077333,0.0059159,0.00051178,0,0,0.050818,-0.020056,0,0.0039919,0,0,0,0.018961,0.00075892,0.0059159,1.6119,0.0085451,0.016249,1.4784e-07,0.4,0.72,0
0.020112,-0.003779,0.018908,0.00047994,0.0058163,0.00062284,0,0,0.051056,-0.020812,0,0.0048581,0,0,0,0.018929,0.00045892,0.0058163,1.9336,0.0084013,0.016459,1.4986e-07,0.42,0.72,0
0.021136,-0.0036893,0.018881,0.00017647,0.0057174,0.00070154,0,0,0.05134,-0.02161,0,0.005472,0,0,0,0.018908,0.00015019,0.0057174,2.1449,0.0082584,0.016686,1.5213e-07,0.44,0.72,0
0.022166,-0.0035934,0.018867,-0.00013039,0.0056208,0.00074302,0,0,0.051658,-0.02243,0,0.0057956,0,0,0,0.018895,-0.0001594,0.0056208,2.2365,0.008119,0.016922,1.5452e-07,0.46,0.72,0
0.023203,-0.0034973,0.018861,-0.00043078,0.005529,0.00074406,0,0,0.051993,-0.023243,0,0.0058037,0,0,0,0.018889,-0.00045944,0.005529,2.2055,0.0079863,0.017157,1.5689e-07,0.48,0.72,0
0.024246,-0.0034068,0.018861,-0.0007127,0.0054444,0.00070386,0,0,0.052323,-0.024012,0,0.0054901,0,0,0,0.018886,-0.00073798,0.0054444,2.0568,0.0078641,0.017378,1.5907e-07,0.5,0.72,0
0.025295,-0.0033277,0.018863,-0.00096349,0.0053698,0.00062455,0,0,0.052623,-0.0247,0,0.0048715,0,0,0,0.018882,-0.00098315,0.0053698,1.8025,0.0077563,0.017573,1.609e-07,0.52,0.72,0
0.026351,-0.0032653,0.018864,-0.0011716,0.0053076,0.000511,0,0,0.052868,-0.025269,0,0.0039858,0,0,0,0.018877,-0.0011846,0.0053076,1.4601,0.0076665,0.01773,1.6229e-07,0.54,0.72,0
0.02741,-0.0032241,0.01886,-0.001328,0.0052597,0.00037024,0,0,0.053043,-0.025692,0,0.0028879,0,0,0,0.018867,-0.0013348,0.0052597,1.0503,0.0075974,0.017844,1.6316e-07,0.56,0.72,0
0.028472,-0.0032072,0.018852,-0.0014267,0.0052274,0.00021058,0,0,0.053134,-0.025951,0,0.0016425,0,0,0,0.018854,-0.0014289,0.0052274,0.59491,0.0075508,0.017908,1.635e-07,0.58,0.72,0
0.029535,-0.0032167,0.018835,-0.0014647,0.0052112,4.0951e-05,0,0,0.053134,-0.026036,0,0.00031942,0,0,0,0.018836,-0.0014647,0.0052112,0.11558,0.0075273,0.01792,1.6329e-07,0.6,0.72,0
0.030598,-0.0032533,0.018812,-0.0014418,0.0052111,-0.00012949,0,0,0.053044,-0.025946,0,-0.00101,0,0,0,0.018813,-0.0014426,0.0052111,-0.36629,0.0075271,0.017882,1.6256e-07,0.62,0.72,0
0.031657,-0.0033165,0.018782,-0.001361,0.0052262,-0.0002916,0,0,0.052866,-0.02569,0,-0.0022745,0,0,0,0.018786,-0.0013652,0.0052262,-0.82922,0.007549,0.017796,1.6132e-07,0.64,0.72,0
0.032712,-0.0034042,0.018746,-0.0012281,0.0052554,-0.00043668,0,0,0.052614,-0.025285,0,-0.0034061,0,0,0,0.018756,-0.0012376,0.0052554,-1.2518,0.0075911,0.017666,1.5963e-07,0.66,0.72,0
0.033762,-0.0035134,0.018707,-0.0010526,0.0052964,-0.00055719,0,0,0.052303,-0.024761,0,-0.0043461,0,0,0,0.018723,-0.0010683,0.0052964,-1.6139,0.0076504,0.0175,1.5756e-07,0.68,0.72,0
0.034805,-0.00364,0.018669,-0.00084678,0.0053466,-0.00064769,0,0,0.051957,-0.024154,0,-0.005052,0,0,0,0.01869,-0.00086825,0.0053466,-1.8988,0.0077229,0.017309,1.5524e-07,0.7,0.72,0
0.03584,-0.0037794,0.018634,-0.0006244,0.005403,-0.00070554,0,0,0.051602,-0.023507,0,-0.0055032,0,0,0,0.01866,-0.00065021,0.005403,-2.0953,0.0078043,0.017107,1.5281e-07,0.72,0.72,0
0.036869,-0.0039267,0.018607,-0.00039899,0.0054625,-0.00073113,0,0,0.051264,-0.02286,0,-0.0057028,0,0,0,0.018635,-0.00042707,0.0054625,-2.1997,0.0078902,0.016905,1.5044e-07,0.74,0.72,0
0.037891,-0.0040771,0.01859,-0.00018224,0.0055224,-0.00072746,0,0,0.050965,-0.022248,0,-0.0056742,0,0,0,0.018619,-0.00021039,0.0055224,-2.2158,0.0079769,0.016717,1.4827e-07,0.76,0.72,0
0.038907,-0.0042263,0.018585,1.7046e-05,0.0055807,-0.00069931,0,0,0.050718,-0.021698,0,-0.0054546,0,0,0,0.018612,-9.2534e-06,0.0055807,-2.1538,0.0080611,0.01655,1.4643e-07,0.78,0.72,0
0.039919,-0.0043704,0.018592,0.00019321,0.0056357,-0.00065233,0,0,0.050531,-0.021226,0,-0.0050881,0,0,0,0.018616,0.00017011,0.0056357,-2.028,0.0081404,0.01641,1.45e-07,0.8,0.72,0
0.040928,-0.0045064,0.01861,0.00034348,0.0056862,-0.00059219,0,0,0.050404,-0.020836,0,-0.0046191,0,0,0,0.01863,0.0003243,0.0056862,-1.8549,0.0082133,0.0163,1.4399e-07,0.82,0.72,0
0.041936,-0.0046317,0.018637,0.00046749,0.0057314,-0.00052403,0,0,0.050333,-0.020529,0,-0.0040875,0,0,0,0.018652,0.00045239,0.0057314,-1.6506,0.0082787,0.016218,1.4339e-07,0.84,0.72,0
0.042942,-0.0047447,0.01867,0.00056658,0.0057711,-0.00045214,0,0,0.050307,-0.020298,0,-0.0035267,0,0,0,0.018682,0.00055529,0.0057711,-1.4298,0.008336,0.016162,1.4316e-07,0.86,0.72,0
0.043948,-0.0048439,0.018707,0.00064327,0.005805,-0.00037976,0,0,0.050317,-0.020131,0,-0.0029621,0,0,0,0.018715,0.00063529,0.005805,-1.2039,0.0083851,0.016129,1.4321e-07,0.88,0.72,0
0.044954,-0.0049287,0.018744,0.00070068,0.0058333,-0.00030912,0,0,0.050351,-0.020017,0,-0.0024111,0,0,0,0.018749,0.00069538,0.0058333,-0.98122,0.0084259,0.016111,1.4345e-07,0.9,0.72,0
0.045962,-0.0049983,0.018778,0.0007421,0.0058561,-0.00024146,0,0,0.050396,-0.019945,0,-0.0018834,0,0,0,0.018781,0.00073887,0.0058561,-0.76688,0.0084588,0.016106,1.4381e-07,0.92,0.72,0
0.04697,-0.0050527,0.018808,0.00077066,0.0058735,-0.00017722,0,0,0.050443,-0.019901,0,-0.0013823,0,0,0,0.018809,0.00076892,0.0058735,-0.56289,0.0084839,0.016107,1.4418e-07,0.94,0.72,0
0.04798,-0.0050915,0.01883,0.00078901,0.0058858,-0.00011613,0,0,0.050483,-0.019877,0,-0.00090584,0,0,0,0.018831,0.00078826,0.0058858,-0.3688,0.0085016,0.016111,1.4451e-07,0.96,0.72,0
0.04899,-0.0051148,0.018844,0.00079918,0.0058931,-5.7429e-05,0,0,0.05051,-0.019866,0,-0.00044795,0,0,0,0.018845,0.000799,0.0058931,-0.18234,0.0085122,0.016114,1.4473e-07,0.98,0.72,0
0.05,-0.0051226,0.018849,0.00080243,0.0058955,-4.981e-05,0,0,0.050519,-0.019863,0,-0.00038852,0,0,0,0.018849,0.00080229,0.0058955,-0.15814,0.0085157,0.016116,1.4481e-07,1,0.72,0
0,0,0.018379,0.0078769,0.0078769,-0.0028554,0,0,0.04096,3.2526e-19,0,-0.022272,0,0,0,0.019106,0.0071508,0.0078769,-14.268,0.011378,0.011609,7.9289e-08,0,0.74,0
0.0008192,-0.00044544,0.018334,0.0073183,0.0076958,-0.0028384,0,0,0.04149,-0.0014723,0,-0.022139,0,0,0,0.019023,0.00663,0.0076958,-13.631,0.011116,0.011896,8.4119e-08,0.02,0.74,0
0.0016596,-0.0008794,0.018517,0.0068293,0.007604,-0.0027686,0,0,0.042562,-0.0030215,0,-0.021595,0,0,0,0.01914,0.0062067,0.007604,-12.674,0.010984,0.012294,9.13e-08,0.04,0.74,0
0.0025217,-0.001299,0.018696,0.0063249,0.0075061,-0.002672,0,0,0.043639,-0.004607,0,-0.020842,0,0,0,0.019248,0.0057724,0.0075061,-11.682,0.010842,0.012698,9.8575e-08,0.06,0.74,0
0.0034052,-0.001701,0.018862,0.0058178,0.007404,-0.0025476,0,0,0.044687,-0.0061864,0,-0.019872,0,0,0,0.019342,0.0053379,0.007404,-10.668,0.010695,0.013094,1.0569e-07,0.08,0.74,0
0.0043092,-0.0020821,0.019012,0.00532,0.0072995,-0.0023966,0,0,0.045677,-0.0077197,0,-0.018694,0,0,0,0.019419,0.0049127,0.0072995,-9.6473,0.010544,0.013472,1.1242e-07,0.1,0.74,0
0.0052322,-0.0024393,0.019138,0.0048419,0.007194,-0.0022219,0,0,0.046582,-0.0091733,0,-0.01733,0,0,0,0.019476,0.0045046,0.007194,-8.6334,0.010391,0.013824,1.1856e-07,0.12,0.74,0
0.0061725,-0.0027697,0.019239,0.004391,0.0070891,-0.0020276,0,0,0.047386,-0.010523,0,-0.015815,0,0,0,0.019511,0.0041191,0.0070891,-7.6377,0.01024,0.014143,1.2397e-07,0.14,0.74,0
0.0071277,-0.003071,0.019313,0.0039722,0.0069857,-0.0018186,0,0,0.048078,-0.011752,0,-0.014185,0,0,0,0.019526,0.0037596,0.0069857,-6.6689,0.01009,0.014426,1.2859e-07,0.16,0.74,0
0.0080956,-0.0033415,0.01936,0.0035876,0.0068843,-0.0015996,0,0,0.048655,-0.012857,0,-0.012477,0,0,0,0.019521,0.003427,0.0068843,-5.7331,0.009944,0.014674,1.324e-07,0.18,0.74,0
0.0090739,-0.0035798,0.019381,0.0032366,0.0067853,-0.0013751,0,0,0.049124,-0.01384,0,-0.010725,0,0,0,0.019497,0.0031204,0.0067853,-4.8336,0.009801,0.014887,1.3545e-07,0.2,0.74,0
0.01006,-0.0037854,0.019379,0.0029171,0.0066889,-0.0011486,0,0,0.049492,-0.01471,0,-0.008959,0,0,0,0.019459,0.0028374,0.0066889,-3.972,0.0096617,0.015069,1.3781e-07,0.22,0.74,0
0.011054,-0.0039579,0.019357,0.0026252,0.0065947,-0.00092328,0,0,0.049774,-0.015481,0,-0.0072016,0,0,0,0.019408,0.0025744,0.0065947,-3.1489,0.0095257,0.015227,1.396e-07,0.24,0.74,0
0.012051,-0.0040976,0.019319,0.002356,0.0065026,-0.00070162,0,0,0.049985,-0.016172,0,-0.0054727,0,0,0,0.019348,0.0023271,0.0065026,-2.3644,0.0093926,0.015365,1.4096e-07,0.26,0.74,0
0.013053,-0.0042051,0.01927,0.002104,0.0064121,-0.00048577,0,0,0.050144,-0.016802,0,-0.003789,0,0,0,0.019283,0.0020903,0.0064121,-1.6197,0.0092619,0.015491,1.4201e-07,0.28,0.74,0
0.014057,-0.0042814,0.019212,0.0018633,0.0063227,-0.0002778,0,0,0.05027,-0.017392,0,-0.0021669,0,0,0,0.019217,0.0018589,0.0063227,-0.91714,0.0091328,0.015612,1.4292e-07,0.3,0.74,0
0.015064,-0.004328,0.019152,0.0016283,0.006234,-7.9914e-05,0,0,0.050379,-0.017962,0,-0.00062333,0,0,0,0.019152,0.0016279,0.006234,-0.26129,0.0090047,0.015735,1.438e-07,0.32,0.74,0
0.016072,-0.0043467,0.019092,0.0013935,0.0061456,0.00010531,0,0,0.05049,-0.018533,0,0.00082143,0,0,0,0.019092,0.0013929,0.0061456,0.34092,0.008877,0.015866,1.4479e-07,0.34,0.74,0
0.017083,-0.00434,0.019036,0.0011546,0.0060573,0.00027479,0,0,0.050618,-0.019121,0,0.0021434,0,0,0,0.01904,0.0011503,0.0060573,0.8802,0.0087494,0.016011,1.4598e-07,0.36,0.74,0
0.018097,-0.0043106,0.018988,0.00090812,0.0059689,0.00042489,0,0,0.050775,-0.019737,0,0.0033141,0,0,0,0.018998,0.00089814,0.0059689,1.3455,0.0086217,0.016172,1.4742e-07,0.38,0.74,0
0.019114,-0.004262,0.01895,0.00065273,0.0058808,0.00055148,0,0,0.050969,-0.020389,0,0.0043016,0,0,0,0.018966,0.00063612,0.0058808,1.7248,0.0084944,0.016352,1.4913e-07,0.4,0.74,0
0.020136,-0.0041982,0.018922,0.00038901,0.0057934,0.00065022,0,0,0.051203,-0.021077,0,0.0050717,0,0,0,0.018945,0.00036623,0.0057934,2.0069,0.0083683,0.016547,1.511e-07,0.42,0.74,0
0.021163,-0.0041236,0.018906,0.00012007,0.0057078,0.00071693,0,0,0.051472,-0.021792,0,0.0055921,0,0,0,0.018933,9.2748e-05,0.0057078,2.1824,0.0082445,0.016754,1.5326e-07,0.44,0.74,0
0.022195,-0.0040432,0.018899,-0.00014847,0.0056252,0.00074822,0,0,0.051768,-0.022517,0,0.0058361,0,0,0,0.018929,-0.00017782,0.0056252,2.2461,0.0081253,0.016966,1.5549e-07,0.46,0.74,0
0.023233,-0.0039623,0.0189,-0.00040873,0.0055474,0.00074208,0,0,0.052075,-0.023229,0,0.0057882,0,0,0,0.018928,-0.00043721,0.0055474,2.1977,0.0080129,0.017174,1.5768e-07,0.48,0.74,0
0.024278,-0.0038861,0.018905,-0.00065129,0.0054762,0.00069843,0,0,0.052373,-0.023897,0,0.0054477,0,0,0,0.01893,-0.0006762,0.0054762,2.0427,0.00791,0.017368,1.5968e-07,0.5,0.74,0
0.025328,-0.0038198,0.018912,-0.00086629,0.0054136,0.00061944,0,0,0.052642,-0.024492,0,0.0048316,0,0,0,0.018931,-0.00088568,0.0054136,1.7921,0.0078197,0.017537,1.6137e-07,0.52,0.74,0
0.026384,-0.003768,0.018916,-0.0010446,0.0053614,0.00050944,0,0,0.052863,-0.024983,0,0.0039737,0,0,0,0.018929,-0.0010576,0.0053614,1.4611,0.0077443,0.017674,1.6265e-07,0.54,0.74,0
0.027443,-0.0037346,0.018915,-0.0011787,0.005321,0.0003746,0,0,0.053018,-0.025349,0,0.0029219,0,0,0,0.018922,-0.0011856,0.005321,1.0676,0.0076859,0.017771,1.6345e-07,0.56,0.74,0
0.028504,-0.0037225,0.018908,-0.0012634,0.0052933,0.00022234,0,0,0.053096,-0.025571,0,0.0017342,0,0,0,0.01891,-0.0012658,0.0052933,0.63145,0.0076458,0.017826,1.6374e-07,0.58,0.74,0
0.029566,-0.0037336,0.018892,-0.0012961,0.0052787,6.0799e-05,0,0,0.053091,-0.025642,0,0.00047423,0,0,0,0.018892,-0.0012963,0.0052787,0.17255,0.0076247,0.017834,1.635e-07,0.6,0.74,0
0.030628,-0.0037685,0.018867,-0.0012768,0.0052771,-0.00010157,0,0,0.053001,-0.02556,0,-0.00079225,0,0,0,0.018868,-0.0012773,0.0052771,-0.28889,0.0076225,0.017797,1.6275e-07,0.62,0.74,0
0.031686,-0.0038268,0.018835,-0.0012081,0.005288,-0.00025647,0,0,0.052832,-0.025335,0,-0.0020005,0,0,0,0.018838,-0.0012114,0.005288,-0.73301,0.0076382,0.017718,1.6151e-07,0.64,0.74,0
0.032741,-0.003907,0.018796,-0.0010953,0.0053102,-0.00039623,0,0,0.052594,-0.024982,0,-0.0030906,0,0,0,0.018804,-0.0011032,0.0053102,-1.1407,0.0076702,0.0176,1.5984e-07,0.66,0.74,0
0.03379,-0.0040064,0.018753,-0.00094641,0.005342,-0.00051434,0,0,0.052303,-0.024525,0,-0.0040119,0,0,0,0.018766,-0.00095983,0.005342,-1.4946,0.0077162,0.017451,1.5782e-07,0.68,0.74,0
0.034833,-0.0041217,0.018709,-0.00077117,0.0053814,-0.00060613,0,0,0.051978,-0.023995,0,-0.0047278,0,0,0,0.018728,-0.00079001,0.0053814,-1.7805,0.0077731,0.017279,1.5556e-07,0.7,0.74,0
0.035869,-0.0042489,0.018667,-0.00058053,0.005426,-0.00066912,0,0,0.051641,-0.023426,0,-0.0052191,0,0,0,0.018691,-0.00060376,0.005426,-1.9886,0.0078376,0.017097,1.5319e-07,0.72,0.74,0
0.036899,-0.004384,0.018631,-0.00038529,0.0054738,-0.00070318,0,0,0.051314,-0.02285,0,-0.0054848,0,0,0,0.018657,-0.00041125,0.0054738,-2.1148,0.0079066,0.016912,1.5084e-07,0.74,0.74,0
0.037922,-0.0045228,0.018603,-0.00019499,0.0055224,-0.00071024,0,0,0.051014,-0.022298,0,-0.0055399,0,0,0,0.01863,-0.00022179,0.0055224,-2.1607,0.0079768,0.016736,1.4863e-07,0.76,0.74,0
0.03894,-0.0046614,0.018585,-1.7204e-05,0.0055702,-0.00069379,0,0,0.050756,-0.021791,0,-0.0054116,0,0,0,0.01861,-4.3044e-05,0.0055702,-2.133,0.0080459,0.016576,1.4669e-07,0.78,0.74,0
0.039952,-0.0047962,0.018576,0.00014282,0.0056158,-0.00065817,0,0,0.050546,-0.021344,0,-0.0051337,0,0,0,0.0186,0.00011935,0.0056158,-2.0423,0.0081116,0.016437,1.4506e-07,0.8,0.74,0
0.040961,-0.0049245,0.018578,0.00028208,0.005658,-0.00060799,0,0,0.050388,-0.020966,0,-0.0047423,0,0,0,0.018598,0.0002619,0.005658,-1.9012,0.0081727,0.016321,1.438e-07,0.82,0.74,0
0.041968,-0.0050436,0.018588,0.00039956,0.0056962,-0.00054762,0,0,0.050278,-0.020657,0,-0.0042715,0,0,0,0.018604,0.00038308,0.0056962,-1.723,0.0082279,0.016231,1.4289e-07,0.84,0.74,0
0.042972,-0.0051518,0.018604,0.00049573,0.0057301,-0.00048089,0,0,0.05021,-0.020414,0,-0.0037509,0,0,0,0.018617,0.00048297,0.0057301,-1.5201,0.0082768,0.016163,1.4231e-07,0.86,0.74,0
0.043976,-0.0052475,0.018625,0.00057217,0.0057593,-0.00041088,0,0,0.050178,-0.02023,0,-0.0032048,0,0,0,0.018635,0.00056283,0.0057593,-1.3031,0.0083189,0.016115,1.42e-07,0.88,0.74,0
0.044979,-0.0053297,0.018648,0.00063109,0.0057837,-0.00033986,0,0,0.050171,-0.020095,0,-0.0026509,0,0,0,0.018655,0.00062468,0.0057837,-1.0803,0.0083543,0.016083,1.419e-07,0.9,0.74,0
0.045983,-0.0053976,0.01867,0.00067493,0.0058036,-0.00026933,0,0,0.05018,-0.020002,0,-0.0021008,0,0,0,0.018674,0.0006709,0.0058036,-0.85727,0.0083829,0.016064,1.4194e-07,0.92,0.74,0
0.046987,-0.0054509,0.01869,0.0007061,0.0058188,-0.00020008,0,0,0.050197,-0.019939,0,-0.0015607,0,0,0,0.018692,0.00070388,0.0058188,-0.63735,0.0084049,0.016054,1.4206e-07,0.94,0.74,0
0.047991,-0.005489,0.018705,0.00072672,0.0058296,-0.00013233,0,0,0.050215,-0.019901,0,-0.0010321,0,0,0,0.018706,0.00072575,0.0058296,-0.42168,0.0084205,0.016049,1.4218e-07,0.96,0.74,0
0.048995,-0.005512,0.018715,0.00073841,0.005836,-6.5813e-05,0,0,0.050228,-0.019881,0,-0.00051334,0,0,0,0.018715,0.00073817,0.005836,-0.20976,0.0084298,0.016047,1.4228e-07,0.98,0.74,0
0.05,-0.0055197,0.018718,0.00074219,0.0058382,-4.9158e-05,0,0,0.050233,-0.019874,0,-0.00038344,0,0,0,0.018718,0.00074206,0.0058382,-0.15668,0.0084329,0.016047,1.4232e-07,1,0.74,0
0,0,0.018322,0.0078522,0.0078522,-0.0030486,0,0,0.040831,3.2526e-19,0,-0.023779,0,0,0,0.019145,0.0070292,0.0078522,-15.108,0.011342,0.011726,8.143e-08,0,0.76,0
0.00081663,-0.00047558,0.018275,0.0072632,0.0076614,-0.0030298,0,0,0.041392,-0.0015527,0,-0.023632,0,0,0,0.019053,0.0064846,0.0076614,-14.412,0.011066,0.012023,8.6395e-08,0.02,0.76,0
0.0016557,-0.00094134,0.018467,0.006744,0.0075634,-0.0029587,0,0,0.042525,-0.0031955,0,-0.023078,0,0,0,0.019172,0.0060397,0.0075634,-13.391,0.010925,0.01244,9.39e-08,0.04,0.76,0
0.0025176,-0.0013935,0.018654,0.0062072,0.0074585,-0.002853,0,0,0.043664,-0.0048801,0,-0.022254,0,0,0,0.019277,0.0055844,0.0074585,-12.314,0.010773,0.012859,1.0142e-07,0.06,0.76,0
0.0034022,-0.0018279,0.018828,0.0056682,0.007349,-0.0027122,0,0,0.044769,-0.0065548,0,-0.021155,0,0,0,0.019365,0.0051312,0.007349,-11.2,0.010615,0.013265,1.0867e-07,0.08,0.76,0
0.0043084,-0.0022405,0.018982,0.0051419,0.0072372,-0.0025385,0,0,0.045805,-0.0081714,0,-0.019801,0,0,0,0.019433,0.004691,0.0072372,-10.072,0.010454,0.013648,1.154e-07,0.1,0.76,0
0.0052344,-0.0026274,0.01911,0.0046403,0.0071252,-0.0023369,0,0,0.046742,-0.0096909,0,-0.018228,0,0,0,0.019478,0.0042723,0.0071252,-8.9503,0.010292,0.013999,1.2142e-07,0.12,0.76,0
0.0061781,-0.0029852,0.01921,0.004172,0.0070146,-0.0021136,0,0,0.047562,-0.011086,0,-0.016486,0,0,0,0.019502,0.0038806,0.0070146,-7.8505,0.010132,0.014314,1.2661e-07,0.14,0.76,0
0.0071369,-0.0033114,0.01928,0.0037417,0.0069066,-0.0018755,0,0,0.048258,-0.012343,0,-0.014629,0,0,0,0.019504,0.0035186,0.0069066,-6.7857,0.0099762,0.014589,1.3095e-07,0.16,0.76,0
0.0081084,-0.0036041,0.019322,0.003351,0.0068019,-0.0016289,0,0,0.048829,-0.013459,0,-0.012706,0,0,0,0.019487,0.0031866,0.0068019,-5.7647,0.009825,0.014827,1.3444e-07,0.18,0.76,0
0.0090901,-0.0038622,0.019338,0.0029986,0.0067009,-0.0013795,0,0,0.049284,-0.014439,0,-0.01076,0,0,0,0.019453,0.0028829,0.0067009,-4.7923,0.0096791,0.01503,1.3717e-07,0.2,0.76,0
0.01008,-0.0040851,0.019331,0.0026812,0.0066036,-0.0011318,0,0,0.049637,-0.015298,0,-0.0088281,0,0,0,0.019408,0.0026046,0.0066036,-3.8711,0.0095386,0.015203,1.3926e-07,0.22,0.76,0
0.011076,-0.004273,0.019306,0.0023942,0.00651,-0.00088932,0,0,0.049903,-0.016052,0,-0.0069367,0,0,0,0.019352,0.0023475,0.00651,-3.0019,0.0094033,0.015353,1.4082e-07,0.24,0.76,0
0.012076,-0.0044263,0.019266,0.0021321,0.0064195,-0.0006548,0,0,0.050103,-0.016721,0,-0.0051075,0,0,0,0.019291,0.0021071,0.0064195,-2.1854,0.0092727,0.015485,1.4202e-07,0.26,0.76,0
0.01308,-0.0045463,0.019217,0.0018891,0.006332,-0.00043046,0,0,0.050254,-0.017327,0,-0.0033576,0,0,0,0.019228,0.0018784,0.006332,-1.4221,0.0091462,0.015607,1.4298e-07,0.28,0.76,0
0.014086,-0.0046342,0.019163,0.0016593,0.0062468,-0.00021828,0,0,0.050375,-0.017891,0,-0.0017026,0,0,0,0.019166,0.0016566,0.0062468,-0.71434,0.0090232,0.015725,1.4383e-07,0.3,0.76,0
0.015095,-0.004692,0.019108,0.0014373,0.0061636,-2.0237e-05,0,0,0.050483,-0.018432,0,-0.00015785,0,0,0,0.019108,0.0014373,0.0061636,-0.065618,0.008903,0.015845,1.4471e-07,0.32,0.76,0
0.016105,-0.0047219,0.019055,0.0012181,0.0060819,0.00016144,0,0,0.050595,-0.018969,0,0.0012592,0,0,0,0.019057,0.0012166,0.0060819,0.51853,0.008785,0.015973,1.457e-07,0.34,0.76,0
0.017118,-0.0047265,0.019008,0.00099771,0.0060016,0.00032419,0,0,0.050723,-0.019515,0,0.0025287,0,0,0,0.019013,0.00099188,0.0060016,1.0309,0.0086689,0.016112,1.4687e-07,0.36,0.76,0
0.018134,-0.004709,0.018968,0.00077339,0.0059224,0.00046509,0,0,0.050878,-0.020081,0,0.0036277,0,0,0,0.01898,0.00076151,0.0059224,1.4633,0.0085546,0.016264,1.4828e-07,0.38,0.76,0
0.019154,-0.0046729,0.018938,0.00054397,0.0058446,0.00058092,0,0,0.051064,-0.020672,0,0.0045312,0,0,0,0.018956,0.00052565,0.0058446,1.8071,0.0084422,0.01643,1.4991e-07,0.4,0.76,0
0.020177,-0.0046221,0.018918,0.00031014,0.0057685,0.00066843,0,0,0.051284,-0.021288,0,0.0052137,0,0,0,0.018942,0.00028616,0.0057685,2.0546,0.0083323,0.016608,1.5175e-07,0.42,0.76,0
0.021205,-0.0045609,0.018908,7.4555e-05,0.0056949,0.00072463,0,0,0.051533,-0.021919,0,0.0056521,0,0,0,0.018936,4.6716e-05,0.0056949,2.2001,0.0082259,0.016794,1.5374e-07,0.44,0.76,0
0.022238,-0.0044941,0.018907,-0.00015817,0.0056247,0.00074728,0,0,0.051801,-0.022553,0,0.0058288,0,0,0,0.018936,-0.00018741,0.0056247,2.2412,0.0081245,0.016981,1.5577e-07,0.46,0.76,0
0.023277,-0.0044264,0.018912,-0.00038174,0.0055591,0.00073533,0,0,0.052076,-0.023169,0,0.0057355,0,0,0,0.01894,-0.00040972,0.0055591,2.1795,0.0080298,0.017162,1.5774e-07,0.48,0.76,0
0.024321,-0.0043627,0.01892,-0.00058876,0.0054995,0.00068925,0,0,0.052342,-0.023744,0,0.0053761,0,0,0,0.018945,-0.00061308,0.0054995,2.0209,0.0079437,0.01733,1.5953e-07,0.5,0.76,0
0.025371,-0.0043074,0.018929,-0.00077149,0.0054473,0.0006113,0,0,0.05258,-0.024253,0,0.0047681,0,0,0,0.018948,-0.00079044,0.0054473,1.7756,0.0078684,0.017476,1.6105e-07,0.52,0.76,0
0.026424,-0.0042647,0.018935,-0.00092269,0.0054038,0.00050546,0,0,0.052773,-0.024673,0,0.0039426,0,0,0,0.018948,-0.00093554,0.0054038,1.4571,0.0078055,0.017593,1.6219e-07,0.54,0.76,0
0.027481,-0.004238,0.018936,-0.0010363,0.0053699,0.00037721,0,0,0.052908,-0.024984,0,0.0029422,0,0,0,0.018943,-0.0010435,0.0053699,1.0816,0.0077566,0.017675,1.629e-07,0.56,0.76,0
0.028541,-0.00423,0.018929,-0.0011082,0.0053464,0.00023316,0,0,0.052974,-0.025173,0,0.0018186,0,0,0,0.018932,-0.0011109,0.0053464,0.66658,0.0077226,0.01772,1.6314e-07,0.58,0.76,0
0.0296,-0.0042423,0.018914,-0.001136,0.0053335,8.0621e-05,0,0,0.052965,-0.025231,0,0.00062884,0,0,0,0.018915,-0.0011363,0.0053335,0.23038,0.007704,0.017725,1.6289e-07,0.6,0.76,0
0.030659,-0.0042757,0.01889,-0.0011198,0.0053312,-7.2842e-05,0,0,0.052881,-0.025159,0,-0.00056817,0,0,0,0.018891,-0.0011201,0.0053312,-0.20857,0.0077006,0.017691,1.6216e-07,0.62,0.76,0
0.031716,-0.0043299,0.018858,-0.001062,0.0053388,-0.00021984,0,0,0.052725,-0.024963,0,-0.0017147,0,0,0,0.018861,-0.0010644,0.0053388,-0.63221,0.0077116,0.017619,1.6097e-07,0.64,0.76,0
0.032768,-0.0044035,0.018819,-0.00096706,0.0053556,-0.0003536,0,0,0.052507,-0.024658,0,-0.0027581,0,0,0,0.018825,-0.00097338,0.0053556,-1.0235,0.0077358,0.017514,1.5939e-07,0.66,0.76,0
0.033816,-0.0044944,0.018775,-0.00084141,0.0053801,-0.00046845,0,0,0.05224,-0.024264,0,-0.0036539,0,0,0,0.018786,-0.00085258,0.0053801,-1.3672,0.0077712,0.017382,1.5749e-07,0.68,0.76,0
0.034858,-0.0045998,0.018729,-0.00069298,0.0054108,-0.00056022,0,0,0.051941,-0.023805,0,-0.0043697,0,0,0,0.018745,-0.00070913,0.0054108,-1.6508,0.0078156,0.01723,1.5535e-07,0.7,0.76,0
0.035894,-0.0047164,0.018684,-0.0005305,0.005446,-0.00062655,0,0,0.051628,-0.023308,0,-0.0048871,0,0,0,0.018704,-0.00055091,0.005446,-1.8657,0.0078665,0.017066,1.531e-07,0.72,0.76,0
0.036923,-0.0048407,0.018642,-0.00036261,0.0054839,-0.0006669,0,0,0.051318,-0.022801,0,-0.0052018,0,0,0,0.018666,-0.00038598,0.0054839,-2.0073,0.0079212,0.0169,1.5084e-07,0.74,0.76,0
0.037946,-0.0049691,0.018607,-0.00019711,0.005523,-0.00068245,0,0,0.051028,-0.022308,0,-0.0053231,0,0,0,0.018632,-0.00022185,0.005523,-2.0758,0.0079776,0.016738,1.4868e-07,0.76,0.76,0
0.038964,-0.0050979,0.018579,-4.0442e-05,0.0055617,-0.00067565,0,0,0.050769,-0.021848,0,-0.0052701,0,0,0,0.018604,-6.4927e-05,0.0055617,-2.0754,0.0080335,0.016587,1.4671e-07,0.78,0.76,0
0.039977,-0.0052242,0.01856,0.0001027,0.0055988,-0.00064983,0,0,0.050549,-0.021435,0,-0.0050687,0,0,0,0.018583,7.9853e-05,0.0055988,-2.0139,0.0080872,0.016453,1.45e-07,0.8,0.76,0
0.040986,-0.005345,0.018549,0.00022935,0.0056336,-0.00060867,0,0,0.050371,-0.021077,0,-0.0047476,0,0,0,0.018569,0.00020915,0.0056336,-1.9008,0.0081374,0.016338,1.4359e-07,0.82,0.76,0
0.041992,-0.005458,0.018546,0.00033811,0.0056653,-0.00055584,0,0,0.050236,-0.020776,0,-0.0043356,0,0,0,0.018563,0.00032115,0.0056653,-1.7469,0.0081832,0.016243,1.4248e-07,0.84,0.76,0
0.042996,-0.0055612,0.01855,0.00042888,0.0056936,-0.0004947,0,0,0.050139,-0.020532,0,-0.0038586,0,0,0,0.018563,0.00041538,0.0056936,-1.5626,0.0082241,0.016168,1.4165e-07,0.86,0.76,0
0.043998,-0.0056531,0.018558,0.00050252,0.0057181,-0.00042808,0,0,0.050075,-0.020341,0,-0.0033391,0,0,0,0.018568,0.00049237,0.0057181,-1.3574,0.0082595,0.016111,1.4108e-07,0.88,0.76,0
0.044999,-0.0057325,0.018569,0.0005605,0.0057388,-0.00035825,0,0,0.050037,-0.020195,0,-0.0027943,0,0,0,0.018576,0.00055337,0.0057388,-1.1392,0.0082893,0.01607,1.4073e-07,0.9,0.76,0
0.045999,-0.0057984,0.018581,0.00060459,0.0057556,-0.00028683,0,0,0.050018,-0.020089,0,-0.0022373,0,0,0,0.018585,0.00060002,0.0057556,-0.9139,0.0083137,0.016041,1.4053e-07,0.92,0.76,0
0.046999,-0.0058502,0.018592,0.00063662,0.0057686,-0.00021489,0,0,0.050011,-0.020015,0,-0.0016761,0,0,0,0.018595,0.00063405,0.0057686,-0.68559,0.0083324,0.016023,1.4044e-07,0.94,0.76,0
0.048,-0.0058875,0.018601,0.0006582,0.0057778,-0.00014302,0,0,0.050011,-0.019967,0,-0.0011156,0,0,0,0.018602,0.00065706,0.0057778,-0.45666,0.0083457,0.016011,1.4041e-07,0.96,0.76,0
0.049,-0.00591,0.018607,0.0006706,0.0057833,-7.1412e-05,0,0,0.050013,-0.01994,0,-0.00055701,0,0,0,0.018607,0.00067032,0.0057833,-0.22811,0.0083537,0.016005,1.4041e-07,0.98,0.76,0
0.05,-0.0059175,0.018609,0.00067465,0.0057851,-4.8164e-05,0,0,0.050014,-0.019931,0,-0.00037568,0,0,0,0.018609,0.00067452,0.0057851,-0.15387,0.0083563,0.016004,1.4041e-07,1,0.76,0
0,0,0.018291,0.007839,0.007839,-0.0032535,0,0,0.040763,0,0,-0.025377,0,0,0,0.019221,0.0069089,0.007839,-15.953,0.011323,0.011874,8.4213e-08,0,0.78,0
0.00081525,-0.00050755,0.018241,0.0072112,0.0076356,-0.0032326,0,0,0.041361,-0.0016555,0,-0.025214,0,0,0,0.019119,0.0063336,0.0076356,-15.188,0.011029,0.012186,8.9378e-08,0.02,0.78,0
0.0016544,-0.0010072,0.018446,0.006653,0.0075296,-0.0031599,0,0,0.042572,-0.0034187,0,-0.024647,0,0,0,0.019239,0.0058596,0.0075296,-14.094,0.010876,0.012627,9.7341e-08,0.04,0.78,0
0.0025181,-0.0014942,0.018643,0.0060746,0.0074153,-0.0030434,0,0,0.043789,-0.0052288,0,-0.023739,0,0,0,0.019341,0.0053764,0.0074153,-12.92,0.010711,0.013065,1.052e-07,0.06,0.78,0
0.003406,-0.0019632,0.018825,0.0054961,0.0072962,-0.0028829,0,0,0.044961,-0.0070206,0,-0.022486,0,0,0,0.019422,0.0048992,0.0072962,-11.696,0.010539,0.013484,1.1264e-07,0.08,0.78,0
0.0043166,-0.002409,0.018982,0.0049357,0.0071753,-0.0026826,0,0,0.046046,-0.0087347,0,-0.020924,0,0,0,0.019477,0.0044408,0.0071753,-10.452,0.010364,0.013873,1.1936e-07,0.1,0.78,0
0.0052478,-0.0028269,0.01911,0.0044077,0.0070552,-0.0024501,0,0,0.047012,-0.010325,0,-0.019111,0,0,0,0.019507,0.0040102,0.0070552,-9.2166,0.010191,0.014221,1.2519e-07,0.12,0.78,0
0.0061971,-0.0032131,0.019205,0.0039216,0.0069379,-0.0021945,0,0,0.047841,-0.011764,0,-0.017117,0,0,0,0.019514,0.0036127,0.0069379,-8.0114,0.010021,0.014527,1.3006e-07,0.14,0.78,0
0.0071615,-0.0035647,0.019267,0.0034815,0.0068246,-0.001925,0,0,0.048526,-0.013038,0,-0.015015,0,0,0,0.019499,0.0032501,0.0068246,-6.8533,0.0098578,0.014789,1.3397e-07,0.16,0.78,0
0.0081381,-0.0038798,0.0193,0.0030879,0.0067162,-0.00165,0,0,0.049075,-0.014151,0,-0.01287,0,0,0,0.019466,0.0029216,0.0067162,-5.7528,0.0097012,0.015011,1.3701e-07,0.18,0.78,0
0.0091245,-0.0041574,0.019305,0.0027379,0.006613,-0.0013761,0,0,0.049501,-0.015113,0,-0.010734,0,0,0,0.019419,0.0026244,0.006613,-4.7159,0.0095521,0.015198,1.393e-07,0.2,0.78,0
0.010118,-0.0043973,0.01929,0.002427,0.006515,-0.0011085,0,0,0.049821,-0.015943,0,-0.0086464,0,0,0,0.019362,0.0023544,0.006515,-3.745,0.0094106,0.015356,1.4098e-07,0.22,0.78,0
0.011117,-0.0045999,0.019257,0.0021494,0.006422,-0.00085094,0,0,0.050058,-0.016663,0,-0.0066373,0,0,0,0.0193,0.0021072,0.006422,-2.8405,0.0092763,0.015492,1.4221e-07,0.24,0.78,0
0.01212,-0.0047664,0.019213,0.0018989,0.0063337,-0.00060605,0,0,0.050231,-0.017296,0,-0.0047272,0,0,0,0.019235,0.0018777,0.0063337,-2.0022,0.0091486,0.015613,1.4313e-07,0.26,0.78,0
0.013127,-0.0048982,0.019162,0.0016692,0.0062495,-0.00037582,0,0,0.05036,-0.017863,0,-0.0029314,0,0,0,0.01917,0.0016612,0.0062495,-1.2302,0.009027,0.015725,1.4389e-07,0.28,0.78,0
0.014135,-0.004997,0.019109,0.0014544,0.0061689,-0.00016186,0,0,0.050465,-0.018386,0,-0.0012625,0,0,0,0.01911,0.001453,0.0061689,-0.52526,0.0089107,0.015835,1.446e-07,0.3,0.78,0
0.015145,-0.0050653,0.019056,0.0012491,0.0060915,3.426e-05,0,0,0.050561,-0.018885,0,0.00026723,0,0,0,0.019056,0.0012491,0.0060915,0.11024,0.0087988,0.015947,1.4536e-07,0.32,0.78,0
0.016157,-0.0051055,0.019007,0.0010487,0.0060168,0.00021085,0,0,0.050663,-0.019376,0,0.0016446,0,0,0,0.01901,0.0010462,0.0060168,0.67258,0.0086909,0.016066,1.4626e-07,0.34,0.78,0
0.017172,-0.0051206,0.018965,0.00084942,0.0059445,0.00036597,0,0,0.050782,-0.019871,0,0.0028546,0,0,0,0.018973,0.00084203,0.0059445,1.1568,0.0085865,0.016194,1.4735e-07,0.36,0.78,0
0.018189,-0.0051139,0.018932,0.00064898,0.0058744,0.00049743,0,0,0.050926,-0.020379,0,0.00388,0,0,0,0.018946,0.00063545,0.0058744,1.5573,0.0084852,0.016334,1.4864e-07,0.38,0.78,0
0.019209,-0.0050889,0.018909,0.00044635,0.0058065,0.00060289,0,0,0.051098,-0.020904,0,0.0047026,0,0,0,0.018928,0.00042668,0.0058065,1.8684,0.0083871,0.016484,1.5014e-07,0.4,0.78,0
0.020233,-0.0050497,0.018895,0.00024211,0.005741,0.00068005,0,0,0.051299,-0.021446,0,0.0053044,0,0,0,0.018919,0.00021735,0.005741,2.0853,0.0082925,0.016642,1.5182e-07,0.42,0.78,0
0.021261,-0.0050003,0.01889,3.8459e-05,0.0056784,0.00072692,0,0,0.051524,-0.021996,0,0.00567,0,0,0,0.018918,1.047e-05,0.0056784,2.205,0.0082022,0.016806,1.536e-07,0.44,0.78,0
0.022294,-0.0049453,0.018892,-0.00016088,0.0056194,0.00074218,0,0,0.051764,-0.022543,0,0.005789,0,0,0,0.018921,-0.00018974,0.0056194,2.2274,0.0081169,0.016969,1.5541e-07,0.46,0.78,0
0.023331,-0.004889,0.0189,-0.00035091,0.0055648,0.0007255,0,0,0.052008,-0.023071,0,0.0056589,0,0,0,0.018928,-0.00037821,0.0055648,2.1552,0.0080381,0.017126,1.5716e-07,0.48,0.78,0
0.024374,-0.0048359,0.018911,-0.00052583,0.0055155,0.00067778,0,0,0.052242,-0.023561,0,0.0052867,0,0,0,0.018935,-0.00054944,0.0055155,1.9947,0.0079669,0.01727,1.5876e-07,0.5,0.78,0
0.025421,-0.0047899,0.018922,-0.00067957,0.0054726,0.00060135,0,0,0.052451,-0.023993,0,0.0046906,0,0,0,0.01894,-0.000698,0.0054726,1.7556,0.0079048,0.017394,1.601e-07,0.52,0.78,0
0.026472,-0.0047549,0.018929,-0.00080643,0.0054368,0.00049992,0,0,0.05262,-0.024348,0,0.0038994,0,0,0,0.018942,-0.00081908,0.0054368,1.4501,0.0078531,0.017493,1.6111e-07,0.54,0.78,0
0.027526,-0.004734,0.018931,-0.00090162,0.0054089,0.00037841,0,0,0.052737,-0.024611,0,0.0029516,0,0,0,0.018938,-0.00090884,0.0054089,1.0927,0.0078128,0.017562,1.6174e-07,0.56,0.78,0
0.028581,-0.0047294,0.018926,-0.00096173,0.0053893,0.00024272,0,0,0.052793,-0.024769,0,0.0018932,0,0,0,0.018929,-0.00096469,0.0053893,0.69912,0.0077845,0.017599,1.6193e-07,0.58,0.78,0
0.029637,-0.0047428,0.018912,-0.00098501,0.0053782,9.9319e-05,0,0,0.052784,-0.024817,0,0.00077469,0,0,0,0.018913,-0.00098551,0.0053782,0.28598,0.0077686,0.017602,1.6169e-07,0.6,0.78,0
0.030693,-0.0047749,0.01889,-0.00097155,0.0053756,-4.5081e-05,0,0,0.052707,-0.024754,0,-0.00035163,0,0,0,0.01889,-0.00097165,0.0053756,-0.13005,0.0077647,0.01757,1.6101e-07,0.62,0.78,0
0.031746,-0.0048254,0.01886,-0.00092326,0.0053809,-0.00018395,0,0,0.052567,-0.024586,0,-0.0014348,0,0,0,0.018861,-0.00092497,0.0053809,-0.53272,0.0077724,0.017507,1.5992e-07,0.64,0.78,0
0.032795,-0.0048933,0.018822,-0.00084385,0.0053934,-0.00031134,0,0,0.052371,-0.024325,0,-0.0024285,0,0,0,0.018827,-0.00084878,0.0053934,-0.9068,0.0077904,0.017415,1.5847e-07,0.66,0.78,0
0.033841,-0.0049769,0.018779,-0.00073854,0.0054121,-0.00042224,0,0,0.05213,-0.023987,0,-0.0032934,0,0,0,0.018788,-0.00074767,0.0054121,-1.2388,0.0078175,0.017299,1.5671e-07,0.68,0.78,0
0.034881,-0.0050739,0.018733,-0.00061369,0.0054358,-0.00051288,0,0,0.051859,-0.023593,0,-0.0040005,0,0,0,0.018747,-0.00062728,0.0054358,-1.5175,0.0078517,0.017165,1.5474e-07,0.7,0.78,0
0.035915,-0.0051813,0.018687,-0.00047624,0.0054632,-0.00058098,0,0,0.051572,-0.023164,0,-0.0045316,0,0,0,0.018704,-0.00049384,0.0054632,-1.7349,0.0078913,0.01702,1.5265e-07,0.72,0.78,0
0.036943,-0.0052961,0.018643,-0.00033314,0.0054929,-0.00062573,0,0,0.051285,-0.022721,0,-0.0048807,0,0,0,0.018663,-0.00035375,0.0054929,-1.8866,0.0079342,0.016872,1.5052e-07,0.74,0.78,0
0.037966,-0.0054151,0.018603,-0.00019076,0.0055237,-0.00064773,0,0,0.051009,-0.022286,0,-0.0050523,0,0,0,0.018625,-0.00021305,0.0055237,-1.9716,0.0079787,0.016725,1.4845e-07,0.76,0.78,0
0.038984,-0.0055353,0.018569,-5.4474e-05,0.0055544,-0.00064867,0,0,0.050757,-0.021875,0,-0.0050596,0,0,0,0.018592,-7.704e-05,0.0055544,-1.9924,0.008023,0.016586,1.4653e-07,0.78,0.78,0
0.039997,-0.0056536,0.018542,7.1586e-05,0.0055841,-0.00063106,0,0,0.050536,-0.021499,0,-0.0049223,0,0,0,0.018564,5.0051e-05,0.0055841,-1.9545,0.008066,0.01646,1.448e-07,0.8,0.78,0
0.041005,-0.0057675,0.018522,0.00018463,0.0056121,-0.00059782,0,0,0.05035,-0.021167,0,-0.004663,0,0,0,0.018542,0.00016517,0.0056121,-1.8652,0.0081063,0.016348,1.4332e-07,0.82,0.78,0
0.042011,-0.0058747,0.018509,0.00028314,0.0056377,-0.000552,0,0,0.050199,-0.020883,0,-0.0043056,0,0,0,0.018526,0.00026643,0.0056377,-1.7331,0.0081434,0.016254,1.4208e-07,0.84,0.78,0
0.043013,-0.005973,0.018502,0.00036662,0.0056607,-0.00049649,0,0,0.050082,-0.020647,0,-0.0038726,0,0,0,0.018516,0.00035304,0.0056607,-1.567,0.0081765,0.016176,1.411e-07,0.86,0.78,0
0.044014,-0.0060611,0.0185,0.00043544,0.0056807,-0.00043389,0,0,0.049996,-0.020456,0,-0.0033843,0,0,0,0.018511,0.00042502,0.0056807,-1.3751,0.0082054,0.016114,1.4036e-07,0.88,0.78,0
0.045013,-0.0061375,0.018502,0.00049052,0.0056976,-0.00036635,0,0,0.049935,-0.020308,0,-0.0028575,0,0,0,0.018509,0.00048307,0.0056976,-1.1648,0.0082299,0.016066,1.3981e-07,0.9,0.78,0
0.046011,-0.0062012,0.018505,0.00053309,0.0057114,-0.00029559,0,0,0.049895,-0.020196,0,-0.0023056,0,0,0,0.01851,0.00052823,0.0057114,-0.94201,0.0082499,0.016031,1.3944e-07,0.92,0.78,0
0.047009,-0.0062514,0.018509,0.00056448,0.0057221,-0.00022285,0,0,0.04987,-0.020115,0,-0.0017382,0,0,0,0.018512,0.00056171,0.0057221,-0.71139,0.0082653,0.016007,1.3919e-07,0.94,0.78,0
0.048006,-0.0062877,0.018513,0.0005859,0.0057297,-0.00014901,0,0,0.049856,-0.020061,0,-0.0011623,0,0,0,0.018514,0.00058466,0.0057297,-0.47619,0.0082763,0.015991,1.3905e-07,0.96,0.78,0
0.049003,-0.0063096,0.018516,0.00059833,0.0057343,-7.4615e-05,0,0,0.049849,-0.02003,0,-0.000582,0,0,0,0.018516,0.00059802,0.0057343,-0.23859,0.0082829,0.015982,1.3897e-07,0.98,0.78,0
0.05,-0.0063169,0.018517,0.0006024,0.0057358,-4.6945e-05,0,0,0.049847,-0.02002,0,-0.00036617,0,0,0,0.018517,0.00060228,0.0057358,-0.15014,0.0082851,0.015979,1.3895e-07,1,0.78,0
0,0,0.018292,0.0078393,0.0078393,-0.0034731,0,0,0.040764,0,0,-0.02709,0,0,0,0.019341,0.0067905,0.0078393,-16.803,0.011323,0.01206,8.7791e-08,0,0.8,0
0.00081529,-0.0005418,0.018238,0.0071627,0.0076203,-0.0034496,0,0,0.04141,-0.0017846,0,-0.026907,0,0,0,0.019225,0.0061762,0.0076203,-15.96,0.011007,0.01239,9.3225e-08,0.02,0.8,0
0.0016564,-0.0010781,0.018457,0.0065545,0.0075034,-0.0033748,0,0,0.042719,-0.003701,0,-0.026323,0,0,0,0.019347,0.0056642,0.0075034,-14.778,0.010838,0.012863,1.018e-07,0.04,0.8,0
0.002524,-0.0016026,0.018666,0.0059234,0.007377,-0.0032443,0,0,0.044029,-0.005669,0,-0.025306,0,0,0,0.019445,0.005145,0.007377,-13.492,0.010656,0.013325,1.1011e-07,0.06,0.8,0
0.0034176,-0.0021088,0.018855,0.0052961,0.0072454,-0.003059,0,0,0.045279,-0.0076026,0,-0.02386,0,0,0,0.019514,0.0046379,0.0072454,-12.142,0.010466,0.013758,1.1773e-07,0.08,0.8,0
0.0043352,-0.0025899,0.019014,0.0046958,0.007113,-0.0028261,0,0,0.046415,-0.009427,0,-0.022043,0,0,0,0.019552,0.0041582,0.007113,-10.771,0.010274,0.01415,1.2438e-07,0.1,0.8,0
0.0052742,-0.0030404,0.019137,0.0041395,0.0069829,-0.0025571,0,0,0.047401,-0.011089,0,-0.019945,0,0,0,0.019561,0.0037155,0.0069829,-9.4148,0.010086,0.014491,1.2989e-07,0.12,0.8,0
0.0062312,-0.0034558,0.019222,0.0036367,0.0068575,-0.0022649,0,0,0.048221,-0.012561,0,-0.017666,0,0,0,0.019544,0.0033142,0.0068575,-8.1032,0.0099053,0.01478,1.3426e-07,0.14,0.8,0
0.007203,-0.003833,0.01927,0.0031902,0.0067382,-0.0019616,0,0,0.048876,-0.013837,0,-0.015301,0,0,0,0.019506,0.0029543,0.0067382,-6.8556,0.009733,0.015022,1.3756e-07,0.16,0.8,0
0.0081863,-0.0041702,0.019287,0.0027983,0.0066257,-0.0016575,0,0,0.04938,-0.014927,0,-0.012928,0,0,0,0.019452,0.0026333,0.0066257,-5.6835,0.0095704,0.015221,1.3997e-07,0.18,0.8,0
0.0091782,-0.0044667,0.019278,0.002456,0.0065202,-0.00136,0,0,0.049755,-0.01585,0,-0.010608,0,0,0,0.019387,0.0023468,0.0065202,-4.5924,0.009418,0.015384,1.4164e-07,0.2,0.8,0
0.010176,-0.0047228,0.019248,0.0021569,0.0064216,-0.0010746,0,0,0.050025,-0.016632,0,-0.0083815,0,0,0,0.019316,0.0020896,0.0064216,-3.5834,0.0092756,0.01552,1.4277e-07,0.22,0.8,0
0.011179,-0.0049395,0.019205,0.0018937,0.0063296,-0.00080464,0,0,0.050214,-0.0173,0,-0.0062762,0,0,0,0.019242,0.0018564,0.0063296,-2.6555,0.0091428,0.015637,1.4354e-07,0.24,0.8,0
0.012185,-0.0051182,0.019153,0.0016595,0.0062437,-0.00055243,0,0,0.050346,-0.017878,0,-0.0043089,0,0,0,0.01917,0.001642,0.0062437,-1.807,0.0090187,0.01574,1.4408e-07,0.26,0.8,0
0.013193,-0.0052608,0.019097,0.0014473,0.0061633,-0.00031931,0,0,0.050442,-0.018392,0,-0.0024907,0,0,0,0.019103,0.0014415,0.0061633,-1.0361,0.0089026,0.015837,1.4454e-07,0.28,0.8,0
0.014203,-0.0053697,0.019041,0.0012512,0.0060878,-0.00010632,0,0,0.050519,-0.018863,0,-0.00082928,0,0,0,0.019042,0.0012506,0.0060878,-0.34239,0.0087935,0.015933,1.4503e-07,0.3,0.8,0
0.015214,-0.0054474,0.01899,0.0010657,0.0060166,8.5627e-05,0,0,0.050595,-0.019308,0,0.00066789,0,0,0,0.01899,0.0010653,0.0060166,0.27371,0.0086906,0.016033,1.4561e-07,0.32,0.8,0
0.016227,-0.0054969,0.018944,0.00088657,0.0059491,0.00025547,0,0,0.05068,-0.019744,0,0.0019926,0,0,0,0.018947,0.00088295,0.0059491,0.81038,0.0085932,0.016139,1.4636e-07,0.34,0.8,0
0.017241,-0.0055214,0.018906,0.00071034,0.005885,0.00040195,0,0,0.050783,-0.020181,0,0.0031352,0,0,0,0.018915,0.00070146,0.005885,1.2648,0.0085006,0.016254,1.473e-07,0.36,0.8,0
0.018258,-0.0055242,0.018878,0.00053487,0.0058239,0.00052361,0,0,0.050911,-0.020627,0,0.0040841,0,0,0,0.018893,0.00051994,0.0058239,1.6337,0.0084123,0.016378,1.4845e-07,0.38,0.8,0
0.019277,-0.0055091,0.01886,0.00035926,0.0057657,0.00061891,0,0,0.051067,-0.021085,0,0.0048275,0,0,0,0.01888,0.00033857,0.0057657,1.9139,0.0083282,0.016511,1.4979e-07,0.4,0.8,0
0.0203,-0.0054799,0.018851,0.00018392,0.0057104,0.00068636,0,0,0.051247,-0.021553,0,0.0053536,0,0,0,0.018876,0.00015872,0.0057104,2.1029,0.0082484,0.016651,1.5129e-07,0.42,0.8,0
0.021327,-0.0054408,0.01885,1.0617e-05,0.0056583,0.00072481,0,0,0.051449,-0.022026,0,0.0056535,0,0,0,0.018878,-1.7227e-05,0.0056583,2.2,0.0081731,0.016793,1.5288e-07,0.44,0.8,0
0.022358,-0.0053958,0.018857,-0.0001577,0.0056097,0.00073363,0,0,0.051663,-0.022493,0,0.0057223,0,0,0,0.018885,-0.00018597,0.0056097,2.2063,0.0081029,0.016934,1.5449e-07,0.46,0.8,0
0.023394,-0.0053493,0.018868,-0.00031711,0.0055652,0.00071305,0,0,0.05188,-0.022941,0,0.0055617,0,0,0,0.018894,-0.00034358,0.0055652,2.1256,0.0080386,0.017069,1.5605e-07,0.48,0.8,0
0.024434,-0.0053051,0.018881,-0.00046307,0.0055253,0.00066429,0,0,0.052086,-0.023355,0,0.0051814,0,0,0,0.018904,-0.00048585,0.0055253,1.9645,0.007981,0.017191,1.5746e-07,0.5,0.8,0
0.025477,-0.0052671,0.018893,-0.00059082,0.0054908,0.0005897,0,0,0.05227,-0.023718,0,0.0045997,0,0,0,0.018911,-0.00060865,0.0054908,1.732,0.0079311,0.017296,1.5866e-07,0.52,0.8,0
0.026524,-0.0052386,0.018903,-0.00069592,0.0054621,0.00049276,0,0,0.052419,-0.024016,0,0.0038435,0,0,0,0.018915,-0.0007083,0.0054621,1.4393,0.0078896,0.01738,1.5956e-07,0.54,0.8,0
0.027574,-0.0052224,0.018907,-0.00077461,0.0054397,0.00037791,0,0,0.052522,-0.024236,0,0.0029477,0,0,0,0.018914,-0.00078186,0.0054397,1.0996,0.0078573,0.017438,1.6012e-07,0.56,0.8,0
0.028625,-0.0052207,0.018904,-0.0008242,0.0054239,0.00025039,0,0,0.052572,-0.024368,0,0.0019531,0,0,0,0.018907,-0.00082737,0.0054239,0.72705,0.0078345,0.017469,1.6031e-07,0.58,0.8,0
0.029677,-0.005235,0.018893,-0.00084331,0.0054148,0.00011594,0,0,0.052564,-0.024407,0,0.00090435,0,0,0,0.018893,-0.000844,0.0054148,0.33658,0.0078214,0.01747,1.6009e-07,0.6,0.8,0
0.030728,-0.0052659,0.018873,-0.00083206,0.0054123,-1.9531e-05,0,0,0.052497,-0.024353,0,-0.00015234,0,0,0,0.018873,-0.00083208,0.0054123,-0.05679,0.0078177,0.017442,1.5949e-07,0.62,0.8,0
0.031777,-0.0053133,0.018845,-0.00079201,0.0054159,-0.00015029,0,0,0.052374,-0.024211,0,-0.0011722,0,0,0,0.018846,-0.00079316,0.0054159,-0.43846,0.007823,0.017387,1.5851e-07,0.64,0.8,0
0.032823,-0.0053765,0.01881,-0.00072615,0.0054251,-0.00027107,0,0,0.052201,-0.02399,0,-0.0021144,0,0,0,0.018814,-0.00072991,0.0054251,-0.7948,0.0078363,0.017307,1.5721e-07,0.66,0.8,0
0.033865,-0.0054539,0.018769,-0.00063865,0.0054392,-0.00037745,0,0,0.051987,-0.023704,0,-0.0029441,0,0,0,0.018777,-0.00064599,0.0054392,-1.1137,0.0078566,0.017207,1.5563e-07,0.68,0.8,0
0.034902,-0.0055435,0.018725,-0.00053458,0.0054571,-0.000466,0,0,0.051745,-0.023368,0,-0.0036348,0,0,0,0.018736,-0.00054584,0.0054571,-1.3852,0.0078825,0.017091,1.5384e-07,0.7,0.8,0
0.035935,-0.005643,0.018679,-0.00041944,0.005478,-0.00053451,0,0,0.051485,-0.023,0,-0.0041692,0,0,0,0.018694,-0.00043439,0.005478,-1.6019,0.0079126,0.016964,1.5192e-07,0.72,0.8,0
0.036962,-0.0057496,0.018634,-0.00029881,0.0055007,-0.00058202,0,0,0.051222,-0.022618,0,-0.0045397,0,0,0,0.018652,-0.00031669,0.0055007,-1.7591,0.0079454,0.016832,1.4995e-07,0.74,0.8,0
0.037984,-0.0058605,0.018592,-0.00017786,0.0055243,-0.00060867,0,0,0.050965,-0.022239,0,-0.0047476,0,0,0,0.018612,-0.00019757,0.0055243,-1.8554,0.0079796,0.016701,1.4801e-07,0.76,0.8,0
0.039,-0.0059729,0.018554,-6.1039e-05,0.005548,-0.00061561,0,0,0.050725,-0.021875,0,-0.0048018,0,0,0,0.018575,-8.1375e-05,0.005548,-1.892,0.0080138,0.016575,1.4617e-07,0.78,0.8,0
0.040012,-0.0060841,0.018522,4.8116e-05,0.005571,-0.0006047,0,0,0.050508,-0.021539,0,-0.0047166,0,0,0,0.018542,2.8344e-05,0.005571,-1.8728,0.008047,0.016458,1.4447e-07,0.8,0.8,0
0.041021,-0.0061917,0.018495,0.00014709,0.0055927,-0.00057823,0,0,0.05032,-0.021238,0,-0.0045102,0,0,0,0.018513,0.00012888,0.0055927,-1.8033,0.0080784,0.016352,1.4297e-07,0.82,0.8,0
0.042025,-0.0062933,0.018475,0.00023434,0.0056127,-0.00053873,0,0,0.050161,-0.020976,0,-0.0042021,0,0,0,0.01849,0.00021845,0.0056127,-1.6903,0.0081072,0.01626,1.4168e-07,0.84,0.8,0
0.043027,-0.0063871,0.01846,0.00030921,0.0056306,-0.00048869,0,0,0.050033,-0.020753,0,-0.0038118,0,0,0,0.018473,0.00029606,0.0056306,-1.5412,0.0081331,0.016183,1.406e-07,0.86,0.8,0
0.044027,-0.0064714,0.018449,0.00037172,0.0056463,-0.00043042,0,0,0.049931,-0.020571,0,-0.0033573,0,0,0,0.018459,0.00036147,0.0056463,-1.3632,0.0081557,0.016119,1.3973e-07,0.88,0.8,0
0.045024,-0.0065448,0.018443,0.00042238,0.0056595,-0.00036597,0,0,0.049854,-0.020425,0,-0.0028546,0,0,0,0.01845,0.00041495,0.0056595,-1.163,0.0081749,0.016068,1.3906e-07,0.9,0.8,0
0.046021,-0.0066062,0.018439,0.00046201,0.0056704,-0.00029705,0,0,0.049799,-0.020313,0,-0.002317,0,0,0,0.018444,0.00045711,0.0056704,-0.9464,0.0081905,0.016029,1.3856e-07,0.92,0.8,0
0.047016,-0.0066548,0.018438,0.00049156,0.0056788,-0.00022504,0,0,0.04976,-0.02023,0,-0.0017553,0,0,0,0.01844,0.00048874,0.0056788,-0.71833,0.0082027,0.016001,1.382e-07,0.94,0.8,0
0.048011,-0.00669,0.018437,0.00051192,0.0056847,-0.00015101,0,0,0.049735,-0.020174,0,-0.0011779,0,0,0,0.018439,0.00051065,0.0056847,-0.48264,0.0082113,0.015982,1.3797e-07,0.96,0.8,0
0.049006,-0.0067112,0.018437,0.00052382,0.0056883,-7.5783e-05,0,0,0.049721,-0.020142,0,-0.0005911,0,0,0,0.018438,0.0005235,0.0056883,-0.24238,0.0082165,0.015971,1.3783e-07,0.98,0.8,0
0.05,-0.0067184,0.018437,0.00052773,0.0056895,-4.5604e-05,0,0,0.049716,-0.020131,0,-0.00035571,0,0,0,0.018437,0.00052762,0.0056895,-0.14589,0.0082182,0.015967,1.3779e-07,1,0.8,0
0,0,0.018332,0.0078564,0.0078564,-0.0037111,0,0,0.040853,-3.2526e-19,0,-0.028947,0,0,0,0.019513,0.0066749,0.0078564,-17.66,0.011348,0.01229,9.2379e-08,0,0.82,0
0.00081707,-0.00057893,0.018274,0.0071186,0.0076177,-0.0036841,0,0,0.041559,-0.0019466,0,-0.028736,0,0,0,0.019381,0.0060117,0.0076177,-16.723,0.011003,0.012643,9.8164e-08,0.02,0.82,0
0.0016623,-0.0011553,0.018509,0.0064456,0.0074864,-0.0036058,0,0,0.042988,-0.0040591,0,-0.028125,0,0,0,0.019505,0.00545,0.0074864,-15.435,0.010814,0.013155,1.0754e-07,0.04,0.82,0
0.0025366,-0.0017209,0.018731,0.0057473,0.0073435,-0.0034561,0,0,0.044412,-0.0062255,0,-0.026957,0,0,0,0.019594,0.0048846,0.0073435,-14.014,0.010607,0.013647,1.1638e-07,0.06,0.82,0
0.0034388,-0.0022673,0.018926,0.0050603,0.0071958,-0.003238,0,0,0.045747,-0.0083284,0,-0.025257,0,0,0,0.019645,0.0043414,0.0071958,-12.518,0.010394,0.014094,1.2416e-07,0.08,0.82,0
0.0043665,-0.0027861,0.019081,0.0044148,0.0070488,-0.0029639,0,0,0.046927,-0.010273,0,-0.023119,0,0,0,0.019658,0.0038385,0.0070488,-11.004,0.010182,0.014483,1.3056e-07,0.1,0.82,0
0.0053159,-0.0032705,0.019192,0.0038299,0.0069066,-0.002651,0,0,0.047914,-0.011999,0,-0.020678,0,0,0,0.019637,0.0033853,0.0069066,-9.5205,0.0099763,0.014808,1.3552e-07,0.12,0.82,0
0.006283,-0.0037156,0.019259,0.0033139,0.0067718,-0.0023172,0,0,0.048699,-0.013486,0,-0.018074,0,0,0,0.019589,0.002984,0.0067718,-8.1032,0.0097814,0.015072,1.3911e-07,0.14,0.82,0
0.0072638,-0.0041182,0.019285,0.0028668,0.0066455,-0.0019778,0,0,0.049294,-0.014737,0,-0.015427,0,0,0,0.01952,0.0026319,0.0066455,-6.773,0.0095991,0.015282,1.4155e-07,0.16,0.82,0
0.0082548,-0.0044769,0.019278,0.0024833,0.0065285,-0.0016446,0,0,0.049724,-0.015776,0,-0.012828,0,0,0,0.019438,0.0023238,0.0065285,-5.5404,0.0094301,0.015447,1.4308e-07,0.18,0.82,0
0.0092528,-0.0047914,0.019247,0.0021554,0.0064207,-0.0013256,0,0,0.050022,-0.016635,0,-0.010339,0,0,0,0.019349,0.0020532,0.0064207,-4.4085,0.0092743,0.015578,1.4395e-07,0.2,0.82,0
0.010256,-0.0050626,0.019198,0.0018741,0.0063218,-0.0010255,0,0,0.050219,-0.017346,0,-0.0079988,0,0,0,0.019259,0.0018136,0.0063218,-3.3758,0.0091314,0.015685,1.4438e-07,0.22,0.82,0
0.011262,-0.0052919,0.01914,0.0016308,0.0062312,-0.00074701,0,0,0.050343,-0.017941,0,-0.0058267,0,0,0,0.019172,0.001599,0.0062312,-2.4386,0.0090006,0.015775,1.4456e-07,0.24,0.82,0
0.012269,-0.0054815,0.019077,0.0014174,0.0061483,-0.00049138,0,0,0.050421,-0.01845,0,-0.0038327,0,0,0,0.01909,0.0014037,0.0061483,-1.5926,0.0088808,0.015856,1.4463e-07,0.26,0.82,0
0.013278,-0.0056338,0.019014,0.0012266,0.0060722,-0.00025905,0,0,0.050473,-0.018898,0,-0.0020206,0,0,0,0.019018,0.0012229,0.0060722,-0.8342,0.008771,0.015934,1.4473e-07,0.28,0.82,0
0.014288,-0.0057516,0.018956,0.0010523,0.0060023,-5.0209e-05,0,0,0.050517,-0.019305,0,-0.00039163,0,0,0,0.018956,0.0010522,0.0060023,-0.16068,0.0086701,0.016013,1.4493e-07,0.3,0.82,0
0.015299,-0.0058376,0.018904,0.00088924,0.0059378,0.00013498,0,0,0.050566,-0.019689,0,0.0010528,0,0,0,0.018905,0.00088823,0.0059378,0.42928,0.0085769,0.016097,1.453e-07,0.32,0.82,0
0.016311,-0.0058953,0.01886,0.00073324,0.005878,0.00029618,0,0,0.05063,-0.020065,0,0.0023102,0,0,0,0.018865,0.00072841,0.005878,0.93582,0.0084905,0.016188,1.4587e-07,0.34,0.82,0
0.017324,-0.0059279,0.018827,0.00058123,0.0058224,0.00043282,0,0,0.050717,-0.020441,0,0.003376,0,0,0,0.018837,0.00057097,0.0058224,1.3581,0.0084101,0.016288,1.4666e-07,0.36,0.82,0
0.01834,-0.005939,0.018804,0.00043121,0.0057704,0.00054414,0,0,0.050829,-0.020823,0,0.0042443,0,0,0,0.01882,0.0004151,0.0057704,1.695,0.008335,0.016396,1.4766e-07,0.38,0.82,0
0.019357,-0.0059323,0.018791,0.00028232,0.0057218,0.00062928,0,0,0.050968,-0.021214,0,0.0049084,0,0,0,0.018812,0.00026095,0.0057218,1.9451,0.0082649,0.016512,1.4885e-07,0.4,0.82,0
0.020378,-0.0059118,0.018787,0.00013484,0.0056765,0.00068746,0,0,0.051131,-0.021613,0,0.0053622,0,0,0,0.018812,0.00010954,0.0056765,2.1079,0.0081995,0.016633,1.5019e-07,0.42,0.82,0
0.021403,-0.0058814,0.018791,-9.8809e-06,0.0056345,0.00071814,0,0,0.051312,-0.022013,0,0.0056015,0,0,0,0.018819,-3.7271e-05,0.0056345,2.1842,0.0081387,0.016756,1.5162e-07,0.44,0.82,0
0.022431,-0.005845,0.018802,-0.00014953,0.0055959,0.00072126,0,0,0.051506,-0.022407,0,0.0056258,0,0,0,0.01883,-0.00017694,0.0055959,2.1763,0.0080829,0.016878,1.5307e-07,0.46,0.82,0
0.023463,-0.0058067,0.018817,-0.00028106,0.0055609,0.00069745,0,0,0.0517,-0.022784,0,0.0054401,0,0,0,0.018843,-0.00030649,0.0055609,2.0887,0.0080324,0.016993,1.5448e-07,0.48,0.82,0
0.024499,-0.00577,0.018834,-0.00040092,0.0055299,0.00064814,0,0,0.051885,-0.02313,0,0.0050555,0,0,0,0.018856,-0.00042274,0.0055299,1.9278,0.0079876,0.017098,1.5576e-07,0.5,0.82,0
0.025538,-0.0057387,0.018849,-0.00050544,0.0055032,0.00057566,0,0,0.05205,-0.023434,0,0.0044902,0,0,0,0.018867,-0.00052255,0.0055032,1.7021,0.007949,0.017188,1.5685e-07,0.52,0.82,0
0.026581,-0.0057156,0.018862,-0.00059117,0.0054812,0.00048325,0,0,0.052184,-0.023682,0,0.0037693,0,0,0,0.018874,-0.00060317,0.0054812,1.4222,0.0079172,0.017259,1.5768e-07,0.54,0.82,0
0.027626,-0.0057034,0.018869,-0.00065518,0.005464,0.00037493,0,0,0.052278,-0.023865,0,0.0029244,0,0,0,0.018876,-0.00066237,0.005464,1.0997,0.0078925,0.017308,1.5821e-07,0.56,0.82,0
0.028672,-0.0057041,0.018869,-0.00069538,0.005452,0.00025537,0,0,0.052325,-0.023975,0,0.0019918,0,0,0,0.018872,-0.00069871,0.005452,0.7477,0.0078751,0.017334,1.5841e-07,0.58,0.82,0
0.029719,-0.0057191,0.018861,-0.00071072,0.005445,0.00012962,0,0,0.052322,-0.024007,0,0.001011,0,0,0,0.018862,-0.00071158,0.005445,0.37944,0.007865,0.017335,1.5825e-07,0.6,0.82,0
0.030765,-0.005749,0.018845,-0.00070131,0.005443,2.8873e-06,0,0,0.052266,-0.023963,0,2.2521e-05,0,0,0,0.018845,-0.00070131,0.005443,0.0084638,0.0078621,0.017312,1.5774e-07,0.62,0.82,0
0.031809,-0.0057938,0.01882,-0.00066839,0.0054455,-0.00011978,0,0,0.052161,-0.023844,0,-0.0009343,0,0,0,0.018821,-0.00066913,0.0054455,-0.35214,0.0078657,0.017265,1.569e-07,0.64,0.82,0
0.032851,-0.0058529,0.018788,-0.00061435,0.0054522,-0.00023376,0,0,0.052011,-0.023659,0,-0.0018233,0,0,0,0.018791,-0.00061717,0.0054522,-0.69016,0.0078754,0.017197,1.5576e-07,0.66,0.82,0
0.03389,-0.0059251,0.018751,-0.00054248,0.0054624,-0.0003351,0,0,0.051824,-0.023419,0,-0.0026138,0,0,0,0.018756,-0.0005483,0.0054624,-0.99475,0.0078902,0.01711,1.5435e-07,0.68,0.82,0
0.034924,-0.0060086,0.018709,-0.00045677,0.0054756,-0.00042069,0,0,0.051609,-0.023136,0,-0.0032814,0,0,0,0.018718,-0.000466,0.0054756,-1.2569,0.0079092,0.01701,1.5275e-07,0.7,0.82,0
0.035954,-0.0061013,0.018664,-0.00036157,0.0054908,-0.00048843,0,0,0.051377,-0.022824,0,-0.0038098,0,0,0,0.018677,-0.00037411,0.0054908,-1.4696,0.0079312,0.0169,1.5101e-07,0.72,0.82,0
0.036979,-0.0062008,0.01862,-0.00026132,0.0055075,-0.00053724,0,0,0.051137,-0.022498,0,-0.0041905,0,0,0,0.018635,-0.00027659,0.0055075,-1.6285,0.0079553,0.016784,1.4921e-07,0.74,0.82,0
0.038,-0.0063047,0.018576,-0.00016016,0.0055248,-0.00056698,0,0,0.050901,-0.022172,0,-0.0044224,0,0,0,0.018593,-0.0001773,0.0055248,-1.7317,0.0079803,0.016668,1.474e-07,0.76,0.82,0
0.039015,-0.0064103,0.018536,-6.1739e-05,0.0055422,-0.00057836,0,0,0.050675,-0.021855,0,-0.0045112,0,0,0,0.018554,-7.9707e-05,0.0055422,-1.7795,0.0080054,0.016555,1.4566e-07,0.78,0.82,0
0.040027,-0.0065152,0.018499,3.0978e-05,0.0055591,-0.00057274,0,0,0.050467,-0.02156,0,-0.0044674,0,0,0,0.018517,1.3233e-05,0.0055591,-1.7746,0.0080298,0.016448,1.4402e-07,0.8,0.82,0
0.041034,-0.0066171,0.018468,0.0001158,0.005575,-0.00055195,0,0,0.050281,-0.021291,0,-0.0043052,0,0,0,0.018484,9.9211e-05,0.005575,-1.7212,0.0080527,0.01635,1.4253e-07,0.82,0.82,0
0.042038,-0.0067137,0.018441,0.00019128,0.0055896,-0.00051804,0,0,0.050119,-0.021053,0,-0.0040407,0,0,0,0.018455,0.00017659,0.0055896,-1.6247,0.0080739,0.016263,1.4122e-07,0.84,0.82,0
0.043039,-0.0068032,0.018419,0.00025669,0.0056027,-0.00047315,0,0,0.049984,-0.020849,0,-0.0036906,0,0,0,0.018431,0.00024437,0.0056027,-1.4913,0.0080928,0.016187,1.4009e-07,0.86,0.82,0
0.044037,-0.0068839,0.018402,0.00031184,0.0056142,-0.00041935,0,0,0.049873,-0.020679,0,-0.003271,0,0,0,0.018412,0.00030213,0.0056142,-1.3273,0.0081093,0.016124,1.3915e-07,0.88,0.82,0
0.045034,-0.0069545,0.018389,0.00035699,0.0056238,-0.00035854,0,0,0.049785,-0.020541,0,-0.0027966,0,0,0,0.018396,0.00034986,0.0056238,-1.1386,0.0081233,0.016072,1.3839e-07,0.9,0.82,0
0.046029,-0.0070137,0.01838,0.00039264,0.0056317,-0.0002924,0,0,0.049717,-0.020432,0,-0.0022807,0,0,0,0.018385,0.00038789,0.0056317,-0.93108,0.0081347,0.016031,1.378e-07,0.92,0.82,0
0.047022,-0.0070606,0.018373,0.00041944,0.0056378,-0.00022236,0,0,0.049668,-0.020352,0,-0.0017344,0,0,0,0.018376,0.00041669,0.0056378,-0.70947,0.0081435,0.016001,1.3736e-07,0.94,0.82,0
0.048015,-0.0070947,0.018369,0.00043804,0.0056422,-0.00014963,0,0,0.049635,-0.020296,0,-0.0011671,0,0,0,0.01837,0.00043679,0.0056422,-0.47807,0.0081498,0.01598,1.3706e-07,0.96,0.82,0
0.049008,-0.0071153,0.018367,0.00044896,0.0056447,-7.5215e-05,0,0,0.049616,-0.020264,0,-0.00058668,0,0,0,0.018367,0.00044865,0.0056447,-0.24051,0.0081535,0.015968,1.3689e-07,0.98,0.82,0
0.05,-0.0071222,0.018366,0.00045256,0.0056456,-4.4223e-05,0,0,0.04961,-0.020253,0,-0.00034494,0,0,0,0.018366,0.00045245,0.0056456,-0.14144,0.0081548,0.015964,1.3683e-07,1,0.82,0
0,0,0.018422,0.0078952,0.0078952,-0.0039722,0,0,0.041055,3.2526e-19,0,-0.030984,0,0,0,0.019753,0.0065645,0.0078952,-18.521,0.011404,0.012576,9.8303e-08,0,0.84,0
0.0008211,-0.00061967,0.018358,0.0070793,0.0076313,-0.0039402,0,0,0.041835,-0.0021528,0,-0.030733,0,0,0,0.019598,0.0058392,0.0076313,-17.471,0.011023,0.012956,1.0454e-07,0.02,0.84,0
0.0016734,-0.0012404,0.018613,0.0063209,0.00748,-0.0038553,0,0,0.043417,-0.0045206,0,-0.030072,0,0,0,0.019722,0.0052117,0.00748,-16.05,0.010804,0.013519,1.1495e-07,0.04,0.84,0
0.0025578,-0.0018517,0.018847,0.005536,0.0073149,-0.0036777,0,0,0.044975,-0.0069376,0,-0.028686,0,0,0,0.019796,0.0045875,0.0073149,-14.462,0.010566,0.014044,1.2438e-07,0.06,0.84,0
0.0034724,-0.0024419,0.019043,0.004777,0.007146,-0.0034147,0,0,0.046398,-0.0092388,0,-0.026634,0,0,0,0.019818,0.0040018,0.007146,-12.791,0.010322,0.014502,1.3216e-07,0.08,0.84,0
0.0044137,-0.0030008,0.019187,0.0040824,0.0069808,-0.0030871,0,0,0.047604,-0.011304,0,-0.02408,0,0,0,0.019793,0.0034758,0.0069808,-11.117,0.010083,0.014878,1.3802e-07,0.1,0.84,0
0.0053766,-0.0035204,0.019275,0.003472,0.006824,-0.0027209,0,0,0.048558,-0.013073,0,-0.021223,0,0,0,0.01973,0.0030167,0.006824,-9.5009,0.009857,0.015172,1.4202e-07,0.12,0.84,0
0.006356,-0.0039952,0.019311,0.0029504,0.0066783,-0.0023402,0,0,0.049266,-0.014539,0,-0.018254,0,0,0,0.019639,0.0026223,0.0066783,-7.9827,0.0096464,0.015395,1.4444e-07,0.14,0.84,0
0.0073472,-0.0044224,0.019303,0.0025118,0.0065444,-0.0019636,0,0,0.049758,-0.015727,0,-0.015316,0,0,0,0.019529,0.0022852,0.0065444,-6.5821,0.009453,0.015558,1.4566e-07,0.16,0.84,0
0.0083463,-0.0048012,0.019263,0.0021457,0.0064226,-0.0016034,0,0,0.050078,-0.01668,0,-0.012507,0,0,0,0.019412,0.0019968,0.0064226,-5.3055,0.0092771,0.015678,1.4603e-07,0.18,0.84,0
0.0093503,-0.0051321,0.019202,0.0018401,0.0063126,-0.0012668,0,0,0.050269,-0.017443,0,-0.0098808,0,0,0,0.019294,0.0017481,0.0063126,-4.1512,0.0091182,0.015767,1.4589e-07,0.2,0.84,0
0.010357,-0.0054167,0.019129,0.0015834,0.0062137,-0.00095703,0,0,0.05037,-0.018058,0,-0.0074649,0,0,0,0.019181,0.0015314,0.0062137,-3.1129,0.0089754,0.015836,1.4547e-07,0.22,0.84,0
0.011365,-0.0056571,0.019052,0.0013654,0.0061252,-0.00067525,0,0,0.050414,-0.018563,0,-0.005267,0,0,0,0.019078,0.0013396,0.0061252,-2.1833,0.0088474,0.015895,1.4497e-07,0.24,0.84,0
0.012374,-0.0058562,0.018976,0.0011771,0.0060459,-0.0004212,0,0,0.050427,-0.018988,0,-0.0032854,0,0,0,0.018986,0.0011671,0.0060459,-1.3549,0.008733,0.015949,1.4453e-07,0.26,0.84,0
0.013382,-0.0060167,0.018906,0.001011,0.005975,-0.00019413,0,0,0.05043,-0.01936,0,-0.0015142,0,0,0,0.018908,0.0010089,0.005975,-0.62148,0.0086305,0.016005,1.4422e-07,0.28,0.84,0
0.014391,-0.0061419,0.018844,0.000861,0.0059114,6.8082e-06,0,0,0.050436,-0.019697,0,5.3104e-05,0,0,0,0.018844,0.000861,0.0059114,0.021692,0.0085387,0.016064,1.4413e-07,0.3,0.84,0
0.0154,-0.006235,0.018792,0.00072207,0.0058543,0.00018229,0,0,0.050458,-0.020015,0,0.0014218,0,0,0,0.018794,0.00072023,0.0058543,0.57791,0.0084561,0.016132,1.4427e-07,0.32,0.84,0
0.016409,-0.0062995,0.018752,0.00059034,0.0058027,0.00033269,0,0,0.050502,-0.020328,0,0.002595,0,0,0,0.018758,0.00058425,0.0058027,1.0491,0.0083816,0.016207,1.4468e-07,0.34,0.84,0
0.01742,-0.006339,0.018723,0.00046301,0.0057559,0.0004581,0,0,0.050573,-0.020642,0,0.0035732,0,0,0,0.018735,0.00045152,0.0057559,1.4362,0.0083141,0.016292,1.4533e-07,0.36,0.84,0
0.018432,-0.0063571,0.018706,0.00033827,0.0057134,0.00055837,0,0,0.050673,-0.020963,0,0.0043552,0,0,0,0.018723,0.00032131,0.0057134,1.7396,0.0082527,0.016386,1.4621e-07,0.38,0.84,0
0.019447,-0.0063576,0.0187,0.00021532,0.0056746,0.0006332,0,0,0.050799,-0.021291,0,0.004939,0,0,0,0.018722,0.00019366,0.0056746,1.9596,0.0081967,0.016486,1.473e-07,0.4,0.84,0
0.020464,-0.0063444,0.018703,9.4305e-05,0.0056393,0.00068236,0,0,0.05095,-0.021625,0,0.0053224,0,0,0,0.018728,6.9318e-05,0.0056393,2.0972,0.0081457,0.016591,1.4853e-07,0.42,0.84,0
0.021485,-0.0063213,0.018714,-2.3762e-05,0.0056072,0.0007058,0,0,0.051118,-0.021961,0,0.0055052,0,0,0,0.018741,-5.0309e-05,0.0056072,2.154,0.0080993,0.016698,1.4986e-07,0.44,0.84,0
0.022509,-0.0062921,0.018731,-0.0001371,0.0055783,0.00070385,0,0,0.051297,-0.02229,0,0.00549,0,0,0,0.018758,-0.00016332,0.0055783,2.1334,0.0080576,0.016803,1.5121e-07,0.46,0.84,0
0.023536,-0.0062606,0.018752,-0.00024336,0.0055525,0.00067741,0,0,0.051477,-0.022604,0,0.0052838,0,0,0,0.018776,-0.00026749,0.0055525,2.0398,0.0080204,0.016903,1.5253e-07,0.48,0.84,0
0.024568,-0.0062303,0.018773,-0.00033982,0.0055301,0.00062803,0,0,0.051649,-0.022893,0,0.0048986,0,0,0,0.018794,-0.00036043,0.0055301,1.8799,0.0079879,0.016993,1.5374e-07,0.5,0.84,0
0.025603,-0.0062045,0.018794,-0.00042365,0.005511,0.00055796,0,0,0.051802,-0.023145,0,0.0043521,0,0,0,0.01881,-0.00043984,0.005511,1.6617,0.0079603,0.017071,1.5478e-07,0.52,0.84,0
0.02664,-0.0061859,0.01881,-0.0004922,0.0054954,0.00047021,0,0,0.051928,-0.023352,0,0.0036676,0,0,0,0.018822,-0.00050365,0.0054954,1.3946,0.0079378,0.017133,1.5559e-07,0.54,0.84,0
0.02768,-0.006177,0.018822,-0.00054323,0.0054835,0.0003684,0,0,0.052018,-0.023504,0,0.0028735,0,0,0,0.018829,-0.00055024,0.0054835,1.0895,0.0079206,0.017176,1.5613e-07,0.56,0.84,0
0.028721,-0.0061797,0.018826,-0.00057513,0.0054752,0.00025668,0,0,0.052067,-0.023596,0,0.0020021,0,0,0,0.018829,-0.00057853,0.0054752,0.75788,0.0079086,0.017199,1.5638e-07,0.58,0.84,0
0.029762,-0.0061953,0.018822,-0.00058711,0.0054704,0.00013952,0,0,0.052071,-0.023624,0,0.0010882,0,0,0,0.018823,-0.00058811,0.0054704,0.41183,0.0079018,0.017202,1.563e-07,0.6,0.84,0
0.030804,-0.0062244,0.01881,-0.00057925,0.0054692,2.1463e-05,0,0,0.052028,-0.023589,0,0.00016741,0,0,0,0.01881,-0.00057927,0.0054692,0.063423,0.0078999,0.017183,1.5591e-07,0.62,0.84,0
0.031843,-0.0062671,0.018789,-0.00055255,0.005471,-9.3046e-05,0,0,0.051942,-0.023492,0,-0.00072576,0,0,0,0.01879,-0.000553,0.005471,-0.27562,0.0079026,0.017144,1.5521e-07,0.64,0.84,0
0.032881,-0.0063228,0.018761,-0.00050886,0.0054758,-0.00019993,0,0,0.051814,-0.02334,0,-0.0015595,0,0,0,0.018763,-0.00051093,0.0054758,-0.59437,0.0079094,0.017087,1.5422e-07,0.66,0.84,0
0.033916,-0.0063907,0.018727,-0.00045074,0.0054829,-0.00029568,0,0,0.051652,-0.023141,0,-0.0023063,0,0,0,0.018732,-0.0004553,0.0054829,-0.88309,0.0079197,0.017014,1.5299e-07,0.68,0.84,0
0.034947,-0.006469,0.018688,-0.0003813,0.0054919,-0.00037748,0,0,0.051463,-0.022905,0,-0.0029443,0,0,0,0.018695,-0.00038877,0.0054919,-1.1336,0.0079328,0.016928,1.5157e-07,0.7,0.84,0
0.035974,-0.006556,0.018645,-0.00030395,0.0055023,-0.00044334,0,0,0.051256,-0.022644,0,-0.0034581,0,0,0,0.018655,-0.00031432,0.0055023,-1.3396,0.0079478,0.016833,1.5e-07,0.72,0.84,0
0.036998,-0.0066495,0.018613,-0.00022501,0.0055164,-0.00048922,0,0,0.051076,-0.022391,0,-0.0038159,0,0,0,0.018626,-0.00023771,0.0055164,-1.4866,0.0079681,0.016745,1.4866e-07,0.74,0.84,0
0.038016,-0.0067474,0.018538,-0.00015249,0.0055156,-0.00052713,0,0,0.050787,-0.022106,0,-0.0041116,0,0,0,0.018553,-0.00016735,0.0055156,-1.6142,0.007967,0.016624,1.4635e-07,0.76,0.84,0
0.03903,-0.0068471,0.018528,-5.4555e-05,0.0055421,-0.00053972,0,0,0.050646,-0.021827,0,-0.0042098,0,0,0,0.018544,-7.0217e-05,0.0055421,-1.6622,0.0080053,0.016538,1.4535e-07,0.78,0.84,0
0.04004,-0.0069465,0.01846,1.2558e-05,0.0055418,-0.00053477,0,0,0.050381,-0.021564,0,-0.0041712,0,0,0,0.018475,-2.931e-06,0.0055418,-1.6591,0.0080048,0.016424,1.4319e-07,0.8,0.84,0
0.041047,-0.0070433,0.018452,9.7548e-05,0.0055649,-0.00052615,0,0,0.05026,-0.021323,0,-0.004104,0,0,0,0.018467,8.2477e-05,0.0055649,-1.6406,0.0080382,0.016348,1.4229e-07,0.82,0.84,0
0.04205,-0.0071355,0.018397,0.0001528,0.0055649,-0.00048499,0,0,0.050045,-0.021107,0,-0.003783,0,0,0,0.01841,0.00013991,0.0055649,-1.5217,0.0080383,0.016251,1.4048e-07,0.84,0.84,0
0.04305,-0.0072211,0.018391,0.00021885,0.005583,-0.00046042,0,0,0.049952,-0.02092,0,-0.0035913,0,0,0,0.018403,0.00020719,0.005583,-1.4504,0.0080644,0.016192,1.3976e-07,0.86,0.84,0
0.044047,-0.0072985,0.018351,0.00025969,0.0055833,-0.00039201,0,0,0.049795,-0.020762,0,-0.0030577,0,0,0,0.01836,0.0002512,0.0055833,-1.2407,0.0080648,0.016118,1.384e-07,0.88,0.84,0
0.045042,-0.0073664,0.018348,0.00030562,0.005596,-0.00035687,0,0,0.049731,-0.020632,0,-0.0027836,0,0,0,0.018355,0.00029856,0.005596,-1.1327,0.0080831,0.016076,1.3789e-07,0.9,0.84,0
0.046036,-0.0074235,0.018322,0.00033232,0.0055963,-0.00027013,0,0,0.049631,-0.02053,0,-0.002107,0,0,0,0.018326,0.00032826,0.0055963,-0.86007,0.0080836,0.016027,1.3699e-07,0.92,0.84,0
0.047028,-0.0074689,0.01832,0.00035976,0.0056039,-0.00022886,0,0,0.049593,-0.020452,0,-0.0017851,0,0,0,0.018323,0.00035685,0.0056039,-0.72995,0.0080946,0.016001,1.3667e-07,0.94,0.84,0
0.048019,-0.0075018,0.018307,0.00037381,0.0056042,-0.0001315,0,0,0.04954,-0.020398,0,-0.0010257,0,0,0,0.018308,0.00037285,0.0056042,-0.4201,0.0080949,0.015975,1.362e-07,0.96,0.84,0
0.04901,-0.0075218,0.018306,0.00038504,0.0056073,-8.7337e-05,0,0,0.049525,-0.020367,0,-0.00068123,0,0,0,0.018306,0.00038461,0.0056073,-0.27922,0.0080994,0.015965,1.3607e-07,0.98,0.84,0
0.05,-0.0075285,0.018311,0.00040616,0.0056152,-4.2865e-05,0,0,0.049515,-0.020315,0,-0.00033434,0,0,0,0.018311,0.00040606,0.0056152,-0.13716,0.0081109,0.015952,1.36e-07,1,0.84,0
0,0,0.018581,0.0079633,0.0079633,-0.0042631,0,0,0.041409,-7.5894e-19,0,-0.033252,0,0,0,0.020081,0.0064635,0.0079633,-19.383,0.011503,0.012933,1.0608e-07,0,0.86,0
0.00082818,-0.00066504,0.018388,0.0070116,0.0076198,-0.0042211,0,0,0.041995,-0.0023717,0,-0.032925,0,0,0,0.019783,0.0056165,0.0076198,-18.29,0.011006,0.013279,1.1107e-07,0.02,0.86,0
0.0016915,-0.0013361,0.01894,0.0062801,0.0075661,-0.0041271,0,0,0.044359,-0.0050154,0,-0.032191,0,0,0,0.020167,0.0050536,0.0075661,-16.552,0.010929,0.014027,1.2655e-07,0.04,0.86,0
0.0025906,-0.0019985,0.018939,0.0052994,0.0072715,-0.0039484,0,0,0.045504,-0.0076915,0,-0.030797,0,0,0,0.02,0.0042389,0.0072715,-15.034,0.010503,0.014485,1.333e-07,0.06,0.86,0
0.0035226,-0.0026368,0.019359,0.0045691,0.0071785,-0.0035632,0,0,0.047504,-0.010177,0,-0.027793,0,0,0,0.020173,0.0037554,0.0071785,-12.863,0.010369,0.015002,1.4343e-07,0.08,0.86,0
0.0044817,-0.0032382,0.019301,0.0037559,0.0069172,-0.0032598,0,0,0.048299,-0.012329,0,-0.025426,0,0,0,0.019957,0.0031001,0.0069172,-11.376,0.0099915,0.01531,1.464e-07,0.1,0.86,0
0.0054613,-0.0037934,0.019476,0.0031823,0.0067976,-0.0027288,0,0,0.049447,-0.014099,0,-0.021285,0,0,0,0.019921,0.0027375,0.0067976,-9.259,0.0098188,0.015556,1.4985e-07,0.12,0.86,0
0.006455,-0.0042971,0.019368,0.0025455,0.0065741,-0.0023191,0,0,0.049897,-0.015712,0,-0.018089,0,0,0,0.019682,0.0022316,0.0065741,-7.7071,0.009496,0.015735,1.4991e-07,0.14,0.86,0
0.0074572,-0.0047473,0.019312,0.0021284,0.006432,-0.001907,0,0,0.050231,-0.016784,0,-0.014875,0,0,0,0.019521,0.0019193,0.006432,-6.2574,0.0092907,0.015835,1.4947e-07,0.16,0.86,0
0.0084642,-0.0051441,0.019227,0.0017909,0.0063055,-0.0015251,0,0,0.050395,-0.017607,0,-0.011896,0,0,0,0.01936,0.0016585,0.0063055,-4.9612,0.0091079,0.015896,1.4839e-07,0.18,0.86,0
0.009473,-0.0054891,0.019129,0.0015165,0.0061937,-0.0011778,0,0,0.050448,-0.018241,0,-0.0091869,0,0,0,0.019207,0.0014381,0.0061937,-3.8089,0.0089464,0.015933,1.4705e-07,0.2,0.86,0
0.010482,-0.0057849,0.019027,0.0012913,0.0060955,-0.0008658,0,0,0.050434,-0.018737,0,-0.0067532,0,0,0,0.019069,0.0012491,0.0060955,-2.7881,0.0088047,0.015959,1.4568e-07,0.22,0.86,0
0.01149,-0.0060345,0.018929,0.0011035,0.0060098,-0.00058776,0,0,0.050386,-0.019135,0,-0.0045845,0,0,0,0.018949,0.0010841,0.0060098,-1.8864,0.0086809,0.015981,1.4446e-07,0.24,0.86,0
0.012497,-0.0062411,0.01884,0.00094383,0.0059352,-0.00034158,0,0,0.050329,-0.019466,0,-0.0026643,0,0,0,0.018847,0.00093731,0.0059352,-1.0931,0.008573,0.016007,1.4348e-07,0.26,0.86,0
0.013504,-0.0064082,0.018763,0.00080489,0.0058703,-0.00012507,0,0,0.050281,-0.019755,0,-0.00097558,0,0,0,0.018764,0.00080402,0.0058703,-0.39903,0.0084793,0.016038,1.428e-07,0.28,0.86,0
0.014509,-0.0065394,0.018699,0.00068076,0.005814,6.3672e-05,0,0,0.050252,-0.020019,0,0.00049664,0,0,0,0.018699,0.00068054,0.005814,0.20246,0.0083979,0.016079,1.4243e-07,0.3,0.86,0
0.015514,-0.0066383,0.01865,0.00056684,0.005765,0.00022615,0,0,0.050251,-0.020273,0,0.001764,0,0,0,0.018653,0.00056401,0.005765,0.71642,0.0083272,0.01613,1.424e-07,0.32,0.86,0
0.016519,-0.0067084,0.018615,0.00045965,0.0057223,0.00036341,0,0,0.050281,-0.020525,0,0.0028346,0,0,0,0.018622,0.00045238,0.0057223,1.1463,0.0082656,0.016191,1.4269e-07,0.34,0.86,0
0.017525,-0.0067535,0.018594,0.00035672,0.0056851,0.00047607,0,0,0.050343,-0.020781,0,0.0037134,0,0,0,0.018606,0.0003443,0.0056851,1.4943,0.0082118,0.016263,1.4327e-07,0.36,0.86,0
0.018533,-0.0067775,0.018585,0.00025646,0.0056525,0.00056447,0,0,0.050438,-0.021045,0,0.0044029,0,0,0,0.018603,0.00023909,0.0056525,1.7623,0.0081647,0.016344,1.441e-07,0.38,0.86,0
0.019542,-0.006784,0.018588,0.00015816,0.0056239,0.00062876,0,0,0.050561,-0.021316,0,0.0049044,0,0,0,0.01861,0.00013674,0.0056239,1.9517,0.0081234,0.016431,1.4514e-07,0.4,0.86,0
0.020555,-0.0067768,0.018601,6.1867e-05,0.0055988,0.0006691,0,0,0.050707,-0.021594,0,0.005219,0,0,0,0.018625,3.775e-05,0.0055988,2.0643,0.0080871,0.016524,1.4634e-07,0.42,0.86,0
0.021571,-0.0067598,0.018605,-4.5024e-05,0.0055679,0.0006774,0,0,0.050843,-0.02189,0,0.0052838,0,0,0,0.018629,-6.9596e-05,0.0055679,2.0775,0.0080425,0.016614,1.4735e-07,0.44,0.86,0
0.02259,-0.0067366,0.018631,-0.000156,0.0055426,0.0006767,0,0,0.051046,-0.022224,0,0.0052782,0,0,0,0.018656,-0.00018034,0.0055426,2.0602,0.0080059,0.016726,1.489e-07,0.46,0.86,0
0.023613,-0.0067108,0.018655,-0.00025026,0.0055214,0.00065017,0,0,0.051221,-0.02251,0,0.0050713,0,0,0,0.018677,-0.0002726,0.0055214,1.9674,0.0079754,0.016819,1.5019e-07,0.48,0.86,0
0.024639,-0.0066858,0.01868,-0.00033565,0.0055032,0.00060249,0,0,0.051388,-0.022771,0,0.0046994,0,0,0,0.018699,-0.00035472,0.0055032,1.813,0.007949,0.016904,1.5137e-07,0.5,0.86,0
0.025668,-0.0066645,0.018703,-0.00040963,0.0054879,0.00053586,0,0,0.051538,-0.023001,0,0.0041798,0,0,0,0.018718,-0.00042465,0.0054879,1.6048,0.007927,0.016977,1.5241e-07,0.52,0.86,0
0.0267,-0.0066497,0.018751,-0.00041922,0.0054996,0.00044311,0,0,0.051681,-0.023083,0,0.0034563,0,0,0,0.018761,-0.00042946,0.0054996,1.3234,0.0079438,0.017019,1.5351e-07,0.54,0.86,0
0.027734,-0.0066436,0.018753,-0.00046638,0.0054861,0.0003684,0,0,0.051743,-0.023215,0,0.0028735,0,0,0,0.018761,-0.00047344,0.0054861,1.0977,0.0079244,0.017054,1.5385e-07,0.56,0.86,0
0.02877,-0.006648,0.018746,-0.00054143,0.0054614,0.000253,0,0,0.05181,-0.023411,0,0.0019734,0,0,0,0.018749,-0.00054475,0.0054614,0.75139,0.0078887,0.017101,1.5415e-07,0.58,0.86,0
0.029807,-0.0066641,0.018769,-0.00049878,0.0054811,0.00013115,0,0,0.051824,-0.023322,0,0.001023,0,0,0,0.01877,-0.00049968,0.0054811,0.38997,0.0079172,0.017084,1.5429e-07,0.6,0.86,0
0.030843,-0.0066925,0.018773,-0.00046603,0.0054922,3.5637e-05,0,0,0.051797,-0.023237,0,0.00027797,0,0,0,0.018774,-0.00046609,0.0054922,0.10613,0.0079332,0.01706,1.541e-07,0.62,0.86,0
0.031879,-0.0067335,0.018757,-0.00044478,0.0054938,-7.0417e-05,0,0,0.051728,-0.023161,0,-0.00054926,0,0,0,0.018758,-0.00044503,0.0054938,-0.21011,0.0079355,0.017029,1.5355e-07,0.64,0.86,0
0.032912,-0.0067865,0.018733,-0.00041018,0.005497,-0.00016975,0,0,0.051622,-0.023038,0,-0.001324,0,0,0,0.018735,-0.00041168,0.005497,-0.50799,0.0079401,0.016982,1.5272e-07,0.66,0.86,0
0.033944,-0.0068507,0.018702,-0.0003642,0.0055014,-0.00025923,0,0,0.051483,-0.022876,0,-0.002022,0,0,0,0.018706,-0.00036772,0.0055014,-0.77882,0.0079465,0.01692,1.5165e-07,0.68,0.86,0
0.034972,-0.0069248,0.018665,-0.0003092,0.0055068,-0.00033636,0,0,0.051318,-0.022683,0,-0.0026236,0,0,0,0.018671,-0.00031516,0.0055068,-1.0152,0.0079543,0.016848,1.5039e-07,0.7,0.86,0
0.035996,-0.0070071,0.018624,-0.0002478,0.0055129,-0.00039927,0,0,0.051134,-0.022467,0,-0.0031143,0,0,0,0.018632,-0.00025625,0.0055129,-1.2115,0.0079631,0.016766,1.4898e-07,0.72,0.86,0
0.037017,-0.0070956,0.018599,-0.00016642,0.0055299,-0.0004397,0,0,0.050971,-0.022216,0,-0.0034297,0,0,0,0.01861,-0.00017672,0.0055299,-1.3415,0.0079876,0.016682,1.4778e-07,0.74,0.86,0
0.038034,-0.0071883,0.018523,-0.00011611,0.0055221,-0.00047814,0,0,0.050704,-0.021989,0,-0.0037295,0,0,0,0.018535,-0.00012837,0.0055221,-1.4685,0.0079764,0.016577,1.4563e-07,0.76,0.86,0
0.039047,-0.0072831,0.018507,-4.1193e-05,0.0055397,-0.00049236,0,0,0.050572,-0.021766,0,-0.0038404,0,0,0,0.01852,-5.4253e-05,0.0055397,-1.5195,0.0080018,0.016504,1.4465e-07,0.78,0.86,0
0.040056,-0.0073777,0.018434,6.1038e-06,0.0055322,-0.00049129,0,0,0.050319,-0.021552,0,-0.0038321,0,0,0,0.018448,-6.9846e-06,0.0055322,-1.526,0.0079909,0.016402,1.4257e-07,0.8,0.86,0
0.041061,-0.0074702,0.01842,7.2682e-05,0.0055477,-0.00048593,0,0,0.050201,-0.021353,0,-0.0037903,0,0,0,0.018433,5.9821e-05,0.0055477,-1.5161,0.0080134,0.016335,1.4168e-07,0.82,0.86,0
0.042062,-0.0075584,0.018358,0.00011233,0.0055412,-0.00045042,0,0,0.049987,-0.021173,0,-0.0035133,0,0,0,0.018369,0.00010122,0.0055412,-1.4133,0.0080039,0.016246,1.3988e-07,0.84,0.86,0
0.043061,-0.0076405,0.018346,0.00016547,0.0055535,-0.00042971,0,0,0.049892,-0.021013,0,-0.0033518,0,0,0,0.018356,0.00015532,0.0055535,-1.3532,0.0080218,0.016192,1.3913e-07,0.86,0.86,0
0.044057,-0.007715,0.018299,0.00019535,0.0055484,-0.00036734,0,0,0.049728,-0.020877,0,-0.0028652,0,0,0,0.018307,0.0001879,0.0055484,-1.1619,0.0080143,0.016121,1.3773e-07,0.88,0.86,0
0.045051,-0.0077805,0.01829,0.00023333,0.0055571,-0.00033593,0,0,0.04966,-0.020763,0,-0.0026203,0,0,0,0.018297,0.00022709,0.0055571,-1.0654,0.008027,0.016081,1.3717e-07,0.9,0.86,0
0.046043,-0.0078356,0.018259,0.00025322,0.0055535,-0.00025479,0,0,0.04955,-0.020671,0,-0.0019873,0,0,0,0.018262,0.00024962,0.0055535,-0.81055,0.0080218,0.016033,1.3621e-07,0.92,0.86,0
0.047033,-0.0078795,0.018253,0.00027648,0.0055589,-0.00021683,0,0,0.049507,-0.020601,0,-0.0016913,0,0,0,0.018256,0.00027386,0.0055589,-0.69095,0.0080295,0.016008,1.3586e-07,0.94,0.86,0
0.048023,-0.0079114,0.018236,0.00028709,0.0055569,-0.00012441,0,0,0.049448,-0.020552,0,-0.00097041,0,0,0,0.018237,0.00028623,0.0055569,-0.39712,0.0080266,0.015981,1.3533e-07,0.96,0.86,0
0.049012,-0.0079308,0.018234,0.00029676,0.0055591,-8.3186e-05,0,0,0.04943,-0.020523,0,-0.00064885,0,0,0,0.018234,0.00029638,0.0055591,-0.26571,0.0080298,0.01597,1.3519e-07,0.98,0.86,0
0.05,-0.0079372,0.018223,0.000282,0.0055515,-4.1571e-05,0,0,0.049419,-0.020551,0,-0.00032426,0,0,0,0.018223,0.0002819,0.0055515,-0.13276,0.0080188,0.015972,1.3506e-07,1,0.86,0
0,0,0.018838,0.0080735,0.0080735,-0.0045936,0,0,0.041982,2.1684e-19,0,-0.03583,0,0,0,0.020532,0.0063798,0.0080735,-20.24,0.011662,0.013386,1.1656e-07,0,0.88,0
0.00083964,-0.0007166,0.018588,0.006916,0.0076513,-0.0045186,0,0,0.042654,-0.0028678,0,-0.035245,0,0,0,0.020133,0.0053712,0.0076513,-18.874,0.011052,0.013764,1.2163e-07,0.02,0.88,0
0.0017196,-0.0014457,0.019169,0.005965,0.0075401,-0.0043915,0,0,0.045351,-0.0061427,0,-0.034254,0,0,0,0.020496,0.0046378,0.0075401,-16.816,0.010891,0.014624,1.3956e-07,0.04,0.88,0
0.0026402,-0.0021664,0.019117,0.0047655,0.0071646,-0.0041316,0,0,0.046613,-0.0093566,0,-0.032227,0,0,0,0.020221,0.0036611,0.0071646,-14.966,0.010349,0.015116,1.4577e-07,0.06,0.88,0
0.0035958,-0.0028576,0.019502,0.0039099,0.0070236,-0.0036223,0,0,0.048666,-0.012143,0,-0.028254,0,0,0,0.020303,0.0031095,0.0070236,-12.461,0.010145,0.015609,1.5468e-07,0.08,0.88,0
0.004578,-0.0035031,0.019405,0.0030599,0.0067393,-0.0032356,0,0,0.049394,-0.01435,0,-0.025238,0,0,0,0.020022,0.0024427,0.0067393,-10.8,0.0097346,0.015873,1.5579e-07,0.1,0.88,0
0.0055774,-0.0040933,0.019488,0.002492,0.0065941,-0.0026074,0,0,0.050287,-0.015998,0,-0.020338,0,0,0,0.019879,0.002101,0.0065941,-8.5284,0.0095248,0.016012,1.562e-07,0.12,0.88,0
0.0065863,-0.0046237,0.019416,0.0021033,0.0064557,-0.0022347,0,0,0.050544,-0.016974,0,-0.017431,0,0,0,0.0197,0.0018195,0.0064557,-7.2377,0.0093249,0.016071,1.5491e-07,0.14,0.88,0
0.0075991,-0.0050938,0.019292,0.0017246,0.006305,-0.0017946,0,0,0.05065,-0.017863,0,-0.013998,0,0,0,0.019474,0.0015432,0.006305,-5.7737,0.0091072,0.016087,1.5235e-07,0.16,0.88,0
0.0086123,-0.0055055,0.019152,0.0014284,0.006174,-0.0014013,0,0,0.050613,-0.018508,0,-0.01093,0,0,0,0.019262,0.0013183,0.006174,-4.4931,0.008918,0.016075,1.4956e-07,0.18,0.88,0
0.0096237,-0.0058617,0.01901,0.0011942,0.0060612,-0.0010544,0,0,0.0505,-0.018981,0,-0.008224,0,0,0,0.019072,0.001132,0.0060612,-3.3752,0.0087551,0.016053,1.469e-07,0.2,0.88,0
0.010632,-0.0061661,0.018877,0.0010062,0.0059649,-0.00075034,0,0,0.050356,-0.019339,0,-0.0058526,0,0,0,0.018908,0.0009748,0.0059649,-2.4001,0.008616,0.016032,1.4456e-07,0.22,0.88,0
0.011638,-0.0064225,0.018759,0.00085252,0.0058833,-0.00048499,0,0,0.050213,-0.01962,0,-0.003783,0,0,0,0.018772,0.0008394,0.0058833,-1.5504,0.0084981,0.016017,1.4265e-07,0.24,0.88,0
0.012641,-0.0066348,0.018658,0.00072386,0.0058146,-0.00025416,0,0,0.050089,-0.019854,0,-0.0019825,0,0,0,0.018662,0.00072025,0.0058146,-0.81178,0.0083988,0.016014,1.412e-07,0.26,0.88,0
0.013642,-0.0068069,0.018577,0.00061326,0.005757,-5.425e-05,0,0,0.049997,-0.02006,0,-0.00042315,0,0,0,0.018577,0.0006131,0.005757,-0.17303,0.0083156,0.016023,1.4022e-07,0.28,0.88,0
0.014641,-0.0069426,0.018515,0.00051543,0.005709,0.00011763,0,0,0.049942,-0.020255,0,0.0009175,0,0,0,0.018515,0.00051466,0.005709,0.37442,0.0082464,0.016047,1.3968e-07,0.3,0.88,0
0.015639,-0.0070459,0.018471,0.00042634,0.0056693,0.00026364,0,0,0.049928,-0.020447,0,0.0020564,0,0,0,0.018475,0.00042249,0.0056693,0.83688,0.0081889,0.016084,1.3956e-07,0.32,0.88,0
0.016638,-0.0071205,0.018445,0.00034303,0.0056365,0.00038533,0,0,0.049954,-0.020644,0,0.0030056,0,0,0,0.018453,0.00033483,0.0056365,1.2189,0.0081415,0.016135,1.3983e-07,0.34,0.88,0
0.017637,-0.0071702,0.018435,0.00026342,0.0056095,0.00048371,0,0,0.050019,-0.02085,0,0.003773,0,0,0,0.018448,0.00025055,0.0056095,1.5237,0.0081026,0.016197,1.4042e-07,0.36,0.88,0
0.018639,-0.0071989,0.018439,0.00018619,0.0055875,0.00055946,0,0,0.05012,-0.021065,0,0.0043637,0,0,0,0.018456,0.00016906,0.0055875,1.754,0.0080708,0.016269,1.4129e-07,0.38,0.88,0
0.019642,-0.0072103,0.018454,0.00011075,0.0055695,0.000613,0,0,0.050251,-0.021289,0,0.0047814,0,0,0,0.018475,9.0283e-05,0.0055695,1.9119,0.0080449,0.016349,1.424e-07,0.4,0.88,0
0.020649,-0.0072082,0.01848,3.7073e-05,0.005555,0.00064475,0,0,0.050406,-0.02152,0,0.0050291,0,0,0,0.018502,1.4561e-05,0.005555,1.9998,0.0080239,0.016434,1.4366e-07,0.42,0.88,0
0.021658,-0.0071962,0.018503,-2.9906e-05,0.005542,0.00064727,0,0,0.050548,-0.02173,0,0.0050487,0,0,0,0.018526,-5.2484e-05,0.005542,1.9978,0.008005,0.016508,1.4477e-07,0.44,0.88,0
0.022672,-0.007178,0.018566,-6.3238e-05,0.0055508,0.00063923,0,0,0.050759,-0.021895,0,0.004986,0,0,0,0.018588,-8.5146e-05,0.0055508,1.9629,0.0080178,0.016589,1.465e-07,0.46,0.88,0
0.023689,-0.0071569,0.018609,-0.00011836,0.0055471,0.00060835,0,0,0.05094,-0.022095,0,0.0047451,0,0,0,0.018628,-0.0001381,0.0055471,1.8586,0.0080124,0.016668,1.479e-07,0.48,0.88,0
0.024709,-0.0071363,0.018651,-0.0001681,0.0055447,0.00056028,0,0,0.051113,-0.02228,0,0.0043702,0,0,0,0.018667,-0.00018477,0.0055447,1.7038,0.0080091,0.01674,1.4922e-07,0.5,0.88,0
0.025733,-0.0071188,0.018689,-0.00021118,0.0055434,0.00049694,0,0,0.051269,-0.022443,0,0.0038761,0,0,0,0.018702,-0.00022424,0.0055434,1.505,0.0080072,0.016802,1.5039e-07,0.52,0.88,0
0.02676,-0.0071071,0.018712,-0.00028679,0.0055277,0.00041648,0,0,0.051421,-0.022676,0,0.0032485,0,0,0,0.018722,-0.00029591,0.0055277,1.2552,0.0079845,0.016877,1.5145e-07,0.54,0.88,0
0.027789,-0.0071034,0.018722,-0.00032191,0.0055201,0.00034787,0,0,0.051488,-0.022784,0,0.0027134,0,0,0,0.018729,-0.00032826,0.0055201,1.0461,0.0079735,0.016909,1.5188e-07,0.56,0.88,0
0.02882,-0.0071092,0.018766,-0.00028953,0.0055428,0.00024086,0,0,0.051569,-0.022746,0,0.0018787,0,0,0,0.018769,-0.00029258,0.0055428,0.72406,0.0080063,0.016916,1.5256e-07,0.58,0.88,0
0.029852,-0.0071258,0.018753,-0.00034339,0.0055229,0.00013221,0,0,0.051598,-0.022879,0,0.0010313,0,0,0,0.018754,-0.00034431,0.0055229,0.39665,0.0079776,0.016945,1.5263e-07,0.6,0.88,0
0.030884,-0.0071539,0.01874,-0.00036205,0.0055135,4.4991e-05,0,0,0.051585,-0.022915,0,0.00035093,0,0,0,0.018741,-0.00036216,0.0055135,0.13494,0.007964,0.016947,1.5245e-07,0.62,0.88,0
0.031915,-0.0071935,0.018729,-0.00034561,0.005515,-5.2003e-05,0,0,0.051535,-0.022856,0,-0.00040562,0,0,0,0.018729,-0.00034575,0.005515,-0.1562,0.0079662,0.016924,1.5204e-07,0.64,0.88,0
0.032945,-0.0072444,0.018709,-0.00031902,0.0055169,-0.00014305,0,0,0.051448,-0.02276,0,-0.0011158,0,0,0,0.01871,-0.00032009,0.0055169,-0.43072,0.0079689,0.016886,1.5136e-07,0.66,0.88,0
0.033973,-0.0073057,0.01868,-0.00028373,0.005519,-0.00022542,0,0,0.05133,-0.022631,0,-0.0017583,0,0,0,0.018683,-0.00028641,0.005519,-0.68092,0.0079719,0.016835,1.5044e-07,0.68,0.88,0
0.034999,-0.0073763,0.018645,-0.00024152,0.0055211,-0.00029686,0,0,0.051184,-0.022474,0,-0.0023155,0,0,0,0.01865,-0.00024618,0.0055211,-0.90026,0.007975,0.016773,1.4932e-07,0.7,0.88,0
0.036021,-0.0074546,0.018605,-0.00019433,0.0055231,-0.00035569,0,0,0.051018,-0.022298,0,-0.0027744,0,0,0,0.018611,-0.00020106,0.0055231,-1.0836,0.0079779,0.016703,1.4803e-07,0.72,0.88,0
0.037039,-0.007539,0.01856,-0.00014417,0.0055249,-0.00040084,0,0,0.050839,-0.022109,0,-0.0031266,0,0,0,0.018569,-0.00015275,0.0055249,-1.2271,0.0079804,0.016627,1.4662e-07,0.74,0.88,0
0.038054,-0.0076275,0.018514,-9.2957e-05,0.0055263,-0.00043182,0,0,0.050652,-0.021915,0,-0.0033682,0,0,0,0.018524,-0.00010297,0.0055263,-1.3287,0.0079824,0.016547,1.4515e-07,0.76,0.88,0
0.039065,-0.0077181,0.018467,-4.2453e-05,0.0055272,-0.00044866,0,0,0.050463,-0.021722,0,-0.0034995,0,0,0,0.018477,-5.3322e-05,0.0055272,-1.3878,0.0079838,0.016466,1.4365e-07,0.78,0.88,0
0.040073,-0.0078087,0.01842,5.8578e-06,0.0055277,-0.00045188,0,0,0.050279,-0.021535,0,-0.0035247,0,0,0,0.018431,-5.2248e-06,0.0055277,-1.4049,0.0079845,0.016386,1.4217e-07,0.8,0.88,0
0.041077,-0.0078973,0.018375,5.0792e-05,0.0055278,-0.00044237,0,0,0.050105,-0.02136,0,-0.0034505,0,0,0,0.018386,4.0119e-05,0.0055278,-1.3821,0.0079846,0.01631,1.4076e-07,0.82,0.88,0
0.042077,-0.0079821,0.018333,9.1489e-05,0.0055274,-0.00042129,0,0,0.049943,-0.0212,0,-0.003286,0,0,0,0.018343,8.1764e-05,0.0055274,-1.3223,0.0079841,0.016238,1.3943e-07,0.84,0.88,0
0.043074,-0.0080612,0.018295,0.00012739,0.0055268,-0.00038996,0,0,0.049797,-0.021057,0,-0.0030417,0,0,0,0.018304,0.00011903,0.0055268,-1.229,0.0079831,0.016174,1.3823e-07,0.86,0.88,0
0.044069,-0.0081331,0.018261,0.00015822,0.0055259,-0.00034979,0,0,0.049668,-0.020934,0,-0.0027284,0,0,0,0.018268,0.00015147,0.0055259,-1.1065,0.0079818,0.016116,1.3716e-07,0.88,0.88,0
0.045061,-0.0081963,0.018232,0.00018391,0.0055249,-0.00030223,0,0,0.049559,-0.02083,0,-0.0023574,0,0,0,0.018237,0.00017885,0.0055249,-0.9591,0.0079804,0.016067,1.3624e-07,0.9,0.88,0
0.046051,-0.0082497,0.018208,0.00020453,0.0055239,-0.00024867,0,0,0.049469,-0.020745,0,-0.0019397,0,0,0,0.018212,0.0002011,0.0055239,-0.79118,0.0079789,0.016026,1.3548e-07,0.92,0.88,0
0.04704,-0.0082922,0.01819,0.00022026,0.0055229,-0.00019045,0,0,0.0494,-0.02068,0,-0.0014855,0,0,0,0.018191,0.00021824,0.0055229,-0.60716,0.0079776,0.015995,1.3489e-07,0.94,0.88,0
0.048027,-0.0083232,0.018176,0.00023131,0.0055222,-0.00012881,0,0,0.04935,-0.020635,0,-0.0010048,0,0,0,0.018177,0.00023038,0.0055222,-0.41126,0.0079765,0.015972,1.3446e-07,0.96,0.88,0
0.049014,-0.008342,0.018168,0.00023785,0.0055217,-6.4956e-05,0,0,0.04932,-0.020607,0,-0.00050666,0,0,0,0.018168,0.00023762,0.0055217,-0.20756,0.0079759,0.015959,1.3421e-07,0.98,0.88,0
0.05,-0.0083483,0.018165,0.00024002,0.0055216,-4.0364e-05,0,0,0.04931,-0.020598,0,-0.00031484,0,0,0,0.018165,0.00023993,0.0055216,-0.12902,0.0079756,0.015954,1.3412e-07,1,0.88,0
0,0,0.019244,0.0082474,0.0082474,-0.0049798,0,0,0.042887,6.5052e-19,0,-0.038843,0,0,0,0.021164,0.0063275,0.0082474,-21.084,0.011913,0.013976,1.3132e-07,0,0.9,0
0.00085773,-0.00077686,0.019136,0.0069765,0.0078338,-0.0048976,0,0,0.044079,-0.0033435,0,-0.038201,0,0,0,0.020863,0.0052492,0.0078338,-19.427,0.011315,0.014496,1.3982e-07,0.02,0.9,0
0.0017632,-0.0015752,0.019446,0.0056923,0.0075414,-0.0047246,0,0,0.046427,-0.0072118,0,-0.036852,0,0,0,0.020913,0.0042257,0.0075414,-17.245,0.010893,0.015301,1.5525e-07,0.04,0.9,0
0.0027148,-0.0023631,0.019673,0.0044591,0.0072396,-0.0043171,0,0,0.04849,-0.010844,0,-0.033674,0,0,0,0.020813,0.0033194,0.0072396,-14.788,0.010457,0.0159,1.649e-07,0.06,0.9,0
0.0037027,-0.0031115,0.019774,0.003435,0.0069626,-0.0037619,0,0,0.049963,-0.013758,0,-0.029343,0,0,0,0.020598,0.0026105,0.0069626,-12.363,0.010057,0.016255,1.6842e-07,0.08,0.9,0
0.0047134,-0.0038012,0.019743,0.0026501,0.006718,-0.0031599,0,0,0.050798,-0.015865,0,-0.024647,0,0,0,0.020309,0.0020846,0.006718,-10.145,0.0097037,0.016406,1.6727e-07,0.1,0.9,0
0.0057347,-0.0044233,0.019612,0.0020679,0.0065041,-0.0025833,0,0,0.051122,-0.017301,0,-0.02015,0,0,0,0.019985,0.0016955,0.0065041,-8.2044,0.0093948,0.016422,1.6342e-07,0.12,0.9,0
0.0067583,-0.0049761,0.019424,0.0016368,0.0063181,-0.0020652,0,0,0.051111,-0.018257,0,-0.016108,0,0,0,0.01966,0.0014002,0.0063181,-6.5366,0.0091262,0.016365,1.5846e-07,0.14,0.9,0
0.0077791,-0.0054618,0.019214,0.0013154,0.0061589,-0.0016141,0,0,0.050916,-0.01889,0,-0.01259,0,0,0,0.019359,0.001171,0.0061589,-5.1118,0.0088962,0.016277,1.534e-07,0.16,0.9,0
0.0087949,-0.0058844,0.019009,0.0010724,0.0060244,-0.0012267,0,0,0.05064,-0.019313,0,-0.0095681,0,0,0,0.019092,0.00098885,0.0060244,-3.8943,0.0087019,0.016184,1.4878e-07,0.18,0.9,0
0.0098047,-0.0062484,0.018822,0.00088551,0.0059121,-0.00089551,0,0,0.050347,-0.019604,0,-0.006985,0,0,0,0.018866,0.00084091,0.0059121,-2.8512,0.0085397,0.0161,1.4484e-07,0.2,0.9,0
0.010809,-0.0065585,0.018659,0.0007389,0.0058194,-0.0006125,0,0,0.050075,-0.019814,0,-0.0047775,0,0,0,0.01868,0.00071798,0.0058194,-1.9553,0.0084058,0.016032,1.4165e-07,0.22,0.9,0
0.011808,-0.0068193,0.018524,0.00062112,0.0057437,-0.00037039,0,0,0.049845,-0.019978,0,-0.0028891,0,0,0,0.018532,0.00061346,0.0057437,-1.1847,0.0082965,0.015984,1.3919e-07,0.24,0.9,0
0.012803,-0.0070352,0.018418,0.00052394,0.0056826,-0.00016321,0,0,0.049668,-0.020119,0,-0.001273,0,0,0,0.018419,0.00052246,0.0056826,-0.52253,0.0082081,0.015956,1.3743e-07,0.26,0.9,0
0.013794,-0.0072106,0.018338,0.00044134,0.0056339,1.3747e-05,0,0,0.049547,-0.020251,0,0.00010723,0,0,0,0.018338,0.00044133,0.0056339,0.04401,0.0081378,0.015948,1.363e-07,0.28,0.9,0
0.014785,-0.0073496,0.018283,0.00036889,0.0055957,0.00016401,0,0,0.049482,-0.020385,0,0.0012793,0,0,0,0.018285,0.00036739,0.0055957,0.52449,0.0080827,0.015959,1.3573e-07,0.3,0.9,0
0.015774,-0.0074561,0.018252,0.00030331,0.0055664,0.00029015,0,0,0.049472,-0.020526,0,0.0022632,0,0,0,0.018256,0.00029862,0.0055664,0.92593,0.0080404,0.015988,1.3566e-07,0.32,0.9,0
0.016763,-0.0075342,0.01824,0.00024225,0.0055446,0.00039398,0,0,0.049511,-0.020679,0,0.003073,0,0,0,0.018248,0.00023363,0.0055446,1.2534,0.0080089,0.016033,1.3603e-07,0.34,0.9,0
0.017754,-0.0075875,0.018246,0.00018408,0.0055289,0.00047671,0,0,0.049595,-0.020845,0,0.0037183,0,0,0,0.018258,0.00017151,0.0055289,1.5108,0.0079862,0.016091,1.3677e-07,0.36,0.9,0
0.018747,-0.0076201,0.018266,0.00012778,0.0055183,0.00053916,0,0,0.049718,-0.021023,0,0.0042055,0,0,0,0.018283,0.00011177,0.0055183,1.7011,0.0079708,0.016161,1.3781e-07,0.38,0.9,0
0.019743,-0.0076355,0.018299,7.2885e-05,0.0055117,0.00058192,0,0,0.049872,-0.021211,0,0.004539,0,0,0,0.018318,5.4325e-05,0.0055117,1.8268,0.0079613,0.016238,1.3909e-07,0.4,0.9,0
0.020742,-0.0076376,0.018342,1.9365e-05,0.0055084,0.00060549,0,0,0.05005,-0.021407,0,0.0047228,0,0,0,0.018362,-6.2182e-07,0.0055084,1.8907,0.0079565,0.016321,1.4054e-07,0.42,0.9,0
0.021745,-0.0076299,0.018391,-3.2388e-05,0.0055075,0.00061042,0,0,0.050244,-0.021605,0,0.0047613,0,0,0,0.018411,-5.2591e-05,0.0055075,1.8957,0.0079553,0.016406,1.421e-07,0.44,0.9,0
0.022752,-0.0076159,0.018443,-8.1662e-05,0.0055085,0.00059748,0,0,0.050446,-0.021802,0,0.0046603,0,0,0,0.018463,-0.00010091,0.0055085,1.8454,0.0079567,0.016491,1.437e-07,0.46,0.9,0
0.023763,-0.0075988,0.018497,-0.0001275,0.0055108,0.00056769,0,0,0.050646,-0.021989,0,0.004428,0,0,0,0.018514,-0.00014479,0.0055108,1.7443,0.0079601,0.016572,1.4527e-07,0.48,0.9,0
0.024778,-0.0075819,0.018549,-0.00016882,0.005514,0.00052244,0,0,0.050836,-0.022163,0,0.0040751,0,0,0,0.018564,-0.00018339,0.005514,1.5976,0.0079647,0.016646,1.4674e-07,0.5,0.9,0
0.025796,-0.0075677,0.018597,-0.00020447,0.0055177,0.00046351,0,0,0.051009,-0.022317,0,0.0036154,0,0,0,0.018608,-0.00021589,0.0055177,1.4114,0.0079701,0.016712,1.4807e-07,0.52,0.9,0
0.026818,-0.0075587,0.018639,-0.00023339,0.0055216,0.00039305,0,0,0.051157,-0.022444,0,0.0030658,0,0,0,0.018647,-0.00024157,0.0055216,1.1926,0.0079757,0.016767,1.4921e-07,0.54,0.9,0
0.027842,-0.007557,0.018673,-0.00025469,0.0055254,0.00031356,0,0,0.051275,-0.022542,0,0.0024458,0,0,0,0.018678,-0.00025988,0.0055254,0.94883,0.0079811,0.016809,1.501e-07,0.56,0.9,0
0.028869,-0.0075642,0.018697,-0.00026773,0.0055289,0.0002278,0,0,0.051357,-0.022607,0,0.0017768,0,0,0,0.0187,-0.00027047,0.0055289,0.68807,0.0079862,0.016837,1.5072e-07,0.58,0.9,0
0.029897,-0.0075813,0.018712,-0.0002722,0.0055319,0.0001387,0,0,0.051402,-0.022636,0,0.0010819,0,0,0,0.018713,-0.00027321,0.0055319,0.41859,0.0079905,0.016851,1.5105e-07,0.6,0.9,0
0.030925,-0.0076091,0.018716,-0.00026813,0.0055343,4.9251e-05,0,0,0.051407,-0.022629,0,0.00038416,0,0,0,0.018716,-0.00026825,0.0055343,0.14865,0.0079939,0.016849,1.5108e-07,0.62,0.9,0
0.031953,-0.0076478,0.018709,-0.00025592,0.0055359,-3.7667e-05,0,0,0.051374,-0.022588,0,-0.0002938,0,0,0,0.018709,-0.000256,0.0055359,-0.1138,0.0079962,0.016834,1.5081e-07,0.64,0.9,0
0.03298,-0.0076969,0.018692,-0.00023634,0.0055366,-0.00011936,0,0,0.051305,-0.022515,0,-0.00093102,0,0,0,0.018693,-0.0002371,0.0055366,-0.36129,0.0079974,0.016804,1.5026e-07,0.66,0.9,0
0.034005,-0.007756,0.018666,-0.00021043,0.0055366,-0.00019347,0,0,0.051203,-0.022413,0,-0.001509,0,0,0,0.018668,-0.00021241,0.0055366,-0.58716,0.0079972,0.016762,1.4946e-07,0.68,0.9,0
0.035028,-0.0078238,0.018631,-0.00017944,0.0055355,-0.00025802,0,0,0.051073,-0.022288,0,-0.0020125,0,0,0,0.018635,-0.00018297,0.0055355,-0.7857,0.0079958,0.016709,1.4843e-07,0.7,0.9,0
0.036048,-0.007899,0.01859,-0.00014477,0.0055336,-0.00031153,0,0,0.050921,-0.022146,0,-0.0024299,0,0,0,0.018595,-0.00014995,0.0055336,-0.95239,0.007993,0.016648,1.4722e-07,0.72,0.9,0
0.037065,-0.00798,0.018544,-0.00010787,0.0055308,-0.00035301,0,0,0.050751,-0.021991,0,-0.0027535,0,0,0,0.018551,-0.00011455,0.0055308,-1.0839,0.007989,0.01658,1.4587e-07,0.74,0.9,0
0.038078,-0.0080649,0.018494,-7.0135e-05,0.0055273,-0.00038198,0,0,0.050572,-0.02183,0,-0.0029794,0,0,0,0.018502,-7.7991e-05,0.0055273,-1.1782,0.0079838,0.016508,1.4443e-07,0.76,0.9,0
0.039088,-0.008152,0.018443,-3.2833e-05,0.005523,-0.00039838,0,0,0.050388,-0.021668,0,-0.0031073,0,0,0,0.018451,-4.1419e-05,0.005523,-1.2347,0.0079777,0.016433,1.4295e-07,0.78,0.9,0
0.040094,-0.0082392,0.018391,2.9408e-06,0.0055182,-0.00040259,0,0,0.050205,-0.02151,0,-0.0031402,0,0,0,0.0184,-5.8693e-06,0.0055182,-1.2536,0.0079708,0.016359,1.4147e-07,0.8,0.9,0
0.041096,-0.0083246,0.018341,3.6308e-05,0.0055131,-0.00039532,0,0,0.050028,-0.02136,0,-0.0030835,0,0,0,0.018349,2.7774e-05,0.0055131,-1.2367,0.0079634,0.016287,1.4002e-07,0.82,0.9,0
0.042095,-0.0084064,0.018293,6.6619e-05,0.0055078,-0.00037752,0,0,0.049861,-0.02122,0,-0.0029447,0,0,0,0.018301,5.8803e-05,0.0055078,-1.1861,0.0079557,0.016219,1.3865e-07,0.84,0.9,0
0.04309,-0.0084828,0.018248,9.3444e-05,0.0055025,-0.00035031,0,0,0.049708,-0.021095,0,-0.0027324,0,0,0,0.018255,8.6686e-05,0.0055025,-1.105,0.007948,0.016156,1.3739e-07,0.86,0.9,0
0.044083,-0.0085524,0.018208,0.00011655,0.0054974,-0.00031493,0,0,0.049571,-0.020985,0,-0.0024565,0,0,0,0.018214,0.00011106,0.0054974,-0.99699,0.0079406,0.0161,1.3626e-07,0.88,0.9,0
0.045073,-0.0086137,0.018173,0.00013585,0.0054927,-0.00027263,0,0,0.049453,-0.020892,0,-0.0021265,0,0,0,0.018177,0.00013173,0.0054927,-0.86576,0.0079338,0.016051,1.3527e-07,0.9,0.9,0
0.046061,-0.0086654,0.018144,0.00015139,0.0054885,-0.00022468,0,0,0.049355,-0.020815,0,-0.0017525,0,0,0,0.018146,0.00014858,0.0054885,-0.71533,0.0079279,0.01601,1.3445e-07,0.92,0.9,0
0.047047,-0.0087067,0.018121,0.00016327,0.0054852,-0.00017229,0,0,0.049278,-0.020755,0,-0.0013439,0,0,0,0.018122,0.00016162,0.0054852,-0.54965,0.007923,0.015978,1.338e-07,0.94,0.9,0
0.048032,-0.0087368,0.018104,0.00017163,0.0054826,-0.00011664,0,0,0.049223,-0.020713,0,-0.0009098,0,0,0,0.018105,0.00017087,0.0054826,-0.37266,0.0079194,0.015955,1.3334e-07,0.96,0.9,0
0.049016,-0.008755,0.018094,0.00017659,0.0054811,-5.885e-05,0,0,0.049189,-0.020688,0,-0.00045903,0,0,0,0.018094,0.0001764,0.0054811,-0.18819,0.0079171,0.015942,1.3306e-07,0.98,0.9,0
0.05,-0.0087612,0.01809,0.00017823,0.0054806,-3.9246e-05,0,0,0.049178,-0.020679,0,-0.00030612,0,0,0,0.01809,0.00017815,0.0054806,-0.12554,0.0079164,0.015937,1.3297e-07,1,0.9,0
0,0,0.019896,0.0085268,0.0085268,-0.0054509,0,0,0.044339,-8.6736e-19,0,-0.042517,0,0,0,0.022087,0.0063356,0.0085268,-21.899,0.012316,0.014778,1.5355e-07,0,0.92,0
0.00088678,-0.00085034,0.019734,0.0069049,0.0079917,-0.0053106,0,0,0.045796,-0.0042386,0,-0.041423,0,0,0,0.021647,0.0049919,0.0079917,-19.81,0.011544,0.015376,1.6302e-07,0.02,0.92,0
0.0018318,-0.0017342,0.020036,0.0052398,0.0075828,-0.0050222,0,0,0.048568,-0.0091378,0,-0.039173,0,0,0,0.02158,0.0036962,0.0075828,-17.085,0.010953,0.016292,1.802e-07,0.04,0.92,0
0.0028295,-0.0026001,0.0202,0.003791,0.0071972,-0.0044145,0,0,0.05071,-0.013284,0,-0.034433,0,0,0,0.021312,0.0026787,0.0071972,-14.142,0.010396,0.016835,1.8684e-07,0.06,0.92,0
0.0038602,-0.0034079,0.020168,0.0027337,0.0068704,-0.0036679,0,0,0.051859,-0.016133,0,-0.02861,0,0,0,0.020908,0.0019934,0.0068704,-11.41,0.0099239,0.017009,1.8443e-07,0.08,0.92,0
0.0049039,-0.0041377,0.019967,0.0020154,0.0065949,-0.0029463,0,0,0.052153,-0.01786,0,-0.022981,0,0,0,0.020439,0.0015443,0.0065949,-9.0859,0.0095259,0.016943,1.7701e-07,0.1,0.92,0
0.0059463,-0.0047853,0.019668,0.0015191,0.0063561,-0.0023171,0,0,0.051916,-0.018864,0,-0.018073,0,0,0,0.019959,0.0012279,0.0063561,-7.1621,0.009181,0.016766,1.679e-07,0.12,0.92,0
0.0069805,-0.0053539,0.019344,0.0011717,0.0061546,-0.0017919,0,0,0.051438,-0.019433,0,-0.013977,0,0,0,0.019519,0.00099668,0.0061546,-5.5783,0.00889,0.016557,1.5912e-07,0.14,0.92,0
0.0080038,-0.0058494,0.019036,0.00092329,0.0059879,-0.0013589,0,0,0.050889,-0.019752,0,-0.0106,0,0,0,0.019138,0.0008219,0.0059879,-4.2668,0.0086492,0.016357,1.5149e-07,0.16,0.92,0
0.0090161,-0.006278,0.018765,0.00074164,0.0058521,-0.0010019,0,0,0.050362,-0.019931,0,-0.0078152,0,0,0,0.018821,0.00068611,0.0058521,-3.1721,0.0084531,0.016183,1.4522e-07,0.18,0.92,0
0.010018,-0.0066459,0.018538,0.00060556,0.005743,-0.00070598,0,0,0.0499,-0.020036,0,-0.0055067,0,0,0,0.018565,0.00057781,0.005743,-2.2511,0.0082954,0.016041,1.4027e-07,0.2,0.92,0
0.011012,-0.0069587,0.018354,0.00050097,0.0056565,-0.00045886,0,0,0.049521,-0.020107,0,-0.0035791,0,0,0,0.018366,0.00048918,0.0056565,-1.4713,0.0081705,0.015934,1.3651e-07,0.22,0.92,0
0.011999,-0.0072217,0.018212,0.0004183,0.0055892,-0.00025121,0,0,0.04923,-0.020166,0,-0.0019594,0,0,0,0.018216,0.00041475,0.0055892,-0.80867,0.0080732,0.01586,1.3379e-07,0.24,0.92,0
0.012981,-0.0074396,0.018108,0.00035094,0.0055378,-7.6019e-05,0,0,0.049025,-0.020229,0,-0.00059295,0,0,0,0.018109,0.00035062,0.0055378,-0.24527,0.0079991,0.015816,1.3195e-07,0.26,0.92,0
0.01396,-0.0076169,0.018039,0.00029422,0.0054999,7.1857e-05,0,0,0.048902,-0.020302,0,0.00056048,0,0,0,0.018039,0.00029393,0.0054999,0.23201,0.0079443,0.015799,1.3089e-07,0.28,0.92,0
0.014937,-0.007758,0.018,0.00024478,0.0054733,0.00019612,0,0,0.048852,-0.020391,0,0.0015298,0,0,0,0.018002,0.00024261,0.0054733,0.6328,0.0079059,0.015807,1.3049e-07,0.3,0.92,0
0.015914,-0.0078669,0.017986,0.00020022,0.005456,0.00029939,0,0,0.048869,-0.020498,0,0.0023352,0,0,0,0.017992,0.00019518,0.005456,0.96407,0.0078809,0.015835,1.3065e-07,0.32,0.92,0
0.016892,-0.0079477,0.017996,0.00015883,0.0054464,0.00038344,0,0,0.048943,-0.020622,0,0.0029908,0,0,0,0.018004,0.00015059,0.0054464,1.2309,0.0078671,0.015882,1.3129e-07,0.34,0.92,0
0.017872,-0.008004,0.018024,0.00011944,0.0054431,0.00044949,0,0,0.049067,-0.020762,0,0.003506,0,0,0,0.018036,0.00010816,0.0054431,1.4371,0.0078623,0.015944,1.3232e-07,0.36,0.92,0
0.018855,-0.0080398,0.018068,8.1336e-05,0.0054449,0.00049832,0,0,0.049231,-0.020918,0,0.0038869,0,0,0,0.018082,6.7541e-05,0.0054449,1.5857,0.0078648,0.016018,1.3367e-07,0.38,0.92,0
0.019841,-0.0080587,0.018124,4.4183e-05,0.0054505,0.00053053,0,0,0.049428,-0.021085,0,0.0041381,0,0,0,0.01814,2.8629e-05,0.0054505,1.6793,0.007873,0.0161,1.3527e-07,0.4,0.92,0
0.020832,-0.0080645,0.018189,7.9688e-06,0.0054591,0.00054659,0,0,0.049647,-0.021259,0,0.0042634,0,0,0,0.018205,-8.4487e-06,0.0054591,1.7204,0.0078854,0.016188,1.3705e-07,0.42,0.92,0
0.021827,-0.0080604,0.018259,-2.7042e-05,0.0054697,0.00054703,0,0,0.04988,-0.021437,0,0.0042668,0,0,0,0.018276,-4.3391e-05,0.0054697,1.7119,0.0079007,0.016279,1.3892e-07,0.44,0.92,0
0.022827,-0.0080501,0.018332,-6.0362e-05,0.0054815,0.00053252,0,0,0.050118,-0.021613,0,0.0041537,0,0,0,0.018348,-7.5767e-05,0.0054815,1.657,0.0079178,0.016368,1.4083e-07,0.46,0.92,0
0.023832,-0.0080365,0.018405,-9.1341e-05,0.0054939,0.00050398,0,0,0.050351,-0.021783,0,0.0039311,0,0,0,0.018418,-0.00010506,0.0054939,1.5597,0.0079357,0.016454,1.427e-07,0.48,0.92,0
0.024841,-0.0080228,0.018474,-0.00011923,0.0055063,0.0004626,0,0,0.050572,-0.02194,0,0.0036083,0,0,0,0.018485,-0.00013074,0.0055063,1.4244,0.0079535,0.016534,1.4447e-07,0.5,0.92,0
0.025855,-0.0080114,0.018537,-0.00014327,0.0055181,0.00040989,0,0,0.050773,-0.022079,0,0.0031972,0,0,0,0.018546,-0.00015226,0.0055181,1.2564,0.0079705,0.016606,1.4607e-07,0.52,0.92,0
0.026872,-0.0080049,0.018592,-0.00016273,0.0055288,0.00034767,0,0,0.050947,-0.022197,0,0.0027118,0,0,0,0.018599,-0.00016918,0.0055288,1.0616,0.0079861,0.016666,1.4746e-07,0.54,0.92,0
0.027893,-0.0080051,0.018638,-0.00017701,0.0055382,0.00027803,0,0,0.051088,-0.022289,0,0.0021686,0,0,0,0.018642,-0.00018112,0.0055382,0.84642,0.0079997,0.016714,1.4858e-07,0.56,0.92,0
0.028916,-0.0080135,0.018672,-0.00018568,0.005546,0.00020329,0,0,0.051192,-0.022353,0,0.0015856,0,0,0,0.018674,-0.00018787,0.005546,0.61755,0.0080108,0.016748,1.4942e-07,0.58,0.92,0
0.02994,-0.0080313,0.018695,-0.00018851,0.0055518,0.00012589,0,0,0.051257,-0.022387,0,0.00098193,0,0,0,0.018695,-0.00018935,0.0055518,0.38195,0.0080193,0.016768,1.4993e-07,0.6,0.92,0
0.030966,-0.0080591,0.018704,-0.00018554,0.0055557,4.8321e-05,0,0,0.05128,-0.022391,0,0.00037691,0,0,0,0.018705,-0.00018567,0.0055557,0.14656,0.0080249,0.016774,1.5012e-07,0.62,0.92,0
0.031991,-0.008097,0.018702,-0.00017704,0.0055575,-2.6998e-05,0,0,0.051264,-0.022365,0,-0.00021058,0,0,0,0.018702,-0.00017708,0.0055575,-0.081934,0.0080275,0.016764,1.4999e-07,0.64,0.92,0
0.033016,-0.0081449,0.018688,-0.00016351,0.0055572,-9.7818e-05,0,0,0.051209,-0.022311,0,-0.00076298,0,0,0,0.018688,-0.00016402,0.0055572,-0.2973,0.0080271,0.016741,1.4955e-07,0.66,0.92,0
0.03404,-0.0082022,0.018662,-0.00014566,0.005555,-0.00016215,0,0,0.051118,-0.022232,0,-0.0012648,0,0,0,0.018664,-0.00014705,0.005555,-0.49392,0.0080238,0.016706,1.4882e-07,0.68,0.92,0
0.035061,-0.0082678,0.018627,-0.00012433,0.0055508,-0.00021834,0,0,0.050997,-0.022133,0,-0.001703,0,0,0,0.01863,-0.00012687,0.0055508,-0.66702,0.0080178,0.01666,1.4784e-07,0.7,0.92,0
0.03608,-0.0083405,0.018584,-0.00010047,0.0055449,-0.0002651,0,0,0.050851,-0.022017,0,-0.0020678,0,0,0,0.018587,-0.00010423,0.0055449,-0.81274,0.0080093,0.016604,1.4665e-07,0.72,0.92,0
0.037095,-0.0084187,0.018534,-7.5068e-05,0.0055375,-0.00030159,0,0,0.050684,-0.021889,0,-0.0023524,0,0,0,0.018538,-7.9954e-05,0.0055375,-0.92826,0.0079987,0.016541,1.453e-07,0.74,0.92,0
0.038107,-0.0085007,0.018479,-4.9058e-05,0.0055289,-0.00032734,0,0,0.050505,-0.021754,0,-0.0025532,0,0,0,0.018485,-5.4839e-05,0.0055289,-1.0118,0.0079862,0.016473,1.4383e-07,0.76,0.92,0
0.039115,-0.0085848,0.018421,-2.3314e-05,0.0055194,-0.00034228,0,0,0.050317,-0.021616,0,-0.0026698,0,0,0,0.018427,-2.9663e-05,0.0055194,-1.0628,0.0079724,0.016402,1.423e-07,0.78,0.92,0
0.04012,-0.0086691,0.018362,1.4143e-06,0.0055091,-0.00034669,0,0,0.050128,-0.02148,0,-0.0027042,0,0,0,0.018369,-5.1294e-06,0.0055091,-1.0813,0.0079577,0.016331,1.4074e-07,0.8,0.92,0
0.04112,-0.0087517,0.018304,2.4519e-05,0.0054986,-0.00034112,0,0,0.049942,-0.021349,0,-0.0026607,0,0,0,0.018311,1.8155e-05,0.0054986,-1.0687,0.0079425,0.01626,1.3922e-07,0.82,0.92,0
0.042117,-0.0088309,0.018248,4.5545e-05,0.0054881,-0.00032636,0,0,0.049764,-0.021226,0,-0.0025456,0,0,0,0.018254,3.9696e-05,0.0054881,-1.0268,0.0079273,0.016193,1.3776e-07,0.84,0.92,0
0.043111,-0.008905,0.018196,6.4188e-05,0.005478,-0.00030334,0,0,0.049599,-0.021114,0,-0.0023661,0,0,0,0.018201,5.9115e-05,0.005478,-0.95821,0.0079126,0.01613,1.3639e-07,0.86,0.92,0
0.044101,-0.0089725,0.018148,8.0274e-05,0.0054685,-0.0002731,0,0,0.04945,-0.021014,0,-0.0021302,0,0,0,0.018152,7.6147e-05,0.0054685,-0.86579,0.0078989,0.016073,1.3516e-07,0.88,0.92,0
0.045089,-0.009032,0.018106,9.3739e-05,0.0054599,-0.00023672,0,0,0.049319,-0.020928,0,-0.0018464,0,0,0,0.018109,9.0628e-05,0.0054599,-0.75282,0.0078865,0.016023,1.3409e-07,0.9,0.92,0
0.046074,-0.0090823,0.01807,0.0001046,0.0054525,-0.00019529,0,0,0.04921,-0.020857,0,-0.0015232,0,0,0,0.018073,0.00010247,0.0054525,-0.6227,0.0078758,0.015981,1.3318e-07,0.92,0.92,0
0.047057,-0.0091225,0.018042,0.00011291,0.0054465,-0.00014988,0,0,0.049123,-0.020801,0,-0.001169,0,0,0,0.018044,0.00011166,0.0054465,-0.47891,0.0078672,0.015948,1.3246e-07,0.94,0.92,0
0.048039,-0.0091517,0.018022,0.00011877,0.0054421,-0.00010153,0,0,0.04906,-0.020761,0,-0.00079191,0,0,0,0.018022,0.00011819,0.0054421,-0.32491,0.0078609,0.015924,1.3195e-07,0.96,0.92,0
0.04902,-0.0091695,0.018009,0.00012224,0.0054395,-5.1243e-05,0,0,0.049022,-0.020737,0,-0.0003997,0,0,0,0.018009,0.0001221,0.0054395,-0.16414,0.007857,0.01591,1.3163e-07,0.98,0.92,0
0.05,-0.0091754,0.018005,0.0001234,0.0054386,-3.8199e-05,0,0,0.049009,-0.020729,0,-0.00029795,0,0,0,0.018005,0.00012331,0.0054386,-0.1224,0.0078557,0.015905,1.3153e-07,1,0.92,0
0,0,0.020979,0.0089909,0.0089909,-0.0060666,0,0,0.046753,4.3368e-19,0,-0.04732,0,0,0,0.023513,0.0064566,0.0089909,-22.673,0.012987,0.015941,1.9045e-07,0,0.94,0
0.00093505,-0.0009464,0.020695,0.0067066,0.0082205,-0.00577,0,0,0.048651,-0.0059044,0,-0.045006,0,0,0,0.022768,0.0046337,0.0082205,-19.761,0.011874,0.016633,1.9981e-07,0.02,0.94,0
0.001946,-0.0019407,0.020912,0.0044347,0.0076041,-0.005233,0,0,0.051902,-0.012361,0,-0.040817,0,0,0,0.022434,0.0029133,0.0076041,-16.211,0.010984,0.017649,2.1654e-07,0.04,0.94,0
0.0030112,-0.0028945,0.020903,0.0028345,0.0071212,-0.0042658,0,0,0.053748,-0.016718,0,-0.033273,0,0,0,0.021859,0.001878,0.0071212,-12.638,0.010286,0.017944,2.1354e-07,0.06,0.94,0
0.004096,-0.0037568,0.020612,0.001931,0.0067628,-0.0033047,0,0,0.054011,-0.018844,0,-0.025777,0,0,0,0.021179,0.0013636,0.0067628,-9.7422,0.0097684,0.017743,1.9987e-07,0.08,0.94,0
0.0051716,-0.0045156,0.020106,0.0013588,0.0064395,-0.0025079,0,0,0.0533,-0.019815,0,-0.019562,0,0,0,0.020436,0.0010291,0.0064395,-7.4893,0.0093014,0.017346,1.8278e-07,0.1,0.94,0
0.006228,-0.0051779,0.019579,0.00099114,0.0061712,-0.0018889,0,0,0.052292,-0.020202,0,-0.014734,0,0,0,0.019769,0.00080113,0.0061712,-5.7441,0.0089139,0.016934,1.6748e-07,0.12,0.94,0
0.0072633,-0.0057535,0.019104,0.00074601,0.0059551,-0.00141,0,0,0.051282,-0.020316,0,-0.010998,0,0,0,0.019212,0.00063835,0.0059551,-4.3663,0.0086018,0.016568,1.5506e-07,0.14,0.94,0
0.0082792,-0.0062519,0.018705,0.00057743,0.0057847,-0.0010356,0,0,0.050389,-0.020308,0,-0.0080781,0,0,0,0.018764,0.00051845,0.0057847,-3.2593,0.0083556,0.016265,1.4541e-07,0.16,0.94,0
0.0092788,-0.0066816,0.018382,0.00045778,0.005652,-0.00073835,0,0,0.049648,-0.020258,0,-0.0057591,0,0,0,0.018413,0.00042742,0.005652,-2.3548,0.0081641,0.016025,1.381e-07,0.18,0.94,0
0.010265,-0.0070498,0.018131,0.00037021,0.0055503,-0.00049835,0,0,0.049064,-0.020203,0,-0.0038871,0,0,0,0.018145,0.00035624,0.0055503,-1.606,0.0080172,0.015844,1.3271e-07,0.2,0.94,0
0.011241,-0.0073627,0.017942,0.00030411,0.0054739,-0.0003018,0,0,0.048626,-0.020162,0,-0.002354,0,0,0,0.017947,0.00029894,0.0054739,-0.97999,0.0079067,0.015713,1.2885e-07,0.22,0.94,0
0.01221,-0.0076259,0.017808,0.00025258,0.005418,-0.00013899,0,0,0.048319,-0.020145,0,-0.0010841,0,0,0,0.017809,0.00025148,0.005418,-0.45359,0.0078261,0.015628,1.2625e-07,0.24,0.94,0
0.013174,-0.0078444,0.01772,0.00021103,0.0053793,-3.1173e-06,0,0,0.048128,-0.020156,0,-2.4315e-05,0,0,0,0.01772,0.00021103,0.0053793,-0.010201,0.00777,0.015581,1.2467e-07,0.26,0.94,0
0.014135,-0.0080227,0.017672,0.00017628,0.0053545,0.00011056,0,0,0.048038,-0.020195,0,0.00086237,0,0,0,0.017673,0.00017558,0.0053545,0.36205,0.0077342,0.015568,1.2395e-07,0.28,0.94,0
0.015096,-0.0081653,0.017658,0.00014613,0.0053413,0.00020534,0,0,0.048036,-0.020261,0,0.0016017,0,0,0,0.017661,0.00014372,0.0053413,0.67171,0.0077152,0.015582,1.2395e-07,0.3,0.94,0
0.016057,-0.0082761,0.017673,0.00011901,0.0053377,0.00028347,0,0,0.048109,-0.020353,0,0.0022111,0,0,0,0.017678,0.00011444,0.0053377,0.92491,0.00771,0.015621,1.2453e-07,0.32,0.94,0
0.01702,-0.008359,0.017712,9.3829e-05,0.0053419,0.00034646,0,0,0.048245,-0.020467,0,0.0027024,0,0,0,0.017719,8.7019e-05,0.0053419,1.1261,0.007716,0.01568,1.2562e-07,0.34,0.94,0
0.017987,-0.008418,0.017771,6.9847e-05,0.0053522,0.0003953,0,0,0.048433,-0.020601,0,0.0030833,0,0,0,0.01778,6.1024e-05,0.0053522,1.2787,0.007731,0.015754,1.2712e-07,0.36,0.94,0
0.018957,-0.0084568,0.017845,4.6619e-05,0.0053675,0.00043063,0,0,0.048662,-0.020751,0,0.0033589,0,0,0,0.017855,3.6206e-05,0.0053675,1.3852,0.0077531,0.015841,1.2895e-07,0.38,0.94,0
0.019933,-0.0084789,0.017931,2.3938e-05,0.0053864,0.00045289,0,0,0.048923,-0.020914,0,0.0035326,0,0,0,0.017942,1.2491e-05,0.0053864,1.4479,0.0077803,0.015937,1.3102e-07,0.4,0.94,0
0.020914,-0.008488,0.018024,1.804e-06,0.0054078,0.00046248,0,0,0.049203,-0.021083,0,0.0036073,0,0,0,0.018036,-1.0056e-05,0.0054078,1.469,0.0078112,0.016039,1.3327e-07,0.42,0.94,0
0.021901,-0.0084874,0.018122,-1.9614e-05,0.0054306,0.0004598,0,0,0.049495,-0.021256,0,0.0035865,0,0,0,0.018133,-3.1261e-05,0.0054306,1.451,0.0078442,0.016142,1.3561e-07,0.44,0.94,0
0.022894,-0.0084804,0.01822,-4.0009e-05,0.005454,0.00044539,0,0,0.049787,-0.021427,0,0.003474,0,0,0,0.018231,-5.0867e-05,0.005454,1.3964,0.007878,0.016244,1.3796e-07,0.46,0.94,0
0.023893,-0.0084702,0.018316,-5.8975e-05,0.005477,0.00041996,0,0,0.050071,-0.02159,0,0.0032757,0,0,0,0.018325,-6.8569e-05,0.005477,1.3086,0.0079113,0.016343,1.4026e-07,0.48,0.94,0
0.024897,-0.0084594,0.018406,-7.6047e-05,0.0054991,0.00038447,0,0,0.050338,-0.021743,0,0.0029988,0,0,0,0.018414,-8.4042e-05,0.0054991,1.1912,0.0079431,0.016434,1.4243e-07,0.5,0.94,0
0.025906,-0.0084508,0.018489,-9.0748e-05,0.0055193,0.0003401,0,0,0.05058,-0.021879,0,0.0026528,0,0,0,0.018495,-9.6971e-05,0.0055193,1.0483,0.0079724,0.016516,1.4442e-07,0.52,0.94,0
0.02692,-0.0084466,0.01856,-0.00010263,0.0055373,0.00028831,0,0,0.05079,-0.021996,0,0.0022488,0,0,0,0.018565,-0.00010708,0.0055373,0.88483,0.0079984,0.016586,1.4615e-07,0.54,0.94,0
0.027938,-0.0084486,0.01862,-0.00011131,0.0055526,0.00023075,0,0,0.050963,-0.022089,0,0.0017999,0,0,0,0.018623,-0.00011416,0.0055526,0.70569,0.0080204,0.016644,1.4758e-07,0.56,0.94,0
0.028959,-0.0084583,0.018666,-0.00011653,0.0055648,0.00016927,0,0,0.051094,-0.022157,0,0.0013203,0,0,0,0.018667,-0.00011806,0.0055648,0.51631,0.0080381,0.016686,1.4867e-07,0.58,0.94,0
0.029982,-0.0084768,0.018697,-0.00011816,0.0055737,0.0001058,0,0,0.051181,-0.022198,0,0.00082528,0,0,0,0.018698,-0.00011875,0.0055737,0.32218,0.0080509,0.016714,1.494e-07,0.6,0.94,0
0.031006,-0.0085048,0.018713,-0.0001162,0.0055791,4.2324e-05,0,0,0.051223,-0.022212,0,0.00033013,0,0,0,0.018714,-0.00011629,0.0055791,0.12879,0.0080588,0.016726,1.4975e-07,0.62,0.94,0
0.032031,-0.0085423,0.018715,-0.00011082,0.0055811,-1.9249e-05,0,0,0.051221,-0.022199,0,-0.00015015,0,0,0,0.018715,-0.00011084,0.0055811,-0.058586,0.0080617,0.016723,1.4974e-07,0.64,0.94,0
0.033055,-0.0085894,0.018702,-0.00010233,0.0055798,-7.7125e-05,0,0,0.051175,-0.02216,0,-0.00060158,0,0,0,0.018702,-0.00010264,0.0055798,-0.235,0.0080597,0.016705,1.4936e-07,0.66,0.94,0
0.034077,-0.0086453,0.018675,-9.1161e-05,0.0055752,-0.00012972,0,0,0.05109,-0.022099,0,-0.0010118,0,0,0,0.018676,-9.2058e-05,0.0055752,-0.39601,0.0080531,0.016673,1.4866e-07,0.68,0.94,0
0.035098,-0.0087091,0.018637,-7.7842e-05,0.0055677,-0.0001757,0,0,0.05097,-0.022018,0,-0.0013704,0,0,0,0.018639,-7.9491e-05,0.0055677,-0.53783,0.0080423,0.01663,1.4766e-07,0.7,0.94,0
0.036116,-0.0087797,0.018589,-6.2952e-05,0.0055577,-0.00021404,0,0,0.050821,-0.021921,0,-0.0016695,0,0,0,0.018591,-6.5408e-05,0.0055577,-0.65739,0.0080278,0.016576,1.4642e-07,0.72,0.94,0
0.037131,-0.0088555,0.018532,-4.7094e-05,0.0055455,-0.00024405,0,0,0.050647,-0.021811,0,-0.0019036,0,0,0,0.018535,-5.0299e-05,0.0055455,-0.75244,0.0080101,0.016515,1.4498e-07,0.74,0.94,0
0.038142,-0.0089351,0.018469,-3.0855e-05,0.0055315,-0.00026534,0,0,0.050457,-0.021693,0,-0.0020696,0,0,0,0.018473,-3.466e-05,0.0055315,-0.82154,0.00799,0.016447,1.434e-07,0.76,0.94,0
0.039149,-0.0090166,0.018402,-1.4772e-05,0.0055163,-0.00027785,0,0,0.050256,-0.021571,0,-0.0021672,0,0,0,0.018407,-1.8963e-05,0.0055163,-0.86411,0.007968,0.016375,1.4173e-07,0.78,0.94,0
0.040153,-0.0090984,0.018334,6.8618e-07,0.0055004,-0.00028177,0,0,0.050051,-0.021449,0,-0.0021978,0,0,0,0.018338,-3.6435e-06,0.0055004,-0.88033,0.007945,0.016302,1.4003e-07,0.8,0.94,0
0.041151,-0.0091785,0.018265,1.5142e-05,0.0054841,-0.00027755,0,0,0.049847,-0.021329,0,-0.0021649,0,0,0,0.01827,1.0922e-05,0.0054841,-0.87109,0.0079215,0.01623,1.3834e-07,0.82,0.94,0
0.042146,-0.0092554,0.018199,2.8308e-05,0.0054681,-0.0002658,0,0,0.04965,-0.021215,0,-0.0020732,0,0,0,0.018203,2.4421e-05,0.0054681,-0.83788,0.0078984,0.016159,1.3672e-07,0.84,0.94,0
0.043137,-0.0093274,0.018136,3.9993e-05,0.0054528,-0.00024726,0,0,0.049465,-0.02111,0,-0.0019287,0,0,0,0.018139,3.6615e-05,0.0054528,-0.78269,0.0078763,0.016094,1.352e-07,0.86,0.94,0
0.044125,-0.0093929,0.018079,5.0084e-05,0.0054386,-0.00022278,0,0,0.049296,-0.021015,0,-0.0017377,0,0,0,0.018082,4.7331e-05,0.0054386,-0.70787,0.0078558,0.016033,1.3382e-07,0.88,0.94,0
0.045109,-0.0094508,0.018028,5.8537e-05,0.005426,-0.00019323,0,0,0.049148,-0.020933,0,-0.0015072,0,0,0,0.01803,5.646e-05,0.005426,-0.61602,0.0078375,0.01598,1.3261e-07,0.9,0.94,0
0.046091,-0.0094997,0.017985,6.5359e-05,0.0054151,-0.0001595,0,0,0.049023,-0.020864,0,-0.0012441,0,0,0,0.017986,6.394e-05,0.0054151,-0.50991,0.0078218,0.015936,1.3159e-07,0.92,0.94,0
0.04707,-0.0095388,0.017951,7.0587e-05,0.0054064,-0.00012246,0,0,0.048923,-0.02081,0,-0.00095519,0,0,0,0.017951,6.9748e-05,0.0054064,-0.39239,0.0078092,0.0159,1.3078e-07,0.94,0.94,0
0.048048,-0.0095672,0.017926,7.427e-05,0.0054,-8.2981e-05,0,0,0.04885,-0.02077,0,-0.00064725,0,0,0,0.017926,7.3884e-05,0.0054,-0.26633,0.0078,0.015874,1.3019e-07,0.96,0.94,0
0.049024,-0.0095845,0.01791,7.6458e-05,0.0053961,-4.189e-05,0,0,0.048806,-0.020747,0,-0.00032674,0,0,0,0.01791,7.6359e-05,0.0053961,-0.13458,0.0077943,0.015858,1.2983e-07,0.98,0.94,0
0.05,-0.0095903,0.017905,7.7183e-05,0.0053948,-3.7189e-05,0,0,0.048791,-0.020738,0,-0.00029007,0,0,0,0.017905,7.7105e-05,0.0053948,-0.11952,0.0077924,0.015853,1.2971e-07,1,0.94,0
0,0,0.023047,0.0098773,0.0098773,-0.0069648,0,0,0.051362,0,0,-0.054326,0,0,0,0.026047,0.0068774,0.0098773,-23.303,0.014267,0.01786,2.6497e-07,0,0.96,0
0.0010272,-0.0010865,0.022195,0.0059083,0.0084311,-0.006279,0,0,0.05368,-0.0098387,0,-0.048976,0,0,0,0.024335,0.0037687,0.0084311,-18.817,0.012178,0.018677,2.6561e-07,0.02,0.96,0
0.0021472,-0.0022287,0.022174,0.0028631,0.0075113,-0.0049732,0,0,0.057187,-0.018128,0,-0.038791,0,0,0,0.02338,0.0016576,0.0075113,-13.626,0.01085,0.019467,2.666e-07,0.04,0.96,0
0.0033147,-0.0032689,0.021863,0.001805,0.0071005,-0.0035903,0,0,0.057575,-0.020653,0,-0.028005,0,0,0,0.022487,0.0011817,0.0071005,-9.8484,0.010256,0.019048,2.4285e-07,0.06,0.96,0
0.0044502,-0.0041616,0.020895,0.0011527,0.0066142,-0.0025295,0,0,0.055694,-0.0213,0,-0.01973,0,0,0,0.021214,0.00083374,0.0066142,-7.1866,0.0095538,0.018192,2.0723e-07,0.08,0.96,0
0.0055424,-0.0049303,0.019973,0.00077801,0.0062253,-0.0018103,0,0,0.053616,-0.021245,0,-0.014121,0,0,0,0.020142,0.00060876,0.0062253,-5.341,0.0089922,0.017418,1.7933e-07,0.1,0.96,0
0.0065949,-0.0055934,0.019212,0.00054915,0.0059283,-0.0013064,0,0,0.051806,-0.020979,0,-0.01019,0,0,0,0.019303,0.00045814,0.0059283,-3.9849,0.0085631,0.016792,1.5902e-07,0.12,0.96,0
0.0076147,-0.0061666,0.018617,0.00040389,0.0057061,-0.00094266,0,0,0.05035,-0.020679,0,-0.0073528,0,0,0,0.018665,0.00035523,0.0057061,-2.955,0.0082422,0.016307,1.4455e-07,0.14,0.96,0
0.0086089,-0.0066617,0.018162,0.00030755,0.005541,-0.00067044,0,0,0.049224,-0.02041,0,-0.0052294,0,0,0,0.018187,0.00028241,0.005541,-2.1474,0.0080036,0.01594,1.3426e-07,0.16,0.96,0
0.0095836,-0.0070883,0.017823,0.00024106,0.0054193,-0.00046041,0,0,0.048376,-0.020195,0,-0.0035912,0,0,0,0.017835,0.00022901,0.0054193,-1.499,0.0078279,0.01567,1.27e-07,0.18,0.96,0
0.010544,-0.007454,0.017577,0.00019339,0.0053313,-0.00029411,0,0,0.04776,-0.020038,0,-0.0022941,0,0,0,0.017583,0.00018842,0.0053313,-0.96898,0.0077007,0.015477,1.2196e-07,0.2,0.96,0
0.011494,-0.0077652,0.017408,0.00015798,0.0052697,-0.0001597,0,0,0.047338,-0.019936,0,-0.0012457,0,0,0,0.017409,0.0001565,0.0052697,-0.5304,0.0076118,0.015349,1.1861e-07,0.22,0.96,0
0.012437,-0.0080275,0.0173,0.0001307,0.0052294,-4.9375e-05,0,0,0.047077,-0.019885,0,-0.00038512,0,0,0,0.017301,0.00013055,0.0052294,-0.16476,0.0075535,0.015273,1.166e-07,0.24,0.96,0
0.013377,-0.0082458,0.017245,0.00010887,0.0052062,4.2096e-05,0,0,0.046952,-0.01988,0,0.00032835,0,0,0,0.017245,0.00010877,0.0052062,0.14075,0.0075201,0.015241,1.1564e-07,0.26,0.96,0
0.014316,-0.0084247,0.017233,9.0713e-05,0.0051971,0.00011824,0,0,0.04694,-0.019915,0,0.00092225,0,0,0,0.017234,8.9897e-05,0.0051971,0.39516,0.007507,0.015246,1.1554e-07,0.28,0.96,0
0.015255,-0.0085685,0.017257,7.4997e-05,0.0051996,0.00018142,0,0,0.047024,-0.019986,0,0.0014151,0,0,0,0.017259,7.3081e-05,0.0051996,0.60488,0.0075105,0.015282,1.1617e-07,0.3,0.96,0
0.016196,-0.0086811,0.017311,6.0864e-05,0.0052114,0.00023322,0,0,0.047187,-0.020087,0,0.0018191,0,0,0,0.017314,5.7711e-05,0.0052114,0.77446,0.0075276,0.015343,1.174e-07,0.32,0.96,0
0.017142,-0.0087663,0.017389,4.7723e-05,0.0052309,0.00027466,0,0,0.047415,-0.020214,0,0.0021424,0,0,0,0.017393,4.3374e-05,0.0052309,0.90721,0.0075557,0.015425,1.1913e-07,0.34,0.96,0
0.018093,-0.0088281,0.017486,3.5182e-05,0.0052564,0.00030639,0,0,0.047696,-0.020363,0,0.0023898,0,0,0,0.017491,2.9804e-05,0.0052564,1.0055,0.0075925,0.015523,1.2126e-07,0.36,0.96,0
0.01905,-0.0088699,0.017598,2.3004e-05,0.0052864,0.00032881,0,0,0.048016,-0.020527,0,0.0025647,0,0,0,0.017604,1.6854e-05,0.0052864,1.0714,0.0076359,0.015634,1.2373e-07,0.38,0.96,0
0.020014,-0.0088953,0.017721,1.1083e-05,0.0053196,0.00034219,0,0,0.048365,-0.020703,0,0.0026691,0,0,0,0.017728,4.4739e-06,0.0053196,1.1065,0.0076839,0.015753,1.2644e-07,0.4,0.96,0
0.020985,-0.0089078,0.01785,-5.7547e-07,0.0053549,0.00034676,0,0,0.048731,-0.020886,0,0.0027047,0,0,0,0.017857,-7.3088e-06,0.0053549,1.1124,0.0077348,0.015877,1.2932e-07,0.42,0.96,0
0.021963,-0.0089107,0.017982,-1.1876e-05,0.0053909,0.00034276,0,0,0.049103,-0.021071,0,0.0026735,0,0,0,0.017988,-1.8404e-05,0.0053909,1.0909,0.0077868,0.016003,1.3227e-07,0.44,0.96,0
0.022949,-0.0089071,0.018111,-2.2651e-05,0.0054266,0.00033056,0,0,0.049471,-0.021252,0,0.0025784,0,0,0,0.018118,-2.8675e-05,0.0054266,1.044,0.0078385,0.016126,1.3523e-07,0.46,0.96,0
0.023942,-0.0089002,0.018236,-3.2678e-05,0.0054611,0.00031064,0,0,0.049824,-0.021426,0,0.002423,0,0,0,0.018242,-3.7958e-05,0.0054611,0.97386,0.0078883,0.016244,1.3811e-07,0.48,0.96,0
0.024942,-0.0088925,0.018353,-4.1706e-05,0.0054934,0.00028366,0,0,0.050153,-0.021587,0,0.0022125,0,0,0,0.018357,-4.6079e-05,0.0054934,0.88325,0.007935,0.016353,1.4082e-07,0.5,0.96,0
0.025948,-0.0088866,0.018459,-4.9476e-05,0.0055228,0.00025046,0,0,0.05045,-0.021732,0,0.0019536,0,0,0,0.018462,-5.2865e-05,0.0055228,0.77514,0.0079773,0.016452,1.4329e-07,0.52,0.96,0
0.02696,-0.0088847,0.018551,-5.5747e-05,0.0055485,0.00021205,0,0,0.050709,-0.021857,0,0.001654,0,0,0,0.018553,-5.8163e-05,0.0055485,0.65287,0.0080145,0.016537,1.4546e-07,0.54,0.96,0
0.027976,-0.0088886,0.018627,-6.0316e-05,0.00557,0.00016963,0,0,0.050922,-0.021958,0,0.0013231,0,0,0,0.018628,-6.1855e-05,0.00557,0.52004,0.0080455,0.016607,1.4727e-07,0.56,0.96,0
0.028997,-0.0088998,0.018686,-6.3037e-05,0.0055869,0.0001245,0,0,0.051086,-0.022035,0,0.00097108,0,0,0,0.018687,-6.3864e-05,0.0055869,0.38043,0.0080699,0.01666,1.4867e-07,0.58,0.96,0
0.03002,-0.0089192,0.018727,-6.3838e-05,0.0055989,7.8038e-05,0,0,0.051199,-0.022085,0,0.0006087,0,0,0,0.018727,-6.4162e-05,0.0055989,0.23794,0.0080873,0.016696,1.4964e-07,0.6,0.96,0
0.031045,-0.0089475,0.018749,-6.2725e-05,0.005606,3.1662e-05,0,0,0.051259,-0.022108,0,0.00024696,0,0,0,0.018749,-6.2778e-05,0.005606,0.096433,0.0080975,0.016715,1.5016e-07,0.62,0.96,0
0.03207,-0.008985,0.018753,-5.9785e-05,0.0056081,-1.3257e-05,0,0,0.051267,-0.022105,0,-0.00010341,0,0,0,0.018753,-5.9795e-05,0.0056081,-0.040376,0.0081005,0.016716,1.5023e-07,0.64,0.96,0
0.033095,-0.0090314,0.01874,-5.5184e-05,0.0056054,-5.5439e-05,0,0,0.051225,-0.022076,0,-0.00043243,0,0,0,0.01874,-5.5348e-05,0.0056054,-0.169,0.0080967,0.016701,1.4988e-07,0.66,0.96,0
0.034119,-0.0090862,0.01871,-4.9151e-05,0.0055983,-9.3747e-05,0,0,0.051137,-0.022025,0,-0.00073122,0,0,0,0.018711,-4.962e-05,0.0055983,-0.28631,0.0080865,0.01667,1.4913e-07,0.68,0.96,0
0.035141,-0.0091485,0.018666,-4.1967e-05,0.0055872,-0.00012723,0,0,0.051007,-0.021954,0,-0.00099238,0,0,0,0.018667,-4.2832e-05,0.0055872,-0.38963,0.0080704,0.016626,1.4802e-07,0.7,0.96,0
0.036159,-0.0092173,0.018609,-3.3942e-05,0.0055726,-0.00015515,0,0,0.050843,-0.021866,0,-0.0012102,0,0,0,0.018611,-3.5234e-05,0.0055726,-0.47678,0.0080493,0.01657,1.4663e-07,0.72,0.96,0
0.037174,-0.0092911,0.018542,-2.54e-05,0.0055551,-0.00017701,0,0,0.050651,-0.021764,0,-0.0013807,0,0,0,0.018544,-2.7087e-05,0.0055551,-0.54614,0.0080241,0.016504,1.4499e-07,0.74,0.96,0
0.038185,-0.0093684,0.018468,-1.6653e-05,0.0055354,-0.00019253,0,0,0.050437,-0.021653,0,-0.0015018,0,0,0,0.01847,-1.8658e-05,0.0055354,-0.5967,0.0079955,0.016431,1.4319e-07,0.76,0.96,0
0.039192,-0.0094476,0.018388,-7.99e-06,0.005514,-0.00020167,0,0,0.050209,-0.021536,0,-0.001573,0,0,0,0.01839,-1.0201e-05,0.005514,-0.62801,0.0079647,0.016354,1.4128e-07,0.78,0.96,0
0.040194,-0.009527,0.018306,3.3729e-07,0.0054918,-0.00020457,0,0,0.049974,-0.021417,0,-0.0015957,0,0,0,0.018308,-1.9486e-06,0.0054918,-0.6402,0.0079327,0.016274,1.3932e-07,0.8,0.96,0
0.041191,-0.0096049,0.018223,8.1255e-06,0.0054694,-0.00020155,0,0,0.04974,-0.021299,0,-0.0015721,0,0,0,0.018226,5.8957e-06,0.0054694,-0.63386,0.0079003,0.016195,1.3739e-07,0.82,0.96,0
0.042183,-0.0096795,0.018143,1.5221e-05,0.0054475,-0.00019305,0,0,0.049513,-0.021186,0,-0.0015058,0,0,0,0.018145,1.3165e-05,0.0054475,-0.61006,0.0078686,0.016117,1.3552e-07,0.84,0.96,0
0.043171,-0.0097494,0.018067,2.1519e-05,0.0054266,-0.00017961,0,0,0.049299,-0.02108,0,-0.001401,0,0,0,0.018069,1.9731e-05,0.0054266,-0.57021,0.0078385,0.016044,1.3377e-07,0.86,0.96,0
0.044155,-0.0098131,0.017998,2.6958e-05,0.0054074,-0.00016185,0,0,0.049102,-0.020984,0,-0.0012625,0,0,0,0.017999,2.5501e-05,0.0054074,-0.51597,0.0078107,0.015978,1.3217e-07,0.88,0.96,0
0.045136,-0.0098693,0.017936,3.1516e-05,0.0053903,-0.0001404,0,0,0.048928,-0.020899,0,-0.0010951,0,0,0,0.017937,3.0415e-05,0.0053903,-0.44924,0.0077859,0.015918,1.3077e-07,0.9,0.96,0
0.046112,-0.0099169,0.017884,3.5195e-05,0.0053757,-0.0001159,0,0,0.048781,-0.020828,0,-0.00090399,0,0,0,0.017884,3.4442e-05,0.0053757,-0.37202,0.0077648,0.015869,1.2959e-07,0.92,0.96,0
0.047087,-0.0099548,0.017842,3.8014e-05,0.0053639,-8.899e-05,0,0,0.048663,-0.020771,0,-0.00069412,0,0,0,0.017842,3.7569e-05,0.0053639,-0.28638,0.0077479,0.015828,1.2865e-07,0.94,0.96,0
0.048059,-0.0099825,0.017811,4e-05,0.0053554,-6.0303e-05,0,0,0.048578,-0.02073,0,-0.00047037,0,0,0,0.017811,3.9796e-05,0.0053554,-0.19442,0.0077355,0.015799,1.2797e-07,0.96,0.96,0
0.04903,-0.0099993,0.017793,4.118e-05,0.0053501,-3.0443e-05,0,0,0.048526,-0.020705,0,-0.00023746,0,0,0,0.017793,4.1128e-05,0.0053501,-0.09826,0.007728,0.015782,1.2755e-07,0.98,0.96,0
0.05,-0.010005,0.017786,4.1571e-05,0.0053484,-3.6162e-05,0,0,0.048508,-0.020697,0,-0.00028206,0,0,0,0.017787,4.1497e-05,0.0053484,-0.11676,0.0077255,0.015776,1.2742e-07,1,0.96,0
0,0,0.027027,0.011583,0.011583,-0.0085894,0,0,0.060232,0,0,-0.066997,0,0,0,0.030856,0.007755,0.011583,-24.022,0.016731,0.021444,4.5255e-07,0,0.98,0
0.0012047,-0.0013399,0.024635,0.0024239,0.0081178,-0.0053859,0,0,0.064419,-0.022206,0,-0.04201,0,0,0,0.025872,0.0011868,0.0081178,-12.936,0.011726,0.022053,3.7296e-07,0.02,0.98,0
0.0025767,-0.0026658,0.024802,0.0019038,0.0080118,-0.0034889,0,0,0.065483,-0.023821,0,-0.027213,0,0,0,0.025322,0.001384,0.0080118,-8.4737,0.011573,0.021408,3.4586e-07,0.04,0.98,0
0.003824,-0.0037206,0.022333,0.0010102,0.0070029,-0.0020666,0,0,0.059787,-0.023372,0,-0.016119,0,0,0,0.022531,0.00081173,0.0070029,-5.4851,0.010115,0.01938,2.4928e-07,0.06,0.98,0
0.0049682,-0.0046088,0.020534,0.00059316,0.0063381,-0.0013529,0,0,0.055364,-0.022405,0,-0.010553,0,0,0,0.020625,0.00050179,0.0063381,-3.8637,0.0091551,0.017932,1.9386e-07,0.08,0.98,0
0.0060385,-0.0053653,0.019284,0.00037389,0.0058975,-0.00092013,0,0,0.052209,-0.021542,0,-0.007177,0,0,0,0.019329,0.00032922,0.0058975,-2.7791,0.0085186,0.016917,1.6089e-07,0.1,0.98,0
0.0070566,-0.006017,0.018414,0.00025331,0.0056002,-0.000643,0,0,0.049974,-0.020853,0,-0.0050154,0,0,0,0.018437,0.00023058,0.0056002,-2.0252,0.0080892,0.016203,1.4034e-07,0.12,0.98,0
0.0080375,-0.0065806,0.0178,0.00018151,0.0053944,-0.00045128,0,0,0.048381,-0.02033,0,-0.0035199,0,0,0,0.017811,0.00016996,0.0053944,-1.4663,0.0077919,0.015695,1.2695e-07,0.14,0.98,0
0.0089918,-0.0070683,0.017366,0.00013597,0.0052505,-0.00031166,0,0,0.047249,-0.019946,0,-0.0024309,0,0,0,0.017371,0.00013033,0.0052505,-1.0359,0.007584,0.015336,1.1803e-07,0.16,0.98,0
0.0099274,-0.0074894,0.017064,0.00010546,0.0051509,-0.00020563,0,0,0.046461,-0.019677,0,-0.0016039,0,0,0,0.017066,0.00010297,0.0051509,-0.69459,0.0074401,0.015087,1.1211e-07,0.18,0.98,0
0.01085,-0.0078513,0.016864,8.4047e-05,0.0050843,-0.00012248,0,0,0.04594,-0.019501,0,-0.00095536,0,0,0,0.016865,8.3153e-05,0.0050843,-0.4182,0.007344,0.014923,1.0831e-07,0.2,0.98,0
0.011765,-0.0081601,0.016743,6.837e-05,0.0050434,-5.5661e-05,0,0,0.045629,-0.019403,0,-0.00043415,0,0,0,0.016743,6.8184e-05,0.0050434,-0.19125,0.007285,0.014827,1.0609e-07,0.22,0.98,0
0.012675,-0.0084213,0.016686,5.6413e-05,0.0050228,-9.8588e-07,0,0,0.045488,-0.019369,0,-7.6899e-06,0,0,0,0.016686,5.6413e-05,0.0050228,-0.0033967,0.0072552,0.014786,1.0509e-07,0.24,0.98,0
0.013584,-0.0086396,0.016682,4.6908e-05,0.0050187,4.4264e-05,0,0,0.045487,-0.01939,0,0.00034526,0,0,0,0.016682,4.679e-05,0.0050187,0.15246,0.0072492,0.01479,1.0507e-07,0.26,0.98,0
0.014495,-0.0088193,0.016721,3.9025e-05,0.0050279,8.1884e-05,0,0,0.045602,-0.019457,0,0.00063869,0,0,0,0.016721,3.8623e-05,0.0050279,0.28123,0.0072626,0.014831,1.0587e-07,0.28,0.98,0
0.015409,-0.0089647,0.016795,3.2203e-05,0.0050482,0.00011306,0,0,0.045813,-0.019562,0,0.00088184,0,0,0,0.016796,3.144e-05,0.0050482,0.3864,0.0072918,0.014903,1.0734e-07,0.3,0.98,0
0.016327,-0.0090795,0.016899,2.6054e-05,0.0050774,0.00013854,0,0,0.046103,-0.0197,0,0.0010806,0,0,0,0.0169,2.4917e-05,0.0050774,0.47042,0.007334,0.015001,1.094e-07,0.32,0.98,0
0.017253,-0.0091676,0.017026,2.0316e-05,0.0051138,0.00015883,0,0,0.046457,-0.019865,0,0.0012389,0,0,0,0.017027,1.8833e-05,0.0051138,0.53507,0.0073867,0.015119,1.1194e-07,0.34,0.98,0
0.018186,-0.0092326,0.017171,1.4815e-05,0.0051559,0.00017419,0,0,0.046861,-0.02005,0,0.0013587,0,0,0,0.017173,1.3047e-05,0.0051559,0.58165,0.0074474,0.015253,1.1488e-07,0.36,0.98,0
0.019127,-0.0092779,0.017331,9.4492e-06,0.005202,0.0001848,0,0,0.047302,-0.020251,0,0.0014415,0,0,0,0.017333,7.4777e-06,0.005202,0.61121,0.007514,0.0154,1.1815e-07,0.38,0.98,0
0.020078,-0.0093071,0.017499,4.1745e-06,0.0052509,0.00019076,0,0,0.047767,-0.020462,0,0.001488,0,0,0,0.017501,2.0946e-06,0.0052509,0.62467,0.0075846,0.015553,1.2167e-07,0.4,0.98,0
0.021038,-0.0093235,0.017671,-1.0029e-06,0.0053011,0.00019216,0,0,0.048244,-0.020678,0,0.0014988,0,0,0,0.017673,-3.0921e-06,0.0053011,0.6229,0.0076571,0.015711,1.2534e-07,0.42,0.98,0
0.022007,-0.0093302,0.017844,-6.036e-06,0.0053514,0.00018909,0,0,0.048721,-0.020894,0,0.0014749,0,0,0,0.017846,-8.0389e-06,0.0053514,0.60687,0.0077298,0.015868,1.2908e-07,0.44,0.98,0
0.022987,-0.0093305,0.018013,-1.0845e-05,0.0054005,0.00018173,0,0,0.049187,-0.021104,0,0.0014175,0,0,0,0.018014,-1.2677e-05,0.0054005,0.57764,0.0078007,0.016022,1.3281e-07,0.46,0.98,0
0.023975,-0.0093272,0.018173,-1.5327e-05,0.0054473,0.00017031,0,0,0.04963,-0.021304,0,0.0013284,0,0,0,0.018174,-1.6922e-05,0.0054473,0.53645,0.0078683,0.016167,1.3642e-07,0.48,0.98,0
0.024972,-0.0093229,0.018322,-1.9366e-05,0.0054907,0.00015518,0,0,0.050041,-0.021489,0,0.0012104,0,0,0,0.018323,-2.0679e-05,0.0054907,0.48472,0.007931,0.016302,1.3982e-07,0.5,0.98,0
0.025977,-0.0093201,0.018455,-2.2842e-05,0.0055298,0.00013677,0,0,0.05041,-0.021655,0,0.0010668,0,0,0,0.018456,-2.3854e-05,0.0055298,0.42404,0.0079874,0.016424,1.4292e-07,0.52,0.98,0
0.026988,-0.0093208,0.018571,-2.5643e-05,0.0055637,0.00011561,0,0,0.05073,-0.021798,0,0.00090178,0,0,0,0.018572,-2.6362e-05,0.0055637,0.35618,0.0080365,0.016528,1.4564e-07,0.54,0.98,0
0.028006,-0.0093269,0.018667,-2.7677e-05,0.0055918,9.2352e-05,0,0,0.050993,-0.021916,0,0.00072035,0,0,0,0.018668,-2.8133e-05,0.0055918,0.28303,0.0080771,0.016615,1.4791e-07,0.56,0.98,0
0.029028,-0.0093397,0.018741,-2.8876e-05,0.0056137,6.7681e-05,0,0,0.051197,-0.022006,0,0.00052791,0,0,0,0.018741,-2.912e-05,0.0056137,0.2066,0.0081086,0.016681,1.4968e-07,0.58,0.98,0
0.030054,-0.0093602,0.018792,-2.9205e-05,0.0056289,4.2343e-05,0,0,0.051337,-0.022067,0,0.00033027,0,0,0,0.018792,-2.9301e-05,0.0056289,0.1289,0.0081307,0.016726,1.5091e-07,0.6,0.98,0
0.031082,-0.0093891,0.018821,-2.8668e-05,0.0056376,1.7094e-05,0,0,0.051414,-0.022098,0,0.00013333,0,0,0,0.018821,-2.8684e-05,0.0056376,0.051959,0.0081432,0.016751,1.5158e-07,0.62,0.98,0
0.03211,-0.0094265,0.018826,-2.7304e-05,0.0056396,-7.3275e-06,0,0,0.051427,-0.022101,0,-5.7155e-05,0,0,0,0.018826,-2.7307e-05,0.0056396,-0.022268,0.0081461,0.016755,1.517e-07,0.64,0.98,0
0.033139,-0.0094724,0.01881,-2.5187e-05,0.0056354,-3.0232e-05,0,0,0.051381,-0.022076,0,-0.00023581,0,0,0,0.01881,-2.5235e-05,0.0056354,-0.091964,0.00814,0.016739,1.513e-07,0.66,0.98,0
0.034165,-0.0095263,0.018774,-2.2421e-05,0.0056254,-5.1008e-05,0,0,0.051278,-0.022026,0,-0.00039786,0,0,0,0.018774,-2.2559e-05,0.0056254,-0.15548,0.0081256,0.016705,1.5041e-07,0.68,0.98,0
0.03519,-0.0095873,0.01872,-1.9134e-05,0.0056101,-6.9146e-05,0,0,0.051127,-0.021954,0,-0.00053934,0,0,0,0.01872,-1.9389e-05,0.0056101,-0.21142,0.0081035,0.016654,1.4909e-07,0.7,0.98,0
0.03621,-0.0096543,0.01865,-1.5467e-05,0.0055904,-8.4252e-05,0,0,0.050933,-0.021863,0,-0.00065716,0,0,0,0.018651,-1.5847e-05,0.0055904,-0.25861,0.008075,0.01659,1.4741e-07,0.72,0.98,0
0.037227,-0.0097261,0.018568,-1.1566e-05,0.005567,-9.6058e-05,0,0,0.050705,-0.021756,0,-0.00074925,0,0,0,0.018569,-1.2063e-05,0.005567,-0.29621,0.0080412,0.016514,1.4544e-07,0.74,0.98,0
0.038239,-0.0098012,0.018477,-7.5753e-06,0.0055408,-0.00010442,0,0,0.050451,-0.021639,0,-0.00081449,0,0,0,0.018477,-8.1652e-06,0.0055408,-0.32366,0.0080033,0.01643,1.4328e-07,0.76,0.98,0
0.039245,-0.0098781,0.018379,-3.6249e-06,0.0055127,-0.00010932,0,0,0.050179,-0.021514,0,-0.00085271,0,0,0,0.01838,-4.275e-06,0.0055127,-0.34072,0.0079627,0.01634,1.4099e-07,0.78,0.98,0
0.040246,-0.009955,0.018278,1.7086e-07,0.0054836,-0.00011084,0,0,0.0499,-0.021385,0,-0.00086457,0,0,0,0.018279,-5.0128e-07,0.0054836,-0.34743,0.0079207,0.016247,1.3865e-07,0.8,0.98,0
0.041241,-0.01003,0.018177,3.7193e-06,0.0054543,-0.00010916,0,0,0.04962,-0.021257,0,-0.00085142,0,0,0,0.018178,3.0637e-06,0.0054543,-0.34412,0.0078785,0.016155,1.3634e-07,0.82,0.98,0
0.042231,-0.010103,0.018079,6.9505e-06,0.0054259,-0.00010451,0,0,0.049348,-0.021134,0,-0.00081518,0,0,0,0.01808,6.3462e-06,0.0054259,-0.33132,0.0078373,0.016065,1.3411e-07,0.84,0.98,0
0.043215,-0.010171,0.017986,9.8173e-06,0.0053989,-9.7202e-05,0,0,0.049091,-0.021017,0,-0.00075818,0,0,0,0.017987,9.2917e-06,0.0053989,-0.30979,0.0077984,0.01598,1.3203e-07,0.86,0.98,0
0.044194,-0.010232,0.017901,1.2292e-05,0.0053741,-8.756e-05,0,0,0.048856,-0.020911,0,-0.00068297,0,0,0,0.017902,1.1864e-05,0.0053741,-0.28043,0.0077626,0.015902,1.3014e-07,0.88,0.98,0
0.045169,-0.010287,0.017826,1.4365e-05,0.0053521,-7.593e-05,0,0,0.048648,-0.020817,0,-0.00059225,0,0,0,0.017826,1.4041e-05,0.0053521,-0.24424,0.0077308,0.015833,1.2849e-07,0.9,0.98,0
0.04614,-0.010333,0.017762,1.6037e-05,0.0053334,-6.2664e-05,0,0,0.048471,-0.020738,0,-0.00048878,0,0,0,0.017762,1.5816e-05,0.0053334,-0.20232,0.0077038,0.015775,1.2709e-07,0.92,0.98,0
0.047108,-0.01037,0.017711,1.7318e-05,0.0053184,-4.8106e-05,0,0,0.04833,-0.020674,0,-0.00037523,0,0,0,0.017711,1.7187e-05,0.0053184,-0.15578,0.0076821,0.015728,1.2598e-07,0.94,0.98,0
0.048073,-0.010396,0.017673,1.822e-05,0.0053075,-3.2594e-05,0,0,0.048227,-0.020628,0,-0.00025423,0,0,0,0.017673,1.8159e-05,0.0053075,-0.10578,0.0076663,0.015694,1.2518e-07,0.96,0.98,0
0.049037,-0.010413,0.017651,1.8755e-05,0.0053008,-1.6453e-05,0,0,0.048164,-0.0206,0,-0.00012833,0,0,0,0.017651,1.874e-05,0.0053008,-0.053465,0.0076567,0.015673,1.2469e-07,0.98,0.98,0
0.05,-0.010418,0.017643,1.8933e-05,0.0052986,-3.5046e-05,0,0,0.048143,-0.020591,0,-0.00027336,0,0,0,0.017643,1.8863e-05,0.0052986,-0.11393,0.0076535,0.015666,1.2453e-07,1,0.98,0
0,0,0.045156,0.019353,0.019353,-0.012659,0,0,0.10063,-6.9389e-18,0,-0.098738,0,0,0,0.050329,0.014179,0.019353,-22.228,0.027954,0.033861,1.838e-06,0,1,0
0.0020127,-0.0019747,0.032478,0.0022927,0.010431,-0.0050175,0,0,0.085983,-0.03174,0,-0.039137,0,0,0,0.03329,0.0014805,0.010431,-9.1946,0.015067,0.028412,7.9589e-07,0.02,1,0
0.0034393,-0.0031815,0.024211,0.00093142,0.0075427,-0.0016148,0,0,0.065006,-0.025784,0,-0.012596,0,0,0,0.024323,0.00081994,0.0075427,-3.9492,0.010895,0.020966,3.1445e-07,0.04,1,0
0.0046129,-0.0042037,0.02041,-0.00010147,0.0060927,-0.00095645,0,0,0.055839,-0.024157,0,-0.0074603,0,0,0,0.020455,-0.00014597,0.0060927,-2.6639,0.0088005,0.018297,1.9576e-07,0.06,1,0
0.0056729,-0.0050579,0.018686,-0.00021582,0.0055411,-0.00057359,0,0,0.051265,-0.022452,0,-0.004474,0,0,0,0.018704,-0.00023321,0.0055411,-1.7365,0.0080038,0.01681,1.5049e-07,0.08,1,0
0.0066635,-0.005792,0.017622,-0.00026174,0.0052082,-0.00038327,0,0,0.048416,-0.021333,0,-0.0029895,0,0,0,0.017631,-0.00026995,0.0052082,-1.2271,0.007523,0.015886,1.2642e-07,0.1,1,0
0.0076095,-0.0064275,0.016937,-0.00026023,0.0050029,-0.00026255,0,0,0.046542,-0.020526,0,-0.0020479,0,0,0,0.016941,-0.00026424,0.0050029,-0.87447,0.0072265,0.015269,1.1218e-07,0.12,1,0
0.0085252,-0.0069798,0.016477,-0.0002491,0.0048685,-0.00018137,0,0,0.045275,-0.019959,0,-0.0014146,0,0,0,0.016479,-0.00025107,0.0048685,-0.62116,0.0070323,0.014848,1.0323e-07,0.14,1,0
0.0094205,-0.0074596,0.016175,-0.00023387,0.0047823,-0.00012268,0,0,0.044431,-0.019563,0,-0.00095687,0,0,0,0.016176,-0.00023479,0.0047823,-0.42833,0.0069077,0.014565,9.7554e-08,0.16,1,0
0.010302,-0.0078754,0.015987,-0.00021767,0.0047307,-7.8334e-05,0,0,0.043898,-0.019298,0,-0.000611,0,0,0,0.015987,-0.00021805,0.0047307,-0.27697,0.0068332,0.014384,9.4095e-08,0.18,1,0
0.011176,-0.008234,0.015886,-0.00020144,0.0047055,-4.3624e-05,0,0,0.043605,-0.019137,0,-0.00034027,0,0,0,0.015887,-0.00020155,0.0047055,-0.15536,0.0067968,0.014281,9.2241e-08,0.2,1,0
0.012047,-0.0085413,0.015856,-0.00018552,0.0047011,-1.5737e-05,0,0,0.043504,-0.019058,0,-0.00012275,0,0,0,0.015856,-0.00018554,0.0047011,-0.056207,0.0067905,0.014242,9.1618e-08,0.22,1,0
0.012917,-0.0088022,0.015882,-0.00017003,0.0047137,7.0953e-06,0,0,0.043558,-0.019047,0,5.5343e-05,0,0,0,0.015882,-0.00017004,0.0047137,0.025325,0.0068087,0.014252,9.1981e-08,0.24,1,0
0.013789,-0.0090214,0.015956,-0.00015496,0.0047402,2.6011e-05,0,0,0.043741,-0.019091,0,0.00020288,0,0,0,0.015956,-0.000155,0.0047402,0.092503,0.006847,0.014306,9.3167e-08,0.26,1,0
0.014666,-0.009203,0.016068,-0.00014027,0.0047784,4.1752e-05,0,0,0.044031,-0.019183,0,0.00032567,0,0,0,0.016068,-0.00014038,0.0047784,0.14759,0.0069022,0.014394,9.5057e-08,0.28,1,0
0.01555,-0.009351,0.016214,-0.00012592,0.0048263,5.4802e-05,0,0,0.04441,-0.019314,0,0.00042745,0,0,0,0.016214,-0.00012611,0.0048263,0.19216,0.0069713,0.014512,9.7562e-08,0.3,1,0
0.016443,-0.0094691,0.016386,-0.0001119,0.0048822,6.5465e-05,0,0,0.044864,-0.019477,0,0.00051063,0,0,0,0.016386,-0.00011216,0.0048822,0.22735,0.007052,0.014654,1.0061e-07,0.32,1,0
0.017345,-0.0095609,0.01658,-9.8211e-05,0.0049444,7.3928e-05,0,0,0.045377,-0.019666,0,0.00057664,0,0,0,0.01658,-9.8538e-05,0.0049444,0.25397,0.0071419,0.014815,1.0412e-07,0.34,1,0
0.018258,-0.0096301,0.01679,-8.4865e-05,0.0050116,8.0295e-05,0,0,0.045936,-0.019876,0,0.0006263,0,0,0,0.01679,-8.5247e-05,0.0050116,0.27262,0.0072389,0.014992,1.0804e-07,0.36,1,0
0.019182,-0.0096799,0.017012,-7.1913e-05,0.0050821,8.4622e-05,0,0,0.046528,-0.020101,0,0.00066005,0,0,0,0.017013,-7.2333e-05,0.0050821,0.28379,0.0073409,0.015179,1.1229e-07,0.38,1,0
0.020119,-0.0097138,0.017242,-5.9421e-05,0.0051547,8.6939e-05,0,0,0.047139,-0.020335,0,0.00067812,0,0,0,0.017242,-5.9858e-05,0.0051547,0.28791,0.0074456,0.015373,1.1679e-07,0.4,1,0
0.021068,-0.0097349,0.017473,-4.7473e-05,0.0052276,8.727e-05,0,0,0.047756,-0.020573,0,0.0006807,0,0,0,0.017473,-4.7907e-05,0.0052276,0.28538,0.007551,0.015569,1.2146e-07,0.42,1,0
0.022029,-0.0097464,0.017701,-3.6166e-05,0.0052995,8.5652e-05,0,0,0.048367,-0.020809,0,0.00066808,0,0,0,0.017702,-3.6579e-05,0.0052995,0.27666,0.0076549,0.015763,1.262e-07,0.44,1,0
0.023002,-0.0097513,0.017922,-2.5607e-05,0.0053689,8.2148e-05,0,0,0.048957,-0.021039,0,0.00064076,0,0,0,0.017922,-2.5983e-05,0.0053689,0.26224,0.0077551,0.01595,1.3089e-07,0.46,1,0
0.023987,-0.0097523,0.018131,-1.5906e-05,0.0054344,7.6861e-05,0,0,0.049515,-0.021256,0,0.00059951,0,0,0,0.018131,-1.6232e-05,0.0054344,0.24267,0.0078497,0.016128,1.3543e-07,0.48,1,0
0.024983,-0.0097521,0.018323,-7.172e-06,0.0054947,6.9933e-05,0,0,0.050029,-0.021457,0,0.00054548,0,0,0,0.018323,-7.4388e-06,0.0054947,0.21859,0.0079367,0.016292,1.3971e-07,0.5,1,0
0.025989,-0.0097528,0.018494,4.9752e-07,0.0055485,6.1559e-05,0,0,0.050489,-0.021637,0,0.00048016,0,0,0,0.018495,2.9262e-07,0.0055485,0.19071,0.0080145,0.016438,1.4361e-07,0.52,1,0
0.027003,-0.0097567,0.018642,7.0173e-06,0.0055948,5.1976e-05,0,0,0.050885,-0.021792,0,0.00040541,0,0,0,0.018642,6.8724e-06,0.0055948,0.1598,0.0080814,0.016564,1.4702e-07,0.54,1,0
0.028024,-0.0097653,0.018764,1.2322e-05,0.0056328,4.1464e-05,0,0,0.051211,-0.02192,0,0.00032342,0,0,0,0.018764,1.2231e-05,0.0056328,0.12669,0.0081363,0.016668,1.4987e-07,0.56,1,0
0.029051,-0.00978,0.018857,1.6371e-05,0.005662,3.0334e-05,0,0,0.05146,-0.022018,0,0.00023661,0,0,0,0.018857,1.6322e-05,0.005662,0.092248,0.0081784,0.016747,1.5207e-07,0.58,1,0
0.030082,-0.0098019,0.01892,1.9149e-05,0.0056818,1.8918e-05,0,0,0.05163,-0.022084,0,0.00014756,0,0,0,0.01892,1.913e-05,0.0056818,0.057348,0.0082071,0.016802,1.5359e-07,0.6,1,0
0.031116,-0.0098315,0.018954,2.0671e-05,0.0056924,7.5557e-06,0,0,0.051721,-0.02212,0,5.8935e-05,0,0,0,0.018954,2.0668e-05,0.0056924,0.022865,0.0082224,0.01683,1.544e-07,0.62,1,0
0.032151,-0.009869,0.018959,2.0981e-05,0.0056939,-3.4234e-06,0,0,0.051733,-0.022124,0,-2.6703e-05,0,0,0,0.018959,2.098e-05,0.0056939,-0.010358,0.0082245,0.016834,1.5451e-07,0.64,1,0
0.033185,-0.0099144,0.018936,2.0151e-05,0.0056867,-1.3711e-05,0,0,0.051671,-0.0221,0,-0.00010694,0,0,0,0.018936,2.0141e-05,0.0056867,-0.04153,0.0082141,0.016814,1.5395e-07,0.66,1,0
0.034218,-0.0099672,0.018887,1.8279e-05,0.0056716,-2.3033e-05,0,0,0.05154,-0.022048,0,-0.00017966,0,0,0,0.018887,1.8251e-05,0.0056716,-0.06994,0.0081923,0.016772,1.5279e-07,0.68,1,0
0.035247,-0.010027,0.018816,1.5487e-05,0.0056494,-3.1162e-05,0,0,0.051349,-0.021972,0,-0.00024306,0,0,0,0.018816,1.5436e-05,0.0056494,-0.094968,0.0081602,0.016712,1.5109e-07,0.7,1,0
0.036272,-0.010092,0.018725,1.1914e-05,0.0056211,-3.7922e-05,0,0,0.051106,-0.021876,0,-0.00029579,0,0,0,0.018725,1.1837e-05,0.0056211,-0.11611,0.0081194,0.016634,1.4895e-07,0.72,1,0
0.037291,-0.010161,0.018619,7.7104e-06,0.0055881,-4.3196e-05,0,0,0.050821,-0.021763,0,-0.00033693,0,0,0,0.018619,7.6101e-06,0.0055881,-0.13298,0.0080716,0.016543,1.4647e-07,0.74,1,0
0.038305,-0.010234,0.018502,3.0379e-06,0.0055514,-4.6922e-05,0,0,0.050506,-0.021639,0,-0.00036599,0,0,0,0.018502,2.9189e-06,0.0055514,-0.14533,0.0080187,0.016442,1.4375e-07,0.76,1,0
0.039312,-0.010308,0.018377,-1.9413e-06,0.0055124,-4.9091e-05,0,0,0.05017,-0.021506,0,-0.00038291,0,0,0,0.018377,-2.0725e-06,0.0055124,-0.15304,0.0079623,0.016335,1.409e-07,0.78,1,0
0.040312,-0.010382,0.018248,-7.0669e-06,0.0054723,-4.9744e-05,0,0,0.049825,-0.021369,0,-0.000388,0,0,0,0.018248,-7.2024e-06,0.0054723,-0.15613,0.0079044,0.016225,1.38e-07,0.8,1,0
0.041305,-0.010455,0.01812,-1.2185e-05,0.0054322,-4.896e-05,0,0,0.049481,-0.021233,0,-0.00038189,0,0,0,0.01812,-1.2317e-05,0.0054322,-0.15471,0.0078466,0.016115,1.3515e-07,0.82,1,0
0.042291,-0.010525,0.017995,-1.7152e-05,0.0053935,-4.6853e-05,0,0,0.049147,-0.021101,0,-0.00036545,0,0,0,0.017995,-1.7274e-05,0.0053935,-0.14903,0.0077905,0.016008,1.3243e-07,0.84,1,0
0.043271,-0.01059,0.017878,-2.1838e-05,0.0053569,-4.3557e-05,0,0,0.048833,-0.020977,0,-0.00033974,0,0,0,0.017878,-2.1944e-05,0.0053569,-0.13942,0.0077377,0.015908,1.2989e-07,0.86,1,0
0.044244,-0.010649,0.017771,-2.6127e-05,0.0053234,-3.922e-05,0,0,0.048545,-0.020863,0,-0.00030592,0,0,0,0.017771,-2.6213e-05,0.0053234,-0.12626,0.0076894,0.015816,1.2761e-07,0.88,1,0
0.045212,-0.010702,0.017676,-2.9919e-05,0.0052939,-3.3999e-05,0,0,0.048291,-0.020763,0,-0.00026519,0,0,0,0.017676,-2.9985e-05,0.0052939,-0.11002,0.0076467,0.015735,1.256e-07,0.9,1,0
0.046176,-0.010746,0.017596,-3.3132e-05,0.0052688,-2.805e-05,0,0,0.048075,-0.020678,0,-0.00021879,0,0,0,0.017596,-3.3177e-05,0.0052688,-0.091165,0.0076105,0.015666,1.2392e-07,0.92,1,0
0.047135,-0.010782,0.017532,-3.5699e-05,0.0052488,-2.1528e-05,0,0,0.047904,-0.02061,0,-0.00016792,0,0,0,0.017532,-3.5725e-05,0.0052488,-0.070214,0.0075816,0.015611,1.2259e-07,0.94,1,0
0.048092,-0.010808,0.017485,-3.7567e-05,0.0052343,-1.4584e-05,0,0,0.047778,-0.02056,0,-0.00011375,0,0,0,0.017485,-3.758e-05,0.0052343,-0.047687,0.0075606,0.015571,1.2163e-07,0.96,1,0
0.049046,-0.010823,0.017457,-3.8703e-05,0.0052254,-7.361e-06,0,0,0.047702,-0.02053,0,-5.7416e-05,0,0,0,0.017457,-3.8706e-05,0.0052254,-0.024106,0.0075478,0.015547,1.2105e-07,0.98,1,0
0.05,-0.010829,0.017447,-3.9084e-05,0.0052225,-3.3753e-05,0,0,0.047677,-0.02052,0,-0.00026327,0,0,0,0.017447,-3.9149e-05,0.0052225,-0.11059,0.0075435,0.015539,1.2086e-07,1,1,0
