"Displacements:0","Displacements:1","Stress/Strain:0","Stress/Strain:1","Stress/Strain:2","Stress/Strain:3","Stress/Strain:4","Stress/Strain:5","Stress/Strain:6","Stress/Strain:7","Stress/Strain:8","Stress/Strain:9","Stress/Strain:10","Stress/Strain:11","Stress/Strain:12","Principal Stress:0","Principal Stress:1","Principal Stress:2","Principal Stress:3","Principal Stress:4","Principal Stress:5","Principal Stress:6","nodes:0","nodes:1","nodes:2"
0,0,0.038314,0.01642,0.01642,0.010852,0,0,0.11385,-3.4694e-18,0,0.11286,0,0,0,0.042781,0.011952,0.01642,22.376,0.023718,0.028855,1.1349e-06,0,0,0
0.0022769,0.0022573,0.027474,0.0019931,0.0088401,0.0043194,0,0,0.096896,-0.035605,0,0.044922,0,0,0,0.028186,0.0012808,0.0088401,9.3642,0.012769,0.024035,4.825e-07,0.02,0,0
0.0038758,0.0036581,0.020256,0.00081279,0.0063206,0.0014319,0,0,0.072463,-0.028641,0,0.014892,0,0,0,0.020361,0.0007079,0.0063206,4.1896,0.0091297,0.017534,1.8423e-07,0.04,0,0
0.0051754,0.0048525,0.016856,-8.4823e-05,0.0050314,0.00086899,0,0,0.061489,-0.026604,0,0.0090375,0,0,0,0.016901,-0.00012928,0.0050314,2.9287,0.0072676,0.015125,1.1048e-07,0.06,0,0
0.0063354,0.005855,0.015241,-0.00019511,0.0045137,0.00054209,0,0,0.05578,-0.024486,0,0.0056378,0,0,0,0.01526,-0.00021413,0.0045137,2.0089,0.0065197,0.013734,8.1861e-08,0.08,0,0
0.0074067,0.006718,0.014193,-0.00024343,0.0041849,0.00038144,0,0,0.052043,-0.023027,0,0.003967,0,0,0,0.014203,-0.0002535,0.0041849,1.5125,0.0060449,0.012827,6.6266e-08,0.1,0,0
0.0084171,0.0074644,0.013464,-0.00024959,0.0039643,0.00028198,0,0,0.049398,-0.021912,0,0.0029326,0,0,0,0.01347,-0.00025539,0.0039643,1.1775,0.0057262,0.012177,5.6586e-08,0.12,0,0
0.0093826,0.0081102,0.012918,-0.00024684,0.0038015,0.00021743,0,0,0.047409,-0.021051,0,0.0022612,0,0,0,0.012922,-0.00025043,0.0038015,0.9459,0.0054911,0.011686,4.9982e-08,0.14,0,0
0.010313,0.0086663,0.012494,-0.00024045,0.0036761,0.00017253,0,0,0.045854,-0.020366,0,0.0017943,0,0,0,0.012497,-0.00024279,0.0036761,0.77605,0.0053099,0.011301,4.5205e-08,0.16,0,0
0.011217,0.0091406,0.012154,-0.00023334,0.0035762,0.00013961,0,0,0.044605,-0.01981,0,0.0014519,0,0,0,0.012156,-0.00023491,0.0035762,0.64561,0.0051657,0.010992,4.1603e-08,0.18,0,0
0.012098,0.0095386,0.011877,-0.00022627,0.0034953,0.00011389,0,0,0.043587,-0.019352,0,0.0011845,0,0,0,0.011879,-0.00022734,0.0034953,0.53907,0.0050488,0.01074,3.8814e-08,0.2,0,0
0.01296,0.0098646,0.011652,-0.00021938,0.0034298,9.2227e-05,0,0,0.042756,-0.018976,0,0.00095916,0,0,0,0.011653,-0.0002201,0.0034298,0.44508,0.0049542,0.010533,3.6635e-08,0.22,0,0
0.013808,0.010121,0.011473,-0.00021237,0.0033782,7.2342e-05,0,0,0.042093,-0.018671,0,0.00075235,0,0,0,0.011473,-0.00021282,0.0033782,0.35469,0.0048796,0.010368,3.4957e-08,0.24,0,0
0.014644,0.010311,0.01134,-0.00020475,0.0033404,5.2534e-05,0,0,0.041595,-0.018435,0,0.00054635,0,0,0,0.01134,-0.00020499,0.0033404,0.26072,0.0048251,0.010243,3.3733e-08,0.26,0,0
0.015472,0.010436,0.011255,-0.00019584,0.0033177,3.1531e-05,0,0,0.041273,-0.01827,0,0.00032792,0,0,0,0.011255,-0.00019592,0.0033177,0.15777,0.0047922,0.01016,3.2959e-08,0.28,0,0
0.016295,0.010497,0.011225,-0.0001849,0.003312,8.4571e-06,0,0,0.041147,-0.018184,0,8.7953e-05,0,0,0,0.011225,-0.0001849,0.003312,0.042468,0.004784,0.010125,3.2664e-08,0.3,0,0
0.017118,0.010496,0.011257,-0.00017116,0.0033258,-1.7143e-05,0,0,0.041243,-0.018184,0,-0.00017829,0,0,0,0.011257,-0.00017119,0.0033258,-0.085948,0.0048039,0.010143,3.2905e-08,0.32,0,0
0.017945,0.010436,0.01136,-0.00015389,0.0033618,-4.5244e-05,0,0,0.04159,-0.018282,0,-0.00047054,0,0,0,0.01136,-0.00015406,0.0033618,-0.22514,0.004856,0.01022,3.3759e-08,0.34,0,0
0.018781,0.010321,0.011541,-0.00013247,0.0034225,-7.5268e-05,0,0,0.042215,-0.018485,0,-0.00078279,0,0,0,0.011541,-0.00013295,0.0034225,-0.36942,0.0049435,0.010364,3.5323e-08,0.36,0,0
0.019633,0.010155,0.011804,-0.00010655,0.0035092,-0.00010602,0,0,0.043132,-0.018802,0,-0.0011026,0,0,0,0.011805,-0.00010749,0.0035092,-0.50997,0.0050689,0.010578,3.7706e-08,0.38,0,0
0.020507,0.0099459,0.01215,-7.6183e-05,0.0036223,-0.00013565,0,0,0.044346,-0.019232,0,-0.0014108,0,0,0,0.012152,-7.7688e-05,0.0036223,-0.63559,0.0052322,0.010863,4.1014e-08,0.4,0,0
0.021407,0.009703,0.012575,-4.197e-05,0.0037598,-0.00016169,0,0,0.045837,-0.019769,0,-0.0016816,0,0,0,0.012577,-4.4042e-05,0.0037598,-0.73414,0.0054308,0.011214,4.5328e-08,0.42,0,0
0.02234,0.0094379,0.013063,-5.0549e-06,0.0039173,-0.00018123,0,0,0.047556,-0.020396,0,-0.0018848,0,0,0,0.013065,-7.5678e-06,0.0039173,-0.79441,0.0056583,0.011619,5.066e-08,0.44,0,0
0.023309,0.0091643,0.013593,3.3063e-05,0.0040877,-0.00019136,0,0,0.049426,-0.021084,0,-0.0019902,0,0,0,0.013595,3.0362e-05,0.0040877,-0.80839,0.0059045,0.01206,5.6909e-08,0.46,0,0
0.024317,0.0088978,0.014135,7.0847e-05,0.0042618,-0.00018993,0,0,0.051341,-0.021793,0,-0.0019752,0,0,0,0.014138,6.8283e-05,0.0042618,-0.77355,0.0061559,0.012511,6.3813e-08,0.48,0,0
0.025363,0.0086542,0.014656,0.00010694,0.0044289,-0.00017621,0,0,0.053181,-0.022474,0,-0.0018326,0,0,0,0.014658,0.00010481,0.0044289,-0.69381,0.0063973,0.012945,7.0945e-08,0.5,0,0
0.026444,0.0084493,0.015122,0.00014003,0.0045787,-0.00015138,0,0,0.054827,-0.023081,0,-0.0015743,0,0,0,0.015124,0.0001385,0.0045787,-0.57883,0.0066137,0.013332,7.7752e-08,0.52,0,0
0.027556,0.0082966,0.015506,0.00016846,0.0047023,-0.00011804,0,0,0.056178,-0.023576,0,-0.0012276,0,0,0,0.015507,0.00016755,0.0047023,-0.44092,0.0067922,0.013649,8.3655e-08,0.54,0,0
0.028691,0.0082073,0.015786,0.00019012,0.0047929,-7.9299e-05,0,0,0.057165,-0.023934,0,-0.00082471,0,0,0,0.015787,0.00018972,0.0047929,-0.29131,0.0069231,0.01388,8.8147e-08,0.56,0,0
0.029843,0.008189,0.015951,0.00020288,0.0048462,-3.7757e-05,0,0,0.057746,-0.024146,0,-0.00039268,0,0,0,0.015951,0.00020279,0.0048462,-0.13737,0.0070001,0.014016,9.0867e-08,0.58,0,0
0.031001,0.008246,0.015995,0.00020536,0.0048602,4.8578e-06,0,0,0.057903,-0.024205,0,5.0521e-05,0,0,0,0.015995,0.00020536,0.0048602,0.017627,0.0070204,0.014053,9.161e-08,0.6,0,0
0.032159,0.0083791,0.015918,0.00019753,0.0048345,4.7235e-05,0,0,0.057632,-0.024112,0,0.00049124,0,0,0,0.015918,0.00019739,0.0048345,0.17216,0.0069832,0.013991,9.0325e-08,0.62,0,0
0.033307,0.0085859,0.015721,0.00018072,0.0047707,8.764e-05,0,0,0.056944,-0.023868,0,0.00091146,0,0,0,0.015722,0.00018023,0.0047707,0.3231,0.0068909,0.01383,8.7124e-08,0.64,0,0
0.034437,0.0088602,0.015417,0.00015702,0.0046722,0.00012347,0,0,0.055873,-0.023479,0,0.0012841,0,0,0,0.015418,0.00015602,0.0046722,0.46355,0.0067488,0.013579,8.2291e-08,0.66,0,0
0.035541,0.0091928,0.015023,0.0001285,0.0045454,0.00015159,0,0,0.054482,-0.022968,0,0.0015766,0,0,0,0.015024,0.00012696,0.0045454,0.58308,0.0065655,0.013253,7.6285e-08,0.68,0,0
0.036616,0.0095715,0.014564,9.6792e-05,0.0043984,0.00016934,0,0,0.052864,-0.022368,0,0.0017611,0,0,0,0.014566,9.481e-05,0.0043984,0.6705,0.0063532,0.012871,6.9671e-08,0.7,0,0
0.037656,0.0099824,0.014074,6.3201e-05,0.0042412,0.00017549,0,0,0.051131,-0.021726,0,0.0018251,0,0,0,0.014076,6.1004e-05,0.0042412,0.71749,0.0061262,0.012463,6.3021e-08,0.72,0,0
0.038661,0.010411,0.013584,2.9088e-05,0.0040839,0.00017067,0,0,0.0494,-0.021085,0,0.0017749,0,0,0,0.013586,2.694e-05,0.0040839,0.72126,0.0058989,0.012054,5.6806e-08,0.74,0,0
0.039632,0.010842,0.013122,-3.9969e-06,0.0039354,0.00015695,0,0,0.04777,-0.020485,0,0.0016323,0,0,0,0.013124,-5.8735e-06,0.0039354,0.68499,0.0056844,0.011669,5.1337e-08,0.76,0,0
0.040572,0.011265,0.012709,-3.4527e-05,0.0038024,0.00013718,0,0,0.046316,-0.019952,0,0.0014267,0,0,0,0.012711,-3.6004e-05,0.0038024,0.61666,0.0054924,0.011326,4.6761e-08,0.78,0,0
0.041485,0.011668,0.012359,-6.132e-05,0.0036893,0.00011422,0,0,0.045082,-0.019503,0,0.0011879,0,0,0,0.01236,-6.237e-05,0.0036893,0.52685,0.0053289,0.011036,4.3095e-08,0.8,0,0
0.042375,0.012043,0.012075,-8.3735e-05,0.0035975,9.0574e-05,0,0,0.044085,-0.019142,0,0.00094197,0,0,0,0.012076,-8.4409e-05,0.0035975,0.42677,0.0051964,0.010801,4.0275e-08,0.82,0,0
0.043248,0.012385,0.011857,-0.00010166,0.0035267,6.8181e-05,0,0,0.043319,-0.018867,0,0.00070908,0,0,0,0.011858,-0.00010205,0.0035267,0.32664,0.0050941,0.010621,3.8195e-08,0.84,0,0
0.044108,0.012689,0.011699,-0.00011537,0.003475,4.8396e-05,0,0,0.042764,-0.01867,0,0.00050332,0,0,0,0.011699,-0.00011557,0.003475,0.2347,0.0050195,0.010491,3.6731e-08,0.86,0,0
0.044959,0.012952,0.011591,-0.0001254,0.0034396,3.2026e-05,0,0,0.042387,-0.018538,0,0.00033307,0,0,0,0.011591,-0.00012548,0.0034396,0.15662,0.0049684,0.010403,3.5758e-08,0.88,0,0
0.045803,0.013175,0.011523,-0.00013237,0.0034172,1.9397e-05,0,0,0.042151,-0.018458,0,0.00020172,0,0,0,0.011523,-0.0001324,0.0034172,0.095349,0.004936,0.010348,3.5157e-08,0.9,0,0
0.046645,0.013356,0.011485,-0.00013696,0.0034044,1.0424e-05,0,0,0.042019,-0.018415,0,0.00010841,0,0,0,0.011485,-0.00013696,0.0034044,0.051393,0.0049174,0.010318,3.4824e-08,0.92,0,0
0.047484,0.013496,0.011466,-0.00013978,0.003398,4.7083e-06,0,0,0.041956,-0.018396,0,4.8967e-05,0,0,0,0.011466,-0.00013978,0.003398,0.023243,0.0049082,0.010303,3.4666e-08,0.94,0,0
0.048323,0.013595,0.01146,-0.00014138,0.0033955,1.6114e-06,0,0,0.041933,-0.018392,0,1.6759e-05,0,0,0,0.01146,-0.00014138,0.0033955,0.0079586,0.0049046,0.010299,3.4609e-08,0.96,0,0
0.049161,0.013654,0.011458,-0.00014217,0.0033948,3.3868e-07,0,0,0.041929,-0.018392,0,3.5223e-06,0,0,0,0.011458,-0.00014217,0.0033948,0.0016728,0.0049035,0.010298,3.4598e-08,0.98,0,0
0.05,0.013674,0.011458,-0.0001424,0.0033947,9.4856e-05,0,0,0.041929,-0.018393,0,0.0009865,0,0,0,0.011459,-0.00014318,0.0033947,0.46847,0.0049034,0.010299,3.4607e-08,1,0,0
0,0,0.022654,0.009709,0.009709,0.0074288,0,0,0.067316,-8.6736e-19,0,0.077259,0,0,0,0.026035,0.0063287,0.009709,24.467,0.014024,0.018252,2.7653e-07,0,0.02,0
0.0013463,0.0015452,0.02063,0.0020462,0.0068029,0.0046895,0,0,0.071901,-0.024735,0,0.048771,0,0,0,0.021746,0.00092994,0.0068029,13.39,0.0098264,0.018589,2.2231e-07,0.02,0.02,0
0.0028761,0.0030853,0.02069,0.0016193,0.0066928,0.0030856,0,0,0.072786,-0.026382,0,0.032091,0,0,0,0.021177,0.0011325,0.0066928,8.9658,0.0096674,0.017923,2.026e-07,0.04,0.02,0
0.0042577,0.0043204,0.018496,0.00086009,0.0058068,0.0018759,0,0,0.065984,-0.025723,0,0.019509,0,0,0,0.018693,0.00066277,0.0058068,6.0048,0.0083876,0.016088,1.4246e-07,0.06,0.02,0
0.0055154,0.0053653,0.01686,0.00050127,0.0052085,0.0012698,0,0,0.06059,-0.024478,0,0.013206,0,0,0,0.016958,0.00040329,0.0052085,4.4121,0.0075234,0.014752,1.0783e-07,0.08,0.02,0
0.0066813,0.0062575,0.015685,0.00031032,0.0047985,0.00090639,0,0,0.056607,-0.023338,0,0.0094265,0,0,0,0.015738,0.00025707,0.0047985,3.3624,0.0069311,0.013783,8.6911e-08,0.1,0.02,0
0.0077797,0.0070261,0.014823,0.00020439,0.0045083,0.00067878,0,0,0.053638,-0.02238,0,0.0070593,0,0,0,0.014855,0.00017294,0.0045083,2.6527,0.006512,0.013065,7.3473e-08,0.12,0.02,0
0.0088269,0.0076891,0.014171,0.00014146,0.0042937,0.00052609,0,0,0.051361,-0.021591,0,0.0054714,0,0,0,0.01419,0.00012176,0.0042937,2.1446,0.006202,0.012516,6.4267e-08,0.14,0.02,0
0.0098341,0.008259,0.013662,0.00010256,0.0041293,0.00041862,0,0,0.049569,-0.020939,0,0.0043536,0,0,0,0.013675,8.9645e-05,0.0041293,1.7667,0.0059645,0.012083,5.7639e-08,0.16,0.02,0
0.01081,0.0087444,0.013256,7.8215e-05,0.0040003,0.00033907,0,0,0.04813,-0.020395,0,0.0035264,0,0,0,0.013265,6.9496e-05,0.0040003,1.473,0.0057782,0.011735,5.2685e-08,0.18,0.02,0
0.011759,0.0091516,0.012928,6.3455e-05,0.0038975,0.00027679,0,0,0.04696,-0.019937,0,0.0028786,0,0,0,0.012934,5.7502e-05,0.0038975,1.232,0.0056298,0.01145,4.8887e-08,0.2,0.02,0
0.012688,0.0094851,0.012663,5.5454e-05,0.0038156,0.00022455,0,0,0.046007,-0.019553,0,0.0023353,0,0,0,0.012667,5.1456e-05,0.0038156,1.02,0.0055114,0.011218,4.5939e-08,0.22,0.02,0
0.0136,0.009748,0.012451,5.2473e-05,0.0037511,0.00017717,0,0,0.045241,-0.019233,0,0.0018426,0,0,0,0.012454,4.9942e-05,0.0037511,0.81848,0.0054183,0.011029,4.3659e-08,0.24,0.02,0
0.014498,0.0099425,0.012288,5.3288e-05,0.0037025,0.00013079,0,0,0.044646,-0.018976,0,0.0013602,0,0,0,0.01229,5.1891e-05,0.0037025,0.61238,0.0053481,0.010882,4.1947e-08,0.26,0.02,0
0.015385,0.01007,0.012173,5.6873e-05,0.003669,8.2535e-05,0,0,0.044222,-0.018783,0,0.00085836,0,0,0,0.012174,5.6311e-05,0.003669,0.39027,0.0052997,0.010775,4.0752e-08,0.28,0.02,0
0.016266,0.010133,0.012107,6.2201e-05,0.0036507,3.044e-05,0,0,0.043972,-0.01866,0,0.00031658,0,0,0,0.012107,6.2124e-05,0.0036507,0.1448,0.0052733,0.010711,4.0064e-08,0.3,0.02,0
0.017144,0.010132,0.012092,6.8137e-05,0.0036481,-2.6513e-05,0,0,0.043909,-0.018616,0,-0.00027573,0,0,0,0.012092,6.8079e-05,0.0036481,-0.12634,0.0052694,0.010693,3.9895e-08,0.32,0.02,0
0.018023,0.01007,0.012132,7.3392e-05,0.0036615,-8.8283e-05,0,0,0.044045,-0.018658,0,-0.00091815,0,0,0,0.012132,7.2746e-05,0.0036615,-0.41945,0.0052889,0.010725,4.0278e-08,0.34,0.02,0
0.018906,0.0099509,0.012228,7.6533e-05,0.0036914,-0.00015364,0,0,0.044391,-0.018797,0,-0.0015979,0,0,0,0.01223,7.4591e-05,0.0036914,-0.72428,0.005332,0.010811,4.1253e-08,0.36,0.02,0
0.019799,0.0097788,0.012382,7.6019e-05,0.0037374,-0.00022006,0,0,0.044951,-0.019039,0,-0.0022886,0,0,0,0.012386,7.2085e-05,0.0037374,-1.0241,0.0053984,0.010951,4.2863e-08,0.38,0.02,0
0.020704,0.0095612,0.012591,7.0286e-05,0.0037984,-0.00028365,0,0,0.045722,-0.019386,0,-0.00295,0,0,0,0.012598,6.3863e-05,0.0037984,-1.2971,0.0054866,0.011146,4.5137e-08,0.4,0.02,0
0.021627,0.0093076,0.01285,5.7945e-05,0.0038725,-0.00033929,0,0,0.046685,-0.019836,0,-0.0035286,0,0,0,0.012859,4.8952e-05,0.0038725,-1.5182,0.0055936,0.01139,4.8075e-08,0.42,0.02,0
0.022572,0.00903,0.013149,3.8258e-05,0.0039562,-0.00038092,0,0,0.047803,-0.020373,0,-0.0039615,0,0,0,0.01316,2.72e-05,0.0039562,-1.6628,0.0057145,0.011675,5.1627e-08,0.44,0.02,0
0.02354,0.0087426,0.013473,1.1874e-05,0.0040455,-0.00040251,0,0,0.049023,-0.020975,0,-0.0041861,0,0,0,0.013485,-1.5066e-07,0.0040455,-1.7112,0.0058435,0.011986,5.5669e-08,0.46,0.02,0
0.024533,0.0084619,0.013804,-1.8485e-05,0.0041356,-0.00039951,0,0,0.050274,-0.021601,0,-0.0041549,0,0,0,0.013815,-3.0022e-05,0.0041356,-1.6542,0.0059736,0.012303,5.9998e-08,0.48,0.02,0
0.025551,0.0082048,0.014121,-4.8255e-05,0.0042218,-0.00037051,0,0,0.051475,-0.022204,0,-0.0038534,0,0,0,0.014131,-5.7938e-05,0.0042218,-1.4969,0.0060982,0.012606,6.4332e-08,0.5,0.02,0
0.026592,0.0079877,0.014405,-7.2637e-05,0.0042998,-0.00031807,0,0,0.052548,-0.022736,0,-0.003308,0,0,0,0.014412,-7.9622e-05,0.0042998,-1.2579,0.0062108,0.012873,6.8358e-08,0.52,0.02,0
0.027652,0.0078251,0.01464,-8.8891e-05,0.0043654,-0.00024795,0,0,0.053429,-0.023162,0,-0.0025787,0,0,0,0.014644,-9.3064e-05,0.0043654,-0.96416,0.0063056,0.013091,7.1778e-08,0.54,0.02,0
0.028729,0.0077286,0.014814,-9.7524e-05,0.0044149,-0.00016687,0,0,0.054074,-0.023465,0,-0.0017355,0,0,0,0.014816,-9.9391e-05,0.0044149,-0.64109,0.0063771,0.013248,7.4354e-08,0.56,0.02,0
0.029815,0.0077061,0.014918,-0.00010121,0.0044452,-8.0276e-05,0,0,0.054461,-0.023641,0,-0.00083487,0,0,0,0.014919,-0.00010164,0.0044452,-0.30622,0.0064208,0.013341,7.5929e-08,0.58,0.02,0
0.030907,0.0077618,0.014951,-0.00010231,0.0044545,8.4754e-06,0,0,0.05458,-0.023695,0,8.8144e-05,0,0,0,0.014951,-0.00010231,0.0044545,0.03226,0.0064342,0.01337,7.6413e-08,0.6,0.02,0
0.031999,0.0078969,0.014909,-0.0001008,0.0044424,9.6978e-05,0,0,0.054425,-0.023625,0,0.0010086,0,0,0,0.014909,-0.00010142,0.0044424,0.37017,0.0064168,0.013333,7.5782e-08,0.62,0.02,0
0.033084,0.0081085,0.014795,-9.434e-05,0.0044103,0.00018187,0,0,0.054003,-0.023424,0,0.0018914,0,0,0,0.014798,-9.6561e-05,0.0044103,0.69969,0.0063705,0.01323,7.4069e-08,0.64,0.02,0
0.034159,0.0083906,0.014616,-8.0224e-05,0.0043608,0.00025768,0,0,0.053328,-0.023093,0,0.0026799,0,0,0,0.014621,-8.4741e-05,0.0043608,1.0042,0.0062989,0.013063,7.1388e-08,0.66,0.02,0
0.035217,0.0087335,0.014381,-5.7892e-05,0.004297,0.00031765,0,0,0.052438,-0.022645,0,0.0033035,0,0,0,0.014388,-6.4877e-05,0.004297,1.2596,0.0062068,0.01284,6.7944e-08,0.68,0.02,0
0.036256,0.0091242,0.014105,-3.0029e-05,0.0042226,0.00035589,0,0,0.05139,-0.022114,0,0.0037013,0,0,0,0.014114,-3.8984e-05,0.0042226,1.4414,0.0060993,0.012576,6.4018e-08,0.7,0.02,0
0.037273,0.0095479,0.013806,-1.3885e-06,0.0041415,0.00036972,0,0,0.050257,-0.021543,0,0.0038451,0,0,0,0.013816,-1.1281e-05,0.0041415,1.5327,0.0059821,0.012289,5.9923e-08,0.72,0.02,0
0.038267,0.009989,0.013503,2.3489e-05,0.0040579,0.00036037,0,0,0.049114,-0.020979,0,0.0037479,0,0,0,0.013513,1.3861e-05,0.0040579,1.5303,0.0058614,0.011999,5.5947e-08,0.74,0.02,0
0.039238,0.010433,0.013212,4.1867e-05,0.0039762,0.00033222,0,0,0.048026,-0.020458,0,0.003455,0,0,0,0.01322,3.3492e-05,0.0039762,1.4441,0.0057434,0.011724,5.2312e-08,0.76,0.02,0
0.040188,0.010866,0.012947,5.3026e-05,0.0039001,0.00029115,0,0,0.047045,-0.020005,0,0.003028,0,0,0,0.012954,4.6455e-05,0.0039001,1.2929,0.0056334,0.011477,4.9154e-08,0.78,0.02,0
0.041119,0.011278,0.012717,5.7577e-05,0.0038324,0.00024316,0,0,0.046201,-0.019629,0,0.0025289,0,0,0,0.012722,5.2908e-05,0.0038324,1.1,0.0055357,0.011265,4.6532e-08,0.8,0.02,0
0.042036,0.011661,0.012526,5.6743e-05,0.003775,0.00019347,0,0,0.045508,-0.019335,0,0.0020121,0,0,0,0.01253,5.3742e-05,0.003775,0.88865,0.0054527,0.011093,4.4447e-08,0.82,0.02,0
0.04294,0.012007,0.012376,5.19e-05,0.0037283,0.00014617,0,0,0.044966,-0.019117,0,0.0015202,0,0,0,0.012377,5.0166e-05,0.0037283,0.67947,0.0053853,0.010961,4.2858e-08,0.84,0.02,0
0.043834,0.012315,0.012262,4.4403e-05,0.003692,0.0001042,0,0,0.044565,-0.018967,0,0.0010837,0,0,0,0.012263,4.3515e-05,0.003692,0.48862,0.0053328,0.010865,4.1704e-08,0.86,0.02,0
0.044722,0.012581,0.012181,3.5507e-05,0.0036651,6.9331e-05,0,0,0.044285,-0.018874,0,0.00072104,0,0,0,0.012182,3.5111e-05,0.0036651,0.32704,0.005294,0.010799,4.091e-08,0.88,0.02,0
0.045606,0.012805,0.012127,2.6312e-05,0.0036461,4.2311e-05,0,0,0.044103,-0.018823,0,0.00044004,0,0,0,0.012128,2.6164e-05,0.0036461,0.20033,0.0052666,0.010758,4.0399e-08,0.9,0.02,0
0.046486,0.012987,0.012094,1.7722e-05,0.0036336,2.3021e-05,0,0,0.043995,-0.018802,0,0.00023942,0,0,0,0.012094,1.7678e-05,0.0036336,0.10922,0.0052485,0.010736,4.0096e-08,0.92,0.02,0
0.047365,0.013128,0.012075,1.0429e-05,0.0036258,1.0641e-05,0,0,0.043938,-0.0188,0,0.00011066,0,0,0,0.012075,1.042e-05,0.0036258,0.050532,0.0052372,0.010725,3.9936e-08,0.94,0.02,0
0.048244,0.013227,0.012066,4.9175e-06,0.0036213,3.8356e-06,0,0,0.043913,-0.018805,0,3.989e-05,0,0,0,0.012066,4.9163e-06,0.0036213,0.018221,0.0052308,0.010721,3.9862e-08,0.96,0.02,0
0.049122,0.013286,0.012062,1.4986e-06,0.0036191,9.207e-07,0,0,0.043904,-0.018812,0,9.5753e-06,0,0,0,0.012062,1.4986e-06,0.0036191,0.0043739,0.0052276,0.01072,3.9835e-08,0.98,0.02,0
0.05,0.013306,0.012061,3.4128e-07,0.0036185,9.4787e-05,0,0,0.043902,-0.018814,0,0.00098579,0,0,0,0.012062,-4.0361e-07,0.0036185,0.45026,0.0052267,0.010721,3.9839e-08,1,0.02,0
0,0,0.019224,0.0082389,0.0082389,0.0060956,0,0,0.057123,2.6021e-18,0,0.063394,0,0,0,0.021937,0.0055263,0.0082389,23.989,0.011901,0.015236,1.6242e-07,0,0.04,0
0.0011425,0.0012679,0.018518,0.0050005,0.0070556,0.0055187,0,0,0.059605,-0.010686,0,0.057395,0,0,0,0.020485,0.0030336,0.0070556,19.616,0.010191,0.015828,1.602e-07,0.02,0.04,0
0.0023842,0.0026028,0.018441,0.0024313,0.0062617,0.0044226,0,0,0.063333,-0.019918,0,0.045995,0,0,0,0.019582,0.0012909,0.0062617,14.46,0.0090447,0.016381,1.5765e-07,0.04,0.04,0
0.0036758,0.0038236,0.018117,0.0015302,0.0058942,0.0032565,0,0,0.063559,-0.022693,0,0.033867,0,0,0,0.018734,0.00091381,0.0058942,10.719,0.0085139,0.015925,1.4108e-07,0.06,0.04,0
0.0049266,0.0048759,0.017222,0.00096816,0.0054571,0.0023643,0,0,0.061179,-0.023343,0,0.024588,0,0,0,0.017559,0.00063125,0.0054571,8.1102,0.0078825,0.015105,1.18e-07,0.08,0.04,0
0.0061229,0.0057845,0.016355,0.00064162,0.005099,0.0017663,0,0,0.058531,-0.023178,0,0.018369,0,0,0,0.016551,0.00044553,0.005099,6.335,0.0073652,0.014356,9.9878e-08,0.1,0.04,0
0.0072678,0.0065692,0.015613,0.0004409,0.004816,0.0013554,0,0,0.056142,-0.022751,0,0.014097,0,0,0,0.015733,0.00032076,0.004816,5.0654,0.0069565,0.013728,8.643e-08,0.12,0.04,0
0.0083686,0.0072465,0.015001,0.00031407,0.0045945,0.0010667,0,0,0.054113,-0.022258,0,0.011094,0,0,0,0.015078,0.000237,0.0045945,4.1325,0.0066365,0.013213,7.6485e-08,0.14,0.04,0
0.0094324,0.0078287,0.014499,0.00023215,0.0044194,0.00085674,0,0,0.052415,-0.021774,0,0.0089101,0,0,0,0.01455,0.00018088,0.0044194,3.4243,0.0063835,0.012788,6.8987e-08,0.16,0.04,0
0.010465,0.0083248,0.014086,0.00017918,0.0042796,0.00069822,0,0,0.050993,-0.021322,0,0.0072615,0,0,0,0.014121,0.00014422,0.0042796,2.867,0.0061816,0.012436,6.3213e-08,0.18,0.04,0
0.011472,0.0087411,0.013744,0.00014604,0.0041671,0.00057283,0,0,0.049801,-0.020909,0,0.0059574,0,0,0,0.013768,0.00012195,0.0041671,2.4079,0.0060191,0.01214,5.8683e-08,0.2,0.04,0
0.012457,0.0090825,0.013461,0.00012722,0.0040766,0.00046776,0,0,0.048801,-0.020537,0,0.0048647,0,0,0,0.013478,0.00011084,0.0040766,2.0067,0.0058884,0.011891,5.5084e-08,0.22,0.04,0
0.013424,0.0093521,0.013229,0.0001192,0.0040044,0.0003736,0,0,0.047967,-0.020203,0,0.0038854,0,0,0,0.013239,0.00010857,0.0040044,1.6311,0.0057841,0.011681,5.2214e-08,0.24,0.04,0
0.014376,0.0095522,0.013041,0.00011941,0.0039481,0.00028326,0,0,0.047283,-0.019909,0,0.0029459,0,0,0,0.013047,0.00011321,0.0039481,1.2552,0.0057028,0.011506,4.9946e-08,0.26,0.04,0
0.015315,0.0096845,0.012895,0.00012566,0.0039062,0.00019145,0,0,0.046742,-0.019659,0,0.0019911,0,0,0,0.012898,0.00012279,0.0039062,0.85877,0.0056423,0.011366,4.8208e-08,0.28,0.04,0
0.016246,0.0097504,0.01279,0.00013574,0.0038778,9.4548e-05,0,0,0.046344,-0.019458,0,0.0009833,0,0,0,0.012791,0.00013503,0.0038778,0.42806,0.0056012,0.011261,4.6962e-08,0.3,0.04,0
0.017169,0.0097514,0.012726,0.0001472,0.0038619,-9.3542e-06,0,0,0.046092,-0.019317,0,-9.7284e-05,0,0,0,0.012726,0.0001472,0.0038619,-0.042608,0.0055783,0.011194,4.6198e-08,0.32,0.04,0
0.018089,0.0096898,0.012703,0.00015731,0.003858,-0.00012026,0,0,0.045993,-0.019244,0,-0.0012507,0,0,0,0.012704,0.00015615,0.003858,-0.54917,0.0055727,0.011167,4.5923e-08,0.34,0.04,0
0.019009,0.0095688,0.012721,0.00016303,0.0038653,-0.00023611,0,0,0.046051,-0.019252,0,-0.0024555,0,0,0,0.012726,0.0001586,0.0038653,-1.0767,0.0055832,0.011184,4.6151e-08,0.36,0.04,0
0.019931,0.0093933,0.012781,0.00016125,0.0038825,-0.00035264,0,0,0.04627,-0.019351,0,-0.0036674,0,0,0,0.01279,0.0001514,0.0038825,-1.5994,0.0056081,0.011248,4.6891e-08,0.38,0.04,0
0.02086,0.0091704,0.012879,0.00014882,0.0039082,-0.00046344,0,0,0.046646,-0.019549,0,-0.0048198,0,0,0,0.012895,0.00013197,0.0039082,-2.0822,0.0056452,0.011356,4.8141e-08,0.4,0.04,0
0.021797,0.0089096,0.013011,0.00012293,0.0039403,-0.00056005,0,0,0.047169,-0.01985,0,-0.0058245,0,0,0,0.013036,9.8643e-05,0.0039403,-2.4835,0.0056915,0.011508,4.9873e-08,0.42,0.04,0
0.022746,0.0086229,0.013172,8.1769e-05,0.0039761,-0.0006325,0,0,0.047818,-0.020251,0,-0.006578,0,0,0,0.013202,5.1279e-05,0.0039761,-2.7599,0.0057432,0.011694,5.2022e-08,0.44,0.04,0
0.02371,0.0083253,0.013351,2.6234e-05,0.0040131,-0.00067051,0,0,0.048556,-0.020732,0,-0.0069733,0,0,0,0.013384,-7.4216e-06,0.0040131,-2.8735,0.0057967,0.011902,5.4463e-08,0.46,0.04,0
0.024689,0.0080337,0.013535,-3.8223e-05,0.0040492,-0.0006661,0,0,0.049329,-0.021254,0,-0.0069274,0,0,0,0.013568,-7.0832e-05,0.0040492,-2.8027,0.0058488,0.012116,5.7018e-08,0.48,0.04,0
0.025683,0.0077661,0.013713,-0.00010133,0.0040833,-0.00061673,0,0,0.050071,-0.02176,0,-0.006414,0,0,0,0.01374,-0.00012881,0.0040833,-2.5513,0.0058982,0.012315,5.9471e-08,0.5,0.04,0
0.026692,0.0075398,0.013869,-0.00015174,0.0041153,-0.00052754,0,0,0.050722,-0.022189,0,-0.0054864,0,0,0,0.013889,-0.00017156,0.0041153,-2.1516,0.0059444,0.012482,6.1622e-08,0.52,0.04,0
0.027712,0.0073701,0.013997,-0.00018315,0.0041443,-0.00040973,0,0,0.051237,-0.022503,0,-0.0042612,0,0,0,0.014009,-0.00019498,0.0041443,-1.6536,0.0059862,0.012608,6.3335e-08,0.54,0.04,0
0.028741,0.0072687,0.014092,-0.00019768,0.0041682,-0.000276,0,0,0.051602,-0.022702,0,-0.0028704,0,0,0,0.014097,-0.000203,0.0041682,-1.1061,0.0060207,0.012692,6.4563e-08,0.56,0.04,0
0.029776,0.0072433,0.01415,-0.00020296,0.0041842,-0.00013544,0,0,0.051824,-0.022813,0,-0.0014086,0,0,0,0.014151,-0.00020424,0.0041842,-0.5406,0.0060438,0.012742,6.5318e-08,0.58,0.04,0
0.030814,0.0072981,0.014173,-0.0002054,0.0041903,7.8214e-06,0,0,0.051911,-0.022858,0,8.1342e-05,0,0,0,0.014173,-0.0002054,0.0041903,0.031166,0.0060527,0.012762,6.5623e-08,0.6,0.04,0
0.031852,0.0074341,0.01416,-0.00020501,0.0041864,0.00015202,0,0,0.051861,-0.022835,0,0.001581,0,0,0,0.014161,-0.00020662,0.0041864,0.60627,0.006047,0.012752,6.5462e-08,0.62,0.04,0
0.032888,0.0076489,0.014108,-0.00019538,0.0041738,0.00029304,0,0,0.051658,-0.02272,0,0.0030476,0,0,0,0.014114,-0.00020138,0.0041738,1.1732,0.0060288,0.012706,6.4789e-08,0.64,0.04,0
0.033919,0.0079365,0.014018,-0.0001688,0.0041549,0.00042177,0,0,0.051291,-0.022483,0,0.0043864,0,0,0,0.014031,-0.00018133,0.0041549,1.7013,0.0060015,0.012616,6.3565e-08,0.66,0.04,0
0.03494,0.008287,0.013894,-0.00012305,0.0041313,0.00052542,0,0,0.050767,-0.022123,0,0.0054644,0,0,0,0.013914,-0.00014272,0.0041313,2.1437,0.0059675,0.012481,6.1815e-08,0.68,0.04,0
0.035949,0.008687,0.013742,-6.4289e-05,0.0041035,0.00059261,0,0,0.050123,-0.021672,0,0.0061631,0,0,0,0.013768,-8.9678e-05,0.0041035,2.4532,0.0059272,0.012309,5.9656e-08,0.7,0.04,0
0.036945,0.0091207,0.013574,-3.7865e-06,0.0040711,0.00061796,0,0,0.049416,-0.02119,0,0.0064268,0,0,0,0.013602,-3.1853e-05,0.0040711,2.6005,0.0058805,0.012115,5.7276e-08,0.72,0.04,0
0.037926,0.0095716,0.013401,4.8243e-05,0.0040349,0.00060372,0,0,0.048706,-0.020731,0,0.0062787,0,0,0,0.013429,2.1003e-05,0.0040349,2.5834,0.0058282,0.011919,5.488e-08,0.74,0.04,0
0.038893,0.010024,0.013235,8.6316e-05,0.0039964,0.00055756,0,0,0.048041,-0.020333,0,0.0057987,0,0,0,0.013259,6.2716e-05,0.0039964,2.4238,0.0057726,0.011735,5.2642e-08,0.76,0.04,0
0.039848,0.010465,0.013084,0.00010937,0.0039579,0.00048955,0,0,0.047454,-0.020012,0,0.0050913,0,0,0,0.013102,9.0926e-05,0.0039579,2.1578,0.005717,0.011573,5.0676e-08,0.78,0.04,0
0.040791,0.010883,0.012953,0.00011893,0.0039214,0.00040959,0,0,0.046962,-0.019773,0,0.0042597,0,0,0,0.012965,0.00010587,0.0039214,1.8261,0.0056643,0.01144,4.9042e-08,0.8,0.04,0
0.041726,0.01127,0.012844,0.00011743,0.0038885,0.00032634,0,0,0.04657,-0.01961,0,0.0033939,0,0,0,0.012853,0.00010907,0.0038885,1.4679,0.0056167,0.011337,4.7755e-08,0.82,0.04,0
0.042654,0.01162,0.01276,0.00010757,0.0038601,0.00024669,0,0,0.046277,-0.019513,0,0.0025656,0,0,0,0.012764,0.00010277,0.0038601,1.1166,0.0055757,0.011263,4.68e-08,0.84,0.04,0
0.043577,0.01193,0.012697,9.2083e-05,0.0038367,0.00017572,0,0,0.046073,-0.019472,0,0.0018275,0,0,0,0.012699,8.9634e-05,0.0038367,0.79854,0.0055418,0.011216,4.6138e-08,0.86,0.04,0
0.044497,0.012197,0.012653,7.3562e-05,0.0038181,0.0001166,0,0,0.045944,-0.019472,0,0.0012126,0,0,0,0.012655,7.2482e-05,0.0038181,0.53098,0.005515,0.01119,4.5719e-08,0.88,0.04,0
0.045415,0.012422,0.012626,5.4344e-05,0.0038041,7.0743e-05,0,0,0.045874,-0.019499,0,0.00073573,0,0,0,0.012626,5.3946e-05,0.0038041,0.3224,0.0054948,0.01118,4.5486e-08,0.9,0.04,0
0.046332,0.012604,0.01261,3.6357e-05,0.003794,3.8051e-05,0,0,0.045845,-0.01954,0,0.00039573,0,0,0,0.012611,3.6242e-05,0.003794,0.17339,0.0054802,0.01118,4.5384e-08,0.92,0.04,0
0.047249,0.012744,0.012603,2.107e-05,0.0037872,1.7174e-05,0,0,0.045842,-0.019584,0,0.00017861,0,0,0,0.012603,2.1047e-05,0.0037872,0.078209,0.0054704,0.011185,4.536e-08,0.94,0.04,0
0.048166,0.012843,0.0126,9.5143e-06,0.0037829,5.8545e-06,0,0,0.045849,-0.019621,0,6.0887e-05,0,0,0,0.0126,9.5116e-06,0.0037829,0.026642,0.0054641,0.011192,4.5375e-08,0.96,0.04,0
0.049083,0.012902,0.012599,2.3448e-06,0.0037805,1.2139e-06,0,0,0.045858,-0.019647,0,1.2625e-05,0,0,0,0.012599,2.3447e-06,0.0037805,0.0055213,0.0054608,0.011197,4.5396e-08,0.98,0.04,0
0.05,0.012921,0.012599,-8.2285e-08,0.0037798,9.4354e-05,0,0,0.045862,-0.019655,0,0.00098128,0,0,0,0.0126,-7.8884e-07,0.0037798,0.42904,0.0054597,0.0112,4.5415e-08,1,0.04,0
0,0,0.017488,0.0074949,0.0074949,0.0053737,0,0,0.051965,-6.5052e-19,0,0.055886,0,0,0,0.019829,0.0051538,0.0074949,23.541,0.010826,0.013656,1.1795e-07,0,0.06,0
0.0010393,0.0011177,0.017263,0.0056626,0.0068776,0.0051309,0,0,0.054003,-0.0063182,0,0.053361,0,0,0,0.019207,0.0037189,0.0068776,20.748,0.0099343,0.014175,1.2215e-07,0.02,0.06,0
0.0021601,0.0022886,0.017407,0.0037565,0.006349,0.0046888,0,0,0.0575,-0.013481,0,0.048764,0,0,0,0.018862,0.0023011,0.006349,17.244,0.0091707,0.014954,1.3026e-07,0.04,0.06,0
0.0033393,0.0034127,0.017357,0.0023929,0.0059251,0.0038854,0,0,0.059448,-0.018367,0,0.040408,0,0,0,0.018306,0.0014442,0.0059251,13.721,0.0085584,0.015128,1.2662e-07,0.06,0.06,0
0.004538,0.0044316,0.017062,0.0016128,0.0056024,0.0030897,0,0,0.059589,-0.020746,0,0.032133,0,0,0,0.017657,0.0010178,0.0056024,10.9,0.0080923,0.014886,1.1682e-07,0.08,0.06,0
0.0057229,0.0053304,0.016573,0.0011137,0.005306,0.0024371,0,0,0.058589,-0.0218,0,0.025346,0,0,0,0.016948,0.00073855,0.005306,8.7499,0.0076642,0.014477,1.0513e-07,0.1,0.06,0
0.0068816,0.0061161,0.016054,0.00079129,0.0050537,0.0019395,0,0,0.057204,-0.022165,0,0.020171,0,0,0,0.016297,0.00054869,0.0050537,7.1297,0.0072998,0.014049,9.4596e-08,0.12,0.06,0
0.008011,0.0067988,0.015568,0.0005777,0.0048438,0.0015635,0,0,0.055767,-0.022184,0,0.016261,0,0,0,0.01573,0.00041636,0.0048438,5.8915,0.0069966,0.013649,8.5778e-08,0.14,0.06,0
0.0091123,0.007388,0.015136,0.00043477,0.0046711,0.001277,0,0,0.054416,-0.022029,0,0.013281,0,0,0,0.015246,0.00032467,0.0046711,4.9278,0.0067472,0.013292,7.8569e-08,0.16,0.06,0
0.010188,0.0078915,0.014759,0.00033964,0.0045295,0.0010537,0,0,0.053191,-0.021787,0,0.010959,0,0,0,0.014835,0.00026304,0.0045295,4.1577,0.0065426,0.012976,7.2685e-08,0.18,0.06,0
0.01124,0.0083152,0.014433,0.00027844,0.0044133,0.00087386,0,0,0.0521,-0.021501,0,0.0090881,0,0,0,0.014486,0.00022469,0.0044133,3.5195,0.0063748,0.012697,6.7847e-08,0.2,0.06,0
0.012272,0.0086636,0.014152,0.0002424,0.0043183,0.00072222,0,0,0.051135,-0.021195,0,0.0075111,0,0,0,0.014189,0.000205,0.0043183,2.9643,0.0062376,0.012448,6.3835e-08,0.22,0.06,0
0.013285,0.0089398,0.013911,0.00022566,0.004241,0.00058712,0,0,0.050285,-0.02088,0,0.006106,0,0,0,0.013936,0.00020051,0.004241,2.452,0.0061259,0.012227,6.0484e-08,0.24,0.06,0
0.014283,0.0091462,0.013706,0.0002238,0.0041789,0.00045941,0,0,0.04954,-0.020567,0,0.0047778,0,0,0,0.013721,0.00020817,0.0041789,1.9494,0.0060362,0.01203,5.768e-08,0.26,0.06,0
0.015267,0.0092841,0.013533,0.00023299,0.0041298,0.00033213,0,0,0.048897,-0.020264,0,0.0034541,0,0,0,0.013541,0.00022471,0.0041298,1.4296,0.0059653,0.011857,5.5349e-08,0.28,0.06,0
0.016239,0.0093548,0.013391,0.00024927,0.004092,0.00020038,0,0,0.048354,-0.019982,0,0.002084,0,0,0,0.013394,0.00024622,0.004092,0.87337,0.0059107,0.011709,5.3453e-08,0.3,0.06,0
0.017201,0.0093597,0.013278,0.00026822,0.0040639,6.1499e-05,0,0,0.047914,-0.019738,0,0.00063959,0,0,0,0.013279,0.00026793,0.0040639,0.27083,0.0058701,0.011589,5.1976e-08,0.32,0.06,0
0.018156,0.0093007,0.013194,0.00028484,0.0040437,-8.4704e-05,0,0,0.047583,-0.019546,0,-0.00088092,0,0,0,0.013195,0.00028428,0.0040437,-0.37592,0.005841,0.011501,5.092e-08,0.34,0.06,0
0.019104,0.0091809,0.013138,0.0002937,0.0040297,-0.00023571,0,0,0.047366,-0.019427,0,-0.0024514,0,0,0,0.013143,0.00028937,0.0040297,-1.0509,0.0058206,0.011451,5.0294e-08,0.36,0.06,0
0.02005,0.0090048,0.01311,0.00028932,0.0040198,-0.0003863,0,0,0.047269,-0.019398,0,-0.0040175,0,0,0,0.013122,0.00027769,0.0040198,-1.7243,0.0058064,0.011441,5.0099e-08,0.38,0.06,0
0.020995,0.0087793,0.013107,0.00026659,0.0040121,-0.00052874,0,0,0.047294,-0.019477,0,-0.0054989,0,0,0,0.013129,0.00024486,0.0040121,-2.354,0.0057952,0.011474,5.0324e-08,0.4,0.06,0
0.021942,0.0085136,0.013127,0.00022075,0.0040044,-0.00065315,0,0,0.047439,-0.019675,0,-0.0067927,0,0,0,0.01316,0.00018778,0.0040044,-2.8897,0.0057842,0.011547,5.0939e-08,0.42,0.06,0
0.022893,0.0082199,0.013168,0.00014839,0.0039948,-0.00074746,0,0,0.047698,-0.020001,0,-0.0077736,0,0,0,0.01321,0.00010561,0.0039948,-3.2752,0.0057702,0.011657,5.1882e-08,0.44,0.06,0
0.02385,0.0079134,0.013222,4.9495e-05,0.0039814,-0.00079862,0,0,0.04805,-0.020446,0,-0.0083057,0,0,0,0.01327,1.2516e-06,0.0039814,-3.4569,0.0057509,0.011794,5.3043e-08,0.46,0.06,0
0.024815,0.0076117,0.013282,-6.7139e-05,0.0039644,-0.00079498,0,0,0.04845,-0.020964,0,-0.0082678,0,0,0,0.013329,-0.00011432,0.0039644,-3.3962,0.0057263,0.011938,5.4247e-08,0.48,0.06,0
0.025788,0.0073343,0.013338,-0.00018176,0.0039467,-0.00073263,0,0,0.048832,-0.021468,0,-0.0076193,0,0,0,0.013377,-0.00022134,0.0039467,-3.0928,0.0057009,0.012067,5.5291e-08,0.5,0.06,0
0.026768,0.0071001,0.013382,-0.00027006,0.0039336,-0.00061959,0,0,0.049131,-0.021859,0,-0.0064437,0,0,0,0.01341,-0.00029812,0.0039336,-2.5932,0.0056818,0.012158,5.6019e-08,0.52,0.06,0
0.027753,0.006925,0.013412,-0.00031878,0.003928,-0.00047496,0,0,0.049318,-0.022083,0,-0.0049396,0,0,0,0.013429,-0.00033519,0.003928,-1.9787,0.0056738,0.012204,5.6406e-08,0.54,0.06,0
0.028741,0.0068205,0.013432,-0.00033491,0.003929,-0.0003186,0,0,0.049414,-0.022173,0,-0.0033135,0,0,0,0.013439,-0.00034228,0.003929,-1.3251,0.0056752,0.012219,5.6566e-08,0.56,0.06,0
0.02973,0.0067935,0.013447,-0.00033756,0.0039327,-0.00016193,0,0,0.049473,-0.022205,0,-0.0016841,0,0,0,0.013449,-0.00033946,0.0039327,-0.67295,0.0056806,0.012225,5.6674e-08,0.58,0.06,0
0.03072,0.0068475,0.013462,-0.00034216,0.003936,-4.9832e-06,0,0,0.049536,-0.022246,0,-5.1825e-05,0,0,0,0.013462,-0.00034216,0.003936,-0.020683,0.0056854,0.01224,5.6856e-08,0.6,0.06,0
0.031711,0.0069834,0.013478,-0.00034875,0.0039386,0.00015686,0,0,0.049602,-0.022294,0,0.0016313,0,0,0,0.013479,-0.00035053,0.0039386,0.64991,0.0056891,0.012261,5.7107e-08,0.62,0.06,0
0.032704,0.0071997,0.013486,-0.00034193,0.0039433,0.00032361,0,0,0.049624,-0.022283,0,0.0033655,0,0,0,0.013494,-0.0003495,0.0039433,1.3398,0.0056959,0.012274,5.7286e-08,0.64,0.06,0
0.033696,0.0074913,0.01348,-0.00030244,0.0039534,0.00048386,0,0,0.049541,-0.02213,0,0.0050321,0,0,0,0.013497,-0.00031941,0.0039534,2.0081,0.0057105,0.012252,5.7204e-08,0.66,0.06,0
0.034685,0.0078485,0.013455,-0.00022306,0.0039697,0.00061769,0,0,0.049325,-0.021802,0,0.006424,0,0,0,0.013483,-0.00025089,0.0039697,2.5804,0.005734,0.012185,5.6734e-08,0.68,0.06,0
0.035669,0.0082573,0.013412,-0.00011681,0.0039885,0.00070577,0,0,0.049002,-0.021348,0,0.00734,0,0,0,0.013449,-0.00015353,0.0039885,2.9782,0.0057612,0.012076,5.5887e-08,0.7,0.06,0
0.036645,0.0087003,0.013356,-7.8326e-06,0.0040045,0.00073974,0,0,0.048628,-0.020864,0,0.0076933,0,0,0,0.013397,-4.8656e-05,0.0040045,3.1587,0.0057843,0.011946,5.4796e-08,0.72,0.06,0
0.037614,0.0091598,0.013296,8.4219e-05,0.0040141,0.00072315,0,0,0.048267,-0.020435,0,0.0075207,0,0,0,0.013336,4.4755e-05,0.0040141,3.1236,0.0057982,0.011817,5.3644e-08,0.74,0.06,0
0.038576,0.0096195,0.013239,0.00015052,0.0040169,0.00066722,0,0,0.047956,-0.020105,0,0.0069391,0,0,0,0.013273,0.00011659,0.0040169,2.9107,0.0058022,0.011704,5.258e-08,0.76,0.06,0
0.039532,0.010065,0.01319,0.00019076,0.0040142,0.00058473,0,0,0.047713,-0.019882,0,0.0060812,0,0,0,0.013216,0.00016451,0.0040142,2.5704,0.0057983,0.011616,5.1695e-08,0.78,0.06,0
0.040485,0.010487,0.01315,0.00020778,0.0040074,0.00048768,0,0,0.047543,-0.019758,0,0.0050718,0,0,0,0.013169,0.00018943,0.0040074,2.1548,0.0057885,0.011553,5.1029e-08,0.8,0.06,0
0.041434,0.010876,0.013121,0.0002056,0.0039981,0.00038628,0,0,0.047441,-0.019721,0,0.0040173,0,0,0,0.013133,0.00019405,0.0039981,1.7115,0.005775,0.011518,5.0593e-08,0.82,0.06,0
0.042382,0.011227,0.013103,0.0001885,0.0039875,0.00028904,0,0,0.047401,-0.019755,0,0.0030061,0,0,0,0.01311,0.00018203,0.0039875,1.2815,0.0057597,0.011507,5.0374e-08,0.84,0.06,0
0.04333,0.011536,0.013095,0.00016117,0.0039768,0.00020243,0,0,0.047413,-0.019841,0,0.0021052,0,0,0,0.013098,0.00015801,0.0039768,0.89646,0.0057442,0.011516,5.0341e-08,0.86,0.06,0
0.044279,0.011803,0.013094,0.0001283,0.0039668,0.00013061,0,0,0.047463,-0.01996,0,0.0013583,0,0,0,0.013096,0.00012698,0.0039668,0.57705,0.0057298,0.011538,5.0448e-08,0.88,0.06,0
0.045229,0.012025,0.0131,9.4102e-05,0.0039582,7.5495e-05,0,0,0.047536,-0.020093,0,0.00078515,0,0,0,0.0131,9.3664e-05,0.0039582,0.33257,0.0057173,0.011569,5.0643e-08,0.9,0.06,0
0.04618,0.012206,0.013109,6.2089e-05,0.0039512,3.7e-05,0,0,0.047618,-0.020223,0,0.0003848,0,0,0,0.013109,6.1984e-05,0.0039512,0.16249,0.0057072,0.011602,5.0874e-08,0.92,0.06,0
0.047133,0.012344,0.013118,3.4894e-05,0.0039459,1.3423e-05,0,0,0.047695,-0.020337,0,0.0001396,0,0,0,0.013118,3.4881e-05,0.0039459,0.058784,0.0056996,0.011632,5.1099e-08,0.94,0.06,0
0.048088,0.012442,0.013126,1.435e-05,0.0039422,1.9004e-06,0,0,0.047758,-0.020425,0,1.9765e-05,0,0,0,0.013126,1.435e-05,0.0039422,0.0083044,0.0056943,0.011656,5.1284e-08,0.96,0.06,0
0.049044,0.012501,0.013132,1.6107e-06,0.0039401,-1.2067e-06,0,0,0.047798,-0.02048,0,-1.255e-05,0,0,0,0.013132,1.6106e-06,0.0039401,-0.0052657,0.0056913,0.011671,5.1404e-08,0.98,0.06,0
0.05,0.01252,0.013134,-2.7009e-06,0.0039394,9.3094e-05,0,0,0.047812,-0.020499,0,0.00096818,0,0,0,0.013135,-3.3605e-06,0.0039394,0.406,0.0056903,0.011677,5.1456e-08,1,0.06,0
0,0,0.016631,0.0071275,0.0071275,0.0048806,0,0,0.049417,1.5179e-18,0,0.050758,0,0,0,0.018691,0.0050675,0.0071275,22.883,0.010295,0.012719,9.6399e-08,0,0.08,0
0.00098834,0.0010152,0.016504,0.0058214,0.0066977,0.0047716,0,0,0.050994,-0.0045566,0,0.049624,0,0,0,0.018325,0.0040005,0.0066977,20.887,0.0096744,0.013185,1.0131e-07,0.02,0.08,0
0.0020397,0.0020636,0.016735,0.0044222,0.0063473,0.0045383,0,0,0.054018,-0.01001,0,0.047198,0,0,0,0.018227,0.0029303,0.0063473,18.198,0.0091683,0.013907,1.1053e-07,0.04,0.08,0
0.0031491,0.0030889,0.016849,0.0031834,0.0060096,0.0040459,0,0,0.056363,-0.014696,0,0.042077,0,0,0,0.017957,0.0020753,0.0060096,15.316,0.0086805,0.014325,1.1347e-07,0.06,0.08,0
0.0042943,0.0040461,0.016791,0.0022676,0.0057175,0.0034422,0,0,0.057581,-0.017939,0,0.035799,0,0,0,0.017565,0.0014931,0.0057175,12.681,0.0082587,0.014431,1.1094e-07,0.08,0.08,0
0.0054523,0.0049125,0.016581,0.0016395,0.0054663,0.0028647,0,0,0.057799,-0.019899,0,0.029793,0,0,0,0.017112,0.0011091,0.0054663,10.49,0.0078958,0.01433,1.0536e-07,0.1,0.08,0
0.0066062,0.0056826,0.016277,0.001204,0.0052443,0.0023698,0,0,0.05737,-0.02101,0,0.024646,0,0,0,0.016641,0.0008402,0.0052443,8.7277,0.0075751,0.014123,9.8673e-08,0.12,0.08,0
0.0077471,0.0063592,0.015941,0.00090164,0.0050527,0.0019656,0,0,0.056617,-0.021585,0,0.020442,0,0,0,0.016193,0.00064898,0.0050527,7.3247,0.0072983,0.013877,9.2092e-08,0.14,0.08,0
0.0088709,0.0069476,0.015607,0.00069154,0.0048896,0.00164,0,0,0.055732,-0.02183,0,0.017056,0,0,0,0.015786,0.00051334,0.0048896,6.2011,0.0070628,0.013622,8.6081e-08,0.16,0.08,0
0.0099764,0.0074533,0.015294,0.00054735,0.0047523,0.0013765,0,0,0.054815,-0.021866,0,0.014315,0,0,0,0.015421,0.00041997,0.0047523,5.2873,0.0068644,0.013372,8.0755e-08,0.18,0.08,0
0.011064,0.0078811,0.015006,0.00045185,0.0046373,0.0011589,0,0,0.053917,-0.021764,0,0.012052,0,0,0,0.015098,0.00036016,0.0046373,4.5242,0.0066984,0.013132,7.6077e-08,0.2,0.08,0
0.012133,0.0082347,0.014745,0.00039357,0.0045416,0.00097331,0,0,0.053058,-0.021569,0,0.010122,0,0,0,0.014811,0.00032786,0.0045416,3.8622,0.00656,0.012903,7.1962e-08,0.22,0.08,0
0.013186,0.0085169,0.014509,0.00036445,0.0044621,0.00080795,0,0,0.052245,-0.021308,0,0.0084026,0,0,0,0.014555,0.00031845,0.0044621,3.2586,0.0064452,0.012683,6.8322e-08,0.24,0.08,0
0.014223,0.0087295,0.014296,0.00035825,0.0043963,0.00065302,0,0,0.051479,-0.020998,0,0.0067914,0,0,0,0.014327,0.00032772,0.0043963,2.6766,0.0063503,0.012473,6.5082e-08,0.26,0.08,0
0.015245,0.008874,0.014104,0.00036929,0.004342,0.0005007,0,0,0.050763,-0.020658,0,0.0052073,0,0,0,0.014122,0.00035106,0.004342,2.085,0.0062718,0.012273,6.2192e-08,0.28,0.08,0
0.016253,0.0089511,0.013931,0.00039164,0.0042967,0.00034523,0,0,0.050097,-0.020307,0,0.0035904,0,0,0,0.01394,0.00038284,0.0042967,1.4597,0.0062064,0.012085,5.9629e-08,0.3,0.08,0
0.017249,0.0089619,0.013775,0.00041845,0.0042581,0.00018328,0,0,0.049489,-0.019966,0,0.0019061,0,0,0,0.013778,0.00041594,0.0042581,0.78599,0.0061506,0.011915,5.7394e-08,0.32,0.08,0
0.018233,0.0089079,0.013637,0.00044185,0.0042235,1.4401e-05,0,0,0.048948,-0.019665,0,0.00014977,0,0,0,0.013637,0.00044184,0.0042235,0.062532,0.0061007,0.011769,5.5503e-08,0.34,0.08,0
0.019207,0.0087917,0.013514,0.00045327,0.0041901,-0.00015862,0,0,0.048483,-0.019432,0,-0.0016496,0,0,0,0.013516,0.00045135,0.0041901,-0.6957,0.0060524,0.011654,5.3977e-08,0.36,0.08,0
0.020172,0.0086174,0.013406,0.00044441,0.0041551,-0.00032981,0,0,0.048104,-0.019295,0,-0.00343,0,0,0,0.013414,0.00043603,0.0041551,-1.4567,0.0060018,0.011576,5.2825e-08,0.38,0.08,0
0.021131,0.0083914,0.013311,0.00040793,0.0041156,-0.00049076,0,0,0.047814,-0.01928,0,-0.0051039,0,0,0,0.013329,0.00038929,0.0041156,-2.1751,0.0059447,0.011537,5.203e-08,0.4,0.08,0
0.022085,0.0081226,0.013228,0.00033855,0.0040699,-0.00063126,0,0,0.047621,-0.019403,0,-0.0065651,0,0,0,0.013258,0.0003077,0.0040699,-2.7972,0.0058787,0.011539,5.1562e-08,0.42,0.08,0
0.023036,0.0078229,0.013156,0.00023038,0.0040158,-0.0007398,0,0,0.047527,-0.019684,0,-0.007694,0,0,0,0.013198,0.00018817,0.0040158,-3.2652,0.0058006,0.01158,5.1377e-08,0.44,0.08,0
0.023986,0.0075075,0.013093,8.1188e-05,0.0039523,-0.00080124,0,0,0.047532,-0.02013,0,-0.0083329,0,0,0,0.013142,3.2035e-05,0.0039523,-3.5105,0.0057088,0.011655,5.1394e-08,0.46,0.08,0
0.024937,0.0071952,0.013034,-0.00010127,0.0038797,-0.00080037,0,0,0.0476,-0.020701,0,-0.0083238,0,0,0,0.013082,-0.00014986,0.0038797,-3.4742,0.005604,0.011747,5.1443e-08,0.48,0.08,0
0.02589,0.0069073,0.01297,-0.00028332,0.003806,-0.00072793,0,0,0.047653,-0.021264,0,-0.0075705,0,0,0,0.01301,-0.00032319,0.003806,-3.1344,0.0054976,0.011822,5.1285e-08,0.5,0.08,0
0.026843,0.0066655,0.012899,-0.00041559,0.003745,-0.00059755,0,0,0.047601,-0.021635,0,-0.0062146,0,0,0,0.012926,-0.00044235,0.003745,-2.5645,0.0054095,0.011843,5.0761e-08,0.52,0.08,0
0.027794,0.0064868,0.012826,-0.00047171,0.0037061,-0.00044064,0,0,0.047421,-0.021725,0,-0.0045827,0,0,0,0.01284,-0.00048629,0.0037061,-1.8959,0.0053533,0.011803,4.9931e-08,0.54,0.08,0
0.02874,0.0063818,0.012763,-0.00047095,0.0036876,-0.00029061,0,0,0.047192,-0.021625,0,-0.0030224,0,0,0,0.012769,-0.00047733,0.0036876,-1.2574,0.0053266,0.011732,4.9089e-08,0.56,0.08,0
0.029682,0.0063551,0.012729,-0.00045839,0.0036813,-0.00015867,0,0,0.047051,-0.021527,0,-0.0016501,0,0,0,0.012731,-0.0004603,0.0036813,-0.68921,0.0053175,0.011685,4.8595e-08,0.58,0.08,0
0.030622,0.0064083,0.012739,-0.00046581,0.003682,-3.4063e-05,0,0,0.047097,-0.021569,0,-0.00035425,0,0,0,0.012739,-0.00046589,0.003682,-0.1478,0.0053184,0.011696,4.8704e-08,0.6,0.08,0
0.031566,0.0065423,0.012791,-0.00049336,0.0036894,0.00010433,0,0,0.04733,-0.02175,0,0.001085,0,0,0,0.012792,-0.00049418,0.0036894,0.44993,0.0053291,0.011766,4.9409e-08,0.62,0.08,0
0.032515,0.0067576,0.01287,-0.00050942,0.0037083,0.00026743,0,0,0.047643,-0.021932,0,0.0027813,0,0,0,0.012876,-0.00051476,0.0037083,1.1446,0.0053564,0.011857,5.0448e-08,0.64,0.08,0
0.033471,0.0070513,0.012957,-0.00046859,0.0037466,0.00044421,0,0,0.047896,-0.021919,0,0.0046197,0,0,0,0.012972,-0.00048327,0.0037466,1.8929,0.0054118,0.011917,5.1456e-08,0.66,0.08,0
0.034431,0.0074149,0.013037,-0.0003511,0.0038057,0.00060119,0,0,0.048002,-0.021615,0,0.0062523,0,0,0,0.013064,-0.00037804,0.0038057,2.566,0.0054972,0.011914,5.2136e-08,0.68,0.08,0
0.035391,0.0078331,0.013103,-0.00018295,0.0038759,0.00070668,0,0,0.04798,-0.021106,0,0.0073495,0,0,0,0.01314,-0.00022043,0.0038759,3.0362,0.0055986,0.011856,5.2417e-08,0.7,0.08,0
0.03635,0.0082861,0.013157,-1.3287e-05,0.0039431,0.00074668,0,0,0.047912,-0.020573,0,0.0077654,0,0,0,0.013199,-5.5484e-05,0.0039431,3.2346,0.0056955,0.011776,5.2434e-08,0.72,0.08,0
0.037308,0.0087542,0.013205,0.00012441,0.0039988,0.00072996,0,0,0.047871,-0.020147,0,0.0075916,0,0,0,0.013245,8.3796e-05,0.0039988,3.1842,0.005776,0.011706,5.2392e-08,0.74,0.08,0
0.038265,0.0092199,0.013252,0.00022238,0.0040423,0.00067118,0,0,0.04789,-0.019864,0,0.0069803,0,0,0,0.013286,0.0001879,0.0040423,2.9411,0.0058389,0.011659,5.2426e-08,0.76,0.08,0
0.039223,0.0096696,0.013299,0.00028237,0.0040743,0.00058506,0,0,0.047966,-0.019718,0,0.0060847,0,0,0,0.013325,0.00025612,0.0040743,2.5685,0.0058851,0.011639,5.2579e-08,0.78,0.08,0
0.040184,0.010093,0.013345,0.00030924,0.0040962,0.000483,0,0,0.048093,-0.019692,0,0.0050232,0,0,0,0.013363,0.00029137,0.0040962,2.1191,0.0059168,0.011645,5.2874e-08,0.8,0.08,0
0.041147,0.010481,0.013391,0.00030697,0.0041093,0.00037569,0,0,0.048263,-0.019772,0,0.0039072,0,0,0,0.013401,0.00029619,0.0041093,1.6434,0.0059356,0.011675,5.3315e-08,0.82,0.08,0
0.042114,0.01083,0.013436,0.00028154,0.0041153,0.0002726,0,0,0.048468,-0.019936,0,0.0028351,0,0,0,0.013442,0.00027589,0.0041153,1.1867,0.0059443,0.011728,5.3896e-08,0.84,0.08,0
0.043086,0.011136,0.013481,0.00023995,0.0041164,0.00018139,0,0,0.048698,-0.020157,0,0.0018864,0,0,0,0.013484,0.00023747,0.0041164,0.78467,0.0059459,0.011795,5.4583e-08,0.86,0.08,0
0.044062,0.011399,0.013525,0.00018962,0.0041143,0.00010699,0,0,0.048935,-0.020408,0,0.0011127,0,0,0,0.013526,0.00018876,0.0041143,0.45967,0.0059429,0.011871,5.5321e-08,0.88,0.08,0
0.045043,0.011618,0.013565,0.00013724,0.0041107,5.1633e-05,0,0,0.049163,-0.020662,0,0.00053699,0,0,0,0.013565,0.00013705,0.0041107,0.22031,0.0059377,0.011948,5.6049e-08,0.9,0.08,0
0.046029,0.011795,0.013601,8.8294e-05,0.0041067,1.5098e-05,0,0,0.049369,-0.020896,0,0.00015702,0,0,0,0.013601,8.8278e-05,0.0041067,0.06402,0.0059319,0.012018,5.6712e-08,0.92,0.08,0
0.047018,0.01193,0.01363,4.6802e-05,0.004103,-4.6538e-06,0,0,0.049539,-0.021092,0,-4.8399e-05,0,0,0,0.01363,4.68e-05,0.004103,-0.019631,0.0059265,0.012077,5.7267e-08,0.94,0.08,0
0.04801,0.012026,0.013651,1.5513e-05,0.0041,-1.0934e-05,0,0,0.049667,-0.02124,0,-0.00011371,0,0,0,0.013651,1.5504e-05,0.0041,-0.045943,0.0059223,0.012121,5.7682e-08,0.96,0.08,0
0.049005,0.012083,0.013664,-3.8643e-06,0.0040982,-7.8576e-06,0,0,0.049745,-0.021331,0,-8.1719e-05,0,0,0,0.013664,-3.8689e-06,0.0040982,-0.032938,0.0059196,0.012148,5.7938e-08,0.98,0.08,0
0.05,0.012101,0.013669,-1.0418e-05,0.0040976,9.0738e-05,0,0,0.049771,-0.021361,0,0.00094367,0,0,0,0.01367,-1.102e-05,0.0040976,0.38003,0.0059187,0.012159,5.8035e-08,1,0.08,0
0,0,0.016165,0.006928,0.006928,0.0044974,0,0,0.048034,1.5179e-18,0,0.046773,0,0,0,0.017993,0.0051001,0.006928,22.119,0.010007,0.012083,8.3665e-08,0,0.1,0
0.00096068,0.00093546,0.016079,0.0058789,0.0065874,0.004438,0,0,0.049357,-0.0036843,0,0.046155,0,0,0,0.01774,0.0042184,0.0065874,20.514,0.0095152,0.012506,8.8434e-08,0.02,0.1,0
0.0019743,0.0018882,0.016331,0.004786,0.0063352,0.0043005,0,0,0.05198,-0.0080561,0,0.044725,0,0,0,0.017757,0.0033602,0.0063352,18.342,0.0091509,0.013164,9.7295e-08,0.04,0.1,0
0.0030399,0.0028249,0.016513,0.0037206,0.0060701,0.0039813,0,0,0.054303,-0.012217,0,0.041406,0,0,0,0.017651,0.0025827,0.0060701,15.95,0.0087679,0.013662,1.0278e-07,0.06,0.1,0
0.0041464,0.003714,0.016584,0.0028264,0.005823,0.0035476,0,0,0.055956,-0.015583,0,0.036895,0,0,0,0.017445,0.0019654,0.005823,13.641,0.008411,0.013956,1.0448e-07,0.08,0.1,0
0.0052781,0.0045344,0.016536,0.002136,0.0056016,0.0030814,0,0,0.056858,-0.018021,0,0.032046,0,0,0,0.017167,0.0015043,0.0056016,11.585,0.0080911,0.014069,1.032e-07,0.1,0.1,0
0.0064208,0.0052757,0.016394,0.0016236,0.0054052,0.0026417,0,0,0.05714,-0.019664,0,0.027474,0,0,0,0.016852,0.0011653,0.0054052,9.8414,0.0078075,0.014055,1.0006e-07,0.12,0.1,0
0.0075637,0.0059354,0.016192,0.0012482,0.005232,0.0022546,0,0,0.056991,-0.020716,0,0.023448,0,0,0,0.016525,0.00091546,0.005232,8.3955,0.0075573,0.013961,9.6026e-08,0.14,0.1,0
0.0087004,0.0065148,0.015961,0.00097663,0.0050814,0.0019249,0,0,0.056576,-0.021345,0,0.020019,0,0,0,0.016205,0.00073331,0.0050814,7.2043,0.0073398,0.01382,9.1706e-08,0.16,0.1,0
0.0098268,0.0070169,0.015722,0.00078396,0.0049519,0.0016471,0,0,0.056006,-0.021673,0,0.017129,0,0,0,0.015902,0.00060451,0.0049519,6.2178,0.0071527,0.013653,8.7423e-08,0.18,0.1,0
0.010941,0.0074446,0.015486,0.00065239,0.0048415,0.0014114,0,0,0.055351,-0.021783,0,0.014679,0,0,0,0.015619,0.00051928,0.0048415,5.3874,0.0069933,0.013469,8.3315e-08,0.2,0.1,0
0.012041,0.0078008,0.015258,0.00056923,0.004748,0.0012075,0,0,0.054649,-0.02173,0,0.012558,0,0,0,0.015356,0.00047062,0.004748,4.6685,0.0068582,0.013274,7.9421e-08,0.22,0.1,0
0.013127,0.0080876,0.015038,0.00052506,0.0046691,0.0010252,0,0,0.053921,-0.021549,0,0.010662,0,0,0,0.015111,0.00045301,0.0046691,4.0205,0.0067442,0.01307,7.5732e-08,0.24,0.1,0
0.014198,0.0083062,0.014829,0.00051225,0.0046023,0.00085517,0,0,0.053177,-0.021268,0,0.0088938,0,0,0,0.01488,0.00046135,0.0046023,3.4064,0.0066477,0.012858,7.2224e-08,0.26,0.1,0
0.015254,0.0084577,0.014627,0.0005236,0.0045451,0.0006896,0,0,0.052424,-0.020912,0,0.0071718,0,0,0,0.01466,0.00048996,0.0045451,2.7927,0.0065651,0.012641,6.8882e-08,0.28,0.1,0
0.016295,0.0085425,0.014431,0.00055126,0.0044948,0.00052218,0,0,0.051671,-0.020507,0,0.0054306,0,0,0,0.014451,0.00053164,0.0044948,2.1514,0.0064925,0.012422,6.5711e-08,0.3,0.1,0
0.01732,0.008561,0.014242,0.00058582,0.0044484,0.00034895,0,0,0.050928,-0.020086,0,0.003629,0,0,0,0.014251,0.00057691,0.0044484,1.4627,0.0064255,0.012208,6.2742e-08,0.32,0.1,0
0.018332,0.0085141,0.014058,0.00061598,0.0044023,0.0001691,0,0,0.050212,-0.019689,0,0.0017587,0,0,0,0.014061,0.00061385,0.0044023,0.72061,0.0063589,0.012009,6.0025e-08,0.34,0.1,0
0.019329,0.0084036,0.013879,0.00062918,0.0043525,-1.4222e-05,0,0,0.049538,-0.019361,0,-0.00014791,0,0,0,0.013879,0.00062916,0.0043525,-0.061501,0.0062869,0.011836,5.7614e-08,0.36,0.1,0
0.020313,0.008233,0.013702,0.00061312,0.0042947,-0.00019395,0,0,0.048921,-0.019144,0,-0.002017,0,0,0,0.013705,0.00061024,0.0042947,-0.84871,0.0062035,0.011697,5.5532e-08,0.38,0.1,0
0.021286,0.0080081,0.013526,0.00055881,0.0042254,-0.00035996,0,0,0.048362,-0.019066,0,-0.0037436,0,0,0,0.013536,0.00054883,0.0042254,-1.5889,0.0061033,0.011594,5.3755e-08,0.4,0.1,0
0.022248,0.0077375,0.013344,0.00046006,0.0041413,-0.00050233,0,0,0.047856,-0.019142,0,-0.0052242,0,0,0,0.013364,0.00044051,0.0041413,-2.2293,0.0059819,0.011527,5.2204e-08,0.42,0.1,0
0.0232,0.0074326,0.013161,0.0003176,0.0040437,-0.00061116,0,0,0.047412,-0.019376,0,-0.006356,0,0,0,0.013191,0.00028859,0.0040437,-2.7182,0.0058409,0.011494,5.0851e-08,0.44,0.1,0
0.024144,0.0071082,0.012976,0.00011812,0.0039282,-0.00067745,0,0,0.047048,-0.019813,0,-0.0070455,0,0,0,0.013012,8.253e-05,0.0039282,-3.0077,0.0056741,0.011499,4.9665e-08,0.46,0.1,0
0.025082,0.0067837,0.012788,-0.000137,0.0037953,-0.00067664,0,0,0.046762,-0.020448,0,-0.0070371,0,0,0,0.012823,-0.00017233,0.0037953,-2.9887,0.0054821,0.011535,4.8548e-08,0.48,0.1,0
0.026015,0.0064838,0.012587,-0.00040723,0.0036538,-0.00059526,0,0,0.04645,-0.021117,0,-0.0061907,0,0,0,0.012614,-0.00043445,0.0036538,-2.6175,0.0052777,0.01156,4.7183e-08,0.5,0.1,0
0.02694,0.0062347,0.012377,-0.00058701,0.003537,-0.00044358,0,0,0.045968,-0.021445,0,-0.0046133,0,0,0,0.012392,-0.00060217,0.003537,-1.9574,0.005109,0.011498,4.5338e-08,0.52,0.1,0
0.027853,0.006056,0.012178,-0.00061724,0.0034681,-0.00028731,0,0,0.04529,-0.021244,0,-0.002988,0,0,0,0.012184,-0.00062368,0.0034681,-1.2857,0.0050095,0.01133,4.3195e-08,0.54,0.1,0
0.028752,0.0059555,0.01201,-0.0005618,0.0034345,-0.00017635,0,0,0.044593,-0.020781,0,-0.0018341,0,0,0,0.012013,-0.00056427,0.0034345,-0.8035,0.0049609,0.01113,4.1236e-08,0.56,0.1,0
0.029637,0.0059325,0.011915,-0.00050991,0.0034216,-0.00012132,0,0,0.044167,-0.020444,0,-0.0012618,0,0,0,0.011916,-0.00051109,0.0034216,-0.55938,0.0049423,0.011002,4.0101e-08,0.58,0.1,0
0.030518,0.0059848,0.01192,-0.00052059,0.0034198,-8.6369e-05,0,0,0.044201,-0.02049,0,-0.00089824,0,0,0,0.011921,-0.00052119,0.0034198,-0.39775,0.0049398,0.011014,4.0176e-08,0.6,0.1,0
0.031405,0.0061134,0.012024,-0.00059434,0.003429,-2.3996e-05,0,0,0.044696,-0.020921,0,-0.00024955,0,0,0,0.012024,-0.00059439,0.003429,-0.10895,0.004953,0.011165,4.1451e-08,0.62,0.1,0
0.032306,0.0063224,0.0122,-0.0006726,0.0034581,0.00010218,0,0,0.045456,-0.02148,0,0.0010627,0,0,0,0.0122,-0.00067341,0.0034581,0.45479,0.0049951,0.011385,4.3526e-08,0.64,0.1,0
0.033224,0.0066145,0.012404,-0.0006655,0.0035216,0.00028207,0,0,0.046189,-0.021773,0,0.0029335,0,0,0,0.01241,-0.00067158,0.0035216,1.2358,0.0050867,0.01157,4.5764e-08,0.66,0.1,0
0.034154,0.0069839,0.012614,-0.00050792,0.0036319,0.00046573,0,0,0.046709,-0.021527,0,0.0048436,0,0,0,0.012631,-0.00052443,0.0036319,2.0301,0.0052461,0.011647,4.7695e-08,0.68,0.1,0
0.035092,0.007413,0.012811,-0.00025848,0.0037657,0.000587,0,0,0.047034,-0.020925,0,0.0061048,0,0,0,0.012837,-0.0002848,0.0037657,2.5666,0.0054393,0.011638,4.9138e-08,0.7,0.1,0
0.036035,0.0078774,0.012986,-2.2739e-05,0.0038891,0.00063516,0,0,0.047306,-0.020341,0,0.0066057,0,0,0,0.013017,-5.3677e-05,0.0038891,2.7886,0.0056176,0.011613,5.0294e-08,0.72,0.1,0
0.036984,0.0083539,0.013151,0.0001593,0.0039931,0.00062314,0,0,0.047621,-0.019936,0,0.0064807,0,0,0,0.013181,0.00012948,0.0039931,2.7398,0.0057678,0.011612,5.1432e-08,0.74,0.1,0
0.03794,0.0088249,0.013303,0.00028646,0.004077,0.00057472,0,0,0.047977,-0.01971,0,0.0059771,0,0,0,0.013329,0.00026113,0.004077,2.5232,0.0058889,0.011639,5.2603e-08,0.76,0.1,0
0.038903,0.0092768,0.013444,0.00037128,0.0041446,0.00049814,0,0,0.048357,-0.019621,0,0.0051807,0,0,0,0.013463,0.00035232,0.0041446,2.1791,0.0059866,0.011685,5.38e-08,0.78,0.1,0
0.039874,0.0096994,0.013569,0.00041131,0.004194,0.00040308,0,0,0.048749,-0.01967,0,0.004192,0,0,0,0.013581,0.00039897,0.004194,1.7531,0.006058,0.011754,5.5023e-08,0.8,0.1,0
0.040853,0.010085,0.013682,0.00041066,0.0042277,0.00030006,0,0,0.049161,-0.019849,0,0.0031206,0,0,0,0.013688,0.00040388,0.0042277,1.2946,0.0061067,0.011845,5.6331e-08,0.82,0.1,0
0.041841,0.010429,0.013785,0.00037624,0.0042484,0.0002006,0,0,0.049591,-0.020135,0,0.0020863,0,0,0,0.013788,0.00037324,0.0042484,0.85693,0.0061366,0.011958,5.7732e-08,0.84,0.1,0
0.042837,0.01073,0.013879,0.0003185,0.0042594,0.00011391,0,0,0.050024,-0.020493,0,0.0011847,0,0,0,0.01388,0.00031754,0.0042594,0.48124,0.0061524,0.012084,5.9186e-08,0.86,0.1,0
0.043841,0.010986,0.013964,0.00024839,0.0042637,4.576e-05,0,0,0.050442,-0.02088,0,0.00047591,0,0,0,0.013964,0.00024824,0.0042637,0.19116,0.0061587,0.012214,6.0616e-08,0.88,0.1,0
0.044854,0.011199,0.014038,0.00017571,0.004264,-1.6024e-06,0,0,0.050823,-0.021259,0,-1.6665e-05,0,0,0,0.014038,0.00017571,0.004264,-0.0066233,0.0061591,0.012337,6.1942e-08,0.9,0.1,0
0.045874,0.01137,0.014099,0.00010811,0.0042621,-2.8736e-05,0,0,0.051151,-0.021601,0,-0.00029886,0,0,0,0.014099,0.00010805,0.0042621,-0.11768,0.0061564,0.012445,6.3095e-08,0.92,0.1,0
0.0469,0.011501,0.014147,5.1067e-05,0.0042594,-3.8136e-05,0,0,0.051415,-0.021883,0,-0.00039661,0,0,0,0.014147,5.0964e-05,0.0042594,-0.15501,0.0061525,0.012533,6.4026e-08,0.94,0.1,0
0.047931,0.011593,0.014181,8.2059e-06,0.0042569,-3.3495e-05,0,0,0.051608,-0.022093,0,-0.00034835,0,0,0,0.014181,8.1268e-06,0.0042569,-0.1354,0.0061488,0.012598,6.4706e-08,0.96,0.1,0
0.048965,0.011647,0.014202,-1.8278e-05,0.0042551,-1.92e-05,0,0,0.051724,-0.022222,0,-0.00019968,0,0,0,0.014202,-1.8304e-05,0.0042551,-0.077358,0.0061463,0.012638,6.5119e-08,0.98,0.1,0
0.05,0.011666,0.014209,-2.7226e-05,0.0042545,8.717e-05,0,0,0.051763,-0.022265,0,0.00090657,0,0,0,0.014209,-2.7759e-05,0.0042545,0.35081,0.0061454,0.012652,6.5267e-08,1,0.1,0
0,0,0.015925,0.0068249,0.0068249,0.0041721,0,0,0.047319,-4.3368e-19,0,0.043389,0,0,0,0.017548,0.0052016,0.0068249,21.26,0.0098581,0.01162,7.5309e-08,0,0.12,0
0.00094638,0.00086779,0.015853,0.0059111,0.0065292,0.0041364,0,0,0.048483,-0.003214,0,0.043018,0,0,0,0.017349,0.0044152,0.0065292,19.882,0.0094311,0.012017,7.9906e-08,0.02,0.12,0
0.0019393,0.0017413,0.016108,0.0050039,0.0063335,0.0040409,0,0,0.050826,-0.0069137,0,0.042026,0,0,0,0.017423,0.003689,0.0063335,18.024,0.0091484,0.012621,8.8163e-08,0.04,0.12,0
0.0029794,0.0026002,0.016319,0.0040844,0.0061211,0.0038237,0,0,0.05303,-0.010591,0,0.039767,0,0,0,0.017416,0.0029877,0.0061211,16.004,0.0088416,0.013145,9.4679e-08,0.06,0.12,0
0.0040605,0.0034228,0.016457,0.0032538,0.0059132,0.0035104,0,0,0.054827,-0.013829,0,0.036508,0,0,0,0.017332,0.0023785,0.0059132,14.001,0.0085413,0.013537,9.872e-08,0.08,0.12,0
0.0051725,0.0041917,0.016507,0.0025606,0.0057202,0.0031482,0,0,0.056091,-0.01643,0,0.032741,0,0,0,0.017185,0.0018828,0.0057202,12.149,0.0082626,0.013789,1.0034e-07,0.1,0.12,0
0.0063042,0.004896,0.016475,0.0020097,0.0055455,0.0027805,0,0,0.056835,-0.018386,0,0.028917,0,0,0,0.016991,0.0014937,0.0055455,10.514,0.0080102,0.013921,1.0002e-07,0.12,0.12,0
0.0074459,0.0055305,0.01638,0.0015851,0.0053896,0.0024357,0,0,0.057151,-0.019783,0,0.025331,0,0,0,0.016771,0.0011944,0.0053896,9.1122,0.0077849,0.01396,9.8359e-08,0.14,0.12,0
0.0085902,0.0060938,0.016242,0.001265,0.005252,0.0021267,0,0,0.057146,-0.020733,0,0.022118,0,0,0,0.016538,0.00096882,0.005252,7.9275,0.0075862,0.01393,9.5871e-08,0.16,0.12,0
0.0097317,0.0065864,0.016077,0.00103,0.005132,0.0018562,0,0,0.056913,-0.021331,0,0.019305,0,0,0,0.016302,0.00080439,0.005132,6.9298,0.0074129,0.013851,9.2907e-08,0.18,0.12,0
0.010867,0.0070098,0.015897,0.00086447,0.0050285,0.0016207,0,0,0.056517,-0.021653,0,0.016855,0,0,0,0.01607,0.00069173,0.0050285,6.0839,0.0072634,0.013733,8.9681e-08,0.2,0.12,0
0.011992,0.0073655,0.01571,0.00075619,0.0049398,0.0014138,0,0,0.056004,-0.021755,0,0.014703,0,0,0,0.015842,0.00062369,0.0049398,5.3539,0.0071352,0.013585,8.6305e-08,0.22,0.12,0
0.013107,0.0076549,0.015518,0.00069554,0.0048639,0.001228,0,0,0.055399,-0.021676,0,0.012771,0,0,0,0.015619,0.00059448,0.0048639,4.7042,0.0070256,0.013409,8.2831e-08,0.24,0.12,0
0.014208,0.0078788,0.015321,0.00067428,0.0047987,0.0010555,0,0,0.054718,-0.021447,0,0.010977,0,0,0,0.015397,0.00059861,0.0047987,4.1006,0.0069314,0.013209,7.9277e-08,0.26,0.12,0
0.015296,0.0080375,0.015121,0.00068435,0.0047415,0.00088876,0,0,0.053971,-0.021097,0,0.0092431,0,0,0,0.015175,0.00062984,0.0047415,3.5097,0.0068488,0.012987,7.5659e-08,0.28,0.12,0
0.016367,0.0081308,0.014915,0.00071646,0.0046893,0.00072126,0,0,0.053172,-0.020659,0,0.0075011,0,0,0,0.014951,0.00067992,0.0046893,2.9006,0.0067735,0.012749,7.201e-08,0.3,0.12,0
0.017422,0.0081585,0.014703,0.00075883,0.0046386,0.00054824,0,0,0.052336,-0.020175,0,0.0057017,0,0,0,0.014725,0.00073731,0.0046386,2.248,0.0067002,0.012502,6.8399e-08,0.32,0.12,0
0.018461,0.0081204,0.014487,0.00079639,0.0045849,0.00036823,0,0,0.051489,-0.0197,0,0.0038296,0,0,0,0.014497,0.00078649,0.0045849,1.5396,0.0066227,0.012261,6.4928e-08,0.34,0.12,0
0.019482,0.0080172,0.014265,0.00081099,0.0045228,0.00018459,0,0,0.050659,-0.019301,0,0.0019197,0,0,0,0.014267,0.00080846,0.0045228,0.78591,0.0065329,0.012039,6.1709e-08,0.36,0.12,0
0.020487,0.0078516,0.014036,0.00078499,0.0044463,6.8381e-06,0,0,0.049867,-0.019039,0,7.1116e-05,0,0,0,0.014036,0.00078498,0.0044463,0.029567,0.0064224,0.011852,5.881e-08,0.38,0.12,0
0.021477,0.0076287,0.013793,0.00070418,0.0043491,-0.00015142,0,0,0.049107,-0.018954,0,-0.0015748,0,0,0,0.013795,0.00070243,0.0043491,-0.66272,0.006282,0.011703,5.6178e-08,0.4,0.12,0
0.022451,0.0073569,0.013527,0.000568,0.0042286,-0.00027496,0,0,0.048354,-0.019035,0,-0.0028596,0,0,0,0.013533,0.00056217,0.0042286,-1.2149,0.006108,0.011582,5.3659e-08,0.42,0.12,0
0.023411,0.0070479,0.013221,0.00037392,0.0040784,-0.0003596,0,0,0.04754,-0.019263,0,-0.0037398,0,0,0,0.013231,0.00036387,0.0040784,-1.6021,0.005891,0.01147,5.0986e-08,0.44,0.12,0
0.024353,0.006715,0.012903,0.0001525,0.0039167,-0.00040006,0,0,0.04673,-0.019574,0,-0.0041606,0,0,0,0.012916,0.00013996,0.0039167,-1.7953,0.0056574,0.011368,4.8336e-08,0.46,0.12,0
0.02528,0.0063773,0.012551,-0.00017436,0.003713,-0.0004017,0,0,0.045957,-0.020214,0,-0.0041777,0,0,0,0.012564,-0.00018703,0.003713,-1.8063,0.0053632,0.011316,4.5727e-08,0.48,0.12,0
0.026191,0.0060626,0.012164,-0.00056624,0.0034792,-0.00029161,0,0,0.045159,-0.021036,0,-0.0030328,0,0,0,0.01217,-0.00057292,0.0034792,-1.3116,0.0050255,0.011277,4.2886e-08,0.5,0.12,0
0.027086,0.0058077,0.011766,-0.00078742,0.0032937,-0.00011944,0,0,0.044058,-0.021222,0,-0.0012422,0,0,0,0.011768,-0.00078856,0.0032937,-0.54507,0.0047576,0.011093,3.9461e-08,0.52,0.12,0
0.027954,0.0056371,0.011392,-0.00072315,0.0032007,3.0141e-05,0,0,0.042595,-0.020404,0,0.00031347,0,0,0,0.011392,-0.00072322,0.0032007,0.14254,0.0046232,0.010707,3.5694e-08,0.54,0.12,0
0.02879,0.0055506,0.011092,-0.00053404,0.0031674,4.2343e-05,0,0,0.041208,-0.019247,0,0.00044036,0,0,0,0.011092,-0.0005342,0.0031674,0.20867,0.0045751,0.010288,3.25e-08,0.56,0.12,0
0.029602,0.0055373,0.010905,-0.00043544,0.0031409,-4.6211e-05,0,0,0.040373,-0.018597,0,-0.0004806,0,0,0,0.010905,-0.00043563,0.0031409,-0.23347,0.0045368,0.010042,3.0649e-08,0.58,0.12,0
0.030405,0.0055887,0.010906,-0.00044945,0.003137,-0.00016766,0,0,0.040399,-0.01865,0,-0.0017436,0,0,0,0.010909,-0.00045193,0.003137,-0.84568,0.0045312,0.010058,3.0721e-08,0.6,0.12,0
0.031218,0.0057055,0.011095,-0.00057734,0.0031554,-0.00024864,0,0,0.041288,-0.01941,0,-0.0025859,0,0,0,0.011101,-0.00058263,0.0031554,-1.2197,0.0045578,0.010334,3.2703e-08,0.62,0.12,0
0.032057,0.0058984,0.011397,-0.00079849,0.0031795,-0.00021997,0,0,0.04273,-0.020685,0,-0.0022877,0,0,0,0.011401,-0.00080246,0.0031795,-1.033,0.0045925,0.010779,3.5987e-08,0.64,0.12,0
0.032927,0.0061804,0.01177,-0.00089599,0.0032622,-4.3546e-05,0,0,0.044241,-0.021623,0,-0.00045288,0,0,0,0.01177,-0.00089614,0.0032622,-0.19698,0.0047121,0.011183,3.9793e-08,0.66,0.12,0
0.033826,0.0065538,0.012163,-0.00070599,0.0034371,0.0001657,0,0,0.045374,-0.021544,0,0.0017233,0,0,0,0.012165,-0.00070813,0.0034371,0.73759,0.0049647,0.011381,4.3263e-08,0.68,0.12,0
0.034742,0.0069961,0.01254,-0.00034285,0.0036593,0.00032215,0,0,0.046182,-0.020811,0,0.0033503,0,0,0,0.012548,-0.0003509,0.0036593,1.4315,0.0052856,0.011434,4.6162e-08,0.7,0.12,0
0.035673,0.0074725,0.012876,-4.3445e-05,0.0038497,0.00037553,0,0,0.046935,-0.020244,0,0.0039055,0,0,0,0.012887,-5.4352e-05,0.0038497,1.6636,0.0055606,0.011497,4.8799e-08,0.72,0.12,0
0.036619,0.0079567,0.013168,0.00015323,0.0039965,0.00039838,0,0,0.047693,-0.019985,0,0.0041431,0,0,0,0.01318,0.00014105,0.0039965,1.7516,0.0057726,0.011602,5.1377e-08,0.74,0.12,0
0.037581,0.0084315,0.013441,0.00032639,0.0041303,0.00038403,0,0,0.048417,-0.01978,0,0.0039939,0,0,0,0.013452,0.00031515,0.0041303,1.6758,0.005966,0.011706,5.3845e-08,0.76,0.12,0
0.038556,0.0088848,0.013664,0.00044391,0.0042323,0.00033636,0,0,0.049044,-0.0197,0,0.0034982,0,0,0,0.013672,0.00043535,0.0042323,1.4566,0.0061133,0.011806,5.5977e-08,0.78,0.12,0
0.039543,0.0093058,0.013855,0.0005055,0.0043081,0.0002592,0,0,0.049643,-0.019773,0,0.0026957,0,0,0,0.01386,0.00050046,0.0043081,1.1119,0.0062228,0.011921,5.8017e-08,0.8,0.12,0
0.040542,0.0096871,0.014022,0.00050864,0.0043593,0.00016849,0,0,0.050247,-0.020023,0,0.0017523,0,0,0,0.014024,0.00050654,0.0043593,0.71424,0.0062967,0.012062,6.0107e-08,0.82,0.12,0
0.041553,0.010025,0.014173,0.00046455,0.0043913,7.9676e-05,0,0,0.050866,-0.020419,0,0.00082863,0,0,0,0.014174,0.00046408,0.0043913,0.33299,0.0063431,0.012228,6.2298e-08,0.84,0.12,0
0.042576,0.010316,0.014309,0.00038843,0.0044093,4.8691e-06,0,0,0.051479,-0.020908,0,5.0639e-05,0,0,0,0.014309,0.00038843,0.0044093,0.020041,0.0063689,0.012409,6.4522e-08,0.86,0.12,0
0.043612,0.010564,0.014429,0.00029647,0.0044176,-4.9457e-05,0,0,0.052058,-0.02143,0,-0.00051436,0,0,0,0.014429,0.00029629,0.0044176,-0.20051,0.0063809,0.012589,6.6663e-08,0.88,0.12,0
0.044659,0.010768,0.014531,0.00020203,0.0044198,-8.146e-05,0,0,0.052577,-0.021933,0,-0.00084718,0,0,0,0.014531,0.00020157,0.0044198,-0.32572,0.0063842,0.012755,6.8604e-08,0.9,0.12,0
0.045715,0.010931,0.014614,0.00011503,0.0044186,-9.2466e-05,0,0,0.053015,-0.022379,0,-0.00096165,0,0,0,0.014614,0.00011444,0.0044186,-0.36539,0.0063825,0.012898,7.0258e-08,0.92,0.12,0
0.046779,0.011055,0.014678,4.215e-05,0.004416,-8.5596e-05,0,0,0.053361,-0.022744,0,-0.00089019,0,0,0,0.014678,4.165e-05,0.004416,-0.33508,0.0063786,0.013013,7.1573e-08,0.94,0.12,0
0.04785,0.011142,0.014723,-1.2328e-05,0.0044132,-6.4885e-05,0,0,0.053611,-0.023013,0,-0.00067481,0,0,0,0.014723,-1.2614e-05,0.0044132,-0.25229,0.0063746,0.013096,7.252e-08,0.96,0.12,0
0.048924,0.011194,0.01475,-4.588e-05,0.0044112,-3.4802e-05,0,0,0.053761,-0.023177,0,-0.00036194,0,0,0,0.01475,-4.5962e-05,0.0044112,-0.13477,0.0063717,0.013147,7.309e-08,0.98,0.12,0
0.05,0.011211,0.014759,-5.7198e-05,0.0044105,8.2407e-05,0,0,0.053811,-0.023232,0,0.00085703,0,0,0,0.014759,-5.7656e-05,0.0044105,0.31867,0.0063707,0.013164,7.329e-08,1,0.12,0
0,0,0.015819,0.0067794,0.0067794,0.0038793,0,0,0.047004,-1.8431e-18,0,0.040345,0,0,0,0.017255,0.0053428,0.0067794,20.32,0.0097925,0.011263,6.9373e-08,0,0.14,0
0.00094008,0.0008069,0.015753,0.0059413,0.0065082,0.0038559,0,0,0.048072,-0.0029479,0,0.040101,0,0,0,0.017087,0.0046073,0.0065082,19.084,0.0094008,0.011646,7.389e-08,0.02,0.14,0
0.0019229,0.0016116,0.016005,0.0051486,0.0063461,0.0037813,0,0,0.050226,-0.006227,0,0.039326,0,0,0,0.017192,0.0039613,0.0063461,17.431,0.0091665,0.012214,8.1696e-08,0.04,0.14,0
0.0029491,0.0024013,0.01623,0.0043366,0.0061699,0.003625,0,0,0.052311,-0.0095332,0,0.0377,0,0,0,0.017247,0.0033188,0.0061699,15.683,0.0089121,0.012745,8.8644e-08,0.06,0.14,0
0.0040153,0.0031609,0.016404,0.0035736,0.0059933,0.003395,0,0,0.054136,-0.012582,0,0.035308,0,0,0,0.017247,0.0027307,0.0059933,13.944,0.008657,0.013191,9.402e-08,0.08,0.14,0
0.0051146,0.0038772,0.016514,0.0029034,0.0058252,0.0031165,0,0,0.055582,-0.015194,0,0.032411,0,0,0,0.017194,0.0022238,0.0058252,12.303,0.0084142,0.013534,9.7563e-08,0.1,0.14,0
0.0062386,0.0045403,0.016558,0.0023431,0.0056703,0.0028186,0,0,0.056616,-0.017302,0,0.029314,0,0,0,0.017097,0.0018046,0.0056703,10.816,0.0081905,0.013772,9.9378e-08,0.12,0.14,0
0.0073792,0.0051441,0.016543,0.0018911,0.0055303,0.002525,0,0,0.057267,-0.018924,0,0.02626,0,0,0,0.016966,0.0014682,0.0055303,9.5087,0.0079882,0.013919,9.9758e-08,0.14,0.14,0
0.0085293,0.0056855,0.016481,0.0015373,0.0054056,0.0022506,0,0,0.057594,-0.020115,0,0.023406,0,0,0,0.016813,0.0012057,0.0054056,8.3811,0.0078081,0.013988,9.9038e-08,0.16,0.14,0
0.009683,0.0061636,0.016385,0.0012688,0.0052961,0.0020021,0,0,0.057661,-0.020941,0,0.020822,0,0,0,0.016645,0.0010081,0.0052961,7.4184,0.0076498,0.013995,9.7506e-08,0.18,0.14,0
0.010836,0.0065785,0.016262,0.0010738,0.0052009,0.0017806,0,0,0.05752,-0.021461,0,0.018519,0,0,0,0.016468,0.00086782,0.0052009,6.5979,0.0075124,0.013948,9.5374e-08,0.2,0.14,0
0.011984,0.0069306,0.016121,0.00094184,0.0051188,0.0015837,0,0,0.057211,-0.02172,0,0.01647,0,0,0,0.016284,0.00077838,0.0051188,5.8932,0.0073939,0.013855,9.2777e-08,0.22,0.14,0
0.013124,0.0072205,0.015964,0.00086424,0.0050484,0.0014064,0,0,0.056759,-0.021757,0,0.014626,0,0,0,0.016094,0.00073437,0.0050484,5.2761,0.0072921,0.013721,8.9791e-08,0.24,0.14,0
0.014254,0.0074484,0.015791,0.00083307,0.0049873,0.0012428,0,0,0.056181,-0.021602,0,0.012925,0,0,0,0.015894,0.00073052,0.0049873,4.7171,0.007204,0.013546,8.6458e-08,0.26,0.14,0
0.015371,0.0076139,0.015604,0.00084017,0.0049332,0.0010862,0,0,0.055488,-0.021284,0,0.011297,0,0,0,0.015683,0.00076068,0.0049332,4.1854,0.0071258,0.013335,8.2808e-08,0.28,0.14,0
0.016474,0.0077162,0.0154,0.00087574,0.0048829,0.00093,0,0,0.054691,-0.020837,0,0.009672,0,0,0,0.01546,0.00081644,0.0048829,3.6487,0.007053,0.013093,7.889e-08,0.3,0.14,0
0.017559,0.007754,0.015181,0.00092645,0.0048322,0.00076823,0,0,0.053813,-0.02031,0,0.0079895,0,0,0,0.015222,0.00088517,0.0048322,3.076,0.0069798,0.012827,7.4803e-08,0.32,0.14,0
0.018626,0.0077261,0.014946,0.00097332,0.004776,0.00059777,0,0,0.052887,-0.019774,0,0.0062169,0,0,0,0.014972,0.0009478,0.004776,2.4452,0.0068986,0.012556,7.0709e-08,0.34,0.14,0
0.019675,0.0076315,0.0147,0.00099167,0.0047075,0.00042168,0,0,0.051961,-0.019322,0,0.0043855,0,0,0,0.014713,0.00097871,0.0047075,1.7603,0.0067998,0.012301,6.6824e-08,0.36,0.14,0
0.020705,0.0074714,0.01444,0.00095241,0.0046177,0.00025184,0,0,0.051076,-0.01906,0,0.0026192,0,0,0,0.014445,0.0009477,0.0046177,1.0694,0.00667,0.012087,6.3307e-08,0.38,0.14,0
0.021718,0.0072499,0.014161,0.00083695,0.0044993,0.00011151,0,0,0.05024,-0.019044,0,0.0011597,0,0,0,0.014162,0.00083602,0.0044993,0.47948,0.0064991,0.011924,6.0167e-08,0.4,0.14,0
0.022714,0.0069761,0.013834,0.00063355,0.0043404,2.3159e-05,0,0,0.049369,-0.019276,0,0.00024085,0,0,0,0.013834,0.00063351,0.0043404,0.10052,0.0062695,0.011793,5.7027e-08,0.42,0.14,0
0.023692,0.0066621,0.013448,0.00038133,0.0041488,1.1957e-05,0,0,0.048355,-0.019591,0,0.00012435,0,0,0,0.013448,0.00038132,0.0041488,0.05243,0.0059927,0.011649,5.3484e-08,0.44,0.14,0
0.024648,0.0063253,0.012896,4.3386e-05,0.0038817,4.6628e-05,0,0,0.046873,-0.01996,0,0.00048493,0,0,0,0.012896,4.3217e-05,0.0038817,0.20786,0.005607,0.011428,4.8511e-08,0.46,0.14,0
0.025567,0.0059751,0.012386,-0.00017907,0.003662,0.00015049,0,0,0.045364,-0.019974,0,0.0015651,0,0,0,0.012388,-0.00018088,0.003662,0.68611,0.0052896,0.011155,4.3819e-08,0.48,0.14,0
0.026463,0.0056423,0.011675,-0.00078125,0.0032682,0.00023301,0,0,0.043716,-0.021057,0,0.0024233,0,0,0,0.01168,-0.00078561,0.0032682,1.0713,0.0047207,0.011013,3.859e-08,0.5,0.14,0
0.027316,0.0053858,0.010943,-0.0010713,0.0029614,0.00051421,0,0,0.041502,-0.02097,0,0.0053478,0,0,0,0.010965,-0.0010933,0.0029614,2.4464,0.0042776,0.010627,3.2775e-08,0.52,0.14,0
0.028123,0.0052399,0.010411,-0.00059658,0.0029442,0.00054338,0,0,0.038825,-0.018412,0,0.0056511,0,0,0,0.010437,-0.00062334,0.0029442,2.8193,0.0042527,0.0097779,2.7361e-08,0.54,0.14,0
0.028869,0.0051856,0.0098662,-0.00032507,0.0028623,0.00035317,0,0,0.03642,-0.016574,0,0.003673,0,0,0,0.0098784,-0.00033729,0.0028623,1.9824,0.0041345,0.0090505,2.2656e-08,0.56,0.14,0
0.02958,0.0051886,0.0096074,-0.00020248,0.0028215,5.306e-05,0,0,0.035287,-0.015724,0,0.00055182,0,0,0,0.0096077,-0.00020276,0.0028215,0.30989,0.0040755,0.0087018,2.0579e-08,0.58,0.14,0
0.03028,0.0052388,0.0096053,-0.00021966,0.0028157,-0.00026579,0,0,0.035306,-0.015784,0,-0.0027642,0,0,0,0.0096125,-0.00022685,0.0028157,-1.5485,0.0040671,0.0087254,2.0661e-08,0.6,0.14,0
0.030992,0.005337,0.0098608,-0.00037835,0.0028447,-0.00055907,0,0,0.036483,-0.01676,0,-0.0058143,0,0,0,0.0098912,-0.00040879,0.0028447,-3.1161,0.004109,0.0091194,2.29e-08,0.62,0.14,0
0.03174,0.005495,0.010403,-0.00069201,0.0029132,-0.00073334,0,0,0.038945,-0.018747,0,-0.0076267,0,0,0,0.010451,-0.00074027,0.0029132,-3.7653,0.0042079,0.0098845,2.7732e-08,0.64,0.14,0
0.03255,0.0057496,0.010929,-0.0012151,0.0029143,-0.00067514,0,0,0.041679,-0.021473,0,-0.0070215,0,0,0,0.010967,-0.0012525,0.0029143,-3.1722,0.0042096,0.010759,3.3147e-08,0.66,0.14,0
0.033407,0.0061222,0.011655,-0.00096676,0.0032065,-0.00035113,0,0,0.043932,-0.021701,0,-0.0036517,0,0,0,0.011665,-0.00097652,0.0032065,-1.5923,0.0046316,0.011154,3.8974e-08,0.68,0.14,0
0.034307,0.0065806,0.012354,-0.00040046,0.003586,-0.00021626,0,0,0.045593,-0.02073,0,-0.0022491,0,0,0,0.012358,-0.00040413,0.003586,-0.97112,0.0051799,0.011308,4.4292e-08,0.7,0.14,0
0.035231,0.0070676,0.012844,-0.00021669,0.0037881,-5.0007e-05,0,0,0.047089,-0.020825,0,-0.00052007,0,0,0,0.012844,-0.00021688,0.0037881,-0.21938,0.0054717,0.011589,4.8954e-08,0.72,0.14,0
0.036191,0.0075546,0.013369,8.8739e-05,0.0040373,5.6862e-05,0,0,0.048524,-0.020532,0,0.00059137,0,0,0,0.013369,8.8496e-05,0.0040373,0.24532,0.0058316,0.011812,5.3857e-08,0.74,0.14,0
0.037172,0.0080337,0.01372,0.00031472,0.0042105,0.00012479,0,0,0.049451,-0.020258,0,0.0012978,0,0,0,0.013721,0.00031356,0.0042105,0.5333,0.0060819,0.011946,5.7179e-08,0.76,0.14,0
0.038169,0.0084888,0.014004,0.00049497,0.0043496,0.00012078,0,0,0.050201,-0.020044,0,0.0012561,0,0,0,0.014005,0.00049389,0.0043496,0.51223,0.0062827,0.012055,5.9916e-08,0.78,0.14,0
0.03918,0.0089085,0.014233,0.00058677,0.0044458,6.9208e-05,0,0,0.050892,-0.020067,0,0.00071977,0,0,0,0.014233,0.00058641,0.0044458,0.29058,0.0064218,0.012184,6.2448e-08,0.8,0.14,0
0.040204,0.0092843,0.014437,0.00059697,0.0045101,-6.371e-06,0,0,0.051618,-0.020348,0,-6.6258e-05,0,0,0,0.014437,0.00059697,0.0045101,-0.026376,0.0065146,0.012357,6.5155e-08,0.82,0.14,0
0.041244,0.0096127,0.014621,0.00054024,0.0045484,-8.0376e-05,0,0,0.052379,-0.020843,0,-0.00083592,0,0,0,0.014622,0.00053978,0.0045484,-0.32704,0.00657,0.012567,6.8055e-08,0.84,0.14,0
0.0423,0.0098936,0.014788,0.00044259,0.0045691,-0.00013767,0,0,0.053137,-0.021458,0,-0.0014318,0,0,0,0.014789,0.00044127,0.0045691,-0.54979,0.0065999,0.012794,7.1013e-08,0.86,0.14,0
0.04337,0.010129,0.014933,0.00032664,0.004578,-0.00017166,0,0,0.053848,-0.022107,0,-0.0017852,0,0,0,0.014935,0.00032462,0.004578,-0.67321,0.0066127,0.013016,7.3831e-08,0.88,0.14,0
0.044453,0.010322,0.015056,0.00020974,0.0045796,-0.00018197,0,0,0.054475,-0.022723,0,-0.0018924,0,0,0,0.015058,0.00020751,0.0045796,-0.70213,0.006615,0.013218,7.6346e-08,0.9,0.14,0
0.045549,0.010475,0.015154,0.00010352,0.0045772,-0.00017125,0,0,0.054998,-0.023263,0,-0.001781,0,0,0,0.015156,0.00010157,0.0045772,-0.65182,0.0066115,0.01339,7.8456e-08,0.92,0.14,0
0.046654,0.010591,0.015228,1.5412e-05,0.0045731,-0.0001434,0,0,0.055407,-0.0237,0,-0.0014914,0,0,0,0.01523,1.406e-05,0.0045731,-0.54002,0.0066056,0.013525,8.011e-08,0.94,0.14,0
0.047765,0.010672,0.01528,-5.0013e-05,0.0045691,-0.0001027,0,0,0.055698,-0.024019,0,-0.0010681,0,0,0,0.015281,-5.0701e-05,0.0045691,-0.38381,0.0065998,0.013623,8.1291e-08,0.96,0.14,0
0.048881,0.01072,0.015311,-9.0141e-05,0.0045662,-5.3472e-05,0,0,0.055873,-0.024213,0,-0.00055611,0,0,0,0.015311,-9.0327e-05,0.0045662,-0.19893,0.0065957,0.013681,8.1997e-08,0.98,0.14,0
0.05,0.010736,0.015321,-0.00010365,0.0045652,7.6578e-05,0,0,0.055931,-0.024278,0,0.00079641,0,0,0,0.015322,-0.00010403,0.0045652,0.28444,0.0065942,0.013701,8.2239e-08,1,0.14,0
0,0,0.015797,0.0067703,0.0067703,0.0036052,0,0,0.046941,-4.3368e-19,0,0.037494,0,0,0,0.01706,0.0055072,0.0067703,19.308,0.0097793,0.010976,6.4896e-08,0,0.16,0
0.00093881,0.00074987,0.015734,0.0059743,0.0065123,0.0035887,0,0,0.04795,-0.002798,0,0.037323,0,0,0,0.016911,0.0047967,0.0065123,18.166,0.0094067,0.011354,6.9428e-08,0.02,0.16,0
0.001918,0.0014923,0.015983,0.0052535,0.006371,0.0035257,0,0,0.049984,-0.0058111,0,0.036667,0,0,0,0.017038,0.0041987,0.006371,16.656,0.0092026,0.011903,7.6976e-08,0.04,0.16,0
0.0029382,0.0022189,0.016214,0.0045178,0.0062197,0.0034078,0,0,0.051973,-0.0088498,0,0.035441,0,0,0,0.017135,0.0035974,0.0062197,15.115,0.008984,0.012436,8.4152e-08,0.06,0.16,0
0.0039969,0.0029195,0.01641,0.003813,0.006067,0.0032353,0,0,0.053785,-0.011721,0,0.033647,0,0,0,0.017193,0.0030307,0.006067,13.594,0.0087634,0.012914,9.0344e-08,0.08,0.16,0
0.0050896,0.0035839,0.016559,0.0031738,0.0059198,0.003021,0,0,0.055323,-0.014279,0,0.031419,0,0,0,0.017209,0.0025236,0.0059198,12.147,0.0085508,0.013316,9.5198e-08,0.1,0.16,0
0.0062098,0.0042039,0.016655,0.0026197,0.0057824,0.0027835,0,0,0.056537,-0.016446,0,0.028948,0,0,0,0.017187,0.0020878,0.0057824,10.818,0.0083523,0.013633,9.8617e-08,0.12,0.16,0
0.007351,0.0047736,0.016701,0.0021565,0.0056571,0.0025405,0,0,0.057426,-0.018203,0,0.026422,0,0,0,0.017132,0.0017255,0.0056571,9.6286,0.0081714,0.013865,1.0069e-07,0.14,0.16,0
0.0085069,0.0052892,0.016702,0.0017817,0.005545,0.0023056,0,0,0.058014,-0.019569,0,0.023978,0,0,0,0.01705,0.0014335,0.005545,8.5873,0.0080094,0.01402,1.0158e-07,0.16,0.16,0
0.0096716,0.0057487,0.016665,0.0014886,0.0054462,0.0020871,0,0,0.05834,-0.02058,0,0.021706,0,0,0,0.016947,0.0012068,0.0054462,7.689,0.0078668,0.014107,1.015e-07,0.18,0.16,0
0.01084,0.0061513,0.016599,0.0012692,0.0053604,0.0018887,0,0,0.05844,-0.021274,0,0.019642,0,0,0,0.016828,0.00104,0.0053604,6.9212,0.0077428,0.014132,1.0059e-07,0.2,0.16,0
0.012009,0.0064967,0.016507,0.0011159,0.0052867,0.0017107,0,0,0.058343,-0.021688,0,0.017791,0,0,0,0.016694,0.00092803,0.0052867,6.2666,0.0076364,0.014102,9.8994e-08,0.22,0.16,0
0.013174,0.0067846,0.016391,0.0010214,0.0052238,0.0015509,0,0,0.058071,-0.021853,0,0.016129,0,0,0,0.016546,0.00086645,0.0052238,5.7047,0.0075455,0.014018,9.6773e-08,0.24,0.16,0
0.014332,0.0070147,0.016254,0.00097887,0.0051697,0.0014052,0,0,0.057636,-0.021793,0,0.014614,0,0,0,0.016382,0.00085068,0.0051697,5.2126,0.0074674,0.013885,9.3969e-08,0.26,0.16,0
0.01548,0.0071861,0.016093,0.00098098,0.0051221,0.0012682,0,0,0.057047,-0.021534,0,0.013189,0,0,0,0.016198,0.00087528,0.0051221,4.7641,0.0073986,0.013702,9.0606e-08,0.28,0.16,0
0.016614,0.0072973,0.015907,0.0010184,0.0050775,0.0011333,0,0,0.056311,-0.021107,0,0.011787,0,0,0,0.015992,0.00093261,0.0050775,4.3283,0.0073342,0.013474,8.6724e-08,0.3,0.16,0
0.017732,0.0073461,0.015695,0.0010777,0.0050318,0.00099317,0,0,0.055448,-0.020561,0,0.010329,0,0,0,0.015762,0.0010105,0.0050318,3.8693,0.0072681,0.013208,8.2417e-08,0.32,0.16,0
0.018832,0.0073294,0.015461,0.0011381,0.0049796,0.00084159,0,0,0.054501,-0.019976,0,0.0087526,0,0,0,0.01551,0.0010888,0.0049796,3.3514,0.0071927,0.012923,7.7901e-08,0.34,0.16,0
0.019912,0.0072443,0.015208,0.0011656,0.0049121,0.00067801,0,0,0.053539,-0.019482,0,0.0070513,0,0,0,0.015241,0.0011329,0.0049121,2.7579,0.0070952,0.012649,7.3515e-08,0.36,0.16,0
0.020973,0.0070892,0.014946,0.001119,0.0048195,0.00051703,0,0,0.052657,-0.019242,0,0.0053771,0,0,0,0.014965,0.0010997,0.0048195,2.1385,0.0069615,0.01243,6.9678e-08,0.38,0.16,0
0.022018,0.0068669,0.014661,0.00094924,0.0046832,0.00038898,0,0,0.051887,-0.019416,0,0.0040454,0,0,0,0.014672,0.00093822,0.0046832,1.6236,0.0067646,0.012297,6.6492e-08,0.4,0.16,0
0.023049,0.0065858,0.014354,0.00066898,0.004507,0.00035005,0,0,0.051206,-0.019957,0,0.0036405,0,0,0,0.014363,0.00066003,0.004507,1.4643,0.0065101,0.012242,6.3806e-08,0.42,0.16,0
0.024067,0.0062642,0.013916,0.00025277,0.0042506,0.00041753,0,0,0.05026,-0.020789,0,0.0043423,0,0,0,0.013929,0.00024002,0.0042506,1.7487,0.0061398,0.012189,6.0192e-08,0.44,0.16,0
0.025059,0.0059166,0.013414,-9.4697e-05,0.0039956,0.00067449,0,0,0.048973,-0.02127,0,0.0070147,0,0,0,0.013447,-0.00012829,0.0039956,2.8514,0.0057715,0.012055,5.5758e-08,0.46,0.16,0
0.026026,0.0055783,0.012123,-0.00085131,0.0033814,0.00092878,0,0,0.045455,-0.02201,0,0.0096593,0,0,0,0.012189,-0.00091746,0.0033814,4.074,0.0048843,0.011572,4.4161e-08,0.48,0.16,0
0.026877,0.0052204,0.011,-0.0012108,0.0029368,0.0017523,0,0,0.041929,-0.021567,0,0.018224,0,0,0,0.011246,-0.0014573,0.0029368,8.0071,0.004242,0.011175,3.6128e-08,0.5,0.16,0
0.027703,0.0049689,0.010061,-0.00059954,0.0028385,0.0014766,0,0,0.037558,-0.017878,0,0.015356,0,0,0,0.010262,-0.00080028,0.0028385,7.7417,0.0041001,0.0097653,2.6413e-08,0.52,0.16,0
0.02838,0.0049006,0.0087516,-0.00018286,0.0025706,0.0011525,0,0,0.032141,-0.014318,0,0.011986,0,0,0,0.0088979,-0.00032913,0.0025706,7.2329,0.0037131,0.0081725,1.6602e-08,0.54,0.16,0
0.028988,0.0048876,0.0082004,4.786e-05,0.0024745,0.00063062,0,0,0.029775,-0.012618,0,0.0065584,0,0,0,0.0082488,-6.3206e-07,0.0024745,4.3971,0.0035742,0.0073322,1.2743e-08,0.56,0.16,0
0.029571,0.0049084,0.0080219,0.00016422,0.0024558,0.00013603,0,0,0.028944,-0.011917,0,0.0014147,0,0,0,0.0080243,0.00016186,0.0024558,0.99147,0.0035473,0.0070031,1.1471e-08,0.58,0.16,0
0.030146,0.0049573,0.008017,0.00014417,0.0024484,-0.00034154,0,0,0.028957,-0.011982,0,-0.003552,0,0,0,0.0080318,0.00012938,0.0024484,-2.4794,0.0035365,0.0070357,1.1556e-08,0.6,0.16,0
0.030729,0.0050351,0.0081863,-1.4758e-05,0.0024515,-0.00083066,0,0,0.029821,-0.012824,0,-0.0086389,0,0,0,0.0082696,-9.8048e-05,0.0024515,-5.7259,0.003541,0.0074286,1.2999e-08,0.62,0.16,0
0.031339,0.0051485,0.0087333,-0.00029472,0.0025316,-0.0013392,0,0,0.032249,-0.014697,0,-0.013927,0,0,0,0.0089278,-0.00048918,0.0025316,-8.2619,0.0036567,0.0083281,1.7048e-08,0.64,0.16,0
0.032019,0.0053214,0.010039,-0.00077912,0.0027779,-0.0016353,0,0,0.037756,-0.018496,0,-0.017007,0,0,0,0.01028,-0.0010209,0.0027779,-8.4108,0.0040124,0.0099609,2.7007e-08,0.66,0.16,0
0.032849,0.0056858,0.010968,-0.0014526,0.0028546,-0.0018643,0,0,0.042189,-0.022398,0,-0.019388,0,0,0,0.011242,-0.0017264,0.0028546,-8.3546,0.0041233,0.011391,3.663e-08,0.68,0.16,0
0.033707,0.0061669,0.01208,-0.0011343,0.0032836,-0.00097767,0,0,0.045739,-0.022973,0,-0.010168,0,0,0,0.012152,-0.0012062,0.0032836,-4.2086,0.004743,0.011773,4.4598e-08,0.7,0.16,0
0.034679,0.0066395,0.01335,-0.00042719,0.0038767,-0.00065301,0,0,0.049259,-0.02238,0,-0.0067913,0,0,0,0.013381,-0.00045807,0.0038767,-2.7077,0.0055997,0.01226,5.631e-08,0.72,0.16,0
0.035677,0.0071354,0.013824,-0.0001188,0.0041114,-0.00031681,0,0,0.050503,-0.021997,0,-0.0032948,0,0,0,0.013831,-0.00012599,0.0041114,-1.301,0.0059387,0.012394,6.0642e-08,0.74,0.16,0
0.036699,0.0076212,0.014225,0.00026463,0.0043468,-0.00016243,0,0,0.051365,-0.021227,0,-0.0016892,0,0,0,0.014227,0.00026274,0.0043468,-0.66651,0.0062787,0.012436,6.4049e-08,0.76,0.16,0
0.037732,0.008083,0.014491,0.00051914,0.004503,-0.00011093,0,0,0.051936,-0.020716,0,-0.0011537,0,0,0,0.014492,0.00051826,0.004503,-0.45487,0.0065043,0.012468,6.6346e-08,0.78,0.16,0
0.038776,0.0085031,0.014729,0.00066179,0.0046174,-0.00014542,0,0,0.052583,-0.020569,0,-0.0015123,0,0,0,0.014731,0.00066029,0.0046174,-0.59217,0.0066696,0.012568,6.893e-08,0.8,0.16,0
0.039835,0.0088732,0.014944,0.00067385,0.0046852,-0.00020875,0,0,0.053343,-0.020859,0,-0.002171,0,0,0,0.014947,0.0006708,0.0046852,-0.83792,0.0067676,0.012752,7.1997e-08,0.82,0.16,0
0.04091,0.0091908,0.015146,0.00059874,0.0047235,-0.00026724,0,0,0.054198,-0.021449,0,-0.0027793,0,0,0,0.015151,0.00059383,0.0047235,-1.0521,0.0068229,0.012994,7.5513e-08,0.84,0.16,0
0.042003,0.0094582,0.01533,0.0004744,0.0047413,-0.00030229,0,0,0.055061,-0.022188,0,-0.0031438,0,0,0,0.015336,0.00046826,0.0047413,-1.1652,0.0068485,0.013258,7.9122e-08,0.86,0.16,0
0.043112,0.0096794,0.015489,0.00033283,0.0047466,-0.00031033,0,0,0.055861,-0.022952,0,-0.0032274,0,0,0,0.015496,0.00032648,0.0047466,-1.1725,0.0068562,0.013513,8.2515e-08,0.88,0.16,0
0.044237,0.0098587,0.015621,0.0001938,0.0047443,-0.00029394,0,0,0.056556,-0.023662,0,-0.003057,0,0,0,0.015626,0.0001882,0.0047443,-1.0912,0.0068528,0.013739,8.5484e-08,0.9,0.16,0
0.045375,0.01,0.015724,6.9622e-05,0.0047381,-0.00025763,0,0,0.057127,-0.024276,0,-0.0026794,0,0,0,0.015728,6.5383e-05,0.0047381,-0.94261,0.0068439,0.013927,8.793e-08,0.92,0.16,0
0.046522,0.010107,0.015801,-3.2203e-05,0.0047307,-0.00020598,0,0,0.057567,-0.024767,0,-0.0021422,0,0,0,0.015804,-3.4883e-05,0.0047307,-0.74521,0.0068333,0.014075,8.9821e-08,0.94,0.16,0
0.047677,0.010181,0.015855,-0.00010725,0.0047243,-0.00014326,0,0,0.057879,-0.025124,0,-0.0014899,0,0,0,0.015856,-0.00010853,0.0047243,-0.51418,0.0068239,0.01418,9.1157e-08,0.96,0.16,0
0.048837,0.010225,0.015886,-0.00015306,0.0047199,-7.3384e-05,0,0,0.058064,-0.025339,0,-0.00076319,0,0,0,0.015886,-0.0001534,0.0047199,-0.26214,0.0068176,0.014243,9.195e-08,0.98,0.16,0
0.05,0.01024,0.015896,-0.00016845,0.0047183,6.9914e-05,0,0,0.058125,-0.025411,0,0.0007271,0,0,0,0.015897,-0.00016876,0.0047183,0.24935,0.0068154,0.014264,9.222e-08,1,0.16,0
0,0,0.015829,0.0067841,0.0067841,0.0033412,0,0,0.047036,9.7578e-19,0,0.034749,0,0,0,0.01693,0.0056837,0.0067841,18.228,0.0097992,0.010738,6.1351e-08,0,0.18,0
0.00094073,0.00069498,0.015766,0.0060101,0.0065328,0.0033291,0,0,0.048012,-0.0027181,0,0.034623,0,0,0,0.016794,0.0049823,0.0065328,17.157,0.0094363,0.011118,6.5972e-08,0.02,0.18,0
0.0019205,0.0013792,0.016015,0.005335,0.0064049,0.0032734,0,0,0.049971,-0.0055633,0,0.034044,0,0,0,0.016938,0.0044115,0.0064049,15.755,0.0092515,0.011658,7.3429e-08,0.04,0.18,0
0.0029395,0.0020473,0.01625,0.0046527,0.0062708,0.0031812,0,0,0.051892,-0.0084142,0,0.033084,0,0,0,0.017065,0.0038374,0.0062708,14.375,0.0090578,0.012195,8.0778e-08,0.06,0.18,0
0.0039962,0.0026921,0.01646,0.003994,0.0061361,0.0030491,0,0,0.053683,-0.011139,0,0.03171,0,0,0,0.017166,0.0032882,0.0061361,13.034,0.0088633,0.012695,8.7523e-08,0.08,0.18,0
0.0050869,0.003306,0.016634,0.0033853,0.0060059,0.0028833,0,0,0.055268,-0.013627,0,0.029986,0,0,0,0.017235,0.0027851,0.0060059,11.76,0.0086752,0.013139,9.3309e-08,0.1,0.18,0
0.0062069,0.0038824,0.016768,0.0028443,0.0058838,0.0026952,0,0,0.056599,-0.015805,0,0.02803,0,0,0,0.017272,0.0023408,0.0058838,10.581,0.0084988,0.013512,9.7953e-08,0.12,0.18,0
0.0073508,0.0044159,0.01686,0.0023796,0.005772,0.0024975,0,0,0.05766,-0.017641,0,0.025974,0,0,0,0.017279,0.0019609,0.005772,9.5157,0.0083373,0.013813,1.0141e-07,0.14,0.18,0
0.0085133,0.0049028,0.016913,0.0019931,0.0056719,0.0023015,0,0,0.058455,-0.01913,0,0.023935,0,0,0,0.01726,0.0016462,0.0056719,8.5726,0.0081928,0.014041,1.0375e-07,0.16,0.18,0
0.009689,0.0053405,0.016931,0.0016827,0.0055841,0.0021153,0,0,0.059003,-0.020287,0,0.021999,0,0,0,0.017219,0.0013947,0.0055841,7.7533,0.0080658,0.014201,1.0507e-07,0.18,0.18,0
0.010873,0.0057275,0.016917,0.0014438,0.0055084,0.001944,0,0,0.059327,-0.021136,0,0.020218,0,0,0,0.017158,0.0012033,0.0055084,7.0524,0.0079565,0.014297,1.0548e-07,0.2,0.18,0
0.012062,0.0060631,0.016876,0.0012714,0.0054443,0.0017899,0,0,0.059447,-0.021699,0,0.018615,0,0,0,0.017079,0.0010687,0.0054443,6.46,0.007864,0.014332,1.0506e-07,0.22,0.18,0
0.013251,0.0063464,0.01681,0.0011602,0.0053909,0.0016527,0,0,0.059377,-0.022,0,0.017188,0,0,0,0.016982,0.00098754,0.0053909,5.9632,0.0077869,0.01431,1.0387e-07,0.24,0.18,0
0.014437,0.0065767,0.016717,0.0011048,0.0053466,0.0015304,0,0,0.059127,-0.022057,0,0.015916,0,0,0,0.016866,0.00095623,0.0053466,5.546,0.0077228,0.014232,1.0193e-07,0.26,0.18,0
0.015616,0.0067525,0.016597,0.0010993,0.005309,0.0014191,0,0,0.058699,-0.02189,0,0.014758,0,0,0,0.016726,0.00097043,0.005309,5.1888,0.0076685,0.014096,9.9254e-08,0.28,0.18,0
0.016785,0.0068719,0.016447,0.0011357,0.0052748,0.0013129,0,0,0.058095,-0.021523,0,0.013654,0,0,0,0.016559,0.0010239,0.0052748,4.8656,0.0076191,0.013905,9.5834e-08,0.3,0.18,0
0.01794,0.0069316,0.016263,0.0012022,0.0052396,0.0012036,0,0,0.057322,-0.020994,0,0.012517,0,0,0,0.016359,0.0011066,0.0052396,4.5404,0.0075683,0.013663,9.1712e-08,0.32,0.18,0
0.019078,0.0069271,0.016047,0.0012793,0.0051979,0.0010805,0,0,0.056416,-0.020377,0,0.011237,0,0,0,0.016126,0.0012007,0.0051979,4.1626,0.0075081,0.013382,8.7066e-08,0.34,0.18,0
0.020197,0.0068523,0.015811,0.0013316,0.0051429,0.00093558,0,0,0.055476,-0.019819,0,0.00973,0,0,0,0.015872,0.0012714,0.0051429,3.6816,0.0074287,0.013101,8.239e-08,0.36,0.18,0
0.021297,0.0067017,0.015564,0.0012851,0.0050548,0.00077433,0,0,0.054649,-0.019603,0,0.008053,0,0,0,0.015606,0.0012432,0.0050548,3.0949,0.0073014,0.012887,7.837e-08,0.38,0.18,0
0.022383,0.0064733,0.015336,0.0010804,0.0049248,0.0006482,0,0,0.054136,-0.019991,0,0.0067413,0,0,0,0.015365,0.001051,0.0049248,2.5982,0.0071136,0.012824,7.5919e-08,0.4,0.18,0
0.023463,0.0061778,0.01505,0.00062121,0.0047013,0.00061311,0,0,0.053812,-0.021216,0,0.0063764,0,0,0,0.015076,0.0005952,0.0047013,2.4288,0.0067907,0.012926,7.4365e-08,0.42,0.18,0
0.024535,0.0058305,0.014847,0.00014867,0.0044986,0.00080974,0,0,0.05381,-0.02262,0,0.0084213,0,0,0,0.014891,0.00010419,0.0044986,3.1438,0.006498,0.013152,7.4396e-08,0.44,0.18,0
0.025615,0.0054745,0.014249,-0.00064168,0.0040821,0.0010873,0,0,0.052866,-0.024564,0,0.011308,0,0,0,0.014328,-0.00072066,0.0040821,4.1545,0.0058964,0.013313,7.0181e-08,0.46,0.18,0
0.02665,0.0050947,0.014703,-0.00073117,0.0041916,0.0019482,0,0,0.054661,-0.025599,0,0.020261,0,0,0,0.014945,-0.00097328,0.0041916,7.0841,0.0060546,0.014066,8.0709e-08,0.48,0.18,0
0.027801,0.0047796,0.017863,-0.0017703,0.0048279,0.0022374,0,0,0.034143,-0.015643,0,0.014184,0,0,0,0.018143,-0.0020505,0.0048279,7.2199,0.0069736,0.01779,1.8853e-07,0.5,0.18,0
0.02825,0.0046707,0.0152,0.00011583,0.0045949,0.0017552,0,0,0.022059,-0.011413,0,0.013769,0,0,0,0.015585,-0.00026895,0.0045949,9.8205,0.006637,0.014108,1.6752e-07,0.52,0.18,0
0.028684,0.0046671,0.015118,0.00027845,0.0046188,0.0012827,0,0,0.021838,-0.010019,0,0.0091299,0,0,0,0.015306,9.0374e-05,0.0046188,7.5166,0.0066717,0.013542,1.6225e-07,0.54,0.18,0
0.029123,0.0046809,0.015393,0.00054164,0.0047805,0.00064594,0,0,0.022075,-0.0093862,0,0.004632,0,0,0,0.015445,0.00049023,0.0047805,4.066,0.0069051,0.01334,1.6624e-07,0.56,0.18,0
0.029567,0.0047119,0.015523,0.00063801,0.0048483,0.00013924,0,0,0.022203,-0.0091563,0,0.0010235,0,0,0,0.015525,0.00063543,0.0048483,0.92024,0.0070031,0.013295,1.687e-07,0.58,0.18,0
0.030012,0.0047595,0.015523,0.00061776,0.0048422,-0.00033553,0,0,0.022216,-0.0092003,0,-0.002344,0,0,0,0.015536,0.00060445,0.0048422,-2.0981,0.0069943,0.01333,1.691e-07,0.6,0.18,0
0.030455,0.0048241,0.015396,0.00047936,0.0047626,-0.00083749,0,0,0.022117,-0.0095249,0,-0.005925,0,0,0,0.015478,0.00039671,0.0047626,-5.1198,0.0068793,0.013445,1.6752e-07,0.62,0.18,0
0.030896,0.0049071,0.015128,0.00016512,0.004588,-0.0014662,0,0,0.021923,-0.010275,0,-0.010372,0,0,0,0.015365,-7.191e-05,0.004588,-8.3337,0.0066271,0.013727,1.6466e-07,0.64,0.18,0
0.031332,0.0050098,0.015257,-4.1851e-05,0.0045646,-0.0019015,0,0,0.022241,-0.011832,0,-0.014828,0,0,0,0.01569,-0.00047419,0.0045646,-10.269,0.0065934,0.01437,1.7197e-07,0.66,0.18,0
0.031786,0.0052263,0.017889,-0.0021599,0.0047186,-0.002342,0,0,0.034467,-0.016308,0,-0.01474,0,0,0,0.018187,-0.0024584,0.0047186,-7.3719,0.0068157,0.018162,1.9232e-07,0.68,0.18,0
0.032947,0.0056617,0.014679,-0.0010783,0.0040801,-0.0019641,0,0,0.055113,-0.026824,0,-0.020427,0,0,0,0.01492,-0.0013195,0.0040801,-6.9993,0.0058935,0.014324,8.186e-08,0.7,0.18,0
0.03399,0.0061724,0.014186,-0.001042,0.0039431,-0.0010388,0,0,0.053261,-0.025922,0,-0.010803,0,0,0,0.014256,-0.0011125,0.0039431,-3.8846,0.0056956,0.013567,7.0818e-08,0.72,0.18,0
0.035077,0.0066747,0.014743,-0.00031212,0.0043292,-0.00067526,0,0,0.05415,-0.024135,0,-0.0070228,0,0,0,0.014773,-0.00034235,0.0043292,-2.5631,0.0062532,0.013405,7.4964e-08,0.74,0.18,0
0.036156,0.0071846,0.014913,0.00012633,0.0045118,-0.00038775,0,0,0.054087,-0.022805,0,-0.0040326,0,0,0,0.014923,0.00011617,0.0045118,-1.5011,0.0065171,0.013171,7.4812e-08,0.76,0.18,0
0.037241,0.0076602,0.01516,0.0005574,0.0047152,-0.00032761,0,0,0.054313,-0.021621,0,-0.0034072,0,0,0,0.015168,0.00055005,0.0047152,-1.2846,0.0068109,0.013043,7.6023e-08,0.78,0.18,0
0.038329,0.0080857,0.015351,0.00073505,0.0048257,-0.00035923,0,0,0.05473,-0.021271,0,-0.003736,0,0,0,0.015359,0.00072623,0.0048257,-1.4071,0.0069705,0.013075,7.7899e-08,0.8,0.18,0
0.03943,0.0084499,0.01556,0.00074244,0.0048908,-0.00042367,0,0,0.055481,-0.021571,0,-0.0044062,0,0,0,0.015572,0.00073034,0.0048908,-1.6364,0.0070645,0.013261,8.122e-08,0.82,0.18,0
0.040548,0.0087548,0.015762,0.00063339,0.0049185,-0.00046537,0,0,0.056384,-0.022283,0,-0.0048399,0,0,0,0.015776,0.00061909,0.0049185,-1.7603,0.0071045,0.01353,8.524e-08,0.84,0.18,0
0.041685,0.0090061,0.015947,0.00047803,0.0049275,-0.00047328,0,0,0.057301,-0.023137,0,-0.0049222,0,0,0,0.015961,0.00046356,0.0049275,-1.7508,0.0071175,0.013818,8.9356e-08,0.86,0.18,0
0.04284,0.009211,0.016103,0.00031093,0.0049242,-0.00045081,0,0,0.058131,-0.023989,0,-0.0046884,0,0,0,0.016116,0.00029807,0.0049242,-1.6338,0.0071128,0.014087,9.3103e-08,0.88,0.18,0
0.044011,0.0093753,0.016228,0.00015156,0.004914,-0.00040501,0,0,0.058835,-0.024764,0,-0.0042121,0,0,0,0.016238,0.00014136,0.004914,-1.4422,0.0070979,0.01432,9.6289e-08,0.9,0.18,0
0.045194,0.0095038,0.016325,1.1743e-05,0.0049009,-0.00034187,0,0,0.059403,-0.025424,0,-0.0035555,0,0,0,0.016332,4.5816e-06,0.0049009,-1.2001,0.0070791,0.014512,9.886e-08,0.92,0.18,0
0.046387,0.0096002,0.016396,-0.00010154,0.0048882,-0.00026621,0,0,0.059838,-0.025947,0,-0.0027685,0,0,0,0.0164,-0.00010583,0.0048882,-0.92424,0.0070607,0.014661,1.0082e-07,0.94,0.18,0
0.047587,0.0096672,0.016444,-0.00018435,0.0048778,-0.00018192,0,0,0.060143,-0.026323,0,-0.0018919,0,0,0,0.016446,-0.00018634,0.0048778,-0.62674,0.0070457,0.014766,1.0219e-07,0.96,0.18,0
0.048792,0.0097067,0.016472,-0.00023464,0.0048711,-9.2247e-05,0,0,0.060323,-0.02655,0,-0.00095937,0,0,0,0.016472,-0.00023515,0.0048711,-0.31636,0.0070361,0.014829,1.0299e-07,0.98,0.18,0
0.05,0.0097197,0.016481,-0.0002515,0.0048688,6.2724e-05,0,0,0.060383,-0.026626,0,0.00065233,0,0,0,0.016481,-0.00025173,0.0048688,0.21478,0.0070327,0.01485,1.0327e-07,1,0.18,0
0,0,0.015894,0.0068118,0.0068118,0.0030824,0,0,0.047228,1.0842e-19,0,0.032057,0,0,0,0.016841,0.0058645,0.0068118,17.084,0.0098393,0.010535,5.8424e-08,0,0.2,0
0.00094457,0.00064115,0.01583,0.0060476,0.0065633,0.0030732,0,0,0.048187,-0.0026816,0,0.031961,0,0,0,0.016715,0.0051623,0.0065633,16.071,0.0094803,0.01092,6.3187e-08,0.02,0.2,0
0.0019275,0.0012697,0.016079,0.0054015,0.0064442,0.0030231,0,0,0.050101,-0.0054219,0,0.03144,0,0,0,0.016876,0.004605,0.0064442,14.76,0.0093082,0.011462,7.0678e-08,0.04,0.2,0
0.0029486,0.0018823,0.016318,0.0047562,0.0063222,0.0029487,0,0,0.051977,-0.0081431,0,0.030666,0,0,0,0.017026,0.0040476,0.0063222,13.513,0.0091321,0.012004,7.82e-08,0.06,0.2,0
0.0040066,0.0024739,0.016538,0.0041329,0.0062012,0.0028455,0,0,0.05375,-0.010755,0,0.029594,0,0,0,0.017159,0.0035113,0.0062012,12.322,0.0089573,0.012522,8.536e-08,0.08,0.2,0
0.0050986,0.0030389,0.016732,0.0035508,0.0060847,0.002716,0,0,0.055364,-0.013176,0,0.028247,0,0,0,0.017269,0.0030131,0.0060847,11.199,0.008789,0.012996,9.1844e-08,0.1,0.2,0
0.0062211,0.0035717,0.016894,0.0030247,0.0059756,0.0025671,0,0,0.056776,-0.015345,0,0.026697,0,0,0,0.017354,0.0025648,0.0059756,10.157,0.0086315,0.013413,9.7444e-08,0.12,0.2,0
0.0073697,0.0040679,0.017023,0.0025635,0.005876,0.0024076,0,0,0.057966,-0.017225,0,0.025039,0,0,0,0.017414,0.0021732,0.005876,9.2089,0.0084876,0.013768,1.0206e-07,0.14,0.2,0
0.0085398,0.004524,0.01712,0.0021715,0.0057873,0.0022465,0,0,0.058928,-0.018803,0,0.023363,0,0,0,0.01745,0.0018411,0.0057873,8.3644,0.0083595,0.014058,1.0568e-07,0.16,0.2,0
0.0097268,0.0049372,0.017185,0.001849,0.0057103,0.0020911,0,0,0.05967,-0.020078,0,0.021748,0,0,0,0.017465,0.001569,0.0057103,7.6269,0.0082482,0.014283,1.0833e-07,0.18,0.2,0
0.010927,0.0053059,0.017223,0.0015946,0.0056451,0.001947,0,0,0.060203,-0.021063,0,0.020249,0,0,0,0.017462,0.0013556,0.0056451,6.9958,0.0081541,0.014447,1.1007e-07,0.2,0.2,0
0.012135,0.0056287,0.017234,0.0014052,0.0055918,0.0018175,0,0,0.06054,-0.02177,0,0.018902,0,0,0,0.01744,0.0011992,0.0055918,6.4667,0.008077,0.014551,1.1097e-07,0.22,0.2,0
0.013348,0.0059046,0.017221,0.0012776,0.0055497,0.001704,0,0,0.060692,-0.022215,0,0.017721,0,0,0,0.017401,0.0010975,0.0055497,6.0327,0.0080162,0.014596,1.1105e-07,0.24,0.2,0
0.014563,0.0061324,0.017184,0.001208,0.0055176,0.0016061,0,0,0.060665,-0.02241,0,0.016703,0,0,0,0.017344,0.0010481,0.0055176,5.6841,0.0079699,0.014584,1.1032e-07,0.26,0.2,0
0.015775,0.0063105,0.017121,0.0011919,0.0054938,0.0015217,0,0,0.060459,-0.02237,0,0.015825,0,0,0,0.017265,0.0010479,0.0054938,5.4083,0.0079354,0.014514,1.0878e-07,0.28,0.2,0
0.016981,0.0064364,0.017027,0.0012234,0.0054752,0.0014466,0,0,0.060071,-0.022109,0,0.015044,0,0,0,0.017159,0.0010921,0.0054752,5.1871,0.0079086,0.014385,1.0638e-07,0.3,0.2,0
0.018178,0.0065063,0.016898,0.0012931,0.0054574,0.0013734,0,0,0.059492,-0.021654,0,0.014283,0,0,0,0.017018,0.0011732,0.0054574,4.9914,0.0078829,0.014196,1.0308e-07,0.32,0.2,0
0.019361,0.0065143,0.016727,0.001385,0.0054337,0.0012893,0,0,0.058727,-0.021053,0,0.013409,0,0,0,0.016835,0.0012774,0.0054337,4.7702,0.0078487,0.013952,9.8878e-08,0.34,0.2,0
0.020527,0.0064516,0.016522,0.0014711,0.005398,0.0011729,0,0,0.057846,-0.02042,0,0.012198,0,0,0,0.016613,0.0013803,0.005398,4.4294,0.0077972,0.013674,9.4104e-08,0.36,0.2,0
0.021674,0.0063051,0.016333,0.0014855,0.0053454,0.0010133,0,0,0.057134,-0.020072,0,0.010538,0,0,0,0.016401,0.0014167,0.0053454,3.8863,0.0077212,0.013458,9.0147e-08,0.38,0.2,0
0.022812,0.0060673,0.016121,0.0012029,0.0051973,0.00083495,0,0,0.056805,-0.020771,0,0.0086835,0,0,0,0.016168,0.0011563,0.0051973,3.1934,0.0075072,0.013454,8.8092e-08,0.4,0.2,0
0.023947,0.0057372,0.016052,0.00067815,0.005019,0.00082591,0,0,0.05737,-0.022572,0,0.0085895,0,0,0,0.016096,0.0006339,0.005019,3.0663,0.0072496,0.013802,9.0518e-08,0.42,0.2,0
0.025107,0.0053594,0.015638,-0.00037976,0.0045776,0.00093092,0,0,0.057517,-0.025778,0,0.0096815,0,0,0,0.015692,-0.00043368,0.0045776,3.3149,0.0066121,0.014295,9.025e-08,0.44,0.2,0
0.026247,0.0049341,0.016359,-0.0006745,0.0047055,0.0016332,0,0,0.060601,-0.027976,0,0.016985,0,0,0,0.016515,-0.00082968,0.0047055,5.4276,0.0067968,0.015345,1.0747e-07,0.46,0.2,0
0.027531,0.0045544,0.020437,-0.00078604,0.0058953,0.0016232,0,0,0.038076,-0.016925,0,0.010978,0,0,0,0.020583,-0.00093149,0.0058953,4.9839,0.0085155,0.019042,2.6825e-07,0.48,0.2,0
0.028031,0.0045307,0.013503,-0.0015073,0.0035986,0.00069683,0,0,0.022261,-0.011305,0,0.0056811,0,0,0,0.013573,-0.0015779,0.0035986,4.3528,0.005198,0.013339,1.1072e-07,0.5,0.2,0
0.028366,0.0045123,0.019164,-0.00037448,0.0056367,0.00076096,0,0,0.017585,-0.0078146,0,0.0019785,0,0,0,0.019193,-0.00040407,0.0056367,2.227,0.008142,0.017383,1.6405e-07,0.52,0.2,0
0.028735,0.0044998,0.021106,0.00034458,0.0064353,0.00048131,0,0,0.019072,-0.0079179,0,0.0012514,0,0,0,0.021118,0.00033343,0.0064353,1.3273,0.0092954,0.018504,2.1011e-07,0.54,0.2,0
0.029129,0.0045122,0.022241,0.00072364,0.0068895,0.00028623,0,0,0.019957,-0.0080156,0,0.0007442,0,0,0,0.022245,0.00071984,0.0068895,0.76198,0.0099515,0.019199,2.4095e-07,0.56,0.2,0
0.029533,0.0045421,0.02265,0.00083839,0.0070466,3.3753e-05,0,0,0.020285,-0.0080707,0,8.7758e-05,0,0,0,0.02265,0.00083834,0.0070466,0.088663,0.010178,0.019465,2.5295e-07,0.58,0.2,0
0.02994,0.0045893,0.022638,0.00081302,0.0070354,-0.0002165,0,0,0.020284,-0.0080891,0,-0.00056289,0,0,0,0.022641,0.00081088,0.0070354,-0.56827,0.010162,0.019478,2.5299e-07,0.6,0.2,0
0.030344,0.0046541,0.022203,0.00064429,0.0068542,-0.00046391,0,0,0.019954,-0.0080729,0,-0.0012062,0,0,0,0.022213,0.00063431,0.0068542,-1.2322,0.0099006,0.019238,2.4099e-07,0.62,0.2,0
0.030738,0.0047375,0.021028,0.00019652,0.0063673,-0.00064501,0,0,0.019059,-0.0080221,0,-0.001677,0,0,0,0.021048,0.00017657,0.0063673,-1.7718,0.0091973,0.018567,2.0976e-07,0.64,0.2,0
0.031107,0.0048481,0.019045,-0.00061143,0.00553,-0.00091133,0,0,0.017569,-0.0079838,0,-0.0023695,0,0,0,0.019087,-0.00065359,0.00553,-2.6489,0.0079878,0.017489,1.6344e-07,0.66,0.2,0
0.031441,0.0049668,0.013387,-0.0018335,0.0034659,-0.00079033,0,0,0.022314,-0.011754,0,-0.0061352,0,0,0,0.013466,-0.001913,0.0034659,-4.6479,0.0050064,0.013518,1.0968e-07,0.68,0.2,0
0.031943,0.0050939,0.020285,-0.0013316,0.0056861,-0.0016472,0,0,0.038246,-0.017779,0,-0.01098,0,0,0,0.02043,-0.001476,0.0056861,-4.9283,0.0082133,0.019347,2.6822e-07,0.7,0.2,0
0.033234,0.0056026,0.016257,-0.0011777,0.0045236,-0.0015508,0,0,0.061011,-0.029647,0,-0.016128,0,0,0,0.016393,-0.0013146,0.0045236,-5.0437,0.0065342,0.015629,1.0787e-07,0.72,0.2,0
0.034384,0.00617,0.015527,-0.0009251,0.0043805,-0.00077175,0,0,0.05796,-0.027589,0,-0.0080262,0,0,0,0.015563,-0.00096122,0.0043805,-2.6799,0.0063273,0.014605,9.0865e-08,0.74,0.2,0
0.035552,0.006709,0.015902,8.0221e-05,0.0047948,-0.00056492,0,0,0.057759,-0.024516,0,-0.0058751,0,0,0,0.015922,6.0077e-05,0.0047948,-2.0422,0.0069258,0.014104,9.1267e-08,0.76,0.2,0
0.036694,0.0072182,0.015947,0.00058816,0.0049605,-0.00047834,0,0,0.057128,-0.022736,0,-0.0049748,0,0,0,0.015962,0.00057328,0.0049605,-1.7822,0.0071651,0.013731,8.8637e-08,0.78,0.2,0
0.037837,0.0076522,0.016127,0.00084493,0.0050916,-0.00056381,0,0,0.057385,-0.022083,0,-0.0058636,0,0,0,0.016148,0.00082416,0.0050916,-2.11,0.0073545,0.013698,9.01e-08,0.8,0.2,0
0.03899,0.0080103,0.016294,0.00078975,0.005125,-0.00063316,0,0,0.058077,-0.022543,0,-0.0065848,0,0,0,0.016319,0.00076394,0.005125,-2.3347,0.0074028,0.013898,9.349e-08,0.82,0.2,0
0.04016,0.0082995,0.016483,0.00063668,0.0051358,-0.00065302,0,0,0.059004,-0.023395,0,-0.0067914,0,0,0,0.016509,0.00060981,0.0051358,-2.3559,0.0074184,0.014189,9.7962e-08,0.84,0.2,0
0.04135,0.0085327,0.016646,0.00045105,0.0051292,-0.00062803,0,0,0.059889,-0.024327,0,-0.0065316,0,0,0,0.016671,0.00042673,0.0051292,-2.2174,0.0074089,0.014477,1.0222e-07,0.86,0.2,0
0.042556,0.0087198,0.016776,0.00026069,0.0051109,-0.00057393,0,0,0.060657,-0.025221,0,-0.0059688,0,0,0,0.016796,0.00024077,0.0051109,-1.9879,0.0073824,0.014736,1.0588e-07,0.88,0.2,0
0.043776,0.0088681,0.016875,8.3824e-05,0.0050877,-0.00050012,0,0,0.061295,-0.02602,0,-0.0052013,0,0,0,0.01689,6.8941e-05,0.0050877,-1.7045,0.0073489,0.014957,1.089e-07,0.9,0.2,0
0.045008,0.0089832,0.01695,-6.871e-05,0.0050643,-0.00041269,0,0,0.061804,-0.026692,0,-0.0042919,0,0,0,0.01696,-7.8711e-05,0.0050643,-1.3883,0.0073151,0.015137,1.1129e-07,0.92,0.2,0
0.046248,0.0090689,0.017004,-0.00019074,0.0050439,-0.00031605,0,0,0.062191,-0.02722,0,-0.0032869,0,0,0,0.01701,-0.00019655,0.0050439,-1.0527,0.0072856,0.015275,1.1308e-07,0.94,0.2,0
0.047495,0.0091283,0.01704,-0.00027916,0.0050282,-0.00021352,0,0,0.06246,-0.027598,0,-0.0022206,0,0,0,0.017042,-0.00028179,0.0050282,-0.70624,0.0072629,0.015373,1.1433e-07,0.96,0.2,0
0.048747,0.0091632,0.01706,-0.00033256,0.0050184,-0.00010755,0,0,0.062619,-0.027825,0,-0.0011185,0,0,0,0.017061,-0.00033323,0.0050184,-0.35426,0.0072487,0.015431,1.1505e-07,0.98,0.2,0
0.05,0.0091747,0.017067,-0.00035041,0.005015,5.5368e-05,0,0,0.062671,-0.0279,0,0.00057583,0,0,0,0.017067,-0.00035058,0.005015,0.18213,0.0072439,0.01545,1.153e-07,1,0.2,0
0,0,0.015976,0.0068469,0.0068469,0.0028256,0,0,0.047472,-9.7578e-19,0,0.029386,0,0,0,0.01678,0.0060431,0.0068469,15.879,0.0098899,0.010358,5.5922e-08,0,0.22,0
0.00094943,0.00058772,0.015911,0.0060852,0.0065988,0.0028182,0,0,0.048423,-0.0026711,0,0.029309,0,0,0,0.016662,0.0053342,0.0065988,14.92,0.0095316,0.010751,6.0859e-08,0.02,0.22,0
0.0019369,0.0011623,0.016161,0.0054573,0.0064856,0.0027731,0,0,0.050314,-0.0053472,0,0.02884,0,0,0,0.016837,0.0047816,0.0064856,13.695,0.0093681,0.0113,6.8466e-08,0.04,0.22,0
0.002962,0.0017215,0.016404,0.004838,0.0063725,0.0027117,0,0,0.052162,-0.0079794,0,0.028202,0,0,0,0.017008,0.0042338,0.0063725,12.562,0.0092047,0.01185,7.6171e-08,0.06,0.22,0
0.0040234,0.0022619,0.016632,0.0042413,0.0062619,0.0026295,0,0,0.053923,-0.010507,0,0.027347,0,0,0,0.017167,0.0037063,0.0062619,11.499,0.009045,0.012382,8.3669e-08,0.08,0.22,0
0.0051189,0.002779,0.016841,0.0036812,0.0061565,0.002527,0,0,0.055557,-0.012872,0,0.02628,0,0,0,0.017309,0.0032126,0.0061565,10.505,0.0088927,0.012879,9.0698e-08,0.1,0.22,0
0.0062457,0.0032686,0.017026,0.0031693,0.0060585,0.0024081,0,0,0.05703,-0.015024,0,0.025045,0,0,0,0.017432,0.0027627,0.0060585,9.5833,0.0087512,0.013331,9.706e-08,0.12,0.22,0
0.0074001,0.0037269,0.017185,0.0027139,0.0059698,0.0022793,0,0,0.058321,-0.016931,0,0.023705,0,0,0,0.017536,0.0023633,0.0059698,8.7424,0.008623,0.013729,1.0264e-07,0.14,0.22,0
0.0085785,0.0041506,0.017319,0.0023198,0.0058916,0.0021474,0,0,0.059422,-0.018574,0,0.022333,0,0,0,0.01762,0.0020184,0.0058916,7.9892,0.0085101,0.014071,1.0738e-07,0.16,0.22,0
0.009777,0.0045373,0.017428,0.0019892,0.005825,0.0020188,0,0,0.060334,-0.019947,0,0.020996,0,0,0,0.017687,0.0017295,0.005825,7.3282,0.0084139,0.014355,1.1127e-07,0.18,0.22,0
0.010992,0.004885,0.017513,0.0017222,0.0057706,0.0018989,0,0,0.061061,-0.021052,0,0.019748,0,0,0,0.017738,0.001497,0.0057706,6.7615,0.0083353,0.014582,1.1434e-07,0.2,0.22,0
0.012219,0.0051923,0.017577,0.0015178,0.0057285,0.0017914,0,0,0.061613,-0.021895,0,0.01863,0,0,0,0.017775,0.0013204,0.0057285,6.2881,0.0082745,0.014753,1.1662e-07,0.22,0.22,0
0.013456,0.0054578,0.017622,0.0013745,0.0056989,0.0016986,0,0,0.061999,-0.022487,0,0.017666,0,0,0,0.017797,0.0011988,0.0056989,5.9052,0.0082317,0.014868,1.1815e-07,0.24,0.22,0
0.014699,0.0056803,0.017647,0.0012899,0.0056812,0.0016216,0,0,0.062224,-0.022835,0,0.016864,0,0,0,0.017806,0.0011307,0.0056812,5.6072,0.0082061,0.01493,1.1892e-07,0.26,0.22,0
0.015945,0.0058577,0.017654,0.0012612,0.0056745,0.0015595,0,0,0.062293,-0.022949,0,0.016219,0,0,0,0.017801,0.0011141,0.0056745,5.3865,0.0081966,0.014938,1.1895e-07,0.28,0.22,0
0.017191,0.0059875,0.017639,0.0012843,0.0056771,0.0015102,0,0,0.062204,-0.022843,0,0.015706,0,0,0,0.017778,0.001146,0.0056771,5.2317,0.0082003,0.014892,1.182e-07,0.3,0.22,0
0.018433,0.0060654,0.017599,0.0013525,0.0056854,0.0014687,0,0,0.06195,-0.022531,0,0.015274,0,0,0,0.01773,0.0012208,0.0056854,5.1242,0.0082122,0.014792,1.1659e-07,0.32,0.22,0
0.019669,0.006085,0.017521,0.0014538,0.0056926,0.0014251,0,0,0.06151,-0.022041,0,0.014821,0,0,0,0.017647,0.0013284,0.0056926,5.0295,0.0082226,0.014633,1.1398e-07,0.34,0.22,0
0.020894,0.0060355,0.017385,0.001563,0.0056845,0.0013569,0,0,0.060844,-0.021432,0,0.014112,0,0,0,0.017501,0.0014475,0.0056845,4.8664,0.0082109,0.01441,1.1006e-07,0.36,0.22,0
0.022103,0.0058989,0.017219,0.0016513,0.0056612,0.0012086,0,0,0.060102,-0.020851,0,0.012569,0,0,0,0.017312,0.0015581,0.0056612,4.4127,0.0081772,0.014156,1.0549e-07,0.38,0.22,0
0.023298,0.0056425,0.01723,0.0015651,0.0056387,0.00099618,0,0,0.060277,-0.021182,0,0.01036,0,0,0,0.017294,0.001502,0.0056387,3.624,0.0081448,0.014183,1.056e-07,0.4,0.22,0
0.024514,0.0052749,0.016836,0.00038024,0.0051649,0.00080159,0,0,0.06069,-0.02488,0,0.0083365,0,0,0,0.016875,0.00034129,0.0051649,2.7822,0.0074604,0.014727,1.0667e-07,0.42,0.22,0
0.025726,0.0047994,0.017587,-0.00039634,0.0051573,0.0013384,0,0,0.064637,-0.028879,0,0.013919,0,0,0,0.017687,-0.0004954,0.0051573,4.2329,0.0074495,0.016117,1.2926e-07,0.44,0.22,0
0.027099,0.0043554,0.022003,-0.00040514,0.0064792,0.0009388,0,0,0.04069,-0.017692,0,0.0077134,0,0,0,0.022068,-0.0004702,0.0064792,3.0593,0.0093589,0.019991,3.2434e-07,0.46,0.22,0
0.027633,0.0043168,0.014572,-0.00068795,0.0041652,-8.2039e-05,0,0,0.023537,-0.010764,0,0.00098151,0,0,0,0.014583,-0.00069906,0.0041652,0.59766,0.0060164,0.013523,1.3024e-07,0.48,0.22,0
0.027978,0.0043502,0.019377,-0.0013724,0.0054015,-0.00057873,0,0,0.018169,-0.0088061,0,-0.0015047,0,0,0,0.019394,-0.0013886,0.0054015,-1.5964,0.0078022,0.018354,1.7733e-07,0.5,0.22,0
0.02836,0.0043581,0.020787,3.5009e-05,0.0062466,-0.00047326,0,0,0.018902,-0.008075,0,-0.0012305,0,0,0,0.020798,2.4221e-05,0.0062466,-1.3058,0.0090228,0.018466,2.0396e-07,0.52,0.22,0
0.028734,0.0043504,0.020914,0.00066449,0.0064737,-0.00032913,0,0,0.018773,-0.0075519,0,-0.00085575,0,0,0,0.02092,0.00065914,0.0064737,-0.93094,0.0093508,0.018069,2.006e-07,0.54,0.22,0
0.029111,0.0043603,0.02123,0.00087488,0.0066314,-0.00015354,0,0,0.018978,-0.0074834,0,-0.00039921,0,0,0,0.021231,0.00087372,0.0066314,-0.43217,0.0095787,0.018176,2.0728e-07,0.56,0.22,0
0.029493,0.0043891,0.021469,0.0009802,0.0067348,-8.9589e-05,0,0,0.019155,-0.007481,0,-0.00023293,0,0,0,0.02147,0.00097981,0.0067348,-0.25052,0.0097281,0.018304,2.1318e-07,0.58,0.22,0
0.029877,0.004436,0.021447,0.00095102,0.0067195,-6.2011e-05,0,0,0.019146,-0.007499,0,-0.00016123,0,0,0,0.021447,0.00095083,0.0067195,-0.17334,0.0097059,0.018307,2.1286e-07,0.6,0.22,0
0.030259,0.0045011,0.021161,0.00078425,0.0065837,1.1412e-05,0,0,0.018951,-0.0075392,0,2.9672e-05,0,0,0,0.021161,0.00078425,0.0065837,0.032089,0.0095098,0.018185,2.0626e-07,0.62,0.22,0
0.030635,0.0045863,0.020801,0.00050476,0.0063918,0.00020553,0,0,0.018732,-0.0076531,0,0.00053437,0,0,0,0.020803,0.00050268,0.0063918,0.58012,0.0092326,0.01809,1.9896e-07,0.64,0.22,0
0.031008,0.0046904,0.020629,-0.0002315,0.0061192,0.00037452,0,0,0.018863,-0.0082559,0,0.00097375,0,0,0,0.020636,-0.00023823,0.0061192,1.0282,0.0088389,0.018532,2.0192e-07,0.66,0.22,0
0.03139,0.0047805,0.019179,-0.0017886,0.0052171,0.00048353,0,0,0.01815,-0.0091074,0,0.0012572,0,0,0,0.01919,-0.0017998,0.0052171,1.3204,0.0075358,0.018507,1.7492e-07,0.68,0.22,0
0.031734,0.0048444,0.014421,-0.001081,0.004002,4.0911e-05,0,0,0.023574,-0.011286,0,-0.0011506,0,0,0,0.014431,-0.0010914,0.004002,-0.72798,0.0057807,0.013706,1.291e-07,0.7,0.22,0
0.032269,0.0049865,0.021744,-0.0011598,0.0061753,-0.00087213,0,0,0.040841,-0.018844,0,-0.0071744,0,0,0,0.021799,-0.0012149,0.0061753,-2.786,0.0089199,0.020352,3.2253e-07,0.72,0.22,0
0.03365,0.0055711,0.017419,-0.0010871,0.0048997,-0.0011531,0,0,0.065102,-0.031131,0,-0.011992,0,0,0,0.017491,-0.0011586,0.0048997,-3.5516,0.0070773,0.016478,1.295e-07,0.74,0.22,0
0.034873,0.006204,0.016683,-0.00031424,0.0049107,-0.00051979,0,0,0.061217,-0.02717,0,-0.0054058,0,0,0,0.016699,-0.00033012,0.0049107,-1.7499,0.0070932,0.015107,1.0791e-07,0.76,0.22,0
0.036098,0.0067507,0.017049,0.00085439,0.0053709,-0.00060776,0,0,0.060725,-0.023486,0,-0.0063207,0,0,0,0.017071,0.00083161,0.0053709,-2.1463,0.007758,0.014513,1.0677e-07,0.78,0.22,0
0.037302,0.0072024,0.017026,0.00093321,0.0053878,-0.00073848,0,0,0.060519,-0.023164,0,-0.0076802,0,0,0,0.01706,0.00089939,0.0053878,-2.6219,0.0077824,0.014449,1.0602e-07,0.8,0.22,0
0.038519,0.0075482,0.017182,0.00079773,0.0053939,-0.00080729,0,0,0.061298,-0.0239,0,-0.0083958,0,0,0,0.017222,0.00075805,0.0053939,-2.814,0.0077912,0.014704,1.1025e-07,0.82,0.22,0
0.039754,0.0078189,0.017326,0.00061269,0.0053817,-0.00079129,0,0,0.062112,-0.024799,0,-0.0082294,0,0,0,0.017364,0.00057531,0.0053817,-2.7046,0.0077735,0.014975,1.1448e-07,0.84,0.22,0
0.041004,0.0080331,0.017423,0.00039933,0.0053467,-0.00073596,0,0,0.062797,-0.025726,0,-0.007654,0,0,0,0.017455,0.00036757,0.0053467,-2.4708,0.007723,0.015221,1.1794e-07,0.86,0.22,0
0.042266,0.0082021,0.017494,0.00018778,0.0053045,-0.00065772,0,0,0.063385,-0.026607,0,-0.0068403,0,0,0,0.017519,0.00016282,0.0053045,-2.1734,0.007662,0.015441,1.2083e-07,0.88,0.22,0
0.043539,0.0083345,0.017547,-4.4625e-06,0.0052627,-0.00056353,0,0,0.063877,-0.027389,0,-0.0058607,0,0,0,0.017565,-2.2537e-05,0.0052627,-1.8371,0.0076017,0.01563,1.2319e-07,0.9,0.22,0
0.044821,0.0084361,0.017586,-0.00016701,0.0052256,-0.00045876,0,0,0.064273,-0.028042,0,-0.0047712,0,0,0,0.017598,-0.00017886,0.0052256,-1.4793,0.0075481,0.015784,1.2505e-07,0.92,0.22,0
0.04611,0.0085114,0.017613,-0.00029515,0.0051954,-0.00034763,0,0,0.064572,-0.028551,0,-0.0036154,0,0,0,0.01762,-0.00030189,0.0051954,-1.1117,0.0075044,0.015902,1.2642e-07,0.94,0.22,0
0.047404,0.0085633,0.017631,-0.00038701,0.0051731,-0.00023306,0,0,0.064779,-0.028913,0,-0.0024238,0,0,0,0.017634,-0.00039003,0.0051731,-0.74095,0.0074722,0.015985,1.2736e-07,0.96,0.22,0
0.048701,0.0085937,0.01764,-0.00044213,0.0051595,-0.00011684,0,0,0.064901,-0.029128,0,-0.0012151,0,0,0,0.017641,-0.00044288,0.0051595,-0.3702,0.0074526,0.016035,1.279e-07,0.98,0.22,0
0.05,0.0086037,0.017643,-0.00046048,0.0051549,4.8214e-05,0,0,0.06494,-0.0292,0,0.00050143,0,0,0,0.017644,-0.00046061,0.0051549,0.15259,0.0074459,0.016051,1.2808e-07,1,0.22,0
0,0,0.016064,0.0068845,0.0068845,0.0025688,0,0,0.047732,-5.421e-19,0,0.026715,0,0,0,0.016734,0.0062145,0.0068845,14.618,0.0099442,0.010201,5.3723e-08,0,0.24,0
0.00095465,0.0005343,0.015998,0.0061212,0.0066356,0.0025627,0,0,0.048682,-0.0026747,0,0.026652,0,0,0,0.016623,0.0054959,0.0066356,13.714,0.0095848,0.010603,5.8846e-08,0.02,0.24,0
0.0019473,0.0010558,0.01625,0.0055051,0.0065265,0.0025223,0,0,0.050562,-0.0053115,0,0.026232,0,0,0,0.016813,0.0049425,0.0065265,12.575,0.0094272,0.011163,6.6615e-08,0.04,0.24,0
0.0029771,0.0015632,0.016496,0.0049041,0.0064199,0.0024707,0,0,0.052394,-0.0078821,0,0.025696,0,0,0,0.017,0.0043995,0.0064199,11.544,0.0092732,0.011722,7.4505e-08,0.06,0.24,0
0.004043,0.0020536,0.016731,0.0043276,0.0063175,0.0024038,0,0,0.054149,-0.010347,0,0.024999,0,0,0,0.01718,0.003878,0.0063175,10.593,0.0091253,0.012266,8.2284e-08,0.08,0.24,0
0.0051431,0.002524,0.016952,0.0037853,0.0062211,0.0023209,0,0,0.055799,-0.012666,0,0.024137,0,0,0,0.017349,0.0033882,0.0062211,9.7102,0.008986,0.012782,8.9745e-08,0.1,0.24,0
0.006275,0.0029708,0.017155,0.0032862,0.0061325,0.0022246,0,0,0.057319,-0.014801,0,0.023136,0,0,0,0.017504,0.0029381,0.0061325,8.8929,0.008858,0.01326,9.672e-08,0.12,0.24,0
0.0074358,0.0033907,0.01734,0.0028372,0.0060533,0.0021192,0,0,0.058693,-0.016724,0,0.02204,0,0,0,0.017644,0.0025338,0.0060533,8.1452,0.0087436,0.013694,1.0309e-07,0.14,0.24,0
0.0086227,0.003781,0.017506,0.0024431,0.0059847,0.0020101,0,0,0.059911,-0.018417,0,0.020905,0,0,0,0.01777,0.0021795,0.0059847,7.4719,0.0086446,0.014079,1.088e-07,0.16,0.24,0
0.0098323,0.0041394,0.017653,0.0021069,0.005928,0.0019028,0,0,0.06097,-0.01987,0,0.019789,0,0,0,0.017883,0.0018774,0.005928,6.8774,0.0085627,0.014413,1.1382e-07,0.18,0.24,0
0.011062,0.0044638,0.017783,0.00183,0.0058839,0.0018019,0,0,0.061876,-0.02108,0,0.01874,0,0,0,0.017984,0.001629,0.0058839,6.3647,0.008499,0.014697,1.1815e-07,0.2,0.24,0
0.012307,0.0047529,0.017898,0.0016127,0.0058532,0.0017114,0,0,0.062632,-0.022051,0,0.017798,0,0,0,0.018076,0.0014348,0.0058532,5.9347,0.0084546,0.01493,1.2182e-07,0.22,0.24,0
0.013567,0.0050051,0.018,0.0014549,0.0058364,0.0016338,0,0,0.06325,-0.022784,0,0.016991,0,0,0,0.01816,0.0012951,0.0058364,5.5858,0.0084304,0.015114,1.2486e-07,0.24,0.24,0
0.014837,0.005219,0.018091,0.0013559,0.0058342,0.0015703,0,0,0.063737,-0.023287,0,0.016331,0,0,0,0.018237,0.0012098,0.0058342,5.3144,0.0084271,0.015251,1.273e-07,0.26,0.24,0
0.016116,0.0053925,0.018175,0.0013146,0.0058469,0.0015209,0,0,0.064106,-0.023568,0,0.015817,0,0,0,0.018311,0.0011785,0.0058469,5.1134,0.0084455,0.015341,1.2917e-07,0.28,0.24,0
0.017402,0.0055227,0.018254,0.001329,0.0058748,0.0014837,0,0,0.06437,-0.023638,0,0.01543,0,0,0,0.018383,0.0011999,0.0058748,4.9722,0.0084858,0.015388,1.3055e-07,0.3,0.24,0
0.018691,0.0056051,0.018331,0.0013953,0.0059179,0.0014551,0,0,0.064548,-0.023517,0,0.015133,0,0,0,0.018455,0.0012712,0.0059179,4.8752,0.0085481,0.015396,1.3147e-07,0.32,0.24,0
0.019984,0.0056327,0.018407,0.0015061,0.005974,0.0014287,0,0,0.064653,-0.023233,0,0.014858,0,0,0,0.018527,0.0013861,0.005974,4.7979,0.0086291,0.01537,1.3198e-07,0.34,0.24,0
0.021277,0.0055943,0.018472,0.0016463,0.0060356,0.0013928,0,0,0.064671,-0.022824,0,0.014485,0,0,0,0.018587,0.0015318,0.0060356,4.7001,0.008718,0.015308,1.319e-07,0.36,0.24,0
0.02257,0.0054711,0.018421,0.0017467,0.0060504,0.0013024,0,0,0.064329,-0.022379,0,0.013545,0,0,0,0.018522,0.0016456,0.0060504,4.4394,0.0087394,0.015162,1.2939e-07,0.38,0.24,0
0.02385,0.00522,0.018307,0.001804,0.0060334,0.0010137,0,0,0.063825,-0.021993,0,0.010542,0,0,0,0.01837,0.0017419,0.0060334,3.5017,0.0087149,0.014951,1.2517e-07,0.4,0.24,0
0.025123,0.004742,0.019094,0.00076056,0.0059565,0.0010585,0,0,0.068317,-0.027019,0,0.011009,0,0,0,0.019155,0.00069965,0.0059565,3.2935,0.0086038,0.016469,1.5309e-07,0.42,0.24,0
0.026583,0.0042043,0.023887,-0.0003022,0.0070754,0.00039879,0,0,0.043742,-0.01867,0,0.0049657,0,0,0,0.023919,-0.0003347,0.0070754,1.6227,0.01022,0.021528,4.1708e-07,0.44,0.24,0
0.027165,0.004114,0.01595,-0.00019255,0.0047271,-0.00058034,0,0,0.025509,-0.010922,0,-0.0019647,0,0,0,0.015973,-0.00021574,0.0047271,-1.6469,0.0068281,0.01437,1.6435e-07,0.46,0.24,0
0.027531,0.0041461,0.020765,-0.00055135,0.006064,-0.00085422,0,0,0.019111,-0.0086,0,-0.002221,0,0,0,0.020799,-0.00058553,0.006064,-2.2912,0.0087592,0.018956,2.1024e-07,0.48,0.24,0
0.02793,0.0041785,0.021355,-0.00051141,0.0062532,-0.00054683,0,0,0.019633,-0.0087939,0,-0.0014218,0,0,0,0.021369,-0.00052508,0.0062532,-1.4316,0.0090323,0.019414,2.272e-07,0.5,0.24,0
0.028317,0.0041893,0.021001,-0.00026251,0.0062217,-0.00067972,0,0,0.019214,-0.0084294,0,-0.0017673,0,0,0,0.021023,-0.00028421,0.0062217,-1.829,0.0089869,0.018913,2.1395e-07,0.52,0.24,0
0.028698,0.0041977,0.021017,0.00047297,0.0064471,-0.00055501,0,0,0.018941,-0.0077664,0,-0.001443,0,0,0,0.021032,0.00045799,0.0064471,-1.5463,0.0093125,0.018329,2.0617e-07,0.54,0.24,0
0.029074,0.0042128,0.020946,0.00081754,0.006529,-0.0003534,0,0,0.018742,-0.0074249,0,-0.00091883,0,0,0,0.020952,0.00081134,0.006529,-1.0055,0.0094308,0.017977,1.998e-07,0.56,0.24,0
0.029448,0.0042429,0.02094,0.00093766,0.0065632,-0.00014999,0,0,0.018689,-0.0073132,0,-0.00038996,0,0,0,0.020941,0.00093653,0.0065632,-0.42961,0.0094801,0.017868,1.9803e-07,0.58,0.24,0
0.029822,0.0042893,0.020916,0.0009031,0.0065457,4.1323e-05,0,0,0.018681,-0.0073353,0,0.00010744,0,0,0,0.020916,0.00090301,0.0065457,0.11831,0.0094548,0.017872,1.977e-07,0.6,0.24,0
0.030195,0.0043525,0.020874,0.00071191,0.0064759,0.00025735,0,0,0.018718,-0.0074931,0,0.00066912,0,0,0,0.020878,0.00070863,0.0064759,0.73117,0.009354,0.017993,1.9881e-07,0.62,0.24,0
0.030571,0.0044314,0.020897,0.00028589,0.0063549,0.00048128,0,0,0.018905,-0.0078897,0,0.0012513,0,0,0,0.020908,0.00027466,0.0063549,1.3369,0.0091793,0.018365,2.0454e-07,0.64,0.24,0
0.030951,0.0045179,0.020833,-0.00055151,0.0060846,0.00062671,0,0,0.019173,-0.0086269,0,0.0016295,0,0,0,0.020852,-0.00056986,0.0060846,1.6772,0.0087888,0.01899,2.1168e-07,0.66,0.24,0
0.031337,0.0046025,0.021133,-0.00093476,0.0060595,0.00050582,0,0,0.019596,-0.0090925,0,0.0013151,0,0,0,0.021145,-0.00094634,0.0060595,1.3124,0.0087526,0.019553,2.2443e-07,0.68,0.24,0
0.031735,0.0046663,0.020532,-0.0010896,0.0058327,0.00080119,0,0,0.019109,-0.008999,0,0.0020831,0,0,0,0.020562,-0.0011192,0.0058327,2.1193,0.008425,0.019175,2.082e-07,0.7,0.24,0
0.032102,0.0047292,0.015782,-0.0007049,0.0045232,0.00058909,0,0,0.025604,-0.011621,0,0.0020604,0,0,0,0.015805,-0.00072784,0.0045232,1.6773,0.0065335,0.014633,1.6405e-07,0.72,0.24,0
0.032687,0.0049248,0.02356,-0.0013452,0.0066644,-0.00022597,0,0,0.043988,-0.020273,0,-0.0037891,0,0,0,0.023582,-0.0013677,0.0066644,-1.1176,0.0096264,0.022061,4.1618e-07,0.74,0.24,0
0.034156,0.0056222,0.018874,-0.00013211,0.0056226,-0.00074443,0,0,0.068907,-0.029924,0,-0.0077421,0,0,0,0.018903,-0.00016122,0.0056226,-2.2396,0.0081215,0.01693,1.5473e-07,0.76,0.24,0
0.035443,0.0062787,0.018143,0.0010457,0.0057567,-0.00061132,0,0,0.06441,-0.024497,0,-0.0063578,0,0,0,0.018165,0.0010239,0.0057567,-2.0451,0.0083152,0.015333,1.274e-07,0.78,0.24,0
0.036733,0.0067257,0.018225,0.00095193,0.0057532,-0.00082592,0,0,0.064856,-0.024967,0,-0.0085896,0,0,0,0.018265,0.00091253,0.0057532,-2.7313,0.0083102,0.015509,1.3056e-07,0.8,0.24,0
0.038037,0.0070543,0.0183,0.00081518,0.0057346,-0.00085616,0,0,0.065341,-0.025581,0,-0.008904,0,0,0,0.018342,0.00077336,0.0057346,-2.7966,0.0082833,0.015688,1.3349e-07,0.82,0.24,0
0.039346,0.0073076,0.018268,0.00058722,0.0056566,-0.00082475,0,0,0.065579,-0.026361,0,-0.0085774,0,0,0,0.018306,0.00054883,0.0056566,-2.6649,0.0081706,0.015834,1.3466e-07,0.84,0.24,0
0.04066,0.0075036,0.018241,0.00034013,0.0055743,-0.00076651,0,0,0.065866,-0.027217,0,-0.0079717,0,0,0,0.018274,0.00030736,0.0055743,-2.4474,0.0080517,0.015997,1.3598e-07,0.86,0.24,0
0.041981,0.0076555,0.018225,0.00010276,0.0054985,-0.00068335,0,0,0.06618,-0.028058,0,-0.0071068,0,0,0,0.018251,7.7027e-05,0.0054985,-2.1564,0.0079422,0.016161,1.3739e-07,0.88,0.24,0
0.043308,0.0077726,0.018218,-0.0001048,0.0054339,-0.00058234,0,0,0.066476,-0.028801,0,-0.0060563,0,0,0,0.018236,-0.00012328,0.0054339,-1.8186,0.0078489,0.016307,1.3866e-07,0.9,0.24,0
0.04464,0.0078615,0.018211,-0.00027555,0.0053808,-0.00047082,0,0,0.06672,-0.029413,0,-0.0048966,0,0,0,0.018224,-0.00028754,0.0053808,-1.4579,0.0077722,0.016428,1.3967e-07,0.92,0.24,0
0.045976,0.0079269,0.018205,-0.00040755,0.0053393,-0.00035442,0,0,0.066903,-0.029884,0,-0.003686,0,0,0,0.018212,-0.00041429,0.0053393,-1.0905,0.0077124,0.016519,1.404e-07,0.94,0.24,0
0.047316,0.0079718,0.0182,-0.00050093,0.0053096,-0.00023636,0,0,0.067028,-0.030215,0,-0.0024582,0,0,0,0.018203,-0.00050392,0.0053096,-0.72403,0.0076695,0.016583,1.4087e-07,0.96,0.24,0
0.048657,0.0079981,0.018196,-0.0005565,0.0052918,-0.0001181,0,0,0.067101,-0.030411,0,-0.0012283,0,0,0,0.018197,-0.00055724,0.0052918,-0.36084,0.0076437,0.01662,1.4113e-07,0.98,0.24,0
0.05,0.0080067,0.018194,-0.00057493,0.0052858,4.1589e-05,0,0,0.067124,-0.030476,0,0.00043253,0,0,0,0.018194,-0.00057502,0.0052858,0.12696,0.0076351,0.016632,1.4121e-07,1,0.24,0
0,0,0.016148,0.0069207,0.0069207,0.0023112,0,0,0.047983,0,0,0.024036,0,0,0,0.016695,0.0063742,0.0069207,13.304,0.0099965,0.010058,5.1746e-08,0,0.26,0
0.00095967,0.00048072,0.016081,0.0061546,0.0066707,0.0023059,0,0,0.048933,-0.0026835,0,0.023982,0,0,0,0.01659,0.0056451,0.0066707,12.46,0.0096354,0.01047,5.7049e-08,0.02,0.26,0
0.0019573,0.00094983,0.016335,0.0055464,0.0065646,0.0022703,0,0,0.050809,-0.0052947,0,0.023611,0,0,0,0.016794,0.0050881,0.0065646,11.412,0.0094822,0.011042,6.4992e-08,0.04,0.26,0
0.002992,0.0014062,0.016584,0.004959,0.006463,0.0022262,0,0,0.05263,-0.0078206,0,0.023153,0,0,0,0.016996,0.0045473,0.006463,10.479,0.0093354,0.01161,7.3052e-08,0.06,0.26,0
0.0040625,0.0018479,0.016825,0.0043981,0.0063669,0.0021702,0,0,0.054382,-0.010238,0,0.02257,0,0,0,0.017193,0.00403,0.0063669,9.6266,0.0091967,0.012164,8.1061e-08,0.08,0.26,0
0.0051673,0.0022723,0.017056,0.0038704,0.0062779,0.0021013,0,0,0.056045,-0.012519,0,0.021854,0,0,0,0.017383,0.0035437,0.0062779,8.8395,0.009068,0.012695,8.8861e-08,0.1,0.26,0
0.0063044,0.0026766,0.017275,0.0033825,0.0061972,0.002021,0,0,0.057603,-0.014636,0,0.021018,0,0,0,0.017563,0.0030944,0.0061972,8.1113,0.0089515,0.013194,9.632e-08,0.12,0.26,0
0.0074714,0.003058,0.017481,0.0029399,0.0061262,0.0019325,0,0,0.059044,-0.016569,0,0.020098,0,0,0,0.017733,0.0026875,0.0061262,7.4425,0.008849,0.013655,1.0334e-07,0.14,0.26,0
0.0086661,0.003414,0.017674,0.0025472,0.0060663,0.0018399,0,0,0.060359,-0.018299,0,0.019135,0,0,0,0.017894,0.0023266,0.0060663,6.8363,0.0087624,0.014075,1.0986e-07,0.16,0.26,0
0.0098858,0.0037425,0.017854,0.0022075,0.0060185,0.0017476,0,0,0.061546,-0.019817,0,0.018176,0,0,0,0.018047,0.0020147,0.0060185,6.2962,0.0086934,0.014453,1.1586e-07,0.18,0.26,0
0.011128,0.0040418,0.018024,0.0019229,0.005984,0.0016599,0,0,0.062607,-0.021118,0,0.017263,0,0,0,0.018193,0.0017536,0.005984,5.8253,0.0086436,0.014786,1.2133e-07,0.2,0.26,0
0.01239,0.0043103,0.018185,0.001695,0.005964,0.0015802,0,0,0.063549,-0.022199,0,0.016434,0,0,0,0.018335,0.001545,0.005964,5.4246,0.0086147,0.015074,1.263e-07,0.22,0.26,0
0.01367,0.0045465,0.01834,0.001525,0.0059596,0.0015106,0,0,0.06438,-0.02306,0,0.01571,0,0,0,0.018475,0.0013904,0.0059596,5.0929,0.0086083,0.01532,1.3079e-07,0.24,0.26,0
0.014965,0.0047488,0.018494,0.0014138,0.0059723,0.0014521,0,0,0.065112,-0.023704,0,0.015102,0,0,0,0.018617,0.0012912,0.0059723,4.825,0.0086267,0.015523,1.3487e-07,0.26,0.26,0
0.016274,0.004915,0.018651,0.0013625,0.006004,0.0014035,0,0,0.065763,-0.024136,0,0.014596,0,0,0,0.018764,0.0012493,0.006004,4.611,0.0086724,0.015687,1.386e-07,0.28,0.26,0
0.017596,0.005042,0.018819,0.0013721,0.0060575,0.001361,0,0,0.066363,-0.024364,0,0.014154,0,0,0,0.018925,0.0012665,0.0060575,4.4337,0.0087497,0.015817,1.4213e-07,0.3,0.26,0
0.018929,0.0051247,0.019014,0.0014433,0.0061372,0.0013176,0,0,0.06696,-0.024409,0,0.013703,0,0,0,0.019113,0.001345,0.0061372,4.2646,0.0088649,0.015922,1.4574e-07,0.32,0.26,0
0.020274,0.0051556,0.019262,0.0015778,0.0062518,0.0012615,0,0,0.067651,-0.024305,0,0.01312,0,0,0,0.019351,0.0014882,0.0062518,4.06,0.0090304,0.016021,1.4997e-07,0.34,0.26,0
0.021635,0.0051225,0.019615,0.0017823,0.0064193,0.0011698,0,0,0.068619,-0.024112,0,0.012166,0,0,0,0.019692,0.0017059,0.0064193,3.7372,0.0092723,0.016153,1.5595e-07,0.36,0.26,0
0.023019,0.0050037,0.020228,0.0021046,0.0066997,0.0010054,0,0,0.070346,-0.023895,0,0.010456,0,0,0,0.020283,0.0020489,0.0066997,3.1655,0.0096773,0.016411,1.6704e-07,0.38,0.26,0
0.024449,0.0047627,0.021406,0.002654,0.0072179,0.00038104,0,0,0.073777,-0.023732,0,0.0039628,0,0,0,0.021413,0.0026463,0.0072179,1.1636,0.010426,0.01695,1.9013e-07,0.4,0.26,0
0.02597,0.0041941,0.02768,0.00025324,0.00838,0.0009561,0,0,0.048434,-0.019324,0,0.0062694,0,0,0,0.02772,0.0002132,0.00838,2.3828,0.012105,0.024471,6.8207e-07,0.42,0.26,0
0.026662,0.0039417,0.018713,0.00061127,0.0057973,-0.0010748,0,0,0.029772,-0.011665,0,-0.0060396,0,0,0,0.018783,0.00054183,0.0057973,-3.9606,0.0083739,0.016263,2.4671e-07,0.44,0.26,0
0.027064,0.0039415,0.022535,0.00017951,0.0068144,-0.00079236,0,0,0.020437,-0.0086254,0,-0.0020601,0,0,0,0.022563,0.00015146,0.0068144,-2.0274,0.0098431,0.019934,2.5888e-07,0.46,0.26,0
0.02748,0.0039728,0.022287,-0.00016047,0.006638,-0.00026034,0,0,0.020344,-0.008838,0,-0.00067689,0,0,0,0.02229,-0.00016349,0.006638,-0.66438,0.0095882,0.019943,2.5338e-07,0.48,0.26,0
0.027878,0.0039985,0.02148,-0.00052571,0.0062864,-0.00039693,0,0,0.019752,-0.0088558,0,-0.001032,0,0,0,0.021488,-0.00053287,0.0062864,-1.033,0.0090804,0.019525,2.3106e-07,0.5,0.26,0
0.02827,0.0040209,0.021231,-0.00014046,0.0063271,-0.00046456,0,0,0.019375,-0.0084078,0,-0.0012079,0,0,0,0.021241,-0.00015055,0.0063271,-1.2447,0.0091391,0.019,2.1919e-07,0.52,0.26,0
0.028653,0.0040398,0.020973,0.00028448,0.0063771,-0.0004668,0,0,0.018974,-0.0079205,0,-0.0012137,0,0,0,0.020983,0.00027395,0.0063771,-1.2919,0.0092114,0.018432,2.0676e-07,0.54,0.26,0
0.029029,0.0040633,0.020828,0.00063802,0.0064399,-0.00033451,0,0,0.018705,-0.0075424,0,-0.00086972,0,0,0,0.020834,0.00063248,0.0064399,-0.94892,0.009302,0.018014,1.984e-07,0.56,0.26,0
0.029401,0.0040966,0.02074,0.00078049,0.006456,-0.00014151,0,0,0.018569,-0.0073782,0,-0.00036793,0,0,0,0.020741,0.00077948,0.006456,-0.40621,0.0093254,0.017815,1.9408e-07,0.58,0.26,0
0.029772,0.0041426,0.020721,0.00073849,0.0064377,7.3307e-05,0,0,0.018568,-0.007409,0,0.0001906,0,0,0,0.020721,0.00073823,0.0064377,0.21019,0.0092989,0.01783,1.9398e-07,0.6,0.26,0
0.030144,0.0042014,0.020769,0.00051013,0.0063838,0.000282,0,0,0.018701,-0.0076358,0,0.00073319,0,0,0,0.020773,0.0005062,0.0063838,0.79732,0.0092211,0.01806,1.9805e-07,0.62,0.26,0
0.03052,0.0042707,0.020868,6.525e-05,0.0062801,0.00044107,0,0,0.018965,-0.0080793,0,0.0011468,0,0,0,0.020878,5.5902e-05,0.0062801,1.2141,0.0090712,0.018512,2.0599e-07,0.64,0.26,0
0.030902,0.0043453,0.021069,-0.00046005,0.0061827,0.00046728,0,0,0.019352,-0.0086356,0,0.0012149,0,0,0,0.021079,-0.00047018,0.0061827,1.2428,0.0089306,0.019112,2.176e-07,0.66,0.26,0
0.031294,0.0044168,0.021259,-0.00094651,0.0060937,0.00041172,0,0,0.019715,-0.0091522,0,0.0010705,0,0,0,0.021266,-0.00095414,0.0060937,1.0619,0.008802,0.019668,2.2835e-07,0.68,0.26,0
0.031691,0.0044845,0.022011,-0.00070409,0.0063921,0.00026899,0,0,0.020305,-0.009225,0,0.00069937,0,0,0,0.022014,-0.00070728,0.0063921,0.67836,0.009233,0.020133,2.5026e-07,0.7,0.26,0
0.032106,0.0045466,0.022297,-0.00050004,0.0065392,0.00076602,0,0,0.020486,-0.009151,0,0.0019917,0,0,0,0.022323,-0.00052575,0.0065392,1.9223,0.0094455,0.020262,2.5875e-07,0.72,0.26,0
0.03251,0.0046398,0.018572,-9.0192e-05,0.0055445,0.0011537,0,0,0.030048,-0.012669,0,0.0065783,0,0,0,0.018651,-0.00016884,0.0055445,4.1677,0.0080088,0.016712,2.5108e-07,0.74,0.26,0
0.03321,0.005007,0.027335,-0.0011399,0.0078584,-0.00064101,0,0,0.048828,-0.021496,0,-0.0041595,0,0,0,0.027352,-0.001157,0.0078584,-1.5318,0.011351,0.025242,6.899e-07,0.76,0.26,0
0.034741,0.0057709,0.021195,0.0018041,0.0068998,5.3527e-05,0,0,0.074336,-0.026497,0,0.00055668,0,0,0,0.021195,0.001804,0.0068998,0.15816,0.0099664,0.017412,1.9488e-07,0.78,0.26,0
0.036183,0.0062037,0.020049,0.0012599,0.0063927,-0.00054642,0,0,0.071013,-0.02669,0,-0.0056828,0,0,0,0.020065,0.0012441,0.0063927,-1.6644,0.0092339,0.016847,1.7048e-07,0.8,0.26,0
0.037581,0.0065249,0.019478,0.00091794,0.0061187,-0.00066976,0,0,0.069467,-0.027044,0,-0.0069655,0,0,0,0.019502,0.0008938,0.0061187,-2.064,0.0088382,0.016623,1.5974e-07,0.82,0.26,0
0.038962,0.0067645,0.019184,0.00060208,0.0059359,-0.00072448,0,0,0.068891,-0.027736,0,-0.0075347,0,0,0,0.019212,0.00057387,0.0059359,-2.2294,0.0085741,0.016619,1.5568e-07,0.84,0.26,0
0.040337,0.0069444,0.019019,0.00028863,0.0057922,-0.00070865,0,0,0.068778,-0.028618,0,-0.0073699,0,0,0,0.019045,0.00026186,0.0057922,-2.1637,0.0083665,0.016719,1.5448e-07,0.86,0.26,0
0.041713,0.0070798,0.018922,1.7144e-05,0.0056818,-0.00064366,0,0,0.06885,-0.029456,0,-0.006694,0,0,0,0.018944,-4.7453e-06,0.0056818,-1.9477,0.0082071,0.016842,1.5438e-07,0.88,0.26,0
0.043091,0.0071824,0.018854,-0.00020708,0.0055941,-0.00055002,0,0,0.068952,-0.030166,0,-0.0057203,0,0,0,0.01887,-0.00022294,0.0055941,-1.6515,0.0080804,0.01695,1.5444e-07,0.9,0.26,0
0.044471,0.0072596,0.018801,-0.00038483,0.0055247,-0.00044341,0,0,0.069034,-0.03073,0,-0.0046114,0,0,0,0.018811,-0.00039508,0.0055247,-1.3233,0.0079801,0.017036,1.5443e-07,0.92,0.26,0
0.045852,0.007316,0.018758,-0.0005189,0.0054718,-0.00033231,0,0,0.069089,-0.031152,0,-0.0034561,0,0,0,0.018764,-0.00052463,0.0054718,-0.98732,0.0079037,0.017098,1.5434e-07,0.94,0.26,0
0.047234,0.0073547,0.018727,-0.00061225,0.0054345,-0.00022074,0,0,0.069122,-0.031443,0,-0.0022957,0,0,0,0.01873,-0.00061476,0.0054345,-0.65386,0.0078498,0.01714,1.5423e-07,0.96,0.26,0
0.048617,0.0073773,0.018708,-0.00066724,0.0054123,-0.00011,0,0,0.069138,-0.031613,0,-0.001144,0,0,0,0.018709,-0.00066787,0.0054123,-0.32528,0.0078177,0.017164,1.5414e-07,0.98,0.26,0
0.05,0.0073847,0.018702,-0.0006854,0.0054049,3.5739e-05,0,0,0.069143,-0.031669,0,0.00037168,0,0,0,0.018702,-0.00068547,0.0054049,0.10562,0.007807,0.017172,1.541e-07,1,0.26,0
0,0,0.016223,0.0069525,0.0069525,0.0020527,0,0,0.048204,-9.7578e-19,0,0.021348,0,0,0,0.016657,0.0065183,0.0069525,11.944,0.010042,0.0099284,4.9941e-08,0,0.28,0
0.00096408,0.00042696,0.016154,0.0061842,0.0067015,0.0020479,0,0,0.049154,-0.0026903,0,0.021298,0,0,0,0.016559,0.0057799,0.0067015,11.167,0.00968,0.010349,5.5402e-08,0.02,0.28,0
0.0019662,0.00084405,0.016411,0.0055822,0.0065978,0.002017,0,0,0.051026,-0.0052813,0,0.020977,0,0,0,0.016774,0.0052187,0.0065978,10.216,0.0095302,0.010931,6.3501e-08,0.04,0.28,0
0.0030051,0.0012503,0.016661,0.0050057,0.0065002,0.0019789,0,0,0.052839,-0.0077713,0,0.02058,0,0,0,0.016988,0.0046789,0.0065002,9.3775,0.0093891,0.011507,7.1699e-08,0.06,0.28,0
0.0040797,0.0016441,0.016907,0.0044576,0.0064093,0.0019305,0,0,0.054586,-0.010149,0,0.020078,0,0,0,0.017199,0.0041651,0.0064093,8.6156,0.0092579,0.01207,7.9879e-08,0.08,0.28,0
0.0051886,0.0020232,0.017145,0.0039423,0.0063262,0.001871,0,0,0.056258,-0.012396,0,0.019459,0,0,0,0.017405,0.0036823,0.0063262,7.9122,0.0091379,0.012611,8.7928e-08,0.1,0.28,0
0.0063301,0.0023853,0.017376,0.0034644,0.0062521,0.0018014,0,0,0.057844,-0.014496,0,0.018735,0,0,0,0.017605,0.0032349,0.0062521,7.2597,0.0090309,0.013125,9.5751e-08,0.12,0.28,0
0.0075024,0.002728,0.017599,0.0030284,0.0061882,0.001724,0,0,0.059336,-0.016431,0,0.017929,0,0,0,0.0178,0.0028272,0.0061882,6.6566,0.0089385,0.013607,1.0328e-07,0.14,0.28,0
0.0087035,0.0030491,0.017814,0.002638,0.0061357,0.0016419,0,0,0.060728,-0.018188,0,0.017076,0,0,0,0.01799,0.0024624,0.0061357,6.1048,0.0088626,0.014056,1.1045e-07,0.16,0.28,0
0.0099315,0.0033467,0.018023,0.0022965,0.0060957,0.0015589,0,0,0.06202,-0.019756,0,0.016213,0,0,0,0.018176,0.0021435,0.0060957,5.6071,0.008805,0.014467,1.1726e-07,0.18,0.28,0
0.011184,0.0036191,0.018226,0.0020066,0.0060698,0.0014785,0,0,0.063212,-0.021128,0,0.015376,0,0,0,0.01836,0.0018729,0.0060698,5.166,0.0087674,0.01484,1.237e-07,0.2,0.28,0
0.01246,0.0038649,0.018426,0.0017707,0.0060592,0.0014033,0,0,0.06431,-0.0223,0,0.014594,0,0,0,0.018544,0.0016533,0.0060592,4.7825,0.0087521,0.015175,1.2979e-07,0.22,0.28,0
0.013757,0.0040827,0.018627,0.0015912,0.0060656,0.0013352,0,0,0.065322,-0.023267,0,0.013886,0,0,0,0.018732,0.0014872,0.0060656,4.4543,0.0087614,0.015472,1.3556e-07,0.24,0.28,0
0.015073,0.0042709,0.018833,0.0014713,0.0060912,0.001274,0,0,0.066256,-0.024024,0,0.01325,0,0,0,0.018926,0.0013783,0.0060912,4.1748,0.0087984,0.01573,1.4105e-07,0.26,0.28,0
0.016407,0.0044271,0.019048,0.0014145,0.0061388,0.001217,0,0,0.067129,-0.024566,0,0.012656,0,0,0,0.019132,0.001331,0.0061388,3.9293,0.0088672,0.01595,1.4634e-07,0.28,0.28,0
0.017758,0.0045481,0.019283,0.0014261,0.0062127,0.0011568,0,0,0.067965,-0.024891,0,0.012031,0,0,0,0.019358,0.0013514,0.0062127,3.6911,0.0089739,0.016134,1.5153e-07,0.3,0.28,0
0.019126,0.0046287,0.019553,0.0015127,0.0063196,0.0010798,0,0,0.068812,-0.024996,0,0.01123,0,0,0,0.019617,0.0014483,0.0063196,3.4133,0.0091284,0.016289,1.5688e-07,0.32,0.28,0
0.020511,0.0046605,0.019886,0.0016857,0.0064716,0.00096061,0,0,0.069756,-0.024886,0,0.0099904,0,0,0,0.019937,0.0016351,0.0064716,3.0129,0.0093478,0.016426,1.6287e-07,0.34,0.28,0
0.021916,0.0046298,0.020334,0.0019673,0.0066903,0.00075459,0,0,0.070946,-0.02456,0,0.0078477,0,0,0,0.020365,0.0019363,0.0066903,2.3487,0.0096638,0.016571,1.7048e-07,0.36,0.28,0
0.023348,0.0045153,0.020972,0.0024182,0.0070171,0.00035056,0,0,0.072566,-0.023914,0,0.0036458,0,0,0,0.020979,0.0024115,0.0070171,1.082,0.010136,0.016746,1.811e-07,0.38,0.28,0
0.024818,0.0042707,0.021375,0.0030284,0.0073209,-0.00033077,0,0,0.07308,-0.022321,0,-0.00344,0,0,0,0.021381,0.0030224,0.0073209,-1.0325,0.010575,0.016631,1.8411e-07,0.4,0.28,0
0.026271,0.0038883,0.019998,-0.00065545,0.0058028,-0.00016254,0,0,0.045699,-0.013433,0,-0.0045907,0,0,0,0.020044,-0.00070097,0.0058028,-0.97957,0.0083819,0.018555,1.593e-07,0.42,0.28,0
0.026646,0.0037669,0.021419,-5.0555e-05,0.0064106,-0.00096031,0,0,0.019511,-0.0083995,0,-0.0024968,0,0,0,0.021462,-9.3423e-05,0.0064106,-2.556,0.0092597,0.019151,2.2546e-07,0.44,0.28,0
0.027052,0.003769,0.021995,-1.0385e-05,0.0065954,0.00013432,0,0,0.020019,-0.0085875,0,0.00034924,0,0,0,0.021996,-1.1205e-05,0.0065954,0.34973,0.0095267,0.019559,2.4172e-07,0.46,0.28,0
0.027447,0.0037926,0.021493,-0.00039285,0.0063301,5.8074e-05,0,0,0.019712,-0.0087398,0,0.00015099,0,0,0,0.021493,-0.00039301,0.0063301,0.15203,0.0091434,0.019418,2.2974e-07,0.48,0.28,0
0.02784,0.0038242,0.021298,-0.00028719,0.0063033,-7.1093e-05,0,0,0.019493,-0.0085676,0,-0.00018484,0,0,0,0.021298,-0.00028742,0.0063033,-0.18871,0.0091047,0.01916,2.2245e-07,0.5,0.28,0
0.028227,0.003853,0.021036,-8.9348e-05,0.0062841,-0.00023823,0,0,0.019178,-0.0082854,0,-0.00061939,0,0,0,0.021039,-9.2034e-05,0.0062841,-0.646,0.009077,0.018773,2.1239e-07,0.52,0.28,0
0.028608,0.0038809,0.02086,0.0002334,0.006328,-0.0002916,0,0,0.018892,-0.007923,0,-0.00075816,0,0,0,0.020864,0.00022928,0.006328,-0.80978,0.0091405,0.018362,2.0373e-07,0.54,0.28,0
0.028983,0.0039111,0.020718,0.00048424,0.0063606,-0.00023834,0,0,0.018664,-0.0076393,0,-0.0006197,0,0,0,0.02072,0.00048144,0.0063606,-0.6748,0.0091875,0.018033,1.9681e-07,0.56,0.28,0
0.029354,0.0039477,0.020642,0.00060102,0.0063728,-0.00010413,0,0,0.01855,-0.0075033,0,-0.00027073,0,0,0,0.020642,0.00060048,0.0063728,-0.29769,0.0092051,0.017869,1.9326e-07,0.58,0.28,0
0.029725,0.003993,0.020632,0.00054979,0.0063546,6.2436e-05,0,0,0.018561,-0.0075463,0,0.00016233,0,0,0,0.020633,0.0005496,0.0063546,0.17813,0.0091789,0.017901,1.9355e-07,0.6,0.28,0
0.030097,0.0040471,0.020687,0.00032977,0.0063051,0.00021584,0,0,0.018697,-0.0077679,0,0.00056119,0,0,0,0.020689,0.00032748,0.0063051,0.6074,0.0091074,0.018128,1.9758e-07,0.62,0.28,0
0.030472,0.0041082,0.020799,-2.6145e-05,0.0062318,0.00030502,0,0,0.018937,-0.0081353,0,0.00079306,0,0,0,0.020803,-3.0611e-05,0.0062318,0.83897,0.0090015,0.018515,2.0471e-07,0.64,0.28,0
0.030854,0.0041725,0.020924,-0.00045284,0.0061412,0.00029743,0,0,0.019217,-0.0085723,0,0.00077333,0,0,0,0.020928,-0.00045697,0.0061412,0.79702,0.0088707,0.018967,2.1284e-07,0.66,0.28,0
0.031241,0.0042364,0.021094,-0.00074969,0.0061033,0.00017288,0,0,0.019488,-0.0089089,0,0.00044948,0,0,0,0.021095,-0.00075106,0.0061033,0.45341,0.0088159,0.019352,2.2096e-07,0.68,0.28,0
0.031634,0.0042973,0.021168,-0.00093119,0.006071,4.5065e-05,0,0,0.019626,-0.0091028,0,0.00011717,0,0,0,0.021168,-0.00093129,0.006071,0.11684,0.0087692,0.019562,2.2501e-07,0.7,0.28,0
0.032026,0.0043632,0.02161,-0.00063484,0.0062926,-8.2234e-05,0,0,0.019913,-0.0090056,0,-0.00021381,0,0,0,0.02161,-0.00063514,0.0062926,-0.2118,0.0090893,0.019717,2.3611e-07,0.72,0.28,0
0.03243,0.0044497,0.021054,-0.0010518,0.0060007,0.00098159,0,0,0.01957,-0.0091683,0,0.0025521,0,0,0,0.021098,-0.0010953,0.0060007,2.5375,0.0086677,0.019632,2.2441e-07,0.74,0.28,0
0.032809,0.0046697,0.019563,-0.002031,0.0052595,0.00038733,0,0,0.045962,-0.015164,0,0.0065466,0,0,0,0.01963,-0.0020981,0.0052595,1.6739,0.0075971,0.019342,1.4834e-07,0.76,0.28,0
0.034269,0.0052188,0.021081,0.002037,0.0069354,0.00070657,0,0,0.073557,-0.025472,0,0.0073483,0,0,0,0.021107,0.0020109,0.0069354,2.1219,0.010018,0.017172,1.8977e-07,0.78,0.28,0
0.035751,0.0056581,0.020798,0.0015844,0.0067146,9.3541e-05,0,0,0.073231,-0.026677,0,0.00097282,0,0,0,0.020798,0.0015839,0.0067146,0.27894,0.0096988,0.017231,1.8637e-07,0.8,0.28,0
0.037198,0.0059726,0.020228,0.001139,0.0064102,-0.00034756,0,0,0.071855,-0.02741,0,-0.0036146,0,0,0,0.020235,0.0011327,0.0064102,-1.0427,0.0092592,0.017086,1.7619e-07,0.82,0.28,0
0.038625,0.0061981,0.019866,0.00064187,0.0061525,-0.00054264,0,0,0.071312,-0.028655,0,-0.0056435,0,0,0,0.019882,0.00062656,0.0061525,-1.6156,0.0088869,0.017173,1.7219e-07,0.84,0.28,0
0.04005,0.0063589,0.019678,0.00024799,0.0059778,-0.00058621,0,0,0.07124,-0.029795,0,-0.0060966,0,0,0,0.019696,0.00023032,0.0059778,-1.7266,0.0086345,0.017322,1.7124e-07,0.86,0.28,0
0.041475,0.0064773,0.01954,-6.0826e-05,0.0058436,-0.00054484,0,0,0.071219,-0.030703,0,-0.0056663,0,0,0,0.019555,-7.5959e-05,0.0058436,-1.591,0.0084407,0.017441,1.7045e-07,0.88,0.28,0
0.042899,0.0065659,0.019423,-0.00030126,0.0057365,-0.00046707,0,0,0.07117,-0.031396,0,-0.0048575,0,0,0,0.019434,-0.00031232,0.0057365,-1.3557,0.0082861,0.017523,1.6945e-07,0.9,0.28,0
0.044322,0.0066323,0.019325,-0.00048457,0.0056523,-0.00037538,0,0,0.0711,-0.031912,0,-0.003904,0,0,0,0.019332,-0.00049168,0.0056523,-1.0852,0.0081644,0.017577,1.6838e-07,0.92,0.28,0
0.045743,0.0066808,0.019248,-0.00061924,0.0055886,-0.00028008,0,0,0.071028,-0.032281,0,-0.0029129,0,0,0,0.019252,-0.00062319,0.0055886,-0.80753,0.0080724,0.017611,1.6742e-07,0.94,0.28,0
0.047163,0.0067141,0.019192,-0.00071137,0.0055441,-0.00018531,0,0,0.070967,-0.032528,0,-0.0019272,0,0,0,0.019193,-0.00071309,0.0055441,-0.53339,0.0080081,0.017631,1.6666e-07,0.96,0.28,0
0.048582,0.0067335,0.019158,-0.00076508,0.0055178,-9.2104e-05,0,0,0.070927,-0.032671,0,-0.00095788,0,0,0,0.019158,-0.0007655,0.0055178,-0.26487,0.0079701,0.017642,1.6618e-07,0.98,0.28,0
0.05,0.0067399,0.019146,-0.00078272,0.005509,3.0803e-05,0,0,0.070913,-0.032717,0,0.00032035,0,0,0,0.019146,-0.00078277,0.005509,0.088559,0.0079575,0.017646,1.6602e-07,1,0.28,0
0,0,0.016281,0.0069775,0.0069775,0.0017938,0,0,0.048377,4.3368e-19,0,0.018656,0,0,0,0.016615,0.0066436,0.0069775,10.544,0.010079,0.0098085,4.8276e-08,0,0.3,0
0.00096755,0.00037311,0.016212,0.0062092,0.0067264,0.0017892,0,0,0.049326,-0.0026896,0,0.018608,0,0,0,0.016523,0.0058988,0.0067264,9.8421,0.0097159,0.010235,5.3856e-08,0.02,0.3,0
0.001973,0.00073858,0.016469,0.0056133,0.0066247,0.0017632,0,0,0.051191,-0.0052594,0,0.018337,0,0,0,0.016748,0.0053341,0.0066247,8.9978,0.009569,0.010827,6.2068e-08,0.04,0.3,0
0.0030152,0.0010954,0.016721,0.0050465,0.0065303,0.0017297,0,0,0.052993,-0.007716,0,0.017988,0,0,0,0.016972,0.0047956,0.0065303,8.2525,0.0094327,0.011409,7.0355e-08,0.06,0.3,0
0.0040928,0.001442,0.016969,0.0045097,0.0064437,0.0016865,0,0,0.054733,-0.010056,0,0.017539,0,0,0,0.017193,0.0042855,0.0064437,7.5738,0.0093075,0.011976,7.8639e-08,0.08,0.3,0
0.0052045,0.0017765,0.017213,0.0040056,0.0063655,0.0016329,0,0,0.056406,-0.012272,0,0.016982,0,0,0,0.017412,0.0038067,0.0063655,6.9444,0.0091947,0.012523,8.6848e-08,0.1,0.3,0
0.006349,0.0020967,0.017452,0.0035371,0.0062969,0.0015696,0,0,0.058009,-0.014351,0,0.016324,0,0,0,0.017627,0.0033623,0.0062969,6.3562,0.0090955,0.013048,9.4917e-08,0.12,0.3,0
0.0075248,0.0024007,0.017688,0.0031078,0.0062388,0.0014984,0,0,0.059536,-0.016281,0,0.015583,0,0,0,0.01784,0.0029554,0.0062388,5.8073,0.0090116,0.013545,1.028e-07,0.14,0.3,0
0.0087305,0.0026865,0.01792,0.0027209,0.0061924,0.0014219,0,0,0.060985,-0.018052,0,0.014787,0,0,0,0.018052,0.002589,0.0061924,5.2986,0.0089445,0.014013,1.1046e-07,0.16,0.3,0
0.0099643,0.0029523,0.01815,0.0023794,0.0061589,0.0013429,0,0,0.062356,-0.019654,0,0.013966,0,0,0,0.018264,0.0022659,0.0061589,4.8325,0.0088963,0.01445,1.1788e-07,0.18,0.3,0
0.011225,0.0031967,0.01838,0.0020864,0.00614,0.0012645,0,0,0.063649,-0.021078,0,0.01315,0,0,0,0.018478,0.0019889,0.00614,4.4112,0.0088689,0.014855,1.2508e-07,0.2,0.3,0
0.01251,0.0034183,0.018612,0.0018451,0.006137,0.0011887,0,0,0.064868,-0.022318,0,0.012363,0,0,0,0.018696,0.0017613,0.006137,4.0354,0.0088646,0.015226,1.3207e-07,0.22,0.3,0
0.013819,0.0036158,0.018848,0.0016593,0.0061521,0.0011171,0,0,0.066017,-0.023363,0,0.011617,0,0,0,0.01892,0.001587,0.0061521,3.7028,0.0088864,0.015561,1.3885e-07,0.24,0.3,0
0.015151,0.0037878,0.019091,0.001534,0.0061875,0.0010487,0,0,0.067099,-0.024198,0,0.010906,0,0,0,0.019154,0.0014716,0.0061875,3.4061,0.0089376,0.015859,1.4543e-07,0.26,0.3,0
0.016503,0.0039324,0.019345,0.0014763,0.0062464,0.00097977,0,0,0.068113,-0.024805,0,0.01019,0,0,0,0.019399,0.0014227,0.0062464,3.1291,0.0090226,0.016115,1.5179e-07,0.28,0.3,0
0.017875,0.0040463,0.019614,0.0014961,0.0063329,0.00090116,0,0,0.06906,-0.025152,0,0.009372,0,0,0,0.019658,0.0014514,0.0063329,2.8405,0.0091476,0.016323,1.5787e-07,0.3,0.3,0
0.019266,0.0041249,0.019901,0.0016079,0.0064528,0.0007951,0,0,0.069933,-0.025193,0,0.0082691,0,0,0,0.019936,0.0015734,0.0064528,2.484,0.0093207,0.016474,1.6353e-07,0.32,0.3,0
0.020673,0.0041602,0.02021,0.0018328,0.006613,0.00063086,0,0,0.070707,-0.024857,0,0.0065609,0,0,0,0.020232,0.0018111,0.006613,1.9637,0.009552,0.016551,1.6847e-07,0.34,0.3,0
0.022094,0.0041401,0.020527,0.0022051,0.0068197,0.0003574,0,0,0.071279,-0.023996,0,0.0037169,0,0,0,0.020534,0.0021982,0.0068197,1.1171,0.0098507,0.016518,1.7182e-07,0.36,0.3,0
0.023524,0.0040471,0.020719,0.0027657,0.0070454,-7.641e-05,0,0,0.071102,-0.022254,0,-0.00079466,0,0,0,0.020719,0.0027654,0.0070454,-0.24385,0.010177,0.016242,1.6963e-07,0.38,0.3,0
0.024938,0.0038699,0.020629,0.0038021,0.0073292,-0.00059275,0,0,0.069157,-0.018341,0,-0.0061646,0,0,0,0.02065,0.0037813,0.0073292,-2.015,0.010587,0.015404,1.5467e-07,0.4,0.3,0
0.02629,0.0036568,0.020445,0.00092739,0.0064118,-0.0009154,0,0,0.043595,-0.011407,0,-0.0062377,0,0,0,0.020492,0.0008805,0.0064118,-2.8642,0.0092614,0.017632,1.7227e-07,0.42,0.3,0
0.026682,0.0036057,0.02072,-0.00050885,0.0060634,-0.00033548,0,0,0.019054,-0.0085439,0,-0.00087224,0,0,0,0.020726,-0.00051415,0.0060634,-0.90512,0.0087583,0.018833,2.0734e-07,0.44,0.3,0
0.027052,0.003598,0.020378,-0.00045006,0.0059784,6.9628e-05,0,0,0.01872,-0.008357,0,0.00018103,0,0,0,0.020378,-0.00045029,0.0059784,0.19154,0.0086355,0.018473,1.9656e-07,0.46,0.3,0
0.027431,0.0036232,0.020707,-0.00024937,0.0061372,0.00018895,0,0,0.01894,-0.0083025,0,0.00049127,0,0,0,0.020708,-0.00025107,0.0061372,0.51655,0.0088648,0.018607,2.0419e-07,0.48,0.3,0
0.02781,0.0036558,0.02075,-0.00016333,0.006176,4.7161e-05,0,0,0.018946,-0.0082411,0,0.00012262,0,0,0,0.02075,-0.00016344,0.006176,0.1292,0.0089208,0.018574,2.0452e-07,0.5,0.3,0
0.028188,0.0036895,0.020735,2.3096e-05,0.0062274,-9.1324e-05,0,0,0.01886,-0.0080656,0,-0.00023744,0,0,0,0.020735,2.2693e-05,0.0062274,-0.25262,0.0089952,0.018412,2.0215e-07,0.52,0.3,0
0.028564,0.0037229,0.020667,0.00022352,0.0062671,-0.00016768,0,0,0.01872,-0.0078567,0,-0.00043596,0,0,0,0.020668,0.00022214,0.0062671,-0.46989,0.0090525,0.018193,1.981e-07,0.54,0.3,0
0.028937,0.0037577,0.020605,0.00039017,0.0062985,-0.00015461,0,0,0.018598,-0.0076808,0,-0.00040198,0,0,0,0.020606,0.00038899,0.0062985,-0.43819,0.0090978,0.018005,1.9453e-07,0.56,0.3,0
0.029308,0.0037965,0.020567,0.00045675,0.0063073,-7.4476e-05,0,0,0.018538,-0.0076057,0,-0.00019364,0,0,0,0.020568,0.00045648,0.0063073,-0.21218,0.0091105,0.017917,1.9271e-07,0.58,0.3,0
0.029679,0.0038407,0.020572,0.00039574,0.0062902,3.7071e-05,0,0,0.018566,-0.0076628,0,9.6384e-05,0,0,0,0.020572,0.00039567,0.0062902,0.10527,0.0090859,0.017969,1.9348e-07,0.6,0.3,0
0.030051,0.0038907,0.020616,0.00020665,0.0062469,0.00013869,0,0,0.01868,-0.0078523,0,0.00036059,0,0,0,0.020617,0.00020571,0.0062469,0.38931,0.0090233,0.018161,1.968e-07,0.62,0.3,0
0.030426,0.0039453,0.020681,-8.289e-05,0.0061793,0.00019534,0,0,0.018852,-0.0081409,0,0.00050789,0,0,0,0.020682,-8.4727e-05,0.0061793,0.53897,0.0089257,0.018451,2.0172e-07,0.64,0.3,0
0.030805,0.0040025,0.020733,-0.00040447,0.0060984,0.00018612,0,0,0.019024,-0.0084538,0,0.00048392,0,0,0,0.020734,-0.00040611,0.0060984,0.50446,0.0088088,0.018754,2.0652e-07,0.66,0.3,0
0.031187,0.0040604,0.020682,-0.00070276,0.0059938,0.00013675,0,0,0.019095,-0.0087055,0,0.00035554,0,0,0,0.020683,-0.00070363,0.0059938,0.36636,0.0086577,0.018947,2.0793e-07,0.68,0.3,0
0.031569,0.0041204,0.020445,-0.00088728,0.0058673,9.1737e-05,0,0,0.018951,-0.0087809,0,0.00023852,0,0,0,0.020445,-0.00088768,0.0058673,0.24639,0.008475,0.018884,2.0264e-07,0.7,0.3,0
0.031945,0.0041863,0.019769,-0.001116,0.0055961,0.00020133,0,0,0.018426,-0.0087257,0,0.00052347,0,0,0,0.019772,-0.0011179,0.0055961,0.55226,0.0080832,0.018471,1.8546e-07,0.72,0.3,0
0.032306,0.004273,0.020367,-0.0010139,0.0058059,0.00046441,0,0,0.018929,-0.0088658,0,0.0012075,0,0,0,0.020377,-0.001024,0.0058059,1.2437,0.0083863,0.018934,2.0188e-07,0.74,0.3,0
0.032702,0.0044005,0.019779,-0.00080275,0.0056928,0.00089343,0,0,0.043512,-0.013511,0,0.0070789,0,0,0,0.019833,-0.00085664,0.0056928,2.866,0.0082229,0.018457,1.6215e-07,0.76,0.3,0
0.034046,0.004752,0.020106,0.0025892,0.0068087,0.00095577,0,0,0.069149,-0.021942,0,0.00994,0,0,0,0.020158,0.0025372,0.0068087,3.1138,0.0098348,0.015921,1.5807e-07,0.78,0.3,0
0.035468,0.0051367,0.020535,0.0022362,0.0068312,0.00035172,0,0,0.071257,-0.023894,0,0.0036579,0,0,0,0.020541,0.0022294,0.0068312,1.1008,0.0098673,0.0165,1.7162e-07,0.8,0.3,0
0.036897,0.0054285,0.020351,0.0013087,0.0064979,-0.0001558,0,0,0.072036,-0.026984,0,-0.0016203,0,0,0,0.020352,0.0013074,0.0064979,-0.46873,0.0093858,0.017053,1.7739e-07,0.82,0.3,0
0.03835,0.0056183,0.020323,0.00066886,0.0062975,-0.00038928,0,0,0.072932,-0.029269,0,-0.0040485,0,0,0,0.020331,0.00066115,0.0062975,-1.1342,0.0090964,0.017544,1.839e-07,0.84,0.3,0
0.039814,0.0057526,0.020213,0.0002153,0.0061284,-0.00042877,0,0,0.073238,-0.030748,0,-0.0044592,0,0,0,0.020222,0.00020611,0.0061284,-1.2278,0.0088521,0.017809,1.8565e-07,0.86,0.3,0
0.041279,0.0058517,0.020055,-0.00012443,0.005979,-0.00039707,0,0,0.073193,-0.031738,0,-0.0041295,0,0,0,0.020062,-0.00013224,0.005979,-1.1268,0.0086364,0.017937,1.846e-07,0.88,0.3,0
0.042742,0.0059266,0.019898,-0.00037768,0.005856,-0.00033771,0,0,0.073016,-0.032415,0,-0.0035122,0,0,0,0.019903,-0.00038331,0.005856,-0.95398,0.0084586,0.017997,1.8261e-07,0.9,0.3,0
0.0442,0.0059831,0.019761,-0.00056456,0.0057589,-0.00026922,0,0,0.07281,-0.032882,0,-0.0027999,0,0,0,0.019764,-0.00056813,0.0057589,-0.75875,0.0083184,0.018022,1.8051e-07,0.92,0.3,0
0.045654,0.0060248,0.019651,-0.00069858,0.0056859,-0.00019941,0,0,0.072621,-0.033199,0,-0.0020738,0,0,0,0.019654,-0.00070053,0.0056859,-0.56136,0.0082129,0.01803,1.7868e-07,0.94,0.3,0
0.047105,0.0060536,0.019573,-0.00078876,0.0056352,-0.00013116,0,0,0.072475,-0.033404,0,-0.0013641,0,0,0,0.019574,-0.0007896,0.0056352,-0.36906,0.0081397,0.018031,1.7729e-07,0.96,0.3,0
0.048553,0.0060704,0.019525,-0.00084078,0.0056053,-6.4948e-05,0,0,0.072383,-0.03352,0,-0.00067546,0,0,0,0.019525,-0.00084099,0.0056053,-0.18272,0.0080966,0.018029,1.7644e-07,0.98,0.3,0
0.05,0.006076,0.019509,-0.00085779,0.0055955,2.6807e-05,0,0,0.072352,-0.033557,0,0.00027879,0,0,0,0.019509,-0.00085782,0.0055955,0.075412,0.0080823,0.018029,1.7615e-07,1,0.3,0
0,0,0.016319,0.0069939,0.0069939,0.0015355,0,0,0.048491,-1.0842e-19,0,0.015969,0,0,0,0.016566,0.0067476,0.0069939,9.1138,0.010102,0.0096971,4.673e-08,0,0.32,0
0.00096982,0.00031938,0.01625,0.0062289,0.0067438,0.0015309,0,0,0.049434,-0.0026773,0,0.015921,0,0,0,0.016479,0.0060003,0.0067438,8.4946,0.009741,0.010127,5.238e-08,0.02,0.32,0
0.0019774,0.00063368,0.016507,0.0056402,0.006644,0.0015097,0,0,0.051285,-0.0052201,0,0.015701,0,0,0,0.016713,0.0054343,0.006644,7.7643,0.0095969,0.010725,6.0643e-08,0.04,0.32,0
0.0030212,0.0009417,0.016758,0.005083,0.0065524,0.0014799,0,0,0.053071,-0.0076409,0,0.015391,0,0,0,0.016943,0.0048984,0.0065524,7.1126,0.0094646,0.011309,6.8953e-08,0.06,0.32,0
0.0041002,0.0012419,0.017007,0.0045572,0.0064693,0.00144,0,0,0.054797,-0.009943,0,0.014976,0,0,0,0.017172,0.0043928,0.0064693,6.5125,0.0093446,0.011877,7.7266e-08,0.08,0.32,0
0.0052131,0.0015324,0.017254,0.0040638,0.0063952,0.0013896,0,0,0.056464,-0.012124,0,0.014452,0,0,0,0.017399,0.003919,0.0063952,5.9494,0.0092376,0.012428,8.554e-08,0.1,0.32,0
0.0063588,0.0018113,0.017498,0.0036048,0.006331,0.0013293,0,0,0.058071,-0.014176,0,0.013825,0,0,0,0.017625,0.0034787,0.006331,5.4165,0.0091447,0.012957,9.3736e-08,0.12,0.32,0
0.0075359,0.0020767,0.017742,0.0031828,0.0062775,0.0012606,0,0,0.059617,-0.016093,0,0.01311,0,0,0,0.01785,0.0030744,0.0062775,4.9122,0.0090675,0.013463,1.0183e-07,0.14,0.32,0
0.0087434,0.002327,0.017986,0.0028005,0.0062359,0.0011855,0,0,0.0611,-0.017864,0,0.01233,0,0,0,0.018078,0.0027085,0.0062359,4.4373,0.0090075,0.013945,1.0979e-07,0.16,0.32,0
0.00998,0.0025605,0.018231,0.0024608,0.0062076,0.0011065,0,0,0.062522,-0.019483,0,0.011508,0,0,0,0.018308,0.0023835,0.0062076,3.994,0.0089665,0.014399,1.1764e-07,0.18,0.32,0
0.011244,0.002776,0.018479,0.002167,0.0061939,0.0010259,0,0,0.063884,-0.02094,0,0.01067,0,0,0,0.018544,0.0021027,0.0061939,3.5846,0.0089468,0.014825,1.2537e-07,0.2,0.32,0
0.012535,0.0029722,0.018733,0.0019228,0.0061966,0.00094582,0,0,0.065187,-0.022224,0,0.0098365,0,0,0,0.018786,0.0018697,0.0061966,3.2103,0.0089507,0.015221,1.3298e-07,0.22,0.32,0
0.013852,0.0031482,0.018993,0.0017332,0.0062178,0.00086744,0,0,0.06643,-0.02332,0,0.0090214,0,0,0,0.019036,0.0016897,0.0062178,2.87,0.0089812,0.015584,1.4048e-07,0.24,0.32,0
0.015192,0.0033029,0.019261,0.001605,0.0062597,0.00079044,0,0,0.067605,-0.024205,0,0.0082206,0,0,0,0.019296,0.0015697,0.0062597,2.5583,0.0090418,0.015908,1.478e-07,0.26,0.32,0
0.016556,0.0034349,0.019536,0.0015484,0.0063253,0.00071179,0,0,0.068695,-0.02484,0,0.0074026,0,0,0,0.019564,0.0015203,0.0063253,2.2625,0.0091365,0.016185,1.548e-07,0.28,0.32,0
0.01794,0.0035421,0.019814,0.0015783,0.0064178,0.00062401,0,0,0.069662,-0.025165,0,0.0064897,0,0,0,0.019836,0.001557,0.0064178,1.9575,0.0092701,0.016398,1.6117e-07,0.3,0.32,0
0.019342,0.003621,0.020086,0.001717,0.0065408,0.00051269,0,0,0.070433,-0.025084,0,0.005332,0,0,0,0.0201,0.0017027,0.0065408,1.5975,0.0094479,0.016518,1.6629e-07,0.32,0.32,0
0.020758,0.0036662,0.020327,0.0019977,0.0066975,0.00035428,0,0,0.070875,-0.024439,0,0.0036845,0,0,0,0.020334,0.0019908,0.0066975,1.1069,0.0096741,0.016501,1.6904e-07,0.34,0.32,0
0.022177,0.00367,0.020487,0.0024655,0.0068858,0.00012224,0,0,0.070727,-0.022985,0,0.0012713,0,0,0,0.020488,0.0024647,0.0068858,0.38862,0.0099462,0.01627,1.6735e-07,0.36,0.32,0
0.023587,0.0036251,0.0205,0.0032081,0.0071125,-0.00017854,0,0,0.069616,-0.020303,0,-0.0018568,0,0,0,0.020502,0.0032063,0.0071125,-0.59148,0.010274,0.015711,1.5844e-07,0.38,0.32,0
0.024962,0.0035371,0.020399,0.004339,0.0074215,-0.00045323,0,0,0.067485,-0.016029,0,-0.0047136,0,0,0,0.020412,0.0043263,0.0074215,-1.6152,0.01072,0.014783,1.4172e-07,0.4,0.32,0
0.026286,0.003432,0.020054,0.00095017,0.0063014,-0.00053457,0,0,0.042704,-0.01113,0,-0.0036964,0,0,0,0.020071,0.00093355,0.0063014,-1.723,0.009102,0.017214,1.6144e-07,0.42,0.32,0
0.02667,0.0034252,0.020132,-0.0014599,0.0056015,-0.00039711,0,0,0.018889,-0.0091799,0,-0.0010325,0,0,0,0.020139,-0.0014672,0.0056015,-1.0533,0.0080911,0.019081,1.9878e-07,0.44,0.32,0
0.027042,0.0034347,0.020103,-0.00044806,0.0058966,-8.1738e-05,0,0,0.018469,-0.0082481,0,-0.00021252,0,0,0,0.020104,-0.00044839,0.0058966,-0.22787,0.0085173,0.018228,1.8876e-07,0.46,0.32,0
0.027409,0.0034605,0.020173,-0.0001907,0.0059946,3.1544e-05,0,0,0.018432,-0.0080409,0,8.2015e-05,0,0,0,0.020173,-0.00019075,0.0059946,0.088754,0.0086589,0.018083,1.8823e-07,0.48,0.32,0
0.027779,0.0034946,0.020355,-2.161e-05,0.0061,-7.0673e-07,0,0,0.018531,-0.0079581,0,-1.8375e-06,0,0,0,0.020355,-2.161e-05,0.0061,-0.0019872,0.0088111,0.018109,1.9167e-07,0.5,0.32,0
0.02815,0.0035304,0.020456,0.00010672,0.0061688,-8.0935e-05,0,0,0.018573,-0.0078807,0,-0.00021043,0,0,0,0.020456,0.0001064,0.0061688,-0.22788,0.0089105,0.018097,1.9323e-07,0.52,0.32,0
0.028522,0.0035666,0.020501,0.00023613,0.0062212,-0.00012647,0,0,0.018564,-0.0077806,0,-0.00032882,0,0,0,0.020502,0.00023535,0.0062212,-0.35755,0.0089862,0.018035,1.932e-07,0.54,0.32,0
0.028893,0.0036039,0.020512,0.00033133,0.0062529,-0.00011927,0,0,0.018536,-0.007698,0,-0.0003101,0,0,0,0.020512,0.00033063,0.0062529,-0.33861,0.009032,0.017968,1.9249e-07,0.56,0.32,0
0.029263,0.0036435,0.020518,0.00035654,0.0062623,-6.6712e-05,0,0,0.018532,-0.0076774,0,-0.00017345,0,0,0,0.020518,0.00035632,0.0062623,-0.18959,0.0090455,0.017953,1.9237e-07,0.58,0.32,0
0.029634,0.0036865,0.020536,0.00028647,0.0062467,8.2542e-06,0,0,0.018576,-0.0077483,0,2.1461e-05,0,0,0,0.020536,0.00028647,0.0062467,0.023355,0.009023,0.018024,1.9362e-07,0.6,0.32,0
0.030006,0.003733,0.020569,0.00012051,0.0062068,8.0151e-05,0,0,0.018671,-0.0079121,0,0.00020839,0,0,0,0.020569,0.0001202,0.0062068,0.22458,0.0089654,0.018186,1.9631e-07,0.62,0.32,0
0.030381,0.0037826,0.020604,-0.00011676,0.0061463,0.00012865,0,0,0.018795,-0.0081419,0,0.00033448,0,0,0,0.020605,-0.00011756,0.0061463,0.3557,0.0088779,0.018408,1.9981e-07,0.64,0.32,0
0.030758,0.0038343,0.020615,-0.00038821,0.0060679,0.00015317,0,0,0.018911,-0.008393,0,0.00039825,0,0,0,0.020616,-0.00038933,0.0060679,0.41783,0.0087648,0.018635,2.0286e-07,0.66,0.32,0
0.031137,0.0038882,0.020569,-0.0006558,0.005974,0.00018721,0,0,0.018974,-0.0086188,0,0.00048675,0,0,0,0.020571,-0.00065745,0.005974,0.50531,0.0086292,0.018811,2.0416e-07,0.68,0.32,0
0.031517,0.003946,0.020386,-0.00095587,0.0058291,0.00033879,0,0,0.018924,-0.0088205,0,0.00088084,0,0,0,0.020392,-0.00096124,0.0058291,0.90921,0.0084199,0.018896,2.0174e-07,0.7,0.32,0
0.031894,0.0040142,0.019925,-0.0013993,0.0055576,0.00071965,0,0,0.018677,-0.0090439,0,0.0018711,0,0,0,0.019949,-0.0014235,0.0055576,1.9307,0.0080276,0.018876,1.9296e-07,0.72,0.32,0
0.032264,0.004095,0.018655,-0.0025416,0.0048341,0.00093911,0,0,0.017968,-0.0095885,0,0.0024417,0,0,0,0.018697,-0.0025832,0.0048341,2.5318,0.0069826,0.018709,1.6693e-07,0.74,0.32,0
0.032613,0.0041293,0.018488,-0.00032602,0.0054487,0.00105,0,0,0.041642,-0.012011,0,0.0070317,0,0,0,0.018551,-0.00038832,0.0054487,3.3529,0.0078703,0.016949,1.2713e-07,0.76,0.32,0
0.03393,0.0043412,0.019312,0.003268,0.006774,-0.00026667,0,0,0.065198,-0.018231,0,-0.0027734,0,0,0,0.019317,0.0032635,0.006774,-0.95197,0.0097847,0.014617,1.2975e-07,0.78,0.32,0
0.035221,0.0047023,0.019678,0.002303,0.0065942,1.702e-05,0,0,0.068034,-0.022314,0,0.00017701,0,0,0,0.019678,0.002303,0.0065942,0.056126,0.009525,0.015676,1.49e-07,0.8,0.32,0
0.036651,0.0048932,0.020617,0.0013371,0.0065861,-0.00022984,0,0,0.072959,-0.027295,0,-0.0023903,0,0,0,0.020619,0.0013343,0.0065861,-0.6829,0.0095133,0.017269,1.8436e-07,0.82,0.32,0
0.038139,0.0050274,0.020815,0.00069611,0.0064533,-0.00024781,0,0,0.07468,-0.029937,0,-0.0025772,0,0,0,0.020818,0.00069306,0.0064533,-0.70558,0.0093214,0.017952,1.9727e-07,0.84,0.32,0
0.039639,0.005129,0.020664,0.00019661,0.0062582,-0.00023207,0,0,0.074911,-0.03152,0,-0.0024135,0,0,0,0.020667,0.00019398,0.0062582,-0.64953,0.0090397,0.018214,1.9835e-07,0.86,0.32,0
0.041136,0.0052077,0.020455,-0.00016521,0.006087,-0.00020308,0,0,0.074715,-0.032512,0,-0.002112,0,0,0,0.020457,-0.00016721,0.006087,-0.5642,0.0087924,0.018316,1.9604e-07,0.88,0.32,0
0.042627,0.0052693,0.020255,-0.00042712,0.0059482,-0.00016751,0,0,0.074393,-0.033152,0,-0.0017421,0,0,0,0.020256,-0.00042848,0.0059482,-0.46403,0.0085919,0.018347,1.9286e-07,0.9,0.32,0
0.044111,0.005317,0.020083,-0.00061547,0.0058404,-0.00013045,0,0,0.074064,-0.03357,0,-0.0013567,0,0,0,0.020084,-0.00061629,0.0058404,-0.36107,0.0084361,0.018345,1.8977e-07,0.92,0.32,0
0.04559,0.0053529,0.019949,-0.00074795,0.0057602,-9.4729e-05,0,0,0.073779,-0.033842,0,-0.00098518,0,0,0,0.019949,-0.00074838,0.0057602,-0.26224,0.0083202,0.018331,1.8719e-07,0.94,0.32,0
0.047063,0.0053779,0.019852,-0.00083588,0.0057048,-6.1341e-05,0,0,0.073565,-0.034012,0,-0.00063795,0,0,0,0.019852,-0.00083606,0.0057048,-0.16989,0.0082402,0.018316,1.8528e-07,0.96,0.32,0
0.048532,0.0053927,0.019794,-0.00088616,0.0056723,-3.0067e-05,0,0,0.073432,-0.034104,0,-0.00031269,0,0,0,0.019794,-0.0008862,0.0056723,-0.083302,0.0081934,0.018304,1.8411e-07,0.98,0.32,0
0.05,0.0053977,0.019775,-0.00090253,0.0056616,2.3654e-05,0,0,0.073387,-0.034134,0,0.000246,0,0,0,0.019775,-0.00090255,0.0056616,0.065545,0.0081779,0.0183,1.8372e-07,1,0.32,0
0,0,0.016334,0.0070004,0.0070004,0.001279,0,0,0.048536,-8.6736e-19,0,0.013301,0,0,0,0.016506,0.0068283,0.0070004,7.6627,0.010112,0.0095931,4.5294e-08,0,0.34,0
0.00097072,0.00026602,0.016266,0.006243,0.0067527,0.0012742,0,0,0.049469,-0.0026504,0,0.013252,0,0,0,0.016425,0.0060835,0.0067527,7.133,0.0097538,0.010024,5.0954e-08,0.02,0.34,0
0.0019788,0.00052977,0.01652,0.0056632,0.0066549,0.001258,0,0,0.051298,-0.005157,0,0.013083,0,0,0,0.016664,0.0055193,0.0066549,6.5237,0.0096127,0.010622,5.919e-08,0.04,0.34,0
0.0030226,0.00078976,0.01677,0.0051166,0.0065659,0.0012313,0,0,0.05306,-0.0075361,0,0.012805,0,0,0,0.016898,0.0049879,0.0065659,5.9662,0.0094841,0.011205,6.7449e-08,0.06,0.34,0
0.0041011,0.0010443,0.017017,0.004602,0.0064857,0.0011934,0,0,0.054763,-0.0097953,0,0.012412,0,0,0,0.017131,0.0044883,0.0064857,5.4413,0.0093683,0.011772,7.5709e-08,0.08,0.34,0
0.0052131,0.0012915,0.017263,0.0041196,0.0064149,0.0011443,0,0,0.056412,-0.011936,0,0.011901,0,0,0,0.017362,0.0040207,0.0064149,4.9388,0.009266,0.01232,8.3951e-08,0.1,0.34,0
0.0063576,0.0015297,0.01751,0.0036705,0.0063541,0.0010847,0,0,0.05801,-0.013955,0,0.011281,0,0,0,0.017594,0.003586,0.0063541,4.4544,0.0091781,0.01285,9.2155e-08,0.12,0.34,0
0.0075335,0.001757,0.017757,0.0032566,0.0063041,0.0010157,0,0,0.059556,-0.015847,0,0.010563,0,0,0,0.017828,0.0031858,0.0063041,3.9874,0.009106,0.013359,1.0031e-07,0.14,0.34,0
0.0087399,0.0019719,0.018007,0.0028803,0.0062661,0.00093913,0,0,0.061051,-0.017606,0,0.0097669,0,0,0,0.018065,0.0028222,0.0062661,3.5391,0.009051,0.013846,1.0841e-07,0.16,0.34,0
0.0099756,0.002173,0.01826,0.0025442,0.0062413,0.00085697,0,0,0.062498,-0.019225,0,0.0089125,0,0,0,0.018307,0.0024977,0.0062413,3.112,0.0090152,0.014309,1.1647e-07,0.18,0.34,0
0.01124,0.0023591,0.018519,0.0022517,0.0062311,0.00077138,0,0,0.063896,-0.020693,0,0.0080223,0,0,0,0.018555,0.0022152,0.0062311,2.7088,0.0090005,0.014748,1.2449e-07,0.2,0.34,0
0.012531,0.0025293,0.018784,0.0020068,0.0062374,0.00068436,0,0,0.065245,-0.021999,0,0.0071174,0,0,0,0.018812,0.0019789,0.0062374,2.3319,0.0090095,0.01516,1.3247e-07,0.22,0.34,0
0.01385,0.002683,0.019058,0.0018152,0.006262,0.00059761,0,0,0.066541,-0.023124,0,0.0062152,0,0,0,0.019079,0.0017945,0.006262,1.9826,0.0090452,0.01554,1.4039e-07,0.24,0.34,0
0.015193,0.0028197,0.01934,0.0016849,0.0063075,0.0005121,0,0,0.067769,-0.024037,0,0.0053258,0,0,0,0.019355,0.0016701,0.0063075,1.66,0.0091108,0.015882,1.4816e-07,0.26,0.34,0
0.01656,0.0029388,0.019626,0.0016282,0.0063762,0.00042761,0,0,0.068898,-0.02469,0,0.0044472,0,0,0,0.019636,0.001618,0.0063762,1.3603,0.0092101,0.016173,1.5553e-07,0.28,0.34,0
0.017949,0.0030397,0.019907,0.0016631,0.0064709,0.00034202,0,0,0.069865,-0.025,0,0.003557,0,0,0,0.019913,0.0016567,0.0064709,1.0737,0.0093468,0.016388,1.6203e-07,0.3,0.34,0
0.019355,0.0031215,0.020162,0.0018177,0.0065939,0.00025027,0,0,0.070554,-0.024836,0,0.0026028,0,0,0,0.020165,0.0018143,0.0065939,0.78148,0.0095245,0.016489,1.6671e-07,0.32,0.34,0
0.020771,0.0031826,0.020358,0.0021328,0.0067472,0.00014432,0,0,0.070776,-0.023995,0,0.0015009,0,0,0,0.020359,0.0021317,0.0067472,0.45366,0.009746,0.016414,1.6803e-07,0.34,0.34,0
0.022186,0.0032207,0.020452,0.0026669,0.0069357,1.7794e-05,0,0,0.070285,-0.022198,0,0.00018505,0,0,0,0.020452,0.0026669,0.0069357,0.057323,0.010018,0.016082,1.6394e-07,0.36,0.34,0
0.023582,0.003235,0.020423,0.0034754,0.0071694,-0.00012034,0,0,0.068917,-0.019209,0,-0.0012515,0,0,0,0.020424,0.0034745,0.0071694,-0.40682,0.010356,0.015437,1.5306e-07,0.38,0.34,0
0.024943,0.0032287,0.020286,0.0045188,0.0074415,-0.00023235,0,0,0.066792,-0.015198,0,-0.0024164,0,0,0,0.020289,0.0045154,0.0074415,-0.84406,0.010749,0.014534,1.3638e-07,0.4,0.34,0
0.026254,0.0032116,0.019987,0.0010204,0.0063024,-0.00029126,0,0,0.042383,-0.010986,0,-0.0018727,0,0,0,0.019992,0.0010157,0.0063024,-0.92208,0.0091034,0.017076,1.5957e-07,0.42,0.34,0
0.026638,0.0032385,0.019983,-0.0017263,0.005477,-0.00027367,0,0,0.018858,-0.0093643,0,-0.00071155,0,0,0,0.019987,-0.0017298,0.005477,-0.72213,0.0079113,0.019158,1.9649e-07,0.44,0.34,0
0.027009,0.0032681,0.019951,-0.00063643,0.0057943,-0.000213,0,0,0.018403,-0.00836,0,-0.00055381,0,0,0,0.019953,-0.00063863,0.0057943,-0.59272,0.0083696,0.018246,1.8632e-07,0.46,0.34,0
0.027374,0.0033015,0.020032,-0.0001458,0.0059658,-0.00016042,0,0,0.018286,-0.0079451,0,-0.00041709,0,0,0,0.020033,-0.00014708,0.0059658,-0.45548,0.0086173,0.017923,1.8394e-07,0.48,0.34,0
0.02774,0.0033374,0.020181,3.9002e-05,0.006066,-0.00015559,0,0,0.018349,-0.0078351,0,-0.00040453,0,0,0,0.020182,3.78e-05,0.006066,-0.44256,0.008762,0.017908,1.8624e-07,0.5,0.34,0
0.028108,0.0033743,0.02033,0.00014614,0.0061429,-0.00016109,0,0,0.018443,-0.0077957,0,-0.00041885,0,0,0,0.020331,0.00014486,0.0061429,-0.45726,0.008873,0.017955,1.8932e-07,0.52,0.34,0
0.028478,0.0034116,0.020428,0.00023064,0.0061975,-0.00015463,0,0,0.018499,-0.007757,0,-0.00040203,0,0,0,0.020429,0.00022945,0.0061975,-0.43862,0.008952,0.017975,1.9119e-07,0.54,0.34,0
0.028848,0.0034498,0.020482,0.00028681,0.0062305,-0.0001261,0,0,0.018526,-0.0077268,0,-0.00032785,0,0,0,0.020482,0.00028602,0.0062305,-0.35773,0.0089996,0.017977,1.9211e-07,0.56,0.34,0
0.029219,0.0034894,0.020513,0.00028657,0.0062399,-7.9025e-05,0,0,0.018555,-0.0077393,0,-0.00020546,0,0,0,0.020513,0.00028626,0.0062399,-0.22385,0.0090132,0.018004,1.9298e-07,0.58,0.34,0
0.02959,0.0035308,0.02054,0.00020971,0.006225,-2.1314e-05,0,0,0.01861,-0.0078199,0,-5.5417e-05,0,0,0,0.02054,0.00020969,0.006225,-0.060068,0.0089917,0.018089,1.9456e-07,0.6,0.34,0
0.029963,0.0035742,0.020569,5.539e-05,0.0061874,3.7599e-05,0,0,0.018697,-0.0079717,0,9.7758e-05,0,0,0,0.02057,5.5321e-05,0.0061874,0.10501,0.0089374,0.018238,1.97e-07,0.62,0.34,0
0.030338,0.0036196,0.020595,-0.00015741,0.0061313,9.1073e-05,0,0,0.018803,-0.0081754,0,0.00023679,0,0,0,0.020596,-0.00015782,0.0061313,0.25144,0.0088564,0.018432,1.9994e-07,0.64,0.34,0
0.030715,0.0036667,0.020618,-0.00039992,0.0060653,0.00013937,0,0,0.018918,-0.0084048,0,0.00036236,0,0,0,0.020619,-0.00040085,0.0060653,0.37991,0.008761,0.018647,2.0305e-07,0.66,0.34,0
0.031095,0.0037157,0.020672,-0.00065996,0.0060037,0.00020204,0,0,0.019069,-0.0086628,0,0.00052532,0,0,0,0.020674,-0.00066187,0.0060037,0.5426,0.008672,0.018906,2.0726e-07,0.68,0.34,0
0.031478,0.0037675,0.020906,-0.00096983,0.0059808,0.00032561,0,0,0.019402,-0.0090358,0,0.0008466,0,0,0,0.020911,-0.00097468,0.0059808,0.85258,0.0086389,0.019368,2.1743e-07,0.7,0.34,0
0.031871,0.0038246,0.021638,-0.0014516,0.0060558,0.00060909,0,0,0.020256,-0.0097596,0,0.0015836,0,0,0,0.021653,-0.0014677,0.0060558,1.5101,0.0087472,0.020427,2.4603e-07,0.72,0.34,0
0.032288,0.0038895,0.022819,-0.0022969,0.0061566,0.00080156,0,0,0.021661,-0.01099,0,0.0020841,0,0,0,0.022845,-0.0023224,0.0061566,1.8261,0.0088929,0.022178,2.9687e-07,0.74,0.34,0
0.032737,0.00392,0.018713,0.0011019,0.0059445,0.0012077,0,0,0.028318,-0.01022,0,0.0073972,0,0,0,0.018818,0.00099683,0.0059445,5.1958,0.0085865,0.015935,2.5822e-07,0.76,0.34,0
0.033362,0.0040228,0.026637,0.0020748,0.0086136,4.9563e-05,0,0,0.046848,-0.014136,0,-0.0038364,0,0,0,0.02669,0.0020221,0.0086136,-1.0103,0.012442,0.022149,5.1934e-07,0.78,0.34,0
0.034923,0.0042441,0.022613,0.0028676,0.0076442,-3.7933e-05,0,0,0.077838,-0.024838,0,-0.0003945,0,0,0,0.022613,0.0028676,0.0076442,-0.11007,0.011042,0.017843,2.2281e-07,0.8,0.34,0
0.036476,0.0043367,0.021892,0.0016012,0.0070479,-5.6119e-05,0,0,0.077188,-0.028323,0,-0.00058364,0,0,0,0.021892,0.0016011,0.0070479,-0.15846,0.01018,0.01819,2.1822e-07,0.82,0.34,0
0.038011,0.0044208,0.021346,0.00075198,0.0066293,1.5225e-05,0,0,0.076525,-0.030562,0,0.00015834,0,0,0,0.021346,0.00075197,0.0066293,0.04236,0.0095757,0.018374,2.1217e-07,0.84,0.34,0
0.039537,0.0044918,0.02099,0.00020193,0.0063577,2.9983e-05,0,0,0.07609,-0.03201,0,0.00031182,0,0,0,0.02099,0.00020189,0.0063577,0.082638,0.0091833,0.018496,2.0776e-07,0.86,0.34,0
0.041054,0.0045512,0.020705,-0.00017635,0.0061586,3.3975e-05,0,0,0.075642,-0.032942,0,0.00035334,0,0,0,0.020705,-0.00017641,0.0061586,0.093223,0.0088958,0.018544,2.0333e-07,0.88,0.34,0
0.042563,0.0046005,0.020467,-0.00044224,0.0060075,3.4165e-05,0,0,0.075191,-0.033539,0,0.00035532,0,0,0,0.020467,-0.00044229,0.0060075,0.093619,0.0086775,0.018546,1.9905e-07,0.9,0.34,0
0.044062,0.0046403,0.020273,-0.00063002,0.0058929,3.1737e-05,0,0,0.074777,-0.033919,0,0.00033007,0,0,0,0.020273,-0.00063007,0.0058929,0.086993,0.008512,0.018524,1.9525e-07,0.92,0.34,0
0.045554,0.0046711,0.020122,-0.00076042,0.0058086,2.6697e-05,0,0,0.074432,-0.034159,0,0.00027765,0,0,0,0.020122,-0.00076046,0.0058086,0.073248,0.0083902,0.018495,1.9217e-07,0.94,0.34,0
0.047039,0.0046931,0.020015,-0.00084619,0.0057507,1.9291e-05,0,0,0.074175,-0.034304,0,0.00020063,0,0,0,0.020015,-0.00084621,0.0057507,0.052983,0.0083066,0.018469,1.8991e-07,0.96,0.34,0
0.048521,0.0047063,0.019951,-0.00089496,0.0057169,1.0115e-05,0,0,0.074018,-0.034381,0,0.0001052,0,0,0,0.019951,-0.00089496,0.0057169,0.027802,0.0082577,0.018451,1.8855e-07,0.98,0.34,0
0.05,0.0047107,0.01993,-0.00091079,0.0057057,2.1137e-05,0,0,0.073966,-0.034406,0,0.00021983,0,0,0,0.01993,-0.00091081,0.0057057,0.058112,0.0082416,0.018445,1.8809e-07,1,0.34,0
0,0,0.016324,0.0069962,0.0069962,0.0010258,0,0,0.048507,7.5894e-19,0,0.010668,0,0,0,0.016436,0.0068847,0.0069962,6.2019,0.010106,0.0094959,4.3958e-08,0,0.36,0
0.00097014,0.00021337,0.016257,0.006251,0.0067524,0.0010209,0,0,0.049424,-0.002607,0,0.010617,0,0,0,0.01636,0.0061479,0.0067524,5.7667,0.0097535,0.0099237,4.9565e-08,0.02,0.36,0
0.0019769,0.0004274,0.016507,0.0056825,0.0066568,0.0010096,0,0,0.05122,-0.0050662,0,0.010499,0,0,0,0.0166,0.0055892,0.0066568,5.2832,0.0096154,0.010518,5.7689e-08,0.04,0.36,0
0.0030189,0.00064025,0.016753,0.005148,0.0065702,0.00098563,0,0,0.052949,-0.0073956,0,0.01025,0,0,0,0.016836,0.0050648,0.0065702,4.8203,0.0094903,0.011095,6.5816e-08,0.06,0.36,0
0.0040949,0.00085005,0.016997,0.0046455,0.0064926,0.00094904,0,0,0.05462,-0.0096049,0,0.0098701,0,0,0,0.017069,0.004573,0.0064926,4.3684,0.0093782,0.011655,7.394e-08,0.08,0.36,0
0.0052038,0.0010549,0.01724,0.0041747,0.0064244,0.00090015,0,0,0.05624,-0.011698,0,0.0093615,0,0,0,0.017302,0.004113,0.0064244,3.9228,0.0092797,0.012198,8.2053e-08,0.1,0.36,0
0.0063445,0.0012531,0.017484,0.0037364,0.0063661,0.00083968,0,0,0.057813,-0.013675,0,0.0087326,0,0,0,0.017535,0.0036853,0.0063661,3.4822,0.0091955,0.012723,9.0152e-08,0.12,0.36,0
0.0075163,0.0014429,0.01773,0.0033318,0.0063186,0.00076877,0,0,0.059341,-0.015532,0,0.0079952,0,0,0,0.017771,0.0032908,0.0063186,3.0476,0.0091269,0.013229,9.8233e-08,0.14,0.36,0
0.0087182,0.0016228,0.01798,0.0029628,0.0062829,0.00068889,0,0,0.060825,-0.017264,0,0.0071645,0,0,0,0.018012,0.0029313,0.0062829,2.621,0.0090753,0.013715,1.063e-07,0.16,0.36,0
0.0099493,0.0017915,0.018235,0.0026322,0.00626,0.00060181,0,0,0.062268,-0.018865,0,0.0062588,0,0,0,0.018258,0.002609,0.00626,2.2056,0.0090423,0.01418,1.1437e-07,0.18,0.36,0
0.011209,0.0019482,0.018496,0.0023429,0.0062516,0.00050949,0,0,0.06367,-0.020325,0,0.0052987,0,0,0,0.018512,0.0023268,0.0062516,1.8048,0.0090301,0.014623,1.2245e-07,0.2,0.36,0
0.012496,0.0020923,0.018765,0.0020991,0.0062592,0.00041406,0,0,0.06503,-0.021632,0,0.0043063,0,0,0,0.018775,0.0020889,0.0062592,1.4223,0.0090411,0.015041,1.3053e-07,0.22,0.36,0
0.01381,0.0022233,0.019043,0.0019067,0.006285,0.0003179,0,0,0.066343,-0.022767,0,0.0033062,0,0,0,0.019049,0.0019008,0.006285,1.0624,0.0090783,0.015431,1.3861e-07,0.24,0.36,0
0.01515,0.0023415,0.01933,0.0017739,0.0063312,0.00022374,0,0,0.067594,-0.023698,0,0.0023269,0,0,0,0.019333,0.001771,0.0063312,0.73004,0.0091451,0.015784,1.4657e-07,0.26,0.36,0
0.016514,0.0024473,0.019622,0.001713,0.0064004,0.00013501,0,0,0.068751,-0.024375,0,0.0014041,0,0,0,0.019623,0.001712,0.0064004,0.43191,0.009245,0.016087,1.5419e-07,0.28,0.36,0
0.0179,0.0025421,0.019908,0.0017428,0.0064953,5.6402e-05,0,0,0.069748,-0.024713,0,0.00058658,0,0,0,0.019908,0.0017426,0.0064953,0.17789,0.0093822,0.016317,1.6096e-07,0.3,0.36,0
0.019304,0.0026275,0.02017,0.0018914,0.0066184,-5.3273e-06,0,0,0.070468,-0.02458,0,-5.5405e-05,0,0,0,0.02017,0.0018914,0.0066184,-0.016699,0.0095598,0.016433,1.6594e-07,0.32,0.36,0
0.020719,0.0027064,0.020371,0.0022005,0.0067715,-4.1361e-05,0,0,0.070718,-0.023769,0,-0.00043015,0,0,0,0.020371,0.0022004,0.0067715,-0.13042,0.009781,0.016371,1.6752e-07,0.34,0.36,0
0.022132,0.0027821,0.02047,0.0027289,0.0069596,-4.5203e-05,0,0,0.070253,-0.022,0,-0.00047011,0,0,0,0.02047,0.0027288,0.0069596,-0.14599,0.010053,0.01605,1.6363e-07,0.36,0.36,0
0.023529,0.0028568,0.020445,0.0035314,0.0071929,-2.4913e-05,0,0,0.068911,-0.01904,0,-0.0002591,0,0,0,0.020445,0.0035313,0.0071929,-0.084394,0.01039,0.015413,1.5286e-07,0.38,0.36,0
0.024889,0.0029292,0.020314,0.0045655,0.0074637,-1.3859e-05,0,0,0.066819,-0.015071,0,-0.00014413,0,0,0,0.020314,0.0045655,0.0074637,-0.050423,0.010781,0.014518,1.3627e-07,0.4,0.36,0
0.026201,0.0029926,0.020023,0.0010759,0.0063296,-4.8829e-05,0,0,0.042411,-0.010928,0,-0.00012217,0,0,0,0.020023,0.0010757,0.0063296,-0.11986,0.0091428,0.017055,1.5997e-07,0.42,0.36,0
0.026585,0.0030506,0.020025,-0.0016794,0.0055035,-0.00016946,0,0,0.018877,-0.0093379,0,-0.0004406,0,0,0,0.020026,-0.0016808,0.0055035,-0.44732,0.0079496,0.019153,1.9724e-07,0.44,0.36,0
0.026957,0.0031003,0.019999,-0.00062201,0.0058131,-0.00029404,0,0,0.018442,-0.0083656,0,-0.0007645,0,0,0,0.020003,-0.0006262,0.0058131,-0.81677,0.0083967,0.018281,1.876e-07,0.46,0.36,0
0.027323,0.0031427,0.020085,-0.00015394,0.0059794,-0.00035722,0,0,0.018338,-0.0079734,0,-0.00092876,0,0,0,0.020092,-0.00016025,0.0059794,-1.0108,0.0086369,0.017986,1.8568e-07,0.48,0.36,0
0.02769,0.0031812,0.020237,1.6295e-05,0.0060759,-0.0003339,0,0,0.018409,-0.0078775,0,-0.00086813,0,0,0,0.020242,1.0783e-05,0.0060759,-0.94577,0.0087763,0.017983,1.8818e-07,0.5,0.36,0
0.028059,0.0032186,0.020386,0.00011337,0.0061499,-0.00027402,0,0,0.018507,-0.0078475,0,-0.00071246,0,0,0,0.02039,0.00010966,0.0061499,-0.77426,0.0088832,0.018035,1.9133e-07,0.52,0.36,0
0.02843,0.0032564,0.020484,0.00019017,0.0062023,-0.00020758,0,0,0.018566,-0.0078157,0,-0.0005397,0,0,0,0.020486,0.00018805,0.0062023,-0.58597,0.0089588,0.018058,1.9324e-07,0.54,0.36,0
0.028802,0.0032948,0.020538,0.00024049,0.0062335,-0.00014946,0,0,0.018596,-0.0077909,0,-0.0003886,0,0,0,0.020539,0.00023939,0.0062335,-0.42187,0.009004,0.018065,1.9421e-07,0.56,0.36,0
0.029174,0.003334,0.02057,0.0002356,0.0062416,-9.9292e-05,0,0,0.018627,-0.0078078,0,-0.00025816,0,0,0,0.02057,0.00023512,0.0062416,-0.27977,0.0090156,0.018096,1.9514e-07,0.58,0.36,0
0.029547,0.0033737,0.020598,0.00015522,0.0062258,-5.1642e-05,0,0,0.018683,-0.0078918,0,-0.00013427,0,0,0,0.020598,0.00015509,0.0062258,-0.14474,0.0089929,0.018184,1.9677e-07,0.6,0.36,0
0.029922,0.0034141,0.020627,-1.4257e-06,0.0061877,5.2053e-07,0,0,0.018771,-0.0080459,0,1.3534e-06,0,0,0,0.020627,-1.4257e-06,0.0061877,0.0014458,0.0089378,0.018335,1.9925e-07,0.62,0.36,0
0.030298,0.0034555,0.020653,-0.00021506,0.0061314,6.0886e-05,0,0,0.018878,-0.0082504,0,0.0001583,0,0,0,0.020653,-0.00021523,0.0061314,0.16717,0.0088565,0.018529,2.0221e-07,0.64,0.36,0
0.030677,0.0034981,0.020675,-0.00045614,0.0060656,0.00012506,0,0,0.018992,-0.0084783,0,0.00032515,0,0,0,0.020676,-0.00045688,0.0060656,0.33907,0.0087614,0.018743,2.0529e-07,0.66,0.36,0
0.031058,0.0035417,0.020725,-0.00071221,0.0060038,0.00016709,0,0,0.019137,-0.0087308,0,0.00043445,0,0,0,0.020726,-0.00071351,0.0060038,0.44657,0.0086721,0.018994,2.0931e-07,0.68,0.36,0
0.031442,0.0035846,0.020943,-0.0010142,0.0059787,0.00013108,0,0,0.019454,-0.0090908,0,0.00034082,0,0,0,0.020944,-0.001015,0.0059787,0.34204,0.0086359,0.01943,2.1884e-07,0.7,0.36,0
0.031836,0.0036238,0.021614,-0.0014958,0.0060354,-9.5675e-05,0,0,0.020252,-0.0097906,0,-0.00024875,0,0,0,0.021614,-0.0014962,0.0060354,-0.2372,0.0087179,0.020415,2.4499e-07,0.72,0.36,0
0.032252,0.0036554,0.022639,-0.0023577,0.0060844,-0.00023527,0,0,0.021521,-0.010975,0,-0.00061171,0,0,0,0.022641,-0.0023599,0.0060844,-0.53922,0.0087886,0.022028,2.8956e-07,0.74,0.36,0
0.032697,0.0037254,0.01848,0.00090484,0.0058153,-0.00064903,0,0,0.028108,-0.010422,0,-0.0044831,0,0,0,0.018518,0.00086691,0.0058153,-3.1408,0.0083999,0.015771,2.4916e-07,0.76,0.36,0
0.033318,0.0037579,0.0266,0.0021269,0.0086181,0.00063124,0,0,0.046928,-0.013889,0,0.0074861,0,0,0,0.026676,0.0020513,0.0086181,2.65,0.012448,0.022115,5.1047e-07,0.78,0.36,0
0.034891,0.0037088,0.022772,0.0029161,0.0077063,0.00052065,0,0,0.07834,-0.024909,0,0.0054148,0,0,0,0.022785,0.0029025,0.0077063,1.501,0.011131,0.017969,2.2774e-07,0.8,0.36,0
0.036451,0.0037603,0.021984,0.0016273,0.0070835,0.00048195,0,0,0.077485,-0.028372,0,0.0050123,0,0,0,0.021996,0.0016159,0.0070835,1.3555,0.010232,0.01827,2.2125e-07,0.82,0.36,0
0.037991,0.0038049,0.02141,0.00076853,0.0066536,0.00037959,0,0,0.076734,-0.030602,0,0.0039477,0,0,0,0.021417,0.00076156,0.0066536,1.0532,0.0096107,0.01843,2.1421e-07,0.84,0.36,0
0.039521,0.0038486,0.021046,0.0002193,0.0063795,0.00033292,0,0,0.076264,-0.032033,0,0.0034624,0,0,0,0.021051,0.00021398,0.0063795,0.91559,0.0092148,0.01854,2.0944e-07,0.86,0.36,0
0.041041,0.0038901,0.020755,-0.00015637,0.0061796,0.00029256,0,0,0.075792,-0.032947,0,0.0030426,0,0,0,0.020759,-0.00016046,0.0061796,0.80138,0.0089261,0.018579,2.0475e-07,0.88,0.36,0
0.042552,0.0039278,0.020513,-0.00041915,0.0060283,0.00025,0,0,0.075322,-0.033527,0,0.0026,0,0,0,0.020516,-0.00042213,0.0060283,0.68416,0.0087075,0.018573,2.0028e-07,0.9,0.36,0
0.044054,0.0039603,0.020316,-0.00060402,0.0059137,0.00020398,0,0,0.074893,-0.033892,0,0.0021214,0,0,0,0.020318,-0.000606,0.0059137,0.55858,0.0085419,0.018545,1.9632e-07,0.92,0.36,0
0.045548,0.0039865,0.020163,-0.00073198,0.0058294,0.00015517,0,0,0.074537,-0.034119,0,0.0016138,0,0,0,0.020164,-0.00073313,0.0058294,0.42545,0.0084203,0.01851,1.9311e-07,0.94,0.36,0
0.047036,0.0040058,0.020055,-0.00081593,0.0057717,0.00010443,0,0,0.074272,-0.034256,0,0.001086,0,0,0,0.020055,-0.00081645,0.0057717,0.28667,0.0083368,0.018481,1.9078e-07,0.96,0.36,0
0.048519,0.0040175,0.01999,-0.00086359,0.0057379,5.2495e-05,0,0,0.07411,-0.034328,0,0.00054595,0,0,0,0.01999,-0.00086372,0.0057379,0.14423,0.0082881,0.018461,1.8936e-07,0.98,0.36,0
0.05,0.0040214,0.019968,-0.00087904,0.0057268,1.896e-05,0,0,0.074056,-0.03435,0,0.00019719,0,0,0,0.019968,-0.00087906,0.0057268,0.05211,0.008272,0.018454,1.8889e-07,1,0.36,0
0,0,0.016289,0.0069809,0.0069809,0.00077761,0,0,0.048401,-4.3368e-19,0,0.0080871,0,0,0,0.016353,0.0069164,0.0069809,4.7429,0.010084,0.0094048,4.2717e-08,0,0.38,0
0.00096802,0.00016174,0.016223,0.0062529,0.0067427,0.00077253,0,0,0.049296,-0.0025467,0,0.0080343,0,0,0,0.016282,0.0061934,0.0067427,4.4046,0.0097394,0.0098257,4.8207e-08,0.02,0.38,0
0.0019718,0.00032713,0.016467,0.0056983,0.0066495,0.00076619,0,0,0.051049,-0.0049462,0,0.0079684,0,0,0,0.016521,0.0056441,0.0066495,4.0495,0.0096048,0.010411,5.6132e-08,0.04,0.38,0
0.00301,0.00049394,0.016707,0.0051774,0.0065652,0.00074492,0,0,0.052735,-0.0072165,0,0.0077472,0,0,0,0.016755,0.0051295,0.0065652,3.6816,0.0094831,0.010978,6.4047e-08,0.06,0.38,0
0.0040813,0.00066009,0.016945,0.0046883,0.0064899,0.00070935,0,0,0.054365,-0.0093682,0,0.0073772,0,0,0,0.016986,0.0046474,0.0064899,3.3014,0.0093742,0.011528,7.1952e-08,0.08,0.38,0
0.0051846,0.00082361,0.017182,0.0042302,0.0064237,0.00066019,0,0,0.055944,-0.011406,0,0.006866,0,0,0,0.017216,0.0041966,0.0064237,2.9104,0.0092787,0.012061,7.9847e-08,0.1,0.38,0
0.006319,0.00098271,0.017421,0.0038035,0.0063672,0.00059832,0,0,0.057478,-0.013331,0,0.0062226,0,0,0,0.017447,0.0037773,0.0063672,2.5111,0.0091971,0.012576,8.7731e-08,0.12,0.38,0
0.0074837,0.0011357,0.017661,0.0034093,0.0063212,0.00052483,0,0,0.058969,-0.015142,0,0.0054582,0,0,0,0.017681,0.00339,0.0063212,2.1061,0.0091306,0.013074,9.5609e-08,0.14,0.38,0
0.0086777,0.0012813,0.017906,0.0030493,0.0062864,0.00044101,0,0,0.060419,-0.016833,0,0.0045865,0,0,0,0.017919,0.0030362,0.0062864,1.6988,0.0090804,0.013553,1.0349e-07,0.16,0.38,0
0.0099004,0.0014184,0.018155,0.0027257,0.0062641,0.00034839,0,0,0.061831,-0.018399,0,0.0036232,0,0,0,0.018163,0.0027179,0.0062641,1.2929,0.0090482,0.014012,1.1137e-07,0.18,0.38,0
0.011151,0.001546,0.01841,0.0024416,0.0062556,0.00024879,0,0,0.063205,-0.019833,0,0.0025874,0,0,0,0.018414,0.0024377,0.0062556,0.89236,0.0090358,0.014451,1.1929e-07,0.2,0.38,0
0.012429,0.001664,0.018674,0.0022007,0.0062625,0.00014441,0,0,0.064541,-0.021121,0,0.0015019,0,0,0,0.018676,0.0021995,0.0062625,0.50222,0.0090458,0.014867,1.2723e-07,0.22,0.38,0
0.013733,0.0017723,0.018948,0.0020085,0.0062869,3.8151e-05,0,0,0.065836,-0.022247,0,0.00039677,0,0,0,0.018948,0.0020084,0.0062869,0.12904,0.009081,0.015257,1.352e-07,0.24,0.38,0
0.015062,0.0018717,0.019231,0.0018724,0.0063311,-6.5894e-05,0,0,0.067081,-0.023185,0,-0.0006853,0,0,0,0.019232,0.0018721,0.0063311,-0.21749,0.009145,0.015615,1.4312e-07,0.26,0.38,0
0.016416,0.0019638,0.019524,0.0018033,0.0063982,-0.00016142,0,0,0.068254,-0.023893,0,-0.0016788,0,0,0,0.019525,0.0018019,0.0063982,-0.52185,0.0092418,0.015931,1.5085e-07,0.28,0.38,0
0.017792,0.0020512,0.019821,0.0018173,0.0064915,-0.00023825,0,0,0.069313,-0.024306,0,-0.0024778,0,0,0,0.019824,0.0018142,0.0064915,-0.75806,0.0093765,0.016186,1.5805e-07,0.3,0.38,0
0.019188,0.0021383,0.02011,0.0019379,0.0066145,-0.00028004,0,0,0.070179,-0.024318,0,-0.0029124,0,0,0,0.020115,0.0019336,0.0066145,-0.88265,0.0095543,0.016351,1.6404e-07,0.32,0.38,0
0.020599,0.0022318,0.020369,0.0021998,0.0067706,-0.00026222,0,0,0.07071,-0.023768,0,-0.002727,0,0,0,0.020373,0.002196,0.0067706,-0.82667,0.0097797,0.016376,1.6761e-07,0.34,0.38,0
0.022017,0.0023407,0.020543,0.0026499,0.0069578,-0.00015838,0,0,0.070642,-0.022401,0,-0.0016472,0,0,0,0.020544,0.0026485,0.0069578,-0.5071,0.01005,0.016178,1.6654e-07,0.36,0.38,0
0.023425,0.0024734,0.020569,0.0033757,0.0071835,2.5768e-05,0,0,0.069606,-0.019801,0,0.00026799,0,0,0,0.020569,0.0033756,0.0071835,0.085868,0.010376,0.015641,1.5796e-07,0.38,0.38,0
0.024801,0.0026259,0.020484,0.0044818,0.0074897,0.00019733,0,0,0.06757,-0.015641,0,0.0020522,0,0,0,0.020486,0.0044794,0.0074897,0.70639,0.010818,0.014734,1.4145e-07,0.4,0.38,0
0.026128,0.0027745,0.020164,0.0011231,0.0063861,0.00017886,0,0,0.042789,-0.010947,0,0.0016149,0,0,0,0.020167,0.0011201,0.0063861,0.64558,0.0092243,0.017149,1.627e-07,0.42,0.38,0
0.026513,0.002865,0.020257,-0.0013231,0.0056802,-6.4112e-05,0,0,0.01895,-0.0091043,0,-0.00016669,0,0,0,0.020257,-0.0013233,0.0056802,-0.17022,0.0082047,0.019069,2.0101e-07,0.44,0.38,0
0.026886,0.0029335,0.020248,-0.000411,0.0059512,-0.0004369,0,0,0.018586,-0.0082708,0,-0.0011359,0,0,0,0.020258,-0.00042024,0.0059512,-1.2109,0.0085961,0.018342,1.9282e-07,0.46,0.38,0
0.027256,0.0029826,0.020332,-0.00021689,0.0060346,-0.00055288,0,0,0.018587,-0.008127,0,-0.0014375,0,0,0,0.020347,-0.00023175,0.0060346,-1.54,0.0087167,0.01827,1.9354e-07,0.48,0.38,0
0.027629,0.0030223,0.02052,-8.9226e-05,0.0061293,-0.0004897,0,0,0.018708,-0.0080841,0,-0.0012732,0,0,0,0.020532,-0.00010085,0.0061293,-1.3604,0.0088535,0.01833,1.9752e-07,0.5,0.38,0
0.028004,0.0030604,0.020622,8.104e-06,0.006189,-0.00035425,0,0,0.018763,-0.0080351,0,-0.00092105,0,0,0,0.020628,2.0179e-06,0.006189,-0.98425,0.0089397,0.018333,1.9924e-07,0.52,0.38,0
0.02838,0.003099,0.020668,0.00011496,0.0062348,-0.00023598,0,0,0.018763,-0.0079558,0,-0.00061353,0,0,0,0.020671,0.00011226,0.0062348,-0.65772,0.0090059,0.018283,1.9932e-07,0.54,0.38,0
0.028755,0.0031382,0.020679,0.00019247,0.0062614,-0.00015686,0,0,0.018743,-0.0078896,0,-0.00040783,0,0,0,0.02068,0.00019127,0.0062614,-0.43867,0.0090442,0.018228,1.9876e-07,0.56,0.38,0
0.02913,0.003177,0.020686,0.00020375,0.0062669,-0.00011255,0,0,0.018745,-0.0078821,0,-0.00029262,0,0,0,0.020687,0.00020313,0.0062669,-0.31482,0.0090522,0.018225,1.9882e-07,0.58,0.38,0
0.029505,0.0032151,0.020706,0.00012306,0.0062486,-8.2405e-05,0,0,0.018794,-0.0079632,0,-0.00021425,0,0,0,0.020706,0.00012273,0.0062486,-0.22939,0.0090258,0.018306,2.0024e-07,0.6,0.38,0
0.029881,0.0032524,0.02074,-4.9932e-05,0.0062071,-4.3299e-05,0,0,0.018893,-0.0081341,0,-0.00011258,0,0,0,0.02074,-5.0022e-05,0.0062071,-0.11933,0.0089658,0.018474,2.0306e-07,0.62,0.38,0
0.03026,0.0032896,0.020777,-0.0002897,0.0061462,2.2499e-05,0,0,0.01902,-0.0083667,0,5.8497e-05,0,0,0,0.020777,-0.00028973,0.0061462,0.061191,0.0088779,0.018699,2.0662e-07,0.64,0.38,0
0.030642,0.0033276,0.020787,-0.00055751,0.0060688,0.00011205,0,0,0.019133,-0.0086142,0,0.00029134,0,0,0,0.020787,-0.0005581,0.0060688,0.30079,0.008766,0.018923,2.0962e-07,0.66,0.38,0
0.031026,0.0033664,0.020736,-0.00081171,0.0059772,0.00018766,0,0,0.019186,-0.0088256,0,0.00048792,0,0,0,0.020737,-0.00081334,0.0059772,0.49895,0.0086338,0.019084,2.1062e-07,0.68,0.38,0
0.03141,0.0034039,0.020533,-0.0010879,0.0058336,0.00013514,0,0,0.019109,-0.0089978,0,0.00035137,0,0,0,0.020534,-0.0010887,0.0058336,0.35811,0.0084262,0.019125,2.071e-07,0.7,0.38,0
0.03179,0.003433,0.020039,-0.001484,0.0055665,-0.0001575,0,0,0.018814,-0.0091656,0,-0.00040949,0,0,0,0.02004,-0.0014851,0.0055665,-0.41924,0.0080405,0.019007,1.9607e-07,0.72,0.38,0
0.032162,0.0034505,0.018829,-0.0025346,0.0048883,-0.00033965,0,0,0.018123,-0.0096498,0,-0.00088308,0,0,0,0.018834,-0.00254,0.0048883,-0.9106,0.0070609,0.018795,1.7028e-07,0.74,0.38,0
0.032515,0.00351,0.018624,-0.00040541,0.0054655,-0.00049478,0,0,0.041958,-0.012212,0,-0.0037876,0,0,0,0.01864,-0.00042165,0.0054655,-1.6486,0.0078947,0.017059,1.288e-07,0.76,0.38,0
0.033841,0.0034543,0.019507,0.0034916,0.0068996,0.00077076,0,0,0.065559,-0.017722,0,0.0080159,0,0,0,0.019544,0.0034546,0.0068996,2.7489,0.0099661,0.014674,1.326e-07,0.78,0.38,0
0.035137,0.0032477,0.019829,0.0023602,0.0066567,0.00046694,0,0,0.068495,-0.022342,0,0.0048562,0,0,0,0.019841,0.0023477,0.0066567,1.5301,0.0096152,0.015786,1.5245e-07,0.8,0.38,0
0.03658,0.0032018,0.020807,0.0013865,0.006658,0.00067646,0,0,0.073575,-0.027412,0,0.0070352,0,0,0,0.020831,0.0013629,0.006658,1.9925,0.0096172,0.017434,1.8991e-07,0.82,0.38,0
0.03808,0.0031967,0.020991,0.00074341,0.0065204,0.00065546,0,0,0.075248,-0.03004,0,0.0068167,0,0,0,0.021012,0.00072222,0.0065204,1.8522,0.0094183,0.018101,2.0259e-07,0.84,0.38,0
0.03959,0.0032104,0.020824,0.00024874,0.0063219,0.00060499,0,0,0.075412,-0.03158,0,0.0062919,0,0,0,0.020842,0.00023097,0.0063219,1.6827,0.0091317,0.018341,2.0306e-07,0.86,0.38,0
0.041097,0.0032334,0.020602,-0.00010455,0.0061493,0.00053748,0,0,0.075155,-0.03252,0,0.0055898,0,0,0,0.020616,-0.00011849,0.0061493,1.4859,0.0088823,0.018419,2.0013e-07,0.88,0.38,0
0.042596,0.0032594,0.020391,-0.00035713,0.0060101,0.00045777,0,0,0.07478,-0.03311,0,0.0047608,0,0,0,0.020401,-0.00036722,0.0060101,1.2633,0.0086813,0.018427,1.9641e-07,0.9,0.38,0
0.044088,0.0032846,0.020212,-0.00053679,0.0059025,0.00037071,0,0,0.074408,-0.033484,0,0.0038554,0,0,0,0.020218,-0.00054341,0.0059025,1.0233,0.0085258,0.018406,1.9288e-07,0.92,0.38,0
0.045573,0.0033063,0.020071,-0.00066204,0.0058226,0.0002798,0,0,0.074091,-0.03372,0,0.0029099,0,0,0,0.020075,-0.00066581,0.0058226,0.77304,0.0084105,0.018376,1.8996e-07,0.94,0.38,0
0.047052,0.0033229,0.01997,-0.00074459,0.0057677,0.00018709,0,0,0.073853,-0.033864,0,0.0019457,0,0,0,0.019972,-0.00074628,0.0057677,0.51743,0.0083311,0.01835,1.8781e-07,0.96,0.38,0
0.048527,0.0033332,0.01991,-0.00079159,0.0057355,9.3661e-05,0,0,0.073707,-0.033941,0,0.00097408,0,0,0,0.01991,-0.00079201,0.0057355,0.25922,0.0082846,0.018332,1.865e-07,0.98,0.38,0
0.05,0.0033367,0.01989,-0.00080685,0.0057249,1.6785e-05,0,0,0.073658,-0.033965,0,0.00017457,0,0,0,0.01989,-0.00080687,0.0057249,0.046468,0.0082693,0.018326,1.8607e-07,1,0.38,0
0,0,0.016228,0.0069547,0.0069547,0.00053604,0,0,0.048219,-4.3368e-19,0,0.0055748,0,0,0,0.016258,0.0069238,0.0069547,3.2974,0.010046,0.0093193,4.1567e-08,0,0.4,0
0.00096438,0.0001115,0.016164,0.0062486,0.0067236,0.00053085,0,0,0.049087,-0.0024701,0,0.0055208,0,0,0,0.016192,0.0062203,0.0067236,3.056,0.0097119,0.0097296,4.6879e-08,0.02,0.4,0
0.0019635,0.00022955,0.0164,0.0057104,0.0066331,0.00052956,0,0,0.050787,-0.0047977,0,0.0055074,0,0,0,0.016426,0.0056843,0.0066331,2.8292,0.0095811,0.0103,5.4522e-08,0.04,0.4,0
0.0029959,0.00035159,0.016632,0.0052051,0.0065511,0.00051108,0,0,0.052421,-0.0069995,0,0.0053152,0,0,0,0.016655,0.0051822,0.0065511,2.5558,0.0094627,0.010853,6.215e-08,0.06,0.4,0
0.0040603,0.00047533,0.016862,0.0047305,0.0064777,0.00047669,0,0,0.053998,-0.0090854,0,0.0049575,0,0,0,0.016881,0.0047118,0.0064777,2.2468,0.0093567,0.011389,6.9761e-08,0.08,0.4,0
0.0051558,0.00059869,0.017091,0.0042862,0.0064131,0.00042746,0,0,0.055524,-0.01106,0,0.0044456,0,0,0,0.017105,0.0042719,0.0064131,1.9099,0.0092634,0.011908,7.7355e-08,0.1,0.4,0
0.0062813,0.00071984,0.01732,0.0038722,0.0063578,0.00036444,0,0,0.057005,-0.012925,0,0.0037901,0,0,0,0.01733,0.0038624,0.0063578,1.5512,0.0091834,0.01241,8.4931e-08,0.12,0.4,0
0.007436,0.00083719,0.017551,0.0034896,0.0063123,0.00028868,0,0,0.058443,-0.014678,0,0.0030022,0,0,0,0.017557,0.0034837,0.0063123,1.1756,0.0091177,0.012894,9.249e-08,0.14,0.4,0
0.008619,0.00094943,0.017785,0.0031398,0.0062774,0.00020134,0,0,0.059838,-0.016315,0,0.002094,0,0,0,0.017788,0.0031371,0.0062774,0.78752,0.0090673,0.01336,1.0003e-07,0.16,0.4,0
0.0098295,0.0010556,0.018022,0.002825,0.0062541,0.00010377,0,0,0.061193,-0.017832,0,0.0010792,0,0,0,0.018023,0.0028242,0.0062541,0.39121,0.0090337,0.013807,1.0757e-07,0.18,0.4,0
0.011067,0.001155,0.018265,0.0025477,0.0062437,-2.4314e-06,0,0,0.062509,-0.019219,0,-2.5286e-05,0,0,0,0.018265,0.0025477,0.0062437,-0.0088634,0.0090187,0.014234,1.1512e-07,0.2,0.4,0
0.01233,0.0012474,0.018514,0.0023115,0.0062478,-0.00011517,0,0,0.063787,-0.020469,0,-0.0011978,0,0,0,0.018515,0.0023106,0.0062478,-0.40722,0.0090246,0.014639,1.2268e-07,0.22,0.4,0
0.013618,0.0013334,0.018773,0.0021207,0.0062682,-0.00023149,0,0,0.065026,-0.021567,0,-0.0024075,0,0,0,0.018777,0.0021175,0.0062682,-0.79627,0.0090541,0.01502,1.3027e-07,0.24,0.4,0
0.014931,0.001414,0.019043,0.0019817,0.0063075,-0.00034689,0,0,0.066226,-0.022494,0,-0.0036077,0,0,0,0.01905,0.0019746,0.0063075,-1.1643,0.0091108,0.015374,1.3787e-07,0.26,0.4,0
0.016267,0.0014916,0.019327,0.0019026,0.0063688,-0.00045413,0,0,0.067381,-0.023224,0,-0.0047229,0,0,0,0.019339,0.0018907,0.0063688,-1.492,0.0091994,0.015695,1.4544e-07,0.28,0.4,0
0.017626,0.0015699,0.019627,0.001895,0.0064565,-0.0005412,0,0,0.068485,-0.02372,0,-0.0056285,0,0,0,0.019643,0.0018786,0.0064565,-1.7466,0.0093261,0.015975,1.5288e-07,0.3,0.4,0
0.019007,0.0016548,0.019946,0.0019756,0.0065765,-0.00058809,0,0,0.069522,-0.023925,0,-0.0061161,0,0,0,0.019966,0.0019563,0.0065765,-1.8723,0.0094994,0.016201,1.5999e-07,0.32,0.4,0
0.020407,0.0017557,0.020286,0.0021675,0.006736,-0.00056247,0,0,0.070459,-0.023756,0,-0.0058497,0,0,0,0.020303,0.0021501,0.006736,-1.7764,0.0097298,0.01635,1.6636e-07,0.34,0.4,0
0.021825,0.001886,0.020629,0.0025076,0.006941,-0.00041315,0,0,0.071178,-0.023054,0,-0.0042968,0,0,0,0.020639,0.0024982,0.006941,-1.3054,0.010026,0.016377,1.7088e-07,0.36,0.4,0
0.023254,0.0020647,0.020842,0.0030398,0.0071646,-9.1631e-05,0,0,0.071123,-0.021449,0,-0.00095296,0,0,0,0.020843,0.0030394,0.0071646,-0.2949,0.010349,0.016141,1.6935e-07,0.38,0.4,0
0.02467,0.0023035,0.020778,0.0040472,0.0074475,0.00031975,0,0,0.069318,-0.017682,0,0.0033254,0,0,0,0.020784,0.0040411,0.0074475,1.0945,0.010757,0.015326,1.5455e-07,0.4,0.4,0
0.026027,0.0025547,0.020646,0.0012478,0.0065681,0.00052911,0,0,0.043744,-0.011066,0,0.0039932,0,0,0,0.020664,0.0012298,0.0065681,1.7329,0.0094872,0.017505,1.7453e-07,0.42,0.4,0
0.02642,0.0026864,0.020927,-0.00030842,0.0061857,-0.00016062,0,0,0.019164,-0.0084423,0,-0.00041762,0,0,0,0.020929,-0.00030964,0.0061857,-0.43334,0.0089349,0.01885,2.1135e-07,0.44,0.4,0
0.026794,0.0027695,0.020622,-0.00040354,0.0060654,-0.00060199,0,0,0.018923,-0.0084097,0,-0.0015652,0,0,0,0.020639,-0.00042077,0.0060654,-1.6387,0.0087612,0.018681,2.0385e-07,0.46,0.4,0
0.027177,0.0028176,0.02097,-0.00029106,0.0062036,-0.00071672,0,0,0.019196,-0.008443,0,-0.0018635,0,0,0,0.020994,-0.00031519,0.0062036,-1.9286,0.0089607,0.018912,2.1338e-07,0.48,0.4,0
0.027561,0.0028578,0.021014,-0.00027856,0.0062206,-0.00053972,0,0,0.019231,-0.0084488,0,-0.0014033,0,0,0,0.021027,-0.00029223,0.0062206,-1.4511,0.0089852,0.018923,2.1416e-07,0.5,0.4,0
0.027946,0.0028972,0.021003,-0.00014112,0.0062586,-0.00034553,0,0,0.019168,-0.0083197,0,-0.00089837,0,0,0,0.021009,-0.00014676,0.0062586,-0.93596,0.0090402,0.01879,2.1207e-07,0.52,0.4,0
0.028328,0.0029381,0.020937,2.1617e-05,0.0062877,-0.00019616,0,0,0.019045,-0.0081459,0,-0.00051002,0,0,0,0.020939,1.9777e-05,0.0062877,-0.53729,0.0090822,0.018595,2.082e-07,0.54,0.4,0
0.028708,0.0029792,0.020878,0.00015908,0.0063111,-0.00012336,0,0,0.018937,-0.0079976,0,-0.00032074,0,0,0,0.020879,0.00015834,0.0063111,-0.34113,0.009116,0.018431,2.0492e-07,0.56,0.4,0
0.029086,0.0030187,0.020843,0.00020209,0.0063135,-0.00010688,0,0,0.018888,-0.0079448,0,-0.00027789,0,0,0,0.020843,0.00020154,0.0063135,-0.29668,0.0091195,0.018365,2.0341e-07,0.58,0.4,0
0.029463,0.0030551,0.02085,0.00012334,0.0062919,-0.00011344,0,0,0.018925,-0.0080192,0,-0.00029494,0,0,0,0.02085,0.00012272,0.0062919,-0.31357,0.0090884,0.018434,2.0447e-07,0.6,0.4,0
0.029843,0.0030888,0.020897,-7.7341e-05,0.006246,-0.00010403,0,0,0.019047,-0.0082203,0,-0.00027049,0,0,0,0.020898,-7.7857e-05,0.006246,-0.28418,0.009022,0.018637,2.0801e-07,0.62,0.4,0
0.030225,0.0031209,0.020964,-0.00037163,0.0061777,-4.6055e-05,0,0,0.019222,-0.0085141,0,-0.00011974,0,0,0,0.020964,-0.00037173,0.0061777,-0.12368,0.0089233,0.018931,2.1306e-07,0.64,0.4,0
0.030611,0.0031536,0.021018,-0.00068768,0.006099,7.9109e-05,0,0,0.019394,-0.0088226,0,0.00020568,0,0,0,0.021018,-0.00068797,0.006099,0.20882,0.0088096,0.019232,2.1792e-07,0.66,0.4,0
0.031001,0.0031887,0.020966,-0.00096656,0.0059999,0.00024145,0,0,0.019456,-0.0090564,0,0.00062777,0,0,0,0.020969,-0.00096922,0.0059999,0.63065,0.0086665,0.019415,2.1918e-07,0.68,0.4,0
0.03139,0.0032247,0.020733,-0.0011062,0.0058882,0.00039415,0,0,0.019299,-0.0090927,0,0.0010248,0,0,0,0.020741,-0.0011133,0.0058882,1.0336,0.0085051,0.019329,2.1354e-07,0.7,0.4,0
0.031773,0.0032571,0.020061,-0.001276,0.0056355,0.00037168,0,0,0.018753,-0.008985,0,0.00096637,0,0,0,0.020068,-0.0012825,0.0056355,0.99765,0.0081402,0.018868,1.9518e-07,0.72,0.4,0
0.03214,0.0032695,0.020645,-0.0010916,0.0058661,0.00014762,0,0,0.019213,-0.009045,0,0.0003838,0,0,0,0.020646,-0.0010926,0.0058661,0.38908,0.0084733,0.019228,2.105e-07,0.74,0.4,0
0.032541,0.003237,0.020071,-0.00069096,0.0058139,-0.00035625,0,0,0.044021,-0.01353,0,-0.003814,0,0,0,0.020088,-0.00070843,0.0058139,-1.3185,0.0083978,0.018566,1.6806e-07,0.76,0.4,0
0.033901,0.003049,0.02039,0.0027578,0.0069444,-0.00047284,0,0,0.069918,-0.021771,0,-0.0049176,0,0,0,0.020403,0.0027451,0.0069444,-1.535,0.010031,0.015977,1.6171e-07,0.78,0.4,0
0.035338,0.0028151,0.02081,0.002354,0.0069491,0.00012407,0,0,0.072075,-0.023895,0,0.0012903,0,0,0,0.020811,0.0023532,0.0069491,0.38516,0.010038,0.016642,1.7728e-07,0.8,0.4,0
0.036784,0.0026638,0.020626,0.0013857,0.0066035,0.00061113,0,0,0.072917,-0.027133,0,0.0063558,0,0,0,0.020645,0.0013663,0.0066035,1.8175,0.0095384,0.017267,1.8471e-07,0.82,0.4,0
0.038255,0.0026033,0.020595,0.00074705,0.0064026,0.00081492,0,0,0.0738,-0.029409,0,0.0084751,0,0,0,0.020628,0.00071365,0.0064026,2.3472,0.0092482,0.017767,1.9163e-07,0.84,0.4,0
0.039736,0.0025854,0.020468,0.00030402,0.0062315,0.00081841,0,0,0.074028,-0.030823,0,0.0085115,0,0,0,0.020501,0.00027086,0.0062315,2.3205,0.009001,0.018005,1.9279e-07,0.86,0.4,0
0.041216,0.0025893,0.020292,-2.0934e-05,0.0060813,0.00074551,0,0,0.073895,-0.031732,0,0.0077533,0,0,0,0.020319,-4.8259e-05,0.0060813,2.0991,0.0087841,0.018099,1.9093e-07,0.88,0.4,0
0.042691,0.0026034,0.02012,-0.00025867,0.0059584,0.00063904,0,0,0.07364,-0.032329,0,0.006646,0,0,0,0.02014,-0.00027868,0.0059584,1.7943,0.0086065,0.018124,1.8816e-07,0.9,0.4,0
0.044161,0.0026209,0.019971,-0.00043132,0.005862,0.00051779,0,0,0.073368,-0.032725,0,0.005385,0,0,0,0.019984,-0.00044445,0.005862,1.4528,0.0084673,0.018118,1.8541e-07,0.92,0.4,0
0.045626,0.0026377,0.019853,-0.00055355,0.0057899,0.00039034,0,0,0.073129,-0.032986,0,0.0040595,0,0,0,0.019861,-0.00056101,0.0057899,1.0954,0.0083632,0.018102,1.8307e-07,0.94,0.4,0
0.047087,0.0026512,0.019769,-0.000635,0.00574,0.00026063,0,0,0.072948,-0.03315,0,0.0027106,0,0,0,0.019772,-0.00063833,0.00574,0.73173,0.0082912,0.018085,1.8134e-07,0.96,0.4,0
0.048544,0.0026599,0.019717,-0.00068169,0.0057108,0.00013034,0,0,0.072835,-0.033241,0,0.0013556,0,0,0,0.019718,-0.00068252,0.0057108,0.36608,0.0082489,0.018073,1.8027e-07,0.98,0.4,0
0.05,0.0026628,0.019701,-0.0006969,0.0057011,1.4292e-05,0,0,0.072797,-0.03327,0,0.00014863,0,0,0,0.019701,-0.00069691,0.0057011,0.040145,0.0082349,0.018069,1.7992e-07,1,0.4,0
0,0,0.016142,0.006918,0.006918,0.0003026,0,0,0.047965,7.5894e-19,0,0.003147,0,0,0,0.016152,0.0069081,0.006918,1.8769,0.0099927,0.0092389,4.0503e-08,0,0.42,0
0.0009593,6.294e-05,0.01608,0.0062381,0.0066955,0.00029744,0,0,0.048801,-0.0023786,0,0.0030934,0,0,0,0.016089,0.0062291,0.0066955,1.7294,0.0096713,0.0096355,4.5582e-08,0.02,0.42,0
0.001952,0.00013522,0.016307,0.0057188,0.0066079,0.00030123,0,0,0.050438,-0.0046234,0,0.0031328,0,0,0,0.016316,0.0057102,0.0066079,1.6282,0.0095447,0.010187,5.2872e-08,0.04,0.42,0
0.0029768,0.00021396,0.01653,0.0052305,0.0065282,0.00028588,0,0,0.052011,-0.0067481,0,0.0029732,0,0,0,0.016538,0.0052233,0.0065282,1.4484,0.0094297,0.010722,6.0148e-08,0.06,0.42,0
0.0040325,0.00029667,0.01675,0.0047718,0.0064566,0.00025322,0,0,0.053527,-0.0087608,0,0.0026335,0,0,0,0.016755,0.0047665,0.0064566,1.2105,0.0093262,0.01124,6.7401e-08,0.08,0.42,0
0.0051179,0.00038121,0.016968,0.0043422,0.0063932,0.00020468,0,0,0.054991,-0.010665,0,0.0021287,0,0,0,0.016972,0.0043388,0.0063932,0.92848,0.0092346,0.011741,7.4626e-08,0.1,0.42,0
0.0062321,0.00046571,0.017186,0.0039418,0.0063383,0.00014145,0,0,0.056407,-0.012462,0,0.0014711,0,0,0,0.017187,0.0039403,0.0063383,0.61183,0.0091553,0.012226,8.1814e-08,0.12,0.42,0
0.0073742,0.00054863,0.017403,0.0035717,0.0062925,6.4605e-05,0,0,0.057776,-0.014148,0,0.0006719,0,0,0,0.017403,0.0035714,0.0062925,0.26761,0.0090891,0.012692,8.8959e-08,0.14,0.42,0
0.0085431,0.00062873,0.017621,0.0032333,0.0062564,-2.4778e-05,0,0,0.059098,-0.01572,0,-0.00025769,0,0,0,0.017621,0.0032333,0.0062564,-0.098668,0.009037,0.01314,9.6056e-08,0.16,0.42,0
0.0097381,0.0007051,0.017841,0.0029285,0.0062309,-0.00012555,0,0,0.060374,-0.017173,0,-0.0013058,0,0,0,0.017842,0.0029274,0.0062309,-0.48234,0.0090003,0.013568,1.031e-07,0.18,0.42,0
0.010958,0.00077727,0.018064,0.0026597,0.0062171,-0.00023636,0,0,0.061604,-0.018499,0,-0.0024581,0,0,0,0.018068,0.002656,0.0062171,-0.87884,0.0089803,0.013976,1.1011e-07,0.2,0.42,0
0.012202,0.00084524,0.018291,0.0024298,0.0062163,-0.0003554,0,0,0.06279,-0.01969,0,-0.0036962,0,0,0,0.018299,0.0024218,0.0062163,-1.283,0.0089791,0.014361,1.1707e-07,0.22,0.42,0
0.01347,0.00090965,0.018525,0.0022424,0.0062302,-0.00048013,0,0,0.063932,-0.020737,0,-0.0049933,0,0,0,0.018539,0.0022282,0.0062302,-1.6876,0.0089991,0.014724,1.2401e-07,0.24,0.42,0
0.01476,0.00097197,0.018768,0.002102,0.0062609,-0.00060661,0,0,0.065036,-0.021626,0,-0.0063088,0,0,0,0.01879,0.00208,0.0062609,-2.0818,0.0090436,0.015061,1.3095e-07,0.26,0.42,0
0.016071,0.0010348,0.019025,0.0020142,0.0063117,-0.00072864,0,0,0.066109,-0.022347,0,-0.0075779,0,0,0,0.019056,0.0019831,0.0063117,-2.4482,0.009117,0.015373,1.3791e-07,0.28,0.42,0
0.017404,0.0011024,0.019304,0.0019862,0.0063872,-0.00083619,0,0,0.067169,-0.022885,0,-0.0086964,0,0,0,0.019345,0.0019459,0.0063872,-2.7579,0.0092259,0.015658,1.4499e-07,0.3,0.42,0
0.018758,0.0011813,0.019621,0.0020273,0.0064944,-0.000913,0,0,0.068257,-0.023229,0,-0.0094952,0,0,0,0.019668,0.0019801,0.0064944,-2.9627,0.0093809,0.015918,1.5237e-07,0.32,0.42,0
0.020134,0.0012816,0.020002,0.0021517,0.006646,-0.00093168,0,0,0.069449,-0.02337,0,-0.0096895,0,0,0,0.02005,0.0021032,0.006646,-2.9798,0.0095998,0.016162,1.6045e-07,0.34,0.42,0
0.021536,0.0014186,0.020495,0.0023854,0.0068642,-0.00084622,0,0,0.070882,-0.02329,0,-0.0088006,0,0,0,0.020535,0.0023459,0.0068642,-2.6695,0.009915,0.016403,1.7003e-07,0.36,0.42,0
0.02297,0.0016155,0.02117,0.0027904,0.0071881,-0.00054758,0,0,0.072705,-0.022868,0,-0.0056948,0,0,0,0.021186,0.0027741,0.0071881,-1.705,0.010383,0.01665,1.8208e-07,0.38,0.42,0
0.024444,0.0019186,0.021604,0.003371,0.0074925,3.2217e-05,0,0,0.07338,-0.021432,0,0.00033506,0,0,0,0.021604,0.0033709,0.0074925,0.10124,0.010823,0.016562,1.855e-07,0.4,0.42,0
0.025905,0.0023318,0.020318,-0.00013161,0.0060559,-0.00026094,0,0,0.045927,-0.01287,0,0.0021805,0,0,0,0.020366,-0.00018006,0.0060559,-0.2015,0.0087474,0.018416,1.6612e-07,0.42,0.42,0
0.026281,0.0025273,0.021697,0.00015078,0.0065544,0.00044145,0,0,0.019686,-0.0083248,0,0.0011478,0,0,0,0.021706,0.00014174,0.0065544,1.1732,0.0094675,0.01918,2.3054e-07,0.44,0.42,0
0.026692,0.0025971,0.022341,7.6326e-05,0.0067252,-0.00068721,0,0,0.020301,-0.0086436,0,-0.0017868,0,0,0,0.022362,5.5135e-05,0.0067252,-1.7662,0.0097142,0.019832,2.5319e-07,0.46,0.42,0
0.027093,0.0026449,0.021821,-0.00046726,0.0064061,-0.00059375,0,0,0.020039,-0.0089353,0,-0.0015438,0,0,0,0.021837,-0.00048307,0.0064061,-1.5249,0.0092532,0.019796,2.4186e-07,0.48,0.42,0
0.027494,0.0026844,0.021647,-0.00044938,0.0063594,-0.00043082,0,0,0.019874,-0.0088514,0,-0.0011201,0,0,0,0.021656,-0.00045778,0.0063594,-1.1165,0.0091858,0.019615,2.3567e-07,0.5,0.42,0
0.027888,0.0027276,0.021393,-0.00032236,0.0063212,-0.00020372,0,0,0.019593,-0.0086366,0,-0.00052966,0,0,0,0.021395,-0.00032427,0.0063212,-0.53744,0.0091306,0.019276,2.2588e-07,0.52,0.42,0
0.028277,0.0027732,0.021226,-4.8537e-05,0.0063533,-7.7067e-05,0,0,0.019335,-0.0083224,0,-0.00020038,0,0,0,0.021226,-4.8816e-05,0.0063533,-0.20755,0.009177,0.018905,2.1764e-07,0.54,0.42,0
0.028661,0.0028183,0.021089,0.00016045,0.0063749,-4.4e-05,0,0,0.019129,-0.0080789,0,-0.0001144,0,0,0,0.02109,0.00016035,0.0063749,-0.12046,0.0092083,0.018617,2.1118e-07,0.56,0.42,0
0.029043,0.0028593,0.021018,0.00024342,0.0063785,-8.0907e-05,0,0,0.019032,-0.0079756,0,-0.00021036,0,0,0,0.021018,0.00024311,0.0063785,-0.22313,0.0092133,0.018488,2.0815e-07,0.58,0.42,0
0.029423,0.0028943,0.021012,0.00016737,0.0063539,-0.00014132,0,0,0.019056,-0.0080425,0,-0.00036744,0,0,0,0.021013,0.00016642,0.0063539,-0.38842,0.0091779,0.018544,2.0884e-07,0.6,0.42,0
0.029805,0.0029236,0.02107,-6.8088e-05,0.0063006,-0.00018312,0,0,0.0192,-0.0082793,0,-0.0004761,0,0,0,0.021072,-6.9674e-05,0.0063006,-0.49629,0.0091009,0.018785,2.1315e-07,0.62,0.42,0
0.030191,0.002949,0.021184,-0.00043045,0.006226,-0.00015737,0,0,0.019445,-0.0086534,0,-0.00040917,0,0,0,0.021185,-0.0004316,0.006226,-0.41714,0.0089931,0.019175,2.2046e-07,0.64,0.42,0
0.030583,0.0029747,0.021309,-0.00085348,0.0061366,-3.3549e-05,0,0,0.019724,-0.0090871,0,-8.7228e-05,0,0,0,0.021309,-0.00085353,0.0061366,-0.086734,0.0088639,0.019624,2.2869e-07,0.66,0.42,0
0.03098,0.0030042,0.021483,-0.0011228,0.0061081,0.0002069,0,0,0.019988,-0.0094002,0,0.00053793,0,0,0,0.021485,-0.0011247,0.0061081,0.52433,0.0088229,0.02,2.3709e-07,0.68,0.42,0
0.031382,0.0030402,0.021557,-0.0012551,0.0060905,0.00043602,0,0,0.020106,-0.0095493,0,0.0011337,0,0,0,0.021565,-0.0012634,0.0060905,1.0946,0.0087974,0.020183,2.4109e-07,0.7,0.42,0
0.031784,0.0030736,0.022044,-0.0008462,0.0063592,0.00065251,0,0,0.02039,-0.0093671,0,0.0016965,0,0,0,0.022062,-0.00086478,0.0063592,1.6315,0.0091856,0.020303,2.5361e-07,0.72,0.42,0
0.032198,0.0030887,0.021442,-0.0011811,0.0060782,-0.00039151,0,0,0.019973,-0.009437,0,-0.0010179,0,0,0,0.021448,-0.0011879,0.0060782,-0.99116,0.0087796,0.020018,2.3652e-07,0.74,0.42,0
0.032583,0.0029688,0.020022,-0.0017365,0.0054857,0.00016386,0,0,0.046699,-0.015022,0,-0.0033009,0,0,0,0.02008,-0.0017942,0.0054857,-0.20037,0.0079238,0.019495,1.5905e-07,0.76,0.42,0
0.034066,0.0025835,0.021481,0.0021845,0.0070996,-0.00022041,0,0,0.074782,-0.025558,0,-0.0022923,0,0,0,0.021483,0.002182,0.0070996,-0.65435,0.010255,0.017373,1.9832e-07,0.78,0.42,0
0.035574,0.0022919,0.021203,0.0017054,0.0068724,0.00038453,0,0,0.074517,-0.026868,0,0.0039991,0,0,0,0.02121,0.0016978,0.0068724,1.1294,0.0099268,0.017508,1.9664e-07,0.8,0.42,0
0.037046,0.0021165,0.020615,0.0012477,0.0065587,0.00081837,0,0,0.073091,-0.027617,0,0.008511,0,0,0,0.020649,0.0012132,0.0065587,2.4154,0.0094737,0.017391,1.8658e-07,0.82,0.42,0
0.038498,0.0020204,0.020229,0.00075359,0.0062948,0.00098926,0,0,0.072458,-0.028814,0,0.010288,0,0,0,0.020279,0.00070347,0.0062948,2.9004,0.0090925,0.017465,1.8204e-07,0.84,0.42,0
0.039945,0.0019775,0.020019,0.00037655,0.0061185,0.00099682,0,0,0.07228,-0.029858,0,0.010367,0,0,0,0.020069,0.00032609,0.0061185,2.8978,0.0088378,0.017578,1.8025e-07,0.86,0.42,0
0.041389,0.0019641,0.019859,8.8904e-05,0.0059845,0.00091116,0,0,0.072149,-0.030657,0,0.009476,0,0,0,0.019901,4.7e-05,0.0059845,2.6332,0.0086442,0.017651,1.7848e-07,0.88,0.42,0
0.042831,0.0019663,0.019725,-0.00013004,0.0058786,0.00078259,0,0,0.072003,-0.031245,0,0.0081389,0,0,0,0.019756,-0.00016084,0.0058786,2.2536,0.0084913,0.017688,1.7656e-07,0.9,0.42,0
0.044269,0.0019756,0.019614,-0.00029395,0.005796,0.00063461,0,0,0.071854,-0.031668,0,0.0066,0,0,0,0.019634,-0.00031415,0.005796,1.824,0.0083721,0.017703,1.7473e-07,0.92,0.42,0
0.045705,0.0019869,0.019526,-0.00041265,0.0057342,0.00047853,0,0,0.07172,-0.031963,0,0.0049767,0,0,0,0.019538,-0.00042412,0.0057342,1.374,0.0082827,0.017705,1.7317e-07,0.94,0.42,0
0.047138,0.0019969,0.019464,-0.000493,0.0056911,0.00031954,0,0,0.071616,-0.032157,0,0.0033232,0,0,0,0.019469,-0.00049812,0.0056911,0.9171,0.0082205,0.017703,1.7199e-07,0.96,0.42,0
0.048569,0.0020035,0.019425,-0.00053952,0.0056658,0.0001598,0,0,0.07155,-0.032268,0,0.0016619,0,0,0,0.019427,-0.0005408,0.0056658,0.45856,0.0081839,0.0177,1.7126e-07,0.98,0.42,0
0.05,0.0020059,0.019413,-0.00055475,0.0056574,1.1227e-05,0,0,0.071528,-0.032303,0,0.00011676,0,0,0,0.019413,-0.00055476,0.0056574,0.032214,0.0081718,0.017699,1.7102e-07,1,0.42,0
0,0,0.016034,0.0068719,0.0068719,7.8615e-05,0,0,0.047645,-1.0842e-19,0,0.0008176,0,0,0,0.016035,0.0068712,0.0068719,0.49156,0.009926,0.0091635,3.9519e-08,0,0.44,0
0.0009529,1.6352e-05,0.015975,0.0062216,0.0066591,7.3662e-05,0,0,0.048445,-0.0022748,0,0.00076609,0,0,0,0.015976,0.0062211,0.0066591,0.43268,0.0096187,0.0095434,4.4323e-08,0.02,0.44,0
0.0019378,4.4613e-05,0.016192,0.0057231,0.0065745,8.2568e-05,0,0,0.050011,-0.0044276,0,0.00085871,0,0,0,0.016193,0.0057224,0.0065745,0.45185,0.0094965,0.010071,5.1201e-08,0.04,0.44,0
0.0029533,8.1668e-05,0.016404,0.0052533,0.0064972,7.0844e-05,0,0,0.051515,-0.0064682,0,0.00073677,0,0,0,0.016404,0.0052529,0.0064972,0.364,0.0093849,0.010584,5.8073e-08,0.06,0.44,0
0.0039984,0.0001249,0.016612,0.0048114,0.0064271,4.0779e-05,0,0,0.052963,-0.0084019,0,0.0004241,0,0,0,0.016613,0.0048112,0.0064271,0.19798,0.0092836,0.011082,6.492e-08,0.08,0.44,0
0.0050719,0.00017208,0.016818,0.0043971,0.0063645,-5.8874e-06,0,0,0.054358,-0.010231,0,-6.1229e-05,0,0,0,0.016818,0.0043971,0.0063645,-0.027158,0.0091932,0.011563,7.1722e-08,0.1,0.44,0
0.0061727,0.00022137,0.017021,0.004011,0.0063096,-6.7789e-05,0,0,0.055699,-0.011953,0,-0.00070501,0,0,0,0.017021,0.0040106,0.0063096,-0.29853,0.0091139,0.012027,7.8463e-08,0.12,0.44,0
0.0072999,0.00027127,0.017222,0.003654,0.0062628,-0.00014379,0,0,0.056988,-0.013566,0,-0.0014954,0,0,0,0.017223,0.0036525,0.0062628,-0.60712,0.0090463,0.012472,8.5123e-08,0.14,0.44,0
0.0084522,0.00032062,0.017421,0.0033277,0.0062247,-0.00023288,0,0,0.058222,-0.015064,0,-0.002422,0,0,0,0.017425,0.0033239,0.0062247,-0.94641,0.0089912,0.012898,9.1686e-08,0.16,0.44,0
0.0096287,0.00036865,0.017619,0.0030339,0.0061959,-0.00033404,0,0,0.059401,-0.016442,0,-0.0034741,0,0,0,0.017627,0.0030263,0.0061959,-1.3113,0.0089497,0.013302,9.8137e-08,0.18,0.44,0
0.010828,0.00041499,0.017816,0.0027747,0.0061773,-0.00044615,0,0,0.060523,-0.017694,0,-0.00464,0,0,0,0.01783,0.0027615,0.0061773,-1.6975,0.0089228,0.013684,1.0446e-07,0.2,0.44,0
0.01205,0.00045982,0.018014,0.0025526,0.0061698,-0.00056777,0,0,0.061587,-0.018809,0,-0.0059048,0,0,0,0.018034,0.0025318,0.0061698,-2.1003,0.008912,0.014042,1.1066e-07,0.22,0.44,0
0.013292,0.00050393,0.018212,0.0023704,0.0061748,-0.00069693,0,0,0.062594,-0.019783,0,-0.007248,0,0,0,0.018243,0.0023398,0.0061748,-2.5141,0.0089191,0.014374,1.1672e-07,0.24,0.44,0
0.014553,0.00054898,0.018415,0.0022312,0.0061937,-0.00083072,0,0,0.063549,-0.020605,0,-0.0086395,0,0,0,0.018457,0.0021886,0.0061937,-2.9308,0.0089465,0.014682,1.2267e-07,0.26,0.44,0
0.015834,0.00059771,0.018625,0.0021383,0.006229,-0.00096484,0,0,0.06446,-0.021272,0,-0.010034,0,0,0,0.018681,0.002082,0.006229,-3.3379,0.0089975,0.014963,1.2855e-07,0.28,0.44,0
0.017132,0.00065445,0.018851,0.0020953,0.0062839,-0.0010929,0,0,0.065349,-0.021781,0,-0.011366,0,0,0,0.018922,0.0020243,0.0062839,-3.7161,0.0090767,0.015222,1.3445e-07,0.3,0.44,0
0.018448,0.00072564,0.019106,0.0021058,0.0063636,-0.0012054,0,0,0.066262,-0.02214,0,-0.012537,0,0,0,0.019191,0.0020208,0.0063636,-4.0357,0.0091919,0.015463,1.4062e-07,0.32,0.44,0
0.019782,0.00082087,0.019417,0.0021754,0.0064779,-0.0012888,0,0,0.067286,-0.022373,0,-0.013404,0,0,0,0.019513,0.0020796,0.0064779,-4.2514,0.0093569,0.015703,1.4754e-07,0.34,0.44,0
0.021139,0.00095441,0.019839,0.0023152,0.0066463,-0.001319,0,0,0.068602,-0.022521,0,-0.013718,0,0,0,0.019938,0.0022165,0.0066463,-4.2806,0.0096002,0.015974,1.5633e-07,0.36,0.44,0
0.022526,0.00115,0.020529,0.0025829,0.0069336,-0.0012578,0,0,0.070697,-0.022624,0,-0.013081,0,0,0,0.020617,0.0024952,0.0069336,-3.9896,0.010015,0.01636,1.7035e-07,0.38,0.44,0
0.023967,0.0014462,0.021788,0.0030968,0.0074655,-0.00074133,0,0,0.074478,-0.022717,0,-0.0077098,0,0,0,0.021818,0.0030675,0.0074655,-2.2677,0.010783,0.016984,1.9587e-07,0.4,0.44,0
0.025506,0.0020399,0.028171,0.0010348,0.0087616,-0.0015006,0,0,0.048806,-0.018284,0,-0.00918,0,0,0,0.028262,0.00094335,0.0087616,-3.5957,0.012656,0.024373,6.9864e-07,0.42,0.44,0
0.0262,0.0023534,0.018887,0.00081734,0.0059114,0.00066991,0,0,0.029899,-0.011411,0,0.0042058,0,0,0,0.018918,0.00078633,0.0059114,2.7188,0.0085387,0.01619,2.4891e-07,0.44,0.44,0
0.026604,0.0024237,0.022809,0.00019656,0.0069016,0.00022911,0,0,0.020679,-0.0087166,0,0.00059568,0,0,0,0.022811,0.00019424,0.0069016,0.58044,0.009969,0.02012,2.6697e-07,0.46,0.44,0
0.027028,0.0024602,0.022679,-0.00024529,0.0067302,-0.00031435,0,0,0.020734,-0.0090682,0,-0.0008173,0,0,0,0.022684,-0.0002496,0.0067302,-0.78545,0.0097214,0.020361,2.6806e-07,0.48,0.44,0
0.027434,0.0025038,0.021883,-0.00075649,0.006338,-0.00012119,0,0,0.020209,-0.0092229,0,-0.0003151,0,0,0,0.021884,-0.00075714,0.006338,-0.3067,0.0091549,0.020058,2.4643e-07,0.5,0.44,0
0.027836,0.0025517,0.021668,-0.00044048,0.0063683,8.4091e-06,0,0,0.01989,-0.0088515,0,2.1864e-05,0,0,0,0.021668,-0.00044049,0.0063683,0.021793,0.0091987,0.019612,2.3588e-07,0.52,0.44,0
0.028229,0.0026052,0.021424,-7.8851e-05,0.0064036,8.7817e-05,0,0,0.019527,-0.0084272,0,0.00022833,0,0,0,0.021425,-7.921e-05,0.0064036,0.23399,0.0092496,0.019106,2.2413e-07,0.54,0.44,0
0.028617,0.0026561,0.021293,0.00022041,0.006454,4.2675e-05,0,0,0.019291,-0.0081037,0,0.00011095,0,0,0,0.021293,0.00022033,0.006454,0.11603,0.0093224,0.01875,2.167e-07,0.56,0.44,0
0.029001,0.0026996,0.021212,0.00031539,0.0064582,-4.9266e-05,0,0,0.01918,-0.0079856,0,-0.00012809,0,0,0,0.021212,0.00031527,0.0064582,-0.13508,0.0093285,0.018602,2.1316e-07,0.58,0.44,0
0.029384,0.0027335,0.021197,0.00024207,0.0064317,-0.00015331,0,0,0.019195,-0.0080465,0,-0.00039859,0,0,0,0.021198,0.00024095,0.0064317,-0.41915,0.0092902,0.018649,2.1357e-07,0.6,0.44,0
0.029769,0.0027576,0.021246,-2.0284e-06,0.0063732,-0.00024764,0,0,0.019335,-0.0082877,0,-0.00064387,0,0,0,0.021249,-4.9143e-06,0.0063732,-0.66766,0.0092057,0.01889,2.1785e-07,0.62,0.44,0
0.030158,0.0027747,0.021342,-0.00045471,0.0062661,-0.0002921,0,0,0.019598,-0.008737,0,-0.00075946,0,0,0,0.021345,-0.00045862,0.0062661,-0.76766,0.009051,0.019339,2.2576e-07,0.64,0.44,0
0.030553,0.0027901,0.021539,-0.00097748,0.0061685,-0.00020051,0,0,0.019982,-0.0092897,0,-0.00052134,0,0,0,0.021541,-0.00097926,0.0061685,-0.51018,0.00891,0.019932,2.3744e-07,0.66,0.44,0
0.030957,0.0028126,0.021712,-0.0014457,0.00608,-2.9346e-05,0,0,0.020322,-0.0097835,0,-7.63e-05,0,0,0,0.021713,-0.0014458,0.00608,-0.072605,0.0087823,0.020461,2.4779e-07,0.68,0.44,0
0.031366,0.0028427,0.02247,-0.0011141,0.0064068,0.00022803,0,0,0.020882,-0.0097771,0,0.00059289,0,0,0,0.022472,-0.0011163,0.0064068,0.55392,0.0092542,0.02087,2.7063e-07,0.7,0.44,0
0.031792,0.0028825,0.022668,-0.00083548,0.0065498,-0.00021394,0,0,0.020954,-0.0096008,0,-0.00055625,0,0,0,0.02267,-0.00083743,0.0065498,-0.52148,0.0094608,0.020821,2.7456e-07,0.72,0.44,0
0.032204,0.002892,0.018847,-0.00019158,0.0055965,-0.00071468,0,0,0.030551,-0.012983,0,-0.004581,0,0,0,0.018881,-0.00022614,0.0055965,-2.7977,0.0080839,0.016963,2.6188e-07,0.74,0.44,0
0.032914,0.0026361,0.028061,-0.0006663,0.0082185,0.0012814,0,0,0.04988,-0.021243,0,0.0076522,0,0,0,0.028123,-0.00072793,0.0082185,2.8592,0.011871,0.025582,7.3383e-07,0.76,0.44,0
0.034486,0.0020267,0.021795,0.0019682,0.0071289,0.0004653,0,0,0.076263,-0.026836,0,0.0048391,0,0,0,0.021806,0.0019573,0.0071289,1.3437,0.010297,0.017834,2.1085e-07,0.78,0.44,0
0.035965,0.0017404,0.020582,0.0013935,0.0065926,0.0010601,0,0,0.072744,-0.027035,0,0.011025,0,0,0,0.02064,0.0013352,0.0065926,3.1526,0.0095227,0.017287,1.8493e-07,0.8,0.44,0
0.037396,0.0015591,0.019957,0.0010496,0.0063019,0.0011705,0,0,0.071006,-0.027312,0,0.012173,0,0,0,0.020029,0.00097739,0.0063019,3.529,0.0091028,0.017026,1.7241e-07,0.82,0.44,0
0.038805,0.0014507,0.019627,0.00074965,0.0061131,0.0011977,0,0,0.070274,-0.02789,0,0.012456,0,0,0,0.019703,0.00067397,0.0061131,3.6157,0.00883,0.016976,1.6706e-07,0.84,0.44,0
0.040207,0.0013911,0.019434,0.00046066,0.0059685,0.0011424,0,0,0.070022,-0.028641,0,0.011881,0,0,0,0.019503,0.00039212,0.0059685,3.4333,0.0086211,0.017022,1.647e-07,0.86,0.44,0
0.041606,0.001363,0.019316,0.0002171,0.0058599,0.0010292,0,0,0.069972,-0.029343,0,0.010703,0,0,0,0.019371,0.00016181,0.0058599,3.0755,0.0084644,0.017088,1.6353e-07,0.88,0.44,0
0.043005,0.0013536,0.01923,2.0096e-05,0.0057751,0.00088059,0,0,0.069967,-0.029926,0,0.0091582,0,0,0,0.019271,-2.0185e-05,0.0057751,2.6191,0.0083419,0.017144,1.6264e-07,0.9,0.44,0
0.044405,0.0013542,0.019163,-0.00013352,0.005709,0.00071386,0,0,0.069963,-0.030381,0,0.0074241,0,0,0,0.01919,-0.00015989,0.005709,2.1157,0.0082463,0.017184,1.6184e-07,0.92,0.44,0
0.045804,0.0013592,0.019111,-0.00024791,0.0056591,0.00053862,0,0,0.069952,-0.030716,0,0.0056016,0,0,0,0.019126,-0.00026288,0.0056591,1.5924,0.0081742,0.01721,1.6114e-07,0.94,0.44,0
0.047203,0.0013649,0.019074,-0.00032681,0.0056241,0.00035992,0,0,0.069939,-0.030945,0,0.0037432,0,0,0,0.019081,-0.00033348,0.0056241,1.0625,0.0081237,0.017226,1.606e-07,0.96,0.44,0
0.048601,0.0013692,0.019051,-0.00037301,0.0056034,0.00018009,0,0,0.069928,-0.031078,0,0.0018729,0,0,0,0.019053,-0.00037468,0.0056034,0.53115,0.0080938,0.017234,1.6025e-07,0.98,0.44,0
0.05,0.0013707,0.019044,-0.00038823,0.0055966,7.4344e-06,0,0,0.069924,-0.031121,0,7.7317e-05,0,0,0,0.019044,-0.00038823,0.0055966,0.021921,0.0080839,0.017237,1.6013e-07,1,0.44,0
0,0,0.015907,0.0068173,0.0068173,-0.00013487,0,0,0.047267,-7.5894e-19,0,-0.0014026,0,0,0,0.015909,0.0068153,0.0068173,-0.84986,0.0098472,0.0090927,3.8611e-08,0,0.46,0
0.00094533,-2.8052e-05,0.015851,0.0061994,0.0066151,-0.0001394,0,0,0.048027,-0.0021619,0,-0.0014498,0,0,0,0.015853,0.0061974,0.0066151,-0.82732,0.0095552,0.0094538,4.3109e-08,0.02,0.46,0
0.0019211,-4.1888e-05,0.016056,0.005723,0.0065338,-0.00012537,0,0,0.049517,-0.0042161,0,-0.0013038,0,0,0,0.016058,0.0057215,0.0065338,-0.69499,0.0094377,0.0099551,4.9535e-08,0.04,0.46,0
0.002926,-4.4773e-05,0.016257,0.0052727,0.0064588,-0.00013288,0,0,0.050949,-0.0061678,0,-0.001382,0,0,0,0.016258,0.005271,0.0064588,-0.69302,0.0093293,0.010444,5.5967e-08,0.06,0.46,0
0.003959,-3.9406e-05,0.016452,0.004848,0.0063901,-0.00015928,0,0,0.052324,-0.0080188,0,-0.0016565,0,0,0,0.016455,0.0048459,0.0063901,-0.78623,0.0092302,0.010919,6.2372e-08,0.08,0.46,0
0.005019,-2.8012e-05,0.016644,0.0044495,0.006328,-0.00020254,0,0,0.053643,-0.0097683,0,-0.0021065,0,0,0,0.016647,0.0044461,0.006328,-0.95131,0.0091405,0.011378,6.8718e-08,0.1,0.46,0
0.0061047,-1.2399e-05,0.016831,0.0040778,0.0062727,-0.00026114,0,0,0.054904,-0.011413,0,-0.0027159,0,0,0,0.016836,0.0040725,0.0062727,-1.1725,0.0090605,0.011818,7.4973e-08,0.12,0.46,0
0.0072151,6.0063e-06,0.017014,0.0037342,0.0062244,-0.00033384,0,0,0.056104,-0.012949,0,-0.003472,0,0,0,0.017022,0.0037259,0.0062244,-1.4392,0.0089908,0.01224,8.1105e-08,0.14,0.46,0
0.0083489,2.6157e-05,0.017191,0.0034203,0.0061836,-0.00041963,0,0,0.057242,-0.014369,0,-0.0043641,0,0,0,0.017204,0.0034076,0.0061836,-1.7437,0.0089318,0.012639,8.7082e-08,0.16,0.46,0
0.0095048,4.7401e-05,0.017364,0.0031379,0.0061506,-0.00051753,0,0,0.058311,-0.015667,0,-0.0053823,0,0,0,0.017383,0.003119,0.0061506,-2.0806,0.0088843,0.013016,9.287e-08,0.18,0.46,0
0.010681,6.9532e-05,0.017532,0.0028888,0.0061262,-0.00062656,0,0,0.059309,-0.016834,0,-0.0065162,0,0,0,0.017559,0.0028621,0.0061262,-2.4457,0.0088489,0.013367,9.8439e-08,0.2,0.46,0
0.011877,9.2862e-05,0.017694,0.0026753,0.0061108,-0.00074553,0,0,0.060232,-0.017864,0,-0.0077535,0,0,0,0.017731,0.0026384,0.0061108,-2.8349,0.0088267,0.01369,1.0376e-07,0.22,0.46,0
0.013091,0.00011835,0.01785,0.0024996,0.006105,-0.00087287,0,0,0.061077,-0.018748,0,-0.0090778,0,0,0,0.0179,0.0024501,0.006105,-3.2439,0.0088184,0.013985,1.0881e-07,0.24,0.46,0
0.01432,0.00014776,0.018002,0.0023636,0.0061098,-0.0010065,0,0,0.061842,-0.01948,0,-0.010467,0,0,0,0.018067,0.0022991,0.0061098,-3.6672,0.0088253,0.01425,1.1356e-07,0.26,0.46,0
0.015564,0.00018394,0.018151,0.0022692,0.006126,-0.0011434,0,0,0.062529,-0.020055,0,-0.011891,0,0,0,0.018233,0.0021873,0.006126,-4.0968,0.0088486,0.014483,1.18e-07,0.28,0.46,0
0.016821,0.00023118,0.018297,0.0022173,0.0061544,-0.0012795,0,0,0.063144,-0.020473,0,-0.013307,0,0,0,0.018399,0.0021161,0.0061544,-4.5213,0.0088897,0.014686,1.2215e-07,0.3,0.46,0
0.01809,0.00029572,0.018446,0.0022075,0.0061959,-0.0014096,0,0,0.063698,-0.02074,0,-0.01466,0,0,0,0.018567,0.0020861,0.0061959,-4.9246,0.0089496,0.014859,1.2603e-07,0.32,0.46,0
0.019369,0.00038666,0.018596,0.0022362,0.0062496,-0.0015256,0,0,0.0642,-0.02087,0,-0.015866,0,0,0,0.018737,0.0020951,0.0062496,-5.2824,0.0090272,0.015002,1.2962e-07,0.34,0.46,0
0.020658,0.00051771,0.018738,0.0022937,0.0063096,-0.0016149,0,0,0.064629,-0.020883,0,-0.016795,0,0,0,0.018895,0.0021366,0.0063096,-5.5558,0.0091139,0.015111,1.327e-07,0.36,0.46,0
0.021954,0.00071052,0.018767,0.0023185,0.0063256,-0.0016347,0,0,0.064694,-0.020837,0,-0.017001,0,0,0,0.018928,0.0021576,0.0063256,-5.6212,0.0091369,0.015123,1.332e-07,0.38,0.46,0
0.023246,0.0010099,0.018697,0.0023135,0.0063031,-0.0014245,0,0,0.064448,-0.020746,0,-0.014814,0,0,0,0.01882,0.0021905,0.0063031,-4.9322,0.0091045,0.015002,1.3047e-07,0.4,0.46,0
0.024532,0.0015267,0.019635,0.0013838,0.0063056,-0.0015055,0,0,0.069312,-0.025593,0,-0.015657,0,0,0,0.019758,0.0012604,0.0063056,-4.6841,0.0091081,0.016562,1.624e-07,0.42,0.46,0
0.026018,0.0020981,0.024514,0.00028653,0.00744,-0.001008,0,0,0.044463,-0.018044,0,-0.0080994,0,0,0,0.024581,0.00021923,0.00744,-3.0423,0.010747,0.021674,4.3987e-07,0.44,0.46,0
0.026609,0.0022484,0.016215,-0.00012828,0.0048259,0.00013216,0,0,0.025885,-0.010964,0,-3.9856e-05,0,0,0,0.016218,-0.00013155,0.0048259,0.06881,0.0069707,0.01452,1.7083e-07,0.46,0.46,0
0.026981,0.0022822,0.021121,-0.00074194,0.0061137,0.00025217,0,0,0.019509,-0.0089123,0,0.00065563,0,0,0,0.021124,-0.00074485,0.0061137,0.66073,0.0088309,0.019372,2.2177e-07,0.48,0.46,0
0.02739,0.0023155,0.021832,-0.00079519,0.0063112,-1.7151e-05,0,0,0.020178,-0.0092383,0,-4.4591e-05,0,0,0,0.021832,-0.00079521,0.0063112,-0.043427,0.0091161,0.020043,2.4512e-07,0.5,0.46,0
0.027788,0.0023736,0.021499,-0.0006446,0.0062562,0.00020369,0,0,0.019815,-0.008971,0,0.0005296,0,0,0,0.0215,-0.00064647,0.0062562,0.527,0.0090367,0.019628,2.3268e-07,0.52,0.46,0
0.028182,0.0024361,0.021554,3.487e-05,0.0064766,0.00015388,0,0,0.0196,-0.0083742,0,0.00040008,0,0,0,0.021555,3.377e-05,0.0064766,0.40968,0.0093551,0.019131,2.2696e-07,0.54,0.46,0
0.028572,0.0024941,0.021499,0.00029867,0.0065393,4.3775e-05,0,0,0.019448,-0.0081129,0,0.00011381,0,0,0,0.021499,0.00029858,0.0065393,0.1183,0.0094457,0.018871,2.2218e-07,0.56,0.46,0
0.02896,0.0025398,0.021508,0.00035464,0.0065587,-4.9052e-05,0,0,0.019434,-0.0080652,0,-0.00012754,0,0,0,0.021508,0.00035453,0.0065587,-0.13286,0.0094736,0.018834,2.218e-07,0.58,0.46,0
0.029349,0.0025725,0.021486,0.00028302,0.0065307,-0.00011808,0,0,0.019442,-0.008122,0,-0.00030701,0,0,0,0.021487,0.00028236,0.0065307,-0.31907,0.0094333,0.018873,2.2198e-07,0.6,0.46,0
0.029738,0.0025921,0.021437,8.1449e-05,0.0064554,-0.00021221,0,0,0.019475,-0.0082861,0,-0.00055175,0,0,0,0.021439,7.934e-05,0.0064554,-0.56929,0.0093245,0.018992,2.228e-07,0.62,0.46,0
0.030128,0.0025995,0.021449,-0.00034275,0.0063319,-0.00032087,0,0,0.019652,-0.0086771,0,-0.00083427,0,0,0,0.021454,-0.00034747,0.0063319,-0.84341,0.0091461,0.019347,2.2799e-07,0.64,0.46,0
0.030524,0.0026031,0.021361,-0.001195,0.0060497,-0.00035151,0,0,0.019904,-0.0094181,0,-0.00091392,0,0,0,0.021366,-0.0012004,0.0060497,-0.89261,0.0087385,0.019955,2.3398e-07,0.66,0.46,0
0.030924,0.0026128,0.021647,-0.0015525,0.0060284,-9.6531e-05,0,0,0.020304,-0.0098551,0,-0.00025098,0,0,0,0.021648,-0.0015529,0.0060284,-0.2384,0.0087077,0.02049,2.4665e-07,0.68,0.46,0
0.031336,0.0026491,0.020956,-0.0016422,0.005794,-0.00029077,0,0,0.01971,-0.0096671,0,-0.00075601,0,0,0,0.020959,-0.001646,0.005794,-0.73708,0.0083691,0.019954,2.2514e-07,0.7,0.46,0
0.031712,0.0026895,0.016126,-0.00097015,0.0045468,-0.00017181,0,0,0.026339,-0.012259,0,-0.00018108,0,0,0,0.01613,-0.00097371,0.0045468,-0.22474,0.0065676,0.015119,1.7622e-07,0.72,0.46,0
0.032315,0.0026009,0.024324,-0.001256,0.0069203,0.00081569,0,0,0.045352,-0.020682,0,0.0068336,0,0,0,0.024369,-0.0013018,0.0069203,2.398,0.009996,0.022707,4.5552e-07,0.74,0.46,0
0.033832,0.0020271,0.019569,0.00014115,0.0059132,0.0012379,0,0,0.071013,-0.030014,0,0.012874,0,0,0,0.019648,6.2594e-05,0.0059132,3.6311,0.0085413,0.017413,1.716e-07,0.76,0.46,0
0.035155,0.0015101,0.018714,0.0011819,0.0059689,0.0011623,0,0,0.066277,-0.024893,0,0.012088,0,0,0,0.018791,0.0011052,0.0059689,3.7763,0.0086217,0.015825,1.406e-07,0.78,0.46,0
0.036483,0.0012105,0.01879,0.001088,0.0059635,0.0013849,0,0,0.066699,-0.025353,0,0.014403,0,0,0,0.018898,0.00098031,0.0059635,4.4465,0.0086139,0.016018,1.4427e-07,0.8,0.46,0
0.037823,0.001024,0.018832,0.0009709,0.005941,0.0013915,0,0,0.067035,-0.025844,0,0.014472,0,0,0,0.01894,0.00086315,0.005941,4.4281,0.0085814,0.016148,1.4637e-07,0.82,0.46,0
0.039164,0.00090478,0.01877,0.00077236,0.0058626,0.0013254,0,0,0.067117,-0.026469,0,0.013784,0,0,0,0.018867,0.00067528,0.0058626,4.1893,0.0084682,0.016232,1.464e-07,0.84,0.46,0
0.040508,0.0008319,0.018718,0.00055946,0.0057833,0.0012223,0,0,0.067262,-0.027164,0,0.012712,0,0,0,0.0188,0.00047756,0.0057833,3.8335,0.0083537,0.01633,1.4664e-07,0.86,0.46,0
0.041855,0.00079039,0.018684,0.00035697,0.0057124,0.0010862,0,0,0.067455,-0.027848,0,0.011297,0,0,0,0.018749,0.00029282,0.0057124,3.3801,0.0082513,0.016431,1.4706e-07,0.88,0.46,0
0.043206,0.00076923,0.018662,0.00018208,0.0056534,0.0009262,0,0,0.067647,-0.028451,0,0.0096325,0,0,0,0.018709,0.00013577,0.0056534,2.862,0.008166,0.01652,1.4749e-07,0.9,0.46,0
0.044561,0.00076039,0.018646,3.9703e-05,0.0056056,0.000751,0,0,0.067809,-0.028943,0,0.0078104,0,0,0,0.018676,9.4399e-06,0.0056056,2.3076,0.008097,0.016592,1.478e-07,0.92,0.46,0
0.045918,0.00075826,0.018632,-6.9407e-05,0.0055688,0.00056742,0,0,0.067929,-0.029319,0,0.0059012,0,0,0,0.018649,-8.6607e-05,0.0055688,1.7363,0.0080438,0.016645,1.4797e-07,0.94,0.46,0
0.047278,0.00075907,0.018622,-0.00014611,0.0055426,0.0003797,0,0,0.068011,-0.029582,0,0.0039489,0,0,0,0.018629,-0.00015379,0.0055426,1.1585,0.0080061,0.016681,1.4806e-07,0.96,0.46,0
0.048639,0.00076044,0.018615,-0.00019156,0.005527,0.00019017,0,0,0.068057,-0.029736,0,0.0019777,0,0,0,0.018617,-0.00019348,0.005527,0.57929,0.0079834,0.016702,1.4809e-07,0.98,0.46,0
0.05,0.00076103,0.018613,-0.00020661,0.0055218,2.8685e-06,0,0,0.068072,-0.029788,0,2.9832e-05,0,0,0,0.018613,-0.00020661,0.0055218,0.0087332,0.0079759,0.016709,1.481e-07,1,0.46,0
0,0,0.015763,0.0067557,0.0067557,-0.00033714,0,0,0.04684,4.3368e-19,0,-0.0035062,0,0,0,0.015776,0.0067431,0.0067557,-2.1405,0.0097583,0.0090265,3.7773e-08,0,0.48,0
0.00093679,-7.0125e-05,0.015711,0.0061717,0.0065647,-0.00034104,0,0,0.047559,-0.0020436,0,-0.0035468,0,0,0,0.015723,0.0061595,0.0065647,-2.045,0.0094823,0.0093673,4.1948e-08,0.02,0.48,0
0.0019023,-0.00012403,0.015904,0.0057182,0.0064866,-0.00032189,0,0,0.04897,-0.0039957,0,-0.0033477,0,0,0,0.015914,0.0057081,0.0064866,-1.8083,0.0093696,0.0098398,4.7899e-08,0.04,0.48,0
0.0028956,-0.00016504,0.016092,0.0052877,0.0064139,-0.00032456,0,0,0.050326,-0.0058562,0,-0.0033755,0,0,0,0.016102,0.0052779,0.0064139,-1.7191,0.0092645,0.010303,5.3873e-08,0.06,0.48,0
0.0039154,-0.00019586,0.016275,0.0048805,0.0063465,-0.0003461,0,0,0.051626,-0.0076233,0,-0.0035994,0,0,0,0.016285,0.00487,0.0063465,-1.7382,0.0091672,0.010753,5.982e-08,0.08,0.48,0
0.0049606,-0.00021865,0.016451,0.0044976,0.0062847,-0.00038425,0,0,0.052867,-0.0092931,0,-0.0039962,0,0,0,0.016464,0.0044852,0.0062847,-1.8392,0.0090779,0.011188,6.5694e-08,0.1,0.48,0
0.0060301,-0.00023515,0.016622,0.0041401,0.0062286,-0.00043732,0,0,0.054045,-0.01086,0,-0.0045481,0,0,0,0.016637,0.0041248,0.0062286,-2.0042,0.0089968,0.011604,7.1448e-08,0.12,0.48,0
0.0071224,-0.00024667,0.016785,0.0038095,0.0061784,-0.00050395,0,0,0.055155,-0.012318,0,-0.0052411,0,0,0,0.016805,0.00379,0.0061784,-2.2208,0.0089244,0.012,7.7035e-08,0.14,0.48,0
0.0082363,-0.00025413,0.016941,0.0035077,0.0061344,-0.00058303,0,0,0.056191,-0.013659,0,-0.0060635,0,0,0,0.016966,0.0034824,0.0061344,-2.4806,0.0088608,0.012372,8.2405e-08,0.16,0.48,0
0.0093701,-0.00025802,0.017087,0.0032362,0.0060969,-0.00067356,0,0,0.057147,-0.014875,0,-0.0070051,0,0,0,0.017119,0.0032035,0.0060969,-2.7776,0.0088066,0.012719,8.751e-08,0.18,0.48,0
0.010522,-0.00025838,0.017223,0.0029971,0.006066,-0.00077452,0,0,0.058016,-0.015958,0,-0.008055,0,0,0,0.017265,0.002955,0.006066,-3.1072,0.008762,0.013036,9.2298e-08,0.2,0.48,0
0.011691,-0.00025475,0.017348,0.0027921,0.0060419,-0.00088473,0,0,0.05879,-0.016899,0,-0.0092011,0,0,0,0.017401,0.0027386,0.0060419,-3.4656,0.0087272,0.013322,9.6717e-08,0.22,0.48,0
0.012874,-0.000246,0.01746,0.002623,0.0060248,-0.0010027,0,0,0.059461,-0.017689,0,-0.010428,0,0,0,0.017527,0.0025555,0.0060248,-3.8488,0.0087025,0.013574,1.0071e-07,0.24,0.48,0
0.014069,-0.00023023,0.017557,0.002491,0.0060145,-0.0011264,0,0,0.060022,-0.018322,0,-0.011714,0,0,0,0.017641,0.0024072,0.0060145,-4.252,0.0086876,0.013789,1.0422e-07,0.26,0.48,0
0.015275,-0.00020449,0.017638,0.0023966,0.0060105,-0.0012531,0,0,0.060465,-0.018792,0,-0.013032,0,0,0,0.017741,0.0022943,0.0060105,-4.6687,0.0086818,0.013964,1.0718e-07,0.28,0.48,0
0.016488,-0.00016447,0.017653,0.0022564,0.0059729,-0.0013896,0,0,0.060738,-0.019326,0,-0.014452,0,0,0,0.017778,0.002132,0.0059729,-5.1161,0.0086275,0.014122,1.094e-07,0.3,0.48,0
0.017706,-0.00010395,0.017705,0.0022342,0.0059819,-0.0014696,0,0,0.060962,-0.019488,0,-0.015284,0,0,0,0.017844,0.0020958,0.0059819,-5.3786,0.0086405,0.014209,1.1103e-07,0.32,0.48,0
0.018926,-1.3916e-05,0.017736,0.0023176,0.0060159,-0.0015975,0,0,0.060942,-0.019231,0,-0.016614,0,0,0,0.017899,0.0021538,0.0060159,-5.8537,0.0086897,0.014214,1.1159e-07,0.34,0.48,0
0.020143,0.0001191,0.017675,0.0023257,0.0060003,-0.0016562,0,0,0.060711,-0.019108,0,-0.017225,0,0,0,0.017852,0.002149,0.0060003,-6.0887,0.0086672,0.014175,1.107e-07,0.36,0.48,0
0.021354,0.00031653,0.017578,0.0023173,0.0059685,-0.0016133,0,0,0.060368,-0.018986,0,-0.016779,0,0,0,0.017746,0.0021486,0.0059685,-5.9694,0.0086212,0.014082,1.0864e-07,0.38,0.48,0
0.022558,0.00061638,0.017667,0.0021683,0.0059506,-0.0014781,0,0,0.060925,-0.019668,0,-0.015372,0,0,0,0.017807,0.0020286,0.0059506,-5.3994,0.0085953,0.014228,1.1092e-07,0.4,0.48,0
0.023791,0.0010162,0.01733,0.00091281,0.005473,-0.0013012,0,0,0.061659,-0.023713,0,-0.013532,0,0,0,0.017433,0.00081033,0.005473,-4.5035,0.0079054,0.014851,1.1401e-07,0.42,0.48,0
0.025025,0.0015262,0.018235,0.00012263,0.0055072,-0.00183,0,0,0.066184,-0.028,0,-0.019032,0,0,0,0.018418,-6.0413e-05,0.0055072,-5.712,0.0079549,0.016418,1.4233e-07,0.44,0.48,0
0.026438,0.0020071,0.022776,-4.038e-05,0.0068207,-0.0016045,0,0,0.041842,-0.017582,0,-0.011119,0,0,0,0.022912,-0.00017643,0.0068207,-4.6274,0.0098521,0.020506,3.5662e-07,0.46,0.48,0
0.026987,0.0021037,0.014914,-0.00082846,0.0042257,-0.00040222,0,0,0.024176,-0.011194,0,-0.003179,0,0,0,0.014935,-0.00084932,0.0042257,-2.3456,0.0061037,0.013957,1.405e-07,0.48,0.48,0
0.027341,0.0021342,0.019812,-0.0018338,0.0053936,-1.5717e-05,0,0,0.018744,-0.0093955,0,-4.0863e-05,0,0,0,0.019812,-0.0018338,0.0053936,-0.041601,0.0077907,0.019088,1.9231e-07,0.5,0.48,0
0.027737,0.0021929,0.02138,-0.00038474,0.0062985,-5.068e-05,0,0,0.019606,-0.0086882,0,-0.00013177,0,0,0,0.02138,-0.00038486,0.0062985,-0.13342,0.0090978,0.019311,2.2605e-07,0.52,0.48,0
0.028125,0.0022703,0.021523,0.00013798,0.0064983,-0.00011097,0,0,0.019532,-0.0082684,0,-0.00028851,0,0,0,0.021524,0.00013741,0.0064983,-0.29729,0.0093864,0.019021,2.2479e-07,0.54,0.48,0
0.028518,0.0023316,0.021878,0.0002358,0.0066343,-0.00018383,0,0,0.019817,-0.008318,0,-0.00047796,0,0,0,0.02188,0.00023424,0.0066343,-0.48662,0.0095828,0.01926,2.3503e-07,0.56,0.48,0
0.028918,0.002377,0.022144,0.00026552,0.0067228,-0.00011812,0,0,0.020047,-0.0083945,0,-0.0003071,0,0,0,0.022145,0.00026488,0.0067228,-0.30932,0.0097107,0.019471,2.4332e-07,0.58,0.48,0
0.02932,0.0024086,0.02212,0.00019467,0.0066945,-5.3039e-06,0,0,0.020053,-0.0084497,0,-1.379e-05,0,0,0,0.02212,0.00019467,0.0066945,-0.01386,0.0096698,0.019505,2.4337e-07,0.6,0.48,0
0.02972,0.0024261,0.021807,1.9115e-05,0.0065478,5.8704e-05,0,0,0.019837,-0.0084873,0,0.00015263,0,0,0,0.021807,1.8957e-05,0.0065478,0.15437,0.0094579,0.019367,2.352e-07,0.62,0.48,0
0.030113,0.0024277,0.021416,-0.00023329,0.0063547,-1.3376e-05,0,0,0.019579,-0.0085644,0,-3.4777e-05,0,0,0,0.021416,-0.0002333,0.0063547,-0.0354,0.009179,0.019221,2.2555e-07,0.64,0.48,0
0.030503,0.0024134,0.021222,-0.00097219,0.0060749,-6.7499e-05,0,0,0.019691,-0.0091612,0,-0.0001755,0,0,0,0.021222,-0.00097239,0.0060749,-0.17425,0.0087748,0.019643,2.2712e-07,0.66,0.48,0
0.030901,0.0024184,0.019648,-0.0026056,0.0051128,-4.7162e-05,0,0,0.018896,-0.010034,0,-0.00012262,0,0,0,0.019648,-0.0026057,0.0051128,-0.12143,0.0073852,0.019572,1.9304e-07,0.68,0.48,0
0.031259,0.002456,0.014811,-0.001552,0.0039776,0.00035818,0,0,0.02452,-0.012293,0,0.0029803,0,0,0,0.014829,-0.00157,0.0039776,2.0986,0.0057455,0.014447,1.4288e-07,0.7,0.48,0
0.031815,0.0024182,0.022569,-0.0013677,0.0063605,0.0014333,0,0,0.042537,-0.019839,0,0.010027,0,0,0,0.022675,-0.0014728,0.0063605,3.9722,0.0091874,0.021338,3.6483e-07,0.72,0.48,0
0.033254,0.0019421,0.018141,-0.0010178,0.005137,0.0015996,0,0,0.067622,-0.032005,0,0.016636,0,0,0,0.018274,-0.0011504,0.005137,4.74,0.0074201,0.017167,1.4726e-07,0.74,0.48,0
0.03452,0.0014355,0.017299,-0.00020784,0.0051273,0.00104,0,0,0.063292,-0.027743,0,0.010816,0,0,0,0.01736,-0.0002694,0.0051273,3.3879,0.0074061,0.015646,1.2072e-07,0.76,0.48,0
0.035786,0.001031,0.017645,0.0009959,0.0055922,0.0011855,0,0,0.062674,-0.023901,0,0.01233,0,0,0,0.017729,0.0009119,0.0055922,4.0526,0.0080777,0.015033,1.1918e-07,0.78,0.48,0
0.037027,0.00072625,0.017595,0.0010827,0.0056034,0.0013211,0,0,0.062358,-0.023508,0,0.01374,0,0,0,0.0177,0.00097769,0.0056034,4.5456,0.0080938,0.014956,1.1804e-07,0.8,0.48,0
0.03828,0.00052536,0.017739,0.00098271,0.0056166,0.0013675,0,0,0.063038,-0.024096,0,0.014222,0,0,0,0.01785,0.00087184,0.0056166,4.635,0.0081128,0.015173,1.2204e-07,0.82,0.48,0
0.039549,0.00039192,0.017868,0.00083958,0.0056123,0.0013123,0,0,0.06373,-0.024818,0,0.013647,0,0,0,0.017969,0.00073905,0.0056123,4.3809,0.0081067,0.015383,1.2567e-07,0.84,0.48,0
0.040829,0.00030448,0.017951,0.00066969,0.0055864,0.0012077,0,0,0.064299,-0.025567,0,0.01256,0,0,0,0.018035,0.0005857,0.0055864,3.9783,0.0080692,0.015564,1.2839e-07,0.86,0.48,0
0.042121,0.00024906,0.018012,0.00049986,0.0055535,0.0010727,0,0,0.064783,-0.026279,0,0.011156,0,0,0,0.018077,0.0004344,0.0055535,3.4924,0.0080217,0.015721,1.3057e-07,0.88,0.48,0
0.043421,0.00021554,0.018057,0.0003453,0.0055207,0.00091623,0,0,0.065189,-0.026912,0,0.0095288,0,0,0,0.018104,0.00029803,0.0055207,2.9534,0.0079743,0.015854,1.3229e-07,0.9,0.48,0
0.044728,0.00019646,0.018091,0.00021484,0.0054917,0.00074507,0,0,0.065515,-0.027439,0,0.0077487,0,0,0,0.018122,0.00018384,0.0054917,2.3826,0.0079324,0.01596,1.3361e-07,0.92,0.48,0
0.046041,0.00018641,0.018067,2.4008e-05,0.0054274,0.00055776,0,0,0.065727,-0.028098,0,0.0058007,0,0,0,0.018084,6.7825e-06,0.0054274,1.7689,0.0078395,0.016068,1.3421e-07,0.94,0.48,0
0.047359,0.00018164,0.018103,-3.9777e-05,0.0054189,0.00037909,0,0,0.065956,-0.028385,0,0.0039425,0,0,0,0.018111,-4.7694e-05,0.0054189,1.1965,0.0078272,0.016135,1.3523e-07,0.96,0.48,0
0.048679,0.0001797,0.018139,-5.0949e-06,0.0054401,0.00018997,0,0,0.066033,-0.028315,0,0.0019757,0,0,0,0.018141,-7.0838e-06,0.0054401,0.59982,0.007858,0.01613,1.3558e-07,0.98,0.48,0
0.05,0.00017919,0.018142,-1.9726e-05,0.0054366,-2.4047e-06,0,0,0.066067,-0.028373,0,-2.5009e-05,0,0,0,0.018142,-1.9727e-05,0.0054366,-0.0075863,0.0078528,0.01614,1.357e-07,1,0.48,0
0,0,0.015607,0.0066887,0.0066887,-0.00052787,0,0,0.046375,0,0,-0.0054899,0,0,0,0.015638,0.0066575,0.0066887,-3.3756,0.0096614,0.0089649,3.7004e-08,0,0.5,0
0.00092749,-0.0001098,0.015557,0.0061389,0.0065089,-0.00053091,0,0,0.047052,-0.0019238,0,-0.0055214,0,0,0,0.015587,0.0061091,0.0065089,-3.2161,0.0094017,0.0092847,4.0851e-08,0.02,0.5,0
0.0018821,-0.00020171,0.015739,0.0057085,0.0064341,-0.00050672,0,0,0.048383,-0.0037734,0,-0.0052699,0,0,0,0.015764,0.0056829,0.0064341,-2.8848,0.0092937,0.0097274,4.6323e-08,0.04,0.5,0
0.0028628,-0.00027902,0.015914,0.0052975,0.0063635,-0.00050393,0,0,0.049664,-0.0055435,0,-0.0052409,0,0,0,0.015938,0.0052736,0.0063635,-2.7114,0.0091918,0.010164,5.1836e-08,0.06,0.5,0
0.0038686,-0.00034434,0.016084,0.0049073,0.0062973,-0.00051939,0,0,0.05089,-0.0072282,0,-0.0054017,0,0,0,0.016108,0.0048832,0.0062973,-2.655,0.0090961,0.010589,5.7325e-08,0.08,0.5,0
0.0048984,-0.00039974,0.016171,0.0044859,0.0061972,-0.00055558,0,0,0.051866,-0.0088985,0,-0.0057781,0,0,0,0.016198,0.0044596,0.0061972,-2.716,0.0089514,0.010973,6.216e-08,0.1,0.5,0
0.0059508,-0.00044681,0.016446,0.0041905,0.0061911,-0.00058824,0,0,0.053327,-0.010403,0,-0.0061177,0,0,0,0.016474,0.0041624,0.0061911,-2.7416,0.0089426,0.011434,6.8691e-08,0.12,0.5,0
0.0070244,-0.00048672,0.016544,0.0038769,0.0061263,-0.00065365,0,0,0.054172,-0.011697,0,-0.006798,0,0,0,0.016578,0.0038433,0.0061263,-2.9462,0.008849,0.01176,7.3036e-08,0.14,0.5,0
0.0081177,-0.00052021,0.016677,0.0035861,0.0060789,-0.00072259,0,0,0.055109,-0.012962,0,-0.0075149,0,0,0,0.016717,0.0035464,0.0060789,-3.1499,0.0087806,0.012104,7.7814e-08,0.16,0.5,0
0.0092288,-0.00054762,0.016797,0.0033247,0.0060365,-0.00080159,0,0,0.055954,-0.014101,0,-0.0083365,0,0,0,0.016844,0.0032771,0.0060365,-3.3931,0.0087194,0.01242,8.2256e-08,0.18,0.5,0
0.010356,-0.0005688,0.016902,0.0030943,0.005999,-0.00088946,0,0,0.056697,-0.015104,0,-0.0092504,0,0,0,0.016959,0.0030373,0.005999,-3.6706,0.0086652,0.012703,8.6294e-08,0.2,0.5,0
0.011497,-0.00058309,0.016991,0.0028967,0.0059663,-0.00098482,0,0,0.057328,-0.015962,0,-0.010242,0,0,0,0.017059,0.0028282,0.0059663,-3.9777,0.008618,0.012951,8.9858e-08,0.22,0.5,0
0.012649,-0.00058922,0.01706,0.0027329,0.0059379,-0.0010859,0,0,0.057835,-0.016666,0,-0.011293,0,0,0,0.017142,0.0026511,0.0059379,-4.3098,0.0085769,0.013159,9.2871e-08,0.24,0.5,0
0.01381,-0.00058513,0.017107,0.0026036,0.0059131,-0.0011903,0,0,0.058206,-0.017209,0,-0.012379,0,0,0,0.017204,0.0025066,0.0059131,-4.6607,0.0085411,0.013324,9.5253e-08,0.26,0.5,0
0.014977,-0.00056775,0.017127,0.0025081,0.0058904,-0.0012945,0,0,0.058428,-0.017588,0,-0.013462,0,0,0,0.01724,0.0023944,0.0058904,-5.0215,0.0085084,0.013443,9.6908e-08,0.28,0.5,0
0.016147,-0.00053272,0.017146,0.0025134,0.0058978,-0.0014063,0,0,0.05849,-0.017599,0,-0.014626,0,0,0,0.01728,0.0023795,0.0058978,-5.4404,0.008519,0.01349,9.7755e-08,0.3,0.5,0
0.017317,-0.00047389,0.017083,0.0024722,0.0058664,-0.001442,0,0,0.058324,-0.01765,0,-0.014997,0,0,0,0.017223,0.0023312,0.0058664,-5.5833,0.0084737,0.013477,9.7162e-08,0.32,0.5,0
0.018482,-0.00038258,0.016968,0.002382,0.0058051,-0.0015364,0,0,0.058049,-0.0178,0,-0.015979,0,0,0,0.017129,0.0022219,0.0058051,-5.9481,0.0083852,0.013477,9.64e-08,0.34,0.5,0
0.019639,-0.00024662,0.016833,0.0023482,0.0057544,-0.0015435,0,0,0.057609,-0.017712,0,-0.016052,0,0,0,0.016996,0.0021856,0.0057544,-6.0154,0.0083119,0.013387,9.4337e-08,0.36,0.5,0
0.020786,-4.894e-05,0.01671,0.0022476,0.0056871,-0.001485,0,0,0.057317,-0.017886,0,-0.015444,0,0,0,0.016861,0.0020966,0.0056871,-5.8028,0.0082147,0.013336,9.2702e-08,0.38,0.5,0
0.021931,0.00022324,0.016559,0.0018544,0.0055239,-0.0013764,0,0,0.057381,-0.019082,0,-0.014315,0,0,0,0.016686,0.0017266,0.0055239,-5.3018,0.007979,0.013469,9.2673e-08,0.4,0.5,0
0.023081,0.00057822,0.016564,0.0012324,0.0053388,-0.001403,0,0,0.058369,-0.021353,0,-0.014591,0,0,0,0.016691,0.0011051,0.0053388,-5.1859,0.0077116,0.013959,9.7599e-08,0.42,0.5,0
0.024266,0.00097807,0.016208,3.804e-05,0.0048738,-0.0014922,0,0,0.058938,-0.025146,0,-0.015519,0,0,0,0.016345,-9.8517e-05,0.0048738,-5.2287,0.00704,0.014606,9.9761e-08,0.44,0.5,0
0.025439,0.0014348,0.016601,-0.00061483,0.0047957,-0.0023134,0,0,0.061385,-0.028135,0,-0.02406,0,0,0,0.016906,-0.00092029,0.0047957,-7.5218,0.0069271,0.015766,1.1573e-07,0.46,0.5,0
0.026776,0.0018571,0.020402,-0.00078409,0.0058854,-0.0021287,0,0,0.036309,-0.016188,0,-0.012552,0,0,0,0.020628,-0.0010096,0.0058854,-6.2858,0.0085012,0.019145,2.9717e-07,0.48,0.5,0
0.027299,0.0019397,0.015244,-0.00068229,0.0043685,-0.00023299,0,0,0.023932,-0.011671,0,-0.0056176,0,0,0,0.015363,-0.0008013,0.0043685,-3.6802,0.00631,0.014301,1.5921e-07,0.5,0.5,0
0.027646,0.002026,0.020217,-0.00064025,0.005873,-0.00097916,0,0,0.018647,-0.0084672,0,-0.0025458,0,0,0,0.020263,-0.00068612,0.005873,-2.682,0.0084832,0.01856,1.9548e-07,0.52,0.5,0
0.028032,0.0021053,0.021618,-0.00020315,0.0064244,-0.00073504,0,0,0.019752,-0.0086159,0,-0.0019111,0,0,0,0.021643,-0.00022788,0.0064244,-1.9271,0.0092797,0.019419,2.327e-07,0.54,0.5,0
0.028446,0.0021614,0.023252,0.00023903,0.0070474,-0.00061766,0,0,0.021066,-0.0088509,0,-0.0016059,0,0,0,0.023269,0.00022246,0.0070474,-1.5363,0.01018,0.020504,2.8305e-07,0.56,0.5,0
0.028871,0.002204,0.023503,0.00019588,0.0071097,-0.00018795,0,0,0.021311,-0.0089879,0,-0.00048866,0,0,0,0.023505,0.00019437,0.0071097,-0.46199,0.01027,0.020736,2.9215e-07,0.58,0.5,0
0.029299,0.0022345,0.023489,0.00012774,0.0070849,9.1662e-05,0,0,0.021325,-0.0090443,0,0.00023832,0,0,0,0.023489,0.00012738,0.0070849,0.22481,0.010234,0.020776,2.9248e-07,0.6,0.5,0
0.029725,0.0022526,0.023189,2.1892e-05,0.0069631,0.00052324,0,0,0.021093,-0.0090236,0,0.0013604,0,0,0,0.0232,1.008e-05,0.0069631,1.2932,0.010058,0.020613,2.8335e-07,0.62,0.5,0
0.030139,0.002257,0.021511,-0.00057806,0.0062798,0.00062834,0,0,0.0198,-0.0089152,0,0.0016337,0,0,0,0.021529,-0.00059592,0.0062798,1.6281,0.0090708,0.019612,2.3305e-07,0.64,0.5,0
0.030526,0.0022367,0.019622,-0.0014742,0.0054443,0.0013013,0,0,0.018431,-0.0089941,0,0.0033834,0,0,0,0.019702,-0.0015542,0.0054443,3.5165,0.007864,0.018763,1.8705e-07,0.66,0.5,0
0.030877,0.0022115,0.013778,-0.0026195,0.0033476,0.0011758,0,0,0.023483,-0.013296,0,0.0080461,0,0,0,0.013902,-0.0027432,0.0033476,5.7032,0.0048354,0.014587,1.237e-07,0.68,0.5,0
0.031406,0.0021838,0.021163,-0.0018704,0.0057879,0.0021756,0,0,0.04026,-0.019404,0,0.013674,0,0,0,0.021385,-0.0020916,0.0057879,5.8919,0.0083603,0.020695,3.1366e-07,0.7,0.5,0
0.032763,0.0017705,0.016987,-0.0013386,0.0046946,0.0019675,0,0,0.063921,-0.031372,0,0.020462,0,0,0,0.017196,-0.0015474,0.0046946,6.0595,0.0067811,0.016531,1.2549e-07,0.72,0.5,0
0.033963,0.0013206,0.016148,-0.00098327,0.0045495,0.0012596,0,0,0.060313,-0.02877,0,0.0131,0,0,0,0.01624,-0.0010754,0.0045495,4.1829,0.0065715,0.0153,1.0366e-07,0.74,0.5,0
0.035175,0.00091738,0.016505,0.00013379,0.0049915,0.0011198,0,0,0.059868,-0.02526,0,0.011646,0,0,0,0.016581,5.7548e-05,0.0049915,3.8949,0.00721,0.014691,1.031e-07,0.76,0.5,0
0.036357,0.00055403,0.016526,0.00070139,0.0051683,0.0010653,0,0,0.059062,-0.023228,0,0.011079,0,0,0,0.016598,0.00063,0.0051683,3.8341,0.0074654,0.014251,9.942e-08,0.78,0.5,0
0.037538,0.00027022,0.016703,0.0010121,0.0053145,0.001155,0,0,0.059219,-0.022372,0,0.012012,0,0,0,0.016787,0.00092756,0.0053145,4.1875,0.0076765,0.014185,1.007e-07,0.8,0.5,0
0.038726,6.0164e-05,0.016867,0.0010079,0.0053626,0.0012017,0,0,0.059825,-0.022644,0,0.012498,0,0,0,0.016958,0.00091735,0.0053626,4.3087,0.0077459,0.014344,1.0395e-07,0.82,0.5,0
0.039931,-8.7948e-05,0.017057,0.00090883,0.0053896,0.0011818,0,0,0.060668,-0.0233,0,0.01229,0,0,0,0.017143,0.0008228,0.0053896,4.1635,0.007785,0.014583,1.082e-07,0.84,0.5,0
0.041153,-0.00019077,0.01722,0.00077549,0.0053987,0.0011055,0,0,0.061472,-0.024041,0,0.011497,0,0,0,0.017294,0.0007015,0.0053987,3.8288,0.0077982,0.014814,1.1212e-07,0.86,0.5,0
0.04239,-0.00026076,0.01735,0.00063324,0.005395,0.00099256,0,0,0.062167,-0.024761,0,0.010323,0,0,0,0.017409,0.00057452,0.005395,3.3861,0.0077928,0.015016,1.154e-07,0.88,0.5,0
0.043639,-0.00030724,0.017451,0.0004986,0.0053849,0.00085465,0,0,0.062744,-0.025409,0,0.0088884,0,0,0,0.017494,0.00045562,0.0053849,2.8788,0.0077782,0.015186,1.1806e-07,0.9,0.5,0
0.0449,-0.00033719,0.017528,0.0003813,0.0053728,0.00069953,0,0,0.063207,-0.025956,0,0.0072751,0,0,0,0.017556,0.00035281,0.0053728,2.3323,0.0077607,0.015323,1.2015e-07,0.92,0.5,0
0.046168,-0.00035575,0.017534,0.00026547,0.0053399,0.00051429,0,0,0.06341,-0.026387,0,0.0053486,0,0,0,0.017549,0.00025017,0.0053399,1.7044,0.0077132,0.015399,1.208e-07,0.94,0.5,0
0.047442,-0.00036659,0.017655,0.00023236,0.0053663,0.00037141,0,0,0.063902,-0.026696,0,0.0038626,0,0,0,0.017663,0.00022444,0.0053663,1.2207,0.0077513,0.01552,1.2337e-07,0.96,0.5,0
0.04872,-0.00037217,0.017605,9.4695e-05,0.0053099,0.00017758,0,0,0.063934,-0.027119,0,0.0018468,0,0,0,0.017607,9.2894e-05,0.0053099,0.58099,0.0076698,0.015575,1.232e-07,0.98,0.5,0
0.05,-0.00037388,0.017549,-7.5998e-05,0.005242,-8.2123e-06,0,0,0.063998,-0.027654,0,-8.5408e-05,0,0,0,0.017549,-7.6002e-05,0.005242,-0.026696,0.0075718,0.015659,1.2327e-07,1,0.5,0
0,0,0.015441,0.0066177,0.0066177,-0.00070711,0,0,0.045883,-2.1684e-19,0,-0.0073539,0,0,0,0.015498,0.0065614,0.0066177,-4.5529,0.0095589,0.0089082,3.6302e-08,0,0.52,0
0.00091765,-0.00014708,0.015321,0.0060645,0.0064156,-0.00072419,0,0,0.046307,-0.0018257,0,-0.0075316,0,0,0,0.015377,0.0060082,0.0064156,-4.4466,0.009267,0.009172,3.9366e-08,0.02,0.52,0
0.0018608,-0.00027497,0.015629,0.0057111,0.0064019,-0.00066666,0,0,0.047978,-0.0035919,0,-0.0069332,0,0,0,0.015673,0.0056665,0.0064019,-3.8285,0.0092472,0.0096599,4.5393e-08,0.04,0.52,0
0.0028286,-0.00038678,0.015728,0.0053012,0.0063089,-0.00067118,0,0,0.048981,-0.0052398,0,-0.0069803,0,0,0,0.015771,0.0052582,0.0063089,-3.6679,0.0091128,0.010029,4.9899e-08,0.06,0.52,0
0.00382,-0.00048499,0.015885,0.004927,0.0062436,-0.00067944,0,0,0.050136,-0.0068465,0,-0.0070662,0,0,0,0.015927,0.004885,0.0062436,-3.5345,0.0090186,0.010429,5.4944e-08,0.08,0.52,0
0.004834,-0.00057148,0.015985,0.0045722,0.0061671,-0.00071094,0,0,0.051051,-0.0082931,0,-0.0073938,0,0,0,0.016029,0.0045281,0.0061671,-3.551,0.0089079,0.010775,5.9271e-08,0.1,0.52,0
0.0058691,-0.00064767,0.016239,0.0042931,0.0061595,-0.00073029,0,0,0.052411,-0.0097054,0,-0.007595,0,0,0,0.016283,0.0042486,0.0061595,-3.4855,0.008897,0.011202,6.5169e-08,0.12,0.52,0
0.0069239,-0.00071453,0.016297,0.0039335,0.0060692,-0.0007836,0,0,0.053186,-0.011106,0,-0.0081495,0,0,0,0.016347,0.003884,0.0060692,-3.6121,0.0087667,0.011527,6.9221e-08,0.14,0.52,0
0.0079966,-0.00077262,0.016409,0.0036522,0.0060184,-0.00083918,0,0,0.054032,-0.012304,0,-0.0087275,0,0,0,0.016464,0.0035973,0.0060184,-3.7475,0.0086933,0.011843,7.3446e-08,0.16,0.52,0
0.0090852,-0.00082207,0.016505,0.0033991,0.0059713,-0.00090286,0,0,0.054776,-0.013375,0,-0.0093897,0,0,0,0.016567,0.0033372,0.0059713,-3.9223,0.0086251,0.012129,7.7278e-08,0.18,0.52,0
0.010188,-0.00086255,0.016583,0.0031756,0.0059274,-0.00097319,0,0,0.055406,-0.014309,0,-0.010121,0,0,0,0.016653,0.0031054,0.0059274,-4.1302,0.0085619,0.01238,8.0641e-08,0.2,0.52,0
0.011301,-0.00089322,0.016639,0.0029832,0.0058865,-0.0010485,0,0,0.055911,-0.015097,0,-0.010904,0,0,0,0.016719,0.0029032,0.0058865,-4.3651,0.0085028,0.012592,8.3454e-08,0.22,0.52,0
0.012424,-0.00091263,0.01667,0.0028224,0.0058478,-0.0011265,0,0,0.056277,-0.015732,0,-0.011716,0,0,0,0.016761,0.0027314,0.0058478,-4.6204,0.0084468,0.01276,8.5637e-08,0.24,0.52,0
0.013553,-0.0009186,0.016674,0.002693,0.0058101,-0.0012043,0,0,0.056492,-0.016209,0,-0.012524,0,0,0,0.016777,0.00259,0.0058101,-4.8872,0.0083923,0.012882,8.7105e-08,0.26,0.52,0
0.014684,-0.00090801,0.016645,0.0025931,0.0057715,-0.0012775,0,0,0.056544,-0.016528,0,-0.013286,0,0,0,0.016761,0.0024779,0.0057715,-5.1527,0.0083367,0.012954,8.7777e-08,0.28,0.52,0
0.015814,-0.00087655,0.01658,0.0025188,0.0057296,-0.0013403,0,0,0.056421,-0.016696,0,-0.013939,0,0,0,0.016706,0.0023922,0.0057296,-5.3967,0.0082761,0.012972,8.7581e-08,0.3,0.52,0
0.016941,-0.00081842,0.016473,0.0024615,0.0056805,-0.0013839,0,0,0.056124,-0.016739,0,-0.014393,0,0,0,0.016609,0.0023261,0.0056805,-5.587,0.0082052,0.012936,8.6485e-08,0.32,0.52,0
0.018059,-0.00072593,0.016327,0.0024053,0.0056197,-0.0013967,0,0,0.055678,-0.016715,0,-0.014526,0,0,0,0.016466,0.0022666,0.0056197,-5.6729,0.0081174,0.012855,8.459e-08,0.34,0.52,0
0.019168,-0.00058938,0.016153,0.0023189,0.0055416,-0.0013686,0,0,0.05518,-0.016758,0,-0.014234,0,0,0,0.016287,0.0021848,0.0055416,-5.5961,0.0080045,0.01276,8.2317e-08,0.36,0.52,0
0.020266,-0.0003989,0.01596,0.0021312,0.0054272,-0.0013014,0,0,0.054768,-0.017139,0,-0.013535,0,0,0,0.016081,0.0020098,0.0054272,-5.3299,0.0078394,0.012712,8.0353e-08,0.38,0.52,0
0.021358,-0.00014689,0.015781,0.0017866,0.0052702,-0.0012425,0,0,0.054654,-0.018115,0,-0.012922,0,0,0,0.01589,0.0016771,0.0052702,-5.0346,0.0076124,0.0128,7.9791e-08,0.4,0.52,0
0.022453,0.00016204,0.015539,0.0011802,0.0050157,-0.0012418,0,0,0.05472,-0.019944,0,-0.012915,0,0,0,0.015645,0.0010736,0.0050157,-4.9067,0.0072449,0.013055,8.0128e-08,0.42,0.52,0
0.023547,0.00052034,0.015392,0.00056102,0.004786,-0.0014444,0,0,0.055153,-0.02197,0,-0.015021,0,0,0,0.015532,0.00042167,0.004786,-5.5108,0.0069131,0.013469,8.2514e-08,0.44,0.52,0
0.024659,0.00089145,0.01506,-9.0807e-05,0.0044906,-0.0016574,0,0,0.054959,-0.023824,0,-0.017237,0,0,0,0.015239,-0.00027001,0.0044906,-6.1708,0.0064865,0.013761,8.1834e-08,0.46,0.52,0
0.025733,0.0013018,0.015913,-0.00032703,0.0046757,-0.0023352,0,0,0.058432,-0.026014,0,-0.024286,0,0,0,0.016242,-0.00065616,0.0046757,-8.0224,0.0067537,0.014962,1.013e-07,0.48,0.52,0
0.026949,0.0016674,0.01339,0.00013812,0.0040584,-0.0026412,0,0,0.048523,-0.020385,0,-0.027469,0,0,0,0.013897,-0.00036892,0.0040584,-10.867,0.0058621,0.012647,6.2612e-08,0.5,0.52,0
0.027429,0.0018517,0.015622,-0.00052758,0.0045283,-0.0028722,0,0,0.02323,-0.013213,0,-0.018571,0,0,0,0.01625,-0.0011559,0.0045283,-12.27,0.0065409,0.015424,1.9769e-07,0.52,0.52,0
0.027889,0.0019182,0.015571,-0.00051468,0.004517,-0.001689,0,0,0.023025,-0.012131,0,-0.011797,0,0,0,0.015847,-0.00079056,0.004517,-8.5632,0.0065246,0.014742,1.8914e-07,0.54,0.52,0
0.028352,0.0019707,0.015875,-0.00035566,0.0046558,-0.001041,0,0,0.023311,-0.011758,0,-0.0068157,0,0,0,0.015972,-0.0004524,0.0046558,-5.26,0.006725,0.014571,1.9683e-07,0.56,0.52,0
0.028819,0.0020107,0.015874,-0.00039728,0.004643,-0.00028186,0,0,0.023372,-0.011711,0,-0.0020655,0,0,0,0.015883,-0.0004064,0.004643,-1.6166,0.0067066,0.014452,1.9526e-07,0.58,0.52,0
0.029288,0.00204,0.015872,-0.00046157,0.004623,0.00023341,0,0,0.023403,-0.011852,0,0.0019106,0,0,0,0.01588,-0.00046967,0.004623,1.477,0.0066777,0.0145,1.9614e-07,0.6,0.52,0
0.029756,0.0020583,0.015812,-0.00057556,0.004571,0.00099768,0,0,0.023364,-0.012193,0,0.0066827,0,0,0,0.015903,-0.00066685,0.004571,5.0651,0.0066025,0.014685,1.9728e-07,0.62,0.52,0
0.030221,0.0020635,0.015514,-0.00087949,0.0043903,0.0016428,0,0,0.02316,-0.012891,0,0.011682,0,0,0,0.015777,-0.0011428,0.0043903,8.2397,0.0063416,0.014969,1.9175e-07,0.64,0.52,0
0.030684,0.0020536,0.015911,-0.00090027,0.0045033,0.0022301,0,0,0.023728,-0.01437,0,0.016899,0,0,0,0.016402,-0.0013914,0.0045033,10.405,0.0065047,0.015765,2.0842e-07,0.66,0.52,0
0.03117,0.0019161,0.018759,-0.0031743,0.0046753,0.0027672,0,0,0.036731,-0.018663,0,0.017057,0,0,0,0.019132,-0.0035476,0.0046753,7.8621,0.0067533,0.019895,2.3015e-07,0.68,0.52,0
0.032401,0.001564,0.015331,-0.0015144,0.0041448,0.0023527,0,0,0.058166,-0.029428,0,0.024468,0,0,0,0.015653,-0.0018368,0.0041448,7.8034,0.005987,0.015397,9.6593e-08,0.7,0.52,0
0.033497,0.0011633,0.014756,-0.0013147,0.0040325,0.0014909,0,0,0.055764,-0.027806,0,0.015506,0,0,0,0.014894,-0.0014518,0.0040325,5.2556,0.0058248,0.014409,8.2004e-08,0.72,0.52,0
0.034631,0.00079132,0.015309,-0.00042693,0.0044647,0.0011932,0,0,0.056392,-0.025437,0,0.012409,0,0,0,0.015399,-0.00051689,0.0044647,4.3116,0.0064491,0.014102,8.5781e-08,0.74,0.52,0
0.035753,0.00042508,0.015473,0.00012763,0.0046801,0.00094899,0,0,0.056122,-0.023673,0,0.0098695,0,0,0,0.015531,6.9165e-05,0.0046801,3.5255,0.0067602,0.013749,8.4641e-08,0.76,0.52,0
0.036876,0.00010185,0.015727,0.0006571,0.0049153,0.00091273,0,0,0.056221,-0.022142,0,0.0094924,0,0,0,0.015782,0.00060202,0.0049153,3.4534,0.0070998,0.013549,8.5452e-08,0.78,0.52,0
0.038002,-0.00016863,0.015928,0.0009146,0.0050528,0.00094306,0,0,0.056551,-0.021519,0,0.0098078,0,0,0,0.015987,0.0008556,0.0050528,3.5802,0.0072985,0.01353,8.7165e-08,0.8,0.52,0
0.039138,-0.00038041,0.016152,0.0009945,0.005144,0.00098482,0,0,0.057243,-0.021577,0,0.010242,0,0,0,0.016216,0.00093078,0.005144,3.7018,0.0074302,0.013674,9.0517e-08,0.82,0.52,0
0.040291,-0.00054009,0.016369,0.00095215,0.0051962,0.00098692,0,0,0.058096,-0.022069,0,0.010264,0,0,0,0.016431,0.00088922,0.0051962,3.6481,0.0075056,0.013899,9.4565e-08,0.84,0.52,0
0.041462,-0.00065716,0.016568,0.00085795,0.0052278,0.00094359,0,0,0.05897,-0.022723,0,0.0098134,0,0,0,0.016625,0.00080148,0.0052278,3.4249,0.0075513,0.014139,9.8664e-08,0.86,0.52,0
0.04265,-0.00074139,0.016738,0.00074503,0.0052449,0.0008621,0,0,0.059764,-0.023399,0,0.0089658,0,0,0,0.016784,0.0006987,0.0052449,3.0766,0.007576,0.014363,1.0236e-07,0.88,0.52,0
0.043853,-0.00080081,0.016876,0.00063191,0.0052523,0.00075226,0,0,0.060442,-0.024026,0,0.0078235,0,0,0,0.01691,0.00059715,0.0052523,2.6459,0.0075866,0.014555,1.0548e-07,0.9,0.52,0
0.045068,-0.00084177,0.016983,0.0005299,0.005254,0.00062196,0,0,0.060992,-0.024565,0,0.0064684,0,0,0,0.017007,0.00050642,0.005254,2.1618,0.007589,0.014713,1.0799e-07,0.92,0.52,0
0.046292,-0.00086907,0.017076,0.0005123,0.0052763,0.00046424,0,0,0.061356,-0.024773,0,0.0048281,0,0,0,0.017088,0.0004993,0.0052763,1.6042,0.0076214,0.014791,1.0963e-07,0.94,0.52,0
0.047524,-0.00088621,0.017165,0.00046479,0.0052888,0.00032623,0,0,0.061754,-0.025085,0,0.0033928,0,0,0,0.017171,0.00045842,0.0052888,1.1187,0.0076394,0.014897,1.1155e-07,0.96,0.52,0
0.048761,-0.00089558,0.017177,0.00041835,0.0052787,0.00015633,0,0,0.061872,-0.025274,0,0.0016259,0,0,0,0.017179,0.00041689,0.0052787,0.53441,0.0076247,0.014937,1.1202e-07,0.98,0.52,0
0.05,-0.00089856,0.017259,0.00055938,0.0053456,-1.4297e-05,0,0,0.061951,-0.024888,0,-0.00014869,0,0,0,0.017259,0.00055937,0.0053456,-0.049053,0.0077214,0.014895,1.1253e-07,1,0.52,0
0,0,0.01527,0.0065444,0.0065444,-0.00087528,0,0,0.045374,3.2526e-19,0,-0.0091029,0,0,0,0.015357,0.0064574,0.0065444,-5.672,0.009453,0.0088566,3.5668e-08,0,0.54,0
0.00090749,-0.00018206,0.015163,0.0060374,0.00636,-0.00089222,0,0,0.045774,-0.0016776,0,-0.0092791,0,0,0,0.015249,0.0059509,0.00636,-5.5323,0.0091866,0.0091004,3.8445e-08,0.02,0.54,0
0.0018389,-0.00034397,0.015456,0.0057119,0.0063502,-0.00082842,0,0,0.047348,-0.0033192,0,-0.0086155,0,0,0,0.015525,0.005642,0.0063502,-4.8252,0.0091725,0.009549,4.3892e-08,0.04,0.54,0
0.0027936,-0.00048861,0.015538,0.005298,0.0062509,-0.00082696,0,0,0.048294,-0.0049549,0,-0.0086003,0,0,0,0.015605,0.0052317,0.0062509,-4.5873,0.0090291,0.0099028,4.8099e-08,0.06,0.54,0
0.0037707,-0.0006182,0.015683,0.0049384,0.0061865,-0.00082702,0,0,0.049384,-0.0064905,0,-0.008601,0,0,0,0.015747,0.0048751,0.0061865,-4.3756,0.0089361,0.010279,5.2728e-08,0.08,0.54,0
0.004769,-0.0007344,0.015819,0.0045966,0.0061246,-0.00083978,0,0,0.05041,-0.0079458,0,-0.0087337,0,0,0,0.015881,0.0045341,0.0061246,-4.256,0.0088466,0.010641,5.7258e-08,0.1,0.54,0
0.0057871,-0.0008384,0.015942,0.0042752,0.0060653,-0.00086316,0,0,0.051361,-0.0093085,0,-0.0089768,0,0,0,0.016006,0.0042117,0.0060653,-4.2083,0.008761,0.010985,6.1604e-08,0.12,0.54,0
0.0068234,-0.00093095,0.016052,0.0039766,0.0060086,-0.00089538,0,0,0.052226,-0.010567,0,-0.0093119,0,0,0,0.016118,0.0039105,0.0060086,-4.2176,0.0086791,0.011305,6.5683e-08,0.14,0.54,0
0.0078761,-0.0010124,0.016146,0.0037028,0.0059545,-0.00093488,0,0,0.052993,-0.011709,0,-0.0097227,0,0,0,0.016215,0.003633,0.0059545,-4.2729,0.008601,0.011597,6.9413e-08,0.16,0.54,0
0.0089432,-0.0010826,0.01622,0.0034558,0.0059028,-0.00098012,0,0,0.053651,-0.012725,0,-0.010193,0,0,0,0.016295,0.003381,0.0059028,-4.3653,0.0085263,0.011856,7.2712e-08,0.18,0.54,0
0.010022,-0.0011412,0.016274,0.0032369,0.0058532,-0.0010294,0,0,0.054187,-0.013605,0,-0.010706,0,0,0,0.016355,0.0031561,0.0058532,-4.4871,0.0084546,0.012078,7.55e-08,0.2,0.54,0
0.011111,-0.001187,0.016303,0.0030469,0.005805,-0.0010808,0,0,0.054589,-0.014342,0,-0.01124,0,0,0,0.01639,0.0029594,0.005805,-4.6306,0.008385,0.012259,7.7698e-08,0.22,0.54,0
0.012206,-0.0012185,0.016305,0.002886,0.0057573,-0.0011316,0,0,0.054847,-0.01493,0,-0.011769,0,0,0,0.0164,0.0027913,0.0057573,-4.7867,0.008316,0.012394,7.9233e-08,0.24,0.54,0
0.013305,-0.0012335,0.016276,0.002753,0.0057087,-0.0011785,0,0,0.05495,-0.01537,0,-0.012257,0,0,0,0.016378,0.002651,0.0057087,-4.9436,0.0082459,0.012482,8.0038e-08,0.26,0.54,0
0.014404,-0.0012289,0.016213,0.0026448,0.0056573,-0.001217,0,0,0.054889,-0.015665,0,-0.012657,0,0,0,0.016321,0.0025365,0.0056573,-5.0851,0.0081717,0.012519,8.0062e-08,0.28,0.54,0
0.0155,-0.0012006,0.016113,0.0025557,0.0056006,-0.0012411,0,0,0.054664,-0.015833,0,-0.012908,0,0,0,0.016226,0.0024431,0.0056006,-5.1878,0.0080897,0.012506,7.9288e-08,0.3,0.54,0
0.01659,-0.0011434,0.015975,0.0024752,0.005535,-0.0012437,0,0,0.054287,-0.015911,0,-0.012934,0,0,0,0.016088,0.0023616,0.005535,-5.22,0.007995,0.012447,7.7769e-08,0.32,0.54,0
0.017672,-0.0010512,0.015802,0.0023851,0.005456,-0.0012179,0,0,0.053798,-0.015969,0,-0.012666,0,0,0,0.015911,0.0022754,0.005456,-5.1448,0.0078809,0.012357,7.5686e-08,0.34,0.54,0
0.018742,-0.00091695,0.015599,0.0022538,0.0053558,-0.0011612,0,0,0.053264,-0.01613,0,-0.012076,0,0,0,0.015699,0.0021536,0.0053558,-4.9359,0.0077362,0.012262,7.337e-08,0.36,0.54,0
0.019802,-0.00073451,0.015376,0.0020427,0.0052255,-0.0010854,0,0,0.052781,-0.016551,0,-0.011288,0,0,0,0.015463,0.0019549,0.0052255,-4.6237,0.0075479,0.012206,7.1291e-08,0.38,0.54,0
0.020853,-0.00050134,0.01512,0.0017023,0.0050468,-0.0010172,0,0,0.052382,-0.017391,0,-0.010579,0,0,0,0.015197,0.0016256,0.0050468,-4.3106,0.0072898,0.012225,6.9654e-08,0.4,0.54,0
0.021897,-0.00021956,0.014836,0.0012459,0.0048245,-0.0010105,0,0,0.052058,-0.018609,0,-0.010509,0,0,0,0.01491,0.0011711,0.0048245,-4.2295,0.0069687,0.012326,6.8451e-08,0.42,0.54,0
0.022936,9.9271e-05,0.014408,0.00063983,0.0045144,-0.0010796,0,0,0.051448,-0.020148,0,-0.011228,0,0,0,0.014492,0.00055568,0.0045144,-4.4565,0.0065208,0.012439,6.6152e-08,0.44,0.54,0
0.023955,0.00044839,0.013913,9.5867e-05,0.0042026,-0.0013138,0,0,0.050493,-0.021355,0,-0.013663,0,0,0,0.014037,-2.7939e-05,0.0042026,-5.3836,0.0060704,0.012498,6.2914e-08,0.46,0.54,0
0.024955,0.00079903,0.012567,-0.0009127,0.0034963,-0.0015088,0,0,0.047168,-0.022927,0,-0.015691,0,0,0,0.012734,-0.0010795,0.0034963,-6.309,0.0050502,0.012188,5.0744e-08,0.48,0.54,0
0.025842,0.001192,0.0114,-0.0015414,0.0029574,-0.0022953,0,0,0.043899,-0.023394,0,-0.023871,0,0,0,0.011795,-0.0019365,0.0029574,-9.7655,0.0042719,0.012054,4.2564e-08,0.5,0.54,0
0.026711,0.0014975,0.010387,-0.0012756,0.0027334,-0.0019399,0,0,0.039798,-0.020847,0,-0.020175,0,0,0,0.010701,-0.0015898,0.0027334,-9.2007,0.0039482,0.010799,3.1501e-08,0.52,0.54,0
0.027434,0.0016201,0.0089947,-0.0010528,0.0023826,-0.001542,0,0,0.034383,-0.017864,0,-0.016037,0,0,0,0.0092261,-0.0012841,0.0023826,-8.5318,0.0034415,0.0092396,2.007e-08,0.54,0.54,0
0.028087,0.0016911,0.0083697,-0.00097601,0.0022181,-0.0009179,0,0,0.031988,-0.016609,0,-0.0095462,0,0,0,0.008459,-0.0010653,0.0022181,-5.5566,0.0032039,0.0083798,1.5335e-08,0.56,0.54,0
0.028713,0.0017356,0.0081511,-0.0009615,0.0021569,-0.00030538,0,0,0.03117,-0.016216,0,-0.0031759,0,0,0,0.0081614,-0.00097172,0.0021569,-1.9172,0.0031155,0.0080391,1.3708e-08,0.58,0.54,0
0.029334,0.0017604,0.0081325,-0.0010325,0.00213,0.00029554,0,0,0.031213,-0.016445,0,0.0030737,0,0,0,0.008142,-0.0010421,0.00213,1.8451,0.0030767,0.0080794,1.3694e-08,0.6,0.54,0
0.029962,0.0017649,0.0083159,-0.0011925,0.002137,0.00090742,0,0,0.03213,-0.017314,0,0.0094372,0,0,0,0.0084017,-0.0012784,0.002137,5.4029,0.0030868,0.0085034,1.5279e-08,0.62,0.54,0
0.030619,0.0017413,0.0089186,-0.0014231,0.0022487,0.0015272,0,0,0.034684,-0.019093,0,0.015883,0,0,0,0.0091394,-0.0016439,0.0022487,8.2271,0.0032481,0.0094582,1.9971e-08,0.64,0.54,0
0.031349,0.0016619,0.010305,-0.0018276,0.0025433,0.0019025,0,0,0.040362,-0.022728,0,0.019786,0,0,0,0.010597,-0.0021189,0.0025433,8.7059,0.0036736,0.011142,3.1429e-08,0.66,0.54,0
0.032233,0.0013871,0.011301,-0.0022821,0.0027057,0.0022026,0,0,0.044697,-0.025937,0,0.022907,0,0,0,0.01165,-0.0026303,0.0027057,8.984,0.0039083,0.012497,4.2204e-08,0.68,0.54,0
0.033137,0.0010066,0.012482,-0.0016868,0.0032386,0.0013526,0,0,0.048066,-0.025612,0,0.014067,0,0,0,0.01261,-0.0018147,0.0032386,5.4044,0.0046779,0.012677,5.1397e-08,0.7,0.54,0
0.034156,0.00065828,0.01382,-0.00076746,0.0039156,0.0011052,0,0,0.051501,-0.024352,0,0.011495,0,0,0,0.013903,-0.00085073,0.0039156,4.3085,0.0056559,0.013041,6.4749e-08,0.72,0.54,0
0.035197,0.00030317,0.014323,-0.0002942,0.0042088,0.00082481,0,0,0.052596,-0.023415,0,0.008578,0,0,0,0.01437,-0.00034059,0.0042088,3.2193,0.0060793,0.013045,6.9031e-08,0.74,0.54,0
0.03626,-2.9539e-05,0.014753,0.00023315,0.0044959,0.00070979,0,0,0.053338,-0.022166,0,0.0073818,0,0,0,0.014788,0.00019853,0.0044959,2.7919,0.0064941,0.012985,7.234e-08,0.76,0.54,0
0.037331,-0.00033166,0.015046,0.00060839,0.0046964,0.00067562,0,0,0.05382,-0.021258,0,0.0070264,0,0,0,0.015078,0.00057684,0.0046964,2.6733,0.0067837,0.012943,7.4507e-08,0.78,0.54,0
0.038413,-0.00059053,0.015315,0.00085558,0.0048512,0.00070625,0,0,0.054412,-0.020777,0,0.007345,0,0,0,0.01535,0.00082117,0.0048512,2.7897,0.0070073,0.012991,7.7149e-08,0.8,0.54,0
0.039507,-0.00080293,0.01556,0.00095862,0.0049556,0.00074624,0,0,0.055143,-0.020784,0,0.0077608,0,0,0,0.015598,0.00092058,0.0049556,2.9181,0.0071581,0.013133,8.0395e-08,0.82,0.54,0
0.040618,-0.00097071,0.015794,0.00096372,0.0050272,0.00076596,0,0,0.055986,-0.02113,0,0.007966,0,0,0,0.015833,0.00092426,0.0050272,2.9489,0.0072616,0.013339,8.4153e-08,0.84,0.54,0
0.041747,-0.0010997,0.016007,0.0009094,0.0050749,0.00075101,0,0,0.056847,-0.021661,0,0.0078105,0,0,0,0.016044,0.00087214,0.0050749,2.8408,0.0073304,0.013568,8.801e-08,0.86,0.54,0
0.042892,-0.0011967,0.016194,0.00082773,0.0051065,0.00070161,0,0,0.057654,-0.022249,0,0.0072967,0,0,0,0.016226,0.00079577,0.0051065,2.6089,0.007376,0.01379,9.1637e-08,0.88,0.54,0
0.044053,-0.0012683,0.01635,0.00073845,0.0051265,0.00062319,0,0,0.058362,-0.022818,0,0.0064812,0,0,0,0.016375,0.00071361,0.0051265,2.2823,0.007405,0.013987,9.482e-08,0.9,0.54,0
0.045227,-0.0013198,0.016475,0.00065401,0.0051387,0.0005223,0,0,0.058949,-0.023321,0,0.0054319,0,0,0,0.016492,0.00063678,0.0051387,1.8887,0.0074226,0.014152,9.746e-08,0.92,0.54,0
0.046411,-0.0013556,0.01657,0.00058234,0.0051457,0.00040484,0,0,0.059407,-0.02373,0,0.0042103,0,0,0,0.01658,0.00057209,0.0051457,1.4496,0.0074327,0.014282,9.9516e-08,0.94,0.54,0
0.047603,-0.001379,0.016637,0.00052834,0.0051495,0.00027586,0,0,0.059733,-0.02403,0,0.002869,0,0,0,0.016641,0.00052362,0.0051495,0.98084,0.0074381,0.014374,1.0098e-07,0.96,0.54,0
0.0488,-0.0013921,0.016676,0.00049494,0.0051512,0.00013967,0,0,0.059928,-0.024213,0,0.0014525,0,0,0,0.016677,0.00049374,0.0051512,0.49451,0.0074407,0.01443,1.0185e-07,0.98,0.54,0
0.05,-0.0013963,0.016689,0.00048365,0.0051518,-2.0359e-05,0,0,0.059993,-0.024274,0,-0.00021174,0,0,0,0.016689,0.00048363,0.0051518,-0.071982,0.0074414,0.014448,1.0215e-07,1,0.54,0
0,0,0.015097,0.0064703,0.0064703,-0.0010332,0,0,0.044861,-2.1684e-19,0,-0.010745,0,0,0,0.015219,0.0063483,0.0064703,-6.7348,0.009346,0.0088107,3.5106e-08,0,0.56,0
0.00089721,-0.0002149,0.015057,0.0060152,0.0063217,-0.0010325,0,0,0.045424,-0.0015941,0,-0.010738,0,0,0,0.015174,0.0058988,0.0063217,-6.4321,0.0091313,0.0090708,3.805e-08,0.02,0.56,0
0.001817,-0.00040905,0.015206,0.0056468,0.0062557,-0.00099426,0,0,0.046539,-0.0031662,0,-0.01034,0,0,0,0.015308,0.0055445,0.0062557,-5.8758,0.009036,0.0094279,4.2214e-08,0.04,0.56,0
0.0027588,-0.00058498,0.015348,0.0052873,0.0061907,-0.00097227,0,0,0.04762,-0.0046976,0,-0.010112,0,0,0,0.015441,0.0051942,0.0061907,-5.4695,0.0089421,0.0097871,4.647e-08,0.06,0.56,0
0.0037218,-0.00074461,0.015483,0.0049402,0.006127,-0.00096335,0,0,0.048652,-0.0061713,0,-0.010019,0,0,0,0.01557,0.0048529,0.006127,-5.1783,0.0088501,0.010141,5.0719e-08,0.08,0.56,0
0.0047049,-0.00088931,0.015607,0.0046087,0.0060648,-0.00096492,0,0,0.049621,-0.0075717,0,-0.010035,0,0,0,0.015691,0.0045247,0.0060648,-4.976,0.0087603,0.010482,5.4866e-08,0.1,0.56,0
0.0057066,-0.00102,0.015718,0.0042957,0.0060043,-0.00097484,0,0,0.050514,-0.0088845,0,-0.010138,0,0,0,0.015801,0.0042131,0.0060043,-4.843,0.0086728,0.010804,5.8821e-08,0.12,0.56,0
0.0067254,-0.0011372,0.015814,0.0040039,0.0059455,-0.00099129,0,0,0.051318,-0.010096,0,-0.010309,0,0,0,0.015897,0.0039213,0.0059455,-4.7646,0.0085879,0.011103,6.2493e-08,0.14,0.56,0
0.0077593,-0.001241,0.015892,0.0037354,0.0058883,-0.0010126,0,0,0.052021,-0.011195,0,-0.010531,0,0,0,0.015976,0.0036516,0.0058883,-4.7291,0.0085053,0.011372,6.5797e-08,0.16,0.56,0
0.0088062,-0.0013311,0.01595,0.003492,0.0058325,-0.0010371,0,0,0.05261,-0.012171,0,-0.010786,0,0,0,0.016036,0.0034063,0.0058325,-4.7267,0.0084248,0.011608,6.8649e-08,0.18,0.56,0
0.0098637,-0.0014067,0.015984,0.003275,0.0057778,-0.0010631,0,0,0.053074,-0.013014,0,-0.011056,0,0,0,0.016072,0.0031867,0.0057778,-4.7485,0.0083457,0.011806,7.0974e-08,0.2,0.56,0
0.010929,-0.0014669,0.015993,0.0030847,0.0057233,-0.0010882,0,0,0.053402,-0.013721,0,-0.011317,0,0,0,0.016084,0.0029936,0.0057233,-4.7851,0.008267,0.011961,7.2702e-08,0.22,0.56,0
0.012,-0.0015099,0.015973,0.0029206,0.0056681,-0.0011098,0,0,0.053586,-0.014287,0,-0.011542,0,0,0,0.016067,0.0028269,0.0056681,-4.8254,0.0081872,0.012073,7.3773e-08,0.24,0.56,0
0.013073,-0.0015334,0.015922,0.0027807,0.0056108,-0.0011244,0,0,0.053618,-0.014717,0,-0.011694,0,0,0,0.016018,0.0026852,0.0056108,-4.8554,0.0081045,0.012137,7.4147e-08,0.26,0.56,0
0.014145,-0.0015346,0.015838,0.0026609,0.0055496,-0.0011278,0,0,0.053498,-0.015021,0,-0.011729,0,0,0,0.015934,0.0025651,0.0055496,-4.857,0.0080161,0.012154,7.3808e-08,0.28,0.56,0
0.015213,-0.0015099,0.015719,0.0025543,0.005482,-0.001115,0,0,0.053232,-0.015224,0,-0.011596,0,0,0,0.015813,0.0024605,0.005482,-4.807,0.0079184,0.012127,7.2786e-08,0.3,0.56,0
0.016274,-0.0014549,0.015566,0.0024495,0.0054046,-0.0010807,0,0,0.052839,-0.015367,0,-0.011239,0,0,0,0.015654,0.0023611,0.0054046,-4.6788,0.0078067,0.012063,7.1176e-08,0.32,0.56,0
0.017326,-0.0013647,0.015381,0.0023292,0.0053131,-0.0010216,0,0,0.052354,-0.015517,0,-0.010625,0,0,0,0.015461,0.0022497,0.0053131,-4.4486,0.0076745,0.011977,6.9158e-08,0.34,0.56,0
0.018368,-0.0012346,0.015169,0.0021699,0.0052016,-0.00093921,0,0,0.05183,-0.015765,0,-0.0097678,0,0,0,0.015236,0.0021024,0.0052016,-4.1113,0.0075134,0.011891,6.6986e-08,0.36,0.56,0
0.019399,-0.0010609,0.014929,0.0019434,0.0050616,-0.00084278,0,0,0.051309,-0.016215,0,-0.0087649,0,0,0,0.014983,0.0018889,0.0050616,-3.698,0.0073112,0.011831,6.4886e-08,0.38,0.56,0
0.02042,-0.00084254,0.014658,0.0016317,0.0048867,-0.00075257,0,0,0.050808,-0.016926,0,-0.0078267,0,0,0,0.014701,0.0015884,0.0048867,-3.2957,0.0070586,0.011814,6.2954e-08,0.4,0.56,0
0.021432,-0.0005823,0.014327,0.0012219,0.0046648,-0.00068769,0,0,0.050245,-0.017903,0,-0.007152,0,0,0,0.014363,0.0011859,0.0046648,-2.9955,0.006738,0.011828,6.0859e-08,0.42,0.56,0
0.02243,-0.00028558,0.013928,0.00075355,0.0044043,-0.00067144,0,0,0.049521,-0.018984,0,-0.006983,0,0,0,0.013962,0.00071942,0.0044043,-2.9102,0.0063618,0.011838,5.82e-08,0.44,0.56,0
0.023412,3.7253e-05,0.013347,0.0001826,0.0040589,-0.00066843,0,0,0.048298,-0.020157,0,-0.0069517,0,0,0,0.013381,0.00014875,0.0040589,-2.8993,0.0058628,0.011774,5.3731e-08,0.46,0.56,0
0.024362,0.00038471,0.012814,-0.00027994,0.0037603,-0.00070549,0,0,0.047081,-0.021009,0,-0.0073371,0,0,0,0.012852,-0.00031784,0.0037603,-3.0751,0.0054316,0.011678,4.9439e-08,0.48,0.56,0
0.025296,0.00073162,0.012073,-0.0011847,0.0032666,-0.00069676,0,0,0.045795,-0.023147,0,-0.0072463,0,0,0,0.01211,-0.0012212,0.0032666,-3.0001,0.0047185,0.011749,4.4195e-08,0.5,0.56,0
0.026194,0.0010178,0.011297,-0.0018086,0.0028466,-0.0009069,0,0,0.043944,-0.024207,0,-0.0094318,0,0,0,0.01136,-0.0018711,0.0028466,-3.9397,0.0041118,0.011614,3.804e-08,0.52,0.56,0
0.027053,0.0012037,0.010737,-0.0015641,0.0027518,-0.0008687,0,0,0.041522,-0.022443,0,-0.0090345,0,0,0,0.010798,-0.0016251,0.0027518,-4.0197,0.0039749,0.010914,3.2401e-08,0.54,0.56,0
0.027855,0.0013063,0.010155,-0.001456,0.0026098,-0.0005961,0,0,0.039236,-0.021142,0,-0.0061994,0,0,0,0.010186,-0.0014865,0.0026098,-2.9312,0.0037697,0.010257,2.7122e-08,0.56,0.56,0
0.028623,0.0013621,0.009868,-0.0014422,0.0025278,-0.00019945,0,0,0.038169,-0.020644,0,-0.0020743,0,0,0,0.0098715,-0.0014457,0.0025278,-1.01,0.0036512,0.0099448,2.4696e-08,0.58,0.56,0
0.029382,0.0013822,0.0098563,-0.0015118,0.0025034,0.0002214,0,0,0.038235,-0.020879,0,0.0023026,0,0,0,0.0098606,-0.0015161,0.0025034,1.1153,0.003616,0.0099929,2.4723e-08,0.6,0.56,0
0.030152,0.0013658,0.010124,-0.0016669,0.002537,0.00061283,0,0,0.03945,-0.02186,0,0.0063734,0,0,0,0.010155,-0.0016987,0.002537,2.9674,0.0036645,0.010404,2.7216e-08,0.62,0.56,0
0.03096,0.0012997,0.010693,-0.0019245,0.0026306,0.0008703,0,0,0.041925,-0.023686,0,0.0090511,0,0,0,0.010753,-0.0019843,0.0026306,3.9272,0.0037997,0.011169,3.2601e-08,0.64,0.56,0
0.031829,0.0011445,0.011243,-0.0023295,0.0026739,0.00087379,0,0,0.044557,-0.026018,0,0.0090874,0,0,0,0.011298,-0.0023855,0.0026739,3.6686,0.0038623,0.011984,3.8283e-08,0.66,0.56,0
0.032742,0.00087861,0.012006,-0.0018407,0.0030497,0.00060557,0,0,0.046575,-0.02543,0,0.0062979,0,0,0,0.012033,-0.0018672,0.0030497,2.4993,0.0044052,0.012208,4.4964e-08,0.68,0.56,0
0.033692,0.00053957,0.012743,-0.0010113,0.0035194,0.00055327,0,0,0.04796,-0.02356,0,0.005754,0,0,0,0.012765,-0.0010336,0.0035194,2.2999,0.0050835,0.012178,5.0958e-08,0.7,0.56,0
0.03466,0.00018925,0.013263,-0.00062478,0.0037913,0.00046454,0,0,0.049251,-0.022964,0,0.0048312,0,0,0,0.013278,-0.0006403,0.0037913,1.9137,0.0054764,0.012316,5.5754e-08,0.72,0.56,0
0.035662,-0.00014529,0.013834,-0.00013365,0.00411,0.00041788,0,0,0.050563,-0.022067,0,0.0043459,0,0,0,0.013846,-0.00014614,0.00411,1.7121,0.0059367,0.012424,6.0937e-08,0.74,0.56,0
0.036683,-0.00046158,0.01423,0.00025526,0.0043456,0.0003866,0,0,0.0514,-0.02127,0,0.0040206,0,0,0,0.014241,0.00024457,0.0043456,1.5834,0.006277,0.012463,6.4335e-08,0.76,0.56,0
0.037718,-0.00074846,0.01456,0.00057912,0.0045418,0.00040544,0,0,0.052096,-0.020606,0,0.0042166,0,0,0,0.014572,0.00056737,0.0045418,1.6597,0.0065604,0.0125,6.7199e-08,0.78,0.56,0
0.038767,-0.00099973,0.014837,0.0007957,0.0046898,0.00045118,0,0,0.052766,-0.02025,0,0.0046923,0,0,0,0.014852,0.00078121,0.0046898,1.8385,0.0067742,0.01258,6.996e-08,0.8,0.56,0
0.039829,-0.0012118,0.01509,0.00091395,0.0048011,0.00050323,0,0,0.053501,-0.020213,0,0.0052336,0,0,0,0.015108,0.00089611,0.0048011,2.0306,0.0069349,0.012717,7.3019e-08,0.82,0.56,0
0.040907,-0.0013853,0.015322,0.00094986,0.0048817,0.00053966,0,0,0.054292,-0.020445,0,0.0056125,0,0,0,0.015343,0.00092962,0.0048817,2.1473,0.0070513,0.012899,7.6356e-08,0.84,0.56,0
0.042001,-0.0015236,0.015535,0.00093062,0.0049397,0.00054927,0,0,0.055096,-0.020847,0,0.0057124,0,0,0,0.015556,0.00090999,0.0049397,2.1508,0.0071351,0.013104,7.9793e-08,0.86,0.56,0
0.043111,-0.0016314,0.015723,0.00087969,0.0049809,0.00052898,0,0,0.055861,-0.021326,0,0.0055014,0,0,0,0.015742,0.00086087,0.0049809,2.0384,0.0071946,0.013308,8.3097e-08,0.88,0.56,0
0.044235,-0.0017135,0.015884,0.0008153,0.0050098,0.00048125,0,0,0.056545,-0.021811,0,0.005005,0,0,0,0.015899,0.00079995,0.0050098,1.8274,0.0072363,0.013496,8.6079e-08,0.9,0.56,0
0.045372,-0.0017746,0.016015,0.00075002,0.0050295,0.00041073,0,0,0.057124,-0.022253,0,0.0042716,0,0,0,0.016026,0.00073898,0.0050295,1.5402,0.0072648,0.013657,8.8612e-08,0.92,0.56,0
0.04652,-0.0018182,0.016116,0.00069235,0.0050425,0.00032262,0,0,0.057582,-0.022621,0,0.0033552,0,0,0,0.016123,0.0006856,0.0050425,1.1978,0.0072836,0.013785,9.0624e-08,0.94,0.56,0
0.047676,-0.0018474,0.016188,0.00064781,0.0050506,0.00022183,0,0,0.057912,-0.022895,0,0.002307,0,0,0,0.016191,0.00064465,0.0050506,0.81768,0.0072953,0.013878,9.2077e-08,0.96,0.56,0
0.048836,-0.0018641,0.01623,0.00061986,0.005055,0.0001129,0,0,0.058111,-0.023063,0,0.0011742,0,0,0,0.016231,0.00061904,0.005055,0.41436,0.0073017,0.013934,9.2953e-08,0.98,0.56,0
0.05,-0.0018695,0.016244,0.00061034,0.0050564,-2.6099e-05,0,0,0.058177,-0.02312,0,-0.00027143,0,0,0,0.016244,0.0006103,0.0050564,-0.095649,0.0073037,0.013953,9.3247e-08,1,0.56,0
0,0,0.014926,0.0063968,0.0063968,-0.0011818,0,0,0.044351,5.421e-19,0,-0.012291,0,0,0,0.015087,0.0062361,0.0063968,-7.7448,0.0092399,0.0087713,3.462e-08,0,0.58,0
0.00088703,-0.00024582,0.014888,0.0059672,0.0062567,-0.0011796,0,0,0.044885,-0.0015052,0,-0.012268,0,0,0,0.015042,0.0058139,0.0062567,-7.4067,0.0090374,0.0090146,3.7318e-08,0.02,0.58,0
0.0017954,-0.00047062,0.015028,0.0056152,0.006193,-0.0011373,0,0,0.045942,-0.0030044,0,-0.011828,0,0,0,0.015163,0.0054797,0.006193,-6.7928,0.0089454,0.0093476,4.1127e-08,0.04,0.58,0
0.0027247,-0.00067652,0.015162,0.0052686,0.0061293,-0.0011085,0,0,0.046972,-0.0044755,0,-0.011528,0,0,0,0.015285,0.005146,0.0061293,-6.315,0.0088534,0.0096849,4.5039e-08,0.06,0.58,0
0.0036743,-0.00086505,0.015288,0.0049317,0.006066,-0.00109,0,0,0.047956,-0.0058985,0,-0.011336,0,0,0,0.015402,0.0048182,0.006066,-5.9435,0.008762,0.010018,4.895e-08,0.08,0.58,0
0.004643,-0.0010373,0.015403,0.0046081,0.0060034,-0.0010795,0,0,0.048879,-0.0072555,0,-0.011227,0,0,0,0.01551,0.0045012,0.0060034,-5.6548,0.0086716,0.01034,5.2761e-08,0.1,0.58,0
0.0056294,-0.0011938,0.015504,0.0043012,0.0059417,-0.0010748,0,0,0.049726,-0.0085304,0,-0.011178,0,0,0,0.015607,0.004199,0.0059417,-5.4307,0.0085824,0.010644,5.6375e-08,0.12,0.58,0
0.006632,-0.0013348,0.015589,0.0040138,0.0058808,-0.0010741,0,0,0.050483,-0.0097088,0,-0.011171,0,0,0,0.015688,0.0039149,0.0058808,-5.2568,0.0084946,0.010923,5.97e-08,0.14,0.58,0
0.0076488,-0.0014602,0.015655,0.0037481,0.0058209,-0.0010758,0,0,0.051136,-0.010778,0,-0.011188,0,0,0,0.015751,0.0036517,0.0058209,-5.1216,0.0084079,0.011174,6.265e-08,0.16,0.58,0
0.0086775,-0.0015695,0.015699,0.0035059,0.0057615,-0.0010782,0,0,0.051675,-0.011729,0,-0.011213,0,0,0,0.015794,0.0034113,0.0057615,-5.0147,0.0083222,0.011391,6.5145e-08,0.18,0.58,0
0.0097158,-0.0016617,0.01572,0.0032882,0.0057023,-0.0010795,0,0,0.052089,-0.012553,0,-0.011227,0,0,0,0.015813,0.0031952,0.0057023,-4.9263,0.0082367,0.011569,6.7116e-08,0.2,0.58,0
0.010761,-0.0017358,0.015714,0.003095,0.0056426,-0.0010775,0,0,0.05237,-0.013248,0,-0.011206,0,0,0,0.015805,0.0030036,0.0056426,-4.8456,0.0081505,0.011707,6.8506e-08,0.22,0.58,0
0.011811,-0.00179,0.01568,0.0029251,0.0055815,-0.0010696,0,0,0.052512,-0.013813,0,-0.011124,0,0,0,0.015769,0.002836,0.0055815,-4.7604,0.0080622,0.011802,6.9277e-08,0.24,0.58,0
0.012861,-0.0018222,0.015616,0.0027758,0.0055176,-0.0010527,0,0,0.052512,-0.014257,0,-0.010948,0,0,0,0.015702,0.0026901,0.0055176,-4.6558,0.0079698,0.011854,6.9411e-08,0.26,0.58,0
0.013911,-0.0018297,0.015521,0.0026424,0.0054491,-0.001023,0,0,0.052375,-0.014595,0,-0.010639,0,0,0,0.015602,0.0025617,0.0054491,-4.5135,0.0078709,0.011863,6.8925e-08,0.28,0.58,0
0.014956,-0.0018095,0.015395,0.0025175,0.0053739,-0.00097678,0,0,0.052112,-0.014853,0,-0.010159,0,0,0,0.015469,0.0024438,0.0053739,-4.313,0.0077622,0.011835,6.7877e-08,0.3,0.58,0
0.015995,-0.0017581,0.01524,0.00239,0.0052889,-0.00091065,0,0,0.051745,-0.015074,0,-0.0094707,0,0,0,0.015304,0.0023258,0.0052889,-4.0336,0.0076396,0.01178,6.6379e-08,0.32,0.58,0
0.017026,-0.0016718,0.015057,0.0022452,0.0051906,-0.0008232,0,0,0.051305,-0.015316,0,-0.0085613,0,0,0,0.01511,0.0021925,0.0051906,-3.6614,0.0074976,0.01171,6.4594e-08,0.34,0.58,0
0.018048,-0.0015475,0.014849,0.002065,0.0050742,-0.00071657,0,0,0.05083,-0.015648,0,-0.0074523,0,0,0,0.014889,0.002025,0.0050742,-3.1981,0.0073295,0.011643,6.2705e-08,0.36,0.58,0
0.01906,-0.0013831,0.014618,0.0018317,0.0049348,-0.00059795,0,0,0.05035,-0.016136,0,-0.0062187,0,0,0,0.014645,0.0018038,0.0049348,-2.6717,0.007128,0.011598,6.0865e-08,0.38,0.58,0
0.020062,-0.0011784,0.014357,0.001531,0.0047665,-0.00047782,0,0,0.049872,-0.016824,0,-0.0049693,0,0,0,0.014375,0.0015133,0.0047665,-2.1305,0.006885,0.011583,5.9099e-08,0.4,0.58,0
0.021054,-0.00093568,0.014064,0.0011626,0.0045679,-0.00036815,0,0,0.049379,-0.017708,0,-0.0038287,0,0,0,0.014074,0.0011521,0.0045679,-1.6332,0.0065981,0.011598,5.7314e-08,0.42,0.58,0
0.022037,-0.00066009,0.013721,0.00072305,0.0043331,-0.00026976,0,0,0.048815,-0.018772,0,-0.0028055,0,0,0,0.013726,0.00071745,0.0043331,-1.1885,0.0062589,0.01163,5.5253e-08,0.44,0.58,0
0.023007,-0.00035787,0.013365,0.0002441,0.0040828,-0.00018662,0,0,0.048268,-0.019961,0,-0.0019409,0,0,0,0.013368,0.00024144,0.0040828,-0.81471,0.0058973,0.011689,5.3159e-08,0.46,0.58,0
0.023968,-4.1342e-05,0.012978,-0.00036187,0.0037847,-0.00011545,0,0,0.047803,-0.021562,0,-0.0012006,0,0,0,0.012979,-0.00036287,0.0037847,-0.49582,0.0054668,0.011826,5.1073e-08,0.48,0.58,0
0.024919,0.00026609,0.012558,-0.0010578,0.0034502,-0.00014495,0,0,0.047363,-0.023441,0,-0.0015074,0,0,0,0.01256,-0.0010593,0.0034502,-0.60983,0.0049836,0.012017,4.8677e-08,0.5,0.58,0
0.025862,0.00052921,0.012132,-0.0015795,0.0031657,-0.00023909,0,0,0.046624,-0.024675,0,-0.0024866,0,0,0,0.012136,-0.0015837,0.0031657,-0.99869,0.0045727,0.012068,4.5424e-08,0.52,0.58,0
0.026784,0.00072237,0.011732,-0.0017645,0.0029902,-0.00031666,0,0,0.045456,-0.024724,0,-0.0032933,0,0,0,0.011739,-0.0017719,0.0029902,-1.3434,0.0043191,0.011869,4.1645e-08,0.54,0.58,0
0.02768,0.0008454,0.011409,-0.0017548,0.0028962,-0.00025297,0,0,0.044265,-0.024185,0,-0.0026309,0,0,0,0.011414,-0.0017596,0.0028962,-1.1005,0.0041834,0.011571,3.835e-08,0.56,0.58,0
0.028555,0.00090989,0.011203,-0.0017714,0.0028294,-8.1757e-05,0,0,0.043542,-0.023924,0,-0.00085027,0,0,0,0.011203,-0.0017719,0.0028294,-0.36103,0.004087,0.011394,3.6354e-08,0.58,0.58,0
0.029422,0.00092524,0.011195,-0.0018381,0.0028072,0.00012488,0,0,0.043618,-0.024155,0,0.0012987,0,0,0,0.011197,-0.0018393,0.0028072,0.54891,0.0040548,0.011443,3.6414e-08,0.6,0.58,0
0.030299,0.00089045,0.011388,-0.0019562,0.0028294,0.00028656,0,0,0.044502,-0.024885,0,0.0029802,0,0,0,0.011394,-0.0019624,0.0028294,1.2297,0.0040869,0.01172,3.8539e-08,0.62,0.58,0
0.031202,0.00079384,0.011699,-0.0021036,0.0028785,0.0003281,0,0,0.045865,-0.025907,0,0.0034122,0,0,0,0.011706,-0.0021114,0.0028785,1.361,0.0041578,0.01212,4.1978e-08,0.64,0.58,0
0.032134,0.00062114,0.012087,-0.0020528,0.0030102,0.00021215,0,0,0.047199,-0.026328,0,0.0022064,0,0,0,0.01209,-0.002056,0.0030102,0.85942,0.0043481,0.012414,4.5992e-08,0.66,0.58,0
0.03309,0.00036988,0.0125,-0.0016463,0.0032562,6.5773e-05,0,0,0.048069,-0.025493,0,0.00068403,0,0,0,0.012501,-0.0016466,0.0032562,0.26638,0.0047034,0.012443,4.9683e-08,0.68,0.58,0
0.034057,6.4267e-05,0.012905,-0.0010402,0.0035596,-2.0817e-05,0,0,0.048599,-0.023919,0,-0.0002165,0,0,0,0.012906,-0.0010402,0.0035596,-0.085527,0.0051416,0.012308,5.2646e-08,0.7,0.58,0
0.035034,-0.00026028,0.013277,-0.00051323,0.0038291,-4.6327e-06,0,0,0.049129,-0.02258,0,-4.818e-05,0,0,0,0.013277,-0.00051323,0.0038291,-0.019248,0.005531,0.012212,5.5246e-08,0.72,0.58,0
0.036022,-0.00057951,0.013617,-0.00011313,0.0040512,2.6209e-05,0,0,0.049743,-0.021655,0,0.00027258,0,0,0,0.013617,-0.00011318,0.0040512,0.10937,0.0058518,0.012194,5.7829e-08,0.74,0.58,0
0.037024,-0.00088034,0.013949,0.00024459,0.004258,7.3331e-05,0,0,0.050392,-0.02087,0,0.00076264,0,0,0,0.013949,0.0002442,0.004258,0.30658,0.0061504,0.012204,6.0438e-08,0.76,0.58,0
0.038038,-0.0011559,0.014235,0.00052602,0.0044283,0.00013239,0,0,0.050995,-0.020292,0,0.0013769,0,0,0,0.014236,0.00052474,0.0044283,0.55326,0.0063965,0.012236,6.282e-08,0.78,0.58,0
0.039064,-0.0014005,0.014493,0.00073086,0.0045672,0.00020191,0,0,0.051615,-0.019949,0,0.0020999,0,0,0,0.014496,0.0007279,0.0045672,0.84037,0.0065971,0.012306,6.525e-08,0.8,0.58,0
0.040102,-0.0016115,0.014729,0.0008569,0.0046757,0.00026907,0,0,0.052276,-0.019858,0,0.0027983,0,0,0,0.014734,0.00085169,0.0046757,1.1108,0.0067538,0.01242,6.7863e-08,0.82,0.58,0
0.041155,-0.0017885,0.014947,0.0009164,0.0047589,0.00032216,0,0,0.052977,-0.019981,0,0.0033504,0,0,0,0.014954,0.000909,0.0047589,1.3147,0.006874,0.01257,7.0684e-08,0.84,0.58,0
0.042221,-0.0019336,0.015147,0.00092585,0.0048217,0.00035276,0,0,0.053689,-0.020259,0,0.0036687,0,0,0,0.015155,0.00091711,0.0048217,1.4201,0.0069647,0.012743,7.3601e-08,0.86,0.58,0
0.043302,-0.0020498,0.015325,0.00090299,0.0048685,0.00035772,0,0,0.054376,-0.020621,0,0.0037203,0,0,0,0.015334,0.00089413,0.0048685,1.42,0.0070323,0.01292,7.6453e-08,0.88,0.58,0
0.044396,-0.0021407,0.01548,0.00086287,0.0049029,0.00033782,0,0,0.055001,-0.021008,0,0.0035134,0,0,0,0.015488,0.00085507,0.0049029,1.3233,0.0070819,0.013087,7.9083e-08,0.9,0.58,0
0.045502,-0.0022099,0.015608,0.00081713,0.0049276,0.00029624,0,0,0.055539,-0.021374,0,0.0030809,0,0,0,0.015614,0.0008112,0.0049276,1.1469,0.0071176,0.013234,8.1363e-08,0.92,0.58,0
0.046618,-0.0022604,0.015708,0.00077421,0.0049447,0.00023719,0,0,0.05597,-0.021687,0,0.0024668,0,0,0,0.015712,0.00077044,0.0049447,0.90971,0.0071424,0.013353,8.3206e-08,0.94,0.58,0
0.047741,-0.0022947,0.01578,0.00073988,0.0049559,0.0001652,0,0,0.056284,-0.021923,0,0.0017181,0,0,0,0.015782,0.00073807,0.0049559,0.62924,0.0071585,0.01344,8.4553e-08,0.96,0.58,0
0.048869,-0.0023146,0.015823,0.00071791,0.0049622,8.4701e-05,0,0,0.056475,-0.02207,0,0.00088088,0,0,0,0.015823,0.00071743,0.0049622,0.32127,0.0071676,0.013494,8.5373e-08,0.98,0.58,0
0.05,-0.0023211,0.015837,0.00071036,0.0049642,-3.1265e-05,0,0,0.056539,-0.02212,0,-0.00032515,0,0,0,0.015837,0.0007103,0.0049642,-0.11842,0.0071706,0.013512,8.565e-08,1,0.58,0
0,0,0.014759,0.0063253,0.0063253,-0.0013226,0,0,0.043855,3.7947e-19,0,-0.013755,0,0,0,0.014962,0.0061227,0.0063253,-8.7071,0.0091365,0.0087393,3.4219e-08,0,0.6,0
0.0008771,-0.00027511,0.014724,0.0059169,0.0061922,-0.0013189,0,0,0.044364,-0.0014312,0,-0.013716,0,0,0,0.014917,0.0057237,0.0061922,-8.337,0.0089442,0.0089682,3.6705e-08,0.02,0.6,0
0.0017745,-0.00052923,0.014856,0.0055781,0.0061303,-0.0012729,0,0,0.045374,-0.0028712,0,-0.013238,0,0,0,0.015028,0.0054067,0.0061303,-7.6719,0.0088548,0.0092803,4.021e-08,0.04,0.6,0
0.0026921,-0.000764,0.014984,0.0052416,0.0060676,-0.0012371,0,0,0.046363,-0.0042949,0,-0.012866,0,0,0,0.015138,0.005087,0.0060676,-7.1253,0.0087643,0.0095986,4.3826e-08,0.06,0.6,0
0.0036291,-0.00098054,0.015103,0.0049122,0.0060045,-0.0012088,0,0,0.047311,-0.0056799,0,-0.012571,0,0,0,0.015244,0.0047707,0.0060045,-6.673,0.0086731,0.0099142,4.7447e-08,0.08,0.6,0
0.0045845,-0.0011795,0.01521,0.0045939,0.0059413,-0.0011855,0,0,0.048199,-0.0070063,0,-0.01233,0,0,0,0.015341,0.0044631,0.0059413,-6.2949,0.0085818,0.010219,5.097e-08,0.1,0.6,0
0.005557,-0.0013612,0.015304,0.0042905,0.0058782,-0.0011654,0,0,0.049012,-0.0082563,0,-0.01212,0,0,0,0.015426,0.0041685,0.0058782,-5.9749,0.0084908,0.010507,5.4297e-08,0.12,0.6,0
0.006545,-0.0015256,0.01538,0.004005,0.0058155,-0.0011467,0,0,0.049736,-0.0094147,0,-0.011926,0,0,0,0.015494,0.0038905,0.0058155,-5.6997,0.0084002,0.010771,5.7335e-08,0.14,0.6,0
0.0075465,-0.0016721,0.015437,0.0037398,0.005753,-0.001128,0,0,0.050356,-0.010469,0,-0.011731,0,0,0,0.015545,0.003632,0.005753,-5.4582,0.0083099,0.011007,6e-08,0.16,0.6,0
0.0085592,-0.0018002,0.015472,0.0034964,0.0056905,-0.0011076,0,0,0.050863,-0.011409,0,-0.011519,0,0,0,0.015574,0.0033949,0.0056905,-5.2401,0.0082196,0.011209,6.2219e-08,0.18,0.6,0
0.009581,-0.0019089,0.015483,0.0032758,0.0056277,-0.0010839,0,0,0.051248,-0.01223,0,-0.011273,0,0,0,0.015579,0.0031803,0.0056277,-5.0351,0.0081288,0.011374,6.3933e-08,0.2,0.6,0
0.010609,-0.0019968,0.015469,0.0030775,0.0055638,-0.0010551,0,0,0.051505,-0.012929,0,-0.010973,0,0,0,0.015558,0.0029883,0.0055638,-4.8322,0.0080366,0.0115,6.5101e-08,0.22,0.6,0
0.011641,-0.0020624,0.015427,0.0028999,0.0054981,-0.0010187,0,0,0.051631,-0.013511,0,-0.010594,0,0,0,0.015509,0.0028176,0.0054981,-4.6187,0.0079417,0.011586,6.5701e-08,0.24,0.6,0
0.012674,-0.0021037,0.015357,0.0027313,0.0054265,-0.0010141,0,0,0.051639,-0.014015,0,-0.010547,0,0,0,0.015438,0.0026504,0.0054265,-4.5631,0.0078383,0.01165,6.5932e-08,0.26,0.6,0
0.013706,-0.0021184,0.015247,0.0025808,0.0053485,-0.00091352,0,0,0.051474,-0.014392,0,-0.0095006,0,0,0,0.015313,0.0025152,0.0053485,-4.1039,0.0077255,0.011643,6.5157e-08,0.28,0.6,0
0.014735,-0.002104,0.015137,0.0024498,0.0052759,-0.0008375,0,0,0.051275,-0.014696,0,-0.00871,0,0,0,0.015192,0.0023948,0.0052759,-3.7606,0.0076207,0.011627,6.4325e-08,0.3,0.6,0
0.015757,-0.0020578,0.014987,0.0023024,0.005187,-0.00074465,0,0,0.050962,-0.015,0,-0.0077443,0,0,0,0.015031,0.0022589,0.005187,-3.3481,0.0074923,0.011589,6.3062e-08,0.32,0.6,0
0.016773,-0.0019774,0.014816,0.0021377,0.0050861,-0.00063379,0,0,0.050596,-0.015332,0,-0.0065914,0,0,0,0.014848,0.0021061,0.0050861,-2.8547,0.0073466,0.011544,6.1611e-08,0.34,0.6,0
0.017781,-0.0018605,0.014625,0.0019418,0.0049701,-0.00050716,0,0,0.050207,-0.015747,0,-0.0052745,0,0,0,0.014646,0.0019215,0.0049701,-2.2862,0.0071791,0.011507,6.0124e-08,0.36,0.6,0
0.018781,-0.0017064,0.014417,0.0017014,0.0048356,-0.00036974,0,0,0.049825,-0.016298,0,-0.0038453,0,0,0,0.014428,0.0016907,0.0048356,-1.6641,0.0069848,0.011492,5.872e-08,0.38,0.6,0
0.019774,-0.0015155,0.014193,0.0014072,0.0046802,-0.00022872,0,0,0.049469,-0.01702,0,-0.0023787,0,0,0,0.014198,0.0014031,0.0046802,-1.0245,0.0067602,0.011511,5.7463e-08,0.4,0.6,0
0.02076,-0.0012906,0.013954,0.0010526,0.0045019,-9.0825e-05,0,0,0.04915,-0.017936,0,-0.00094458,0,0,0,0.013954,0.001052,0.0045019,-0.40334,0.0065028,0.01157,5.6349e-08,0.42,0.6,0
0.02174,-0.0010365,0.013707,0.00063946,0.0043041,3.659e-05,0,0,0.048897,-0.019056,0,0.00038054,0,0,0,0.013707,0.00063935,0.0043041,0.16043,0.006217,0.011675,5.5414e-08,0.44,0.6,0
0.022716,-0.00076119,0.013459,0.00015421,0.0040838,0.00014509,0,0,0.048749,-0.020434,0,0.001509,0,0,0,0.01346,0.00015263,0.0040838,0.62475,0.0058989,0.011842,5.468e-08,0.46,0.6,0
0.02369,-0.00047778,0.013213,-0.00040062,0.0038436,0.00020569,0,0,0.048719,-0.02207,0,0.0021392,0,0,0,0.013216,-0.00040373,0.0038436,0.86544,0.0055519,0.01207,5.4062e-08,0.48,0.6,0
0.024665,-0.00020603,0.012961,-0.00097707,0.0035951,0.00019632,0,0,0.048702,-0.023775,0,0.0020417,0,0,0,0.012964,-0.00097983,0.0035951,0.80681,0.0051929,0.012311,5.3141e-08,0.5,0.6,0
0.025638,3.0792e-05,0.012708,-0.0014481,0.003378,0.00011782,0,0,0.048517,-0.025096,0,0.0012254,0,0,0,0.012709,-0.0014491,0.003378,0.47683,0.0048794,0.012467,5.1582e-08,0.52,0.6,0
0.026606,0.00021471,0.012474,-0.0017265,0.0032241,3.2953e-05,0,0,0.048097,-0.025743,0,0.00034271,0,0,0,0.012474,-0.0017265,0.0032241,0.13296,0.004657,0.012484,4.9575e-08,0.54,0.6,0
0.027562,0.00033893,0.012277,-0.0018583,0.0031257,-6.8311e-06,0,0,0.047588,-0.025916,0,-7.1043e-05,0,0,0,0.012277,-0.0018583,0.0031257,-0.027689,0.0045149,0.012418,4.7651e-08,0.56,0.6,0
0.028509,0.00040514,0.012162,-0.0019262,0.0030706,1.0624e-05,0,0,0.047273,-0.025983,0,0.00011049,0,0,0,0.012162,-0.0019262,0.0030706,0.043208,0.0044353,0.012371,4.6509e-08,0.58,0.6,0
0.029453,0.00041597,0.012155,-0.0019885,0.00305,4.7733e-05,0,0,0.047347,-0.0262,0,0.00049643,0,0,0,0.012155,-0.0019886,0.00305,0.19336,0.0044056,0.012417,4.6576e-08,0.6,0.6,0
0.030403,0.00037035,0.012258,-0.0020451,0.003064,5.3506e-05,0,0,0.04781,-0.026567,0,0.00055646,0,0,0,0.012259,-0.0020453,0.003064,0.21433,0.0044257,0.012555,4.7857e-08,0.62,0.6,0
0.031365,0.00026345,0.012442,-0.0020365,0.0031216,-1.0719e-05,0,0,0.048465,-0.026822,0,-0.00011148,0,0,0,0.012442,-0.0020365,0.0031216,-0.042419,0.004509,0.01271,4.9948e-08,0.64,0.6,0
0.032342,9.1356e-05,0.012663,-0.0018753,0.0032362,-0.00013312,0,0,0.049018,-0.02658,0,-0.0013845,0,0,0,0.012664,-0.0018765,0.0032362,-0.52459,0.0046745,0.012776,5.2196e-08,0.66,0.6,0
0.033326,-0.0001411,0.012899,-0.001509,0.0034171,-0.00025981,0,0,0.049307,-0.025615,0,-0.002702,0,0,0,0.012904,-0.0015137,0.0034171,-1.0327,0.0049358,0.012692,5.4115e-08,0.68,0.6,0
0.034314,-0.00041718,0.013133,-0.0010229,0.0036331,-0.00032303,0,0,0.049401,-0.024211,0,-0.0033595,0,0,0,0.013141,-0.0010303,0.0036331,-1.3065,0.0052478,0.012509,5.5477e-08,0.7,0.6,0
0.035302,-0.00071396,0.01336,-0.00054982,0.003843,-0.00031759,0,0,0.049487,-0.022843,0,-0.0033029,0,0,0,0.013367,-0.00055707,0.003843,-1.3073,0.0055509,0.012328,5.6536e-08,0.72,0.6,0
0.036293,-0.0010115,0.013589,-0.00014411,0.0040335,-0.00026394,0,0,0.049689,-0.021724,0,-0.002745,0,0,0,0.013594,-0.00014918,0.0040335,-1.1006,0.0058262,0.012202,5.7695e-08,0.74,0.6,0
0.03729,-0.0012964,0.013818,0.00018727,0.0042017,-0.00019114,0,0,0.050007,-0.020875,0,-0.0019878,0,0,0,0.013821,0.00018459,0.0042017,-0.8032,0.0060691,0.012137,5.9064e-08,0.76,0.6,0
0.038294,-0.0015601,0.014044,0.00045465,0.0043497,-0.0001082,0,0,0.050412,-0.020254,0,-0.0011253,0,0,0,0.014045,0.00045379,0.0043497,-0.45616,0.0062829,0.012122,6.0651e-08,0.78,0.6,0
0.039306,-0.0017977,0.014259,0.00065382,0.0044739,-2.3042e-05,0,0,0.050883,-0.019864,0,-0.00023964,0,0,0,0.014259,0.00065378,0.0044739,-0.097035,0.0064623,0.012154,6.2438e-08,0.8,0.6,0
0.040329,-0.0020061,0.014463,0.00078857,0.0045755,5.6911e-05,0,0,0.051416,-0.019692,0,0.00059188,0,0,0,0.014463,0.00078833,0.0045755,0.23845,0.006609,0.012229,6.4461e-08,0.82,0.6,0
0.041363,-0.0021845,0.014655,0.00086654,0.0046565,0.00012364,0,0,0.051993,-0.019708,0,0.0012858,0,0,0,0.014656,0.00086543,0.0046565,0.5137,0.0067261,0.01234,6.6692e-08,0.84,0.6,0
0.042409,-0.0023339,0.014834,0.00089979,0.00472,0.00017137,0,0,0.052591,-0.019865,0,0.0017822,0,0,0,0.014836,0.00089769,0.00472,0.70451,0.0068178,0.012474,6.9043e-08,0.86,0.6,0
0.043466,-0.0024562,0.014995,0.00090141,0.004769,0.00019726,0,0,0.053177,-0.020112,0,0.0020516,0,0,0,0.014998,0.00089865,0.004769,0.80172,0.0068886,0.012618,7.1388e-08,0.88,0.6,0
0.044536,-0.0025539,0.015137,0.00088363,0.0048062,0.00020138,0,0,0.05372,-0.020397,0,0.0020944,0,0,0,0.01514,0.00088078,0.0048062,0.8093,0.0069423,0.012758,7.3594e-08,0.9,0.6,0
0.045615,-0.0026296,0.015256,0.00085663,0.0048337,0.00018582,0,0,0.054195,-0.020681,0,0.0019325,0,0,0,0.015258,0.00085423,0.0048337,0.73923,0.006982,0.012884,7.5542e-08,0.92,0.6,0
0.046704,-0.0026857,0.01535,0.00082829,0.0048534,0.0001539,0,0,0.054581,-0.020931,0,0.0016006,0,0,0,0.015351,0.00082666,0.0048534,0.60714,0.0070105,0.012988,7.7142e-08,0.94,0.6,0
0.047799,-0.0027243,0.015418,0.0008043,0.0048665,0.00010954,0,0,0.054865,-0.021124,0,0.0011392,0,0,0,0.015418,0.00080348,0.0048665,0.42944,0.0070294,0.013066,7.8326e-08,0.96,0.6,0
0.048898,-0.0027469,0.015458,0.00078846,0.0048741,5.6847e-05,0,0,0.055039,-0.021245,0,0.00059121,0,0,0,0.015459,0.00078824,0.0048741,0.22202,0.0070403,0.013114,7.9053e-08,0.98,0.6,0
0.05,-0.0027543,0.015472,0.00078294,0.0048765,-3.5674e-05,0,0,0.055097,-0.021286,0,-0.00037101,0,0,0,0.015472,0.00078286,0.0048765,-0.13915,0.0070438,0.01313,7.9299e-08,1,0.6,0
0,0,0.014599,0.0062567,0.0062567,-0.0014571,0,0,0.04338,-1.0842e-19,0,-0.015154,0,0,0,0.014846,0.0060095,0.0062567,-9.6277,0.0090374,0.0087156,3.3911e-08,0,0.62,0
0.00086759,-0.00030307,0.014565,0.0058649,0.0061291,-0.0014518,0,0,0.043869,-0.001374,0,-0.015098,0,0,0,0.014801,0.005629,0.0061291,-9.2274,0.0088531,0.0089327,3.6221e-08,0.02,0.62,0
0.0017548,-0.00058547,0.014693,0.0055358,0.0060685,-0.0014025,0,0,0.044845,-0.0027699,0,-0.014586,0,0,0,0.014903,0.0053258,0.0060685,-8.5159,0.0087656,0.0092278,3.9477e-08,0.04,0.62,0
0.0026614,-0.00084831,0.014815,0.0052062,0.0060063,-0.00136,0,0,0.045805,-0.0041606,0,-0.014144,0,0,0,0.015004,0.0050174,0.0060063,-7.9027,0.0086758,0.0095304,4.2848e-08,0.06,0.62,0
0.003587,-0.0010922,0.014929,0.0048812,0.0059431,-0.0013216,0,0,0.046727,-0.0055216,0,-0.013745,0,0,0,0.0151,0.0047103,0.0059431,-7.3692,0.0085844,0.0098314,4.6228e-08,0.08,0.62,0
0.0045305,-0.0013175,0.015031,0.0045654,0.0058791,-0.0012853,0,0,0.047593,-0.0068309,0,-0.013367,0,0,0,0.015187,0.0044099,0.0058791,-6.8995,0.008492,0.010123,4.9513e-08,0.1,0.62,0
0.0054906,-0.001524,0.015119,0.0042629,0.0058147,-0.0012492,0,0,0.048385,-0.0080694,0,-0.012992,0,0,0,0.015261,0.004121,0.0058147,-6.4801,0.008399,0.010398,5.2604e-08,0.12,0.62,0
0.0064659,-0.0017114,0.01519,0.0039768,0.0057501,-0.0012121,0,0,0.049088,-0.0092209,0,-0.012606,0,0,0,0.01532,0.0038473,0.0057501,-6.0995,0.0083057,0.010649,5.541e-08,0.14,0.62,0
0.0074542,-0.001879,0.015241,0.0037097,0.0056853,-0.0011725,0,0,0.04969,-0.010273,0,-0.012194,0,0,0,0.015359,0.0035917,0.0056853,-5.7476,0.008212,0.010873,5.7853e-08,0.16,0.62,0
0.0084535,-0.0020258,0.01527,0.0034632,0.0056201,-0.0011293,0,0,0.050181,-0.011216,0,-0.011745,0,0,0,0.015377,0.0033562,0.0056201,-5.4147,0.0081179,0.011064,5.9867e-08,0.18,0.62,0
0.0094614,-0.0021509,0.015276,0.0032379,0.0055542,-0.0010811,0,0,0.050555,-0.012045,0,-0.011243,0,0,0,0.015373,0.0031415,0.0055542,-5.0909,0.0080228,0.011221,6.1405e-08,0.2,0.62,0
0.010476,-0.002253,0.015258,0.003033,0.0054872,-0.0010263,0,0,0.050806,-0.012762,0,-0.010673,0,0,0,0.015343,0.0029474,0.0054872,-4.7656,0.0079259,0.011341,6.244e-08,0.22,0.62,0
0.011494,-0.0023304,0.015214,0.0028467,0.0054181,-0.00096318,0,0,0.050937,-0.013371,0,-0.010017,0,0,0,0.015288,0.0027722,0.0054181,-4.4269,0.0078261,0.011425,6.2967e-08,0.24,0.62,0
0.012513,-0.0023816,0.015147,0.0026776,0.0053474,-0.00089114,0,0,0.050958,-0.013883,0,-0.0092679,0,0,0,0.01521,0.0026142,0.0053474,-4.0672,0.007724,0.011476,6.3037e-08,0.26,0.62,0
0.013532,-0.0024045,0.015042,0.002509,0.0052653,-0.00075573,0,0,0.050839,-0.014333,0,-0.0078596,0,0,0,0.015087,0.0024636,0.0052653,-3.4383,0.0076054,0.011482,6.2421e-08,0.28,0.62,0
0.014548,-0.0023973,0.014934,0.0023564,0.0051872,-0.00070471,0,0,0.050685,-0.01472,0,-0.007329,0,0,0,0.014974,0.002317,0.0051872,-3.1968,0.0074926,0.011494,6.1891e-08,0.3,0.62,0
0.015559,-0.0023581,0.014798,0.0021922,0.005097,-0.00059031,0,0,0.050444,-0.015105,0,-0.0061392,0,0,0,0.014825,0.0021646,0.005097,-2.6753,0.0073623,0.011479,6.0926e-08,0.32,0.62,0
0.016565,-0.0022851,0.014644,0.0020116,0.0049967,-0.00046148,0,0,0.050167,-0.015522,0,-0.0047994,0,0,0,0.014661,0.0019948,0.0049967,-2.0894,0.0072175,0.011464,5.986e-08,0.34,0.62,0
0.017566,-0.0021775,0.014478,0.0018036,0.0048843,-0.00032049,0,0,0.049884,-0.01602,0,-0.0033331,0,0,0,0.014486,0.0017955,0.0048843,-1.4476,0.0070551,0.011462,5.8823e-08,0.36,0.62,0
0.018561,-0.002035,0.014301,0.0015577,0.0047577,-0.00017163,0,0,0.049627,-0.01664,0,-0.001785,0,0,0,0.014304,0.0015554,0.0047577,-0.77149,0.0068723,0.011487,5.793e-08,0.38,0.62,0
0.019551,-0.0018592,0.01412,0.0012655,0.0046156,-2.083e-05,0,0,0.049422,-0.01742,0,-0.00021663,0,0,0,0.01412,0.0012655,0.0046156,-0.092846,0.0066669,0.01155,5.7257e-08,0.4,0.62,0
0.020538,-0.0016531,0.013938,0.00092179,0.0044579,0.00012437,0,0,0.049296,-0.018388,0,0.0012935,0,0,0,0.013939,0.00092061,0.0044579,0.5474,0.0064392,0.011659,5.6859e-08,0.42,0.62,0
0.021523,-0.0014223,0.013762,0.00052203,0.0042851,0.00025446,0,0,0.049278,-0.019568,0,0.0026464,0,0,0,0.013766,0.00051714,0.0042851,1.1007,0.0061896,0.011824,5.6754e-08,0.44,0.62,0
0.022509,-0.0011752,0.013596,6.7135e-05,0.0040988,0.00035423,0,0,0.049383,-0.020965,0,0.0036839,0,0,0,0.013605,5.7866e-05,0.0040988,1.4988,0.0059206,0.012046,5.6904e-08,0.46,0.62,0
0.023498,-0.00092415,0.013439,-0.00042904,0.0039031,0.00040551,0,0,0.049589,-0.022527,0,0.0042173,0,0,0,0.013451,-0.00044089,0.0039031,1.6734,0.0056378,0.012309,5.7126e-08,0.48,0.62,0
0.024492,-0.00068492,0.013289,-0.00092113,0.0037104,0.00039347,0,0,0.049809,-0.024084,0,0.0040921,0,0,0,0.0133,-0.00093201,0.0037104,1.5849,0.0053594,0.012571,5.7121e-08,0.5,0.62,0
0.02549,-0.00047463,0.013144,-0.0013416,0.0035406,0.00032614,0,0,0.049936,-0.025388,0,0.0033918,0,0,0,0.013151,-0.001349,0.0035406,1.2891,0.0051142,0.012777,5.6675e-08,0.52,0.62,0
0.02649,-0.00030735,0.013009,-0.0016438,0.0034096,0.00023153,0,0,0.049917,-0.026278,0,0.002408,0,0,0,0.013013,-0.0016475,0.0034096,0.90505,0.0049249,0.012898,5.5851e-08,0.54,0.62,0
0.027487,-0.00019126,0.012899,-0.0018309,0.0033206,0.00014237,0,0,0.04981,-0.026788,0,0.0014806,0,0,0,0.012901,-0.0018323,0.0033206,0.55368,0.0047964,0.01295,5.4972e-08,0.56,0.62,0
0.028482,-0.00012945,0.012834,-0.0019389,0.0032685,6.9755e-05,0,0,0.04974,-0.027078,0,0.00072545,0,0,0,0.012834,-0.0019392,0.0032685,0.27054,0.0047211,0.012978,5.4425e-08,0.58,0.62,0
0.029477,-0.00012277,0.012827,-0.0019956,0.0032494,2.2621e-06,0,0,0.049803,-0.027274,0,2.3526e-05,0,0,0,0.012827,-0.0019956,0.0032494,0.0087441,0.0046936,0.013018,5.4479e-08,0.6,0.62,0
0.030474,-0.00017223,0.012879,-0.0020004,0.0032635,-8.2452e-05,0,0,0.05,-0.027373,0,-0.0008575,0,0,0,0.012879,-0.0020009,0.0032635,-0.31749,0.004714,0.013069,5.5141e-08,0.62,0.62,0
0.031477,-0.00027904,0.012974,-0.0019235,0.003315,-0.00019583,0,0,0.050225,-0.02724,0,-0.0020367,0,0,0,0.012976,-0.0019261,0.003315,-0.75302,0.0047884,0.013094,5.6162e-08,0.64,0.62,0
0.032483,-0.00044206,0.013092,-0.0017259,0.0034098,-0.00032606,0,0,0.050347,-0.026706,0,-0.003391,0,0,0,0.013099,-0.0017331,0.0034098,-1.2599,0.0049252,0.013045,5.7186e-08,0.66,0.62,0
0.03349,-0.00065474,0.013218,-0.0014016,0.0035451,-0.00043833,0,0,0.050302,-0.025723,0,-0.0045587,0,0,0,0.013232,-0.0014147,0.0035451,-1.7158,0.0051207,0.012902,5.7909e-08,0.68,0.62,0
0.034495,-0.00090419,0.013348,-0.00099683,0.0037053,-0.00050149,0,0,0.050142,-0.024451,0,-0.0052155,0,0,0,0.013366,-0.0010143,0.0037053,-1.9998,0.0053522,0.012696,5.8253e-08,0.7,0.62,0
0.035496,-0.001174,0.013482,-0.00058191,0.00387,-0.00050463,0,0,0.049982,-0.02315,0,-0.0052481,0,0,0,0.0135,-0.00059999,0.00387,-2.0523,0.00559,0.012481,5.8392e-08,0.72,0.62,0
0.036494,-0.0014485,0.013625,-0.00020632,0.0040257,-0.00046093,0,0,0.049917,-0.022006,0,-0.0047937,0,0,0,0.01364,-0.00022167,0.0040257,-1.9066,0.0058148,0.012301,5.8603e-08,0.74,0.62,0
0.037493,-0.0017153,0.01378,0.0001123,0.0041677,-0.00038807,0,0,0.049985,-0.021088,0,-0.004036,0,0,0,0.013791,0.00010129,0.0041677,-1.6251,0.00602,0.012177,5.9073e-08,0.76,0.62,0
0.038494,-0.0019661,0.013943,0.00036995,0.0042939,-0.00030142,0,0,0.050175,-0.020404,0,-0.0031348,0,0,0,0.01395,0.00036326,0.0042939,-1.2715,0.0062023,0.012109,5.9858e-08,0.78,0.62,0
0.0395,-0.0021951,0.014109,0.00056856,0.0044033,-0.00021089,0,0,0.050471,-0.019941,0,-0.0021933,0,0,0,0.014113,0.00056528,0.0044033,-0.89208,0.0063604,0.012094,6.0959e-08,0.8,0.62,0
0.040513,-0.0023992,0.014274,0.00071111,0.0044956,-0.00012455,0,0,0.050849,-0.019679,0,-0.0012953,0,0,0,0.014275,0.00070996,0.0044956,-0.52608,0.0064936,0.012124,6.235e-08,0.82,0.62,0
0.041534,-0.0025768,0.014434,0.00080424,0.0045716,-4.8857e-05,0,0,0.051286,-0.01959,0,-0.00050811,0,0,0,0.014434,0.00080407,0.0045716,-0.20537,0.0066034,0.012191,6.398e-08,0.84,0.62,0
0.042564,-0.0027282,0.014586,0.00085691,0.004633,1.1418e-05,0,0,0.051757,-0.019635,0,0.00011874,0,0,0,0.014586,0.00085691,0.004633,0.047648,0.006692,0.012285,6.5765e-08,0.86,0.62,0
0.043604,-0.0028543,0.014726,0.00087925,0.0046816,5.3718e-05,0,0,0.052231,-0.019772,0,0.00055866,0,0,0,0.014726,0.00087905,0.0046816,0.22227,0.0067623,0.012392,6.7596e-08,0.88,0.62,0
0.044653,-0.0029566,0.01485,0.00088111,0.0047194,7.7614e-05,0,0,0.052681,-0.019959,0,0.00080718,0,0,0,0.014851,0.00088068,0.0047194,0.31833,0.0068169,0.012501,6.9359e-08,0.9,0.62,0
0.045711,-0.0030372,0.014956,0.00087117,0.0047481,8.4416e-05,0,0,0.05308,-0.02016,0,0.00087792,0,0,0,0.014956,0.00087066,0.0047481,0.34338,0.0068584,0.012603,7.0947e-08,0.92,0.62,0
0.046777,-0.0030976,0.01504,0.00085646,0.004769,7.6636e-05,0,0,0.05341,-0.020345,0,0.00079702,0,0,0,0.015041,0.00085605,0.004769,0.30957,0.0068885,0.012689,7.227e-08,0.94,0.62,0
0.047848,-0.0031397,0.015101,0.00084232,0.0047831,5.752e-05,0,0,0.053655,-0.020492,0,0.00059821,0,0,0,0.015102,0.00084209,0.0047831,0.23112,0.006909,0.012754,7.3262e-08,0.96,0.62,0
0.048923,-0.0031644,0.015139,0.00083241,0.0047913,3.0702e-05,0,0,0.053806,-0.020586,0,0.0003193,0,0,0,0.015139,0.00083234,0.0047913,0.12296,0.0069208,0.012795,7.3876e-08,0.98,0.62,0
0.05,-0.0031726,0.015151,0.00082887,0.004794,-3.9226e-05,0,0,0.053857,-0.020619,0,-0.00040795,0,0,0,0.015151,0.00082877,0.004794,-0.15692,0.0069247,0.012809,7.4085e-08,1,0.62,0
0,0,0.014448,0.0061921,0.0061921,-0.0015868,0,0,0.042932,-1.0842e-19,0,-0.016503,0,0,0,0.014743,0.0058976,0.0061921,-10.514,0.0089441,0.0087016,3.3708e-08,0,0.64,0
0.00085863,-0.00033006,0.014416,0.0058117,0.0060683,-0.00158,0,0,0.043408,-0.0013346,0,-0.016432,0,0,0,0.014697,0.0055307,0.0060683,-10.083,0.0087653,0.0089097,3.588e-08,0.02,0.64,0
0.0017363,-0.00064002,0.01454,0.0054886,0.0060085,-0.001528,0,0,0.044362,-0.0027031,0,-0.015891,0,0,0,0.014791,0.0052376,0.0060085,-9.3283,0.0086789,0.0091918,3.8942e-08,0.04,0.64,0
0.0026331,-0.00093043,0.014659,0.0051624,0.0059463,-0.0014789,0,0,0.045304,-0.0040764,0,-0.01538,0,0,0,0.014884,0.0049374,0.0059463,-8.6498,0.0085891,0.0094821,4.2119e-08,0.06,0.64,0
0.0035485,-0.0012014,0.01477,0.0048386,0.0058825,-0.0014304,0,0,0.046213,-0.0054281,0,-0.014876,0,0,0,0.014972,0.0046367,0.0058825,-8.035,0.0084969,0.0097717,4.5307e-08,0.08,0.64,0
0.0044816,-0.0014528,0.014869,0.0045223,0.0058174,-0.0013808,0,0,0.047068,-0.0067343,0,-0.01436,0,0,0,0.01505,0.0043412,0.0058174,-7.4721,0.0084029,0.010052,4.84e-08,0.1,0.64,0
0.0054312,-0.001684,0.014954,0.0042179,0.0057515,-0.0013286,0,0,0.047851,-0.0079745,0,-0.013818,0,0,0,0.015116,0.004056,0.0057515,-6.9511,0.0083077,0.010317,5.1303e-08,0.12,0.64,0
0.0063957,-0.0018944,0.015021,0.0039289,0.005685,-0.0012728,0,0,0.048548,-0.0091315,0,-0.013237,0,0,0,0.015165,0.0037848,0.005685,-6.4626,0.0082117,0.010559,5.3928e-08,0.14,0.64,0
0.0073731,-0.002083,0.015069,0.0036579,0.005618,-0.0012124,0,0,0.049144,-0.010192,0,-0.012609,0,0,0,0.015196,0.0035305,0.005618,-5.9984,0.0081149,0.010775,5.6202e-08,0.16,0.64,0
0.0083614,-0.0022488,0.015071,0.0033959,0.00554,-0.0011776,0,0,0.04956,-0.011149,0,-0.012247,0,0,0,0.015189,0.0032783,0.00554,-5.7027,0.0080023,0.010956,5.7955e-08,0.18,0.64,0
0.0093584,-0.0023907,0.0151,0.0031783,0.0054836,-0.0011165,0,0,0.050007,-0.011987,0,-0.011611,0,0,0,0.015204,0.0030746,0.0054836,-5.3041,0.0079207,0.011122,5.9643e-08,0.2,0.64,0
0.010362,-0.0025073,0.015083,0.0029709,0.0054161,-0.0010442,0,0,0.050267,-0.012715,0,-0.010859,0,0,0,0.015172,0.0028815,0.0054161,-4.8913,0.0078233,0.01124,6.0613e-08,0.22,0.64,0
0.011369,-0.0025972,0.015044,0.0027748,0.0053456,-0.00090394,0,0,0.050431,-0.013368,0,-0.009401,0,0,0,0.01511,0.0027086,0.0053456,-4.1912,0.0077215,0.011316,6.1014e-08,0.24,0.64,0
0.012378,-0.0026591,0.014971,0.0025863,0.0052673,-0.00081052,0,0,0.050461,-0.013941,0,-0.0084294,0,0,0,0.015024,0.0025335,0.0052673,-3.7285,0.0076083,0.011373,6.1085e-08,0.26,0.64,0
0.013388,-0.0026914,0.014885,0.0024132,0.0051894,-0.00070261,0,0,0.050416,-0.014436,0,-0.0073072,0,0,0,0.014924,0.0023737,0.0051894,-3.2143,0.0074958,0.011406,6.0847e-08,0.28,0.64,0
0.014395,-0.0026928,0.01478,0.0022419,0.0051065,-0.00058319,0,0,0.0503,-0.014896,0,-0.0060652,0,0,0,0.014807,0.0022148,0.0051065,-2.6575,0.007376,0.011424,6.0349e-08,0.3,0.64,0
0.015399,-0.002662,0.014659,0.0020645,0.005017,-0.00045221,0,0,0.050137,-0.015353,0,-0.004703,0,0,0,0.014675,0.0020483,0.005017,-2.0537,0.0072467,0.011435,5.9701e-08,0.32,0.64,0
0.0164,-0.0025982,0.014546,0.0018979,0.004933,-0.0003691,0,0,0.049985,-0.015783,0,-0.0038387,0,0,0,0.014556,0.0018871,0.004933,-1.6702,0.0071255,0.011454,5.9173e-08,0.34,0.64,0
0.017398,-0.0025013,0.014418,0.0017304,0.0048444,-0.00026407,0,0,0.049781,-0.016193,0,-0.0027463,0,0,0,0.014423,0.0017249,0.0048444,-1.1919,0.0069975,0.011461,5.8449e-08,0.36,0.64,0
0.018392,-0.002372,0.014248,0.0014323,0.0047042,-2.0503e-05,0,0,0.04963,-0.017014,0,-0.00021323,0,0,0,0.014248,0.0014323,0.0047042,-0.09166,0.006795,0.011534,5.7943e-08,0.38,0.64,0
0.019384,-0.0022123,0.014101,0.0011189,0.004566,0.00014238,0,0,0.049583,-0.017925,0,0.0014807,0,0,0,0.014103,0.0011173,0.004566,0.62827,0.0065953,0.01165,5.7866e-08,0.4,0.64,0
0.020375,-0.0020261,0.013967,0.00078668,0.0044261,0.00028272,0,0,0.049612,-0.018925,0,0.0029403,0,0,0,0.013973,0.00078062,0.0044261,1.2283,0.0063932,0.0118,5.8025e-08,0.42,0.64,0
0.021368,-0.0018192,0.013844,0.00040949,0.0042762,0.00040207,0,0,0.049755,-0.020107,0,0.0041815,0,0,0,0.013856,0.00039747,0.0042762,1.7126,0.0061767,0.011999,5.8485e-08,0.44,0.64,0
0.022365,-0.0015998,0.013736,-7.3255e-06,0.0041185,0.00048739,0,0,0.050009,-0.021454,0,0.0050689,0,0,0,0.013753,-2.4589e-05,0.0041185,2.0286,0.005949,0.012243,5.9165e-08,0.46,0.64,0
0.023369,-0.0013789,0.01364,-0.00044582,0.0039582,0.00052527,0,0,0.050344,-0.022901,0,0.0054628,0,0,0,0.013659,-0.00046538,0.0039582,2.1327,0.0057174,0.012514,5.9894e-08,0.48,0.64,0
0.024379,-0.0011694,0.013553,-0.00087285,0.003804,0.00050851,0,0,0.050694,-0.02432,0,0.0052885,0,0,0,0.013571,-0.00089075,0.003804,2.0164,0.0054947,0.012778,6.0453e-08,0.5,0.64,0
0.025396,-0.00098471,0.013473,-0.0012473,0.0036676,0.00044153,0,0,0.050986,-0.025558,0,0.0045919,0,0,0,0.013486,-0.0012606,0.0036676,1.7165,0.0052977,0.013003,6.0693e-08,0.52,0.64,0
0.026418,-0.00083639,0.0134,-0.0015388,0.0035584,0.00034079,0,0,0.051178,-0.026506,0,0.0035442,0,0,0,0.013408,-0.0015466,0.0035584,1.3061,0.00514,0.013167,6.0624e-08,0.54,0.64,0
0.027443,-0.00073258,0.013341,-0.00174,0.0034804,0.00022491,0,0,0.051277,-0.027146,0,0.0023391,0,0,0,0.013345,-0.0017434,0.0034804,0.85421,0.0050273,0.013271,6.04e-08,0.56,0.64,0
0.028469,-0.00067799,0.013305,-0.0018607,0.0034333,0.00010512,0,0,0.051333,-0.027529,0,0.0010932,0,0,0,0.013306,-0.0018614,0.0034333,0.3971,0.0049592,0.013333,6.023e-08,0.58,0.64,0
0.029497,-0.000675,0.013297,-0.0019116,0.0034156,-1.8386e-05,0,0,0.051383,-0.027702,0,-0.00019121,0,0,0,0.013297,-0.0019116,0.0034156,-0.069266,0.0049337,0.013366,6.0259e-08,0.6,0.64,0
0.030525,-0.00072455,0.013317,-0.0018919,0.0034276,-0.00014987,0,0,0.051426,-0.027661,0,-0.0015587,0,0,0,0.013319,-0.0018933,0.0034276,-0.56453,0.004951,0.013371,6.0495e-08,0.62,0.64,0
0.031554,-0.00082616,0.013359,-0.0017891,0.0034709,-0.00028878,0,0,0.051417,-0.027352,0,-0.0030033,0,0,0,0.013364,-0.0017946,0.0034709,-1.0918,0.0050136,0.01333,6.081e-08,0.64,0.64,0
0.032581,-0.00097686,0.013412,-0.0015916,0.0035462,-0.00042296,0,0,0.051303,-0.026717,0,-0.0043988,0,0,0,0.013424,-0.0016035,0.0035462,-1.6135,0.0051222,0.013227,6.1017e-08,0.66,0.64,0
0.033606,-0.00117,0.013471,-0.0013054,0.0036497,-0.00053212,0,0,0.051071,-0.025767,0,-0.005534,0,0,0,0.01349,-0.0013245,0.0036497,-2.0597,0.0052718,0.013059,6.0972e-08,0.68,0.64,0
0.034624,-0.0013952,0.013534,-0.00096097,0.0037721,-0.00059761,0,0,0.050765,-0.024612,0,-0.0062152,0,0,0,0.013559,-0.00098557,0.0037721,-2.3568,0.0054485,0.012845,6.0659e-08,0.7,0.64,0
0.035636,-0.00164,0.013605,-0.00060118,0.0039013,-0.00061301,0,0,0.050462,-0.023413,0,-0.0063753,0,0,0,0.013632,-0.00062758,0.0039013,-2.4662,0.0056352,0.01262,6.0209e-08,0.72,0.64,0
0.036643,-0.0018917,0.013689,-0.00026194,0.004028,-0.00058411,0,0,0.050235,-0.022308,0,-0.0060747,0,0,0,0.013713,-0.00028636,0.004028,-2.3934,0.0058182,0.012418,5.9822e-08,0.74,0.64,0
0.037646,-0.0021399,0.013786,3.5787e-05,0.0041465,-0.00052367,0,0,0.050125,-0.021376,0,-0.0054462,0,0,0,0.013806,1.5872e-05,0.0041465,-2.1779,0.0059895,0.012258,5.9664e-08,0.76,0.64,0
0.038648,-0.0023763,0.013897,0.00028384,0.0042542,-0.0004446,0,0,0.050142,-0.020646,0,-0.0046238,0,0,0,0.013911,0.00026933,0.0042542,-1.8686,0.006145,0.01215,5.9823e-08,0.78,0.64,0
0.039651,-0.0025953,0.014017,0.00048074,0.0043494,-0.00035772,0,0,0.050273,-0.020117,0,-0.0037203,0,0,0,0.014027,0.00047129,0.0043494,-1.5127,0.0062825,0.012092,6.0319e-08,0.8,0.64,0
0.040659,-0.0027933,0.014143,0.00062903,0.0044317,-0.00027135,0,0,0.0505,-0.019774,0,-0.002822,0,0,0,0.014149,0.00062358,0.0044317,-1.1498,0.0064013,0.01208,6.113e-08,0.82,0.64,0
0.041672,-0.0029682,0.01427,0.0007337,0.0045011,-0.00019184,0,0,0.050798,-0.019591,0,-0.0019952,0,0,0,0.014273,0.00073098,0.0045011,-0.8118,0.0065016,0.012105,6.2202e-08,0.84,0.64,0
0.042691,-0.0031193,0.014394,0.00080169,0.0045586,-0.00012369,0,0,0.051142,-0.019536,0,-0.0012863,0,0,0,0.014395,0.00080057,0.0045586,-0.52133,0.0065846,0.012159,6.3458e-08,0.86,0.64,0
0.043717,-0.0032471,0.014509,0.00084091,0.0046051,-6.9491e-05,0,0,0.051503,-0.019574,0,-0.00072271,0,0,0,0.01451,0.00084056,0.0046051,-0.29128,0.0066518,0.01223,6.4804e-08,0.88,0.64,0
0.044751,-0.0033522,0.014614,0.00085931,0.004642,-3.011e-05,0,0,0.051855,-0.01967,0,-0.00031315,0,0,0,0.014614,0.00085924,0.004642,-0.12542,0.0067052,0.012308,6.614e-08,0.9,0.64,0
0.045791,-0.003436,0.014704,0.00086414,0.0046705,-4.8963e-06,0,0,0.052175,-0.019793,0,-5.0921e-05,0,0,0,0.014704,0.00086414,0.0046705,-0.02027,0.0067463,0.012384,6.7371e-08,0.92,0.64,0
0.046838,-0.0034995,0.014777,0.00086155,0.0046915,7.9347e-06,0,0,0.052444,-0.019916,0,8.2521e-05,0,0,0,0.014777,0.00086154,0.0046915,0.032671,0.0067767,0.01245,6.8416e-08,0.94,0.64,0
0.047889,-0.003544,0.01483,0.00085631,0.004706,1.0948e-05,0,0,0.052646,-0.020018,0,0.00011386,0,0,0,0.01483,0.0008563,0.004706,0.044887,0.0067975,0.012502,6.9209e-08,0.96,0.64,0
0.048944,-0.0035704,0.014863,0.00085183,0.0047144,7.1949e-06,0,0,0.052772,-0.020085,0,7.4827e-05,0,0,0,0.014863,0.00085183,0.0047144,0.029423,0.0068097,0.012534,6.9703e-08,0.98,0.64,0
0.05,-0.0035791,0.014874,0.00085012,0.0047171,-4.1892e-05,0,0,0.052814,-0.020109,0,-0.00043568,0,0,0,0.014874,0.00084999,0.0047171,-0.17116,0.0068137,0.012545,6.9874e-08,1,0.64,0
0,0,0.014309,0.0061322,0.0061322,-0.0017137,0,0,0.042517,1.0842e-19,0,-0.017823,0,0,0,0.014653,0.0057876,0.0061322,-11.371,0.0088577,0.0086984,3.3623e-08,0,0.66,0
0.00085034,-0.00035645,0.014277,0.0057579,0.0060106,-0.0017054,0,0,0.042987,-0.001314,0,-0.017736,0,0,0,0.014606,0.0054292,0.0060106,-10.909,0.0086819,0.0089004,3.5691e-08,0.02,0.66,0
0.0017195,-0.00069359,0.014399,0.0054368,0.0059508,-0.001651,0,0,0.043931,-0.0026725,0,-0.017171,0,0,0,0.014693,0.0051423,0.0059508,-10.113,0.0085955,0.0091737,3.8615e-08,0.04,0.66,0
0.0026076,-0.0010114,0.014517,0.0051102,0.0058881,-0.0015956,0,0,0.044869,-0.0040449,0,-0.016594,0,0,0,0.01478,0.0048469,0.0058881,-9.3696,0.008505,0.0094556,4.165e-08,0.06,0.66,0
0.0035142,-0.0013094,0.014626,0.0047842,0.0058232,-0.0015371,0,0,0.045777,-0.0054027,0,-0.015986,0,0,0,0.014861,0.0045497,0.0058232,-8.673,0.0084113,0.0097371,4.4692e-08,0.08,0.66,0
0.0044386,-0.0015869,0.014724,0.0044643,0.0057567,-0.0014741,0,0,0.046633,-0.0067201,0,-0.015331,0,0,0,0.014932,0.0042567,0.0057567,-8.0159,0.0083152,0.01001,4.7639e-08,0.1,0.66,0
0.0053796,-0.001843,0.014808,0.0041554,0.005689,-0.0014056,0,0,0.047419,-0.0079748,0,-0.014618,0,0,0,0.01499,0.003973,0.005689,-7.3918,0.0082174,0.010267,5.0397e-08,0.12,0.66,0
0.0063354,-0.0020767,0.014874,0.0038611,0.0056205,-0.001331,0,0,0.048118,-0.0091488,0,-0.013843,0,0,0,0.015033,0.0037026,0.0056205,-6.7946,0.0081186,0.010503,5.2882e-08,0.14,0.66,0
0.0073043,-0.0022866,0.01492,0.0035845,0.0055515,-0.0012499,0,0,0.048719,-0.010229,0,-0.012999,0,0,0,0.015057,0.0034483,0.0055515,-6.2181,0.0080188,0.010713,5.503e-08,0.16,0.66,0
0.0082841,-0.0024718,0.014919,0.0033097,0.0054685,-0.0011707,0,0,0.049141,-0.011226,0,-0.012176,0,0,0,0.015036,0.0031928,0.0054685,-5.7017,0.0078989,0.010885,5.6598e-08,0.18,0.66,0
0.0092728,-0.0026308,0.014939,0.0030644,0.0054012,-0.0010243,0,0,0.049599,-0.012151,0,-0.010652,0,0,0,0.015027,0.0029767,0.0054012,-4.8938,0.0078017,0.01104,5.8028e-08,0.2,0.66,0
0.010268,-0.0027625,0.014919,0.0028397,0.0053277,-0.00091575,0,0,0.049876,-0.012938,0,-0.0095238,0,0,0,0.014988,0.0027707,0.0053277,-4.3107,0.0076956,0.011161,5.8967e-08,0.22,0.66,0
0.011268,-0.0028657,0.014894,0.0026571,0.0052655,-0.00081289,0,0,0.050071,-0.013564,0,-0.008454,0,0,0,0.014948,0.0026033,0.0052655,-3.7838,0.0076057,0.011253,5.9599e-08,0.24,0.66,0
0.01227,-0.0029392,0.014833,0.0024752,0.0051925,-0.00073723,0,0,0.050132,-0.01413,0,-0.0076672,0,0,0,0.014877,0.0024314,0.0051925,-3.4019,0.0075003,0.011321,5.9833e-08,0.26,0.66,0
0.013273,-0.002982,0.014756,0.0022922,0.0051144,-0.00061057,0,0,0.050136,-0.014676,0,-0.0063499,0,0,0,0.014786,0.0022624,0.0051144,-2.7979,0.0073875,0.011369,5.9759e-08,0.28,0.66,0
0.014276,-0.0029932,0.014663,0.0021108,0.0050323,-0.00047535,0,0,0.050082,-0.015191,0,-0.0049437,0,0,0,0.014681,0.0020929,0.0050323,-2.1656,0.0072688,0.011406,5.9498e-08,0.3,0.66,0
0.015276,-0.0029722,0.014559,0.0019241,0.004945,-0.00033225,0,0,0.049994,-0.015709,0,-0.0034554,0,0,0,0.014568,0.0019153,0.004945,-1.5052,0.0071427,0.011443,5.9147e-08,0.32,0.66,0
0.016275,-0.002919,0.014442,0.0017012,0.0048429,-0.0001794,0,0,0.049914,-0.016337,0,-0.0018658,0,0,0,0.014444,0.0016986,0.0048429,-0.80659,0.0069952,0.011501,5.888e-08,0.34,0.66,0
0.017272,-0.002834,0.014297,0.0014205,0.0047151,6.1155e-05,0,0,0.049823,-0.017132,0,0.00063601,0,0,0,0.014297,0.0014202,0.0047151,0.27212,0.0068107,0.011586,5.8635e-08,0.36,0.66,0
0.018268,-0.0027189,0.014206,0.0012268,0.00463,0.0001751,0,0,0.049798,-0.017696,0,0.0018211,0,0,0,0.014209,0.0012245,0.00463,0.77278,0.0066878,0.011661,5.8625e-08,0.38,0.66,0
0.019264,-0.0025762,0.014112,0.00097595,0.0045263,0.00026578,0,0,0.049844,-0.018462,0,0.0027641,0,0,0,0.014117,0.00097057,0.0045263,1.1587,0.0065379,0.011778,5.8855e-08,0.4,0.66,0
0.020262,-0.0024101,0.014015,0.00066023,0.0044025,0.00039517,0,0,0.049984,-0.01946,0,0.0041098,0,0,0,0.014027,0.00064855,0.0044025,1.6934,0.0063592,0.011952,5.9404e-08,0.42,0.66,0
0.021264,-0.0022266,0.013932,0.00031043,0.0042726,0.00049992,0,0,0.050227,-0.020604,0,0.0051991,0,0,0,0.01395,0.0002921,0.0042726,2.0991,0.0061716,0.012166,6.0215e-08,0.44,0.66,0
0.022271,-0.0020334,0.013863,-6.5835e-05,0.0041391,0.00056947,0,0,0.050564,-0.021866,0,0.0059224,0,0,0,0.013886,-8.9078e-05,0.0041391,2.3373,0.0059787,0.012413,6.12e-08,0.46,0.66,0
0.023286,-0.0018402,0.013807,-0.00045242,0.0040063,0.00059468,0,0,0.050962,-0.023185,0,0.0061847,0,0,0,0.013832,-0.00047718,0.0040063,2.384,0.0057869,0.012676,6.2214e-08,0.48,0.66,0
0.02431,-0.0016577,0.01376,-0.00082488,0.0038805,0.00057114,0,0,0.051373,-0.024468,0,0.0059398,0,0,0,0.013782,-0.00084721,0.0038805,2.2391,0.0056052,0.012931,6.3095e-08,0.5,0.66,0
0.025341,-0.0014969,0.01372,-0.0011558,0.0037691,0.00050193,0,0,0.051742,-0.025609,0,0.0052201,0,0,0,0.013736,-0.0011727,0.0037691,1.9304,0.0054443,0.013154,6.373e-08,0.52,0.66,0
0.026379,-0.0013676,0.013684,-0.0014231,0.0036782,0.00039687,0,0,0.052029,-0.026527,0,0.0041275,0,0,0,0.013694,-0.0014336,0.0036782,1.5038,0.005313,0.013329,6.4092e-08,0.54,0.66,0
0.027422,-0.0012771,0.013654,-0.0016164,0.0036114,0.0002684,0,0,0.052223,-0.027185,0,0.0027914,0,0,0,0.013659,-0.0016212,0.0036114,1.0066,0.0052164,0.01345,6.4243e-08,0.56,0.66,0
0.028468,-0.0012306,0.013634,-0.0017347,0.0035697,0.00012652,0,0,0.052333,-0.027583,0,0.0013158,0,0,0,0.013635,-0.0017358,0.0035697,0.47162,0.0051563,0.013522,6.4281e-08,0.58,0.66,0
0.029516,-0.0012308,0.013625,-0.0017799,0.0035534,-2.2868e-05,0,0,0.05237,-0.027733,0,-0.00023783,0,0,0,0.013625,-0.0017799,0.0035534,-0.085055,0.0051327,0.013549,6.428e-08,0.6,0.66,0
0.030563,-0.0012787,0.013626,-0.0017513,0.0035625,-0.00017575,0,0,0.052332,-0.027632,0,-0.0018278,0,0,0,0.013628,-0.0017533,0.0035625,-0.65471,0.0051458,0.013531,6.4246e-08,0.62,0.66,0
0.031609,-0.0013731,0.013636,-0.0016456,0.0035971,-0.0003258,0,0,0.052202,-0.027262,0,-0.0033883,0,0,0,0.013643,-0.0016526,0.0035971,-1.2208,0.0051957,0.013461,6.4123e-08,0.64,0.66,0
0.032651,-0.0015107,0.01365,-0.0014627,0.0036562,-0.00046216,0,0,0.051967,-0.026618,0,-0.0048064,0,0,0,0.013664,-0.0014768,0.0036562,-1.75,0.0052811,0.013337,6.3827e-08,0.66,0.66,0
0.033688,-0.0016854,0.013667,-0.0012124,0.0037363,-0.00057107,0,0,0.051638,-0.025733,0,-0.0059392,0,0,0,0.013689,-0.0012343,0.0037363,-2.1948,0.0053969,0.013161,6.3307e-08,0.68,0.66,0
0.034717,-0.0018887,0.013688,-0.00091689,0.0038313,-0.00064118,0,0,0.051254,-0.02469,0,-0.0066683,0,0,0,0.013716,-0.00094498,0.0038313,-2.509,0.005534,0.012951,6.2586e-08,0.7,0.66,0
0.035738,-0.0021105,0.013716,-0.00060502,0.0039334,-0.0006679,0,0,0.050872,-0.0236,0,-0.0069462,0,0,0,0.013748,-0.0006361,0.0039334,-2.6644,0.0056816,0.01273,6.1768e-08,0.72,0.66,0
0.036751,-0.0023408,0.013757,-0.00030327,0.0040361,-0.00065454,0,0,0.050549,-0.022565,0,-0.0068072,0,0,0,0.013787,-0.00033368,0.0040361,-2.6596,0.00583,0.012522,6.1004e-08,0.74,0.66,0
0.03776,-0.0025704,0.013812,-3.016e-05,0.0041346,-0.00060958,0,0,0.050323,-0.021656,0,-0.0063397,0,0,0,0.013839,-5.6953e-05,0.0041346,-2.5167,0.0059721,0.012346,6.043e-08,0.76,0.66,0
0.038764,-0.0027919,0.013881,0.00020425,0.0042257,-0.00054333,0,0,0.05021,-0.020912,0,-0.0056506,0,0,0,0.013903,0.0001827,0.0042257,-2.2713,0.0061038,0.012212,6.0135e-08,0.78,0.66,0
0.039768,-0.0029998,0.013963,0.0003964,0.0043079,-0.0004654,0,0,0.050208,-0.02034,0,-0.0048402,0,0,0,0.013979,0.00038045,0.0043079,-1.9624,0.0062225,0.012122,6.0156e-08,0.8,0.66,0
0.040773,-0.0031901,0.014054,0.0005469,0.0043802,-0.00038385,0,0,0.050303,-0.019933,0,-0.0039921,0,0,0,0.014065,0.000536,0.0043802,-1.6265,0.006327,0.012075,6.0483e-08,0.82,0.66,0
0.04178,-0.0033605,0.014149,0.00065917,0.0044425,-0.00030491,0,0,0.050474,-0.019673,0,-0.0031711,0,0,0,0.014156,0.00065228,0.0044425,-1.2942,0.0064169,0.012064,6.1075e-08,0.84,0.66,0
0.042792,-0.0035096,0.014245,0.00073835,0.004495,-0.00023306,0,0,0.0507,-0.019534,0,-0.0024238,0,0,0,0.014249,0.00073433,0.004495,-0.98828,0.0064927,0.012082,6.1866e-08,0.86,0.66,0
0.043808,-0.0036372,0.014337,0.00079058,0.0045383,-0.00017111,0,0,0.050953,-0.019488,0,-0.0017795,0,0,0,0.014339,0.00078842,0.0045383,-0.72355,0.0065553,0.012119,6.2778e-08,0.88,0.66,0
0.04483,-0.0037434,0.014422,0.00082221,0.0045732,-0.0001203,0,0,0.051213,-0.019505,0,-0.0012512,0,0,0,0.014423,0.00082114,0.0045732,-0.50679,0.0066057,0.012168,6.3726e-08,0.9,0.66,0
0.045857,-0.0038289,0.014496,0.00083923,0.0046005,-8.0592e-05,0,0,0.051455,-0.019559,0,-0.00083815,0,0,0,0.014496,0.00083876,0.0046005,-0.33811,0.0066451,0.012219,6.4627e-08,0.92,0.66,0
0.046888,-0.0038943,0.014556,0.00084686,0.0046209,-5.0848e-05,0,0,0.051663,-0.019625,0,-0.00052882,0,0,0,0.014556,0.00084667,0.0046209,-0.21251,0.0066746,0.012266,6.5409e-08,0.94,0.66,0
0.047923,-0.0039404,0.014601,0.00084928,0.004635,-2.9174e-05,0,0,0.051822,-0.019686,0,-0.0003034,0,0,0,0.014601,0.00084922,0.004635,-0.12155,0.006695,0.012304,6.6012e-08,0.96,0.66,0
0.048961,-0.0039678,0.014628,0.00084952,0.0046433,-1.314e-05,0,0,0.051921,-0.019728,0,-0.00013665,0,0,0,0.014628,0.00084951,0.0046433,-0.054638,0.006707,0.012328,6.6391e-08,0.98,0.66,0
0.05,-0.0039769,0.014637,0.00084939,0.004646,-4.3708e-05,0,0,0.051955,-0.019743,0,-0.00045456,0,0,0,0.014638,0.00084926,0.004646,-0.18162,0.006711,0.012336,6.6523e-08,1,0.66,0
0,0,0.014182,0.0060778,0.0060778,-0.0018395,0,0,0.04214,-4.3368e-19,0,-0.019131,0,0,0,0.01458,0.0056798,0.0060778,-12.209,0.0087791,0.0087076,3.3671e-08,0,0.68,0
0.00084279,-0.00038262,0.014151,0.005704,0.0059565,-0.0018297,0,0,0.042611,-0.0013126,0,-0.019029,0,0,0,0.01453,0.0053247,0.0059565,-11.712,0.0086038,0.0089064,3.567e-08,0.02,0.68,0
0.0017044,-0.00074692,0.014273,0.0053807,0.005896,-0.0017735,0,0,0.043558,-0.0026794,0,-0.018444,0,0,0,0.014613,0.0050401,0.005896,-10.873,0.0085164,0.0091752,3.8509e-08,0.04,0.68,0
0.0025851,-0.0010922,0.014391,0.0050498,0.0058321,-0.0017119,0,0,0.044504,-0.0040682,0,-0.017804,0,0,0,0.014694,0.0047459,0.0058321,-10.065,0.0084242,0.0094524,4.1451e-08,0.06,0.68,0
0.0034846,-0.0014175,0.014501,0.0047179,0.0057656,-0.0016434,0,0,0.045423,-0.0054481,0,-0.017092,0,0,0,0.014769,0.0044492,0.0057656,-9.2857,0.0083281,0.0097291,4.4393e-08,0.08,0.68,0
0.004402,-0.0017216,0.014599,0.0043912,0.0056972,-0.001567,0,0,0.046291,-0.006791,0,-0.016296,0,0,0,0.014834,0.0041561,0.0056972,-8.5333,0.0082292,0.0099973,4.7234e-08,0.1,0.68,0
0.0053362,-0.002003,0.014683,0.004075,0.0056274,-0.001482,0,0,0.047089,-0.0080727,0,-0.015413,0,0,0,0.014886,0.0038718,0.0056274,-7.8054,0.0081285,0.01025,4.9883e-08,0.12,0.68,0
0.0062856,-0.0022603,0.014749,0.0037734,0.0055568,-0.0013885,0,0,0.047801,-0.0092736,0,-0.014441,0,0,0,0.014922,0.0036005,0.0055568,-7.0995,0.0080265,0.010481,5.2263e-08,0.14,0.68,0
0.0072483,-0.0024922,0.014796,0.0034896,0.0054857,-0.0012869,0,0,0.048414,-0.01038,0,-0.013384,0,0,0,0.014941,0.0033449,0.0054857,-6.4122,0.0079238,0.010687,5.4313e-08,0.16,0.68,0
0.0082222,-0.0026971,0.014822,0.003225,0.0054142,-0.0011776,0,0,0.048922,-0.011384,0,-0.012247,0,0,0,0.014941,0.0031066,0.0054142,-5.7397,0.0078205,0.010866,5.5998e-08,0.18,0.68,0
0.0092052,-0.0028738,0.014828,0.00298,0.0053422,-0.001061,0,0,0.049323,-0.012283,0,-0.011034,0,0,0,0.014922,0.0028858,0.0053422,-5.0774,0.0077166,0.011015,5.7301e-08,0.2,0.68,0
0.010195,-0.0030213,0.014812,0.0027536,0.0052697,-0.0009376,0,0,0.04962,-0.013084,0,-0.0097511,0,0,0,0.014885,0.0026811,0.0052697,-4.4196,0.0076118,0.011137,5.8233e-08,0.22,0.68,0
0.01119,-0.0031384,0.014777,0.0025432,0.0051961,-0.00080764,0,0,0.049821,-0.013795,0,-0.0083994,0,0,0,0.01483,0.0024901,0.0051961,-3.7607,0.0075055,0.011234,5.8823e-08,0.24,0.68,0
0.012188,-0.0032243,0.014724,0.0023453,0.0051209,-0.00067137,0,0,0.049938,-0.014433,0,-0.0069823,0,0,0,0.014761,0.002309,0.0051209,-3.0953,0.0073969,0.011311,5.9125e-08,0.26,0.68,0
0.013187,-0.0032785,0.014657,0.0021552,0.0050436,-0.00052918,0,0,0.049988,-0.015019,0,-0.0055034,0,0,0,0.014679,0.0021329,0.0050436,-2.4195,0.0072851,0.011374,5.9209e-08,0.28,0.68,0
0.014188,-0.0033005,0.014577,0.0019672,0.0049632,-0.00038172,0,0,0.049991,-0.015579,0,-0.0039699,0,0,0,0.014588,0.0019557,0.0049632,-1.7324,0.0071691,0.01143,5.9159e-08,0.3,0.68,0
0.015187,-0.0032904,0.014488,0.0017751,0.0048791,-0.00023026,0,0,0.049969,-0.016141,0,-0.0023947,0,0,0,0.014493,0.0017709,0.0048791,-1.0373,0.0070475,0.011487,5.9066e-08,0.32,0.68,0
0.016186,-0.0032487,0.014396,0.0015723,0.0047904,-7.6882e-05,0,0,0.049948,-0.016734,0,-0.00079957,0,0,0,0.014396,0.0015718,0.0047904,-0.34349,0.0069195,0.011556,5.9024e-08,0.34,0.68,0
0.017185,-0.0031767,0.014303,0.0013525,0.0046967,7.5261e-05,0,0,0.049953,-0.01739,0,0.00078271,0,0,0,0.014304,0.0013521,0.0046967,0.33295,0.0067841,0.011645,5.9118e-08,0.36,0.68,0
0.018184,-0.0030763,0.014215,0.0011104,0.0045975,0.00022174,0,0,0.050009,-0.018133,0,0.0023061,0,0,0,0.014219,0.0011067,0.0045975,0.96912,0.0066409,0.011762,5.9414e-08,0.38,0.68,0
0.019185,-0.0029508,0.014135,0.00084226,0.0044931,0.00035673,0,0,0.050137,-0.018984,0,0.00371,0,0,0,0.014144,0.00083269,0.0044931,1.5362,0.00649,0.011911,5.9957e-08,0.4,0.68,0
0.02019,-0.0028045,0.014066,0.00054689,0.0043839,0.00047312,0,0,0.050348,-0.019953,0,0.0049205,0,0,0,0.014083,0.00053036,0.0043839,2.0019,0.0063324,0.012095,6.075e-08,0.42,0.68,0
0.021199,-0.0026433,0.014011,0.00022702,0.0042715,0.00056281,0,0,0.050647,-0.021031,0,0.0058533,0,0,0,0.014034,0.00020407,0.0042715,2.3342,0.0061699,0.012311,6.1757e-08,0.44,0.68,0
0.022216,-0.0024744,0.01397,-0.00010961,0.004158,0.00061774,0,0,0.051021,-0.022192,0,0.0064245,0,0,0,0.013997,-0.00013667,0.004158,2.5075,0.006006,0.01255,6.2893e-08,0.46,0.68,0
0.02324,-0.0023063,0.01394,-0.00044946,0.004047,0.0006315,0,0,0.051441,-0.023382,0,0.0065676,0,0,0,0.013967,-0.00047712,0.004047,2.5081,0.0058457,0.012797,6.4042e-08,0.48,0.68,0
0.024273,-0.0021481,0.013918,-0.00077421,0.0039431,0.00060138,0,0,0.051869,-0.02453,0,0.0062544,0,0,0,0.013942,-0.00079879,0.0039431,2.3401,0.0056956,0.013034,6.5078e-08,0.5,0.68,0
0.025315,-0.0020091,0.013901,-0.0010641,0.003851,0.00052958,0,0,0.052259,-0.025559,0,0.0055076,0,0,0,0.01392,-0.0010829,0.003851,2.0242,0.0055626,0.013244,6.5906e-08,0.52,0.68,0
0.026364,-0.0018975,0.013886,-0.0013025,0.0037752,0.00042279,0,0,0.052578,-0.026404,0,0.004397,0,0,0,0.013898,-0.0013142,0.0037752,1.5932,0.005453,0.013413,6.6485e-08,0.54,0.68,0
0.027418,-0.00182,0.013873,-0.0014785,0.0037184,0.00029011,0,0,0.052804,-0.027023,0,0.0030171,0,0,0,0.013879,-0.0014839,0.0037184,1.0822,0.005371,0.013533,6.6824e-08,0.56,0.68,0
0.028476,-0.0017813,0.013861,-0.0015871,0.0036822,0.00014065,0,0,0.05293,-0.0274,0,0.0014628,0,0,0,0.013862,-0.0015884,0.0036822,0.5216,0.0053187,0.013604,6.6961e-08,0.58,0.68,0
0.029535,-0.0017843,0.013851,-0.001627,0.0036671,-1.7645e-05,0,0,0.052954,-0.027529,0,-0.00018351,0,0,0,0.013851,-0.001627,0.0036671,-0.065321,0.0052969,0.013625,6.6928e-08,0.6,0.68,0
0.030594,-0.0018298,0.013841,-0.0015974,0.0036732,-0.00017735,0,0,0.052874,-0.027407,0,-0.0018444,0,0,0,0.013843,-0.0015994,0.0036732,-0.65806,0.0053057,0.013596,6.6732e-08,0.62,0.68,0
0.03165,-0.0019166,0.013832,-0.001499,0.0037,-0.00033015,0,0,0.052688,-0.027035,0,-0.0034336,0,0,0,0.013839,-0.0015061,0.0037,-1.2331,0.0053445,0.013517,6.6355e-08,0.64,0.68,0
0.032702,-0.0020416,0.013823,-0.0013361,0.0037461,-0.00046624,0,0,0.0524,-0.026427,0,-0.0048489,0,0,0,0.013837,-0.0013504,0.0037461,-1.76,0.005411,0.013388,6.5771e-08,0.66,0.68,0
0.033746,-0.0021993,0.013814,-0.0011191,0.0038085,-0.00057552,0,0,0.05203,-0.025624,0,-0.0059854,0,0,0,0.013836,-0.0011412,0.0038085,-2.2038,0.0055012,0.013217,6.498e-08,0.68,0.68,0
0.034783,-0.0023828,0.013808,-0.00086516,0.0038829,-0.00065014,0,0,0.051612,-0.02469,0,-0.0067615,0,0,0,0.013837,-0.00089391,0.0038829,-2.532,0.0056087,0.013017,6.4023e-08,0.7,0.68,0
0.035811,-0.002584,0.013809,-0.0005951,0.0039641,-0.00068682,0,0,0.051193,-0.023708,0,-0.007143,0,0,0,0.013842,-0.00062777,0.0039641,-2.7238,0.005726,0.012807,6.2991e-08,0.72,0.68,0
0.036831,-0.0027943,0.01382,-0.00032884,0.0040473,-0.00068741,0,0,0.050818,-0.022756,0,-0.0071491,0,0,0,0.013853,-0.00036216,0.0040473,-2.775,0.0058461,0.012603,6.2e-08,0.74,0.68,0
0.037843,-0.0030061,0.013844,-8.1901e-05,0.0041286,-0.00065774,0,0,0.05052,-0.021895,0,-0.0068405,0,0,0,0.013875,-0.0001129,0.0041286,-2.6982,0.0059635,0.012423,6.1162e-08,0.76,0.68,0
0.038851,-0.0032128,0.013882,0.00013585,0.0042053,-0.00060559,0,0,0.050317,-0.021161,0,-0.0062981,0,0,0,0.013908,0.00010922,0.0042053,-2.5177,0.0060743,0.012275,6.0558e-08,0.78,0.68,0
0.039856,-0.0034089,0.013932,0.00031961,0.0042755,-0.000539,0,0,0.050214,-0.020571,0,-0.0056056,0,0,0,0.013953,0.0002983,0.0042755,-2.2639,0.0061757,0.012164,6.0229e-08,0.8,0.68,0
0.04086,-0.0035906,0.013993,0.00046849,0.0043384,-0.00046515,0,0,0.050203,-0.020123,0,-0.0048376,0,0,0,0.014009,0.00045251,0.0043384,-1.9675,0.0062665,0.012091,6.0179e-08,0.82,0.68,0
0.041864,-0.0037551,0.01406,0.00058429,0.0043933,-0.00038993,0,0,0.050268,-0.019807,0,-0.0040553,0,0,0,0.014072,0.00057302,0.0043933,-1.656,0.0063459,0.012051,6.038e-08,0.84,0.68,0
0.04287,-0.0039007,0.014131,0.00067061,0.0044404,-0.00031773,0,0,0.05039,-0.019603,0,-0.0033044,0,0,0,0.014138,0.00066312,0.0044404,-1.3515,0.0064139,0.012039,6.0784e-08,0.86,0.68,0
0.04388,-0.0040266,0.014201,0.00073206,0.0044798,-0.00025152,0,0,0.050549,-0.019488,0,-0.0026158,0,0,0,0.014205,0.00072736,0.0044798,-1.0695,0.0064709,0.012048,6.1327e-08,0.88,0.68,0
0.044893,-0.0041324,0.014266,0.0007736,0.004512,-0.00019291,0,0,0.050723,-0.01944,0,-0.0020063,0,0,0,0.014269,0.00077084,0.004512,-0.81897,0.0065174,0.012071,6.1938e-08,0.9,0.68,0
0.045909,-0.0042183,0.014325,0.0008001,0.0045375,-0.00014235,0,0,0.050894,-0.019434,0,-0.0014804,0,0,0,0.014326,0.00079861,0.0045375,-0.60295,0.0065541,0.0121,6.2549e-08,0.92,0.68,0
0.046928,-0.0042845,0.014373,0.0008159,0.0045567,-9.9291e-05,0,0,0.051045,-0.019452,0,-0.0010326,0,0,0,0.014374,0.00081518,0.0045567,-0.4196,0.0065819,0.012129,6.3095e-08,0.94,0.68,0
0.047951,-0.0043315,0.014409,0.00082455,0.0045701,-6.2471e-05,0,0,0.051163,-0.019477,0,-0.0006497,0,0,0,0.014409,0.00082426,0.0045701,-0.26348,0.0066012,0.012153,6.3525e-08,0.96,0.68,0
0.048975,-0.0043595,0.014431,0.00082867,0.004578,-3.0087e-05,0,0,0.051237,-0.019496,0,-0.0003129,0,0,0,0.014431,0.00082861,0.004578,-0.12673,0.0066126,0.012169,6.3799e-08,0.98,0.68,0
0.05,-0.0043688,0.014439,0.00082987,0.0045806,-4.4749e-05,0,0,0.051263,-0.019504,0,-0.00046539,0,0,0,0.014439,0.00082972,0.0045806,-0.1884,0.0066164,0.012175,6.3896e-08,1,0.68,0
0,0,0.014069,0.0060295,0.0060295,-0.0019661,0,0,0.041805,1.0842e-19,0,-0.020448,0,0,0,0.014524,0.0055744,0.0060295,-13.032,0.0087093,0.0087309,3.3869e-08,0,0.7,0
0.00083609,-0.00040896,0.014038,0.0056507,0.0059066,-0.0019549,0,0,0.042283,-0.0013306,0,-0.020331,0,0,0,0.014471,0.0052174,0.0059066,-12.497,0.0085317,0.0089292,3.5831e-08,0.02,0.7,0
0.0016913,-0.00080077,0.014162,0.0053207,0.0058447,-0.0018972,0,0,0.043248,-0.0027248,0,-0.019731,0,0,0,0.014552,0.0049308,0.0058447,-11.614,0.0084423,0.0091979,3.8639e-08,0.04,0.7,0
0.002566,-0.0011741,0.014282,0.0049811,0.0057789,-0.0018297,0,0,0.044215,-0.0041482,0,-0.019029,0,0,0,0.014629,0.0046341,0.0057789,-10.739,0.0083473,0.0094743,4.1536e-08,0.06,0.7,0
0.0034599,-0.0015273,0.014394,0.0046395,0.00571,-0.0017511,0,0,0.045157,-0.0055669,0,-0.018211,0,0,0,0.014699,0.0043347,0.00571,-9.8749,0.0082478,0.0097495,4.4419e-08,0.08,0.7,0
0.0043723,-0.0018585,0.014494,0.0043026,0.0056391,-0.0016608,0,0,0.046047,-0.0069498,0,-0.017272,0,0,0,0.014758,0.0040388,0.0056391,-9.0257,0.0081453,0.010016,4.719e-08,0.1,0.7,0
0.0053018,-0.0021659,0.01458,0.0039764,0.0055668,-0.001559,0,0,0.046866,-0.00827,0,-0.016214,0,0,0,0.014804,0.0037519,0.0055668,-8.1934,0.0080409,0.010266,4.976e-08,0.12,0.7,0
0.0062469,-0.0024476,0.014647,0.0036656,0.0054937,-0.0014464,0,0,0.047596,-0.0095064,0,-0.015043,0,0,0,0.014834,0.0034783,0.0054937,-7.3793,0.0079354,0.010494,5.2056e-08,0.14,0.7,0
0.0072057,-0.0027018,0.014694,0.0033734,0.0054204,-0.0013243,0,0,0.048226,-0.010644,0,-0.013773,0,0,0,0.014847,0.0032205,0.0054204,-6.5837,0.0078294,0.010698,5.4028e-08,0.16,0.7,0
0.0081759,-0.0029271,0.014722,0.0031014,0.005347,-0.0011938,0,0,0.048749,-0.011677,0,-0.012416,0,0,0,0.014843,0.0029801,0.005347,-5.8056,0.0077234,0.010875,5.5647e-08,0.18,0.7,0
0.0091556,-0.0031222,0.014729,0.00285,0.0052736,-0.0010564,0,0,0.049167,-0.012603,0,-0.010987,0,0,0,0.014822,0.0027568,0.0052736,-5.0427,0.0076175,0.011024,5.691e-08,0.2,0.7,0
0.010143,-0.0032859,0.014716,0.0026177,0.0052002,-0.00091315,0,0,0.049483,-0.013429,0,-0.0094968,0,0,0,0.014785,0.0025492,0.0052002,-4.2921,0.0075113,0.011149,5.7836e-08,0.22,0.7,0
0.011135,-0.0034175,0.014686,0.0024022,0.0051263,-0.00076507,0,0,0.049708,-0.014166,0,-0.0079567,0,0,0,0.014733,0.0023547,0.0051263,-3.5504,0.0074047,0.011251,5.8463e-08,0.24,0.7,0
0.012131,-0.0035165,0.014639,0.0021996,0.0050517,-0.00061307,0,0,0.049856,-0.014831,0,-0.006376,0,0,0,0.01467,0.0021694,0.0050517,-2.8146,0.0072969,0.011337,5.8848e-08,0.26,0.7,0
0.013129,-0.0035827,0.01458,0.0020054,0.0049757,-0.00045813,0,0,0.049944,-0.015445,0,-0.0047646,0,0,0,0.014597,0.0019888,0.0049757,-2.0837,0.0071871,0.011412,5.9062e-08,0.28,0.7,0
0.014129,-0.0036163,0.014512,0.0018145,0.0048979,-0.00030144,0,0,0.049992,-0.016034,0,-0.003135,0,0,0,0.014519,0.0018073,0.0048979,-1.3592,0.0070747,0.011483,5.9183e-08,0.3,0.7,0
0.015129,-0.0036178,0.014437,0.001621,0.0048175,-0.00014465,0,0,0.050023,-0.016622,0,-0.0015044,0,0,0,0.014439,0.0016194,0.0048175,-0.64656,0.0069587,0.011557,5.9293e-08,0.32,0.7,0
0.01613,-0.0035883,0.014361,0.0014195,0.0047342,9.8773e-06,0,0,0.05006,-0.017236,0,0.00010272,0,0,0,0.014361,0.0014195,0.0047342,0.043729,0.0068383,0.011644,5.9472e-08,0.34,0.7,0
0.017131,-0.0035296,0.014287,0.0012047,0.0046475,0.00015893,0,0,0.050126,-0.017903,0,0.0016529,0,0,0,0.014289,0.0012027,0.0046475,0.69591,0.0067131,0.011749,5.9787e-08,0.36,0.7,0
0.018135,-0.0034442,0.014219,0.00097233,0.0045573,0.00029827,0,0,0.050239,-0.018642,0,0.003102,0,0,0,0.014226,0.00096562,0.0045573,1.2893,0.0065828,0.011879,6.0291e-08,0.38,0.7,0
0.019141,-0.0033356,0.01416,0.00072001,0.0044639,0.00042264,0,0,0.050418,-0.019468,0,0.0043955,0,0,0,0.014173,0.00070673,0.0044639,1.7994,0.0064478,0.012036,6.1008e-08,0.4,0.7,0
0.020151,-0.0032082,0.014112,0.00044765,0.0043679,0.00052593,0,0,0.050669,-0.020385,0,0.0054697,0,0,0,0.014132,0.00042744,0.0043679,2.201,0.0063092,0.012221,6.1933e-08,0.42,0.7,0
0.021168,-0.0030678,0.014077,0.00015846,0.0042705,0.00060164,0,0,0.050992,-0.021383,0,0.006257,0,0,0,0.014103,0.0001325,0.0042705,2.4706,0.0061686,0.012429,6.3025e-08,0.44,0.7,0
0.022191,-0.0029211,0.014053,-0.00014046,0.0041739,0.0006437,0,0,0.051373,-0.022434,0,0.0066945,0,0,0,0.014082,-0.00016959,0.0041739,2.5913,0.0060289,0.012652,6.4209e-08,0.46,0.7,0
0.023223,-0.0027755,0.01404,-0.00043804,0.0040806,0.0006477,0,0,0.051789,-0.023497,0,0.0067361,0,0,0,0.014069,-0.00046696,0.0040806,2.5564,0.0058942,0.012879,6.5389e-08,0.48,0.7,0
0.024263,-0.0026389,0.014033,-0.00072027,0.0039939,0.00061199,0,0,0.052205,-0.024514,0,0.0063646,0,0,0,0.014059,-0.00074562,0.0039939,2.3712,0.005769,0.013094,6.6466e-08,0.5,0.7,0
0.025311,-0.0025193,0.01403,-0.0009723,0.0039173,0.00053841,0,0,0.052586,-0.025426,0,0.0055995,0,0,0,0.014049,-0.0009916,0.0039173,2.0528,0.0056583,0.013285,6.7359e-08,0.52,0.7,0
0.026366,-0.0024237,0.014027,-0.0011809,0.0038538,0.00043208,0,0,0.052901,-0.026181,0,0.0044937,0,0,0,0.014039,-0.0011932,0.0038538,1.6261,0.0055667,0.01344,6.8019e-08,0.54,0.7,0
0.027427,-0.0023581,0.014022,-0.0013364,0.0038058,0.00030029,0,0,0.053126,-0.026739,0,0.003123,0,0,0,0.014028,-0.0013423,0.0038058,1.1197,0.0054973,0.013551,6.8431e-08,0.56,0.7,0
0.028491,-0.0023266,0.014015,-0.0014329,0.0037745,0.00015124,0,0,0.053249,-0.027079,0,0.0015729,0,0,0,0.014016,-0.0014344,0.0037745,0.56089,0.0054521,0.013615,6.8599e-08,0.58,0.7,0
0.029557,-0.002332,0.014003,-0.0014677,0.0037607,-6.7402e-06,0,0,0.053262,-0.027188,0,-7.0098e-05,0,0,0,0.014003,-0.0014677,0.0037607,-0.024962,0.0054321,0.013631,6.8537e-08,0.6,0.7,0
0.030621,-0.002375,0.013988,-0.0014405,0.0037642,-0.00016531,0,0,0.053163,-0.027064,0,-0.0017192,0,0,0,0.01399,-0.0014422,0.0037642,-0.61381,0.0054372,0.013598,6.825e-08,0.62,0.7,0
0.031683,-0.0024545,0.013969,-0.0013532,0.0037846,-0.00031585,0,0,0.052956,-0.026717,0,-0.0032849,0,0,0,0.013975,-0.0013598,0.0037846,-1.1805,0.0054666,0.013518,6.7738e-08,0.64,0.7,0
0.03274,-0.0025678,0.013946,-0.0012115,0.0038203,-0.00044962,0,0,0.052653,-0.026165,0,-0.0046761,0,0,0,0.013959,-0.0012248,0.0038203,-1.6976,0.0055182,0.013394,6.7008e-08,0.66,0.7,0
0.033789,-0.0027103,0.013922,-0.0010248,0.0038691,-0.00055858,0,0,0.052274,-0.025448,0,-0.0058092,0,0,0,0.013943,-0.0010457,0.0038691,-2.1373,0.0055887,0.013234,6.6081e-08,0.68,0.7,0
0.034831,-0.0028763,0.013899,-0.00080689,0.0039277,-0.00063678,0,0,0.051852,-0.02462,0,-0.0066225,0,0,0,0.013927,-0.00083442,0.0039277,-2.4748,0.0056733,0.013049,6.5009e-08,0.7,0.7,0
0.035863,-0.0030588,0.013881,-0.0005735,0.0039924,-0.00068159,0,0,0.051423,-0.023743,0,-0.0070886,0,0,0,0.013914,-0.00060557,0.0039924,-2.6937,0.0057668,0.012852,6.387e-08,0.72,0.7,0
0.036888,-0.003251,0.013872,-0.00034001,0.0040597,-0.00069399,0,0,0.051026,-0.022878,0,-0.0072175,0,0,0,0.013906,-0.00037382,0.0040597,-2.7889,0.005864,0.01266,6.2759e-08,0.74,0.7,0
0.037905,-0.0034462,0.013874,-0.00011916,0.0041265,-0.00067796,0,0,0.050688,-0.022077,0,-0.0070507,0,0,0,0.013907,-0.00015193,0.0041265,-2.7673,0.0059605,0.012482,6.1766e-08,0.76,0.7,0
0.038915,-0.0036383,0.013888,8.0069e-05,0.0041905,-0.00063932,0,0,0.050428,-0.021374,0,-0.0066489,0,0,0,0.013918,5.0531e-05,0.0041905,-2.6452,0.0060529,0.01233,6.0962e-08,0.78,0.7,0
0.039922,-0.0038226,0.013914,0.00025251,0.00425,-0.00058451,0,0,0.050254,-0.020787,0,-0.0060789,0,0,0,0.013939,0.00022755,0.00425,-2.4454,0.0061389,0.012208,6.039e-08,0.8,0.7,0
0.040925,-0.003995,0.01395,0.00039626,0.004304,-0.00051967,0,0,0.050161,-0.02032,0,-0.0054046,0,0,0,0.01397,0.00037636,0.004304,-2.1925,0.0062169,0.012117,6.0061e-08,0.82,0.7,0
0.041928,-0.0041528,0.013994,0.00051184,0.0043519,-0.00045009,0,0,0.050141,-0.019968,0,-0.0046809,0,0,0,0.014009,0.00049683,0.0043519,-1.9099,0.006286,0.012056,5.9962e-08,0.84,0.7,0
0.042931,-0.0042937,0.014043,0.00060151,0.0043934,-0.00037996,0,0,0.050178,-0.019718,0,-0.0039515,0,0,0,0.014054,0.00059078,0.0043934,-1.6179,0.006346,0.012021,6.0057e-08,0.86,0.7,0
0.043935,-0.0044167,0.014093,0.00066859,0.0044285,-0.00031227,0,0,0.050256,-0.019552,0,-0.0032476,0,0,0,0.014101,0.00066133,0.0044285,-1.3318,0.0063968,0.012007,6.0298e-08,0.88,0.7,0
0.044941,-0.004521,0.014142,0.00071687,0.0044576,-0.00024891,0,0,0.050357,-0.019452,0,-0.0025886,0,0,0,0.014146,0.00071226,0.0044576,-1.0618,0.0064387,0.012008,6.0629e-08,0.9,0.7,0
0.045949,-0.0046062,0.014186,0.00075019,0.0044807,-0.00019071,0,0,0.050465,-0.019399,0,-0.0019834,0,0,0,0.014188,0.00074748,0.0044807,-0.81306,0.0064722,0.012017,6.0993e-08,0.92,0.7,0
0.04696,-0.0046724,0.014223,0.00077207,0.0044984,-0.00013766,0,0,0.050565,-0.019377,0,-0.0014316,0,0,0,0.014224,0.00077066,0.0044984,-0.5863,0.0064976,0.012031,6.1338e-08,0.94,0.7,0
0.047972,-0.0047195,0.01425,0.00078547,0.0045107,-8.905e-05,0,0,0.050646,-0.019371,0,-0.00092612,0,0,0,0.014251,0.00078488,0.0045107,-0.3789,0.0065155,0.012043,6.1618e-08,0.96,0.7,0
0.048986,-0.0047477,0.014268,0.0007926,0.0045181,-4.3676e-05,0,0,0.050697,-0.019372,0,-0.00045423,0,0,0,0.014268,0.00079246,0.0045181,-0.18571,0.0065261,0.012052,6.18e-08,0.98,0.7,0
0.05,-0.004757,0.014273,0.00079482,0.0045205,-4.5123e-05,0,0,0.050715,-0.019373,0,-0.00046928,0,0,0,0.014274,0.00079467,0.0045205,-0.19181,0.0065296,0.012056,6.1866e-08,1,0.7,0
0,0,0.013971,0.0059878,0.0059878,-0.0020954,0,0,0.041515,-2.1684e-19,0,-0.021792,0,0,0,0.014488,0.0054713,0.0059878,-13.848,0.008649,0.00877,3.4238e-08,0,0.72,0
0.00083031,-0.00043585,0.01394,0.0055984,0.0058615,-0.0020829,0,0,0.042008,-0.0013684,0,-0.021662,0,0,0,0.014431,0.0051072,0.0058615,-13.268,0.0084667,0.0089707,3.6194e-08,0.02,0.72,0
0.0016803,-0.00085592,0.014067,0.0052569,0.0057973,-0.0020239,0,0,0.043005,-0.00281,0,-0.021049,0,0,0,0.01451,0.0048142,0.0057973,-12.338,0.0083739,0.0092437,3.9022e-08,0.04,0.72,0
0.0025505,-0.0012581,0.014191,0.0049042,0.0057286,-0.0019505,0,0,0.044006,-0.0042873,0,-0.020285,0,0,0,0.014584,0.0045112,0.0057286,-11.392,0.0082747,0.009523,4.1921e-08,0.06,0.72,0
0.0034406,-0.0016402,0.014307,0.0045485,0.0056567,-0.0018615,0,0,0.044982,-0.0057623,0,-0.019359,0,0,0,0.01465,0.0042055,0.0056567,-10.441,0.0081707,0.0097999,4.4785e-08,0.08,0.72,0
0.0043498,-0.0019996,0.01441,0.0041979,0.0055825,-0.0017568,0,0,0.045905,-0.0071997,0,-0.01827,0,0,0,0.014704,0.0039041,0.0055825,-9.4928,0.0080636,0.010066,4.7516e-08,0.1,0.72,0
0.0052768,-0.0023338,0.014498,0.0038591,0.005507,-0.0016374,0,0,0.046751,-0.0085693,0,-0.017029,0,0,0,0.014744,0.0036127,0.005507,-8.5549,0.0079546,0.010315,5.0026e-08,0.12,0.72,0
0.0062198,-0.0026406,0.014566,0.0035373,0.0054311,-0.0015052,0,0,0.047503,-0.0098479,0,-0.015654,0,0,0,0.014768,0.0033355,0.0054311,-7.6334,0.0078449,0.010542,5.225e-08,0.14,0.72,0
0.0071769,-0.0029179,0.014615,0.0032359,0.0053553,-0.0013622,0,0,0.04815,-0.011021,0,-0.014167,0,0,0,0.014776,0.0030751,0.0053553,-6.7323,0.0077354,0.010744,5.4146e-08,0.16,0.72,0
0.0081458,-0.0031642,0.014643,0.0029568,0.00528,-0.0012109,0,0,0.048688,-0.01208,0,-0.012593,0,0,0,0.014767,0.0028326,0.00528,-5.8538,0.0076266,0.010919,5.5697e-08,0.18,0.72,0
0.0091244,-0.0033779,0.014651,0.0026998,0.0052052,-0.0010533,0,0,0.049118,-0.013028,0,-0.010954,0,0,0,0.014743,0.0026077,0.0052052,-4.9982,0.0075187,0.011068,5.6911e-08,0.2,0.72,0
0.010111,-0.0035584,0.01464,0.0024634,0.0051311,-0.00089144,0,0,0.049448,-0.013872,0,-0.009271,0,0,0,0.014705,0.0023985,0.0051311,-4.1649,0.0074116,0.011194,5.7816e-08,0.22,0.72,0
0.011102,-0.003705,0.014613,0.0022449,0.0050574,-0.000727,0,0,0.04969,-0.014625,0,-0.0075607,0,0,0,0.014656,0.0022023,0.0050574,-3.3524,0.0073052,0.0113,5.8458e-08,0.24,0.72,0
0.012098,-0.0038175,0.014572,0.0020405,0.0049838,-0.00056143,0,0,0.049859,-0.015305,0,-0.0058388,0,0,0,0.014597,0.0020154,0.0049838,-2.56,0.0071988,0.011392,5.8897e-08,0.26,0.72,0
0.013097,-0.0038963,0.01452,0.0018456,0.0049098,-0.00039614,0,0,0.049974,-0.015933,0,-0.0041199,0,0,0,0.014533,0.0018333,0.0049098,-1.7885,0.0070919,0.011475,5.92e-08,0.28,0.72,0
0.014097,-0.0039418,0.014461,0.0016554,0.0048349,-0.0002327,0,0,0.050056,-0.016534,0,-0.0024201,0,0,0,0.014465,0.0016512,0.0048349,-1.0407,0.0069838,0.011556,5.9442e-08,0.3,0.72,0
0.015099,-0.0039553,0.014398,0.0014646,0.0047588,-7.2986e-05,0,0,0.050125,-0.01713,0,-0.00075905,0,0,0,0.014399,0.0014642,0.0047588,-0.32331,0.0068739,0.011642,5.9695e-08,0.32,0.72,0
0.016102,-0.0039382,0.014335,0.0012684,0.0046811,8.0592e-05,0,0,0.050202,-0.017746,0,0.00083816,0,0,0,0.014336,0.0012679,0.0046811,0.35336,0.0067616,0.011739,6.0024e-08,0.34,0.72,0
0.017107,-0.0038928,0.014276,0.0010624,0.0046015,0.00022494,0,0,0.050307,-0.018403,0,0.0023394,0,0,0,0.01428,0.0010586,0.0046015,0.97499,0.0066466,0.011854,6.0483e-08,0.36,0.72,0
0.018114,-0.003822,0.014223,0.00084338,0.00452,0.00035621,0,0,0.050456,-0.019118,0,0.0037045,0,0,0,0.014233,0.00083391,0.00452,1.5239,0.0065288,0.011988,6.1108e-08,0.38,0.72,0
0.019125,-0.0037295,0.014179,0.00060968,0.0044368,0.00046985,0,0,0.050662,-0.019901,0,0.0048864,0,0,0,0.014196,0.00059343,0.0044368,1.9807,0.0064087,0.012146,6.1914e-08,0.4,0.72,0
0.020141,-0.0036199,0.014147,0.00036184,0.0043526,0.00056085,0,0,0.05093,-0.020752,0,0.0058328,0,0,0,0.014169,0.00033906,0.0043526,2.326,0.006287,0.012324,6.2886e-08,0.42,0.72,0
0.021163,-0.0034986,0.014125,0.00010312,0.0042685,0.00062412,0,0,0.051255,-0.02166,0,0.0064909,0,0,0,0.014153,7.5392e-05,0.0042685,2.5435,0.0061656,0.012519,6.3985e-08,0.44,0.72,0
0.022191,-0.0033718,0.014114,-0.00016032,0.0041861,0.00065523,0,0,0.051624,-0.022601,0,0.0068144,0,0,0,0.014144,-0.00019034,0.0041861,2.6227,0.0060465,0.012724,6.5146e-08,0.46,0.72,0
0.023227,-0.0032462,0.014111,-0.00041953,0.0041074,0.00065118,0,0,0.052018,-0.02354,0,0.0067723,0,0,0,0.01414,-0.00044865,0.0041074,2.5609,0.0059329,0.012927,6.629e-08,0.48,0.72,0
0.024272,-0.0031287,0.014113,-0.00066358,0.0040348,0.00061113,0,0,0.052406,-0.024432,0,0.0063558,0,0,0,0.014138,-0.00068881,0.0040348,2.3643,0.0058281,0.013119,6.7336e-08,0.5,0.72,0
0.025324,-0.0030261,0.014117,-0.000881,0.0039709,0.00053687,0,0,0.052761,-0.02523,0,0.0055835,0,0,0,0.014136,-0.00090019,0.0039709,2.0474,0.0057357,0.013288,6.8214e-08,0.52,0.72,0
0.026382,-0.0029447,0.01412,-0.0010613,0.0039177,0.00043265,0,0,0.053054,-0.025891,0,0.0044995,0,0,0,0.014133,-0.0010736,0.0039177,1.6311,0.0056589,0.013426,6.8876e-08,0.54,0.72,0
0.027446,-0.0028895,0.01412,-0.0011961,0.0038772,0.00030464,0,0,0.053263,-0.026381,0,0.0031683,0,0,0,0.014126,-0.0012022,0.0038772,1.139,0.0056003,0.013524,6.9294e-08,0.56,0.72,0
0.028513,-0.0028645,0.014114,-0.0012801,0.0038503,0.00016022,0,0,0.053373,-0.026678,0,0.0016662,0,0,0,0.014116,-0.0012817,0.0038503,0.59621,0.0055615,0.01358,6.9459e-08,0.58,0.72,0
0.029581,-0.0028718,0.014102,-0.0013102,0.0038377,7.2947e-06,0,0,0.053377,-0.026769,0,7.5865e-05,0,0,0,0.014102,-0.0013102,0.0038377,0.027118,0.0055433,0.013591,6.9373e-08,0.6,0.72,0
0.030648,-0.0029124,0.014084,-0.0012864,0.0038392,-0.00014597,0,0,0.053272,-0.026653,0,-0.0015181,0,0,0,0.014085,-0.0012878,0.0038392,-0.54407,0.0055456,0.013557,6.904e-08,0.62,0.72,0
0.031712,-0.0029853,0.014059,-0.001211,0.0038544,-0.00029144,0,0,0.053064,-0.02634,0,-0.0030309,0,0,0,0.014065,-0.0012166,0.0038544,-1.093,0.0055675,0.013481,6.847e-08,0.64,0.72,0
0.03277,-0.0030882,0.014029,-0.0010894,0.003882,-0.00042134,0,0,0.052766,-0.025851,0,-0.004382,0,0,0,0.014041,-0.0011012,0.003882,-1.5951,0.0056073,0.013366,6.7682e-08,0.66,0.72,0
0.033822,-0.0032173,0.013997,-0.00092994,0.00392,-0.00052897,0,0,0.052399,-0.02522,0,-0.0055013,0,0,0,0.014016,-0.00094866,0.00392,-2.0271,0.0056623,0.01322,6.6709e-08,0.68,0.72,0
0.034866,-0.0033676,0.013964,-0.00074352,0.0039662,-0.00060948,0,0,0.05199,-0.024491,0,-0.0063386,0,0,0,0.013989,-0.00076873,0.0039662,-2.3689,0.005729,0.013052,6.5602e-08,0.7,0.72,0
0.035902,-0.0035337,0.013935,-0.00054248,0.0040178,-0.00066051,0,0,0.05157,-0.023713,0,-0.0068693,0,0,0,0.013965,-0.00057255,0.0040178,-2.6068,0.0058035,0.012872,6.4431e-08,0.72,0.72,0
0.036929,-0.0037095,0.013912,-0.00033891,0.0040721,-0.00068245,0,0,0.05117,-0.022937,0,-0.0070975,0,0,0,0.013945,-0.00037152,0.0040721,-2.7353,0.0058819,0.012692,6.3273e-08,0.74,0.72,0
0.037949,-0.0038892,0.013899,-0.00014325,0.0041267,-0.00067798,0,0,0.050815,-0.022204,0,-0.007051,0,0,0,0.013932,-0.00017591,0.0041267,-2.7578,0.0059608,0.012523,6.2204e-08,0.76,0.72,0
0.038962,-0.0040678,0.013896,3.6645e-05,0.0041797,-0.0006514,0,0,0.050523,-0.021544,0,-0.0067746,0,0,0,0.013926,6.0949e-06,0.0041797,-2.6851,0.0060373,0.012373,6.1283e-08,0.78,0.72,0
0.03997,-0.0042404,0.013903,0.00019572,0.0042296,-0.00060775,0,0,0.050301,-0.020976,0,-0.0063206,0,0,0,0.01393,0.00016882,0.0042296,-2.5337,0.0061094,0.012247,6.0554e-08,0.8,0.72,0
0.040974,-0.0044034,0.01392,0.00033149,0.0042754,-0.00055213,0,0,0.050151,-0.020508,0,-0.0057421,0,0,0,0.013942,0.0003091,0.0042754,-2.323,0.0061756,0.012146,6.0031e-08,0.82,0.72,0
0.041976,-0.0045538,0.013945,0.00044363,0.0043165,-0.00048914,0,0,0.050067,-0.020139,0,-0.005087,0,0,0,0.013962,0.00042593,0.0043165,-2.0722,0.0062349,0.012071,5.971e-08,0.84,0.72,0
0.042977,-0.0046894,0.013975,0.00053332,0.0043525,-0.00042263,0,0,0.050037,-0.01986,0,-0.0043953,0,0,0,0.013988,0.00052005,0.0043525,-1.7991,0.0062869,0.012019,5.9569e-08,0.86,0.72,0
0.043977,-0.0048087,0.014008,0.00060282,0.0043833,-0.00035553,0,0,0.050049,-0.019658,0,-0.0036975,0,0,0,0.014018,0.0005934,0.0043833,-1.5182,0.0063314,0.011987,5.9573e-08,0.88,0.72,0
0.044978,-0.0049105,0.014042,0.00065491,0.0044089,-0.00028986,0,0,0.05009,-0.019521,0,-0.0030146,0,0,0,0.014048,0.00064863,0.0044089,-1.2399,0.0063685,0.011971,5.9679e-08,0.9,0.72,0
0.045981,-0.0049943,0.014073,0.00069255,0.0044296,-0.00022677,0,0,0.050144,-0.019432,0,-0.0023585,0,0,0,0.014077,0.0006887,0.0044296,-0.97071,0.0063983,0.011964,5.9842e-08,0.92,0.72,0
0.046984,-0.0050596,0.014099,0.00071853,0.0044454,-0.00016667,0,0,0.050201,-0.01938,0,-0.0017334,0,0,0,0.014101,0.00071645,0.0044454,-0.71352,0.0064211,0.011965,6.0019e-08,0.94,0.72,0
0.047989,-0.0051063,0.01412,0.00073525,0.0044565,-0.00010933,0,0,0.050249,-0.01935,0,-0.0011371,0,0,0,0.014121,0.00073435,0.0044565,-0.468,0.0064371,0.011968,6.0175e-08,0.96,0.72,0
0.048994,-0.0051344,0.014132,0.00074452,0.0044631,-5.4104e-05,0,0,0.050281,-0.019337,0,-0.00056268,0,0,0,0.014133,0.0007443,0.0044631,-0.23154,0.0064467,0.01197,6.028e-08,0.98,0.72,0
0.05,-0.0051437,0.014137,0.00074748,0.0044653,-4.495e-05,0,0,0.050292,-0.019333,0,-0.00046748,0,0,0,0.014137,0.00074733,0.0044653,-0.19235,0.0064499,0.011972,6.0319e-08,1,0.72,0
0,0,0.013891,0.0059534,0.0059534,-0.0022293,0,0,0.041277,4.3368e-19,0,-0.023185,0,0,0,0.014474,0.0053701,0.0059534,-14.661,0.0085993,0.0088271,3.4806e-08,0,0.74,0
0.00082553,-0.00046369,0.013859,0.0055476,0.0058219,-0.0022154,0,0,0.041792,-0.0014265,0,-0.02304,0,0,0,0.014412,0.0049939,0.0058219,-14.031,0.0084094,0.009033,3.6784e-08,0.02,0.74,0
0.0016717,-0.00091317,0.013992,0.0051895,0.0057543,-0.0021555,0,0,0.042833,-0.0029369,0,-0.022418,0,0,0,0.014491,0.00469,0.0057543,-13.047,0.0083118,0.0093146,3.9685e-08,0.04,0.74,0
0.0025389,-0.0013456,0.014121,0.0048184,0.0056817,-0.0020759,0,0,0.043883,-0.0044891,0,-0.02159,0,0,0,0.014563,0.0043762,0.0056817,-12.026,0.008207,0.0096008,4.2631e-08,0.06,0.74,0
0.003427,-0.0017578,0.014241,0.0044442,0.0056056,-0.0019757,0,0,0.044905,-0.0060392,0,-0.020547,0,0,0,0.014625,0.0040608,0.0056056,-10.983,0.008097,0.0098823,4.5511e-08,0.08,0.74,0
0.0043351,-0.0021465,0.014348,0.0040761,0.0055272,-0.0018555,0,0,0.045868,-0.0075458,0,-0.019297,0,0,0,0.014673,0.0037512,0.0055272,-9.9316,0.0079837,0.010151,4.8223e-08,0.1,0.74,0
0.0052617,-0.0025087,0.014438,0.003722,0.0054478,-0.0017174,0,0,0.046746,-0.0089746,0,-0.017861,0,0,0,0.014706,0.0034535,0.0054478,-8.8864,0.0078691,0.0104,5.0683e-08,0.12,0.74,0
0.0062049,-0.0028415,0.014507,0.0033877,0.0053685,-0.0015644,0,0,0.047522,-0.0103,0,-0.01627,0,0,0,0.014723,0.0031718,0.0053685,-7.8579,0.0077545,0.010625,5.2832e-08,0.14,0.74,0
0.0071625,-0.0031427,0.014556,0.003077,0.0052899,-0.0014,0,0,0.048183,-0.011507,0,-0.014561,0,0,0,0.014724,0.0029087,0.0052899,-6.8543,0.0076409,0.010823,5.4641e-08,0.16,0.74,0
0.0081322,-0.0034103,0.014583,0.0027913,0.0052124,-0.0012277,0,0,0.048729,-0.01259,0,-0.012768,0,0,0,0.01471,0.0026649,0.0052124,-5.881,0.0075291,0.010995,5.6106e-08,0.18,0.74,0
0.0091117,-0.0036433,0.014591,0.0025303,0.0051364,-0.0010505,0,0,0.049164,-0.013552,0,-0.010925,0,0,0,0.014682,0.0024395,0.0051364,-4.9409,0.0074193,0.011142,5.7246e-08,0.2,0.74,0
0.010099,-0.0038407,0.014581,0.002292,0.0050618,-0.00087117,0,0,0.049499,-0.014403,0,-0.0090602,0,0,0,0.014642,0.0022306,0.0050618,-4.0349,0.0073116,0.011266,5.81e-08,0.22,0.74,0
0.011092,-0.0040025,0.014555,0.0020733,0.0049885,-0.00069197,0,0,0.049746,-0.015159,0,-0.0071965,0,0,0,0.014593,0.0020351,0.0049885,-3.1635,0.0072057,0.011373,5.8722e-08,0.24,0.74,0
0.012089,-0.0041287,0.014517,0.0018702,0.0049162,-0.00051478,0,0,0.049925,-0.015839,0,-0.0053537,0,0,0,0.014538,0.0018493,0.0049162,-2.327,0.0071012,0.011467,5.9173e-08,0.26,0.74,0
0.013089,-0.0042201,0.014471,0.0016782,0.0048446,-0.00034129,0,0,0.050055,-0.016465,0,-0.0035495,0,0,0,0.01448,0.0016691,0.0048446,-1.5272,0.0069977,0.011555,5.952e-08,0.28,0.74,0
0.014091,-0.0042777,0.014418,0.0014923,0.0047732,-0.00017323,0,0,0.050155,-0.01706,0,-0.0018016,0,0,0,0.014421,0.00149,0.0047732,-0.76767,0.0068946,0.011642,5.9829e-08,0.3,0.74,0
0.015095,-0.004303,0.014364,0.001308,0.0047017,-1.2504e-05,0,0,0.050245,-0.017647,0,-0.00013004,0,0,0,0.014364,0.001308,0.0047017,-0.054873,0.0067913,0.011733,6.0164e-08,0.32,0.74,0
0.016101,-0.0042982,0.014311,0.0011208,0.0046297,0.00013858,0,0,0.050346,-0.018246,0,0.0014412,0,0,0,0.014313,0.0011193,0.0046297,0.60183,0.0066873,0.011836,6.0577e-08,0.34,0.74,0
0.017109,-0.0042657,0.014263,0.00092695,0.0045571,0.00027721,0,0,0.050473,-0.018877,0,0.002883,0,0,0,0.014269,0.00092119,0.0045571,1.1903,0.0065825,0.011952,6.1111e-08,0.36,0.74,0
0.01812,-0.0042089,0.014222,0.000724,0.0044839,0.00040008,0,0,0.05064,-0.019551,0,0.0041609,0,0,0,0.014234,0.00071215,0.0044839,1.6962,0.0064767,0.012086,6.1789e-08,0.38,0.74,0
0.019134,-0.0041316,0.01419,0.00051083,0.0044103,0.00050342,0,0,0.050855,-0.020277,0,0.0052355,0,0,0,0.014209,0.00049232,0.0044103,2.1048,0.0063704,0.012237,6.2617e-08,0.4,0.74,0
0.020154,-0.0040383,0.014168,0.00028823,0.0043368,0.00058322,0,0,0.051121,-0.021053,0,0.0060655,0,0,0,0.014192,0.00026377,0.0043368,2.4019,0.0062643,0.012404,6.3577e-08,0.42,0.74,0
0.021179,-0.0039342,0.014155,5.9198e-05,0.0042644,0.00063567,0,0,0.051434,-0.021867,0,0.0066109,0,0,0,0.014184,3.0591e-05,0.0042644,2.5768,0.0061597,0.012583,6.4632e-08,0.44,0.74,0
0.022211,-0.0038251,0.014152,-0.00017106,0.0041943,0.00065759,0,0,0.05178,-0.0227,0,0.0068389,0,0,0,0.014182,-0.00020119,0.0041943,2.6231,0.0060584,0.012766,6.5726e-08,0.46,0.74,0
0.02325,-0.003717,0.014155,-0.00039532,0.004128,0.00064706,0,0,0.052142,-0.023521,0,0.0067294,0,0,0,0.014184,-0.00042404,0.004128,2.5412,0.0059626,0.012947,6.6793e-08,0.48,0.74,0
0.024297,-0.0036162,0.014162,-0.00060501,0.0040672,0.00060389,0,0,0.052495,-0.024296,0,0.0062805,0,0,0,0.014187,-0.00062967,0.0040672,2.3378,0.0058749,0.013115,6.7766e-08,0.5,0.74,0
0.02535,-0.0035285,0.014171,-0.00079113,0.0040139,0.00052991,0,0,0.052816,-0.024986,0,0.005511,0,0,0,0.014189,-0.00080988,0.0040139,2.0259,0.0057978,0.013262,6.8586e-08,0.52,0.74,0
0.026409,-0.0034594,0.014177,-0.00094533,0.0039695,0.00042886,0,0,0.053079,-0.025557,0,0.0044602,0,0,0,0.014189,-0.00095748,0.0039695,1.6232,0.0057337,0.013382,6.9206e-08,0.54,0.74,0
0.027473,-0.0034133,0.014179,-0.0010608,0.0039354,0.00030618,0,0,0.053265,-0.02598,0,0.0031842,0,0,0,0.014185,-0.0010669,0.0039354,1.1505,0.0056844,0.013466,6.9597e-08,0.56,0.74,0
0.02854,-0.0033937,0.014174,-0.0011327,0.0039124,0.0001684,0,0,0.05336,-0.026234,0,0.0017514,0,0,0,0.014176,-0.0011345,0.0039124,0.63027,0.0056513,0.013513,6.9743e-08,0.58,0.74,0
0.029608,-0.0034027,0.014162,-0.0011585,0.003901,2.2788e-05,0,0,0.053357,-0.02631,0,0.00023699,0,0,0,0.014162,-0.0011586,0.003901,0.085222,0.0056348,0.01352,6.9639e-08,0.6,0.74,0
0.030674,-0.0034411,0.014142,-0.0011382,0.0039012,-0.00012317,0,0,0.053253,-0.026205,0,-0.001281,0,0,0,0.014143,-0.0011392,0.0039012,-0.46181,0.005635,0.013488,6.929e-08,0.62,0.74,0
0.031738,-0.0035081,0.014115,-0.0010741,0.0039123,-0.00026209,0,0,0.053055,-0.025929,0,-0.0027257,0,0,0,0.01412,-0.0010786,0.0039123,-0.98823,0.0056511,0.013418,6.8709e-08,0.64,0.74,0
0.032796,-0.0036019,0.014082,-0.00097079,0.0039334,-0.00038711,0,0,0.052774,-0.025502,0,-0.0040259,0,0,0,0.014092,-0.00098074,0.0039334,-1.4721,0.0056816,0.013314,6.792e-08,0.66,0.74,0
0.033849,-0.0037192,0.014046,-0.00083534,0.003963,-0.00049246,0,0,0.052429,-0.024952,0,-0.0051215,0,0,0,0.014062,-0.00085162,0.003963,-1.8934,0.0057244,0.013183,6.6957e-08,0.68,0.74,0
0.034894,-0.0038559,0.014008,-0.00067654,0.0039993,-0.00057396,0,0,0.052043,-0.024315,0,-0.0059692,0,0,0,0.01403,-0.00069894,0.0039993,-2.235,0.0057768,0.013031,6.5869e-08,0.7,0.74,0
0.03593,-0.0040073,0.013972,-0.00050415,0.0040403,-0.00062944,0,0,0.051644,-0.023631,0,-0.0065461,0,0,0,0.013999,-0.00053147,0.0040403,-2.4851,0.005836,0.012869,6.4716e-08,0.72,0.74,0
0.036959,-0.0041685,0.013941,-0.0003278,0.0040839,-0.00065878,0,0,0.051255,-0.022941,0,-0.0068513,0,0,0,0.013971,-0.00035815,0.0040839,-2.6379,0.0058989,0.012705,6.3563e-08,0.74,0.74,0
0.037981,-0.0043343,0.013917,-0.00015602,0.0041282,-0.00066375,0,0,0.0509,-0.022278,0,-0.006903,0,0,0,0.013948,-0.00018726,0.0041282,-2.6944,0.0059629,0.012547,6.2473e-08,0.76,0.74,0
0.038995,-0.0045001,0.013901,4.4249e-06,0.0041716,-0.00064746,0,0,0.050593,-0.021669,0,-0.0067336,0,0,0,0.013931,-2.5676e-05,0.0041716,-2.6618,0.0060257,0.012403,6.1497e-08,0.78,0.74,0
0.040004,-0.0046616,0.013894,0.00014885,0.004213,-0.00061382,0,0,0.050343,-0.021133,0,-0.0063837,0,0,0,0.013922,0.0001215,0.004213,-2.5518,0.0060854,0.012277,6.0675e-08,0.8,0.74,0
0.041009,-0.0048154,0.013896,0.00027458,0.0042513,-0.00056696,0,0,0.050155,-0.020679,0,-0.0058964,0,0,0,0.01392,0.00025103,0.0042513,-2.3792,0.0061408,0.012172,6.0025e-08,0.82,0.74,0
0.042011,-0.0049583,0.013906,0.0003807,0.004286,-0.00051082,0,0,0.050024,-0.020308,0,-0.0053125,0,0,0,0.013925,0.00036143,0.004286,-2.1598,0.0061909,0.012089,5.955e-08,0.84,0.74,0
0.04301,-0.0050881,0.013921,0.00046763,0.0043167,-0.00044883,0,0,0.049944,-0.020015,0,-0.0046678,0,0,0,0.013936,0.00045267,0.0043167,-1.9086,0.0062352,0.012027,5.9237e-08,0.86,0.74,0
0.044008,-0.0052031,0.01394,0.00053677,0.0043431,-0.00038376,0,0,0.049905,-0.019793,0,-0.0039911,0,0,0,0.013951,0.00052579,0.0043431,-1.6387,0.0062734,0.011982,5.9061e-08,0.88,0.74,0
0.045006,-0.0053019,0.013961,0.0005901,0.0043653,-0.00031769,0,0,0.049897,-0.019631,0,-0.0033039,0,0,0,0.013968,0.00058255,0.0043653,-1.3603,0.0063054,0.011952,5.8993e-08,0.9,0.74,0
0.046004,-0.0053835,0.013981,0.00062982,0.0043832,-0.00025196,0,0,0.049908,-0.019518,0,-0.0026204,0,0,0,0.013986,0.00062506,0.0043832,-1.0808,0.0063313,0.011934,5.8998e-08,0.92,0.74,0
0.047003,-0.0054475,0.013999,0.00065809,0.004397,-0.00018731,0,0,0.049929,-0.019443,0,-0.001948,0,0,0,0.014001,0.00065546,0.004397,-0.80426,0.0063513,0.011924,5.9042e-08,0.94,0.74,0
0.048001,-0.0054935,0.014013,0.0006768,0.0044068,-0.00012395,0,0,0.04995,-0.019396,0,-0.001289,0,0,0,0.014014,0.00067565,0.0044068,-0.53247,0.0063654,0.011919,5.9096e-08,0.96,0.74,0
0.049001,-0.0055211,0.014021,0.00068741,0.0044126,-6.1668e-05,0,0,0.049965,-0.019371,0,-0.00064135,0,0,0,0.014022,0.00068713,0.0044126,-0.26498,0.0063738,0.011917,5.9138e-08,0.98,0.74,0
0.05,-0.0055304,0.014024,0.00069084,0.0044145,-4.4352e-05,0,0,0.049971,-0.019363,0,-0.00046126,0,0,0,0.014025,0.0006907,0.0044145,-0.19059,0.0063766,0.011917,5.9157e-08,1,0.74,0
0,0,0.01383,0.005927,0.005927,-0.0023697,0,0,0.041094,2.1684e-19,0,-0.024645,0,0,0,0.014486,0.0052709,0.005927,-15.476,0.0085612,0.008905,3.5605e-08,0,0.76,0
0.00082188,-0.00049291,0.013796,0.0054987,0.0057883,-0.0023544,0,0,0.041638,-0.0015058,0,-0.024486,0,0,0,0.014417,0.0048772,0.0057883,-14.788,0.0083609,0.0091187,3.7634e-08,0.02,0.76,0
0.0016655,-0.00097339,0.013936,0.0051183,0.0057162,-0.0022938,0,0,0.042741,-0.0031089,0,-0.023855,0,0,0,0.014497,0.0045573,0.0057162,-13.744,0.0082567,0.0094136,4.0663e-08,0.04,0.76,0
0.0025315,-0.0014377,0.014072,0.0047231,0.0056384,-0.0022073,0,0,0.043853,-0.0047596,0,-0.022956,0,0,0,0.014567,0.0042281,0.0056384,-12.639,0.0081444,0.0097104,4.37e-08,0.06,0.76,0
0.0034196,-0.0018818,0.014198,0.0043251,0.0055568,-0.0020945,0,0,0.044932,-0.006405,0,-0.021782,0,0,0,0.014623,0.0038991,0.0055568,-11.496,0.0080264,0.0099992,4.6625e-08,0.08,0.76,0
0.0043288,-0.0023014,0.014308,0.0039354,0.0054731,-0.0019569,0,0,0.045942,-0.0079957,0,-0.020352,0,0,0,0.014665,0.0035785,0.0054731,-10.336,0.0079056,0.010271,4.933e-08,0.1,0.76,0
0.0052573,-0.0026928,0.014399,0.0035635,0.0053889,-0.0017982,0,0,0.046855,-0.0094919,0,-0.018701,0,0,0,0.01469,0.0032729,0.0053889,-9.1805,0.0077839,0.01052,5.1735e-08,0.12,0.76,0
0.006203,-0.0030526,0.014469,0.0032158,0.0053054,-0.0016229,0,0,0.04765,-0.010866,0,-0.016879,0,0,0,0.014698,0.0029864,0.0053054,-8.045,0.0076633,0.010742,5.3791e-08,0.14,0.76,0
0.0071633,-0.0033782,0.014516,0.002896,0.0052235,-0.0014361,0,0,0.048319,-0.012103,0,-0.014935,0,0,0,0.01469,0.0027212,0.0052235,-6.9421,0.007545,0.010935,5.5483e-08,0.16,0.76,0
0.0081357,-0.0036678,0.01454,0.0026053,0.0051437,-0.0012424,0,0,0.048863,-0.0132,0,-0.012921,0,0,0,0.014668,0.0024773,0.0051437,-5.8802,0.0074298,0.011101,5.6824e-08,0.18,0.76,0
0.0091178,-0.00392,0.014545,0.0023425,0.0050663,-0.001046,0,0,0.049291,-0.014164,0,-0.010878,0,0,0,0.014634,0.0022535,0.0050663,-4.864,0.0073181,0.011241,5.785e-08,0.2,0.76,0
0.010107,-0.0041345,0.014533,0.0021051,0.0049914,-0.00085029,0,0,0.049616,-0.015009,0,-0.008843,0,0,0,0.014591,0.0020472,0.0049914,-3.8959,0.0072098,0.011361,5.8612e-08,0.22,0.76,0
0.011102,-0.0043114,0.014506,0.0018894,0.0049188,-0.00065792,0,0,0.049856,-0.015752,0,-0.0068424,0,0,0,0.014541,0.0018552,0.0049188,-2.9769,0.0071049,0.011465,5.9168e-08,0.24,0.76,0
0.012102,-0.0044511,0.014469,0.001691,0.0048481,-0.000471,0,0,0.050031,-0.016417,0,-0.0048984,0,0,0,0.014487,0.0016737,0.0048481,-2.1081,0.0070028,0.011558,5.9585e-08,0.26,0.76,0
0.013104,-0.0045549,0.014425,0.0015053,0.0047792,-0.00029133,0,0,0.05016,-0.017024,0,-0.0030298,0,0,0,0.014432,0.0014987,0.0047792,-1.2911,0.0069032,0.011645,5.9925e-08,0.28,0.76,0
0.014108,-0.0046242,0.014378,0.0013274,0.0047115,-0.00012057,0,0,0.050264,-0.017598,0,-0.0012539,0,0,0,0.014379,0.0013262,0.0047115,-0.52929,0.0068055,0.011732,6.0248e-08,0.3,0.76,0
0.015114,-0.0046611,0.01433,0.0011528,0.0046448,3.9497e-05,0,0,0.050362,-0.018158,0,0.00041077,0,0,0,0.01433,0.0011527,0.0046448,0.17174,0.0067092,0.011824,6.0609e-08,0.32,0.76,0
0.016123,-0.004668,0.014285,0.00097776,0.0045787,0.00018684,0,0,0.050471,-0.018725,0,0.0019432,0,0,0,0.014287,0.00097514,0.0045787,0.80429,0.0066137,0.011926,6.1051e-08,0.34,0.76,0
0.017133,-0.0046478,0.014245,0.00079889,0.0045131,0.00031909,0,0,0.050605,-0.019314,0,0.0033186,0,0,0,0.014252,0.00079132,0.0045131,1.3587,0.0065189,0.01204,6.1603e-08,0.36,0.76,0
0.018147,-0.0046041,0.014212,0.00061412,0.0044479,0.00043351,0,0,0.050775,-0.019936,0,0.0045085,0,0,0,0.014226,0.00060032,0.0044479,1.8241,0.0064248,0.012167,6.2282e-08,0.38,0.76,0
0.019164,-0.0045406,0.014188,0.0004227,0.0043834,0.0005271,0,0,0.050987,-0.020595,0,0.0054819,0,0,0,0.014209,0.00040255,0.0043834,2.1896,0.0063315,0.012308,6.3085e-08,0.4,0.76,0
0.020186,-0.004462,0.014174,0.00022547,0.0043198,0.00059682,0,0,0.051241,-0.02129,0,0.0062069,0,0,0,0.014199,0.00019998,0.0043198,2.4456,0.0062397,0.012461,6.3995e-08,0.42,0.76,0
0.021214,-0.0043733,0.014168,2.5034e-05,0.0042579,0.00063987,0,0,0.051532,-0.022011,0,0.0066547,0,0,0,0.014197,-3.8571e-06,0.0042579,2.5852,0.0061503,0.012621,6.4974e-08,0.44,0.76,0
0.022247,-0.0042798,0.014169,-0.0001743,0.0041986,0.00065411,0,0,0.051849,-0.022739,0,0.0068027,0,0,0,0.014199,-0.00020406,0.0041986,2.6056,0.0060646,0.012784,6.5977e-08,0.46,0.76,0
0.023288,-0.004187,0.014177,-0.00036672,0.004143,0.00063845,0,0,0.052175,-0.02345,0,0.0066398,0,0,0,0.014205,-0.0003947,0.004143,2.5088,0.0059843,0.012942,6.6947e-08,0.48,0.76,0
0.024334,-0.0041005,0.014187,-0.00054547,0.0040924,0.00059318,0,0,0.052491,-0.024117,0,0.0061691,0,0,0,0.014211,-0.00056931,0.0040924,2.302,0.0059112,0.013087,6.7829e-08,0.5,0.76,0
0.025387,-0.0040256,0.014197,-0.00070346,0.0040481,0.00052021,0,0,0.052775,-0.024708,0,0.0054102,0,0,0,0.014215,-0.0007216,0.0040481,1.9971,0.0058473,0.013214,6.8571e-08,0.52,0.76,0
0.026445,-0.003967,0.014205,-0.00083405,0.0040113,0.00042298,0,0,0.053007,-0.025196,0,0.004399,0,0,0,0.014217,-0.00084594,0.0040113,1.6098,0.005794,0.013316,6.9132e-08,0.54,0.76,0
0.027508,-0.0039287,0.014208,-0.00093174,0.0039828,0.00030629,0,0,0.05317,-0.025556,0,0.0031854,0,0,0,0.014214,-0.00093793,0.0039828,1.1585,0.005753,0.013388,6.9482e-08,0.56,0.76,0
0.028572,-0.0039138,0.014204,-0.00099256,0.0039634,0.00017599,0,0,0.053251,-0.025771,0,0.0018303,0,0,0,0.014206,-0.0009946,0.0039634,0.66343,0.0057249,0.013427,6.9604e-08,0.58,0.76,0
0.029638,-0.0039242,0.014192,-0.0010145,0.0039533,3.8557e-05,0,0,0.053243,-0.025833,0,0.00040099,0,0,0,0.014192,-0.0010146,0.0039533,0.14527,0.0057104,0.013431,6.9492e-08,0.6,0.76,0
0.030702,-0.0039606,0.014173,-0.0009974,0.0039526,-9.9298e-05,0,0,0.053144,-0.02574,0,-0.0010327,0,0,0,0.014173,-0.00099805,0.0039526,-0.37502,0.0057092,0.0134,6.9148e-08,0.62,0.76,0
0.031763,-0.0040225,0.014145,-0.00094334,0.0039606,-0.00023099,0,0,0.05296,-0.0255,0,-0.0024023,0,0,0,0.014149,-0.00094688,0.0039606,-0.87688,0.0057208,0.013337,6.8586e-08,0.64,0.76,0
0.03282,-0.0041083,0.014112,-0.00085628,0.0039766,-0.00035051,0,0,0.052702,-0.025131,0,-0.0036453,0,0,0,0.01412,-0.00086448,0.0039766,-1.3407,0.005744,0.013245,6.7829e-08,0.66,0.76,0
0.033871,-0.0042153,0.014073,-0.00074194,0.0039995,-0.00045279,0,0,0.052385,-0.024655,0,-0.004709,0,0,0,0.014087,-0.00075577,0.0039995,-1.7489,0.005777,0.013128,6.6911e-08,0.68,0.76,0
0.034916,-0.0043402,0.014034,-0.00060742,0.0040278,-0.00053414,0,0,0.052029,-0.024103,0,-0.005555,0,0,0,0.014053,-0.00062688,0.0040278,-2.0866,0.005818,0.012994,6.5875e-08,0.7,0.76,0
0.035953,-0.0044789,0.013994,-0.00046047,0.0040601,-0.00059245,0,0,0.051657,-0.023507,0,-0.0061614,0,0,0,0.014018,-0.00048471,0.0040601,-2.3431,0.0058646,0.012848,6.4773e-08,0.72,0.76,0
0.036982,-0.0046271,0.013958,-0.00030882,0.0040947,-0.00062728,0,0,0.051288,-0.022898,0,-0.0065237,0,0,0,0.013985,-0.00033634,0.0040947,-2.5127,0.0059146,0.0127,6.3659e-08,0.74,0.76,0
0.038004,-0.0047804,0.013927,-0.00015945,0.0041302,-0.0006397,0,0,0.050943,-0.022306,0,-0.0066528,0,0,0,0.013956,-0.00018844,0.0041302,-2.5948,0.0059659,0.012555,6.2586e-08,0.76,0.76,0
0.03902,-0.0049345,0.013903,-1.8091e-05,0.0041654,-0.00063191,0,0,0.050634,-0.021754,0,-0.0065719,0,0,0,0.013931,-4.6717e-05,0.0041654,-2.5938,0.0060167,0.01242,6.16e-08,0.78,0.76,0
0.04003,-0.0050857,0.013886,0.00011105,0.0041991,-0.00060692,0,0,0.050372,-0.021258,0,-0.006312,0,0,0,0.013913,8.436e-05,0.0041991,-2.5179,0.0060654,0.012299,6.0734e-08,0.8,0.76,0
0.041035,-0.0052305,0.013877,0.00022532,0.0042306,-0.00056803,0,0,0.05016,-0.020828,0,-0.0059075,0,0,0,0.0139,0.00020172,0.0042306,-2.3786,0.0061109,0.012194,6.0009e-08,0.82,0.76,0
0.042036,-0.0053661,0.013874,0.00032347,0.0042594,-0.00051855,0,0,0.049998,-0.020467,0,-0.0053929,0,0,0,0.013894,0.00030366,0.0042594,-2.1882,0.0061524,0.012107,5.9432e-08,0.84,0.76,0
0.043035,-0.00549,0.013878,0.00040542,0.0042849,-0.00046148,0,0,0.049882,-0.020173,0,-0.0047994,0,0,0,0.013893,0.00038963,0.0042849,-1.9595,0.0061893,0.012039,5.8999e-08,0.86,0.76,0
0.044031,-0.0056004,0.013885,0.00047194,0.0043071,-0.00039939,0,0,0.049806,-0.019943,0,-0.0041537,0,0,0,0.013897,0.00046006,0.0043071,-1.7041,0.0062214,0.011986,5.8694e-08,0.88,0.76,0
0.045027,-0.0056957,0.013895,0.00052434,0.0043258,-0.00033433,0,0,0.04976,-0.019768,0,-0.003477,0,0,0,0.013903,0.00051598,0.0043258,-1.4314,0.0062484,0.011947,5.8496e-08,0.9,0.76,0
0.046022,-0.005775,0.013906,0.00056421,0.004341,-0.00026776,0,0,0.049737,-0.019639,0,-0.0027847,0,0,0,0.013911,0.00055884,0.004341,-1.1493,0.0062704,0.01192,5.838e-08,0.92,0.76,0
0.047016,-0.0058373,0.013916,0.00059319,0.0043528,-0.00020067,0,0,0.049729,-0.01955,0,-0.0020869,0,0,0,0.013919,0.00059017,0.0043528,-0.86272,0.0062873,0.011902,5.8321e-08,0.94,0.76,0
0.048011,-0.0058822,0.013924,0.00061272,0.0043611,-0.00013359,0,0,0.049728,-0.019491,0,-0.0013893,0,0,0,0.013926,0.00061138,0.0043611,-0.57491,0.0062993,0.011891,5.8296e-08,0.96,0.76,0
0.049005,-0.0059092,0.01393,0.00062395,0.0043661,-6.6713e-05,0,0,0.04973,-0.019459,0,-0.00069381,0,0,0,0.01393,0.00062361,0.0043661,-0.28726,0.0063065,0.011886,5.8289e-08,0.98,0.76,0
0.05,-0.0059182,0.013931,0.00062761,0.0043677,-4.3449e-05,0,0,0.049731,-0.019449,0,-0.00045187,0,0,0,0.013932,0.00062747,0.0043677,-0.18712,0.0063089,0.011884,5.8291e-08,1,0.76,0
0,0,0.013789,0.0059098,0.0059098,-0.0025189,0,0,0.040974,4.3368e-19,0,-0.026196,0,0,0,0.014526,0.0051734,0.0059098,-16.296,0.0085363,0.0090069,3.6682e-08,0,0.78,0
0.00081949,-0.00052393,0.013753,0.0054525,0.0057618,-0.002502,0,0,0.041557,-0.0016084,0,-0.026021,0,0,0,0.014449,0.0047566,0.0057618,-15.541,0.0083225,0.0092312,3.879e-08,0.02,0.78,0
0.0016623,-0.0010375,0.013902,0.0050429,0.0056836,-0.0024404,0,0,0.042738,-0.0033317,0,-0.02538,0,0,0,0.01453,0.0044151,0.0056836,-14.425,0.0082096,0.0095442,4.2005e-08,0.04,0.78,0
0.002529,-0.001536,0.014046,0.0046165,0.0055989,-0.0023459,0,0,0.043927,-0.0051081,0,-0.024397,0,0,0,0.014598,0.0040652,0.0055989,-13.226,0.0080873,0.0098556,4.5179e-08,0.06,0.78,0
0.0034193,-0.002014,0.014178,0.0041887,0.0055101,-0.0022182,0,0,0.045075,-0.0068714,0,-0.023069,0,0,0,0.014649,0.0037183,0.0055101,-11.973,0.007959,0.010154,4.8171e-08,0.08,0.78,0
0.004332,-0.0024663,0.014292,0.0037733,0.0054196,-0.0020605,0,0,0.046137,-0.0085609,0,-0.021429,0,0,0,0.014681,0.0033841,0.0054196,-10.697,0.0078283,0.010429,5.0865e-08,0.1,0.78,0
0.0052648,-0.0028884,0.014383,0.0033813,0.0053294,-0.0018782,0,0,0.047081,-0.01013,0,-0.019534,0,0,0,0.014695,0.0030695,0.0053294,-9.4258,0.007698,0.010677,5.3189e-08,0.12,0.78,0
0.0062152,-0.0032761,0.01445,0.0030198,0.0052409,-0.0016783,0,0,0.047887,-0.01155,0,-0.017454,0,0,0,0.014691,0.0027785,0.0052409,-8.1828,0.0075702,0.010892,5.5109e-08,0.14,0.78,0
0.0071803,-0.0036268,0.014492,0.0026922,0.0051552,-0.0014675,0,0,0.04855,-0.012807,0,-0.015262,0,0,0,0.014672,0.0025124,0.0051552,-6.9842,0.0074464,0.011077,5.6632e-08,0.16,0.78,0
0.0081572,-0.0039383,0.014511,0.0023987,0.0050728,-0.0012521,0,0,0.049077,-0.013905,0,-0.013021,0,0,0,0.014639,0.0022706,0.0050728,-5.8406,0.0073274,0.011232,5.7795e-08,0.18,0.78,0
0.0091434,-0.0042098,0.014509,0.0021373,0.004994,-0.001037,0,0,0.04948,-0.014855,0,-0.010784,0,0,0,0.014596,0.002051,0.004994,-4.7579,0.0072136,0.011363,5.8652e-08,0.2,0.78,0
0.010136,-0.0044411,0.014492,0.0019042,0.0049188,-0.00082609,0,0,0.04978,-0.015676,0,-0.0085913,0,0,0,0.014546,0.0018502,0.0049188,-3.7388,0.007105,0.011473,5.9267e-08,0.22,0.78,0
0.011135,-0.0046326,0.014462,0.0016951,0.004847,-0.00062231,0,0,0.049996,-0.01639,0,-0.006472,0,0,0,0.014492,0.0016649,0.004847,-2.7841,0.0070013,0.011569,5.9707e-08,0.24,0.78,0
0.012136,-0.0047854,0.014423,0.001505,0.0047784,-0.00042772,0,0,0.050151,-0.017021,0,-0.0044483,0,0,0,0.014437,0.0014909,0.0047784,-1.8943,0.0069021,0.011655,6.0038e-08,0.26,0.78,0
0.013141,-0.0049011,0.014379,0.001329,0.0047124,-0.00024395,0,0,0.050267,-0.017594,0,-0.002537,0,0,0,0.014384,0.0013245,0.0047124,-1.0705,0.0068068,0.011738,6.0322e-08,0.28,0.78,0
0.014147,-0.0049816,0.014334,0.0011624,0.0046488,-7.2426e-05,0,0,0.050362,-0.01813,0,-0.00075323,0,0,0,0.014334,0.001162,0.0046488,-0.31504,0.006715,0.011821,6.0612e-08,0.3,0.78,0
0.015155,-0.0050293,0.01429,0.0010007,0.0045872,8.5386e-05,0,0,0.050454,-0.01865,0,0.00088801,0,0,0,0.01429,0.0010002,0.0045872,0.36812,0.006626,0.011909,6.0952e-08,0.32,0.78,0
0.016165,-0.0050472,0.01425,0.00084043,0.0045272,0.00022787,0,0,0.050559,-0.019171,0,0.0023698,0,0,0,0.014254,0.00083656,0.0045272,0.97323,0.0065392,0.012005,6.1377e-08,0.34,0.78,0
0.017177,-0.0050383,0.014216,0.00067863,0.0044685,0.00035314,0,0,0.050689,-0.019707,0,0.0036726,0,0,0,0.014226,0.00066943,0.0044685,1.4932,0.0064545,0.012112,6.1907e-08,0.36,0.78,0
0.018193,-0.0050063,0.01419,0.00051352,0.0044112,0.0004591,0,0,0.050852,-0.020268,0,0.0047746,0,0,0,0.014206,0.00049813,0.0044112,1.9204,0.0063717,0.01223,6.255e-08,0.38,0.78,0
0.019211,-0.0049554,0.014173,0.0003445,0.0043552,0.00054348,0,0,0.051052,-0.020856,0,0.0056521,0,0,0,0.014194,0.00032317,0.0043552,2.2472,0.0062909,0.012359,6.33e-08,0.4,0.78,0
0.020235,-0.0048899,0.014164,0.00017233,0.0043009,0.00060406,0,0,0.051288,-0.021468,0,0.0062822,0,0,0,0.01419,0.0001463,0.0043009,2.4675,0.0062124,0.012495,6.4137e-08,0.42,0.78,0
0.021263,-0.0048147,0.014163,-8.0927e-07,0.0042486,0.00063892,0,0,0.051554,-0.022097,0,0.0066448,0,0,0,0.014191,-2.9573e-05,0.0042486,2.5776,0.0061369,0.012637,6.5028e-08,0.44,0.78,0
0.022297,-0.0047347,0.014168,-0.0001714,0.004199,0.00064672,0,0,0.051839,-0.022726,0,0.0067258,0,0,0,0.014197,-0.0002005,0.004199,2.5771,0.0060653,0.012779,6.5932e-08,0.46,0.78,0
0.023337,-0.0046551,0.014178,-0.00033481,0.004153,0.000627,0,0,0.052131,-0.023337,0,0.0065208,0,0,0,0.014205,-0.00036185,0.004153,2.4692,0.0059988,0.012916,6.6802e-08,0.48,0.78,0
0.024382,-0.0045809,0.01419,-0.00048569,0.0041114,0.00058045,0,0,0.05241,-0.023905,0,0.0060366,0,0,0,0.014213,-0.00050861,0.0041114,2.2614,0.0059386,0.013041,6.759e-08,0.5,0.78,0
0.025433,-0.0045168,0.014202,-0.00061848,0.0040751,0.00050901,0,0,0.05266,-0.024406,0,0.0052937,0,0,0,0.014219,-0.00063594,0.0040751,1.9647,0.0058862,0.013149,6.8252e-08,0.52,0.78,0
0.026489,-0.0044672,0.014211,-0.00072794,0.0040449,0.0004159,0,0,0.052863,-0.024819,0,0.0043253,0,0,0,0.014222,-0.00073951,0.0040449,1.5935,0.0058426,0.013235,6.8752e-08,0.54,0.78,0
0.027548,-0.0044355,0.014215,-0.00080967,0.0040215,0.00030542,0,0,0.053005,-0.025122,0,0.0031764,0,0,0,0.014221,-0.00081587,0.0040215,1.1641,0.0058088,0.013295,6.9061e-08,0.56,0.78,0
0.028609,-0.0044246,0.014212,-0.00086049,0.0040054,0.00018277,0,0,0.053073,-0.025303,0,0.0019008,0,0,0,0.014214,-0.00086271,0.0040054,0.69466,0.0057856,0.013327,6.9164e-08,0.58,0.78,0
0.02967,-0.0044361,0.014201,-0.00087877,0.0039967,5.3688e-05,0,0,0.053063,-0.025353,0,0.00055836,0,0,0,0.014201,-0.00087896,0.0039967,0.20398,0.0057731,0.013329,6.9052e-08,0.6,0.78,0
0.030731,-0.0044707,0.014183,-0.00086447,0.0039954,-7.5887e-05,0,0,0.052973,-0.025271,0,-0.00078922,0,0,0,0.014183,-0.00086485,0.0039954,-0.28895,0.0057712,0.013301,6.8728e-08,0.62,0.78,0
0.031789,-0.0045281,0.014156,-0.00081928,0.0040011,-0.00020015,0,0,0.052807,-0.025066,0,-0.0020816,0,0,0,0.014159,-0.00082195,0.0040011,-0.76559,0.0057793,0.013245,6.8204e-08,0.64,0.78,0
0.032843,-0.0046071,0.014123,-0.00074644,0.0040131,-0.00031381,0,0,0.052574,-0.02475,0,-0.0032636,0,0,0,0.01413,-0.00075306,0.0040131,-1.2084,0.0057967,0.013164,6.75e-08,0.66,0.78,0
0.033892,-0.0047054,0.014086,-0.00065061,0.0040306,-0.0004124,0,0,0.052287,-0.024342,0,-0.0042889,0,0,0,0.014097,-0.00066214,0.0040306,-1.6018,0.0058219,0.013062,6.6647e-08,0.68,0.78,0
0.034935,-0.00482,0.014046,-0.00053744,0.0040524,-0.00049259,0,0,0.051964,-0.023867,0,-0.005123,0,0,0,0.014062,-0.00055406,0.0040524,-1.9325,0.0058535,0.012943,6.5683e-08,0.7,0.78,0
0.035971,-0.0049476,0.014005,-0.00041314,0.0040775,-0.00055236,0,0,0.051622,-0.023351,0,-0.0057446,0,0,0,0.014026,-0.00043427,0.0040775,-2.1908,0.0058897,0.012814,6.4651e-08,0.72,0.78,0
0.037,-0.0050844,0.013966,-0.00028389,0.0041046,-0.00059101,0,0,0.051278,-0.02282,0,-0.0061465,0,0,0,0.01399,-0.00030836,0.0041046,-2.371,0.0059288,0.012682,6.3597e-08,0.74,0.78,0
0.038022,-0.0052266,0.013931,-0.00015541,0.0041325,-0.00060908,0,0,0.050949,-0.022297,0,-0.0063345,0,0,0,0.013957,-0.00018169,0.0041325,-2.4714,0.0059692,0.01255,6.2567e-08,0.76,0.78,0
0.039038,-0.0053703,0.0139,-3.2481e-05,0.0041604,-0.00060813,0,0,0.050648,-0.021803,0,-0.0063245,0,0,0,0.013927,-5.8974e-05,0.0041604,-2.4945,0.0060094,0.012426,6.1598e-08,0.78,0.78,0
0.040048,-0.005512,0.013876,8.1198e-05,0.0041873,-0.0005904,0,0,0.050383,-0.021352,0,-0.0061401,0,0,0,0.013902,5.5977e-05,0.0041873,-2.4461,0.0060483,0.012311,6.0723e-08,0.8,0.78,0
0.041053,-0.0056485,0.013859,0.00018314,0.0042126,-0.00055852,0,0,0.05016,-0.020953,0,-0.0058086,0,0,0,0.013881,0.00016037,0.0042126,-2.3348,0.0060848,0.01221,5.9963e-08,0.82,0.78,0
0.042054,-0.005777,0.013847,0.00027198,0.0042357,-0.00051524,0,0,0.049979,-0.020612,0,-0.0053585,0,0,0,0.013867,0.00025245,0.0042357,-2.1705,0.0061183,0.012124,5.9326e-08,0.84,0.78,0
0.043052,-0.0058951,0.013841,0.00034728,0.0042565,-0.00046318,0,0,0.049839,-0.020328,0,-0.004817,0,0,0,0.013857,0.0003314,0.0042565,-1.9636,0.0061482,0.012052,5.8814e-08,0.86,0.78,0
0.044048,-0.0060008,0.013839,0.00040938,0.0042745,-0.00040465,0,0,0.049735,-0.020099,0,-0.0042084,0,0,0,0.013851,0.0003972,0.0042745,-1.7243,0.0061743,0.011995,5.8419e-08,0.88,0.78,0
0.045042,-0.0060926,0.01384,0.0004591,0.0042898,-0.00034162,0,0,0.049662,-0.01992,0,-0.0035528,0,0,0,0.013849,0.00045038,0.0042898,-1.4615,0.0061963,0.011951,5.8127e-08,0.9,0.78,0
0.046034,-0.0061691,0.013843,0.00049754,0.0043022,-0.00027562,0,0,0.049613,-0.019785,0,-0.0028665,0,0,0,0.013849,0.00049185,0.0043022,-1.1826,0.0062144,0.011918,5.7922e-08,0.92,0.78,0
0.047026,-0.0062295,0.013847,0.00052589,0.0043119,-0.0002078,0,0,0.049583,-0.019687,0,-0.0021612,0,0,0,0.01385,0.00052265,0.0043119,-0.8935,0.0062283,0.011895,5.7786e-08,0.94,0.78,0
0.048018,-0.0062731,0.013851,0.00054524,0.0043187,-0.00013895,0,0,0.049565,-0.019622,0,-0.0014451,0,0,0,0.013852,0.00054379,0.0043187,-0.59829,0.0062382,0.011879,5.7701e-08,0.96,0.78,0
0.049009,-0.0062995,0.013853,0.00055648,0.0043228,-6.9583e-05,0,0,0.049557,-0.019585,0,-0.00072367,0,0,0,0.013853,0.00055612,0.0043228,-0.29983,0.0062441,0.011871,5.7656e-08,0.98,0.78,0
0.05,-0.0063083,0.013854,0.00056016,0.0043242,-4.2344e-05,0,0,0.049554,-0.019573,0,-0.00044038,0,0,0,0.013854,0.00056003,0.0043242,-0.1825,0.0062461,0.011868,5.7645e-08,1,0.78,0
0,0,0.013774,0.0059032,0.0059032,-0.0026791,0,0,0.040929,3.2526e-19,0,-0.027862,0,0,0,0.014599,0.0050779,0.0059032,-17.122,0.0085269,0.0091369,3.8101e-08,0,0.8,0
0.00081858,-0.00055725,0.013735,0.0054092,0.0057434,-0.0026603,0,0,0.041559,-0.0017378,0,-0.027667,0,0,0,0.014513,0.0046318,0.0057434,-16.289,0.0082961,0.0093748,4.0318e-08,0.02,0.8,0
0.0016624,-0.0011067,0.013895,0.004962,0.0056572,-0.0025974,0,0,0.042838,-0.0036147,0,-0.027013,0,0,0,0.014596,0.0042617,0.0056572,-15.089,0.0081715,0.0097116,4.3786e-08,0.04,0.8,0
0.0025321,-0.001642,0.014048,0.004496,0.0055633,-0.0024925,0,0,0.044122,-0.0055499,0,-0.025923,0,0,0,0.01466,0.0038848,0.0055633,-13.779,0.0080359,0.010041,4.7139e-08,0.06,0.8,0
0.0034272,-0.0021566,0.014186,0.0040313,0.0054652,-0.0023463,0,0,0.045349,-0.0074563,0,-0.024402,0,0,0,0.014702,0.0035154,0.0054652,-12.401,0.0078942,0.01035,5.0205e-08,0.08,0.8,0
0.004346,-0.0026438,0.014301,0.0035857,0.0053661,-0.002164,0,0,0.046463,-0.0092581,0,-0.022506,0,0,0,0.014722,0.0031652,0.0053661,-10.997,0.0077511,0.010629,5.2863e-08,0.1,0.8,0
0.0052858,-0.003098,0.01439,0.0031721,0.0052685,-0.0019543,0,0,0.04743,-0.010901,0,-0.020325,0,0,0,0.01472,0.0028413,0.0052685,-9.605,0.0076101,0.010871,5.5049e-08,0.12,0.8,0
0.0062432,-0.0035146,0.014449,0.0027976,0.0051741,-0.0017267,0,0,0.048231,-0.012358,0,-0.017957,0,0,0,0.0147,0.0025471,0.0051741,-8.2544,0.0074737,0.011075,5.6762e-08,0.14,0.8,0
0.007215,-0.0038905,0.014482,0.0024647,0.0050839,-0.0014903,0,0,0.048868,-0.01362,0,-0.015499,0,0,0,0.014664,0.0022827,0.0050839,-6.9649,0.0073434,0.011245,5.8039e-08,0.16,0.8,0
0.008198,-0.004224,0.01449,0.002172,0.0049986,-0.0012527,0,0,0.049355,-0.014698,0,-0.013028,0,0,0,0.014616,0.0020459,0.0049986,-5.7484,0.0072202,0.011385,5.8947e-08,0.18,0.8,0
0.0091892,-0.0045142,0.014479,0.0019159,0.0049183,-0.0010197,0,0,0.049713,-0.015613,0,-0.010605,0,0,0,0.014561,0.0018337,0.0049183,-4.6105,0.0071042,0.011499,5.9564e-08,0.2,0.8,0
0.010186,-0.0047616,0.014452,0.0016913,0.004843,-0.00079539,0,0,0.049967,-0.016389,0,-0.008272,0,0,0,0.014501,0.0016419,0.004843,-3.553,0.0069954,0.011595,5.9969e-08,0.22,0.8,0
0.011188,-0.004967,0.014415,0.0014927,0.0047723,-0.00058241,0,0,0.050142,-0.017054,0,-0.0060571,0,0,0,0.014441,0.0014665,0.0047723,-2.5754,0.0068933,0.011678,6.0238e-08,0.24,0.8,0
0.012192,-0.005132,0.014372,0.0013146,0.0047059,-0.00038257,0,0,0.050262,-0.017635,0,-0.0039787,0,0,0,0.014383,0.0013034,0.0047059,-1.6768,0.0067974,0.011754,6.0436e-08,0.26,0.8,0
0.013198,-0.0052586,0.014326,0.0011517,0.0046433,-0.00019706,0,0,0.05035,-0.018156,0,-0.0020494,0,0,0,0.014329,0.0011488,0.0046433,-0.85677,0.006707,0.011827,6.062e-08,0.28,0.8,0
0.014206,-0.0053494,0.014281,0.00099929,0.0045842,-2.6887e-05,0,0,0.050425,-0.018641,0,-0.00027963,0,0,0,0.014281,0.00099924,0.0045842,-0.11599,0.0066216,0.011902,6.0837e-08,0.3,0.8,0
0.015215,-0.0054071,0.01424,0.0008531,0.0045279,0.00012697,0,0,0.050502,-0.019109,0,0.0013205,0,0,0,0.014241,0.0008519,0.0045279,0.54337,0.0065403,0.011982,6.1121e-08,0.32,0.8,0
0.016226,-0.0054349,0.014204,0.00070972,0.0044741,0.00026339,0,0,0.050595,-0.019575,0,0.0027392,0,0,0,0.014209,0.00070458,0.0044741,1.1178,0.0064626,0.01207,6.1498e-08,0.34,0.8,0
0.017239,-0.0054361,0.014175,0.00056655,0.0044225,0.00038105,0,0,0.050714,-0.020051,0,0.0039629,0,0,0,0.014186,0.00055588,0.0044225,1.6026,0.0063881,0.012167,6.198e-08,0.36,0.8,0
0.018255,-0.0054148,0.014155,0.00042199,0.0043729,0.00047845,0,0,0.050864,-0.020545,0,0.0049759,0,0,0,0.014171,0.00040534,0.0043729,1.993,0.0063165,0.012273,6.2567e-08,0.38,0.8,0
0.019274,-0.0053748,0.014142,0.00027552,0.0043253,0.00055401,0,0,0.051048,-0.021059,0,0.0057617,0,0,0,0.014164,0.00025342,0.0043253,2.2843,0.0062477,0.012387,6.3251e-08,0.4,0.8,0
0.020297,-0.0053208,0.014138,0.00012776,0.0042797,0.00060622,0,0,0.051263,-0.02159,0,0.0063047,0,0,0,0.014164,0.00010158,0.0042797,2.473,0.0061819,0.012508,6.401e-08,0.42,0.8,0
0.021324,-0.0052572,0.014141,-1.9508e-05,0.0042365,0.00063384,0,0,0.051504,-0.022131,0,0.006592,0,0,0,0.014169,-4.7822e-05,0.0042365,2.5578,0.0061193,0.012632,6.4813e-08,0.44,0.8,0
0.022357,-0.0051888,0.01415,-0.00016348,0.0041959,0.00063618,0,0,0.051761,-0.022669,0,0.0066163,0,0,0,0.014178,-0.0001917,0.0041959,2.5399,0.0060608,0.012755,6.5625e-08,0.46,0.8,0
0.023395,-0.0051205,0.014162,-0.00030047,0.0041586,0.00061327,0,0,0.05202,-0.023187,0,0.006378,0,0,0,0.014188,-0.00032643,0.0041586,2.4237,0.0060068,0.012872,6.6403e-08,0.48,0.8,0
0.024438,-0.0050567,0.014176,-0.00042629,0.0041251,0.00056606,0,0,0.052268,-0.023667,0,0.005887,0,0,0,0.014198,-0.0004482,0.0041251,2.2166,0.0059584,0.012979,6.7107e-08,0.5,0.8,0
0.025485,-0.0050018,0.01419,-0.00053656,0.004096,0.00049653,0,0,0.052488,-0.024089,0,0.005164,0,0,0,0.014207,-0.00055328,0.004096,1.9289,0.0059164,0.013071,6.7699e-08,0.52,0.8,0
0.026537,-0.0049597,0.0142,-0.00062718,0.0040719,0.00040768,0,0,0.052666,-0.024435,0,0.0042399,0,0,0,0.014211,-0.00063838,0.0040719,1.5738,0.0058816,0.013144,6.8146e-08,0.54,0.8,0
0.027592,-0.0049336,0.014205,-0.00069468,0.0040532,0.0003034,0,0,0.052791,-0.024689,0,0.0031553,0,0,0,0.014211,-0.00070085,0.0040532,1.166,0.0058546,0.013194,6.8424e-08,0.56,0.8,0
0.028649,-0.004926,0.014204,-0.00073656,0.0040402,0.00018829,0,0,0.052851,-0.024839,0,0.0019582,0,0,0,0.014206,-0.00073894,0.0040402,0.72192,0.0058358,0.01322,6.8517e-08,0.58,0.8,0
0.029706,-0.0049383,0.014195,-0.00075153,0.004033,6.7415e-05,0,0,0.052841,-0.024879,0,0.00070111,0,0,0,0.014195,-0.00075183,0.004033,0.25842,0.0058254,0.013221,6.8416e-08,0.6,0.8,0
0.030763,-0.0049714,0.014178,-0.00073958,0.0040315,-5.3982e-05,0,0,0.052762,-0.02481,0,-0.00056141,0,0,0,0.014178,-0.00073978,0.0040315,-0.20733,0.0058233,0.013196,6.8123e-08,0.62,0.8,0
0.031816,-0.0050251,0.014154,-0.0007021,0.0040355,-0.00017081,0,0,0.052614,-0.024635,0,-0.0017764,0,0,0,0.014156,-0.00070406,0.0040355,-0.65865,0.005829,0.013147,6.7647e-08,0.64,0.8,0
0.032867,-0.0050983,0.014123,-0.00064169,0.0040443,-0.0002784,0,0,0.052408,-0.024367,0,-0.0028953,0,0,0,0.014128,-0.00064694,0.0040443,-1.0798,0.0058417,0.013076,6.7008e-08,0.66,0.8,0
0.033913,-0.005189,0.014087,-0.00056207,0.0040573,-0.0003728,0,0,0.052152,-0.024021,0,-0.0038771,0,0,0,0.014096,-0.00057156,0.0040573,-1.4569,0.0058606,0.012987,6.6231e-08,0.68,0.8,0
0.034953,-0.0052949,0.014047,-0.00046775,0.0040738,-0.00045099,0,0,0.051861,-0.023616,0,-0.0046903,0,0,0,0.014061,-0.00048175,0.0040738,-1.778,0.0058844,0.012884,6.5348e-08,0.7,0.8,0
0.035987,-0.005413,0.014006,-0.00036365,0.0040928,-0.00051103,0,0,0.05155,-0.023173,0,-0.0053147,0,0,0,0.014025,-0.00038179,0.0040928,-2.0341,0.0059118,0.012771,6.4396e-08,0.72,0.8,0
0.037015,-0.0055399,0.013966,-0.00025472,0.0041134,-0.00055204,0,0,0.051234,-0.022714,0,-0.0057412,0,0,0,0.013987,-0.00027612,0.0041134,-2.2197,0.0059416,0.012653,6.3414e-08,0.74,0.8,0
0.038037,-0.0056723,0.013928,-0.0001456,0.0041348,-0.0005742,0,0,0.050926,-0.022258,0,-0.0059717,0,0,0,0.013952,-0.00016899,0.0041348,-2.3325,0.0059725,0.012536,6.244e-08,0.76,0.8,0
0.039052,-0.0058066,0.013894,-4.0266e-05,0.0041562,-0.00057855,0,0,0.050638,-0.021822,0,-0.0060169,0,0,0,0.013918,-6.4246e-05,0.0041562,-2.3734,0.0060034,0.012422,6.1508e-08,0.78,0.8,0
0.040062,-0.0059398,0.013865,5.8128e-05,0.0041769,-0.00056675,0,0,0.050378,-0.021418,0,-0.0058942,0,0,0,0.013888,3.4902e-05,0.0041769,-2.3467,0.0060333,0.012316,6.0647e-08,0.8,0.8,0
0.041067,-0.0060687,0.013841,0.00014733,0.0041965,-0.0005409,0,0,0.050151,-0.021056,0,-0.0056254,0,0,0,0.013862,0.000126,0.0041965,-2.2585,0.0060616,0.012221,5.9877e-08,0.82,0.8,0
0.042068,-0.0061906,0.013822,0.00022598,0.0042144,-0.00050326,0,0,0.04996,-0.02074,0,-0.0052339,0,0,0,0.013841,0.00020738,0.0042144,-2.1169,0.0060875,0.012137,5.9209e-08,0.84,0.8,0
0.043066,-0.0063031,0.013808,0.00029346,0.0042305,-0.00045607,0,0,0.049805,-0.020473,0,-0.0047431,0,0,0,0.013824,0.00027809,0.0042305,-1.9305,0.0061108,0.012065,5.8649e-08,0.86,0.8,0
0.04406,-0.0064043,0.013799,0.00034982,0.0042446,-0.00040142,0,0,0.049682,-0.020253,0,-0.0041747,0,0,0,0.013811,0.00033784,0.0042446,-1.7081,0.0061311,0.012006,5.8195e-08,0.88,0.8,0
0.045053,-0.0064925,0.013793,0.0003955,0.0042565,-0.00034115,0,0,0.049589,-0.020077,0,-0.003548,0,0,0,0.013802,0.00038682,0.0042565,-1.4577,0.0061483,0.011959,5.7838e-08,0.9,0.8,0
0.046044,-0.0065664,0.01379,0.00043125,0.0042663,-0.00027683,0,0,0.049521,-0.019942,0,-0.002879,0,0,0,0.013795,0.00042552,0.0042663,-1.1867,0.0061624,0.011923,5.7569e-08,0.92,0.8,0
0.047034,-0.0066248,0.013788,0.00045791,0.0042738,-0.00020968,0,0,0.049474,-0.019843,0,-0.0021807,0,0,0,0.013791,0.00045461,0.0042738,-0.90095,0.0061733,0.011896,5.7376e-08,0.94,0.8,0
0.048023,-0.006667,0.013788,0.00047628,0.0042792,-0.00014069,0,0,0.049444,-0.019775,0,-0.0014632,0,0,0,0.013789,0.00047479,0.0042792,-0.60548,0.006181,0.011878,5.7248e-08,0.96,0.8,0
0.049012,-0.0066926,0.013787,0.00048702,0.0042824,-7.0599e-05,0,0,0.049427,-0.019736,0,-0.00073423,0,0,0,0.013788,0.00048664,0.0042824,-0.30411,0.0061856,0.011868,5.7174e-08,0.98,0.8,0
0.05,-0.0067012,0.013788,0.00049055,0.0042834,-4.1131e-05,0,0,0.049421,-0.019723,0,-0.00042776,0,0,0,0.013788,0.00049042,0.0042834,-0.17723,0.0061872,0.011865,5.7153e-08,1,0.8,0
0,0,0.013789,0.0059097,0.0059097,-0.0028531,0,0,0.040974,8.6736e-19,0,-0.029672,0,0,0,0.014714,0.0049851,0.0059097,-17.956,0.0085362,0.009301,3.9951e-08,0,0.82,0
0.00081948,-0.00059344,0.013747,0.0053696,0.0057351,-0.0028318,0,0,0.041664,-0.0019003,0,-0.02945,0,0,0,0.014615,0.0045023,0.0057351,-17.03,0.008284,0.0095558,4.2312e-08,0.02,0.82,0
0.0016665,-0.0011821,0.01392,0.0048737,0.005638,-0.0027666,0,0,0.043064,-0.0039742,0,-0.028772,0,0,0,0.014699,0.0040947,0.005638,-15.727,0.0081438,0.0099227,4.6113e-08,0.04,0.82,0
0.0025421,-0.001758,0.014082,0.004357,0.0055318,-0.0026476,0,0,0.044463,-0.006109,0,-0.027535,0,0,0,0.014757,0.0036829,0.0055318,-14.284,0.0079904,0.010275,4.9683e-08,0.06,0.82,0
0.0034451,-0.0023122,0.014225,0.0038472,0.0054216,-0.002477,0,0,0.045776,-0.0081867,0,-0.025761,0,0,0,0.014786,0.0032863,0.0054216,-12.759,0.0078312,0.010594,5.2808e-08,0.08,0.82,0
0.0043731,-0.0028367,0.014338,0.0033672,0.0053116,-0.0022639,0,0,0.046938,-0.010111,0,-0.023545,0,0,0,0.014787,0.0029184,0.0053116,-11.213,0.0076723,0.010871,5.5361e-08,0.1,0.82,0
0.0053226,-0.0033244,0.014418,0.0029316,0.0052049,-0.0020212,0,0,0.047909,-0.011821,0,-0.02102,0,0,0,0.014763,0.0025863,0.0052049,-9.694,0.0075182,0.011102,5.7313e-08,0.12,0.82,0
0.0062895,-0.0037704,0.014465,0.0025468,0.0051034,-0.0017622,0,0,0.048678,-0.013295,0,-0.018327,0,0,0,0.01472,0.0022917,0.0051034,-8.2371,0.0073716,0.011288,5.8704e-08,0.14,0.82,0
0.0072697,-0.0041716,0.014481,0.002213,0.0050082,-0.0014986,0,0,0.049259,-0.014535,0,-0.015585,0,0,0,0.014661,0.0020326,0.0050082,-6.8644,0.0072341,0.011435,5.9625e-08,0.16,0.82,0
0.0082598,-0.0045263,0.014473,0.0019262,0.0049197,-0.0012392,0,0,0.049676,-0.015566,0,-0.012887,0,0,0,0.014594,0.001805,0.0049197,-5.5869,0.0071062,0.011551,6.018e-08,0.18,0.82,0
0.0092568,-0.0048344,0.014446,0.0016804,0.0048379,-0.00098999,0,0,0.049962,-0.016419,0,-0.010296,0,0,0,0.014522,0.0016041,0.0048379,-4.4083,0.0069881,0.011643,6.0475e-08,0.2,0.82,0
0.010258,-0.0050967,0.014406,0.0014689,0.0047626,-0.00075475,0,0,0.050148,-0.017127,0,-0.0078494,0,0,0,0.01445,0.001425,0.0047626,-3.3275,0.0068793,0.011718,6.0605e-08,0.22,0.82,0
0.011263,-0.0053148,0.014359,0.001285,0.0046933,-0.00053556,0,0,0.050264,-0.017723,0,-0.0055698,0,0,0,0.014381,0.0012631,0.0046933,-2.3418,0.0067792,0.011784,6.0649e-08,0.24,0.82,0
0.012269,-0.0054908,0.014309,0.0011225,0.0046296,-0.00033349,0,0,0.050335,-0.018237,0,-0.0034683,0,0,0,0.014318,0.0011141,0.0046296,-1.4477,0.0066872,0.011844,6.0672e-08,0.26,0.82,0
0.013276,-0.0056273,0.01426,0.00097588,0.0045709,-0.00014907,0,0,0.050385,-0.018694,0,-0.0015504,0,0,0,0.014262,0.00097421,0.0045709,-0.64285,0.0066024,0.011904,6.0723e-08,0.28,0.82,0
0.014284,-0.0057272,0.014215,0.00084024,0.0045165,1.7322e-05,0,0,0.050431,-0.019117,0,0.00018015,0,0,0,0.014215,0.00084022,0.0045165,0.074206,0.0065238,0.011968,6.0839e-08,0.3,0.82,0
0.015293,-0.0057937,0.014175,0.00071156,0.004466,0.00016531,0,0,0.050487,-0.019523,0,0.0017192,0,0,0,0.014177,0.00070953,0.004466,0.70334,0.0064508,0.012037,6.1047e-08,0.32,0.82,0
0.016304,-0.0058302,0.014142,0.00058662,0.0044187,0.00029432,0,0,0.050563,-0.019927,0,0.0030609,0,0,0,0.014149,0.00058024,0.0044187,1.2432,0.0063826,0.012114,6.136e-08,0.34,0.82,0
0.017316,-0.0058403,0.014118,0.00046306,0.0043744,0.00040359,0,0,0.050668,-0.020339,0,0.0041974,0,0,0,0.01413,0.00045114,0.0043744,1.6915,0.0063185,0.0122,6.1784e-08,0.36,0.82,0
0.01833,-0.0058281,0.014103,0.00033942,0.0043326,0.00049221,0,0,0.050804,-0.020765,0,0.005119,0,0,0,0.01412,0.00032184,0.0043326,2.0456,0.0062582,0.012294,6.2313e-08,0.38,0.82,0
0.019348,-0.0057978,0.014096,0.00021523,0.0042932,0.00055917,0,0,0.050972,-0.021206,0,0.0058154,0,0,0,0.014118,0.00019274,0.0042932,2.3032,0.0062013,0.012395,6.2933e-08,0.4,0.82,0
0.020369,-0.0057535,0.014096,9.0953e-05,0.0042562,0.00060355,0,0,0.051169,-0.021659,0,0.006277,0,0,0,0.014122,6.4992e-05,0.0042562,2.463,0.0061478,0.0125,6.3622e-08,0.42,0.82,0
0.021395,-0.0056999,0.014104,-3.2011e-05,0.0042216,0.0006247,0,0,0.051388,-0.022119,0,0.0064969,0,0,0,0.014131,-5.9565e-05,0.0042216,2.5255,0.0060978,0.012608,6.4352e-08,0.44,0.82,0
0.022425,-0.0056414,0.014117,-0.00015144,0.0041895,0.00062237,0,0,0.05162,-0.022573,0,0.0064726,0,0,0,0.014144,-0.00017853,0.0041895,2.4929,0.0060515,0.012714,6.5087e-08,0.46,0.82,0
0.02346,-0.0055825,0.014132,-0.00026444,0.0041604,0.00059697,0,0,0.051854,-0.023009,0,0.0062084,0,0,0,0.014157,-0.00028915,0.0041604,2.3704,0.0060094,0.012814,6.5793e-08,0.48,0.82,0
0.024499,-0.0055275,0.014149,-0.00036774,0.0041344,0.00054963,0,0,0.052076,-0.023411,0,0.0057161,0,0,0,0.01417,-0.00038852,0.0041344,2.1652,0.0059719,0.012906,6.6432e-08,0.5,0.82,0
0.025543,-0.0054804,0.014165,-0.00045793,0.004112,0.00048232,0,0,0.052274,-0.023764,0,0.0050161,0,0,0,0.014181,-0.00047382,0.004112,1.8872,0.0059396,0.012984,6.6973e-08,0.52,0.82,0
0.02659,-0.0054446,0.014177,-0.00053182,0.0040935,0.00039782,0,0,0.052434,-0.024052,0,0.0041374,0,0,0,0.014188,-0.00054257,0.0040935,1.5482,0.0059129,0.013045,6.7385e-08,0.54,0.82,0
0.02764,-0.0054231,0.014184,-0.00058671,0.0040792,0.00029966,0,0,0.052546,-0.024263,0,0.0031164,0,0,0,0.01419,-0.00059279,0.0040792,1.1617,0.0058922,0.013088,6.7646e-08,0.56,0.82,0
0.028692,-0.0054181,0.014185,-0.00062065,0.0040693,0.00019191,0,0,0.052601,-0.024388,0,0.0019959,0,0,0,0.014187,-0.00062314,0.0040693,0.7425,0.0058778,0.01311,6.7741e-08,0.58,0.82,0
0.029744,-0.0054312,0.014178,-0.00063264,0.0040637,7.9049e-05,0,0,0.052596,-0.024421,0,0.00082211,0,0,0,0.014179,-0.00063306,0.0040637,0.30579,0.0058698,0.01311,6.7662e-08,0.6,0.82,0
0.030796,-0.0054631,0.014164,-0.00062269,0.0040624,-3.4326e-05,0,0,0.052528,-0.024362,0,-0.00035699,0,0,0,0.014164,-0.00062277,0.0040624,-0.13301,0.0058678,0.013089,6.7409e-08,0.62,0.82,0
0.031845,-0.0055136,0.014142,-0.00059191,0.004065,-0.00014374,0,0,0.052401,-0.024216,0,-0.0014949,0,0,0,0.014143,-0.00059331,0.004065,-0.55888,0.0058717,0.013047,6.699e-08,0.64,0.82,0
0.032892,-0.0055818,0.014113,-0.00054236,0.0040713,-0.00024508,0,0,0.052219,-0.023991,0,-0.0025489,0,0,0,0.014118,-0.00054646,0.0040713,-0.95777,0.0058808,0.012986,6.6421e-08,0.66,0.82,0
0.033934,-0.0056662,0.01408,-0.00047699,0.0040808,-0.00033485,0,0,0.051994,-0.0237,0,-0.0034824,0,0,0,0.014087,-0.00048469,0.0040808,-1.3171,0.0058944,0.01291,6.5722e-08,0.68,0.82,0
0.034971,-0.0057647,0.014042,-0.00039933,0.0040927,-0.00041029,0,0,0.051735,-0.023359,0,-0.004267,0,0,0,0.014053,-0.00041098,0.0040927,-1.6261,0.0059117,0.01282,6.4923e-08,0.7,0.82,0
0.036003,-0.0058746,0.014002,-0.00031328,0.0041065,-0.00046954,0,0,0.051454,-0.022983,0,-0.0048833,0,0,0,0.014017,-0.00032867,0.0041065,-1.8767,0.0059316,0.012722,6.4052e-08,0.72,0.82,0
0.037029,-0.005993,0.013961,-0.00022279,0.0041215,-0.00051165,0,0,0.051166,-0.02259,0,-0.0053212,0,0,0,0.013979,-0.00024122,0.0041215,-2.0633,0.0059532,0.012618,6.3145e-08,0.74,0.82,0
0.03805,-0.0061169,0.013922,-0.00013155,0.004137,-0.00053652,0,0,0.05088,-0.022197,0,-0.0055798,0,0,0,0.013942,-0.00015201,0.004137,-2.1832,0.0059757,0.012514,6.2233e-08,0.76,0.82,0
0.039065,-0.0062431,0.013885,-4.2845e-05,0.0041526,-0.00054481,0,0,0.050607,-0.021816,0,-0.005666,0,0,0,0.013906,-6.4123e-05,0.0041526,-2.2367,0.0059982,0.012411,6.1347e-08,0.78,0.82,0
0.040074,-0.0063687,0.013851,4.0697e-05,0.0041677,-0.00053774,0,0,0.050356,-0.02146,0,-0.0055925,0,0,0,0.013872,1.9791e-05,0.0041677,-2.2264,0.00602,0.012314,6.0512e-08,0.8,0.82,0
0.041079,-0.0064907,0.013822,0.00011711,0.0041819,-0.00051696,0,0,0.050131,-0.021137,0,-0.0053764,0,0,0,0.013842,9.7636e-05,0.0041819,-2.1571,0.0060405,0.012225,5.9748e-08,0.82,0.82,0
0.042079,-0.0066066,0.013798,0.00018511,0.0041949,-0.00048434,0,0,0.049936,-0.020851,0,-0.0050371,0,0,0,0.013815,0.0001679,0.0041949,-2.0351,0.0060593,0.012145,5.9068e-08,0.84,0.82,0
0.043076,-0.006714,0.013778,0.00024403,0.0042066,-0.00044178,0,0,0.049771,-0.020605,0,-0.0045945,0,0,0,0.013792,0.00022962,0.0042066,-1.8676,0.0060762,0.012076,5.8481e-08,0.86,0.82,0
0.04407,-0.0068109,0.013762,0.00029372,0.0042168,-0.00039117,0,0,0.049637,-0.0204,0,-0.0040682,0,0,0,0.013774,0.00028237,0.0042168,-1.6622,0.0060909,0.012017,5.7989e-08,0.88,0.82,0
0.045062,-0.0068956,0.01375,0.0003344,0.0042254,-0.00033421,0,0,0.04953,-0.020233,0,-0.0034758,0,0,0,0.013759,0.00032607,0.0042254,-1.4261,0.0061034,0.011969,5.7588e-08,0.9,0.82,0
0.046052,-0.0069668,0.013742,0.00036652,0.0042324,-0.00027242,0,0,0.049448,-0.020103,0,-0.0028331,0,0,0,0.013747,0.00036098,0.0042324,-1.1663,0.0061135,0.011931,5.7274e-08,0.92,0.82,0
0.04704,-0.0070232,0.013736,0.00039068,0.0042379,-0.00020709,0,0,0.049388,-0.020005,0,-0.0021537,0,0,0,0.013739,0.00038747,0.0042379,-0.88885,0.0061214,0.011903,5.704e-08,0.94,0.82,0
0.048027,-0.0070641,0.013732,0.00040745,0.0042417,-0.00013932,0,0,0.049348,-0.019938,0,-0.0014489,0,0,0,0.013733,0.00040599,0.0042417,-0.59901,0.0061269,0.011883,5.6879e-08,0.96,0.82,0
0.049014,-0.0070889,0.01373,0.00041729,0.004244,-7.0025e-05,0,0,0.049324,-0.019899,0,-0.00072826,0,0,0,0.01373,0.00041693,0.004244,-0.30138,0.0061303,0.011871,5.6785e-08,0.98,0.82,0
0.05,-0.0070972,0.013729,0.00042054,0.0042448,-3.9881e-05,0,0,0.049317,-0.019886,0,-0.00041476,0,0,0,0.013729,0.00042042,0.0042448,-0.17169,0.0061314,0.011868,5.6756e-08,1,0.82,0
0,0,0.013843,0.0059328,0.0059328,-0.0030445,0,0,0.041134,7.5894e-19,0,-0.031663,0,0,0,0.014879,0.0048968,0.0059328,-18.794,0.0085696,0.009507,4.2369e-08,0,0.84,0
0.00082268,-0.00063326,0.013797,0.0053342,0.0057393,-0.0030195,0,0,0.0419,-0.0021069,0,-0.031403,0,0,0,0.014764,0.0043673,0.0057393,-17.756,0.0082901,0.0097829,4.4915e-08,0.02,0.84,0
0.001676,-0.0012656,0.013983,0.004774,0.0056273,-0.0029499,0,0,0.043453,-0.004437,0,-0.030679,0,0,0,0.014847,0.0039101,0.0056273,-16.322,0.0081283,0.010188,4.9148e-08,0.04,0.84,0
0.0025608,-0.0018864,0.014156,0.004192,0.0055043,-0.0028104,0,0,0.044988,-0.0068243,0,-0.029228,0,0,0,0.014894,0.003454,0.0055043,-14.714,0.0079507,0.010565,5.2959e-08,0.06,0.84,0
0.0034755,-0.0024841,0.014299,0.0036276,0.0053781,-0.0026063,0,0,0.046391,-0.0091027,0,-0.027106,0,0,0,0.014902,0.0030251,0.0053781,-13.017,0.0077684,0.010893,5.6079e-08,0.08,0.84,0
0.0044164,-0.0030483,0.014405,0.0031102,0.0052544,-0.0023533,0,0,0.047581,-0.01115,0,-0.024474,0,0,0,0.014875,0.0026395,0.0052544,-11.311,0.0075898,0.011161,5.8398e-08,0.1,0.84,0
0.0053787,-0.0035708,0.014468,0.0026549,0.0051369,-0.0020707,0,0,0.048522,-0.012906,0,-0.021535,0,0,0,0.01482,0.0023025,0.0051369,-9.6597,0.0074199,0.011369,5.9949e-08,0.12,0.84,0
0.0063573,-0.0040464,0.014492,0.0022654,0.0050272,-0.0017766,0,0,0.049217,-0.014362,0,-0.018476,0,0,0,0.014745,0.0020125,0.0050272,-8.1021,0.0072616,0.011525,6.0854e-08,0.14,0.84,0
0.0073474,-0.0044719,0.014484,0.0019375,0.0049264,-0.001485,0,0,0.049699,-0.015542,0,-0.015444,0,0,0,0.014657,0.0017641,0.0049264,-6.6592,0.0071159,0.011639,6.127e-08,0.16,0.84,0
0.0083452,-0.0048466,0.014452,0.0016633,0.0048344,-0.0012054,0,0,0.050009,-0.01649,0,-0.012536,0,0,0,0.014564,0.0015507,0.0048344,-5.338,0.0069831,0.011722,6.1354e-08,0.18,0.84,0
0.0093478,-0.005171,0.014403,0.001434,0.0047512,-0.00094313,0,0,0.050192,-0.01725,0,-0.0098086,0,0,0,0.014472,0.0013657,0.0047512,-4.1375,0.0068629,0.011784,6.124e-08,0.2,0.84,0
0.010353,-0.0054466,0.014347,0.0012407,0.0046762,-0.00070086,0,0,0.050286,-0.017865,0,-0.007289,0,0,0,0.014384,0.0012033,0.0046762,-3.0524,0.0067546,0.011833,6.1032e-08,0.22,0.84,0
0.011359,-0.0056759,0.014287,0.0010758,0.0046089,-0.00047951,0,0,0.050327,-0.018372,0,-0.0049869,0,0,0,0.014304,0.0010584,0.0046089,-2.0759,0.0066572,0.011876,6.081e-08,0.24,0.84,0
0.012366,-0.0058614,0.014229,0.00093224,0.0045483,-0.00027908,0,0,0.050339,-0.018804,0,-0.0029024,0,0,0,0.014235,0.00092638,0.0045483,-1.2018,0.0065698,0.011918,6.063e-08,0.26,0.84,0
0.013373,-0.0060064,0.014176,0.00080444,0.004494,-9.9175e-05,0,0,0.050344,-0.019186,0,-0.0010314,0,0,0,0.014176,0.0008037,0.004494,-0.42494,0.0064913,0.011962,6.0531e-08,0.28,0.84,0
0.01438,-0.0061141,0.014129,0.0006876,0.004445,6.0607e-05,0,0,0.050357,-0.019538,0,0.00063031,0,0,0,0.014129,0.00068732,0.004445,0.25834,0.0064205,0.012012,6.0538e-08,0.3,0.84,0
0.015387,-0.006188,0.014091,0.00057787,0.0044006,0.00020052,0,0,0.05039,-0.019878,0,0.0020854,0,0,0,0.014094,0.00057489,0.0044006,0.84997,0.0063565,0.01207,6.0665e-08,0.32,0.84,0
0.016395,-0.0062319,0.014062,0.00047228,0.0043603,0.00032058,0,0,0.05045,-0.020218,0,0.0033341,0,0,0,0.01407,0.00046472,0.0043603,1.3506,0.0062983,0.012136,6.0917e-08,0.34,0.84,0
0.017405,-0.0062497,0.014043,0.00036871,0.0043235,0.00042055,0,0,0.050542,-0.020565,0,0.0043738,0,0,0,0.014056,0.00035579,0.0043235,1.7599,0.0062451,0.01221,6.1289e-08,0.36,0.84,0
0.018417,-0.0062453,0.014033,0.00026585,0.0042898,0.00050001,0,0,0.050667,-0.020924,0,0.0052001,0,0,0,0.014051,0.00024772,0.0042898,2.0772,0.0061963,0.012292,6.1771e-08,0.38,0.84,0
0.019432,-0.0062231,0.014032,0.00016325,0.0042587,0.00055846,0,0,0.050824,-0.021296,0,0.0058079,0,0,0,0.014055,0.0001408,0.0042587,2.3021,0.0061515,0.01238,6.2344e-08,0.4,0.84,0
0.02045,-0.0061871,0.014039,6.124e-05,0.0042302,0.00059543,0,0,0.051007,-0.021678,0,0.0061925,0,0,0,0.014065,3.5922e-05,0.0042302,2.4348,0.0061102,0.012472,6.2985e-08,0.42,0.84,0
0.021472,-0.0061419,0.014052,-3.9104e-05,0.004204,0.0006107,0,0,0.051212,-0.022064,0,0.0063513,0,0,0,0.014079,-6.5521e-05,0.004204,2.4769,0.0060724,0.012566,6.3665e-08,0.44,0.84,0
0.022498,-0.0060917,0.01407,-0.00013605,0.0041802,0.00060439,0,0,0.051427,-0.022445,0,0.0062856,0,0,0,0.014096,-0.00016171,0.0041802,2.4317,0.0060381,0.012658,6.4352e-08,0.46,0.84,0
0.023529,-0.0060408,0.01409,-0.00022736,0.0041589,0.00057712,0,0,0.051644,-0.022808,0,0.0060021,0,0,0,0.014114,-0.00025058,0.0041589,2.3045,0.0060073,0.012745,6.5013e-08,0.48,0.84,0
0.024564,-0.0059931,0.014111,-0.0003105,0.0041402,0.00053015,0,0,0.051849,-0.023143,0,0.0055136,0,0,0,0.014131,-0.00032996,0.0041402,2.1025,0.0059802,0.012824,6.5616e-08,0.5,0.84,0
0.025603,-0.0059524,0.01413,-0.00038284,0.0041242,0.00046539,0,0,0.052031,-0.023437,0,0.0048401,0,0,0,0.014145,-0.00039775,0.0041242,1.8348,0.0059572,0.012891,6.613e-08,0.52,0.84,0
0.026645,-0.0059218,0.014146,-0.00044194,0.0041111,0.00038541,0,0,0.05218,-0.023676,0,0.0040082,0,0,0,0.014156,-0.00045212,0.0041111,1.5124,0.0059383,0.012944,6.6529e-08,0.54,0.84,0
0.02769,-0.0059041,0.014156,-0.00048571,0.0041011,0.00029337,0,0,0.052285,-0.023851,0,0.003051,0,0,0,0.014162,-0.00049158,0.0041011,1.1474,0.0059238,0.012981,6.6792e-08,0.56,0.84,0
0.028737,-0.0059014,0.01416,-0.00051265,0.0040941,0.00019291,0,0,0.052341,-0.023955,0,0.0020062,0,0,0,0.014162,-0.00051518,0.0040941,0.75313,0.0059137,0.013001,6.6904e-08,0.58,0.84,0
0.029784,-0.0059152,0.014156,-0.00052199,0.0040902,8.7949e-05,0,0,0.052343,-0.023984,0,0.00091467,0,0,0,0.014157,-0.00052251,0.0040902,0.34329,0.0059081,0.013002,6.6858e-08,0.6,0.84,0
0.030831,-0.0059459,0.014145,-0.00051376,0.0040893,-1.7465e-05,0,0,0.052288,-0.023936,0,-0.00018164,0,0,0,0.014145,-0.00051378,0.0040893,-0.068266,0.0059068,0.012984,6.6653e-08,0.62,0.84,0
0.031875,-0.0059938,0.014126,-0.00048883,0.0040911,-0.00011941,0,0,0.052181,-0.023816,0,-0.0012419,0,0,0,0.014127,-0.0004898,0.0040911,-0.4681,0.0059094,0.012949,6.6295e-08,0.64,0.84,0
0.032918,-0.0060579,0.0141,-0.0004488,0.0040954,-0.00021427,0,0,0.052024,-0.02363,0,-0.0022284,0,0,0,0.014103,-0.00045196,0.0040954,-0.8436,0.0059156,0.012897,6.5796e-08,0.66,0.84,0
0.033956,-0.006137,0.014068,-0.00039597,0.0041017,-0.00029893,0,0,0.051827,-0.023388,0,-0.0031089,0,0,0,0.014075,-0.00040215,0.0041017,-1.1834,0.0059247,0.012832,6.5175e-08,0.68,0.84,0
0.034991,-0.0062293,0.014032,-0.00033309,0.0041097,-0.00037089,0,0,0.051597,-0.023103,0,-0.0038573,0,0,0,0.014042,-0.00034266,0.0041097,-1.478,0.0059363,0.012755,6.4455e-08,0.7,0.84,0
0.03602,-0.0063323,0.013993,-0.0002632,0.0041189,-0.00042841,0,0,0.051345,-0.022787,0,-0.0044555,0,0,0,0.014006,-0.00027607,0.0041189,-1.7197,0.0059496,0.01267,6.3662e-08,0.72,0.84,0
0.037045,-0.0064435,0.013964,-0.00019077,0.004132,-0.00046774,0,0,0.051126,-0.022478,0,-0.0048645,0,0,0,0.013979,-0.00020621,0.004132,-1.8906,0.0059684,0.01259,6.2984e-08,0.74,0.84,0
0.038064,-0.0065601,0.013895,-0.00012557,0.0041309,-0.00050035,0,0,0.050774,-0.022134,0,-0.0052037,0,0,0,0.013913,-0.0001434,0.0041309,-2.0412,0.0059668,0.012481,6.1806e-08,0.76,0.84,0
0.039077,-0.0066793,0.013886,-3.7227e-05,0.0041546,-0.00050938,0,0,0.050603,-0.021798,0,-0.0052975,0,0,0,0.013905,-5.5838e-05,0.0041546,-2.0924,0.0060011,0.012403,6.1289e-08,0.78,0.84,0
0.040086,-0.0067982,0.013824,2.3049e-05,0.004154,-0.00050318,0,0,0.050281,-0.021481,0,-0.0052331,0,0,0,0.013842,4.7265e-06,0.004154,-2.0854,0.0060002,0.012299,6.0182e-08,0.8,0.84,0
0.04109,-0.0069141,0.013816,9.9686e-05,0.0041747,-0.00049316,0,0,0.050134,-0.02119,0,-0.0051289,0,0,0,0.013834,8.1977e-05,0.0041747,-2.0565,0.0060301,0.01223,5.9713e-08,0.82,0.84,0
0.04209,-0.0070246,0.013765,0.00014928,0.0041744,-0.00045418,0,0,0.049873,-0.02093,0,-0.0047234,0,0,0,0.01378,0.00013415,0.0041744,-1.9083,0.0060296,0.012141,5.878e-08,0.84,0.84,0
0.043086,-0.0071274,0.01376,0.00020885,0.0041905,-0.00042983,0,0,0.049759,-0.020705,0,-0.0044703,0,0,0,0.013773,0.00019522,0.0041905,-1.815,0.006053,0.012086,5.84e-08,0.86,0.84,0
0.044079,-0.0072203,0.013723,0.00024549,0.0041905,-0.00036617,0,0,0.049568,-0.020514,0,-0.0038082,0,0,0,0.013733,0.00023555,0.0041905,-1.5552,0.0060529,0.012018,5.7693e-08,0.88,0.84,0
0.04507,-0.0073019,0.013719,0.00028693,0.0042018,-0.00033233,0,0,0.04949,-0.020357,0,-0.0034563,0,0,0,0.013727,0.00027872,0.0042018,-1.4164,0.0060693,0.011979,5.7418e-08,0.9,0.84,0
0.046058,-0.0073705,0.013695,0.00031088,0.0042019,-0.00025207,0,0,0.049367,-0.020233,0,-0.0026215,0,0,0,0.0137,0.00030614,0.0042019,-1.0785,0.0060694,0.011933,5.6946e-08,0.92,0.84,0
0.047045,-0.007425,0.013693,0.00033566,0.0042087,-0.00021272,0,0,0.04932,-0.02014,0,-0.0022123,0,0,0,0.013697,0.00033227,0.0042087,-0.91214,0.0060792,0.011909,5.6777e-08,0.94,0.84,0
0.048031,-0.0074646,0.013681,0.00034826,0.0042088,-0.00012283,0,0,0.049256,-0.020075,0,-0.0012774,0,0,0,0.013682,0.00034713,0.0042088,-0.52777,0.0060794,0.011884,5.6525e-08,0.96,0.84,0
0.049015,-0.0074886,0.01368,0.0003584,0.0042116,-8.0879e-05,0,0,0.049237,-0.020037,0,-0.00084114,0,0,0,0.013681,0.00035791,0.0042116,-0.34783,0.0060834,0.011875,5.6455e-08,0.98,0.84,0
0.05,-0.0074966,0.013686,0.0003792,0.0042195,-3.865e-05,0,0,0.049225,-0.01997,0,-0.00040196,0,0,0,0.013686,0.00037908,0.0042195,-0.16642,0.0060948,0.011862,5.6417e-08,1,0.84,0
0,0,0.01395,0.0059784,0.0059784,-0.0032582,0,0,0.04145,5.421e-19,0,-0.033886,0,0,0,0.015112,0.0048161,0.0059784,-19.633,0.0086354,0.0097667,4.5572e-08,0,0.86,0
0.000829,-0.00067772,0.013808,0.0052787,0.0057259,-0.0032275,0,0,0.042026,-0.0023257,0,-0.033565,0,0,0,0.014891,0.0041951,0.0057259,-18.559,0.0082708,0.010019,4.7613e-08,0.02,0.86,0
0.0016925,-0.0013596,0.014215,0.0047372,0.0056857,-0.0031486,0,0,0.044354,-0.0049327,0,-0.032746,0,0,0,0.015166,0.0037865,0.0056857,-16.8,0.0082127,0.010559,5.3924e-08,0.04,0.86,0
0.0025914,-0.0020309,0.014214,0.0040089,0.0054667,-0.0030119,0,0,0.045484,-0.0075809,0,-0.031324,0,0,0,0.015036,0.0031862,0.0054667,-15.277,0.0078964,0.01089,5.6654e-08,0.06,0.86,0
0.0035227,-0.0026763,0.014524,0.0034647,0.0053966,-0.0027134,0,0,0.047462,-0.010046,0,-0.02822,0,0,0,0.015154,0.0028348,0.0053966,-13.069,0.007795,0.011259,6.07e-08,0.08,0.86,0
0.0044809,-0.0032827,0.01448,0.0028586,0.0052015,-0.0024822,0,0,0.048246,-0.012183,0,-0.025815,0,0,0,0.014988,0.0023506,0.0052015,-11.566,0.0075132,0.01148,6.1851e-08,0.1,0.86,0
0.0054593,-0.0038407,0.014607,0.0024299,0.0051112,-0.0020725,0,0,0.04938,-0.013943,0,-0.021555,0,0,0,0.01495,0.0020868,0.0051112,-9.3991,0.0073828,0.01165,6.3125e-08,0.12,0.86,0
0.0064515,-0.0043449,0.014524,0.0019529,0.0049432,-0.0017584,0,0,0.049823,-0.01555,0,-0.018288,0,0,0,0.014766,0.0017116,0.0049432,-7.8144,0.0071402,0.011776,6.306e-08,0.14,0.86,0
0.0074522,-0.0047933,0.01448,0.0016407,0.0048363,-0.0014404,0,0,0.050148,-0.016617,0,-0.01498,0,0,0,0.01464,0.0014811,0.0048363,-6.3232,0.0069857,0.011843,6.2792e-08,0.16,0.86,0
0.0084574,-0.0051859,0.014415,0.0013877,0.0047409,-0.0011447,0,0,0.050307,-0.017437,0,-0.011905,0,0,0,0.014515,0.0012879,0.0047409,-4.9834,0.006848,0.011883,6.228e-08,0.18,0.86,0
0.0094645,-0.0055243,0.01434,0.0011816,0.0046565,-0.00087468,0,0,0.050355,-0.01807,0,-0.0090967,0,0,0,0.014398,0.0011237,0.0046565,-3.7864,0.0067261,0.011908,6.1676e-08,0.2,0.86,0
0.010472,-0.0058112,0.014263,0.0010118,0.0045824,-0.00063106,0,0,0.050338,-0.018567,0,-0.0065631,0,0,0,0.014293,0.00098184,0.0045824,-2.7205,0.006619,0.011926,6.1085e-08,0.22,0.86,0
0.011478,-0.0060496,0.014189,0.00086959,0.0045175,-0.00041297,0,0,0.050291,-0.018969,0,-0.0042949,0,0,0,0.014202,0.0008568,0.0045175,-1.7742,0.0065253,0.011943,6.0575e-08,0.24,0.86,0
0.012483,-0.0062429,0.014122,0.00074781,0.0044609,-0.00021899,0,0,0.050237,-0.019308,0,-0.0022775,0,0,0,0.014126,0.00074423,0.0044609,-0.93783,0.0064436,0.011964,6.0187e-08,0.26,0.86,0
0.013487,-0.0063947,0.014065,0.00064079,0.0044116,-4.7654e-05,0,0,0.050196,-0.019608,0,-0.0004956,0,0,0,0.014065,0.00064063,0.0044116,-0.20339,0.0063724,0.011992,5.9942e-08,0.28,0.86,0
0.014491,-0.0065088,0.014018,0.00054402,0.0043687,0.00010227,0,0,0.050178,-0.019888,0,0.0010636,0,0,0,0.014019,0.00054324,0.0043687,0.43483,0.0063103,0.012028,5.9851e-08,0.3,0.86,0
0.015495,-0.0065888,0.013983,0.00045395,0.0043312,0.00023167,0,0,0.050191,-0.020162,0,0.0024093,0,0,0,0.013987,0.00044999,0.0043312,0.98069,0.0062562,0.012074,5.9913e-08,0.32,0.86,0
0.016499,-0.0066389,0.01396,0.00036795,0.0042984,0.00034107,0,0,0.050241,-0.020438,0,0.0035471,0,0,0,0.013969,0.0003594,0.0042984,1.4365,0.0062088,0.012129,6.0123e-08,0.34,0.86,0
0.017504,-0.0066629,0.013948,0.00028414,0.0042696,0.0004307,0,0,0.050327,-0.020724,0,0.0044793,0,0,0,0.013961,0.00027058,0.0042696,1.8037,0.0061671,0.012193,6.0468e-08,0.36,0.86,0
0.018512,-0.0066651,0.013946,0.0002014,0.0042441,0.00050053,0,0,0.050448,-0.021022,0,0.0052056,0,0,0,0.013964,0.0001832,0.0042441,2.0829,0.0061304,0.012265,6.093e-08,0.38,0.86,0
0.019522,-0.0066496,0.013953,0.0001193,0.0042216,0.00055046,0,0,0.050602,-0.021332,0,0.0057247,0,0,0,0.013975,9.7436e-05,0.0042216,2.2751,0.0060979,0.012343,6.1488e-08,0.4,0.86,0
0.020536,-0.0066207,0.013968,3.8072e-05,0.0042017,0.00058036,0,0,0.050782,-0.021651,0,0.0060357,0,0,0,0.013992,1.3934e-05,0.0042017,2.3817,0.0060691,0.012425,6.2114e-08,0.42,0.86,0
0.021553,-0.0065825,0.013974,-5.2564e-05,0.0041764,0.00058518,0,0,0.050947,-0.021991,0,0.0060858,0,0,0,0.013998,-7.6935e-05,0.0041764,2.3848,0.0060326,0.012503,6.2634e-08,0.44,0.86,0
0.022575,-0.0065392,0.014001,-0.00014612,0.0041564,0.00057943,0,0,0.05119,-0.022373,0,0.0060261,0,0,0,0.014024,-0.00016982,0.0041564,2.3415,0.0060036,0.012601,6.3421e-08,0.46,0.86,0
0.023601,-0.0064949,0.014023,-0.00022728,0.0041388,0.00055231,0,0,0.051399,-0.022704,0,0.005744,0,0,0,0.014045,-0.00024865,0.0041388,2.2162,0.0059782,0.012682,6.4062e-08,0.48,0.86,0
0.024631,-0.0064533,0.014046,-0.00030105,0.0041235,0.00050707,0,0,0.051597,-0.023008,0,0.0052735,0,0,0,0.014064,-0.00031894,0.0041235,2.0217,0.0059561,0.012756,6.4648e-08,0.5,0.86,0
0.025665,-0.0064178,0.014067,-0.00036508,0.0041106,0.00044556,0,0,0.051773,-0.023273,0,0.0046339,0,0,0,0.014081,-0.00037882,0.0041106,1.7667,0.0059375,0.012819,6.5154e-08,0.52,0.86,0
0.026702,-0.0063916,0.014109,-0.00037447,0.0041203,0.00036014,0,0,0.05194,-0.023373,0,0.0037454,0,0,0,0.014118,-0.00038342,0.0041203,1.4235,0.0059515,0.012855,6.5685e-08,0.54,0.86,0
0.027742,-0.0063771,0.014111,-0.00041502,0.0041088,0.00029461,0,0,0.052011,-0.023524,0,0.003064,0,0,0,0.014117,-0.00042099,0.0041088,1.1614,0.0059349,0.012885,6.5845e-08,0.56,0.86,0
0.028783,-0.0063763,0.014104,-0.00047857,0.0040877,0.00018996,0,0,0.052086,-0.023745,0,0.0019756,0,0,0,0.014107,-0.00048104,0.0040877,0.74618,0.0059045,0.012924,6.5975e-08,0.58,0.86,0
0.029825,-0.0063906,0.014122,-0.00044201,0.0041041,8.0396e-05,0,0,0.052095,-0.02364,0,0.00083612,0,0,0,0.014123,-0.00044246,0.0041041,0.31626,0.0059282,0.012907,6.6025e-08,0.6,0.86,0
0.030867,-0.0064205,0.014125,-0.0004129,0.0041136,-3.8021e-06,0,0,0.052058,-0.023538,0,-3.9542e-05,0,0,0,0.014125,-0.0004129,0.0041136,-0.014985,0.0059418,0.012885,6.5918e-08,0.62,0.86,0
0.031907,-0.0064662,0.014109,-0.0003931,0.0041148,-9.8041e-05,0,0,0.05197,-0.023441,0,-0.0010196,0,0,0,0.01411,-0.00039376,0.0041148,-0.38732,0.0059436,0.012856,6.5622e-08,0.64,0.86,0
0.032946,-0.006527,0.014086,-0.00036145,0.0041174,-0.00018603,0,0,0.051837,-0.02329,0,-0.0019348,0,0,0,0.014088,-0.00036384,0.0041174,-0.73761,0.0059473,0.012814,6.5191e-08,0.66,0.86,0
0.033981,-0.0066017,0.014056,-0.00031968,0.0041211,-0.00026502,0,0,0.051664,-0.023092,0,-0.0027562,0,0,0,0.014061,-0.00032456,0.0041211,-1.0557,0.0059526,0.012758,6.464e-08,0.68,0.86,0
0.035012,-0.0066888,0.014022,-0.00026991,0.0041256,-0.00033275,0,0,0.05146,-0.022856,0,-0.0034606,0,0,0,0.01403,-0.00027765,0.0041256,-1.333,0.0059591,0.012692,6.3991e-08,0.7,0.86,0
0.036039,-0.0067861,0.013983,-0.00021447,0.0041306,-0.0003876,0,0,0.051234,-0.022595,0,-0.0040311,0,0,0,0.013994,-0.00022504,0.0041306,-1.5626,0.0059665,0.012618,6.3265e-08,0.72,0.86,0
0.037062,-0.0068912,0.013959,-0.00014209,0.0041452,-0.00042173,0,0,0.051034,-0.022294,0,-0.004386,0,0,0,0.013972,-0.00015469,0.0041452,-1.7115,0.0059875,0.012542,6.2646e-08,0.74,0.86,0
0.038079,-0.0070017,0.013889,-9.6949e-05,0.0041376,-0.00045484,0,0,0.050706,-0.022019,0,-0.0047303,0,0,0,0.013903,-0.00011173,0.0041376,-1.8607,0.0059765,0.012447,6.1535e-08,0.76,0.86,0
0.039092,-0.0071148,0.013873,-2.921e-05,0.0041533,-0.00046538,0,0,0.050545,-0.021749,0,-0.00484,0,0,0,0.013889,-4.4771e-05,0.0041533,-1.9151,0.0059991,0.012381,6.1031e-08,0.78,0.86,0
0.040099,-0.007228,0.013806,1.3185e-05,0.0041459,-0.00046273,0,0,0.050235,-0.02149,0,-0.0048124,0,0,0,0.013822,-2.3214e-06,0.0041459,-1.9193,0.0059885,0.012287,5.9956e-08,0.8,0.86,0
0.041102,-0.0073386,0.013792,7.3348e-05,0.0041598,-0.00045571,0,0,0.050091,-0.021249,0,-0.0047394,0,0,0,0.013808,5.8227e-05,0.0041598,-1.9004,0.0060086,0.012226,5.9488e-08,0.82,0.86,0
0.042102,-0.0074443,0.013736,0.00010887,0.0041534,-0.00042192,0,0,0.049828,-0.021031,0,-0.0043879,0,0,0,0.013749,9.5816e-05,0.0041534,-1.7717,0.0059993,0.012144,5.8553e-08,0.84,0.86,0
0.043097,-0.0075429,0.013724,0.00015689,0.0041643,-0.00040115,0,0,0.049712,-0.020839,0,-0.0041719,0,0,0,0.013736,0.00014504,0.0041643,-1.6921,0.0060152,0.012093,5.8163e-08,0.86,0.86,0
0.044089,-0.0076323,0.013681,0.00018364,0.0041593,-0.00034305,0,0,0.049511,-0.020673,0,-0.0035677,0,0,0,0.013689,0.00017493,0.0041593,-1.455,0.0060079,0.012028,5.7429e-08,0.88,0.86,0
0.045078,-0.0077109,0.013672,0.00021797,0.0041671,-0.0003127,0,0,0.049427,-0.020535,0,-0.0032521,0,0,0,0.01368,0.00021071,0.0041671,-1.3307,0.0060191,0.011991,5.7137e-08,0.9,0.86,0
0.046065,-0.0077771,0.013643,0.00023577,0.0041636,-0.00023762,0,0,0.049292,-0.020425,0,-0.0024713,0,0,0,0.013647,0.00023156,0.0041636,-1.0151,0.006014,0.011945,5.663e-08,0.92,0.86,0
0.04705,-0.0078299,0.013638,0.0002568,0.0041683,-0.0002014,0,0,0.04924,-0.02034,0,-0.0020945,0,0,0,0.01364,0.00025377,0.0041683,-0.86212,0.0060209,0.011922,5.6445e-08,0.94,0.86,0
0.048034,-0.0078682,0.013621,0.0002663,0.0041663,-0.00011612,0,0,0.049167,-0.02028,0,-0.0012077,0,0,0,0.013622,0.00026529,0.0041663,-0.49813,0.006018,0.011897,5.6166e-08,0.96,0.86,0
0.049017,-0.0078915,0.013619,0.00027505,0.0041683,-7.6972e-05,0,0,0.049145,-0.020245,0,-0.00080051,0,0,0,0.01362,0.0002746,0.0041683,-0.33048,0.0060209,0.011887,5.6088e-08,0.98,0.86,0
0.05,-0.0078993,0.013609,0.00026005,0.0041607,-3.7476e-05,0,0,0.049131,-0.020283,0,-0.00038975,0,0,0,0.013609,0.00025995,0.0041607,-0.16085,0.0060099,0.011889,5.6023e-08,1,0.86,0
0,0,0.014131,0.0060559,0.0060559,-0.0035016,0,0,0.041988,2.1684e-19,0,-0.036417,0,0,0,0.015437,0.0047489,0.0060559,-20.468,0.0087474,0.010099,4.9921e-08,0,0.88,0
0.00083975,-0.00072834,0.013947,0.0052023,0.0057447,-0.003446,0,0,0.04265,-0.0028203,0,-0.035838,0,0,0,0.015141,0.0040075,0.0057447,-19.122,0.0082979,0.010375,5.1977e-08,0.02,0.88,0
0.0017193,-0.0014676,0.014375,0.0044958,0.0056612,-0.0033434,0,0,0.045311,-0.00606,0,-0.034771,0,0,0,0.0154,0.0034707,0.0056612,-17.046,0.0081773,0.010999,5.9305e-08,0.04,0.88,0
0.0026388,-0.0021967,0.014335,0.0036024,0.0053812,-0.003146,0,0,0.046559,-0.0092497,0,-0.032718,0,0,0,0.015189,0.0027482,0.0053812,-15.191,0.0077728,0.011356,6.1793e-08,0.06,0.88,0
0.0035932,-0.0028946,0.014619,0.0029631,0.0052747,-0.002755,0,0,0.048592,-0.01202,0,-0.028652,0,0,0,0.015238,0.0023448,0.0052747,-12.65,0.0076191,0.011706,6.5316e-08,0.08,0.88,0
0.0045738,-0.0035448,0.014545,0.002328,0.0050619,-0.0024613,0,0,0.049313,-0.014216,0,-0.025597,0,0,0,0.015022,0.0018508,0.0050619,-10.973,0.0073117,0.011896,6.5683e-08,0.1,0.88,0
0.0055714,-0.0041376,0.014605,0.0019027,0.0049523,-0.001979,0,0,0.050193,-0.015858,0,-0.020582,0,0,0,0.014906,0.0016015,0.0049523,-8.6536,0.0071532,0.011986,6.5684e-08,0.12,0.88,0
0.0065784,-0.0046683,0.014549,0.0016127,0.0048486,-0.0016932,0,0,0.050444,-0.016827,0,-0.01761,0,0,0,0.014767,0.0013947,0.0048486,-7.3346,0.0070036,0.012024,6.5064e-08,0.14,0.88,0
0.0075892,-0.0051366,0.014455,0.0013289,0.0047352,-0.0013545,0,0,0.050544,-0.017713,0,-0.014087,0,0,0,0.014594,0.0011906,0.0047352,-5.8306,0.0068398,0.012029,6.3917e-08,0.16,0.88,0
0.0086001,-0.0055441,0.014349,0.0011066,0.0046366,-0.0010506,0,0,0.050503,-0.018356,0,-0.010926,0,0,0,0.014432,0.0010238,0.0046366,-4.5082,0.0066973,0.012016,6.2698e-08,0.18,0.88,0
0.0096093,-0.0058938,0.014242,0.00093053,0.0045517,-0.00078129,0,0,0.050389,-0.01883,0,-0.0081254,0,0,0,0.014288,0.00088483,0.0045517,-3.3476,0.0065747,0.011997,6.1556e-08,0.2,0.88,0
0.010616,-0.0061893,0.014142,0.00078876,0.0044792,-0.00054418,0,0,0.050247,-0.01919,0,-0.0056594,0,0,0,0.014164,0.00076663,0.0044792,-2.3298,0.00647,0.011981,6.0573e-08,0.22,0.88,0
0.011619,-0.0064347,0.014054,0.00067224,0.0044178,-0.00033621,0,0,0.050107,-0.019477,0,-0.0034965,0,0,0,0.014062,0.0006638,0.0044178,-1.4383,0.0063813,0.011971,5.9788e-08,0.24,0.88,0
0.01262,-0.0066338,0.01398,0.000574,0.0043661,-0.0001544,0,0,0.049991,-0.019719,0,-0.0016058,0,0,0,0.013982,0.00057222,0.0043661,-0.65979,0.0063066,0.011972,5.9216e-08,0.26,0.88,0
0.013619,-0.0067907,0.013921,0.00048874,0.0043229,3.7647e-06,0,0,0.049909,-0.019938,0,3.9153e-05,0,0,0,0.013921,0.00048874,0.0043229,0.016058,0.0062442,0.011984,5.8857e-08,0.28,0.88,0
0.014616,-0.0069096,0.013877,0.00041239,0.0042869,0.00014027,0,0,0.049869,-0.020147,0,0.0014589,0,0,0,0.013879,0.00041092,0.0042869,0.59681,0.0061921,0.012008,5.8703e-08,0.3,0.88,0
0.015614,-0.0069945,0.013848,0.00034188,0.004257,0.00025655,0,0,0.049874,-0.020359,0,0.0026681,0,0,0,0.013853,0.000337,0.004257,1.0878,0.006149,0.012044,5.8738e-08,0.32,0.88,0
0.016611,-0.0070495,0.013833,0.00027495,0.0042324,0.00035352,0,0,0.049923,-0.020578,0,0.0036766,0,0,0,0.013842,0.00026574,0.0042324,1.4926,0.0061134,0.012091,5.8945e-08,0.34,0.88,0
0.017611,-0.0070787,0.01383,0.00021005,0.0042121,0.00043174,0,0,0.050014,-0.020811,0,0.0044901,0,0,0,0.013844,0.00019637,0.0042121,1.8138,0.0060841,0.012148,5.9303e-08,0.36,0.88,0
0.018612,-0.0070862,0.013839,0.00014624,0.0041955,0.00049148,0,0,0.050145,-0.021056,0,0.0051114,0,0,0,0.013856,0.00012862,0.0041955,2.0531,0.0060601,0.012213,5.9787e-08,0.38,0.88,0
0.019616,-0.0070764,0.013857,8.3145e-05,0.0041819,0.00053287,0,0,0.050308,-0.021313,0,0.0055419,0,0,0,0.013877,6.256e-05,0.0041819,2.2123,0.0060405,0.012284,6.0371e-08,0.4,0.88,0
0.020624,-0.0070532,0.013882,2.0925e-05,0.0041708,0.00055605,0,0,0.050497,-0.021579,0,0.0057829,0,0,0,0.013904,-1.3459e-06,0.0041708,2.2936,0.0060245,0.012359,6.1026e-08,0.42,0.88,0
0.021636,-0.0070208,0.013904,-3.7174e-05,0.00416,0.00055567,0,0,0.050668,-0.021825,0,0.005779,0,0,0,0.013926,-5.9287e-05,0.00416,2.2789,0.0060089,0.012425,6.1588e-08,0.44,0.88,0
0.022652,-0.0069833,0.01396,-6.7135e-05,0.0041678,0.00054314,0,0,0.050919,-0.022022,0,0.0056487,0,0,0,0.013981,-8.8135e-05,0.0041678,2.2142,0.0060202,0.012497,6.2454e-08,0.46,0.88,0
0.023673,-0.0069445,0.013998,-0.00011443,0.0041652,0.00051341,0,0,0.051132,-0.022254,0,0.0053395,0,0,0,0.014017,-0.00013309,0.0041652,2.0807,0.0060163,0.012565,6.3149e-08,0.48,0.88,0
0.024698,-0.006908,0.014035,-0.00015721,0.0041635,0.00046891,0,0,0.051334,-0.022468,0,0.0048767,0,0,0,0.014051,-0.00017268,0.0041635,1.8902,0.0060139,0.012627,6.3794e-08,0.5,0.88,0
0.025726,-0.006877,0.014069,-0.00019426,0.0041625,0.00041125,0,0,0.051515,-0.022655,0,0.004277,0,0,0,0.014081,-0.00020611,0.0041625,1.6502,0.0060125,0.012681,6.4362e-08,0.52,0.88,0
0.026758,-0.0068544,0.01409,-0.000258,0.0041495,0.00033736,0,0,0.051689,-0.022919,0,0.0035085,0,0,0,0.014098,-0.00026593,0.0041495,1.3462,0.0059937,0.012743,6.4865e-08,0.54,0.88,0
0.027793,-0.0068426,0.014098,-0.00028801,0.0041429,0.00027771,0,0,0.051765,-0.023041,0,0.0028882,0,0,0,0.014103,-0.00029337,0.0041429,1.1055,0.0059842,0.01277,6.5067e-08,0.56,0.88,0
0.02883,-0.0068434,0.014133,-0.000261,0.0041616,0.00018151,0,0,0.051851,-0.022998,0,0.0018877,0,0,0,0.014135,-0.00026329,0.0041616,0.72235,0.0060112,0.012774,6.5372e-08,0.58,0.88,0
0.029867,-0.0068581,0.014121,-0.00030593,0.0041444,8.34e-05,0,0,0.051876,-0.023142,0,0.00086736,0,0,0,0.014121,-0.00030641,0.0041444,0.33121,0.0059864,0.012796,6.5377e-08,0.6,0.88,0
0.030905,-0.0068874,0.014108,-0.00032045,0.0041363,6.3899e-06,0,0,0.051853,-0.023175,0,6.6455e-05,0,0,0,0.014108,-0.00032045,0.0041363,0.025374,0.0059746,0.012796,6.5263e-08,0.62,0.88,0
0.031941,-0.0069314,0.014096,-0.00030517,0.0041371,-7.9635e-05,0,0,0.051784,-0.0231,0,-0.00082821,0,0,0,0.014096,-0.00030562,0.0041371,-0.31683,0.0059759,0.012774,6.5028e-08,0.64,0.88,0
0.032976,-0.0069895,0.014075,-0.00028088,0.0041382,-0.00016015,0,0,0.051671,-0.022979,0,-0.0016656,0,0,0,0.014077,-0.00028267,0.0041382,-0.63906,0.0059775,0.012738,6.4659e-08,0.66,0.88,0
0.034008,-0.0070607,0.014047,-0.00024886,0.0041395,-0.00023272,0,0,0.05152,-0.02282,0,-0.0024203,0,0,0,0.014051,-0.00025265,0.0041395,-0.93237,0.0059793,0.012691,6.4169e-08,0.68,0.88,0
0.035037,-0.0071435,0.014013,-0.00021069,0.0041408,-0.00029537,0,0,0.051338,-0.022628,0,-0.0030718,0,0,0,0.01402,-0.00021682,0.0041408,-1.1891,0.0059812,0.012634,6.3576e-08,0.7,0.88,0
0.036062,-0.007236,0.013975,-0.0001681,0.004142,-0.00034659,0,0,0.051131,-0.022413,0,-0.0036045,0,0,0,0.013983,-0.00017659,0.004142,-1.403,0.0059829,0.01257,6.29e-08,0.72,0.88,0
0.037082,-0.0073362,0.013933,-0.00012289,0.004143,-0.00038545,0,0,0.050908,-0.022183,0,-0.0040086,0,0,0,0.013943,-0.00013345,0.004143,-1.5696,0.0059843,0.0125,6.2166e-08,0.74,0.88,0
0.038098,-0.0074415,0.013889,-7.6769e-05,0.0041437,-0.0004115,0,0,0.050676,-0.021946,0,-0.0042796,0,0,0,0.013901,-8.8883e-05,0.0041437,-1.6863,0.0059853,0.012427,6.1397e-08,0.76,0.88,0
0.039109,-0.0075495,0.013844,-3.1306e-05,0.004144,-0.00042482,0,0,0.050443,-0.021711,0,-0.0044181,0,0,0,0.013858,-4.43e-05,0.004144,-1.7519,0.0059857,0.012352,6.0616e-08,0.78,0.88,0
0.040115,-0.0076578,0.013801,1.2167e-05,0.0041439,-0.00042585,0,0,0.050216,-0.021485,0,-0.0044289,0,0,0,0.013814,-9.7281e-07,0.0041439,-1.7673,0.0059856,0.012279,5.9846e-08,0.8,0.88,0
0.041118,-0.0077639,0.013759,5.2592e-05,0.0041434,-0.00041541,0,0,0.05,-0.021272,0,-0.0043203,0,0,0,0.013772,4.0013e-05,0.0041434,-1.7344,0.005985,0.012208,5.9106e-08,0.82,0.88,0
0.042116,-0.0078654,0.01372,8.9201e-05,0.0041427,-0.00039454,0,0,0.049801,-0.021078,0,-0.0041033,0,0,0,0.013731,7.779e-05,0.0041427,-1.6566,0.0059839,0.012142,5.8413e-08,0.84,0.88,0
0.04311,-0.0079603,0.013684,0.0001215,0.0041417,-0.00036444,0,0,0.049621,-0.020905,0,-0.0037902,0,0,0,0.013694,0.00011171,0.0041417,-1.5381,0.0059824,0.012082,5.7781e-08,0.86,0.88,0
0.0441,-0.0080465,0.013652,0.00014923,0.0041405,-0.00032639,0,0,0.049462,-0.020755,0,-0.0033944,0,0,0,0.01366,0.00014134,0.0041405,-1.3838,0.0059808,0.012029,5.7219e-08,0.88,0.88,0
0.045088,-0.0081224,0.013625,0.00017233,0.0041393,-0.00028167,0,0,0.049328,-0.020628,0,-0.0029293,0,0,0,0.013631,0.00016644,0.0041393,-1.1989,0.005979,0.011983,5.6737e-08,0.9,0.88,0
0.046073,-0.0081865,0.013603,0.00019088,0.0041382,-0.00023154,0,0,0.049217,-0.020526,0,-0.002408,0,0,0,0.013607,0.00018688,0.0041382,-0.98873,0.0059773,0.011945,5.6338e-08,0.92,0.88,0
0.047057,-0.0082376,0.013585,0.00020503,0.0041371,-0.00017721,0,0,0.049131,-0.020447,0,-0.001843,0,0,0,0.013588,0.00020269,0.0041371,-0.75864,0.0059759,0.011915,5.6025e-08,0.94,0.88,0
0.048039,-0.0082748,0.013573,0.00021497,0.0041363,-0.00011981,0,0,0.04907,-0.020391,0,-0.001246,0,0,0,0.013574,0.0002139,0.0041363,-0.51383,0.0059747,0.011894,5.5801e-08,0.96,0.88,0
0.04902,-0.0082974,0.013565,0.00022086,0.0041358,-6.0397e-05,0,0,0.049033,-0.020358,0,-0.00062813,0,0,0,0.013565,0.00022059,0.0041358,-0.25932,0.005974,0.011881,5.5667e-08,0.98,0.88,0
0.05,-0.0083049,0.013563,0.00022281,0.0041357,-3.6377e-05,0,0,0.049021,-0.020347,0,-0.00037832,0,0,0,0.013563,0.00022271,0.0041357,-0.15624,0.0059737,0.011877,5.5624e-08,1,0.88,0
0,0,0.014424,0.0061818,0.0061818,-0.0037867,0,0,0.042861,0,0,-0.039382,0,0,0,0.0159,0.0047063,0.0061818,-21.289,0.0089293,0.010533,5.6076e-08,0,0.9,0
0.00085721,-0.00078764,0.014345,0.005243,0.0058765,-0.0037246,0,0,0.044037,-0.0032939,0,-0.038736,0,0,0,0.015675,0.0039132,0.0058765,-19.648,0.0084882,0.010913,5.9542e-08,0.02,0.9,0
0.0017615,-0.0015954,0.014573,0.0042874,0.0056583,-0.0035911,0,0,0.046359,-0.0071283,0,-0.037347,0,0,0,0.015703,0.0031578,0.0056583,-17.462,0.008173,0.011501,6.5849e-08,0.04,0.9,0
0.0027116,-0.0023913,0.01474,0.003367,0.0054322,-0.0032809,0,0,0.048402,-0.010739,0,-0.034122,0,0,0,0.015619,0.0024884,0.0054322,-14.992,0.0078465,0.011934,6.9714e-08,0.06,0.9,0
0.0036976,-0.0031461,0.014813,0.0026013,0.0052244,-0.0028589,0,0,0.049862,-0.01364,0,-0.029732,0,0,0,0.015449,0.0019651,0.0052244,-12.545,0.0075463,0.012186,7.1012e-08,0.08,0.9,0
0.004706,-0.0038402,0.014788,0.0020137,0.0050405,-0.0024008,0,0,0.050687,-0.015739,0,-0.024968,0,0,0,0.015224,0.0015774,0.0050405,-10.3,0.0072807,0.012287,7.037e-08,0.1,0.9,0
0.005725,-0.0044648,0.014688,0.0015777,0.0048796,-0.001961,0,0,0.051002,-0.01717,0,-0.020394,0,0,0,0.014975,0.0012907,0.0048796,-8.3274,0.0070484,0.012289,6.8626e-08,0.12,0.9,0
0.0067461,-0.005018,0.014544,0.0012546,0.0047397,-0.0015645,0,0,0.050985,-0.018123,0,-0.01627,0,0,0,0.014726,0.0010729,0.0047397,-6.6241,0.0068462,0.012239,6.6447e-08,0.14,0.9,0
0.0077644,-0.0055018,0.014386,0.0010134,0.0046199,-0.0012179,0,0,0.050785,-0.018754,0,-0.012666,0,0,0,0.014496,0.0009034,0.0046199,-5.1616,0.0066732,0.012168,6.4261e-08,0.16,0.9,0
0.0087775,-0.0059201,0.014231,0.00083091,0.0045187,-0.00091896,0,0,0.050507,-0.019177,0,-0.0095572,0,0,0,0.014294,0.00076818,0.0045187,-3.9048,0.0065271,0.012095,6.2287e-08,0.18,0.9,0
0.0097847,-0.0062775,0.014091,0.0006903,0.0044344,-0.00066214,0,0,0.050215,-0.019469,0,-0.0068862,0,0,0,0.014124,0.00065766,0.0044344,-2.8218,0.0064052,0.012031,6.0621e-08,0.2,0.9,0
0.010786,-0.0065789,0.01397,0.00057962,0.0043649,-0.0004415,0,0,0.049947,-0.019683,0,-0.0045916,0,0,0,0.013985,0.00056508,0.0043649,-1.8864,0.0063048,0.01198,5.9291e-08,0.22,0.9,0
0.011783,-0.0068287,0.013871,0.00049028,0.0043083,-0.00025173,0,0,0.049724,-0.019854,0,-0.002618,0,0,0,0.013875,0.00048554,0.0043083,-1.0774,0.0062231,0.011946,5.8291e-08,0.24,0.9,0
0.012775,-0.0070317,0.013793,0.00041602,0.0042628,-8.8479e-05,0,0,0.049558,-0.020003,0,-0.00092019,0,0,0,0.013794,0.00041544,0.0042628,-0.37894,0.0061573,0.011929,5.7599e-08,0.26,0.9,0
0.013765,-0.0071922,0.013737,0.00035228,0.0042267,5.1632e-05,0,0,0.049452,-0.020147,0,0.00053697,0,0,0,0.013737,0.00035208,0.0042267,0.22102,0.0061053,0.011929,5.7189e-08,0.28,0.9,0
0.014753,-0.0073146,0.0137,0.00029566,0.0041987,0.00017109,0,0,0.049407,-0.020296,0,0.0017794,0,0,0,0.013702,0.00029348,0.0041987,0.73116,0.0060648,0.011945,5.7031e-08,0.3,0.9,0
0.015741,-0.0074032,0.013681,0.00024369,0.0041775,0.00027166,0,0,0.049419,-0.020456,0,0.0028253,0,0,0,0.013687,0.0002382,0.0041775,1.1577,0.0060341,0.011975,5.7097e-08,0.32,0.9,0
0.01673,-0.007462,0.013678,0.00019456,0.0041618,0.0003545,0,0,0.049485,-0.02063,0,0.0036867,0,0,0,0.013688,0.00018525,0.0041618,1.505,0.0060115,0.012018,5.7357e-08,0.34,0.9,0
0.017721,-0.0074954,0.013689,0.00014706,0.0041509,0.00042033,0,0,0.049599,-0.02082,0,0.0043714,0,0,0,0.013702,0.00013403,0.0041509,1.7761,0.0059957,0.012072,5.7783e-08,0.36,0.9,0
0.018714,-0.0075074,0.013712,0.00010047,0.0041437,0.00046959,0,0,0.049755,-0.021025,0,0.0048837,0,0,0,0.013728,8.4286e-05,0.0041437,1.9735,0.0059854,0.012134,5.8343e-08,0.38,0.9,0
0.019711,-0.0075022,0.013744,5.4485e-05,0.0041396,0.00050254,0,0,0.049944,-0.021243,0,0.0052265,0,0,0,0.013763,3.6061e-05,0.0041396,2.0996,0.0059794,0.012204,5.9009e-08,0.4,0.9,0
0.020712,-0.0074838,0.013784,9.2127e-06,0.0041378,0.00051944,0,0,0.050158,-0.021469,0,0.0054022,0,0,0,0.013803,-1.0348e-05,0.0041378,2.1566,0.0059768,0.012277,5.9748e-08,0.42,0.9,0
0.021717,-0.0074564,0.013828,-3.4915e-05,0.0041378,0.0005206,0,0,0.050387,-0.021698,0,0.0054142,0,0,0,0.013847,-5.4438e-05,0.0041378,2.1477,0.0059769,0.012351,6.0528e-08,0.44,0.9,0
0.022727,-0.0074238,0.013874,-7.719e-05,0.0041392,0.00050654,0,0,0.050624,-0.021925,0,0.0052681,0,0,0,0.013893,-9.5557e-05,0.0041392,2.0766,0.0059788,0.012425,6.1318e-08,0.46,0.9,0
0.023742,-0.0073896,0.013921,-0.0001167,0.0041414,0.00047808,0,0,0.050856,-0.022142,0,0.004972,0,0,0,0.013938,-0.00013296,0.0041414,1.9483,0.0059821,0.012494,6.2087e-08,0.48,0.9,0
0.024761,-0.0073573,0.013966,-0.00015241,0.0041442,0.00043634,0,0,0.051075,-0.022342,0,0.0045379,0,0,0,0.01398,-0.00016588,0.0041442,1.7685,0.005986,0.012558,6.2803e-08,0.5,0.9,0
0.025785,-0.0073301,0.014007,-0.00018327,0.0041472,0.00038282,0,0,0.051272,-0.022518,0,0.0039813,0,0,0,0.014018,-0.00019359,0.0041472,1.5442,0.0059904,0.012614,6.344e-08,0.52,0.9,0
0.026812,-0.0073106,0.014042,-0.00020829,0.0041502,0.00031937,0,0,0.051439,-0.022664,0,0.0033214,0,0,0,0.014049,-0.00021544,0.0041502,1.2832,0.0059947,0.01266,6.3973e-08,0.54,0.9,0
0.027843,-0.0073011,0.01407,-0.00022663,0.004153,0.00024817,0,0,0.051568,-0.022774,0,0.002581,0,0,0,0.014074,-0.00023093,0.004153,0.99419,0.0059987,0.012694,6.4383e-08,0.56,0.9,0
0.028875,-0.0073033,0.014089,-0.00023769,0.0041554,0.00017164,0,0,0.051655,-0.022844,0,0.0017851,0,0,0,0.014091,-0.00023975,0.0041554,0.6863,0.0060022,0.012716,6.4654e-08,0.58,0.9,0
0.029909,-0.0073186,0.014099,-0.00024117,0.0041573,9.2365e-05,0,0,0.051696,-0.022872,0,0.00096059,0,0,0,0.014099,-0.00024177,0.0041573,0.36902,0.006005,0.012725,6.4778e-08,0.6,0.9,0
0.030943,-0.0073475,0.014099,-0.00023709,0.0041586,1.297e-05,0,0,0.05169,-0.022857,0,0.00013489,0,0,0,0.014099,-0.0002371,0.0041586,0.051835,0.0060069,0.012721,6.4751e-08,0.62,0.9,0
0.031976,-0.0073902,0.01409,-0.00022579,0.0041592,-6.3981e-05,0,0,0.051639,-0.022802,0,-0.0006654,0,0,0,0.01409,-0.00022608,0.0041592,-0.25607,0.0060077,0.012704,6.4576e-08,0.64,0.9,0
0.033008,-0.0074462,0.014071,-0.00020794,0.004159,-0.0001361,0,0,0.051544,-0.022708,0,-0.0014155,0,0,0,0.014072,-0.00020924,0.004159,-0.54605,0.0060074,0.012675,6.4259e-08,0.66,0.9,0
0.034038,-0.0075145,0.014044,-0.00018445,0.004158,-0.0002013,0,0,0.05141,-0.022581,0,-0.0020935,0,0,0,0.014047,-0.0001873,0.004158,-0.81035,0.006006,0.012635,6.3813e-08,0.68,0.9,0
0.035065,-0.0075939,0.014011,-0.00015645,0.0041562,-0.00025782,0,0,0.051242,-0.022426,0,-0.0026813,0,0,0,0.014015,-0.00016114,0.0041562,-1.0423,0.0060034,0.012586,6.3257e-08,0.7,0.9,0
0.036088,-0.0076826,0.013971,-0.00012518,0.0041536,-0.00030436,0,0,0.051048,-0.02225,0,-0.0031653,0,0,0,0.013977,-0.00013175,0.0041536,-1.2364,0.0059997,0.012529,6.2609e-08,0.72,0.9,0
0.037107,-0.0077785,0.013926,-9.1944e-05,0.0041503,-0.00034003,0,0,0.050835,-0.02206,0,-0.0035364,0,0,0,0.013935,-0.00010019,0.0041503,-1.3887,0.0059949,0.012465,6.1893e-08,0.74,0.9,0
0.038121,-0.0078795,0.013879,-5.7974e-05,0.0041463,-0.00036441,0,0,0.05061,-0.021862,0,-0.0037899,0,0,0,0.013889,-6.7496e-05,0.0041463,-1.4968,0.0059892,0.012398,6.1132e-08,0.76,0.9,0
0.039131,-0.0079833,0.01383,-2.4411e-05,0.0041418,-0.00037747,0,0,0.050381,-0.021664,0,-0.0039257,0,0,0,0.013841,-3.4688e-05,0.0041418,-1.5595,0.0059826,0.01233,6.035e-08,0.78,0.9,0
0.040136,-0.0080874,0.013782,7.7663e-06,0.0041368,-0.00037956,0,0,0.050153,-0.021471,0,-0.0039474,0,0,0,0.013792,-2.6849e-06,0.0041368,-1.5773,0.0059754,0.012261,5.9569e-08,0.8,0.9,0
0.041137,-0.0081895,0.013734,3.7773e-05,0.0041315,-0.0003713,0,0,0.049933,-0.021288,0,-0.0038615,0,0,0,0.013744,2.7715e-05,0.0041315,-1.5517,0.0059678,0.012194,5.8811e-08,0.82,0.9,0
0.042134,-0.0082875,0.013689,6.5028e-05,0.0041262,-0.00035356,0,0,0.049726,-0.021118,0,-0.003677,0,0,0,0.013698,5.5859e-05,0.0041262,-1.4856,0.00596,0.012131,5.8092e-08,0.84,0.9,0
0.043126,-0.0083791,0.013647,8.9146e-05,0.0041209,-0.00032735,0,0,0.049536,-0.020965,0,-0.0034044,0,0,0,0.013655,8.1247e-05,0.0041209,-1.3823,0.0059524,0.012072,5.7429e-08,0.86,0.9,0
0.044115,-0.0084625,0.01361,0.00010992,0.0041158,-0.00029378,0,0,0.049367,-0.020831,0,-0.0030554,0,0,0,0.013616,0.00010353,0.0041158,-1.2461,0.0059451,0.01202,5.6834e-08,0.88,0.9,0
0.045101,-0.008536,0.013577,0.00012727,0.0041112,-0.00025399,0,0,0.049221,-0.020717,0,-0.0026415,0,0,0,0.013582,0.00012248,0.0041112,-1.0815,0.0059384,0.011974,5.6318e-08,0.9,0.9,0
0.046084,-0.0085982,0.013549,0.00014124,0.0041072,-0.00020911,0,0,0.0491,-0.020623,0,-0.0021748,0,0,0,0.013553,0.00013798,0.0041072,-0.89328,0.0059326,0.011936,5.5887e-08,0.92,0.9,0
0.047065,-0.0086478,0.013528,0.00015193,0.0041039,-0.00016024,0,0,0.049004,-0.02055,0,-0.0016665,0,0,0,0.01353,0.00015001,0.0041039,-0.68625,0.0059279,0.011906,5.5547e-08,0.94,0.9,0
0.048044,-0.0086839,0.013512,0.00015945,0.0041015,-0.00010843,0,0,0.048936,-0.020499,0,-0.0011277,0,0,0,0.013513,0.00015857,0.0041015,-0.46522,0.0059244,0.011884,5.5302e-08,0.96,0.9,0
0.049022,-0.0087058,0.013503,0.00016391,0.0041,-5.4691e-05,0,0,0.048894,-0.020468,0,-0.00056879,0,0,0,0.013503,0.00016368,0.0041,-0.23492,0.0059222,0.011871,5.5155e-08,0.98,0.9,0
0.05,-0.0087131,0.0135,0.00016538,0.0040995,-3.5355e-05,0,0,0.04888,-0.020457,0,-0.00036769,0,0,0,0.0135,0.00016529,0.0040995,-0.15191,0.0059215,0.011867,5.5107e-08,1,0.9,0
0,0,0.014904,0.0063874,0.0063874,-0.0041351,0,0,0.044286,-8.6736e-19,0,-0.043005,0,0,0,0.016581,0.00471,0.0063874,-22.08,0.0092263,0.011128,6.5383e-08,0,0.92,0
0.00088572,-0.0008601,0.014785,0.0051866,0.0059915,-0.0040297,0,0,0.045726,-0.0041852,0,-0.041909,0,0,0,0.016252,0.0037192,0.0059915,-20.009,0.0086543,0.011566,6.9233e-08,0.02,0.92,0
0.001829,-0.0017527,0.015007,0.0039445,0.0056854,-0.0038106,0,0,0.048472,-0.009053,0,-0.03963,0,0,0,0.016192,0.0027589,0.0056854,-17.282,0.0082123,0.012236,7.6246e-08,0.04,0.92,0
0.0028246,-0.0026263,0.015126,0.0028609,0.005396,-0.0033509,0,0,0.050595,-0.013183,0,-0.034849,0,0,0,0.015982,0.0020051,0.005396,-14.326,0.0077942,0.012627,7.8814e-08,0.06,0.92,0
0.0038528,-0.0034401,0.015099,0.0020691,0.0051503,-0.0027855,0,0,0.051731,-0.016022,0,-0.02897,0,0,0,0.015669,0.0014986,0.0051503,-11.575,0.0074393,0.012743,7.7596e-08,0.08,0.92,0
0.0048938,-0.0041744,0.014946,0.0015309,0.0049429,-0.0022379,0,0,0.052013,-0.017743,0,-0.023275,0,0,0,0.015309,0.0011673,0.0049429,-9.2258,0.0071397,0.012683,7.4317e-08,0.1,0.92,0
0.0059334,-0.0048244,0.014718,0.0011587,0.004763,-0.0017591,0,0,0.051767,-0.018743,0,-0.018294,0,0,0,0.014943,0.00093419,0.004763,-7.2726,0.00688,0.01254,7.0364e-08,0.12,0.92,0
0.0069645,-0.0053932,0.014473,0.00089801,0.0046113,-0.0013578,0,0,0.051281,-0.019309,0,-0.014121,0,0,0,0.014608,0.00076353,0.0046113,-5.6562,0.0066608,0.012377,6.6595e-08,0.14,0.92,0
0.0079846,-0.0058867,0.014241,0.00071149,0.0044858,-0.0010255,0,0,0.050728,-0.019626,0,-0.010665,0,0,0,0.014318,0.0006342,0.0044858,-4.3101,0.0064795,0.012222,6.3341e-08,0.16,0.92,0
0.0089936,-0.0063111,0.014037,0.00057494,0.0043837,-0.00075019,0,0,0.050199,-0.019806,0,-0.007802,0,0,0,0.014079,0.00053326,0.0043837,-3.1797,0.006332,0.01209,6.0687e-08,0.18,0.92,0
0.0099926,-0.0066725,0.013867,0.00047245,0.0043019,-0.00052067,0,0,0.04974,-0.019913,0,-0.0054149,0,0,0,0.013887,0.00045225,0.0043019,-2.2227,0.0062138,0.011983,5.8611e-08,0.2,0.92,0
0.010983,-0.0069767,0.013731,0.00039343,0.0042373,-0.0003279,0,0,0.049367,-0.019988,0,-0.0034102,0,0,0,0.013739,0.00038538,0.0042373,-1.4075,0.0061206,0.011905,5.7055e-08,0.22,0.92,0
0.011967,-0.0072288,0.013627,0.00033067,0.0041874,-0.00016498,0,0,0.049087,-0.020055,0,-0.0017158,0,0,0,0.013629,0.00032863,0.0041874,-0.71075,0.0060484,0.011852,5.5952e-08,0.24,0.92,0
0.012947,-0.0074339,0.013553,0.00027916,0.0041497,-2.6726e-05,0,0,0.048898,-0.020127,0,-0.00027795,0,0,0,0.013553,0.0002791,0.0041497,-0.11536,0.005994,0.011824,5.5244e-08,0.26,0.92,0
0.013923,-0.0075966,0.013506,0.00023533,0.0041224,9.0587e-05,0,0,0.048794,-0.020213,0,0.0009421,0,0,0,0.013506,0.00023472,0.0041224,0.39109,0.0059545,0.011818,5.4873e-08,0.28,0.92,0
0.014899,-0.0077215,0.013482,0.00019665,0.0041037,0.00018961,0,0,0.048768,-0.020316,0,0.0019719,0,0,0,0.013485,0.00019395,0.0041037,0.81749,0.0059275,0.011831,5.4795e-08,0.3,0.92,0
0.015874,-0.0078127,0.013479,0.00016128,0.0040921,0.00027215,0,0,0.048813,-0.020441,0,0.0028303,0,0,0,0.013485,0.00015572,0.0040921,1.1702,0.0059109,0.011861,5.4967e-08,0.32,0.92,0
0.016851,-0.0078747,0.013494,0.00012792,0.0040866,0.00033939,0,0,0.048918,-0.020585,0,0.0035296,0,0,0,0.013503,0.0001193,0.0040866,1.4536,0.0059028,0.011906,5.5351e-08,0.34,0.92,0
0.017831,-0.0079115,0.013524,9.5686e-05,0.0040858,0.00039208,0,0,0.049077,-0.020748,0,0.0040777,0,0,0,0.013535,8.4247e-05,0.0040858,1.6711,0.0059017,0.011963,5.5911e-08,0.36,0.92,0
0.018814,-0.0079272,0.013565,6.4082e-05,0.0040888,0.00043068,0,0,0.049278,-0.020929,0,0.0044791,0,0,0,0.013579,5.0358e-05,0.0040888,1.8252,0.0059061,0.012029,5.6614e-08,0.38,0.92,0
0.019802,-0.0079261,0.013617,3.29e-05,0.0040948,0.00045547,0,0,0.049513,-0.021122,0,0.0047369,0,0,0,0.013632,1.7645e-05,0.0040948,1.9183,0.0059147,0.012102,5.7425e-08,0.4,0.92,0
0.020795,-0.0079119,0.013674,2.206e-06,0.004103,0.00046671,0,0,0.049771,-0.021324,0,0.0048538,0,0,0,0.01369,-1.3707e-05,0.004103,1.9528,0.0059265,0.012179,5.831e-08,0.42,0.92,0
0.021793,-0.0078888,0.013736,-2.7702e-05,0.0041125,0.00046474,0,0,0.050042,-0.021529,0,0.0048333,0,0,0,0.013752,-4.3377e-05,0.0041125,1.9317,0.0059403,0.012257,5.9236e-08,0.44,0.92,0
0.022796,-0.0078603,0.013799,-5.634e-05,0.0041229,0.00045002,0,0,0.050317,-0.021732,0,0.0046802,0,0,0,0.013814,-7.0941e-05,0.0041229,1.8583,0.0059553,0.012335,6.0168e-08,0.46,0.92,0
0.023805,-0.0078302,0.013861,-8.3087e-05,0.0041335,0.00042326,0,0,0.050585,-0.021926,0,0.0044019,0,0,0,0.013874,-9.5922e-05,0.0041335,1.737,0.0059706,0.012408,6.1074e-08,0.48,0.92,0
0.02482,-0.0078017,0.01392,-0.00010724,0.0041438,0.00038546,0,0,0.050836,-0.022106,0,0.0040088,0,0,0,0.013931,-0.00011782,0.0041438,1.5729,0.0059855,0.012476,6.1922e-08,0.5,0.92,0
0.025839,-0.0077777,0.013973,-0.00012808,0.0041535,0.00033788,0,0,0.051062,-0.022264,0,0.0035139,0,0,0,0.013981,-0.00013617,0.0041535,1.3718,0.0059995,0.012536,6.2683e-08,0.52,0.92,0
0.026862,-0.0077609,0.014019,-0.00014495,0.0041621,0.00028209,0,0,0.051255,-0.022397,0,0.0029337,0,0,0,0.014024,-0.00015056,0.0041621,1.1405,0.006012,0.012586,6.3332e-08,0.54,0.92,0
0.027889,-0.0077535,0.014056,-0.00015727,0.0041695,0.00021991,0,0,0.051407,-0.022499,0,0.0022871,0,0,0,0.014059,-0.00016067,0.0041695,0.88625,0.0060226,0.012624,6.3846e-08,0.56,0.92,0
0.028918,-0.0077571,0.014082,-0.00016464,0.0041753,0.00015339,0,0,0.051516,-0.022567,0,0.0015953,0,0,0,0.014084,-0.00016629,0.0041753,0.61679,0.0060309,0.012651,6.4211e-08,0.58,0.92,0
0.02995,-0.007773,0.014098,-0.00016686,0.0041793,8.467e-05,0,0,0.051577,-0.0226,0,0.00088057,0,0,0,0.014098,-0.00016736,0.0041793,0.34007,0.0060368,0.012665,6.4415e-08,0.6,0.92,0
0.030981,-0.0078017,0.014103,-0.00016393,0.0041816,1.5953e-05,0,0,0.051589,-0.022596,0,0.00016591,0,0,0,0.014103,-0.00016395,0.0041816,0.064068,0.00604,0.012666,6.4454e-08,0.62,0.92,0
0.032013,-0.0078435,0.014096,-0.00015608,0.004182,-5.0621e-05,0,0,0.051553,-0.022558,0,-0.00052645,0,0,0,0.014096,-0.00015626,0.004182,-0.2035,0.0060406,0.012654,6.4331e-08,0.64,0.92,0
0.033044,-0.0078978,0.014079,-0.00014377,0.0041805,-0.00011305,0,0,0.051471,-0.022486,0,-0.0011757,0,0,0,0.01408,-0.00014467,0.0041805,-0.4554,0.0060385,0.01263,6.4052e-08,0.66,0.92,0
0.034072,-0.0079639,0.014052,-0.00012761,0.0041773,-0.00016958,0,0,0.051348,-0.022385,0,-0.0017636,0,0,0,0.014054,-0.00012963,0.0041773,-0.68509,0.0060338,0.012595,6.3631e-08,0.68,0.92,0
0.035097,-0.0080405,0.014016,-0.00010835,0.0041724,-0.00021872,0,0,0.051188,-0.02226,0,-0.0022747,0,0,0,0.01402,-0.00011174,0.0041724,-0.88695,0.0060267,0.01255,6.3085e-08,0.7,0.92,0
0.036119,-0.008126,0.013973,-8.6854e-05,0.004166,-0.00025935,0,0,0.050999,-0.022115,0,-0.0026973,0,0,0,0.013978,-9.1637e-05,0.004166,-1.0564,0.0060175,0.012497,6.2435e-08,0.72,0.92,0
0.037137,-0.0082185,0.013925,-6.398e-05,0.0041583,-0.00029071,0,0,0.050787,-0.021956,0,-0.0030234,0,0,0,0.013931,-7.0019e-05,0.0041583,-1.19,0.0060064,0.012438,6.1704e-08,0.74,0.92,0
0.038151,-0.008316,0.013872,-4.0578e-05,0.0041496,-0.00031239,0,0,0.050559,-0.021789,0,-0.0032489,0,0,0,0.013879,-4.7589e-05,0.0041496,-1.2856,0.0059938,0.012374,6.0919e-08,0.76,0.92,0
0.03916,-0.0084161,0.013817,-1.7425e-05,0.00414,-0.00032435,0,0,0.050323,-0.021619,0,-0.0033732,0,0,0,0.013825,-2.5025e-05,0.00414,-1.3423,0.00598,0.012308,6.0103e-08,0.78,0.92,0
0.040164,-0.0085166,0.013762,4.8077e-06,0.00413,-0.00032682,0,0,0.050085,-0.021451,0,-0.0033989,0,0,0,0.01377,-2.9518e-06,0.00413,-1.3601,0.0059655,0.012241,5.928e-08,0.8,0.92,0
0.041163,-0.0086154,0.013707,2.5577e-05,0.0041197,-0.00032031,0,0,0.049853,-0.02129,0,-0.0033313,0,0,0,0.013714,1.8082e-05,0.0041197,-1.3404,0.0059507,0.012175,5.8474e-08,0.82,0.92,0
0.042158,-0.0087101,0.013654,4.4476e-05,0.0041096,-0.00030554,0,0,0.049632,-0.021139,0,-0.0031776,0,0,0,0.013661,3.762e-05,0.0041096,-1.2854,0.0059361,0.012112,5.7705e-08,0.84,0.92,0
0.043148,-0.0087989,0.013605,6.1232e-05,0.0040998,-0.00028333,0,0,0.049426,-0.021001,0,-0.0029467,0,0,0,0.013611,5.5307e-05,0.0040998,-1.1979,0.005922,0.012053,5.699e-08,0.86,0.92,0
0.044135,-0.0088798,0.01356,7.5689e-05,0.0040907,-0.00025463,0,0,0.049241,-0.020878,0,-0.0026482,0,0,0,0.013565,7.0882e-05,0.0040907,-1.0814,0.0059089,0.012,5.6344e-08,0.88,0.92,0
0.045118,-0.0089511,0.013521,8.779e-05,0.0040826,-0.00022041,0,0,0.049079,-0.020773,0,-0.0022923,0,0,0,0.013524,8.4175e-05,0.0040826,-0.93978,0.005897,0.011954,5.5779e-08,0.9,0.92,0
0.046098,-0.0090115,0.013488,9.7549e-05,0.0040755,-0.00018165,0,0,0.048943,-0.020686,0,-0.0018891,0,0,0,0.01349,9.5085e-05,0.0040755,-0.77707,0.0058869,0.011914,5.5306e-08,0.92,0.92,0
0.047076,-0.0090597,0.013461,0.00010502,0.0040699,-0.0001393,0,0,0.048835,-0.020617,0,-0.0014487,0,0,0,0.013463,0.00010357,0.0040699,-0.5975,0.0058787,0.011883,5.4931e-08,0.94,0.92,0
0.048052,-0.0090948,0.013442,0.00011029,0.0040657,-9.4317e-05,0,0,0.048757,-0.020568,0,-0.00098089,0,0,0,0.013443,0.00010962,0.0040657,-0.40531,0.0058727,0.011861,5.466e-08,0.96,0.92,0
0.049026,-0.0091161,0.01343,0.00011341,0.0040632,-4.759e-05,0,0,0.04871,-0.020539,0,-0.00049493,0,0,0,0.013431,0.00011324,0.0040632,-0.20475,0.005869,0.011847,5.4496e-08,0.98,0.92,0
0.05,-0.0091232,0.013427,0.00011445,0.0040623,-3.4394e-05,0,0,0.048694,-0.020529,0,-0.0003577,0,0,0,0.013427,0.00011436,0.0040623,-0.14803,0.0058678,0.011843,5.4442e-08,1,0.92,0
0,0,0.01571,0.0067327,0.0067327,-0.0045916,0,0,0.04668,4.3368e-19,0,-0.047753,0,0,0,0.017642,0.0048002,0.0067327,-22.825,0.0097251,0.011993,8.0896e-08,0,0.94,0
0.00093361,-0.00095505,0.0155,0.0050365,0.0061608,-0.0043691,0,0,0.048562,-0.0058465,0,-0.045438,0,0,0,0.017084,0.003452,0.0061608,-19.933,0.008899,0.0125,8.4642e-08,0.02,0.94,0
0.0019425,-0.0019575,0.015657,0.0033374,0.0056983,-0.0039644,0,0,0.051785,-0.012277,0,-0.04123,0,0,0,0.016823,0.002172,0.0056983,-16.383,0.0082309,0.013244,9.141e-08,0.04,0.94,0
0.003005,-0.0029186,0.015645,0.0021385,0.005335,-0.0032352,0,0,0.053611,-0.016622,0,-0.033646,0,0,0,0.01638,0.0014036,0.005335,-12.799,0.0077061,0.013449,8.9874e-08,0.06,0.94,0
0.0040869,-0.0037869,0.015422,0.0014612,0.005065,-0.0025091,0,0,0.053857,-0.01874,0,-0.026095,0,0,0,0.015859,0.0010239,0.005065,-9.8855,0.0073161,0.013284,8.3904e-08,0.08,0.94,0
0.0051593,-0.0045499,0.015039,0.0010319,0.0048212,-0.0019055,0,0,0.053131,-0.019704,0,-0.019817,0,0,0,0.015293,0.00077733,0.0048212,-7.6104,0.0069639,0.012975,7.6558e-08,0.1,0.94,0
0.0062121,-0.0052146,0.01464,0.00075598,0.0046187,-0.0014349,0,0,0.05211,-0.020086,0,-0.014923,0,0,0,0.014787,0.00060924,0.0046187,-5.8392,0.0066715,0.012658,7.0021e-08,0.12,0.94,0
0.0072437,-0.0057903,0.014281,0.00057189,0.0044557,-0.0010692,0,0,0.051089,-0.020196,0,-0.011119,0,0,0,0.014363,0.000489,0.0044557,-4.4329,0.0064361,0.012377,6.4734e-08,0.14,0.94,0
0.0082557,-0.0062868,0.013979,0.0004452,0.0043273,-0.00078195,0,0,0.050189,-0.020187,0,-0.0081323,0,0,0,0.014024,0.00040017,0.0043273,-3.2957,0.0062505,0.012146,6.0646e-08,0.16,0.94,0
0.0092513,-0.0067123,0.013737,0.00035518,0.0042276,-0.00055254,0,0,0.049448,-0.020137,0,-0.0057464,0,0,0,0.01376,0.0003324,0.0042276,-2.3605,0.0061065,0.011965,5.757e-08,0.18,0.94,0
0.010234,-0.0070741,0.013549,0.00028918,0.0041515,-0.00036623,0,0,0.048868,-0.020084,0,-0.0038088,0,0,0,0.013559,0.00027907,0.0041515,-1.5809,0.0059966,0.011829,5.5318e-08,0.2,0.94,0
0.011206,-0.0073784,0.01341,0.0002392,0.0040947,-0.00021267,0,0,0.048439,-0.020049,0,-0.0022118,0,0,0,0.013413,0.00023577,0.0040947,-0.92484,0.0059146,0.011734,5.3733e-08,0.22,0.94,0
0.012171,-0.0076309,0.013313,0.00020005,0.0040538,-8.4639e-05,0,0,0.048146,-0.020039,0,-0.00088024,0,0,0,0.013313,0.0001995,0.0040538,-0.36981,0.0058555,0.011674,5.2693e-08,0.24,0.94,0
0.013132,-0.0078368,0.013252,0.00016824,0.004026,2.288e-05,0,0,0.047974,-0.02006,0,0.00023795,0,0,0,0.013252,0.0001682,0.004026,0.1002,0.0058154,0.011644,5.2102e-08,0.26,0.94,0
0.01409,-0.0080007,0.013222,0.00014137,0.0040091,0.00011336,0,0,0.047909,-0.020112,0,0.001179,0,0,0,0.013223,0.00014038,0.0040091,0.49647,0.005791,0.011641,5.1886e-08,0.28,0.94,0
0.015048,-0.0081273,0.01322,0.00011774,0.0040012,0.00018917,0,0,0.047936,-0.020194,0,0.0019674,0,0,0,0.013222,0.00011501,0.0040012,0.82701,0.0057796,0.011661,5.1986e-08,0.3,0.94,0
0.016008,-0.0082208,0.01324,9.6169e-05,0.0040008,0.00025188,0,0,0.048043,-0.020304,0,0.0026195,0,0,0,0.013245,9.1344e-05,0.0040008,1.0975,0.0057789,0.011699,5.235e-08,0.32,0.94,0
0.01697,-0.0082854,0.013279,7.5825e-05,0.0040064,0.0003025,0,0,0.048216,-0.020439,0,0.003146,0,0,0,0.013286,6.8898e-05,0.0040064,1.3118,0.005787,0.011754,5.2938e-08,0.34,0.94,0
0.017936,-0.0083253,0.013333,5.6157e-05,0.0040168,0.00034164,0,0,0.048445,-0.020595,0,0.0035531,0,0,0,0.013342,4.7371e-05,0.0040168,1.473,0.005802,0.011821,5.3708e-08,0.36,0.94,0
0.018908,-0.0083445,0.0134,3.6844e-05,0.004031,0.00036968,0,0,0.048717,-0.020769,0,0.0038446,0,0,0,0.01341,2.6625e-05,0.004031,1.5835,0.0058225,0.011898,5.4625e-08,0.38,0.94,0
0.019885,-0.008347,0.013475,1.7764e-05,0.0040479,0.00038683,0,0,0.049022,-0.020956,0,0.0040231,0,0,0,0.013486,6.6531e-06,0.0040479,1.6452,0.0058469,0.011982,5.5653e-08,0.4,0.94,0
0.020869,-0.0083368,0.013556,-1.0391e-06,0.0040666,0.00039332,0,0,0.049347,-0.021152,0,0.0040905,0,0,0,0.013568,-1.244e-05,0.0040666,1.6604,0.005874,0.012069,5.6754e-08,0.42,0.94,0
0.021859,-0.0083176,0.01364,-1.9375e-05,0.0040863,0.00038938,0,0,0.049681,-0.02135,0,0.0040495,0,0,0,0.013652,-3.0466e-05,0.0040863,1.6315,0.0059025,0.012158,5.7893e-08,0.44,0.94,0
0.022856,-0.008293,0.013725,-3.6941e-05,0.0041063,0.0003754,0,0,0.050015,-0.021545,0,0.0039042,0,0,0,0.013735,-4.7174e-05,0.0041063,1.5615,0.0059313,0.012245,5.9034e-08,0.46,0.94,0
0.023859,-0.0082666,0.013806,-5.3347e-05,0.0041257,0.00035195,0,0,0.050336,-0.021731,0,0.0036603,0,0,0,0.013815,-6.2279e-05,0.0041257,1.4538,0.0059594,0.012329,6.014e-08,0.48,0.94,0
0.024869,-0.0082415,0.013882,-6.816e-05,0.0041441,0.00031981,0,0,0.050636,-0.021904,0,0.003326,0,0,0,0.013889,-7.5487e-05,0.0041441,1.3126,0.0059859,0.012405,6.1177e-08,0.5,0.94,0
0.025885,-0.0082206,0.01395,-8.0932e-05,0.0041608,0.00027999,0,0,0.050905,-0.022057,0,0.0029119,0,0,0,0.013956,-8.6517e-05,0.0041608,1.1427,0.0060101,0.012473,6.2112e-08,0.52,0.94,0
0.026905,-0.0082064,0.014009,-9.125e-05,0.0041754,0.00023374,0,0,0.051136,-0.022187,0,0.0024309,0,0,0,0.014013,-9.5123e-05,0.0041754,0.94945,0.0060311,0.012531,6.2918e-08,0.54,0.94,0
0.02793,-0.008201,0.014057,-9.8763e-05,0.0041875,0.00018252,0,0,0.051321,-0.022288,0,0.0018982,0,0,0,0.014059,-0.00010112,0.0041875,0.7386,0.0060486,0.012577,6.357e-08,0.56,0.94,0
0.028958,-0.008206,0.014092,-0.00010322,0.0041968,0.00012793,0,0,0.051457,-0.02236,0,0.0013305,0,0,0,0.014094,-0.00010437,0.0041968,0.5163,0.006062,0.01261,6.405e-08,0.58,0.94,0
0.029989,-0.0082226,0.014115,-0.00010449,0.0042031,7.1691e-05,0,0,0.051541,-0.022399,0,0.00074559,0,0,0,0.014115,-0.00010485,0.0042031,0.28887,0.0060711,0.01263,6.4346e-08,0.6,0.94,0
0.03102,-0.0082514,0.014124,-0.00010258,0.0042063,1.5545e-05,0,0,0.05157,-0.022406,0,0.00016167,0,0,0,0.014124,-0.0001026,0.0042063,0.062608,0.0060758,0.012635,6.4453e-08,0.62,0.94,0
0.032051,-0.0082925,0.014119,-9.7638e-05,0.0042065,-3.8803e-05,0,0,0.051547,-0.022382,0,-0.00040355,0,0,0,0.01412,-9.7744e-05,0.0042065,-0.15638,0.0060761,0.012628,6.4371e-08,0.64,0.94,0
0.033082,-0.0083456,0.014102,-8.9925e-05,0.0042037,-8.9763e-05,0,0,0.051473,-0.022327,0,-0.00093353,0,0,0,0.014103,-9.0493e-05,0.0042037,-0.36236,0.006072,0.012607,6.4111e-08,0.66,0.94,0
0.03411,-0.0084099,0.014074,-7.9829e-05,0.0041981,-0.00013592,0,0,0.051352,-0.022245,0,-0.0014136,0,0,0,0.014075,-8.1134e-05,0.0041981,-0.55017,0.006064,0.012575,6.3686e-08,0.68,0.94,0
0.035136,-0.0084843,0.014034,-6.7817e-05,0.00419,-0.0001761,0,0,0.051191,-0.022141,0,-0.0018315,0,0,0,0.014037,-7.0015e-05,0.00419,-0.71535,0.0060522,0.012532,6.3116e-08,0.7,0.94,0
0.036158,-0.0085672,0.013986,-5.4407e-05,0.0041796,-0.0002094,0,0,0.050995,-0.022017,0,-0.0021777,0,0,0,0.013989,-5.7529e-05,0.0041796,-0.85423,0.0060371,0.01248,6.2424e-08,0.72,0.94,0
0.037176,-0.0086567,0.013931,-4.0137e-05,0.0041673,-0.00023518,0,0,0.050772,-0.021879,0,-0.0024458,0,0,0,0.013935,-4.4095e-05,0.0041673,-0.96409,0.0060194,0.012421,6.1637e-08,0.74,0.94,0
0.038189,-0.0087511,0.013871,-2.5533e-05,0.0041535,-0.00025311,0,0,0.050529,-0.021731,0,-0.0026324,0,0,0,0.013875,-3.0142e-05,0.0041535,-1.0432,0.0059996,0.012357,6.0783e-08,0.76,0.94,0
0.039197,-0.008848,0.013807,-1.1076e-05,0.0041388,-0.00026314,0,0,0.050274,-0.021579,0,-0.0027367,0,0,0,0.013812,-1.6085e-05,0.0041388,-1.0906,0.0059782,0.012289,5.989e-08,0.78,0.94,0
0.0402,-0.0089454,0.013742,2.8175e-06,0.0041234,-0.00026545,0,0,0.050016,-0.021427,0,-0.0027607,0,0,0,0.013747,-2.3095e-06,0.0041234,-1.1065,0.005956,0.01222,5.8985e-08,0.8,0.94,0
0.041197,-0.0090411,0.013677,1.5807e-05,0.0041079,-0.00026044,0,0,0.04976,-0.021279,0,-0.0027086,0,0,0,0.013682,1.0844e-05,0.0041079,-1.0918,0.0059336,0.012152,5.8094e-08,0.82,0.94,0
0.04219,-0.009133,0.013614,2.7638e-05,0.0040926,-0.00024866,0,0,0.049514,-0.021138,0,-0.0025861,0,0,0,0.013619,2.3088e-05,0.0040926,-1.0481,0.0059116,0.012086,5.724e-08,0.84,0.94,0
0.043178,-0.0092191,0.013556,3.8136e-05,0.0040781,-0.00023078,0,0,0.049283,-0.021008,0,-0.0024002,0,0,0,0.01356,3.4197e-05,0.0040781,-0.97782,0.0058906,0.012025,5.6443e-08,0.86,0.94,0
0.044161,-0.0092976,0.013502,4.7202e-05,0.0040647,-0.00020756,0,0,0.049073,-0.020891,0,-0.0021586,0,0,0,0.013505,4.4001e-05,0.0040647,-0.88359,0.0058713,0.011968,5.5721e-08,0.88,0.94,0
0.045141,-0.0093669,0.013454,5.4797e-05,0.0040528,-0.00017978,0,0,0.048889,-0.020789,0,-0.0018697,0,0,0,0.013457,5.2385e-05,0.0040528,-0.76852,0.005854,0.011919,5.5088e-08,0.9,0.94,0
0.046117,-0.0094256,0.013414,6.0926e-05,0.0040426,-0.00014824,0,0,0.048733,-0.020705,0,-0.0015417,0,0,0,0.013416,5.9281e-05,0.0040426,-0.63594,0.0058393,0.011877,5.4556e-08,0.92,0.94,0
0.04709,-0.0094725,0.013382,6.5623e-05,0.0040344,-0.00011373,0,0,0.048609,-0.020637,0,-0.0011828,0,0,0,0.013383,6.4651e-05,0.0040344,-0.48928,0.0058274,0.011844,5.4134e-08,0.94,0.94,0
0.048061,-0.0095066,0.013359,6.8932e-05,0.0040284,-7.7024e-05,0,0,0.048519,-0.020589,0,-0.00080105,0,0,0,0.013359,6.8486e-05,0.0040284,-0.33205,0.0058188,0.011819,5.3828e-08,0.96,0.94,0
0.049031,-0.0095273,0.013345,7.0898e-05,0.0040247,-3.8871e-05,0,0,0.048465,-0.02056,0,-0.00040426,0,0,0,0.013345,7.0784e-05,0.0040247,-0.16778,0.0058135,0.011805,5.3642e-08,0.98,0.94,0
0.05,-0.0095343,0.01334,7.1549e-05,0.0040235,-3.3463e-05,0,0,0.048446,-0.02055,0,-0.00034802,0,0,0,0.01334,7.1465e-05,0.0040235,-0.1445,0.0058117,0.0118,5.3581e-08,1,0.94,0
0,0,0.01726,0.007397,0.007397,-0.0052594,0,0,0.051286,-8.6736e-19,0,-0.054698,0,0,0,0.019538,0.0051187,0.007397,-23.422,0.010685,0.013426,1.1233e-07,0,0.96,0
0.0010257,-0.001094,0.016623,0.0044374,0.0063181,-0.0047446,0,0,0.053586,-0.0097798,0,-0.049344,0,0,0,0.018253,0.0028079,0.0063181,-18.954,0.0091262,0.014023,1.1227e-07,0.02,0.96,0
0.0021434,-0.0022438,0.016599,0.0021547,0.0056263,-0.0037633,0,0,0.057061,-0.018052,0,-0.039138,0,0,0,0.017521,0.001233,0.0056263,-13.761,0.0081268,0.014596,1.1229e-07,0.04,0.96,0
0.0033082,-0.0032911,0.016359,0.0013616,0.0053163,-0.002722,0,0,0.057424,-0.020564,0,-0.028309,0,0,0,0.016838,0.00088281,0.0053163,-9.9752,0.007679,0.014265,1.0198e-07,0.06,0.96,0
0.0044404,-0.0041897,0.015625,0.00087215,0.0049492,-0.0019213,0,0,0.055515,-0.021201,0,-0.019982,0,0,0,0.015871,0.00062604,0.0049492,-7.2996,0.0071488,0.013609,8.6772e-08,0.08,0.96,0
0.0055288,-0.0049625,0.014927,0.00059085,0.0046553,-0.0013767,0,0,0.053413,-0.021135,0,-0.014318,0,0,0,0.015058,0.00045984,0.0046553,-5.436,0.0067244,0.013018,7.4895e-08,0.1,0.96,0
0.0065769,-0.0056278,0.01435,0.00041894,0.0044307,-0.00099362,0,0,0.051581,-0.020861,0,-0.010334,0,0,0,0.014421,0.00034843,0.0044307,-4.0591,0.0063999,0.01254,6.6271e-08,0.12,0.96,0
0.007592,-0.0062011,0.013899,0.00030976,0.0042628,-0.00071574,0,0,0.050111,-0.020556,0,-0.0074437,0,0,0,0.013937,0.00027217,0.0042628,-3.0066,0.0061573,0.012171,6.0143e-08,0.14,0.96,0
0.0085813,-0.0066942,0.013556,0.00023731,0.0041381,-0.00050665,0,0,0.048975,-0.020284,0,-0.0052691,0,0,0,0.013576,0.00021806,0.0041381,-2.1753,0.0059773,0.011892,5.5803e-08,0.16,0.96,0
0.009551,-0.0071166,0.013301,0.00018724,0.0040466,-0.00034432,0,0,0.048125,-0.020069,0,-0.0035809,0,0,0,0.01331,0.0001782,0.0040466,-1.5029,0.0058451,0.011688,5.2755e-08,0.18,0.96,0
0.010506,-0.0074759,0.013118,0.00015129,0.0039809,-0.00021493,0,0,0.047515,-0.019914,0,-0.0022353,0,0,0,0.013122,0.00014773,0.0039809,-0.94934,0.0057501,0.011545,5.0664e-08,0.2,0.96,0
0.011452,-0.0077786,0.012994,0.00012449,0.0039356,-0.00010961,0,0,0.047104,-0.019817,0,-0.00114,0,0,0,0.012995,0.00012356,0.0039356,-0.48796,0.0056847,0.011452,4.9304e-08,0.22,0.96,0
0.012391,-0.0080304,0.012918,0.00010374,0.0039067,-2.2548e-05,0,0,0.046862,-0.019775,0,-0.0002345,0,0,0,0.012918,0.0001037,0.0039067,-0.10081,0.005643,0.011399,4.8518e-08,0.24,0.96,0
0.013326,-0.0082363,0.012884,8.7018e-05,0.0038912,5.0139e-05,0,0,0.04676,-0.019782,0,0.00052145,0,0,0,0.012884,8.6822e-05,0.0038912,0.22449,0.0056206,0.011382,4.8195e-08,0.26,0.96,0
0.014261,-0.0084011,0.012883,7.2956e-05,0.0038867,0.00011103,0,0,0.046779,-0.019831,0,0.0011547,0,0,0,0.012884,7.1994e-05,0.0038867,0.49658,0.0056141,0.011394,4.8255e-08,0.28,0.96,0
0.015197,-0.0085292,0.01291,6.062e-05,0.0038913,0.00016184,0,0,0.046899,-0.019919,0,0.0016831,0,0,0,0.012912,5.8582e-05,0.0038913,0.72147,0.0056207,0.01143,4.8633e-08,0.3,0.96,0
0.016137,-0.0086249,0.012962,4.9356e-05,0.0039033,0.00020366,0,0,0.047103,-0.02004,0,0.002118,0,0,0,0.012965,4.6145e-05,0.0039033,0.9034,0.005638,0.011486,4.928e-08,0.32,0.96,0
0.017081,-0.0086922,0.013032,3.8716e-05,0.0039213,0.00023717,0,0,0.047377,-0.020189,0,0.0024666,0,0,0,0.013036,3.4388e-05,0.0039213,1.0454,0.005664,0.01156,5.0153e-08,0.34,0.96,0
0.018032,-0.0087353,0.013118,2.8404e-05,0.003944,0.00026278,0,0,0.047706,-0.020361,0,0.0027329,0,0,0,0.013123,2.3131e-05,0.003944,1.1496,0.0056969,0.011646,5.1212e-08,0.36,0.96,0
0.01899,-0.008758,0.013216,1.8253e-05,0.0039703,0.00028069,0,0,0.048078,-0.02055,0,0.0029192,0,0,0,0.013222,1.2285e-05,0.0039703,1.2179,0.0057348,0.011742,5.242e-08,0.38,0.96,0
0.019955,-0.0087643,0.013322,8.1991e-06,0.003999,0.00029104,0,0,0.048479,-0.020752,0,0.0030269,0,0,0,0.013328,1.8397e-06,0.003999,1.2517,0.0057763,0.011845,5.374e-08,0.4,0.96,0
0.020929,-0.008758,0.013432,-1.7283e-06,0.0040292,0.00029394,0,0,0.048897,-0.020961,0,0.003057,0,0,0,0.013439,-8.1567e-06,0.0040292,1.2528,0.0058199,0.011951,5.5133e-08,0.42,0.96,0
0.021911,-0.0087428,0.013544,-1.1425e-05,0.0040599,0.00028953,0,0,0.049319,-0.021171,0,0.0030112,0,0,0,0.013551,-1.7606e-05,0.0040599,1.223,0.0058642,0.012058,5.656e-08,0.44,0.96,0
0.022902,-0.0087221,0.013654,-2.0724e-05,0.0040901,0.00027808,0,0,0.049734,-0.021376,0,0.002892,0,0,0,0.01366,-2.6377e-05,0.0040901,1.1644,0.0059079,0.012162,5.7982e-08,0.46,0.96,0
0.0239,-0.0086994,0.013759,-2.9416e-05,0.004119,0.00025996,0,0,0.050131,-0.021572,0,0.0027035,0,0,0,0.013764,-3.4315e-05,0.004119,1.0797,0.0059497,0.012261,5.9358e-08,0.48,0.96,0
0.024907,-0.0086778,0.013857,-3.7265e-05,0.0041459,0.00023571,0,0,0.050498,-0.021753,0,0.0024514,0,0,0,0.013861,-4.1262e-05,0.0041459,0.97163,0.0059886,0.012353,6.0649e-08,0.5,0.96,0
0.02592,-0.00866,0.013945,-4.403e-05,0.0041701,0.00020607,0,0,0.050827,-0.021914,0,0.0021431,0,0,0,0.013947,-4.7065e-05,0.0041701,0.84378,0.0060235,0.012434,6.1816e-08,0.52,0.96,0
0.02694,-0.0086484,0.01402,-4.9488e-05,0.004191,0.0001719,0,0,0.051108,-0.022051,0,0.0017877,0,0,0,0.014022,-5.1588e-05,0.004191,0.69991,0.0060537,0.012504,6.2828e-08,0.54,0.96,0
0.027964,-0.008645,0.014081,-5.345e-05,0.0042081,0.00013425,0,0,0.051337,-0.02216,0,0.0013962,0,0,0,0.014082,-5.4725e-05,0.0042081,0.54413,0.0060784,0.01256,6.3654e-08,0.56,0.96,0
0.028993,-0.0086515,0.014126,-5.5782e-05,0.0042211,9.4258e-05,0,0,0.051507,-0.02224,0,0.00098028,0,0,0,0.014127,-5.6408e-05,0.0042211,0.38078,0.0060972,0.012601,6.4274e-08,0.58,0.96,0
0.030025,-0.008669,0.014156,-5.6412e-05,0.0042298,5.3158e-05,0,0,0.051615,-0.022288,0,0.00055285,0,0,0,0.014156,-5.6611e-05,0.0042298,0.2143,0.0061097,0.012627,6.4673e-08,0.6,0.96,0
0.031058,-0.008698,0.014169,-5.5342e-05,0.0042341,1.2196e-05,0,0,0.051661,-0.022305,0,0.00012684,0,0,0,0.014169,-5.5353e-05,0.0042341,0.049127,0.0061159,0.012638,6.4844e-08,0.62,0.96,0
0.032091,-0.0087387,0.014166,-5.2649e-05,0.004234,-2.7408e-05,0,0,0.051646,-0.022291,0,-0.00028504,0,0,0,0.014166,-5.2702e-05,0.004234,-0.11044,0.0061158,0.012633,6.4791e-08,0.64,0.96,0
0.033124,-0.0087909,0.014147,-4.8476e-05,0.0042297,-6.4515e-05,0,0,0.051572,-0.022246,0,-0.00067096,0,0,0,0.014148,-4.8769e-05,0.0042297,-0.26038,0.0061096,0.012614,6.4522e-08,0.66,0.96,0
0.034154,-0.0088537,0.014115,-4.3027e-05,0.0042215,-9.8114e-05,0,0,0.051444,-0.022176,0,-0.0010204,0,0,0,0.014115,-4.3707e-05,0.0042215,-0.39704,0.0060977,0.012581,6.4056e-08,0.68,0.96,0
0.035181,-0.0089262,0.014069,-3.6553e-05,0.0042098,-0.00012736,0,0,0.051269,-0.022081,0,-0.0013245,0,0,0,0.01407,-3.7703e-05,0.0042098,-0.51725,0.0060808,0.012536,6.3416e-08,0.7,0.96,0
0.036205,-0.0090067,0.014013,-2.9331e-05,0.004195,-0.00015159,0,0,0.051052,-0.021966,0,-0.0015765,0,0,0,0.014014,-3.0967e-05,0.004195,-0.61844,0.0060595,0.012481,6.2631e-08,0.72,0.96,0
0.037223,-0.0090937,0.013947,-2.1648e-05,0.0041777,-0.00017037,0,0,0.050803,-0.021837,0,-0.0017718,0,0,0,0.01395,-2.3725e-05,0.0041777,-0.69864,0.0060345,0.012418,6.1733e-08,0.74,0.96,0
0.038237,-0.0091852,0.013876,-1.3785e-05,0.0041586,-0.00018344,0,0,0.050529,-0.021696,0,-0.0019078,0,0,0,0.013878,-1.6207e-05,0.0041586,-0.75656,0.0060068,0.012348,6.0755e-08,0.76,0.96,0
0.039245,-0.0092792,0.0138,-6.0006e-06,0.0041381,-0.00019078,0,0,0.05024,-0.021549,0,-0.0019842,0,0,0,0.013802,-8.6366e-06,0.0041381,-0.79159,0.0059772,0.012275,5.9729e-08,0.78,0.96,0
0.040246,-0.0093737,0.013722,1.4808e-06,0.0041169,-0.00019252,0,0,0.049944,-0.0214,0,-0.0020022,0,0,0,0.013724,-1.22e-06,0.0041169,-0.80375,0.0059467,0.012199,5.8689e-08,0.8,0.96,0
0.041243,-0.0094665,0.013644,8.477e-06,0.0040957,-0.00018893,0,0,0.049651,-0.021254,0,-0.0019649,0,0,0,0.013647,5.8597e-06,0.0040957,-0.79367,0.005916,0.012125,5.7665e-08,0.82,0.96,0
0.042233,-0.0095557,0.013569,1.485e-05,0.004075,-0.00018042,0,0,0.049366,-0.021113,0,-0.0018763,0,0,0,0.013571,1.2449e-05,0.004075,-0.7625,0.0058861,0.012052,5.6682e-08,0.84,0.96,0
0.043217,-0.0096392,0.013498,2.0507e-05,0.0040554,-0.00016747,0,0,0.049099,-0.020981,0,-0.0017418,0,0,0,0.013499,1.8426e-05,0.0040554,-0.71186,0.0058578,0.011984,5.5766e-08,0.86,0.96,0
0.044196,-0.0097154,0.013432,2.5393e-05,0.0040373,-0.00015064,0,0,0.048854,-0.020862,0,-0.0015667,0,0,0,0.013434,2.37e-05,0.0040373,-0.64368,0.0058317,0.011922,5.4935e-08,0.88,0.96,0
0.045171,-0.0097827,0.013375,2.9486e-05,0.0040213,-0.0001305,0,0,0.048638,-0.020757,0,-0.0013571,0,0,0,0.013376,2.821e-05,0.0040213,-0.56019,0.0058085,0.011866,5.4207e-08,0.9,0.96,0
0.046142,-0.0098396,0.013326,3.279e-05,0.0040077,-0.00010761,0,0,0.048456,-0.020669,0,-0.0011191,0,0,0,0.013327,3.1919e-05,0.0040077,-0.46378,0.0057888,0.01182,5.3594e-08,0.92,0.96,0
0.047109,-0.0098852,0.013287,3.5323e-05,0.0039967,-8.2566e-05,0,0,0.04831,-0.020599,0,-0.00085869,0,0,0,0.013288,3.4808e-05,0.0039967,-0.35697,0.005773,0.011782,5.3108e-08,0.94,0.96,0
0.048074,-0.0099183,0.013259,3.7107e-05,0.0039887,-5.5922e-05,0,0,0.048204,-0.020548,0,-0.00058158,0,0,0,0.013259,3.687e-05,0.0039887,-0.24233,0.0057615,0.011755,5.2756e-08,0.96,0.96,0
0.049038,-0.0099385,0.013241,3.8167e-05,0.0039839,-2.8222e-05,0,0,0.048139,-0.020518,0,-0.00029351,0,0,0,0.013241,3.8106e-05,0.0039839,-0.12247,0.0057545,0.011739,5.2542e-08,0.98,0.96,0
0.05,-0.0099452,0.013236,3.8518e-05,0.0039822,-3.2513e-05,0,0,0.048118,-0.020507,0,-0.00033814,0,0,0,0.013236,3.8438e-05,0.0039822,-0.14116,0.0057521,0.011733,5.2472e-08,1,0.96,0
0,0,0.020254,0.0086804,0.0086804,-0.0064723,0,0,0.060184,3.4694e-18,0,-0.067312,0,0,0,0.023149,0.0057851,0.0086804,-24.1,0.012538,0.016113,1.9168e-07,0,0.98,0
0.0012037,-0.0013462,0.018459,0.0018198,0.0060837,-0.0040632,0,0,0.064353,-0.022172,0,-0.042258,0,0,0,0.019398,0.00088059,0.0060837,-13.015,0.0087876,0.016542,1.5729e-07,0.02,0.98,0
0.0025741,-0.0026796,0.018573,0.0014322,0.0060016,-0.0026382,0,0,0.065373,-0.023761,0,-0.027437,0,0,0,0.01897,0.0010353,0.0060016,-8.5546,0.008669,0.016039,1.4543e-07,0.04,0.98,0
0.0038186,-0.0037412,0.016707,0.00076188,0.0052405,-0.0015676,0,0,0.059623,-0.023289,0,-0.016303,0,0,0,0.016859,0.00060923,0.0052405,-5.5619,0.0075696,0.0145,1.0442e-07,0.06,0.98,0
0.004959,-0.004635,0.015344,0.00044877,0.0047378,-0.0010287,0,0,0.055152,-0.022303,0,-0.010698,0,0,0,0.015415,0.00037806,0.0047378,-3.9321,0.0068435,0.0134,8.0907e-08,0.08,0.98,0
0.0060246,-0.0053954,0.014396,0.00028401,0.0044039,-0.00070083,0,0,0.051957,-0.021423,0,-0.0072886,0,0,0,0.01443,0.0002493,0.0044039,-2.8362,0.0063612,0.012627,6.693e-08,0.1,0.98,0
0.0070373,-0.006049,0.013735,0.00019336,0.0041784,-0.00048993,0,0,0.049692,-0.020722,0,-0.0050952,0,0,0,0.013752,0.00017565,0.0041784,-2.0694,0.0060354,0.012083,5.8224e-08,0.12,0.98,0
0.0080123,-0.0066126,0.013268,0.00013934,0.0040222,-0.00034325,0,0,0.048078,-0.020191,0,-0.0035699,0,0,0,0.013277,0.00013037,0.0040222,-1.4967,0.0058098,0.011697,5.2565e-08,0.14,0.98,0
0.0089605,-0.0070982,0.012939,0.00010505,0.0039132,-0.0002358,0,0,0.046934,-0.019803,0,-0.0024523,0,0,0,0.012943,0.00010072,0.0039132,-1.0522,0.0056524,0.011424,4.8812e-08,0.16,0.98,0
0.0098897,-0.0075151,0.012712,8.2057e-05,0.0038383,-0.00015363,0,0,0.046144,-0.019532,0,-0.0015978,0,0,0,0.012714,8.0189e-05,0.0038383,-0.69681,0.0055442,0.011236,4.6337e-08,0.18,0.98,0
0.010806,-0.0078706,0.012564,6.5892e-05,0.0037888,-8.8731e-05,0,0,0.045629,-0.019359,0,-0.0009228,0,0,0,0.012564,6.5262e-05,0.0037888,-0.40676,0.0054728,0.011115,4.4772e-08,0.2,0.98,0
0.011715,-0.0081711,0.012477,5.402e-05,0.0037593,-3.6169e-05,0,0,0.045332,-0.019267,0,-0.00037615,0,0,0,0.012477,5.3914e-05,0.0037593,-0.16681,0.0054301,0.011047,4.389e-08,0.22,0.98,0
0.01262,-0.0084219,0.012441,4.4917e-05,0.0037457,7.1741e-06,0,0,0.045214,-0.019244,0,7.4611e-05,0,0,0,0.012441,4.4913e-05,0.0037457,0.03316,0.0054104,0.011022,4.354e-08,0.24,0.98,0
0.013523,-0.008628,0.012446,3.7624e-05,0.003745,4.3317e-05,0,0,0.045244,-0.019278,0,0.00045049,0,0,0,0.012446,3.7472e-05,0.003745,0.20002,0.0054094,0.011032,4.3623e-08,0.26,0.98,0
0.014429,-0.008794,0.012485,3.1508e-05,0.003755,7.3575e-05,0,0,0.045396,-0.019362,0,0.00076519,0,0,0,0.012486,3.1073e-05,0.003755,0.33849,0.0054238,0.011073,4.4065e-08,0.28,0.98,0
0.015339,-0.0089241,0.012553,2.614e-05,0.0037737,9.8799e-05,0,0,0.045652,-0.019487,0,0.0010275,0,0,0,0.012554,2.5361e-05,0.0037737,0.45186,0.0054509,0.011138,4.4814e-08,0.3,0.98,0
0.016255,-0.0090224,0.012644,2.1227e-05,0.0037996,0.00011952,0,0,0.045992,-0.019648,0,0.001243,0,0,0,0.012645,2.0095e-05,0.0037996,0.54243,0.0054884,0.011223,4.5825e-08,0.32,0.98,0
0.017179,-0.009093,0.012755,1.6566e-05,0.0038313,0.00013605,0,0,0.046401,-0.019837,0,0.0014149,0,0,0,0.012756,1.5113e-05,0.0038313,0.61184,0.0055342,0.011326,4.7059e-08,0.34,0.98,0
0.018111,-0.0091397,0.01288,1.2029e-05,0.0038676,0.00014855,0,0,0.046864,-0.020049,0,0.0015449,0,0,0,0.012882,1.0314e-05,0.0038676,0.66131,0.0055865,0.011441,4.8482e-08,0.36,0.98,0
0.019054,-0.0091665,0.013016,7.5411e-06,0.0039071,0.0001571,0,0,0.047366,-0.020278,0,0.0016339,0,0,0,0.013018,5.644e-06,0.0039071,0.69183,0.0056435,0.011566,5.0057e-08,0.38,0.98,0
0.020006,-0.0091771,0.013159,3.0788e-06,0.0039487,0.00016175,0,0,0.047895,-0.020517,0,0.0016822,0,0,0,0.013161,1.0905e-06,0.0039487,0.70428,0.0057036,0.011697,5.1748e-08,0.4,0.98,0
0.020969,-0.0091752,0.013306,-1.3426e-06,0.0039913,0.00016251,0,0,0.048434,-0.020762,0,0.0016901,0,0,0,0.013308,-3.327e-06,0.0039913,0.69959,0.0057652,0.011831,5.3513e-08,0.42,0.98,0
0.021943,-0.0091644,0.013452,-5.673e-06,0.0040338,0.00015945,0,0,0.048973,-0.021005,0,0.0016583,0,0,0,0.013454,-7.5621e-06,0.0040338,0.67876,0.0058266,0.011964,5.5311e-08,0.44,0.98,0
0.022928,-0.0091481,0.013593,-9.8345e-06,0.0040751,0.00015269,0,0,0.049496,-0.021242,0,0.001588,0,0,0,0.013595,-1.1548e-05,0.0040751,0.643,0.0058863,0.012093,5.7096e-08,0.46,0.98,0
0.023923,-0.0091295,0.013728,-1.3729e-05,0.0041143,0.00014241,0,0,0.049992,-0.021466,0,0.001481,0,0,0,0.01373,-1.5205e-05,0.0041143,0.59367,0.0059429,0.012215,5.8821e-08,0.48,0.98,0
0.024928,-0.0091116,0.013852,-1.7249e-05,0.0041504,0.00012889,0,0,0.050448,-0.021672,0,0.0013405,0,0,0,0.013853,-1.8447e-05,0.0041504,0.53241,0.0059951,0.012328,6.0439e-08,0.5,0.98,0
0.025941,-0.0090972,0.013962,-2.0283e-05,0.0041827,0.00011252,0,0,0.050855,-0.021855,0,0.0011702,0,0,0,0.013963,-2.1188e-05,0.0041827,0.46101,0.0060416,0.012428,6.1906e-08,0.52,0.98,0
0.026962,-0.0090885,0.014057,-2.2727e-05,0.0042103,9.3754e-05,0,0,0.051203,-0.022012,0,0.00097504,0,0,0,0.014058,-2.3352e-05,0.0042103,0.38149,0.0060816,0.012514,6.3178e-08,0.54,0.98,0
0.027989,-0.0090874,0.014134,-2.4496e-05,0.0042328,7.3152e-05,0,0,0.051486,-0.022138,0,0.00076078,0,0,0,0.014134,-2.4875e-05,0.0042328,0.29602,0.0061141,0.012583,6.4222e-08,0.56,0.98,0
0.029021,-0.0090956,0.014191,-2.5528e-05,0.0042498,5.1329e-05,0,0,0.051696,-0.022231,0,0.00053382,0,0,0,0.014191,-2.5713e-05,0.0042498,0.20686,0.0061385,0.012634,6.501e-08,0.58,0.98,0
0.030057,-0.0091141,0.014229,-2.5789e-05,0.0042609,2.8941e-05,0,0,0.051833,-0.022291,0,0.00030099,0,0,0,0.014229,-2.5847e-05,0.0042609,0.11633,0.0061546,0.012667,6.5522e-08,0.6,0.98,0
0.031095,-0.0091436,0.014246,-2.5279e-05,0.0042661,6.6618e-06,0,0,0.051893,-0.022315,0,6.9282e-05,0,0,0,0.014246,-2.5282e-05,0.0042661,0.026746,0.0061621,0.012682,6.5753e-08,0.62,0.98,0
0.032133,-0.0091841,0.014242,-2.4033e-05,0.0042655,-1.4853e-05,0,0,0.05188,-0.022306,0,-0.00015447,0,0,0,0.014242,-2.4049e-05,0.0042655,-0.059652,0.0061613,0.012678,6.5704e-08,0.64,0.98,0
0.03317,-0.0092355,0.01422,-2.2117e-05,0.0042595,-3.499e-05,0,0,0.051797,-0.022264,0,-0.0003639,0,0,0,0.01422,-2.2203e-05,0.0042595,-0.14076,0.0061526,0.012657,6.539e-08,0.66,0.98,0
0.034205,-0.0092969,0.014181,-1.9622e-05,0.0042483,-5.3205e-05,0,0,0.051648,-0.022193,0,-0.00055333,0,0,0,0.014181,-1.9821e-05,0.0042483,-0.21467,0.0061364,0.01262,6.4834e-08,0.68,0.98,0
0.035236,-0.0093675,0.014125,-1.6662e-05,0.0042325,-6.9041e-05,0,0,0.051442,-0.022096,0,-0.00071803,0,0,0,0.014125,-1.6999e-05,0.0042325,-0.27971,0.0061137,0.012569,6.4065e-08,0.7,0.98,0
0.036262,-0.0094458,0.014056,-1.3364e-05,0.0042129,-8.215e-05,0,0,0.051186,-0.021977,0,-0.00085436,0,0,0,0.014057,-1.3844e-05,0.0042129,-0.33452,0.0060853,0.012505,6.3121e-08,0.72,0.98,0
0.037283,-0.0095302,0.013977,-9.8583e-06,0.0041901,-9.2292e-05,0,0,0.050891,-0.02184,0,-0.00095984,0,0,0,0.013977,-1.0467e-05,0.0041901,-0.37805,0.0060523,0.012432,6.2041e-08,0.74,0.98,0
0.038298,-0.0096189,0.013889,-6.2724e-06,0.0041649,-9.9341e-05,0,0,0.050566,-0.02169,0,-0.0010331,0,0,0,0.01389,-6.9825e-06,0.0041649,-0.40959,0.0060159,0.012351,6.0867e-08,0.76,0.98,0
0.039306,-0.00971,0.013796,-2.7239e-06,0.0041381,-0.00010328,0,0,0.050223,-0.021532,0,-0.0010741,0,0,0,0.013797,-3.4968e-06,0.0041381,-0.42879,0.0059772,0.012266,5.964e-08,0.78,0.98,0
0.040307,-0.0098014,0.013701,6.8502e-07,0.0041106,-0.00010418,0,0,0.049871,-0.021371,0,-0.0010834,0,0,0,0.013702,-1.0708e-07,0.0041106,-0.43564,0.0059375,0.012179,5.8398e-08,0.8,0.98,0
0.041301,-0.0098913,0.013606,3.8715e-06,0.0040831,-0.0001022,0,0,0.049521,-0.021212,0,-0.0010629,0,0,0,0.013607,3.1037e-06,0.0040831,-0.43045,0.0058978,0.012092,5.7179e-08,0.82,0.98,0
0.042288,-0.0099775,0.013514,6.773e-06,0.0040564,-9.7563e-05,0,0,0.049182,-0.021058,0,-0.0010146,0,0,0,0.013515,6.0684e-06,0.0040564,-0.41381,0.0058592,0.012008,5.6014e-08,0.84,0.98,0
0.043268,-0.010058,0.013428,9.3471e-06,0.0040311,-9.0535e-05,0,0,0.048862,-0.020913,0,-0.00094156,0,0,0,0.013428,8.7362e-06,0.0040311,-0.38656,0.0058227,0.011928,5.493e-08,0.86,0.98,0
0.044242,-0.010132,0.013348,1.1569e-05,0.004008,-8.1412e-05,0,0,0.04857,-0.020781,0,-0.00084668,0,0,0,0.013349,1.1072e-05,0.004008,-0.34973,0.0057893,0.011856,5.395e-08,0.88,0.98,0
0.045211,-0.010197,0.013278,1.343e-05,0.0039875,-7.0504e-05,0,0,0.048312,-0.020665,0,-0.00073325,0,0,0,0.013279,1.3056e-05,0.0039875,-0.30453,0.0057597,0.011792,5.3093e-08,0.9,0.98,0
0.046175,-0.010252,0.013219,1.4932e-05,0.0039701,-5.8127e-05,0,0,0.048093,-0.020567,0,-0.00060452,0,0,0,0.013219,1.4676e-05,0.0039701,-0.25223,0.0057346,0.011737,5.2374e-08,0.92,0.98,0
0.047135,-0.010296,0.013171,1.6082e-05,0.0039562,-4.4591e-05,0,0,0.047918,-0.020488,0,-0.00046374,0,0,0,0.013171,1.5931e-05,0.0039562,-0.19421,0.0057145,0.011694,5.1805e-08,0.94,0.98,0
0.048092,-0.010328,0.013137,1.6892e-05,0.003946,-3.0197e-05,0,0,0.047791,-0.020431,0,-0.00031405,0,0,0,0.013137,1.6822e-05,0.003946,-0.13187,0.0056998,0.011663,5.1392e-08,0.96,0.98,0
0.049046,-0.010348,0.013116,1.7373e-05,0.0039398,-1.5239e-05,0,0,0.047713,-0.020397,0,-0.00015848,0,0,0,0.013116,1.7355e-05,0.0039398,-0.066659,0.0056909,0.011643,5.1143e-08,0.98,0.98,0
0.05,-0.010355,0.013108,1.7532e-05,0.0039378,-3.1479e-05,0,0,0.047687,-0.020385,0,-0.00032739,0,0,0,0.013109,1.7457e-05,0.0039378,-0.13778,0.0056879,0.011637,5.106e-08,1,0.98,0
0,0,0.033907,0.014532,0.014532,-0.0095233,0,0,0.10075,-6.9389e-18,0,-0.099043,0,0,0,0.037804,0.010634,0.014532,-22.255,0.02099,0.025446,7.7971e-07,0,1,0
0.002015,-0.0019809,0.024373,0.0017285,0.0078306,-0.0037777,0,0,0.086023,-0.031731,0,-0.039288,0,0,0,0.024987,0.0011149,0.0078306,-9.2256,0.011311,0.021323,3.3648e-07,0.02,1,0
0.0034409,-0.0031943,0.018133,0.00070205,0.0056505,-0.0012218,0,0,0.064909,-0.025732,0,-0.012707,0,0,0,0.018218,0.00061682,0.0056505,-3.9901,0.0081619,0.015702,1.3212e-07,0.04,1,0
0.0046114,-0.0042227,0.015253,-7.6847e-05,0.004553,-0.0007258,0,0,0.055643,-0.024075,0,-0.0075483,0,0,0,0.015288,-0.00011113,0.004553,-2.7045,0.0065765,0.013677,8.1739e-08,0.06,1,0
0.0056666,-0.0050819,0.013939,-0.00016464,0.0041324,-0.00043671,0,0,0.050996,-0.022345,0,-0.0045418,0,0,0,0.013953,-0.00017815,0.0041324,-1.7718,0.005969,0.012544,6.2498e-08,0.08,1,0
0.0066513,-0.0058195,0.013126,-0.00020032,0.0038778,-0.00029237,0,0,0.048092,-0.021206,0,-0.0030406,0,0,0,0.013133,-0.00020673,0.0038778,-1.2562,0.0056012,0.011838,5.227e-08,0.1,1,0
0.0075903,-0.0064567,0.012601,-0.00019994,0.0037203,-0.00020039,0,0,0.046179,-0.020385,0,-0.002084,0,0,0,0.012604,-0.00020307,0.0037203,-0.89664,0.0053737,0.011365,4.6225e-08,0.12,1,0
0.0084984,-0.0070087,0.012249,-0.00019203,0.0036171,-0.00013818,0,0,0.044886,-0.019807,0,-0.0014371,0,0,0,0.01225,-0.00019356,0.0036171,-0.63626,0.0052247,0.011043,4.2432e-08,0.14,1,0
0.0093857,-0.0074863,0.012018,-0.00018082,0.0035512,-9.2915e-05,0,0,0.044028,-0.019406,0,-0.00096631,0,0,0,0.012019,-0.00018152,0.0035512,-0.43637,0.0051295,0.010828,4.0041e-08,0.16,1,0
0.010259,-0.0078979,0.011876,-0.0001687,0.0035123,-5.8469e-05,0,0,0.043493,-0.019141,0,-0.00060808,0,0,0,0.011876,-0.00016899,0.0035123,-0.27812,0.0050732,0.010691,3.8601e-08,0.18,1,0
0.011125,-0.0082503,0.011803,-0.00015641,0.0034941,-3.1296e-05,0,0,0.043208,-0.018983,0,-0.00032548,0,0,0,0.011803,-0.0001565,0.0034941,-0.14993,0.005047,0.010616,3.7855e-08,0.2,1,0
0.011988,-0.0085493,0.011786,-0.00014424,0.0034924,-9.2861e-06,0,0,0.043125,-0.018911,0,-9.6575e-05,0,0,0,0.011786,-0.00014424,0.0034924,-0.044598,0.0050446,0.010591,3.7645e-08,0.22,1,0
0.01285,-0.0088001,0.011813,-0.00013226,0.0035044,8.8823e-06,0,0,0.043207,-0.01891,0,9.2376e-05,0,0,0,0.011813,-0.00013226,0.0035044,0.042602,0.0050619,0.010606,3.7871e-08,0.24,1,0
0.013716,-0.0090075,0.011879,-0.00012048,0.0035276,2.4054e-05,0,0,0.043428,-0.01897,0,0.00025016,0,0,0,0.011879,-0.00012053,0.0035276,0.11485,0.0050954,0.010655,3.8464e-08,0.26,1,0
0.014587,-0.0091756,0.011976,-0.0001089,0.0035603,3.6774e-05,0,0,0.043764,-0.01908,0,0.00038244,0,0,0,0.011977,-0.00010901,0.0035603,0.17434,0.0051426,0.010732,3.9376e-08,0.28,1,0
0.015467,-0.0093087,0.012101,-9.7487e-05,0.0036009,4.7386e-05,0,0,0.044199,-0.019232,0,0.00049281,0,0,0,0.012101,-9.7671e-05,0.0036009,0.22257,0.0052014,0.010834,4.057e-08,0.3,1,0
0.016355,-0.0094108,0.012247,-8.6243e-05,0.0036482,5.6101e-05,0,0,0.044714,-0.019419,0,0.00058345,0,0,0,0.012247,-8.6498e-05,0.0036482,0.26062,0.0052697,0.010955,4.2016e-08,0.32,1,0
0.017255,-0.0094857,0.012411,-7.5179e-05,0.0037008,6.3038e-05,0,0,0.045295,-0.019635,0,0.0006556,0,0,0,0.012412,-7.5497e-05,0.0037008,0.28925,0.0053457,0.011092,4.3686e-08,0.34,1,0
0.018167,-0.0095372,0.012589,-6.4326e-05,0.0037575,6.8254e-05,0,0,0.045926,-0.019874,0,0.00070984,0,0,0,0.01259,-6.4694e-05,0.0037575,0.30904,0.0054276,0.011242,4.555e-08,0.36,1,0
0.019092,-0.0095691,0.012777,-5.3735e-05,0.0038171,7.1769e-05,0,0,0.046594,-0.020128,0,0.0007464,0,0,0,0.012778,-5.4136e-05,0.0038171,0.32046,0.0055136,0.0114,4.7575e-08,0.38,1,0
0.020031,-0.009585,0.012971,-4.3473e-05,0.0038783,7.3587e-05,0,0,0.047282,-0.020393,0,0.0007653,0,0,0,0.012971,-4.3889e-05,0.0038783,0.32395,0.0056019,0.011564,4.9725e-08,0.4,1,0
0.020984,-0.0095885,0.013166,-3.3623e-05,0.0039397,7.3712e-05,0,0,0.047977,-0.020661,0,0.0007666,0,0,0,0.013166,-3.4035e-05,0.0039397,0.31995,0.0056907,0.01173,5.1958e-08,0.42,1,0
0.02195,-0.009583,0.013358,-2.4279e-05,0.0040002,7.2161e-05,0,0,0.048662,-0.020928,0,0.00075047,0,0,0,0.013359,-2.4668e-05,0.0040002,0.30893,0.0057781,0.011893,5.4226e-08,0.44,1,0
0.02293,-0.0095718,0.013544,-1.5543e-05,0.0040585,6.8979e-05,0,0,0.049324,-0.021185,0,0.00071738,0,0,0,0.013544,-1.5894e-05,0.0040585,0.29146,0.0058623,0.012051,5.6475e-08,0.46,1,0
0.023923,-0.0095581,0.013719,-7.5191e-06,0.0041133,6.4246e-05,0,0,0.049947,-0.021428,0,0.00066815,0,0,0,0.013719,-7.8198e-06,0.0041133,0.26817,0.0059415,0.0122,5.865e-08,0.48,1,0
0.024928,-0.0095447,0.013879,-3.0755e-07,0.0041635,5.8082e-05,0,0,0.050519,-0.021652,0,0.00060405,0,0,0,0.013879,-5.5061e-07,0.0041635,0.23977,0.0060139,0.012336,6.0692e-08,0.5,1,0
0.025944,-0.0095342,0.014021,5.9981e-06,0.004208,5.0653e-05,0,0,0.051026,-0.02185,0,0.00052679,0,0,0,0.014021,5.8151e-06,0.004208,0.20708,0.0060782,0.012457,6.2543e-08,0.52,1,0
0.026969,-0.0095289,0.014142,1.1318e-05,0.0042459,4.2166e-05,0,0,0.051458,-0.02202,0,0.00043853,0,0,0,0.014142,1.1192e-05,0.0042459,0.17097,0.006133,0.012561,6.415e-08,0.54,1,0
0.028002,-0.0095306,0.014239,1.559e-05,0.0042765,3.2868e-05,0,0,0.051807,-0.022157,0,0.00034182,0,0,0,0.014239,1.5514e-05,0.0042765,0.1324,0.0061771,0.012644,6.5466e-08,0.56,1,0
0.029041,-0.0095408,0.014312,1.8775e-05,0.0042992,2.3032e-05,0,0,0.052066,-0.022258,0,0.00023953,0,0,0,0.014312,1.8738e-05,0.0042992,0.092325,0.0062099,0.012706,6.6455e-08,0.58,1,0
0.030085,-0.0095606,0.014358,2.0855e-05,0.0043138,1.2953e-05,0,0,0.052232,-0.022323,0,0.00013471,0,0,0,0.014358,2.0844e-05,0.0043138,0.051761,0.006231,0.012745,6.7095e-08,0.6,1,0
0.031131,-0.0095906,0.014379,2.1842e-05,0.0043202,2.9316e-06,0,0,0.052304,-0.022351,0,3.0489e-05,0,0,0,0.014379,2.1842e-05,0.0043202,0.0117,0.0062402,0.012763,6.7374e-08,0.62,1,0
0.032177,-0.009631,0.014373,2.1773e-05,0.0043185,-6.7372e-06,0,0,0.052285,-0.022343,0,-7.0067e-05,0,0,0,0.014373,2.177e-05,0.0043185,-0.026897,0.0062378,0.012758,6.7299e-08,0.64,1,0
0.033222,-0.0096815,0.014344,2.0709e-05,0.0043093,-1.5779e-05,0,0,0.052178,-0.022301,0,-0.0001641,0,0,0,0.014344,2.0692e-05,0.0043093,-0.063121,0.0062245,0.012732,6.6887e-08,0.66,1,0
0.034264,-0.0097415,0.014291,1.8739e-05,0.004293,-2.395e-05,0,0,0.051991,-0.022226,0,-0.00024908,0,0,0,0.014291,1.8698e-05,0.004293,-0.096145,0.006201,0.012688,6.617e-08,0.68,1,0
0.035302,-0.00981,0.014219,1.5967e-05,0.0042706,-3.1047e-05,0,0,0.051734,-0.022124,0,-0.00032289,0,0,0,0.014219,1.5899e-05,0.0042706,-0.12524,0.0061687,0.012626,6.5189e-08,0.7,1,0
0.036333,-0.0098858,0.014131,1.2517e-05,0.004243,-3.6914e-05,0,0,0.051416,-0.021998,0,-0.00038391,0,0,0,0.014131,1.242e-05,0.004243,-0.14981,0.0061287,0.01255,6.3994e-08,0.72,1,0
0.037358,-0.0099673,0.014029,8.5244e-06,0.0042111,-4.1445e-05,0,0,0.051051,-0.021854,0,-0.00043103,0,0,0,0.014029,8.4018e-06,0.0042111,-0.16937,0.0060827,0.012462,6.2635e-08,0.74,1,0
0.038375,-0.010053,0.013917,4.1314e-06,0.0041762,-4.4585e-05,0,0,0.05065,-0.021695,0,-0.00046368,0,0,0,0.013917,3.9885e-06,0.0041762,-0.18361,0.0060323,0.012366,6.1168e-08,0.76,1,0
0.039384,-0.010141,0.013798,-5.1719e-07,0.0041394,-4.6327e-05,0,0,0.050227,-0.021527,0,-0.0004818,0,0,0,0.013799,-6.7272e-07,0.0041394,-0.19236,0.0059791,0.012265,5.9645e-08,0.78,1,0
0.040384,-0.010229,0.013678,-5.2785e-06,0.0041017,-4.6708e-05,0,0,0.049795,-0.021356,0,-0.00048576,0,0,0,0.013678,-5.4379e-06,0.0041017,-0.19558,0.0059247,0.012161,5.8114e-08,0.8,1,0
0.041376,-0.010315,0.013558,-1.0015e-05,0.0040643,-4.5799e-05,0,0,0.049365,-0.021186,0,-0.00047631,0,0,0,0.013558,-1.017e-05,0.0040643,-0.19341,0.0058706,0.012058,5.6619e-08,0.82,1,0
0.042359,-0.010398,0.013442,-1.46e-05,0.0040281,-4.3702e-05,0,0,0.04895,-0.021022,0,-0.00045451,0,0,0,0.013442,-1.4742e-05,0.0040281,-0.18608,0.0058184,0.011959,5.5198e-08,0.84,1,0
0.043334,-0.010476,0.013333,-1.8915e-05,0.0039941,-4.0538e-05,0,0,0.04856,-0.020868,0,-0.00042159,0,0,0,0.013333,-1.9038e-05,0.0039941,-0.17396,0.0057692,0.011865,5.3884e-08,0.86,1,0
0.044302,-0.010547,0.013233,-2.2859e-05,0.003963,-3.644e-05,0,0,0.048204,-0.020727,0,-0.00037897,0,0,0,0.013233,-2.2959e-05,0.003963,-0.1575,0.0057244,0.01178,5.2703e-08,0.88,1,0
0.045262,-0.010609,0.013145,-2.6342e-05,0.0039356,-3.1547e-05,0,0,0.047889,-0.020602,0,-0.00032809,0,0,0,0.013145,-2.6417e-05,0.0039356,-0.13723,0.0056848,0.011705,5.1675e-08,0.9,1,0
0.046217,-0.010662,0.013071,-2.9289e-05,0.0039124,-2.6002e-05,0,0,0.047623,-0.020497,0,-0.00027042,0,0,0,0.013071,-2.9341e-05,0.0039124,-0.11372,0.0056513,0.011641,5.0816e-08,0.92,1,0
0.047167,-0.010705,0.013011,-3.1642e-05,0.0038939,-1.9942e-05,0,0,0.047411,-0.020413,0,-0.0002074,0,0,0,0.013012,-3.1673e-05,0.0038939,-0.087601,0.0056246,0.01159,5.0137e-08,0.94,1,0
0.048113,-0.010736,0.012968,-3.3355e-05,0.0038805,-1.3503e-05,0,0,0.047256,-0.020352,0,-0.00014043,0,0,0,0.012968,-3.3369e-05,0.0038805,-0.059504,0.0056051,0.011553,4.9647e-08,0.96,1,0
0.049057,-0.010754,0.012942,-3.4395e-05,0.0038723,-6.8133e-06,0,0,0.047163,-0.020315,0,-7.0858e-05,0,0,0,0.012942,-3.4398e-05,0.0038723,-0.030083,0.0055933,0.011531,4.935e-08,0.98,1,0
0.05,-0.010761,0.012933,-3.4744e-05,0.0038696,-3.0283e-05,0,0,0.047131,-0.020302,0,-0.00031495,0,0,0,0.012933,-3.4814e-05,0.0038696,-0.1338,0.0055894,0.011523,4.9252e-08,1,1,0
