"Displacements:0","Displacements:1","Stress/Strain:0","Stress/Strain:1","Stress/Strain:2","Stress/Strain:3","Stress/Strain:4","Stress/Strain:5","Stress/Strain:6","Stress/Strain:7","Stress/Strain:8","Stress/Strain:9","Stress/Strain:10","Stress/Strain:11","Stress/Strain:12","Principal Stress:0","Principal Stress:1","Principal Stress:2","Principal Stress:3","Principal Stress:4","Principal Stress:5","Principal Stress:6","nodes:0","nodes:1","nodes:2"
0,0,0.031044,0.013305,0.013305,0.0088095,0,0,0.11531,3.4694e-18,0,0.11452,0,0,0,0.034676,0.0096733,0.013305,22.402,0.019218,0.023399,6.049e-07,0,0,0
0.0023061,0.0022905,0.022249,0.0016214,0.0071611,0.0035089,0,0,0.098071,-0.036008,0,0.045616,0,0,0,0.022829,0.0010409,0.0071611,9.3947,0.010344,0.019464,2.5632e-07,0.02,0,0
0.0039228,0.0037154,0.016371,0.00066132,0.0051097,0.0011689,0,0,0.073198,-0.028914,0,0.015195,0,0,0,0.016457,0.00057483,0.0051097,4.232,0.0073807,0.01417,9.7272e-08,0.04,0,0
0.0052341,0.0049313,0.013592,-6.901e-05,0.004057,0.00071165,0,0,0.061979,-0.026819,0,0.0092515,0,0,0,0.013629,-0.00010598,0.004057,2.9739,0.0058601,0.012199,5.7948e-08,0.06,0,0
0.006402,0.0059521,0.012264,-0.00016019,0.003631,0.0004459,0,0,0.056112,-0.024643,0,0.0057967,0,0,0,0.01228,-0.00017618,0.003631,2.0529,0.0052448,0.011055,4.2671e-08,0.08,0,0
0.0074785,0.0068304,0.011398,-0.00020055,0.0033592,0.00031514,0,0,0.052252,-0.023138,0,0.0040969,0,0,0,0.011406,-0.00020911,0.0033592,1.5553,0.0048522,0.010306,3.4341e-08,0.1,0,0
0.0084921,0.0075892,0.010792,-0.00020641,0.0031757,0.00023417,0,0,0.049506,-0.021983,0,0.0030442,0,0,0,0.010797,-0.00021139,0.0031757,1.2191,0.0045871,0.0097657,2.9161e-08,0.12,0,0
0.0094588,0.0082445,0.010336,-0.00020486,0.0030393,0.0001816,0,0,0.047427,-0.021087,0,0.0023608,0,0,0,0.010339,-0.00020799,0.0030393,0.98676,0.0043901,0.0093559,2.5618e-08,0.14,0,0
0.010389,0.0088072,0.0099783,-0.00020025,0.0029334,0.00014503,0,0,0.045792,-0.020369,0,0.0018854,0,0,0,0.0099803,-0.00020232,0.0029334,0.81617,0.0042371,0.0090327,2.3048e-08,0.16,0,0
0.01129,0.009285,0.0096897,-0.00019497,0.0028484,0.00011816,0,0,0.044468,-0.019782,0,0.0015361,0,0,0,0.0096911,-0.00019638,0.0028484,0.6848,0.0041144,0.0087709,2.1102e-08,0.18,0,0
0.012168,0.0096835,0.0094529,-0.00018967,0.002779,9.7083e-05,0,0,0.043381,-0.019296,0,0.0012621,0,0,0,0.0094539,-0.00019065,0.002779,0.57678,0.0040141,0.0085554,1.9588e-08,0.2,0,0
0.013026,0.010007,0.0092587,-0.00018444,0.0027223,7.9172e-05,0,0,0.042487,-0.018894,0,0.0010292,0,0,0,0.0092593,-0.0001851,0.0027223,0.48033,0.0039322,0.008378,1.84e-08,0.22,0,0
0.013867,0.010257,0.0091029,-0.00017903,0.0026772,6.2542e-05,0,0,0.041767,-0.018565,0,0.00081305,0,0,0,0.0091033,-0.00017945,0.0026772,0.38604,0.003867,0.0082348,1.748e-08,0.24,0,0
0.014696,0.010437,0.0089857,-0.00017298,0.0026438,4.5771e-05,0,0,0.041222,-0.018309,0,0.00059502,0,0,0,0.0089859,-0.00017321,0.0026438,0.28633,0.0038188,0.0081255,1.6805e-08,0.26,0,0
0.015516,0.010548,0.0089103,-0.00016573,0.0026234,2.7796e-05,0,0,0.040865,-0.018129,0,0.00036135,0,0,0,0.0089104,-0.00016582,0.0026234,0.17547,0.0037893,0.0080524,1.6374e-08,0.28,0,0
0.016331,0.010592,0.0088821,-0.00015664,0.0026177,7.8909e-06,0,0,0.040719,-0.018033,0,0.00010258,0,0,0,0.0088822,-0.00015665,0.0026177,0.05002,0.0037811,0.00802,1.6203e-08,0.3,0,0
0.017145,0.010569,0.0089081,-0.00014503,0.0026289,-1.4304e-05,0,0,0.040815,-0.018031,0,-0.00018596,0,0,0,0.0089082,-0.00014506,0.0026289,-0.090529,0.0037974,0.0080338,1.6323e-08,0.32,0,0
0.017964,0.010484,0.0089955,-0.00013027,0.0026596,-3.8733e-05,0,0,0.041184,-0.018134,0,-0.00050352,0,0,0,0.0089957,-0.00013044,0.0026596,-0.24317,0.0038416,0.0080999,1.6779e-08,0.34,0,0
0.018792,0.01034,0.0091508,-0.00011183,0.0027117,-6.4859e-05,0,0,0.041854,-0.018353,0,-0.00084316,0,0,0,0.0091513,-0.00011229,0.0027117,-0.40117,0.0039169,0.0082237,1.7624e-08,0.36,0,0
0.019638,0.010142,0.0093782,-8.941e-05,0.0027866,-9.1615e-05,0,0,0.042845,-0.018694,0,-0.001191,0,0,0,0.0093791,-9.0296e-05,0.0027866,-0.55436,0.0040251,0.0084085,1.8921e-08,0.38,0,0
0.020506,0.0098984,0.0096781,-6.3056e-05,0.0028845,-0.00011737,0,0,0.044159,-0.019159,0,-0.0015259,0,0,0,0.0096796,-6.447e-05,0.0028845,-0.69024,0.0041665,0.0086549,2.0734e-08,0.4,0,0
0.021404,0.009619,0.010046,-3.3292e-05,0.0030037,-0.00013997,0,0,0.045772,-0.01974,0,-0.0018197,0,0,0,0.010047,-3.5236e-05,0.0030037,-0.79551,0.0043387,0.0089586,2.3113e-08,0.42,0,0
0.022337,0.0093165,0.010469,-1.1266e-06,0.0031402,-0.00015688,0,0,0.047635,-0.020419,0,-0.0020395,0,0,0,0.010471,-3.4768e-06,0.0031402,-0.85828,0.0045359,0.0093096,2.6071e-08,0.44,0,0
0.02331,0.0090061,0.010928,3.2122e-05,0.003288,-0.00016558,0,0,0.04966,-0.021163,0,-0.0021526,0,0,0,0.01093,2.9606e-05,0.003288,-0.87044,0.0047494,0.0096916,2.956e-08,0.46,0,0
0.024324,0.0087044,0.011398,6.5106e-05,0.0034389,-0.0001642,0,0,0.051733,-0.02193,0,-0.0021346,0,0,0,0.0114,6.2727e-05,0.0034389,-0.82992,0.0049673,0.010083,3.3435e-08,0.48,0,0
0.025379,0.0084291,0.011849,9.6637e-05,0.0035836,-0.00015214,0,0,0.053723,-0.022665,0,-0.0019779,0,0,0,0.011851,9.4667e-05,0.0035836,-0.74159,0.0051763,0.010458,3.7455e-08,0.5,0,0
0.026472,0.0081971,0.012252,0.00012556,0.0037132,-0.00013045,0,0,0.055501,-0.02332,0,-0.0016958,0,0,0,0.012253,0.00012415,0.0037132,-0.61627,0.0053635,0.010792,4.1304e-08,0.52,0,0
0.027599,0.0080233,0.012582,0.00015041,0.0038199,-0.00010141,0,0,0.056957,-0.023851,0,-0.0013184,0,0,0,0.012583,0.00014959,0.0038199,-0.46734,0.0055176,0.011065,4.4647e-08,0.54,0,0
0.028751,0.0079196,0.012823,0.00016935,0.0038979,-6.7757e-05,0,0,0.058017,-0.024235,0,-0.00088085,0,0,0,0.012824,0.00016899,0.0038979,-0.30678,0.0056302,0.011263,4.7189e-08,0.56,0,0
0.02992,0.0078946,0.012964,0.00018049,0.0039435,-3.1715e-05,0,0,0.058636,-0.024459,0,-0.00041229,0,0,0,0.012964,0.00018041,0.0039435,-0.14214,0.0056961,0.011379,4.8718e-08,0.58,0,0
0.031096,0.0079527,0.013,0.00018259,0.0039548,5.2564e-06,0,0,0.058795,-0.02452,0,6.8333e-05,0,0,0,0.013,0.00018259,0.0039548,0.023496,0.0057125,0.011409,4.9115e-08,0.6,0,0
0.032271,0.008095,0.01293,0.00017562,0.0039317,4.2076e-05,0,0,0.058489,-0.024414,0,0.00054699,0,0,0,0.01293,0.00017549,0.0039317,0.18901,0.0056791,0.011352,4.835e-08,0.62,0,0
0.033436,0.0083186,0.012757,0.00016076,0.0038752,7.7286e-05,0,0,0.057729,-0.024144,0,0.0010047,0,0,0,0.012757,0.00016029,0.0038752,0.35154,0.0055975,0.011211,4.6488e-08,0.64,0,0
0.03458,0.008617,0.012489,0.00013983,0.0037886,0.00010864,0,0,0.056551,-0.023717,0,0.0014123,0,0,0,0.01249,0.00013888,0.0037886,0.50401,0.0054724,0.01099,4.3696e-08,0.66,0,0
0.035698,0.0089801,0.012142,0.00011467,0.003677,0.00013339,0,0,0.055022,-0.023155,0,0.0017341,0,0,0,0.012143,0.00011319,0.003677,0.63535,0.0053112,0.010703,4.024e-08,0.68,0,0
0.036781,0.0093945,0.011739,8.6688e-05,0.0035476,0.00014917,0,0,0.053242,-0.022496,0,0.0019393,0,0,0,0.01174,8.4779e-05,0.0035476,0.73337,0.0051243,0.010367,3.6451e-08,0.7,0,0
0.037827,0.0098449,0.011306,5.7045e-05,0.003409,0.00015488,0,0,0.051333,-0.021788,0,0.0020134,0,0,0,0.011309,5.4913e-05,0.003409,0.78862,0.0049242,0.010007,3.2658e-08,0.72,0,0
0.038835,0.010315,0.010873,2.6923e-05,0.0032701,0.00015098,0,0,0.049421,-0.02108,0,0.0019628,0,0,0,0.010875,2.4822e-05,0.0032701,0.79737,0.0047234,0.0096465,2.9128e-08,0.74,0,0
0.039804,0.01079,0.010464,-2.3171e-06,0.0031386,0.00013928,0,0,0.047617,-0.020416,0,0.0018106,0,0,0,0.010466,-4.1701e-06,0.0031386,0.76225,0.0045335,0.0093058,2.6036e-08,0.76,0,0
0.040739,0.011255,0.010098,-2.9334e-05,0.0030205,0.00012219,0,0,0.046002,-0.019824,0,0.0015885,0,0,0,0.010099,-3.0809e-05,0.0030205,0.69119,0.0043629,0.0090009,2.3459e-08,0.78,0,0
0.041644,0.011699,0.009785,-5.3087e-05,0.0029196,0.00010222,0,0,0.044625,-0.019322,0,0.0013288,0,0,0,0.009786,-5.4149e-05,0.0029196,0.59521,0.0042172,0.0087413,2.1401e-08,0.8,0,0
0.042524,0.012113,0.0095308,-7.3009e-05,0.0028373,8.1529e-05,0,0,0.043507,-0.018917,0,0.0010599,0,0,0,0.0095315,-7.3701e-05,0.0028373,0.48635,0.0040984,0.0085307,1.9819e-08,0.82,0,0
0.043385,0.012491,0.0093341,-8.8994e-05,0.0027735,6.1835e-05,0,0,0.042644,-0.018606,0,0.00080385,0,0,0,0.0093345,-8.94e-05,0.0027735,0.37596,0.0040062,0.0083681,1.8651e-08,0.84,0,0
0.04423,0.012827,0.0091898,-0.00010128,0.0027266,4.4338e-05,0,0,0.042011,-0.018381,0,0.00057639,0,0,0,0.00919,-0.00010149,0.0027266,0.27341,0.0039384,0.0082494,1.7826e-08,0.86,0,0
0.045065,0.013118,0.0090904,-0.00011031,0.002694,2.9769e-05,0,0,0.041576,-0.018228,0,0.00038699,0,0,0,0.0090905,-0.00011041,0.002694,0.18538,0.0038914,0.0081681,1.7273e-08,0.88,0,0
0.045893,0.013365,0.0090268,-0.00011664,0.002673,1.8436e-05,0,0,0.041299,-0.018133,0,0.00023967,0,0,0,0.0090268,-0.00011668,0.002673,0.11553,0.0038611,0.0081165,1.6926e-08,0.9,0,0
0.046717,0.013565,0.0089899,-0.00012085,0.0026607,1.0288e-05,0,0,0.04114,-0.01808,0,0.00013374,0,0,0,0.0089899,-0.00012086,0.0026607,0.064698,0.0038432,0.0080871,1.6728e-08,0.92,0,0
0.047539,0.01372,0.0089711,-0.00012347,0.0026543,4.9865e-06,0,0,0.041059,-0.018055,0,6.4824e-05,0,0,0,0.0089711,-0.00012347,0.0026543,0.031415,0.003834,0.0080724,1.6629e-08,0.94,0,0
0.048359,0.013831,0.0089632,-0.00012497,0.0026515,1.982e-06,0,0,0.041026,-0.018047,0,2.5765e-05,0,0,0,0.0089632,-0.00012497,0.0026515,0.012495,0.0038299,0.0080666,1.6588e-08,0.96,0,0
0.04918,0.013896,0.0089607,-0.00012572,0.0026505,5.802e-07,0,0,0.041016,-0.018045,0,7.5426e-06,0,0,0,0.0089607,-0.00012572,0.0026505,0.0036585,0.0038285,0.008065,1.6575e-08,0.98,0,0
0.05,0.013918,0.0089602,-0.00012595,0.0026503,8.4191e-05,0,0,0.041015,-0.018046,0,0.0010945,0,0,0,0.008961,-0.00012673,0.0026503,0.53083,0.0038282,0.0080661,1.6579e-08,1,0,0
0,0,0.018318,0.0078507,0.0078507,0.0060396,0,0,0.068039,-3.4694e-18,0,0.078515,0,0,0,0.021076,0.0050926,0.0078507,24.544,0.01134,0.014799,1.4715e-07,0,0.02,0
0.0013608,0.0015703,0.016679,0.0016572,0.0055008,0.0038169,0,0,0.072658,-0.024984,0,0.04962,0,0,0,0.017593,0.00074297,0.0055008,13.47,0.0079457,0.015047,1.1779e-07,0.02,0.02,0
0.0029063,0.0031371,0.016717,0.0013136,0.0054091,0.0025175,0,0,0.073499,-0.026621,0,0.032727,0,0,0,0.017118,0.00091258,0.0054091,9.0507,0.0078131,0.01449,1.0702e-07,0.04,0.02,0
0.0043007,0.0043949,0.014926,0.00069864,0.0046874,0.0015358,0,0,0.066551,-0.025927,0,0.019965,0,0,0,0.01509,0.00053474,0.0046874,6.0913,0.0067707,0.012987,7.4938e-08,0.06,0.02,0
0.0055684,0.0054592,0.013588,0.00040754,0.0041986,0.0010433,0,0,0.06103,-0.024642,0,0.013563,0,0,0,0.01367,0.00032546,0.0041986,4.4982,0.0060646,0.011891,5.6473e-08,0.08,0.02,0
0.0067419,0.0063677,0.012622,0.00025242,0.0038624,0.00074785,0,0,0.056939,-0.023465,0,0.009722,0,0,0,0.012667,0.00020737,0.0038624,3.4472,0.005579,0.011094,4.5319e-08,0.1,0.02,0
0.0078459,0.0071495,0.011912,0.00016627,0.0036236,0.00056269,0,0,0.053877,-0.022472,0,0.007315,0,0,0,0.011939,0.00013938,0.0036236,2.7364,0.005234,0.0105,3.8145e-08,0.12,0.02,0
0.008897,0.0078228,0.011372,0.0001151,0.0034461,0.00043847,0,0,0.051517,-0.021651,0,0.0057001,0,0,0,0.011389,9.805e-05,0.0034461,2.2273,0.0049776,0.010044,3.3222e-08,0.14,0.02,0
0.0099066,0.0083998,0.010948,8.3528e-05,0.0033095,0.00035098,0,0,0.049651,-0.020969,0,0.0045627,0,0,0,0.010959,7.2202e-05,0.0033095,1.8484,0.0047803,0.0096832,2.9669e-08,0.16,0.02,0
0.010883,0.0088894,0.010608,6.3889e-05,0.0032017,0.00028611,0,0,0.048143,-0.020396,0,0.0037194,0,0,0,0.010616,5.6131e-05,0.0032017,1.5531,0.0046246,0.009391,2.7006e-08,0.18,0.02,0
0.011832,0.0092976,0.010332,5.2143e-05,0.0031154,0.00023509,0,0,0.046911,-0.019911,0,0.0030562,0,0,0,0.010338,4.677e-05,0.0031154,1.3093,0.0045,0.0091511,2.4958e-08,0.2,0.02,0
0.01276,0.0096287,0.010108,4.6001e-05,0.0030462,0.00019197,0,0,0.045901,-0.019501,0,0.0024956,0,0,0,0.010112,4.234e-05,0.0030462,1.0926,0.0044,0.0089535,2.3363e-08,0.22,0.02,0
0.013668,0.0098858,0.0099274,4.4041e-05,0.0029914,0.00015244,0,0,0.045084,-0.019158,0,0.0019818,0,0,0,0.0099297,4.169e-05,0.0029914,0.88347,0.0043209,0.0087925,2.2125e-08,0.24,0.02,0
0.014563,0.010071,0.0097879,4.525e-05,0.0029499,0.00011329,0,0,0.044446,-0.01888,0,0.0014728,0,0,0,0.0097892,4.3933e-05,0.0029499,0.66612,0.004261,0.0086657,2.1192e-08,0.26,0.02,0
0.015446,0.010186,0.0096887,4.8762e-05,0.0029212,7.2112e-05,0,0,0.043988,-0.018671,0,0.00093746,0,0,0,0.0096892,4.8222e-05,0.0029212,0.42857,0.0042196,0.0085735,2.0539e-08,0.28,0.02,0
0.016322,0.010231,0.0096312,5.3695e-05,0.0029055,2.7293e-05,0,0,0.043717,-0.018537,0,0.0003548,0,0,0,0.0096313,5.3617e-05,0.0029055,0.16327,0.0041968,0.0085177,2.016e-08,0.3,0.02,0
0.017195,0.010209,0.009618,5.9064e-05,0.0029031,-2.1974e-05,0,0,0.043647,-0.018486,0,-0.00028566,0,0,0,0.009618,5.9014e-05,0.0029031,-0.13171,0.0041934,0.0085016,2.0064e-08,0.32,0.02,0
0.018068,0.010122,0.0096517,6.375e-05,0.0029146,-7.5572e-05,0,0,0.043791,-0.018531,0,-0.00098243,0,0,0,0.0096522,6.3155e-05,0.0029146,-0.45157,0.00421,0.0085287,2.027e-08,0.34,0.02,0
0.018947,0.0099729,0.0097345,6.6515e-05,0.0029403,-0.00013235,0,0,0.044162,-0.01868,0,-0.0017206,0,0,0,0.0097363,6.4703e-05,0.0029403,-0.78418,0.0042471,0.0086021,2.0802e-08,0.36,0.02,0
0.019835,0.0097682,0.0098671,6.6034e-05,0.0029799,-0.00019006,0,0,0.044767,-0.01894,0,-0.0024708,0,0,0,0.0098708,6.235e-05,0.0029799,-1.1105,0.0043044,0.0087236,2.1684e-08,0.38,0.02,0
0.020737,0.0095152,0.010048,6.0975e-05,0.0030326,-0.00024526,0,0,0.045599,-0.019316,0,-0.0031884,0,0,0,0.010054,5.4955e-05,0.0030326,-1.406,0.0043805,0.0088921,2.2934e-08,0.4,0.02,0
0.021659,0.0092242,0.010272,5.0157e-05,0.0030965,-0.00029348,0,0,0.046638,-0.019801,0,-0.0038152,0,0,0,0.01028,4.1737e-05,0.0030965,-1.6433,0.0044727,0.0091037,2.4554e-08,0.42,0.02,0
0.022603,0.0089081,0.01053,3.2959e-05,0.0031688,-0.00032944,0,0,0.047845,-0.020383,0,-0.0042827,0,0,0,0.01054,2.263e-05,0.0031688,-1.7959,0.0045771,0.00935,2.6519e-08,0.44,0.02,0
0.023572,0.0085828,0.010809,9.9625e-06,0.0032457,-0.00034793,0,0,0.049162,-0.021032,0,-0.004523,0,0,0,0.01082,-1.2352e-06,0.0032457,-1.8434,0.0046883,0.0096183,2.8763e-08,0.46,0.02,0
0.024569,0.0082658,0.011094,-1.6448e-05,0.0033233,-0.000345,0,0,0.050511,-0.021709,0,-0.004485,0,0,0,0.011105,-2.715e-05,0.0033233,-1.7768,0.0048004,0.009892,3.117e-08,0.48,0.02,0
0.025593,0.0079758,0.011367,-4.2279e-05,0.0033975,-0.00031949,0,0,0.051804,-0.022359,0,-0.0041533,0,0,0,0.011376,-5.1218e-05,0.0033975,-1.6027,0.0049076,0.010152,3.3584e-08,0.5,0.02,0
0.026641,0.0077307,0.011612,-6.3338e-05,0.0034645,-0.00027367,0,0,0.052957,-0.022931,0,-0.0035578,0,0,0,0.011618,-6.975e-05,0.0034645,-1.3421,0.0050043,0.010382,3.5828e-08,0.52,0.02,0
0.027711,0.0075463,0.011813,-7.7266e-05,0.0035208,-0.00021264,0,0,0.0539,-0.023387,0,-0.0027643,0,0,0,0.011817,-8.1067e-05,0.0035208,-1.0242,0.0050855,0.010568,3.7733e-08,0.54,0.02,0
0.028797,0.0074349,0.011961,-8.4572e-05,0.003563,-0.00014225,0,0,0.054588,-0.023709,0,-0.0018492,0,0,0,0.011963,-8.6252e-05,0.003563,-0.67648,0.0051465,0.010702,3.9163e-08,0.56,0.02,0
0.029895,0.0074054,0.012049,-8.7678e-05,0.0035885,-6.7188e-05,0,0,0.054996,-0.023896,0,-0.00087345,0,0,0,0.01205,-8.805e-05,0.0035885,-0.31716,0.0051835,0.010781,4.0028e-08,0.58,0.02,0
0.030997,0.0074623,0.012075,-8.8686e-05,0.0035958,9.7281e-06,0,0,0.055114,-0.023949,0,0.00012647,0,0,0,0.012075,-8.8693e-05,0.0035958,0.045824,0.005194,0.010803,4.0279e-08,0.6,0.02,0
0.032099,0.0076067,0.012036,-8.7601e-05,0.0035846,8.6551e-05,0,0,0.054936,-0.023869,0,0.0011252,0,0,0,0.012037,-8.8219e-05,0.0035846,0.409,0.0051778,0.010769,3.99e-08,0.62,0.02,0
0.033195,0.0078357,0.011935,-8.2313e-05,0.003556,0.00016047,0,0,0.054467,-0.023649,0,0.0020861,0,0,0,0.011938,-8.4456e-05,0.003556,0.76487,0.0051364,0.010678,3.8911e-08,0.64,0.02,0
0.034278,0.0081427,0.011777,-7.0363e-05,0.0035121,0.00022678,0,0,0.053724,-0.023286,0,0.0029481,0,0,0,0.011782,-7.4703e-05,0.0035121,1.0962,0.005073,0.010531,3.7376e-08,0.66,0.02,0
0.035344,0.008517,0.01157,-5.1172e-05,0.0034557,0.00027954,0,0,0.052744,-0.022795,0,0.0036341,0,0,0,0.011577,-5.7892e-05,0.0034557,1.3771,0.0049916,0.010336,3.5411e-08,0.68,0.02,0
0.036388,0.0089446,0.011327,-2.7026e-05,0.00339,0.00031355,0,0,0.051591,-0.022211,0,0.0040762,0,0,0,0.011336,-3.5679e-05,0.00339,1.5807,0.0048967,0.010104,3.3178e-08,0.7,0.02,0
0.037407,0.0094091,0.011063,-2.0653e-06,0.0033183,0.00032635,0,0,0.050342,-0.021583,0,0.0042425,0,0,0,0.011073,-1.1682e-05,0.0033183,1.6879,0.0047932,0.0098511,3.0854e-08,0.72,0.02,0
0.038401,0.0098936,0.010795,1.9735e-05,0.0032444,0.00031889,0,0,0.049078,-0.02096,0,0.0041455,0,0,0,0.010804,1.0306e-05,0.0032444,1.6937,0.0046863,0.0095949,2.8602e-08,0.74,0.02,0
0.03937,0.010382,0.010537,3.5963e-05,0.0031719,0.0002949,0,0,0.047873,-0.020383,0,0.0038337,0,0,0,0.010545,2.7688e-05,0.0031719,1.6073,0.0045816,0.0093507,2.6546e-08,0.76,0.02,0
0.040316,0.010859,0.010301,4.5959e-05,0.0031042,0.00025945,0,0,0.046782,-0.019879,0,0.0033728,0,0,0,0.010308,3.94e-05,0.0031042,1.4483,0.0044838,0.0091304,2.4761e-08,0.78,0.02,0
0.041242,0.011313,0.010096,5.022e-05,0.0030438,0.00021772,0,0,0.045838,-0.019459,0,0.0028303,0,0,0,0.010101,4.5504e-05,0.0030438,1.241,0.0043967,0.0089413,2.328e-08,0.8,0.02,0
0.04215,0.011735,0.0099247,4.977e-05,0.0029923,0.00017425,0,0,0.04506,-0.019127,0,0.0022653,0,0,0,0.0099277,4.6697e-05,0.0029923,1.0106,0.0043222,0.0087867,2.21e-08,0.82,0.02,0
0.043044,0.012119,0.0097884,4.5777e-05,0.0029502,0.00013266,0,0,0.044448,-0.018879,0,0.0017246,0,0,0,0.0097902,4.3971e-05,0.0029502,0.78,0.0042615,0.0086666,2.1199e-08,0.84,0.02,0
0.043928,0.012459,0.009685,3.9403e-05,0.0029173,9.5542e-05,0,0,0.04399,-0.018706,0,0.001242,0,0,0,0.0096859,3.8457e-05,0.0029173,0.56746,0.0042139,0.0085783,2.0541e-08,0.86,0.02,0
0.044804,0.012754,0.0096106,3.174e-05,0.0028927,6.4498e-05,0,0,0.043666,-0.018596,0,0.00083847,0,0,0,0.0096111,3.1306e-05,0.0028927,0.38577,0.0041784,0.0085175,2.0083e-08,0.88,0.02,0
0.045674,0.013002,0.0095603,2.3758e-05,0.0028752,4.0244e-05,0,0,0.043453,-0.018534,0,0.00052317,0,0,0,0.0095604,2.3588e-05,0.0028752,0.24178,0.0041531,0.0084787,1.9785e-08,0.9,0.02,0
0.046542,0.013204,0.0095285,1.6262e-05,0.0028634,2.2715e-05,0,0,0.043323,-0.018507,0,0.0002953,0,0,0,0.0095286,1.6208e-05,0.0028634,0.13682,0.0041361,0.0084562,1.9604e-08,0.92,0.02,0
0.047407,0.013359,0.0095101,9.8759e-06,0.002856,1.1225e-05,0,0,0.043252,-0.0185,0,0.00014593,0,0,0,0.0095101,9.8626e-06,0.002856,0.067701,0.0041253,0.0084449,1.9504e-08,0.94,0.02,0
0.048272,0.01347,0.0095005,5.0382e-06,0.0028516,4.6218e-06,0,0,0.043217,-0.018503,0,6.0084e-05,0,0,0,0.0095005,5.0359e-06,0.0028516,0.027888,0.004119,0.0084402,1.9455e-08,0.96,0.02,0
0.049136,0.013536,0.0094961,2.0328e-06,0.0028494,1.4344e-06,0,0,0.043203,-0.018508,0,1.8647e-05,0,0,0,0.0094961,2.0326e-06,0.0028494,0.0086563,0.0041159,0.0084387,1.9435e-08,0.98,0.02,0
0.05,0.013557,0.0094949,1.0147e-06,0.0028488,8.4179e-05,0,0,0.0432,-0.01851,0,0.0010943,0,0,0,0.0094957,2.6832e-07,0.0028488,0.50797,0.0041149,0.0084397,1.9436e-08,1,0.02,0
0,0,0.015533,0.0066569,0.0066569,0.0049658,0,0,0.057693,1.301e-18,0,0.064555,0,0,0,0.017755,0.0044349,0.0066569,24.106,0.0096155,0.01236,8.6499e-08,0,0.04,0
0.0011539,0.0012911,0.014963,0.0040513,0.0057044,0.0044988,0,0,0.060182,-0.010745,0,0.058484,0,0,0,0.016579,0.0024358,0.0057044,19.754,0.0082396,0.012825,8.5078e-08,0.02,0.04,0
0.0024073,0.0026506,0.014893,0.0019724,0.0050596,0.003611,0,0,0.063917,-0.020067,0,0.046943,0,0,0,0.015834,0.0010317,0.0050596,14.602,0.0073083,0.013255,8.3433e-08,0.04,0.04,0
0.0037105,0.0038942,0.014623,0.0012426,0.0047598,0.0026654,0,0,0.064113,-0.022861,0,0.03465,0,0,0,0.015135,0.00073125,0.0047598,10.861,0.0068752,0.012871,7.4433e-08,0.06,0.04,0
0.0049718,0.0049664,0.01389,0.00078675,0.004403,0.0019411,0,0,0.061665,-0.023506,0,0.025234,0,0,0,0.014172,0.00050524,0.004403,8.2518,0.0063599,0.012194,6.2053e-08,0.08,0.04,0
0.0061772,0.0058918,0.013178,0.00052156,0.00411,0.0014554,0,0,0.058944,-0.023325,0,0.01892,0,0,0,0.013343,0.00035636,0.00411,6.4758,0.0059366,0.011576,5.2349e-08,0.1,0.04,0
0.0073296,0.0066903,0.012568,0.00035843,0.0038778,0.0011216,0,0,0.056483,-0.022876,0,0.014581,0,0,0,0.01267,0.00025625,0.0038778,5.2054,0.0056013,0.011057,4.5148e-08,0.12,0.04,0
0.0084365,0.0073784,0.012063,0.00025537,0.0036954,0.00088692,0,0,0.054387,-0.02236,0,0.01153,0,0,0,0.012129,0.00018912,0.0036954,4.2719,0.0053378,0.01063,3.9817e-08,0.14,0.04,0
0.0095051,0.0079685,0.011647,0.00018894,0.0035507,0.00071617,0,0,0.052625,-0.021852,0,0.0093102,0,0,0,0.011691,0.00014435,0.0035507,3.5627,0.0051288,0.010276,3.5792e-08,0.16,0.04,0
0.010542,0.0084692,0.011303,0.00014623,0.0034348,0.00058702,0,0,0.051143,-0.021375,0,0.0076312,0,0,0,0.011334,0.00011543,0.0034348,3.0036,0.0049613,0.0099816,3.2685e-08,0.18,0.04,0
0.011551,0.0088871,0.011017,0.00011985,0.0033411,0.00048447,0,0,0.049895,-0.020938,0,0.0062981,0,0,0,0.011039,9.835e-05,0.0033411,2.5405,0.0048261,0.009733,3.0241e-08,0.2,0.04,0
0.012537,0.0092266,0.01078,0.00010533,0.0032655,0.00039795,0,0,0.048842,-0.020541,0,0.0051733,0,0,0,0.010794,9.0511e-05,0.0032655,2.1321,0.0047168,0.0095221,2.8294e-08,0.22,0.04,0
0.013504,0.0094908,0.010583,9.9788e-05,0.0032049,0.00031966,0,0,0.047959,-0.020183,0,0.0041555,0,0,0,0.010593,9.005e-05,0.0032049,1.7449,0.0046293,0.0093434,2.6736e-08,0.24,0.04,0
0.014456,0.0096819,0.010424,0.00010111,0.0031576,0.0002437,0,0,0.047232,-0.019867,0,0.0031681,0,0,0,0.01043,9.5361e-05,0.0031576,1.3516,0.0045609,0.0091941,2.5501e-08,0.26,0.04,0
0.015394,0.0098012,0.0103,0.00010745,0.0031222,0.0001657,0,0,0.046655,-0.019596,0,0.0021541,0,0,0,0.010303,0.00010475,0.0031222,0.93114,0.0045099,0.0090736,2.4552e-08,0.28,0.04,0
0.016322,0.0098501,0.01021,0.0001169,0.0030981,8.2663e-05,0,0,0.046228,-0.019378,0,0.0010746,0,0,0,0.010211,0.00011623,0.0030981,0.4692,0.0044751,0.0089829,2.3869e-08,0.3,0.04,0
0.017243,0.0098299,0.010155,0.00012736,0.0030847,-6.9074e-06,0,0,0.045957,-0.019223,0,-8.9796e-05,0,0,0,0.010155,0.00012735,0.0030847,-0.039467,0.0044557,0.0089245,2.345e-08,0.32,0.04,0
0.01816,0.009743,0.010135,0.00013642,0.0030815,-0.00010286,0,0,0.04585,-0.019143,0,-0.0013372,0,0,0,0.010136,0.00013536,0.0030815,-0.58933,0.0044511,0.0089014,2.3299e-08,0.34,0.04,0
0.019077,0.0095928,0.010151,0.00014148,0.0030878,-0.00020325,0,0,0.045911,-0.019151,0,-0.0026423,0,0,0,0.010155,0.00013736,0.0030878,-1.1628,0.0044601,0.0089165,2.3425e-08,0.36,0.04,0
0.019997,0.0093845,0.010202,0.00013986,0.0031025,-0.00030425,0,0,0.046145,-0.019257,0,-0.0039553,0,0,0,0.010211,0.00013067,0.0031025,-1.7304,0.0044814,0.0089715,2.3833e-08,0.38,0.04,0
0.020923,0.0091258,0.010286,0.00012889,0.0031244,-0.0004002,0,0,0.046549,-0.019471,0,-0.0052026,0,0,0,0.010302,0.00011315,0.0031244,-2.2529,0.0045131,0.009066,2.4522e-08,0.4,0.04,0
0.021859,0.0088269,0.0104,0.0001062,0.0031517,-0.00048369,0,0,0.047111,-0.019796,0,-0.0062879,0,0,0,0.010422,8.3525e-05,0.0031517,-2.6845,0.0045525,0.0091968,2.5477e-08,0.42,0.04,0
0.022807,0.0085012,0.010537,7.0262e-05,0.0031822,-0.00054606,0,0,0.047807,-0.020228,0,-0.0070988,0,0,0,0.010566,4.1851e-05,0.0031822,-2.9784,0.0045965,0.0093574,2.666e-08,0.44,0.04,0
0.023771,0.0081648,0.01069,2.189e-05,0.0032136,-0.00057843,0,0,0.048597,-0.020746,0,-0.0075195,0,0,0,0.010721,-9.3805e-06,0.0032136,-3.0945,0.0046419,0.0095368,2.8003e-08,0.46,0.04,0
0.024751,0.0078361,0.010848,-3.4144e-05,0.0032441,-0.0005739,0,0,0.049424,-0.021308,0,-0.0074607,0,0,0,0.010878,-6.4327e-05,0.0032441,-3.0106,0.0046859,0.0097199,2.9404e-08,0.48,0.04,0
0.025748,0.0075348,0.010998,-8.8848e-05,0.0032728,-0.00053037,0,0,0.050216,-0.021851,0,-0.0068948,0,0,0,0.011024,-0.00011416,0.0032728,-2.7325,0.0047274,0.0098893,3.0745e-08,0.5,0.04,0
0.02676,0.0072799,0.011131,-0.0001323,0.0032997,-0.00045243,0,0,0.050905,-0.022308,0,-0.0058816,0,0,0,0.011149,-0.00015044,0.0032997,-2.2965,0.0047662,0.01003,3.1913e-08,0.52,0.04,0
0.027784,0.0070878,0.011239,-0.00015906,0.003324,-0.00034997,0,0,0.051448,-0.02264,0,-0.0045496,0,0,0,0.01125,-0.0001698,0.003324,-1.757,0.0048014,0.010135,3.2836e-08,0.54,0.04,0
0.028818,0.0069713,0.011318,-0.00017115,0.003344,-0.00023408,0,0,0.051829,-0.022848,0,-0.0030431,0,0,0,0.011322,-0.00017592,0.003344,-1.1667,0.0048302,0.010204,3.3491e-08,0.56,0.04,0
0.029857,0.0069387,0.011366,-0.00017545,0.0033571,-0.00011257,0,0,0.052057,-0.022962,0,-0.0014633,0,0,0,0.011367,-0.00017655,0.0033571,-0.55875,0.0048492,0.010244,3.3888e-08,0.58,0.04,0
0.0309,0.0069947,0.011383,-0.00017769,0.0033618,1.1237e-05,0,0,0.052142,-0.023006,0,0.00014608,0,0,0,0.011384,-0.0001777,0.0033618,0.055687,0.0048559,0.01026,3.4039e-08,0.6,0.04,0
0.031943,0.0071402,0.01137,-0.00017789,0.0033576,0.00013609,0,0,0.052081,-0.022981,0,0.0017691,0,0,0,0.011372,-0.00017949,0.0033576,0.67508,0.0048499,0.010251,3.3938e-08,0.62,0.04,0
0.032983,0.0073726,0.011324,-0.00017032,0.0033461,0.00025866,0,0,0.051856,-0.022857,0,0.0033626,0,0,0,0.01133,-0.00017613,0.0033461,1.2885,0.0048332,0.010211,3.3557e-08,0.64,0.04,0
0.034017,0.0076856,0.011245,-0.000148,0.0033291,0.00037113,0,0,0.051453,-0.022601,0,0.0048247,0,0,0,0.011257,-0.00016008,0.0033291,1.8638,0.0048087,0.010134,3.287e-08,0.66,0.04,0
0.035041,0.0080683,0.011136,-0.00010878,0.003308,0.00046231,0,0,0.050879,-0.022209,0,0.00601,0,0,0,0.011155,-0.00012776,0.003308,2.3504,0.0047783,0.010017,3.1889e-08,0.68,0.04,0
0.036052,0.0085061,0.011002,-5.7911e-05,0.0032832,0.00052208,0,0,0.050172,-0.021717,0,0.0067871,0,0,0,0.011027,-8.2501e-05,0.0032832,2.6966,0.0047424,0.0098666,3.0677e-08,0.7,0.04,0
0.037048,0.0089816,0.010854,-5.2057e-06,0.0032545,0.00054554,0,0,0.049394,-0.021188,0,0.007092,0,0,0,0.010881,-3.2545e-05,0.0032545,2.8689,0.0047009,0.0096971,2.9338e-08,0.72,0.04,0
0.038028,0.0094768,0.010701,4.038e-05,0.0032223,0.00053443,0,0,0.048609,-0.020682,0,0.0069475,0,0,0,0.010727,1.3654e-05,0.0032223,2.8628,0.0046544,0.0095237,2.7985e-08,0.74,0.04,0
0.038992,0.0099746,0.010553,7.4014e-05,0.003188,0.00049526,0,0,0.047871,-0.020241,0,0.0064383,0,0,0,0.010576,5.0659e-05,0.003188,2.6999,0.0046049,0.0093598,2.6716e-08,0.76,0.04,0
0.039943,0.01046,0.010417,9.4702e-05,0.0031537,0.00043666,0,0,0.047215,-0.019883,0,0.0056766,0,0,0,0.010436,7.6264e-05,0.0031537,2.4179,0.0045553,0.0092148,2.5598e-08,0.78,0.04,0
0.040881,0.010921,0.0103,0.00010369,0.003121,0.00036721,0,0,0.046661,-0.019613,0,0.0047737,0,0,0,0.010313,9.048e-05,0.003121,2.0599,0.0045081,0.0090941,2.4663e-08,0.8,0.04,0
0.041809,0.011348,0.010202,0.00010299,0.0030914,0.00029442,0,0,0.046217,-0.019425,0,0.0038275,0,0,0,0.01021,9.4419e-05,0.0030914,1.6685,0.0044654,0.0089998,2.3922e-08,0.82,0.04,0
0.04273,0.011736,0.010124,9.491e-05,0.0030658,0.00022438,0,0,0.045881,-0.019311,0,0.0029169,0,0,0,0.010129,8.9892e-05,0.0030658,1.281,0.0044284,0.0089315,2.3368e-08,0.84,0.04,0
0.043645,0.012078,0.010067,8.1757e-05,0.0030445,0.00016158,0,0,0.045643,-0.019258,0,0.0021005,0,0,0,0.010069,7.9143e-05,0.0030445,0.92685,0.0043976,0.0088865,2.2978e-08,0.86,0.04,0
0.044555,0.012375,0.010026,6.5811e-05,0.0030275,0.0001089,0,0,0.04549,-0.019251,0,0.0014157,0,0,0,0.010027,6.4621e-05,0.0030275,0.62635,0.0043731,0.0088607,2.2727e-08,0.88,0.04,0
0.045464,0.012623,0.0099995,4.913e-05,0.0030146,6.769e-05,0,0,0.045402,-0.019276,0,0.00087997,0,0,0,0.01,4.867e-05,0.0030146,0.38975,0.0043544,0.0088493,2.2582e-08,0.9,0.04,0
0.046372,0.012825,0.0099839,3.3436e-05,0.0030052,3.7924e-05,0,0,0.045361,-0.019316,0,0.00049302,0,0,0,0.009984,3.3291e-05,0.0030052,0.21837,0.0043408,0.0088474,2.2511e-08,0.92,0.04,0
0.047279,0.012981,0.0099758,2.0051e-05,0.0029987,1.8479e-05,0,0,0.045351,-0.019362,0,0.00024023,0,0,0,0.0099758,2.0016e-05,0.0029987,0.10635,0.0043315,0.0088507,2.2488e-08,0.94,0.04,0
0.048186,0.01309,0.0099722,9.908e-06,0.0029946,7.4074e-06,0,0,0.045354,-0.019401,0,9.6296e-05,0,0,0,0.0099722,9.9025e-06,0.0029946,0.042602,0.0043256,0.0088556,2.2489e-08,0.96,0.04,0
0.049093,0.013156,0.009971,3.6062e-06,0.0029924,2.1981e-06,0,0,0.045361,-0.019427,0,2.8576e-05,0,0,0,0.009971,3.6058e-06,0.0029924,0.012636,0.0043223,0.0088596,2.2496e-08,0.98,0.04,0
0.05,0.013178,0.0099708,1.4714e-06,0.0029917,8.3836e-05,0,0,0.045364,-0.019436,0,0.0010899,0,0,0,0.0099715,7.6643e-07,0.0029917,0.48178,0.0043213,0.0088623,2.2506e-08,1,0.04,0
0,0,0.014129,0.0060554,0.0060554,0.0043866,0,0,0.05248,-1.5179e-18,0,0.057026,0,0,0,0.016054,0.0041308,0.0060554,23.689,0.0087466,0.011087,6.2938e-08,0,0.06,0
0.0010496,0.0011405,0.013949,0.0045867,0.0055607,0.0041906,0,0,0.054524,-0.006331,0,0.054478,0,0,0,0.015551,0.002985,0.0055607,20.918,0.0080321,0.011496,6.5026e-08,0.02,0.06,0
0.0021809,0.0023344,0.01406,0.0030468,0.005132,0.0038327,0,0,0.058032,-0.013554,0,0.049826,0,0,0,0.015263,0.0018443,0.005132,17.419,0.007413,0.012114,6.913e-08,0.04,0.06,0
0.0033709,0.0034805,0.014015,0.0019427,0.0047873,0.0031816,0,0,0.05998,-0.01849,0,0.041361,0,0,0,0.014802,0.0011555,0.0047873,13.897,0.0069149,0.012242,6.7015e-08,0.06,0.06,0
0.0045801,0.004519,0.01377,0.00131,0.0045241,0.0025363,0,0,0.0601,-0.020891,0,0.032972,0,0,0,0.014267,0.00081353,0.0045241,11.076,0.0065348,0.012035,6.1671e-08,0.08,0.06,0
0.0057749,0.0054347,0.013368,0.00090479,0.0042819,0.0020068,0,0,0.059061,-0.021951,0,0.026089,0,0,0,0.013683,0.00058962,0.0042819,8.9253,0.0061849,0.011693,5.536e-08,0.1,0.06,0
0.0069425,0.0062345,0.012941,0.00064289,0.0040753,0.001603,0,0,0.057629,-0.02231,0,0.020839,0,0,0,0.013147,0.00043739,0.0040753,7.3054,0.0058865,0.011337,4.9683e-08,0.12,0.06,0
0.00808,0.0069284,0.01254,0.00046943,0.0039029,0.0012978,0,0,0.056143,-0.022318,0,0.016871,0,0,0,0.012678,0.00033148,0.0039029,6.0677,0.0056376,0.011005,4.4933e-08,0.14,0.06,0
0.0091883,0.0075258,0.012183,0.00035361,0.0037608,0.001065,0,0,0.054741,-0.022147,0,0.013846,0,0,0,0.012278,0.00025848,0.0037608,5.1041,0.0054323,0.010707,4.1045e-08,0.16,0.06,0
0.01027,0.0080344,0.011869,0.00027695,0.0036439,0.00088341,0,0,0.053466,-0.021885,0,0.011484,0,0,0,0.011936,0.00021001,0.0036439,4.3329,0.0052634,0.010442,3.7866e-08,0.18,0.06,0
0.011327,0.00846,0.011598,0.00022822,0.0035478,0.00073657,0,0,0.052325,-0.021577,0,0.0095754,0,0,0,0.011645,0.0001807,0.0035478,3.6913,0.0051246,0.010206,3.5245e-08,0.2,0.06,0
0.012363,0.0088071,0.011363,0.00020032,0.0034689,0.00061204,0,0,0.05131,-0.021246,0,0.0079565,0,0,0,0.011396,0.00016686,0.0034689,3.129,0.0050107,0.0099962,3.3065e-08,0.22,0.06,0
0.013379,0.0090785,0.01116,0.00018847,0.0034046,0.00050013,0,0,0.050412,-0.020905,0,0.0065017,0,0,0,0.011183,0.00016572,0.0034046,2.6045,0.0049178,0.0098076,3.1237e-08,0.24,0.06,0
0.014379,0.0092762,0.010987,0.00018902,0.0033528,0.00039325,0,0,0.049622,-0.020565,0,0.0051123,0,0,0,0.011001,0.00017472,0.0033528,2.083,0.0048429,0.0096388,2.9703e-08,0.26,0.06,0
0.015364,0.0094016,0.01084,0.00019874,0.0033118,0.00028563,0,0,0.048936,-0.020235,0,0.0037131,0,0,0,0.010848,0.00019108,0.0033118,1.5364,0.0047836,0.0094897,2.8424e-08,0.28,0.06,0
0.016337,0.0094558,0.010719,0.00021423,0.0032801,0.00017323,0,0,0.048355,-0.019928,0,0.002252,0,0,0,0.010722,0.00021137,0.0032801,0.94448,0.0047379,0.0093616,2.738e-08,0.3,0.06,0
0.017298,0.0094399,0.010623,0.00023165,0.0032564,5.3967e-05,0,0,0.047882,-0.019661,0,0.00070158,0,0,0,0.010623,0.00023137,0.0032564,0.29756,0.0047036,0.0092577,2.6566e-08,0.32,0.06,0
0.018252,0.0093558,0.010551,0.00024664,0.0032392,-7.21e-05,0,0,0.047525,-0.019452,0,-0.00093731,0,0,0,0.010551,0.00024613,0.0032392,-0.40089,0.0046789,0.0091821,2.5984e-08,0.34,0.06,0
0.019199,0.0092069,0.010502,0.00025451,0.0032271,-0.00020256,0,0,0.04729,-0.019322,0,-0.0026333,0,0,0,0.010507,0.00025051,0.0032271,-1.1319,0.0046614,0.0091388,2.5639e-08,0.36,0.06,0
0.020144,0.0089979,0.010477,0.00025056,0.0032183,-0.00033268,0,0,0.047183,-0.01929,0,-0.0043249,0,0,0,0.010488,0.00023975,0.0032183,-1.8613,0.0046487,0.0091309,2.5533e-08,0.38,0.06,0
0.021087,0.0087364,0.010474,0.00023048,0.0032112,-0.00045561,0,0,0.047205,-0.019375,0,-0.0059229,0,0,0,0.010494,0.00021025,0.0032112,-2.5418,0.0046384,0.0091595,2.5658e-08,0.4,0.06,0
0.022032,0.0084323,0.01049,0.00019028,0.0032039,-0.00056267,0,0,0.047356,-0.019589,0,-0.0073147,0,0,0,0.01052,0.00015963,0.0032039,-3.1178,0.0046279,0.0092232,2.5994e-08,0.42,0.06,0
0.022981,0.008099,0.010522,0.00012712,0.0031948,-0.00064344,0,0,0.047628,-0.01994,0,-0.0083648,0,0,0,0.010562,8.7439e-05,0.0031948,-3.5286,0.0046146,0.0093177,2.6506e-08,0.44,0.06,0
0.023937,0.0077529,0.010566,4.1038e-05,0.0031821,-0.00068665,0,0,0.047996,-0.020417,0,-0.0089265,0,0,0,0.010611,-3.5695e-06,0.0031821,-3.7169,0.0045964,0.0094339,2.713e-08,0.46,0.06,0
0.024901,0.0074135,0.010615,-6.0278e-05,0.0031663,-0.00068227,0,0,0.048413,-0.020973,0,-0.0088694,0,0,0,0.010658,-0.00010371,0.0031663,-3.6423,0.0045735,0.0095559,2.7767e-08,0.48,0.06,0
0.025873,0.0071018,0.010659,-0.00015953,0.0031498,-0.00062705,0,0,0.048808,-0.02151,0,-0.0081516,0,0,0,0.010695,-0.00019575,0.0031498,-3.3062,0.0045496,0.0096626,2.8305e-08,0.5,0.06,0
0.026853,0.0068384,0.010693,-0.00023544,0.0031372,-0.0005282,0,0,0.049111,-0.021922,0,-0.0068665,0,0,0,0.010718,-0.00026091,0.0031372,-2.7607,0.0045315,0.0097354,2.8663e-08,0.52,0.06,0
0.027838,0.0066406,0.010715,-0.00027654,0.0031314,-0.00040259,0,0,0.049291,-0.022152,0,-0.0052337,0,0,0,0.010729,-0.00029127,0.0031314,-2.0949,0.0045232,0.0097698,2.8833e-08,0.54,0.06,0
0.028825,0.006521,0.010727,-0.00028932,0.0031314,-0.00026759,0,0,0.049374,-0.022235,0,-0.0034787,0,0,0,0.010734,-0.00029582,0.0031314,-1.3906,0.0045232,0.0097775,2.8882e-08,0.56,0.06,0
0.029813,0.0064869,0.010737,-0.0002909,0.0031339,-0.00013297,0,0,0.049423,-0.022262,0,-0.0017286,0,0,0,0.010739,-0.00029251,0.0031339,-0.69067,0.0045268,0.0097794,2.8913e-08,0.58,0.06,0
0.030802,0.006542,0.010749,-0.00029508,0.0031362,1.6989e-06,0,0,0.049483,-0.022303,0,2.2085e-05,0,0,0,0.010749,-0.00029508,0.0031362,0.0088136,0.00453,0.0097903,2.9e-08,0.6,0.06,0
0.031792,0.0066874,0.010762,-0.00030193,0.0031379,0.00014098,0,0,0.049553,-0.022359,0,0.0018328,0,0,0,0.010763,-0.00030372,0.0031379,0.72998,0.0045325,0.0098099,2.9138e-08,0.62,0.06,0
0.032784,0.0069215,0.010769,-0.0002977,0.0031414,0.00028538,0,0,0.04958,-0.022354,0,0.0037099,0,0,0,0.010776,-0.00030505,0.0031414,1.4762,0.0045376,0.0098227,2.9248e-08,0.64,0.06,0
0.033775,0.0072387,0.010764,-0.00026509,0.0031498,0.00042517,0,0,0.049495,-0.022197,0,0.0055272,0,0,0,0.010781,-0.00028146,0.0031498,2.2043,0.0045498,0.0098077,2.9221e-08,0.66,0.06,0
0.034764,0.0076286,0.010743,-0.00019727,0.0031638,0.00054289,0,0,0.049267,-0.021847,0,0.0070575,0,0,0,0.01077,-0.00022415,0.0031638,2.8338,0.0045699,0.0097522,2.898e-08,0.68,0.06,0
0.035746,0.0080759,0.010706,-0.00010538,0.0031801,0.00062137,0,0,0.048917,-0.021356,0,0.0080777,0,0,0,0.010741,-0.00014098,0.0031801,3.2787,0.0045935,0.0096599,2.8524e-08,0.7,0.06,0
0.03672,0.0085616,0.010657,-1.0495e-05,0.0031939,0.00065297,0,0,0.048509,-0.020829,0,0.0084886,0,0,0,0.010697,-5.0315e-05,0.0031939,3.4898,0.0046134,0.0095477,2.7924e-08,0.72,0.06,0
0.037686,0.0090663,0.010604,7.015e-05,0.0032022,0.00064044,0,0,0.048111,-0.020358,0,0.0083257,0,0,0,0.010643,3.1355e-05,0.0032022,3.4665,0.0046254,0.0094343,2.7278e-08,0.74,0.06,0
0.038645,0.0095719,0.010553,0.00012876,0.0032045,0.00059331,0,0,0.047764,-0.019992,0,0.0077131,0,0,0,0.010586,9.51e-05,0.0032045,3.2472,0.0046286,0.0093335,2.6672e-08,0.76,0.06,0
0.039597,0.010063,0.010508,0.00016497,0.0032018,0.00052252,0,0,0.047489,-0.01974,0,0.0067927,0,0,0,0.010534,0.00013864,0.0032018,2.8848,0.0046248,0.0092523,2.6157e-08,0.78,0.06,0
0.040544,0.010528,0.010471,0.00018106,0.0031956,0.00043837,0,0,0.04729,-0.019595,0,0.0056987,0,0,0,0.01049,0.00016242,0.0031956,2.435,0.0046159,0.0091938,2.576e-08,0.8,0.06,0
0.041488,0.010958,0.010443,0.00018033,0.0031871,0.00034976,0,0,0.047165,-0.019544,0,0.0045469,0,0,0,0.010455,0.00016843,0.0031871,1.9496,0.0046036,0.0091585,2.5489e-08,0.82,0.06,0
0.042431,0.011346,0.010425,0.00016637,0.0031774,0.00026421,0,0,0.047109,-0.019572,0,0.0034347,0,0,0,0.010432,0.00015957,0.0031774,1.4744,0.0045896,0.0091448,2.5342e-08,0.84,0.06,0
0.043373,0.011689,0.010415,0.0001432,0.0031676,0.00018748,0,0,0.047111,-0.019659,0,0.0024372,0,0,0,0.010419,0.00013978,0.0031676,1.0452,0.0045754,0.009149,2.5301e-08,0.86,0.06,0
0.044315,0.011984,0.010413,0.0001149,0.0031584,0.00012337,0,0,0.047156,-0.019783,0,0.0016038,0,0,0,0.010415,0.00011342,0.0031584,0.68624,0.0045622,0.0091663,2.5341e-08,0.88,0.06,0
0.045259,0.012231,0.010416,8.5219e-05,0.0031505,7.3695e-05,0,0,0.047228,-0.019924,0,0.00095803,0,0,0,0.010417,8.4693e-05,0.0031505,0.40868,0.0045507,0.0091911,2.5434e-08,0.9,0.06,0
0.046204,0.012431,0.010423,5.728e-05,0.003144,3.8475e-05,0,0,0.047311,-0.020063,0,0.00050018,0,0,0,0.010423,5.7138e-05,0.003144,0.21267,0.0045413,0.0092183,2.5552e-08,0.92,0.06,0
0.047151,0.012585,0.01043,3.3465e-05,0.003139,1.6291e-05,0,0,0.047391,-0.020186,0,0.00021178,0,0,0,0.01043,3.3439e-05,0.003139,0.089781,0.0045341,0.0092437,2.5668e-08,0.94,0.06,0
0.0481,0.012694,0.010436,1.5431e-05,0.0031356,4.6713e-06,0,0,0.047456,-0.020281,0,6.0726e-05,0,0,0,0.010436,1.5429e-05,0.0031356,0.025683,0.0045292,0.0092639,2.5765e-08,0.96,0.06,0
0.04905,0.012759,0.010441,4.2322e-06,0.0031336,4.3992e-07,0,0,0.047499,-0.020341,0,5.719e-06,0,0,0,0.010441,4.2321e-06,0.0031336,0.0024151,0.0045263,0.0092768,2.5828e-08,0.98,0.06,0
0.05,0.01278,0.010443,4.3946e-07,0.0031329,8.2755e-05,0,0,0.047513,-0.020361,0,0.0010758,0,0,0,0.010443,-2.1633e-07,0.0031329,0.45403,0.0045254,0.0092824,2.5857e-08,1,0.06,0
0,0,0.013442,0.005761,0.005761,0.0039918,0,0,0.049929,8.6736e-19,0,0.051893,0,0,0,0.015141,0.0040623,0.005761,23.053,0.0083215,0.010335,5.1566e-08,0,0.08,0
0.00099858,0.0010379,0.013342,0.0047153,0.005417,0.0039042,0,0,0.051509,-0.0045616,0,0.050754,0,0,0,0.014846,0.0032107,0.005417,21.075,0.0078246,0.010704,5.408e-08,0.02,0.08,0
0.0020604,0.0021084,0.013525,0.0035861,0.0051333,0.0037148,0,0,0.054545,-0.010057,0,0.048292,0,0,0,0.01476,0.0023512,0.0051333,18.39,0.0074148,0.011278,5.8835e-08,0.04,0.08,0
0.0031804,0.0031546,0.013613,0.0025835,0.004859,0.0033159,0,0,0.056902,-0.014791,0,0.043107,0,0,0,0.014533,0.0016634,0.004859,15.508,0.0070186,0.011607,6.0258e-08,0.06,0.08,0
0.0043365,0.0041308,0.013563,0.0018411,0.0046212,0.0028268,0,0,0.058121,-0.01807,0,0.036748,0,0,0,0.014209,0.001195,0.0046212,12.874,0.006675,0.011684,5.8794e-08,0.08,0.08,0
0.0055052,0.0050138,0.013389,0.0013313,0.0044161,0.0023588,0,0,0.058325,-0.020052,0,0.030664,0,0,0,0.013834,0.00088627,0.0044161,10.684,0.0063789,0.011593,5.5726e-08,0.1,0.08,0
0.0066695,0.0057979,0.013138,0.00097759,0.0042346,0.0019576,0,0,0.057871,-0.021171,0,0.025449,0,0,0,0.013445,0.00067022,0.0042346,8.9235,0.0061167,0.011418,5.2086e-08,0.12,0.08,0
0.0078201,0.0064857,0.01286,0.00073217,0.0040777,0.00163,0,0,0.057086,-0.021746,0,0.02119,0,0,0,0.013075,0.00051693,0.0040777,7.5227,0.00589,0.01121,4.8513e-08,0.14,0.08,0
0.0089529,0.0070826,0.012584,0.00056203,0.0039439,0.0013659,0,0,0.056162,-0.021982,0,0.017757,0,0,0,0.012738,0.00040879,0.0039439,6.401,0.0056967,0.010996,4.5249e-08,0.16,0.08,0
0.010067,0.0075938,0.012324,0.00044589,0.003831,0.0011519,0,0,0.055205,-0.022003,0,0.014974,0,0,0,0.012435,0.00033522,0.003831,5.4881,0.0055337,0.010785,4.2352e-08,0.18,0.08,0
0.011161,0.008024,0.012084,0.00036985,0.0037363,0.00097465,0,0,0.054263,-0.021882,0,0.01267,0,0,0,0.012165,0.00028931,0.0037363,4.7237,0.0053969,0.010582,3.9802e-08,0.2,0.08,0
0.012237,0.0083767,0.011866,0.00032462,0.0036572,0.00082272,0,0,0.053358,-0.021662,0,0.010695,0,0,0,0.011924,0.00026627,0.0036572,4.0569,0.0052827,0.010387,3.755e-08,0.22,0.08,0
0.013295,0.0086546,0.011668,0.00030364,0.0035915,0.0006863,0,0,0.052498,-0.021371,0,0.0089219,0,0,0,0.011709,0.00026235,0.0035915,3.4434,0.0051877,0.010198,3.5551e-08,0.24,0.08,0
0.014337,0.0088593,0.011488,0.00030175,0.003537,0.00055726,0,0,0.051684,-0.021029,0,0.0072444,0,0,0,0.011516,0.00027406,0.003537,2.8448,0.005109,0.010017,3.3765e-08,0.26,0.08,0
0.015363,0.0089918,0.011325,0.00031418,0.0034918,0.00042909,0,0,0.050917,-0.020655,0,0.0055782,0,0,0,0.011342,0.00029749,0.0034918,2.2283,0.0050438,0.009844,3.2166e-08,0.28,0.08,0
0.016374,0.009053,0.011178,0.00033582,0.003454,0.00029707,0,0,0.050203,-0.020268,0,0.0038619,0,0,0,0.011186,0.00032768,0.003454,1.5683,0.0049892,0.0096812,3.0745e-08,0.3,0.08,0
0.017371,0.0090435,0.011044,0.00036071,0.0034215,0.00015855,0,0,0.049549,-0.019895,0,0.0020611,0,0,0,0.011047,0.00035836,0.0034215,0.85001,0.0049422,0.0095333,2.9504e-08,0.32,0.08,0
0.018356,0.0089649,0.010925,0.00038199,0.0033921,1.342e-05,0,0,0.048964,-0.019566,0,0.00017446,0,0,0,0.010925,0.00038197,0.0033921,0.07293,0.0048997,0.0094065,2.8455e-08,0.34,0.08,0
0.019329,0.0088199,0.010819,0.0003922,0.0033633,-0.00013559,0,0,0.048461,-0.019312,0,-0.0017627,0,0,0,0.010821,0.00039043,0.0033633,-0.74491,0.0048582,0.009307,2.761e-08,0.36,0.08,0
0.020294,0.0086129,0.010725,0.00038421,0.0033327,-0.000283,0,0,0.048049,-0.019165,0,-0.003679,0,0,0,0.010733,0.00037647,0.0033327,-1.5665,0.0048139,0.0092397,2.6973e-08,0.38,0.08,0
0.021251,0.0083508,0.010641,0.00035186,0.0032979,-0.00042128,0,0,0.047731,-0.019149,0,-0.0054767,0,0,0,0.010658,0.00033464,0.0032979,-2.3407,0.0047636,0.009207,2.6533e-08,0.4,0.08,0
0.022203,0.0080434,0.010567,0.00029091,0.0032574,-0.00054146,0,0,0.047513,-0.019282,0,-0.007039,0,0,0,0.010596,0.00026246,0.0032574,-3.0079,0.0047052,0.0092085,2.6269e-08,0.42,0.08,0
0.023152,0.0077036,0.010502,0.00019649,0.0032094,-0.00063367,0,0,0.047399,-0.019584,0,-0.0082377,0,0,0,0.01054,0.00015767,0.0032094,-3.5056,0.0046359,0.0092428,2.6152e-08,0.44,0.08,0
0.024099,0.0073481,0.010443,6.6764e-05,0.003153,-0.0006849,0,0,0.047387,-0.020061,0,-0.0089037,0,0,0,0.010488,2.1753e-05,0.003153,-3.76,0.0045544,0.0093049,2.6134e-08,0.46,0.08,0
0.025047,0.0069972,0.010387,-9.1615e-05,0.0030885,-0.00068214,0,0,0.047438,-0.020671,0,-0.0088679,0,0,0,0.010431,-0.00013584,0.0030885,-3.7091,0.0044612,0.0093799,2.612e-08,0.48,0.08,0
0.025997,0.0066744,0.010326,-0.00024911,0.003023,-0.00061751,0,0,0.047468,-0.021269,0,-0.0080276,0,0,0,0.010362,-0.00028504,0.003023,-3.3307,0.0043665,0.009438,2.5978e-08,0.5,0.08,0
0.026946,0.006403,0.010258,-0.00036234,0.0029687,-0.00050329,0,0,0.04738,-0.021652,0,-0.0065428,0,0,0,0.010282,-0.00038614,0.0029687,-2.7072,0.0042881,0.0094482,2.5629e-08,0.52,0.08,0
0.027892,0.0062017,0.010188,-0.00040852,0.0029338,-0.00036728,0,0,0.047151,-0.021725,0,-0.0047747,0,0,0,0.0102,-0.00042123,0.0029338,-1.9828,0.0042377,0.0094044,2.5116e-08,0.54,0.08,0
0.028832,0.0060819,0.010128,-0.00040524,0.0029169,-0.00023882,0,0,0.046874,-0.021594,0,-0.0031047,0,0,0,0.010134,-0.00041065,0.0029169,-1.2982,0.0042133,0.0093364,2.4607e-08,0.56,0.08,0
0.029767,0.0060483,0.010095,-0.00039279,0.0029108,-0.00012731,0,0,0.0467,-0.021473,0,-0.0016551,0,0,0,0.010097,-0.00039433,0.0029108,-0.69536,0.0042045,0.0092906,2.4307e-08,0.58,0.08,0
0.0307,0.0061026,0.010102,-0.00039945,0.0029108,-2.2645e-05,0,0,0.046743,-0.021517,0,-0.00029439,0,0,0,0.010102,-0.0003995,0.0029108,-0.12355,0.0042045,0.0092994,2.4355e-08,0.6,0.08,0
0.031637,0.0062458,0.010148,-0.00042545,0.0029166,9.4564e-05,0,0,0.047001,-0.021724,0,0.0012293,0,0,0,0.010148,-0.0004263,0.0029166,0.51239,0.0042129,0.0093622,2.4749e-08,0.62,0.08,0
0.03258,0.0064785,0.010218,-0.00044272,0.0029327,0.00023466,0,0,0.047357,-0.02194,0,0.0030506,0,0,0,0.010223,-0.00044788,0.0029327,1.2603,0.0042361,0.0094462,2.5345e-08,0.64,0.08,0
0.033531,0.0067977,0.010297,-0.0004106,0.0029658,0.00038849,0,0,0.047651,-0.021947,0,0.0050503,0,0,0,0.010311,-0.00042467,0.0029658,2.0752,0.004284,0.0095052,2.5937e-08,0.66,0.08,0
0.034486,0.0071944,0.010369,-0.00031079,0.0030174,0.00052666,0,0,0.047785,-0.021633,0,0.0068466,0,0,0,0.010395,-0.0003367,0.0030174,2.8164,0.0043585,0.009509,2.6354e-08,0.68,0.08,0
0.035442,0.0076518,0.010429,-0.0001655,0.003079,0.000621,0,0,0.047774,-0.021089,0,0.008073,0,0,0,0.010465,-0.00020178,0.003079,3.3432,0.0044474,0.0094631,2.6546e-08,0.7,0.08,0
0.036397,0.0081484,0.010478,-1.7824e-05,0.0031379,0.00065865,0,0,0.047708,-0.020512,0,0.0085625,0,0,0,0.010519,-5.8996e-05,0.0031379,3.577,0.0045325,0.0093964,2.6578e-08,0.72,0.08,0
0.037351,0.0086624,0.01052,0.00010279,0.0031869,0.00064686,0,0,0.047666,-0.020046,0,0.0084092,0,0,0,0.01056,6.2775e-05,0.0031869,3.5396,0.0046032,0.0093359,2.6562e-08,0.74,0.08,0
0.038304,0.0091749,0.010561,0.00018955,0.0032252,0.00059801,0,0,0.047683,-0.019732,0,0.0077741,0,0,0,0.010595,0.00015518,0.0032252,3.2891,0.0046586,0.0092936,2.6572e-08,0.76,0.08,0
0.039258,0.0096705,0.010601,0.00024375,0.0032534,0.00052461,0,0,0.047758,-0.019563,0,0.0068199,0,0,0,0.010627,0.00021725,0.0032534,2.8923,0.0046993,0.0092726,2.6638e-08,0.78,0.08,0
0.040214,0.010137,0.01064,0.00026932,0.0032727,0.00043638,0,0,0.047886,-0.019522,0,0.005673,0,0,0,0.010658,0.00025099,0.0032727,2.4053,0.0047273,0.0092732,2.6775e-08,0.8,0.08,0
0.041173,0.010567,0.010678,0.0002693,0.0032842,0.00034265,0,0,0.04806,-0.019597,0,0.0044545,0,0,0,0.010689,0.00025804,0.0032842,1.8834,0.0047439,0.0092953,2.6992e-08,0.82,0.08,0
0.042137,0.010953,0.010716,0.00024867,0.0032895,0.00025184,0,0,0.048274,-0.019765,0,0.0032739,0,0,0,0.010722,0.00024261,0.0032895,1.3774,0.0047515,0.0093369,2.729e-08,0.84,0.08,0
0.043104,0.011292,0.010754,0.00021343,0.0032903,0.00017084,0,0,0.048516,-0.02,0,0.0022209,0,0,0,0.010757,0.00021066,0.0032903,0.92829,0.0047526,0.0093931,2.7652e-08,0.86,0.08,0
0.044077,0.011583,0.010791,0.00017009,0.0032883,0.0001042,0,0,0.048768,-0.020269,0,0.0013545,0,0,0,0.010792,0.00016907,0.0032883,0.56202,0.0047498,0.0094574,2.8047e-08,0.88,0.08,0
0.045055,0.011826,0.010825,0.00012461,0.003285,5.4014e-05,0,0,0.049012,-0.020543,0,0.00070219,0,0,0,0.010826,0.00012433,0.003285,0.2892,0.004745,0.0095228,2.8442e-08,0.9,0.08,0
0.046038,0.012023,0.010856,8.1867e-05,0.0032812,2.0237e-05,0,0,0.049233,-0.020796,0,0.00026308,0,0,0,0.010856,8.1829e-05,0.0032812,0.10762,0.0047396,0.0095834,2.8805e-08,0.92,0.08,0
0.047024,0.012173,0.01088,4.5514e-05,0.0032778,1.1477e-06,0,0,0.049417,-0.02101,0,1.492e-05,0,0,0,0.01088,4.5514e-05,0.0032778,0.0060692,0.0047346,0.0096344,2.9109e-08,0.94,0.08,0
0.048014,0.012279,0.010899,1.804e-05,0.0032751,-6.1199e-06,0,0,0.049555,-0.021171,0,-7.9559e-05,0,0,0,0.010899,1.8036e-05,0.0032751,-0.032226,0.0047307,0.0096728,2.9338e-08,0.96,0.08,0
0.049007,0.012342,0.01091,1.0011e-06,0.0032734,-5.1633e-06,0,0,0.04964,-0.021271,0,-6.7122e-05,0,0,0,0.01091,9.9865e-07,0.0032734,-0.027117,0.0047282,0.0096965,2.9479e-08,0.98,0.08,0
0.05,0.012363,0.010914,-4.7655e-06,0.0032728,8.07e-05,0,0,0.049668,-0.021304,0,0.0010491,0,0,0,0.010915,-5.362e-06,0.0032728,0.42344,0.0047274,0.0097055,2.9533e-08,1,0.08,0
0,0,0.013076,0.0056041,0.0056041,0.0036848,0,0,0.048568,-4.3368e-19,0,0.047903,0,0,0,0.014588,0.0040926,0.0056041,22.302,0.0080947,0.0098268,4.4875e-08,0,0.1,0
0.00097137,0.00095806,0.013008,0.0047629,0.0053311,0.0036373,0,0,0.049897,-0.0036935,0,0.047285,0,0,0,0.014383,0.0033876,0.0053311,20.712,0.0077005,0.010164,4.7346e-08,0.02,0.1,0
0.0019959,0.0019321,0.013209,0.0038809,0.0051271,0.0035248,0,0,0.052535,-0.0081001,0,0.045823,0,0,0,0.014391,0.0026988,0.0051271,18.54,0.0074058,0.010687,5.1951e-08,0.04,0.1,0
0.0030728,0.0028888,0.013354,0.0030187,0.0049118,0.0032663,0,0,0.054875,-0.012306,0,0.042462,0,0,0,0.0143,0.002073,0.0049118,16.148,0.0070949,0.011083,5.4767e-08,0.06,0.1,0
0.0041909,0.0037962,0.013409,0.0022937,0.0047108,0.0029152,0,0,0.056539,-0.015711,0,0.037898,0,0,0,0.014127,0.0015755,0.0047108,13.839,0.0068045,0.011315,5.5586e-08,0.08,0.1,0
0.0053343,0.0046326,0.013368,0.0017334,0.0045303,0.0025379,0,0,0.057443,-0.01818,0,0.032993,0,0,0,0.013897,0.0012039,0.0045303,11.786,0.0065438,0.0114,5.4819e-08,0.1,0.1,0
0.0064886,0.0053876,0.013249,0.0013174,0.00437,0.0021821,0,0,0.057716,-0.019842,0,0.028368,0,0,0,0.013636,0.00093085,0.00437,10.045,0.0063122,0.011382,5.3074e-08,0.12,0.1,0
0.0076429,0.0060585,0.013082,0.0010128,0.0042285,0.0018689,0,0,0.057549,-0.020902,0,0.024295,0,0,0,0.013365,0.00073007,0.0042285,8.6037,0.0061078,0.011299,5.0853e-08,0.14,0.1,0
0.0087905,0.0066465,0.012891,0.00079302,0.0041052,0.001602,0,0,0.057108,-0.021529,0,0.020826,0,0,0,0.0131,0.00058448,0.0041052,7.4168,0.0059298,0.011179,4.8484e-08,0.16,0.1,0
0.0099272,0.0071542,0.012693,0.00063792,0.0039991,0.0013769,0,0,0.056507,-0.021848,0,0.017899,0,0,0,0.012848,0.00048265,0.0039991,6.434,0.0057765,0.011035,4.6133e-08,0.18,0.1,0
0.011051,0.0075848,0.012495,0.00053317,0.0039086,0.0011855,0,0,0.055815,-0.02194,0,0.015412,0,0,0,0.012612,0.00041682,0.0039086,5.6056,0.0056458,0.010878,4.3874e-08,0.2,0.1,0
0.01216,0.0079406,0.012304,0.00046852,0.0038319,0.0010192,0,0,0.055071,-0.021862,0,0.013249,0,0,0,0.012391,0.0003814,0.0038319,4.8857,0.0055349,0.01071,4.1725e-08,0.22,0.1,0
0.013254,0.0082236,0.01212,0.00043631,0.0037669,0.00086941,0,0,0.054296,-0.021649,0,0.011302,0,0,0,0.012184,0.00037197,0.0037669,4.2324,0.0054411,0.010534,3.9681e-08,0.24,0.1,0
0.014332,0.008435,0.011943,0.00043024,0.0037119,0.00072857,0,0,0.0535,-0.021331,0,0.0094714,0,0,0,0.011989,0.00038431,0.0037119,3.6068,0.0053616,0.01035,3.773e-08,0.26,0.1,0
0.015394,0.0085754,0.011771,0.00044424,0.0036646,0.00059002,0,0,0.052692,-0.020932,0,0.0076702,0,0,0,0.011802,0.00041359,0.0036646,2.9738,0.0052933,0.01016,3.5865e-08,0.28,0.1,0
0.016439,0.008645,0.011604,0.00047157,0.0036228,0.00044855,0,0,0.05188,-0.020483,0,0.0058312,0,0,0,0.011622,0.00045353,0.0036228,2.3035,0.0052329,0.0099695,3.4092e-08,0.3,0.1,0
0.017469,0.0086441,0.011442,0.00050402,0.0035838,0.000301,0,0,0.051078,-0.020018,0,0.003913,0,0,0,0.01145,0.00049574,0.0035838,1.5752,0.0051766,0.009783,3.2431e-08,0.32,0.1,0
0.018482,0.0085732,0.011283,0.00053168,0.0035445,0.00014697,0,0,0.050303,-0.019584,0,0.0019106,0,0,0,0.011285,0.00052967,0.0035445,0.783,0.0051199,0.0096098,3.0913e-08,0.34,0.1,0
0.019481,0.0084344,0.011128,0.00054357,0.0035016,-1.0433e-05,0,0,0.049574,-0.019227,0,-0.00013564,0,0,0,0.011128,0.00054356,0.0035016,-0.056477,0.0050579,0.0094593,2.957e-08,0.36,0.1,0
0.020465,0.0082313,0.010975,0.00052905,0.0034512,-0.00016463,0,0,0.048905,-0.018994,0,-0.0021402,0,0,0,0.010978,0.00052646,0.0034512,-0.90268,0.0049851,0.0093388,2.8416e-08,0.38,0.1,0
0.021437,0.0079704,0.010821,0.00048065,0.0033904,-0.00030644,0,0,0.048296,-0.018913,0,-0.0039837,0,0,0,0.01083,0.00047158,0.0033904,-1.696,0.0048972,0.0092508,2.7431e-08,0.4,0.1,0
0.022397,0.007661,0.010661,0.00039352,0.0033163,-0.00042706,0,0,0.04774,-0.018998,0,-0.0055517,0,0,0,0.010679,0.00037579,0.0033163,-2.3777,0.0047903,0.0091924,2.6565e-08,0.42,0.1,0
0.023347,0.0073157,0.010499,0.00026911,0.0032303,-0.00051804,0,0,0.047244,-0.019248,0,-0.0067346,0,0,0,0.010525,0.00024294,0.0032303,-2.8917,0.004666,0.0091611,2.5797e-08,0.44,0.1,0
0.024287,0.0069505,0.010332,9.5827e-05,0.0031285,-0.00057212,0,0,0.046826,-0.019712,0,-0.0074375,0,0,0,0.010364,6.3951e-05,0.0031285,-3.189,0.0045189,0.009161,2.5106e-08,0.46,0.1,0
0.02522,0.0065867,0.010162,-0.00012535,0.0030111,-0.00056808,0,0,0.046484,-0.020387,0,-0.0073851,0,0,0,0.010194,-0.00015662,0.0030111,-3.1511,0.0043494,0.0091857,2.4436e-08,0.48,0.1,0
0.026146,0.006251,0.0099794,-0.00035908,0.0028861,-0.00049463,0,0,0.046107,-0.021094,0,-0.0064303,0,0,0,0.010003,-0.0003827,0.0028861,-2.7329,0.0041688,0.0091978,2.3617e-08,0.5,0.1,0
0.027064,0.0059723,0.0097885,-0.00051205,0.0027829,-0.00036118,0,0,0.045536,-0.021417,0,-0.0046953,0,0,0,0.0098011,-0.0005247,0.0027829,-2.0057,0.0040198,0.0091329,2.2532e-08,0.52,0.1,0
0.027968,0.0057716,0.0096065,-0.00053301,0.0027221,-0.00022624,0,0,0.044749,-0.021158,0,-0.0029412,0,0,0,0.0096116,-0.00053806,0.0027221,-1.2776,0.0039319,0.0089752,2.1296e-08,0.54,0.1,0
0.028854,0.0056572,0.0094534,-0.0004798,0.0026921,-0.00013349,0,0,0.043949,-0.020617,0,-0.0017353,0,0,0,0.0094552,-0.0004816,0.0026921,-0.76979,0.0038886,0.0087907,2.0181e-08,0.56,0.1,0
0.029726,0.005628,0.009366,-0.00043173,0.0026803,-9.1608e-05,0,0,0.043457,-0.020228,0,-0.0011909,0,0,0,0.0093668,-0.00043259,0.0026803,-0.53565,0.0038715,0.0086726,1.9536e-08,0.58,0.1,0
0.030592,0.0056814,0.0093687,-0.00044119,0.0026783,-6.7983e-05,0,0,0.043488,-0.020276,0,-0.00088378,0,0,0,0.0093691,-0.00044166,0.0026783,-0.39704,0.0038686,0.008682,1.9568e-08,0.6,0.1,0
0.031465,0.0058185,0.0094612,-0.00050879,0.0026857,-1.9791e-05,0,0,0.044041,-0.020764,0,-0.00025728,0,0,0,0.0094612,-0.00050883,0.0026857,-0.11373,0.0038794,0.008818,2.0272e-08,0.62,0.1,0
0.032354,0.0060439,0.0096183,-0.00058274,0.0027107,8.6224e-05,0,0,0.0449,-0.021407,0,0.0011209,0,0,0,0.009619,-0.00058347,0.0027107,0.48425,0.0039154,0.0090185,2.1434e-08,0.64,0.1,0
0.033261,0.0063608,0.009802,-0.00058308,0.0027657,0.00024205,0,0,0.045736,-0.021767,0,0.0031466,0,0,0,0.0098076,-0.00058872,0.0027657,1.3344,0.0039949,0.0091904,2.2707e-08,0.66,0.1,0
0.034183,0.0067633,0.0099912,-0.0004504,0.0028622,0.00040411,0,0,0.046338,-0.021532,0,0.0052534,0,0,0,0.010007,-0.00046601,0.0028622,2.2131,0.0041343,0.0092683,2.3828e-08,0.68,0.1,0
0.035115,0.0072323,0.010167,-0.00023489,0.0029798,0.00051327,0,0,0.04672,-0.020895,0,0.0066725,0,0,0,0.010193,-0.00026015,0.0029798,2.8179,0.0043041,0.0092679,2.468e-08,0.7,0.1,0
0.036052,0.0077411,0.010324,-2.9813e-05,0.0030884,0.00055933,0,0,0.047034,-0.020268,0,0.0072713,0,0,0,0.010355,-5.994e-05,0.0030884,3.0831,0.004461,0.0092512,2.5358e-08,0.72,0.1,0
0.036996,0.0082644,0.01047,0.00012969,0.00318,0.00055285,0,0,0.047387,-0.019827,0,0.0071871,0,0,0,0.0105,0.00010021,0.00318,3.0517,0.0045933,0.0092524,2.6006e-08,0.74,0.1,0
0.037948,0.0087827,0.010604,0.00024259,0.003254,0.00051419,0,0,0.047775,-0.019574,0,0.0066844,0,0,0,0.01063,0.00021714,0.003254,2.834,0.0047002,0.0092747,2.6655e-08,0.76,0.1,0
0.038907,0.0092809,0.010727,0.0003197,0.0033139,0.00044988,0,0,0.048182,-0.019462,0,0.0058484,0,0,0,0.010746,0.00030029,0.0033139,2.4707,0.0047867,0.0093121,2.7303e-08,0.78,0.1,0
0.039875,0.0097476,0.010835,0.000358,0.0033578,0.00036809,0,0,0.0486,-0.019499,0,0.0047852,0,0,0,0.010848,0.00034509,0.0033578,2.0098,0.0048502,0.0093668,2.7957e-08,0.8,0.1,0
0.040851,0.010174,0.010932,0.00036045,0.0033878,0.0002781,0,0,0.049039,-0.019678,0,0.0036153,0,0,0,0.010939,0.00035314,0.0033878,1.5058,0.0048935,0.0094422,2.8659e-08,0.82,0.1,0
0.041836,0.010556,0.011021,0.00033269,0.0034062,0.00019024,0,0,0.049498,-0.019978,0,0.0024732,0,0,0,0.011025,0.0003293,0.0034062,1.0194,0.0049201,0.0095368,2.9417e-08,0.84,0.1,0
0.042831,0.010889,0.011103,0.00028376,0.003416,0.00011291,0,0,0.049965,-0.02036,0,0.0014678,0,0,0,0.011104,0.00028259,0.003416,0.59786,0.0049342,0.0096445,3.0212e-08,0.86,0.1,0
0.043835,0.011173,0.011176,0.00022334,0.0034199,5.145e-05,0,0,0.050417,-0.020778,0,0.00066886,0,0,0,0.011177,0.00022309,0.0034199,0.26913,0.0049398,0.0097561,3.1002e-08,0.88,0.1,0
0.044848,0.011409,0.01124,0.00016014,0.0034201,8.0352e-06,0,0,0.050831,-0.02119,0,0.00010446,0,0,0,0.01124,0.00016014,0.0034201,0.04155,0.0049402,0.0098628,3.1739e-08,0.9,0.1,0
0.045868,0.011599,0.011294,0.00010107,0.0034184,-1.7698e-05,0,0,0.051189,-0.021563,0,-0.00023007,0,0,0,0.011294,0.00010104,0.0034184,-0.090598,0.0049377,0.0099574,3.2384e-08,0.92,0.1,0
0.046895,0.011744,0.011336,5.106e-05,0.003416,-2.7869e-05,0,0,0.051477,-0.021872,0,-0.00036229,0,0,0,0.011336,5.0992e-05,0.003416,-0.1415,0.0049342,0.010035,3.2906e-08,0.94,0.1,0
0.047927,0.011847,0.011366,1.3402e-05,0.0034137,-2.569e-05,0,0,0.051687,-0.022102,0,-0.00033397,0,0,0,0.011366,1.3343e-05,0.0034137,-0.12966,0.0049309,0.010091,3.3288e-08,0.96,0.1,0
0.048963,0.011908,0.011384,-9.8981e-06,0.0034121,-1.5007e-05,0,0,0.051815,-0.022243,0,-0.00019509,0,0,0,0.011384,-9.9178e-06,0.0034121,-0.075465,0.0049286,0.010126,3.352e-08,0.98,0.1,0
0.05,0.011928,0.01139,-1.7775e-05,0.0034116,7.7571e-05,0,0,0.051858,-0.022291,0,0.0010084,0,0,0,0.01139,-1.8302e-05,0.0034116,0.38959,0.0049278,0.010138,3.3604e-08,1,0.1,0
0,0,0.012894,0.0055259,0.0055259,0.0034236,0,0,0.047891,8.6736e-19,0,0.044506,0,0,0,0.014239,0.0041807,0.0055259,21.451,0.0079818,0.0094576,4.0501e-08,0,0.12,0
0.00095782,0.00089012,0.012836,0.0047908,0.0052882,0.0033951,0,0,0.049063,-0.0032325,0,0.044137,0,0,0,0.014077,0.0035496,0.0052882,20.082,0.0076384,0.0097753,4.2905e-08,0.02,0.12,0
0.0019625,0.0017844,0.013041,0.0040578,0.0051297,0.0033163,0,0,0.051425,-0.0069675,0,0.043112,0,0,0,0.014133,0.0029662,0.0051297,18.219,0.0074096,0.010257,4.7224e-08,0.04,0.12,0
0.0030148,0.0026624,0.013211,0.0033131,0.0049574,0.0031402,0,0,0.053651,-0.010688,0,0.040822,0,0,0,0.014124,0.002401,0.0049574,16.197,0.0071607,0.010676,5.0629e-08,0.06,0.12,0
0.0041086,0.0035023,0.013322,0.0026394,0.0047883,0.0028868,0,0,0.055467,-0.013968,0,0.037529,0,0,0,0.014052,0.0019092,0.0047883,14.195,0.0069165,0.01099,5.272e-08,0.08,0.12,0
0.0052335,0.0042866,0.013361,0.0020767,0.0046312,0.0025943,0,0,0.056742,-0.016604,0,0.033725,0,0,0,0.013929,0.0015089,0.0046312,12.347,0.0066896,0.01119,5.3524e-08,0.1,0.12,0
0.0063783,0.0050042,0.013333,0.0016295,0.0044889,0.0022973,0,0,0.057489,-0.018586,0,0.029865,0,0,0,0.013768,0.0011947,0.0044889,10.717,0.0064839,0.011293,5.3295e-08,0.12,0.12,0
0.0075331,0.0056497,0.013254,0.0012851,0.0043617,0.0020189,0,0,0.057799,-0.019998,0,0.026246,0,0,0,0.013585,0.00095369,0.0043617,9.3214,0.0063002,0.011319,5.2352e-08,0.14,0.12,0
0.0086902,0.0062214,0.013139,0.0010261,0.0042494,0.0017695,0,0,0.05778,-0.020952,0,0.023004,0,0,0,0.013392,0.0007729,0.0042494,8.1437,0.006138,0.011289,5.0963e-08,0.16,0.12,0
0.0098442,0.0067199,0.013001,0.00083706,0.0041515,0.001551,0,0,0.057524,-0.021544,0,0.020163,0,0,0,0.013196,0.00064242,0.0041515,7.1529,0.0059966,0.011218,4.9314e-08,0.18,0.12,0
0.010991,0.0071464,0.012851,0.00070529,0.004067,0.0013604,0,0,0.057098,-0.021851,0,0.017685,0,0,0,0.013002,0.00055479,0.004067,6.3129,0.0058745,0.011115,4.7519e-08,0.2,0.12,0
0.012128,0.0075023,0.012694,0.00062099,0.0039945,0.0011924,0,0,0.056547,-0.021928,0,0.015501,0,0,0,0.012811,0.00050435,0.0039945,5.5868,0.0057699,0.010985,4.5636e-08,0.22,0.12,0
0.013253,0.0077886,0.012532,0.00057635,0.0039325,0.0010406,0,0,0.055897,-0.021815,0,0.013529,0,0,0,0.012622,0.00048645,0.0039325,4.9377,0.0056803,0.010832,4.3692e-08,0.24,0.12,0
0.014364,0.0080061,0.012366,0.0005646,0.0038791,0.00089864,0,0,0.055163,-0.021544,0,0.011682,0,0,0,0.012434,0.00049656,0.0038791,4.3297,0.0056031,0.010656,4.1696e-08,0.26,0.12,0
0.01546,0.0081545,0.012195,0.00057893,0.0038321,0.00076004,0,0,0.054357,-0.021145,0,0.0098806,0,0,0,0.012244,0.00052941,0.0038321,3.7278,0.0055352,0.010462,3.9659e-08,0.28,0.12,0
0.016538,0.0082337,0.012018,0.00061137,0.0037889,0.00061935,0,0,0.053491,-0.020654,0,0.0080516,0,0,0,0.012052,0.00057784,0.0037889,3.0988,0.0054728,0.010253,3.7601e-08,0.3,0.12,0
0.017599,0.0082428,0.011836,0.0006516,0.0037464,0.00047267,0,0,0.052585,-0.020116,0,0.0061448,0,0,0,0.011856,0.00063166,0.0037464,2.4156,0.0054115,0.010037,3.5565e-08,0.32,0.12,0
0.018642,0.0081816,0.01165,0.00068636,0.0037008,0.00031902,0,0,0.051667,-0.019594,0,0.0041472,0,0,0,0.011659,0.00067709,0.0037008,1.6654,0.0053456,0.0098253,3.3612e-08,0.34,0.12,0
0.019666,0.0080508,0.011458,0.00069966,0.0036472,0.00016176,0,0,0.050768,-0.019159,0,0.0021028,0,0,0,0.01146,0.00069723,0.0036472,0.86123,0.0052682,0.0096328,3.181e-08,0.36,0.12,0
0.020672,0.0078531,0.011259,0.00067612,0.0035806,9.7716e-06,0,0,0.049911,-0.018879,0,0.00012703,0,0,0,0.011259,0.00067611,0.0035806,0.052902,0.005172,0.009471,3.0198e-08,0.38,0.12,0
0.021662,0.0075943,0.011048,0.00060367,0.0034954,-0.00012447,0,0,0.049089,-0.018796,0,-0.0016181,0,0,0,0.011049,0.00060219,0.0034954,-0.68272,0.0050489,0.0093425,2.8739e-08,0.4,0.12,0
0.022636,0.0072834,0.010815,0.00048282,0.0033894,-0.00022723,0,0,0.048268,-0.018893,0,-0.002954,0,0,0,0.01082,0.00047783,0.0033894,-1.2592,0.0048958,0.0092374,2.7339e-08,0.42,0.12,0
0.023593,0.0069337,0.010545,0.00031234,0.0032571,-0.00029509,0,0,0.04737,-0.019141,0,-0.0038362,0,0,0,0.010553,0.00030384,0.0032571,-1.6505,0.0047047,0.009138,2.5834e-08,0.44,0.12,0
0.024531,0.0065596,0.010263,0.00012088,0.0031151,-0.00032408,0,0,0.046461,-0.019463,0,-0.004213,0,0,0,0.010273,0.00011054,0.0031151,-1.8283,0.0044996,0.0090429,2.4326e-08,0.46,0.12,0
0.025451,0.0061817,0.0099478,-0.00016231,0.0029357,-0.00032039,0,0,0.045579,-0.020137,0,-0.0041651,0,0,0,0.009958,-0.00017245,0.0029357,-1.8133,0.0042404,0.0089888,2.2825e-08,0.48,0.12,0
0.026354,0.0058306,0.0095993,-0.00050178,0.0027293,-0.00021941,0,0,0.044655,-0.021002,0,-0.0028523,0,0,0,0.0096041,-0.00050654,0.0027293,-1.2437,0.0039423,0.0089431,2.1185e-08,0.5,0.12,0
0.027238,0.0055463,0.0092411,-0.00068738,0.0025661,-6.7124e-05,0,0,0.043387,-0.021148,0,-0.00087262,0,0,0,0.0092416,-0.00068783,0.0025661,-0.38734,0.0037066,0.0087676,1.9234e-08,0.52,0.12,0
0.028089,0.0053554,0.0089027,-0.00062112,0.0024845,6.1422e-05,0,0,0.041718,-0.020186,0,0.00079849,0,0,0,0.0089031,-0.00062151,0.0024845,0.3695,0.0035887,0.0084132,1.713e-08,0.54,0.12,0
0.028906,0.0052572,0.0086311,-0.00044727,0.0024552,6.4841e-05,0,0,0.040144,-0.018866,0,0.00084293,0,0,0,0.0086316,-0.00044774,0.0024552,0.4092,0.0035463,0.0080315,1.5367e-08,0.56,0.12,0
0.029695,0.0052391,0.0084615,-0.00035731,0.0024312,-2.2409e-05,0,0,0.039197,-0.018126,0,-0.00029131,0,0,0,0.0084615,-0.00035737,0.0024312,-0.14559,0.0035118,0.0078075,1.4348e-08,0.58,0.12,0
0.030474,0.0052915,0.008461,-0.00036955,0.0024274,-0.0001394,0,0,0.039218,-0.01818,0,-0.0018123,0,0,0,0.0084632,-0.00037175,0.0024274,-0.9042,0.0035063,0.0078206,1.438e-08,0.6,0.12,0
0.031264,0.0054153,0.0086298,-0.00048524,0.0024434,-0.0002204,0,0,0.040212,-0.019036,0,-0.0028652,0,0,0,0.0086351,-0.00049056,0.0024434,-1.3843,0.0035293,0.0080692,1.5454e-08,0.62,0.12,0
0.032083,0.0056222,0.0089,-0.00068792,0.0024636,-0.0002031,0,0,0.041837,-0.020485,0,-0.0026402,0,0,0,0.0089044,-0.00069222,0.0024636,-1.2129,0.0035586,0.0084716,1.7252e-08,0.64,0.12,0
0.032937,0.0059271,0.0092356,-0.00078496,0.0025352,-5.1242e-05,0,0,0.043553,-0.021581,0,-0.00066614,0,0,0,0.0092359,-0.00078523,0.0025352,-0.29298,0.003662,0.0088416,1.9366e-08,0.66,0.12,0
0.033825,0.0063332,0.0095881,-0.00062825,0.002688,0.00013402,0,0,0.044851,-0.021555,0,0.0017423,0,0,0,0.0095899,-0.00063001,0.002688,0.75146,0.0038826,0.0090302,2.1333e-08,0.68,0.12,0
0.034731,0.006816,0.0099264,-0.00031383,0.0028838,0.00027642,0,0,0.045777,-0.020785,0,0.0035934,0,0,0,0.0099339,-0.00032128,0.0028838,1.5451,0.0041655,0.0090869,2.3e-08,0.7,0.12,0
0.035656,0.0073377,0.010225,-5.3197e-05,0.0030516,0.00032875,0,0,0.046629,-0.020181,0,0.0042737,0,0,0,0.010236,-6.3701e-05,0.0030516,1.8301,0.0044079,0.0091486,2.4506e-08,0.72,0.12,0
0.036597,0.0078694,0.010484,0.00011874,0.0031808,0.00035495,0,0,0.04747,-0.019903,0,0.0046143,0,0,0,0.010496,0.0001066,0.0031808,1.959,0.0045945,0.0092441,2.5961e-08,0.74,0.12,0
0.037555,0.0083919,0.010724,0.00027345,0.0032992,0.00034767,0,0,0.048261,-0.019668,0,0.0045197,0,0,0,0.010736,0.00026189,0.0032992,1.9033,0.0047656,0.0093333,2.7336e-08,0.76,0.12,0
0.038527,0.008892,0.010918,0.00038096,0.0033898,0.00030958,0,0,0.048935,-0.019557,0,0.0040245,0,0,0,0.010927,0.00037187,0.0033898,1.6814,0.0048963,0.0094165,2.8504e-08,0.78,0.12,0
0.039512,0.0093574,0.011084,0.00043987,0.0034572,0.00024366,0,0,0.049576,-0.019613,0,0.0031676,0,0,0,0.01109,0.0004343,0.0034572,1.3107,0.0049938,0.0095114,2.9612e-08,0.8,0.12,0
0.04051,0.0097796,0.01123,0.00044692,0.003503,0.00016423,0,0,0.050223,-0.019864,0,0.002135,0,0,0,0.011232,0.00044442,0.003503,0.8724,0.0050598,0.0096299,3.0752e-08,0.82,0.12,0
0.041521,0.010154,0.011361,0.00041149,0.0035317,8.53e-05,0,0,0.05089,-0.020282,0,0.0011089,0,0,0,0.011362,0.00041083,0.0035317,0.44632,0.0051014,0.0097716,3.1958e-08,0.84,0.12,0
0.042546,0.010478,0.011479,0.00034687,0.0035479,1.7998e-05,0,0,0.051555,-0.020806,0,0.00023398,0,0,0,0.011479,0.00034684,0.0035479,0.092632,0.0051247,0.0099269,3.3195e-08,0.86,0.12,0
0.043583,0.010752,0.011584,0.00026746,0.0035554,-3.1646e-05,0,0,0.052185,-0.021372,0,-0.0004114,0,0,0,0.011584,0.00026737,0.0035554,-0.16023,0.0051356,0.010083,3.4395e-08,0.88,0.12,0
0.044633,0.010979,0.011673,0.00018523,0.0035575,-6.1799e-05,0,0,0.052752,-0.02192,0,-0.00080339,0,0,0,0.011674,0.0001849,0.0035575,-0.30821,0.0051387,0.010228,3.549e-08,0.9,0.12,0
0.045693,0.01116,0.011746,0.0001091,0.0035566,-7.3513e-05,0,0,0.053232,-0.022409,0,-0.00095567,0,0,0,0.011747,0.00010863,0.0035566,-0.36193,0.0051373,0.010354,3.6427e-08,0.92,0.12,0
0.046762,0.011298,0.011802,4.5137e-05,0.0035543,-6.9479e-05,0,0,0.053613,-0.022809,0,-0.00090323,0,0,0,0.011803,4.4726e-05,0.0035543,-0.33857,0.0051339,0.010455,3.7173e-08,0.94,0.12,0
0.047838,0.011395,0.011842,-2.7714e-06,0.0035518,-5.3231e-05,0,0,0.053887,-0.023105,0,-0.000692,0,0,0,0.011842,-3.0106e-06,0.0035518,-0.25748,0.0051304,0.010528,3.7713e-08,0.96,0.12,0
0.048918,0.011453,0.011866,-3.2312e-05,0.00355,-2.8702e-05,0,0,0.054052,-0.023285,0,-0.00037312,0,0,0,0.011866,-3.2381e-05,0.00355,-0.13821,0.0051278,0.010573,3.8038e-08,0.98,0.12,0
0.05,0.011472,0.011874,-4.2282e-05,0.0035494,7.338e-05,0,0,0.054108,-0.023346,0,0.00095394,0,0,0,0.011874,-4.2734e-05,0.0035494,0.35282,0.0051269,0.010588,3.8152e-08,1,0.12,0
0,0,0.012821,0.0054949,0.0054949,0.0031875,0,0,0.047622,2.1684e-19,0,0.041438,0,0,0,0.014014,0.0043023,0.0054949,20.514,0.0079371,0.0091738,3.7403e-08,0,0.14,0
0.00095245,0.00082876,0.012768,0.0048177,0.0052758,0.0031689,0,0,0.048702,-0.002978,0,0.041196,0,0,0,0.013877,0.0037092,0.0052758,19.28,0.0076206,0.009482,3.9785e-08,0.02,0.14,0
0.0019481,0.0016534,0.012972,0.0041756,0.0051444,0.0031067,0,0,0.050882,-0.0062969,0,0.040387,0,0,0,0.013959,0.0031891,0.0051444,17.617,0.0074308,0.0099375,4.3898e-08,0.04,0.14,0
0.0029877,0.0024613,0.013154,0.0035171,0.0050014,0.0029798,0,0,0.052993,-0.009648,0,0.038737,0,0,0,0.014001,0.0026702,0.0050014,15.866,0.0072242,0.010364,4.7566e-08,0.06,0.14,0
0.0040678,0.0032375,0.013295,0.0028977,0.0048579,0.0027941,0,0,0.054843,-0.012741,0,0.036323,0,0,0,0.013998,0.0021944,0.0048579,14.128,0.0070169,0.010723,5.0401e-08,0.08,0.14,0
0.0051814,0.0039684,0.013384,0.0023534,0.0047212,0.0025696,0,0,0.056308,-0.015391,0,0.033404,0,0,0,0.013953,0.0017841,0.0047212,12.49,0.0068195,0.010999,5.226e-08,0.1,0.14,0
0.0063201,0.0046442,0.013419,0.0018983,0.0045951,0.0023297,0,0,0.057354,-0.017529,0,0.030286,0,0,0,0.013872,0.001445,0.0045951,11.01,0.0066374,0.01119,5.3193e-08,0.12,0.14,0
0.0074756,0.0052586,0.013406,0.0015318,0.0044812,0.0020934,0,0,0.058008,-0.019171,0,0.027214,0,0,0,0.013764,0.0011735,0.0044812,9.7116,0.0064728,0.011305,5.3355e-08,0.14,0.14,0
0.0086404,0.0058084,0.013354,0.0012456,0.0043798,0.0018726,0,0,0.058331,-0.020372,0,0.024343,0,0,0,0.013637,0.0009626,0.0043798,8.5936,0.0063264,0.011358,5.2922e-08,0.16,0.14,0
0.0098088,0.0062925,0.013273,0.0010297,0.0042907,0.0016726,0,0,0.058383,-0.021197,0,0.021744,0,0,0,0.013497,0.00080526,0.0042907,7.641,0.0061977,0.011358,5.2046e-08,0.18,0.14,0
0.010976,0.0067107,0.01317,0.00087439,0.0042134,0.0014943,0,0,0.05822,-0.021704,0,0.019425,0,0,0,0.013349,0.0006954,0.0042134,6.8304,0.0060861,0.011313,5.0838e-08,0.2,0.14,0
0.012138,0.0070635,0.013051,0.00077152,0.0041469,0.0013353,0,0,0.05788,-0.02194,0,0.017358,0,0,0,0.013195,0.00062801,0.0041469,6.1345,0.0059899,0.011229,4.9369e-08,0.22,0.14,0
0.013291,0.007351,0.012918,0.00071397,0.0040897,0.0011915,0,0,0.057387,-0.021943,0,0.01549,0,0,0,0.013034,0.00059873,0.0040897,5.5244,0.0059074,0.011109,4.7678e-08,0.24,0.14,0
0.014433,0.0075733,0.012772,0.00069525,0.0040402,0.001058,0,0,0.056757,-0.021742,0,0.013754,0,0,0,0.012864,0.00060326,0.0040402,4.969,0.0058359,0.010955,4.5787e-08,0.26,0.14,0
0.015561,0.0077296,0.012612,0.0007085,0.0039961,0.00092903,0,0,0.056002,-0.021369,0,0.012077,0,0,0,0.012684,0.00063643,0.0039961,4.436,0.0057722,0.010768,4.3713e-08,0.28,0.14,0
0.016673,0.0078189,0.012437,0.00074528,0.0039547,0.00079886,0,0,0.055135,-0.020861,0,0.010385,0,0,0,0.012491,0.00069095,0.0039547,3.8907,0.0057123,0.010554,4.1484e-08,0.3,0.14,0
0.017767,0.0078394,0.012248,0.00079394,0.0039125,0.00066254,0,0,0.054179,-0.020271,0,0.008613,0,0,0,0.012286,0.00075574,0.0039125,3.2996,0.0056514,0.01032,3.916e-08,0.32,0.14,0
0.01884,0.0077895,0.012045,0.00083768,0.0038649,0.00051757,0,0,0.053172,-0.019677,0,0.0067285,0,0,0,0.012069,0.00081383,0.0038649,2.6385,0.0055826,0.010082,3.684e-08,0.34,0.14,0
0.019894,0.007668,0.011832,0.00085463,0.003806,0.00036705,0,0,0.052169,-0.019184,0,0.0047717,0,0,0,0.011844,0.00084237,0.003806,1.913,0.0054975,0.00986,3.4652e-08,0.36,0.14,0
0.020927,0.0074762,0.011607,0.00081904,0.0037277,0.00022206,0,0,0.051213,-0.018906,0,0.0028868,0,0,0,0.011611,0.00081447,0.0037277,1.1788,0.0053845,0.0096749,3.2689e-08,0.38,0.14,0
0.021942,0.0072186,0.011365,0.0007151,0.003624,0.00010393,0,0,0.050316,-0.018908,0,0.0013511,0,0,0,0.011366,0.00071409,0.003624,0.55907,0.0052346,0.0095358,3.0953e-08,0.4,0.14,0
0.02294,0.0069053,0.011081,0.00053345,0.0034842,3.3014e-05,0,0,0.049376,-0.01918,0,0.00042918,0,0,0,0.011081,0.00053335,0.0034842,0.17934,0.0050327,0.009425,2.9218e-08,0.42,0.14,0
0.023917,0.00655,0.010742,0.00031084,0.0033159,3.1941e-05,0,0,0.048271,-0.019533,0,0.00041523,0,0,0,0.010742,0.00031074,0.0033159,0.17544,0.0047897,0.0093006,2.7244e-08,0.44,0.14,0
0.024871,0.006172,0.010253,1.4683e-05,0.0030804,7.1892e-05,0,0,0.046624,-0.019927,0,0.00093459,0,0,0,0.010254,1.4178e-05,0.0030804,0.40228,0.0044495,0.0091026,2.4439e-08,0.46,0.14,0
0.025782,0.0057812,0.0098009,-0.00017204,0.0028887,0.00017337,0,0,0.04493,-0.019895,0,0.0022538,0,0,0,0.009804,-0.00017505,0.0028887,0.9956,0.0041725,0.0088541,2.1794e-08,0.48,0.14,0
0.026668,0.005411,0.0091629,-0.0006994,0.0025391,0.00025261,0,0,0.043055,-0.02105,0,0.0032839,0,0,0,0.0091694,-0.00070586,0.0025391,1.4663,0.0036675,0.0087181,1.8827e-08,0.5,0.14,0
0.027504,0.0051264,0.0085059,-0.00093686,0.0022707,0.00050548,0,0,0.040529,-0.020849,0,0.0065712,0,0,0,0.0085329,-0.00096384,0.0022707,3.0554,0.0032799,0.0083626,1.5599e-08,0.52,0.14,0
0.028289,0.0049642,0.0080261,-0.0004986,0.0022582,0.00052428,0,0,0.037491,-0.01792,0,0.0068156,0,0,0,0.0080582,-0.00053072,0.0022582,3.5062,0.0032619,0.007589,1.2659e-08,0.54,0.14,0
0.029004,0.0049026,0.0075342,-0.00025246,0.0021845,0.00034566,0,0,0.034773,-0.01584,0,0.0044935,0,0,0,0.0075495,-0.00026778,0.0021845,2.5368,0.0031554,0.0069248,1.0126e-08,0.56,0.14,0
0.02968,0.0049029,0.0073009,-0.00014014,0.0021482,6.8288e-05,0,0,0.033492,-0.014874,0,0.00088775,0,0,0,0.0073015,-0.00014077,0.0021482,0.52576,0.003103,0.0066024,9.0157e-09,0.58,0.14,0
0.030344,0.0049542,0.0072975,-0.00015493,0.0021428,-0.00022605,0,0,0.033506,-0.014935,0,-0.0029387,0,0,0,0.0073044,-0.00016178,0.0021428,-1.7358,0.0030951,0.0066218,9.0524e-09,0.6,0.14,0
0.03102,0.0050571,0.007525,-0.00029852,0.002168,-0.00049805,0,0,0.034821,-0.016032,0,-0.0064746,0,0,0,0.0075566,-0.0003301,0.002168,-3.6279,0.0031315,0.0069813,1.0234e-08,0.62,0.14,0
0.031737,0.0052245,0.0080125,-0.00058176,0.0022292,-0.00066383,0,0,0.037591,-0.018271,0,-0.0086297,0,0,0,0.0080635,-0.00063273,0.0022292,-4.3908,0.00322,0.0076764,1.2819e-08,0.64,0.14,0
0.032524,0.0054976,0.0084864,-0.0010646,0.0022265,-0.00062065,0,0,0.040689,-0.021392,0,-0.0080684,0,0,0,0.0085265,-0.0011048,0.0022265,-3.7024,0.0032161,0.008472,1.5744e-08,0.66,0.14,0
0.033364,0.0059011,0.0091354,-0.00086762,0.0024803,-0.00032991,0,0,0.043258,-0.021762,0,-0.0042888,0,0,0,0.0091462,-0.00087849,0.0024803,-1.8869,0.0035827,0.0088377,1.8971e-08,0.68,0.14,0
0.034254,0.0064009,0.0097626,-0.00037043,0.0028177,-0.00020376,0,0,0.045142,-0.020723,0,-0.0026489,0,0,0,0.0097667,-0.00037453,0.0028177,-1.1515,0.00407,0.0089812,2.1985e-08,0.7,0.14,0
0.03517,0.0069339,0.010197,-0.0002152,0.0029944,-4.7672e-05,0,0,0.046814,-0.020862,0,-0.00061974,0,0,0,0.010197,-0.00021542,0.0029944,-0.26233,0.0043252,0.0092355,2.4601e-08,0.72,0.14,0
0.036127,0.0074683,0.010661,5.4941e-05,0.0032148,5.4902e-05,0,0,0.048401,-0.020539,0,0.00071373,0,0,0,0.010662,5.4657e-05,0.0032148,0.29658,0.0046437,0.0094325,2.7358e-08,0.74,0.14,0
0.037106,0.007996,0.010969,0.00025796,0.003368,0.00012176,0,0,0.049405,-0.020216,0,0.0015829,0,0,0,0.01097,0.00025658,0.003368,0.65122,0.0048649,0.0095461,2.9201e-08,0.76,0.14,0
0.038103,0.0084986,0.011216,0.00042323,0.0034916,0.00012252,0,0,0.050206,-0.019945,0,0.0015927,0,0,0,0.011217,0.00042184,0.0034916,0.65032,0.0050435,0.0096343,3.07e-08,0.78,0.14,0
0.039114,0.0089631,0.011414,0.00051079,0.0035776,7.889e-05,0,0,0.05094,-0.019934,0,0.0010256,0,0,0,0.011415,0.00051022,0.0035776,0.41452,0.0051676,0.0097404,3.2078e-08,0.8,0.14,0
0.04014,0.0093797,0.011592,0.00052552,0.0036352,1.2131e-05,0,0,0.051719,-0.020213,0,0.00015771,0,0,0,0.011592,0.0005255,0.0036352,0.062809,0.0052509,0.0098855,3.3566e-08,0.82,0.14,0
0.041183,0.0097443,0.011753,0.00047973,0.0036698,-5.4431e-05,0,0,0.05254,-0.020735,0,-0.0007076,0,0,0,0.011753,0.00047947,0.0036698,-0.27664,0.0053008,0.010065,3.5181e-08,0.84,0.14,0
0.042242,0.010056,0.011899,0.00039651,0.0036886,-0.00010686,0,0,0.053366,-0.021399,0,-0.0013891,0,0,0,0.0119,0.00039552,0.0036886,-0.53222,0.005328,0.010262,3.6846e-08,0.86,0.14,0
0.043317,0.010318,0.012027,0.00029609,0.0036968,-0.00013896,0,0,0.054144,-0.022105,0,-0.0018065,0,0,0,0.012028,0.00029445,0.0036968,-0.6786,0.0053399,0.010456,3.8444e-08,0.88,0.14,0
0.044408,0.010533,0.012134,0.00019409,0.0036985,-0.00015023,0,0,0.054833,-0.022779,0,-0.001953,0,0,0,0.012136,0.0001922,0.0036985,-0.72074,0.0053423,0.010634,3.9879e-08,0.9,0.14,0
0.045511,0.010703,0.012221,0.000101,0.0036966,-0.00014293,0,0,0.055408,-0.023371,0,-0.0018581,0,0,0,0.012223,9.9312e-05,0.0036966,-0.67556,0.0053395,0.010784,4.1087e-08,0.92,0.14,0
0.046624,0.010832,0.012287,2.3573e-05,0.0036931,-0.00012047,0,0,0.055859,-0.023852,0,-0.0015661,0,0,0,0.012288,2.239e-05,0.0036931,-0.56277,0.0053345,0.010904,4.2037e-08,0.94,0.14,0
0.047745,0.010923,0.012333,-3.4025e-05,0.0036896,-8.6611e-05,0,0,0.05618,-0.024204,0,-0.0011259,0,0,0,0.012333,-3.4632e-05,0.0036896,-0.40125,0.0053294,0.01099,4.2716e-08,0.96,0.14,0
0.048871,0.010976,0.01236,-6.9392e-05,0.0036871,-4.5189e-05,0,0,0.056372,-0.024417,0,-0.00058745,0,0,0,0.01236,-6.9556e-05,0.0036871,-0.20831,0.0053259,0.011041,4.3122e-08,0.98,0.14,0
0.05,0.010994,0.012369,-8.1305e-05,0.0036862,6.8241e-05,0,0,0.056436,-0.024489,0,0.00088714,0,0,0,0.012369,-8.1679e-05,0.0036862,0.31404,0.0053246,0.011059,4.3263e-08,1,0.14,0
0,0,0.012818,0.0054936,0.0054936,0.0029654,0,0,0.047611,3.2526e-19,0,0.03855,0,0,0,0.013868,0.0044436,0.0054936,19.498,0.0079352,0.0089461,3.5071e-08,0,0.16,0
0.00095222,0.000771,0.012767,0.0048471,0.0052841,0.0029524,0,0,0.048636,-0.0028406,0,0.038382,0,0,0,0.013746,0.0038676,0.0052841,18.354,0.0076326,0.009252,3.7481e-08,0.02,0.16,0
0.0019455,0.0015325,0.01297,0.0042615,0.0051693,0.0028993,0,0,0.050702,-0.0059007,0,0.037692,0,0,0,0.013847,0.0033845,0.0051693,16.83,0.0074668,0.0096937,4.1488e-08,0.04,0.16,0
0.0029803,0.0022765,0.013158,0.0036635,0.0050463,0.0028035,0,0,0.052723,-0.0089882,0,0.036445,0,0,0,0.013924,0.0028975,0.0050463,15.283,0.0072892,0.010124,4.5309e-08,0.06,0.16,0
0.0040544,0.0029927,0.013317,0.0030905,0.0049223,0.0026644,0,0,0.054566,-0.011906,0,0.034637,0,0,0,0.013969,0.002438,0.0049223,13.762,0.0071099,0.010512,4.8611e-08,0.08,0.16,0
0.0051629,0.003671,0.013438,0.0025709,0.0048026,0.0024922,0,0,0.056129,-0.014506,0,0.032399,0,0,0,0.013982,0.0020267,0.0048026,12.32,0.0069371,0.010837,5.1199e-08,0.1,0.16,0
0.0062995,0.004303,0.013516,0.0021207,0.0046911,0.0023016,0,0,0.057363,-0.016707,0,0.029921,0,0,0,0.013963,0.0016734,0.0046911,10.998,0.006776,0.011093,5.3017e-08,0.12,0.16,0
0.0074574,0.0048828,0.013553,0.001745,0.0045894,0.0021068,0,0,0.058264,-0.018489,0,0.027388,0,0,0,0.013918,0.0013803,0.0045894,9.8192,0.0066292,0.011281,5.4105e-08,0.14,0.16,0
0.0086301,0.0054065,0.013553,0.0014418,0.0044986,0.0019186,0,0,0.058856,-0.019869,0,0.024942,0,0,0,0.01385,0.0011452,0.0044986,8.7896,0.0064979,0.011404,5.4556e-08,0.16,0.16,0
0.0098117,0.005872,0.013523,0.001206,0.0044187,0.0017436,0,0,0.059177,-0.020882,0,0.022667,0,0,0,0.013765,0.00096397,0.0044187,7.9042,0.0063825,0.011471,5.4469e-08,0.18,0.16,0
0.010997,0.0062782,0.013467,0.0010314,0.0043495,0.0015848,0,0,0.059263,-0.021568,0,0.020603,0,0,0,0.013666,0.00083256,0.0043495,7.1498,0.0062825,0.011486,5.3932e-08,0.2,0.16,0
0.012182,0.0066247,0.013389,0.0009116,0.0042902,0.0014423,0,0,0.059142,-0.021961,0,0.01875,0,0,0,0.013554,0.00074706,0.0042902,6.5086,0.0061969,0.011454,5.3005e-08,0.22,0.16,0
0.013363,0.0069109,0.013291,0.000841,0.0042397,0.001314,0,0,0.058836,-0.022092,0,0.017082,0,0,0,0.013429,0.00070383,0.0042397,5.9594,0.006124,0.011377,5.1728e-08,0.24,0.16,0
0.014536,0.0071364,0.013174,0.00081396,0.0041965,0.0011965,0,0,0.058355,-0.021986,0,0.015554,0,0,0,0.013289,0.00069921,0.0041965,5.4785,0.0060615,0.011256,5.0118e-08,0.26,0.16,0
0.015697,0.0072997,0.013036,0.00082431,0.0041582,0.0010851,0,0,0.057708,-0.02167,0,0.014106,0,0,0,0.013132,0.00072865,0.0041582,5.0384,0.0060063,0.011093,4.8189e-08,0.28,0.16,0
0.016844,0.0073992,0.012876,0.00086406,0.0041221,0.00097406,0,0,0.056902,-0.021177,0,0.012663,0,0,0,0.012955,0.00078558,0.0041221,4.606,0.0059541,0.010891,4.5961e-08,0.3,0.16,0
0.017973,0.007432,0.012693,0.0009215,0.0040844,0.00085708,0,0,0.055957,-0.020559,0,0.011142,0,0,0,0.012755,0.00085943,0.0040844,4.1425,0.0058997,0.010656,4.3492e-08,0.32,0.16,0
0.019082,0.0073945,0.01249,0.00097818,0.0040405,0.00072884,0,0,0.054923,-0.019905,0,0.0094749,0,0,0,0.012536,0.00093222,0.0040405,3.6082,0.0058363,0.010404,4.0911e-08,0.34,0.16,0
0.02017,0.0072835,0.012272,0.0010038,0.0039826,0.0005891,0,0,0.053878,-0.019362,0,0.0076583,0,0,0,0.012302,0.00097307,0.0039826,2.9847,0.0057526,0.010164,3.8419e-08,0.36,0.16,0
0.021237,0.0070969,0.012045,0.00096166,0.003902,0.00045147,0,0,0.052929,-0.019112,0,0.0058691,0,0,0,0.012063,0.0009433,0.003902,2.3288,0.0056362,0.0099753,3.6267e-08,0.38,0.16,0
0.022287,0.0068379,0.011799,0.00080826,0.0037822,0.00034368,0,0,0.052109,-0.019331,0,0.0044679,0,0,0,0.01181,0.00079752,0.0037822,1.7893,0.0054631,0.0098645,3.4512e-08,0.4,0.16,0
0.023322,0.0065162,0.011534,0.00055734,0.0036275,0.00031662,0,0,0.051394,-0.019956,0,0.004116,0,0,0,0.011543,0.00054821,0.0036275,1.6508,0.0052397,0.0098243,3.3058e-08,0.42,0.16,0
0.024343,0.0061524,0.011153,0.00018782,0.0034024,0.00038509,0,0,0.050382,-0.020894,0,0.0050061,0,0,0,0.011167,0.00017432,0.0034024,2.0088,0.0049145,0.0097863,3.1074e-08,0.44,0.16,0
0.025337,0.0057625,0.010718,-0.00011463,0.0031811,0.00062399,0,0,0.048992,-0.021423,0,0.0081119,0,0,0,0.010754,-0.00015046,0.0031811,3.2858,0.004595,0.009679,2.8653e-08,0.46,0.16,0
0.026303,0.0053859,0.0095705,-0.00078534,0.0026355,0.00085996,0,0,0.045077,-0.022236,0,0.01118,0,0,0,0.0096414,-0.00085626,0.0026355,4.7149,0.0038069,0.0092595,2.2097e-08,0.48,0.16,0
0.02714,0.0049886,0.0085611,-0.0011093,0.0022355,0.0016197,0,0,0.041116,-0.021742,0,0.021056,0,0,0,0.0088252,-0.0013734,0.0022355,9.2597,0.0032291,0.0089571,1.7743e-08,0.5,0.16,0
0.027947,0.0047123,0.007731,-0.00049673,0.0021703,0.0013736,0,0,0.036145,-0.017336,0,0.017856,0,0,0,0.0079543,-0.00071998,0.0021703,9.2317,0.0031349,0.0076502,1.2425e-08,0.52,0.16,0
0.028586,0.0046386,0.0065418,-0.00012188,0.001926,0.0010752,0,0,0.030003,-0.013311,0,0.013977,0,0,0,0.006711,-0.00029106,0.001926,8.9425,0.002782,0.0061984,7.1659e-09,0.54,0.16,0
0.029147,0.0046236,0.0060461,9.1072e-05,0.0018411,0.00059761,0,0,0.027332,-0.011376,0,0.0077689,0,0,0,0.0061055,3.1692e-05,0.0018411,5.6744,0.0026594,0.0054014,5.1377e-09,0.56,0.16,0
0.029679,0.0046442,0.0058829,0.00019859,0.0018245,0.00014487,0,0,0.02638,-0.010568,0,0.0018833,0,0,0,0.0058866,0.0001949,0.0018245,1.4589,0.0026353,0.005077,4.461e-09,0.58,0.16,0
0.030203,0.0046941,0.0058772,0.00018152,0.0018176,-0.00029351,0,0,0.026387,-0.010635,0,-0.0038156,0,0,0,0.0058923,0.00016644,0.0018176,-2.9422,0.0026255,0.0051046,4.4996e-09,0.6,0.16,0
0.030735,0.004774,0.0060296,3.7514e-05,0.0018201,-0.00074202,0,0,0.027361,-0.011587,0,-0.0096463,0,0,0,0.0061201,-5.3006e-05,0.0018201,-6.9552,0.0026291,0.005482,5.2517e-09,0.62,0.16,0
0.031297,0.0048913,0.0065184,-0.0002184,0.00189,-0.0012093,0,0,0.030084,-0.013704,0,-0.015721,0,0,0,0.0067289,-0.0004289,0.00189,-9.8745,0.00273,0.0063256,7.3571e-09,0.64,0.16,0
0.031938,0.0050714,0.0077028,-0.00065312,0.0021149,-0.001485,0,0,0.036321,-0.017992,0,-0.019305,0,0,0,0.0079588,-0.00090918,0.0021149,-9.7834,0.0030549,0.0078083,1.2669e-08,0.66,0.16,0
0.03275,0.0054627,0.0085218,-0.0013295,0.0021577,-0.0016903,0,0,0.041367,-0.022667,0,-0.021975,0,0,0,0.0088037,-0.0016115,0.0021577,-9.4705,0.0031166,0.0091338,1.7879e-08,0.68,0.16,0
0.033593,0.0059871,0.0095223,-0.0010363,0.0025458,-0.00087535,0,0,0.045347,-0.023283,0,-0.01138,0,0,0,0.0095944,-0.0011083,0.0025458,-4.7072,0.0036773,0.009423,2.2216e-08,0.7,0.16,0
0.034564,0.0065032,0.010651,-0.00040804,0.0030729,-0.00057794,0,0,0.049258,-0.022626,0,-0.0075132,0,0,0,0.010681,-0.00043816,0.0030729,-2.9834,0.0044386,0.0098451,2.8829e-08,0.72,0.16,0
0.035563,0.0070478,0.011062,-0.00013612,0.0032779,-0.00027077,0,0,0.050599,-0.022191,0,-0.00352,0,0,0,0.011069,-0.00014266,0.0032779,-1.3843,0.0047347,0.0099524,3.1207e-08,0.74,0.16,0
0.036588,0.0075833,0.011411,0.0002086,0.003486,-0.00012765,0,0,0.051516,-0.021303,0,-0.0016595,0,0,0,0.011413,0.00020714,0.003486,-0.65274,0.0050354,0.0099789,3.3079e-08,0.76,0.16,0
0.037624,0.0080942,0.011642,0.00044203,0.0036251,-7.8027e-05,0,0,0.052107,-0.02069,0,-0.0010144,0,0,0,0.011642,0.00044149,0.0036251,-0.39915,0.0052362,0.0099965,3.4311e-08,0.78,0.16,0
0.038672,0.00856,0.011849,0.00057718,0.0037278,-0.00010752,0,0,0.052787,-0.020479,0,-0.0013977,0,0,0,0.01185,0.00057615,0.0037278,-0.54645,0.0053846,0.010075,3.5713e-08,0.8,0.16,0
0.039735,0.008971,0.012035,0.00059489,0.003789,-0.00016452,0,0,0.0536,-0.020762,0,-0.0021388,0,0,0,0.012038,0.00059252,0.003789,-0.82373,0.0054731,0.010228,3.7409e-08,0.82,0.16,0
0.040816,0.0093242,0.012213,0.00053347,0.0038239,-0.00021832,0,0,0.054528,-0.021388,0,-0.0028381,0,0,0,0.012217,0.00052939,0.0038239,-1.0705,0.0055234,0.010438,3.9389e-08,0.84,0.16,0
0.041916,0.0096217,0.012374,0.00042684,0.0038403,-0.00025171,0,0,0.05547,-0.022188,0,-0.0032722,0,0,0,0.012379,0.00042154,0.0038403,-1.2064,0.0055471,0.010668,4.1444e-08,0.86,0.16,0
0.043035,0.0098679,0.012515,0.00030382,0.0038456,-0.00026127,0,0,0.056349,-0.023021,0,-0.0033965,0,0,0,0.01252,0.00029823,0.0038456,-1.2252,0.0055547,0.010891,4.339e-08,0.88,0.16,0
0.04417,0.010068,0.012631,0.00018223,0.0038439,-0.00024917,0,0,0.057115,-0.023801,0,-0.0032392,0,0,0,0.012636,0.00017725,0.0038439,-1.1462,0.0055523,0.01109,4.51e-08,0.9,0.16,0
0.045319,0.010225,0.012722,7.3215e-05,0.0038387,-0.00021937,0,0,0.057744,-0.024476,0,-0.0028518,0,0,0,0.012726,6.9412e-05,0.0038387,-0.99324,0.0055448,0.011256,4.6515e-08,0.92,0.16,0
0.04648,0.010344,0.012791,-1.6401e-05,0.0038324,-0.0001759,0,0,0.058231,-0.025017,0,-0.0022867,0,0,0,0.012793,-1.8817e-05,0.0038324,-0.78672,0.0055357,0.011386,4.761e-08,0.94,0.16,0
0.047649,0.010427,0.012838,-8.2556e-05,0.0038268,-0.00012257,0,0,0.058576,-0.025411,0,-0.0015934,0,0,0,0.01284,-8.3719e-05,0.0038268,-0.54344,0.0055276,0.011479,4.8385e-08,0.96,0.16,0
0.048823,0.010476,0.012866,-0.00012298,0.003823,-6.2849e-05,0,0,0.058781,-0.025649,0,-0.00081704,0,0,0,0.012866,-0.00012329,0.003823,-0.27722,0.0055221,0.011535,4.8846e-08,0.98,0.16,0
0.05,0.010492,0.012875,-0.00013657,0.0038216,6.2355e-05,0,0,0.058849,-0.025728,0,0.00081061,0,0,0,0.012876,-0.00013687,0.0038216,0.27456,0.0055201,0.011554,4.9003e-08,1,0.16,0
0,0,0.012859,0.0055108,0.0055108,0.0027505,0,0,0.047761,1.0842e-19,0,0.035757,0,0,0,0.013774,0.0045953,0.0055108,18.41,0.0079601,0.008757,3.3222e-08,0,0.18,0
0.00095521,0.00071513,0.012807,0.004879,0.0053057,0.002741,0,0,0.048757,-0.0027736,0,0.035633,0,0,0,0.013662,0.0040236,0.0053057,17.332,0.0076638,0.0090657,3.5701e-08,0.02,0.18,0
0.0019503,0.0014174,0.01301,0.0043286,0.0052015,0.0026938,0,0,0.050754,-0.0056741,0,0.03502,0,0,0,0.013778,0.0035606,0.0052015,15.912,0.0075133,0.0095036,3.9691e-08,0.04,0.18,0
0.0029854,0.0021018,0.013202,0.0037725,0.0050924,0.0026186,0,0,0.052713,-0.0085793,0,0.034042,0,0,0,0.013881,0.0030941,0.0050924,14.524,0.0073557,0.0099391,4.3635e-08,0.06,0.18,0
0.0040588,0.0027612,0.013374,0.003236,0.0049829,0.0025123,0,0,0.05454,-0.011355,0,0.03266,0,0,0,0.013962,0.0026476,0.0049829,13.182,0.0071976,0.010347,4.7263e-08,0.08,0.18,0
0.005167,0.0033882,0.013517,0.0027406,0.0048772,0.0023795,0,0,0.056158,-0.013888,0,0.030934,0,0,0,0.014019,0.0022385,0.0048772,11.914,0.0070449,0.010708,5.0379e-08,0.1,0.18,0
0.0063051,0.0039759,0.013627,0.0023006,0.0047782,0.0022292,0,0,0.057516,-0.016105,0,0.02898,0,0,0,0.01405,0.0018776,0.0047782,10.743,0.0069019,0.011012,5.288e-08,0.12,0.18,0
0.0074676,0.0045191,0.013703,0.0019234,0.0046878,0.0020715,0,0,0.058596,-0.017969,0,0.02693,0,0,0,0.014056,0.0015697,0.0046878,9.689,0.0067713,0.011256,5.4741e-08,0.14,0.18,0
0.008649,0.0050137,0.013746,0.0016107,0.0046071,0.0019153,0,0,0.059404,-0.019476,0,0.024899,0,0,0,0.014041,0.0013156,0.0046071,8.7594,0.0066547,0.011441,5.599e-08,0.16,0.18,0
0.0098438,0.0054572,0.013761,0.0013609,0.0045365,0.0017672,0,0,0.059957,-0.020641,0,0.022974,0,0,0,0.014008,0.001114,0.0045365,7.955,0.0065527,0.011569,5.6681e-08,0.18,0.18,0
0.011047,0.005848,0.013749,0.0011706,0.004476,0.0016312,0,0,0.060277,-0.021485,0,0.021206,0,0,0,0.013957,0.00096245,0.004476,7.27,0.0064653,0.011643,5.6866e-08,0.2,0.18,0
0.012255,0.0061851,0.013715,0.0010356,0.0044251,0.001509,0,0,0.060383,-0.022032,0,0.019617,0,0,0,0.013892,0.00085847,0.0044251,6.6944,0.0063918,0.011666,5.6592e-08,0.22,0.18,0
0.013463,0.0064674,0.013658,0.00095187,0.0043831,0.0014003,0,0,0.060289,-0.022303,0,0.018204,0,0,0,0.013811,0.00079939,0.0043831,6.2148,0.0063311,0.011641,5.5885e-08,0.24,0.18,0
0.014666,0.0066938,0.01358,0.00091504,0.0043484,0.0013032,0,0,0.060003,-0.022317,0,0.016942,0,0,0,0.013712,0.00078232,0.0043484,5.8148,0.006281,0.011567,5.4756e-08,0.26,0.18,0
0.015863,0.0068628,0.013477,0.00092007,0.0043191,0.0012145,0,0,0.059526,-0.022094,0,0.015788,0,0,0,0.013593,0.00080368,0.0043191,5.4739,0.0062387,0.011444,5.3203e-08,0.28,0.18,0
0.017048,0.0069718,0.013347,0.00096024,0.0042923,0.0011289,0,0,0.058859,-0.021659,0,0.014676,0,0,0,0.013449,0.00085819,0.0042923,5.165,0.0062,0.011274,5.1223e-08,0.3,0.18,0
0.018217,0.007017,0.013189,0.0010252,0.0042641,0.0010393,0,0,0.058008,-0.021053,0,0.013511,0,0,0,0.013277,0.00093706,0.0042641,4.849,0.0061593,0.011058,4.8841e-08,0.32,0.18,0
0.019368,0.0069933,0.013001,0.0010978,0.0042297,0.00093627,0,0,0.057014,-0.020357,0,0.012172,0,0,0,0.013074,0.0010246,0.0042297,4.4701,0.0061095,0.010809,4.616e-08,0.34,0.18,0
0.020498,0.0068935,0.012797,0.0011465,0.0041829,0.00081269,0,0,0.055989,-0.019737,0,0.010565,0,0,0,0.012853,0.0010901,0.0041829,3.9712,0.006042,0.010562,4.3475e-08,0.36,0.18,0
0.021607,0.0067117,0.012582,0.0011043,0.004106,0.00067387,0,0,0.055096,-0.019511,0,0.0087603,0,0,0,0.012622,0.0010649,0.004106,3.3485,0.0059309,0.010376,4.1196e-08,0.38,0.18,0
0.022701,0.0064453,0.012386,0.00091913,0.0039915,0.00056707,0,0,0.054564,-0.019971,0,0.0073719,0,0,0,0.012414,0.00089116,0.0039915,2.8243,0.0057656,0.010328,3.9862e-08,0.4,0.18,0
0.02379,0.0061071,0.012138,0.00050576,0.0037932,0.00054232,0,0,0.054243,-0.021369,0,0.0070501,0,0,0,0.012164,0.00048053,0.0037932,2.6635,0.0054791,0.010429,3.9057e-08,0.42,0.18,0
0.024871,0.0057142,0.01197,8.9378e-05,0.0036178,0.00072526,0,0,0.054289,-0.022935,0,0.0094284,0,0,0,0.012014,4.5268e-05,0.0036178,3.4804,0.0052257,0.010642,3.9206e-08,0.44,0.18,0
0.025961,0.0053151,0.011455,-0.00060462,0.0032552,0.0009741,0,0,0.053301,-0.025089,0,0.012663,0,0,0,0.011533,-0.00068279,0.0032552,4.5882,0.0047019,0.0108,3.6901e-08,0.46,0.18,0
0.027003,0.0048918,0.011931,-0.00065046,0.003384,0.0017392,0,0,0.055552,-0.026224,0,0.02261,0,0,0,0.012167,-0.00088646,0.003384,7.7276,0.004888,0.011527,4.3829e-08,0.48,0.18,0
0.028184,0.0045413,0.014872,-0.0017139,0.0039473,0.0020429,0,0,0.032507,-0.014791,0,0.015302,0,0,0,0.015151,-0.0019936,0.0039473,7.9383,0.0057017,0.015087,1.1527e-07,0.5,0.18,0
0.028569,0.004433,0.012522,0.00025031,0.0038317,0.0016125,0,0,0.018829,-0.010242,0,0.015522,0,0,0,0.012955,-0.00018299,0.0038317,11.735,0.0055347,0.011708,1.0344e-07,0.52,0.18,0
0.028937,0.0044318,0.012349,0.00032884,0.0038033,0.0012033,0,0,0.018515,-0.0086542,0,0.010292,0,0,0,0.012572,0.00010557,0.0038033,9.4537,0.0054936,0.011102,9.8429e-08,0.54,0.18,0
0.029309,0.0044476,0.012568,0.00056079,0.0039385,0.00061722,0,0,0.018696,-0.0079107,0,0.0053245,0,0,0,0.012633,0.00049514,0.0039385,5.4226,0.005689,0.010838,1.0036e-07,0.56,0.18,0
0.029685,0.0044802,0.012673,0.0006464,0.0039959,0.00015039,0,0,0.018801,-0.0076335,0,0.0013112,0,0,0,0.012677,0.00064225,0.0039959,1.3958,0.0057719,0.010759,1.0171e-07,0.58,0.18,0
0.030061,0.0045288,0.012672,0.00062948,0.0039904,-0.0002882,0,0,0.01881,-0.0076761,0,-0.0024438,0,0,0,0.012686,0.00061523,0.0039904,-2.5832,0.0057639,0.010788,1.0191e-07,0.6,0.18,0
0.030437,0.0045936,0.012566,0.00050869,0.0039223,-0.00075129,0,0,0.018727,-0.0080458,0,-0.0064321,0,0,0,0.012659,0.00041472,0.0039223,-6.4183,0.0056655,0.010926,1.0103e-07,0.62,0.18,0
0.03081,0.0046763,0.01235,0.00023263,0.0037748,-0.0013314,0,0,0.01858,-0.0089061,0,-0.011354,0,0,0,0.012615,-3.1997e-05,0.0037748,-10.138,0.0054525,0.011252,9.9716e-08,0.64,0.18,0
0.03118,0.0047779,0.012562,0.00011751,0.0038037,-0.0017083,0,0,0.018975,-0.010662,0,-0.016418,0,0,0,0.013031,-0.00035198,0.0038037,-12.027,0.0054943,0.011916,1.0597e-07,0.66,0.18,0
0.031569,0.0049944,0.014871,-0.0020724,0.0038396,-0.0021006,0,0,0.032788,-0.01546,0,-0.015645,0,0,0,0.015159,-0.0023607,0.0038396,-7.9741,0.005546,0.015395,1.1688e-07,0.68,0.18,0
0.032758,0.0054696,0.011891,-0.00096152,0.003279,-0.0017259,0,0,0.055981,-0.027563,0,-0.022437,0,0,0,0.012119,-0.0011892,0.003279,-7.5164,0.0047363,0.011731,4.4205e-08,0.7,0.18,0
0.033809,0.0060288,0.011389,-0.0009554,0.0031301,-0.00090656,0,0,0.053684,-0.026556,0,-0.011785,0,0,0,0.011456,-0.0010216,0.0031301,-4.1778,0.0045213,0.011005,3.7074e-08,0.72,0.18,0
0.034906,0.0065807,0.011869,-0.00031242,0.0034669,-0.00058271,0,0,0.054612,-0.024566,0,-0.0075752,0,0,0,0.011897,-0.00034023,0.0034669,-2.7325,0.0050077,0.010847,3.936e-08,0.74,0.18,0
0.035993,0.0071438,0.012011,7.9662e-05,0.0036273,-0.00032178,0,0,0.054496,-0.02306,0,-0.0041832,0,0,0,0.01202,7.099e-05,0.0036273,-1.5437,0.0052394,0.010627,3.9172e-08,0.76,0.18,0
0.037086,0.007671,0.012227,0.00047448,0.0038103,-0.00026557,0,0,0.054706,-0.021683,0,-0.0034525,0,0,0,0.012233,0.00046848,0.0038103,-1.2939,0.0055038,0.0105,3.9783e-08,0.78,0.18,0
0.038181,0.0081439,0.012392,0.00064314,0.0039104,-0.00029362,0,0,0.055128,-0.021237,0,-0.0038171,0,0,0,0.012399,0.00063581,0.0039104,-1.4308,0.0056484,0.010516,4.0776e-08,0.8,0.18,0
0.039291,0.0085492,0.012575,0.00065807,0.00397,-0.00035306,0,0,0.055934,-0.021527,0,-0.0045898,0,0,0,0.012586,0.00064762,0.00397,-1.6955,0.0057344,0.010672,4.2635e-08,0.82,0.18,0
0.040419,0.0088888,0.012752,0.00056669,0.0039957,-0.0003929,0,0,0.056918,-0.022289,0,-0.0051077,0,0,0,0.012765,0.00055403,0.0039957,-1.8448,0.0057716,0.010905,4.4929e-08,0.84,0.18,0
0.041567,0.0091689,0.012916,0.0004326,0.0040046,-0.0004028,0,0,0.057925,-0.023218,0,-0.0052364,0,0,0,0.012929,0.00041962,0.0040046,-1.8462,0.0057844,0.011158,4.7301e-08,0.86,0.18,0
0.042736,0.0093973,0.013055,0.00028694,0.0040025,-0.00038564,0,0,0.058839,-0.024151,0,-0.0050133,0,0,0,0.013066,0.0002753,0.0040025,-1.7285,0.0057813,0.011394,4.9472e-08,0.88,0.18,0
0.043921,0.0095805,0.013166,0.00014724,0.0039939,-0.00034767,0,0,0.059616,-0.025003,0,-0.0045197,0,0,0,0.013175,0.00013797,0.0039939,-1.5287,0.0057689,0.0116,5.1325e-08,0.9,0.18,0
0.04512,0.0097239,0.013251,2.4264e-05,0.0039826,-0.00029419,0,0,0.060246,-0.025729,0,-0.0038244,0,0,0,0.013258,1.7724e-05,0.0039826,-1.2735,0.0057527,0.01177,5.2825e-08,0.92,0.18,0
0.046331,0.0098314,0.013314,-7.56e-05,0.0039716,-0.00022946,0,0,0.060727,-0.026307,0,-0.002983,0,0,0,0.013318,-7.9532e-05,0.0039716,-0.98149,0.0057368,0.011901,5.3969e-08,0.94,0.18,0
0.047549,0.0099062,0.013357,-0.00014871,0.0039626,-0.00015698,0,0,0.061066,-0.026723,0,-0.0020407,0,0,0,0.013359,-0.00015054,0.0039626,-0.66583,0.0057237,0.011994,5.4769e-08,0.96,0.18,0
0.048773,0.0099503,0.013382,-0.00019316,0.0039567,-7.9652e-05,0,0,0.061266,-0.026974,0,-0.0010355,0,0,0,0.013383,-0.00019363,0.0039567,-0.33616,0.0057153,0.01205,5.5242e-08,0.98,0.18,0
0.05,0.0099648,0.01339,-0.00020806,0.0039547,5.5993e-05,0,0,0.061332,-0.027058,0,0.00072791,0,0,0,0.013391,-0.00020829,0.0039547,0.23591,0.0057123,0.012068,5.5402e-08,1,0.18,0
0,0,0.012925,0.0055392,0.0055392,0.0025387,0,0,0.048007,-5.421e-19,0,0.033003,0,0,0,0.013713,0.0047507,0.0055392,17.254,0.0080011,0.0085955,3.1693e-08,0,0.2,0
0.00096013,0.00066006,0.012872,0.0049123,0.0053353,0.0025315,0,0,0.048989,-0.0027497,0,0.032909,0,0,0,0.013609,0.0041754,0.0053353,16.229,0.0077066,0.0089104,3.4268e-08,0.02,0.2,0
0.0019596,0.0013055,0.013076,0.0043835,0.005238,0.0024889,0,0,0.05095,-0.0055544,0,0.032355,0,0,0,0.013739,0.0037213,0.005238,14.898,0.007566,0.0093517,3.8306e-08,0.04,0.2,0
0.0029981,0.0019333,0.013273,0.0038561,0.0051386,0.0024281,0,0,0.052871,-0.0083361,0,0.031566,0,0,0,0.013862,0.0032669,0.0051386,13.64,0.0074224,0.0097941,4.2373e-08,0.06,0.2,0
0.0040744,0.0025385,0.013453,0.0033473,0.0050402,0.0023453,0,0,0.054686,-0.011004,0,0.030489,0,0,0,0.013971,0.0028296,0.0050402,12.449,0.0072803,0.010217,4.6253e-08,0.08,0.2,0
0.0051856,0.0031154,0.013613,0.0028727,0.0049457,0.002242,0,0,0.056337,-0.013474,0,0.029146,0,0,0,0.014062,0.0024235,0.0049457,11.33,0.0071438,0.010605,4.9771e-08,0.1,0.2,0
0.0063279,0.0036588,0.013747,0.0024444,0.0048575,0.0021235,0,0,0.057783,-0.015685,0,0.027606,0,0,0,0.014133,0.0020586,0.0048575,10.297,0.0070163,0.010947,5.2814e-08,0.12,0.2,0
0.0074969,0.0041641,0.013854,0.0020697,0.0047772,0.001997,0,0,0.059001,-0.017598,0,0.025961,0,0,0,0.014183,0.0017405,0.0047772,9.3612,0.0069004,0.011237,5.5322e-08,0.14,0.2,0
0.0086879,0.0046275,0.013935,0.0017523,0.004706,0.0018694,0,0,0.059985,-0.019199,0,0.024303,0,0,0,0.014215,0.0014719,0.004706,8.5309,0.0067976,0.011473,5.7287e-08,0.16,0.2,0
0.0098963,0.0050463,0.013989,0.0014927,0.0046446,0.0017468,0,0,0.060741,-0.020487,0,0.022708,0,0,0,0.014229,0.0012532,0.0046446,7.8094,0.0067089,0.011656,5.8723e-08,0.18,0.2,0
0.011118,0.0054188,0.014021,0.0012897,0.0045932,0.0016334,0,0,0.061281,-0.021473,0,0.021234,0,0,0,0.014227,0.0010835,0.0045932,7.1957,0.0066347,0.011788,5.9659e-08,0.2,0.2,0
0.012348,0.0057434,0.014031,0.0011411,0.0045517,0.0015319,0,0,0.061617,-0.022169,0,0.019915,0,0,0,0.014211,0.00096153,0.0045517,6.6852,0.0065747,0.011869,6.0122e-08,0.22,0.2,0
0.013582,0.0060188,0.014021,0.0010443,0.0045195,0.0014434,0,0,0.061759,-0.022589,0,0.018764,0,0,0,0.014179,0.00088565,0.0045195,6.2708,0.0065282,0.0119,6.0129e-08,0.24,0.2,0
0.014818,0.0062437,0.01399,0.00099621,0.0044958,0.0013674,0,0,0.061711,-0.022747,0,0.017776,0,0,0,0.014132,0.00085386,0.0044958,5.9429,0.0064939,0.011883,5.9683e-08,0.26,0.2,0
0.016051,0.006416,0.013936,0.00099326,0.0044788,0.0013021,0,0,0.061472,-0.022656,0,0.016928,0,0,0,0.014066,0.00086356,0.0044788,5.6883,0.0064693,0.011817,5.8773e-08,0.28,0.2,0
0.017277,0.0065329,0.013856,0.0010303,0.0044659,0.0012438,0,0,0.061037,-0.022332,0,0.01617,0,0,0,0.013976,0.00091075,0.0044659,5.4884,0.0064508,0.0117,5.7373e-08,0.3,0.2,0
0.018492,0.0065899,0.013745,0.0010992,0.0044532,0.0011861,0,0,0.060396,-0.021802,0,0.01542,0,0,0,0.013855,0.00098888,0.0044532,5.3124,0.0064325,0.011531,5.5451e-08,0.32,0.2,0
0.019693,0.0065803,0.013597,0.0011858,0.0044348,0.0011177,0,0,0.059553,-0.021118,0,0.01453,0,0,0,0.013697,0.001086,0.0044348,5.1052,0.0064058,0.011314,5.3005e-08,0.34,0.2,0
0.020874,0.006494,0.013418,0.0012655,0.004405,0.0010194,0,0,0.058584,-0.020407,0,0.013252,0,0,0,0.013503,0.0011806,0.004405,4.7618,0.0063628,0.011068,5.0227e-08,0.36,0.2,0
0.022036,0.0063164,0.013254,0.0012794,0.0043601,0.00088147,0,0,0.057812,-0.020024,0,0.011459,0,0,0,0.013319,0.0012149,0.0043601,4.1875,0.0062979,0.010878,4.7949e-08,0.38,0.2,0
0.023187,0.0060391,0.013069,0.0010209,0.004227,0.00072687,0,0,0.057473,-0.020839,0,0.0094492,0,0,0,0.013113,0.00097724,0.004227,3.4401,0.0061056,0.010881,4.6808e-08,0.4,0.2,0
0.024335,0.0056615,0.013012,0.00054789,0.0040679,0.00072791,0,0,0.058135,-0.02288,0,0.0094628,0,0,0,0.013054,0.00050552,0.0040679,3.3311,0.0058758,0.011201,4.8324e-08,0.42,0.2,0
0.025512,0.005235,0.012639,-0.00039653,0.0036726,0.00082713,0,0,0.058279,-0.026449,0,0.010753,0,0,0,0.012691,-0.00044881,0.0036726,3.6163,0.0053049,0.01164,4.8095e-08,0.44,0.2,0
0.026666,0.0047589,0.013296,-0.00062723,0.0038006,0.001457,0,0,0.061719,-0.028781,0,0.018941,0,0,0,0.013447,-0.00077807,0.0038006,5.9105,0.0054898,0.012577,5.8411e-08,0.46,0.2,0
0.027981,0.004337,0.016918,-0.00072523,0.0048578,0.001473,0,0,0.036033,-0.016008,0,0.011733,0,0,0,0.017061,-0.00086864,0.0048578,5.4861,0.0070168,0.015863,1.5946e-07,0.48,0.2,0
0.028404,0.0043212,0.010566,-0.0015068,0.0027178,0.00061078,0,0,0.018674,-0.0098934,0,0.0056912,0,0,0,0.010632,-0.0015731,0.0027178,5.0649,0.0039257,0.010724,6.1224e-08,0.5,0.2,0
0.028678,0.0043026,0.015762,-0.00030543,0.0046369,0.0007148,0,0,0.014462,-0.006425,0,0.0018585,0,0,0,0.015793,-0.00033717,0.0046369,2.5423,0.0066977,0.014308,9.1433e-08,0.52,0.2,0
0.028983,0.0042925,0.017575,0.00035589,0.0053794,0.0004704,0,0,0.015855,-0.0065306,0,0.0012231,0,0,0,0.017588,0.00034305,0.0053794,1.5636,0.0077702,0.015359,1.2088e-07,0.54,0.2,0
0.029312,0.0043071,0.018644,0.00071374,0.0058072,0.00029269,0,0,0.016687,-0.0066215,0,0.00076098,0,0,0,0.018648,0.00070896,0.0058072,0.93496,0.0083882,0.016011,1.41e-07,0.56,0.2,0
0.02965,0.0043388,0.019022,0.00082204,0.0059531,5.6133e-05,0,0,0.016989,-0.0066704,0,0.00014595,0,0,0,0.019022,0.00082187,0.0059531,0.17671,0.008599,0.016254,1.4871e-07,0.58,0.2,0
0.029992,0.0043871,0.019009,0.00080087,0.0059431,-0.00017855,0,0,0.016986,-0.0066849,0,-0.00046424,0,0,0,0.019011,0.00079912,0.0059431,-0.56177,0.0085845,0.016262,1.4867e-07,0.6,0.2,0
0.03033,0.0044522,0.018605,0.00064726,0.0057756,-0.00041122,0,0,0.016678,-0.0066668,0,-0.0010692,0,0,0,0.018614,0.00063785,0.0057756,-1.3112,0.0083425,0.016037,1.4085e-07,0.62,0.2,0
0.030659,0.0045351,0.017497,0.00023058,0.0053184,-0.00057739,0,0,0.015833,-0.0066142,0,-0.0015012,0,0,0,0.017517,0.00021129,0.0053184,-1.9131,0.0076822,0.015401,1.2042e-07,0.64,0.2,0
0.030963,0.0046449,0.015649,-0.00050696,0.0045425,-0.00081277,0,0,0.014438,-0.0065643,0,-0.0021132,0,0,0,0.015689,-0.00054774,0.0045425,-2.8728,0.0065614,0.014384,9.0837e-08,0.66,0.2,0
0.031236,0.0047647,0.010457,-0.0017838,0.0026019,-0.00066884,0,0,0.018705,-0.010295,0,-0.0060054,0,0,0,0.010529,-0.0018558,0.0026019,-5.2753,0.0037584,0.010865,6.0283e-08,0.68,0.2,0
0.031661,0.0048846,0.016761,-0.0012156,0.0046635,-0.0014636,0,0,0.036165,-0.016866,0,-0.01152,0,0,0,0.016898,-0.0013528,0.0046635,-5.3221,0.0067362,0.016109,1.5866e-07,0.7,0.2,0
0.032981,0.005441,0.01319,-0.0010722,0.0036353,-0.0013614,0,0,0.062104,-0.030599,0,-0.017698,0,0,0,0.013319,-0.001201,0.0036353,-5.404,0.005251,0.012806,5.8311e-08,0.72,0.2,0
0.034145,0.0060652,0.012532,-0.00087031,0.0034986,-0.00066626,0,0,0.058719,-0.028398,0,-0.0086614,0,0,0,0.012565,-0.00090335,0.0034986,-2.8389,0.0050535,0.011895,4.8242e-08,0.74,0.2,0
0.03533,0.0066609,0.012874,3.2209e-05,0.0038718,-0.00047802,0,0,0.058513,-0.024957,0,-0.0062143,0,0,0,0.012892,1.4439e-05,0.0038718,-2.1289,0.0055926,0.011447,4.8577e-08,0.76,0.2,0
0.036485,0.0072269,0.012912,0.0004994,0.0040234,-0.00039578,0,0,0.057776,-0.022906,0,-0.0051451,0,0,0,0.012925,0.00048679,0.0040234,-1.8244,0.0058116,0.0111,4.696e-08,0.78,0.2,0
0.037641,0.0077105,0.013072,0.00074393,0.0041449,-0.00047321,0,0,0.058028,-0.022106,0,-0.0061518,0,0,0,0.01309,0.00072579,0.0041449,-2.1949,0.005987,0.011059,4.7735e-08,0.8,0.2,0
0.038807,0.0081099,0.013218,0.00070282,0.0041764,-0.00053806,0,0,0.058773,-0.022578,0,-0.0069948,0,0,0,0.013241,0.00067973,0.0041764,-2.4572,0.0060325,0.011229,4.9663e-08,0.82,0.2,0
0.039992,0.0084326,0.013386,0.00057241,0.0041876,-0.00055905,0,0,0.059791,-0.023499,0,-0.0072677,0,0,0,0.013411,0.00054807,0.0041876,-2.4934,0.0060487,0.011484,5.2257e-08,0.84,0.2,0
0.041198,0.0086929,0.013532,0.00041159,0.004183,-0.00054003,0,0,0.060767,-0.024514,0,-0.0070203,0,0,0,0.013554,0.0003894,0.004183,-2.353,0.0060421,0.011737,5.4736e-08,0.86,0.2,0
0.042423,0.0089019,0.013647,0.00024518,0.0041676,-0.00049503,0,0,0.061615,-0.025496,0,-0.0064354,0,0,0,0.013665,0.00022692,0.0041676,-2.1126,0.0060198,0.011965,5.6878e-08,0.88,0.2,0
0.043663,0.0090675,0.013735,8.9784e-05,0.0041476,-0.00043236,0,0,0.062321,-0.026375,0,-0.0056207,0,0,0,0.013749,7.6098e-05,0.0041476,-1.813,0.0059909,0.01216,5.865e-08,0.9,0.2,0
0.044916,0.009196,0.013802,-4.467e-05,0.0041272,-0.00035738,0,0,0.062887,-0.027117,0,-0.004646,0,0,0,0.013811,-5.3888e-05,0.0041272,-1.4775,0.0059616,0.012319,6.0057e-08,0.92,0.2,0
0.046178,0.0092918,0.01385,-0.00015246,0.0041094,-0.00027403,0,0,0.063316,-0.027702,0,-0.0035624,0,0,0,0.013856,-0.00015782,0.0041094,-1.1207,0.0059358,0.012441,6.1115e-08,0.94,0.2,0
0.047448,0.0093581,0.013883,-0.00023066,0.0040956,-0.00018527,0,0,0.063616,-0.028121,0,-0.0024086,0,0,0,0.013885,-0.00023309,0.0040956,-0.75198,0.0059159,0.012528,6.1847e-08,0.96,0.2,0
0.048723,0.0093971,0.013901,-0.00027793,0.004087,-9.3361e-05,0,0,0.063793,-0.028372,0,-0.0012137,0,0,0,0.013902,-0.00027854,0.004087,-0.37723,0.0059035,0.012579,6.2276e-08,0.98,0.2,0
0.05,0.00941,0.013907,-0.00029373,0.0040841,4.9472e-05,0,0,0.063851,-0.028456,0,0.00064314,0,0,0,0.013908,-0.0002939,0.0040841,0.1996,0.0058992,0.012597,6.242e-08,1,0.2,0
0,0,0.013004,0.0055733,0.0055733,0.0023275,0,0,0.048302,-6.5052e-19,0,0.030257,0,0,0,0.013673,0.0049045,0.0055733,16.032,0.0080503,0.0084541,3.0379e-08,0,0.22,0
0.00096603,0.00060514,0.01295,0.0049455,0.0053688,0.0023218,0,0,0.049281,-0.0027513,0,0.030183,0,0,0,0.013575,0.0043209,0.0053688,15.059,0.0077549,0.0087773,3.3067e-08,0.02,0.22,0
0.0019712,0.0011952,0.013157,0.0044298,0.005276,0.0022833,0,0,0.051226,-0.0055007,0,0.029682,0,0,0,0.013718,0.0038685,0.005276,13.81,0.0076209,0.0092268,3.7199e-08,0.04,0.22,0
0.0030151,0.0017684,0.013357,0.0039221,0.0051836,0.0022331,0,0,0.053125,-0.0082,0,0.02903,0,0,0,0.013859,0.0034203,0.0051836,12.666,0.0074875,0.0096779,4.1393e-08,0.06,0.22,0
0.0040962,0.0023211,0.013545,0.0034339,0.0050937,0.0021672,0,0,0.054934,-0.010789,0,0.028174,0,0,0,0.01399,0.0029889,0.0050937,11.602,0.0073576,0.010114,4.5481e-08,0.08,0.22,0
0.0052124,0.0028492,0.013718,0.0029764,0.0050082,0.0020857,0,0,0.056612,-0.013207,0,0.027115,0,0,0,0.014108,0.0025856,0.0050082,10.612,0.0072341,0.010523,4.9319e-08,0.1,0.22,0
0.0063607,0.0033485,0.013871,0.0025591,0.0049292,0.0019917,0,0,0.058125,-0.015406,0,0.025892,0,0,0,0.014212,0.0022186,0.0049292,9.6993,0.0071199,0.010894,5.2799e-08,0.12,0.22,0
0.0075374,0.0038151,0.014004,0.0021887,0.0048579,0.0018901,0,0,0.059452,-0.01735,0,0.024571,0,0,0,0.014299,0.0018937,0.0048579,8.8705,0.007017,0.011221,5.5853e-08,0.14,0.22,0
0.0087388,0.0042457,0.014116,0.0018694,0.0047957,0.0017863,0,0,0.060584,-0.019021,0,0.023222,0,0,0,0.014372,0.0016141,0.0047957,8.1315,0.0069271,0.011501,5.8451e-08,0.16,0.22,0
0.0099608,0.0046377,0.014208,0.0016029,0.0047432,0.0016856,0,0,0.06152,-0.020412,0,0.021913,0,0,0,0.014429,0.0013814,0.0047432,7.4867,0.0068513,0.011734,6.0588e-08,0.18,0.22,0
0.0112,0.0049891,0.01428,0.0013896,0.004701,0.0015921,0,0,0.062266,-0.021524,0,0.020697,0,0,0,0.014474,0.0011959,0.004701,6.9375,0.0067903,0.011919,6.2274e-08,0.2,0.22,0
0.012451,0.0052983,0.014336,0.0012288,0.0046693,0.0015089,0,0,0.062831,-0.022364,0,0.019616,0,0,0,0.014507,0.0010573,0.0046693,6.483,0.0067446,0.012057,6.3524e-08,0.22,0.22,0
0.013713,0.0055638,0.014375,0.0011192,0.0046481,0.0014378,0,0,0.063222,-0.022938,0,0.018691,0,0,0,0.014529,0.000965,0.0046481,6.12,0.0067139,0.012148,6.4351e-08,0.24,0.22,0
0.01498,0.005784,0.014398,0.0010591,0.0046371,0.0013795,0,0,0.063445,-0.023257,0,0.017933,0,0,0,0.014539,0.00091792,0.0046371,5.8431,0.006698,0.012195,6.4763e-08,0.26,0.22,0
0.016251,0.0059566,0.014405,0.0010462,0.0046354,0.0013333,0,0,0.063503,-0.02333,0,0.017333,0,0,0,0.014537,0.00091443,0.0046354,5.6444,0.0066956,0.012195,6.4754e-08,0.28,0.22,0
0.01752,0.0060785,0.014395,0.001077,0.0046415,0.0012973,0,0,0.063395,-0.023169,0,0.016865,0,0,0,0.01452,0.00095181,0.0046415,5.5123,0.0067044,0.012151,6.4305e-08,0.3,0.22,0
0.018786,0.006145,0.014361,0.0011455,0.0046521,0.0012672,0,0,0.063111,-0.022793,0,0.016474,0,0,0,0.014482,0.0010251,0.0046521,5.4278,0.0067197,0.01206,6.3369e-08,0.32,0.22,0
0.020045,0.0061485,0.014296,0.0012414,0.0046613,0.0012345,0,0,0.062627,-0.022229,0,0.016049,0,0,0,0.014412,0.0011257,0.0046613,5.3549,0.006733,0.011919,6.1851e-08,0.34,0.22,0
0.021292,0.0060773,0.014178,0.0013416,0.0046558,0.0011795,0,0,0.061893,-0.021543,0,0.015333,0,0,0,0.014285,0.0012341,0.0046558,5.2066,0.0067251,0.011721,5.9561e-08,0.36,0.22,0
0.022521,0.0059107,0.014031,0.0014217,0.0046359,0.0010519,0,0,0.061071,-0.020893,0,0.013675,0,0,0,0.014119,0.0013345,0.0046359,4.736,0.0066964,0.011495,5.6854e-08,0.38,0.22,0
0.023734,0.0056118,0.014048,0.0013435,0.0046175,0.00086851,0,0,0.061299,-0.021281,0,0.011291,0,0,0,0.014107,0.0012844,0.0046175,3.8927,0.0066698,0.011524,5.6994e-08,0.4,0.22,0
0.024973,0.0051919,0.013676,0.00025095,0.0041782,0.00070555,0,0,0.061738,-0.025527,0,0.0091721,0,0,0,0.013713,0.00021397,0.0041782,3.0001,0.0060352,0.012018,5.7548e-08,0.42,0.22,0
0.026204,0.0046563,0.014352,-0.00041797,0.0041801,0.0012137,0,0,0.066115,-0.029887,0,0.015778,0,0,0,0.014451,-0.00051704,0.0041801,4.6666,0.0060379,0.013259,7.1034e-08,0.44,0.22,0
0.027617,0.0041639,0.018319,-0.00034879,0.0053911,0.00084196,0,0,0.038675,-0.016765,0,0.0084711,0,0,0,0.018384,-0.00041352,0.0053911,3.3861,0.0077871,0.016671,1.9511e-07,0.46,0.22,0
0.028071,0.0041341,0.011563,-0.00064043,0.0032768,-9.0529e-05,0,0,0.019844,-0.0091488,0,0.000967,0,0,0,0.011573,-0.0006501,0.0032768,0.6985,0.0047332,0.010809,7.4246e-08,0.48,0.22,0
0.028354,0.0041678,0.015925,-0.0013649,0.004368,-0.0005252,0,0,0.015024,-0.0074527,0,-0.0013655,0,0,0,0.015941,-0.0013809,0.004368,-1.7383,0.0063093,0.015281,9.9697e-08,0.5,0.22,0
0.028672,0.004176,0.017243,4.731e-05,0.0051871,-0.00043646,0,0,0.015673,-0.0066818,0,-0.0011348,0,0,0,0.017254,3.6239e-05,0.0051871,-1.453,0.0074925,0.015307,1.1635e-07,0.52,0.22,0
0.028981,0.0041705,0.017356,0.0006546,0.0054033,-0.00028795,0,0,0.015539,-0.0061733,0,-0.00074868,0,0,0,0.017361,0.00064964,0.0054033,-0.98745,0.0078047,0.014914,1.1385e-07,0.54,0.22,0
0.029293,0.0041827,0.017655,0.0008521,0.0055522,-0.0001171,0,0,0.015734,-0.0061101,0,-0.00030447,0,0,0,0.017656,0.00085129,0.0055522,-0.39928,0.0080199,0.015017,1.1819e-07,0.56,0.22,0
0.029611,0.0042134,0.017884,0.00095391,0.0056513,-5.7562e-05,0,0,0.015902,-0.0061065,0,-0.00014966,0,0,0,0.017884,0.00095372,0.0056513,-0.1948,0.0081629,0.015138,1.2204e-07,0.58,0.22,0
0.029929,0.0042614,0.017863,0.00092964,0.0056378,-3.4293e-05,0,0,0.015893,-0.0061206,0,-8.9163e-05,0,0,0,0.017863,0.00092957,0.0056378,-0.11603,0.0081434,0.015139,1.2181e-07,0.6,0.22,0
0.030246,0.0043269,0.017591,0.00077651,0.0055103,3.3024e-05,0,0,0.015705,-0.0061539,0,8.5863e-05,0,0,0,0.017591,0.00077645,0.0055103,0.11253,0.0079593,0.015018,1.1748e-07,0.62,0.22,0
0.030558,0.0044117,0.017251,0.00052089,0.0053315,0.0002187,0,0,0.015495,-0.0062537,0,0.00056863,0,0,0,0.017254,0.00051804,0.0053315,0.74884,0.007701,0.014923,1.1273e-07,0.64,0.22,0
0.030866,0.0045153,0.017095,-0.00018057,0.0050743,0.00038672,0,0,0.015627,-0.0068313,0,0.0010055,0,0,0,0.017104,-0.00018922,0.0050743,1.2817,0.0073296,0.015353,1.1491e-07,0.66,0.22,0
0.031183,0.0046064,0.015744,-0.0017208,0.0042068,0.00047241,0,0,0.014998,-0.0077059,0,0.0012282,0,0,0,0.015756,-0.0017335,0.0042068,1.5483,0.0060765,0.015404,9.8005e-08,0.68,0.22,0
0.031466,0.0046711,0.011428,-0.00096803,0.0031381,7.375e-05,0,0,0.019861,-0.0096076,0,-0.0010314,0,0,0,0.011437,-0.00097713,0.0031381,-0.75087,0.0045328,0.010953,7.3369e-08,0.7,0.22,0
0.03192,0.0048049,0.01807,-0.0010225,0.0051142,-0.0007567,0,0,0.038793,-0.017923,0,-0.007727,0,0,0,0.018123,-0.0010753,0.0051142,-3.0074,0.0073872,0.016972,1.9327e-07,0.72,0.22,0
0.033339,0.0054447,0.014191,-0.0010247,0.0039499,-0.0010321,0,0,0.066568,-0.032335,0,-0.013417,0,0,0,0.014261,-0.0010944,0.0039499,-3.8628,0.0057054,0.013556,7.081e-08,0.74,0.22,0
0.034583,0.0061455,0.013537,-0.00034761,0.0039569,-0.00044073,0,0,0.062272,-0.027979,0,-0.0057295,0,0,0,0.013551,-0.00036159,0.0039569,-1.8162,0.0057155,0.012334,5.8063e-08,0.76,0.22,0
0.03583,0.0067548,0.013885,0.00074084,0.0043878,-0.00051128,0,0,0.061733,-0.023706,0,-0.0066466,0,0,0,0.013905,0.00072098,0.0043878,-2.2242,0.006338,0.011787,5.7473e-08,0.78,0.22,0
0.037052,0.0072597,0.013862,0.00082443,0.0044059,-0.00062821,0,0,0.061464,-0.02328,0,-0.0081667,0,0,0,0.013892,0.00079423,0.0044059,-2.7523,0.0063641,0.011717,5.6929e-08,0.8,0.22,0
0.038289,0.0076461,0.014002,0.00071226,0.0044142,-0.00069265,0,0,0.06232,-0.024063,0,-0.0090045,0,0,0,0.014038,0.00067626,0.0044142,-2.9755,0.0063761,0.01194,5.9406e-08,0.82,0.22,0
0.039545,0.0079489,0.014131,0.00055459,0.0044057,-0.00068164,0,0,0.063215,-0.025032,0,-0.0088613,0,0,0,0.014165,0.00052045,0.0044057,-2.8671,0.0063638,0.012176,6.189e-08,0.84,0.22,0
0.040817,0.0081884,0.014217,0.00036911,0.0043758,-0.00063595,0,0,0.063968,-0.026044,0,-0.0082674,0,0,0,0.014246,0.00033997,0.0043758,-2.6239,0.0063207,0.012391,6.3917e-08,0.86,0.22,0
0.042104,0.0083775,0.01428,0.0001836,0.0043391,-0.00056985,0,0,0.064617,-0.027011,0,-0.0074081,0,0,0,0.014303,0.0001606,0.0043391,-2.3112,0.0062676,0.012585,6.5618e-08,0.88,0.22,0
0.043402,0.0085255,0.014328,1.4185e-05,0.0043026,-0.00048926,0,0,0.065164,-0.027875,0,-0.0063604,0,0,0,0.014344,-2.5193e-06,0.0043026,-1.9554,0.0062148,0.012752,6.7016e-08,0.9,0.22,0
0.04471,0.0086392,0.014363,-0.00012947,0.0042701,-0.00039891,0,0,0.065604,-0.028597,0,-0.0051858,0,0,0,0.014374,-0.00014044,0.0042701,-1.5755,0.0061679,0.012888,6.8119e-08,0.92,0.22,0
0.046026,0.0087233,0.014388,-0.00024291,0.0042435,-0.00030259,0,0,0.065939,-0.029162,0,-0.0039337,0,0,0,0.014394,-0.00024916,0.0042435,-1.1843,0.0061295,0.012993,6.8938e-08,0.94,0.22,0
0.047348,0.0087814,0.014404,-0.00032432,0.0042239,-0.000203,0,0,0.066171,-0.029564,0,-0.0026389,0,0,0,0.014407,-0.00032712,0.0042239,-0.78949,0.0061012,0.013067,6.9497e-08,0.96,0.22,0
0.048673,0.0088154,0.014413,-0.00037319,0.0042119,-0.00010181,0,0,0.066307,-0.029803,0,-0.0013235,0,0,0,0.014414,-0.00037389,0.0042119,-0.39448,0.0060839,0.013111,6.982e-08,0.98,0.22,0
0.05,0.0088266,0.014416,-0.00038948,0.0042079,4.3117e-05,0,0,0.066352,-0.029883,0,0.00056052,0,0,0,0.014416,-0.0003896,0.0042079,0.16686,0.0060781,0.013125,6.9928e-08,1,0.22,0
0,0,0.013087,0.0056089,0.0056089,0.0021154,0,0,0.04861,5.421e-19,0,0.027501,0,0,0,0.013644,0.005052,0.0056089,14.749,0.0081017,0.0083278,2.9216e-08,0,0.24,0
0.0009722,0.00055001,0.013032,0.0049774,0.0054029,0.0021107,0,0,0.049591,-0.0027661,0,0.027439,0,0,0,0.013552,0.0044578,0.0054029,13.829,0.0078042,0.0086603,3.2024e-08,0.02,0.24,0
0.0019836,0.0010855,0.013241,0.0044695,0.0053133,0.0020762,0,0,0.051533,-0.0054846,0,0.026991,0,0,0,0.013708,0.0040029,0.0053133,12.666,0.0076747,0.0091208,3.6272e-08,0.04,0.24,0
0.0030335,0.0016053,0.013445,0.0039755,0.0052261,0.002034,0,0,0.053421,-0.0081288,0,0.026442,0,0,0,0.013863,0.003557,0.0052261,11.624,0.0075487,0.0095812,4.0592e-08,0.06,0.24,0
0.0041205,0.0021069,0.01364,0.0035027,0.0051427,0.0019804,0,0,0.05523,-0.01066,0,0.025746,0,0,0,0.014013,0.0031295,0.0051427,10.671,0.0074283,0.010029,4.4857e-08,0.08,0.24,0
0.0052427,0.0025871,0.013823,0.0030589,0.0050646,0.0019148,0,0,0.05693,-0.013037,0,0.024892,0,0,0,0.014153,0.0027284,0.0050646,9.792,0.0073155,0.010455,4.8953e-08,0.1,0.24,0
0.0063977,0.0030426,0.013993,0.0026514,0.0049932,0.0018388,0,0,0.058497,-0.015222,0,0.023905,0,0,0,0.014283,0.0023607,0.0049932,8.9831,0.0072124,0.010849,5.2788e-08,0.12,0.24,0
0.0075826,0.0034701,0.014147,0.0022858,0.00493,0.0017561,0,0,0.059914,-0.017187,0,0.022829,0,0,0,0.014402,0.0020313,0.00493,8.2467,0.0071211,0.011206,5.63e-08,0.14,0.24,0
0.0087942,0.0038666,0.014287,0.0019661,0.0048759,0.0016707,0,0,0.061171,-0.018913,0,0.021719,0,0,0,0.014509,0.0017436,0.0048759,7.587,0.0070429,0.011523,5.945e-08,0.16,0.24,0
0.010029,0.0042299,0.014411,0.0016949,0.0048318,0.0015871,0,0,0.062266,-0.02039,0,0.020633,0,0,0,0.014606,0.0014998,0.0048318,7.0079,0.0069793,0.011799,6.2227e-08,0.18,0.24,0
0.011285,0.0045578,0.014522,0.0014733,0.0047985,0.0015091,0,0,0.063202,-0.021614,0,0.019618,0,0,0,0.014694,0.001301,0.0047985,6.5118,0.0069312,0.012032,6.463e-08,0.2,0.24,0
0.012557,0.0048488,0.01462,0.0013018,0.0047767,0.0014396,0,0,0.063985,-0.022587,0,0.018715,0,0,0,0.014774,0.001148,0.0047767,6.0993,0.0068997,0.012223,6.6671e-08,0.22,0.24,0
0.013844,0.0051013,0.014709,0.0011804,0.0047668,0.0013809,0,0,0.064624,-0.023312,0,0.017951,0,0,0,0.014849,0.0010409,0.0047668,5.7689,0.0068854,0.012373,6.8366e-08,0.24,0.24,0
0.015142,0.0053134,0.014789,0.0011087,0.0047694,0.0013337,0,0,0.06513,-0.023795,0,0.017337,0,0,0,0.014918,0.00097993,0.0047694,5.5162,0.0068892,0.012483,6.9733e-08,0.26,0.24,0
0.016449,0.0054828,0.014864,0.0010859,0.0047849,0.0012977,0,0,0.065513,-0.024044,0,0.01687,0,0,0,0.014985,0.00096471,0.0047849,5.3341,0.0069115,0.012554,7.0794e-08,0.28,0.24,0
0.017763,0.0056061,0.014935,0.0011102,0.0048136,0.0012714,0,0,0.065791,-0.024073,0,0.016529,0,0,0,0.015051,0.00099421,0.0048136,5.211,0.006953,0.01259,7.1581e-08,0.3,0.24,0
0.019081,0.0056781,0.015007,0.0011784,0.0048556,0.0012517,0,0,0.065983,-0.023902,0,0.016272,0,0,0,0.015119,0.001066,0.0048556,5.1305,0.0070136,0.012594,7.2135e-08,0.32,0.24,0
0.020402,0.0056911,0.015079,0.0012836,0.0049089,0.0012329,0,0,0.066108,-0.023564,0,0.016028,0,0,0,0.015189,0.0011743,0.0049089,5.0668,0.0070906,0.01257,7.2476e-08,0.34,0.24,0
0.021725,0.0056323,0.015145,0.0014127,0.0049672,0.0012056,0,0,0.066153,-0.023104,0,0.015672,0,0,0,0.01525,0.0013076,0.0049672,4.9794,0.0071748,0.01252,7.2519e-08,0.36,0.24,0
0.023048,0.0054807,0.015103,0.0014997,0.0049808,0.0011305,0,0,0.065794,-0.022627,0,0.014697,0,0,0,0.015196,0.0014064,0.0049808,4.7185,0.0071945,0.012395,7.1089e-08,0.38,0.24,0
0.024357,0.0051879,0.014996,0.0015447,0.0049623,0.00087944,0,0,0.065222,-0.022215,0,0.011433,0,0,0,0.015054,0.0014874,0.0049623,3.7247,0.0071678,0.012206,6.85e-08,0.4,0.24,0
0.025657,0.0046404,0.015695,0.00054437,0.0048719,0.00096643,0,0,0.070352,-0.028129,0,0.012564,0,0,0,0.015757,0.00048298,0.0048719,3.6351,0.0070372,0.01362,8.58e-08,0.42,0.24,0
0.027171,0.0040395,0.020085,-0.00029151,0.0059381,0.00033162,0,0,0.041913,-0.017833,0,0.0056585,0,0,0,0.020119,-0.00032579,0.0059381,1.7862,0.0085773,0.018144,2.5935e-07,0.44,0.24,0
0.027672,0.0039584,0.012814,-0.00016842,0.0037936,-0.00053629,0,0,0.021735,-0.0092593,0,-0.0019255,0,0,0,0.012837,-0.00019226,0.0037936,-1.8886,0.0054796,0.011564,9.679e-08,0.46,0.24,0
0.027975,0.0039908,0.017242,-0.00055747,0.0050054,-0.00076853,0,0,0.015908,-0.0072317,0,-0.0019982,0,0,0,0.017275,-0.00059059,0.0050054,-2.4677,0.00723,0.015828,1.2117e-07,0.48,0.24,0
0.028308,0.0040231,0.01776,-0.00052999,0.0051689,-0.00049478,0,0,0.016368,-0.0074086,0,-0.0012864,0,0,0,0.017773,-0.00054336,0.0051689,-1.5485,0.0074662,0.016233,1.315e-07,0.5,0.24,0
0.02863,0.0040354,0.017429,-0.00024805,0.0051542,-0.00062256,0,0,0.015957,-0.007023,0,-0.0016186,0,0,0,0.017451,-0.00026994,0.0051542,-2.0146,0.007445,0.015727,1.2261e-07,0.52,0.24,0
0.028946,0.0040455,0.017434,0.00046802,0.0053706,-0.00050065,0,0,0.015682,-0.0063734,0,-0.0013017,0,0,0,0.017449,0.00045326,0.0053706,-1.6888,0.0077576,0.015148,1.1716e-07,0.54,0.24,0
0.029257,0.0040627,0.017363,0.00079918,0.0054487,-0.00030633,0,0,0.015489,-0.0060443,0,-0.00079647,0,0,0,0.017369,0.00079352,0.0054487,-1.0592,0.0078703,0.014807,1.1286e-07,0.56,0.24,0
0.029566,0.0040946,0.017358,0.00091577,0.0054821,-0.00011493,0,0,0.015439,-0.0059362,0,-0.00029881,0,0,0,0.017359,0.00091497,0.0054821,-0.40047,0.0079186,0.014702,1.1169e-07,0.58,0.24,0
0.029874,0.0041423,0.017336,0.00088697,0.0054669,6.2933e-05,0,0,0.01543,-0.005954,0,0.00016363,0,0,0,0.017336,0.00088673,0.0054669,0.2192,0.0078967,0.014705,1.1148e-07,0.6,0.24,0
0.030183,0.004206,0.017298,0.00071114,0.0054027,0.00026493,0,0,0.015464,-0.006099,0,0.00068882,0,0,0,0.017302,0.0007069,0.0054027,0.91485,0.0078039,0.014816,1.1223e-07,0.62,0.24,0
0.030493,0.0042849,0.017324,0.00031133,0.0052906,0.00047757,0,0,0.015643,-0.006473,0,0.0012417,0,0,0,0.017337,0.00029793,0.0052906,1.6067,0.0076419,0.015172,1.1608e-07,0.64,0.24,0
0.030809,0.0043716,0.017275,-0.00049095,0.0050352,0.00061454,0,0,0.015912,-0.007184,0,0.0015978,0,0,0,0.017296,-0.00051218,0.0050352,1.9788,0.0072731,0.015784,1.2108e-07,0.66,0.24,0
0.03113,0.0044565,0.017555,-0.00088974,0.0049996,0.0004927,0,0,0.016322,-0.0076561,0,0.001281,0,0,0,0.017568,-0.00090289,0.0049996,1.529,0.0072216,0.01634,1.2951e-07,0.68,0.24,0
0.031462,0.0045216,0.017032,-0.0010123,0.004806,0.00074702,0,0,0.015894,-0.0075638,0,0.0019422,0,0,0,0.017063,-0.0010432,0.004806,2.3666,0.006942,0.016005,1.1969e-07,0.7,0.24,0
0.031765,0.0045852,0.012667,-0.00059476,0.0036216,0.0005568,0,0,0.021807,-0.0098743,0,0.0020815,0,0,0,0.012692,-0.0006195,0.0036216,1.9791,0.0052313,0.011778,9.6469e-08,0.72,0.24,0
0.032268,0.0047718,0.019778,-0.001222,0.0055669,-0.0001574,0,0,0.042135,-0.019444,0,-0.0042823,0,0,0,0.019803,-0.0012461,0.0055669,-1.1842,0.0080411,0.018603,2.5806e-07,0.74,0.24,0
0.033791,0.0055417,0.015491,-0.00023852,0.0045756,-0.0006744,0,0,0.070948,-0.031292,0,-0.0087672,0,0,0,0.01552,-0.00026738,0.0045756,-2.4506,0.0066093,0.014008,8.6397e-08,0.76,0.24,0
0.035105,0.0062786,0.014852,0.00090861,0.0047282,-0.0005126,0,0,0.065805,-0.024827,0,-0.0066638,0,0,0,0.014871,0.00088979,0.0047282,-2.1026,0.0068296,0.012512,6.9593e-08,0.78,0.24,0
0.036423,0.0067793,0.01493,0.00084103,0.0047314,-0.0007041,0,0,0.066293,-0.025287,0,-0.0091533,0,0,0,0.014965,0.00080594,0.0047314,-2.8538,0.0068343,0.012662,7.1469e-08,0.8,0.24,0
0.037757,0.0071474,0.014997,0.0007332,0.0047191,-0.00073394,0,0,0.066807,-0.025908,0,-0.0095412,0,0,0,0.015035,0.00069553,0.0047191,-2.9378,0.0068164,0.01281,7.3153e-08,0.82,0.24,0
0.039095,0.0074313,0.014965,0.00053695,0.0046505,-0.00071028,0,0,0.067043,-0.026738,0,-0.0092337,0,0,0,0.015,0.00050207,0.0046505,-2.8116,0.0067174,0.012932,7.3772e-08,0.84,0.24,0
0.040439,0.0076512,0.014939,0.00032083,0.004578,-0.00066325,0,0,0.067348,-0.027672,0,-0.0086222,0,0,0,0.014969,0.0002908,0.004578,-2.5924,0.0066127,0.013073,7.4529e-08,0.86,0.24,0
0.041789,0.0078214,0.014926,0.00011154,0.0045112,-0.0005934,0,0,0.067695,-0.028598,0,-0.0077142,0,0,0,0.014949,8.7811e-05,0.0045112,-2.2902,0.0065162,0.013217,7.5365e-08,0.88,0.24,0
0.043147,0.0079525,0.01492,-7.2101e-05,0.0044543,-0.00050693,0,0,0.068026,-0.029422,0,-0.0065902,0,0,0,0.014937,-8.9223e-05,0.0044543,-1.9344,0.006434,0.013348,7.6136e-08,0.9,0.24,0
0.04451,0.0080521,0.014915,-0.00022348,0.0044076,-0.00041052,0,0,0.068301,-0.030102,0,-0.0053368,0,0,0,0.014927,-0.00023461,0.0044076,-1.5522,0.0063665,0.013455,7.6748e-08,0.92,0.24,0
0.045879,0.0081253,0.014911,-0.00034063,0.0043711,-0.00030934,0,0,0.068509,-0.030626,0,-0.0040215,0,0,0,0.014917,-0.0003469,0.0043711,-1.1615,0.0063138,0.013536,7.7188e-08,0.94,0.24,0
0.047251,0.0081756,0.014906,-0.00042357,0.0043449,-0.00020643,0,0,0.068651,-0.030995,0,-0.0026836,0,0,0,0.014909,-0.00042635,0.0043449,-0.77133,0.0062759,0.013593,7.7475e-08,0.96,0.24,0
0.048625,0.008205,0.014903,-0.00047294,0.0043292,-0.00010318,0,0,0.068733,-0.031214,0,-0.0013413,0,0,0,0.014904,-0.00047363,0.0043292,-0.38445,0.0062532,0.013627,7.7634e-08,0.98,0.24,0
0.05,0.0082146,0.014902,-0.00048932,0.0043239,3.7215e-05,0,0,0.06876,-0.031286,0,0.0004838,0,0,0,0.014902,-0.00048941,0.0043239,0.13853,0.0062456,0.013638,7.7687e-08,1,0.24,0
0,0,0.013166,0.0056428,0.0056428,0.0019019,0,0,0.048904,0,0,0.024725,0,0,0,0.01362,0.0051893,0.0056428,13.41,0.0081507,0.0082133,2.8164e-08,0,0.26,0
0.00097808,0.0004945,0.01311,0.0050067,0.0054351,0.0018978,0,0,0.049889,-0.0027846,0,0.024672,0,0,0,0.013533,0.0045843,0.0054351,12.549,0.0078507,0.0085549,3.1086e-08,0.02,0.26,0
0.0019956,0.00097585,0.013322,0.0045038,0.0053477,0.0018674,0,0,0.051832,-0.0054852,0,0.024276,0,0,0,0.013701,0.0041247,0.0053477,11.477,0.0077245,0.0090272,3.5455e-08,0.04,0.26,0
0.0030514,0.0014432,0.013528,0.0040198,0.0052645,0.0018313,0,0,0.053716,-0.0080905,0,0.023807,0,0,0,0.013869,0.0036793,0.0052645,10.533,0.0076042,0.0094968,3.989e-08,0.06,0.26,0
0.0041442,0.0018947,0.013729,0.0035588,0.0051862,0.0017864,0,0,0.055526,-0.010578,0,0.023224,0,0,0,0.014033,0.0032541,0.0051862,9.6787,0.0074912,0.0099548,4.4301e-08,0.08,0.26,0
0.0052724,0.0023277,0.013921,0.0031262,0.0051141,0.0017319,0,0,0.057244,-0.012922,0,0.022514,0,0,0,0.014192,0.0028551,0.0051141,8.895,0.0073871,0.010393,4.8602e-08,0.1,0.26,0
0.006434,0.0027397,0.014104,0.0027272,0.0050494,0.0016687,0,0,0.058855,-0.015094,0,0.021692,0,0,0,0.014344,0.0024875,0.0050494,8.1744,0.0072935,0.010805,5.2722e-08,0.12,0.26,0
0.0076266,0.0031276,0.014277,0.0023664,0.004993,0.0015992,0,0,0.060345,-0.017073,0,0.02079,0,0,0,0.014488,0.0021554,0.004993,7.5159,0.0072121,0.011187,5.6608e-08,0.14,0.26,0
0.0088478,0.0034892,0.014439,0.0020475,0.0049461,0.0015269,0,0,0.061707,-0.018841,0,0.01985,0,0,0,0.014625,0.0018621,0.0049461,6.9219,0.0071444,0.011534,6.0227e-08,0.16,0.26,0
0.010095,0.0038221,0.014593,0.0017731,0.0049097,0.0014552,0,0,0.062939,-0.020388,0,0.018918,0,0,0,0.014756,0.00161,0.0049097,6.3956,0.0070918,0.011846,6.3564e-08,0.18,0.26,0
0.011365,0.0041245,0.014738,0.0015451,0.0048848,0.0013875,0,0,0.064043,-0.021708,0,0.018037,0,0,0,0.014882,0.0014007,0.0048848,5.9394,0.0070558,0.012121,6.6619e-08,0.2,0.26,0
0.012657,0.0043948,0.014876,0.0013648,0.0048722,0.0013264,0,0,0.065024,-0.022798,0,0.017243,0,0,0,0.015005,0.0012358,0.0048722,5.554,0.0070377,0.012359,6.9403e-08,0.22,0.26,0
0.013966,0.0046313,0.015011,0.0012335,0.0048732,0.0012737,0,0,0.065893,-0.023658,0,0.016557,0,0,0,0.015127,0.0011167,0.0048732,5.2377,0.0070391,0.012561,7.1935e-08,0.24,0.26,0
0.015292,0.0048322,0.015144,0.0011521,0.004889,0.0012298,0,0,0.066661,-0.02429,0,0.015987,0,0,0,0.015252,0.0010448,0.004889,4.9847,0.0070618,0.012728,7.4243e-08,0.26,0.26,0
0.016633,0.0049948,0.015283,0.0011216,0.0049213,0.0011935,0,0,0.067349,-0.024698,0,0.015515,0,0,0,0.015383,0.0010217,0.0049213,4.7839,0.0071085,0.012862,7.6376e-08,0.28,0.26,0
0.017986,0.0051156,0.015433,0.001143,0.0049726,0.0011613,0,0,0.067989,-0.024893,0,0.015097,0,0,0,0.015526,0.0010493,0.0049726,4.6159,0.0071827,0.012968,7.8418e-08,0.3,0.26,0
0.019352,0.0051889,0.015607,0.001217,0.0050473,0.0011266,0,0,0.06864,-0.024897,0,0.014646,0,0,0,0.015695,0.0011294,0.0050473,4.4495,0.0072905,0.013055,8.0538e-08,0.32,0.26,0
0.020732,0.0052059,0.015832,0.0013453,0.0051532,0.0010789,0,0,0.069412,-0.024751,0,0.014025,0,0,0,0.015912,0.0012654,0.0051532,4.2359,0.0074435,0.013141,8.3083e-08,0.34,0.26,0
0.022129,0.0051531,0.016158,0.0015342,0.0053076,0.00099687,0,0,0.070527,-0.024527,0,0.012959,0,0,0,0.016226,0.0014666,0.0053076,3.8818,0.0076666,0.013262,8.6794e-08,0.36,0.26,0
0.023553,0.0050056,0.016737,0.0018317,0.0055705,0.00084778,0,0,0.072579,-0.024302,0,0.011021,0,0,0,0.016785,0.0017836,0.0055705,3.245,0.0080462,0.013511,9.394e-08,0.38,0.26,0
0.025032,0.0047232,0.017876,0.0023435,0.0060659,0.00026761,0,0,0.076766,-0.024195,0,0.0034789,0,0,0,0.017881,0.0023389,0.0060659,0.98674,0.0087618,0.014054,1.0948e-07,0.4,0.26,0
0.026624,0.0040667,0.023826,-7.9124e-05,0.0071242,0.00086191,0,0,0.047036,-0.018876,0,0.0066735,0,0,0,0.023864,-0.00011716,0.0071242,2.5377,0.01029,0.021309,4.6746e-07,0.42,0.26,0
0.027239,0.0038129,0.015487,0.00065428,0.0048423,-0.0010035,0,0,0.026143,-0.0099764,0,-0.0063346,0,0,0,0.015562,0.00057932,0.0048423,-4.7069,0.0069944,0.013371,1.5664e-07,0.44,0.26,0
0.027577,0.0038137,0.018955,0.00016826,0.0057368,-0.00069704,0,0,0.017183,-0.0072392,0,-0.0018123,0,0,0,0.01898,0.00014243,0.0057368,-2.122,0.0082866,0.016757,1.5397e-07,0.46,0.26,0
0.027926,0.0038449,0.018638,-0.00019032,0.0055344,-0.0002066,0,0,0.017035,-0.0074421,0,-0.00053715,0,0,0,0.018641,-0.00019258,0.0055344,-0.62858,0.0079942,0.016722,1.4865e-07,0.48,0.26,0
0.028258,0.0038714,0.017865,-0.00052026,0.0052036,-0.00033979,0,0,0.01646,-0.0074409,0,-0.00088345,0,0,0,0.017872,-0.00052654,0.0052036,-1.0584,0.0075162,0.016307,1.3355e-07,0.5,0.26,0
0.028584,0.0038951,0.017618,-0.00013719,0.0052441,-0.00041092,0,0,0.016085,-0.0069957,0,-0.0010684,0,0,0,0.017627,-0.00014669,0.0052441,-1.3251,0.0075749,0.015785,1.2544e-07,0.52,0.26,0
0.028902,0.0039156,0.017369,0.000285,0.0052964,-0.00041416,0,0,0.015695,-0.0065148,0,-0.0010768,0,0,0,0.01738,0.00027496,0.0052964,-1.3879,0.0076503,0.015228,1.1712e-07,0.54,0.26,0
0.029212,0.003941,0.01723,0.00062981,0.0053579,-0.00028918,0,0,0.015434,-0.0061466,0,-0.00075186,0,0,0,0.017235,0.00062477,0.0053579,-0.99769,0.0077392,0.014822,1.1154e-07,0.56,0.26,0
0.029519,0.0039759,0.017146,0.00077032,0.0053749,-0.00010811,0,0,0.015303,-0.005986,0,-0.00028109,0,0,0,0.017147,0.00076961,0.0053749,-0.37824,0.0077638,0.014629,1.087e-07,0.58,0.26,0
0.029825,0.0040232,0.017129,0.00073506,0.0053593,9.2294e-05,0,0,0.015301,-0.0060116,0,0.00023996,0,0,0,0.01713,0.00073454,0.0053593,0.32254,0.0077413,0.014642,1.0865e-07,0.6,0.26,0
0.030131,0.004083,0.017178,0.00052243,0.0053101,0.00028702,0,0,0.015428,-0.006224,0,0.00074626,0,0,0,0.017183,0.00051748,0.0053101,0.98699,0.0076702,0.014861,1.1134e-07,0.62,0.26,0
0.030442,0.0041528,0.017276,0.00010121,0.0052133,0.00043488,0,0,0.015682,-0.0066457,0,0.0011307,0,0,0,0.017287,9.0203e-05,0.0052133,1.4495,0.0075303,0.015293,1.1663e-07,0.64,0.26,0
0.030758,0.0042279,0.017472,-0.00040481,0.00512,0.0004548,0,0,0.016057,-0.0071823,0,0.0011825,0,0,0,0.017483,-0.00041638,0.00512,1.4564,0.0073955,0.015873,1.2433e-07,0.66,0.26,0
0.031084,0.0043001,0.017663,-0.00087061,0.0050378,0.00038944,0,0,0.016413,-0.0076809,0,0.0010126,0,0,0,0.017671,-0.00087879,0.0050378,1.2032,0.0072768,0.016412,1.3161e-07,0.68,0.26,0
0.031415,0.0043686,0.018385,-0.0006443,0.0053223,0.00024302,0,0,0.016982,-0.0077566,0,0.00063186,0,0,0,0.018388,-0.00064741,0.0053223,0.73156,0.0076878,0.016863,1.4628e-07,0.7,0.26,0
0.031763,0.0044321,0.018745,-0.00040066,0.0055032,0.00068878,0,0,0.017214,-0.007675,0,0.0017908,0,0,0,0.018769,-0.00042541,0.0055032,2.0577,0.0079491,0.017023,1.5367e-07,0.72,0.26,0
0.032103,0.0045249,0.015373,7.0383e-05,0.0046331,0.0010788,0,0,0.026398,-0.010868,0,0.0068997,0,0,0,0.015458,-1.4494e-05,0.0046331,4.9492,0.0066923,0.013751,1.5978e-07,0.74,0.26,0
0.032725,0.0048939,0.023512,-0.0013373,0.0066524,-0.00056487,0,0,0.047407,-0.021082,0,-0.0043099,0,0,0,0.023527,-0.0013528,0.0066524,-1.5893,0.009609,0.022002,4.7199e-07,0.76,0.26,0
0.034326,0.0057617,0.017688,0.001632,0.0057961,0.00012813,0,0,0.077299,-0.027067,0,0.0016656,0,0,0,0.017689,0.001631,0.0057961,0.45717,0.0083721,0.014434,1.1218e-07,0.78,0.26,0
0.035817,0.0062482,0.01658,0.0011363,0.0053149,-0.00044081,0,0,0.073224,-0.027162,0,-0.0057305,0,0,0,0.016593,0.0011237,0.0053149,-1.6336,0.0076771,0.013857,9.5697e-08,0.8,0.26,0
0.037255,0.0066098,0.016042,0.00083459,0.0050631,-0.00056151,0,0,0.071365,-0.027485,0,-0.0072997,0,0,0,0.016063,0.00081388,0.0050631,-2.1117,0.0073133,0.013631,8.8727e-08,0.82,0.26,0
0.038672,0.0068793,0.015773,0.00055744,0.0048993,-0.00061993,0,0,0.070682,-0.028222,0,-0.0080591,0,0,0,0.015799,0.00053223,0.0048993,-2.3292,0.0070767,0.013619,8.6178e-08,0.84,0.26,0
0.040082,0.0070815,0.015625,0.00027994,0.0047715,-0.00061268,0,0,0.070548,-0.029195,0,-0.0079649,0,0,0,0.015649,0.00025552,0.0047715,-2.2828,0.0068921,0.013706,8.5457e-08,0.86,0.26,0
0.041494,0.0072336,0.015541,3.8977e-05,0.0046739,-0.00055962,0,0,0.070634,-0.030127,0,-0.007275,0,0,0,0.015561,1.8801e-05,0.0046739,-2.0648,0.0067512,0.013816,8.5426e-08,0.88,0.26,0
0.042908,0.0073486,0.015482,-0.0001603,0.0045965,-0.00047967,0,0,0.070755,-0.030919,0,-0.0062358,0,0,0,0.015497,-0.00017499,0.0045965,-1.7548,0.0066394,0.013914,8.5492e-08,0.9,0.26,0
0.044324,0.0074351,0.015436,-0.0003184,0.0045352,-0.00038736,0,0,0.070854,-0.031549,0,-0.0050357,0,0,0,0.015445,-0.00032791,0.0045352,-1.4077,0.0065509,0.013991,8.5508e-08,0.92,0.26,0
0.045742,0.0074983,0.015399,-0.00043769,0.0044885,-0.0002906,0,0,0.070921,-0.03202,0,-0.0037778,0,0,0,0.015405,-0.00044302,0.0044885,-1.0509,0.0064834,0.014047,8.547e-08,0.94,0.26,0
0.047161,0.0075416,0.015373,-0.00052077,0.0044555,-0.00019314,0,0,0.070961,-0.032346,0,-0.0025108,0,0,0,0.015375,-0.00052312,0.0044555,-0.69613,0.0064358,0.014085,8.5411e-08,0.96,0.26,0
0.04858,0.0075668,0.015356,-0.00056973,0.0044359,-9.6278e-05,0,0,0.070982,-0.032537,0,-0.0012516,0,0,0,0.015357,-0.00057031,0.0044359,-0.34636,0.0064075,0.014107,8.5362e-08,0.98,0.26,0
0.05,0.0075752,0.015351,-0.0005859,0.0044294,3.1988e-05,0,0,0.070988,-0.032599,0,0.00041584,0,0,0,0.015351,-0.00058597,0.0044294,0.115,0.006398,0.014114,8.5345e-08,1,0.26,0
0,0,0.013236,0.0056724,0.0056724,0.001687,0,0,0.049161,5.421e-19,0,0.021931,0,0,0,0.013595,0.0053132,0.0056724,12.021,0.0081935,0.0081081,2.7195e-08,0,0.28,0
0.00098322,0.00043862,0.013179,0.0050327,0.0054634,0.0016833,0,0,0.050149,-0.0027996,0,0.021882,0,0,0,0.013513,0.0046986,0.0054634,11.227,0.0078916,0.0084578,3.0219e-08,0.02,0.28,0
0.002006,0.00086611,0.013392,0.0045337,0.0053778,0.0016569,0,0,0.052094,-0.0054863,0,0.021539,0,0,0,0.013692,0.004234,0.0053778,10.255,0.0077679,0.0089411,3.4694e-08,0.04,0.28,0
0.003067,0.0012817,0.013601,0.0040575,0.0052976,0.0016256,0,0,0.053973,-0.0080607,0,0.021133,0,0,0,0.01387,0.0037882,0.0052976,9.406,0.0076521,0.0094187,3.9225e-08,0.06,0.28,0
0.0041649,0.0016838,0.013806,0.0036062,0.0052235,0.0015868,0,0,0.055783,-0.010513,0,0.020628,0,0,0,0.014047,0.003365,0.0052235,8.6417,0.0075451,0.0098844,4.3747e-08,0.08,0.28,0
0.0052983,0.0020703,0.014005,0.003183,0.0051564,0.0015395,0,0,0.057515,-0.012827,0,0.020014,0,0,0,0.01422,0.0029683,0.0051564,7.9412,0.0074481,0.010332,4.8202e-08,0.1,0.28,0
0.0064655,0.0024389,0.014198,0.0027918,0.005097,0.0014846,0,0,0.059159,-0.014984,0,0.019299,0,0,0,0.014388,0.0026017,0.005097,7.2951,0.0073624,0.010758,5.2538e-08,0.12,0.28,0
0.0076647,0.0027872,0.014386,0.0024359,0.0050465,0.0014236,0,0,0.060706,-0.016969,0,0.018507,0,0,0,0.014553,0.0022686,0.0050465,6.7008,0.0072895,0.011158,5.6716e-08,0.14,0.28,0
0.0088938,0.003113,0.014568,0.0021185,0.0050059,0.0013593,0,0,0.062152,-0.018768,0,0.017671,0,0,0,0.014715,0.0019718,0.0050059,6.1594,0.0072308,0.011529,6.0712e-08,0.16,0.28,0
0.010151,0.0034144,0.014745,0.0018424,0.0049762,0.0012945,0,0,0.063497,-0.020369,0,0.016829,0,0,0,0.014873,0.0017138,0.0049762,5.6733,0.0071879,0.01187,6.4515e-08,0.18,0.28,0
0.011434,0.0036895,0.014919,0.0016099,0.0049586,0.001232,0,0,0.064741,-0.021767,0,0.016016,0,0,0,0.015032,0.0014968,0.0049586,5.2444,0.0071624,0.012179,6.8127e-08,0.2,0.28,0
0.01274,0.0039369,0.015091,0.001423,0.0049542,0.0011739,0,0,0.06589,-0.022953,0,0.01526,0,0,0,0.015191,0.0013229,0.0049542,4.8732,0.0071561,0.012456,7.1556e-08,0.22,0.28,0
0.014069,0.004155,0.015265,0.0012841,0.0049647,0.0011214,0,0,0.066951,-0.023924,0,0.014578,0,0,0,0.015354,0.0011947,0.0049647,4.557,0.0071712,0.012701,7.4821e-08,0.24,0.28,0
0.015418,0.0043418,0.015443,0.0011959,0.0049917,0.0010743,0,0,0.067935,-0.024673,0,0.013965,0,0,0,0.015524,0.0011154,0.0049917,4.2878,0.0072103,0.012914,7.7944e-08,0.26,0.28,0
0.016787,0.0044949,0.015632,0.0011619,0.005038,0.0010295,0,0,0.068858,-0.025195,0,0.013384,0,0,0,0.015704,0.001089,0.005038,4.0495,0.0072772,0.013095,8.0964e-08,0.28,0.28,0
0.018173,0.0046104,0.015838,0.0011866,0.0051074,0.00098055,0,0,0.069749,-0.025485,0,0.012747,0,0,0,0.015903,0.0011212,0.0051074,3.8119,0.0073773,0.013247,8.395e-08,0.3,0.28,0
0.019577,0.0046823,0.016077,0.0012762,0.0052058,0.0009146,0,0,0.07066,-0.025543,0,0.01189,0,0,0,0.016133,0.0012199,0.0052058,3.5228,0.0075195,0.013373,8.7047e-08,0.32,0.28,0
0.020999,0.004701,0.016373,0.0014407,0.0053441,0.0008083,0,0,0.071689,-0.025372,0,0.010508,0,0,0,0.016417,0.0013971,0.0053441,3.0894,0.0077193,0.013487,9.0557e-08,0.34,0.28,0
0.022444,0.0046512,0.016773,0.0017001,0.0055418,0.00062082,0,0,0.073,-0.024971,0,0.0080706,0,0,0,0.016798,0.0016746,0.0055418,2.3546,0.0080049,0.013609,9.5062e-08,0.36,0.28,0
0.023919,0.0045087,0.017338,0.0021074,0.0058336,0.00024774,0,0,0.074778,-0.02422,0,0.0032207,0,0,0,0.017342,0.0021033,0.0058336,0.93166,0.0084263,0.013758,1.0134e-07,0.38,0.28,0
0.025435,0.0042201,0.017634,0.002639,0.0060819,-0.00036968,0,0,0.075089,-0.022379,0,-0.0048059,0,0,0,0.017643,0.0026299,0.0060819,-1.4114,0.008785,0.013619,1.0219e-07,0.4,0.28,0
0.026923,0.0037873,0.016176,-0.0010532,0.0045368,-0.00016298,0,0,0.04488,-0.012112,0,-0.005923,0,0,0,0.01623,-0.0011076,0.0045368,-1.2688,0.0065531,0.015509,8.0076e-08,0.42,0.28,0
0.02723,0.0036675,0.017666,-9.4098e-05,0.0052716,-0.0008906,0,0,0.016113,-0.0069754,0,-0.0023156,0,0,0,0.017711,-0.00013865,0.0052716,-2.8636,0.0076145,0.015852,1.2716e-07,0.44,0.28,0
0.027567,0.0036689,0.018248,-6.8865e-05,0.0054538,0.0001674,0,0,0.016633,-0.0071795,0,0.00043523,0,0,0,0.01825,-7.0394e-05,0.0054538,0.52355,0.0078777,0.016277,1.3855e-07,0.46,0.28,0
0.027896,0.0036932,0.017828,-0.00040302,0.0052275,0.00010202,0,0,0.016381,-0.0073197,0,0.00026526,0,0,0,0.017829,-0.00040359,0.0052275,0.32062,0.0075508,0.016169,1.317e-07,0.48,0.28,0
0.028222,0.0037255,0.017649,-0.00029148,0.0052073,-2.8805e-05,0,0,0.016175,-0.0071484,0,-7.4894e-05,0,0,0,0.017649,-0.00029152,0.0052073,-0.091993,0.0075217,0.01592,1.2698e-07,0.5,0.28,0
0.028543,0.0037555,0.017405,-8.5234e-05,0.0051958,-0.0001925,0,0,0.015872,-0.0068654,0,-0.00050051,0,0,0,0.017407,-8.7352e-05,0.0051958,-0.63053,0.0075051,0.015541,1.2037e-07,0.52,0.28,0
0.028857,0.0037849,0.017238,0.000236,0.0052422,-0.00024689,0,0,0.015594,-0.006508,0,-0.00064191,0,0,0,0.017241,0.00023241,0.0052422,-0.83177,0.007572,0.015139,1.1465e-07,0.54,0.28,0
0.029167,0.0038169,0.017104,0.00048523,0.0052766,-0.00019885,0,0,0.015375,-0.0062288,0,-0.000517,0,0,0,0.017106,0.00048285,0.0052766,-0.68544,0.0076218,0.01482,1.1009e-07,0.56,0.28,0
0.029472,0.0038551,0.017033,0.00060334,0.0052908,-7.4295e-05,0,0,0.015264,-0.0060937,0,-0.00019317,0,0,0,0.017033,0.00060301,0.0052908,-0.25909,0.0076422,0.014659,1.0777e-07,0.58,0.28,0
0.029777,0.0039018,0.017026,0.00055985,0.0052756,8.0378e-05,0,0,0.015275,-0.0061305,0,0.00020898,0,0,0,0.017026,0.00055946,0.0052756,0.27968,0.0076203,0.014688,1.0797e-07,0.6,0.28,0
0.030083,0.003957,0.01708,0.00035426,0.0052303,0.00022218,0,0,0.015405,-0.0063388,0,0.00057768,0,0,0,0.017083,0.00035131,0.0052303,0.76094,0.0075548,0.014904,1.1062e-07,0.62,0.28,0
0.030393,0.0040191,0.017188,1.6601e-05,0.0051614,0.00030244,0,0,0.015634,-0.0066882,0,0.00078635,0,0,0,0.017193,1.1276e-05,0.0051614,1.0088,0.0074553,0.015273,1.153e-07,0.64,0.28,0
0.030709,0.0040843,0.017308,-0.00039067,0.0050752,0.00028865,0,0,0.015902,-0.0071056,0,0.00075048,0,0,0,0.017313,-0.00039538,0.0050752,0.93411,0.0073308,0.015704,1.2061e-07,0.66,0.28,0
0.031029,0.0041493,0.017466,-0.00067687,0.0050366,0.00016128,0,0,0.016158,-0.0074275,0,0.00041932,0,0,0,0.017467,-0.0006783,0.0050366,0.50928,0.0072751,0.016069,1.2581e-07,0.68,0.28,0
0.031355,0.0042113,0.017527,-0.0008445,0.0050047,2.4836e-05,0,0,0.016279,-0.0076039,0,6.4574e-05,0,0,0,0.017527,-0.00084453,0.0050047,0.077458,0.007229,0.016256,1.2822e-07,0.7,0.28,0
0.031681,0.0042782,0.017887,-0.00057565,0.0051935,-9.9594e-05,0,0,0.016502,-0.0074999,0,-0.00025894,0,0,0,0.017888,-0.00057619,0.0051935,-0.30906,0.0075017,0.016361,1.3427e-07,0.72,0.28,0
0.032015,0.0043665,0.017326,-0.00094924,0.004913,0.00091504,0,0,0.016137,-0.0076209,0,0.0023791,0,0,0,0.017372,-0.00099494,0.004913,2.8593,0.0070966,0.01624,1.2587e-07,0.74,0.28,0
0.032326,0.0045854,0.01576,-0.0022836,0.004043,0.00036787,0,0,0.04507,-0.013707,0,0.0081236,0,0,0,0.015839,-0.0023619,0.004043,2.0504,0.0058399,0.016209,7.0105e-08,0.76,0.28,0
0.033818,0.005196,0.017365,0.0018029,0.0057504,0.00070618,0,0,0.075496,-0.025659,0,0.0091804,0,0,0,0.017397,0.0017709,0.0057504,2.5929,0.0083061,0.014065,1.0528e-07,0.78,0.28,0
0.035346,0.0056928,0.017186,0.0014316,0.0055854,0.00014278,0,0,0.075406,-0.026999,0,0.0018561,0,0,0,0.017188,0.0014303,0.0055854,0.51919,0.0080677,0.014145,1.0419e-07,0.8,0.28,0
0.036834,0.006048,0.016686,0.0010433,0.0053189,-0.00027367,0,0,0.073889,-0.027791,0,-0.0035577,0,0,0,0.016691,0.0010386,0.0053189,-1.0019,0.0076829,0.014012,9.8106e-08,0.82,0.28,0
0.038301,0.0063025,0.016367,0.00059982,0.0050901,-0.00046051,0,0,0.073301,-0.029187,0,-0.0059867,0,0,0,0.01638,0.00058638,0.0050901,-1.6715,0.0073523,0.014093,9.5815e-08,0.84,0.28,0
0.039766,0.0064834,0.016204,0.00024823,0.0049358,-0.00050688,0,0,0.073246,-0.030469,0,-0.0065894,0,0,0,0.01622,0.00023215,0.0049358,-1.8177,0.0071294,0.014232,9.5372e-08,0.86,0.28,0
0.041231,0.0066164,0.016085,-2.7265e-05,0.0048174,-0.00047434,0,0,0.073242,-0.031491,0,-0.0061664,0,0,0,0.016099,-4.1217e-05,0.0048174,-1.6848,0.0069585,0.014342,9.4986e-08,0.88,0.28,0
0.042696,0.0067158,0.015985,-0.00024172,0.0047229,-0.00040792,0,0,0.073202,-0.03227,0,-0.0053029,0,0,0,0.015995,-0.00025197,0.0047229,-1.4391,0.006822,0.014418,9.4441e-08,0.9,0.28,0
0.044159,0.0067902,0.0159,-0.00040521,0.0046484,-0.00032836,0,0,0.073135,-0.032849,0,-0.0042687,0,0,0,0.015907,-0.00041182,0.0046484,-1.1532,0.0067144,0.014468,9.3835e-08,0.92,0.28,0
0.045621,0.0068445,0.015832,-0.0005253,0.0045921,-0.00024521,0,0,0.073062,-0.033263,0,-0.0031877,0,0,0,0.015836,-0.00052897,0.0045921,-0.85864,0.0066331,0.0145,9.3275e-08,0.94,0.28,0
0.047082,0.0068817,0.015783,-0.00060746,0.0045528,-0.00016231,0,0,0.072999,-0.033542,0,-0.00211,0,0,0,0.015785,-0.00060906,0.0045528,-0.56729,0.0065762,0.014519,9.2833e-08,0.96,0.28,0
0.048541,0.0069035,0.015754,-0.00065535,0.0045295,-8.069e-05,0,0,0.072957,-0.033702,0,-0.001049,0,0,0,0.015754,-0.00065575,0.0045295,-0.28174,0.0065426,0.014529,9.2552e-08,0.98,0.28,0
0.05,0.0069106,0.015744,-0.00067109,0.0045218,2.7561e-05,0,0,0.072942,-0.033754,0,0.0003583,0,0,0,0.015744,-0.00067113,0.0045218,0.096203,0.0065315,0.014532,9.2457e-08,1,0.28,0
0,0,0.01329,0.0056958,0.0056958,0.0014712,0,0,0.049364,5.421e-19,0,0.019126,0,0,0,0.013565,0.0054208,0.0056958,10.589,0.0082273,0.0080105,2.6295e-08,0,0.3,0
0.00098727,0.00038252,0.013233,0.0050546,0.0054862,0.0014676,0,0,0.050352,-0.0028052,0,0.019078,0,0,0,0.013488,0.0047992,0.0054862,9.8717,0.0079245,0.0083665,2.9396e-08,0.02,0.3,0
0.0020141,0.0007564,0.013447,0.0045597,0.005402,0.0014453,0,0,0.052293,-0.0054755,0,0.01879,0,0,0,0.013676,0.0043305,0.005402,9.0087,0.007803,0.0088588,3.3951e-08,0.04,0.3,0
0.003079,0.0011208,0.013658,0.0040906,0.0053245,0.0014178,0,0,0.054166,-0.0080203,0,0.018431,0,0,0,0.013863,0.0038849,0.0053245,8.2547,0.0076909,0.0093422,3.8546e-08,0.06,0.3,0
0.0041807,0.0014742,0.013865,0.0036479,0.0052538,0.0013829,0,0,0.055971,-0.010438,0,0.017978,0,0,0,0.014049,0.003464,0.0052538,7.574,0.0075888,0.009813,4.314e-08,0.08,0.3,0
0.0053179,0.0018147,0.014069,0.0032333,0.0051907,0.0013401,0,0,0.057709,-0.012723,0,0.017421,0,0,0,0.014232,0.00307,0.0051907,6.9467,0.0074976,0.010267,4.7695e-08,0.1,0.3,0
0.006489,0.0021403,0.01427,0.0028493,0.0051358,0.0012898,0,0,0.059373,-0.014862,0,0.016767,0,0,0,0.014414,0.0027055,0.0051358,6.3637,0.0074184,0.010702,5.2179e-08,0.12,0.3,0
0.0076928,0.0024488,0.014469,0.0024986,0.0050902,0.0012333,0,0,0.06096,-0.016845,0,0.016033,0,0,0,0.014594,0.0023729,0.0050902,5.8217,0.0073525,0.011115,5.6567e-08,0.14,0.3,0
0.0089274,0.0027384,0.014665,0.0021838,0.0050547,0.0011727,0,0,0.062469,-0.018661,0,0.015245,0,0,0,0.014774,0.0020746,0.0050547,5.3213,0.0073013,0.011503,6.0843e-08,0.16,0.3,0
0.010191,0.0030073,0.014861,0.0019075,0.0050306,0.0011104,0,0,0.063898,-0.0203,0,0.014435,0,0,0,0.014956,0.001813,0.0050306,4.8642,0.0072664,0.011866,6.5004e-08,0.18,0.3,0
0.011483,0.0032539,0.015057,0.0016723,0.0050189,0.0010486,0,0,0.065251,-0.021753,0,0.013631,0,0,0,0.015139,0.0015907,0.0050189,4.4522,0.0072496,0.012201,6.9051e-08,0.2,0.3,0
0.012802,0.0034767,0.015256,0.001481,0.0050212,0.00098901,0,0,0.066529,-0.023011,0,0.012857,0,0,0,0.015327,0.0014104,0.0050212,4.0857,0.0072529,0.012508,7.2993e-08,0.22,0.3,0
0.014145,0.0036744,0.01546,0.0013371,0.0050392,0.00093256,0,0,0.067736,-0.024063,0,0.012123,0,0,0,0.015521,0.0012758,0.0050392,3.7616,0.0072788,0.012786,7.6836e-08,0.24,0.3,0
0.015511,0.0038453,0.015671,0.0012452,0.0050748,0.00087832,0,0,0.068874,-0.024893,0,0.011418,0,0,0,0.015724,0.0011919,0.0050748,3.4714,0.0073303,0.013032,8.0578e-08,0.26,0.3,0
0.0169,0.003987,0.015892,0.0012115,0.0051309,0.0008225,0,0,0.069945,-0.025476,0,0.010693,0,0,0,0.015938,0.0011655,0.0051309,3.1968,0.0074113,0.013242,8.4201e-08,0.28,0.3,0
0.018309,0.0040962,0.016126,0.0012451,0.0052112,0.00075661,0,0,0.070943,-0.02578,0,0.0098359,0,0,0,0.016164,0.0012067,0.0052112,2.9033,0.0075273,0.013411,8.7662e-08,0.3,0.3,0
0.019737,0.0041672,0.016376,0.001359,0.0053206,0.00066436,0,0,0.071862,-0.02575,0,0.0086367,0,0,0,0.016406,0.0013297,0.0053206,2.5282,0.0076853,0.013529,9.087e-08,0.32,0.3,0
0.021183,0.004191,0.016645,0.0015721,0.0054651,0.00051784,0,0,0.072669,-0.025305,0,0.006732,0,0,0,0.016663,0.0015543,0.0054651,1.9654,0.0078941,0.013582,9.3624e-08,0.34,0.3,0
0.022644,0.0041542,0.016918,0.0019153,0.0056499,0.00027083,0,0,0.073241,-0.024275,0,0.0035208,0,0,0,0.016923,0.0019104,0.0056499,1.0339,0.0081609,0.013536,9.535e-08,0.36,0.3,0
0.024113,0.0040368,0.017067,0.0024242,0.0058473,-0.00011949,0,0,0.072927,-0.02225,0,-0.0015534,0,0,0,0.017068,0.0024232,0.0058473,-0.46752,0.0084461,0.013268,9.3568e-08,0.38,0.3,0
0.025561,0.003828,0.016977,0.0033774,0.0061063,-0.00058074,0,0,0.070658,-0.017737,0,-0.0075497,0,0,0,0.017001,0.0033527,0.0061063,-2.4408,0.0088202,0.012502,8.4172e-08,0.4,0.3,0
0.026939,0.0035823,0.016748,0.00055111,0.0051899,-0.00087598,0,0,0.042588,-0.010051,0,-0.0070856,0,0,0,0.0168,0.00049925,0.0051899,-3.332,0.0074965,0.01466,9.381e-08,0.42,0.3,0
0.027265,0.0035339,0.017045,-0.00057731,0.0049402,-0.00033021,0,0,0.015736,-0.0071727,0,-0.00085854,0,0,0,0.017051,-0.0005835,0.0049402,-1.0731,0.0071358,0.015623,1.1652e-07,0.44,0.3,0
0.027569,0.0035266,0.016708,-0.00047149,0.004871,8.0158e-05,0,0,0.015388,-0.0069452,0,0.00020841,0,0,0,0.016708,-0.00047187,0.004871,0.26733,0.0070358,0.015229,1.09e-07,0.46,0.3,0
0.02788,0.0035521,0.017035,-0.00027035,0.0050294,0.00020929,0,0,0.015607,-0.0068896,0,0.00054416,0,0,0,0.017037,-0.00027288,0.0050294,0.69281,0.0072646,0.015362,1.1417e-07,0.48,0.3,0
0.028193,0.0035855,0.017096,-0.00016914,0.0050782,7.7902e-05,0,0,0.015624,-0.0068215,0,0.00020254,0,0,0,0.017097,-0.00016949,0.0050782,0.25851,0.0073352,0.015331,1.1464e-07,0.5,0.3,0
0.028505,0.0036204,0.017091,2.3895e-05,0.0051346,-5.584e-05,0,0,0.015544,-0.0066439,0,-0.00014519,0,0,0,0.017091,2.3713e-05,0.0051346,-0.18746,0.0074166,0.015172,1.1317e-07,0.52,0.3,0
0.028815,0.0036553,0.017032,0.0002287,0.0051782,-0.00013107,0,0,0.01541,-0.0064344,0,-0.00034078,0,0,0,0.017033,0.00022767,0.0051782,-0.44688,0.0074797,0.014958,1.1056e-07,0.54,0.3,0
0.029122,0.0036918,0.016976,0.00039806,0.0052124,-0.00012148,0,0,0.015293,-0.0062586,0,-0.00031585,0,0,0,0.016977,0.00039717,0.0052124,-0.41982,0.007529,0.014773,1.0824e-07,0.56,0.3,0
0.029426,0.0037322,0.016944,0.00046943,0.0052239,-4.8355e-05,0,0,0.015236,-0.0061809,0,-0.00012572,0,0,0,0.016944,0.00046929,0.0052239,-0.16817,0.0075457,0.014686,1.0706e-07,0.58,0.3,0
0.029731,0.003778,0.01695,0.00041709,0.0052102,5.4242e-05,0,0,0.015262,-0.006231,0,0.00014103,0,0,0,0.01695,0.00041692,0.0052102,0.18798,0.0075258,0.014734,1.0757e-07,0.6,0.3,0
0.030037,0.0038294,0.016994,0.00024083,0.0051706,0.00014705,0,0,0.015371,-0.0064087,0,0.00038234,0,0,0,0.016996,0.00023954,0.0051706,0.50286,0.0074686,0.014915,1.0974e-07,0.62,0.3,0
0.030346,0.0038853,0.017056,-3.3081e-05,0.005107,0.00019669,0,0,0.015534,-0.0066821,0,0.0005114,0,0,0,0.017059,-3.5345e-05,0.005107,0.65934,0.0073767,0.01519,1.1294e-07,0.64,0.3,0
0.030658,0.0039437,0.017104,-0.00033967,0.0050292,0.00018344,0,0,0.015697,-0.0069795,0,0.00047693,0,0,0,0.017105,-0.0003416,0.0050292,0.60244,0.0072644,0.015477,1.16e-07,0.66,0.3,0
0.030974,0.004003,0.017048,-0.00062409,0.0049272,0.00013212,0,0,0.015757,-0.0072167,0,0.00034351,0,0,0,0.017049,-0.00062507,0.0049272,0.42831,0.007117,0.015655,1.1675e-07,0.68,0.3,0
0.031288,0.0040644,0.016799,-0.00080215,0.0047991,8.9862e-05,0,0,0.0156,-0.0072816,0,0.00023364,0,0,0,0.0168,-0.00080261,0.0047991,0.29251,0.0069321,0.015576,1.1287e-07,0.7,0.3,0
0.031598,0.0041321,0.016132,-0.0010107,0.0045362,0.00020231,0,0,0.015074,-0.007211,0,0.00052602,0,0,0,0.016134,-0.001013,0.0045362,0.67609,0.0065524,0.015154,1.0133e-07,0.72,0.3,0
0.031892,0.0042201,0.016718,-0.00093244,0.0047357,0.00046153,0,0,0.015577,-0.0073686,0,0.0012,0,0,0,0.01673,-0.0009445,0.0047357,1.4968,0.0068405,0.015629,1.1236e-07,0.74,0.3,0
0.032221,0.0043456,0.01612,-0.0009929,0.0045382,0.00084063,0,0,0.042358,-0.011984,0,0.0080471,0,0,0,0.016178,-0.001051,0.0045382,3.3122,0.0065552,0.015375,8.4947e-08,0.76,0.3,0
0.033586,0.0047353,0.016492,0.0023441,0.0056508,0.00089513,0,0,0.070467,-0.021493,0,0.011637,0,0,0,0.016548,0.0022877,0.0056508,3.6059,0.0081623,0.012912,8.5787e-08,0.78,0.3,0
0.035039,0.0051682,0.016902,0.0020357,0.0056812,0.00034866,0,0,0.072933,-0.023696,0,0.0045326,0,0,0,0.01691,0.0020276,0.0056812,1.3428,0.0082062,0.013433,9.4148e-08,0.8,0.3,0
0.036503,0.0054981,0.016766,0.0012022,0.0053903,-0.00011634,0,0,0.073939,-0.027223,0,-0.0015124,0,0,0,0.016766,0.0012014,0.0053903,-0.42826,0.0077861,0.01395,9.8225e-08,0.82,0.3,0
0.037997,0.0057119,0.016762,0.00062797,0.0052171,-0.00033324,0,0,0.075044,-0.029829,0,-0.0043321,0,0,0,0.016769,0.00062109,0.0052171,-1.1827,0.0075357,0.014411,1.0264e-07,0.84,0.3,0
0.039505,0.0058627,0.016676,0.00022222,0.0050695,-0.00037227,0,0,0.075443,-0.031507,0,-0.0048395,0,0,0,0.016685,0.0002138,0.0050695,-1.2954,0.0073226,0.014659,1.0397e-07,0.86,0.3,0
0.041015,0.0059739,0.016541,-8.1588e-05,0.004938,-0.00034634,0,0,0.075423,-0.032627,0,-0.0045024,0,0,0,0.016549,-8.8801e-05,0.004938,-1.1931,0.0071326,0.01478,1.0347e-07,0.88,0.3,0
0.042522,0.0060578,0.016405,-0.00030794,0.0048292,-0.00029516,0,0,0.075244,-0.033391,0,-0.0038371,0,0,0,0.01641,-0.00031315,0.0048292,-1.0114,0.0069755,0.014837,1.0234e-07,0.9,0.3,0
0.044024,0.0061211,0.016286,-0.00047491,0.0047432,-0.00023554,0,0,0.075025,-0.033918,0,-0.003062,0,0,0,0.016289,-0.00047822,0.0047432,-0.80497,0.0068513,0.014861,1.0111e-07,0.92,0.3,0
0.045523,0.0061678,0.01619,-0.00059462,0.0046786,-0.00017454,0,0,0.074823,-0.034276,0,-0.002269,0,0,0,0.016192,-0.00059643,0.0046786,-0.59574,0.0067579,0.01487,1.0003e-07,0.94,0.3,0
0.047017,0.0061999,0.016121,-0.00067515,0.0046336,-0.00011484,0,0,0.074665,-0.034507,0,-0.0014929,0,0,0,0.016121,-0.00067594,0.0046336,-0.39172,0.006693,0.014871,9.9206e-08,0.96,0.3,0
0.048509,0.0062188,0.016079,-0.00072161,0.0046072,-5.687e-05,0,0,0.074566,-0.034637,0,-0.0007393,0,0,0,0.016079,-0.0007218,0.0046072,-0.19394,0.0066548,0.014871,9.8699e-08,0.98,0.3,0
0.05,0.006225,0.016065,-0.0007368,0.0045984,2.3962e-05,0,0,0.074532,-0.034679,0,0.00031151,0,0,0,0.016065,-0.00073683,0.0045984,0.081714,0.0066422,0.01487,9.8529e-08,1,0.3,0
0,0,0.013326,0.0057113,0.0057113,0.0012554,0,0,0.049498,-2.1684e-19,0,0.016321,0,0,0,0.013528,0.0055097,0.0057113,9.1244,0.0082497,0.0079195,2.5455e-08,0,0.32,0
0.00098996,0.00032642,0.013269,0.0050719,0.0055022,0.0012518,0,0,0.050482,-0.0027969,0,0.016273,0,0,0,0.013456,0.004885,0.0055022,8.4919,0.0079476,0.0082793,2.8602e-08,0.02,0.32,0
0.0020193,0.00064708,0.013483,0.0045821,0.0054195,0.0012338,0,0,0.052413,-0.0054434,0,0.016039,0,0,0,0.013651,0.0044142,0.0054195,7.7472,0.0078282,0.0087772,3.3198e-08,0.04,0.32,0
0.0030865,0.00096087,0.013694,0.0041204,0.0053442,0.0012092,0,0,0.054271,-0.0079547,0,0.01572,0,0,0,0.013844,0.00397,0.0053442,7.0888,0.0077193,0.0092636,3.7817e-08,0.06,0.32,0
0.0041901,0.0012662,0.013902,0.0036861,0.0052763,0.0011768,0,0,0.056065,-0.010337,0,0.015298,0,0,0,0.014035,0.0035523,0.0052763,6.4869,0.0076214,0.0097363,4.2437e-08,0.08,0.32,0
0.0053291,0.0015614,0.014108,0.00328,0.0052165,0.0011361,0,0,0.057797,-0.012587,0,0.014769,0,0,0,0.014226,0.0031621,0.0052165,5.9254,0.007535,0.010193,4.7037e-08,0.1,0.32,0
0.006502,0.0018444,0.014314,0.0029034,0.0051653,0.0010876,0,0,0.059468,-0.014702,0,0.014138,0,0,0,0.014417,0.0028007,0.0051653,5.3961,0.007461,0.010633,5.1599e-08,0.12,0.32,0
0.0077078,0.0021134,0.01452,0.0025584,0.0051235,0.0010324,0,0,0.061077,-0.016673,0,0.013421,0,0,0,0.014608,0.00247,0.0051235,4.8967,0.0074007,0.011053,5.6112e-08,0.14,0.32,0
0.0089451,0.0023665,0.014727,0.0022473,0.0050922,0.00097211,0,0,0.062624,-0.018492,0,0.012637,0,0,0,0.014802,0.002172,0.0050922,4.4276,0.0073554,0.011452,6.0568e-08,0.16,0.32,0
0.010213,0.0026023,0.014935,0.0019723,0.0050723,0.00090873,0,0,0.06411,-0.02015,0,0.011813,0,0,0,0.014999,0.0019089,0.0050723,3.9905,0.0073266,0.01183,6.4969e-08,0.18,0.32,0
0.01151,0.0028194,0.015148,0.0017364,0.0050652,0.00084414,0,0,0.065535,-0.021637,0,0.010974,0,0,0,0.015201,0.0016834,0.0050652,3.5875,0.0073164,0.012183,6.932e-08,0.2,0.32,0
0.012834,0.0030165,0.015365,0.0015428,0.0050723,0.00077992,0,0,0.066902,-0.022942,0,0.010139,0,0,0,0.015409,0.0014989,0.0050723,3.2193,0.0073267,0.012512,7.3624e-08,0.22,0.32,0
0.014186,0.0031924,0.015589,0.0013959,0.0050955,0.00071693,0,0,0.068208,-0.024047,0,0.0093201,0,0,0,0.015625,0.0013598,0.0050955,2.8844,0.0073602,0.012813,7.7872e-08,0.24,0.32,0
0.015562,0.0033461,0.01582,0.0013022,0.0051368,0.00065461,0,0,0.069444,-0.024925,0,0.0085099,0,0,0,0.01585,0.0012727,0.0051368,2.5764,0.0074198,0.01308,8.2029e-08,0.26,0.32,0
0.016963,0.0034758,0.016058,0.0012705,0.0051986,0.00059,0,0,0.070588,-0.025533,0,0.00767,0,0,0,0.016082,0.001247,0.0051986,2.2811,0.0075092,0.013307,8.6002e-08,0.28,0.32,0
0.018386,0.0035792,0.016299,0.0013145,0.005284,0.00051614,0,0,0.071596,-0.025802,0,0.0067098,0,0,0,0.016317,0.0012967,0.005284,1.9705,0.0076324,0.013476,8.9589e-08,0.3,0.32,0
0.019827,0.0036523,0.016532,0.0014542,0.0053958,0.00041989,0,0,0.072385,-0.025621,0,0.0054586,0,0,0,0.016544,0.0014425,0.0053958,1.594,0.007794,0.013564,9.2406e-08,0.32,0.32,0
0.021281,0.0036889,0.016737,0.0017192,0.0055368,0.00028006,0,0,0.0728,-0.024814,0,0.0036407,0,0,0,0.016742,0.001714,0.0055368,1.068,0.0079976,0.013528,9.375e-08,0.34,0.32,0
0.022739,0.0036802,0.016865,0.00215,0.0057047,7.3691e-05,0,0,0.072545,-0.023105,0,0.00095798,0,0,0,0.016866,0.0021497,0.0057047,0.28691,0.00824,0.0133,9.2353e-08,0.36,0.32,0
0.024183,0.0036186,0.016863,0.0028272,0.0059072,-0.00019324,0,0,0.071215,-0.02002,0,-0.0025122,0,0,0,0.016866,0.0028246,0.0059072,-0.78862,0.0085326,0.012782,8.6589e-08,0.38,0.32,0
0.025588,0.0035106,0.016758,0.0038418,0.0061799,-0.0004334,0,0,0.068756,-0.015197,0,-0.0056342,0,0,0,0.016772,0.0038273,0.0061799,-1.9197,0.0089265,0.011944,7.619e-08,0.4,0.32,0
0.026933,0.0033853,0.016403,0.00061571,0.0051056,-0.00050738,0,0,0.0416,-0.0097281,0,-0.0042096,0,0,0,0.016421,0.00059736,0.0051056,-2.0061,0.0073748,0.014242,8.7283e-08,0.42,0.32,0
0.027252,0.0033806,0.016488,-0.0015205,0.0044903,-0.00038534,0,0,0.015597,-0.0078141,0,-0.0010019,0,0,0,0.016497,-0.0015288,0.0044903,-1.2252,0.006486,0.015895,1.1102e-07,0.44,0.32,0
0.027557,0.0033911,0.01646,-0.00049161,0.0047904,-7.6284e-05,0,0,0.01517,-0.0068667,0,-0.00019834,0,0,0,0.01646,-0.00049195,0.0047904,-0.25783,0.0069195,0.015024,1.0438e-07,0.46,0.32,0
0.027859,0.0034176,0.016524,-0.00021516,0.0048925,4.6219e-05,0,0,0.01512,-0.00664,0,0.00012017,0,0,0,0.016524,-0.00021529,0.0048925,0.1582,0.007067,0.014859,1.0383e-07,0.48,0.32,0
0.028162,0.0034526,0.016703,-3.4058e-05,0.0050008,2.2811e-05,0,0,0.015213,-0.0065453,0,5.9308e-05,0,0,0,0.016703,-3.4089e-05,0.0050008,0.078086,0.0072233,0.014873,1.0602e-07,0.5,0.32,0
0.028467,0.0034898,0.016808,0.00010553,0.0050739,-5.1882e-05,0,0,0.015254,-0.0064589,0,-0.00013489,0,0,0,0.016808,0.00010537,0.0050739,-0.17798,0.007329,0.014855,1.0706e-07,0.52,0.32,0
0.028772,0.0035276,0.016857,0.0002427,0.0051299,-9.6207e-05,0,0,0.015245,-0.0063534,0,-0.00025014,0,0,0,0.016858,0.00024214,0.0051299,-0.33176,0.0074098,0.01479,1.0705e-07,0.54,0.32,0
0.029077,0.0035665,0.016872,0.0003445,0.0051649,-9.1322e-05,0,0,0.015219,-0.0062665,0,-0.00023744,0,0,0,0.016872,0.000344,0.0051649,-0.31658,0.0074604,0.014722,1.066e-07,0.56,0.32,0
0.029381,0.0036079,0.016881,0.000377,0.0051774,-4.3842e-05,0,0,0.015215,-0.0062405,0,-0.00011399,0,0,0,0.016881,0.00037688,0.0051774,-0.1522,0.0074785,0.014704,1.0654e-07,0.58,0.32,0
0.029686,0.0036526,0.016901,0.00031646,0.0051653,2.4561e-05,0,0,0.015257,-0.0063035,0,6.3858e-05,0,0,0,0.016901,0.00031642,0.0051653,0.084851,0.007461,0.01477,1.0736e-07,0.6,0.32,0
0.029991,0.0037007,0.016934,0.00016248,0.0051291,8.9773e-05,0,0,0.015347,-0.0064566,0,0.00023341,0,0,0,0.016935,0.000162,0.0051291,0.30667,0.0074086,0.014923,1.0911e-07,0.62,0.32,0
0.030299,0.0037518,0.016969,-6.1477e-05,0.0050723,0.00013273,0,0,0.015466,-0.0066739,0,0.00034509,0,0,0,0.01697,-6.2511e-05,0.0050723,0.4465,0.0073266,0.015133,1.1138e-07,0.64,0.32,0
0.03061,0.0038052,0.016979,-0.00031975,0.0049976,0.00015354,0,0,0.015575,-0.0069126,0,0.0003992,0,0,0,0.01698,-0.00032111,0.0049976,0.5085,0.0072188,0.015349,1.1335e-07,0.66,0.32,0
0.030922,0.0038606,0.016933,-0.00057638,0.0049069,0.00018623,0,0,0.015634,-0.0071282,0,0.00048419,0,0,0,0.016935,-0.00057836,0.0049069,0.6093,0.0070877,0.015515,1.1414e-07,0.68,0.32,0
0.031235,0.0039201,0.016757,-0.00086452,0.0047678,0.00033699,0,0,0.015586,-0.007322,0,0.00087618,0,0,0,0.016764,-0.00087096,0.0047678,1.0952,0.0068868,0.015599,1.1258e-07,0.7,0.32,0
0.031546,0.0039898,0.016319,-0.001298,0.0045062,0.00071519,0,0,0.015356,-0.0075455,0,0.0018595,0,0,0,0.016348,-0.001327,0.0045062,2.321,0.0065089,0.015599,1.0706e-07,0.72,0.32,0
0.03185,0.0040718,0.015078,-0.0024327,0.0037937,0.00091573,0,0,0.01467,-0.0080944,0,0.0023809,0,0,0,0.015126,-0.0024805,0.0037937,2.9854,0.0054798,0.015456,8.977e-08,0.74,0.32,0
0.032133,0.004106,0.014865,-0.00048834,0.004313,0.00095037,0,0,0.040279,-0.010403,0,0.0073852,0,0,0,0.014927,-0.00055001,0.004313,3.7164,0.0062299,0.013865,6.357e-08,0.76,0.32,0
0.033461,0.0043362,0.015702,0.0028998,0.0055806,-0.00028641,0,0,0.065791,-0.017425,0,-0.0037234,0,0,0,0.015709,0.0028934,0.0055806,-1.281,0.0080609,0.011705,6.7964e-08,0.78,0.32,0
0.034764,0.004745,0.016111,0.0020897,0.0054602,9.437e-06,0,0,0.06923,-0.021908,0,0.00012268,0,0,0,0.016111,0.0020897,0.0054602,0.038563,0.007887,0.012677,8.0223e-08,0.8,0.32,0
0.03623,0.0049591,0.017004,0.0012252,0.0054688,-0.00020616,0,0,0.07498,-0.027583,0,-0.00268,0,0,0,0.017007,0.0012225,0.0054688,-0.74842,0.0078994,0.014147,1.0248e-07,0.82,0.32,0
0.037763,0.0051093,0.017206,0.00065436,0.0053582,-0.00021782,0,0,0.077013,-0.030575,0,-0.0028316,0,0,0,0.017209,0.00065149,0.0053582,-0.75382,0.0077397,0.014778,1.1083e-07,0.84,0.32,0
0.03931,0.0052231,0.017081,0.00020739,0.0051864,-0.00020251,0,0,0.077313,-0.032364,0,-0.0026326,0,0,0,0.017083,0.00020496,0.0051864,-0.68753,0.0074915,0.01502,1.117e-07,0.86,0.32,0
0.040856,0.0053113,0.016899,-0.00011641,0.0050347,-0.00017687,0,0,0.077116,-0.033482,0,-0.0022993,0,0,0,0.0169,-0.00011825,0.0050347,-0.59549,0.0072723,0.015116,1.104e-07,0.88,0.32,0
0.042395,0.0053801,0.016723,-0.00035075,0.0049115,-0.00014582,0,0,0.076771,-0.034205,0,-0.0018957,0,0,0,0.016724,-0.00035199,0.0049115,-0.48931,0.0070944,0.015146,1.0853e-07,0.9,0.32,0
0.043927,0.0054335,0.016572,-0.0005192,0.0048158,-0.00011354,0,0,0.076414,-0.034677,0,-0.0014759,0,0,0,0.016573,-0.00051996,0.0048158,-0.38059,0.0069562,0.015147,1.0669e-07,0.92,0.32,0
0.045452,0.0054735,0.016453,-0.00063766,0.0047446,-8.2427e-05,0,0,0.076105,-0.034985,0,-0.0010716,0,0,0,0.016453,-0.00063806,0.0047446,-0.27633,0.0068533,0.015136,1.0515e-07,0.94,0.32,0
0.046971,0.0055014,0.016368,-0.00071626,0.0046955,-5.3362e-05,0,0,0.07587,-0.035176,0,-0.00069371,0,0,0,0.016368,-0.00071643,0.0046955,-0.17896,0.0067823,0.015123,1.0401e-07,0.96,0.32,0
0.048487,0.005518,0.016317,-0.00076121,0.0046666,-2.6151e-05,0,0,0.075725,-0.035281,0,-0.00033996,0,0,0,0.016317,-0.00076125,0.0046666,-0.087735,0.0067407,0.015114,1.0331e-07,0.98,0.32,0
0.05,0.0055235,0.0163,-0.00077584,0.0046571,2.1111e-05,0,0,0.075676,-0.035314,0,0.00027444,0,0,0,0.0163,-0.00077587,0.0046571,0.070836,0.006727,0.01511,1.0308e-07,1,0.32,0
0,0,0.013342,0.0057179,0.0057179,0.0010409,0,0,0.049555,-6.5052e-19,0,0.013532,0,0,0,0.013481,0.0055783,0.0057179,7.6367,0.0082592,0.0078341,2.4668e-08,0,0.34,0
0.0009911,0.00027064,0.013284,0.0050841,0.0055105,0.0010371,0,0,0.050529,-0.0027717,0,0.013482,0,0,0,0.013413,0.004955,0.0055105,7.0972,0.0079596,0.0081948,2.7827e-08,0.02,0.34,0
0.0020212,0.00053867,0.013497,0.0046013,0.0054294,0.0010233,0,0,0.052438,-0.0053832,0,0.013303,0,0,0,0.013613,0.004485,0.0054294,6.4783,0.0078425,0.0086944,3.2416e-08,0.04,0.34,0
0.0030886,0.00080259,0.013706,0.0041479,0.0053561,0.0010012,0,0,0.054274,-0.0078537,0,0.013016,0,0,0,0.01381,0.0040441,0.0053561,5.9165,0.0077367,0.0091801,3.7013e-08,0.06,0.34,0
0.0041921,0.0010607,0.013913,0.0037226,0.0052907,0.00097021,0,0,0.056046,-0.010193,0,0.012613,0,0,0,0.014005,0.003631,0.0052907,5.3904,0.0076422,0.0096515,4.1609e-08,0.08,0.34,0
0.0053305,0.0013112,0.01412,0.0033252,0.0052336,0.00093012,0,0,0.057762,-0.012404,0,0.012091,0,0,0,0.0142,0.0032457,0.0052336,4.8888,0.0075596,0.010108,4.6197e-08,0.1,0.34,0
0.0065026,0.0015522,0.014327,0.0029566,0.0051852,0.00088146,0,0,0.059424,-0.014486,0,0.011459,0,0,0,0.014395,0.0028887,0.0051852,4.4065,0.0074897,0.010547,5.0768e-08,0.12,0.34,0
0.0077074,0.0017819,0.014536,0.0026182,0.0051463,0.00082523,0,0,0.061034,-0.016433,0,0.010728,0,0,0,0.014593,0.0025614,0.0051463,3.9422,0.0074336,0.01097,5.5321e-08,0.14,0.34,0
0.008944,0.0019988,0.014748,0.0023118,0.0051179,0.00076282,0,0,0.062595,-0.018239,0,0.0099167,0,0,0,0.014795,0.0022652,0.0051179,3.497,0.0073925,0.011374,5.9856e-08,0.16,0.34,0
0.010211,0.0022013,0.014963,0.0020398,0.005101,0.00069586,0,0,0.064106,-0.019898,0,0.0090462,0,0,0,0.015001,0.0020024,0.005101,3.0732,0.0073681,0.011759,6.4378e-08,0.18,0.34,0
0.011508,0.0023884,0.015185,0.0018049,0.0050969,0.00062607,0,0,0.065571,-0.021398,0,0.008139,0,0,0,0.015214,0.0017756,0.0050969,2.6732,0.0073621,0.012124,6.8895e-08,0.2,0.34,0
0.012834,0.002559,0.015413,0.0016107,0.005107,0.00055509,0,0,0.066987,-0.022726,0,0.0072162,0,0,0,0.015435,0.0015884,0.005107,2.2994,0.0073768,0.012465,7.3406e-08,0.22,0.34,0
0.014188,0.0027125,0.015648,0.0014625,0.0051332,0.00048422,0,0,0.068348,-0.02386,0,0.0062949,0,0,0,0.015665,0.001446,0.0051332,1.9527,0.0074147,0.012781,7.7895e-08,0.24,0.34,0
0.015568,0.0028483,0.015891,0.0013673,0.0051775,0.00041417,0,0,0.069638,-0.024766,0,0.0053843,0,0,0,0.015903,0.0013555,0.0051775,1.6321,0.0074786,0.013063,8.2299e-08,0.26,0.34,0
0.016973,0.0029657,0.016137,0.0013362,0.0052421,0.00034458,0,0,0.070819,-0.025388,0,0.0044795,0,0,0,0.016145,0.0013282,0.0052421,1.3329,0.0075719,0.013299,8.6471e-08,0.28,0.34,0
0.018401,0.0030641,0.016378,0.0013857,0.0053292,0.00027336,0,0,0.071818,-0.025632,0,0.0035537,0,0,0,0.016383,0.0013808,0.0053292,1.0442,0.0076977,0.013469,9.0102e-08,0.3,0.34,0
0.019846,0.0031424,0.016595,0.0015407,0.0054409,0.00019586,0,0,0.072505,-0.025351,0,0.0025462,0,0,0,0.016598,0.0015382,0.0054409,0.74523,0.007859,0.013537,9.2615e-08,0.32,0.34,0
0.021301,0.0031985,0.016758,0.001838,0.0055788,0.00010488,0,0,0.072665,-0.024315,0,0.0013635,0,0,0,0.016759,0.0018373,0.0055788,0.40275,0.0080583,0.013447,9.3051e-08,0.34,0.34,0
0.022752,0.00323,0.016828,0.0023295,0.0057474,-4.9975e-06,0,0,0.072027,-0.022216,0,-6.4967e-05,0,0,0,0.016828,0.0023295,0.0057474,-0.019749,0.0083018,0.013128,9.0191e-08,0.36,0.34,0
0.024182,0.003236,0.016788,0.003062,0.005955,-0.00012495,0,0,0.070414,-0.018804,0,-0.0016244,0,0,0,0.016789,0.0030609,0.005955,-0.52153,0.0086016,0.012534,8.3247e-08,0.38,0.34,0
0.025569,0.0032202,0.016652,0.0039975,0.0061947,-0.00022171,0,0,0.06797,-0.014282,0,-0.0028822,0,0,0,0.016656,0.0039936,0.0061947,-1.0034,0.008948,0.011718,7.2896e-08,0.4,0.34,0
0.026901,0.0031932,0.016352,0.00069964,0.0051153,-0.00027358,0,0,0.041241,-0.0095674,0,-0.0021051,0,0,0,0.016357,0.00069458,0.0051153,-1.0631,0.0073888,0.014104,8.6335e-08,0.42,0.34,0
0.027219,0.0032213,0.016351,-0.0017775,0.0043721,-0.00025819,0,0,0.015573,-0.0079945,0,-0.00067128,0,0,0,0.016355,-0.0017812,0.0043721,-0.81577,0.0063153,0.015974,1.0952e-07,0.44,0.34,0
0.027524,0.0032519,0.016317,-0.00068805,0.0046885,-0.00019728,0,0,0.015116,-0.0069896,0,-0.00051293,0,0,0,0.016319,-0.00069034,0.0046885,-0.6646,0.0067723,0.015058,1.0293e-07,0.46,0.34,0
0.027823,0.0032865,0.016389,-0.00018008,0.0048627,-0.00014071,0,0,0.014984,-0.0065556,0,-0.00036584,0,0,0,0.01639,-0.00018127,0.0048627,-0.48651,0.0070239,0.014713,1.0113e-07,0.48,0.34,0
0.028123,0.0033237,0.016531,2.2522e-05,0.004966,-0.00013128,0,0,0.015034,-0.0064265,0,-0.00034132,0,0,0,0.016532,2.1478e-05,0.004966,-0.45558,0.0071731,0.014677,1.0243e-07,0.5,0.34,0
0.028425,0.0033621,0.016677,0.00014344,0.0050461,-0.0001345,0,0,0.01512,-0.0063735,0,-0.00034971,0,0,0,0.016678,0.00014234,0.0050461,-0.46608,0.0072888,0.01471,1.0434e-07,0.52,0.34,0
0.028728,0.0034011,0.016775,0.00023873,0.0051042,-0.00012818,0,0,0.015173,-0.0063252,0,-0.00033326,0,0,0,0.016776,0.00023774,0.0051042,-0.44407,0.0073728,0.014722,1.0554e-07,0.54,0.34,0
0.029032,0.0034411,0.016831,0.00030394,0.0051406,-0.00010196,0,0,0.015198,-0.0062877,0,-0.00026511,0,0,0,0.016832,0.00030332,0.0051406,-0.35346,0.0074253,0.014719,1.0613e-07,0.56,0.34,0
0.029336,0.0034826,0.016865,0.00031275,0.0051534,-5.8822e-05,0,0,0.015225,-0.0062929,0,-0.00015294,0,0,0,0.016865,0.00031254,0.0051534,-0.20361,0.0074438,0.014741,1.067e-07,0.58,0.34,0
0.029641,0.0035259,0.016894,0.00024614,0.0051422,-6.0434e-06,0,0,0.015278,-0.0063648,0,-1.5713e-05,0,0,0,0.016894,0.00024614,0.0051422,-0.020799,0.0074276,0.01482,1.0773e-07,0.6,0.34,0
0.029947,0.0035711,0.016924,0.00010346,0.0051083,4.7618e-05,0,0,0.015361,-0.0065063,0,0.00012381,0,0,0,0.016924,0.00010333,0.0051083,0.1622,0.0073786,0.01496,1.0932e-07,0.62,0.34,0
0.030255,0.0036183,0.01695,-9.7071e-05,0.005056,9.6111e-05,0,0,0.015463,-0.006699,0,0.00024989,0,0,0,0.016951,-9.7612e-05,0.005056,0.32301,0.0073031,0.015144,1.1125e-07,0.64,0.34,0
0.030565,0.0036672,0.016974,-0.0003281,0.0049937,0.0001402,0,0,0.015574,-0.0069183,0,0.00036453,0,0,0,0.016975,-0.00032923,0.0049937,0.46425,0.0072131,0.015351,1.133e-07,0.66,0.34,0
0.030878,0.0037179,0.017031,-0.00057839,0.0049358,0.00019936,0,0,0.015724,-0.0071684,0,0.00051834,0,0,0,0.017033,-0.00058064,0.0049358,0.64855,0.0071294,0.015605,1.1614e-07,0.68,0.34,0
0.031194,0.0037715,0.017267,-0.00088123,0.0049158,0.00031938,0,0,0.016057,-0.0075361,0,0.00083038,0,0,0,0.017273,-0.00088685,0.0049158,1.0079,0.0071006,0.016064,1.2308e-07,0.7,0.34,0
0.03152,0.0038302,0.017994,-0.0013552,0.0049915,0.00059256,0,0,0.016903,-0.0082507,0,0.0015406,0,0,0,0.018012,-0.0013733,0.0049915,1.7525,0.00721,0.017115,1.4261e-07,0.72,0.34,0
0.031871,0.0038963,0.019161,-0.0021706,0.0050971,0.00077907,0,0,0.018283,-0.0094481,0,0.0020256,0,0,0,0.01919,-0.0021991,0.0050971,2.0888,0.0073625,0.018832,1.7763e-07,0.74,0.34,0
0.032252,0.0039295,0.01542,0.0010189,0.0049318,0.0010931,0,0,0.024558,-0.0086176,0,0.007399,0,0,0,0.015525,0.00091469,0.0049318,5.9822,0.0071236,0.013073,1.6213e-07,0.76,0.34,0
0.032798,0.0040383,0.022693,0.0017297,0.0073269,6.8064e-05,0,0,0.045266,-0.01282,0,-0.0048954,0,0,0,0.022754,0.0016693,0.0073269,-1.2784,0.010583,0.018932,3.385e-07,0.78,0.34,0
0.034421,0.0042919,0.018887,0.0026102,0.0064491,-4.293e-05,0,0,0.080845,-0.024953,0,-0.00055808,0,0,0,0.018887,0.0026101,0.0064491,-0.15112,0.0093154,0.014737,1.2755e-07,0.8,0.34,0
0.036032,0.0043948,0.018203,0.0014706,0.0059021,-5.524e-05,0,0,0.079957,-0.028805,0,-0.00071812,0,0,0,0.018203,0.0014704,0.0059021,-0.18915,0.0085253,0.015016,1.2418e-07,0.82,0.34,0
0.03762,0.0044888,0.017698,0.00070681,0.0055215,1.4289e-05,0,0,0.079149,-0.031296,0,0.00018575,0,0,0,0.017698,0.0007068,0.0055215,0.048182,0.0079755,0.015168,1.2025e-07,0.84,0.34,0
0.039198,0.0045682,0.017377,0.0002135,0.0052772,2.8693e-05,0,0,0.078649,-0.032914,0,0.000373,0,0,0,0.017377,0.00021346,0.0052772,0.095782,0.0076226,0.015275,1.1753e-07,0.86,0.34,0
0.040766,0.0046347,0.017123,-0.0001254,0.0050993,3.2281e-05,0,0,0.078154,-0.03396,0,0.00041966,0,0,0,0.017123,-0.00012546,0.0050993,0.10723,0.0073656,0.01532,1.1486e-07,0.88,0.34,0
0.042324,0.0046896,0.016912,-0.00036347,0.0049646,3.2136e-05,0,0,0.077659,-0.034632,0,0.00041777,0,0,0,0.016912,-0.00036353,0.0049646,0.10658,0.0071711,0.015323,1.1229e-07,0.9,0.34,0
0.043872,0.0047341,0.01674,-0.00053154,0.0048626,2.9601e-05,0,0,0.077205,-0.035062,0,0.00038481,0,0,0,0.01674,-0.00053159,0.0048626,0.098194,0.0070238,0.015305,1.1001e-07,0.92,0.34,0
0.045412,0.0047684,0.016607,-0.00064822,0.0047877,2.475e-05,0,0,0.076826,-0.035333,0,0.00032176,0,0,0,0.016607,-0.00064825,0.0047877,0.082183,0.0069155,0.015281,1.0815e-07,0.94,0.34,0
0.046945,0.0047929,0.016512,-0.00072494,0.0047362,1.7816e-05,0,0,0.076545,-0.035498,0,0.00023161,0,0,0,0.016512,-0.00072496,0.0047362,0.05922,0.0068412,0.015258,1.068e-07,0.96,0.34,0
0.048474,0.0048075,0.016456,-0.00076856,0.0047062,9.3223e-06,0,0,0.076372,-0.035586,0,0.00012119,0,0,0,0.016456,-0.00076856,0.0047062,0.03101,0.0067978,0.015243,1.0598e-07,0.98,0.34,0
0.05,0.0048124,0.016437,-0.00078272,0.0046963,1.8826e-05,0,0,0.076314,-0.035613,0,0.00024474,0,0,0,0.016437,-0.00078274,0.0046963,0.062641,0.0067835,0.015238,1.0571e-07,1,0.34,0
0,0,0.013335,0.0057148,0.0057148,0.00082903,0,0,0.049528,5.421e-19,0,0.010777,0,0,0,0.013424,0.0056257,0.0057148,6.1381,0.0082547,0.0077539,2.3932e-08,0,0.36,0
0.00099057,0.00021555,0.013278,0.005091,0.0055107,0.00082496,0,0,0.050487,-0.0027278,0,0.010724,0,0,0,0.01336,0.0050087,0.0055107,5.6971,0.0079598,0.0081121,2.7064e-08,0.02,0.36,0
0.0020195,0.00043176,0.013487,0.0046174,0.0054313,0.00081552,0,0,0.052363,-0.005291,0,0.010602,0,0,0,0.013562,0.004543,0.0054313,5.2097,0.0078453,0.0086088,3.1594e-08,0.04,0.36,0
0.0030851,0.00064672,0.013693,0.0041737,0.00536,0.00079567,0,0,0.054164,-0.0077108,0,0.010344,0,0,0,0.013759,0.0041077,0.00536,4.7452,0.0077422,0.0090901,3.6121e-08,0.06,0.36,0
0.004186,0.00085852,0.013897,0.0037583,0.0052967,0.00076539,0,0,0.055904,-0.0099993,0,0.0099501,0,0,0,0.013955,0.0037009,0.0052967,4.2928,0.0076508,0.0095564,4.0643e-08,0.08,0.36,0
0.0053212,0.0010652,0.014102,0.0033705,0.0052416,0.00072496,0,0,0.05759,-0.012162,0,0.0094244,0,0,0,0.01415,0.0033218,0.0052416,3.8474,0.0075713,0.010008,4.5159e-08,0.1,0.36,0
0.0064896,0.001265,0.014307,0.0030107,0.0051954,0.00067497,0,0,0.059227,-0.0142,0,0.0087745,0,0,0,0.014347,0.0029705,0.0051954,3.4073,0.0075044,0.010444,4.9672e-08,0.12,0.36,0
0.0076903,0.0014561,0.014515,0.0026799,0.0051585,0.00061634,0,0,0.060818,-0.016111,0,0.0080124,0,0,0,0.014547,0.0026479,0.0051585,2.973,0.0074512,0.010864,5.4183e-08,0.14,0.36,0
0.0089224,0.001637,0.014727,0.0023796,0.0051319,0.00055028,0,0,0.062367,-0.01789,0,0.0071537,0,0,0,0.014751,0.0023551,0.0051319,2.5468,0.0074128,0.011267,5.8697e-08,0.16,0.36,0
0.010185,0.0018064,0.014944,0.002112,0.0051167,0.00047824,0,0,0.063875,-0.01953,0,0.0062171,0,0,0,0.014961,0.0020942,0.0051167,2.1315,0.0073907,0.011654,6.3224e-08,0.18,0.36,0
0.011477,0.0019635,0.015167,0.0018798,0.0051139,0.00040182,0,0,0.065343,-0.021022,0,0.0052237,0,0,0,0.015179,0.0018677,0.0051139,1.7307,0.0073868,0.012021,6.7772e-08,0.2,0.36,0
0.012799,0.0021074,0.015397,0.0016867,0.0051252,0.00032284,0,0,0.066769,-0.022351,0,0.0041969,0,0,0,0.015405,0.0016791,0.0051252,1.3481,0.0074031,0.012368,7.2342e-08,0.22,0.36,0
0.014148,0.002238,0.015637,0.0015378,0.0051523,0.00024327,0,0,0.068149,-0.023495,0,0.0031625,0,0,0,0.015641,0.0015336,0.0051523,0.98821,0.0074423,0.012691,7.6916e-08,0.24,0.36,0
0.015525,0.0023555,0.015884,0.0014405,0.0051973,0.00016547,0,0,0.069462,-0.024419,0,0.0021512,0,0,0,0.015886,0.0014386,0.0051973,0.65631,0.0075072,0.012982,8.1433e-08,0.26,0.36,0
0.016927,0.0024603,0.016135,0.0014061,0.0052623,9.2442e-05,0,0,0.070671,-0.025065,0,0.0012017,0,0,0,0.016135,0.0014056,0.0052623,0.35959,0.0076011,0.01323,8.5742e-08,0.28,0.36,0
0.018351,0.0025539,0.016381,0.0014514,0.0053496,2.832e-05,0,0,0.071702,-0.025338,0,0.00036816,0,0,0,0.016381,0.0014513,0.0053496,0.10869,0.0077272,0.013412,8.9529e-08,0.3,0.36,0
0.019795,0.0026382,0.016603,0.0016017,0.0054613,-2.0904e-05,0,0,0.072419,-0.025088,0,-0.00027175,0,0,0,0.016603,0.0016016,0.0054613,-0.079841,0.0078886,0.013492,9.2203e-08,0.32,0.36,0
0.021248,0.0027162,0.01677,0.0018942,0.0055991,-4.7529e-05,0,0,0.072608,-0.024082,0,-0.00061788,0,0,0,0.01677,0.001894,0.0055991,-0.18307,0.0080877,0.013413,9.2784e-08,0.34,0.36,0
0.022699,0.0027916,0.016844,0.0023813,0.0057675,-4.6111e-05,0,0,0.071996,-0.022011,0,-0.00059945,0,0,0,0.016844,0.0023811,0.0057675,-0.18268,0.0083308,0.013102,9.0022e-08,0.36,0.36,0
0.024128,0.0028665,0.016807,0.003109,0.0059748,-2.4606e-05,0,0,0.070409,-0.018628,0,-0.00031988,0,0,0,0.016807,0.003109,0.0059748,-0.10292,0.0086302,0.012514,8.3122e-08,0.38,0.36,0
0.025515,0.0029393,0.016675,0.0040365,0.0062134,-1.2102e-05,0,0,0.068,-0.01415,0,-0.00015733,0,0,0,0.016675,0.0040365,0.0062134,-0.054865,0.008975,0.011703,7.2811e-08,0.4,0.36,0
0.026848,0.0030026,0.016382,0.00075006,0.0051397,-4.0907e-05,0,0,0.04127,-0.0095109,0,-9.3554e-05,0,0,0,0.016383,0.00074988,0.0051397,-0.11747,0.007424,0.014082,8.6583e-08,0.42,0.36,0
0.027166,0.0030608,0.016387,-0.0017349,0.0043957,-0.00014965,0,0,0.015589,-0.0079699,0,-0.00038909,0,0,0,0.016389,-0.0017362,0.0043957,-0.4731,0.0063494,0.015968,1.0995e-07,0.44,0.36,0
0.027472,0.0031115,0.016358,-0.00067745,0.0047043,-0.0002665,0,0,0.01515,-0.0069962,0,-0.00069289,0,0,0,0.016362,-0.00068162,0.0047043,-0.89601,0.0067951,0.01509,1.037e-07,0.46,0.36,0
0.027772,0.0031553,0.016435,-0.00019071,0.0048734,-0.00032753,0,0,0.015031,-0.0065834,0,-0.00085157,0,0,0,0.016442,-0.00019716,0.0048734,-1.1281,0.0070394,0.014772,1.0218e-07,0.48,0.36,0
0.028073,0.0031956,0.016579,-1.0215e-06,0.0049733,-0.00030545,0,0,0.015087,-0.0064667,0,-0.00079416,0,0,0,0.016584,-6.6467e-06,0.0049733,-1.0551,0.0071837,0.014746,1.0359e-07,0.5,0.36,0
0.028376,0.0032348,0.016725,0.00011138,0.0050508,-0.00024758,0,0,0.015176,-0.0064213,0,-0.00064371,0,0,0,0.016728,0.0001077,0.0050508,-0.85361,0.0072956,0.014783,1.0553e-07,0.52,0.36,0
0.02868,0.0032746,0.016823,0.00020036,0.0051069,-0.00018364,0,0,0.01523,-0.0063785,0,-0.00047748,0,0,0,0.016824,0.00019833,0.0051069,-0.63291,0.0073766,0.014796,1.0673e-07,0.54,0.36,0
0.028985,0.003315,0.016878,0.00026084,0.0051417,-0.00012837,0,0,0.015258,-0.0063452,0,-0.00033375,0,0,0,0.016879,0.00025985,0.0051417,-0.44256,0.007427,0.014795,1.0734e-07,0.56,0.36,0
0.02929,0.0033562,0.016912,0.00026587,0.0051534,-8.1427e-05,0,0,0.015286,-0.0063538,0,-0.00021171,0,0,0,0.016913,0.00026547,0.0051534,-0.28026,0.0074438,0.014821,1.0794e-07,0.58,0.36,0
0.029596,0.003398,0.016942,0.00019631,0.0051414,-3.7448e-05,0,0,0.01534,-0.0064286,0,-9.7364e-05,0,0,0,0.016942,0.00019622,0.0051414,-0.12813,0.0074265,0.014902,1.09e-07,0.6,0.36,0
0.029904,0.0034404,0.016972,5.1585e-05,0.0051071,1.0502e-05,0,0,0.015424,-0.0065722,0,2.7305e-05,0,0,0,0.016972,5.1579e-05,0.0051071,0.035562,0.0073769,0.015044,1.1062e-07,0.62,0.36,0
0.030213,0.0034839,0.016999,-0.0001498,0.0050546,6.6111e-05,0,0,0.015527,-0.0067658,0,0.00017189,0,0,0,0.016999,-0.00015006,0.0050546,0.22088,0.0073012,0.015229,1.1256e-07,0.64,0.36,0
0.030525,0.0035284,0.017021,-0.00037971,0.0049925,0.00012501,0,0,0.015637,-0.0069838,0,0.00032504,0,0,0,0.017022,-0.00038061,0.0049925,0.4116,0.0072113,0.015434,1.1459e-07,0.66,0.36,0
0.030839,0.0035739,0.017074,-0.00062662,0.0049341,0.00016171,0,0,0.015781,-0.0072289,0,0.00042044,0,0,0,0.017075,-0.0006281,0.0049341,0.52339,0.007127,0.01568,1.173e-07,0.68,0.36,0
0.031156,0.0036186,0.017293,-0.00092245,0.0049112,0.00012095,0,0,0.016096,-0.0075837,0,0.00031448,0,0,0,0.017294,-0.00092326,0.0049112,0.38043,0.0070939,0.016113,1.2376e-07,0.7,0.36,0
0.031483,0.0036597,0.01795,-0.001399,0.0049651,-0.00010419,0,0,0.01688,-0.0082734,0,-0.0002709,0,0,0,0.01795,-0.0013996,0.0049651,-0.30853,0.0071719,0.017081,1.4135e-07,0.72,0.36,0
0.031831,0.0036938,0.018934,-0.0022367,0.0050094,-0.00024257,0,0,0.018103,-0.0094198,0,-0.00063067,0,0,0,0.018937,-0.0022394,0.0050094,-0.65635,0.0072357,0.018641,1.7115e-07,0.74,0.36,0
0.032207,0.0037655,0.015129,0.00079715,0.0047779,-0.00056291,0,0,0.024257,-0.0088384,0,-0.0043279,0,0,0,0.015163,0.00076299,0.0047779,-3.5129,0.0069015,0.012872,1.5378e-07,0.76,0.36,0
0.032747,0.0038027,0.02258,0.0017566,0.0073009,0.0005767,0,0,0.045311,-0.012476,0,0.0088825,0,0,0,0.022665,0.0016713,0.0073009,3.123,0.010546,0.018855,3.2755e-07,0.78,0.36,0
0.034385,0.0037469,0.019037,0.0026587,0.0065089,0.00048993,0,0,0.081436,-0.025026,0,0.0063691,0,0,0,0.019052,0.0026441,0.0065089,1.7118,0.0094017,0.014857,1.308e-07,0.8,0.36,0
0.036004,0.0038069,0.01829,0.0014968,0.0059361,0.00044337,0,0,0.080302,-0.028856,0,0.0057639,0,0,0,0.018302,0.0014851,0.0059361,1.5113,0.0085744,0.015092,1.2615e-07,0.82,0.36,0
0.037597,0.0038575,0.017757,0.00072285,0.0055439,0.00034331,0,0,0.079384,-0.031337,0,0.004463,0,0,0,0.017764,0.00071594,0.0055439,1.1541,0.0080079,0.015219,1.2154e-07,0.84,0.36,0
0.03918,0.0039065,0.017427,0.00022974,0.005297,0.00029868,0,0,0.078844,-0.032937,0,0.0038828,0,0,0,0.017432,0.00022456,0.005297,0.9947,0.0076512,0.015315,1.1857e-07,0.86,0.36,0
0.040751,0.0039529,0.017168,-0.0001071,0.0051181,0.00026152,0,0,0.078321,-0.033964,0,0.0033997,0,0,0,0.017171,-0.00011106,0.0051181,0.86713,0.0073929,0.015351,1.1573e-07,0.88,0.36,0
0.042312,0.0039948,0.016953,-0.00034255,0.0049832,0.00022312,0,0,0.077804,-0.034617,0,0.0029005,0,0,0,0.016956,-0.00034543,0.0049832,0.73897,0.0071979,0.015347,1.1303e-07,0.9,0.36,0
0.043863,0.004031,0.016778,-0.00050811,0.0048811,0.00018191,0,0,0.077333,-0.03503,0,0.0023648,0,0,0,0.01678,-0.00051003,0.0048811,0.60284,0.0070505,0.015323,1.1065e-07,0.92,0.36,0
0.045406,0.0040602,0.016643,-0.00062266,0.0048062,0.00013833,0,0,0.076941,-0.035287,0,0.0017983,0,0,0,0.016644,-0.00062377,0.0048062,0.459,0.0069423,0.015294,1.0872e-07,0.94,0.36,0
0.046941,0.0040815,0.016547,-0.0006978,0.0047548,9.3076e-05,0,0,0.07665,-0.035442,0,0.00121,0,0,0,0.016548,-0.0006983,0.0047548,0.30923,0.0068681,0.015268,1.0731e-07,0.96,0.36,0
0.048472,0.0040946,0.01649,-0.00074044,0.0047248,4.6786e-05,0,0,0.076472,-0.035524,0,0.00060821,0,0,0,0.01649,-0.00074056,0.0047248,0.15557,0.0068247,0.015251,1.0646e-07,0.98,0.36,0
0.05,0.0040989,0.016471,-0.00075427,0.0047149,1.6845e-05,0,0,0.076413,-0.03555,0,0.00021899,0,0,0,0.016471,-0.00075428,0.0047149,0.056032,0.0068105,0.015245,1.0618e-07,1,0.36,0
0,0,0.013304,0.0057018,0.0057018,0.00062126,0,0,0.049416,7.5894e-19,0,0.0080765,0,0,0,0.013355,0.0056514,0.0057018,4.6411,0.008236,0.0076782,2.3246e-08,0,0.38,0
0.00098832,0.00016153,0.013249,0.0050925,0.0055024,0.000617,0,0,0.050352,-0.0026644,0,0.008021,0,0,0,0.013295,0.0050461,0.0055024,4.3016,0.0079479,0.0080307,2.6311e-08,0.02,0.38,0
0.0020141,0.00032702,0.013453,0.0046304,0.0054251,0.0006119,0,0,0.052182,-0.0051652,0,0.0079547,0,0,0,0.013495,0.0045882,0.0054251,3.9485,0.0078362,0.0085196,3.0729e-08,0.04,0.38,0
0.0030756,0.00049416,0.013654,0.0041982,0.0053557,0.0005942,0,0,0.053939,-0.0075233,0,0.0077246,0,0,0,0.013691,0.004161,0.0053557,3.5817,0.007736,0.0089925,3.5136e-08,0.06,0.38,0
0.0041716,0.00066073,0.013853,0.0037939,0.0052942,0.00056449,0,0,0.055634,-0.0097517,0,0.0073384,0,0,0,0.013885,0.0037623,0.0052942,3.2018,0.0076471,0.0094502,3.9534e-08,0.08,0.38,0
0.005301,0.0008247,0.014053,0.0034167,0.0052408,0.00052338,0,0,0.057277,-0.011857,0,0.006804,0,0,0,0.014078,0.003391,0.0052408,2.8104,0.00757,0.009893,4.3926e-08,0.1,0.38,0
0.0064627,0.00098418,0.014253,0.0030666,0.005196,0.00047161,0,0,0.058873,-0.013841,0,0.006131,0,0,0,0.014273,0.0030467,0.005196,2.4098,0.0075053,0.010321,4.8316e-08,0.12,0.38,0
0.0076559,0.0011375,0.014456,0.0027444,0.0051603,0.00041008,0,0,0.060425,-0.015703,0,0.005331,0,0,0,0.014471,0.0027301,0.0051603,2.0029,0.0074537,0.010734,5.2708e-08,0.14,0.38,0
0.0088797,0.0012832,0.014663,0.0024516,0.0051345,0.00033986,0,0,0.061937,-0.017438,0,0.0044182,0,0,0,0.014673,0.0024422,0.0051345,1.593,0.0074164,0.011131,5.7111e-08,0.16,0.38,0
0.010133,0.0014201,0.014875,0.00219,0.0051195,0.00026225,0,0,0.063411,-0.019042,0,0.0034092,0,0,0,0.01488,0.0021845,0.0051195,1.1838,0.0073949,0.011513,6.1532e-08,0.18,0.38,0
0.011416,0.0015475,0.015093,0.0019621,0.0051166,0.00017876,0,0,0.064849,-0.020505,0,0.0023239,0,0,0,0.015096,0.0019596,0.0051166,0.7798,0.0073907,0.011877,6.5982e-08,0.2,0.38,0
0.012727,0.001665,0.015319,0.0017713,0.0051272,9.1309e-05,0,0,0.066249,-0.021813,0,0.001187,0,0,0,0.01532,0.0017707,0.0051272,0.38613,0.007406,0.012222,7.0465e-08,0.22,0.38,0
0.014066,0.0017727,0.015555,0.0016225,0.0051531,2.411e-06,0,0,0.067609,-0.022949,0,3.1343e-05,0,0,0,0.015555,0.0016225,0.0051531,0.0099151,0.0074434,0.012545,7.4975e-08,0.24,0.38,0
0.015432,0.0018715,0.015799,0.0015223,0.0051963,-8.4286e-05,0,0,0.068916,-0.023881,0,-0.0010957,0,0,0,0.015799,0.0015218,0.0051963,-0.33825,0.0075058,0.012841,7.9471e-08,0.26,0.38,0
0.016823,0.0019631,0.016051,0.0014805,0.0052595,-0.00016313,0,0,0.070146,-0.024563,0,-0.0021206,0,0,0,0.016053,0.0014787,0.0052595,-0.64135,0.0075971,0.0131,8.3852e-08,0.28,0.38,0
0.018238,0.0020506,0.016307,0.0015116,0.0053455,-0.00022495,0,0,0.071248,-0.02492,0,-0.0029243,0,0,0,0.01631,0.0015082,0.0053455,-0.87086,0.0077213,0.013305,8.7905e-08,0.3,0.38,0
0.019673,0.0021389,0.016555,0.0016367,0.0054575,-0.00025506,0,0,0.072134,-0.024835,0,-0.0033157,0,0,0,0.016559,0.0016323,0.0054575,-0.9792,0.0078831,0.013429,9.1208e-08,0.32,0.38,0
0.021123,0.0022352,0.016773,0.0018868,0.0055981,-0.00023153,0,0,0.07264,-0.024123,0,-0.00301,0,0,0,0.016777,0.0018832,0.0055981,-0.89085,0.0080861,0.013428,9.2998e-08,0.34,0.38,0
0.022578,0.0023496,0.016914,0.0023038,0.0057652,-0.00013172,0,0,0.072464,-0.022499,0,-0.0017123,0,0,0,0.016915,0.0023026,0.0057652,-0.51651,0.0083275,0.013225,9.1917e-08,0.36,0.38,0
0.024022,0.0024909,0.016922,0.0029678,0.0059671,3.7657e-05,0,0,0.07121,-0.019495,0,0.00048954,0,0,0,0.016923,0.0029677,0.0059671,0.15462,0.0086191,0.012723,8.6287e-08,0.38,0.38,0
0.025427,0.0026542,0.01683,0.0039613,0.0062374,0.00019131,0,0,0.068852,-0.014794,0,0.002487,0,0,0,0.016833,0.0039585,0.0062374,0.85153,0.0090096,0.0119,7.5954e-08,0.4,0.38,0
0.026776,0.0028127,0.016499,0.00077373,0.0051817,0.00017875,0,0,0.041688,-0.0095507,0,0.0019206,0,0,0,0.016502,0.00077027,0.0051817,0.78992,0.0074848,0.014175,8.8078e-08,0.42,0.38,0
0.027094,0.0029025,0.016597,-0.0013971,0.00456,-3.9254e-05,0,0,0.015648,-0.0077443,0,-0.00010206,0,0,0,0.016597,-0.0013972,0.00456,-0.12499,0.0065867,0.015877,1.1231e-07,0.44,0.38,0
0.027401,0.0029721,0.016586,-0.0004663,0.0048358,-0.00039732,0,0,0.015275,-0.0068927,0,-0.001033,0,0,0,0.016595,-0.00047556,0.0048358,-1.3341,0.006985,0.015131,1.0684e-07,0.46,0.38,0
0.027705,0.0030231,0.016662,-0.00024856,0.004924,-0.0005163,0,0,0.015259,-0.0067243,0,-0.0013424,0,0,0,0.016678,-0.00026431,0.004924,-1.7472,0.0071125,0.015035,1.0707e-07,0.48,0.38,0
0.028012,0.003065,0.016845,-0.00010397,0.0050223,-0.00045888,0,0,0.015369,-0.0066641,0,-0.0011931,0,0,0,0.016857,-0.00011639,0.0050223,-1.5497,0.0072544,0.015076,1.0955e-07,0.5,0.38,0
0.02832,0.0031052,0.016948,9.2634e-06,0.0050871,-0.00032908,0,0,0.015419,-0.0066012,0,-0.00085561,0,0,0,0.016954,2.8724e-06,0.0050871,-1.1126,0.007348,0.015067,1.1061e-07,0.52,0.38,0
0.028629,0.003146,0.016996,0.00012795,0.0051372,-0.00021501,0,0,0.015416,-0.006512,0,-0.00055902,0,0,0,0.016999,0.00012521,0.0051372,-0.73015,0.0074204,0.015009,1.1062e-07,0.54,0.38,0
0.028937,0.0031873,0.01701,0.00021543,0.0051677,-0.00013903,0,0,0.015395,-0.006438,0,-0.00036147,0,0,0,0.017011,0.00021428,0.0051677,-0.47425,0.0074645,0.014949,1.1023e-07,0.56,0.38,0
0.029244,0.0032284,0.01702,0.00023657,0.005177,-9.7055e-05,0,0,0.015396,-0.0064226,0,-0.00025234,0,0,0,0.017021,0.00023601,0.005177,-0.33131,0.0074779,0.01494,1.1025e-07,0.58,0.38,0
0.029552,0.0032687,0.017042,0.00016714,0.0051626,-6.9192e-05,0,0,0.015443,-0.0064941,0,-0.0001799,0,0,0,0.017042,0.00016686,0.0051626,-0.23493,0.0074571,0.015014,1.1116e-07,0.6,0.38,0
0.029862,0.0033082,0.017077,6.9662e-06,0.0051251,-3.3095e-05,0,0,0.015537,-0.0066535,0,-8.6046e-05,0,0,0,0.017077,6.9021e-06,0.0051251,-0.11109,0.0074029,0.015173,1.13e-07,0.62,0.38,0
0.030174,0.0033477,0.017113,-0.00021957,0.005068,2.8306e-05,0,0,0.015658,-0.0068739,0,7.3595e-05,0,0,0,0.017113,-0.00021961,0.005068,0.093569,0.0073205,0.015386,1.1532e-07,0.64,0.38,0
0.030488,0.0033878,0.017122,-0.00047515,0.0049941,0.00011202,0,0,0.015766,-0.00711,0,0.00029124,0,0,0,0.017123,-0.00047586,0.0049941,0.3647,0.0072137,0.0156,1.1727e-07,0.66,0.38,0
0.030805,0.0034288,0.017071,-0.00071997,0.0049054,0.00018038,0,0,0.015816,-0.007313,0,0.00046899,0,0,0,0.017073,-0.0007218,0.0049054,0.58082,0.0070856,0.015754,1.1787e-07,0.68,0.38,0
0.031121,0.0034682,0.016875,-0.00098618,0.0047667,0.00012162,0,0,0.015741,-0.0074787,0,0.00031621,0,0,0,0.016876,-0.00098701,0.0047667,0.39011,0.0068852,0.015793,1.1553e-07,0.7,0.38,0
0.031434,0.0034993,0.016402,-0.0013733,0.0045086,-0.00017248,0,0,0.015461,-0.0076465,0,-0.00044844,0,0,0,0.016404,-0.001375,0.0045086,-0.55588,0.0065124,0.015687,1.0839e-07,0.72,0.38,0
0.031739,0.0035195,0.015233,-0.0024097,0.0038471,-0.00034203,0,0,0.014802,-0.0081337,0,-0.00088929,0,0,0,0.01524,-0.0024163,0.0038471,-1.1102,0.0055569,0.015504,9.1526e-08,0.74,0.38,0
0.032026,0.0035823,0.01498,-0.00057244,0.0043224,-0.00043142,0,0,0.040592,-0.010605,0,-0.003865,0,0,0,0.014995,-0.00058703,0.0043224,-1.7655,0.0062434,0.013959,6.423e-08,0.76,0.38,0
0.033363,0.0035254,0.01588,0.0031364,0.005705,0.0007485,0,0,0.06614,-0.016696,0,0.0097305,0,0,0,0.015924,0.0030926,0.005705,3.3499,0.0082406,0.011745,6.954e-08,0.78,0.38,0
0.034672,0.0032908,0.016242,0.0021492,0.0055173,0.00043652,0,0,0.06971,-0.021893,0,0.0056748,0,0,0,0.016255,0.0021357,0.0055173,1.7725,0.0079695,0.012769,8.2188e-08,0.8,0.38,0
0.036152,0.0032406,0.017176,0.001275,0.0055354,0.00061476,0,0,0.075666,-0.027692,0,0.0079919,0,0,0,0.0172,0.0012513,0.0055354,2.2107,0.0079956,0.014297,1.0589e-07,0.82,0.38,0
0.037699,0.0032354,0.017365,0.00070006,0.0054196,0.00058775,0,0,0.077647,-0.030677,0,0.0076408,0,0,0,0.017386,0.00067936,0.0054196,2.0174,0.0078283,0.014913,1.1411e-07,0.84,0.38,0
0.039258,0.0032507,0.017224,0.00025606,0.0052441,0.00053938,0,0,0.07787,-0.032422,0,0.0070119,0,0,0,0.017241,0.00023894,0.0052441,1.8189,0.0075747,0.015134,1.1459e-07,0.86,0.38,0
0.040813,0.0032761,0.01703,-6.0876e-05,0.0050906,0.00047809,0,0,0.077603,-0.033485,0,0.0062152,0,0,0,0.017043,-7.424e-05,0.0050906,1.6011,0.0073531,0.015207,1.129e-07,0.88,0.38,0
0.042362,0.003305,0.016843,-0.00028733,0.0049668,0.00040682,0,0,0.077198,-0.034152,0,0.0052886,0,0,0,0.016853,-0.00029698,0.0049668,1.3596,0.0071743,0.015217,1.1068e-07,0.9,0.38,0
0.043901,0.0033329,0.016685,-0.0004483,0.0048711,0.00032933,0,0,0.076792,-0.034576,0,0.0042813,0,0,0,0.016692,-0.00045463,0.0048711,1.1008,0.007036,0.0152,1.0857e-07,0.92,0.38,0
0.045433,0.0033569,0.016561,-0.00056045,0.0048001,0.00024853,0,0,0.076444,-0.034843,0,0.0032309,0,0,0,0.016564,-0.00056406,0.0048001,0.83147,0.0069334,0.015175,1.0681e-07,0.94,0.38,0
0.046959,0.0033752,0.016472,-0.00063435,0.0047512,0.00016618,0,0,0.076183,-0.035006,0,0.0021603,0,0,0,0.016473,-0.00063596,0.0047512,0.55653,0.0068629,0.015152,1.0552e-07,0.96,0.38,0
0.048481,0.0033866,0.016418,-0.00067641,0.0047226,8.319e-05,0,0,0.076023,-0.035094,0,0.0010815,0,0,0,0.016419,-0.00067681,0.0047226,0.27881,0.0068216,0.015136,1.0473e-07,0.98,0.38,0
0.05,0.0033904,0.016401,-0.00069006,0.0047132,1.4867e-05,0,0,0.075969,-0.035121,0,0.00019326,0,0,0,0.016401,-0.00069008,0.0047132,0.049839,0.006808,0.015131,1.0447e-07,1,0.38,0
0,0,0.013251,0.0056791,0.0056791,0.00041912,0,0,0.049219,-1.1926e-18,0,0.0054485,0,0,0,0.013274,0.005656,0.0056791,3.1584,0.0082032,0.0076069,2.2606e-08,0,0.4,0
0.00098438,0.00010897,0.013197,0.0050885,0.0054858,0.00041472,0,0,0.050126,-0.0025825,0,0.0053913,0,0,0,0.013219,0.0050673,0.0054858,2.9201,0.0079239,0.0079503,2.5568e-08,0.02,0.4,0
0.002005,0.00022515,0.013395,0.0046404,0.0054107,0.000414,0,0,0.051899,-0.0050068,0,0.005382,0,0,0,0.013415,0.0046209,0.0054107,2.7014,0.0078154,0.0084268,2.9824e-08,0.04,0.4,0
0.0030603,0.00034579,0.013589,0.0042213,0.0053432,0.00039859,0,0,0.0536,-0.0072922,0,0.0051817,0,0,0,0.013606,0.0042044,0.0053432,2.432,0.007718,0.0088874,3.4066e-08,0.06,0.4,0
0.004149,0.00046845,0.013782,0.0038294,0.0052833,0.00036963,0,0,0.05524,-0.0094508,0,0.0048052,0,0,0,0.013796,0.0038157,0.0052833,2.124,0.0076315,0.0093329,3.8294e-08,0.08,0.4,0
0.0052699,0.00059094,0.013974,0.0034637,0.0052312,0.00032805,0,0,0.056826,-0.011489,0,0.0042647,0,0,0,0.013984,0.0034535,0.0052312,1.7861,0.0075562,0.0097638,4.2512e-08,0.1,0.4,0
0.0064221,0.00071132,0.014167,0.0031244,0.0051873,0.00027475,0,0,0.058365,-0.013409,0,0.0035718,0,0,0,0.014173,0.0031175,0.0051873,1.4245,0.0074927,0.01018,4.6723e-08,0.12,0.4,0
0.0076045,0.00082795,0.014361,0.002812,0.0051519,0.00021064,0,0,0.05986,-0.01521,0,0.0027383,0,0,0,0.014365,0.0028082,0.0051519,1.0445,0.0074417,0.010581,5.0929e-08,0.14,0.4,0
0.0088165,0.00093944,0.014559,0.0025278,0.0051259,0.00013669,0,0,0.061312,-0.016887,0,0.001777,0,0,0,0.01456,0.0025263,0.0051259,0.65086,0.0074041,0.010967,5.5137e-08,0.16,0.4,0
0.010057,0.0010448,0.01476,0.0022736,0.0051101,5.404e-05,0,0,0.062725,-0.018437,0,0.00070252,0,0,0,0.01476,0.0022733,0.0051101,0.24796,0.0073812,0.011338,5.9353e-08,0.18,0.4,0
0.011325,0.0011433,0.014967,0.0020515,0.0051055,-3.5922e-05,0,0,0.064099,-0.019851,0,-0.00046699,0,0,0,0.014967,0.0020514,0.0051055,-0.15936,0.0073746,0.011692,6.3587e-08,0.2,0.4,0
0.012621,0.0012349,0.015181,0.0018646,0.0051135,-0.00013137,0,0,0.065436,-0.021118,0,-0.0017078,0,0,0,0.015182,0.0018633,0.0051135,-0.56517,0.0073862,0.012027,6.7846e-08,0.22,0.4,0
0.013943,0.0013201,0.015403,0.0017169,0.0051359,-0.00022966,0,0,0.066735,-0.022224,0,-0.0029856,0,0,0,0.015407,0.001713,0.0051359,-0.96112,0.0074186,0.012344,7.2134e-08,0.24,0.4,0
0.01529,0.0014002,0.015636,0.0016138,0.0051748,-0.00032677,0,0,0.067995,-0.023147,0,-0.004248,0,0,0,0.015643,0.0016061,0.0051748,-1.3343,0.0074747,0.012636,7.6443e-08,0.26,0.4,0
0.016663,0.0014778,0.015881,0.0015627,0.005233,-0.00041612,0,0,0.06921,-0.023857,0,-0.0054095,0,0,0,0.015893,0.0015506,0.005233,-1.6633,0.0075588,0.012901,8.0746e-08,0.28,0.4,0
0.018059,0.0015571,0.01614,0.0015741,0.0053144,-0.00048683,0,0,0.07037,-0.024312,0,-0.0063288,0,0,0,0.016157,0.0015578,0.0053144,-1.9121,0.0076763,0.01313,8.4975e-08,0.3,0.4,0
0.019477,0.0016448,0.016418,0.0016627,0.0054241,-0.00052076,0,0,0.071459,-0.024449,0,-0.0067699,0,0,0,0.016436,0.0016443,0.0054241,-2.0188,0.0078349,0.013311,8.9001e-08,0.32,0.4,0
0.020917,0.0017513,0.016712,0.0018494,0.0055684,-0.00048874,0,0,0.072433,-0.024173,0,-0.0063536,0,0,0,0.016728,0.0018334,0.0055684,-1.8814,0.0080432,0.013423,9.2543e-08,0.34,0.4,0
0.022375,0.0018916,0.017006,0.002167,0.0057518,-0.00034462,0,0,0.07315,-0.023301,0,-0.0044801,0,0,0,0.017014,0.0021591,0.0057518,-1.3297,0.0083082,0.013424,9.4885e-08,0.36,0.4,0
0.023843,0.0020867,0.017172,0.0026545,0.005948,-4.8185e-05,0,0,0.072957,-0.021408,0,-0.00062641,0,0,0,0.017172,0.0026543,0.005948,-0.19017,0.0085916,0.013184,9.3382e-08,0.38,0.4,0
0.025293,0.0023475,0.017104,0.0035841,0.0062065,0.00032416,0,0,0.070835,-0.017046,0,0.004214,0,0,0,0.017112,0.0035764,0.0062065,1.3727,0.008965,0.012431,8.3966e-08,0.4,0.4,0
0.026676,0.0026205,0.016926,0.00084756,0.005332,0.00051929,0,0,0.042742,-0.0097164,0,0.0046254,0,0,0,0.016946,0.00082709,0.005332,2.066,0.0077018,0.014526,9.5291e-08,0.42,0.4,0
0.027003,0.002751,0.017223,-0.00040156,0.0050463,-0.00012592,0,0,0.015829,-0.0070822,0,-0.0003274,0,0,0,0.017223,-0.00040245,0.0050463,-0.40934,0.0072891,0.015631,1.1882e-07,0.44,0.4,0
0.02731,0.0028358,0.016919,-0.00044414,0.0049426,-0.00056376,0,0,0.01557,-0.0070027,0,-0.0014658,0,0,0,0.016938,-0.00046242,0.0049426,-1.8577,0.0071393,0.015425,1.1345e-07,0.46,0.4,0
0.027626,0.0028864,0.017261,-0.00032336,0.0050813,-0.00068227,0,0,0.015834,-0.007026,0,-0.0017739,0,0,0,0.017287,-0.0003498,0.0050813,-2.2186,0.0073396,0.015645,1.1978e-07,0.48,0.4,0
0.027943,0.002929,0.01732,-0.00028757,0.0051096,-0.00051333,0,0,0.015873,-0.0070163,0,-0.0013346,0,0,0,0.017334,-0.00030252,0.0051096,-1.6685,0.0073805,0.015649,1.2042e-07,0.5,0.4,0
0.02826,0.0029708,0.017316,-0.00013593,0.0051539,-0.00032466,0,0,0.01581,-0.0068768,0,-0.00084411,0,0,0,0.017322,-0.00014197,0.0051539,-1.0654,0.0074446,0.015509,1.1901e-07,0.52,0.4,0
0.028576,0.0030141,0.017257,3.7958e-05,0.0051883,-0.00018001,0,0,0.015689,-0.0066955,0,-0.00046804,0,0,0,0.017258,3.6076e-05,0.0051883,-0.59892,0.0074943,0.015311,1.1643e-07,0.54,0.4,0
0.028888,0.0030575,0.017202,0.00018368,0.0052156,-0.00010972,0,0,0.015582,-0.0065416,0,-0.00028526,0,0,0,0.017202,0.00018297,0.0052156,-0.36936,0.0075337,0.015144,1.1423e-07,0.56,0.4,0
0.029199,0.0030993,0.017171,0.00023573,0.0052219,-9.4118e-05,0,0,0.015533,-0.006482,0,-0.00024471,0,0,0,0.017171,0.00023521,0.0052219,-0.31842,0.0075427,0.015074,1.1322e-07,0.58,0.4,0
0.029509,0.0031382,0.017179,0.00016854,0.0052043,-0.00010101,0,0,0.015567,-0.0065466,0,-0.00026263,0,0,0,0.01718,0.00016794,0.0052043,-0.34021,0.0075174,0.015136,1.1389e-07,0.6,0.4,0
0.029821,0.0031743,0.017227,-1.7897e-05,0.0051626,-9.2935e-05,0,0,0.015683,-0.0067347,0,-0.00024163,0,0,0,0.017227,-1.8398e-05,0.0051626,-0.30877,0.0074571,0.015326,1.1619e-07,0.62,0.4,0
0.030137,0.0032089,0.017292,-0.00029671,0.0050985,-3.8307e-05,0,0,0.015851,-0.0070137,0,-9.9599e-05,0,0,0,0.017292,-0.00029679,0.0050985,-0.12479,0.0073645,0.015607,1.1949e-07,0.64,0.4,0
0.030455,0.003244,0.017342,-0.00059942,0.0050227,8.0998e-05,0,0,0.016015,-0.0073088,0,0.0002106,0,0,0,0.017342,-0.00059979,0.0050227,0.25866,0.0072551,0.015895,1.2264e-07,0.66,0.4,0
0.030777,0.0032813,0.017287,-0.0008672,0.004926,0.00023654,0,0,0.01607,-0.0075312,0,0.000615,0,0,0,0.01729,-0.00087028,0.004926,0.74635,0.0071154,0.016067,1.2334e-07,0.68,0.4,0
0.031098,0.0033195,0.017046,-0.0010034,0.0048127,0.00037967,0,0,0.015903,-0.007561,0,0.00098714,0,0,0,0.017054,-0.0010114,0.0048127,1.2045,0.0069517,0.01597,1.1931e-07,0.7,0.4,0
0.031413,0.0033539,0.016387,-0.0011557,0.0045694,0.00034938,0,0,0.015363,-0.0074426,0,0.0009084,0,0,0,0.016394,-0.0011627,0.0045694,1.1405,0.0066002,0.015507,1.0706e-07,0.72,0.4,0
0.031713,0.0033685,0.01696,-0.001001,0.0047878,0.00012279,0,0,0.015824,-0.0075254,0,0.00031925,0,0,0,0.016961,-0.0010019,0.0047878,0.39167,0.0069156,0.01588,1.1734e-07,0.74,0.4,0
0.032046,0.0033413,0.01638,-0.00086672,0.0046541,-0.00034285,0,0,0.042867,-0.011962,0,-0.0044725,0,0,0,0.016399,-0.00088569,0.0046541,-1.5726,0.0067226,0.01544,8.8433e-08,0.76,0.4,0
0.033427,0.0031348,0.016744,0.0025185,0.0057786,-0.00045323,0,0,0.071272,-0.021191,0,-0.0058919,0,0,0,0.016758,0.002504,0.0057786,-1.823,0.0083469,0.012932,8.7514e-08,0.78,0.4,0
0.034897,0.0028712,0.017144,0.0021581,0.0057906,8.7582e-05,0,0,0.073796,-0.023611,0,0.0011386,0,0,0,0.017144,0.0021576,0.0057906,0.33484,0.0083642,0.013541,9.7243e-08,0.8,0.4,0
0.036379,0.0026992,0.017009,0.0012796,0.0054865,0.00053205,0,0,0.074895,-0.027345,0,0.0069167,0,0,0,0.017027,0.0012616,0.0054865,1.9351,0.007925,0.014135,1.0254e-07,0.82,0.4,0
0.037893,0.0026304,0.017005,0.00070325,0.0053124,0.00071984,0,0,0.076,-0.029959,0,0.0093579,0,0,0,0.017036,0.00067152,0.0053124,2.5235,0.0076734,0.014608,1.0732e-07,0.84,0.4,0
0.039419,0.0026097,0.016903,0.00030495,0.0051624,0.00072474,0,0,0.076315,-0.031574,0,0.0094216,0,0,0,0.016935,0.00027337,0.0051624,2.4954,0.0074569,0.014834,1.0831e-07,0.86,0.4,0
0.040946,0.0026135,0.016752,1.316e-05,0.0050296,0.00066072,0,0,0.076197,-0.032607,0,0.0085893,0,0,0,0.016778,-1.2879e-05,0.0050296,2.2569,0.007265,0.014923,1.0731e-07,0.88,0.4,0
0.042467,0.0026288,0.016602,-0.00020006,0.0049206,0.00056655,0,0,0.075929,-0.033284,0,0.0073652,0,0,0,0.016621,-0.00021914,0.0049206,1.9291,0.0071075,0.014948,1.0569e-07,0.9,0.4,0
0.043983,0.0026479,0.016471,-0.00035476,0.0048349,0.00045915,0,0,0.075636,-0.033733,0,0.005969,0,0,0,0.016484,-0.00036728,0.0048349,1.562,0.0069838,0.014945,1.0405e-07,0.92,0.4,0
0.045493,0.0026664,0.016367,-0.00046421,0.0047709,0.00034618,0,0,0.075376,-0.034028,0,0.0045003,0,0,0,0.016374,-0.00047133,0.0047709,1.1778,0.0068913,0.014932,1.0265e-07,0.94,0.4,0
0.046998,0.0026813,0.016292,-0.0005371,0.0047266,0.00023117,0,0,0.075178,-0.034214,0,0.0030052,0,0,0,0.016296,-0.00054028,0.0047266,0.78681,0.0068273,0.014917,1.0161e-07,0.96,0.4,0
0.0485,0.0026908,0.016247,-0.00057887,0.0047006,0.00011561,0,0,0.075054,-0.034316,0,0.001503,0,0,0,0.016248,-0.00057967,0.0047006,0.39366,0.0067897,0.014906,1.0097e-07,0.98,0.4,0
0.05,0.0026941,0.016232,-0.00059248,0.004692,1.2605e-05,0,0,0.075013,-0.034349,0,0.00016386,0,0,0,0.016232,-0.00059249,0.004692,0.042925,0.0067773,0.014903,1.0075e-07,1,0.4,0
0,0,0.013177,0.0056471,0.0056471,0.00022397,0,0,0.048941,5.421e-19,0,0.0029116,0,0,0,0.013183,0.0056404,0.0056471,1.7023,0.0081569,0.0075394,2.2011e-08,0,0.42,0
0.00097883,5.8231e-05,0.013125,0.005079,0.0054611,0.00021956,0,0,0.049813,-0.0024836,0,0.0028542,0,0,0,0.013131,0.005073,0.0054611,1.562,0.0078883,0.0078708,2.4837e-08,0.02,0.42,0
0.0019925,0.00012675,0.013314,0.0046472,0.0053885,0.00022326,0,0,0.051519,-0.0048187,0,0.0029024,0,0,0,0.01332,0.0046414,0.0053885,1.4746,0.0077834,0.0083305,2.8888e-08,0.04,0.42,0
0.0030396,0.00020247,0.013501,0.0042428,0.005323,0.00021044,0,0,0.053154,-0.0070214,0,0.0027358,0,0,0,0.013505,0.004238,0.005323,1.3015,0.0076888,0.0087753,3.2924e-08,0.06,0.42,0
0.0041187,0.0002827,0.013684,0.0038643,0.0052646,0.00018273,0,0,0.054728,-0.0091015,0,0.0023755,0,0,0,0.013688,0.003861,0.0052646,1.0657,0.0076044,0.0092055,3.6944e-08,0.08,0.42,0
0.0052287,0.00036514,0.013867,0.0035112,0.0052134,0.00014137,0,0,0.056247,-0.011064,0,0.0018378,0,0,0,0.013869,0.0035093,0.0052134,0.78199,0.0075305,0.0096213,4.0947e-08,0.1,0.42,0
0.0063686,0.00044783,0.014049,0.0031835,0.0051698,8.7413e-05,0,0,0.057716,-0.012911,0,0.0011364,0,0,0,0.01405,0.0031828,0.0051698,0.4609,0.0074674,0.010022,4.4931e-08,0.12,0.42,0
0.0075373,0.0005291,0.014232,0.0028818,0.0051341,2.1789e-05,0,0,0.059135,-0.01464,0,0.00028326,0,0,0,0.014232,0.0028818,0.0051341,0.10999,0.0074159,0.010408,4.8895e-08,0.14,0.42,0
0.008734,0.00060768,0.014416,0.0026074,0.005107,-5.4584e-05,0,0,0.060508,-0.016248,0,-0.00070959,0,0,0,0.014416,0.0026071,0.005107,-0.26484,0.0073767,0.010779,5.284e-08,0.16,0.42,0
0.0099577,0.00068262,0.014602,0.0023616,0.0050891,-0.00014072,0,0,0.061834,-0.017729,0,-0.0018293,0,0,0,0.014604,0.00236,0.0050891,-0.65857,0.0073509,0.011133,5.6768e-08,0.18,0.42,0
0.011207,0.00075346,0.014791,0.0021468,0.0050815,-0.00023542,0,0,0.063115,-0.019075,0,-0.0030605,0,0,0,0.014796,0.0021424,0.0050815,-1.0663,0.0073399,0.01147,6.0682e-08,0.2,0.42,0
0.012482,0.00082025,0.014985,0.0019652,0.0050852,-0.00033712,0,0,0.064351,-0.02028,0,-0.0043825,0,0,0,0.014994,0.0019565,0.0050852,-1.4822,0.0073453,0.011789,6.4591e-08,0.22,0.42,0
0.013781,0.00088375,0.015186,0.0018201,0.0051018,-0.00044351,0,0,0.065546,-0.021331,0,-0.0057656,0,0,0,0.0152,0.0018054,0.0051018,-1.8984,0.0073692,0.012089,6.8501e-08,0.24,0.42,0
0.015104,0.00094563,0.015395,0.0017155,0.0051332,-0.00055105,0,0,0.066703,-0.022215,0,-0.0071636,0,0,0,0.015417,0.0016933,0.0051332,-2.303,0.0074146,0.012368,7.2426e-08,0.26,0.42,0
0.016449,0.0010088,0.015618,0.0016562,0.0051822,-0.0006541,0,0,0.067832,-0.022919,0,-0.0085033,0,0,0,0.015648,0.0016256,0.0051822,-2.6764,0.0074855,0.012626,7.639e-08,0.28,0.42,0
0.017817,0.0010781,0.015862,0.0016486,0.005253,-0.00074353,0,0,0.068955,-0.023429,0,-0.0096659,0,0,0,0.0159,0.0016099,0.005253,-2.9865,0.0075877,0.012862,8.0439e-08,0.3,0.42,0
0.019208,0.0011609,0.016139,0.0017013,0.0053521,-0.00080454,0,0,0.070115,-0.02373,0,-0.010459,0,0,0,0.016184,0.0016566,0.0053521,-3.1797,0.0077308,0.013077,8.4684e-08,0.32,0.42,0
0.020622,0.0012683,0.016475,0.0018265,0.0054906,-0.00081208,0,0,0.071401,-0.023816,0,-0.010557,0,0,0,0.01652,0.0017817,0.0054906,-3.1634,0.0079308,0.013278,8.9365e-08,0.34,0.42,0
0.022064,0.0014176,0.016913,0.0020478,0.0056883,-0.00072414,0,0,0.072962,-0.023664,0,-0.0094138,0,0,0,0.016948,0.0020126,0.0056883,-2.7823,0.0082165,0.013479,9.496e-08,0.36,0.42,0
0.02354,0.0016346,0.017507,0.002419,0.0059779,-0.00043883,0,0,0.074941,-0.023133,0,-0.0057048,0,0,0,0.01752,0.0024062,0.0059779,-1.6645,0.0086347,0.013682,1.0195e-07,0.38,0.42,0
0.025061,0.0019723,0.01783,0.0029309,0.0062284,9.1992e-05,0,0,0.075414,-0.021434,0,0.0011959,0,0,0,0.017831,0.0029303,0.0062284,0.35373,0.0089966,0.013556,1.0286e-07,0.4,0.42,0
0.026557,0.0024241,0.016464,-0.00055822,0.0047719,-0.00022507,0,0,0.045112,-0.011548,0,0.0033007,0,0,0,0.01652,-0.00061359,0.0047719,-0.039669,0.0068927,0.015359,8.4987e-08,0.42,0.42,0
0.026866,0.0026192,0.017901,7.1257e-05,0.0053916,0.00041563,0,0,0.016262,-0.0069164,0,0.0010806,0,0,0,0.01791,6.1574e-05,0.0053916,1.3347,0.0077879,0.01587,1.2994e-07,0.44,0.42,0
0.027207,0.0026919,0.018544,-8.2709e-06,0.0055608,-0.00066618,0,0,0.016879,-0.0072398,0,-0.0017321,0,0,0,0.018568,-3.2161e-05,0.0055608,-2.0538,0.0080323,0.016529,1.456e-07,0.46,0.42,0
0.027541,0.0027421,0.018101,-0.00049212,0.0052825,-0.00057881,0,0,0.016664,-0.0075071,0,-0.0015049,0,0,0,0.018119,-0.00051013,0.0052825,-1.7814,0.0076303,0.016513,1.3899e-07,0.48,0.42,0
0.027874,0.0027844,0.017939,-0.00045746,0.0052445,-0.00041258,0,0,0.016503,-0.0074125,0,-0.0010727,0,0,0,0.017948,-0.00046671,0.0052445,-1.2841,0.0075754,0.016327,1.3482e-07,0.5,0.42,0
0.028201,0.0028302,0.017699,-0.00031113,0.0052164,-0.00019045,0,0,0.016227,-0.0071858,0,-0.00049517,0,0,0,0.017701,-0.00031315,0.0052164,-0.60579,0.0075348,0.015984,1.2825e-07,0.52,0.42,0
0.028523,0.0028782,0.017539,-2.943e-05,0.0052529,-6.7089e-05,0,0,0.015972,-0.006867,0,-0.00017443,0,0,0,0.017539,-2.9687e-05,0.0052529,-0.21879,0.0075875,0.015613,1.2271e-07,0.54,0.42,0
0.02884,0.0029257,0.017409,0.00018564,0.0052783,-3.5498e-05,0,0,0.01577,-0.0066205,0,-9.2295e-05,0,0,0,0.017409,0.00018557,0.0052783,-0.11809,0.0076242,0.015325,1.1839e-07,0.56,0.42,0
0.029154,0.0029691,0.017342,0.00027577,0.0052852,-7.1235e-05,0,0,0.015673,-0.0065123,0,-0.00018521,0,0,0,0.017342,0.00027547,0.0052852,-0.23915,0.0076342,0.015194,1.1635e-07,0.58,0.42,0
0.029467,0.0030069,0.017338,0.00021148,0.0052648,-0.0001296,0,0,0.015695,-0.0065693,0,-0.00033697,0,0,0,0.017339,0.0002105,0.0052648,-0.43355,0.0076047,0.015243,1.1677e-07,0.6,0.42,0
0.029782,0.0030389,0.017395,-7.4695e-06,0.0052163,-0.00017053,0,0,0.015833,-0.0067909,0,-0.00044337,0,0,0,0.017397,-9.1403e-06,0.0052163,-0.56137,0.0075347,0.01547,1.1959e-07,0.62,0.42,0
0.0301,0.0030671,0.017506,-0.00035178,0.0051464,-0.00014688,0,0,0.016068,-0.0071476,0,-0.00038189,0,0,0,0.017508,-0.00035299,0.0051464,-0.47121,0.0074337,0.015844,1.244e-07,0.64,0.42,0
0.030424,0.0030955,0.017628,-0.00075798,0.0050611,-2.7359e-05,0,0,0.016337,-0.0075647,0,-7.1134e-05,0,0,0,0.017628,-0.00075802,0.0050611,-0.085258,0.0073104,0.016276,1.2984e-07,0.66,0.42,0
0.030754,0.0031275,0.017792,-0.001021,0.0050314,0.00020666,0,0,0.016589,-0.0078681,0,0.00053732,0,0,0,0.017795,-0.0010232,0.0050314,0.62928,0.0072676,0.016638,1.3532e-07,0.68,0.42,0
0.031088,0.0031657,0.017857,-0.0011445,0.0050137,0.00043654,0,0,0.016696,-0.0080057,0,0.001135,0,0,0,0.017867,-0.0011545,0.0050137,1.3154,0.0072421,0.016809,1.3784e-07,0.7,0.42,0
0.031422,0.0032016,0.018267,-0.0007676,0.00525,0.00064377,0,0,0.016923,-0.0078228,0,0.0016738,0,0,0,0.018289,-0.00078934,0.00525,1.9348,0.0075833,0.016889,1.4502e-07,0.72,0.42,0
0.031765,0.0032185,0.017662,-0.0010647,0.0049792,-0.00035558,0,0,0.016488,-0.007857,0,-0.0009245,0,0,0,0.017669,-0.0010714,0.0049792,-1.0874,0.0071921,0.016565,1.3284e-07,0.74,0.42,0
0.032081,0.0031038,0.016181,-0.0019572,0.004267,0.00014363,0,0,0.045817,-0.013486,0,-0.0045682,0,0,0,0.016247,-0.0020238,0.004267,-0.402,0.0061635,0.016294,7.7014e-08,0.76,0.42,0
0.033598,0.0026777,0.017718,0.0019576,0.0059027,-0.00026121,0,0,0.0768,-0.025643,0,-0.0033957,0,0,0,0.017722,0.0019533,0.0059027,-0.94927,0.0085261,0.014212,1.0995e-07,0.78,0.42,0
0.035153,0.0023464,0.017543,0.0015568,0.0057301,0.00029298,0,0,0.076787,-0.027126,0,0.0038088,0,0,0,0.017549,0.0015515,0.0057301,1.0496,0.0082768,0.014371,1.1011e-07,0.8,0.42,0
0.036669,0.0021468,0.017028,0.0011521,0.0054542,0.00070196,0,0,0.075233,-0.027963,0,0.0091255,0,0,0,0.017059,0.0011212,0.0054542,2.5267,0.0078783,0.014274,1.0427e-07,0.82,0.42,0
0.038162,0.002037,0.016689,0.00070694,0.0052187,0.00086587,0,0,0.074555,-0.029326,0,0.011256,0,0,0,0.016736,0.00066017,0.0052187,3.0922,0.0075381,0.01435,1.0173e-07,0.84,0.42,0
0.039651,0.0019877,0.016506,0.00036794,0.0050623,0.00087865,0,0,0.074387,-0.030513,0,0.011423,0,0,0,0.016554,0.00032024,0.0050623,3.1072,0.0073122,0.014458,1.0081e-07,0.86,0.42,0
0.041138,0.0019718,0.016368,0.00010979,0.0049435,0.00080536,0,0,0.074262,-0.031419,0,0.01047,0,0,0,0.016408,6.9999e-05,0.0049435,2.8289,0.0071405,0.014528,9.9822e-08,0.88,0.42,0
0.042622,0.0019736,0.016251,-8.6437e-05,0.0048495,0.00069261,0,0,0.074113,-0.032084,0,0.0090039,0,0,0,0.016281,-0.00011575,0.0048495,2.4231,0.0070048,0.014563,9.8707e-08,0.9,0.42,0
0.044102,0.0019835,0.016154,-0.00023319,0.0047762,0.00056202,0,0,0.073955,-0.032561,0,0.0073063,0,0,0,0.016173,-0.00025244,0.0047762,1.962,0.006899,0.014577,9.7618e-08,0.92,0.42,0
0.04558,0.0019958,0.016077,-0.00033939,0.0047213,0.00042395,0,0,0.073812,-0.032894,0,0.0055114,0,0,0,0.016088,-0.00035034,0.0047213,1.4784,0.0068196,0.01458,9.6683e-08,0.94,0.42,0
0.047055,0.0020066,0.016021,-0.00041125,0.004683,0.00028315,0,0,0.073699,-0.033113,0,0.003681,0,0,0,0.016026,-0.00041613,0.004683,0.98688,0.0067644,0.014578,9.5975e-08,0.96,0.42,0
0.048528,0.0020139,0.015988,-0.00045284,0.0046605,0.00014162,0,0,0.073628,-0.033237,0,0.0018411,0,0,0,0.015989,-0.00045406,0.0046605,0.4935,0.0067319,0.014575,9.5538e-08,0.98,0.42,0
0.05,0.0020165,0.015977,-0.00046646,0.0046531,9.8375e-06,0,0,0.073604,-0.033277,0,0.00012789,0,0,0,0.015977,-0.00046646,0.0046531,0.034278,0.0067211,0.014574,9.5391e-08,1,0.42,0
0,0,0.013082,0.0056065,0.0056065,3.7025e-05,0,0,0.04859,-5.421e-19,0,0.00048132,0,0,0,0.013082,0.0056063,0.0056065,0.28377,0.0080983,0.0074756,2.1457e-08,0,0.44,0
0.00097179,9.6264e-06,0.013032,0.0050643,0.005429,3.2762e-05,0,0,0.049422,-0.0023706,0,0.00042591,0,0,0,0.013033,0.0050642,0.005429,0.23558,0.0078419,0.0077924,2.4122e-08,0.02,0.44,0
0.0019769,3.24e-05,0.013213,0.0046505,0.0053591,4.0915e-05,0,0,0.051051,-0.0046059,0,0.00053189,0,0,0,0.013213,0.0046503,0.0053591,0.27377,0.0077409,0.0082315,2.7931e-08,0.04,0.44,0
0.0030138,6.4934e-05,0.01339,0.0042621,0.0052956,3.1128e-05,0,0,0.052612,-0.0067175,0,0.00040466,0,0,0,0.01339,0.004262,0.0052956,0.19539,0.0076491,0.0086575,3.1731e-08,0.06,0.44,0
0.0040814,0.00010439,0.013563,0.0038981,0.0052385,5.4329e-06,0,0,0.054112,-0.0087123,0,7.0628e-05,0,0,0,0.013563,0.0038981,0.0052385,0.032206,0.0075667,0.0090697,3.5513e-08,0.08,0.44,0
0.0051783,0.00014837,0.013735,0.0035582,0.0051879,-3.4635e-05,0,0,0.055555,-0.010593,0,-0.00045025,0,0,0,0.013735,0.0035581,0.0051879,-0.195,0.0074937,0.0094678,3.9269e-08,0.1,0.44,0
0.0063036,0.00019489,0.013905,0.0032427,0.0051442,-8.7874e-05,0,0,0.056942,-0.012359,0,-0.0011424,0,0,0,0.013905,0.003242,0.0051442,-0.47219,0.0074305,0.0098509,4.2991e-08,0.12,0.44,0
0.007456,0.00024236,0.014073,0.0029524,0.0051076,-0.0001533,0,0,0.058275,-0.014009,0,-0.0019929,0,0,0,0.014075,0.0029503,0.0051076,-0.78962,0.0073776,0.010218,4.6671e-08,0.14,0.44,0
0.0086346,0.00028953,0.01424,0.0026884,0.0050786,-0.00023002,0,0,0.059551,-0.015537,0,-0.0029902,0,0,0,0.014245,0.0026838,0.0050786,-1.1402,0.0073358,0.010569,5.0302e-08,0.16,0.44,0
0.0098381,0.00033562,0.014407,0.0024521,0.0050578,-0.00031716,0,0,0.060771,-0.016937,0,-0.004123,0,0,0,0.014416,0.0024437,0.0050578,-1.5186,0.0073057,0.010903,5.3878e-08,0.18,0.44,0
0.011065,0.00038027,0.014574,0.0022455,0.0050458,-0.00041372,0,0,0.061933,-0.018202,0,-0.0053784,0,0,0,0.014588,0.0022316,0.0050458,-1.9199,0.0072884,0.011217,5.7395e-08,0.2,0.44,0
0.012315,0.0004237,0.014742,0.0020705,0.0050436,-0.00051845,0,0,0.063037,-0.019325,0,-0.0067398,0,0,0,0.014763,0.0020494,0.0050436,-2.3391,0.0072853,0.011512,6.0852e-08,0.22,0.44,0
0.013587,0.00046686,0.014911,0.0019297,0.0050523,-0.00062955,0,0,0.064084,-0.020297,0,-0.0081841,0,0,0,0.014942,0.0018992,0.0050523,-2.7699,0.0072978,0.011787,6.4249e-08,0.24,0.44,0
0.014879,0.0005116,0.015085,0.0018257,0.0050733,-0.00074442,0,0,0.065079,-0.02111,0,-0.0096775,0,0,0,0.015127,0.001784,0.0050733,-3.2033,0.0073282,0.01204,6.7599e-08,0.26,0.44,0
0.01619,0.00056103,0.015268,0.0017614,0.0051087,-0.00085917,0,0,0.066033,-0.021758,0,-0.011169,0,0,0,0.015322,0.001707,0.0051087,-3.6252,0.0073793,0.012273,7.093e-08,0.28,0.44,0
0.01752,0.00061996,0.015465,0.0017399,0.0051615,-0.00096801,0,0,0.066974,-0.02224,0,-0.012584,0,0,0,0.015533,0.001672,0.0051615,-4.0145,0.0074556,0.012488,7.4307e-08,0.3,0.44,0
0.018869,0.00069561,0.015691,0.0017645,0.0052366,-0.0010624,0,0,0.067951,-0.022568,0,-0.013811,0,0,0,0.015771,0.001684,0.0052366,-4.3376,0.0075639,0.01269,7.7875e-08,0.32,0.44,0
0.020238,0.00079868,0.015969,0.0018401,0.0053428,-0.0011301,0,0,0.069072,-0.022768,0,-0.014691,0,0,0,0.016059,0.0017503,0.0053428,-4.5441,0.0077174,0.012894,8.1954e-08,0.34,0.44,0
0.021632,0.00094505,0.016353,0.0019772,0.0054991,-0.001149,0,0,0.070551,-0.022892,0,-0.014937,0,0,0,0.016444,0.001886,0.0054991,-4.5409,0.0079431,0.01313,8.7259e-08,0.36,0.44,0
0.02306,0.0011614,0.016999,0.0022329,0.0057695,-0.0010853,0,0,0.07299,-0.022988,0,-0.014109,0,0,0,0.017078,0.0021536,0.0057695,-4.1814,0.0083337,0.013485,9.6082e-08,0.38,0.44,0
0.024552,0.0014902,0.018207,0.0027211,0.0062785,-0.00059958,0,0,0.077538,-0.023124,0,-0.0077945,0,0,0,0.018231,0.0026979,0.0062785,-2.2139,0.009069,0.014088,1.1293e-07,0.4,0.44,0
0.026162,0.0021586,0.024243,0.00065921,0.0074708,-0.001363,0,0,0.047383,-0.017729,0,-0.0097639,0,0,0,0.024331,0.00057122,0.0074708,-3.8472,0.010791,0.021175,4.7714e-07,0.42,0.44,0
0.026778,0.0024744,0.015598,0.00081351,0.0049234,0.00064568,0,0,0.026205,-0.0097361,0,0.0045981,0,0,0,0.015634,0.00077769,0.0049234,3.3785,0.0071116,0.013278,1.5686e-07,0.44,0.44,0
0.027118,0.0025462,0.019155,0.00015259,0.0057922,0.00019057,0,0,0.017371,-0.0073315,0,0.00049549,0,0,0,0.019157,0.00015068,0.0057922,0.57454,0.0083665,0.016907,1.5823e-07,0.46,0.44,0
0.027473,0.0025861,0.018954,-0.00029449,0.0055978,-0.0003055,0,0,0.017363,-0.00766,0,-0.0007943,0,0,0,0.018959,-0.00029934,0.0055978,-0.90906,0.0080857,0.01709,1.5727e-07,0.48,0.44,0
0.027812,0.0026325,0.01819,-0.00075455,0.0052307,-0.00011468,0,0,0.016847,-0.0077808,0,-0.00029817,0,0,0,0.018191,-0.00075525,0.0052307,-0.34682,0.0075554,0.016774,1.4247e-07,0.5,0.44,0
0.028147,0.0026834,0.017974,-0.00042695,0.0052641,1.6658e-05,0,0,0.016523,-0.0073983,0,4.331e-05,0,0,0,0.017974,-0.00042696,0.0052641,0.051868,0.0076037,0.016317,1.3509e-07,0.52,0.44,0
0.028473,0.0027394,0.017738,-5.5504e-05,0.0053047,9.1894e-05,0,0,0.016163,-0.0069682,0,0.00023892,0,0,0,0.017738,-5.5979e-05,0.0053047,0.2959,0.0076623,0.015811,1.2713e-07,0.54,0.44,0
0.028793,0.0027927,0.01761,0.0002446,0.0053563,4.6551e-05,0,0,0.015929,-0.0066452,0,0.00012103,0,0,0,0.01761,0.00024448,0.0053563,0.15359,0.0077368,0.015457,1.221e-07,0.56,0.44,0
0.02911,0.0028388,0.017532,0.00034481,0.0053632,-4.2641e-05,0,0,0.01582,-0.0065239,0,-0.00011087,0,0,0,0.017533,0.0003447,0.0053632,-0.14215,0.0077468,0.015308,1.1972e-07,0.58,0.44,0
0.029426,0.0028754,0.017519,0.00028334,0.0053408,-0.00014265,0,0,0.015832,-0.0065747,0,-0.00037089,0,0,0,0.017521,0.00028216,0.0053408,-0.47415,0.0077145,0.015348,1.1995e-07,0.6,0.44,0
0.029743,0.0029027,0.017569,5.7929e-05,0.005288,-0.0002344,0,0,0.015965,-0.0067991,0,-0.00060944,0,0,0,0.017572,5.4792e-05,0.005288,-0.76678,0.0076383,0.015575,1.2276e-07,0.62,0.44,0
0.030065,0.002923,0.017665,-0.00037117,0.0051883,-0.0002795,0,0,0.01622,-0.0072273,0,-0.0007267,0,0,0,0.01767,-0.0003755,0.0051883,-0.8876,0.0074941,0.016006,1.2803e-07,0.64,0.44,0
0.030392,0.0029414,0.017859,-0.00087851,0.0050941,-0.00019288,0,0,0.016594,-0.0077644,0,-0.0005015,0,0,0,0.017861,-0.0008805,0.0050941,-0.58972,0.0073581,0.016582,1.3583e-07,0.66,0.44,0
0.030728,0.0029666,0.018037,-0.0013328,0.0050111,-2.1497e-05,0,0,0.016933,-0.0082471,0,-5.5891e-05,0,0,0,0.018037,-0.0013329,0.0050111,-0.063588,0.0072383,0.017104,1.4292e-07,0.68,0.44,0
0.03107,0.0029993,0.018765,-0.0010244,0.0053222,0.00023206,0,0,0.017476,-0.0082506,0,0.00060335,0,0,0,0.018768,-0.0010271,0.0053222,0.67174,0.0076877,0.017506,1.5837e-07,0.7,0.44,0
0.031427,0.003041,0.019034,-0.00071491,0.0054958,-0.00016512,0,0,0.0176,-0.0080739,0,-0.00042931,0,0,0,0.019036,-0.00071629,0.0054958,-0.479,0.0079384,0.017494,1.6266e-07,0.72,0.44,0
0.031774,0.0030542,0.015573,-1.6711e-05,0.004667,-0.00067702,0,0,0.026794,-0.011114,0,-0.0049482,0,0,0,0.015612,-5.5428e-05,0.004667,-3.4299,0.0067412,0.013921,1.6553e-07,0.74,0.44,0
0.032404,0.0028018,0.024158,-0.0008213,0.007001,0.0011684,0,0,0.048439,-0.020644,0,0.0081018,0,0,0,0.024217,-0.00088067,0.007001,3.0551,0.010113,0.022235,5.0096e-07,0.76,0.44,0
0.034049,0.0021091,0.018224,0.0018038,0.0060085,0.00034845,0,0,0.079404,-0.027331,0,0.0045299,0,0,0,0.018232,0.0017963,0.0060085,1.2151,0.0086789,0.014786,1.2174e-07,0.78,0.44,0
0.035581,0.0017861,0.017055,0.0012742,0.0054987,0.00090782,0,0,0.075115,-0.02746,0,0.011802,0,0,0,0.017107,0.0012221,0.0054987,3.2816,0.0079426,0.014237,1.0436e-07,0.8,0.44,0
0.037054,0.0015807,0.016467,0.00096518,0.0052298,0.0010164,0,0,0.073044,-0.02772,0,0.013213,0,0,0,0.016534,0.00089883,0.0052298,3.7351,0.0075541,0.013982,9.6312e-08,0.82,0.44,0
0.038502,0.0014573,0.016166,0.00069821,0.0050592,0.0010493,0,0,0.072192,-0.028346,0,0.01364,0,0,0,0.016237,0.00062736,0.0050592,3.8631,0.0073077,0.013932,9.2993e-08,0.84,0.44,0
0.039941,0.0013891,0.015992,0.00043977,0.0049295,0.0010057,0,0,0.071906,-0.029184,0,0.013074,0,0,0,0.016057,0.00037501,0.0049295,3.6847,0.0071205,0.013973,9.157e-08,0.86,0.44,0
0.041379,0.0013567,0.015888,0.00022196,0.0048329,0.00090845,0,0,0.071856,-0.029971,0,0.01181,0,0,0,0.01594,0.00016946,0.0048329,3.3078,0.0069808,0.014033,9.0884e-08,0.88,0.44,0
0.042816,0.0013454,0.015813,4.5836e-05,0.0047575,0.00077845,0,0,0.071858,-0.030626,0,0.01012,0,0,0,0.015851,7.4944e-06,0.0047575,2.8197,0.006872,0.014083,9.0363e-08,0.9,0.44,0
0.044253,0.0013455,0.015754,-9.1441e-05,0.0046987,0.00063159,0,0,0.071859,-0.031136,0,0.0082107,0,0,0,0.015779,-0.00011658,0.0046987,2.279,0.0067871,0.014118,8.9887e-08,0.92,0.44,0
0.04569,0.0013506,0.015708,-0.00019363,0.0046544,0.00047678,0,0,0.071851,-0.031512,0,0.0061982,0,0,0,0.015723,-0.00020791,0.0046544,1.7158,0.0067231,0.014141,8.9466e-08,0.94,0.44,0
0.047127,0.0013568,0.015675,-0.00026409,0.0046234,0.00031869,0,0,0.071838,-0.031769,0,0.004143,0,0,0,0.015682,-0.00027046,0.0046234,1.1449,0.0066783,0.014155,8.9137e-08,0.96,0.44,0
0.048564,0.0013614,0.015655,-0.00030535,0.004605,0.00015948,0,0,0.071828,-0.031917,0,0.0020733,0,0,0,0.015657,-0.00030694,0.004605,0.57242,0.0066517,0.014162,8.8927e-08,0.98,0.44,0
0.05,0.001363,0.015649,-0.00031893,0.0045989,6.429e-06,0,0,0.071824,-0.031966,0,8.3577e-05,0,0,0,0.015649,-0.00031893,0.0045989,0.023069,0.0066429,0.014164,8.8855e-08,1,0.44,0
0,0,0.01297,0.0055584,0.0055584,-0.00014075,0,0,0.048173,-6.5052e-19,0,-0.0018297,0,0,0,0.012972,0.0055558,0.0055584,-1.0876,0.0080289,0.0074153,2.0941e-08,0,0.46,0
0.00096346,-3.6594e-05,0.012923,0.0050445,0.0053902,-0.00014468,0,0,0.048963,-0.0022471,0,-0.0018808,0,0,0,0.012926,0.0050419,0.0053902,-1.0517,0.0077859,0.0077154,2.3427e-08,0.02,0.46,0
0.0019585,-5.7481e-05,0.013094,0.00465,0.0053231,-0.00013206,0,0,0.050508,-0.0043748,0,-0.0017168,0,0,0,0.013096,0.004648,0.0053231,-0.89586,0.0076889,0.0081312,2.697e-08,0.04,0.46,0
0.0029838,-6.6233e-05,0.01326,0.0042786,0.0052616,-0.0001383,0,0,0.05199,-0.0063895,0,-0.0017979,0,0,0,0.013262,0.0042764,0.0052616,-0.88199,0.0076,0.0085358,3.0512e-08,0.06,0.46,0
0.0040381,-6.5792e-05,0.013423,0.0039296,0.0052057,-0.00016102,0,0,0.05341,-0.0082942,0,-0.0020932,0,0,0,0.013425,0.0039269,0.0052057,-0.97147,0.0075193,0.008928,3.4036e-08,0.08,0.46,0
0.0051202,-5.8578e-05,0.013582,0.0036034,0.0051556,-0.00019844,0,0,0.05477,-0.010089,0,-0.0025797,0,0,0,0.013586,0.0035995,0.0051556,-1.1388,0.0074469,0.0093063,3.7524e-08,0.1,0.46,0
0.0062289,-4.6551e-05,0.013737,0.0033004,0.0051114,-0.00024921,0,0,0.05607,-0.011771,0,-0.0032397,0,0,0,0.013743,0.0032945,0.0051114,-1.367,0.0073831,0.0096693,4.0961e-08,0.12,0.46,0
0.007363,-3.1247e-05,0.01389,0.0030217,0.0050734,-0.00031225,0,0,0.057306,-0.013336,0,-0.0040592,0,0,0,0.013899,0.0030127,0.0050734,-1.6443,0.0073282,0.010016,4.433e-08,0.14,0.46,0
0.0085211,-1.3786e-05,0.014038,0.0027684,0.005042,-0.00038665,0,0,0.058475,-0.014778,0,-0.0050265,0,0,0,0.014051,0.0027551,0.005042,-1.9627,0.0072828,0.010344,4.7616e-08,0.16,0.46,0
0.009702,5.1495e-06,0.014183,0.0025419,0.0050174,-0.00047159,0,0,0.059575,-0.016091,0,-0.0061306,0,0,0,0.014202,0.0025229,0.0050174,-2.3161,0.0072474,0.010653,5.0803e-08,0.18,0.46,0
0.010904,2.5364e-05,0.014324,0.0023441,0.0050003,-0.00056617,0,0,0.060602,-0.017266,0,-0.0073602,0,0,0,0.01435,0.0023174,0.0050003,-2.6999,0.0072227,0.010941,5.3875e-08,0.2,0.46,0
0.012126,4.7239e-05,0.01446,0.0021765,0.0049911,-0.00066935,0,0,0.06155,-0.018294,0,-0.0087015,0,0,0,0.014497,0.0021402,0.0049911,-3.1098,0.0072093,0.011206,5.6817e-08,0.22,0.46,0
0.013366,7.1864e-05,0.014593,0.0020412,0.0049903,-0.00077973,0,0,0.062419,-0.019169,0,-0.010136,0,0,0,0.014641,0.0019929,0.0049903,-3.5411,0.0072082,0.011448,5.9616e-08,0.24,0.46,0
0.014623,0.00010124,0.014723,0.0019398,0.0049988,-0.00089543,0,0,0.063206,-0.019883,0,-0.011641,0,0,0,0.014785,0.0018774,0.0049988,-3.9875,0.0072204,0.011665,6.2263e-08,0.26,0.46,0
0.015894,0.00013853,0.01485,0.0018738,0.0050172,-0.0010138,0,0,0.063915,-0.020432,0,-0.01318,0,0,0,0.014929,0.001795,0.0050172,-4.4405,0.0072471,0.011856,6.4755e-08,0.28,0.46,0
0.017179,0.00018852,0.014978,0.001844,0.0050466,-0.0011314,0,0,0.064554,-0.020817,0,-0.014708,0,0,0,0.015075,0.0017472,0.0050466,-4.8875,0.0072895,0.012022,6.7102e-08,0.3,0.46,0
0.018477,0.00025816,0.015109,0.00185,0.0050876,-0.0012434,0,0,0.065137,-0.021044,0,-0.016164,0,0,0,0.015224,0.0017344,0.0050876,-5.3113,0.0073488,0.012165,6.9322e-08,0.32,0.46,0
0.019785,0.00035755,0.015244,0.0018884,0.0051396,-0.001343,0,0,0.065676,-0.021133,0,-0.017459,0,0,0,0.015377,0.0017547,0.0051396,-5.686,0.0074239,0.012285,7.1415e-08,0.34,0.46,0
0.021104,0.00050189,0.015375,0.0019508,0.0051978,-0.0014199,0,0,0.066153,-0.021105,0,-0.018459,0,0,0,0.015524,0.0018022,0.0051978,-5.9724,0.0075079,0.012378,7.3256e-08,0.36,0.46,0
0.022431,0.0007151,0.015402,0.0019787,0.0052141,-0.0014373,0,0,0.06622,-0.02103,0,-0.018686,0,0,0,0.015554,0.0018265,0.0052141,-6.044,0.0075315,0.012386,7.354e-08,0.38,0.46,0
0.023752,0.0010474,0.015328,0.0019771,0.0051916,-0.0012504,0,0,0.065888,-0.020894,0,-0.016255,0,0,0,0.015444,0.001861,0.0051916,-5.3045,0.007499,0.012262,7.1665e-08,0.4,0.46,0
0.025066,0.0016258,0.016166,0.0011078,0.0051822,-0.0013612,0,0,0.071396,-0.026484,0,-0.017695,0,0,0,0.016288,0.00098576,0.0051822,-5.1237,0.0074854,0.013695,9.1371e-08,0.42,0.46,0
0.026608,0.0022547,0.020618,0.00024002,0.0062574,-0.0008794,0,0,0.042608,-0.017147,0,-0.0088468,0,0,0,0.020684,0.00017399,0.0062574,-3.2984,0.0090385,0.018246,2.7297e-07,0.44,0.46,0
0.027116,0.0023987,0.013005,-0.00013547,0.0038609,0.0001468,0,0,0.022035,-0.0093008,0,7.7843e-05,0,0,0,0.013008,-0.00013876,0.0038609,0.17938,0.0055768,0.011673,1.001e-07,0.46,0.46,0
0.027423,0.0024357,0.017507,-0.00076744,0.0050219,0.0002305,0,0,0.016231,-0.0075262,0,0.0005993,0,0,0,0.01751,-0.00077035,0.0050219,0.72252,0.0072539,0.016182,1.2736e-07,0.48,0.46,0
0.027765,0.0024731,0.018139,-0.00081917,0.005196,-1.8947e-06,0,0,0.016826,-0.0078197,0,-4.9262e-06,0,0,0,0.018139,-0.00081917,0.005196,-0.0057261,0.0075054,0.01678,1.4174e-07,0.5,0.46,0
0.028096,0.0025342,0.017827,-0.000615,0.0051637,0.00021132,0,0,0.016463,-0.0075123,0,0.00054942,0,0,0,0.01783,-0.00061742,0.0051637,0.65639,0.0074586,0.016342,1.3328e-07,0.52,0.46,0
0.028423,0.0025995,0.017869,6.0202e-05,0.0053787,0.00015823,0,0,0.016237,-0.0069141,0,0.00041141,0,0,0,0.01787,5.8796e-05,0.0053787,0.50903,0.0077693,0.015836,1.2909e-07,0.54,0.46,0
0.028746,0.0026599,0.017813,0.00032178,0.0054406,4.6737e-05,0,0,0.016085,-0.0066544,0,0.00012152,0,0,0,0.017814,0.00032166,0.0054406,0.15309,0.0078586,0.015577,1.2579e-07,0.56,0.46,0
0.029067,0.0027082,0.017823,0.00038238,0.0054615,-4.393e-05,0,0,0.016069,-0.0066028,0,-0.00011422,0,0,0,0.017823,0.00038227,0.0054615,-0.14432,0.0078888,0.015536,1.255e-07,0.58,0.46,0
0.029388,0.0027439,0.017803,0.0003226,0.0054378,-0.00011033,0,0,0.016075,-0.0066497,0,-0.00028685,0,0,0,0.017804,0.0003219,0.0054378,-0.3616,0.0078546,0.015568,1.2559e-07,0.6,0.46,0
0.02971,0.0027669,0.017757,0.00014035,0.0053693,-0.00020227,0,0,0.016105,-0.0067977,0,-0.00052591,0,0,0,0.01776,0.00013803,0.0053693,-0.65773,0.0077557,0.015675,1.2609e-07,0.62,0.46,0
0.030032,0.002778,0.017775,-0.00025674,0.0052555,-0.00031244,0,0,0.016275,-0.0071659,0,-0.00081235,0,0,0,0.017781,-0.00026216,0.0052555,-0.99239,0.0075913,0.016013,1.296e-07,0.64,0.46,0
0.030361,0.0027849,0.017704,-0.0010793,0.0049873,-0.00034698,0,0,0.016531,-0.0078867,0,-0.00090215,0,0,0,0.01771,-0.0010857,0.0049873,-1.0579,0.0072039,0.016614,1.3385e-07,0.66,0.46,0
0.030694,0.0027976,0.017972,-0.0014634,0.0049526,-0.00010021,0,0,0.016925,-0.0083408,0,-0.00026055,0,0,0,0.017972,-0.0014639,0.0049526,-0.29541,0.0071537,0.017153,1.4229e-07,0.68,0.46,0
0.031038,0.0028357,0.017361,-0.0015301,0.0047492,-0.00025961,0,0,0.016395,-0.008163,0,-0.00067498,0,0,0,0.017364,-0.0015336,0.0047492,-0.78719,0.0068599,0.01667,1.2903e-07,0.7,0.46,0
0.03135,0.0028786,0.01293,-0.00082853,0.0036305,-0.00017558,0,0,0.022431,-0.010434,0,-0.00026409,0,0,0,0.012934,-0.00083211,0.0036305,-0.32689,0.0052441,0.012165,1.0324e-07,0.72,0.46,0
0.031867,0.0028029,0.020451,-0.0010962,0.0058064,0.00070933,0,0,0.043484,-0.019739,0,0.0074946,0,0,0,0.020496,-0.0011413,0.0058064,2.601,0.0083871,0.019135,2.8273e-07,0.74,0.46,0
0.033441,0.0021672,0.016115,6.3628e-05,0.0048535,0.001121,0,0,0.073198,-0.031134,0,0.014572,0,0,0,0.016193,-1.4278e-05,0.0048535,3.9756,0.0070106,0.014404,9.6473e-08,0.76,0.46,0
0.034794,0.0015845,0.015354,0.0010555,0.0049229,0.0010147,0,0,0.067804,-0.025139,0,0.013191,0,0,0,0.015426,0.0009838,0.0049229,4.0389,0.0071109,0.012931,7.7289e-08,0.78,0.46,0
0.036154,0.001248,0.015431,0.00098179,0.0049239,0.0012133,0,0,0.068298,-0.025624,0,0.015773,0,0,0,0.015532,0.00088062,0.0049239,4.7665,0.0071123,0.013107,7.9618e-08,0.8,0.46,0
0.037526,0.001038,0.015468,0.00088622,0.0049061,0.0012205,0,0,0.068649,-0.026129,0,0.015866,0,0,0,0.015569,0.00078477,0.0049061,4.7517,0.0070866,0.013215,8.0816e-08,0.82,0.46,0
0.0389,0.00090316,0.015407,0.00071243,0.0048358,0.0011648,0,0,0.068712,-0.026802,0,0.015142,0,0,0,0.015499,0.00062068,0.0048358,4.5042,0.006985,0.013282,8.0744e-08,0.84,0.46,0
0.040275,0.0008204,0.015359,0.0005241,0.0047649,0.0010766,0,0,0.068861,-0.027565,0,0.013995,0,0,0,0.015437,0.00044638,0.0047649,4.1291,0.0068827,0.013365,8.0843e-08,0.86,0.46,0
0.041654,0.00077298,0.015328,0.00034407,0.0047017,0.00095842,0,0,0.069073,-0.028325,0,0.01246,0,0,0,0.015389,0.00028301,0.0047017,3.645,0.0067913,0.013453,8.1077e-08,0.88,0.46,0
0.043038,0.00074856,0.015309,0.00018831,0.0046492,0.0008182,0,0,0.069289,-0.028996,0,0.010637,0,0,0,0.015353,0.00014416,0.0046492,3.0883,0.0067155,0.013531,8.1322e-08,0.9,0.46,0
0.044426,0.00073808,0.015295,6.1426e-05,0.0046068,0.00066395,0,0,0.069471,-0.029545,0,0.0086314,0,0,0,0.015324,3.2542e-05,0.0046068,2.491,0.0066543,0.013594,8.1495e-08,0.92,0.46,0
0.045817,0.00073526,0.015283,-3.5832e-05,0.0045741,0.00050191,0,0,0.069608,-0.029965,0,0.0065248,0,0,0,0.015299,-5.2259e-05,0.0045741,1.8746,0.0066071,0.01364,8.1594e-08,0.94,0.46,0
0.04721,0.00073587,0.015274,-0.00010421,0.0045509,0.00033596,0,0,0.0697,-0.030259,0,0.0043675,0,0,0,0.015281,-0.00011155,0.0045509,1.2509,0.0065736,0.013671,8.1638e-08,0.96,0.46,0
0.048605,0.00073723,0.015268,-0.00014472,0.0045371,0.00016829,0,0,0.069753,-0.030432,0,0.0021878,0,0,0,0.01527,-0.00014656,0.0045371,0.6255,0.0065535,0.01369,8.1654e-08,0.98,0.46,0
0.05,0.00073783,0.015266,-0.00015814,0.0045324,2.3415e-06,0,0,0.06977,-0.030489,0,3.0439e-05,0,0,0,0.015266,-0.00015814,0.0045324,0.0086978,0.0065469,0.013695,8.1657e-08,1,0.46,0
0,0,0.012843,0.0055041,0.0055041,-0.00030869,0,0,0.047702,3.2526e-19,0,-0.004013,0,0,0,0.012856,0.0054911,0.0055041,-2.4044,0.0079504,0.0073582,2.0462e-08,0,0.48,0
0.00095404,-8.026e-05,0.012799,0.0050199,0.0053457,-0.00031209,0,0,0.048446,-0.0021172,0,-0.0040572,0,0,0,0.012811,0.0050074,0.0053457,-2.2938,0.0077215,0.0076405,2.2757e-08,0.02,0.48,0
0.0019379,-0.00014259,0.012959,0.0046456,0.0052814,-0.00029503,0,0,0.049905,-0.0041328,0,-0.0038354,0,0,0,0.01297,0.0046351,0.0052814,-2.0299,0.0076287,0.0080308,2.6021e-08,0.04,0.48,0
0.0029502,-0.00019065,0.013115,0.0042914,0.0052218,-0.00029716,0,0,0.051304,-0.0060476,0,-0.0038631,0,0,0,0.013125,0.0042814,0.0052218,-1.9267,0.0075427,0.0084126,2.9294e-08,0.06,0.48,0
0.00399,-0.00022738,0.013266,0.0039578,0.0051671,-0.00031584,0,0,0.052642,-0.0078605,0,-0.0041059,0,0,0,0.013277,0.003947,0.0051671,-1.9412,0.0074635,0.0087832,3.2548e-08,0.08,0.48,0
0.0050559,-0.00025519,0.013412,0.0036452,0.0051172,-0.0003491,0,0,0.053917,-0.0095679,0,-0.0045383,0,0,0,0.013425,0.0036327,0.0051172,-2.0445,0.0073914,0.0091404,3.5759e-08,0.1,0.48,0
0.0061467,-0.00027595,0.013553,0.0033546,0.0050723,-0.00039543,0,0,0.055125,-0.011165,0,-0.0051406,0,0,0,0.013568,0.0033393,0.0050723,-2.2171,0.0073266,0.0094821,3.8902e-08,0.12,0.48,0
0.0072609,-0.00029109,0.013688,0.0030872,0.0050326,-0.00045363,0,0,0.056261,-0.012645,0,-0.0058972,0,0,0,0.013708,0.0030678,0.0050326,-2.4458,0.0072693,0.0098061,4.1951e-08,0.14,0.48,0
0.0083971,-0.0003016,0.013817,0.0028443,0.0049984,-0.00052272,0,0,0.05732,-0.014001,0,-0.0067954,0,0,0,0.013842,0.0028195,0.0049984,-2.7213,0.0072198,0.01011,4.4882e-08,0.16,0.48,0
0.0095537,-0.00030802,0.013938,0.0026275,0.0049697,-0.00060182,0,0,0.058295,-0.015224,0,-0.0078236,0,0,0,0.01397,0.0025956,0.0049697,-3.0372,0.0071785,0.010393,4.7667e-08,0.18,0.48,0
0.010729,-0.00031036,0.014051,0.0024383,0.0049468,-0.00069001,0,0,0.059178,-0.016306,0,-0.0089702,0,0,0,0.014092,0.0023974,0.0049468,-3.3885,0.0071454,0.010651,5.0279e-08,0.2,0.48,0
0.011921,-0.00030807,0.014155,0.0022781,0.0049299,-0.00078626,0,0,0.059963,-0.017237,0,-0.010221,0,0,0,0.014207,0.0022263,0.0049299,-3.7711,0.007121,0.010884,5.2691e-08,0.22,0.48,0
0.013127,-0.00029991,0.014248,0.0021484,0.0049191,-0.00088925,0,0,0.060641,-0.018009,0,-0.01156,0,0,0,0.014313,0.0020834,0.0049191,-4.1809,0.0071053,0.011088,5.4871e-08,0.24,0.48,0
0.014346,-0.00028374,0.01433,0.0020503,0.0049141,-0.00099722,0,0,0.061203,-0.018614,0,-0.012964,0,0,0,0.01441,0.0019699,0.0049141,-4.6126,0.0070981,0.011261,5.6787e-08,0.26,0.48,0
0.015576,-0.00025627,0.014398,0.0019842,0.0049147,-0.0011077,0,0,0.061642,-0.019048,0,-0.014401,0,0,0,0.014496,0.0018861,0.0049147,-5.0594,0.007099,0.011402,5.84e-08,0.28,0.48,0
0.016812,-0.00021271,0.01441,0.0018772,0.0048863,-0.0012266,0,0,0.061907,-0.019559,0,-0.015945,0,0,0,0.014529,0.0017583,0.0048863,-5.5372,0.007058,0.01153,5.9623e-08,0.3,0.48,0
0.018053,-0.00014617,0.014452,0.0018706,0.0048968,-0.0012954,0,0,0.062109,-0.01967,0,-0.01684,0,0,0,0.014584,0.0017386,0.0048968,-5.8177,0.0070731,0.011593,6.0461e-08,0.32,0.48,0
0.019296,-4.6639e-05,0.014479,0.0019577,0.0049311,-0.0014082,0,0,0.062064,-0.019327,0,-0.018307,0,0,0,0.014636,0.0018013,0.0049311,-6.3383,0.0071227,0.011591,6.0753e-08,0.34,0.48,0
0.020536,0.00010083,0.014425,0.0019759,0.0049202,-0.0014595,0,0,0.06178,-0.019138,0,-0.018973,0,0,0,0.014594,0.0018071,0.0049202,-6.598,0.007107,0.011549,6.0162e-08,0.36,0.48,0
0.021767,0.00032015,0.014335,0.0019788,0.0048942,-0.00142,0,0,0.061367,-0.01895,0,-0.01846,0,0,0,0.014496,0.0018177,0.0048942,-6.472,0.0070694,0.011454,5.8826e-08,0.38,0.48,0
0.022991,0.0006544,0.014418,0.0018572,0.0048827,-0.0012995,0,0,0.061982,-0.019665,0,-0.016893,0,0,0,0.014551,0.0017242,0.0048827,-5.8449,0.0070528,0.011576,6.0121e-08,0.4,0.48,0
0.024247,0.0010992,0.014095,0.00071408,0.0044427,-0.0011435,0,0,0.06274,-0.024236,0,-0.014865,0,0,0,0.014192,0.00061707,0.0044427,-4.8494,0.0064173,0.012124,6.1738e-08,0.42,0.48,0
0.0255,0.0016652,0.014909,4.5106e-05,0.0044862,-0.0016353,0,0,0.067748,-0.028867,0,-0.021259,0,0,0,0.015087,-0.00013269,0.0044862,-6.2049,0.0064801,0.013515,7.8682e-08,0.44,0.48,0
0.026956,0.0021934,0.018975,-3.431e-05,0.0056823,-0.0014327,0,0,0.039804,-0.01663,0,-0.011873,0,0,0,0.019107,-0.00016589,0.0056823,-5.0373,0.0082078,0.017115,2.149e-07,0.46,0.48,0
0.027422,0.002285,0.011816,-0.0007929,0.0033068,-0.00032719,0,0,0.020382,-0.0095577,0,-0.0029807,0,0,0,0.011833,-0.00081039,0.0033068,-2.5841,0.0047766,0.01117,7.9884e-08,0.48,0.48,0
0.027713,0.0023197,0.016249,-0.0018303,0.0043255,3.4876e-07,0,0,0.0155,-0.0080026,0,9.0678e-07,0,0,0,0.016249,-0.0018303,0.0043255,0.0011053,0.006248,0.01592,1.0769e-07,0.5,0.48,0
0.028043,0.0023829,0.017719,-0.00035186,0.0052102,-1.9021e-05,0,0,0.016262,-0.0072307,0,-4.9453e-05,0,0,0,0.017719,-0.00035188,0.0052102,-0.060306,0.0075259,0.016031,1.2893e-07,0.52,0.48,0
0.028364,0.0024628,0.017846,0.00016767,0.0054042,-9.1981e-05,0,0,0.016175,-0.0068075,0,-0.00023915,0,0,0,0.017847,0.0001672,0.0054042,-0.2981,0.0078061,0.015729,1.2773e-07,0.54,0.48,0
0.028689,0.0025265,0.018184,0.00026415,0.0055345,-0.00016988,0,0,0.016445,-0.0068515,0,-0.00044169,0,0,0,0.018186,0.00026254,0.0055345,-0.54309,0.0079943,0.015954,1.3439e-07,0.56,0.48,0
0.029022,0.0025747,0.018439,0.00029976,0.0056217,-0.00011047,0,0,0.016663,-0.0069185,0,-0.00028722,0,0,0,0.01844,0.00029908,0.0056217,-0.34892,0.0081202,0.016151,1.3982e-07,0.58,0.48,0
0.029356,0.0026094,0.018418,0.00024063,0.0055975,-4.7259e-06,0,0,0.016666,-0.006964,0,-1.2287e-05,0,0,0,0.018418,0.00024063,0.0055975,-0.014896,0.0080853,0.016178,1.3982e-07,0.6,0.48,0
0.029688,0.0026308,0.018119,8.2987e-05,0.0054607,5.3281e-05,0,0,0.016456,-0.0069911,0,0.00013853,0,0,0,0.01812,8.2829e-05,0.0054607,0.16925,0.0078877,0.016039,1.3438e-07,0.62,0.48,0
0.030014,0.0026364,0.01775,-0.00014315,0.005282,-2.36e-05,0,0,0.016208,-0.0070527,0,-6.1361e-05,0,0,0,0.01775,-0.00014318,0.005282,-0.075571,0.0076296,0.015891,1.2804e-07,0.64,0.48,0
0.030337,0.002626,0.017577,-0.00085167,0.0050175,-9.0392e-05,0,0,0.016327,-0.00763,0,-0.00023502,0,0,0,0.017577,-0.00085212,0.0050175,-0.28103,0.0072476,0.016307,1.2937e-07,0.66,0.48,0
0.030667,0.002633,0.016102,-0.0024905,0.0040835,-5.581e-05,0,0,0.015624,-0.0085463,0,-0.00014511,0,0,0,0.016102,-0.0024907,0.0040835,-0.17198,0.0058984,0.016331,1.0772e-07,0.68,0.48,0
0.030962,0.0026728,0.011728,-0.0013906,0.0031013,0.00029157,0,0,0.020681,-0.010524,0,0.0028068,0,0,0,0.011743,-0.0014056,0.0031013,2.32,0.0044796,0.011574,8.1103e-08,0.7,0.48,0
0.031435,0.0026468,0.018792,-0.0011858,0.0052818,0.0012801,0,0,0.040486,-0.018855,0,0.010702,0,0,0,0.018893,-0.0012872,0.0052818,4.3188,0.0076293,0.017828,2.1975e-07,0.72,0.48,0
0.032917,0.0021212,0.014832,-0.00091598,0.0041748,0.0014287,0,0,0.069272,-0.03309,0,0.018573,0,0,0,0.01496,-0.0010445,0.0041748,5.1421,0.0060303,0.014138,8.1282e-08,0.74,0.48,0
0.034206,0.0015565,0.014076,-0.0002145,0.0041584,0.00090946,0,0,0.064464,-0.028424,0,0.011823,0,0,0,0.014134,-0.00027214,0.0041584,3.6269,0.0060066,0.01278,6.539e-08,0.76,0.48,0
0.035496,0.0011036,0.014408,0.00089649,0.0045913,0.0010369,0,0,0.063807,-0.024016,0,0.013479,0,0,0,0.014487,0.00081739,0.0045913,4.3629,0.0066318,0.012227,6.4619e-08,0.78,0.48,0
0.036758,0.00076119,0.01436,0.00097758,0.0046012,0.0011586,0,0,0.063431,-0.023554,0,0.015061,0,0,0,0.014459,0.00087802,0.0046012,4.9117,0.0066462,0.012155,6.3903e-08,0.8,0.48,0
0.038033,0.0005355,0.01449,0.0008923,0.0046147,0.0012021,0,0,0.06419,-0.024196,0,0.015628,0,0,0,0.014596,0.00078684,0.0046147,5.0135,0.0066657,0.012348,6.6294e-08,0.82,0.48,0
0.039326,0.00038526,0.014605,0.0007684,0.0046121,0.0011549,0,0,0.064955,-0.024984,0,0.015014,0,0,0,0.014701,0.00067267,0.0046121,4.7386,0.0066619,0.012532,6.8429e-08,0.84,0.48,0
0.040631,0.00028653,0.014679,0.00061908,0.0045893,0.0010641,0,0,0.06558,-0.025806,0,0.013834,0,0,0,0.014759,0.00053899,0.0045893,4.3039,0.006629,0.012689,7.0018e-08,0.86,0.48,0
0.041949,0.00022373,0.014732,0.0004689,0.0045602,0.00094623,0,0,0.066115,-0.026593,0,0.012301,0,0,0,0.014794,0.00040639,0.0045602,3.7791,0.0065869,0.012826,7.1283e-08,0.88,0.48,0
0.043276,0.00018557,0.014772,0.00033177,0.0045312,0.00080891,0,0,0.066566,-0.027296,0,0.010516,0,0,0,0.014817,0.0002866,0.0045312,3.1963,0.006545,0.012941,7.2289e-08,0.9,0.48,0
0.044611,0.00016369,0.014802,0.00021586,0.0045055,0.00065824,0,0,0.06693,-0.027882,0,0.0085571,0,0,0,0.014832,0.00018621,0.0045055,2.5786,0.0065079,0.013034,7.3061e-08,0.92,0.48,0
0.045953,0.00015205,0.014782,4.646e-05,0.0044485,0.0004929,0,0,0.067167,-0.028613,0,0.0064077,0,0,0,0.014798,2.9991e-05,0.0044485,1.9137,0.0064256,0.013129,7.3407e-08,0.94,0.48,0
0.0473,0.00014643,0.014814,-1.028e-05,0.004441,0.00033529,0,0,0.067422,-0.028933,0,0.0043587,0,0,0,0.014821,-1.786e-05,0.004441,1.295,0.0064148,0.013188,7.4005e-08,0.96,0.48,0
0.048649,0.00014409,0.014846,2.0217e-05,0.0044598,0.00016799,0,0,0.067509,-0.028857,0,0.0021839,0,0,0,0.014848,1.8314e-05,0.0044598,0.64912,0.006442,0.013182,7.4209e-08,0.98,0.48,0
0.05,0.00014348,0.014848,7.1967e-06,0.0044567,-2.3643e-06,0,0,0.067546,-0.028922,0,-3.0736e-05,0,0,0,0.014848,7.1964e-06,0.0044567,-0.0091277,0.0064374,0.013192,7.4278e-08,1,0.48,0
0,0,0.012705,0.0054448,0.0054448,-0.00046647,0,0,0.047188,-5.421e-19,0,-0.0060641,0,0,0,0.012734,0.005415,0.0054448,-3.6614,0.0078647,0.0073046,2.0016e-08,0,0.5,0
0.00094377,-0.00012128,0.012663,0.0049909,0.0052963,-0.00046914,0,0,0.047887,-0.0019852,0,-0.0060989,0,0,0,0.012692,0.0049623,0.0052963,-3.4861,0.0076503,0.0075683,2.2119e-08,0.02,0.5,0
0.0019155,-0.00022279,0.012813,0.0046368,0.005235,-0.00044771,0,0,0.049257,-0.0038878,0,-0.0058202,0,0,0,0.012837,0.0046124,0.005235,-3.1249,0.0075616,0.0079321,2.5101e-08,0.04,0.5,0
0.0029141,-0.00030814,0.012958,0.0042999,0.0051773,-0.00044517,0,0,0.050573,-0.005703,0,-0.0057873,0,0,0,0.012981,0.0042771,0.0051773,-2.9357,0.0074783,0.0082901,2.8102e-08,0.06,0.5,0
0.0039384,-0.00038021,0.013097,0.0039812,0.0051235,-0.00045875,0,0,0.051829,-0.0074252,0,-0.0059638,0,0,0,0.01312,0.0039582,0.0051235,-2.8737,0.0074006,0.0086386,3.1087e-08,0.08,0.5,0
0.0049872,-0.0004413,0.013169,0.0036364,0.0050415,-0.00049056,0,0,0.052827,-0.0091335,0,-0.0063774,0,0,0,0.013194,0.0036112,0.0050415,-2.9383,0.0072822,0.0089537,3.3717e-08,0.1,0.5,0
0.0060592,-0.00049315,0.013394,0.003397,0.0050373,-0.00051922,0,0,0.054318,-0.010662,0,-0.0067498,0,0,0,0.013421,0.0033702,0.0050373,-2.9652,0.0072761,0.0093295,3.7256e-08,0.12,0.5,0
0.0071527,-0.00053706,0.013475,0.0031463,0.0049864,-0.00057701,0,0,0.055176,-0.011961,0,-0.0075012,0,0,0,0.013507,0.0031142,0.0049864,-3.1876,0.0072026,0.0095949,3.9608e-08,0.14,0.5,0
0.0082662,-0.00057383,0.013584,0.0029132,0.0049491,-0.00063774,0,0,0.056127,-0.013234,0,-0.0082906,0,0,0,0.013622,0.0028752,0.0049491,-3.4081,0.0071488,0.0098745,4.2191e-08,0.16,0.5,0
0.0093978,-0.00060381,0.013682,0.0027051,0.0049162,-0.00070732,0,0,0.056979,-0.014372,0,-0.0091951,0,0,0,0.013728,0.0026597,0.0049162,-3.6717,0.0071011,0.01013,4.4587e-08,0.18,0.5,0
0.010545,-0.00062686,0.013768,0.0025235,0.0048875,-0.00078469,0,0,0.057724,-0.015366,0,-0.010201,0,0,0,0.013823,0.002469,0.0048875,-3.9727,0.0070597,0.010358,4.676e-08,0.2,0.5,0
0.011707,-0.00064223,0.01384,0.0023697,0.0048629,-0.00086863,0,0,0.05835,-0.016205,0,-0.011292,0,0,0,0.013905,0.0023043,0.0048629,-4.3063,0.0070242,0.010557,4.8669e-08,0.22,0.5,0
0.012879,-0.00064849,0.013895,0.0022447,0.004842,-0.00095756,0,0,0.058846,-0.016882,0,-0.012448,0,0,0,0.013973,0.0021665,0.004842,-4.6674,0.006994,0.010722,5.0274e-08,0.24,0.5,0
0.014061,-0.00064335,0.013932,0.0021489,0.0048242,-0.0010494,0,0,0.059199,-0.017389,0,-0.013642,0,0,0,0.014024,0.0020562,0.0048242,-5.0497,0.0069682,0.010852,5.1526e-08,0.26,0.5,0
0.015247,-0.0006234,0.013945,0.0020817,0.0048081,-0.001141,0,0,0.059392,-0.017722,0,-0.014833,0,0,0,0.014054,0.001973,0.0048081,-5.4439,0.0069451,0.010943,5.2372e-08,0.28,0.5,0
0.016436,-0.0005838,0.013961,0.002103,0.0048192,-0.00124,0,0,0.059422,-0.017655,0,-0.016121,0,0,0,0.014089,0.0019747,0.0048192,-5.9066,0.0069611,0.010972,5.2787e-08,0.3,0.5,0
0.017624,-0.00051773,0.013899,0.0020797,0.0047937,-0.0012709,0,0,0.059187,-0.017641,0,-0.016522,0,0,0,0.014034,0.0019445,0.0047937,-6.0684,0.0069242,0.010947,5.2303e-08,0.32,0.5,0
0.018806,-0.00041553,0.013798,0.0020137,0.0047435,-0.0013535,0,0,0.058854,-0.017744,0,-0.017595,0,0,0,0.013951,0.0018602,0.0047435,-6.4685,0.0068517,0.010938,5.1802e-08,0.34,0.5,0
0.019978,-0.00026364,0.013676,0.0019958,0.0047016,-0.0013588,0,0,0.058335,-0.017588,0,-0.017664,0,0,0,0.013832,0.0018398,0.0047016,-6.5487,0.0067912,0.010849,5.0512e-08,0.36,0.5,0
0.021139,-4.2907e-05,0.013567,0.0019173,0.0046453,-0.0013054,0,0,0.057992,-0.017732,0,-0.01697,0,0,0,0.013712,0.0017728,0.0046453,-6.3155,0.0067099,0.010793,4.9485e-08,0.38,0.5,0
0.022298,0.00026077,0.013432,0.001571,0.0045009,-0.0012069,0,0,0.058051,-0.019044,0,-0.01569,0,0,0,0.013553,0.0014495,0.0045009,-5.7517,0.0065012,0.010903,4.9412e-08,0.4,0.5,0
0.023461,0.00065633,0.013439,0.0010226,0.0043385,-0.0012331,0,0,0.059153,-0.021553,0,-0.016031,0,0,0,0.01356,0.00090129,0.0043385,-5.6173,0.0062667,0.011338,5.2319e-08,0.42,0.5,0
0.024664,0.0011,0.013116,-3.6459e-05,0.0039237,-0.0013104,0,0,0.059747,-0.025741,0,-0.017035,0,0,0,0.013245,-0.00016575,0.0039237,-5.6349,0.0056676,0.011905,5.3445e-08,0.44,0.5,0
0.025851,0.0016062,0.013483,-0.00057177,0.0038735,-0.0020393,0,0,0.062464,-0.028894,0,-0.026511,0,0,0,0.013773,-0.00086169,0.0038735,-8.0911,0.005595,0.012935,6.3031e-08,0.46,0.5,0
0.027224,0.0020736,0.016834,-0.00074421,0.0048268,-0.0019122,0,0,0.03377,-0.015071,0,-0.012984,0,0,0,0.017052,-0.00096306,0.0048268,-6.8555,0.006972,0.015931,1.7817e-07,0.48,0.5,0
0.027667,0.002153,0.0121,-0.00072995,0.0034111,-0.00012731,0,0,0.020151,-0.010249,0,-0.0055959,0,0,0,0.012208,-0.00083782,0.0034111,-4.1853,0.0049272,0.011528,9.129e-08,0.5,0.5,0
0.027951,0.002245,0.016651,-0.00056083,0.0048272,-0.00089071,0,0,0.015371,-0.0070044,0,-0.0023158,0,0,0,0.016697,-0.0006068,0.0048272,-2.9545,0.0069726,0.015328,1.0964e-07,0.52,0.5,0
0.02827,0.0023272,0.017965,-0.00014594,0.0053457,-0.0006726,0,0,0.016405,-0.0071391,0,-0.0017488,0,0,0,0.01799,-0.00017088,0.0053457,-2.1239,0.0077215,0.016126,1.335e-07,0.54,0.5,0
0.028616,0.0023858,0.019505,0.0002745,0.0059338,-0.00057764,0,0,0.017642,-0.007357,0,-0.0015019,0,0,0,0.019522,0.00025717,0.0059338,-1.719,0.008571,0.017146,1.6648e-07,0.56,0.5,0
0.028972,0.0024315,0.019738,0.00024022,0.0059934,-0.00017421,0,0,0.017868,-0.0074791,0,-0.00045293,0,0,0,0.019739,0.00023866,0.0059934,-0.51187,0.0086571,0.017354,1.7231e-07,0.58,0.5,0
0.029332,0.0024653,0.019725,0.00018322,0.0059723,8.3529e-05,0,0,0.017878,-0.0075259,0,0.00021718,0,0,0,0.019725,0.00018286,0.0059723,0.24491,0.0086267,0.017386,1.7247e-07,0.6,0.5,0
0.029688,0.0024872,0.019449,9.3078e-05,0.0058626,0.00048913,0,0,0.017662,-0.0075004,0,0.0012717,0,0,0,0.019461,8.0726e-05,0.0058626,1.4466,0.0084683,0.017233,1.6658e-07,0.62,0.5,0
0.030035,0.0024959,0.017867,-0.00046147,0.0052218,0.00057299,0,0,0.016439,-0.0073882,0,0.0014898,0,0,0,0.017885,-0.00047937,0.0052218,1.7888,0.0075426,0.016281,1.3351e-07,0.64,0.5,0
0.030355,0.0024797,0.016107,-0.0012844,0.0044468,0.0011877,0,0,0.015158,-0.0074506,0,0.0030879,0,0,0,0.016188,-0.0013652,0.0044468,3.8887,0.0064231,0.015488,1.0421e-07,0.66,0.5,0
0.030641,0.0024558,0.010744,-0.0025135,0.002469,0.0010241,0,0,0.019733,-0.011763,0,0.0079094,0,0,0,0.010859,-0.002629,0.002469,6.4606,0.0035664,0.011796,6.7577e-08,0.68,0.5,0
0.03109,0.0024385,0.01753,-0.0016981,0.0047495,0.0019563,0,0,0.038191,-0.018485,0,0.014321,0,0,0,0.017743,-0.0019112,0.0047495,6.3726,0.0068604,0.017314,1.8735e-07,0.7,0.5,0
0.032484,0.0019792,0.013835,-0.0011794,0.0037966,0.0017275,0,0,0.065247,-0.032344,0,0.022457,0,0,0,0.014031,-0.0013756,0.0037966,6.4794,0.0054839,0.01358,6.8592e-08,0.72,0.5,0
0.0337,0.0014793,0.013071,-0.00088777,0.003655,0.0011013,0,0,0.061205,-0.029528,0,0.014317,0,0,0,0.013158,-0.00097413,0.003655,4.4836,0.0052794,0.012479,5.549e-08,0.74,0.5,0
0.034932,0.0010302,0.013395,0.00011346,0.0040526,0.00097864,0,0,0.060727,-0.025604,0,0.012722,0,0,0,0.013467,4.1739e-05,0.0040526,4.1916,0.0058538,0.011936,5.526e-08,0.76,0.5,0
0.036129,0.00062387,0.013413,0.00062725,0.0042119,0.00092815,0,0,0.059804,-0.0233,0,0.012066,0,0,0,0.01348,0.00056022,0.0042119,4.1305,0.0060839,0.011535,5.3023e-08,0.78,0.5,0
0.037324,0.00030585,0.01357,0.00091394,0.0043453,0.0010106,0,0,0.059963,-0.022304,0,0.013137,0,0,0,0.01365,0.00083376,0.0043453,4.5366,0.0062765,0.011471,5.3742e-08,0.8,0.5,0
0.038527,7.015e-05,0.013715,0.00091331,0.0043886,0.0010549,0,0,0.060624,-0.022589,0,0.013713,0,0,0,0.013802,0.00082698,0.0043886,4.679,0.0063391,0.011611,5.5631e-08,0.82,0.5,0
0.039749,-9.6194e-05,0.013884,0.00082765,0.0044135,0.0010394,0,0,0.061558,-0.023308,0,0.013512,0,0,0,0.013966,0.00074542,0.0044135,4.5233,0.006375,0.011822,5.8122e-08,0.84,0.5,0
0.04099,-0.00021185,0.01403,0.0007109,0.0044221,0.00097355,0,0,0.062448,-0.024123,0,0.012656,0,0,0,0.0141,0.00064011,0.0044221,4.1587,0.0063875,0.012024,6.0408e-08,0.86,0.5,0
0.042247,-0.00029076,0.014145,0.00058554,0.0044192,0.00087493,0,0,0.063218,-0.024918,0,0.011374,0,0,0,0.014201,0.00052932,0.0044192,3.6767,0.0063832,0.012201,6.2324e-08,0.88,0.5,0
0.043518,-0.00034328,0.014235,0.00046646,0.0044104,0.00075395,0,0,0.063859,-0.025636,0,0.0098014,0,0,0,0.014276,0.0004253,0.0044104,3.125,0.0063706,0.01235,6.3878e-08,0.9,0.5,0
0.044801,-0.00037721,0.014303,0.00036251,0.0043997,0.00061748,0,0,0.064373,-0.026242,0,0.0080272,0,0,0,0.014331,0.00033521,0.0043997,2.5312,0.0063552,0.01247,6.5096e-08,0.92,0.5,0
0.046093,-0.00039831,0.014309,0.00025966,0.0043705,0.00045376,0,0,0.064599,-0.026721,0,0.0058989,0,0,0,0.014323,0.00024502,0.0043705,1.848,0.006313,0.012536,6.5466e-08,0.94,0.5,0
0.047392,-0.00041069,0.014417,0.00023037,0.0043942,0.00032842,0,0,0.065147,-0.027064,0,0.0042694,0,0,0,0.014424,0.00022277,0.0043942,1.3255,0.0063471,0.012643,6.6985e-08,0.96,0.5,0
0.048695,-0.00041707,0.014372,0.00010828,0.0043442,0.00015681,0,0,0.065183,-0.027533,0,0.0020386,0,0,0,0.014374,0.00010656,0.0043442,0.62978,0.0062749,0.012691,6.6879e-08,0.98,0.5,0
0.05,-0.00041903,0.014323,-4.2874e-05,0.0042841,-7.5348e-06,0,0,0.065254,-0.028125,0,-9.7952e-05,0,0,0,0.014323,-4.2878e-05,0.0042841,-0.030051,0.0061881,0.012765,6.692e-08,1,0.5,0
0,0,0.012558,0.005382,0.005382,-0.0006141,0,0,0.046644,0,0,-0.0079833,0,0,0,0.01261,0.0053298,0.005382,-4.8562,0.007774,0.0072544,1.9604e-08,0,0.52,0
0.00093288,-0.00015967,0.012459,0.004927,0.0052157,-0.00062923,0,0,0.04708,-0.0018766,0,-0.00818,0,0,0,0.012511,0.0048748,0.0052157,-4.7429,0.0075338,0.0074715,2.1271e-08,0.02,0.52,0
0.0018919,-0.0002981,0.012711,0.0046372,0.0052045,-0.00057836,0,0,0.048793,-0.003687,0,-0.0075186,0,0,0,0.012752,0.004596,0.0052045,-4.0766,0.0075176,0.0078697,2.4528e-08,0.04,0.52,0
0.0028762,-0.00041877,0.012793,0.0043032,0.0051289,-0.00058249,0,0,0.049818,-0.005367,0,-0.0075723,0,0,0,0.012833,0.0042635,0.0051289,-3.9066,0.0074084,0.0081712,2.6964e-08,0.06,0.52,0
0.0038846,-0.00052439,0.012921,0.0039987,0.005076,-0.00058996,0,0,0.050995,-0.0070028,0,-0.0076694,0,0,0,0.01296,0.0039598,0.005076,-3.7664,0.007332,0.0084975,2.9688e-08,0.08,0.52,0
0.004916,-0.00061709,0.013004,0.0037129,0.0050149,-0.00061812,0,0,0.051926,-0.0084635,0,-0.0080355,0,0,0,0.013045,0.0036719,0.0050149,-3.7897,0.0072438,0.0087785,3.202e-08,0.1,0.52,0
0.0059688,-0.00069844,0.01321,0.0034879,0.0050094,-0.0006356,0,0,0.053304,-0.0098898,0,-0.0082628,0,0,0,0.013251,0.0034465,0.0050094,-3.7247,0.0072358,0.0091244,3.5188e-08,0.12,0.52,0
0.0070415,-0.00076952,0.013257,0.0031964,0.004936,-0.00068295,0,0,0.054086,-0.011307,0,-0.0088783,0,0,0,0.013303,0.0031503,0.004936,-3.8658,0.0071297,0.0093881,3.7367e-08,0.14,0.52,0
0.0081322,-0.00083096,0.013347,0.0029717,0.0048957,-0.00073247,0,0,0.054935,-0.012506,0,-0.0095221,0,0,0,0.013399,0.0029202,0.0048957,-4.0183,0.0070715,0.0096437,3.9626e-08,0.16,0.52,0
0.0092389,-0.0008829,0.013424,0.0027709,0.0048585,-0.00078918,0,0,0.055676,-0.013569,0,-0.010259,0,0,0,0.013482,0.0027128,0.0048585,-4.2138,0.0070178,0.009873,4.1666e-08,0.18,0.52,0
0.010359,-0.00092499,0.013485,0.0025954,0.0048242,-0.00085178,0,0,0.056296,-0.014487,0,-0.011073,0,0,0,0.013551,0.0025292,0.0048242,-4.4456,0.0069682,0.010073,4.3443e-08,0.2,0.52,0
0.011491,-0.00095629,0.013528,0.0024462,0.0047923,-0.00091875,0,0,0.056783,-0.01525,0,-0.011944,0,0,0,0.013604,0.0023706,0.0047923,-4.7073,0.0069222,0.01024,4.4913e-08,0.22,0.52,0
0.012631,-0.00097521,0.01355,0.0023238,0.0047623,-0.00098812,0,0,0.057123,-0.01585,0,-0.012846,0,0,0,0.013637,0.0022375,0.0047623,-4.9918,0.0068788,0.01037,4.6031e-08,0.24,0.52,0
0.013776,-0.00097931,0.013549,0.0022278,0.0047329,-0.0010573,0,0,0.057302,-0.016283,0,-0.013744,0,0,0,0.013647,0.0021299,0.0047329,-5.2899,0.0068365,0.010461,4.6748e-08,0.26,0.52,0
0.014923,-0.00096514,0.013519,0.0021567,0.0047028,-0.0011224,0,0,0.057307,-0.016549,0,-0.014591,0,0,0,0.013629,0.0020469,0.0047028,-5.5878,0.0067929,0.010509,4.7018e-08,0.28,0.52,0
0.016068,-0.00092792,0.013458,0.0021069,0.0046694,-0.0011782,0,0,0.057124,-0.016656,0,-0.015317,0,0,0,0.013579,0.0019859,0.0046694,-5.8639,0.0067447,0.010511,4.6797e-08,0.3,0.52,0
0.017208,-0.00086118,0.013361,0.0020708,0.0046295,-0.001217,0,0,0.056754,-0.016632,0,-0.015821,0,0,0,0.013491,0.0019411,0.0046295,-6.0828,0.0066871,0.010468,4.6066e-08,0.32,0.52,0
0.018338,-0.00075639,0.013229,0.0020342,0.0045791,-0.0012282,0,0,0.056227,-0.016542,0,-0.015967,0,0,0,0.013362,0.001901,0.0045791,-6.1879,0.0066142,0.010385,4.4881e-08,0.34,0.52,0
0.019457,-0.00060269,0.013074,0.0019693,0.0045131,-0.0012029,0,0,0.055648,-0.016535,0,-0.015638,0,0,0,0.013203,0.0018405,0.0045131,-6.112,0.0065189,0.01029,4.3491e-08,0.36,0.52,0
0.020564,-0.00038915,0.012903,0.0018119,0.0044145,-0.0011426,0,0,0.055176,-0.016917,0,-0.014854,0,0,0,0.01302,0.0016954,0.0044145,-5.8211,0.0063765,0.010239,4.2303e-08,0.38,0.52,0
0.021664,-0.00010735,0.012747,0.0015125,0.0042778,-0.0010905,0,0,0.055049,-0.017975,0,-0.014176,0,0,0,0.012852,0.0014076,0.0042778,-5.4932,0.0061791,0.010313,4.1971e-08,0.4,0.52,0
0.022766,0.00023712,0.012535,0.00097763,0.0040539,-0.001091,0,0,0.055129,-0.019995,0,-0.014183,0,0,0,0.012637,0.00087555,0.0040539,-5.3455,0.0058556,0.010538,4.2191e-08,0.42,0.52,0
0.023869,0.00063558,0.012416,0.00043855,0.0038564,-0.0012738,0,0,0.055637,-0.022216,0,-0.01656,0,0,0,0.01255,0.00030458,0.0038564,-6.004,0.0055703,0.010912,4.3676e-08,0.44,0.52,0
0.024991,0.001047,0.012135,-0.0001298,0.0036015,-0.0014637,0,0,0.055467,-0.024254,0,-0.019028,0,0,0,0.012307,-0.00030206,0.0036015,-6.7122,0.0052022,0.011181,4.3403e-08,0.46,0.52,0
0.026074,0.0015022,0.012998,-0.00029624,0.0038104,-0.0020609,0,0,0.059716,-0.026693,0,-0.026792,0,0,0,0.01331,-0.00060841,0.0038104,-8.6132,0.0055039,0.012318,5.6023e-08,0.48,0.52,0
0.027324,0.0019098,0.010738,0.00014588,0.0032652,-0.0023361,0,0,0.048575,-0.020276,0,-0.03037,0,0,0,0.011231,-0.00034647,0.0032652,-11.901,0.0047165,0.01026,3.3186e-08,0.5,0.52,0
0.027739,0.0021004,0.012793,-0.00036426,0.0037287,-0.0026673,0,0,0.019836,-0.012147,0,-0.020432,0,0,0,0.013473,-0.0010443,0.0037287,-14.277,0.0053858,0.012873,1.2233e-07,0.52,0.52,0
0.02813,0.0021702,0.012724,-0.00039006,0.0037002,-0.0015449,0,0,0.019572,-0.010887,0,-0.013003,0,0,0,0.013031,-0.00069663,0.0037002,-10.298,0.0053447,0.012168,1.1592e-07,0.54,0.52,0
0.028523,0.0022258,0.012923,-0.00026733,0.0037968,-0.00096002,0,0,0.019754,-0.010414,0,-0.0075044,0,0,0,0.013034,-0.00037814,0.0037968,-6.5391,0.0054842,0.011903,1.1907e-07,0.56,0.52,0
0.028918,0.0022692,0.01292,-0.00029993,0.0037859,-0.00025785,0,0,0.0198,-0.010327,0,-0.0023105,0,0,0,0.01293,-0.00031082,0.0037859,-2.073,0.0054685,0.011752,1.1797e-07,0.58,0.52,0
0.029316,0.002302,0.012918,-0.0003537,0.0037692,0.00020836,0,0,0.019827,-0.010469,0,0.0021055,0,0,0,0.012927,-0.000363,0.0037692,1.8636,0.0054444,0.011792,1.1851e-07,0.6,0.52,0
0.029712,0.0023242,0.01287,-0.00045196,0.0037253,0.00091555,0,0,0.0198,-0.010851,0,0.0073251,0,0,0,0.012973,-0.00055526,0.0037253,6.2563,0.0053811,0.011994,1.1935e-07,0.62,0.52,0
0.030107,0.0023335,0.012678,-0.00069671,0.0035943,0.0014993,0,0,0.019692,-0.011653,0,0.012855,0,0,0,0.012968,-0.00098721,0.0035943,9.8737,0.0051918,0.012352,1.1763e-07,0.64,0.52,0
0.0305,0.0023279,0.013148,-0.00062856,0.0037559,0.0020118,0,0,0.02035,-0.013321,0,0.018706,0,0,0,0.013674,-0.0011545,0.0037559,12.03,0.0054252,0.013158,1.3064e-07,0.66,0.52,0
0.030921,0.0021915,0.01566,-0.0030283,0.0037896,0.0024921,0,0,0.035109,-0.017888,0,0.018081,0,0,0,0.016019,-0.0033876,0.0037896,8.4542,0.0054738,0.017004,1.4154e-07,0.68,0.52,0
0.032186,0.0017979,0.012462,-0.001326,0.0033409,0.0020667,0,0,0.059289,-0.030335,0,0.026867,0,0,0,0.012765,-0.0016291,0.0033409,8.3436,0.0048257,0.012663,5.2761e-08,0.7,0.52,0
0.033292,0.001353,0.011876,-0.0011705,0.0032118,0.0013078,0,0,0.05632,-0.028485,0,0.017002,0,0,0,0.012006,-0.0013003,0.0032118,5.6682,0.0046392,0.011721,4.3307e-08,0.72,0.52,0
0.034439,0.00094005,0.012351,-0.00038428,0.0035899,0.0010466,0,0,0.056944,-0.025832,0,0.013606,0,0,0,0.012436,-0.00046973,0.0035899,4.6672,0.0051854,0.01143,4.536e-08,0.74,0.52,0
0.03557,0.00053228,0.012486,0.00010947,0.0037787,0.00082751,0,0,0.056599,-0.02385,0,0.010758,0,0,0,0.012541,5.4385e-05,0.0037787,3.8082,0.0054581,0.011104,4.457e-08,0.76,0.52,0
0.036703,0.00017155,0.012709,0.00058855,0.0039893,0.00079507,0,0,0.056679,-0.022105,0,0.010336,0,0,0,0.012761,0.00053662,0.0039893,3.7371,0.0057623,0.010916,4.4961e-08,0.78,0.52,0
0.037837,-0.00013095,0.012885,0.0008239,0.0041126,0.00082308,0,0,0.057019,-0.021376,0,0.0107,0,0,0,0.012941,0.00076799,0.0041126,3.8861,0.0059404,0.010892,4.5888e-08,0.8,0.52,0
0.038984,-0.00036808,0.013083,0.0008995,0.0041946,0.0008624,0,0,0.057772,-0.021418,0,0.011211,0,0,0,0.013143,0.00083875,0.0041946,4.029,0.0060589,0.011017,4.7803e-08,0.82,0.52,0
0.040148,-0.00054705,0.013274,0.00086438,0.0042415,0.00086638,0,0,0.058711,-0.021951,0,0.011263,0,0,0,0.013334,0.00080418,0.0042415,3.9744,0.0061266,0.011214,5.0141e-08,0.84,0.52,0
0.041332,-0.0006784,0.013451,0.00078241,0.0042701,0.00082973,0,0,0.059678,-0.02267,0,0.010786,0,0,0,0.013505,0.0007283,0.0042701,3.7313,0.0061679,0.011426,5.2521e-08,0.86,0.52,0
0.042535,-0.00077301,0.013602,0.00068324,0.0042856,0.00075894,0,0,0.060558,-0.023415,0,0.0098663,0,0,0,0.013647,0.00063881,0.0042856,3.3506,0.0061904,0.011622,5.4667e-08,0.88,0.52,0
0.043755,-0.00083985,0.013725,0.00058348,0.0042924,0.00066281,0,0,0.061309,-0.024108,0,0.0086165,0,0,0,0.013758,0.00055013,0.0042924,2.8801,0.0062002,0.011791,5.6484e-08,0.9,0.52,0
0.044987,-0.00088599,0.01382,0.0004933,0.0042941,0.00054835,0,0,0.061921,-0.024705,0,0.0071286,0,0,0,0.013843,0.00047077,0.0042941,2.3522,0.0062026,0.011929,5.795e-08,0.92,0.52,0
0.046231,-0.00091678,0.013902,0.00047759,0.004314,0.00040927,0,0,0.062324,-0.024937,0,0.0053205,0,0,0,0.013915,0.00046512,0.004314,1.7446,0.0062313,0.011998,5.8898e-08,0.94,0.52,0
0.047483,-0.00093615,0.013982,0.00043556,0.0043252,0.00028792,0,0,0.062767,-0.025282,0,0.003743,0,0,0,0.013988,0.00042944,0.0043252,1.2171,0.0062474,0.012091,6.0022e-08,0.96,0.52,0
0.04874,-0.00094675,0.013993,0.00039437,0.0043162,0.00013783,0,0,0.062899,-0.025492,0,0.0017917,0,0,0,0.013994,0.00039297,0.0043162,0.58064,0.0062345,0.012126,6.0291e-08,0.98,0.52,0
0.05,-0.00095011,0.014066,0.00051913,0.0043754,-1.2943e-05,0,0,0.062986,-0.025066,0,-0.00016826,0,0,0,0.014066,0.00051912,0.0043754,-0.054743,0.00632,0.012089,6.0582e-08,1,0.52,0
0,0,0.012407,0.0053171,0.0053171,-0.00075192,0,0,0.046081,2.1684e-19,0,-0.0097749,0,0,0,0.012485,0.0052382,0.0053171,-5.9881,0.0076802,0.007208,1.9227e-08,0,0.54,0
0.00092162,-0.0001955,0.012319,0.0049031,0.0051665,-0.00076698,0,0,0.046489,-0.0017122,0,-0.0099707,0,0,0,0.012397,0.0048246,0.0051665,-5.8436,0.0074627,0.0074075,2.0725e-08,0.02,0.54,0
0.0018677,-0.0003687,0.012558,0.0046381,0.0051588,-0.00071066,0,0,0.048093,-0.003384,0,-0.0092386,0,0,0,0.012621,0.0045749,0.0051588,-5.0873,0.0074516,0.0077706,2.3641e-08,0.04,0.54,0
0.0028375,-0.00052282,0.012625,0.0043007,0.0050776,-0.00070962,0,0,0.049056,-0.0050502,0,-0.0092251,0,0,0,0.012685,0.0042406,0.0050776,-4.8379,0.0073343,0.0080584,2.5901e-08,0.06,0.54,0
0.0038299,-0.00066032,0.012743,0.0040091,0.0050255,-0.00071012,0,0,0.050161,-0.0066068,0,-0.0092315,0,0,0,0.0128,0.0039517,0.0050255,-4.6183,0.0072591,0.0083632,2.838e-08,0.08,0.54,0
0.0048439,-0.0007831,0.012852,0.0037329,0.0049755,-0.00072201,0,0,0.051198,-0.0080769,0,-0.0093861,0,0,0,0.012909,0.0036761,0.0049755,-4.499,0.0071869,0.0086566,3.0802e-08,0.1,0.54,0
0.0058779,-0.00089249,0.012952,0.0034743,0.0049278,-0.00074343,0,0,0.052156,-0.0094479,0,-0.0096646,0,0,0,0.01301,0.0034163,0.0049278,-4.458,0.007118,0.0089341,3.3119e-08,0.12,0.54,0
0.0069301,-0.00098934,0.01304,0.0032351,0.0048824,-0.0007728,0,0,0.053021,-0.010707,0,-0.010046,0,0,0,0.0131,0.0031746,0.0048824,-4.4793,0.0070524,0.0091914,3.5285e-08,0.14,0.54,0
0.0079987,-0.0010741,0.013114,0.0030172,0.0048392,-0.00080873,0,0,0.053783,-0.011843,0,-0.010513,0,0,0,0.013178,0.0029528,0.0048392,-4.5508,0.00699,0.0094246,3.7254e-08,0.16,0.54,0
0.0090815,-0.0011466,0.013172,0.0028218,0.004798,-0.00084981,0,0,0.054428,-0.012845,0,-0.011048,0,0,0,0.013241,0.0027525,0.004798,-4.6629,0.0069305,0.00963,3.8982e-08,0.18,0.54,0
0.010176,-0.0012063,0.013211,0.0026504,0.0047586,-0.00089454,0,0,0.054944,-0.013703,0,-0.011629,0,0,0,0.013287,0.0025751,0.0047586,-4.8073,0.0068735,0.009804,4.0424e-08,0.2,0.54,0
0.011279,-0.0012522,0.013231,0.0025033,0.0047202,-0.00094111,0,0,0.055319,-0.01441,0,-0.012234,0,0,0,0.013313,0.0024214,0.0047202,-4.9759,0.0068181,0.0099433,4.1536e-08,0.22,0.54,0
0.012389,-0.0012825,0.013227,0.0023808,0.0046822,-0.00098723,0,0,0.055539,-0.014959,0,-0.012834,0,0,0,0.013316,0.0022917,0.0046822,-5.1588,0.0067632,0.010044,4.2276e-08,0.24,0.54,0
0.013501,-0.0012947,0.013196,0.0022816,0.0046433,-0.0010299,0,0,0.055593,-0.015351,0,-0.013388,0,0,0,0.013292,0.0021853,0.0046433,-5.3435,0.006707,0.010105,4.2607e-08,0.26,0.54,0
0.014612,-0.0012854,0.013136,0.0022031,0.0046017,-0.001065,0,0,0.055473,-0.015591,0,-0.013845,0,0,0,0.013239,0.0021003,0.0046017,-5.5123,0.006647,0.010122,4.25e-08,0.28,0.54,0
0.01572,-0.0012501,0.013044,0.0021402,0.0045552,-0.0010874,0,0,0.055177,-0.015698,0,-0.014136,0,0,0,0.013151,0.0020328,0.0045552,-5.6398,0.0065798,0.010096,4.1945e-08,0.3,0.54,0
0.016819,-0.001183,0.012919,0.0020834,0.0045007,-0.0010905,0,0,0.054719,-0.015713,0,-0.014177,0,0,0,0.013028,0.0019747,0.0045007,-5.6903,0.006501,0.010031,4.0973e-08,0.32,0.54,0
0.017908,-0.0010772,0.012764,0.0020166,0.0044342,-0.0010683,0,0,0.054144,-0.015714,0,-0.013888,0,0,0,0.012869,0.0019114,0.0044342,-5.6221,0.0064049,0.0099394,3.969e-08,0.34,0.54,0
0.018985,-0.00092502,0.012583,0.0019116,0.0043485,-0.0010187,0,0,0.053527,-0.01584,0,-0.013243,0,0,0,0.01268,0.0018152,0.0043485,-5.4039,0.0062812,0.0098456,3.8294e-08,0.36,0.54,0
0.02005,-0.00071958,0.012386,0.0017335,0.004236,-0.0009523,0,0,0.052978,-0.016266,0,-0.01238,0,0,0,0.012471,0.0016491,0.004236,-5.0683,0.0061187,0.0097882,3.7062e-08,0.38,0.54,0
0.021104,-0.00045822,0.012162,0.0014386,0.0040802,-0.00089341,0,0,0.052533,-0.017171,0,-0.011614,0,0,0,0.012236,0.0013646,0.0040802,-4.73,0.0058936,0.0098,3.6117e-08,0.4,0.54,0
0.022151,-0.00014349,0.011914,0.0010402,0.0038862,-0.00089081,0,0,0.05218,-0.018499,0,-0.011581,0,0,0,0.011986,0.00096766,0.0038862,-4.6525,0.0056134,0.0098879,3.5457e-08,0.42,0.54,0
0.023191,0.00021141,0.01154,0.00050907,0.0036147,-0.00095657,0,0,0.051514,-0.020187,0,-0.012435,0,0,0,0.011622,0.00042674,0.0036147,-4.9196,0.0052213,0.0099906,3.4186e-08,0.44,0.54,0
0.024211,0.00059897,0.011109,3.6476e-05,0.0033436,-0.0011715,0,0,0.050474,-0.021496,0,-0.015229,0,0,0,0.011232,-8.6113e-05,0.0033436,-5.9739,0.0048297,0.010052,3.2426e-08,0.46,0.54,0
0.02521,0.00098711,0.0099086,-0.00085797,0.0027152,-0.0013516,0,0,0.046757,-0.023226,0,-0.017571,0,0,0,0.010076,-0.0010251,0.0027152,-7.047,0.003922,0.0097825,2.5472e-08,0.48,0.54,0
0.026082,0.0014231,0.0088544,-0.0014333,0.0022263,-0.0020818,0,0,0.043082,-0.023787,0,-0.027063,0,0,0,0.0092596,-0.0018386,0.0022263,-11.017,0.0032158,0.0097253,2.0958e-08,0.5,0.54,0
0.026934,0.0017591,0.0079575,-0.0011236,0.0020502,-0.0017661,0,0,0.038398,-0.02063,0,-0.022959,0,0,0,0.0082889,-0.001455,0.0020502,-10.627,0.0029613,0.0085485,1.4865e-08,0.52,0.54,0
0.027618,0.0018917,0.0066889,-0.0009214,0.0017302,-0.0014039,0,0,0.032231,-0.017236,0,-0.01825,0,0,0,0.0069396,-0.0011721,0.0017302,-10.126,0.0024992,0.007119,8.6921e-09,0.54,0.54,0
0.028223,0.0019692,0.0061261,-0.00084446,0.0015845,-0.00083675,0,0,0.02952,-0.015788,0,-0.010878,0,0,0,0.0062251,-0.0009435,0.0015845,-6.7501,0.0022887,0.0062974,6.2124e-09,0.56,0.54,0
0.028798,0.0020184,0.0059274,-0.0008258,0.0015305,-0.00028104,0,0,0.02858,-0.015316,0,-0.0036535,0,0,0,0.0059391,-0.00083747,0.0015305,-2.3789,0.0022107,0.0059567,5.3601e-09,0.58,0.54,0
0.029366,0.0020465,0.0059113,-0.00088575,0.0015077,0.00026495,0,0,0.028623,-0.015557,0,0.0034444,0,0,0,0.0059216,-0.00089606,0.0015077,2.2289,0.0021777,0.0059892,5.3466e-09,0.6,0.54,0
0.029943,0.0020532,0.0060793,-0.0010274,0.0015156,0.00082055,0,0,0.029664,-0.016529,0,0.010667,0,0,0,0.0061728,-0.0011209,0.0015156,6.5014,0.0021892,0.0063969,6.1586e-09,0.62,0.54,0
0.030553,0.0020298,0.0066227,-0.0012351,0.0016163,0.001385,0,0,0.032542,-0.018534,0,0.018005,0,0,0,0.0068597,-0.001472,0.0016163,9.7089,0.0023347,0.0072955,8.5797e-09,0.64,0.54,0
0.031245,0.0019469,0.0078893,-0.0015926,0.001889,0.0017283,0,0,0.039002,-0.022631,0,0.022468,0,0,0,0.0081945,-0.0018978,0.001889,10.014,0.0027286,0.0088305,1.472e-08,0.66,0.54,0
0.032113,0.0016467,0.0087711,-0.0020725,0.0020096,0.0019945,0,0,0.04395,-0.026534,0,0.025928,0,0,0,0.0091263,-0.0024277,0.0020096,10.098,0.0029027,0.010095,2.0544e-08,0.68,0.54,0
0.033003,0.0012251,0.0098407,-0.0015117,0.0024987,0.0012065,0,0,0.047723,-0.026068,0,0.015685,0,0,0,0.0099675,-0.0016385,0.0024987,6.0001,0.0036092,0.010188,2.5692e-08,0.7,0.54,0
0.034022,0.00083983,0.011034,-0.00068717,0.0031041,0.00098022,0,0,0.051545,-0.024643,0,0.012743,0,0,0,0.011116,-0.00076857,0.0031041,4.7475,0.0044837,0.010498,3.3319e-08,0.72,0.54,0
0.035065,0.00044605,0.011474,-0.00026614,0.0033624,0.00072515,0,0,0.052727,-0.023586,0,0.0094269,0,0,0,0.011519,-0.00031076,0.0033624,3.5211,0.0048568,0.010487,3.5671e-08,0.74,0.54,0
0.036131,7.6256e-05,0.011851,0.00020632,0.0036171,0.00061967,0,0,0.053519,-0.02217,0,0.0080557,0,0,0,0.011884,0.00017344,0.0036171,3.0376,0.0052248,0.010424,3.7493e-08,0.76,0.54,0
0.037206,-0.00026032,0.012107,0.00054488,0.0037956,0.00058746,0,0,0.054025,-0.021129,0,0.007637,0,0,0,0.012137,0.00051511,0.0037956,2.9012,0.0054825,0.010378,3.8662e-08,0.78,0.54,0
0.038292,-0.00054922,0.012343,0.00077004,0.0039339,0.00061473,0,0,0.054659,-0.020565,0,0.0079915,0,0,0,0.012376,0.00073747,0.0039339,3.032,0.0056823,0.010415,4.0123e-08,0.8,0.54,0
0.039392,-0.00078658,0.012559,0.00086563,0.0040273,0.00065136,0,0,0.055454,-0.020551,0,0.0084677,0,0,0,0.012595,0.00082946,0.0040273,3.1785,0.0058172,0.010537,4.1955e-08,0.82,0.54,0
0.04051,-0.00097425,0.012765,0.00087296,0.0040915,0.00067045,0,0,0.05638,-0.02092,0,0.0087158,0,0,0,0.012803,0.00083529,0.0040915,3.2166,0.0059099,0.010717,4.4103e-08,0.84,0.54,0
0.041647,-0.0011187,0.012954,0.00082655,0.0041342,0.00065874,0,0,0.05733,-0.0215,0,0.0085636,0,0,0,0.01299,0.00079088,0.0041342,3.1,0.0059717,0.010918,4.6323e-08,0.86,0.54,0
0.042803,-0.0012274,0.01312,0.00075526,0.0041626,0.00061633,0,0,0.058223,-0.022148,0,0.0080123,0,0,0,0.013151,0.00072461,0.0041626,2.8465,0.0060126,0.011113,4.8419e-08,0.88,0.54,0
0.043976,-0.0013076,0.013259,0.00067679,0.0041807,0.00054803,0,0,0.059008,-0.022775,0,0.0071244,0,0,0,0.013283,0.00065297,0.0041807,2.4893,0.0060388,0.011287,5.0263e-08,0.9,0.54,0
0.045164,-0.0013654,0.01337,0.00060234,0.0041917,0.00045966,0,0,0.059659,-0.023331,0,0.0059755,0,0,0,0.013387,0.00058581,0.0041917,2.0592,0.0060547,0.011433,5.1794e-08,0.92,0.54,0
0.046362,-0.0014056,0.013455,0.00053902,0.0041981,0.00035648,0,0,0.060167,-0.023784,0,0.0046342,0,0,0,0.013464,0.00052919,0.0041981,1.5798,0.0060639,0.011546,5.2989e-08,0.94,0.54,0
0.04757,-0.0014319,0.013514,0.00049127,0.0042015,0.000243,0,0,0.060529,-0.024116,0,0.003159,0,0,0,0.013518,0.00048673,0.0042015,1.0687,0.0060688,0.011628,5.384e-08,0.96,0.54,0
0.048784,-0.0014467,0.013549,0.00046171,0.0042031,0.00012306,0,0,0.060746,-0.024319,0,0.0015997,0,0,0,0.01355,0.00046055,0.0042031,0.53868,0.0060712,0.011677,5.4348e-08,0.98,0.54,0
0.05,-0.0014514,0.01356,0.00045171,0.0042036,-1.8322e-05,0,0,0.060818,-0.024387,0,-0.00023819,0,0,0,0.01356,0.00045168,0.0042036,-0.080085,0.0060719,0.011693,5.4518e-08,1,0.54,0
0,0,0.012253,0.0052513,0.0052513,-0.00088057,0,0,0.045512,2.1684e-19,0,-0.011447,0,0,0,0.012362,0.0051423,0.0052513,-7.0592,0.0075853,0.007166,1.8885e-08,0,0.56,0
0.00091023,-0.00022895,0.01222,0.0048815,0.0051306,-0.00088005,0,0,0.046084,-0.0016188,0,-0.011441,0,0,0,0.012324,0.0047775,0.0051306,-6.7433,0.0074108,0.0073768,2.0457e-08,0.02,0.56,0
0.0018433,-0.00043492,0.012341,0.0045827,0.005077,-0.00084644,0,0,0.047214,-0.0032129,0,-0.011004,0,0,0,0.012432,0.0044914,0.005077,-6.1548,0.0073335,0.0076645,2.267e-08,0.04,0.56,0
0.0027988,-0.00062077,0.012456,0.0042917,0.0050244,-0.00082745,0,0,0.048307,-0.0047624,0,-0.010757,0,0,0,0.012539,0.0042087,0.0050244,-5.7292,0.0072574,0.0079541,2.4932e-08,0.06,0.56,0
0.0037756,-0.00078866,0.012565,0.0040114,0.0049729,-0.00082029,0,0,0.049348,-0.0062495,0,-0.010664,0,0,0,0.012643,0.0039334,0.0049729,-5.4288,0.007183,0.0082389,2.7188e-08,0.08,0.56,0
0.0047727,-0.00094017,0.012664,0.0037446,0.0049227,-0.00082265,0,0,0.050321,-0.0076579,0,-0.010694,0,0,0,0.01274,0.0036693,0.0049227,-5.2254,0.0071106,0.0085132,2.9386e-08,0.1,0.56,0
0.0057885,-0.0010764,0.012753,0.0034936,0.004874,-0.00083263,0,0,0.051214,-0.0089727,0,-0.010824,0,0,0,0.012827,0.0034193,0.004874,-5.0977,0.0070402,0.0087716,3.1473e-08,0.12,0.56,0
0.0068212,-0.0011978,0.012828,0.0032606,0.0048267,-0.00084862,0,0,0.052012,-0.01018,0,-0.011032,0,0,0,0.012903,0.0031859,0.0048267,-5.0294,0.0069719,0.0090097,3.3401e-08,0.14,0.56,0
0.0078689,-0.0013047,0.012889,0.0030473,0.0047808,-0.00086909,0,0,0.052701,-0.011268,0,-0.011298,0,0,0,0.012965,0.0029712,0.0047808,-5.0081,0.0069056,0.009223,3.5122e-08,0.16,0.56,0
0.0089293,-0.0013967,0.012932,0.0028554,0.0047361,-0.00089254,0,0,0.05327,-0.012224,0,-0.011603,0,0,0,0.01301,0.0027769,0.0047361,-5.0231,0.006841,0.0094077,3.6591e-08,0.18,0.56,0
0.0099998,-0.0014731,0.012955,0.0026856,0.0046921,-0.00091731,0,0,0.053707,-0.013042,0,-0.011925,0,0,0,0.013036,0.0026043,0.0046921,-5.0647,0.0067774,0.0095603,3.7764e-08,0.2,0.56,0
0.011078,-0.0015327,0.012956,0.0025383,0.0046482,-0.00094144,0,0,0.053999,-0.013714,0,-0.012239,0,0,0,0.01304,0.0024539,0.0046482,-5.1227,0.0067141,0.0096774,3.8603e-08,0.22,0.56,0
0.01216,-0.0015736,0.012932,0.0024129,0.0046036,-0.00096249,0,0,0.054137,-0.014239,0,-0.012512,0,0,0,0.01302,0.0023256,0.0046036,-5.185,0.0066496,0.0097566,3.9075e-08,0.24,0.56,0
0.013243,-0.0015934,0.012882,0.0023076,0.0045569,-0.00097736,0,0,0.054114,-0.01462,0,-0.012706,0,0,0,0.012972,0.0022181,0.0045569,-5.2365,0.0065822,0.0097959,3.9158e-08,0.26,0.56,0
0.014324,-0.0015888,0.012803,0.0022188,0.0045066,-0.00098222,0,0,0.053928,-0.014871,0,-0.012769,0,0,0,0.012894,0.0021284,0.0045066,-5.2572,0.0065096,0.0097951,3.8843e-08,0.28,0.56,0
0.0154,-0.0015558,0.012695,0.0021402,0.0044504,-0.0009726,0,0,0.053587,-0.015016,0,-0.012644,0,0,0,0.012783,0.0020514,0.0044504,-5.2213,0.0064284,0.0097563,3.8149e-08,0.3,0.56,0
0.016468,-0.0014897,0.012556,0.0020619,0.0043855,-0.00094393,0,0,0.053111,-0.015104,0,-0.012271,0,0,0,0.012641,0.0019776,0.0043855,-5.0989,0.0063346,0.0096863,3.7132e-08,0.32,0.56,0
0.017525,-0.001385,0.012391,0.0019681,0.0043078,-0.00089316,0,0,0.052542,-0.015208,0,-0.011611,0,0,0,0.012467,0.0018921,0.0043078,-4.8625,0.0062224,0.009598,3.5898e-08,0.34,0.56,0
0.018569,-0.0012363,0.012202,0.0018382,0.0042122,-0.00082178,0,0,0.051936,-0.015431,0,-0.010683,0,0,0,0.012267,0.0017734,0.0042122,-4.5055,0.0060842,0.0095117,3.4596e-08,0.36,0.56,0
0.019602,-0.0010398,0.01199,0.0016469,0.004091,-0.00073834,0,0,0.051342,-0.015887,0,-0.0095984,0,0,0,0.012042,0.0015945,0.004091,-4.0626,0.0059092,0.0094502,3.3361e-08,0.38,0.56,0
0.020623,-0.00079418,0.011751,0.0013786,0.0039388,-0.00066125,0,0,0.050778,-0.016641,0,-0.0085962,0,0,0,0.011793,0.0013366,0.0039388,-3.6331,0.0056894,0.0094283,3.2246e-08,0.4,0.56,0
0.021633,-0.00050286,0.01146,0.0010225,0.0037447,-0.00060779,0,0,0.050148,-0.017694,0,-0.0079013,0,0,0,0.011495,0.00098725,0.0037447,-3.3215,0.005409,0.0094363,3.1055e-08,0.42,0.56,0
0.022629,-0.00017189,0.011107,0.00061518,0.0035166,-0.00059892,0,0,0.049337,-0.018859,0,-0.0077859,0,0,0,0.011141,0.0005811,0.0035166,-3.2566,0.0050796,0.0094408,2.9549e-08,0.44,0.56,0
0.023607,0.00018715,0.01059,0.000117,0.0032122,-0.00060217,0,0,0.047958,-0.020119,0,-0.0078282,0,0,0,0.010625,8.2489e-05,0.0032122,-3.2798,0.0046399,0.0093778,2.7001e-08,0.46,0.56,0
0.024547,0.00057313,0.010117,-0.00028104,0.0029509,-0.0006418,0,0,0.046582,-0.021007,0,-0.0083433,0,0,0,0.010157,-0.00032051,0.0029509,-3.5186,0.0042624,0.0092844,2.4564e-08,0.48,0.56,0
0.02547,0.00095827,0.0094507,-0.0010822,0.0025106,-0.00063951,0,0,0.045111,-0.023353,0,-0.0083136,0,0,0,0.0094894,-0.0011209,0.0025106,-3.4618,0.0036264,0.00934,2.1533e-08,0.5,0.56,0
0.026352,0.0012752,0.0087545,-0.0016186,0.0021408,-0.00083225,0,0,0.042989,-0.024436,0,-0.010819,0,0,0,0.0088208,-0.0016849,0.0021408,-4.5581,0.0030922,0.0092095,1.8054e-08,0.52,0.56,0
0.027189,0.0014807,0.0082492,-0.001383,0.0020598,-0.00079424,0,0,0.040231,-0.022379,0,-0.010325,0,0,0,0.0083142,-0.0014481,0.0020598,-4.6823,0.0029753,0.0085652,1.4991e-08,0.54,0.56,0
0.027961,0.0015943,0.0077238,-0.0012808,0.0019329,-0.0005454,0,0,0.037641,-0.020889,0,-0.0070902,0,0,0,0.0077567,-0.0013137,0.0019329,-3.4535,0.002792,0.0079602,1.2141e-08,0.56,0.56,0
0.028695,0.0016565,0.0074662,-0.0012634,0.0018609,-0.00018532,0,0,0.036435,-0.020307,0,-0.0024091,0,0,0,0.0074701,-0.0012673,0.0018609,-1.2156,0.0026879,0.0076678,1.0846e-08,0.58,0.56,0
0.029418,0.0016797,0.0074564,-0.0013223,0.0018403,0.00019645,0,0,0.036505,-0.020556,0,0.0025538,0,0,0,0.0074608,-0.0013266,0.0018403,1.2813,0.0026581,0.0077084,1.0853e-08,0.6,0.56,0
0.030155,0.0016631,0.0076976,-0.0014594,0.0018714,0.00055238,0,0,0.03787,-0.021651,0,0.007181,0,0,0,0.0077308,-0.0014927,0.0018714,3.4396,0.0027032,0.0080846,1.2166e-08,0.62,0.56,0
0.030933,0.0015922,0.0082141,-0.0016887,0.0019576,0.00078863,0,0,0.040667,-0.023701,0,0.010252,0,0,0,0.0082765,-0.0017511,0.0019576,4.5248,0.0028277,0.0087817,1.5051e-08,0.64,0.56,0
0.031782,0.0014227,0.0087115,-0.0020626,0.0019947,0.0007965,0,0,0.043659,-0.026372,0,0.010355,0,0,0,0.0087701,-0.0021212,0.0019947,4.2053,0.0028812,0.0095254,1.8107e-08,0.66,0.56,0
0.03268,0.0011302,0.0093984,-0.0016423,0.0023268,0.00055147,0,0,0.045965,-0.025799,0,0.0071691,0,0,0,0.0094258,-0.0016698,0.0023268,2.8524,0.003361,0.0097335,2.1877e-08,0.68,0.56,0
0.033621,0.00075522,0.010063,-0.00089814,0.0027493,0.00049881,0,0,0.047536,-0.023709,0,0.0064845,0,0,0,0.010085,-0.00092079,0.0027493,2.6003,0.0039713,0.0097061,2.5341e-08,0.7,0.56,0
0.034581,0.00036733,0.010526,-0.00055729,0.0029905,0.00041386,0,0,0.048978,-0.023061,0,0.0053802,0,0,0,0.010541,-0.00057272,0.0029905,2.1356,0.0043196,0.0098291,2.805e-08,0.72,0.56,0
0.03558,-3.3735e-06,0.011034,-0.0001197,0.0032744,0.00036764,0,0,0.05044,-0.022062,0,0.0047793,0,0,0,0.011046,-0.00013181,0.0032744,1.8857,0.0047297,0.0099237,3.0986e-08,0.74,0.56,0
0.036599,-0.00035453,0.011385,0.00022823,0.0034839,0.00033586,0,0,0.051356,-0.021162,0,0.0043662,0,0,0,0.011395,0.00021812,0.0034839,1.7228,0.0050323,0.0099542,3.2886e-08,0.76,0.56,0
0.037634,-0.00067363,0.011676,0.00051981,0.0036587,0.00035033,0,0,0.052112,-0.020403,0,0.0045542,0,0,0,0.011687,0.00050882,0.0036587,1.7969,0.0052848,0.009983,3.4474e-08,0.78,0.56,0
0.038683,-0.00095356,0.01192,0.0007162,0.0037908,0.00039015,0,0,0.052839,-0.019985,0,0.0050719,0,0,0,0.011933,0.00070263,0.0037908,1.992,0.0054756,0.010049,3.6007e-08,0.8,0.56,0
0.039747,-0.0011901,0.012143,0.00082472,0.0038902,0.00043672,0,0,0.053641,-0.019926,0,0.0056774,0,0,0,0.01216,0.00080789,0.0038902,2.2065,0.0056192,0.010167,3.7724e-08,0.82,0.56,0
0.040829,-0.0013839,0.012348,0.00085923,0.0039623,0.00047003,0,0,0.054509,-0.02017,0,0.0061104,0,0,0,0.012368,0.00084003,0.0039623,2.3388,0.0057233,0.010327,3.9617e-08,0.84,0.56,0
0.041928,-0.0015384,0.012537,0.00084401,0.0040142,0.00047977,0,0,0.055396,-0.020606,0,0.0062371,0,0,0,0.012556,0.00082436,0.0040142,2.3457,0.0057983,0.010507,4.1581e-08,0.86,0.56,0
0.043045,-0.0016589,0.012704,0.00080008,0.0040511,0.00046303,0,0,0.056241,-0.021132,0,0.0060194,0,0,0,0.012722,0.0007821,0.0040511,2.2242,0.0058516,0.010687,4.3478e-08,0.88,0.56,0
0.044178,-0.0017509,0.012846,0.0007438,0.004077,0.00042188,0,0,0.057,-0.021666,0,0.0054845,0,0,0,0.012861,0.00072911,0.004077,1.9941,0.005889,0.010852,4.5196e-08,0.9,0.56,0
0.045325,-0.0018192,0.012963,0.00068644,0.0040947,0.00036045,0,0,0.057641,-0.022154,0,0.0046859,0,0,0,0.012973,0.00067587,0.0040947,1.6804,0.0059146,0.010994,4.666e-08,0.92,0.56,0
0.046483,-0.0018681,0.013052,0.00063562,0.0041064,0.00028333,0,0,0.058149,-0.02256,0,0.0036833,0,0,0,0.013059,0.00062916,0.0041064,1.3065,0.0059315,0.011107,4.7823e-08,0.94,0.56,0
0.047651,-0.0019008,0.013116,0.00059632,0.0041137,0.00019491,0,0,0.058515,-0.022863,0,0.0025339,0,0,0,0.013119,0.00059329,0.0041137,0.89172,0.005942,0.011189,4.8664e-08,0.96,0.56,0
0.048824,-0.0019195,0.013154,0.00057163,0.0041177,9.923e-05,0,0,0.058736,-0.023049,0,0.00129,0,0,0,0.013155,0.00057085,0.0041177,0.45182,0.0059478,0.011238,4.9172e-08,0.98,0.56,0
0.05,-0.0019256,0.013167,0.00056322,0.0041189,-2.3411e-05,0,0,0.05881,-0.023112,0,-0.00030434,0,0,0,0.013167,0.00056318,0.0041189,-0.10643,0.0059496,0.011255,4.9343e-08,1,0.56,0
0,0,0.012101,0.0051861,0.0051861,-0.001001,0,0,0.044946,3.2526e-19,0,-0.013013,0,0,0,0.012243,0.0050441,0.0051861,-8.0733,0.007491,0.0071288,1.8582e-08,0,0.58,0
0.00089892,-0.00026025,0.01207,0.0048392,0.0050729,-0.00099917,0,0,0.045484,-0.001519,0,-0.012989,0,0,0,0.012206,0.0047037,0.0050729,-7.724,0.0073275,0.0073247,2.001e-08,0.02,0.58,0
0.0018194,-0.00049722,0.012183,0.0045551,0.0050214,-0.00096203,0,0,0.04655,-0.0030309,0,-0.012506,0,0,0,0.012302,0.0044357,0.0050214,-7.0785,0.0072532,0.0075908,2.2014e-08,0.04,0.58,0
0.0027609,-0.00071331,0.012291,0.0042759,0.00497,-0.00093713,0,0,0.047586,-0.004512,0,-0.012183,0,0,0,0.012399,0.0041677,0.00497,-6.5809,0.0071789,0.0078609,2.4074e-08,0.06,0.58,0
0.0037228,-0.0009103,0.012392,0.0040049,0.004919,-0.00092181,0,0,0.048572,-0.0059414,0,-0.011983,0,0,0,0.012492,0.0039048,0.004919,-6.1989,0.0071052,0.0081275,2.6132e-08,0.08,0.58,0
0.0047038,-0.0010894,0.012483,0.0037454,0.0048685,-0.00091386,0,0,0.049494,-0.0073003,0,-0.01188,0,0,0,0.012578,0.0036508,0.0048685,-5.9073,0.0070323,0.0083844,2.8132e-08,0.1,0.58,0
0.0057025,-0.0012514,0.012563,0.0035,0.0048188,-0.0009114,0,0,0.050334,-0.0085719,0,-0.011848,0,0,0,0.012653,0.0034093,0.0048188,-5.6863,0.0069604,0.0086261,3.002e-08,0.12,0.58,0
0.0067172,-0.0013966,0.012628,0.0032711,0.0047698,-0.00091281,0,0,0.051079,-0.0097412,0,-0.011867,0,0,0,0.012716,0.0031829,0.0047698,-5.5201,0.0068897,0.0088474,3.1746e-08,0.14,0.58,0
0.0077457,-0.0015248,0.012677,0.0030606,0.0047214,-0.00091657,0,0,0.051714,-0.010795,0,-0.011915,0,0,0,0.012764,0.002974,0.0047214,-5.396,0.0068198,0.0090439,3.3261e-08,0.16,0.58,0
0.0087858,-0.0016356,0.012709,0.0028699,0.0046736,-0.00092115,0,0,0.052228,-0.011724,0,-0.011975,0,0,0,0.012794,0.0027844,0.0046736,-5.3029,0.0067507,0.0092117,3.4522e-08,0.18,0.58,0
0.0098348,-0.001728,0.012719,0.0026996,0.0046257,-0.00092488,0,0,0.052609,-0.01252,0,-0.012023,0,0,0,0.012804,0.0026149,0.0046257,-5.2298,0.0066816,0.0093474,3.5491e-08,0.2,0.58,0
0.01089,-0.0018008,0.012708,0.0025497,0.0045772,-0.00092579,0,0,0.052849,-0.013179,0,-0.012035,0,0,0,0.012792,0.002466,0.0045772,-5.1651,0.0066116,0.0094484,3.6137e-08,0.22,0.58,0
0.011949,-0.0018521,0.012672,0.0024192,0.0045274,-0.00092152,0,0,0.05294,-0.013703,0,-0.01198,0,0,0,0.012754,0.002337,0.0045274,-5.0953,0.0065395,0.009513,3.6437e-08,0.24,0.58,0
0.013008,-0.0018795,0.012611,0.0023056,0.0044748,-0.00090922,0,0,0.052882,-0.0141,0,-0.01182,0,0,0,0.01269,0.002226,0.0044748,-5.0038,0.0064636,0.0095406,3.6385e-08,0.26,0.58,0
0.014064,-0.0018802,0.012522,0.0022046,0.0044181,-0.0008856,0,0,0.052678,-0.014387,0,-0.011513,0,0,0,0.012598,0.0021292,0.0044181,-4.8704,0.0063817,0.0095325,3.5989e-08,0.28,0.58,0
0.015115,-0.0018507,0.012408,0.0021098,0.0043552,-0.00084722,0,0,0.05234,-0.014595,0,-0.011014,0,0,0,0.012477,0.0020405,0.0043552,-4.672,0.0062908,0.009493,3.5287e-08,0.3,0.58,0
0.016158,-0.0017871,0.012267,0.0020111,0.0042835,-0.00079112,0,0,0.051894,-0.01477,0,-0.010285,0,0,0,0.012328,0.0019505,0.0042835,-4.385,0.0061873,0.0094299,3.4342e-08,0.32,0.58,0
0.017191,-0.0016855,0.012103,0.0018957,0.0041998,-0.00071609,0,0,0.051374,-0.014977,0,-0.0093092,0,0,0,0.012153,0.0018457,0.0041998,-3.9933,0.0060663,0.0093556,3.325e-08,0.34,0.58,0
0.018213,-0.0015423,0.011919,0.0017473,0.0040997,-0.00062416,0,0,0.050822,-0.015291,0,-0.0081141,0,0,0,0.011957,0.0017091,0.0040997,-3.4985,0.0059218,0.0092859,3.2119e-08,0.36,0.58,0
0.019224,-0.0013551,0.011713,0.0015504,0.003979,-0.00052193,0,0,0.050271,-0.015786,0,-0.0067851,0,0,0,0.01174,0.0015237,0.003979,-2.9323,0.0057475,0.0092365,3.1035e-08,0.38,0.58,0
0.020223,-0.0011239,0.011483,0.0012927,0.0038326,-0.00041892,0,0,0.049725,-0.016509,0,-0.005446,0,0,0,0.0115,0.0012755,0.0038326,-2.3502,0.005536,0.0092158,3.001e-08,0.4,0.58,0
0.021212,-0.00085126,0.011223,0.00097448,0.0036592,-0.00032589,0,0,0.049163,-0.01745,0,-0.0042366,0,0,0,0.011233,0.00096412,0.0036592,-1.8195,0.0052854,0.0092217,2.8981e-08,0.42,0.58,0
0.02219,-0.00054297,0.010918,0.00059335,0.0034533,-0.00024324,0,0,0.048519,-0.01859,0,-0.0031621,0,0,0,0.010924,0.00058762,0.0034533,-1.3489,0.0049882,0.0092425,2.7795e-08,0.44,0.58,0
0.023153,-0.00020579,0.010601,0.00017847,0.003234,-0.00017398,0,0,0.047889,-0.019861,0,-0.0022618,0,0,0,0.010604,0.00017556,0.003234,-0.95603,0.0046713,0.0092855,2.6583e-08,0.46,0.58,0
0.024106,0.00014681,0.010255,-0.00035048,0.0029714,-0.00011428,0,0,0.047344,-0.021592,0,-0.0014856,0,0,0,0.010256,-0.00035171,0.0029714,-0.61727,0.004292,0.009398,2.5361e-08,0.48,0.58,0
0.025047,0.00048901,0.009879,-0.00096067,0.0026755,-0.00014391,0,0,0.046823,-0.023635,0,-0.0018708,0,0,0,0.0098809,-0.00096258,0.0026755,-0.76049,0.0038646,0.0095586,2.3945e-08,0.5,0.58,0
0.025979,0.00078169,0.009496,-0.0014139,0.0024246,-0.00022906,0,0,0.045964,-0.024951,0,-0.0029778,0,0,0,0.0095008,-0.0014187,0.0024246,-1.2023,0.0035023,0.0095938,2.2056e-08,0.52,0.58,0
0.026886,0.00099654,0.009136,-0.0015684,0.0022703,-0.00029709,0,0,0.044627,-0.024951,0,-0.0038622,0,0,0,0.0091442,-0.0015766,0.0022703,-1.5886,0.0032793,0.0094071,1.9925e-08,0.54,0.58,0
0.027763,0.0011337,0.0088457,-0.0015522,0.0021881,-0.00023686,0,0,0.043275,-0.024312,0,-0.0030792,0,0,0,0.0088511,-0.0015576,0.0021881,-1.3043,0.0031605,0.0091315,1.8104e-08,0.56,0.58,0
0.028617,0.0012061,0.0086611,-0.0015626,0.0021296,-8.0106e-05,0,0,0.042455,-0.023999,0,-0.0010414,0,0,0,0.0086617,-0.0015632,0.0021296,-0.4489,0.003076,0.0089682,1.7006e-08,0.58,0.58,0
0.029462,0.0012243,0.0086553,-0.0016191,0.0021109,0.00010856,0,0,0.042539,-0.024245,0,0.0014113,0,0,0,0.0086565,-0.0016202,0.0021109,0.60532,0.003049,0.0090105,1.7032e-08,0.6,0.58,0
0.030318,0.0011872,0.0088297,-0.001723,0.002132,0.0002572,0,0,0.043535,-0.025057,0,0.0033436,0,0,0,0.008836,-0.0017292,0.002132,1.3954,0.0030796,0.0092595,1.8187e-08,0.62,0.58,0
0.031203,0.0010818,0.0091115,-0.0018563,0.0021766,0.00029827,0,0,0.045077,-0.026214,0,0.0038776,0,0,0,0.0091196,-0.0018644,0.0021766,1.5567,0.0031439,0.0096225,2.0074e-08,0.64,0.58,0
0.032121,0.00089199,0.009463,-0.001816,0.0022941,0.00019644,0,0,0.046598,-0.026716,0,0.0025537,0,0,0,0.0094664,-0.0018194,0.0022941,0.99748,0.0033137,0.0098928,2.2327e-08,0.66,0.58,0
0.033067,0.00061478,0.0098362,-0.0014592,0.0025131,6.4782e-05,0,0,0.0476,-0.02582,0,0.00084217,0,0,0,0.0098365,-0.0014596,0.0025131,0.32859,0.00363,0.0099252,2.4463e-08,0.68,0.58,0
0.034025,0.00027677,0.010201,-0.00092079,0.0027842,-1.5575e-05,0,0,0.048212,-0.024082,0,-0.00020247,0,0,0,0.010201,-0.00092081,0.0027842,-0.080233,0.0040216,0.0098093,2.6205e-08,0.7,0.58,0
0.034995,-8.2593e-05,0.010535,-0.00045257,0.0030246,-4.0526e-06,0,0,0.048815,-0.022602,0,-5.2683e-05,0,0,0,0.010535,-0.00045257,0.0030246,-0.021133,0.0043689,0.0097266,2.7709e-08,0.72,0.58,0
0.035978,-0.00043642,0.010838,-9.7653e-05,0.0032222,2.0135e-05,0,0,0.049504,-0.021579,0,0.00026176,0,0,0,0.010838,-9.769e-05,0.0032222,0.10549,0.0046542,0.0097113,2.9178e-08,0.74,0.58,0
0.036976,-0.00077023,0.011133,0.00022149,0.0034064,5.9119e-05,0,0,0.050223,-0.020702,0,0.00076855,0,0,0,0.011133,0.00022117,0.0034064,0.31042,0.0049203,0.0097193,3.0647e-08,0.76,0.58,0
0.037987,-0.0010764,0.011387,0.00047389,0.0035582,0.00010951,0,0,0.050886,-0.020048,0,0.0014236,0,0,0,0.011388,0.0004728,0.0035582,0.57486,0.0051396,0.0097459,3.1974e-08,0.78,0.58,0
0.039011,-0.0013486,0.011615,0.00065872,0.0036821,0.00017024,0,0,0.051564,-0.019652,0,0.0022132,0,0,0,0.011618,0.00065607,0.0036821,0.89,0.0053186,0.0098053,3.3326e-08,0.8,0.58,0
0.040049,-0.0015836,0.011823,0.00077337,0.003779,0.00022979,0,0,0.052288,-0.019536,0,0.0029873,0,0,0,0.011828,0.0007686,0.003779,1.1908,0.0054585,0.0099035,3.4787e-08,0.82,0.58,0
0.041103,-0.001781,0.012016,0.00082847,0.0038534,0.00027748,0,0,0.053058,-0.019662,0,0.0036072,0,0,0,0.012023,0.00082159,0.0038534,1.4199,0.005566,0.010035,3.6378e-08,0.84,0.58,0
0.042172,-0.0019429,0.012193,0.0008386,0.0039095,0.00030555,0,0,0.053844,-0.019961,0,0.0039722,0,0,0,0.012201,0.00083038,0.0039095,1.5404,0.0056471,0.010187,3.8035e-08,0.86,0.58,0
0.043256,-0.0020726,0.012352,0.00081958,0.0039514,0.00031103,0,0,0.054602,-0.020357,0,0.0040434,0,0,0,0.01236,0.0008112,0.0039514,1.5438,0.0057076,0.010343,3.9664e-08,0.88,0.58,0
0.044356,-0.0021742,0.012489,0.00078487,0.0039822,0.00029449,0,0,0.055294,-0.020782,0,0.0038283,0,0,0,0.012496,0.00077746,0.0039822,1.4404,0.005752,0.01049,4.1171e-08,0.9,0.58,0
0.045468,-0.0022516,0.012603,0.0007449,0.0040043,0.00025869,0,0,0.05589,-0.021186,0,0.003363,0,0,0,0.012608,0.00073926,0.0040043,1.2492,0.005784,0.01062,4.2482e-08,0.92,0.58,0
0.046591,-0.002308,0.012692,0.00070721,0.0040197,0.00020738,0,0,0.056368,-0.021531,0,0.002696,0,0,0,0.012695,0.00070363,0.0040197,0.99107,0.0058062,0.010725,4.3543e-08,0.94,0.58,0
0.047723,-0.0023464,0.012755,0.00067701,0.0040297,0.00014455,0,0,0.056717,-0.021792,0,0.0018791,0,0,0,0.012757,0.00067529,0.0040297,0.68556,0.0058207,0.010802,4.432e-08,0.96,0.58,0
0.04886,-0.0023686,0.012793,0.00065766,0.0040353,7.4145e-05,0,0,0.056928,-0.021955,0,0.00096388,0,0,0,0.012794,0.0006572,0.0040353,0.35004,0.0058288,0.01085,4.4793e-08,0.98,0.58,0
0.05,-0.0023759,0.012806,0.000651,0.0040372,-2.7984e-05,0,0,0.056999,-0.02201,0,-0.00036379,0,0,0,0.012806,0.00065094,0.0040372,-0.13191,0.0058315,0.010866,4.4953e-08,1,0.58,0
0,0,0.011952,0.0051224,0.0051224,-0.0011143,0,0,0.044394,-4.8789e-19,0,-0.014485,0,0,0,0.012129,0.0049452,0.0051224,-9.0355,0.007399,0.0070973,1.8323e-08,0,0.6,0
0.00088789,-0.00028971,0.011924,0.0047948,0.0050156,-0.0011111,0,0,0.044904,-0.0014352,0,-0.014445,0,0,0,0.012093,0.0046257,0.0050156,-8.6566,0.0072448,0.0072803,1.9627e-08,0.02,0.6,0
0.0017962,-0.00055616,0.01203,0.0045229,0.0049658,-0.0010708,0,0,0.045917,-0.0028794,0,-0.013921,0,0,0,0.01218,0.0043731,0.0049658,-7.9612,0.0071729,0.0075277,2.1451e-08,0.04,0.6,0
0.0027246,-0.00080125,0.012132,0.0042529,0.0049154,-0.00104,0,0,0.046906,-0.0043058,0,-0.01352,0,0,0,0.012267,0.004118,0.0049154,-7.3944,0.0071,0.0077807,2.3337e-08,0.06,0.6,0
0.0036724,-0.0010263,0.012226,0.003989,0.0048646,-0.0010163,0,0,0.04785,-0.005691,0,-0.013211,0,0,0,0.01235,0.0038655,0.0048646,-6.9303,0.0070266,0.0080314,2.5225e-08,0.08,0.6,0
0.0046386,-0.0012322,0.012311,0.0037346,0.0048137,-0.00099746,0,0,0.048732,-0.007014,0,-0.012967,0,0,0,0.012425,0.0036201,0.0048137,-6.5473,0.0069531,0.0082734,2.7056e-08,0.1,0.6,0
0.0056217,-0.0014192,0.012384,0.0034927,0.0047629,-0.00098188,0,0,0.049535,-0.0082562,0,-0.012764,0,0,0,0.012491,0.0033856,0.0047629,-6.2276,0.0068797,0.0085006,2.8776e-08,0.12,0.6,0
0.00662,-0.0015875,0.012442,0.0032658,0.0047123,-0.00096797,0,0,0.050242,-0.0094018,0,-0.012584,0,0,0,0.012543,0.0031648,0.0047123,-5.9568,0.0068066,0.0087079,3.0335e-08,0.14,0.6,0
0.0076313,-0.0017365,0.012483,0.003056,0.0046618,-0.00095431,0,0,0.05084,-0.010438,0,-0.012406,0,0,0,0.012579,0.0029603,0.0046618,-5.7226,0.0067337,0.0088908,3.1685e-08,0.16,0.6,0
0.0086535,-0.0018657,0.012506,0.0028644,0.0046112,-0.00093947,0,0,0.051318,-0.011354,0,-0.012213,0,0,0,0.012597,0.0027737,0.0046112,-5.5136,0.0066606,0.0090455,3.2788e-08,0.18,0.6,0
0.009684,-0.0019739,0.012509,0.0026916,0.0045601,-0.00092189,0,0,0.051666,-0.012145,0,-0.011985,0,0,0,0.012595,0.0026058,0.0045601,-5.3185,0.0065869,0.0091692,3.361e-08,0.2,0.6,0
0.01072,-0.0020598,0.01249,0.0025373,0.0045081,-0.00089981,0,0,0.05188,-0.01281,0,-0.011697,0,0,0,0.01257,0.0024566,0.0045081,-5.1249,0.0065116,0.0092599,3.4129e-08,0.22,0.6,0
0.011759,-0.0021217,0.012447,0.0024,0.0044541,-0.00087112,0,0,0.051954,-0.013352,0,-0.011324,0,0,0,0.012522,0.0023251,0.0044541,-4.9188,0.0064338,0.0093167,3.4335e-08,0.24,0.6,0
0.012798,-0.0021574,0.012382,0.0022695,0.0043956,-0.00086975,0,0,0.051914,-0.013819,0,-0.011307,0,0,0,0.012457,0.0021953,0.0043956,-4.8799,0.0063492,0.0093573,3.4365e-08,0.26,0.6,0
0.013835,-0.0021643,0.012276,0.0021514,0.0043284,-0.00078494,0,0,0.051663,-0.01415,0,-0.010204,0,0,0,0.012337,0.0020909,0.0043284,-4.4067,0.0062521,0.0093308,3.3773e-08,0.28,0.6,0
0.014867,-0.0021396,0.012178,0.0020527,0.0042691,-0.00072096,0,0,0.051405,-0.014406,0,-0.0093724,0,0,0,0.012229,0.0020017,0.0042691,-4.0526,0.0061665,0.0093029,3.3215e-08,0.3,0.6,0
0.015891,-0.0020805,0.012043,0.0019364,0.0041938,-0.00064196,0,0,0.05102,-0.014673,0,-0.0083454,0,0,0,0.012084,0.0018958,0.0041938,-3.6199,0.0060577,0.0092554,3.2412e-08,0.32,0.6,0
0.016907,-0.001984,0.01189,0.0018032,0.0041078,-0.00054696,0,0,0.050581,-0.01498,0,-0.0071104,0,0,0,0.011919,0.0017736,0.0041078,-3.0949,0.0059335,0.0092031,3.1519e-08,0.34,0.6,0
0.017914,-0.0018479,0.011719,0.001641,0.0040081,-0.00043802,0,0,0.050123,-0.015386,0,-0.0056943,0,0,0,0.011738,0.001622,0.0040081,-2.4839,0.0057895,0.0091595,3.0622e-08,0.36,0.6,0
0.018912,-0.0016712,0.011534,0.0014382,0.0038918,-0.00031967,0,0,0.049677,-0.015948,0,-0.0041557,0,0,0,0.011545,0.0014281,0.0038918,-1.8117,0.0056215,0.0091372,2.9788e-08,0.38,0.6,0
0.019901,-0.0014545,0.011336,0.0011867,0.0037567,-0.00019839,0,0,0.049263,-0.016705,0,-0.002579,0,0,0,0.01134,0.0011828,0.0037567,-1.1194,0.0054264,0.0091456,2.9049e-08,0.4,0.6,0
0.020883,-0.0012009,0.011123,0.0008813,0.0036012,-8.005e-05,0,0,0.04889,-0.01768,0,-0.0010406,0,0,0,0.011123,0.00088067,0.0036012,-0.4478,0.0052018,0.0091896,2.8396e-08,0.42,0.6,0
0.021857,-0.00091549,0.010903,0.00052387,0.0034282,2.9085e-05,0,0,0.04859,-0.018878,0,0.00037811,0,0,0,0.010904,0.00052379,0.0034282,0.16055,0.0049519,0.0092752,2.7842e-08,0.44,0.6,0
0.022826,-0.00060729,0.010682,0.00010228,0.0032352,0.000122,0,0,0.048402,-0.020364,0,0.001586,0,0,0,0.010683,0.00010087,0.0032352,0.6606,0.004673,0.0094148,2.7395e-08,0.46,0.6,0
0.023793,-0.00029056,0.010462,-0.00038177,0.003024,0.00017306,0,0,0.048345,-0.022137,0,0.0022498,0,0,0,0.010464,-0.00038453,0.003024,0.91413,0.004368,0.0096093,2.6999e-08,0.48,0.6,0
0.02476,1.2863e-05,0.010236,-0.00088596,0.0028049,0.00016284,0,0,0.0483,-0.023991,0,0.0021169,0,0,0,0.010238,-0.00088835,0.0028049,0.83866,0.0040516,0.0098156,2.6416e-08,0.5,0.6,0
0.025725,0.00027723,0.010009,-0.0012967,0.0026137,9.2159e-05,0,0,0.04807,-0.025418,0,0.0011981,0,0,0,0.01001,-0.0012975,0.0026137,0.467,0.0037753,0.0099463,2.5473e-08,0.52,0.6,0
0.026683,0.00048268,0.0097983,-0.0015368,0.0024785,1.73e-05,0,0,0.047579,-0.026099,0,0.0002249,0,0,0,0.0097984,-0.0015368,0.0024785,0.087445,0.00358,0.0099547,2.4302e-08,0.54,0.6,0
0.027628,0.00062179,0.0096224,-0.0016482,0.0023923,-1.6234e-05,0,0,0.046996,-0.026263,0,-0.00021104,0,0,0,0.0096224,-0.0016482,0.0023923,-0.082528,0.0034555,0.0098901,2.3203e-08,0.56,0.6,0
0.028563,0.00069655,0.0095193,-0.0017044,0.0023445,2.0031e-06,0,0,0.046636,-0.026318,0,2.6041e-05,0,0,0,0.0095193,-0.0017044,0.0023445,0.010226,0.0033865,0.0098449,2.2557e-08,0.58,0.6,0
0.029494,0.00070993,0.0095148,-0.0017571,0.0023273,3.8047e-05,0,0,0.046719,-0.026549,0,0.00049461,0,0,0,0.0095149,-0.0017572,0.0023273,0.19339,0.0033616,0.0098845,2.2589e-08,0.6,0.6,0
0.030432,0.00066076,0.0096089,-0.0018065,0.0023407,4.6145e-05,0,0,0.047243,-0.026957,0,0.00059988,0,0,0,0.0096091,-0.0018066,0.0023407,0.2316,0.0033811,0.010009,2.3305e-08,0.62,0.6,0
0.031384,0.00054363,0.0097757,-0.0017994,0.0023929,-8.747e-06,0,0,0.047988,-0.02725,0,-0.00011371,0,0,0,0.0097757,-0.0017994,0.0023929,-0.043297,0.0034564,0.01015,2.4491e-08,0.64,0.6,0
0.032351,0.00035409,0.0099762,-0.0016581,0.0024954,-0.00011662,0,0,0.048625,-0.026998,0,-0.0015161,0,0,0,0.0099774,-0.0016592,0.0024954,-0.57426,0.0036045,0.010214,2.5796e-08,0.66,0.6,0
0.033328,9.7353e-05,0.010191,-0.0013341,0.002657,-0.00022982,0,0,0.048969,-0.025942,0,-0.0029877,0,0,0,0.010195,-0.0013387,0.002657,-1.142,0.0038378,0.010145,2.6945e-08,0.68,0.6,0
0.03431,-0.00020806,0.010402,-0.00090277,0.0028498,-0.00028737,0,0,0.049091,-0.024392,0,-0.0037358,0,0,0,0.01041,-0.00091007,0.0028498,-1.4552,0.0041164,0.0099855,2.778e-08,0.7,0.6,0
0.035292,-0.00053675,0.010606,-0.00048267,0.003037,-0.00028429,0,0,0.049199,-0.022878,0,-0.0036958,0,0,0,0.010613,-0.00048995,0.003037,-1.4676,0.0043868,0.0098266,2.8419e-08,0.72,0.6,0
0.036278,-0.00086652,0.010812,-0.00012222,0.0032068,-0.00023849,0,0,0.049432,-0.021639,0,-0.0031004,0,0,0,0.010817,-0.00012742,0.0032068,-1.249,0.0046321,0.0097162,2.909e-08,0.74,0.6,0
0.037269,-0.0011826,0.011016,0.0001728,0.0033567,-0.0001757,0,0,0.049787,-0.020695,0,-0.002284,0,0,0,0.011019,0.00016995,0.0033567,-0.92804,0.0048486,0.0096584,2.9863e-08,0.76,0.6,0
0.038269,-0.0014755,0.011217,0.00041182,0.0034887,-0.00010351,0,0,0.050235,-0.02,0,-0.0013456,0,0,0,0.011218,0.00041082,0.0034887,-0.5488,0.0050393,0.0096441,3.0746e-08,0.78,0.6,0
0.039279,-0.0017396,0.011408,0.00059068,0.0035995,-2.8729e-05,0,0,0.050753,-0.019557,0,-0.00037348,0,0,0,0.011408,0.0005906,0.0035995,-0.15217,0.0051993,0.0096704,3.1738e-08,0.8,0.6,0
0.040299,-0.0019716,0.011588,0.00071238,0.0036902,4.2074e-05,0,0,0.051338,-0.019356,0,0.00054696,0,0,0,0.011589,0.00071222,0.0036902,0.22164,0.0053303,0.0097352,3.2866e-08,0.82,0.6,0
0.041332,-0.0021703,0.011759,0.00078345,0.0037626,0.00010166,0,0,0.051974,-0.019365,0,0.0013216,0,0,0,0.01176,0.00078251,0.0037626,0.53065,0.0054349,0.0098318,3.4118e-08,0.84,0.6,0
0.042378,-0.0023368,0.011917,0.00081449,0.0038194,0.00014474,0,0,0.052633,-0.019532,0,0.0018816,0,0,0,0.011919,0.0008126,0.0038194,0.74677,0.0055169,0.0099495,3.5446e-08,0.86,0.6,0
0.043438,-0.0024732,0.01206,0.00081709,0.0038632,0.00016865,0,0,0.05328,-0.0198,0,0.0021924,0,0,0,0.012063,0.00081457,0.0038632,0.85918,0.0055801,0.010076,3.6777e-08,0.88,0.6,0
0.04451,-0.0025822,0.012186,0.00080219,0.0038964,0.00017333,0,0,0.053881,-0.020112,0,0.0022533,0,0,0,0.012188,0.00079955,0.0038964,0.87214,0.0056282,0.010199,3.8035e-08,0.9,0.6,0
0.045593,-0.0026667,0.012291,0.00077885,0.003921,0.0001606,0,0,0.054407,-0.020424,0,0.0020877,0,0,0,0.012294,0.00077661,0.003921,0.79905,0.0056637,0.010311,3.915e-08,0.92,0.6,0
0.046686,-0.0027294,0.012375,0.00075413,0.0039387,0.00013336,0,0,0.054835,-0.020699,0,0.0017336,0,0,0,0.012376,0.0007526,0.0039387,0.65739,0.0056892,0.010403,4.0067e-08,0.94,0.6,0
0.047786,-0.0027725,0.012435,0.00073312,0.0039504,9.5064e-05,0,0,0.05515,-0.020913,0,0.0012358,0,0,0,0.012436,0.00073235,0.0039504,0.46542,0.0057062,0.010472,4.0748e-08,0.96,0.6,0
0.048892,-0.0027977,0.012471,0.00071922,0.0039572,4.9379e-05,0,0,0.055342,-0.021047,0,0.00064193,0,0,0,0.012472,0.00071901,0.0039572,0.24074,0.0057159,0.010514,4.1165e-08,0.98,0.6,0
0.05,-0.002806,0.012483,0.00071438,0.0039594,-3.1884e-05,0,0,0.055407,-0.021092,0,-0.00041449,0,0,0,0.012484,0.00071429,0.0039594,-0.15522,0.0057191,0.010529,4.1307e-08,1,0.6,0
0,0,0.01181,0.0050613,0.0050613,-0.0012218,0,0,0.043865,-3.2526e-19,0,-0.015883,0,0,0,0.012024,0.0048469,0.0050613,-9.9524,0.0073108,0.0070724,1.8113e-08,0,0.62,0
0.00087729,-0.00031766,0.011783,0.0047489,0.0049596,-0.0012173,0,0,0.044352,-0.0013693,0,-0.015825,0,0,0,0.011988,0.0045442,0.0049596,-9.5457,0.0071638,0.0072447,1.9313e-08,0.02,0.62,0
0.0017741,-0.00061239,0.011884,0.0044861,0.0049111,-0.0011742,0,0,0.045324,-0.002762,0,-0.015264,0,0,0,0.012066,0.0043042,0.0049111,-8.8056,0.0070938,0.0074768,2.0991e-08,0.04,0.62,0
0.0026903,-0.00088554,0.011981,0.0042228,0.0048612,-0.0011376,0,0,0.046279,-0.0041492,0,-0.014789,0,0,0,0.012144,0.0040595,0.0048612,-8.1721,0.0070217,0.0077154,2.2732e-08,0.06,0.62,0
0.0036253,-0.0011379,0.012071,0.0039634,0.0048103,-0.0011053,0,0,0.047194,-0.0055049,0,-0.014368,0,0,0,0.012219,0.0038154,0.0048103,-7.6255,0.0069482,0.0079529,2.4477e-08,0.08,0.62,0
0.004578,-0.00137,0.012151,0.0037117,0.0047588,-0.0010754,0,0,0.04805,-0.0068064,0,-0.01398,0,0,0,0.012286,0.0035768,0.0047588,-7.1486,0.0068739,0.0081824,2.6168e-08,0.1,0.62,0
0.0055472,-0.0015816,0.012219,0.003471,0.0047069,-0.0010463,0,0,0.048827,-0.0080335,0,-0.013602,0,0,0,0.012342,0.0033476,0.0047069,-6.7264,0.0067989,0.0083978,2.775e-08,0.12,0.62,0
0.0065311,-0.0017726,0.012272,0.0032441,0.0046548,-0.0010167,0,0,0.049511,-0.0091696,0,-0.013217,0,0,0,0.012385,0.003131,0.0046548,-6.3464,0.0067236,0.008594,2.9174e-08,0.14,0.62,0
0.0075277,-0.0019423,0.012308,0.0030329,0.0046023,-0.0009853,0,0,0.050088,-0.010201,0,-0.012809,0,0,0,0.012412,0.0029294,0.0046023,-5.9973,0.0066478,0.0087664,3.0397e-08,0.16,0.62,0
0.0085347,-0.0020897,0.012326,0.0028387,0.0045495,-0.00095101,0,0,0.050549,-0.01112,0,-0.012363,0,0,0,0.01242,0.0027443,0.0045495,-5.6681,0.0065714,0.0089118,3.1383e-08,0.18,0.62,0
0.0095496,-0.0022138,0.012324,0.0026619,0.0044958,-0.0009125,0,0,0.050884,-0.01192,0,-0.011862,0,0,0,0.01241,0.0025765,0.0044958,-5.348,0.006494,0.0090277,3.2106e-08,0.2,0.62,0
0.01057,-0.0023132,0.012301,0.0025019,0.0044409,-0.00086831,0,0,0.051092,-0.012604,0,-0.011288,0,0,0,0.012378,0.0024256,0.0044409,-5.0248,0.0064147,0.009113,3.2553e-08,0.22,0.62,0
0.011593,-0.0023861,0.012257,0.0023569,0.0043841,-0.00081681,0,0,0.051172,-0.013177,0,-0.010618,0,0,0,0.012324,0.00229,0.0043841,-4.6851,0.0063326,0.0091678,3.2721e-08,0.24,0.62,0
0.012617,-0.0024308,0.012196,0.0022276,0.0043271,-0.00075723,0,0,0.051148,-0.013647,0,-0.009844,0,0,0,0.012253,0.0021704,0.0043271,-4.3193,0.0062502,0.0091961,3.2657e-08,0.26,0.62,0
0.013639,-0.0024452,0.012094,0.0020933,0.0042563,-0.00064264,0,0,0.050948,-0.01406,0,-0.0083544,0,0,0,0.012136,0.0020522,0.0042563,-3.6616,0.0061481,0.009182,3.2167e-08,0.28,0.62,0
0.014656,-0.002427,0.011998,0.0019736,0.0041914,-0.00060056,0,0,0.050741,-0.014416,0,-0.0078073,0,0,0,0.012034,0.0019378,0.0041914,-3.4164,0.0060542,0.0091789,3.1792e-08,0.3,0.62,0
0.015668,-0.0023741,0.011874,0.0018423,0.004115,-0.00050319,0,0,0.050436,-0.014773,0,-0.0065415,0,0,0,0.0119,0.0018171,0.004115,-2.8643,0.0059439,0.0091525,3.1166e-08,0.32,0.62,0
0.016674,-0.0022847,0.011737,0.001695,0.0040295,-0.00039293,0,0,0.050097,-0.015174,0,-0.0051081,0,0,0,0.011752,0.0016796,0.0040295,-2.2374,0.0058204,0.0091272,3.0499e-08,0.34,0.62,0
0.017672,-0.0021577,0.011588,0.0015221,0.0039329,-0.00027182,0,0,0.049756,-0.015671,0,-0.0035336,0,0,0,0.011595,0.0015147,0.0039329,-1.5457,0.0056809,0.0091151,2.9863e-08,0.36,0.62,0
0.018664,-0.001993,0.011431,0.0013145,0.0038236,-0.0001437,0,0,0.049447,-0.016309,0,-0.0018682,0,0,0,0.011433,0.0013124,0.0038236,-0.81367,0.005523,0.0091278,2.9321e-08,0.38,0.62,0
0.01965,-0.0017921,0.011269,0.001065,0.0037003,-1.3833e-05,0,0,0.049198,-0.017129,0,-0.00017983,0,0,0,0.011269,0.001065,0.0037003,-0.077671,0.0053448,0.0091751,2.8913e-08,0.4,0.62,0
0.020632,-0.0015584,0.011108,0.00076922,0.003563,0.0001112,0,0,0.049039,-0.01816,0,0.0014456,0,0,0,0.011109,0.00076803,0.003563,0.61619,0.0051466,0.009265,2.8664e-08,0.42,0.62,0
0.021611,-0.0012981,0.01095,0.0004233,0.0034121,0.00022318,0,0,0.048999,-0.019427,0,0.0029014,0,0,0,0.010955,0.00041857,0.0034121,1.214,0.0049286,0.0094042,2.8579e-08,0.44,0.62,0
0.022592,-0.0010203,0.010802,2.7964e-05,0.0032491,0.00030879,0,0,0.049096,-0.020937,0,0.0040143,0,0,0,0.010811,1.9121e-05,0.0032491,1.6403,0.0046932,0.009594,2.8632e-08,0.46,0.62,0
0.023575,-0.00073868,0.010663,-0.00040478,0.0030773,0.00035207,0,0,0.049304,-0.022634,0,0.0045769,0,0,0,0.010674,-0.00041597,0.0030773,1.8202,0.004445,0.0098206,2.8713e-08,0.48,0.62,0
0.024564,-0.00047063,0.010528,-0.0008347,0.002908,0.00033983,0,0,0.04953,-0.024327,0,0.0044178,0,0,0,0.010538,-0.00084486,0.002908,1.7115,0.0042004,0.010047,2.8653e-08,0.5,0.62,0
0.025557,-0.00023503,0.010398,-0.0012017,0.0027588,0.00027928,0,0,0.049653,-0.025743,0,0.0036306,0,0,0,0.010404,-0.0012085,0.0027588,1.3784,0.0039849,0.010224,2.8343e-08,0.52,0.62,0
0.02655,-4.7429e-05,0.010277,-0.0014645,0.0026438,0.00019535,0,0,0.049616,-0.026704,0,0.0025396,0,0,0,0.01028,-0.0014677,0.0026438,0.95292,0.0038188,0.010326,2.783e-08,0.54,0.62,0
0.027541,8.3155e-05,0.010179,-0.0016259,0.002566,0.00011706,0,0,0.049487,-0.027248,0,0.0015218,0,0,0,0.010181,-0.0016271,0.002566,0.56809,0.0037065,0.010368,2.7304e-08,0.56,0.62,0
0.028529,0.00015338,0.010121,-0.0017183,0.0025209,5.4056e-05,0,0,0.049403,-0.027555,0,0.00070272,0,0,0,0.010122,-0.0017185,0.0025209,0.26159,0.0036413,0.010391,2.6982e-08,0.58,0.62,0
0.029517,0.00016233,0.010116,-0.0017663,0.0025051,-4.1239e-06,0,0,0.049474,-0.027763,0,-5.3611e-05,0,0,0,0.010116,-0.0017663,0.0025051,-0.019885,0.0036184,0.010425,2.7011e-08,0.6,0.62,0
0.030509,0.00010891,0.010165,-0.0017692,0.0025186,-7.7685e-05,0,0,0.049699,-0.027871,0,-0.0010099,0,0,0,0.010165,-0.0017697,0.0025186,-0.37295,0.003638,0.010471,2.7395e-08,0.62,0.62,0
0.031505,-8.2494e-06,0.010252,-0.0017006,0.0025653,-0.00017713,0,0,0.04996,-0.027728,0,-0.0023027,0,0,0,0.010254,-0.0017032,0.0025653,-0.84888,0.0037054,0.010496,2.8e-08,0.64,0.62,0
0.032507,-0.00018792,0.01036,-0.0015253,0.0026503,-0.00029224,0,0,0.050111,-0.027141,0,-0.0037991,0,0,0,0.010367,-0.0015325,0.0026503,-1.4077,0.0038282,0.010455,2.8627e-08,0.66,0.62,0
0.03351,-0.0004229,0.010475,-0.0012376,0.0027713,-0.0003921,0,0,0.050076,-0.026058,0,-0.0050973,0,0,0,0.010488,-0.0012507,0.0027713,-1.9151,0.004003,0.010333,2.9098e-08,0.68,0.62,0
0.03451,-0.0006989,0.010593,-0.0008782,0.0029145,-0.00044884,0,0,0.049911,-0.024652,0,-0.0058349,0,0,0,0.010611,-0.00089574,0.0029145,-2.2372,0.0042098,0.010153,2.9351e-08,0.7,0.62,0
0.035506,-0.00099771,0.010714,-0.00050962,0.0030614,-0.00045254,0,0,0.049744,-0.023212,0,-0.005883,0,0,0,0.010733,-0.00052784,0.0030614,-2.3051,0.0044221,0.0099631,2.9469e-08,0.72,0.62,0
0.0365,-0.001302,0.010843,-0.00017583,0.0032002,-0.00041481,0,0,0.04968,-0.021944,0,-0.0053925,0,0,0,0.010859,-0.00019142,0.0032002,-2.1528,0.0046226,0.0098048,2.9607e-08,0.74,0.62,0
0.037493,-0.001598,0.010982,0.00010774,0.003327,-0.00035119,0,0,0.049759,-0.020925,0,-0.0045655,0,0,0,0.010993,9.6411e-05,0.003327,-1.8478,0.0048056,0.0096942,2.9875e-08,0.76,0.62,0
0.03849,-0.0018764,0.011127,0.00033759,0.0034395,-0.00027514,0,0,0.049971,-0.020162,0,-0.0035768,0,0,0,0.011134,0.00033058,0.0034395,-1.4598,0.0049682,0.0096332,3.031e-08,0.78,0.62,0
0.039492,-0.0021309,0.011275,0.00051535,0.0035372,-0.0001953,0,0,0.050297,-0.019642,0,-0.0025389,0,0,0,0.011279,0.00051181,0.0035372,-1.0395,0.0051093,0.009618,3.0917e-08,0.8,0.62,0
0.040502,-0.0023579,0.011422,0.00064343,0.0036195,-0.00011874,0,0,0.050714,-0.019345,0,-0.0015436,0,0,0,0.011423,0.00064212,0.0036195,-0.6311,0.0052282,0.0096433,3.1688e-08,0.82,0.62,0
0.041521,-0.0025556,0.011564,0.00072757,0.0036874,-5.1242e-05,0,0,0.051197,-0.019239,0,-0.00066615,0,0,0,0.011564,0.00072733,0.0036874,-0.27093,0.0053263,0.0097015,3.2598e-08,0.84,0.62,0
0.04255,-0.0027242,0.011699,0.00077559,0.0037422,2.8793e-06,0,0,0.051716,-0.019283,0,3.7432e-05,0,0,0,0.011699,0.00077559,0.0037422,0.015104,0.0054055,0.009783,3.36e-08,0.86,0.62,0
0.043589,-0.0028646,0.011823,0.00079645,0.0037857,4.1261e-05,0,0,0.05224,-0.01943,0,0.00053639,0,0,0,0.011823,0.0007963,0.0037857,0.2144,0.0054683,0.0098771,3.4634e-08,0.88,0.62,0
0.044639,-0.0029787,0.011933,0.0007989,0.0038195,6.344e-05,0,0,0.052737,-0.019634,0,0.00082472,0,0,0,0.011933,0.00079854,0.0038195,0.32645,0.0055171,0.0099735,3.5635e-08,0.9,0.62,0
0.045699,-0.0030685,0.012027,0.00079067,0.0038452,7.0522e-05,0,0,0.053179,-0.019854,0,0.00091679,0,0,0,0.012027,0.00079023,0.0038452,0.3596,0.0055541,0.010063,3.6539e-08,0.92,0.62,0
0.046767,-0.003136,0.012101,0.00077805,0.0038638,6.4701e-05,0,0,0.053544,-0.020058,0,0.00084111,0,0,0,0.012102,0.00077768,0.0038638,0.32737,0.0055811,0.01014,3.7294e-08,0.94,0.62,0
0.047841,-0.0031829,0.012156,0.00076578,0.0038765,4.8835e-05,0,0,0.053816,-0.02022,0,0.00063486,0,0,0,0.012156,0.00076557,0.0038765,0.24565,0.0055994,0.010197,3.7862e-08,0.96,0.62,0
0.048919,-0.0032105,0.012189,0.00075714,0.0038838,2.614e-05,0,0,0.053984,-0.020324,0,0.00033983,0,0,0,0.012189,0.00075708,0.0038838,0.13101,0.00561,0.010233,3.8213e-08,0.98,0.62,0
0.05,-0.0032196,0.0122,0.00075406,0.0038862,-3.502e-05,0,0,0.05404,-0.020359,0,-0.00045526,0,0,0,0.0122,0.00075395,0.0038862,-0.1753,0.0056135,0.010246,3.8333e-08,1,0.62,0
0,0,0.011675,0.0050036,0.0050036,-0.0013249,0,0,0.043365,3.2526e-19,0,-0.017224,0,0,0,0.011928,0.0047501,0.0050036,-10.831,0.0072274,0.0070551,1.7957e-08,0,0.64,0
0.00086729,-0.00034448,0.01165,0.004702,0.0049055,-0.0013191,0,0,0.043837,-0.0013226,0,-0.017149,0,0,0,0.011892,0.00446,0.0049055,-10.397,0.0070857,0.0072192,1.9076e-08,0.02,0.64,0
0.0017535,-0.00066664,0.011747,0.0044452,0.0048577,-0.0012736,0,0,0.044782,-0.0026815,0,-0.016557,0,0,0,0.011963,0.0042294,0.0048577,-9.6154,0.0070167,0.0074393,2.0638e-08,0.04,0.64,0
0.0026586,-0.00096722,0.011841,0.0041855,0.004808,-0.0012314,0,0,0.045715,-0.0040459,0,-0.016009,0,0,0,0.012034,0.0039924,0.004808,-8.9168,0.0069449,0.0076667,2.2264e-08,0.06,0.64,0
0.0035821,-0.0012465,0.011928,0.0039279,0.0047568,-0.0011906,0,0,0.046613,-0.0053879,0,-0.015477,0,0,0,0.012101,0.0037545,0.0047568,-8.2874,0.0068709,0.0078937,2.3895e-08,0.08,0.64,0
0.0045231,-0.0015044,0.012005,0.0036764,0.0047045,-0.0011494,0,0,0.047455,-0.0066827,0,-0.014942,0,0,0,0.012161,0.0035207,0.0047045,-7.7149,0.0067954,0.0081134,2.5473e-08,0.1,0.64,0
0.0054803,-0.0017406,0.01207,0.0034346,0.0046514,-0.0011066,0,0,0.048221,-0.0079089,0,-0.014386,0,0,0,0.01221,0.0032951,0.0046514,-7.1878,0.0067187,0.0083197,2.6946e-08,0.12,0.64,0
0.0064519,-0.0019542,0.01212,0.0032056,0.0045977,-0.0010612,0,0,0.048896,-0.0090488,0,-0.013796,0,0,0,0.012245,0.003081,0.0045977,-6.6959,0.0066411,0.0085074,2.8265e-08,0.14,0.64,0
0.0074361,-0.0021446,0.012154,0.0029913,0.0045435,-0.0010122,0,0,0.049466,-0.010089,0,-0.013159,0,0,0,0.012264,0.0028808,0.0045435,-6.2296,0.0065628,0.0086723,2.9391e-08,0.16,0.64,0
0.0084306,-0.0023105,0.012151,0.002784,0.0044804,-0.00098533,0,0,0.049856,-0.011026,0,-0.012809,0,0,0,0.012253,0.0026815,0.0044804,-5.9407,0.0064717,0.008811,3.0254e-08,0.18,0.64,0
0.009433,-0.0024507,0.012165,0.0026102,0.0044326,-0.00093608,0,0,0.050261,-0.011845,0,-0.012169,0,0,0,0.012256,0.0025194,0.0044326,-5.5431,0.0064026,0.0089348,3.1047e-08,0.2,0.64,0
0.010441,-0.002564,0.012143,0.0024481,0.0043774,-0.00087714,0,0,0.050478,-0.012541,0,-0.011403,0,0,0,0.012222,0.0023694,0.0043774,-5.1281,0.0063229,0.0090179,3.1461e-08,0.22,0.64,0
0.011452,-0.0026488,0.012102,0.0022957,0.0043193,-0.0007596,0,0,0.050587,-0.013153,0,-0.0098748,0,0,0,0.01216,0.0022372,0.0043193,-4.4032,0.006239,0.0090634,3.1541e-08,0.24,0.64,0
0.012464,-0.0027035,0.012036,0.0021495,0.0042557,-0.00068181,0,0,0.050574,-0.013691,0,-0.0088635,0,0,0,0.012083,0.0021027,0.0042557,-3.9264,0.0061472,0.0090971,3.1485e-08,0.26,0.64,0
0.013475,-0.0027265,0.011956,0.002013,0.0041907,-0.00059125,0,0,0.050475,-0.014155,0,-0.0076863,0,0,0,0.011991,0.0019779,0.0041907,-3.3911,0.0060533,0.0091107,3.1251e-08,0.28,0.64,0
0.014483,-0.0027163,0.01186,0.0018766,0.004121,-0.00049032,0,0,0.050304,-0.014589,0,-0.0063741,0,0,0,0.011884,0.0018525,0.004121,-2.805,0.0059525,0.0091116,3.0884e-08,0.3,0.64,0
0.015487,-0.0026714,0.011751,0.0017333,0.0040452,-0.00037893,0,0,0.050086,-0.015027,0,-0.0049261,0,0,0,0.011765,0.001719,0.0040452,-2.1632,0.0058431,0.0091086,3.0445e-08,0.32,0.64,0
0.016487,-0.002591,0.01165,0.0015979,0.0039743,-0.00030863,0,0,0.049891,-0.015447,0,-0.0040122,0,0,0,0.011659,0.0015885,0.0039743,-1.757,0.0057407,0.0091152,3.0098e-08,0.34,0.64,0
0.017481,-0.0024748,0.011533,0.0014586,0.0038976,-0.00021942,0,0,0.049632,-0.015853,0,-0.0028525,0,0,0,0.011538,0.0014538,0.0038976,-1.2471,0.0056298,0.0091116,2.9634e-08,0.36,0.64,0
0.018472,-0.0023236,0.011382,0.001206,0.0037765,-9.28e-06,0,0,0.049438,-0.016708,0,-0.00012064,0,0,0,0.011382,0.001206,0.0037765,-0.05225,0.005455,0.0091655,2.9309e-08,0.38,0.64,0
0.01946,-0.0021397,0.011253,0.00093881,0.0036574,0.00013127,0,0,0.049368,-0.017671,0,0.0017066,0,0,0,0.011254,0.00093714,0.0036574,0.72911,0.0052829,0.0092616,2.9247e-08,0.4,0.64,0
0.020447,-0.0019273,0.011133,0.00065301,0.0035358,0.0002521,0,0,0.049382,-0.018738,0,0.0032773,0,0,0,0.011139,0.00064695,0.0035358,1.3772,0.0051073,0.0093873,2.9315e-08,0.42,0.64,0
0.021435,-0.0016926,0.011024,0.00032664,0.0034052,0.00035474,0,0,0.049522,-0.020011,0,0.0046116,0,0,0,0.011036,0.00031489,0.0034052,1.8972,0.0049186,0.009558,2.9551e-08,0.44,0.64,0
0.022428,-0.0014448,0.010927,-3.5557e-05,0.0032674,0.00042775,0,0,0.049787,-0.021469,0,0.0055607,0,0,0,0.010944,-5.2222e-05,0.0032674,2.2311,0.0047196,0.0097687,2.9905e-08,0.46,0.64,0
0.023426,-0.0011959,0.010841,-0.00041777,0.0031271,0.00045927,0,0,0.050143,-0.023041,0,0.0059705,0,0,0,0.01086,-0.00043647,0.0031271,2.332,0.0045169,0.010003,3.0277e-08,0.48,0.64,0
0.024433,-0.00096023,0.010764,-0.0007906,0.002992,0.00044292,0,0,0.050517,-0.024587,0,0.005758,0,0,0,0.010781,-0.00080755,0.002992,2.1921,0.0043217,0.010232,3.0546e-08,0.5,0.64,0
0.025447,-0.0007525,0.010692,-0.0011176,0.0028724,0.0003826,0,0,0.050828,-0.025935,0,0.0049739,0,0,0,0.010705,-0.00113,0.0028724,1.8536,0.004149,0.010426,3.0632e-08,0.52,0.64,0
0.026466,-0.00058547,0.010628,-0.0013716,0.0027768,0.00029292,0,0,0.05103,-0.026965,0,0.0038079,0,0,0,0.010635,-0.0013787,0.0027768,1.3976,0.004011,0.010567,3.0549e-08,0.54,0.64,0
0.027488,-0.00046812,0.010576,-0.0015463,0.0027088,0.00019033,0,0,0.051134,-0.027658,0,0.0024743,0,0,0,0.010579,-0.0015493,0.0027088,0.89932,0.0039127,0.010657,3.0392e-08,0.56,0.64,0
0.028512,-0.00040564,0.010544,-0.0016503,0.0026681,8.4663e-05,0,0,0.051193,-0.028069,0,0.0011006,0,0,0,0.010545,-0.0016509,0.0026681,0.39777,0.0038539,0.01071,3.0282e-08,0.58,0.64,0
0.029536,-0.00040061,0.010538,-0.0016932,0.0026535,-2.4082e-05,0,0,0.05125,-0.028253,0,-0.00031307,0,0,0,0.010538,-0.0016932,0.0026535,-0.11281,0.0038328,0.010739,3.0299e-08,0.6,0.64,0
0.030562,-0.00045407,0.010558,-0.0016742,0.0026651,-0.00013992,0,0,0.051303,-0.028205,0,-0.001819,0,0,0,0.010559,-0.0016758,0.0026651,-0.65528,0.0038496,0.010744,3.0449e-08,0.62,0.64,0
0.031588,-0.00056549,0.010597,-0.001582,0.0027045,-0.00026255,0,0,0.051301,-0.027862,0,-0.0034132,0,0,0,0.010603,-0.0015877,0.0027045,-1.2344,0.0039064,0.01071,3.066e-08,0.64,0.64,0
0.032614,-0.00073157,0.010647,-0.0014062,0.0027721,-0.00038131,0,0,0.051184,-0.027159,0,-0.0049571,0,0,0,0.010659,-0.0014183,0.0027721,-1.8102,0.0040042,0.010621,3.0825e-08,0.66,0.64,0
0.033636,-0.00094496,0.010701,-0.0011518,0.0028649,-0.00047821,0,0,0.050937,-0.026108,0,-0.0062167,0,0,0,0.010721,-0.0011711,0.0028649,-2.3065,0.0041382,0.010474,3.0854e-08,0.68,0.64,0
0.034651,-0.0011942,0.01076,-0.00084569,0.0029743,-0.00053661,0,0,0.050607,-0.02483,0,-0.0069759,0,0,0,0.010785,-0.00087044,0.0029743,-2.6416,0.0042962,0.010287,3.0727e-08,0.7,0.64,0
0.03566,-0.0014652,0.010825,-0.00052589,0.0030897,-0.00055071,0,0,0.050279,-0.023502,0,-0.0071593,0,0,0,0.010852,-0.00055255,0.0030897,-2.7712,0.0044629,0.010089,3.0508e-08,0.72,0.64,0
0.036663,-0.0017443,0.0109,-0.00022428,0.0032028,-0.00052559,0,0,0.050034,-0.022276,0,-0.0068326,0,0,0,0.010925,-0.00024905,0.0032028,-2.699,0.0046263,0.0099098,3.0309e-08,0.74,0.64,0
0.037661,-0.0020196,0.010988,4.0658e-05,0.0033086,-0.00047248,0,0,0.049916,-0.021242,0,-0.0061422,0,0,0,0.011008,2.0304e-05,0.0033086,-2.4667,0.0047791,0.0097682,3.0224e-08,0.76,0.64,0
0.038659,-0.002282,0.011087,0.00026173,0.0034047,-0.00040271,0,0,0.049936,-0.020429,0,-0.0052353,0,0,0,0.011102,0.00024677,0.0034047,-2.1275,0.0049179,0.0096712,3.0308e-08,0.78,0.64,0
0.039659,-0.0025253,0.011195,0.00043758,0.0034897,-0.0003258,0,0,0.050082,-0.019839,0,-0.0042354,0,0,0,0.011204,0.00042772,0.0034897,-1.7332,0.0050406,0.0096186,3.0577e-08,0.8,0.64,0
0.040662,-0.0027454,0.011307,0.00057038,0.0035631,-0.00024906,0,0,0.050333,-0.019453,0,-0.0032378,0,0,0,0.011312,0.0005646,0.0035631,-1.3282,0.0051467,0.0096062,3.1021e-08,0.82,0.64,0
0.041672,-0.0029399,0.011419,0.00066443,0.0036251,-0.00017813,0,0,0.050662,-0.019245,0,-0.0023157,0,0,0,0.011422,0.00066148,0.0036251,-0.94862,0.0052363,0.0096274,3.1614e-08,0.84,0.64,0
0.042689,-0.0031082,0.011529,0.00072581,0.0036764,-0.00011702,0,0,0.051041,-0.019179,0,-0.0015213,0,0,0,0.01153,0.00072454,0.0036764,-0.62053,0.0053104,0.0096737,3.2315e-08,0.86,0.64,0
0.043714,-0.0032504,0.011632,0.0007615,0.003718,-6.8113e-05,0,0,0.05144,-0.019217,0,-0.00088546,0,0,0,0.011632,0.00076107,0.003718,-0.35899,0.0053705,0.0097357,3.3071e-08,0.88,0.64,0
0.044747,-0.0033675,0.011725,0.00077853,0.003751,-3.2219e-05,0,0,0.05183,-0.019321,0,-0.00041884,0,0,0,0.011725,0.00077843,0.003751,-0.16864,0.0054182,0.0098043,3.3824e-08,0.9,0.64,0
0.045787,-0.0034608,0.011805,0.00078336,0.0037765,-8.8105e-06,0,0,0.052185,-0.019455,0,-0.00011454,0,0,0,0.011805,0.00078335,0.0037765,-0.045802,0.0054549,0.0098714,3.4522e-08,0.92,0.64,0
0.046834,-0.0035317,0.011869,0.00078146,0.0037953,3.6609e-06,0,0,0.052482,-0.01959,0,4.7592e-05,0,0,0,0.011869,0.00078146,0.0037953,0.018917,0.0054821,0.0099303,3.5116e-08,0.94,0.64,0
0.047886,-0.0035813,0.011917,0.00077708,0.0038082,7.4492e-06,0,0,0.052706,-0.019702,0,9.684e-05,0,0,0,0.011917,0.00077707,0.0038082,0.038314,0.0055007,0.0099758,3.5567e-08,0.96,0.64,0
0.048942,-0.0036107,0.011946,0.00077326,0.0038157,5.2488e-06,0,0,0.052845,-0.019776,0,6.8234e-05,0,0,0,0.011946,0.00077325,0.0038157,0.026917,0.0055116,0.010004,3.5848e-08,0.98,0.64,0
0.05,-0.0036204,0.011956,0.00077178,0.0038182,-3.7371e-05,0,0,0.052893,-0.019802,0,-0.00048582,0,0,0,0.011956,0.00077166,0.0038182,-0.19145,0.0055151,0.010015,3.5946e-08,1,0.64,0
0,0,0.01155,0.00495,0.00495,-0.0014252,0,0,0.0429,-5.421e-20,0,-0.018528,0,0,0,0.011845,0.0046553,0.00495,-11.68,0.0071499,0.0070465,1.7864e-08,0,0.66,0
0.00085799,-0.00037056,0.011525,0.0046546,0.004854,-0.0014181,0,0,0.043364,-0.0012959,0,-0.018436,0,0,0,0.011806,0.0043734,0.004854,-11.216,0.0070113,0.0072049,1.8921e-08,0.02,0.66,0
0.0017346,-0.00071965,0.011621,0.0044003,0.0048064,-0.0013707,0,0,0.044295,-0.0026396,0,-0.017819,0,0,0,0.011872,0.0041489,0.0048064,-10.395,0.0069426,0.0074167,2.04e-08,0.04,0.66,0
0.0026298,-0.0010474,0.011713,0.0041412,0.0047564,-0.0013231,0,0,0.045221,-0.0039987,0,-0.017201,0,0,0,0.011938,0.0039167,0.0047564,-9.6315,0.0068703,0.0076362,2.1939e-08,0.06,0.66,0
0.0035434,-0.0013535,0.011799,0.0038824,0.0047044,-0.0012738,0,0,0.046115,-0.0053433,0,-0.01656,0,0,0,0.011999,0.0036825,0.0047044,-8.9192,0.0067953,0.0078555,2.3483e-08,0.08,0.66,0
0.0044744,-0.0016373,0.011875,0.0036285,0.004651,-0.0012214,0,0,0.046955,-0.0066466,0,-0.015878,0,0,0,0.012052,0.0034514,0.004651,-8.25,0.0067181,0.008068,2.4974e-08,0.1,0.66,0
0.0054216,-0.001898,0.011938,0.0033834,0.0045965,-0.0011648,0,0,0.047722,-0.0078856,0,-0.015143,0,0,0,0.012094,0.0032276,0.0045965,-7.6166,0.0066395,0.0082676,2.6362e-08,0.12,0.66,0
0.0063833,-0.0021346,0.011987,0.0031503,0.0045413,-0.0011036,0,0,0.048399,-0.0090415,0,-0.014346,0,0,0,0.012123,0.0030146,0.0045413,-7.0117,0.0065597,0.0084493,2.7601e-08,0.14,0.66,0
0.0073576,-0.0023458,0.01202,0.0029314,0.0044854,-0.0010371,0,0,0.048974,-0.010101,0,-0.013482,0,0,0,0.012137,0.0028146,0.0044854,-6.4281,0.0064789,0.0086092,2.8656e-08,0.16,0.66,0
0.0083423,-0.0025306,0.012015,0.0027158,0.0044191,-0.00097241,0,0,0.04937,-0.011072,0,-0.012641,0,0,0,0.012115,0.0026152,0.0044191,-5.9065,0.0063831,0.0087388,2.9412e-08,0.18,0.66,0
0.0093351,-0.0026875,0.012024,0.0025231,0.0043641,-0.00085024,0,0,0.049789,-0.011967,0,-0.011053,0,0,0,0.012099,0.0024476,0.0043641,-5.0738,0.0063037,0.0088506,3.0056e-08,0.2,0.66,0
0.010334,-0.0028153,0.012,0.0023456,0.0043037,-0.00076038,0,0,0.050027,-0.012728,0,-0.0098849,0,0,0,0.01206,0.0022861,0.0043037,-4.4758,0.0062165,0.0089372,3.0458e-08,0.22,0.66,0
0.011336,-0.0029127,0.011969,0.0021997,0.0042507,-0.0006753,0,0,0.050171,-0.013331,0,-0.008779,0,0,0,0.012016,0.0021533,0.0042507,-3.9355,0.0061399,0.008999,3.0684e-08,0.24,0.66,0
0.01234,-0.0029785,0.011913,0.0020566,0.0041908,-0.00061306,0,0,0.050193,-0.013873,0,-0.0079697,0,0,0,0.011951,0.0020186,0.0041908,-3.5455,0.0060534,0.009044,3.073e-08,0.26,0.66,0
0.013344,-0.0030114,0.011841,0.0019111,0.0041256,-0.00050667,0,0,0.05015,-0.014394,0,-0.0065867,0,0,0,0.011867,0.0018853,0.0041256,-2.9134,0.0059593,0.0090712,3.0598e-08,0.28,0.66,0
0.014346,-0.0030105,0.011756,0.0017655,0.0040566,-0.00039245,0,0,0.050049,-0.014892,0,-0.0051018,0,0,0,0.011772,0.0017502,0.0040566,-2.246,0.0058596,0.0090907,3.0372e-08,0.3,0.66,0
0.015346,-0.0029752,0.011662,0.0016137,0.0039828,-0.00027094,0,0,0.049917,-0.015399,0,-0.0035223,0,0,0,0.01167,0.0016064,0.0039828,-1.5434,0.0057529,0.0091105,3.0111e-08,0.32,0.66,0
0.016343,-0.0029052,0.011558,0.00143,0.0038965,-0.00014034,0,0,0.049802,-0.016032,0,-0.0018244,0,0,0,0.01156,0.0014281,0.0038965,-0.79369,0.0056283,0.0091512,2.9918e-08,0.34,0.66,0
0.017337,-0.0028013,0.011428,0.0011936,0.0037866,6.6436e-05,0,0,0.049672,-0.016855,0,0.00086367,0,0,0,0.011429,0.0011931,0.0037866,0.3719,0.0054695,0.0092168,2.9737e-08,0.36,0.66,0
0.01833,-0.0026648,0.011346,0.0010297,0.0037127,0.00016352,0,0,0.049617,-0.01744,0,0.0021257,0,0,0,0.011349,0.0010271,0.0037127,0.90783,0.0053629,0.0092752,2.9694e-08,0.38,0.66,0
0.019322,-0.0024989,0.011262,0.00081595,0.0036235,0.00024101,0,0,0.049653,-0.018249,0,0.0031332,0,0,0,0.011268,0.00081039,0.0036235,1.321,0.0052339,0.0093731,2.9804e-08,0.4,0.66,0
0.020316,-0.002308,0.011176,0.00054435,0.0035162,0.00035212,0,0,0.049791,-0.019317,0,0.0045775,0,0,0,0.011188,0.0005327,0.0035162,1.8948,0.005079,0.0095208,3.0094e-08,0.42,0.66,0
0.021313,-0.0020985,0.011102,0.00024175,0.0034032,0.00044186,0,0,0.050044,-0.02055,0,0.0057441,0,0,0,0.01112,0.00022381,0.0034032,2.3259,0.0049158,0.0097056,3.053e-08,0.44,0.66,0
0.022318,-0.0018791,0.011041,-8.506e-05,0.0032868,0.00050092,0,0,0.050403,-0.021917,0,0.0065119,0,0,0,0.011064,-0.00010757,0.0032868,2.5726,0.0047476,0.0099196,3.106e-08,0.46,0.66,0
0.02333,-0.0016603,0.010991,-0.00042181,0.0031708,0.00052121,0,0,0.050833,-0.023352,0,0.0067758,0,0,0,0.011015,-0.00044556,0.0031708,2.6093,0.0045801,0.010148,3.16e-08,0.48,0.66,0
0.024351,-0.0014541,0.01095,-0.0007468,0.0030609,0.00049879,0,0,0.051278,-0.02475,0,0.0064843,0,0,0,0.010971,-0.00076804,0.0030609,2.4374,0.0044213,0.010369,3.206e-08,0.5,0.66,0
0.025381,-0.0012724,0.010914,-0.0010356,0.0029635,0.00043636,0,0,0.051678,-0.025994,0,0.0056726,0,0,0,0.01093,-0.0010515,0.0029635,2.0885,0.0042806,0.010563,3.2379e-08,0.52,0.66,0
0.026418,-0.001126,0.010883,-0.0012688,0.0028841,0.00034258,0,0,0.05199,-0.026994,0,0.0044535,0,0,0,0.010892,-0.0012785,0.0028841,1.6136,0.004166,0.010714,3.2548e-08,0.54,0.66,0
0.02746,-0.0010232,0.010857,-0.0014369,0.002826,0.00022843,0,0,0.052201,-0.027709,0,0.0029695,0,0,0,0.010861,-0.0014412,0.002826,1.0641,0.004082,0.010819,3.2608e-08,0.56,0.66,0
0.028506,-0.0009694,0.01084,-0.0015391,0.0027902,0.00010267,0,0,0.052322,-0.02814,0,0.0013347,0,0,0,0.01084,-0.00154,0.0027902,0.47518,0.0040302,0.010882,3.2617e-08,0.58,0.66,0
0.029553,-0.0009678,0.010833,-0.0015771,0.0027767,-2.9548e-05,0,0,0.052364,-0.0283,0,-0.00038413,0,0,0,0.010833,-0.0015772,0.0027767,-0.13642,0.0040108,0.010906,3.2619e-08,0.6,0.66,0
0.030601,-0.0010193,0.010836,-0.0015501,0.0027857,-0.00016482,0,0,0.052325,-0.028183,0,-0.0021426,0,0,0,0.010838,-0.0015523,0.0027857,-0.76224,0.0040238,0.01089,3.2618e-08,0.62,0.66,0
0.031646,-0.0011227,0.010846,-0.0014552,0.0028173,-0.00029763,0,0,0.052187,-0.027771,0,-0.0038692,0,0,0,0.010853,-0.0014624,0.0028173,-1.3852,0.0040694,0.01083,3.2579e-08,0.64,0.66,0
0.032688,-0.0012743,0.010861,-0.0012919,0.0028706,-0.00041842,0,0,0.051934,-0.027056,0,-0.0054395,0,0,0,0.010875,-0.0013063,0.0028706,-1.9696,0.0041464,0.010721,3.2454e-08,0.66,0.66,0
0.033724,-0.0014672,0.010877,-0.0010691,0.0029425,-0.00051501,0,0,0.051577,-0.026075,0,-0.0066951,0,0,0,0.010899,-0.0010913,0.0029425,-2.4639,0.0042502,0.010568,3.2205e-08,0.68,0.66,0
0.034751,-0.0016921,0.010898,-0.00080627,0.0030275,-0.00057728,0,0,0.051158,-0.024919,0,-0.0075046,0,0,0,0.010926,-0.00083468,0.0030275,-2.8169,0.004373,0.010383,3.1839e-08,0.7,0.66,0
0.03577,-0.0019378,0.010925,-0.00052892,0.0031188,-0.00060112,0,0,0.05074,-0.02371,0,-0.0078146,0,0,0,0.010956,-0.00056039,0.0031188,-2.996,0.004505,0.010188,3.1408e-08,0.72,0.66,0
0.036781,-0.002193,0.010962,-0.00026054,0.0032106,-0.00058944,0,0,0.050387,-0.022562,0,-0.0076627,0,0,0,0.010993,-0.00029141,0.0032106,-2.9982,0.0046375,0.010004,3.0994e-08,0.74,0.66,0
0.037785,-0.0024477,0.011012,-1.75e-05,0.0032985,-0.0005497,0,0,0.05014,-0.021554,0,-0.0071461,0,0,0,0.01104,-4.4828e-05,0.0032985,-2.8461,0.0047644,0.0098481,3.0676e-08,0.76,0.66,0
0.038786,-0.0026936,0.011075,0.0001913,0.0033798,-0.00049098,0,0,0.050017,-0.020725,0,-0.0063828,0,0,0,0.011097,0.0001692,0.0033798,-2.5778,0.004882,0.0097282,3.0506e-08,0.78,0.66,0
0.039786,-0.0029245,0.011148,0.00036269,0.0034532,-0.00042176,0,0,0.050016,-0.020088,0,-0.0054828,0,0,0,0.011164,0.00034623,0.0034532,-2.236,0.0049879,0.0096475,3.0508e-08,0.8,0.66,0
0.040787,-0.003136,0.011229,0.00049718,0.0035178,-0.00034912,0,0,0.050121,-0.019634,0,-0.0045386,0,0,0,0.01124,0.00048584,0.0035178,-1.8613,0.0050812,0.0096042,3.0681e-08,0.82,0.66,0
0.041791,-0.0033254,0.011314,0.00059772,0.0035734,-0.0002786,0,0,0.050311,-0.019342,0,-0.0036217,0,0,0,0.011321,0.00059049,0.0035734,-1.4883,0.0051615,0.0095932,3.1003e-08,0.84,0.66,0
0.042799,-0.0034913,0.011399,0.00066884,0.0036203,-0.00021417,0,0,0.05056,-0.019184,0,-0.0027842,0,0,0,0.011403,0.00066456,0.0036203,-1.143,0.0052293,0.0096078,3.144e-08,0.86,0.66,0
0.043813,-0.0036333,0.011481,0.00071592,0.003659,-0.00015836,0,0,0.050841,-0.01913,0,-0.0020587,0,0,0,0.011483,0.00071359,0.003659,-0.84266,0.0052852,0.0096403,3.1948e-08,0.88,0.66,0
0.044833,-0.0037516,0.011556,0.0007446,0.0036902,-0.00011233,0,0,0.051127,-0.019146,0,-0.0014603,0,0,0,0.011557,0.00074343,0.0036902,-0.59524,0.0053302,0.0096826,3.2479e-08,0.9,0.66,0
0.045858,-0.0038467,0.011622,0.00076018,0.0037146,-7.6057e-05,0,0,0.051396,-0.019203,0,-0.00098874,0,0,0,0.011622,0.00075965,0.0037146,-0.40119,0.0053655,0.0097277,3.2987e-08,0.92,0.66,0
0.046889,-0.0039196,0.011675,0.00076731,0.0037328,-4.8569e-05,0,0,0.051626,-0.019276,0,-0.00063139,0,0,0,0.011676,0.0007671,0.0037328,-0.25511,0.0053918,0.0097692,3.3428e-08,0.94,0.66,0
0.047924,-0.003971,0.011715,0.00076971,0.0037454,-2.8203e-05,0,0,0.051802,-0.019342,0,-0.00036664,0,0,0,0.011715,0.00076963,0.0037454,-0.14763,0.00541,0.0098024,3.3769e-08,0.96,0.66,0
0.048961,-0.0040015,0.011739,0.00077006,0.0037528,-1.2822e-05,0,0,0.051912,-0.019388,0,-0.00016668,0,0,0,0.011739,0.00077004,0.0037528,-0.066973,0.0054207,0.0098236,3.3984e-08,0.98,0.66,0
0.05,-0.0040117,0.011747,0.00077,0.0037553,-3.8966e-05,0,0,0.05195,-0.019404,0,-0.00050656,0,0,0,0.011748,0.00076986,0.0037553,-0.20337,0.0054243,0.0098312,3.4059e-08,1,0.66,0
0,0,0.011436,0.004901,0.004901,-0.0015243,0,0,0.042475,-4.8789e-19,0,-0.019816,0,0,0,0.011774,0.0045629,0.004901,-12.505,0.0070792,0.0070478,1.7841e-08,0,0.68,0
0.0008495,-0.00039632,0.011411,0.0046072,0.0048056,-0.001516,0,0,0.042938,-0.0012898,0,-0.019708,0,0,0,0.011734,0.0042847,0.0048056,-12.009,0.0069414,0.0072029,1.8855e-08,0.02,0.68,0
0.0017175,-0.00077222,0.011507,0.0043519,0.0047577,-0.0014669,0,0,0.043871,-0.0026377,0,-0.01907,0,0,0,0.011796,0.0040628,0.0047577,-11.148,0.0068722,0.0074103,2.0281e-08,0.04,0.68,0
0.0026043,-0.0011272,0.011599,0.0040899,0.0047068,-0.0014143,0,0,0.044802,-0.0040097,0,-0.018385,0,0,0,0.011857,0.0038324,0.0047068,-10.32,0.0067987,0.007625,2.1763e-08,0.06,0.68,0
0.0035096,-0.0014602,0.011685,0.0038269,0.0046536,-0.0013565,0,0,0.045705,-0.0053737,0,-0.017635,0,0,0,0.011913,0.0035993,0.0046536,-9.5236,0.0067219,0.0078396,2.3244e-08,0.08,0.68,0
0.0044325,-0.0017703,0.011761,0.0035678,0.0045987,-0.0012928,0,0,0.046556,-0.0067007,0,-0.016806,0,0,0,0.01196,0.0033687,0.0045987,-8.7568,0.0066426,0.0080474,2.4672e-08,0.1,0.68,0
0.0053719,-0.002056,0.011825,0.0033172,0.0045426,-0.0012224,0,0,0.047335,-0.0079655,0,-0.015891,0,0,0,0.011997,0.003145,0.0045426,-8.0164,0.0065615,0.0082426,2.5996e-08,0.12,0.68,0
0.0063259,-0.0023159,0.011874,0.0030782,0.0044856,-0.0011453,0,0,0.048024,-0.0091482,0,-0.014889,0,0,0,0.012021,0.0029315,0.0044856,-7.2987,0.0064793,0.0084203,2.7175e-08,0.14,0.68,0
0.0072928,-0.0025486,0.011907,0.0028535,0.0044281,-0.0010617,0,0,0.048611,-0.010235,0,-0.013802,0,0,0,0.01203,0.0027307,0.0044281,-6.5997,0.0063961,0.0085771,2.8177e-08,0.16,0.68,0
0.0082704,-0.0027527,0.011922,0.0026443,0.00437,-0.00097159,0,0,0.04909,-0.011217,0,-0.012631,0,0,0,0.012023,0.0025436,0.00437,-5.9145,0.0063122,0.008711,2.8982e-08,0.18,0.68,0
0.0092564,-0.0029268,0.01192,0.0024507,0.0043113,-0.00087537,0,0,0.049459,-0.012094,0,-0.01138,0,0,0,0.012001,0.0023704,0.0043113,-5.2372,0.0062275,0.0088214,2.9584e-08,0.2,0.68,0
0.010249,-0.0030698,0.011901,0.0022717,0.0042518,-0.00077317,0,0,0.049721,-0.012871,0,-0.010051,0,0,0,0.011963,0.00221,0.0042518,-4.5614,0.0061416,0.0089092,2.9988e-08,0.22,0.68,0
0.011245,-0.0031807,0.011866,0.0021051,0.0041912,-0.0006651,0,0,0.049884,-0.01356,0,-0.0086463,0,0,0,0.011911,0.00206,0.0041912,-3.8803,0.006054,0.0089769,3.0212e-08,0.24,0.68,0
0.012244,-0.0032584,0.011815,0.0019479,0.004129,-0.00055127,0,0,0.049961,-0.014177,0,-0.0071665,0,0,0,0.011846,0.0019172,0.004129,-3.1877,0.0059641,0.0090285,3.0287e-08,0.26,0.68,0
0.013244,-0.0033023,0.011752,0.0017958,0.0040644,-0.00043189,0,0,0.049971,-0.014746,0,-0.0056145,0,0,0,0.011771,0.0017771,0.0040644,-2.4791,0.0058709,0.0090692,3.0253e-08,0.28,0.68,0
0.014243,-0.003312,0.011679,0.0016441,0.003997,-0.0003075,0,0,0.049935,-0.015294,0,-0.0039975,0,0,0,0.011689,0.0016346,0.003997,-1.7535,0.0057735,0.0091057,3.0156e-08,0.3,0.68,0
0.015241,-0.0032874,0.0116,0.0014871,0.003926,-0.00017918,0,0,0.049878,-0.015853,0,-0.0023293,0,0,0,0.011603,0.0014839,0.003926,-1.0148,0.0056709,0.0091456,3.0048e-08,0.32,0.68,0
0.016238,-0.0032291,0.011516,0.0013193,0.0038507,-4.8727e-05,0,0,0.049827,-0.016454,0,-0.00063345,0,0,0,0.011517,0.0013191,0.0038507,-0.27378,0.0055622,0.0091969,2.9981e-08,0.34,0.68,0
0.017234,-0.0031384,0.011434,0.0011353,0.0037707,8.1056e-05,0,0,0.049809,-0.01713,0,0.0010537,0,0,0,0.011434,0.0011347,0.0037707,0.45093,0.0054465,0.0092672,3e-08,0.36,0.68,0
0.01823,-0.0030174,0.011355,0.00093036,0.0036856,0.00020626,0,0,0.049851,-0.017909,0,0.0026814,0,0,0,0.011359,0.00092628,0.0036856,1.1331,0.0053237,0.0093632,3.0143e-08,0.38,0.68,0
0.019228,-0.0028697,0.011284,0.00070132,0.0035956,0.00032177,0,0,0.049974,-0.018813,0,0.004183,0,0,0,0.011294,0.00069155,0.0035956,1.74,0.0051936,0.0094895,3.0429e-08,0.4,0.68,0
0.020229,-0.0027,0.011223,0.00044729,0.0035012,0.00042128,0,0,0.050194,-0.01985,0,0.0054766,0,0,0,0.01124,0.00043085,0.0035012,2.2354,0.0050572,0.0096474,3.086e-08,0.42,0.68,0
0.021236,-0.0025146,0.011175,0.0001707,0.0034036,0.00049763,0,0,0.050512,-0.021014,0,0.0064692,0,0,0,0.011197,0.00014825,0.0034036,2.5841,0.0049163,0.0098339,3.141e-08,0.44,0.68,0
0.02225,-0.0023215,0.011138,-0.00012152,0.0033049,0.00054369,0,0,0.050915,-0.022272,0,0.007068,0,0,0,0.011164,-0.00014771,0.0033049,2.7581,0.0047738,0.010041,3.203e-08,0.46,0.68,0
0.023273,-0.00213,0.011112,-0.00041735,0.0032083,0.00055377,0,0,0.051371,-0.023567,0,0.0071991,0,0,0,0.011138,-0.00044389,0.0032083,2.7437,0.0046342,0.010256,3.2653e-08,0.48,0.68,0
0.024305,-0.0019502,0.011093,-0.00070053,0.0031176,0.00052543,0,0,0.051837,-0.024818,0,0.0068306,0,0,0,0.011116,-0.0007239,0.0031176,2.546,0.0045032,0.010462,3.3208e-08,0.5,0.68,0
0.025346,-0.0017923,0.011078,-0.0009535,0.0030374,0.00046056,0,0,0.052265,-0.025941,0,0.0059872,0,0,0,0.011096,-0.00097111,0.0030374,2.189,0.0043873,0.010644,3.3646e-08,0.52,0.68,0
0.026395,-0.0016652,0.011066,-0.0011613,0.0029713,0.00036505,0,0,0.052614,-0.026862,0,0.0047456,0,0,0,0.011077,-0.0011722,0.0029713,1.7086,0.0042919,0.010791,3.3946e-08,0.54,0.68,0
0.027451,-0.0015765,0.011055,-0.0013144,0.0029221,0.0002469,0,0,0.052862,-0.027537,0,0.0032097,0,0,0,0.01106,-0.0013194,0.0029221,1.1431,0.0042208,0.010896,3.4118e-08,0.56,0.68,0
0.02851,-0.0015313,0.011045,-0.0014084,0.002891,0.00011413,0,0,0.053002,-0.027946,0,0.0014837,0,0,0,0.011046,-0.0014094,0.002891,0.52504,0.004176,0.010958,3.4187e-08,0.58,0.68,0
0.029571,-0.0015326,0.011037,-0.0014417,0.0028786,-2.6292e-05,0,0,0.05303,-0.028082,0,-0.00034179,0,0,0,0.011037,-0.0014417,0.0028786,-0.12072,0.004158,0.010976,3.4172e-08,0.6,0.68,0
0.030631,-0.0015814,0.01103,-0.0014138,0.0028849,-0.00016787,0,0,0.052945,-0.027942,0,-0.0021822,0,0,0,0.011033,-0.0014161,0.0028849,-0.7727,0.0041671,0.010951,3.4078e-08,0.62,0.68,0
0.031689,-0.0016763,0.011024,-0.0013253,0.0029096,-0.00030328,0,0,0.052743,-0.027527,0,-0.0039427,0,0,0,0.011031,-0.0013327,0.0029096,-1.406,0.0042027,0.010882,3.3892e-08,0.64,0.68,0
0.032741,-0.0018138,0.011017,-0.0011798,0.0029512,-0.00042389,0,0,0.052429,-0.026851,0,-0.0055105,0,0,0,0.011032,-0.0011945,0.0029512,-1.988,0.0042629,0.01077,3.3596e-08,0.66,0.68,0
0.033786,-0.001988,0.011011,-0.00098637,0.0030074,-0.00052074,0,0,0.052023,-0.025959,0,-0.0067696,0,0,0,0.011033,-0.0010089,0.0030074,-2.4807,0.004344,0.01062,3.3186e-08,0.68,0.68,0
0.034822,-0.0021909,0.011007,-0.00076032,0.0030741,-0.00058687,0,0,0.051565,-0.024924,0,-0.0076293,0,0,0,0.011036,-0.00078952,0.0030741,-2.848,0.0044403,0.010445,3.2679e-08,0.7,0.68,0
0.035848,-0.0024136,0.011009,-0.00052004,0.0031467,-0.00061935,0,0,0.051106,-0.023834,0,-0.0080515,0,0,0,0.011042,-0.00055321,0.0031467,-3.0662,0.0045453,0.010259,3.2121e-08,0.72,0.68,0
0.036866,-0.0026468,0.01102,-0.00028314,0.0032211,-0.0006198,0,0,0.050694,-0.022777,0,-0.0080574,0,0,0,0.011054,-0.00031703,0.0032211,-3.1292,0.0046527,0.010079,3.1578e-08,0.74,0.68,0
0.037876,-0.0028817,0.011042,-6.3379e-05,0.0032937,-0.00059337,0,0,0.050367,-0.021821,0,-0.0077138,0,0,0,0.011074,-9.4992e-05,0.0032937,-3.0497,0.0047576,0.0099188,3.111e-08,0.76,0.68,0
0.03888,-0.0031111,0.011077,0.00013052,0.0033622,-0.00054692,0,0,0.050145,-0.021006,0,-0.0071099,0,0,0,0.011104,0.00010326,0.0033622,-2.8533,0.0048565,0.009787,3.0767e-08,0.78,0.68,0
0.039882,-0.0033289,0.011122,0.00029431,0.0034249,-0.00048754,0,0,0.050031,-0.020349,0,-0.006338,0,0,0,0.011144,0.0002724,0.0034249,-2.5729,0.0049471,0.009688,3.0574e-08,0.8,0.68,0
0.040882,-0.0035307,0.011176,0.00042716,0.003481,-0.00042158,0,0,0.050019,-0.01985,0,-0.0054806,0,0,0,0.011193,0.00041065,0.003481,-2.2426,0.0050282,0.0096217,3.0535e-08,0.82,0.68,0
0.041883,-0.0037136,0.011236,0.00053066,0.0035301,-0.00035425,0,0,0.050091,-0.019497,0,-0.0046052,0,0,0,0.011248,0.00051895,0.0035301,-1.8931,0.0050991,0.0095852,3.0638e-08,0.84,0.68,0
0.042885,-0.0038755,0.011299,0.00060794,0.0035722,-0.00028945,0,0,0.050226,-0.019267,0,-0.0037629,0,0,0,0.011307,0.00060011,0.0035722,-1.5497,0.0051598,0.0095735,3.0855e-08,0.86,0.68,0
0.043892,-0.0040156,0.011362,0.00066307,0.0036074,-0.00022984,0,0,0.050402,-0.019138,0,-0.0029879,0,0,0,0.011366,0.00065813,0.0036074,-1.2301,0.0052106,0.0095804,3.1153e-08,0.88,0.68,0
0.044901,-0.0041334,0.01142,0.00070045,0.0036361,-0.00017686,0,0,0.050595,-0.019082,0,-0.0022992,0,0,0,0.011423,0.00069753,0.0036361,-0.94496,0.0052522,0.0095995,3.1492e-08,0.9,0.68,0
0.045915,-0.004229,0.011472,0.00072438,0.0036589,-0.00013093,0,0,0.050784,-0.019074,0,-0.0017021,0,0,0,0.011473,0.00072278,0.0036589,-0.69788,0.005285,0.0096246,3.1833e-08,0.92,0.68,0
0.046933,-0.0043027,0.011515,0.00073871,0.003676,-9.1616e-05,0,0,0.050951,-0.019092,0,-0.001191,0,0,0,0.011515,0.00073793,0.003676,-0.48707,0.0053098,0.00965,3.214e-08,0.94,0.68,0
0.047953,-0.004355,0.011547,0.0007466,0.003688,-5.7794e-05,0,0,0.051082,-0.019119,0,-0.00075132,0,0,0,0.011547,0.00074629,0.003688,-0.30659,0.0053271,0.0096714,3.2381e-08,0.96,0.68,0
0.048976,-0.0043862,0.011566,0.00075039,0.0036951,-2.7883e-05,0,0,0.051164,-0.01914,0,-0.00036248,0,0,0,0.011567,0.00075032,0.0036951,-0.1477,0.0053373,0.0096856,3.2536e-08,0.98,0.68,0
0.05,-0.0043965,0.011573,0.00075149,0.0036974,-3.9876e-05,0,0,0.051192,-0.019148,0,-0.00051839,0,0,0,0.011573,0.00075135,0.0036974,-0.21112,0.0053407,0.0096908,3.259e-08,1,0.68,0
0,0,0.011333,0.0048572,0.0048572,-0.0016237,0,0,0.042096,4.3368e-19,0,-0.021108,0,0,0,0.011718,0.0044729,0.0048572,-13.315,0.0070159,0.0070605,1.7897e-08,0,0.7,0
0.00084191,-0.00042215,0.011309,0.0045602,0.0047608,-0.0016142,0,0,0.042565,-0.0013043,0,-0.020984,0,0,0,0.011676,0.004194,0.0047608,-12.782,0.0068768,0.0072148,1.8887e-08,0.02,0.7,0
0.0017026,-0.00082516,0.011406,0.0043001,0.0047119,-0.0015639,0,0,0.043513,-0.0026764,0,-0.020331,0,0,0,0.011735,0.0039711,0.0047119,-11.879,0.006806,0.0074213,2.0289e-08,0.04,0.7,0
0.0025824,-0.0012078,0.0115,0.0040317,0.0046595,-0.0015063,0,0,0.044463,-0.0040805,0,-0.019582,0,0,0,0.011792,0.0037394,0.0046595,-10.984,0.0067304,0.0076346,2.174e-08,0.06,0.7,0
0.0034811,-0.0015684,0.011587,0.0037613,0.0046046,-0.0014401,0,0,0.045388,-0.0054814,0,-0.018722,0,0,0,0.011844,0.0035047,0.0046046,-10.103,0.006651,0.0078473,2.3184e-08,0.08,0.7,0
0.0043979,-0.0019053,0.011665,0.0034943,0.0045477,-0.0013649,0,0,0.046261,-0.0068472,0,-0.017743,0,0,0,0.011887,0.0032723,0.0045477,-9.2372,0.0065689,0.0080528,2.4568e-08,0.1,0.7,0
0.0053315,-0.0022166,0.01173,0.0032357,0.0044896,-0.0012805,0,0,0.04706,-0.0081502,0,-0.016647,0,0,0,0.011919,0.0030469,0.0044896,-8.3894,0.006485,0.0082454,2.5845e-08,0.12,0.7,0
0.0062803,-0.0025005,0.01178,0.0029894,0.0044307,-0.0011875,0,0,0.047768,-0.0093687,0,-0.015438,0,0,0,0.011937,0.0028318,0.0044307,-7.5599,0.0063999,0.0084207,2.6977e-08,0.14,0.7,0
0.0072423,-0.0027552,0.011813,0.0027578,0.0043714,-0.0010868,0,0,0.048374,-0.010488,0,-0.014128,0,0,0,0.011942,0.0026292,0.0043714,-6.7483,0.0063143,0.0085756,2.7937e-08,0.16,0.7,0
0.0082153,-0.0029793,0.01183,0.0025424,0.0043118,-0.0009791,0,0,0.048871,-0.011501,0,-0.012728,0,0,0,0.011933,0.0024403,0.0043118,-5.9527,0.0062282,0.0087086,2.871e-08,0.18,0.7,0
0.0091971,-0.0031713,0.01183,0.0023432,0.0042521,-0.00086548,0,0,0.049259,-0.012408,0,-0.011251,0,0,0,0.011909,0.0022649,0.0042521,-5.17,0.0061418,0.0088197,2.9296e-08,0.2,0.7,0
0.010186,-0.0033302,0.011814,0.002159,0.0041919,-0.00074673,0,0,0.049544,-0.013214,0,-0.0097074,0,0,0,0.011871,0.0021016,0.0041919,-4.3964,0.006055,0.0089105,2.9704e-08,0.22,0.7,0
0.011179,-0.0034551,0.011783,0.0019876,0.0041311,-0.00062356,0,0,0.049736,-0.013933,0,-0.0081063,0,0,0,0.011822,0.0019481,0.0041311,-3.6279,0.0059672,0.0089839,2.9958e-08,0.24,0.7,0
0.012175,-0.0035455,0.011739,0.0018259,0.0040694,-0.00049664,0,0,0.04985,-0.014582,0,-0.0064564,0,0,0,0.011763,0.0018011,0.0040694,-2.861,0.005878,0.0090442,3.009e-08,0.26,0.7,0
0.013173,-0.0036012,0.011684,0.0016699,0.0040062,-0.00036673,0,0,0.049906,-0.015186,0,-0.0047675,0,0,0,0.011697,0.0016565,0.0040062,-2.0945,0.0057867,0.0090966,3.0138e-08,0.28,0.7,0
0.014171,-0.0036223,0.011622,0.0015151,0.003941,-0.00023481,0,0,0.049924,-0.015769,0,-0.0030525,0,0,0,0.011627,0.0015096,0.003941,-1.3302,0.0056925,0.0091474,3.0147e-08,0.3,0.7,0
0.01517,-0.0036093,0.011555,0.0013565,0.0038733,-0.00010231,0,0,0.049928,-0.016359,0,-0.00133,0,0,0,0.011556,0.0013555,0.0038733,-0.5747,0.0055948,0.0092032,3.0162e-08,0.32,0.7,0
0.016168,-0.0035634,0.011486,0.0011894,0.0038027,2.8727e-05,0,0,0.049944,-0.016987,0,0.00037346,0,0,0,0.011487,0.0011893,0.0038027,0.15985,0.0054928,0.009271,3.0227e-08,0.34,0.7,0
0.017168,-0.0034865,0.011421,0.0010092,0.0037289,0.00015544,0,0,0.049995,-0.017678,0,0.0020207,0,0,0,0.011423,0.0010069,0.0037289,0.85519,0.0053862,0.0093567,3.0378e-08,0.36,0.7,0
0.018168,-0.0033812,0.01136,0.00081244,0.0036517,0.0002741,0,0,0.050104,-0.018455,0,0.0035633,0,0,0,0.011367,0.00080533,0.0036517,1.4876,0.0052747,0.0094652,3.0642e-08,0.38,0.7,0
0.019172,-0.0032514,0.011308,0.00059694,0.0035714,0.00038003,0,0,0.050286,-0.019334,0,0.0049404,0,0,0,0.011321,0.00058347,0.0035714,2.0295,0.0051587,0.0095992,3.1031e-08,0.4,0.7,0
0.02018,-0.003102,0.011266,0.00036277,0.0034886,0.00046783,0,0,0.050552,-0.020318,0,0.0060818,0,0,0,0.011286,0.00034273,0.0034886,2.4524,0.0050391,0.0097583,3.1539e-08,0.42,0.7,0
0.021194,-0.0029391,0.011235,0.00011285,0.0034044,0.00053173,0,0,0.0509,-0.021395,0,0.0069125,0,0,0,0.01126,8.7483e-05,0.0034044,2.7309,0.0049174,0.0099387,3.214e-08,0.44,0.7,0
0.022216,-0.00277,0.011215,-0.00014647,0.0033205,0.00056633,0,0,0.051313,-0.022535,0,0.0073624,0,0,0,0.011243,-0.00017463,0.0033205,2.8466,0.0047963,0.010133,3.2792e-08,0.46,0.7,0
0.023246,-0.002603,0.011204,-0.00040533,0.0032395,0.00056769,0,0,0.051767,-0.023691,0,0.00738,0,0,0,0.011231,-0.00043302,0.0032395,2.7929,0.0046793,0.01033,3.3438e-08,0.48,0.7,0
0.024286,-0.0024468,0.011198,-0.00065126,0.0031641,0.0005343,0,0,0.052222,-0.0248,0,0.0069459,0,0,0,0.011222,-0.0006753,0.0031641,2.5765,0.0045704,0.010517,3.4024e-08,0.5,0.7,0
0.025335,-0.00231,0.011196,-0.00087103,0.0030975,0.00046775,0,0,0.052641,-0.025796,0,0.0060808,0,0,0,0.011214,-0.00088914,0.0030975,2.2165,0.0044742,0.010683,3.4506e-08,0.52,0.7,0
0.026392,-0.0022005,0.011194,-0.0010529,0.0030425,0.00037251,0,0,0.052988,-0.02662,0,0.0048427,0,0,0,0.011206,-0.0010642,0.0030425,1.7406,0.0043947,0.010818,3.4859e-08,0.54,0.7,0
0.027455,-0.0021247,0.011191,-0.0011881,0.0030009,0.00025499,0,0,0.053237,-0.027229,0,0.0033149,0,0,0,0.011196,-0.0011933,0.0030009,1.1795,0.0043347,0.010915,3.5078e-08,0.56,0.7,0
0.028522,-0.0020873,0.011185,-0.0012714,0.0029742,0.00012242,0,0,0.053373,-0.027597,0,0.0015914,0,0,0,0.011187,-0.0012727,0.0029742,0.56299,0.0042961,0.010971,3.5169e-08,0.58,0.7,0
0.02959,-0.0020911,0.011177,-0.0013005,0.0029628,-1.7892e-05,0,0,0.053389,-0.027711,0,-0.0002326,0,0,0,0.011177,-0.0013005,0.0029628,-0.082164,0.0042796,0.010984,3.5138e-08,0.6,0.7,0
0.030657,-0.002137,0.011164,-0.0012748,0.0029668,-0.00015859,0,0,0.053282,-0.02757,0,-0.0020617,0,0,0,0.011166,-0.0012768,0.0029668,-0.73034,0.0042854,0.010956,3.499e-08,0.62,0.7,0
0.031721,-0.0022238,0.011148,-0.0011961,0.0029856,-0.00029209,0,0,0.053057,-0.027181,0,-0.0037971,0,0,0,0.011155,-0.001203,0.0029856,-1.3547,0.0043126,0.010886,3.4724e-08,0.64,0.7,0
0.032779,-0.0023483,0.01113,-0.0010693,0.003018,-0.00041065,0,0,0.052724,-0.026568,0,-0.0053384,0,0,0,0.011143,-0.0010831,0.003018,-1.9258,0.0043594,0.010778,3.4339e-08,0.66,0.7,0
0.03383,-0.0025056,0.011109,-0.00090284,0.003062,-0.00050716,0,0,0.052308,-0.025771,0,-0.006593,0,0,0,0.011131,-0.00092422,0.003062,-2.4133,0.0044228,0.010638,3.3844e-08,0.68,0.7,0
0.034872,-0.002689,0.01109,-0.00070875,0.0031145,-0.00057636,0,0,0.051844,-0.024851,0,-0.0074927,0,0,0,0.011119,-0.00073684,0.0031145,-2.7899,0.0044988,0.010475,3.3265e-08,0.7,0.7,0
0.035904,-0.0028911,0.011076,-0.000501,0.0031725,-0.00061591,0,0,0.051373,-0.023878,0,-0.0080068,0,0,0,0.011109,-0.00053367,0.0031725,-3.0368,0.0045825,0.010302,3.2643e-08,0.72,0.7,0
0.036927,-0.0031041,0.011069,-0.00029321,0.0032327,-0.00062666,0,0,0.050935,-0.022918,0,-0.0081466,0,0,0,0.011103,-0.00032767,0.0032327,-3.1473,0.0046695,0.010131,3.2029e-08,0.74,0.7,0
0.037941,-0.0033205,0.011071,-9.6648e-05,0.0032924,-0.00061214,0,0,0.050563,-0.022029,0,-0.0079579,0,0,0,0.011105,-0.0001301,0.0032924,-3.128,0.0047557,0.0099743,3.1474e-08,0.76,0.7,0
0.038949,-0.0035338,0.011085,8.0732e-05,0.0033496,-0.0005775,0,0,0.050278,-0.021248,0,-0.0075074,0,0,0,0.011115,5.0508e-05,0.0033496,-2.996,0.0048383,0.0098388,3.1019e-08,0.78,0.7,0
0.039952,-0.0037384,0.011108,0.00023436,0.0034028,-0.00052841,0,0,0.050085,-0.020595,0,-0.0068693,0,0,0,0.011134,0.00020874,0.0034028,-2.7755,0.0049151,0.0097295,3.069e-08,0.8,0.7,0
0.040953,-0.00393,0.011141,0.00036251,0.003451,-0.0004703,0,0,0.049983,-0.020075,0,-0.0061139,0,0,0,0.011161,0.00034203,0.003451,-2.4938,0.0049847,0.009648,3.0495e-08,0.82,0.7,0
0.041952,-0.0041053,0.01118,0.00046566,0.0034937,-0.00040788,0,0,0.049961,-0.019682,0,-0.0053024,0,0,0,0.011196,0.00045016,0.0034937,-2.1769,0.0050465,0.0095928,3.0429e-08,0.84,0.7,0
0.042951,-0.004262,0.011224,0.00054579,0.0035308,-0.00034484,0,0,0.050002,-0.019402,0,-0.0044829,0,0,0,0.011235,0.00053466,0.0035308,-1.8478,0.0051,0.0095607,3.0472e-08,0.86,0.7,0
0.043952,-0.0043988,0.011268,0.00060581,0.0035622,-0.00028387,0,0,0.050089,-0.019216,0,-0.0036903,0,0,0,0.011276,0.00059825,0.0035622,-1.524,0.0051454,0.009547,3.0599e-08,0.88,0.7,0
0.044955,-0.0045149,0.011311,0.00064907,0.0035881,-0.00022664,0,0,0.050201,-0.019104,0,-0.0029463,0,0,0,0.011316,0.00064426,0.0035881,-1.2172,0.0051828,0.0095466,3.0779e-08,0.9,0.7,0
0.04596,-0.0046097,0.01135,0.00067899,0.0036088,-0.00017392,0,0,0.05032,-0.019044,0,-0.002261,0,0,0,0.011353,0.00067615,0.0036088,-0.93347,0.0052127,0.0095544,3.0979e-08,0.92,0.7,0
0.046967,-0.0046833,0.011383,0.00069867,0.0036245,-0.00012572,0,0,0.050431,-0.019018,0,-0.0016343,0,0,0,0.011385,0.00069719,0.0036245,-0.67403,0.0052354,0.0095658,3.117e-08,0.94,0.7,0
0.047977,-0.0047358,0.011408,0.00071075,0.0036356,-8.1415e-05,0,0,0.05052,-0.019011,0,-0.0010584,0,0,0,0.011408,0.00071013,0.0036356,-0.43604,0.0052514,0.0095768,3.1326e-08,0.96,0.7,0
0.048988,-0.0047672,0.011423,0.00071719,0.0036421,-3.996e-05,0,0,0.050577,-0.019012,0,-0.00051948,0,0,0,0.011423,0.00071704,0.0036421,-0.21385,0.0052608,0.0095846,3.1427e-08,0.98,0.7,0
0.05,-0.0047776,0.011428,0.0007192,0.0036443,-4.0195e-05,0,0,0.050597,-0.019013,0,-0.00052254,0,0,0,0.011428,0.00071905,0.0036443,-0.21505,0.0052639,0.0095876,3.1464e-08,1,0.7,0
0,0,0.011244,0.004819,0.004819,-0.001725,0,0,0.041765,5.421e-19,0,-0.022424,0,0,0,0.011678,0.0043852,0.004819,-14.116,0.0069608,0.007086,1.8043e-08,0,0.72,0
0.0008353,-0.00044849,0.01122,0.0045141,0.0047202,-0.0017143,0,0,0.042248,-0.0013397,0,-0.022286,0,0,0,0.011633,0.0041012,0.0047202,-13.54,0.006818,0.0072419,1.9027e-08,0.02,0.72,0
0.0016899,-0.00087928,0.011319,0.0042452,0.0046694,-0.0016631,0,0,0.043225,-0.002757,0,-0.021621,0,0,0,0.011691,0.0038738,0.0046694,-12.591,0.0067447,0.0074513,2.0433e-08,0.04,0.72,0
0.0025643,-0.0012904,0.011416,0.0039667,0.0046149,-0.0016006,0,0,0.044209,-0.0042133,0,-0.020808,0,0,0,0.011746,0.0036373,0.0046149,-11.627,0.0066659,0.0076664,2.1878e-08,0.06,0.72,0
0.0034583,-0.0016795,0.011506,0.0036853,0.0045575,-0.0015259,0,0,0.045167,-0.0056694,0,-0.019836,0,0,0,0.011793,0.0033981,0.0045575,-10.658,0.006583,0.0078799,2.3306e-08,0.08,0.72,0
0.004371,-0.0020442,0.011586,0.0034074,0.0044981,-0.0014387,0,0,0.046073,-0.0070891,0,-0.018703,0,0,0,0.011832,0.0031617,0.0044981,-9.6914,0.0064972,0.0080852,2.4664e-08,0.1,0.72,0
0.0053012,-0.002382,0.011653,0.0031388,0.0044375,-0.0013399,0,0,0.0469,-0.0084416,0,-0.017418,0,0,0,0.011859,0.0029329,0.0044375,-8.7355,0.0064097,0.0082768,2.5907e-08,0.12,0.72,0
0.006247,-0.0026907,0.011704,0.0028835,0.0043764,-0.0012306,0,0,0.047632,-0.0097033,0,-0.015998,0,0,0,0.011873,0.0027151,0.0043764,-7.7954,0.0063214,0.0084505,2.7e-08,0.14,0.72,0
0.0072064,-0.0029681,0.011739,0.0026445,0.0043151,-0.0011127,0,0,0.048257,-0.010859,0,-0.014465,0,0,0,0.011873,0.0025104,0.0043151,-6.8746,0.006233,0.0086038,2.7921e-08,0.16,0.72,0
0.0081773,-0.0032127,0.011757,0.002423,0.004254,-0.0009877,0,0,0.04877,-0.011902,0,-0.01284,0,0,0,0.01186,0.0023196,0.004254,-5.9746,0.0061447,0.0087358,2.8662e-08,0.18,0.72,0
0.0091573,-0.0034231,0.011759,0.0022189,0.0041932,-0.0008574,0,0,0.049175,-0.012833,0,-0.011146,0,0,0,0.011835,0.0021425,0.0041932,-5.0952,0.0060569,0.0088473,2.9227e-08,0.2,0.72,0
0.010144,-0.0035984,0.011745,0.0020309,0.0041327,-0.00072328,0,0,0.049478,-0.013661,0,-0.0094026,0,0,0,0.011798,0.0019774,0.0041327,-4.2351,0.0059694,0.0089402,2.9633e-08,0.22,0.72,0
0.011136,-0.003738,0.011717,0.0018567,0.0040721,-0.00058659,0,0,0.049692,-0.0144,0,-0.0076257,0,0,0,0.011752,0.0018219,0.0040721,-3.3925,0.005882,0.0090179,2.9906e-08,0.24,0.72,0
0.012132,-0.0038417,0.011678,0.0016929,0.0040113,-0.0004485,0,0,0.049834,-0.01507,0,-0.0058305,0,0,0,0.011698,0.0016728,0.0040113,-2.5667,0.0057941,0.0090848,3.0078e-08,0.26,0.72,0
0.01313,-0.0039097,0.01163,0.0015358,0.0039499,-0.00031016,0,0,0.049924,-0.015692,0,-0.0040321,0,0,0,0.01164,0.0015263,0.0039499,-1.7582,0.0057054,0.009146,3.0188e-08,0.28,0.72,0
0.014129,-0.0039427,0.011577,0.001381,0.0038874,-0.00017287,0,0,0.049982,-0.016291,0,-0.0022473,0,0,0,0.01158,0.0013781,0.0038874,-0.97109,0.0056151,0.0092072,3.0275e-08,0.3,0.72,0
0.015129,-0.0039417,0.011521,0.0012243,0.0038235,-3.8265e-05,0,0,0.050031,-0.016895,0,-0.00049744,0,0,0,0.011521,0.0012241,0.0038235,-0.21293,0.0055228,0.0092743,3.0379e-08,0.32,0.72,0
0.01613,-0.0039086,0.011465,0.0010613,0.0037578,9.1539e-05,0,0,0.050095,-0.017527,0,0.00119,0,0,0,0.011465,0.0010605,0.0037578,0.50409,0.0054279,0.0093528,3.0535e-08,0.34,0.72,0
0.017133,-0.0038455,0.011412,0.00088838,0.0036902,0.0002138,0,0,0.050194,-0.018212,0,0.0027794,0,0,0,0.011417,0.00088404,0.0036902,1.1634,0.0053303,0.0094474,3.0773e-08,0.36,0.72,0
0.018138,-0.0037556,0.011366,0.0007028,0.0036206,0.0003251,0,0,0.050345,-0.018966,0,0.0042262,0,0,0,0.011376,0.0006929,0.0036206,1.7447,0.0052298,0.0095614,3.1111e-08,0.38,0.72,0
0.019147,-0.0036431,0.011328,0.00050321,0.0035493,0.00042139,0,0,0.050561,-0.0198,0,0.0054781,0,0,0,0.011344,0.00048683,0.0035493,2.226,0.0051268,0.009696,3.1554e-08,0.4,0.72,0
0.02016,-0.0035127,0.0113,0.00029021,0.0034769,0.00049821,0,0,0.050847,-0.020714,0,0.0064767,0,0,0,0.011322,0.00026772,0.0034769,2.5858,0.0050222,0.0098499,3.2092e-08,0.42,0.72,0
0.021181,-0.0033704,0.011281,6.6746e-05,0.0034043,0.00055103,0,0,0.051199,-0.021694,0,0.0071634,0,0,0,0.011308,3.9735e-05,0.0034043,2.8063,0.0049174,0.010019,3.2702e-08,0.44,0.72,0
0.022208,-0.0032229,0.011272,-0.00016165,0.0033331,0.00057588,0,0,0.051602,-0.022716,0,0.0074864,0,0,0,0.011301,-0.00019058,0.0033331,2.8762,0.0048144,0.010197,3.3345e-08,0.46,0.72,0
0.023245,-0.0030776,0.01127,-0.00038696,0.0032649,0.00057005,0,0,0.052033,-0.023737,0,0.0074107,0,0,0,0.011298,-0.00041477,0.0032649,2.793,0.004716,0.010374,3.3976e-08,0.48,0.72,0
0.02429,-0.0029422,0.011273,-0.00059948,0.003202,0.00053277,0,0,0.05246,-0.02471,0,0.006926,0,0,0,0.011297,-0.00062334,0.003202,2.5643,0.0046251,0.010541,3.4551e-08,0.5,0.72,0
0.025343,-0.0028241,0.011277,-0.00078894,0.0031466,0.00046554,0,0,0.052851,-0.025581,0,0.006052,0,0,0,0.011295,-0.00080687,0.0031466,2.2062,0.004545,0.010689,3.5031e-08,0.52,0.72,0
0.026404,-0.00273,0.011281,-0.00094598,0.0031006,0.00037209,0,0,0.053174,-0.026303,0,0.0048372,0,0,0,0.011293,-0.0009573,0.0031006,1.7414,0.0044786,0.010808,3.5391e-08,0.54,0.72,0
0.02747,-0.0026656,0.011282,-0.0010632,0.0030656,0.00025785,0,0,0.053406,-0.026837,0,0.003352,0,0,0,0.011287,-0.0010686,0.0030656,1.196,0.0044281,0.010894,3.5618e-08,0.56,0.72,0
0.02854,-0.0026351,0.011278,-0.0011356,0.0030427,0.00012929,0,0,0.053529,-0.027159,0,0.0016807,0,0,0,0.011279,-0.001137,0.0030427,0.59664,0.004395,0.010943,3.5709e-08,0.58,0.72,0
0.029611,-0.002641,0.011269,-0.0011607,0.0030323,-6.6131e-06,0,0,0.053535,-0.027255,0,-8.597e-05,0,0,0,0.011269,-0.0011607,0.0030323,-0.030485,0.00438,0.010952,3.5665e-08,0.6,0.72,0
0.030681,-0.0026842,0.011253,-0.0011381,0.0030345,-0.00014266,0,0,0.053421,-0.027122,0,-0.0018546,0,0,0,0.011255,-0.0011398,0.0030345,-0.65954,0.0043832,0.010923,3.5489e-08,0.62,0.72,0
0.031748,-0.0027636,0.011232,-0.0010701,0.0030486,-0.00027168,0,0,0.053193,-0.026772,0,-0.0035318,0,0,0,0.011238,-0.0010761,0.0030486,-1.2645,0.0044036,0.010856,3.5185e-08,0.64,0.72,0
0.032809,-0.0028765,0.011207,-0.00096121,0.0030737,-0.0003868,0,0,0.052866,-0.026227,0,-0.0050283,0,0,0,0.011219,-0.00097349,0.0030737,-1.8188,0.0044398,0.010756,3.4762e-08,0.66,0.72,0
0.033863,-0.0030188,0.011179,-0.00081887,0.0031081,-0.00048208,0,0,0.052462,-0.025525,0,-0.006267,0,0,0,0.011199,-0.00083821,0.0031081,-2.2972,0.0044894,0.010628,3.4235e-08,0.68,0.72,0
0.034908,-0.003185,0.011151,-0.00065275,0.0031496,-0.00055324,0,0,0.052011,-0.024715,0,-0.0071921,0,0,0,0.011177,-0.00067863,0.0031496,-2.6775,0.0045494,0.01048,3.3631e-08,0.7,0.72,0
0.035943,-0.0033688,0.011126,-0.00047375,0.0031958,-0.0005982,0,0,0.051549,-0.023852,0,-0.0077766,0,0,0,0.011157,-0.00050451,0.0031958,-2.9442,0.0046162,0.010322,3.2986e-08,0.72,0.72,0
0.036969,-0.0035635,0.011107,-0.00029255,0.0032444,-0.00061728,0,0,0.051108,-0.02299,0,-0.0080247,0,0,0,0.01114,-0.00032588,0.0032444,-3.0905,0.0046863,0.010163,3.2343e-08,0.74,0.72,0
0.037987,-0.0037629,0.011096,-0.0001184,0.0032932,-0.00061288,0,0,0.050717,-0.022176,0,-0.0079674,0,0,0,0.011129,-0.0001518,0.0032932,-3.1189,0.0047569,0.010013,3.1744e-08,0.76,0.72,0
0.038998,-0.003961,0.011094,4.1739e-05,0.0033406,-0.00058878,0,0,0.050394,-0.021442,0,-0.0076542,0,0,0,0.011125,1.046e-05,0.0033406,-3.041,0.0048253,0.0098796,3.1224e-08,0.78,0.72,0
0.040003,-0.0041526,0.0111,0.0001834,0.0033852,-0.00054947,0,0,0.05015,-0.020812,0,-0.0071431,0,0,0,0.011128,0.00015581,0.0033852,-2.8741,0.0048897,0.0097666,3.0807e-08,0.8,0.72,0
0.041004,-0.0043337,0.011116,0.00030438,0.0034261,-0.00049943,0,0,0.049984,-0.020291,0,-0.0064926,0,0,0,0.011139,0.00028135,0.0034261,-2.6392,0.0049488,0.0096764,3.0504e-08,0.82,0.72,0
0.042002,-0.0045009,0.011138,0.00040436,0.0034628,-0.00044276,0,0,0.04989,-0.01988,0,-0.0057559,0,0,0,0.011156,0.00038612,0.0034628,-2.3581,0.0050018,0.0096088,3.0313e-08,0.84,0.72,0
0.043,-0.0046516,0.011165,0.00048439,0.0034949,-0.00038287,0,0,0.049857,-0.019568,0,-0.0049773,0,0,0,0.011179,0.00047068,0.0034949,-2.0503,0.0050482,0.0095618,3.0224e-08,0.86,0.72,0
0.043997,-0.0047843,0.011195,0.00054646,0.0035224,-0.00032238,0,0,0.049871,-0.019343,0,-0.0041909,0,0,0,0.011205,0.00053671,0.0035224,-1.7325,0.0050879,0.0095324,3.0217e-08,0.88,0.72,0
0.044994,-0.0048975,0.011225,0.00059303,0.0035453,-0.00026307,0,0,0.049915,-0.01919,0,-0.0034199,0,0,0,0.011231,0.00058652,0.0035453,-1.4166,0.005121,0.0095166,3.0269e-08,0.9,0.72,0
0.045993,-0.0049907,0.011252,0.00062672,0.0035637,-0.00020599,0,0,0.049976,-0.01909,0,-0.0026778,0,0,0,0.011256,0.00062272,0.0035637,-1.1102,0.0051476,0.0095104,3.0355e-08,0.92,0.72,0
0.046994,-0.0050634,0.011276,0.00065,0.0035778,-0.0001515,0,0,0.050038,-0.019031,0,-0.0019696,0,0,0,0.011278,0.00064784,0.0035778,-0.8167,0.0051679,0.0095101,3.045e-08,0.94,0.72,0
0.047995,-0.0051154,0.011294,0.00066499,0.0035877,-9.9445e-05,0,0,0.050091,-0.018998,0,-0.0012928,0,0,0,0.011295,0.00066406,0.0035877,-0.53599,0.0051823,0.0095123,3.0535e-08,0.96,0.72,0
0.048997,-0.0051467,0.011305,0.00067332,0.0035936,-4.9228e-05,0,0,0.050127,-0.018982,0,-0.00063997,0,0,0,0.011306,0.00067309,0.0035936,-0.26528,0.0051908,0.0095146,3.0592e-08,0.98,0.72,0
0.05,-0.0051571,0.011309,0.00067598,0.0035956,-4.0031e-05,0,0,0.050139,-0.018977,0,-0.0005204,0,0,0,0.011309,0.00067583,0.0035956,-0.21569,0.0051936,0.0095158,3.0614e-08,1,0.72,0
0,0,0.01117,0.004787,0.004787,-0.0018298,0,0,0.041487,-3.2526e-19,0,-0.023787,0,0,0,0.011657,0.0042997,0.004787,-14.914,0.0069146,0.0071262,1.8294e-08,0,0.74,0
0.00082975,-0.00047574,0.011144,0.0044693,0.0046841,-0.001818,0,0,0.041992,-0.0013962,0,-0.023634,0,0,0,0.011607,0.0040063,0.0046841,-14.289,0.0067659,0.0072859,1.9286e-08,0.02,0.74,0
0.0016797,-0.00093544,0.011248,0.0041874,0.0046307,-0.0017661,0,0,0.043014,-0.0028811,0,-0.02296,0,0,0,0.011665,0.0037703,0.0046307,-13.289,0.0066888,0.0075019,2.0726e-08,0.04,0.74,0
0.0025503,-0.0013763,0.011349,0.0038944,0.0045731,-0.0016986,0,0,0.044045,-0.0044113,0,-0.022082,0,0,0,0.011718,0.0035256,0.0045731,-12.25,0.0066056,0.0077221,2.219e-08,0.06,0.74,0
0.0034415,-0.0017952,0.011443,0.0035983,0.0045124,-0.0016147,0,0,0.045049,-0.0059419,0,-0.020991,0,0,0,0.011762,0.0032789,0.0045124,-11.188,0.0065179,0.007939,2.3621e-08,0.08,0.74,0
0.0043523,-0.0021889,0.011526,0.0033065,0.0044497,-0.0015149,0,0,0.045995,-0.0074309,0,-0.019693,0,0,0,0.011796,0.0030362,0.0044497,-10.117,0.0064274,0.0081458,2.4966e-08,0.1,0.74,0
0.0052813,-0.0025543,0.011595,0.0030256,0.0043861,-0.0014007,0,0,0.046856,-0.0088432,0,-0.018209,0,0,0,0.011818,0.0028025,0.0043861,-9.0516,0.0063355,0.0083371,2.618e-08,0.12,0.74,0
0.0062265,-0.0028886,0.011647,0.0027603,0.0043222,-0.0012745,0,0,0.047612,-0.010153,0,-0.016568,0,0,0,0.011826,0.0025811,0.0043222,-8.0019,0.0062432,0.0085094,2.7233e-08,0.14,0.74,0
0.0071858,-0.0031896,0.011683,0.0025135,0.0042588,-0.0011389,0,0,0.048254,-0.011345,0,-0.014806,0,0,0,0.011822,0.0023741,0.0042588,-6.9756,0.0061516,0.0086606,2.8111e-08,0.16,0.74,0
0.0081567,-0.0034553,0.011701,0.0022864,0.0041961,-0.0009967,0,0,0.048779,-0.012413,0,-0.012957,0,0,0,0.011805,0.0021821,0.0041961,-5.9777,0.0060611,0.0087907,2.8811e-08,0.18,0.74,0
0.0091369,-0.0036846,0.011702,0.0020788,0.0041344,-0.0008503,0,0,0.049193,-0.013361,0,-0.011054,0,0,0,0.011777,0.0020042,0.0041344,-5.0106,0.0059719,0.0089009,2.9345e-08,0.2,0.74,0
0.010124,-0.0038766,0.01169,0.0018889,0.0040735,-0.00070182,0,0,0.049504,-0.0142,0,-0.0091237,0,0,0,0.011739,0.0018388,0.0040735,-4.0752,0.005884,0.008994,2.9734e-08,0.22,0.74,0
0.011117,-0.0040311,0.011664,0.001714,0.0040135,-0.00055306,0,0,0.04973,-0.014946,0,-0.0071897,0,0,0,0.011695,0.0016834,0.0040135,-3.1716,0.0057972,0.0090736,3.0007e-08,0.24,0.74,0
0.012114,-0.0041483,0.011629,0.0015509,0.0039539,-0.00040551,0,0,0.049887,-0.01562,0,-0.0052716,0,0,0,0.011645,0.0015346,0.0039539,-2.3005,0.0057112,0.0091442,3.0198e-08,0.26,0.74,0
0.013113,-0.0042289,0.011586,0.0013955,0.0038946,-0.00026059,0,0,0.049997,-0.016244,0,-0.0033877,0,0,0,0.011593,0.0013889,0.0038946,-1.4639,0.0056255,0.0092106,3.0343e-08,0.28,0.74,0
0.014113,-0.0042739,0.01154,0.001244,0.0038351,-0.00011976,0,0,0.05008,-0.016842,0,-0.0015569,0,0,0,0.011541,0.0012426,0.0038351,-0.66634,0.0055396,0.009278,3.0478e-08,0.3,0.74,0
0.015116,-0.0042851,0.011492,0.0010922,0.0037752,1.5312e-05,0,0,0.050158,-0.017439,0,0.00019905,0,0,0,0.011492,0.0010922,0.0037752,0.084357,0.0054531,0.0093514,3.0637e-08,0.32,0.74,0
0.01612,-0.0042645,0.011446,0.00093652,0.0037146,0.00014258,0,0,0.050251,-0.018058,0,0.0018536,0,0,0,0.011447,0.00093459,0.0037146,0.77716,0.0053656,0.0094353,3.0849e-08,0.34,0.74,0
0.017126,-0.0042149,0.011404,0.00077374,0.0036532,0.00025955,0,0,0.050377,-0.018717,0,0.0033742,0,0,0,0.01141,0.00076741,0.0036532,1.3979,0.0052768,0.009533,3.1135e-08,0.36,0.74,0
0.018135,-0.0041398,0.011368,0.00060176,0.0035909,0.00036326,0,0,0.050551,-0.01943,0,0.0047224,0,0,0,0.01138,0.00058951,0.0035909,1.9303,0.0051869,0.0096468,3.1508e-08,0.38,0.74,0
0.019148,-0.0040434,0.01134,0.00041974,0.003528,0.00045033,0,0,0.05078,-0.020204,0,0.0058542,0,0,0,0.011359,0.0004012,0.003528,2.3573,0.0050961,0.0097768,3.1967e-08,0.4,0.74,0
0.020166,-0.0039305,0.011322,0.00022851,0.0034651,0.00051717,0,0,0.051068,-0.021038,0,0.0067233,0,0,0,0.011346,0.00020445,0.0034651,2.6635,0.0050051,0.0099213,3.2503e-08,0.42,0.74,0
0.021191,-0.0038069,0.011312,3.0796e-05,0.0034028,0.00056037,0,0,0.051409,-0.021918,0,0.0072848,0,0,0,0.01134,3.0289e-06,0.0034028,2.8368,0.0049151,0.010076,3.3091e-08,0.44,0.74,0
0.022222,-0.0036786,0.01131,-0.00016871,0.0033423,0.00057705,0,0,0.051788,-0.022822,0,0.0075017,0,0,0,0.011339,-0.00019764,0.0033423,2.8708,0.0048278,0.010236,3.37e-08,0.46,0.74,0
0.023262,-0.0035525,0.011314,-0.00036353,0.003285,0.00056547,0,0,0.052186,-0.023716,0,0.0073512,0,0,0,0.011341,-0.00039085,0.003285,2.766,0.004745,0.010393,3.4293e-08,0.48,0.74,0
0.02431,-0.0034352,0.011321,-0.00054599,0.0032325,0.00052541,0,0,0.052575,-0.02456,0,0.0068303,0,0,0,0.011344,-0.00056921,0.0032325,2.5302,0.0046692,0.01054,3.4831e-08,0.5,0.74,0
0.025365,-0.0033333,0.011329,-0.00070808,0.0031864,0.0004584,0,0,0.052929,-0.025314,0,0.0059593,0,0,0,0.011347,-0.00072551,0.0031864,2.1777,0.0046025,0.010668,3.5283e-08,0.52,0.74,0
0.026427,-0.0032526,0.011336,-0.0008423,0.003148,0.00036776,0,0,0.05322,-0.025937,0,0.0047808,0,0,0,0.011347,-0.0008534,0.003148,1.7281,0.0045472,0.010772,3.5625e-08,0.54,0.74,0
0.027494,-0.0031982,0.011338,-0.00094254,0.0031187,0.0002582,0,0,0.053428,-0.026398,0,0.0033566,0,0,0,0.011344,-0.00094797,0.0031187,1.2039,0.0045049,0.010846,3.584e-08,0.56,0.74,0
0.028564,-0.0031736,0.011335,-0.0010045,0.0030992,0.00013552,0,0,0.053534,-0.026674,0,0.0017617,0,0,0,0.011337,-0.001006,0.0030992,0.62913,0.0044767,0.010887,3.5921e-08,0.58,0.74,0
0.029635,-0.0031813,0.011326,-0.0010259,0.0030899,6.0781e-06,0,0,0.053532,-0.026753,0,7.9015e-05,0,0,0,0.011326,-0.0010259,0.0030899,0.028195,0.0044632,0.010893,3.5867e-08,0.6,0.74,0
0.030705,-0.0032219,0.011309,-0.0010067,0.0030907,-0.0001235,0,0,0.053419,-0.026633,0,-0.0016055,0,0,0,0.01131,-0.0010079,0.0030907,-0.57447,0.0044643,0.010865,3.568e-08,0.62,0.74,0
0.031772,-0.0032947,0.011286,-0.0009487,0.0031012,-0.00024668,0,0,0.053201,-0.026324,0,-0.0032069,0,0,0,0.011291,-0.00095368,0.0031012,-1.1546,0.0044795,0.010804,3.5366e-08,0.64,0.74,0
0.032833,-0.0033974,0.011258,-0.00085616,0.0031204,-0.00035743,0,0,0.052892,-0.025848,0,-0.0046466,0,0,0,0.011268,-0.00086669,0.0031204,-1.6886,0.0045073,0.010713,3.4937e-08,0.66,0.74,0
0.033888,-0.0035266,0.011226,-0.00073521,0.0031472,-0.00045064,0,0,0.052512,-0.025236,0,-0.0058583,0,0,0,0.011243,-0.00075217,0.0031472,-2.1546,0.004546,0.010598,3.4411e-08,0.68,0.74,0
0.034934,-0.0036776,0.011193,-0.00059366,0.0031799,-0.00052261,0,0,0.052087,-0.024528,0,-0.0067939,0,0,0,0.011216,-0.00061679,0.0031799,-2.5338,0.0045931,0.010465,3.3813e-08,0.7,0.74,0
0.035971,-0.0038452,0.011162,-0.00044013,0.0032166,-0.00057141,0,0,0.051646,-0.023769,0,-0.0074284,0,0,0,0.01119,-0.00046821,0.0032166,-2.8128,0.0046462,0.010322,3.3175e-08,0.72,0.74,0
0.037,-0.0040237,0.011135,-0.00028315,0.0032556,-0.00059697,0,0,0.051217,-0.023002,0,-0.0077606,0,0,0,0.011166,-0.00031427,0.0032556,-2.9847,0.0047025,0.010176,3.2532e-08,0.74,0.74,0
0.03802,-0.0042076,0.011114,-0.00013025,0.0032952,-0.00060082,0,0,0.050824,-0.022266,0,-0.0078107,0,0,0,0.011146,-0.00016227,0.0032952,-3.0499,0.0047597,0.010037,3.192e-08,0.76,0.74,0
0.039033,-0.0043915,0.011101,1.256e-05,0.003334,-0.00058575,0,0,0.050485,-0.02159,0,-0.0076148,0,0,0,0.011132,-1.8297e-05,0.003334,-3.0155,0.0048158,0.0099087,3.1369e-08,0.78,0.74,0
0.040039,-0.0045709,0.011095,0.00014114,0.003371,-0.00055521,0,0,0.050209,-0.020994,0,-0.0072177,0,0,0,0.011123,0.00011307,0.003371,-2.8941,0.0048692,0.0097965,3.09e-08,0.8,0.74,0
0.041041,-0.0047416,0.011097,0.00025311,0.0034052,-0.00051286,0,0,0.05,-0.020488,0,-0.0066672,0,0,0,0.011122,0.00022891,0.0034052,-2.7016,0.0049186,0.0097028,3.0526e-08,0.82,0.74,0
0.042039,-0.0049004,0.011106,0.00034766,0.0034361,-0.00046219,0,0,0.049855,-0.020075,0,-0.0060085,0,0,0,0.011126,0.00032784,0.0034361,-2.4554,0.0049633,0.009628,3.0249e-08,0.84,0.74,0
0.043035,-0.0050448,0.01112,0.00042516,0.0034635,-0.00040626,0,0,0.049766,-0.019749,0,-0.0052813,0,0,0,0.011135,0.00040975,0.0034635,-2.1723,0.0050029,0.0095713,3.0063e-08,0.86,0.74,0
0.04403,-0.0051726,0.011137,0.00048684,0.0034871,-0.00034752,0,0,0.049723,-0.019502,0,-0.0045178,0,0,0,0.011148,0.00047551,0.0034871,-1.867,0.0050369,0.0095307,2.9955e-08,0.88,0.74,0
0.045024,-0.0052825,0.011155,0.00053444,0.0035069,-0.00028782,0,0,0.049714,-0.019321,0,-0.0037417,0,0,0,0.011163,0.00052664,0.0035069,-1.5512,0.0050655,0.0095034,2.9909e-08,0.9,0.74,0
0.046018,-0.0053733,0.011173,0.00056992,0.0035229,-0.00022838,0,0,0.049726,-0.019194,0,-0.0029689,0,0,0,0.011178,0.000565,0.0035229,-1.2333,0.0050886,0.0094865,2.9905e-08,0.92,0.74,0
0.047013,-0.0054446,0.011189,0.00059519,0.0035352,-0.00016985,0,0,0.049749,-0.01911,0,-0.0022081,0,0,0,0.011192,0.00059247,0.0035352,-0.91832,0.0051064,0.0094769,2.9924e-08,0.94,0.74,0
0.048008,-0.0054957,0.011201,0.00061192,0.0035439,-0.00011243,0,0,0.049772,-0.019058,0,-0.0014616,0,0,0,0.011202,0.00061073,0.0035439,-0.60823,0.005119,0.009472,2.9951e-08,0.96,0.74,0
0.049004,-0.0055264,0.011209,0.00062142,0.0035491,-5.5949e-05,0,0,0.049789,-0.01903,0,-0.00072734,0,0,0,0.011209,0.00062113,0.0035491,-0.30276,0.0051265,0.0094699,2.9973e-08,0.98,0.74,0
0.05,-0.0055367,0.011212,0.00062449,0.0035508,-3.9491e-05,0,0,0.049795,-0.019021,0,-0.00051338,0,0,0,0.011212,0.00062435,0.0035508,-0.21371,0.005129,0.0094697,2.9983e-08,1,0.74,0
0,0,0.011111,0.0047617,0.0047617,-0.0019398,0,0,0.041268,-2.1684e-19,0,-0.025217,0,0,0,0.011656,0.004216,0.0047617,-15.713,0.0068781,0.0071831,1.8665e-08,0,0.76,0
0.00082537,-0.00050434,0.011084,0.0044262,0.0046531,-0.0019269,0,0,0.041802,-0.0014748,0,-0.025049,0,0,0,0.011602,0.0039088,0.0046531,-15.031,0.0067212,0.007349,1.9682e-08,0.02,0.76,0
0.0016721,-0.00099453,0.011194,0.0041266,0.0045961,-0.0018744,0,0,0.042885,-0.0030517,0,-0.024368,0,0,0,0.01166,0.0036603,0.0045961,-13.972,0.0066389,0.0075755,2.1184e-08,0.04,0.76,0
0.0025408,-0.0014668,0.0113,0.0038144,0.0045344,-0.0018014,0,0,0.043978,-0.00468,0,-0.023418,0,0,0,0.011711,0.0034035,0.0045344,-12.851,0.0065497,0.007804,2.2691e-08,0.06,0.76,0
0.0034312,-0.0019172,0.011399,0.0034992,0.0044694,-0.0017073,0,0,0.04504,-0.0063059,0,-0.022195,0,0,0,0.011752,0.003146,0.0044694,-11.689,0.0064557,0.0080264,2.4142e-08,0.08,0.76,0
0.0043424,-0.0023414,0.011485,0.0031902,0.0044025,-0.0015934,0,0,0.046034,-0.0078796,0,-0.020715,0,0,0,0.01178,0.0028946,0.0044025,-10.509,0.0063591,0.0082359,2.548e-08,0.1,0.76,0
0.0052726,-0.0027357,0.011555,0.0028949,0.004335,-0.0014625,0,0,0.04693,-0.0093603,0,-0.019012,0,0,0,0.011795,0.0026546,0.004335,-9.3312,0.0062616,0.0084271,2.6664e-08,0.12,0.76,0
0.0062196,-0.0030968,0.011608,0.0026187,0.0042679,-0.0013181,0,0,0.047708,-0.01072,0,-0.017135,0,0,0,0.011797,0.0024294,0.0042679,-8.1723,0.0061647,0.008597,2.7669e-08,0.14,0.76,0
0.0071809,-0.0034219,0.011642,0.0023644,0.0042019,-0.0011642,0,0,0.04836,-0.011944,0,-0.015135,0,0,0,0.011786,0.0022205,0.0042019,-7.0444,0.0060694,0.0087446,2.8489e-08,0.16,0.76,0
0.008154,-0.0037092,0.011658,0.002133,0.0041374,-0.0010046,0,0,0.048887,-0.013029,0,-0.01306,0,0,0,0.011763,0.0020282,0.0041374,-5.9555,0.0059763,0.0088705,2.913e-08,0.18,0.76,0
0.0091364,-0.0039576,0.011659,0.0019236,0.0040747,-0.00084256,0,0,0.049296,-0.013982,0,-0.010953,0,0,0,0.011731,0.0018512,0.0040747,-4.9102,0.0058857,0.0089771,2.9612e-08,0.2,0.76,0
0.010126,-0.0041664,0.011645,0.001734,0.0040137,-0.00068073,0,0,0.049603,-0.014818,0,-0.0088495,0,0,0,0.011692,0.0016875,0.0040137,-3.9109,0.0057976,0.0090675,2.9962e-08,0.22,0.76,0
0.011121,-0.0043358,0.01162,0.0015612,0.0039543,-0.00052127,0,0,0.049826,-0.015555,0,-0.0067766,0,0,0,0.011647,0.0015343,0.0039543,-2.9587,0.0057118,0.0091458,3.0212e-08,0.24,0.76,0
0.012119,-0.0044665,0.011586,0.0014016,0.0038963,-0.00036591,0,0,0.049984,-0.016216,0,-0.0047568,0,0,0,0.011599,0.0013884,0.0038963,-2.055,0.005628,0.0092165,3.0396e-08,0.26,0.76,0
0.01312,-0.0045595,0.011547,0.001251,0.0038394,-0.00021613,0,0,0.050099,-0.016824,0,-0.0028097,0,0,0,0.011551,0.0012465,0.0038394,-1.202,0.0055458,0.0092842,3.0549e-08,0.28,0.76,0
0.014123,-0.0046164,0.011505,0.0011057,0.0037833,-7.3384e-05,0,0,0.050192,-0.017404,0,-0.00095399,0,0,0,0.011506,0.0011052,0.0037833,-0.40428,0.0054647,0.0093535,3.0703e-08,0.3,0.76,0
0.015128,-0.0046393,0.011463,0.00096186,0.0037276,6.076e-05,0,0,0.050283,-0.017977,0,0.00078988,0,0,0,0.011464,0.00096151,0.0037276,0.33149,0.0053843,0.0094286,3.0887e-08,0.32,0.76,0
0.016134,-0.0046309,0.011425,0.00081611,0.0036722,0.00018448,0,0,0.05039,-0.018564,0,0.0023983,0,0,0,0.011428,0.0008129,0.0036722,0.996,0.0053042,0.0095131,3.1122e-08,0.34,0.76,0
0.017143,-0.0045941,0.01139,0.0006658,0.0036168,0.00029565,0,0,0.050528,-0.019182,0,0.0038434,0,0,0,0.011399,0.00065766,0.0036168,1.5779,0.0052243,0.0096093,3.1426e-08,0.36,0.76,0
0.018155,-0.0045328,0.011363,0.00050922,0.0035616,0.00039178,0,0,0.050708,-0.019841,0,0.0050931,0,0,0,0.011377,0.00049509,0.0035616,2.0646,0.0051445,0.0097185,3.1804e-08,0.38,0.76,0
0.019171,-0.0044512,0.011343,0.0003458,0.0035066,0.00047018,0,0,0.050936,-0.020545,0,0.0061123,0,0,0,0.011363,0.00032574,0.0035066,2.4437,0.0050651,0.0098403,3.2254e-08,0.4,0.76,0
0.020193,-0.0043542,0.011331,0.00017643,0.0034523,0.00052809,0,0,0.051213,-0.021293,0,0.0068652,0,0,0,0.011356,0.00015148,0.0034523,2.7044,0.0049866,0.0099727,3.2764e-08,0.42,0.76,0
0.02122,-0.0042471,0.011327,3.4818e-06,0.0033992,0.00056298,0,0,0.051532,-0.022072,0,0.0073187,0,0,0,0.011355,-2.4439e-05,0.0033992,2.8392,0.0049099,0.010112,3.3314e-08,0.44,0.76,0
0.022254,-0.0041358,0.01133,-0.00016913,0.0033482,0.00057288,0,0,0.051881,-0.022863,0,0.0074475,0,0,0,0.011358,-0.0001976,0.0033482,2.8451,0.0048363,0.010254,3.3875e-08,0.46,0.76,0
0.023295,-0.0040263,0.011337,-0.0003362,0.0033003,0.00055679,0,0,0.05224,-0.023637,0,0.0072382,0,0,0,0.011364,-0.00036269,0.0033003,2.7246,0.0047672,0.010391,3.4416e-08,0.48,0.76,0
0.024344,-0.0039246,0.011347,-0.00049165,0.0032567,0.00051489,0,0,0.052589,-0.024364,0,0.0066936,0,0,0,0.01137,-0.000514,0.0032567,2.4856,0.0047042,0.010518,3.4907e-08,0.5,0.76,0
0.025399,-0.0038367,0.011358,-0.00062915,0.0032185,0.00044881,0,0,0.052904,-0.02501,0,0.0058346,0,0,0,0.011374,-0.00064593,0.0032185,2.1413,0.004649,0.010629,3.5319e-08,0.52,0.76,0
0.02646,-0.0037675,0.011366,-0.00074276,0.0031868,0.00036156,0,0,0.053161,-0.025542,0,0.0047003,0,0,0,0.011376,-0.00075355,0.0031868,1.7089,0.0046032,0.010717,3.563e-08,0.54,0.76,0
0.027525,-0.0037216,0.011369,-0.00082753,0.0031624,0.00025735,0,0,0.053342,-0.025935,0,0.0033456,0,0,0,0.011374,-0.00083296,0.0031624,1.2083,0.0045679,0.01078,3.5825e-08,0.56,0.76,0
0.028593,-0.0037021,0.011366,-0.0008799,0.003146,0.00014132,0,0,0.053433,-0.026168,0,0.0018371,0,0,0,0.011368,-0.00088154,0.003146,0.66104,0.0045442,0.010814,3.5894e-08,0.58,0.76,0
0.029663,-0.0037112,0.011357,-0.00089801,0.0031377,1.9155e-05,0,0,0.053425,-0.026232,0,0.00024901,0,0,0,0.011357,-0.00089804,0.0031377,0.089554,0.0045322,0.010817,3.5834e-08,0.6,0.76,0
0.03073,-0.0037495,0.01134,-0.00088175,0.0031376,-0.0001032,0,0,0.053318,-0.026125,0,-0.0013416,0,0,0,0.011341,-0.00088262,0.0031376,-0.48376,0.004532,0.010791,3.5648e-08,0.62,0.76,0
0.031795,-0.0038165,0.011317,-0.00083285,0.0031452,-0.00021995,0,0,0.053116,-0.025857,0,-0.0028593,0,0,0,0.011321,-0.00083683,0.0031452,-1.0368,0.004543,0.010736,3.5341e-08,0.64,0.76,0
0.032855,-0.0039105,0.011288,-0.00075481,0.0031599,-0.00032576,0,0,0.052831,-0.025445,0,-0.0042349,0,0,0,0.011296,-0.00076362,0.0031599,-1.5484,0.0045642,0.010655,3.4927e-08,0.66,0.76,0
0.033909,-0.0040283,0.011255,-0.00065269,0.0031806,-0.00041619,0,0,0.052481,-0.024916,0,-0.0054104,0,0,0,0.011269,-0.00066722,0.0031806,-1.9994,0.0045941,0.010552,3.4421e-08,0.68,0.76,0
0.034954,-0.0041661,0.01122,-0.00053275,0.0032061,-0.00048795,0,0,0.052088,-0.024302,0,-0.0063433,0,0,0,0.01124,-0.00055298,0.0032061,-2.3734,0.004631,0.010434,3.3849e-08,0.7,0.76,0
0.035992,-0.0043195,0.011185,-0.00040186,0.003235,-0.00053919,0,0,0.051676,-0.02364,0,-0.0070095,0,0,0,0.01121,-0.0004269,0.003235,-2.6585,0.0046728,0.010306,3.3236e-08,0.72,0.76,0
0.037021,-0.0044836,0.011154,-0.00026685,0.003266,-0.00056953,0,0,0.051269,-0.022964,0,-0.0074039,0,0,0,0.011182,-0.00029519,0.003266,-2.8479,0.0047176,0.010175,3.2613e-08,0.74,0.76,0
0.038043,-0.0046535,0.011126,-0.00013391,0.0032977,-0.00057991,0,0,0.050886,-0.022306,0,-0.0075388,0,0,0,0.011156,-0.0001637,0.0032977,-2.9404,0.0047634,0.010047,3.2009e-08,0.76,0.76,0
0.039057,-0.0048246,0.011105,-8.1067e-06,0.0033291,-0.0005723,0,0,0.050545,-0.021692,0,-0.0074399,0,0,0,0.011135,-3.75e-05,0.0033291,-2.9402,0.0048088,0.0099267,3.1451e-08,0.78,0.76,0
0.040065,-0.0049924,0.011091,0.00010684,0.0033592,-0.00054935,0,0,0.050254,-0.021141,0,-0.0071415,0,0,0,0.011118,7.9429e-05,0.0033592,-2.8561,0.0048522,0.0098186,3.0958e-08,0.8,0.76,0
0.041067,-0.0051532,0.011083,0.00020856,0.0033874,-0.000514,0,0,0.05002,-0.020662,0,-0.006682,0,0,0,0.011107,0.00018432,0.0033874,-2.7003,0.0048929,0.0097251,3.0542e-08,0.82,0.76,0
0.042065,-0.0053039,0.011081,0.00029597,0.003413,-0.00046918,0,0,0.04984,-0.020261,0,-0.0060994,0,0,0,0.011101,0.0002756,0.003413,-2.4864,0.0049299,0.0096473,3.0209e-08,0.84,0.76,0
0.043061,-0.0054416,0.011084,0.00036898,0.0034358,-0.00041757,0,0,0.049711,-0.019934,0,-0.0054284,0,0,0,0.0111,0.00035273,0.0034358,-2.2284,0.0049628,0.009585,2.9955e-08,0.86,0.76,0
0.044054,-0.0055643,0.01109,0.00042826,0.0034556,-0.00036145,0,0,0.049626,-0.019678,0,-0.0046988,0,0,0,0.011102,0.00041602,0.0034556,-1.9394,0.0049914,0.0095372,2.9775e-08,0.88,0.76,0
0.045046,-0.0056704,0.011099,0.00047498,0.0034722,-0.00030262,0,0,0.049575,-0.019482,0,-0.0039341,0,0,0,0.011108,0.00046637,0.0034722,-1.6303,0.0050155,0.009502,2.9655e-08,0.9,0.76,0
0.046037,-0.0057585,0.011109,0.00051056,0.0034858,-0.00024242,0,0,0.049549,-0.019339,0,-0.0031514,0,0,0,0.011114,0.00050502,0.0034858,-1.3096,0.005035,0.0094772,2.9582e-08,0.92,0.76,0
0.047028,-0.0058278,0.011118,0.00053642,0.0034963,-0.00018171,0,0,0.04954,-0.019239,0,-0.0023622,0,0,0,0.011121,0.0005333,0.0034963,-0.98353,0.0050502,0.0094608,2.9543e-08,0.94,0.76,0
0.048018,-0.0058778,0.011125,0.00055385,0.0035037,-0.00012099,0,0,0.049539,-0.019174,0,-0.0015728,0,0,0,0.011126,0.00055247,0.0035037,-0.65563,0.0050609,0.0094506,2.9526e-08,0.96,0.76,0
0.049009,-0.0059079,0.01113,0.00056389,0.0035081,-6.0426e-05,0,0,0.049541,-0.019138,0,-0.00078554,0,0,0,0.01113,0.00056354,0.0035081,-0.32766,0.0050673,0.0094451,2.9519e-08,0.98,0.76,0
0.05,-0.0059179,0.011132,0.00056716,0.0035096,-3.8681e-05,0,0,0.049542,-0.019126,0,-0.00050285,0,0,0,0.011132,0.00056701,0.0035096,-0.20978,0.0050694,0.0094436,2.9519e-08,1,0.76,0
0,0,0.011069,0.004744,0.004744,-0.0020567,0,0,0.041115,4.3368e-19,0,-0.026737,0,0,0,0.011679,0.0041341,0.004744,-16.518,0.0068525,0.0072595,1.9182e-08,0,0.78,0
0.0008223,-0.00053473,0.011041,0.0043853,0.004628,-0.0020425,0,0,0.041687,-0.0015773,0,-0.026553,0,0,0,0.011618,0.0038085,0.004628,-15.77,0.0066849,0.0074338,2.0237e-08,0.02,0.78,0
0.0016675,-0.0010575,0.011158,0.0040625,0.0045662,-0.0019895,0,0,0.042848,-0.0032742,0,-0.025863,0,0,0,0.011678,0.0035427,0.0045662,-14.641,0.0065956,0.0076748,2.1832e-08,0.04,0.78,0
0.0025362,-0.0015635,0.011271,0.0037254,0.0044989,-0.00191,0,0,0.044019,-0.0050283,0,-0.024831,0,0,0,0.011727,0.0032694,0.0044989,-13.426,0.0064985,0.0079148,2.3407e-08,0.06,0.78,0
0.0034282,-0.0020474,0.011374,0.0033863,0.0044282,-0.001804,0,0,0.045151,-0.0067727,0,-0.023452,0,0,0,0.011763,0.0029977,0.0044282,-12.154,0.0063963,0.0081448,2.4889e-08,0.08,0.78,0
0.0043422,-0.0025041,0.011463,0.0030565,0.0043559,-0.0016738,0,0,0.046198,-0.008446,0,-0.02176,0,0,0,0.011784,0.0027355,0.0043559,-10.857,0.0062919,0.0083572,2.6219e-08,0.1,0.78,0
0.0052761,-0.0029287,0.011534,0.0027451,0.0042837,-0.0015239,0,0,0.047126,-0.010001,0,-0.019811,0,0,0,0.011791,0.0024883,0.0042837,-9.5628,0.0061875,0.0085472,2.7361e-08,0.12,0.78,0
0.0062273,-0.0033174,0.011585,0.0024575,0.0042127,-0.0013596,0,0,0.047918,-0.011408,0,-0.017675,0,0,0,0.011783,0.0022593,0.0042127,-8.295,0.006085,0.0087127,2.8298e-08,0.14,0.78,0
0.0071928,-0.0036673,0.011616,0.0021968,0.0041437,-0.0011864,0,0,0.048567,-0.012655,0,-0.015423,0,0,0,0.011763,0.0020496,0.0041437,-7.0697,0.0059853,0.0088537,2.9034e-08,0.16,0.78,0
0.00817,-0.0039765,0.011628,0.0019629,0.0040772,-0.0010091,0,0,0.049079,-0.013743,0,-0.013118,0,0,0,0.011732,0.0018587,0.0040772,-5.8976,0.0058893,0.0089722,2.9589e-08,0.18,0.78,0
0.009156,-0.0042439,0.011624,0.0017542,0.0040134,-0.0008319,0,0,0.049468,-0.014685,0,-0.010815,0,0,0,0.011694,0.0016846,0.0040134,-4.7844,0.0057972,0.0090715,2.999e-08,0.2,0.78,0
0.010149,-0.0044693,0.011607,0.0015679,0.0039524,-0.00065781,0,0,0.049753,-0.015499,0,-0.0085516,0,0,0,0.01165,0.001525,0.0039524,-3.7332,0.005709,0.0091555,3.0273e-08,0.22,0.78,0
0.011146,-0.0046533,0.011579,0.0014001,0.0038938,-0.00048918,0,0,0.049956,-0.016209,0,-0.0063593,0,0,0,0.011603,0.0013766,0.0038938,-2.745,0.0056244,0.0092288,3.0472e-08,0.24,0.78,0
0.012147,-0.004797,0.011545,0.0012469,0.0038376,-0.00032772,0,0,0.0501,-0.01684,0,-0.0042604,0,0,0,0.011556,0.0012364,0.0038376,-1.8208,0.0055432,0.0092957,3.0623e-08,0.26,0.78,0
0.01315,-0.0049019,0.011507,0.0011041,0.0037834,-0.00017483,0,0,0.050206,-0.017416,0,-0.0022728,0,0,0,0.01151,0.0011011,0.0037834,-0.96252,0.0054649,0.0093608,3.0757e-08,0.28,0.78,0
0.014155,-0.0049701,0.011468,0.00096775,0.0037308,-3.1775e-05,0,0,0.050294,-0.01796,0,-0.00041307,0,0,0,0.011468,0.00096765,0.0037308,-0.17337,0.005389,0.009428,3.0904e-08,0.3,0.78,0
0.015162,-0.0050042,0.011431,0.00083436,0.0036796,0.00010014,0,0,0.050384,-0.018494,0,0.0013018,0,0,0,0.011432,0.00083342,0.0036796,0.54138,0.005315,0.0095008,3.1085e-08,0.32,0.78,0
0.016171,-0.0050071,0.011397,0.00070084,0.0036295,0.00021942,0,0,0.050492,-0.019036,0,0.0028524,0,0,0,0.011402,0.00069634,0.0036295,1.1746,0.0052426,0.0095819,3.1319e-08,0.34,0.78,0
0.017181,-0.0049822,0.011369,0.00056484,0.0035802,0.00032435,0,0,0.050629,-0.0196,0,0.0042165,0,0,0,0.011379,0.00055511,0.0035802,1.7179,0.0051715,0.0096729,3.1616e-08,0.36,0.78,0
0.018196,-0.0049335,0.011348,0.0004249,0.0035318,0.00041298,0,0,0.050804,-0.020195,0,0.0053688,0,0,0,0.011364,0.00040931,0.0035318,2.1622,0.0051015,0.0097744,3.1979e-08,0.38,0.78,0
0.019214,-0.0048652,0.011334,0.00028063,0.0034844,0.00048326,0,0,0.051022,-0.020824,0,0.0062824,0,0,0,0.011355,0.00025954,0.0034844,2.4987,0.005033,0.0098858,3.2403e-08,0.4,0.78,0
0.020237,-0.0047823,0.011328,0.00013282,0.0034381,0.00053315,0,0,0.051281,-0.021484,0,0.0069309,0,0,0,0.011353,0.00010749,0.0034381,2.7205,0.0049661,0.010005,3.2876e-08,0.42,0.78,0
0.021265,-0.0046897,0.011328,-1.6515e-05,0.0033934,0.00056085,0,0,0.051574,-0.022165,0,0.0072911,0,0,0,0.011355,-4.4176e-05,0.0033934,2.8235,0.0049016,0.010128,3.3379e-08,0.44,0.78,0
0.022299,-0.0045931,0.011334,-0.00016418,0.0033509,0.00056513,0,0,0.05189,-0.022848,0,0.0073467,0,0,0,0.011362,-0.00019189,0.0033509,2.8071,0.0048402,0.010252,3.3887e-08,0.46,0.78,0
0.023341,-0.004498,0.011344,-0.00030599,0.0033114,0.00054552,0,0,0.052212,-0.023513,0,0.0070918,0,0,0,0.011369,-0.00033148,0.0033114,2.6751,0.0047831,0.010371,3.4375e-08,0.48,0.78,0
0.024388,-0.0044098,0.011356,-0.00043715,0.0032756,0.00050256,0,0,0.052521,-0.024133,0,0.0065333,0,0,0,0.011377,-0.00045853,0.0032756,2.4358,0.0047314,0.01048,3.4816e-08,0.5,0.78,0
0.025441,-0.0043337,0.011367,-0.00055267,0.0032444,0.00043792,0,0,0.052798,-0.024681,0,0.0056929,0,0,0,0.011383,-0.00056874,0.0032444,2.1012,0.0046863,0.010574,3.5185e-08,0.52,0.78,0
0.0265,-0.0042743,0.011376,-0.00064784,0.0032184,0.00035438,0,0,0.053024,-0.025131,0,0.004607,0,0,0,0.011386,-0.00065828,0.0032184,1.6867,0.0046489,0.010649,3.5464e-08,0.54,0.78,0
0.027562,-0.0042356,0.01138,-0.00071872,0.0031984,0.00025574,0,0,0.053181,-0.025462,0,0.0033246,0,0,0,0.011386,-0.00072412,0.0031984,1.2104,0.00462,0.010702,3.5637e-08,0.56,0.78,0
0.028627,-0.0042203,0.011378,-0.00076245,0.0031848,0.00014654,0,0,0.053258,-0.025657,0,0.001905,0,0,0,0.01138,-0.00076422,0.0031848,0.69142,0.0046002,0.010729,3.5695e-08,0.58,0.78,0
0.029693,-0.0042305,0.01137,-0.00077751,0.0031776,3.1837e-05,0,0,0.053248,-0.025708,0,0.00041388,0,0,0,0.01137,-0.0007776,0.0031776,0.15017,0.0045899,0.010731,3.5635e-08,0.6,0.78,0
0.030757,-0.0042669,0.011354,-0.00076387,0.0031769,-8.3123e-05,0,0,0.053149,-0.025615,0,-0.0010806,0,0,0,0.011354,-0.00076444,0.0031769,-0.39301,0.0045889,0.010707,3.5457e-08,0.62,0.78,0
0.031819,-0.004329,0.011331,-0.00072297,0.0031824,-0.00019322,0,0,0.052966,-0.025385,0,-0.0025119,0,0,0,0.011334,-0.00072607,0.0031824,-0.91813,0.0045968,0.010658,3.5169e-08,0.64,0.78,0
0.032876,-0.0044152,0.011302,-0.00065767,0.0031934,-0.00029379,0,0,0.052708,-0.025032,0,-0.0038192,0,0,0,0.01131,-0.00066488,0.0031934,-1.4063,0.0046127,0.010587,3.4781e-08,0.66,0.78,0
0.033927,-0.0045233,0.011269,-0.00057206,0.0032092,-0.00038088,0,0,0.052391,-0.024578,0,-0.0049514,0,0,0,0.011282,-0.0005843,0.0032092,-1.8403,0.0046355,0.010497,3.4308e-08,0.68,0.78,0
0.034971,-0.0046497,0.011234,-0.00047116,0.0032289,-0.00045155,0,0,0.052034,-0.02405,0,-0.0058702,0,0,0,0.011251,-0.00048855,0.0032289,-2.2059,0.0046639,0.010393,3.3772e-08,0.7,0.78,0
0.036008,-0.0047908,0.011198,-0.00036043,0.0032513,-0.00050402,0,0,0.051654,-0.023476,0,-0.0065522,0,0,0,0.01122,-0.00038237,0.0032513,-2.4921,0.0046964,0.010279,3.3196e-08,0.72,0.78,0
0.037038,-0.0049423,0.011164,-0.00024537,0.0032755,-0.00053768,0,0,0.051274,-0.022886,0,-0.0069898,0,0,0,0.011189,-0.00027065,0.0032755,-2.6922,0.0047313,0.010162,3.2605e-08,0.74,0.78,0
0.038059,-0.0050998,0.011133,-0.00013102,0.0033005,-0.00055301,0,0,0.05091,-0.022305,0,-0.0071891,0,0,0,0.01116,-0.00015811,0.0033005,-2.804,0.0047674,0.010046,3.2024e-08,0.76,0.78,0
0.039074,-0.0052592,0.011106,-2.1638e-05,0.0033254,-0.00055139,0,0,0.050576,-0.021756,0,-0.0071681,0,0,0,0.011133,-4.8893e-05,0.0033254,-2.8298,0.0048033,0.0099347,3.1476e-08,0.78,0.78,0
0.040082,-0.0054165,0.011085,7.9522e-05,0.0033494,-0.00053483,0,0,0.050282,-0.021254,0,-0.0069527,0,0,0,0.011111,5.3592e-05,0.0033494,-2.7756,0.004838,0.0098328,3.0977e-08,0.8,0.78,0
0.041085,-0.0055681,0.011069,0.00017025,0.0033719,-0.00050565,0,0,0.050034,-0.020811,0,-0.0065735,0,0,0,0.011093,0.00014684,0.0033719,-2.6506,0.0048705,0.0097424,3.0541e-08,0.82,0.78,0
0.042084,-0.0057109,0.011059,0.00024932,0.0033925,-0.0004663,0,0,0.049833,-0.020431,0,-0.0060619,0,0,0,0.011079,0.00022925,0.0033925,-2.4655,0.0049003,0.0096647,3.0174e-08,0.84,0.78,0
0.043078,-0.0058421,0.011054,0.00031637,0.003411,-0.0004191,0,0,0.049677,-0.020115,0,-0.0054482,0,0,0,0.01107,0.00030004,0.003411,-2.2319,0.004927,0.0096002,2.9876e-08,0.86,0.78,0
0.044071,-0.0059597,0.011052,0.00037168,0.0034271,-0.00036611,0,0,0.049561,-0.01986,0,-0.0047594,0,0,0,0.011064,0.00035915,0.0034271,-1.961,0.0049502,0.0095484,2.9645e-08,0.88,0.78,0
0.045061,-0.0060617,0.011053,0.00041598,0.0034407,-0.00030908,0,0,0.04948,-0.019661,0,-0.004018,0,0,0,0.011062,0.00040701,0.0034407,-1.663,0.0049698,0.0095082,2.9473e-08,0.9,0.78,0
0.04605,-0.0061469,0.011056,0.00045024,0.0034518,-0.00024937,0,0,0.049425,-0.01951,0,-0.0032419,0,0,0,0.011062,0.00044438,0.0034518,-1.3462,0.0049859,0.0094783,2.935e-08,0.92,0.78,0
0.047038,-0.0062141,0.011059,0.00047551,0.0034603,-0.00018802,0,0,0.049391,-0.019401,0,-0.0024443,0,0,0,0.011062,0.00047218,0.0034603,-1.0175,0.0049983,0.009457,2.9267e-08,0.94,0.78,0
0.048025,-0.0062626,0.011062,0.00049277,0.0034664,-0.00012573,0,0,0.049371,-0.019329,0,-0.0016345,0,0,0,0.011064,0.00049128,0.0034664,-0.68148,0.0050071,0.009443,2.9216e-08,0.96,0.78,0
0.049013,-0.0062919,0.011064,0.0005028,0.0034701,-6.2965e-05,0,0,0.049361,-0.019287,0,-0.00081854,0,0,0,0.011064,0.00050242,0.0034701,-0.34157,0.0050123,0.0094351,2.9188e-08,0.98,0.78,0
0.05,-0.0063017,0.011065,0.00050608,0.0034713,-3.7694e-05,0,0,0.049358,-0.019274,0,-0.00049002,0,0,0,0.011065,0.00050595,0.0034713,-0.20453,0.0050141,0.0094327,2.918e-08,1,0.78,0
0,0,0.011049,0.0047352,0.0047352,-0.0021824,0,0,0.041038,4.3368e-19,0,-0.028371,0,0,0,0.01173,0.0040542,0.0047352,-17.329,0.0068397,0.0073587,1.9876e-08,0,0.8,0
0.00082076,-0.00056743,0.011019,0.0043471,0.0046097,-0.0021668,0,0,0.041658,-0.0017069,0,-0.028168,0,0,0,0.011661,0.0037052,0.0046097,-16.503,0.0066585,0.0075439,2.0985e-08,0.02,0.8,0
0.0016663,-0.0011255,0.011144,0.0039941,0.0045415,-0.0021128,0,0,0.042917,-0.0035577,0,-0.027467,0,0,0,0.011722,0.0034164,0.0045415,-15.292,0.0065599,0.0078039,2.2708e-08,0.04,0.8,0
0.0025375,-0.001668,0.011264,0.0036252,0.0044669,-0.0020253,0,0,0.044184,-0.0054711,0,-0.026329,0,0,0,0.011768,0.0031215,0.0044669,-13.967,0.0064522,0.0080586,2.4372e-08,0.06,0.8,0
0.0034337,-0.0021881,0.011373,0.0032565,0.0043887,-0.0019044,0,0,0.045395,-0.0073595,0,-0.024758,0,0,0,0.011797,0.0028318,0.0043887,-12.57,0.0063393,0.0082973,2.589e-08,0.08,0.8,0
0.0043533,-0.0026793,0.011463,0.0029024,0.0043096,-0.0017546,0,0,0.046496,-0.0091464,0,-0.02281,0,0,0,0.011808,0.0025568,0.0043096,-11.145,0.0062249,0.0085118,2.72e-08,0.1,0.8,0
0.0052935,-0.0031358,0.011531,0.0025734,0.0042314,-0.0015825,0,0,0.04745,-0.010777,0,-0.020573,0,0,0,0.011803,0.002302,0.0042314,-9.7297,0.006112,0.008698,2.8272e-08,0.12,0.8,0
0.0062512,-0.0035531,0.011577,0.0022752,0.0041557,-0.0013959,0,0,0.048238,-0.012223,0,-0.018147,0,0,0,0.011782,0.0020703,0.0041557,-8.3534,0.0060026,0.0088551,2.9104e-08,0.14,0.8,0
0.0072231,-0.0039281,0.011601,0.00201,0.0040832,-0.0012021,0,0,0.048864,-0.013476,0,-0.015627,0,0,0,0.011749,0.0018616,0.0040832,-7.0362,0.005898,0.0089851,2.9717e-08,0.16,0.8,0
0.0082058,-0.004259,0.011605,0.0017765,0.0040145,-0.001007,0,0,0.049339,-0.014547,0,-0.013091,0,0,0,0.011707,0.0016744,0.0040145,-5.7901,0.0057987,0.0090915,3.0146e-08,0.18,0.8,0
0.0091966,-0.004545,0.011593,0.0015719,0.0039496,-0.00081538,0,0,0.049686,-0.015455,0,-0.0106,0,0,0,0.011659,0.001506,0.0039496,-4.6212,0.005705,0.0091789,3.0432e-08,0.2,0.8,0
0.010193,-0.0047864,0.01157,0.001392,0.0038886,-0.00063049,0,0,0.049929,-0.016228,0,-0.0081963,0,0,0,0.011609,0.0013531,0.0038886,-3.5313,0.0056168,0.0092523,3.0615e-08,0.22,0.8,0
0.011194,-0.0049842,0.011538,0.0012325,0.0038312,-0.00045453,0,0,0.050095,-0.016891,0,-0.0059089,0,0,0,0.011558,0.0012125,0.0038312,-2.5205,0.0055339,0.0093165,3.0735e-08,0.24,0.8,0
0.012197,-0.0051401,0.011501,0.0010887,0.003777,-0.00028899,0,0,0.050208,-0.017474,0,-0.0037568,0,0,0,0.011509,0.0010807,0.003777,-1.5885,0.0054557,0.0093758,3.0826e-08,0.26,0.8,0
0.013202,-0.0052561,0.011463,0.00095645,0.0037258,-0.00013494,0,0,0.050291,-0.018,0,-0.0017542,0,0,0,0.011465,0.00095472,0.0037258,-0.73571,0.0053817,0.0094346,3.0917e-08,0.28,0.8,0
0.014209,-0.0053348,0.011425,0.00083167,0.0036771,6.7159e-06,0,0,0.050363,-0.018495,0,8.7307e-05,0,0,0,0.011425,0.00083167,0.0036771,0.036324,0.0053113,0.0094961,3.1034e-08,0.3,0.8,0
0.015217,-0.0053791,0.011391,0.00071095,0.0036305,0.00013503,0,0,0.050442,-0.018977,0,0.0017554,0,0,0,0.011392,0.00070924,0.0036305,0.72428,0.0052441,0.0095633,3.1194e-08,0.32,0.8,0
0.016226,-0.0053923,0.011361,0.00059145,0.0035858,0.00024894,0,0,0.05054,-0.019463,0,0.0032363,0,0,0,0.011367,0.0005857,0.0035858,1.3235,0.0051795,0.009638,3.1408e-08,0.34,0.8,0
0.017238,-0.0053781,0.011338,0.00047107,0.0035427,0.00034719,0,0,0.050669,-0.019965,0,0.0045134,0,0,0,0.011349,0.00045999,0.0035427,1.8281,0.0051172,0.0097214,3.1684e-08,0.36,0.8,0
0.018253,-0.0053406,0.011321,0.00034855,0.003501,0.00042835,0,0,0.050833,-0.020491,0,0.0055686,0,0,0,0.011338,0.00033185,0.003501,2.2321,0.005057,0.0098134,3.2021e-08,0.38,0.8,0
0.019272,-0.0052842,0.011312,0.00022353,0.0034608,0.00049094,0,0,0.051036,-0.021042,0,0.0063822,0,0,0,0.011334,0.00020184,0.0034608,2.5301,0.0049989,0.0099131,3.2411e-08,0.4,0.8,0
0.020295,-0.0052135,0.01131,9.6702e-05,0.0034222,0.00053354,0,0,0.051274,-0.021615,0,0.006936,0,0,0,0.011336,7.1374e-05,0.0034222,2.7179,0.0049431,0.010018,3.2843e-08,0.42,0.8,0
0.021323,-0.0051337,0.011315,-3.0294e-05,0.0033853,0.00055498,0,0,0.051541,-0.022201,0,0.0072147,0,0,0,0.011342,-5.7379e-05,0.0033853,2.7939,0.0048899,0.010127,3.3299e-08,0.44,0.8,0
0.022356,-0.0050497,0.011324,-0.00015488,0.0033507,0.00055456,0,0,0.051825,-0.022786,0,0.0072093,0,0,0,0.01135,-0.00018161,0.0033507,2.7595,0.0048398,0.010234,3.3757e-08,0.46,0.8,0
0.023395,-0.0049668,0.011336,-0.00027373,0.0033187,0.00053225,0,0,0.052113,-0.023351,0,0.0069192,0,0,0,0.01136,-0.00029809,0.0033187,2.6194,0.0047937,0.010336,3.4195e-08,0.48,0.8,0
0.024441,-0.00489,0.01135,-0.00038307,0.00329,0.00048882,0,0,0.052388,-0.023875,0,0.0063547,0,0,0,0.01137,-0.0004034,0.00329,2.3816,0.0047522,0.010429,3.459e-08,0.5,0.8,0
0.025491,-0.0048239,0.011362,-0.00047897,0.003265,0.00042598,0,0,0.052632,-0.024336,0,0.0055378,0,0,0,0.011378,-0.00049428,0.003265,2.0577,0.0047161,0.010509,3.4922e-08,0.52,0.8,0
0.026546,-0.0047728,0.011372,-0.00055774,0.0032443,0.00034633,0,0,0.052831,-0.024713,0,0.0045023,0,0,0,0.011382,-0.00056778,0.0032443,1.6615,0.0046862,0.010573,3.5172e-08,0.54,0.8,0
0.027604,-0.00474,0.011377,-0.00061626,0.0032283,0.00025326,0,0,0.052968,-0.02499,0,0.0032923,0,0,0,0.011383,-0.0006216,0.0032283,1.2091,0.0046631,0.010616,3.5328e-08,0.56,0.8,0
0.028665,-0.0047284,0.011377,-0.00065227,0.0032173,0.00015082,0,0,0.053035,-0.025152,0,0.0019607,0,0,0,0.011378,-0.00065416,0.0032173,0.71825,0.0046472,0.010639,3.538e-08,0.58,0.8,0
0.029726,-0.0047395,0.011369,-0.00066459,0.0032113,4.348e-05,0,0,0.053025,-0.025194,0,0.00056524,0,0,0,0.011369,-0.00066474,0.0032113,0.20702,0.0046386,0.010639,3.5324e-08,0.6,0.8,0
0.030786,-0.0047741,0.011355,-0.00065319,0.0032104,-6.4159e-05,0,0,0.052937,-0.025113,0,-0.00083406,0,0,0,0.011355,-0.00065353,0.0032104,-0.30613,0.0046373,0.010618,3.5162e-08,0.62,0.8,0
0.031843,-0.0048319,0.011333,-0.00061925,0.0032142,-0.0001676,0,0,0.052774,-0.024917,0,-0.0021787,0,0,0,0.011336,-0.0006216,0.0032142,-0.80318,0.0046427,0.010575,3.4899e-08,0.64,0.8,0
0.032897,-0.0049117,0.011306,-0.00056509,0.0032223,-0.00026272,0,0,0.052545,-0.024618,0,-0.0034153,0,0,0,0.011312,-0.0005709,0.0032223,-1.2672,0.0046544,0.010513,3.4543e-08,0.66,0.8,0
0.033945,-0.0050114,0.011274,-0.00049397,0.0032341,-0.00034603,0,0,0.052261,-0.024232,0,-0.0044984,0,0,0,0.011284,-0.00050414,0.0032341,-1.6828,0.0046714,0.010434,3.411e-08,0.68,0.8,0
0.034987,-0.0051281,0.011239,-0.00040987,0.0032489,-0.00041488,0,0,0.051938,-0.023782,0,-0.0053934,0,0,0,0.011254,-0.00042462,0.0032489,-2.0371,0.0046928,0.010343,3.3617e-08,0.7,0.8,0
0.036022,-0.0052585,0.011203,-0.00031714,0.0032658,-0.00046752,0,0,0.051593,-0.023289,0,-0.0060778,0,0,0,0.011222,-0.00033608,0.0032658,-2.3201,0.0047173,0.010244,3.3082e-08,0.72,0.8,0
0.037051,-0.005399,0.011168,-0.00022018,0.0032842,-0.00050323,0,0,0.051242,-0.022779,0,-0.0065419,0,0,0,0.01119,-0.00024237,0.0032842,-2.5253,0.0047439,0.01014,3.253e-08,0.74,0.8,0
0.038072,-0.0055457,0.011134,-0.00012308,0.0033033,-0.00052214,0,0,0.0509,-0.022272,0,-0.0067878,0,0,0,0.011158,-0.00014724,0.0033033,-2.6499,0.0047715,0.010035,3.1979e-08,0.76,0.8,0
0.039087,-0.0056948,0.011104,-2.936e-05,0.0033224,-0.00052518,0,0,0.05058,-0.021786,0,-0.0068273,0,0,0,0.011129,-5.4079e-05,0.0033224,-2.6948,0.004799,0.0099346,3.145e-08,0.78,0.8,0
0.040095,-0.0058426,0.011078,5.8179e-05,0.0033408,-0.00051384,0,0,0.050291,-0.021337,0,-0.00668,0,0,0,0.011102,3.427e-05,0.0033408,-2.664,0.0048256,0.0098401,3.0958e-08,0.8,0.8,0
0.041098,-0.0059857,0.011056,0.00013755,0.0033582,-0.00048999,0,0,0.050039,-0.020934,0,-0.0063698,0,0,0,0.011078,0.0001156,0.0033582,-2.5643,0.0048507,0.0097544,3.0517e-08,0.82,0.8,0
0.042097,-0.0061211,0.01104,0.00020753,0.0033742,-0.00045561,0,0,0.049826,-0.020583,0,-0.0059229,0,0,0,0.011059,0.0001884,0.0033742,-2.4043,0.0048738,0.0096791,3.0132e-08,0.84,0.8,0
0.043091,-0.0062462,0.011027,0.00026759,0.0033885,-0.00041272,0,0,0.049653,-0.020286,0,-0.0053653,0,0,0,0.011043,0.00025178,0.0033885,-2.1934,0.0048945,0.0096147,2.9808e-08,0.86,0.8,0
0.044083,-0.0063587,0.011019,0.00031775,0.003401,-0.00036316,0,0,0.049516,-0.020041,0,-0.0047211,0,0,0,0.011031,0.00030544,0.003401,-1.9415,0.0049125,0.0095614,2.9543e-08,0.88,0.8,0
0.045072,-0.0064568,0.011013,0.00035843,0.0034116,-0.00030859,0,0,0.049412,-0.019845,0,-0.0040117,0,0,0,0.011022,0.0003495,0.0034116,-1.6575,0.0049278,0.0095187,2.9334e-08,0.9,0.8,0
0.04606,-0.0065389,0.01101,0.00039027,0.0034202,-0.00025038,0,0,0.049336,-0.019695,0,-0.0032549,0,0,0,0.011016,0.00038437,0.0034202,-1.3498,0.0049403,0.0094856,2.9176e-08,0.92,0.8,0
0.047046,-0.0066039,0.011009,0.00041402,0.0034269,-0.00018963,0,0,0.049283,-0.019584,0,-0.0024652,0,0,0,0.011012,0.00041063,0.0034269,-1.0251,0.0049499,0.0094613,2.9061e-08,0.94,0.8,0
0.048031,-0.0066509,0.011008,0.00043039,0.0034317,-0.00012723,0,0,0.049249,-0.019508,0,-0.001654,0,0,0,0.01101,0.00042886,0.0034317,-0.68903,0.0049568,0.0094448,2.8985e-08,0.96,0.8,0
0.049015,-0.0066793,0.011008,0.00043996,0.0034345,-6.3846e-05,0,0,0.04923,-0.019464,0,-0.00083,0,0,0,0.011009,0.00043957,0.0034345,-0.34612,0.0049609,0.0094352,2.8941e-08,0.98,0.8,0
0.05,-0.0066889,0.011008,0.0004431,0.0034354,-3.661e-05,0,0,0.049224,-0.01945,0,-0.00047593,0,0,0,0.011008,0.00044297,0.0034354,-0.19853,0.0049623,0.0094323,2.8928e-08,1,0.8,0
0,0,0.011053,0.004737,0.004737,-0.0023193,0,0,0.041054,5.421e-19,0,-0.030151,0,0,0,0.011813,0.0039768,0.004737,-18.147,0.0068423,0.0074852,2.0792e-08,0,0.82,0
0.00082108,-0.00060301,0.01102,0.004312,0.0045996,-0.0023016,0,0,0.041733,-0.0018698,0,-0.029921,0,0,0,0.011734,0.0035982,0.0045996,-17.229,0.0066439,0.0076841,2.1974e-08,0.02,0.82,0
0.0016693,-0.0011998,0.011156,0.0039199,0.0045227,-0.0022461,0,0,0.043115,-0.003918,0,-0.029199,0,0,0,0.011796,0.0032794,0.0045227,-15.916,0.0065328,0.0079683,2.3866e-08,0.04,0.82,0
0.0025457,-0.0017823,0.011284,0.0035103,0.0044383,-0.0021474,0,0,0.044497,-0.006032,0,-0.027916,0,0,0,0.011838,0.0029566,0.0044383,-14.46,0.0064109,0.0082408,2.5639e-08,0.06,0.82,0
0.0034492,-0.0023418,0.011396,0.0031054,0.0043504,-0.0020071,0,0,0.045797,-0.008093,0,-0.026093,0,0,0,0.011856,0.002645,0.0043504,-12.918,0.0062839,0.0084882,2.7185e-08,0.08,0.82,0
0.0043775,-0.0028699,0.011485,0.0027235,0.0042625,-0.0018326,0,0,0.046946,-0.010004,0,-0.023824,0,0,0,0.011853,0.0023556,0.0042625,-11.351,0.006157,0.0087019,2.8441e-08,0.1,0.82,0
0.005327,-0.0033598,0.011547,0.0023766,0.0041771,-0.0016342,0,0,0.047905,-0.011703,0,-0.021244,0,0,0,0.01183,0.0020941,0.0041771,-9.8078,0.0060336,0.0088792,2.9392e-08,0.12,0.82,0
0.0062937,-0.0038063,0.011583,0.00207,0.0040958,-0.0014224,0,0,0.048665,-0.013168,0,-0.018491,0,0,0,0.011791,0.0018618,0.0040958,-8.3247,0.0059162,0.0090219,3.0062e-08,0.14,0.82,0
0.0072737,-0.0042064,0.011594,0.0018037,0.0040193,-0.0012067,0,0,0.049236,-0.014402,0,-0.015687,0,0,0,0.011741,0.0016572,0.0040193,-6.9239,0.0058057,0.0091344,3.0496e-08,0.16,0.82,0
0.0082632,-0.0045584,0.011586,0.0015747,0.0039481,-0.00099413,0,0,0.049645,-0.015427,0,-0.012924,0,0,0,0.011683,0.0014769,0.0039481,-5.6166,0.0057029,0.0092227,3.075e-08,0.18,0.82,0
0.0092594,-0.0048621,0.011562,0.0013782,0.0038822,-0.00078954,0,0,0.049922,-0.016276,0,-0.010264,0,0,0,0.011623,0.0013173,0.0038822,-4.4067,0.0056076,0.009293,3.0877e-08,0.2,0.82,0
0.01026,-0.0051184,0.011529,0.0012086,0.0038213,-0.00059595,0,0,0.050101,-0.016983,0,-0.0077474,0,0,0,0.011564,0.0011744,0.0038213,-3.2939,0.0055197,0.009351,3.0926e-08,0.22,0.82,0
0.011263,-0.005329,0.01149,0.0010608,0.0037652,-0.00041512,0,0,0.050211,-0.017579,0,-0.0053966,0,0,0,0.011506,0.0010443,0.0037652,-2.2758,0.0054387,0.0094018,3.0939e-08,0.24,0.82,0
0.012268,-0.0054959,0.011449,0.00092953,0.0037135,-0.00024798,0,0,0.050279,-0.018096,0,-0.0032238,0,0,0,0.011455,0.00092369,0.0037135,-1.3497,0.0053639,0.00945,3.0948e-08,0.26,0.82,0
0.013275,-0.0056219,0.011408,0.00081031,0.0036656,-9.5072e-05,0,0,0.050327,-0.018559,0,-0.0012359,0,0,0,0.011409,0.00080946,0.0036656,-0.51394,0.0052947,0.0094993,3.0978e-08,0.28,0.82,0
0.014282,-0.0057099,0.011371,0.0006992,0.003621,4.3211e-05,0,0,0.050375,-0.018992,0,0.00056174,0,0,0,0.011371,0.00069902,0.003621,0.23199,0.0052304,0.0095524,3.105e-08,0.3,0.82,0
0.01529,-0.0057633,0.011339,0.00059287,0.0035795,0.00016641,0,0,0.050435,-0.019413,0,0.0021633,0,0,0,0.011341,0.0005903,0.0035795,0.88698,0.0051703,0.0096115,3.1175e-08,0.32,0.82,0
0.016299,-0.0057856,0.011313,0.0004887,0.0035404,0.0002739,0,0,0.05052,-0.019836,0,0.0035607,0,0,0,0.01132,0.00048177,0.0035404,1.4486,0.0051139,0.009678,3.1362e-08,0.34,0.82,0
0.01731,-0.0057808,0.011294,0.00038477,0.0035035,0.00036491,0,0,0.050636,-0.020272,0,0.0047438,0,0,0,0.011306,0.00037258,0.0035035,1.9137,0.0050607,0.0097523,3.161e-08,0.36,0.82,0
0.018324,-0.0057531,0.011282,0.00027996,0.0034686,0.0004385,0,0,0.050788,-0.020726,0,0.0057006,0,0,0,0.0113,0.00026251,0.0034686,2.2788,0.0050103,0.0098342,3.1918e-08,0.38,0.82,0
0.019342,-0.0057069,0.011278,0.00017396,0.0034356,0.0004937,0,0,0.050975,-0.021201,0,0.0064181,0,0,0,0.0113,0.00015205,0.0034356,2.5408,0.0049625,0.0099223,3.2275e-08,0.4,0.82,0
0.020363,-0.0056469,0.01128,6.7275e-05,0.0034043,0.00052959,0,0,0.051195,-0.021691,0,0.0068846,0,0,0,0.011305,4.2319e-05,0.0034043,2.698,0.0049173,0.010015,3.267e-08,0.42,0.82,0
0.02139,-0.0055778,0.011289,-3.8757e-05,0.0033749,0.00054549,0,0,0.051439,-0.022189,0,0.0070914,0,0,0,0.011315,-6.4965e-05,0.0033749,2.7507,0.0048749,0.010109,3.3086e-08,0.44,0.82,0
0.022421,-0.0055046,0.011301,-0.00014209,0.0033477,0.00054113,0,0,0.051697,-0.022684,0,0.0070348,0,0,0,0.011327,-0.00016763,0.0033477,2.7014,0.0048356,0.010201,3.3503e-08,0.46,0.82,0
0.023458,-0.005432,0.011316,-0.00024012,0.0033228,0.00051679,0,0,0.051956,-0.023159,0,0.0067183,0,0,0,0.011339,-0.00026319,0.0033228,2.5555,0.0047996,0.010289,3.3901e-08,0.48,0.82,0
0.024499,-0.0053648,0.011332,-0.00032988,0.0033006,0.00047341,0,0,0.052203,-0.023598,0,0.0061544,0,0,0,0.011351,-0.00034907,0.0033006,2.3209,0.0047675,0.010369,3.4261e-08,0.5,0.82,0
0.025546,-0.0053071,0.011346,-0.00040831,0.0032814,0.00041268,0,0,0.052422,-0.023983,0,0.0053648,0,0,0,0.011361,-0.00042278,0.0032814,2.0082,0.0047398,0.010437,3.4564e-08,0.52,0.82,0
0.026596,-0.0052628,0.011358,-0.00047253,0.0032656,0.00033701,0,0,0.052599,-0.024298,0,0.0043811,0,0,0,0.011367,-0.00048212,0.0032656,1.6304,0.0047169,0.01049,3.4795e-08,0.54,0.82,0
0.02765,-0.0052351,0.011365,-0.00052011,0.0032533,0.00024948,0,0,0.052723,-0.024527,0,0.0032432,0,0,0,0.01137,-0.00052534,0.0032533,1.202,0.0046993,0.010527,3.494e-08,0.56,0.82,0
0.028705,-0.0052264,0.011366,-0.00054929,0.0032449,0.00015367,0,0,0.052784,-0.024662,0,0.0019977,0,0,0,0.011367,-0.00055127,0.0032449,0.73879,0.004687,0.010546,3.4992e-08,0.58,0.82,0
0.029761,-0.0052383,0.01136,-0.00055914,0.0032402,5.3515e-05,0,0,0.052778,-0.024696,0,0.0006957,0,0,0,0.01136,-0.00055938,0.0032402,0.25725,0.0046803,0.010546,3.4948e-08,0.6,0.82,0
0.030816,-0.0052714,0.011347,-0.00054966,0.0032393,-4.6933e-05,0,0,0.052702,-0.024628,0,-0.00061013,0,0,0,0.011347,-0.00054985,0.0032393,-0.22603,0.004679,0.010527,3.4806e-08,0.62,0.82,0
0.031869,-0.0053257,0.011328,-0.0005218,0.0032418,-0.00014373,0,0,0.05256,-0.024464,0,-0.0018685,0,0,0,0.01133,-0.00052355,0.0032418,-0.69483,0.0046827,0.01049,3.4571e-08,0.64,0.82,0
0.032919,-0.0054,0.011303,-0.00047739,0.0032476,-0.00023325,0,0,0.052358,-0.024212,0,-0.0030323,0,0,0,0.011307,-0.000482,0.0032476,-1.1339,0.0046909,0.010437,3.4252e-08,0.66,0.82,0
0.033963,-0.0054926,0.011272,-0.00041899,0.003256,-0.0003124,0,0,0.052106,-0.023888,0,-0.0040612,0,0,0,0.011281,-0.00042734,0.003256,-1.5295,0.0047031,0.010369,3.386e-08,0.68,0.82,0
0.035003,-0.005601,0.011239,-0.00034976,0.0032667,-0.00037875,0,0,0.051818,-0.023507,0,-0.0049238,0,0,0,0.011251,-0.00036213,0.0032667,-1.87,0.0047185,0.01029,3.341e-08,0.7,0.82,0
0.036036,-0.0057224,0.011203,-0.00027312,0.0032789,-0.00043067,0,0,0.051506,-0.023088,0,-0.0055987,0,0,0,0.011219,-0.00028926,0.0032789,-2.1462,0.0047362,0.010203,3.2919e-08,0.72,0.82,0
0.037063,-0.0058534,0.011167,-0.00019258,0.0032923,-0.00046731,0,0,0.051184,-0.022651,0,-0.006075,0,0,0,0.011186,-0.00021177,0.0032923,-2.3518,0.0047555,0.010112,3.2406e-08,0.74,0.82,0
0.038083,-0.0059907,0.011132,-0.00011141,0.0033061,-0.00048859,0,0,0.050866,-0.022214,0,-0.0063517,0,0,0,0.011153,-0.0001326,0.0033061,-2.4837,0.0047754,0.010019,3.1889e-08,0.76,0.82,0
0.039098,-0.0061307,0.011099,-3.2494e-05,0.0033199,-0.0004951,0,0,0.050563,-0.02179,0,-0.0064364,0,0,0,0.011121,-5.4472e-05,0.0033199,-2.5418,0.0047954,0.0099278,3.1384e-08,0.78,0.82,0
0.040106,-0.00627,0.011069,4.1814e-05,0.0033332,-0.00048795,0,0,0.050282,-0.021394,0,-0.0063433,0,0,0,0.01109,2.0265e-05,0.0033332,-2.5287,0.0048147,0.0098413,3.0906e-08,0.8,0.82,0
0.041109,-0.0064055,0.011043,0.00010978,0.0033458,-0.00046857,0,0,0.050031,-0.021034,0,-0.0060915,0,0,0,0.011063,8.9735e-05,0.0033458,-2.4496,0.0048329,0.0097614,3.0468e-08,0.82,0.82,0
0.042107,-0.0065342,0.011021,0.00017027,0.0033574,-0.00043865,0,0,0.049814,-0.020716,0,-0.0057024,0,0,0,0.011039,0.00015257,0.0033574,-2.3112,0.0048496,0.0096897,3.0077e-08,0.84,0.82,0
0.043102,-0.0066536,0.011003,0.00022269,0.0033677,-0.00039987,0,0,0.04963,-0.020443,0,-0.0051983,0,0,0,0.011018,0.00020788,0.0033677,-2.1214,0.0048645,0.0096272,2.9737e-08,0.86,0.82,0
0.044092,-0.0067613,0.010989,0.0002669,0.0033767,-0.00035391,0,0,0.049479,-0.020214,0,-0.0046008,0,0,0,0.011001,0.00025523,0.0033767,-1.8885,0.0048775,0.0095742,2.9451e-08,0.88,0.82,0
0.045081,-0.0068556,0.010978,0.0003031,0.0033844,-0.00030228,0,0,0.049359,-0.020028,0,-0.0039297,0,0,0,0.010987,0.00029455,0.0033844,-1.6207,0.0048885,0.0095306,2.9217e-08,0.9,0.82,0
0.046067,-0.0069347,0.01097,0.0003317,0.0033906,-0.00024634,0,0,0.049267,-0.019883,0,-0.0032024,0,0,0,0.010976,0.000326,0.0033906,-1.3258,0.0048975,0.009496,2.9033e-08,0.92,0.82,0
0.047051,-0.0069975,0.010965,0.00035321,0.0033954,-0.00018724,0,0,0.049201,-0.019774,0,-0.0024341,0,0,0,0.010968,0.00034991,0.0033954,-1.0106,0.0049044,0.00947,2.8896e-08,0.94,0.82,0
0.048035,-0.007043,0.010961,0.00036814,0.0033988,-0.00012595,0,0,0.049155,-0.019699,0,-0.0016374,0,0,0,0.010963,0.00036664,0.0033988,-0.68114,0.0049093,0.009452,2.8801e-08,0.96,0.82,0
0.049018,-0.0070705,0.010959,0.00037691,0.0034008,-6.3304e-05,0,0,0.049129,-0.019655,0,-0.00082295,0,0,0,0.01096,0.00037653,0.0034008,-0.34273,0.0049123,0.0094414,2.8745e-08,0.98,0.82,0
0.05,-0.0070797,0.010958,0.0003798,0.0034015,-3.5494e-05,0,0,0.04912,-0.019641,0,-0.00046142,0,0,0,0.010959,0.00037968,0.0034015,-0.19224,0.0049133,0.0094381,2.8728e-08,1,0.82,0
0,0,0.011089,0.0047523,0.0047523,-0.0024701,0,0,0.041187,-1.0842e-19,0,-0.032111,0,0,0,0.011938,0.0039032,0.0047523,-18.971,0.0068645,0.0076455,2.2002e-08,0,0.84,0
0.00082374,-0.00064222,0.011052,0.0042804,0.0045999,-0.0024495,0,0,0.041942,-0.0020765,0,-0.031844,0,0,0,0.011846,0.0034873,0.0045999,-17.941,0.0066443,0.0078613,2.3276e-08,0.02,0.84,0
0.0016777,-0.0012822,0.0112,0.0038368,0.0045109,-0.0023907,0,0,0.043477,-0.0043817,0,-0.031079,0,0,0,0.011908,0.0031287,0.0045109,-16.5,0.0065158,0.0081761,2.5388e-08,0.04,0.84,0
0.0025628,-0.0019092,0.011336,0.0033747,0.0044131,-0.0022757,0,0,0.044996,-0.0067494,0,-0.029584,0,0,0,0.01194,0.0027701,0.0044131,-14.879,0.0063745,0.008469,2.7282e-08,0.06,0.84,0
0.0034775,-0.0025118,0.011449,0.0029259,0.0043124,-0.0021089,0,0,0.046387,-0.0090126,0,-0.027416,0,0,0,0.011942,0.0024326,0.0043124,-13.165,0.0062291,0.0087229,2.8824e-08,0.08,0.84,0
0.0044183,-0.0030794,0.011531,0.0025138,0.0042136,-0.0019026,0,0,0.047566,-0.011049,0,-0.024733,0,0,0,0.011916,0.0021288,0.0042136,-11.439,0.0060863,0.0089296,2.9959e-08,0.1,0.84,0
0.0053802,-0.0036039,0.011581,0.0021509,0.0041195,-0.0016722,0,0,0.048497,-0.012796,0,-0.021739,0,0,0,0.011868,0.0018631,0.0041195,-9.7639,0.0059503,0.0090896,3.0706e-08,0.12,0.84,0
0.0063582,-0.0040798,0.011598,0.0018402,0.0040316,-0.0014324,0,0,0.049185,-0.014244,0,-0.018621,0,0,0,0.011804,0.0016343,0.0040316,-8.1803,0.0058234,0.0092086,3.1128e-08,0.14,0.84,0
0.0073476,-0.0045042,0.011591,0.0015784,0.0039507,-0.0011943,0,0,0.049659,-0.01542,0,-0.015526,0,0,0,0.011731,0.0014379,0.0039507,-6.7092,0.0057066,0.0092951,3.1309e-08,0.16,0.84,0
0.0083445,-0.004876,0.011564,0.0013593,0.0038768,-0.0009656,0,0,0.049963,-0.016364,0,-0.012553,0,0,0,0.011654,0.0012687,0.0038768,-5.3584,0.0055999,0.009358,3.1327e-08,0.18,0.84,0
0.0093461,-0.005196,0.011524,0.0011757,0.0038099,-0.0007506,0,0,0.050141,-0.017122,0,-0.0097578,0,0,0,0.011578,0.0011216,0.0038099,-4.1271,0.0055032,0.009405,3.125e-08,0.2,0.84,0
0.01035,-0.0054657,0.011477,0.0010208,0.0037495,-0.0005515,0,0,0.050232,-0.017736,0,-0.0071695,0,0,0,0.011506,0.00099175,0.0037495,-3.0107,0.0054159,0.0094428,3.1133e-08,0.22,0.84,0
0.011355,-0.0056874,0.011429,0.000888,0.003695,-0.00036911,0,0,0.05027,-0.018246,0,-0.0047985,0,0,0,0.011442,0.00087509,0.003695,-2.0031,0.0053373,0.0094767,3.1016e-08,0.24,0.84,0
0.012361,-0.0058639,0.011382,0.00077198,0.0036461,-0.00020352,0,0,0.050281,-0.018682,0,-0.0026458,0,0,0,0.011385,0.00076808,0.0036461,-1.0985,0.0052666,0.0095108,3.0928e-08,0.26,0.84,0
0.013367,-0.0059985,0.011338,0.00066801,0.003602,-5.4518e-05,0,0,0.050288,-0.019071,0,-0.00070873,0,0,0,0.011339,0.00066774,0.003602,-0.29273,0.0052028,0.0095483,3.0887e-08,0.28,0.84,0
0.014372,-0.0060945,0.011301,0.00057224,0.0035621,7.8112e-05,0,0,0.050305,-0.019434,0,0.0010155,0,0,0,0.011302,0.00057167,0.0035621,0.41711,0.0051452,0.0095912,3.0908e-08,0.3,0.84,0
0.015379,-0.0061556,0.011271,0.00048152,0.0035258,0.00019444,0,0,0.050345,-0.019788,0,0.0025277,0,0,0,0.011275,0.00047802,0.0035258,1.0321,0.0050929,0.0096411,3.0996e-08,0.32,0.84,0
0.016386,-0.0061858,0.011249,0.00039344,0.0034927,0.00029432,0,0,0.050416,-0.020145,0,0.0038262,0,0,0,0.011257,0.00038547,0.0034927,1.5519,0.005045,0.0096986,3.1154e-08,0.34,0.84,0
0.017396,-0.006189,0.011235,0.00030629,0.0034623,0.00037742,0,0,0.050521,-0.020514,0,0.0049065,0,0,0,0.011248,0.00029327,0.0034623,1.9756,0.0050012,0.0097637,3.1378e-08,0.36,0.84,0
0.018407,-0.0061697,0.011229,0.00021907,0.0034343,0.00044323,0,0,0.050664,-0.020899,0,0.0057621,0,0,0,0.011246,0.00020126,0.0034343,2.3017,0.0049607,0.0098357,3.1662e-08,0.38,0.84,0
0.019422,-0.0061322,0.01123,0.00013147,0.0034084,0.0004912,0,0,0.05084,-0.0213,0,0.0063856,0,0,0,0.011252,0.00010977,0.0034084,2.5292,0.0049233,0.0099131,3.1996e-08,0.4,0.84,0
0.020441,-0.0060812,0.011238,4.3887e-05,0.0033845,0.00052082,0,0,0.051046,-0.021714,0,0.0067707,0,0,0,0.011262,1.9706e-05,0.0033845,2.6582,0.0048887,0.0099941,3.2365e-08,0.42,0.84,0
0.021464,-0.0060212,0.011251,-4.2652e-05,0.0033624,0.0005318,0,0,0.051274,-0.022133,0,0.0069134,0,0,0,0.011276,-6.7639e-05,0.0033624,2.6901,0.0048569,0.010076,3.2753e-08,0.44,0.84,0
0.022492,-0.005957,0.011267,-0.00012655,0.0033423,0.00052415,0,0,0.051514,-0.022548,0,0.006814,0,0,0,0.011292,-0.00015061,0.0033423,2.6283,0.0048278,0.010157,3.3144e-08,0.46,0.84,0
0.023524,-0.0058931,0.011286,-0.00020577,0.0033242,0.00049838,0,0,0.051754,-0.022945,0,0.0064789,0,0,0,0.011308,-0.00022734,0.0033242,2.4785,0.0048016,0.010233,3.3517e-08,0.48,0.84,0
0.024562,-0.0058339,0.011305,-0.00027802,0.0033082,0.00045552,0,0,0.051981,-0.02331,0,0.0059218,0,0,0,0.011323,-0.00029591,0.0033082,2.2486,0.0047785,0.010301,3.3856e-08,0.5,0.84,0
0.025604,-0.0057832,0.011323,-0.00034094,0.0032945,0.00039721,0,0,0.052183,-0.02363,0,0.0051638,0,0,0,0.011336,-0.00035445,0.0032945,1.9483,0.0047587,0.01036,3.4144e-08,0.52,0.84,0
0.026649,-0.0057447,0.011337,-0.0003923,0.0032833,0.00032569,0,0,0.052347,-0.023891,0,0.004234,0,0,0,0.011346,-0.00040134,0.0032833,1.5894,0.0047426,0.010406,3.4366e-08,0.54,0.84,0
0.027697,-0.0057211,0.011346,-0.00043024,0.0032747,0.00024372,0,0,0.052463,-0.024082,0,0.0031683,0,0,0,0.011351,-0.00043528,0.0032747,1.1851,0.0047301,0.010438,3.4512e-08,0.56,0.84,0
0.028748,-0.0057149,0.011349,-0.0004534,0.0032687,0.00015447,0,0,0.052523,-0.024194,0,0.0020082,0,0,0,0.011351,-0.00045543,0.0032687,0.74972,0.0047215,0.010455,3.4572e-08,0.58,0.84,0
0.029798,-0.0057273,0.011346,-0.00046108,0.0032655,6.142e-05,0,0,0.052523,-0.024222,0,0.00079846,0,0,0,0.011346,-0.0004614,0.0032655,0.29804,0.0047168,0.010455,3.4544e-08,0.6,0.84,0
0.030849,-0.0057592,0.011336,-0.00045327,0.0032647,-3.1892e-05,0,0,0.052461,-0.024167,0,-0.0004146,0,0,0,0.011336,-0.00045335,0.0032647,-0.155,0.0047157,0.010439,3.4427e-08,0.62,0.84,0
0.031897,-0.0058105,0.011319,-0.00043072,0.0032664,-0.000122,0,0,0.05234,-0.024031,0,-0.001586,0,0,0,0.01132,-0.00043198,0.0032664,-0.59486,0.0047181,0.010408,3.4223e-08,0.64,0.84,0
0.032942,-0.0058802,0.011295,-0.00039485,0.0032702,-0.00020572,0,0,0.052164,-0.023823,0,-0.0026744,0,0,0,0.011299,-0.00039847,0.0032702,-1.0078,0.0047236,0.010362,3.394e-08,0.66,0.84,0
0.033983,-0.0059669,0.011267,-0.00034767,0.0032758,-0.0002803,0,0,0.051943,-0.023553,0,-0.0036438,0,0,0,0.011274,-0.00035443,0.0032758,-1.3816,0.0047317,0.010304,3.3589e-08,0.68,0.84,0
0.03502,-0.0060684,0.011234,-0.00029162,0.0032828,-0.00034353,0,0,0.051686,-0.023234,0,-0.0044659,0,0,0,0.011245,-0.00030185,0.0032828,-1.7057,0.0047419,0.010236,3.318e-08,0.7,0.84,0
0.036051,-0.0061821,0.011199,-0.00022939,0.003291,-0.00039388,0,0,0.051404,-0.022882,0,-0.0051205,0,0,0,0.011213,-0.00024295,0.003291,-1.9715,0.0047536,0.010161,3.273e-08,0.72,0.84,0
0.037076,-0.0063051,0.011173,-0.0001644,0.0033027,-0.00042798,0,0,0.051159,-0.022536,0,-0.0055637,0,0,0,0.011189,-0.00018053,0.0033027,-2.1587,0.0047706,0.01009,3.2345e-08,0.74,0.84,0
0.038095,-0.0064343,0.011112,-0.00010648,0.0033016,-0.00045631,0,0,0.050766,-0.022152,0,-0.0059321,0,0,0,0.01113,-0.00012501,0.0033016,-2.3255,0.0047689,0.0099927,3.1674e-08,0.76,0.84,0
0.039109,-0.0065664,0.011103,-2.7864e-05,0.0033226,-0.00046332,0,0,0.050575,-0.021778,0,-0.0060232,0,0,0,0.011123,-4.7116e-05,0.0033226,-2.3794,0.0047994,0.0099237,3.1378e-08,0.78,0.84,0
0.040116,-0.0066983,0.011047,2.5663e-05,0.0033219,-0.00045705,0,0,0.050215,-0.021425,0,-0.0059416,0,0,0,0.011066,6.7426e-06,0.0033219,-2.3706,0.0047983,0.0098304,3.0744e-08,0.8,0.84,0
0.041119,-0.0068271,0.01104,9.3862e-05,0.0033402,-0.00044715,0,0,0.05005,-0.021101,0,-0.0058129,0,0,0,0.011059,7.5627e-05,0.0033402,-2.3353,0.0048248,0.0097687,3.0473e-08,0.82,0.84,0
0.042117,-0.0069498,0.010995,0.0001379,0.0033398,-0.00041165,0,0,0.049757,-0.020812,0,-0.0053514,0,0,0,0.01101,0.00012231,0.0033398,-2.1683,0.0048242,0.0096887,2.9936e-08,0.84,0.84,0
0.043111,-0.0070639,0.01099,0.00019092,0.0033542,-0.00038902,0,0,0.04963,-0.020561,0,-0.0050573,0,0,0,0.011004,0.00017692,0.0033542,-2.0605,0.0048449,0.0096391,2.9715e-08,0.86,0.84,0
0.044101,-0.0071673,0.010956,0.00022346,0.003354,-0.00033151,0,0,0.049416,-0.020348,0,-0.0043096,0,0,0,0.010967,0.00021323,0.003354,-1.7674,0.0048446,0.0095774,2.9305e-08,0.88,0.84,0
0.045088,-0.0072579,0.010953,0.00026037,0.003364,-0.00030044,0,0,0.049328,-0.020174,0,-0.0039057,0,0,0,0.010962,0.00025193,0.003364,-1.6082,0.0048591,0.009542,2.9145e-08,0.9,0.84,0
0.046073,-0.0073342,0.010932,0.00028164,0.003364,-0.00022811,0,0,0.04919,-0.020035,0,-0.0029654,0,0,0,0.010937,0.00027675,0.003364,-1.2265,0.0048591,0.0095002,2.887e-08,0.92,0.84,0
0.047057,-0.0073948,0.01093,0.00030371,0.00337,-0.00019214,0,0,0.049138,-0.019931,0,-0.0024979,0,0,0,0.010933,0.00030023,0.00337,-1.0356,0.0048678,0.0094785,2.8771e-08,0.94,0.84,0
0.048038,-0.0074389,0.010919,0.0003149,0.0033701,-0.00011121,0,0,0.049066,-0.019859,0,-0.0014457,0,0,0,0.01092,0.00031373,0.0033701,-0.6008,0.0048679,0.0094559,2.8623e-08,0.96,0.84,0
0.049019,-0.0074656,0.010918,0.00032394,0.0033725,-7.2926e-05,0,0,0.049045,-0.019816,0,-0.00094803,0,0,0,0.010918,0.00032343,0.0033725,-0.39438,0.0048715,0.0094469,2.8582e-08,0.98,0.84,0
0.05,-0.0074745,0.010923,0.00034323,0.0033799,-3.4395e-05,0,0,0.049031,-0.019738,0,-0.00044714,0,0,0,0.010923,0.00034311,0.0033799,-0.18627,0.0048821,0.0094356,2.8559e-08,1,0.84,0
0,0,0.011167,0.0047858,0.0047858,-0.0026387,0,0,0.041477,-2.1684e-19,0,-0.034304,0,0,0,0.012117,0.003836,0.0047858,-19.796,0.0069129,0.007849,2.3614e-08,0,0.86,0
0.00082954,-0.00068607,0.011055,0.0042335,0.0045866,-0.0026144,0,0,0.042046,-0.0022953,0,-0.033988,0,0,0,0.011942,0.0033468,0.0045866,-18.735,0.0066251,0.0080472,2.4636e-08,0.02,0.86,0
0.0016932,-0.0013751,0.011378,0.003804,0.0045545,-0.002547,0,0,0.04435,-0.0048779,0,-0.033111,0,0,0,0.012154,0.0030272,0.0045545,-16.962,0.0065787,0.0084676,2.7793e-08,0.04,0.86,0
0.0025919,-0.0020523,0.011376,0.0032253,0.0043803,-0.0024362,0,0,0.04547,-0.0075076,0,-0.031671,0,0,0,0.012048,0.0025526,0.0043803,-15.436,0.0063271,0.0087267,2.915e-08,0.06,0.86,0
0.0035227,-0.0027023,0.011621,0.0027919,0.004324,-0.0021923,0,0,0.047433,-0.0099587,0,-0.0285,0,0,0,0.012136,0.0022775,0.004324,-13.204,0.0062458,0.009011,3.1144e-08,0.08,0.86,0
0.0044803,-0.0033119,0.011586,0.0023089,0.0041683,-0.0020053,0,0,0.048212,-0.012086,0,-0.026069,0,0,0,0.012001,0.001894,0.0041683,-11.69,0.0060209,0.009183,3.1698e-08,0.1,0.86,0
0.0054579,-0.0038716,0.011686,0.0019667,0.0040958,-0.0016716,0,0,0.049336,-0.013839,0,-0.02173,0,0,0,0.011965,0.0016873,0.0040958,-9.491,0.0059161,0.0093105,3.2288e-08,0.12,0.86,0
0.0064492,-0.0043761,0.011619,0.0015855,0.0039613,-0.0014166,0,0,0.049773,-0.015442,0,-0.018416,0,0,0,0.011815,0.0013893,0.0039613,-7.8847,0.0057218,0.0094071,3.2224e-08,0.14,0.86,0
0.0074488,-0.0048232,0.011582,0.0013361,0.0038755,-0.0011575,0,0,0.050094,-0.016506,0,-0.015048,0,0,0,0.011711,0.001207,0.0038755,-6.3658,0.0055979,0.0094568,3.2059e-08,0.16,0.86,0
0.0084529,-0.0052129,0.011529,0.0011338,0.003799,-0.00091597,0,0,0.050248,-0.017324,0,-0.011908,0,0,0,0.01161,0.0010537,0.003799,-4.9971,0.0054874,0.0094859,3.1777e-08,0.18,0.86,0
0.0094588,-0.005547,0.011469,0.00096871,0.0037312,-0.00069493,0,0,0.050293,-0.017956,0,-0.0090341,0,0,0,0.011514,0.00092292,0.0037312,-3.7702,0.0053895,0.0095038,3.1456e-08,0.2,0.86,0
0.010465,-0.0058279,0.011406,0.00083245,0.0036716,-0.00049494,0,0,0.050275,-0.018454,0,-0.0064343,0,0,0,0.011429,0.00080933,0.0036716,-2.6742,0.0053034,0.0095173,3.1149e-08,0.22,0.86,0
0.01147,-0.0060588,0.011347,0.00071793,0.0036194,-0.00031541,0,0,0.050228,-0.01886,0,-0.0041003,0,0,0,0.011356,0.00070858,0.0036194,-1.6982,0.005228,0.0095315,3.0891e-08,0.24,0.86,0
0.012474,-0.0062432,0.011293,0.00061942,0.0035738,-0.00015527,0,0,0.050177,-0.019204,0,-0.0020185,0,0,0,0.011296,0.00061716,0.0035738,-0.83321,0.0051622,0.0095498,3.0701e-08,0.26,0.86,0
0.013477,-0.0063847,0.011248,0.0005323,0.0035341,-1.3454e-05,0,0,0.05014,-0.019511,0,-0.0001749,0,0,0,0.011248,0.00053229,0.0035341,-0.071939,0.0051047,0.0095744,3.0591e-08,0.28,0.86,0
0.014479,-0.0064872,0.011211,0.00045293,0.0034993,0.00011091,0,0,0.050129,-0.019802,0,0.0014418,0,0,0,0.011213,0.00045179,0.0034993,0.59058,0.0050546,0.0096068,3.0565e-08,0.3,0.86,0
0.015482,-0.0065548,0.011185,0.00037842,0.003469,0.00021842,0,0,0.050153,-0.020088,0,0.0028394,0,0,0,0.011189,0.00037401,0.003469,1.1574,0.0050107,0.0096475,3.0624e-08,0.32,0.86,0
0.016486,-0.0065914,0.011168,0.00030664,0.0034423,0.00030936,0,0,0.050214,-0.020382,0,0.0040217,0,0,0,0.011176,0.00029783,0.0034423,1.6302,0.0049721,0.0096965,3.0763e-08,0.34,0.86,0
0.017491,-0.0066014,0.01116,0.00023608,0.0034187,0.00038377,0,0,0.050316,-0.020687,0,0.004989,0,0,0,0.011173,0.00022262,0.0034187,2.0096,0.0049381,0.0097534,3.0974e-08,0.36,0.86,0
0.018498,-0.0065891,0.01116,0.00016588,0.0033979,0.0004415,0,0,0.050456,-0.021008,0,0.0057396,0,0,0,0.011178,0.00014818,0.0033979,2.2959,0.004908,0.009817,3.1249e-08,0.38,0.86,0
0.019509,-0.0065589,0.011168,9.5757e-05,0.0033793,0.00048233,0,0,0.05063,-0.021343,0,0.0062703,0,0,0,0.011189,7.4786e-05,0.0033793,2.4895,0.0048812,0.0098857,3.1574e-08,0.4,0.86,0
0.020523,-0.0065154,0.011183,2.5984e-05,0.0033627,0.00050605,0,0,0.050832,-0.021689,0,0.0065787,0,0,0,0.011206,3.0775e-06,0.0033627,2.5917,0.0048573,0.0099576,3.1935e-08,0.42,0.86,0
0.021542,-0.0064631,0.01119,-5.2087e-05,0.0033414,0.00050915,0,0,0.051016,-0.022058,0,0.0066189,0,0,0,0.011213,-7.5098e-05,0.0033414,2.5878,0.0048265,0.010026,3.2234e-08,0.44,0.86,0
0.022565,-0.0064065,0.011215,-0.00013242,0.0033248,0.00050176,0,0,0.051287,-0.022472,0,0.0065229,0,0,0,0.011237,-0.00015457,0.0033248,2.5269,0.0048025,0.010112,3.2681e-08,0.46,0.86,0
0.023594,-0.0063498,0.011236,-0.0002029,0.0033098,0.00047621,0,0,0.051518,-0.022833,0,0.0061908,0,0,0,0.011255,-0.00022269,0.0033098,2.3799,0.0047809,0.010182,3.3042e-08,0.48,0.86,0
0.024626,-0.0062972,0.011256,-0.00026709,0.0032967,0.00043497,0,0,0.051736,-0.023165,0,0.0056546,0,0,0,0.011272,-0.00028348,0.0032967,2.1587,0.0047619,0.010246,3.3371e-08,0.5,0.86,0
0.025663,-0.0062523,0.011275,-0.00032286,0.0032856,0.00037963,0,0,0.05193,-0.023455,0,0.0049351,0,0,0,0.011287,-0.00033527,0.0032856,1.8728,0.0047459,0.010301,3.3653e-08,0.52,0.86,0
0.026703,-0.0062185,0.011311,-0.00033155,0.0032939,0.00030285,0,0,0.052112,-0.023565,0,0.003937,0,0,0,0.011319,-0.00033942,0.0032939,1.489,0.0047579,0.010333,3.3948e-08,0.54,0.86,0
0.027747,-0.0061984,0.011313,-0.00036674,0.0032839,0.00024538,0,0,0.052189,-0.023729,0,0.00319,0,0,0,0.011318,-0.0003719,0.0032839,1.203,0.0047434,0.010358,3.4034e-08,0.56,0.86,0
0.028792,-0.0061942,0.011307,-0.00042144,0.0032657,0.00015202,0,0,0.052269,-0.023966,0,0.0019762,0,0,0,0.011309,-0.00042341,0.0032657,0.74247,0.0047171,0.010391,3.4102e-08,0.58,0.86,0
0.029837,-0.0062072,0.011322,-0.00038979,0.0032797,5.4695e-05,0,0,0.052276,-0.023852,0,0.00071104,0,0,0,0.011322,-0.00039004,0.0032797,0.26757,0.0047373,0.010376,3.4124e-08,0.6,0.86,0
0.030883,-0.0062381,0.011324,-0.00036409,0.0032878,-1.935e-05,0,0,0.052232,-0.023738,0,-0.00025155,0,0,0,0.011324,-0.00036412,0.0032878,-0.094858,0.0047491,0.010356,3.406e-08,0.62,0.86,0
0.031927,-0.0062869,0.011309,-0.0003462,0.0032888,-0.00010257,0,0,0.052131,-0.023628,0,-0.0013334,0,0,0,0.01131,-0.0003471,0.0032888,-0.50417,0.0047505,0.010331,3.3888e-08,0.64,0.86,0
0.032968,-0.0063529,0.011288,-0.00031785,0.003291,-0.00018016,0,0,0.05198,-0.023457,0,-0.002342,0,0,0,0.011291,-0.00032064,0.003291,-0.88912,0.0047537,0.010292,3.364e-08,0.66,0.86,0
0.034006,-0.0064347,0.011261,-0.00028056,0.0032941,-0.00024967,0,0,0.051785,-0.023236,0,-0.0032457,0,0,0,0.011266,-0.00028596,0.0032941,-1.2386,0.0047582,0.010243,3.3325e-08,0.68,0.86,0
0.035039,-0.0065304,0.011229,-0.00023621,0.003298,-0.00030913,0,0,0.051555,-0.022972,0,-0.0040187,0,0,0,0.011238,-0.00024454,0.003298,-1.5433,0.0047638,0.010184,3.2953e-08,0.7,0.86,0
0.036068,-0.0066377,0.011195,-0.00018686,0.0033023,-0.00035711,0,0,0.0513,-0.02268,0,-0.0046424,0,0,0,0.011206,-0.00019805,0.0033023,-1.7954,0.00477,0.010118,3.2538e-08,0.72,0.86,0
0.037091,-0.0067539,0.011173,-0.00012292,0.0033149,-0.00038644,0,0,0.051076,-0.022346,0,-0.0050238,0,0,0,0.011186,-0.00013612,0.0033149,-1.9571,0.0047882,0.010051,3.2183e-08,0.74,0.86,0
0.038109,-0.0068762,0.011109,-8.2852e-05,0.0033079,-0.00041523,0,0,0.050708,-0.02204,0,-0.005398,0,0,0,0.011125,-9.8236e-05,0.0033079,-2.1218,0.004778,0.0099662,3.1546e-08,0.76,0.86,0
0.039121,-0.0070016,0.011095,-2.25e-05,0.0033218,-0.0004236,0,0,0.050527,-0.021738,0,-0.0055069,0,0,0,0.011111,-3.8616e-05,0.0033218,-2.1789,0.0047981,0.0099067,3.1256e-08,0.78,0.86,0
0.040128,-0.0071272,0.011035,1.5112e-05,0.003315,-0.00042051,0,0,0.050179,-0.021449,0,-0.0054666,0,0,0,0.011051,-9.1188e-07,0.003315,-2.1822,0.0047883,0.0098229,3.0639e-08,0.8,0.86,0
0.04113,-0.00725,0.011022,6.8707e-05,0.0033272,-0.00041331,0,0,0.050017,-0.021181,0,-0.005373,0,0,0,0.011038,5.3134e-05,0.0033272,-2.1579,0.004806,0.0097681,3.0368e-08,0.82,0.86,0
0.042128,-0.0073674,0.010971,0.00010021,0.0033213,-0.00038245,0,0,0.049722,-0.020937,0,-0.0049719,0,0,0,0.010984,8.6773e-05,0.0033213,-2.0125,0.0047974,0.0096938,2.9829e-08,0.84,0.86,0
0.043121,-0.0074769,0.01096,0.000143,0.003331,-0.00036305,0,0,0.049591,-0.020722,0,-0.0047196,0,0,0,0.010973,0.00013082,0.003331,-1.92,0.0048115,0.0096483,2.9602e-08,0.86,0.86,0
0.04411,-0.0075763,0.010921,0.00016673,0.0033264,-0.00031053,0,0,0.049366,-0.020538,0,-0.0040369,0,0,0,0.01093,0.00015777,0.0033264,-1.6526,0.0048047,0.009589,2.9177e-08,0.88,0.86,0
0.045096,-0.0076636,0.010913,0.00019732,0.0033332,-0.00028263,0,0,0.049272,-0.020383,0,-0.0036741,0,0,0,0.010921,0.00018987,0.0033332,-1.5097,0.0048147,0.0095554,2.9008e-08,0.9,0.86,0
0.04608,-0.0077373,0.010887,0.00021311,0.00333,-0.00021497,0,0,0.049119,-0.02026,0,-0.0027946,0,0,0,0.010891,0.00020878,0.00333,-1.1533,0.00481,0.0095138,2.8713e-08,0.92,0.86,0
0.047062,-0.0077959,0.010882,0.00023186,0.0033342,-0.00018185,0,0,0.049061,-0.020165,0,-0.002364,0,0,0,0.010885,0.00022876,0.0033342,-0.97792,0.004816,0.0094926,2.8605e-08,0.94,0.86,0
0.048042,-0.0078385,0.010868,0.00024028,0.0033323,-0.00010509,0,0,0.048979,-0.020098,0,-0.0013662,0,0,0,0.010869,0.00023924,0.0033323,-0.56654,0.0048134,0.0094696,2.8443e-08,0.96,0.86,0
0.049021,-0.0078644,0.010866,0.00024809,0.0033341,-6.9373e-05,0,0,0.048954,-0.020059,0,-0.00090186,0,0,0,0.010866,0.00024763,0.0033341,-0.37434,0.0048159,0.0094606,2.8397e-08,0.98,0.86,0
0.05,-0.0078731,0.010856,0.00023399,0.003327,-3.3346e-05,0,0,0.048938,-0.020104,0,-0.0004335,0,0,0,0.010856,0.00023389,0.003327,-0.17987,0.0048056,0.0094627,2.8359e-08,1,0.86,0
0,0,0.011305,0.0048451,0.0048451,-0.0028311,0,0,0.041991,0,0,-0.036804,0,0,0,0.01237,0.00378,0.0048451,-20.617,0.0069985,0.0081104,2.5814e-08,0,0.88,0
0.00083982,-0.00073608,0.01116,0.0041699,0.004599,-0.0027869,0,0,0.042647,-0.0027889,0,-0.036229,0,0,0,0.012135,0.0031948,0.004599,-19.284,0.006643,0.0083275,2.6839e-08,0.02,0.88,0
0.001719,-0.001482,0.011499,0.0036083,0.0045322,-0.0027009,0,0,0.045284,-0.0060053,0,-0.035111,0,0,0,0.012335,0.0027723,0.0045322,-17.197,0.0065464,0.0088153,3.0511e-08,0.04,0.88,0
0.0026379,-0.0022167,0.011466,0.0028968,0.0043089,-0.0025417,0,0,0.046523,-0.0091789,0,-0.033042,0,0,0,0.012164,0.0021997,0.0043089,-15.338,0.006224,0.0090945,3.1739e-08,0.06,0.88,0
0.0035914,-0.0029188,0.011692,0.0023867,0.0042235,-0.0022241,0,0,0.048543,-0.011939,0,-0.028913,0,0,0,0.012196,0.0018825,0.0042235,-12.775,0.0061006,0.009365,3.3463e-08,0.08,0.88,0
0.0045709,-0.0035722,0.011632,0.00188,0.0040535,-0.0019872,0,0,0.049258,-0.014128,0,-0.025833,0,0,0,0.012021,0.0014906,0.0040535,-11.087,0.005855,0.0095116,3.3616e-08,0.1,0.88,0
0.0055674,-0.0041665,0.011678,0.00154,0.0039653,-0.0015954,0,0,0.050131,-0.015765,0,-0.020741,0,0,0,0.011923,0.0012949,0.0039653,-8.7358,0.0057277,0.0095762,3.3558e-08,0.12,0.88,0
0.0065731,-0.0046975,0.011633,0.0013088,0.0038825,-0.0013635,0,0,0.050377,-0.016729,0,-0.017726,0,0,0,0.01181,0.0011317,0.0038825,-7.3982,0.0056081,0.009603,3.3215e-08,0.14,0.88,0
0.0075825,-0.0051644,0.011557,0.0010819,0.0037916,-0.001088,0,0,0.050473,-0.017613,0,-0.014143,0,0,0,0.011669,0.00097011,0.0037916,-5.8675,0.0054768,0.0096038,3.2604e-08,0.16,0.88,0
0.008592,-0.005569,0.011471,0.00090402,0.0037125,-0.00084008,0,0,0.050431,-0.018255,0,-0.010921,0,0,0,0.011537,0.00083765,0.0037125,-4.5172,0.0053625,0.0095911,3.1966e-08,0.18,0.88,0
0.0095997,-0.0059143,0.011385,0.00076291,0.0036445,-0.0006198,0,0,0.050315,-0.01873,0,-0.0080575,0,0,0,0.011421,0.00072687,0.0036445,-3.3281,0.0052642,0.009575,3.1375e-08,0.2,0.88,0
0.010605,-0.0062039,0.011305,0.00064908,0.0035863,-0.0004253,0,0,0.050174,-0.019092,0,-0.0055288,0,0,0,0.011322,0.00063213,0.0035863,-2.2818,0.0051803,0.0095617,3.0873e-08,0.22,0.88,0
0.011607,-0.0064418,0.011235,0.0005552,0.0035371,-0.00025417,0,0,0.050037,-0.019383,0,-0.0033042,0,0,0,0.011241,0.00054916,0.0035371,-1.3625,0.0051092,0.0095552,3.0479e-08,0.24,0.88,0
0.012606,-0.0066321,0.011177,0.00047569,0.0034957,-0.00010413,0,0,0.049926,-0.01963,0,-0.0013537,0,0,0,0.011178,0.00047468,0.0034957,-0.55746,0.0050493,0.0095575,3.02e-08,0.26,0.88,0
0.013604,-0.0067789,0.01113,0.00040625,0.003461,2.6766e-05,0,0,0.049852,-0.019856,0,0.00034796,0,0,0,0.011131,0.00040618,0.003461,0.143,0.0049993,0.00957,3.0036e-08,0.28,0.88,0
0.0146,-0.0068865,0.011097,0.00034358,0.0034322,0.00014,0,0,0.049822,-0.020076,0,0.00182,0,0,0,0.011099,0.00034176,0.0034322,0.74576,0.0049576,0.0095928,2.9982e-08,0.3,0.88,0
0.015597,-0.0069591,0.011076,0.00028521,0.0034083,0.0002366,0,0,0.049839,-0.0203,0,0.0030758,0,0,0,0.011081,0.00028003,0.0034083,1.2555,0.0049231,0.0096259,3.0029e-08,0.32,0.88,0
0.016594,-0.007001,0.011066,0.00022931,0.0033886,0.00031719,0,0,0.049903,-0.020535,0,0.0041235,0,0,0,0.011075,0.00022003,0.0033886,1.6752,0.0048946,0.0096685,3.0169e-08,0.34,0.88,0
0.017593,-0.0070165,0.011066,0.00017463,0.0033723,0.00038211,0,0,0.050012,-0.020785,0,0.0049674,0,0,0,0.01108,0.00016124,0.0033723,2.0068,0.0048711,0.0097194,3.0389e-08,0.36,0.88,0
0.018594,-0.00701,0.011076,0.00012045,0.003359,0.00043145,0,0,0.050162,-0.02105,0,0.0056088,0,0,0,0.011093,0.00010349,0.003359,2.2517,0.0048519,0.0097772,3.0676e-08,0.38,0.88,0
0.019599,-0.0069859,0.011094,6.6525e-05,0.003348,0.00046521,0,0,0.050346,-0.02133,0,0.0060477,0,0,0,0.011113,4.6934e-05,0.003348,2.4115,0.0048361,0.0098402,3.1016e-08,0.4,0.88,0
0.020608,-0.0069487,0.011117,1.3048e-05,0.0033391,0.0004834,0,0,0.050558,-0.021619,0,0.0062842,0,0,0,0.011138,-7.9563e-06,0.0033391,2.488,0.0048231,0.0099062,3.1393e-08,0.42,0.88,0
0.021621,-0.0069028,0.011137,-3.761e-05,0.0033299,0.00048189,0,0,0.050748,-0.021889,0,0.0062645,0,0,0,0.011158,-5.8351e-05,0.0033299,2.4646,0.0048099,0.0099642,3.1713e-08,0.44,0.88,0
0.02264,-0.0068524,0.011187,-6.4219e-05,0.0033368,0.0004684,0,0,0.051026,-0.022107,0,0.0060892,0,0,0,0.011206,-8.3686e-05,0.0033368,2.3798,0.0048198,0.010027,3.2202e-08,0.46,0.88,0
0.023662,-0.0068017,0.011221,-0.00010522,0.0033347,0.00044111,0,0,0.051261,-0.02236,0,0.0057345,0,0,0,0.011238,-0.00012238,0.0033347,2.227,0.0048168,0.010086,3.2592e-08,0.48,0.88,0
0.02469,-0.0067547,0.011254,-0.00014235,0.0033334,0.00040101,0,0,0.051482,-0.022593,0,0.0052131,0,0,0,0.011268,-0.00015645,0.0033334,2.0128,0.0048149,0.01014,3.2953e-08,0.5,0.88,0
0.025722,-0.0067146,0.011283,-0.00017453,0.0033326,0.00034948,0,0,0.051679,-0.022797,0,0.0045433,0,0,0,0.011294,-0.00018518,0.0033326,1.7454,0.0048138,0.010186,3.3268e-08,0.52,0.88,0
0.026757,-0.0066847,0.011301,-0.00022926,0.0033216,0.00028315,0,0,0.051867,-0.02308,0,0.0036809,0,0,0,0.011308,-0.00023621,0.0033216,1.4059,0.0047978,0.01024,3.3546e-08,0.54,0.88,0
0.027796,-0.0066676,0.011308,-0.00025521,0.0033158,0.00023107,0,0,0.051949,-0.023212,0,0.003004,0,0,0,0.011312,-0.00025983,0.0033158,1.1444,0.0047895,0.010263,3.3655e-08,0.56,0.88,0
0.028836,-0.0066651,0.011338,-0.00023217,0.0033317,0.00014562,0,0,0.052039,-0.023165,0,0.0018931,0,0,0,0.01134,-0.000234,0.0033317,0.72099,0.0048124,0.010266,3.3818e-08,0.58,0.88,0
0.029877,-0.0066786,0.011326,-0.00027052,0.0033167,5.8278e-05,0,0,0.052061,-0.023317,0,0.00075761,0,0,0,0.011326,-0.00027081,0.0033167,0.28792,0.0047908,0.010284,3.3811e-08,0.6,0.88,0
0.030918,-0.0067087,0.011314,-0.00028242,0.0033096,-9.5044e-06,0,0,0.052032,-0.023348,0,-0.00012356,0,0,0,0.011314,-0.00028243,0.0033096,-0.046957,0.0047806,0.010283,3.374e-08,0.62,0.88,0
0.031958,-0.0067556,0.011302,-0.00026864,0.0033101,-8.5399e-05,0,0,0.05195,-0.023262,0,-0.0011102,0,0,0,0.011303,-0.00026927,0.0033101,-0.42284,0.0047813,0.010262,3.3599e-08,0.64,0.88,0
0.032996,-0.0068185,0.011283,-0.0002469,0.0033109,-0.00015633,0,0,0.05182,-0.023126,0,-0.0020323,0,0,0,0.011285,-0.00024902,0.0033109,-0.77663,0.0047824,0.01023,3.3383e-08,0.66,0.88,0
0.034031,-0.0068963,0.011258,-0.00021833,0.0033118,-0.00022014,0,0,0.051648,-0.022946,0,-0.0028618,0,0,0,0.011262,-0.00022255,0.0033118,-1.0986,0.0047837,0.010188,3.3097e-08,0.68,0.88,0
0.035062,-0.0069873,0.011227,-0.00018433,0.0033126,-0.00027509,0,0,0.05144,-0.02273,0,-0.0035762,0,0,0,0.011233,-0.00019096,0.0033126,-1.3802,0.0047849,0.010137,3.2754e-08,0.7,0.88,0
0.036089,-0.0070893,0.011191,-0.00014643,0.0033134,-0.00031986,0,0,0.051206,-0.022489,0,-0.0041582,0,0,0,0.0112,-0.00015544,0.0033134,-1.6147,0.0047861,0.010079,3.2364e-08,0.72,0.88,0
0.03711,-0.0071999,0.011153,-0.00010621,0.003314,-0.00035362,0,0,0.050953,-0.022232,0,-0.004597,0,0,0,0.011164,-0.0001173,0.003314,-1.7971,0.0047869,0.010017,3.194e-08,0.74,0.88,0
0.038127,-0.0073164,0.011113,-6.52e-05,0.0033144,-0.00037598,0,0,0.050692,-0.021967,0,-0.0048877,0,0,0,0.011126,-7.7831e-05,0.0033144,-1.9242,0.0047874,0.009951,3.1496e-08,0.76,0.88,0
0.039138,-0.0074361,0.011073,-2.4784e-05,0.0033144,-0.000387,0,0,0.050429,-0.021705,0,-0.005031,0,0,0,0.011086,-3.8263e-05,0.0033144,-1.9948,0.0047874,0.0098842,3.1045e-08,0.78,0.88,0
0.040144,-0.0075562,0.011033,1.3859e-05,0.0033141,-0.0003871,0,0,0.050174,-0.021451,0,-0.0050323,0,0,0,0.011047,2.7727e-07,0.0033141,-2.0095,0.004787,0.0098183,3.0601e-08,0.8,0.88,0
0.041145,-0.0076739,0.010995,4.9792e-05,0.0033135,-0.00037699,0,0,0.049931,-0.021214,0,-0.0049009,0,0,0,0.011008,3.6822e-05,0.0033135,-1.9703,0.0047861,0.0097548,3.0173e-08,0.82,0.88,0
0.042141,-0.0077867,0.01096,8.2332e-05,0.0033126,-0.0003576,0,0,0.049706,-0.020997,0,-0.0046488,0,0,0,0.010971,7.0588e-05,0.0033126,-1.8809,0.0047849,0.0096953,2.9772e-08,0.84,0.88,0
0.043133,-0.0078921,0.010927,0.00011104,0.0033115,-0.00033,0,0,0.049503,-0.020803,0,-0.0042901,0,0,0,0.010937,0.00010098,0.0033115,-1.7459,0.0047833,0.0096408,2.9406e-08,0.86,0.88,0
0.044121,-0.0079879,0.010899,0.00013569,0.0033103,-0.00029533,0,0,0.049325,-0.020635,0,-0.0038392,0,0,0,0.010907,0.00012759,0.0033103,-1.5705,0.0047816,0.0095924,2.908e-08,0.88,0.88,0
0.045106,-0.0080723,0.010874,0.00015623,0.0033091,-0.00025472,0,0,0.049173,-0.020494,0,-0.0033113,0,0,0,0.01088,0.00015018,0.0033091,-1.3606,0.0047799,0.0095508,2.88e-08,0.9,0.88,0
0.046088,-0.0081435,0.010854,0.00017273,0.003308,-0.0002093,0,0,0.049048,-0.020379,0,-0.0027209,0,0,0,0.010858,0.00016863,0.003308,-1.1221,0.0047782,0.0095163,2.8568e-08,0.92,0.88,0
0.047068,-0.0082003,0.010838,0.00018531,0.003307,-0.00016014,0,0,0.048951,-0.020291,0,-0.0020818,0,0,0,0.01084,0.0001829,0.003307,-0.86105,0.0047768,0.0094893,2.8387e-08,0.94,0.88,0
0.048046,-0.0082417,0.010827,0.00019415,0.0033062,-0.00010824,0,0,0.048882,-0.020228,0,-0.0014072,0,0,0,0.010828,0.00019305,0.0033062,-0.58321,0.0047757,0.0094699,2.8257e-08,0.96,0.88,0
0.049023,-0.0082668,0.01082,0.00019938,0.0033057,-5.4562e-05,0,0,0.048841,-0.020191,0,-0.0007093,0,0,0,0.01082,0.0001991,0.0033057,-0.29434,0.004775,0.0094583,2.8178e-08,0.98,0.88,0
0.05,-0.0082752,0.010817,0.00020112,0.0033056,-3.2363e-05,0,0,0.048827,-0.020179,0,-0.00042072,0,0,0,0.010818,0.00020102,0.0033056,-0.17466,0.0047747,0.0094546,2.8153e-08,1,0.88,0
0,0,0.011534,0.0049434,0.0049434,-0.0030567,0,0,0.042842,6.5052e-19,0,-0.039737,0,0,0,0.012734,0.003744,0.0049434,-21.423,0.0071404,0.0084542,2.894e-08,0,0.9,0
0.00085685,-0.00079474,0.011472,0.0042,0.0047017,-0.0030068,0,0,0.044009,-0.0032611,0,-0.039088,0,0,0,0.012554,0.0031178,0.0047017,-19.794,0.0067913,0.0087528,3.0674e-08,0.02,0.9,0
0.0017604,-0.0016087,0.011653,0.0034395,0.0045277,-0.0028979,0,0,0.046313,-0.007073,0,-0.037673,0,0,0,0.012572,0.00252,0.0045277,-17.605,0.00654,0.009214,3.3835e-08,0.04,0.9,0
0.0027094,-0.0024098,0.011784,0.0027055,0.004347,-0.0026474,0,0,0.048344,-0.01067,0,-0.034417,0,0,0,0.0125,0.0019899,0.004347,-15.125,0.006279,0.0095523,3.5743e-08,0.06,0.9,0
0.0036941,-0.0031687,0.011841,0.0020942,0.0041807,-0.0023068,0,0,0.049794,-0.013562,0,-0.029988,0,0,0,0.01236,0.0015759,0.0041807,-12.665,0.0060388,0.0097461,3.6343e-08,0.08,0.9,0
0.0047012,-0.0038658,0.01182,0.0016248,0.0040334,-0.0019368,0,0,0.050612,-0.015656,0,-0.025178,0,0,0,0.012175,0.0012693,0.0040334,-10.402,0.0058261,0.0098203,3.5961e-08,0.1,0.9,0
0.0057186,-0.004492,0.011739,0.0012763,0.0039045,-0.001581,0,0,0.050922,-0.017083,0,-0.020553,0,0,0,0.011972,0.0010426,0.0039045,-8.4083,0.0056398,0.0098168,3.5028e-08,0.12,0.9,0
0.006738,-0.0050453,0.011623,0.0010179,0.0037923,-0.0012596,0,0,0.0509,-0.018034,0,-0.016376,0,0,0,0.011771,0.00087038,0.0037923,-6.6816,0.0054778,0.0097726,3.3884e-08,0.14,0.9,0
0.0077546,-0.0055277,0.011496,0.00082499,0.0036963,-0.00097805,0,0,0.050698,-0.018663,0,-0.012715,0,0,0,0.011585,0.00073608,0.0036963,-5.1938,0.0053391,0.0097131,3.2747e-08,0.16,0.9,0
0.0087659,-0.0059431,0.011372,0.00067884,0.0036152,-0.00073444,0,0,0.050418,-0.019086,0,-0.0095477,0,0,0,0.011422,0.00062863,0.0036152,-3.9108,0.005222,0.0096531,3.1727e-08,0.18,0.9,0
0.0097713,-0.0062962,0.01126,0.00056611,0.0035477,-0.0005245,0,0,0.050127,-0.01938,0,-0.0068185,0,0,0,0.011285,0.00054044,0.0035477,-2.8013,0.0051244,0.009601,3.0874e-08,0.2,0.9,0
0.010771,-0.0065916,0.011163,0.00047719,0.0034921,-0.00034355,0,0,0.049862,-0.019597,0,-0.0044661,0,0,0,0.011174,0.00046615,0.0034921,-1.8395,0.0050441,0.0095611,3.0199e-08,0.22,0.9,0
0.011766,-0.0068341,0.011085,0.00040517,0.0034469,-0.00018739,0,0,0.049644,-0.019771,0,-0.0024361,0,0,0,0.011088,0.00040189,0.0034469,-1.005,0.0049789,0.0095353,2.97e-08,0.24,0.9,0
0.012757,-0.0070284,0.011024,0.00034504,0.0034107,-5.2625e-05,0,0,0.049486,-0.019927,0,-0.00068412,0,0,0,0.011024,0.00034478,0.0034107,-0.28234,0.0049265,0.009524,2.9364e-08,0.26,0.9,0
0.013745,-0.0071789,0.010981,0.00029309,0.0033821,6.3382e-05,0,0,0.04939,-0.020078,0,0.00082397,0,0,0,0.010981,0.00029272,0.0033821,0.33978,0.0048852,0.0095269,2.9177e-08,0.28,0.9,0
0.014732,-0.0072903,0.010953,0.0002466,0.00336,0.00016254,0,0,0.049357,-0.020237,0,0.002113,0,0,0,0.010956,0.00024413,0.00336,0.86951,0.0048534,0.0095433,2.9124e-08,0.3,0.9,0
0.01572,-0.0073668,0.010941,0.00020354,0.0033434,0.00024614,0,0,0.049385,-0.020409,0,0.0031999,0,0,0,0.010947,0.0001979,0.0033434,1.3125,0.0048293,0.0095719,2.919e-08,0.32,0.9,0
0.016708,-0.0074128,0.010942,0.00016247,0.0033313,0.00031504,0,0,0.049469,-0.020597,0,0.0040955,0,0,0,0.010951,0.00015327,0.0033313,1.6726,0.0048119,0.0096113,2.936e-08,0.34,0.9,0
0.017698,-0.0074328,0.010954,0.00012241,0.003323,0.00036971,0,0,0.049603,-0.020804,0,0.0048062,0,0,0,0.010967,0.0001098,0.003323,1.9526,0.0047998,0.0096598,2.9617e-08,0.36,0.9,0
0.018692,-0.0074311,0.010976,8.2808e-05,0.0033177,0.00041039,0,0,0.049779,-0.021027,0,0.0053351,0,0,0,0.010991,6.7369e-05,0.0033177,2.1545,0.0047922,0.0097157,2.9946e-08,0.38,0.9,0
0.019689,-0.0074121,0.011006,4.3467e-05,0.0033148,0.00043722,0,0,0.049992,-0.021264,0,0.0056838,0,0,0,0.011023,2.6057e-05,0.0033148,2.2803,0.004788,0.0097768,3.0329e-08,0.4,0.9,0
0.020692,-0.0073802,0.011041,4.522e-06,0.0033138,0.00045031,0,0,0.050229,-0.02151,0,0.005854,0,0,0,0.01106,-1.382e-05,0.0033138,2.3325,0.0047865,0.0098411,3.0751e-08,0.42,0.9,0
0.021699,-0.0073396,0.011081,-3.3604e-05,0.0033142,0.00044987,0,0,0.050483,-0.02176,0,0.0058484,0,0,0,0.011099,-5.1784e-05,0.0033142,2.3141,0.0047871,0.0099063,3.1192e-08,0.44,0.9,0
0.022711,-0.0072946,0.011122,-7.0251e-05,0.0033155,0.00043631,0,0,0.050742,-0.022008,0,0.0056721,0,0,0,0.011139,-8.7235e-05,0.0033155,2.2291,0.0047891,0.0099703,3.1637e-08,0.46,0.9,0
0.023728,-0.0072489,0.011163,-0.00010459,0.0033176,0.00041028,0,0,0.050996,-0.022244,0,0.0053336,0,0,0,0.011178,-0.00011951,0.0033176,2.0826,0.004792,0.010031,3.2066e-08,0.48,0.9,0
0.024751,-0.0072065,0.011202,-0.00013567,0.00332,0.00037273,0,0,0.051235,-0.022462,0,0.0048454,0,0,0,0.011215,-0.00014791,0.00332,1.8808,0.0047955,0.010086,3.2464e-08,0.5,0.9,0
0.025778,-0.0071706,0.011237,-0.00016255,0.0033225,0.00032494,0,0,0.051448,-0.022653,0,0.0042243,0,0,0,0.011247,-0.00017181,0.0033225,1.6314,0.0047992,0.010134,3.2816e-08,0.52,0.9,0
0.026809,-0.007144,0.011267,-0.00018433,0.0033249,0.00026854,0,0,0.051626,-0.02281,0,0.003491,0,0,0,0.011274,-0.00019063,0.0033249,1.3426,0.0048027,0.010173,3.3108e-08,0.54,0.9,0
0.027843,-0.0071293,0.011291,-0.00020027,0.0033271,0.00020542,0,0,0.051763,-0.022928,0,0.0026704,0,0,0,0.011294,-0.00020394,0.0033271,1.0238,0.0048059,0.010202,3.3328e-08,0.56,0.9,0
0.028879,-0.0071284,0.011306,-0.0002098,0.003329,0.00013769,0,0,0.051853,-0.023002,0,0.00179,0,0,0,0.011308,-0.00021145,0.003329,0.68492,0.0048085,0.01022,3.3471e-08,0.58,0.9,0
0.029917,-0.0071424,0.011314,-0.00021267,0.0033303,6.7636e-05,0,0,0.051892,-0.023029,0,0.00087928,0,0,0,0.011314,-0.00021306,0.0033303,0.3362,0.0048104,0.010227,3.3529e-08,0.6,0.9,0
0.030955,-0.007172,0.011312,-0.00020886,0.0033311,-2.4346e-06,0,0,0.051879,-0.023009,0,-3.165e-05,0,0,0,0.011312,-0.00020886,0.0033311,-0.012108,0.0048116,0.010222,3.3502e-08,0.62,0.9,0
0.031992,-0.0072174,0.011303,-0.00019868,0.0033312,-7.0262e-05,0,0,0.051815,-0.022944,0,-0.00091341,0,0,0,0.011303,-0.00019911,0.0033312,-0.35001,0.0048117,0.010206,3.3391e-08,0.64,0.9,0
0.033027,-0.0072779,0.011285,-0.00018271,0.0033306,-0.00013375,0,0,0.051702,-0.022837,0,-0.0017387,0,0,0,0.011286,-0.00018427,0.0033306,-0.66811,0.0048109,0.010179,3.3199e-08,0.66,0.9,0
0.03406,-0.0073525,0.01126,-0.00016176,0.0033294,-0.00019103,0,0,0.051547,-0.022692,0,-0.0024834,0,0,0,0.011263,-0.00016496,0.0033294,-0.95793,0.0048091,0.010143,3.2936e-08,0.68,0.9,0
0.035089,-0.0074396,0.011228,-0.00013683,0.0033274,-0.00024058,0,0,0.051355,-0.022517,0,-0.0031275,0,0,0,0.011233,-0.00014192,0.0033274,-1.2121,0.0048062,0.010098,3.2609e-08,0.7,0.9,0
0.036114,-0.0075372,0.011192,-0.00010902,0.0033247,-0.00028122,0,0,0.051134,-0.022319,0,-0.0036559,0,0,0,0.011198,-0.00011601,0.0033247,-1.4247,0.0048024,0.010046,3.2231e-08,0.72,0.9,0
0.037135,-0.0076432,0.011151,-7.9459e-05,0.0033214,-0.0003122,0,0,0.050891,-0.022106,0,-0.0040586,0,0,0,0.011159,-8.8132e-05,0.0033214,-1.5912,0.0047976,0.0099892,3.1814e-08,0.74,0.9,0
0.03815,-0.0077549,0.011108,-4.9261e-05,0.0033175,-0.00033313,0,0,0.050636,-0.021884,0,-0.0043306,0,0,0,0.011118,-5.9199e-05,0.0033175,-1.7087,0.004792,0.0099289,3.1372e-08,0.76,0.9,0
0.03916,-0.0078698,0.011063,-1.9431e-05,0.0033131,-0.00034398,0,0,0.050376,-0.021662,0,-0.0044718,0,0,0,0.011074,-3.0098e-05,0.0033131,-1.7761,0.0047857,0.0098668,3.0918e-08,0.78,0.9,0
0.040165,-0.0079852,0.011019,9.165e-06,0.0033084,-0.00034508,0,0,0.050118,-0.021445,0,-0.0044861,0,0,0,0.01103,-1.6404e-06,0.0033084,-1.7935,0.0047788,0.0098047,3.0466e-08,0.8,0.9,0
0.041165,-0.0080985,0.010976,3.5831e-05,0.0033035,-0.00033698,0,0,0.04987,-0.02124,0,-0.0043808,0,0,0,0.010986,2.5461e-05,0.0033035,-1.7627,0.0047717,0.0097443,3.0026e-08,0.82,0.9,0
0.04216,-0.0082073,0.010935,6.0052e-05,0.0032984,-0.00032045,0,0,0.049636,-0.021049,0,-0.0041659,0,0,0,0.010944,5.0617e-05,0.0032984,-1.6864,0.0047644,0.009687,2.9609e-08,0.84,0.9,0
0.04315,-0.008309,0.010897,8.1486e-05,0.0032935,-0.0002964,0,0,0.049422,-0.020878,0,-0.0038531,0,0,0,0.010905,7.3369e-05,0.0032935,-1.5686,0.0047573,0.009634,2.9225e-08,0.86,0.9,0
0.044137,-0.0084017,0.010863,9.9946e-05,0.0032888,-0.00026579,0,0,0.049231,-0.020728,0,-0.0034553,0,0,0,0.010869,9.3386e-05,0.0032888,-1.4138,0.0047505,0.0095864,2.8881e-08,0.88,0.9,0
0.045119,-0.0084834,0.010833,0.00011537,0.0032846,-0.00022965,0,0,0.049066,-0.0206,0,-0.0029855,0,0,0,0.010838,0.00011045,0.0032846,-1.2269,0.0047444,0.0095449,2.8581e-08,0.9,0.9,0
0.046099,-0.0085524,0.010808,0.00012779,0.0032808,-0.00018898,0,0,0.048929,-0.020495,0,-0.0024568,0,0,0,0.010812,0.00012445,0.0032808,-1.0134,0.004739,0.0095104,2.8332e-08,0.92,0.9,0
0.047077,-0.0086076,0.010789,0.00013729,0.0032778,-0.00014477,0,0,0.048821,-0.020413,0,-0.001882,0,0,0,0.010791,0.00013532,0.0032778,-0.77853,0.0047346,0.009483,2.8135e-08,0.94,0.9,0
0.048052,-0.0086477,0.010775,0.00014397,0.0032756,-9.7938e-05,0,0,0.048744,-0.020355,0,-0.0012732,0,0,0,0.010776,0.00014307,0.0032756,-0.5278,0.0047314,0.0094633,2.7993e-08,0.96,0.9,0
0.049026,-0.0086721,0.010766,0.00014794,0.0032742,-4.9393e-05,0,0,0.048697,-0.020321,0,-0.00064211,0,0,0,0.010766,0.00014771,0.0032742,-0.26652,0.0047294,0.0094514,2.7907e-08,0.98,0.9,0
0.05,-0.0086803,0.010763,0.00014925,0.0032737,-3.1448e-05,0,0,0.048681,-0.020309,0,-0.00040882,0,0,0,0.010763,0.00014916,0.0032737,-0.16976,0.0047287,0.0094476,2.788e-08,1,0.9,0
0,0,0.011913,0.0051058,0.0051058,-0.0033328,0,0,0.04425,4.3368e-19,0,-0.043326,0,0,0,0.013273,0.0037458,0.0051058,-22.198,0.007375,0.0089256,3.368e-08,0,0.92,0
0.000885,-0.00086653,0.011819,0.0041534,0.0047918,-0.0032484,0,0,0.045679,-0.0041499,0,-0.042229,0,0,0,0.013011,0.0029621,0.0047918,-20.14,0.0069216,0.0092702,3.5602e-08,0.02,0.92,0
0.0018272,-0.0017649,0.011995,0.0031632,0.0045474,-0.0030716,0,0,0.048407,-0.0089967,0,-0.039931,0,0,0,0.012958,0.0022,0.0045474,-17.411,0.0065684,0.0097974,3.9113e-08,0.04,0.92,0
0.0028213,-0.0026434,0.012088,0.002298,0.0043157,-0.0027017,0,0,0.050518,-0.013115,0,-0.035122,0,0,0,0.012784,0.0016019,0.0043157,-14.448,0.0062338,0.010102,4.0349e-08,0.06,0.92,0
0.0038479,-0.0034613,0.012064,0.0016652,0.0041188,-0.0022466,0,0,0.051645,-0.015948,0,-0.029206,0,0,0,0.012529,0.0012006,0.0041188,-11.684,0.0059494,0.010188,3.9657e-08,0.08,0.92,0
0.0048871,-0.0041984,0.01194,0.0012349,0.0039525,-0.0018051,0,0,0.05192,-0.017665,0,-0.023467,0,0,0,0.012236,0.00093869,0.0039525,-9.3181,0.0057092,0.010133,3.7927e-08,0.1,0.92,0
0.0059247,-0.0048499,0.011757,0.00093718,0.0038083,-0.0014184,0,0,0.051667,-0.018662,0,-0.018439,0,0,0,0.01194,0.00075434,0.0038083,-7.3455,0.0055008,0.010014,3.5867e-08,0.12,0.92,0
0.0069538,-0.0054188,0.01156,0.0007286,0.0036865,-0.0010934,0,0,0.051176,-0.019227,0,-0.014215,0,0,0,0.011669,0.00061931,0.0036865,-5.7074,0.005325,0.00988,3.3915e-08,0.14,0.92,0
0.0079717,-0.0059109,0.011374,0.00057927,0.0035859,-0.00082362,0,0,0.050621,-0.019543,0,-0.010707,0,0,0,0.011436,0.00051679,0.0035859,-4.3382,0.0051796,0.0097539,3.2237e-08,0.16,0.92,0
0.0089786,-0.0063325,0.01121,0.00046986,0.0035041,-0.00059933,0,0,0.050091,-0.019723,0,-0.0077913,0,0,0,0.011244,0.00043652,0.0035041,-3.1839,0.0050615,0.0096465,3.0875e-08,0.18,0.92,0
0.0099754,-0.0066895,0.011075,0.00038765,0.0034387,-0.0004117,0,0,0.049633,-0.019832,0,-0.0053521,0,0,0,0.01109,0.00037182,0.0034387,-2.2029,0.004967,0.0095615,2.9817e-08,0.2,0.92,0
0.010964,-0.0069877,0.010967,0.00032414,0.0033872,-0.00025356,0,0,0.049265,-0.01991,0,-0.0032963,0,0,0,0.010972,0.0003181,0.0033872,-1.3641,0.0048926,0.0094993,2.9031e-08,0.22,0.92,0
0.011946,-0.0072326,0.010885,0.00027352,0.0033475,-0.00011941,0,0,0.048993,-0.019981,0,-0.0015523,0,0,0,0.010886,0.00027218,0.0033475,-0.64464,0.0048353,0.0094591,2.8483e-08,0.24,0.92,0
0.012924,-0.0074291,0.010828,0.00023178,0.0033178,-5.1749e-06,0,0,0.048814,-0.020059,0,-6.7273e-05,0,0,0,0.010828,0.00023178,0.0033178,-0.027982,0.0047924,0.0094391,2.8142e-08,0.26,0.92,0
0.013899,-0.0075821,0.010792,0.00019604,0.0032965,9.207e-05,0,0,0.048723,-0.020153,0,0.0011969,0,0,0,0.010793,0.00019524,0.0032965,0.49779,0.0047617,0.0094375,2.7979e-08,0.28,0.92,0
0.014873,-0.007696,0.010777,0.00016425,0.0032823,0.00017437,0,0,0.048713,-0.020267,0,0.0022668,0,0,0,0.010779,0.00016139,0.0032823,0.94109,0.004741,0.0094523,2.7971e-08,0.3,0.92,0
0.015847,-0.0077755,0.010778,0.00013491,0.0032738,0.0002431,0,0,0.048776,-0.020403,0,0.0031603,0,0,0,0.010783,0.00012936,0.0032738,1.3078,0.0047288,0.0094813,2.8094e-08,0.32,0.92,0
0.016824,-0.0078249,0.010794,0.00010699,0.0032702,0.00029912,0,0,0.048903,-0.020561,0,0.0038885,0,0,0,0.010802,9.8621e-05,0.0032702,1.602,0.0047236,0.0095224,2.8331e-08,0.34,0.92,0
0.017803,-0.0078487,0.010822,7.9777e-05,0.0032705,0.00034294,0,0,0.049084,-0.02074,0,0.0044583,0,0,0,0.010833,6.8839e-05,0.0032705,1.8267,0.004724,0.0095734,2.866e-08,0.36,0.92,0
0.018787,-0.0078511,0.01086,5.2886e-05,0.0032739,0.00037486,0,0,0.04931,-0.020936,0,0.0048731,0,0,0,0.010873,3.9899e-05,0.0032739,1.9842,0.0047289,0.0096322,2.9065e-08,0.38,0.92,0
0.019776,-0.0078365,0.010906,2.6177e-05,0.0032796,0.00039502,0,0,0.04957,-0.021147,0,0.0051353,0,0,0,0.01092,1.1853e-05,0.0032796,2.0767,0.0047371,0.0096965,2.9527e-08,0.4,0.92,0
0.02077,-0.0078091,0.010957,-2.5597e-07,0.003287,0.00040358,0,0,0.049854,-0.021367,0,0.0052466,0,0,0,0.010972,-1.5101e-05,0.003287,2.1066,0.0047479,0.0097639,3.0027e-08,0.42,0.92,0
0.02177,-0.0077732,0.011011,-2.6123e-05,0.0032955,0.00040077,0,0,0.050151,-0.02159,0,0.00521,0,0,0,0.011026,-4.0656e-05,0.0032955,2.0768,0.0047602,0.0098323,3.0547e-08,0.44,0.92,0
0.022776,-0.0077327,0.011066,-5.0973e-05,0.0033046,0.00038694,0,0,0.050451,-0.021811,0,0.0050303,0,0,0,0.01108,-6.4425e-05,0.0033046,1.991,0.0047733,0.0098993,3.1068e-08,0.46,0.92,0
0.023788,-0.0076915,0.01112,-7.4238e-05,0.0033137,0.00036269,0,0,0.050741,-0.022022,0,0.0047149,0,0,0,0.011132,-8.5976e-05,0.0033137,1.8538,0.0047865,0.0099629,3.1572e-08,0.48,0.92,0
0.024805,-0.0076531,0.011171,-9.5281e-05,0.0033226,0.00032884,0,0,0.051012,-0.022216,0,0.0042749,0,0,0,0.01118,-0.00010487,0.0033226,1.6705,0.0047993,0.010021,3.2041e-08,0.5,0.92,0
0.025828,-0.0076207,0.011216,-0.00011346,0.0033308,0.00028648,0,0,0.051255,-0.022388,0,0.0037243,0,0,0,0.011223,-0.00012069,0.0033308,1.4476,0.0048112,0.010072,3.2459e-08,0.52,0.92,0
0.026856,-0.0075972,0.011255,-0.00012815,0.003338,0.00023699,0,0,0.051459,-0.02253,0,0.0030809,0,0,0,0.01126,-0.00013309,0.003338,1.1922,0.0048216,0.010114,3.2813e-08,0.54,0.92,0
0.027887,-0.0075847,0.011286,-0.00013887,0.003344,0.00018196,0,0,0.05162,-0.022639,0,0.0023655,0,0,0,0.011288,-0.00014177,0.003344,0.91226,0.0048303,0.010147,3.309e-08,0.56,0.92,0
0.02892,-0.0075851,0.011307,-0.00014524,0.0033486,0.00012317,0,0,0.051731,-0.02271,0,0.0016012,0,0,0,0.011309,-0.00014656,0.0033486,0.6161,0.0048369,0.010169,3.3281e-08,0.58,0.92,0
0.029956,-0.0075997,0.011319,-0.00014706,0.0033517,6.2508e-05,0,0,0.05179,-0.022742,0,0.00081261,0,0,0,0.01132,-0.0001474,0.0033517,0.31233,0.0048413,0.010179,3.3381e-08,0.6,0.92,0
0.030992,-0.0076291,0.011321,-0.00014434,0.0033531,1.9173e-06,0,0,0.051794,-0.022734,0,2.4926e-05,0,0,0,0.011321,-0.00014434,0.0033531,0.0095812,0.0048434,0.010178,3.3387e-08,0.62,0.92,0
0.032028,-0.0076734,0.011314,-0.00013729,0.0033529,-5.6715e-05,0,0,0.051745,-0.022686,0,-0.0007373,0,0,0,0.011314,-0.00013757,0.0033529,-0.28377,0.0048431,0.010166,3.3301e-08,0.64,0.92,0
0.033062,-0.007732,0.011297,-0.00012628,0.0033511,-0.00011163,0,0,0.051646,-0.022603,0,-0.0014512,0,0,0,0.011298,-0.00012737,0.0033511,-0.55984,0.0048404,0.010143,3.3126e-08,0.66,0.92,0
0.034093,-0.007804,0.011271,-0.00011188,0.0033477,-0.00016126,0,0,0.0515,-0.022487,0,-0.0020964,0,0,0,0.011273,-0.00011416,0.0033477,-0.8115,0.0048355,0.010111,3.2872e-08,0.68,0.92,0
0.035122,-0.007888,0.011237,-9.4745e-05,0.0033428,-0.00020431,0,0,0.051315,-0.022344,0,-0.002656,0,0,0,0.011241,-9.8427e-05,0.0033428,-1.0326,0.0048285,0.01007,3.2546e-08,0.7,0.92,0
0.036146,-0.007982,0.011198,-7.5624e-05,0.0033367,-0.00023978,0,0,0.051097,-0.02218,0,-0.0031172,0,0,0,0.011203,-8.0722e-05,0.0033367,-1.2179,0.0048196,0.010022,3.2163e-08,0.72,0.92,0
0.037166,-0.0080841,0.011153,-5.529e-05,0.0033294,-0.000267,0,0,0.050854,-0.022,0,-0.003471,0,0,0,0.011159,-6.1647e-05,0.0033294,-1.3639,0.0048091,0.009968,3.1734e-08,0.74,0.92,0
0.03818,-0.0081918,0.011105,-3.4492e-05,0.0033211,-0.00028562,0,0,0.050595,-0.021812,0,-0.003713,0,0,0,0.011112,-4.181e-05,0.0033211,-1.4678,0.0047972,0.0099102,3.1275e-08,0.76,0.92,0
0.03919,-0.0083026,0.011055,-1.3919e-05,0.0033123,-0.00029558,0,0,0.050327,-0.02162,0,-0.0038426,0,0,0,0.011063,-2.1806e-05,0.0033123,-1.5286,0.0047844,0.0098502,3.08e-08,0.78,0.92,0
0.040193,-0.008414,0.011004,5.8356e-06,0.003303,-0.00029712,0,0,0.050057,-0.021431,0,-0.0038626,0,0,0,0.011012,-2.1853e-06,0.003303,-1.5463,0.004771,0.0097895,3.0321e-08,0.8,0.92,0
0.041192,-0.0085235,0.010954,2.4289e-05,0.0032935,-0.00029068,0,0,0.049794,-0.02125,0,-0.0037788,0,0,0,0.010962,1.6564e-05,0.0032935,-1.5223,0.0047573,0.0097299,2.9853e-08,0.82,0.92,0
0.042185,-0.0086287,0.010906,4.1081e-05,0.0032842,-0.00027688,0,0,0.049543,-0.02108,0,-0.0035995,0,0,0,0.010913,3.4029e-05,0.0032842,-1.4588,0.0047438,0.0096728,2.9407e-08,0.84,0.92,0
0.043173,-0.0087272,0.010861,5.5968e-05,0.0032752,-0.00025649,0,0,0.049311,-0.020925,0,-0.0033343,0,0,0,0.010868,4.9884e-05,0.0032752,-1.359,0.0047309,0.0096195,2.8993e-08,0.86,0.92,0
0.044158,-0.008817,0.010821,6.8815e-05,0.0032669,-0.00023032,0,0,0.049101,-0.020788,0,-0.0029941,0,0,0,0.010826,6.3884e-05,0.0032669,-1.2266,0.0047189,0.0095712,2.8619e-08,0.88,0.92,0
0.045138,-0.0088962,0.010785,7.9569e-05,0.0032595,-0.00019923,0,0,0.048918,-0.020669,0,-0.00259,0,0,0,0.010789,7.5862e-05,0.0032595,-1.0658,0.0047081,0.0095289,2.8293e-08,0.9,0.92,0
0.046114,-0.0089633,0.010755,8.8241e-05,0.003253,-0.00016411,0,0,0.048764,-0.020571,0,-0.0021335,0,0,0,0.010758,8.5717e-05,0.003253,-0.88123,0.0046988,0.0094933,2.8019e-08,0.92,0.92,0
0.047088,-0.0090169,0.010731,9.4883e-05,0.0032479,-0.00012581,0,0,0.048643,-0.020494,0,-0.0016356,0,0,0,0.010733,9.3395e-05,0.0032479,-0.6776,0.0046914,0.009465,2.7803e-08,0.94,0.92,0
0.04806,-0.0090559,0.010714,9.9561e-05,0.0032441,-8.5164e-05,0,0,0.048555,-0.020439,0,-0.0011071,0,0,0,0.010715,9.8878e-05,0.0032441,-0.45967,0.0046859,0.0094445,2.7646e-08,0.96,0.92,0
0.04903,-0.0090796,0.010703,0.00010234,0.0032418,-4.2966e-05,0,0,0.048502,-0.020406,0,-0.00055855,0,0,0,0.010704,0.00010216,0.0032418,-0.23221,0.0046825,0.0094321,2.7551e-08,0.98,0.92,0
0.05,-0.0090875,0.0107,0.00010326,0.003241,-3.0585e-05,0,0,0.048484,-0.020395,0,-0.00039761,0,0,0,0.0107,0.00010317,0.003241,-0.16537,0.0046814,0.0094281,2.752e-08,1,0.92,0
0,0,0.012554,0.0053805,0.0053805,-0.0036951,0,0,0.046631,8.6736e-19,0,-0.048037,0,0,0,0.014117,0.0038177,0.0053805,-22.925,0.0077718,0.009614,4.1603e-08,0,0.94,0
0.00093262,-0.00096074,0.012388,0.0040326,0.0049261,-0.0035171,0,0,0.048501,-0.005808,0,-0.045722,0,0,0,0.013671,0.0027492,0.0049261,-20.047,0.0071155,0.010013,4.3452e-08,0.02,0.94,0
0.00194,-0.0019686,0.012511,0.0026759,0.004556,-0.0031924,0,0,0.051706,-0.012221,0,-0.041501,0,0,0,0.013456,0.0017305,0.004556,-16.496,0.0065809,0.010599,4.6819e-08,0.04,0.94,0
0.0030009,-0.0029344,0.012498,0.0017175,0.0042648,-0.002607,0,0,0.053519,-0.016557,0,-0.033891,0,0,0,0.013096,0.0011202,0.0042648,-12.905,0.0061603,0.010754,4.5941e-08,0.06,0.94,0
0.0040808,-0.0038067,0.012318,0.0011757,0.0040481,-0.0020234,0,0,0.053754,-0.01867,0,-0.026304,0,0,0,0.012674,0.0008197,0.0040481,-9.9802,0.0058473,0.010615,4.2816e-08,0.08,0.94,0
0.005151,-0.0045724,0.012009,0.00083233,0.0038524,-0.0015373,0,0,0.053018,-0.01963,0,-0.019984,0,0,0,0.012216,0.00062475,0.0038524,-7.6904,0.0055645,0.010362,3.9009e-08,0.1,0.94,0
0.0062015,-0.0052385,0.011688,0.00061147,0.0036898,-0.0011574,0,0,0.051988,-0.020009,0,-0.015046,0,0,0,0.011808,0.00049182,0.0036898,-5.902,0.0053297,0.010104,3.5634e-08,0.12,0.94,0
0.0072305,-0.0058143,0.011399,0.00046407,0.0035589,-0.00086142,0,0,0.05096,-0.020116,0,-0.011198,0,0,0,0.011466,0.00039663,0.0035589,-4.4768,0.0051407,0.009876,3.2912e-08,0.14,0.94,0
0.0082399,-0.0063094,0.011157,0.00036258,0.0034558,-0.0006282,0,0,0.050057,-0.020106,0,-0.0081665,0,0,0,0.011193,0.00032615,0.0034558,-3.3195,0.0049918,0.0096892,3.0814e-08,0.16,0.94,0
0.0092328,-0.006732,0.010963,0.00029042,0.003376,-0.00044127,0,0,0.049315,-0.020056,0,-0.0057364,0,0,0,0.010981,0.00027221,0.003376,-2.3636,0.0048764,0.0095434,2.9241e-08,0.18,0.94,0
0.010212,-0.0070894,0.010813,0.00023745,0.0033152,-0.00028887,0,0,0.048737,-0.020005,0,-0.0037553,0,0,0,0.010821,0.00022956,0.0033152,-1.5634,0.0047886,0.0094351,2.8097e-08,0.2,0.94,0
0.011182,-0.007388,0.010703,0.00019726,0.0032701,-0.00016276,0,0,0.048314,-0.019973,0,-0.0021159,0,0,0,0.010705,0.00019474,0.0032701,-0.88737,0.0047234,0.00936,2.73e-08,0.22,0.94,0
0.012145,-0.0076333,0.010627,0.00016567,0.0032379,-5.7198e-05,0,0,0.048031,-0.019969,0,-0.00074358,0,0,0,0.010628,0.00016536,0.0032379,-0.31325,0.0046769,0.0093141,2.6787e-08,0.24,0.94,0
0.013104,-0.0078307,0.010581,0.00013988,0.0032164,3.1793e-05,0,0,0.047872,-0.019997,0,0.00041331,0,0,0,0.010582,0.00013978,0.0032164,0.17446,0.0046459,0.0092935,2.651e-08,0.26,0.94,0
0.01406,-0.0079851,0.010561,0.00011794,0.0032038,0.00010695,0,0,0.047824,-0.020058,0,0.0013903,0,0,0,0.010562,0.00011685,0.0032038,0.58666,0.0046277,0.0092948,2.643e-08,0.28,0.94,0
0.015017,-0.008101,0.010563,9.8505e-05,0.0031985,0.00017009,0,0,0.047871,-0.02015,0,0.0022112,0,0,0,0.010566,9.5741e-05,0.0031985,0.93097,0.0046201,0.0093148,2.6515e-08,0.3,0.94,0
0.015975,-0.0081829,0.010584,8.0596e-05,0.0031993,0.00022244,0,0,0.048,-0.020272,0,0.0028917,0,0,0,0.010589,7.5888e-05,0.0031993,1.2127,0.0046213,0.0093508,2.6742e-08,0.32,0.94,0
0.016937,-0.0082352,0.01062,6.3548e-05,0.0032051,0.00026472,0,0,0.048198,-0.02042,0,0.0034414,0,0,0,0.010627,5.6913e-05,0.0032051,1.4356,0.0046296,0.0093999,2.7086e-08,0.34,0.94,0
0.017903,-0.0082624,0.010669,4.6919e-05,0.0032149,0.00029737,0,0,0.048454,-0.020592,0,0.0038658,0,0,0,0.010678,3.8601e-05,0.0032149,1.6023,0.0046437,0.0094596,2.7528e-08,0.36,0.94,0
0.018875,-0.0082685,0.010728,3.0464e-05,0.0032276,0.00032061,0,0,0.048754,-0.020782,0,0.0041679,0,0,0,0.010738,2.0864e-05,0.0032276,1.7151,0.0046621,0.0095274,2.8048e-08,0.38,0.94,0
0.019853,-0.008258,0.010795,1.41e-05,0.0032426,0.00033457,0,0,0.049088,-0.020985,0,0.0043495,0,0,0,0.010805,3.7262e-06,0.0032426,1.7759,0.0046838,0.0096007,2.8626e-08,0.4,0.94,0
0.020838,-0.0082349,0.010866,-2.1127e-06,0.003259,0.00033938,0,0,0.049443,-0.021198,0,0.0044119,0,0,0,0.010876,-1.27e-05,0.003259,1.7869,0.0047075,0.0096771,2.9243e-08,0.42,0.94,0
0.021831,-0.0082032,0.010939,-1.799e-05,0.0032762,0.0003352,0,0,0.049806,-0.021412,0,0.0043576,0,0,0,0.010949,-2.8235e-05,0.0032762,1.7507,0.0047323,0.0097542,2.9879e-08,0.44,0.94,0
0.02283,-0.008167,0.011012,-3.3248e-05,0.0032935,0.00032233,0,0,0.050167,-0.021624,0,0.0041903,0,0,0,0.011021,-4.2647e-05,0.0032935,1.6702,0.0047572,0.0098296,3.0513e-08,0.46,0.94,0
0.023837,-0.0081298,0.011081,-4.7534e-05,0.0033102,0.00030123,0,0,0.050514,-0.021825,0,0.003916,0,0,0,0.01109,-5.5682e-05,0.0033102,1.5493,0.0047814,0.0099012,3.1126e-08,0.48,0.94,0
0.024851,-0.0080952,0.011147,-6.0453e-05,0.0033259,0.00027258,0,0,0.050835,-0.022011,0,0.0035435,0,0,0,0.011153,-6.7078e-05,0.0033259,1.3924,0.004804,0.0099669,3.1698e-08,0.5,0.94,0
0.025871,-0.0080661,0.011205,-7.1601e-05,0.00334,0.00023724,0,0,0.051122,-0.022176,0,0.0030841,0,0,0,0.01121,-7.659e-05,0.00334,1.2047,0.0048245,0.010025,3.2211e-08,0.52,0.94,0
0.026896,-0.0080452,0.011255,-8.0604e-05,0.0033523,0.0001963,0,0,0.051366,-0.022314,0,0.0025518,0,0,0,0.011258,-8.4003e-05,0.0033523,0.9918,0.0048421,0.010074,3.265e-08,0.54,0.94,0
0.027925,-0.0080349,0.011295,-8.7148e-05,0.0033622,0.00015102,0,0,0.051561,-0.022421,0,0.0019633,0,0,0,0.011297,-8.9151e-05,0.0033622,0.76008,0.0048566,0.010112,3.3001e-08,0.56,0.94,0
0.028958,-0.0080368,0.011324,-9.1004e-05,0.0033698,0.00010284,0,0,0.0517,-0.022495,0,0.0013369,0,0,0,0.011324,-9.193e-05,0.0033698,0.51614,0.0048674,0.010139,3.3253e-08,0.58,0.94,0
0.029993,-0.0080521,0.011341,-9.2052e-05,0.0033746,5.3243e-05,0,0,0.05178,-0.022533,0,0.00069215,0,0,0,0.011341,-9.23e-05,0.0033746,0.26682,0.0048745,0.010154,3.34e-08,0.6,0.94,0
0.031029,-0.0080814,0.011346,-9.0294e-05,0.0033768,3.7777e-06,0,0,0.051801,-0.022536,0,4.911e-05,0,0,0,0.011346,-9.0296e-05,0.0033768,0.018926,0.0048776,0.010157,3.344e-08,0.62,0.94,0
0.032065,-0.0081248,0.01134,-8.5854e-05,0.0033762,-4.4054e-05,0,0,0.051764,-0.022503,0,-0.0005727,0,0,0,0.01134,-8.6023e-05,0.0033762,-0.22091,0.0048768,0.010148,3.3373e-08,0.64,0.94,0
0.0331,-0.008182,0.011322,-7.8968e-05,0.003373,-8.8848e-05,0,0,0.051671,-0.022438,0,-0.001155,0,0,0,0.011323,-7.9661e-05,0.003373,-0.44645,0.0048722,0.010128,3.3204e-08,0.66,0.94,0
0.034132,-0.008252,0.011295,-6.9976e-05,0.0033674,-0.00012936,0,0,0.051527,-0.022343,0,-0.0016817,0,0,0,0.011296,-7.1448e-05,0.0033674,-0.65206,0.004864,0.010097,3.2942e-08,0.68,0.94,0
0.035161,-0.0083333,0.011258,-5.9289e-05,0.0033595,-0.00016454,0,0,0.051338,-0.022222,0,-0.0021391,0,0,0,0.01126,-6.1681e-05,0.0033595,-0.83282,0.0048526,0.010058,3.2599e-08,0.7,0.94,0
0.036186,-0.0084244,0.011213,-4.7367e-05,0.0033497,-0.0001936,0,0,0.051111,-0.022081,0,-0.0025168,0,0,0,0.011216,-5.0694e-05,0.0033497,-0.9847,0.0048384,0.01001,3.2187e-08,0.72,0.94,0
0.037206,-0.0085232,0.011162,-3.4685e-05,0.0033382,-0.00021597,0,0,0.050854,-0.021924,0,-0.0028076,0,0,0,0.011166,-3.885e-05,0.0033382,-1.1046,0.0048218,0.0099557,3.1722e-08,0.74,0.94,0
0.03822,-0.0086274,0.011107,-2.1709e-05,0.0033254,-0.00023137,0,0,0.050577,-0.021756,0,-0.0030078,0,0,0,0.011111,-2.6518e-05,0.0033254,-1.1906,0.0048034,0.0098971,3.1221e-08,0.76,0.94,0
0.039229,-0.0087346,0.011048,-8.8651e-06,0.0033118,-0.00023975,0,0,0.050286,-0.021584,0,-0.0031167,0,0,0,0.011053,-1.4061e-05,0.0033118,-1.2415,0.0047837,0.0098357,3.0699e-08,0.78,0.94,0
0.040231,-0.0088425,0.010989,3.4768e-06,0.0032977,-0.00024126,0,0,0.049992,-0.021412,0,-0.0031364,0,0,0,0.010994,-1.8194e-06,0.0032977,-1.2575,0.0047633,0.0097732,3.0172e-08,0.8,0.94,0
0.041228,-0.0089485,0.01093,1.5016e-05,0.0032835,-0.00023627,0,0,0.049702,-0.021245,0,-0.0030715,0,0,0,0.010935,9.9036e-06,0.0032835,-1.2395,0.0047428,0.0097113,2.9654e-08,0.82,0.94,0
0.04222,-0.0090505,0.010873,2.5525e-05,0.0032696,-0.00022526,0,0,0.049423,-0.021086,0,-0.0029284,0,0,0,0.010878,2.0849e-05,0.0032696,-1.1891,0.0047227,0.0096517,2.9159e-08,0.84,0.94,0
0.043205,-0.009146,0.01082,3.4851e-05,0.0032564,-0.00020884,0,0,0.049162,-0.02094,0,-0.0027149,0,0,0,0.010824,3.0809e-05,0.0032564,-1.1089,0.0047036,0.0095958,2.8698e-08,0.86,0.94,0
0.044186,-0.0092332,0.010771,4.2906e-05,0.0032442,-0.00018767,0,0,0.048924,-0.020808,0,-0.0024397,0,0,0,0.010774,3.9624e-05,0.0032442,-1.0019,0.004686,0.0095447,2.8281e-08,0.88,0.94,0
0.045162,-0.0093101,0.010728,4.9654e-05,0.0032333,-0.00016244,0,0,0.048716,-0.020694,0,-0.0021117,0,0,0,0.010731,4.7183e-05,0.0032333,-0.87133,0.0046703,0.0094998,2.7915e-08,0.9,0.94,0
0.046135,-0.0093753,0.010692,5.51e-05,0.003224,-0.00013388,0,0,0.04854,-0.020598,0,-0.0017404,0,0,0,0.010693,5.3415e-05,0.003224,-0.72101,0.0046569,0.0094618,2.7609e-08,0.92,0.94,0
0.047104,-0.0094273,0.010663,5.9274e-05,0.0032166,-0.00010268,0,0,0.0484,-0.020523,0,-0.0013348,0,0,0,0.010664,5.828e-05,0.0032166,-0.55474,0.0046462,0.0094316,2.7366e-08,0.94,0.94,0
0.048071,-0.0094653,0.010642,6.2215e-05,0.0032111,-6.9522e-05,0,0,0.048298,-0.020468,0,-0.00090379,0,0,0,0.010642,6.1758e-05,0.0032111,-0.3765,0.0046383,0.0094096,2.7189e-08,0.96,0.94,0
0.049036,-0.0094883,0.010629,6.3962e-05,0.0032078,-3.508e-05,0,0,0.048236,-0.020435,0,-0.00045604,0,0,0,0.010629,6.3845e-05,0.0032078,-0.19025,0.0046335,0.0093962,2.7083e-08,0.98,0.94,0
0.05,-0.0094961,0.010625,6.4541e-05,0.0032067,-2.9747e-05,0,0,0.048216,-0.020424,0,-0.00038672,0,0,0,0.010625,6.4457e-05,0.0032067,-0.1614,0.0046319,0.0093919,2.7048e-08,1,0.94,0
0,0,0.013794,0.0059116,0.0059116,-0.0042263,0,0,0.051234,1.7347e-18,0,-0.054942,0,0,0,0.015631,0.0040739,0.0059116,-23.5,0.008539,0.010757,5.7691e-08,0,0.96,0
0.0010247,-0.0010988,0.013286,0.003553,0.0050516,-0.0038142,0,0,0.053521,-0.0097405,0,-0.049585,0,0,0,0.014602,0.0022364,0.0050516,-19.045,0.0072967,0.011226,5.7549e-08,0.02,0.96,0
0.0021408,-0.0022538,0.013263,0.0017276,0.0044971,-0.0030282,0,0,0.056976,-0.018002,0,-0.039366,0,0,0,0.014009,0.00098095,0.0044971,-13.851,0.0064958,0.011674,5.7422e-08,0.04,0.96,0
0.0033037,-0.0033057,0.013067,0.0010934,0.004248,-0.002193,0,0,0.057322,-0.020505,0,-0.028509,0,0,0,0.013456,0.00070434,0.004248,-10.059,0.0061361,0.0114,5.2047e-08,0.06,0.96,0
0.0044337,-0.0042081,0.012476,0.00070175,0.0039532,-0.0015498,0,0,0.055395,-0.021134,0,-0.020147,0,0,0,0.012676,0.00050117,0.0039532,-7.3745,0.0057101,0.010868,4.4203e-08,0.08,0.96,0
0.0055195,-0.0049836,0.011913,0.00047657,0.0037169,-0.0011113,0,0,0.053276,-0.021062,0,-0.014447,0,0,0,0.01202,0.00036958,0.0037169,-5.499,0.0053689,0.01039,3.8088e-08,0.1,0.96,0
0.0065648,-0.0056502,0.011449,0.0003389,0.0035363,-0.00080212,0,0,0.051431,-0.020783,0,-0.010427,0,0,0,0.011506,0.00028129,0.0035363,-4.1083,0.005108,0.010003,3.3654e-08,0.12,0.96,0
0.0075768,-0.0062235,0.011086,0.00025144,0.0034012,-0.00057714,0,0,0.049951,-0.020474,0,-0.0075028,0,0,0,0.011117,0.00022078,0.0034012,-3.0406,0.0049129,0.0097047,3.0509e-08,0.14,0.96,0
0.0085628,-0.0067152,0.01081,0.00019336,0.0033011,-0.00040725,0,0,0.048809,-0.0202,0,-0.0052943,0,0,0,0.010826,0.00017776,0.0033011,-2.1935,0.0047682,0.0094805,2.8287e-08,0.16,0.96,0
0.0095291,-0.0071347,0.010606,0.00015321,0.0032278,-0.00027485,0,0,0.047959,-0.019985,0,-0.003573,0,0,0,0.010613,0.00014598,0.0032278,-1.5051,0.0046623,0.0093168,2.6733e-08,0.18,0.96,0
0.010481,-0.0074897,0.01046,0.00012434,0.0031753,-0.00016886,0,0,0.047351,-0.019832,0,-0.0021952,0,0,0,0.010463,0.00012158,0.0031753,-0.93574,0.0045866,0.0092026,2.5674e-08,0.2,0.96,0
0.011423,-0.0077867,0.010362,0.00010278,0.0031396,-8.2218e-05,0,0,0.046949,-0.019739,0,-0.0010688,0,0,0,0.010363,0.00010212,0.0031396,-0.45911,0.0045349,0.0091294,2.4995e-08,0.22,0.96,0
0.012359,-0.0080314,0.010305,8.6029e-05,0.0031172,-1.0275e-05,0,0,0.046718,-0.019703,0,-0.00013357,0,0,0,0.010305,8.6019e-05,0.0031172,-0.057612,0.0045026,0.0090903,2.4615e-08,0.24,0.96,0
0.013292,-0.008229,0.01028,7.246e-05,0.0031058,5.004e-05,0,0,0.046634,-0.019717,0,0.00065052,0,0,0,0.01028,7.2215e-05,0.0031058,0.28086,0.0044862,0.0090798,2.4478e-08,0.26,0.96,0
0.014224,-0.0083844,0.010284,6.0974e-05,0.0031034,0.00010076,0,0,0.046673,-0.019776,0,0.0013099,0,0,0,0.010285,5.9981e-05,0.0031034,0.56466,0.0044828,0.0090935,2.4542e-08,0.28,0.96,0
0.015159,-0.008502,0.010311,5.0814e-05,0.0031086,0.00014322,0,0,0.046816,-0.019875,0,0.0018618,0,0,0,0.010313,4.8815e-05,0.0031086,0.79956,0.0044902,0.0091275,2.4774e-08,0.3,0.96,0
0.016097,-0.0085864,0.010358,4.145e-05,0.0031198,0.00017825,0,0,0.047048,-0.020009,0,0.0023172,0,0,0,0.010361,3.8371e-05,0.0031198,0.98956,0.0045064,0.0091785,2.5149e-08,0.32,0.96,0
0.017041,-0.0086417,0.010421,3.2521e-05,0.003136,0.00020635,0,0,0.047352,-0.020173,0,0.0026826,0,0,0,0.010425,2.8423e-05,0.003136,1.1375,0.0045298,0.0092433,2.5645e-08,0.34,0.96,0
0.017991,-0.0086723,0.010497,2.379e-05,0.0031561,0.00022779,0,0,0.047713,-0.02036,0,0.0029613,0,0,0,0.010502,1.8838e-05,0.0031561,1.2454,0.0045589,0.009319,2.6241e-08,0.36,0.96,0
0.018949,-0.0086823,0.010582,1.5128e-05,0.0031792,0.0002427,0,0,0.048119,-0.020566,0,0.0031552,0,0,0,0.010588,9.5566e-06,0.0031792,1.3151,0.0045921,0.0094029,2.6917e-08,0.38,0.96,0
0.019916,-0.0086759,0.010674,6.494e-06,0.0032042,0.00025115,0,0,0.048555,-0.020785,0,0.0032649,0,0,0,0.01068,5.844e-07,0.0032042,1.3479,0.0046283,0.0094922,2.7653e-08,0.4,0.96,0
0.020892,-0.008657,0.01077,-2.077e-06,0.0032303,0.00025318,0,0,0.049007,-0.021011,0,0.0032914,0,0,0,0.010776,-8.0244e-06,0.0032303,1.3457,0.0046661,0.0095842,2.8428e-08,0.42,0.96,0
0.021876,-0.0086297,0.010867,-1.0483e-05,0.0032568,0.0002489,0,0,0.049463,-0.021237,0,0.0032357,0,0,0,0.010872,-1.6176e-05,0.0032568,1.3102,0.0047043,0.0096764,2.9221e-08,0.44,0.96,0
0.02287,-0.0085977,0.010961,-1.8571e-05,0.0032828,0.00023851,0,0,0.04991,-0.021459,0,0.0031006,0,0,0,0.010967,-2.3749e-05,0.0032828,1.2438,0.0047418,0.0097662,3.0009e-08,0.46,0.96,0
0.023873,-0.0085645,0.011052,-2.6147e-05,0.0033076,0.00022231,0,0,0.050336,-0.02167,0,0.0028901,0,0,0,0.011056,-3.0607e-05,0.0033076,1.1492,0.0047777,0.0098513,3.077e-08,0.48,0.96,0
0.024883,-0.0085336,0.011135,-3.3e-05,0.0033306,0.00020079,0,0,0.050728,-0.021863,0,0.0026102,0,0,0,0.011139,-3.6608e-05,0.0033306,1.0297,0.0048108,0.0099294,3.1482e-08,0.5,0.96,0
0.025902,-0.0085078,0.011209,-3.8911e-05,0.0033511,0.00017454,0,0,0.051078,-0.022035,0,0.002269,0,0,0,0.011212,-4.1619e-05,0.0033511,0.88879,0.0048405,0.0099986,3.2122e-08,0.52,0.96,0
0.026926,-0.0084897,0.011272,-4.368e-05,0.0033686,0.00014435,0,0,0.051375,-0.02218,0,0.0018765,0,0,0,0.011274,-4.552e-05,0.0033686,0.73071,0.0048658,0.010057,3.2673e-08,0.54,0.96,0
0.027957,-0.0084815,0.011323,-4.7135e-05,0.0033829,0.00011112,0,0,0.051613,-0.022295,0,0.0014445,0,0,0,0.011324,-4.8221e-05,0.0033829,0.55985,0.0048864,0.010104,3.3119e-08,0.56,0.96,0
0.028991,-0.0084849,0.011361,-4.9156e-05,0.0033935,7.5858e-05,0,0,0.051787,-0.022377,0,0.00098616,0,0,0,0.011361,-4.966e-05,0.0033935,0.38091,0.0049017,0.010138,3.3446e-08,0.58,0.96,0
0.030028,-0.0085011,0.011384,-4.9676e-05,0.0034002,3.9646e-05,0,0,0.051893,-0.022424,0,0.0005154,0,0,0,0.011384,-4.9814e-05,0.0034002,0.19867,0.0049114,0.010158,3.3647e-08,0.6,0.96,0
0.031067,-0.0085306,0.011392,-4.8697e-05,0.0034031,3.5834e-06,0,0,0.05193,-0.022437,0,4.6584e-05,0,0,0,0.011392,-4.8698e-05,0.0034031,0.017945,0.0049156,0.010165,3.3718e-08,0.62,0.96,0
0.032105,-0.0085735,0.011387,-4.6282e-05,0.0034021,-3.1253e-05,0,0,0.051899,-0.022414,0,-0.00040628,0,0,0,0.011387,-4.6368e-05,0.0034021,-0.15662,0.0049141,0.010158,3.3661e-08,0.64,0.96,0
0.033143,-0.0086295,0.011367,-4.256e-05,0.0033974,-6.3855e-05,0,0,0.051804,-0.02236,0,-0.00083012,0,0,0,0.011368,-4.2917e-05,0.0033974,-0.32064,0.0049074,0.010138,3.3482e-08,0.66,0.96,0
0.034178,-0.0086977,0.011335,-3.771e-05,0.0033893,-9.3331e-05,0,0,0.05165,-0.022276,0,-0.0012133,0,0,0,0.011336,-3.8476e-05,0.0033893,-0.47014,0.0048957,0.010107,3.3191e-08,0.68,0.96,0
0.035209,-0.0087769,0.011292,-3.1953e-05,0.0033781,-0.00011893,0,0,0.051443,-0.022166,0,-0.0015461,0,0,0,0.011294,-3.3201e-05,0.0033781,-0.60164,0.0048795,0.010065,3.2803e-08,0.7,0.96,0
0.036235,-0.0088653,0.01124,-2.5533e-05,0.0033643,-0.00014007,0,0,0.051191,-0.022034,0,-0.001821,0,0,0,0.011242,-2.7275e-05,0.0033643,-0.71227,0.0048595,0.010013,3.2334e-08,0.72,0.96,0
0.037256,-0.008961,0.01118,-1.8707e-05,0.0033483,-0.00015637,0,0,0.050904,-0.021885,0,-0.0020328,0,0,0,0.011182,-2.089e-05,0.0033483,-0.79984,0.0048364,0.0099553,3.1801e-08,0.74,0.96,0
0.038271,-0.0090621,0.011114,-1.1722e-05,0.0033306,-0.0001676,0,0,0.05059,-0.021725,0,-0.0021788,0,0,0,0.011116,-1.4247e-05,0.0033306,-0.86287,0.0048109,0.0098917,3.1226e-08,0.76,0.96,0
0.03928,-0.009166,0.011044,-4.8082e-06,0.0033118,-0.00017373,0,0,0.05026,-0.021558,0,-0.0022585,0,0,0,0.011047,-7.5393e-06,0.0033118,-0.90061,0.0047837,0.0098247,3.0626e-08,0.78,0.96,0
0.040282,-0.0092705,0.010973,1.8366e-06,0.0032925,-0.00017488,0,0,0.049924,-0.021389,0,-0.0022735,0,0,0,0.010976,-9.5034e-07,0.0032925,-0.913,0.0047558,0.0097563,3.002e-08,0.8,0.96,0
0.041277,-0.0093733,0.010902,8.0504e-06,0.0032731,-0.00017131,0,0,0.04959,-0.021223,0,-0.002227,0,0,0,0.010905,5.3573e-06,0.0032731,-0.90065,0.0047279,0.0096884,2.9425e-08,0.82,0.96,0
0.042265,-0.0094721,0.010834,1.3711e-05,0.0032543,-0.00016336,0,0,0.049268,-0.021064,0,-0.0021237,0,0,0,0.010837,1.1245e-05,0.0032543,-0.86478,0.0047007,0.0096227,2.8856e-08,0.84,0.96,0
0.043248,-0.0095648,0.01077,1.8736e-05,0.0032365,-0.00015148,0,0,0.048965,-0.020916,0,-0.0019693,0,0,0,0.010772,1.6602e-05,0.0032365,-0.80709,0.0046749,0.0095609,2.8326e-08,0.86,0.96,0
0.044224,-0.0096493,0.010711,2.3076e-05,0.0032201,-0.00013614,0,0,0.048689,-0.020781,0,-0.0017698,0,0,0,0.010712,2.1342e-05,0.0032201,-0.72969,0.0046513,0.0095044,2.7847e-08,0.88,0.96,0
0.045195,-0.009724,0.010659,2.6712e-05,0.0032056,-0.00011786,0,0,0.048445,-0.020663,0,-0.0015321,0,0,0,0.01066,2.5406e-05,0.0032056,-0.63504,0.0046303,0.0094545,2.7428e-08,0.9,0.96,0
0.046162,-0.0097872,0.010615,2.9648e-05,0.0031932,-9.7143e-05,0,0,0.048238,-0.020563,0,-0.0012629,0,0,0,0.010615,2.8756e-05,0.0031932,-0.52577,0.0046125,0.0094122,2.7076e-08,0.92,0.96,0
0.047125,-0.0098378,0.010579,3.1897e-05,0.0031834,-7.4508e-05,0,0,0.048073,-0.020484,0,-0.0009686,0,0,0,0.01058,3.1371e-05,0.0031834,-0.40472,0.0045982,0.0093785,2.6797e-08,0.94,0.96,0
0.048085,-0.0098746,0.010554,3.3483e-05,0.0031761,-5.0452e-05,0,0,0.047954,-0.020427,0,-0.00065587,0,0,0,0.010554,3.3241e-05,0.0031761,-0.27477,0.0045877,0.0093539,2.6595e-08,0.96,0.96,0
0.049043,-0.009897,0.010538,3.4425e-05,0.0031717,-2.5458e-05,0,0,0.047881,-0.020393,0,-0.00033096,0,0,0,0.010538,3.4363e-05,0.0031717,-0.13887,0.0045814,0.009339,2.6473e-08,0.98,0.96,0
0.05,-0.0099045,0.010533,3.4737e-05,0.0031702,-2.8891e-05,0,0,0.047856,-0.020381,0,-0.00037558,0,0,0,0.010533,3.4657e-05,0.0031702,-0.15768,0.0045792,0.0093341,2.6433e-08,1,0.96,0
0,0,0.016194,0.0069403,0.0069403,-0.0051937,0,0,0.060149,0,0,-0.067518,0,0,0,0.018523,0.0046114,0.0069403,-24.152,0.010025,0.012906,9.8389e-08,0,0.98,0
0.001203,-0.0013504,0.014758,0.0014568,0.0048643,-0.0032631,0,0,0.064307,-0.022149,0,-0.04242,0,0,0,0.015515,0.00069938,0.0048643,-13.068,0.0070263,0.013234,8.0508e-08,0.02,0.98,0
0.0025723,-0.0026886,0.014843,0.001148,0.0047973,-0.0021218,0,0,0.065297,-0.02372,0,-0.027584,0,0,0,0.015164,0.00082679,0.0047973,-8.6083,0.0069294,0.012822,7.4292e-08,0.04,0.98,0
0.0038149,-0.0037547,0.013342,0.00061173,0.0041861,-0.0012633,0,0,0.059513,-0.023233,0,-0.016423,0,0,0,0.013466,0.00048758,0.0041861,-5.6129,0.0060466,0.011581,5.3205e-08,0.06,0.98,0
0.0049528,-0.004652,0.012245,0.00036108,0.0037817,-0.00083033,0,0,0.055009,-0.022234,0,-0.010794,0,0,0,0.012302,0.00030334,0.0037817,-3.9776,0.0054625,0.010693,4.1124e-08,0.08,0.98,0
0.0060152,-0.0054149,0.01148,0.00022911,0.0035128,-0.0005663,0,0,0.051789,-0.021344,0,-0.0073619,0,0,0,0.011509,0.00020068,0.0035128,-2.8741,0.0050741,0.010069,3.3946e-08,0.1,0.98,0
0.0070243,-0.0060698,0.010947,0.00015647,0.003331,-0.00039596,0,0,0.049504,-0.020635,0,-0.0051475,0,0,0,0.010962,0.00014196,0.003331,-2.0987,0.0048115,0.0096296,2.9479e-08,0.12,0.98,0
0.0079954,-0.0066333,0.010571,0.00011317,0.0032051,-0.0002771,0,0,0.047876,-0.020098,0,-0.0036023,0,0,0,0.010578,0.00010583,0.0032051,-1.5168,0.0046297,0.0093175,2.6578e-08,0.14,0.98,0
0.0089394,-0.0071174,0.010306,8.5668e-05,0.0031175,-0.00018968,0,0,0.046725,-0.019707,0,-0.0024658,0,0,0,0.010309,8.2149e-05,0.0031175,-1.0629,0.004503,0.0090977,2.466e-08,0.16,0.98,0
0.0098644,-0.0075314,0.010124,6.7216e-05,0.0030574,-0.00012255,0,0,0.045933,-0.019436,0,-0.0015931,0,0,0,0.010126,6.5723e-05,0.0030574,-0.69806,0.0044162,0.0089473,2.3401e-08,0.18,0.98,0
0.010777,-0.0078827,0.010006,5.4228e-05,0.0030181,-6.9281e-05,0,0,0.045422,-0.019265,0,-0.00090065,0,0,0,0.010006,5.3746e-05,0.0030181,-0.39885,0.0043594,0.0088511,2.2614e-08,0.2,0.98,0
0.011681,-0.0081775,0.0099389,4.4669e-05,0.0029951,-2.5934e-05,0,0,0.045135,-0.019178,0,-0.00033714,0,0,0,0.009939,4.4601e-05,0.0029951,-0.15018,0.0043262,0.0087984,2.2181e-08,0.22,0.98,0
0.012582,-0.0084214,0.0099132,3.7316e-05,0.0029852,9.9795e-06,0,0,0.045032,-0.019161,0,0.00012973,0,0,0,0.0099132,3.7306e-05,0.0029852,0.057897,0.0043119,0.0087813,2.2026e-08,0.24,0.98,0
0.013482,-0.0086194,0.0099217,3.1394e-05,0.0029859,4.0063e-05,0,0,0.045082,-0.019204,0,0.00052082,0,0,0,0.0099218,3.1232e-05,0.0029859,0.23209,0.004313,0.0087938,2.2098e-08,0.26,0.98,0
0.014385,-0.0087761,0.0099586,2.6393e-05,0.0029955,6.5353e-05,0,0,0.04526,-0.019299,0,0.00084959,0,0,0,0.0099591,2.5963e-05,0.0029955,0.37698,0.0043268,0.0088311,2.2361e-08,0.28,0.98,0
0.015293,-0.008896,0.010019,2.1966e-05,0.0030124,8.6511e-05,0,0,0.045545,-0.019438,0,0.0011246,0,0,0,0.01002,2.1218e-05,0.0030124,0.49575,0.0043512,0.0088891,2.2786e-08,0.3,0.98,0
0.016207,-0.0089833,0.0101,1.7875e-05,0.0030353,0.00010394,0,0,0.045919,-0.019613,0,0.0013512,0,0,0,0.010101,1.6803e-05,0.0030353,0.59059,0.0043843,0.0089643,2.3353e-08,0.32,0.98,0
0.01713,-0.0090422,0.010196,1.3957e-05,0.003063,0.00011785,0,0,0.046365,-0.019819,0,0.0015321,0,0,0,0.010197,1.2593e-05,0.003063,0.66306,0.0044243,0.0090536,2.404e-08,0.34,0.98,0
0.018062,-0.0090768,0.010305,1.0108e-05,0.0030945,0.00012837,0,0,0.046867,-0.020048,0,0.0016689,0,0,0,0.010306,8.5073e-06,0.0030945,0.71433,0.0044698,0.0091537,2.483e-08,0.36,0.98,0
0.019004,-0.0090912,0.010423,6.2721e-06,0.0031287,0.00013553,0,0,0.047411,-0.020296,0,0.0017619,0,0,0,0.010424,4.5088e-06,0.0031287,0.74535,0.0045192,0.0092618,2.5704e-08,0.38,0.98,0
0.019958,-0.0090894,0.010546,2.4332e-06,0.0031646,0.00013934,0,0,0.047981,-0.020554,0,0.0018114,0,0,0,0.010548,5.9206e-07,0.0031646,0.75701,0.0045711,0.0093749,2.664e-08,0.4,0.98,0
0.020924,-0.0090753,0.010672,-1.3902e-06,0.0032013,0.0001398,0,0,0.048562,-0.020818,0,0.0018174,0,0,0,0.010674,-3.2209e-06,0.0032013,0.75025,0.0046241,0.0094901,2.7619e-08,0.42,0.98,0
0.021901,-0.0090527,0.010798,-5.1498e-06,0.0032379,0.00013695,0,0,0.049141,-0.02108,0,0.0017803,0,0,0,0.0108,-6.8855e-06,0.0032379,0.72616,0.0046769,0.0096045,2.8614e-08,0.44,0.98,0
0.022889,-0.0090253,0.01092,-8.7739e-06,0.0032733,0.00013087,0,0,0.049702,-0.021334,0,0.0017013,0,0,0,0.010921,-1.0341e-05,0.0032733,0.68599,0.0047281,0.0097154,2.9602e-08,0.46,0.98,0
0.023889,-0.0089966,0.011035,-1.2173e-05,0.0033069,0.00012173,0,0,0.050233,-0.021574,0,0.0015825,0,0,0,0.011036,-1.3515e-05,0.0033069,0.63125,0.0047766,0.0098201,3.0556e-08,0.48,0.98,0
0.024899,-0.0089697,0.011141,-1.525e-05,0.0033377,0.00010977,0,0,0.05072,-0.021794,0,0.001427,0,0,0,0.011142,-1.633e-05,0.0033377,0.56367,0.0048211,0.0099162,3.1449e-08,0.5,0.98,0
0.025918,-0.0089475,0.011235,-1.7904e-05,0.003365,9.5301e-05,0,0,0.051152,-0.021989,0,0.0012389,0,0,0,0.011235,-1.8711e-05,0.003365,0.48521,0.0048606,0.010001,3.2254e-08,0.52,0.98,0
0.026945,-0.0089324,0.011314,-2.0043e-05,0.0033883,7.8745e-05,0,0,0.05152,-0.022154,0,0.0010237,0,0,0,0.011315,-2.059e-05,0.0033883,0.39803,0.0048942,0.010073,3.295e-08,0.54,0.98,0
0.027978,-0.0089267,0.011378,-2.1589e-05,0.003407,6.0583e-05,0,0,0.051814,-0.022286,0,0.00078758,0,0,0,0.011379,-2.1911e-05,0.003407,0.30447,0.0049213,0.010131,3.3514e-08,0.56,0.98,0
0.029017,-0.0089318,0.011425,-2.2485e-05,0.0034209,4.1356e-05,0,0,0.052029,-0.022382,0,0.00053762,0,0,0,0.011425,-2.2634e-05,0.0034209,0.20698,0.0049413,0.010173,3.3931e-08,0.58,0.98,0
0.03006,-0.008949,0.011455,-2.2701e-05,0.0034296,2.1643e-05,0,0,0.052163,-0.02244,0,0.00028136,0,0,0,0.011455,-2.2742e-05,0.0034296,0.10804,0.0049538,0.010199,3.4191e-08,0.6,0.98,0
0.031104,-0.0089788,0.011466,-2.2237e-05,0.0034331,2.038e-06,0,0,0.052213,-0.02246,0,2.6494e-05,0,0,0,0.011466,-2.2237e-05,0.0034331,0.010164,0.0049589,0.010209,3.4291e-08,0.62,0.98,0
0.032148,-0.0090214,0.01146,-2.1122e-05,0.0034315,-1.6879e-05,0,0,0.052182,-0.022442,0,-0.00021943,0,0,0,0.01146,-2.1147e-05,0.0034315,-0.084238,0.0049567,0.010202,3.4231e-08,0.64,0.98,0
0.033191,-0.0090764,0.011437,-1.9414e-05,0.0034251,-3.4567e-05,0,0,0.052074,-0.02239,0,-0.00044937,0,0,0,0.011437,-1.9518e-05,0.0034251,-0.17288,0.0049474,0.010181,3.402e-08,0.66,0.98,0
0.034231,-0.009143,0.011398,-1.7195e-05,0.0034142,-5.0542e-05,0,0,0.051894,-0.022304,0,-0.00065705,0,0,0,0.011398,-1.7418e-05,0.0034142,-0.25368,0.0049317,0.010145,3.3672e-08,0.68,0.98,0
0.035267,-0.00922,0.011346,-1.4564e-05,0.0033994,-6.4403e-05,0,0,0.051652,-0.02219,0,-0.00083724,0,0,0,0.011346,-1.4929e-05,0.0033994,-0.32481,0.0049102,0.010097,3.3205e-08,0.7,0.98,0
0.036297,-0.0093058,0.011282,-1.1633e-05,0.003381,-7.584e-05,0,0,0.051355,-0.022052,0,-0.00098592,0,0,0,0.011282,-1.2143e-05,0.003381,-0.38474,0.0048837,0.010038,3.2639e-08,0.72,0.98,0
0.037321,-0.0093986,0.011208,-8.5194e-06,0.00336,-8.4641e-05,0,0,0.051015,-0.021895,0,-0.0011003,0,0,0,0.011209,-9.158e-06,0.00336,-0.43231,0.0048533,0.0099702,3.1999e-08,0.74,0.98,0
0.038338,-0.0094964,0.011128,-5.3347e-06,0.0033369,-9.0695e-05,0,0,0.050644,-0.021724,0,-0.001179,0,0,0,0.011129,-6.0734e-06,0.0033369,-0.4667,0.0048199,0.0098964,3.1308e-08,0.76,0.98,0
0.039347,-0.0095969,0.011043,-2.1835e-06,0.0033124,-9.3985e-05,0,0,0.050252,-0.021545,0,-0.0012218,0,0,0,0.011044,-2.9831e-06,0.0033124,-0.48747,0.0047846,0.0098188,3.059e-08,0.78,0.98,0
0.040348,-0.009698,0.010957,8.4371e-07,0.0032873,-9.4579e-05,0,0,0.049852,-0.021362,0,-0.0012295,0,0,0,0.010958,2.7315e-08,0.0032873,-0.49456,0.0047483,0.0097394,2.9868e-08,0.8,0.98,0
0.041341,-0.0097975,0.010871,3.6734e-06,0.0032623,-9.2616e-05,0,0,0.049455,-0.021181,0,-0.001204,0,0,0,0.010871,2.8841e-06,0.0032623,-0.48826,0.0047123,0.0096605,2.9161e-08,0.82,0.98,0
0.042326,-0.009893,0.010787,6.2501e-06,0.0032381,-8.8293e-05,0,0,0.049071,-0.021007,0,-0.0011478,0,0,0,0.010788,5.527e-06,0.0032381,-0.46919,0.0046773,0.0095843,2.8487e-08,0.84,0.98,0
0.043304,-0.0099826,0.010709,8.5361e-06,0.0032152,-8.1846e-05,0,0,0.048709,-0.020844,0,-0.001064,0,0,0,0.01071,7.9101e-06,0.0032152,-0.43822,0.0046442,0.0095125,2.7862e-08,0.86,0.98,0
0.044274,-0.010064,0.010637,1.051e-05,0.0031943,-7.3539e-05,0,0,0.048379,-0.020695,0,-0.00095601,0,0,0,0.010638,1.0001e-05,0.0031943,-0.39647,0.004614,0.009447,2.7299e-08,0.88,0.98,0
0.045239,-0.010137,0.010574,1.2163e-05,0.0031758,-6.3646e-05,0,0,0.048087,-0.020563,0,-0.0008274,0,0,0,0.010574,1.1779e-05,0.0031758,-0.34526,0.0045872,0.0093891,2.6808e-08,0.9,0.98,0
0.046198,-0.010198,0.01052,1.3496e-05,0.0031601,-5.2448e-05,0,0,0.04784,-0.020453,0,-0.00068183,0,0,0,0.01052,1.3235e-05,0.0031601,-0.28601,0.0045645,0.0093401,2.6397e-08,0.92,0.98,0
0.047152,-0.010247,0.010477,1.4518e-05,0.0031475,-4.022e-05,0,0,0.047643,-0.020364,0,-0.00052287,0,0,0,0.010477,1.4364e-05,0.0031475,-0.22025,0.0045464,0.0093009,2.6071e-08,0.94,0.98,0
0.048104,-0.010282,0.010446,1.5238e-05,0.0031383,-2.7231e-05,0,0,0.047499,-0.0203,0,-0.000354,0,0,0,0.010446,1.5167e-05,0.0031383,-0.14958,0.0045331,0.0092724,2.5835e-08,0.96,0.98,0
0.049052,-0.010304,0.010427,1.5665e-05,0.0031328,-1.374e-05,0,0,0.047412,-0.020261,0,-0.00017862,0,0,0,0.010427,1.5647e-05,0.0031328,-0.075615,0.0045251,0.0092551,2.5693e-08,0.98,0.98,0
0.05,-0.010311,0.01042,1.5807e-05,0.0031309,-2.7959e-05,0,0,0.047383,-0.020248,0,-0.00036347,0,0,0,0.010421,1.5732e-05,0.0031309,-0.15396,0.0045224,0.0092494,2.5646e-08,1,0.98,0
0,0,0.027146,0.011634,0.011634,-0.0076339,0,0,0.10083,-6.9389e-18,0,-0.099241,0,0,0,0.030272,0.0085071,0.011634,-22.273,0.016804,0.020383,4.0062e-07,0,1,0
0.0020165,-0.0019848,0.019506,0.0013875,0.0062679,-0.0030298,0,0,0.086045,-0.031723,0,-0.039387,0,0,0,0.019999,0.00089426,0.0062679,-9.2462,0.0090537,0.017065,1.725e-07,0.02,1,0
0.0034418,-0.0032026,0.014492,0.00056344,0.0045168,-0.00098307,0,0,0.064842,-0.025697,0,-0.01278,0,0,0,0.014561,0.0004944,0.0045168,-4.0172,0.0065242,0.012549,6.7455e-08,0.04,1,0
0.0046102,-0.0042351,0.012173,-6.1894e-05,0.0036335,-0.00058509,0,0,0.05551,-0.02402,0,-0.0076062,0,0,0,0.012201,-8.9809e-05,0.0036335,-2.7316,0.0052483,0.010917,4.1559e-08,0.06,1,0
0.0056622,-0.0050975,0.011111,-0.0001332,0.0032934,-0.0003528,0,0,0.050815,-0.022273,0,-0.0045864,0,0,0,0.011122,-0.00014426,0.0032934,-1.7954,0.0047571,0.010001,3.1662e-08,0.08,1,0
0.0066428,-0.0058373,0.010452,-0.0001624,0.003087,-0.00023648,0,0,0.047875,-0.021121,0,-0.0030742,0,0,0,0.010458,-0.00016766,0.003087,-1.2756,0.004459,0.0094292,2.6402e-08,0.1,1,0
0.0075772,-0.0064756,0.010026,-0.00016249,0.0029591,-0.00016213,0,0,0.045937,-0.020291,0,-0.0021077,0,0,0,0.010029,-0.00016506,0.0029591,-0.91142,0.0042743,0.009046,2.3296e-08,0.12,1,0
0.0084803,-0.0070274,0.0097411,-0.00015639,0.0028754,-0.00011166,0,0,0.044627,-0.019707,0,-0.0014516,0,0,0,0.0097423,-0.00015765,0.0028754,-0.6463,0.0041534,0.0087853,2.1349e-08,0.14,1,0
0.0093623,-0.0075035,0.0095543,-0.00014753,0.002822,-7.4793e-05,0,0,0.04376,-0.019302,0,-0.00097231,0,0,0,0.0095549,-0.00014811,0.002822,-0.44167,0.0040763,0.0086111,2.0127e-08,0.16,1,0
0.010231,-0.0079121,0.0094405,-0.00013786,0.0027908,-4.6607e-05,0,0,0.043223,-0.019036,0,-0.00060589,0,0,0,0.0094407,-0.00013809,0.0027908,-0.27878,0.0040311,0.0085016,1.9396e-08,0.18,1,0
0.011091,-0.0082603,0.0093834,-0.00012797,0.0027766,-2.4263e-05,0,0,0.042944,-0.01888,0,-0.00031542,0,0,0,0.0093835,-0.00012803,0.0027766,-0.14616,0.0040107,0.0084427,1.9027e-08,0.2,1,0
0.011948,-0.0085538,0.0093721,-0.00011809,0.0027762,-6.0751e-06,0,0,0.042874,-0.018813,0,-7.8977e-05,0,0,0,0.0093721,-0.0001181,0.0027762,-0.036678,0.0040101,0.0084246,1.8937e-08,0.22,1,0
0.012806,-0.0087978,0.0093986,-0.00010832,0.0027871,9.0133e-06,0,0,0.042975,-0.01882,0,0.00011717,0,0,0,0.0093986,-0.00010833,0.0027871,0.054321,0.0040258,0.0084403,1.9077e-08,0.24,1,0
0.013667,-0.0089972,0.0094567,-9.8649e-05,0.0028074,2.1673e-05,0,0,0.043221,-0.01889,0,0.00028175,0,0,0,0.0094568,-9.8699e-05,0.0028074,0.12996,0.0040552,0.0084843,1.9412e-08,0.26,1,0
0.014535,-0.0091564,0.0095416,-8.908e-05,0.0028358,3.2333e-05,0,0,0.043588,-0.019011,0,0.00042033,0,0,0,0.0095417,-8.9188e-05,0.0028358,0.19236,0.0040961,0.0085522,1.9917e-08,0.28,1,0
0.015411,-0.0092795,0.0096491,-7.9602e-05,0.0028708,4.1261e-05,0,0,0.044058,-0.019178,0,0.00053639,0,0,0,0.0096492,-7.9777e-05,0.0028708,0.24299,0.0041468,0.0086402,2.0575e-08,0.3,1,0
0.016297,-0.0093709,0.0097753,-7.0218e-05,0.0029115,4.8613e-05,0,0,0.044615,-0.019381,0,0.00063197,0,0,0,0.0097756,-7.0458e-05,0.0029115,0.28289,0.0042055,0.008745,2.137e-08,0.32,1,0
0.017195,-0.0094345,0.0099169,-6.0944e-05,0.0029568,5.4475e-05,0,0,0.045241,-0.019615,0,0.00070818,0,0,0,0.0099171,-6.1241e-05,0.0029568,0.3128,0.0042709,0.0088635,2.2287e-08,0.34,1,0
0.018107,-0.0094742,0.01007,-5.1813e-05,0.0030055,5.8881e-05,0,0,0.04592,-0.019873,0,0.00076545,0,0,0,0.01007,-5.2155e-05,0.0030055,0.33328,0.0043413,0.0089926,2.3313e-08,0.36,1,0
0.019032,-0.0094941,0.010232,-4.2873e-05,0.0030567,6.1836e-05,0,0,0.046638,-0.020147,0,0.00080386,0,0,0,0.010232,-4.3245e-05,0.0030567,0.3448,0.0044152,0.0091291,2.4429e-08,0.38,1,0
0.019973,-0.009498,0.010398,-3.4188e-05,0.0031092,6.3332e-05,0,0,0.047378,-0.020432,0,0.00082332,0,0,0,0.010399,-3.4572e-05,0.0031092,0.34781,0.0044911,0.0092701,2.5616e-08,0.4,1,0
0.020928,-0.0094897,0.010566,-2.5835e-05,0.003162,6.3365e-05,0,0,0.048125,-0.020721,0,0.00082375,0,0,0,0.010566,-2.6214e-05,0.003162,0.34276,0.0045673,0.0094123,2.685e-08,0.42,1,0
0.021897,-0.0094729,0.010731,-1.79e-05,0.0032139,6.1945e-05,0,0,0.04886,-0.021007,0,0.00080528,0,0,0,0.010731,-1.8257e-05,0.0032139,0.33018,0.0046423,0.0095527,2.8105e-08,0.44,1,0
0.022882,-0.009451,0.01089,-1.0476e-05,0.0032638,5.9104e-05,0,0,0.049569,-0.021283,0,0.00076835,0,0,0,0.01089,-1.0797e-05,0.0032638,0.31066,0.0047144,0.0096881,2.9351e-08,0.46,1,0
0.02388,-0.0094275,0.011039,-3.6581e-06,0.0033107,5.4908e-05,0,0,0.050236,-0.021543,0,0.0007138,0,0,0,0.01104,-3.9311e-06,0.0033107,0.28488,0.0047821,0.0098154,3.0554e-08,0.48,1,0
0.024891,-0.0094053,0.011176,2.4629e-06,0.0033535,4.9461e-05,0,0,0.050845,-0.021782,0,0.000643,0,0,0,0.011176,2.244e-06,0.0033535,0.25362,0.0048439,0.0099317,3.1683e-08,0.5,1,0
0.025914,-0.0093873,0.011296,7.8023e-06,0.0033913,4.2906e-05,0,0,0.051384,-0.021993,0,0.00055778,0,0,0,0.011297,7.6392e-06,0.0033913,0.21777,0.0048985,0.010035,3.2703e-08,0.52,1,0
0.026947,-0.0093759,0.011399,1.2287e-05,0.0034233,3.5425e-05,0,0,0.05184,-0.022172,0,0.00046053,0,0,0,0.011399,1.2177e-05,0.0034233,0.17825,0.0049448,0.010122,3.3584e-08,0.54,1,0
0.027988,-0.009373,0.01148,1.5862e-05,0.0034488,2.7233e-05,0,0,0.052204,-0.022314,0,0.00035402,0,0,0,0.01148,1.5797e-05,0.0034488,0.1361,0.0049817,0.010191,3.4298e-08,0.56,1,0
0.029035,-0.0093802,0.01154,1.8488e-05,0.0034675,1.8571e-05,0,0,0.05247,-0.022419,0,0.00024142,0,0,0,0.01154,1.8458e-05,0.0034675,0.092353,0.0050086,0.010242,3.4826e-08,0.58,1,0
0.030086,-0.0093987,0.011576,2.015e-05,0.003479,9.6992e-06,0,0,0.052633,-0.022482,0,0.00012609,0,0,0,0.011576,2.0142e-05,0.003479,0.048089,0.0050252,0.010273,3.5153e-08,0.6,1,0
0.03114,-0.009429,0.01159,2.0857e-05,0.0034832,8.8355e-07,0,0,0.052693,-0.022506,0,1.1486e-05,0,0,0,0.01159,2.0857e-05,0.0034832,0.0043758,0.0050313,0.010285,3.5274e-08,0.62,1,0
0.032194,-0.0094712,0.011581,2.0641e-05,0.0034805,-7.6162e-06,0,0,0.052653,-0.022489,0,-9.901e-05,0,0,0,0.011581,2.0636e-05,0.0034805,-0.037748,0.0050273,0.010277,3.5192e-08,0.64,1,0
0.033246,-0.0095251,0.01155,1.9555e-05,0.003471,-1.5557e-05,0,0,0.052516,-0.022434,0,-0.00020224,0,0,0,0.011551,1.9534e-05,0.003471,-0.077301,0.0050137,0.010251,3.4919e-08,0.66,1,0
0.034295,-0.0095899,0.0115,1.7675e-05,0.0034554,-2.2723e-05,0,0,0.052292,-0.022345,0,-0.0002954,0,0,0,0.0115,1.763e-05,0.0034554,-0.11338,0.0049911,0.010208,3.4472e-08,0.68,1,0
0.035338,-0.0096645,0.011433,1.5096e-05,0.0034344,-2.8934e-05,0,0,0.05199,-0.022225,0,-0.00037615,0,0,0,0.011433,1.5023e-05,0.0034344,-0.14519,0.0049608,0.01015,3.3878e-08,0.7,1,0
0.036374,-0.0097474,0.011351,1.1926e-05,0.0034088,-3.4053e-05,0,0,0.051623,-0.02208,0,-0.00044269,0,0,0,0.011351,1.1823e-05,0.0034088,-0.17207,0.0049239,0.010079,3.3163e-08,0.72,1,0
0.037403,-0.0098369,0.011257,8.2831e-06,0.0033796,-3.7985e-05,0,0,0.051203,-0.021914,0,-0.00049381,0,0,0,0.011257,8.1549e-06,0.0033796,-0.19347,0.0048817,0.0099991,3.2359e-08,0.74,1,0
0.038423,-0.009931,0.011155,4.2944e-06,0.0033477,-4.0682e-05,0,0,0.050746,-0.021732,0,-0.00052887,0,0,0,0.011155,4.146e-06,0.0033477,-0.20904,0.0048356,0.0099114,3.1498e-08,0.76,1,0
0.039433,-0.010028,0.011047,8.7497e-08,0.0033142,-4.2138e-05,0,0,0.050265,-0.021542,0,-0.00054779,0,0,0,0.011047,-7.3231e-08,0.0033142,-0.21854,0.0047872,0.0098192,3.0608e-08,0.78,1,0
0.040433,-0.010125,0.010938,-4.2112e-06,0.00328,-4.2385e-05,0,0,0.049774,-0.021347,0,-0.00055101,0,0,0,0.010938,-4.3754e-06,0.00328,-0.22194,0.0047378,0.0097252,2.9718e-08,0.8,1,0
0.041424,-0.010221,0.010829,-8.4803e-06,0.0032461,-4.1488e-05,0,0,0.049288,-0.021155,0,-0.00053934,0,0,0,0.010829,-8.6392e-06,0.0032461,-0.21934,0.0046888,0.0096319,2.8853e-08,0.82,1,0
0.042405,-0.010312,0.010724,-1.2607e-05,0.0032134,-3.9535e-05,0,0,0.048819,-0.020969,0,-0.00051395,0,0,0,0.010724,-1.2752e-05,0.0032134,-0.21097,0.0046416,0.009542,2.8034e-08,0.84,1,0
0.043376,-0.010398,0.010625,-1.6487e-05,0.0031827,-3.6634e-05,0,0,0.048378,-0.020795,0,-0.00047624,0,0,0,0.010625,-1.6613e-05,0.0031827,-0.19723,0.0045972,0.0094574,2.7279e-08,0.86,1,0
0.04434,-0.010477,0.010535,-2.003e-05,0.0031546,-3.2904e-05,0,0,0.047975,-0.020635,0,-0.00042775,0,0,0,0.010536,-2.0133e-05,0.0031546,-0.1786,0.0045567,0.0093803,2.6602e-08,0.88,1,0
0.045296,-0.010547,0.010456,-2.3157e-05,0.0031299,-2.8469e-05,0,0,0.047621,-0.020495,0,-0.0003701,0,0,0,0.010456,-2.3235e-05,0.0031299,-0.15565,0.004521,0.0093123,2.6014e-08,0.9,1,0
0.046245,-0.010605,0.010389,-2.5803e-05,0.003109,-2.3454e-05,0,0,0.047321,-0.020376,0,-0.0003049,0,0,0,0.010389,-2.5856e-05,0.003109,-0.12903,0.0044908,0.0092548,2.5524e-08,0.92,1,0
0.047188,-0.010652,0.010336,-2.7914e-05,0.0030923,-1.7982e-05,0,0,0.047082,-0.020282,0,-0.00023376,0,0,0,0.010336,-2.7945e-05,0.0030923,-0.099413,0.0044667,0.0092089,2.5138e-08,0.94,1,0
0.048128,-0.010687,0.010297,-2.945e-05,0.0030802,-1.2173e-05,0,0,0.046908,-0.020213,0,-0.00015824,0,0,0,0.010297,-2.9465e-05,0.0030802,-0.06754,0.0044492,0.0091756,2.4859e-08,0.96,1,0
0.049065,-0.010707,0.010273,-3.0383e-05,0.0030728,-6.1414e-06,0,0,0.046802,-0.020171,0,-7.9837e-05,0,0,0,0.010273,-3.0387e-05,0.0030728,-0.034151,0.0044386,0.0091553,2.4691e-08,0.98,1,0
0.05,-0.010714,0.010265,-3.0696e-05,0.0030704,-2.6881e-05,0,0,0.046767,-0.020157,0,-0.00034945,0,0,0,0.010265,-3.0766e-05,0.0030704,-0.14959,0.004435,0.0091486,2.4635e-08,1,1,0
