"Displacements:0","Displacements:1","Stress/Strain:0","Stress/Strain:1","Stress/Strain:2","Stress/Strain:3","Stress/Strain:4","Stress/Strain:5","Stress/Strain:6","Stress/Strain:7","Stress/Strain:8","Stress/Strain:9","Stress/Strain:10","Stress/Strain:11","Stress/Strain:12","Principal Stress:0","Principal Stress:1","Principal Stress:2","Principal Stress:3","Principal Stress:4","Principal Stress:5","Principal Stress:6","nodes:0","nodes:1","nodes:2"
0,0,0.026103,0.011187,0.011187,0.0074168,0,0,0.11635,1.7347e-17,0,0.1157,0,0,0,0.029163,0.008127,0.011187,22.421,0.016159,0.019685,3.6008e-07,0,0,0
0.0023269,0.002314,0.0187,0.0013672,0.0060203,0.0029557,0,0,0.098905,-0.036294,0,0.046109,0,0,0,0.019191,0.00087701,0.0060203,9.4159,0.008696,0.01636,1.5223e-07,0.02,0,0
0.0039562,0.003756,0.013741,0.00055764,0.0042896,0.00098784,0,0,0.07372,-0.029109,0,0.01541,0,0,0,0.013815,0.00048404,0.0042896,4.2615,0.006196,0.011893,5.7524e-08,0.04,0,0
0.0052757,0.0049872,0.01139,-5.8212e-05,0.0033997,0.00060277,0,0,0.062328,-0.026971,0,0.0094033,0,0,0,0.011422,-8.9861e-05,0.0033997,3.0056,0.0049106,0.010224,3.4112e-08,0.06,0,0
0.0064493,0.006021,0.010262,-0.00013594,0.0030378,0.00037881,0,0,0.056347,-0.024755,0,0.0059094,0,0,0,0.010276,-0.00014972,0.0030378,2.0837,0.0043879,0.0092529,2.5009e-08,0.08,0,0
0.0075296,0.0069102,0.0095241,-0.00017058,0.0028061,0.00026851,0,0,0.052401,-0.023218,0,0.0041888,0,0,0,0.0095315,-0.00017801,0.0028061,1.5853,0.0040532,0.0086143,2.0044e-08,0.1,0,0
0.0085454,0.0076777,0.0090057,-0.00017601,0.0026489,0.0002002,0,0,0.049583,-0.022034,0,0.0031231,0,0,0,0.0090101,-0.00018038,0.0026489,1.2485,0.0038262,0.0081527,1.6954e-08,0.12,0,0
0.0095129,0.0083397,0.0086139,-0.0001751,0.0025316,0.00015585,0,0,0.047441,-0.021112,0,0.0024312,0,0,0,0.0086166,-0.00017787,0.0025316,1.0155,0.0036568,0.007801,1.4838e-08,0.14,0,0
0.010443,0.008907,0.0083054,-0.00017155,0.0024402,0.00012498,0,0,0.045749,-0.020371,0,0.0019496,0,0,0,0.0083073,-0.0001734,0.0024402,0.84448,0.0035247,0.0075225,1.3299e-08,0.16,0,0
0.011343,0.0093872,0.0080552,-0.0001674,0.0023663,0.00010227,0,0,0.044373,-0.019763,0,0.0015954,0,0,0,0.0080565,-0.00016867,0.0023663,0.71248,0.0034181,0.0072958,1.2132e-08,0.18,0,0
0.012218,0.0097859,0.0078489,-0.00016319,0.0023057,8.4394e-05,0,0,0.043237,-0.019257,0,0.0013166,0,0,0,0.0078498,-0.00016407,0.0023057,0.60343,0.0033305,0.0071084,1.1221e-08,0.2,0,0
0.013072,0.010107,0.0076788,-0.00015899,0.0022559,6.912e-05,0,0,0.042298,-0.018836,0,0.0010783,0,0,0,0.0076794,-0.0001596,0.0022559,0.50523,0.0032586,0.0069533,1.0505e-08,0.22,0,0
0.01391,0.010353,0.0075417,-0.00015458,0.0022161,5.483e-05,0,0,0.041539,-0.018492,0,0.00085534,0,0,0,0.0075421,-0.00015497,0.0022161,0.40816,0.0032011,0.0068276,9.9492e-09,0.24,0,0
0.014734,0.010526,0.007438,-0.00014957,0.0021865,4.0303e-05,0,0,0.040961,-0.018222,0,0.00062873,0,0,0,0.0074382,-0.00014978,0.0021865,0.30433,0.0031583,0.0067311,9.54e-09,0.26,0,0
0.015548,0.010627,0.0073708,-0.00014345,0.0021682,2.463e-05,0,0,0.04058,-0.018031,0,0.00038422,0,0,0,0.0073709,-0.00014354,0.0021682,0.1878,0.0031318,0.0066663,9.277e-09,0.28,0,0
0.016357,0.010658,0.0073451,-0.00013567,0.0021628,7.1919e-06,0,0,0.040421,-0.017928,0,0.00011219,0,0,0,0.0073451,-0.00013568,0.0021628,0.055084,0.0031241,0.006637,9.1705e-09,0.3,0,0
0.017165,0.01062,0.0073669,-0.00012562,0.0021724,-1.2307e-05,0,0,0.040517,-0.017924,0,-0.00019199,0,0,0,0.0073669,-0.00012564,0.0021724,-0.094112,0.0031379,0.0066484,9.2395e-09,0.32,0,0
0.017978,0.010517,0.0074429,-0.00011276,0.002199,-3.3796e-05,0,0,0.040902,-0.018032,0,-0.00052722,0,0,0,0.007443,-0.00011291,0.002199,-0.25627,0.0031764,0.0067059,9.5105e-09,0.34,0,0
0.018801,0.010353,0.0075787,-9.6627e-05,0.0022446,-5.6785e-05,0,0,0.041606,-0.018262,0,-0.00088584,0,0,0,0.0075791,-9.7047e-05,0.0022446,-0.42386,0.0032422,0.0068141,1.0017e-08,0.36,0,0
0.019642,0.010132,0.007778,-7.6947e-05,0.0023103,-8.0319e-05,0,0,0.042648,-0.018621,0,-0.001253,0,0,0,0.0077789,-7.7768e-05,0.0023103,-0.58578,0.0033371,0.0069762,1.0799e-08,0.38,0,0
0.020507,0.0098638,0.0080412,-5.3772e-05,0.0023962,-0.00010296,0,0,0.044031,-0.01911,0,-0.0016061,0,0,0,0.0080425,-5.5082e-05,0.0023962,-0.72856,0.0034612,0.0071924,1.1896e-08,0.4,0,0
0.021403,0.0095585,0.0083638,-2.7564e-05,0.0025009,-0.00012279,0,0,0.045731,-0.019722,0,-0.0019155,0,0,0,0.0083656,-2.936e-05,0.0025009,-0.83817,0.0036124,0.007459,1.334e-08,0.42,0,0
0.022336,0.0092297,0.0087352,7.856e-07,0.0026208,-0.0001376,0,0,0.047692,-0.020436,0,-0.0021465,0,0,0,0.0087374,-1.3814e-06,0.0026208,-0.90229,0.0037856,0.0077671,1.5145e-08,0.44,0,0
0.023311,0.0088932,0.0091384,3.0107e-05,0.0027505,-0.00014516,0,0,0.049825,-0.021219,0,-0.0022645,0,0,0,0.0091407,2.7794e-05,0.0027505,-0.91283,0.003973,0.0081022,1.7281e-08,0.46,0,0
0.024329,0.0085668,0.0095506,5.9208e-05,0.0028829,-0.00014385,0,0,0.052008,-0.022025,0,-0.0022441,0,0,0,0.0095528,5.7028e-05,0.0028829,-0.86811,0.0041642,0.0084451,1.9662e-08,0.48,0,0
0.025391,0.0082691,0.0099459,8.7039e-05,0.0030099,-0.00013316,0,0,0.054101,-0.022798,0,-0.0020773,0,0,0,0.0099477,8.5241e-05,0.0030099,-0.7737,0.0043476,0.0087737,2.214e-08,0.5,0,0
0.026493,0.008018,0.010299,0.00011258,0.0031234,-0.00011402,0,0,0.055968,-0.023485,0,-0.0017787,0,0,0,0.0103,0.0001113,0.0031234,-0.64124,0.0045116,0.0090662,2.4517e-08,0.52,0,0
0.02763,0.0078293,0.010588,0.00013454,0.0032168,-8.8474e-05,0,0,0.057497,-0.024042,0,-0.0013802,0,0,0,0.010589,0.00013379,0.0032168,-0.48488,0.0046465,0.0093049,2.6583e-08,0.54,0,0
0.028793,0.0077155,0.010799,0.00015128,0.003285,-5.8917e-05,0,0,0.058606,-0.024443,0,-0.00091911,0,0,0,0.010799,0.00015095,0.003285,-0.31704,0.0047449,0.0094779,2.8154e-08,0.56,0,0
0.029974,0.0076856,0.010921,0.0001611,0.0033246,-2.7303e-05,0,0,0.059252,-0.024676,0,-0.00042593,0,0,0,0.010921,0.00016103,0.0033246,-0.14538,0.0048023,0.0095785,2.9095e-08,0.58,0,0
0.031163,0.0077444,0.010951,0.00016293,0.0033342,5.1219e-06,0,0,0.059413,-0.024736,0,7.9901e-05,0,0,0,0.010951,0.00016293,0.0033342,0.027202,0.0048161,0.0096037,2.9333e-08,0.6,0,0
0.032351,0.007893,0.010888,0.00015672,0.0033135,3.7451e-05,0,0,0.059083,-0.024623,0,0.00058424,0,0,0,0.010888,0.00015659,0.0033135,0.19995,0.0047862,0.0095529,2.8847e-08,0.62,0,0
0.033527,0.0081283,0.010735,0.0001435,0.0032635,6.8439e-05,0,0,0.058276,-0.024336,0,0.0010676,0,0,0,0.010735,0.00014306,0.0032635,0.37022,0.0047139,0.0094275,2.7678e-08,0.64,0,0
0.034682,0.0084435,0.010498,0.00012491,0.0031868,9.6123e-05,0,0,0.057025,-0.023883,0,0.0014995,0,0,0,0.010498,0.00012402,0.0031868,0.53089,0.0046031,0.0092324,2.5932e-08,0.66,0,0
0.035808,0.0088279,0.010191,0.00010257,0.003088,0.00011807,0,0,0.055401,-0.023286,0,0.0018419,0,0,0,0.010192,0.00010119,0.003088,0.67048,0.0044604,0.0089782,2.3776e-08,0.68,0,0
0.036898,0.0092672,0.0098335,7.773e-05,0.0029734,0.00013218,0,0,0.053509,-0.022586,0,0.002062,0,0,0,0.0098353,7.5939e-05,0.0029734,0.77611,0.0042949,0.0086812,2.1418e-08,0.7,0,0
0.037948,0.0097454,0.0094503,5.1407e-05,0.0028505,0.00013743,0,0,0.051478,-0.021833,0,0.0021439,0,0,0,0.0094523,4.9397e-05,0.0028505,0.83755,0.0041174,0.0083619,1.9064e-08,0.72,0,0
0.038957,0.010245,0.0090657,2.4645e-05,0.0027271,0.00013422,0,0,0.049441,-0.021079,0,0.0020938,0,0,0,0.0090677,2.2653e-05,0.0027271,0.85034,0.0039391,0.0080415,1.688e-08,0.74,0,0
0.039926,0.01075,0.0087017,-1.3508e-06,0.0026101,0.00012408,0,0,0.047515,-0.020369,0,0.0019357,0,0,0,0.0087035,-3.1196e-06,0.0026101,0.81668,0.0037701,0.0077383,1.4973e-08,0.76,0,0
0.040858,0.011246,0.0083748,-2.5394e-05,0.0025048,0.00010915,0,0,0.045786,-0.019736,0,0.0017028,0,0,0,0.0083762,-2.6812e-05,0.0025048,0.74434,0.0036181,0.0074664,1.3387e-08,0.78,0,0
0.041757,0.011719,0.0080952,-4.6558e-05,0.0024146,9.1607e-05,0,0,0.044309,-0.019197,0,0.0014291,0,0,0,0.0080962,-4.7589e-05,0.0024146,0.64455,0.0034877,0.0072341,1.2123e-08,0.8,0,0
0.04263,0.012161,0.007867,-6.4341e-05,0.0023408,7.3361e-05,0,0,0.043104,-0.01876,0,0.0011444,0,0,0,0.0078677,-6.502e-05,0.0023408,0.5299,0.0033812,0.007045,1.1153e-08,0.82,0,0
0.043481,0.012563,0.0076897,-7.8643e-05,0.0022833,5.5925e-05,0,0,0.04217,-0.018423,0,0.00087243,0,0,0,0.0076901,-7.9046e-05,0.0022833,0.41245,0.0032981,0.0068983,1.0437e-08,0.84,0,0
0.044317,0.012922,0.0075589,-8.967e-05,0.0022408,4.0372e-05,0,0,0.041481,-0.018177,0,0.0006298,0,0,0,0.0075591,-8.9884e-05,0.0022408,0.30242,0.0032367,0.0067906,9.9287e-09,0.86,0,0
0.045141,0.013234,0.007468,-9.7812e-05,0.002211,2.7363e-05,0,0,0.041004,-0.018009,0,0.00042687,0,0,0,0.0074681,-9.791e-05,0.002211,0.20722,0.0031937,0.0067161,9.5865e-09,0.88,0,0
0.045957,0.013497,0.0074092,-0.00010355,0.0021917,1.7186e-05,0,0,0.040696,-0.017903,0,0.00026811,0,0,0,0.0074092,-0.00010359,0.0021917,0.13107,0.0031658,0.0066683,9.37e-09,0.9,0,0
0.046768,0.013712,0.0073744,-0.00010738,0.0021801,9.8095e-06,0,0,0.040516,-0.017843,0,0.00015303,0,0,0,0.0073745,-0.00010739,0.0021801,0.075121,0.0031491,0.0066405,9.2442e-09,0.92,0,0
0.047578,0.013878,0.0073562,-0.00010978,0.0021739,4.9432e-06,0,0,0.040422,-0.017813,0,7.7113e-05,0,0,0,0.0073562,-0.00010979,0.0021739,0.037935,0.0031401,0.0066262,9.1791e-09,0.94,0,0
0.048385,0.013996,0.007348,-0.00011118,0.002171,2.107e-06,0,0,0.04038,-0.017801,0,3.2869e-05,0,0,0,0.007348,-0.00011118,0.002171,0.016184,0.003136,0.00662,9.1505e-09,0.96,0,0
0.049193,0.014066,0.0073451,-0.00011189,0.00217,6.8956e-07,0,0,0.040366,-0.017798,0,1.0757e-05,0,0,0,0.0073451,-0.00011189,0.00217,0.0052982,0.0031344,0.006618,9.1406e-09,0.98,0,0
0.05,0.01409,0.0073445,-0.0001121,0.0021697,7.5116e-05,0,0,0.040363,-0.017798,0,0.0011718,0,0,0,0.0073453,-0.00011286,0.0021697,0.5771,0.0031341,0.0066189,9.1424e-09,1,0,0
0,0,0.015381,0.0065917,0.0065917,0.0050902,0,0,0.068554,3.4694e-18,0,0.079407,0,0,0,0.017711,0.0042614,0.0065917,24.598,0.0095213,0.012449,8.75e-08,0,0.02,0
0.0013711,0.0015881,0.014003,0.001393,0.0046187,0.0032195,0,0,0.073196,-0.025161,0,0.050223,0,0,0,0.014777,0.00061855,0.0046187,13.525,0.0066715,0.012642,6.9832e-08,0.02,0.02,0
0.0029278,0.0031739,0.014028,0.0011054,0.00454,0.0021269,0,0,0.074007,-0.02679,0,0.033179,0,0,0,0.014369,0.00076437,0.00454,9.1099,0.0065578,0.012165,6.3314e-08,0.04,0.02,0
0.0043313,0.0044478,0.012515,0.00058846,0.0039311,0.0013006,0,0,0.066956,-0.026072,0,0.020289,0,0,0,0.012655,0.00044828,0.0039311,6.1517,0.0056782,0.010892,4.4204e-08,0.06,0.02,0
0.005606,0.0055259,0.011382,0.00034349,0.0035177,0.00088571,0,0,0.061343,-0.024759,0,0.013817,0,0,0,0.011453,0.00027288,0.0035177,4.5584,0.0050811,0.009962,3.321e-08,0.08,0.02,0
0.006785,0.0064458,0.010563,0.00021282,0.0032327,0.00063663,0,0,0.057175,-0.023555,0,0.0099314,0,0,0,0.010602,0.00017381,0.0032327,3.5066,0.0046695,0.0092846,2.6569e-08,0.1,0.02,0
0.0078931,0.007237,0.0099588,0.00014021,0.0030297,0.00048051,0,0,0.054047,-0.022538,0,0.0074959,0,0,0,0.0099823,0.00011675,0.0030297,2.7951,0.0043762,0.0087793,2.2294e-08,0.12,0.02,0
0.0089469,0.0079174,0.0094975,9.7076e-05,0.0028784,0.00037575,0,0,0.051629,-0.021694,0,0.0058617,0,0,0,0.0095125,8.208e-05,0.0028784,2.2853,0.0041577,0.0083894,1.9358e-08,0.14,0.02,0
0.0099582,0.0084996,0.0091347,7.0498e-05,0.0027616,0.00030194,0,0,0.04971,-0.02099,0,0.0047102,0,0,0,0.0091447,6.0452e-05,0.0027616,1.9058,0.0039889,0.0080798,1.7237e-08,0.16,0.02,0
0.010935,0.008992,0.0088428,5.4034e-05,0.002669,0.00024713,0,0,0.048155,-0.020397,0,0.0038553,0,0,0,0.0088497,4.709e-05,0.002669,1.6094,0.0038553,0.0078282,1.5644e-08,0.18,0.02,0
0.011884,0.0094008,0.0086048,4.4284e-05,0.0025947,0.0002039,0,0,0.046878,-0.019893,0,0.0031809,0,0,0,0.0086096,3.943e-05,0.0025947,1.3637,0.0037479,0.0076209,1.4416e-08,0.2,0.02,0
0.012811,0.0097302,0.0084103,3.9317e-05,0.0025349,0.00016717,0,0,0.045828,-0.019466,0,0.0026079,0,0,0,0.0084137,3.598e-05,0.0025349,1.1436,0.0036615,0.0074495,1.3458e-08,0.22,0.02,0
0.013718,0.0099831,0.0082536,3.7931e-05,0.0024874,0.00013326,0,0,0.044976,-0.019106,0,0.0020789,0,0,0,0.0082557,3.577e-05,0.0024874,0.92904,0.003593,0.0073093,1.2714e-08,0.24,0.02,0
0.014609,0.010161,0.008132,3.9262e-05,0.0024514,9.9411e-05,0,0,0.044309,-0.018814,0,0.0015508,0,0,0,0.0081332,3.8041e-05,0.0024514,0.70369,0.0035409,0.0071985,1.2152e-08,0.26,0.02,0
0.01549,0.010266,0.0080452,4.256e-05,0.0024263,6.3576e-05,0,0,0.043827,-0.018593,0,0.00099178,0,0,0,0.0080458,4.2055e-05,0.0024263,0.45514,0.0035047,0.0071176,1.1757e-08,0.28,0.02,0
0.016363,0.010299,0.0079948,4.7053e-05,0.0024126,2.4378e-05,0,0,0.043542,-0.018451,0,0.00038029,0,0,0,0.0079949,4.6978e-05,0.0024126,0.17574,0.0034848,0.0070685,1.1527e-08,0.3,0.02,0
0.017232,0.010262,0.007983,5.1875e-05,0.0024105,-1.8843e-05,0,0,0.043466,-0.018397,0,-0.00029395,0,0,0,0.0079831,5.183e-05,0.0024105,-0.13612,0.0034818,0.0070541,1.1468e-08,0.32,0.02,0
0.018101,0.010157,0.0080123,5.6043e-05,0.0024205,-6.5936e-05,0,0,0.043616,-0.018443,0,-0.0010286,0,0,0,0.0080129,5.5496e-05,0.0024205,-0.47479,0.0034963,0.0070777,1.1592e-08,0.34,0.02,0
0.018976,0.0099874,0.0080847,5.8472e-05,0.002443,-0.00011585,0,0,0.044006,-0.018599,0,-0.0018073,0,0,0,0.0080864,5.68e-05,0.002443,-0.82678,0.0035287,0.007142,1.1913e-08,0.36,0.02,0
0.019862,0.0097597,0.0082008,5.8011e-05,0.0024777,-0.00016656,0,0,0.044641,-0.018873,0,-0.0025983,0,0,0,0.0082042,5.4605e-05,0.0024777,-1.1713,0.0035788,0.0072485,1.2446e-08,0.38,0.02,0
0.020762,0.0094816,0.008359,5.3505e-05,0.0025238,-0.00021503,0,0,0.045515,-0.019268,0,-0.0033545,0,0,0,0.0083646,4.7942e-05,0.0025238,-1.4821,0.0036454,0.0073964,1.3204e-08,0.4,0.02,0
0.021682,0.0091641,0.008555,4.3933e-05,0.0025797,-0.0002573,0,0,0.046608,-0.019779,0,-0.0040139,0,0,0,0.0085628,3.6161e-05,0.0025797,-1.73,0.0037262,0.0075819,1.4188e-08,0.42,0.02,0
0.022626,0.0088209,0.008781,2.876e-05,0.0026429,-0.00028875,0,0,0.047877,-0.02039,0,-0.0045046,0,0,0,0.0087905,1.9244e-05,0.0026429,-1.8876,0.0038175,0.0077978,1.5384e-08,0.44,0.02,0
0.023597,0.0084688,0.0090256,8.5059e-06,0.0027102,-0.0003048,0,0,0.04926,-0.021073,0,-0.0047549,0,0,0,0.0090359,-1.7852e-06,0.0027102,-1.9338,0.0039148,0.0080327,1.6752e-08,0.46,0.02,0
0.024597,0.0081263,0.009275,-1.472e-05,0.0027781,-0.000302,0,0,0.050676,-0.021784,0,-0.0047113,0,0,0,0.0092847,-2.4527e-05,0.0027781,-1.86,0.0040128,0.0082721,1.8221e-08,0.48,0.02,0
0.025624,0.0078132,0.0095136,-3.7386e-05,0.0028429,-0.00027937,0,0,0.052032,-0.022466,0,-0.0043582,0,0,0,0.0095217,-4.555e-05,0.0028429,-1.674,0.0041063,0.0084995,1.9697e-08,0.5,0.02,0
0.026678,0.0075483,0.0097267,-5.5794e-05,0.0029013,-0.00023895,0,0,0.053238,-0.023065,0,-0.0037277,0,0,0,0.0097325,-6.1627e-05,0.0029013,-1.3984,0.0041907,0.0086997,2.1069e-08,0.52,0.02,0
0.027754,0.0073484,0.0099021,-6.7884e-05,0.0029503,-0.00018527,0,0,0.054224,-0.023541,0,-0.0028902,0,0,0,0.0099055,-7.1326e-05,0.0029503,-1.0642,0.0042615,0.0088612,2.2233e-08,0.54,0.02,0
0.028847,0.0072267,0.010031,-7.4157e-05,0.0029869,-0.00012349,0,0,0.054941,-0.023877,0,-0.0019264,0,0,0,0.010032,-7.5666e-05,0.0029869,-0.70005,0.0043145,0.0089773,2.3105e-08,0.56,0.02,0
0.029951,0.0071921,0.010107,-7.6806e-05,0.003009,-5.77e-05,0,0,0.055363,-0.024069,0,-0.00090012,0,0,0,0.010107,-7.7133e-05,0.003009,-0.32462,0.0043463,0.0090451,2.3629e-08,0.58,0.02,0
0.031061,0.0072497,0.010128,-7.7728e-05,0.003015,9.7011e-06,0,0,0.05548,-0.024124,0,0.00015134,0,0,0,0.010128,-7.7737e-05,0.003015,0.054463,0.0043551,0.009064,2.3776e-08,0.6,0.02,0
0.03217,0.0074005,0.010093,-7.6932e-05,0.0030048,7.7104e-05,0,0,0.055287,-0.024037,0,0.0012028,0,0,0,0.010094,-7.7516e-05,0.0030048,0.43436,0.0043403,0.0090333,2.3535e-08,0.62,0.02,0
0.033273,0.0076416,0.010003,-7.2515e-05,0.0029792,0.00014212,0,0,0.054788,-0.023804,0,0.0022171,0,0,0,0.010005,-7.4519e-05,0.0029792,0.80795,0.0043033,0.0089525,2.2917e-08,0.64,0.02,0
0.034362,0.0079659,0.0098631,-6.224e-05,0.0029403,0.00020064,0,0,0.053998,-0.023419,0,0.0031301,0,0,0,0.0098671,-6.6294e-05,0.0029403,1.1576,0.004247,0.0088231,2.1964e-08,0.66,0.02,0
0.035433,0.0083621,0.0096797,-4.5532e-05,0.0028903,0.00024743,0,0,0.052958,-0.022899,0,0.0038599,0,0,0,0.009686,-5.1823e-05,0.0028903,1.4565,0.0041748,0.0086505,2.0747e-08,0.68,0.02,0
0.03648,0.0088155,0.0094643,-2.4371e-05,0.002832,0.00027783,0,0,0.051732,-0.02228,0,0.0043342,0,0,0,0.0094724,-3.2499e-05,0.002832,1.6757,0.0040906,0.0084452,1.9365e-08,0.7,0.02,0
0.037502,0.0093087,0.0092302,-2.3995e-06,0.0027684,0.0002896,0,0,0.050403,-0.021612,0,0.0045177,0,0,0,0.0092393,-1.1474e-05,0.0027684,1.7948,0.0039987,0.0082212,1.7929e-08,0.72,0.02,0
0.038497,0.0098236,0.0089918,1.6866e-05,0.0027026,0.0002835,0,0,0.049056,-0.020949,0,0.0044226,0,0,0,0.0090008,7.9194e-06,0.0027026,1.8075,0.0039038,0.0079938,1.6538e-08,0.74,0.02,0
0.039464,0.010343,0.0087623,3.1283e-05,0.0026381,0.00026277,0,0,0.047769,-0.020333,0,0.0040992,0,0,0,0.0087702,2.3382e-05,0.0026381,1.7223,0.0038105,0.0077764,1.527e-08,0.76,0.02,0
0.040407,0.010851,0.008552,4.0253e-05,0.0025777,0.00023181,0,0,0.0466,-0.019792,0,0.0036163,0,0,0,0.0085583,3.3945e-05,0.0025777,1.5589,0.0037233,0.0075797,1.4169e-08,0.78,0.02,0
0.041328,0.011335,0.0083681,4.4192e-05,0.0025237,0.00019517,0,0,0.045587,-0.01934,0,0.0030447,0,0,0,0.0083727,3.9618e-05,0.0025237,1.3424,0.0036453,0.0074102,1.3256e-08,0.8,0.02,0
0.042231,0.011786,0.0082143,4.3976e-05,0.0024775,0.00015685,0,0,0.044747,-0.018981,0,0.0024468,0,0,0,0.0082174,4.0966e-05,0.0024775,1.0994,0.0035786,0.007271,1.2529e-08,0.82,0.02,0
0.043118,0.012195,0.0080914,4.0611e-05,0.0024396,0.00012003,0,0,0.044084,-0.018712,0,0.0018725,0,0,0,0.0080932,3.8822e-05,0.0024396,0.85399,0.0035239,0.0071624,1.1972e-08,0.84,0.02,0
0.043994,0.012559,0.0079977,3.5109e-05,0.0024098,8.7034e-05,0,0,0.043585,-0.018523,0,0.0013577,0,0,0,0.0079986,3.4157e-05,0.0024098,0.62617,0.0034809,0.0070821,1.1563e-08,0.86,0.02,0
0.044861,0.012874,0.0079298,2.8426e-05,0.0023875,5.9312e-05,0,0,0.04323,-0.0184,0,0.00092527,0,0,0,0.0079302,2.7981e-05,0.0023875,0.43006,0.0034485,0.0070262,1.1279e-08,0.88,0.02,0
0.045723,0.013139,0.0078834,2.1424e-05,0.0023714,3.7528e-05,0,0,0.042993,-0.01833,0,0.00058543,0,0,0,0.0078835,2.1245e-05,0.0023714,0.27348,0.0034254,0.0069901,1.109e-08,0.9,0.02,0
0.046581,0.013355,0.0078537,1.4824e-05,0.0023605,2.1653e-05,0,0,0.042846,-0.018297,0,0.0003378,0,0,0,0.0078537,1.4764e-05,0.0023605,0.15827,0.0034097,0.0069688,1.0975e-08,0.92,0.02,0
0.047437,0.013522,0.0078361,9.185e-06,0.0023536,1.1103e-05,0,0,0.042764,-0.018286,0,0.0001732,0,0,0,0.0078361,9.1693e-06,0.0023536,0.081275,0.0033996,0.0069576,1.091e-08,0.94,0.02,0
0.048292,0.01364,0.0078267,4.9058e-06,0.0023495,4.869e-06,0,0,0.042722,-0.018288,0,7.5957e-05,0,0,0,0.0078267,4.9027e-06,0.0023495,0.035666,0.0033937,0.0069526,1.0877e-08,0.96,0.02,0
0.049146,0.01371,0.0078224,2.2443e-06,0.0023474,1.6583e-06,0,0,0.042705,-0.018292,0,2.5869e-05,0,0,0,0.0078224,2.2439e-06,0.0023474,0.01215,0.0033907,0.0069509,1.0862e-08,0.98,0.02,0
0.05,0.013734,0.0078211,1.3422e-06,0.0023467,7.5135e-05,0,0,0.0427,-0.018294,0,0.0011721,0,0,0,0.0078218,6.2033e-07,0.0023467,0.55045,0.0033897,0.0069517,1.0863e-08,1,0.02,0
0,0,0.013035,0.0055864,0.0055864,0.004191,0,0,0.058098,-8.6736e-19,0,0.06538,0,0,0,0.014917,0.003704,0.0055864,24.187,0.0080692,0.010401,5.1462e-08,0,0.04,0
0.001162,0.0013076,0.012557,0.0034063,0.0047891,0.0037986,0,0,0.060593,-0.010786,0,0.059258,0,0,0,0.013929,0.0020351,0.0047891,19.849,0.0069177,0.010784,5.0521e-08,0.02,0.04,0
0.0024237,0.0026845,0.012494,0.0016599,0.0042462,0.0030524,0,0,0.064333,-0.020173,0,0.047617,0,0,0,0.013295,0.00085911,0.0042462,14.7,0.0061333,0.011135,4.9423e-08,0.04,0.04,0
0.0037353,0.0039443,0.012263,0.0010465,0.0039928,0.0022567,0,0,0.064507,-0.022982,0,0.035205,0,0,0,0.0127,0.00060945,0.0039928,10.96,0.0057674,0.010804,4.3998e-08,0.06,0.04,0
0.005004,0.0050306,0.011642,0.00066288,0.0036913,0.001647,0,0,0.062012,-0.023622,0,0.025693,0,0,0,0.011883,0.00042113,0.0036913,8.3504,0.0053319,0.010227,3.6597e-08,0.08,0.04,0
0.0062157,0.005968,0.011038,0.00043955,0.0034433,0.0012378,0,0,0.059239,-0.023429,0,0.01931,0,0,0,0.011181,0.00029689,0.0034433,6.5739,0.0049736,0.0097011,3.0802e-08,0.1,0.04,0
0.0073736,0.0067762,0.010519,0.00030209,0.0032464,0.0009566,0,0,0.056728,-0.022965,0,0.014923,0,0,0,0.010608,0.0002133,0.0032464,5.3031,0.0046892,0.0092585,2.6502e-08,0.12,0.04,0
0.0084849,0.0074719,0.010089,0.00021527,0.0030913,0.00075885,0,0,0.054583,-0.022433,0,0.011838,0,0,0,0.010147,0.00015729,0.0030913,4.3692,0.0044652,0.0088935,2.3318e-08,0.14,0.04,0
0.0095569,0.0080674,0.0097342,0.00015939,0.0029681,0.00061489,0,0,0.052776,-0.021908,0,0.0095923,0,0,0,0.0097735,0.00012006,0.0029681,3.6595,0.0042872,0.0085911,2.0911e-08,0.16,0.04,0
0.010596,0.0085714,0.0094398,0.0001236,0.002869,0.00050587,0,0,0.051252,-0.021414,0,0.0078916,0,0,0,0.0094672,9.6211e-05,0.002869,3.099,0.0041442,0.0083379,1.905e-08,0.18,0.04,0
0.011607,0.0089902,0.0091945,0.00010169,0.0027888,0.00041906,0,0,0.049964,-0.02096,0,0.0065374,0,0,0,0.0092137,8.2414e-05,0.0027888,2.6332,0.0040283,0.0081236,1.7585e-08,0.2,0.04,0
0.012594,0.0093283,0.0089898,8.9899e-05,0.0027239,0.00034548,0,0,0.048874,-0.020545,0,0.0053895,0,0,0,0.0090032,7.6508e-05,0.0027239,2.2197,0.0039345,0.0079411,1.6414e-08,0.22,0.04,0
0.013562,0.0095886,0.0088202,8.5796e-05,0.0026718,0.00027847,0,0,0.047957,-0.020171,0,0.0043441,0,0,0,0.008829,7.6927e-05,0.0026718,1.8242,0.0038592,0.007786,1.5477e-08,0.24,0.04,0
0.014513,0.0097731,0.0086823,8.757e-05,0.002631,0.00021299,0,0,0.0472,-0.019838,0,0.0033226,0,0,0,0.0086876,8.2295e-05,0.002631,1.4187,0.0038003,0.007656,1.4732e-08,0.26,0.04,0
0.01545,0.0098832,0.0085745,9.3621e-05,0.0026004,0.00014529,0,0,0.046598,-0.019553,0,0.0022666,0,0,0,0.008577,9.1132e-05,0.0026004,0.9812,0.0037562,0.0075507,1.4159e-08,0.28,0.04,0
0.016377,0.0099199,0.0084964,0.00010229,0.0025796,7.2854e-05,0,0,0.046151,-0.019323,0,0.0011365,0,0,0,0.008497,0.00010166,0.0025796,0.49723,0.0037261,0.0074712,1.3746e-08,0.3,0.04,0
0.017296,0.0098846,0.0084484,0.00011172,0.002568,-5.5551e-06,0,0,0.045867,-0.019159,0,-8.6659e-05,0,0,0,0.0084484,0.00011171,0.002568,-0.038178,0.0037094,0.00742,1.3492e-08,0.32,0.04,0
0.018211,0.0097797,0.0084311,0.0001198,0.0025653,-8.9711e-05,0,0,0.045753,-0.019075,0,-0.0013995,0,0,0,0.008432,0.00011883,0.0025653,-0.61835,0.0037054,0.0073998,1.3401e-08,0.34,0.04,0
0.019126,0.0096087,0.0084447,0.00012425,0.0025707,-0.00017781,0,0,0.045817,-0.019082,0,-0.0027739,0,0,0,0.0084485,0.00012045,0.0025707,-1.2237,0.0037132,0.0074131,1.3477e-08,0.36,0.04,0
0.020044,0.0093772,0.008489,0.00012274,0.0025835,-0.00026643,0,0,0.046062,-0.019194,0,-0.0041563,0,0,0,0.0084974,0.00011427,0.0025835,-1.8222,0.0037317,0.0074615,1.3725e-08,0.38,0.04,0
0.020969,0.0090931,0.0085622,0.00011297,0.0026025,-0.00035053,0,0,0.046485,-0.019419,0,-0.0054682,0,0,0,0.0085767,9.8458e-05,0.0026025,-2.3716,0.0037592,0.0075446,1.4144e-08,0.4,0.04,0
0.021903,0.0087674,0.0086613,9.2897e-05,0.0026262,-0.00042359,0,0,0.047073,-0.01976,0,-0.006608,0,0,0,0.0086821,7.2008e-05,0.0026262,-2.8233,0.0037935,0.0076594,1.4724e-08,0.42,0.04,0
0.022852,0.008414,0.008781,6.1199e-05,0.0026526,-0.00047801,0,0,0.047801,-0.020213,0,-0.007457,0,0,0,0.0088071,3.5074e-05,0.0026526,-3.1284,0.0038316,0.0077999,1.5441e-08,0.44,0.04,0
0.023815,0.0080502,0.0089139,1.8616e-05,0.0026798,-0.00050599,0,0,0.048627,-0.020757,0,-0.0078935,0,0,0,0.0089426,-1.0074e-05,0.0026798,-3.2452,0.0038708,0.0079564,1.6254e-08,0.46,0.04,0
0.024797,0.0076955,0.0090507,-3.0637e-05,0.002706,-0.00050154,0,0,0.049489,-0.021346,0,-0.0078241,0,0,0,0.0090783,-5.8252e-05,0.002706,-3.1515,0.0039087,0.0081156,1.7101e-08,0.48,0.04,0
0.025795,0.0073705,0.0091811,-7.8605e-05,0.0027308,-0.00046287,0,0,0.050313,-0.021913,0,-0.0072207,0,0,0,0.0092042,-0.00010168,0.0027308,-2.8546,0.0039444,0.0082622,1.7909e-08,0.5,0.04,0
0.026809,0.0070954,0.0092959,-0.00011652,0.0027538,-0.00039411,0,0,0.051028,-0.022389,0,-0.0061481,0,0,0,0.0093124,-0.000133,0.0027538,-2.3934,0.0039777,0.0083834,1.861e-08,0.52,0.04,0
0.027836,0.0068876,0.0093886,-0.00013965,0.0027747,-0.00030405,0,0,0.051588,-0.022732,0,-0.0047431,0,0,0,0.0093983,-0.00014934,0.0027747,-1.8258,0.0040079,0.0084729,1.9161e-08,0.54,0.04,0
0.028873,0.0067604,0.0094557,-0.00014988,0.0027917,-0.00020248,0,0,0.051979,-0.022945,0,-0.0031587,0,0,0,0.00946,-0.00015415,0.0027917,-1.207,0.0040325,0.0085316,1.9549e-08,0.56,0.04,0
0.029915,0.0067228,0.0094965,-0.00015344,0.0028029,-9.6194e-05,0,0,0.05221,-0.02306,0,-0.0015006,0,0,0,0.0094974,-0.0001544,0.0028029,-0.57107,0.0040486,0.008565,1.9781e-08,0.58,0.04,0
0.030961,0.0067795,0.0095109,-0.00015548,0.0028066,1.2041e-05,0,0,0.052293,-0.023104,0,0.00018784,0,0,0,0.0095109,-0.00015549,0.0028066,0.071372,0.004054,0.0085779,1.9867e-08,0.6,0.04,0
0.032007,0.0069315,0.0094982,-0.00015603,0.0028027,0.00012136,0,0,0.052225,-0.023078,0,0.0018932,0,0,0,0.0094997,-0.00015755,0.0028027,0.72009,0.0040483,0.0085696,1.9802e-08,0.62,0.04,0
0.03305,0.0071762,0.0094572,-0.00014993,0.0027922,0.00022902,0,0,0.051987,-0.022949,0,0.0035726,0,0,0,0.0094627,-0.00015539,0.0027922,1.3648,0.0040332,0.0085349,1.9568e-08,0.64,0.04,0
0.034086,0.0075068,0.0093874,-0.00013088,0.002777,0.00032821,0,0,0.051562,-0.022681,0,0.00512,0,0,0,0.0093987,-0.00014219,0.002777,1.9725,0.0040112,0.0084675,1.9149e-08,0.66,0.04,0
0.035112,0.0079119,0.0092908,-9.6806e-05,0.0027582,0.00040904,0,0,0.050954,-0.022269,0,0.006381,0,0,0,0.0093086,-0.00011459,0.0027582,2.4902,0.0039841,0.0083653,1.8549e-08,0.68,0.04,0
0.036125,0.0083761,0.0091727,-5.2255e-05,0.0027361,0.00046249,0,0,0.050205,-0.02175,0,0.0072148,0,0,0,0.0091959,-7.5384e-05,0.0027361,2.8629,0.0039522,0.0082337,1.7807e-08,0.7,0.04,0
0.037121,0.0088809,0.0090412,-5.8775e-06,0.0027106,0.00048406,0,0,0.049378,-0.021188,0,0.0075514,0,0,0,0.009067,-3.1703e-05,0.0027106,3.054,0.0039153,0.0080842,1.6985e-08,0.72,0.04,0
0.0381,0.0094072,0.0089053,3.4401e-05,0.0026819,0.00047517,0,0,0.048542,-0.02065,0,0.0074126,0,0,0,0.0089307,9.0215e-06,0.0026819,3.0574,0.0038739,0.0079305,1.6152e-08,0.74,0.04,0
0.039062,0.0099369,0.0087736,6.429e-05,0.0026514,0.00044142,0,0,0.047753,-0.020179,0,0.0068862,0,0,0,0.0087959,4.1974e-05,0.0026514,2.8941,0.0038298,0.0077845,1.5369e-08,0.76,0.04,0
0.04001,0.010454,0.0086527,8.2876e-05,0.0026207,0.00039035,0,0,0.04705,-0.019795,0,0.0060894,0,0,0,0.0086704,6.5132e-05,0.0026207,2.6026,0.0037854,0.0076545,1.4677e-08,0.78,0.04,0
0.040944,0.010945,0.0085469,9.1203e-05,0.0025914,0.00032943,0,0,0.046453,-0.019502,0,0.0051391,0,0,0,0.0085597,7.8388e-05,0.0025914,2.2277,0.0037432,0.0075455,1.4096e-08,0.8,0.04,0
0.041868,0.011401,0.0084586,9.0993e-05,0.0025649,0.00026528,0,0,0.045971,-0.019296,0,0.0041384,0,0,0,0.008467,8.2591e-05,0.0025649,1.814,0.0037048,0.0074598,1.3634e-08,0.82,0.04,0
0.042783,0.011815,0.0083884,8.4209e-05,0.0025418,0.00020328,0,0,0.045604,-0.019169,0,0.0031711,0,0,0,0.0083934,7.9236e-05,0.0025418,1.4014,0.0036715,0.007397,1.3286e-08,0.84,0.04,0
0.043692,0.012181,0.0083355,7.2869e-05,0.0025225,0.00014744,0,0,0.045341,-0.019107,0,0.0023001,0,0,0,0.0083381,7.0238e-05,0.0025225,1.022,0.0036436,0.007355,1.304e-08,0.86,0.04,0
0.044597,0.012498,0.008298,5.897e-05,0.0025071,0.00010038,0,0,0.045169,-0.019095,0,0.0015659,0,0,0,0.0082992,5.7747e-05,0.0025071,0.69793,0.0036213,0.0073304,1.2879e-08,0.88,0.04,0
0.045499,0.012764,0.0082732,4.434e-05,0.0024953,6.3339e-05,0,0,0.045068,-0.019117,0,0.00098808,0,0,0,0.0082737,4.3852e-05,0.0024953,0.44098,0.0036043,0.0073188,1.2784e-08,0.9,0.04,0
0.0464,0.01298,0.0082582,3.052e-05,0.0024866,3.6349e-05,0,0,0.045019,-0.019158,0,0.00056705,0,0,0,0.0082584,3.0359e-05,0.0024866,0.25312,0.0035918,0.007316,1.2735e-08,0.92,0.04,0
0.0473,0.013146,0.0082501,1.8702e-05,0.0024807,1.8456e-05,0,0,0.045002,-0.019203,0,0.00028791,0,0,0,0.0082502,1.866e-05,0.0024807,0.12846,0.0035832,0.007318,1.2717e-08,0.94,0.04,0
0.0482,0.013264,0.0082463,9.7306e-06,0.0024768,7.9579e-06,0,0,0.045002,-0.019243,0,0.00012414,0,0,0,0.0082463,9.7229e-06,0.0024768,0.055357,0.0035776,0.0073217,1.2714e-08,0.96,0.04,0
0.0491,0.013335,0.0082449,4.1503e-06,0.0024747,2.6461e-06,0,0,0.045007,-0.01927,0,4.1279e-05,0,0,0,0.0082449,4.1495e-06,0.0024747,0.018398,0.0035746,0.0073249,1.2717e-08,0.98,0.04,0
0.05,0.013358,0.0082445,2.2589e-06,0.002474,7.4854e-05,0,0,0.04501,-0.01928,0,0.0011677,0,0,0,0.0082452,1.5792e-06,0.002474,0.52029,0.0035736,0.0073273,1.2722e-08,1,0.04,0
0,0,0.011857,0.0050814,0.0050814,0.0037074,0,0,0.052846,-4.3368e-19,0,0.057836,0,0,0,0.013491,0.0034469,0.0050814,23.791,0.0073398,0.0093347,3.7496e-08,0,0.06,0
0.0010569,0.0011567,0.011706,0.0038558,0.0046687,0.003543,0,0,0.054894,-0.0063402,0,0.055271,0,0,0,0.013069,0.0024933,0.0046687,21.035,0.0067436,0.0096732,3.8679e-08,0.02,0.06,0
0.0021958,0.002367,0.011797,0.0025637,0.0043081,0.0032423,0,0,0.058411,-0.013606,0,0.050579,0,0,0,0.012821,0.0015389,0.0043081,17.541,0.0062228,0.010184,4.1032e-08,0.04,0.06,0
0.0033933,0.0035285,0.011756,0.0016357,0.0040174,0.0026947,0,0,0.060359,-0.018578,0,0.042037,0,0,0,0.012429,0.00096288,0.0040174,14.019,0.005803,0.010284,3.9701e-08,0.06,0.06,0
0.0046101,0.004581,0.011547,0.0011034,0.0037951,0.0021517,0,0,0.060464,-0.020995,0,0.033567,0,0,0,0.011973,0.00067748,0.0037951,11.197,0.0054818,0.010104,3.6471e-08,0.08,0.06,0
0.0058119,0.0055087,0.011205,0.00076224,0.0035903,0.0017061,0,0,0.059397,-0.022059,0,0.026615,0,0,0,0.011477,0.00049058,0.0035903,9.0472,0.0051859,0.0098109,3.2681e-08,0.1,0.06,0
0.006986,0.0063184,0.010843,0.00054163,0.0034153,0.0013661,0,0,0.057933,-0.022414,0,0.021311,0,0,0,0.011021,0.00036354,0.0034153,7.4275,0.0049331,0.009506,2.9277e-08,0.12,0.06,0
0.0081292,0.0070201,0.010501,0.00039555,0.0032691,0.0011091,0,0,0.056412,-0.022413,0,0.017302,0,0,0,0.010622,0.00027525,0.0032691,6.1902,0.004722,0.0092215,2.6428e-08,0.14,0.06,0
0.0092425,0.0076232,0.010196,0.00029816,0.0031483,0.00091309,0,0,0.054973,-0.022231,0,0.014244,0,0,0,0.01028,0.00021463,0.0031483,5.2267,0.0045476,0.0089657,2.4096e-08,0.16,0.06,0
0.010328,0.0081354,0.0099286,0.00023394,0.0030488,0.0007599,0,0,0.053663,-0.021956,0,0.011855,0,0,0,0.0099878,0.00017474,0.0030488,4.4548,0.0044038,0.008738,2.2187e-08,0.18,0.06,0
0.011389,0.0085624,0.0096958,0.00019347,0.0029668,0.00063577,0,0,0.052486,-0.021632,0,0.009918,0,0,0,0.0097382,0.00015113,0.0029668,3.8108,0.0042854,0.008535,2.061e-08,0.2,0.06,0
0.012428,0.0089084,0.0094939,0.00017077,0.0028994,0.00053006,0,0,0.051437,-0.021283,0,0.008269,0,0,0,0.009524,0.00014073,0.0028994,3.2436,0.004188,0.0083529,1.9296e-08,0.22,0.06,0
0.013447,0.0091762,0.0093195,0.00016179,0.0028444,0.00043451,0,0,0.050506,-0.020924,0,0.0067784,0,0,0,0.0093401,0.00014122,0.0028444,2.7104,0.0041085,0.008189,1.8192e-08,0.24,0.06,0
0.014448,0.0093677,0.0091697,0.00016344,0.0027999,0.00034265,0,0,0.049684,-0.020565,0,0.0053453,0,0,0,0.0091827,0.00015042,0.0027999,2.1757,0.0040444,0.0080418,1.7264e-08,0.26,0.06,0
0.015434,0.0094842,0.0090427,0.0001729,0.0027647,0.00024953,0,0,0.048968,-0.020216,0,0.0038926,0,0,0,0.0090497,0.00016589,0.0027647,1.6102,0.0039934,0.0079113,1.6488e-08,0.28,0.06,0
0.016407,0.0095264,0.0089374,0.00018721,0.0027374,0.00015175,0,0,0.04836,-0.019891,0,0.0023673,0,0,0,0.0089401,0.00018458,0.0027374,0.99324,0.003954,0.007799,1.5854e-08,0.3,0.06,0
0.017368,0.0094957,0.0088535,0.00020299,0.0027169,4.7598e-05,0,0,0.047865,-0.019609,0,0.00074252,0,0,0,0.0088537,0.00020273,0.0027169,0.31525,0.0039245,0.0077078,1.536e-08,0.32,0.06,0
0.018321,0.0093938,0.0087904,0.00021639,0.0027021,-6.274e-05,0,0,0.047489,-0.019388,0,-0.00097875,0,0,0,0.0087909,0.00021593,0.0027021,-0.41923,0.003903,0.0076415,1.5006e-08,0.34,0.06,0
0.019268,0.0092242,0.0087481,0.00022332,0.0026914,-0.00017701,0,0,0.047242,-0.019251,0,-0.0027614,0,0,0,0.0087517,0.00021964,0.0026914,-1.189,0.0038876,0.0076037,1.4797e-08,0.36,0.06,0
0.020211,0.0089919,0.0087255,0.00021967,0.0026835,-0.00029095,0,0,0.047127,-0.019218,0,-0.0045388,0,0,0,0.0087355,0.00020973,0.0026835,-1.9568,0.0038762,0.0075971,1.4733e-08,0.38,0.06,0
0.021153,0.0087048,0.0087216,0.00020176,0.002677,-0.00039843,0,0,0.047148,-0.019307,0,-0.0062156,0,0,0,0.0087402,0.00018316,0.002677,-2.6717,0.0038668,0.0076225,1.4809e-08,0.4,0.06,0
0.022097,0.0083737,0.0087346,0.00016617,0.0026702,-0.00049185,0,0,0.047302,-0.019532,0,-0.0076728,0,0,0,0.0087627,0.00013803,0.0026702,-3.2746,0.003857,0.0076784,1.5012e-08,0.42,0.06,0
0.023045,0.0080124,0.0087617,0.00011048,0.0026616,-0.00056205,0,0,0.04758,-0.019899,0,-0.008768,0,0,0,0.008798,7.4117e-05,0.0026616,-3.7016,0.0038446,0.0077607,1.5319e-08,0.44,0.06,0
0.024,0.0076385,0.0087984,3.4739e-05,0.0026499,-0.00059919,0,0,0.047958,-0.020399,0,-0.0093474,0,0,0,0.0088392,-6.0396e-06,0.0026499,-3.8933,0.0038277,0.0078613,1.5689e-08,0.46,0.06,0
0.024963,0.0072725,0.0088386,-5.4275e-05,0.0026353,-0.00059453,0,0,0.048385,-0.020979,0,-0.0092747,0,0,0,0.0088781,-9.3846e-05,0.0026353,-3.8079,0.0038065,0.0079661,1.6064e-08,0.48,0.06,0
0.025935,0.0069366,0.0088748,-0.00014125,0.0026201,-0.00054532,0,0,0.048787,-0.021538,0,-0.0085071,0,0,0,0.0089076,-0.00017411,0.0026201,-3.4487,0.0037845,0.0080567,1.6374e-08,0.5,0.06,0
0.026915,0.0066528,0.0089017,-0.00020736,0.0026083,-0.00045806,0,0,0.049089,-0.021962,0,-0.0071457,0,0,0,0.0089247,-0.00023033,0.0026083,-2.8715,0.0037676,0.008117,1.6572e-08,0.52,0.06,0
0.027899,0.0064392,0.0089182,-0.00024258,0.0026027,-0.00034778,0,0,0.049261,-0.022193,0,-0.0054253,0,0,0,0.0089314,-0.00025576,0.0026027,-2.171,0.0037594,0.0081433,1.6656e-08,0.54,0.06,0
0.028885,0.0063089,0.0089271,-0.00025291,0.0026022,-0.00022982,0,0,0.049334,-0.02227,0,-0.0035852,0,0,0,0.0089328,-0.00025866,0.0026022,-1.4332,0.0037588,0.0081469,1.6669e-08,0.56,0.06,0
0.029872,0.0062697,0.008934,-0.00025377,0.0026041,-0.00011265,0,0,0.049373,-0.022291,0,-0.0017573,0,0,0,0.0089353,-0.00025515,0.0026041,-0.70235,0.0037614,0.0081463,1.6676e-08,0.58,0.06,0
0.03086,0.0063255,0.008943,-0.00025755,0.0026057,4.4092e-06,0,0,0.049432,-0.022333,0,6.8784e-05,0,0,0,0.008943,-0.00025756,0.0026057,0.027458,0.0037637,0.0081551,1.6724e-08,0.6,0.06,0
0.03185,0.0064774,0.0089538,-0.00026434,0.0026068,0.00012578,0,0,0.049506,-0.022395,0,0.0019622,0,0,0,0.0089555,-0.00026606,0.0026068,0.78159,0.0037654,0.008173,1.6808e-08,0.62,0.06,0
0.03284,0.0067237,0.0089608,-0.00026183,0.0026097,0.00025223,0,0,0.049539,-0.022398,0,0.0039348,0,0,0,0.0089677,-0.00026872,0.0026097,1.5654,0.0037696,0.008186,1.6882e-08,0.64,0.06,0
0.033831,0.0070586,0.0089575,-0.00023438,0.0026169,0.00037536,0,0,0.049456,-0.02224,0,0.0058556,0,0,0,0.0089728,-0.00024968,0.0026169,2.3346,0.00378,0.0081752,1.6875e-08,0.66,0.06,0
0.034819,0.0074714,0.0089395,-0.00017562,0.0026292,0.00047973,0,0,0.049221,-0.021877,0,0.0074838,0,0,0,0.0089647,-0.0002008,0.0026292,3.0044,0.0037977,0.0081288,1.6739e-08,0.68,0.06,0
0.0358,0.0079455,0.008907,-9.5199e-05,0.0026436,0.00054999,0,0,0.048855,-0.021362,0,0.0085799,0,0,0,0.0089405,-0.00012868,0.0026436,3.4832,0.0038185,0.0080494,1.647e-08,0.7,0.06,0
0.036773,0.0084612,0.0088642,-1.1727e-05,0.0026557,0.00057916,0,0,0.048426,-0.020806,0,0.0090349,0,0,0,0.0089018,-4.9358e-05,0.0026557,3.7176,0.0038361,0.0079516,1.6108e-08,0.72,0.06,0
0.037737,0.0089976,0.0088172,5.9523e-05,0.002663,0.00056945,0,0,0.048003,-0.020307,0,0.0088834,0,0,0,0.0088541,2.2651e-05,0.002663,3.7047,0.0038466,0.0078516,1.5714e-08,0.74,0.06,0
0.038693,0.0095356,0.0087716,0.00011163,0.002665,0.0005291,0,0,0.047632,-0.019916,0,0.0082539,0,0,0,0.0088038,7.9424e-05,0.002665,3.4833,0.0038494,0.0077616,1.5339e-08,0.76,0.06,0
0.039642,0.010059,0.0087309,0.00014421,0.0026626,0.00046757,0,0,0.047334,-0.019643,0,0.0072942,0,0,0,0.0087563,0.00011883,0.0026626,3.1077,0.0038459,0.007688,1.5016e-08,0.78,0.06,0
0.040586,0.010555,0.0086973,0.00015918,0.0026569,0.00039389,0,0,0.047114,-0.019482,0,0.0061446,0,0,0,0.0087154,0.00014105,0.0026569,2.6358,0.0038378,0.0076339,1.4763e-08,0.8,0.06,0
0.041527,0.011014,0.0086715,0.00015931,0.0026493,0.00031585,0,0,0.046974,-0.019422,0,0.0049272,0,0,0,0.0086832,0.00014761,0.0026493,2.1221,0.0038267,0.0076001,1.4587e-08,0.82,0.06,0
0.042465,0.011428,0.008654,0.00014765,0.0026405,0.00024011,0,0,0.046905,-0.019444,0,0.0037457,0,0,0,0.0086608,0.00014087,0.0026405,1.6156,0.003814,0.0075855,1.4486e-08,0.84,0.06,0
0.043403,0.011794,0.0086443,0.00012769,0.0026316,0.00017184,0,0,0.046899,-0.01953,0,0.0026806,0,0,0,0.0086477,0.00012423,0.0026316,1.1554,0.0038012,0.0075872,1.4452e-08,0.86,0.06,0
0.044341,0.01211,0.0086411,0.00010303,0.0026232,0.00011449,0,0,0.046939,-0.019658,0,0.0017861,0,0,0,0.0086426,0.00010149,0.0026232,0.76814,0.0037891,0.0076008,1.4468e-08,0.88,0.06,0
0.045281,0.012375,0.0086429,7.6992e-05,0.002616,6.9763e-05,0,0,0.04701,-0.019804,0,0.0010883,0,0,0,0.0086434,7.6424e-05,0.002616,0.46659,0.0037786,0.0076215,1.4519e-08,0.9,0.06,0
0.046222,0.012589,0.0086476,5.2388e-05,0.00261,3.7731e-05,0,0,0.047093,-0.019949,0,0.0005886,0,0,0,0.0086477,5.2222e-05,0.00261,0.25151,0.00377,0.0076446,1.4585e-08,0.92,0.06,0
0.047164,0.012753,0.0086535,3.1357e-05,0.0026054,1.719e-05,0,0,0.047174,-0.020078,0,0.00026816,0,0,0,0.0086535,3.1323e-05,0.0026054,0.11423,0.0037634,0.0076664,1.4653e-08,0.94,0.06,0
0.048109,0.01287,0.0086588,1.5405e-05,0.0026023,5.983e-06,0,0,0.047241,-0.020178,0,9.3335e-05,0,0,0,0.0086588,1.54e-05,0.0026023,0.03966,0.0037588,0.0076838,1.471e-08,0.96,0.06,0
0.049054,0.012939,0.0086626,5.4874e-06,0.0026004,1.313e-06,0,0,0.047285,-0.020241,0,2.0482e-05,0,0,0,0.0086626,5.4872e-06,0.0026004,0.0086896,0.0037562,0.0076951,1.4747e-08,0.98,0.06,0
0.05,0.012963,0.0086639,2.127e-06,0.0025998,7.3914e-05,0,0,0.0473,-0.020262,0,0.0011531,0,0,0,0.0086645,1.4964e-06,0.0025998,0.48888,0.0037553,0.0077,1.4764e-08,1,0.06,0
0,0,0.011284,0.0048359,0.0048359,0.0033782,0,0,0.050293,-1.0842e-18,0,0.052699,0,0,0,0.012729,0.0033902,0.0048359,23.169,0.0069852,0.008707,3.0775e-08,0,0.08,0
0.0010059,0.001054,0.0112,0.0039639,0.0045492,0.0033049,0,0,0.051877,-0.0045653,0,0.051556,0,0,0,0.012482,0.0026817,0.0045492,21.205,0.0065711,0.0090131,3.223e-08,0.02,0.08,0
0.0020751,0.0021402,0.011352,0.0030171,0.0043107,0.0031454,0,0,0.054922,-0.01009,0,0.049068,0,0,0,0.012406,0.0019634,0.0043107,18.522,0.0062266,0.009489,3.4994e-08,0.04,0.08,0
0.0032027,0.0032012,0.011424,0.0021748,0.0040797,0.00281,0,0,0.057287,-0.014859,0,0.043837,0,0,0,0.012211,0.001388,0.0040797,15.642,0.0058929,0.0097596,3.5783e-08,0.06,0.08,0
0.0043666,0.0041908,0.01138,0.0015503,0.003879,0.0023987,0,0,0.058506,-0.018164,0,0.037421,0,0,0,0.011934,0.00099614,0.003879,13.008,0.005603,0.009819,3.4863e-08,0.08,0.08,0
0.005543,0.0050856,0.011231,0.0011211,0.0037057,0.0020052,0,0,0.0587,-0.02016,0,0.031281,0,0,0,0.011614,0.00073793,0.0037057,10.818,0.0053527,0.009738,3.2999e-08,0.1,0.08,0
0.0067145,0.0058796,0.011017,0.00082325,0.0035522,0.0016678,0,0,0.058228,-0.021286,0,0.026017,0,0,0,0.011283,0.00055734,0.0035522,9.0591,0.0051309,0.009586,3.0801e-08,0.12,0.08,0
0.0078721,0.0065754,0.010781,0.00061665,0.0034192,0.0013922,0,0,0.05742,-0.02186,0,0.021718,0,0,0,0.010968,0.00042941,0.0034192,7.6598,0.0049389,0.0094071,2.8647e-08,0.14,0.08,0
0.0090114,0.0071781,0.010546,0.00047364,0.0033058,0.00117,0,0,0.056471,-0.022091,0,0.018252,0,0,0,0.01068,0.00033952,0.0033058,6.5395,0.004775,0.0092221,2.668e-08,0.16,0.08,0
0.010131,0.0076931,0.010323,0.0003764,0.0032099,0.00098967,0,0,0.055484,-0.022101,0,0.015439,0,0,0,0.010421,0.00027889,0.0032099,5.6272,0.0046365,0.0090401,2.4932e-08,0.18,0.08,0
0.011231,0.0081249,0.010118,0.00031325,0.0031294,0.00084008,0,0,0.054511,-0.021966,0,0.013105,0,0,0,0.01019,0.00024179,0.0031294,4.8619,0.0045202,0.008864,2.3391e-08,0.2,0.08,0
0.012311,0.008477,0.0099306,0.00027638,0.0030621,0.00071138,0,0,0.053574,-0.021729,0,0.011098,0,0,0,0.0099827,0.00022424,0.0030621,4.1917,0.004423,0.0086941,2.2028e-08,0.22,0.08,0
0.013374,0.0087517,0.0097599,0.00026025,0.0030061,0.00059522,0,0,0.05268,-0.021417,0,0.0092854,0,0,0,0.0097971,0.0002231,0.0030061,3.5713,0.0043421,0.0085301,2.0814e-08,0.24,0.08,0
0.014419,0.0089506,0.0096046,0.00026046,0.0029595,0.00048465,0,0,0.051832,-0.021053,0,0.0075605,0,0,0,0.0096297,0.00023539,0.0029595,2.9611,0.0042749,0.0083716,1.9728e-08,0.26,0.08,0
0.015447,0.0090745,0.0094633,0.00027289,0.0029209,0.00037411,0,0,0.051031,-0.020654,0,0.0058361,0,0,0,0.0094785,0.00025768,0.0029209,2.3272,0.004219,0.0082195,1.8753e-08,0.28,0.08,0
0.01646,0.0091242,0.0093349,0.00029305,0.0028884,0.00025958,0,0,0.050283,-0.020244,0,0.0040495,0,0,0,0.0093424,0.00028561,0.0028884,1.6431,0.0041721,0.0080763,1.7886e-08,0.3,0.08,0
0.017458,0.0091003,0.0092188,0.00031572,0.0028604,0.00013891,0,0,0.049596,-0.019848,0,0.0021669,0,0,0,0.009221,0.00031355,0.0028604,0.89365,0.0041316,0.0079463,1.7128e-08,0.32,0.08,0
0.018444,0.0090042,0.0091145,0.00033481,0.0028348,1.2154e-05,0,0,0.048982,-0.0195,0,0.0001896,0,0,0,0.0091145,0.0003348,0.0028348,0.079317,0.0040947,0.0078348,1.6488e-08,0.34,0.08,0
0.019418,0.0088387,0.0090214,0.00034378,0.0028096,-0.0001181,0,0,0.048452,-0.019233,0,-0.0018424,0,0,0,0.009023,0.00034218,0.0028096,-0.77962,0.0040582,0.0077476,1.5973e-08,0.36,0.08,0
0.020382,0.0086084,0.0089385,0.00033643,0.0027825,-0.00024687,0,0,0.048017,-0.019079,0,-0.0038512,0,0,0,0.0089455,0.00032935,0.0027825,-1.6425,0.0040191,0.0076889,1.5586e-08,0.38,0.08,0
0.021338,0.0083208,0.0088642,0.0003075,0.0027515,-0.00036741,0,0,0.047679,-0.019063,0,-0.0057315,0,0,0,0.00888,0.00029175,0.0027515,-2.4541,0.0039744,0.0076605,1.5318e-08,0.4,0.08,0
0.022289,0.0079861,0.008798,0.00025348,0.0027154,-0.0004718,0,0,0.047444,-0.019203,0,-0.00736,0,0,0,0.0088239,0.00022751,0.0027154,-3.1509,0.0039223,0.0076616,1.5155e-08,0.42,0.08,0
0.023236,0.0076181,0.0087385,0.00017023,0.0026726,-0.00055146,0,0,0.047314,-0.019519,0,-0.0086028,0,0,0,0.0087738,0.00013488,0.0026726,-3.6674,0.0038604,0.0076908,1.5076e-08,0.44,0.08,0
0.024182,0.0072343,0.0086847,5.617e-05,0.0026223,-0.00059508,0,0,0.047287,-0.020015,0,-0.0092833,0,0,0,0.0087256,1.5323e-05,0.0026223,-3.9267,0.0037877,0.0077432,1.5052e-08,0.46,0.08,0
0.025128,0.0068563,0.0086318,-8.2919e-05,0.0025646,-0.00059136,0,0,0.047323,-0.020651,0,-0.0092251,0,0,0,0.0086717,-0.00012286,0.0025646,-3.8643,0.0037045,0.0078059,1.5025e-08,0.48,0.08,0
0.026074,0.006509,0.0085744,-0.00022085,0.0025061,-0.00053344,0,0,0.047333,-0.02127,0,-0.0083216,0,0,0,0.0086066,-0.00025309,0.0025061,-3.4581,0.0036199,0.0078525,1.4915e-08,0.5,0.08,0
0.027021,0.0062169,0.0085107,-0.00031915,0.0024575,-0.00043247,0,0,0.047215,-0.021658,0,-0.0067465,0,0,0,0.0085319,-0.00034028,0.0024575,-2.7973,0.0035497,0.0078562,1.4677e-08,0.52,0.08,0
0.027963,0.0059999,0.0084452,-0.00035787,0.0024262,-0.00031323,0,0,0.046948,-0.021716,0,-0.0048864,0,0,0,0.0084563,-0.000369,0.0024262,-2.0353,0.0035045,0.0078122,1.4341e-08,0.54,0.08,0
0.028899,0.0058696,0.0083895,-0.00035311,0.0024109,-0.00020174,0,0,0.046633,-0.021559,0,-0.0031472,0,0,0,0.0083941,-0.00035776,0.0024109,-1.3212,0.0034824,0.0077479,1.4013e-08,0.56,0.08,0
0.029828,0.0058312,0.0083583,-0.00034106,0.0024052,-0.00010601,0,0,0.046434,-0.021421,0,-0.0016538,0,0,0,0.0083596,-0.00034235,0.0024052,-0.69808,0.0034741,0.0077048,1.3819e-08,0.58,0.08,0
0.030756,0.0058861,0.0083631,-0.00034705,0.0024048,-1.6621e-05,0,0,0.046475,-0.021465,0,-0.00025929,0,0,0,0.0083632,-0.00034709,0.0024048,-0.10933,0.0034736,0.0077118,1.3844e-08,0.6,0.08,0
0.031687,0.0060357,0.0084037,-0.00037134,0.0024097,8.4179e-05,0,0,0.046753,-0.021692,0,0.0013132,0,0,0,0.0084045,-0.00037214,0.0024097,0.54958,0.0034807,0.0077687,1.4087e-08,0.62,0.08,0
0.032626,0.0062803,0.0084674,-0.00038882,0.0024236,0.00020608,0,0,0.047142,-0.021937,0,0.0032148,0,0,0,0.0084721,-0.00039362,0.0024236,1.3323,0.0035007,0.0078461,1.4459e-08,0.64,0.08,0
0.033573,0.0066171,0.0085385,-0.00036297,0.0024526,0.00034133,0,0,0.047469,-0.021962,0,0.0053248,0,0,0,0.0085515,-0.00037604,0.0024526,2.1927,0.0035427,0.0079025,1.4835e-08,0.66,0.08,0
0.034525,0.0070368,0.0086042,-0.00027689,0.0024982,0.00046392,0,0,0.047627,-0.021646,0,0.0072371,0,0,0,0.0086283,-0.00030105,0.0024982,2.9821,0.0036085,0.0079104,1.5108e-08,0.68,0.08,0
0.035478,0.0075216,0.0086588,-0.0001498,0.0025527,0.00054861,0,0,0.047628,-0.02108,0,0.0085584,0,0,0,0.0086928,-0.00018384,0.0025527,3.5502,0.0036872,0.0078735,1.5243e-08,0.7,0.08,0
0.03643,0.0080486,0.0087031,-1.991e-05,0.0026049,0.00058364,0,0,0.047565,-0.020474,0,0.0091048,0,0,0,0.0087419,-5.8787e-05,0.0026049,3.811,0.0037627,0.007817,1.5275e-08,0.72,0.08,0
0.037381,0.008595,0.0087412,8.6631e-05,0.0026484,0.00057514,0,0,0.047524,-0.019981,0,0.0089722,0,0,0,0.0087793,4.8576e-05,0.0026484,3.7854,0.0038254,0.0077644,1.5269e-08,0.74,0.08,0
0.038331,0.0091403,0.0087774,0.00016383,0.0026824,0.00053378,0,0,0.047541,-0.019645,0,0.008327,0,0,0,0.0088104,0.00013088,0.0026824,3.5326,0.0038745,0.0077265,1.5274e-08,0.76,0.08,0
0.039282,0.0096682,0.0088121,0.00021275,0.0027075,0.00047037,0,0,0.047616,-0.019459,0,0.0073378,0,0,0,0.0088378,0.0001871,0.0027075,3.1216,0.0039108,0.007706,1.5307e-08,0.78,0.08,0
0.040236,0.010166,0.0088458,0.00023663,0.0027247,0.00039332,0,0,0.047744,-0.019407,0,0.0061358,0,0,0,0.0088637,0.0002187,0.0027247,2.6104,0.0039357,0.007704,1.538e-08,0.8,0.08,0
0.041192,0.010625,0.0088786,0.00023791,0.0027349,0.00031082,0,0,0.04792,-0.019477,0,0.0048488,0,0,0,0.0088898,0.00022675,0.0027349,2.0575,0.0039505,0.0077208,1.5501e-08,0.82,0.08,0
0.042153,0.011037,0.0089113,0.00022077,0.0027396,0.00023038,0,0,0.048139,-0.019647,0,0.0035939,0,0,0,0.0089174,0.00021467,0.0027396,1.5174,0.0039572,0.007755,1.5672e-08,0.84,0.08,0
0.043118,0.0114,0.0089439,0.00019045,0.0027403,0.0001582,0,0,0.048388,-0.019889,0,0.002468,0,0,0,0.0089468,0.00018759,0.0027403,1.0351,0.0039582,0.0078026,1.5884e-08,0.86,0.08,0
0.044088,0.011711,0.0089757,0.00015267,0.0027385,9.8453e-05,0,0,0.04865,-0.020169,0,0.0015359,0,0,0,0.0089768,0.00015157,0.0027385,0.63924,0.0039556,0.0078579,1.6119e-08,0.88,0.08,0
0.045064,0.011972,0.0090053,0.00011276,0.0027354,5.3103e-05,0,0,0.048905,-0.020457,0,0.0008284,0,0,0,0.0090057,0.00011244,0.0027354,0.34213,0.0039512,0.0079147,1.6356e-08,0.9,0.08,0
0.046044,0.012182,0.0090316,7.5109e-05,0.002732,2.218e-05,0,0,0.049137,-0.020724,0,0.00034601,0,0,0,0.0090317,7.5054e-05,0.002732,0.14189,0.0039462,0.0079676,1.6574e-08,0.92,0.08,0
0.047029,0.012343,0.0090532,4.2997e-05,0.0027289,4.2202e-06,0,0,0.04933,-0.02095,0,6.5835e-05,0,0,0,0.0090532,4.2995e-05,0.0027289,0.026836,0.0039417,0.0080123,1.6758e-08,0.94,0.08,0
0.048017,0.012457,0.0090693,1.8687e-05,0.0027264,-3.2845e-06,0,0,0.049475,-0.02112,0,-5.1238e-05,0,0,0,0.0090693,1.8686e-05,0.0027264,-0.020793,0.0039381,0.008046,1.6897e-08,0.96,0.08,0
0.049008,0.012525,0.0090792,3.5951e-06,0.0027248,-3.5061e-06,0,0,0.049564,-0.021226,0,-5.4696e-05,0,0,0,0.0090792,3.5937e-06,0.0027248,-0.022135,0.0039359,0.0080669,1.6983e-08,0.98,0.08,0
0.05,0.012547,0.0090825,-1.5153e-06,0.0027243,7.2104e-05,0,0,0.049594,-0.021261,0,0.0011248,0,0,0,0.0090831,-2.0876e-06,0.0027243,0.45474,0.0039351,0.0080749,1.7016e-08,1,0.08,0
0,0,0.010982,0.0047067,0.0047067,0.0031221,0,0,0.048949,2.1684e-19,0,0.048705,0,0,0,0.012271,0.003418,0.0047067,22.428,0.0067985,0.008284,2.6831e-08,0,0.1,0
0.00097899,0.0009741,0.010925,0.0040046,0.004479,0.0030825,0,0,0.050281,-0.0037003,0,0.048086,0,0,0,0.012099,0.0028307,0.004479,20.847,0.0064696,0.0085641,2.8274e-08,0.02,0.1,0
0.0020113,0.0019633,0.011093,0.003265,0.0043075,0.0029873,0,0,0.05293,-0.0081316,0,0.046602,0,0,0,0.012103,0.0022553,0.0043075,18.675,0.006222,0.008999,3.0967e-08,0.04,0.1,0
0.0030962,0.0029342,0.011214,0.0025406,0.0041263,0.0027699,0,0,0.055282,-0.012368,0,0.04321,0,0,0,0.012023,0.0017315,0.0041263,16.284,0.0059603,0.0093275,3.26e-08,0.06,0.1,0
0.0042226,0.0038544,0.011259,0.0019308,0.0039568,0.0024749,0,0,0.056954,-0.015803,0,0.038608,0,0,0,0.011875,0.0013148,0.0039568,13.976,0.0057154,0.0095179,3.305e-08,0.08,0.1,0
0.0053744,0.0047022,0.011222,0.0014592,0.0038045,0.0021579,0,0,0.05786,-0.018293,0,0.033663,0,0,0,0.011678,0.0010035,0.0038045,11.924,0.0054953,0.009586,3.2559e-08,0.1,0.1,0
0.0065369,0.005467,0.011121,0.0011089,0.003669,0.001859,0,0,0.058126,-0.019969,0,0.029,0,0,0,0.011455,0.00077487,0.003669,10.186,0.0052996,0.0095673,3.149e-08,0.12,0.1,0
0.0076994,0.0061457,0.010978,0.00085257,0.0035493,0.0015958,0,0,0.057946,-0.021034,0,0.024894,0,0,0,0.011224,0.00060704,0.0035493,8.7473,0.0051267,0.009494,3.014e-08,0.14,0.1,0
0.0088548,0.0067396,0.010815,0.00066791,0.0034449,0.0013715,0,0,0.057488,-0.021661,0,0.021396,0,0,0,0.010997,0.00048579,0.0034449,7.5635,0.004976,0.0093885,2.8702e-08,0.16,0.1,0
0.0099989,0.0072514,0.010645,0.00053809,0.0033551,0.0011822,0,0,0.056865,-0.021972,0,0.018442,0,0,0,0.010782,0.00040165,0.0033551,6.5832,0.0048462,0.0092636,2.7276e-08,0.18,0.1,0
0.011129,0.0076838,0.010477,0.0004511,0.0032783,0.001021,0,0,0.056147,-0.022052,0,0.015927,0,0,0,0.01058,0.00034818,0.0032783,5.7561,0.0047354,0.0091262,2.5902e-08,0.2,0.1,0
0.012245,0.0080392,0.010312,0.00039833,0.0032132,0.00088042,0,0,0.055373,-0.021956,0,0.013735,0,0,0,0.01039,0.00032075,0.0032132,5.0357,0.0046413,0.0089794,2.4593e-08,0.22,0.1,0
0.013344,0.0083195,0.010154,0.00037331,0.0031581,0.0007533,0,0,0.054565,-0.021721,0,0.011751,0,0,0,0.010211,0.00031563,0.0031581,4.3786,0.0045616,0.0088247,2.3345e-08,0.24,0.1,0
0.014427,0.0085256,0.01,0.00037067,0.0031112,0.00063303,0,0,0.053733,-0.021376,0,0.0098753,0,0,0,0.010042,0.00032923,0.0031112,3.7451,0.004494,0.0086631,2.2151e-08,0.26,0.1,0
0.015494,0.008658,0.0098511,0.00038519,0.0030709,0.00051395,0,0,0.052886,-0.020948,0,0.0080176,0,0,0,0.0098789,0.00035736,0.0030709,3.0987,0.0044357,0.0084963,2.1008e-08,0.28,0.1,0
0.016543,0.0087167,0.009706,0.00041092,0.0030351,0.00039161,0,0,0.052033,-0.020468,0,0.0061092,0,0,0,0.0097224,0.00039445,0.0030351,2.4083,0.004384,0.0083278,1.992e-08,0.3,0.1,0
0.017575,0.0087017,0.0095642,0.00044064,0.0030015,0.00026339,0,0,0.051189,-0.019974,0,0.0041089,0,0,0,0.0095718,0.00043305,0.0030015,1.6523,0.0043354,0.0081634,1.89e-08,0.32,0.1,0
0.01859,0.0086138,0.0094255,0.00046556,0.0029673,0.00012913,0,0,0.050374,-0.019514,0,0.0020144,0,0,0,0.0094274,0.0004637,0.0029673,0.82549,0.0042861,0.0080109,1.797e-08,0.34,0.1,0
0.01959,0.0084548,0.0092896,0.000476,0.0029297,-8.2076e-06,0,0,0.049607,-0.019139,0,-0.00012804,0,0,0,0.0092896,0.00047599,0.0029297,-0.053356,0.0042318,0.0078787,1.715e-08,0.36,0.1,0
0.020575,0.0082287,0.0091547,0.00046265,0.0028852,-0.00014256,0,0,0.048902,-0.018896,0,-0.002224,0,0,0,0.0091571,0.00046031,0.0028852,-0.93941,0.0041675,0.0077733,1.6446e-08,0.38,0.1,0
0.021546,0.0079423,0.0090184,0.00041919,0.0028313,-0.00026565,0,0,0.04826,-0.018814,0,-0.0041441,0,0,0,0.0090266,0.00041099,0.0028313,-1.7677,0.0040896,0.0076964,1.5846e-08,0.4,0.1,0
0.022505,0.0076055,0.0088767,0.00034171,0.0027655,-0.00036965,0,0,0.047667,-0.018906,0,-0.0057666,0,0,0,0.0088927,0.00032573,0.0027655,-2.4753,0.0039946,0.0076449,1.5315e-08,0.42,0.1,0
0.023453,0.0072317,0.0087319,0.00023201,0.0026892,-0.0004473,0,0,0.047133,-0.019166,0,-0.0069779,0,0,0,0.0087553,0.00020853,0.0026892,-3.0041,0.0038843,0.0076158,1.4838e-08,0.44,0.1,0
0.02439,0.0068379,0.0085825,7.9772e-05,0.0025987,-0.00049256,0,0,0.046673,-0.019647,0,-0.0076839,0,0,0,0.0086109,5.1333e-05,0.0025987,-3.3044,0.0037536,0.0076126,1.4401e-08,0.46,0.1,0
0.02532,0.0064464,0.0084288,-0.00011433,0.0024943,-0.00048686,0,0,0.046289,-0.020348,0,-0.007595,0,0,0,0.0084564,-0.00014198,0.0024943,-3.2512,0.0036029,0.0076298,1.3971e-08,0.48,0.1,0
0.026242,0.0060859,0.0082625,-0.00031908,0.002383,-0.00042049,0,0,0.04586,-0.021077,0,-0.0065597,0,0,0,0.0082831,-0.00033964,0.002383,-2.7985,0.0034422,0.0076346,1.3444e-08,0.5,0.1,0
0.027154,0.0057865,0.0080888,-0.00045121,0.0022913,-0.0003021,0,0,0.045221,-0.021392,0,-0.0047127,0,0,0,0.0080995,-0.00046188,0.0022913,-2.0234,0.0033096,0.0075701,1.2755e-08,0.52,0.1,0
0.028051,0.0055705,0.0079232,-0.00046584,0.0022372,-0.00018416,0,0,0.044351,-0.021084,0,-0.0028729,0,0,0,0.0079273,-0.00046988,0.0022372,-1.257,0.0032315,0.0074235,1.1983e-08,0.54,0.1,0
0.028928,0.0054465,0.0077837,-0.00041552,0.0022105,-0.00010525,0,0,0.043471,-0.020483,0,-0.001642,0,0,0,0.007785,-0.00041687,0.0022105,-0.73535,0.0031929,0.0072543,1.1292e-08,0.56,0.1,0
0.02979,0.0054129,0.0077037,-0.0003712,0.0021997,-7.2628e-05,0,0,0.042931,-0.020053,0,-0.001133,0,0,0,0.0077043,-0.00037185,0.0021997,-0.51528,0.0031774,0.0071463,1.0892e-08,0.58,0.1,0
0.030645,0.0054669,0.0077052,-0.00037963,0.0021977,-5.6589e-05,0,0,0.042959,-0.020103,0,-0.00088279,0,0,0,0.0077056,-0.00038002,0.0021977,-0.40101,0.0031744,0.007154,1.0907e-08,0.6,0.1,0
0.031508,0.0056097,0.007788,-0.00044144,0.002204,-1.8453e-05,0,0,0.043555,-0.020634,0,-0.00028786,0,0,0,0.007788,-0.00044148,0.002204,-0.12847,0.0031835,0.0072768,1.1336e-08,0.62,0.1,0
0.032387,0.0058462,0.0079294,-0.00051057,0.0022257,7.2136e-05,0,0,0.044489,-0.021343,0,0.0011253,0,0,0,0.00793,-0.00051119,0.0022257,0.48966,0.0032148,0.0074594,1.205e-08,0.64,0.1,0
0.033288,0.0061802,0.0080951,-0.00051546,0.0022739,0.00020868,0,0,0.045406,-0.021757,0,0.0032555,0,0,0,0.0081002,-0.00052052,0.0022739,1.3875,0.0032845,0.0076181,1.284e-08,0.66,0.1,0
0.034204,0.0066056,0.0082659,-0.00040185,0.0023592,0.00035278,0,0,0.046072,-0.021536,0,0.0055033,0,0,0,0.0082802,-0.00041619,0.0023592,2.3268,0.0034077,0.0076938,1.3546e-08,0.68,0.1,0
0.03513,0.0071024,0.0084249,-0.00021328,0.0024635,0.00045125,0,0,0.046499,-0.020879,0,0.0070395,0,0,0,0.0084484,-0.00023679,0.0024635,2.9823,0.0035584,0.0076988,1.4089e-08,0.7,0.1,0
0.036064,0.0076422,0.0085658,-3.2953e-05,0.0025598,0.00049454,0,0,0.046846,-0.020224,0,0.0077149,0,0,0,0.0085941,-6.1303e-05,0.0025598,3.2809,0.0036975,0.0076876,1.4519e-08,0.72,0.1,0
0.037004,0.0081983,0.008696,0.00010794,0.0026412,0.00049152,0,0,0.047227,-0.019759,0,0.0076678,0,0,0,0.008724,7.9898e-05,0.0026412,3.265,0.003815,0.0076903,1.4924e-08,0.74,0.1,0
0.037953,0.0087499,0.0088146,0.00020856,0.002707,0.00045991,0,0,0.04764,-0.019487,0,0.0071747,0,0,0,0.0088391,0.00018405,0.002707,3.0504,0.00391,0.0077097,1.532e-08,0.76,0.1,0
0.03891,0.0092808,0.0089227,0.00027843,0.0027603,0.00040507,0,0,0.048066,-0.019359,0,0.006319,0,0,0,0.0089416,0.00025949,0.0027603,2.677,0.0039871,0.0077408,1.571e-08,0.78,0.1,0
0.039875,0.0097787,0.0090175,0.00031436,0.0027996,0.00033396,0,0,0.0485,-0.019384,0,0.0052099,0,0,0,0.0090303,0.00030156,0.0027996,2.1943,0.0040438,0.0077863,1.6099e-08,0.8,0.1,0
0.04085,0.010235,0.0091029,0.00031851,0.0028264,0.00025478,0,0,0.048956,-0.019562,0,0.0039746,0,0,0,0.0091103,0.00031112,0.0028264,1.66,0.0040826,0.0078498,1.6515e-08,0.82,0.1,0
0.041834,0.010642,0.0091808,0.00029558,0.0028429,0.00017683,0,0,0.049436,-0.019869,0,0.0027585,0,0,0,0.0091844,0.00029206,0.0028429,1.1397,0.0041065,0.0079308,1.6969e-08,0.84,0.1,0
0.042827,0.010999,0.0092523,0.00025348,0.0028517,0.00010772,0,0,0.049924,-0.020266,0,0.0016804,0,0,0,0.0092536,0.00025219,0.0028517,0.68572,0.0041192,0.0080239,1.7448e-08,0.86,0.1,0
0.043831,0.011303,0.0093167,0.00020077,0.0028552,5.2375e-05,0,0,0.050399,-0.020705,0,0.00081705,0,0,0,0.009317,0.00020047,0.0028552,0.32917,0.0041242,0.0081214,1.7928e-08,0.88,0.1,0
0.044843,0.011556,0.0093729,0.00014528,0.0028555,1.2853e-05,0,0,0.050836,-0.021139,0,0.00020051,0,0,0,0.0093729,0.00014526,0.0028555,0.079808,0.0041246,0.008215,1.8377e-08,0.9,0.1,0
0.045864,0.01176,0.0094199,9.3204e-05,0.0028539,-1.1078e-05,0,0,0.051214,-0.021534,0,-0.00017282,0,0,0,0.0094199,9.3191e-05,0.0028539,-0.068055,0.0041223,0.0082982,1.8772e-08,0.92,0.1,0
0.046892,0.011916,0.0094568,4.9005e-05,0.0028517,-2.1246e-05,0,0,0.05152,-0.021861,0,-0.00033144,0,0,0,0.0094568,4.8957e-05,0.0028517,-0.12939,0.0041192,0.0083663,1.9092e-08,0.94,0.1,0
0.047925,0.012025,0.0094833,1.5667e-05,0.0028497,-2.0472e-05,0,0,0.051742,-0.022105,0,-0.00031936,0,0,0,0.0094834,1.5623e-05,0.0028497,-0.12389,0.0041162,0.0084165,1.9327e-08,0.96,0.1,0
0.048961,0.01209,0.0094993,-4.9794e-06,0.0028483,-1.2155e-05,0,0,0.051878,-0.022256,0,-0.00018961,0,0,0,0.0094993,-4.9949e-06,0.0028483,-0.073273,0.0041142,0.0084471,1.947e-08,0.98,0.1,0
0.05,0.012112,0.0095046,-1.1962e-05,0.0028478,6.9336e-05,0,0,0.051923,-0.022306,0,0.0010816,0,0,0,0.0095051,-1.2468e-05,0.0028478,0.41742,0.0041135,0.0084583,1.9522e-08,1,0.1,0
0,0,0.010836,0.0046441,0.0046441,0.0029038,0,0,0.048299,-6.5052e-19,0,0.045299,0,0,0,0.011985,0.0034955,0.0046441,21.582,0.0067082,0.0079774,2.4261e-08,0,0.12,0
0.00096597,0.00090598,0.010788,0.0040292,0.0044453,0.0028801,0,0,0.049477,-0.0032458,0,0.04493,0,0,0,0.011849,0.0029684,0.0044453,20.219,0.006421,0.0082422,2.5673e-08,0.02,0.12,0
0.0019791,0.0018149,0.01096,0.003414,0.0043122,0.002813,0,0,0.051852,-0.0070058,0,0.043882,0,0,0,0.011893,0.0024808,0.0043122,18.353,0.0062287,0.0086434,2.8211e-08,0.04,0.12,0
0.0030401,0.0027065,0.011102,0.002788,0.0041671,0.0026648,0,0,0.054094,-0.010757,0,0.04157,0,0,0,0.011883,0.0020073,0.0041671,16.33,0.0060191,0.0089925,3.0209e-08,0.06,0.12,0
0.0041428,0.0035587,0.011194,0.0022212,0.0040246,0.0024521,0,0,0.055923,-0.014067,0,0.038252,0,0,0,0.01182,0.0015948,0.0040246,14.329,0.0058133,0.0092533,3.1429e-08,0.08,0.12,0
0.005277,0.0043539,0.011226,0.0017474,0.0038921,0.0022065,0,0,0.057206,-0.016728,0,0.034422,0,0,0,0.011715,0.001259,0.0038921,12.483,0.0056219,0.0094194,3.1883e-08,0.1,0.12,0
0.0064311,0.0050808,0.011202,0.0013709,0.0037719,0.0019574,0,0,0.057956,-0.018728,0,0.030536,0,0,0,0.011577,0.00099553,0.0037719,10.857,0.0054483,0.009503,3.1723e-08,0.12,0.12,0
0.0075952,0.005734,0.011134,0.0010811,0.0036645,0.0017239,0,0,0.058261,-0.02015,0,0.026893,0,0,0,0.011421,0.00079371,0.0036645,9.4653,0.0052932,0.0095225,3.1137e-08,0.14,0.12,0
0.0087615,0.0063117,0.011035,0.00086362,0.0035697,0.0015147,0,0,0.058232,-0.021107,0,0.023629,0,0,0,0.011256,0.00064286,0.0035697,8.2923,0.0051562,0.0094943,3.0284e-08,0.16,0.12,0
0.0099245,0.0068142,0.010918,0.00070544,0.0034869,0.0013312,0,0,0.05796,-0.021696,0,0.020767,0,0,0,0.011088,0.00053475,0.0034869,7.3063,0.0050367,0.0094307,2.9275e-08,0.18,0.12,0
0.01108,0.0072428,0.010789,0.00059602,0.0034155,0.0011711,0,0,0.057513,-0.021992,0,0.018269,0,0,0,0.010922,0.00046321,0.0034155,6.4704,0.0049335,0.0093392,2.8175e-08,0.2,0.12,0
0.012225,0.0075987,0.010654,0.00052714,0.0033542,0.0010296,0,0,0.056935,-0.022051,0,0.016061,0,0,0,0.010757,0.00042352,0.0033542,5.7469,0.004845,0.0092244,2.7021e-08,0.22,0.12,0
0.013357,0.0078828,0.010514,0.00049221,0.0033018,0.00090126,0,0,0.056253,-0.021915,0,0.01406,0,0,0,0.010594,0.00041181,0.0033018,5.0983,0.0047693,0.0090887,2.5825e-08,0.24,0.12,0
0.014475,0.0080955,0.01037,0.00048548,0.0032565,0.00078052,0,0,0.055482,-0.021614,0,0.012176,0,0,0,0.010431,0.00042422,0.0032565,4.4874,0.0047039,0.0089338,2.4596e-08,0.26,0.12,0
0.015577,0.0082366,0.010221,0.00050105,0.0032166,0.0006619,0,0,0.054634,-0.021181,0,0.010326,0,0,0,0.010266,0.00045619,0.0032166,3.8779,0.0046462,0.0087618,2.3339e-08,0.28,0.12,0
0.016661,0.0083055,0.010067,0.00053194,0.0031797,0.00054068,0,0,0.053722,-0.020653,0,0.0084346,0,0,0,0.010098,0.00050138,0.0031797,3.2351,0.0045929,0.0085767,2.2069e-08,0.3,0.12,0
0.017726,0.0083013,0.0099082,0.00056902,0.0031432,0.00041357,0,0,0.052767,-0.020078,0,0.0064516,0,0,0,0.0099264,0.00055074,0.0031432,2.5306,0.0045401,0.0083856,2.0813e-08,0.32,0.12,0
0.018771,0.0082236,0.0097446,0.00060049,0.0031035,0.00027988,0,0,0.0518,-0.019524,0,0.0043661,0,0,0,0.0097531,0.00059193,0.0031035,1.7515,0.0044829,0.0081992,1.9612e-08,0.34,0.12,0
0.019797,0.0080731,0.0095763,0.00061217,0.0030565,0.00014287,0,0,0.050854,-0.019066,0,0.0022287,0,0,0,0.0095786,0.00060989,0.0030565,0.91285,0.004415,0.00803,1.8507e-08,0.36,0.12,0
0.020805,0.0078526,0.0094021,0.00059051,0.0029978,1.0733e-05,0,0,0.049954,-0.018777,0,0.00016744,0,0,0,0.0094021,0.0005905,0.0029978,0.069792,0.0043301,0.0078885,1.7522e-08,0.38,0.12,0
0.021796,0.0075682,0.0092158,0.00052515,0.0029223,-0.00010517,0,0,0.049089,-0.018698,0,-0.0016406,0,0,0,0.0092171,0.00052388,0.0029223,-0.69321,0.0042211,0.0077765,1.6634e-08,0.4,0.12,0
0.022769,0.0072299,0.0090105,0.00041722,0.0028283,-0.00019248,0,0,0.048221,-0.018807,0,-0.0030026,0,0,0,0.0090148,0.00041292,0.0028283,-1.2825,0.0040853,0.0076844,1.5778e-08,0.42,0.12,0
0.023724,0.0068515,0.00877,0.0002663,0.0027109,-0.00024841,0,0,0.047261,-0.019068,0,-0.0038752,0,0,0,0.0087773,0.00025905,0.0027109,-1.6718,0.0039157,0.0075951,1.4851e-08,0.44,0.12,0
0.024659,0.0064484,0.0085184,9.8786e-05,0.0025852,-0.00026995,0,0,0.046279,-0.019394,0,-0.0042112,0,0,0,0.0085271,9.0139e-05,0.0025852,-1.8345,0.0037341,0.0075071,1.3914e-08,0.46,0.12,0
0.025576,0.0060424,0.0082355,-0.00014973,0.0024257,-0.00026345,0,0,0.045316,-0.020089,0,-0.0041098,0,0,0,0.0082438,-0.00015799,0.0024257,-1.7977,0.0035038,0.0074537,1.2974e-08,0.48,0.12,0
0.026472,0.0056659,0.0079213,-0.00044768,0.0022421,-0.0001711,0,0,0.044298,-0.02098,0,-0.0026692,0,0,0,0.0079248,-0.00045117,0.0022421,-1.1707,0.0032386,0.0074062,1.1947e-08,0.5,0.12,0
0.027348,0.0053613,0.0075978,-0.00060609,0.0020975,-3.5407e-05,0,0,0.042903,-0.021088,0,-0.00055234,0,0,0,0.007598,-0.00060624,0.0020975,-0.24727,0.0030298,0.0072414,1.0736e-08,0.52,0.12,0
0.028188,0.0051565,0.0072917,-0.00054043,0.0020254,7.6513e-05,0,0,0.041077,-0.020013,0,0.0011936,0,0,0,0.0072925,-0.00054117,0.0020254,0.55966,0.0029256,0.0069172,9.4488e-09,0.54,0.12,0
0.028991,0.0050503,0.0070459,-0.00038105,0.0019995,7.4463e-05,0,0,0.039362,-0.018568,0,0.0011616,0,0,0,0.0070467,-0.0003818,0.0019995,0.57437,0.0028881,0.0065699,8.3785e-09,0.56,0.12,0
0.029763,0.005029,0.0068921,-0.00029912,0.0019779,-9.3343e-06,0,0,0.038331,-0.017761,0,-0.00014562,0,0,0,0.0068921,-0.00029913,0.0019779,-0.074371,0.002857,0.0063658,7.7622e-09,0.58,0.12,0
0.030524,0.005082,0.0068908,-0.00030991,0.0019743,-0.00012002,0,0,0.038349,-0.017816,0,-0.0018724,0,0,0,0.0068928,-0.00031191,0.0019743,-0.95466,0.0028517,0.0063768,7.7779e-09,0.6,0.12,0
0.031296,0.0052103,0.0070422,-0.00041465,0.0019883,-0.00019851,0,0,0.039421,-0.018743,0,-0.0030968,0,0,0,0.0070475,-0.00041993,0.0019883,-1.5238,0.0028719,0.0066014,8.422e-09,0.62,0.12,0
0.032101,0.0054265,0.0072855,-0.0006,0.0020056,-0.00018861,0,0,0.041183,-0.020324,0,-0.0029423,0,0,0,0.00729,-0.00060451,0.0020056,-1.3694,0.002897,0.0069664,9.5072e-09,0.64,0.12,0
0.032944,0.0057469,0.0075879,-0.00069397,0.0020682,-5.6185e-05,0,0,0.043054,-0.021545,0,-0.00087648,0,0,0,0.0075883,-0.00069435,0.0020682,-0.38867,0.0029874,0.0073043,1.0796e-08,0.66,0.12,0
0.033823,0.0061753,0.0079052,-0.00056218,0.0022029,0.00010903,0,0,0.044478,-0.021568,0,0.0017009,0,0,0,0.0079066,-0.00056358,0.0022029,0.73762,0.003182,0.007481,1.2013e-08,0.68,0.12,0
0.034723,0.0066864,0.0082096,-0.0002864,0.002377,0.00023857,0,0,0.045495,-0.020774,0,0.0037217,0,0,0,0.0082163,-0.00029309,0.002377,1.6072,0.0034334,0.0075378,1.3055e-08,0.7,0.12,0
0.035643,0.0072397,0.0084773,-5.6994e-05,0.0025261,0.00028847,0,0,0.046419,-0.020148,0,0.0045002,0,0,0,0.008487,-6.6734e-05,0.0025261,1.9338,0.0036488,0.0075968,1.3994e-08,0.72,0.12,0
0.03658,0.0078046,0.0087076,9.4473e-05,0.0026406,0.0003157,0,0,0.047322,-0.01986,0,0.0049249,0,0,0,0.0087192,8.2917e-05,0.0026406,2.0963,0.0038142,0.0076836,1.4893e-08,0.74,0.12,0
0.037536,0.0083608,0.0089206,0.00023292,0.002746,0.0003129,0,0,0.048161,-0.019602,0,0.0048812,0,0,0,0.0089318,0.00022166,0.002746,2.06,0.0039665,0.0077622,1.5735e-08,0.76,0.12,0
0.038506,0.0088939,0.009092,0.00033078,0.0028268,0.00028187,0,0,0.048868,-0.019469,0,0.0043971,0,0,0,0.009101,0.00032172,0.0028268,1.8408,0.0040832,0.0078332,1.6442e-08,0.78,0.12,0
0.03949,0.0093908,0.0092379,0.00038606,0.0028872,0.00022497,0,0,0.049536,-0.019509,0,0.0035096,0,0,0,0.0092436,0.00038035,0.0028872,1.4549,0.0041704,0.0079135,1.7107e-08,0.8,0.12,0
0.040488,0.0098421,0.0093655,0.00039515,0.0029282,0.00015501,0,0,0.050211,-0.019758,0,0.0024182,0,0,0,0.0093682,0.00039248,0.0029282,0.9897,0.0042296,0.0080146,1.7792e-08,0.82,0.12,0
0.041499,0.010242,0.0094809,0.00036601,0.0029541,8.4705e-05,0,0,0.050909,-0.020187,0,0.0013214,0,0,0,0.0094817,0.00036522,0.0029541,0.53239,0.004267,0.008137,1.8522e-08,0.84,0.12,0
0.042524,0.010589,0.0095852,0.00031033,0.0029687,2.4215e-05,0,0,0.051609,-0.020735,0,0.00037776,0,0,0,0.0095852,0.00031027,0.0029687,0.14959,0.0042881,0.0082726,1.9276e-08,0.86,0.12,0
0.043563,0.010883,0.0096775,0.00024097,0.0029755,-2.088e-05,0,0,0.052275,-0.02133,0,-0.00032573,0,0,0,0.0096775,0.00024092,0.0029755,-0.12678,0.004298,0.0084097,2.0013e-08,0.88,0.12,0
0.044615,0.011126,0.0097564,0.00016868,0.0029775,-4.8807e-05,0,0,0.052875,-0.021909,0,-0.00076138,0,0,0,0.0097567,0.00016843,0.0029775,-0.29165,0.0043009,0.0085376,2.0687e-08,0.9,0.12,0
0.045678,0.011321,0.009821,0.0001015,0.0029767,-6.0418e-05,0,0,0.053385,-0.022427,0,-0.00094252,0,0,0,0.0098214,0.00010112,0.0029767,-0.35614,0.0042997,0.0086487,2.1266e-08,0.92,0.12,0
0.04675,0.011469,0.0098708,4.492e-05,0.0029747,-5.806e-05,0,0,0.05379,-0.022853,0,-0.00090574,0,0,0,0.0098712,4.4577e-05,0.0029747,-0.33854,0.0042968,0.0087381,2.1729e-08,0.94,0.12,0
0.04783,0.011573,0.0099061,2.4796e-06,0.0029726,-4.4852e-05,0,0,0.054081,-0.023167,0,-0.00069969,0,0,0,0.0099063,2.2765e-06,0.0029726,-0.25948,0.0042937,0.0088031,2.2064e-08,0.96,0.12,0
0.048914,0.011635,0.0099271,-2.3713e-05,0.002971,-2.4282e-05,0,0,0.054257,-0.023359,0,-0.0003788,0,0,0,0.0099271,-2.3773e-05,0.002971,-0.13981,0.0042914,0.0088424,2.2265e-08,0.98,0.12,0
0.05,0.011655,0.009934,-3.2558e-05,0.0029704,6.5621e-05,0,0,0.054316,-0.023423,0,0.0010237,0,0,0,0.0099344,-3.299e-05,0.0029704,0.37722,0.0042906,0.0088563,2.2337e-08,1,0.12,0
0,0,0.010783,0.0046215,0.0046215,0.002706,0,0,0.048064,1.0842e-19,0,0.042213,0,0,0,0.011803,0.0036019,0.0046215,20.646,0.0066755,0.0077419,2.2445e-08,0,0.14,0
0.00096127,0.00084427,0.010739,0.0040531,0.0044377,0.0026906,0,0,0.049151,-0.0029994,0,0.041973,0,0,0,0.011687,0.0031049,0.0044377,19.414,0.00641,0.0079998,2.3853e-08,0.02,0.14,0
0.0019661,0.0016831,0.01091,0.0035135,0.0043272,0.0026372,0,0,0.051349,-0.0063468,0,0.04114,0,0,0,0.011754,0.0026695,0.0043272,17.745,0.0062503,0.0083798,2.6281e-08,0.04,0.14,0
0.0030152,0.0025039,0.011063,0.0029593,0.0042067,0.0025303,0,0,0.05348,-0.0097297,0,0.039473,0,0,0,0.011788,0.0022342,0.0042067,15.992,0.0060764,0.0087364,2.845e-08,0.06,0.14,0
0.0041052,0.0032918,0.011182,0.0024378,0.0040858,0.0023745,0,0,0.055346,-0.012854,0,0.037042,0,0,0,0.011785,0.0018346,0.0040858,14.254,0.0059017,0.0090373,3.0125e-08,0.08,0.14,0
0.0052291,0.0040331,0.011256,0.0019794,0.0039706,0.0021864,0,0,0.056825,-0.015531,0,0.034107,0,0,0,0.011745,0.0014899,0.0039706,12.619,0.0057353,0.0092675,3.1219e-08,0.1,0.14,0
0.0063783,0.0047178,0.011285,0.0015962,0.0038643,0.0019855,0,0,0.05788,-0.017691,0,0.030974,0,0,0,0.011676,0.0012051,0.0038643,11.144,0.0055818,0.0094268,3.1761e-08,0.12,0.14,0
0.0075443,0.0053397,0.011273,0.0012878,0.0037682,0.0017877,0,0,0.058537,-0.019347,0,0.027888,0,0,0,0.011583,0.00097741,0.0037682,9.8506,0.005443,0.0095224,3.1841e-08,0.14,0.14,0
0.0087197,0.0058953,0.011228,0.0010475,0.0036827,0.0016029,0,0,0.058855,-0.020555,0,0.025005,0,0,0,0.011475,0.00080112,0.0036827,8.7392,0.0053195,0.0095641,3.1563e-08,0.16,0.14,0
0.0098985,0.0063835,0.011159,0.00086689,0.0036077,0.0014355,0,0,0.058899,-0.021378,0,0.022394,0,0,0,0.011355,0.00067041,0.0036077,7.7935,0.0052111,0.0095608,3.1017e-08,0.18,0.14,0
0.011076,0.0068041,0.011071,0.00073796,0.0035426,0.0012861,0,0,0.05872,-0.021876,0,0.020064,0,0,0,0.011228,0.00058028,0.0035426,6.9896,0.0051171,0.0095192,3.0268e-08,0.2,0.14,0
0.012247,0.0071572,0.010968,0.00065382,0.0034866,0.0011527,0,0,0.058356,-0.022096,0,0.017983,0,0,0,0.011095,0.00052656,0.0034866,6.2999,0.0050362,0.0094435,2.9359e-08,0.22,0.14,0
0.01341,0.0074429,0.010853,0.00060852,0.0034385,0.0010318,0,0,0.057835,-0.022074,0,0.016096,0,0,0,0.010956,0.00050563,0.0034385,5.6945,0.0049667,0.0093362,2.8312e-08,0.24,0.14,0
0.014561,0.0076611,0.010726,0.00059654,0.0033968,0.00091893,0,0,0.057169,-0.021842,0,0.014335,0,0,0,0.010809,0.00051385,0.0033968,5.1417,0.0049065,0.0091988,2.714e-08,0.26,0.14,0
0.015697,0.0078107,0.010587,0.00061197,0.0033596,0.00080917,0,0,0.056371,-0.021431,0,0.012623,0,0,0,0.010652,0.00054676,0.0033596,4.6078,0.0048527,0.0090333,2.5852e-08,0.28,0.14,0
0.016816,0.0078906,0.010434,0.00064741,0.0033244,0.00069757,0,0,0.055454,-0.02088,0,0.010882,0,0,0,0.010483,0.00059793,0.0033244,4.0567,0.0048019,0.0088433,2.4469e-08,0.3,0.14,0
0.017915,0.0078986,0.010268,0.00069252,0.0032882,0.00057985,0,0,0.054444,-0.020246,0,0.0090457,0,0,0,0.010303,0.00065753,0.0032882,3.4527,0.0047496,0.0086362,2.3028e-08,0.32,0.14,0
0.018993,0.0078329,0.010091,0.00073233,0.0032469,0.00045396,0,0,0.053382,-0.019614,0,0.0070818,0,0,0,0.010113,0.00071036,0.0032469,2.7706,0.00469,0.0084255,2.1593e-08,0.34,0.14,0
0.02005,0.0076922,0.0099039,0.00074731,0.0031954,0.00032291,0,0,0.052326,-0.019095,0,0.0050374,0,0,0,0.0099152,0.00073594,0.0031954,2.0172,0.0046155,0.00823,2.0246e-08,0.36,0.14,0
0.021086,0.0074777,0.0097063,0.00071458,0.0031263,0.00019695,0,0,0.051325,-0.018811,0,0.0030724,0,0,0,0.0097106,0.00071027,0.0031263,1.2542,0.0045157,0.0080684,1.9045e-08,0.38,0.14,0
0.022103,0.0071944,0.0094941,0.0006205,0.0030344,9.5545e-05,0,0,0.050386,-0.018828,0,0.0014905,0,0,0,0.0094952,0.00061947,0.0030344,0.61682,0.004383,0.0079483,1.7991e-08,0.4,0.14,0
0.023102,0.0068533,0.0092439,0.00045753,0.0029104,3.7094e-05,0,0,0.049401,-0.019133,0,0.00057867,0,0,0,0.0092441,0.00045737,0.0029104,0.24188,0.0042039,0.007853,1.6936e-08,0.42,0.14,0
0.024079,0.006469,0.0089448,0.00025972,0.0027614,4.1848e-05,0,0,0.048231,-0.019513,0,0.00065283,0,0,0,0.008945,0.00025952,0.0027614,0.27607,0.0039886,0.0077439,1.5728e-08,0.44,0.14,0
0.025031,0.0060621,0.0085092,-1.8013e-06,0.0025522,8.329e-05,0,0,0.046464,-0.019921,0,0.0012993,0,0,0,0.00851,-2.6163e-06,0.0025522,0.56064,0.0036865,0.0075659,1.3995e-08,0.46,0.14,0
0.025938,0.0056429,0.0081055,-0.00016159,0.0023832,0.00017959,0,0,0.044634,-0.019849,0,0.0028016,0,0,0,0.0081094,-0.00016549,0.0023832,1.2439,0.0034424,0.0073403,1.2366e-08,0.48,0.14,0
0.026816,0.0052467,0.0075307,-0.00062937,0.0020704,0.0002544,0,0,0.04259,-0.021058,0,0.0039687,0,0,0,0.0075386,-0.0006373,0.0020704,1.784,0.0029906,0.0072138,1.0527e-08,0.5,0.14,0
0.027641,0.0049429,0.00694,-0.00082708,0.0018339,0.0004827,0,0,0.039828,-0.020755,0,0.0075301,0,0,0,0.0069699,-0.00085697,0.0018339,3.5426,0.0026489,0.0068876,8.561e-09,0.52,0.14,0
0.02841,0.00477,0.0065066,-0.00042378,0.0018248,0.00049447,0,0,0.036518,-0.017539,0,0.0077136,0,0,0,0.0065417,-0.00045888,0.0018248,4.0605,0.0026359,0.0061835,6.7974e-09,0.54,0.14,0
0.029102,0.0047038,0.0060616,-0.00020082,0.0017582,0.0003282,0,0,0.033566,-0.015281,0,0.00512,0,0,0,0.0060788,-0.00021797,0.0017582,2.9918,0.0025397,0.0055777,5.288e-09,0.56,0.14,0
0.029752,0.0047024,0.0058512,-9.8307e-05,0.0017259,7.316e-05,0,0,0.032178,-0.014229,0,0.0011413,0,0,0,0.0058521,-9.9207e-05,0.0017259,0.70441,0.0024929,0.0052809,4.631e-09,0.58,0.14,0
0.030389,0.0047543,0.0058474,-0.00011123,0.0017208,-0.00019716,0,0,0.032187,-0.01429,0,-0.0030756,0,0,0,0.0058539,-0.00011775,0.0017208,-1.893,0.0024857,0.0052973,4.6501e-09,0.6,0.14,0
0.03104,0.00486,0.006051,-0.00024121,0.0017429,-0.0004478,0,0,0.033603,-0.015476,0,-0.0069856,0,0,0,0.0060827,-0.00027291,0.0017429,-4.0504,0.0025176,0.0056254,5.3433e-09,0.62,0.14,0
0.031733,0.0050332,0.0064907,-0.0004971,0.0017981,-0.00060335,0,0,0.036603,-0.017902,0,-0.0094123,0,0,0,0.0065424,-0.00054881,0.0017981,-4.8988,0.0025972,0.0062571,6.8774e-09,0.64,0.14,0
0.032504,0.0053184,0.0069179,-0.00094128,0.001793,-0.00057065,0,0,0.039975,-0.021327,0,-0.0089021,0,0,0,0.0069591,-0.0009825,0.001793,-4.1313,0.0025899,0.0069808,8.6243e-09,0.66,0.14,0
0.033332,0.0057428,0.0075004,-0.00078193,0.0020155,-0.00030858,0,0,0.042782,-0.02182,0,-0.0048138,0,0,0,0.0075118,-0.00079341,0.0020155,-2.1308,0.0029113,0.007317,1.0586e-08,0.68,0.14,0
0.034215,0.0062714,0.0080654,-0.00034014,0.0023176,-0.00019153,0,0,0.044833,-0.02073,0,-0.0029879,0,0,0,0.0080697,-0.0003445,0.0023176,-1.3047,0.0033476,0.0074489,1.2451e-08,0.7,0.14,0
0.035125,0.0068363,0.008452,-0.00020679,0.0024736,-4.6853e-05,0,0,0.046632,-0.020907,0,-0.0007309,0,0,0,0.0084522,-0.00020704,0.0024736,-0.31001,0.0035729,0.0076783,1.4059e-08,0.72,0.14,0
0.03608,0.0074039,0.0088658,3.309e-05,0.0026697,4.9725e-05,0,0,0.04833,-0.020565,0,0.00077571,0,0,0,0.0088661,3.281e-05,0.0026697,0.32254,0.0038562,0.0078542,1.5758e-08,0.74,0.14,0
0.037059,0.0079658,0.0091378,0.00021551,0.002806,0.00011388,0,0,0.049388,-0.020206,0,0.0017765,0,0,0,0.0091392,0.00021405,0.002806,0.73112,0.0040531,0.0079526,1.6884e-08,0.76,0.14,0
0.038056,0.008502,0.009355,0.00036621,0.0029164,0.00011768,0,0,0.050222,-0.019891,0,0.0018358,0,0,0,0.0093566,0.00036467,0.0029164,0.74992,0.0042125,0.0080263,1.7789e-08,0.78,0.14,0
0.039068,0.0089984,0.0095297,0.0004483,0.0029934,8.0447e-05,0,0,0.050983,-0.019852,0,0.001255,0,0,0,0.0095304,0.00044759,0.0029934,0.5075,0.0043238,0.0081151,1.8617e-08,0.8,0.14,0
0.040095,0.0094442,0.0096856,0.00046521,0.0030452,2.1331e-05,0,0,0.051795,-0.020124,0,0.00033277,0,0,0,0.0096856,0.00046517,0.0030452,0.13255,0.0043987,0.0082392,1.9516e-08,0.82,0.14,0
0.041139,0.0098347,0.0098274,0.00042744,0.0030765,-3.8448e-05,0,0,0.052657,-0.020662,0,-0.00059979,0,0,0,0.0098275,0.00042728,0.0030765,-0.23435,0.0044438,0.0083952,2.05e-08,0.84,0.14,0
0.042201,0.010169,0.0099562,0.00035552,0.0030935,-8.6106e-05,0,0,0.053529,-0.021357,0,-0.0013433,0,0,0,0.009957,0.00035474,0.0030935,-0.51382,0.0044684,0.0085677,2.1524e-08,0.86,0.14,0
0.043281,0.01045,0.010069,0.00026761,0.0031011,-0.00011589,0,0,0.054353,-0.022101,0,-0.0018079,0,0,0,0.010071,0.00026624,0.0031011,-0.6773,0.0044794,0.0087391,2.2513e-08,0.88,0.14,0
0.044375,0.01068,0.010165,0.00017779,0.0031028,-0.00012722,0,0,0.055085,-0.022815,0,-0.0019846,0,0,0,0.010167,0.00017617,0.0031028,-0.72968,0.0044818,0.0088958,2.3404e-08,0.9,0.14,0
0.045484,0.010863,0.010242,9.5543e-05,0.0031012,-0.00012204,0,0,0.055697,-0.023444,0,-0.0019038,0,0,0,0.010243,9.4076e-05,0.0031012,-0.68901,0.0044795,0.0090294,2.4156e-08,0.92,0.14,0
0.046603,0.011001,0.0103,2.6991e-05,0.0030982,-0.00010336,0,0,0.056177,-0.023955,0,-0.0016124,0,0,0,0.010301,2.5951e-05,0.0030982,-0.57637,0.0044752,0.0091353,2.4749e-08,0.94,0.14,0
0.047731,0.011099,0.010341,-2.4078e-05,0.0030952,-7.4524e-05,0,0,0.05652,-0.02433,0,-0.0011626,0,0,0,0.010342,-2.4613e-05,0.0030952,-0.41191,0.0044708,0.0092117,2.5173e-08,0.96,0.14,0
0.048864,0.011156,0.010365,-5.5461e-05,0.003093,-3.8943e-05,0,0,0.056725,-0.024558,0,-0.0006075,0,0,0,0.010365,-5.5607e-05,0.003093,-0.21411,0.0044676,0.0092575,2.5427e-08,0.98,0.14,0
0.05,0.011175,0.010373,-6.6036e-05,0.0030922,6.1059e-05,0,0,0.056793,-0.024634,0,0.00095252,0,0,0,0.010374,-6.6393e-05,0.0030922,0.3351,0.0044665,0.0092734,2.5516e-08,1,0.14,0
0,0,0.010789,0.0046239,0.0046239,0.0025192,0,0,0.048089,8.6736e-19,0,0.0393,0,0,0,0.011688,0.0037255,0.0046239,19.628,0.006679,0.0075531,2.1079e-08,0,0.16,0
0.00096178,0.000786,0.010746,0.0040795,0.0044475,0.0025085,0,0,0.049125,-0.0028709,0,0.039133,0,0,0,0.011584,0.003241,0.0044475,18.483,0.0064242,0.0078101,2.2512e-08,0.02,0.16,0
0.001965,0.0015611,0.010917,0.0035862,0.0043509,0.0024627,0,0,0.051213,-0.0059644,0,0.038418,0,0,0,0.011667,0.0028357,0.0043509,16.949,0.0062846,0.0081799,2.489e-08,0.04,0.16,0
0.0030103,0.0023173,0.011075,0.0030823,0.0042473,0.0023819,0,0,0.053258,-0.0090865,0,0.037157,0,0,0,0.011731,0.0024264,0.0042473,15.397,0.0061349,0.0085412,2.7164e-08,0.06,0.16,0
0.0040953,0.0030445,0.01121,0.0025994,0.0041427,0.0022653,0,0,0.055122,-0.012038,0,0.035339,0,0,0,0.011769,0.0020398,0.0041427,13.876,0.0059839,0.008867,2.913e-08,0.08,0.16,0
0.0052152,0.0037326,0.011312,0.0021615,0.0040419,0.0021213,0,0,0.056703,-0.014667,0,0.033092,0,0,0,0.01178,0.0016936,0.0040419,12.438,0.0058383,0.0091408,3.0671e-08,0.1,0.16,0
0.0063635,0.0043732,0.011378,0.0017822,0.003948,0.0019621,0,0,0.057951,-0.016893,0,0.030609,0,0,0,0.011763,0.0013965,0.003948,11.121,0.0057026,0.0093557,3.1751e-08,0.12,0.16,0
0.0075333,0.0049601,0.011409,0.001466,0.0038624,0.0017995,0,0,0.058861,-0.018692,0,0.028071,0,0,0,0.011724,0.0011504,0.0038624,9.9493,0.005579,0.0095124,3.2393e-08,0.14,0.16,0
0.0087179,0.0054895,0.011409,0.0012115,0.003786,0.0016424,0,0,0.059456,-0.020081,0,0.025622,0,0,0,0.011667,0.00095348,0.003786,8.9278,0.0054687,0.009615,3.265e-08,0.16,0.16,0
0.0099115,0.0059591,0.011382,0.0010143,0.0037189,0.0014965,0,0,0.059774,-0.021096,0,0.023346,0,0,0,0.011594,0.0008026,0.0037189,8.0512,0.0053718,0.0096688,3.2582e-08,0.18,0.16,0
0.011109,0.0063678,0.011334,0.00086919,0.0036609,0.0013641,0,0,0.059849,-0.021776,0,0.02128,0,0,0,0.011509,0.00069431,0.0036609,7.3059,0.005288,0.0096784,3.2239e-08,0.2,0.16,0
0.012306,0.0067149,0.011267,0.00077111,0.0036114,0.0012451,0,0,0.059712,-0.022154,0,0.019424,0,0,0,0.011413,0.00062542,0.0036114,6.6737,0.0052164,0.0096471,3.1657e-08,0.22,0.16,0
0.013497,0.0069999,0.011182,0.00071522,0.0035692,0.0011379,0,0,0.059381,-0.022261,0,0.017751,0,0,0,0.011305,0.00059294,0.0035692,6.1333,0.0051556,0.0095768,3.0858e-08,0.24,0.16,0
0.014681,0.0072218,0.01108,0.00069676,0.0035331,0.0010393,0,0,0.058868,-0.022124,0,0.016213,0,0,0,0.011183,0.00059375,0.0035331,5.6601,0.0051034,0.0094685,2.9853e-08,0.26,0.16,0
0.015852,0.0073793,0.01096,0.00071042,0.0035012,0.00094534,0,0,0.05818,-0.021768,0,0.014747,0,0,0,0.011047,0.00062396,0.0035012,5.2257,0.0050572,0.0093232,2.8648e-08,0.28,0.16,0
0.017008,0.0074703,0.01082,0.00074921,0.0034708,0.00085091,0,0,0.057324,-0.021228,0,0.013274,0,0,0,0.010891,0.00067782,0.0034708,4.7958,0.0050133,0.0091429,2.7257e-08,0.3,0.16,0
0.018145,0.0074915,0.01066,0.00080276,0.0034387,0.00075046,0,0,0.056323,-0.020561,0,0.011707,0,0,0,0.010717,0.00074595,0.0034387,4.329,0.0049671,0.0089339,2.5717e-08,0.32,0.16,0
0.019261,0.0074391,0.010482,0.00085459,0.0034008,0.00063938,0,0,0.05523,-0.019861,0,0.0099743,0,0,0,0.010524,0.00081232,0.0034008,3.7832,0.0049123,0.0087107,2.4112e-08,0.34,0.16,0
0.020354,0.0073093,0.01029,0.0008775,0.0033502,0.00051765,0,0,0.054129,-0.019287,0,0.0080753,0,0,0,0.010318,0.00084911,0.0033502,3.1385,0.0048392,0.0084992,2.257e-08,0.36,0.16,0
0.021426,0.0071001,0.010091,0.00083869,0.003279,0.00039787,0,0,0.053137,-0.019035,0,0.0062067,0,0,0,0.010108,0.00082161,0.003279,2.4577,0.0047364,0.0083345,2.1251e-08,0.38,0.16,0
0.02248,0.0068151,0.0098762,0.00069947,0.0031727,0.00030533,0,0,0.052287,-0.019291,0,0.0047631,0,0,0,0.0098863,0.00068933,0.0031727,1.9035,0.0045828,0.0082409,2.0189e-08,0.4,0.16,0
0.023518,0.0064646,0.0096449,0.00047389,0.0030356,0.00028603,0,0,0.051552,-0.019981,0,0.0044621,0,0,0,0.0096538,0.00046498,0.0030356,1.7847,0.0043848,0.008211,1.9321e-08,0.42,0.16,0
0.024542,0.0060709,0.0093104,0.00014432,0.0028364,0.00035273,0,0,0.050497,-0.020998,0,0.0055026,0,0,0,0.0093239,0.00013076,0.0028364,2.2005,0.004097,0.008183,1.8121e-08,0.44,0.16,0
0.025537,0.0056515,0.008929,-0.00012162,0.0026422,0.00057275,0,0,0.049037,-0.021558,0,0.0089349,0,0,0,0.0089651,-0.00015772,0.0026422,3.6067,0.0038165,0.0080946,1.666e-08,0.46,0.16,0
0.026503,0.0052485,0.007903,-0.00071902,0.0021552,0.00078972,0,0,0.044833,-0.022419,0,0.01232,0,0,0,0.0079747,-0.00079076,0.0021552,5.1903,0.0031131,0.0077259,1.2605e-08,0.48,0.16,0
0.027331,0.0048236,0.006992,-0.0010167,0.0017926,0.0014877,0,0,0.040556,-0.021913,0,0.023208,0,0,0,0.0072595,-0.0012841,0.0017926,10.191,0.0025893,0.0074948,9.9929e-09,0.5,0.16,0
0.028126,0.004531,0.0062546,-0.00041785,0.001751,0.0012668,0,0,0.035128,-0.016917,0,0.019762,0,0,0,0.006487,-0.00065026,0.001751,10.396,0.0025293,0.0062904,6.7902e-09,0.52,0.16,0
0.028736,0.004455,0.005174,-8.1062e-05,0.0015279,0.00099268,0,0,0.02844,-0.01255,0,0.015486,0,0,0,0.0053552,-0.00026233,0.0015279,10.348,0.0022069,0.0049705,3.6603e-09,0.54,0.16,0
0.029263,0.0044391,0.0047281,0.00011416,0.0014527,0.00055644,0,0,0.025548,-0.010441,0,0.0086805,0,0,0,0.0047943,4.8004e-05,0.0014527,6.7803,0.0020983,0.0042229,2.4745e-09,0.56,0.16,0
0.029758,0.0044599,0.0045797,0.00021278,0.0014377,0.00014324,0,0,0.024507,-0.0095547,0,0.0022346,0,0,0,0.0045844,0.00020808,0.0014377,1.8767,0.0020767,0.0039093,2.0761e-09,0.58,0.16,0
0.030243,0.0045104,0.0045738,0.00019796,0.0014315,-0.00025754,0,0,0.02451,-0.0096219,0,-0.0040176,0,0,0,0.0045889,0.00018285,0.0014315,-3.3567,0.0020678,0.0039333,2.0964e-09,0.6,0.16,0
0.030738,0.0045912,0.004711,6.751e-05,0.0014336,-0.00066729,0,0,0.025564,-0.010655,0,-0.01041,0,0,0,0.004805,-2.6481e-05,0.0014336,-8.0176,0.0020707,0.0042919,2.5332e-09,0.62,0.16,0
0.031266,0.0047104,0.0051488,-0.00016566,0.001495,-0.0010952,0,0,0.0285,-0.012953,0,-0.017085,0,0,0,0.0053657,-0.00038251,0.001495,-11.2,0.0021594,0.0050769,3.7546e-09,0.64,0.16,0
0.031878,0.0048938,0.0062245,-0.00055572,0.0017006,-0.0013503,0,0,0.035286,-0.0176,0,-0.021064,0,0,0,0.0064836,-0.00081474,0.0017006,-10.859,0.0024565,0.0064214,6.9038e-09,0.66,0.16,0
0.032677,0.0053025,0.0069503,-0.001217,0.00172,-0.0015352,0,0,0.040796,-0.022908,0,-0.023948,0,0,0,0.0072293,-0.001496,0.00172,-10.301,0.0024844,0.0076428,1.0011e-08,0.68,0.16,0
0.03351,0.0058572,0.0078539,-0.00094309,0.0020733,-0.00078819,0,0,0.045089,-0.023527,0,-0.012296,0,0,0,0.007924,-0.0010131,0.0020733,-5.0796,0.0029947,0.0078622,1.2622e-08,0.7,0.16,0
0.034481,0.0064034,0.008862,-0.00038298,0.0025437,-0.00051692,0,0,0.049283,-0.022828,0,-0.008064,0,0,0,0.0088908,-0.00041179,0.0025437,-3.1904,0.0036742,0.0082328,1.6708e-08,0.72,0.16,0
0.035481,0.006982,0.0092233,-0.00014193,0.0027244,-0.00023713,0,0,0.050692,-0.022357,0,-0.0036992,0,0,0,0.0092293,-0.00014793,0.0027244,-1.4495,0.0039353,0.0083216,1.8148e-08,0.74,0.16,0
0.036509,0.0075525,0.0095302,0.00016789,0.0029094,-0.00010512,0,0,0.051642,-0.021384,0,-0.0016398,0,0,0,0.0095314,0.00016671,0.0029094,-0.6432,0.0042025,0.0083388,1.9282e-08,0.76,0.16,0
0.037547,0.0080982,0.0097315,0.0003809,0.0030337,-5.7892e-05,0,0,0.052243,-0.020692,0,-0.00090312,0,0,0,0.0097319,0.00038055,0.0030337,-0.35472,0.004382,0.0083472,2.0013e-08,0.78,0.16,0
0.038598,0.0085967,0.0099134,0.00050714,0.0031261,-8.3128e-05,0,0,0.05294,-0.020428,0,-0.0012968,0,0,0,0.0099141,0.0005064,0.0031261,-0.5063,0.0045156,0.0084096,2.085e-08,0.8,0.16,0
0.039665,0.0090371,0.010077,0.00052767,0.0031815,-0.00013428,0,0,0.053787,-0.0207,0,-0.0020947,0,0,0,0.010079,0.00052578,0.0031815,-0.80542,0.0045955,0.008541,2.1879e-08,0.82,0.16,0
0.04075,0.0094158,0.010234,0.00047644,0.0032131,-0.00018334,0,0,0.054762,-0.021346,0,-0.0028601,0,0,0,0.010237,0.00047299,0.0032131,-1.0761,0.0046412,0.0087233,2.3096e-08,0.84,0.16,0
0.041855,0.009735,0.010377,0.00038383,0.0032282,-0.00021451,0,0,0.05576,-0.022186,0,-0.0033463,0,0,0,0.010382,0.00037923,0.0032282,-1.2291,0.004663,0.0089256,2.437e-08,0.86,0.16,0
0.04298,0.0099993,0.010502,0.00027585,0.0032333,-0.00022451,0,0,0.056694,-0.023068,0,-0.0035023,0,0,0,0.010507,0.00027092,0.0032333,-1.2571,0.0046703,0.0091227,2.5583e-08,0.88,0.16,0
0.044123,0.010214,0.010605,0.0001686,0.0032321,-0.0002152,0,0,0.057509,-0.023895,0,-0.0033572,0,0,0,0.010609,0.00016417,0.0032321,-1.1808,0.0046685,0.0092989,2.6653e-08,0.9,0.16,0
0.045281,0.010383,0.010687,7.2149e-05,0.0032276,-0.00019008,0,0,0.05818,-0.024613,0,-0.0029653,0,0,0,0.01069,6.8747e-05,0.0032276,-1.0256,0.0046621,0.0094466,2.754e-08,0.92,0.16,0
0.04645,0.010511,0.010748,-7.2892e-06,0.0032222,-0.00015275,0,0,0.0587,-0.02519,0,-0.0023829,0,0,0,0.01075,-9.4582e-06,0.0032222,-0.81354,0.0046542,0.0095623,2.8228e-08,0.94,0.16,0
0.047628,0.0106,0.01079,-6.6004e-05,0.0032172,-0.00010658,0,0,0.059068,-0.025609,0,-0.0016627,0,0,0,0.010791,-6.7051e-05,0.0032172,-0.56244,0.0046471,0.0096449,2.8715e-08,0.96,0.16,0
0.048813,0.010652,0.010815,-0.00010191,0.0032139,-5.4694e-05,0,0,0.059287,-0.025863,0,-0.00085323,0,0,0,0.010815,-0.00010219,0.0032139,-0.28705,0.0046423,0.0096944,2.9005e-08,0.98,0.16,0
0.05,0.01067,0.010823,-0.00011399,0.0032127,5.5826e-05,0,0,0.05936,-0.025948,0,0.00087089,0,0,0,0.010823,-0.00011427,0.0032127,0.29245,0.0046406,0.0097113,2.9105e-08,1,0.16,0
0,0,0.010831,0.004642,0.004642,0.0023379,0,0,0.048277,1.0842e-19,0,0.036471,0,0,0,0.011615,0.0038582,0.004642,18.535,0.0067051,0.0073963,1.9996e-08,0,0.18,0
0.00096554,0.00072943,0.010788,0.004108,0.0044687,0.0023301,0,0,0.049287,-0.002813,0,0.03635,0,0,0,0.01152,0.0033755,0.0044687,17.451,0.0064547,0.0076567,2.1478e-08,0.02,0.18,0
0.0019715,0.0014445,0.010959,0.0036432,0.0043807,0.0022892,0,0,0.051312,-0.0057529,0,0.035712,0,0,0,0.011617,0.0029859,0.0043807,16.019,0.0063277,0.0080246,2.3859e-08,0.04,0.18,0
0.003018,0.0021405,0.011122,0.0031738,0.0042887,0.0022257,0,0,0.053299,-0.0086965,0,0.034721,0,0,0,0.011703,0.002593,0.0042887,14.626,0.0061948,0.0083914,2.6219e-08,0.06,0.18,0
0.0041034,0.0028103,0.011267,0.002721,0.0041965,0.0021368,0,0,0.055152,-0.011508,0,0.033333,0,0,0,0.011772,0.0022166,0.0041965,13.284,0.0060616,0.0087351,2.8392e-08,0.08,0.18,0
0.0052241,0.0034464,0.011388,0.0023031,0.0041075,0.002026,0,0,0.056791,-0.014074,0,0.031605,0,0,0,0.01182,0.0018718,0.0041075,12.018,0.005933,0.0090398,3.026e-08,0.1,0.18,0
0.0063751,0.0040422,0.011482,0.0019323,0.0040242,0.0019008,0,0,0.058168,-0.016317,0,0.029652,0,0,0,0.011846,0.0015678,0.0040242,10.854,0.0058127,0.0092967,3.176e-08,0.12,0.18,0
0.0075508,0.004592,0.011546,0.0016148,0.0039483,0.0017696,0,0,0.059263,-0.018201,0,0.027605,0,0,0,0.011852,0.0013089,0.0039483,9.807,0.005703,0.0095024,3.2874e-08,0.14,0.18,0
0.0087456,0.0050921,0.011583,0.0013522,0.0038806,0.0016397,0,0,0.06008,-0.019722,0,0.02558,0,0,0,0.011839,0.0010958,0.0038806,8.8865,0.0056053,0.0096573,3.3619e-08,0.16,0.18,0
0.009954,0.0055397,0.011595,0.0011431,0.0038216,0.0015168,0,0,0.060636,-0.020892,0,0.023662,0,0,0,0.011811,0.00092749,0.0038216,8.0921,0.0055201,0.0097637,3.4025e-08,0.18,0.18,0
0.011171,0.0059331,0.011586,0.00098496,0.0037712,0.001404,0,0,0.060953,-0.021733,0,0.021902,0,0,0,0.011768,0.00080216,0.0037712,7.418,0.0054473,0.0098242,3.4123e-08,0.2,0.18,0
0.012392,0.006271,0.011556,0.00087426,0.003729,0.0013027,0,0,0.061049,-0.022267,0,0.020322,0,0,0,0.011713,0.00071769,0.003729,6.8537,0.0053864,0.009841,3.394e-08,0.22,0.18,0
0.013613,0.0065525,0.011507,0.00080758,0.0036944,0.0012126,0,0,0.060939,-0.022517,0,0.018917,0,0,0,0.011643,0.00067187,0.0036944,6.3857,0.0053363,0.0098151,3.3489e-08,0.24,0.18,0
0.01483,0.0067761,0.011439,0.00078125,0.003666,0.0011321,0,0,0.060627,-0.022501,0,0.017662,0,0,0,0.011558,0.00066231,0.003666,5.9974,0.0052953,0.009747,3.2777e-08,0.26,0.18,0
0.016038,0.00694,0.011349,0.00079096,0.0036421,0.0010583,0,0,0.060116,-0.022239,0,0.016509,0,0,0,0.011454,0.00068593,0.0036421,5.6677,0.0052608,0.0096366,3.1801e-08,0.28,0.18,0
0.017234,0.0070414,0.011236,0.00083082,0.0036201,0.0009865,0,0,0.059404,-0.021756,0,0.015389,0,0,0,0.011329,0.00073812,0.0036201,5.3684,0.0052289,0.0094839,3.0558e-08,0.3,0.18,0
0.018414,0.0070762,0.011097,0.00089173,0.0035965,0.00091044,0,0,0.0585,-0.021097,0,0.014203,0,0,0,0.011177,0.00081114,0.0035965,5.0585,0.0051949,0.0092918,2.9064e-08,0.32,0.18,0
0.019574,0.0070384,0.010932,0.00095834,0.003567,0.00082169,0,0,0.057445,-0.020348,0,0.012818,0,0,0,0.010999,0.0008911,0.003567,4.6785,0.0051524,0.0090709,2.7386e-08,0.34,0.18,0
0.020712,0.0069207,0.010752,0.0010024,0.0035264,0.00071402,0,0,0.056362,-0.019687,0,0.011139,0,0,0,0.010804,0.00095039,0.0035264,4.1663,0.0050937,0.0088516,2.5712e-08,0.36,0.18,0
0.021829,0.0067163,0.010564,0.0009633,0.0034583,0.00059245,0,0,0.055428,-0.019461,0,0.0092423,0,0,0,0.010601,0.00092688,0.0034583,3.5177,0.0049954,0.0086894,2.4305e-08,0.38,0.18,0
0.022929,0.0064227,0.010393,0.00079481,0.0033565,0.0005003,0,0,0.054889,-0.019981,0,0.0078046,0,0,0,0.010419,0.0007688,0.0033565,2.9756,0.0048483,0.0086521,2.3508e-08,0.4,0.18,0
0.024024,0.006054,0.010176,0.00042176,0.0031795,0.00048243,0,0,0.054576,-0.02151,0,0.0075259,0,0,0,0.0102,0.00039796,0.0031795,2.8245,0.0045925,0.0087496,2.3046e-08,0.42,0.18,0
0.025112,0.005629,0.010034,5.263e-05,0.003026,0.00065108,0,0,0.054662,-0.023192,0,0.010157,0,0,0,0.010076,1.034e-05,0.003026,3.7164,0.0043708,0.0089477,2.3199e-08,0.44,0.18,0
0.026211,0.0051998,0.0095868,-0.00056008,0.002708,0.00087431,0,0,0.053655,-0.025491,0,0.013639,0,0,0,0.0096616,-0.00063486,0.002708,4.8889,0.0039116,0.0090979,2.1816e-08,0.46,0.18,0
0.027259,0.0047461,0.01006,-0.0005781,0.0028446,0.0015551,0,0,0.056281,-0.026697,0,0.02426,0,0,0,0.010283,-0.00080077,0.0028446,8.1484,0.0041089,0.0097842,2.6571e-08,0.48,0.18,0
0.028462,0.0043701,0.012783,-0.0016396,0.0033431,0.0018609,0,0,0.031339,-0.014148,0,0.016051,0,0,0,0.013053,-0.0019089,0.0033431,8.4283,0.0048289,0.013155,7.6335e-08,0.5,0.18,0
0.0288,0.0042663,0.010699,0.00033187,0.0033092,0.0014731,0,0,0.016468,-0.0093869,0,0.016828,0,0,0,0.011154,-0.00012305,0.0033092,13.195,0.0047799,0.010062,6.893e-08,0.52,0.18,0
0.029121,0.004268,0.010469,0.00035087,0.003246,0.0011156,0,0,0.016097,-0.0076584,0,0.011129,0,0,0,0.010713,0.00010671,0.003246,11.076,0.0046886,0.0094506,6.4592e-08,0.54,0.18,0
0.029444,0.0042861,0.010644,0.00055525,0.0033599,0.000578,0,0,0.016234,-0.0068325,0,0.0058239,0,0,0,0.01072,0.00047916,0.0033599,6.6895,0.0048531,0.0091507,6.5528e-08,0.56,0.18,0
0.02977,0.0043203,0.010731,0.00063089,0.0034086,0.00014994,0,0,0.016319,-0.00652,0,0.0015158,0,0,0,0.010737,0.00062542,0.0034086,1.8647,0.0049235,0.0090472,6.6303e-08,0.58,0.18,0
0.030097,0.0043694,0.010729,0.00061636,0.0034035,-0.0002529,0,0,0.016325,-0.0065616,0,-0.0025216,0,0,0,0.010744,0.00060137,0.0034035,-3.0727,0.0049162,0.0090727,6.6412e-08,0.6,0.18,0
0.030423,0.0044338,0.010639,0.00051052,0.003345,-0.00067787,0,0,0.016256,-0.006965,0,-0.0068063,0,0,0,0.010741,0.00040888,0.003345,-7.6269,0.0048316,0.0092256,6.5894e-08,0.62,0.18,0
0.030747,0.0045151,0.010465,0.00026742,0.0032196,-0.0012108,0,0,0.016146,-0.0079073,0,-0.01207,0,0,0,0.010744,-1.1568e-05,0.0032196,-11.644,0.0046506,0.0095745,6.5329e-08,0.64,0.18,0
0.031069,0.0046144,0.010727,0.00021761,0.0032834,-0.0015397,0,0,0.016589,-0.0098061,0,-0.017617,0,0,0,0.01121,-0.00026507,0.0032834,-13.372,0.0047427,0.01023,7.0484e-08,0.66,0.18,0
0.031411,0.0048265,0.012767,-0.0019684,0.0032396,-0.0018925,0,0,0.031585,-0.014816,0,-0.016251,0,0,0,0.013039,-0.0022404,0.0032396,-8.3855,0.0046795,0.013416,7.6999e-08,0.68,0.18,0
0.032622,0.0053303,0.010014,-0.00085804,0.0027468,-0.0015282,0,0,0.056684,-0.028118,0,-0.023839,0,0,0,0.010225,-0.0010688,0.0027468,-7.8508,0.0039676,0.0099504,2.6674e-08,0.7,0.18,0
0.033678,0.0059232,0.0095211,-0.00087094,0.002595,-0.00080083,0,0,0.054023,-0.027035,0,-0.012493,0,0,0,0.0095824,-0.0009323,0.002595,-4.3809,0.0037484,0.0092689,2.1837e-08,0.72,0.18,0
0.034783,0.0065096,0.0099375,-0.00030247,0.0028905,-0.00051126,0,0,0.054966,-0.024905,0,-0.0079757,0,0,0,0.0099629,-0.00032793,0.0028905,-2.8512,0.0041752,0.0091181,2.3215e-08,0.74,0.18,0
0.035877,0.0071104,0.010059,4.8321e-05,0.0030321,-0.00027447,0,0,0.054807,-0.023273,0,-0.0042817,0,0,0,0.010066,4.0801e-05,0.0030321,-1.5694,0.0043797,0.0089144,2.3054e-08,0.76,0.18,0
0.036976,0.0076743,0.010248,0.00040842,0.0031969,-0.00022196,0,0,0.054999,-0.02175,0,-0.0034626,0,0,0,0.010253,0.00040341,0.0031969,-1.2916,0.0046178,0.0087923,2.3397e-08,0.78,0.18,0
0.038077,0.0081813,0.010393,0.00056637,0.0032877,-0.00024661,0,0,0.055418,-0.021226,0,-0.0038472,0,0,0,0.010399,0.00056018,0.0032877,-1.4368,0.0047489,0.0087978,2.3976e-08,0.8,0.18,0
0.039192,0.0086163,0.010554,0.00058542,0.003342,-0.00030092,0,0,0.056257,-0.021501,0,-0.0046944,0,0,0,0.010563,0.00057634,0.003342,-1.7274,0.0048273,0.0089315,2.5112e-08,0.82,0.18,0
0.040327,0.0089809,0.010711,0.00050757,0.0033657,-0.00033821,0,0,0.057296,-0.022293,0,-0.0052761,0,0,0,0.010723,0.00049637,0.0033657,-1.8963,0.0048615,0.009136,2.6535e-08,0.84,0.18,0
0.041484,0.0092818,0.010857,0.00039052,0.0033743,-0.00034883,0,0,0.058365,-0.023273,0,-0.0054418,0,0,0,0.010869,0.00037891,0.0033743,-1.9068,0.0048739,0.0093587,2.8019e-08,0.86,0.18,0
0.042662,0.0095272,0.01098,0.00026236,0.0033728,-0.00033525,0,0,0.059339,-0.024261,0,-0.0052299,0,0,0,0.010991,0.00025188,0.0033728,-1.7898,0.0048718,0.0095681,2.9382e-08,0.88,0.18,0
0.043858,0.0097241,0.011079,0.00013891,0.0033655,-0.00030302,0,0,0.060168,-0.025167,0,-0.0047271,0,0,0,0.011088,0.00013053,0.0033655,-1.5853,0.0048613,0.0097509,3.0549e-08,0.9,0.18,0
0.045068,0.0098782,0.011156,2.9951e-05,0.0033557,-0.00025687,0,0,0.060841,-0.025941,0,-0.0040072,0,0,0,0.011162,2.4024e-05,0.0033557,-1.3219,0.0048472,0.0099016,3.1495e-08,0.92,0.18,0
0.046291,0.0099938,0.011212,-5.8687e-05,0.0033461,-0.00020061,0,0,0.061356,-0.026557,0,-0.0031295,0,0,0,0.011216,-6.2257e-05,0.0033461,-1.0194,0.0048332,0.010019,3.2218e-08,0.94,0.18,0
0.047523,0.010074,0.011251,-0.00012365,0.0033381,-0.00013735,0,0,0.061718,-0.027002,0,-0.0021427,0,0,0,0.011252,-0.00012531,0.0033381,-0.69175,0.0048217,0.010101,3.2725e-08,0.96,0.18,0
0.04876,0.010122,0.011273,-0.00016318,0.0033329,-6.9725e-05,0,0,0.061933,-0.02727,0,-0.0010877,0,0,0,0.011274,-0.0001636,0.0033329,-0.34931,0.0048143,0.010151,3.3024e-08,0.98,0.18,0
0.05,0.010137,0.01128,-0.00017643,0.0033312,5.0164e-05,0,0,0.062004,-0.027359,0,0.00078255,0,0,0,0.011281,-0.00017665,0.0033312,0.25086,0.0048117,0.010168,3.3125e-08,1,0.18,0
0,0,0.010895,0.0046693,0.0046693,0.0021586,0,0,0.048561,-5.421e-19,0,0.033674,0,0,0,0.01157,0.0039941,0.0046693,17.369,0.0067446,0.0072622,1.9099e-08,0,0.2,0
0.00097122,0.00067348,0.01085,0.0041377,0.0044964,0.0021527,0,0,0.049561,-0.002798,0,0.033582,0,0,0,0.011481,0.0035067,0.0044964,16.337,0.0064948,0.0075288,2.0647e-08,0.02,0.2,0
0.0019824,0.0013309,0.011024,0.00369,0.0044141,0.0021156,0,0,0.051555,-0.0056484,0,0.033004,0,0,0,0.01159,0.0031234,0.0044141,14.992,0.006376,0.007901,2.307e-08,0.04,0.2,0
0.0030334,0.0019694,0.01119,0.0032439,0.0043302,0.0020643,0,0,0.053507,-0.008473,0,0.032203,0,0,0,0.011694,0.0027397,0.0043302,13.727,0.0062548,0.0082749,2.5515e-08,0.06,0.2,0
0.0041227,0.0025842,0.011344,0.0028139,0.0042473,0.0019951,0,0,0.055352,-0.01118,0,0.031123,0,0,0,0.011787,0.0023703,0.0042473,12.535,0.006135,0.0086329,2.7851e-08,0.08,0.2,0
0.0052475,0.0031697,0.011479,0.0024132,0.0041677,0.0019091,0,0,0.05703,-0.013686,0,0.029782,0,0,0,0.011865,0.0020275,0.0041677,11.419,0.0060201,0.0089611,2.9971e-08,0.1,0.2,0
0.006404,0.0037205,0.011594,0.0020518,0.0040936,0.0018108,0,0,0.0585,-0.015926,0,0.028248,0,0,0,0.011926,0.0017197,0.0040936,10.392,0.005913,0.0092504,3.1806e-08,0.12,0.2,0
0.0075875,0.0042321,0.011685,0.0017363,0.0040264,0.0017059,0,0,0.059737,-0.017863,0,0.026612,0,0,0,0.011969,0.0014519,0.0040264,9.4644,0.0058159,0.0094957,3.332e-08,0.14,0.2,0
0.0087934,0.0047006,0.011754,0.0014696,0.003967,0.0016004,0,0,0.060737,-0.01948,0,0.024966,0,0,0,0.011997,0.0012263,0.003967,8.6438,0.0057301,0.0096954,3.4504e-08,0.16,0.2,0
0.010017,0.0051234,0.011801,0.0012523,0.003916,0.0014991,0,0,0.061503,-0.020777,0,0.023386,0,0,0,0.01201,0.0010434,0.003916,7.9331,0.0056564,0.0098496,3.5369e-08,0.18,0.2,0
0.011254,0.0054985,0.011829,0.0010835,0.0038736,0.0014057,0,0,0.062048,-0.021763,0,0.021928,0,0,0,0.012009,0.00090262,0.0038736,7.331,0.0055952,0.0099593,3.5929e-08,0.2,0.2,0
0.012499,0.0058242,0.011838,0.00096132,0.0038397,0.0013223,0,0,0.062384,-0.022451,0,0.020627,0,0,0,0.011996,0.00080288,0.0038397,6.833,0.0055462,0.010026,3.6199e-08,0.22,0.2,0
0.013749,0.0060992,0.011829,0.00088374,0.0038138,0.0012497,0,0,0.062518,-0.022854,0,0.019496,0,0,0,0.01197,0.00074285,0.0038138,6.4319,0.0055088,0.01005,3.6189e-08,0.24,0.2,0
0.015,0.0063218,0.011802,0.00084819,0.0037951,0.0011877,0,0,0.062455,-0.022986,0,0.018528,0,0,0,0.011929,0.00072088,0.0037951,6.1178,0.0054818,0.010031,3.59e-08,0.26,0.2,0
0.016247,0.0064898,0.011756,0.00085151,0.0037822,0.0011345,0,0,0.062193,-0.022859,0,0.017698,0,0,0,0.011872,0.00073472,0.0037822,5.8775,0.0054631,0.0099697,3.5322e-08,0.28,0.2,0
0.017487,0.0066,0.011686,0.00088923,0.0037726,0.0010869,0,0,0.061726,-0.022491,0,0.016956,0,0,0,0.011795,0.00078089,0.0037726,5.6918,0.0054494,0.0098641,3.4438e-08,0.3,0.2,0
0.018716,0.0066476,0.011589,0.00095422,0.003763,0.0010392,0,0,0.061043,-0.021908,0,0.016211,0,0,0,0.01169,0.00085363,0.003763,5.529,0.0054354,0.0097137,3.3228e-08,0.32,0.2,0
0.019929,0.0066252,0.011458,0.0010338,0.0037477,0.00098128,0,0,0.060144,-0.021168,0,0.015308,0,0,0,0.01155,0.00094228,0.0037477,5.3309,0.0054134,0.0095203,3.1688e-08,0.34,0.2,0
0.021122,0.0065218,0.011301,0.0011062,0.0037221,0.00089599,0,0,0.059115,-0.020404,0,0.013977,0,0,0,0.011379,0.001028,0.0037221,4.9847,0.0053764,0.0093014,2.9939e-08,0.36,0.2,0
0.022294,0.0063217,0.011158,0.0011183,0.0036829,0.00077475,0,0,0.058305,-0.020004,0,0.012086,0,0,0,0.011217,0.0010589,0.0036829,4.3868,0.0053197,0.0091337,2.8519e-08,0.38,0.2,0
0.023454,0.0060158,0.010994,0.00088109,0.0035625,0.00063892,0,0,0.057966,-0.020915,0,0.0099671,0,0,0,0.011034,0.00084089,0.0035625,3.6008,0.0051459,0.0091416,2.7829e-08,0.4,0.2,0
0.024612,0.0056041,0.010946,0.00045322,0.0034197,0.00064606,0,0,0.058702,-0.023138,0,0.010079,0,0,0,0.010985,0.00041359,0.0034197,3.5103,0.0049395,0.0094349,2.8834e-08,0.42,0.2,0
0.025802,0.0051433,0.010608,-0.00039165,0.0030651,0.00073865,0,0,0.058839,-0.026962,0,0.011523,0,0,0,0.010658,-0.00044103,0.0030651,3.8245,0.0044273,0.0098268,2.865e-08,0.44,0.2,0
0.026966,0.0046319,0.011205,-0.0005753,0.003189,0.0013034,0,0,0.062526,-0.029361,0,0.020333,0,0,0,0.011348,-0.00071779,0.003189,6.2387,0.0046063,0.010663,3.5271e-08,0.46,0.2,0
0.028303,0.0041806,0.014429,-0.00066068,0.0041305,0.0013352,0,0,0.034509,-0.015309,0,0.012195,0,0,0,0.014566,-0.00079771,0.0041305,5.8399,0.0059662,0.013588,1.0221e-07,0.48,0.2,0
0.02867,0.0041724,0.0086353,-0.0014671,0.0021504,0.00054113,0,0,0.016067,-0.0088222,0,0.005565,0,0,0,0.0086961,-0.0015279,0.0021504,5.6333,0.0031062,0.0089695,3.722e-08,0.5,0.2,0
0.028901,0.0041556,0.013387,-0.00025274,0.0039403,0.00066303,0,0,0.012281,-0.005451,0,0.0017239,0,0,0,0.013419,-0.00028489,0.0039403,2.7764,0.0056916,0.012155,5.608e-08,0.52,0.2,0
0.029161,0.0041486,0.015069,0.00035222,0.0046263,0.00044752,0,0,0.013575,-0.0055563,0,0.0011636,0,0,0,0.015083,0.00033863,0.0046263,1.7402,0.0066825,0.013136,7.5971e-08,0.54,0.2,0
0.029444,0.0041658,0.016065,0.00068585,0.0050254,0.00028575,0,0,0.014352,-0.0056414,0,0.00074294,0,0,0,0.016071,0.00068054,0.0050254,1.064,0.0072589,0.013743,8.9769e-08,0.56,0.2,0
0.029735,0.0041991,0.016413,0.00078637,0.0051598,6.5767e-05,0,0,0.014629,-0.0056855,0,0.00017099,0,0,0,0.016413,0.0007861,0.0051598,0.24113,0.0074531,0.013964,9.4985e-08,0.58,0.2,0
0.030029,0.004248,0.016401,0.00076826,0.0051507,-0.00015252,0,0,0.014625,-0.0056972,0,-0.00039655,0,0,0,0.016402,0.00076677,0.0051507,-0.55894,0.0074399,0.013969,9.4929e-08,0.6,0.2,0
0.03032,0.0043127,0.016027,0.00062882,0.0049967,-0.00036942,0,0,0.014339,-0.0056782,0,-0.00096049,0,0,0,0.016036,0.00061996,0.0049967,-1.3736,0.0072174,0.01376,8.9581e-08,0.62,0.2,0
0.030603,0.0043942,0.014993,0.00024393,0.0045711,-0.00052144,0,0,0.013549,-0.0056253,0,-0.0013557,0,0,0,0.015012,0.00022552,0.0045711,-2.0222,0.0066027,0.013163,7.5538e-08,0.64,0.2,0
0.030862,0.0045015,0.01328,-0.00042734,0.0038559,-0.00073066,0,0,0.012252,-0.0055682,0,-0.0018997,0,0,0,0.013319,-0.00046618,0.0038559,-3.0425,0.0055696,0.012212,5.558e-08,0.66,0.2,0
0.031093,0.0046201,0.0085336,-0.0017067,0.0020481,-0.00057984,0,0,0.016082,-0.0091823,0,-0.0057963,0,0,0,0.0085984,-0.0017715,0.0020481,-5.7863,0.0029583,0.0090838,3.6443e-08,0.68,0.2,0
0.03146,0.0047325,0.014273,-0.001103,0.003951,-0.0013098,0,0,0.034609,-0.016165,0,-0.01184,0,0,0,0.014401,-0.0012312,0.003951,-5.6011,0.005707,0.013792,1.0127e-07,0.7,0.2,0
0.032802,0.005322,0.0111,-0.00097224,0.0030384,-0.0012059,0,0,0.062882,-0.031283,0,-0.018812,0,0,0,0.01122,-0.0010915,0.0030384,-5.6488,0.0043888,0.010852,3.505e-08,0.72,0.2,0
0.033975,0.0059858,0.010508,-0.0008092,0.0029097,-0.00058467,0,0,0.059269,-0.029008,0,-0.0091209,0,0,0,0.010538,-0.00083933,0.0029097,-2.9495,0.0042029,0.010042,2.8644e-08,0.74,0.2,0
0.035173,0.0066216,0.010818,6.8821e-07,0.0032456,-0.00041323,0,0,0.059064,-0.02531,0,-0.0064464,0,0,0,0.010834,-1.5075e-05,0.0032456,-2.1845,0.0046881,0.0096412,2.8908e-08,0.76,0.2,0
0.036338,0.0072282,0.010852,0.00042851,0.003384,-0.00033554,0,0,0.058247,-0.023053,0,-0.0052344,0,0,0,0.010862,0.00041772,0.003384,-1.8419,0.004888,0.0093224,2.785e-08,0.78,0.2,0
0.037503,0.0077476,0.010995,0.00065834,0.0034959,-0.00040533,0,0,0.05849,-0.022133,0,-0.0063232,0,0,0,0.01101,0.00064247,0.0034959,-2.2423,0.0050496,0.0092764,2.83e-08,0.8,0.2,0
0.038677,0.0081771,0.011124,0.00062707,0.0035252,-0.00046525,0,0,0.059268,-0.022605,0,-0.0072579,0,0,0,0.011144,0.00060649,0.0035252,-2.533,0.005092,0.0094237,2.9491e-08,0.82,0.2,0
0.039873,0.0085241,0.011273,0.00051443,0.0035363,-0.00048613,0,0,0.060348,-0.023571,0,-0.0075835,0,0,0,0.011295,0.00049251,0.0035363,-2.5818,0.005108,0.0096478,3.112e-08,0.84,0.2,0
0.041091,0.0088041,0.011403,0.0003736,0.003533,-0.00047114,0,0,0.061387,-0.024644,0,-0.0073498,0,0,0,0.011423,0.00035351,0.003533,-2.4415,0.0051033,0.0098718,3.2683e-08,0.86,0.2,0
0.042329,0.0090288,0.011506,0.00022687,0.0035198,-0.00043289,0,0,0.062291,-0.025685,0,-0.0067532,0,0,0,0.011522,0.00021028,0.0035198,-2.1947,0.0050842,0.010074,3.4037e-08,0.88,0.2,0
0.043583,0.009207,0.011585,8.9291e-05,0.0035023,-0.00037875,0,0,0.063046,-0.026622,0,-0.0059086,0,0,0,0.011598,7.6826e-05,0.0035023,-1.885,0.005059,0.010247,3.516e-08,0.9,0.2,0
0.044851,0.0093452,0.011645,-3.0038e-05,0.0034845,-0.00031347,0,0,0.063652,-0.027413,0,-0.0048902,0,0,0,0.011653,-3.8449e-05,0.0034845,-1.5369,0.0050332,0.010389,3.6053e-08,0.92,0.2,0
0.046129,0.0094483,0.011688,-0.00012585,0.0034687,-0.00024058,0,0,0.064113,-0.028038,0,-0.003753,0,0,0,0.011693,-0.00013075,0.0034687,-1.1661,0.0050104,0.010498,3.6725e-08,0.94,0.2,0
0.047415,0.0095197,0.011717,-0.00019544,0.0034566,-0.00016276,0,0,0.064435,-0.028486,0,-0.002539,0,0,0,0.01172,-0.00019766,0.0034566,-0.78259,0.0049929,0.010575,3.7192e-08,0.96,0.2,0
0.048706,0.0095616,0.011734,-0.00023752,0.003449,-8.2042e-05,0,0,0.064624,-0.028755,0,-0.0012798,0,0,0,0.011735,-0.00023808,0.003449,-0.39262,0.0049819,0.010621,3.7465e-08,0.98,0.2,0
0.05,0.0095754,0.01174,-0.00025159,0.0034464,4.4352e-05,0,0,0.064687,-0.028844,0,0.00069189,0,0,0,0.01174,-0.00025176,0.0034464,0.21192,0.0049781,0.010636,3.7557e-08,1,0.2,0
0,0,0.01097,0.0047013,0.0047013,0.0019792,0,0,0.048893,6.5052e-19,0,0.030875,0,0,0,0.011542,0.0041287,0.0047013,16.136,0.0067907,0.0071445,1.8325e-08,0,0.22,0
0.00097786,0.00061751,0.010924,0.0041673,0.0045273,0.0019745,0,0,0.049892,-0.0028082,0,0.030802,0,0,0,0.011458,0.0036326,0.0045273,15.153,0.0065394,0.0074191,1.9949e-08,0.02,0.22,0
0.0019957,0.0012186,0.011099,0.0037295,0.0044487,0.001941,0,0,0.051876,-0.0056096,0,0.03028,0,0,0,0.011579,0.0032496,0.0044487,13.889,0.0064259,0.0077997,2.2441e-08,0.04,0.22,0
0.0030529,0.0018016,0.011269,0.0032993,0.0043706,0.0018986,0,0,0.053811,-0.0083565,0,0.029618,0,0,0,0.011699,0.0028701,0.0043706,12.737,0.0063131,0.0081821,2.4973e-08,0.06,0.22,0
0.0041481,0.002363,0.01143,0.002886,0.0042948,0.0018436,0,0,0.055654,-0.010988,0,0.02876,0,0,0,0.011811,0.0025052,0.0042948,11.671,0.0062036,0.0085523,2.7445e-08,0.08,0.22,0
0.0052791,0.002899,0.011577,0.0024992,0.0042229,0.001776,0,0,0.057363,-0.013445,0,0.027705,0,0,0,0.011912,0.0021642,0.0042229,10.684,0.0060997,0.0088991,2.9768e-08,0.1,0.22,0
0.0064426,0.0034051,0.011708,0.0021469,0.0041566,0.0016982,0,0,0.058904,-0.015676,0,0.026492,0,0,0,0.012001,0.0018542,0.0041566,9.7778,0.006004,0.009214,3.1877e-08,0.12,0.22,0
0.0076352,0.0038775,0.011822,0.0018347,0.0040971,0.0016143,0,0,0.060256,-0.017647,0,0.025183,0,0,0,0.012077,0.0015803,0.0040971,8.957,0.005918,0.0094917,3.3729e-08,0.14,0.22,0
0.0088529,0.0043129,0.011918,0.0015662,0.0040454,0.0015288,0,0,0.06141,-0.019338,0,0.02385,0,0,0,0.012139,0.0013452,0.0040454,8.2277,0.0058433,0.0097294,3.5306e-08,0.16,0.22,0
0.010092,0.0047086,0.011997,0.001343,0.0040022,0.0014461,0,0,0.062364,-0.020741,0,0.022559,0,0,0,0.01219,0.0011503,0.0040022,7.5936,0.0057809,0.0099262,3.6604e-08,0.18,0.22,0
0.011347,0.0050625,0.012061,0.0011655,0.0039678,0.0013696,0,0,0.063123,-0.021858,0,0.021365,0,0,0,0.01223,0.00099595,0.0039678,7.0562,0.0057313,0.010082,3.7628e-08,0.2,0.22,0
0.012616,0.005373,0.012109,0.001033,0.0039426,0.0013018,0,0,0.063697,-0.022694,0,0.020308,0,0,0,0.01226,0.00088209,0.0039426,6.6142,0.0056948,0.010198,3.8386e-08,0.22,0.22,0
0.013895,0.0056383,0.012143,0.00094474,0.0039264,0.0012443,0,0,0.064092,-0.023257,0,0.019411,0,0,0,0.01228,0.00080815,0.0039264,6.2645,0.0056715,0.010274,3.8887e-08,0.24,0.22,0
0.01518,0.0058567,0.012164,0.00089917,0.0039191,0.0011975,0,0,0.064313,-0.023555,0,0.018682,0,0,0,0.01229,0.00077327,0.0039191,6.0015,0.0056609,0.010311,3.9131e-08,0.26,0.22,0
0.016468,0.0060257,0.012172,0.00089434,0.0039198,0.001161,0,0,0.064365,-0.023599,0,0.018111,0,0,0,0.01229,0.00077606,0.0039198,5.8172,0.0056619,0.010308,3.9117e-08,0.28,0.22,0
0.017755,0.0061418,0.012164,0.00092718,0.0039273,0.0011328,0,0,0.064244,-0.023401,0,0.017672,0,0,0,0.012277,0.00081411,0.0039273,5.6999,0.0056727,0.010266,3.8832e-08,0.3,0.22,0
0.019038,0.0061998,0.012136,0.0009924,0.0039385,0.0011094,0,0,0.06394,-0.02298,0,0.017306,0,0,0,0.012245,0.00088303,0.0039385,5.6304,0.005689,0.010184,3.8244e-08,0.32,0.22,0
0.020312,0.0061917,0.01208,0.0010807,0.0039482,0.0010833,0,0,0.063428,-0.022367,0,0.016899,0,0,0,0.012186,0.00097501,0.0039482,5.5716,0.0057029,0.010059,3.729e-08,0.34,0.22,0
0.021575,0.0061045,0.011976,0.0011711,0.003944,0.0010369,0,0,0.062646,-0.021629,0,0.016176,0,0,0,0.012074,0.0010725,0.003944,5.4327,0.0056969,0.0098839,3.5844e-08,0.36,0.22,0
0.022818,0.0059161,0.011846,0.0012427,0.0039264,0.00092501,0,0,0.061768,-0.020934,0,0.01443,0,0,0,0.011926,0.0011626,0.0039264,4.9488,0.0056715,0.0096816,3.412e-08,0.38,0.22,0
0.024045,0.0055861,0.011865,0.0011701,0.0039106,0.00076432,0,0,0.062045,-0.021375,0,0.011923,0,0,0,0.011919,0.0011158,0.0039106,4.0671,0.0056486,0.0097127,3.4254e-08,0.4,0.22,0
0.0253,0.0051285,0.011517,0.00016464,0.0035046,0.00062609,0,0,0.0625,-0.026052,0,0.009767,0,0,0,0.011552,0.00013022,0.0035046,3.147,0.0050623,0.010164,3.4568e-08,0.42,0.22,0
0.026545,0.0045505,0.012124,-0.00041473,0.0035129,0.0011012,0,0,0.067169,-0.030635,0,0.017178,0,0,0,0.01222,-0.0005107,0.0035129,4.9809,0.0050742,0.011271,4.3204e-08,0.44,0.22,0
0.027987,0.0040254,0.015689,-0.0002943,0.0046185,0.00075537,0,0,0.037146,-0.016048,0,0.0090055,0,0,0,0.015752,-0.00035661,0.0046185,3.6205,0.0066712,0.014286,1.2608e-07,0.46,0.22,0
0.02838,0.0040041,0.0095675,-0.00058817,0.0026938,-9.2808e-05,0,0,0.017137,-0.0079435,0,0.00092404,0,0,0,0.0095759,-0.00059655,0.0026938,0.77361,0.003891,0.008991,4.6418e-08,0.48,0.22,0
0.028621,0.0040386,0.013517,-0.0013241,0.003658,-0.00047837,0,0,0.012817,-0.0064767,0,-0.0012438,0,0,0,0.013533,-0.0013395,0.003658,-1.8442,0.0052838,0.013109,6.1588e-08,0.5,0.22,0
0.028893,0.0040482,0.01474,5.3875e-05,0.0044383,-0.0004038,0,0,0.013393,-0.0056997,0,-0.0010499,0,0,0,0.014752,4.2781e-05,0.0044383,-1.5737,0.0064109,0.013077,7.2644e-08,0.52,0.22,0
0.029157,0.0040457,0.014841,0.00062979,0.0046412,-0.00025641,0,0,0.01326,-0.0052148,0,-0.00066668,0,0,0,0.014845,0.00062517,0.0046412,-1.0334,0.0067039,0.012698,7.0781e-08,0.54,0.22,0
0.029424,0.0040605,0.015121,0.0008122,0.00478,-9.3245e-05,0,0,0.013443,-0.0051581,0,-0.00024244,0,0,0,0.015122,0.0008116,0.00478,-0.37335,0.0069044,0.012796,7.3747e-08,0.56,0.22,0
0.029695,0.0040928,0.015336,0.00090821,0.0048733,-3.8393e-05,0,0,0.013602,-0.0051546,0,-9.9823e-05,0,0,0,0.015336,0.00090811,0.0048733,-0.15246,0.0070392,0.012911,7.6394e-08,0.58,0.22,0
0.029968,0.0041415,0.015317,0.0008875,0.0048613,-1.8833e-05,0,0,0.013592,-0.0051659,0,-4.8967e-05,0,0,0,0.015317,0.00088748,0.0048613,-0.074784,0.0070218,0.01291,7.6226e-08,0.6,0.22,0
0.030239,0.0042067,0.015061,0.00074759,0.0047425,4.2533e-05,0,0,0.013414,-0.0051934,0,0.00011058,0,0,0,0.015061,0.00074747,0.0047425,0.17025,0.0068503,0.012793,7.3232e-08,0.62,0.22,0
0.030504,0.0042901,0.014742,0.00051525,0.0045773,0.00021785,0,0,0.013215,-0.0052806,0,0.00056642,0,0,0,0.014746,0.00051192,0.0045773,0.87707,0.0066116,0.012699,6.9984e-08,0.64,0.22,0
0.030767,0.0043917,0.014602,-0.00014442,0.0043372,0.00038094,0,0,0.013344,-0.0058262,0,0.00099045,0,0,0,0.014612,-0.00015426,0.0043372,1.4788,0.0062649,0.013111,7.1612e-08,0.66,0.22,0
0.031038,0.004482,0.013351,-0.0016336,0.0035152,0.00044872,0,0,0.012786,-0.0066934,0,0.0011667,0,0,0,0.013364,-0.001647,0.0035152,1.7137,0.0050775,0.01321,6.0364e-08,0.68,0.22,0
0.031279,0.0045465,0.009446,-0.00086774,0.0025735,8.7809e-05,0,0,0.017141,-0.0083496,0,-0.00093391,0,0,0,0.009454,-0.00087574,0.0025735,-0.77348,0.0037173,0.0091091,4.5751e-08,0.7,0.22,0
0.031672,0.0046719,0.015452,-0.00089929,0.004366,-0.00066503,0,0,0.037235,-0.017201,0,-0.0081299,0,0,0,0.015502,-0.000949,0.004366,-3.1694,0.0063064,0.014542,1.245e-07,0.72,0.22,0
0.033119,0.0053493,0.011973,-0.00095359,0.0033057,-0.0009301,0,0,0.067602,-0.033223,0,-0.01451,0,0,0,0.012039,-0.0010202,0.0033057,-4.0946,0.0047749,0.011522,4.2884e-08,0.74,0.22,0
0.034377,0.006098,0.01139,-0.00036043,0.0033088,-0.00038208,0,0,0.063031,-0.02862,0,-0.0059604,0,0,0,0.011402,-0.00037285,0.0033088,-1.8605,0.0047793,0.010433,3.4791e-08,0.76,0.22,0
0.03564,0.0067522,0.011717,0.00064723,0.0037093,-0.0004388,0,0,0.062461,-0.023884,0,-0.0068452,0,0,0,0.011735,0.00062987,0.0037093,-2.2664,0.0053579,0.0099298,3.4462e-08,0.78,0.22,0
0.036875,0.007296,0.011694,0.00073151,0.0037275,-0.00054345,0,0,0.062135,-0.023369,0,-0.0084779,0,0,0,0.011721,0.00070463,0.0037275,-2.8312,0.0053842,0.0098583,3.406e-08,0.8,0.22,0
0.038125,0.007712,0.01182,0.00063692,0.0037369,-0.00060314,0,0,0.063044,-0.02418,0,-0.0094091,0,0,0,0.011852,0.00060448,0.0037369,-3.0784,0.0053978,0.010054,3.5626e-08,0.82,0.22,0
0.039397,0.0080381,0.011935,0.00050072,0.0037309,-0.00059535,0,0,0.063996,-0.025195,0,-0.0092875,0,0,0,0.011966,0.00046981,0.0037309,-2.9724,0.005389,0.010262,3.7199e-08,0.84,0.22,0
0.040685,0.008296,0.012012,0.00033789,0.003705,-0.00055676,0,0,0.064796,-0.026264,0,-0.0086855,0,0,0,0.012039,0.00031139,0.003705,-2.7243,0.0053517,0.010452,3.8482e-08,0.86,0.22,0
0.041989,0.0084998,0.012069,0.0001739,0.0036728,-0.00049991,0,0,0.065488,-0.027291,0,-0.0077987,0,0,0,0.01209,0.00015293,0.0036728,-2.4024,0.0053051,0.010623,3.9562e-08,0.88,0.22,0
0.043305,0.0086592,0.012112,2.356e-05,0.0036405,-0.00042989,0,0,0.066073,-0.028212,0,-0.0067063,0,0,0,0.012127,8.2903e-06,0.0036405,-2.0342,0.0052585,0.010772,4.0454e-08,0.9,0.22,0
0.044632,0.0087816,0.012143,-0.00010419,0.0036118,-0.00035092,0,0,0.066547,-0.028985,0,-0.0054743,0,0,0,0.012153,-0.00011424,0.0036118,-1.6398,0.005217,0.010894,4.1159e-08,0.92,0.22,0
0.045967,0.0088723,0.012166,-0.0002052,0.0035882,-0.0002664,0,0,0.066907,-0.029589,0,-0.0041558,0,0,0,0.012172,-0.00021094,0.0035882,-1.233,0.005183,0.010987,4.1684e-08,0.94,0.22,0
0.047308,0.0089347,0.012181,-0.00027776,0.0035709,-0.00017881,0,0,0.067157,-0.03002,0,-0.0027894,0,0,0,0.012183,-0.00028032,0.0035709,-0.8221,0.005158,0.011053,4.2042e-08,0.96,0.22,0
0.048653,0.0089713,0.012189,-0.00032133,0.0035603,-8.9704e-05,0,0,0.067304,-0.030277,0,-0.0013994,0,0,0,0.01219,-0.00032197,0.0035603,-0.4108,0.0051427,0.011092,4.225e-08,0.98,0.22,0
0.05,0.0089834,0.012192,-0.00033585,0.0035567,3.8678e-05,0,0,0.067352,-0.030362,0,0.00060338,0,0,0,0.012192,-0.00033597,0.0035567,0.1769,0.0051375,0.011105,4.2319e-08,1,0.22,0
0,0,0.011047,0.0047342,0.0047342,0.0017986,0,0,0.049236,8.6736e-19,0,0.028058,0,0,0,0.011523,0.0042577,0.0047342,14.839,0.0068383,0.0070391,1.7637e-08,0,0.24,0
0.00098472,0.00056115,0.011,0.0041956,0.0045585,0.0017947,0,0,0.050239,-0.0028309,0,0.027998,0,0,0,0.011444,0.0037512,0.0045585,13.907,0.0065845,0.0073224,1.9341e-08,0.02,0.24,0
0.0020096,0.0011065,0.011178,0.0037635,0.0044824,0.0017646,0,0,0.052224,-0.0056074,0,0.027529,0,0,0,0.011576,0.0033649,0.0044824,12.727,0.0064746,0.0077137,2.1914e-08,0.04,0.24,0
0.0030737,0.0016352,0.011351,0.003344,0.0044086,0.0017289,0,0,0.054153,-0.0083036,0,0.026971,0,0,0,0.011709,0.0029867,0.0044086,11.678,0.006368,0.0081051,2.4533e-08,0.06,0.24,0
0.0041757,0.0021447,0.011518,0.0029432,0.0043382,0.0016842,0,0,0.055999,-0.010882,0,0.026274,0,0,0,0.011837,0.0026242,0.0043382,10.724,0.0062664,0.0084862,2.7122e-08,0.08,0.24,0
0.0053137,0.0026319,0.011675,0.0025675,0.0042726,0.0016298,0,0,0.057735,-0.0133,0,0.025426,0,0,0,0.011957,0.0022846,0.0042726,9.847,0.0061715,0.0088479,2.961e-08,0.1,0.24,0
0.0064851,0.0030935,0.01182,0.0022231,0.0042129,0.0015672,0,0,0.059335,-0.01552,0,0.024448,0,0,0,0.012069,0.0019736,0.0042129,9.0438,0.0060853,0.0091832,3.1943e-08,0.12,0.24,0
0.007687,0.0035262,0.011953,0.0019147,0.0041602,0.0014991,0,0,0.060782,-0.017515,0,0.023386,0,0,0,0.012172,0.0016956,0.0041602,8.3151,0.0060092,0.0094872,3.408e-08,0.14,0.24,0
0.0089163,0.0039271,0.012073,0.0016458,0.0041156,0.0014291,0,0,0.062066,-0.019265,0,0.022294,0,0,0,0.012265,0.0014534,0.0041156,7.6645,0.0059447,0.0097569,3.6002e-08,0.16,0.24,0
0.01017,0.0042938,0.012181,0.0014184,0.0040797,0.0013607,0,0,0.063186,-0.020758,0,0.021227,0,0,0,0.01235,0.001249,0.0040797,7.0955,0.0058928,0.0099909,3.7697e-08,0.18,0.24,0
0.011444,0.0046241,0.012277,0.0012338,0.0040532,0.0012972,0,0,0.064144,-0.021991,0,0.020236,0,0,0,0.012427,0.0010834,0.0040532,6.6104,0.0058546,0.010189,3.9167e-08,0.2,0.24,0
0.012736,0.0049164,0.012363,0.0010923,0.0040366,0.001241,0,0,0.064946,-0.022966,0,0.019359,0,0,0,0.012498,0.00095726,0.0040366,6.2095,0.0058306,0.010351,4.0418e-08,0.22,0.24,0
0.014042,0.0051689,0.012441,0.00099407,0.0040305,0.0011938,0,0,0.065601,-0.023684,0,0.018624,0,0,0,0.012564,0.00087088,0.0040305,5.8911,0.0058218,0.010477,4.146e-08,0.24,0.24,0
0.015359,0.0053796,0.012512,0.00093881,0.0040353,0.0011564,0,0,0.066119,-0.024153,0,0.01804,0,0,0,0.012627,0.00082439,0.0040353,5.6506,0.0058287,0.010569,4.2303e-08,0.26,0.24,0
0.016686,0.0055459,0.012579,0.0009258,0.0040514,0.0011284,0,0,0.066514,-0.024379,0,0.017603,0,0,0,0.012687,0.00081753,0.0040514,5.4804,0.005852,0.010628,4.2961e-08,0.28,0.24,0
0.01802,0.005664,0.012644,0.00095355,0.0040791,0.0011083,0,0,0.066802,-0.024379,0,0.017289,0,0,0,0.012748,0.0008494,0.0040791,5.3684,0.005892,0.010657,4.3455e-08,0.3,0.24,0
0.019359,0.0057284,0.012709,0.0010192,0.0041185,0.0010934,0,0,0.067007,-0.024175,0,0.017056,0,0,0,0.012811,0.0009178,0.0041185,5.2976,0.005949,0.010659,4.3814e-08,0.32,0.24,0
0.0207,0.0057305,0.012777,0.0011165,0.0041681,0.0010788,0,0,0.067151,-0.023803,0,0.016828,0,0,0,0.012876,0.0010175,0.0041681,5.2413,0.0060206,0.010639,4.4055e-08,0.34,0.24,0
0.022045,0.0056567,0.01284,0.0012335,0.0042221,0.0010566,0,0,0.067222,-0.023311,0,0.016482,0,0,0,0.012936,0.0011381,0.0042221,5.1591,0.0060986,0.010598,4.4127e-08,0.36,0.24,0
0.023389,0.0054843,0.012805,0.0013084,0.004234,0.00099218,0,0,0.066854,-0.02282,0,0.015478,0,0,0,0.01289,0.0012234,0.004234,4.8964,0.0061158,0.010491,4.3244e-08,0.38,0.24,0
0.024719,0.0051608,0.012706,0.0013432,0.0042149,0.00077101,0,0,0.066234,-0.022399,0,0.012028,0,0,0,0.012758,0.0012911,0.0042149,3.864,0.0060881,0.010321,4.156e-08,0.4,0.24,0
0.026039,0.0045621,0.013326,0.00039093,0.004115,0.00088349,0,0,0.071844,-0.029048,0,0.013782,0,0,0,0.013386,0.00033086,0.004115,3.8894,0.0059439,0.011634,5.2971e-08,0.42,0.24,0
0.027592,0.0039178,0.01733,-0.00026112,0.0051207,0.00027706,0,0,0.040495,-0.017162,0,0.0062099,0,0,0,0.017365,-0.00029596,0.0051207,1.9019,0.0073965,0.015672,1.7176e-07,0.44,0.24,0
0.02803,0.0038472,0.0107,-0.00014598,0.0031663,-0.00049227,0,0,0.018917,-0.0080181,0,-0.001845,0,0,0,0.010724,-0.00016959,0.0031663,-2.0745,0.0045736,0.0096678,6.2024e-08,0.46,0.24,0
0.02829,0.0038805,0.014756,-0.00054193,0.0042642,-0.00069388,0,0,0.013639,-0.006248,0,-0.0018041,0,0,0,0.014787,-0.00057334,0.0042642,-2.5917,0.0061594,0.013603,7.6335e-08,0.48,0.24,0
0.028576,0.0039134,0.015212,-0.00052722,0.0044054,-0.0004497,0,0,0.014048,-0.0064124,0,-0.0011692,0,0,0,0.015225,-0.00054006,0.0044054,-1.6353,0.0063633,0.013965,8.3047e-08,0.5,0.24,0
0.028851,0.0039276,0.014905,-0.00023223,0.0044019,-0.00057129,0,0,0.013654,-0.0060244,0,-0.0014854,0,0,0,0.014927,-0.00025376,0.0044019,-2.1583,0.0063583,0.01347,7.6852e-08,0.52,0.24,0
0.029122,0.00394,0.014903,0.00045135,0.0046063,-0.00045473,0,0,0.013386,-0.0054014,0,-0.0011823,0,0,0,0.014917,0.00043705,0.0046063,-1.8005,0.0066535,0.012911,7.2921e-08,0.54,0.24,0
0.029387,0.0039595,0.014834,0.00076387,0.0046793,-0.00027044,0,0,0.013201,-0.0050901,0,-0.00070314,0,0,0,0.014839,0.00075868,0.0046793,-1.1007,0.006759,0.012587,6.9911e-08,0.56,0.24,0
0.02965,0.0039929,0.014829,0.00087423,0.0047111,-9.2162e-05,0,0,0.013154,-0.0049879,0,-0.00023962,0,0,0,0.01483,0.00087362,0.0047111,-0.37837,0.0068049,0.012488,6.9103e-08,0.58,0.24,0
0.029913,0.0040413,0.014809,0.00084964,0.0046977,7.1949e-05,0,0,0.013145,-0.0050025,0,0.00018707,0,0,0,0.01481,0.00084927,0.0046977,0.29529,0.0067856,0.012489,6.8958e-08,0.6,0.24,0
0.030176,0.0041049,0.014774,0.0006887,0.0046388,0.00025928,0,0,0.013176,-0.0051351,0,0.00067413,0,0,0,0.014779,0.00068393,0.0046388,1.0542,0.0067005,0.012592,6.9477e-08,0.62,0.24,0
0.03044,0.0041829,0.014802,0.00031713,0.0045356,0.00045896,0,0,0.013346,-0.005484,0,0.0011933,0,0,0,0.014816,0.0003026,0.0045356,1.8131,0.0065514,0.012928,7.2182e-08,0.64,0.24,0
0.03071,0.0042685,0.014764,-0.00044072,0.0042969,0.00058679,0,0,0.013607,-0.0061589,0,0.0015256,0,0,0,0.014786,-0.00046334,0.0042969,2.2069,0.0062066,0.013514,7.5774e-08,0.66,0.24,0
0.030984,0.0043523,0.015023,-0.0008386,0.0042552,0.0004674,0,0,0.013998,-0.0066219,0,0.0012152,0,0,0,0.015036,-0.00085236,0.0042552,1.6865,0.0061464,0.014049,8.1586e-08,0.68,0.24,0
0.03127,0.0044176,0.014565,-0.00093407,0.0040892,0.00068843,0,0,0.013618,-0.0065302,0,0.0017899,0,0,0,0.014595,-0.00096459,0.0040892,2.5383,0.0059066,0.013748,7.5231e-08,0.7,0.24,0
0.031529,0.0044809,0.010569,-0.00050995,0.0030177,0.00051627,0,0,0.018971,-0.0085639,0,0.0020212,0,0,0,0.010594,-0.00053501,0.0030177,2.2023,0.0043589,0.0098461,6.1726e-08,0.72,0.24,0
0.031968,0.0046569,0.017043,-0.0010963,0.0047839,-0.00011048,0,0,0.040693,-0.018767,0,-0.0047089,0,0,0,0.017068,-0.0011213,0.0047839,-1.2353,0.0069101,0.016072,1.7051e-07,0.74,0.24,0
0.033531,0.0054768,0.013136,-0.00030452,0.0038493,-0.00061608,0,0,0.072433,-0.0324,0,-0.0096109,0,0,0,0.013164,-0.0003327,0.0038493,-2.6191,0.0055601,0.011967,5.315e-08,0.76,0.24,0
0.034866,0.0062728,0.012576,0.00079548,0.0040116,-0.00043854,0,0,0.066806,-0.025086,0,-0.0068412,0,0,0,0.012593,0.00077918,0.0040116,-2.1289,0.0057945,0.010575,4.2149e-08,0.78,0.24,0
0.036203,0.0068129,0.01265,0.00074601,0.0040187,-0.00060991,0,0,0.067322,-0.025527,0,-0.0095146,0,0,0,0.012681,0.00071484,0.0040187,-2.9254,0.0058049,0.010704,4.3344e-08,0.8,0.24,0
0.037559,0.0072099,0.01271,0.00065919,0.0040107,-0.00063849,0,0,0.067853,-0.026142,0,-0.0099604,0,0,0,0.012744,0.00062546,0.0040107,-3.0244,0.0057933,0.01083,4.4393e-08,0.82,0.24,0
0.038918,0.0075163,0.012678,0.00048823,0.00395,-0.00062009,0,0,0.068081,-0.027002,0,-0.0096735,0,0,0,0.01271,0.00045677,0.00395,-2.9046,0.0057055,0.010933,4.475e-08,0.84,0.24,0
0.040282,0.0077535,0.012655,0.00029756,0.0038856,-0.00058115,0,0,0.068397,-0.027987,0,-0.009066,0,0,0,0.012682,0.00027029,0.0038856,-2.6867,0.0056126,0.011056,4.522e-08,0.86,0.24,0
0.041654,0.0079372,0.012643,0.00011178,0.0038263,-0.0005214,0,0,0.068767,-0.028973,0,-0.0081338,0,0,0,0.012664,9.0117e-05,0.0038263,-2.3785,0.0055269,0.011184,4.5755e-08,0.88,0.24,0
0.043033,0.0080786,0.012638,-5.1692e-05,0.0037758,-0.00044627,0,0,0.069124,-0.029855,0,-0.0069619,0,0,0,0.012653,-6.7368e-05,0.0037758,-2.0117,0.005454,0.0113,4.6253e-08,0.9,0.24,0
0.044418,0.0081859,0.012634,-0.00018664,0.0037344,-0.00036185,0,0,0.069421,-0.030584,0,-0.0056448,0,0,0,0.012645,-0.00019684,0.0037344,-1.6153,0.0053941,0.011396,4.665e-08,0.92,0.24,0
0.04581,0.0082647,0.012631,-0.00029116,0.003702,-0.00027289,0,0,0.069647,-0.031146,0,-0.004257,0,0,0,0.012637,-0.00029692,0.003702,-1.2092,0.0053473,0.01147,4.6936e-08,0.94,0.24,0
0.047204,0.0083189,0.012628,-0.0003652,0.0036787,-0.00018219,0,0,0.069801,-0.031543,0,-0.0028421,0,0,0,0.01263,-0.00036775,0.0036787,-0.8032,0.0053137,0.011521,4.7123e-08,0.96,0.24,0
0.048602,0.0083505,0.012625,-0.00040928,0.0036648,-9.1088e-05,0,0,0.069891,-0.031778,0,-0.001421,0,0,0,0.012626,-0.00040992,0.0036648,-0.40037,0.0052935,0.011551,4.7227e-08,0.98,0.24,0
0.05,0.008361,0.012624,-0.00042391,0.0036601,3.3399e-05,0,0,0.06992,-0.031855,0,0.00052103,0,0,0,0.012624,-0.000424,0.0036601,0.14666,0.0052868,0.011561,4.7262e-08,1,0.24,0
0,0,0.011119,0.0047654,0.0047654,0.0016163,0,0,0.04956,1.0842e-19,0,0.025214,0,0,0,0.011507,0.0043779,0.0047654,13.482,0.0068834,0.0069432,1.7011e-08,0,0.26,0
0.00099121,0.00050427,0.011071,0.0042217,0.0045879,0.0016129,0,0,0.05057,-0.0028564,0,0.025161,0,0,0,0.011432,0.0038609,0.0045879,12.609,0.0066269,0.0072351,1.8791e-08,0.02,0.26,0
0.0020228,0.00099431,0.011252,0.003793,0.0045135,0.0015864,0,0,0.052561,-0.0056203,0,0.024747,0,0,0,0.011575,0.0034696,0.0045135,11.521,0.0065195,0.0076376,2.1448e-08,0.04,0.26,0
0.0030936,0.0014694,0.011429,0.0033812,0.004443,0.0015558,0,0,0.054489,-0.0082819,0,0.02427,0,0,0,0.011719,0.0030909,0.004443,10.569,0.0064176,0.0080378,2.4147e-08,0.06,0.26,0
0.0042023,0.0019278,0.0116,0.0029898,0.0043769,0.0015184,0,0,0.05634,-0.01082,0,0.023686,0,0,0,0.01186,0.0027299,0.0043769,9.7136,0.0063222,0.0084281,2.6832e-08,0.08,0.26,0
0.0053472,0.002367,0.011765,0.0026231,0.0043164,0.0014732,0,0,0.058098,-0.013207,0,0.022982,0,0,0,0.011996,0.0023916,0.0043164,8.9323,0.0062348,0.0088016,2.9453e-08,0.1,0.26,0
0.0065262,0.0027843,0.011922,0.0022856,0.0042623,0.0014211,0,0,0.059745,-0.015418,0,0.022169,0,0,0,0.012127,0.0020804,0.0042623,8.2166,0.0061566,0.0091529,3.1966e-08,0.12,0.26,0
0.007737,0.0031769,0.012071,0.001981,0.0042155,0.001364,0,0,0.06127,-0.017429,0,0.021279,0,0,0,0.012252,0.0017999,0.0042155,7.5651,0.0060891,0.0094779,3.4339e-08,0.14,0.26,0
0.0089771,0.0035423,0.012211,0.0017125,0.0041771,0.0013048,0,0,0.062666,-0.019224,0,0.020355,0,0,0,0.012371,0.0015528,0.0041771,6.9793,0.0060336,0.0097739,3.6553e-08,0.16,0.26,0
0.010244,0.0038783,0.012344,0.0014823,0.0041479,0.0012462,0,0,0.063929,-0.020791,0,0.019441,0,0,0,0.012485,0.0013412,0.0041479,6.462,0.0059914,0.010039,3.8598e-08,0.18,0.26,0
0.011534,0.0041829,0.01247,0.0012921,0.0041286,0.0011911,0,0,0.065062,-0.022125,0,0.018582,0,0,0,0.012596,0.0011666,0.0041286,6.0155,0.0059636,0.010273,4.0475e-08,0.2,0.26,0
0.012846,0.0044544,0.012591,0.0011432,0.0041203,0.0011417,0,0,0.066072,-0.023221,0,0.01781,0,0,0,0.012704,0.0010305,0.0041203,5.6401,0.0059515,0.010476,4.219e-08,0.22,0.26,0
0.014177,0.004691,0.012709,0.0010367,0.0041238,0.0010993,0,0,0.066967,-0.02408,0,0.01715,0,0,0,0.012812,0.00093401,0.0041238,5.3337,0.0059566,0.010648,4.3755e-08,0.24,0.26,0
0.015525,0.0048906,0.012828,0.00097336,0.0041403,0.0010643,0,0,0.067761,-0.024702,0,0.016603,0,0,0,0.012922,0.00087856,0.0041403,5.09,0.0059804,0.010789,4.5187e-08,0.26,0.26,0
0.016887,0.0050505,0.01295,0.00095431,0.0041713,0.0010353,0,0,0.068475,-0.025093,0,0.016151,0,0,0,0.013039,0.00086561,0.0041713,4.8969,0.0060253,0.010903,4.6517e-08,0.28,0.26,0
0.018264,0.0051666,0.013084,0.00098035,0.0042193,0.0010092,0,0,0.069145,-0.025264,0,0.015743,0,0,0,0.013168,0.00089678,0.0042193,4.7337,0.0060945,0.010993,4.7801e-08,0.3,0.26,0
0.019653,0.0052329,0.013241,0.0010521,0.004288,0.0009798,0,0,0.069835,-0.02524,0,0.015285,0,0,0,0.01332,0.00097387,0.004288,4.5665,0.0061938,0.011067,4.9151e-08,0.32,0.26,0
0.021057,0.0052396,0.013445,0.0011712,0.004385,0.00093759,0,0,0.070671,-0.025067,0,0.014627,0,0,0,0.013517,0.0011,0.004385,4.3431,0.0063339,0.011143,5.0799e-08,0.34,0.26,0
0.02248,0.0051721,0.013744,0.0013436,0.0045264,0.00086301,0,0,0.0719,-0.024826,0,0.013463,0,0,0,0.013804,0.0012838,0.0045264,3.9619,0.0065381,0.011255,5.3253e-08,0.36,0.26,0
0.023933,0.0050033,0.014285,0.0016159,0.0047703,0.00072684,0,0,0.074216,-0.024605,0,0.011339,0,0,0,0.014327,0.0015743,0.0047703,3.2727,0.0068905,0.011493,5.8114e-08,0.38,0.26,0
0.025449,0.0046902,0.015369,0.0020888,0.0052374,0.00018882,0,0,0.079027,-0.024559,0,0.0029455,0,0,0,0.015372,0.0020861,0.0052374,0.8144,0.0075651,0.012024,6.9033e-08,0.4,0.26,0
0.027094,0.0039666,0.020951,-0.00029764,0.0061959,0.00077306,0,0,0.045881,-0.018499,0,0.0069098,0,0,0,0.020986,-0.00033271,0.0061959,2.6254,0.0089497,0.018923,3.3528e-07,0.42,0.26,0
0.027648,0.0037193,0.013256,0.00067955,0.0041807,-0.00093042,0,0,0.023333,-0.0086875,0,-0.0064133,0,0,0,0.013333,0.00060295,0.0041807,-5.3223,0.0060388,0.011371,1.069e-07,0.44,0.26,0
0.027941,0.0037225,0.016394,0.00016462,0.0049676,-0.00061713,0,0,0.014854,-0.0062439,0,-0.0016045,0,0,0,0.016418,0.00014119,0.0049676,-2.1745,0.0071754,0.01448,9.9521e-08,0.46,0.26,0
0.028242,0.0037542,0.016037,-0.00019978,0.0047512,-0.0001676,0,0,0.014672,-0.0064363,0,-0.00043577,0,0,0,0.016039,-0.00020151,0.0047512,-0.59134,0.0068629,0.014417,9.491e-08,0.48,0.26,0
0.028528,0.0037821,0.015305,-0.00050071,0.0044414,-0.0002952,0,0,0.014123,-0.0064247,0,-0.00076752,0,0,0,0.015311,-0.00050622,0.0044414,-1.0696,0.0064153,0.014014,8.4269e-08,0.5,0.26,0
0.028807,0.0038072,0.015065,-0.00013121,0.00448,-0.00036717,0,0,0.01376,-0.0059946,0,-0.00095464,0,0,0,0.015074,-0.00014008,0.00448,-1.3833,0.0064712,0.01351,7.8517e-08,0.52,0.26,0
0.029078,0.0038297,0.014829,0.00027682,0.0045319,-0.00037133,0,0,0.013387,-0.0055316,0,-0.00096545,0,0,0,0.014839,0.00026735,0.0045319,-1.4607,0.006546,0.012976,7.2716e-08,0.54,0.26,0
0.029343,0.0038569,0.014696,0.00060581,0.0045907,-0.0002547,0,0,0.013138,-0.0051804,0,-0.00066222,0,0,0,0.014701,0.00060121,0.0045907,-1.0352,0.006631,0.012589,6.8839e-08,0.56,0.26,0
0.029603,0.0038933,0.014618,0.00074058,0.0046075,-8.6465e-05,0,0,0.013013,-0.005027,0,-0.00022481,0,0,0,0.014618,0.00074005,0.0046075,-0.35698,0.0066553,0.012405,6.6879e-08,0.58,0.26,0
0.029863,0.0039414,0.014603,0.00071031,0.0045939,9.8984e-05,0,0,0.013012,-0.0050487,0,0.00025736,0,0,0,0.014604,0.0007096,0.0045939,0.4082,0.0066357,0.012416,6.6845e-08,0.6,0.26,0
0.030124,0.0040013,0.01465,0.00051363,0.004549,0.00027927,0,0,0.013131,-0.005246,0,0.00072611,0,0,0,0.014655,0.00050812,0.004549,1.1313,0.0065708,0.012622,6.8709e-08,0.62,0.26,0
0.030388,0.0040707,0.014745,0.00011931,0.0044594,0.00041579,0,0,0.013372,-0.0056421,0,0.0010811,0,0,0,0.014757,0.0001075,0.0044594,1.6271,0.0064413,0.013031,7.2381e-08,0.64,0.26,0
0.030659,0.0041453,0.014931,-0.00036025,0.0043713,0.00043101,0,0,0.013728,-0.006151,0,0.0011206,0,0,0,0.014943,-0.00037239,0.0043713,1.6132,0.0063141,0.01358,7.7726e-08,0.66,0.26,0
0.030937,0.0042172,0.01512,-0.00079904,0.0042962,0.00036102,0,0,0.014071,-0.0066238,0,0.00093866,0,0,0,0.015128,-0.00080723,0.0042962,1.2985,0.0062056,0.014094,8.2839e-08,0.68,0.26,0
0.031222,0.0042852,0.015804,-0.00058727,0.004565,0.00021645,0,0,0.014611,-0.006698,0,0.00056278,0,0,0,0.015807,-0.00059013,0.004565,0.75644,0.0065939,0.014523,9.3107e-08,0.7,0.26,0
0.031522,0.004349,0.016205,-0.00032239,0.0047649,0.00061685,0,0,0.014873,-0.0066134,0,0.0016038,0,0,0,0.016228,-0.00034538,0.0047649,2.1345,0.0068826,0.014701,9.9186e-08,0.72,0.26,0
0.031816,0.0044401,0.013161,0.00018148,0.0040027,0.00099862,0,0,0.023566,-0.009484,0,0.0069686,0,0,0,0.013247,9.5186e-05,0.0040027,5.5803,0.0057817,0.011699,1.0922e-07,0.74,0.26,0
0.032376,0.004802,0.020663,-0.0014387,0.0057672,-0.00049874,0,0,0.046225,-0.020712,0,-0.0043792,0,0,0,0.020676,-0.0014525,0.0057672,-1.615,0.0083303,0.01955,3.379e-07,0.76,0.26,0
0.03403,0.0057488,0.015199,0.001477,0.0050028,0.00016975,0,0,0.079531,-0.027501,0,0.0026481,0,0,0,0.015201,0.0014749,0.0050028,0.70864,0.0072263,0.012346,7.0711e-08,0.78,0.26,0
0.035557,0.0062749,0.014145,0.0010248,0.0045509,-0.00036428,0,0,0.074834,-0.027504,0,-0.0056827,0,0,0,0.014155,0.0010147,0.0045509,-1.5892,0.0065736,0.011777,5.9105e-08,0.8,0.26,0
0.037024,0.0066664,0.013643,0.00075656,0.0043199,-0.00047962,0,0,0.07272,-0.027794,0,-0.0074821,0,0,0,0.013661,0.00073873,0.0043199,-2.1286,0.0062398,0.011555,5.4345e-08,0.82,0.26,0
0.038466,0.006958,0.013397,0.00051139,0.0041726,-0.00053839,0,0,0.071952,-0.028557,0,-0.0083989,0,0,0,0.01342,0.00048893,0.0041726,-2.3884,0.0060271,0.011539,5.2643e-08,0.84,0.26,0
0.039902,0.0071766,0.013264,0.00026425,0.0040584,-0.00053646,0,0,0.071801,-0.029594,0,-0.0083687,0,0,0,0.013286,0.00024215,0.0040584,-2.3591,0.0058621,0.011616,5.2176e-08,0.86,0.26,0
0.041338,0.0073408,0.013189,4.9232e-05,0.0039715,-0.00049215,0,0,0.071897,-0.030594,0,-0.0076775,0,0,0,0.013208,3.0825e-05,0.0039715,-2.142,0.0057366,0.011714,5.217e-08,0.88,0.26,0
0.042778,0.007465,0.013138,-0.00012876,0.0039027,-0.00042285,0,0,0.072033,-0.031445,0,-0.0065964,0,0,0,0.013151,-0.00014222,0.0039027,-1.8237,0.0056372,0.011803,5.2226e-08,0.9,0.26,0
0.04422,0.0075583,0.013097,-0.00027004,0.0038482,-0.00034194,0,0,0.072144,-0.032122,0,-0.0053342,0,0,0,0.013106,-0.00027878,0.0038482,-1.4643,0.0055585,0.011872,5.2247e-08,0.92,0.26,0
0.045663,0.0076264,0.013066,-0.00037669,0.0038067,-0.00025673,0,0,0.07222,-0.03263,0,-0.0040049,0,0,0,0.013071,-0.00038159,0.0038067,-1.0937,0.0054986,0.011923,5.2231e-08,0.94,0.26,0
0.047108,0.007673,0.013042,-0.00045098,0.0037774,-0.0001707,0,0,0.072266,-0.032981,0,-0.002663,0,0,0,0.013045,-0.00045314,0.0037774,-0.72469,0.0054563,0.011957,5.2198e-08,0.96,0.26,0
0.048554,0.0077002,0.013028,-0.00049476,0.00376,-8.5113e-05,0,0,0.07229,-0.033187,0,-0.0013278,0,0,0,0.013029,-0.0004953,0.00376,-0.36061,0.005431,0.011977,5.2169e-08,0.98,0.26,0
0.05,0.0077092,0.013023,-0.00050922,0.0037542,2.8712e-05,0,0,0.072298,-0.033254,0,0.00044791,0,0,0,0.013023,-0.00050928,0.0037542,0.12157,0.0054227,0.011984,5.2159e-08,1,0.26,0
0,0,0.011183,0.0047926,0.0047926,0.0014324,0,0,0.049843,-2.1684e-19,0,0.022345,0,0,0,0.011489,0.0044862,0.0047926,12.073,0.0069227,0.0068549,1.6432e-08,0,0.28,0
0.00099686,0.0004469,0.011134,0.0042447,0.0046136,0.0014293,0,0,0.050858,-0.0028772,0,0.022297,0,0,0,0.011419,0.0039599,0.0046136,11.268,0.006664,0.0071543,1.8279e-08,0.02,0.28,0
0.0020343,0.00088174,0.011317,0.0038186,0.0045406,0.0014063,0,0,0.052854,-0.0056317,0,0.021938,0,0,0,0.011572,0.0035635,0.0045406,10.281,0.0065586,0.0075672,2.101e-08,0.04,0.28,0
0.003111,0.0013039,0.011496,0.0034129,0.0044726,0.0013797,0,0,0.054781,-0.0082659,0,0.021524,0,0,0,0.011725,0.0031838,0.0044726,9.4248,0.0064604,0.0079751,2.3774e-08,0.06,0.28,0
0.0042256,0.0017119,0.011671,0.0030292,0.0044101,0.0013473,0,0,0.056635,-0.010771,0,0.021018,0,0,0,0.011876,0.002824,0.0044101,8.659,0.0063701,0.0083726,2.6535e-08,0.08,0.28,0
0.0053764,0.0021036,0.011842,0.0026702,0.0043537,0.0013081,0,0,0.058409,-0.013131,0,0.020407,0,0,0,0.012025,0.0024872,0.0043537,7.9604,0.0062886,0.008755,2.9256e-08,0.1,0.28,0
0.0065619,0.0024768,0.012009,0.0023388,0.0043042,0.0012627,0,0,0.060094,-0.01533,0,0.019699,0,0,0,0.012171,0.0021767,0.0043042,7.3186,0.0062172,0.0091183,3.1907e-08,0.12,0.28,0
0.0077802,0.0028291,0.01217,0.0020382,0.0042625,0.0012125,0,0,0.06168,-0.01735,0,0.018916,0,0,0,0.012313,0.0018951,0.0042625,6.7302,0.006157,0.0094594,3.4464e-08,0.14,0.28,0
0.0090291,0.0031582,0.012327,0.0017708,0.0042295,0.0011597,0,0,0.063165,-0.019178,0,0.018091,0,0,0,0.012453,0.0016449,0.0042295,6.1958,0.0061093,0.0097759,3.6915e-08,0.16,0.28,0
0.010307,0.0034621,0.012481,0.0015391,0.0042061,0.0011066,0,0,0.064546,-0.020803,0,0.017263,0,0,0,0.012592,0.0014283,0.0042061,5.7173,0.0060755,0.010067,3.9252e-08,0.18,0.28,0
0.011611,0.0037392,0.012632,0.001345,0.0041932,0.0010555,0,0,0.065826,-0.022217,0,0.016465,0,0,0,0.01273,0.0012471,0.0041932,5.2964,0.0060569,0.01033,4.1477e-08,0.2,0.28,0
0.01294,0.0039876,0.012783,0.0011905,0.0041921,0.0010081,0,0,0.067011,-0.023413,0,0.015727,0,0,0,0.01287,0.0011034,0.0041921,4.9332,0.0060552,0.010567,4.3595e-08,0.22,0.28,0
0.014291,0.0042057,0.012936,0.0010776,0.0042039,0.00096548,0,0,0.068107,-0.024386,0,0.015061,0,0,0,0.013014,0.00099949,0.0042039,4.6244,0.0060724,0.010775,4.5617e-08,0.24,0.28,0
0.015664,0.0043915,0.013093,0.0010089,0.0042305,0.00092701,0,0,0.069125,-0.025128,0,0.014461,0,0,0,0.013163,0.00093815,0.0042305,4.3614,0.0061106,0.010956,4.7558e-08,0.26,0.28,0
0.017056,0.0045422,0.013259,0.00098741,0.0042739,0.00088998,0,0,0.070084,-0.025635,0,0.013884,0,0,0,0.013323,0.0009232,0.0042739,4.1265,0.0061735,0.01111,4.944e-08,0.28,0.28,0
0.018467,0.0046534,0.013442,0.0010173,0.0043378,0.00084818,0,0,0.071013,-0.0259,0,0.013232,0,0,0,0.0135,0.00095969,0.0043378,3.8873,0.0062657,0.011238,5.1309e-08,0.3,0.28,0
0.019897,0.0047188,0.013654,0.0011042,0.0044276,0.00078994,0,0,0.07197,-0.025923,0,0.012323,0,0,0,0.013704,0.0010547,0.0044276,3.5875,0.0063954,0.011345,5.3257e-08,0.32,0.28,0
0.021346,0.0047278,0.01392,0.001257,0.004553,0.00069378,0,0,0.07306,-0.025709,0,0.010823,0,0,0,0.013957,0.0012191,0.004553,3.1267,0.0065765,0.011442,5.5481e-08,0.34,0.28,0
0.022819,0.0046637,0.014278,0.0014936,0.0047314,0.00052235,0,0,0.074461,-0.025255,0,0.0081487,0,0,0,0.014299,0.0014723,0.0047314,2.3359,0.0068342,0.011547,5.8358e-08,0.36,0.28,0
0.024325,0.0045002,0.014781,0.0018608,0.0049925,0.00017829,0,0,0.076349,-0.024427,0,0.0027814,0,0,0,0.014783,0.0018584,0.0049925,0.79047,0.0072114,0.011678,6.2359e-08,0.38,0.28,0
0.025873,0.0041785,0.015,0.0023267,0.0051979,-0.00038261,0,0,0.076454,-0.022396,0,-0.0059687,0,0,0,0.015011,0.0023151,0.0051979,-1.7277,0.0075081,0.011528,6.2412e-08,0.4,0.28,0
0.027383,0.0037094,0.013524,-0.0012813,0.0036729,-0.00015897,0,0,0.044256,-0.011041,0,-0.0070452,0,0,0,0.013584,-0.0013412,0.0036729,-1.5216,0.0053053,0.013354,4.3815e-08,0.42,0.28,0
0.027644,0.0035951,0.015024,-0.00010595,0.0044754,-0.00082252,0,0,0.013713,-0.0059557,0,-0.0021385,0,0,0,0.015069,-0.00015053,0.0044754,-3.1026,0.0064645,0.013514,7.8495e-08,0.44,0.28,0
0.027931,0.0035974,0.015592,-9.8333e-05,0.0046481,0.00018407,0,0,0.014227,-0.0061703,0,0.00047859,0,0,0,0.015594,-0.00010049,0.0046481,0.67205,0.0067139,0.013941,8.6676e-08,0.46,0.28,0
0.028213,0.003623,0.015238,-0.00039419,0.0044532,0.00012742,0,0,0.01402,-0.0063016,0,0.0003313,0,0,0,0.015239,-0.00039523,0.0044532,0.46699,0.0064324,0.013862,8.2517e-08,0.48,0.28,0
0.028492,0.0036564,0.015074,-0.000284,0.0044371,-1.7458e-06,0,0,0.013829,-0.0061375,0,-4.5391e-06,0,0,0,0.015074,-0.000284,0.0044371,-0.0065129,0.0064092,0.013626,7.9303e-08,0.5,0.28,0
0.028766,0.0036878,0.014847,-7.9563e-05,0.0044303,-0.00015934,0,0,0.013542,-0.0058628,0,-0.00041428,0,0,0,0.014849,-8.1264e-05,0.0044303,-0.61151,0.0063993,0.013263,7.4759e-08,0.52,0.28,0
0.029034,0.0037188,0.014691,0.00023077,0.0044764,-0.00021335,0,0,0.013278,-0.0055193,0,-0.00055472,0,0,0,0.014694,0.00022762,0.0044764,-0.84515,0.0064659,0.012878,7.0804e-08,0.54,0.28,0
0.029297,0.0037523,0.014565,0.00047132,0.0045109,-0.00017032,0,0,0.01307,-0.0052514,0,-0.00044284,0,0,0,0.014567,0.00046926,0.0045109,-0.6923,0.0065157,0.012574,6.7671e-08,0.56,0.28,0
0.029557,0.0037918,0.014499,0.00058646,0.0045256,-5.5675e-05,0,0,0.012965,-0.0051209,0,-0.00014475,0,0,0,0.014499,0.00058624,0.0045256,-0.22928,0.006537,0.012421,6.6077e-08,0.58,0.28,0
0.029816,0.0038394,0.014493,0.00054879,0.0045126,8.6883e-05,0,0,0.012975,-0.005153,0,0.00022589,0,0,0,0.014494,0.00054825,0.0045126,0.35697,0.0065182,0.012446,6.6213e-08,0.6,0.28,0
0.030076,0.0038951,0.014546,0.00035803,0.0044712,0.00021714,0,0,0.013097,-0.005347,0,0.00056457,0,0,0,0.014549,0.00035471,0.0044712,0.87663,0.0064583,0.012649,6.8041e-08,0.62,0.28,0
0.030339,0.0039572,0.014648,4.1474e-05,0.004407,0.00028927,0,0,0.013314,-0.0056751,0,0.0007521,0,0,0,0.014654,3.5748e-05,0.004407,1.1341,0.0063656,0.012996,7.125e-08,0.64,0.28,0
0.030608,0.0040224,0.014762,-0.00034176,0.0043261,0.00027163,0,0,0.013567,-0.0060682,0,0.00070624,0,0,0,0.014767,-0.00034664,0.0043261,1.03,0.0062488,0.013403,7.4896e-08,0.66,0.28,0
0.030882,0.0040874,0.014907,-0.00061249,0.0042885,0.00014571,0,0,0.013805,-0.0063713,0,0.00037885,0,0,0,0.014909,-0.00061386,0.0042885,0.53787,0.0061945,0.013744,7.8407e-08,0.68,0.28,0
0.03116,0.0041497,0.014959,-0.00076549,0.0042581,7.1102e-06,0,0,0.013911,-0.0065306,0,1.8486e-05,0,0,0,0.014959,-0.0007655,0.0042581,0.025907,0.0061506,0.013911,7.9938e-08,0.7,0.28,0
0.031439,0.0042164,0.015254,-0.00052055,0.0044201,-0.00011159,0,0,0.014084,-0.0064228,0,-0.00029014,0,0,0,0.015255,-0.00052134,0.0044201,-0.40529,0.0063846,0.013977,8.3439e-08,0.72,0.28,0
0.031724,0.0043046,0.014706,-0.00084917,0.0041572,0.00084517,0,0,0.013714,-0.0065082,0,0.0021975,0,0,0,0.014752,-0.00089496,0.0041572,3.1008,0.0060048,0.013831,7.7319e-08,0.74,0.28,0
0.031987,0.004518,0.01313,-0.0023908,0.0032219,0.00034295,0,0,0.044379,-0.012508,0,0.0094089,0,0,0,0.013215,-0.0024757,0.0032219,2.3609,0.0046539,0.013982,3.5416e-08,0.76,0.28,0
0.033499,0.0051728,0.014751,0.001603,0.0049062,0.0006835,0,0,0.07679,-0.025766,0,0.010663,0,0,0,0.014787,0.0015675,0.0049062,2.9678,0.0070868,0.011906,6.4252e-08,0.78,0.28,0
0.035059,0.0057127,0.014645,0.001293,0.0047814,0.00016752,0,0,0.076936,-0.027209,0,0.0026134,0,0,0,0.014647,0.0012909,0.0047814,0.71873,0.0069064,0.011998,6.4046e-08,0.8,0.28,0
0.036576,0.0060981,0.014203,0.00095127,0.0045462,-0.00022128,0,0,0.075321,-0.02804,0,-0.003452,0,0,0,0.014207,0.00094757,0.0045462,-0.95641,0.0065667,0.011876,6.0142e-08,0.82,0.28,0
0.038072,0.006374,0.013919,0.00055394,0.0043419,-0.00039732,0,0,0.074702,-0.029546,0,-0.0061982,0,0,0,0.013931,0.00054214,0.0043419,-1.7013,0.0062717,0.011951,5.8717e-08,0.84,0.28,0
0.039564,0.0065698,0.013777,0.00023883,0.0042047,-0.00044388,0,0,0.074663,-0.030934,0,-0.0069245,0,0,0,0.013791,0.00022429,0.0042047,-1.8759,0.0060735,0.012079,5.8493e-08,0.86,0.28,0
0.041058,0.0067134,0.013673,-7.9622e-06,0.0040996,-0.00041762,0,0,0.074675,-0.032039,0,-0.0065149,0,0,0,0.013686,-2.0698e-05,0.0040996,-1.7468,0.0059216,0.012181,5.8288e-08,0.88,0.28,0
0.042551,0.0068207,0.013585,-0.00020004,0.0040155,-0.00036002,0,0,0.074643,-0.032882,0,-0.0056163,0,0,0,0.013595,-0.00020944,0.0040155,-1.495,0.0058002,0.012251,5.7963e-08,0.9,0.28,0
0.044044,0.006901,0.013511,-0.00034645,0.0039493,-0.00029018,0,0,0.07458,-0.033507,0,-0.0045268,0,0,0,0.013517,-0.00035253,0.0039493,-1.1991,0.0057046,0.012296,5.7589e-08,0.92,0.28,0
0.045535,0.0069595,0.013451,-0.000454,0.0038992,-0.00021684,0,0,0.074507,-0.033955,0,-0.0033828,0,0,0,0.013455,-0.00045738,0.0038992,-0.89319,0.0056322,0.012325,5.7238e-08,0.94,0.28,0
0.047024,0.0069996,0.013408,-0.00052757,0.0038642,-0.00014359,0,0,0.074443,-0.034256,0,-0.0022399,0,0,0,0.01341,-0.00052905,0.0038642,-0.59026,0.0055816,0.012343,5.696e-08,0.96,0.28,0
0.048512,0.0070231,0.013382,-0.00057045,0.0038434,-7.1395e-05,0,0,0.0744,-0.034428,0,-0.0011138,0,0,0,0.013382,-0.00057082,0.0038434,-0.29318,0.0055516,0.012352,5.6782e-08,0.98,0.28,0
0.05,0.0070308,0.013373,-0.00058454,0.0038366,2.4733e-05,0,0,0.074385,-0.034485,0,0.00038583,0,0,0,0.013373,-0.00058459,0.0038366,0.10153,0.0055417,0.012355,5.6723e-08,1,0.28,0
0,0,0.011233,0.0048141,0.0048141,0.0012474,0,0,0.050066,3.2526e-19,0,0.019459,0,0,0,0.011467,0.0045802,0.0048141,10.62,0.0069537,0.0067726,1.5891e-08,0,0.3,0
0.0010013,0.00038919,0.011183,0.0042641,0.0046342,0.0012444,0,0,0.051083,-0.0028872,0,0.019412,0,0,0,0.0114,0.0040471,0.0046342,9.8913,0.0066939,0.007078,1.779e-08,0.02,0.3,0
0.0020433,0.00076904,0.011367,0.0038408,0.0045625,0.001225,0,0,0.053078,-0.0056288,0,0.01911,0,0,0,0.011562,0.0036465,0.0045625,9.0156,0.0065902,0.0074994,2.0576e-08,0.04,0.3,0
0.0031245,0.0011388,0.011548,0.0034407,0.0044966,0.0012016,0,0,0.055001,-0.008236,0,0.018745,0,0,0,0.011722,0.0032663,0.0044966,8.2558,0.0064951,0.0079129,2.3386e-08,0.06,0.3,0
0.0042433,0.0014969,0.011726,0.0030639,0.0044369,0.0011724,0,0,0.056853,-0.010709,0,0.01829,0,0,0,0.011882,0.0029081,0.0044369,7.5736,0.0064089,0.0083153,2.6196e-08,0.08,0.3,0
0.0053986,0.0018418,0.011901,0.0027119,0.0043839,0.0011367,0,0,0.058635,-0.013042,0,0.017733,0,0,0,0.01204,0.0025733,0.0043839,6.9479,0.0063323,0.0087035,2.8984e-08,0.1,0.3,0
0.0065887,0.0021711,0.012075,0.0023865,0.0043383,0.0010949,0,0,0.060343,-0.015224,0,0.01708,0,0,0,0.012197,0.0022643,0.0043383,6.3683,0.0062664,0.009075,3.173e-08,0.12,0.3,0
0.0078123,0.0024829,0.012246,0.00209,0.0043008,0.0010481,0,0,0.061972,-0.017244,0,0.01635,0,0,0,0.012353,0.001983,0.0043008,5.831,0.0062123,0.0094273,3.442e-08,0.14,0.3,0
0.0090676,0.0027752,0.012416,0.0018246,0.0042723,0.00099798,0,0,0.063523,-0.019091,0,0.015569,0,0,0,0.012509,0.0017314,0.0042723,5.3361,0.006171,0.0097589,3.7047e-08,0.16,0.3,0
0.010353,0.0030462,0.012586,0.0015926,0.0042537,0.00094648,0,0,0.064994,-0.020756,0,0.014765,0,0,0,0.012667,0.0015118,0.0042537,4.8849,0.0061442,0.010068,3.9609e-08,0.18,0.3,0
0.011667,0.0032942,0.012757,0.0013963,0.0042461,0.00089545,0,0,0.066387,-0.022228,0,0.013969,0,0,0,0.012827,0.0013261,0.0042461,4.4791,0.0061332,0.010355,4.2106e-08,0.2,0.3,0
0.013009,0.0035178,0.012931,0.0012381,0.0042507,0.00084634,0,0,0.067707,-0.023499,0,0.013203,0,0,0,0.012992,0.0011771,0.0042507,4.1185,0.0061399,0.010617,4.4544e-08,0.22,0.3,0
0.014376,0.0037155,0.013109,0.0011211,0.0042692,0.0007997,0,0,0.068954,-0.024555,0,0.012475,0,0,0,0.013163,0.001068,0.0042692,3.7996,0.0061666,0.010854,4.6926e-08,0.24,0.3,0
0.015767,0.0038854,0.013295,0.0010496,0.0043032,0.00075457,0,0,0.070132,-0.025378,0,0.011771,0,0,0,0.013341,0.0010032,0.0043032,3.513,0.0062158,0.011063,4.925e-08,0.26,0.3,0
0.017181,0.0040251,0.013489,0.0010292,0.0043553,0.00070735,0,0,0.07124,-0.025944,0,0.011035,0,0,0,0.013529,0.00098913,0.0043553,3.2389,0.006291,0.011241,5.1502e-08,0.28,0.3,0
0.018617,0.0041306,0.013695,0.001068,0.0044288,0.0006502,0,0,0.072273,-0.026214,0,0.010143,0,0,0,0.013728,0.0010346,0.0044288,2.9401,0.0063971,0.011382,5.3651e-08,0.3,0.3,0
0.020072,0.004196,0.013915,0.0011779,0.004528,0.00056822,0,0,0.073221,-0.026131,0,0.0088642,0,0,0,0.013941,0.0011526,0.004528,2.5492,0.0065404,0.011479,5.5634e-08,0.32,0.3,0
0.021545,0.0042112,0.014151,0.0013757,0.0046582,0.00043608,0,0,0.074048,-0.025603,0,0.0068029,0,0,0,0.014166,0.0013608,0.0046582,1.9527,0.0067285,0.011517,5.731e-08,0.34,0.3,0
0.023034,0.0041619,0.014389,0.0016893,0.0048234,0.00021184,0,0,0.07461,-0.024446,0,0.0033048,0,0,0,0.014392,0.0016857,0.0048234,0.95541,0.0069672,0.011465,5.829e-08,0.36,0.3,0
0.02453,0.0040263,0.014507,0.0021502,0.0049971,-0.00014085,0,0,0.074177,-0.022207,0,-0.0021973,0,0,0,0.014509,0.0021485,0.0049971,-0.65298,0.0072181,0.011211,5.6915e-08,0.38,0.3,0
0.026001,0.0037944,0.01442,0.0030239,0.0052331,-0.00055497,0,0,0.071655,-0.017231,0,-0.0086576,0,0,0,0.014446,0.0029969,0.0052331,-2.7816,0.0075588,0.010512,5.067e-08,0.4,0.3,0
0.027396,0.0035249,0.014167,0.00030114,0.0043406,-0.00082603,0,0,0.041838,-0.0090022,0,-0.0077093,0,0,0,0.014221,0.0002472,0.0043406,-3.6951,0.0062697,0.012569,5.6207e-08,0.42,0.3,0
0.027674,0.0034811,0.01447,-0.00059691,0.0041618,-0.00031903,0,0,0.0134,-0.0061864,0,-0.00082946,0,0,0,0.014476,-0.00060366,0.0041618,-1.2125,0.0060115,0.013351,7.1817e-08,0.44,0.3,0
0.027932,0.0034756,0.014145,-0.00046442,0.0041041,8.4145e-05,0,0,0.013053,-0.0059391,0,0.00021878,0,0,0,0.014145,-0.0004649,0.0041041,0.32999,0.0059282,0.012945,6.6439e-08,0.46,0.3,0
0.028196,0.0035021,0.014462,-0.00027181,0.004257,0.00021635,0,0,0.013266,-0.0058874,0,0.0005625,0,0,0,0.014465,-0.00027499,0.004257,0.84108,0.006149,0.013077,7.0081e-08,0.48,0.3,0
0.028463,0.0035366,0.014534,-0.0001655,0.0043106,9.4872e-05,0,0,0.013291,-0.005819,0,0.00024667,0,0,0,0.014535,-0.00016612,0.0043106,0.36977,0.0062264,0.013052,7.0552e-08,0.5,0.3,0
0.028728,0.0035727,0.014535,2.4913e-05,0.0043681,-3.2702e-05,0,0,0.013218,-0.0056462,0,-8.5024e-05,0,0,0,0.014536,2.484e-05,0.0043681,-0.12912,0.0063095,0.0129,6.959e-08,0.52,0.3,0
0.028991,0.0036089,0.014483,0.00022571,0.0044128,-0.00010561,0,0,0.013092,-0.0054432,0,-0.0002746,0,0,0,0.014484,0.00022492,0.0044128,-0.42439,0.006374,0.012694,6.7816e-08,0.54,0.3,0
0.029252,0.0036468,0.014433,0.00039126,0.0044474,-9.8913e-05,0,0,0.012982,-0.0052729,0,-0.00025717,0,0,0,0.014434,0.00039057,0.0044474,-0.40357,0.006424,0.012518,6.6232e-08,0.56,0.3,0
0.02951,0.0036885,0.014404,0.00046313,0.0044602,-3.2609e-05,0,0,0.012927,-0.0051962,0,-8.4784e-05,0,0,0,0.014404,0.00046305,0.0044602,-0.13402,0.0064425,0.012434,6.5433e-08,0.58,0.3,0
0.029769,0.0037353,0.014411,0.00041743,0.0044487,6.1153e-05,0,0,0.012952,-0.0052406,0,0.000159,0,0,0,0.014412,0.00041717,0.0044487,0.25037,0.0064259,0.012477,6.5782e-08,0.6,0.3,0
0.030029,0.0037874,0.014454,0.00025413,0.0044125,0.00014551,0,0,0.013054,-0.0054059,0,0.00037833,0,0,0,0.014456,0.00025264,0.0044125,0.58704,0.0063736,0.012647,6.7266e-08,0.62,0.3,0
0.030291,0.0038437,0.014513,-2.0918e-06,0.0043532,0.00018902,0,0,0.013207,-0.0056619,0,0.00049145,0,0,0,0.014515,-4.5529e-06,0.0043532,0.74597,0.0062879,0.012905,6.9448e-08,0.64,0.3,0
0.030557,0.0039026,0.014556,-0.00029024,0.0042796,0.00017324,0,0,0.013359,-0.0059408,0,0.00045043,0,0,0,0.014557,-0.00029226,0.0042796,0.66849,0.0061816,0.013173,7.1511e-08,0.66,0.3,0
0.030825,0.0039623,0.014498,-0.00055723,0.0041823,0.00012178,0,0,0.013411,-0.0061613,0,0.00031662,0,0,0,0.014499,-0.00055822,0.0041823,0.4634,0.006041,0.013335,7.1937e-08,0.68,0.3,0
0.031093,0.004024,0.014248,-0.0007253,0.0040568,8.2392e-05,0,0,0.013248,-0.0062167,0,0.00021422,0,0,0,0.014248,-0.00072575,0.0040568,0.31526,0.0058598,0.013247,6.9061e-08,0.7,0.3,0
0.031355,0.004092,0.013603,-0.00091284,0.0038072,0.00019444,0,0,0.012735,-0.006136,0,0.00050555,0,0,0,0.013606,-0.00091545,0.0038072,0.76728,0.0054992,0.01283,6.101e-08,0.72,0.3,0
0.031603,0.0041797,0.014167,-0.00085243,0.0039945,0.0004454,0,0,0.013225,-0.006301,0,0.001158,0,0,0,0.014181,-0.00086563,0.0039945,1.6971,0.0057698,0.0133,6.8698e-08,0.74,0.3,0
0.031884,0.0043017,0.013579,-0.001088,0.0037473,0.00078089,0,0,0.041485,-0.010776,0,0.008741,0,0,0,0.013638,-0.001147,0.0037473,3.6497,0.0054128,0.013198,4.8927e-08,0.76,0.3,0
0.033262,0.0047182,0.013969,0.0021222,0.0048274,0.00082853,0,0,0.071306,-0.021101,0,0.012925,0,0,0,0.014027,0.0020645,0.0048274,3.9812,0.0069729,0.010848,5.1507e-08,0.78,0.3,0
0.034737,0.0051865,0.014356,0.0018493,0.0048615,0.00033501,0,0,0.074055,-0.023495,0,0.0052261,0,0,0,0.014365,0.0018403,0.0048615,1.5333,0.0070222,0.01132,5.7001e-08,0.8,0.3,0
0.036224,0.0055447,0.014253,0.0010987,0.0046056,-8.957e-05,0,0,0.075252,-0.027353,0,-0.0013973,0,0,0,0.014254,0.0010981,0.0046056,-0.3901,0.0066525,0.0118,5.9923e-08,0.82,0.3,0
0.037747,0.0057761,0.014265,0.00058184,0.004454,-0.00028968,0,0,0.076524,-0.030203,0,-0.004519,0,0,0,0.014271,0.00057571,0.004454,-1.2123,0.0064336,0.012226,6.3014e-08,0.84,0.3,0
0.039285,0.0059392,0.014196,0.00021759,0.0043241,-0.00032717,0,0,0.077001,-0.03203,0,-0.0051038,0,0,0,0.014204,0.00020994,0.0043241,-1.34,0.0062459,0.012457,6.4003e-08,0.86,0.3,0
0.040827,0.0060593,0.01408,-5.5071e-05,0.0042074,-0.00030547,0,0,0.077003,-0.033247,0,-0.0047654,0,0,0,0.014086,-6.167e-05,0.0042074,-1.2375,0.0060773,0.012569,6.3746e-08,0.88,0.3,0
0.042365,0.0061497,0.01396,-0.00025813,0.0041106,-0.00026075,0,0,0.076826,-0.034076,0,-0.0040677,0,0,0,0.013965,-0.00026291,0.0041106,-1.0503,0.0059375,0.012623,6.3048e-08,0.9,0.3,0
0.0439,0.006218,0.013855,-0.00040787,0.004034,-0.00020825,0,0,0.0766,-0.034646,0,-0.0032487,0,0,0,0.013858,-0.00041091,0.004034,-0.83635,0.0058269,0.012646,6.2272e-08,0.92,0.3,0
0.045429,0.0062682,0.01377,-0.00051521,0.0039764,-0.00015439,0,0,0.076389,-0.035034,0,-0.0024084,0,0,0,0.013772,-0.00051687,0.0039764,-0.61914,0.0057437,0.012655,6.1585e-08,0.94,0.3,0
0.046955,0.0063028,0.013709,-0.00058741,0.0039363,-0.0001016,0,0,0.076223,-0.035285,0,-0.001585,0,0,0,0.013709,-0.00058813,0.0039363,-0.40717,0.0056858,0.012657,6.1061e-08,0.96,0.3,0
0.048478,0.0063231,0.013671,-0.00062905,0.0039127,-5.032e-05,0,0,0.076119,-0.035426,0,-0.000785,0,0,0,0.013672,-0.00062923,0.0039127,-0.20161,0.0056517,0.012657,6.0737e-08,0.98,0.3,0
0.05,0.0063298,0.013659,-0.00064266,0.0039049,2.1487e-05,0,0,0.076083,-0.035471,0,0.0003352,0,0,0,0.013659,-0.00064269,0.0039049,0.086082,0.0056405,0.012656,6.0629e-08,1,0.3,0
0,0,0.011266,0.0048284,0.0048284,0.0010622,0,0,0.050216,0,0,0.01657,0,0,0,0.011437,0.0046577,0.0048284,9.1311,0.0069744,0.0066956,1.5383e-08,0,0.32,0
0.0010043,0.00033141,0.011217,0.0042793,0.0046488,0.0010591,0,0,0.051229,-0.0028818,0,0.016522,0,0,0,0.011375,0.0041212,0.0046488,8.4897,0.0067149,0.0070046,1.7314e-08,0.02,0.32,0
0.0020492,0.00065659,0.011401,0.0038601,0.0045782,0.0010435,0,0,0.053215,-0.0056017,0,0.016278,0,0,0,0.011542,0.0037183,0.0045782,7.735,0.006613,0.0074316,2.0131e-08,0.04,0.32,0
0.0031329,0.00097446,0.011581,0.0034659,0.0045142,0.0010226,0,0,0.055125,-0.0081772,0,0.015952,0,0,0,0.011708,0.003339,0.0045142,7.0721,0.0065205,0.0078481,2.2961e-08,0.06,0.32,0
0.0042542,0.0012835,0.01176,0.003096,0.0044569,0.00099527,0,0,0.056967,-0.010615,0,0.015526,0,0,0,0.011873,0.0029831,0.0044569,6.4692,0.0064378,0.0082525,2.579e-08,0.08,0.32,0
0.0054116,0.0015819,0.011938,0.0027508,0.0044067,0.00096113,0,0,0.058746,-0.012916,0,0.014994,0,0,0,0.012038,0.0026514,0.0044067,5.9087,0.0063653,0.0086434,2.8609e-08,0.1,0.32,0
0.006604,0.0018678,0.012116,0.0024316,0.0043642,0.00092052,0,0,0.060462,-0.015074,0,0.01436,0,0,0,0.012202,0.0023448,0.0043642,5.382,0.0063038,0.0090191,3.1406e-08,0.12,0.32,0
0.0078301,0.0021393,0.012294,0.0021398,0.00433,0.00087436,0,0,0.062115,-0.017084,0,0.01364,0,0,0,0.012368,0.0020651,0.00433,4.8859,0.0062544,0.0093782,3.4176e-08,0.14,0.32,0
0.0090886,0.0023945,0.012472,0.0018774,0.004305,0.00082402,0,0,0.063707,-0.018935,0,0.012855,0,0,0,0.012536,0.0018137,0.004305,4.4207,0.0062183,0.0097193,3.6917e-08,0.16,0.32,0
0.010378,0.0026319,0.012654,0.0016465,0.0042901,0.00077109,0,0,0.065237,-0.02062,0,0.012029,0,0,0,0.012708,0.0015927,0.0042901,3.9877,0.0061968,0.010042,3.9629e-08,0.18,0.32,0
0.011698,0.00285,0.012839,0.0014494,0.0042864,0.00071715,0,0,0.066707,-0.022128,0,0.011187,0,0,0,0.012884,0.0014045,0.0042864,3.5889,0.0061915,0.010344,4.2316e-08,0.2,0.32,0
0.013047,0.0030476,0.013029,0.0012893,0.0042953,0.00066349,0,0,0.068118,-0.023447,0,0.010351,0,0,0,0.013066,0.0012519,0.0042953,3.2246,0.0062044,0.010624,4.4979e-08,0.22,0.32,0
0.014423,0.0032235,0.013225,0.0011701,0.0043184,0.00061073,0,0,0.069468,-0.024557,0,0.0095274,0,0,0,0.013255,0.0011392,0.0043184,2.893,0.0062376,0.010881,4.7613e-08,0.24,0.32,0
0.015825,0.0033764,0.013427,0.0010974,0.0043574,0.00055823,0,0,0.070744,-0.025428,0,0.0087083,0,0,0,0.013452,0.0010722,0.0043574,2.587,0.006294,0.011108,5.0192e-08,0.26,0.32,0
0.017253,0.0035044,0.013636,0.0010795,0.0044145,0.00050317,0,0,0.071924,-0.026013,0,0.0078494,0,0,0,0.013656,0.0010593,0.0044145,2.2912,0.0063765,0.011299,5.2653e-08,0.28,0.32,0
0.018702,0.0036049,0.013846,0.0011285,0.0044923,0.00043912,0,0,0.072958,-0.026238,0,0.0068503,0,0,0,0.013861,0.0011133,0.0044923,1.9752,0.0064889,0.011439,5.486e-08,0.3,0.32,0
0.020171,0.0036736,0.014049,0.0012625,0.0045934,0.00035413,0,0,0.073753,-0.025981,0,0.0055244,0,0,0,0.014059,0.0012527,0.0045934,1.5852,0.0066349,0.011505,5.6558e-08,0.32,0.32,0
0.021652,0.0037037,0.014225,0.0015083,0.0047201,0.00022908,0,0,0.07414,-0.025052,0,0.0035737,0,0,0,0.014229,0.0015042,0.0047201,1.0317,0.0068179,0.011461,5.7283e-08,0.34,0.32,0
0.023137,0.0036858,0.014331,0.001902,0.0048699,4.3944e-05,0,0,0.073797,-0.02315,0,0.00068553,0,0,0,0.014331,0.0019019,0.0048699,0.20257,0.0070343,0.011243,5.6204e-08,0.36,0.32,0
0.024604,0.0036119,0.01432,0.0025178,0.0050513,-0.00019478,0,0,0.072294,-0.019761,0,-0.0030386,0,0,0,0.014323,0.0025146,0.0050513,-0.94529,0.0072963,0.010767,5.2301e-08,0.38,0.32,0
0.026028,0.0034892,0.014215,0.0034299,0.0052934,-0.00040678,0,0,0.069586,-0.014535,0,-0.0063458,0,0,0,0.01423,0.0034146,0.0052934,-2.157,0.007646,0.010009,4.5444e-08,0.4,0.32,0
0.027388,0.0033493,0.013863,0.00039482,0.0042775,-0.00047488,0,0,0.040783,-0.0086528,0,-0.0045867,0,0,0,0.013882,0.00037582,0.0042775,-2.2244,0.0061786,0.012161,5.2097e-08,0.42,0.32,0
0.02766,0.0033477,0.013951,-0.0015106,0.003732,-0.00036774,0,0,0.013284,-0.0068154,0,-0.00095612,0,0,0,0.013959,-0.0015193,0.003732,-1.3617,0.0053907,0.013634,6.8096e-08,0.44,0.32,0
0.027919,0.0033599,0.013922,-0.00049901,0.004027,-7.1558e-05,0,0,0.012864,-0.0058838,0,-0.00018605,0,0,0,0.013923,-0.00049937,0.004027,-0.28429,0.0058168,0.012775,6.3536e-08,0.46,0.32,0
0.028174,0.0033875,0.01398,-0.00021974,0.0041282,5.3783e-05,0,0,0.012808,-0.0056523,0,0.00013983,0,0,0,0.013981,-0.00021995,0.0041282,0.217,0.005963,0.012602,6.3064e-08,0.48,0.32,0
0.028431,0.0034236,0.014154,-3.7903e-05,0.0042347,3.6588e-05,0,0,0.012895,-0.0055544,0,9.5127e-05,0,0,0,0.014154,-3.7998e-05,0.0042347,0.14771,0.0061168,0.012611,6.4552e-08,0.5,0.32,0
0.02869,0.0034619,0.014257,0.00010351,0.0043082,-3.2855e-05,0,0,0.012934,-0.0054662,0,-8.5422e-05,0,0,0,0.014257,0.00010343,0.0043082,-0.133,0.006223,0.01259,6.5276e-08,0.52,0.32,0
0.028949,0.003501,0.014308,0.0002406,0.0043645,-7.5588e-05,0,0,0.012926,-0.0053611,0,-0.00019653,0,0,0,0.014308,0.00024019,0.0043645,-0.30786,0.0063043,0.012526,6.528e-08,0.54,0.32,0
0.029207,0.0035413,0.014325,0.00034289,0.0044003,-7.2685e-05,0,0,0.012902,-0.0052746,0,-0.00018898,0,0,0,0.014325,0.00034251,0.0044003,-0.29784,0.006356,0.01246,6.4982e-08,0.56,0.32,0
0.029465,0.003584,0.014336,0.0003785,0.0044143,-3.0079e-05,0,0,0.012898,-0.0052465,0,-7.8205e-05,0,0,0,0.014336,0.00037844,0.0044143,-0.12348,0.0063762,0.012441,6.4941e-08,0.58,0.32,0
0.029723,0.0036298,0.014356,0.00032534,0.0044045,3.196e-05,0,0,0.012937,-0.0053029,0,8.3096e-05,0,0,0,0.014356,0.00032526,0.0044045,0.13051,0.006362,0.012501,6.5502e-08,0.6,0.32,0
0.029982,0.0036788,0.014389,0.00018316,0.0043715,9.0835e-05,0,0,0.013022,-0.0054449,0,0.00023617,0,0,0,0.014389,0.00018257,0.0043715,0.36635,0.0063144,0.012644,6.67e-08,0.62,0.32,0
0.030244,0.0037308,0.014421,-2.5953e-05,0.0043186,0.0001288,0,0,0.013134,-0.005648,0,0.00033488,0,0,0,0.014423,-2.7101e-05,0.0043186,0.51075,0.006238,0.012841,6.8241e-08,0.64,0.32,0
0.030508,0.0037848,0.01443,-0.00026825,0.0042484,0.00014638,0,0,0.013236,-0.0058716,0,0.0003806,0,0,0,0.014431,-0.00026971,0.0042484,0.57056,0.0061366,0.013043,6.9566e-08,0.66,0.32,0
0.030773,0.0038409,0.014384,-0.00051008,0.0041623,0.00017708,0,0,0.013289,-0.0060741,0,0.00046041,0,0,0,0.014386,-0.00051219,0.0041623,0.68107,0.0060122,0.013198,7.008e-08,0.68,0.32,0
0.031039,0.003901,0.014218,-0.00078153,0.004031,0.00032315,0,0,0.013243,-0.0062563,0,0.00084019,0,0,0,0.014225,-0.00078849,0.004031,1.2336,0.0058226,0.013277,6.9005e-08,0.7,0.32,0
0.031303,0.0039709,0.013808,-0.0011956,0.0037837,0.00068954,0,0,0.013032,-0.0064732,0,0.0017928,0,0,0,0.01384,-0.0012273,0.0037837,2.6258,0.0054653,0.01329,6.5349e-08,0.72,0.32,0
0.03156,0.0040526,0.012623,-0.0022947,0.0030985,0.00087264,0,0,0.012382,-0.0070112,0,0.0022689,0,0,0,0.012674,-0.0023456,0.0030985,3.3364,0.0044756,0.01317,5.3396e-08,0.74,0.32,0
0.031798,0.004087,0.012388,-0.00057589,0.0035437,0.00085698,0,0,0.039265,-0.0091808,0,0.0075214,0,0,0,0.012447,-0.00063465,0.0035437,3.9615,0.0051186,0.011729,3.5365e-08,0.76,0.32,0
0.033131,0.0043287,0.013208,0.0025826,0.0047371,-0.000292,0,0,0.066072,-0.016806,0,-0.0045552,0,0,0,0.013216,0.0025746,0.0047371,-1.573,0.0068426,0.0097418,3.9709e-08,0.78,0.32,0
0.034441,0.0047729,0.013631,0.0018946,0.0046577,3.5671e-06,0,0,0.069992,-0.021552,0,5.5647e-05,0,0,0,0.013631,0.0018946,0.0046577,0.017414,0.0067278,0.010628,4.789e-08,0.8,0.32,0
0.035931,0.005004,0.014468,0.0011176,0.0046756,-0.00018612,0,0,0.076378,-0.027752,0,-0.0029035,0,0,0,0.01447,0.0011151,0.0046756,-0.7986,0.0067536,0.011979,6.2692e-08,0.82,0.32,0
0.037496,0.0051659,0.014666,0.00060686,0.004582,-0.00019358,0,0,0.078659,-0.031006,0,-0.0030198,0,0,0,0.014669,0.0006042,0.004582,-0.78866,0.0066184,0.012558,6.8367e-08,0.84,0.32,0
0.039077,0.0052885,0.01456,0.00020548,0.0044295,-0.00017893,0,0,0.079015,-0.032948,0,-0.0027914,0,0,0,0.014562,0.00020325,0.0044295,-0.71408,0.0063982,0.012781,6.9033e-08,0.86,0.32,0
0.040657,0.0053835,0.0144,-8.529e-05,0.0042943,-0.00015605,0,0,0.078821,-0.034161,0,-0.0024343,0,0,0,0.014401,-8.6971e-05,0.0042943,-0.61715,0.0062029,0.01287,6.8239e-08,0.88,0.32,0
0.04223,0.0054577,0.014244,-0.00029568,0.0041844,-0.00012862,0,0,0.078462,-0.034945,0,-0.0020064,0,0,0,0.014245,-0.00029682,0.0041844,-0.5068,0.0060441,0.012899,6.7052e-08,0.9,0.32,0
0.043795,0.0055151,0.01411,-0.00044688,0.0040989,-0.00010014,0,0,0.078086,-0.035457,0,-0.0015622,0,0,0,0.014111,-0.00044757,0.0040989,-0.39412,0.0059207,0.012901,6.588e-08,0.92,0.32,0
0.045353,0.0055582,0.014004,-0.00055318,0.0040354,-7.2702e-05,0,0,0.077759,-0.035791,0,-0.0011342,0,0,0,0.014005,-0.00055354,0.0040354,-0.28613,0.0058289,0.012892,6.4892e-08,0.94,0.32,0
0.046906,0.0055882,0.013929,-0.0006237,0.0039915,-4.7064e-05,0,0,0.077511,-0.035999,0,-0.0007342,0,0,0,0.013929,-0.00062385,0.0039915,-0.1853,0.0057656,0.012881,6.4158e-08,0.96,0.32,0
0.048454,0.005606,0.013884,-0.00066402,0.0039658,-2.3063e-05,0,0,0.077357,-0.036113,0,-0.00035978,0,0,0,0.013884,-0.00066406,0.0039658,-0.090834,0.0057284,0.012873,6.371e-08,0.98,0.32,0
0.05,0.0056119,0.013868,-0.00067715,0.0039574,1.8908e-05,0,0,0.077306,-0.036149,0,0.00029496,0,0,0,0.013868,-0.00067717,0.0039574,0.074479,0.0057162,0.01287,6.356e-08,1,0.32,0
0,0,0.011281,0.0048347,0.0048347,0.00087793,0,0,0.050281,-5.421e-19,0,0.013696,0,0,0,0.011398,0.0047173,0.0048347,7.6184,0.0069835,0.0066232,1.4906e-08,0,0.34,0
0.0010056,0.00027391,0.011232,0.0042901,0.0046565,0.00087466,0,0,0.051285,-0.0028579,0,0.013645,0,0,0,0.01134,0.0041816,0.0046565,7.0723,0.006726,0.0069332,1.6846e-08,0.02,0.34,0
0.0020514,0.00054497,0.011414,0.0038765,0.0045872,0.00086278,0,0,0.053251,-0.0055436,0,0.013459,0,0,0,0.011512,0.003779,0.0045872,6.4471,0.006626,0.007362,1.9663e-08,0.04,0.34,0
0.0031356,0.00081168,0.011594,0.0034892,0.0045249,0.00084397,0,0,0.055138,-0.0080788,0,0.013166,0,0,0,0.011681,0.0034022,0.0045249,5.8823,0.006536,0.0077783,2.2481e-08,0.06,0.34,0
0.0042569,0.0010723,0.011772,0.0031267,0.0044697,0.00081765,0,0,0.056959,-0.010475,0,0.012755,0,0,0,0.011849,0.0030501,0.0044697,5.3556,0.0064562,0.0081818,2.5299e-08,0.08,0.34,0
0.005414,0.0013251,0.01195,0.0027889,0.0044217,0.00078374,0,0,0.058722,-0.012736,0,0.012226,0,0,0,0.012017,0.0027224,0.0044217,4.8547,0.0063869,0.008572,2.8111e-08,0.1,0.34,0
0.0066058,0.0015681,0.012129,0.0024763,0.0043816,0.00074264,0,0,0.06043,-0.014861,0,0.011585,0,0,0,0.012186,0.0024195,0.0043816,4.3738,0.0063289,0.0089481,3.0916e-08,0.12,0.34,0
0.0078312,0.0017996,0.01231,0.00219,0.0043499,0.00069516,0,0,0.062086,-0.016847,0,0.010844,0,0,0,0.012357,0.0021425,0.0043499,3.9114,0.0062832,0.0093093,3.3713e-08,0.14,0.34,0
0.0090892,0.0020178,0.012493,0.0019317,0.0043274,0.00064247,0,0,0.063691,-0.018687,0,0.010023,0,0,0,0.012532,0.0018927,0.0043274,3.4684,0.0062506,0.0096549,3.6503e-08,0.16,0.34,0
0.010379,0.0022214,0.01268,0.0017032,0.004315,0.00058593,0,0,0.065249,-0.020373,0,0.0091405,0,0,0,0.012712,0.001672,0.004315,3.0467,0.0062328,0.0099839,3.9291e-08,0.18,0.34,0
0.011699,0.0024091,0.012873,0.001507,0.004314,0.00052699,0,0,0.066759,-0.021894,0,0.008221,0,0,0,0.012897,0.0014826,0.004314,2.649,0.0062313,0.010295,4.2081e-08,0.2,0.34,0
0.013049,0.00258,0.013072,0.0013465,0.0043255,0.000467,0,0,0.068221,-0.023236,0,0.0072852,0,0,0,0.01309,0.0013279,0.0043255,2.2772,0.0062479,0.010587,4.4874e-08,0.22,0.34,0
0.014428,0.0027333,0.013278,0.0012261,0.0043512,0.00040705,0,0,0.069627,-0.024375,0,0.0063499,0,0,0,0.013291,0.0012124,0.0043512,1.9322,0.006285,0.010856,4.7656e-08,0.24,0.34,0
0.015834,0.0028683,0.01349,0.0011525,0.0043928,0.00034765,0,0,0.070959,-0.025274,0,0.0054233,0,0,0,0.0135,0.0011427,0.0043928,1.6128,0.0063451,0.011095,5.0386e-08,0.26,0.34,0
0.017266,0.0029846,0.013705,0.0011355,0.0044522,0.00028838,0,0,0.072173,-0.02587,0,0.0044987,0,0,0,0.013712,0.0011289,0.0044522,1.3136,0.006431,0.011294,5.2964e-08,0.28,0.34,0
0.018721,0.0030811,0.013915,0.0011901,0.0045315,0.00022727,0,0,0.073191,-0.026063,0,0.0035454,0,0,0,0.013919,0.001186,0.0045315,1.0229,0.0065456,0.011433,5.5186e-08,0.3,0.34,0
0.020194,0.0031567,0.014103,0.0013387,0.0046324,0.00016005,0,0,0.073869,-0.025691,0,0.0024968,0,0,0,0.014105,0.0013366,0.0046324,0.71828,0.0066913,0.011481,5.6669e-08,0.32,0.34,0
0.021676,0.0032092,0.01424,0.0016143,0.0047564,8.0287e-05,0,0,0.073974,-0.024508,0,0.0012525,0,0,0,0.014241,0.0016138,0.0047564,0.36432,0.0068703,0.011386,5.6786e-08,0.34,0.34,0
0.023153,0.0032359,0.014294,0.0020633,0.0049073,-1.6698e-05,0,0,0.073218,-0.022183,0,-0.00026048,0,0,0,0.014294,0.0020633,0.0049073,-0.07822,0.0070883,0.011086,5.4757e-08,0.36,0.34,0
0.024605,0.0032358,0.014248,0.0027261,0.0050923,-0.00012238,0,0,0.071416,-0.018456,0,-0.0019091,0,0,0,0.01425,0.0027248,0.0050923,-0.60845,0.0073555,0.010542,5.0097e-08,0.38,0.34,0
0.02601,0.003213,0.014117,0.0035663,0.0053049,-0.0002072,0,0,0.068731,-0.013561,0,-0.0032323,0,0,0,0.014121,0.0035622,0.0053049,-1.1247,0.0076626,0.0098039,4.3289e-08,0.4,0.34,0
0.027354,0.0031788,0.013824,0.00048694,0.0042934,-0.00025369,0,0,0.040398,-0.008483,0,-0.0022693,0,0,0,0.01383,0.0004818,0.0042934,-1.1687,0.0062016,0.012026,5.1616e-08,0.42,0.34,0
0.027626,0.0032085,0.013826,-0.0017538,0.0036216,-0.000241,0,0,0.013266,-0.0069881,0,-0.00062661,0,0,0,0.01383,-0.0017576,0.0036216,-0.88602,0.0052313,0.013713,6.7067e-08,0.44,0.34,0
0.027885,0.0032403,0.01379,-0.0006957,0.0039284,-0.0001821,0,0,0.01282,-0.0060113,0,-0.00047346,0,0,0,0.013792,-0.00069799,0.0039284,-0.7201,0.0056743,0.012819,6.2624e-08,0.46,0.34,0
0.028138,0.003276,0.013855,-0.00019183,0.0040989,-0.00012469,0,0,0.012683,-0.0055779,0,-0.00032419,0,0,0,0.013856,-0.00019293,0.0040989,-0.50854,0.0059206,0.01247,6.1278e-08,0.48,0.34,0
0.028392,0.0033144,0.013988,1.4962e-05,0.0042008,-0.00011276,0,0,0.012723,-0.0054416,0,-0.00029318,0,0,0,0.013989,1.4052e-05,0.0042008,-0.46235,0.0060678,0.012422,6.2073e-08,0.5,0.34,0
0.028647,0.0033541,0.014128,0.00013979,0.0042803,-0.00011474,0,0,0.012802,-0.0053826,0,-0.00029833,0,0,0,0.014129,0.00013885,0.0042803,-0.46996,0.0061826,0.012447,6.3344e-08,0.52,0.34,0
0.028904,0.0033945,0.014224,0.00023808,0.0043386,-0.000109,0,0,0.012851,-0.0053307,0,-0.00028339,0,0,0,0.014225,0.00023723,0.0043386,-0.4465,0.0062668,0.012454,6.4152e-08,0.54,0.34,0
0.029161,0.0034358,0.01428,0.00030629,0.0043758,-8.5296e-05,0,0,0.012875,-0.0052904,0,-0.00022177,0,0,0,0.01428,0.00030577,0.0043758,-0.34973,0.0063206,0.012449,6.4558e-08,0.56,0.34,0
0.029419,0.0034786,0.014314,0.00031994,0.0043902,-4.6126e-05,0,0,0.012901,-0.0052913,0,-0.00011993,0,0,0,0.014314,0.00031979,0.0043902,-0.18885,0.0063414,0.012468,6.495e-08,0.58,0.34,0
0.029677,0.0035232,0.014343,0.00026131,0.0043813,1.803e-06,0,0,0.01295,-0.005356,0,4.6878e-06,0,0,0,0.014343,0.00026131,0.0043813,0.007336,0.0063286,0.01254,6.5653e-08,0.6,0.34,0
0.029937,0.0035696,0.014372,0.00012989,0.0043506,5.0411e-05,0,0,0.013028,-0.005487,0,0.00013107,0,0,0,0.014372,0.00012971,0.0043506,0.20279,0.0062842,0.012671,6.6738e-08,0.62,0.34,0
0.030198,0.0036178,0.014398,-5.7118e-05,0.0043021,9.4183e-05,0,0,0.013124,-0.005667,0,0.00024488,0,0,0,0.014398,-5.7731e-05,0.0043021,0.37331,0.0062142,0.012844,6.8049e-08,0.64,0.34,0
0.030462,0.0036677,0.01442,-0.000274,0.0042439,0.00013419,0,0,0.013229,-0.0058732,0,0.0003489,0,0,0,0.014421,-0.00027523,0.0042439,0.52318,0.00613,0.013038,6.9454e-08,0.66,0.34,0
0.030728,0.0037193,0.014477,-0.00051048,0.0041899,0.00018933,0,0,0.013373,-0.0061105,0,0.00049225,0,0,0,0.014479,-0.00051287,0.0041899,0.72363,0.0060521,0.013281,7.1433e-08,0.68,0.34,0
0.030997,0.0037738,0.014708,-0.00079977,0.0041724,0.00030366,0,0,0.013696,-0.0064638,0,0.00078952,0,0,0,0.014714,-0.00080572,0.0041724,1.1214,0.0060268,0.013725,7.6315e-08,0.7,0.34,0
0.031275,0.0038331,0.01541,-0.0012553,0.0042464,0.00056244,0,0,0.014513,-0.0071522,0,0.0014624,0,0,0,0.015429,-0.0012743,0.0042464,1.9308,0.0061337,0.01474,9.0107e-08,0.72,0.34,0
0.031577,0.0038993,0.016535,-0.0020292,0.0043517,0.00073963,0,0,0.015838,-0.0082953,0,0.001923,0,0,0,0.016564,-0.0020586,0.0043517,2.2779,0.0062859,0.016387,1.1502e-07,0.74,0.34,0
0.031909,0.0039344,0.013138,0.00093939,0.0042232,0.00098768,0,0,0.021693,-0.0074476,0,0.007199,0,0,0,0.013237,0.00083996,0.0042232,6.5776,0.0061002,0.0111,1.0918e-07,0.76,0.34,0
0.032394,0.0040459,0.019785,0.001459,0.0063733,7.7194e-05,0,0,0.043992,-0.011791,0,-0.0057811,0,0,0,0.01985,0.0013949,0.0063733,-1.5049,0.0092059,0.016569,2.3354e-07,0.78,0.34,0
0.034064,0.0043244,0.016223,0.0023717,0.0055785,-4.4759e-05,0,0,0.08303,-0.025014,0,-0.00069825,0,0,0,0.016224,0.0023715,0.0055785,-0.18514,0.0080579,0.012559,7.9823e-08,0.8,0.34,0
0.035715,0.0044347,0.015584,0.001344,0.0050784,-5.3777e-05,0,0,0.081944,-0.029128,0,-0.00083892,0,0,0,0.015584,0.0013438,0.0050784,-0.21637,0.0073355,0.012789,7.7346e-08,0.82,0.34,0
0.037341,0.0045359,0.015119,0.00065554,0.0047325,1.2637e-05,0,0,0.081018,-0.0318,0,0.00019713,0,0,0,0.015119,0.00065553,0.0047325,0.050057,0.0068358,0.012917,7.4661e-08,0.84,0.34,0
0.038956,0.0046213,0.014829,0.00021182,0.0045123,2.6449e-05,0,0,0.080471,-0.033543,0,0.0004126,0,0,0,0.014829,0.00021177,0.0045123,0.10367,0.0065177,0.013012,7.2877e-08,0.86,0.34,0
0.04056,0.0046929,0.014602,-9.2781e-05,0.0043526,2.9764e-05,0,0,0.079942,-0.034674,0,0.00046431,0,0,0,0.014602,-9.2841e-05,0.0043526,0.11605,0.0062871,0.013052,7.1151e-08,0.88,0.34,0
0.042154,0.004752,0.014414,-0.00030664,0.0042321,2.9499e-05,0,0,0.079416,-0.035402,0,0.00046019,0,0,0,0.014414,-0.0003067,0.0042321,0.11482,0.006113,0.013057,6.9496e-08,0.9,0.34,0
0.043737,0.0047997,0.014261,-0.00045758,0.0041409,2.7057e-05,0,0,0.078934,-0.035868,0,0.00042209,0,0,0,0.014261,-0.00045763,0.0041409,0.10533,0.0059813,0.013042,6.8027e-08,0.92,0.34,0
0.045311,0.0048366,0.014142,-0.00056233,0.0040739,2.2554e-05,0,0,0.078531,-0.036163,0,0.00035184,0,0,0,0.014142,-0.00056237,0.0040739,0.087882,0.0058845,0.013021,6.6833e-08,0.94,0.34,0
0.046878,0.0048629,0.014058,-0.00063121,0.004028,1.6203e-05,0,0,0.078232,-0.036342,0,0.00025277,0,0,0,0.014058,-0.00063122,0.004028,0.063201,0.0058182,0.013001,6.5961e-08,0.96,0.34,0
0.04844,0.0048786,0.014007,-0.00067035,0.0040011,8.4689e-06,0,0,0.078049,-0.036437,0,0.00013212,0,0,0,0.014007,-0.00067036,0.0040011,0.033059,0.0057794,0.012988,6.5433e-08,0.98,0.34,0
0.05,0.0048839,0.013991,-0.00068306,0.0039923,1.6835e-05,0,0,0.077988,-0.036468,0,0.00026263,0,0,0,0.013991,-0.00068308,0.0039923,0.065734,0.0057666,0.012984,6.5257e-08,1,0.34,0
0,0,0.011276,0.0048323,0.0048323,0.00069582,0,0,0.050256,9.7578e-19,0,0.010855,0,0,0,0.01135,0.004758,0.0048323,6.094,0.00698,0.0065549,1.4459e-08,0,0.36,0
0.0010051,0.0002171,0.011227,0.0042961,0.0046568,0.00069234,0,0,0.051244,-0.0028134,0,0.0108,0,0,0,0.011295,0.0042276,0.0046568,5.6493,0.0067265,0.0068629,1.6383e-08,0.02,0.36,0
0.0020498,0.00043485,0.011406,0.0038903,0.004589,0.00068425,0,0,0.053177,-0.0054504,0,0.010674,0,0,0,0.011468,0.0038285,0.004589,5.1594,0.0066286,0.0072894,1.9164e-08,0.04,0.36,0
0.0031322,0.00065131,0.011584,0.0035112,0.0045284,0.0006673,0,0,0.05503,-0.0079342,0,0.01041,0,0,0,0.011638,0.0034564,0.0045284,4.6939,0.006541,0.007702,2.1941e-08,0.06,0.36,0
0.0042509,0.00086451,0.011759,0.0031571,0.0044749,0.00064147,0,0,0.056818,-0.010279,0,0.010007,0,0,0,0.011807,0.0031095,0.0044749,4.2413,0.0064637,0.0081013,2.4714e-08,0.08,0.36,0
0.0054049,0.0010725,0.011935,0.0028274,0.0044288,0.000607,0,0,0.05855,-0.012491,0,0.0094692,0,0,0,0.011975,0.0027871,0.0044288,3.7961,0.0063971,0.0084874,2.7483e-08,0.1,0.36,0
0.006593,0.0012734,0.012113,0.0025222,0.0043904,0.00056439,0,0,0.060232,-0.014572,0,0.0088044,0,0,0,0.012146,0.0024891,0.0043904,3.3564,0.0063417,0.0088602,3.0252e-08,0.12,0.36,0
0.0078142,0.0014654,0.012292,0.0022423,0.0043604,0.00051441,0,0,0.061869,-0.016521,0,0.0080249,0,0,0,0.012319,0.0022161,0.0043604,2.9225,0.0062983,0.0092193,3.3023e-08,0.14,0.36,0
0.0090677,0.001647,0.012476,0.0019892,0.0043394,0.0004581,0,0,0.063463,-0.018332,0,0.0071464,0,0,0,0.012496,0.0019692,0.0043394,2.4966,0.0062681,0.0095642,3.58e-08,0.16,0.36,0
0.010353,0.001817,0.012664,0.0017645,0.0043285,0.00039667,0,0,0.065016,-0.019999,0,0.006188,0,0,0,0.012678,0.00175,0.0043285,2.0815,0.0062523,0.0098943,3.8591e-08,0.18,0.36,0
0.011668,0.0019743,0.012858,0.0015706,0.0043286,0.0003315,0,0,0.06653,-0.021512,0,0.0051714,0,0,0,0.012868,0.0015609,0.0043286,1.6808,0.0062524,0.010208,4.1399e-08,0.2,0.36,0
0.013014,0.0021182,0.013059,0.001411,0.0043411,0.00026413,0,0,0.068003,-0.022855,0,0.0041205,0,0,0,0.013065,0.001405,0.0043411,1.2983,0.0062705,0.010505,4.4228e-08,0.22,0.36,0
0.014389,0.0022485,0.013269,0.0012901,0.0043676,0.0001963,0,0,0.069427,-0.024004,0,0.0030623,0,0,0,0.013272,0.0012869,0.0043676,0.93862,0.0063087,0.01078,4.7063e-08,0.24,0.36,0
0.015791,0.0023654,0.013484,0.0012147,0.0044097,0.00013006,0,0,0.070782,-0.024921,0,0.0020289,0,0,0,0.013486,0.0012134,0.0044097,0.60725,0.0063696,0.011027,4.9862e-08,0.26,0.36,0
0.01722,0.0024696,0.013704,0.001195,0.0044696,6.8061e-05,0,0,0.072026,-0.025542,0,0.0010617,0,0,0,0.013704,0.0011946,0.0044696,0.31174,0.0064561,0.011236,5.2525e-08,0.28,0.36,0
0.018672,0.0025624,0.013918,0.001246,0.0045491,1.4002e-05,0,0,0.073075,-0.025764,0,0.00021844,0,0,0,0.013918,0.001246,0.0045491,0.063312,0.0065709,0.011385,5.4842e-08,0.3,0.36,0
0.020143,0.0026459,0.01411,0.0013906,0.00465,-2.6763e-05,0,0,0.073784,-0.025424,0,-0.0004175,0,0,0,0.01411,0.0013905,0.00465,-0.12056,0.0067167,0.011443,5.6424e-08,0.32,0.36,0
0.021623,0.0027234,0.014251,0.0016623,0.0047739,-4.7436e-05,0,0,0.073918,-0.02427,0,-0.00074,0,0,0,0.014251,0.0016621,0.0047739,-0.2159,0.0068956,0.011357,5.6628e-08,0.34,0.36,0
0.023099,0.0027985,0.014308,0.0021078,0.0049246,-4.3365e-05,0,0,0.073188,-0.021972,0,-0.00067649,0,0,0,0.014308,0.0021076,0.0049246,-0.20366,0.0071134,0.011064,5.4654e-08,0.36,0.36,0
0.024551,0.0028736,0.014265,0.0027665,0.0051094,-2.2212e-05,0,0,0.071412,-0.018274,0,-0.00034651,0,0,0,0.014265,0.0027665,0.0051094,-0.11068,0.0073803,0.010524,5.0013e-08,0.38,0.36,0
0.025956,0.0029468,0.014137,0.0035997,0.005321,-9.5806e-06,0,0,0.068765,-0.013426,0,-0.00014946,0,0,0,0.014137,0.0035997,0.005321,-0.052094,0.0076859,0.0097908,4.3224e-08,0.4,0.36,0
0.027301,0.00301,0.013852,0.00053316,0.0043155,-3.3935e-05,0,0,0.040428,-0.0084292,0,-6.2148e-05,0,0,0,0.013852,0.000533,0.0043155,-0.10977,0.0062335,0.012005,5.1785e-08,0.42,0.36,0
0.027573,0.0030681,0.013858,-0.0017148,0.0036429,-0.00013211,0,0,0.013279,-0.0069651,0,-0.00034349,0,0,0,0.013859,-0.0017159,0.0036429,-0.48603,0.005262,0.013705,6.7345e-08,0.44,0.36,0
0.027833,0.0031194,0.013827,-0.00068749,0.003942,-0.00024113,0,0,0.012851,-0.0060183,0,-0.00062694,0,0,0,0.013831,-0.00069149,0.003942,-0.95149,0.0056939,0.012849,6.312e-08,0.46,0.36,0
0.028087,0.0031644,0.013896,-0.00020344,0.0041077,-0.00029965,0,0,0.012725,-0.0056045,0,-0.00077909,0,0,0,0.013902,-0.00020981,0.0041077,-1.217,0.0059334,0.012524,6.1968e-08,0.48,0.36,0
0.028342,0.0032059,0.01403,-8.1476e-06,0.0042065,-0.00027943,0,0,0.01277,-0.005479,0,-0.00072653,0,0,0,0.014035,-1.3708e-05,0.0042065,-1.1399,0.006076,0.012486,6.283e-08,0.5,0.36,0
0.028598,0.0032466,0.014169,0.00010938,0.0042836,-0.00022477,0,0,0.012851,-0.0054264,0,-0.0005844,0,0,0,0.014173,0.00010579,0.0042836,-0.91566,0.0061874,0.012513,6.4105e-08,0.52,0.36,0
0.028856,0.0032878,0.014264,0.00020238,0.00434,-0.00016445,0,0,0.012902,-0.0053789,0,-0.00042758,0,0,0,0.014266,0.00020046,0.00434,-0.66995,0.0062689,0.01252,6.4906e-08,0.54,0.36,0
0.029114,0.0033297,0.01432,0.00026669,0.0043759,-0.00011274,0,0,0.012927,-0.0053419,0,-0.00029313,0,0,0,0.01432,0.00026578,0.0043759,-0.45962,0.0063207,0.012516,6.5318e-08,0.56,0.36,0
0.029373,0.0033723,0.014354,0.00027719,0.0043893,-6.9369e-05,0,0,0.012954,-0.0053457,0,-0.00018036,0,0,0,0.014354,0.00027685,0.0043893,-0.28234,0.0063401,0.012538,6.5725e-08,0.58,0.36,0
0.029632,0.0034155,0.014383,0.00021603,0.0043798,-2.9132e-05,0,0,0.013005,-0.0054129,0,-7.5742e-05,0,0,0,0.014383,0.00021597,0.0043798,-0.11782,0.0063263,0.012612,6.6445e-08,0.6,0.36,0
0.029893,0.0034594,0.014413,8.276e-05,0.0043487,1.4657e-05,0,0,0.013083,-0.0055457,0,3.8108e-05,0,0,0,0.014413,8.2745e-05,0.0043487,0.058603,0.0062814,0.012744,6.7547e-08,0.62,0.36,0
0.030155,0.0035041,0.014439,-0.00010513,0.0043,6.5592e-05,0,0,0.01318,-0.0057267,0,0.00017054,0,0,0,0.014439,-0.00010542,0.0043,0.2584,0.0062112,0.012918,6.8867e-08,0.64,0.36,0
0.03042,0.0035499,0.014461,-0.00032117,0.0042418,0.00011945,0,0,0.013284,-0.0059319,0,0.00031057,0,0,0,0.014462,-0.00032213,0.0042418,0.46296,0.0061271,0.013112,7.0262e-08,0.66,0.36,0
0.030687,0.0035965,0.014512,-0.00055478,0.0041873,0.0001517,0,0,0.013423,-0.0061647,0,0.00039441,0,0,0,0.014514,-0.0005563,0.0041873,0.57678,0.0060483,0.013346,7.2146e-08,0.68,0.36,0
0.030957,0.0036424,0.014725,-0.0008379,0.0041662,0.00010904,0,0,0.013727,-0.0065054,0,0.0002835,0,0,0,0.014726,-0.00083866,0.0041662,0.4014,0.0060179,0.013763,7.6658e-08,0.7,0.36,0
0.031236,0.0036848,0.015352,-0.0012982,0.0042163,-0.00010865,0,0,0.014477,-0.0071689,0,-0.0002825,0,0,0,0.015353,-0.001299,0.0042163,-0.37386,0.0060902,0.014693,8.893e-08,0.72,0.36,0
0.031536,0.0037208,0.01628,-0.0020983,0.0042544,-0.00024139,0,0,0.015633,-0.0082585,0,-0.00062762,0,0,0,0.016283,-0.0021015,0.0042544,-0.7524,0.0061452,0.016172,1.096e-07,0.74,0.36,0
0.031861,0.0037927,0.012811,0.00070409,0.0040545,-0.0004921,0,0,0.021323,-0.0076785,0,-0.004084,0,0,0,0.012841,0.00067395,0.0040545,-3.7706,0.0058565,0.010879,1.019e-07,0.76,0.36,0
0.032338,0.0038336,0.019609,0.0014619,0.0063213,0.00052112,0,0,0.044006,-0.011363,0,0.0099715,0,0,0,0.019699,0.0013721,0.0063213,3.4867,0.0091308,0.016457,2.2243e-07,0.78,0.36,0
0.034024,0.0037724,0.016363,0.0024179,0.0056343,0.0004547,0,0,0.083684,-0.025087,0,0.0070934,0,0,0,0.016378,0.0024031,0.0056343,1.8656,0.0081384,0.012672,8.2047e-08,0.8,0.36,0
0.035686,0.0038389,0.015665,0.0013693,0.0051102,0.00040555,0,0,0.082325,-0.029179,0,0.0063266,0,0,0,0.015676,0.0013578,0.0051102,1.6237,0.0073814,0.01286,7.8682e-08,0.82,0.36,0
0.037318,0.0038938,0.015173,0.00067066,0.004753,0.00031002,0,0,0.081274,-0.031843,0,0.0048363,0,0,0,0.015179,0.00066404,0.004753,1.2241,0.0068655,0.012964,7.5518e-08,0.84,0.36,0
0.038937,0.0039468,0.014874,0.00022678,0.0045303,0.00026813,0,0,0.080682,-0.033567,0,0.0041828,0,0,0,0.014879,0.00022187,0.0045303,1.0484,0.0065437,0.013048,7.3563e-08,0.86,0.36,0
0.040545,0.0039966,0.014642,-7.6155e-05,0.0043696,0.00023415,0,0,0.080121,-0.034677,0,0.0036528,0,0,0,0.014645,-7.9879e-05,0.0043696,0.91124,0.0063117,0.013081,7.1724e-08,0.88,0.36,0
0.042142,0.0040416,0.01445,-0.00028777,0.0042487,0.00019954,0,0,0.079572,-0.035385,0,0.0031129,0,0,0,0.014453,-0.00029047,0.0042487,0.77556,0.0061371,0.013079,6.9982e-08,0.9,0.36,0
0.043728,0.0040804,0.014295,-0.00043652,0.0041574,0.0001626,0,0,0.07907,-0.035833,0,0.0025366,0,0,0,0.014297,-0.00043831,0.0041574,0.63233,0.0060052,0.013058,6.8446e-08,0.92,0.36,0
0.045304,0.0041116,0.014174,-0.0005394,0.0040905,0.00012362,0,0,0.078654,-0.036113,0,0.0019284,0,0,0,0.014175,-0.00054044,0.0040905,0.48132,0.0059084,0.013033,6.7201e-08,0.94,0.36,0
0.046874,0.0041346,0.014089,-0.00060687,0.0040446,8.3167e-05,0,0,0.078345,-0.036281,0,0.0012974,0,0,0,0.014089,-0.00060734,0.0040446,0.32424,0.0058422,0.01301,6.6294e-08,0.96,0.36,0
0.048438,0.0041485,0.014038,-0.00064515,0.0040178,4.1802e-05,0,0,0.078156,-0.036371,0,0.00065211,0,0,0,0.014038,-0.00064527,0.0040178,0.16312,0.0058034,0.012995,6.5745e-08,0.98,0.36,0
0.05,0.0041532,0.014021,-0.00065757,0.0040089,1.5034e-05,0,0,0.078092,-0.036399,0,0.00023454,0,0,0,0.014021,-0.00065758,0.0040089,0.058686,0.0057907,0.01299,6.5562e-08,1,0.36,0
0,0,0.011249,0.0048211,0.0048211,0.00051724,0,0,0.050139,5.421e-19,0,0.0080689,0,0,0,0.011291,0.0047798,0.0048211,4.5711,0.0069638,0.0064903,1.404e-08,0,0.38,0
0.0010028,0.00016138,0.011201,0.0042973,0.0046496,0.00051356,0,0,0.051104,-0.0027479,0,0.0080115,0,0,0,0.011239,0.0042593,0.0046496,4.2309,0.0067161,0.0067934,1.5923e-08,0.02,0.38,0
0.0020442,0.00032695,0.011377,0.0039014,0.0045836,0.00050929,0,0,0.05299,-0.0053205,0,0.0079449,0,0,0,0.011412,0.0038669,0.0045836,3.8795,0.0066207,0.0072131,1.8635e-08,0.04,0.38,0
0.0031224,0.00049431,0.01155,0.0035321,0.0045245,0.00049415,0,0,0.054796,-0.0077409,0,0.0077088,0,0,0,0.01158,0.0035018,0.0045245,3.5136,0.0065355,0.0076185,2.1338e-08,0.06,0.38,0
0.004236,0.00066119,0.011721,0.0031875,0.0044726,0.00046866,0,0,0.056538,-0.010023,0,0.0073111,0,0,0,0.011747,0.0031619,0.0044726,3.1341,0.0064604,0.0080104,2.4033e-08,0.08,0.38,0
0.0053839,0.00082547,0.011893,0.0028668,0.0044279,0.00043335,0,0,0.058226,-0.012176,0,0.0067603,0,0,0,0.011914,0.0028461,0.0044279,2.7425,0.0063958,0.0083891,2.6725e-08,0.1,0.38,0
0.0065651,0.00098523,0.012066,0.00257,0.0043907,0.00038888,0,0,0.059865,-0.014202,0,0.0060665,0,0,0,0.012082,0.0025541,0.0043907,2.3412,0.0063422,0.0087549,2.9417e-08,0.12,0.38,0
0.0077785,0.0011387,0.012241,0.0022976,0.0043617,0.000336,0,0,0.061461,-0.0161,0,0.0052415,0,0,0,0.012253,0.0022863,0.0043617,1.9331,0.0063002,0.0091077,3.2114e-08,0.14,0.38,0
0.0090235,0.0012845,0.01242,0.0020508,0.0043413,0.00027564,0,0,0.063016,-0.017866,0,0.0043,0,0,0,0.012428,0.0020435,0.0043413,1.5216,0.0062708,0.0094472,3.482e-08,0.16,0.38,0
0.010299,0.0014214,0.012604,0.0018312,0.0043306,0.00020891,0,0,0.064534,-0.019495,0,0.0032589,0,0,0,0.012608,0.0018272,0.0043306,1.1105,0.0062554,0.0097729,3.7543e-08,0.18,0.38,0
0.011605,0.0015486,0.012794,0.0016411,0.0043306,0.00013713,0,0,0.066016,-0.020978,0,0.0021393,0,0,0,0.012796,0.0016394,0.0043306,0.70433,0.0062553,0.010084,4.0289e-08,0.2,0.38,0
0.01294,0.0016658,0.012991,0.0014835,0.0043424,6.1978e-05,0,0,0.067461,-0.0223,0,0.00096686,0,0,0,0.012992,0.0014831,0.0043424,0.30857,0.0062724,0.010379,4.3063e-08,0.22,0.38,0
0.014303,0.0017731,0.013197,0.0013626,0.0043678,-1.431e-05,0,0,0.068865,-0.02344,0,-0.00022324,0,0,0,0.013197,0.0013626,0.0043678,-0.069283,0.006309,0.010654,4.5856e-08,0.24,0.38,0
0.015694,0.0018715,0.01341,0.0012845,0.0044085,-8.8465e-05,0,0,0.070215,-0.024367,0,-0.0013801,0,0,0,0.013411,0.0012839,0.0044085,-0.41798,0.0063678,0.010906,4.8644e-08,0.26,0.38,0
0.017112,0.0019629,0.013631,0.0012581,0.0044667,-0.00015538,0,0,0.071481,-0.025027,0,-0.002424,0,0,0,0.013633,0.0012561,0.0044667,-0.7194,0.0064519,0.011125,5.1358e-08,0.28,0.38,0
0.018554,0.0020506,0.013854,0.0012963,0.0045452,-0.00020679,0,0,0.072611,-0.025341,0,-0.0032259,0,0,0,0.013858,0.0012929,0.0045452,-0.94313,0.0065652,0.011295,5.3852e-08,0.3,0.38,0
0.020016,0.0021398,0.01407,0.0014181,0.0046465,-0.00022943,0,0,0.073504,-0.025181,0,-0.0035791,0,0,0,0.014074,0.001414,0.0046465,-1.0385,0.0067116,0.011393,5.5849e-08,0.32,0.38,0
0.021494,0.0022384,0.014258,0.0016515,0.0047728,-0.00020365,0,0,0.073983,-0.024346,0,-0.003177,0,0,0,0.014261,0.0016482,0.0047728,-0.92527,0.0068941,0.011377,5.6841e-08,0.34,0.38,0
0.022976,0.002357,0.014373,0.002034,0.0049222,-0.00010975,0,0,0.073719,-0.022528,0,-0.0017121,0,0,0,0.014374,0.002033,0.0049222,-0.50954,0.0071099,0.01118,5.5941e-08,0.36,0.38,0
0.024443,0.0025048,0.014371,0.0026389,0.0051031,4.5095e-05,0,0,0.072292,-0.019221,0,0.00070348,0,0,0,0.014372,0.0026387,0.0051031,0.22022,0.0073711,0.010715,5.2097e-08,0.38,0.38,0
0.025867,0.0026759,0.014278,0.0035325,0.005343,0.00018269,0,0,0.06969,-0.014122,0,0.0028499,0,0,0,0.014281,0.0035294,0.005343,0.97375,0.0077177,0.009969,4.5259e-08,0.4,0.38,0
0.02723,0.0028417,0.013949,0.00054031,0.0043468,0.00017432,0,0,0.040875,-0.008483,0,0.0021617,0,0,0,0.013953,0.00053658,0.0043468,0.91043,0.0062787,0.012094,5.2652e-08,0.42,0.38,0
0.027502,0.0029299,0.014047,-0.0013979,0.0037948,-2.0895e-05,0,0,0.013328,-0.0067505,0,-5.4327e-05,0,0,0,0.014047,-0.0013979,0.0037948,-0.077512,0.0054813,0.013613,6.8909e-08,0.44,0.38,0
0.027763,0.0029996,0.014034,-0.0004809,0.0040659,-0.00036011,0,0,0.012958,-0.0059108,0,-0.00093629,0,0,0,0.014043,-0.00048983,0.0040659,-1.4203,0.005873,0.012874,6.5133e-08,0.46,0.38,0
0.028021,0.0030518,0.014103,-0.00025583,0.0041541,-0.00047874,0,0,0.012933,-0.0057329,0,-0.0012447,0,0,0,0.014119,-0.00027177,0.0041541,-1.9075,0.0060003,0.012767,6.5182e-08,0.48,0.38,0
0.028281,0.0030952,0.014277,-0.0001064,0.0042513,-0.00042715,0,0,0.013034,-0.005665,0,-0.0011106,0,0,0,0.01429,-0.00011908,0.0042513,-1.6995,0.0061408,0.012797,6.6832e-08,0.5,0.38,0
0.028542,0.003137,0.014378,1.2285e-05,0.0043172,-0.00030481,0,0,0.01308,-0.0055964,0,-0.0007925,0,0,0,0.014385,5.8205e-06,0.0043172,-1.2149,0.0062359,0.012781,6.7542e-08,0.52,0.38,0
0.028804,0.0031793,0.014427,0.00013394,0.0043682,-0.00019673,0,0,0.013076,-0.0055046,0,-0.0005115,0,0,0,0.01443,0.00013123,0.0043682,-0.78843,0.0063097,0.01272,6.7532e-08,0.54,0.38,0
0.029065,0.0032222,0.014443,0.00022438,0.0044001,-0.00012501,0,0,0.013055,-0.0054284,0,-0.00032502,0,0,0,0.014444,0.00022328,0.0044001,-0.5037,0.0063557,0.01266,6.7253e-08,0.56,0.38,0
0.029326,0.0032648,0.014454,0.00025052,0.0044113,-8.5839e-05,0,0,0.013055,-0.0054089,0,-0.00022318,0,0,0,0.014454,0.00025,0.0044113,-0.34626,0.0063718,0.012648,6.726e-08,0.58,0.38,0
0.029587,0.0033066,0.014475,0.00018973,0.0043995,-6.0332e-05,0,0,0.013098,-0.0054727,0,-0.00015686,0,0,0,0.014475,0.00018947,0.0043995,-0.24197,0.0063548,0.012715,6.7877e-08,0.6,0.38,0
0.02985,0.0033478,0.014509,4.1957e-05,0.0043654,-2.7236e-05,0,0,0.013187,-0.0056204,0,-7.0812e-05,0,0,0,0.014509,4.1905e-05,0.0043654,-0.10786,0.0063055,0.012863,6.9125e-08,0.62,0.38,0
0.030115,0.0033887,0.014544,-0.00016982,0.0043122,2.965e-05,0,0,0.013301,-0.0058267,0,7.709e-05,0,0,0,0.014544,-0.00016988,0.0043122,0.11546,0.0062288,0.013063,7.0704e-08,0.64,0.38,0
0.030382,0.0034304,0.014552,-0.00041021,0.0042426,0.00010739,0,0,0.013402,-0.0060486,0,0.00027923,0,0,0,0.014553,-0.00041098,0.0042426,0.41122,0.0061282,0.013264,7.2025e-08,0.66,0.38,0
0.030651,0.0034728,0.014502,-0.00064172,0.0041581,0.00016937,0,0,0.013447,-0.0062398,0,0.00044037,0,0,0,0.014504,-0.00064362,0.0041581,0.6407,0.0060062,0.013408,7.2408e-08,0.68,0.38,0
0.03092,0.0035135,0.014315,-0.00089331,0.0040265,0.00010833,0,0,0.013375,-0.0063958,0,0.00028164,0,0,0,0.014316,-0.00089408,0.0040265,0.40808,0.005816,0.013443,7.0768e-08,0.7,0.38,0
0.031186,0.0035464,0.013869,-0.0012632,0.0037818,-0.00017844,0,0,0.013114,-0.0065584,0,-0.00046395,0,0,0,0.013871,-0.0012653,0.0037818,-0.67551,0.0054625,0.013349,6.5928e-08,0.72,0.38,0
0.031444,0.003569,0.012763,-0.002262,0.0031503,-0.00033503,0,0,0.012497,-0.007036,0,-0.00087108,0,0,0,0.012771,-0.0022695,0.0031503,-1.2767,0.0045505,0.013193,5.4424e-08,0.74,0.38,0
0.031686,0.0036332,0.012489,-0.00066254,0.0035478,-0.00037897,0,0,0.039574,-0.0093831,0,-0.0038504,0,0,0,0.012502,-0.00067547,0.0035478,-1.8351,0.0051247,0.011814,3.563e-08,0.76,0.38,0
0.033027,0.0035765,0.013371,0.0028204,0.0048575,0.00071081,0,0,0.066408,-0.015889,0,0.011089,0,0,0,0.013419,0.0027728,0.0048575,3.8369,0.0070164,0.0097721,4.0672e-08,0.78,0.38,0
0.034342,0.0033209,0.013747,0.0019535,0.00471,0.00040349,0,0,0.070485,-0.021501,0,0.0062944,0,0,0,0.01376,0.0019397,0.00471,1.9572,0.0068033,0.010708,4.9112e-08,0.8,0.38,0
0.035847,0.0032675,0.014624,0.0011658,0.0047369,0.00055742,0,0,0.077119,-0.027855,0,0.0086957,0,0,0,0.014647,0.0011427,0.0047369,2.3677,0.0068422,0.012114,6.4934e-08,0.82,0.38,0
0.037427,0.0032622,0.01481,0.00064988,0.004638,0.00052786,0,0,0.079343,-0.031108,0,0.0082347,0,0,0,0.01483,0.00063023,0.004638,2.1319,0.0066994,0.01268,7.0527e-08,0.84,0.38,0
0.03902,0.0032786,0.014689,0.00025029,0.0044817,0.00048239,0,0,0.079616,-0.033005,0,0.0075252,0,0,0,0.014705,0.00023419,0.0044817,1.9114,0.0064736,0.012883,7.0932e-08,0.86,0.38,0
0.040611,0.0033058,0.014517,-3.483e-05,0.0043447,0.00042687,0,0,0.079345,-0.03416,0,0.0066591,0,0,0,0.01453,-4.7341e-05,0.0043447,1.6788,0.0062756,0.012952,6.9875e-08,0.88,0.38,0
0.042194,0.0033366,0.014352,-0.00023845,0.004234,0.000363,0,0,0.078919,-0.034885,0,0.0056627,0,0,0,0.014361,-0.00024747,0.004234,1.4243,0.0061158,0.012962,6.8456e-08,0.9,0.38,0
0.043768,0.0033664,0.014211,-0.00038312,0.0041484,0.00029378,0,0,0.07849,-0.035346,0,0.004583,0,0,0,0.014217,-0.00038903,0.0041484,1.1527,0.0059922,0.012948,6.7096e-08,0.92,0.38,0
0.045334,0.0033921,0.014101,-0.00048388,0.004085,0.00022169,0,0,0.078121,-0.035637,0,0.0034583,0,0,0,0.014104,-0.00048724,0.004085,0.87064,0.0059006,0.012926,6.5964e-08,0.94,0.38,0
0.046893,0.0034116,0.014021,-0.00055024,0.0040413,0.00014822,0,0,0.077844,-0.035814,0,0.0023123,0,0,0,0.014023,-0.00055175,0.0040413,0.58274,0.0058375,0.012906,6.5131e-08,0.96,0.38,0
0.048448,0.0034238,0.013974,-0.000588,0.0040158,7.4202e-05,0,0,0.077674,-0.035909,0,0.0011576,0,0,0,0.013974,-0.00058838,0.0040158,0.29195,0.0058006,0.012893,6.4624e-08,0.98,0.38,0
0.05,0.0034279,0.013958,-0.00060026,0.0040074,1.3236e-05,0,0,0.077616,-0.035939,0,0.00020649,0,0,0,0.013958,-0.00060028,0.0040074,0.052093,0.0057884,0.012888,6.4455e-08,1,0.38,0
0,0,0.011203,0.0048011,0.0048011,0.00034352,0,0,0.049932,-8.6736e-19,0,0.0053589,0,0,0,0.011221,0.0047827,0.0048011,3.0629,0.0069349,0.0064291,1.3648e-08,0,0.4,0
0.00099863,0.00010718,0.011156,0.0042937,0.004635,0.00033971,0,0,0.050866,-0.0026622,0,0.0052994,0,0,0,0.011173,0.0042769,0.004635,2.827,0.006695,0.0067242,1.5466e-08,0.02,0.4,0
0.0020346,0.00022203,0.011326,0.0039099,0.0045708,0.0003393,0,0,0.052692,-0.005155,0,0.0052931,0,0,0,0.011342,0.0038944,0.0045708,2.6141,0.0066023,0.0071331,1.8077e-08,0.04,0.4,0
0.0031063,0.00034167,0.011493,0.003552,0.0045135,0.0003261,0,0,0.05444,-0.0074998,0,0.0050872,0,0,0,0.011506,0.0035386,0.0045135,2.3476,0.0065195,0.0075278,2.0676e-08,0.06,0.4,0
0.0042122,0.00046357,0.011658,0.0032181,0.0044629,0.00030111,0,0,0.056124,-0.0097098,0,0.0046974,0,0,0,0.011669,0.0032073,0.0044629,2.0406,0.0064464,0.007909,2.3265e-08,0.08,0.4,0
0.0053513,0.00058545,0.011824,0.0029074,0.0044192,0.00026518,0,0,0.057753,-0.011793,0,0.0041368,0,0,0,0.011831,0.0028995,0.0044192,1.7021,0.0063834,0.0082773,2.5848e-08,0.1,0.4,0
0.0065223,0.00070531,0.01199,0.0026198,0.0043828,0.00021908,0,0,0.059333,-0.013751,0,0.0034176,0,0,0,0.011995,0.0026147,0.0043828,1.3387,0.0063307,0.0086328,2.8427e-08,0.12,0.4,0
0.0077246,0.00082143,0.012157,0.0023559,0.004354,0.0001636,0,0,0.060867,-0.015586,0,0.0025522,0,0,0,0.01216,0.0023531,0.004354,0.95597,0.0062891,0.0089755,3.1005e-08,0.14,0.4,0
0.008957,0.0009324,0.012328,0.0021165,0.0043334,9.9595e-05,0,0,0.06236,-0.017292,0,0.0015537,0,0,0,0.012329,0.0021156,0.0043334,0.55873,0.0062594,0.0093051,3.3589e-08,0.16,0.4,0
0.010219,0.0010372,0.012503,0.0019033,0.0043219,2.8052e-05,0,0,0.063813,-0.018865,0,0.00043761,0,0,0,0.012503,0.0019033,0.0043219,0.15163,0.0062428,0.0096213,3.6182e-08,0.18,0.4,0
0.01151,0.0011351,0.012683,0.0017182,0.0043203,-4.981e-05,0,0,0.065228,-0.020296,0,-0.00077703,0,0,0,0.012683,0.001718,0.0043203,-0.26027,0.0062405,0.0099232,3.8791e-08,0.2,0.4,0
0.012828,0.0012262,0.012869,0.0015639,0.0043299,-0.00013236,0,0,0.066606,-0.021575,0,-0.0020648,0,0,0,0.012871,0.0015623,0.0043299,-0.6707,0.0062543,0.01021,4.1422e-08,0.22,0.4,0
0.014174,0.0013109,0.013063,0.0014438,0.0043521,-0.00021724,0,0,0.067947,-0.022685,0,-0.003389,0,0,0,0.013067,0.0014398,0.0043521,-1.0707,0.0062864,0.010479,4.4077e-08,0.24,0.4,0
0.015546,0.0013907,0.013267,0.0013629,0.004389,-0.0003008,0,0,0.069248,-0.023603,0,-0.0046924,0,0,0,0.013274,0.0013554,0.004389,-1.4465,0.0063396,0.010729,4.675e-08,0.26,0.4,0
0.016944,0.0014685,0.013482,0.0013279,0.0044429,-0.00037706,0,0,0.070503,-0.024297,0,-0.0058822,0,0,0,0.013494,0.0013162,0.0044429,-1.7753,0.0064176,0.010954,4.9421e-08,0.28,0.4,0
0.018366,0.0015487,0.01371,0.0013481,0.0045174,-0.00043616,0,0,0.071702,-0.02472,0,-0.0068042,0,0,0,0.013725,0.0013328,0.0045174,-2.0182,0.0065252,0.011147,5.2045e-08,0.3,0.4,0
0.019812,0.0016387,0.013953,0.0014368,0.0046171,-0.00046163,0,0,0.072823,-0.024806,0,-0.0072014,0,0,0,0.01397,0.0014198,0.0046171,-2.1093,0.0066691,0.011297,5.4531e-08,0.32,0.4,0
0.021279,0.0017495,0.014211,0.0016126,0.0047471,-0.00042709,0,0,0.073819,-0.024449,0,-0.0066626,0,0,0,0.014226,0.0015981,0.0047471,-1.9393,0.0068569,0.011384,5.6687e-08,0.34,0.4,0
0.022765,0.0018974,0.014466,0.0019051,0.0049114,-0.00029082,0,0,0.074527,-0.023449,0,-0.0045367,0,0,0,0.014473,0.0018984,0.0049114,-1.3256,0.0070942,0.011371,5.8025e-08,0.36,0.4,0
0.02426,0.0021048,0.014599,0.0023488,0.0050843,-1.8927e-05,0,0,0.074215,-0.021337,0,-0.00029526,0,0,0,0.014599,0.0023487,0.0050843,-0.088523,0.0073441,0.011137,5.6783e-08,0.38,0.4,0
0.025733,0.0023819,0.014531,0.0032023,0.00532,0.00031804,0,0,0.071846,-0.016518,0,0.0049614,0,0,0,0.01454,0.0031934,0.00532,1.6068,0.0076845,0.010447,5.0476e-08,0.4,0.4,0
0.027134,0.0026706,0.014327,0.00057624,0.004471,0.00049951,0,0,0.041997,-0.0086798,0,0.0051059,0,0,0,0.014349,0.0005544,0.004471,2.3348,0.0064581,0.012434,5.7278e-08,0.42,0.4,0
0.027413,0.0027981,0.014626,-0.00043998,0.0042558,-9.8215e-05,0,0,0.013481,-0.0061046,0,-0.00025536,0,0,0,0.014627,-0.00044062,0.0042558,-0.37349,0.0061473,0.013354,7.3261e-08,0.44,0.4,0
0.027673,0.002883,0.014332,-0.00044829,0.0041651,-0.00052316,0,0,0.013217,-0.0059974,0,-0.0013602,0,0,0,0.01435,-0.00046678,0.0041651,-2.0247,0.0060162,0.013129,6.935e-08,0.46,0.4,0
0.027942,0.0029351,0.01466,-0.0003289,0.0042994,-0.00064184,0,0,0.013469,-0.0060168,0,-0.0016688,0,0,0,0.014688,-0.00035633,0.0042994,-2.4474,0.0062103,0.01334,7.3755e-08,0.48,0.4,0
0.028212,0.0029793,0.014727,-0.00028112,0.0043338,-0.00048304,0,0,0.013511,-0.0059994,0,-0.0012559,0,0,0,0.014743,-0.00029665,0.0043338,-1.8415,0.00626,0.013341,7.4279e-08,0.5,0.4,0
0.028482,0.0030228,0.014728,-0.00012622,0.0043805,-0.00030316,0,0,0.013452,-0.0058588,0,-0.00078823,0,0,0,0.014734,-0.00013241,0.0043805,-1.1687,0.0063274,0.013202,7.3307e-08,0.52,0.4,0
0.02875,0.0030676,0.014674,4.8721e-05,0.004417,-0.00016561,0,0,0.013335,-0.0056787,0,-0.00043058,0,0,0,0.014676,4.6846e-05,0.004417,-0.64865,0.00638,0.013007,7.1516e-08,0.54,0.4,0
0.029015,0.0031126,0.014624,0.00019472,0.0044457,-9.895e-05,0,0,0.013232,-0.0055262,0,-0.00025727,0,0,0,0.014625,0.00019404,0.0044457,-0.39288,0.0064215,0.012844,6.9987e-08,0.56,0.4,0
0.029279,0.003156,0.014596,0.00025038,0.0044539,-8.4471e-05,0,0,0.013185,-0.0054646,0,-0.00021962,0,0,0,0.014596,0.00024988,0.0044539,-0.33736,0.0064334,0.012774,6.9279e-08,0.58,0.4,0
0.029543,0.0031966,0.014605,0.00019192,0.0044392,-9.1493e-05,0,0,0.013216,-0.0055214,0,-0.00023788,0,0,0,0.014606,0.00019134,0.0044392,-0.36368,0.0064121,0.012829,6.9727e-08,0.6,0.4,0
0.029808,0.0032345,0.014651,1.9465e-05,0.0044011,-8.4547e-05,0,0,0.013325,-0.0056961,0,-0.00021982,0,0,0,0.014651,1.8977e-05,0.0044011,-0.33107,0.0063571,0.013007,7.1298e-08,0.62,0.4,0
0.030076,0.003271,0.014713,-0.0002418,0.0043413,-3.3535e-05,0,0,0.013483,-0.005958,0,-8.719e-05,0,0,0,0.014713,-0.00024188,0.0043413,-0.12848,0.0062708,0.013271,7.3553e-08,0.64,0.4,0
0.030347,0.0033079,0.014759,-0.00052744,0.0042695,7.8887e-05,0,0,0.013636,-0.006236,0,0.00020511,0,0,0,0.01476,-0.00052785,0.0042695,0.29567,0.0061671,0.013542,7.5686e-08,0.66,0.4,0
0.030621,0.0033469,0.014704,-0.00078025,0.004177,0.00022607,0,0,0.013685,-0.0064444,0,0.00058778,0,0,0,0.014707,-0.00078355,0.004177,0.8363,0.0060334,0.013701,7.6107e-08,0.68,0.4,0
0.030895,0.0033866,0.014462,-0.00090986,0.0040657,0.00035929,0,0,0.013516,-0.0064683,0,0.00093417,0,0,0,0.014471,-0.00091825,0.0040657,1.3382,0.0058727,0.0136,7.3155e-08,0.7,0.4,0
0.031162,0.0034225,0.013831,-0.0010448,0.0038358,0.00032423,0,0,0.012993,-0.0063448,0,0.000843,0,0,0,0.013838,-0.0010519,0.0038358,1.248,0.0055406,0.013146,6.4656e-08,0.72,0.4,0
0.031414,0.0034393,0.014381,-0.00091551,0.0040396,0.00010114,0,0,0.013444,-0.0064417,0,0.00026296,0,0,0,0.014382,-0.00091618,0.0040396,0.37881,0.005835,0.013519,7.1829e-08,0.74,0.4,0
0.0317,0.0034174,0.013814,-0.00095787,0.0038567,-0.00032588,0,0,0.041996,-0.01073,0,-0.0049783,0,0,0,0.013833,-0.00097738,0.0038567,-1.7805,0.0055708,0.013235,5.1212e-08,0.76,0.4,0
0.033094,0.003198,0.014195,0.0022937,0.0049466,-0.00042784,0,0,0.072137,-0.020693,0,-0.0066742,0,0,0,0.01421,0.0022783,0.0049466,-2.0562,0.0071451,0.010847,5.2414e-08,0.78,0.4,0
0.034585,0.0029123,0.014571,0.0019698,0.0049624,6.1831e-05,0,0,0.07495,-0.023342,0,0.00096457,0,0,0,0.014572,0.0019695,0.0049624,0.28112,0.0071678,0.011404,5.8855e-08,0.8,0.4,0
0.036092,0.0027247,0.014471,0.0011733,0.0046931,0.00046684,0,0,0.076263,-0.027455,0,0.0072827,0,0,0,0.014487,0.0011569,0.0046931,2.0083,0.006779,0.011961,6.2671e-08,0.82,0.4,0
0.037636,0.0026496,0.014483,0.00065253,0.0045405,0.0006393,0,0,0.077547,-0.030326,0,0.009973,0,0,0,0.014512,0.00062305,0.0045405,2.641,0.0065585,0.012403,6.6053e-08,0.84,0.4,0
0.039194,0.0026266,0.0144,0.00029369,0.004408,0.00064503,0,0,0.077935,-0.032092,0,0.010063,0,0,0,0.014429,0.00026426,0.004408,2.6127,0.0063672,0.012614,6.6835e-08,0.86,0.4,0
0.040753,0.0026302,0.014268,3.1025e-05,0.0042898,0.00058848,0,0,0.077833,-0.033219,0,0.0091802,0,0,0,0.014293,6.7425e-06,0.0042898,2.3628,0.0061964,0.012698,6.6247e-08,0.88,0.4,0
0.042307,0.0026462,0.014136,-0.00016074,0.0041925,0.00050477,0,0,0.077558,-0.033955,0,0.0078744,0,0,0,0.014154,-0.00017854,0.0041925,2.0196,0.0060559,0.012723,6.5225e-08,0.9,0.4,0
0.043855,0.0026665,0.01402,-0.00029978,0.0041161,0.00040916,0,0,0.077251,-0.034444,0,0.0063829,0,0,0,0.014032,-0.00031147,0.0041161,1.6353,0.0059454,0.012721,6.4175e-08,0.92,0.4,0
0.045398,0.0026862,0.013928,-0.0003981,0.0040589,0.00030852,0,0,0.076977,-0.034764,0,0.0048129,0,0,0,0.013934,-0.00040474,0.0040589,1.2332,0.0058628,0.012709,6.3276e-08,0.94,0.4,0
0.046934,0.002702,0.013861,-0.00046355,0.0040193,0.00020604,0,0,0.076767,-0.034966,0,0.0032142,0,0,0,0.013864,-0.00046651,0.0040193,0.82387,0.0058056,0.012697,6.2603e-08,0.96,0.4,0
0.048468,0.0027121,0.013821,-0.00050105,0.0039961,0.00010305,0,0,0.076636,-0.035077,0,0.0016076,0,0,0,0.013822,-0.00050179,0.0039961,0.41222,0.0057721,0.012688,6.2192e-08,0.98,0.4,0
0.05,0.0027156,0.013808,-0.00051327,0.0039884,1.1186e-05,0,0,0.076592,-0.035113,0,0.0001745,0,0,0,0.013808,-0.00051327,0.0039884,0.044752,0.005761,0.012684,6.2053e-08,1,0.4,0
0,0,0.011137,0.0047728,0.0047728,0.00017593,0,0,0.049637,7.5894e-19,0,0.0027445,0,0,0,0.011141,0.0047679,0.0047728,1.5824,0.006894,0.006371,1.3282e-08,0,0.42,0
0.00099274,5.489e-05,0.011092,0.0042852,0.0046131,0.00017209,0,0,0.050535,-0.0025581,0,0.0026846,0,0,0,0.011096,0.0042808,0.0046131,1.4473,0.0066634,0.0066555,1.5014e-08,0.02,0.42,0
0.0020214,0.00012075,0.011255,0.0039156,0.0045512,0.00017558,0,0,0.052289,-0.0049572,0,0.002739,0,0,0,0.011259,0.0039114,0.0045512,1.3696,0.0065739,0.0070496,1.7495e-08,0.04,0.42,0
0.0030843,0.00019432,0.011414,0.0035705,0.0044955,0.00016459,0,0,0.053968,-0.0072152,0,0.0025676,0,0,0,0.011418,0.003567,0.0044955,1.2015,0.0064935,0.0074304,1.9965e-08,0.06,0.42,0
0.0041801,0.0002728,0.011572,0.0032484,0.0044462,0.00014056,0,0,0.055583,-0.0093431,0,0.0021928,0,0,0,0.011575,0.003246,0.0044462,0.96717,0.0064223,0.0077981,2.2423e-08,0.08,0.42,0
0.0053076,0.00035377,0.011729,0.0029485,0.0044033,0.00010462,0,0,0.057141,-0.011347,0,0.0016321,0,0,0,0.01173,0.0029473,0.0044033,0.68256,0.0063603,0.0081531,2.487e-08,0.1,0.42,0
0.0064658,0.00043517,0.011886,0.0026711,0.0043671,5.7685e-05,0,0,0.058647,-0.013229,0,0.00089989,0,0,0,0.011886,0.0026707,0.0043671,0.35866,0.006308,0.0084954,2.7305e-08,0.12,0.42,0
0.0076535,0.00051531,0.012043,0.0024164,0.004338,5.7354e-07,0,0,0.060103,-0.014988,0,8.9473e-06,0,0,0,0.012043,0.0024164,0.004338,0.0034135,0.0062659,0.0088245,2.9731e-08,0.14,0.42,0
0.0088699,0.00059283,0.012202,0.0021856,0.0043164,-6.591e-05,0,0,0.061511,-0.01662,0,-0.0010282,0,0,0,0.012203,0.0021851,0.0043164,-0.37698,0.0062348,0.0091403,3.2147e-08,0.16,0.42,0
0.010114,0.0006668,0.012363,0.0019798,0.004303,-0.00014089,0,0,0.062872,-0.018121,0,-0.0021979,0,0,0,0.012365,0.0019779,0.004303,-0.77724,0.0062154,0.0094422,3.4557e-08,0.18,0.42,0
0.011385,0.00073674,0.012528,0.0018009,0.0042987,-0.00022332,0,0,0.064188,-0.019482,0,-0.0034839,0,0,0,0.012533,0.0017963,0.0042987,-1.1922,0.0062092,0.0097295,3.6964e-08,0.2,0.42,0
0.012682,0.00080276,0.012697,0.0016511,0.0043044,-0.00031179,0,0,0.065461,-0.020695,0,-0.0048638,0,0,0,0.012705,0.0016423,0.0043044,-1.6156,0.0062174,0.010001,3.9373e-08,0.22,0.42,0
0.014003,0.00086569,0.012872,0.0015332,0.0043215,-0.0004042,0,0,0.066691,-0.021748,0,-0.0063055,0,0,0,0.012886,0.0015188,0.0043215,-2.0391,0.0062421,0.010257,4.179e-08,0.24,0.42,0
0.015349,0.00092738,0.013055,0.0014507,0.0043517,-0.00049736,0,0,0.067886,-0.022628,0,-0.0077588,0,0,0,0.013076,0.0014294,0.0043517,-2.4497,0.0062858,0.010495,4.4224e-08,0.26,0.42,0
0.016719,0.00099102,0.013251,0.001408,0.0043976,-0.00058613,0,0,0.069055,-0.023319,0,-0.0091436,0,0,0,0.01328,0.001379,0.0043976,-2.8265,0.0063521,0.010715,4.6688e-08,0.28,0.42,0
0.018111,0.0010617,0.013466,0.0014107,0.0044629,-0.0006622,0,0,0.070221,-0.023807,0,-0.01033,0,0,0,0.013502,0.0013745,0.0044629,-3.1348,0.0064464,0.010916,4.9214e-08,0.3,0.42,0
0.019527,0.0011475,0.013711,0.0014665,0.0045534,-0.0007121,0,0,0.071433,-0.024078,0,-0.011109,0,0,0,0.013753,0.0014252,0.0045534,-3.3171,0.0065771,0.011099,5.1872e-08,0.32,0.42,0
0.020969,0.0012604,0.014011,0.0015865,0.0046791,-0.00071292,0,0,0.072786,-0.024123,0,-0.011122,0,0,0,0.014051,0.0015457,0.0046791,-3.2734,0.0067587,0.011271,5.4818e-08,0.34,0.42,0
0.022439,0.0014191,0.014402,0.0017915,0.0048579,-0.00062637,0,0,0.074441,-0.023918,0,-0.0097713,0,0,0,0.014433,0.0017605,0.0048579,-2.8367,0.007017,0.011442,5.8355e-08,0.36,0.42,0
0.023946,0.0016513,0.014929,0.0021291,0.0051173,-0.00035775,0,0,0.076528,-0.023308,0,-0.0055808,0,0,0,0.014939,0.0021191,0.0051173,-1.5998,0.0073916,0.011614,6.2749e-08,0.38,0.42,0
0.0255,0.0020152,0.015172,0.0025811,0.0053259,0.00012743,0,0,0.076799,-0.02141,0,0.001988,0,0,0,0.015173,0.0025798,0.0053259,0.57983,0.0076929,0.01147,6.2773e-08,0.4,0.42,0
0.027018,0.0024945,0.013788,-0.00081539,0.0038919,-0.00019458,0,0,0.044494,-0.01049,0,0.0042768,0,0,0,0.013848,-0.00087449,0.0038919,0.12342,0.0056216,0.0132,4.7538e-08,0.42,0.42,0
0.02728,0.0026857,0.015227,3.437e-05,0.0045784,0.00038919,0,0,0.013843,-0.0059073,0,0.0010119,0,0,0,0.015237,2.4407e-05,0.0045784,1.4665,0.0066133,0.013524,8.0168e-08,0.44,0.42,0
0.027572,0.0027597,0.015851,-5.3658e-05,0.0047391,-0.00063447,0,0,0.014445,-0.0062305,0,-0.0016496,0,0,0,0.015876,-7.8929e-05,0.0047391,-2.2809,0.0068453,0.014174,9.1317e-08,0.46,0.42,0
0.027858,0.0028112,0.015471,-0.0004878,0.0044949,-0.00055413,0,0,0.014269,-0.0064776,0,-0.0014407,0,0,0,0.01549,-0.00050702,0.0044949,-1.9863,0.0064927,0.014174,8.7237e-08,0.48,0.42,0
0.028143,0.0028553,0.015321,-0.00044564,0.0044627,-0.00039013,0,0,0.014116,-0.0063808,0,-0.0010143,0,0,0,0.015331,-0.00045529,0.0044627,-1.4165,0.0064461,0.013991,8.4326e-08,0.5,0.42,0
0.028422,0.0029027,0.015097,-0.00029267,0.0044412,-0.00017729,0,0,0.013852,-0.0061541,0,-0.00046095,0,0,0,0.015099,-0.00029472,0.0044412,-0.65994,0.0064151,0.013656,7.9744e-08,0.52,0.42,0
0.028697,0.0029522,0.014945,-1.4933e-05,0.0044791,-5.9451e-05,0,0,0.013606,-0.0058423,0,-0.00015457,0,0,0,0.014946,-1.5169e-05,0.0044791,-0.22769,0.0064698,0.013296,7.5867e-08,0.54,0.42,0
0.028966,0.0030011,0.014822,0.00019716,0.0045058,-2.9789e-05,0,0,0.013411,-0.0056013,0,-7.745e-05,0,0,0,0.014822,0.0001971,0.0045058,-0.1167,0.0065084,0.013017,7.2858e-08,0.56,0.42,0
0.029233,0.0030462,0.014759,0.00028862,0.0045144,-6.3927e-05,0,0,0.013318,-0.0054935,0,-0.00016621,0,0,0,0.01476,0.00028834,0.0045144,-0.25311,0.0065207,0.012889,7.1432e-08,0.58,0.42,0
0.029499,0.0030858,0.014757,0.00023309,0.0044969,-0.00011949,0,0,0.013338,-0.005543,0,-0.00031068,0,0,0,0.014758,0.0002321,0.0044969,-0.47136,0.0064955,0.012932,7.1712e-08,0.6,0.42,0
0.029767,0.0031199,0.014812,3.0428e-05,0.0044528,-0.00015881,0,0,0.013467,-0.005749,0,-0.00041292,0,0,0,0.014814,2.8722e-05,0.0044528,-0.61549,0.0064318,0.013144,7.3645e-08,0.62,0.42,0
0.030038,0.0031504,0.014918,-0.000293,0.0043876,-0.00013716,0,0,0.01369,-0.0060848,0,-0.00035662,0,0,0,0.01492,-0.00029424,0.0043876,-0.51658,0.0063377,0.013496,7.6954e-08,0.64,0.42,0
0.030314,0.003181,0.015035,-0.00067716,0.0043073,-2.3541e-05,0,0,0.013946,-0.0064797,0,-6.1207e-05,0,0,0,0.015035,-0.00067719,0.0043073,-0.085846,0.0062216,0.013907,8.0702e-08,0.66,0.42,0
0.030596,0.003215,0.015188,-0.00092843,0.0042778,0.00020016,0,0,0.014183,-0.0067681,0,0.00052042,0,0,0,0.01519,-0.00093092,0.0042778,0.71146,0.006179,0.01425,8.4458e-08,0.68,0.42,0
0.030882,0.0032548,0.015245,-0.0010421,0.0042608,0.00042465,0,0,0.014279,-0.0068938,0,0.0011041,0,0,0,0.015256,-0.0010532,0.0042608,1.4925,0.0061545,0.014407,8.6135e-08,0.7,0.42,0
0.031167,0.0032926,0.015592,-0.00069586,0.0044689,0.00061974,0,0,0.01446,-0.0067142,0,0.0016113,0,0,0,0.015616,-0.0007194,0.0044689,2.1759,0.0064551,0.014457,9.0509e-08,0.72,0.42,0
0.03146,0.0033113,0.015003,-0.00095429,0.0042146,-0.00032476,0,0,0.014025,-0.0067195,0,-0.00084437,0,0,0,0.01501,-0.00096089,0.0042146,-1.1654,0.0060877,0.014113,8.1674e-08,0.74,0.42,0
0.031728,0.003204,0.013517,-0.0020555,0.0034386,0.00012553,0,0,0.045136,-0.012244,0,-0.0056554,0,0,0,0.013589,-0.002127,0.0034386,-0.5939,0.0049668,0.014025,4.0295e-08,0.76,0.42,0
0.033266,0.0027487,0.015066,0.0017559,0.0050467,-0.00027943,0,0,0.078153,-0.025668,0,-0.0043591,0,0,0,0.015072,0.00175,0.0050467,-1.2021,0.0072896,0.012018,6.7048e-08,0.78,0.42,0
0.034854,0.0023872,0.014963,0.0014158,0.0049136,0.00022737,0,0,0.078384,-0.027283,0,0.0035469,0,0,0,0.014967,0.001412,0.0049136,0.96126,0.0070974,0.012187,6.7745e-08,0.8,0.42,0
0.036401,0.0021693,0.014508,0.0010559,0.0046693,0.00060899,0,0,0.076745,-0.028184,0,0.0095002,0,0,0,0.014536,0.0010284,0.0046693,2.5867,0.0067445,0.012105,6.4082e-08,0.82,0.42,0
0.037924,0.0020492,0.014207,0.00065428,0.0044583,0.00076374,0,0,0.076038,-0.029671,0,0.011914,0,0,0,0.01425,0.00061137,0.0044583,3.2153,0.0064398,0.012179,6.2538e-08,0.84,0.42,0
0.039442,0.001995,0.014047,0.00034884,0.0043188,0.0007794,0,0,0.075881,-0.030965,0,0.012159,0,0,0,0.014091,0.00030463,0.0043188,3.246,0.0062382,0.012282,6.2014e-08,0.86,0.42,0
0.040959,0.001977,0.013926,0.00011659,0.0042128,0.00071595,0,0,0.075763,-0.03195,0,0.011169,0,0,0,0.013963,7.9567e-05,0.0042128,2.9599,0.0060851,0.012347,6.142e-08,0.88,0.42,0
0.042473,0.0019784,0.013823,-5.9797e-05,0.004129,0.00061635,0,0,0.075614,-0.032672,0,0.0096151,0,0,0,0.01385,-8.7107e-05,0.004129,2.5371,0.0059641,0.01238,6.072e-08,0.9,0.42,0
0.043984,0.0019886,0.013737,-0.00019161,0.0040636,0.00050041,0,0,0.075451,-0.03319,0,0.0078064,0,0,0,0.013755,-0.00020957,0.0040636,2.0549,0.0058696,0.012393,6.0026e-08,0.92,0.42,0
0.045491,0.0020015,0.013669,-0.00028695,0.0040145,0.00037759,0,0,0.075302,-0.033551,0,0.0058904,0,0,0,0.013679,-0.00029716,0.0040145,1.5487,0.0057987,0.012396,5.9425e-08,0.94,0.42,0
0.046996,0.0020129,0.013619,-0.00035144,0.0039804,0.00025223,0,0,0.075184,-0.033788,0,0.0039348,0,0,0,0.013624,-0.00035599,0.0039804,1.034,0.0057494,0.012394,5.897e-08,0.96,0.42,0
0.048498,0.0020207,0.01359,-0.00038875,0.0039603,0.00012616,0,0,0.075109,-0.033922,0,0.0019682,0,0,0,0.013591,-0.00038989,0.0039603,0.51708,0.0057204,0.012392,5.8689e-08,0.98,0.42,0
0.05,0.0020234,0.01358,-0.00040097,0.0039536,8.6848e-06,0,0,0.075083,-0.033966,0,0.00013548,0,0,0,0.01358,-0.00040097,0.0039536,0.035592,0.0057108,0.012391,5.8594e-08,1,0.42,0
0,0,0.011053,0.0047368,0.0047368,1.5557e-05,0,0,0.049263,2.1684e-19,0,0.00024268,0,0,0,0.011053,0.0047368,0.0047368,0.14113,0.0068421,0.0063158,1.294e-08,0,0.44,0
0.00098526,4.8537e-06,0.01101,0.004272,0.0045847,1.1829e-05,0,0,0.050119,-0.0024387,0,0.00018453,0,0,0,0.01101,0.004272,0.0045847,0.10058,0.0066223,0.0065874,1.457e-08,0.02,0.44,0
0.0020048,2.3736e-05,0.011165,0.0039183,0.004525,1.9238e-05,0,0,0.051792,-0.0047324,0,0.00030011,0,0,0,0.011165,0.0039182,0.004525,0.1521,0.0065361,0.0069633,1.6898e-08,0.04,0.44,0
0.003057,5.3067e-05,0.011316,0.0035872,0.0044711,1.0852e-05,0,0,0.053394,-0.0068944,0,0.00016929,0,0,0,0.011316,0.0035872,0.0044711,0.080443,0.0064582,0.0073274,1.9218e-08,0.06,0.44,0
0.0041405,8.985e-05,0.011465,0.0032777,0.0044229,-1.1519e-05,0,0,0.05493,-0.0089323,0,-0.0001797,0,0,0,0.011465,0.0032777,0.0044229,-0.080609,0.0063886,0.0076793,2.1525e-08,0.08,0.44,0
0.0052542,0.00013157,0.011612,0.0029895,0.0043805,-4.6508e-05,0,0,0.056407,-0.01085,0,-0.00072552,0,0,0,0.011612,0.0029893,0.0043805,-0.30902,0.0063274,0.0080187,2.3816e-08,0.1,0.44,0
0.0063968,0.00017615,0.011758,0.0027227,0.0043442,-9.305e-05,0,0,0.057827,-0.012647,0,-0.0014516,0,0,0,0.011759,0.0027218,0.0043442,-0.58998,0.006275,0.008345,2.6085e-08,0.12,0.44,0
0.0075673,0.00022191,0.011903,0.002478,0.0043142,-0.00015027,0,0,0.05919,-0.014323,0,-0.0023442,0,0,0,0.011905,0.0024756,0.0043142,-0.91322,0.0062317,0.0086579,2.8331e-08,0.14,0.44,0
0.0087644,0.00026759,0.012047,0.0022562,0.004291,-0.00021738,0,0,0.060497,-0.015871,0,-0.0033912,0,0,0,0.012052,0.0022514,0.004291,-1.2713,0.0061981,0.0089565,3.0548e-08,0.16,0.44,0
0.0099871,0.00031234,0.012191,0.0020587,0.0042749,-0.00029362,0,0,0.061745,-0.017286,0,-0.0045804,0,0,0,0.0122,0.0020502,0.0042749,-1.6585,0.0061749,0.00924,3.2736e-08,0.18,0.44,0
0.011234,0.00035585,0.012335,0.001887,0.0042667,-0.00037808,0,0,0.062936,-0.018562,0,-0.0058981,0,0,0,0.012349,0.0018734,0.0042667,-2.0697,0.006163,0.0095077,3.4891e-08,0.2,0.44,0
0.012505,0.00039837,0.012481,0.001743,0.0042672,-0.00046964,0,0,0.064067,-0.019689,0,-0.0073263,0,0,0,0.012502,0.0017224,0.0042672,-2.4995,0.0061637,0.0097587,3.7013e-08,0.22,0.44,0
0.013797,0.00044095,0.012629,0.0016286,0.0042772,-0.00056668,0,0,0.065143,-0.020659,0,-0.0088402,0,0,0,0.012658,0.0015995,0.0042772,-2.9412,0.0061782,0.0099924,3.9106e-08,0.24,0.44,0
0.01511,0.00048561,0.012781,0.0015464,0.0042983,-0.00066685,0,0,0.066167,-0.021465,0,-0.010403,0,0,0,0.012821,0.001507,0.0042983,-3.385,0.0062086,0.010208,4.1177e-08,0.26,0.44,0
0.016444,0.00053571,0.012941,0.0014989,0.0043321,-0.0007666,0,0,0.067153,-0.022099,0,-0.011959,0,0,0,0.012993,0.0014477,0.0043321,-3.8159,0.0062574,0.010407,4.3245e-08,0.28,0.44,0
0.017796,0.00059644,0.013116,0.0014887,0.0043814,-0.00086072,0,0,0.06813,-0.022563,0,-0.013427,0,0,0,0.013179,0.0014253,0.0043814,-4.2108,0.0063287,0.01059,4.5354e-08,0.3,0.44,0
0.019169,0.00067556,0.013317,0.0015189,0.0044507,-0.00094144,0,0,0.069156,-0.022868,0,-0.014686,0,0,0,0.013392,0.0014442,0.0044507,-4.5338,0.0064288,0.010764,4.7601e-08,0.32,0.44,0
0.020563,0.00078461,0.013568,0.0015937,0.0045484,-0.00099767,0,0,0.07035,-0.023047,0,-0.015564,0,0,0,0.01365,0.0015111,0.0045484,-4.7305,0.0065699,0.010941,5.0202e-08,0.34,0.44,0
0.021983,0.00094065,0.013917,0.001723,0.004692,-0.0010092,0,0,0.071954,-0.023158,0,-0.015744,0,0,0,0.014,0.0016401,0.004692,-4.6995,0.0067773,0.011151,5.3647e-08,0.36,0.44,0
0.023441,0.0011725,0.014516,0.0019618,0.0049434,-0.00094605,0,0,0.074668,-0.023257,0,-0.014758,0,0,0,0.014587,0.0018909,0.0049434,-4.2853,0.0071405,0.011479,5.9552e-08,0.38,0.44,0
0.024969,0.0015255,0.01566,0.002418,0.0054234,-0.00049247,0,0,0.079845,-0.023442,0,-0.0076825,0,0,0,0.015678,0.0023997,0.0054234,-2.1269,0.0078337,0.012054,7.124e-08,0.4,0.44,0
0.026634,0.002251,0.02131,0.00039538,0.0065115,-0.0012318,0,0,0.046208,-0.017274,0,-0.01011,0,0,0,0.021392,0.00031332,0.0065115,-3.9993,0.0094055,0.018768,3.4114e-07,0.42,0.44,0
0.027188,0.0025618,0.013327,0.00080692,0.0042402,0.00061192,0,0,0.023349,-0.0084617,0,0.0047861,0,0,0,0.013365,0.00076869,0.0042402,3.9392,0.0061248,0.01127,1.0637e-07,0.44,0.44,0
0.027482,0.0026338,0.016545,0.00013182,0.0050032,0.00016052,0,0,0.015005,-0.0063328,0,0.00041735,0,0,0,0.016547,0.00013025,0.0050032,0.56027,0.0072268,0.014603,1.0197e-07,0.46,0.44,0
0.027789,0.002676,0.016299,-0.00031053,0.0047964,-0.00029129,0,0,0.014953,-0.0066391,0,-0.00075736,0,0,0,0.016304,-0.00031564,0.0047964,-1.0044,0.0069282,0.014744,1.0038e-07,0.48,0.44,0
0.02808,0.0027241,0.015575,-0.00072804,0.0044541,-0.00010758,0,0,0.014457,-0.0067368,0,-0.00027971,0,0,0,0.015576,-0.00072875,0.0044541,-0.37806,0.0064338,0.014429,8.9879e-08,0.5,0.44,0
0.028367,0.0027766,0.015363,-0.00040394,0.0044878,2.1352e-05,0,0,0.014138,-0.0063593,0,5.5516e-05,0,0,0,0.015363,-0.00040397,0.0044878,0.07759,0.0064824,0.013979,8.458e-08,0.52,0.44,0
0.028645,0.0028339,0.015138,-3.7353e-05,0.0045303,9.176e-05,0,0,0.013791,-0.005938,0,0.00023858,0,0,0,0.015139,-3.7908e-05,0.0045303,0.34642,0.0065438,0.013486,7.8977e-08,0.54,0.44,0
0.028918,0.0028885,0.015015,0.00025407,0.0045809,4.7332e-05,0,0,0.013565,-0.0056248,0,0.00012306,0,0,0,0.015016,0.00025392,0.0045809,0.18371,0.0066168,0.013144,7.5439e-08,0.56,0.44,0
0.029188,0.0029362,0.014943,0.00035399,0.004589,-3.782e-05,0,0,0.01346,-0.0055055,0,-9.8333e-05,0,0,0,0.014943,0.00035389,0.004589,-0.14854,0.0066285,0.012999,7.3773e-08,0.58,0.44,0
0.029457,0.0029749,0.014931,0.00030123,0.0045697,-0.00013261,0,0,0.01347,-0.005549,0,-0.00034478,0,0,0,0.014932,0.00030003,0.0045697,-0.51929,0.0066006,0.013033,7.3922e-08,0.6,0.44,0
0.029727,0.0030046,0.014979,9.3742e-05,0.0045219,-0.0002203,0,0,0.013594,-0.0057566,0,-0.00057279,0,0,0,0.014982,9.0482e-05,0.0045219,-0.84772,0.0065316,0.013244,7.5849e-08,0.62,0.44,0
0.030001,0.0030276,0.015073,-0.00030866,0.0044294,-0.00026469,0,0,0.013837,-0.0061595,0,-0.0006882,0,0,0,0.015078,-0.00031321,0.0044294,-0.98555,0.0063981,0.013652,7.9514e-08,0.64,0.44,0
0.03028,0.0030487,0.015259,-0.00079245,0.00434,-0.00018361,0,0,0.014195,-0.0066721,0,-0.00047739,0,0,0,0.015261,-0.00079455,0.00434,-0.65529,0.0062688,0.014202,8.4946e-08,0.66,0.44,0
0.030568,0.0030762,0.015435,-0.0012248,0.004263,-1.6599e-05,0,0,0.014523,-0.0071341,0,-4.3158e-05,0,0,0,0.015435,-0.0012248,0.004263,-0.057089,0.0061577,0.014705,8.9972e-08,0.68,0.44,0
0.030861,0.0031109,0.016126,-0.00093825,0.0045563,0.00022732,0,0,0.015041,-0.007143,0,0.00059103,0,0,0,0.016129,-0.00094127,0.0045563,0.76307,0.0065814,0.015092,1.0085e-07,0.7,0.44,0
0.03117,0.0031539,0.016438,-0.0006151,0.0047469,-0.00012982,0,0,0.015199,-0.0069706,0,-0.00033755,0,0,0,0.016439,-0.00061609,0.0047469,-0.43615,0.0068567,0.015105,1.0475e-07,0.72,0.44,0
0.031469,0.0031705,0.013311,0.00010305,0.0040242,-0.00063408,0,0,0.023883,-0.0096834,0,-0.00511,0,0,0,0.013351,6.26e-05,0.0040242,-3.9648,0.0058127,0.011817,1.1249e-07,0.74,0.44,0
0.032036,0.0029276,0.021239,-0.0009142,0.0060973,0.0010585,0,0,0.04724,-0.020141,0,0.0083523,0,0,0,0.021294,-0.00096956,0.0060973,3.1713,0.0088072,0.019708,3.5785e-07,0.76,0.44,0
0.033737,0.0021713,0.01568,0.001646,0.0051978,0.00026461,0,0,0.081762,-0.027704,0,0.004128,0,0,0,0.015685,0.001641,0.0051978,1.0798,0.007508,0.012647,7.6845e-08,0.78,0.44,0
0.035306,0.001821,0.014571,0.0011597,0.0047191,0.00078667,0,0,0.076841,-0.027763,0,0.012272,0,0,0,0.014616,0.0011137,0.0047191,3.3457,0.0068164,0.01211,6.4686e-08,0.8,0.44,0
0.03681,0.0015973,0.014023,0.00088144,0.0044714,0.00089091,0,0,0.074504,-0.028001,0,0.013898,0,0,0,0.014083,0.00082132,0.0044714,3.8607,0.0064587,0.011866,5.9226e-08,0.82,0.44,0
0.038287,0.0014627,0.013748,0.00064279,0.0043171,0.00092636,0,0,0.073557,-0.02866,0,0.014451,0,0,0,0.013813,0.00057763,0.0043171,4.0235,0.0062358,0.011818,5.7035e-08,0.84,0.44,0
0.039753,0.001388,0.013591,0.00041093,0.0042006,0.00089135,0,0,0.073246,-0.029559,0,0.013905,0,0,0,0.013651,0.00035092,0.0042006,3.8515,0.0060675,0.011854,5.6117e-08,0.86,0.44,0
0.041217,0.0013522,0.013498,0.0002155,0.0041141,0.00080686,0,0,0.073195,-0.030409,0,0.012587,0,0,0,0.013547,0.00016666,0.0041141,3.4635,0.0059426,0.011908,5.5685e-08,0.88,0.44,0
0.042681,0.0013393,0.013432,5.7491e-05,0.0040468,0.00069221,0,0,0.073203,-0.031116,0,0.010798,0,0,0,0.013468,2.176e-05,0.0040468,2.9549,0.0058453,0.011953,5.5355e-08,0.9,0.44,0
0.044145,0.0013389,0.01338,-6.5628e-05,0.0039943,0.00056199,0,0,0.073208,-0.031668,0,0.008767,0,0,0,0.013403,-8.9076e-05,0.0039943,2.3893,0.0057696,0.011984,5.505e-08,0.92,0.44,0
0.045609,0.0013441,0.01334,-0.00015725,0.0039547,0.00042441,0,0,0.073203,-0.032073,0,0.0066207,0,0,0,0.013353,-0.00017058,0.0039547,1.7993,0.0057124,0.012005,5.478e-08,0.94,0.44,0
0.047073,0.0013505,0.013311,-0.00022042,0.003927,0.00028374,0,0,0.073192,-0.03235,0,0.0044264,0,0,0,0.013317,-0.00022636,0.003927,1.2008,0.0056724,0.012017,5.4567e-08,0.96,0.44,0
0.048536,0.0013552,0.013293,-0.00025739,0.0039106,0.00014201,0,0,0.073181,-0.032511,0,0.0022154,0,0,0,0.013294,-0.00025888,0.0039106,0.60038,0.0056487,0.012023,5.4432e-08,0.98,0.44,0
0.05,0.001357,0.013287,-0.00026957,0.0039052,5.6149e-06,0,0,0.073178,-0.032563,0,8.7593e-05,0,0,0,0.013287,-0.00026957,0.0039052,0.023731,0.0056409,0.012025,5.4385e-08,1,0.44,0
0,0,0.010953,0.0046942,0.0046942,-0.00013672,0,0,0.048819,-9.7578e-19,0,-0.0021329,0,0,0,0.010956,0.0046912,0.0046942,-1.2508,0.0067805,0.0062634,1.262e-08,0,0.46,0
0.00097639,-4.2657e-05,0.010913,0.0042543,0.0045502,-0.00014017,0,0,0.04963,-0.0023077,0,-0.0021867,0,0,0,0.010916,0.0042514,0.0045502,-1.2054,0.0065725,0.0065203,1.4136e-08,0.02,0.46,0
0.0019852,-6.8545e-05,0.011059,0.0039177,0.004493,-0.00012883,0,0,0.051215,-0.0044874,0,-0.0020098,0,0,0,0.011061,0.0039154,0.004493,-1.0332,0.0064899,0.0068753,1.6295e-08,0.04,0.46,0
0.003025,-8.1452e-05,0.011201,0.0036015,0.0044408,-0.00013415,0,0,0.052731,-0.0065468,0,-0.0020927,0,0,0,0.011204,0.0035991,0.0044408,-1.011,0.0064145,0.0072205,1.8452e-08,0.06,0.46,0
0.0040944,-8.4496e-05,0.01134,0.0033053,0.0043937,-0.00015401,0,0,0.054184,-0.0084895,0,-0.0024026,0,0,0,0.011343,0.0033023,0.0043937,-1.0977,0.0063464,0.0075546,2.0595e-08,0.08,0.46,0
0.0051923,-8.0231e-05,0.011477,0.0030291,0.0043517,-0.00018684,0,0,0.055573,-0.010316,0,-0.0029147,0,0,0,0.011481,0.003025,0.0043517,-1.2665,0.0062857,0.0078765,2.2716e-08,0.1,0.46,0
0.0063174,-7.0725e-05,0.01161,0.0027733,0.0043149,-0.00023143,0,0,0.0569,-0.012025,0,-0.0036102,0,0,0,0.011616,0.0027673,0.0043149,-1.4992,0.0062327,0.0081852,2.4805e-08,0.12,0.46,0
0.0074683,-5.759e-05,0.01174,0.0025387,0.0042837,-0.00028681,0,0,0.058161,-0.013611,0,-0.0044742,0,0,0,0.011749,0.0025298,0.0042837,-1.7836,0.0061875,0.0084795,2.6854e-08,0.14,0.46,0
0.0086438,-4.1997e-05,0.011868,0.0023264,0.0042582,-0.00035219,0,0,0.059354,-0.015068,0,-0.0054942,0,0,0,0.011881,0.0023134,0.0042582,-2.1111,0.0061508,0.0087583,2.8853e-08,0.16,0.46,0
0.0098425,-2.4648e-05,0.011992,0.0021375,0.0042389,-0.00042683,0,0,0.060475,-0.016391,0,-0.0066585,0,0,0,0.012011,0.002119,0.0042389,-2.4754,0.0061228,0.0090204,3.0793e-08,0.18,0.46,0
0.011063,-5.7266e-06,0.012113,0.0019734,0.004226,-0.00050993,0,0,0.061521,-0.01757,0,-0.0079549,0,0,0,0.012139,0.0019479,0.004226,-2.8717,0.0061043,0.0092645,3.2665e-08,0.2,0.46,0
0.012303,1.5201e-05,0.012231,0.0018358,0.0042202,-0.00060055,0,0,0.062488,-0.018598,0,-0.0093685,0,0,0,0.012266,0.0018012,0.0042202,-3.2953,0.0060958,0.0094895,3.4462e-08,0.22,0.46,0
0.013562,3.9324e-05,0.012347,0.0017262,0.0042219,-0.00069744,0,0,0.063374,-0.019466,0,-0.01088,0,0,0,0.012392,0.0016806,0.0042219,-3.7412,0.0060982,0.0096942,3.6175e-08,0.24,0.46,0
0.014838,6.8803e-05,0.01246,0.0016461,0.0042317,-0.00079891,0,0,0.064177,-0.020168,0,-0.012463,0,0,0,0.012518,0.0015874,0.0042317,-4.2027,0.0061124,0.0098779,3.78e-08,0.26,0.46,0
0.016129,0.00010707,0.012571,0.0015967,0.0042504,-0.00090262,0,0,0.064903,-0.020699,0,-0.014081,0,0,0,0.012645,0.001523,0.0042504,-4.6706,0.0061395,0.01004,3.9337e-08,0.28,0.46,0
0.017434,0.00015924,0.012684,0.0015789,0.0042788,-0.0010054,0,0,0.06556,-0.02106,0,-0.015684,0,0,0,0.012774,0.0014886,0.0042788,-5.1317,0.0061805,0.010181,4.0793e-08,0.3,0.46,0
0.018752,0.00023279,0.0128,0.001592,0.0043178,-0.0011031,0,0,0.066166,-0.021261,0,-0.017209,0,0,0,0.012908,0.0014845,0.0043178,-5.5678,0.0062368,0.010303,4.2184e-08,0.32,0.46,0
0.020081,0.00033854,0.012922,0.001633,0.0043666,-0.0011899,0,0,0.066735,-0.021322,0,-0.018563,0,0,0,0.013047,0.001509,0.0043666,-5.9519,0.0063074,0.010407,4.3514e-08,0.34,0.46,0
0.021421,0.00049277,0.013043,0.0016944,0.0044213,-0.001257,0,0,0.067251,-0.02127,0,-0.019609,0,0,0,0.013181,0.0015568,0.0044213,-6.2453,0.0063863,0.010489,4.4708e-08,0.36,0.46,0
0.022771,0.00072105,0.013068,0.0017212,0.0044367,-0.0012723,0,0,0.067324,-0.021182,0,-0.019848,0,0,0,0.013209,0.0015803,0.0044367,-6.32,0.0064086,0.010496,4.4892e-08,0.38,0.46,0
0.024114,0.0010775,0.012995,0.0017194,0.0044142,-0.0011054,0,0,0.066928,-0.021019,0,-0.017244,0,0,0,0.013102,0.0016121,0.0044142,-5.5467,0.0063761,0.010377,4.3587e-08,0.4,0.46,0
0.025448,0.0017015,0.013742,0.00090401,0.0043938,-0.001234,0,0,0.072916,-0.027221,0,-0.019251,0,0,0,0.01386,0.00078646,0.0043938,-5.4411,0.0063466,0.011694,5.6561e-08,0.42,0.46,0
0.027031,0.0023699,0.017791,0.00022148,0.0054038,-0.00077096,0,0,0.041166,-0.016432,0,-0.0094041,0,0,0,0.017854,0.00015823,0.0054038,-3.4773,0.0078055,0.015744,1.8039e-07,0.44,0.46,0
0.027474,0.0025064,0.010845,-0.00013033,0.0032145,0.0001495,0,0,0.019162,-0.0080563,0,0.00014932,0,0,0,0.010849,-0.00013364,0.0032145,0.2705,0.0046431,0.0097497,6.3871e-08,0.46,0.46,0
0.027737,0.0025456,0.014962,-0.00075456,0.0042621,0.0002103,0,0,0.013909,-0.0065216,0,0.00054678,0,0,0,0.014964,-0.00075737,0.0042621,0.76651,0.0061563,0.013909,7.998e-08,0.48,0.46,0
0.028031,0.0025858,0.015524,-0.00080893,0.0044144,8.1273e-06,0,0,0.014442,-0.0067903,0,2.1131e-05,0,0,0,0.015524,-0.00080893,0.0044144,0.028512,0.0063763,0.014447,8.9407e-08,0.5,0.46,0
0.028315,0.0026483,0.015235,-0.00057642,0.0043976,0.00021078,0,0,0.014089,-0.0064662,0,0.00054803,0,0,0,0.015238,-0.00057923,0.0043976,0.76363,0.006352,0.014008,8.3462e-08,0.52,0.46,0
0.028594,0.0027146,0.015266,7.6972e-05,0.004603,0.00015684,0,0,0.013862,-0.0058838,0,0.00040779,0,0,0,0.015268,7.5353e-05,0.004603,0.59154,0.0066487,0.01351,8.0365e-08,0.54,0.46,0
0.028869,0.0027761,0.015211,0.00032868,0.004662,4.7106e-05,0,0,0.013714,-0.0056333,0,0.00012248,0,0,0,0.015211,0.00032853,0.004662,0.18135,0.006734,0.013258,7.8014e-08,0.56,0.46,0
0.029143,0.002826,0.01522,0.00038945,0.004683,-3.9837e-05,0,0,0.013699,-0.0055816,0,-0.00010358,0,0,0,0.015221,0.00038935,0.004683,-0.1539,0.0067643,0.013218,7.7796e-08,0.58,0.46,0
0.029417,0.0028638,0.015203,0.0003383,0.0046624,-0.00010274,0,0,0.013703,-0.0056213,0,-0.00026713,0,0,0,0.015204,0.00033759,0.0046624,-0.39599,0.0067345,0.013244,7.7838e-08,0.6,0.46,0
0.029691,0.0028897,0.01516,0.00017339,0.0046001,-0.00019087,0,0,0.013728,-0.0057548,0,-0.00049626,0,0,0,0.015163,0.00017096,0.0046001,-0.72954,0.0066446,0.013341,7.8171e-08,0.62,0.46,0
0.029966,0.0029041,0.015181,-0.00019534,0.0044956,-0.00029932,0,0,0.013891,-0.0060983,0,-0.00077823,0,0,0,0.015187,-0.00020117,0.0044956,-1.1148,0.0064937,0.013659,8.0626e-08,0.64,0.46,0
0.030247,0.0029141,0.015122,-0.00097709,0.0042436,-0.00033557,0,0,0.014142,-0.0067869,0,-0.00087248,0,0,0,0.015129,-0.00098408,0.0042436,-1.1936,0.0061296,0.014238,8.3721e-08,0.66,0.46,0
0.030532,0.0029296,0.015371,-0.0013685,0.0042006,-0.00010054,0,0,0.014521,-0.0072398,0,-0.0002614,0,0,0,0.015371,-0.0013691,0.0042006,-0.34412,0.0060675,0.014765,8.9559e-08,0.68,0.46,0
0.030828,0.0029691,0.014828,-0.0014152,0.0040239,-0.00023302,0,0,0.014046,-0.0070708,0,-0.00060584,0,0,0,0.014831,-0.0014185,0.0040239,-0.8217,0.0058123,0.014326,8.0869e-08,0.7,0.46,0
0.031094,0.0030137,0.010779,-0.0007187,0.003018,-0.00017086,0,0,0.019509,-0.0090596,0,-0.00030666,0,0,0,0.010782,-0.00072225,0.003018,-0.40796,0.0043593,0.010165,6.5844e-08,0.72,0.46,0
0.031546,0.0029504,0.01764,-0.00095472,0.0050055,0.00061976,0,0,0.042024,-0.018974,0,0.0079936,0,0,0,0.017683,-0.00099823,0.0050055,2.7435,0.0072302,0.01652,1.8682e-07,0.74,0.46,0
0.033163,0.002272,0.013698,3.3136e-06,0.0041104,0.0010182,0,0,0.074784,-0.032036,0,0.015883,0,0,0,0.013773,-7.1969e-05,0.0041104,4.2288,0.0059373,0.0123,5.9647e-08,0.76,0.46,0
0.034537,0.0016406,0.013023,0.00094225,0.0041895,0.00089332,0,0,0.0689,-0.025329,0,0.013936,0,0,0,0.013088,0.00087655,0.0041895,4.2064,0.0060515,0.010939,4.7015e-08,0.78,0.46,0
0.035919,0.0012767,0.013098,0.00088376,0.0041945,0.0010711,0,0,0.069447,-0.025824,0,0.016709,0,0,0,0.013191,0.00079055,0.0041945,4.9739,0.0060587,0.011097,4.8569e-08,0.8,0.46,0
0.037315,0.0010493,0.01313,0.00080461,0.0041803,0.0010786,0,0,0.069806,-0.02633,0,0.016826,0,0,0,0.013223,0.00071093,0.0041803,4.9637,0.0060382,0.011189,4.931e-08,0.82,0.46,0
0.038711,0.00090278,0.013072,0.00065134,0.0041171,0.001031,0,0,0.06985,-0.027033,0,0.016083,0,0,0,0.013157,0.00056634,0.0041171,4.7128,0.0059469,0.011244,4.922e-08,0.84,0.46,0
0.040109,0.00081258,0.013028,0.00048381,0.0040535,0.00095462,0,0,0.07,-0.027844,0,0.014892,0,0,0,0.0131,0.00041158,0.0040535,4.3271,0.005855,0.011316,4.9263e-08,0.86,0.46,0
0.041511,0.00076066,0.013,0.00032299,0.0039969,0.00085102,0,0,0.070224,-0.028657,0,0.013276,0,0,0,0.013057,0.00026612,0.0039969,3.8235,0.0057733,0.011393,4.9405e-08,0.88,0.46,0
0.042918,0.00073371,0.012983,0.00018367,0.00395,0.00072721,0,0,0.070457,-0.029377,0,0.011344,0,0,0,0.013024,0.00014249,0.00395,3.2414,0.0057055,0.011462,4.9558e-08,0.9,0.46,0
0.04433,0.00072193,0.01297,7.0122e-05,0.0039122,0.00059048,0,0,0.070654,-0.029968,0,0.0092115,0,0,0,0.012997,4.315e-05,0.0039122,2.6153,0.0056509,0.011518,4.9666e-08,0.92,0.46,0
0.045744,0.00071853,0.01296,-1.6935e-05,0.003883,0.00044655,0,0,0.070803,-0.030419,0,0.0069661,0,0,0,0.012976,-3.2283e-05,0.003883,1.9685,0.0056088,0.011559,4.9726e-08,0.94,0.46,0
0.047162,0.00071894,0.012953,-7.8143e-05,0.0038623,0.00029898,0,0,0.070903,-0.030735,0,0.0046641,0,0,0,0.012959,-8.4999e-05,0.0038623,1.3137,0.0055789,0.011586,4.9753e-08,0.96,0.46,0
0.04858,0.00072025,0.012948,-0.00011441,0.0038499,0.00014978,0,0,0.070961,-0.030922,0,0.0023366,0,0,0,0.012949,-0.00011613,0.0038499,0.65691,0.005561,0.011602,4.9761e-08,0.98,0.46,0
0.05,0.00072085,0.012946,-0.00012642,0.0038458,1.9445e-06,0,0,0.07098,-0.030983,0,3.0334e-05,0,0,0,0.012946,-0.00012642,0.0038458,0.0085229,0.005555,0.011607,4.9763e-08,1,0.46,0
0,0,0.01084,0.0046459,0.0046459,-0.0002803,0,0,0.048317,6.5052e-19,0,-0.0043727,0,0,0,0.010853,0.0046332,0.0046459,-2.5856,0.0067107,0.0062135,1.232e-08,0,0.48,0
0.00096634,-8.7453e-05,0.010803,0.0042324,0.0045105,-0.00028329,0,0,0.049079,-0.0021695,0,-0.0044194,0,0,0,0.010815,0.0042202,0.0045105,-2.4644,0.0065152,0.0064544,1.3716e-08,0.02,0.48,0
0.0019632,-0.00015576,0.010939,0.0039136,0.0044559,-0.00026804,0,0,0.050571,-0.0042301,0,-0.0041815,0,0,0,0.01095,0.0039034,0.0044559,-2.1817,0.0064363,0.0067869,1.5698e-08,0.04,0.48,0
0.0029892,-0.0002088,0.011072,0.0036127,0.0044055,-0.00026979,0,0,0.052,-0.0061835,0,-0.0042088,0,0,0,0.011082,0.003603,0.0044055,-2.0687,0.0063635,0.0071118,1.7683e-08,0.06,0.48,0
0.0040432,-0.00024973,0.011201,0.00333,0.0043593,-0.00028621,0,0,0.053365,-0.0080287,0,-0.0044649,0,0,0,0.011211,0.0033196,0.0043593,-2.0797,0.0062968,0.0074268,1.9656e-08,0.08,0.48,0
0.0051238,-0.00028107,0.011326,0.0030658,0.0043175,-0.00031553,0,0,0.054664,-0.0097628,0,-0.0049222,0,0,0,0.011338,0.0030538,0.0043175,-2.1844,0.0062363,0.00773,2.1601e-08,0.1,0.48,0
0.0062298,-0.00030483,0.011446,0.002821,0.0042801,-0.0003564,0,0,0.055894,-0.011381,0,-0.0055598,0,0,0,0.011461,0.0028063,0.0042801,-2.3622,0.0061823,0.0080197,2.3504e-08,0.12,0.48,0
0.0073596,-0.00032251,0.011561,0.0025964,0.0042473,-0.00040776,0,0,0.057049,-0.012877,0,-0.0063611,0,0,0,0.01158,0.0025779,0.0042473,-2.5989,0.006135,0.0082941,2.5349e-08,0.14,0.48,0
0.0085117,-0.00033515,0.011671,0.0023933,0.0042193,-0.00046875,0,0,0.058124,-0.014243,0,-0.0073125,0,0,0,0.011695,0.0023697,0.0042193,-2.885,0.0060946,0.0085516,2.7123e-08,0.16,0.48,0
0.0096845,-0.0003433,0.011775,0.0022128,0.0041963,-0.00053856,0,0,0.059112,-0.015471,0,-0.0084015,0,0,0,0.011805,0.0021826,0.0041963,-3.2135,0.0060613,0.0087903,2.8808e-08,0.18,0.48,0
0.010876,-0.00034697,0.011871,0.0020564,0.0041783,-0.00061639,0,0,0.060006,-0.016551,0,-0.0096156,0,0,0,0.01191,0.0020178,0.0041783,-3.5794,0.0060354,0.0090084,3.039e-08,0.2,0.48,0
0.012085,-0.00034556,0.01196,0.0019252,0.0041656,-0.0007013,0,0,0.060798,-0.017476,0,-0.01094,0,0,0,0.012009,0.0018764,0.0041656,-3.9783,0.0060171,0.0092041,3.1849e-08,0.22,0.48,0
0.013308,-0.0003377,0.01204,0.0018205,0.0041583,-0.00079212,0,0,0.061481,-0.018235,0,-0.012357,0,0,0,0.012101,0.0017595,0.0041583,-4.4058,0.0060064,0.0093756,3.317e-08,0.24,0.48,0
0.014544,-0.0003211,0.012111,0.0017432,0.0041561,-0.00088729,0,0,0.062045,-0.018821,0,-0.013842,0,0,0,0.012186,0.0016678,0.0041561,-4.8565,0.0060033,0.0095211,3.4331e-08,0.26,0.48,0
0.01579,-0.00029224,0.012169,0.0016936,0.0041589,-0.00098466,0,0,0.062482,-0.019229,0,-0.015361,0,0,0,0.012261,0.0016018,0.0041589,-5.3233,0.0060073,0.0096386,3.5309e-08,0.28,0.48,0
0.017043,-0.00024596,0.01218,0.0016074,0.0041363,-0.0010892,0,0,0.062743,-0.019725,0,-0.016991,0,0,0,0.012291,0.0014964,0.0041363,-5.8211,0.0059746,0.0097468,3.6056e-08,0.3,0.48,0
0.018301,-0.00017487,0.012215,0.0016085,0.0041471,-0.0011491,0,0,0.06293,-0.019801,0,-0.017926,0,0,0,0.012338,0.0014854,0.0041471,-6.1128,0.0059902,0.0097969,3.6544e-08,0.32,0.48,0
0.01956,-6.828e-05,0.01224,0.0016929,0.0041798,-0.0012493,0,0,0.062869,-0.019398,0,-0.01949,0,0,0,0.012386,0.0015469,0.0041798,-6.664,0.0060376,0.0097917,3.672e-08,0.34,0.48,0
0.020816,8.9849e-05,0.012191,0.0017146,0.0041716,-0.0012944,0,0,0.062549,-0.019165,0,-0.020193,0,0,0,0.012348,0.001557,0.0041716,-6.9403,0.0060256,0.0097506,3.6321e-08,0.36,0.48,0
0.022062,0.00032523,0.012109,0.0017221,0.0041493,-0.0012581,0,0,0.062086,-0.018933,0,-0.019627,0,0,0,0.012259,0.0015719,0.0041493,-6.8089,0.0059935,0.0096601,3.5425e-08,0.38,0.48,0
0.023299,0.00068474,0.012186,0.0016183,0.0041414,-0.0011504,0,0,0.062751,-0.01968,0,-0.017947,0,0,0,0.01231,0.0014946,0.0041414,-6.1414,0.0059821,0.0097651,3.6242e-08,0.4,0.48,0
0.024572,0.0011622,0.01188,0.00057533,0.0037367,-0.0010131,0,0,0.063521,-0.024659,0,-0.015805,0,0,0,0.011971,0.00048525,0.0037367,-5.0808,0.0053975,0.010254,3.718e-08,0.42,0.48,0
0.02584,0.0017678,0.012613,3.0423e-06,0.0037848,-0.0014679,0,0,0.06886,-0.029498,0,-0.0229,0,0,0,0.012782,-0.00016558,0.0037848,-6.553,0.005467,0.011493,4.8054e-08,0.44,0.48,0
0.027327,0.0023284,0.016257,-1.754e-05,0.0048718,-0.0012833,0,0,0.038253,-0.015889,0,-0.012367,0,0,0,0.016381,-0.00014176,0.0048718,-5.3277,0.0070371,0.014674,1.3896e-07,0.46,0.48,0
0.027731,0.0024151,0.009763,-0.00074009,0.0027069,-0.0002731,0,0,0.017598,-0.0083251,0,-0.0027652,0,0,0,0.0097777,-0.00075478,0.0027069,-2.7596,0.0039099,0.0092984,4.9819e-08,0.48,0.48,0
0.027978,0.0024525,0.013768,-0.001776,0.0035977,1.0705e-05,0,0,0.013222,-0.0069858,0,2.7833e-05,0,0,0,0.013768,-0.001776,0.0035977,0.039458,0.0051967,0.013674,6.6262e-08,0.5,0.48,0
0.02826,0.002518,0.015135,-0.0003176,0.0044453,2.6254e-06,0,0,0.013897,-0.0061918,0,6.8261e-06,0,0,0,0.015135,-0.0003176,0.0044453,0.0097345,0.006421,0.013707,8.0442e-08,0.52,0.48,0
0.028534,0.0025986,0.015248,0.00018491,0.0046299,-7.7094e-05,0,0,0.013804,-0.0057785,0,-0.00020044,0,0,0,0.015248,0.00018451,0.0046299,-0.29323,0.0066876,0.013406,7.943e-08,0.54,0.48,0
0.028812,0.0026632,0.015565,0.00027597,0.0047524,-0.0001565,0,0,0.014057,-0.0058194,0,-0.00040689,0,0,0,0.015567,0.00027437,0.0047524,-0.58638,0.0068646,0.013617,8.399e-08,0.56,0.48,0
0.029096,0.002713,0.015807,0.0003132,0.004836,-0.00010277,0,0,0.014262,-0.0058796,0,-0.0002672,0,0,0,0.015807,0.00031252,0.004836,-0.38003,0.0069853,0.013801,8.7729e-08,0.58,0.48,0
0.029382,0.00275,0.015787,0.00026259,0.004815,-4.3235e-06,0,0,0.014264,-0.0059181,0,-1.1241e-05,0,0,0,0.015787,0.00026259,0.004815,-0.015956,0.0069549,0.013823,8.7705e-08,0.6,0.48,0
0.029667,0.0027744,0.015506,0.0001207,0.004688,4.8274e-05,0,0,0.014063,-0.0059375,0,0.00012551,0,0,0,0.015506,0.00012055,0.004688,0.17977,0.0067716,0.013686,8.3927e-08,0.62,0.48,0
0.029945,0.0027837,0.01516,-8.1703e-05,0.0045235,-2.9938e-05,0,0,0.013828,-0.0059868,0,-7.7839e-05,0,0,0,0.01516,-8.1762e-05,0.0045235,-0.11254,0.006534,0.01354,7.9552e-08,0.64,0.48,0
0.03022,0.0027773,0.015005,-0.00075169,0.0042761,-0.0001036,0,0,0.013948,-0.0065361,0,-0.00026935,0,0,0,0.015006,-0.00075238,0.0042761,-0.37668,0.0061766,0.013942,8.0616e-08,0.66,0.48,0
0.030503,0.0027866,0.013635,-0.0023523,0.0033848,-6.0106e-05,0,0,0.013325,-0.0074583,0,-0.00015627,0,0,0,0.013635,-0.0023525,0.0033848,-0.2154,0.0048892,0.014029,6.6065e-08,0.68,0.48,0
0.030753,0.002828,0.0096859,-0.0012484,0.0025312,0.00024362,0,0,0.01786,-0.009184,0,0.0026127,0,0,0,0.0096985,-0.0012611,0.0025312,2.4846,0.0036562,0.0096403,5.0495e-08,0.7,0.48,0
0.031164,0.0028121,0.016091,-0.0010325,0.0045175,0.0011467,0,0,0.038919,-0.018078,0,0.011141,0,0,0,0.016186,-0.001128,0.0045175,4.5639,0.0065253,0.015294,1.4203e-07,0.72,0.48,0
0.032677,0.0022522,0.012547,-0.00082696,0.0035159,0.0012821,0,0,0.070439,-0.033874,0,0.020001,0,0,0,0.012668,-0.00094877,0.0035159,5.4271,0.0050785,0.012023,4.9563e-08,0.74,0.48,0
0.033981,0.0016462,0.011868,-0.00021745,0.003495,0.00080302,0,0,0.065306,-0.028957,0,0.012527,0,0,0,0.011921,-0.00027058,0.003495,3.785,0.0050484,0.010812,3.9369e-08,0.76,0.48,0
0.035289,0.0011582,0.012181,0.00080454,0.0038956,0.00091436,0,0,0.064625,-0.02411,0,0.014264,0,0,0,0.012254,0.00073152,0.0038956,4.566,0.005627,0.010311,3.8946e-08,0.78,0.48,0
0.036566,0.00078806,0.012135,0.00088043,0.0039047,0.0010237,0,0,0.064198,-0.023589,0,0.015969,0,0,0,0.012228,0.00078808,0.0039047,5.155,0.0056401,0.010243,3.8459e-08,0.8,0.48,0
0.037857,0.00054407,0.012253,0.00080694,0.0039179,0.0010643,0,0,0.065012,-0.024266,0,0.016603,0,0,0,0.012351,0.00070882,0.0039179,5.2674,0.0056592,0.010415,3.9995e-08,0.82,0.48,0
0.039167,0.00038138,0.012356,0.00069868,0.0039164,0.0010234,0,0,0.065828,-0.025098,0,0.015966,0,0,0,0.012445,0.00060951,0.0039164,4.9795,0.005657,0.010577,4.135e-08,0.84,0.48,0
0.04049,0.00027423,0.012421,0.00056653,0.0038962,0.00094388,0,0,0.066493,-0.025972,0,0.014724,0,0,0,0.012496,0.00049185,0.0038962,4.524,0.0056279,0.010715,4.2352e-08,0.86,0.48,0
0.041826,0.0002059,0.012468,0.00043296,0.0038704,0.00084006,0,0,0.067063,-0.026812,0,0.013105,0,0,0,0.012527,0.0003746,0.0038704,3.9736,0.0055905,0.010836,4.3149e-08,0.88,0.48,0
0.043173,0.00016422,0.012504,0.00031068,0.0038445,0.00071866,0,0,0.067546,-0.027564,0,0.011211,0,0,0,0.012546,0.00026847,0.0038445,3.3614,0.0055531,0.010938,4.3784e-08,0.9,0.48,0
0.044528,0.00014021,0.012531,0.00020718,0.0038216,0.00058511,0,0,0.067937,-0.028192,0,0.0091278,0,0,0,0.012559,0.00017946,0.0038216,2.7121,0.00552,0.01102,4.4271e-08,0.92,0.48,0
0.04589,0.00012733,0.012513,5.6046e-05,0.0037708,0.00043823,0,0,0.068192,-0.028975,0,0.0068364,0,0,0,0.012529,4.0649e-05,0.0037708,2.0123,0.0054467,0.011103,4.4489e-08,0.94,0.48,0
0.047258,0.00012105,0.012542,5.333e-06,0.0037642,0.0002983,0,0,0.068466,-0.029319,0,0.0046535,0,0,0,0.012549,-1.7609e-06,0.0037642,1.3623,0.0054371,0.011155,4.4869e-08,0.96,0.48,0
0.048628,0.00011838,0.012571,3.2345e-05,0.0037809,0.00014944,0,0,0.06856,-0.029239,0,0.0023313,0,0,0,0.012573,3.0564e-05,0.0037809,0.68277,0.0054613,0.01115,4.4996e-08,0.98,0.48,0
0.05,0.00011767,0.012573,2.0705e-05,0.0037781,-2.2708e-06,0,0,0.0686,-0.029308,0,-3.5425e-05,0,0,0,0.012573,2.0705e-05,0.0037781,-0.010365,0.0054573,0.011159,4.504e-08,1,0.48,0
0,0,0.010717,0.0045931,0.0045931,-0.00041486,0,0,0.047768,2.1684e-19,0,-0.0064718,0,0,0,0.010745,0.0045651,0.0045931,-3.8578,0.0066345,0.0061662,1.204e-08,0,0.5,0
0.00095537,-0.00012944,0.010682,0.0042065,0.0044666,-0.00041723,0,0,0.048482,-0.0020287,0,-0.0065087,0,0,0,0.010709,0.0041798,0.0044666,-3.6713,0.0064518,0.0063907,1.3314e-08,0.02,0.5,0
0.0019393,-0.00023775,0.010809,0.0039057,0.0044146,-0.00039812,0,0,0.04988,-0.003969,0,-0.0062106,0,0,0,0.010832,0.0038828,0.0044146,-3.2895,0.0063766,0.0066995,1.5116e-08,0.04,0.5,0
0.0029506,-0.00032879,0.010933,0.0036202,0.0043658,-0.00039581,0,0,0.051221,-0.0058163,0,-0.0061747,0,0,0,0.010954,0.0035988,0.0043658,-3.0893,0.0063062,0.0070032,1.6929e-08,0.06,0.5,0
0.0039881,-0.00040564,0.011051,0.0033507,0.0043205,-0.00040783,0,0,0.052499,-0.007565,0,-0.0063621,0,0,0,0.011073,0.0033291,0.0043205,-3.0232,0.0062408,0.0072985,1.8731e-08,0.08,0.5,0
0.0050505,-0.00047074,0.011112,0.0030588,0.0042512,-0.00043602,0,0,0.053512,-0.0093002,0,-0.0068019,0,0,0,0.011135,0.0030353,0.0042512,-3.0902,0.0061405,0.0075656,2.0318e-08,0.1,0.5,0
0.0061364,-0.00052596,0.011302,0.0028576,0.004248,-0.00046136,0,0,0.055024,-0.010845,0,-0.0071972,0,0,0,0.011327,0.0028324,0.004248,-3.1179,0.0061359,0.0078831,2.245e-08,0.12,0.5,0
0.0072442,-0.00057267,0.011372,0.0026487,0.0042061,-0.00051273,0,0,0.055892,-0.012148,0,-0.0079986,0,0,0,0.011402,0.0026187,0.0042061,-3.3524,0.0060755,0.0081068,2.3865e-08,0.14,0.5,0
0.0083721,-0.00061172,0.011464,0.0024542,0.0041755,-0.0005666,0,0,0.056851,-0.013426,0,-0.008839,0,0,0,0.011499,0.0024187,0.0041755,-3.5843,0.0060312,0.0083424,2.5419e-08,0.16,0.5,0
0.0095182,-0.00064348,0.011547,0.0022814,0.0041486,-0.00062832,0,0,0.057709,-0.014564,0,-0.0098017,0,0,0,0.01159,0.002239,0.0041486,-3.8617,0.0059924,0.0085571,2.6858e-08,0.18,0.5,0
0.010681,-0.00066778,0.01162,0.0021317,0.0041254,-0.00069693,0,0,0.058455,-0.015551,0,-0.010872,0,0,0,0.011671,0.0020808,0.0041254,-4.1787,0.005959,0.0087486,2.816e-08,0.2,0.5,0
0.011856,-0.00068382,0.01168,0.0020062,0.0041059,-0.00077133,0,0,0.059079,-0.016378,0,-0.012033,0,0,0,0.011741,0.0019451,0.0041059,-4.5302,0.0059307,0.0089144,2.9302e-08,0.22,0.5,0
0.013044,-0.00069007,0.011726,0.0019055,0.0040896,-0.00085014,0,0,0.059567,-0.017036,0,-0.013262,0,0,0,0.011799,0.0018325,0.0040896,-4.9111,0.0059072,0.009052,3.0258e-08,0.24,0.5,0
0.014239,-0.00068404,0.011756,0.0018302,0.0040759,-0.00093145,0,0,0.059907,-0.017517,0,-0.014531,0,0,0,0.011843,0.0017435,0.0040759,-5.3148,0.0058874,0.0091587,3.0998e-08,0.26,0.5,0
0.01544,-0.00066211,0.011766,0.0017796,0.0040638,-0.0010126,0,0,0.060081,-0.017817,0,-0.015797,0,0,0,0.011868,0.001678,0.0040638,-5.7317,0.00587,0.0092314,3.1488e-08,0.28,0.5,0
0.016642,-0.00061907,0.01178,0.0018074,0.0040762,-0.0011007,0,0,0.060089,-0.017697,0,-0.017171,0,0,0,0.0119,0.0016873,0.0040762,-6.2242,0.0058878,0.0092524,3.1722e-08,0.3,0.5,0
0.017843,-0.00054761,0.011722,0.0017935,0.0040546,-0.0011276,0,0,0.059805,-0.017637,0,-0.017591,0,0,0,0.011848,0.001667,0.0040546,-6.3989,0.0058567,0.0092224,3.1366e-08,0.32,0.5,0
0.019037,-0.0004374,0.011632,0.001742,0.0040121,-0.0012005,0,0,0.059432,-0.017707,0,-0.018727,0,0,0,0.011775,0.0015984,0.0040121,-6.8229,0.0057952,0.0092104,3.103e-08,0.34,0.5,0
0.02022,-0.00027382,0.011522,0.0017321,0.0039764,-0.0012044,0,0,0.05886,-0.017505,0,-0.018789,0,0,0,0.011669,0.0015861,0.0039764,-6.9113,0.0057437,0.0091252,3.0184e-08,0.36,0.5,0
0.021391,-3.6247e-05,0.011426,0.0016674,0.003928,-0.0011556,0,0,0.058484,-0.017632,0,-0.018028,0,0,0,0.011561,0.0015324,0.003928,-6.6625,0.0056738,0.0090711,2.9512e-08,0.38,0.5,0
0.022559,0.00029032,0.011305,0.0013581,0.0037988,-0.0010667,0,0,0.058545,-0.019037,0,-0.01664,0,0,0,0.011418,0.001245,0.0037988,-6.0529,0.0054871,0.0091666,2.9451e-08,0.4,0.5,0
0.023733,0.00071513,0.011313,0.0008694,0.0036546,-0.0010925,0,0,0.059733,-0.021725,0,-0.017042,0,0,0,0.011426,0.00075635,0.0036546,-5.9084,0.0052789,0.0095558,3.1308e-08,0.42,0.5,0
0.024949,0.00119,0.011019,-7.4052e-05,0.0032836,-0.0011605,0,0,0.060339,-0.02619,0,-0.018104,0,0,0,0.01114,-0.00019416,0.0032836,-5.9087,0.004743,0.010056,3.1956e-08,0.44,0.5,0
0.026146,0.001731,0.01136,-0.00052076,0.0032518,-0.0018095,0,0,0.063244,-0.029426,0,-0.028228,0,0,0,0.011629,-0.00079024,0.0032518,-8.4706,0.004697,0.010972,3.8119e-08,0.46,0.5,0
0.027546,0.0022306,0.014323,-0.00068895,0.0040901,-0.0017227,0,0,0.031872,-0.014212,0,-0.013171,0,0,0,0.01453,-0.00089633,0.0040901,-7.2595,0.0059079,0.013636,1.1489e-07,0.48,0.5,0
0.027929,0.0023063,0.010001,-0.00073747,0.0027791,-6.0664e-05,0,0,0.017379,-0.0091593,0,-0.0054592,0,0,0,0.010097,-0.00083357,0.0027791,-4.5864,0.0040142,0.0096488,5.7053e-08,0.5,0.5,0
0.028169,0.0024006,0.014155,-0.00049049,0.0040995,-0.00080916,0,0,0.013073,-0.005967,0,-0.0021038,0,0,0,0.0142,-0.00053506,0.0040995,-3.1527,0.0059215,0.01305,6.7526e-08,0.52,0.5,0
0.028441,0.0024835,0.015377,-0.00010282,0.0045823,-0.00061385,0,0,0.014033,-0.0060906,0,-0.001596,0,0,0,0.015401,-0.00012713,0.0045823,-2.2673,0.0066188,0.013791,8.366e-08,0.54,0.5,0
0.028739,0.0025434,0.016815,0.00029072,0.0051317,-0.00053616,0,0,0.015188,-0.0062933,0,-0.001394,0,0,0,0.016832,0.00027334,0.0051317,-1.8565,0.0074125,0.014743,1.0635e-07,0.56,0.5,0
0.029045,0.0025908,0.01703,0.0002618,0.0051875,-0.00016075,0,0,0.015395,-0.0064034,0,-0.00041794,0,0,0,0.017031,0.00026026,0.0051875,-0.5492,0.0074931,0.01493,1.1028e-07,0.58,0.5,0
0.029355,0.0026271,0.017018,0.00021288,0.0051692,7.6166e-05,0,0,0.015403,-0.0064432,0,0.00019803,0,0,0,0.017018,0.00021253,0.0051692,0.25968,0.0074666,0.014956,1.1037e-07,0.6,0.5,0
0.029662,0.0026521,0.016765,0.00013529,0.0050702,0.00045387,0,0,0.015204,-0.0064154,0,0.0011801,0,0,0,0.016778,0.00012291,0.0050702,1.5622,0.0073237,0.014814,1.0637e-07,0.62,0.5,0
0.02996,0.0026646,0.015288,-0.00037472,0.0044739,0.00052162,0,0,0.014058,-0.0063031,0,0.0013562,0,0,0,0.015305,-0.00039207,0.0044739,1.9054,0.0064622,0.013917,8.3562e-08,0.64,0.5,0
0.030233,0.0026527,0.013657,-0.0011276,0.0037588,0.0010821,0,0,0.012868,-0.0063523,0,0.0028134,0,0,0,0.013736,-0.0012064,0.0037588,4.164,0.0054293,0.01318,6.3843e-08,0.66,0.5,0
0.030475,0.0026313,0.008751,-0.002382,0.0019107,0.00090396,0,0,0.016995,-0.010567,0,0.0076392,0,0,0,0.0088571,-0.0024881,0.0019107,7.056,0.0027599,0.0099075,4.0518e-08,0.68,0.5,0
0.030864,0.002623,0.014954,-0.0015376,0.004025,0.0017633,0,0,0.036634,-0.017766,0,0.014665,0,0,0,0.015155,-0.0017384,0.004025,6.7051,0.0058138,0.014875,1.2042e-07,0.7,0.5,0
0.032284,0.0021308,0.011676,-0.0010459,0.0031891,0.0015279,0,0,0.066199,-0.033033,0,0.023836,0,0,0,0.011857,-0.0012269,0.0031891,6.7534,0.0046064,0.011529,4.1565e-08,0.72,0.5,0
0.033512,0.0015954,0.010984,-0.0008037,0.003054,0.00097232,0,0,0.061852,-0.03009,0,0.015168,0,0,0,0.011063,-0.00088337,0.003054,4.684,0.0044113,0.010545,3.3147e-08,0.74,0.5,0
0.034758,0.0011137,0.011277,9.3926e-05,0.0034114,0.00086344,0,0,0.061355,-0.025877,0,0.01347,0,0,0,0.011344,2.7656e-05,0.0034114,4.3889,0.0049276,0.01006,3.3051e-08,0.76,0.5,0
0.035966,0.00067615,0.011292,0.00055919,0.0035552,0.00081633,0,0,0.060344,-0.023369,0,0.012735,0,0,0,0.011353,0.00049745,0.0035552,4.3249,0.0051354,0.0096957,3.1595e-08,0.78,0.5,0
0.037172,0.00033315,0.011433,0.00082292,0.0036767,0.00089152,0,0,0.060498,-0.02226,0,0.013908,0,0,0,0.011507,0.00074854,0.0036767,4.7698,0.0053109,0.0096344,3.2031e-08,0.8,0.5,0
0.038386,7.8628e-05,0.011561,0.00082475,0.0037159,0.00093292,0,0,0.061195,-0.022551,0,0.014554,0,0,0,0.011642,0.00074429,0.0037159,4.9293,0.0053673,0.0097573,3.3216e-08,0.82,0.5,0
0.03962,-0.00010114,0.011712,0.00075,0.0037386,0.00092071,0,0,0.062192,-0.023311,0,0.014363,0,0,0,0.011789,0.0006732,0.0037386,4.7679,0.0054002,0.0099437,3.4791e-08,0.84,0.5,0
0.040874,-0.00022629,0.011842,0.00064699,0.0037467,0.00086325,0,0,0.063143,-0.024178,0,0.013467,0,0,0,0.011908,0.00058082,0.0037467,4.3836,0.0054119,0.010123,3.6236e-08,0.86,0.5,0
0.042145,-0.0003118,0.011945,0.0005358,0.0037443,0.00077641,0,0,0.063966,-0.025026,0,0.012112,0,0,0,0.011998,0.00048321,0.0037443,3.8752,0.0054084,0.010279,3.7445e-08,0.88,0.5,0
0.043432,-0.00036883,0.012025,0.00042988,0.0037365,0.00066947,0,0,0.064652,-0.025792,0,0.010444,0,0,0,0.012064,0.00039135,0.0037365,3.2935,0.0053972,0.010411,3.8426e-08,0.9,0.5,0
0.044732,-0.00040576,0.012087,0.00033726,0.0037271,0.00054856,0,0,0.065203,-0.026441,0,0.0085575,0,0,0,0.012112,0.00031171,0.0037271,2.6673,0.0053836,0.010517,3.9195e-08,0.92,0.5,0
0.04604,-0.00042877,0.012091,0.00024549,0.0037011,0.00040297,0,0,0.065445,-0.026954,0,0.0062864,0,0,0,0.012105,0.0002318,0.0037011,1.9461,0.005346,0.010575,3.9426e-08,0.94,0.5,0
0.047356,-0.0004423,0.012188,0.00021942,0.0037222,0.00029216,0,0,0.066033,-0.027322,0,0.0045578,0,0,0,0.012195,0.00021229,0.0037222,1.3975,0.0053766,0.01067,4.0391e-08,0.96,0.5,0
0.048677,-0.0004493,0.012148,0.00011056,0.0036777,0.00013935,0,0,0.066072,-0.027824,0,0.0021739,0,0,0,0.01215,0.00010895,0.0036777,0.66314,0.0053122,0.010712,4.0322e-08,0.98,0.5,0
0.05,-0.00045146,0.012105,-2.4062e-05,0.0036242,-6.8938e-06,0,0,0.066148,-0.028456,0,-0.00010754,0,0,0,0.012105,-2.4066e-05,0.0036242,-0.032566,0.005235,0.010778,4.035e-08,1,0.5,0
0,0,0.010587,0.0045372,0.0045372,-0.00054039,0,0,0.047187,1.0842e-19,0,-0.0084301,0,0,0,0.010635,0.0044893,0.0045372,-5.0646,0.0065537,0.0061216,1.178e-08,0,0.52,0
0.00094374,-0.0001686,0.010502,0.0041507,0.0043959,-0.00055386,0,0,0.04763,-0.0019128,0,-0.0086403,0,0,0,0.01055,0.0041028,0.0043959,-4.9464,0.0063497,0.0063061,1.2786e-08,0.02,0.52,0
0.0019141,-0.00031452,0.010716,0.003905,0.0043864,-0.00050859,0,0,0.049373,-0.0037546,0,-0.007934,0,0,0,0.010754,0.0038673,0.0043864,-4.2468,0.0063359,0.0066424,1.4743e-08,0.04,0.52,0
0.0029101,-0.00044145,0.010786,0.0036231,0.0043228,-0.00051232,0,0,0.050414,-0.0054573,0,-0.0079922,0,0,0,0.010823,0.0035866,0.0043228,-4.0704,0.006244,0.0068974,1.6207e-08,0.06,0.52,0
0.0039306,-0.00055233,0.010895,0.0033662,0.0042782,-0.00051904,0,0,0.051608,-0.0071137,0,-0.0080971,0,0,0,0.01093,0.0033306,0.0042782,-3.9255,0.0061797,0.0071729,1.7844e-08,0.08,0.52,0
0.0049744,-0.00064941,0.010965,0.0031269,0.0042274,-0.00054425,0,0,0.05255,-0.0085845,0,-0.0084903,0,0,0,0.011002,0.0030893,0.0042274,-3.9533,0.0061063,0.0074097,1.9243e-08,0.1,0.52,0
0.0060399,-0.00073439,0.011139,0.0029384,0.0042231,-0.00055998,0,0,0.053941,-0.01002,0,-0.0087356,0,0,0,0.011177,0.0029004,0.0042231,-3.8886,0.0061001,0.0077006,2.1139e-08,0.12,0.52,0
0.0071254,-0.00080843,0.011177,0.0026933,0.0041613,-0.00060218,0,0,0.054727,-0.01145,0,-0.0093941,0,0,0,0.01122,0.0026508,0.0041613,-4.0397,0.0060107,0.0079228,2.2445e-08,0.14,0.52,0
0.008229,-0.00087219,0.011253,0.0025062,0.0041279,-0.00064642,0,0,0.055579,-0.012649,0,-0.010084,0,0,0,0.011301,0.0024587,0.0041279,-4.2038,0.0059625,0.008137,2.3793e-08,0.16,0.52,0
0.0093485,-0.00092584,0.011317,0.00234,0.0040972,-0.00069705,0,0,0.056317,-0.013706,0,-0.010874,0,0,0,0.011371,0.0022862,0.0040972,-4.4135,0.0059182,0.0083285,2.5006e-08,0.18,0.52,0
0.010482,-0.000969,0.011368,0.0021957,0.0040691,-0.00075292,0,0,0.056931,-0.014612,0,-0.011746,0,0,0,0.011429,0.0021343,0.0040691,-4.6617,0.0058775,0.0084945,2.6058e-08,0.2,0.52,0
0.011626,-0.0010007,0.011403,0.0020741,0.004043,-0.00081266,0,0,0.057405,-0.015357,0,-0.012677,0,0,0,0.011473,0.0020039,0.004043,-4.9417,0.0058399,0.0086321,2.6922e-08,0.22,0.52,0
0.012778,-0.0010191,0.011419,0.0019757,0.0040186,-0.00087453,0,0,0.057727,-0.015934,0,-0.013643,0,0,0,0.0115,0.0018954,0.0040186,-5.2464,0.0058046,0.0087384,2.757e-08,0.24,0.52,0
0.013935,-0.0010218,0.011415,0.0019002,0.0039947,-0.00093615,0,0,0.057881,-0.016337,0,-0.014604,0,0,0,0.011506,0.001809,0.0039947,-5.566,0.0057701,0.0088104,2.7971e-08,0.26,0.52,0
0.015093,-0.0010049,0.011387,0.0018462,0.0039699,-0.00099421,0,0,0.057852,-0.016565,0,-0.01551,0,0,0,0.011489,0.0017437,0.0039699,-5.8864,0.0057343,0.0088453,2.8096e-08,0.28,0.52,0
0.016249,-0.00096341,0.011331,0.0018102,0.0039422,-0.0010439,0,0,0.057628,-0.016629,0,-0.016285,0,0,0,0.011444,0.0016971,0.0039422,-6.1847,0.0056943,0.0088404,2.7918e-08,0.3,0.52,0
0.017398,-0.00089035,0.011243,0.0017857,0.0039086,-0.0010784,0,0,0.057208,-0.016558,0,-0.016823,0,0,0,0.011364,0.0016643,0.0039086,-6.4236,0.0056458,0.0087954,2.7424e-08,0.32,0.52,0
0.018537,-0.00077655,0.011125,0.00176,0.0038655,-0.0010883,0,0,0.056623,-0.016422,0,-0.016977,0,0,0,0.01125,0.0016352,0.0038655,-6.542,0.0055835,0.008716,2.6648e-08,0.34,0.52,0
0.019663,-0.00061036,0.010987,0.0017082,0.0038085,-0.0010653,0,0,0.05599,-0.016382,0,-0.016619,0,0,0,0.011107,0.0015875,0.0038085,-6.4664,0.0055011,0.0086266,2.575e-08,0.36,0.52,0
0.020777,-0.00038007,0.010835,0.0015719,0.0037219,-0.001011,0,0,0.055479,-0.01677,0,-0.015772,0,0,0,0.010944,0.0014628,0.0037219,-6.1572,0.0053761,0.0085774,2.4989e-08,0.38,0.52,0
0.021882,-7.675e-05,0.010697,0.0013073,0.0036014,-0.00096484,0,0,0.055349,-0.017894,0,-0.015052,0,0,0,0.010795,0.0012092,0.0036014,-5.8064,0.005202,0.0086422,2.4786e-08,0.4,0.52,0
0.022991,0.0002932,0.010511,0.00083112,0.0034026,-0.00096635,0,0,0.055445,-0.020058,0,-0.015075,0,0,0,0.010606,0.00073559,0.0034026,-5.6457,0.0049149,0.0088442,2.4941e-08,0.42,0.52,0
0.0241,0.00072025,0.010412,0.00035673,0.0032306,-0.0011316,0,0,0.056014,-0.022416,0,-0.017653,0,0,0,0.010538,0.00023095,0.0032306,-6.3425,0.0046664,0.009182,2.5925e-08,0.44,0.52,0
0.025231,0.0011602,0.010172,-0.00014324,0.0030085,-0.0013014,0,0,0.055872,-0.024584,0,-0.020303,0,0,0,0.010333,-0.00030491,0.0030085,-7.0812,0.0043457,0.0094288,2.5816e-08,0.46,0.52,0
0.026321,0.0016471,0.011015,-0.00026197,0.0032258,-0.0018286,0,0,0.060754,-0.027205,0,-0.028526,0,0,0,0.011304,-0.00055108,0.0032258,-8.9844,0.0046595,0.01049,3.4416e-08,0.48,0.52,0
0.027599,0.0020861,0.0089783,0.00014484,0.002737,-0.0020801,0,0,0.048683,-0.020218,0,-0.03245,0,0,0,0.0094436,-0.00032048,0.002737,-12.609,0.0039534,0.0086506,1.9791e-08,0.5,0.52,0
0.027964,0.0022773,0.010874,-0.00024354,0.0031891,-0.0024642,0,0,0.017348,-0.011358,0,-0.021772,0,0,0,0.01157,-0.00093987,0.0031891,-15.795,0.0046065,0.011102,8.1613e-08,0.52,0.52,0
0.028305,0.0023482,0.010797,-0.00029597,0.0031502,-0.0014092,0,0,0.01705,-0.0099694,0,-0.013867,0,0,0,0.011117,-0.00061628,0.0031502,-11.692,0.0045504,0.010405,7.6725e-08,0.54,0.52,0
0.028647,0.0024055,0.01092,-0.00020272,0.0032151,-0.00088054,0,0,0.017155,-0.0094235,0,-0.0079916,0,0,0,0.011039,-0.0003218,0.0032151,-7.6627,0.0046441,0.010086,7.7794e-08,0.56,0.52,0
0.028991,0.0024509,0.010915,-0.00022943,0.0032056,-0.00023497,0,0,0.01719,-0.0093063,0,-0.0024896,0,0,0,0.010927,-0.00024154,0.0032056,-2.5015,0.0046303,0.0099167,7.7002e-08,0.58,0.52,0
0.029335,0.0024864,0.010913,-0.00027562,0.0031913,0.00018681,0,0,0.017213,-0.0094488,0,0.0022479,0,0,0,0.010923,-0.00028571,0.0031913,2.2263,0.0046096,0.0099497,7.736e-08,0.6,0.52,0
0.029679,0.0025117,0.010873,-0.00036157,0.0031535,0.00083715,0,0,0.017195,-0.0098612,0,0.0077782,0,0,0,0.010983,-0.00047171,0.0031535,7.3011,0.004555,0.010159,7.7972e-08,0.62,0.52,0
0.030023,0.0025246,0.010758,-0.00055995,0.0030594,0.0013656,0,0,0.017158,-0.010739,0,0.013694,0,0,0,0.01106,-0.00086213,0.0030594,11.19,0.0044192,0.010559,7.7906e-08,0.64,0.52,0
0.030366,0.0025232,0.011264,-0.00043389,0.003249,0.0018162,0,0,0.017862,-0.012542,0,0.02005,0,0,0,0.011798,-0.00096842,0.003249,13.25,0.004693,0.011345,8.8046e-08,0.66,0.52,0
0.030737,0.0023919,0.01349,-0.0028631,0.003188,0.0022495,0,0,0.033937,-0.017278,0,0.018738,0,0,0,0.013827,-0.0032006,0.003188,8.8431,0.0046048,0.014907,9.4028e-08,0.68,0.52,0
0.032031,0.0019671,0.010523,-0.0011695,0.0028061,0.0018273,0,0,0.060193,-0.031009,0,0.028507,0,0,0,0.010802,-0.0014484,0.0028061,8.6787,0.0040532,0.010773,3.2107e-08,0.7,0.52,0
0.033145,0.0014907,0.0099472,-0.0010464,0.0026702,0.0011571,0,0,0.05676,-0.02899,0,0.018051,0,0,0,0.010068,-0.0011668,0.0026702,5.9438,0.003857,0.0098909,2.5674e-08,0.72,0.52,0
0.034301,0.0010486,0.010357,-0.00034833,0.0030026,0.00092626,0,0,0.057365,-0.026138,0,0.01445,0,0,0,0.010437,-0.00042788,0.0030026,4.9087,0.0043371,0.0096196,2.6893e-08,0.74,0.52,0
0.035439,0.00061116,0.010472,9.2272e-05,0.0031691,0.00072907,0,0,0.056959,-0.024,0,0.011373,0,0,0,0.010523,4.1311e-05,0.0031691,3.9984,0.0045777,0.0093196,2.6337e-08,0.76,0.52,0
0.036579,0.00022341,0.010668,0.00052554,0.0033581,0.00069954,0,0,0.057019,-0.022094,0,0.010913,0,0,0,0.010716,0.00047752,0.0033581,3.9269,0.0048506,0.0091453,2.6545e-08,0.78,0.52,0
0.03772,-0.00010234,0.010823,0.00074028,0.0034689,0.00072499,0,0,0.05736,-0.021284,0,0.01131,0,0,0,0.010875,0.00068841,0.0034689,4.0918,0.0050107,0.0091197,2.7094e-08,0.8,0.52,0
0.038874,-0.00035796,0.010998,0.0008111,0.0035428,0.00076148,0,0,0.058152,-0.021307,0,0.011879,0,0,0,0.011055,0.00075449,0.0035428,4.2513,0.0051174,0.0092277,2.8281e-08,0.82,0.52,0
0.040046,-0.00055105,0.011168,0.00078157,0.003585,0.00076644,0,0,0.059151,-0.021867,0,0.011957,0,0,0,0.011225,0.00072532,0.003585,4.1975,0.0051783,0.0094016,2.9745e-08,0.84,0.52,0
0.04124,-0.00069288,0.011326,0.00070962,0.0036108,0.00073498,0,0,0.060182,-0.02263,0,0.011466,0,0,0,0.011377,0.00065899,0.0036108,3.9414,0.0052157,0.0095893,3.1241e-08,0.86,0.52,0
0.042453,-0.00079513,0.011461,0.00062193,0.0036249,0.00067288,0,0,0.061123,-0.023423,0,0.010497,0,0,0,0.011503,0.00058031,0.0036249,3.5387,0.005236,0.0097629,3.2592e-08,0.88,0.52,0
0.043685,-0.00086746,0.01157,0.00053339,0.0036312,0.00058804,0,0,0.061927,-0.024163,0,0.0091735,0,0,0,0.011602,0.00050214,0.0036312,3.0412,0.005245,0.0099126,3.3736e-08,0.9,0.52,0
0.04493,-0.00091743,0.011656,0.00045319,0.0036327,0.00048674,0,0,0.062581,-0.0248,0,0.0075932,0,0,0,0.011677,0.00043208,0.0036327,2.4832,0.0052473,0.010035,3.466e-08,0.92,0.52,0
0.046188,-0.00095081,0.011729,0.00043913,0.0036505,0.00036327,0,0,0.063014,-0.025049,0,0.005667,0,0,0,0.011741,0.00042746,0.0036505,1.841,0.0052729,0.010095,3.5255e-08,0.94,0.52,0
0.047454,-0.00097183,0.0118,0.00040173,0.0036605,0.00025579,0,0,0.063488,-0.025419,0,0.0039903,0,0,0,0.011806,0.00039599,0.0036605,1.2849,0.0052874,0.010178,3.5966e-08,0.96,0.52,0
0.048725,-0.00098335,0.01181,0.00036501,0.0036525,0.00012234,0,0,0.063629,-0.025643,0,0.0019085,0,0,0,0.011811,0.0003637,0.0036525,0.61237,0.0052759,0.010209,3.6135e-08,0.98,0.52,0
0.05,-0.00098701,0.011875,0.00047605,0.0037053,-1.1722e-05,0,0,0.063723,-0.025188,0,-0.00018287,0,0,0,0.011875,0.00047604,0.0037053,-0.058922,0.0053521,0.010176,3.6316e-08,1,0.52,0
0,0,0.010452,0.0044794,0.0044794,-0.00065718,0,0,0.046585,0,0,-0.010252,0,0,0,0.010523,0.0044079,0.0044794,-6.2056,0.0064702,0.00608,1.1538e-08,0,0.54,0
0.00093171,-0.00020504,0.010377,0.0041294,0.0043521,-0.00067062,0,0,0.046998,-0.0017367,0,-0.010462,0,0,0,0.010449,0.0040583,0.0043521,-6.0577,0.0062864,0.0062487,1.2438e-08,0.02,0.54,0
0.0018882,-0.00038625,0.01058,0.0039059,0.0043457,-0.00062056,0,0,0.048625,-0.0034301,0,-0.0096808,0,0,0,0.010637,0.0038487,0.0043457,-5.2675,0.0062771,0.0065538,1.4178e-08,0.04,0.54,0
0.0028687,-0.00054708,0.010636,0.0036209,0.0042771,-0.00061976,0,0,0.0496,-0.0051179,0,-0.0096682,0,0,0,0.01069,0.0035666,0.0042771,-5.0102,0.006178,0.0067964,1.5531e-08,0.06,0.54,0
0.0038722,-0.00069019,0.010735,0.0033757,0.0042333,-0.00062042,0,0,0.050715,-0.0066894,0,-0.0096786,0,0,0,0.010787,0.0033237,0.0042333,-4.7851,0.0061147,0.0070528,1.7012e-08,0.08,0.54,0
0.0048973,-0.00081761,0.010827,0.003144,0.0041914,-0.00063131,0,0,0.051761,-0.00817,0,-0.0098484,0,0,0,0.010879,0.0030924,0.0041914,-4.666,0.0060542,0.0072993,1.8457e-08,0.1,0.54,0
0.0059426,-0.00093079,0.010911,0.0029276,0.0041515,-0.00065075,0,0,0.052722,-0.0095468,0,-0.010152,0,0,0,0.010963,0.0028749,0.0041515,-4.6297,0.0059966,0.0075319,1.9836e-08,0.12,0.54,0
0.0070062,-0.0010307,0.010984,0.0027281,0.0041136,-0.00067734,0,0,0.053588,-0.010807,0,-0.010566,0,0,0,0.011039,0.0026729,0.0041136,-4.6592,0.0059419,0.007747,2.1123e-08,0.14,0.54,0
0.0080861,-0.0011177,0.011045,0.002547,0.0040776,-0.0007098,0,0,0.054346,-0.011939,0,-0.011073,0,0,0,0.011104,0.0024882,0.0040776,-4.7418,0.0058899,0.0079413,2.2288e-08,0.16,0.54,0
0.0091801,-0.0011917,0.011092,0.0023857,0.0040434,-0.00074689,0,0,0.054983,-0.012931,0,-0.011652,0,0,0,0.011156,0.002322,0.0040434,-4.8676,0.0058405,0.0081115,2.3304e-08,0.18,0.54,0
0.010285,-0.0012523,0.011124,0.0022449,0.0040107,-0.00078726,0,0,0.055485,-0.013773,0,-0.012281,0,0,0,0.011193,0.0021756,0.0040107,-5.0278,0.0057932,0.0082547,2.4145e-08,0.2,0.54,0
0.011399,-0.0012981,0.011138,0.0021253,0.0039789,-0.00082928,0,0,0.055839,-0.014458,0,-0.012937,0,0,0,0.011213,0.0020497,0.0039789,-5.2137,0.0057473,0.0083677,2.4783e-08,0.22,0.54,0
0.012519,-0.0013274,0.011131,0.0020268,0.0039473,-0.00087089,0,0,0.056032,-0.01498,0,-0.013586,0,0,0,0.011213,0.0019443,0.0039473,-5.4154,0.0057017,0.0084478,2.5192e-08,0.24,0.54,0
0.013641,-0.0013375,0.011101,0.0019484,0.0039149,-0.00090939,0,0,0.056053,-0.015338,0,-0.014186,0,0,0,0.011191,0.001859,0.0039149,-5.6196,0.0056548,0.0084924,2.535e-08,0.26,0.54,0
0.014761,-0.0013247,0.011045,0.0018877,0.00388,-0.00094118,0,0,0.055891,-0.015539,0,-0.014682,0,0,0,0.011141,0.001792,0.00388,-5.8077,0.0056044,0.0084997,2.5238e-08,0.28,0.54,0
0.015876,-0.0012843,0.010962,0.0018401,0.0038405,-0.00096154,0,0,0.055545,-0.015603,0,-0.015,0,0,0,0.011062,0.0017398,0.0038405,-5.9526,0.0055474,0.0084695,2.485e-08,0.3,0.54,0
0.016983,-0.00121,0.010849,0.0017971,0.0037939,-0.00096473,0,0,0.055031,-0.015575,0,-0.01505,0,0,0,0.010951,0.0016955,0.0037939,-6.0164,0.0054801,0.008405,2.4206e-08,0.32,0.54,0
0.018078,-0.0010943,0.01071,0.0017444,0.0037364,-0.00094524,0,0,0.054396,-0.015538,0,-0.014746,0,0,0,0.010809,0.0016458,0.0037364,-5.9533,0.005397,0.0083172,2.3375e-08,0.34,0.54,0
0.019159,-0.0009291,0.010549,0.0016565,0.0036618,-0.00090121,0,0,0.053724,-0.015641,0,-0.014059,0,0,0,0.01064,0.0015661,0.0036618,-5.7287,0.0052893,0.0082286,2.248e-08,0.36,0.54,0
0.020227,-0.00070706,0.010375,0.0015022,0.0035631,-0.00084258,0,0,0.053131,-0.016075,0,-0.013144,0,0,0,0.010454,0.0014229,0.0035631,-5.377,0.0051467,0.008174,2.1701e-08,0.38,0.54,0
0.021284,-0.00042543,0.010176,0.0012422,0.0034256,-0.00079124,0,0,0.052657,-0.017031,0,-0.012343,0,0,0,0.010246,0.0011727,0.0034256,-5.0222,0.0049481,0.0081829,2.1115e-08,0.4,0.54,0
0.022333,-8.7171e-05,0.009958,0.00089003,0.0032544,-0.00079131,0,0,0.052288,-0.018442,0,-0.012344,0,0,0,0.010027,0.00082149,0.0032544,-4.95,0.0047008,0.0082618,2.072e-08,0.42,0.54,0
0.023376,0.00029335,0.0096284,0.00042012,0.0030145,-0.00085309,0,0,0.051588,-0.020237,0,-0.013308,0,0,0,0.0097067,0.00034176,0.0030145,-5.2486,0.0043543,0.0083556,1.9951e-08,0.44,0.54,0
0.024396,0.00070809,0.0092491,4.4589e-06,0.0027761,-0.0010494,0,0,0.05049,-0.021618,0,-0.016371,0,0,0,0.0093667,-0.00011318,0.0027761,-6.3958,0.0040099,0.0084159,1.8894e-08,0.46,0.54,0
0.025395,0.0011227,0.0081745,-0.00079311,0.0022144,-0.0012146,0,0,0.046489,-0.023459,0,-0.018948,0,0,0,0.0083361,-0.00095471,0.0022144,-7.5786,0.0031986,0.0081804,1.4561e-08,0.48,0.54,0
0.026256,0.0015897,0.0072198,-0.0013247,0.0017685,-0.001889,0,0,0.04252,-0.024127,0,-0.029468,0,0,0,0.0076188,-0.0017236,0.0017685,-11.926,0.0025546,0.0081762,1.1808e-08,0.5,0.54,0
0.027096,0.0019463,0.0064226,-0.00099187,0.0016292,-0.0016067,0,0,0.037388,-0.020445,0,-0.025064,0,0,0,0.0067558,-0.0013251,0.0016292,-11.716,0.0023533,0.007082,8.1304e-09,0.52,0.54,0
0.027751,0.0020847,0.0052668,-0.00081004,0.001337,-0.0012764,0,0,0.030652,-0.016747,0,-0.019913,0,0,0,0.005524,-0.0010673,0.001337,-11.394,0.0019313,0.0057774,4.4387e-09,0.54,0.54,0
0.028322,0.0021664,0.0047602,-0.00073608,0.0012072,-0.00076102,0,0,0.027713,-0.015158,0,-0.011872,0,0,0,0.0048636,-0.00083951,0.0012072,-7.7393,0.0017438,0.0050042,2.9983e-09,0.56,0.54,0
0.02886,0.0022186,0.0045803,-0.00071605,0.0011593,-0.00025711,0,0,0.026684,-0.014627,0,-0.004011,0,0,0,0.0045927,-0.0007285,0.0011593,-2.7728,0.0016745,0.0046727,2.5052e-09,0.58,0.54,0
0.029389,0.0022492,0.004566,-0.00076785,0.0011394,0.00023843,0,0,0.026727,-0.014877,0,0.0037195,0,0,0,0.0045766,-0.00077849,0.0011394,2.5544,0.0016459,0.0046995,2.4948e-09,0.6,0.54,0
0.029929,0.0022577,0.0047188,-0.00089432,0.0011474,0.0007425,0,0,0.027857,-0.015925,0,0.011583,0,0,0,0.0048154,-0.00099088,0.0011474,7.4093,0.0016573,0.0050862,2.9569e-09,0.62,0.54,0
0.030504,0.002235,0.0052081,-0.0010819,0.0012379,0.0012562,0,0,0.030968,-0.018094,0,0.019598,0,0,0,0.0054497,-0.0013235,0.0012379,10.887,0.001788,0.0059235,4.3461e-09,0.64,0.54,0
0.031168,0.002151,0.0063639,-0.0013989,0.0014895,0.0015704,0,0,0.03802,-0.022529,0,0.024498,0,0,0,0.0066695,-0.0017045,0.0014895,11.014,0.0021515,0.0073198,7.9966e-09,0.66,0.54,0
0.032024,0.001834,0.007147,-0.0018865,0.0015781,0.0018082,0,0,0.043437,-0.027024,0,0.028208,0,0,0,0.0074955,-0.002235,0.0015781,10.909,0.0022795,0.0084923,1.1452e-08,0.68,0.54,0
0.032905,0.0013827,0.0081174,-0.0013587,0.0020276,0.0010813,0,0,0.0475,-0.026413,0,0.016869,0,0,0,0.0082392,-0.0014805,0.0020276,6.428,0.0029288,0.0085254,1.4631e-08,0.7,0.54,0
0.033925,0.00097118,0.0091859,-0.00061846,0.0025702,0.00087503,0,0,0.051602,-0.024872,0,0.01365,0,0,0,0.0092634,-0.00069594,0.0025702,5.0603,0.0037126,0.0087936,1.9382e-08,0.72,0.54,0
0.034969,0.00054994,0.0095742,-0.00024257,0.0027995,0.00064345,0,0,0.052843,-0.023728,0,0.010038,0,0,0,0.0096162,-0.00028457,0.0027995,3.7342,0.0040437,0.0087751,2.0808e-08,0.74,0.54,0
0.036038,0.0001537,0.0099067,0.00018119,0.0030264,0.00054681,0,0,0.053667,-0.022192,0,0.0085303,0,0,0,0.0099374,0.00015054,0.0030264,3.208,0.0043714,0.0087125,2.191e-08,0.76,0.54,0
0.037116,-0.00020761,0.010132,0.00048667,0.0031857,0.00051652,0,0,0.054184,-0.021053,0,0.0080577,0,0,0,0.01016,0.00045909,0.0031857,3.0565,0.0046016,0.0086656,2.2605e-08,0.78,0.54,0
0.038206,-0.00051819,0.010341,0.0006914,0.0033098,0.00054064,0,0,0.054844,-0.020423,0,0.008434,0,0,0,0.010371,0.0006612,0.0033098,3.1968,0.0047808,0.0086938,2.349e-08,0.8,0.54,0
0.03931,-0.00077366,0.010532,0.00077957,0.0033935,0.00057393,0,0,0.055681,-0.020389,0,0.0089533,0,0,0,0.010566,0.00074591,0.0033935,3.3564,0.0049017,0.0088,2.4615e-08,0.82,0.54,0
0.040433,-0.00097581,0.010716,0.00078811,0.0034511,0.00059194,0,0,0.056663,-0.020771,0,0.0092343,0,0,0,0.010751,0.00075294,0.0034511,3.4003,0.0049849,0.0089588,2.595e-08,0.84,0.54,0
0.041576,-0.0011315,0.010884,0.00074798,0.0034895,0.00058252,0,0,0.057675,-0.021384,0,0.0090873,0,0,0,0.010917,0.00071462,0.0034895,3.2785,0.0050404,0.0091368,2.7337e-08,0.86,0.54,0
0.04274,-0.0012487,0.011032,0.00068524,0.0035151,0.00054563,0,0,0.058629,-0.022073,0,0.0085119,0,0,0,0.01106,0.00065654,0.0035151,3.0105,0.0050773,0.0093097,2.865e-08,0.88,0.54,0
0.043922,-0.0013353,0.011155,0.00061579,0.0035314,0.00048557,0,0,0.059468,-0.022742,0,0.0075748,0,0,0,0.011178,0.00059347,0.0035314,2.6322,0.0051009,0.0094638,2.9808e-08,0.9,0.54,0
0.045118,-0.0013978,0.011255,0.00054972,0.0035413,0.00040751,0,0,0.060164,-0.023335,0,0.0063571,0,0,0,0.01127,0.00053423,0.0035413,2.1769,0.0051153,0.0095927,3.077e-08,0.92,0.54,0
0.046328,-0.0014413,0.01133,0.00049345,0.0035471,0.00031617,0,0,0.060708,-0.023818,0,0.0049322,0,0,0,0.011339,0.00048423,0.0035471,1.6698,0.0051236,0.0096937,3.1521e-08,0.94,0.54,0
0.047547,-0.0014696,0.011383,0.00045097,0.0035502,0.00021558,0,0,0.061096,-0.024174,0,0.0033631,0,0,0,0.011387,0.00044672,0.0035502,1.1293,0.0051281,0.009766,3.2057e-08,0.96,0.54,0
0.048772,-0.0014856,0.011414,0.00042465,0.0035517,0.00010919,0,0,0.061328,-0.024391,0,0.0017034,0,0,0,0.011415,0.00042357,0.0035517,0.5692,0.0051302,0.0098093,3.2377e-08,0.98,0.54,0
0.05,-0.0014908,0.011425,0.00041576,0.0035521,-1.652e-05,0,0,0.061406,-0.024464,0,-0.00025771,0,0,0,0.011425,0.00041573,0.0035521,-0.085978,0.0051308,0.0098237,3.2484e-08,1,0.54,0
0,0,0.010315,0.0044208,0.0044208,-0.00076577,0,0,0.045976,-6.5052e-19,0,-0.011946,0,0,0,0.010413,0.0043229,0.0044208,-7.2826,0.0063856,0.0060417,1.1317e-08,0,0.56,0
0.00091952,-0.00023892,0.010287,0.0041092,0.004319,-0.00076536,0,0,0.046554,-0.0016365,0,-0.01194,0,0,0,0.010381,0.0040158,0.004319,-6.9577,0.0062385,0.006219,1.2254e-08,0.02,0.56,0
0.0018622,-0.00045329,0.010389,0.0038577,0.0042739,-0.00073555,0,0,0.047695,-0.0032462,0,-0.011475,0,0,0,0.010471,0.0037759,0.0042739,-6.3471,0.0061734,0.0064599,1.3569e-08,0.04,0.56,0
0.0028273,-0.00064617,0.010486,0.0036132,0.0042297,-0.00071889,0,0,0.048797,-0.0048084,0,-0.011215,0,0,0,0.01056,0.0035388,0.0042297,-5.9081,0.0061095,0.0067026,1.4912e-08,0.06,0.56,0
0.003814,-0.00081991,0.010577,0.0033781,0.0041864,-0.00071288,0,0,0.049844,-0.006305,0,-0.011121,0,0,0,0.010647,0.0033082,0.0041864,-5.6015,0.0060471,0.0069411,1.6252e-08,0.08,0.56,0
0.0048211,-0.00097621,0.01066,0.0031548,0.0041444,-0.00071549,0,0,0.050821,-0.0077191,0,-0.011162,0,0,0,0.010727,0.0030872,0.0041444,-5.3974,0.0059863,0.0071704,1.7555e-08,0.1,0.56,0
0.0058469,-0.0011163,0.010733,0.0029452,0.0041036,-0.00072501,0,0,0.051713,-0.0090353,0,-0.01131,0,0,0,0.0108,0.0028783,0.0041036,-5.2733,0.0059274,0.007386,1.8789e-08,0.12,0.56,0
0.0068896,-0.0012407,0.010796,0.0027513,0.0040641,-0.00073997,0,0,0.052506,-0.01024,0,-0.011544,0,0,0,0.010863,0.0026838,0.0040641,-5.2122,0.0058704,0.007584,1.9925e-08,0.14,0.56,0
0.0079471,-0.0013497,0.010845,0.0025746,0.0040258,-0.00075903,0,0,0.053187,-0.011319,0,-0.011841,0,0,0,0.010914,0.0025055,0.0040258,-5.2008,0.005815,0.0077605,2.0934e-08,0.16,0.56,0
0.0090171,-0.0014431,0.010878,0.0024162,0.0039884,-0.0007808,0,0,0.053742,-0.012263,0,-0.012181,0,0,0,0.01095,0.0023448,0.0039884,-5.2279,0.005761,0.0079123,2.1787e-08,0.18,0.56,0
0.010097,-0.0015199,0.010895,0.0022771,0.0039516,-0.00080381,0,0,0.054159,-0.013062,0,-0.01254,0,0,0,0.010969,0.0022027,0.0039516,-5.2833,0.0057079,0.0080362,2.2458e-08,0.2,0.56,0
0.011183,-0.001579,0.010892,0.0021572,0.0039149,-0.00082628,0,0,0.054425,-0.01371,0,-0.01289,0,0,0,0.01097,0.0020798,0.0039149,-5.3564,0.0056549,0.0081295,2.2925e-08,0.22,0.56,0
0.012274,-0.0016183,0.010869,0.0020562,0.0038774,-0.000846,0,0,0.054531,-0.014206,0,-0.013198,0,0,0,0.010949,0.0019757,0.0038774,-5.4343,0.0056007,0.0081898,2.3166e-08,0.24,0.56,0
0.013365,-0.0016353,0.010821,0.0019723,0.0038381,-0.00086021,0,0,0.054469,-0.014553,0,-0.013419,0,0,0,0.010904,0.0018895,0.0038381,-5.5011,0.0055439,0.0082155,2.3168e-08,0.26,0.56,0
0.014453,-0.0016265,0.010749,0.0019024,0.0037954,-0.00086549,0,0,0.054237,-0.014765,0,-0.013502,0,0,0,0.010833,0.0018185,0.0037954,-5.5356,0.0054822,0.0082063,2.2927e-08,0.28,0.56,0
0.015534,-0.0015876,0.01065,0.0018408,0.0037473,-0.00085781,0,0,0.053843,-0.014871,0,-0.013382,0,0,0,0.010733,0.0017581,0.0037473,-5.5101,0.0054128,0.0081642,2.2454e-08,0.3,0.56,0
0.016606,-0.0015133,0.010526,0.0017786,0.0036914,-0.00083312,0,0,0.05331,-0.01492,0,-0.012997,0,0,0,0.010605,0.0016999,0.0036914,-5.3923,0.005332,0.0080949,2.1785e-08,0.32,0.56,0
0.017667,-0.0013981,0.010378,0.0017017,0.003624,-0.00078871,0,0,0.052683,-0.014993,0,-0.012304,0,0,0,0.010449,0.0016306,0.003624,-5.1521,0.0052346,0.0080102,2.0988e-08,0.34,0.56,0
0.018714,-0.001236,0.01021,0.0015917,0.0035404,-0.00072603,0,0,0.052021,-0.0152,0,-0.011326,0,0,0,0.010271,0.0015309,0.0035404,-4.782,0.0051139,0.0079282,2.0158e-08,0.36,0.56,0
0.019747,-0.0010231,0.010021,0.0014258,0.003434,-0.00065292,0,0,0.051378,-0.015664,0,-0.010186,0,0,0,0.01007,0.0013765,0.003434,-4.3194,0.0049603,0.0078693,1.9379e-08,0.38,0.56,0
0.020769,-0.00075798,0.0098089,0.0011906,0.0032999,-0.00058613,0,0,0.050771,-0.016452,0,-0.0091437,0,0,0,0.0098486,0.0011509,0.0032999,-3.8729,0.0047665,0.0078471,1.8685e-08,0.4,0.56,0
0.021778,-0.00044449,0.0095508,0.00087688,0.0031283,-0.00054124,0,0,0.050095,-0.017561,0,-0.0084433,0,0,0,0.0095844,0.00084324,0.0031283,-3.5568,0.0045187,0.0078521,1.7949e-08,0.42,0.56,0
0.022773,-8.9213e-05,0.0092371,0.00051813,0.0029266,-0.00053701,0,0,0.049222,-0.018786,0,-0.0083773,0,0,0,0.00927,0.00048518,0.0029266,-3.5112,0.0042273,0.0078541,1.7018e-08,0.44,0.56,0
0.023747,0.00029546,0.0087755,7.883e-05,0.0026563,-0.0005437,0,0,0.04773,-0.020104,0,-0.0084817,0,0,0,0.0088094,4.4971e-05,0.0026563,-3.5635,0.0038369,0.0077941,1.5434e-08,0.46,0.56,0
0.024682,0.0007088,0.0083531,-0.00026899,0.0024252,-0.00058327,0,0,0.046238,-0.021015,0,-0.009099,0,0,0,0.0083924,-0.00030826,0.0024252,-3.8525,0.0035031,0.0077065,1.3927e-08,0.48,0.56,0
0.025597,0.001121,0.0077517,-0.00098519,0.00203,-0.00058522,0,0,0.04463,-0.023518,0,-0.0091294,0,0,0,0.0077907,-0.0010242,0.00203,-3.8151,0.0029322,0.007753,1.2025e-08,0.5,0.56,0
0.026467,0.0014595,0.0071256,-0.001451,0.0017024,-0.00076196,0,0,0.042301,-0.024596,0,-0.011887,0,0,0,0.0071928,-0.0015182,0.0017024,-5.0377,0.002459,0.0076288,9.8769e-09,0.52,0.56,0
0.027289,0.0016783,0.0066694,-0.0012274,0.0016326,-0.00072483,0,0,0.039287,-0.022308,0,-0.011307,0,0,0,0.0067354,-0.0012934,0.0016326,-5.2011,0.0023582,0.0070378,8.0413e-09,0.54,0.56,0
0.028038,0.0017992,0.006194,-0.0011325,0.0015185,-0.00049765,0,0,0.036469,-0.020677,0,-0.0077633,0,0,0,0.0062277,-0.0011661,0.0015185,-3.8681,0.0021933,0.0064827,6.3419e-09,0.56,0.56,0
0.028747,0.0018658,0.0059624,-0.0011138,0.0014546,-0.00017061,0,0,0.035161,-0.020033,0,-0.0026615,0,0,0,0.0059665,-0.0011179,0.0014546,-1.3803,0.0021011,0.0062114,5.5774e-09,0.58,0.56,0
0.029445,0.0018913,0.005954,-0.0011647,0.0014368,0.00017579,0,0,0.035234,-0.020292,0,0.0027424,0,0,0,0.0059583,-0.0011691,0.0014368,1.4138,0.0020753,0.0062464,5.5778e-09,0.6,0.56,0
0.030157,0.0018747,0.0061715,-0.0012872,0.0014653,0.00049944,0,0,0.036708,-0.021469,0,0.0077913,0,0,0,0.0062048,-0.0013205,0.0014653,3.8139,0.0021165,0.0065899,6.3448e-09,0.62,0.56,0
0.030913,0.0018009,0.0066399,-0.0014925,0.0015442,0.0007159,0,0,0.039746,-0.023686,0,0.011168,0,0,0,0.0067025,-0.0015551,0.0015442,4.9926,0.0022305,0.0072249,8.0559e-09,0.64,0.56,0
0.031747,0.001622,0.0070902,-0.0018376,0.0015758,0.00072659,0,0,0.043012,-0.026624,0,0.011335,0,0,0,0.0071489,-0.0018963,0.0015758,4.6225,0.0022761,0.0079035,9.8728e-09,0.66,0.56,0
0.032634,0.0013109,0.0077084,-0.0014737,0.0018704,0.00050265,0,0,0.045537,-0.026084,0,0.0078414,0,0,0,0.0077359,-0.0015011,0.0018704,3.1241,0.0027017,0.0080961,1.2195e-08,0.68,0.56,0
0.033568,0.00091053,0.0083089,-0.00080273,0.0022519,0.0004511,0,0,0.047245,-0.023826,0,0.0070371,0,0,0,0.0083312,-0.00082501,0.0022519,2.8274,0.0032527,0.0080704,1.437e-08,0.7,0.56,0
0.034523,0.00049587,0.0087227,-0.00050018,0.0024668,0.00037137,0,0,0.048796,-0.023142,0,0.0057933,0,0,0,0.0087377,-0.0005151,0.0024668,2.3021,0.0035631,0.0081801,1.6042e-08,0.72,0.56,0
0.03552,9.9474e-05,0.0091777,-0.0001093,0.0027205,0.00032695,0,0,0.050366,-0.022072,0,0.0051005,0,0,0,0.0091892,-0.00012079,0.0027205,2.0138,0.0039296,0.0082641,1.786e-08,0.74,0.56,0
0.036538,-0.00027653,0.0094895,0.00020255,0.0029076,0.00029579,0,0,0.051339,-0.0211,0,0.0046143,0,0,0,0.009499,0.00019314,0.0029076,1.8224,0.0041999,0.0082889,1.9024e-08,0.76,0.56,0
0.037574,-0.0006187,0.0097479,0.00046518,0.0030639,0.00030694,0,0,0.052135,-0.02027,0,0.0047883,0,0,0,0.009758,0.00045504,0.0030639,1.8918,0.0044256,0.0083115,1.9991e-08,0.78,0.56,0
0.038623,-0.00091926,0.0099641,0.0006431,0.0031822,0.00034173,0,0,0.052899,-0.019805,0,0.005331,0,0,0,0.0099766,0.00063059,0.0031822,2.0968,0.0045965,0.0083673,2.0923e-08,0.8,0.56,0
0.03969,-0.0011735,0.010162,0.00074233,0.0032713,0.00038336,0,0,0.053747,-0.019726,0,0.0059804,0,0,0,0.010177,0.00072675,0.0032713,2.3267,0.0047252,0.0084701,2.1976e-08,0.82,0.56,0
0.040773,-0.0013819,0.010344,0.00077494,0.0033358,0.00041362,0,0,0.054668,-0.019975,0,0.0064525,0,0,0,0.010362,0.00075709,0.0033358,2.4703,0.0048184,0.0086105,2.3146e-08,0.84,0.56,0
0.041876,-0.0015482,0.010512,0.00076267,0.0033824,0.00042307,0,0,0.055611,-0.020434,0,0.0065998,0,0,0,0.01053,0.00074434,0.0033824,2.4801,0.0048857,0.0087698,2.4366e-08,0.86,0.56,0
0.042998,-0.001678,0.010661,0.00072438,0.0034155,0.00040893,0,0,0.056513,-0.020991,0,0.0063792,0,0,0,0.010678,0.00070758,0.0034155,2.3527,0.0049336,0.0089295,2.555e-08,0.88,0.56,0
0.044137,-0.0017771,0.010788,0.00067479,0.0034388,0.000373,0,0,0.057323,-0.021559,0,0.0058188,0,0,0,0.010802,0.00066105,0.0034388,2.1094,0.0049672,0.0090763,2.6624e-08,0.9,0.56,0
0.045291,-0.0018508,0.010892,0.00062403,0.0034547,0.00031894,0,0,0.058009,-0.022079,0,0.0049755,0,0,0,0.010902,0.00061413,0.0034547,1.7775,0.0049902,0.0092021,2.754e-08,0.92,0.56,0
0.046457,-0.0019035,0.010972,0.00057896,0.0034653,0.00025084,0,0,0.058552,-0.022513,0,0.0039131,0,0,0,0.010978,0.0005729,0.0034653,1.3818,0.0050054,0.0093025,2.827e-08,0.94,0.56,0
0.047633,-0.0019388,0.011029,0.00054406,0.0034719,0.00017263,0,0,0.058944,-0.022837,0,0.002693,0,0,0,0.011032,0.00054121,0.0034719,0.94301,0.0050149,0.0093752,2.8798e-08,0.96,0.56,0
0.048815,-0.001959,0.011063,0.00052211,0.0034754,8.7903e-05,0,0,0.05918,-0.023036,0,0.0013713,0,0,0,0.011063,0.00052138,0.0034754,0.47777,0.0050201,0.0094191,2.9117e-08,0.98,0.56,0
0.05,-0.0019655,0.011074,0.00051464,0.0034766,-2.1053e-05,0,0,0.059259,-0.023103,0,-0.00032843,0,0,0,0.011074,0.0005146,0.0034766,-0.11424,0.0050217,0.0094338,2.9224e-08,1,0.56,0
0,0,0.010179,0.0043625,0.0043625,-0.00086698,0,0,0.04537,1.0842e-19,0,-0.013525,0,0,0,0.010306,0.0042361,0.0043625,-8.2996,0.0063014,0.0060074,1.1118e-08,0,0.58,0
0.00090741,-0.0002705,0.010154,0.0040716,0.0042676,-0.00086545,0,0,0.045912,-0.0015289,0,-0.013501,0,0,0,0.010274,0.0039508,0.0042676,-7.9428,0.0061643,0.0061713,1.1964e-08,0.02,0.58,0
0.0018365,-0.0005161,0.010248,0.0038334,0.0042244,-0.00083253,0,0,0.046983,-0.0030497,0,-0.012988,0,0,0,0.010354,0.0037271,0.0042244,-7.2758,0.0061019,0.006393,1.3146e-08,0.04,0.58,0
0.0027867,-0.00073942,0.010338,0.0035995,0.0041813,-0.00081071,0,0,0.048023,-0.0045379,0,-0.012647,0,0,0,0.010434,0.0035033,0.0041813,-6.7645,0.0060396,0.0066181,1.4362e-08,0.06,0.58,0
0.0037574,-0.00094239,0.010422,0.0033729,0.0041385,-0.0007976,0,0,0.049012,-0.0059718,0,-0.012443,0,0,0,0.010511,0.0032837,0.0041385,-6.3755,0.0059778,0.0068403,1.5576e-08,0.08,0.58,0
0.0047472,-0.0011264,0.010498,0.0031562,0.0040962,-0.00079124,0,0,0.049932,-0.0073321,0,-0.012343,0,0,0,0.010582,0.0030719,0.0040962,-6.082,0.0059167,0.0070541,1.6753e-08,0.1,0.58,0
0.0057547,-0.0012922,0.010563,0.0029518,0.0040545,-0.00078995,0,0,0.050769,-0.0086012,0,-0.012323,0,0,0,0.010644,0.0028707,0.0040545,-5.8631,0.0058566,0.0072546,1.7862e-08,0.12,0.58,0
0.006778,-0.0014402,0.010617,0.0027617,0.0040135,-0.00079225,0,0,0.051505,-0.009764,0,-0.012359,0,0,0,0.010696,0.0026826,0.0040135,-5.7024,0.0057973,0.0074376,1.887e-08,0.14,0.58,0
0.0078149,-0.0015704,0.010656,0.0025875,0.003973,-0.00079679,0,0,0.052127,-0.010807,0,-0.01243,0,0,0,0.010734,0.0025096,0.003973,-5.5862,0.0057388,0.0075991,1.9749e-08,0.16,0.58,0
0.008863,-0.0016822,0.010679,0.0024303,0.0039329,-0.00080216,0,0,0.052623,-0.011721,0,-0.012514,0,0,0,0.010757,0.002353,0.0039329,-5.5028,0.0056809,0.0077357,2.0472e-08,0.18,0.58,0
0.0099198,-0.0017748,0.010685,0.0022907,0.0038927,-0.00080684,0,0,0.05298,-0.012496,0,-0.012587,0,0,0,0.010762,0.0022138,0.0038927,-5.4407,0.0056228,0.0078446,2.1016e-08,0.2,0.58,0
0.010982,-0.0018465,0.010671,0.0021686,0.0038519,-0.00080906,0,0,0.053191,-0.01313,0,-0.012621,0,0,0,0.010748,0.0020923,0.0038519,-5.3874,0.0055639,0.0079234,2.1361e-08,0.22,0.58,0
0.012047,-0.0018957,0.010636,0.002063,0.0038098,-0.00080667,0,0,0.053247,-0.013625,0,-0.012584,0,0,0,0.010712,0.0019877,0.0038098,-5.3287,0.005503,0.0079705,2.1496e-08,0.24,0.58,0
0.013112,-0.0019196,0.010579,0.0019717,0.0037652,-0.00079713,0,0,0.053147,-0.013989,0,-0.012435,0,0,0,0.010652,0.0018985,0.0037652,-5.2468,0.0054386,0.0079856,2.1415e-08,0.26,0.58,0
0.014173,-0.0019153,0.010498,0.0018909,0.0037168,-0.00077748,0,0,0.052896,-0.014241,0,-0.012129,0,0,0,0.010568,0.0018213,0.0037168,-5.1202,0.0053686,0.0079698,2.1125e-08,0.28,0.58,0
0.015228,-0.0018791,0.010394,0.0018147,0.0036627,-0.00074464,0,0,0.052506,-0.014414,0,-0.011616,0,0,0,0.010458,0.0017506,0.0036627,-4.9238,0.0052906,0.0079267,2.0649e-08,0.3,0.58,0
0.016274,-0.0018067,0.010268,0.0017344,0.0036007,-0.00069598,0,0,0.052005,-0.014557,0,-0.010857,0,0,0,0.010324,0.001678,0.0036007,-4.6321,0.0052011,0.0078634,2.0028e-08,0.32,0.58,0
0.017308,-0.001694,0.010122,0.0016382,0.0035279,-0.00063048,0,0,0.05143,-0.014739,0,-0.0098355,0,0,0,0.010168,0.0015916,0.0035279,-4.2273,0.0050959,0.0077909,1.9323e-08,0.34,0.58,0
0.018331,-0.0015371,0.0099564,0.0015118,0.0034405,-0.00055004,0,0,0.050824,-0.015043,0,-0.0085806,0,0,0,0.009992,0.0014762,0.0034405,-3.7111,0.0049696,0.0077234,1.8602e-08,0.36,0.58,0
0.019341,-0.0013336,0.0097734,0.0013415,0.0033345,-0.0004607,0,0,0.050224,-0.015545,0,-0.0071869,0,0,0,0.0097985,0.0013164,0.0033345,-3.1181,0.0048164,0.0076747,1.7918e-08,0.38,0.58,0
0.02034,-0.0010835,0.0095684,0.0011163,0.0032054,-0.00037109,0,0,0.049631,-0.016295,0,-0.0057891,0,0,0,0.0095847,0.0011,0.0032054,-2.5092,0.00463,0.0076523,1.7276e-08,0.4,0.58,0
0.021326,-0.00078962,0.0093369,0.00083708,0.0030522,-0.00029087,0,0,0.049021,-0.017278,0,-0.0045376,0,0,0,0.0093468,0.00082714,0.0030522,-1.9577,0.0044087,0.0076537,1.6635e-08,0.42,0.58,0
0.022301,-0.00045808,0.0090647,0.00050214,0.00287,-0.00022013,0,0,0.048318,-0.01847,0,-0.003434,0,0,0,0.0090703,0.00049648,0.00287,-1.4717,0.0041456,0.0076677,1.5894e-08,0.44,0.58,0
0.023259,-9.6084e-05,0.008782,0.00013796,0.002676,-0.00016115,0,0,0.047627,-0.019797,0,-0.0025139,0,0,0,0.008785,0.00013496,0.002676,-1.0676,0.0038653,0.0077006,1.5134e-08,0.46,0.58,0
0.024206,0.00028212,0.0084712,-0.00032917,0.0024426,-0.00011006,0,0,0.047023,-0.02162,0,-0.001717,0,0,0,0.0084726,-0.00033055,0.0024426,-0.71643,0.0035282,0.0077957,1.4361e-08,0.48,0.58,0
0.02514,0.00064895,0.0081327,-0.00086968,0.0021789,-0.00013897,0,0,0.04644,-0.023779,0,-0.0021679,0,0,0,0.0081348,-0.00087183,0.0021789,-0.88419,0.0031473,0.0079341,1.346e-08,0.5,0.58,0
0.026063,0.00096244,0.0077878,-0.0012676,0.001956,-0.00021619,0,0,0.045488,-0.025145,0,-0.0033725,0,0,0,0.0077929,-0.0012728,0.001956,-1.3668,0.0028254,0.0079587,1.2271e-08,0.52,0.58,0
0.02696,0.0011924,0.007463,-0.0013987,0.0018193,-0.00027624,0,0,0.044021,-0.0251,0,-0.0043093,0,0,0,0.0074716,-0.0014073,0.0018193,-1.7837,0.0026279,0.0077844,1.0958e-08,0.54,0.58,0
0.027824,0.0013393,0.0072013,-0.0013791,0.0017467,-0.00021964,0,0,0.042546,-0.024381,0,-0.0034264,0,0,0,0.007207,-0.0013847,0.0017467,-1.4654,0.002523,0.0075312,9.852e-09,0.56,0.58,0
0.028661,0.0014172,0.0070351,-0.0013858,0.0016948,-7.6155e-05,0,0,0.041654,-0.024028,0,-0.001188,0,0,0,0.0070358,-0.0013864,0.0016948,-0.51811,0.002448,0.0073808,9.1875e-09,0.58,0.58,0
0.02949,0.0014375,0.0070304,-0.0014347,0.0016787,9.6114e-05,0,0,0.041743,-0.024285,0,0.0014994,0,0,0,0.0070315,-0.0014358,0.0016787,0.65043,0.0024248,0.0074178,9.2001e-09,0.6,0.58,0
0.030331,0.0013989,0.0071885,-0.0015272,0.0016984,0.00023257,0,0,0.042823,-0.025159,0,0.003628,0,0,0,0.0071947,-0.0015334,0.0016984,1.5274,0.0024532,0.007643,9.893e-09,0.62,0.58,0
0.031203,0.0012876,0.0074437,-0.0016486,0.0017385,0.00027239,0,0,0.0445,-0.02642,0,0.0042492,0,0,0,0.0074518,-0.0016568,0.0017385,1.7144,0.0025112,0.0079729,1.1032e-08,0.64,0.58,0
0.032111,0.001086,0.0077618,-0.001617,0.0018434,0.0001823,0,0,0.046163,-0.026992,0,0.0028439,0,0,0,0.0077654,-0.0016205,0.0018434,1.1131,0.0026628,0.0082208,1.2416e-08,0.66,0.58,0
0.03305,0.00079061,0.0080989,-0.0013021,0.002039,6.3433e-05,0,0,0.047267,-0.026061,0,0.00098956,0,0,0,0.0080994,-0.0013026,0.002039,0.38658,0.0029453,0.008255,1.3757e-08,0.68,0.58,0
0.034002,0.00042963,0.0084285,-0.00082129,0.0022822,-1.0858e-05,0,0,0.047941,-0.024207,0,-0.00016938,0,0,0,0.0084285,-0.0008213,0.0022822,-0.067257,0.0032964,0.0081537,1.4862e-08,0.7,0.58,0
0.034967,4.5492e-05,0.0087282,-0.00040312,0.0024975,-2.479e-06,0,0,0.048599,-0.022625,0,-3.8673e-05,0,0,0,0.0087282,-0.00040312,0.0024975,-0.015555,0.0036075,0.0080813,1.5806e-08,0.72,0.58,0
0.035946,-0.00033296,0.0089998,-8.6922e-05,0.0026739,1.7009e-05,0,0,0.049342,-0.021534,0,0.00026533,0,0,0,0.0089998,-8.6954e-05,0.0026739,0.10725,0.0038622,0.0080687,1.6718e-08,0.74,0.58,0
0.036941,-0.00069029,0.0092632,0.00019856,0.0028385,4.9812e-05,0,0,0.050113,-0.020592,0,0.00077707,0,0,0,0.0092635,0.00019828,0.0028385,0.31484,0.0041001,0.0080756,1.7623e-08,0.76,0.58,0
0.03795,-0.0010184,0.0094893,0.00042526,0.0029744,9.3246e-05,0,0,0.050817,-0.019883,0,0.0014546,0,0,0,0.0094903,0.0004243,0.0029744,0.58935,0.0042963,0.0080979,1.8434e-08,0.78,0.58,0
0.038974,-0.0013104,0.0096923,0.00059205,0.0030853,0.00014661,0,0,0.051534,-0.019447,0,0.0022871,0,0,0,0.0096947,0.00058969,0.0030853,0.92275,0.0044566,0.008149,1.9258e-08,0.8,0.58,0
0.040012,-0.0015627,0.0098773,0.00069618,0.0031721,0.00019954,0,0,0.052301,-0.019312,0,0.0031128,0,0,0,0.0098817,0.00069184,0.0031721,1.2444,0.0045819,0.0082348,2.0153e-08,0.82,0.58,0
0.041066,-0.0017748,0.010049,0.00074688,0.0032387,0.00024233,0,0,0.053119,-0.019436,0,0.0037804,0,0,0,0.010055,0.00074057,0.0032387,1.4913,0.0046782,0.0083507,2.1131e-08,0.84,0.58,0
0.042136,-0.0019488,0.010206,0.00075711,0.0032891,0.0002679,0,0,0.053955,-0.019749,0,0.0041793,0,0,0,0.010214,0.00074952,0.0032891,1.6227,0.0047509,0.0084847,2.2156e-08,0.86,0.58,0
0.043224,-0.0020884,0.010348,0.00074102,0.0033266,0.00027344,0,0,0.054764,-0.020168,0,0.0042656,0,0,0,0.010355,0.00073325,0.0033266,1.6291,0.0048051,0.0086231,2.3168e-08,0.88,0.58,0
0.044327,-0.0021977,0.01047,0.00071069,0.0033542,0.00025937,0,0,0.055503,-0.020619,0,0.0040462,0,0,0,0.010477,0.0007038,0.0033542,1.5213,0.0048449,0.0087541,2.4107e-08,0.9,0.58,0
0.045444,-0.002281,0.010571,0.00067547,0.0033741,0.00022814,0,0,0.056139,-0.021049,0,0.0035589,0,0,0,0.010577,0.00067021,0.0033741,1.3199,0.0048736,0.0088692,2.4925e-08,0.92,0.58,0
0.046573,-0.0023418,0.010651,0.00064215,0.0033879,0.00018305,0,0,0.056651,-0.021417,0,0.0028555,0,0,0,0.010654,0.0006388,0.0033879,1.0474,0.0048936,0.0089628,2.5589e-08,0.94,0.58,0
0.04771,-0.0023831,0.010708,0.0006154,0.0033969,0.00012766,0,0,0.057023,-0.021696,0,0.0019915,0,0,0,0.010709,0.00061378,0.0033969,0.72459,0.0049066,0.0090314,2.6075e-08,0.96,0.58,0
0.048854,-0.002407,0.010742,0.00059823,0.003402,6.5501e-05,0,0,0.05725,-0.021869,0,0.0010218,0,0,0,0.010742,0.0005978,0.003402,0.36997,0.004914,0.0090732,2.6371e-08,0.98,0.58,0
0.05,-0.0024149,0.010753,0.00059232,0.0034036,-2.5124e-05,0,0,0.057325,-0.021928,0,-0.00039194,0,0,0,0.010753,0.00059226,0.0034036,-0.14167,0.0049163,0.0090874,2.6471e-08,1,0.58,0
0,0,0.010047,0.0043057,0.0043057,-0.00096179,0,0,0.044779,-3.7947e-19,0,-0.015004,0,0,0,0.010203,0.0041488,0.0043057,-9.2621,0.0062193,0.0059777,1.0945e-08,0,0.6,0
0.00089558,-0.00030008,0.010023,0.0040321,0.0042165,-0.00095909,0,0,0.04529,-0.001438,0,-0.014962,0,0,0,0.010173,0.0038823,0.0042165,-8.8773,0.0060905,0.0061301,1.1712e-08,0.02,0.6,0
0.0018116,-0.00057528,0.010111,0.003805,0.0041748,-0.00092339,0,0,0.046304,-0.0028852,0,-0.014405,0,0,0,0.010244,0.0036725,0.0041748,-8.1613,0.0060303,0.0063349,1.278e-08,0.04,0.6,0
0.0027477,-0.00082769,0.010196,0.0035796,0.0041326,-0.00089641,0,0,0.047293,-0.0043136,0,-0.013984,0,0,0,0.010315,0.0034603,0.0041326,-7.5808,0.0059693,0.0065446,1.3886e-08,0.06,0.6,0
0.0037033,-0.0010588,0.010274,0.0033594,0.0040901,-0.00087596,0,0,0.048236,-0.0056989,0,-0.013665,0,0,0,0.010383,0.0032502,0.0040901,-7.1087,0.0059079,0.0067525,1.4992e-08,0.08,0.6,0
0.0046771,-0.0012695,0.010344,0.0031475,0.0040475,-0.00086018,0,0,0.049113,-0.0070194,0,-0.013419,0,0,0,0.010445,0.0030462,0.0040475,-6.7223,0.0058463,0.0069529,1.6063e-08,0.1,0.6,0
0.0056678,-0.0014603,0.010403,0.0029465,0.0040049,-0.00084749,0,0,0.049907,-0.0082561,0,-0.013221,0,0,0,0.010498,0.0028513,0.0040049,-6.403,0.0057849,0.0071405,1.7065e-08,0.12,0.6,0
0.0066734,-0.0016313,0.01045,0.0027583,0.0039625,-0.00083648,0,0,0.050603,-0.0093926,0,-0.013049,0,0,0,0.01054,0.0026684,0.0039625,-6.1355,0.0057236,0.0073109,1.7968e-08,0.14,0.6,0
0.0076919,-0.001782,0.010482,0.0025848,0.0039201,-0.00082588,0,0,0.051185,-0.010416,0,-0.012884,0,0,0,0.010568,0.0024994,0.0039201,-5.9065,0.0056624,0.0074602,1.8744e-08,0.16,0.6,0
0.0087208,-0.0019119,0.010498,0.002427,0.0038776,-0.00081435,0,0,0.051643,-0.011315,0,-0.012704,0,0,0,0.01058,0.0023456,0.0038776,-5.7041,0.005601,0.0075851,1.9367e-08,0.18,0.6,0
0.0097576,-0.0020198,0.010497,0.0022852,0.0038346,-0.00080049,0,0,0.051966,-0.012085,0,-0.012488,0,0,0,0.010574,0.0022079,0.0038346,-5.5161,0.0055389,0.0076832,1.982e-08,0.2,0.6,0
0.0108,-0.0021042,0.010476,0.0021592,0.0037906,-0.00078267,0,0,0.052148,-0.012725,0,-0.01221,0,0,0,0.010549,0.0020862,0.0037906,-5.3294,0.0054754,0.0077527,2.0087e-08,0.22,0.6,0
0.011843,-0.0021633,0.010436,0.0020476,0.0037449,-0.00075898,0,0,0.052186,-0.013239,0,-0.01184,0,0,0,0.010504,0.0019794,0.0037449,-5.1289,0.0054093,0.0077929,2.0164e-08,0.24,0.6,0
0.012887,-0.0021949,0.010376,0.0019413,0.0036953,-0.00075917,0,0,0.052112,-0.013681,0,-0.011843,0,0,0,0.010444,0.0018736,0.0036953,-5.1021,0.0053377,0.0078205,2.0144e-08,0.26,0.6,0
0.013927,-0.0021961,0.010278,0.0018442,0.0036365,-0.0006859,0,0,0.0518,-0.01398,0,-0.0107,0,0,0,0.010333,0.0017887,0.0036365,-4.6195,0.0052527,0.0077865,1.9721e-08,0.28,0.6,0
0.014961,-0.0021641,0.010189,0.0017655,0.0035864,-0.00063071,0,0,0.051501,-0.014203,0,-0.0098391,0,0,0,0.010236,0.0017185,0.0035864,-4.2584,0.0051803,0.0077542,1.9343e-08,0.3,0.6,0
0.015987,-0.0020956,0.010068,0.0016693,0.0035212,-0.0005621,0,0,0.051065,-0.014445,0,-0.0087687,0,0,0,0.010105,0.0016319,0.0035212,-3.812,0.0050862,0.0077046,1.8813e-08,0.32,0.6,0
0.017004,-0.0019876,0.0099304,0.0015574,0.0034463,-0.00047924,0,0,0.050576,-0.014734,0,-0.0074762,0,0,0,0.0099577,0.00153,0.0034463,-3.2652,0.004978,0.0076517,1.8235e-08,0.34,0.6,0
0.01801,-0.0018377,0.0097784,0.0014188,0.0033592,-0.00038405,0,0,0.05007,-0.015135,0,-0.0059911,0,0,0,0.009796,0.0014012,0.0033592,-2.6248,0.0048521,0.0076072,1.7661e-08,0.36,0.6,0
0.019006,-0.0016449,0.0096134,0.0012434,0.0032571,-0.00028062,0,0,0.049579,-0.015706,0,-0.0043777,0,0,0,0.0096228,0.001234,0.0032571,-1.9181,0.0047046,0.0075824,1.7132e-08,0.38,0.6,0
0.019993,-0.0014098,0.0094361,0.0010242,0.0031381,-0.00017479,0,0,0.049124,-0.016488,0,-0.0027267,0,0,0,0.0094397,0.0010206,0.0031381,-1.1899,0.0045328,0.0075854,1.6666e-08,0.4,0.6,0
0.020971,-0.0011356,0.009246,0.00075677,0.0030008,-7.1722e-05,0,0,0.048712,-0.017504,0,-0.0011189,0,0,0,0.0092466,0.00075617,0.0030008,-0.48402,0.0043345,0.0076202,1.6254e-08,0.42,0.6,0
0.021942,-0.000828,0.0090501,0.00044311,0.002848,2.3208e-05,0,0,0.048376,-0.018758,0,0.00036204,0,0,0,0.0090501,0.00044305,0.002848,0.15449,0.0041137,0.007692,1.5902e-08,0.44,0.6,0
0.022906,-0.00049641,0.0088513,7.2119e-05,0.002677,0.00010403,0,0,0.048159,-0.020318,0,0.0016229,0,0,0,0.0088525,7.0887e-05,0.002677,0.67881,0.0038668,0.0078117,1.5613e-08,0.46,0.6,0
0.023868,-0.000156,0.0086538,-0.00035506,0.0024896,0.00014788,0,0,0.048081,-0.022189,0,0.002307,0,0,0,0.0086563,-0.00035749,0.0024896,0.9402,0.0035961,0.0079806,1.5349e-08,0.48,0.6,0
0.02483,0.00016989,0.0084505,-0.0008007,0.002295,0.00013749,0,0,0.048014,-0.024146,0,0.0021448,0,0,0,0.0084526,-0.00080274,0.002295,0.85125,0.0033149,0.00816,1.4961e-08,0.5,0.6,0
0.025788,0.00045373,0.0082464,-0.0011627,0.0021251,7.3721e-05,0,0,0.047746,-0.025645,0,0.00115,0,0,0,0.0082469,-0.0011632,0.0021251,0.44889,0.0030696,0.0082717,1.4351e-08,0.52,0.6,0
0.026739,0.00067433,0.0080565,-0.0013723,0.0020053,7.3541e-06,0,0,0.047199,-0.026345,0,0.00011472,0,0,0,0.0080565,-0.0013723,0.0020053,0.044689,0.0028965,0.0082743,1.3611e-08,0.54,0.6,0
0.027676,0.00082391,0.0078981,-0.0014679,0.0019291,-2.1112e-05,0,0,0.046559,-0.026496,0,-0.00032934,0,0,0,0.0078981,-0.001468,0.0019291,-0.12915,0.0027864,0.0082126,1.2928e-08,0.56,0.6,0
0.028602,0.00090468,0.0078055,-0.0015156,0.001887,-2.6422e-06,0,0,0.046164,-0.02654,0,-4.1218e-05,0,0,0,0.0078055,-0.0015156,0.001887,-0.016241,0.0027257,0.0081697,1.2528e-08,0.58,0.6,0
0.029523,0.0009199,0.007802,-0.0015612,0.0018722,3.1972e-05,0,0,0.046252,-0.026781,0,0.00049877,0,0,0,0.0078021,-0.0015614,0.0018722,0.19564,0.0027043,0.0082045,1.2546e-08,0.6,0.6,0
0.030452,0.00086832,0.0078877,-0.0016052,0.0018848,4.1529e-05,0,0,0.046823,-0.027221,0,0.00064785,0,0,0,0.0078879,-0.0016053,0.0018848,0.25065,0.0027225,0.0083169,1.2984e-08,0.62,0.6,0
0.031396,0.00074411,0.0080392,-0.0016,0.0019318,-5.8092e-06,0,0,0.047638,-0.027547,0,-9.0623e-05,0,0,0,0.0080392,-0.0016,0.0019318,-0.03453,0.0027903,0.0084465,1.3718e-08,0.64,0.6,0
0.032357,0.00054235,0.008221,-0.0014757,0.0020236,-0.0001015,0,0,0.04834,-0.027294,0,-0.0015834,0,0,0,0.0082221,-0.0014767,0.0020236,-0.59964,0.002923,0.0085071,1.4539e-08,0.66,0.6,0
0.03333,0.00026849,0.0084153,-0.001188,0.0021682,-0.00020312,0,0,0.048727,-0.026178,0,-0.0031687,0,0,0,0.0084196,-0.0011923,0.0021682,-1.2111,0.0031318,0.0084487,1.5277e-08,0.68,0.6,0
0.034306,-5.775e-05,0.0086066,-0.00080332,0.002341,-0.00025556,0,0,0.048872,-0.024526,0,-0.0039868,0,0,0,0.0086135,-0.00081025,0.002341,-1.5546,0.0033814,0.0083091,1.5821e-08,0.7,0.6,0
0.035285,-0.00040913,0.0087903,-0.00042849,0.0025086,-0.00025405,0,0,0.048998,-0.022909,0,-0.0039631,0,0,0,0.0087973,-0.00043548,0.0025086,-1.5773,0.0036235,0.0081689,1.6234e-08,0.72,0.6,0
0.036266,-0.00076189,0.008975,-0.00010685,0.0026604,-0.00021443,0,0,0.049253,-0.021585,0,-0.0033451,0,0,0,0.00898,-0.00011191,0.0026604,-1.3518,0.0038428,0.0080711,1.6656e-08,0.74,0.6,0
0.037255,-0.0011002,0.009158,0.00015672,0.0027944,-0.00015968,0,0,0.049636,-0.020574,0,-0.002491,0,0,0,0.0091608,0.00015388,0.0027944,-1.016,0.0040364,0.0080196,1.7133e-08,0.76,0.6,0
0.038252,-0.001414,0.0093375,0.0003709,0.0029125,-9.6348e-05,0,0,0.050115,-0.019825,0,-0.001503,0,0,0,0.0093386,0.00036986,0.0029125,-0.61556,0.004207,0.0080062,1.7673e-08,0.78,0.6,0
0.039259,-0.0016972,0.0095073,0.00053174,0.0030117,-3.0315e-05,0,0,0.050666,-0.019344,0,-0.00047292,0,0,0,0.0095074,0.00053164,0.0030117,-0.19351,0.0043503,0.0080284,1.8277e-08,0.8,0.6,0
0.040278,-0.001946,0.0096682,0.00064167,0.003093,3.2602e-05,0,0,0.051287,-0.01912,0,0.00050859,0,0,0,0.0096683,0.00064156,0.003093,0.20694,0.0044676,0.0080848,1.8966e-08,0.82,0.6,0
0.041311,-0.0021594,0.0098197,0.00070631,0.0031578,8.5875e-05,0,0,0.051963,-0.019122,0,0.0013396,0,0,0,0.0098205,0.00070551,0.0031578,0.53983,0.0045613,0.0081697,1.9733e-08,0.84,0.6,0
0.042357,-0.0023382,0.0099606,0.00073503,0.0032087,0.00012468,0,0,0.052665,-0.019294,0,0.001945,0,0,0,0.0099622,0.00073334,0.0032087,0.77413,0.0046347,0.0082738,2.0552e-08,0.86,0.6,0
0.043417,-0.0024847,0.010088,0.00073816,0.0032479,0.00014654,0,0,0.053355,-0.019576,0,0.002286,0,0,0,0.010091,0.00073586,0.0032479,0.89767,0.0046915,0.0083858,2.1376e-08,0.88,0.6,0
0.044491,-0.0026019,0.0102,0.00072546,0.0032777,0.00015133,0,0,0.053996,-0.019908,0,0.0023608,0,0,0,0.010203,0.00072304,0.0032777,0.91482,0.0047345,0.0084955,2.2156e-08,0.9,0.6,0
0.045577,-0.0026928,0.010294,0.00070509,0.0032998,0.00014062,0,0,0.054557,-0.020239,0,0.0021937,0,0,0,0.010296,0.00070302,0.0032998,0.83997,0.0047664,0.0085944,2.285e-08,0.92,0.6,0
0.046673,-0.0027602,0.010369,0.00068334,0.0033156,0.00011698,0,0,0.055015,-0.020532,0,0.0018249,0,0,0,0.01037,0.00068192,0.0033156,0.6919,0.0047893,0.0086766,2.3421e-08,0.94,0.6,0
0.047778,-0.0028066,0.010422,0.00066479,0.0033262,8.3488e-05,0,0,0.055351,-0.020759,0,0.0013024,0,0,0,0.010423,0.00066407,0.0033262,0.49018,0.0048045,0.0087378,2.3846e-08,0.96,0.6,0
0.048888,-0.0028337,0.010455,0.0006525,0.0033322,4.3394e-05,0,0,0.055557,-0.020902,0,0.00067694,0,0,0,0.010455,0.00065231,0.0033322,0.25363,0.0048132,0.0087754,2.4106e-08,0.98,0.6,0
0.05,-0.0028427,0.010466,0.00064821,0.0033342,-2.8592e-05,0,0,0.055627,-0.020951,0,-0.00044603,0,0,0,0.010466,0.00064813,0.0033342,-0.16686,0.0048161,0.0087882,2.4195e-08,1,0.6,0
0,0,0.0099191,0.004251,0.004251,-0.0010513,0,0,0.044211,-2.1684e-19,0,-0.016401,0,0,0,0.010108,0.0040623,0.004251,-10.177,0.0061404,0.0059534,1.08e-08,0,0.62,0
0.00088422,-0.00032802,0.0098969,0.0039913,0.0041665,-0.0010475,0,0,0.044697,-0.0013659,0,-0.016341,0,0,0,0.010077,0.003811,0.0041665,-9.7659,0.0060182,0.0060962,1.1502e-08,0.02,0.62,0
0.0017879,-0.00063151,0.0099807,0.0037726,0.004126,-0.0010093,0,0,0.045667,-0.0027564,0,-0.015746,0,0,0,0.010141,0.0036126,0.004126,-9.0064,0.0059598,0.0062871,1.2477e-08,0.04,0.62,0
0.0027109,-0.00091196,0.010061,0.0035534,0.0040843,-0.00097731,0,0,0.046618,-0.004141,0,-0.015246,0,0,0,0.010205,0.0034098,0.0040843,-8.3591,0.0058996,0.0064839,1.349e-08,0.06,0.62,0
0.0036526,-0.0011703,0.010135,0.0033376,0.0040418,-0.00094942,0,0,0.047528,-0.0054931,0,-0.014811,0,0,0,0.010265,0.0032075,0.0040418,-7.8036,0.0058382,0.0066798,1.4506e-08,0.08,0.62,0
0.004612,-0.0014072,0.010201,0.0031284,0.0039987,-0.00092398,0,0,0.048376,-0.0067889,0,-0.014414,0,0,0,0.01032,0.0030096,0.0039987,-7.3217,0.005776,0.0068689,1.5488e-08,0.1,0.62,0
0.0055876,-0.0016225,0.010256,0.0029286,0.0039553,-0.00089956,0,0,0.049143,-0.008008,0,-0.014033,0,0,0,0.010365,0.0028198,0.0039553,-6.8979,0.0057132,0.0070459,1.6403e-08,0.12,0.62,0
0.0065777,-0.0018159,0.010298,0.0027406,0.0039115,-0.00087493,0,0,0.049813,-0.0091331,0,-0.013649,0,0,0,0.010398,0.0026407,0.0039115,-6.5185,0.00565,0.0072062,1.7222e-08,0.14,0.62,0
0.0075802,-0.0019871,0.010325,0.0025661,0.0038675,-0.00084897,0,0,0.050373,-0.010151,0,-0.013244,0,0,0,0.010417,0.0024743,0.0038675,-6.1715,0.0055864,0.0073462,1.7918e-08,0.16,0.62,0
0.0085926,-0.0021349,0.010337,0.0024061,0.003823,-0.00082055,0,0,0.050811,-0.011052,0,-0.0128,0,0,0,0.010421,0.0023221,0.003823,-5.8453,0.0055221,0.0074627,1.8469e-08,0.18,0.62,0
0.0096126,-0.0022582,0.010332,0.0022608,0.0037777,-0.00078848,0,0,0.05112,-0.011832,0,-0.0123,0,0,0,0.010408,0.0021845,0.0037777,-5.5279,0.0054567,0.0075539,1.8861e-08,0.2,0.62,0
0.010637,-0.0023555,0.010308,0.0021298,0.0037313,-0.00075143,0,0,0.051297,-0.012492,0,-0.011722,0,0,0,0.010376,0.0020613,0.0037313,-5.2065,0.0053896,0.0076185,1.9084e-08,0.22,0.62,0
0.011664,-0.0024252,0.010265,0.0020113,0.003683,-0.00070789,0,0,0.051342,-0.013039,0,-0.011043,0,0,0,0.010326,0.001951,0.003683,-4.8665,0.0053199,0.0076569,1.9139e-08,0.24,0.62,0
0.012691,-0.0024652,0.01021,0.001907,0.0036352,-0.00065708,0,0,0.051285,-0.01348,0,-0.01025,0,0,0,0.010262,0.0018554,0.0036352,-4.4968,0.0052508,0.007673,1.906e-08,0.26,0.62,0
0.013715,-0.0024733,0.010115,0.0017954,0.0035732,-0.00055787,0,0,0.051028,-0.013867,0,-0.0087027,0,0,0,0.010153,0.0017581,0.0035732,-3.819,0.0051613,0.0076501,1.8704e-08,0.28,0.62,0
0.014734,-0.0024472,0.010028,0.001697,0.0035176,-0.00052205,0,0,0.050784,-0.014201,0,-0.008144,0,0,0,0.010061,0.0016644,0.0035176,-3.5716,0.005081,0.0076405,1.8444e-08,0.3,0.62,0
0.015746,-0.0023845,0.0099173,0.0015874,0.0034514,-0.00043748,0,0,0.050434,-0.014539,0,-0.0068247,0,0,0,0.0099402,0.0015645,0.0034514,-2.9981,0.0049854,0.0076098,1.8028e-08,0.32,0.62,0
0.016751,-0.0022834,0.0097938,0.0014629,0.003377,-0.00034139,0,0,0.050051,-0.01493,0,-0.0053256,0,0,0,0.0098078,0.0014489,0.003377,-2.3427,0.0048779,0.007581,1.7592e-08,0.34,0.62,0
0.017748,-0.0021425,0.0096606,0.0013149,0.0032926,-0.00023563,0,0,0.04967,-0.015427,0,-0.0036759,0,0,0,0.0096672,0.0013082,0.0032926,-1.616,0.004756,0.0075646,1.7181e-08,0.36,0.62,0
0.018738,-0.0019619,0.0095204,0.0011353,0.0031967,-0.00012367,0,0,0.049325,-0.016079,0,-0.0019293,0,0,0,0.0095222,0.0011335,0.0031967,-0.84481,0.0046175,0.007571,1.6833e-08,0.38,0.62,0
0.019721,-0.001743,0.0093761,0.00091805,0.0030882,-1.0163e-05,0,0,0.049045,-0.016927,0,-0.00015855,0,0,0,0.0093761,0.00091803,0.0030882,-0.068847,0.0044608,0.0076087,1.6572e-08,0.4,0.62,0
0.0207,-0.0014898,0.0092315,0.00065927,0.0029672,9.9093e-05,0,0,0.048862,-0.018002,0,0.0015458,0,0,0,0.0092327,0.00065812,0.0029672,0.6622,0.004286,0.0076848,1.641e-08,0.42,0.62,0
0.021676,-0.0012084,0.0090909,0.00035559,0.002834,0.00019691,0,0,0.048804,-0.019331,0,0.0030718,0,0,0,0.0090954,0.00035116,0.002834,1.2907,0.0040935,0.0078048,1.6347e-08,0.44,0.62,0
0.022652,-0.00090881,0.0089582,7.601e-06,0.0026897,0.00027154,0,0,0.048894,-0.020921,0,0.004236,0,0,0,0.0089665,-6.2927e-07,0.0026897,1.7361,0.0038852,0.0079701,1.6366e-08,0.46,0.62,0
0.023632,-0.00060542,0.0088326,-0.00037419,0.0025375,0.0003088,0,0,0.049102,-0.022711,0,0.0048173,0,0,0,0.008843,-0.00038453,0.0025375,1.9188,0.0036653,0.0081684,1.6397e-08,0.48,0.62,0
0.024616,-0.00031689,0.0087115,-0.00075385,0.0023873,0.00029692,0,0,0.049329,-0.024501,0,0.004632,0,0,0,0.0087208,-0.00076316,0.0023873,1.795,0.0034483,0.0083661,1.6336e-08,0.5,0.62,0
0.025605,-6.3348e-05,0.0085942,-0.0010776,0.002255,0.00024245,0,0,0.049446,-0.025994,0,0.0037822,0,0,0,0.0086003,-0.0010837,0.002255,1.435,0.0032572,0.0085203,1.6117e-08,0.52,0.62,0
0.026594,0.00013863,0.0084857,-0.0013086,0.0021531,0.00016773,0,0,0.049394,-0.027002,0,0.0026166,0,0,0,0.0084886,-0.0013115,0.0021531,0.98082,0.0031101,0.0086076,1.5779e-08,0.54,0.62,0
0.027581,0.00027946,0.0083979,-0.0014498,0.0020844,9.8677e-05,0,0,0.049245,-0.027567,0,0.0015394,0,0,0,0.0083989,-0.0014508,0.0020844,0.57405,0.0030109,0.0086425,1.5442e-08,0.56,0.62,0
0.028564,0.00035564,0.0083461,-0.0015301,0.0020448,4.3713e-05,0,0,0.04915,-0.027884,0,0.00068192,0,0,0,0.0083463,-0.0015302,0.0020448,0.25359,0.0029536,0.0086613,1.5236e-08,0.58,0.62,0
0.029546,0.00036624,0.0083424,-0.0015716,0.0020312,-6.7365e-06,0,0,0.049227,-0.028102,0,-0.00010509,0,0,0,0.0083424,-0.0015716,0.0020312,-0.038932,0.002934,0.0086919,1.5253e-08,0.6,0.62,0
0.030533,0.00031006,0.0083866,-0.0015738,0.0020438,-7.1015e-05,0,0,0.049474,-0.028218,0,-0.0011078,0,0,0,0.0083871,-0.0015743,0.0020438,-0.40848,0.0029522,0.0087338,1.5495e-08,0.62,0.62,0
0.031525,0.00018566,0.008466,-0.0015128,0.002086,-0.00015878,0,0,0.049765,-0.028071,0,-0.0024769,0,0,0,0.0084686,-0.0015154,0.002086,-0.91134,0.0030131,0.0087574,1.588e-08,0.64,0.62,0
0.032523,-5.7534e-06,0.0085646,-0.0013571,0.0021623,-0.00026111,0,0,0.049938,-0.027451,0,-0.0040733,0,0,0,0.0085715,-0.001364,0.0021623,-1.5065,0.0031233,0.0087243,1.629e-08,0.66,0.62,0
0.033523,-0.00025652,0.0086699,-0.0011009,0.0022707,-0.00035039,0,0,0.049914,-0.026298,0,-0.0054661,0,0,0,0.0086824,-0.0011134,0.0022707,-2.0512,0.0032799,0.0086175,1.6608e-08,0.68,0.62,0
0.03452,-0.00055139,0.0087769,-0.00078038,0.0023989,-0.00040155,0,0,0.049748,-0.024799,0,-0.0062642,0,0,0,0.0087937,-0.00079723,0.0023989,-2.4017,0.0034651,0.0084586,1.679e-08,0.7,0.62,0
0.035513,-0.00087086,0.0088866,-0.00045149,0.0025305,-0.00040553,0,0,0.049577,-0.02326,0,-0.0063263,0,0,0,0.0089042,-0.00046907,0.0025305,-2.482,0.0036552,0.0082909,1.6882e-08,0.72,0.62,0
0.036503,-0.0011964,0.0090027,-0.00015356,0.0026547,-0.00037263,0,0,0.049514,-0.021905,0,-0.0058131,0,0,0,0.0090179,-0.0001687,0.0026547,-2.3266,0.0038346,0.0081503,1.6976e-08,0.74,0.62,0
0.037493,-0.0015133,0.0091273,9.976e-05,0.0027681,-0.00031665,0,0,0.049601,-0.020813,0,-0.0049397,0,0,0,0.0091384,8.8667e-05,0.0027681,-2.0064,0.0039984,0.0080516,1.7142e-08,0.76,0.62,0
0.038487,-0.0018114,0.0092572,0.00030545,0.0028688,-0.00024948,0,0,0.04983,-0.019994,0,-0.0038919,0,0,0,0.0092642,0.0002985,0.0028688,-1.5951,0.0041438,0.0079966,1.7407e-08,0.78,0.62,0
0.039487,-0.0020841,0.0093893,0.00046491,0.0029563,-0.00017871,0,0,0.050178,-0.019432,0,-0.0027878,0,0,0,0.0093929,0.00046134,0.0029563,-1.1467,0.0042702,0.0079821,1.7775e-08,0.8,0.62,0
0.040494,-0.0023275,0.0095199,0.00058016,0.00303,-0.00011059,0,0,0.050621,-0.019109,0,-0.0017252,0,0,0,0.0095213,0.00057879,0.00303,-0.70862,0.0043767,0.0080035,1.8244e-08,0.82,0.62,0
0.041511,-0.0025397,0.0096465,0.00065618,0.0030908,-5.0283e-05,0,0,0.051135,-0.01899,0,-0.00078442,0,0,0,0.0096468,0.0006559,0.0030908,-0.32044,0.0044645,0.0080544,1.8799e-08,0.84,0.62,0
0.04254,-0.0027206,0.0097666,0.00069986,0.0031399,-1.6951e-06,0,0,0.051688,-0.019033,0,-2.6444e-05,0,0,0,0.0097666,0.00069986,0.0031399,-0.010712,0.0045355,0.0081262,1.9415e-08,0.86,0.62,0
0.043579,-0.0028714,0.0098772,0.00071917,0.0031789,3.3004e-05,0,0,0.052247,-0.019186,0,0.00051486,0,0,0,0.0098773,0.00071905,0.0031789,0.20648,0.0045918,0.0082095,2.0052e-08,0.88,0.62,0
0.04463,-0.002994,0.0099755,0.00072191,0.0032092,5.3347e-05,0,0,0.052777,-0.019401,0,0.00083222,0,0,0,0.0099758,0.0007216,0.0032092,0.3303,0.0046355,0.008295,2.067e-08,0.9,0.62,0
0.04569,-0.0030905,0.010059,0.00071498,0.0032322,6.0279e-05,0,0,0.053249,-0.019634,0,0.00094036,0,0,0,0.010059,0.00071459,0.0032322,0.3696,0.0046687,0.0083748,2.1231e-08,0.92,0.62,0
0.046759,-0.0031631,0.010126,0.00070401,0.0032489,5.573e-05,0,0,0.053639,-0.019851,0,0.0008694,0,0,0,0.010126,0.00070368,0.0032489,0.33889,0.0046929,0.0084426,2.17e-08,0.94,0.62,0
0.047836,-0.0032135,0.010174,0.00069326,0.0032603,4.2235e-05,0,0,0.05393,-0.020023,0,0.00065887,0,0,0,0.010175,0.00069307,0.0032603,0.25523,0.0047093,0.008494,2.2053e-08,0.96,0.62,0
0.048917,-0.0032431,0.010204,0.00068567,0.0032669,2.2654e-05,0,0,0.054109,-0.020133,0,0.0003534,0,0,0,0.010204,0.00068561,0.0032669,0.13636,0.0047188,0.008526,2.2271e-08,0.98,0.62,0
0.05,-0.0032529,0.010214,0.00068295,0.003269,-3.1377e-05,0,0,0.054169,-0.020171,0,-0.00048949,0,0,0,0.010214,0.00068285,0.003269,-0.18863,0.0047219,0.008537,2.2346e-08,1,0.62,0
0,0,0.0097985,0.0041994,0.0041994,-0.0011369,0,0,0.043673,5.421e-20,0,-0.017736,0,0,0,0.01002,0.0039773,0.0041994,-11.051,0.0060657,0.0059353,1.0688e-08,0,0.64,0
0.00087347,-0.00035472,0.0097774,0.0039497,0.0041181,-0.0011319,0,0,0.044143,-0.001314,0,-0.017657,0,0,0,0.0099895,0.0037376,0.0041181,-10.614,0.0059484,0.0060707,1.1338e-08,0.02,0.64,0
0.0017657,-0.00068553,0.0098581,0.0037366,0.0040784,-0.0010917,0,0,0.045081,-0.0026661,0,-0.01703,0,0,0,0.010047,0.0035477,0.0040784,-9.8148,0.005891,0.0062508,1.2239e-08,0.04,0.64,0
0.0026767,-0.00099333,0.0099355,0.003521,0.004037,-0.0010548,0,0,0.046009,-0.0040242,0,-0.016455,0,0,0,0.010105,0.0033521,0.004037,-9.1024,0.0058312,0.0064374,1.3179e-08,0.06,0.64,0
0.003606,-0.0012785,0.010007,0.0033071,0.0039942,-0.0010195,0,0,0.046899,-0.0053593,0,-0.015904,0,0,0,0.010159,0.0031554,0.0039942,-8.4633,0.0057694,0.0066238,1.4122e-08,0.08,0.64,0
0.0045527,-0.001541,0.01007,0.0030984,0.0039505,-0.00098429,0,0,0.047731,-0.0066461,0,-0.015355,0,0,0,0.010206,0.0029621,0.0039505,-7.8842,0.0057063,0.0068039,1.5033e-08,0.1,0.64,0
0.0055153,-0.0017806,0.010122,0.002898,0.003906,-0.00094801,0,0,0.048485,-0.0078623,0,-0.014789,0,0,0,0.010244,0.0027757,0.003906,-7.3531,0.005642,0.0069726,1.5879e-08,0.12,0.64,0
0.0064921,-0.0019966,0.010162,0.0027084,0.003861,-0.00090968,0,0,0.049144,-0.00899,0,-0.014191,0,0,0,0.010271,0.002599,0.003861,-6.859,0.005577,0.0071253,1.6632e-08,0.14,0.64,0
0.0074811,-0.0021881,0.010187,0.0025314,0.0038154,-0.00086842,0,0,0.049696,-0.010016,0,-0.013547,0,0,0,0.010284,0.0024341,0.0038154,-6.3914,0.0055112,0.0072585,1.7268e-08,0.16,0.64,0
0.0084799,-0.002354,0.010181,0.00236,0.0037624,-0.0008466,0,0,0.050068,-0.010939,0,-0.013207,0,0,0,0.010272,0.0022694,0.0037624,-6.1075,0.0054346,0.0073704,1.7752e-08,0.18,0.64,0
0.0094863,-0.0024931,0.010188,0.0022153,0.003721,-0.00080533,0,0,0.050442,-0.011744,0,-0.012563,0,0,0,0.010268,0.0021348,0.003721,-5.7107,0.0053748,0.007468,1.8181e-08,0.2,0.64,0
0.010498,-0.0026039,0.010165,0.0020824,0.0036743,-0.00075555,0,0,0.05063,-0.012417,0,-0.011787,0,0,0,0.010235,0.0020124,0.0036743,-5.2946,0.0053074,0.0075309,1.8386e-08,0.22,0.64,0
0.011511,-0.0026849,0.010125,0.0019581,0.0036249,-0.00065442,0,0,0.0507,-0.013001,0,-0.010209,0,0,0,0.010177,0.001906,0.0036249,-4.5525,0.0052359,0.0075596,1.838e-08,0.24,0.64,0
0.012526,-0.0027344,0.010066,0.0018389,0.0035714,-0.00058778,0,0,0.050656,-0.013514,0,-0.0091694,0,0,0,0.010108,0.0017971,0.0035714,-4.066,0.0051587,0.0075807,1.8309e-08,0.26,0.64,0
0.013538,-0.0027508,0.0099925,0.0017262,0.0035156,-0.00050982,0,0,0.050519,-0.013957,0,-0.0079531,0,0,0,0.010024,0.0016949,0.0035156,-3.5159,0.0050781,0.0075842,1.8127e-08,0.28,0.64,0
0.014546,-0.0027322,0.0099054,0.0016129,0.0034555,-0.00042252,0,0,0.050309,-0.014372,0,-0.0065913,0,0,0,0.0099268,0.0015914,0.0034555,-2.9093,0.0049913,0.0075774,1.7868e-08,0.3,0.64,0
0.01555,-0.0026772,0.0098069,0.0014927,0.0033899,-0.00032582,0,0,0.050053,-0.014798,0,-0.0050827,0,0,0,0.0098196,0.0014799,0.0033899,-2.2407,0.0048965,0.0075677,1.7571e-08,0.32,0.64,0
0.016549,-0.0025848,0.0097166,0.0013785,0.0033285,-0.00026503,0,0,0.049827,-0.01521,0,-0.0041344,0,0,0,0.009725,0.0013701,0.0033285,-1.8187,0.0048079,0.0075682,1.7339e-08,0.34,0.64,0
0.017541,-0.0024548,0.0096111,0.0012591,0.0032611,-0.00018771,0,0,0.04953,-0.015616,0,-0.0029282,0,0,0,0.0096153,0.0012548,0.0032611,-1.2868,0.0047104,0.0075597,1.7033e-08,0.36,0.64,0
0.01853,-0.002288,0.009476,0.0010402,0.0031549,-3.65e-06,0,0,0.049305,-0.016494,0,-5.6939e-05,0,0,0,0.009476,0.0010402,0.0031549,-0.024791,0.004557,0.0076023,1.6818e-08,0.38,0.64,0
0.019515,-0.0020869,0.0093608,0.00080782,0.0030506,0.00011943,0,0,0.04922,-0.017493,0,0.0018632,0,0,0,0.0093624,0.00080616,0.0030506,0.79987,0.0044064,0.007684,1.6774e-08,0.4,0.64,0
0.020498,-0.0018557,0.009254,0.00055779,0.0029435,0.00022506,0,0,0.049222,-0.018609,0,0.0035109,0,0,0,0.0092598,0.00055197,0.0029435,1.4815,0.0042518,0.0077923,1.6807e-08,0.42,0.64,0
0.021483,-0.0016013,0.0091563,0.00027127,0.0028283,0.00031471,0,0,0.049359,-0.019945,0,0.0049095,0,0,0,0.0091675,0.00026014,0.0028283,2.0261,0.0040853,0.0079411,1.6943e-08,0.44,0.64,0
0.022473,-0.0013332,0.0090694,-4.7557e-05,0.0027066,0.00037827,0,0,0.04963,-0.021482,0,0.0059011,0,0,0,0.0090851,-6.3225e-05,0.0027066,2.3718,0.0039095,0.0081256,1.7149e-08,0.46,0.64,0
0.023469,-0.0010645,0.0089925,-0.00038463,0.0025824,0.00040518,0,0,0.049999,-0.023142,0,0.0063208,0,0,0,0.00901,-0.00040211,0.0025824,2.4696,0.0037301,0.0083309,1.7362e-08,0.48,0.64,0
0.024473,-0.00081015,0.0089228,-0.00071374,0.0024627,0.00038975,0,0,0.050389,-0.024776,0,0.0060802,0,0,0,0.0089385,-0.00072948,0.0024627,2.3123,0.0035573,0.0085322,1.7506e-08,0.5,0.64,0
0.025484,-0.00058604,0.0088583,-0.0010023,0.0023568,0.00033549,0,0,0.050712,-0.026201,0,0.0052336,0,0,0,0.0088697,-0.0010137,0.0023568,1.9464,0.0034043,0.0087023,1.7537e-08,0.52,0.64,0
0.026501,-0.00040573,0.0088004,-0.0012261,0.0022723,0.00025545,0,0,0.050919,-0.027288,0,0.003985,0,0,0,0.0088069,-0.0012326,0.0022723,1.4585,0.0032822,0.0088255,1.7466e-08,0.54,0.64,0
0.027521,-0.00027877,0.0087539,-0.0013796,0.0022123,0.0001643,0,0,0.051025,-0.028017,0,0.002563,0,0,0,0.0087566,-0.0013823,0.0022123,0.92862,0.0031955,0.0089035,1.7355e-08,0.56,0.64,0
0.028542,-0.00021067,0.0087259,-0.0014706,0.0021766,7.07e-05,0,0,0.051084,-0.028448,0,0.0011029,0,0,0,0.0087263,-0.0014711,0.0021766,0.39725,0.0031439,0.0089497,1.728e-08,0.58,0.64,0
0.029565,-0.00020418,0.0087213,-0.0015077,0.0021641,-2.5502e-05,0,0,0.051146,-0.02864,0,-0.00039783,0,0,0,0.0087214,-0.0015078,0.0021641,-0.14284,0.0031259,0.0089754,1.7291e-08,0.6,0.64,0
0.030588,-0.00026038,0.00874,-0.0014901,0.002175,-0.00012807,0,0,0.051208,-0.028588,0,-0.0019979,0,0,0,0.0087417,-0.0014917,0.002175,-0.71713,0.0031417,0.0089802,1.7391e-08,0.62,0.64,0
0.031613,-0.00037872,0.0087762,-0.0014077,0.0022106,-0.00023691,0,0,0.051212,-0.028222,0,-0.0036957,0,0,0,0.0087817,-0.0014132,0.0022106,-1.3319,0.003193,0.0089512,1.7536e-08,0.64,0.64,0
0.032637,-0.00055569,0.0088222,-0.0012509,0.0022714,-0.00034259,0,0,0.051096,-0.027474,0,-0.0053444,0,0,0,0.0088338,-0.0012626,0.0022714,-1.9457,0.0032809,0.0088739,1.7659e-08,0.66,0.64,0
0.033657,-0.00078345,0.0088726,-0.001024,0.0023546,-0.00042906,0,0,0.050841,-0.026353,0,-0.0066933,0,0,0,0.0088912,-0.0010425,0.0023546,-2.4778,0.0034011,0.0087449,1.7702e-08,0.68,0.64,0
0.03467,-0.0010497,0.0089263,-0.00075083,0.0024526,-0.0004814,0,0,0.050495,-0.024987,0,-0.0075098,0,0,0,0.0089502,-0.00077472,0.0024526,-2.8409,0.0035427,0.0085793,1.7646e-08,0.7,0.64,0
0.035676,-0.0013395,0.0089855,-0.00046541,0.002556,-0.00049434,0,0,0.05015,-0.023567,0,-0.0077117,0,0,0,0.0090113,-0.00049119,0.002556,-2.9861,0.0036921,0.008404,1.7527e-08,0.72,0.64,0
0.036676,-0.0016381,0.0090537,-0.00019612,0.0026573,-0.00047235,0,0,0.049892,-0.022257,0,-0.0073686,0,0,0,0.0090778,-0.00022018,0.0026573,-2.9157,0.0038383,0.0082448,1.7413e-08,0.74,0.64,0
0.037672,-0.0019327,0.0091327,4.0554e-05,0.002752,-0.0004254,0,0,0.04977,-0.021149,0,-0.0066362,0,0,0,0.0091526,2.0694e-05,0.002752,-2.6729,0.0039751,0.0081184,1.7363e-08,0.76,0.64,0
0.038667,-0.0022138,0.0092216,0.00023826,0.002838,-0.00036354,0,0,0.049793,-0.020278,0,-0.0056711,0,0,0,0.0092363,0.00022357,0.002838,-2.3136,0.0040993,0.0080313,1.7412e-08,0.78,0.64,0
0.039664,-0.0024745,0.0093178,0.00039578,0.0029141,-0.00029517,0,0,0.049949,-0.019643,0,-0.0046046,0,0,0,0.0093275,0.00038603,0.0029141,-1.8928,0.0042092,0.0079836,1.7572e-08,0.8,0.64,0
0.040665,-0.0027103,0.0094178,0.00051497,0.0029798,-0.00022677,0,0,0.050216,-0.019226,0,-0.0035376,0,0,0,0.0094236,0.0005092,0.0029798,-1.4582,0.0043042,0.0079716,1.784e-08,0.82,0.64,0
0.041672,-0.002919,0.0095183,0.00059961,0.0030354,-0.00016337,0,0,0.050567,-0.018999,0,-0.0025486,0,0,0,0.0095213,0.00059662,0.0030354,-1.0491,0.0043844,0.0079895,1.82e-08,0.84,0.64,0
0.042688,-0.0030995,0.0096161,0.00065505,0.0030813,-0.00010856,0,0,0.050971,-0.018925,0,-0.0016935,0,0,0,0.0096174,0.00065374,0.0030813,-0.69397,0.0044508,0.00803,1.8628e-08,0.86,0.64,0
0.043711,-0.0032522,0.0097079,0.00068747,0.0031186,-6.4499e-05,0,0,0.051396,-0.018963,0,-0.0010062,0,0,0,0.0097084,0.00068701,0.0031186,-0.40965,0.0045047,0.0080846,1.9092e-08,0.88,0.64,0
0.044743,-0.0033779,0.0097908,0.00070314,0.0031482,-3.1952e-05,0,0,0.051812,-0.019071,0,-0.00049845,0,0,0,0.0097909,0.00070303,0.0031482,-0.20145,0.0045474,0.0081454,1.9556e-08,0.9,0.64,0
0.045784,-0.0034781,0.0098621,0.00070782,0.003171,-1.0479e-05,0,0,0.052191,-0.019213,0,-0.00016348,0,0,0,0.0098621,0.00070781,0.003171,-0.065589,0.0045803,0.0082049,1.9987e-08,0.92,0.64,0
0.046831,-0.0035542,0.0099197,0.0007064,0.0031878,1.2763e-06,0,0,0.052509,-0.019355,0,1.9911e-05,0,0,0,0.0099197,0.0007064,0.0031878,0.0079372,0.0046047,0.0082572,2.0354e-08,0.94,0.64,0
0.047884,-0.0036075,0.009962,0.00070268,0.0031994,5.3091e-06,0,0,0.052748,-0.019474,0,8.2822e-05,0,0,0,0.009962,0.00070268,0.0031994,0.032852,0.0046214,0.0082976,2.0634e-08,0.96,0.64,0
0.048941,-0.0036391,0.0099878,0.00069938,0.0032062,4.0116e-06,0,0,0.052897,-0.019553,0,6.2581e-05,0,0,0,0.0099878,0.00069938,0.0032062,0.024746,0.0046311,0.0083231,2.0809e-08,0.98,0.64,0
0.05,-0.0036495,0.0099965,0.0006981,0.0032084,-3.3462e-05,0,0,0.052947,-0.01958,0,-0.000522,0,0,0,0.0099966,0.00069798,0.0032084,-0.20619,0.0046343,0.0083321,2.0869e-08,1,0.64,0
0,0,0.0096862,0.0041512,0.0041512,-0.0012198,0,0,0.043173,6.5052e-19,0,-0.019029,0,0,0,0.0099431,0.0038943,0.0041512,-11.893,0.0059962,0.0059245,1.0613e-08,0,0.66,0
0.00086346,-0.00038058,0.009666,0.0039076,0.004072,-0.0012137,0,0,0.043632,-0.0012831,0,-0.018933,0,0,0,0.0099113,0.0036622,0.004072,-11.428,0.0058819,0.0060546,1.1223e-08,0.02,0.66,0
0.0017453,-0.00073815,0.0097448,0.0036972,0.0040326,-0.0011717,0,0,0.044555,-0.0026163,0,-0.018279,0,0,0,0.0099639,0.0034781,0.0040326,-10.591,0.0058249,0.0062271,1.2071e-08,0.04,0.66,0
0.0026457,-0.0010729,0.0098207,0.0034825,0.003991,-0.0011302,0,0,0.045472,-0.0039659,0,-0.017631,0,0,0,0.010016,0.003287,0.003991,-9.8141,0.0057647,0.0064063,1.2955e-08,0.06,0.66,0
0.0035642,-0.0013847,0.0098908,0.003268,0.0039476,-0.0010876,0,0,0.046357,-0.0053011,0,-0.016966,0,0,0,0.010065,0.003094,0.0039476,-9.0911,0.0057022,0.0065857,1.3842e-08,0.08,0.66,0
0.0044999,-0.001673,0.0099525,0.0030576,0.003903,-0.0010427,0,0,0.047186,-0.0065944,0,-0.016265,0,0,0,0.010107,0.0029034,0.003903,-8.4137,0.0056377,0.0067592,1.4697e-08,0.1,0.66,0
0.0054516,-0.0019369,0.010004,0.0028546,0.0038574,-0.0009945,0,0,0.04794,-0.0078221,0,-0.015514,0,0,0,0.010139,0.0027188,0.0038574,-7.7739,0.0055719,0.0069218,1.549e-08,0.12,0.66,0
0.0064175,-0.0021756,0.010042,0.0026617,0.0038111,-0.0009425,0,0,0.048601,-0.0089652,0,-0.014703,0,0,0,0.01016,0.0025432,0.0038111,-7.1638,0.0055049,0.007069,1.6193e-08,0.14,0.66,0
0.0073956,-0.0023877,0.010066,0.0024808,0.0037641,-0.00088617,0,0,0.049157,-0.01001,0,-0.013824,0,0,0,0.010168,0.0023787,0.0037641,-6.5756,0.0054371,0.0071977,1.6785e-08,0.16,0.66,0
0.0083838,-0.0025721,0.01006,0.0023036,0.0037089,-0.00083144,0,0,0.049535,-0.010962,0,-0.01297,0,0,0,0.010148,0.0022154,0.0037089,-6.0504,0.0053574,0.007301,1.7203e-08,0.18,0.66,0
0.0093796,-0.0027274,0.010063,0.002145,0.0036624,-0.00072666,0,0,0.049925,-0.011836,0,-0.011336,0,0,0,0.010129,0.0020789,0.0036624,-5.2004,0.0052902,0.0073869,1.7538e-08,0.2,0.66,0
0.010381,-0.0028524,0.010039,0.0019985,0.0036111,-0.00064996,0,0,0.050135,-0.012579,0,-0.010139,0,0,0,0.010091,0.0019463,0.0036111,-4.592,0.0052161,0.0074529,1.7738e-08,0.22,0.66,0
0.011385,-0.0029456,0.010006,0.001877,0.0035651,-0.00057741,0,0,0.050243,-0.013167,0,-0.0090076,0,0,0,0.010047,0.0018362,0.0035651,-4.0425,0.0051495,0.0074977,1.7828e-08,0.24,0.66,0
0.01239,-0.0030058,0.0099551,0.0017591,0.0035143,-0.00052451,0,0,0.050239,-0.01369,0,-0.0081824,0,0,0,0.0099886,0.0017257,0.0035143,-3.6469,0.0050761,0.0075296,1.7824e-08,0.26,0.66,0
0.013395,-0.0030316,0.0098894,0.0016384,0.0034583,-0.00043287,0,0,0.050162,-0.014196,0,-0.0067528,0,0,0,0.009912,0.0016157,0.0034583,-2.9949,0.0049954,0.0075457,1.7709e-08,0.28,0.66,0
0.014397,-0.0030221,0.0098127,0.0015168,0.0033989,-0.00033412,0,0,0.050028,-0.01468,0,-0.0052122,0,0,0,0.0098262,0.0015033,0.0033989,-2.3026,0.0049094,0.0075556,1.7541e-08,0.3,0.66,0
0.015396,-0.0029765,0.0097278,0.0013888,0.003335,-0.00022873,0,0,0.049864,-0.01518,0,-0.0035682,0,0,0,0.009734,0.0013825,0.003335,-1.57,0.0048172,0.0075667,1.7356e-08,0.32,0.66,0
0.016391,-0.0028946,0.0096354,0.0012324,0.0032604,-0.00011501,0,0,0.049725,-0.015818,0,-0.0017941,0,0,0,0.009637,0.0012309,0.0032604,-0.78399,0.0047094,0.0075975,1.7222e-08,0.34,0.66,0
0.017384,-0.0027769,0.0095188,0.0010283,0.0031642,6.5734e-05,0,0,0.049566,-0.016659,0,0.0010255,0,0,0,0.0095193,0.0010278,0.0031642,0.44356,0.0045704,0.0076504,1.7095e-08,0.36,0.66,0
0.018374,-0.0026253,0.0094443,0.00088635,0.0030992,0.00015005,0,0,0.049492,-0.01726,0,0.0023408,0,0,0,0.0094469,0.00088372,0.0030992,1.0042,0.0044766,0.0076984,1.7055e-08,0.38,0.66,0
0.019363,-0.0024428,0.0093696,0.00070051,0.003021,0.00021748,0,0,0.049519,-0.0181,0,0.0033927,0,0,0,0.009375,0.00069505,0.003021,1.4362,0.0043637,0.0077822,1.7116e-08,0.4,0.66,0
0.020355,-0.0022341,0.0092927,0.00046291,0.0029267,0.00031447,0,0,0.049655,-0.019217,0,0.0049058,0,0,0,0.0093039,0.00045172,0.0029267,2.0372,0.0042274,0.0079106,1.7287e-08,0.42,0.66,0
0.02135,-0.0020062,0.0092266,0.00019728,0.0028272,0.0003927,0,0,0.049916,-0.020513,0,0.0061261,0,0,0,0.0092436,0.00018023,0.0028272,2.4856,0.0040837,0.0080722,1.7548e-08,0.44,0.66,0
0.022351,-0.0017681,0.0091718,-9.0329e-05,0.0027244,0.00044388,0,0,0.05029,-0.021955,0,0.0069245,0,0,0,0.009193,-0.00011155,0.0027244,2.7375,0.0039353,0.0082602,1.7864e-08,0.46,0.66,0
0.023361,-0.0015311,0.0091272,-0.0003872,0.002622,0.00046082,0,0,0.05074,-0.023472,0,0.0071887,0,0,0,0.0091494,-0.00040947,0.002622,2.7664,0.0037873,0.0084608,1.8183e-08,0.48,0.66,0
0.024381,-0.0013079,0.00909,-0.00067399,0.0025248,0.00043997,0,0,0.051208,-0.024951,0,0.0068636,0,0,0,0.0091098,-0.00069377,0.0025248,2.5749,0.0036469,0.0086553,1.8449e-08,0.5,0.66,0
0.02541,-0.0011114,0.0090578,-0.00092889,0.0024387,0.00038377,0,0,0.051629,-0.026267,0,0.0059868,0,0,0,0.0090726,-0.00094362,0.0024387,2.1974,0.0035225,0.0088253,1.8628e-08,0.52,0.66,0
0.026446,-0.00095287,0.0090298,-0.0011345,0.0023686,0.00029992,0,0,0.051958,-0.027324,0,0.0046788,0,0,0,0.0090387,-0.0011434,0.0023686,1.6887,0.0034213,0.0089582,1.8716e-08,0.54,0.66,0
0.027488,-0.00084121,0.0090072,-0.0012825,0.0023174,0.00019818,0,0,0.05218,-0.028079,0,0.0030916,0,0,0,0.009011,-0.0012863,0.0023174,1.103,0.0033473,0.0090506,1.8741e-08,0.56,0.66,0
0.028533,-0.00078229,0.0089922,-0.0013721,0.002286,8.6298e-05,0,0,0.052308,-0.028533,0,0.0013463,0,0,0,0.0089929,-0.0013728,0.002286,0.47703,0.003302,0.0091054,1.8741e-08,0.58,0.66,0
0.02958,-0.00077936,0.0089866,-0.0014049,0.0022745,-3.1233e-05,0,0,0.052354,-0.028699,0,-0.00048724,0,0,0,0.0089867,-0.0014049,0.0022745,-0.17221,0.0032854,0.0091263,1.8743e-08,0.6,0.66,0
0.030627,-0.00083344,0.0089902,-0.00138,0.0022831,-0.00015148,0,0,0.052316,-0.028572,0,-0.002363,0,0,0,0.0089924,-0.0013823,0.0022831,-0.83667,0.0032977,0.0091127,1.875e-08,0.62,0.66,0
0.031673,-0.00094324,0.0090005,-0.0012949,0.0023117,-0.00026962,0,0,0.052173,-0.028131,0,-0.0042061,0,0,0,0.0090076,-0.001302,0.0023117,-1.4991,0.0033391,0.0090603,1.8741e-08,0.64,0.66,0
0.032714,-0.0011047,0.0090146,-0.001149,0.0023597,-0.00037718,0,0,0.051908,-0.027368,0,-0.005884,0,0,0,0.0090285,-0.001163,0.0023597,-2.1224,0.0034084,0.0089652,1.8682e-08,0.66,0.66,0
0.033749,-0.0013106,0.0090309,-0.00095006,0.0024242,-0.0004633,0,0,0.051532,-0.02632,0,-0.0072275,0,0,0,0.0090523,-0.00097152,0.0024242,-2.652,0.0035017,0.0088301,1.8549e-08,0.68,0.66,0
0.034776,-0.0015509,0.0090503,-0.00071541,0.0025005,-0.00051893,0,0,0.051089,-0.025084,0,-0.0080953,0,0,0,0.0090778,-0.00074291,0.0025005,-3.0332,0.0036118,0.0086668,1.8341e-08,0.7,0.66,0
0.035793,-0.0018135,0.0090755,-0.00046779,0.0025823,-0.00054035,0,0,0.050647,-0.023791,0,-0.0084295,0,0,0,0.009106,-0.00049828,0.0025823,-3.2304,0.00373,0.0084939,1.8089e-08,0.72,0.66,0
0.036802,-0.0020866,0.0091098,-0.00022812,0.0026645,-0.00053012,0,0,0.050273,-0.022562,0,-0.0082699,0,0,0,0.0091398,-0.00025812,0.0026645,-3.2388,0.0038487,0.0083304,1.7842e-08,0.74,0.66,0
0.037804,-0.0023592,0.009155,-1.0991e-05,0.0027432,-0.00049486,0,0,0.050012,-0.021483,0,-0.0077199,0,0,0,0.0091816,-3.7631e-05,0.0027432,-3.0814,0.0039624,0.0081909,1.7648e-08,0.76,0.66,0
0.038802,-0.0026225,0.0092112,0.00017568,0.0028161,-0.00044263,0,0,0.049882,-0.020595,0,-0.0069051,0,0,0,0.0092328,0.00015405,0.0028161,-2.7979,0.0040676,0.0080835,1.7542e-08,0.78,0.66,0
0.039799,-0.0028698,0.0092767,0.00032907,0.0028817,-0.00038094,0,0,0.049881,-0.019911,0,-0.0059427,0,0,0,0.0092929,0.00031288,0.0028817,-2.4335,0.0041625,0.0080107,1.7539e-08,0.8,0.66,0
0.040797,-0.0030965,0.009349,0.0004496,0.0029396,-0.00031609,0,0,0.049993,-0.019422,0,-0.0049311,0,0,0,0.0093602,0.00043839,0.0029396,-2.0316,0.0042461,0.0079712,1.764e-08,0.82,0.66,0
0.041799,-0.0032996,0.0094247,0.00053986,0.0029894,-0.00025299,0,0,0.050196,-0.019106,0,-0.0039466,0,0,0,0.0094319,0.00053266,0.0029894,-1.6297,0.004318,0.0079605,1.7833e-08,0.84,0.66,0
0.042805,-0.0034776,0.0095008,0.00060384,0.0030314,-0.0001952,0,0,0.050461,-0.018935,0,-0.0030451,0,0,0,0.009505,0.00059956,0.0030314,-1.2563,0.0043787,0.0079728,1.8097e-08,0.86,0.66,0
0.043817,-0.0036299,0.0095738,0.00064632,0.003066,-0.00014498,0,0,0.050761,-0.018874,0,-0.0022617,0,0,0,0.0095762,0.00064397,0.003066,-0.93016,0.0044287,0.008001,1.8407e-08,0.88,0.66,0
0.044836,-0.0037569,0.009641,0.0006723,0.003094,-0.0001034,0,0,0.051067,-0.018889,0,-0.0016131,0,0,0,0.0096422,0.00067111,0.003094,-0.66047,0.0044691,0.0080383,1.8733e-08,0.9,0.66,0
0.04586,-0.003859,0.0096996,0.00068653,0.0031158,-7.0462e-05,0,0,0.051353,-0.018949,0,-0.0010992,0,0,0,0.0097002,0.00068598,0.0031158,-0.44789,0.0045007,0.0080781,1.9045e-08,0.92,0.66,0
0.04689,-0.0039373,0.0097475,0.00069314,0.0031322,-4.5317e-05,0,0,0.051599,-0.019025,0,-0.00070695,0,0,0,0.0097477,0.00069291,0.0031322,-0.28676,0.0045243,0.0081149,1.9317e-08,0.94,0.66,0
0.047924,-0.0039924,0.0097829,0.00069544,0.0031435,-2.6499e-05,0,0,0.051787,-0.019095,0,-0.00041339,0,0,0,0.009783,0.00069536,0.0031435,-0.16707,0.0045406,0.0081443,1.9527e-08,0.96,0.66,0
0.048961,-0.0040252,0.0098046,0.00069585,0.0031501,-1.2112e-05,0,0,0.051905,-0.019143,0,-0.00018894,0,0,0,0.0098046,0.00069584,0.0031501,-0.076186,0.0045502,0.0081632,1.966e-08,0.98,0.66,0
0.05,-0.0040361,0.0098119,0.00069583,0.0031523,-3.4873e-05,0,0,0.051945,-0.019161,0,-0.00054402,0,0,0,0.0098121,0.0006957,0.0031523,-0.21918,0.0045534,0.0081699,1.9707e-08,1,0.66,0
0,0,0.0095835,0.0041072,0.0041072,-0.0013014,0,0,0.042715,-2.1684e-19,0,-0.020302,0,0,0,0.009877,0.0038137,0.0041072,-12.711,0.0059326,0.005922,1.0578e-08,0,0.68,0
0.0008543,-0.00040604,0.0095636,0.0038654,0.0040287,-0.0012942,0,0,0.043172,-0.0012736,0,-0.020189,0,0,0,0.0098438,0.0035853,0.0040287,-12.215,0.0058193,0.006049,1.1162e-08,0.02,0.68,0
0.0017269,-0.00079018,0.009642,0.0036547,0.003989,-0.0012509,0,0,0.044094,-0.002608,0,-0.019514,0,0,0,0.0098929,0.0034038,0.003989,-11.339,0.0057619,0.0062172,1.1974e-08,0.04,0.68,0
0.002618,-0.001152,0.0097178,0.003438,0.0039467,-0.001205,0,0,0.045014,-0.0039681,0,-0.018798,0,0,0,0.0099411,0.0032147,0.0039467,-10.498,0.0057009,0.0063918,1.2821e-08,0.06,0.68,0
0.0035275,-0.0014905,0.0097879,0.0032203,0.0039025,-0.0011551,0,0,0.045906,-0.0053209,0,-0.01802,0,0,0,0.0099851,0.0030231,0.0039025,-9.69,0.0056369,0.0065667,1.3668e-08,0.08,0.68,0
0.0044543,-0.0018048,0.0098497,0.0030058,0.0038566,-0.0011004,0,0,0.046746,-0.0066365,0,-0.017167,0,0,0,0.010022,0.0028332,0.0038566,-8.9134,0.0055707,0.0067359,1.4483e-08,0.1,0.68,0
0.0053973,-0.0020935,0.0099008,0.0027983,0.0038097,-0.0010404,0,0,0.04751,-0.0078893,0,-0.01623,0,0,0,0.01005,0.002649,0.0038097,-8.1643,0.0055029,0.0068943,1.5235e-08,0.12,0.68,0
0.0063547,-0.0023552,0.0099393,0.0026005,0.003762,-0.00097479,0,0,0.048183,-0.009059,0,-0.015207,0,0,0,0.010067,0.0024733,0.003762,-7.4386,0.0054339,0.007038,1.5901e-08,0.14,0.68,0
0.0073246,-0.0025885,0.0099639,0.0024147,0.0037136,-0.00090364,0,0,0.048753,-0.010131,0,-0.014097,0,0,0,0.010071,0.002308,0.0037136,-6.7316,0.0053641,0.007164,1.646e-08,0.16,0.68,0
0.0083048,-0.0027919,0.0099738,0.0022417,0.0036647,-0.00082703,0,0,0.049211,-0.011099,0,-0.012902,0,0,0,0.010061,0.0021543,0.0036647,-6.0375,0.0052934,0.0072704,1.6902e-08,0.18,0.68,0
0.0092931,-0.0029641,0.0099685,0.0020818,0.0036151,-0.00074508,0,0,0.049557,-0.01196,0,-0.011623,0,0,0,0.010038,0.002012,0.0036151,-5.3498,0.0052218,0.0073569,1.7223e-08,0.2,0.68,0
0.010287,-0.003104,0.0099484,0.0019339,0.0035647,-0.00065786,0,0,0.049793,-0.01272,0,-0.010263,0,0,0,0.010002,0.0018802,0.0035647,-4.6614,0.005149,0.0074243,1.7426e-08,0.22,0.68,0
0.011285,-0.0032103,0.0099143,0.0017961,0.0035131,-0.00056537,0,0,0.049929,-0.013393,0,-0.0088197,0,0,0,0.0099535,0.0017569,0.0035131,-3.9647,0.0050745,0.0074749,1.7524e-08,0.24,0.68,0
0.012284,-0.003282,0.0098675,0.0016657,0.00346,-0.00046764,0,0,0.049979,-0.013995,0,-0.0072952,0,0,0,0.0098941,0.0016391,0.00346,-3.2528,0.0049977,0.007512,1.7534e-08,0.26,0.68,0
0.013284,-0.0033186,0.0098099,0.0015389,0.0034046,-0.00036484,0,0,0.049961,-0.014552,0,-0.0056915,0,0,0,0.0098259,0.0015229,0.0034046,-2.5208,0.0049178,0.0075404,1.7482e-08,0.28,0.68,0
0.014283,-0.0033194,0.0097437,0.0014116,0.0033466,-0.0002574,0,0,0.049897,-0.015093,0,-0.0040154,0,0,0,0.0097517,0.0014037,0.0033466,-1.7677,0.004834,0.007566,1.7397e-08,0.3,0.68,0
0.01528,-0.0032844,0.0096718,0.0012789,0.0032852,-0.00014624,0,0,0.049815,-0.015649,0,-0.0022814,0,0,0,0.0096743,0.0012763,0.0032852,-0.99795,0.0047453,0.0075955,1.731e-08,0.32,0.68,0
0.016275,-0.0032142,0.0095972,0.0011358,0.0032199,-3.2987e-05,0,0,0.049743,-0.016256,0,-0.0005146,0,0,0,0.0095973,0.0011356,0.0032199,-0.22337,0.0046509,0.0076359,1.7253e-08,0.34,0.68,0
0.01727,-0.0031101,0.009523,0.00097748,0.0031502,7.9896e-05,0,0,0.049709,-0.016947,0,0.0012464,0,0,0,0.0095238,0.00097674,0.0031502,0.53562,0.0045502,0.0076941,1.7253e-08,0.36,0.68,0
0.018264,-0.0029745,0.0094528,0.00079999,0.0030758,0.00018893,0,0,0.04974,-0.017751,0,0.0029474,0,0,0,0.0094569,0.00079587,0.0030758,1.2503,0.0044429,0.0077759,1.7332e-08,0.38,0.68,0
0.019259,-0.0028109,0.0093893,0.00060052,0.002997,0.00028958,0,0,0.049861,-0.018692,0,0.0045174,0,0,0,0.0093989,0.00059099,0.002997,1.8851,0.0043289,0.0078852,1.7502e-08,0.4,0.68,0
0.020258,-0.0026244,0.0093352,0.00037831,0.0029141,0.00037623,0,0,0.050085,-0.019779,0,0.0058691,0,0,0,0.009351,0.00036254,0.0029141,2.401,0.0042092,0.008023,1.7761e-08,0.42,0.68,0
0.021263,-0.0024218,0.0092919,0.00013558,0.0028282,0.00044253,0,0,0.050416,-0.021003,0,0.0069035,0,0,0,0.0093132,0.00011424,0.0028282,2.7606,0.0040852,0.0081866,1.8093e-08,0.44,0.68,0
0.022275,-0.0022114,0.0092592,-0.00012151,0.0027413,0.00048213,0,0,0.050839,-0.02233,0,0.0075212,0,0,0,0.0092839,-0.00014622,0.0027413,2.9345,0.0039597,0.0083687,1.8467e-08,0.46,0.68,0
0.023296,-0.0020033,0.0092357,-0.00038221,0.002656,0.00048995,0,0,0.051321,-0.023698,0,0.0076432,0,0,0,0.0092606,-0.0004071,0.002656,2.9087,0.0038365,0.0085576,1.884e-08,0.48,0.68,0
0.024328,-0.0018082,0.0092189,-0.00063201,0.002576,0.0004638,0,0,0.051814,-0.025023,0,0.0072353,0,0,0,0.0092406,-0.0006538,0.002576,2.6897,0.003721,0.0087392,1.9169e-08,0.5,0.68,0
0.025369,-0.0016367,0.009206,-0.00085524,0.0025052,0.00040535,0,0,0.052266,-0.026212,0,0.0063234,0,0,0,0.0092223,-0.00087154,0.0025052,2.3034,0.0036187,0.0088997,1.9425e-08,0.52,0.68,0
0.026418,-0.0014987,0.0091953,-0.0010386,0.002447,0.00031983,0,0,0.052636,-0.027187,0,0.0049893,0,0,0,0.0092052,-0.0010485,0.002447,1.7883,0.0035346,0.0090286,1.9598e-08,0.54,0.68,0
0.027474,-0.0014019,0.0091858,-0.0011734,0.0024037,0.00021434,0,0,0.0529,-0.027901,0,0.0033437,0,0,0,0.0091902,-0.0011778,0.0024037,1.1848,0.003472,0.0091209,1.9695e-08,0.56,0.68,0
0.028534,-0.001352,0.0091777,-0.0012558,0.0023766,9.5978e-05,0,0,0.053049,-0.028333,0,0.0014973,0,0,0,0.0091786,-0.0012567,0.0023766,0.52701,0.0034328,0.0091751,1.9734e-08,0.58,0.68,0
0.029596,-0.0013521,0.0091712,-0.0012844,0.002366,-2.9106e-05,0,0,0.05308,-0.028474,0,-0.00045405,0,0,0,0.0091713,-0.0012845,0.002366,-0.15949,0.0034176,0.0091914,1.9726e-08,0.6,0.68,0
0.030657,-0.0014033,0.0091659,-0.0012588,0.0023721,-0.00015517,0,0,0.052992,-0.028321,0,-0.0024207,0,0,0,0.0091682,-0.0012611,0.0023721,-0.85261,0.0034264,0.0091695,1.9675e-08,0.62,0.68,0
0.031716,-0.001504,0.0091611,-0.0011793,0.0023945,-0.00027578,0,0,0.052779,-0.027876,0,-0.0043021,0,0,0,0.0091684,-0.0011867,0.0023945,-1.5266,0.0034588,0.0091088,1.9572e-08,0.64,0.68,0
0.032769,-0.0016504,0.0091561,-0.0010491,0.0024321,-0.00038321,0,0,0.052447,-0.027153,0,-0.0059781,0,0,0,0.0091705,-0.0010634,0.0024321,-2.1475,0.0035131,0.0090099,1.9405e-08,0.66,0.68,0
0.033814,-0.0018362,0.0091515,-0.00087626,0.0024826,-0.00046953,0,0,0.052018,-0.026199,0,-0.0073246,0,0,0,0.0091734,-0.00089819,0.0024826,-2.6749,0.003586,0.0088779,1.9168e-08,0.68,0.68,0
0.034849,-0.002053,0.0091491,-0.00067434,0.0025424,-0.00052849,0,0,0.051532,-0.025091,0,-0.0082445,0,0,0,0.0091774,-0.00070269,0.0025424,-3.0707,0.0036724,0.0087227,1.887e-08,0.7,0.68,0
0.035875,-0.0022912,0.0091517,-0.00045973,0.0026076,-0.00055748,0,0,0.051044,-0.023925,0,-0.0086967,0,0,0,0.0091839,-0.00049196,0.0026076,-3.3085,0.0037665,0.0085579,1.8538e-08,0.72,0.68,0
0.036891,-0.0025406,0.0091622,-0.00024814,0.0026742,-0.00055792,0,0,0.050606,-0.022794,0,-0.0087035,0,0,0,0.0091951,-0.0002811,0.0026742,-3.3811,0.0038627,0.0083981,1.8209e-08,0.74,0.68,0
0.037899,-0.002792,0.0091827,-5.1799e-05,0.0027393,-0.00053436,0,0,0.050258,-0.02177,0,-0.008336,0,0,0,0.0092135,-8.2617e-05,0.0027393,-3.3008,0.0039567,0.0082552,1.7924e-08,0.76,0.68,0
0.038901,-0.0030376,0.0092137,0.00012152,0.0028006,-0.00049291,0,0,0.050022,-0.020897,0,-0.0076894,0,0,0,0.0092403,9.4877e-05,0.0028006,-3.094,0.0040453,0.0081373,1.7711e-08,0.78,0.68,0
0.0399,-0.0032709,0.0092545,0.00026803,0.0028567,-0.00043986,0,0,0.049902,-0.020192,0,-0.0068619,0,0,0,0.009276,0.00024655,0.0028567,-2.7956,0.0041264,0.0080483,1.7589e-08,0.8,0.68,0
0.040898,-0.0034872,0.0093031,0.00038698,0.002907,-0.00038086,0,0,0.049889,-0.019656,0,-0.0059415,0,0,0,0.0093193,0.00037074,0.002907,-2.4415,0.004199,0.0079883,1.756e-08,0.82,0.68,0
0.041896,-0.0036832,0.0093569,0.00047974,0.002951,-0.00032054,0,0,0.049966,-0.019276,0,-0.0050004,0,0,0,0.0093684,0.00046818,0.002951,-2.0653,0.0042625,0.007955,1.7618e-08,0.84,0.68,0
0.042896,-0.0038569,0.009413,0.00054911,0.0029886,-0.00026238,0,0,0.05011,-0.019028,0,-0.0040931,0,0,0,0.0094208,0.00054135,0.0029886,-1.694,0.0043169,0.0079437,1.7747e-08,0.86,0.68,0
0.0439,-0.0040071,0.0094686,0.00059868,0.0030202,-0.00020875,0,0,0.050297,-0.018888,0,-0.0032565,0,0,0,0.0094735,0.00059377,0.0030202,-1.3474,0.0043625,0.0079493,1.7927e-08,0.88,0.68,0
0.044908,-0.0041335,0.0095207,0.00063236,0.0030459,-0.00016097,0,0,0.050503,-0.018826,0,-0.002511,0,0,0,0.0095236,0.00062945,0.0030459,-1.0372,0.0043997,0.0079658,1.8133e-08,0.9,0.68,0
0.04592,-0.0042361,0.009567,0.00065398,0.0030663,-0.00011942,0,0,0.050706,-0.018816,0,-0.0018629,0,0,0,0.0095686,0.00065238,0.0030663,-0.76747,0.0044291,0.0079877,1.8341e-08,0.92,0.68,0
0.046936,-0.0043152,0.0096052,0.00066698,0.0030817,-8.3722e-05,0,0,0.050884,-0.018835,0,-0.0013061,0,0,0,0.009606,0.00066619,0.0030817,-0.53661,0.0044513,0.0080101,1.8529e-08,0.94,0.68,0
0.047956,-0.0043713,0.0096338,0.00067417,0.0030924,-5.2899e-05,0,0,0.051023,-0.018862,0,-0.00082523,0,0,0,0.0096341,0.00067386,0.0030924,-0.33827,0.0044668,0.008029,1.8677e-08,0.96,0.68,0
0.048977,-0.0044048,0.0096514,0.00067763,0.0030987,-2.5549e-05,0,0,0.051111,-0.018884,0,-0.00039857,0,0,0,0.0096515,0.00067756,0.0030987,-0.16313,0.0044759,0.0080415,1.8772e-08,0.98,0.68,0
0.05,-0.004416,0.0096574,0.00067865,0.0031008,-3.5674e-05,0,0,0.051141,-0.018893,0,-0.00055652,0,0,0,0.0096575,0.00067851,0.0031008,-0.22764,0.0044789,0.0080461,1.8806e-08,1,0.68,0
0,0,0.0094912,0.0040676,0.0040676,-0.0013831,0,0,0.042304,1.6263e-19,0,-0.021576,0,0,0,0.0098235,0.0037353,0.0040676,-13.511,0.0058755,0.005929,1.0591e-08,0,0.7,0
0.00084607,-0.00043152,0.0094714,0.0038237,0.0039885,-0.0013748,0,0,0.042766,-0.0012856,0,-0.021448,0,0,0,0.0097883,0.0035068,0.0039885,-12.98,0.0057612,0.006055,1.1159e-08,0.02,0.7,0
0.0017106,-0.00084247,0.0095508,0.0036093,0.003948,-0.0013305,0,0,0.043701,-0.002642,0,-0.020756,0,0,0,0.0098351,0.0033249,0.003948,-12.063,0.0057027,0.0062221,1.1954e-08,0.04,0.7,0
0.0025941,-0.0012316,0.0096276,0.0033876,0.0039046,-0.0012804,0,0,0.04464,-0.0040324,0,-0.019974,0,0,0,0.0098801,0.0031351,0.0039046,-11.156,0.0056399,0.0063951,1.278e-08,0.06,0.7,0
0.0034962,-0.0015976,0.009699,0.0031639,0.0038589,-0.0012233,0,0,0.045553,-0.0054207,0,-0.019084,0,0,0,0.0099204,0.0029424,0.0038589,-10.262,0.0055739,0.0065679,1.3601e-08,0.08,0.7,0
0.0044162,-0.0019384,0.0097619,0.002943,0.0038115,-0.0011588,0,0,0.046413,-0.0067743,0,-0.018077,0,0,0,0.0099534,0.0027514,0.0038115,-9.3857,0.0055054,0.0067348,1.4388e-08,0.1,0.7,0
0.0053528,-0.0022525,0.009814,0.0027289,0.0037629,-0.0010867,0,0,0.047199,-0.008065,0,-0.016953,0,0,0,0.009977,0.002566,0.0037629,-8.5271,0.0054353,0.0068909,1.5111e-08,0.12,0.7,0
0.0063042,-0.0025379,0.0098535,0.002525,0.0037135,-0.0010075,0,0,0.047892,-0.0092709,0,-0.015717,0,0,0,0.0099895,0.002389,0.0037135,-7.687,0.005364,0.0070324,1.5748e-08,0.14,0.7,0
0.0072685,-0.0027929,0.0098791,0.0023333,0.0036637,-0.00092171,0,0,0.04848,-0.010377,0,-0.014379,0,0,0,0.0099901,0.0022224,0.0036637,-6.8642,0.0052921,0.0071567,1.6282e-08,0.16,0.7,0
0.0082434,-0.003016,0.0098902,0.002155,0.0036136,-0.00083003,0,0,0.048958,-0.011377,0,-0.012948,0,0,0,0.0099783,0.002067,0.0036136,-6.0563,0.0052196,0.0072626,1.6706e-08,0.18,0.7,0
0.0092268,-0.0032058,0.0098869,0.0019901,0.0035631,-0.00073317,0,0,0.049325,-0.012269,0,-0.011437,0,0,0,0.0099543,0.0019226,0.0035631,-5.2597,0.0051467,0.0073501,1.7019e-08,0.2,0.7,0
0.010216,-0.0033612,0.0098696,0.0018376,0.0035122,-0.00063175,0,0,0.049588,-0.013062,0,-0.0098552,0,0,0,0.009919,0.0017882,0.0035122,-4.4699,0.0050731,0.0074205,1.7229e-08,0.22,0.7,0
0.01121,-0.0034813,0.0098396,0.0016954,0.0034605,-0.00052632,0,0,0.049757,-0.013768,0,-0.0082106,0,0,0,0.0098735,0.0016616,0.0034605,-3.6823,0.0049985,0.0074766,1.7348e-08,0.24,0.7,0
0.012207,-0.0035656,0.0097986,0.0015609,0.0034078,-0.0004174,0,0,0.049848,-0.014406,0,-0.0065115,0,0,0,0.0098197,0.0015398,0.0034078,-2.8933,0.0049224,0.0075219,1.7397e-08,0.26,0.7,0
0.013204,-0.0036137,0.0097486,0.0014304,0.0033537,-0.00030562,0,0,0.04988,-0.015002,0,-0.0047677,0,0,0,0.0097598,0.0014192,0.0033537,-2.1013,0.0048442,0.0075613,1.74e-08,0.28,0.7,0
0.014202,-0.0036258,0.0096921,0.0013001,0.0032977,-0.00019181,0,0,0.049877,-0.015581,0,-0.0029922,0,0,0,0.0096965,0.0012958,0.0032977,-1.3087,0.0047633,0.0076002,1.7383e-08,0.3,0.7,0
0.015199,-0.0036024,0.0096318,0.0011657,0.0032393,-7.7219e-05,0,0,0.049862,-0.016174,0,-0.0012046,0,0,0,0.0096325,0.001165,0.0032393,-0.52253,0.0046789,0.0076445,1.7375e-08,0.32,0.7,0
0.016196,-0.0035448,0.0095708,0.0010229,0.0031781,3.6333e-05,0,0,0.049863,-0.01681,0,0.0005668,0,0,0,0.0095709,0.0010228,0.0031781,0.24354,0.0045906,0.0077001,1.7402e-08,0.34,0.7,0
0.017194,-0.0034548,0.0095119,0.00086785,0.0031139,0.00014632,0,0,0.049904,-0.017519,0,0.0022826,0,0,0,0.0095143,0.00086538,0.0031139,0.9695,0.0044979,0.0077726,1.7486e-08,0.36,0.7,0
0.018193,-0.0033354,0.0094579,0.00069737,0.0030466,0.00024941,0,0,0.050009,-0.018324,0,0.0038908,0,0,0,0.009465,0.00069028,0.0030466,1.6294,0.0044006,0.0078659,1.7642e-08,0.38,0.7,0
0.019194,-0.0031905,0.0094115,0.00050969,0.0029764,0.00034146,0,0,0.050194,-0.01924,0,0.0053268,0,0,0,0.0094246,0.00049661,0.0029764,2.1935,0.0042992,0.0079824,1.7876e-08,0.4,0.7,0
0.0202,-0.0030253,0.0093743,0.00030489,0.0029038,0.00041765,0,0,0.05047,-0.020271,0,0.0065154,0,0,0,0.0093935,0.0002857,0.0029038,2.6311,0.0041943,0.0081216,1.8184e-08,0.42,0.7,0
0.021213,-0.0028463,0.009347,8.5621e-05,0.0028298,0.00047284,0,0,0.050834,-0.021404,0,0.0073762,0,0,0,0.0093711,6.1543e-05,0.0028298,2.9151,0.0040875,0.0082801,1.8549e-08,0.44,0.7,0
0.022234,-0.0026613,0.0093292,-0.00014243,0.002756,0.00050221,0,0,0.051271,-0.022608,0,0.0078345,0,0,0,0.0093558,-0.00016898,0.002756,3.0266,0.0039809,0.0084508,1.8944e-08,0.46,0.7,0
0.023264,-0.0024791,0.0093194,-0.00037046,0.0026847,0.00050223,0,0,0.051751,-0.02383,0,0.0078347,0,0,0,0.0093453,-0.00039642,0.0026847,2.9591,0.0038779,0.0086243,1.9334e-08,0.48,0.7,0
0.024304,-0.0023089,0.0093149,-0.00058733,0.0026183,0.00047154,0,0,0.052234,-0.025004,0,0.007356,0,0,0,0.0093373,-0.00060973,0.0026183,2.7202,0.003782,0.0087895,1.9685e-08,0.5,0.7,0
0.025353,-0.0021599,0.0093133,-0.0007812,0.0025596,0.00041153,0,0,0.052679,-0.026058,0,0.0064199,0,0,0,0.0093301,-0.00079795,0.0025596,2.3307,0.0036973,0.0089356,1.9972e-08,0.52,0.7,0
0.026411,-0.0020404,0.0093121,-0.00094157,0.0025112,0.00032617,0,0,0.053047,-0.026931,0,0.0050882,0,0,0,0.0093225,-0.00095193,0.0025112,1.8201,0.0036272,0.009054,2.0181e-08,0.54,0.7,0
0.027475,-0.0019573,0.0093097,-0.0010607,0.0024747,0.00022112,0,0,0.053313,-0.027576,0,0.0034495,0,0,0,0.0093144,-0.0010654,0.0024747,1.2209,0.0035746,0.0091393,2.031e-08,0.56,0.7,0
0.028543,-0.0019156,0.0093051,-0.0011338,0.0024514,0.00010279,0,0,0.053459,-0.027964,0,0.0016036,0,0,0,0.0093061,-0.0011348,0.0024514,0.56413,0.0035409,0.0091886,2.0363e-08,0.58,0.7,0
0.029613,-0.0019183,0.0092978,-0.0011587,0.0024417,-2.2326e-05,0,0,0.053477,-0.028083,0,-0.00034828,0,0,0,0.0092978,-0.0011587,0.0024417,-0.12233,0.0035269,0.0092007,2.0346e-08,0.6,0.7,0
0.030682,-0.0019663,0.0092874,-0.001135,0.0024457,-0.00014773,0,0,0.053365,-0.027929,0,-0.0023046,0,0,0,0.0092895,-0.0011371,0.0024457,-0.81191,0.0035327,0.0091757,2.0261e-08,0.62,0.7,0
0.031748,-0.0020583,0.009274,-0.0010643,0.0024629,-0.00026669,0,0,0.053126,-0.027512,0,-0.0041603,0,0,0,0.0092809,-0.0010711,0.0024629,-1.4767,0.0035576,0.0091142,2.0106e-08,0.64,0.7,0
0.032808,-0.0021908,0.0092581,-0.00095068,0.0024922,-0.00037232,0,0,0.052774,-0.026855,0,-0.0058082,0,0,0,0.0092716,-0.00096424,0.0024922,-2.0859,0.0035999,0.0090189,1.9881e-08,0.66,0.7,0
0.033859,-0.0023586,0.009241,-0.00080182,0.0025317,-0.0004583,0,0,0.052332,-0.026002,0,-0.0071496,0,0,0,0.0092618,-0.00082269,0.0025317,-2.6075,0.003657,0.008895,1.9589e-08,0.68,0.7,0
0.034901,-0.0025545,0.0092249,-0.00062837,0.002579,-0.00051995,0,0,0.051838,-0.025017,0,-0.0081111,0,0,0,0.0092523,-0.00065573,0.002579,-3.0123,0.0037252,0.0087511,1.9243e-08,0.7,0.7,0
0.035932,-0.0027706,0.0092126,-0.00044277,0.002631,-0.00055514,0,0,0.051337,-0.023975,0,-0.0086602,0,0,0,0.0092444,-0.00047458,0.002631,-3.2798,0.0038003,0.0085977,1.8869e-08,0.72,0.7,0
0.036954,-0.0029984,0.0092069,-0.00025714,0.0026849,-0.00056465,0,0,0.050871,-0.022948,0,-0.0088085,0,0,0,0.0092405,-0.0002907,0.0026849,-3.4023,0.0038782,0.0084461,1.8496e-08,0.74,0.7,0
0.037967,-0.00323,0.0092096,-8.1513e-05,0.0027384,-0.00055159,0,0,0.050475,-0.021996,0,-0.0086048,0,0,0,0.0092423,-0.00011414,0.0027384,-3.3857,0.0039555,0.008306,1.8156e-08,0.76,0.7,0
0.038973,-0.0034584,0.0092218,7.7022e-05,0.0027896,-0.00052055,0,0,0.050171,-0.021158,0,-0.0081205,0,0,0,0.0092513,4.7486e-05,0.0027896,-3.2475,0.0040295,0.0081849,1.7875e-08,0.78,0.7,0
0.039974,-0.0036775,0.0092431,0.00021439,0.0028373,-0.00047657,0,0,0.049966,-0.020458,0,-0.0074345,0,0,0,0.0092682,0.0001893,0.0028373,-3.0131,0.0040983,0.0080869,1.7669e-08,0.8,0.7,0
0.040972,-0.0038828,0.0092724,0.00032906,0.0028804,-0.00042449,0,0,0.049857,-0.019901,0,-0.006622,0,0,0,0.0092925,0.00030896,0.0028804,-2.7114,0.0041606,0.0080135,1.7545e-08,0.82,0.7,0
0.041968,-0.0040707,0.0093076,0.00042143,0.0029187,-0.00036847,0,0,0.049833,-0.019479,0,-0.0057482,0,0,0,0.0093229,0.00040617,0.0029187,-2.3704,0.0042159,0.0079635,1.7499e-08,0.84,0.7,0
0.042965,-0.0042388,0.0093464,0.00049324,0.0029519,-0.00031184,0,0,0.049877,-0.019178,0,-0.0048646,0,0,0,0.0093574,0.00048227,0.0029519,-2.0148,0.0042638,0.007934,1.7521e-08,0.86,0.7,0
0.043964,-0.0043855,0.0093863,0.0005471,0.00298,-0.00025697,0,0,0.049969,-0.018977,0,-0.0040088,0,0,0,0.0093938,0.00053963,0.00298,-1.6638,0.0043045,0.0079211,1.7596e-08,0.88,0.7,0
0.044964,-0.0045099,0.0094248,0.00058597,0.0030032,-0.00020539,0,0,0.050088,-0.018855,0,-0.003204,0,0,0,0.0094296,0.0005812,0.0030032,-1.3304,0.004338,0.0079202,1.7703e-08,0.9,0.7,0
0.045967,-0.0046117,0.0094597,0.00061288,0.0030218,-0.00015777,0,0,0.050216,-0.018789,0,-0.0024612,0,0,0,0.0094625,0.00061007,0.0030218,-1.0214,0.0043648,0.0079267,1.7824e-08,0.92,0.7,0
0.046973,-0.0046907,0.0094889,0.00063062,0.0030359,-0.00011414,0,0,0.050334,-0.018761,0,-0.0017807,0,0,0,0.0094904,0.00062915,0.0030359,-0.73813,0.0043851,0.0079365,1.7939e-08,0.94,0.7,0
0.04798,-0.0047469,0.009511,0.00064152,0.0030458,-7.3975e-05,0,0,0.050429,-0.018753,0,-0.001154,0,0,0,0.0095116,0.00064091,0.0030458,-0.47782,0.0043994,0.0079461,1.8034e-08,0.96,0.7,0
0.04899,-0.0047806,0.0095247,0.00064734,0.0030516,-3.6325e-05,0,0,0.05049,-0.018753,0,-0.00056667,0,0,0,0.0095248,0.00064719,0.0030516,-0.23444,0.0044079,0.0079529,1.8096e-08,0.98,0.7,0
0.05,-0.0047918,0.0095293,0.00064916,0.0030535,-3.595e-05,0,0,0.050511,-0.018754,0,-0.00056081,0,0,0,0.0095295,0.00064901,0.0030535,-0.23195,0.0044107,0.0079556,1.8119e-08,1,0.7,0
0,0,0.0094103,0.004033,0.004033,-0.0014662,0,0,0.041943,-1.0842e-19,0,-0.022873,0,0,0,0.0097841,0.0036592,0.004033,-14.303,0.0058254,0.0059468,1.0658e-08,0,0.72,0
0.00083886,-0.00045746,0.0093902,0.0037828,0.0039519,-0.001457,0,0,0.042419,-0.0013192,0,-0.022729,0,0,0,0.0097462,0.0034268,0.0039519,-13.73,0.0057083,0.0060739,1.1219e-08,0.02,0.72,0
0.0016968,-0.00089587,0.0094719,0.0035613,0.0039099,-0.0014119,0,0,0.043383,-0.0027194,0,-0.022027,0,0,0,0.0097918,0.0032413,0.0039099,-12.769,0.0056477,0.0062431,1.2015e-08,0.04,0.72,0
0.0025742,-0.0013133,0.0095511,0.0033313,0.0038647,-0.0013576,0,0,0.044354,-0.0041607,0,-0.021179,0,0,0,0.0098345,0.0030479,0.0038647,-11.792,0.0055824,0.0064173,1.2835e-08,0.06,0.72,0
0.0034709,-0.0017074,0.0096247,0.0030986,0.003817,-0.0012932,0,0,0.0453,-0.0056033,0,-0.020174,0,0,0,0.0098716,0.0028517,0.003817,-10.81,0.0055134,0.0065905,1.3645e-08,0.08,0.72,0
0.0043862,-0.0020758,0.0096896,0.0028687,0.0037675,-0.0012186,0,0,0.046192,-0.0070105,0,-0.01901,0,0,0,0.0099008,0.0026575,0.0037675,-9.8311,0.0054419,0.006757,1.4414e-08,0.1,0.72,0
0.0053186,-0.0024161,0.0097434,0.0026463,0.0037169,-0.0011342,0,0,0.047007,-0.0083509,0,-0.017694,0,0,0,0.0099202,0.0024694,0.0037169,-8.8626,0.0053688,0.006912,1.5115e-08,0.12,0.72,0
0.0062664,-0.002726,0.0097842,0.0024349,0.0036657,-0.0010411,0,0,0.047724,-0.0096005,0,-0.016242,0,0,0,0.0099288,0.0022902,0.0036657,-7.9095,0.0052949,0.0070522,1.5728e-08,0.14,0.72,0
0.0072276,-0.0030035,0.0098109,0.0022369,0.0036143,-0.00094067,0,0,0.048333,-0.010744,0,-0.014675,0,0,0,0.0099259,0.0021218,0.0036143,-6.9748,0.0052207,0.0071753,1.624e-08,0.16,0.72,0
0.0081998,-0.003247,0.0098231,0.0020533,0.0035629,-0.00083423,0,0,0.04883,-0.011775,0,-0.013014,0,0,0,0.0099117,0.0019648,0.0035629,-6.0597,0.0051465,0.0072806,1.6647e-08,0.18,0.72,0
0.0091807,-0.0034549,0.0098214,0.0018842,0.0035117,-0.00072314,0,0,0.049216,-0.012695,0,-0.011281,0,0,0,0.0098867,0.0018188,0.0035117,-5.1634,0.0050724,0.0073688,1.6951e-08,0.2,0.72,0
0.010168,-0.0036264,0.0098066,0.0017282,0.0034604,-0.0006086,0,0,0.0495,-0.013512,0,-0.0094942,0,0,0,0.0098521,0.0016826,0.0034604,-4.2843,0.0049984,0.0074417,1.7162e-08,0.22,0.72,0
0.011161,-0.003761,0.0097801,0.0015833,0.003409,-0.00049166,0,0,0.049695,-0.014241,0,-0.0076699,0,0,0,0.0098095,0.0015539,0.003409,-3.4203,0.0049241,0.0075021,1.7297e-08,0.24,0.72,0
0.012156,-0.0038583,0.0097441,0.0014467,0.0033572,-0.00037325,0,0,0.049818,-0.014902,0,-0.0058227,0,0,0,0.0097608,0.0014299,0.0033572,-2.5705,0.0048493,0.007554,1.7375e-08,0.26,0.72,0
0.013153,-0.0039186,0.0097006,0.001315,0.0033047,-0.00025435,0,0,0.049889,-0.01552,0,-0.0039679,0,0,0,0.0097083,0.0013072,0.0033047,-1.7357,0.0047734,0.0076018,1.742e-08,0.28,0.72,0
0.014152,-0.0039426,0.0096524,0.0011845,0.0032511,-0.00013608,0,0,0.04993,-0.016119,0,-0.0021229,0,0,0,0.0096545,0.0011823,0.0032511,-0.92044,0.0046959,0.0076506,1.7455e-08,0.3,0.72,0
0.015151,-0.0039314,0.0096019,0.0010513,0.003196,-1.9875e-05,0,0,0.049966,-0.016728,0,-0.00031005,0,0,0,0.009602,0.0010513,0.003196,-0.13318,0.0046164,0.0077055,1.7505e-08,0.32,0.72,0
0.01615,-0.0038866,0.009552,0.00091193,0.0031392,9.2385e-05,0,0,0.05002,-0.017373,0,0.0014412,0,0,0,0.009553,0.00091094,0.0031392,0.61254,0.0045344,0.0077714,1.7592e-08,0.34,0.72,0
0.017152,-0.0038109,0.0095054,0.000763,0.0030805,0.00019826,0,0,0.050114,-0.018077,0,0.0030928,0,0,0,0.0095099,0.00075851,0.0030805,1.2985,0.0044496,0.0078522,1.7731e-08,0.36,0.72,0
0.018155,-0.0037075,0.0094643,0.0006022,0.0030199,0.0002947,0,0,0.050266,-0.018859,0,0.0045974,0,0,0,0.0094741,0.00059241,0.0030199,1.9025,0.0043622,0.0079509,1.7934e-08,0.38,0.72,0
0.019162,-0.0035805,0.0094307,0.00042839,0.0029577,0.00037811,0,0,0.050489,-0.019729,0,0.0058985,0,0,0,0.0094465,0.00041253,0.0029577,2.4009,0.0042723,0.0080683,1.8203e-08,0.4,0.72,0
0.020175,-0.0034352,0.0094057,0.00024215,0.0028943,0.00044448,0,0,0.050789,-0.020687,0,0.0069338,0,0,0,0.0094272,0.00022064,0.0028943,2.7704,0.0041807,0.0082033,1.8531e-08,0.42,0.72,0
0.021194,-0.0032779,0.0093896,4.6151e-05,0.0028307,0.00048977,0,0,0.051159,-0.02172,0,0.0076404,0,0,0,0.0094152,2.0549e-05,0.0028307,2.9924,0.0040888,0.008352,1.8903e-08,0.44,0.72,0
0.022221,-0.0031158,0.0093818,-0.00015463,0.0027681,0.00051043,0,0,0.051586,-0.022798,0,0.0079627,0,0,0,0.009409,-0.00018187,0.0027681,3.0551,0.0039984,0.0085085,1.9294e-08,0.46,0.72,0
0.023257,-0.0029565,0.0093805,-0.00035303,0.0027082,0.00050403,0,0,0.052043,-0.023878,0,0.0078628,0,0,0,0.0094065,-0.00037906,0.0027082,2.9564,0.0039119,0.0086647,1.9677e-08,0.48,0.72,0
0.024303,-0.0028083,0.0093834,-0.00054036,0.0026529,0.00046984,0,0,0.052498,-0.024907,0,0.0073295,0,0,0,0.0094056,-0.00056255,0.0026529,2.7046,0.003832,0.008812,2.0024e-08,0.5,0.72,0
0.025357,-0.0026791,0.009388,-0.00070744,0.0026042,0.00040919,0,0,0.052914,-0.02583,0,0.0063834,0,0,0,0.0094045,-0.000724,0.0026042,2.3173,0.0037616,0.0089417,2.0313e-08,0.52,0.72,0
0.026419,-0.002576,0.0093918,-0.0008459,0.0025638,0.00032536,0,0,0.053259,-0.026595,0,0.0050757,0,0,0,0.0094021,-0.00085623,0.0025638,1.8185,0.0037032,0.0090469,2.0529e-08,0.54,0.72,0
0.027487,-0.002505,0.0093929,-0.00094909,0.0025331,0.00022317,0,0,0.053506,-0.027162,0,0.0034814,0,0,0,0.0093977,-0.00095391,0.0025331,1.2356,0.003659,0.0091225,2.0665e-08,0.56,0.72,0
0.028559,-0.0024706,0.0093899,-0.0010126,0.0025132,0.00010834,0,0,0.053638,-0.027501,0,0.0016902,0,0,0,0.009391,-0.0010137,0.0025132,0.59667,0.0036302,0.0091652,2.0719e-08,0.58,0.72,0
0.029633,-0.0024755,0.009382,-0.001034,0.0025044,-1.2913e-05,0,0,0.053645,-0.0276,0,-0.00020144,0,0,0,0.009382,-0.001034,0.0025044,-0.071031,0.0036175,0.0091738,2.0694e-08,0.6,0.72,0
0.030705,-0.0025204,0.009369,-0.0010132,0.0025067,-0.00013423,0,0,0.053525,-0.027456,0,-0.002094,0,0,0,0.0093707,-0.0010149,0.0025067,-0.7406,0.0036208,0.0091482,2.059e-08,0.62,0.72,0
0.031774,-0.0026044,0.009351,-0.00095194,0.0025197,-0.00024922,0,0,0.053284,-0.027079,0,-0.0038878,0,0,0,0.009357,-0.00095797,0.0025197,-1.3849,0.0036396,0.0090896,2.0411e-08,0.64,0.72,0
0.032837,-0.0027246,0.0093291,-0.00085437,0.0025424,-0.00035179,0,0,0.052936,-0.026495,0,-0.005488,0,0,0,0.0093413,-0.0008665,0.0025424,-1.9762,0.0036724,0.0090012,2.0159e-08,0.66,0.72,0
0.033891,-0.0028763,0.0093049,-0.00072703,0.0025734,-0.00043665,0,0,0.052506,-0.025743,0,-0.0068118,0,0,0,0.0093239,-0.000746,0.0025734,-2.4876,0.0037171,0.008888,1.9844e-08,0.68,0.72,0
0.034937,-0.0030537,0.0092808,-0.00057853,0.0026107,-0.00049998,0,0,0.052027,-0.024876,0,-0.0077998,0,0,0,0.009306,-0.00060382,0.0026107,-2.8957,0.003771,0.0087569,1.9481e-08,0.7,0.72,0
0.035972,-0.0032502,0.0092591,-0.00041857,0.0026521,-0.00053993,0,0,0.051534,-0.023952,0,-0.008423,0,0,0,0.0092891,-0.0004486,0.0026521,-3.1835,0.0038309,0.0086165,1.9091e-08,0.72,0.72,0
0.036998,-0.0034585,0.0092424,-0.00025668,0.0026957,-0.00055679,0,0,0.051064,-0.023029,0,-0.0086859,0,0,0,0.009275,-0.0002892,0.0026957,-3.3431,0.0038938,0.0084755,1.8699e-08,0.74,0.72,0
0.038015,-0.0036719,0.0092327,-0.00010107,0.0027395,-0.00055266,0,0,0.050647,-0.022156,0,-0.0086215,0,0,0,0.0092653,-0.00013368,0.0027395,-3.3768,0.0039571,0.0083421,1.8332e-08,0.76,0.72,0
0.039024,-0.0038839,0.009231,4.2045e-05,0.0027819,-0.00053094,0,0,0.050303,-0.021371,0,-0.0082827,0,0,0,0.0092616,1.1469e-05,0.0027819,-3.2959,0.0040183,0.0082227,1.8011e-08,0.78,0.72,0
0.040027,-0.0040892,0.0092375,0.00016868,0.0028218,-0.00049559,0,0,0.050042,-0.020695,0,-0.0077312,0,0,0,0.0092645,0.00014168,0.0028218,-3.1187,0.004076,0.0081215,1.7751e-08,0.8,0.72,0
0.041026,-0.0042832,0.0092514,0.00027688,0.0028585,-0.00045063,0,0,0.049865,-0.020137,0,-0.0070298,0,0,0,0.009274,0.00025431,0.0028585,-2.8673,0.0041289,0.0080403,1.756e-08,0.82,0.72,0
0.042022,-0.0044624,0.0092714,0.00036635,0.0028913,-0.00039969,0,0,0.049765,-0.019695,0,-0.0062353,0,0,0,0.0092893,0.00034845,0.0028913,-2.5648,0.0041764,0.0079793,1.7438e-08,0.84,0.72,0
0.043016,-0.004624,0.0092956,0.00043802,0.0029201,-0.00034583,0,0,0.049729,-0.01936,0,-0.0053949,0,0,0,0.0093091,0.00042454,0.0029201,-2.2325,0.0042179,0.0079367,1.7379e-08,0.86,0.72,0
0.044011,-0.0047662,0.0093221,0.00049364,0.0029447,-0.00029136,0,0,0.049744,-0.019118,0,-0.0045452,0,0,0,0.0093317,0.00048403,0.0029447,-1.8882,0.0042535,0.0079098,1.737e-08,0.88,0.72,0
0.045006,-0.0048877,0.0093486,0.0005354,0.0029652,-0.0002379,0,0,0.049791,-0.018953,0,-0.0037113,0,0,0,0.0093551,0.00052899,0.0029652,-1.5451,0.0042831,0.0078951,1.7399e-08,0.9,0.72,0
0.046003,-0.0049877,0.0093734,0.00056564,0.0029817,-0.00018639,0,0,0.049855,-0.018845,0,-0.0029076,0,0,0,0.0093773,0.0005617,0.0029817,-1.2118,0.0043069,0.0078891,1.7449e-08,0.92,0.72,0
0.047,-0.0050657,0.0093945,0.00058655,0.0029943,-0.00013715,0,0,0.049922,-0.018781,0,-0.0021396,0,0,0,0.0093966,0.00058442,0.0029943,-0.8919,0.0043251,0.0078884,1.7505e-08,0.94,0.72,0
0.047999,-0.0051214,0.0094107,0.00060004,0.0030032,-9.006e-05,0,0,0.049978,-0.018745,0,-0.0014049,0,0,0,0.0094116,0.00059912,0.0030032,-0.58558,0.004338,0.0078901,1.7556e-08,0.96,0.72,0
0.048999,-0.005155,0.0094208,0.00060753,0.0030085,-4.4593e-05,0,0,0.050016,-0.018728,0,-0.00069565,0,0,0,0.009421,0.0006073,0.0030085,-0.28989,0.0043456,0.007892,1.759e-08,0.98,0.72,0
0.05,-0.0051661,0.0094242,0.00060992,0.0030102,-3.5795e-05,0,0,0.050029,-0.018722,0,-0.0005584,0,0,0,0.0094244,0.00060978,0.0030102,-0.23267,0.0043481,0.0078931,1.7604e-08,1,0.72,0
0,0,0.0093418,0.0040036,0.0040036,-0.0015522,0,0,0.041638,4.3368e-19,0,-0.024214,0,0,0,0.0097603,0.0035851,0.0040036,-15.09,0.005783,0.005977,1.0785e-08,0,0.74,0
0.00083276,-0.00048429,0.0093211,0.003743,0.0039192,-0.0015421,0,0,0.042135,-0.0013747,0,-0.024056,0,0,0,0.009719,0.0033451,0.0039192,-14.469,0.0056611,0.0061072,1.1351e-08,0.02,0.74,0
0.0016854,-0.00095124,0.0094063,0.0035108,0.0038751,-0.0014965,0,0,0.043143,-0.0028414,0,-0.023345,0,0,0,0.0097644,0.0031528,0.0038751,-13.458,0.0055974,0.0062816,1.2165e-08,0.04,0.74,0
0.0025585,-0.0013981,0.009489,0.0032689,0.0038274,-0.0014379,0,0,0.044161,-0.0043559,0,-0.022431,0,0,0,0.0098053,0.0029526,0.0038274,-12.407,0.0055284,0.0064599,1.2993e-08,0.06,0.74,0
0.0034518,-0.0018217,0.0095658,0.003024,0.0037769,-0.0013658,0,0,0.045153,-0.0058727,0,-0.021306,0,0,0,0.0098395,0.0027503,0.0037769,-11.332,0.0054556,0.0066356,1.3803e-08,0.08,0.74,0
0.0043646,-0.0022189,0.0096333,0.0027825,0.0037247,-0.0012804,0,0,0.046087,-0.0073492,0,-0.019974,0,0,0,0.0098647,0.0025511,0.0037247,-10.248,0.0053802,0.0068032,1.4563e-08,0.1,0.74,0
0.0052953,-0.0025865,0.0096888,0.0025498,0.0036716,-0.001183,0,0,0.046934,-0.0087498,0,-0.018455,0,0,0,0.0098798,0.0023589,0.0036716,-9.1681,0.0053034,0.006958,1.5246e-08,0.12,0.74,0
0.006242,-0.0029219,0.0097307,0.0023299,0.0036182,-0.0010755,0,0,0.047678,-0.010048,0,-0.016778,0,0,0,0.0098838,0.0021768,0.0036182,-8.1034,0.0052263,0.007097,1.5836e-08,0.14,0.74,0
0.0072024,-0.0032227,0.009758,0.0021253,0.003565,-0.00096017,0,0,0.048306,-0.011229,0,-0.014979,0,0,0,0.009877,0.0020064,0.003565,-7.0611,0.0051495,0.0072186,1.6324e-08,0.16,0.74,0
0.0081742,-0.003487,0.0097707,0.001937,0.0035123,-0.00083909,0,0,0.048816,-0.012287,0,-0.01309,0,0,0,0.0098596,0.0018482,0.0035123,-6.0457,0.0050734,0.0073226,1.6708e-08,0.18,0.74,0
0.009155,-0.0037136,0.0097697,0.0017647,0.0034603,-0.00071433,0,0,0.049213,-0.013226,0,-0.011144,0,0,0,0.0098329,0.0017014,0.0034603,-5.0595,0.0049982,0.0074103,1.6996e-08,0.2,0.74,0
0.010143,-0.0039017,0.0097562,0.0016068,0.0034089,-0.00058763,0,0,0.049509,-0.014056,0,-0.009167,0,0,0,0.0097984,0.0015646,0.0034089,-4.1031,0.004924,0.007484,1.7201e-08,0.22,0.74,0
0.011135,-0.004051,0.0097322,0.0014611,0.003358,-0.00046045,0,0,0.049718,-0.014795,0,-0.007183,0,0,0,0.0097577,0.0014356,0.003358,-3.1766,0.0048504,0.0075468,1.7341e-08,0.24,0.74,0
0.012131,-0.0041617,0.0096997,0.0013248,0.0033074,-0.00033406,0,0,0.049861,-0.015464,0,-0.0052114,0,0,0,0.009713,0.0013115,0.0033074,-2.2806,0.0047773,0.0076027,1.7435e-08,0.26,0.74,0
0.01313,-0.0042345,0.0096614,0.0011944,0.0032567,-0.00020967,0,0,0.049956,-0.016086,0,-0.0032709,0,0,0,0.0096666,0.0011892,0.0032567,-1.4177,0.0047041,0.007656,1.7506e-08,0.28,0.74,0
0.01413,-0.0042706,0.0096196,0.0010664,0.0032058,-8.8539e-05,0,0,0.050028,-0.016688,0,-0.0013812,0,0,0,0.0096205,0.0010655,0.0032058,-0.59301,0.0046306,0.007711,1.7574e-08,0.3,0.74,0
0.015131,-0.0042716,0.009577,0.00093734,0.0031543,2.7854e-05,0,0,0.050097,-0.017292,0,0.00043452,0,0,0,0.0095771,0.00093725,0.0031543,0.18472,0.0045562,0.0077722,1.7662e-08,0.32,0.74,0
0.016134,-0.0042397,0.009536,0.00080404,0.003102,0.00013769,0,0,0.050185,-0.017924,0,0.002148,0,0,0,0.0095382,0.00080187,0.003102,0.90317,0.0044807,0.0078434,1.7785e-08,0.34,0.74,0
0.017138,-0.0041779,0.0094989,0.00066378,0.0030488,0.00023874,0,0,0.050311,-0.018603,0,0.0037244,0,0,0,0.0095053,0.00065733,0.0030488,1.5467,0.0044038,0.0079276,1.7957e-08,0.36,0.74,0
0.018146,-0.0040897,0.0094676,0.00051474,0.0029947,0.00032835,0,0,0.050489,-0.019344,0,0.0051222,0,0,0,0.0094796,0.00050272,0.0029947,2.0976,0.0043257,0.0080265,1.8183e-08,0.38,0.74,0
0.019158,-0.0039796,0.0094435,0.00035625,0.0029399,0.00040349,0,0,0.050728,-0.020153,0,0.0062944,0,0,0,0.0094614,0.00033837,0.0029399,2.5373,0.0042466,0.0081402,1.8464e-08,0.4,0.74,0
0.020175,-0.0038528,0.0094273,0.00018909,0.0028849,0.00046095,0,0,0.051031,-0.021028,0,0.0071909,0,0,0,0.0094503,0.00016615,0.0028849,2.8494,0.0041671,0.0082671,1.8792e-08,0.42,0.74,0
0.021199,-0.0037151,0.009419,1.5732e-05,0.0028304,0.00049766,0,0,0.051391,-0.021954,0,0.0077635,0,0,0,0.0094453,-1.0533e-05,0.0028304,3.0211,0.0040884,0.0084035,1.9152e-08,0.44,0.74,0
0.022231,-0.0035732,0.0094176,-0.00015959,0.0027774,0.00051105,0,0,0.051794,-0.022909,0,0.0079723,0,0,0,0.0094448,-0.00018678,0.0027774,3.0458,0.0040118,0.0085442,1.9524e-08,0.46,0.74,0
0.023271,-0.0034342,0.0094216,-0.00033108,0.0027271,0.00049951,0,0,0.052216,-0.023854,0,0.0077924,0,0,0,0.0094471,-0.00035659,0.0027271,2.9244,0.0039392,0.0086827,1.9884e-08,0.48,0.74,0
0.024319,-0.0033052,0.0094287,-0.00049186,0.002681,0.00046284,0,0,0.052632,-0.024749,0,0.0072203,0,0,0,0.0094502,-0.00051341,0.002681,2.6654,0.0038726,0.008812,2.0212e-08,0.5,0.74,0
0.025376,-0.0031931,0.0094366,-0.00063475,0.0026406,0.00040237,0,0,0.053009,-0.025547,0,0.006277,0,0,0,0.0094526,-0.0006508,0.0026406,2.2842,0.0038141,0.0089251,2.0486e-08,0.52,0.74,0
0.02644,-0.0031042,0.0094429,-0.00075304,0.0026069,0.00032102,0,0,0.05332,-0.026208,0,0.0050078,0,0,0,0.009453,-0.00076314,0.0026069,1.8016,0.0037656,0.0090165,2.0692e-08,0.54,0.74,0
0.027509,-0.0030437,0.0094457,-0.00084126,0.0025813,0.00022297,0,0,0.053542,-0.026696,0,0.0034783,0,0,0,0.0094505,-0.00084609,0.0025813,1.2411,0.0037286,0.0090816,2.0822e-08,0.56,0.74,0
0.028581,-0.0030156,0.0094434,-0.00089555,0.0025644,0.00011336,0,0,0.053657,-0.026987,0,0.0017683,0,0,0,0.0094447,-0.00089679,0.0025644,0.62809,0.0037041,0.0091177,2.0871e-08,0.58,0.74,0
0.029655,-0.0030223,0.0094353,-0.00091386,0.0025564,-2.1726e-06,0,0,0.053655,-0.027068,0,-3.3892e-05,0,0,0,0.0094353,-0.00091386,0.0025564,-0.012028,0.0036926,0.0091232,2.084e-08,0.6,0.74,0
0.030728,-0.0030645,0.0094211,-0.00089602,0.0025575,-0.00011774,0,0,0.053536,-0.026937,0,-0.0018367,0,0,0,0.0094224,-0.00089737,0.0025575,-0.65374,0.0036942,0.0090984,2.0729e-08,0.62,0.74,0
0.031797,-0.0031414,0.009401,-0.00084378,0.0025672,-0.00022754,0,0,0.053304,-0.026606,0,-0.0035496,0,0,0,0.0094061,-0.00084883,0.0025672,-1.2717,0.0037081,0.0090444,2.0541e-08,0.64,0.74,0
0.03286,-0.0032506,0.0093763,-0.00076079,0.0025847,-0.0003262,0,0,0.052975,-0.026094,0,-0.0050888,0,0,0,0.0093868,-0.00077128,0.0025847,-1.8412,0.0037334,0.0089643,2.0284e-08,0.66,0.74,0
0.033916,-0.0033883,0.0093486,-0.00065256,0.0026088,-0.00040918,0,0,0.05257,-0.025439,0,-0.0063833,0,0,0,0.0093653,-0.00066927,0.0026088,-2.339,0.0037683,0.0088625,1.9967e-08,0.68,0.74,0
0.034963,-0.0035495,0.0093199,-0.00052599,0.0026382,-0.00047319,0,0,0.052117,-0.02468,0,-0.0073818,0,0,0,0.0093425,-0.00054868,0.0026382,-2.7452,0.0038107,0.0087448,1.9605e-08,0.7,0.74,0
0.036,-0.0037286,0.0092926,-0.00038878,0.0026711,-0.00051652,0,0,0.051647,-0.023867,0,-0.0080576,0,0,0,0.00932,-0.00041625,0.0026711,-3.0453,0.0038583,0.0086179,1.9217e-08,0.72,0.74,0
0.037028,-0.0039195,0.0092689,-0.0002485,0.0027061,-0.00053907,0,0,0.051189,-0.023046,0,-0.0084095,0,0,0,0.0092993,-0.00027893,0.0027061,-3.2315,0.0039088,0.0084889,1.8825e-08,0.74,0.74,0
0.038048,-0.0041163,0.0092506,-0.00011188,0.0027416,-0.00054224,0,0,0.05077,-0.022257,0,-0.008459,0,0,0,0.0092819,-0.00014318,0.0027416,-3.3037,0.0039601,0.0083645,1.8449e-08,0.76,0.74,0
0.039059,-0.0043132,0.0092389,1.5739e-05,0.0027764,-0.0005285,0,0,0.050408,-0.021533,0,-0.0082445,0,0,0,0.0092691,-1.4446e-05,0.0027764,-3.2688,0.0040104,0.0082501,1.8109e-08,0.78,0.74,0
0.040064,-0.0045053,0.0092343,0.00013066,0.0028095,-0.00050091,0,0,0.050113,-0.020895,0,-0.0078142,0,0,0,0.0092617,0.00010318,0.0028095,-3.14,0.0040581,0.0081497,1.7818e-08,0.8,0.74,0
0.041064,-0.0046882,0.0092363,0.00023078,0.0028401,-0.00046275,0,0,0.04989,-0.020353,0,-0.0072189,0,0,0,0.00926,0.00020706,0.0028401,-2.9339,0.0041024,0.0080655,1.7584e-08,0.82,0.74,0
0.04206,-0.0048585,0.0092441,0.00031534,0.0028678,-0.00041712,0,0,0.049735,-0.01991,0,-0.0065071,0,0,0,0.0092636,0.0002959,0.0028678,-2.6689,0.0041424,0.0079981,1.7409e-08,0.84,0.74,0
0.043053,-0.0050132,0.0092564,0.00038469,0.0028923,-0.00036674,0,0,0.04964,-0.01956,0,-0.0057212,0,0,0,0.0092716,0.00036955,0.0028923,-2.3631,0.0041778,0.0079468,1.729e-08,0.86,0.74,0
0.044045,-0.0051502,0.0092716,0.00043991,0.0029135,-0.00031382,0,0,0.049594,-0.019294,0,-0.0048956,0,0,0,0.0092827,0.00042877,0.0029135,-2.0325,0.0042083,0.0079099,1.7219e-08,0.88,0.74,0
0.045037,-0.005268,0.009288,0.00048255,0.0029312,-0.00026,0,0,0.049583,-0.019099,0,-0.004056,0,0,0,0.0092957,0.00047488,0.0029312,-1.6898,0.0042339,0.007885,1.7187e-08,0.9,0.74,0
0.046029,-0.0053655,0.009304,0.00051436,0.0029455,-0.00020637,0,0,0.049596,-0.018963,0,-0.0032193,0,0,0,0.0093088,0.00050951,0.0029455,-1.3442,0.0042546,0.0078693,1.7181e-08,0.92,0.74,0
0.047021,-0.0054419,0.009318,0.00053702,0.0029565,-0.00015352,0,0,0.04962,-0.018872,0,-0.0023949,0,0,0,0.0093207,0.00053434,0.0029565,-1.0013,0.0042705,0.0078604,1.7191e-08,0.94,0.74,0
0.048014,-0.0054967,0.009329,0.00055203,0.0029643,-0.00010164,0,0,0.049645,-0.018816,0,-0.0015856,0,0,0,0.0093302,0.00055086,0.0029643,-0.66339,0.0042818,0.0078557,1.7206e-08,0.96,0.74,0
0.049007,-0.0055297,0.009336,0.00056056,0.002969,-5.0587e-05,0,0,0.049663,-0.018786,0,-0.00078916,0,0,0,0.0093363,0.00056027,0.002969,-0.33028,0.0042885,0.0078537,1.7218e-08,0.98,0.74,0
0.05,-0.0055407,0.0093383,0.00056332,0.0029705,-3.5307e-05,0,0,0.049669,-0.018776,0,-0.00055078,0,0,0,0.0093385,0.00056317,0.0029705,-0.23053,0.0042907,0.0078534,1.7224e-08,1,0.74,0
0,0,0.0092869,0.0039801,0.0039801,-0.0016425,0,0,0.041393,2.1684e-19,0,-0.025622,0,0,0,0.0097541,0.0035129,0.0039801,-15.879,0.005749,0.0060212,1.0984e-08,0,0.76,0
0.00082786,-0.00051245,0.0092652,0.0037047,0.003891,-0.0016313,0,0,0.041919,-0.0014528,0,-0.025449,0,0,0,0.0097085,0.0032614,0.003891,-15.201,0.0056203,0.0061565,1.1563e-08,0.02,0.76,0
0.0016768,-0.0010095,0.0093551,0.0034579,0.0038439,-0.0015853,0,0,0.042988,-0.003011,0,-0.024731,0,0,0,0.0097543,0.0030587,0.0038439,-14.132,0.0055523,0.0063396,1.2412e-08,0.04,0.76,0
0.0025474,-0.0014875,0.0094424,0.0032,0.0037927,-0.0015222,0,0,0.044068,-0.0046234,0,-0.023746,0,0,0,0.0097938,0.0028486,0.0037927,-12.999,0.0054784,0.0065246,1.3264e-08,0.06,0.76,0
0.0034395,-0.0019423,0.009523,0.0029393,0.0037387,-0.0014415,0,0,0.045118,-0.0062355,0,-0.022488,0,0,0,0.0098248,0.0026375,0.0037387,-11.824,0.0054003,0.0067049,1.4084e-08,0.08,0.76,0
0.0043521,-0.0023698,0.0095933,0.0026834,0.003683,-0.0013443,0,0,0.0461,-0.007797,0,-0.020971,0,0,0,0.0098456,0.0024311,0.003683,-10.63,0.0053199,0.0068746,1.4838e-08,0.1,0.76,0
0.0052835,-0.0027661,0.0096503,0.0024387,0.0036267,-0.0012328,0,0,0.046984,-0.0092667,0,-0.019231,0,0,0,0.0098552,0.0022337,0.0036267,-9.4374,0.0052386,0.0070293,1.5504e-08,0.12,0.76,0
0.0062315,-0.003128,0.0096925,0.0022095,0.0035706,-0.00111,0,0,0.047751,-0.010616,0,-0.017316,0,0,0,0.0098537,0.0020484,0.0035706,-8.2621,0.0051576,0.0071665,1.6066e-08,0.14,0.76,0
0.0071935,-0.0034527,0.0097192,0.0019986,0.0035153,-0.00097917,0,0,0.04839,-0.011831,0,-0.015275,0,0,0,0.0098414,0.0018763,0.0035153,-7.1164,0.0050777,0.0072853,1.6521e-08,0.16,0.76,0
0.0081671,-0.0037384,0.009731,0.0018064,0.0034612,-0.00084341,0,0,0.048904,-0.012907,0,-0.013157,0,0,0,0.0098197,0.0017177,0.0034612,-6.0084,0.0049995,0.0073863,1.6873e-08,0.18,0.76,0
0.0091497,-0.0039839,0.009729,0.0016324,0.0034084,-0.00070543,0,0,0.0493,-0.013853,0,-0.011005,0,0,0,0.00979,0.0015714,0.0034084,-4.9424,0.0049233,0.0074714,1.7134e-08,0.2,0.76,0
0.010139,-0.0041887,0.0097152,0.0014747,0.003357,-0.00056745,0,0,0.049595,-0.014682,0,-0.0088523,0,0,0,0.0097541,0.0014358,0.003357,-3.9208,0.004849,0.0075435,1.732e-08,0.22,0.76,0
0.011133,-0.0043528,0.0096919,0.0013305,0.0033067,-0.00043127,0,0,0.049805,-0.015414,0,-0.0067279,0,0,0,0.0097141,0.0013083,0.0033067,-2.9448,0.0047764,0.0076061,1.745e-08,0.24,0.76,0
0.012131,-0.0044769,0.0096615,0.0011968,0.0032575,-0.00029835,0,0,0.049951,-0.016073,0,-0.0046542,0,0,0,0.009672,0.0011863,0.0032575,-2.0161,0.0047053,0.007663,1.7545e-08,0.26,0.76,0
0.013132,-0.0045621,0.0096265,0.0010703,0.003209,-0.00016996,0,0,0.050056,-0.016682,0,-0.0026513,0,0,0,0.0096299,0.0010669,0.003209,-1.1375,0.0046353,0.0077182,1.7625e-08,0.28,0.76,0
0.014134,-0.0046101,0.0095895,0.0009474,0.0031611,-4.7371e-05,0,0,0.050142,-0.017267,0,-0.00073899,0,0,0,0.0095897,0.00094714,0.0031611,-0.31405,0.004566,0.0077757,1.771e-08,0.3,0.76,0
0.015137,-0.004623,0.0095528,0.00082498,0.0031133,6.8015e-05,0,0,0.050228,-0.017849,0,0.001061,0,0,0,0.0095533,0.00082445,0.0031133,0.44646,0.004497,0.0078392,1.7816e-08,0.32,0.76,0
0.016143,-0.0046036,0.0095186,0.00070014,0.0030656,0.00017457,0,0,0.050333,-0.018451,0,0.0027233,0,0,0,0.009522,0.00069668,0.0030656,1.1336,0.0044281,0.0079115,1.7956e-08,0.34,0.76,0
0.01715,-0.004555,0.0094888,0.0005706,0.0030178,0.00027037,0,0,0.050473,-0.019088,0,0.0042178,0,0,0,0.009497,0.00056241,0.0030178,1.7349,0.0043591,0.0079948,1.8141e-08,0.36,0.76,0
0.018162,-0.0044812,0.0094649,0.0004349,0.0029699,0.00035319,0,0,0.05066,-0.019773,0,0.0055097,0,0,0,0.0094787,0.0004211,0.0029699,2.2365,0.0042899,0.0080901,1.8372e-08,0.38,0.76,0
0.019177,-0.0043866,0.0094478,0.00029262,0.0029221,0.0004206,0,0,0.0509,-0.02051,0,0.0065613,0,0,0,0.0094671,0.00027334,0.0029221,2.6248,0.0042209,0.0081969,1.8649e-08,0.4,0.76,0
0.020198,-0.0042763,0.009438,0.00014459,0.0028748,0.0004701,0,0,0.051193,-0.021295,0,0.0073336,0,0,0,0.0094617,0.00012088,0.0028748,2.8885,0.0041525,0.0083134,1.8962e-08,0.42,0.76,0
0.021225,-0.0041561,0.0094351,-7.0026e-06,0.0028284,0.00049943,0,0,0.051532,-0.022116,0,0.0077911,0,0,0,0.0094614,-3.3346e-05,0.0028284,3.0194,0.0040855,0.0084362,1.93e-08,0.44,0.76,0
0.022259,-0.0040321,0.0094381,-0.00015865,0.0027838,0.00050679,0,0,0.051903,-0.022951,0,0.0079059,0,0,0,0.0094647,-0.00018533,0.0027838,3.0145,0.0040211,0.0085608,1.9644e-08,0.46,0.76,0
0.023301,-0.0039107,0.0094453,-0.00030566,0.0027419,0.00049125,0,0,0.052287,-0.023771,0,0.0076635,0,0,0,0.00947,-0.00033034,0.0027419,2.8768,0.0039605,0.008682,1.9975e-08,0.48,0.76,0
0.02435,-0.0037983,0.0094548,-0.00044259,0.0027037,0.00045296,0,0,0.052659,-0.024541,0,0.0070661,0,0,0,0.0094755,-0.00046328,0.0027037,2.6149,0.0039053,0.008794,2.0274e-08,0.5,0.76,0
0.025407,-0.003701,0.0094644,-0.00056377,0.0026702,0.00039332,0,0,0.052995,-0.025225,0,0.0061359,0,0,0,0.0094798,-0.00057917,0.0026702,2.2426,0.003857,0.0088914,2.0525e-08,0.52,0.76,0
0.02647,-0.0036243,0.009472,-0.00066387,0.0026424,0.000315,0,0,0.05327,-0.025789,0,0.004914,0,0,0,0.0094817,-0.00067364,0.0026424,1.7784,0.0038168,0.0089695,2.0714e-08,0.54,0.76,0
0.027538,-0.0035728,0.0094755,-0.00073843,0.0026211,0.00022172,0,0,0.053464,-0.026205,0,0.0034589,0,0,0,0.0094804,-0.00074325,0.0026211,1.243,0.0037861,0.0090247,2.0832e-08,0.56,0.76,0
0.028609,-0.0035501,0.0094738,-0.00078429,0.0026068,0.00011803,0,0,0.053562,-0.026451,0,0.0018413,0,0,0,0.0094751,-0.00078565,0.0026068,0.65914,0.0037655,0.0090545,2.0875e-08,0.58,0.76,0
0.02968,-0.0035582,0.0094658,-0.00079973,0.0025998,8.9911e-06,0,0,0.053555,-0.026516,0,0.00014026,0,0,0,0.0094658,-0.00079974,0.0025998,0.050183,0.0037553,0.0090576,2.0839e-08,0.6,0.76,0
0.030751,-0.0035979,0.0094514,-0.00078465,0.0026,-0.00010013,0,0,0.053441,-0.0264,0,-0.0015621,0,0,0,0.0094524,-0.00078562,0.0026,-0.56042,0.0037556,0.0090342,2.0728e-08,0.62,0.76,0
0.031818,-0.0036687,0.0094309,-0.00074055,0.0026071,-0.00020418,0,0,0.053226,-0.026112,0,-0.0031853,0,0,0,0.009435,-0.00074465,0.0026071,-1.1496,0.0037658,0.0089855,2.0544e-08,0.64,0.76,0
0.03288,-0.0037684,0.0094053,-0.00067055,0.0026204,-0.00029843,0,0,0.052922,-0.02567,0,-0.0046555,0,0,0,0.0094141,-0.00067938,0.0026204,-1.695,0.0037851,0.0089141,2.0293e-08,0.66,0.76,0
0.033935,-0.0038938,0.0093762,-0.00057914,0.0026391,-0.0003789,0,0,0.052549,-0.025102,0,-0.0059108,0,0,0,0.0093906,-0.00059354,0.0026391,-2.1765,0.003812,0.0088237,1.9987e-08,0.68,0.76,0
0.034982,-0.004041,0.0093454,-0.00047188,0.0026621,-0.00044268,0,0,0.05213,-0.024445,0,-0.0069058,0,0,0,0.0093653,-0.0004918,0.0026621,-2.5766,0.0038452,0.008719,1.9639e-08,0.7,0.76,0
0.03602,-0.0042049,0.009315,-0.00035488,0.002688,-0.00048813,0,0,0.05169,-0.023735,0,-0.0076148,0,0,0,0.0093396,-0.00037946,0.002688,-2.8825,0.0038827,0.0086056,1.9266e-08,0.72,0.76,0
0.037049,-0.0043803,0.009287,-0.00023424,0.0027158,-0.0005149,0,0,0.051255,-0.02301,0,-0.0080324,0,0,0,0.0093147,-0.000262,0.0027158,-3.0865,0.0039229,0.008489,1.8884e-08,0.74,0.76,0
0.03807,-0.0045622,0.009263,-0.00011545,0.0027443,-0.00052383,0,0,0.050846,-0.022306,0,-0.0081718,0,0,0,0.0092922,-0.00014462,0.0027443,-3.187,0.0039639,0.0083748,1.8513e-08,0.76,0.76,0
0.039083,-0.0047453,0.0092443,-3.0374e-06,0.0027724,-0.00051669,0,0,0.050481,-0.021648,0,-0.0080604,0,0,0,0.0092731,-3.1817e-05,0.0027724,-3.1881,0.0040046,0.0082676,1.8168e-08,0.78,0.76,0
0.04009,-0.004925,0.0092315,9.9683e-05,0.0027993,-0.00049583,0,0,0.05017,-0.021057,0,-0.0077349,0,0,0,0.0092583,7.284e-05,0.0027993,-3.0988,0.0040435,0.0081708,1.7862e-08,0.8,0.76,0
0.04109,-0.0050973,0.0092244,0.00019061,0.0028245,-0.00046387,0,0,0.049919,-0.020544,0,-0.0072363,0,0,0,0.0092482,0.00016686,0.0028245,-2.9317,0.0040799,0.0080869,1.7603e-08,0.82,0.76,0
0.042086,-0.0052588,0.0092227,0.00026877,0.0028474,-0.00042342,0,0,0.049727,-0.020114,0,-0.0066053,0,0,0,0.0092427,0.00024879,0.0028474,-2.7014,0.004113,0.0080169,1.7393e-08,0.84,0.76,0
0.043079,-0.0054064,0.0092254,0.00033406,0.0028678,-0.00037687,0,0,0.049589,-0.019763,0,-0.0058791,0,0,0,0.0092414,0.00031812,0.0028678,-2.4228,0.0041424,0.0079607,1.7233e-08,0.86,0.76,0
0.04407,-0.0055379,0.0092313,0.0003871,0.0028855,-0.00032626,0,0,0.049497,-0.019488,0,-0.0050896,0,0,0,0.0092434,0.00037508,0.0028855,-2.1098,0.004168,0.0079174,1.7118e-08,0.88,0.76,0
0.045059,-0.0056517,0.0092392,0.00042892,0.0029005,-0.0002732,0,0,0.049443,-0.019278,0,-0.0042619,0,0,0,0.0092477,0.00042046,0.0029005,-1.7744,0.0041895,0.0078854,1.704e-08,0.9,0.76,0
0.046048,-0.0057462,0.0092478,0.00046078,0.0029126,-0.00021888,0,0,0.049415,-0.019124,0,-0.0034146,0,0,0,0.0092533,0.00045533,0.0029126,-1.426,0.0042071,0.0078628,1.6992e-08,0.92,0.76,0
0.047036,-0.0058205,0.0092558,0.00048394,0.0029219,-0.00016409,0,0,0.049404,-0.019016,0,-0.0025598,0,0,0,0.0092589,0.00048087,0.0029219,-1.0713,0.0042206,0.0078476,1.6966e-08,0.94,0.76,0
0.048024,-0.0058741,0.0092624,0.00049957,0.0029286,-0.00010927,0,0,0.049404,-0.018946,0,-0.0017046,0,0,0,0.0092637,0.00049821,0.0029286,-0.71431,0.0042302,0.0078382,1.6953e-08,0.96,0.76,0
0.049012,-0.0059064,0.0092666,0.00050856,0.0029325,-5.4577e-05,0,0,0.049405,-0.018907,0,-0.0008514,0,0,0,0.0092669,0.00050822,0.0029325,-0.35703,0.0042359,0.0078331,1.6948e-08,0.98,0.76,0
0.05,-0.0059172,0.009268,0.00051149,0.0029339,-3.4578e-05,0,0,0.049407,-0.018895,0,-0.00053942,0,0,0,0.0092682,0.00051136,0.0029339,-0.22625,0.0042378,0.0078318,1.6948e-08,1,0.76,0
0,0,0.0092471,0.003963,0.003963,-0.0017385,0,0,0.041216,-2.1684e-19,0,-0.02712,0,0,0,0.0097678,0.0034424,0.003963,-16.673,0.0057244,0.0060818,1.1268e-08,0,0.78,0
0.00082431,-0.0005424,0.0092241,0.0036684,0.0038677,-0.0017263,0,0,0.04178,-0.0015552,0,-0.02693,0,0,0,0.0097168,0.0031756,0.0038677,-15.929,0.0055867,0.0062241,1.1869e-08,0.02,0.78,0
0.0016712,-0.0010717,0.0093201,0.0034021,0.0038167,-0.0016799,0,0,0.042926,-0.0032333,0,-0.026206,0,0,0,0.0097637,0.0029585,0.0038167,-14.792,0.0055129,0.0064192,1.2771e-08,0.04,0.78,0
0.0025414,-0.001583,0.0094129,0.0031235,0.0037609,-0.0016114,0,0,0.044085,-0.0049716,0,-0.025138,0,0,0,0.0098017,0.0027347,0.0037609,-13.566,0.0054324,0.0066139,1.3661e-08,0.06,0.78,0
0.0034346,-0.0020711,0.0094977,0.0028429,0.0037022,-0.0015207,0,0,0.045205,-0.0067025,0,-0.023724,0,0,0,0.0098287,0.0025118,0.0037022,-12.281,0.0053476,0.0068003,1.4497e-08,0.08,0.78,0
0.0043496,-0.0025308,0.0095703,0.0025696,0.003642,-0.0014099,0,0,0.046241,-0.0083643,0,-0.021994,0,0,0,0.0098436,0.0022964,0.003642,-10.97,0.0052606,0.0069725,1.5247e-08,0.1,0.78,0
0.0052842,-0.0029572,0.0096278,0.0023113,0.0035817,-0.0012825,0,0,0.047159,-0.0099094,0,-0.020006,0,0,0,0.0098461,0.002093,0.0035817,-9.6595,0.0051736,0.0071263,1.5887e-08,0.12,0.78,0
0.0062359,-0.0033466,0.0096686,0.0020727,0.0035224,-0.0011429,0,0,0.04794,-0.011308,0,-0.01783,0,0,0,0.0098369,0.0019045,0.0035224,-8.3742,0.0050879,0.00726,1.641e-08,0.14,0.78,0
0.0072019,-0.0036959,0.0096927,0.0018561,0.0034647,-0.00099584,0,0,0.048579,-0.012547,0,-0.015535,0,0,0,0.0098173,0.0017316,0.0034647,-7.13,0.0050045,0.0073736,1.6818e-08,0.16,0.78,0
0.0081791,-0.0040033,0.0097013,0.0016618,0.0034089,-0.00084525,0,0,0.04908,-0.013628,0,-0.013186,0,0,0,0.0097892,0.0015739,0.0034089,-5.9374,0.004924,0.0074688,1.7122e-08,0.18,0.78,0
0.0091651,-0.0042677,0.0096963,0.0014882,0.0033553,-0.00069452,0,0,0.049459,-0.014563,0,-0.010835,0,0,0,0.0097546,0.0014299,0.0033553,-4.8026,0.0048466,0.0075485,1.7339e-08,0.2,0.78,0
0.010157,-0.004489,0.0096801,0.001333,0.0033039,-0.00054625,0,0,0.049734,-0.015373,0,-0.0085215,0,0,0,0.0097157,0.0012974,0.0033039,-3.7283,0.0047723,0.0076159,1.749e-08,0.22,0.78,0
0.011154,-0.0046676,0.0096556,0.0011929,0.0032545,-0.00040239,0,0,0.049928,-0.016081,0,-0.0062773,0,0,0,0.0096746,0.0011738,0.0032545,-2.7162,0.004701,0.007675,1.7594e-08,0.24,0.78,0
0.012155,-0.0048046,0.0096253,0.0010644,0.0032069,-0.00026442,0,0,0.050063,-0.016711,0,-0.0041249,0,0,0,0.0096335,0.0010563,0.0032069,-1.7674,0.0046322,0.0077296,1.7674e-08,0.26,0.78,0
0.013157,-0.0049018,0.009592,0.00094424,0.0031609,-0.00013353,0,0,0.050163,-0.01729,0,-0.0020831,0,0,0,0.009594,0.00094218,0.0031609,-0.88444,0.0045657,0.0077834,1.7747e-08,0.28,0.78,0
0.014161,-0.0049612,0.009558,0.00082888,0.003116,-1.086e-05,0,0,0.050247,-0.01784,0,-0.00016941,0,0,0,0.009558,0.00082887,0.003116,-0.071282,0.004501,0.0078399,1.7831e-08,0.3,0.78,0
0.015167,-0.0049855,0.0095255,0.00071531,0.0030722,0.00010242,0,0,0.050335,-0.018384,0,0.0015977,0,0,0,0.0095267,0.00071411,0.0030722,0.66593,0.0044377,0.0079019,1.794e-08,0.32,0.78,0
0.016175,-0.0049777,0.0094964,0.00060089,0.0030292,0.00020495,0,0,0.050444,-0.018941,0,0.0031972,0,0,0,0.0095011,0.00059617,0.0030292,1.3191,0.0043755,0.0079719,1.8083e-08,0.34,0.78,0
0.017185,-0.0049414,0.0094722,0.00048366,0.0029867,0.00029517,0,0,0.050586,-0.019524,0,0.0046046,0,0,0,0.0094819,0.00047397,0.0029867,1.8788,0.0043142,0.0080512,1.8265e-08,0.36,0.78,0
0.018198,-0.0048807,0.009454,0.00036238,0.0029449,0.00037132,0,0,0.050771,-0.020144,0,0.0057925,0,0,0,0.0094691,0.00034724,0.0029449,2.3349,0.0042538,0.0081401,1.849e-08,0.38,0.78,0
0.019215,-0.0048,0.0094424,0.00023678,0.0029038,0.00043151,0,0,0.051001,-0.020802,0,0.0067316,0,0,0,0.0094626,0.0002166,0.0029038,2.6779,0.0041943,0.0082379,1.8752e-08,0.4,0.78,0
0.020238,-0.0047046,0.0094374,0.00010762,0.0028635,0.00047391,0,0,0.051276,-0.021496,0,0.007393,0,0,0,0.0094614,8.361e-05,0.0028635,2.9004,0.0041362,0.0083428,1.9043e-08,0.42,0.78,0
0.021267,-0.0045997,0.0094385,-2.3251e-05,0.0028246,0.00049688,0,0,0.051589,-0.022213,0,0.0077513,0,0,0,0.0094645,-4.9273e-05,0.0028246,2.9979,0.0040799,0.0084516,1.9353e-08,0.44,0.78,0
0.022302,-0.0044912,0.0094446,-0.00015294,0.0027875,0.00049927,0,0,0.051925,-0.022935,0,0.0077886,0,0,0,0.0094705,-0.00017885,0.0027875,2.9699,0.0040264,0.0085607,1.9666e-08,0.46,0.78,0
0.023343,-0.004385,0.0094541,-0.0002777,0.0027529,0.00048064,0,0,0.052269,-0.023639,0,0.007498,0,0,0,0.0094778,-0.00030138,0.0027529,2.8206,0.0039765,0.0086656,1.9965e-08,0.48,0.78,0
0.024392,-0.0042868,0.0094652,-0.00039321,0.0027216,0.00044144,0,0,0.0526,-0.024296,0,0.0068864,0,0,0,0.009485,-0.00041294,0.0027216,2.5587,0.0039312,0.0087618,2.0235e-08,0.5,0.78,0
0.025448,-0.0042021,0.0094759,-0.00049499,0.0026943,0.00038312,0,0,0.052897,-0.024876,0,0.0059767,0,0,0,0.0094906,-0.00050968,0.0026943,2.1972,0.0038917,0.0088448,2.046e-08,0.52,0.78,0
0.026508,-0.0041357,0.0094842,-0.00057881,0.0026716,0.00030814,0,0,0.053138,-0.025353,0,0.004807,0,0,0,0.0094936,-0.00058824,0.0026716,1.7523,0.003859,0.008911,2.063e-08,0.54,0.78,0
0.027573,-0.0040919,0.0094884,-0.00064114,0.0026542,0.00021984,0,0,0.053307,-0.025704,0,0.0034295,0,0,0,0.0094932,-0.00064591,0.0026542,1.2427,0.0038338,0.0089572,2.0736e-08,0.56,0.78,0
0.02864,-0.0040737,0.0094872,-0.00067941,0.0026423,0.00012227,0,0,0.05339,-0.02591,0,0.0019074,0,0,0,0.0094886,-0.00068088,0.0026423,0.68893,0.0038167,0.0089815,2.0772e-08,0.58,0.78,0
0.029709,-0.004083,0.0094798,-0.00069224,0.0026363,1.9898e-05,0,0,0.053379,-0.025962,0,0.0003104,0,0,0,0.0094798,-0.00069228,0.0026363,0.11208,0.0038079,0.0089829,2.0736e-08,0.6,0.78,0
0.030776,-0.0041205,0.0094659,-0.00067957,0.0026359,-8.2612e-05,0,0,0.053274,-0.025861,0,-0.0012887,0,0,0,0.0094666,-0.00068025,0.0026359,-0.46651,0.0038074,0.0089614,2.0629e-08,0.62,0.78,0
0.03184,-0.0041859,0.0094459,-0.00064267,0.002641,-0.00018071,0,0,0.053079,-0.025612,0,-0.0028191,0,0,0,0.0094491,-0.00064591,0.002641,-1.0259,0.0038147,0.0089181,2.0454e-08,0.64,0.78,0
0.032899,-0.0042774,0.0094207,-0.00058409,0.002651,-0.00027024,0,0,0.052804,-0.025233,0,-0.0042158,0,0,0,0.009428,-0.00059138,0.002651,-1.5461,0.0038292,0.0088552,2.0219e-08,0.66,0.78,0
0.033952,-0.0043924,0.0093916,-0.00050744,0.0026652,-0.00034771,0,0,0.052465,-0.024747,0,-0.0054243,0,0,0,0.0094038,-0.00051964,0.0026652,-2.0093,0.0038498,0.0087757,1.9932e-08,0.68,0.78,0
0.034997,-0.0045273,0.0093602,-0.00041719,0.0026829,-0.00041049,0,0,0.052083,-0.024181,0,-0.0064036,0,0,0,0.0093774,-0.0004344,0.0026829,-2.3998,0.0038753,0.0086835,1.9605e-08,0.7,0.78,0
0.036035,-0.004678,0.0093284,-0.00031822,0.0027031,-0.00045699,0,0,0.051678,-0.023566,0,-0.0071291,0,0,0,0.00935,-0.00033982,0.0027031,-2.7062,0.0039044,0.008583,1.9252e-08,0.72,0.78,0
0.037065,-0.00484,0.009298,-0.0002154,0.0027248,-0.00048668,0,0,0.051271,-0.022933,0,-0.0075922,0,0,0,0.0093228,-0.00024023,0.0027248,-2.921,0.0039358,0.0084787,1.8889e-08,0.74,0.78,0
0.038086,-0.0050085,0.0092704,-0.00011323,0.0027471,-0.0005,0,0,0.050881,-0.022311,0,-0.0077999,0,0,0,0.009297,-0.0001398,0.0027471,-3.0415,0.0039681,0.0083751,1.8531e-08,0.76,0.78,0
0.0391,-0.0051792,0.0092468,-1.5496e-05,0.0027694,-0.00049816,0,0,0.050524,-0.021722,0,-0.0077712,0,0,0,0.0092735,-4.2211e-05,0.0027694,-3.0697,0.0040002,0.0082762,1.8192e-08,0.78,0.78,0
0.040107,-0.0053476,0.009228,7.4895e-05,0.0027909,-0.00048295,0,0,0.050209,-0.021184,0,-0.007534,0,0,0,0.0092534,4.9483e-05,0.0027909,-3.012,0.0040312,0.0081851,1.7883e-08,0.8,0.78,0
0.041108,-0.00551,0.009214,0.00015598,0.002811,-0.00045646,0,0,0.049944,-0.020709,0,-0.0071208,0,0,0,0.009237,0.00013303,0.002811,-2.8776,0.0040603,0.0081039,1.7611e-08,0.82,0.78,0
0.042105,-0.005663,0.0092049,0.00022666,0.0028295,-0.00042087,0,0,0.049728,-0.020302,0,-0.0065655,0,0,0,0.0092246,0.00020697,0.0028295,-2.678,0.004087,0.0080341,1.7381e-08,0.84,0.78,0
0.043097,-0.0058037,0.0091999,0.0002866,0.002846,-0.00037823,0,0,0.049561,-0.019963,0,-0.0059004,0,0,0,0.009216,0.00027058,0.002846,-2.4255,0.0041108,0.0079759,1.7194e-08,0.86,0.78,0
0.044087,-0.0059297,0.0091984,0.00033607,0.0028603,-0.0003304,0,0,0.049437,-0.019689,0,-0.0051543,0,0,0,0.0092107,0.00032377,0.0028603,-2.1321,0.0041316,0.007929,1.7047e-08,0.88,0.78,0
0.045075,-0.0060391,0.0091993,0.00037569,0.0028725,-0.00027894,0,0,0.049349,-0.019475,0,-0.0043514,0,0,0,0.0092081,0.00036688,0.0028725,-1.8089,0.0041491,0.0078925,1.6937e-08,0.9,0.78,0
0.046061,-0.0061304,0.0092017,0.00040635,0.0028824,-0.00022507,0,0,0.04929,-0.019313,0,-0.003511,0,0,0,0.0092074,0.00040059,0.0028824,-1.4649,0.0041635,0.0078653,1.6859e-08,0.92,0.78,0
0.047046,-0.0062025,0.0092046,0.00042897,0.0028901,-0.0001697,0,0,0.049253,-0.019197,0,-0.0026474,0,0,0,0.0092079,0.00042569,0.0028901,-1.1074,0.0041745,0.0078459,1.6805e-08,0.94,0.78,0
0.048031,-0.0062546,0.0092073,0.00044442,0.0028955,-0.00011349,0,0,0.049232,-0.019119,0,-0.0017704,0,0,0,0.0092088,0.00044295,0.0028955,-0.74187,0.0041824,0.007833,1.6771e-08,0.96,0.78,0
0.049016,-0.006286,0.0092092,0.0004534,0.0028988,-5.6834e-05,0,0,0.049221,-0.019074,0,-0.00088661,0,0,0,0.0092096,0.00045303,0.0028988,-0.37189,0.0041871,0.0078258,1.6753e-08,0.98,0.78,0
0.05,-0.0062965,0.0092099,0.00045634,0.0028999,-3.3692e-05,0,0,0.049218,-0.01906,0,-0.0005256,0,0,0,0.00921,0.00045621,0.0028999,-0.22053,0.0041887,0.0078236,1.6748e-08,1,0.78,0
0,0,0.0092248,0.0039535,0.0039535,-0.0018418,0,0,0.041116,5.421e-19,0,-0.028733,0,0,0,0.0098046,0.0033737,0.0039535,-17.473,0.0057106,0.0061615,1.1656e-08,0,0.8,0
0.00082233,-0.00057466,0.0092001,0.0036343,0.0038503,-0.0018284,0,0,0.041728,-0.0016849,0,-0.028524,0,0,0,0.009747,0.0030874,0.0038503,-16.653,0.0055616,0.0063129,1.2287e-08,0.02,0.8,0
0.0016691,-0.0011389,0.0093033,0.003343,0.0037939,-0.0017814,0,0,0.042974,-0.0035172,0,-0.027789,0,0,0,0.0097951,0.0028512,0.0037939,-15.434,0.0054801,0.0065239,1.3263e-08,0.04,0.8,0
0.0025413,-0.0016864,0.0094024,0.0030378,0.0037321,-0.0017062,0,0,0.044228,-0.0054151,0,-0.026616,0,0,0,0.0098309,0.0026093,0.0037321,-14.099,0.0053907,0.0067308,1.4203e-08,0.06,0.8,0
0.0034383,-0.0022104,0.0094913,0.0027324,0.0036671,-0.0016032,0,0,0.045429,-0.0072907,0,-0.02501,0,0,0,0.0098523,0.0023714,0.0036671,-12.69,0.0052969,0.0069245,1.506e-08,0.08,0.8,0
0.0043584,-0.0027043,0.0095653,0.0024388,0.0036012,-0.0014759,0,0,0.04652,-0.009067,0,-0.023024,0,0,0,0.0098589,0.0021452,0.0036012,-11.25,0.0052018,0.0070985,1.5797e-08,0.1,0.8,0
0.0052991,-0.0031625,0.0096212,0.0021657,0.0035361,-0.00133,0,0,0.047464,-0.010689,0,-0.020748,0,0,0,0.0098513,0.0019355,0.0035361,-9.8178,0.0051076,0.0072493,1.6397e-08,0.12,0.8,0
0.006257,-0.0035803,0.009658,0.0019181,0.0034728,-0.0011718,0,0,0.048244,-0.012127,0,-0.01828,0,0,0,0.0098315,0.0017446,0.0034728,-8.4232,0.0050163,0.0073762,1.686e-08,0.14,0.8,0
0.0072288,-0.0039546,0.0096764,0.0016976,0.0034122,-0.0010074,0,0,0.048861,-0.013374,0,-0.015716,0,0,0,0.0098017,0.0015724,0.0034122,-7.0863,0.0049288,0.007481,1.7198e-08,0.16,0.8,0
0.0082114,-0.0042835,0.0096787,0.0015035,0.0033547,-0.00084192,0,0,0.049328,-0.014439,0,-0.013134,0,0,0,0.0097645,0.0014177,0.0033547,-5.8192,0.0048456,0.0075666,1.7431e-08,0.18,0.8,0
0.0092019,-0.0045665,0.0096677,0.0013331,0.0033003,-0.00067914,0,0,0.049666,-0.015344,0,-0.010595,0,0,0,0.0097227,0.0012782,0.0033003,-4.628,0.004767,0.007637,1.7584e-08,0.2,0.8,0
0.010198,-0.0048036,0.0096467,0.0011832,0.003249,-0.00052184,0,0,0.049902,-0.016113,0,-0.0081407,0,0,0,0.0096787,0.0011511,0.003249,-3.515,0.0046929,0.0076962,1.768e-08,0.22,0.8,0
0.011198,-0.004996,0.0096187,0.0010498,0.0032006,-0.0003719,0,0,0.050062,-0.016776,0,-0.0058016,0,0,0,0.0096348,0.0010337,0.0032006,-2.4805,0.004623,0.0077484,1.7742e-08,0.24,0.8,0
0.0122,-0.0051453,0.0095868,0.00092927,0.0031548,-0.00023059,0,0,0.050169,-0.017359,0,-0.0035972,0,0,0,0.0095929,0.00092313,0.0031548,-1.5246,0.004557,0.0077973,1.7791e-08,0.26,0.8,0
0.013205,-0.0052537,0.0095535,0.00081784,0.0031114,-9.8869e-05,0,0,0.050249,-0.01789,0,-0.0015424,0,0,0,0.0095546,0.00081672,0.0031114,-0.64836,0.0044942,0.0078464,1.7843e-08,0.28,0.8,0
0.01421,-0.0053237,0.0095212,0.00071216,0.00307,2.2439e-05,0,0,0.050319,-0.018391,0,0.00035004,0,0,0,0.0095212,0.00071211,0.00307,0.14594,0.0044345,0.0078987,1.7913e-08,0.3,0.8,0
0.015218,-0.0053584,0.0094917,0.00060932,0.0030303,0.00013247,0,0,0.050399,-0.018884,0,0.0020665,0,0,0,0.0094937,0.00060734,0.0030303,0.85422,0.0043771,0.0079565,1.8012e-08,0.32,0.8,0
0.016226,-0.0053612,0.0094666,0.00050689,0.002992,0.00023021,0,0,0.050501,-0.019384,0,0.0035913,0,0,0,0.0094725,0.00050098,0.002992,1.4709,0.0043218,0.0080215,1.8145e-08,0.34,0.8,0
0.017238,-0.005336,0.0094469,0.0004031,0.002955,0.00031452,0,0,0.050637,-0.019905,0,0.0049064,0,0,0,0.0094578,0.00039218,0.002955,1.9894,0.0042683,0.0080945,1.8317e-08,0.36,0.8,0
0.018252,-0.0052869,0.0094334,0.00029691,0.0029191,0.00038406,0,0,0.050812,-0.020453,0,0.0059914,0,0,0,0.0094495,0.00028079,0.0029191,2.4028,0.0042165,0.0081754,1.8527e-08,0.38,0.8,0
0.01927,-0.0052187,0.0094264,0.00018808,0.0028843,0.00043748,0,0,0.051028,-0.021031,0,0.0068247,0,0,0,0.009447,0.00016741,0.0028843,2.7052,0.0041662,0.0082632,1.877e-08,0.4,0.8,0
0.020293,-0.0051362,0.0094254,7.7259e-05,0.0028508,0.00047347,0,0,0.051282,-0.021634,0,0.007386,0,0,0,0.0094494,5.3341e-05,0.0028508,2.892,0.0041178,0.0083562,1.9037e-08,0.42,0.8,0
0.021321,-0.0050447,0.00943,-3.4023e-05,0.0028188,0.00049093,0,0,0.051567,-0.022252,0,0.0076585,0,0,0,0.0094554,-5.9421e-05,0.0028188,2.9615,0.0040716,0.0084516,1.9319e-08,0.44,0.8,0
0.022356,-0.0049495,0.0094388,-0.00014343,0.0027886,0.00048921,0,0,0.051871,-0.02287,0,0.0076317,0,0,0,0.0094637,-0.00016834,0.0027886,2.9151,0.004028,0.0085462,1.9601e-08,0.46,0.8,0
0.023396,-0.0048563,0.0094503,-0.00024798,0.0027607,0.00046824,0,0,0.052179,-0.023468,0,0.0073046,0,0,0,0.0094729,-0.00027053,0.0027607,2.7577,0.0039877,0.0086365,1.9871e-08,0.48,0.8,0
0.024443,-0.0047701,0.0094629,-0.00034425,0.0027356,0.00042869,0,0,0.052473,-0.024023,0,0.0066876,0,0,0,0.0094816,-0.00036295,0.0027356,2.4982,0.0039514,0.0087185,2.0114e-08,0.5,0.8,0
0.025495,-0.004696,0.0094747,-0.00042873,0.0027138,0.00037204,0,0,0.052735,-0.024512,0,0.0058038,0,0,0,0.0094886,-0.00044268,0.0027138,2.1484,0.0039199,0.008789,2.0317e-08,0.52,0.8,0
0.026552,-0.0046384,0.0094838,-0.00049809,0.0026957,0.00030056,0,0,0.052947,-0.024912,0,0.0046887,0,0,0,0.0094929,-0.00050713,0.0026957,1.7231,0.0038938,0.0088448,2.047e-08,0.54,0.8,0
0.027613,-0.004601,0.0094888,-0.00054954,0.0026818,0.00021728,0,0,0.053095,-0.025204,0,0.0033895,0,0,0,0.0094935,-0.00055424,0.0026818,1.2394,0.0038737,0.0088834,2.0565e-08,0.56,0.8,0
0.028676,-0.0045865,0.0094885,-0.00058105,0.0026722,0.00012577,0,0,0.053167,-0.025375,0,0.001962,0,0,0,0.00949,-0.00058262,0.0026722,0.71547,0.0038599,0.0089032,2.0597e-08,0.58,0.8,0
0.02974,-0.0045967,0.009482,-0.00059152,0.0026672,2.9991e-05,0,0,0.053156,-0.025418,0,0.00046785,0,0,0,0.0094821,-0.00059161,0.0026672,0.17058,0.0038526,0.0089035,2.0563e-08,0.6,0.8,0
0.030802,-0.0046324,0.0094693,-0.00058093,0.0026665,-6.5961e-05,0,0,0.053062,-0.02533,0,-0.001029,0,0,0,0.0094697,-0.00058137,0.0026665,-0.37602,0.0038516,0.0088842,2.0465e-08,0.62,0.8,0
0.031862,-0.0046932,0.0094505,-0.00055032,0.0026701,-0.00015809,0,0,0.052887,-0.025119,0,-0.0024662,0,0,0,0.009453,-0.00055282,0.0026701,-0.90541,0.0038567,0.0088462,2.0304e-08,0.64,0.8,0
0.032918,-0.0047777,0.0094264,-0.00050172,0.0026774,-0.00024274,0,0,0.052642,-0.024797,0,-0.0037867,0,0,0,0.0094323,-0.00050765,0.0026774,-1.3998,0.0038673,0.0087914,2.0088e-08,0.66,0.8,0
0.033968,-0.0048837,0.0093981,-0.00043804,0.002688,-0.00031681,0,0,0.052339,-0.024383,0,-0.0049422,0,0,0,0.0094083,-0.00044824,0.002688,-1.8429,0.0038827,0.0087221,1.9823e-08,0.68,0.8,0
0.035011,-0.0050082,0.0093671,-0.00036282,0.0027013,-0.00037792,0,0,0.051993,-0.0239,0,-0.0058956,0,0,0,0.0093818,-0.00037748,0.0027013,-2.221,0.0039019,0.0086415,1.9521e-08,0.7,0.8,0
0.036048,-0.0051475,0.009335,-0.00027993,0.0027165,-0.00042456,0,0,0.051624,-0.023372,0,-0.0066231,0,0,0,0.0093537,-0.00029864,0.0027165,-2.5234,0.0039239,0.0085531,1.9193e-08,0.72,0.8,0
0.037076,-0.0052977,0.0093033,-0.00019329,0.002733,-0.00045604,0,0,0.051248,-0.022825,0,-0.0071142,0,0,0,0.0093251,-0.00021514,0.002733,-2.743,0.0039477,0.0084606,1.8853e-08,0.74,0.8,0
0.038097,-0.0054546,0.0092734,-0.00010653,0.00275,-0.00047251,0,0,0.050882,-0.022281,0,-0.0073712,0,0,0,0.0092971,-0.00013028,0.00275,-2.8766,0.0039723,0.0083677,1.8513e-08,0.76,0.8,0
0.039112,-0.0056141,0.0092464,-2.2806e-05,0.0027671,-0.0004748,0,0,0.050539,-0.021761,0,-0.0074069,0,0,0,0.0092707,-4.7064e-05,0.0027671,-2.9247,0.0039969,0.0082776,1.8186e-08,0.78,0.8,0
0.040119,-0.0057724,0.0092231,5.5403e-05,0.0027836,-0.00046424,0,0,0.050229,-0.02128,0,-0.0072421,0,0,0,0.0092466,3.1955e-05,0.0027836,-2.8915,0.0040207,0.008193,1.788e-08,0.8,0.8,0
0.041121,-0.0059257,0.009204,0.00012632,0.0027991,-0.00044247,0,0,0.049958,-0.020848,0,-0.0069026,0,0,0,0.0092255,0.0001048,0.0027991,-2.784,0.0040431,0.0081162,1.7605e-08,0.82,0.8,0
0.042117,-0.0060708,0.009189,0.00018886,0.0028134,-0.0004113,0,0,0.04973,-0.020471,0,-0.0064162,0,0,0,0.0092078,0.0001701,0.0028134,-2.6111,0.0040637,0.0080484,1.7364e-08,0.84,0.8,0
0.04311,-0.0062049,0.0091779,0.00024254,0.0028261,-0.00037249,0,0,0.049544,-0.020152,0,-0.0058109,0,0,0,0.0091934,0.00022704,0.0028261,-2.383,0.0040822,0.0079904,1.7161e-08,0.86,0.8,0
0.044099,-0.0063255,0.0091702,0.00028738,0.0028373,-0.00032772,0,0,0.049397,-0.019889,0,-0.0051125,0,0,0,0.0091823,0.00027531,0.0028373,-2.1101,0.0040983,0.0079422,1.6994e-08,0.88,0.8,0
0.045086,-0.0064307,0.0091654,0.00032375,0.0028467,-0.00027845,0,0,0.049285,-0.019679,0,-0.0043439,0,0,0,0.0091741,0.00031499,0.0028467,-1.8021,0.004112,0.0079035,1.6862e-08,0.9,0.8,0
0.046071,-0.0065187,0.0091626,0.00035223,0.0028545,-0.00022592,0,0,0.049204,-0.019517,0,-0.0035243,0,0,0,0.0091684,0.00034644,0.0028545,-1.4679,0.0041231,0.0078735,1.6761e-08,0.92,0.8,0
0.047054,-0.0065884,0.0091613,0.00037348,0.0028604,-0.00017111,0,0,0.049147,-0.019398,0,-0.0026692,0,0,0,0.0091646,0.00037015,0.0028604,-1.115,0.0041317,0.0078513,1.6688e-08,0.94,0.8,0
0.048036,-0.0066388,0.0091608,0.00038812,0.0028647,-0.0001148,0,0,0.04911,-0.019317,0,-0.0017909,0,0,0,0.0091623,0.00038662,0.0028647,-0.74961,0.0041379,0.0078362,1.6639e-08,0.96,0.8,0
0.049018,-0.0066693,0.0091607,0.00039668,0.0028672,-5.7607e-05,0,0,0.049089,-0.01927,0,-0.00089867,0,0,0,0.0091611,0.0003963,0.0028672,-0.37659,0.0041415,0.0078275,1.661e-08,0.98,0.8,0
0.05,-0.0066795,0.0091607,0.0003995,0.0028681,-3.2721e-05,0,0,0.049083,-0.019255,0,-0.00051045,0,0,0,0.0091608,0.00039938,0.0028681,-0.21398,0.0041427,0.0078248,1.6602e-08,1,0.8,0
0,0,0.0092236,0.003953,0.003953,-0.0019545,0,0,0.041111,7.5894e-19,0,-0.03049,0,0,0,0.0098693,0.0033073,0.003953,-18.281,0.0057098,0.0062641,1.2173e-08,0,0.82,0
0.00082222,-0.0006098,0.0091967,0.003603,0.0038399,-0.0019394,0,0,0.041783,-0.001848,0,-0.030255,0,0,0,0.0098034,0.0029963,0.0038399,-17.369,0.0055465,0.0064269,1.2846e-08,0.02,0.82,0
0.0016713,-0.0012124,0.0093084,0.003279,0.0037762,-0.0018911,0,0,0.043151,-0.0038781,0,-0.029501,0,0,0,0.0098525,0.002735,0.0037762,-16.05,0.0054546,0.0066582,1.3918e-08,0.04,0.82,0
0.0025483,-0.0017996,0.0094141,0.0029399,0.0037062,-0.0018067,0,0,0.044522,-0.0059772,0,-0.028185,0,0,0,0.0098842,0.0024698,0.0037062,-14.584,0.0053534,0.00688,1.4921e-08,0.06,0.82,0
0.0034522,-0.0023627,0.0095064,0.0026041,0.0036331,-0.0016876,0,0,0.045811,-0.0080263,0,-0.026327,0,0,0,0.0098969,0.0022136,0.0036331,-13.03,0.0052479,0.0070811,1.5794e-08,0.08,0.82,0
0.0043807,-0.0028934,0.0095794,0.0022872,0.00356,-0.0015398,0,0,0.046951,-0.0099275,0,-0.024022,0,0,0,0.0098912,0.0019754,0.00356,-11.448,0.0051422,0.0072545,1.6499e-08,0.1,0.82,0
0.0053302,-0.0033848,0.0096302,0.0019991,0.0034888,-0.0013719,0,0,0.047903,-0.01162,0,-0.021402,0,0,0,0.0098694,0.00176,0.0034888,-9.8882,0.0050394,0.0073981,1.7029e-08,0.12,0.82,0
0.0062968,-0.0038317,0.0096588,0.0017443,0.0034209,-0.0011928,0,0,0.048655,-0.013078,0,-0.018607,0,0,0,0.0098347,0.0015684,0.0034209,-8.3866,0.0049413,0.0075133,1.7399e-08,0.14,0.82,0
0.0072765,-0.0042309,0.0096673,0.0015229,0.003357,-0.0010101,0,0,0.04922,-0.014307,0,-0.015758,0,0,0,0.0097907,0.0013994,0.003357,-6.9657,0.0048491,0.0076039,1.7635e-08,0.16,0.82,0
0.0082656,-0.0045809,0.0096593,0.0013323,0.0032975,-0.00082999,0,0,0.049622,-0.015329,0,-0.012948,0,0,0,0.0097412,0.0012503,0.0032975,-5.637,0.004763,0.0076749,1.7769e-08,0.18,0.82,0
0.0092614,-0.0048815,0.0096389,0.0011685,0.0032422,-0.00065638,0,0,0.049894,-0.016175,0,-0.01024,0,0,0,0.0096895,0.001118,0.0032422,-4.4049,0.0046832,0.0077314,1.7833e-08,0.2,0.82,0
0.010261,-0.0051335,0.0096101,0.0010271,0.0031912,-0.00049186,0,0,0.050068,-0.01688,0,-0.007673,0,0,0,0.0096382,0.00099902,0.0031912,-3.2691,0.0046095,0.0077784,1.7854e-08,0.22,0.82,0
0.011264,-0.0053386,0.0095766,0.00090345,0.003144,-0.00033792,0,0,0.050174,-0.017476,0,-0.0052716,0,0,0,0.0095897,0.0008903,0.003144,-2.2279,0.0045413,0.0078201,1.7858e-08,0.24,0.82,0
0.012268,-0.005499,0.0095413,0.00079329,0.0031004,-0.00019539,0,0,0.050239,-0.017995,0,-0.0030481,0,0,0,0.0095457,0.00078893,0.0031004,-1.2789,0.0044783,0.0078602,1.7862e-08,0.26,0.82,0
0.013274,-0.0056174,0.0095069,0.00069282,0.0030599,-6.4776e-05,0,0,0.050287,-0.018463,0,-0.0010105,0,0,0,0.0095074,0.00069234,0.0030599,-0.42104,0.0044199,0.0079019,1.7882e-08,0.28,0.82,0
0.01428,-0.0056969,0.0094754,0.00059867,0.0030222,5.352e-05,0,0,0.050335,-0.018904,0,0.00083491,0,0,0,0.0094757,0.00059835,0.0030222,0.34543,0.0043654,0.0079476,1.7929e-08,0.3,0.82,0
0.015287,-0.0057409,0.0094482,0.00050805,0.0029869,0.00015903,0,0,0.050398,-0.019335,0,0.0024808,0,0,0,0.009451,0.00050522,0.0029869,1.0188,0.0043144,0.0079991,1.8009e-08,0.32,0.82,0
0.016296,-0.0057531,0.0094265,0.00041873,0.0029536,0.00025114,0,0,0.050489,-0.019772,0,0.0039178,0,0,0,0.0094335,0.00041174,0.0029536,1.5958,0.0042663,0.0080573,1.8128e-08,0.34,0.82,0
0.017307,-0.0057376,0.009411,0.00032911,0.002922,0.00032911,0,0,0.050614,-0.020225,0,0.0051341,0,0,0,0.0094229,0.0003172,0.002922,2.0726,0.0042207,0.0081228,1.8285e-08,0.36,0.82,0
0.01832,-0.0056988,0.0094019,0.00023826,0.0028921,0.00039203,0,0,0.050777,-0.0207,0,0.0061156,0,0,0,0.0094187,0.00022152,0.0028921,2.4452,0.0041774,0.008195,1.8478e-08,0.38,0.82,0
0.019338,-0.0056413,0.0093992,0.00014597,0.0028636,0.00043898,0,0,0.050978,-0.021197,0,0.0068481,0,0,0,0.00942,0.00012519,0.0028636,2.71,0.0041363,0.0082728,1.8702e-08,0.4,0.82,0
0.020359,-0.0055699,0.0094024,5.276e-05,0.0028365,0.0004691,0,0,0.051214,-0.021714,0,0.007318,0,0,0,0.0094258,2.9282e-05,0.0028365,2.8651,0.0040972,0.0083545,1.8948e-08,0.42,0.82,0
0.021386,-0.0054898,0.0094104,-4.015e-05,0.0028111,0.00048175,0,0,0.051475,-0.02224,0,0.0075153,0,0,0,0.0094349,-6.4644e-05,0.0028111,2.9106,0.0040605,0.0084376,1.9205e-08,0.44,0.82,0
0.022418,-0.005406,0.0094222,-0.0001309,0.0027874,0.00047663,0,0,0.051751,-0.022763,0,0.0074354,0,0,0,0.0094459,-0.00015462,0.0027874,2.8492,0.0040262,0.0085194,1.9463e-08,0.46,0.82,0
0.023456,-0.0053237,0.0094362,-0.00021712,0.0027657,0.00045395,0,0,0.052029,-0.023266,0,0.0070816,0,0,0,0.0094574,-0.00023842,0.0027657,2.6864,0.0039949,0.0085969,1.9709e-08,0.48,0.82,0
0.0245,-0.0052477,0.0094506,-0.00029615,0.0027463,0.00041452,0,0,0.052293,-0.023731,0,0.0064665,0,0,0,0.0094682,-0.00031375,0.0027463,2.4309,0.0039669,0.008667,1.993e-08,0.5,0.82,0
0.025548,-0.0051825,0.0094639,-0.00036523,0.0027296,0.00035981,0,0,0.052528,-0.02414,0,0.0056131,0,0,0,0.0094771,-0.00037839,0.0027296,2.0937,0.0039428,0.0087269,2.0116e-08,0.52,0.82,0
0.026601,-0.0051322,0.0094744,-0.00042178,0.0027158,0.00029196,0,0,0.052717,-0.024473,0,0.0045545,0,0,0,0.009483,-0.00043039,0.0027158,1.6884,0.0039228,0.0087741,2.0257e-08,0.54,0.82,0
0.027657,-0.0051001,0.0094807,-0.00046361,0.0027051,0.00021366,0,0,0.05285,-0.024716,0,0.0033331,0,0,0,0.0094853,-0.0004682,0.0027051,1.2303,0.0039074,0.0088066,2.0346e-08,0.56,0.82,0
0.028715,-0.0050887,0.0094817,-0.00048914,0.0026978,0.00012811,0,0,0.052915,-0.024858,0,0.0019985,0,0,0,0.0094833,-0.00049078,0.0026978,0.736,0.0038968,0.0088231,2.0378e-08,0.58,0.82,0
0.029773,-0.0050997,0.0094767,-0.0004975,0.0026938,3.8785e-05,0,0,0.052907,-0.024892,0,0.00060505,0,0,0,0.0094769,-0.00049766,0.0026938,0.22279,0.003891,0.0088229,2.035e-08,0.6,0.82,0
0.030831,-0.0051337,0.0094655,-0.00048871,0.002693,-5.0719e-05,0,0,0.052825,-0.024818,0,-0.00079121,0,0,0,0.0094658,-0.00048897,0.002693,-0.29192,0.00389,0.008806,2.0263e-08,0.62,0.82,0
0.031886,-0.0051907,0.0094484,-0.00046358,0.0026954,-0.00013689,0,0,0.052673,-0.02464,0,-0.0021355,0,0,0,0.0094503,-0.00046547,0.0026954,-0.79112,0.0038934,0.0087733,2.0119e-08,0.64,0.82,0
0.032938,-0.0052693,0.0094258,-0.00042373,0.0027006,-0.00021652,0,0,0.052456,-0.02437,0,-0.0033778,0,0,0,0.0094305,-0.00042848,0.0027006,-1.2587,0.0039009,0.0087259,1.9923e-08,0.66,0.82,0
0.033985,-0.0053677,0.0093988,-0.00037145,0.0027082,-0.00028685,0,0,0.052187,-0.024021,0,-0.0044748,0,0,0,0.0094072,-0.00037986,0.0027082,-1.6802,0.0039118,0.008666,1.9683e-08,0.68,0.82,0
0.035025,-0.0054833,0.0093687,-0.00030953,0.0027177,-0.00034572,0,0,0.051877,-0.023613,0,-0.0053932,0,0,0,0.009381,-0.00032186,0.0027177,-2.0432,0.0039256,0.008596,1.9406e-08,0.7,0.82,0
0.03606,-0.0056129,0.0093367,-0.00024103,0.0027287,-0.00039168,0,0,0.051542,-0.023164,0,-0.0061101,0,0,0,0.0093527,-0.00025702,0.0027287,-2.3379,0.0039415,0.0085188,1.9104e-08,0.72,0.82,0
0.037087,-0.005753,0.0093044,-0.00016906,0.0027406,-0.00042397,0,0,0.051198,-0.022695,0,-0.006614,0,0,0,0.0093233,-0.00018799,0.0027406,-2.5574,0.0039587,0.0084372,1.8787e-08,0.74,0.82,0
0.038108,-0.0058998,0.009273,-9.6538e-05,0.0027529,-0.00044254,0,0,0.050856,-0.022226,0,-0.0069036,0,0,0,0.0092938,-0.00011739,0.0027529,-2.6982,0.0039765,0.0083544,1.8467e-08,0.76,0.82,0
0.039121,-0.0060496,0.0092435,-2.6046e-05,0.0027652,-0.00044791,0,0,0.05053,-0.021772,0,-0.0069874,0,0,0,0.0092651,-4.7638e-05,0.0027652,-2.76,0.0039942,0.0082731,1.8154e-08,0.78,0.82,0
0.040129,-0.0061988,0.0092168,4.0335e-05,0.0027771,-0.00044105,0,0,0.05023,-0.021347,0,-0.0068804,0,0,0,0.009238,1.9185e-05,0.0027771,-2.7454,0.0040114,0.0081956,1.7857e-08,0.8,0.82,0
0.041131,-0.0063439,0.0091935,0.00010105,0.0027884,-0.00042328,0,0,0.04996,-0.020961,0,-0.0066032,0,0,0,0.0092132,8.1391e-05,0.0027884,-2.6596,0.0040276,0.0081239,1.7584e-08,0.82,0.82,0
0.042127,-0.0064818,0.0091738,0.0001551,0.0027987,-0.00039607,0,0,0.049726,-0.02062,0,-0.0061787,0,0,0,0.0091912,0.00013774,0.0027987,-2.5098,0.0040425,0.0080594,1.7339e-08,0.84,0.82,0
0.043119,-0.0066098,0.0091577,0.00020194,0.0028079,-0.00036094,0,0,0.049528,-0.020326,0,-0.0056307,0,0,0,0.0091722,0.00018741,0.0028079,-2.3042,0.0040558,0.008003,1.7126e-08,0.86,0.82,0
0.044108,-0.0067253,0.0091449,0.00024145,0.0028159,-0.00031938,0,0,0.049366,-0.020081,0,-0.0049823,0,0,0,0.0091564,0.00023001,0.0028159,-2.0518,0.0040674,0.0079551,1.6946e-08,0.88,0.82,0
0.045094,-0.0068263,0.0091352,0.00027381,0.0028227,-0.00027274,0,0,0.049237,-0.019881,0,-0.0042548,0,0,0,0.0091436,0.00026542,0.0028227,-1.7613,0.0040772,0.0079156,1.6798e-08,0.9,0.82,0
0.046078,-0.0069111,0.009128,0.00029938,0.0028282,-0.00022224,0,0,0.049139,-0.019725,0,-0.003467,0,0,0,0.0091336,0.00029379,0.0028282,-1.4411,0.0040852,0.0078843,1.6682e-08,0.92,0.82,0
0.04706,-0.0069785,0.009123,0.00031861,0.0028325,-0.00016891,0,0,0.049066,-0.019608,0,-0.002635,0,0,0,0.0091263,0.00031537,0.0028325,-1.0987,0.0040914,0.0078607,1.6595e-08,0.94,0.82,0
0.04804,-0.0070272,0.0091198,0.00033196,0.0028355,-0.00011362,0,0,0.049017,-0.019528,0,-0.0017725,0,0,0,0.0091213,0.00033049,0.0028355,-0.74063,0.0040958,0.0078442,1.6534e-08,0.96,0.82,0
0.04902,-0.0070568,0.009118,0.0003398,0.0028373,-5.7104e-05,0,0,0.048989,-0.019481,0,-0.00089082,0,0,0,0.0091184,0.00033943,0.0028373,-0.3727,0.0040984,0.0078345,1.6499e-08,0.98,0.82,0
0.05,-0.0070667,0.0091174,0.00034239,0.0028379,-3.1722e-05,0,0,0.04898,-0.019465,0,-0.00049486,0,0,0,0.0091175,0.00034227,0.0028379,-0.20712,0.0040992,0.0078316,1.6488e-08,1,0.82,0
0,0,0.009249,0.0039639,0.0039639,-0.0020788,0,0,0.041224,-3.2526e-19,0,-0.032429,0,0,0,0.0099687,0.0032442,0.0039639,-19.095,0.0057256,0.0063951,1.2861e-08,0,0.84,0
0.00082449,-0.00064858,0.0092193,0.0035748,0.0038382,-0.0020613,0,0,0.041972,-0.0020549,0,-0.032157,0,0,0,0.0098919,0.0029021,0.0038382,-18.072,0.0055441,0.0065719,1.3586e-08,0.02,0.84,0
0.0016789,-0.001294,0.0093406,0.0032078,0.0037645,-0.0020104,0,0,0.043494,-0.0043424,0,-0.031363,0,0,0,0.0099409,0.0026075,0.0037645,-16.625,0.0054377,0.0068288,1.4785e-08,0.04,0.84,0
0.0025642,-0.0019254,0.0094528,0.0028248,0.0036833,-0.0019126,0,0,0.045002,-0.0066961,0,-0.029837,0,0,0,0.0099652,0.0023125,0.0036833,-14.995,0.0053203,0.0070677,1.5858e-08,0.06,0.84,0
0.003479,-0.0025314,0.0095462,0.0024523,0.0035996,-0.0017715,0,0,0.046384,-0.0089485,0,-0.027635,0,0,0,0.009964,0.0020346,0.0035996,-13.27,0.0051994,0.0072743,1.6726e-08,0.08,0.84,0
0.0044196,-0.0031014,0.0096141,0.00211,0.0035172,-0.0015972,0,0,0.047556,-0.010976,0,-0.024916,0,0,0,0.0099399,0.0017842,0.0035172,-11.529,0.0050805,0.0074421,1.7361e-08,0.1,0.84,0
0.0053812,-0.0036273,0.0096542,0.0018084,0.0034388,-0.0014027,0,0,0.04848,-0.012717,0,-0.021882,0,0,0,0.0098975,0.0015652,0.0034388,-9.8376,0.0049672,0.0075714,1.7774e-08,0.12,0.84,0
0.0063588,-0.0041034,0.0096684,0.00155,0.0033655,-0.0012001,0,0,0.049162,-0.014161,0,-0.018722,0,0,0,0.0098421,0.0013763,0.0033655,-8.2354,0.0048613,0.0076672,1.8002e-08,0.14,0.84,0
0.0073477,-0.0045268,0.009661,0.0013322,0.0032979,-0.00099891,0,0,0.049632,-0.015333,0,-0.015583,0,0,0,0.0097791,0.001214,0.0032979,-6.7443,0.0047637,0.0077366,1.8093e-08,0.16,0.84,0
0.0083441,-0.0048967,0.0096376,0.0011497,0.0032362,-0.00080532,0,0,0.049931,-0.016275,0,-0.012563,0,0,0,0.0097134,0.001074,0.0032362,-5.3723,0.0046745,0.0077868,1.8093e-08,0.18,0.84,0
0.0093449,-0.0052135,0.0096039,0.00099674,0.0031802,-0.00062307,0,0,0.050105,-0.017031,0,-0.0097199,0,0,0,0.0096488,0.00095187,0.0031802,-4.119,0.0045936,0.0078244,1.8041e-08,0.2,0.84,0
0.010348,-0.0054788,0.0095646,0.00086735,0.0031296,-0.00045402,0,0,0.050193,-0.017645,0,-0.0070828,0,0,0,0.0095882,0.00084371,0.0031296,-2.9802,0.0045205,0.0078551,1.797e-08,0.22,0.84,0
0.011353,-0.0056951,0.0095235,0.00075626,0.0030839,-0.00029889,0,0,0.050229,-0.018156,0,-0.0046627,0,0,0,0.0095337,0.00074608,0.0030839,-1.9503,0.0044546,0.0078831,1.7901e-08,0.24,0.84,0
0.012357,-0.0058651,0.0094838,0.00065885,0.0030428,-0.00015779,0,0,0.05024,-0.018595,0,-0.0024615,0,0,0,0.0094867,0.00065603,0.0030428,-1.024,0.0043952,0.007912,1.7851e-08,0.26,0.84,0
0.013362,-0.0059922,0.0094477,0.00057119,0.0030057,-3.0606e-05,0,0,0.050248,-0.018989,0,-0.00047746,0,0,0,0.0094478,0.00057108,0.0030057,-0.19755,0.0043415,0.0079443,1.7833e-08,0.28,0.84,0
0.014367,-0.0060798,0.0094167,0.00049,0.002972,8.2766e-05,0,0,0.050268,-0.01936,0,0.0012912,0,0,0,0.0094174,0.00048924,0.002972,0.53117,0.0042929,0.0079819,1.7852e-08,0.3,0.84,0
0.015373,-0.0061318,0.0093918,0.00041266,0.0029413,0.00018231,0,0,0.050314,-0.019724,0,0.002844,0,0,0,0.0093955,0.00040896,0.0029413,1.1627,0.0042486,0.0080258,1.7913e-08,0.32,0.84,0
0.01638,-0.0061521,0.0093737,0.00033711,0.0029133,0.00026782,0,0,0.050392,-0.020094,0,0.0041779,0,0,0,0.0093817,0.00032918,0.0029133,1.6961,0.004208,0.0080767,1.8016e-08,0.34,0.84,0
0.017389,-0.006145,0.0093627,0.00026194,0.0028874,0.00033891,0,0,0.050507,-0.020479,0,0.005287,0,0,0,0.0093753,0.00024934,0.0028874,2.1298,0.0041707,0.0081344,1.816e-08,0.36,0.84,0
0.0184,-0.0061149,0.0093585,0.00018632,0.0028635,0.00039508,0,0,0.050662,-0.020882,0,0.0061632,0,0,0,0.0093755,0.00016933,0.0028635,2.4619,0.0041361,0.0081981,1.834e-08,0.38,0.84,0
0.019415,-0.0060666,0.0093608,0.00011004,0.0028412,0.00043576,0,0,0.050852,-0.021303,0,0.0067979,0,0,0,0.0093812,8.9561e-05,0.0028412,2.691,0.004104,0.0082668,1.8549e-08,0.4,0.84,0
0.020434,-0.0060047,0.0093686,3.3505e-05,0.0028206,0.00046046,0,0,0.051074,-0.02174,0,0.0071832,0,0,0,0.0093913,1.0847e-05,0.0028206,2.8171,0.0040742,0.0083385,1.8779e-08,0.42,0.84,0
0.021458,-0.0059342,0.0093809,-4.2333e-05,0.0028016,0.00046886,0,0,0.051319,-0.022183,0,0.0073142,0,0,0,0.0094042,-6.5604e-05,0.0028016,2.8414,0.0040467,0.0084111,1.9021e-08,0.44,0.84,0
0.022487,-0.00586,0.0093965,-0.00011601,0.0027841,0.00046094,0,0,0.051576,-0.022621,0,0.0071907,0,0,0,0.0094187,-0.0001383,0.0027841,2.7677,0.0040215,0.0084822,1.9262e-08,0.46,0.84,0
0.023521,-0.0057869,0.0094136,-0.0001857,0.0027684,0.00043711,0,0,0.051833,-0.023042,0,0.0068189,0,0,0,0.0094335,-0.00020556,0.0027684,2.6018,0.0039988,0.0085493,1.9493e-08,0.48,0.84,0
0.02456,-0.0057193,0.0094309,-0.00024932,0.0027545,0.00039825,0,0,0.052076,-0.023429,0,0.0062126,0,0,0,0.0094472,-0.00026567,0.0027545,2.3519,0.0039787,0.0086097,1.9701e-08,0.5,0.84,0
0.025604,-0.0056616,0.0094466,-0.00030474,0.0027425,0.00034579,0,0,0.052291,-0.023769,0,0.0053944,0,0,0,0.0094588,-0.00031699,0.0027425,2.0284,0.0039615,0.0086613,1.9878e-08,0.52,0.84,0
0.026652,-0.0056173,0.0094592,-0.00034998,0.0027328,0.00028171,0,0,0.052466,-0.024045,0,0.0043946,0,0,0,0.0094673,-0.00035806,0.0027328,1.6437,0.0039473,0.0087018,2.0014e-08,0.54,0.84,0
0.027703,-0.0055896,0.0094675,-0.00038334,0.0027252,0.00020843,0,0,0.052589,-0.024247,0,0.0032516,0,0,0,0.0094719,-0.00038774,0.0027252,1.2116,0.0039365,0.0087298,2.0102e-08,0.56,0.84,0
0.028756,-0.0055808,0.0094704,-0.0004036,0.00272,0.00012879,0,0,0.052653,-0.024365,0,0.0020091,0,0,0,0.0094721,-0.00040528,0.00272,0.74715,0.003929,0.0087442,2.0138e-08,0.58,0.84,0
0.029809,-0.0055924,0.0094674,-0.00041011,0.0027172,4.5839e-05,0,0,0.052652,-0.024393,0,0.00071508,0,0,0,0.0094676,-0.00041033,0.0027172,0.26588,0.0039248,0.0087442,2.012e-08,0.6,0.84,0
0.030862,-0.0056251,0.0094582,-0.00040288,0.0027166,-3.7264e-05,0,0,0.052584,-0.024332,0,-0.00058132,0,0,0,0.0094583,-0.00040302,0.0027166,-0.21651,0.003924,0.0087301,2.0047e-08,0.62,0.84,0
0.031912,-0.0056788,0.0094428,-0.00038254,0.0027181,-0.00011745,0,0,0.052453,-0.024185,0,-0.0018322,0,0,0,0.0094442,-0.00038394,0.0027181,-0.68474,0.0039261,0.0087022,1.9921e-08,0.64,0.84,0
0.03296,-0.0057525,0.009422,-0.00035036,0.0027215,-0.00019187,0,0,0.052264,-0.02396,0,-0.0029932,0,0,0,0.0094257,-0.00035413,0.0027215,-1.1244,0.003931,0.0086618,1.9747e-08,0.66,0.84,0
0.034003,-0.0058446,0.0093964,-0.00030813,0.0027265,-0.0002581,0,0,0.052025,-0.02367,0,-0.0040263,0,0,0,0.0094033,-0.00031499,0.0027265,-1.5224,0.0039382,0.0086103,1.9529e-08,0.68,0.84,0
0.035041,-0.0059527,0.0093672,-0.00025801,0.0027328,-0.00031417,0,0,0.051749,-0.023328,0,-0.004901,0,0,0,0.0093775,-0.00026825,0.0027328,-1.8675,0.0039473,0.0085498,1.9277e-08,0.7,0.84,0
0.036073,-0.0060741,0.0093356,-0.00020239,0.00274,-0.00035871,0,0,0.051446,-0.02295,0,-0.0055959,0,0,0,0.0093491,-0.00021586,0.00274,-2.1508,0.0039577,0.0084825,1.8999e-08,0.72,0.84,0
0.037099,-0.0062055,0.0093125,-0.00014404,0.0027505,-0.0003887,0,0,0.051183,-0.022578,0,-0.0060637,0,0,0,0.0093284,-0.00015999,0.0027505,-2.3498,0.003973,0.0084193,1.8761e-08,0.74,0.84,0
0.038118,-0.0063436,0.0092571,-9.2344e-05,0.0027494,-0.00041365,0,0,0.05076,-0.022166,0,-0.006453,0,0,0,0.0092753,-0.00011061,0.0027494,-2.5284,0.0039714,0.0083326,1.8344e-08,0.76,0.84,0
0.039131,-0.006485,0.0092496,-2.21e-05,0.0027682,-0.00041938,0,0,0.050554,-0.021765,0,-0.0065423,0,0,0,0.0092685,-4.103e-05,0.0027682,-2.5846,0.0039986,0.0082708,1.816e-08,0.78,0.84,0
0.040138,-0.0066263,0.0091991,2.567e-05,0.0027674,-0.00041338,0,0,0.050167,-0.021386,0,-0.0064487,0,0,0,0.0092177,7.0806e-06,0.0027674,-2.5749,0.0039974,0.0081873,1.7765e-08,0.8,0.84,0
0.04114,-0.0067642,0.0091929,8.6612e-05,0.0027838,-0.000404,0,0,0.04999,-0.021038,0,-0.0063025,0,0,0,0.0092107,6.8724e-05,0.0027838,-2.5353,0.0040211,0.0081318,1.7596e-08,0.82,0.84,0
0.042136,-0.0068956,0.0091519,0.00012591,0.0027834,-0.00037185,0,0,0.049675,-0.020728,0,-0.0058009,0,0,0,0.0091672,0.00011062,0.0027834,-2.3552,0.0040204,0.0080598,1.726e-08,0.84,0.84,0
0.043128,-0.007018,0.0091472,0.00017331,0.0027962,-0.00035112,0,0,0.049538,-0.020458,0,-0.0054775,0,0,0,0.0091609,0.00015959,0.0027962,-2.2373,0.0040389,0.0080152,1.7121e-08,0.86,0.84,0
0.044116,-0.0071287,0.0091174,0.00020235,0.0027959,-0.00029927,0,0,0.049307,-0.02023,0,-0.0046687,0,0,0,0.0091274,0.00019232,0.0027959,-1.9205,0.0040386,0.0079594,1.6864e-08,0.88,0.84,0
0.045102,-0.0072259,0.0091142,0.00023535,0.0028049,-0.000271,0,0,0.049213,-0.020042,0,-0.0042276,0,0,0,0.0091225,0.00022709,0.0028049,-1.7466,0.0040515,0.0079273,1.6763e-08,0.9,0.84,0
0.046084,-0.0073077,0.009095,0.00025434,0.0028048,-0.00020588,0,0,0.049064,-0.019894,0,-0.0032118,0,0,0,0.0090998,0.00024955,0.0028048,-1.3334,0.0040514,0.0078893,1.6589e-08,0.92,0.84,0
0.047065,-0.0073727,0.0090932,0.00027408,0.0028102,-0.00017323,0,0,0.049008,-0.019782,0,-0.0027024,0,0,0,0.0090966,0.00027068,0.0028102,-1.1249,0.0040592,0.0078697,1.6527e-08,0.94,0.84,0
0.048044,-0.0074199,0.0090832,0.00028407,0.0028102,-0.0001004,0,0,0.04893,-0.019704,0,-0.0015663,0,0,0,0.0090844,0.00028293,0.0028102,-0.65366,0.0040592,0.0078491,1.6433e-08,0.96,0.84,0
0.049022,-0.0074486,0.0090825,0.00029216,0.0028124,-6.5681e-05,0,0,0.048907,-0.019658,0,-0.0010246,0,0,0,0.009083,0.00029167,0.0028124,-0.42808,0.0040624,0.007841,1.6407e-08,0.98,0.84,0
0.05,-0.0074582,0.0090873,0.00030982,0.0028191,-3.0738e-05,0,0,0.048892,-0.019573,0,-0.00047951,0,0,0,0.0090874,0.00030971,0.0028191,-0.20064,0.0040721,0.0078306,1.6393e-08,1,0.84,0
0,0,0.0093101,0.00399,0.00399,-0.0022179,0,0,0.041496,-1.1926e-18,0,-0.0346,0,0,0,0.010113,0.0031867,0.00399,-19.911,0.0057634,0.0065621,1.3782e-08,0,0.86,0
0.00082993,-0.000692,0.009218,0.0035341,0.0038256,-0.0021979,0,0,0.04206,-0.0022736,0,-0.034287,0,0,0,0.0099687,0.0027834,0.0038256,-18.859,0.0055259,0.0067251,1.4365e-08,0.02,0.86,0
0.0016937,-0.0013861,0.0094844,0.0031785,0.0037989,-0.0021391,0,0,0.044347,-0.0048389,0,-0.03337,0,0,0,0.010142,0.0025214,0.0037989,-17.077,0.0054873,0.0070685,1.616e-08,0.04,0.86,0
0.0025922,-0.0020675,0.0094826,0.0026985,0.0036543,-0.0020459,0,0,0.045461,-0.0074555,0,-0.031916,0,0,0,0.010052,0.0021293,0.0036543,-15.548,0.0052785,0.0072808,1.6928e-08,0.06,0.86,0
0.0035228,-0.0027207,0.0096859,0.0023385,0.0036073,-0.0018396,0,0,0.047413,-0.0098969,0,-0.028698,0,0,0,0.010121,0.0019036,0.0036073,-13.3,0.0052105,0.0075116,1.805e-08,0.08,0.86,0
0.0044799,-0.0033325,0.0096557,0.0019372,0.0034779,-0.0016826,0,0,0.048187,-0.012018,0,-0.026249,0,0,0,0.010007,0.0015863,0.0034779,-11.778,0.0050236,0.0076519,1.8357e-08,0.1,0.86,0
0.0054569,-0.0038935,0.0097383,0.0016525,0.0034172,-0.0014009,0,0,0.049304,-0.013765,0,-0.021854,0,0,0,0.0099741,0.0014166,0.0034172,-9.556,0.004936,0.0077532,1.8671e-08,0.12,0.86,0
0.0064475,-0.0043981,0.0096817,0.001335,0.003305,-0.0011863,0,0,0.049738,-0.015366,0,-0.018507,0,0,0,0.009847,0.0011697,0.003305,-7.9343,0.0047739,0.0078311,1.8622e-08,0.14,0.86,0
0.0074464,-0.0048442,0.0096507,0.0011274,0.0032334,-0.00096755,0,0,0.050055,-0.016427,0,-0.015094,0,0,0,0.0097592,0.0010189,0.0032334,-6.3957,0.0046705,0.0078702,1.8515e-08,0.16,0.86,0
0.0084497,-0.0052319,0.0096062,0.00095881,0.0031695,-0.00076335,0,0,0.050206,-0.017243,0,-0.011908,0,0,0,0.0096731,0.00089194,0.0031695,-5.0062,0.0045782,0.0078928,1.8344e-08,0.18,0.86,0
0.0094547,-0.0055627,0.0095551,0.00082116,0.0031129,-0.00057615,0,0,0.050249,-0.017875,0,-0.008988,0,0,0,0.009593,0.00078332,0.0031129,-3.7579,0.0044964,0.0079066,1.8153e-08,0.2,0.86,0
0.01046,-0.0058393,0.0095028,0.00070735,0.003063,-0.00040648,0,0,0.05023,-0.018374,0,-0.0063411,0,0,0,0.0095216,0.00068861,0.003063,-2.6404,0.0044244,0.0079174,1.7974e-08,0.22,0.86,0
0.011464,-0.0060648,0.0094531,0.00061148,0.0030194,-0.00025386,0,0,0.050183,-0.018782,0,-0.0039602,0,0,0,0.0094604,0.00060419,0.0030194,-1.6433,0.0043613,0.0079295,1.7826e-08,0.24,0.86,0
0.012467,-0.0062428,0.0094086,0.00052874,0.0029812,-0.00011747,0,0,0.050134,-0.019129,0,-0.0018326,0,0,0,0.0094102,0.00052718,0.0029812,-0.75778,0.0043062,0.0079455,1.772e-08,0.26,0.86,0
0.013469,-0.006377,0.009371,0.00045525,0.0029479,3.5187e-06,0,0,0.0501,-0.019443,0,5.4893e-05,0,0,0,0.009371,0.00045525,0.0029479,0.022613,0.004258,0.0079674,1.7663e-08,0.28,0.86,0
0.014471,-0.0064713,0.0093411,0.00038794,0.0029187,0.00010978,0,0,0.050095,-0.01974,0,0.0017125,0,0,0,0.0093425,0.0003866,0.0029187,0.70239,0.0042159,0.0079964,1.7657e-08,0.3,0.86,0
0.015473,-0.0065298,0.0093195,0.0003244,0.0028932,0.00020173,0,0,0.050125,-0.020036,0,0.003147,0,0,0,0.009324,0.00031987,0.0028932,1.2841,0.004179,0.0080328,1.7702e-08,0.32,0.86,0
0.016476,-0.0065569,0.0093061,0.0002628,0.0028707,0.00027954,0,0,0.050196,-0.020341,0,0.0043608,0,0,0,0.0093147,0.00025417,0.0028707,1.7688,0.0041465,0.0080767,1.7795e-08,0.34,0.86,0
0.017481,-0.0065568,0.0093006,0.00020192,0.0028508,0.00034315,0,0,0.050309,-0.020661,0,0.0053532,0,0,0,0.0093135,0.000189,0.0028508,2.1568,0.0041178,0.0081274,1.7933e-08,0.36,0.86,0
0.018488,-0.0065341,0.0093025,0.00014104,0.0028331,0.00039236,0,0,0.050462,-0.020998,0,0.0061209,0,0,0,0.0093193,0.00012427,0.0028331,2.4479,0.0040922,0.008184,1.8107e-08,0.38,0.86,0
0.019499,-0.0064934,0.0093109,7.9958e-05,0.0028172,0.00042691,0,0,0.05065,-0.021351,0,0.0066597,0,0,0,0.0093306,6.0256e-05,0.0028172,2.6423,0.0040694,0.0082451,1.8312e-08,0.4,0.86,0
0.020514,-0.0064395,0.0093247,1.8969e-05,0.0028031,0.00044655,0,0,0.050868,-0.021716,0,0.0069662,0,0,0,0.0093461,-2.4108e-06,0.0028031,2.741,0.0040489,0.0083089,1.8538e-08,0.42,0.86,0
0.021534,-0.0063771,0.0093316,-4.9395e-05,0.0027847,0.00044867,0,0,0.051066,-0.022106,0,0.0069992,0,0,0,0.009353,-7.0804e-05,0.0027847,2.732,0.0040223,0.0083697,1.8723e-08,0.44,0.86,0
0.022559,-0.0063109,0.0093546,-0.00011961,0.0027705,0.00044085,0,0,0.051356,-0.022543,0,0.0068772,0,0,0,0.009375,-0.00014007,0.0027705,2.6584,0.0040018,0.0084448,1.9e-08,0.46,0.86,0
0.023588,-0.0062454,0.0093732,-0.00018164,0.0027575,0.00041727,0,0,0.051603,-0.022925,0,0.0065093,0,0,0,0.0093914,-0.00019982,0.0027575,2.4958,0.003983,0.0085072,1.9223e-08,0.48,0.86,0
0.024623,-0.0061849,0.0093916,-0.0002382,0.002746,0.00037989,0,0,0.051836,-0.023277,0,0.0059263,0,0,0,0.0094066,-0.00025316,0.002746,2.2556,0.0039665,0.0085635,1.9425e-08,0.5,0.86,0
0.025662,-0.0061333,0.0094084,-0.00028737,0.0027363,0.00033012,0,0,0.052042,-0.023585,0,0.0051498,0,0,0,0.0094196,-0.0002986,0.0027363,1.9478,0.0039524,0.0086116,1.9597e-08,0.52,0.86,0
0.026704,-0.006094,0.0094404,-0.00029532,0.0027435,0.00026111,0,0,0.052235,-0.023703,0,0.0040734,0,0,0,0.0094474,-0.00030232,0.0027435,1.5352,0.0039629,0.0086393,1.9777e-08,0.54,0.86,0
0.02775,-0.00607,0.009442,-0.00032628,0.0027347,0.00021023,0,0,0.052317,-0.023876,0,0.0032796,0,0,0,0.0094465,-0.00033081,0.0027347,1.2323,0.0039501,0.0086614,1.9829e-08,0.56,0.86,0
0.028798,-0.0060633,0.0094367,-0.00037417,0.0027187,0.00012669,0,0,0.0524,-0.024125,0,0.0019763,0,0,0,0.0094383,-0.0003758,0.0027187,0.73969,0.0039271,0.0086904,1.9868e-08,0.58,0.86,0
0.029846,-0.0060754,0.0094494,-0.00034636,0.0027309,3.9827e-05,0,0,0.052404,-0.024003,0,0.00062131,0,0,0,0.0094496,-0.00034652,0.0027309,0.23295,0.0039447,0.0086768,1.988e-08,0.6,0.86,0
0.030894,-0.006107,0.0094504,-0.00032351,0.0027381,-2.5855e-05,0,0,0.052356,-0.02388,0,-0.00040333,0,0,0,0.0094505,-0.00032358,0.0027381,-0.15156,0.003955,0.0086591,1.9839e-08,0.62,0.86,0
0.03194,-0.0061581,0.0094371,-0.00030739,0.0027389,-9.9865e-05,0,0,0.052246,-0.023761,0,-0.0015579,0,0,0,0.0094381,-0.00030841,0.0027389,-0.5871,0.0039562,0.0086359,1.9732e-08,0.64,0.86,0
0.032984,-0.0062277,0.0094179,-0.00028196,0.0027408,-0.0001688,0,0,0.052081,-0.023577,0,-0.0026333,0,0,0,0.0094208,-0.0002849,0.0027408,-0.99668,0.0039589,0.0086017,1.9577e-08,0.66,0.86,0
0.034024,-0.0063145,0.0093936,-0.00024859,0.0027435,-0.00023049,0,0,0.051871,-0.023338,0,-0.0035957,0,0,0,0.0093991,-0.0002541,0.0027435,-1.3686,0.0039628,0.0085576,1.9381e-08,0.68,0.86,0
0.035059,-0.0064164,0.0093651,-0.00020894,0.0027468,-0.00028319,0,0,0.051623,-0.023055,0,-0.0044178,0,0,0,0.0093735,-0.00021731,0.0027468,-1.6928,0.0039677,0.0085054,1.915e-08,0.7,0.86,0
0.036089,-0.0065309,0.0093336,-0.00016483,0.0027506,-0.00032561,0,0,0.051347,-0.022741,0,-0.0050796,0,0,0,0.0093448,-0.00017598,0.0027506,-1.9611,0.0039731,0.0084467,1.8892e-08,0.72,0.86,0
0.037113,-0.0066551,0.0093137,-0.00010795,0.0027617,-0.00035128,0,0,0.051105,-0.022383,0,-0.0054799,0,0,0,0.0093267,-0.00012103,0.0027617,-2.1323,0.0039891,0.0083866,1.8671e-08,0.74,0.86,0
0.038131,-0.0067859,0.0092564,-7.221e-05,0.0027553,-0.00037664,0,0,0.050709,-0.022054,0,-0.0058756,0,0,0,0.0092716,-8.7393e-05,0.0027553,-2.3083,0.0039798,0.0083106,1.8274e-08,0.76,0.86,0
0.039143,-0.00692,0.0092437,-1.8246e-05,0.0027676,-0.00038359,0,0,0.050513,-0.02173,0,-0.005984,0,0,0,0.0092596,-3.4105e-05,0.0027676,-2.3675,0.0039977,0.0082573,1.8094e-08,0.78,0.86,0
0.040149,-0.0070545,0.0091895,1.53e-05,0.0027614,-0.00038044,0,0,0.050139,-0.02142,0,-0.0059348,0,0,0,0.0092052,-4.487e-07,0.0027614,-2.3705,0.0039887,0.0081821,1.7708e-08,0.8,0.86,0
0.04115,-0.007186,0.009178,6.3222e-05,0.0027724,-0.00037349,0,0,0.049964,-0.021131,0,-0.0058264,0,0,0,0.0091933,4.7944e-05,0.0027724,-2.3425,0.0040045,0.0081329,1.7539e-08,0.82,0.86,0
0.042146,-0.0073117,0.0091318,9.1322e-05,0.0027669,-0.00034551,0,0,0.049646,-0.02087,0,-0.0053899,0,0,0,0.009145,7.8137e-05,0.0027669,-2.1855,0.0039967,0.0080659,1.7202e-08,0.84,0.86,0
0.043138,-0.0074291,0.0091224,0.00012958,0.0027756,-0.00032767,0,0,0.049505,-0.020639,0,-0.0051117,0,0,0,0.0091343,0.00011766,0.0027756,-2.084,0.0040092,0.0080249,1.7059e-08,0.86,0.86,0
0.044125,-0.0075356,0.009087,0.00015075,0.0027713,-0.00028031,0,0,0.049262,-0.02044,0,-0.0043729,0,0,0,0.0090957,0.00014196,0.0027713,-1.7949,0.004003,0.0079713,1.6793e-08,0.88,0.86,0
0.045109,-0.0076292,0.00908,0.00017812,0.0027774,-0.00025489,0,0,0.04916,-0.020275,0,-0.0039764,0,0,0,0.0090873,0.00017083,0.0027774,-1.6388,0.0040119,0.0079408,1.6686e-08,0.9,0.86,0
0.046091,-0.0077082,0.009056,0.0001922,0.0027745,-0.00019399,0,0,0.048996,-0.020142,0,-0.0030262,0,0,0,0.0090602,0.00018796,0.0027745,-1.2531,0.0040076,0.0079031,1.65e-08,0.92,0.86,0
0.04707,-0.0077711,0.0090516,0.00020898,0.0027782,-0.00016391,0,0,0.048933,-0.02004,0,-0.002557,0,0,0,0.0090547,0.00020594,0.0027782,-1.0616,0.0040129,0.0078839,1.6432e-08,0.94,0.86,0
0.048047,-0.0078168,0.0090386,0.00021649,0.0027765,-9.4861e-05,0,0,0.048844,-0.019968,0,-0.0014798,0,0,0,0.0090396,0.00021547,0.0027765,-0.61598,0.0040105,0.0078629,1.633e-08,0.96,0.86,0
0.049024,-0.0078445,0.0090368,0.00022348,0.0027781,-6.2465e-05,0,0,0.048818,-0.019926,0,-0.00097445,0,0,0,0.0090372,0.00022303,0.0027781,-0.40606,0.0040128,0.0078548,1.6301e-08,0.98,0.86,0
0.05,-0.0078538,0.009028,0.00021048,0.0027715,-2.9797e-05,0,0,0.0488,-0.019976,0,-0.00046484,0,0,0,0.0090281,0.00021038,0.0027715,-0.19362,0.0040033,0.0078567,1.6278e-08,1,0.86,0
0,0,0.0094216,0.0040378,0.0040378,-0.0023768,0,0,0.041993,2.1684e-19,0,-0.037079,0,0,0,0.010321,0.0031387,0.0040378,-20.722,0.0058324,0.0067774,1.5044e-08,0,0.88,0
0.00083986,-0.00074157,0.0093016,0.0034797,0.0038344,-0.0023402,0,0,0.042644,-0.0027666,0,-0.036507,0,0,0,0.010126,0.0026557,0.0038344,-19.398,0.0055385,0.0069559,1.5626e-08,0.02,0.88,0
0.0017188,-0.0014922,0.0095818,0.0030138,0.0037787,-0.0022662,0,0,0.045264,-0.0059663,0,-0.035352,0,0,0,0.010288,0.0023077,0.0037787,-17.304,0.0054581,0.0073557,1.7717e-08,0.04,0.88,0
0.0026373,-0.0022308,0.0095543,0.0024228,0.0035931,-0.0021328,0,0,0.046497,-0.0091284,0,-0.033271,0,0,0,0.010143,0.0018337,0.0035931,-15.442,0.0051901,0.0075847,1.8409e-08,0.06,0.88,0
0.0035901,-0.002936,0.0097406,0.0019986,0.0035218,-0.0018652,0,0,0.048507,-0.011881,0,-0.029097,0,0,0,0.010167,0.0015726,0.0035218,-12.863,0.005087,0.0078041,1.9374e-08,0.08,0.88,0
0.0045689,-0.0035914,0.0096904,0.001577,0.0033802,-0.0016666,0,0,0.049219,-0.014065,0,-0.026,0,0,0,0.010019,0.001248,0.0033802,-11.167,0.0048825,0.0079235,1.9448e-08,0.1,0.88,0
0.0055645,-0.004187,0.0097278,0.0012939,0.0033065,-0.0013367,0,0,0.050086,-0.015698,0,-0.020853,0,0,0,0.0099346,0.0010872,0.0033065,-8.794,0.0047761,0.0079729,1.939e-08,0.12,0.88,0
0.0065693,-0.004718,0.0096901,0.0011017,0.0032376,-0.0011415,0,0,0.05033,-0.016659,0,-0.017807,0,0,0,0.0098392,0.00095261,0.0032376,-7.443,0.0046765,0.007993,1.9181e-08,0.14,0.88,0
0.0075777,-0.0051839,0.0096262,0.00091274,0.0031617,-0.00090912,0,0,0.050424,-0.017542,0,-0.014182,0,0,0,0.0097201,0.0008189,0.0031617,-5.8933,0.0045669,0.0079916,1.8818e-08,0.16,0.88,0
0.0085862,-0.0055864,0.0095545,0.00076446,0.0030957,-0.00069973,0,0,0.050379,-0.018184,0,-0.010916,0,0,0,0.0096099,0.00070911,0.0030957,-4.5231,0.0044716,0.0079798,1.8443e-08,0.18,0.88,0
0.0095929,-0.0059285,0.0094828,0.00064673,0.0030389,-0.00051331,0,0,0.050263,-0.018659,0,-0.0080077,0,0,0,0.0095125,0.00061701,0.0030389,-3.3136,0.0043895,0.0079657,1.8099e-08,0.2,0.88,0
0.010597,-0.0062138,0.0094163,0.00055161,0.0029904,-0.00034836,0,0,0.050122,-0.019022,0,-0.0054345,0,0,0,0.0094299,0.00053795,0.0029904,-2.247,0.0043194,0.0079546,1.7809e-08,0.22,0.88,0
0.011598,-0.0064463,0.009358,0.000473,0.0029493,-0.00020294,0,0,0.049988,-0.019315,0,-0.0031659,0,0,0,0.0093626,0.00046836,0.0029493,-1.3078,0.0042601,0.0079496,1.7584e-08,0.24,0.88,0
0.012596,-0.0066303,0.0093096,0.00040619,0.0029147,-7.5178e-05,0,0,0.04988,-0.019567,0,-0.0011728,0,0,0,0.0093102,0.00040556,0.0029147,-0.48374,0.0042102,0.0079527,1.7429e-08,0.26,0.88,0
0.013593,-0.0067699,0.0092719,0.00034759,0.0028858,3.6487e-05,0,0,0.049811,-0.019798,0,0.0005692,0,0,0,0.009272,0.00034744,0.0028858,0.23425,0.0041684,0.0079647,1.7342e-08,0.28,0.88,0
0.014589,-0.0068695,0.0092449,0.00029443,0.0028618,0.00013323,0,0,0.049788,-0.020025,0,0.0020784,0,0,0,0.0092468,0.00029245,0.0028618,0.85264,0.0041337,0.007986,1.7321e-08,0.3,0.88,0
0.015584,-0.0069333,0.0092282,0.00024462,0.0028419,0.00021585,0,0,0.049814,-0.020258,0,0.0033673,0,0,0,0.0092334,0.00023944,0.0028419,1.3756,0.0041049,0.0080161,1.7361e-08,0.32,0.88,0
0.016581,-0.0069657,0.0092214,0.00019663,0.0028254,0.00028481,0,0,0.049889,-0.020504,0,0.004443,0,0,0,0.0092304,0.00018765,0.0028254,1.8058,0.0040811,0.0080546,1.7456e-08,0.34,0.88,0
0.01758,-0.0069714,0.0092234,0.00014943,0.0028119,0.00034029,0,0,0.05001,-0.020767,0,0.0053085,0,0,0,0.0092362,0.00013668,0.0028119,2.1447,0.0040616,0.0081003,1.7599e-08,0.36,0.88,0
0.018582,-0.0069548,0.0092333,0.00010242,0.0028007,0.00038232,0,0,0.050174,-0.021047,0,0.0059641,0,0,0,0.0092493,8.6436e-05,0.0028007,2.3934,0.0040455,0.008152,1.7781e-08,0.38,0.88,0
0.019587,-0.0069206,0.0092498,5.5424e-05,0.0027916,0.00041082,0,0,0.050374,-0.021342,0,0.0064089,0,0,0,0.0092681,3.7104e-05,0.0027916,2.5533,0.0040323,0.008208,1.7995e-08,0.4,0.88,0
0.020597,-0.0068734,0.0092714,8.6596e-06,0.002784,0.00042577,0,0,0.050602,-0.021648,0,0.006642,0,0,0,0.009291,-1.087e-05,0.002784,2.6263,0.0040214,0.0082667,1.823e-08,0.42,0.88,0
0.021611,-0.0068177,0.0092896,-3.6038e-05,0.0027761,0.00042379,0,0,0.050806,-0.021934,0,0.0066111,0,0,0,0.0093089,-5.5256e-05,0.0027761,2.5966,0.0040099,0.0083181,1.8428e-08,0.44,0.88,0
0.022631,-0.0067581,0.0093337,-5.9782e-05,0.0027822,0.00041048,0,0,0.051102,-0.022167,0,0.0064035,0,0,0,0.0093516,-7.7686e-05,0.0027822,2.4974,0.0040187,0.008374,1.8729e-08,0.46,0.88,0
0.023655,-0.006699,0.0093641,-9.5838e-05,0.0027805,0.00038566,0,0,0.051352,-0.022435,0,0.0060162,0,0,0,0.0093798,-0.00011153,0.0027805,2.3306,0.0040162,0.0084262,1.897e-08,0.48,0.88,0
0.024685,-0.0066444,0.0093932,-0.00012851,0.0027794,0.00034956,0,0,0.051588,-0.022682,0,0.0054531,0,0,0,0.009406,-0.00014133,0.0027794,2.0997,0.0040147,0.0084733,1.9191e-08,0.5,0.88,0
0.025719,-0.0065979,0.0094194,-0.00015682,0.0027788,0.0003034,0,0,0.051797,-0.022898,0,0.004733,0,0,0,0.009429,-0.00016643,0.0027788,1.8129,0.0040138,0.0085138,1.9384e-08,0.52,0.88,0
0.026756,-0.0065628,0.0094351,-0.00020466,0.0027691,0.00024382,0,0,0.051995,-0.023196,0,0.0038036,0,0,0,0.0094413,-0.00021082,0.0027691,1.448,0.0039999,0.0085604,1.9552e-08,0.54,0.88,0
0.027797,-0.0065418,0.009441,-0.00022745,0.0027641,0.00019784,0,0,0.05208,-0.023334,0,0.0030863,0,0,0,0.009445,-0.00023149,0.0027641,1.1718,0.0039925,0.0085803,1.9618e-08,0.56,0.88,0
0.02884,-0.0065369,0.0094667,-0.00020739,0.0027778,0.00012158,0,0,0.052174,-0.023284,0,0.0018966,0,0,0,0.0094683,-0.00020892,0.0027778,0.71991,0.0040124,0.0085828,1.9715e-08,0.58,0.88,0
0.029884,-0.0065495,0.0094561,-0.00024078,0.0027646,4.3517e-05,0,0,0.052194,-0.023442,0,0.00067887,0,0,0,0.0094563,-0.00024098,0.0027646,0.25712,0.0039933,0.0085979,1.9707e-08,0.6,0.88,0
0.030928,-0.0065803,0.0094455,-0.00025087,0.0027584,-1.6642e-05,0,0,0.052159,-0.023472,0,-0.00025962,0,0,0,0.0094455,-0.0002509,0.0027584,-0.09834,0.0039843,0.0085963,1.966e-08,0.62,0.88,0
0.031971,-0.0066292,0.0094341,-0.00023846,0.0027587,-8.4101e-05,0,0,0.052068,-0.023378,0,-0.001312,0,0,0,0.0094349,-0.00023919,0.0027587,-0.49812,0.0039848,0.0085775,1.9571e-08,0.64,0.88,0
0.033011,-0.0066956,0.0094164,-0.00021897,0.0027592,-0.00014709,0,0,0.051926,-0.02323,0,-0.0022946,0,0,0,0.0094187,-0.00022121,0.0027592,-0.87436,0.0039856,0.0085486,1.9434e-08,0.66,0.88,0
0.034048,-0.0067781,0.009393,-0.00019341,0.0027599,-0.0002037,0,0,0.051738,-0.023036,0,-0.0031777,0,0,0,0.0093973,-0.00019773,0.0027599,-1.2167,0.0039865,0.0085108,1.9255e-08,0.68,0.88,0
0.03508,-0.0068749,0.0093647,-0.00016301,0.0027605,-0.00025237,0,0,0.051513,-0.022804,0,-0.0039369,0,0,0,0.0093714,-0.00016969,0.0027605,-1.5162,0.0039874,0.0084653,1.904e-08,0.7,0.88,0
0.036108,-0.0069837,0.0093328,-0.00012914,0.0027611,-0.00029194,0,0,0.051259,-0.022544,0,-0.0045542,0,0,0,0.0093417,-0.00013814,0.0027611,-1.7656,0.0039882,0.0084136,1.8796e-08,0.72,0.88,0
0.037131,-0.0071018,0.0092981,-9.3222e-05,0.0027615,-0.00032166,0,0,0.050986,-0.022267,0,-0.0050179,0,0,0,0.0093091,-0.00010423,0.0027615,-1.9594,0.0039888,0.0083575,1.8531e-08,0.74,0.88,0
0.038148,-0.0072264,0.009262,-5.6599e-05,0.0027616,-0.0003412,0,0,0.050703,-0.021982,0,-0.0053227,0,0,0,0.0092745,-6.9075e-05,0.0027616,-2.0941,0.003989,0.0082986,1.8253e-08,0.76,0.88,0
0.039159,-0.0073544,0.0092255,-2.0508e-05,0.0027615,-0.00035061,0,0,0.050419,-0.0217,0,-0.0054695,0,0,0,0.0092388,-3.3784e-05,0.0027615,-2.1685,0.0039888,0.0082386,1.7972e-08,0.78,0.88,0
0.040164,-0.007483,0.0091897,1.3998e-05,0.0027611,-0.00035026,0,0,0.050143,-0.021427,0,-0.0054641,0,0,0,0.0092031,6.4738e-07,0.0027611,-2.1829,0.0039883,0.0081793,1.7693e-08,0.8,0.88,0
0.041165,-0.007609,0.0091554,4.6085e-05,0.0027604,-0.00034079,0,0,0.049881,-0.021172,0,-0.0053164,0,0,0,0.0091681,3.3353e-05,0.0027604,-2.1395,0.0039873,0.0081222,1.7426e-08,0.82,0.88,0
0.04216,-0.0077298,0.0091234,7.5144e-05,0.0027596,-0.00032304,0,0,0.049638,-0.020938,0,-0.0050394,0,0,0,0.0091349,6.3626e-05,0.0027596,-2.0421,0.003986,0.0080685,1.7174e-08,0.84,0.88,0
0.04315,-0.0078427,0.0090942,0.00010078,0.0027585,-0.00029794,0,0,0.049419,-0.02073,0,-0.0046479,0,0,0,0.0091041,9.0923e-05,0.0027585,-1.8954,0.0039845,0.0080194,1.6945e-08,0.86,0.88,0
0.044137,-0.0079454,0.0090684,0.0001228,0.0027574,-0.00026652,0,0,0.049226,-0.02055,0,-0.0041577,0,0,0,0.0090764,0.00011487,0.0027574,-1.705,0.0039829,0.0079756,1.6741e-08,0.88,0.88,0
0.045119,-0.0080358,0.0090462,0.00014115,0.0027562,-0.0002298,0,0,0.049062,-0.020397,0,-0.0035849,0,0,0,0.0090522,0.00013522,0.0027562,-1.4772,0.0039812,0.0079379,1.6565e-08,0.9,0.88,0
0.046099,-0.0081122,0.0090279,0.00015588,0.0027551,-0.00018878,0,0,0.048927,-0.020274,0,-0.0029449,0,0,0,0.0090319,0.00015187,0.0027551,-1.2184,0.0039796,0.0079066,1.6419e-08,0.92,0.88,0
0.047076,-0.0081731,0.0090135,0.00016712,0.0027542,-0.00014441,0,0,0.048823,-0.020179,0,-0.0022528,0,0,0,0.0090159,0.00016477,0.0027542,-0.93499,0.0039783,0.0078821,1.6305e-08,0.94,0.88,0
0.048052,-0.0082174,0.0090032,0.00017502,0.0027535,-9.7602e-05,0,0,0.048748,-0.020112,0,-0.0015226,0,0,0,0.0090043,0.00017394,0.0027535,-0.63334,0.0039772,0.0078645,1.6223e-08,0.96,0.88,0
0.049026,-0.0082443,0.008997,0.0001797,0.002753,-4.9195e-05,0,0,0.048703,-0.020072,0,-0.00076744,0,0,0,0.0089973,0.00017942,0.002753,-0.31966,0.0039766,0.007854,1.6174e-08,0.98,0.88,0
0.05,-0.0082533,0.008995,0.00018125,0.0027529,-2.8916e-05,0,0,0.048689,-0.020059,0,-0.00045109,0,0,0,0.0089951,0.00018115,0.0027529,-0.18797,0.0039764,0.0078506,1.6158e-08,1,0.88,0
0,0,0.0096091,0.0041182,0.0041182,-0.0025634,0,0,0.042829,2.1684e-19,0,-0.039989,0,0,0,0.01062,0.0031075,0.0041182,-21.518,0.0059485,0.0070614,1.6842e-08,0,0.9,0
0.00085659,-0.00079978,0.0095579,0.0035032,0.0039183,-0.0025217,0,0,0.043988,-0.0032378,0,-0.039338,0,0,0,0.010471,0.0025906,0.0039183,-19.897,0.0056598,0.0073072,1.7829e-08,0.02,0.9,0
0.0017595,-0.0016181,0.009707,0.0028719,0.0037737,-0.0024297,0,0,0.04628,-0.0070335,0,-0.037904,0,0,0,0.010483,0.0020963,0.0037737,-17.706,0.0054509,0.0076863,1.963e-08,0.04,0.9,0
0.0027078,-0.002423,0.0098157,0.0022617,0.0036232,-0.0022195,0,0,0.048302,-0.01062,0,-0.034625,0,0,0,0.01042,0.0016578,0.0036232,-15.22,0.0052336,0.0079632,2.0705e-08,0.06,0.9,0
0.0036916,-0.0031848,0.0098623,0.001753,0.0034846,-0.0019339,0,0,0.049746,-0.013506,0,-0.030169,0,0,0,0.0103,0.0013154,0.0034846,-12.75,0.0050333,0.0081202,2.1026e-08,0.08,0.9,0
0.0046976,-0.0038839,0.0098436,0.0013623,0.0033618,-0.0016235,0,0,0.050559,-0.015596,0,-0.025327,0,0,0,0.010144,0.0010621,0.0033618,-10.475,0.0048559,0.0081781,2.0783e-08,0.1,0.9,0
0.0057139,-0.0045112,0.0097753,0.001072,0.0032542,-0.0013247,0,0,0.050865,-0.017021,0,-0.020666,0,0,0,0.0099725,0.00087484,0.0032542,-8.4657,0.0047005,0.008172,2.0226e-08,0.12,0.9,0
0.0067322,-0.0050645,0.0096785,0.00085675,0.0031606,-0.0010544,0,0,0.05084,-0.01797,0,-0.016449,0,0,0,0.0098028,0.00073248,0.0031606,-6.7222,0.0045653,0.0081328,1.9552e-08,0.14,0.9,0
0.0077475,-0.0055459,0.0095721,0.00069595,0.0030804,-0.00081717,0,0,0.050635,-0.018599,0,-0.012748,0,0,0,0.0096468,0.00062134,0.0030804,-5.2164,0.0044495,0.0080815,1.8886e-08,0.16,0.9,0
0.0087576,-0.0059592,0.0094686,0.00057408,0.0030128,-0.00061151,0,0,0.050355,-0.019022,0,-0.0095396,0,0,0,0.0095104,0.00053223,0.0030128,-3.9147,0.0043518,0.0080306,1.8293e-08,0.18,0.9,0
0.0097617,-0.006309,0.0093749,0.00047999,0.0029565,-0.00043391,0,0,0.050064,-0.019317,0,-0.0067689,0,0,0,0.009396,0.00045887,0.0029565,-2.7861,0.0042705,0.0079868,1.7799e-08,0.2,0.9,0
0.01076,-0.0066002,0.0092949,0.00040566,0.0029102,-0.00028048,0,0,0.049801,-0.019535,0,-0.0043755,0,0,0,0.0093037,0.00039682,0.0029102,-1.8054,0.0042036,0.0079539,1.7412e-08,0.22,0.9,0
0.011754,-0.0068374,0.00923,0.00034533,0.0028726,-0.00014778,0,0,0.049587,-0.019713,0,-0.0023053,0,0,0,0.0092324,0.00034287,0.0028726,-0.95265,0.0041493,0.0079332,1.7128e-08,0.24,0.9,0
0.012744,-0.0070254,0.0091802,0.00029479,0.0028425,-3.2999e-05,0,0,0.049434,-0.019872,0,-0.00051478,0,0,0,0.0091804,0.00029466,0.0028425,-0.21278,0.0041058,0.0079251,1.6941e-08,0.26,0.9,0
0.013731,-0.0071689,0.0091452,0.00025093,0.0028188,6.5997e-05,0,0,0.049346,-0.02003,0,0.0010295,0,0,0,0.0091457,0.00025044,0.0028188,0.42511,0.0040717,0.0079294,1.6843e-08,0.28,0.9,0
0.014717,-0.0072723,0.009124,0.00021147,0.0028006,0.00015075,0,0,0.049322,-0.020196,0,0.0023517,0,0,0,0.0091265,0.00020892,0.0028006,0.96875,0.0040454,0.0079454,1.6824e-08,0.3,0.9,0
0.015704,-0.0073402,0.0091153,0.0001747,0.002787,0.00022229,0,0,0.049361,-0.020376,0,0.0034678,0,0,0,0.0091208,0.00016918,0.002787,1.4234,0.0040257,0.0079719,1.6876e-08,0.32,0.9,0
0.016692,-0.007377,0.0091178,0.00013942,0.0027772,0.00028126,0,0,0.049457,-0.020574,0,0.0043877,0,0,0,0.0091266,0.00013062,0.0027772,1.7925,0.0040115,0.0080077,1.6989e-08,0.34,0.9,0
0.017682,-0.0073874,0.0091301,0.00010482,0.0027705,0.000328,0,0,0.049605,-0.020792,0,0.0051169,0,0,0,0.009142,9.2917e-05,0.0027705,2.0786,0.0040018,0.0080515,1.7154e-08,0.36,0.9,0
0.018676,-0.0073759,0.0091506,7.0439e-05,0.0027663,0.00036266,0,0,0.049798,-0.021028,0,0.0056575,0,0,0,0.0091651,5.5978e-05,0.0027663,2.2835,0.0039958,0.0081014,1.7362e-08,0.38,0.9,0
0.019674,-0.0073471,0.0091778,3.6137e-05,0.0027642,0.00038528,0,0,0.050026,-0.021279,0,0.0060104,0,0,0,0.009194,1.9928e-05,0.0027642,2.4091,0.0039927,0.0081559,1.7601e-08,0.4,0.9,0
0.020677,-0.0073054,0.0092098,2.062e-06,0.0027636,0.00039593,0,0,0.050281,-0.02154,0,0.0061766,0,0,0,0.0092268,-1.4932e-05,0.0027636,2.4577,0.0039918,0.0082129,1.7863e-08,0.42,0.9,0
0.021685,-0.0072554,0.0092451,-3.1388e-05,0.0027641,0.00039476,0,0,0.050551,-0.021805,0,0.0061583,0,0,0,0.0092618,-4.8157e-05,0.0027641,2.4324,0.0039926,0.0082706,1.8136e-08,0.44,0.9,0
0.022699,-0.0072015,0.0092817,-6.3608e-05,0.0027654,0.00038208,0,0,0.050827,-0.022067,0,0.0059604,0,0,0,0.0092973,-7.9203e-05,0.0027654,2.3373,0.0039945,0.008327,1.8409e-08,0.46,0.9,0
0.023719,-0.0071477,0.0093181,-9.3841e-05,0.0027673,0.00035844,0,0,0.051097,-0.022317,0,0.0055916,0,0,0,0.0093318,-0.00010747,0.0027673,2.1778,0.0039972,0.0083802,1.8673e-08,0.48,0.9,0
0.024743,-0.007098,0.0093526,-0.00012124,0.0027694,0.00032467,0,0,0.051349,-0.022547,0,0.0050648,0,0,0,0.0093637,-0.00013235,0.0027694,1.9605,0.0040003,0.0084285,1.8916e-08,0.5,0.9,0
0.025773,-0.0070558,0.0093835,-0.00014495,0.0027716,0.00028189,0,0,0.051573,-0.022749,0,0.0043975,0,0,0,0.0093919,-0.00015328,0.0027716,1.6931,0.0040034,0.0084703,1.913e-08,0.52,0.9,0
0.026806,-0.0070243,0.0094096,-0.00016415,0.0027736,0.00023153,0,0,0.051761,-0.022915,0,0.0036119,0,0,0,0.0094152,-0.00016975,0.0027736,1.3846,0.0040064,0.0085043,1.9307e-08,0.54,0.9,0
0.027843,-0.0070059,0.0094297,-0.00017818,0.0027755,0.00017526,0,0,0.051903,-0.023038,0,0.002734,0,0,0,0.0094329,-0.00018137,0.0027755,1.0447,0.004009,0.0085293,1.9439e-08,0.56,0.9,0
0.028882,-0.0070026,0.0094429,-0.00018654,0.0027769,0.00011495,0,0,0.051995,-0.023115,0,0.0017932,0,0,0,0.0094443,-0.00018791,0.0027769,0.68383,0.0040111,0.0085447,1.9523e-08,0.58,0.9,0
0.029923,-0.0070157,0.0094487,-0.00018897,0.0027779,5.2621e-05,0,0,0.052032,-0.023142,0,0.00082088,0,0,0,0.009449,-0.00018925,0.0027779,0.31282,0.0040125,0.0085499,1.9554e-08,0.6,0.9,0
0.030963,-0.0070459,0.0094468,-0.00018547,0.0027784,-9.6748e-06,0,0,0.052013,-0.023118,0,-0.00015093,0,0,0,0.0094468,-0.00018548,0.0027784,-0.057549,0.0040132,0.008545,1.9533e-08,0.62,0.9,0
0.032003,-0.0070932,0.0094373,-0.00017631,0.0027783,-6.993e-05,0,0,0.05194,-0.023046,0,-0.0010909,0,0,0,0.0094378,-0.00017682,0.0027783,-0.41674,0.0040131,0.00853,1.946e-08,0.64,0.9,0
0.033041,-0.0071569,0.0094206,-0.00016201,0.0027776,-0.00012628,0,0,0.051816,-0.022929,0,-0.0019699,0,0,0,0.0094223,-0.00016367,0.0027776,-0.75485,0.0040121,0.0085057,1.9337e-08,0.66,0.9,0
0.034076,-0.007236,0.0093974,-0.00014327,0.0027763,-0.00017707,0,0,0.051645,-0.022772,0,-0.0027622,0,0,0,0.0094007,-0.00014655,0.0027763,-1.0629,0.0040101,0.0084728,1.917e-08,0.68,0.9,0
0.035107,-0.0073286,0.0093685,-0.00012098,0.0027743,-0.00022094,0,0,0.051435,-0.022583,0,-0.0034466,0,0,0,0.0093737,-0.00012613,0.0027743,-1.333,0.0040073,0.0084324,1.8963e-08,0.7,0.9,0
0.036133,-0.0074327,0.0093351,-9.6138e-05,0.0027717,-0.00025685,0,0,0.051194,-0.022369,0,-0.0040068,0,0,0,0.0093421,-0.00010313,0.0027717,-1.5588,0.0040035,0.0083859,1.8725e-08,0.72,0.9,0
0.037155,-0.0075458,0.0092982,-6.9741e-05,0.0027685,-0.00028412,0,0,0.050931,-0.022138,0,-0.0044322,0,0,0,0.0093068,-7.835e-05,0.0027685,-1.7356,0.003999,0.0083347,1.8464e-08,0.74,0.9,0
0.038171,-0.0076651,0.009259,-4.2776e-05,0.0027649,-0.00030241,0,0,0.050654,-0.0219,0,-0.0047175,0,0,0,0.0092688,-5.2597e-05,0.0027649,-1.8601,0.0039937,0.0082803,1.8186e-08,0.76,0.9,0
0.039181,-0.007788,0.0092188,-1.6142e-05,0.0027608,-0.0003117,0,0,0.050372,-0.02166,0,-0.0048626,0,0,0,0.0092293,-2.665e-05,0.0027608,-1.9309,0.0039878,0.0082244,1.7901e-08,0.78,0.9,0
0.040185,-0.0079115,0.0091786,9.3902e-06,0.0027564,-0.00031228,0,0,0.050093,-0.021427,0,-0.0048715,0,0,0,0.0091892,-1.2328e-06,0.0027564,-1.9483,0.0039815,0.0081685,1.7618e-08,0.8,0.9,0
0.041184,-0.0080329,0.0091395,3.3199e-05,0.0027518,-0.00030464,0,0,0.049824,-0.021205,0,-0.0047524,0,0,0,0.0091497,2.3019e-05,0.0027518,-1.9139,0.0039749,0.0081141,1.7342e-08,0.82,0.9,0
0.042178,-0.0081493,0.0091025,5.4825e-05,0.0027472,-0.00028948,0,0,0.049571,-0.021,0,-0.0045158,0,0,0,0.0091118,4.5573e-05,0.0027472,-1.8307,0.0039682,0.0080623,1.7081e-08,0.84,0.9,0
0.043167,-0.0082583,0.0090683,7.3965e-05,0.0027427,-0.00026758,0,0,0.04934,-0.020816,0,-0.0041743,0,0,0,0.0090762,6.6011e-05,0.0027427,-1.7026,0.0039616,0.0080144,1.684e-08,0.86,0.9,0
0.044152,-0.0083576,0.0090375,9.045e-05,0.0027384,-0.00023985,0,0,0.049133,-0.020654,0,-0.0037416,0,0,0,0.0090439,8.4025e-05,0.0027384,-1.5345,0.0039555,0.0079714,1.6624e-08,0.88,0.9,0
0.045133,-0.0084451,0.0090107,0.00010423,0.0027345,-0.00020716,0,0,0.048955,-0.020516,0,-0.0032317,0,0,0,0.0090155,9.9411e-05,0.0027345,-1.3317,0.0039498,0.0079339,1.6436e-08,0.9,0.9,0
0.04611,-0.0085191,0.0089883,0.00011532,0.0027311,-0.00017043,0,0,0.048806,-0.020403,0,-0.0026588,0,0,0,0.0089916,0.00011205,0.0027311,-1.1,0.0039449,0.0079025,1.628e-08,0.92,0.9,0
0.047085,-0.0085782,0.0089706,0.0001238,0.0027283,-0.00013053,0,0,0.04869,-0.020315,0,-0.0020363,0,0,0,0.0089725,0.00012188,0.0027283,-0.84514,0.0039409,0.0078778,1.6156e-08,0.94,0.9,0
0.048058,-0.0086213,0.0089578,0.00012977,0.0027263,-8.8296e-05,0,0,0.048606,-0.020253,0,-0.0013774,0,0,0,0.0089587,0.00012889,0.0027263,-0.57298,0.003938,0.0078599,1.6067e-08,0.96,0.9,0
0.049029,-0.0086474,0.0089501,0.00013332,0.002725,-4.4527e-05,0,0,0.048556,-0.020215,0,-0.00069463,0,0,0,0.0089503,0.00013309,0.002725,-0.28935,0.0039362,0.0078491,1.6013e-08,0.98,0.9,0
0.05,-0.0086561,0.0089475,0.00013449,0.0027246,-2.8094e-05,0,0,0.048539,-0.020203,0,-0.00043827,0,0,0,0.0089476,0.0001344,0.0027246,-0.18265,0.0039355,0.0078456,1.5996e-08,1,0.9,0
0,0,0.009922,0.0042523,0.0042523,-0.0027919,0,0,0.044224,-2.1684e-19,0,-0.043554,0,0,0,0.011066,0.0031083,0.0042523,-22.282,0.0061422,0.0074519,1.9575e-08,0,0.92,0
0.00088447,-0.00087108,0.0098443,0.0034636,0.0039924,-0.0027215,0,0,0.045645,-0.0041247,0,-0.042456,0,0,0,0.010847,0.0024604,0.0039924,-20.233,0.0057668,0.0077356,2.0667e-08,0.02,0.92,0
0.0018258,-0.0017736,0.0099889,0.0026406,0.0037888,-0.0025733,0,0,0.048361,-0.0089566,0,-0.040144,0,0,0,0.0108,0.001829,0.0037888,-17.503,0.0054728,0.0081697,2.2665e-08,0.04,0.92,0
0.0028189,-0.0026556,0.010065,0.0019205,0.0035957,-0.0022638,0,0,0.050463,-0.013067,0,-0.035315,0,0,0,0.010652,0.0013336,0.0035957,-14.535,0.0051939,0.0084187,2.3348e-08,0.06,0.92,0
0.0038443,-0.0034763,0.010045,0.0013936,0.0034315,-0.0018829,0,0,0.051583,-0.015896,0,-0.029373,0,0,0,0.010437,0.0010016,0.0034315,-11.761,0.0049566,0.0084853,2.292e-08,0.08,0.92,0
0.0048822,-0.0042153,0.0099405,0.0010351,0.0032927,-0.001513,0,0,0.051853,-0.017609,0,-0.023603,0,0,0,0.010191,0.00078508,0.0032927,-9.3837,0.0047561,0.008436,2.1897e-08,0.1,0.92,0
0.0059184,-0.0048678,0.0097871,0.00078706,0.0031722,-0.0011885,0,0,0.051596,-0.018604,0,-0.01854,0,0,0,0.0099413,0.00063276,0.0031722,-7.3971,0.0045821,0.0083342,2.069e-08,0.12,0.92,0
0.006946,-0.0054368,0.0096221,0.00061321,0.0030706,-0.0009154,0,0,0.051102,-0.019168,0,-0.01428,0,0,0,0.0097142,0.00052114,0.0030706,-5.7436,0.0044353,0.0082204,1.9552e-08,0.14,0.92,0
0.0079625,-0.0059279,0.0094666,0.0004887,0.0029866,-0.00068817,0,0,0.050544,-0.019484,0,-0.010736,0,0,0,0.009519,0.00043626,0.0029866,-4.3579,0.004314,0.008114,1.8576e-08,0.16,0.92,0
0.0089678,-0.0063473,0.0093305,0.00039744,0.0029184,-0.00049888,0,0,0.050014,-0.019663,0,-0.0077825,0,0,0,0.0093582,0.00036966,0.0029184,-3.1866,0.0042154,0.0080238,1.7787e-08,0.18,0.92,0
0.0099631,-0.0067012,0.0092174,0.00032879,0.0028638,-0.00034015,0,0,0.049557,-0.019773,0,-0.0053064,0,0,0,0.0092304,0.0003158,0.0028638,-2.1883,0.0041367,0.0079528,1.7176e-08,0.2,0.92,0
0.01095,-0.0069952,0.0091278,0.00027568,0.0028211,-0.00020604,0,0,0.049193,-0.019854,0,-0.0032141,0,0,0,0.0091326,0.00027089,0.0028211,-1.3326,0.0040749,0.0079016,1.6726e-08,0.22,0.92,0
0.011931,-0.0072349,0.0090607,0.00023327,0.0027882,-9.1979e-05,0,0,0.048926,-0.019928,0,-0.0014349,0,0,0,0.0090617,0.00023231,0.0027882,-0.59692,0.0040274,0.0078691,1.6416e-08,0.24,0.92,0
0.012907,-0.0074252,0.0090142,0.00019817,0.0027637,5.3729e-06,0,0,0.048754,-0.020011,0,8.3817e-05,0,0,0,0.0090142,0.00019816,0.0027637,0.034918,0.003992,0.0078541,1.6227e-08,0.26,0.92,0
0.013881,-0.0075711,0.0089864,0.00016798,0.0027463,8.8424e-05,0,0,0.048673,-0.020111,0,0.0013794,0,0,0,0.0089873,0.0001671,0.0027463,0.57444,0.0039669,0.0078548,1.6144e-08,0.28,0.92,0
0.014854,-0.0076773,0.0089751,0.00014098,0.0027348,0.00015884,0,0,0.048674,-0.020232,0,0.0024779,0,0,0,0.0089779,0.00013813,0.0027348,1.0297,0.0039503,0.0078696,1.6152e-08,0.3,0.92,0
0.015828,-0.0077483,0.0089783,0.00011592,0.0027283,0.00021771,0,0,0.04875,-0.020376,0,0.0033962,0,0,0,0.0089836,0.00011057,0.0027283,1.4064,0.0039408,0.0078966,1.6239e-08,0.32,0.92,0
0.016804,-0.0077887,0.0089939,9.1914e-05,0.0027257,0.00026571,0,0,0.048892,-0.020544,0,0.004145,0,0,0,0.0090018,8.399e-05,0.0027257,1.7082,0.0039372,0.007934,1.6392e-08,0.34,0.92,0
0.017784,-0.0078031,0.00902,6.839e-05,0.0027265,0.00030322,0,0,0.049089,-0.020733,0,0.0047302,0,0,0,0.0090303,5.8131e-05,0.0027265,1.9378,0.0039383,0.0079799,1.6601e-08,0.36,0.92,0
0.018768,-0.007796,0.0090546,4.5025e-05,0.0027299,0.00033043,0,0,0.049333,-0.020942,0,0.0051546,0,0,0,0.0090667,3.2923e-05,0.0027299,2.0976,0.0039432,0.0080324,1.6853e-08,0.38,0.92,0
0.019757,-0.0077718,0.0090956,2.172e-05,0.0027352,0.00034742,0,0,0.049611,-0.021165,0,0.0054198,0,0,0,0.0091089,8.4375e-06,0.0027352,2.1895,0.0039508,0.0080894,1.714e-08,0.4,0.92,0
0.020752,-0.0077349,0.0091411,-1.4234e-06,0.0027419,0.0003543,0,0,0.049914,-0.021398,0,0.0055271,0,0,0,0.0091549,-1.5133e-05,0.0027419,2.2159,0.0039605,0.0081491,1.7449e-08,0.42,0.92,0
0.021753,-0.0076899,0.0091892,-2.4133e-05,0.0027495,0.00035121,0,0,0.050229,-0.021635,0,0.0054789,0,0,0,0.0092026,-3.7502e-05,0.0027495,2.1799,0.0039715,0.0082094,1.7769e-08,0.44,0.92,0
0.022761,-0.0076408,0.0092378,-4.5994e-05,0.0027576,0.00033847,0,0,0.050546,-0.021868,0,0.0052801,0,0,0,0.0092502,-5.8318e-05,0.0027576,2.0852,0.0039831,0.0082683,1.8089e-08,0.46,0.92,0
0.023775,-0.0075917,0.0092852,-6.6492e-05,0.0027656,0.00031656,0,0,0.050853,-0.02209,0,0.0049383,0,0,0,0.0092959,-7.7195e-05,0.0027656,1.9365,0.0039948,0.0083241,1.8397e-08,0.48,0.92,0
0.024795,-0.0075462,0.0093295,-8.5051e-05,0.0027733,0.0002862,0,0,0.051138,-0.022295,0,0.0044647,0,0,0,0.0093382,-9.3744e-05,0.0027733,1.7396,0.0040059,0.0083749,1.8683e-08,0.5,0.92,0
0.025821,-0.0075078,0.0093692,-0.00010109,0.0027804,0.00024835,0,0,0.051392,-0.022476,0,0.0038743,0,0,0,0.0093757,-0.0001076,0.0027804,1.5012,0.0040162,0.0084194,1.8937e-08,0.52,0.92,0
0.026851,-0.0074794,0.0094028,-0.00011406,0.0027866,0.00020422,0,0,0.051606,-0.022625,0,0.0031859,0,0,0,0.0094072,-0.00011844,0.0027866,1.2288,0.0040251,0.008456,1.915e-08,0.54,0.92,0
0.027885,-0.0074633,0.0094292,-0.0001235,0.0027917,0.00015521,0,0,0.051772,-0.022739,0,0.0024213,0,0,0,0.0094317,-0.00012602,0.0027917,0.9306,0.0040325,0.0084839,1.9316e-08,0.56,0.92,0
0.028922,-0.0074615,0.0094475,-0.00012908,0.0027955,0.0001029,0,0,0.051886,-0.022812,0,0.0016052,0,0,0,0.0094486,-0.00013019,0.0027955,0.61552,0.004038,0.0085023,1.9428e-08,0.58,0.92,0
0.029961,-0.0074752,0.0094572,-0.00013063,0.002798,4.8961e-05,0,0,0.051942,-0.022843,0,0.0007638,0,0,0,0.0094575,-0.00013088,0.002798,0.29258,0.0040415,0.0085107,1.9484e-08,0.6,0.92,0
0.031,-0.007505,0.009458,-0.00012815,0.002799,-4.8756e-06,0,0,0.051941,-0.022832,0,-7.6059e-05,0,0,0,0.009458,-0.00012815,0.002799,-0.029141,0.004043,0.008509,1.9482e-08,0.62,0.92,0
0.032038,-0.0075511,0.0094501,-0.00012181,0.0027985,-5.6936e-05,0,0,0.051882,-0.022778,0,-0.00088821,0,0,0,0.0094504,-0.00012214,0.0027985,-0.3408,0.0040423,0.0084974,1.9422e-08,0.64,0.92,0
0.033075,-0.0076127,0.0094338,-0.00011195,0.0027966,-0.00010566,0,0,0.05177,-0.022686,0,-0.0016482,0,0,0,0.009435,-0.00011312,0.0027966,-0.63406,0.0040395,0.0084764,1.9309e-08,0.66,0.92,0
0.034109,-0.007689,0.0094098,-9.9071e-05,0.0027932,-0.00014965,0,0,0.05161,-0.02256,0,-0.0023345,0,0,0,0.0094122,-0.00010142,0.0027932,-0.90138,0.0040347,0.0084469,1.9145e-08,0.68,0.92,0
0.035139,-0.0077782,0.0093791,-8.3761e-05,0.0027886,-0.00018775,0,0,0.051406,-0.022405,0,-0.0029289,0,0,0,0.0093829,-8.7484e-05,0.0027886,-1.1362,0.004028,0.0084096,1.8938e-08,0.7,0.92,0
0.036165,-0.0078784,0.0093428,-6.6683e-05,0.0027828,-0.00021908,0,0,0.051168,-0.022226,0,-0.0034176,0,0,0,0.0093479,-7.1781e-05,0.0027828,-1.333,0.0040197,0.008366,1.8695e-08,0.72,0.92,0
0.037186,-0.0079873,0.0093021,-4.8526e-05,0.0027761,-0.00024303,0,0,0.050903,-0.022032,0,-0.0037913,0,0,0,0.0093084,-5.4839e-05,0.0027761,-1.4878,0.0040099,0.0083173,1.8425e-08,0.74,0.92,0
0.038201,-0.0081023,0.0092583,-2.9958e-05,0.0027685,-0.0002593,0,0,0.050621,-0.021828,0,-0.0040452,0,0,0,0.0092656,-3.7191e-05,0.0027685,-1.5979,0.003999,0.0082651,1.8135e-08,0.76,0.92,0
0.039211,-0.0082208,0.0092128,-1.1591e-05,0.0027604,-0.00026785,0,0,0.050329,-0.021621,0,-0.0041785,0,0,0,0.0092206,-1.9362e-05,0.0027604,-1.6618,0.0039872,0.0082109,1.7836e-08,0.78,0.92,0
0.040215,-0.00834,0.0091668,6.0444e-06,0.0027519,-0.00026887,0,0,0.050037,-0.021417,0,-0.0041944,0,0,0,0.0091747,-1.8401e-06,0.0027519,-1.6797,0.0039749,0.0081561,1.7535e-08,0.8,0.92,0
0.041212,-0.0084572,0.0091216,2.2518e-05,0.0027432,-0.00026276,0,0,0.049751,-0.021222,0,-0.0040991,0,0,0,0.0091292,1.4937e-05,0.0027432,-1.6527,0.0039625,0.0081023,1.7242e-08,0.82,0.92,0
0.042204,-0.0085698,0.0090783,3.751e-05,0.0027347,-0.00025009,0,0,0.04948,-0.021038,0,-0.0039015,0,0,0,0.0090852,3.0597e-05,0.0027347,-1.5834,0.0039502,0.0080507,1.6962e-08,0.84,0.92,0
0.043192,-0.0086753,0.0090379,5.0802e-05,0.0027266,-0.00023153,0,0,0.049228,-0.020871,0,-0.0036118,0,0,0,0.0090438,4.4842e-05,0.0027266,-1.4748,0.0039384,0.0080025,1.6702e-08,0.86,0.92,0
0.044174,-0.0087715,0.0090012,6.2273e-05,0.002719,-0.0002078,0,0,0.049001,-0.020723,0,-0.0032417,0,0,0,0.009006,5.7445e-05,0.002719,-1.331,0.0039275,0.0079589,1.6468e-08,0.88,0.92,0
0.045151,-0.0088564,0.008969,7.1875e-05,0.0027123,-0.0001797,0,0,0.048802,-0.020595,0,-0.0028032,0,0,0,0.0089726,6.8248e-05,0.0027123,-1.1566,0.0039177,0.0079206,1.6264e-08,0.9,0.92,0
0.046126,-0.0089283,0.0089419,7.962e-05,0.0027065,-0.00014798,0,0,0.048636,-0.020489,0,-0.0023085,0,0,0,0.0089444,7.715e-05,0.0027065,-0.95635,0.0039093,0.0078883,1.6093e-08,0.92,0.92,0
0.047097,-0.0089857,0.0089203,8.5552e-05,0.0027018,-0.00011342,0,0,0.048505,-0.020406,0,-0.0017694,0,0,0,0.0089218,8.4096e-05,0.0027018,-0.73541,0.0039025,0.0078627,1.5957e-08,0.94,0.92,0
0.048066,-0.0090275,0.0089047,8.9731e-05,0.0026983,-7.6765e-05,0,0,0.04841,-0.020347,0,-0.0011975,0,0,0,0.0089053,8.9062e-05,0.0026983,-0.49891,0.0038976,0.0078442,1.5859e-08,0.96,0.92,0
0.049033,-0.0090529,0.0088952,9.2212e-05,0.0026962,-3.8725e-05,0,0,0.048352,-0.020311,0,-0.00060411,0,0,0,0.0088954,9.2041e-05,0.0026962,-0.25204,0.0038946,0.0078329,1.5799e-08,0.98,0.92,0
0.05,-0.0090615,0.008892,9.3034e-05,0.0026955,-2.7319e-05,0,0,0.048333,-0.020299,0,-0.00042618,0,0,0,0.0088921,9.2949e-05,0.0026955,-0.17789,0.0038935,0.0078293,1.578e-08,1,0.92,0
0,0,0.010454,0.0044803,0.0044803,-0.0030922,0,0,0.046595,1.301e-18,0,-0.048238,0,0,0,0.011766,0.003168,0.0044803,-22.996,0.0064716,0.0080232,2.415e-08,0,0.94,0
0.00093191,-0.00096477,0.010316,0.0033624,0.0041035,-0.0029438,0,0,0.048457,-0.0057805,0,-0.045924,0,0,0,0.011395,0.0022835,0.0041035,-20.128,0.0059273,0.0083514,2.5193e-08,0.02,0.94,0
0.0019383,-0.0019764,0.010417,0.0022335,0.003795,-0.0026726,0,0,0.051649,-0.01218,0,-0.041693,0,0,0,0.011212,0.0014379,0.003795,-16.576,0.0054817,0.0088348,2.71e-08,0.04,0.94,0
0.0029979,-0.0029456,0.010405,0.0014352,0.0035521,-0.0021836,0,0,0.053453,-0.016512,0,-0.034065,0,0,0,0.010908,0.00093185,0.0035521,-12.98,0.0051308,0.0089586,2.6555e-08,0.06,0.94,0
0.0040764,-0.0038206,0.010253,0.00098384,0.0033711,-0.0016956,0,0,0.05368,-0.018621,0,-0.026452,0,0,0,0.010554,0.0006834,0.0033711,-10.048,0.0048694,0.0088384,2.4718e-08,0.08,0.94,0
0.0051451,-0.0045883,0.0099943,0.00069764,0.0032076,-0.0012886,0,0,0.052936,-0.019578,0,-0.020103,0,0,0,0.01017,0.00052232,0.0032076,-7.7473,0.0046332,0.0086241,2.2497e-08,0.1,0.94,0
0.0061939,-0.0052553,0.0097256,0.00051352,0.0030717,-0.00097009,0,0,0.0519,-0.019954,0,-0.015133,0,0,0,0.0098267,0.00041247,0.0030717,-5.9467,0.004437,0.0084062,2.0532e-08,0.12,0.94,0
0.0072211,-0.0058312,0.009484,0.00039062,0.0029624,-0.00072139,0,0,0.050868,-0.02006,0,-0.011254,0,0,0,0.0095409,0.00033374,0.0029624,-4.5078,0.004279,0.0082145,1.8951e-08,0.14,0.94,0
0.0082286,-0.0063252,0.0092817,0.00030596,0.0028763,-0.00052501,0,0,0.049962,-0.020049,0,-0.0081901,0,0,0,0.0093123,0.00027536,0.0028763,-3.3361,0.0041547,0.0080577,1.7734e-08,0.16,0.94,0
0.0092196,-0.0067457,0.0091199,0.00024574,0.0028097,-0.00036721,0,0,0.049219,-0.019999,0,-0.0057285,0,0,0,0.0091351,0.00023057,0.0028097,-2.3655,0.0040584,0.0079357,1.6825e-08,0.18,0.94,0
0.010197,-0.0071,0.0089955,0.0002015,0.0027591,-0.00023823,0,0,0.048644,-0.019949,0,-0.0037164,0,0,0,0.0090019,0.00019505,0.0027591,-1.5506,0.0039854,0.0078456,1.6167e-08,0.2,0.94,0
0.011165,-0.0073943,0.0089044,0.00016788,0.0027217,-0.0001312,0,0,0.048225,-0.01992,0,-0.0020468,0,0,0,0.0089064,0.00016591,0.0027217,-0.86019,0.0039313,0.0077839,1.5712e-08,0.22,0.94,0
0.012126,-0.0076346,0.0088425,0.0001414,0.0026952,-4.1372e-05,0,0,0.047949,-0.019919,0,-0.0006454,0,0,0,0.0088427,0.0001412,0.0026952,-0.27242,0.003893,0.0077469,1.5423e-08,0.24,0.94,0
0.013083,-0.0078259,0.0088059,0.0001197,0.0026777,3.4554e-05,0,0,0.0478,-0.019952,0,0.00053905,0,0,0,0.008806,0.00011956,0.0026777,0.22792,0.0038678,0.0077316,1.5273e-08,0.26,0.94,0
0.014038,-0.0079733,0.0087912,0.00010116,0.0026677,9.8823e-05,0,0,0.047763,-0.020019,0,0.0015416,0,0,0,0.0087923,0.00010004,0.0026677,0.65145,0.0038533,0.0077349,1.5239e-08,0.28,0.94,0
0.014994,-0.0080815,0.0087952,8.4647e-05,0.002664,0.00015293,0,0,0.047824,-0.020119,0,0.0023857,0,0,0,0.0087979,8.1962e-05,0.002664,1.0055,0.0038479,0.0077543,1.5303e-08,0.3,0.94,0
0.015951,-0.0081552,0.0088152,6.9335e-05,0.0026654,0.00019784,0,0,0.047969,-0.020249,0,0.0030864,0,0,0,0.0088197,6.4861e-05,0.0026654,1.2952,0.00385,0.0077874,1.5451e-08,0.32,0.94,0
0.016913,-0.0081988,0.0088486,5.4667e-05,0.002671,0.00023414,0,0,0.048185,-0.020407,0,0.0036526,0,0,0,0.0088548,4.8437e-05,0.002671,1.5241,0.0038581,0.0078317,1.5668e-08,0.34,0.94,0
0.017879,-0.0082168,0.0088928,4.0279e-05,0.0026799,0.00026213,0,0,0.04846,-0.020589,0,0.0040893,0,0,0,0.0089005,3.2524e-05,0.0026799,1.6946,0.003871,0.007885,1.5943e-08,0.36,0.94,0
0.018851,-0.0082136,0.0089455,2.5969e-05,0.0026914,0.00028198,0,0,0.048781,-0.020791,0,0.0043989,0,0,0,0.0089543,1.7064e-05,0.0026914,1.8089,0.0038876,0.0079452,1.6265e-08,0.38,0.94,0
0.01983,-0.0081937,0.0090043,1.1679e-05,0.0027048,0.00029375,0,0,0.049136,-0.021006,0,0.0045826,0,0,0,0.0090139,2.0928e-06,0.0027048,1.869,0.0039069,0.00801,1.6622e-08,0.4,0.94,0
0.020816,-0.0081613,0.009067,-2.5276e-06,0.0027193,0.00029753,0,0,0.049512,-0.02123,0,0.0046414,0,0,0,0.0090767,-1.2278e-05,0.0027193,1.8769,0.0039279,0.0080774,1.7001e-08,0.42,0.94,0
0.021811,-0.0081208,0.0091313,-1.6477e-05,0.0027345,0.00029343,0,0,0.049896,-0.021457,0,0.0045775,0,0,0,0.0091407,-2.5879e-05,0.0027345,1.8353,0.0039498,0.0081452,1.739e-08,0.44,0.94,0
0.022812,-0.0080762,0.0091952,-2.9909e-05,0.0027496,0.0002817,0,0,0.050276,-0.02168,0,0.0043945,0,0,0,0.0092038,-3.8503e-05,0.0027496,1.7474,0.0039716,0.0082113,1.7778e-08,0.46,0.94,0
0.023821,-0.0080313,0.0092566,-4.2505e-05,0.0027642,0.00026273,0,0,0.05064,-0.021892,0,0.0040985,0,0,0,0.009264,-4.9922e-05,0.0027642,1.6171,0.0039928,0.0082739,1.8152e-08,0.48,0.94,0
0.024838,-0.0079898,0.0093135,-5.3906e-05,0.0027779,0.00023709,0,0,0.050978,-0.022088,0,0.0036987,0,0,0,0.0093195,-5.9903e-05,0.0027779,1.449,0.0040125,0.0083312,1.8501e-08,0.5,0.94,0
0.025861,-0.0079549,0.0093642,-6.3749e-05,0.0027901,0.00020557,0,0,0.051278,-0.02226,0,0.0032069,0,0,0,0.0093687,-6.8229e-05,0.0027901,1.2485,0.0040302,0.0083816,1.8812e-08,0.52,0.94,0
0.026889,-0.0079293,0.0094073,-7.1698e-05,0.0028007,0.0001691,0,0,0.051531,-0.022404,0,0.002638,0,0,0,0.0094103,-7.4714e-05,0.0028007,1.0217,0.0040454,0.0084238,1.9077e-08,0.54,0.94,0
0.027922,-0.0079154,0.0094414,-7.7468e-05,0.0028092,0.00012882,0,0,0.051731,-0.022516,0,0.0020096,0,0,0,0.0094432,-7.9212e-05,0.0028092,0.77522,0.0040577,0.0084566,1.9287e-08,0.56,0.94,0
0.028958,-0.0079151,0.0094658,-8.0854e-05,0.0028155,8.5979e-05,0,0,0.051873,-0.022592,0,0.0013413,0,0,0,0.0094666,-8.1629e-05,0.0028155,0.51596,0.0040668,0.0084794,1.9435e-08,0.58,0.94,0
0.029997,-0.0079294,0.0094799,-8.1747e-05,0.0028194,4.1909e-05,0,0,0.051951,-0.022629,0,0.00065378,0,0,0,0.0094801,-8.1931e-05,0.0028194,0.25112,0.0040725,0.0084916,1.9519e-08,0.6,0.94,0
0.031036,-0.0079591,0.0094834,-8.0145e-05,0.002821,-2.0204e-06,0,0,0.051967,-0.022629,0,-3.1519e-05,0,0,0,0.0094834,-8.0145e-05,0.002821,-0.012105,0.0040747,0.0084931,1.9535e-08,0.62,0.94,0
0.032075,-0.0080043,0.0094764,-7.6157e-05,0.0028201,-4.4473e-05,0,0,0.05192,-0.022591,0,-0.00069378,0,0,0,0.0094766,-7.6364e-05,0.0028201,-0.26674,0.0040735,0.0084841,1.9486e-08,0.64,0.94,0
0.033113,-0.0080644,0.0094596,-6.9994e-05,0.0028169,-8.42e-05,0,0,0.051813,-0.022517,0,-0.0013135,0,0,0,0.0094603,-7.0738e-05,0.0028169,-0.5062,0.0040688,0.0084651,1.9373e-08,0.66,0.94,0
0.034148,-0.0081384,0.0094335,-6.1956e-05,0.0028115,-0.00012009,0,0,0.051652,-0.022413,0,-0.0018735,0,0,0,0.009435,-6.3475e-05,0.0028115,-0.72449,0.004061,0.0084368,1.9204e-08,0.68,0.94,0
0.035179,-0.0082248,0.0093994,-5.241e-05,0.0028041,-0.00015123,0,0,0.051443,-0.022281,0,-0.0023591,0,0,0,0.0094018,-5.4828e-05,0.0028041,-0.91641,0.0040503,0.0084003,1.8983e-08,0.7,0.94,0
0.036206,-0.0083217,0.0093583,-4.1763e-05,0.002795,-0.00017688,0,0,0.051194,-0.022127,0,-0.0027593,0,0,0,0.0093616,-4.509e-05,0.002795,-1.0776,0.0040372,0.0083568,1.8721e-08,0.72,0.94,0
0.037227,-0.008427,0.0093118,-3.0442e-05,0.0027844,-0.00019657,0,0,0.050914,-0.021956,0,-0.0030665,0,0,0,0.0093159,-3.4576e-05,0.0027844,-1.2048,0.0040219,0.0083078,1.8427e-08,0.74,0.94,0
0.038242,-0.0085383,0.0092613,-1.8858e-05,0.0027727,-0.00021003,0,0,0.050611,-0.021774,0,-0.0032765,0,0,0,0.009266,-2.3609e-05,0.0027727,-1.2958,0.0040051,0.0082547,1.811e-08,0.76,0.94,0
0.039251,-0.0086529,0.0092084,-7.3932e-06,0.0027603,-0.00021722,0,0,0.050295,-0.021588,0,-0.0033886,0,0,0,0.0092135,-1.251e-05,0.0027603,-1.3495,0.0039871,0.0081991,1.7781e-08,0.78,0.94,0
0.040254,-0.0087682,0.0091545,3.6235e-06,0.0027474,-0.00021829,0,0,0.049975,-0.021402,0,-0.0034053,0,0,0,0.0091597,-1.5806e-06,0.0027474,-1.3657,0.0039685,0.0081426,1.7449e-08,0.8,0.94,0
0.04125,-0.0088817,0.0091012,1.3924e-05,0.0027346,-0.00021354,0,0,0.04966,-0.021221,0,-0.0033313,0,0,0,0.0091062,8.9083e-06,0.0027346,-1.3454,0.0039499,0.0080867,1.7124e-08,0.82,0.94,0
0.042241,-0.0089908,0.0090498,2.3305e-05,0.0027219,-0.00020343,0,0,0.049358,-0.021049,0,-0.0031735,0,0,0,0.0090544,1.8723e-05,0.0027219,-1.2904,0.0039317,0.0080328,1.6814e-08,0.84,0.94,0
0.043225,-0.0090931,0.0090016,3.1631e-05,0.00271,-0.00018848,0,0,0.049075,-0.020891,0,-0.0029403,0,0,0,0.0090055,2.7672e-05,0.00271,-1.2032,0.0039144,0.0079822,1.6525e-08,0.86,0.94,0
0.044203,-0.0091865,0.0089576,3.8822e-05,0.0026989,-0.00016929,0,0,0.048818,-0.020749,0,-0.0026409,0,0,0,0.0089608,3.561e-05,0.0026989,-1.087,0.0038984,0.0079361,1.6264e-08,0.88,0.94,0
0.045177,-0.0092689,0.0089188,4.4847e-05,0.0026891,-0.00014648,0,0,0.048592,-0.020625,0,-0.0022851,0,0,0,0.0089212,4.243e-05,0.0026891,-0.94542,0.0038842,0.0078955,1.6036e-08,0.9,0.94,0
0.046147,-0.0093387,0.008886,4.971e-05,0.0026807,-0.00012069,0,0,0.048401,-0.020522,0,-0.0018827,0,0,0,0.0088876,4.8062e-05,0.0026807,-0.78236,0.0038721,0.0078611,1.5844e-08,0.92,0.94,0
0.047113,-0.0093945,0.0088598,5.3437e-05,0.002674,-9.2541e-05,0,0,0.04825,-0.02044,0,-0.0014436,0,0,0,0.0088608,5.2465e-05,0.002674,-0.602,0.0038624,0.0078338,1.5692e-08,0.94,0.94,0
0.048077,-0.0094351,0.0088408,5.6064e-05,0.0026691,-6.2651e-05,0,0,0.04814,-0.020381,0,-0.00097735,0,0,0,0.0088412,5.5617e-05,0.0026691,-0.40859,0.0038553,0.0078139,1.5582e-08,0.96,0.94,0
0.049039,-0.0094598,0.0088292,5.7624e-05,0.0026661,-3.1611e-05,0,0,0.048073,-0.020346,0,-0.00049313,0,0,0,0.0088293,5.751e-05,0.0026661,-0.20648,0.003851,0.0078018,1.5516e-08,0.98,0.94,0
0.05,-0.0094681,0.0088254,5.8141e-05,0.002665,-2.6566e-05,0,0,0.04805,-0.020334,0,-0.00041442,0,0,0,0.0088254,5.8061e-05,0.002665,-0.17361,0.0038495,0.0077979,1.5494e-08,1,0.94,0
0,0,0.011486,0.0049227,0.0049227,-0.003533,0,0,0.051196,8.6736e-19,0,-0.055115,0,0,0,0.013026,0.0033824,0.0049227,-23.556,0.0071105,0.0089737,3.3458e-08,0,0.96,0
0.0010239,-0.0011023,0.011064,0.0029627,0.0042079,-0.0031895,0,0,0.053474,-0.0097123,0,-0.049756,0,0,0,0.012169,0.0018577,0.0042079,-19.109,0.006078,0.0093597,3.333e-08,0.02,0.96,0
0.002139,-0.0022608,0.011042,0.0014419,0.0037452,-0.0025338,0,0,0.056915,-0.017965,0,-0.039528,0,0,0,0.01167,0.00081418,0.0037452,-13.914,0.0054097,0.009727,3.3201e-08,0.04,0.96,0
0.0033005,-0.003316,0.010877,0.00091355,0.003537,-0.0018366,0,0,0.057248,-0.020463,0,-0.02865,0,0,0,0.011204,0.00058579,0.003537,-10.119,0.0051091,0.0094934,3.0051e-08,0.06,0.96,0
0.0044289,-0.0042211,0.010381,0.00058717,0.0032906,-0.001299,0,0,0.055309,-0.021087,0,-0.020264,0,0,0,0.010551,0.00041782,0.0032906,-7.4278,0.0047531,0.0090455,2.5487e-08,0.08,0.96,0
0.0055128,-0.0049984,0.0099107,0.00039944,0.003093,-0.00093198,0,0,0.053178,-0.02101,0,-0.014539,0,0,0,0.010001,0.00030898,0.003093,-5.5439,0.0044678,0.0086433,2.1934e-08,0.1,0.96,0
0.006556,-0.005666,0.0095218,0.00028464,0.0029419,-0.00067267,0,0,0.051323,-0.020727,0,-0.010494,0,0,0,0.0095706,0.00023591,0.0029419,-4.1433,0.0042495,0.0083186,1.9362e-08,0.12,0.96,0
0.0075658,-0.0062392,0.0092183,0.00021168,0.002829,-0.00048361,0,0,0.049836,-0.020415,0,-0.0075443,0,0,0,0.0092441,0.00018579,0.002829,-3.0648,0.0040863,0.0080683,1.7539e-08,0.14,0.96,0
0.0085495,-0.0067298,0.0089877,0.00016322,0.0027453,-0.00034049,0,0,0.048691,-0.02014,0,-0.0053116,0,0,0,0.0090009,0.0001501,0.0027453,-2.2063,0.0039654,0.0078805,1.6253e-08,0.16,0.96,0
0.0095134,-0.0071472,0.0088174,0.0001297,0.0026841,-0.00022864,0,0,0.047839,-0.019925,0,-0.0035668,0,0,0,0.0088234,0.00012369,0.0026841,-1.5065,0.0038771,0.0077438,1.5356e-08,0.18,0.96,0
0.010463,-0.0074991,0.0086963,0.00010558,0.0026406,-0.00013885,0,0,0.047235,-0.019773,0,-0.0021661,0,0,0,0.0086985,0.00010334,0.0026406,-0.92574,0.0038142,0.007649,1.4749e-08,0.2,0.96,0
0.011403,-0.007792,0.0086158,8.754e-05,0.002611,-6.5228e-05,0,0,0.046838,-0.019683,0,-0.0010176,0,0,0,0.0086164,8.7041e-05,0.002611,-0.43819,0.0037715,0.0075889,1.4363e-08,0.22,0.96,0
0.012337,-0.0080316,0.0085692,7.3492e-05,0.0025928,-3.9161e-06,0,0,0.046616,-0.019651,0,-6.1091e-05,0,0,0,0.0085692,7.349e-05,0.0025928,-0.02641,0.0037452,0.0075579,1.4152e-08,0.24,0.96,0
0.013267,-0.0082233,0.008551,6.2072e-05,0.0025839,4.7631e-05,0,0,0.046543,-0.019671,0,0.00074305,0,0,0,0.0085513,6.1805e-05,0.0025839,0.32147,0.0037323,0.0075512,1.4084e-08,0.26,0.96,0
0.014198,-0.0083719,0.0085567,5.236e-05,0.0025827,9.1091e-05,0,0,0.046597,-0.019737,0,0.001421,0,0,0,0.0085577,5.1384e-05,0.0025827,0.61361,0.0037306,0.0075652,1.4135e-08,0.28,0.96,0
0.015131,-0.008482,0.0085825,4.372e-05,0.0025879,0.00012755,0,0,0.046758,-0.019844,0,0.0019897,0,0,0,0.0085844,4.1815e-05,0.0025879,0.85559,0.003738,0.0075966,1.4285e-08,0.3,0.96,0
0.016069,-0.0085582,0.008625,3.5707e-05,0.0025982,0.00015767,0,0,0.047009,-0.019988,0,0.0024597,0,0,0,0.0086279,3.2814e-05,0.0025982,1.0513,0.003753,0.0076425,1.452e-08,0.32,0.96,0
0.017012,-0.008605,0.0086813,2.8018e-05,0.0026128,0.00018185,0,0,0.047334,-0.020161,0,0.0028369,0,0,0,0.0086851,2.4198e-05,0.0026128,1.2034,0.0037741,0.0077002,1.4828e-08,0.34,0.96,0
0.017962,-0.0086267,0.0087486,2.0456e-05,0.0026307,0.00020029,0,0,0.047719,-0.02036,0,0.0031245,0,0,0,0.0087531,1.5863e-05,0.0026307,1.3139,0.0037999,0.0077673,1.5195e-08,0.36,0.96,0
0.01892,-0.0086276,0.008824,1.2917e-05,0.0026511,0.00021306,0,0,0.048149,-0.020578,0,0.0033237,0,0,0,0.0088292,7.768e-06,0.0026511,1.3844,0.0038293,0.0078413,1.561e-08,0.38,0.96,0
0.019888,-0.008612,0.0089051,5.3701e-06,0.0026732,0.00022019,0,0,0.048609,-0.020809,0,0.003435,0,0,0,0.0089106,-7.4448e-08,0.0026732,1.4164,0.0038612,0.00792,1.6061e-08,0.4,0.96,0
0.020865,-0.0085842,0.0089893,-2.1463e-06,0.0026962,0.00022171,0,0,0.049087,-0.021047,0,0.0034587,0,0,0,0.0089948,-7.6101e-06,0.0026962,1.4117,0.0038944,0.0080008,1.6535e-08,0.42,0.96,0
0.021851,-0.0085482,0.0090741,-9.5374e-06,0.0027194,0.0002177,0,0,0.049567,-0.021285,0,0.0033961,0,0,0,0.0090793,-1.4752e-05,0.0027194,1.3721,0.003928,0.0080816,1.702e-08,0.44,0.96,0
0.022847,-0.008508,0.009157,-1.6662e-05,0.0027421,0.0002083,0,0,0.050036,-0.021518,0,0.0032495,0,0,0,0.0091617,-2.139e-05,0.0027421,1.3001,0.0039608,0.0081602,1.7501e-08,0.46,0.96,0
0.023853,-0.0084674,0.0092359,-2.3347e-05,0.0027638,0.0001938,0,0,0.050482,-0.021739,0,0.0030232,0,0,0,0.0092399,-2.7401e-05,0.0027638,1.1985,0.0039921,0.0082345,1.7965e-08,0.48,0.96,0
0.024867,-0.0084298,0.0093085,-2.9398e-05,0.0027837,0.00017458,0,0,0.050893,-0.021942,0,0.0027235,0,0,0,0.0093118,-3.2661e-05,0.0027837,1.0707,0.0040209,0.0083026,1.8398e-08,0.5,0.96,0
0.025889,-0.0083982,0.009373,-3.4621e-05,0.0028015,0.00015121,0,0,0.051257,-0.022122,0,0.0023589,0,0,0,0.0093754,-3.7051e-05,0.0028015,0.92061,0.0040466,0.0083626,1.8787e-08,0.52,0.96,0
0.026917,-0.0083756,0.0094277,-3.8834e-05,0.0028167,0.00012435,0,0,0.051566,-0.022273,0,0.0019399,0,0,0,0.0094293,-4.0467e-05,0.0028167,0.75245,0.0040685,0.0084133,1.9119e-08,0.54,0.96,0
0.027951,-0.008364,0.0094713,-4.1884e-05,0.0028288,9.4806e-05,0,0,0.051811,-0.022392,0,0.001479,0,0,0,0.0094722,-4.2829e-05,0.0028288,0.57092,0.0040861,0.0084533,1.9386e-08,0.56,0.96,0
0.02899,-0.0083652,0.0095028,-4.3661e-05,0.0028377,6.3476e-05,0,0,0.051987,-0.022475,0,0.00099022,0,0,0,0.0095032,-4.4083e-05,0.0028377,0.38094,0.004099,0.0084819,1.958e-08,0.58,0.96,0
0.030031,-0.0083803,0.0095216,-4.4105e-05,0.0028433,3.1314e-05,0,0,0.052091,-0.022521,0,0.0004885,0,0,0,0.0095217,-4.4207e-05,0.0028433,0.18756,0.0041069,0.0084984,1.9694e-08,0.6,0.96,0
0.031073,-0.0084102,0.0095276,-4.3215e-05,0.0028453,-6.9907e-07,0,0,0.052122,-0.02253,0,-1.0905e-05,0,0,0,0.0095276,-4.3215e-05,0.0028453,-0.004185,0.0041099,0.0085028,1.9729e-08,0.62,0.96,0
0.032116,-0.0084547,0.0095209,-4.1049e-05,0.002844,-3.1607e-05,0,0,0.05208,-0.022503,0,-0.00049307,0,0,0,0.009521,-4.1153e-05,0.002844,-0.18939,0.0041079,0.0084953,1.9683e-08,0.64,0.96,0
0.033156,-0.0085135,0.0095021,-3.7719e-05,0.0028393,-6.0514e-05,0,0,0.05197,-0.022441,0,-0.00094401,0,0,0,0.0095025,-3.8103e-05,0.0028393,-0.36342,0.0041012,0.0084765,1.9562e-08,0.66,0.96,0
0.034194,-0.0085855,0.0094722,-3.3385e-05,0.0028316,-8.6623e-05,0,0,0.051796,-0.022347,0,-0.0013513,0,0,0,0.009473,-3.4174e-05,0.0028316,-0.52207,0.0040902,0.0084471,1.9372e-08,0.68,0.96,0
0.035228,-0.0086695,0.0094324,-2.8243e-05,0.0028212,-0.00010927,0,0,0.051567,-0.022226,0,-0.0017046,0,0,0,0.0094337,-2.9505e-05,0.0028212,-0.66165,0.0040751,0.0084084,1.9122e-08,0.7,0.96,0
0.036257,-0.0087635,0.0093842,-2.2512e-05,0.0028085,-0.00012794,0,0,0.05129,-0.022082,0,-0.0019958,0,0,0,0.0093859,-2.4252e-05,0.0028085,-0.77907,0.0040567,0.0083618,1.8822e-08,0.72,0.96,0
0.03728,-0.0088656,0.0093292,-1.6418e-05,0.0027938,-0.00014228,0,0,0.050976,-0.02192,0,-0.0022195,0,0,0,0.0093314,-1.8584e-05,0.0027938,-0.87199,0.0040355,0.0083087,1.8484e-08,0.74,0.96,0
0.038296,-0.0089733,0.0092692,-1.0184e-05,0.0027777,-0.0001521,0,0,0.050634,-0.021746,0,-0.0023727,0,0,0,0.0092717,-1.2676e-05,0.0027777,-0.93877,0.0040123,0.008251,1.812e-08,0.76,0.96,0
0.039305,-0.0090843,0.0092061,-4.013e-06,0.0027606,-0.00015736,0,0,0.050275,-0.021564,0,-0.0024549,0,0,0,0.0092088,-6.7009e-06,0.0027606,-0.97856,0.0039876,0.0081903,1.7742e-08,0.78,0.96,0
0.040307,-0.0091961,0.0091417,1.9178e-06,0.0027431,-0.00015818,0,0,0.049909,-0.021381,0,-0.0024677,0,0,0,0.0091445,-8.1914e-07,0.0027431,-0.99123,0.0039622,0.0081284,1.7361e-08,0.8,0.96,0
0.041302,-0.009306,0.0090778,7.4639e-06,0.0027256,-0.00015479,0,0,0.049547,-0.021201,0,-0.0024147,0,0,0,0.0090804,4.8232e-06,0.0027256,-0.97738,0.0039369,0.008067,1.6987e-08,0.82,0.96,0
0.042289,-0.0094118,0.0090159,1.2517e-05,0.0027085,-0.00014749,0,0,0.049198,-0.021029,0,-0.0023008,0,0,0,0.0090184,1.0101e-05,0.0027085,-0.93824,0.0039123,0.0080076,1.6631e-08,0.84,0.96,0
0.04327,-0.009511,0.0089578,1.7002e-05,0.0026924,-0.00013667,0,0,0.04887,-0.020868,0,-0.0021321,0,0,0,0.0089598,1.4913e-05,0.0026924,-0.87559,0.0038891,0.0079518,1.6299e-08,0.86,0.96,0
0.044244,-0.0096015,0.0089046,2.0876e-05,0.0026776,-0.00012278,0,0,0.04857,-0.020723,0,-0.0019153,0,0,0,0.0089063,1.918e-05,0.0026776,-0.79165,0.0038677,0.0079007,1.6e-08,0.88,0.96,0
0.045212,-0.0096814,0.0088576,2.4123e-05,0.0026645,-0.00010625,0,0,0.048306,-0.020595,0,-0.0016574,0,0,0,0.0088588,2.2845e-05,0.0026645,-0.68901,0.0038487,0.0078557,1.5739e-08,0.9,0.96,0
0.046176,-0.0097492,0.0088178,2.6744e-05,0.0026534,-8.7548e-05,0,0,0.048083,-0.020488,0,-0.0013657,0,0,0,0.0088187,2.5872e-05,0.0026534,-0.57052,0.0038326,0.0078175,1.552e-08,0.92,0.96,0
0.047136,-0.0098033,0.008786,2.8753e-05,0.0026444,-6.7135e-05,0,0,0.047904,-0.020402,0,-0.0010473,0,0,0,0.0087865,2.8238e-05,0.0026444,-0.43921,0.0038197,0.0077871,1.5346e-08,0.94,0.96,0
0.048092,-0.0098428,0.0087628,3.0168e-05,0.0026379,-4.5453e-05,0,0,0.047774,-0.02034,0,-0.00070907,0,0,0,0.0087631,2.9932e-05,0.0026379,-0.29821,0.0038103,0.0077649,1.522e-08,0.96,0.96,0
0.049047,-0.0098668,0.0087488,3.1009e-05,0.0026339,-2.2934e-05,0,0,0.047696,-0.020303,0,-0.00035778,0,0,0,0.0087488,3.0949e-05,0.0026339,-0.15073,0.0038046,0.0077514,1.5144e-08,0.98,0.96,0
0.05,-0.0098748,0.0087441,3.1288e-05,0.0026326,-2.5795e-05,0,0,0.047669,-0.02029,0,-0.0004024,0,0,0,0.0087441,3.1212e-05,0.0026326,-0.16962,0.0038026,0.007747,1.5119e-08,1,0.96,0
0,0,0.013489,0.0057811,0.0057811,-0.0043374,0,0,0.060123,0,0,-0.067663,0,0,0,0.015437,0.0038329,0.0057811,-24.188,0.0083505,0.010764,5.7037e-08,0,0.98,0
0.0012025,-0.0013533,0.012292,0.0012145,0.004052,-0.0027266,0,0,0.064273,-0.022132,0,-0.042534,0,0,0,0.012927,0.00057977,0.004052,-13.105,0.0058528,0.011029,4.6577e-08,0.02,0.98,0
0.0025709,-0.002695,0.01236,0.000958,0.0039953,-0.0017748,0,0,0.065242,-0.023691,0,-0.027688,0,0,0,0.01263,0.0006881,0.0039953,-8.6465,0.005771,0.010679,4.2921e-08,0.04,0.98,0
0.0038121,-0.0037642,0.011104,0.0005111,0.0034846,-0.0010582,0,0,0.059433,-0.023193,0,-0.016508,0,0,0,0.011209,0.00040642,0.0034846,-5.6493,0.0050333,0.0096393,3.0682e-08,0.06,0.98,0
0.0049482,-0.0046641,0.010186,0.00030212,0.0031463,-0.00069629,0,0,0.054907,-0.022185,0,-0.010862,0,0,0,0.010235,0.0002533,0.0031463,-4.0101,0.0045447,0.0088948,2.3674e-08,0.08,0.98,0
0.0060084,-0.0054287,0.0095453,0.00019206,0.0029212,-0.00047524,0,0,0.051668,-0.021287,0,-0.0074137,0,0,0,0.0095694,0.00016797,0.0029212,-2.9012,0.0042195,0.0083715,1.9512e-08,0.1,0.98,0
0.0070149,-0.0060844,0.0090982,0.00013145,0.0027689,-0.00033233,0,0,0.049369,-0.020572,0,-0.0051844,0,0,0,0.0091105,0.00011915,0.0027689,-2.1197,0.0039995,0.0080026,1.6923e-08,0.12,0.98,0
0.0079832,-0.0066478,0.0087829,9.5312e-05,0.0026634,-0.00023238,0,0,0.047731,-0.020032,0,-0.0036251,0,0,0,0.0087891,8.9101e-05,0.0026634,-1.5311,0.0038472,0.0077408,1.5243e-08,0.14,0.98,0
0.0089242,-0.0071308,0.0085612,7.2356e-05,0.0025901,-0.00015866,0,0,0.046575,-0.019638,0,-0.0024752,0,0,0,0.0085642,6.9392e-05,0.0025901,-1.0704,0.0037412,0.0075566,1.4135e-08,0.16,0.98,0
0.0098462,-0.0075427,0.0084095,5.6946e-05,0.0025399,-0.00010189,0,0,0.045782,-0.019367,0,-0.0015895,0,0,0,0.0084107,5.5703e-05,0.0025399,-0.69882,0.0036688,0.0074311,1.341e-08,0.18,0.98,0
0.010755,-0.0078909,0.0083117,4.6089e-05,0.0025073,-5.6702e-05,0,0,0.045274,-0.019198,0,-0.00088455,0,0,0,0.0083121,4.57e-05,0.0025073,-0.39302,0.0036217,0.0073515,1.296e-08,0.2,0.98,0
0.011657,-0.0081817,0.0082571,3.8087e-05,0.0024885,-1.981e-05,0,0,0.044995,-0.019114,0,-0.00030903,0,0,0,0.0082571,3.804e-05,0.0024885,-0.13809,0.0035946,0.0073087,1.2717e-08,0.22,0.98,0
0.012555,-0.0084206,0.0082376,3.1917e-05,0.0024809,1.0853e-05,0,0,0.044903,-0.019102,0,0.00016931,0,0,0,0.0082377,3.1903e-05,0.0024809,0.075782,0.0035835,0.0072963,1.2637e-08,0.24,0.98,0
0.013453,-0.0086127,0.0082474,2.693e-05,0.0024823,3.6617e-05,0,0,0.044968,-0.019152,0,0.00057122,0,0,0,0.0082475,2.6767e-05,0.0024823,0.25521,0.0035855,0.0073092,1.2691e-08,0.26,0.98,0
0.014354,-0.0087628,0.0082814,2.2698e-05,0.0024912,5.8335e-05,0,0,0.045164,-0.019255,0,0.00091003,0,0,0,0.0082818,2.2287e-05,0.0024912,0.40468,0.0035984,0.0073433,1.2858e-08,0.28,0.98,0
0.01526,-0.0088753,0.0083359,1.8931e-05,0.0025064,7.6546e-05,0,0,0.04547,-0.019403,0,0.0011941,0,0,0,0.0083366,1.8226e-05,0.0025064,0.52727,0.0036204,0.0073951,1.3122e-08,0.3,0.98,0
0.016173,-0.0089547,0.0084072,1.5426e-05,0.0025268,9.1571e-05,0,0,0.045867,-0.019589,0,0.0014285,0,0,0,0.0084082,1.4426e-05,0.0025268,0.62512,0.0036498,0.0074618,1.347e-08,0.32,0.98,0
0.017094,-0.0090052,0.0084922,1.2048e-05,0.0025513,0.00010358,0,0,0.046339,-0.019806,0,0.0016159,0,0,0,0.0084935,1.0783e-05,0.0025513,0.69972,0.0036852,0.0075405,1.389e-08,0.34,0.98,0
0.018026,-0.0090312,0.0085879,8.7104e-06,0.002579,0.00011266,0,0,0.04687,-0.020048,0,0.0017574,0,0,0,0.0085894,7.2313e-06,0.002579,0.7522,0.0037252,0.0076286,1.4373e-08,0.36,0.98,0
0.018969,-0.0090367,0.0086914,5.3677e-06,0.002609,0.00011881,0,0,0.047443,-0.020309,0,0.0018534,0,0,0,0.008693,3.7429e-06,0.002609,0.78351,0.0037686,0.0077236,1.4906e-08,0.38,0.98,0
0.019924,-0.009026,0.0087999,2.0087e-06,0.0026406,0.00012203,0,0,0.048043,-0.020581,0,0.0019037,0,0,0,0.0088016,3.1629e-07,0.0026406,0.79454,0.0038141,0.0078227,1.5478e-08,0.4,0.98,0
0.020891,-0.0090032,0.0089104,-1.3476e-06,0.0026727,0.00012233,0,0,0.048654,-0.020858,0,0.0019083,0,0,0,0.0089121,-3.0263e-06,0.0026727,0.78626,0.0038606,0.0079237,1.6075e-08,0.42,0.98,0
0.02187,-0.0089722,0.0090203,-4.6562e-06,0.0027047,0.00011971,0,0,0.049262,-0.021133,0,0.0018674,0,0,0,0.0090219,-6.2437e-06,0.0027047,0.75979,0.0039068,0.0080238,1.6683e-08,0.44,0.98,0
0.022861,-0.0089369,0.0091268,-7.8517e-06,0.0027357,0.00011425,0,0,0.04985,-0.021399,0,0.0017823,0,0,0,0.0091282,-9.2804e-06,0.0027357,0.71646,0.0039515,0.0081207,1.7285e-08,0.46,0.98,0
0.023864,-0.0089009,0.0092272,-1.0853e-05,0.0027649,0.00010609,0,0,0.050406,-0.021651,0,0.001655,0,0,0,0.0092285,-1.2071e-05,0.0027649,0.65784,0.0039938,0.0082121,1.7867e-08,0.48,0.98,0
0.024878,-0.0088675,0.0093193,-1.3573e-05,0.0027917,9.5429e-05,0,0,0.050915,-0.021881,0,0.0014887,0,0,0,0.0093203,-1.4548e-05,0.0027917,0.58577,0.0040325,0.0082956,1.841e-08,0.5,0.98,0
0.025901,-0.0088397,0.0094007,-1.592e-05,0.0028154,8.2561e-05,0,0,0.051365,-0.022085,0,0.0012879,0,0,0,0.0094014,-1.6644e-05,0.0028154,0.50229,0.0040667,0.0083695,1.89e-08,0.52,0.98,0
0.026932,-0.0088202,0.0094696,-1.7811e-05,0.0028355,6.7845e-05,0,0,0.051746,-0.022256,0,0.0010584,0,0,0,0.0094701,-1.8296e-05,0.0028355,0.4097,0.0040958,0.0084318,1.932e-08,0.54,0.98,0
0.027971,-0.0088111,0.0095245,-1.9177e-05,0.0028516,5.1709e-05,0,0,0.052049,-0.022392,0,0.00080665,0,0,0,0.0095248,-1.9457e-05,0.0028516,0.31042,0.004119,0.0084814,1.9659e-08,0.56,0.98,0
0.029014,-0.0088141,0.0095643,-1.9965e-05,0.0028633,3.4633e-05,0,0,0.052268,-0.022489,0,0.00054027,0,0,0,0.0095644,-2.0091e-05,0.0028633,0.20704,0.0041359,0.0085171,1.9907e-08,0.58,0.98,0
0.030061,-0.0088303,0.0095883,-2.015e-05,0.0028704,1.7132e-05,0,0,0.052399,-0.022547,0,0.00026726,0,0,0,0.0095883,-2.0181e-05,0.0028704,0.10216,0.0041462,0.0085384,2.0056e-08,0.6,0.98,0
0.03111,-0.0088604,0.0095963,-1.973e-05,0.002873,-2.6625e-07,0,0,0.052442,-0.022563,0,-4.1535e-06,0,0,0,0.0095963,-1.973e-05,0.002873,-0.0015864,0.0041499,0.0085452,2.0106e-08,0.62,0.98,0
0.032159,-0.0089044,0.0095888,-1.8731e-05,0.002871,-1.7046e-05,0,0,0.052399,-0.02254,0,-0.00026592,0,0,0,0.0095888,-1.8761e-05,0.002871,-0.10166,0.004147,0.0085377,2.0056e-08,0.64,0.98,0
0.033206,-0.008962,0.0095663,-1.7204e-05,0.0028647,-3.2726e-05,0,0,0.052272,-0.022479,0,-0.00051052,0,0,0,0.0095665,-1.7315e-05,0.0028647,-0.19565,0.004138,0.0085167,1.9913e-08,0.66,0.98,0
0.03425,-0.0090323,0.0095302,-1.5221e-05,0.0028545,-4.6875e-05,0,0,0.052071,-0.022384,0,-0.00073126,0,0,0,0.0095304,-1.5451e-05,0.0028545,-0.28136,0.0041232,0.0084832,1.9685e-08,0.68,0.98,0
0.035289,-0.0091138,0.0094819,-1.2872e-05,0.0028407,-5.9137e-05,0,0,0.051802,-0.022258,0,-0.00092254,0,0,0,0.0094823,-1.3241e-05,0.0028407,-0.35684,0.0041033,0.0084386,1.9384e-08,0.7,0.98,0
0.036322,-0.009205,0.0094233,-1.0257e-05,0.0028239,-6.9234e-05,0,0,0.051475,-0.022107,0,-0.00108,0,0,0,0.0094238,-1.0765e-05,0.0028239,-0.42047,0.004079,0.0083847,1.9022e-08,0.72,0.98,0
0.037348,-0.0093038,0.0093565,-7.4772e-06,0.0028047,-7.6979e-05,0,0,0.051104,-0.021935,0,-0.0012009,0,0,0,0.0093571,-8.11e-06,0.0028047,-0.47097,0.0040512,0.0083233,1.8615e-08,0.74,0.98,0
0.038366,-0.0094081,0.0092835,-4.6351e-06,0.0027837,-8.2271e-05,0,0,0.050699,-0.021749,0,-0.0012834,0,0,0,0.0092842,-5.3638e-06,0.0027837,-0.50745,0.0040208,0.0082563,1.8178e-08,0.76,0.98,0
0.039376,-0.0095155,0.0092067,-1.8229e-06,0.0027615,-8.5097e-05,0,0,0.050273,-0.021554,0,-0.0013275,0,0,0,0.0092075,-2.6092e-06,0.0027615,-0.52942,0.0039888,0.0081859,1.7726e-08,0.78,0.98,0
0.040377,-0.0096235,0.0091283,8.7871e-07,0.0027387,-8.5517e-05,0,0,0.049838,-0.021355,0,-0.0013341,0,0,0,0.0091291,7.7544e-08,0.0027387,-0.53676,0.003956,0.008114,1.7271e-08,0.8,0.98,0
0.041369,-0.0097298,0.0090504,3.4041e-06,0.0027161,-8.3656e-05,0,0,0.049407,-0.021159,0,-0.001305,0,0,0,0.0090512,2.6306e-06,0.0027161,-0.52974,0.0039233,0.0080428,1.6828e-08,0.82,0.98,0
0.042353,-0.009832,0.0089751,5.7038e-06,0.0026943,-7.9688e-05,0,0,0.048991,-0.020971,0,-0.0012431,0,0,0,0.0089758,4.9959e-06,0.0026943,-0.50898,0.0038917,0.0079739,1.6406e-08,0.84,0.98,0
0.043329,-0.0099279,0.0089043,7.7443e-06,0.0026736,-7.3824e-05,0,0,0.048599,-0.020794,0,-0.0011517,0,0,0,0.0089049,7.1317e-06,0.0026736,-0.4754,0.0038619,0.0079092,1.6016e-08,0.86,0.98,0
0.044297,-0.010015,0.0088395,9.5061e-06,0.0026547,-6.63e-05,0,0,0.048242,-0.020633,0,-0.0010343,0,0,0,0.0088401,9.0083e-06,0.0026547,-0.43017,0.0038346,0.00785,1.5665e-08,0.88,0.98,0
0.045259,-0.010093,0.0087824,1.0982e-05,0.002638,-5.736e-05,0,0,0.047926,-0.020491,0,-0.00089482,0,0,0,0.0087827,1.0607e-05,0.002638,-0.37466,0.0038104,0.0077978,1.5359e-08,0.9,0.98,0
0.046214,-0.010158,0.0087339,1.2172e-05,0.0026238,-4.7255e-05,0,0,0.047659,-0.020371,0,-0.00073718,0,0,0,0.0087342,1.1916e-05,0.0026238,-0.31042,0.00379,0.0077536,1.5104e-08,0.92,0.98,0
0.047165,-0.010211,0.0086953,1.3084e-05,0.0026125,-3.6231e-05,0,0,0.047446,-0.020275,0,-0.0005652,0,0,0,0.0086954,1.2933e-05,0.0026125,-0.23909,0.0037736,0.0077183,1.4901e-08,0.94,0.98,0
0.048112,-0.010249,0.0086671,1.3727e-05,0.0026042,-2.4527e-05,0,0,0.04729,-0.020206,0,-0.00038262,0,0,0,0.0086672,1.3658e-05,0.0026042,-0.1624,0.0037617,0.0076926,1.4755e-08,0.96,0.98,0
0.049057,-0.010272,0.00865,1.4109e-05,0.0025992,-1.2374e-05,0,0,0.047196,-0.020164,0,-0.00019304,0,0,0,0.00865,1.4091e-05,0.0025992,-0.0821,0.0037544,0.007677,1.4667e-08,0.98,0.98,0
0.05,-0.01028,0.0086442,1.4235e-05,0.0025975,-2.4955e-05,0,0,0.047164,-0.02015,0,-0.0003893,0,0,0,0.0086443,1.4163e-05,0.0025975,-0.16568,0.003752,0.0076719,1.4638e-08,1,0.98,0
0,0,0.022633,0.0096997,0.0096997,-0.0063705,0,0,0.10088,-6.9389e-18,0,-0.09938,0,0,0,0.025244,0.0070888,0.0096997,-22.286,0.014011,0.017,2.3241e-07,0,1,0
0.0020175,-0.0019876,0.016258,0.001159,0.0052252,-0.0025293,0,0,0.086059,-0.031717,0,-0.039457,0,0,0,0.016671,0.00074659,0.0052252,-9.2608,0.0075476,0.014224,9.9909e-08,0.02,1,0
0.0034424,-0.0032084,0.012068,0.00047058,0.0037617,-0.00082254,0,0,0.064792,-0.025671,0,-0.012832,0,0,0,0.012126,0.00041253,0.0037617,-4.0366,0.0054336,0.01045,3.8955e-08,0.04,1,0
0.0046092,-0.0042438,0.010127,-5.1834e-05,0.0030225,-0.00049021,0,0,0.055414,-0.02398,0,-0.0076472,0,0,0,0.01015,-7.5388e-05,0.0030225,-2.7509,0.0043659,0.0090822,2.3929e-08,0.06,1,0
0.0056589,-0.0051085,0.0092351,-0.00011189,0.002737,-0.00029603,0,0,0.050686,-0.022221,0,-0.004618,0,0,0,0.0092445,-0.00012125,0.002737,-1.8122,0.0039534,0.0083137,1.8184e-08,0.08,1,0
0.0066367,-0.0058499,0.0086814,-0.00013661,0.0025634,-0.00019859,0,0,0.04772,-0.02106,0,-0.0030979,0,0,0,0.0086859,-0.00014108,0.0025634,-1.2894,0.0037027,0.0078331,1.5131e-08,0.1,1,0
0.0075677,-0.0064889,0.0083229,-0.00013692,0.0024558,-0.00013618,0,0,0.045763,-0.020223,0,-0.0021244,0,0,0,0.0083251,-0.00013911,0.0024558,-0.922,0.0035473,0.0075108,1.3329e-08,0.12,1,0
0.0084672,-0.0070405,0.0080829,-0.00013197,0.0023853,-9.3709e-05,0,0,0.044442,-0.019635,0,-0.0014619,0,0,0,0.008084,-0.00013304,0.0023853,-0.65348,0.0034454,0.0072917,1.2201e-08,0.14,1,0
0.0093454,-0.0075154,0.0079261,-0.00012466,0.0023404,-6.2592e-05,0,0,0.043568,-0.019228,0,-0.00097644,0,0,0,0.0079266,-0.00012514,0.0023404,-0.44542,0.0033806,0.0071454,1.1494e-08,0.16,1,0
0.01021,-0.0079219,0.0078311,-0.00011661,0.0023143,-3.873e-05,0,0,0.04303,-0.018961,0,-0.00060419,0,0,0,0.0078313,-0.00011679,0.0023143,-0.2792,0.0033429,0.007054,1.1075e-08,0.18,1,0
0.011067,-0.008267,0.0077843,-0.00010832,0.0023028,-1.9752e-05,0,0,0.042756,-0.018807,0,-0.00030812,0,0,0,0.0077844,-0.00010837,0.0023028,-0.14338,0.0033263,0.0070056,1.0866e-08,0.2,1,0
0.01192,-0.0085565,0.0077766,-0.00010002,0.002303,-4.2502e-06,0,0,0.042694,-0.018743,0,-6.6303e-05,0,0,0,0.0077766,-0.00010002,0.002303,-0.030917,0.0033265,0.006992,1.0822e-08,0.22,1,0
0.012774,-0.0087957,0.0078012,-9.1758e-05,0.0023128,8.6521e-06,0,0,0.042809,-0.018756,0,0.00013497,0,0,0,0.0078012,-9.1767e-05,0.0023128,0.062807,0.0033407,0.0070072,1.0912e-08,0.24,1,0
0.013633,-0.0089894,0.007853,-8.3551e-05,0.0023308,1.9512e-05,0,0,0.043073,-0.018832,0,0.00030439,0,0,0,0.007853,-8.3599e-05,0.0023308,0.14086,0.0033667,0.0070468,1.1118e-08,0.26,1,0
0.014497,-0.0091421,0.0079279,-7.5397e-05,0.0023557,2.8683e-05,0,0,0.043463,-0.018963,0,0.00044745,0,0,0,0.007928,-7.55e-05,0.0023557,0.20534,0.0034027,0.0071069,1.1426e-08,0.28,1,0
0.015371,-0.0092581,0.0080222,-6.7292e-05,0.0023865,3.6382e-05,0,0,0.043959,-0.01914,0,0.00056756,0,0,0,0.0080224,-6.7455e-05,0.0023865,0.25768,0.0034471,0.0071844,1.1826e-08,0.3,1,0
0.016256,-0.0093418,0.0081329,-5.924e-05,0.0024221,4.2735e-05,0,0,0.044545,-0.019355,0,0.00066667,0,0,0,0.0081332,-5.9463e-05,0.0024221,0.29888,0.0034986,0.0072765,1.2308e-08,0.32,1,0
0.017153,-0.0093972,0.0082569,-5.126e-05,0.0024617,4.7806e-05,0,0,0.045203,-0.019601,0,0.00074577,0,0,0,0.0082572,-5.1535e-05,0.0024617,0.32967,0.0035558,0.0073803,1.2865e-08,0.34,1,0
0.018064,-0.0094286,0.0083911,-4.3383e-05,0.0025043,5.1615e-05,0,0,0.045917,-0.019872,0,0.00080519,0,0,0,0.0083914,-4.3699e-05,0.0025043,0.3506,0.0036173,0.0074934,1.3488e-08,0.36,1,0
0.018989,-0.0094399,0.0085325,-3.5655e-05,0.0025491,5.4161e-05,0,0,0.046671,-0.020161,0,0.00084492,0,0,0,0.0085328,-3.5997e-05,0.0025491,0.36216,0.003682,0.0076129,1.4167e-08,0.38,1,0
0.019931,-0.0094352,0.008678,-2.8135e-05,0.002595,5.5433e-05,0,0,0.047448,-0.02046,0,0.00086476,0,0,0,0.0086784,-2.8488e-05,0.002595,0.36479,0.0037483,0.0077363,1.489e-08,0.4,1,0
0.020887,-0.0094185,0.0088245,-2.0892e-05,0.0026411,5.5421e-05,0,0,0.048231,-0.020764,0,0.00086457,0,0,0,0.0088249,-2.1239e-05,0.0026411,0.35897,0.0038149,0.0078607,1.5642e-08,0.42,1,0
0.02186,-0.0093935,0.0089688,-1.4006e-05,0.0026864,5.4129e-05,0,0,0.049002,-0.021063,0,0.00084442,0,0,0,0.0089691,-1.4332e-05,0.0026864,0.34524,0.0038804,0.0079834,1.6407e-08,0.44,1,0
0.022847,-0.009364,0.0091076,-7.5607e-06,0.00273,5.1586e-05,0,0,0.049745,-0.021353,0,0.00080473,0,0,0,0.0091079,-7.8526e-06,0.00273,0.32424,0.0039433,0.0081016,1.7167e-08,0.46,1,0
0.02385,-0.0093334,0.0092379,-1.6412e-06,0.0027709,4.7846e-05,0,0,0.050443,-0.021626,0,0.00074639,0,0,0,0.0092382,-1.889e-06,0.0027709,0.29669,0.0040024,0.0082126,1.7902e-08,0.48,1,0
0.024865,-0.009305,0.0093568,3.6691e-06,0.0028081,4.3e-05,0,0,0.051079,-0.021875,0,0.00067079,0,0,0,0.0093569,3.4715e-06,0.0028081,0.2634,0.0040562,0.0083139,1.859e-08,0.5,1,0
0.025893,-0.0092816,0.0094615,8.2941e-06,0.0028409,3.7173e-05,0,0,0.05164,-0.022095,0,0.0005799,0,0,0,0.0094616,8.1479e-06,0.0028409,0.2253,0.0041036,0.0084032,1.9211e-08,0.52,1,0
0.026931,-0.0092658,0.0095498,1.2168e-05,0.0028686,3.0527e-05,0,0,0.052114,-0.02228,0,0.00047622,0,0,0,0.0095499,1.207e-05,0.0028686,0.18338,0.0041435,0.0084785,1.9745e-08,0.54,1,0
0.027977,-0.0092596,0.0096199,1.524e-05,0.0028905,2.3251e-05,0,0,0.052489,-0.022427,0,0.00036271,0,0,0,0.0096199,1.5183e-05,0.0028905,0.1387,0.0041752,0.0085383,2.0176e-08,0.56,1,0
0.02903,-0.0092647,0.0096703,1.7475e-05,0.0029063,1.5561e-05,0,0,0.052759,-0.022533,0,0.00024274,0,0,0,0.0096704,1.745e-05,0.0029063,0.09236,0.0041981,0.0085813,2.049e-08,0.58,1,0
0.030088,-0.0092822,0.0097005,1.8859e-05,0.0029158,7.6861e-06,0,0,0.052921,-0.022596,0,0.0001199,0,0,0,0.0097005,1.8853e-05,0.0029158,0.045486,0.0042117,0.0086069,2.0679e-08,0.6,1,0
0.031147,-0.0093127,0.0097101,1.9399e-05,0.0029189,-1.3611e-07,0,0,0.052972,-0.022616,0,-2.1234e-06,0,0,0,0.0097101,1.9399e-05,0.0029189,-0.00080477,0.0042161,0.0086151,2.0739e-08,0.62,1,0
0.032207,-0.0093563,0.0096998,1.9122e-05,0.0029157,-7.6747e-06,0,0,0.052916,-0.022593,0,-0.00011973,0,0,0,0.0096998,1.9116e-05,0.0029157,-0.045423,0.0042115,0.0086061,2.0673e-08,0.64,1,0
0.033264,-0.0094126,0.0096705,1.8077e-05,0.0029066,-1.4713e-05,0,0,0.052758,-0.02253,0,-0.00022953,0,0,0,0.0096705,1.8055e-05,0.0029066,-0.087337,0.0041984,0.0085809,2.0489e-08,0.66,1,0
0.034317,-0.0094809,0.0096237,1.6331e-05,0.002892,-2.106e-05,0,0,0.052507,-0.02243,0,-0.00032854,0,0,0,0.0096238,1.6284e-05,0.002892,-0.1256,0.0041774,0.0085408,2.0197e-08,0.68,1,0
0.035364,-0.0095598,0.0095616,1.3966e-05,0.0028727,-2.6555e-05,0,0,0.052174,-0.022298,0,-0.00041425,0,0,0,0.0095617,1.3892e-05,0.0028727,-0.15935,0.0041494,0.0084875,1.9814e-08,0.7,1,0
0.036404,-0.0096478,0.0094866,1.1079e-05,0.0028493,-3.1073e-05,0,0,0.051771,-0.022138,0,-0.00048475,0,0,0,0.0094867,1.0977e-05,0.0028493,-0.18789,0.0041157,0.0084232,1.9358e-08,0.72,1,0
0.037435,-0.009743,0.0094013,7.7758e-06,0.0028227,-3.4534e-05,0,0,0.051313,-0.021957,0,-0.00053872,0,0,0,0.0094014,7.6489e-06,0.0028227,-0.21063,0.0040773,0.00835,1.8847e-08,0.74,1,0
0.038456,-0.0098433,0.0093085,4.169e-06,0.0027938,-3.6892e-05,0,0,0.050814,-0.021759,0,-0.00057551,0,0,0,0.0093086,4.0227e-06,0.0027938,-0.22717,0.0040355,0.0082705,1.8302e-08,0.76,1,0
0.039468,-0.0099465,0.0092111,3.7218e-07,0.0027634,-3.8142e-05,0,0,0.050292,-0.021552,0,-0.00059502,0,0,0,0.0092112,2.1423e-07,0.0027634,-0.23726,0.0039916,0.008187,1.7742e-08,0.78,1,0
0.040468,-0.01005,0.0091119,-3.5021e-06,0.0027325,-3.8314e-05,0,0,0.049759,-0.021341,0,-0.0005977,0,0,0,0.0091121,-3.6632e-06,0.0027325,-0.24082,0.003947,0.0081019,1.7183e-08,0.8,1,0
0.041458,-0.010152,0.0090138,-7.3459e-06,0.0027019,-3.7465e-05,0,0,0.049232,-0.021132,0,-0.00058445,0,0,0,0.0090139,-7.5015e-06,0.0027019,-0.23794,0.0039028,0.0080177,1.6641e-08,0.82,1,0
0.042437,-0.010251,0.0089191,-1.1058e-05,0.0026724,-3.5674e-05,0,0,0.048724,-0.020931,0,-0.00055651,0,0,0,0.0089192,-1.1201e-05,0.0026724,-0.22888,0.0038602,0.0079365,1.6129e-08,0.84,1,0
0.043407,-0.010343,0.0088302,-1.4547e-05,0.0026447,-3.3036e-05,0,0,0.048247,-0.020742,0,-0.00051537,0,0,0,0.0088304,-1.4671e-05,0.0026447,-0.214,0.0038201,0.0078603,1.5659e-08,0.86,1,0
0.044367,-0.010427,0.0087492,-1.7732e-05,0.0026194,-2.9659e-05,0,0,0.047812,-0.02057,0,-0.00046268,0,0,0,0.0087493,-1.7832e-05,0.0026194,-0.19383,0.0037836,0.0077908,1.5238e-08,0.88,1,0
0.045319,-0.010501,0.0086778,-2.0541e-05,0.0025972,-2.5652e-05,0,0,0.047429,-0.020418,0,-0.00040017,0,0,0,0.0086779,-2.0617e-05,0.0025972,-0.16897,0.0037515,0.0077295,1.4873e-08,0.9,1,0
0.046264,-0.010564,0.0086174,-2.2917e-05,0.0025784,-2.1128e-05,0,0,0.047105,-0.02029,0,-0.00032959,0,0,0,0.0086175,-2.2969e-05,0.0025784,-0.1401,0.0037243,0.0076777,1.4569e-08,0.92,1,0
0.047204,-0.010614,0.0085693,-2.4813e-05,0.0025633,-1.6195e-05,0,0,0.046846,-0.020188,0,-0.00025265,0,0,0,0.0085693,-2.4844e-05,0.0025633,-0.10797,0.0037026,0.0076364,1.4329e-08,0.94,1,0
0.048138,-0.010651,0.0085343,-2.6192e-05,0.0025524,-1.0962e-05,0,0,0.046658,-0.020113,0,-0.000171,0,0,0,0.0085343,-2.6206e-05,0.0025524,-0.073368,0.0036868,0.0076064,1.4157e-08,0.96,1,0
0.04907,-0.010673,0.008513,-2.703e-05,0.0025458,-5.53e-06,0,0,0.046544,-0.020068,0,-8.6268e-05,0,0,0,0.008513,-2.7034e-05,0.0025458,-0.037101,0.0036772,0.0075881,1.4053e-08,0.98,1,0
0.05,-0.010681,0.0085059,-2.7311e-05,0.0025436,-2.3984e-05,0,0,0.046506,-0.020053,0,-0.00037416,0,0,0,0.0085059,-2.7378e-05,0.0025436,-0.16104,0.003674,0.0075821,1.4019e-08,1,1,0
