"Displacements:0","Displacements:1","Stress/Strain:0","Stress/Strain:1","Stress/Strain:2","Stress/Strain:3","Stress/Strain:4","Stress/Strain:5","Stress/Strain:6","Stress/Strain:7","Stress/Strain:8","Stress/Strain:9","Stress/Strain:10","Stress/Strain:11","Stress/Strain:12","Principal Stress:0","Principal Stress:1","Principal Stress:2","Principal Stress:3","Principal Stress:4","Principal Stress:5","Principal Stress:6","nodes:0","nodes:1","nodes:2"
0,0,0.022523,0.0096529,0.0096529,0.0064057,0,0,0.11712,-6.9389e-18,0,0.11658,0,0,0,0.025168,0.0070082,0.0096529,22.434,0.013943,0.016993,2.3156e-07,0,0,0
0.0023424,0.0023317,0.016131,0.0011821,0.005194,0.0025538,0,0,0.099529,-0.036509,0,0.046478,0,0,0,0.016556,0.00075787,0.005194,9.4315,0.0075025,0.014113,9.7731e-08,0.02,0,0
0.0039812,0.0037865,0.011841,0.00048217,0.003697,0.00085555,0,0,0.074111,-0.029255,0,0.015571,0,0,0,0.011905,0.00041809,0.003697,4.2833,0.00534,0.010249,3.6812e-08,0.04,0,0
0.0053069,0.005029,0.0098039,-5.0358e-05,0.0029261,0.0005229,0,0,0.062588,-0.027085,0,0.0095167,0,0,0,0.0098316,-7.8027e-05,0.0029261,3.0289,0.0042265,0.0088009,2.1756e-08,0.06,0,0
0.0064847,0.0060724,0.0088228,-0.0001181,0.0026114,0.00032932,0,0,0.056524,-0.024839,0,0.0059936,0,0,0,0.0088349,-0.00013022,0.0026114,2.1065,0.003772,0.0079568,1.5899e-08,0.08,0,0
0.0075678,0.0069697,0.0081801,-0.00014844,0.0024095,0.00023393,0,0,0.052512,-0.023277,0,0.0042574,0,0,0,0.0081867,-0.000155,0.0024095,1.6076,0.0034804,0.0074005,1.2704e-08,0.1,0,0
0.0085852,0.0077437,0.0077272,-0.00015344,0.0022721,0.00017483,0,0,0.049641,-0.022073,0,0.0031819,0,0,0,0.0077311,-0.00015732,0.0022721,1.2702,0.003282,0.0069975,1.0714e-08,0.12,0,0
0.0095535,0.0084107,0.0073839,-0.00015291,0.0021693,0.00013646,0,0,0.047453,-0.021132,0,0.0024836,0,0,0,0.0073863,-0.00015538,0.0021693,1.0369,0.0031334,0.0066895,9.3502e-09,0.14,0,0
0.010483,0.0089814,0.0071128,-0.00015005,0.0020888,0.00010975,0,0,0.045718,-0.020374,0,0.0019974,0,0,0,0.0071144,-0.00015171,0.0020888,0.86552,0.0030172,0.0064449,8.3574e-09,0.16,0,0
0.011382,0.0094634,0.0068921,-0.00014664,0.0020236,9.0076e-05,0,0,0.044303,-0.019749,0,0.0016394,0,0,0,0.0068933,-0.00014779,0.0020236,0.73306,0.002923,0.0062452,7.6029e-09,0.18,0,0
0.012255,0.0098622,0.0067096,-0.00014316,0.0019699,7.4553e-05,0,0,0.043131,-0.019229,0,0.0013569,0,0,0,0.0067104,-0.00014397,0.0019699,0.62324,0.0028454,0.0060796,7.0138e-09,0.2,0,0
0.013107,0.010182,0.0065585,-0.00013966,0.0019257,6.1235e-05,0,0,0.042159,-0.018794,0,0.0011145,0,0,0,0.0065591,-0.00014022,0.0019257,0.52374,0.0027815,0.0059421,6.5495e-09,0.22,0,0
0.013942,0.010424,0.0064364,-0.00013595,0.0018901,4.8707e-05,0,0,0.041371,-0.018437,0,0.00088646,0,0,0,0.0064368,-0.00013631,0.0018901,0.42458,0.0027302,0.0058303,6.1887e-09,0.24,0,0
0.014762,0.010592,0.0063438,-0.00013166,0.0018636,3.5901e-05,0,0,0.04077,-0.018157,0,0.0006534,0,0,0,0.006344,-0.00013186,0.0018636,0.31764,0.0026919,0.0057442,5.9226e-09,0.26,0,0
0.015573,0.010685,0.0062835,-0.00012637,0.0018471,2.2022e-05,0,0,0.040371,-0.017959,0,0.0004008,0,0,0,0.0062836,-0.00012645,0.0018471,0.19684,0.0026681,0.0056862,5.7511e-09,0.28,0,0
0.016377,0.010707,0.00626,-0.00011956,0.0018421,6.5332e-06,0,0,0.040203,-0.017851,0,0.00011891,0,0,0,0.00626,-0.00011957,0.0018421,0.058676,0.0026609,0.0056597,5.6808e-09,0.3,0,0
0.017181,0.010658,0.006279,-0.00011071,0.0018505,-1.0816e-05,0,0,0.040299,-0.017847,0,-0.00019685,0,0,0,0.006279,-0.00011073,0.0018505,-0.096987,0.0026729,0.0056695,5.7241e-09,0.32,0,0
0.017989,0.010542,0.0063461,-9.9328e-05,0.001874,-2.9949e-05,0,0,0.040696,-0.017958,0,-0.00054508,0,0,0,0.0063463,-9.9467e-05,0.001874,-0.26622,0.002707,0.0057203,5.8983e-09,0.34,0,0
0.018808,0.010361,0.0064666,-8.5003e-05,0.0019145,-5.0418e-05,0,0,0.041425,-0.018195,0,-0.00091761,0,0,0,0.006467,-8.5391e-05,0.0019145,-0.44089,0.0027654,0.0058163,6.2256e-09,0.36,0,0
0.019646,0.010124,0.0066438,-6.7501e-05,0.0019729,-7.1363e-05,0,0,0.042505,-0.018567,0,-0.0012988,0,0,0,0.0066445,-6.826e-05,0.0019729,-0.60916,0.0028497,0.0059603,6.732e-09,0.38,0,0
0.020509,0.0098373,0.0068778,-4.6864e-05,0.0020493,-9.1495e-05,0,0,0.043939,-0.019075,0,-0.0016652,0,0,0,0.006879,-4.8072e-05,0.0020493,-0.75688,0.0029601,0.0061526,7.4445e-09,0.4,0,0
0.021404,0.0095128,0.0071646,-2.3504e-05,0.0021423,-0.00010911,0,0,0.045703,-0.019709,0,-0.0019859,0,0,0,0.0071662,-2.516e-05,0.0021423,-0.86947,0.0030945,0.0063896,8.3858e-09,0.42,0,0
0.022337,0.0091643,0.0074948,1.7785e-06,0.002249,-0.00012224,0,0,0.047737,-0.020449,0,-0.0022248,0,0,0,0.0074968,-2.1524e-07,0.002249,-0.93439,0.0032485,0.0066635,9.565e-09,0.44,0,0
0.023313,0.0088085,0.0078532,2.7938e-05,0.0023643,-0.00012891,0,0,0.049948,-0.021261,0,-0.0023462,0,0,0,0.0078553,2.5815e-05,0.0023643,-0.94356,0.0034151,0.0069613,1.0965e-08,0.46,0,0
0.024335,0.0084638,0.0082194,5.3907e-05,0.002482,-0.00012768,0,0,0.05221,-0.022096,0,-0.0023238,0,0,0,0.0082214,5.1911e-05,0.002482,-0.89562,0.0035851,0.0072659,1.2529e-08,0.48,0,0
0.025402,0.0081495,0.0085705,7.8751e-05,0.0025948,-0.0001181,0,0,0.054379,-0.022896,0,-0.0021495,0,0,0,0.0085721,7.7109e-05,0.0025948,-0.79668,0.003748,0.0075575,1.416e-08,0.5,0,0
0.02651,0.0078842,0.0088838,0.00010156,0.0026956,-0.00010103,0,0,0.056312,-0.023606,0,-0.0018387,0,0,0,0.0088849,0.0001004,0.0026956,-0.659,0.0038936,0.007817,1.5727e-08,0.52,0,0
0.027654,0.0076843,0.0091403,0.00012118,0.0027784,-7.8286e-05,0,0,0.057893,-0.024181,0,-0.0014248,0,0,0,0.0091409,0.0001205,0.0027784,-0.49728,0.0040133,0.0080285,1.7091e-08,0.54,0,0
0.028826,0.007563,0.0093265,0.00013613,0.0028388,-5.2017e-05,0,0,0.059038,-0.024594,0,-0.00094671,0,0,0,0.0093268,0.00013584,0.0028388,-0.32428,0.0041005,0.0081815,1.8126e-08,0.56,0,0
0.030016,0.0075295,0.0094346,0.00014491,0.0028739,-2.3949e-05,0,0,0.059703,-0.024833,0,-0.00043588,0,0,0,0.0094347,0.00014485,0.0028739,-0.14771,0.0041511,0.0082702,1.8746e-08,0.58,0,0
0.031214,0.0075887,0.0094608,0.00014653,0.0028822,4.8335e-06,0,0,0.059865,-0.024894,0,8.7971e-05,0,0,0,0.0094608,0.00014652,0.0028822,0.029733,0.0041632,0.0082921,1.8899e-08,0.6,0,0
0.03241,0.0077419,0.0094041,0.00014095,0.0028635,3.3558e-05,0,0,0.059519,-0.024775,0,0.00061076,0,0,0,0.0094042,0.00014083,0.0028635,0.20756,0.0041362,0.0082463,1.8573e-08,0.62,0,0
0.033594,0.0079858,0.0092668,0.00012909,0.0028188,6.1141e-05,0,0,0.058677,-0.024476,0,0.0011128,0,0,0,0.0092672,0.00012869,0.0028188,0.38335,0.0040716,0.0081342,1.7795e-08,0.64,0,0
0.034757,0.0083134,0.0090551,0.00011243,0.0027503,8.5849e-05,0,0,0.057374,-0.024004,0,0.0015624,0,0,0,0.0090559,0.00011161,0.0027503,0.54997,0.0039726,0.00796,1.6634e-08,0.66,0,0
0.035889,0.0087134,0.0087808,9.2406e-05,0.002662,0.00010551,0,0,0.055682,-0.023383,0,0.0019202,0,0,0,0.0087821,9.1125e-05,0.002662,0.69563,0.0038451,0.007733,1.5203e-08,0.68,0,0
0.036984,0.0091713,0.0084615,7.0147e-05,0.0025595,0.00011822,0,0,0.053708,-0.022653,0,0.0021516,0,0,0,0.0084632,6.8482e-05,0.0025595,0.80699,0.0036971,0.0074676,1.3641e-08,0.7,0,0
0.038038,0.00967,0.0081186,4.6555e-05,0.0024495,0.00012306,0,0,0.051588,-0.021867,0,0.0022396,0,0,0,0.0081204,4.468e-05,0.0024495,0.8732,0.0035382,0.0071819,1.2084e-08,0.72,0,0
0.039048,0.010192,0.007774,2.2562e-05,0.002339,0.00012035,0,0,0.049459,-0.021079,0,0.0021903,0,0,0,0.0077758,2.0694e-05,0.002339,0.88928,0.0033785,0.0068948,1.0642e-08,0.74,0,0
0.040016,0.010719,0.0074474,-7.5883e-07,0.002234,0.00011144,0,0,0.047442,-0.020336,0,0.0020283,0,0,0,0.007449,-2.426e-06,0.002234,0.85705,0.0032269,0.0066228,9.3864e-09,0.76,0,0
0.040946,0.011237,0.0071535,-2.2343e-05,0.0021393,9.8229e-05,0,0,0.045629,-0.019671,0,0.0017878,0,0,0,0.0071548,-2.3687e-05,0.0021393,0.78412,0.0030902,0.0063783,8.3442e-09,0.78,0,0
0.041841,0.011732,0.0069016,-4.1361e-05,0.0020581,8.2638e-05,0,0,0.044076,-0.019105,0,0.001504,0,0,0,0.0069026,-4.2345e-05,0.0020581,0.68183,0.0029728,0.006169,7.5148e-09,0.8,0,0
0.042709,0.012195,0.0066956,-5.7361e-05,0.0019915,6.6376e-05,0,0,0.042807,-0.018644,0,0.001208,0,0,0,0.0066962,-5.8014e-05,0.0019915,0.5631,0.0028766,0.0059981,6.8789e-09,0.82,0,0
0.043554,0.012616,0.0065349,-7.0253e-05,0.0019394,5.0789e-05,0,0,0.041819,-0.018288,0,0.00092436,0,0,0,0.0065353,-7.0643e-05,0.0019394,0.44053,0.0028014,0.0058652,6.409e-09,0.84,0,0
0.044381,0.012992,0.0064159,-8.0215e-05,0.0019007,3.6844e-05,0,0,0.041088,-0.018026,0,0.00067056,0,0,0,0.0064161,-8.0424e-05,0.0019007,0.32495,0.0027454,0.0057671,6.0755e-09,0.86,0,0
0.045197,0.013319,0.0063327,-8.7593e-05,0.0018735,2.5141e-05,0,0,0.040579,-0.017846,0,0.00045756,0,0,0,0.0063328,-8.7691e-05,0.0018735,0.22435,0.0027062,0.0056989,5.8499e-09,0.88,0,0
0.046005,0.013595,0.0062785,-9.2809e-05,0.0018557,1.5946e-05,0,0,0.040247,-0.017731,0,0.00029022,0,0,0,0.0062785,-9.2849e-05,0.0018557,0.1434,0.0026805,0.0056547,5.7062e-09,0.9,0,0
0.046807,0.01382,0.006246,-9.6311e-05,0.0018449,9.2413e-06,0,0,0.04005,-0.017665,0,0.00016819,0,0,0,0.006246,-9.6325e-05,0.0018449,0.083485,0.0026649,0.0056286,5.6217e-09,0.92,0,0
0.047607,0.013994,0.0062286,-9.8524e-05,0.001839,4.7743e-06,0,0,0.039945,-0.017632,0,8.6893e-05,0,0,0,0.0062286,-9.8528e-05,0.001839,0.043235,0.0026564,0.0056149,5.577e-09,0.94,0,0
0.048405,0.014118,0.0062205,-9.9817e-05,0.0018362,2.1203e-06,0,0,0.039897,-0.017618,0,3.8589e-05,0,0,0,0.0062205,-9.9818e-05,0.0018362,0.019221,0.0026523,0.0056088,5.5567e-09,0.96,0,0
0.049203,0.014192,0.0062174,-0.00010047,0.0018351,7.3456e-07,0,0,0.039879,-0.017614,0,1.3369e-05,0,0,0,0.0062174,-0.00010047,0.0018351,0.0066616,0.0026507,0.0056066,5.5491e-09,0.98,0,0
0.05,0.014216,0.0062167,-0.00010067,0.0018348,6.758e-05,0,0,0.039875,-0.017613,0,0.00123,0,0,0,0.0062175,-0.00010139,0.0018348,0.61283,0.0026503,0.0056073,5.55e-09,1,0,0
0,0,0.013257,0.0056817,0.0056817,0.0043997,0,0,0.068938,8.6736e-19,0,0.080075,0,0,0,0.015275,0.0036639,0.0056817,24.637,0.0082069,0.010745,5.6222e-08,0,0.02,0
0.0013788,0.0016015,0.012069,0.0012016,0.0039811,0.0027843,0,0,0.073598,-0.025294,0,0.050674,0,0,0,0.012741,0.0005298,0.0039811,13.566,0.0057505,0.010903,4.4772e-08,0.02,0.02,0
0.0029439,0.0032014,0.012087,0.0009544,0.0039123,0.0018416,0,0,0.074386,-0.026917,0,0.033517,0,0,0,0.012383,0.00065766,0.0039123,9.1535,0.0056511,0.010484,4.0529e-08,0.04,0.02,0
0.0043542,0.0044873,0.010776,0.00050842,0.0033855,0.0011281,0,0,0.067258,-0.026181,0,0.020531,0,0,0,0.010899,0.00038595,0.0033855,6.1962,0.0048901,0.0093801,2.8236e-08,0.06,0.02,0
0.0056342,0.0055756,0.009794,0.00029691,0.0030273,0.00076958,0,0,0.061577,-0.024846,0,0.014006,0,0,0,0.009856,0.00023495,0.0030273,4.6029,0.0043727,0.008573,2.1166e-08,0.08,0.02,0
0.0068173,0.0065042,0.0090824,0.00018401,0.0027799,0.00055426,0,0,0.057353,-0.023623,0,0.010087,0,0,0,0.0091168,0.00014962,0.0027799,3.5505,0.0040154,0.0079839,1.6894e-08,0.1,0.02,0
0.0079283,0.0073023,0.0085567,0.00012124,0.0026034,0.00041927,0,0,0.054175,-0.022587,0,0.0076307,0,0,0,0.0085775,0.00010045,0.0026034,2.8385,0.0037604,0.0075437,1.4144e-08,0.12,0.02,0
0.0089843,0.0079881,0.0081544,8.3955e-05,0.0024715,0.00032868,0,0,0.051714,-0.021727,0,0.005982,0,0,0,0.0081677,7.0591e-05,0.0024715,2.3283,0.00357,0.0072033,1.2254e-08,0.14,0.02,0
0.0099969,0.0085739,0.0078371,6.1005e-05,0.0023694,0.00026482,0,0,0.049756,-0.021007,0,0.0048198,0,0,0,0.0078462,5.1997e-05,0.0023694,1.9483,0.0034225,0.0069323,1.0887e-08,0.16,0.02,0
0.010975,0.0090684,0.0075813,4.6831e-05,0.0022884,0.00021737,0,0,0.048165,-0.020399,0,0.0039561,0,0,0,0.0075876,4.0565e-05,0.0022884,1.6511,0.0033055,0.0067116,9.8593e-09,0.18,0.02,0
0.011924,0.0094777,0.0073722,3.8498e-05,0.0022232,0.00017985,0,0,0.046856,-0.019881,0,0.0032732,0,0,0,0.0073766,3.409e-05,0.0022232,1.404,0.0032113,0.0065293,9.0667e-09,0.2,0.02,0
0.012849,0.0098057,0.0072009,3.4337e-05,0.0021706,0.00014785,0,0,0.045776,-0.01944,0,0.0026908,0,0,0,0.0072039,3.1289e-05,0.0021706,1.1813,0.0031353,0.006378,8.4474e-09,0.22,0.02,0
0.013755,0.010055,0.0070625,3.3307e-05,0.0021287,0.00011815,0,0,0.044897,-0.019068,0,0.0021504,0,0,0,0.0070645,3.1321e-05,0.0021287,0.9627,0.0030749,0.006254,7.9655e-09,0.24,0.02,0
0.014645,0.010228,0.0069549,3.4651e-05,0.0020969,8.8352e-05,0,0,0.044208,-0.018766,0,0.001608,0,0,0,0.006956,3.3523e-05,0.0020969,0.73135,0.0030288,0.0061559,7.601e-09,0.26,0.02,0
0.015523,0.010326,0.006878,3.771e-05,0.0020747,5.6662e-05,0,0,0.04371,-0.018537,0,0.0010313,0,0,0,0.0068785,3.724e-05,0.0020747,0.47457,0.0029968,0.006084,7.3449e-09,0.28,0.02,0
0.016393,0.01035,0.0068332,4.1797e-05,0.0020625,2.1886e-05,0,0,0.043414,-0.018388,0,0.00039832,0,0,0,0.0068333,4.1727e-05,0.0020625,0.18464,0.0029792,0.0060403,7.1956e-09,0.3,0.02,0
0.017259,0.010301,0.0068227,4.6143e-05,0.0020606,-1.6533e-05,0,0,0.043334,-0.018332,0,-0.00030089,0,0,0,0.0068227,4.6103e-05,0.0020606,-0.13978,0.0029765,0.0060273,7.1571e-09,0.32,0.02,0
0.018126,0.010183,0.0068486,4.9872e-05,0.0020695,-5.843e-05,0,0,0.043489,-0.018379,0,-0.0010634,0,0,0,0.0068491,4.9369e-05,0.0020695,-0.49237,0.0029893,0.0060482,7.2369e-09,0.34,0.02,0
0.018999,0.0099976,0.0069128,5.2022e-05,0.0020895,-0.00010284,0,0,0.043893,-0.018541,0,-0.0018717,0,0,0,0.0069143,5.0481e-05,0.0020895,-0.85859,0.0030181,0.0061053,7.445e-09,0.36,0.02,0
0.019882,0.0097526,0.0070158,5.158e-05,0.0021202,-0.00014794,0,0,0.04455,-0.018825,0,-0.0026925,0,0,0,0.007019,4.8439e-05,0.0021202,-1.2164,0.0030625,0.0061999,7.7915e-09,0.38,0.02,0
0.020781,0.0094559,0.0071563,4.7528e-05,0.0021612,-0.00019102,0,0,0.045456,-0.019234,0,-0.0034766,0,0,0,0.0071614,4.2399e-05,0.0021612,-1.5381,0.0031217,0.0063314,8.2844e-09,0.4,0.02,0
0.0217,0.0091186,0.0073302,3.8968e-05,0.0022108,-0.00022854,0,0,0.046587,-0.019763,0,-0.0041595,0,0,0,0.0073374,3.1811e-05,0.0022108,-1.7936,0.0031933,0.0064962,8.9257e-09,0.42,0.02,0
0.022645,0.0087554,0.0075307,2.5432e-05,0.0022668,-0.00025641,0,0,0.047901,-0.020397,0,-0.0046666,0,0,0,0.0075395,1.6683e-05,0.0022668,-1.9544,0.0032743,0.0066879,9.7059e-09,0.44,0.02,0
0.023616,0.0083833,0.0077477,7.3869e-06,0.0023265,-0.00027054,0,0,0.049333,-0.021104,0,-0.0049237,0,0,0,0.0077571,-2.0571e-06,0.0023265,-1.9993,0.0033605,0.0068963,1.0599e-08,0.46,0.02,0
0.024618,0.0080219,0.0079687,-1.3281e-05,0.0023866,-0.00026789,0,0,0.050797,-0.021839,0,-0.0048756,0,0,0,0.0079777,-2.2262e-05,0.0023866,-1.9201,0.0034473,0.0071085,1.156e-08,0.48,0.02,0
0.025648,0.0076916,0.00818,-3.3416e-05,0.002444,-0.00024761,0,0,0.052198,-0.022544,0,-0.0045064,0,0,0,0.0081875,-4.0873e-05,0.002444,-1.7252,0.0035302,0.0073099,1.2526e-08,0.5,0.02,0
0.026706,0.007412,0.0083686,-4.9714e-05,0.0024957,-0.00021155,0,0,0.053444,-0.023163,0,-0.0038502,0,0,0,0.0083739,-5.5027e-05,0.0024957,-1.4386,0.0036049,0.0074869,1.3424e-08,0.52,0.02,0
0.027786,0.0072007,0.0085236,-6.0355e-05,0.002539,-0.00016377,0,0,0.05446,-0.023654,0,-0.0029807,0,0,0,0.0085267,-6.3478e-05,0.002539,-1.0926,0.0036674,0.0076294,1.4185e-08,0.54,0.02,0
0.028884,0.0070711,0.0086369,-6.5821e-05,0.0025713,-0.00010889,0,0,0.055197,-0.023998,0,-0.0019818,0,0,0,0.0086383,-6.7184e-05,0.0025713,-0.71675,0.0037141,0.0077316,1.4754e-08,0.56,0.02,0
0.029994,0.0070328,0.0087039,-6.8115e-05,0.0025907,-5.0522e-05,0,0,0.055629,-0.024195,0,-0.0009195,0,0,0,0.0087042,-6.8406e-05,0.0025907,-0.32998,0.0037422,0.0077911,1.5095e-08,0.58,0.02,0
0.031109,0.0070909,0.0087218,-6.8959e-05,0.0025959,9.2677e-06,0,0,0.055746,-0.02425,0,0.00016867,0,0,0,0.0087218,-6.8969e-05,0.0025959,0.060404,0.0037496,0.0078073,1.5188e-08,0.6,0.02,0
0.032224,0.0072464,0.0086901,-6.8364e-05,0.0025865,6.9118e-05,0,0,0.055543,-0.02416,0,0.0012579,0,0,0,0.0086907,-6.8909e-05,0.0025865,0.45211,0.0037361,0.0077795,1.5026e-08,0.62,0.02,0
0.033331,0.0074963,0.0086099,-6.4601e-05,0.0025636,0.00012696,0,0,0.055021,-0.023916,0,0.0023108,0,0,0,0.0086117,-6.6459e-05,0.0025636,0.83838,0.0037029,0.0077074,1.4617e-08,0.64,0.02,0
0.034425,0.0078333,0.0084846,-5.5628e-05,0.0025287,0.00017918,0,0,0.054198,-0.023517,0,0.0032611,0,0,0,0.0084883,-5.9386e-05,0.0025287,1.2014,0.0036525,0.007592,1.3987e-08,0.66,0.02,0
0.035499,0.0082458,0.0083207,-4.0883e-05,0.002484,0.00022108,0,0,0.053115,-0.022976,0,0.0040236,0,0,0,0.0083266,-4.6724e-05,0.002484,1.5134,0.0035879,0.0074382,1.3184e-08,0.68,0.02,0
0.036549,0.0087182,0.0081281,-2.2107e-05,0.0024318,0.00024847,0,0,0.051836,-0.022331,0,0.0045221,0,0,0,0.0081357,-2.9674e-05,0.0024318,1.7446,0.0035126,0.0072549,1.2272e-08,0.7,0.02,0
0.037572,0.0092326,0.0079186,-2.544e-06,0.0023748,0.0002593,0,0,0.050449,-0.021634,0,0.0047192,0,0,0,0.0079271,-1.1023e-05,0.0023748,1.8729,0.0034303,0.0070546,1.1325e-08,0.72,0.02,0
0.038567,0.0097701,0.007705,1.466e-05,0.0023159,0.0002542,0,0,0.049041,-0.020941,0,0.0046265,0,0,0,0.0077134,6.2665e-06,0.0023159,1.8912,0.0033452,0.0068508,1.0409e-08,0.74,0.02,0
0.039534,0.010313,0.007499,2.7585e-05,0.002258,0.00023601,0,0,0.047693,-0.020296,0,0.0042954,0,0,0,0.0075064,2.0137e-05,0.002258,1.8075,0.0032615,0.0066558,9.574e-09,0.76,0.02,0
0.040475,0.010844,0.0073099,3.5686e-05,0.0022037,0.00020864,0,0,0.046467,-0.019729,0,0.0037972,0,0,0,0.0073159,2.9707e-05,0.0022037,1.6415,0.0031831,0.0064788,8.8501e-09,0.78,0.02,0
0.041393,0.01135,0.0071442,3.9319e-05,0.0021551,0.00017609,0,0,0.045401,-0.019253,0,0.0032049,0,0,0,0.0071486,3.4957e-05,0.0021551,1.4189,0.0031129,0.0063259,8.2492e-09,0.8,0.02,0
0.042291,0.011822,0.0070053,3.9249e-05,0.0021134,0.00014194,0,0,0.044517,-0.018874,0,0.0025834,0,0,0,0.0070082,3.6358e-05,0.0021134,1.1668,0.0030526,0.0062,7.7702e-09,0.82,0.02,0
0.043173,0.01225,0.0068939,3.6358e-05,0.0020791,0.00010904,0,0,0.043815,-0.018589,0,0.0019845,0,0,0,0.0068956,3.4624e-05,0.0020791,0.9107,0.0030031,0.0061013,7.4031e-09,0.84,0.02,0
0.044044,0.012631,0.0068086,3.1535e-05,0.002052,7.9451e-05,0,0,0.043285,-0.018387,0,0.001446,0,0,0,0.0068095,3.0603e-05,0.002052,0.67158,0.0029641,0.006028,7.1334e-09,0.86,0.02,0
0.044905,0.012962,0.0067465,2.5631e-05,0.0020316,5.4509e-05,0,0,0.042905,-0.018255,0,0.00099206,0,0,0,0.006747,2.5189e-05,0.0020316,0.46465,0.0029346,0.0059767,6.9443e-09,0.88,0.02,0
0.04576,0.01324,0.0067038,1.9416e-05,0.002017,3.4825e-05,0,0,0.04265,-0.018178,0,0.00063381,0,0,0,0.006704,1.9234e-05,0.002017,0.29849,0.0029134,0.0059433,6.8187e-09,0.9,0.02,0
0.046611,0.013467,0.0066762,1.3539e-05,0.0020069,2.0394e-05,0,0,0.042491,-0.01814,0,0.00037117,0,0,0,0.0066763,1.3477e-05,0.0020069,0.17538,0.0028989,0.0059232,6.7408e-09,0.92,0.02,0
0.047459,0.013642,0.0066597,8.5082e-06,0.0020005,1.0707e-05,0,0,0.042399,-0.018127,0,0.00019487,0,0,0,0.0066597,8.4909e-06,0.0020005,0.092234,0.0028896,0.0059125,6.6961e-09,0.94,0.02,0
0.048307,0.013766,0.0066507,4.6847e-06,0.0019966,4.8741e-06,0,0,0.042352,-0.018127,0,8.871e-05,0,0,0,0.0066507,4.6811e-06,0.0019966,0.04202,0.002884,0.0059075,6.673e-09,0.96,0.02,0
0.049154,0.01384,0.0066464,2.3045e-06,0.0019946,1.7428e-06,0,0,0.042332,-0.01813,0,3.172e-05,0,0,0,0.0066464,2.3041e-06,0.0019946,0.015029,0.0028811,0.0059057,6.6628e-09,0.98,0.02,0
0.05,0.013864,0.0066452,1.4974e-06,0.001994,6.7618e-05,0,0,0.042326,-0.018132,0,0.0012307,0,0,0,0.0066459,8.093e-07,0.001994,0.58306,0.0028802,0.0059064,6.6628e-09,1,0.02,0
0,0,0.011231,0.0048134,0.0048134,0.0036262,0,0,0.058402,0,0,0.065996,0,0,0,0.012864,0.0031801,0.0048134,24.247,0.0069526,0.0089797,3.308e-08,0,0.04,0
0.001168,0.0013199,0.01082,0.0029391,0.0041278,0.0032877,0,0,0.060901,-0.010817,0,0.059836,0,0,0,0.012011,0.0017477,0.0041278,19.92,0.0059623,0.009305,3.243e-08,0.02,0.04,0
0.002436,0.0027098,0.010762,0.0014332,0.0036587,0.002644,0,0,0.064644,-0.020252,0,0.04812,0,0,0,0.01146,0.00073596,0.0036587,14.773,0.0052848,0.009602,3.1669e-08,0.04,0.04,0
0.0037538,0.0039818,0.010561,0.00090399,0.0034393,0.0019571,0,0,0.064802,-0.023072,0,0.035619,0,0,0,0.010942,0.00052242,0.0034393,11.033,0.0049679,0.0093104,2.8148e-08,0.06,0.04,0
0.0050281,0.0050786,0.010021,0.00057284,0.0031782,0.0014305,0,0,0.062272,-0.023709,0,0.026035,0,0,0,0.010233,0.00036102,0.0031782,8.4231,0.0045908,0.0088081,2.3374e-08,0.08,0.04,0
0.0062447,0.0060248,0.0094972,0.00037992,0.0029631,0.001077,0,0,0.05946,-0.023507,0,0.019601,0,0,0,0.0096227,0.00025442,0.0029631,6.6463,0.0042801,0.0083502,1.9639e-08,0.1,0.04,0
0.0074065,0.0068402,0.0090461,0.00026113,0.0027922,0.00083396,0,0,0.056911,-0.023033,0,0.015178,0,0,0,0.0091246,0.00018266,0.0027922,5.3751,0.0040331,0.0079645,1.6868e-08,0.12,0.04,0
0.0085211,0.0075416,0.0086717,0.00018611,0.0026573,0.00066305,0,0,0.054731,-0.022488,0,0.012067,0,0,0,0.0087232,0.00013461,0.0026573,4.441,0.0038384,0.007646,1.4815e-08,0.14,0.04,0
0.0095958,0.0081411,0.008362,0.00013787,0.00255,0.00053858,0,0,0.05289,-0.02195,0,0.0098021,0,0,0,0.0083972,0.00010275,0.00255,3.7309,0.0036833,0.0073816,1.3263e-08,0.16,0.04,0
0.010637,0.0086475,0.0081047,0.00010707,0.0024635,0.00044422,0,0,0.051335,-0.021444,0,0.0080848,0,0,0,0.0081293,8.2475e-05,0.0024635,3.1694,0.0035584,0.0071597,1.2062e-08,0.18,0.04,0
0.011649,0.009067,0.0078898,8.834e-05,0.0023935,0.00036894,0,0,0.050017,-0.020976,0,0.0067146,0,0,0,0.0079072,7.0931e-05,0.0023935,2.7015,0.0034572,0.0069715,1.1114e-08,0.2,0.04,0
0.012637,0.009404,0.0077101,7.8434e-05,0.0023366,0.00030491,0,0,0.0489,-0.020549,0,0.0055493,0,0,0,0.0077223,6.6272e-05,0.0023366,2.2843,0.0033751,0.0068109,1.0357e-08,0.22,0.04,0
0.013605,0.0096613,0.007561,7.5242e-05,0.0022909,0.00024632,0,0,0.047958,-0.020162,0,0.0044831,0,0,0,0.0075691,6.7145e-05,0.0022909,1.8827,0.003309,0.006674,9.7496e-09,0.24,0.04,0
0.014556,0.0098409,0.0074395,7.7185e-05,0.002255,0.00018879,0,0,0.047179,-0.019818,0,0.003436,0,0,0,0.0074443,7.2347e-05,0.002255,1.468,0.0032572,0.0065589,9.2668e-09,0.26,0.04,0
0.015492,0.0099439,0.0073444,8.2853e-05,0.0022282,0.00012904,0,0,0.046557,-0.019522,0,0.0023486,0,0,0,0.0073466,8.0561e-05,0.0022282,1.0178,0.0032184,0.0064656,8.8945e-09,0.28,0.04,0
0.016418,0.0099714,0.0072753,9.0776e-05,0.0022098,6.4889e-05,0,0,0.046096,-0.019283,0,0.001181,0,0,0,0.0072759,9.019e-05,0.0022098,0.51743,0.003192,0.006395,8.6264e-09,0.3,0.04,0
0.017336,0.0099249,0.0072329,9.9293e-05,0.0021997,-4.7048e-06,0,0,0.045802,-0.019113,0,-8.5628e-05,0,0,0,0.0072329,9.929e-05,0.0021997,-0.037789,0.0031773,0.0063495,8.4616e-09,0.32,0.04,0
0.01825,0.0098065,0.0072175,0.00010653,0.0021972,-7.9481e-05,0,0,0.045685,-0.019025,0,-0.0014466,0,0,0,0.0072184,0.00010564,0.0021972,-0.6403,0.0031737,0.0063316,8.4023e-09,0.34,0.04,0
0.019163,0.0096199,0.0072296,0.00011047,0.002202,-0.00015778,0,0,0.045751,-0.019033,0,-0.0028716,0,0,0,0.0072331,0.00010698,0.002202,-1.269,0.0031807,0.0063436,8.4522e-09,0.36,0.04,0
0.02008,0.009371,0.0072687,0.00010906,0.0022133,-0.00023651,0,0,0.046004,-0.019149,0,-0.0043045,0,0,0,0.0072765,0.00010125,0.0022133,-1.8899,0.003197,0.0063867,8.6138e-09,0.38,0.04,0
0.021004,0.009068,0.0073334,0.00010027,0.0022301,-0.00031115,0,0,0.04644,-0.019382,0,-0.005663,0,0,0,0.0073468,8.6908e-05,0.0022301,-2.4587,0.0032213,0.0064606,8.8865e-09,0.4,0.04,0
0.021938,0.0087223,0.007421,8.2315e-05,0.002251,-0.00037592,0,0,0.047047,-0.019735,0,-0.0068417,0,0,0,0.0074402,6.3109e-05,0.002251,-2.9247,0.0032514,0.0065626,9.2639e-09,0.42,0.04,0
0.022885,0.0083485,0.0075267,5.4045e-05,0.0022742,-0.00042404,0,0,0.047797,-0.020204,0,-0.0077175,0,0,0,0.0075507,3.0059e-05,0.0022742,-3.2374,0.003285,0.0066872,9.7306e-09,0.44,0.04,0
0.02385,0.0079643,0.007644,1.6118e-05,0.002298,-0.00044861,0,0,0.048648,-0.020765,0,-0.0081647,0,0,0,0.0076703,-1.0175e-05,0.002298,-3.3543,0.0033194,0.0068256,1.0259e-08,0.46,0.04,0
0.024831,0.0075902,0.0077645,-2.7697e-05,0.002321,-0.00044432,0,0,0.049536,-0.021374,0,-0.0080866,0,0,0,0.0077898,-5.295e-05,0.002321,-3.253,0.0033526,0.006966,1.0808e-08,0.48,0.04,0
0.025831,0.0072477,0.0078792,-7.0285e-05,0.0023427,-0.00040962,0,0,0.050382,-0.021958,0,-0.0074552,0,0,0,0.0079003,-9.1337e-05,0.0023427,-2.942,0.0033839,0.007095,1.1331e-08,0.5,0.04,0
0.026847,0.0069577,0.00798,-0.00010381,0.0023628,-0.00034828,0,0,0.051116,-0.022447,0,-0.0063387,0,0,0,0.0079949,-0.00011879,0.0023628,-2.4624,0.003413,0.0072011,1.1783e-08,0.52,0.04,0
0.027876,0.0067382,0.008061,-0.00012409,0.0023811,-0.00026818,0,0,0.051687,-0.022797,0,-0.0048808,0,0,0,0.0080698,-0.00013287,0.0023811,-1.8746,0.0034393,0.0072789,1.2137e-08,0.54,0.04,0
0.028914,0.0066031,0.0081195,-0.0001329,0.002396,-0.00017806,0,0,0.052084,-0.023013,0,-0.0032407,0,0,0,0.0081233,-0.00013674,0.002396,-1.2355,0.0034608,0.0073296,1.2385e-08,0.56,0.04,0
0.029959,0.0065616,0.0081547,-0.00013589,0.0024057,-8.3918e-05,0,0,0.052317,-0.023128,0,-0.0015273,0,0,0,0.0081556,-0.00013674,0.0024057,-0.57987,0.0034748,0.0073583,1.2532e-08,0.58,0.04,0
0.031007,0.0066187,0.0081668,-0.00013775,0.0024087,1.1912e-05,0,0,0.052399,-0.023173,0,0.00021679,0,0,0,0.0081669,-0.00013777,0.0024087,0.082182,0.0034793,0.0073691,1.2585e-08,0.6,0.04,0
0.032055,0.0067755,0.0081552,-0.00013851,0.002405,0.00010882,0,0,0.052327,-0.023146,0,0.0019805,0,0,0,0.0081566,-0.00013993,0.002405,0.75159,0.0034739,0.0073618,1.2542e-08,0.62,0.04,0
0.0331,0.0070292,0.0081186,-0.00013349,0.0023955,0.0002045,0,0,0.05208,-0.023014,0,0.0037218,0,0,0,0.0081236,-0.00013856,0.0023955,1.4187,0.0034602,0.0073313,1.2389e-08,0.64,0.04,0
0.034138,0.0073727,0.0080564,-0.00011696,0.0023818,0.00029294,0,0,0.051638,-0.022739,0,0.0053316,0,0,0,0.0080669,-0.00012744,0.0023818,2.05,0.0034404,0.007272,1.2116e-08,0.66,0.04,0
0.035166,0.0077944,0.0079703,-8.6935e-05,0.002365,0.00036532,0,0,0.051008,-0.022313,0,0.0066488,0,0,0,0.0079868,-0.00010346,0.002365,2.5907,0.0034161,0.0071816,1.1724e-08,0.68,0.04,0
0.036179,0.0082781,0.0078649,-4.7425e-05,0.0023453,0.00041349,0,0,0.050229,-0.021773,0,0.0075254,0,0,0,0.0078865,-6.8974e-05,0.0023453,2.9833,0.0033876,0.0070648,1.1239e-08,0.7,0.04,0
0.037175,0.0088046,0.0077473,-6.1408e-06,0.0023224,0.00043335,0,0,0.049367,-0.021189,0,0.0078869,0,0,0,0.0077715,-3.0286e-05,0.0023224,3.1891,0.0033545,0.0069317,1.0699e-08,0.72,0.04,0
0.038153,0.009354,0.0076257,2.9824e-05,0.0022966,0.00042605,0,0,0.048494,-0.020628,0,0.0077542,0,0,0,0.0076495,6.0009e-06,0.0022966,3.2004,0.0033174,0.0067942,1.0153e-08,0.74,0.04,0
0.039114,0.0099074,0.0075074,5.6622e-05,0.0022692,0.00039653,0,0,0.047668,-0.020135,0,0.0072169,0,0,0,0.0075285,3.5578e-05,0.0022692,3.0379,0.0032778,0.0066631,9.6373e-09,0.76,0.04,0
0.04006,0.010448,0.0073986,7.3419e-05,0.0022416,0.00035143,0,0,0.046929,-0.019731,0,0.006396,0,0,0,0.0074154,5.6598e-05,0.0022416,2.7404,0.0032379,0.0065458,9.1804e-09,0.78,0.04,0
0.040992,0.010962,0.0073031,8.1114e-05,0.0022153,0.00029737,0,0,0.0463,-0.019421,0,0.005412,0,0,0,0.0073153,6.8891e-05,0.0022153,2.3538,0.0031998,0.0064471,8.7964e-09,0.8,0.04,0
0.041912,0.01144,0.0072231,8.1201e-05,0.0021913,0.00024023,0,0,0.04579,-0.019202,0,0.0043721,0,0,0,0.0072312,7.313e-05,0.0021913,1.9243,0.0031652,0.0063689,8.4898e-09,0.82,0.04,0
0.042823,0.011872,0.0071592,7.5393e-05,0.0021704,0.00018482,0,0,0.045399,-0.019065,0,0.0033637,0,0,0,0.0071641,7.0574e-05,0.0021704,1.4935,0.003135,0.0063113,8.2579e-09,0.84,0.04,0
0.043728,0.012256,0.0071109,6.5464e-05,0.0021529,0.00013475,0,0,0.045117,-0.018996,0,0.0024524,0,0,0,0.0071134,6.2887e-05,0.0021529,1.0953,0.0031097,0.0062724,8.093e-09,0.86,0.04,0
0.044628,0.012589,0.0070763,5.3189e-05,0.0021388,9.2395e-05,0,0,0.044931,-0.018979,0,0.0016816,0,0,0,0.0070775,5.1973e-05,0.0021388,0.7536,0.0030894,0.0062491,7.9841e-09,0.88,0.04,0
0.045525,0.012868,0.0070532,4.0205e-05,0.002128,5.8908e-05,0,0,0.044819,-0.018999,0,0.0010721,0,0,0,0.0070537,3.971e-05,0.002128,0.48123,0.0030738,0.0062378,7.9187e-09,0.9,0.04,0
0.046421,0.013094,0.007039,2.7901e-05,0.0021201,3.4353e-05,0,0,0.044763,-0.019039,0,0.00062523,0,0,0,0.0070392,2.7733e-05,0.0021201,0.28073,0.0030624,0.0062344,7.8845e-09,0.92,0.04,0
0.047316,0.013269,0.0070312,1.7357e-05,0.0021146,1.7902e-05,0,0,0.044741,-0.019085,0,0.00032581,0,0,0,0.0070312,1.7311e-05,0.0021146,0.14624,0.0030544,0.0062357,7.8703e-09,0.94,0.04,0
0.04821,0.013393,0.0070274,9.3415e-06,0.002111,8.0507e-06,0,0,0.044739,-0.019125,0,0.00014652,0,0,0,0.0070274,9.3322e-06,0.002111,0.065726,0.0030492,0.0062386,7.867e-09,0.96,0.04,0
0.049105,0.013467,0.0070258,4.3513e-06,0.002109,2.8336e-06,0,0,0.044743,-0.019153,0,5.1572e-05,0,0,0,0.0070258,4.3502e-06,0.002109,0.023123,0.0030464,0.0062412,7.8677e-09,0.98,0.04,0
0.05,0.013491,0.0070254,2.6592e-06,0.0021084,6.7382e-05,0,0,0.044745,-0.019162,0,0.0012264,0,0,0,0.0070261,2.0127e-06,0.0021084,0.54968,0.0030455,0.0062433,7.8714e-09,1,0.04,0
0,0,0.010216,0.0043781,0.0043781,0.003211,0,0,0.053121,-1.0842e-18,0,0.058441,0,0,0,0.011636,0.0029575,0.0043781,23.865,0.0063239,0.0080628,2.4127e-08,0,0.06,0
0.0010624,0.0011688,0.010087,0.0033265,0.004024,0.0030695,0,0,0.055172,-0.0063472,0,0.055864,0,0,0,0.011273,0.0021408,0.004024,21.121,0.0058125,0.0083509,2.486e-08,0.02,0.06,0
0.0022069,0.0023913,0.010163,0.0022133,0.0037128,0.00281,0,0,0.058694,-0.013646,0,0.051143,0,0,0,0.011056,0.0013203,0.0037128,17.63,0.0053629,0.008787,2.6331e-08,0.04,0.06,0
0.0034102,0.0035644,0.010126,0.0014128,0.0034615,0.0023375,0,0,0.060643,-0.018644,0,0.042542,0,0,0,0.010713,0.0008253,0.0034615,14.108,0.005,0.0088686,2.5441e-08,0.06,0.06,0
0.0046326,0.0046273,0.0099434,0.00095336,0.003269,0.0018687,0,0,0.060737,-0.021073,0,0.034011,0,0,0,0.010316,0.00058039,0.003269,11.287,0.0047219,0.0087087,2.3341e-08,0.08,0.06,0
0.0058397,0.0055639,0.0096465,0.00065866,0.0030915,0.0014839,0,0,0.05965,-0.022139,0,0.027007,0,0,0,0.0098851,0.00042,0.0030915,9.1368,0.0044656,0.0084522,2.0888e-08,0.1,0.06,0
0.0070186,0.006381,0.0093311,0.00046805,0.0029397,0.0011903,0,0,0.058161,-0.022492,0,0.021663,0,0,0,0.0094881,0.00031098,0.0029397,7.5173,0.0042463,0.0081857,1.8687e-08,0.12,0.06,0
0.0081661,0.0070885,0.0090341,0.00034186,0.0028128,0.00096833,0,0,0.056614,-0.022485,0,0.017624,0,0,0,0.0091406,0.00023529,0.0028128,6.2803,0.0040629,0.0079369,1.6847e-08,0.14,0.06,0
0.0092832,0.0076959,0.0087681,0.00025783,0.0027078,0.00079893,0,0,0.055149,-0.022294,0,0.01454,0,0,0,0.0088424,0.00018348,0.0027078,5.3169,0.0039112,0.0077131,1.5339e-08,0.16,0.06,0
0.010372,0.0082107,0.0085345,0.00020258,0.0026211,0.00066644,0,0,0.053811,-0.022009,0,0.012129,0,0,0,0.0085874,0.00014961,0.0026211,4.5444,0.0037861,0.0075134,1.4103e-08,0.18,0.06,0
0.011436,0.0086386,0.0083309,0.00016797,0.0025497,0.00055889,0,0,0.052609,-0.021673,0,0.010172,0,0,0,0.0083689,0.00012988,0.0025497,3.8987,0.0036828,0.0073349,1.3082e-08,0.2,0.06,0
0.012476,0.0089837,0.0081539,0.00014886,0.0024908,0.00046703,0,0,0.051534,-0.021312,0,0.0085,0,0,0,0.0081811,0.00012171,0.0024908,3.3277,0.0035979,0.0071744,1.2229e-08,0.22,0.06,0
0.013497,0.0092488,0.0080007,0.00014174,0.0024427,0.00038366,0,0,0.050578,-0.020939,0,0.0069826,0,0,0,0.0080194,0.00012305,0.0024427,2.7882,0.0035284,0.0070297,1.1512e-08,0.24,0.06,0
0.0145,0.0094357,0.0078689,0.00014389,0.0024038,0.00030311,0,0,0.049732,-0.020566,0,0.0055166,0,0,0,0.0078808,0.00013202,0.0024038,2.2435,0.0034722,0.0068994,1.0908e-08,0.26,0.06,0
0.015486,0.0095453,0.007757,0.00015285,0.002373,0.0002211,0,0,0.048995,-0.020203,0,0.004024,0,0,0,0.0077634,0.00014643,0.002373,1.6641,0.0034276,0.0067836,1.0403e-08,0.28,0.06,0
0.016459,0.0095786,0.0076641,0.00016599,0.002349,0.00013467,0,0,0.048367,-0.019866,0,0.002451,0,0,0,0.0076665,0.00016357,0.002349,1.0286,0.003393,0.0066838,9.9902e-09,0.3,0.06,0
0.017421,0.0095367,0.0075898,0.00018028,0.002331,4.2377e-05,0,0,0.047855,-0.019572,0,0.00077127,0,0,0,0.00759,0.00018003,0.002331,0.32768,0.003367,0.0066027,9.6678e-09,0.32,0.06,0
0.018374,0.0094215,0.007534,0.0001923,0.0023179,-5.5523e-05,0,0,0.047466,-0.019343,0,-0.0010105,0,0,0,0.0075344,0.00019188,0.0023179,-0.43328,0.003348,0.0065438,9.4376e-09,0.34,0.06,0
0.01932,0.0092363,0.0074962,0.00019842,0.0023084,-0.00015695,0,0,0.047209,-0.019201,0,-0.0028564,0,0,0,0.0074996,0.00019505,0.0023084,-1.2314,0.0033343,0.0065104,9.3017e-09,0.36,0.06,0
0.020262,0.0089867,0.007476,0.00019502,0.0023013,-0.00025801,0,0,0.047089,-0.019167,0,-0.0046958,0,0,0,0.0074851,0.00018589,0.0023013,-2.027,0.0033241,0.0065048,9.2604e-09,0.38,0.06,0
0.021203,0.0086806,0.007472,0.00017889,0.0022953,-0.00035325,0,0,0.047108,-0.019259,0,-0.0064291,0,0,0,0.0074891,0.00016182,0.0022953,-2.7665,0.0033154,0.0065275,9.3098e-09,0.4,0.06,0
0.022146,0.0083292,0.0074828,0.00014706,0.002289,-0.00043586,0,0,0.047264,-0.019491,0,-0.0079327,0,0,0,0.0075086,0.00012125,0.002289,-3.3884,0.0033063,0.0065771,9.441e-09,0.42,0.06,0
0.023094,0.0079472,0.0075059,9.7403e-05,0.002281,-0.00049776,0,0,0.047547,-0.019871,0,-0.0090593,0,0,0,0.0075392,6.4109e-05,0.002281,-3.8267,0.0032948,0.0066498,9.6385e-09,0.44,0.06,0
0.024048,0.0075527,0.0075373,2.997e-05,0.0022702,-0.00053023,0,0,0.047931,-0.020386,0,-0.0096502,0,0,0,0.0075745,-7.2942e-06,0.0022702,-4.0201,0.0032791,0.0067382,9.8756e-09,0.46,0.06,0
0.025011,0.0071669,0.0075714,-4.9191e-05,0.0022566,-0.00052553,0,0,0.048364,-0.020983,0,-0.0095646,0,0,0,0.0076074,-8.5261e-05,0.0022566,-3.9264,0.0032596,0.0068298,1.0113e-08,0.48,0.06,0
0.025983,0.0068132,0.0076017,-0.00012638,0.0022426,-0.00048128,0,0,0.048768,-0.021558,0,-0.0087593,0,0,0,0.0076316,-0.00015623,0.0022426,-3.5499,0.0032393,0.0069082,1.0307e-08,0.5,0.06,0
0.026962,0.0065142,0.0076238,-0.00018474,0.0022317,-0.00040339,0,0,0.049068,-0.02199,0,-0.0073417,0,0,0,0.0076446,-0.00020552,0.0022317,-2.9494,0.0032236,0.0069593,1.0426e-08,0.52,0.06,0
0.027945,0.0062888,0.0076365,-0.0002154,0.0022263,-0.00030539,0,0,0.049233,-0.02222,0,-0.0055581,0,0,0,0.0076484,-0.00022725,0.0022263,-2.224,0.0032158,0.0069801,1.0471e-08,0.54,0.06,0
0.028931,0.0061506,0.0076428,-0.00022391,0.0022257,-0.00020098,0,0,0.049296,-0.022291,0,-0.0036579,0,0,0,0.0076479,-0.00022904,0.0022257,-1.4626,0.0032148,0.0069811,1.0471e-08,0.56,0.06,0
0.029917,0.0061077,0.0076477,-0.00022428,0.002227,-9.7625e-05,0,0,0.049328,-0.022307,0,-0.0017768,0,0,0,0.0076489,-0.00022549,0.002227,-0.71042,0.0032168,0.0069792,1.047e-08,0.58,0.06,0
0.030904,0.0061639,0.0076551,-0.00022772,0.0022282,5.5236e-06,0,0,0.049385,-0.022349,0,0.00010053,0,0,0,0.0076551,-0.00022772,0.0022282,0.040148,0.0032185,0.0069865,1.0499e-08,0.6,0.06,0
0.031893,0.0063205,0.0076646,-0.00023432,0.0022291,0.00011269,0,0,0.049463,-0.022417,0,0.0020509,0,0,0,0.0076662,-0.00023593,0.0022291,0.81717,0.0032198,0.0070029,1.0555e-08,0.62,0.06,0
0.032883,0.0065757,0.0076713,-0.00023295,0.0022315,0.0002248,0,0,0.049502,-0.022426,0,0.0040913,0,0,0,0.0076777,-0.00023934,0.0022315,1.6278,0.0032233,0.0070159,1.0606e-08,0.64,0.06,0
0.033873,0.0069238,0.0076689,-0.00020941,0.0022378,0.00033449,0,0,0.049423,-0.02227,0,0.0060877,0,0,0,0.0076831,-0.00022359,0.0022378,2.4268,0.0032324,0.007008,1.0607e-08,0.66,0.06,0
0.03486,0.0073533,0.0076536,-0.00015776,0.0022487,0.00042795,0,0,0.049184,-0.021899,0,0.0077887,0,0,0,0.007677,-0.00018114,0.0022487,3.1265,0.0032482,0.0069685,1.0525e-08,0.68,0.06,0
0.03584,0.0078473,0.0076252,-8.6474e-05,0.0022616,0.00049133,0,0,0.048808,-0.021368,0,0.0089423,0,0,0,0.0076563,-0.00011765,0.0022616,3.6309,0.0032668,0.0068992,1.0354e-08,0.7,0.06,0
0.036812,0.0083851,0.0075873,-1.2184e-05,0.0022725,0.00051826,0,0,0.048364,-0.020791,0,0.0094323,0,0,0,0.0076224,-4.7364e-05,0.0022725,3.8834,0.0032825,0.0068128,1.012e-08,0.72,0.06,0
0.037775,0.008945,0.0075454,5.1428e-05,0.002279,0.00051054,0,0,0.047924,-0.020271,0,0.0092917,0,0,0,0.00758,1.6808e-05,0.002279,3.8795,0.003292,0.0067238,9.8632e-09,0.74,0.06,0
0.038729,0.0095071,0.0075044,9.816e-05,0.0022808,0.00047541,0,0,0.047535,-0.019862,0,0.0086524,0,0,0,0.0075348,6.7769e-05,0.0022808,3.6578,0.0032944,0.006643,9.6164e-09,0.76,0.06,0
0.039676,0.010054,0.0074676,0.00012764,0.0022786,0.00042122,0,0,0.04722,-0.019574,0,0.0076661,0,0,0,0.0074917,0.00010355,0.0022786,3.2737,0.0032913,0.0065762,9.4019e-09,0.78,0.06,0
0.040618,0.010573,0.0074368,0.00014151,0.0022735,0.00035592,0,0,0.046986,-0.019401,0,0.0064777,0,0,0,0.0074541,0.00012419,0.0022735,2.7865,0.0032839,0.0065264,9.2317e-09,0.8,0.06,0
0.041555,0.011054,0.007413,0.00014215,0.0022665,0.00028645,0,0,0.046833,-0.019332,0,0.0052134,0,0,0,0.0074243,0.00013088,0.0022665,2.2526,0.0032739,0.0064945,9.1112e-09,0.82,0.06,0
0.042491,0.011488,0.0073965,0.00013221,0.0022586,0.00021876,0,0,0.046755,-0.01935,0,0.0039815,0,0,0,0.0074031,0.00012562,0.0022586,1.7234,0.0032624,0.0064798,9.0402e-09,0.84,0.06,0
0.043426,0.011872,0.007387,0.00011475,0.0022505,0.00015752,0,0,0.046742,-0.019435,0,0.0028669,0,0,0,0.0073904,0.00011134,0.0022505,1.2403,0.0032507,0.0064799,9.013e-09,0.86,0.06,0
0.044361,0.012203,0.0073834,9.2971e-05,0.0022429,0.00010587,0,0,0.046778,-0.019564,0,0.0019268,0,0,0,0.0073849,9.1434e-05,0.0022429,0.83181,0.0032398,0.0064909,9.0201e-09,0.88,0.06,0
0.045297,0.01248,0.0073843,6.9865e-05,0.0022362,6.5381e-05,0,0,0.046847,-0.019714,0,0.0011899,0,0,0,0.0073849,6.928e-05,0.0022362,0.51209,0.0032301,0.0065085,9.05e-09,0.9,0.06,0
0.046234,0.012705,0.007388,4.7957e-05,0.0022308,3.6177e-05,0,0,0.046931,-0.019864,0,0.00065841,0,0,0,0.0073882,4.7779e-05,0.0022308,0.28238,0.0032222,0.0065286,9.0911e-09,0.92,0.06,0
0.047174,0.012878,0.0073928,2.9192e-05,0.0022266,1.7212e-05,0,0,0.047012,-0.019996,0,0.00031326,0,0,0,0.0073929,2.9152e-05,0.0022266,0.13392,0.0032162,0.0065476,9.1335e-09,0.94,0.06,0
0.048115,0.013001,0.0073973,1.4937e-05,0.0022237,6.5794e-06,0,0,0.04708,-0.0201,0,0.00011975,0,0,0,0.0073973,1.4932e-05,0.0022237,0.051064,0.003212,0.006563,9.1692e-09,0.96,0.06,0
0.049057,0.013074,0.0074005,6.0684e-06,0.002222,1.7887e-06,0,0,0.047125,-0.020165,0,3.2555e-05,0,0,0,0.0074005,6.068e-06,0.002222,0.01386,0.0032095,0.0065729,9.1928e-09,0.98,0.06,0
0.05,0.013098,0.0074016,3.0619e-06,0.0022214,6.6552e-05,0,0,0.04714,-0.020187,0,0.0012112,0,0,0,0.0074022,2.4633e-06,0.0022214,0.51533,0.0032087,0.0065773,9.2041e-09,1,0.06,0
0,0,0.0097244,0.0041676,0.0041676,0.0029287,0,0,0.050567,-4.3368e-19,0,0.053302,0,0,0,0.010983,0.0029091,0.0041676,23.254,0.0060199,0.0075239,1.9828e-08,0,0.08,0
0.0010113,0.001066,0.0096528,0.0034198,0.0039218,0.0028657,0,0,0.052152,-0.0045682,0,0.052156,0,0,0,0.01077,0.0023025,0.0039218,21.299,0.0056648,0.0077853,2.0745e-08,0.02,0.08,0
0.0020861,0.0021639,0.0097825,0.0026045,0.0037161,0.0027279,0,0,0.055204,-0.010115,0,0.049648,0,0,0,0.010701,0.0016855,0.0037161,18.619,0.0053677,0.0081917,2.2491e-08,0.04,0.08,0
0.0032195,0.003236,0.0098435,0.0018781,0.0035165,0.0024385,0,0,0.057576,-0.014909,0,0.044382,0,0,0,0.010531,0.0011909,0.0035165,15.739,0.0050793,0.0084214,2.2971e-08,0.06,0.08,0
0.0043891,0.0042357,0.0098038,0.0013391,0.0033429,0.0020836,0,0,0.058794,-0.018234,0,0.037922,0,0,0,0.010289,0.00085402,0.0033429,13.106,0.0048286,0.0084693,2.2356e-08,0.08,0.08,0
0.0055713,0.0051392,0.0096743,0.00096847,0.0031928,0.001744,0,0,0.058981,-0.020242,0,0.03174,0,0,0,0.010011,0.0006321,0.0031928,10.917,0.0046118,0.0083963,2.114e-08,0.1,0.08,0
0.0067484,0.0059406,0.0094879,0.00071118,0.0030597,0.0014528,0,0,0.058496,-0.021372,0,0.02644,0,0,0,0.0097221,0.00047696,0.0030597,9.1586,0.0044196,0.0082623,1.9712e-08,0.12,0.08,0
0.0079111,0.0066422,0.0092819,0.00053277,0.0029444,0.0012149,0,0,0.057671,-0.021946,0,0.022111,0,0,0,0.0094475,0.0003672,0.0029444,7.7604,0.004253,0.008105,1.8315e-08,0.14,0.08,0
0.0090552,0.0072493,0.0090769,0.00040941,0.0028459,0.001023,0,0,0.056702,-0.022172,0,0.018619,0,0,0,0.009196,0.0002903,0.0028459,6.6411,0.0041107,0.0079425,1.7038e-08,0.16,0.08,0
0.010179,0.0077671,0.0088828,0.00032577,0.0027626,0.00086724,0,0,0.055694,-0.022175,0,0.015784,0,0,0,0.0089698,0.00023876,0.0027626,5.7292,0.0039904,0.0077824,1.5903e-08,0.18,0.08,0
0.011283,0.0082001,0.0087034,0.00027177,0.0026926,0.00073778,0,0,0.054699,-0.022029,0,0.013428,0,0,0,0.0087675,0.0002077,0.0026926,4.9632,0.0038892,0.0076272,1.4901e-08,0.2,0.08,0
0.012367,0.0085515,0.0085392,0.00024069,0.002634,0.00062611,0,0,0.053738,-0.021779,0,0.011395,0,0,0,0.0085862,0.00019372,0.002634,4.2905,0.0038046,0.0074772,1.4014e-08,0.22,0.08,0
0.013432,0.0088237,0.0083894,0.00022772,0.0025851,0.00052494,0,0,0.052819,-0.021452,0,0.009554,0,0,0,0.008423,0.0001941,0.0025851,3.665,0.0037341,0.0073319,1.3223e-08,0.24,0.08,0
0.01448,0.0090183,0.0082528,0.00022903,0.0025445,0.00042821,0,0,0.051945,-0.021071,0,0.0077935,0,0,0,0.0082756,0.00020624,0.0025445,3.0462,0.0036754,0.0071912,1.2514e-08,0.26,0.08,0
0.01551,0.0091358,0.0081282,0.00024098,0.0025107,0.00033107,0,0,0.051119,-0.020655,0,0.0060254,0,0,0,0.0081421,0.0002271,0.0025107,2.3994,0.0036266,0.007056,1.1877e-08,0.28,0.08,0
0.016525,0.0091768,0.0080148,0.00025959,0.0024823,0.00023003,0,0,0.050345,-0.020227,0,0.0041866,0,0,0,0.0080216,0.00025277,0.0024823,1.6975,0.0035855,0.0069285,1.1309e-08,0.3,0.08,0
0.017524,0.009142,0.007912,0.00028018,0.0024577,0.00012327,0,0,0.049634,-0.019815,0,0.0022435,0,0,0,0.007914,0.00027819,0.0024577,0.92513,0.0035499,0.0068127,1.0813e-08,0.32,0.08,0
0.01851,0.0090328,0.0078195,0.00029734,0.002435,1.0962e-05,0,0,0.048998,-0.019453,0,0.00019951,0,0,0,0.0078195,0.00029732,0.002435,0.083498,0.0035173,0.0067136,1.0395e-08,0.34,0.08,0
0.019484,0.0088519,0.0077367,0.00030524,0.0024126,-0.00010448,0,0,0.04845,-0.019177,0,-0.0019016,0,0,0,0.0077382,0.00030377,0.0024126,-0.80535,0.0034848,0.0066362,1.0059e-08,0.36,0.08,0
0.020448,0.0086043,0.0076628,0.00029842,0.0023884,-0.00021851,0,0,0.047997,-0.019019,0,-0.0039769,0,0,0,0.0076692,0.00029194,0.0023884,-1.6981,0.0034498,0.0065844,9.8068e-09,0.38,0.08,0
0.021404,0.0082976,0.0075963,0.0002723,0.0023606,-0.00032505,0,0,0.047645,-0.019003,0,-0.0059159,0,0,0,0.0076107,0.00025791,0.0023606,-2.5362,0.0034097,0.0065592,9.6316e-09,0.4,0.08,0
0.022354,0.0079426,0.0075364,0.00022393,0.0023281,-0.00041705,0,0,0.047396,-0.019148,0,-0.0075903,0,0,0,0.0075601,0.00020023,0.0023281,-3.2537,0.0033628,0.0065601,9.5234e-09,0.42,0.08,0
0.0233,0.0075536,0.0074822,0.00014971,0.0022896,-0.00048697,0,0,0.047253,-0.019473,0,-0.0088628,0,0,0,0.0075144,0.00011752,0.0022896,-3.783,0.0033072,0.0065852,9.4682e-09,0.44,0.08,0
0.024244,0.0071489,0.0074326,4.8228e-05,0.0022443,-0.00052481,0,0,0.047214,-0.019984,0,-0.0095516,0,0,0,0.0074697,1.1115e-05,0.0022443,-4.045,0.0032417,0.0066303,9.4463e-09,0.46,0.08,0
0.025188,0.0067509,0.0073833,-7.5438e-05,0.0021924,-0.0005206,0,0,0.047237,-0.020637,0,-0.0094749,0,0,0,0.0074194,-0.0001116,0.0021924,-3.9734,0.0031667,0.0066838,9.419e-09,0.48,0.08,0
0.026133,0.0063854,0.0073297,-0.00019781,0.0021396,-0.0004683,0,0,0.04723,-0.02127,0,-0.0085231,0,0,0,0.0073587,-0.00022683,0.0021396,-3.5463,0.0030905,0.0067223,9.3353e-09,0.5,0.08,0
0.027078,0.0060781,0.0072702,-0.00028436,0.0020958,-0.00037807,0,0,0.047088,-0.021659,0,-0.0068809,0,0,0,0.0072891,-0.00030323,0.0020958,-2.8579,0.0030272,0.006722,9.167e-09,0.52,0.08,0
0.028017,0.0058494,0.0072093,-0.00031742,0.0020676,-0.00027225,0,0,0.046789,-0.021703,0,-0.0049549,0,0,0,0.0072191,-0.00032725,0.0020676,-2.0688,0.0029865,0.0066791,8.9363e-09,0.54,0.08,0
0.028949,0.0057115,0.0071574,-0.0003118,0.0020537,-0.00017412,0,0,0.046444,-0.021526,0,-0.0031689,0,0,0,0.0071614,-0.00031586,0.0020537,-1.3347,0.0029664,0.0066187,8.7139e-09,0.56,0.08,0
0.029875,0.0056694,0.007128,-0.00030027,0.0020483,-9.0635e-05,0,0,0.046225,-0.021372,0,-0.0016496,0,0,0,0.0071291,-0.00030138,0.0020483,-0.69894,0.0029587,0.0065783,8.5819e-09,0.58,0.08,0
0.030798,0.0057248,0.0071318,-0.00030569,0.0020478,-1.3032e-05,0,0,0.046264,-0.021417,0,-0.00023718,0,0,0,0.0071318,-0.00030571,0.0020478,-0.10039,0.002958,0.0065841,8.5962e-09,0.6,0.08,0
0.031725,0.0058788,0.0071682,-0.00032832,0.002052,7.4999e-05,0,0,0.046558,-0.021661,0,0.001365,0,0,0,0.007169,-0.00032907,0.002052,0.57314,0.002964,0.006636,8.7561e-09,0.62,0.08,0
0.03266,0.0061321,0.0072261,-0.00034555,0.0020642,0.0001825,0,0,0.046974,-0.021928,0,0.0033216,0,0,0,0.0072305,-0.00034995,0.0020642,1.38,0.0029816,0.0067075,9.0041e-09,0.64,0.08,0
0.033604,0.0064819,0.007291,-0.00032428,0.00209,0.00030283,0,0,0.047329,-0.02197,0,0.0055115,0,0,0,0.007303,-0.00033631,0.00209,2.2736,0.0030189,0.006761,9.2578e-09,0.66,0.08,0
0.034554,0.0069184,0.0073511,-0.00024888,0.0021307,0.00041266,0,0,0.047506,-0.021654,0,0.0075105,0,0,0,0.0073735,-0.00027122,0.0021307,3.0989,0.0030776,0.0067712,9.4458e-09,0.68,0.08,0
0.035504,0.0074234,0.0074012,-0.00013627,0.0021795,0.00048925,0,0,0.047518,-0.021073,0,0.0089043,0,0,0,0.0074329,-0.0001679,0.0021795,3.6983,0.0031482,0.0067409,9.5427e-09,0.7,0.08,0
0.036454,0.007973,0.0074417,-2.0673e-05,0.0022263,0.00052176,0,0,0.04746,-0.020448,0,0.009496,0,0,0,0.007478,-5.6977e-05,0.0022263,3.9802,0.0032158,0.0066922,9.5701e-09,0.72,0.08,0
0.037403,0.0085432,0.0074763,7.4427e-05,0.0022652,0.00051551,0,0,0.047421,-0.019936,0,0.0093822,0,0,0,0.0075121,3.8696e-05,0.0022652,3.9649,0.003272,0.006646,9.5699e-09,0.74,0.08,0
0.038351,0.0091129,0.0075088,0.0001437,0.0022957,0.00047984,0,0,0.047439,-0.019584,0,0.0087331,0,0,0,0.0075399,0.00011257,0.0022957,3.712,0.0033161,0.0066118,9.5726e-09,0.76,0.08,0
0.0393,0.009665,0.0075395,0.00018805,0.0023183,0.00042427,0,0,0.047513,-0.019385,0,0.0077216,0,0,0,0.0075639,0.00016365,0.0023183,3.2921,0.0033486,0.0065925,9.5912e-09,0.78,0.08,0
0.040252,0.010186,0.0075691,0.00021024,0.0023338,0.00035615,0,0,0.047641,-0.019324,0,0.006482,0,0,0,0.0075863,0.00019305,0.0023338,2.7644,0.0033711,0.0065891,9.6343e-09,0.8,0.08,0
0.041206,0.010666,0.0075978,0.00021227,0.002343,0.00028277,0,0,0.047818,-0.01939,0,0.0051464,0,0,0,0.0076086,0.00020147,0.002343,2.1894,0.0033844,0.0066022,9.7079e-09,0.82,0.08,0
0.042164,0.011099,0.0076264,0.00019773,0.0023472,0.00021085,0,0,0.04804,-0.01956,0,0.0038375,0,0,0,0.0076324,0.00019175,0.0023472,1.6245,0.0033905,0.006631,9.8145e-09,0.84,0.08,0
0.043128,0.011479,0.0076549,0.00017123,0.0023478,0.00014604,0,0,0.048294,-0.019807,0,0.002658,0,0,0,0.0076577,0.00016838,0.0023478,1.1175,0.0033913,0.0066722,9.9486e-09,0.86,0.08,0
0.044096,0.011806,0.0076827,0.00013787,0.0023462,9.2136e-05,0,0,0.048563,-0.020096,0,0.0016769,0,0,0,0.0076839,0.00013675,0.0023462,0.69955,0.0033889,0.0067205,1.0099e-08,0.88,0.08,0
0.04507,0.012079,0.0077088,0.00010244,0.0023434,5.0981e-05,0,0,0.048826,-0.020393,0,0.00092785,0,0,0,0.0077092,0.0001021,0.0023434,0.38399,0.0033849,0.0067706,1.0251e-08,0.9,0.08,0
0.046049,0.0123,0.0077319,6.8905e-05,0.0023403,2.2658e-05,0,0,0.049064,-0.020669,0,0.00041238,0,0,0,0.007732,6.8838e-05,0.0023403,0.16941,0.0033804,0.0068174,1.0393e-08,0.92,0.08,0
0.047033,0.012469,0.007751,4.0245e-05,0.0023374,5.8975e-06,0,0,0.049264,-0.020904,0,0.00010733,0,0,0,0.007751,4.0241e-05,0.0023374,0.043822,0.0033762,0.0068572,1.0512e-08,0.94,0.08,0
0.04802,0.012589,0.0077652,1.8518e-05,0.0023351,-1.5225e-06,0,0,0.049414,-0.021081,0,-2.771e-05,0,0,0,0.0077652,1.8518e-05,0.0023351,-0.011261,0.003373,0.0068871,1.0602e-08,0.96,0.08,0
0.049009,0.01266,0.007774,5.0188e-06,0.0023337,-2.4292e-06,0,0,0.049507,-0.021191,0,-4.4211e-05,0,0,0,0.007774,5.0181e-06,0.0023337,-0.017915,0.0033709,0.0069057,1.0658e-08,0.98,0.08,0
0.05,0.012684,0.0077769,4.4588e-07,0.0023332,6.4939e-05,0,0,0.049538,-0.021228,0,0.0011819,0,0,0,0.0077775,-9.637e-08,0.0023332,0.47842,0.0033702,0.0069128,1.068e-08,1,0.08,0
0,0,0.0094682,0.0040578,0.0040578,0.002709,0,0,0.049235,-2.1684e-19,0,0.049304,0,0,0,0.010592,0.0029346,0.0040578,22.52,0.0058613,0.0071617,1.7311e-08,0,0.1,0
0.0009847,0.00098609,0.0094196,0.0034553,0.0038625,0.002675,0,0,0.05057,-0.0037054,0,0.048685,0,0,0,0.010444,0.0024313,0.0038625,20.946,0.0055791,0.0074012,1.8226e-08,0.02,0.1,0
0.0020228,0.0019867,0.0095637,0.0028185,0.0037146,0.0025925,0,0,0.053226,-0.0081553,0,0.047184,0,0,0,0.010445,0.0019372,0.0037146,18.775,0.0053656,0.007773,1.9934e-08,0.04,0.1,0
0.0031138,0.0029681,0.0096667,0.0021938,0.0035581,0.0024049,0,0,0.055588,-0.012416,0,0.043769,0,0,0,0.010374,0.0014867,0.0035581,16.383,0.0051395,0.0080537,2.0964e-08,0.06,0.1,0
0.0042463,0.0038979,0.0097046,0.0016674,0.0034116,0.0021505,0,0,0.057266,-0.015872,0,0.039138,0,0,0,0.010244,0.0011282,0.0034116,14.076,0.0049279,0.0082154,2.1235e-08,0.08,0.1,0
0.0054044,0.0047542,0.0096723,0.0012602,0.0032797,0.0018771,0,0,0.058172,-0.018378,0,0.034163,0,0,0,0.010072,0.0008603,0.0032797,12.025,0.0047374,0.0082719,2.0904e-08,0.1,0.1,0
0.0065732,0.0055261,0.0095837,0.00095762,0.0031624,0.0016193,0,0,0.058434,-0.020064,0,0.029471,0,0,0,0.0098777,0.00066366,0.0031624,10.289,0.0045679,0.0082534,2.0203e-08,0.12,0.1,0
0.0077418,0.0062107,0.0094592,0.00073632,0.0030587,0.0013923,0,0,0.058245,-0.021133,0,0.02534,0,0,0,0.0096761,0.00051947,0.0030587,8.8524,0.0044181,0.0081878,1.9321e-08,0.14,0.1,0
0.008903,0.006809,0.0093169,0.00057707,0.0029682,0.0011989,0,0,0.057773,-0.021759,0,0.02182,0,0,0,0.0094784,0.0004156,0.0029682,7.6708,0.0042874,0.0080942,1.8384e-08,0.16,0.1,0
0.010053,0.0073237,0.0091687,0.00046544,0.0028902,0.0010355,0,0,0.057134,-0.022066,0,0.018845,0,0,0,0.0092902,0.00034394,0.0028902,6.6923,0.0041748,0.0079837,1.7454e-08,0.18,0.1,0
0.011188,0.0077574,0.009021,0.00039107,0.0028236,0.00089614,0,0,0.056396,-0.022136,0,0.01631,0,0,0,0.0091131,0.000299,0.0028236,5.8662,0.0040786,0.0078619,1.6557e-08,0.2,0.1,0
0.012309,0.0081126,0.008877,0.00034654,0.0027671,0.00077439,0,0,0.0556,-0.022027,0,0.014094,0,0,0,0.0089467,0.00027681,0.0027671,5.1452,0.0039969,0.0077317,1.5702e-08,0.22,0.1,0
0.013412,0.0083907,0.0087376,0.00032625,0.0027192,0.00066393,0,0,0.054768,-0.021775,0,0.012083,0,0,0,0.0087896,0.00027417,0.0027192,4.4855,0.0039277,0.0075942,1.4884e-08,0.24,0.1,0
0.014499,0.0085928,0.0086024,0.00032553,0.0026784,0.00055897,0,0,0.053909,-0.021411,0,0.010173,0,0,0,0.00864,0.00028795,0.0026784,3.8461,0.0038688,0.0074503,1.4102e-08,0.26,0.1,0
0.015569,0.0087191,0.008471,0.00033975,0.0026432,0.00045457,0,0,0.053033,-0.020962,0,0.0082732,0,0,0,0.0084963,0.00031441,0.0026432,3.1898,0.003818,0.0073016,1.3351e-08,0.28,0.1,0
0.016621,0.0087695,0.0083427,0.00036364,0.0026119,0.00034687,0,0,0.05215,-0.020459,0,0.0063129,0,0,0,0.0083577,0.00034859,0.0026119,2.4845,0.0037727,0.0071513,1.2636e-08,0.3,0.1,0
0.017655,0.0087441,0.0082171,0.00039075,0.0025823,0.00023361,0,0,0.051276,-0.019943,0,0.0042518,0,0,0,0.008224,0.00038378,0.0025823,1.7082,0.00373,0.0070047,1.1967e-08,0.32,0.1,0
0.018672,0.0086433,0.0080941,0.00041319,0.0025522,0.00011481,0,0,0.050431,-0.019465,0,0.0020895,0,0,0,0.0080958,0.00041147,0.0025522,0.85614,0.0036865,0.0068689,1.1357e-08,0.34,0.1,0
0.019672,0.0084692,0.0079733,0.00042234,0.0025187,-6.7543e-06,0,0,0.049637,-0.019077,0,-0.00012293,0,0,0,0.0079733,0.00042233,0.0025187,-0.051251,0.0036381,0.0067515,1.082e-08,0.36,0.1,0
0.020657,0.0082259,0.0078532,0.00040996,0.002479,-0.00012551,0,0,0.048906,-0.018828,0,-0.0022843,0,0,0,0.0078554,0.00040785,0.002479,-0.96576,0.0035807,0.0066581,1.0361e-08,0.38,0.1,0
0.021628,0.0079205,0.0077316,0.0003706,0.0024306,-0.00023393,0,0,0.048238,-0.018746,0,-0.0042575,0,0,0,0.007739,0.00036317,0.0024306,-1.8184,0.0035109,0.00659,9.9687e-09,0.4,0.1,0
0.022587,0.0075633,0.0076045,0.00030106,0.0023717,-0.00032506,0,0,0.047619,-0.018843,0,-0.005916,0,0,0,0.0076189,0.00028663,0.0023717,-2.5434,0.0034257,0.0065438,9.6201e-09,0.42,0.1,0
0.023533,0.0071683,0.007474,0.00020327,0.0023032,-0.00039254,0,0,0.047055,-0.019109,0,-0.0071442,0,0,0,0.0074952,0.00018214,0.0023032,-3.0814,0.0033268,0.0065167,9.3036e-09,0.44,0.1,0
0.024469,0.0067533,0.0073388,6.7912e-05,0.002222,-0.00043126,0,0,0.046563,-0.019602,0,-0.0078489,0,0,0,0.0073643,4.2423e-05,0.002222,-3.3826,0.0032096,0.0065117,9.0103e-09,0.46,0.1,0
0.025396,0.0063414,0.0071991,-0.00010459,0.0021284,-0.00042471,0,0,0.046144,-0.02032,0,-0.0077298,0,0,0,0.0072237,-0.0001292,0.0021284,-3.3169,0.0030743,0.006524,8.7183e-09,0.48,0.1,0
0.026315,0.0059624,0.0070475,-0.00028632,0.0020284,-0.0003644,0,0,0.045674,-0.021063,0,-0.0066321,0,0,0,0.0070656,-0.00030438,0.0020284,-2.8376,0.0029298,0.0065242,8.3607e-09,0.5,0.1,0
0.027223,0.0056478,0.0068889,-0.00040218,0.001946,-0.00025829,0,0,0.04498,-0.021369,0,-0.0047009,0,0,0,0.0068981,-0.00041132,0.001946,-2.0263,0.0028109,0.0064617,7.8978e-09,0.52,0.1,0
0.028114,0.0054207,0.0067376,-0.0004124,0.0018976,-0.00015387,0,0,0.044045,-0.021021,0,-0.0028004,0,0,0,0.0067409,-0.00041571,0.0018976,-1.2322,0.0027409,0.0063256,7.3835e-09,0.54,0.1,0
0.028984,0.0052896,0.0066101,-0.00036504,0.0018735,-8.5585e-05,0,0,0.043103,-0.020371,0,-0.0015577,0,0,0,0.0066111,-0.00036609,0.0018735,-0.70288,0.0027062,0.0061702,6.9264e-09,0.56,0.1,0
0.029838,0.0052528,0.0065367,-0.0003241,0.0018638,-5.9599e-05,0,0,0.042524,-0.01991,0,-0.0010847,0,0,0,0.0065372,-0.00032462,0.0018638,-0.49767,0.0026921,0.0060711,6.6623e-09,0.58,0.1,0
0.030685,0.0053073,0.0065375,-0.00033168,0.0018617,-4.8754e-05,0,0,0.042549,-0.01996,0,-0.00088732,0,0,0,0.0065379,-0.00033202,0.0018617,-0.40663,0.0026892,0.0060776,6.671e-09,0.6,0.1,0
0.03154,0.0054541,0.0066123,-0.00038839,0.0018672,-1.7892e-05,0,0,0.04318,-0.020525,0,-0.00032564,0,0,0,0.0066123,-0.00038843,0.0018672,-0.14644,0.002697,0.0061893,6.9509e-09,0.62,0.1,0
0.032412,0.0056986,0.0067405,-0.00045287,0.0018863,6.0803e-05,0,0,0.044173,-0.021286,0,0.0011066,0,0,0,0.006741,-0.00045338,0.0018863,0.48425,0.0027246,0.0063562,7.4196e-09,0.64,0.1,0
0.033307,0.006045,0.006891,-0.00046056,0.0019291,0.00018196,0,0,0.045153,-0.021746,0,0.0033116,0,0,0,0.0068955,-0.00046506,0.0019291,1.4169,0.0027865,0.0065029,7.9428e-09,0.66,0.1,0
0.034218,0.0064871,0.0070461,-0.00036166,0.0020053,0.00031131,0,0,0.045871,-0.02154,0,0.0056658,0,0,0,0.0070592,-0.00037472,0.0020053,2.4022,0.0028966,0.0065753,8.4149e-09,0.68,0.1,0
0.035142,0.0070044,0.0071904,-0.00019448,0.0020988,0.00040069,0,0,0.046334,-0.020869,0,0.0072926,0,0,0,0.0072121,-0.00021616,0.0020988,3.0967,0.0030316,0.0065835,8.7813e-09,0.7,0.1,0
0.036072,0.0075672,0.0073179,-3.4003e-05,0.0021852,0.00044115,0,0,0.046708,-0.020195,0,0.0080289,0,0,0,0.0073443,-6.038e-05,0.0021852,3.4217,0.0031564,0.006576,9.0715e-09,0.72,0.1,0
0.03701,0.0081475,0.0074352,9.1741e-05,0.0022581,0.00044032,0,0,0.047112,-0.019714,0,0.0080139,0,0,0,0.0074615,6.5434e-05,0.0022581,3.4192,0.0032617,0.0065797,9.341e-09,0.74,0.1,0
0.037956,0.0087238,0.0075416,0.0001821,0.0023171,0.0004139,0,0,0.047543,-0.019429,0,0.007533,0,0,0,0.0075648,0.0001589,0.0023171,3.2089,0.0033469,0.0065971,9.6015e-09,0.76,0.1,0
0.038912,0.009279,0.007638,0.00024564,0.0023651,0.00036636,0,0,0.047984,-0.019287,0,0.0066677,0,0,0,0.0076561,0.00022752,0.0023651,2.8303,0.0034163,0.0066238,9.8537e-09,0.78,0.1,0
0.039876,0.0098003,0.0077224,0.00027913,0.0024005,0.00030376,0,0,0.048429,-0.019304,0,0.0055284,0,0,0,0.0077347,0.00026675,0.0024005,2.3331,0.0034673,0.0066625,1.0103e-08,0.8,0.1,0
0.040849,0.010278,0.0077981,0.00028421,0.0024247,0.00023337,0,0,0.048898,-0.019478,0,0.0042473,0,0,0,0.0078053,0.00027697,0.0024247,1.7772,0.0035023,0.0067171,1.037e-08,0.82,0.1,0
0.041832,0.010705,0.0078672,0.00026487,0.0024396,0.00016361,0,0,0.049391,-0.01979,0,0.0029777,0,0,0,0.0078707,0.00026135,0.0024396,1.2323,0.0035239,0.0067876,1.0662e-08,0.84,0.1,0
0.042825,0.011079,0.0079306,0.00022808,0.0024476,0.00010142,0,0,0.049895,-0.020198,0,0.0018458,0,0,0,0.0079319,0.00022674,0.0024476,0.75423,0.0035354,0.0068695,1.0972e-08,0.86,0.1,0
0.043827,0.011399,0.0079878,0.00018151,0.0024508,5.133e-05,0,0,0.050387,-0.02065,0,0.00093421,0,0,0,0.0079881,0.00018117,0.0024508,0.37673,0.00354,0.0069556,1.1284e-08,0.88,0.1,0
0.04484,0.011665,0.0080378,0.00013222,0.002451,1.528e-05,0,0,0.05084,-0.021101,0,0.0002781,0,0,0,0.0080378,0.00013219,0.002451,0.11074,0.0035403,0.0070388,1.1577e-08,0.9,0.1,0
0.045861,0.011878,0.0080796,8.5809e-05,0.0024496,-6.8764e-06,0,0,0.051233,-0.021511,0,-0.00012515,0,0,0,0.0080796,8.5803e-05,0.0024496,-0.049286,0.0035384,0.0071129,1.1836e-08,0.92,0.1,0
0.046889,0.012042,0.0081126,4.6343e-05,0.0024477,-1.6737e-05,0,0,0.05155,-0.021852,0,-0.00030461,0,0,0,0.0081126,4.6308e-05,0.0024477,-0.11888,0.0035355,0.0071737,1.2046e-08,0.94,0.1,0
0.047923,0.012157,0.0081362,1.6536e-05,0.0024458,-1.6807e-05,0,0,0.051783,-0.022107,0,-0.00030589,0,0,0,0.0081362,1.6501e-05,0.0024458,-0.1186,0.0035329,0.0072185,1.22e-08,0.96,0.1,0
0.048961,0.012226,0.0081504,-1.9382e-06,0.0024446,-1.0123e-05,0,0,0.051924,-0.022263,0,-0.00018423,0,0,0,0.0081505,-1.9507e-06,0.0024446,-0.071142,0.003531,0.0072458,1.2294e-08,0.98,0.1,0
0.05,0.012249,0.0081552,-8.1887e-06,0.0024441,6.2466e-05,0,0,0.051971,-0.022316,0,0.0011369,0,0,0,0.0081557,-8.6666e-06,0.0024441,0.43839,0.0035304,0.0072558,1.2329e-08,1,0.1,0
0,0,0.009347,0.0040059,0.0040059,0.0025215,0,0,0.048605,2.1684e-19,0,0.045891,0,0,0,0.010349,0.0030036,0.0040059,21.678,0.0057863,0.0068994,1.5674e-08,0,0.12,0
0.00097209,0.00091782,0.0093061,0.0034772,0.003835,0.0025013,0,0,0.049787,-0.0032558,0,0.045523,0,0,0,0.010232,0.002551,0.003835,20.319,0.0055394,0.0071265,1.6573e-08,0.02,0.12,0
0.0019915,0.0018377,0.0094535,0.0029471,0.0037202,0.0024427,0,0,0.052173,-0.0070346,0,0.044458,0,0,0,0.010268,0.0021321,0.0037202,18.451,0.0053736,0.00747,1.819e-08,0.04,0.12,0
0.003059,0.0027394,0.0095758,0.0024072,0.0035949,0.0023148,0,0,0.054426,-0.010808,0,0.042129,0,0,0,0.010258,0.0017247,0.0035949,16.427,0.0051926,0.0077692,1.9461e-08,0.06,0.12,0
0.0041685,0.0036008,0.0096547,0.0019178,0.0034718,0.0021314,0,0,0.056265,-0.014141,0,0.038792,0,0,0,0.010203,0.0013695,0.0034718,14.427,0.0050148,0.0079925,2.0234e-08,0.08,0.12,0
0.0053096,0.0044041,0.0096818,0.0015087,0.0033572,0.0019199,0,0,0.057555,-0.016821,0,0.034942,0,0,0,0.01011,0.0010802,0.0033572,12.582,0.0048492,0.0081343,2.0514e-08,0.1,0.12,0
0.0064707,0.005138,0.0096604,0.0011835,0.0032531,0.0017053,0,0,0.058306,-0.018834,0,0.031036,0,0,0,0.0099905,0.0008533,0.0032531,10.958,0.004699,0.0082049,2.04e-08,0.12,0.12,0
0.0076418,0.0057969,0.0096006,0.0009333,0.0031602,0.0015041,0,0,0.058608,-0.020265,0,0.027374,0,0,0,0.0098542,0.0006797,0.0031602,9.5703,0.0045647,0.0082199,2.0012e-08,0.14,0.12,0
0.008815,0.006379,0.0095144,0.00074579,0.0030781,0.0013238,0,0,0.05857,-0.021223,0,0.024094,0,0,0,0.0097099,0.00055029,0.0030781,8.4008,0.0044461,0.0081936,1.9451e-08,0.16,0.12,0
0.0099846,0.0068845,0.0094115,0.00060981,0.0030064,0.0011657,0,0,0.058287,-0.021809,0,0.021217,0,0,0,0.0095633,0.00045802,0.0030064,7.4182,0.0043426,0.0081362,1.8789e-08,0.18,0.12,0
0.011147,0.0073146,0.0092989,0.00051627,0.0029445,0.0010276,0,0,0.057824,-0.022097,0,0.018702,0,0,0,0.0094175,0.00039764,0.0029445,6.5853,0.0042532,0.0080543,1.8067e-08,0.2,0.12,0
0.012298,0.0076704,0.0091802,0.0004581,0.0028915,0.0009053,0,0,0.057227,-0.022144,0,0.016477,0,0,0,0.0092731,0.00036512,0.0028915,5.8637,0.0041766,0.0079518,1.7309e-08,0.22,0.12,0
0.013436,0.0079527,0.0090571,0.00042961,0.002846,0.00079411,0,0,0.056521,-0.021989,0,0.014453,0,0,0,0.0091296,0.00035712,0.002846,5.2153,0.0041109,0.0078306,1.6523e-08,0.24,0.12,0
0.014559,0.0081618,0.0089301,0.00042576,0.0028068,0.00068905,0,0,0.055723,-0.021667,0,0.012541,0,0,0,0.0089856,0.0003703,0.0028068,4.6023,0.0040542,0.0076921,1.5713e-08,0.26,0.12,0
0.015665,0.0082973,0.0087987,0.00044139,0.002772,0.00058536,0,0,0.054843,-0.021209,0,0.010653,0,0,0,0.0088395,0.00040059,0.002772,3.9871,0.0040041,0.0075384,1.4885e-08,0.28,0.12,0
0.016752,0.0083584,0.0086626,0.00047027,0.0027398,0.0004789,0,0,0.053897,-0.020653,0,0.008716,0,0,0,0.0086905,0.00044237,0.0027398,3.3342,0.0039576,0.0073729,1.4047e-08,0.3,0.12,0
0.01782,0.0083442,0.0085217,0.00050421,0.0027078,0.00036682,0,0,0.052907,-0.020052,0,0.0066761,0,0,0,0.0085384,0.00048746,0.0027078,2.6142,0.0039112,0.0072022,1.3219e-08,0.32,0.12,0
0.018868,0.0082542,0.0083765,0.00053264,0.0026727,0.00024866,0,0,0.051904,-0.019475,0,0.0045256,0,0,0,0.0083844,0.00052477,0.0026727,1.8139,0.0038606,0.007036,1.2429e-08,0.34,0.12,0
0.019897,0.0080888,0.0082271,0.00054283,0.002631,0.0001275,0,0,0.050924,-0.019002,0,0.0023204,0,0,0,0.0082292,0.00054072,0.002631,0.95029,0.0038003,0.0068855,1.1704e-08,0.36,0.12,0
0.020905,0.0078512,0.0080722,0.00052275,0.0025785,1.0898e-05,0,0,0.049993,-0.018707,0,0.00019834,0,0,0,0.0080722,0.00052273,0.0025785,0.08271,0.0037245,0.0067602,1.1061e-08,0.38,0.12,0
0.021896,0.0075478,0.0079062,0.00046336,0.0025109,-9.0763e-05,0,0,0.049098,-0.018632,0,-0.0016519,0,0,0,0.0079073,0.00046225,0.0025109,-0.69856,0.0036268,0.0066613,1.0481e-08,0.4,0.12,0
0.022869,0.0071889,0.0077227,0.00036615,0.0024267,-0.00016633,0,0,0.048194,-0.018751,0,-0.0030272,0,0,0,0.0077265,0.00036239,0.0024267,-1.2945,0.0035052,0.0065795,9.9208e-09,0.42,0.12,0
0.023824,0.0067893,0.0075068,0.00023122,0.0023214,-0.00021352,0,0,0.047187,-0.019021,0,-0.0038862,0,0,0,0.0075131,0.00022496,0.0023214,-1.6796,0.0033532,0.0064987,9.3092e-09,0.44,0.12,0
0.024757,0.0063648,0.0072803,8.284e-05,0.002209,-0.00023002,0,0,0.04615,-0.019348,0,-0.0041863,0,0,0,0.0072877,7.5497e-05,0.002209,-1.8286,0.0031907,0.0064172,8.6879e-09,0.46,0.12,0
0.02567,0.0059381,0.0070245,-0.00013808,0.0020659,-0.00022203,0,0,0.045123,-0.020056,0,-0.004041,0,0,0,0.0070314,-0.00014496,0.0020659,-1.7738,0.0029841,0.0063657,8.0625e-09,0.48,0.12,0
0.026562,0.0055428,0.0067394,-0.00040305,0.0019009,-0.00013733,0,0,0.04403,-0.020966,0,-0.0024995,0,0,0,0.006742,-0.00040569,0.0019009,-1.1011,0.0027457,0.0063185,7.3774e-09,0.5,0.12,0
0.027431,0.0052233,0.0064457,-0.00054053,0.0017715,-1.5259e-05,0,0,0.042535,-0.02104,0,-0.00027772,0,0,0,0.0064457,-0.00054056,0.0017715,-0.12515,0.0025589,0.0061645,6.5768e-09,0.52,0.12,0
0.028263,0.0050085,0.0061673,-0.00047665,0.0017072,8.3529e-05,0,0,0.040587,-0.019873,0,0.0015202,0,0,0,0.0061683,-0.0004777,0.0017072,0.72019,0.0024659,0.0058671,5.7336e-09,0.54,0.12,0
0.029055,0.0048966,0.0059436,-0.00033012,0.0016841,7.8033e-05,0,0,0.038762,-0.018329,0,0.0014202,0,0,0,0.0059446,-0.0003311,0.0016841,0.7125,0.0024325,0.0055497,5.0371e-09,0.56,0.12,0
0.029814,0.004873,0.0058035,-0.00025522,0.0016645,-1.6206e-06,0,0,0.037665,-0.017469,0,-2.9495e-05,0,0,0,0.0058035,-0.00025522,0.0016645,-0.015326,0.0024043,0.0053631,4.637e-09,0.58,0.12,0
0.030561,0.0049264,0.0058018,-0.00026484,0.0016611,-0.00010571,0,0,0.03768,-0.017526,0,-0.0019239,0,0,0,0.0058036,-0.00026668,0.0016611,-0.99794,0.0023993,0.0053724,4.6458e-09,0.6,0.12,0
0.031321,0.0050578,0.0059388,-0.00036016,0.0016736,-0.00018076,0,0,0.038813,-0.018507,0,-0.0032898,0,0,0,0.0059439,-0.00036535,0.0016736,-1.6424,0.0024174,0.0055768,5.0611e-09,0.62,0.12,0
0.032114,0.0052807,0.0061593,-0.00053022,0.0016887,-0.00017578,0,0,0.040682,-0.020192,0,-0.0031993,0,0,0,0.0061639,-0.00053484,0.0016887,-1.5042,0.0024393,0.0059095,5.7646e-09,0.64,0.12,0
0.032948,0.0056121,0.0064336,-0.00062014,0.0017441,-5.8735e-05,0,0,0.042675,-0.021514,0,-0.001069,0,0,0,0.0064341,-0.00062062,0.0017441,-0.47704,0.0025192,0.0062192,6.6064e-09,0.66,0.12,0
0.033821,0.0060568,0.0067212,-0.0005072,0.0018642,8.9976e-05,0,0,0.044199,-0.02158,0,0.0016376,0,0,0,0.0067223,-0.00050832,0.0018642,0.71304,0.0026927,0.006384,7.4101e-09,0.68,0.12,0
0.034716,0.0065886,0.0069969,-0.0002621,0.0020204,0.00020833,0,0,0.045286,-0.020771,0,0.0037916,0,0,0,0.0070028,-0.00026807,0.0020204,1.6426,0.0029184,0.0064393,8.1034e-09,0.7,0.12,0
0.035632,0.0071652,0.0072386,-5.7744e-05,0.0021542,0.0002554,0,0,0.046267,-0.020129,0,0.0046482,0,0,0,0.0072475,-6.6672e-05,0.0021542,2.0023,0.0031117,0.006495,8.7264e-09,0.72,0.12,0
0.036567,0.0077547,0.0074456,7.7067e-05,0.0022568,0.00028252,0,0,0.047218,-0.019835,0,0.0051418,0,0,0,0.0074564,6.6251e-05,0.0022568,2.1925,0.0032598,0.0065745,9.3205e-09,0.74,0.12,0
0.037521,0.0083358,0.0076365,0.00020175,0.0023515,0.00028259,0,0,0.048094,-0.019563,0,0.0051431,0,0,0,0.0076472,0.00019102,0.0023515,2.1736,0.0033966,0.0066448,9.8735e-09,0.76,0.12,0
0.03849,0.0088935,0.0077894,0.00029104,0.0024241,0.00025681,0,0,0.048824,-0.019411,0,0.0046739,0,0,0,0.0077982,0.00028225,0.0024241,1.9592,0.0035015,0.0067066,1.0333e-08,0.78,0.12,0
0.039474,0.0094139,0.0079193,0.00034262,0.0024786,0.00020705,0,0,0.04951,-0.019437,0,0.0037683,0,0,0,0.0079249,0.00033697,0.0024786,1.5642,0.0035802,0.0067759,1.0763e-08,0.8,0.12,0
0.040471,0.0098871,0.0080327,0.00035274,0.0025156,0.00014484,0,0,0.050205,-0.019682,0,0.0026361,0,0,0,0.0080354,0.00035001,0.0025156,1.0801,0.0036337,0.0068638,1.1205e-08,0.82,0.12,0
0.041482,0.010307,0.0081353,0.00032825,0.0025391,8.1749e-05,0,0,0.050926,-0.020119,0,0.0014878,0,0,0,0.0081362,0.00032739,0.0025391,0.59986,0.0036675,0.0069712,1.1679e-08,0.84,0.12,0
0.042508,0.010671,0.0082282,0.00027955,0.0025523,2.709e-05,0,0,0.05165,-0.020682,0,0.00049303,0,0,0,0.0082283,0.00027946,0.0025523,0.19527,0.0036867,0.007091,1.2171e-08,0.86,0.12,0
0.043548,0.01098,0.0083105,0.0002182,0.0025586,-1.3979e-05,0,0,0.052342,-0.021298,0,-0.00025441,0,0,0,0.0083105,0.00021818,0.0025586,-0.098971,0.0036958,0.0072128,1.2653e-08,0.88,0.12,0
0.044602,0.011235,0.008381,0.00015392,0.0025605,-3.9761e-05,0,0,0.052967,-0.0219,0,-0.00072364,0,0,0,0.0083812,0.00015373,0.0025605,-0.2769,0.0036985,0.0073268,1.3097e-08,0.9,0.12,0
0.045667,0.01144,0.0084388,9.4004e-05,0.0025598,-5.0961e-05,0,0,0.053498,-0.022439,0,-0.0009275,0,0,0,0.0084391,9.3693e-05,0.0025598,-0.34989,0.0036975,0.0074261,1.348e-08,0.92,0.12,0
0.046742,0.011595,0.0084834,4.3453e-05,0.0025581,-4.9652e-05,0,0,0.053921,-0.022883,0,-0.00090368,0,0,0,0.0084837,4.3161e-05,0.0025581,-0.33706,0.003695,0.007506,1.3785e-08,0.94,0.12,0
0.047824,0.011705,0.008515,5.4877e-06,0.0025561,-3.8616e-05,0,0,0.054225,-0.023211,0,-0.00070281,0,0,0,0.0085152,5.3124e-06,0.0025561,-0.26,0.0036922,0.0075642,1.4007e-08,0.96,0.12,0
0.048911,0.01177,0.0085338,-1.7961e-05,0.0025547,-2.0973e-05,0,0,0.054409,-0.023412,0,-0.00038172,0,0,0,0.0085338,-1.8012e-05,0.0025547,-0.14052,0.0036902,0.0075994,1.414e-08,0.98,0.12,0
0.05,0.011791,0.00854,-2.5881e-05,0.0025542,5.9141e-05,0,0,0.05447,-0.023479,0,0.0010764,0,0,0,0.0085404,-2.6289e-05,0.0025542,0.39556,0.0036894,0.0076119,1.4188e-08,1,0.12,0
0,0,0.0093066,0.0039885,0.0039885,0.0023513,0,0,0.048394,4.3368e-19,0,0.042793,0,0,0,0.010197,0.0030981,0.0039885,20.742,0.0057612,0.0066983,1.452e-08,0,0.14,0
0.00096789,0.00085585,0.0092685,0.0034988,0.0038302,0.0023381,0,0,0.049488,-0.0030155,0,0.042553,0,0,0,0.010097,0.0026703,0.0038302,19.512,0.0055325,0.00692,1.542e-08,0.02,0.14,0
0.0019795,0.0017053,0.0094161,0.0030332,0.0037348,0.0022914,0,0,0.0517,-0.0063841,0,0.041703,0,0,0,0.010153,0.0022959,0.0037348,17.839,0.0053947,0.0072461,1.6972e-08,0.04,0.14,0
0.0030359,0.0025357,0.0095478,0.0025549,0.0036308,0.002199,0,0,0.053844,-0.0097908,0,0.040021,0,0,0,0.010182,0.0019209,0.0036308,16.083,0.0052445,0.0075525,1.836e-08,0.06,0.14,0
0.0041333,0.0033323,0.0096498,0.0021045,0.0035263,0.0020647,0,0,0.055724,-0.012939,0,0.037578,0,0,0,0.010178,0.0015764,0.0035263,14.346,0.0050935,0.0078112,1.9432e-08,0.08,0.14,0
0.0052648,0.0040814,0.0097138,0.0017084,0.0034267,0.0019028,0,0,0.057213,-0.015636,0,0.034632,0,0,0,0.010143,0.0012791,0.0034267,12.713,0.0049496,0.0080091,2.013e-08,0.1,0.14,0
0.0064218,0.0047728,0.0097385,0.0013775,0.0033348,0.00173,0,0,0.058274,-0.017812,0,0.031487,0,0,0,0.010082,0.0010336,0.0033348,11.241,0.0048169,0.0081457,2.0471e-08,0.12,0.14,0
0.0075958,0.0054001,0.0097279,0.0011112,0.0032517,0.0015599,0,0,0.058933,-0.019478,0,0.02839,0,0,0,0.010002,0.00083753,0.0032517,9.9518,0.0046969,0.008227,2.0515e-08,0.14,0.14,0
0.0087791,0.0059601,0.0096887,0.00090408,0.0031778,0.0014009,0,0,0.059249,-0.020691,0,0.025497,0,0,0,0.0099067,0.00068607,0.0031778,8.8451,0.0045902,0.0082615,2.0326e-08,0.16,0.14,0
0.0099657,0.0064513,0.0096278,0.00074882,0.003113,0.001257,0,0,0.059285,-0.021514,0,0.022877,0,0,0,0.0098023,0.0005743,0.003113,7.9044,0.0044965,0.0082568,1.9964e-08,0.18,0.14,0
0.011151,0.0068735,0.0095506,0.00063861,0.0030568,0.0011285,0,0,0.059094,-0.022005,0,0.020538,0,0,0,0.0096913,0.00049794,0.0030568,7.1055,0.0044153,0.0082183,1.9469e-08,0.2,0.14,0
0.01233,0.0072268,0.0094605,0.0005675,0.0030084,0.0010135,0,0,0.058714,-0.022212,0,0.018446,0,0,0,0.0095746,0.00045346,0.0030084,6.4202,0.0043455,0.0081498,1.8868e-08,0.22,0.14,0
0.013499,0.0075112,0.0093593,0.00053036,0.0029669,0.00090909,0,0,0.058171,-0.022172,0,0.016545,0,0,0,0.0094519,0.00043773,0.0029669,5.8182,0.0042855,0.0080532,1.8175e-08,0.24,0.14,0
0.014656,0.0077261,0.0092472,0.00052239,0.0029309,0.00081125,0,0,0.057479,-0.021917,0,0.014765,0,0,0,0.009322,0.0004476,0.0029309,5.2673,0.0042335,0.0079299,1.7399e-08,0.26,0.14,0
0.015798,0.0078707,0.0091237,0.00053838,0.0028986,0.00071569,0,0,0.056648,-0.021478,0,0.013026,0,0,0,0.009183,0.00047913,0.0028986,4.7327,0.0041869,0.0077815,1.6547e-08,0.28,0.14,0
0.016922,0.0079434,0.0089884,0.00057173,0.002868,0.00061801,0,0,0.055695,-0.020896,0,0.011248,0,0,0,0.0090335,0.0005266,0.002868,4.1772,0.0041427,0.0076113,1.5631e-08,0.3,0.14,0
0.018026,0.007942,0.0088413,0.0006132,0.0028364,0.00051444,0,0,0.054645,-0.020231,0,0.0093629,0,0,0,0.0088734,0.00058116,0.0028364,3.5638,0.004097,0.007426,1.4678e-08,0.32,0.14,0
0.019108,0.0078643,0.0086838,0.00064929,0.0027999,0.00040328,0,0,0.053543,-0.019571,0,0.0073396,0,0,0,0.0087039,0.0006291,0.0027999,2.8663,0.0040443,0.0072378,1.3731e-08,0.34,0.14,0
0.020168,0.0077092,0.0085178,0.00066243,0.0027541,0.0002874,0,0,0.05245,-0.019034,0,0.0052307,0,0,0,0.0085283,0.00065193,0.0027541,2.0925,0.0039781,0.0070639,1.2845e-08,0.36,0.14,0
0.021206,0.0074776,0.0083424,0.00063207,0.0026924,0.0001763,0,0,0.051416,-0.018749,0,0.0032086,0,0,0,0.0083465,0.00062805,0.0026924,1.3092,0.003889,0.0069211,1.206e-08,0.38,0.14,0
0.022224,0.0071752,0.008154,0.00054635,0.0026101,8.7772e-05,0,0,0.050449,-0.01878,0,0.0015975,0,0,0,0.008155,0.00054534,0.0026101,0.66093,0.0037701,0.006816,1.1373e-08,0.4,0.14,0
0.023224,0.0068133,0.007931,0.00039905,0.002499,3.8513e-05,0,0,0.049431,-0.01911,0,0.00070093,0,0,0,0.0079312,0.00039885,0.002499,0.29296,0.0036097,0.0067326,1.0686e-08,0.42,0.14,0
0.024202,0.0064075,0.0076637,0.0002217,0.0023656,4.6718e-05,0,0,0.048213,-0.01951,0,0.00085027,0,0,0,0.007664,0.00022141,0.0023656,0.35966,0.003417,0.0066356,9.8937e-09,0.44,0.14,0
0.025153,0.0059794,0.0072719,-1.1531e-05,0.0021781,8.7904e-05,0,0,0.046354,-0.019926,0,0.0015999,0,0,0,0.007273,-1.2592e-05,0.0021781,0.69137,0.0031462,0.0064744,8.7497e-09,0.46,0.14,0
0.026056,0.0055392,0.0069088,-0.00015068,0.0020275,0.00017835,0,0,0.044421,-0.019821,0,0.0032459,0,0,0,0.0069133,-0.00015518,0.0020275,1.4463,0.0029285,0.0062689,7.6773e-09,0.48,0.14,0
0.026929,0.0051238,0.0063874,-0.0005708,0.001745,0.0002486,0,0,0.042246,-0.021073,0,0.0045246,0,0,0,0.0063962,-0.00057967,0.001745,2.0436,0.0025205,0.0061523,6.4611e-09,0.5,0.14,0
0.027746,0.0048062,0.0058528,-0.0007383,0.0015344,0.00045618,0,0,0.039298,-0.020681,0,0.0083025,0,0,0,0.0058842,-0.00076972,0.0015344,3.9405,0.0022163,0.0058526,5.1786e-09,0.52,0.14,0
0.028501,0.0046258,0.0054591,-0.00036627,0.0015278,0.00046311,0,0,0.035774,-0.017236,0,0.0084286,0,0,0,0.0054957,-0.00040286,0.0015278,4.5172,0.0022069,0.0052088,4.041e-09,0.54,0.14,0
0.029177,0.0045564,0.0050543,-0.00016337,0.0014673,0.00030852,0,0,0.032642,-0.014839,0,0.005615,0,0,0,0.0050725,-0.00018155,0.0014673,3.3722,0.0021194,0.0046541,3.0724e-09,0.56,0.14,0
0.029807,0.004554,0.0048635,-6.9551e-05,0.0014382,7.3631e-05,0,0,0.03117,-0.01372,0,0.0013401,0,0,0,0.0048646,-7.065e-05,0.0014382,0.85494,0.0020774,0.0043803,2.6534e-09,0.58,0.14,0
0.030423,0.0046062,0.0048595,-8.1003e-05,0.0014336,-0.00017503,0,0,0.031176,-0.013782,0,-0.0031856,0,0,0,0.0048657,-8.7196e-05,0.0014336,-2.0265,0.0020707,0.0043945,2.6644e-09,0.6,0.14,0
0.031054,0.0047138,0.0050431,-0.00019925,0.0014532,-0.0004062,0,0,0.032669,-0.015037,0,-0.0073929,0,0,0,0.0050744,-0.00023054,0.0014532,-4.4045,0.002099,0.0046952,3.1039e-09,0.62,0.14,0
0.03173,0.0048909,0.0054424,-0.00043167,0.0015032,-0.00055164,0,0,0.035846,-0.017607,0,-0.01004,0,0,0,0.0054937,-0.00048302,0.0015032,-5.3188,0.0021713,0.0052721,4.0852e-09,0.64,0.14,0
0.032488,0.0051844,0.00583,-0.00084117,0.0014966,-0.00052639,0,0,0.039433,-0.021274,0,-0.0095803,0,0,0,0.0058712,-0.00088245,0.0014966,-4.484,0.0021618,0.0059334,5.2081e-09,0.66,0.14,0
0.033307,0.0056239,0.0063564,-0.00070975,0.001694,-0.00028842,0,0,0.042428,-0.021874,0,-0.0052493,0,0,0,0.0063681,-0.0007215,0.001694,-2.3335,0.0024469,0.0062428,6.4855e-09,0.68,0.14,0
0.034185,0.0061735,0.0068688,-0.00031245,0.0019669,-0.00017987,0,0,0.044607,-0.020742,0,-0.0032736,0,0,0,0.0068733,-0.00031696,0.0019669,-1.4339,0.0028411,0.0063635,7.7183e-09,0.7,0.14,0
0.035092,0.006762,0.0072163,-0.00019604,0.0021061,-4.6095e-05,0,0,0.046503,-0.020949,0,-0.00083893,0,0,0,0.0072166,-0.00019633,0.0021061,-0.35628,0.0030421,0.0065715,8.774e-09,0.72,0.14,0
0.036045,0.0073541,0.0075883,1.8682e-05,0.0022821,4.4262e-05,0,0,0.048286,-0.020597,0,0.00080557,0,0,0,0.0075885,1.8423e-05,0.0022821,0.33501,0.0032963,0.0067301,9.8943e-09,0.74,0.14,0
0.037023,0.0079413,0.0078314,0.00018348,0.0024044,0.00010518,0,0,0.049385,-0.020211,0,0.0019143,0,0,0,0.0078328,0.00018204,0.0024044,0.7878,0.0034731,0.0068169,1.0631e-08,0.76,0.14,0
0.03802,0.0085026,0.0080249,0.0003212,0.0025038,0.00011091,0,0,0.050241,-0.019862,0,0.0020186,0,0,0,0.0080264,0.0003196,0.0025038,0.82469,0.0036166,0.0068799,1.1218e-08,0.78,0.14,0
0.039033,0.0090229,0.00818,0.00039778,0.0025733,7.8733e-05,0,0,0.051021,-0.019798,0,0.0014329,0,0,0,0.0081808,0.00039698,0.0025733,0.57958,0.003717,0.0069559,1.1752e-08,0.8,0.14,0
0.040061,0.0094906,0.0083186,0.00041564,0.0026203,2.5973e-05,0,0,0.051855,-0.020062,0,0.00047271,0,0,0,0.0083187,0.00041555,0.0026203,0.1883,0.0037849,0.0070637,1.2335e-08,0.82,0.14,0
0.041107,0.0099006,0.0084449,0.00038382,0.0026486,-2.7995e-05,0,0,0.052746,-0.02061,0,-0.00050952,0,0,0,0.008445,0.00038372,0.0026486,-0.19898,0.0038258,0.0072011,1.2977e-08,0.84,0.14,0
0.042171,0.010252,0.0085599,0.00032076,0.0026642,-7.142e-05,0,0,0.053651,-0.021325,0,-0.0012998,0,0,0,0.0085606,0.00032014,0.0026642,-0.49661,0.0038483,0.0073541,1.365e-08,0.86,0.14,0
0.043253,0.010547,0.0086612,0.00024287,0.0026712,-9.8953e-05,0,0,0.054509,-0.022098,0,-0.0018009,0,0,0,0.0086623,0.00024171,0.0026712,-0.67336,0.0038584,0.0075068,1.4302e-08,0.88,0.14,0
0.044352,0.010789,0.0087467,0.00016291,0.0026729,-0.00010997,0,0,0.055272,-0.022841,0,-0.0020015,0,0,0,0.0087481,0.0001615,0.0026729,-0.7339,0.0038608,0.0076467,1.4892e-08,0.9,0.14,0
0.045464,0.010981,0.0088156,8.9485e-05,0.0026715,-0.00010619,0,0,0.055911,-0.023497,0,-0.0019326,0,0,0,0.0088169,8.8193e-05,0.0026715,-0.69709,0.0038589,0.0077663,1.5391e-08,0.92,0.14,0
0.046588,0.011127,0.0088681,2.8184e-05,0.0026689,-9.0278e-05,0,0,0.056413,-0.02403,0,-0.0016431,0,0,0,0.0088691,2.7262e-05,0.0026689,-0.58505,0.0038551,0.0078612,1.5785e-08,0.94,0.14,0
0.04772,0.011229,0.0089049,-1.7532e-05,0.0026662,-6.524e-05,0,0,0.056772,-0.024422,0,-0.0011874,0,0,0,0.0089053,-1.8009e-05,0.0026662,-0.41891,0.0038512,0.0079296,1.6067e-08,0.96,0.14,0
0.048859,0.011289,0.0089266,-4.5646e-05,0.0026643,-3.4132e-05,0,0,0.056987,-0.02466,0,-0.0006212,0,0,0,0.0089267,-4.5776e-05,0.0026643,-0.21796,0.0038484,0.0079708,1.6236e-08,0.98,0.14,0
0.05,0.01131,0.0089337,-5.5122e-05,0.0026636,5.5052e-05,0,0,0.057058,-0.02474,0,0.0010019,0,0,0,0.0089341,-5.5459e-05,0.0026636,0.35089,0.0038474,0.0079851,1.6295e-08,1,0.14,0
0,0,0.0093168,0.0039929,0.0039929,0.0021901,0,0,0.048447,5.421e-19,0,0.03986,0,0,0,0.010102,0.0032078,0.0039929,19.723,0.0057675,0.0065371,1.3652e-08,0,0.16,0
0.00096895,0.0007972,0.0092792,0.0035226,0.0038405,0.002181,0,0,0.049492,-0.0028936,0,0.039694,0,0,0,0.010012,0.0027896,0.0038405,18.576,0.0055474,0.0067587,1.4573e-08,0.02,0.16,0
0.0019797,0.0015824,0.009427,0.0030963,0.003757,0.0021407,0,0,0.051597,-0.0060121,0,0.038961,0,0,0,0.010083,0.0024404,0.003757,17.035,0.0054268,0.0070767,1.6099e-08,0.04,0.16,0
0.0030328,0.0023478,0.0095641,0.0026609,0.0036675,0.0020708,0,0,0.053659,-0.0091601,0,0.037688,0,0,0,0.010138,0.0020874,0.0036675,15.481,0.0052975,0.007388,1.756e-08,0.06,0.16,0
0.0041261,0.0030832,0.0096803,0.0022435,0.0035771,0.0019704,0,0,0.055539,-0.012136,0,0.035862,0,0,0,0.01017,0.0017537,0.0035771,13.96,0.005167,0.0076691,1.8825e-08,0.08,0.16,0
0.0052544,0.0037787,0.0097685,0.001865,0.0034901,0.0018467,0,0,0.057134,-0.014788,0,0.03361,0,0,0,0.010179,0.0014548,0.0034901,12.524,0.0050412,0.0079053,1.9816e-08,0.1,0.16,0
0.0064114,0.0044255,0.0098256,0.0015374,0.0034089,0.0017099,0,0,0.058392,-0.017031,0,0.031121,0,0,0,0.010164,0.0011984,0.0034089,11.211,0.0049239,0.0080906,2.0509e-08,0.12,0.16,0
0.0075901,0.0050178,0.0098524,0.0012644,0.003335,0.0015703,0,0,0.059308,-0.018843,0,0.02858,0,0,0,0.010131,0.00098624,0.003335,10.044,0.0048173,0.0082254,2.092e-08,0.14,0.16,0
0.0087837,0.0055513,0.0098521,0.001045,0.0032691,0.0014356,0,0,0.059905,-0.02024,0,0.026128,0,0,0,0.01008,0.00081685,0.0032691,9.0281,0.0047221,0.0083131,2.108e-08,0.16,0.16,0
0.0099863,0.006024,0.0098289,0.00087544,0.0032113,0.0013104,0,0,0.06022,-0.021256,0,0.023849,0,0,0,0.010017,0.00068759,0.0032113,8.1578,0.0046386,0.0083581,2.1028e-08,0.18,0.16,0
0.011192,0.0064344,0.0097865,0.00075139,0.0031614,0.0011968,0,0,0.060289,-0.021931,0,0.021782,0,0,0,0.0099424,0.00059555,0.0031614,7.4191,0.0045664,0.0083645,2.0797e-08,0.2,0.16,0
0.012398,0.0067819,0.0097275,0.00066843,0.0031188,0.0010947,0,0,0.060139,-0.022298,0,0.019924,0,0,0,0.0098579,0.00053801,0.0031188,6.7936,0.0045049,0.0083347,2.0408e-08,0.22,0.16,0
0.013598,0.0070658,0.009653,0.00062239,0.0030826,0.0010026,0,0,0.05979,-0.022388,0,0.018247,0,0,0,0.0097629,0.00051242,0.0030826,6.2594,0.0044527,0.0082706,1.9876e-08,0.24,0.16,0
0.01479,0.0072851,0.009563,0.00060916,0.0030516,0.00091764,0,0,0.059253,-0.022227,0,0.016701,0,0,0,0.0096561,0.00051608,0.0030516,5.7918,0.0044079,0.0081727,1.9208e-08,0.26,0.16,0
0.015968,0.0074382,0.0094565,0.00062404,0.0030242,0.0008363,0,0,0.058535,-0.021841,0,0.015221,0,0,0,0.009535,0.00054556,0.0030242,5.3615,0.0043682,0.0080419,1.8407e-08,0.28,0.16,0
0.017131,0.0075226,0.0093323,0.00066084,0.0029979,0.00075409,0,0,0.057642,-0.021268,0,0.013724,0,0,0,0.0093974,0.00059575,0.0029979,4.9332,0.0043304,0.0078801,1.7482e-08,0.3,0.16,0
0.018274,0.007535,0.0091898,0.00071025,0.00297,0.00066604,0,0,0.0566,-0.020564,0,0.012122,0,0,0,0.0092418,0.00065826,0.00297,4.4639,0.00429,0.0076928,1.646e-08,0.32,0.16,0
0.019395,0.0074713,0.0090315,0.00075743,0.0029367,0.00056808,0,0,0.055463,-0.019831,0,0.010339,0,0,0,0.0090703,0.00071861,0.0029367,3.9093,0.0042419,0.0074931,1.5395e-08,0.34,0.16,0
0.020492,0.0073275,0.0088612,0.00077775,0.0028917,0.00046034,0,0,0.054323,-0.019237,0,0.0083782,0,0,0,0.0088874,0.00075162,0.0028917,3.2489,0.0041769,0.0073047,1.4378e-08,0.36,0.16,0
0.021568,0.0071012,0.0086853,0.00074167,0.0028281,0.0003545,0,0,0.053301,-0.018986,0,0.0064518,0,0,0,0.0087011,0.00072589,0.0028281,2.5501,0.004085,0.0071595,1.3514e-08,0.38,0.16,0
0.022624,0.0067966,0.0084945,0.00061454,0.0027327,0.0002737,0,0,0.052432,-0.019276,0,0.0049813,0,0,0,0.008504,0.00060504,0.0027327,1.9869,0.0039473,0.0070792,1.2825e-08,0.4,0.16,0
0.023665,0.0064245,0.0082898,0.0004103,0.00261,0.00025972,0,0,0.051686,-0.020018,0,0.0047269,0,0,0,0.0082983,0.00040175,0.00261,1.8859,0.00377,0.0070565,1.2268e-08,0.42,0.16,0
0.024692,0.0060089,0.0079925,0.00011405,0.002432,0.00032365,0,0,0.050601,-0.021093,0,0.0058904,0,0,0,0.0080058,0.00010078,0.002432,2.3485,0.0035129,0.0070353,1.1489e-08,0.44,0.16,0
0.025689,0.0055678,0.0076536,-0.00012242,0.0022594,0.00052623,0,0,0.049088,-0.021674,0,0.0095773,0,0,0,0.0076891,-0.00015787,0.0022594,3.8539,0.0032635,0.0069606,1.0542e-08,0.46,0.16,0
0.026655,0.0051452,0.0067293,-0.00065885,0.0018211,0.0007257,0,0,0.044664,-0.022568,0,0.013208,0,0,0,0.0067999,-0.00072945,0.0018211,5.5571,0.0026305,0.0066327,7.8619e-09,0.48,0.16,0
0.027476,0.0046999,0.0059014,-0.00093581,0.0014897,0.0013684,0,0,0.040147,-0.022072,0,0.024905,0,0,0,0.0061652,-0.0011995,0.0014897,10.908,0.0021518,0.0064548,6.1744e-09,0.5,0.16,0
0.028261,0.0043961,0.0052409,-0.00035722,0.0014651,0.0011685,0,0,0.03436,-0.016583,0,0.021267,0,0,0,0.005475,-0.00059134,0.0014651,11.33,0.0021163,0.0053436,4.1059e-09,0.52,0.16,0
0.02885,0.0043191,0.004254,-5.3177e-05,0.0012602,0.00091593,0,0,0.027243,-0.011952,0,0.01667,0,0,0,0.0044406,-0.00023986,0.0012602,11.52,0.0018203,0.0041396,2.0965e-09,0.54,0.16,0
0.029351,0.0043031,0.0038506,0.000126,0.001193,0.00051607,0,0,0.024184,-0.0097096,0,0.0093925,0,0,0,0.0039208,5.5816e-05,0.001193,7.7444,0.0017232,0.0034404,1.3471e-09,0.56,0.16,0
0.029817,0.0043242,0.0037153,0.00021652,0.0011795,0.00013781,0,0,0.023075,-0.0087635,0,0.0025082,0,0,0,0.0037207,0.0002111,0.0011795,2.2522,0.0017038,0.0031395,1.0943e-09,0.58,0.16,0
0.030274,0.0043751,0.0037096,0.00020344,0.0011739,-0.00022951,0,0,0.023075,-0.0088312,0,-0.0041771,0,0,0,0.0037245,0.00018848,0.0011739,-3.7294,0.0016956,0.0031607,1.1062e-09,0.6,0.16,0
0.03074,0.0044563,0.0038337,8.4732e-05,0.0011755,-0.00060486,0,0,0.024189,-0.0099263,0,-0.011008,0,0,0,0.0039289,-1.044e-05,0.0011755,-8.9419,0.001698,0.0035004,1.3807e-09,0.62,0.16,0
0.031242,0.0045764,0.0042286,-0.00012836,0.0012301,-0.00099775,0,0,0.027287,-0.012362,0,-0.018159,0,0,0,0.0044462,-0.00034597,0.0012301,-12.304,0.0017768,0.0042304,2.148e-09,0.64,0.16,0
0.031832,0.0047611,0.0052106,-0.00048022,0.0014191,-0.001234,0,0,0.034503,-0.017284,0,-0.022458,0,0,0,0.0054667,-0.00073626,0.0014191,-11.722,0.0020498,0.0054546,4.1631e-09,0.66,0.16,0
0.032622,0.0051819,0.0058595,-0.0011187,0.0014222,-0.0014015,0,0,0.040379,-0.023122,0,-0.025508,0,0,0,0.0061304,-0.0013897,0.0014222,-10.942,0.0020543,0.0065812,6.1525e-09,0.68,0.16,0
0.033447,0.0057589,0.0066811,-0.00086065,0.0017461,-0.00071502,0,0,0.044908,-0.023722,0,-0.013013,0,0,0,0.0067483,-0.00092784,0.0017461,-5.3684,0.0025222,0.0067489,7.8454e-09,0.7,0.16,0
0.034418,0.0063272,0.0075888,-0.00035748,0.0021694,-0.000467,0,0,0.049316,-0.022994,0,-0.0084994,0,0,0,0.0076161,-0.00038483,0.0021694,-3.3519,0.0031336,0.0070783,1.0543e-08,0.72,0.16,0
0.03542,0.0069308,0.0079102,-0.00014193,0.0023305,-0.00021134,0,0,0.050775,-0.022499,0,-0.0038465,0,0,0,0.0079157,-0.00014748,0.0023305,-1.5025,0.0033662,0.0071537,1.148e-08,0.74,0.16,0
0.036449,0.0075273,0.008183,0.00013799,0.0024963,-8.9441e-05,0,0,0.051749,-0.021461,0,-0.0016278,0,0,0,0.008184,0.000137,0.0024963,-0.63688,0.0036058,0.0071649,1.2217e-08,0.76,0.16,0
0.03749,0.008099,0.0083614,0.0003328,0.0026082,-4.4713e-05,0,0,0.052353,-0.020707,0,-0.00081377,0,0,0,0.0083616,0.00033255,0.0026082,-0.31908,0.0037675,0.0071675,1.2684e-08,0.78,0.16,0
0.038543,0.008622,0.0085228,0.00045031,0.0026919,-6.65e-05,0,0,0.053061,-0.020399,0,-0.0012103,0,0,0,0.0085234,0.00044976,0.0026919,-0.47195,0.0038884,0.0072186,1.3221e-08,0.8,0.16,0
0.039612,0.0090846,0.0086685,0.00047213,0.0027422,-0.0001126,0,0,0.053929,-0.020657,0,-0.0020493,0,0,0,0.00867,0.00047059,0.0027422,-0.78692,0.0039609,0.0073324,1.3889e-08,0.82,0.16,0
0.0407,0.0094825,0.0088083,0.00042858,0.0027711,-0.00015741,0,0,0.054939,-0.021316,0,-0.0028648,0,0,0,0.0088112,0.00042562,0.0027711,-1.0758,0.0040026,0.0074934,1.4688e-08,0.84,0.16,0
0.04181,0.0098181,0.0089362,0.00034705,0.002785,-0.00018635,0,0,0.055976,-0.022185,0,-0.0033915,0,0,0,0.0089402,0.00034301,0.002785,-1.2423,0.0040227,0.0076734,1.553e-08,0.86,0.16,0
0.042939,0.010096,0.009048,0.00025117,0.0027898,-0.00019632,0,0,0.05695,-0.023101,0,-0.003573,0,0,0,0.0090524,0.00024679,0.0027898,-1.2778,0.0040296,0.0078494,1.6334e-08,0.88,0.16,0
0.044088,0.010322,0.0091407,0.00015555,0.0027889,-0.00018893,0,0,0.057802,-0.023963,0,-0.0034386,0,0,0,0.0091447,0.00015158,0.0027889,-1.2041,0.0040284,0.0080071,1.7046e-08,0.9,0.16,0
0.045252,0.0105,0.009214,6.9356e-05,0.002785,-0.00016731,0,0,0.058504,-0.024712,0,-0.003045,0,0,0,0.0092171,6.6296e-05,0.002785,-1.0478,0.0040228,0.0081394,1.7638e-08,0.92,0.16,0
0.046428,0.010634,0.009269,-1.7451e-06,0.0027802,-0.00013467,0,0,0.059049,-0.025316,0,-0.0024511,0,0,0,0.009271,-3.701e-06,0.0027802,-0.83208,0.0040158,0.0082432,1.8097e-08,0.94,0.16,0
0.047613,0.010728,0.0093071,-5.435e-05,0.0027758,-9.4068e-05,0,0,0.059435,-0.025755,0,-0.001712,0,0,0,0.009308,-5.5295e-05,0.0027758,-0.57566,0.0040095,0.0083174,1.8423e-08,0.96,0.16,0
0.048805,0.010783,0.0093294,-8.6542e-05,0.0027728,-4.8301e-05,0,0,0.059665,-0.02602,0,-0.00087907,0,0,0,0.0093296,-8.679e-05,0.0027728,-0.2939,0.0040052,0.0083618,1.8617e-08,0.98,0.16,0
0.05,0.010802,0.0093367,-9.7367e-05,0.0027718,5.0358e-05,0,0,0.059741,-0.02611,0,0.00091652,0,0,0,0.009337,-9.7636e-05,0.0027718,0.30583,0.0040037,0.008377,1.8684e-08,1,0.16,0
0,0,0.0093585,0.0040108,0.0040108,0.0020333,0,0,0.048664,-3.2526e-19,0,0.037005,0,0,0,0.010044,0.0033255,0.0040108,18.625,0.0057934,0.0064032,1.2964e-08,0,0.18,0
0.00097328,0.00074011,0.0093205,0.0035483,0.0038606,0.0020266,0,0,0.049685,-0.0028424,0,0.036885,0,0,0,0.009961,0.0029078,0.0038606,17.538,0.0055765,0.0066283,1.3921e-08,0.02,0.18,0
0.0019874,0.0014648,0.0094693,0.0031459,0.0037846,0.0019906,0,0,0.051731,-0.0058118,0,0.036228,0,0,0,0.010044,0.0025715,0.0037846,16.097,0.0054666,0.0069456,1.5454e-08,0.04,0.18,0
0.0030425,0.0021693,0.0096103,0.0027397,0.003705,0.0019356,0,0,0.053738,-0.0087841,0,0.035228,0,0,0,0.010118,0.0022319,0.003705,14.699,0.0053517,0.0072625,1.6977e-08,0.06,0.18,0
0.0041369,0.0028468,0.0097362,0.002348,0.0036253,0.0018591,0,0,0.05561,-0.011623,0,0.033835,0,0,0,0.010178,0.0019066,0.0036253,13.357,0.0052365,0.0075597,1.8381e-08,0.08,0.18,0
0.0052669,0.0034898,0.0098414,0.0019866,0.0035484,0.0017641,0,0,0.057266,-0.014212,0,0.032106,0,0,0,0.010219,0.0016086,0.0035484,12.094,0.0051255,0.0078234,1.9589e-08,0.1,0.18,0
0.0064276,0.0040915,0.0099224,0.0016661,0.0034765,0.0016568,0,0,0.058657,-0.016475,0,0.030153,0,0,0,0.010242,0.001346,0.0034765,10.934,0.0050216,0.0080456,2.0558e-08,0.12,0.18,0
0.0076132,0.0046464,0.0099784,0.0013919,0.0034111,0.0015444,0,0,0.059763,-0.018375,0,0.028108,0,0,0,0.010248,0.0011225,0.0034111,9.8925,0.0049271,0.0082233,2.1278e-08,0.14,0.18,0
0.0088181,0.0051505,0.010011,0.0011655,0.0033528,0.0014333,0,0,0.060586,-0.019905,0,0.026086,0,0,0,0.010237,0.00093902,0.0033528,8.9785,0.004843,0.0083569,2.1758e-08,0.16,0.18,0
0.010037,0.0056011,0.010021,0.00098581,0.0033021,0.0013282,0,0,0.061145,-0.021079,0,0.024173,0,0,0,0.010212,0.00079462,0.0033021,8.1914,0.0047698,0.008448,2.2017e-08,0.18,0.18,0
0.011264,0.0059963,0.010013,0.00085051,0.003259,0.0012318,0,0,0.06146,-0.021917,0,0.022419,0,0,0,0.010176,0.00068779,0.003259,7.5251,0.0047074,0.008499,2.2074e-08,0.2,0.18,0
0.012495,0.0063349,0.0099866,0.00075676,0.003223,0.0011453,0,0,0.061549,-0.022443,0,0.020845,0,0,0,0.010127,0.00061676,0.003223,6.969,0.0046555,0.0085115,2.1946e-08,0.22,0.18,0
0.013726,0.0066156,0.0099436,0.00070158,0.0031935,0.0010684,0,0,0.061425,-0.022677,0,0.019446,0,0,0,0.010065,0.00057967,0.0031935,6.5094,0.0046129,0.0084864,2.1643e-08,0.24,0.18,0
0.014952,0.006837,0.0098833,0.00068179,0.0031695,0.00099966,0,0,0.061095,-0.022638,0,0.018194,0,0,0,0.0099906,0.00057444,0.0031695,6.1294,0.0045782,0.008424,2.1166e-08,0.26,0.18,0
0.01617,0.0069971,0.0098041,0.0006936,0.0031493,0.00093634,0,0,0.060559,-0.022347,0,0.017041,0,0,0,0.0098993,0.00059836,0.0031493,5.8077,0.004549,0.008324,2.0514e-08,0.28,0.18,0
0.017374,0.0070927,0.0097036,0.00073179,0.0031306,0.00087446,0,0,0.059814,-0.021829,0,0.015915,0,0,0,0.0097881,0.00064735,0.0031306,5.5153,0.004522,0.0081866,1.9685e-08,0.3,0.18,0
0.018562,0.0071194,0.0095796,0.00078819,0.0031103,0.00080829,0,0,0.05887,-0.021132,0,0.014711,0,0,0,0.0096533,0.00071449,0.0031103,5.2097,0.0044927,0.0080141,1.8688e-08,0.32,0.18,0
0.019729,0.0070711,0.009433,0.00084902,0.0030846,0.0007303,0,0,0.05777,-0.020344,0,0.013291,0,0,0,0.0094947,0.00078733,0.0030846,4.8283,0.0044555,0.0078161,1.757e-08,0.34,0.18,0
0.020873,0.0069397,0.0092735,0.00088871,0.0030487,0.0006349,0,0,0.056646,-0.019655,0,0.011555,0,0,0,0.0093213,0.00084091,0.0030487,4.3058,0.0044036,0.0076203,1.646e-08,0.36,0.18,0
0.021995,0.0067182,0.0091068,0.00085207,0.0029877,0.00052691,0,0,0.055684,-0.019434,0,0.0095897,0,0,0,0.0091403,0.00081857,0.0029877,3.6375,0.0043155,0.007477,1.5534e-08,0.38,0.18,0
0.0231,0.0064041,0.0089559,0.00069779,0.0028961,0.00044611,0,0,0.055144,-0.020005,0,0.0081191,0,0,0,0.0089799,0.00067376,0.0028961,3.0832,0.0041833,0.007448,1.5024e-08,0.4,0.18,0
0.024201,0.0060126,0.0087633,0.00035908,0.0027367,0.00043303,0,0,0.054842,-0.021637,0,0.0078811,0,0,0,0.0087856,0.00033683,0.0027367,2.9418,0.003953,0.0075409,1.4738e-08,0.42,0.18,0
0.025294,0.0055638,0.0086406,2.8951e-05,0.0026009,0.00058849,0,0,0.054962,-0.023404,0,0.01071,0,0,0,0.0086806,-1.1079e-05,0.0026009,3.8913,0.0037568,0.0077244,1.4869e-08,0.44,0.18,0
0.026399,0.0051124,0.0082476,-0.00051682,0.0023192,0.00078996,0,0,0.053948,-0.025808,0,0.014377,0,0,0,0.0083182,-0.00058745,0.0023192,5.1093,0.00335,0.007866,1.3981e-08,0.46,0.18,0
0.027452,0.0046365,0.0087091,-0.00051652,0.0024578,0.0013996,0,0,0.056887,-0.027066,0,0.025473,0,0,0,0.0089167,-0.00072418,0.0024578,8.4394,0.0035501,0.0085085,1.7373e-08,0.48,0.18,0
0.028675,0.0042409,0.011233,-0.0015619,0.0029014,0.0017014,0,0,0.030459,-0.013644,0,0.016587,0,0,0,0.011489,-0.0018175,0.0029014,8.7817,0.0041909,0.011692,5.346e-08,0.5,0.18,0
0.028977,0.0041429,0.0093677,0.0003807,0.0029245,0.0013485,0,0,0.014658,-0.0087319,0,0.017846,0,0,0,0.0098285,-8.0062e-05,0.0029245,14.329,0.0042243,0.0088513,4.8475e-08,0.52,0.18,0
0.029261,0.0041477,0.0091029,0.00035765,0.0028382,0.0010327,0,0,0.014252,-0.0068975,0,0.011762,0,0,0,0.0093584,0.00010222,0.0028382,12.431,0.0040996,0.0082509,4.4821e-08,0.54,0.18,0
0.029547,0.0041681,0.009245,0.00053884,0.0029351,0.00053836,0,0,0.014355,-0.0060083,0,0.0062017,0,0,0,0.0093286,0.00045516,0.0029351,7.8649,0.0042397,0.007933,4.525e-08,0.56,0.18,0
0.029835,0.0042035,0.0093171,0.00060589,0.0029769,0.00014507,0,0,0.014424,-0.0056686,0,0.0016692,0,0,0,0.0093237,0.00059931,0.0029769,2.3306,0.0043,0.0078122,4.5713e-08,0.58,0.18,0
0.030124,0.004253,0.0093142,0.00059317,0.0029722,-0.00022546,0,0,0.014428,-0.0057094,0,-0.0025836,0,0,0,0.0093298,0.00057757,0.0029722,-3.5644,0.0042932,0.0078349,4.5774e-08,0.6,0.18,0
0.030412,0.0043168,0.0092382,0.00049967,0.0029214,-0.00061611,0,0,0.014371,-0.0061386,0,-0.0070938,0,0,0,0.0093449,0.00039292,0.0029214,-8.7419,0.0042197,0.0079977,4.5462e-08,0.62,0.18,0
0.030699,0.0043964,0.0090952,0.00028401,0.0028138,-0.0011067,0,0,0.01429,-0.0071439,0,-0.012616,0,0,0,0.0093801,-8.7768e-07,0.0028138,-12.9,0.0040643,0.0083548,4.5268e-08,0.64,0.18,0
0.030984,0.0044931,0.0093881,0.00028063,0.0029006,-0.0013968,0,0,0.014759,-0.0091502,0,-0.018559,0,0,0,0.0098704,-0.00020172,0.0029006,-14.42,0.0041898,0.0089904,4.9485e-08,0.66,0.18,0
0.031289,0.004699,0.011208,-0.0018639,0.0028031,-0.0017174,0,0,0.030674,-0.014306,0,-0.016684,0,0,0,0.011462,-0.0021186,0.0028031,-8.6825,0.0040489,0.011917,5.3688e-08,0.68,0.18,0
0.032519,0.0052246,0.0086597,-0.00077014,0.0023669,-0.0013661,0,0,0.057265,-0.028547,0,-0.024863,0,0,0,0.0088536,-0.00096405,0.0023669,-8.0791,0.0034188,0.0086475,1.7374e-08,0.7,0.18,0
0.03358,0.0058422,0.0081837,-0.00079531,0.0022165,-0.00071584,0,0,0.054301,-0.027408,0,-0.013028,0,0,0,0.0082404,-0.00085202,0.0022165,-4.5297,0.0032016,0.0080117,1.3951e-08,0.72,0.18,0
0.034691,0.0064542,0.0085494,-0.00028865,0.0024782,-0.00045503,0,0,0.055247,-0.025178,0,-0.0082816,0,0,0,0.0085727,-0.00031201,0.0024782,-2.9396,0.0035796,0.0078698,1.4839e-08,0.74,0.18,0
0.03579,0.0070828,0.0086541,2.7035e-05,0.0026043,-0.00023913,0,0,0.055053,-0.023453,0,-0.0043521,0,0,0,0.0086607,2.0412e-05,0.0026043,-1.5865,0.0037618,0.0076815,1.471e-08,0.76,0.18,0
0.036893,0.0076743,0.0088226,0.00035631,0.0027537,-0.00018999,0,0,0.055227,-0.021816,0,-0.0034578,0,0,0,0.0088268,0.00035205,0.0027537,-1.2849,0.0039775,0.0075655,1.4919e-08,0.78,0.18,0
0.037999,0.0082069,0.0089505,0.00050373,0.0028363,-0.00021172,0,0,0.05564,-0.021226,0,-0.0038533,0,0,0,0.0089559,0.00049843,0.0028363,-1.4349,0.0040969,0.0075645,1.5282e-08,0.8,0.18,0
0.039119,0.0086643,0.0090948,0.00052499,0.0028859,-0.00026138,0,0,0.056501,-0.021485,0,-0.0047571,0,0,0,0.0091028,0.00051703,0.0028859,-1.7453,0.0041686,0.0076804,1.6024e-08,0.82,0.18,0
0.040259,0.0090479,0.0092351,0.00045758,0.0029078,-0.00029609,0,0,0.057579,-0.022297,0,-0.0053889,0,0,0,0.0092451,0.00044761,0.0029078,-1.9298,0.0042002,0.0078616,1.6964e-08,0.84,0.18,0
0.041422,0.0093646,0.0093658,0.00035411,0.002916,-0.00030685,0,0,0.058693,-0.023313,0,-0.0055846,0,0,0,0.0093762,0.00034367,0.002916,-1.9479,0.0042119,0.0080604,1.7951e-08,0.86,0.18,0
0.042607,0.0096229,0.0094766,0.00024008,0.002915,-0.00029578,0,0,0.059711,-0.024342,0,-0.0053833,0,0,0,0.0094861,0.00023061,0.002915,-1.8323,0.0042106,0.0082477,1.8861e-08,0.88,0.18,0
0.04381,0.0098301,0.0095657,0.00012986,0.0029087,-0.00026789,0,0,0.060579,-0.025287,0,-0.0048757,0,0,0,0.0095733,0.00012226,0.0029087,-1.6249,0.0042014,0.0084114,1.9641e-08,0.9,0.18,0
0.04503,0.0099923,0.0096346,3.2367e-05,0.0029001,-0.00022742,0,0,0.061284,-0.026096,0,-0.004139,0,0,0,0.0096399,2.6984e-05,0.0029001,-1.356,0.004189,0.0085466,2.0275e-08,0.92,0.18,0
0.046262,0.010114,0.0096853,-4.7051e-05,0.0028915,-0.00017778,0,0,0.061824,-0.026741,0,-0.0032355,0,0,0,0.0096886,-5.0298e-05,0.0028915,-1.0461,0.0041766,0.0086516,2.076e-08,0.94,0.18,0
0.047503,0.010199,0.00972,-0.00010531,0.0028844,-0.0001218,0,0,0.062204,-0.027207,0,-0.0022167,0,0,0,0.0097215,-0.00010682,0.0028844,-0.71012,0.0041664,0.0087261,2.11e-08,0.96,0.18,0
0.04875,0.010249,0.0097402,-0.00014078,0.0028798,-6.1852e-05,0,0,0.062429,-0.027488,0,-0.0011257,0,0,0,0.0097406,-0.00014116,0.0028798,-0.35864,0.0041598,0.0087706,2.1301e-08,0.98,0.18,0
0.05,0.010265,0.0097468,-0.00015267,0.0028782,4.5273e-05,0,0,0.062504,-0.027581,0,0.00082397,0,0,0,0.009747,-0.00015288,0.0028782,0.26202,0.0041575,0.0087857,2.1369e-08,1,0.18,0
0,0,0.0094187,0.0040366,0.0040366,0.0018778,0,0,0.048977,-8.6736e-19,0,0.034175,0,0,0,0.010009,0.0034462,0.0040366,17.453,0.0058306,0.0062885,1.2393e-08,0,0.2,0
0.00097954,0.0006835,0.0093798,0.003575,0.0038864,0.0018727,0,0,0.049989,-0.0028342,0,0.034084,0,0,0,0.0099315,0.0030232,0.0038864,16.416,0.0056137,0.0065197,1.3396e-08,0.02,0.2,0
0.0019996,0.0013499,0.0095304,0.0031867,0.0038151,0.00184,0,0,0.052009,-0.0057187,0,0.033488,0,0,0,0.010025,0.0026916,0.0038151,15.059,0.0055107,0.0068416,1.4963e-08,0.04,0.2,0
0.0030599,0.0019964,0.0096749,0.0028002,0.0037425,0.0017955,0,0,0.053984,-0.0085754,0,0.032679,0,0,0,0.010116,0.0023595,0.0037425,13.79,0.0054059,0.0071654,1.6547e-08,0.06,0.2,0
0.004159,0.0026183,0.0098083,0.0024277,0.0036708,0.0017361,0,0,0.055851,-0.011312,0,0.031596,0,0,0,0.010196,0.0020398,0.0036708,12.597,0.0053023,0.0074756,1.8062e-08,0.08,0.2,0
0.0052939,0.0032102,0.0099263,0.0020809,0.0036022,0.0016625,0,0,0.05755,-0.013844,0,0.030257,0,0,0,0.010264,0.0017431,0.0036022,11.484,0.0052031,0.0077602,1.9438e-08,0.1,0.2,0
0.006461,0.0037665,0.010026,0.0017684,0.0035383,0.0015784,0,0,0.059037,-0.016106,0,0.028727,0,0,0,0.010317,0.001477,0.0035383,10.461,0.0051108,0.0080111,2.0629e-08,0.12,0.2,0
0.0076554,0.0042828,0.010106,0.0014958,0.0034804,0.0014889,0,0,0.060289,-0.01806,0,0.027097,0,0,0,0.010356,0.0012456,0.0034804,9.539,0.0050273,0.0082238,2.1612e-08,0.14,0.2,0
0.0088725,0.0047551,0.010166,0.0012658,0.0034294,0.0013988,0,0,0.0613,-0.019689,0,0.025459,0,0,0,0.01038,0.0010511,0.0034294,8.7253,0.0049536,0.0083966,2.2381e-08,0.16,0.2,0
0.010107,0.0051808,0.010207,0.0010789,0.0033858,0.0013126,0,0,0.062074,-0.020993,0,0.023889,0,0,0,0.010392,0.00089395,0.0033858,8.0223,0.0048906,0.0085297,2.2942e-08,0.18,0.2,0
0.011355,0.0055577,0.010231,0.00093446,0.0033497,0.0012331,0,0,0.062623,-0.021979,0,0.022443,0,0,0,0.010392,0.00077368,0.0033497,7.4286,0.0048385,0.008624,2.3303e-08,0.2,0.2,0
0.012612,0.0058842,0.01024,0.00083088,0.0033211,0.0011624,0,0,0.062957,-0.022661,0,0.021156,0,0,0,0.010381,0.0006894,0.0033211,6.9396,0.0047972,0.0086803,2.3474e-08,0.22,0.2,0
0.013874,0.0061588,0.010232,0.00076637,0.0032995,0.001101,0,0,0.063086,-0.023052,0,0.020038,0,0,0,0.010358,0.00064,0.0032995,6.5479,0.004766,0.0086991,2.3462e-08,0.24,0.2,0
0.015136,0.0063796,0.010209,0.00073876,0.0032842,0.0010486,0,0,0.063012,-0.023164,0,0.019085,0,0,0,0.010323,0.00062404,0.0032842,6.2436,0.0047439,0.0086805,2.3264e-08,0.26,0.2,0
0.016394,0.0065443,0.010168,0.00074528,0.0032739,0.0010037,0,0,0.062734,-0.02301,0,0.018268,0,0,0,0.010273,0.00063955,0.0032739,6.0135,0.004729,0.008624,2.2875e-08,0.28,0.2,0
0.017645,0.0066494,0.010106,0.00078195,0.0032665,0.00096345,0,0,0.062243,-0.02261,0,0.017535,0,0,0,0.010205,0.00068344,0.0032665,5.8379,0.0047183,0.0085285,2.2284e-08,0.3,0.2,0
0.018884,0.0066898,0.01002,0.00084238,0.0032587,0.00092268,0,0,0.061528,-0.021989,0,0.016793,0,0,0,0.010112,0.00075054,0.0032587,5.6844,0.0047071,0.0083933,2.1475e-08,0.32,0.2,0
0.020106,0.0066576,0.009904,0.0009152,0.0032458,0.0008724,0,0,0.06059,-0.021208,0,0.015878,0,0,0,0.0099879,0.00083131,0.0032458,5.4925,0.0046883,0.0082198,2.0445e-08,0.34,0.2,0
0.021308,0.0065412,0.0097634,0.0009807,0.0032232,0.00079699,0,0,0.059516,-0.020407,0,0.014505,0,0,0,0.0098352,0.00090896,0.0032232,5.1433,0.0046558,0.0080234,1.9276e-08,0.36,0.2,0
0.022487,0.0063239,0.0096369,0.00099094,0.0031883,0.00068887,0,0,0.058682,-0.019996,0,0.012537,0,0,0,0.0096914,0.00093639,0.0031883,4.527,0.0046054,0.0078744,1.8335e-08,0.38,0.2,0
0.023655,0.0059964,0.0094904,0.00077218,0.0030788,0.00056803,0,0,0.058346,-0.02099,0,0.010338,0,0,0,0.0095272,0.00073533,0.0030788,3.7122,0.0044471,0.0078858,1.789e-08,0.4,0.2,0
0.024821,0.0055591,0.0094485,0.00038271,0.0029493,0.00057899,0,0,0.059142,-0.023356,0,0.010538,0,0,0,0.0094853,0.00034588,0.0029493,3.6395,0.0042602,0.0081555,1.8589e-08,0.42,0.2,0
0.02602,0.0050727,0.0091424,-0.00037802,0.0026293,0.00066519,0,0,0.059269,-0.027367,0,0.012106,0,0,0,0.0091886,-0.00042427,0.0026293,3.9775,0.0037979,0.0085076,1.8442e-08,0.44,0.2,0
0.027192,0.0045354,0.0096854,-0.00052672,0.0027476,0.0011743,0,0,0.063134,-0.029796,0,0.021373,0,0,0,0.0098187,-0.00066002,0.0027476,6.4761,0.0039688,0.0092579,2.2927e-08,0.46,0.2,0
0.028546,0.0040626,0.012574,-0.00060083,0.0035921,0.001216,0,0,0.033331,-0.014763,0,0.012493,0,0,0,0.012704,-0.00073028,0.0035921,6.1039,0.0051886,0.011879,6.9281e-08,0.48,0.2,0
0.028869,0.0040611,0.0072758,-0.0014122,0.0017591,0.00048513,0,0,0.014087,-0.0079758,0,0.0053828,0,0,0,0.0073313,-0.0014677,0.0017591,6.101,0.0025409,0.0077099,2.4194e-08,0.5,0.2,0
0.029068,0.0040468,0.011634,-0.00021264,0.0034264,0.00061398,0,0,0.01067,-0.0047307,0,0.0015963,0,0,0,0.011666,-0.00024438,0.0034264,2.9589,0.0049492,0.010564,3.6831e-08,0.52,0.2,0
0.029295,0.0040432,0.013194,0.00034186,0.0040608,0.0004219,0,0,0.011873,-0.0048346,0,0.0010969,0,0,0,0.013208,0.00032802,0.0040608,1.8781,0.0058655,0.011478,5.0878e-08,0.54,0.2,0
0.029543,0.0040627,0.014123,0.00065215,0.0044325,0.00027401,0,0,0.012597,-0.0049144,0,0.00071242,0,0,0,0.014128,0.00064657,0.0044325,1.1648,0.0064025,0.012044,6.0741e-08,0.56,0.2,0
0.029799,0.0040974,0.014443,0.00074508,0.0045564,6.949e-05,0,0,0.012852,-0.0049547,0,0.00018067,0,0,0,0.014443,0.00074473,0.0045564,0.29066,0.0065814,0.012246,6.4429e-08,0.58,0.2,0
0.030057,0.0041467,0.014431,0.00072927,0.004548,-0.00013343,0,0,0.012848,-0.0049644,0,-0.00034692,0,0,0,0.014432,0.00072797,0.004548,-0.5579,0.0065694,0.012249,6.4372e-08,0.6,0.2,0
0.030313,0.0042108,0.014085,0.00060228,0.0044062,-0.00033544,0,0,0.012583,-0.0049451,0,-0.00087215,0,0,0,0.014094,0.00059394,0.0044062,-1.4243,0.0063646,0.012054,6.056e-08,0.62,0.2,0
0.030561,0.0042906,0.013121,0.00024667,0.0040104,-0.00047492,0,0,0.011844,-0.0048928,0,-0.0012348,0,0,0,0.013139,0.00022917,0.0040104,-2.1098,0.0057927,0.011495,5.0508e-08,0.64,0.2,0
0.030787,0.0043951,0.011533,-0.00036632,0.0033501,-0.00066256,0,0,0.010638,-0.0048314,0,-0.0017227,0,0,0,0.01157,-0.0004031,0.0033501,-3.177,0.0048391,0.010607,3.6428e-08,0.66,0.2,0
0.030986,0.0045113,0.0071813,-0.0016228,0.0016676,-0.00051223,0,0,0.014091,-0.0083009,0,-0.0055607,0,0,0,0.0072397,-0.0016812,0.0016676,-6.2127,0.0024087,0.0078053,2.3568e-08,0.68,0.2,0
0.031309,0.0046171,0.012423,-0.0010023,0.0034261,-0.0011826,0,0,0.033404,-0.015612,0,-0.012039,0,0,0,0.012542,-0.0011215,0.0034261,-5.8103,0.0049489,0.012052,6.8409e-08,0.7,0.2,0
0.032667,0.0052309,0.0095837,-0.00088407,0.0026099,-0.0010792,0,0,0.063461,-0.031795,0,-0.019642,0,0,0,0.0096938,-0.00099418,0.0026099,-5.8256,0.0037698,0.0094182,2.2698e-08,0.72,0.2,0
0.033848,0.0059236,0.0090482,-0.00075065,0.0024893,-0.00052043,0,0,0.059686,-0.029483,0,-0.0094718,0,0,0,0.0090757,-0.00077821,0.0024893,-3.0317,0.0035956,0.0086936,1.8386e-08,0.74,0.2,0
0.035055,0.0065892,0.0093301,-2.0067e-05,0.002793,-0.00036357,0,0,0.059487,-0.025599,0,-0.0066169,0,0,0,0.0093442,-3.4183e-05,0.002793,-2.2234,0.0040343,0.0083326,1.8594e-08,0.76,0.2,0
0.036227,0.0072264,0.00936,0.00037259,0.0029198,-0.00029025,0,0,0.058606,-0.023179,0,-0.0052825,0,0,0,0.0093694,0.00036323,0.0029198,-1.8478,0.0042175,0.0080388,1.7866e-08,0.78,0.2,0
0.037399,0.007773,0.0094886,0.00058788,0.0030229,-0.00035336,0,0,0.058838,-0.022159,0,-0.0064311,0,0,0,0.0095026,0.00057387,0.0030229,-2.2698,0.0043665,0.0079908,1.8146e-08,0.8,0.2,0
0.038581,0.0082252,0.0096037,0.00056363,0.0030502,-0.00040866,0,0,0.059637,-0.022628,0,-0.0074377,0,0,0,0.0096221,0.00054519,0.0030502,-2.5831,0.0044058,0.0081196,1.8929e-08,0.82,0.2,0
0.039785,0.0085906,0.0097382,0.00046492,0.0030609,-0.00042891,0,0,0.060763,-0.023624,0,-0.0078062,0,0,0,0.009758,0.00044513,0.0030609,-2.6426,0.0044214,0.0083193,2.0016e-08,0.84,0.2,0
0.041011,0.0088856,0.0098552,0.00034012,0.0030586,-0.00041679,0,0,0.061849,-0.024738,0,-0.0075856,0,0,0,0.0098735,0.00032189,0.0030586,-2.5033,0.004418,0.0085195,2.1062e-08,0.86,0.2,0
0.042258,0.0091224,0.0099477,0.00020933,0.0030471,-0.00038366,0,0,0.062795,-0.025824,0,-0.0069826,0,0,0,0.0099628,0.00019424,0.0030471,-2.2526,0.0044014,0.0087003,2.197e-08,0.88,0.2,0
0.043523,0.0093101,0.010019,8.6312e-05,0.0030316,-0.00033614,0,0,0.063587,-0.026802,0,-0.0061177,0,0,0,0.01003,7.495e-05,0.0030316,-1.936,0.004379,0.0088555,2.2725e-08,0.9,0.2,0
0.044802,0.0094558,0.010073,-2.0599e-05,0.0030158,-0.00027848,0,0,0.064222,-0.027631,0,-0.0050684,0,0,0,0.010081,-2.8276e-05,0.0030158,-1.5792,0.0043561,0.0089826,2.3326e-08,0.92,0.2,0
0.046092,0.0095643,0.010112,-0.00010655,0.0030017,-0.00021388,0,0,0.064706,-0.028285,0,-0.0038926,0,0,0,0.010117,-0.00011102,0.0030017,-1.1985,0.0043358,0.0090808,2.3779e-08,0.94,0.2,0
0.04739,0.0096395,0.010139,-0.00016902,0.0029909,-0.00014476,0,0,0.065045,-0.028755,0,-0.0026347,0,0,0,0.010141,-0.00017105,0.0029909,-0.80446,0.0043202,0.0091501,2.4094e-08,0.96,0.2,0
0.048694,0.0096837,0.010154,-0.00020682,0.0029841,-7.2991e-05,0,0,0.065244,-0.029037,0,-0.0013284,0,0,0,0.010154,-0.00020733,0.0029841,-0.40362,0.0043104,0.0091913,2.4278e-08,0.98,0.2,0
0.05,0.0096983,0.010159,-0.00021946,0.0029818,4.0049e-05,0,0,0.06531,-0.029131,0,0.00072889,0,0,0,0.010159,-0.00021962,0.0029818,0.2211,0.004307,0.0092052,2.434e-08,1,0.2,0
0,0,0.0094878,0.0040662,0.0040662,0.0017218,0,0,0.049336,-3.2526e-19,0,0.031337,0,0,0,0.0099884,0.0035656,0.0040662,16.211,0.0058734,0.0061877,1.19e-08,0,0.22,0
0.00098673,0.00062674,0.0094478,0.0036015,0.0039148,0.0017179,0,0,0.05035,-0.0028508,0,0.031265,0,0,0,0.0099152,0.0031341,0.0039148,15.221,0.0056547,0.0064264,1.2955e-08,0.02,0.22,0
0.002014,0.0012361,0.0096008,0.0032212,0.0038466,0.0016882,0,0,0.052363,-0.005691,0,0.030725,0,0,0,0.01002,0.002802,0.0038466,13.945,0.0055562,0.0067565,1.4573e-08,0.04,0.22,0
0.0030812,0.0018263,0.0097487,0.0028478,0.003779,0.0016514,0,0,0.054325,-0.0084734,0,0.030056,0,0,0,0.010124,0.002473,0.003779,12.788,0.0054585,0.0070884,1.6219e-08,0.06,0.22,0
0.004187,0.0023944,0.0098884,0.0024895,0.0037134,0.0016042,0,0,0.056193,-0.011137,0,0.029197,0,0,0,0.010221,0.0021567,0.0037134,11.722,0.0053638,0.0074099,1.7827e-08,0.08,0.22,0
0.005329,0.0029361,0.010017,0.0021545,0.0036514,0.0015464,0,0,0.057925,-0.013622,0,0.028145,0,0,0,0.01031,0.0018612,0.0036514,10.737,0.0052742,0.0077112,1.9339e-08,0.1,0.22,0
0.006504,0.0034473,0.010131,0.0018495,0.0035943,0.0014801,0,0,0.059488,-0.015877,0,0.026938,0,0,0,0.010388,0.0015929,0.0035943,9.8344,0.0051917,0.0079848,2.0713e-08,0.12,0.22,0
0.0077085,0.003924,0.010231,0.0015797,0.0035432,0.0014087,0,0,0.060859,-0.017868,0,0.025639,0,0,0,0.010455,0.0013561,0.0035432,9.0193,0.005118,0.008226,2.192e-08,0.14,0.22,0
0.0089384,0.0043629,0.010315,0.0013481,0.003499,0.0013361,0,0,0.062028,-0.019574,0,0.024317,0,0,0,0.01051,0.0011532,0.003499,8.2969,0.0050541,0.0084324,2.2949e-08,0.16,0.22,0
0.01019,0.0047614,0.010385,0.0011561,0.0034623,0.0012659,0,0,0.062995,-0.020986,0,0.02304,0,0,0,0.010555,0.00098557,0.0034623,7.6706,0.005001,0.008603,2.3796e-08,0.18,0.22,0
0.011458,0.0051171,0.010441,0.001004,0.0034333,0.0012012,0,0,0.063765,-0.022107,0,0.021861,0,0,0,0.010591,0.00085352,0.0034333,7.1415,0.0049593,0.008738,2.4464e-08,0.2,0.22,0
0.01274,0.0054284,0.010483,0.00089154,0.0034125,0.001144,0,0,0.064345,-0.02294,0,0.020821,0,0,0,0.010618,0.00075697,0.0034125,6.7085,0.0049291,0.0088376,2.4959e-08,0.22,0.22,0
0.014032,0.0056936,0.010514,0.0008178,0.0033996,0.0010958,0,0,0.064742,-0.023494,0,0.019944,0,0,0,0.010636,0.0006955,0.0033996,6.3681,0.0049105,0.0089024,2.5284e-08,0.24,0.22,0
0.01533,0.0059105,0.010533,0.00078161,0.0033945,0.0010569,0,0,0.064963,-0.023777,0,0.019235,0,0,0,0.010646,0.00066839,0.0033945,6.1149,0.0049031,0.0089327,2.5442e-08,0.26,0.22,0
0.01663,0.0060767,0.01054,0.00078124,0.0033965,0.0010267,0,0,0.06501,-0.023799,0,0.018685,0,0,0,0.010647,0.0006744,0.0033965,5.9408,0.0049061,0.0089287,2.5429e-08,0.28,0.22,0
0.01793,0.0061883,0.010534,0.00081393,0.0034044,0.0010036,0,0,0.06488,-0.023574,0,0.018266,0,0,0,0.010637,0.00071139,0.0034044,5.8338,0.0049175,0.0088901,2.5237e-08,0.3,0.22,0
0.019226,0.0062399,0.010511,0.00087492,0.0034156,0.00098449,0,0,0.064563,-0.02312,0,0.017918,0,0,0,0.01061,0.00077536,0.0034156,5.7745,0.0049337,0.0088162,2.4845e-08,0.32,0.22,0
0.020513,0.0062228,0.010461,0.0009558,0.0034252,0.00096273,0,0,0.06403,-0.022471,0,0.017522,0,0,0,0.010558,0.00085927,0.0034252,5.7255,0.0049474,0.0087041,2.4209e-08,0.34,0.22,0
0.021787,0.0061234,0.010368,0.0010374,0.0034217,0.00092256,0,0,0.063214,-0.021697,0,0.016791,0,0,0,0.010459,0.00094706,0.0034217,5.5928,0.0049425,0.0085473,2.3239e-08,0.36,0.22,0
0.023041,0.0059183,0.010252,0.0011013,0.0034058,0.00082285,0,0,0.062295,-0.020971,0,0.014976,0,0,0,0.010325,0.0010279,0.0034058,5.0979,0.0049195,0.0083654,2.2078e-08,0.38,0.22,0
0.024279,0.0055645,0.010273,0.0010333,0.0033917,0.00068014,0,0,0.062615,-0.021462,0,0.012379,0,0,0,0.010322,0.00098352,0.0033917,4.1877,0.0048992,0.0083978,2.2195e-08,0.4,0.22,0
0.025546,0.0050783,0.0099479,0.00010524,0.0030159,0.00056129,0,0,0.063081,-0.026488,0,0.010216,0,0,0,0.0099799,7.3331e-05,0.0030159,3.2533,0.0043564,0.0088118,2.2385e-08,0.42,0.22,0
0.026802,0.0044691,0.010496,-0.0004011,0.0030286,0.0010043,0,0,0.067957,-0.03121,0,0.018278,0,0,0,0.010588,-0.00049287,0.0030286,5.2215,0.0043746,0.0098066,2.8227e-08,0.44,0.22,0
0.028264,0.0039206,0.013718,-0.00024745,0.0040411,0.00068181,0,0,0.035951,-0.01548,0,0.0094058,0,0,0,0.013777,-0.00030667,0.0040411,3.7981,0.0058371,0.012491,8.5984e-08,0.46,0.22,0
0.028612,0.0039067,0.0081512,-0.00053902,0.0022836,-9.1954e-05,0,0,0.015071,-0.0070113,0,0.00087241,0,0,0,0.0081585,-0.00054632,0.0022836,0.83155,0.0032986,0.0076909,3.097e-08,0.48,0.22,0
0.028821,0.0039422,0.011742,-0.001271,0.0031413,-0.0004382,0,0,0.011181,-0.0057361,0,-0.0011393,0,0,0,0.011757,-0.0012858,0.0031413,-1.9264,0.0045375,0.011488,4.0697e-08,0.5,0.22,0
0.029059,0.0039537,0.012876,5.6983e-05,0.00388,-0.00037514,0,0,0.011695,-0.0049699,0,-0.00097537,0,0,0,0.012887,4.6014e-05,0.00388,-1.6748,0.0056044,0.011418,4.8402e-08,0.52,0.22,0
0.029289,0.0039543,0.012966,0.00060005,0.0040698,-0.00023139,0,0,0.011565,-0.0045106,0,-0.00060162,0,0,0,0.01297,0.00059572,0.0040698,-1.0716,0.0058785,0.011055,4.6985e-08,0.54,0.22,0
0.029521,0.0039715,0.013228,0.00076792,0.0041988,-7.6599e-05,0,0,0.011738,-0.0044601,0,-0.00019916,0,0,0,0.013228,0.00076745,0.0041988,-0.35221,0.0060649,0.011149,4.9101e-08,0.56,0.22,0
0.029759,0.0040053,0.01343,0.00085771,0.0042863,-2.6093e-05,0,0,0.011887,-0.0044572,0,-6.7843e-05,0,0,0,0.01343,0.00085766,0.0042863,-0.11892,0.0061913,0.011257,5.0997e-08,0.58,0.22,0
0.029997,0.0040544,0.013412,0.00083969,0.0042754,-9.5561e-06,0,0,0.011877,-0.0044665,0,-2.4846e-05,0,0,0,0.013412,0.00083968,0.0042754,-0.043551,0.0061756,0.011255,5.0871e-08,0.6,0.22,0
0.030234,0.004119,0.013172,0.00071162,0.004165,4.6505e-05,0,0,0.011709,-0.0044894,0,0.00012091,0,0,0,0.013172,0.00071145,0.004165,0.21384,0.0060161,0.011142,4.872e-08,0.62,0.22,0
0.030465,0.0042007,0.012874,0.00050009,0.0040122,0.00021146,0,0,0.01152,-0.0045658,0,0.00054979,0,0,0,0.012878,0.00049647,0.0040122,0.97875,0.0057954,0.011051,4.64e-08,0.64,0.22,0
0.030694,0.0042998,0.012747,-0.00011817,0.0037886,0.00036812,0,0,0.011646,-0.0050788,0,0.00095712,0,0,0,0.012757,-0.0001287,0.0037886,1.6377,0.0054724,0.011442,4.7638e-08,0.66,0.22,0
0.030931,0.0043887,0.011588,-0.0015442,0.0030133,0.00042222,0,0,0.011148,-0.0059247,0,0.0010978,0,0,0,0.011602,-0.0015578,0.0030133,1.8395,0.0043525,0.011572,3.9786e-08,0.68,0.22,0
0.03114,0.0044525,0.0080407,-0.00078221,0.0021776,9.315e-05,0,0,0.015066,-0.0073743,0,-0.00085206,0,0,0,0.0080478,-0.00078929,0.0021776,-0.79368,0.0031454,0.0077898,3.0458e-08,0.7,0.22,0
0.031488,0.0045704,0.013494,-0.00079491,0.0038096,-0.00059187,0,0,0.036018,-0.016625,0,-0.0084394,0,0,0,0.01354,-0.00084151,0.0038096,-3.2943,0.0055027,0.012711,8.4686e-08,0.72,0.22,0
0.032954,0.0052749,0.010354,-0.00088469,0.0028407,-0.000845,0,0,0.068368,-0.033901,0,-0.015379,0,0,0,0.010417,-0.00094787,0.0028407,-4.276,0.0041032,0.010023,2.7917e-08,0.74,0.22,0
0.034222,0.0060589,0.0098298,-0.000362,0.0028404,-0.00033722,0,0,0.063604,-0.029141,0,-0.0061374,0,0,0,0.009841,-0.00037314,0.0028404,-1.893,0.0041027,0.0090461,2.248e-08,0.76,0.22,0
0.035498,0.0067472,0.010137,0.00057165,0.0032126,-0.0003832,0,0,0.063012,-0.024033,0,-0.0069742,0,0,0,0.010152,0.00055633,0.0032126,-2.2904,0.0046404,0.0085819,2.2286e-08,0.78,0.22,0
0.036743,0.0073205,0.010114,0.00065462,0.0032305,-0.00047745,0,0,0.062637,-0.023441,0,-0.0086896,0,0,0,0.010138,0.00063058,0.0032305,-2.8822,0.0046663,0.0085105,2.1982e-08,0.8,0.22,0
0.038004,0.0077592,0.010228,0.00057341,0.0032403,-0.00053268,0,0,0.063585,-0.024269,0,-0.0096948,0,0,0,0.010257,0.00054411,0.0032403,-3.1486,0.0046805,0.0086846,2.3033e-08,0.82,0.22,0
0.039286,0.008103,0.010333,0.00045409,0.003236,-0.00052706,0,0,0.064579,-0.025316,0,-0.0095926,0,0,0,0.010361,0.00042605,0.003236,-3.0455,0.0046742,0.00887,2.409e-08,0.84,0.22,0
0.040587,0.0083751,0.010402,0.00030946,0.0032133,-0.00049383,0,0,0.065413,-0.026425,0,-0.0089876,0,0,0,0.010426,0.00028536,0.0032133,-2.7947,0.0046415,0.0090393,2.495e-08,0.86,0.22,0
0.041903,0.0085899,0.010452,0.00016301,0.0031846,-0.00044412,0,0,0.066137,-0.027497,0,-0.008083,0,0,0,0.010472,0.00014387,0.0031846,-2.4669,0.0046,0.0091926,2.5677e-08,0.88,0.22,0
0.043232,0.008758,0.010491,2.8327e-05,0.0031559,-0.0003824,0,0,0.066752,-0.028461,0,-0.0069597,0,0,0,0.010505,1.437e-05,0.0031559,-2.0903,0.0045585,0.0093257,2.628e-08,0.9,0.22,0
0.044573,0.0088871,0.01052,-8.6315e-05,0.0031302,-0.00031244,0,0,0.06725,-0.02927,0,-0.0056863,0,0,0,0.01053,-9.5511e-05,0.0031302,-1.6858,0.0045214,0.0094352,2.6757e-08,0.92,0.22,0
0.045922,0.0089827,0.010541,-0.00017705,0.0031092,-0.00023734,0,0,0.067629,-0.029905,0,-0.0043196,0,0,0,0.010546,-0.0001823,0.0031092,-1.2679,0.004491,0.0095195,2.7112e-08,0.94,0.22,0
0.047278,0.0090485,0.010554,-0.00024227,0.0030936,-0.00015937,0,0,0.067893,-0.030357,0,-0.0029005,0,0,0,0.010557,-0.00024462,0.0030936,-0.8455,0.0044686,0.0095789,2.7356e-08,0.96,0.22,0
0.048638,0.0090871,0.010562,-0.00028145,0.0030841,-7.997e-05,0,0,0.068048,-0.030627,0,-0.0014555,0,0,0,0.010563,-0.00028204,0.0030841,-0.42253,0.0044549,0.0096141,2.7497e-08,0.98,0.22,0
0.05,0.0090998,0.010564,-0.00029451,0.0030809,3.4942e-05,0,0,0.068099,-0.030717,0,0.00063594,0,0,0,0.010564,-0.00029462,0.0030809,0.18437,0.0044503,0.0096259,2.7544e-08,1,0.22,0
0,0,0.0095586,0.0040966,0.0040966,0.0015645,0,0,0.049705,-1.1926e-18,0,0.028474,0,0,0,0.009975,0.0036802,0.0040966,14.903,0.0059172,0.0060973,1.1459e-08,0,0.24,0
0.0009941,0.00056947,0.0095176,0.0036269,0.0039433,0.0015612,0,0,0.050725,-0.0028793,0,0.028414,0,0,0,0.0099058,0.0032387,0.0039433,13.963,0.0056959,0.0063441,1.257e-08,0.02,0.24,0
0.002029,0.0011223,0.0096731,0.0032509,0.0038772,0.0015346,0,0,0.052743,-0.0056992,0,0.02793,0,0,0,0.010021,0.0029031,0.0038772,12.772,0.0056004,0.0066843,1.4246e-08,0.04,0.24,0
0.0031038,0.0016575,0.0098244,0.0028864,0.0038132,0.0015036,0,0,0.054701,-0.0084343,0,0.027366,0,0,0,0.010136,0.0025745,0.0038132,11.717,0.005508,0.0070247,1.5954e-08,0.06,0.24,0
0.0042171,0.0021728,0.0099695,0.0025384,0.0037524,0.0014653,0,0,0.056576,-0.011047,0,0.026668,0,0,0,0.010248,0.00226,0.0037524,10.761,0.0054201,0.0073562,1.7642e-08,0.08,0.24,0
0.0053668,0.0026653,0.010106,0.0022127,0.0036957,0.0014189,0,0,0.058337,-0.013496,0,0.025824,0,0,0,0.010354,0.0019654,0.0036957,9.8866,0.0053383,0.007671,1.9266e-08,0.1,0.24,0
0.0065506,0.0031314,0.010234,0.0019144,0.0036444,0.0013656,0,0,0.059962,-0.015743,0,0.024854,0,0,0,0.010452,0.001696,0.0036444,9.0874,0.0052642,0.0079627,2.0789e-08,0.12,0.24,0
0.0077653,0.0035681,0.01035,0.0016477,0.0035993,0.0013078,0,0,0.061432,-0.01776,0,0.023801,0,0,0,0.010542,0.0014554,0.0035993,8.3641,0.005199,0.0082272,2.2187e-08,0.14,0.24,0
0.0090078,0.0039722,0.010455,0.0014156,0.0035613,0.0012484,0,0,0.062737,-0.019526,0,0.022721,0,0,0,0.010625,0.0012463,0.0035613,7.7201,0.0051441,0.0084618,2.3444e-08,0.16,0.24,0
0.010275,0.0043414,0.01055,0.0012199,0.003531,0.0011906,0,0,0.063875,-0.021032,0,0.021669,0,0,0,0.0107,0.0010704,0.003531,7.1584,0.0051004,0.0086653,2.4555e-08,0.18,0.24,0
0.011563,0.0046735,0.010635,0.0010616,0.0035091,0.001137,0,0,0.064849,-0.022272,0,0.020694,0,0,0,0.010769,0.00092845,0.0035091,6.6811,0.0050687,0.0088371,2.5519e-08,0.2,0.24,0
0.012869,0.0049666,0.010712,0.00094134,0.003496,0.0010899,0,0,0.065665,-0.023247,0,0.019837,0,0,0,0.010832,0.00082124,0.003496,6.2884,0.0050498,0.0089774,2.6341e-08,0.22,0.24,0
0.014189,0.005219,0.010781,0.00085906,0.0034921,0.0010506,0,0,0.066332,-0.023961,0,0.019121,0,0,0,0.010891,0.00074903,0.0034921,5.9784,0.0050442,0.0090868,2.7027e-08,0.24,0.24,0
0.015522,0.0054285,0.010845,0.00081457,0.0034979,0.0010197,0,0,0.06686,-0.024418,0,0.018558,0,0,0,0.010948,0.00071196,0.0034979,5.7463,0.0050525,0.0091661,2.7582e-08,0.26,0.24,0
0.016864,0.0055923,0.010905,0.00080728,0.0035138,0.00099682,0,0,0.067263,-0.024629,0,0.018142,0,0,0,0.011003,0.00070982,0.0035138,5.5841,0.0050754,0.0092166,2.8019e-08,0.28,0.24,0
0.018212,0.0057065,0.010964,0.00083586,0.00354,0.0009806,0,0,0.067559,-0.024608,0,0.017847,0,0,0,0.011058,0.0007418,0.00354,5.4795,0.0051133,0.0092407,2.835e-08,0.3,0.24,0
0.019566,0.0057649,0.011025,0.00089769,0.0035767,0.0009686,0,0,0.067776,-0.024379,0,0.017629,0,0,0,0.011116,0.00080588,0.0035767,5.4147,0.0051663,0.0092421,2.8597e-08,0.32,0.24,0
0.020924,0.0057587,0.011088,0.00098706,0.0036225,0.00095657,0,0,0.067935,-0.023983,0,0.01741,0,0,0,0.011178,0.00089727,0.0036225,5.3625,0.0052325,0.0092249,2.8772e-08,0.34,0.24,0
0.022284,0.0056733,0.011148,0.0010932,0.0036724,0.00093777,0,0,0.06803,-0.023471,0,0.017067,0,0,0,0.011235,0.0010065,0.0036724,5.2829,0.0053046,0.0091902,2.8846e-08,0.36,0.24,0
0.023645,0.005485,0.011118,0.001158,0.0036827,0.00088128,0,0,0.067658,-0.022975,0,0.016039,0,0,0,0.011195,0.0010806,0.0036827,5.0178,0.0053194,0.0090969,2.8265e-08,0.38,0.24,0
0.02499,0.0051379,0.011026,0.0011848,0.0036632,0.00068404,0,0,0.067001,-0.022554,0,0.01245,0,0,0,0.011073,0.0011375,0.0036632,3.9572,0.0052913,0.0089445,2.7112e-08,0.4,0.24,0
0.026325,0.0044996,0.011578,0.00028018,0.0035574,0.00081189,0,0,0.072986,-0.029823,0,0.014776,0,0,0,0.011636,0.00022214,0.0035574,4.0895,0.0051385,0.010165,3.5018e-08,0.42,0.24,0
0.027909,0.0038243,0.015239,-0.00022644,0.0045039,0.00023394,0,0,0.03937,-0.016619,0,0.0066672,0,0,0,0.015274,-0.00026119,0.0045039,1.9888,0.0065056,0.013785,1.1936e-07,0.44,0.24,0
0.028298,0.0037636,0.0091809,-0.00012761,0.002716,-0.00045221,0,0,0.016736,-0.0070603,0,-0.0017493,0,0,0,0.0092038,-0.00015055,0.002716,-2.2203,0.0039231,0.0083014,4.2181e-08,0.46,0.24,0
0.028525,0.0037979,0.012904,-0.00051846,0.0037157,-0.00063063,0,0,0.011945,-0.0055044,0,-0.0016396,0,0,0,0.012934,-0.00054803,0.0037157,-2.684,0.0053671,0.011935,5.1249e-08,0.48,0.24,0
0.028776,0.0038316,0.013309,-0.00051484,0.0038383,-0.0004113,0,0,0.012312,-0.005659,0,-0.0010694,0,0,0,0.013321,-0.00052707,0.0038383,-1.7027,0.0055442,0.012263,5.5848e-08,0.5,0.24,0
0.029017,0.003848,0.013025,-0.00021736,0.0038424,-0.00052662,0,0,0.011938,-0.0052776,0,-0.0013692,0,0,0,0.013046,-0.00023827,0.0038424,-2.2737,0.0055501,0.011786,5.1376e-08,0.52,0.24,0
0.029254,0.0038628,0.013018,0.00043053,0.0040345,-0.00041608,0,0,0.011678,-0.0046852,0,-0.0010818,0,0,0,0.013032,0.00041679,0.0040345,-1.8912,0.0058277,0.011251,4.8463e-08,0.54,0.24,0
0.029484,0.0038843,0.012951,0.00072378,0.0041025,-0.00024219,0,0,0.011503,-0.0043923,0,-0.00062969,0,0,0,0.012956,0.00071898,0.0041025,-1.1343,0.0059258,0.010945,4.6277e-08,0.56,0.24,0
0.029714,0.0039191,0.012947,0.00082733,0.0041324,-7.6354e-05,0,0,0.011459,-0.0042966,0,-0.00019852,0,0,0,0.012948,0.00082685,0.0041324,-0.36093,0.005969,0.010852,4.5698e-08,0.58,0.24,0
0.029943,0.003968,0.012929,0.00080593,0.0041204,7.5145e-05,0,0,0.011451,-0.0043089,0,0.00019538,0,0,0,0.012929,0.00080546,0.0041204,0.35513,0.0059517,0.010853,4.5595e-08,0.6,0.24,0
0.030172,0.0040312,0.012896,0.00065836,0.0040663,0.00024885,0,0,0.011479,-0.0044303,0,0.00064701,0,0,0,0.012901,0.0006533,0.0040663,1.1645,0.0058735,0.010948,4.5969e-08,0.62,0.24,0
0.030402,0.004108,0.012924,0.00031345,0.0039712,0.00043591,0,0,0.011639,-0.0047551,0,0.0011334,0,0,0,0.012939,0.0002984,0.0039712,1.9774,0.0057363,0.011263,4.7933e-08,0.64,0.24,0
0.030637,0.0041919,0.012894,-0.00039945,0.0037484,0.00055506,0,0,0.01189,-0.0053923,0,0.0014432,0,0,0,0.012917,-0.00042259,0.0037484,2.3868,0.0054144,0.01182,5.0589e-08,0.66,0.24,0
0.030877,0.0042743,0.013133,-0.00078862,0.0037034,0.00043956,0,0,0.012259,-0.0058397,0,0.0011429,0,0,0,0.013147,-0.00080248,0.0037034,1.8066,0.0053494,0.01233,5.4747e-08,0.68,0.24,0
0.031128,0.0043392,0.012728,-0.00086228,0.0035597,0.00063398,0,0,0.011919,-0.0057486,0,0.0016484,0,0,0,0.012757,-0.00089179,0.0035597,2.6651,0.0051418,0.012056,5.0406e-08,0.7,0.24,0
0.031354,0.0044019,0.0090614,-0.00044465,0.002585,0.00047662,0,0,0.016775,-0.0075494,0,0.0019288,0,0,0,0.0090861,-0.00046931,0.002585,2.3724,0.003734,0.0084531,4.1919e-08,0.72,0.24,0
0.031744,0.0045676,0.01497,-0.00098179,0.0041965,-7.7495e-05,0,0,0.039546,-0.018212,0,-0.0050823,0,0,0,0.014996,-0.0010073,0.0041965,-1.2762,0.0060616,0.014139,1.1825e-07,0.74,0.24,0
0.033337,0.0054235,0.011401,-0.0003445,0.0033169,-0.00056738,0,0,0.073563,-0.033318,0,-0.010326,0,0,0,0.011428,-0.00037185,0.0033169,-2.7592,0.004791,0.010455,3.5024e-08,0.76,0.24,0
0.034687,0.0062651,0.010908,0.00070396,0.0034835,-0.00038192,0,0,0.06756,-0.025294,0,-0.006951,0,0,0,0.010922,0.00068969,0.0034835,-2.1406,0.0050317,0.0091606,2.7454e-08,0.78,0.24,0
0.036039,0.0068353,0.010976,0.00066727,0.0034931,-0.00053635,0,0,0.068097,-0.025715,0,-0.0097616,0,0,0,0.011004,0.00063944,0.0034931,-2.9703,0.0050455,0.0092732,2.8261e-08,0.8,0.24,0
0.037411,0.0072544,0.011031,0.00059596,0.003488,-0.0005634,0,0,0.068639,-0.026318,0,-0.010254,0,0,0,0.011061,0.00056563,0.003488,-3.0816,0.0050383,0.0093821,2.8955e-08,0.82,0.24,0
0.038785,0.007578,0.011,0.00044509,0.0034337,-0.00054871,0,0,0.068858,-0.027196,0,-0.0099865,0,0,0,0.011029,0.00041664,0.0034337,-2.9678,0.0049597,0.0094713,2.9175e-08,0.84,0.24,0
0.040165,0.0078286,0.010978,0.00027508,0.003376,-0.00051576,0,0,0.06918,-0.028218,0,-0.0093868,0,0,0,0.011003,0.00025029,0.003376,-2.7524,0.0048764,0.0095803,2.9486e-08,0.86,0.24,0
0.041552,0.0080225,0.010967,0.00010859,0.0033228,-0.00046375,0,0,0.069567,-0.02925,0,-0.0084403,0,0,0,0.010987,8.8825e-05,0.0033228,-2.441,0.0047996,0.0096948,2.9847e-08,0.88,0.24,0
0.042947,0.0081717,0.010964,-3.8207e-05,0.0032776,-0.00039754,0,0,0.069942,-0.030174,0,-0.0072353,0,0,0,0.010978,-5.2553e-05,0.0032776,-2.0667,0.0047343,0.0097994,3.0187e-08,0.9,0.24,0
0.04435,0.0082849,0.010961,-0.00015954,0.0032405,-0.00032266,0,0,0.070257,-0.03094,0,-0.0058724,0,0,0,0.01097,-0.00016889,0.0032405,-1.6606,0.0046806,0.0098858,3.0459e-08,0.92,0.24,0
0.045758,0.0083681,0.010958,-0.00025357,0.0032114,-0.00024349,0,0,0.070497,-0.031531,0,-0.0044315,0,0,0,0.010964,-0.00025886,0.0032114,-1.2435,0.0046387,0.0099519,3.0655e-08,0.94,0.24,0
0.04717,0.0084252,0.010955,-0.00032021,0.0031906,-0.00016263,0,0,0.070661,-0.031948,0,-0.0029598,0,0,0,0.010958,-0.00032255,0.0031906,-0.82612,0.0046086,0.009998,3.0784e-08,0.96,0.24,0
0.048584,0.0084586,0.010953,-0.0003599,0.0031781,-8.1324e-05,0,0,0.070756,-0.032195,0,-0.0014801,0,0,0,0.010954,-0.00036048,0.0031781,-0.41183,0.0045905,0.010025,3.0855e-08,0.98,0.24,0
0.05,0.0084696,0.010953,-0.00037307,0.0031739,3.0184e-05,0,0,0.070787,-0.032277,0,0.00054935,0,0,0,0.010953,-0.00037315,0.0031739,0.1527,0.0045845,0.010034,3.0879e-08,1,0.24,0
0,0,0.0096254,0.0041252,0.0041252,0.0014054,0,0,0.050052,-5.421e-19,0,0.025579,0,0,0,0.0099637,0.0037869,0.0041252,13.534,0.0059586,0.0060148,1.1057e-08,0,0.26,0
0.001001,0.00051157,0.0095833,0.0036503,0.0039701,0.0014026,0,0,0.051081,-0.00291,0,0.025527,0,0,0,0.0098982,0.0033355,0.0039701,12.652,0.0057346,0.0062696,1.2221e-08,0.02,0.26,0
0.0020432,0.0010081,0.0097413,0.0032767,0.0039054,0.0013791,0,0,0.053107,-0.0057212,0,0.025099,0,0,0,0.010023,0.0029948,0.0039054,11.553,0.0056412,0.0066203,1.3956e-08,0.04,0.26,0
0.0031253,0.001489,0.0098956,0.0029184,0.0038442,0.0013525,0,0,0.055068,-0.0084248,0,0.024616,0,0,0,0.010149,0.0026654,0.0038442,10.596,0.0055527,0.006969,1.572e-08,0.06,0.26,0
0.0042459,0.0019525,0.010045,0.0025783,0.0037871,0.0013204,0,0,0.05695,-0.011,0,0.024032,0,0,0,0.010272,0.0023517,0.0037871,9.7386,0.0054702,0.007309,1.7475e-08,0.08,0.26,0
0.0054033,0.0023963,0.010189,0.0022601,0.0037349,0.0012819,0,0,0.058736,-0.01342,0,0.023331,0,0,0,0.010391,0.002058,0.0037349,8.9588,0.0053948,0.0076345,1.9189e-08,0.1,0.26,0
0.0065954,0.0028176,0.010327,0.0019676,0.0036884,0.0012376,0,0,0.060412,-0.015659,0,0.022524,0,0,0,0.010506,0.0017882,0.0036884,8.2468,0.0053277,0.0079405,2.0834e-08,0.12,0.26,0
0.0078198,0.0032136,0.010458,0.001704,0.0036485,0.0011892,0,0,0.061963,-0.017695,0,0.021643,0,0,0,0.010616,0.0015453,0.0036485,7.6002,0.0052701,0.0082236,2.2389e-08,0.14,0.26,0
0.0090739,0.0035819,0.010581,0.0014721,0.003616,0.001139,0,0,0.063383,-0.019509,0,0.02073,0,0,0,0.010721,0.0013319,0.003616,7.0203,0.0052231,0.0084814,2.3841e-08,0.16,0.26,0
0.010355,0.0039201,0.010698,0.0012739,0.0035916,0.0010895,0,0,0.06467,-0.021091,0,0.01983,0,0,0,0.010823,0.0011496,0.0035916,6.5095,0.0051879,0.0087125,2.5185e-08,0.18,0.26,0
0.011661,0.0042263,0.01081,0.0011108,0.0035762,0.0010431,0,0,0.065825,-0.022434,0,0.018985,0,0,0,0.010921,0.00099991,0.0035762,6.0698,0.0051656,0.0089162,2.642e-08,0.2,0.26,0
0.012988,0.0044986,0.010917,0.00098407,0.0035703,0.0010017,0,0,0.066855,-0.023535,0,0.018231,0,0,0,0.011017,0.00088406,0.0035703,5.7014,0.0051572,0.0090925,2.755e-08,0.22,0.26,0
0.014335,0.0047351,0.011022,0.00089459,0.0035751,0.00096632,0,0,0.06777,-0.024392,0,0.017587,0,0,0,0.011114,0.00080321,0.0035751,5.4018,0.005164,0.0092417,2.8584e-08,0.24,0.26,0
0.015699,0.0049338,0.011128,0.00084329,0.0035914,0.00093717,0,0,0.068583,-0.025007,0,0.017056,0,0,0,0.011213,0.00075859,0.0035914,5.1643,0.0051875,0.0093647,2.9532e-08,0.26,0.26,0
0.017078,0.0050915,0.011238,0.00083106,0.0036207,0.00091302,0,0,0.069316,-0.025385,0,0.016617,0,0,0,0.011317,0.00075157,0.0036207,4.9761,0.0052299,0.0094632,3.0417e-08,0.28,0.26,0
0.018472,0.005204,0.011359,0.00085865,0.0036651,0.00089083,0,0,0.070009,-0.025539,0,0.016213,0,0,0,0.011433,0.00078361,0.0036651,4.8152,0.0052941,0.0095412,3.1276e-08,0.3,0.26,0
0.019879,0.0052647,0.011501,0.00092665,0.0037283,0.00086506,0,0,0.070731,-0.025495,0,0.015744,0,0,0,0.011571,0.00085635,0.0037283,4.6461,0.0053853,0.0096065,3.2188e-08,0.32,0.26,0
0.021301,0.0052635,0.011687,0.0010365,0.0038171,0.00082694,0,0,0.071617,-0.025303,0,0.01505,0,0,0,0.011751,0.0009727,0.0038171,4.4133,0.0055136,0.0096749,3.3316e-08,0.34,0.26,0
0.022743,0.0051846,0.011962,0.0011938,0.0039468,0.0007584,0,0,0.072939,-0.025052,0,0.013803,0,0,0,0.012015,0.0011407,0.0039468,4.0089,0.0057009,0.0097783,3.5022e-08,0.36,0.26,0
0.024218,0.0049993,0.012467,0.0014434,0.004173,0.00063321,0,0,0.075472,-0.024839,0,0.011525,0,0,0,0.012503,0.0014072,0.004173,3.2769,0.0060277,0.010004,3.8475e-08,0.38,0.26,0
0.025762,0.0046624,0.013492,0.0018806,0.0046116,0.00013324,0,0,0.080807,-0.024853,0,0.002425,0,0,0,0.013493,0.001879,0.0046116,0.65738,0.0066612,0.010517,4.6429e-08,0.4,0.26,0
0.027451,0.0038854,0.018716,-0.00044201,0.0054821,0.00069554,0,0,0.04492,-0.018176,0,0.0070593,0,0,0,0.018748,-0.00047407,0.0054821,2.6775,0.0079186,0.017047,2.4909e-07,0.42,0.26,0
0.027954,0.0036481,0.011615,0.00069121,0.0036919,-0.00086287,0,0,0.021087,-0.0076762,0,-0.0063725,0,0,0,0.011691,0.00061507,0.0036919,-5.8389,0.0053328,0.0099032,7.6708e-08,0.44,0.26,0
0.028213,0.0036539,0.014465,0.00016289,0.0043884,-0.00055144,0,0,0.0131,-0.0054932,0,-0.0014337,0,0,0,0.014486,0.00014166,0.0043884,-2.2047,0.0063388,0.012763,6.8282e-08,0.46,0.26,0
0.028478,0.0036865,0.014085,-0.00019975,0.0041656,-0.00013873,0,0,0.012895,-0.005675,0,-0.00036071,0,0,0,0.014087,-0.00020109,0.0041656,-0.55638,0.006017,0.012681,6.4411e-08,0.48,0.26,0
0.028728,0.0037158,0.013394,-0.00047675,0.0038753,-0.00026008,0,0,0.012375,-0.0056576,0,-0.00067621,0,0,0,0.013399,-0.00048162,0.0038753,-1.0738,0.0055976,0.012296,5.6639e-08,0.5,0.26,0
0.028973,0.0037426,0.013163,-0.00012474,0.0039115,-0.00033139,0,0,0.012027,-0.0052471,0,-0.0008616,0,0,0,0.013171,-0.000133,0.0039115,-1.4277,0.0056499,0.011813,5.2428e-08,0.52,0.26,0
0.029209,0.0037669,0.012941,0.00026514,0.0039618,-0.00033625,0,0,0.011673,-0.0048057,0,-0.00087424,0,0,0,0.01295,0.00025623,0.0039618,-1.5184,0.0057226,0.011306,4.8233e-08,0.54,0.26,0
0.02944,0.0037958,0.012815,0.00057652,0.0040174,-0.00022765,0,0,0.011437,-0.0044732,0,-0.0005919,0,0,0,0.012819,0.00057228,0.0040174,-1.0653,0.005803,0.010939,4.5435e-08,0.56,0.26,0
0.029667,0.0038334,0.012741,0.00070442,0.0040336,-7.1474e-05,0,0,0.01132,-0.004328,0,-0.00018583,0,0,0,0.012741,0.00070399,0.0040336,-0.34021,0.0058264,0.010766,4.4029e-08,0.58,0.26,0
0.029893,0.003882,0.012728,0.00067794,0.0040216,0.00010014,0,0,0.011318,-0.0043468,0,0.00026038,0,0,0,0.012728,0.00067711,0.0040216,0.47614,0.005809,0.010776,4.4008e-08,0.6,0.26,0
0.03012,0.0039418,0.012773,0.00049597,0.0039806,0.00026708,0,0,0.01143,-0.00453,0,0.00069441,0,0,0,0.012778,0.00049016,0.0039806,1.2457,0.0057497,0.010968,4.5347e-08,0.62,0.26,0
0.03035,0.0040105,0.012864,0.00012771,0.0038976,0.00039324,0,0,0.011657,-0.0049008,0,0.0010224,0,0,0,0.012876,0.00011558,0.0038976,1.7668,0.0056298,0.011352,4.7994e-08,0.64,0.26,0
0.030586,0.0040841,0.01304,-0.00032431,0.0038148,0.00040497,0,0,0.011993,-0.0053809,0,0.0010529,0,0,0,0.013053,-0.00033657,0.0038148,1.734,0.0055103,0.011871,5.1843e-08,0.66,0.26,0
0.03083,0.0041551,0.013223,-0.00073556,0.0037462,0.00033327,0,0,0.01232,-0.0058263,0,0.00086649,0,0,0,0.013231,-0.00074352,0.0037462,1.3669,0.0054112,0.012357,5.5562e-08,0.68,0.26,0
0.031079,0.0042225,0.013869,-0.00053652,0.0039998,0.000193,0,0,0.01283,-0.0058972,0,0.00050181,0,0,0,0.013872,-0.00053911,0.0039998,0.76745,0.0057775,0.012762,6.302e-08,0.7,0.26,0
0.031343,0.004286,0.014293,-0.00026167,0.0042094,0.00055488,0,0,0.013109,-0.0058123,0,0.0014427,0,0,0,0.014314,-0.00028279,0.0042094,2.1801,0.0060802,0.012949,6.796e-08,0.72,0.26,0
0.031603,0.0043749,0.011533,0.00025799,0.0035372,0.00092394,0,0,0.021299,-0.008393,0,0.0069044,0,0,0,0.011618,0.00017272,0.0035372,6.1029,0.0051093,0.010189,7.8462e-08,0.74,0.26,0
0.032112,0.0047262,0.01845,-0.001483,0.0050901,-0.00044331,0,0,0.045238,-0.020385,0,-0.0044114,0,0,0,0.018462,-0.0014952,0.0050901,-1.6252,0.0073524,0.017617,2.5059e-07,0.76,0.26,0
0.033808,0.0057354,0.013336,0.0013439,0.004404,0.00019261,0,0,0.081281,-0.027846,0,0.0035056,0,0,0,0.013339,0.0013408,0.004404,0.91996,0.0063613,0.010798,4.7542e-08,0.78,0.26,0
0.035363,0.006292,0.012339,0.00092933,0.0039805,-0.00030756,0,0,0.076063,-0.027766,0,-0.0055976,0,0,0,0.012347,0.00092105,0.0039805,-1.543,0.0057496,0.010245,3.9078e-08,0.8,0.26,0
0.036851,0.0067065,0.011871,0.00068847,0.0037679,-0.00041677,0,0,0.07374,-0.028023,0,-0.0075853,0,0,0,0.011887,0.00067296,0.0037679,-2.1314,0.0054425,0.010031,3.5688e-08,0.82,0.26,0
0.038313,0.0070151,0.011646,0.00046936,0.0036345,-0.00047434,0,0,0.072901,-0.028803,0,-0.0086331,0,0,0,0.011666,0.00044926,0.0036345,-2.4259,0.0052498,0.010011,3.4496e-08,0.84,0.26,0
0.039767,0.0072463,0.011524,0.00024732,0.0035315,-0.00047578,0,0,0.072735,-0.029886,0,-0.0086592,0,0,0,0.011544,0.00022728,0.0035315,-2.4116,0.0051011,0.01008,3.4176e-08,0.86,0.26,0
0.041222,0.0074199,0.011458,5.3837e-05,0.0034535,-0.00043802,0,0,0.07284,-0.030937,0,-0.007972,0,0,0,0.011475,3.7037e-05,0.0034535,-2.1964,0.0049884,0.010169,3.4179e-08,0.88,0.26,0
0.042681,0.0075511,0.011412,-0.00010644,0.0033917,-0.00037707,0,0,0.072987,-0.031834,0,-0.0068626,0,0,0,0.011425,-0.00011877,0.0033917,-1.8729,0.0048992,0.010249,3.4224e-08,0.9,0.26,0
0.044142,0.0076495,0.011377,-0.00023372,0.0033429,-0.00030525,0,0,0.073108,-0.032547,0,-0.0055556,0,0,0,0.011385,-0.00024174,0.0033429,-1.505,0.0048286,0.010313,3.4244e-08,0.92,0.26,0
0.045605,0.0077214,0.011349,-0.00032983,0.0033056,-0.00022933,0,0,0.073191,-0.033083,0,-0.0041738,0,0,0,0.011353,-0.00033433,0.0033056,-1.1245,0.0047748,0.010359,3.4237e-08,0.94,0.26,0
0.047069,0.0077706,0.011328,-0.00039677,0.0032793,-0.00015254,0,0,0.073242,-0.033453,0,-0.0027763,0,0,0,0.01133,-0.00039876,0.0032793,-0.74527,0.0047368,0.01039,3.4217e-08,0.96,0.26,0
0.048535,0.0077993,0.011315,-0.00043624,0.0032637,-7.6073e-05,0,0,0.073269,-0.033669,0,-0.0013845,0,0,0,0.011316,-0.00043673,0.0032637,-0.37088,0.0047142,0.010408,3.4199e-08,0.98,0.26,0
0.05,0.0078087,0.011311,-0.00044927,0.0032585,2.5951e-05,0,0,0.073277,-0.033741,0,0.00047231,0,0,0,0.011311,-0.00044933,0.0032585,0.12643,0.0047067,0.010414,3.4193e-08,1,0.26,0
0,0,0.0096836,0.0041501,0.0041501,0.0012447,0,0,0.050355,-1.5179e-18,0,0.022654,0,0,0,0.0099507,0.003883,0.0041501,12.111,0.0059946,0.0059386,1.0683e-08,0,0.28,0
0.0010071,0.00045307,0.0096407,0.003671,0.0039935,0.0012421,0,0,0.051389,-0.0029351,0,0.022606,0,0,0,0.0098888,0.0034228,0.0039935,11.297,0.0057684,0.0062004,1.1894e-08,0.02,0.28,0
0.0020556,0.00089341,0.0098007,0.0032991,0.0039299,0.0012217,0,0,0.053423,-0.0057403,0,0.022236,0,0,0,0.010023,0.0030771,0.0039299,10.299,0.0056766,0.0065608,1.3682e-08,0.04,0.28,0
0.003144,0.0013205,0.0099573,0.0029457,0.0038709,0.0011987,0,0,0.055386,-0.0084191,0,0.021816,0,0,0,0.010157,0.0027465,0.0038709,9.4382,0.0055913,0.0069167,1.5492e-08,0.06,0.28,0
0.004271,0.0017328,0.010111,0.002612,0.0038168,0.0011708,0,0,0.057274,-0.010963,0,0.021309,0,0,0,0.010289,0.0024335,0.0038168,8.6711,0.0055131,0.0072635,1.73e-08,0.08,0.28,0
0.005435,0.0021285,0.01026,0.0023002,0.0037682,0.0011374,0,0,0.059079,-0.013359,0,0.0207,0,0,0,0.01042,0.0021409,0.0037682,7.9739,0.0054429,0.007597,1.9083e-08,0.1,0.28,0
0.0066342,0.0025051,0.010406,0.0020129,0.0037258,0.0010987,0,0,0.060793,-0.015588,0,0.019996,0,0,0,0.010548,0.0018714,0.0037258,7.3352,0.0053816,0.0079138,2.0821e-08,0.12,0.28,0
0.0078667,0.0028603,0.010548,0.0017525,0.0036903,0.001056,0,0,0.062409,-0.017634,0,0.01922,0,0,0,0.010674,0.0016275,0.0036903,6.7511,0.0053304,0.0082112,2.2499e-08,0.14,0.28,0
0.0091305,0.0031918,0.010687,0.0015215,0.0036625,0.0010112,0,0,0.063922,-0.019483,0,0.018404,0,0,0,0.010797,0.0014113,0.0036625,6.2216,0.0052903,0.0084872,2.4109e-08,0.16,0.28,0
0.010424,0.0034977,0.010823,0.0013219,0.0036433,0.00096621,0,0,0.065331,-0.021125,0,0.017585,0,0,0,0.01092,0.0012246,0.0036433,5.7485,0.0052626,0.0087405,2.5647e-08,0.18,0.28,0
0.011744,0.0037761,0.010956,0.0011554,0.0036335,0.00092299,0,0,0.066638,-0.022551,0,0.016799,0,0,0,0.011043,0.0010692,0.0036335,5.3333,0.0052484,0.0089704,2.7114e-08,0.2,0.28,0
0.013089,0.0040252,0.01109,0.0010238,0.0036341,0.00088306,0,0,0.067848,-0.023754,0,0.016072,0,0,0,0.011167,0.0009469,0.0036341,4.9756,0.0052493,0.0091764,2.8512e-08,0.22,0.28,0
0.014458,0.0042433,0.011225,0.00092895,0.0036463,0.0008471,0,0,0.06897,-0.024728,0,0.015417,0,0,0,0.011295,0.00085973,0.0036463,4.6719,0.0052669,0.0093581,2.985e-08,0.24,0.28,0
0.015848,0.0044282,0.011365,0.00087317,0.0036716,0.00081455,0,0,0.070014,-0.025465,0,0.014825,0,0,0,0.011428,0.00081031,0.0036716,4.4128,0.0053034,0.0095156,3.1137e-08,0.26,0.28,0
0.017258,0.0045769,0.011514,0.0008593,0.003712,0.00078281,0,0,0.070999,-0.02596,0,0.014247,0,0,0,0.011571,0.00080209,0.003712,4.1796,0.0053618,0.0096491,3.2387e-08,0.28,0.28,0
0.018688,0.0046849,0.011678,0.00089103,0.0037707,0.0007461,0,0,0.071956,-0.026205,0,0.013579,0,0,0,0.011729,0.00083966,0.0037707,3.938,0.0054466,0.00976,3.3633e-08,0.3,0.28,0
0.020137,0.0047452,0.011869,0.00097341,0.0038527,0.00069371,0,0,0.072947,-0.026201,0,0.012625,0,0,0,0.011913,0.00092942,0.0038527,3.6285,0.005565,0.0098526,3.4936e-08,0.32,0.28,0
0.021606,0.0047466,0.012108,0.0011145,0.0039667,0.00060584,0,0,0.074084,-0.025955,0,0.011026,0,0,0,0.012141,0.0010813,0.0039667,3.1448,0.0057297,0.0099365,3.6431e-08,0.34,0.28,0
0.0231,0.0046713,0.012431,0.0013307,0.0041285,0.00044821,0,0,0.075554,-0.025461,0,0.0081574,0,0,0,0.012449,0.0013126,0.0041285,2.3084,0.0059635,0.01003,3.8377e-08,0.36,0.28,0
0.024628,0.0044915,0.012883,0.0016634,0.0043639,0.00013005,0,0,0.077524,-0.024575,0,0.0023669,0,0,0,0.012885,0.0016619,0.0043639,0.66401,0.0063035,0.010145,4.1079e-08,0.38,0.28,0
0.026201,0.0041438,0.013046,0.0020756,0.0045364,-0.00038241,0,0,0.077435,-0.022394,0,-0.0069599,0,0,0,0.013059,0.0020623,0.0045364,-1.9941,0.0065526,0.0099922,4.0843e-08,0.4,0.28,0
0.027725,0.0036472,0.011586,-0.0014091,0.0030531,-0.00015306,0,0,0.04376,-0.010152,0,-0.0079954,0,0,0,0.011649,-0.0014721,0.0030531,-1.7424,0.0044101,0.011742,2.5437e-08,0.42,0.28,0
0.027951,0.0035399,0.013065,-0.00010419,0.0038882,-0.00076092,0,0,0.01193,-0.0051901,0,-0.0019784,0,0,0,0.013109,-0.00014801,0.0038882,-3.296,0.0056162,0.01177,5.1747e-08,0.44,0.28,0
0.028202,0.0035439,0.01361,-0.0001129,0.0040493,0.00019162,0,0,0.012429,-0.0054108,0,0.00049822,0,0,0,0.013613,-0.00011558,0.0040493,0.79983,0.0058489,0.012192,5.7786e-08,0.46,0.28,0
0.028448,0.0035709,0.01331,-0.00037826,0.0038795,0.0001419,0,0,0.012259,-0.005535,0,0.00036893,0,0,0,0.013311,-0.00037973,0.0038795,0.59386,0.0056037,0.012136,5.5134e-08,0.48,0.28,0
0.028693,0.0036053,0.013159,-0.00027228,0.003866,1.6004e-05,0,0,0.012081,-0.0053798,0,4.1611e-05,0,0,0,0.013159,-0.0002723,0.003866,0.068272,0.0055843,0.011914,5.2852e-08,0.5,0.28,0
0.028932,0.0036381,0.012948,-7.4055e-05,0.0038621,-0.00013459,0,0,0.011811,-0.0051171,0,-0.00034994,0,0,0,0.012949,-7.5446e-05,0.0038621,-0.59212,0.0055787,0.01157,4.9599e-08,0.52,0.28,0
0.029165,0.0036705,0.012801,0.00022211,0.0039069,-0.00018749,0,0,0.011562,-0.0047902,0,-0.00048748,0,0,0,0.012804,0.00021932,0.0039069,-0.85376,0.0056433,0.011205,4.6759e-08,0.54,0.28,0
0.029394,0.0037054,0.012683,0.00045157,0.0039405,-0.00014884,0,0,0.011366,-0.0045356,0,-0.00038699,0,0,0,0.012685,0.00044976,0.0039405,-0.69705,0.0056918,0.010917,4.4516e-08,0.56,0.28,0
0.02962,0.003746,0.012622,0.00056211,0.0039552,-4.3248e-05,0,0,0.011267,-0.004411,0,-0.00011244,0,0,0,0.012622,0.00056195,0.0039552,-0.20547,0.005713,0.010772,4.3377e-08,0.58,0.28,0
0.029845,0.0037942,0.012617,0.00052894,0.0039439,8.8226e-05,0,0,0.011276,-0.0044394,0,0.00022939,0,0,0,0.012618,0.0005283,0.0039439,0.41814,0.0056967,0.010795,4.3476e-08,0.6,0.28,0
0.030071,0.00385,0.012667,0.00035194,0.0039058,0.00020804,0,0,0.01139,-0.00462,0,0.00054091,0,0,0,0.012671,0.00034843,0.0039058,0.96751,0.0056417,0.010985,4.4784e-08,0.62,0.28,0
0.0303,0.0039119,0.012764,5.6015e-05,0.0038461,0.00027318,0,0,0.011594,-0.0049271,0,0.00071027,0,0,0,0.01277,5.0146e-05,0.0038461,1.2309,0.0055555,0.01131,4.7077e-08,0.64,0.28,0
0.030535,0.0039767,0.012872,-0.00030313,0.0037706,0.00025322,0,0,0.011831,-0.0052958,0,0.00065836,0,0,0,0.012877,-0.00030799,0.0037706,1.1007,0.0054463,0.011692,4.9679e-08,0.66,0.28,0
0.030774,0.0040412,0.013006,-0.00055753,0.0037346,0.0001307,0,0,0.012053,-0.0055797,0,0.00033981,0,0,0,0.013007,-0.00055879,0.0037346,0.55203,0.0053944,0.012009,5.2158e-08,0.68,0.28,0
0.031017,0.0041033,0.01305,-0.00069703,0.003706,-6.7371e-06,0,0,0.012148,-0.005724,0,-1.7516e-05,0,0,0,0.01305,-0.00069703,0.003706,-0.028078,0.0053532,0.012159,5.3186e-08,0.7,0.28,0
0.03126,0.0041694,0.013295,-0.00047224,0.0038467,-0.00011899,0,0,0.012282,-0.0056146,0,-0.00030937,0,0,0,0.013296,-0.00047327,0.0038467,-0.49517,0.0055563,0.012197,5.5315e-08,0.72,0.28,0
0.031508,0.0042568,0.012768,-0.00075983,0.0036024,0.0007806,0,0,0.011915,-0.0056709,0,0.0020296,0,0,0,0.012813,-0.00080472,0.0036024,3.2916,0.0052035,0.012035,5.0753e-08,0.74,0.28,0
0.031736,0.0044633,0.011214,-0.0024175,0.002639,0.00031825,0,0,0.043825,-0.011504,0,0.010474,0,0,0,0.011303,-0.0025058,0.002639,2.6224,0.003812,0.012311,1.8519e-08,0.76,0.28,0
0.033261,0.0051512,0.012815,0.0014372,0.0042756,0.00065291,0,0,0.077706,-0.025829,0,0.011883,0,0,0,0.012852,0.0013998,0.0042756,3.2736,0.0061758,0.010319,4.2011e-08,0.78,0.28,0
0.034844,0.0057247,0.012759,0.0011738,0.0041799,0.00017913,0,0,0.078072,-0.027356,0,0.0032602,0,0,0,0.012762,0.001171,0.0041799,0.88561,0.0060376,0.010418,4.2152e-08,0.8,0.28,0
0.036384,0.0061335,0.012364,0.00086963,0.0039701,-0.00018311,0,0,0.076385,-0.028214,0,-0.0033326,0,0,0,0.012367,0.00086671,0.0039701,-0.91243,0.0057346,0.010305,3.95e-08,0.82,0.28,0
0.0379,0.0064259,0.01211,0.00051099,0.0037862,-0.00034815,0,0,0.075744,-0.029804,0,-0.0063362,0,0,0,0.01212,0.00050055,0.0037862,-1.7177,0.005469,0.010375,3.8556e-08,0.84,0.28,0
0.039414,0.0066331,0.011984,0.00022645,0.003663,-0.00039371,0,0,0.075718,-0.031273,0,-0.0071656,0,0,0,0.011997,0.00021328,0.003663,-1.9158,0.0052911,0.010493,3.8437e-08,0.86,0.28,0
0.040929,0.006785,0.011892,3.6923e-06,0.0035688,-0.00037203,0,0,0.075743,-0.032442,0,-0.006771,0,0,0,0.011904,-7.9384e-06,0.0035688,-1.7906,0.0051549,0.010587,3.8319e-08,0.88,0.28,0
0.042444,0.0068984,0.011814,-0.00016966,0.0034934,-0.00032136,0,0,0.075719,-0.033333,0,-0.0058487,0,0,0,0.011823,-0.00017827,0.0034934,-1.535,0.005046,0.010651,3.8113e-08,0.9,0.28,0
0.043957,0.0069831,0.011748,-0.00030178,0.0034339,-0.00025928,0,0,0.075659,-0.033995,0,-0.0047189,0,0,0,0.011754,-0.00030735,0.0034339,-1.2321,0.0049601,0.010693,3.7867e-08,0.92,0.28,0
0.04547,0.0070448,0.011695,-0.00039882,0.0033889,-0.00019386,0,0,0.075587,-0.034468,0,-0.0035283,0,0,0,0.011698,-0.00040192,0.0033889,-0.91813,0.0048951,0.01072,3.7634e-08,0.94,0.28,0
0.046981,0.0070871,0.011657,-0.0004652,0.0033574,-0.00012841,0,0,0.075523,-0.034786,0,-0.0023371,0,0,0,0.011658,-0.00046656,0.0033574,-0.60686,0.0048496,0.010736,3.7448e-08,0.96,0.28,0
0.048491,0.0071118,0.011633,-0.00050389,0.0033388,-6.3859e-05,0,0,0.075479,-0.034968,0,-0.0011622,0,0,0,0.011633,-0.00050423,0.0033388,-0.30145,0.0048227,0.010745,3.7329e-08,0.98,0.28,0
0.05,0.00712,0.011625,-0.00051661,0.0033326,2.235e-05,0,0,0.075464,-0.035028,0,0.00040677,0,0,0,0.011625,-0.00051665,0.0033326,0.10546,0.0048138,0.010748,3.7289e-08,1,0.28,0
0,0,0.0097295,0.0041698,0.0041698,0.0010829,0,0,0.050593,-4.3368e-19,0,0.019708,0,0,0,0.0099329,0.0039663,0.0041698,10.642,0.006023,0.0058675,1.0333e-08,0,0.3,0
0.0010119,0.00039417,0.009686,0.0036883,0.0040123,0.0010803,0,0,0.051631,-0.0029484,0,0.019661,0,0,0,0.0098747,0.0034997,0.0040123,9.9053,0.0057956,0.0061348,1.1579e-08,0.02,0.3,0
0.0020652,0.00077847,0.0098472,0.0033186,0.0039497,0.0010632,0,0,0.053667,-0.0057432,0,0.01935,0,0,0,0.010016,0.0031498,0.0039497,9.0203,0.0057052,0.0065032,1.3408e-08,0.04,0.3,0
0.0031585,0.0011522,0.010005,0.0029698,0.0038925,0.0010428,0,0,0.055626,-0.008397,0,0.01898,0,0,0,0.010157,0.0028184,0.0038925,8.2562,0.0056225,0.0068644,1.5251e-08,0.06,0.3,0
0.0042903,0.001514,0.010161,0.0026418,0.0038408,0.0010177,0,0,0.057514,-0.010911,0,0.018521,0,0,0,0.010296,0.0025065,0.0038408,7.573,0.0055479,0.0072158,1.7093e-08,0.08,0.3,0
0.0054591,0.0018619,0.010315,0.0023358,0.0037952,0.00098707,0,0,0.059329,-0.01328,0,0.017965,0,0,0,0.010435,0.0022155,0.0037952,6.9484,0.005482,0.0075547,1.8922e-08,0.1,0.3,0
0.0066634,0.0021941,0.010467,0.0020535,0.0037561,0.00095132,0,0,0.061068,-0.015494,0,0.017314,0,0,0,0.010573,0.0019473,0.0037561,6.3713,0.0054255,0.0078788,2.0725e-08,0.12,0.3,0
0.0079018,0.0025083,0.010618,0.0017967,0.0037243,0.00091136,0,0,0.06273,-0.017542,0,0.016587,0,0,0,0.010711,0.0017035,0.0037243,5.8374,0.0053796,0.0081862,2.2493e-08,0.14,0.3,0
0.0091726,0.0028026,0.010768,0.0015673,0.0037005,0.00086862,0,0,0.064311,-0.019412,0,0.015809,0,0,0,0.010849,0.0014861,0.0037005,5.3464,0.0053452,0.0084755,2.4221e-08,0.16,0.3,0
0.010474,0.0030751,0.010918,0.0013674,0.0036856,0.00082473,0,0,0.065813,-0.021095,0,0.01501,0,0,0,0.010989,0.0012967,0.0036856,4.8995,0.0053236,0.0087455,2.5908e-08,0.18,0.3,0
0.011805,0.0033242,0.011069,0.0011989,0.0036804,0.00078128,0,0,0.067237,-0.022582,0,0.014219,0,0,0,0.011131,0.0011374,0.0036804,4.498,0.0053161,0.0089954,2.7556e-08,0.2,0.3,0
0.013164,0.0035484,0.011223,0.0010641,0.0036862,0.00073947,0,0,0.068586,-0.023861,0,0.013458,0,0,0,0.011277,0.0010106,0.0036862,4.1414,0.0053245,0.0092241,2.9168e-08,0.22,0.3,0
0.014549,0.003746,0.011381,0.0009659,0.0037042,0.00069968,0,0,0.069863,-0.024919,0,0.012734,0,0,0,0.011428,0.00091911,0.0037042,3.826,0.0053505,0.0094303,3.0744e-08,0.24,0.3,0
0.015958,0.0039152,0.011546,0.00090797,0.0037362,0.00066093,0,0,0.07107,-0.025737,0,0.012029,0,0,0,0.011587,0.00086706,0.0037362,3.5415,0.0053968,0.0096121,3.2284e-08,0.26,0.3,0
0.017391,0.0040531,0.011719,0.00089554,0.0037843,0.00061985,0,0,0.072205,-0.026288,0,0.011281,0,0,0,0.011754,0.00086016,0.0037843,3.2671,0.0054663,0.0097661,3.3777e-08,0.28,0.3,0
0.018846,0.0041558,0.011902,0.00093601,0.0038515,0.00056918,0,0,0.073263,-0.026531,0,0.010359,0,0,0,0.011932,0.00090655,0.0038515,2.9632,0.0055633,0.0098874,3.5199e-08,0.3,0.3,0
0.020322,0.0042167,0.012099,0.00104,0.0039417,0.00049526,0,0,0.074232,-0.026406,0,0.0090137,0,0,0,0.012121,0.0010179,0.0039417,2.5591,0.0056936,0.0099684,3.6505e-08,0.32,0.3,0
0.021816,0.0042253,0.012309,0.0012228,0.0040595,0.00037498,0,0,0.07507,-0.025815,0,0.0068247,0,0,0,0.012322,0.0012101,0.0040595,1.935,0.0058638,0.0099962,3.7596e-08,0.34,0.3,0
0.023325,0.0041661,0.012518,0.0015097,0.0042084,0.00017009,0,0,0.07562,-0.024558,0,0.0030956,0,0,0,0.012521,0.0015071,0.0042084,0.88497,0.0060788,0.0099423,3.8194e-08,0.36,0.3,0
0.024841,0.0040163,0.012614,0.0019288,0.0043627,-0.00015078,0,0,0.075083,-0.022148,0,-0.0027441,0,0,0,0.012616,0.0019267,0.0043627,-0.8083,0.0063017,0.0097031,3.7138e-08,0.38,0.3,0
0.026328,0.0037667,0.01253,0.0027321,0.0045785,-0.00052542,0,0,0.072356,-0.016803,0,-0.0095626,0,0,0,0.012558,0.002704,0.0045785,-3.0609,0.0066134,0.0090631,3.2789e-08,0.4,0.3,0
0.027735,0.0034794,0.012266,0.00013139,0.0037193,-0.0007756,0,0,0.041255,-0.0081625,0,-0.008187,0,0,0,0.012321,7.6993e-05,0.0037193,-3.986,0.0053723,0.011013,3.6087e-08,0.42,0.3,0
0.027978,0.0034405,0.012567,-0.00059333,0.003592,-0.00030571,0,0,0.011667,-0.005441,0,-0.00079484,0,0,0,0.012574,-0.00060043,0.003592,-1.33,0.0051885,0.011658,4.7325e-08,0.44,0.3,0
0.028201,0.0034375,0.012256,-0.00044618,0.0035429,8.4906e-05,0,0,0.011327,-0.0051858,0,0.00022075,0,0,0,0.012256,-0.00044675,0.0035429,0.38297,0.0051175,0.011252,4.3367e-08,0.46,0.3,0
0.028431,0.0034651,0.01256,-0.00026508,0.0036884,0.00021665,0,0,0.011533,-0.0051395,0,0.00056329,0,0,0,0.012564,-0.00026874,0.0036884,0.96753,0.0053277,0.011382,4.6027e-08,0.48,0.3,0
0.028663,0.0035006,0.012638,-0.00015855,0.003744,0.00010407,0,0,0.011563,-0.0050733,0,0.00027059,0,0,0,0.012639,-0.0001594,0.003744,0.46592,0.0054079,0.011362,4.6449e-08,0.5,0.3,0
0.028894,0.0035379,0.012644,2.5419e-05,0.0038008,-1.7069e-05,0,0,0.011496,-0.004908,0,-4.438e-05,0,0,0,0.012644,2.5396e-05,0.0038008,-0.077504,0.0054901,0.011218,4.579e-08,0.52,0.3,0
0.029123,0.0035753,0.012598,0.00021883,0.003845,-8.7184e-05,0,0,0.011378,-0.0047139,0,-0.00022668,0,0,0,0.012598,0.00021821,0.003845,-0.40351,0.0055538,0.011024,4.4535e-08,0.54,0.3,0
0.029349,0.0036144,0.012552,0.00037802,0.003879,-8.2728e-05,0,0,0.011275,-0.0045513,0,-0.00021509,0,0,0,0.012552,0.00037746,0.003879,-0.38933,0.005603,0.010856,4.3409e-08,0.56,0.3,0
0.029574,0.003657,0.012526,0.00044845,0.0038923,-2.2471e-05,0,0,0.011224,-0.004477,0,-5.8424e-05,0,0,0,0.012526,0.00044841,0.0038923,-0.1066,0.0056222,0.010776,4.2841e-08,0.58,0.3,0
0.029798,0.0037045,0.012533,0.00040796,0.0038824,6.3364e-05,0,0,0.011246,-0.0045168,0,0.00016475,0,0,0,0.012534,0.00040763,0.0038824,0.2994,0.005608,0.010816,4.3091e-08,0.6,0.3,0
0.030023,0.0037569,0.012574,0.00025661,0.0038492,0.00014024,0,0,0.011342,-0.0046704,0,0.00036462,0,0,0,0.012576,0.00025501,0.0038492,0.65222,0.00556,0.010974,4.4148e-08,0.62,0.3,0
0.030252,0.0038134,0.012629,1.7531e-05,0.003794,0.00017864,0,0,0.011486,-0.0049094,0,0.00046445,0,0,0,0.012632,1.5002e-05,0.003794,0.81134,0.0054803,0.011215,4.5697e-08,0.64,0.3,0
0.030483,0.0038723,0.012668,-0.00025216,0.0037248,0.00016133,0,0,0.011626,-0.00517,0,0.00041947,0,0,0,0.01267,-0.00025418,0.0037248,0.7153,0.0053803,0.011465,4.7147e-08,0.66,0.3,0
0.030717,0.003932,0.012611,-0.00050166,0.0036327,0.00011062,0,0,0.011671,-0.0053746,0,0.00028762,0,0,0,0.012611,-0.00050259,0.0036327,0.48333,0.0052472,0.011612,4.7401e-08,0.68,0.3,0
0.03095,0.0039936,0.012364,-0.00065902,0.0035116,7.3873e-05,0,0,0.011508,-0.0054218,0,0.00019207,0,0,0,0.012365,-0.00065944,0.0035116,0.32499,0.0050723,0.01152,4.5231e-08,0.7,0.3,0
0.031177,0.0040614,0.011749,-0.00082737,0.0032764,0.00018383,0,0,0.011014,-0.0053348,0,0.00047795,0,0,0,0.011751,-0.00083005,0.0032764,0.83727,0.0047325,0.011113,3.9419e-08,0.72,0.3,0
0.03139,0.004148,0.012286,-0.00077999,0.0034518,0.00042495,0,0,0.011484,-0.0055013,0,0.0011049,0,0,0,0.0123,-0.0007938,0.0034518,1.8608,0.0049859,0.01157,4.4965e-08,0.74,0.3,0
0.031636,0.004266,0.011716,-0.0011289,0.0031761,0.00072394,0,0,0.040799,-0.0097938,0,0.0092605,0,0,0,0.011774,-0.0011872,0.0031761,3.9152,0.0045877,0.011573,3.02e-08,0.76,0.3,0
0.033022,0.0047022,0.01211,0.001931,0.0042124,0.00076579,0,0,0.071872,-0.020761,0,0.013937,0,0,0,0.012168,0.0018737,0.0042124,4.2782,0.0060846,0.0093468,3.3252e-08,0.78,0.3,0
0.034511,0.0051977,0.012474,0.0016865,0.004248,0.00031812,0,0,0.074853,-0.02331,0,0.0057897,0,0,0,0.012483,0.0016771,0.004248,1.6877,0.006136,0.0097773,3.7047e-08,0.8,0.3,0
0.036016,0.0055779,0.012395,0.0010064,0.0040205,-7.0684e-05,0,0,0.07621,-0.027428,0,-0.0012864,0,0,0,0.012396,0.001006,0.0040205,-0.35559,0.0058074,0.010221,3.9191e-08,0.82,0.3,0
0.03756,0.005823,0.012416,0.00053805,0.0038862,-0.00025543,0,0,0.07762,-0.030468,0,-0.0046489,0,0,0,0.012421,0.00053256,0.0038862,-1.2314,0.0056134,0.010617,4.1424e-08,0.84,0.3,0
0.039121,0.0059954,0.01236,0.00020872,0.0037705,-0.00029107,0,0,0.07816,-0.032412,0,-0.0052974,0,0,0,0.012367,0.00020175,0.0037705,-1.3714,0.0054462,0.010831,4.2169e-08,0.86,0.3,0
0.040686,0.0061222,0.012257,-3.7759e-05,0.0036659,-0.00027255,0,0,0.078183,-0.033703,0,-0.0049605,0,0,0,0.012264,-4.3798e-05,0.0036659,-1.2693,0.0052952,0.010935,4.2028e-08,0.88,0.3,0
0.042249,0.0062177,0.012151,-0.00022125,0.003579,-0.00023295,0,0,0.078008,-0.034582,0,-0.0042397,0,0,0,0.012156,-0.00022564,0.003579,-1.0783,0.0051697,0.010985,4.1571e-08,0.9,0.3,0
0.043806,0.0062897,0.012057,-0.00035653,0.0035102,-0.00018618,0,0,0.077777,-0.035187,0,-0.0033884,0,0,0,0.01206,-0.00035932,0.0035102,-0.85904,0.0050703,0.011007,4.1052e-08,0.92,0.3,0
0.04536,0.0063427,0.011982,-0.00045348,0.0034584,-0.00013808,0,0,0.07756,-0.035598,0,-0.002513,0,0,0,0.011983,-0.00045501,0.0034584,-0.63611,0.0049955,0.011016,4.0589e-08,0.94,0.3,0
0.046909,0.0063791,0.011927,-0.00051868,0.0034224,-9.0885e-05,0,0,0.077389,-0.035864,0,-0.0016541,0,0,0,0.011927,-0.00051935,0.0034224,-0.41839,0.0049435,0.011018,4.0236e-08,0.96,0.3,0
0.048455,0.0064005,0.011894,-0.00055629,0.0034012,-4.5018e-05,0,0,0.077281,-0.036013,0,-0.00081933,0,0,0,0.011894,-0.00055645,0.0034012,-0.20718,0.0049128,0.011018,4.0017e-08,0.98,0.3,0
0.05,0.0064076,0.011883,-0.00056858,0.0033942,1.9405e-05,0,0,0.077244,-0.036061,0,0.00035318,0,0,0,0.011883,-0.00056861,0.0033942,0.089297,0.0049027,0.011018,3.9944e-08,1,0.3,0
0,0,0.0097603,0.004183,0.004183,0.00092071,0,0,0.050753,4.3368e-19,0,0.016757,0,0,0,0.0099083,0.0040349,0.004183,9.1357,0.0060421,0.0058008,1.0003e-08,0,0.32,0
0.0010151,0.00033514,0.0097167,0.0037019,0.0040256,0.00091803,0,0,0.051789,-0.0029452,0,0.016708,0,0,0,0.0098537,0.0035649,0.0040256,8.4877,0.0058147,0.0060715,1.1272e-08,0.02,0.32,0
0.0020716,0.00066369,0.0098779,0.0033355,0.003964,0.00090424,0,0,0.053817,-0.0057199,0,0.016457,0,0,0,0.010001,0.0032128,0.003964,7.7259,0.0057258,0.0064451,1.3123e-08,0.04,0.32,0
0.0031677,0.0009846,0.010036,0.0029915,0.0039084,0.00088605,0,0,0.055765,-0.0083432,0,0.016126,0,0,0,0.010146,0.0028818,0.0039084,7.0598,0.0056454,0.0068093,1.498e-08,0.06,0.32,0
0.0043021,0.0012964,0.010193,0.0026694,0.0038588,0.00086243,0,0,0.057643,-0.010823,0,0.015696,0,0,0,0.010291,0.0025718,0.0038588,6.4561,0.0055738,0.0071627,1.6838e-08,0.08,0.32,0
0.0054735,0.0015973,0.010349,0.0023693,0.0038155,0.00083302,0,0,0.059456,-0.013161,0,0.015161,0,0,0,0.010435,0.0022832,0.0038155,5.8964,0.0055113,0.0075041,1.8689e-08,0.1,0.32,0
0.0066804,0.0018853,0.010505,0.0020921,0.0037792,0.00079809,0,0,0.061206,-0.015352,0,0.014525,0,0,0,0.01058,0.0020171,0.0037792,5.3715,0.0054588,0.0078321,2.0527e-08,0.12,0.32,0
0.0079217,0.0021586,0.010662,0.0018393,0.0037503,0.00075842,0,0,0.062892,-0.017389,0,0.013803,0,0,0,0.010726,0.0017746,0.0037503,4.8779,0.005417,0.0081455,2.2349e-08,0.14,0.32,0
0.0091961,0.0024154,0.010819,0.0016125,0.0037295,0.00071518,0,0,0.064517,-0.019265,0,0.013016,0,0,0,0.010875,0.0015573,0.0037295,4.4154,0.0053871,0.0084433,2.4153e-08,0.16,0.32,0
0.010502,0.0026539,0.010979,0.0014135,0.0037178,0.00066972,0,0,0.066079,-0.02097,0,0.012189,0,0,0,0.011026,0.0013668,0.0037178,3.9854,0.0053702,0.0087246,2.5941e-08,0.18,0.32,0
0.011839,0.0028728,0.011143,0.0012444,0.0037162,0.00062339,0,0,0.067583,-0.022493,0,0.011346,0,0,0,0.011182,0.0012053,0.0037162,3.5895,0.0053678,0.0089882,2.7715e-08,0.2,0.32,0
0.013206,0.0030708,0.011311,0.001108,0.0037257,0.00057728,0,0,0.069027,-0.023821,0,0.010507,0,0,0,0.011344,0.0010754,0.0037257,3.228,0.0053816,0.0092329,2.9476e-08,0.22,0.32,0
0.0146,0.0032465,0.011485,0.0010079,0.0037479,0.00053184,0,0,0.070407,-0.024933,0,0.0096794,0,0,0,0.011512,0.000981,0.0037479,2.8985,0.0054136,0.0094561,3.1219e-08,0.24,0.32,0
0.016022,0.0033987,0.011665,0.00094927,0.0037842,0.00048639,0,0,0.071713,-0.025798,0,0.0088524,0,0,0,0.011687,0.00092723,0.0037842,2.5936,0.0054661,0.0096536,3.2927e-08,0.26,0.32,0
0.017469,0.0035254,0.01185,0.00093951,0.0038368,0.0004383,0,0,0.072918,-0.026365,0,0.0079771,0,0,0,0.011867,0.00092193,0.0038368,2.2968,0.005542,0.0098181,3.4552e-08,0.28,0.32,0
0.018939,0.0036237,0.012036,0.00098973,0.0039078,0.00038162,0,0,0.073968,-0.026554,0,0.0069455,0,0,0,0.012049,0.00097656,0.0039078,1.9763,0.0056445,0.0099369,3.6003e-08,0.3,0.32,0
0.020428,0.0036889,0.012215,0.0011163,0.0039995,0.00030543,0,0,0.074765,-0.026237,0,0.0055588,0,0,0,0.012224,0.0011079,0.0039995,1.5751,0.0057771,0.0099891,3.7099e-08,0.32,0.32,0
0.021929,0.003714,0.01237,0.0013434,0.0041139,0.00019238,0,0,0.075127,-0.025211,0,0.0035012,0,0,0,0.012373,0.0013401,0.0041139,0.99925,0.0059423,0.0099406,3.7519e-08,0.34,0.32,0
0.023433,0.0036889,0.012458,0.0017038,0.0042486,2.4776e-05,0,0,0.074708,-0.023158,0,0.00045092,0,0,0,0.012458,0.0017037,0.0042486,0.13199,0.0061369,0.009735,3.6691e-08,0.36,0.32,0
0.024918,0.0036055,0.012441,0.0022658,0.0044122,-0.00019065,0,0,0.073066,-0.019532,0,-0.0034699,0,0,0,0.012445,0.0022623,0.0044122,-1.073,0.0063732,0.0092961,3.3938e-08,0.38,0.32,0
0.026355,0.0034717,0.012339,0.0030913,0.0046291,-0.00037979,0,0,0.070159,-0.013994,0,-0.0069122,0,0,0,0.012354,0.0030757,0.0046291,-2.3478,0.0066864,0.0086078,2.9194e-08,0.4,0.32,0
0.027724,0.0033207,0.011997,0.00024472,0.0036726,-0.00044297,0,0,0.040151,-0.0077985,0,-0.0048753,0,0,0,0.012016,0.00022564,0.0036726,-2.3984,0.0053049,0.01062,3.3396e-08,0.42,0.32,0
0.027961,0.0033223,0.012084,-0.0014696,0.0031843,-0.0003488,0,0,0.011569,-0.00605,0,-0.00090687,0,0,0,0.012093,-0.0014785,0.0031843,-1.4732,0.0045995,0.011943,4.4692e-08,0.44,0.32,0
0.028187,0.0033364,0.012056,-0.00049023,0.0034698,-6.7345e-05,0,0,0.011162,-0.005148,0,-0.0001751,0,0,0,0.012056,-0.00049059,0.0034698,-0.30753,0.0050119,0.01111,4.1447e-08,0.46,0.32,0
0.028408,0.0033653,0.012109,-0.00021581,0.0035679,5.7533e-05,0,0,0.011103,-0.0049189,0,0.00014959,0,0,0,0.012109,-0.00021608,0.0035679,0.26745,0.0051537,0.010936,4.1065e-08,0.48,0.32,0
0.028631,0.0034024,0.012274,-3.8288e-05,0.0036708,4.4797e-05,0,0,0.011184,-0.0048218,0,0.00011647,0,0,0,0.012274,-3.8451e-05,0.0036708,0.20846,0.0053023,0.010941,4.2121e-08,0.5,0.32,0
0.028855,0.0034418,0.012375,0.00010061,0.0037428,-1.9903e-05,0,0,0.011222,-0.0047349,0,-5.1747e-05,0,0,0,0.012375,0.00010057,0.0037428,-0.092899,0.0054063,0.010919,4.2648e-08,0.52,0.32,0
0.02908,0.003482,0.012426,0.0002342,0.003798,-6.0902e-05,0,0,0.011216,-0.0046329,0,-0.00015835,0,0,0,0.012426,0.00023389,0.003798,-0.28621,0.0054859,0.010858,4.2659e-08,0.54,0.32,0
0.029304,0.0035234,0.012444,0.00033424,0.0038334,-5.9551e-05,0,0,0.011193,-0.0045489,0,-0.00015483,0,0,0,0.012444,0.00033394,0.0038334,-0.28176,0.0055371,0.010794,4.2452e-08,0.56,0.32,0
0.029528,0.0035669,0.012455,0.00037088,0.0038479,-2.1211e-05,0,0,0.01119,-0.0045201,0,-5.5149e-05,0,0,0,0.012455,0.00037084,0.0038479,-0.10057,0.0055581,0.010775,4.2425e-08,0.58,0.32,0
0.029751,0.0036135,0.012476,0.00032355,0.0038398,3.5189e-05,0,0,0.011227,-0.0045711,0,9.1491e-05,0,0,0,0.012476,0.00032345,0.0038398,0.16591,0.0055463,0.010831,4.2825e-08,0.6,0.32,0
0.029977,0.0036632,0.012507,0.00019212,0.0038096,8.851e-05,0,0,0.011306,-0.0047027,0,0.00023013,0,0,0,0.012507,0.00019148,0.0038096,0.41179,0.0055028,0.010964,4.3675e-08,0.62,0.32,0
0.030204,0.0037156,0.012537,-2.6885e-06,0.0037604,0.00012223,0,0,0.01141,-0.004892,0,0.0003178,0,0,0,0.012539,-3.8799e-06,0.0037604,0.55841,0.0054317,0.011148,4.4765e-08,0.64,0.32,0
0.030433,0.0037699,0.012544,-0.00022909,0.0036946,0.00013715,0,0,0.011505,-0.0051008,0,0.00035658,0,0,0,0.012546,-0.00023056,0.0036946,0.61508,0.0053366,0.011336,4.5695e-08,0.66,0.32,0
0.030664,0.0038262,0.0125,-0.00045566,0.0036134,0.00016573,0,0,0.011553,-0.0052898,0,0.0004309,0,0,0,0.012502,-0.00045778,0.0036134,0.73276,0.0052193,0.011479,4.604e-08,0.68,0.32,0
0.030895,0.0038864,0.012344,-0.00070971,0.0034902,0.00030561,0,0,0.01151,-0.0054599,0,0.0007946,0,0,0,0.012351,-0.00071686,0.0034902,1.3404,0.0050415,0.011554,4.5271e-08,0.7,0.32,0
0.031124,0.003956,0.011961,-0.0011017,0.0032579,0.00065678,0,0,0.011315,-0.0056675,0,0.0017076,0,0,0,0.011994,-0.0011346,0.0032579,2.871,0.0047059,0.011576,4.2738e-08,0.72,0.32,0
0.031348,0.0040367,0.010839,-0.0021548,0.0026053,0.00082473,0,0,0.010704,-0.0061881,0,0.0021443,0,0,0,0.010891,-0.0022069,0.0026053,3.6173,0.0037632,0.011475,3.4165e-08,0.74,0.32,0
0.031552,0.0040716,0.010596,-0.00061999,0.0029928,0.00077588,0,0,0.03848,-0.0082192,0,0.00755,0,0,0,0.010651,-0.00067522,0.0029928,4.1355,0.004323,0.010162,2.1269e-08,0.76,0.32,0
0.032887,0.0043208,0.011386,0.0023182,0.0041112,-0.00028984,0,0,0.066198,-0.016316,0,-0.0052751,0,0,0,0.011395,0.002309,0.0041112,-1.829,0.0059384,0.0083324,2.509e-08,0.78,0.32,0
0.0342,0.0047923,0.011809,0.0017257,0.0040603,-5.7163e-07,0,0,0.07051,-0.021245,0,-1.0404e-05,0,0,0,0.011809,0.0017257,0.0040603,-0.0032483,0.0058649,0.009142,3.0783e-08,0.8,0.32,0
0.035707,0.0050364,0.012589,0.0010222,0.0040834,-0.00016922,0,0,0.077402,-0.027856,0,-0.0030798,0,0,0,0.012592,0.0010198,0.0040834,-0.838,0.0058982,0.010385,4.1089e-08,0.82,0.32,0
0.037296,0.0052072,0.012781,0.00056162,0.0040028,-0.00017385,0,0,0.079881,-0.031315,0,-0.003164,0,0,0,0.012783,0.00055915,0.0040028,-0.81493,0.0057818,0.010918,4.5105e-08,0.84,0.32,0
0.038902,0.0053367,0.012689,0.00019861,0.0038662,-0.00015996,0,0,0.080285,-0.033375,0,-0.0029113,0,0,0,0.012691,0.00019656,0.0038662,-0.73363,0.0055845,0.011123,4.5617e-08,0.86,0.32,0
0.040508,0.0054369,0.012546,-6.4368e-05,0.0037446,-0.00013934,0,0,0.080096,-0.034661,0,-0.0025361,0,0,0,0.012548,-6.5908e-05,0.0037446,-0.63299,0.0054088,0.011205,4.5101e-08,0.88,0.32,0
0.042106,0.0055151,0.012407,-0.00025461,0.0036457,-0.00011484,0,0,0.079727,-0.035493,0,-0.00209,0,0,0,0.012408,-0.00025565,0.0036457,-0.5196,0.005266,0.011233,4.4304e-08,0.9,0.32,0
0.043697,0.0055756,0.012287,-0.0003913,0.0035688,-8.9417e-05,0,0,0.079338,-0.036037,0,-0.0016274,0,0,0,0.012288,-0.00039193,0.0035688,-0.40406,0.0051549,0.011236,4.3512e-08,0.92,0.32,0
0.04528,0.0056209,0.012193,-0.00048738,0.0035116,-6.4922e-05,0,0,0.078998,-0.036391,0,-0.0011816,0,0,0,0.012193,-0.00048771,0.0035116,-0.29335,0.0050723,0.011229,4.2843e-08,0.94,0.32,0
0.046857,0.0056526,0.012125,-0.00055111,0.0034721,-4.2029e-05,0,0,0.07874,-0.036611,0,-0.00076493,0,0,0,0.012125,-0.00055125,0.0034721,-0.18997,0.0050153,0.011219,4.2346e-08,0.96,0.32,0
0.04843,0.0056713,0.012084,-0.00058754,0.003449,-2.0596e-05,0,0,0.07858,-0.036732,0,-0.00037484,0,0,0,0.012084,-0.00058758,0.003449,-0.093125,0.0049819,0.011212,4.2042e-08,0.98,0.32,0
0.05,0.0056775,0.012071,-0.0005994,0.0034414,1.706e-05,0,0,0.078526,-0.036771,0,0.00031049,0,0,0,0.012071,-0.00059942,0.0034414,0.077147,0.0049708,0.01121,4.194e-08,1,0.32,0
0,0,0.0097741,0.0041889,0.0041889,0.00075923,0,0,0.050825,-1.301e-18,0,0.013818,0,0,0,0.0098754,0.0040875,0.0041889,7.6047,0.0060506,0.0057379,9.6923e-09,0,0.34,0
0.0010165,0.00027636,0.0097306,0.0037115,0.0040326,0.00075638,0,0,0.051852,-0.0029222,0,0.013766,0,0,0,0.0098242,0.0036179,0.0040326,7.0539,0.0058249,0.0060097,1.0969e-08,0.02,0.34,0
0.0020741,0.00054967,0.0098908,0.0033498,0.0039722,0.00074593,0,0,0.053859,-0.0056634,0,0.013576,0,0,0,0.0099748,0.0032659,0.0039722,6.4241,0.0057376,0.0063851,1.282e-08,0.04,0.34,0
0.0031709,0.00081847,0.010048,0.0030118,0.003918,0.00072954,0,0,0.055785,-0.0082468,0,0.013278,0,0,0,0.010123,0.0029369,0.003918,5.8574,0.0056593,0.0067493,1.4672e-08,0.06,0.34,0
0.0043055,0.001081,0.010205,0.002696,0.0038702,0.00070669,0,0,0.057643,-0.010685,0,0.012862,0,0,0,0.010271,0.0026301,0.0038702,5.3302,0.0055902,0.0071021,1.6523e-08,0.08,0.34,0
0.0054766,0.0013355,0.010361,0.0024022,0.0038289,0.00067731,0,0,0.059441,-0.012983,0,0.012327,0,0,0,0.010418,0.0023449,0.0038289,4.8298,0.0055306,0.0074429,1.8371e-08,0.1,0.34,0
0.0066831,0.00158,0.010518,0.0021307,0.0037946,0.00064172,0,0,0.061183,-0.015141,0,0.011679,0,0,0,0.010567,0.0020819,0.0037946,4.35,0.0054811,0.0077714,2.0215e-08,0.12,0.34,0
0.0079239,0.0018127,0.010677,0.0018827,0.0037679,0.00060062,0,0,0.062872,-0.017155,0,0.010931,0,0,0,0.010718,0.0018418,0.0037679,3.8891,0.0054425,0.0080868,2.2054e-08,0.14,0.34,0
0.009198,0.002032,0.010838,0.0016593,0.0037493,0.00055501,0,0,0.064512,-0.01902,0,0.010101,0,0,0,0.010872,0.0016259,0.0037493,3.4476,0.0054157,0.0083884,2.3892e-08,0.16,0.34,0
0.010504,0.0022363,0.011004,0.0014624,0.0037399,0.00050608,0,0,0.066103,-0.020726,0,0.0092106,0,0,0,0.011031,0.0014356,0.0037399,3.0276,0.0054021,0.0086756,2.5731e-08,0.18,0.34,0
0.011842,0.0024245,0.011174,0.0012941,0.0037405,0.00045504,0,0,0.067648,-0.022263,0,0.0082818,0,0,0,0.011195,0.0012731,0.0037405,2.6314,0.005403,0.0089473,2.7573e-08,0.2,0.34,0
0.01321,0.0025955,0.01135,0.0011574,0.0037524,0.00040308,0,0,0.069143,-0.023615,0,0.0073361,0,0,0,0.011366,0.0011415,0.0037524,2.261,0.0054201,0.0092017,2.942e-08,0.22,0.34,0
0.014608,0.0027487,0.011533,0.0010564,0.0037768,0.0003511,0,0,0.070582,-0.024756,0,0.00639,0,0,0,0.011545,0.0010446,0.0037768,1.9172,0.0054554,0.0094356,3.1261e-08,0.24,0.34,0
0.016033,0.0028832,0.011721,0.00099711,0.0038155,0.0002995,0,0,0.071943,-0.025648,0,0.0054509,0,0,0,0.01173,0.00098875,0.0038155,1.5985,0.0055113,0.0096434,3.3067e-08,0.26,0.34,0
0.017486,0.0029985,0.011912,0.00098851,0.0038701,0.00024784,0,0,0.07318,-0.026223,0,0.0045106,0,0,0,0.011917,0.00098289,0.0038701,1.2991,0.0055902,0.0098149,3.4767e-08,0.28,0.34,0
0.018961,0.0030936,0.012097,0.0010441,0.0039424,0.00019426,0,0,0.074209,-0.026374,0,0.0035355,0,0,0,0.012101,0.0010407,0.0039424,1.0066,0.0056946,0.0099323,3.622e-08,0.3,0.34,0
0.020454,0.0031672,0.012262,0.0011843,0.0040339,0.00013484,0,0,0.074875,-0.025931,0,0.0024541,0,0,0,0.012264,0.0011827,0.0040339,0.6973,0.0058267,0.009966,3.7159e-08,0.32,0.34,0
0.021956,0.0032168,0.01238,0.001439,0.0041458,6.3799e-05,0,0,0.074934,-0.024632,0,0.0011611,0,0,0,0.012381,0.0014387,0.0041458,0.33408,0.0059883,0.0098709,3.7155e-08,0.34,0.34,0
0.023451,0.0032398,0.012422,0.0018501,0.0042818,-2.2953e-05,0,0,0.074081,-0.022128,0,-0.00041774,0,0,0,0.012423,0.0018501,0.0042818,-0.12439,0.0061848,0.0095907,3.5678e-08,0.36,0.34,0
0.024919,0.0032351,0.012374,0.0024526,0.004448,-0.00011725,0,0,0.072128,-0.018159,0,-0.002134,0,0,0,0.012376,0.0024512,0.004448,-0.67699,0.0064249,0.009092,3.2412e-08,0.38,0.34,0
0.026336,0.0032069,0.012249,0.0032122,0.0046383,-0.0001926,0,0,0.069254,-0.012977,0,-0.0035053,0,0,0,0.012253,0.0032081,0.0046383,-1.2204,0.0066997,0.0084211,2.7713e-08,0.4,0.34,0
0.027689,0.0031674,0.011968,0.0003413,0.0036929,-0.00023479,0,0,0.039747,-0.0076248,0,-0.0023915,0,0,0,0.011973,0.00033621,0.0036929,-1.2512,0.0053341,0.01049,3.3158e-08,0.42,0.34,0
0.027926,0.0031985,0.01197,-0.0016985,0.0030816,-0.00022457,0,0,0.011555,-0.0062141,0,-0.00058389,0,0,0,0.011974,-0.0017022,0.0030816,-0.941,0.0044511,0.012021,4.3959e-08,0.44,0.34,0
0.028151,0.0032316,0.011935,-0.00068339,0.0033754,-0.00016841,0,0,0.011127,-0.0052764,0,-0.00043787,0,0,0,0.011937,-0.00068563,0.0033754,-0.76454,0.0048755,0.011161,4.0846e-08,0.46,0.34,0
0.028371,0.0032683,0.011992,-0.00019322,0.0035397,-0.00011165,0,0,0.010988,-0.0048528,0,-0.00029029,0,0,0,0.011993,-0.00019424,0.0035397,-0.52491,0.0051129,0.010815,3.9831e-08,0.48,0.34,0
0.028591,0.0033077,0.012116,1.1235e-05,0.0036383,-9.8381e-05,0,0,0.011022,-0.0047152,0,-0.00025579,0,0,0,0.012117,1.0436e-05,0.0036383,-0.46562,0.0052553,0.010762,4.0351e-08,0.5,0.34,0
0.028812,0.0033485,0.012249,0.00013527,0.0037154,-9.9625e-05,0,0,0.011094,-0.0046542,0,-0.00025903,0,0,0,0.01225,0.00013445,0.0037154,-0.47115,0.0053667,0.010781,4.1237e-08,0.52,0.34,0
0.029035,0.00339,0.012342,0.00023286,0.0037725,-9.4538e-05,0,0,0.01114,-0.0046015,0,-0.0002458,0,0,0,0.012343,0.00023212,0.0037725,-0.44728,0.0054491,0.010785,4.181e-08,0.54,0.34,0
0.029258,0.0034324,0.012397,0.00030116,0.0038093,-7.3134e-05,0,0,0.011163,-0.0045606,0,-0.00019015,0,0,0,0.012397,0.00030072,0.0038093,-0.34642,0.0055023,0.010779,4.2099e-08,0.56,0.34,0
0.029481,0.0034762,0.01243,0.00031743,0.0038243,-3.7537e-05,0,0,0.011188,-0.004559,0,-9.7596e-05,0,0,0,0.012431,0.00031731,0.0038243,-0.17755,0.005524,0.010796,4.2379e-08,0.58,0.34,0
0.029705,0.0035216,0.012459,0.00026513,0.0038172,6.0684e-06,0,0,0.011234,-0.0046177,0,1.5778e-05,0,0,0,0.012459,0.00026513,0.0038172,0.028514,0.0055137,0.010862,4.2878e-08,0.6,0.34,0
0.029931,0.0035689,0.012487,0.00014387,0.0037892,5.021e-05,0,0,0.011307,-0.0047389,0,0.00013055,0,0,0,0.012487,0.00014367,0.0037892,0.23307,0.0054732,0.010984,4.3647e-08,0.62,0.34,0
0.030158,0.0036178,0.012511,-3.0154e-05,0.0037441,8.9841e-05,0,0,0.011397,-0.0049066,0,0.00023358,0,0,0,0.012511,-3.0797e-05,0.0037441,0.41043,0.0054082,0.011145,4.4576e-08,0.64,0.34,0
0.030387,0.0036682,0.012532,-0.00023287,0.0036898,0.00012621,0,0,0.011495,-0.0050995,0,0.00032814,0,0,0,0.012533,-0.00023412,0.0036898,0.56641,0.0053297,0.011327,4.5573e-08,0.66,0.34,0
0.030617,0.0037204,0.012587,-0.00045484,0.0036397,0.00017744,0,0,0.011632,-0.0053229,0,0.00046134,0,0,0,0.012589,-0.00045725,0.0036397,0.77933,0.0052573,0.011556,4.6995e-08,0.68,0.34,0
0.030852,0.0037752,0.012809,-0.00072869,0.0036242,0.00028556,0,0,0.011941,-0.0056587,0,0.00074244,0,0,0,0.012815,-0.00073471,0.0036242,1.2078,0.0052349,0.011981,5.0538e-08,0.7,0.34,0
0.031095,0.0038347,0.01348,-0.0011624,0.0036954,0.00052925,0,0,0.01272,-0.0063151,0,0.001376,0,0,0,0.013499,-0.0011815,0.0036954,2.0673,0.0053378,0.012951,6.0593e-08,0.72,0.34,0
0.03136,0.0039005,0.014554,-0.0018926,0.0037983,0.00069641,0,0,0.013982,-0.0073982,0,0.0018107,0,0,0,0.014583,-0.0019221,0.0037983,2.4204,0.0054864,0.014516,7.8882e-08,0.74,0.34,0
0.031654,0.0039372,0.011458,0.00086847,0.0036981,0.00089674,0,0,0.019435,-0.0065563,0,0.0069216,0,0,0,0.011552,0.000775,0.0036981,7.0467,0.0053416,0.0096536,7.7296e-08,0.76,0.34,0
0.032091,0.0040496,0.01755,0.0012497,0.0056399,8.1136e-05,0,0,0.042952,-0.010962,0,-0.0065236,0,0,0,0.017615,0.0011841,0.0056399,-1.6964,0.0081465,0.01475,1.6821e-07,0.78,0.34,0
0.033795,0.0043479,0.014223,0.0021637,0.0049161,-4.4741e-05,0,0,0.084695,-0.025047,0,-0.0008143,0,0,0,0.014223,0.0021635,0.0049161,-0.21257,0.007101,0.010946,5.3275e-08,0.8,0.34,0
0.035478,0.0044637,0.013627,0.0012313,0.0044574,-5.1847e-05,0,0,0.08344,-0.029357,0,-0.00094361,0,0,0,0.013627,0.0012311,0.0044574,-0.23965,0.0064385,0.011139,5.1417e-08,0.82,0.34,0
0.037133,0.0045704,0.013199,0.00060675,0.0041416,1.1064e-05,0,0,0.082419,-0.032167,0,0.00020137,0,0,0,0.013199,0.00060674,0.0041416,0.050344,0.0059823,0.011249,4.9509e-08,0.84,0.34,0
0.038775,0.0046604,0.012935,0.00020491,0.0039419,2.4191e-05,0,0,0.081834,-0.034006,0,0.00044028,0,0,0,0.012935,0.00020487,0.0039419,0.10888,0.0056938,0.011333,4.8279e-08,0.86,0.34,0
0.040406,0.0047358,0.012729,-7.0756e-05,0.0037976,2.7281e-05,0,0,0.081279,-0.035202,0,0.00049651,0,0,0,0.012729,-7.0814e-05,0.0037976,0.12211,0.0054854,0.011371,4.7103e-08,0.88,0.34,0
0.042026,0.004798,0.01256,-0.00026423,0.0036888,2.6975e-05,0,0,0.080731,-0.035973,0,0.00049094,0,0,0,0.01256,-0.00026429,0.0036888,0.12051,0.0053283,0.011376,4.5978e-08,0.9,0.34,0
0.043635,0.0048483,0.012423,-0.00040074,0.0036067,2.4679e-05,0,0,0.080228,-0.036467,0,0.00044916,0,0,0,0.012423,-0.00040079,0.0036067,0.11027,0.0052096,0.011363,4.4979e-08,0.92,0.34,0
0.045235,0.0048871,0.012316,-0.00049546,0.0035463,2.0533e-05,0,0,0.079809,-0.03678,0,0.0003737,0,0,0,0.012316,-0.00049549,0.0035463,0.091824,0.0051224,0.011345,4.4168e-08,0.94,0.34,0
0.046828,0.0049147,0.012241,-0.00055773,0.0035049,1.4733e-05,0,0,0.079497,-0.03697,0,0.00026814,0,0,0,0.012241,-0.00055774,0.0035049,0.065955,0.0050627,0.011328,4.3575e-08,0.96,0.34,0
0.048415,0.0049312,0.012196,-0.00059312,0.0034808,7.6954e-06,0,0,0.079306,-0.037072,0,0.00014006,0,0,0,0.012196,-0.00059312,0.0034808,0.034477,0.0050278,0.011316,4.3216e-08,0.98,0.34,0
0.05,0.0049368,0.012181,-0.0006046,0.0034728,1.5171e-05,0,0,0.079241,-0.037104,0,0.00027611,0,0,0,0.012181,-0.00060462,0.0034728,0.067986,0.0050163,0.011312,4.3096e-08,1,0.34,0
0,0,0.0097696,0.004187,0.004187,0.00059959,0,0,0.050802,4.3368e-19,0,0.010913,0,0,0,0.0098333,0.0041233,0.004187,6.0616,0.0060479,0.0056784,9.3999e-09,0,0.36,0
0.001016,0.00021825,0.0097267,0.0037169,0.0040331,0.00059655,0,0,0.051812,-0.0028774,0,0.010857,0,0,0,0.0097853,0.0036582,0.0040331,5.6143,0.0058256,0.0059486,1.0666e-08,0.02,0.36,0
0.0020725,0.00043715,0.0098845,0.0033619,0.0039739,0.00058947,0,0,0.053786,-0.0055694,0,0.010728,0,0,0,0.0099373,0.0033091,0.0039739,5.1227,0.0057401,0.0063221,1.2495e-08,0.04,0.36,0
0.0031675,0.00065473,0.01004,0.0030309,0.0039212,0.00057468,0,0,0.055678,-0.008101,0,0.010459,0,0,0,0.010086,0.0029841,0.0039212,4.6565,0.0056639,0.0066832,1.4321e-08,0.06,0.36,0
0.0042996,0.00086898,0.010194,0.0027224,0.0038748,0.00055216,0,0,0.057502,-0.010487,0,0.010049,0,0,0,0.010234,0.0026818,0.0038748,4.2039,0.005597,0.0070323,1.6142e-08,0.08,0.36,0
0.0054676,0.0010779,0.010348,0.0024356,0.0038351,0.00052212,0,0,0.059269,-0.012736,0,0.0095025,0,0,0,0.010382,0.0024013,0.0038351,3.759,0.0055396,0.0073697,1.7962e-08,0.1,0.36,0
0.0066703,0.0012797,0.010504,0.0021706,0.0038024,0.00048499,0,0,0.060985,-0.014849,0,0.0088268,0,0,0,0.010532,0.0021425,0.0038024,3.3196,0.0054923,0.0076952,1.9782e-08,0.12,0.36,0
0.007907,0.0014724,0.010662,0.0019281,0.0037771,0.00044144,0,0,0.062655,-0.016826,0,0.0080342,0,0,0,0.010684,0.0019058,0.0037771,2.886,0.0054558,0.0080087,2.1605e-08,0.14,0.36,0
0.0091765,0.0016546,0.010824,0.0017092,0.0037599,0.00039237,0,0,0.064282,-0.018661,0,0.0071411,0,0,0,0.010841,0.0016924,0.0037599,2.4604,0.005431,0.0083098,2.3434e-08,0.16,0.36,0
0.010478,0.0018249,0.01099,0.0015156,0.0037517,0.00033882,0,0,0.065869,-0.020348,0,0.0061666,0,0,0,0.011002,0.0015035,0.0037517,2.0455,0.0054191,0.0085979,2.5274e-08,0.18,0.36,0
0.011811,0.0019823,0.011162,0.0013494,0.0037533,0.00028202,0,0,0.067417,-0.021876,0,0.0051327,0,0,0,0.01117,0.0013412,0.0037533,1.6449,0.0054215,0.008872,2.7129e-08,0.2,0.36,0
0.013175,0.0021262,0.01134,0.0012134,0.0037661,0.0002233,0,0,0.068924,-0.023229,0,0.004064,0,0,0,0.011345,0.0012085,0.0037661,1.2626,0.0054399,0.0091305,2.8998e-08,0.22,0.36,0
0.014568,0.0022563,0.011525,0.001112,0.0037912,0.00016419,0,0,0.070381,-0.024381,0,0.0029883,0,0,0,0.011528,0.0011094,0.0037912,0.90312,0.0054762,0.00937,3.0874e-08,0.24,0.36,0
0.01599,0.0023728,0.011717,0.0010512,0.0038304,0.00010653,0,0,0.071766,-0.02529,0,0.0019389,0,0,0,0.011718,0.0010502,0.0038304,0.57224,0.0055328,0.0095849,3.2726e-08,0.26,0.36,0
0.017439,0.0024765,0.011911,0.0010402,0.0038853,5.2702e-05,0,0,0.073032,-0.02589,0,0.00095918,0,0,0,0.011911,0.00104,0.0038853,0.27777,0.0056121,0.0097645,3.4482e-08,0.28,0.36,0
0.018911,0.0025687,0.0121,0.0010928,0.0039578,6.0234e-06,0,0,0.074093,-0.026072,0,0.00010963,0,0,0,0.0121,0.0010928,0.0039578,0.031354,0.0057168,0.0098908,3.5998e-08,0.3,0.36,0
0.020403,0.0026517,0.012268,0.0012296,0.0040493,-2.8669e-05,0,0,0.074791,-0.025659,0,-0.00052177,0,0,0,0.012268,0.0012295,0.0040493,-0.1488,0.005849,0.0099336,3.7002e-08,0.32,0.36,0
0.021903,0.0027288,0.012389,0.001481,0.0041612,-4.5301e-05,0,0,0.074878,-0.02439,0,-0.00082449,0,0,0,0.01239,0.0014808,0.0041612,-0.23793,0.0060106,0.0098463,3.7054e-08,0.34,0.36,0
0.023398,0.0028038,0.012434,0.001889,0.0042971,-3.9831e-05,0,0,0.074051,-0.021913,0,-0.00072492,0,0,0,0.012435,0.0018889,0.0042971,-0.2164,0.0062069,0.0095717,3.561e-08,0.36,0.36,0
0.024865,0.0028792,0.012389,0.002488,0.0044631,-1.9565e-05,0,0,0.072125,-0.017973,0,-0.00035608,0,0,0,0.012389,0.002488,0.0044631,-0.11322,0.0064467,0.0090761,3.2354e-08,0.38,0.36,0
0.026283,0.0029526,0.012267,0.0032414,0.0046524,-7.2994e-06,0,0,0.06929,-0.012841,0,-0.00013285,0,0,0,0.012267,0.0032414,0.0046524,-0.046339,0.0067202,0.0084091,2.7664e-08,0.4,0.36,0
0.027637,0.0030157,0.011993,0.00038395,0.0037131,-2.8298e-05,0,0,0.039778,-0.0075738,0,-3.2537e-05,0,0,0,0.011993,0.00038382,0.0037131,-0.10034,0.0053633,0.010469,3.3282e-08,0.42,0.36,0
0.027874,0.0030737,0.011999,-0.0016625,0.003101,-0.00011739,0,0,0.011568,-0.0061925,0,-0.00030522,0,0,0,0.012,-0.0016635,0.003101,-0.49228,0.0044792,0.012012,4.4148e-08,0.44,0.36,0
0.028099,0.0031254,0.011968,-0.00067678,0.0033874,-0.0002191,0,0,0.011155,-0.0052834,0,-0.00056966,0,0,0,0.011972,-0.00068058,0.0033874,-0.99238,0.0048929,0.011188,4.1185e-08,0.46,0.36,0
0.02832,0.0031712,0.012029,-0.0002051,0.0035472,-0.00027501,0,0,0.011026,-0.004878,0,-0.00071502,0,0,0,0.012035,-0.00021128,0.0035472,-1.2871,0.0051237,0.010866,4.0306e-08,0.48,0.36,0
0.02854,0.0032138,0.012154,-1.0971e-05,0.0036429,-0.00025665,0,0,0.011064,-0.00475,0,-0.0006673,0,0,0,0.012159,-1.6383e-05,0.0036429,-1.2081,0.0052619,0.010821,4.0869e-08,0.5,0.36,0
0.028763,0.0032556,0.012286,0.00010672,0.0037178,-0.00020537,0,0,0.011139,-0.0046944,0,-0.00053397,0,0,0,0.01229,0.00010325,0.0037178,-0.96579,0.0053702,0.010841,4.1753e-08,0.52,0.36,0
0.028986,0.0032979,0.012377,0.0001998,0.0037732,-0.00014882,0,0,0.011185,-0.0046454,0,-0.00038692,0,0,0,0.012379,0.00019798,0.0037732,-0.70004,0.0054501,0.010845,4.2315e-08,0.54,0.36,0
0.02921,0.0033409,0.012431,0.00026482,0.0038088,-0.00010064,0,0,0.011209,-0.0046072,0,-0.00026165,0,0,0,0.012432,0.00026398,0.0038088,-0.47388,0.0055016,0.01084,4.2605e-08,0.56,0.36,0
0.029434,0.0033846,0.012465,0.0002784,0.003823,-6.062e-05,0,0,0.011234,-0.0046079,0,-0.00015761,0,0,0,0.012465,0.0002781,0.003823,-0.285,0.0055221,0.010858,4.2893e-08,0.58,0.36,0
0.029659,0.0034288,0.012493,0.0002239,0.0038152,-2.3782e-05,0,0,0.011282,-0.0046687,0,-6.1833e-05,0,0,0,0.012493,0.00022385,0.0038152,-0.11106,0.0055109,0.010926,4.3403e-08,0.6,0.36,0
0.029886,0.0034736,0.012522,0.00010095,0.0037869,1.6273e-05,0,0,0.011355,-0.0047917,0,4.231e-05,0,0,0,0.012522,0.00010093,0.0037869,0.075064,0.0054699,0.011049,4.4183e-08,0.62,0.36,0
0.030114,0.0035193,0.012546,-7.3973e-05,0.0037417,6.301e-05,0,0,0.011446,-0.0049604,0,0.00016383,0,0,0,0.012547,-7.4287e-05,0.0037417,0.28606,0.0054047,0.011211,4.5119e-08,0.64,0.36,0
0.030343,0.0035659,0.012567,-0.00027606,0.0036873,0.00011239,0,0,0.011544,-0.0051524,0,0.00029221,0,0,0,0.012568,-0.00027704,0.0036873,0.50133,0.0053261,0.011393,4.6109e-08,0.66,0.36,0
0.030575,0.0036133,0.012617,-0.00049559,0.0036364,0.00014101,0,0,0.011675,-0.0053716,0,0.00036663,0,0,0,0.012618,-0.00049711,0.0036364,0.61606,0.0052526,0.011614,4.7459e-08,0.68,0.36,0
0.030811,0.0036601,0.012821,-0.00076401,0.0036171,9.7982e-05,0,0,0.011965,-0.0056954,0,0.00025475,0,0,0,0.012822,-0.00076471,0.0036171,0.41322,0.0052246,0.012011,5.0717e-08,0.7,0.36,0
0.031054,0.0037034,0.013414,-0.0012042,0.003663,-0.00011016,0,0,0.012676,-0.0063273,0,-0.00028642,0,0,0,0.013415,-0.001205,0.003663,-0.43175,0.005291,0.012894,5.9569e-08,0.72,0.36,0
0.031318,0.0037408,0.01428,-0.0019635,0.0036951,-0.00023583,0,0,0.013761,-0.0073561,0,-0.00061316,0,0,0,0.014284,-0.0019669,0.0036951,-0.8316,0.0053373,0.014287,7.441e-08,0.74,0.36,0
0.031604,0.0038125,0.011109,0.00062631,0.0035206,-0.00043462,0,0,0.019016,-0.0067919,0,-0.0038191,0,0,0,0.011136,0.0005998,0.0035206,-3.9536,0.0050854,0.0094219,7.1077e-08,0.76,0.36,0
0.032031,0.0038563,0.017325,0.0012317,0.0055669,0.00047113,0,0,0.042939,-0.010462,0,0.010845,0,0,0,0.017416,0.0011405,0.0055669,3.7753,0.008041,0.014611,1.5773e-07,0.78,0.36,0
0.033754,0.0037904,0.014351,0.002207,0.0049674,0.00042101,0,0,0.085391,-0.025119,0,0.0076623,0,0,0,0.014366,0.0021924,0.0049674,1.9831,0.0071751,0.01105,5.4844e-08,0.8,0.36,0
0.035447,0.0038621,0.013701,0.0012553,0.004487,0.00037171,0,0,0.08385,-0.029408,0,0.0067651,0,0,0,0.013712,0.0012443,0.004487,1.7091,0.0064812,0.011204,5.2363e-08,0.82,0.36,0
0.037108,0.0039205,0.013248,0.00062088,0.0041605,0.00028131,0,0,0.082691,-0.032211,0,0.0051199,0,0,0,0.013254,0.00061462,0.0041605,1.2757,0.0060096,0.011292,5.0107e-08,0.84,0.36,0
0.038755,0.0039764,0.012976,0.00021867,0.0039583,0.0002422,0,0,0.082058,-0.03403,0,0.004408,0,0,0,0.01298,0.00021408,0.0039583,1.0873,0.0057175,0.011366,4.8754e-08,0.86,0.36,0
0.04039,0.0040288,0.012766,-5.5615e-05,0.003813,0.00021108,0,0,0.081469,-0.035205,0,0.0038417,0,0,0,0.012769,-5.909e-05,0.003813,0.94294,0.0055077,0.011397,4.7498e-08,0.88,0.36,0
0.042014,0.0040761,0.012594,-0.00024713,0.0037039,0.00017973,0,0,0.080895,-0.035954,0,0.003271,0,0,0,0.012596,-0.00024965,0.0037039,0.80175,0.0053501,0.011395,4.6312e-08,0.9,0.36,0
0.043626,0.0041169,0.012454,-0.0003817,0.0036216,0.0001464,0,0,0.080372,-0.03643,0,0.0026645,0,0,0,0.012455,-0.00038337,0.0036216,0.6534,0.0052312,0.011378,4.5267e-08,0.92,0.36,0
0.045228,0.0041497,0.012346,-0.00047476,0.0035612,0.00011128,0,0,0.079937,-0.036728,0,0.0020253,0,0,0,0.012346,-0.00047573,0.0035612,0.49727,0.005144,0.011355,4.442e-08,0.94,0.36,0
0.046823,0.0041738,0.012269,-0.00053577,0.0035199,7.4859e-05,0,0,0.079615,-0.036907,0,0.0013624,0,0,0,0.012269,-0.00053621,0.0035199,0.33495,0.0050843,0.011335,4.3803e-08,0.96,0.36,0
0.048413,0.0041884,0.012223,-0.00057039,0.0034958,3.7625e-05,0,0,0.079417,-0.037002,0,0.00068477,0,0,0,0.012223,-0.0005705,0.0034958,0.1685,0.0050494,0.011322,4.3429e-08,0.98,0.36,0
0.05,0.0041933,0.012208,-0.00058162,0.0034878,1.3527e-05,0,0,0.07935,-0.037032,0,0.0002462,0,0,0,0.012208,-0.00058163,0.0034878,0.060603,0.0050379,0.011317,4.3305e-08,1,0.36,0
0,0,0.0097465,0.0041771,0.0041771,0.00044303,0,0,0.050682,3.2526e-19,0,0.0080631,0,0,0,0.0097815,0.0041421,0.0041771,4.5198,0.0060336,0.005622,9.1254e-09,0,0.38,0
0.0010136,0.00016126,0.0097045,0.0037179,0.0040267,0.0004398,0,0,0.051668,-0.0028103,0,0.0080044,0,0,0,0.0097366,0.0036858,0.0040267,4.1793,0.0058164,0.0058878,1.0365e-08,0.02,0.38,0
0.0020667,0.0003269,0.0098585,0.0033716,0.0039691,0.00043613,0,0,0.053594,-0.0054365,0,0.0079376,0,0,0,0.0098877,0.0033424,0.0039691,3.8292,0.0057331,0.0062556,1.2148e-08,0.04,0.38,0
0.0031574,0.00049443,0.01001,0.0030492,0.0039177,0.00042291,0,0,0.055438,-0.0079033,0,0.0076969,0,0,0,0.010035,0.0030236,0.0039177,3.4641,0.0056589,0.0066103,1.3924e-08,0.06,0.38,0
0.0042842,0.00066153,0.01016,0.002749,0.0038727,0.00040059,0,0,0.057216,-0.010226,0,0.0072907,0,0,0,0.010182,0.0027274,0.0038727,3.085,0.005594,0.0069528,1.5695e-08,0.08,0.38,0
0.005446,0.00082605,0.010311,0.00247,0.0038342,0.00036966,0,0,0.058936,-0.012414,0,0.0067278,0,0,0,0.010328,0.0024526,0.0038342,2.6933,0.0055384,0.0072837,1.7463e-08,0.1,0.38,0
0.0066417,0.00098602,0.010463,0.0022124,0.0038025,0.00033069,0,0,0.060608,-0.014471,0,0.0060185,0,0,0,0.010476,0.0021991,0.0038025,2.2916,0.0054926,0.0076031,1.9232e-08,0.12,0.38,0
0.0078703,0.0011397,0.010617,0.0019764,0.0037781,0.00028434,0,0,0.062236,-0.016395,0,0.005175,0,0,0,0.010627,0.001967,0.0037781,1.8827,0.0054572,0.007911,2.1005e-08,0.14,0.38,0
0.0091311,0.0012855,0.010775,0.0017631,0.0037614,0.00023144,0,0,0.063824,-0.018185,0,0.0042121,0,0,0,0.010781,0.0017572,0.0037614,1.4701,0.0054332,0.0082073,2.2787e-08,0.16,0.38,0
0.010423,0.0014224,0.010937,0.001574,0.0037534,0.00017294,0,0,0.065374,-0.019833,0,0.0031475,0,0,0,0.010941,0.0015708,0.0037534,1.0578,0.0054215,0.0084915,2.4581e-08,0.18,0.38,0
0.011746,0.0015494,0.011105,0.001411,0.0037548,0.00011003,0,0,0.066888,-0.02133,0,0.0020025,0,0,0,0.011106,0.0014097,0.0037548,0.65019,0.0054237,0.0087628,2.6394e-08,0.2,0.38,0
0.013099,0.0016664,0.01128,0.0012768,0.003767,4.4187e-05,0,0,0.068366,-0.022661,0,0.00080421,0,0,0,0.01128,0.0012766,0.003767,0.25309,0.0054412,0.0090198,2.8227e-08,0.22,0.38,0
0.014481,0.0017734,0.011462,0.0011753,0.0037911,-2.2568e-05,0,0,0.069803,-0.023804,0,-0.00041074,0,0,0,0.011462,0.0011753,0.0037911,-0.12571,0.005476,0.00926,3.0075e-08,0.24,0.38,0
0.015891,0.0018716,0.011651,0.001112,0.003829,-8.728e-05,0,0,0.071182,-0.024724,0,-0.0015885,0,0,0,0.011652,0.0011113,0.003829,-0.47445,0.0055307,0.0094786,3.192e-08,0.26,0.38,0
0.017328,0.0019629,0.011847,0.0010949,0.0038825,-0.00014531,0,0,0.072475,-0.025367,0,-0.0026447,0,0,0,0.011849,0.001093,0.0038825,-0.77416,0.0056081,0.0096677,3.3713e-08,0.28,0.38,0
0.01879,0.0020508,0.012044,0.0011358,0.0039541,-0.00018913,0,0,0.073623,-0.025646,0,-0.0034421,0,0,0,0.012048,0.0011325,0.0039541,-0.99296,0.0057115,0.0098136,3.5353e-08,0.3,0.38,0
0.020273,0.0021408,0.012235,0.0012519,0.004046,-0.00020671,0,0,0.074518,-0.025426,0,-0.003762,0,0,0,0.012239,0.0012481,0.004046,-1.0778,0.0058443,0.009893,3.6645e-08,0.32,0.38,0
0.021771,0.0022412,0.012399,0.0014685,0.0041602,-0.00018028,0,0,0.074972,-0.024494,0,-0.003281,0,0,0,0.012402,0.0014656,0.0041602,-0.94464,0.0060092,0.0098689,3.7238e-08,0.34,0.38,0
0.023272,0.0023633,0.012496,0.0018195,0.0042946,-9.2476e-05,0,0,0.074632,-0.022524,0,-0.0016831,0,0,0,0.012497,0.0018186,0.0042946,-0.49622,0.0062034,0.0096806,3.652e-08,0.36,0.38,0
0.024756,0.0025161,0.012487,0.0023722,0.0044578,4.937e-05,0,0,0.073067,-0.018979,0,0.00089853,0,0,0,0.012488,0.0023719,0.0044578,0.27964,0.0064391,0.0092507,3.3793e-08,0.38,0.38,0
0.026194,0.0026933,0.012395,0.0031809,0.0046727,0.0001733,0,0,0.070271,-0.013575,0,0.003154,0,0,0,0.012398,0.0031777,0.0046727,1.0771,0.0067495,0.0085712,2.9052e-08,0.4,0.38,0
0.027567,0.0028645,0.012075,0.00037944,0.0037363,0.00016797,0,0,0.040246,-0.0076369,0,0.0023552,0,0,0,0.012079,0.00037556,0.0037363,1.0117,0.0053969,0.010554,3.3806e-08,0.42,0.38,0
0.027804,0.0029508,0.012171,-0.0013659,0.0032414,-7.5806e-06,0,0,0.011608,-0.0059895,0,-1.971e-05,0,0,0,0.012171,-0.0013659,0.0032414,-0.032087,0.004682,0.01192,4.5239e-08,0.44,0.38,0
0.028031,0.0030202,0.012156,-0.00047685,0.0035039,-0.00032751,0,0,0.011248,-0.0051749,0,-0.00085151,0,0,0,0.012165,-0.00048534,0.0035039,-1.484,0.0050611,0.011202,4.2543e-08,0.46,0.38,0
0.028254,0.0030732,0.012219,-0.00025251,0.0035898,-0.00044397,0,0,0.011217,-0.004995,0,-0.0011543,0,0,0,0.012234,-0.00026829,0.0035898,-2.0363,0.0051853,0.011089,4.2526e-08,0.48,0.38,0
0.02848,0.0031177,0.012384,-0.00010402,0.003684,-0.00039757,0,0,0.01131,-0.0049245,0,-0.0010337,0,0,0,0.012397,-0.00011666,0.003684,-1.8216,0.0053214,0.011112,4.3682e-08,0.5,0.38,0
0.028707,0.0031607,0.012482,1.5018e-05,0.0037491,-0.00028281,0,0,0.011353,-0.0048543,0,-0.0007353,0,0,0,0.012488,8.6058e-06,0.0037491,-1.2989,0.0054153,0.011093,4.4181e-08,0.52,0.38,0
0.028934,0.0032042,0.012529,0.00013549,0.0037995,-0.00018099,0,0,0.011349,-0.0047632,0,-0.00047058,0,0,0,0.012532,0.00013284,0.0037995,-0.83647,0.0054881,0.011033,4.4167e-08,0.54,0.38,0
0.029161,0.0032481,0.012546,0.00022554,0.0038314,-0.00011363,0,0,0.011329,-0.0046876,0,-0.00029545,0,0,0,0.012547,0.00022449,0.0038314,-0.5284,0.0055343,0.010973,4.3963e-08,0.56,0.38,0
0.029387,0.0032919,0.012557,0.00025411,0.0038434,-7.7199e-05,0,0,0.011328,-0.0046661,0,-0.00020072,0,0,0,0.012558,0.00025363,0.0038434,-0.3595,0.0055516,0.01096,4.3963e-08,0.58,0.38,0
0.029614,0.0033349,0.012578,0.00020012,0.0038336,-5.3841e-05,0,0,0.011368,-0.0047235,0,-0.00013999,0,0,0,0.012579,0.00019988,0.0038336,-0.24921,0.0055374,0.011021,4.4398e-08,0.6,0.38,0
0.029842,0.0033772,0.012611,6.3568e-05,0.0038024,-2.3454e-05,0,0,0.011451,-0.0048604,0,-6.0979e-05,0,0,0,0.012611,6.3524e-05,0.0038024,-0.1071,0.0054923,0.011158,4.5283e-08,0.62,0.38,0
0.030072,0.0034193,0.012644,-0.00013396,0.0037529,2.9272e-05,0,0,0.011558,-0.0050529,0,7.6106e-05,0,0,0,0.012644,-0.00013402,0.0037529,0.13126,0.0054209,0.011345,4.6401e-08,0.64,0.38,0
0.030304,0.0034621,0.012651,-0.00035907,0.0036875,0.00010152,0,0,0.011652,-0.0052605,0,0.00026395,0,0,0,0.012651,-0.00035987,0.0036875,0.44705,0.0053264,0.011533,4.7331e-08,0.66,0.38,0
0.030538,0.0035055,0.012602,-0.00057658,0.0036076,0.00015809,0,0,0.011692,-0.0054394,0,0.00041102,0,0,0,0.012604,-0.00057847,0.0036076,0.68717,0.0052109,0.011667,4.7581e-08,0.68,0.38,0
0.030772,0.0035474,0.012424,-0.00081265,0.0034835,9.6863e-05,0,0,0.011623,-0.005585,0,0.00025184,0,0,0,0.012425,-0.00081336,0.0034835,0.41924,0.0050317,0.011698,4.639e-08,0.7,0.38,0
0.031003,0.0035816,0.012006,-0.0011628,0.003253,-0.000179,0,0,0.011379,-0.0057406,0,-0.00046541,0,0,0,0.012009,-0.0011653,0.003253,-0.77862,0.0046988,0.011613,4.297e-08,0.72,0.38,0
0.031227,0.0036063,0.010967,-0.0021162,0.0026553,-0.00032371,0,0,0.010805,-0.006203,0,-0.00084164,0,0,0,0.010975,-0.0021242,0.0026553,-1.4164,0.0038355,0.011482,3.4818e-08,0.74,0.38,0
0.031435,0.0036711,0.010685,-0.00070778,0.0029933,-0.00033628,0,0,0.038785,-0.00842,0,-0.0037955,0,0,0,0.010697,-0.00071928,0.0029933,-1.8775,0.0043237,0.010242,2.136e-08,0.76,0.38,0
0.032778,0.0036151,0.011537,0.002552,0.0042266,0.0006696,0,0,0.066522,-0.015239,0,0.012187,0,0,0,0.011586,0.0025024,0.0042266,4.2388,0.0061051,0.0083564,2.5721e-08,0.78,0.38,0
0.034096,0.0033432,0.011912,0.0017829,0.0041084,0.00037249,0,0,0.071011,-0.021162,0,0.0067792,0,0,0,0.011926,0.0017692,0.0041084,2.1032,0.0059344,0.0092122,3.1593e-08,0.8,0.38,0
0.035619,0.0032873,0.012732,0.0010681,0.0041399,0.00050745,0,0,0.078185,-0.027954,0,0.0092355,0,0,0,0.012754,0.001046,0.0041399,2.4865,0.0059799,0.010508,4.2637e-08,0.82,0.38,0
0.037223,0.003282,0.012912,0.00060181,0.0040541,0.00047711,0,0,0.080606,-0.031416,0,0.0086835,0,0,0,0.01293,0.00058334,0.0040541,2.2162,0.0058559,0.011029,4.66e-08,0.84,0.38,0
0.038843,0.0032992,0.012806,0.0002398,0.0039137,0.00043461,0,0,0.080919,-0.033433,0,0.00791,0,0,0,0.012821,0.00022479,0.0039137,1.9785,0.0056532,0.011216,4.6927e-08,0.86,0.38,0
0.04046,0.0033276,0.012653,-1.8413e-05,0.0037903,0.00038411,0,0,0.080648,-0.034659,0,0.0069909,0,0,0,0.012664,-3.0046e-05,0.0037903,1.7348,0.0054749,0.01128,4.6227e-08,0.88,0.38,0
0.042069,0.0033599,0.012505,-0.00020275,0.0036906,0.00032649,0,0,0.080209,-0.035429,0,0.005942,0,0,0,0.012513,-0.00021113,0.0036906,1.4708,0.0053308,0.011291,4.5269e-08,0.9,0.38,0
0.043668,0.0033911,0.012379,-0.00033367,0.0036134,0.00026419,0,0,0.079762,-0.035919,0,0.0048083,0,0,0,0.012384,-0.00033916,0.0036134,1.1901,0.0052194,0.011279,4.4346e-08,0.92,0.38,0
0.045259,0.0034179,0.012279,-0.00042481,0.0035563,0.00019934,0,0,0.079378,-0.036228,0,0.003628,0,0,0,0.012282,-0.00042794,0.0035563,0.89876,0.0051369,0.01126,4.3576e-08,0.94,0.38,0
0.046844,0.0034384,0.012208,-0.00048484,0.003517,0.00013328,0,0,0.079089,-0.036416,0,0.0024257,0,0,0,0.012209,-0.00048624,0.003517,0.60155,0.0050801,0.011242,4.3009e-08,0.96,0.38,0
0.048423,0.0034512,0.012165,-0.00051898,0.0034939,6.6722e-05,0,0,0.078911,-0.036518,0,0.0012143,0,0,0,0.012166,-0.00051934,0.0034939,0.30137,0.0050468,0.01123,4.2664e-08,0.98,0.38,0
0.05,0.0034555,0.012151,-0.00053007,0.0034864,1.1887e-05,0,0,0.078851,-0.03655,0,0.00021633,0,0,0,0.012151,-0.00053008,0.0034864,0.053704,0.0050359,0.011226,4.2549e-08,1,0.38,0
0,0,0.009705,0.0041593,0.0041593,0.00029076,0,0,0.050466,-7.5894e-19,0,0.0052919,0,0,0,0.0097202,0.0041441,0.0041593,2.9931,0.0060078,0.0055685,8.8682e-09,0,0.4,0
0.0010093,0.00010584,0.0096643,0.0037146,0.0040136,0.0002874,0,0,0.051421,-0.0027218,0,0.0052308,0,0,0,0.0096781,0.0037007,0.0040136,2.7591,0.0057975,0.0058272,1.0064e-08,0.02,0.4,0
0.0020568,0.00021969,0.0098132,0.003379,0.0039577,0.00028718,0,0,0.053285,-0.0052658,0,0.0052267,0,0,0,0.009826,0.0033662,0.0039577,2.5505,0.0057166,0.0061853,1.178e-08,0.04,0.4,0
0.0031407,0.0003386,0.0099594,0.0030666,0.0039078,0.00027564,0,0,0.055069,-0.0076547,0,0.0050166,0,0,0,0.0099704,0.0030556,0.0039078,2.2864,0.0056446,0.0065305,1.3487e-08,0.06,0.4,0
0.0042596,0.00045993,0.010104,0.0027758,0.003864,0.00025368,0,0,0.056786,-0.0099031,0,0.0046169,0,0,0,0.010113,0.002767,0.003864,1.9801,0.0055814,0.0068636,1.5186e-08,0.08,0.4,0
0.0054122,0.00058136,0.010249,0.0025056,0.0038264,0.00022206,0,0,0.058447,-0.012019,0,0.0040415,0,0,0,0.010256,0.0024993,0.0038264,1.6413,0.0055271,0.0071852,1.6882e-08,0.1,0.4,0
0.0065975,0.00070083,0.010395,0.0022561,0.0037953,0.00018148,0,0,0.060057,-0.014007,0,0.0033029,0,0,0,0.010399,0.0022521,0.0037953,1.2767,0.0054821,0.0074954,1.8575e-08,0.12,0.4,0
0.0078145,0.00081658,0.010543,0.0020276,0.0037711,0.00013262,0,0,0.061621,-0.015866,0,0.0024137,0,0,0,0.010545,0.0020255,0.0037711,0.89209,0.0054471,0.0077944,2.0269e-08,0.14,0.4,0
0.0090623,0.00092718,0.010693,0.0018209,0.0037542,7.6252e-05,0,0,0.063144,-0.017593,0,0.0013878,0,0,0,0.010694,0.0018202,0.0037542,0.49238,0.0054227,0.0080819,2.1968e-08,0.16,0.4,0
0.01034,0.0010316,0.010847,0.0016373,0.0037454,1.3243e-05,0,0,0.064626,-0.019183,0,0.00024102,0,0,0,0.010847,0.0016373,0.0037454,0.082387,0.00541,0.0083577,2.3675e-08,0.18,0.4,0
0.011647,0.0011291,0.011006,0.0014787,0.0037454,-5.5316e-05,0,0,0.066072,-0.020627,0,-0.0010068,0,0,0,0.011006,0.0014784,0.0037454,-0.33265,0.0054101,0.008621,2.5396e-08,0.2,0.4,0
0.012983,0.0012198,0.011171,0.0013474,0.0037555,-0.00012796,0,0,0.06748,-0.021914,0,-0.0023288,0,0,0,0.011173,0.0013457,0.0037555,-0.74615,0.0054246,0.0088709,2.7133e-08,0.22,0.4,0
0.014347,0.0013042,0.011343,0.0012465,0.0037769,-0.00020255,0,0,0.068852,-0.023026,0,-0.0036863,0,0,0,0.011347,0.0012425,0.0037769,-1.1488,0.0054555,0.0091059,2.8889e-08,0.24,0.4,0
0.015737,0.0013839,0.011524,0.0011806,0.0038113,-0.00027574,0,0,0.070183,-0.023939,0,-0.0050185,0,0,0,0.011531,0.0011732,0.0038113,-1.526,0.0055052,0.0093231,3.0659e-08,0.26,0.4,0
0.017154,0.0014618,0.011715,0.0011555,0.0038611,-0.00034212,0,0,0.071468,-0.02462,0,-0.0062265,0,0,0,0.011726,0.0011445,0.0038611,-1.8538,0.0055771,0.0095183,3.2428e-08,0.28,0.4,0
0.018596,0.0015428,0.011917,0.0011799,0.0039292,-0.00039265,0,0,0.072693,-0.025019,0,-0.0071463,0,0,0,0.011932,0.0011656,0.0039292,-2.0915,0.0056755,0.0096848,3.4164e-08,0.3,0.4,0
0.020062,0.0016346,0.012134,0.0012656,0.0040199,-0.00041231,0,0,0.073838,-0.025063,0,-0.007504,0,0,0,0.01215,0.00125,0.0040199,-2.1695,0.0058065,0.0098123,3.5802e-08,0.32,0.4,0
0.021549,0.001749,0.012363,0.0014296,0.0041376,-0.00037712,0,0,0.074846,-0.024643,0,-0.0068636,0,0,0,0.012375,0.0014166,0.0041376,-1.9732,0.0059766,0.0098834,3.7205e-08,0.34,0.4,0
0.023055,0.0019028,0.012587,0.0016987,0.0042857,-0.00024911,0,0,0.075542,-0.023542,0,-0.0045337,0,0,0,0.012593,0.001693,0.0042857,-1.3099,0.0061905,0.0098624,3.8028e-08,0.36,0.4,0
0.024571,0.00212,0.012695,0.0021035,0.0044396,7.7581e-07,0,0,0.075127,-0.021259,0,1.412e-05,0,0,0,0.012695,0.0021035,0.0044396,0.0041967,0.0064128,0.0096385,3.7039e-08,0.38,0.4,0
0.026061,0.0024096,0.012629,0.0028887,0.0046553,0.00030728,0,0,0.072559,-0.016075,0,0.0055925,0,0,0,0.012639,0.002879,0.0046553,1.8052,0.0067243,0.0090037,3.2624e-08,0.4,0.4,0
0.027473,0.0027102,0.012412,0.00038753,0.0038397,0.00047641,0,0,0.041419,-0.0078537,0,0.0054821,0,0,0,0.012434,0.00036503,0.0038397,2.556,0.0055463,0.01088,3.6904e-08,0.42,0.4,0
0.027717,0.0028341,0.012706,-0.00045147,0.0036765,-7.6764e-05,0,0,0.011739,-0.0053663,0,-0.00019959,0,0,0,0.012707,-0.00045192,0.0036765,-0.33425,0.0053105,0.011657,4.8288e-08,0.44,0.4,0
0.027943,0.0029184,0.012424,-0.00043711,0.003596,-0.00048519,0,0,0.011476,-0.0052431,0,-0.0012615,0,0,0,0.012442,-0.00045539,0.003596,-2.1574,0.0051943,0.011424,4.5377e-08,0.46,0.4,0
0.028176,0.0029714,0.012737,-0.00032297,0.0037241,-0.00060205,0,0,0.011716,-0.0052612,0,-0.0015653,0,0,0,0.012764,-0.00035067,0.0037241,-2.6339,0.0053793,0.011626,4.8564e-08,0.48,0.4,0
0.028412,0.0030168,0.012808,-0.00026921,0.0037618,-0.00045337,0,0,0.011761,-0.0052403,0,-0.0011788,0,0,0,0.012824,-0.0002849,0.0037618,-1.9831,0.0054336,0.011626,4.8992e-08,0.5,0.4,0
0.028647,0.0030614,0.012812,-0.00011618,0.0038088,-0.00028301,0,0,0.011704,-0.0051024,0,-0.00073582,0,0,0,0.012818,-0.00012237,0.0038088,-1.2534,0.0055016,0.011491,4.8297e-08,0.52,0.4,0
0.02888,0.0031074,0.012763,5.5232e-05,0.0038456,-0.00015299,0,0,0.011593,-0.0049275,0,-0.00039778,0,0,0,0.012765,5.339e-05,0.0038456,-0.68965,0.0055548,0.011303,4.7009e-08,0.54,0.4,0
0.029111,0.0031534,0.012717,0.00019793,0.0038745,-9.0165e-05,0,0,0.011495,-0.0047795,0,-0.00023443,0,0,0,0.012718,0.00019729,0.0038745,-0.41263,0.0055965,0.011146,4.5907e-08,0.56,0.4,0
0.02934,0.0031979,0.012691,0.00025451,0.0038837,-7.6782e-05,0,0,0.01145,-0.004718,0,-0.00019963,0,0,0,0.012692,0.00025403,0.0038837,-0.35372,0.0056098,0.011078,4.5393e-08,0.58,0.4,0
0.029569,0.0032399,0.012701,0.00020285,0.0038711,-8.38e-05,0,0,0.011479,-0.0047687,0,-0.00021788,0,0,0,0.012701,0.00020229,0.0038711,-0.38415,0.0055915,0.011128,4.5707e-08,0.6,0.4,0
0.029799,0.0032792,0.012744,4.314e-05,0.0038362,-7.7771e-05,0,0,0.01158,-0.0049309,0,-0.0002022,0,0,0,0.012745,4.2663e-05,0.0038362,-0.35082,0.0055411,0.011294,4.6823e-08,0.62,0.4,0
0.030032,0.0033172,0.012802,-0.00020106,0.0037804,-3.0177e-05,0,0,0.011729,-0.005176,0,-7.846e-05,0,0,0,0.012803,-0.00020113,0.0037804,-0.13296,0.0054606,0.01154,4.8427e-08,0.64,0.4,0
0.030268,0.0033555,0.012845,-0.00046931,0.0037128,7.5468e-05,0,0,0.011872,-0.0054367,0,0.00019622,0,0,0,0.012846,-0.00046973,0.0037128,0.32474,0.0053629,0.011794,4.9935e-08,0.66,0.4,0
0.030507,0.0033957,0.01279,-0.00070662,0.003625,0.00021426,0,0,0.011914,-0.0056311,0,0.00055708,0,0,0,0.012793,-0.00071002,0.003625,0.90928,0.0052361,0.011941,5.0198e-08,0.68,0.4,0
0.030745,0.0034367,0.012554,-0.00082872,0.0035174,0.00033831,0,0,0.011747,-0.00565,0,0.00087961,0,0,0,0.012562,-0.00083727,0.0035174,1.4472,0.0050807,0.011839,4.799e-08,0.7,0.4,0
0.030977,0.0034738,0.011953,-0.00094814,0.0033015,0.00030046,0,0,0.011247,-0.0055246,0,0.0007812,0,0,0,0.01196,-0.00095513,0.0033015,1.3334,0.0047689,0.0114,4.188e-08,0.72,0.4,0
0.031194,0.0034926,0.012477,-0.00083946,0.0034912,8.3568e-05,0,0,0.011681,-0.0056299,0,0.00021728,0,0,0,0.012477,-0.00083999,0.0034912,0.35954,0.0050429,0.011766,4.7054e-08,0.74,0.4,0
0.031444,0.0034757,0.011929,-0.00099967,0.0032788,-0.00030841,0,0,0.041313,-0.0097335,0,-0.0053767,0,0,0,0.011949,-0.0010192,0.0032788,-1.9534,0.0047361,0.011593,3.1804e-08,0.76,0.4,0
0.032847,0.0032468,0.012315,0.0020964,0.0043234,-0.00040189,0,0,0.072724,-0.020266,0,-0.0073143,0,0,0,0.012331,0.0020806,0.0043234,-2.2487,0.0062449,0.0093332,3.3766e-08,0.78,0.4,0
0.034353,0.0029439,0.012668,0.0018027,0.0043411,4.3568e-05,0,0,0.075771,-0.023099,0,0.00079294,0,0,0,0.012668,0.0018026,0.0043411,0.22975,0.0062705,0.0098445,3.8236e-08,0.8,0.4,0
0.035878,0.002744,0.012591,0.0010773,0.0041005,0.00041405,0,0,0.077263,-0.027511,0,0.0075357,0,0,0,0.012606,0.0010624,0.0041005,2.0569,0.0059229,0.010364,4.1045e-08,0.82,0.4,0
0.037443,0.0026639,0.012613,0.00060399,0.003965,0.00057281,0,0,0.078695,-0.030586,0,0.010425,0,0,0,0.01264,0.00057672,0.003965,2.7247,0.0057273,0.010776,4.3504e-08,0.84,0.4,0
0.039025,0.0026391,0.012544,0.00027865,0.0038468,0.00057903,0,0,0.079144,-0.03247,0,0.010538,0,0,0,0.012571,0.00025138,0.0038468,2.6968,0.0055565,0.010973,4.4114e-08,0.86,0.4,0
0.040609,0.0026424,0.012428,4.0658e-05,0.0037406,0.00052859,0,0,0.079056,-0.03367,0,0.0096202,0,0,0,0.012451,1.8144e-05,0.0037406,2.439,0.0054031,0.011052,4.3746e-08,0.88,0.4,0
0.042188,0.002659,0.01231,-0.00013297,0.0036531,0.00045353,0,0,0.078777,-0.034453,0,0.0082542,0,0,0,0.012326,-0.00014948,0.0036531,2.0847,0.0052767,0.011076,4.3063e-08,0.9,0.4,0
0.04376,0.0026801,0.012206,-0.0002588,0.0035843,0.00036768,0,0,0.078461,-0.034972,0,0.0066918,0,0,0,0.012217,-0.00026963,0.0035843,1.6881,0.0051772,0.011075,4.2353e-08,0.92,0.4,0
0.045326,0.0027006,0.012124,-0.00034773,0.0035327,0.00027727,0,0,0.078176,-0.035312,0,0.0050464,0,0,0,0.01213,-0.00035389,0.0035327,1.273,0.0051028,0.011065,4.1743e-08,0.94,0.4,0
0.046887,0.0027171,0.012064,-0.00040692,0.0034971,0.00018518,0,0,0.077958,-0.035527,0,0.0033703,0,0,0,0.012067,-0.00040967,0.0034971,0.85054,0.0050514,0.011054,4.1286e-08,0.96,0.4,0
0.048445,0.0027277,0.012028,-0.00044082,0.0034762,9.2622e-05,0,0,0.077822,-0.035645,0,0.0016857,0,0,0,0.012029,-0.00044151,0.0034762,0.42558,0.0050211,0.011045,4.1006e-08,0.98,0.4,0
0.05,0.0027314,0.012016,-0.00045186,0.0034693,1.0018e-05,0,0,0.077776,-0.035682,0,0.00018233,0,0,0,0.012016,-0.00045187,0.0034693,0.046039,0.0050111,0.011043,4.0912e-08,1,0.4,0
0,0,0.0096459,0.004134,0.004134,0.00014393,0,0,0.050159,-2.1684e-19,0,0.0026196,0,0,0,0.0096497,0.0041302,0.004134,1.4948,0.0059713,0.0055176,8.6272e-09,0,0.42,0
0.0010032,5.2392e-05,0.0096068,0.0037069,0.0039941,0.00014054,0,0,0.051076,-0.0026138,0,0.0025578,0,0,0,0.0096101,0.0037035,0.0039941,1.3638,0.0057693,0.0057668,9.7657e-09,0.02,0.42,0
0.002043,0.00011627,0.0097495,0.0033839,0.00394,0.00014379,0,0,0.052866,-0.0050607,0,0.002617,0,0,0,0.0097528,0.0033806,0.00394,1.2933,0.0056911,0.0061116,1.1394e-08,0.04,0.42,0
0.0031178,0.00018824,0.0098893,0.0030829,0.0038916,0.00013418,0,0,0.054579,-0.0073599,0,0.002442,0,0,0,0.009892,0.0030802,0.0038916,1.1289,0.0056213,0.0064444,1.3014e-08,0.06,0.42,0
0.0042262,0.00026541,0.010027,0.0028024,0.003849,0.00011299,0,0,0.056224,-0.0095234,0,0.0020565,0,0,0,0.010029,0.0028007,0.003849,0.89579,0.0055596,0.0067656,1.4626e-08,0.08,0.42,0
0.0053668,0.00034528,0.010165,0.0025419,0.003812,8.1251e-05,0,0,0.057811,-0.011558,0,0.0014788,0,0,0,0.010166,0.0025411,0.003812,0.61061,0.0055063,0.0070753,1.623e-08,0.1,0.42,0
0.0065386,0.00042574,0.010302,0.0023013,0.0037811,3.9767e-05,0,0,0.059344,-0.013466,0,0.00072376,0,0,0,0.010303,0.0023011,0.0037811,0.28476,0.0054616,0.0073738,1.7827e-08,0.12,0.42,0
0.0077405,0.00050504,0.010441,0.002081,0.0037565,-1.0725e-05,0,0,0.060827,-0.015247,0,-0.00019519,0,0,0,0.010441,0.002081,0.0037565,-0.073505,0.0054261,0.0076607,1.9419e-08,0.14,0.42,0
0.0089717,0.00058179,0.010581,0.0018818,0.0037387,-6.9509e-05,0,0,0.062261,-0.016898,0,-0.0012651,0,0,0,0.010581,0.0018812,0.0037387,-0.45779,0.0054004,0.0079359,2.1005e-08,0.16,0.42,0
0.010231,0.00065505,0.010723,0.0017048,0.0037282,-0.00013581,0,0,0.063649,-0.018413,0,-0.0024717,0,0,0,0.010725,0.0017028,0.0037282,-0.86261,0.0053852,0.008199,2.259e-08,0.18,0.42,0
0.011518,0.00072435,0.010868,0.0015517,0.0037258,-0.00020867,0,0,0.064991,-0.019785,0,-0.0037978,0,0,0,0.010872,0.001547,0.0037258,-1.2825,0.0053817,0.0084493,2.4174e-08,0.2,0.42,0
0.012831,0.00078984,0.011017,0.0014243,0.0037324,-0.00028682,0,0,0.06629,-0.021004,0,-0.0052201,0,0,0,0.011026,0.0014157,0.0037324,-1.7111,0.0053912,0.0086864,2.5763e-08,0.22,0.42,0
0.014169,0.00085241,0.011172,0.0013252,0.0037492,-0.00036836,0,0,0.067547,-0.022058,0,-0.0067042,0,0,0,0.011186,0.0013115,0.0037492,-2.1394,0.0054154,0.0089091,2.736e-08,0.24,0.42,0
0.015532,0.00091403,0.011335,0.0012576,0.0037777,-0.00045036,0,0,0.06877,-0.022933,0,-0.0081966,0,0,0,0.011355,0.0012375,0.0037777,-2.5538,0.0054567,0.0091167,2.8971e-08,0.26,0.42,0
0.01692,0.00097809,0.011509,0.0012254,0.0038203,-0.00052814,0,0,0.069968,-0.023614,0,-0.0096122,0,0,0,0.011536,0.0011983,0.0038203,-2.9323,0.0055182,0.009308,3.0605e-08,0.28,0.42,0
0.018331,0.00105,0.011701,0.0012336,0.0038803,-0.0005941,0,0,0.071166,-0.024085,0,-0.010813,0,0,0,0.011734,0.0012,0.0038803,-3.2382,0.0056049,0.0094827,3.2285e-08,0.3,0.42,0
0.019767,0.0011383,0.011921,0.0012892,0.003963,-0.0006359,0,0,0.072417,-0.024332,0,-0.011573,0,0,0,0.011959,0.0012513,0.003963,-3.4107,0.0057244,0.009642,3.4057e-08,0.32,0.42,0
0.021228,0.0012555,0.01219,0.0014021,0.0040776,-0.00063254,0,0,0.07382,-0.024346,0,-0.011512,0,0,0,0.012227,0.0013652,0.0040776,-3.3443,0.0058898,0.0097912,3.6027e-08,0.34,0.42,0
0.022719,0.0014216,0.012542,0.0015914,0.0042399,-0.00054893,0,0,0.075546,-0.024102,0,-0.0099906,0,0,0,0.012569,0.0015639,0.0042399,-2.8626,0.0061243,0.0099412,3.8402e-08,0.36,0.42,0
0.02425,0.0016658,0.013014,0.0018989,0.0044738,-0.00029704,0,0,0.077714,-0.023431,0,-0.0054062,0,0,0,0.013022,0.001891,0.0044738,-1.5298,0.0064622,0.01009,4.1338e-08,0.38,0.42,0
0.025828,0.0020503,0.013199,0.0023012,0.00465,0.00014804,0,0,0.077795,-0.021375,0,0.0026943,0,0,0,0.013201,0.0022991,0.00465,0.77814,0.0067167,0.0099372,4.1047e-08,0.4,0.42,0
0.027362,0.0025503,0.01183,-0.0009707,0.0032578,-0.0001698,0,0,0.044006,-0.0096198,0,0.0051192,0,0,0,0.011891,-0.0010316,0.0032578,0.27739,0.0047057,0.011589,2.835e-08,0.42,0.42,0
0.027588,0.0027362,0.013244,1.7569e-05,0.0039785,0.00036441,0,0,0.012045,-0.0051492,0,0.00094748,0,0,0,0.013254,7.5365e-06,0.0039785,1.577,0.0057467,0.011774,5.2824e-08,0.44,0.42,0
0.027843,0.0028105,0.01384,-7.8708e-05,0.0041284,-0.00060053,0,0,0.012625,-0.0054692,0,-0.0015614,0,0,0,0.013866,-0.00010457,0.0041284,-2.466,0.0059632,0.012408,6.1005e-08,0.46,0.42,0
0.028093,0.0028628,0.013513,-0.00047188,0.0039122,-0.00052682,0,0,0.01248,-0.0056993,0,-0.0013697,0,0,0,0.013532,-0.0004917,0.0039122,-2.1544,0.0056509,0.012422,5.8365e-08,0.48,0.42,0
0.028343,0.0029081,0.013374,-0.00042676,0.0038841,-0.00036748,0,0,0.012336,-0.0056041,0,-0.00095544,0,0,0,0.013383,-0.00043654,0.0038841,-1.5242,0.0056103,0.012245,5.6258e-08,0.5,0.42,0
0.028587,0.0029566,0.013164,-0.00027339,0.0038671,-0.00016513,0,0,0.012086,-0.0053827,0,-0.00042933,0,0,0,0.013166,-0.00027542,0.0038671,-0.70395,0.0055859,0.011923,5.2945e-08,0.52,0.42,0
0.028826,0.0030071,0.013021,-4.5956e-06,0.0039049,-5.337e-05,0,0,0.011851,-0.0050823,0,-0.00013876,0,0,0,0.013021,-4.8142e-06,0.0039049,-0.23476,0.0056404,0.011577,5.0137e-08,0.54,0.42,0
0.029061,0.0030569,0.012905,0.00020073,0.0039318,-2.5647e-05,0,0,0.011665,-0.0048503,0,-6.6681e-05,0,0,0,0.012905,0.00020068,0.0039318,-0.11566,0.0056792,0.01131,4.7965e-08,0.56,0.42,0
0.029293,0.0031031,0.012846,0.00029085,0.003941,-5.8093e-05,0,0,0.011576,-0.0047453,0,-0.00015104,0,0,0,0.012846,0.00029058,0.003941,-0.2651,0.0056926,0.011187,4.6933e-08,0.58,0.42,0
0.029524,0.0031441,0.012844,0.00024205,0.0039258,-0.00011072,0,0,0.011594,-0.0047889,0,-0.00028788,0,0,0,0.012845,0.00024108,0.0039258,-0.50335,0.0056706,0.011225,4.7125e-08,0.6,0.42,0
0.029756,0.0031799,0.012897,5.4268e-05,0.0038854,-0.00014821,0,0,0.011715,-0.0049805,0,-0.00038535,0,0,0,0.012899,5.2557e-05,0.0038854,-0.6611,0.0056122,0.011423,4.8504e-08,0.62,0.42,0
0.029992,0.0032123,0.012998,-0.00024868,0.0038247,-0.00012832,0,0,0.011925,-0.0052954,0,-0.00033363,0,0,0,0.012999,-0.00024992,0.0038247,-0.55495,0.0055246,0.011754,5.0871e-08,0.64,0.42,0
0.030233,0.0032447,0.013108,-0.00061018,0.0037494,-2.0865e-05,0,0,0.012166,-0.0056674,0,-5.425e-05,0,0,0,0.013108,-0.00061021,0.0037494,-0.087146,0.0054158,0.012141,5.3559e-08,0.66,0.42,0
0.030479,0.0032803,0.013251,-0.00084819,0.0037208,0.00019154,0,0,0.012389,-0.0059396,0,0.000498,0,0,0,0.013253,-0.00085079,0.0037208,0.77819,0.0053744,0.012464,5.6238e-08,0.68,0.42,0
0.030729,0.0033214,0.013302,-0.00095249,0.0037048,0.0004081,0,0,0.012476,-0.0060545,0,0.0010611,0,0,0,0.013314,-0.00096417,0.0037048,1.6386,0.0053514,0.012609,5.7411e-08,0.7,0.42,0
0.030978,0.0033606,0.013598,-0.00063346,0.0038895,0.00059088,0,0,0.012622,-0.0058798,0,0.0015363,0,0,0,0.013623,-0.00065795,0.0038895,2.3734,0.0056181,0.012636,6.0214e-08,0.72,0.42,0
0.031234,0.0033811,0.013033,-0.00085689,0.0036529,-0.0002986,0,0,0.012194,-0.0058627,0,-0.00077637,0,0,0,0.01304,-0.0008633,0.0036529,-1.231,0.0052764,0.012284,5.3654e-08,0.74,0.42,0
0.031466,0.0032818,0.011572,-0.0020843,0.0028464,0.00011047,0,0,0.044593,-0.011217,0,-0.0065846,0,0,0,0.011646,-0.0021582,0.0028464,-0.76993,0.0041114,0.012326,2.2161e-08,0.76,0.42,0
0.033017,0.0028045,0.013099,0.0015849,0.0044052,-0.00028526,0,0,0.079115,-0.025665,0,-0.0051917,0,0,0,0.013106,0.0015778,0.0044052,-1.4183,0.0063631,0.010407,4.3804e-08,0.78,0.42,0
0.034631,0.0024192,0.013045,0.0012918,0.004301,0.00017981,0,0,0.07957,-0.027384,0,0.0032726,0,0,0,0.013048,0.0012891,0.004301,0.8763,0.0062126,0.010579,4.4604e-08,0.8,0.42,0
0.0362,0.0021869,0.012639,0.00096881,0.0040825,0.00053529,0,0,0.077868,-0.028334,0,0.0097424,0,0,0,0.012664,0.00094431,0.0040825,2.6206,0.0058969,0.010508,4.2163e-08,0.82,0.42,0
0.037745,0.0020585,0.012369,0.00060439,0.0038921,0.00068067,0,0,0.077142,-0.029918,0,0.012388,0,0,0,0.012408,0.00056514,0.0038921,3.3002,0.0056219,0.01058,4.1161e-08,0.84,0.42,0
0.039286,0.0020004,0.012228,0.00032747,0.0037665,0.00069783,0,0,0.076996,-0.031295,0,0.012701,0,0,0,0.012268,0.00028669,0.0037665,3.3446,0.0054405,0.010676,4.0844e-08,0.86,0.42,0
0.040825,0.0019808,0.01212,0.00011714,0.0036712,0.00064218,0,0,0.076886,-0.032342,0,0.011688,0,0,0,0.012155,8.2879e-05,0.0036712,3.0538,0.0053028,0.010737,4.0462e-08,0.88,0.42,0
0.042361,0.0019817,0.012028,-4.2484e-05,0.0035958,0.00055331,0,0,0.076737,-0.033108,0,0.01007,0,0,0,0.012054,-6.7793e-05,0.0035958,2.619,0.0051939,0.010768,3.9996e-08,0.9,0.42,0
0.043895,0.0019922,0.011951,-0.00016171,0.0035369,0.00044942,0,0,0.076572,-0.033657,0,0.0081794,0,0,0,0.011968,-0.00017836,0.0035369,2.1219,0.0051089,0.01078,3.9528e-08,0.92,0.42,0
0.045424,0.0020055,0.01189,-0.00024791,0.0034927,0.00033919,0,0,0.076418,-0.03404,0,0.0061733,0,0,0,0.0119,-0.00025738,0.0034927,1.5994,0.005045,0.010783,3.9121e-08,0.94,0.42,0
0.046951,0.0020174,0.011846,-0.00030619,0.003462,0.00022661,0,0,0.076296,-0.034291,0,0.0041243,0,0,0,0.01185,-0.00031042,0.003462,1.0679,0.0050007,0.010781,3.8812e-08,0.96,0.42,0
0.048476,0.0020254,0.01182,-0.00033991,0.0034439,0.00011336,0,0,0.076219,-0.034433,0,0.0020631,0,0,0,0.011821,-0.00034097,0.0034439,0.53409,0.0049745,0.01078,3.862e-08,0.98,0.42,0
0.05,0.0020282,0.011811,-0.00035095,0.0034379,7.7455e-06,0,0,0.076192,-0.034479,0,0.00014097,0,0,0,0.011811,-0.00035095,0.0034379,0.03649,0.0049659,0.010779,3.8555e-08,1,0.42,0
0,0,0.0095708,0.0041018,0.0041018,3.5353e-06,0,0,0.049768,4.3368e-19,0,6.4343e-05,0,0,0,0.0095708,0.0041018,0.0041018,0.037037,0.0059248,0.005469,8.4015e-09,0,0.44,0
0.00099536,1.2869e-06,0.0095336,0.003695,0.0039686,2.2819e-07,0,0,0.050641,-0.0024895,0,4.153e-06,0,0,0,0.0095336,0.003695,0.0039686,0.0022393,0.0057324,0.0057067,9.4711e-09,0.02,0.44,0
0.0020257,1.7263e-05,0.0096691,0.0033861,0.0039166,6.9773e-06,0,0,0.052348,-0.0048269,0,0.00012699,0,0,0,0.0096691,0.0033861,0.0039166,0.063628,0.0056572,0.0060352,1.0997e-08,0.04,0.44,0
0.0030893,4.4205e-05,0.0098015,0.0030976,0.0038697,-3.5319e-07,0,0,0.053979,-0.0070264,0,-6.4281e-06,0,0,0,0.0098015,0.0030976,0.0038697,-0.0030186,0.0055896,0.0063531,1.2516e-08,0.06,0.44,0
0.0041848,7.8998e-05,0.0099317,0.0028284,0.003828,-2.0135e-05,0,0,0.055543,-0.0090966,0,-0.00036646,0,0,0,0.0099317,0.0028283,0.003828,-0.16241,0.0055294,0.0066601,1.4027e-08,0.08,0.44,0
0.005311,0.00011904,0.01006,0.0025782,0.0037916,-5.1141e-05,0,0,0.057046,-0.011042,0,-0.00093076,0,0,0,0.010061,0.0025779,0.0037916,-0.3916,0.0054767,0.0069559,1.5526e-08,0.1,0.44,0
0.0064667,0.00016218,0.010188,0.0023471,0.0037605,-9.2415e-05,0,0,0.05849,-0.012862,0,-0.0016819,0,0,0,0.010189,0.002346,0.0037605,-0.67518,0.0054319,0.0072402,1.7012e-08,0.12,0.44,0
0.0076506,0.00020669,0.010315,0.0021355,0.0037351,-0.00014317,0,0,0.059876,-0.014556,0,-0.0026058,0,0,0,0.010317,0.002133,0.0037351,-1.0025,0.0053952,0.0075126,1.8482e-08,0.14,0.44,0
0.0088617,0.00025126,0.010441,0.0019444,0.0037158,-0.00020272,0,0,0.061204,-0.01612,0,-0.0036894,0,0,0,0.010446,0.0019395,0.0037158,-1.3659,0.0053672,0.0077725,1.9935e-08,0.16,0.44,0
0.010099,0.00029505,0.010568,0.0017747,0.0037029,-0.00027035,0,0,0.062475,-0.017546,0,-0.0049203,0,0,0,0.010577,0.0017664,0.0037029,-1.7593,0.0053486,0.0080192,2.137e-08,0.18,0.44,0
0.011361,0.00033773,0.010696,0.0016279,0.003697,-0.00034526,0,0,0.063686,-0.018829,0,-0.0062838,0,0,0,0.010709,0.0016148,0.003697,-2.1774,0.0053401,0.0082521,2.2785e-08,0.2,0.44,0
0.012646,0.00037963,0.010824,0.0015055,0.0036989,-0.00042643,0,0,0.064838,-0.019959,0,-0.007761,0,0,0,0.010843,0.0014861,0.0036989,-2.6147,0.0053428,0.0084706,2.4181e-08,0.22,0.44,0
0.013954,0.00042184,0.010955,0.0014095,0.0037093,-0.00051239,0,0,0.065934,-0.020928,0,-0.0093255,0,0,0,0.010982,0.0013821,0.0037093,-3.0639,0.0053579,0.008674,2.556e-08,0.24,0.44,0
0.015284,0.00046652,0.01109,0.001342,0.0037296,-0.00060098,0,0,0.06698,-0.021727,0,-0.010938,0,0,0,0.011127,0.0013051,0.0037296,-3.5147,0.0053872,0.008862,2.6929e-08,0.26,0.44,0
0.016633,0.00051723,0.011233,0.0013051,0.0037614,-0.000689,0,0,0.06799,-0.022352,0,-0.01254,0,0,0,0.01128,0.0012576,0.0037614,-3.9512,0.0054331,0.0090349,2.83e-08,0.28,0.44,0
0.018003,0.00057945,0.011389,0.0013015,0.0038071,-0.00077165,0,0,0.068995,-0.022802,0,-0.014044,0,0,0,0.011448,0.0012428,0.0038071,-4.3491,0.0054992,0.0091949,2.9705e-08,0.3,0.44,0
0.019393,0.00066137,0.01157,0.0013335,0.003871,-0.00084189,0,0,0.070059,-0.023091,0,-0.015322,0,0,0,0.011638,0.0012647,0.003871,-4.6705,0.0055914,0.0093473,3.121e-08,0.32,0.44,0
0.020806,0.00077514,0.011797,0.0014053,0.0039606,-0.00088961,0,0,0.07131,-0.023254,0,-0.016191,0,0,0,0.011872,0.0013297,0.0039606,-4.8579,0.0057209,0.0095045,3.297e-08,0.34,0.44,0
0.022246,0.00093877,0.012116,0.0015258,0.0040926,-0.00089626,0,0,0.073015,-0.023358,0,-0.016312,0,0,0,0.012191,0.0014505,0.0040926,-4.8034,0.0059116,0.0096939,3.5332e-08,0.36,0.44,0
0.023726,0.0011828,0.012673,0.0017476,0.0043261,-0.00083484,0,0,0.075954,-0.023464,0,-0.015194,0,0,0,0.012736,0.0016842,0.0043261,-4.3446,0.0062488,0.0099964,3.9477e-08,0.38,0.44,0
0.025284,0.0015546,0.01375,0.0021723,0.0047766,-0.00041143,0,0,0.081655,-0.023699,0,-0.0074881,0,0,0,0.013764,0.0021577,0.0047766,-2.0328,0.0068995,0.010544,4.7913e-08,0.4,0.44,0
0.026992,0.0023255,0.019028,0.00020757,0.0057708,-0.0011164,0,0,0.045233,-0.016894,0,-0.010332,0,0,0,0.019104,0.00013182,0.0057708,-4.0968,0.0083356,0.016879,2.5273e-07,0.42,0.44,0
0.027495,0.0026282,0.011659,0.00079568,0.0037365,0.0005767,0,0,0.021073,-0.0074644,0,0.0048504,0,0,0,0.011699,0.00075653,0.0037365,4.4194,0.0053972,0.0097982,7.5921e-08,0.44,0.44,0
0.027754,0.0026996,0.014582,0.00012082,0.0044109,0.0001372,0,0,0.013223,-0.0055771,0,0.00035673,0,0,0,0.014584,0.00011952,0.0044109,0.54353,0.0063713,0.012867,6.9787e-08,0.46,0.44,0
0.028024,0.0027434,0.014307,-0.00031133,0.0041987,-0.00027574,0,0,0.013141,-0.005863,0,-0.00071694,0,0,0,0.014312,-0.00031653,0.0041987,-1.0803,0.0060648,0.012974,6.8095e-08,0.48,0.44,0
0.02828,0.0027927,0.013624,-0.00069358,0.0038792,-0.00010072,0,0,0.012668,-0.0059445,0,-0.00026186,0,0,0,0.013625,-0.00069429,0.0038792,-0.40301,0.0056032,0.012667,6.0387e-08,0.5,0.44,0
0.028531,0.0028461,0.013419,-0.00037946,0.0039119,2.4043e-05,0,0,0.012359,-0.0055788,0,6.2512e-05,0,0,0,0.013419,-0.0003795,0.0039119,0.099833,0.0056505,0.012231,5.6472e-08,0.52,0.44,0
0.028774,0.0029041,0.013206,-2.4022e-05,0.0039546,8.9773e-05,0,0,0.012027,-0.0051722,0,0.00023341,0,0,0,0.013207,-2.4631e-05,0.0039546,0.38876,0.0057122,0.011758,5.2396e-08,0.54,0.44,0
0.029012,0.0029594,0.013089,0.00025523,0.0040032,4.6758e-05,0,0,0.011811,-0.0048724,0,0.00012157,0,0,0,0.013089,0.00025506,0.0040032,0.20875,0.0057825,0.01143,4.9823e-08,0.56,0.44,0
0.029246,0.0030081,0.01302,0.0003525,0.0040118,-3.4063e-05,0,0,0.011711,-0.0047571,0,-8.8563e-05,0,0,0,0.01302,0.00035241,0.0040118,-0.15406,0.0057948,0.011292,4.8615e-08,0.58,0.44,0
0.02948,0.0030483,0.01301,0.00030637,0.0039948,-0.0001235,0,0,0.011719,-0.004795,0,-0.00032111,0,0,0,0.013011,0.00030517,0.0039948,-0.55697,0.0057703,0.011321,4.8714e-08,0.6,0.44,0
0.029715,0.00308,0.013056,0.00011498,0.0039513,-0.00020678,0,0,0.011836,-0.0049872,0,-0.00053763,0,0,0,0.013059,0.00011168,0.0039513,-0.91521,0.0057074,0.011518,5.0091e-08,0.62,0.44,0
0.029954,0.0031054,0.013147,-0.00026148,0.0038656,-0.00024986,0,0,0.012065,-0.0053652,0,-0.00064963,0,0,0,0.013151,-0.00026613,0.0038656,-1.0672,0.0055836,0.011902,5.2735e-08,0.64,0.44,0
0.030198,0.0031288,0.013323,-0.00071981,0.003781,-0.0001741,0,0,0.012405,-0.0058511,0,-0.00045265,0,0,0,0.013325,-0.00072197,0.003781,-0.71017,0.0054615,0.012424,5.6657e-08,0.66,0.44,0
0.03045,0.0031582,0.013494,-0.0011282,0.0037099,-1.3311e-05,0,0,0.01272,-0.0062895,0,-3.4607e-05,0,0,0,0.013494,-0.0011282,0.0037099,-0.052155,0.0053587,0.012903,6.0336e-08,0.68,0.44,0
0.030707,0.0031945,0.014148,-0.00086113,0.0039859,0.00021906,0,0,0.01321,-0.0063012,0,0.00056955,0,0,0,0.014151,-0.00086432,0.0039859,0.83601,0.0057575,0.013272,6.8268e-08,0.7,0.44,0
0.030978,0.0032386,0.014485,-0.00053435,0.0041852,-0.00010395,0,0,0.01339,-0.0061354,0,-0.00027027,0,0,0,0.014486,-0.00053507,0.0041852,-0.39653,0.0060452,0.013304,7.163e-08,0.72,0.44,0
0.031242,0.0032582,0.011648,0.00018551,0.00355,-0.00059247,0,0,0.021558,-0.0085591,0,-0.00515,0,0,0,0.011688,0.00014475,0.00355,-4.4218,0.0051277,0.010274,8.0407e-08,0.74,0.44,0
0.031757,0.003027,0.018967,-0.00096595,0.0054003,0.00096078,0,0,0.04624,-0.019715,0,0.0085019,0,0,0,0.019018,-0.001017,0.0054003,3.2444,0.0078004,0.017724,2.6484e-07,0.76,0.44,0
0.033502,0.0022202,0.01377,0.0015062,0.004583,0.00020394,0,0,0.083606,-0.027999,0,0.0037117,0,0,0,0.013774,0.0015029,0.004583,0.9524,0.0066199,0.011057,5.1701e-08,0.78,0.44,0
0.035101,0.0018486,0.012723,0.0010586,0.0041346,0.0006909,0,0,0.078157,-0.027991,0,0.012574,0,0,0,0.012764,0.0010178,0.0041346,3.3779,0.0059722,0.010539,4.2873e-08,0.8,0.44,0
0.036628,0.0016106,0.012214,0.00080638,0.0039061,0.00079004,0,0,0.075602,-0.028208,0,0.014379,0,0,0,0.012268,0.00075192,0.0039061,3.9429,0.0056422,0.010308,3.9005e-08,0.82,0.44,0
0.038125,0.0014671,0.011961,0.00059137,0.0037658,0.00082633,0,0,0.07458,-0.028888,0,0.015039,0,0,0,0.012021,0.00053163,0.0037658,4.1351,0.0054395,0.010262,3.7486e-08,0.84,0.44,0
0.039611,0.0013873,0.011819,0.00038188,0.0036604,0.00079759,0,0,0.074247,-0.029834,0,0.014516,0,0,0,0.011875,0.00032653,0.0036604,3.9699,0.0052872,0.010294,3.6861e-08,0.86,0.44,0
0.041095,0.0013487,0.011736,0.00020527,0.0035824,0.00072323,0,0,0.074198,-0.030732,0,0.013163,0,0,0,0.011781,0.00016008,0.0035824,3.575,0.0051745,0.010344,3.6572e-08,0.88,0.44,0
0.042579,0.0013346,0.011677,6.2501e-05,0.0035218,0.00062104,0,0,0.07421,-0.031479,0,0.011303,0,0,0,0.01171,2.9387e-05,0.0035218,3.0522,0.005087,0.010384,3.6351e-08,0.9,0.44,0
0.044063,0.0013338,0.01163,-4.8724e-05,0.0034745,0.00050448,0,0,0.074219,-0.032061,0,0.0091815,0,0,0,0.011652,-7.0474e-05,0.0034745,2.4688,0.0050187,0.010413,3.6146e-08,0.92,0.44,0
0.045548,0.001339,0.011595,-0.00013148,0.0034389,0.0003811,0,0,0.074216,-0.03249,0,0.0069359,0,0,0,0.011607,-0.00014385,0.0034389,1.8595,0.0049673,0.010431,3.5963e-08,0.94,0.44,0
0.047032,0.0013455,0.011568,-0.00018852,0.003414,0.00025484,0,0,0.074206,-0.032783,0,0.004638,0,0,0,0.011574,-0.00019404,0.003414,1.2411,0.0049313,0.010442,3.5818e-08,0.96,0.44,0
0.048516,0.0013504,0.011553,-0.00022191,0.0033992,0.00012755,0,0,0.074196,-0.032952,0,0.0023215,0,0,0,0.011554,-0.00022329,0.0033992,0.62059,0.00491,0.010448,3.5726e-08,0.98,0.44,0
0.05,0.0013522,0.011547,-0.0002329,0.0033943,4.963e-06,0,0,0.074192,-0.033008,0,9.0327e-05,0,0,0,0.011547,-0.0002329,0.0033943,0.024139,0.0049029,0.01045,3.5694e-08,1,0.44,0
0,0,0.0094815,0.0040635,0.0040635,-0.00012964,0,0,0.049304,-6.5052e-19,0,-0.0023594,0,0,0,0.0094846,0.0040604,0.0040635,-1.3699,0.0058695,0.0054227,8.1896e-09,0,0.46,0
0.00098608,-4.7188e-05,0.0094464,0.0036791,0.0039376,-0.00013271,0,0,0.05013,-0.0023529,0,-0.0024152,0,0,0,0.0094494,0.003676,0.0039376,-1.3175,0.0056877,0.0056472,9.1825e-09,0.02,0.46,0
0.0020052,-7.681e-05,0.009574,0.0033855,0.0038878,-0.00012245,0,0,0.051744,-0.0045715,0,-0.0022286,0,0,0,0.0095764,0.003383,0.0038878,-1.1331,0.0056158,0.005957,1.0595e-08,0.04,0.46,0
0.0030558,-9.2818e-05,0.0096983,0.0031102,0.0038426,-0.00012708,0,0,0.053287,-0.0066642,0,-0.0023129,0,0,0,0.0097007,0.0031078,0.0038426,-1.1047,0.0055503,0.006258,1.2004e-08,0.06,0.46,0
0.0041367,-9.8458e-05,0.0098198,0.0028529,0.0038018,-0.0001447,0,0,0.054764,-0.0086353,0,-0.0026335,0,0,0,0.0098228,0.0028498,0.0038018,-1.1893,0.0054915,0.006549,1.3405e-08,0.08,0.46,0
0.0052464,-9.6387e-05,0.0099387,0.0026133,0.0037656,-0.00017388,0,0,0.056175,-0.010486,0,-0.0031646,0,0,0,0.0099428,0.0026092,0.0037656,-1.359,0.0054392,0.0068293,1.479e-08,0.1,0.46,0
0.0063837,-8.875e-05,0.010055,0.002392,0.0037342,-0.00021354,0,0,0.057522,-0.012214,0,-0.0038864,0,0,0,0.010061,0.0023861,0.0037342,-1.5949,0.0053938,0.0070977,1.6154e-08,0.12,0.46,0
0.0075472,-7.7217e-05,0.010169,0.0021895,0.0037076,-0.00026282,0,0,0.058801,-0.013815,0,-0.0047833,0,0,0,0.010178,0.0021808,0.0037076,-1.8843,0.0053555,0.0073536,1.7492e-08,0.14,0.46,0
0.0087357,-6.2994e-05,0.010281,0.0020067,0.0036863,-0.00032101,0,0,0.060012,-0.015284,0,-0.0058423,0,0,0,0.010293,0.0019943,0.0036863,-2.2184,0.0053247,0.0075958,1.8798e-08,0.16,0.46,0
0.0099477,-4.6799e-05,0.01039,0.0018447,0.0036704,-0.00038742,0,0,0.061149,-0.016614,0,-0.007051,0,0,0,0.010408,0.0018271,0.0036704,-2.5905,0.0053017,0.0078234,2.0066e-08,0.18,0.46,0
0.011182,-2.8802e-05,0.010497,0.0017046,0.0036604,-0.00046135,0,0,0.06221,-0.017797,0,-0.0083966,0,0,0,0.010521,0.0016805,0.0036604,-2.9956,0.0052872,0.0080354,2.1291e-08,0.2,0.46,0
0.012436,-8.5295e-06,0.010601,0.001588,0.0036566,-0.00054195,0,0,0.06319,-0.018824,0,-0.0098634,0,0,0,0.010633,0.0015555,0.0036566,-3.4289,0.0052817,0.0082306,2.2469e-08,0.22,0.46,0
0.013709,1.5287e-05,0.010702,0.0014961,0.0036595,-0.00062808,0,0,0.064089,-0.019687,0,-0.011431,0,0,0,0.010745,0.0014534,0.0036595,-3.885,0.0052859,0.0084083,2.3593e-08,0.24,0.46,0
0.015,4.4934e-05,0.010802,0.0014302,0.0036697,-0.00071821,0,0,0.064905,-0.020379,0,-0.013071,0,0,0,0.010857,0.0013755,0.0036697,-4.357,0.0053007,0.0085677,2.4662e-08,0.26,0.46,0
0.016306,8.4029e-05,0.010901,0.0013916,0.0036879,-0.00081022,0,0,0.065643,-0.020896,0,-0.014746,0,0,0,0.01097,0.0013231,0.0036879,-4.8351,0.0053269,0.0087087,2.5677e-08,0.28,0.46,0
0.017625,0.00013797,0.011002,0.0013807,0.0037149,-0.00090128,0,0,0.066314,-0.02124,0,-0.016403,0,0,0,0.011086,0.001297,0.0037149,-5.3056,0.0053659,0.0088317,2.6643e-08,0.3,0.46,0
0.018958,0.00021463,0.011107,0.0013972,0.0037513,-0.00098769,0,0,0.066938,-0.021422,0,-0.017976,0,0,0,0.011207,0.0012977,0.0037513,-5.7496,0.0054185,0.0089383,2.7572e-08,0.32,0.46,0
0.020303,0.00032537,0.011218,0.001438,0.0037968,-0.0010643,0,0,0.067533,-0.021465,0,-0.01937,0,0,0,0.011333,0.0013235,0.0037968,-6.1394,0.0054843,0.00903,2.847e-08,0.34,0.46,0
0.021659,0.0004873,0.011329,0.0014964,0.0038477,-0.0011236,0,0,0.068082,-0.021397,0,-0.020449,0,0,0,0.011456,0.0013697,0.0038477,-6.4366,0.0055578,0.0091039,2.929e-08,0.36,0.46,0
0.023026,0.00072721,0.011352,0.0015209,0.0038619,-0.0011371,0,0,0.068161,-0.021303,0,-0.020696,0,0,0,0.011482,0.0013911,0.0038619,-6.5127,0.0055783,0.0091103,2.9418e-08,0.38,0.46,0
0.024386,0.0011023,0.011281,0.001518,0.0038396,-0.00098697,0,0,0.067714,-0.021126,0,-0.017963,0,0,0,0.01138,0.0014192,0.0038396,-5.7153,0.0055461,0.0089976,2.8484e-08,0.4,0.46,0
0.025735,0.0017615,0.01195,0.00075053,0.0038102,-0.001126,0,0,0.074074,-0.027843,0,-0.020492,0,0,0,0.012062,0.00063845,0.0038102,-5.6844,0.0055036,0.010214,3.7466e-08,0.42,0.46,0
0.027349,0.0024582,0.015644,0.00021436,0.0047577,-0.00068208,0,0,0.040022,-0.015855,0,-0.0098468,0,0,0,0.015705,0.00015425,0.0047577,-3.6104,0.0068722,0.013836,1.251e-07,0.44,0.46,0
0.027742,0.0025874,0.0092943,-0.00012219,0.0027516,0.00014678,0,0,0.016941,-0.0070947,0,0.00019038,0,0,0,0.0092976,-0.00012549,0.0027516,0.34384,0.0039746,0.0083647,4.3282e-08,0.46,0.46,0
0.027971,0.0026282,0.013068,-0.00072667,0.0037024,0.00019261,0,0,0.012175,-0.0057579,0,0.00050079,0,0,0,0.013071,-0.00072936,0.0037024,0.79978,0.005348,0.012204,5.3549e-08,0.48,0.46,0
0.028229,0.0026704,0.013572,-0.00078454,0.0038361,1.4737e-05,0,0,0.012656,-0.0060068,0,3.8316e-05,0,0,0,0.013572,-0.00078456,0.0038361,0.058816,0.005541,0.012693,6.0049e-08,0.5,0.46,0
0.028478,0.0027335,0.013305,-0.00053805,0.0038301,0.00020639,0,0,0.012317,-0.0056786,0,0.00053662,0,0,0,0.013308,-0.00054113,0.0038301,0.854,0.0055323,0.012263,5.5739e-08,0.52,0.46,0
0.028722,0.0028002,0.013329,8.7347e-05,0.0040248,0.00015288,0,0,0.012095,-0.0051186,0,0.00039749,0,0,0,0.01333,8.5582e-05,0.0040248,0.66142,0.0058135,0.01178,5.3401e-08,0.54,0.46,0
0.028962,0.002862,0.013275,0.00032673,0.0040805,4.6333e-05,0,0,0.011953,-0.0048799,0,0.00012047,0,0,0,0.013275,0.00032656,0.0040805,0.20502,0.0058941,0.011539,5.1674e-08,0.56,0.46,0
0.0292,0.0029129,0.013284,0.00038584,0.0041009,-3.6446e-05,0,0,0.011938,-0.0048296,0,-9.4758e-05,0,0,0,0.013284,0.00038574,0.0041009,-0.1619,0.0059235,0.0115,5.151e-08,0.58,0.46,0
0.029439,0.0029523,0.013268,0.00034122,0.0040827,-9.5752e-05,0,0,0.01194,-0.0048639,0,-0.00024895,0,0,0,0.013268,0.00034051,0.0040827,-0.42438,0.0058972,0.011522,5.1531e-08,0.6,0.46,0
0.029678,0.0029804,0.013228,0.00019124,0.0040258,-0.00017961,0,0,0.011963,-0.0049849,0,-0.00046698,0,0,0,0.01323,0.00018877,0.0040258,-0.78917,0.005815,0.011609,5.1759e-08,0.62,0.46,0
0.029918,0.0029977,0.01325,-0.00015096,0.0039297,-0.0002849,0,0,0.012116,-0.0053048,0,-0.00074073,0,0,0,0.013256,-0.00015701,0.0039297,-1.2173,0.0056762,0.011908,5.3542e-08,0.64,0.46,0
0.030162,0.0030106,0.013201,-0.00088996,0.0036934,-0.00032163,0,0,0.01236,-0.0059583,0,-0.00083623,0,0,0,0.013209,-0.00089729,0.0036934,-1.3068,0.0053349,0.012462,5.5849e-08,0.66,0.46,0
0.030412,0.0030287,0.01343,-0.0012787,0.0036454,-9.9005e-05,0,0,0.01272,-0.0064014,0,-0.00025741,0,0,0,0.013431,-0.0012794,0.0036454,-0.38564,0.0052656,0.012969,6.0035e-08,0.68,0.46,0
0.030671,0.0030693,0.012945,-0.001309,0.0034909,-0.00021082,0,0,0.012291,-0.0062398,0,-0.00054813,0,0,0,0.012948,-0.0013121,0.0034909,-0.84715,0.0050424,0.012567,5.4045e-08,0.7,0.46,0
0.030904,0.0031152,0.0092335,-0.00063313,0.0025801,-0.00016295,0,0,0.017248,-0.0079935,0,-0.00032429,0,0,0,0.009237,-0.00063662,0.0025801,-0.4712,0.0037268,0.0087224,4.4589e-08,0.72,0.46,0
0.031305,0.0030628,0.015505,-0.0008349,0.0044012,0.00054653,0,0,0.040861,-0.018351,0,0.0083939,0,0,0,0.015547,-0.00087647,0.0044012,2.85,0.0063572,0.014523,1.2953e-07,0.74,0.46,0
0.032954,0.0023536,0.011911,-4.1466e-05,0.0035609,0.00093076,0,0,0.075987,-0.032782,0,0.01694,0,0,0,0.011983,-0.00011351,0.0035609,4.4261,0.0051435,0.010742,3.9456e-08,0.76,0.46,0
0.034344,0.0016845,0.011309,0.00084635,0.0036464,0.00079503,0,0,0.069724,-0.025481,0,0.014469,0,0,0,0.011369,0.00078628,0.0036464,4.3209,0.0052671,0.0094814,3.0721e-08,0.78,0.46,0
0.035743,0.0012995,0.011381,0.00079926,0.003654,0.00095533,0,0,0.070313,-0.025978,0,0.017387,0,0,0,0.011466,0.0007137,0.003654,5.1177,0.005278,0.0096254,3.1804e-08,0.8,0.46,0
0.037157,0.0010586,0.011409,0.00073262,0.0036425,0.00096287,0,0,0.070676,-0.02648,0,0.017524,0,0,0,0.011495,0.00064648,0.0036425,5.1123,0.0052614,0.0097041,3.2293e-08,0.82,0.46,0
0.03857,0.00090303,0.011355,0.00059607,0.0035853,0.00092159,0,0,0.070703,-0.027202,0,0.016773,0,0,0,0.011433,0.0005177,0.0035853,4.8607,0.0051787,0.0097506,3.2209e-08,0.84,0.46,0
0.039985,0.000807,0.011314,0.00044573,0.0035279,0.00085456,0,0,0.070852,-0.028047,0,0.015553,0,0,0,0.011381,0.00037895,0.0035279,4.4685,0.0050958,0.0098137,3.2228e-08,0.86,0.46,0
0.041404,0.00075154,0.011288,0.00030093,0.0034768,0.00076267,0,0,0.071086,-0.028901,0,0.013881,0,0,0,0.011341,0.00024824,0.0034768,3.9518,0.0050221,0.0098824,3.2321e-08,0.88,0.46,0
0.042828,0.00072257,0.011273,0.00017534,0.0034346,0.00065221,0,0,0.071332,-0.029659,0,0.01187,0,0,0,0.011311,0.00013714,0.0034346,3.3519,0.004961,0.0099444,3.2422e-08,0.9,0.46,0
0.044257,0.00070973,0.011262,7.2939e-05,0.0034005,0.00052985,0,0,0.07154,-0.030281,0,0.0096433,0,0,0,0.011287,4.7904e-05,0.0034005,2.7051,0.0049118,0.009994,3.2494e-08,0.92,0.46,0
0.04569,0.00070584,0.011253,-5.586e-06,0.0033743,0.00040083,0,0,0.071698,-0.030757,0,0.007295,0,0,0,0.011267,-1.9838e-05,0.0033743,2.0364,0.004874,0.010031,3.2534e-08,0.94,0.46,0
0.047125,0.00070605,0.011246,-6.0798e-05,0.0033556,0.00026842,0,0,0.071805,-0.03109,0,0.0048852,0,0,0,0.011253,-6.7167e-05,0.0033556,1.3591,0.004847,0.010055,3.2551e-08,0.96,0.46,0
0.048562,0.00070731,0.011242,-9.3513e-05,0.0033445,0.00013449,0,0,0.071866,-0.031286,0,0.0024477,0,0,0,0.011244,-9.5108e-05,0.0033445,0.67966,0.0048309,0.010069,3.2556e-08,0.98,0.46,0
0.05,0.0007079,0.01124,-0.00010434,0.0033408,1.6442e-06,0,0,0.071886,-0.031351,0,2.9924e-05,0,0,0,0.01124,-0.00010434,0.0033408,0.0083039,0.0048256,0.010074,3.2557e-08,1,0.46,0
0,0,0.0093804,0.0040202,0.0040202,-0.00025502,0,0,0.048778,3.2526e-19,0,-0.0046414,0,0,0,0.0093925,0.0040081,0.0040202,-2.7178,0.0058069,0.0053784,7.9906e-09,0,0.48,0
0.00097556,-9.2829e-05,0.0093475,0.0036594,0.0039021,-0.0002577,0,0,0.049554,-0.0022085,0,-0.0046901,0,0,0,0.0093592,0.0036477,0.0039021,-2.5887,0.0056363,0.0055886,8.9021e-09,0.02,0.48,0
0.0019821,-0.0001656,0.0094668,0.0033817,0.0038545,-0.00024395,0,0,0.051071,-0.0043028,0,-0.00444,0,0,0,0.0094765,0.0033719,0.0038545,-2.2921,0.0055677,0.0058782,1.0195e-08,0.04,0.48,0
0.0030184,-0.00022237,0.0095825,0.0031201,0.0038108,-0.00024543,0,0,0.052523,-0.0062849,0,-0.0044669,0,0,0,0.0095918,0.0031109,0.0038108,-2.1719,0.0055045,0.0061609,1.1489e-08,0.06,0.48,0
0.0040831,-0.00026641,0.0096948,0.0028748,0.0037709,-0.00026004,0,0,0.053908,-0.0081543,0,-0.0047327,0,0,0,0.0097047,0.0028649,0.0037709,-2.1804,0.0054468,0.0064348,1.2775e-08,0.08,0.48,0
0.0051747,-0.00030039,0.0098035,0.002646,0.0037349,-0.00028618,0,0,0.055225,-0.0099083,0,-0.0052085,0,0,0,0.0098149,0.0026346,0.0037349,-2.286,0.0053948,0.0066983,1.4042e-08,0.1,0.48,0
0.006292,-0.00032637,0.0099083,0.0024345,0.0037028,-0.00032266,0,0,0.05647,-0.011542,0,-0.0058723,0,0,0,0.0099222,0.0024206,0.0037028,-2.4674,0.0053485,0.0069498,1.5281e-08,0.12,0.48,0
0.0074335,-0.00034592,0.010009,0.0022409,0.0036749,-0.0003685,0,0,0.057639,-0.01305,0,-0.0067068,0,0,0,0.010026,0.0022235,0.0036749,-2.7099,0.0053082,0.0071879,1.6482e-08,0.14,0.48,0
0.0085976,-0.00036012,0.010105,0.0020663,0.0036513,-0.00042294,0,0,0.058726,-0.014423,0,-0.0076975,0,0,0,0.010127,0.0020441,0.0036513,-3.0036,0.0052741,0.007411,1.7637e-08,0.16,0.48,0
0.0097825,-0.00036953,0.010195,0.0019118,0.0036321,-0.00048524,0,0,0.059724,-0.015655,0,-0.0088314,0,0,0,0.010223,0.0018835,0.0036321,-3.3412,0.0052464,0.0076178,1.8734e-08,0.18,0.48,0
0.010987,-0.00037415,0.01028,0.0017785,0.0036174,-0.00055469,0,0,0.060626,-0.016734,0,-0.010095,0,0,0,0.010316,0.0017425,0.0036174,-3.7175,0.0052252,0.0078065,1.9763e-08,0.2,0.48,0
0.012208,-0.00037333,0.010357,0.0016676,0.0036075,-0.00063044,0,0,0.061424,-0.017653,0,-0.011474,0,0,0,0.010403,0.0016221,0.0036075,-4.128,0.0052108,0.0079757,2.0714e-08,0.22,0.48,0
0.013444,-0.00036564,0.010428,0.00158,0.0036023,-0.00071144,0,0,0.06211,-0.018403,0,-0.012948,0,0,0,0.010484,0.0015231,0.0036023,-4.5681,0.0052033,0.0081238,2.1575e-08,0.24,0.48,0
0.014692,-0.00034864,0.010489,0.0015166,0.0036017,-0.00079628,0,0,0.062676,-0.018975,0,-0.014492,0,0,0,0.010559,0.0014464,0.0036017,-5.0323,0.0052025,0.0082491,2.2332e-08,0.26,0.48,0
0.01595,-0.00031862,0.010541,0.0014776,0.0036055,-0.00088303,0,0,0.063111,-0.019364,0,-0.016071,0,0,0,0.010626,0.0013924,0.0036055,-5.5132,0.005208,0.0083501,2.297e-08,0.28,0.48,0
0.017216,-0.00027017,0.010551,0.0014057,0.0035868,-0.00097607,0,0,0.063369,-0.019849,0,-0.017764,0,0,0,0.010653,0.0013027,0.0035868,-6.025,0.005181,0.0084438,2.346e-08,0.3,0.48,0
0.018487,-0.00019553,0.010581,0.0014107,0.0035974,-0.0010289,0,0,0.063548,-0.019899,0,-0.018727,0,0,0,0.010695,0.0012967,0.0035974,-6.3242,0.0051963,0.008485,2.377e-08,0.32,0.48,0
0.019758,-8.3451e-05,0.010604,0.0014904,0.0036282,-0.0011187,0,0,0.063475,-0.019453,0,-0.020361,0,0,0,0.010739,0.0013551,0.0036282,-6.8974,0.0052407,0.0084788,2.3886e-08,0.34,0.48,0
0.021026,8.2903e-05,0.010559,0.001513,0.0036216,-0.0011588,0,0,0.06313,-0.019188,0,-0.02109,0,0,0,0.010705,0.0013669,0.0036216,-7.1852,0.0052311,0.0084397,2.3607e-08,0.36,0.48,0
0.022283,0.00033064,0.010484,0.0015224,0.003602,-0.0011254,0,0,0.062629,-0.018924,0,-0.020481,0,0,0,0.010623,0.0013833,0.003602,-7.0489,0.0052029,0.0083547,2.2982e-08,0.38,0.48,0
0.023531,0.00070956,0.010556,0.0014312,0.0035963,-0.0010284,0,0,0.063337,-0.019702,0,-0.018718,0,0,0,0.010671,0.0013167,0.0035963,-6.3513,0.0051946,0.0084482,2.3534e-08,0.4,0.48,0
0.024817,0.0012117,0.010268,0.00047451,0.0032228,-0.00090692,0,0,0.064113,-0.02501,0,-0.016506,0,0,0,0.010351,0.00039123,0.0032228,-5.2463,0.0046552,0.0088894,2.4122e-08,0.42,0.48,0
0.026096,0.0018468,0.010931,-2.0872e-05,0.0032731,-0.0013277,0,0,0.069689,-0.029975,0,-0.024165,0,0,0,0.01109,-0.00017954,0.0032731,-6.8146,0.0047278,0.010001,3.149e-08,0.44,0.48,0
0.027604,0.0024307,0.014216,-2.8842e-07,0.0042648,-0.0011576,0,0,0.03704,-0.015301,0,-0.012715,0,0,0,0.014333,-0.00011664,0.0042648,-5.5458,0.0061603,0.012833,9.4785e-08,0.46,0.48,0
0.027961,0.0025131,0.0083079,-0.00068565,0.0022867,-0.00023304,0,0,0.015473,-0.0073654,0,-0.0025607,0,0,0,0.0083203,-0.00069809,0.0022867,-2.8946,0.003303,0.0079578,3.3167e-08,0.48,0.48,0
0.028176,0.0025524,0.011942,-0.0017034,0.0030717,1.7401e-05,0,0,0.011532,-0.0062077,0,4.5242e-05,0,0,0,0.011942,-0.0017035,0.0030717,0.073062,0.0044369,0.011994,4.3624e-08,0.5,0.48,0
0.028422,0.002619,0.013212,-0.0002869,0.0038776,1.7482e-05,0,0,0.012135,-0.0054138,0,4.5452e-05,0,0,0,0.013212,-0.00028692,0.0038776,0.0742,0.0056009,0.011973,5.3549e-08,0.52,0.48,0
0.028661,0.0026994,0.013313,0.00019374,0.0040519,-6.5456e-05,0,0,0.012039,-0.0050156,0,-0.00017018,0,0,0,0.013313,0.00019341,0.0040519,-0.28586,0.0058528,0.011679,5.2718e-08,0.54,0.48,0
0.028904,0.0027642,0.01361,0.00027836,0.0041665,-0.00014448,0,0,0.012276,-0.0050545,0,-0.00037565,0,0,0,0.013611,0.00027679,0.0041665,-0.62085,0.0060182,0.011877,5.5975e-08,0.56,0.48,0
0.029152,0.002815,0.013837,0.00031535,0.0042458,-9.5641e-05,0,0,0.012469,-0.0051096,0,-0.00024867,0,0,0,0.013838,0.00031467,0.0042458,-0.40522,0.0061329,0.012049,5.8656e-08,0.58,0.48,0
0.029403,0.0028537,0.01382,0.00027117,0.0042272,-3.9828e-06,0,0,0.01247,-0.0051428,0,-1.0355e-05,0,0,0,0.01382,0.00027117,0.0042272,-0.016843,0.0061059,0.012067,5.8628e-08,0.6,0.48,0
0.029651,0.0028806,0.013555,0.0001427,0.0041094,4.3954e-05,0,0,0.01228,-0.0051567,0,0.00011428,0,0,0,0.013555,0.00014256,0.0041094,0.18776,0.0059357,0.011935,5.5898e-08,0.62,0.48,0
0.029894,0.0028932,0.013232,-3.9306e-05,0.0039577,-3.3766e-05,0,0,0.012056,-0.0051961,0,-8.7792e-05,0,0,0,0.013232,-3.9392e-05,0.0039577,-0.14578,0.0057167,0.011792,5.2757e-08,0.64,0.48,0
0.030133,0.0028905,0.013092,-0.00067013,0.0037267,-0.00011082,0,0,0.012175,-0.0057158,0,-0.00028812,0,0,0,0.013093,-0.00067103,0.0037267,-0.4613,0.005383,0.012176,5.3605e-08,0.66,0.48,0
0.030381,0.0029021,0.01182,-0.0022145,0.0028816,-6.1834e-05,0,0,0.01162,-0.006625,0,-0.00016077,0,0,0,0.01182,-0.0022148,0.0028816,-0.25244,0.0041623,0.012306,4.3365e-08,0.68,0.48,0
0.030598,0.0029449,0.0082387,-0.0011275,0.0021334,0.00020812,0,0,0.015705,-0.0081367,0,0.0024258,0,0,0,0.0082494,-0.0011382,0.0021334,2.6121,0.0030815,0.0082535,3.3566e-08,0.7,0.48,0
0.030961,0.0029371,0.014064,-0.00090679,0.0039471,0.0010346,0,0,0.03769,-0.017456,0,0.011448,0,0,0,0.014153,-0.00099617,0.0039471,4.7477,0.0057015,0.013381,9.6838e-08,0.72,0.48,0
0.032497,0.0023524,0.010872,-0.00075098,0.0030363,0.0011595,0,0,0.071305,-0.034464,0,0.021103,0,0,0,0.010987,-0.00086553,0.0030363,5.6418,0.0043858,0.010462,3.2433e-08,0.74,0.48,0
0.033813,0.0017157,0.010259,-0.00021713,0.0030125,0.00071701,0,0,0.06594,-0.029389,0,0.01305,0,0,0,0.010308,-0.00026598,0.0030125,3.8974,0.0043513,0.0093746,2.553e-08,0.76,0.48,0
0.035135,0.0012009,0.010553,0.00072536,0.0033836,0.00081486,0,0,0.065244,-0.02419,0,0.01483,0,0,0,0.01062,0.00065826,0.0033836,4.7077,0.0048874,0.0089175,2.5281e-08,0.78,0.48,0
0.036423,0.00080946,0.01051,0.00079661,0.0033919,0.00091364,0,0,0.064773,-0.023617,0,0.016628,0,0,0,0.010595,0.00071142,0.0033919,5.3271,0.0048995,0.0088531,2.4933e-08,0.8,0.48,0
0.037726,0.00055137,0.010617,0.00073248,0.0034047,0.00095146,0,0,0.065629,-0.024318,0,0.017317,0,0,0,0.010707,0.00064172,0.0034047,5.4487,0.004918,0.0090078,2.5975e-08,0.82,0.48,0
0.039048,0.00037907,0.01071,0.00063679,0.003404,0.00091571,0,0,0.066482,-0.025181,0,0.016666,0,0,0,0.010792,0.00055422,0.003404,5.1524,0.0049168,0.0091522,2.6887e-08,0.84,0.48,0
0.040385,0.00026538,0.010768,0.0005187,0.003386,0.00084518,0,0,0.067176,-0.026093,0,0.015382,0,0,0,0.010837,0.00044947,0.003386,4.6826,0.0048909,0.009275,2.7557e-08,0.86,0.48,0
0.041735,0.00019273,0.01081,0.00039884,0.0033628,0.00075276,0,0,0.067773,-0.026972,0,0.0137,0,0,0,0.010864,0.0003447,0.0033628,4.114,0.0048573,0.0093822,2.8091e-08,0.88,0.48,0
0.043096,0.00014829,0.010843,0.00028888,0.0033395,0.00064436,0,0,0.06828,-0.027761,0,0.011727,0,0,0,0.010882,0.00024969,0.0033395,3.4809,0.0048237,0.0094731,2.8517e-08,0.9,0.48,0
0.044466,0.00012259,0.010867,0.00019571,0.0033189,0.00052485,0,0,0.06869,-0.028421,0,0.0095522,0,0,0,0.010893,0.00016996,0.0033189,2.8089,0.004794,0.0095464,2.8844e-08,0.92,0.48,0
0.045843,0.00010872,0.010851,5.9754e-05,0.0032733,0.00039316,0,0,0.068959,-0.029243,0,0.0071555,0,0,0,0.010866,4.5449e-05,0.0032733,2.0837,0.0047281,0.0096212,2.8989e-08,0.94,0.48,0
0.047226,0.00010189,0.010877,1.4064e-05,0.0032673,0.00026776,0,0,0.069249,-0.029605,0,0.0048733,0,0,0,0.010884,7.4677e-06,0.0032673,1.4111,0.0047195,0.0096676,2.9245e-08,0.96,0.48,0
0.048612,9.8962e-05,0.010903,3.8225e-05,0.0032824,0.00013413,0,0,0.069348,-0.029522,0,0.0024412,0,0,0,0.010905,3.6569e-05,0.0032824,0.7072,0.0047412,0.009663,2.933e-08,0.98,0.48,0
0.05,9.8176e-05,0.010905,2.7736e-05,0.0032798,-2.1601e-06,0,0,0.06939,-0.029594,0,-3.9313e-05,0,0,0,0.010905,2.7736e-05,0.0032798,-0.011378,0.0047375,0.0096705,2.9359e-08,1,0.48,0
0,0,0.0092699,0.0039728,0.0039728,-0.00037233,0,0,0.048204,3.2526e-19,0,-0.0067764,0,0,0,0.009296,0.0039468,0.0039728,-4.0011,0.0057385,0.0053362,7.8035e-09,0,0.5,0
0.00096407,-0.00013553,0.0092394,0.0036361,0.0038627,-0.00037445,0,0,0.048928,-0.0020613,0,-0.006815,0,0,0,0.0092643,0.0036112,0.0038627,-3.8064,0.0055794,0.0055316,8.6327e-09,0.02,0.5,0
0.0019571,-0.00024892,0.0093501,0.0033746,0.0038174,-0.00035727,0,0,0.050348,-0.0040297,0,-0.0065023,0,0,0,0.0093714,0.0033533,0.0038174,-3.4095,0.005514,0.0058,9.8048e-09,0.04,0.5,0
0.002978,-0.00034421,0.0094572,0.0031268,0.0037752,-0.00035517,0,0,0.051707,-0.0059009,0,-0.006464,0,0,0,0.0094771,0.0031069,0.0037752,-3.2011,0.0054531,0.0060637,1.0984e-08,0.06,0.5,0
0.0040254,-0.00042463,0.0095603,0.0028933,0.0037361,-0.0003659,0,0,0.053,-0.0076694,0,-0.0066595,0,0,0,0.0095803,0.0028733,0.0037361,-3.132,0.0053965,0.00632,1.2154e-08,0.08,0.5,0
0.005098,-0.00049272,0.0096128,0.0026402,0.0036759,-0.00039113,0,0,0.054026,-0.0094246,0,-0.0071186,0,0,0,0.0096346,0.0026184,0.0036759,-3.2007,0.0053096,0.0065518,1.3185e-08,0.1,0.5,0
0.0061943,-0.00055044,0.0097781,0.0024666,0.0036734,-0.00041378,0,0,0.055552,-0.010982,0,-0.0075307,0,0,0,0.0098014,0.0024433,0.0036734,-3.2288,0.005306,0.0068267,1.4568e-08,0.12,0.5,0
0.0073127,-0.00059921,0.0098388,0.0022877,0.003638,-0.00045985,0,0,0.056428,-0.012288,0,-0.0083693,0,0,0,0.0098668,0.0022598,0.003638,-3.4721,0.0052548,0.0070201,1.5485e-08,0.14,0.5,0
0.0084514,-0.00063993,0.0099189,0.0021207,0.0036119,-0.0005081,0,0,0.057394,-0.013569,0,-0.0092475,0,0,0,0.0099519,0.0020878,0.0036119,-3.7123,0.0052172,0.0072237,1.6492e-08,0.16,0.5,0
0.0096085,-0.00067298,0.009991,0.0019731,0.0035892,-0.00056337,0,0,0.058256,-0.014707,0,-0.010253,0,0,0,0.01003,0.0019337,0.0035892,-3.9996,0.0051844,0.0074089,1.7423e-08,0.18,0.5,0
0.010782,-0.00069818,0.010054,0.0018459,0.0035699,-0.00062479,0,0,0.059003,-0.015689,0,-0.011371,0,0,0,0.010101,0.0017986,0.0035699,-4.3281,0.0051565,0.0075738,1.8265e-08,0.2,0.5,0
0.011969,-0.00071466,0.010106,0.0017399,0.0035537,-0.00069138,0,0,0.059625,-0.016506,0,-0.012583,0,0,0,0.010163,0.0016831,0.0035537,-4.6926,0.0051332,0.0077162,1.9003e-08,0.22,0.5,0
0.013167,-0.00072082,0.010146,0.0016559,0.0035405,-0.0007619,0,0,0.060108,-0.01715,0,-0.013867,0,0,0,0.010214,0.0015881,0.0035405,-5.0877,0.0051141,0.0078339,1.9618e-08,0.24,0.5,0
0.014373,-0.00071406,0.010171,0.0015942,0.0035296,-0.00083463,0,0,0.060437,-0.017612,0,-0.01519,0,0,0,0.010252,0.0015137,0.0035296,-5.5067,0.0050983,0.0079245,2.0092e-08,0.26,0.5,0
0.015584,-0.00069054,0.010179,0.0015543,0.00352,-0.00090718,0,0,0.060597,-0.017888,0,-0.016511,0,0,0,0.010273,0.0014599,0.00352,-5.94,0.0050844,0.0079853,2.0401e-08,0.28,0.5,0
0.016797,-0.00064481,0.010191,0.0015845,0.0035326,-0.00098624,0,0,0.06059,-0.017728,0,-0.01795,0,0,0,0.010302,0.0014729,0.0035326,-6.4543,0.0051026,0.008001,2.0546e-08,0.3,0.5,0
0.018007,-0.00056917,0.010137,0.0015761,0.003514,-0.00101,0,0,0.060271,-0.017635,0,-0.018381,0,0,0,0.010255,0.0014586,0.003514,-6.6379,0.0050757,0.0079697,2.0285e-08,0.32,0.5,0
0.01921,-0.00045277,0.010056,0.001534,0.003477,-0.0010749,0,0,0.059869,-0.017681,0,-0.019563,0,0,0,0.01019,0.0014006,0.003477,-7.079,0.0050224,0.0079566,2.0052e-08,0.34,0.5,0
0.020402,-0.00028023,0.0099576,0.0015286,0.0034459,-0.0010778,0,0,0.059256,-0.017447,0,-0.019617,0,0,0,0.010093,0.001393,0.0034459,-7.1728,0.0049774,0.007877,1.9472e-08,0.36,0.5,0
0.02158,-2.9758e-05,0.0098714,0.0014733,0.0034034,-0.0010331,0,0,0.058859,-0.017564,0,-0.018803,0,0,0,0.0099966,0.0013481,0.0034034,-6.9112,0.004916,0.007826,1.9012e-08,0.38,0.5,0
0.022756,0.00031425,0.0097619,0.0011936,0.0032866,-0.00095243,0,0,0.058924,-0.019046,0,-0.017334,0,0,0,0.0098665,0.0010891,0.0032866,-6.267,0.0047474,0.007911,1.8967e-08,0.4,0.5,0
0.023937,0.00076116,0.0097704,0.00075366,0.0031572,-0.00097761,0,0,0.06018,-0.021872,0,-0.017792,0,0,0,0.0098752,0.00064888,0.0031572,-6.1174,0.0045604,0.0082628,2.0226e-08,0.42,0.5,0
0.025163,0.0012592,0.0095034,-9.3455e-05,0.002823,-0.0010385,0,0,0.060792,-0.02654,0,-0.0189,0,0,0,0.0096145,-0.00020454,0.002823,-6.1058,0.0040777,0.0087093,2.0626e-08,0.44,0.5,0
0.026369,0.0018261,0.0098182,-0.00047265,0.0028037,-0.0016205,0,0,0.063832,-0.029814,0,-0.029493,0,0,0,0.010067,-0.0007218,0.0028037,-8.7407,0.0040497,0.0095288,2.4807e-08,0.46,0.5,0
0.027787,0.0023497,0.012459,-0.00063319,0.0035476,-0.0015625,0,0,0.030403,-0.013536,0,-0.013239,0,0,0,0.012654,-0.00082817,0.0035476,-7.5626,0.0051244,0.011913,7.8221e-08,0.48,0.5,0
0.028125,0.002422,0.0085041,-0.00072668,0.0023332,-1.7405e-05,0,0,0.015263,-0.0082932,0,-0.0052757,0,0,0,0.0085895,-0.00081204,0.0023332,-4.9154,0.0033702,0.0082919,3.7929e-08,0.5,0.5,0
0.028333,0.0025169,0.012309,-0.00043202,0.0035632,-0.00073813,0,0,0.01137,-0.0051938,0,-0.0019191,0,0,0,0.012352,-0.00047463,0.0035632,-3.3045,0.0051469,0.011359,4.4475e-08,0.52,0.5,0
0.02857,0.0025995,0.013445,-7.1139e-05,0.0040122,-0.0005621,0,0,0.012263,-0.0053083,0,-0.0014615,0,0,0,0.013468,-9.4475e-05,0.0040122,-2.3773,0.0057954,0.012046,5.5876e-08,0.54,0.5,0
0.028831,0.0026599,0.014787,0.0002958,0.0045247,-0.00049762,0,0,0.01334,-0.0054976,0,-0.0012938,0,0,0,0.014804,0.00027873,0.0045247,-1.9645,0.0065357,0.012936,7.2133e-08,0.56,0.5,0
0.029101,0.0027085,0.014985,0.00027041,0.0045765,-0.00014858,0,0,0.013531,-0.005598,0,-0.0003863,0,0,0,0.014986,0.00026891,0.0045765,-0.57847,0.0066106,0.013106,7.4909e-08,0.58,0.5,0
0.029373,0.0027466,0.014973,0.00022761,0.0045603,6.9812e-05,0,0,0.013537,-0.0056325,0,0.00018151,0,0,0,0.014974,0.00022728,0.0045603,0.27125,0.0065871,0.013128,7.4954e-08,0.6,0.5,0
0.029643,0.0027742,0.014742,0.00016003,0.0044706,0.00042119,0,0,0.013353,-0.0056037,0,0.0010951,0,0,0,0.014754,0.00014787,0.0044706,1.6531,0.0064575,0.012996,7.2118e-08,0.62,0.5,0
0.029904,0.0027899,0.013362,-0.00030975,0.0039158,0.00047673,0,0,0.01228,-0.0054932,0,0.0012395,0,0,0,0.013379,-0.00032635,0.0039158,1.9946,0.0056561,0.012153,5.575e-08,0.64,0.5,0
0.030142,0.002782,0.01185,-0.0010003,0.0032551,0.00098971,0,0,0.011174,-0.0055319,0,0.0025732,0,0,0,0.011926,-0.001076,0.0032551,4.3782,0.0047018,0.011468,4.1871e-08,0.66,0.5,0
0.030351,0.0027637,0.0073504,-0.0022492,0.0015304,0.00080831,0,0,0.01491,-0.0096046,0,0.0073244,0,0,0,0.0074477,-0.0023464,0.0015304,7.5408,0.0022106,0.0085431,2.5957e-08,0.68,0.5,0
0.030694,0.002763,0.013033,-0.0013968,0.0034907,0.0015996,0,0,0.035422,-0.017194,0,0.014853,0,0,0,0.01322,-0.0015847,0.0034907,6.9499,0.0050421,0.013032,8.1766e-08,0.7,0.5,0
0.032134,0.0022459,0.010103,-0.00093587,0.0027502,0.0013649,0,0,0.066913,-0.033543,0,0.024841,0,0,0,0.01027,-0.0011021,0.0027502,6.9448,0.0039725,0.010017,2.7082e-08,0.72,0.5,0
0.03337,0.0016842,0.0094734,-0.00073174,0.0026225,0.000868,0,0,0.062343,-0.030523,0,0.015798,0,0,0,0.0095467,-0.00080504,0.0026225,4.8271,0.003788,0.0091337,2.1375e-08,0.74,0.5,0
0.034627,0.001178,0.0097407,7.7546e-05,0.0029455,0.00077028,0,0,0.061836,-0.026098,0,0.014019,0,0,0,0.0098017,1.653e-05,0.0029455,4.5291,0.0042546,0.0086987,2.1338e-08,0.76,0.5,0
0.035844,0.00071693,0.0097526,0.00050107,0.0030761,0.00072609,0,0,0.060756,-0.023433,0,0.013215,0,0,0,0.0098092,0.00044443,0.0030761,4.4604,0.0044432,0.0083654,2.034e-08,0.78,0.5,0
0.037058,0.00035484,0.0098799,0.00074432,0.0031873,0.00079475,0,0,0.060903,-0.022231,0,0.014464,0,0,0,0.0099485,0.0006757,0.0031873,4.9351,0.0046038,0.0083069,2.0621e-08,0.8,0.5,0
0.03828,8.5876e-05,0.0099947,0.00074782,0.0032227,0.00083335,0,0,0.061624,-0.022522,0,0.015167,0,0,0,0.010069,0.00067331,0.0032227,5.1088,0.0046551,0.0084159,2.1409e-08,0.82,0.5,0
0.039523,-0.00010422,0.01013,0.00068183,0.0032436,0.00082353,0,0,0.062668,-0.023312,0,0.014988,0,0,0,0.010201,0.00061058,0.0032436,4.9443,0.0046852,0.0085827,2.2466e-08,0.84,0.5,0
0.040787,-0.0002367,0.010247,0.00059003,0.0032512,0.00077278,0,0,0.063664,-0.024216,0,0.014065,0,0,0,0.010309,0.00052858,0.0032512,4.5463,0.0046961,0.0087427,2.3435e-08,0.86,0.5,0
0.042069,-0.00032733,0.01034,0.00049048,0.0032491,0.00069549,0,0,0.064526,-0.025104,0,0.012658,0,0,0,0.010389,0.00044162,0.0032491,4.0192,0.0046932,0.0088826,2.4245e-08,0.88,0.5,0
0.043368,-0.00038785,0.010412,0.00039543,0.0032423,0.00060001,0,0,0.065246,-0.025906,0,0.01092,0,0,0,0.010448,0.00035961,0.0032423,3.4158,0.0046833,0.0090001,2.4903e-08,0.9,0.5,0
0.044679,-0.00042711,0.010467,0.0003122,0.0032338,0.00049183,0,0,0.065824,-0.026587,0,0.0089513,0,0,0,0.010491,0.00028843,0.0032338,2.7663,0.0046711,0.0090949,2.5418e-08,0.92,0.5,0
0.046001,-0.00045163,0.010472,0.00022964,0.0032104,0.0003612,0,0,0.066078,-0.027125,0,0.0065738,0,0,0,0.010485,0.00021691,0.0032104,2.0173,0.0046373,0.0091459,2.5571e-08,0.94,0.5,0
0.04733,-0.00046607,0.010559,0.00020622,0.0032295,0.00026224,0,0,0.066697,-0.027512,0,0.0047729,0,0,0,0.010566,0.00019958,0.0032295,1.4501,0.0046649,0.0092317,2.6222e-08,0.96,0.5,0
0.048664,-0.00047356,0.010523,0.00010834,0.0031895,0.00012497,0,0,0.066737,-0.028038,0,0.0022745,0,0,0,0.010525,0.00010684,0.0031895,0.68737,0.004607,0.0092693,2.6175e-08,0.98,0.5,0
0.05,-0.00047586,0.010484,-1.2611e-05,0.0031414,-6.3259e-06,0,0,0.066818,-0.028702,0,-0.00011513,0,0,0,0.010484,-1.2615e-05,0.0031414,-0.03453,0.0045376,0.0093285,2.6193e-08,1,0.5,0
0,0,0.0091527,0.0039226,0.0039226,-0.00048154,0,0,0.047594,-3.2526e-19,0,-0.008764,0,0,0,0.0091967,0.0038786,0.0039226,-5.2168,0.005666,0.0052962,7.6282e-09,0,0.52,0
0.00095188,-0.00017528,0.0090793,0.0035866,0.0037998,-0.00049364,0,0,0.048044,-0.0019399,0,-0.0089843,0,0,0,0.0091233,0.0035426,0.0037998,-5.0949,0.0054886,0.0054567,8.2822e-09,0.02,0.52,0
0.0019307,-0.00032679,0.0092649,0.0033733,0.0037915,-0.00045298,0,0,0.049808,-0.0038051,0,-0.0082442,0,0,0,0.0092995,0.0033387,0.0037915,-4.371,0.0054766,0.0057478,9.5491e-09,0.04,0.52,0
0.0029356,-0.0004584,0.0093256,0.0031294,0.0037365,-0.00045636,0,0,0.050861,-0.0055247,0,-0.0083057,0,0,0,0.0093591,0.003096,0.0037365,-4.1898,0.0053972,0.0059686,1.0498e-08,0.06,0.52,0
0.0039652,-0.00057319,0.0094197,0.0029073,0.0036981,-0.00046243,0,0,0.052067,-0.0071966,0,-0.0084163,0,0,0,0.0094524,0.0028746,0.0036981,-4.0414,0.0053417,0.0062071,1.1557e-08,0.08,0.52,0
0.0050182,-0.00067353,0.0094807,0.0027013,0.0036546,-0.00048515,0,0,0.053017,-0.0086748,0,-0.0088297,0,0,0,0.0095152,0.0026668,0.0036546,-4.0726,0.0052789,0.0064119,1.2462e-08,0.1,0.52,0
0.0060932,-0.0007612,0.0096311,0.0025392,0.0036511,-0.00049935,0,0,0.054418,-0.010118,0,-0.0090882,0,0,0,0.0096661,0.0025042,0.0036511,-4.0079,0.0052738,0.0066629,1.3687e-08,0.12,0.52,0
0.0071882,-0.00083743,0.0096644,0.0023277,0.0035976,-0.00053728,0,0,0.055208,-0.011557,0,-0.0097785,0,0,0,0.0097035,0.0022885,0.0035976,-4.1663,0.0051966,0.0068549,1.453e-08,0.14,0.52,0
0.0083015,-0.0009029,0.0097297,0.0021675,0.0035691,-0.00057708,0,0,0.056061,-0.012755,0,-0.010503,0,0,0,0.0097735,0.0021237,0.0035691,-4.3388,0.0051554,0.0070393,1.5399e-08,0.16,0.52,0
0.0094307,-0.00095779,0.0097846,0.0020256,0.0035431,-0.00062262,0,0,0.056798,-0.013809,0,-0.011332,0,0,0,0.0098343,0.001976,0.0035431,-4.5588,0.0051178,0.0072037,1.6179e-08,0.18,0.52,0
0.010573,-0.0010017,0.0098276,0.0019032,0.0035192,-0.00067285,0,0,0.057406,-0.014706,0,-0.012246,0,0,0,0.0098843,0.0018465,0.0035192,-4.819,0.0050833,0.0073457,1.6853e-08,0.2,0.52,0
0.011727,-0.0010336,0.0098568,0.0018008,0.0034973,-0.00072655,0,0,0.057872,-0.015438,0,-0.013223,0,0,0,0.0099218,0.0017358,0.0034973,-5.1124,0.0050516,0.0074628,1.7404e-08,0.22,0.52,0
0.012888,-0.0010516,0.0098701,0.0017188,0.0034767,-0.00078214,0,0,0.05818,-0.015996,0,-0.014235,0,0,0,0.0099444,0.0016444,0.0034767,-5.4317,0.0050218,0.0075524,1.7812e-08,0.24,0.52,0
0.014054,-0.0010531,0.0098648,0.0016569,0.0034565,-0.00083749,0,0,0.058315,-0.016376,0,-0.015242,0,0,0,0.0099494,0.0015724,0.0034565,-5.767,0.0049927,0.0076119,1.8058e-08,0.26,0.52,0
0.015221,-0.0010341,0.009838,0.0016139,0.0034356,-0.00088962,0,0,0.058262,-0.016577,0,-0.016191,0,0,0,0.0099331,0.0015187,0.0034356,-6.1037,0.0049625,0.0076386,1.8123e-08,0.28,0.52,0
0.016385,-0.00098933,0.0097864,0.0015866,0.0034119,-0.00093423,0,0,0.058008,-0.01661,0,-0.017003,0,0,0,0.0098915,0.0014815,0.0034119,-6.4183,0.0049283,0.0076302,1.7987e-08,0.3,0.52,0
0.017541,-0.00091139,0.0097071,0.0015691,0.0033829,-0.00096511,0,0,0.05755,-0.016505,0,-0.017565,0,0,0,0.00982,0.0014563,0.0033829,-6.6717,0.0048864,0.0075862,1.7641e-08,0.32,0.52,0
0.018687,-0.00079069,0.0096005,0.0015501,0.0033452,-0.00097376,0,0,0.056924,-0.016336,0,-0.017722,0,0,0,0.0097166,0.0014339,0.0033452,-6.7997,0.0048319,0.0075117,1.711e-08,0.34,0.52,0
0.019818,-0.00061497,0.0094764,0.0015068,0.003295,-0.00095279,0,0,0.056251,-0.016272,0,-0.017341,0,0,0,0.0095887,0.0013945,0.003295,-6.7237,0.0047594,0.0074286,1.65e-08,0.36,0.52,0
0.020937,-0.00037192,0.0093403,0.0013863,0.003218,-0.00090361,0,0,0.055713,-0.016669,0,-0.016446,0,0,0,0.0094417,0.0012849,0.003218,-6.4003,0.0046482,0.0073826,1.5987e-08,0.38,0.52,0
0.022047,-5.23e-05,0.0092186,0.0011493,0.0031103,-0.0008624,0,0,0.055585,-0.017846,0,-0.015696,0,0,0,0.0093097,0.0010581,0.0031103,-6.0326,0.0044927,0.0074408,1.5858e-08,0.4,0.52,0
0.02316,0.00033683,0.0090526,0.00072103,0.0029321,-0.0008647,0,0,0.055696,-0.020121,0,-0.015738,0,0,0,0.0091414,0.00063223,0.0029321,-5.8633,0.0042352,0.007624,1.5972e-08,0.42,0.52,0
0.024275,0.00078522,0.0089687,0.00029882,0.0027803,-0.0010149,0,0,0.056315,-0.022581,0,-0.018472,0,0,0,0.009086,0.00018159,0.0027803,-6.5886,0.0040159,0.0079311,1.6656e-08,0.44,0.52,0
0.025413,0.0012464,0.0087608,-0.00014562,0.0025846,-0.001168,0,0,0.056204,-0.024845,0,-0.021257,0,0,0,0.0089114,-0.00029624,0.0025846,-7.3482,0.0037332,0.0081581,1.6618e-08,0.46,0.52,0
0.026509,0.001757,0.0095728,-0.0002307,0.0028026,-0.0016366,0,0,0.061609,-0.027603,0,-0.029786,0,0,0,0.0098388,-0.0004967,0.0028026,-9.2316,0.0040482,0.0091438,2.273e-08,0.48,0.52,0
0.027809,0.0022207,0.0077219,0.00013984,0.0023585,-0.001869,0,0,0.048807,-0.02019,0,-0.034016,0,0,0,0.0081576,-0.00029584,0.0023585,-13.122,0.0034068,0.0074879,1.2785e-08,0.5,0.52,0
0.028137,0.0024095,0.0094784,-0.00015534,0.0027969,-0.0022796,0,0,0.015439,-0.010748,0,-0.022788,0,0,0,0.010172,-0.00084895,0.0027969,-16.975,0.00404,0.0097866,5.7428e-08,0.52,0.52,0
0.028439,0.0024807,0.0093984,-0.00022576,0.0027518,-0.0012897,0,0,0.015122,-0.0092632,0,-0.014516,0,0,0,0.0097225,-0.00054981,0.0027518,-12.825,0.0039748,0.0091138,5.3633e-08,0.54,0.52,0
0.028742,0.0025387,0.0094661,-0.00015558,0.0027931,-0.00080905,0,0,0.01517,-0.0086611,0,-0.0083547,0,0,0,0.0095897,-0.00027921,0.0027931,-8.6528,0.0040345,0.0087641,5.3723e-08,0.56,0.52,0
0.029045,0.0025855,0.0094605,-0.00017818,0.0027847,-0.00021477,0,0,0.015196,-0.008521,0,-0.0026264,0,0,0,0.0094734,-0.00019116,0.0027847,-2.9055,0.0040223,0.0085848,5.3138e-08,0.58,0.52,0
0.02935,0.0026229,0.0094589,-0.00021867,0.0027721,0.00016876,0,0,0.015216,-0.0086635,0,0.0023567,0,0,0,0.0094695,-0.00022929,0.0027721,2.5681,0.0040041,0.0086127,5.3384e-08,0.6,0.52,0
0.029654,0.0026508,0.0094246,-0.00029485,0.0027389,0.00076753,0,0,0.015205,-0.0090991,0,0.0081149,0,0,0,0.0095383,-0.00040855,0.0027389,8.2218,0.0039562,0.0088252,5.3842e-08,0.62,0.52,0
0.029958,0.0026669,0.0093652,-0.00045726,0.0026724,0.0012486,0,0,0.015218,-0.010035,0,0.014325,0,0,0,0.00967,-0.00076204,0.0026724,12.262,0.0038601,0.009244,5.4483e-08,0.64,0.52,0
0.030263,0.0026692,0.0098851,-0.00029352,0.0028775,0.0016487,0,0,0.015942,-0.011937,0,0.021097,0,0,0,0.010415,-0.00082297,0.0028775,14.192,0.0041563,0.0099984,6.2462e-08,0.66,0.52,0
0.030596,0.0025448,0.011874,-0.002701,0.002752,0.0020432,0,0,0.033045,-0.016783,0,0.019191,0,0,0,0.012189,-0.0030156,0.002752,9.1153,0.003975,0.013303,6.5964e-08,0.68,0.52,0
0.031912,0.0020952,0.0091199,-0.0010413,0.0024236,0.001631,0,0,0.060936,-0.031531,0,0.029684,0,0,0,0.0093752,-0.0012967,0.0024236,8.8989,0.0035007,0.0093823,2.1048e-08,0.7,0.52,0
0.033033,0.0015954,0.008563,-0.00094231,0.0022862,0.0010344,0,0,0.057119,-0.029379,0,0.018827,0,0,0,0.0086742,-0.0010536,0.0022862,6.1397,0.0033023,0.0085613,1.6485e-08,0.72,0.52,0
0.034197,0.0011315,0.0089214,-0.00031794,0.0025811,0.00082842,0,0,0.057697,-0.026381,0,0.015077,0,0,0,0.0089951,-0.00039163,0.0025811,5.0832,0.0037282,0.0083093,1.7259e-08,0.74,0.52,0
0.035341,0.00067179,0.0090195,7.7938e-05,0.0027292,0.00064977,0,0,0.057242,-0.024127,0,0.011826,0,0,0,0.0090665,3.0968e-05,0.0027292,4.1346,0.0039422,0.0080337,1.6856e-08,0.76,0.52,0
0.036486,0.00026364,0.0091948,0.00047167,0.0028999,0.00062257,0,0,0.057283,-0.022097,0,0.011331,0,0,0,0.009239,0.00042746,0.0028999,4.0617,0.0041888,0.0078721,1.6975e-08,0.78,0.52,0
0.037632,-7.9765e-05,0.0093322,0.00066834,0.0030002,0.00064563,0,0,0.057622,-0.02122,0,0.011751,0,0,0,0.0093801,0.00062049,0.0030002,4.2385,0.0043336,0.0078453,1.7324e-08,0.8,0.52,0
0.038791,-0.0003495,0.0094891,0.00073458,0.0030671,0.0006794,0,0,0.05844,-0.021226,0,0.012365,0,0,0,0.0095415,0.00068217,0.0030671,4.4113,0.0044303,0.0079402,1.8107e-08,0.82,0.52,0
0.03997,-0.00055341,0.0096417,0.00070937,0.0031053,0.00068486,0,0,0.059481,-0.021803,0,0.012464,0,0,0,0.0096939,0.00065716,0.0031053,4.359,0.0044855,0.0080953,1.9081e-08,0.84,0.52,0
0.041171,-0.00070328,0.0097838,0.00064553,0.0031288,0.00065744,0,0,0.06056,-0.022598,0,0.011966,0,0,0,0.0098308,0.00059848,0.0031288,4.094,0.0045194,0.0082631,2.008e-08,0.86,0.52,0
0.042392,-0.00081141,0.0099049,0.00056721,0.0031416,0.00060235,0,0,0.061546,-0.023427,0,0.010963,0,0,0,0.0099436,0.00052852,0.0031416,3.6757,0.0045379,0.0084184,2.0983e-08,0.88,0.52,0
0.043632,-0.00088795,0.010003,0.0004879,0.0031473,0.00052669,0,0,0.062388,-0.024201,0,0.0095857,0,0,0,0.010032,0.00045884,0.0031473,3.1586,0.0045461,0.0085522,2.1748e-08,0.9,0.52,0
0.044888,-0.00094089,0.01008,0.00041595,0.0031488,0.00043613,0,0,0.063075,-0.024869,0,0.0079376,0,0,0,0.0101,0.00039631,0.0031488,2.5787,0.0045483,0.0086617,2.2367e-08,0.92,0.52,0
0.046155,-0.00097629,0.010146,0.00040329,0.0031648,0.00032549,0,0,0.063529,-0.02513,0,0.005924,0,0,0,0.010157,0.00039242,0.0031648,1.9114,0.0045714,0.0087155,2.2764e-08,0.94,0.52,0
0.047432,-0.00099859,0.01021,0.0003697,0.0031739,0.00022935,0,0,0.064028,-0.025518,0,0.0041742,0,0,0,0.010215,0.00036436,0.0031739,1.3345,0.0045845,0.0087896,2.3241e-08,0.96,0.52,0
0.048715,-0.0010108,0.010219,0.00033669,0.0031667,0.00010962,0,0,0.064176,-0.025753,0,0.0019952,0,0,0,0.01022,0.00033547,0.0031667,0.63548,0.0045741,0.0088169,2.3354e-08,0.98,0.52,0
0.05,-0.0010147,0.010277,0.0004364,0.0032141,-1.0672e-05,0,0,0.064274,-0.025277,0,-0.00019423,0,0,0,0.010277,0.00043639,0.0032141,-0.062135,0.0046425,0.0087876,2.3474e-08,1,0.52,0
0,0,0.0090314,0.0038706,0.0038706,-0.00058288,0,0,0.046963,0,0,-0.010608,0,0,0,0.0090964,0.0038056,0.0038706,-6.3644,0.0055909,0.0052586,7.4648e-09,0,0.54,0
0.00093927,-0.00021217,0.0089671,0.0035675,0.0037604,-0.00059498,0,0,0.047381,-0.001755,0,-0.010829,0,0,0,0.0090319,0.0035027,0.0037604,-6.2141,0.0054317,0.0054049,8.0473e-09,0.02,0.54,0
0.0019036,-0.00039937,0.0091422,0.0033742,0.0037549,-0.00055006,0,0,0.049024,-0.0034645,0,-0.010011,0,0,0,0.0091942,0.0033222,0.0037549,-5.3991,0.0054238,0.005668,9.1686e-09,0.04,0.54,0
0.0028922,-0.0005652,0.0091907,0.0031275,0.0036955,-0.0005494,0,0,0.050007,-0.0051684,0,-0.0099992,0,0,0,0.0092401,0.0030781,0.0036955,-5.136,0.0053379,0.0058777,1.0042e-08,0.06,0.54,0
0.0039039,-0.00071249,0.0092765,0.0029158,0.0036577,-0.00055013,0,0,0.051131,-0.006751,0,-0.010012,0,0,0,0.0093237,0.0028686,0.0036577,-4.9069,0.0052834,0.006099,1.0997e-08,0.08,0.54,0
0.0049374,-0.00084337,0.0093559,0.0027162,0.0036216,-0.00056007,0,0,0.052182,-0.0082395,0,-0.010193,0,0,0,0.0094028,0.0026693,0.0036216,-4.7879,0.0052312,0.0063115,1.1928e-08,0.1,0.54,0
0.0059911,-0.00095936,0.0094277,0.0025302,0.0035874,-0.00057775,0,0,0.053147,-0.0096206,0,-0.010515,0,0,0,0.0094757,0.0024821,0.0035874,-4.755,0.0051817,0.0065118,1.2815e-08,0.12,0.54,0
0.0070633,-0.0010615,0.0094904,0.0023591,0.0035549,-0.00060187,0,0,0.054013,-0.010881,0,-0.010954,0,0,0,0.0095408,0.0023087,0.0035549,-4.7905,0.0051348,0.0066966,1.3641e-08,0.14,0.54,0
0.0081517,-0.0011501,0.0095426,0.0022043,0.0035241,-0.0006313,0,0,0.054768,-0.01201,0,-0.01149,0,0,0,0.0095965,0.0021504,0.0035241,-4.8813,0.0050903,0.0068631,1.4387e-08,0.16,0.54,0
0.009254,-0.0012253,0.0095826,0.0020669,0.0034948,-0.00066491,0,0,0.055398,-0.012995,0,-0.012101,0,0,0,0.0096409,0.0020085,0.0034948,-5.017,0.0050481,0.0070085,1.5035e-08,0.18,0.54,0
0.010368,-0.0012864,0.0096086,0.0019476,0.0034669,-0.00070147,0,0,0.05589,-0.013825,0,-0.012767,0,0,0,0.0096723,0.0018839,0.0034669,-5.1887,0.0050077,0.00713,1.5567e-08,0.2,0.54,0
0.01149,-0.0013322,0.0096188,0.0018469,0.0034397,-0.00073951,0,0,0.056229,-0.014494,0,-0.013459,0,0,0,0.0096885,0.0017772,0.0034397,-5.3875,0.0049685,0.007225,1.5966e-08,0.22,0.54,0
0.012617,-0.0013607,0.0096108,0.0017649,0.0034127,-0.00077719,0,0,0.056403,-0.014996,0,-0.014145,0,0,0,0.0096871,0.0016886,0.0034127,-5.6029,0.0049295,0.007291,1.6215e-08,0.24,0.54,0
0.013746,-0.0013691,0.0095824,0.0017004,0.0033848,-0.00081205,0,0,0.056398,-0.015329,0,-0.014779,0,0,0,0.0096652,0.0016176,0.0033848,-5.8214,0.0048892,0.0073257,1.6298e-08,0.26,0.54,0
0.014873,-0.0013536,0.0095312,0.0016513,0.0033548,-0.00084087,0,0,0.056205,-0.015501,0,-0.015304,0,0,0,0.0096199,0.0015626,0.0033548,-6.0237,0.0048457,0.0073275,1.6204e-08,0.28,0.54,0
0.015994,-0.0013092,0.009455,0.0016135,0.0033205,-0.00085939,0,0,0.055823,-0.015534,0,-0.015641,0,0,0,0.009548,0.0015205,0.0033205,-6.1816,0.0047963,0.007296,1.5928e-08,0.3,0.54,0
0.017106,-0.0012294,0.0093531,0.0015794,0.0032798,-0.00086242,0,0,0.055268,-0.015473,0,-0.015696,0,0,0,0.0094477,0.0014849,0.0032798,-6.2551,0.0047374,0.0072343,1.5484e-08,0.32,0.54,0
0.018205,-0.0011062,0.009228,0.001536,0.0032292,-0.00084503,0,0,0.054589,-0.015409,0,-0.01538,0,0,0,0.0093198,0.0014442,0.0032292,-6.1959,0.0046644,0.0071521,1.4918e-08,0.34,0.54,0
0.019289,-0.00093112,0.0090837,0.0014601,0.0031631,-0.00080557,0,0,0.053877,-0.015498,0,-0.014661,0,0,0,0.0091679,0.0013759,0.0031631,-5.9665,0.004569,0.0070699,1.4314e-08,0.36,0.54,0
0.02036,-0.0006965,0.0089275,0.0013237,0.0030754,-0.00075321,0,0,0.053254,-0.01594,0,-0.013708,0,0,0,0.0090014,0.0012498,0.0030754,-5.603,0.0044422,0.0070192,1.3794e-08,0.38,0.54,0
0.021419,-0.00039959,0.0087505,0.0010914,0.0029526,-0.00070794,0,0,0.052761,-0.016937,0,-0.012885,0,0,0,0.0088154,0.0010265,0.0029526,-5.2368,0.0042648,0.0070267,1.3408e-08,0.4,0.54,0
0.02247,-4.3665e-05,0.0085562,0.00077638,0.0027998,-0.00070978,0,0,0.052384,-0.018413,0,-0.012918,0,0,0,0.0086205,0.00071216,0.0027998,-5.1704,0.0040441,0.0070986,1.3156e-08,0.42,0.54,0
0.023515,0.00035597,0.0082624,0.00035622,0.0025856,-0.00076766,0,0,0.051659,-0.020287,0,-0.013971,0,0,0,0.0083363,0.00028238,0.0025856,-5.4948,0.0037347,0.0071847,1.2658e-08,0.44,0.54,0
0.024537,0.00079091,0.0079247,-1.383e-05,0.0023732,-0.00094745,0,0,0.050518,-0.021722,0,-0.017244,0,0,0,0.0080362,-0.00012534,0.0023732,-6.7126,0.003428,0.007243,1.1975e-08,0.46,0.54,0
0.025535,0.0012253,0.0069553,-0.00073089,0.0018673,-0.0010991,0,0,0.046301,-0.023644,0,-0.020003,0,0,0,0.0071094,-0.00088496,0.0018673,-7.9798,0.0026973,0.0070344,9.095e-09,0.48,0.54,0
0.026389,0.0017156,0.0060855,-0.0012258,0.0014579,-0.0017226,0,0,0.042111,-0.024422,0,-0.031352,0,0,0,0.006471,-0.0016113,0.0014579,-12.616,0.0021058,0.0070667,7.2899e-09,0.5,0.54,0
0.02722,0.002087,0.0053714,-0.00088248,0.0013467,-0.001468,0,0,0.036625,-0.020285,0,-0.026717,0,0,0,0.0056988,-0.0012099,0.0013467,-12.574,0.0019452,0.0060501,4.9147e-09,0.52,0.54,0
0.027854,0.002229,0.0043136,-0.00071879,0.0010784,-0.0011654,0,0,0.02944,-0.016355,0,-0.02121,0,0,0,0.0045703,-0.00097557,0.0010784,-12.426,0.0015577,0.0048564,2.5363e-09,0.54,0.54,0
0.028397,0.0023134,0.0038552,-0.00064878,0.00096192,-0.00069471,0,0,0.026329,-0.014657,0,-0.012644,0,0,0,0.0039599,-0.0007535,0.00096192,-8.5722,0.0013894,0.004132,1.6328e-09,0.56,0.54,0
0.028907,0.0023676,0.0036917,-0.00062858,0.00091893,-0.00023565,0,0,0.025232,-0.014082,0,-0.0042888,0,0,0,0.0037045,-0.0006414,0.00091893,-3.1129,0.0013273,0.0038132,1.3253e-09,0.58,0.54,0
0.029407,0.0024001,0.0036789,-0.00067417,0.00090141,0.00021604,0,0,0.025275,-0.014338,0,0.0039319,0,0,0,0.0036896,-0.00068487,0.00090141,2.8343,0.001302,0.0038357,1.3177e-09,0.6,0.54,0
0.029918,0.0024102,0.003818,-0.0007881,0.00090898,0.00067542,0,0,0.026472,-0.015444,0,0.012293,0,0,0,0.003915,-0.0008851,0.00090898,8.1724,0.001313,0.004201,1.6021e-09,0.62,0.54,0
0.030466,0.0023885,0.0042607,-0.00095843,0.00099069,0.0011451,0,0,0.029757,-0.017737,0,0.020841,0,0,0,0.0045009,-0.0011986,0.00099069,11.846,0.001431,0.0049799,2.4645e-09,0.64,0.54,0
0.031108,0.0023045,0.0053196,-0.0012417,0.0012234,0.0014337,0,0,0.037276,-0.022432,0,0.026094,0,0,0,0.0056192,-0.0015413,0.0012234,11.803,0.0017671,0.0062546,4.8046e-09,0.66,0.54,0
0.031957,0.0019756,0.0060206,-0.0017269,0.0012881,0.0016481,0,0,0.043065,-0.027436,0,0.029996,0,0,0,0.0063566,-0.0020629,0.0012881,11.524,0.0018606,0.0073419,7.0021e-09,0.68,0.54,0
0.032831,0.0015018,0.0069059,-0.0012292,0.001703,0.00097659,0,0,0.047346,-0.026683,0,0.017774,0,0,0,0.0070215,-0.0013448,0.001703,6.7504,0.0024599,0.0073338,9.1083e-09,0.7,0.54,0
0.033851,0.0010707,0.0078697,-0.00056063,0.0021927,0.00078806,0,0,0.05166,-0.025056,0,0.014343,0,0,0,0.0079427,-0.00063367,0.0021927,5.2948,0.0031673,0.0075699,1.2265e-08,0.72,0.54,0
0.034897,0.00062902,0.0082162,-0.00022252,0.0023981,0.00057697,0,0,0.052945,-0.023848,0,0.010501,0,0,0,0.0082555,-0.00026178,0.0023981,3.8932,0.0034639,0.0075474,1.3193e-08,0.74,0.54,0
0.035968,0.00021297,0.0085127,0.00015989,0.0026018,0.00048812,0,0,0.05379,-0.022221,0,0.0088839,0,0,0,0.0085412,0.00013146,0.0026018,3.3331,0.0037581,0.0074867,1.3908e-08,0.76,0.54,0
0.037049,-0.00016695,0.0087137,0.00043697,0.0027452,0.00045961,0,0,0.054313,-0.021005,0,0.0083649,0,0,0,0.0087392,0.00041153,0.0027452,3.1686,0.0039653,0.0074405,1.4352e-08,0.78,0.54,0
0.038141,-0.00049394,0.0088999,0.00062387,0.0028571,0.00048102,0,0,0.054989,-0.020323,0,0.0087546,0,0,0,0.0089278,0.00059601,0.0028571,3.3152,0.004127,0.0074627,1.4925e-08,0.8,0.54,0
0.039248,-0.00076317,0.0090707,0.00070531,0.0029328,0.00051132,0,0,0.055855,-0.02027,0,0.009306,0,0,0,0.0091018,0.00067417,0.0029328,3.4848,0.0042363,0.0075559,1.5664e-08,0.82,0.54,0
0.040375,-0.00097635,0.0092351,0.00071446,0.0029848,0.00052818,0,0,0.056877,-0.020661,0,0.0096129,0,0,0,0.0092677,0.00068184,0.0029848,3.5337,0.0043115,0.0076972,1.6547e-08,0.84,0.54,0
0.041523,-0.0011406,0.009386,0.00067931,0.0030196,0.00052041,0,0,0.057935,-0.021297,0,0.0094716,0,0,0,0.009417,0.00064832,0.0030196,3.4085,0.0043617,0.0078562,1.7468e-08,0.86,0.54,0
0.042693,-0.0012644,0.0095189,0.0006235,0.0030427,0.0004879,0,0,0.058933,-0.022015,0,0.0088798,0,0,0,0.0095456,0.00059682,0.0030427,3.1301,0.004395,0.0080109,1.8343e-08,0.88,0.54,0
0.043881,-0.0013559,0.0096302,0.00056144,0.0030575,0.00043447,0,0,0.059812,-0.022714,0,0.0079074,0,0,0,0.009651,0.00054067,0.0030575,2.7366,0.0044164,0.0081488,1.9115e-08,0.9,0.54,0
0.045085,-0.0014219,0.0097195,0.00050227,0.0030665,0.0003648,0,0,0.060542,-0.023335,0,0.0066394,0,0,0,0.0097339,0.00048785,0.0030665,2.263,0.0044294,0.0082642,1.9758e-08,0.92,0.54,0
0.046302,-0.0014678,0.0097875,0.0004518,0.0030718,0.00028313,0,0,0.061113,-0.023842,0,0.005153,0,0,0,0.0097961,0.00044322,0.0030718,1.7355,0.004437,0.0083547,2.026e-08,0.94,0.54,0
0.047529,-0.0014979,0.0098351,0.00041367,0.0030746,0.0001931,0,0,0.06152,-0.024215,0,0.0035145,0,0,0,0.009839,0.00040972,0.0030746,1.1737,0.0044411,0.0084193,2.0618e-08,0.96,0.54,0
0.048763,-0.0015148,0.0098632,0.00039005,0.003076,9.7816e-05,0,0,0.061764,-0.024442,0,0.0017802,0,0,0,0.0098642,0.00038904,0.003076,0.59153,0.0044431,0.0084581,2.0832e-08,0.98,0.54,0
0.05,-0.0015202,0.0098725,0.00038206,0.0030764,-1.4986e-05,0,0,0.061845,-0.024518,0,-0.00027275,0,0,0,0.0098725,0.00038203,0.0030764,-0.090475,0.0044437,0.008471,2.0904e-08,1,0.54,0
0,0,0.0089085,0.0038179,0.0038179,-0.00067686,0,0,0.046324,-4.3368e-19,0,-0.012319,0,0,0,0.008997,0.0037295,0.0038179,-7.4459,0.0055148,0.0052238,7.3143e-09,0,0.56,0
0.00092648,-0.00024638,0.0088846,0.0035487,0.00373,-0.00067652,0,0,0.046907,-0.0016496,0,-0.012313,0,0,0,0.008969,0.0034643,0.00373,-7.1144,0.0053877,0.0053768,7.9178e-09,0.02,0.56,0
0.0018763,-0.00046701,0.0089719,0.0033316,0.003691,-0.0006498,0,0,0.048056,-0.003271,0,-0.011826,0,0,0,0.0090458,0.0032577,0.003691,-6.4876,0.0053315,0.005584,8.7614e-09,0.04,0.56,0
0.0028487,-0.00066514,0.0090556,0.0031207,0.0036529,-0.00063497,0,0,0.049164,-0.0048429,0,-0.011557,0,0,0,0.0091228,0.0030535,0.0036529,-6.039,0.0052764,0.0057929,9.6244e-09,0.06,0.56,0
0.0038429,-0.00084323,0.0091339,0.0029182,0.0036156,-0.00062979,0,0,0.050216,-0.0063465,0,-0.011462,0,0,0,0.0091971,0.0028551,0.0036156,-5.7278,0.0052226,0.005998,1.0484e-08,0.08,0.56,0
0.0048574,-0.0010031,0.0092053,0.0027262,0.0035794,-0.00063243,0,0,0.051195,-0.0077647,0,-0.01151,0,0,0,0.0092665,0.002665,0.0035794,-5.5232,0.0051703,0.006195,1.1319e-08,0.1,0.56,0
0.0058907,-0.001146,0.0092682,0.0025464,0.0035444,-0.00064135,0,0,0.052087,-0.009082,0,-0.011673,0,0,0,0.0093289,0.0024857,0.0035444,-5.4018,0.0051196,0.00638,1.211e-08,0.12,0.56,0
0.0069409,-0.0012727,0.0093211,0.0023803,0.0035104,-0.00065522,0,0,0.052877,-0.010284,0,-0.011925,0,0,0,0.0093824,0.002319,0.0035104,-5.3459,0.0050706,0.0065495,1.2834e-08,0.14,0.56,0
0.0080057,-0.0013833,0.0093623,0.0022295,0.0034775,-0.00067282,0,0,0.053551,-0.011357,0,-0.012245,0,0,0,0.0094252,0.0021665,0.0034775,-5.3418,0.0050231,0.0067,1.3475e-08,0.16,0.56,0
0.0090829,-0.0014776,0.00939,0.0020947,0.0034454,-0.0006929,0,0,0.054096,-0.012291,0,-0.012611,0,0,0,0.0094553,0.0020295,0.0034454,-5.3778,0.0049767,0.0068288,1.4014e-08,0.18,0.56,0
0.01017,-0.0015547,0.0094026,0.0019769,0.0034139,-0.00071411,0,0,0.054498,-0.013076,0,-0.012997,0,0,0,0.0094707,0.0019088,0.0034139,-5.4435,0.0049311,0.006933,1.4433e-08,0.2,0.56,0
0.011263,-0.0016133,0.0093983,0.001876,0.0033823,-0.00073486,0,0,0.054745,-0.013707,0,-0.013374,0,0,0,0.0094694,0.0018049,0.0033823,-5.5277,0.0048855,0.0070101,1.4718e-08,0.22,0.56,0
0.012359,-0.0016515,0.0093749,0.0017917,0.00335,-0.00075314,0,0,0.054827,-0.014181,0,-0.013707,0,0,0,0.009449,0.0017176,0.00335,-5.6173,0.0048389,0.0070583,1.4855e-08,0.24,0.56,0
0.013456,-0.0016663,0.0093309,0.0017223,0.0033159,-0.00076646,0,0,0.054736,-0.014503,0,-0.01395,0,0,0,0.0094073,0.0016458,0.0033159,-5.6955,0.0047897,0.0070759,1.4834e-08,0.26,0.56,0
0.014549,-0.0016542,0.0092645,0.0016649,0.0032788,-0.00077173,0,0,0.05447,-0.014687,0,-0.014046,0,0,0,0.0093421,0.0015873,0.0032788,-5.7402,0.0047361,0.0070626,1.4654e-08,0.28,0.56,0
0.015635,-0.0016107,0.009175,0.0016145,0.0032369,-0.00076534,0,0,0.054037,-0.014763,0,-0.013929,0,0,0,0.0092517,0.0015378,0.0032369,-5.7226,0.0046755,0.0070203,1.4322e-08,0.3,0.56,0
0.01671,-0.0015303,0.0090627,0.0015631,0.0031877,-0.00074363,0,0,0.053462,-0.014785,0,-0.013534,0,0,0,0.0091357,0.00149,0.0031877,-5.6084,0.0046045,0.0069541,1.3863e-08,0.32,0.56,0
0.017773,-0.001407,0.0089295,0.0014979,0.0031282,-0.00070421,0,0,0.052792,-0.014836,0,-0.012817,0,0,0,0.0089956,0.0014317,0.0031282,-5.3656,0.0045185,0.0068745,1.3322e-08,0.34,0.56,0
0.018822,-0.0012349,0.0087783,0.0014022,0.0030541,-0.00064846,0,0,0.05209,-0.015033,0,-0.011802,0,0,0,0.0088349,0.0013456,0.0030541,-4.9861,0.0044115,0.006798,1.2764e-08,0.36,0.56,0
0.019857,-0.0010095,0.0086091,0.0012557,0.0029594,-0.00058361,0,0,0.051412,-0.015504,0,-0.010622,0,0,0,0.0086551,0.0012097,0.0029594,-4.5097,0.0042747,0.006743,1.2244e-08,0.38,0.56,0
0.020878,-0.00072977,0.0084193,0.0010464,0.0028397,-0.00052494,0,0,0.050775,-0.016319,0,-0.0095539,0,0,0,0.0084565,0.0010092,0.0028397,-4.0521,0.0041018,0.0067217,1.1785e-08,0.4,0.56,0
0.021888,-0.00039968,0.0081882,0.00076648,0.0026864,-0.00048655,0,0,0.050066,-0.017471,0,-0.0088553,0,0,0,0.0082199,0.00073472,0.0026864,-3.7349,0.0038803,0.0067252,1.1301e-08,0.42,0.56,0
0.022881,-2.627e-05,0.0079067,0.00044668,0.002506,-0.00048535,0,0,0.049146,-0.01874,0,-0.0088333,0,0,0,0.0079381,0.00041524,0.002506,-3.7068,0.0036198,0.0067258,1.0687e-08,0.44,0.56,0
0.023854,0.00037749,0.0074909,5.495e-05,0.0022637,-0.00049394,0,0,0.047567,-0.0201,0,-0.0089897,0,0,0,0.0075235,2.2283e-05,0.0022637,-3.7838,0.0032698,0.0066692,9.6366e-09,0.46,0.56,0
0.024784,0.00081128,0.0071107,-0.00025328,0.0020572,-0.00053232,0,0,0.045987,-0.021026,0,-0.0096883,0,0,0,0.007149,-0.00029156,0.0020572,-4.1132,0.0029716,0.0065881,8.6419e-09,0.48,0.56,0
0.025693,0.0012438,0.0065645,-0.00090011,0.0016993,-0.00053706,0,0,0.044273,-0.023655,0,-0.0097746,0,0,0,0.006603,-0.00093855,0.0016993,-4.0942,0.0024546,0.0066287,7.3711e-09,0.5,0.56,0
0.026555,0.001598,0.0059979,-0.0013096,0.0014065,-0.00069981,0,0,0.041781,-0.024716,0,-0.012736,0,0,0,0.0060643,-0.001376,0.0014065,-5.4214,0.0020316,0.0065113,5.956e-09,0.52,0.56,0
0.027364,0.0018265,0.0055835,-0.0010983,0.0013455,-0.00066388,0,0,0.038565,-0.022239,0,-0.012083,0,0,0,0.0056488,-0.0011636,0.0013455,-5.6196,0.0019436,0.0059675,4.7737e-09,0.54,0.56,0
0.028097,0.0019524,0.0051509,-0.0010104,0.0012422,-0.00045559,0,0,0.03557,-0.020498,0,-0.0082917,0,0,0,0.0051844,-0.0010439,0.0012422,-4.2061,0.0017942,0.0054571,3.6831e-09,0.56,0.56,0
0.028787,0.0020222,0.0049413,-0.00099153,0.0011849,-0.00015709,0,0,0.034183,-0.019806,0,-0.0028591,0,0,0,0.0049454,-0.00099569,0.0011849,-1.5157,0.0017116,0.0052055,3.1969e-09,0.58,0.56,0
0.029465,0.0020494,0.0049338,-0.0010364,0.0011692,0.00015877,0,0,0.034258,-0.020071,0,0.0028895,0,0,0,0.004938,-0.0010407,0.0011692,1.5222,0.0016889,0.0052361,3.1955e-09,0.6,0.56,0
0.030158,0.0020331,0.0051311,-0.0011469,0.0011953,0.00045441,0,0,0.035816,-0.021313,0,0.0082702,0,0,0,0.0051638,-0.0011796,0.0011953,4.1185,0.0017265,0.005551,3.6793e-09,0.62,0.56,0
0.030897,0.0019574,0.0055579,-0.0013322,0.0012677,0.00065342,0,0,0.039041,-0.023659,0,0.011892,0,0,0,0.0056194,-0.0013936,0.0012677,5.3698,0.0018311,0.0061319,4.7724e-09,0.64,0.56,0
0.031719,0.0017719,0.0059676,-0.0016517,0.0012948,0.00066584,0,0,0.042523,-0.026813,0,0.012118,0,0,0,0.0060253,-0.0017094,0.0012948,4.957,0.0018702,0.0067539,5.9346e-09,0.66,0.56,0
0.032598,0.0014473,0.0065275,-0.0013331,0.0015583,0.00046027,0,0,0.04522,-0.026312,0,0.0083768,0,0,0,0.0065543,-0.00136,0.0015583,3.3396,0.0022509,0.0069323,7.462e-09,0.68,0.56,0
0.033528,0.0010278,0.0070736,-0.00072351,0.001905,0.00041046,0,0,0.047034,-0.02392,0,0.0074703,0,0,0,0.0070951,-0.00074506,0.001905,3.0051,0.0027517,0.0069076,8.9162e-09,0.7,0.56,0
0.03448,0.00059314,0.0074462,-0.00045242,0.0020981,0.0003361,0,0,0.048667,-0.02321,0,0.006117,0,0,0,0.0074604,-0.00046669,0.0020981,2.4322,0.0030306,0.0070062,1.0017e-08,0.72,0.56,0
0.035475,0.00017755,0.0078562,-0.0001008,0.0023266,0.00029396,0,0,0.050319,-0.02209,0,0.0053501,0,0,0,0.007867,-0.00011164,0.0023266,2.1129,0.0033607,0.0070817,1.1219e-08,0.74,0.56,0
0.036492,-0.00021706,0.0081362,0.00018054,0.002495,0.00026388,0,0,0.051335,-0.021062,0,0.0048026,0,0,0,0.008145,0.00017179,0.002495,1.8976,0.0036039,0.0071025,1.1983e-08,0.76,0.56,0
0.037528,-0.00057656,0.0083676,0.00041841,0.0026358,0.00027256,0,0,0.052159,-0.020178,0,0.0049605,0,0,0,0.008377,0.00040908,0.0026358,1.9614,0.0038073,0.0071206,1.2613e-08,0.78,0.56,0
0.038579,-0.00089268,0.0085611,0.00058035,0.0027424,0.00030322,0,0,0.05295,-0.019675,0,0.0055185,0,0,0,0.0085726,0.00056884,0.0027424,2.1727,0.0039613,0.0071686,1.3221e-08,0.8,0.56,0
0.039646,-0.0011603,0.0087382,0.00067133,0.0028229,0.00034063,0,0,0.053829,-0.019579,0,0.0061995,0,0,0,0.0087525,0.00065697,0.0028229,2.4137,0.0040774,0.0072591,1.391e-08,0.82,0.56,0
0.040732,-0.0013798,0.0089018,0.00070199,0.0028811,0.00036819,0,0,0.054788,-0.01983,0,0.006701,0,0,0,0.0089183,0.00068549,0.0028811,2.5658,0.0041617,0.007384,1.4681e-08,0.84,0.56,0
0.041837,-0.0015551,0.0090522,0.0006919,0.0029232,0.00037718,0,0,0.055773,-0.020305,0,0.0068647,0,0,0,0.0090691,0.00067492,0.0029232,2.578,0.0042224,0.0075263,1.5489e-08,0.86,0.56,0
0.042963,-0.001692,0.0091858,0.00065812,0.0029532,0.00036501,0,0,0.056717,-0.020885,0,0.0066431,0,0,0,0.0092014,0.00064253,0.0029532,2.4465,0.0042657,0.0076692,1.6274e-08,0.88,0.56,0
0.044106,-0.0017965,0.0093,0.00061396,0.0029742,0.00033323,0,0,0.057565,-0.021478,0,0.0060648,0,0,0,0.0093128,0.0006012,0.0029742,2.1938,0.0042961,0.0078007,1.6989e-08,0.9,0.56,0
0.045265,-0.0018743,0.0093934,0.00056861,0.0029886,0.00028511,0,0,0.058284,-0.022022,0,0.005189,0,0,0,0.0094026,0.0005594,0.0029886,1.8485,0.0043169,0.0079134,1.7599e-08,0.92,0.56,0
0.046437,-0.00193,0.0094656,0.00052826,0.0029982,0.00022433,0,0,0.058854,-0.022476,0,0.0040829,0,0,0,0.0094712,0.00052263,0.0029982,1.437,0.0043307,0.0080033,1.8086e-08,0.94,0.56,0
0.04762,-0.0019672,0.0095167,0.00049698,0.0030041,0.00015443,0,0,0.059265,-0.022815,0,0.0028106,0,0,0,0.0095194,0.00049434,0.0030041,0.98059,0.0043393,0.0080684,1.8438e-08,0.96,0.56,0
0.048808,-0.0019885,0.0095472,0.00047731,0.0030074,7.8649e-05,0,0,0.059513,-0.023023,0,0.0014314,0,0,0,0.0095479,0.00047662,0.0030074,0.49679,0.004344,0.0081077,1.8651e-08,0.98,0.56,0
0.05,-0.0019954,0.0095573,0.0004706,0.0030084,-1.9059e-05,0,0,0.059595,-0.023094,0,-0.00034688,0,0,0,0.0095574,0.00047056,0.0030084,-0.12018,0.0043454,0.008121,1.8723e-08,1,0.56,0
0,0,0.0087863,0.0037655,0.0037655,-0.00076416,0,0,0.045689,1.0842e-19,0,-0.013908,0,0,0,0.0089,0.0036518,0.0037655,-8.4652,0.0054391,0.0051923,7.1778e-09,0,0.58,0
0.00091377,-0.00027815,0.0087642,0.0035149,0.0036837,-0.00076282,0,0,0.046232,-0.0015363,0,-0.013883,0,0,0,0.0088728,0.0034063,0.0036837,-8.1029,0.005321,0.0053332,7.7199e-09,0.02,0.58,0
0.0018493,-0.00053021,0.0088453,0.0033099,0.0036465,-0.00073335,0,0,0.047309,-0.0030638,0,-0.013347,0,0,0,0.0089408,0.0032143,0.0036465,-7.4202,0.0052672,0.005523,8.4744e-09,0.04,0.58,0
0.0028061,-0.00075892,0.0089228,0.0031086,0.0036094,-0.00071395,0,0,0.048351,-0.0045573,0,-0.012994,0,0,0,0.0090091,0.0030222,0.0036094,-6.8991,0.0052136,0.005716,9.2513e-09,0.06,0.58,0
0.0037834,-0.00096635,0.0089947,0.0029138,0.0035726,-0.00070249,0,0,0.049342,-0.0059946,0,-0.012785,0,0,0,0.0090748,0.0028337,0.0035726,-6.5049,0.0051604,0.0059064,1.0027e-08,0.08,0.58,0
0.0047798,-0.001154,0.0090594,0.0027279,0.0035362,-0.0006972,0,0,0.050262,-0.0073558,0,-0.012689,0,0,0,0.0091353,0.002652,0.0035362,-6.21,0.0051078,0.0060895,1.0778e-08,0.1,0.58,0
0.0057938,-0.0013226,0.0091151,0.0025527,0.0035004,-0.00069657,0,0,0.051094,-0.0086231,0,-0.012678,0,0,0,0.0091882,0.0024796,0.0035004,-5.9928,0.0050561,0.0062609,1.1484e-08,0.12,0.58,0
0.0068236,-0.0014728,0.00916,0.0023902,0.0034651,-0.00069926,0,0,0.051824,-0.0097811,0,-0.012726,0,0,0,0.0092315,0.0023188,0.0034651,-5.8361,0.0050051,0.0064168,1.2123e-08,0.14,0.58,0
0.0078668,-0.0016044,0.0091925,0.0022416,0.0034303,-0.00070403,0,0,0.052437,-0.010816,0,-0.012813,0,0,0,0.0092631,0.002171,0.0034303,-5.7258,0.0049548,0.0065538,1.2678e-08,0.16,0.58,0
0.008921,-0.001717,0.009211,0.002108,0.0033957,-0.00070961,0,0,0.052919,-0.011718,0,-0.012915,0,0,0,0.0092812,0.0020378,0.0033957,-5.6497,0.0049049,0.0066689,1.313e-08,0.18,0.58,0
0.0099835,-0.0018095,0.0092137,0.0019898,0.0033611,-0.00071461,0,0,0.053259,-0.012478,0,-0.013006,0,0,0,0.0092837,0.0019198,0.0033611,-5.5957,0.0048549,0.0067595,1.3464e-08,0.2,0.58,0
0.011051,-0.0018805,0.0091992,0.0018869,0.0033258,-0.00071743,0,0,0.053448,-0.013094,0,-0.013057,0,0,0,0.0092689,0.0018172,0.0033258,-5.551,0.004804,0.0068236,1.3668e-08,0.22,0.58,0
0.012121,-0.0019279,0.009166,0.0017985,0.0032893,-0.00071613,0,0,0.053478,-0.013567,0,-0.013033,0,0,0,0.009235,0.0017295,0.0032893,-5.5005,0.0047513,0.0068599,1.3734e-08,0.24,0.58,0
0.013191,-0.0019492,0.0091129,0.0017224,0.0032506,-0.00070838,0,0,0.053347,-0.013907,0,-0.012892,0,0,0,0.0091802,0.0016551,0.0032506,-5.426,0.0046953,0.0068678,1.3658e-08,0.26,0.58,0
0.014255,-0.0019411,0.0090392,0.0016552,0.0032083,-0.00069154,0,0,0.053061,-0.014133,0,-0.012586,0,0,0,0.0091034,0.001591,0.0032083,-5.3045,0.0046343,0.0068485,1.3447e-08,0.28,0.58,0
0.015313,-0.0018997,0.0089448,0.0015917,0.003161,-0.00066282,0,0,0.052633,-0.01428,0,-0.012063,0,0,0,0.0090041,0.0015325,0.003161,-5.1099,0.0045658,0.0068051,1.3114e-08,0.3,0.58,0
0.016361,-0.0018208,0.0088307,0.001524,0.0031064,-0.00061989,0,0,0.052091,-0.0144,0,-0.011282,0,0,0,0.0088829,0.0014718,0.0031064,-4.815,0.004487,0.0067441,1.2688e-08,0.32,0.58,0
0.017397,-0.0016996,0.0086986,0.0014415,0.003042,-0.00056185,0,0,0.051475,-0.014565,0,-0.010226,0,0,0,0.0087419,0.0013982,0.003042,-4.4009,0.004394,0.0066753,1.221e-08,0.34,0.58,0
0.01842,-0.0015324,0.0085502,0.0013312,0.0029644,-0.0004905,0,0,0.050831,-0.014862,0,-0.008927,0,0,0,0.0085834,0.001298,0.0029644,-3.8693,0.0042819,0.0066116,1.1725e-08,0.36,0.58,0
0.01943,-0.0013167,0.0083859,0.001181,0.0028701,-0.00041138,0,0,0.050194,-0.015371,0,-0.007487,0,0,0,0.0084093,0.0011576,0.0028701,-3.2572,0.0041457,0.0065652,1.1268e-08,0.38,0.58,0
0.020427,-0.0010524,0.0082019,0.00098116,0.0027549,-0.00033235,0,0,0.049568,-0.016141,0,-0.0060488,0,0,0,0.0082172,0.0009659,0.0027549,-2.6297,0.0039793,0.0065429,1.0842e-08,0.4,0.58,0
0.021413,-0.00074251,0.0079939,0.00073283,0.002618,-0.0002621,0,0,0.048921,-0.017155,0,-0.0047703,0,0,0,0.0080034,0.00072339,0.002618,-2.0646,0.0037816,0.0065418,1.0416e-08,0.42,0.58,0
0.022384,-0.00039362,0.0077489,0.00043474,0.0024551,-0.0002005,0,0,0.048173,-0.018385,0,-0.0036491,0,0,0,0.0077544,0.00042925,0.0024551,-1.5691,0.0035462,0.0065515,9.9235e-09,0.44,0.58,0
0.023339,-1.309e-05,0.0074942,0.00011098,0.0022815,-0.00014931,0,0,0.047435,-0.019752,0,-0.0027175,0,0,0,0.0074972,0.00010796,0.0022815,-1.1581,0.0032956,0.0065775,9.4164e-09,0.46,0.58,0
0.024282,0.00038425,0.0072133,-0.00030644,0.0020721,-0.00010482,0,0,0.046786,-0.021645,0,-0.0019076,0,0,0,0.0072148,-0.0003079,0.0020721,-0.79841,0.002993,0.0066597,8.8984e-09,0.48,0.58,0
0.025211,0.00076946,0.0069066,-0.00079053,0.0018348,-0.00013265,0,0,0.046153,-0.023891,0,-0.0024142,0,0,0,0.0069089,-0.00079282,0.0018348,-0.987,0.0026503,0.0067811,8.2906e-09,0.5,0.58,0
0.026128,0.0010984,0.006594,-0.001144,0.001635,-0.00020311,0,0,0.045127,-0.025289,0,-0.0036965,0,0,0,0.0065993,-0.0011494,0.001635,-1.5025,0.0023616,0.0067985,7.4962e-09,0.52,0.58,0
0.027016,0.0013395,0.0062992,-0.0012569,0.0015127,-0.00025665,0,0,0.043557,-0.025204,0,-0.0046711,0,0,0,0.0063079,-0.0012656,0.0015127,-1.9431,0.002185,0.006636,6.6317e-09,0.54,0.58,0
0.02787,0.0014935,0.0060617,-0.0012357,0.0014478,-0.00020354,0,0,0.041986,-0.02442,0,-0.0037044,0,0,0,0.0060673,-0.0012414,0.0014478,-1.5964,0.0020913,0.0064027,5.9118e-09,0.56,0.58,0
0.028695,0.0015754,0.0059109,-0.0012399,0.0014013,-7.1682e-05,0,0,0.041037,-0.024035,0,-0.0013046,0,0,0,0.0059116,-0.0012406,0.0014013,-0.57427,0.0020241,0.006264,5.4805e-09,0.58,0.58,0
0.029511,0.0015972,0.0059069,-0.0012831,0.0013871,8.6279e-05,0,0,0.04113,-0.024299,0,0.0015703,0,0,0,0.0059079,-0.0012841,0.0013871,0.68742,0.0020037,0.0062968,5.487e-09,0.6,0.58,0
0.03034,0.0015577,0.0060509,-0.0013663,0.0014054,0.00021195,0,0,0.042274,-0.025222,0,0.0038575,0,0,0,0.0060569,-0.0013724,0.0014054,1.6355,0.00203,0.0065018,5.9336e-09,0.62,0.58,0
0.031203,0.0014421,0.0062832,-0.0014777,0.0014417,0.00025018,0,0,0.044058,-0.026566,0,0.0045533,0,0,0,0.0062912,-0.0014857,0.0014417,1.8444,0.0020824,0.0068033,6.6718e-09,0.64,0.58,0
0.032103,0.001232,0.0065727,-0.0014528,0.0015359,0.00016969,0,0,0.045834,-0.027198,0,0.0030883,0,0,0,0.0065762,-0.0014564,0.0015359,1.2107,0.0022186,0.0070314,7.5799e-09,0.66,0.58,0
0.033036,0.00092311,0.0068788,-0.0011724,0.0017119,6.1623e-05,0,0,0.047019,-0.026247,0,0.0011215,0,0,0,0.0068793,-0.0011728,0.0017119,0.4385,0.0024728,0.0070661,8.4748e-09,0.68,0.58,0
0.033984,0.000545,0.007178,-0.00073927,0.0019316,-7.168e-06,0,0,0.047742,-0.024305,0,-0.00013046,0,0,0,0.007178,-0.00073928,0.0019316,-0.051874,0.0027901,0.0069764,9.2182e-09,0.7,0.58,0
0.034945,0.00014232,0.0074491,-0.00036269,0.0021259,-9.4235e-07,0,0,0.048441,-0.022646,0,-1.7151e-05,0,0,0,0.0074491,-0.00036269,0.0021259,-0.0069116,0.0030708,0.0069121,9.8486e-09,0.72,0.58,0
0.035921,-0.00025456,0.007694,-7.8698e-05,0.0022846,1.516e-05,0,0,0.049226,-0.021506,0,0.00027591,0,0,0,0.0076941,-7.8728e-05,0.0022846,0.11175,0.0033,0.0069016,1.0452e-08,0.74,0.58,0
0.036915,-0.0006295,0.0079314,0.00017846,0.0024329,4.325e-05,0,0,0.050035,-0.020516,0,0.00078716,0,0,0,0.0079316,0.00017822,0.0024329,0.31962,0.0035143,0.0069077,1.1048e-08,0.76,0.58,0
0.037923,-0.00097409,0.0081345,0.00038336,0.0025554,8.1177e-05,0,0,0.05077,-0.019765,0,0.0014774,0,0,0,0.0081353,0.00038251,0.0025554,0.59996,0.0036911,0.0069269,1.1579e-08,0.78,0.58,0
0.038945,-0.001281,0.0083166,0.00053468,0.0026554,0.00012851,0,0,0.051517,-0.019298,0,0.0023389,0,0,0,0.0083187,0.00053256,0.0026554,0.94585,0.0038356,0.0069715,1.2117e-08,0.8,0.58,0
0.039983,-0.0015463,0.0084825,0.00062963,0.0027336,0.0001759,0,0,0.052315,-0.019146,0,0.0032015,0,0,0,0.0084864,0.0006257,0.0027336,1.2826,0.0039486,0.0070473,1.2702e-08,0.82,0.58,0
0.041038,-0.0017696,0.0086364,0.00067634,0.0027938,0.00021452,0,0,0.053167,-0.019269,0,0.0039043,0,0,0,0.0086421,0.00067057,0.0027938,1.5426,0.0040355,0.0071504,1.3346e-08,0.84,0.58,0
0.04211,-0.0019528,0.0087777,0.00068642,0.0028392,0.00023785,0,0,0.05404,-0.019591,0,0.0043288,0,0,0,0.0087847,0.00067943,0.0028392,1.6823,0.0041011,0.0072701,1.4022e-08,0.86,0.58,0
0.0432,-0.0020998,0.0089046,0.00067259,0.0028731,0.00024325,0,0,0.054886,-0.020025,0,0.0044272,0,0,0,0.0089117,0.0006654,0.0028731,1.6911,0.0041501,0.0073939,1.4691e-08,0.88,0.58,0
0.044305,-0.002215,0.0090145,0.00064576,0.0028981,0.00023106,0,0,0.055659,-0.020496,0,0.0042053,0,0,0,0.0090209,0.00063938,0.0028981,1.5803,0.0041861,0.0075113,1.5314e-08,0.9,0.58,0
0.045426,-0.0023028,0.0091057,0.0006144,0.002916,0.00020343,0,0,0.056326,-0.020945,0,0.0037025,0,0,0,0.0091105,0.00060953,0.002916,1.3717,0.004212,0.0076144,1.5858e-08,0.92,0.58,0
0.046559,-0.0023669,0.0091771,0.00058464,0.0029285,0.00016333,0,0,0.056862,-0.021329,0,0.0029727,0,0,0,0.0091801,0.00058154,0.0029285,1.0886,0.0042301,0.0076983,1.6299e-08,0.94,0.58,0
0.0477,-0.0024105,0.0092281,0.00056071,0.0029367,0.00011396,0,0,0.057252,-0.021621,0,0.0020741,0,0,0,0.0092296,0.00055921,0.0029367,0.75316,0.0042418,0.0077598,1.6622e-08,0.96,0.58,0
0.048849,-0.0024357,0.0092588,0.00054535,0.0029412,5.8488e-05,0,0,0.05749,-0.021803,0,0.0010645,0,0,0,0.0092592,0.00054495,0.0029412,0.38457,0.0042485,0.0077973,1.682e-08,0.98,0.58,0
0.05,-0.002444,0.009269,0.00054006,0.0029427,-2.2714e-05,0,0,0.057569,-0.021864,0,-0.0004134,0,0,0,0.0092691,0.00054,0.0029427,-0.14909,0.0042506,0.00781,1.6887e-08,1,0.58,0
0,0,0.0086669,0.0037144,0.0037144,-0.00084568,0,0,0.045068,-4.8789e-19,0,-0.015391,0,0,0,0.0088073,0.0035739,0.0037144,-9.4279,0.0053652,0.0051646,7.0573e-09,0,0.6,0
0.00090135,-0.00030783,0.0086465,0.0034795,0.0036378,-0.00084331,0,0,0.045579,-0.0014402,0,-0.015348,0,0,0,0.0087806,0.0033454,0.0036378,-9.039,0.0052546,0.0052951,7.5467e-09,0.02,0.6,0
0.0018231,-0.00058956,0.0087222,0.0032845,0.003602,-0.00081136,0,0,0.046594,-0.0028895,0,-0.014767,0,0,0,0.0088407,0.003166,0.003602,-8.308,0.0052029,0.0054697,8.2249e-09,0.04,0.6,0
0.0027651,-0.00084743,0.0087946,0.003091,0.0035657,-0.00078739,0,0,0.047583,-0.0043194,0,-0.01433,0,0,0,0.0089013,0.0029843,0.0035657,-7.7175,0.0051504,0.0056488,8.9276e-09,0.06,0.6,0
0.0037265,-0.001083,0.0088615,0.0029022,0.0035291,-0.00076943,0,0,0.048525,-0.0057048,0,-0.014004,0,0,0,0.0089592,0.0028045,0.0035291,-7.2396,0.0050976,0.0058263,9.6303e-09,0.08,0.6,0
0.0047061,-0.0012973,0.0089209,0.0027206,0.0034924,-0.00075582,0,0,0.049399,-0.0070234,0,-0.013756,0,0,0,0.0090117,0.0026298,0.0034924,-6.8508,0.0050447,0.0059972,1.031e-08,0.1,0.6,0
0.0057024,-0.001491,0.0089709,0.0025486,0.0034558,-0.00074512,0,0,0.050187,-0.0082559,0,-0.013561,0,0,0,0.0090562,0.0024633,0.0034558,-6.5319,0.0049918,0.0061569,1.0945e-08,0.12,0.6,0
0.0067136,-0.0016639,0.0090098,0.0023879,0.0034193,-0.00073606,0,0,0.050874,-0.0093857,0,-0.013396,0,0,0,0.0090907,0.0023071,0.0034193,-6.2668,0.004939,0.0063015,1.1514e-08,0.14,0.6,0
0.0077374,-0.0018159,0.009036,0.0022401,0.0033828,-0.00072745,0,0,0.051444,-0.010399,0,-0.01324,0,0,0,0.009113,0.0021631,0.0033828,-6.0419,0.0048863,0.0064275,1.1999e-08,0.16,0.6,0
0.0087713,-0.0019463,0.009048,0.002106,0.0033462,-0.0007181,0,0,0.051886,-0.011286,0,-0.013069,0,0,0,0.0091215,0.0020324,0.0033462,-5.8444,0.0048334,0.006532,1.2385e-08,0.18,0.6,0
0.0098128,-0.0020538,0.0090442,0.0019859,0.003309,-0.00070671,0,0,0.05219,-0.012041,0,-0.012862,0,0,0,0.0091143,0.0019158,0.003309,-5.6618,0.0047797,0.0066129,1.2659e-08,0.2,0.6,0
0.010859,-0.0021371,0.0090236,0.0018795,0.0032709,-0.00069179,0,0,0.05235,-0.012662,0,-0.012591,0,0,0,0.00909,0.0018131,0.0032709,-5.4803,0.0047247,0.0066686,1.2811e-08,0.22,0.6,0
0.011907,-0.0021941,0.0089852,0.0017856,0.0032312,-0.00067162,0,0,0.052361,-0.013156,0,-0.012224,0,0,0,0.0090473,0.0017235,0.0032312,-5.2841,0.0046673,0.0066985,1.2839e-08,0.24,0.6,0
0.012953,-0.0022225,0.0089313,0.0016961,0.0031882,-0.00067262,0,0,0.052262,-0.013578,0,-0.012242,0,0,0,0.0089933,0.0016341,0.0031882,-5.2664,0.0046052,0.0067183,1.2809e-08,0.26,0.6,0
0.013996,-0.0022195,0.0088398,0.0016136,0.003136,-0.00060814,0,0,0.051904,-0.013854,0,-0.011068,0,0,0,0.0088906,0.0015628,0.003136,-4.7771,0.0045298,0.0066816,1.2504e-08,0.28,0.6,0
0.015032,-0.0021819,0.0087601,0.0015484,0.0030926,-0.00055963,0,0,0.051575,-0.014052,0,-0.010185,0,0,0,0.0088033,0.0015052,0.0030926,-4.411,0.0044671,0.0066481,1.224e-08,0.3,0.6,0
0.016059,-0.0021063,0.0086507,0.0014664,0.0030351,-0.00049905,0,0,0.051102,-0.014275,0,-0.0090827,0,0,0,0.0086852,0.0014319,0.0030351,-3.9547,0.0043841,0.0065994,1.1876e-08,0.32,0.6,0
0.017076,-0.0019896,0.0085266,0.0013697,0.0029689,-0.0004257,0,0,0.050575,-0.014552,0,-0.0077477,0,0,0,0.0085518,0.0013445,0.0029689,-3.3921,0.0042884,0.006548,1.1483e-08,0.34,0.6,0
0.018082,-0.0018294,0.0083898,0.0012487,0.0028916,-0.00034133,0,0,0.050034,-0.01495,0,-0.0062122,0,0,0,0.0084061,0.0012324,0.0028916,-2.7304,0.0041767,0.0065048,1.1096e-08,0.36,0.6,0
0.019077,-0.0016244,0.0082414,0.0010942,0.0028007,-0.00024971,0,0,0.049511,-0.015529,0,-0.0045448,0,0,0,0.0082501,0.0010855,0.0028007,-1.9986,0.0040454,0.0064796,1.0741e-08,0.38,0.6,0
0.020062,-0.0013754,0.008082,0.00090001,0.0026946,-0.00015609,0,0,0.049025,-0.016331,0,-0.0028409,0,0,0,0.0080853,0.00089662,0.0026946,-1.2445,0.0038922,0.0064796,1.043e-08,0.4,0.6,0
0.021038,-0.0010859,0.0079109,0.00066253,0.002572,-6.5054e-05,0,0,0.048584,-0.017376,0,-0.001184,0,0,0,0.0079115,0.00066195,0.002572,-0.51417,0.0037151,0.0065082,1.0155e-08,0.42,0.6,0
0.022006,-0.00076167,0.0077344,0.00038364,0.0024354,1.8724e-05,0,0,0.04822,-0.018671,0,0.00034077,0,0,0,0.0077344,0.00038359,0.0024354,0.14594,0.0035178,0.0065698,9.9183e-09,0.44,0.6,0
0.022967,-0.00041259,0.007555,5.31e-05,0.0022824,9.007e-05,0,0,0.04798,-0.020287,0,0.0016393,0,0,0,0.007556,5.2019e-05,0.0022824,0.68778,0.0032968,0.0066744,9.7206e-09,0.46,0.6,0
0.023925,-5.4494e-05,0.0073764,-0.00032833,0.0021144,0.00012838,0,0,0.047884,-0.022229,0,0.0023365,0,0,0,0.0073785,-0.00033047,0.0021144,0.95432,0.0030542,0.0068234,9.5368e-09,0.48,0.6,0
0.024882,0.00028817,0.0071922,-0.00072666,0.0019397,0.00011811,0,0,0.047798,-0.024264,0,0.0021496,0,0,0,0.007194,-0.00072842,0.0019397,0.85432,0.0028017,0.0069818,9.2679e-09,0.5,0.6,0
0.025837,0.00058649,0.0070071,-0.0010493,0.0017874,6.0215e-05,0,0,0.047499,-0.025813,0,0.0010959,0,0,0,0.0070075,-0.0010497,0.0017874,0.42821,0.0025817,0.0070788,8.8522e-09,0.52,0.6,0
0.026782,0.00081833,0.0068348,-0.0012346,0.0016801,8.3959e-07,0,0,0.046908,-0.026523,0,1.5281e-05,0,0,0,0.0068348,-0.0012346,0.0016801,0.0059614,0.0024268,0.0070775,8.3559e-09,0.54,0.6,0
0.027713,0.00097563,0.0066911,-0.001318,0.0016119,-2.3627e-05,0,0,0.046221,-0.026663,0,-0.00043002,0,0,0,0.0066912,-0.0013181,0.0016119,-0.16902,0.0023283,0.007019,7.9026e-09,0.56,0.6,0
0.028631,0.0010608,0.0066073,-0.0013591,0.0015745,-5.2893e-06,0,0,0.045799,-0.026696,0,-9.6265e-05,0,0,0,0.0066073,-0.0013592,0.0015745,-0.038041,0.0022742,0.0069786,7.6387e-09,0.58,0.6,0
0.029545,0.0010775,0.0066045,-0.0013995,0.0015615,2.7766e-05,0,0,0.045892,-0.026945,0,0.00050533,0,0,0,0.0066046,-0.0013996,0.0015615,0.19875,0.0022555,0.0070096,7.6494e-09,0.6,0.6,0
0.030467,0.0010242,0.0066828,-0.0014391,0.0015731,3.8171e-05,0,0,0.046498,-0.027411,0,0.0006947,0,0,0,0.006683,-0.0014393,0.0015731,0.26926,0.0022723,0.0071119,7.9361e-09,0.62,0.6,0
0.031405,0.00089477,0.0068209,-0.0014355,0.0016156,-3.1609e-06,0,0,0.047368,-0.027765,0,-5.7528e-05,0,0,0,0.006821,-0.0014355,0.0016156,-0.021935,0.0023337,0.007231,8.4207e-09,0.64,0.6,0
0.032362,0.00068401,0.0069866,-0.0013253,0.0016984,-8.8844e-05,0,0,0.048123,-0.027516,0,-0.001617,0,0,0,0.0069876,-0.0013263,0.0016984,-0.61233,0.0024532,0.0072885,8.9695e-09,0.66,0.6,0
0.03333,0.00039742,0.0071634,-0.0010677,0.0018287,-0.00018078,0,0,0.048546,-0.026357,0,-0.0032902,0,0,0,0.0071674,-0.0010716,0.0018287,-1.2576,0.0026415,0.0072386,9.4705e-09,0.68,0.6,0
0.034303,5.5641e-05,0.0073374,-0.00072175,0.0019847,-0.00022879,0,0,0.048709,-0.024629,0,-0.004164,0,0,0,0.0073438,-0.00072824,0.0019847,-1.6248,0.0028668,0.0071148,9.8438e-09,0.7,0.6,0
0.035278,-0.00031272,0.0075039,-0.00038454,0.0021358,-0.00022831,0,0,0.048849,-0.022935,0,-0.0041553,0,0,0,0.0075105,-0.00039114,0.0021358,-1.6564,0.0030851,0.0069896,1.0125e-08,0.72,0.6,0
0.036257,-0.00068269,0.0076708,-9.5231e-05,0.0022727,-0.00019354,0,0,0.049123,-0.021548,0,-0.0035224,0,0,0,0.0076756,-0.00010005,0.0022727,-1.4267,0.0032827,0.0069023,1.0407e-08,0.74,0.6,0
0.037243,-0.0010377,0.0078359,0.00014201,0.0023934,-0.00014521,0,0,0.049527,-0.020487,0,-0.0026428,0,0,0,0.0078386,0.00013927,0.0023934,-1.0808,0.0034571,0.0068561,1.0722e-08,0.76,0.6,0
0.038239,-0.0013672,0.0079975,0.00033525,0.0024998,-8.9037e-05,0,0,0.050029,-0.019698,0,-0.0016205,0,0,0,0.0079985,0.00033422,0.0024998,-0.66567,0.0036109,0.0068435,1.1075e-08,0.78,0.6,0
0.039244,-0.0016646,0.0081501,0.00048079,0.0025893,-3.0184e-05,0,0,0.050603,-0.019187,0,-0.00054935,0,0,0,0.0081502,0.00048067,0.0025893,-0.22549,0.00374,0.0068626,1.1469e-08,0.8,0.6,0
0.040263,-0.0019262,0.0082945,0.00058061,0.0026625,2.6171e-05,0,0,0.051251,-0.018946,0,0.00047631,0,0,0,0.0082946,0.00058052,0.0026625,0.19438,0.0038459,0.0069124,1.1919e-08,0.82,0.6,0
0.041294,-0.0021506,0.0084305,0.00063962,0.0027211,7.4114e-05,0,0,0.051956,-0.018941,0,0.0013489,0,0,0,0.0084312,0.00063892,0.0027211,0.54499,0.0039304,0.0069879,1.2422e-08,0.84,0.6,0
0.042341,-0.0023388,0.008557,0.00066619,0.0027669,0.00010923,0,0,0.052689,-0.019117,0,0.001988,0,0,0,0.0085585,0.00066467,0.0027669,0.79295,0.0039967,0.0070808,1.2961e-08,0.86,0.6,0
0.043402,-0.002493,0.0086717,0.00066958,0.0028024,0.00012923,0,0,0.053411,-0.019409,0,0.002352,0,0,0,0.0086738,0.00066749,0.0028024,0.92499,0.0040479,0.007181,1.3504e-08,0.88,0.6,0
0.044477,-0.0026164,0.0087724,0.0006586,0.0028293,0.00013394,0,0,0.054082,-0.019753,0,0.0024378,0,0,0,0.0087746,0.00065639,0.0028293,0.9455,0.0040868,0.0072792,1.4021e-08,0.9,0.6,0
0.045565,-0.0027121,0.0088569,0.00064059,0.0028492,0.00012474,0,0,0.05467,-0.020099,0,0.0022702,0,0,0,0.0088588,0.00063869,0.0028492,0.86957,0.0041156,0.0073679,1.448e-08,0.92,0.6,0
0.046664,-0.0027831,0.0089239,0.00062124,0.0028635,0.00010391,0,0,0.055149,-0.020405,0,0.0018912,0,0,0,0.0089252,0.00061994,0.0028635,0.71695,0.0041362,0.0074416,1.4859e-08,0.94,0.6,0
0.047771,-0.002832,0.0089722,0.0006047,0.0028731,7.4224e-05,0,0,0.055502,-0.020642,0,0.0013509,0,0,0,0.0089728,0.00060405,0.0028731,0.50819,0.00415,0.0074964,1.5141e-08,0.96,0.6,0
0.048884,-0.0028606,0.0090014,0.00059373,0.0028785,3.8597e-05,0,0,0.055718,-0.020792,0,0.00070246,0,0,0,0.0090016,0.00059355,0.0028785,0.26302,0.0041579,0.0075302,1.5314e-08,0.98,0.6,0
0.05,-0.00287,0.0090111,0.0005899,0.0028803,-2.5825e-05,0,0,0.05579,-0.020843,0,-0.00047001,0,0,0,0.0090112,0.00058982,0.0028803,-0.1757,0.0041605,0.0075417,1.5373e-08,1,0.6,0
0,0,0.008552,0.0036651,0.0036651,-0.00092242,0,0,0.044471,2.1684e-19,0,-0.016788,0,0,0,0.0087203,0.0034968,0.0036651,-10.341,0.0052941,0.0051414,6.955e-09,0,0.62,0
0.00088941,-0.00033576,0.008533,0.003443,0.0035928,-0.00091901,0,0,0.044956,-0.0013635,0,-0.016726,0,0,0,0.0086938,0.0032821,0.0035928,-9.9274,0.0051896,0.0052633,7.4005e-09,0.02,0.62,0
0.0017982,-0.00064579,0.0086046,0.0032556,0.0035581,-0.00088489,0,0,0.045923,-0.0027521,0,-0.016105,0,0,0,0.0087472,0.0031131,0.0035581,-9.1538,0.0051394,0.0054253,8.0159e-09,0.04,0.62,0
0.0027264,-0.00093169,0.0086731,0.0030679,0.0035223,-0.00085646,0,0,0.046872,-0.0041349,0,-0.015588,0,0,0,0.008801,0.00294,0.0035223,-8.4965,0.0050878,0.0055927,8.6567e-09,0.06,0.62,0
0.0036731,-0.0011945,0.0087362,0.0028831,0.0034858,-0.00083194,0,0,0.047778,-0.0054842,0,-0.015141,0,0,0,0.0088521,0.0027672,0.0034858,-7.9346,0.005035,0.0057593,9.2987e-09,0.08,0.62,0
0.0046375,-0.0014349,0.0087917,0.0027042,0.0034487,-0.00080979,0,0,0.048621,-0.0067759,0,-0.014738,0,0,0,0.0088976,0.0025983,0.0034487,-7.4492,0.0049815,0.00592,9.9187e-09,0.1,0.62,0
0.005618,-0.0016529,0.0088377,0.0025335,0.0034114,-0.00078874,0,0,0.04938,-0.0079889,0,-0.014355,0,0,0,0.0089349,0.0024363,0.0034114,-7.0242,0.0049275,0.0060701,1.0495e-08,0.12,0.62,0
0.0066127,-0.0018483,0.0088726,0.002373,0.0033737,-0.00076765,0,0,0.05004,-0.0091058,0,-0.013971,0,0,0,0.008962,0.0022836,0.0033737,-6.6453,0.0048731,0.0062056,1.1008e-08,0.14,0.62,0
0.0076195,-0.0020204,0.0088946,0.0022244,0.0033357,-0.00074549,0,0,0.050586,-0.010113,0,-0.013568,0,0,0,0.0089769,0.0021421,0.0033357,-6.3,0.0048182,0.0063231,1.144e-08,0.16,0.62,0
0.0086361,-0.0021684,0.0089026,0.0020884,0.0032973,-0.00072122,0,0,0.051008,-0.011001,0,-0.013126,0,0,0,0.0089781,0.0020129,0.0032973,-5.9761,0.0047627,0.0064201,1.1778e-08,0.18,0.62,0
0.0096599,-0.0022911,0.0088952,0.0019652,0.0032581,-0.00069375,0,0,0.051298,-0.011766,0,-0.012626,0,0,0,0.008964,0.0018964,0.0032581,-5.6609,0.0047062,0.0064947,1.2012e-08,0.2,0.62,0
0.010688,-0.0023869,0.0088718,0.0018543,0.0032178,-0.00066184,0,0,0.051451,-0.012408,0,-0.012045,0,0,0,0.0089337,0.0017924,0.0032178,-5.3409,0.004648,0.006546,1.2135e-08,0.22,0.62,0
0.011718,-0.0024541,0.0088319,0.0017542,0.0031758,-0.0006241,0,0,0.05147,-0.012937,0,-0.011359,0,0,0,0.0088865,0.0016996,0.0031758,-5.0008,0.0045873,0.0065743,1.215e-08,0.24,0.62,0
0.012747,-0.0024906,0.0087819,0.0016671,0.0031347,-0.0005798,0,0,0.051389,-0.013355,0,-0.010552,0,0,0,0.0088288,0.0016202,0.0031347,-4.6285,0.0045279,0.0065833,1.2081e-08,0.26,0.62,0
0.013772,-0.0024939,0.008694,0.0015716,0.0030797,-0.00049237,0,0,0.05109,-0.013724,0,-0.0089611,0,0,0,0.0087279,0.0015377,0.0030797,-3.9359,0.0044484,0.0065566,1.1821e-08,0.28,0.62,0
0.014792,-0.0024618,0.0086155,0.001488,0.0030311,-0.0004612,0,0,0.050819,-0.014042,0,-0.0083939,0,0,0,0.0086452,0.0014583,0.0030311,-3.687,0.0043782,0.0065439,1.1638e-08,0.3,0.62,0
0.015805,-0.0023918,0.008515,0.001394,0.0029727,-0.00038653,0,0,0.050435,-0.014366,0,-0.0070348,0,0,0,0.0085359,0.0013731,0.0029727,-3.0979,0.0042939,0.0065121,1.135e-08,0.32,0.62,0
0.01681,-0.0022817,0.0084035,0.001286,0.0029069,-0.0003015,0,0,0.05002,-0.01475,0,-0.0054872,0,0,0,0.0084163,0.0012733,0.0029069,-2.4213,0.0041988,0.0064824,1.1052e-08,0.34,0.62,0
0.017806,-0.0021304,0.0082835,0.0011565,0.002832,-0.00020781,0,0,0.049608,-0.015247,0,-0.0037822,0,0,0,0.0082895,0.0011505,0.002832,-1.6688,0.0040907,0.0064645,1.0774e-08,0.36,0.62,0
0.018794,-0.0019378,0.0081573,0.00099844,0.0027467,-0.0001086,0,0,0.049236,-0.015909,0,-0.0019765,0,0,0,0.0081589,0.00099679,0.0027467,-0.86889,0.0039675,0.0064673,1.0539e-08,0.38,0.62,0
0.019775,-0.0017056,0.0080274,0.00080615,0.0026501,-8.0201e-06,0,0,0.048933,-0.016779,0,-0.00014597,0,0,0,0.0080274,0.00080614,0.0026501,-0.063634,0.0038278,0.0064985,1.0363e-08,0.4,0.62,0
0.020751,-0.0014376,0.0078972,0.00057647,0.0025421,8.8765e-05,0,0,0.048731,-0.017887,0,0.0016155,0,0,0,0.0078983,0.00057539,0.0025421,0.69459,0.0036719,0.0065643,1.0252e-08,0.42,0.62,0
0.021725,-0.0011405,0.0077704,0.00030635,0.002423,0.0001754,0,0,0.048661,-0.019262,0,0.0031924,0,0,0,0.0077745,0.00030223,0.002423,1.3455,0.0034999,0.0066697,1.0206e-08,0.44,0.62,0
0.022698,-0.00082456,0.0076505,-3.7825e-06,0.002294,0.0002414,0,0,0.048744,-0.02091,0,0.0043935,0,0,0,0.0076581,-1.1388e-05,0.002294,1.8046,0.0033136,0.0068158,1.0212e-08,0.46,0.62,0
0.023674,-0.00050492,0.0075369,-0.00034459,0.0021577,0.00027404,0,0,0.048951,-0.022771,0,0.0049874,0,0,0,0.0075464,-0.00035411,0.0021577,1.9889,0.0031167,0.0069916,1.0223e-08,0.48,0.62,0
0.024656,-0.00020109,0.0074271,-0.00068369,0.002023,0.0002627,0,0,0.049177,-0.024631,0,0.0047812,0,0,0,0.0074356,-0.00069219,0.002023,1.8532,0.0029222,0.0071669,1.017e-08,0.5,0.62,0
0.025641,6.584e-05,0.0073208,-0.00097253,0.0019045,0.0002134,0,0,0.049288,-0.026181,0,0.0038838,0,0,0,0.0073263,-0.00097802,0.0019045,1.473,0.0027509,0.0073029,1.0013e-08,0.52,0.62,0
0.026627,0.00027852,0.0072224,-0.001178,0.0018133,0.00014634,0,0,0.049223,-0.027221,0,0.0026634,0,0,0,0.0072249,-0.0011806,0.0018133,0.99772,0.0026192,0.0073791,9.7793e-09,0.54,0.62,0
0.02761,0.00042697,0.0071429,-0.001303,0.0017519,8.4876e-05,0,0,0.049057,-0.0278,0,0.0015447,0,0,0,0.0071437,-0.0013039,0.0017519,0.57571,0.0025306,0.0074085,9.5499e-09,0.56,0.62,0
0.02859,0.00050758,0.0070961,-0.0013739,0.0017167,3.6442e-05,0,0,0.048953,-0.028124,0,0.00066325,0,0,0,0.0070962,-0.001374,0.0017167,0.24651,0.0024796,0.0074242,9.4114e-09,0.58,0.62,0
0.029568,0.00051942,0.0070931,-0.0014105,0.0017048,-7.7731e-06,0,0,0.049034,-0.028349,0,-0.00014147,0,0,0,0.0070931,-0.0014105,0.0017048,-0.052374,0.0024625,0.0074515,9.4218e-09,0.6,0.62,0
0.030551,0.00046124,0.0071338,-0.0014124,0.0017164,-6.4526e-05,0,0,0.049298,-0.028472,0,-0.0011744,0,0,0,0.0071343,-0.0014128,0.0017164,-0.43256,0.0024793,0.00749,9.5833e-09,0.62,0.62,0
0.03154,0.00033148,0.0072065,-0.001358,0.0017546,-0.00014273,0,0,0.049613,-0.028324,0,-0.0025976,0,0,0,0.0072089,-0.0013603,0.0017546,-0.95446,0.0025344,0.0075128,9.8438e-09,0.64,0.62,0
0.032536,0.00013135,0.0072967,-0.0012185,0.0018234,-0.00023452,0,0,0.049806,-0.027682,0,-0.0042682,0,0,0,0.0073031,-0.001225,0.0018234,-1.5764,0.0026339,0.0074849,1.0125e-08,0.66,0.62,0
0.033533,-0.00013117,0.0073929,-0.00098854,0.0019213,-0.00031499,0,0,0.049791,-0.026479,0,-0.0057329,0,0,0,0.0074047,-0.0010004,0.0019213,-2.1493,0.0027752,0.0073908,1.0349e-08,0.68,0.62,0
0.034527,-0.00044014,0.0074904,-0.00070037,0.002037,-0.00036144,0,0,0.049626,-0.02491,0,-0.0065782,0,0,0,0.0075063,-0.00071629,0.002037,-2.5218,0.0029423,0.0072493,1.0482e-08,0.7,0.62,0
0.035518,-0.00077508,0.0075902,-0.00040451,0.0021557,-0.00036552,0,0,0.049454,-0.023298,0,-0.0066524,0,0,0,0.0076068,-0.00042118,0.0021557,-2.6123,0.0031138,0.0070995,1.0551e-08,0.72,0.62,0
0.036505,-0.0011165,0.0076954,-0.00013647,0.0022677,-0.00033648,0,0,0.049392,-0.021878,0,-0.0061239,0,0,0,0.0077098,-0.0001509,0.0022677,-2.4556,0.0032755,0.0069734,1.0617e-08,0.74,0.62,0
0.037493,-0.001449,0.0078079,9.1583e-05,0.0023698,-0.00028668,0,0,0.049486,-0.020732,0,-0.0052176,0,0,0,0.0078185,8.0947e-05,0.0023698,-2.1248,0.0034231,0.0068847,1.0728e-08,0.76,0.62,0
0.038485,-0.001762,0.0079251,0.00027699,0.0024606,-0.00022678,0,0,0.049726,-0.019871,0,-0.0041273,0,0,0,0.0079318,0.00027027,0.0024606,-1.6969,0.0035542,0.0068348,1.0901e-08,0.78,0.62,0
0.039482,-0.0020484,0.0080439,0.000421,0.0025395,-0.00016349,0,0,0.05009,-0.019278,0,-0.0029755,0,0,0,0.0080474,0.0004175,0.0025395,-1.2281,0.0036681,0.0068211,1.114e-08,0.8,0.62,0
0.040488,-0.0023041,0.0081613,0.00052534,0.002606,-0.0001024,0,0,0.050553,-0.018934,0,-0.0018636,0,0,0,0.0081627,0.00052396,0.002606,-0.76814,0.0037642,0.0068396,1.1445e-08,0.82,0.62,0
0.041504,-0.0025272,0.0082751,0.00059438,0.0026608,-4.8145e-05,0,0,0.05109,-0.018805,0,-0.00087623,0,0,0,0.0082754,0.00059408,0.0026608,-0.35913,0.0038434,0.0068847,1.1808e-08,0.84,0.62,0
0.042532,-0.0027175,0.0083829,0.00063427,0.0027052,-4.2738e-06,0,0,0.051668,-0.018845,0,-7.7783e-05,0,0,0,0.0083829,0.00063427,0.0027052,-0.031601,0.0039075,0.0069487,1.2212e-08,0.86,0.62,0
0.043571,-0.0028762,0.0084823,0.00065214,0.0027403,2.7218e-05,0,0,0.052252,-0.019003,0,0.00049536,0,0,0,0.0084824,0.00065204,0.0027403,0.19916,0.0039582,0.0070231,1.2631e-08,0.88,0.62,0
0.044622,-0.0030051,0.0085706,0.00065499,0.0027677,4.5869e-05,0,0,0.052807,-0.019225,0,0.00083482,0,0,0,0.0085709,0.00065472,0.0027677,0.332,0.0039978,0.0070996,1.3039e-08,0.9,0.62,0
0.045684,-0.0031067,0.0086457,0.00064906,0.0027884,5.2501e-05,0,0,0.053301,-0.019468,0,0.00095551,0,0,0,0.0086461,0.00064871,0.0027884,0.37614,0.0040277,0.007171,1.341e-08,0.92,0.62,0
0.046754,-0.0031831,0.0087058,0.0006394,0.0028036,4.8828e-05,0,0,0.05371,-0.019694,0,0.00088867,0,0,0,0.0087061,0.00063911,0.0028036,0.34681,0.0040496,0.0072319,1.372e-08,0.94,0.62,0
0.047832,-0.0032362,0.0087495,0.00062988,0.0028138,3.7119e-05,0,0,0.054015,-0.019874,0,0.00067557,0,0,0,0.0087496,0.00062971,0.0028138,0.26192,0.0040644,0.007278,1.3954e-08,0.96,0.62,0
0.048915,-0.0032674,0.008776,0.00062313,0.0028198,1.994e-05,0,0,0.054202,-0.019989,0,0.00036292,0,0,0,0.0087761,0.00062308,0.0028198,0.14013,0.004073,0.0073066,1.4099e-08,0.98,0.62,0
0.05,-0.0032777,0.0087849,0.00062071,0.0028217,-2.8321e-05,0,0,0.054265,-0.020029,0,-0.00051544,0,0,0,0.008785,0.00062062,0.0028217,-0.19875,0.0040758,0.0073165,1.4148e-08,1,0.62,0
0,0,0.0084433,0.0036185,0.0036185,-0.00099551,0,0,0.043905,2.7105e-19,0,-0.018118,0,0,0,0.0086406,0.0034212,0.0036185,-11.212,0.0052268,0.0051236,6.8734e-09,0,0.64,0
0.0008781,-0.00036237,0.0084253,0.0034056,0.0035493,-0.00099107,0,0,0.044372,-0.0013076,0,-0.018038,0,0,0,0.0086139,0.003217,0.0035493,-10.774,0.0051267,0.0052387,7.2839e-09,0.02,0.64,0
0.0017749,-0.00069965,0.008494,0.0032235,0.0035153,-0.00095512,0,0,0.045306,-0.0026546,0,-0.017383,0,0,0,0.0086617,0.0030558,0.0035153,-9.9614,0.0050776,0.0053909,7.8498e-09,0.04,0.64,0
0.0026904,-0.0010128,0.0085598,0.0030393,0.0034797,-0.0009224,0,0,0.046229,-0.0040079,0,-0.016788,0,0,0,0.0087099,0.0028893,0.0034797,-9.2391,0.0050263,0.005549,8.4412e-09,0.06,0.64,0
0.003624,-0.0013024,0.0086204,0.0028564,0.003443,-0.00089133,0,0,0.047114,-0.005338,0,-0.016222,0,0,0,0.0087551,0.0027218,0.003443,-8.5929,0.0049733,0.0057069,9.0342e-09,0.08,0.64,0
0.0045749,-0.0015684,0.0086734,0.0026781,0.0034055,-0.00086059,0,0,0.047938,-0.0066186,0,-0.015663,0,0,0,0.0087945,0.0025571,0.0034055,-8.0091,0.004919,0.0058595,9.6062e-09,0.1,0.64,0
0.0055416,-0.0018105,0.008717,0.0025071,0.0033672,-0.00082909,0,0,0.048683,-0.0078274,0,-0.015089,0,0,0,0.0088258,0.0023983,0.0033672,-7.4751,0.0048638,0.006002,1.0136e-08,0.12,0.64,0
0.0065222,-0.0020282,0.0087495,0.0023454,0.0033285,-0.00079592,0,0,0.049331,-0.008946,0,-0.014486,0,0,0,0.0088469,0.0022479,0.0033285,-6.9794,0.0048078,0.0061306,1.0605e-08,0.14,0.64,0
0.0075148,-0.0022205,0.0087693,0.0021946,0.0032891,-0.00076028,0,0,0.049869,-0.0099607,0,-0.013837,0,0,0,0.008856,0.0021078,0.0032891,-6.511,0.004751,0.006242,1.0998e-08,0.16,0.64,0
0.008517,-0.0023863,0.008763,0.0020485,0.0032435,-0.00074193,0,0,0.050228,-0.010874,0,-0.013503,0,0,0,0.008844,0.0019675,0.0032435,-6.2309,0.004685,0.0063356,1.1296e-08,0.18,0.64,0
0.0095263,-0.0025245,0.0087651,0.0019247,0.0032069,-0.00070641,0,0,0.050579,-0.011669,0,-0.012857,0,0,0,0.0088372,0.0018525,0.0032069,-5.8349,0.0046322,0.0064157,1.1551e-08,0.2,0.64,0
0.01054,-0.0026334,0.0087428,0.0018121,0.0031665,-0.0006633,0,0,0.050745,-0.012325,0,-0.012072,0,0,0,0.0088057,0.0017492,0.0031665,-5.4179,0.0045738,0.0064655,1.1664e-08,0.22,0.64,0
0.011556,-0.0027116,0.0087043,0.0017072,0.0031234,-0.00057457,0,0,0.050786,-0.012888,0,-0.010457,0,0,0,0.0087511,0.0016603,0.0031234,-4.6632,0.0045116,0.0064843,1.1635e-08,0.24,0.64,0
0.012572,-0.0027572,0.0086508,0.0016067,0.0030773,-0.00051629,0,0,0.050719,-0.013382,0,-0.0093964,0,0,0,0.0086885,0.0015691,0.0030773,-4.1697,0.0044449,0.0064979,1.1573e-08,0.26,0.64,0
0.013585,-0.0027684,0.0085838,0.0015109,0.0030284,-0.00044785,0,0,0.050554,-0.013809,0,-0.008151,0,0,0,0.008612,0.0014826,0.0030284,-3.6088,0.0043743,0.0064959,1.1436e-08,0.28,0.64,0
0.014594,-0.0027435,0.0085046,0.0014139,0.0029756,-0.00037099,0,0,0.050315,-0.014211,0,-0.0067521,0,0,0,0.008524,0.0013945,0.0029756,-2.9869,0.004298,0.0064851,1.1251e-08,0.3,0.64,0
0.015597,-0.002681,0.0084155,0.0013102,0.0029177,-0.00028564,0,0,0.05003,-0.014628,0,-0.0051987,0,0,0,0.008427,0.0012988,0.0029177,-2.2984,0.0042145,0.0064724,1.1043e-08,0.32,0.64,0
0.016595,-0.0025796,0.0083342,0.0012114,0.0028637,-0.00023215,0,0,0.049781,-0.015035,0,-0.0042252,0,0,0,0.0083417,0.0012039,0.0028637,-1.8648,0.0041364,0.0064696,1.0883e-08,0.34,0.64,0
0.017587,-0.0024392,0.0082384,0.0011069,0.0028036,-0.00016402,0,0,0.049457,-0.01544,0,-0.0029852,0,0,0,0.0082421,0.0011031,0.0028036,-1.3169,0.0040496,0.0064589,1.0673e-08,0.36,0.64,0
0.018573,-0.0022607,0.0081167,0.00091396,0.0027092,-5.9468e-07,0,0,0.049208,-0.016337,0,-1.0823e-05,0,0,0,0.0081167,0.00091396,0.0027092,-0.0047306,0.0039133,0.0064939,1.0525e-08,0.38,0.64,0
0.019556,-0.0020466,0.0080133,0.00070852,0.0026166,0.00010866,0,0,0.049111,-0.017363,0,0.0019776,0,0,0,0.0080149,0.00070691,0.0026166,0.85202,0.0037795,0.0065649,1.0493e-08,0.4,0.64,0
0.020538,-0.0018014,0.007917,0.00048661,0.0025211,0.00020228,0,0,0.049103,-0.018514,0,0.0036816,0,0,0,0.0079226,0.0004811,0.0025211,1.5583,0.0036416,0.00666,1.0511e-08,0.42,0.64,0
0.02152,-0.0015321,0.0078289,0.00023172,0.0024182,0.00028171,0,0,0.049238,-0.019897,0,0.0051272,0,0,0,0.0078394,0.00022129,0.0024182,2.1207,0.003493,0.0067916,1.0597e-08,0.44,0.64,0
0.022507,-0.001249,0.0077505,-5.243e-05,0.0023094,0.00033789,0,0,0.049514,-0.021493,0,0.0061496,0,0,0,0.0077651,-6.7034e-05,0.0023094,2.4749,0.0033358,0.0069553,1.0726e-08,0.46,0.64,0
0.023501,-0.00096532,0.0076809,-0.00035323,0.0021983,0.00036131,0,0,0.049891,-0.023219,0,0.0065759,0,0,0,0.0076971,-0.00036945,0.0021983,2.5698,0.0031753,0.0071379,1.0858e-08,0.48,0.64,0
0.024503,-0.00069708,0.0076177,-0.00064709,0.0020912,0.0003469,0,0,0.050291,-0.024918,0,0.0063136,0,0,0,0.0076322,-0.00066163,0.0020912,2.3993,0.0030206,0.0073167,1.0943e-08,0.5,0.64,0
0.025513,-0.00046074,0.0075593,-0.00090464,0.0019964,0.00029782,0,0,0.050622,-0.026399,0,0.0054203,0,0,0,0.0075698,-0.0009151,0.0019964,2.0127,0.0028837,0.0074677,1.0952e-08,0.52,0.64,0
0.026528,-0.00027051,0.0075068,-0.0011041,0.0019208,0.00022586,0,0,0.050833,-0.027527,0,0.0041106,0,0,0,0.0075128,-0.0011101,0.0019208,1.5014,0.0027745,0.0075766,1.0895e-08,0.54,0.64,0
0.027546,-0.00013638,0.0074648,-0.0012407,0.0018672,0.0001442,0,0,0.050938,-0.028282,0,0.0026245,0,0,0,0.0074672,-0.0012431,0.0018672,0.94874,0.0026971,0.0076453,1.0815e-08,0.56,0.64,0
0.028565,-6.4098e-05,0.0074396,-0.0013214,0.0018355,6.0583e-05,0,0,0.050998,-0.028728,0,0.0011026,0,0,0,0.00744,-0.0013218,0.0018355,0.39618,0.0026512,0.007686,1.0762e-08,0.58,0.64,0
0.029586,-5.6492e-05,0.007436,-0.0013541,0.0018246,-2.5278e-05,0,0,0.051064,-0.028925,0,-0.00046006,0,0,0,0.007436,-0.0013541,0.0018246,-0.16477,0.0026355,0.0077091,1.0769e-08,0.6,0.64,0
0.030608,-0.00011472,0.0074535,-0.0013379,0.0018347,-0.00011691,0,0,0.051131,-0.028871,0,-0.0021277,0,0,0,0.007455,-0.0013395,0.0018347,-0.76175,0.0026501,0.0077139,1.0838e-08,0.62,0.64,0
0.031631,-0.00023819,0.007487,-0.0012638,0.0018669,-0.00021436,0,0,0.051142,-0.02849,0,-0.0039013,0,0,0,0.0074922,-0.0012691,0.0018669,-1.4024,0.0026967,0.0076889,1.0942e-08,0.64,0.64,0
0.032654,-0.00042327,0.0075294,-0.001123,0.0019219,-0.00030922,0,0,0.051028,-0.027709,0,-0.0056279,0,0,0,0.0075404,-0.001134,0.0019219,-2.0442,0.0027761,0.0076208,1.1033e-08,0.66,0.64,0
0.033672,-0.00066176,0.0075759,-0.00091902,0.0019971,-0.00038704,0,0,0.050767,-0.026536,0,-0.0070442,0,0,0,0.0075935,-0.00093661,0.0019971,-2.6033,0.0028846,0.0075063,1.1073e-08,0.68,0.64,0
0.034684,-0.00094076,0.0076251,-0.00067337,0.0020855,-0.00043431,0,0,0.05041,-0.025106,0,-0.0079045,0,0,0,0.0076478,-0.00069604,0.0020855,-2.9878,0.0030124,0.0073585,1.1048e-08,0.7,0.64,0
0.035689,-0.0012446,0.0076792,-0.00041658,0.0021788,-0.00044624,0,0,0.050054,-0.023618,0,-0.0081215,0,0,0,0.0077038,-0.00044111,0.0021788,-3.1454,0.0031472,0.0072017,1.0978e-08,0.72,0.64,0
0.036686,-0.0015578,0.0077413,-0.00017426,0.0022701,-0.00042677,0,0,0.049788,-0.022244,0,-0.0077672,0,0,0,0.0077642,-0.0001972,0.0022701,-3.0772,0.003279,0.0070589,1.0907e-08,0.74,0.64,0
0.03768,-0.001867,0.0078128,3.8807e-05,0.0023555,-0.00038487,0,0,0.049661,-0.021082,0,-0.0070047,0,0,0,0.0078318,1.9799e-05,0.0023555,-2.8274,0.0034024,0.0069452,1.0876e-08,0.76,0.64,0
0.038673,-0.002162,0.0078931,0.00021694,0.002433,-0.00032952,0,0,0.049687,-0.020166,0,-0.0059973,0,0,0,0.0079072,0.00020282,0.002433,-2.4536,0.0035143,0.0068665,1.0907e-08,0.78,0.64,0
0.039668,-0.0024357,0.0079797,0.00035904,0.0025016,-0.00026825,0,0,0.049851,-0.019498,0,-0.0048821,0,0,0,0.0079892,0.00034961,0.0025016,-2.0135,0.0036135,0.006823,1.101e-08,0.8,0.64,0
0.040667,-0.0026835,0.0080697,0.00046675,0.002561,-0.00020682,0,0,0.05013,-0.019057,0,-0.0037641,0,0,0,0.0080754,0.00046113,0.002561,-1.5571,0.0036991,0.0068116,1.1183e-08,0.82,0.64,0
0.041673,-0.0029028,0.0081601,0.00054338,0.0026111,-0.00014975,0,0,0.050497,-0.018816,0,-0.0027255,0,0,0,0.0081631,0.00054044,0.0026111,-1.1259,0.0037715,0.006827,1.1417e-08,0.84,0.64,0
0.042687,-0.0030926,0.008248,0.00059372,0.0026525,-0.00010029,0,0,0.050919,-0.018735,0,-0.0018253,0,0,0,0.0082493,0.00059241,0.0026525,-0.75057,0.0038314,0.0068628,1.1697e-08,0.86,0.64,0
0.043709,-0.0032531,0.0083305,0.0006233,0.0026861,-6.0406e-05,0,0,0.051364,-0.018772,0,-0.0010994,0,0,0,0.008331,0.00062283,0.0026861,-0.44903,0.00388,0.0069115,1.2001e-08,0.88,0.64,0
0.044741,-0.0033854,0.008405,0.00063774,0.0027128,-3.0804e-05,0,0,0.051799,-0.018883,0,-0.00056064,0,0,0,0.0084052,0.00063761,0.0027128,-0.22723,0.0039185,0.0069658,1.2306e-08,0.9,0.64,0
0.045782,-0.0034908,0.0084691,0.00064222,0.0027334,-1.1116e-05,0,0,0.052195,-0.01903,0,-0.00020232,0,0,0,0.0084692,0.0006422,0.0027334,-0.081374,0.0039483,0.007019,1.259e-08,0.92,0.64,0
0.046829,-0.0035709,0.0085209,0.00064113,0.0027486,-1.382e-07,0,0,0.052528,-0.019178,0,-2.5152e-06,0,0,0,0.0085209,0.00064113,0.0027486,-0.0010049,0.0039702,0.0070659,1.2832e-08,0.94,0.64,0
0.047883,-0.003627,0.008559,0.00063792,0.0027591,3.9104e-06,0,0,0.052779,-0.019302,0,7.117e-05,0,0,0,0.008559,0.00063792,0.0027591,0.028286,0.0039853,0.0071021,1.3017e-08,0.96,0.64,0
0.04894,-0.0036602,0.0085822,0.00063503,0.0027652,3.1739e-06,0,0,0.052935,-0.019384,0,5.7765e-05,0,0,0,0.0085822,0.00063503,0.0027652,0.022883,0.0039941,0.007125,1.3133e-08,0.98,0.64,0
0.05,-0.0036712,0.00859,0.0006339,0.0027672,-3.0186e-05,0,0,0.052987,-0.019413,0,-0.00054939,0,0,0,0.0085901,0.00063379,0.0027672,-0.21738,0.003997,0.007133,1.3172e-08,1,0.64,0
0,0,0.0083419,0.0035751,0.0035751,-0.0010661,0,0,0.043378,0,0,-0.019403,0,0,0,0.0085695,0.0033475,0.0035751,-12.05,0.005164,0.005112,6.8152e-09,0,0.66,0
0.00086756,-0.00038807,0.0083247,0.0033678,0.0035078,-0.0010607,0,0,0.043834,-0.0012735,0,-0.019304,0,0,0,0.0085421,0.0031504,0.0035078,-11.585,0.0050668,0.0052222,7.1992e-09,0.02,0.66,0
0.0017534,-0.00075197,0.0083917,0.0031884,0.003474,-0.0010232,0,0,0.04475,-0.0025988,0,-0.018623,0,0,0,0.0085857,0.0029945,0.003474,-10.735,0.005018,0.0053675,7.7288e-09,0.04,0.66,0
0.0026576,-0.001092,0.008456,0.0030053,0.0034384,-0.00098642,0,0,0.045661,-0.0039413,0,-0.017953,0,0,0,0.0086291,0.0028323,0.0034384,-9.9486,0.0049666,0.0055188,8.2826e-09,0.06,0.66,0
0.0035798,-0.0014081,0.0085153,0.0028222,0.0034013,-0.0009489,0,0,0.046538,-0.0052695,0,-0.01727,0,0,0,0.0086693,0.0026682,0.0034013,-9.2179,0.0049129,0.0056702,8.838e-09,0.08,0.66,0
0.0045191,-0.0016996,0.0085672,0.0026426,0.0033629,-0.00090958,0,0,0.047359,-0.0065554,0,-0.016554,0,0,0,0.0087037,0.0025061,0.0033629,-8.5346,0.0048576,0.0058167,9.3728e-09,0.1,0.66,0
0.0054741,-0.001966,0.0086097,0.0024694,0.0033237,-0.00086764,0,0,0.048103,-0.0077747,0,-0.015791,0,0,0,0.00873,0.0023491,0.0033237,-7.8902,0.004801,0.0059537,9.8669e-09,0.12,0.66,0
0.0064432,-0.0022061,0.0086412,0.0023049,0.0032838,-0.00082245,0,0,0.048752,-0.0089082,0,-0.014969,0,0,0,0.0087462,0.0021999,0.0032838,-7.2764,0.0047433,0.0060773,1.0303e-08,0.14,0.66,0
0.0074242,-0.0024188,0.0086602,0.0021508,0.0032433,-0.00077355,0,0,0.049294,-0.0099419,0,-0.014079,0,0,0,0.0087509,0.0020601,0.0032433,-6.6847,0.0046848,0.0061847,1.0666e-08,0.16,0.66,0
0.008415,-0.0026029,0.0086531,0.0020004,0.0031961,-0.00072612,0,0,0.049659,-0.01088,0,-0.013215,0,0,0,0.0087314,0.0019221,0.0031961,-6.1571,0.0046165,0.0062702,1.092e-08,0.18,0.66,0
0.009413,-0.0027571,0.0086532,0.0018659,0.0031557,-0.0006344,0,0,0.050027,-0.011738,0,-0.011546,0,0,0,0.008712,0.0018071,0.0031557,-5.2942,0.0045583,0.0063391,1.1113e-08,0.2,0.66,0
0.010416,-0.0028799,0.0086294,0.0017411,0.0031112,-0.00056749,0,0,0.050216,-0.012468,0,-0.010328,0,0,0,0.0086759,0.0016946,0.0031112,-4.6782,0.0044939,0.0063918,1.1223e-08,0.22,0.66,0
0.011422,-0.0029699,0.0085977,0.001637,0.0030704,-0.00050423,0,0,0.050299,-0.013044,0,-0.0091771,0,0,0,0.0086341,0.0016007,0.0030704,-4.1218,0.0044351,0.0064258,1.1261e-08,0.24,0.66,0
0.012428,-0.0030258,0.0085509,0.0015368,0.0030263,-0.00045824,0,0,0.050274,-0.013555,0,-0.00834,0,0,0,0.0085807,0.001507,0.0030263,-3.7221,0.0043713,0.0064497,1.1244e-08,0.26,0.66,0
0.013433,-0.0030463,0.0084908,0.0014337,0.0029773,-0.00037778,0,0,0.050173,-0.014047,0,-0.0068756,0,0,0,0.008511,0.0014135,0.0029773,-3.0555,0.0043006,0.0064591,1.1153e-08,0.28,0.66,0
0.014435,-0.0030303,0.0084211,0.0013292,0.0029251,-0.00029085,0,0,0.050014,-0.014523,0,-0.0052936,0,0,0,0.008433,0.0013173,0.0029251,-2.3445,0.0042251,0.0064636,1.103e-08,0.3,0.66,0
0.015433,-0.0029769,0.0083442,0.0012185,0.0028688,-0.0001979,0,0,0.049826,-0.015018,0,-0.0036017,0,0,0,0.0083497,0.001213,0.0028688,-1.5896,0.0041438,0.0064697,1.0898e-08,0.32,0.66,0
0.016428,-0.002886,0.0082613,0.0010824,0.0028031,-9.7309e-05,0,0,0.04967,-0.015658,0,-0.001771,0,0,0,0.0082627,0.0010811,0.0028031,-0.77644,0.004049,0.0064941,1.0803e-08,0.34,0.66,0
0.017419,-0.0027581,0.0081561,0.00090294,0.0027177,6.2983e-05,0,0,0.049489,-0.016515,0,0.0011463,0,0,0,0.0081567,0.00090239,0.0027177,0.49748,0.0039256,0.0065384,1.0713e-08,0.36,0.66,0
0.018407,-0.0025951,0.0080883,0.00077772,0.0026598,0.00013739,0,0,0.049399,-0.017127,0,0.0025006,0,0,0,0.0080909,0.00077514,0.0026598,1.0763,0.0038419,0.0065791,1.0681e-08,0.38,0.66,0
0.019395,-0.0024001,0.0080212,0.00061344,0.0025904,0.00019696,0,0,0.04942,-0.01799,0,0.0035847,0,0,0,0.0080264,0.00060821,0.0025904,1.522,0.0037417,0.0066524,1.0717e-08,0.4,0.66,0
0.020384,-0.0021781,0.0079519,0.00040256,0.0025064,0.00028288,0,0,0.049555,-0.019144,0,0.0051484,0,0,0,0.0079625,0.00039198,0.0025064,2.1429,0.0036203,0.0067659,1.0827e-08,0.42,0.66,0
0.021377,-0.0019363,0.0078923,0.00016627,0.0024176,0.0003521,0,0,0.04982,-0.020487,0,0.0064081,0,0,0,0.0079083,0.00015026,0.0024176,2.6039,0.003492,0.0069093,1.0995e-08,0.44,0.66,0
0.022377,-0.0016843,0.0078429,-9.0024e-05,0.0023258,0.00039719,0,0,0.050205,-0.021985,0,0.0072289,0,0,0,0.0078627,-0.00010986,0.0023258,2.8592,0.0033596,0.0070764,1.1198e-08,0.46,0.66,0
0.023386,-0.0014337,0.0078025,-0.00035489,0.0022343,0.00041169,0,0,0.050671,-0.023561,0,0.0074928,0,0,0,0.0078232,-0.00037561,0.0022343,2.8819,0.0032273,0.0072549,1.1401e-08,0.48,0.66,0
0.024404,-0.0011978,0.0077688,-0.0006109,0.0021474,0.00039243,0,0,0.051155,-0.0251,0,0.0071423,0,0,0,0.0077872,-0.00062924,0.0021474,2.6754,0.0031018,0.0074281,1.1568e-08,0.5,0.66,0
0.025432,-0.00099014,0.0077397,-0.00083845,0.0020704,0.00034158,0,0,0.051591,-0.02647,0,0.0062168,0,0,0,0.0077533,-0.00085203,0.0020704,2.2767,0.0029906,0.0075792,1.1677e-08,0.52,0.66,0
0.026467,-0.00082256,0.0077145,-0.0010219,0.0020078,0.00026609,0,0,0.051931,-0.02757,0,0.0048429,0,0,0,0.0077225,-0.00103,0.0020078,1.743,0.0029001,0.0076972,1.1726e-08,0.54,0.66,0
0.027509,-0.00070431,0.0076941,-0.0011538,0.0019621,0.00017471,0,0,0.052161,-0.028354,0,0.0031797,0,0,0,0.0076975,-0.0011572,0.0019621,1.1308,0.0028341,0.0077792,1.1737e-08,0.56,0.66,0
0.028554,-0.00064153,0.0076808,-0.0012334,0.0019342,7.4368e-05,0,0,0.052294,-0.028825,0,0.0013535,0,0,0,0.0076814,-0.001234,0.0019342,0.47795,0.0027939,0.0078279,1.1734e-08,0.58,0.66,0
0.029601,-0.0006376,0.0076762,-0.0012621,0.0019242,-3.0978e-05,0,0,0.052343,-0.028996,0,-0.0005638,0,0,0,0.0076763,-0.0012622,0.0019242,-0.19857,0.0027794,0.0078466,1.1736e-08,0.6,0.66,0
0.030648,-0.00069358,0.00768,-0.0012394,0.0019322,-0.00013877,0,0,0.052305,-0.028862,0,-0.0025257,0,0,0,0.0076822,-0.0012416,0.0019322,-0.89115,0.0027909,0.0078348,1.1744e-08,0.62,0.66,0
0.031693,-0.00080813,0.00769,-0.0011627,0.0019582,-0.00024477,0,0,0.05216,-0.0284,0,-0.0044548,0,0,0,0.0076968,-0.0011695,0.0019582,-1.5825,0.0028285,0.0077886,1.1745e-08,0.64,0.66,0
0.032734,-0.000977,0.0077035,-0.0010314,0.0020016,-0.00034137,0,0,0.051887,-0.027601,0,-0.0062129,0,0,0,0.0077168,-0.0010447,0.0020016,-2.2346,0.0028912,0.0077042,1.1715e-08,0.66,0.66,0
0.033768,-0.0011926,0.007719,-0.00085243,0.00206,-0.00041881,0,0,0.051497,-0.026503,0,-0.0076224,0,0,0,0.0077394,-0.00087284,0.00206,-2.7907,0.0029755,0.0075838,1.1638e-08,0.68,0.66,0
0.034794,-0.0014444,0.0077372,-0.00064131,0.0021288,-0.00046892,0,0,0.051037,-0.025208,0,-0.0085343,0,0,0,0.0077634,-0.00066747,0.0021288,-3.1934,0.0030749,0.007438,1.151e-08,0.7,0.66,0
0.03581,-0.0017198,0.0077606,-0.00041848,0.0022027,-0.00048832,0,0,0.050578,-0.023852,0,-0.0088874,0,0,0,0.0077897,-0.00044753,0.0022027,-3.4046,0.0031816,0.0072832,1.1351e-08,0.72,0.66,0
0.036817,-0.0020062,0.007792,-0.00020277,0.0022768,-0.00047928,0,0,0.050188,-0.022564,0,-0.0087228,0,0,0,0.0078206,-0.0002314,0.0022768,-3.4185,0.0032887,0.0071365,1.1193e-08,0.74,0.66,0
0.037817,-0.0022923,0.0078331,-7.2881e-06,0.0023477,-0.00044773,0,0,0.049917,-0.021431,0,-0.0081487,0,0,0,0.0078586,-3.2773e-05,0.0023477,-3.2578,0.0033912,0.007011,1.1066e-08,0.76,0.66,0
0.038814,-0.0025686,0.0078839,0.00016087,0.0024134,-0.0004009,0,0,0.049781,-0.020498,0,-0.0072963,0,0,0,0.0079047,0.00014011,0.0024134,-2.9636,0.0034861,0.0069141,1.0996e-08,0.78,0.66,0
0.039809,-0.0028283,0.0079431,0.00029916,0.0024727,-0.0003455,0,0,0.049781,-0.019779,0,-0.0062881,0,0,0,0.0079587,0.00028357,0.0024727,-2.5827,0.0035716,0.0068482,1.0992e-08,0.8,0.66,0
0.040805,-0.0030664,0.0080082,0.00040794,0.0025248,-0.00028718,0,0,0.049898,-0.019264,0,-0.0052266,0,0,0,0.008019,0.0003971,0.0025248,-2.1608,0.003647,0.006812,1.1055e-08,0.82,0.66,0
0.041805,-0.0032798,0.0080764,0.00048951,0.0025698,-0.00023033,0,0,0.05011,-0.01893,0,-0.004192,0,0,0,0.0080834,0.00048253,0.0025698,-1.7373,0.0037119,0.0068018,1.1179e-08,0.84,0.66,0
0.042809,-0.0034669,0.0081447,0.00054743,0.0026077,-0.00017818,0,0,0.050388,-0.018748,0,-0.0032428,0,0,0,0.0081489,0.00054326,0.0026077,-1.3427,0.0037666,0.0068123,1.1351e-08,0.86,0.66,0
0.04382,-0.003627,0.0082105,0.00058598,0.0026389,-0.00013275,0,0,0.050701,-0.018682,0,-0.0024161,0,0,0,0.0082128,0.00058367,0.0026389,-0.99721,0.0038118,0.0068372,1.1553e-08,0.88,0.66,0
0.044837,-0.0037605,0.0082708,0.00060964,0.0026642,-9.5039e-05,0,0,0.051021,-0.018696,0,-0.0017297,0,0,0,0.008272,0.00060847,0.0026642,-0.71062,0.0038482,0.0068704,1.1766e-08,0.9,0.66,0
0.045861,-0.0038679,0.0083236,0.00062267,0.0026839,-6.5046e-05,0,0,0.051321,-0.018757,0,-0.0011838,0,0,0,0.0083241,0.00062212,0.0026839,-0.48391,0.0038767,0.0069059,1.1971e-08,0.92,0.66,0
0.04689,-0.0039502,0.0083666,0.00062879,0.0026986,-4.2035e-05,0,0,0.051579,-0.018835,0,-0.00076503,0,0,0,0.0083668,0.00062856,0.0026986,-0.31124,0.003898,0.0069388,1.215e-08,0.94,0.66,0
0.047924,-0.0040082,0.0083984,0.00063098,0.0027088,-2.4694e-05,0,0,0.051775,-0.018908,0,-0.00044943,0,0,0,0.0083985,0.0006309,0.0027088,-0.18215,0.0039128,0.0069651,1.2289e-08,0.96,0.66,0
0.048961,-0.0040428,0.008418,0.00063143,0.0027148,-1.1326e-05,0,0,0.051899,-0.018959,0,-0.00020614,0,0,0,0.008418,0.00063141,0.0027148,-0.083341,0.0039214,0.006982,1.2376e-08,0.98,0.66,0
0.05,-0.0040542,0.0084245,0.00063143,0.0027168,-3.1447e-05,0,0,0.051941,-0.018977,0,-0.00057233,0,0,0,0.0084247,0.0006313,0.0027168,-0.2312,0.0039243,0.006988,1.2407e-08,1,0.66,0
0,0,0.008249,0.0035353,0.0035353,-0.0011355,0,0,0.042895,3.7947e-19,0,-0.020665,0,0,0,0.0085082,0.003276,0.0035353,-12.862,0.0051065,0.0051075,6.7836e-09,0,0.68,0
0.00085789,-0.0004133,0.0082322,0.00333,0.0034687,-0.0011291,0,0,0.043348,-0.0012614,0,-0.020549,0,0,0,0.0084797,0.0030825,0.0034687,-12.367,0.0050103,0.0052149,7.1492e-09,0.02,0.68,0
0.0017339,-0.0008036,0.0082986,0.0031506,0.0034348,-0.0010904,0,0,0.044261,-0.0025858,0,-0.019846,0,0,0,0.0085201,0.0029292,0.0034348,-11.48,0.0049613,0.005356,7.6547e-09,0.04,0.68,0
0.0026283,-0.0011705,0.0083628,0.002966,0.0033986,-0.0010498,0,0,0.045174,-0.003937,0,-0.019106,0,0,0,0.0085598,0.002769,0.0033986,-10.629,0.0049091,0.005503,8.1826e-09,0.06,0.68,0
0.0035409,-0.0015132,0.008422,0.0027803,0.0033607,-0.0010059,0,0,0.046058,-0.0052813,0,-0.018307,0,0,0,0.008596,0.0026063,0.0033607,-9.813,0.0048543,0.0056503,8.7108e-09,0.08,0.68,0
0.0044706,-0.0018306,0.0084739,0.0025974,0.0033214,-0.00095801,0,0,0.046888,-0.0065884,0,-0.017436,0,0,0,0.0086261,0.0024451,0.0033214,-9.0293,0.0047975,0.0057928,9.2182e-09,0.1,0.68,0
0.0054164,-0.0021215,0.0085164,0.0024203,0.003281,-0.00090564,0,0,0.047642,-0.0078323,0,-0.016483,0,0,0,0.0086481,0.0022886,0.003281,-8.2739,0.0047393,0.0059259,9.6853e-09,0.12,0.68,0
0.0063763,-0.0023845,0.008548,0.0022517,0.0032399,-0.00084853,0,0,0.048303,-0.0089924,0,-0.015443,0,0,0,0.0086603,0.0021394,0.0032399,-7.5423,0.0046799,0.0060463,1.0096e-08,0.14,0.68,0
0.0073485,-0.0026181,0.0085673,0.0020933,0.0031982,-0.00078662,0,0,0.048859,-0.010054,0,-0.014316,0,0,0,0.0086616,0.0019991,0.0031982,-6.8293,0.0046196,0.0061512,1.0439e-08,0.16,0.68,0
0.0083307,-0.002821,0.0085737,0.001946,0.0031559,-0.00071996,0,0,0.049302,-0.01101,0,-0.013103,0,0,0,0.0086511,0.0018687,0.0031559,-6.1287,0.0045586,0.0062391,1.0706e-08,0.18,0.68,0
0.0093206,-0.0029918,0.0085669,0.0018098,0.003113,-0.00064858,0,0,0.049631,-0.011859,0,-0.011804,0,0,0,0.0086286,0.0017481,0.003113,-5.4334,0.0044966,0.0063098,1.0895e-08,0.2,0.68,0
0.010316,-0.0031292,0.0085471,0.0016838,0.0030693,-0.00057249,0,0,0.049848,-0.012608,0,-0.010419,0,0,0,0.0085945,0.0016364,0.0030693,-4.7356,0.0044334,0.0063639,1.1008e-08,0.22,0.68,0
0.011314,-0.0032321,0.008515,0.0015663,0.0030244,-0.00049165,0,0,0.049964,-0.013268,0,-0.008948,0,0,0,0.0085496,0.0015317,0.0030244,-4.0272,0.0043686,0.0064034,1.1054e-08,0.24,0.68,0
0.012315,-0.0032994,0.0084718,0.0014549,0.002978,-0.00040606,0,0,0.049993,-0.01386,0,-0.0073902,0,0,0,0.0084952,0.0014315,0.002978,-3.3009,0.0043016,0.0064314,1.1045e-08,0.26,0.68,0
0.013314,-0.0033303,0.0084191,0.0013463,0.0029296,-0.00031581,0,0,0.049954,-0.014408,0,-0.0057478,0,0,0,0.0084331,0.0013322,0.0029296,-2.5516,0.0042316,0.0064523,1.0998e-08,0.28,0.68,0
0.014313,-0.0033245,0.0083589,0.0012366,0.0028786,-0.0002213,0,0,0.04987,-0.014943,0,-0.0040277,0,0,0,0.0083658,0.0012297,0.0028786,-1.778,0.004158,0.0064712,1.093e-08,0.3,0.68,0
0.015309,-0.0032817,0.0082938,0.0011215,0.0028246,-0.00012334,0,0,0.04977,-0.015498,0,-0.0022448,0,0,0,0.0082959,0.0011194,0.0028246,-0.98491,0.00408,0.0064941,1.0864e-08,0.32,0.68,0
0.016303,-0.0032026,0.0082264,0.00099669,0.0027669,-2.3369e-05,0,0,0.049681,-0.016109,0,-0.00042532,0,0,0,0.0082265,0.00099662,0.0027669,-0.1852,0.0039967,0.0065273,1.082e-08,0.34,0.68,0
0.017296,-0.0030884,0.0081596,0.00085786,0.0027052,7.6392e-05,0,0,0.049635,-0.016811,0,0.0013903,0,0,0,0.0081604,0.00085706,0.0027052,0.59935,0.0039076,0.006577,1.0815e-08,0.36,0.68,0
0.018289,-0.0029417,0.0080963,0.00070142,0.0026393,0.00017283,0,0,0.049659,-0.017635,0,0.0031456,0,0,0,0.0081003,0.00069738,0.0026393,1.3381,0.0038123,0.0066482,1.0864e-08,0.38,0.68,0
0.019283,-0.0027662,0.0080392,0.00052492,0.0025692,0.00026187,0,0,0.049777,-0.018603,0,0.0047661,0,0,0,0.0080483,0.00051581,0.0025692,1.9935,0.0037111,0.0067445,1.0972e-08,0.4,0.68,0
0.02028,-0.0025672,0.0079905,0.00032772,0.0024955,0.0003385,0,0,0.050005,-0.019727,0,0.0061608,0,0,0,0.0080054,0.00031279,0.0024955,2.5245,0.0036046,0.0068666,1.114e-08,0.42,0.68,0
0.021283,-0.0023516,0.0079514,0.00011181,0.002419,0.00039702,0,0,0.050345,-0.020995,0,0.0072258,0,0,0,0.0079715,9.1759e-05,0.002419,2.8918,0.0034941,0.007012,1.1356e-08,0.44,0.68,0
0.022294,-0.0021284,0.007922,-0.00011723,0.0023414,0.00043172,0,0,0.050783,-0.022374,0,0.0078573,0,0,0,0.0079451,-0.00014035,0.0023414,3.0651,0.0033821,0.0071741,1.1597e-08,0.46,0.68,0
0.023314,-0.0019078,0.0079008,-0.00034977,0.0022653,0.00043803,0,0,0.051283,-0.023797,0,0.0079722,0,0,0,0.007924,-0.00037296,0.0022653,3.0305,0.0032721,0.0073424,1.1837e-08,0.48,0.68,0
0.024345,-0.0017011,0.0078857,-0.00057273,0.0021939,0.00041399,0,0,0.051795,-0.025176,0,0.0075346,0,0,0,0.0079059,-0.00059294,0.0021939,2.7954,0.0031689,0.0075041,1.2047e-08,0.5,0.68,0
0.025386,-0.0015196,0.0078741,-0.00077199,0.0021306,0.00036108,0,0,0.052266,-0.026414,0,0.0065716,0,0,0,0.0078892,-0.00078705,0.0021306,2.3872,0.0030776,0.0076469,1.2209e-08,0.52,0.68,0
0.026436,-0.0013733,0.0078645,-0.00093558,0.0020787,0.000284,0,0,0.052651,-0.02743,0,0.0051687,0,0,0,0.0078737,-0.00094473,0.0020787,1.8465,0.0030026,0.0077617,1.2317e-08,0.54,0.68,0
0.027492,-0.0012706,0.0078562,-0.0010558,0.0020401,0.00018911,0,0,0.052926,-0.028173,0,0.0034419,0,0,0,0.0078602,-0.0010598,0.0020401,1.2151,0.0029468,0.0078438,1.2376e-08,0.56,0.68,0
0.028553,-0.0012171,0.0078492,-0.001129,0.002016,8.2769e-05,0,0,0.053082,-0.02862,0,0.0015064,0,0,0,0.0078499,-0.0011298,0.002016,0.52814,0.0029121,0.007892,1.2399e-08,0.58,0.68,0
0.029615,-0.0012163,0.0078437,-0.0011542,0.0020069,-2.9553e-05,0,0,0.053115,-0.028765,0,-0.00053786,0,0,0,0.0078438,-0.0011543,0.0020069,-0.18818,0.0028988,0.0079066,1.2395e-08,0.6,0.68,0
0.030677,-0.0012692,0.0078395,-0.0011307,0.0020126,-0.00014275,0,0,0.053024,-0.028604,0,-0.002598,0,0,0,0.0078417,-0.001133,0.0020126,-0.91146,0.0029071,0.0078873,1.2365e-08,0.62,0.68,0
0.031736,-0.0013742,0.0078357,-0.0010589,0.002033,-0.00025105,0,0,0.052804,-0.028137,0,-0.0045691,0,0,0,0.0078428,-0.001066,0.002033,-1.6155,0.0029366,0.0078334,1.2303e-08,0.64,0.68,0
0.032789,-0.0015273,0.0078319,-0.00094158,0.0020671,-0.00034757,0,0,0.05246,-0.027379,0,-0.0063259,0,0,0,0.0078456,-0.00095533,0.0020671,-2.2651,0.0029858,0.0077455,1.2201e-08,0.66,0.68,0
0.033835,-0.0017219,0.0078284,-0.00078602,0.0021127,-0.00042516,0,0,0.052013,-0.026378,0,-0.0077379,0,0,0,0.0078493,-0.00080695,0.0021127,-2.8187,0.0030517,0.0076277,1.2053e-08,0.68,0.68,0
0.03487,-0.0019491,0.0078268,-0.00060428,0.0021668,-0.0004782,0,0,0.051507,-0.025217,0,-0.0087033,0,0,0,0.0078539,-0.00063132,0.0021668,-3.2359,0.0031298,0.007489,1.1864e-08,0.7,0.68,0
0.035895,-0.0021987,0.0078297,-0.00041112,0.0022256,-0.00050431,0,0,0.050998,-0.023994,0,-0.0091785,0,0,0,0.0078605,-0.00044187,0.0022256,-3.4889,0.0032147,0.0073415,1.1651e-08,0.72,0.68,0
0.03691,-0.0024603,0.0078397,-0.00022065,0.0022857,-0.00050475,0,0,0.050541,-0.022808,0,-0.0091865,0,0,0,0.0078711,-0.00025214,0.0022857,-3.5694,0.0033016,0.0071981,1.1438e-08,0.74,0.68,0
0.037917,-0.0027242,0.0078584,-4.3874e-05,0.0023444,-0.00048361,0,0,0.050178,-0.021733,0,-0.0088017,0,0,0,0.0078879,-7.336e-05,0.0023444,-3.4891,0.0033863,0.0070696,1.1251e-08,0.76,0.68,0
0.038917,-0.0029819,0.0078867,0.00011223,0.0023997,-0.00044636,0,0,0.049932,-0.020816,0,-0.0081237,0,0,0,0.0079122,8.6692e-05,0.0023997,-3.2752,0.0034662,0.0069634,1.1111e-08,0.78,0.68,0
0.039914,-0.0032269,0.0079236,0.00024427,0.0024504,-0.00039864,0,0,0.049806,-0.020075,0,-0.0072552,0,0,0,0.0079442,0.00022363,0.0024504,-2.9636,0.0035394,0.0068829,1.1029e-08,0.8,0.68,0
0.040909,-0.0034541,0.0079674,0.00035155,0.0024957,-0.0003455,0,0,0.049793,-0.019512,0,-0.0062882,0,0,0,0.007983,0.00033591,0.0024957,-2.5922,0.0036049,0.0068284,1.1007e-08,0.82,0.68,0
0.041905,-0.00366,0.0080159,0.00043529,0.0025354,-0.00029111,0,0,0.049873,-0.01911,0,-0.0052982,0,0,0,0.008027,0.00042413,0.0025354,-2.196,0.0036622,0.0067978,1.1042e-08,0.84,0.68,0
0.042904,-0.0038425,0.0080664,0.00049798,0.0025693,-0.00023859,0,0,0.050023,-0.018849,0,-0.0043424,0,0,0,0.0080739,0.00049047,0.0025693,-1.8039,0.0037112,0.0067871,1.1125e-08,0.86,0.68,0
0.043907,-0.0040004,0.0081163,0.00054284,0.0025978,-0.00019009,0,0,0.050219,-0.0187,0,-0.0034596,0,0,0,0.0081211,0.00053807,0.0025978,-1.4369,0.0037523,0.0067916,1.1241e-08,0.88,0.68,0
0.044913,-0.0041332,0.0081633,0.00057337,0.002621,-0.00014679,0,0,0.050435,-0.018633,0,-0.0026717,0,0,0,0.0081661,0.00057053,0.002621,-1.1076,0.0037859,0.0068061,1.1375e-08,0.9,0.68,0
0.045924,-0.0042411,0.0082049,0.00059301,0.0026394,-0.00010907,0,0,0.050646,-0.018622,0,-0.001985,0,0,0,0.0082064,0.00059145,0.0026394,-0.82073,0.0038124,0.0068255,1.1511e-08,0.92,0.68,0
0.046939,-0.0043243,0.0082393,0.00060485,0.0026532,-7.6568e-05,0,0,0.050833,-0.01864,0,-0.0013935,0,0,0,0.00824,0.00060409,0.0026532,-0.57456,0.0038324,0.0068454,1.1634e-08,0.94,0.68,0
0.047957,-0.0043833,0.0082649,0.00061143,0.0026629,-4.8434e-05,0,0,0.050978,-0.018669,0,-0.0008815,0,0,0,0.0082652,0.00061112,0.0026629,-0.36257,0.0038464,0.0068623,1.1731e-08,0.96,0.68,0
0.048978,-0.0044185,0.0082808,0.00061461,0.0026686,-2.341e-05,0,0,0.051071,-0.018691,0,-0.00042607,0,0,0,0.0082808,0.00061454,0.0026686,-0.17496,0.0038547,0.0068734,1.1794e-08,0.98,0.68,0
0.05,-0.0044302,0.0082861,0.00061554,0.0026705,-3.2159e-05,0,0,0.051102,-0.0187,0,-0.0005853,0,0,0,0.0082863,0.0006154,0.0026705,-0.24021,0.0038574,0.0068776,1.1816e-08,1,0.68,0
0,0,0.0081653,0.0034994,0.0034994,-0.0012047,0,0,0.042459,1.1384e-18,0,-0.021926,0,0,0,0.008458,0.0032067,0.0034994,-13.656,0.0050547,0.0051112,6.7822e-09,0,0.7,0
0.00084919,-0.00043852,0.0081486,0.0032926,0.0034324,-0.0011975,0,0,0.042917,-0.0012716,0,-0.021794,0,0,0,0.0084278,0.0030134,0.0034324,-13.126,0.0049578,0.0052176,7.1366e-09,0.02,0.7,0
0.0017167,-0.0008554,0.0082158,0.0031103,0.0033978,-0.0011579,0,0,0.043843,-0.0026163,0,-0.021074,0,0,0,0.0084661,0.00286,0.0033978,-12.2,0.004908,0.0053575,7.6301e-09,0.04,0.7,0
0.0026029,-0.0012495,0.0082808,0.0029215,0.0033607,-0.0011136,0,0,0.044773,-0.0039964,0,-0.020267,0,0,0,0.008503,0.0026994,0.0033607,-11.283,0.0048544,0.0055028,8.1429e-09,0.06,0.7,0
0.0035076,-0.0016193,0.008341,0.0027309,0.0033216,-0.0010634,0,0,0.045677,-0.0053753,0,-0.019354,0,0,0,0.0085358,0.0025361,0.0033216,-10.381,0.0047978,0.0056481,8.6537e-09,0.08,0.7,0
0.00443,-0.0019632,0.0083939,0.0025425,0.0032809,-0.0010069,0,0,0.046528,-0.0067198,0,-0.018326,0,0,0,0.0085623,0.002374,0.0032809,-9.4957,0.0047391,0.0057883,9.1419e-09,0.1,0.7,0
0.0053687,-0.0022793,0.0084373,0.0023599,0.0032392,-0.00094404,0,0,0.047303,-0.0080013,0,-0.017181,0,0,0,0.0085806,0.0022166,0.0032392,-8.6292,0.0046788,0.0059193,9.5894e-09,0.12,0.7,0
0.0063221,-0.0025658,0.0084697,0.002186,0.0031967,-0.00087501,0,0,0.047985,-0.0091978,0,-0.015925,0,0,0,0.0085893,0.0020664,0.0031967,-7.7812,0.0046175,0.0060376,9.9815e-09,0.14,0.7,0
0.0072881,-0.002821,0.00849,0.0020225,0.0031538,-0.00080029,0,0,0.04856,-0.010294,0,-0.014565,0,0,0,0.0085876,0.001925,0.0031538,-6.9502,0.0045554,0.0061411,1.0308e-08,0.16,0.7,0
0.0082645,-0.0030433,0.0084977,0.0018705,0.0031105,-0.00072044,0,0,0.049024,-0.011283,0,-0.013112,0,0,0,0.0085751,0.0017931,0.0031105,-6.1332,0.0044929,0.0062287,1.0564e-08,0.18,0.7,0
0.0092491,-0.0032314,0.0084927,0.0017299,0.0030668,-0.00063601,0,0,0.049376,-0.012165,0,-0.011575,0,0,0,0.0085519,0.0016706,0.0030668,-5.3262,0.0044298,0.0063004,1.0749e-08,0.2,0.7,0
0.01024,-0.0033842,0.0084755,0.0015998,0.0030226,-0.0005475,0,0,0.049622,-0.012948,0,-0.0099645,0,0,0,0.0085188,0.0015564,0.0030226,-4.5243,0.004366,0.0063574,1.0868e-08,0.22,0.7,0
0.011234,-0.0035007,0.0084473,0.0014783,0.0029777,-0.00045535,0,0,0.049774,-0.013644,0,-0.0082873,0,0,0,0.0084769,0.0014487,0.0029777,-3.7225,0.0043011,0.0064022,1.093e-08,0.24,0.7,0
0.012231,-0.0035803,0.0084094,0.001363,0.0029317,-0.00035997,0,0,0.049847,-0.014275,0,-0.0065515,0,0,0,0.0084278,0.0013447,0.0029317,-2.9169,0.0042347,0.006438,1.0948e-08,0.26,0.7,0
0.013228,-0.0036227,0.0083637,0.001251,0.0028844,-0.0002619,0,0,0.049862,-0.014864,0,-0.0047667,0,0,0,0.0083734,0.0012413,0.0028844,-2.1059,0.0041664,0.006469,1.0938e-08,0.28,0.7,0
0.014225,-0.003628,0.0083124,0.0011385,0.0028353,-0.00016188,0,0,0.049842,-0.015441,0,-0.0029461,0,0,0,0.0083161,0.0011348,0.0028353,-1.292,0.0040954,0.0065001,1.0918e-08,0.3,0.7,0
0.015222,-0.0035968,0.0082579,0.0010218,0.0027839,-6.0995e-05,0,0,0.049814,-0.016036,0,-0.0011101,0,0,0,0.0082584,0.0010213,0.0027839,-0.48291,0.0040212,0.0065366,1.0905e-08,0.32,0.7,0
0.016217,-0.0035303,0.0082028,0.0008971,0.00273,3.9113e-05,0,0,0.049803,-0.016679,0,0.00071186,0,0,0,0.008203,0.00089689,0.00273,0.30674,0.0039433,0.0065839,1.0917e-08,0.34,0.7,0
0.017214,-0.0034306,0.0081498,0.00076099,0.0026732,0.00013618,0,0,0.049837,-0.017401,0,0.0024785,0,0,0,0.0081523,0.00075849,0.0026732,1.0555,0.0038613,0.0066466,1.0968e-08,0.36,0.7,0
0.018211,-0.0033005,0.0081013,0.0006107,0.0026136,0.00022722,0,0,0.049938,-0.018226,0,0.0041355,0,0,0,0.0081082,0.00060381,0.0026136,1.7359,0.0037752,0.0067285,1.1068e-08,0.38,0.7,0
0.019211,-0.0031442,0.0080596,0.00044463,0.0025513,0.00030852,0,0,0.050126,-0.01917,0,0.005615,0,0,0,0.0080721,0.00043215,0.0025513,2.3163,0.0036852,0.0068315,1.122e-08,0.4,0.7,0
0.020216,-0.0029672,0.0080262,0.0002629,0.0024867,0.00037574,0,0,0.050409,-0.020237,0,0.0068384,0,0,0,0.0080443,0.00024476,0.0024867,2.7645,0.0035919,0.0069551,1.142e-08,0.42,0.7,0
0.021227,-0.0027761,0.0080017,6.7901e-05,0.0024209,0.00042426,0,0,0.050786,-0.021412,0,0.0077215,0,0,0,0.0080244,4.5278e-05,0.0024209,3.0523,0.0034968,0.0070961,1.1658e-08,0.44,0.7,0
0.022247,-0.0025792,0.0079858,-0.00013523,0.0023552,0.00044976,0,0,0.051239,-0.022663,0,0.0081857,0,0,0,0.0080107,-0.00016007,0.0023552,3.1603,0.0034019,0.0072482,1.1915e-08,0.46,0.7,0
0.023277,-0.0023856,0.007977,-0.00033857,0.0022915,0.00044906,0,0,0.051738,-0.023934,0,0.0081728,0,0,0,0.0080012,-0.00036275,0.0022915,3.0821,0.00331,0.0074028,1.2167e-08,0.48,0.7,0
0.024317,-0.0022049,0.0079732,-0.0005321,0.0022323,0.00042091,0,0,0.052242,-0.025156,0,0.0076606,0,0,0,0.007994,-0.00055287,0.0022323,2.8263,0.0032245,0.0075499,1.2393e-08,0.5,0.7,0
0.025367,-0.0020467,0.0079719,-0.00070514,0.00218,0.00036657,0,0,0.052706,-0.026255,0,0.0066715,0,0,0,0.0079873,-0.0007206,0.00218,2.4148,0.0031489,0.00768,1.2577e-08,0.52,0.7,0
0.026425,-0.0019198,0.0079709,-0.00084824,0.0021368,0.00028956,0,0,0.053091,-0.027164,0,0.00527,0,0,0,0.0079805,-0.00085774,0.0021368,1.8785,0.0030865,0.0077855,1.2711e-08,0.54,0.7,0
0.02749,-0.0018312,0.007969,-0.00095441,0.0021044,0.00019499,0,0,0.053368,-0.027835,0,0.0035487,0,0,0,0.0079733,-0.00095867,0.0021044,1.2512,0.0030397,0.0078615,1.2792e-08,0.56,0.7,0
0.02856,-0.0017863,0.0079652,-0.0010194,0.0020837,8.8566e-05,0,0,0.053521,-0.028238,0,0.0016119,0,0,0,0.007966,-0.0010203,0.0020837,0.56473,0.0030098,0.0079054,1.2826e-08,0.58,0.7,0
0.029631,-0.0017882,0.0079589,-0.0010412,0.0020753,-2.3895e-05,0,0,0.053541,-0.028361,0,-0.0004349,0,0,0,0.007959,-0.0010413,0.0020753,-0.15212,0.0029977,0.0079163,1.2815e-08,0.6,0.7,0
0.030702,-0.0018378,0.0079501,-0.0010195,0.0020792,-0.00013658,0,0,0.053425,-0.028198,0,-0.0024858,0,0,0,0.0079522,-0.0010216,0.0020792,-0.87219,0.0030033,0.0078941,1.2762e-08,0.62,0.7,0
0.031768,-0.0019336,0.0079385,-0.00095555,0.0020949,-0.00024347,0,0,0.053177,-0.027759,0,-0.0044311,0,0,0,0.0079452,-0.00096221,0.0020949,-1.5669,0.0030259,0.0078394,1.2665e-08,0.64,0.7,0
0.032829,-0.0020722,0.0079247,-0.00085317,0.0021215,-0.00033839,0,0,0.05281,-0.027069,0,-0.0061587,0,0,0,0.0079377,-0.0008662,0.0021215,-2.2044,0.0030643,0.0077545,1.2523e-08,0.66,0.7,0
0.033881,-0.0022478,0.0079099,-0.0007191,0.0021572,-0.00041566,0,0,0.052349,-0.026174,0,-0.0075651,0,0,0,0.0079298,-0.00073907,0.0021572,-2.7515,0.003116,0.007644,1.2337e-08,0.68,0.7,0
0.034923,-0.0024531,0.0078959,-0.00056293,0.0021999,-0.00047106,0,0,0.051834,-0.025142,0,-0.0085733,0,0,0,0.0079221,-0.00058908,0.0021999,-3.1776,0.0031776,0.0075153,1.2115e-08,0.7,0.7,0
0.035954,-0.0026796,0.0078853,-0.00039584,0.0022468,-0.00050268,0,0,0.05131,-0.024049,0,-0.0091488,0,0,0,0.0079157,-0.00042624,0.0022468,-3.461,0.0032454,0.007378,1.1873e-08,0.72,0.7,0
0.036975,-0.0029185,0.0078806,-0.00022872,0.0022955,-0.0005112,0,0,0.050824,-0.022971,0,-0.0093039,0,0,0,0.0079127,-0.00026082,0.0022955,-3.5929,0.0033158,0.007242,1.163e-08,0.74,0.7,0
0.037987,-0.0031616,0.0078833,-7.0589e-05,0.0023438,-0.00049943,0,0,0.05041,-0.021971,0,-0.0090896,0,0,0,0.0079146,-0.00010182,0.0023438,-3.5789,0.0033855,0.0071161,1.1408e-08,0.76,0.7,0
0.038991,-0.0034013,0.0078946,7.2194e-05,0.00239,-0.00047145,0,0,0.050091,-0.021092,0,-0.0085804,0,0,0,0.0079229,4.3882e-05,0.00239,-3.4366,0.0034523,0.007007,1.1223e-08,0.78,0.7,0
0.03999,-0.0036313,0.0079139,0.00019596,0.002433,-0.00043181,0,0,0.049877,-0.020357,0,-0.0078589,0,0,0,0.007938,0.00017188,0.002433,-3.1923,0.0035143,0.0069185,1.1086e-08,0.8,0.7,0
0.040987,-0.0038469,0.0079404,0.00029933,0.0024719,-0.00038483,0,0,0.049763,-0.01977,0,-0.007004,0,0,0,0.0079597,0.00028,0.0024719,-2.876,0.0035705,0.0068519,1.1002e-08,0.82,0.7,0
0.041981,-0.0040443,0.0079721,0.00038265,0.0025064,-0.00033427,0,0,0.049738,-0.019326,0,-0.0060837,0,0,0,0.0079868,0.00036795,0.0025064,-2.517,0.0036204,0.0068064,1.0969e-08,0.84,0.7,0
0.042976,-0.0042208,0.0080071,0.00044748,0.0025364,-0.0002831,0,0,0.049784,-0.019009,0,-0.0051524,0,0,0,0.0080177,0.00043689,0.0025364,-2.1417,0.0036637,0.0067794,1.0981e-08,0.86,0.7,0
0.043972,-0.004375,0.008043,0.00049614,0.0025617,-0.00023347,0,0,0.04988,-0.018797,0,-0.0042491,0,0,0,0.0080502,0.00048892,0.0025617,-1.7702,0.0037003,0.0067673,1.1028e-08,0.88,0.7,0
0.044971,-0.0045058,0.0080777,0.00053129,0.0025827,-0.00018674,0,0,0.050004,-0.018668,0,-0.0033987,0,0,0,0.0080823,0.00052668,0.0025827,-1.4167,0.0037305,0.0067661,1.1096e-08,0.9,0.7,0
0.045973,-0.0046128,0.008109,0.00055566,0.0025994,-0.00014355,0,0,0.050137,-0.018598,0,-0.0026127,0,0,0,0.0081117,0.00055294,0.0025994,-1.0884,0.0037547,0.0067716,1.1175e-08,0.92,0.7,0
0.046977,-0.0046958,0.0081353,0.00057175,0.0026121,-0.00010393,0,0,0.050261,-0.018567,0,-0.0018915,0,0,0,0.0081367,0.00057032,0.0026121,-0.78706,0.0037731,0.0067802,1.125e-08,0.94,0.7,0
0.047983,-0.004755,0.0081551,0.00058164,0.002621,-6.7385e-05,0,0,0.05036,-0.018558,0,-0.0012264,0,0,0,0.0081557,0.00058104,0.002621,-0.50974,0.0037859,0.0067886,1.1312e-08,0.96,0.7,0
0.048991,-0.0047904,0.0081675,0.00058693,0.0026263,-3.31e-05,0,0,0.050424,-0.018558,0,-0.00060242,0,0,0,0.0081676,0.00058679,0.0026263,-0.25017,0.0037936,0.0067946,1.1352e-08,0.98,0.7,0
0.05,-0.0048022,0.0081716,0.00058859,0.0026281,-3.24e-05,0,0,0.050446,-0.018559,0,-0.00058968,0,0,0,0.0081718,0.00058845,0.0026281,-0.2448,0.0037961,0.006797,1.1367e-08,1,0.7,0
0,0,0.0080917,0.0034679,0.0034679,-0.0012752,0,0,0.042077,5.9631e-19,0,-0.023208,0,0,0,0.00842,0.0031395,0.0034679,-14.44,0.0050091,0.0051243,6.815e-09,0,0.72,0
0.00084153,-0.00046417,0.0080747,0.0032559,0.0033992,-0.0012671,0,0,0.042548,-0.0013039,0,-0.023061,0,0,0,0.0083876,0.0029431,0.0033992,-13.87,0.0049099,0.0052314,7.1651e-09,0.02,0.72,0
0.0017019,-0.00090825,0.0081438,0.0030677,0.0033635,-0.0012269,0,0,0.043501,-0.0026912,0,-0.022329,0,0,0,0.0084248,0.0027867,0.0033635,-12.9,0.0048583,0.005373,7.6578e-09,0.04,0.72,0
0.0025816,-0.0013303,0.0082109,0.0028719,0.0033248,-0.0011789,0,0,0.044463,-0.0041213,0,-0.021456,0,0,0,0.0084596,0.0026232,0.0033248,-11.914,0.0048026,0.0055191,8.1658e-09,0.06,0.72,0
0.0034804,-0.0017282,0.008273,0.0026737,0.003284,-0.0011223,0,0,0.0454,-0.0055539,0,-0.020427,0,0,0,0.0084896,0.0024571,0.003284,-10.923,0.0047436,0.0056645,8.6679e-09,0.08,0.72,0
0.0043976,-0.0020994,0.0083276,0.0024776,0.0032416,-0.001057,0,0,0.046283,-0.0069517,0,-0.019238,0,0,0,0.0085127,0.0022925,0.0032416,-9.9347,0.0046823,0.0058042,9.1441e-09,0.1,0.72,0
0.0053317,-0.0024415,0.0083725,0.0022879,0.0031981,-0.00098344,0,0,0.047087,-0.008283,0,-0.017899,0,0,0,0.0085275,0.0021329,0.0031981,-8.9569,0.0046195,0.0059341,9.577e-09,0.12,0.72,0
0.006281,-0.0027524,0.0084061,0.0021075,0.0031541,-0.00090235,0,0,0.047793,-0.0095237,0,-0.016423,0,0,0,0.0085328,0.0019808,0.0031541,-7.9942,0.0045559,0.0060513,9.9538e-09,0.14,0.72,0
0.0072435,-0.0030299,0.0084275,0.0019386,0.0031098,-0.00081486,0,0,0.048391,-0.010658,0,-0.01483,0,0,0,0.0085282,0.0018378,0.0031098,-7.0492,0.0044919,0.0061538,1.0266e-08,0.16,0.72,0
0.0082167,-0.0032724,0.0084363,0.0017819,0.0030655,-0.00072214,0,0,0.048874,-0.01168,0,-0.013143,0,0,0,0.0085138,0.0017045,0.0030655,-6.1228,0.0044279,0.0062411,1.0512e-08,0.18,0.72,0
0.0091984,-0.0034784,0.0084329,0.0016375,0.0030211,-0.00062531,0,0,0.049247,-0.012591,0,-0.011381,0,0,0,0.0084899,0.0015804,0.0030211,-5.214,0.0043638,0.0063137,1.0692e-08,0.2,0.72,0
0.010187,-0.0036471,0.0084181,0.0015042,0.0029767,-0.00052536,0,0,0.049517,-0.0134,0,-0.0095616,0,0,0,0.0084578,0.0014645,0.0029767,-4.3206,0.0042997,0.0063732,1.0814e-08,0.22,0.72,0
0.011179,-0.0037779,0.0083933,0.0013802,0.002932,-0.00042317,0,0,0.049697,-0.014122,0,-0.0077017,0,0,0,0.0084187,0.0013548,0.002932,-3.4406,0.0042352,0.0064223,1.0888e-08,0.24,0.72,0
0.012174,-0.0038704,0.0083601,0.001263,0.0028869,-0.00031954,0,0,0.049806,-0.014778,0,-0.0058157,0,0,0,0.0083744,0.0012486,0.0028869,-2.5728,0.00417,0.0064643,1.0927e-08,0.26,0.72,0
0.013171,-0.0039249,0.0083205,0.0011496,0.002841,-0.00021531,0,0,0.049863,-0.015392,0,-0.0039187,0,0,0,0.0083269,0.0011431,0.002841,-1.7183,0.0041037,0.0065033,1.0946e-08,0.28,0.72,0
0.014169,-0.0039421,0.0082767,0.0010368,0.0027941,-0.00011147,0,0,0.049892,-0.015991,0,-0.0020288,0,0,0,0.0082784,0.001035,0.0027941,-0.88189,0.0040358,0.0065437,1.0962e-08,0.3,0.72,0
0.015167,-0.0039231,0.0082312,0.00092105,0.0027457,-9.2913e-06,0,0,0.049918,-0.016604,0,-0.0001691,0,0,0,0.0082312,0.00092104,0.0027457,-0.072824,0.003966,0.0065901,1.0989e-08,0.32,0.72,0
0.016166,-0.0038697,0.0081864,0.00079924,0.0026957,8.9541e-05,0,0,0.049965,-0.017258,0,0.0016296,0,0,0,0.0081875,0.00079816,0.0026957,0.69436,0.0038938,0.0066469,1.1041e-08,0.34,0.72,0
0.017166,-0.0037845,0.0081445,0.00066849,0.0026439,0.00018283,0,0,0.050055,-0.017976,0,0.0033276,0,0,0,0.0081489,0.00066402,0.0026439,1.4001,0.003819,0.0067175,1.113e-08,0.36,0.72,0
0.018168,-0.0036708,0.0081076,0.0005267,0.0025903,0.00026785,0,0,0.050208,-0.018779,0,0.0048749,0,0,0,0.0081171,0.00051725,0.0025903,2.021,0.0037416,0.0068044,1.1261e-08,0.38,0.72,0
0.019174,-0.003533,0.0080776,0.00037291,0.0025351,0.00034135,0,0,0.050436,-0.019676,0,0.0062125,0,0,0,0.0080927,0.00035782,0.0025351,2.5318,0.0036619,0.0069085,1.1437e-08,0.4,0.72,0
0.020185,-0.0033766,0.0080553,0.00020768,0.0024789,0.00039973,0,0,0.050745,-0.020668,0,0.007275,0,0,0,0.0080756,0.00018737,0.0024789,2.9084,0.0035806,0.0070285,1.1651e-08,0.42,0.72,0
0.021204,-0.0032081,0.008041,3.3411e-05,0.0024223,0.00043935,0,0,0.05113,-0.021739,0,0.0079962,0,0,0,0.0080651,9.3774e-06,0.0024223,3.1311,0.0034989,0.0071609,1.1894e-08,0.44,0.72,0
0.022231,-0.0030349,0.0080342,-0.00014539,0.0023666,0.00045703,0,0,0.051574,-0.022859,0,0.0083178,0,0,0,0.0080596,-0.00017085,0.0023666,3.1881,0.0034185,0.0073003,1.2149e-08,0.46,0.72,0
0.023267,-0.0028651,0.0080332,-0.00032227,0.0023133,0.00045054,0,0,0.052051,-0.023983,0,0.0081998,0,0,0,0.0080574,-0.00034649,0.0023133,3.0776,0.0033414,0.0074396,1.2398e-08,0.48,0.72,0
0.024313,-0.0027073,0.008036,-0.00048939,0.002264,0.00041923,0,0,0.052525,-0.025056,0,0.00763,0,0,0,0.0080566,-0.00050996,0.002264,2.8085,0.0032702,0.0075708,1.2623e-08,0.5,0.72,0
0.025368,-0.0025697,0.0080403,-0.0006385,0.0022205,0.00036428,0,0,0.05296,-0.026017,0,0.0066299,0,0,0,0.0080556,-0.00065376,0.0022205,2.3993,0.0032075,0.0076864,1.281e-08,0.52,0.72,0
0.026431,-0.0024599,0.008044,-0.00076203,0.0021846,0.00028862,0,0,0.053321,-0.026814,0,0.0052529,0,0,0,0.0080535,-0.00077148,0.0021846,1.8752,0.0031555,0.0077802,1.2949e-08,0.54,0.72,0
0.027501,-0.002384,0.0080453,-0.00085402,0.0021574,0.00019655,0,0,0.05358,-0.027404,0,0.0035773,0,0,0,0.0080496,-0.00085835,0.0021574,1.2646,0.0031162,0.0078475,1.3036e-08,0.56,0.72,0
0.028574,-0.0023467,0.0080429,-0.00091043,0.0021398,9.3224e-05,0,0,0.053719,-0.027757,0,0.0016967,0,0,0,0.0080439,-0.0009114,0.0021398,0.59649,0.0030907,0.0078856,1.3071e-08,0.58,0.72,0
0.029649,-0.0023507,0.0080362,-0.00092919,0.0021321,-1.5828e-05,0,0,0.053727,-0.027858,0,-0.00028807,0,0,0,0.0080362,-0.00092922,0.0021321,-0.10115,0.0030797,0.0078933,1.3055e-08,0.6,0.72,0
0.030723,-0.0023971,0.0080248,-0.00091006,0.0021344,-0.00012489,0,0,0.053602,-0.027705,0,-0.002273,0,0,0,0.0080266,-0.0009118,0.0021344,-0.80066,0.0030831,0.0078705,1.299e-08,0.62,0.72,0
0.031793,-0.0024845,0.0080091,-0.00085463,0.0021463,-0.00022824,0,0,0.053351,-0.027309,0,-0.004154,0,0,0,0.008015,-0.00086051,0.0021463,-1.4741,0.0031003,0.0078184,1.2875e-08,0.64,0.72,0
0.032857,-0.0026101,0.0079898,-0.00076662,0.002167,-0.00032042,0,0,0.052988,-0.026696,0,-0.0058316,0,0,0,0.0080015,-0.00077833,0.002167,-2.0928,0.0031301,0.0077396,1.2714e-08,0.66,0.72,0
0.033913,-0.0027688,0.0079685,-0.00065189,0.002195,-0.00039666,0,0,0.052539,-0.025907,0,-0.0072193,0,0,0,0.0079867,-0.00067011,0.002195,-2.629,0.0031705,0.0076385,1.2512e-08,0.68,0.72,0
0.034959,-0.0029547,0.0079471,-0.00051816,0.0022287,-0.00045354,0,0,0.052038,-0.024996,0,-0.0082545,0,0,0,0.0079714,-0.00054239,0.0022287,-3.0581,0.0032192,0.0075213,1.2277e-08,0.7,0.72,0
0.035994,-0.0031607,0.007928,-0.00037413,0.0022662,-0.0004894,0,0,0.051523,-0.024027,0,-0.008907,0,0,0,0.0079568,-0.00040288,0.0022662,-3.362,0.0032733,0.0073956,1.2024e-08,0.72,0.72,0
0.03702,-0.0033792,0.0079133,-0.00022836,0.0023055,-0.00050447,0,0,0.051032,-0.023058,0,-0.0091813,0,0,0,0.0079445,-0.0002595,0.0023055,-3.5321,0.0033302,0.0072692,1.1768e-08,0.74,0.72,0
0.038036,-0.0036031,0.0079049,-8.8248e-05,0.002345,-0.00050066,0,0,0.050595,-0.022142,0,-0.009112,0,0,0,0.0079361,-0.00011949,0.002345,-3.5702,0.0033872,0.0071494,1.1527e-08,0.76,0.72,0
0.039044,-0.0038256,0.0079036,4.0642e-05,0.0023833,-0.000481,0,0,0.050235,-0.021318,0,-0.0087542,0,0,0,0.0079329,1.1327e-05,0.0023833,-3.4876,0.0034425,0.0070418,1.1315e-08,0.78,0.72,0
0.040045,-0.0040412,0.0079095,0.00015472,0.0024193,-0.00044906,0,0,0.049961,-0.020608,0,-0.0081729,0,0,0,0.0079355,0.0001288,0.0024193,-3.3031,0.0034945,0.0069505,1.1143e-08,0.8,0.72,0
0.041042,-0.0042449,0.0079222,0.00025223,0.0024523,-0.00040844,0,0,0.049776,-0.020021,0,-0.0074336,0,0,0,0.0079439,0.00023054,0.0024523,-3.0397,0.0035422,0.0068771,1.1016e-08,0.82,0.72,0
0.042036,-0.0044331,0.0079402,0.00033289,0.0024819,-0.00036241,0,0,0.049671,-0.019556,0,-0.0065959,0,0,0,0.0079575,0.00031566,0.0024819,-2.7213,0.003585,0.0068217,1.0933e-08,0.84,0.72,0
0.043029,-0.0046029,0.0079621,0.00039754,0.0025079,-0.0003137,0,0,0.049633,-0.019204,0,-0.0057093,0,0,0,0.0079751,0.00038455,0.0025079,-2.3706,0.0036225,0.0067829,1.0892e-08,0.86,0.72,0
0.044021,-0.0047523,0.0079859,0.00044774,0.0025301,-0.00026441,0,0,0.049648,-0.018949,0,-0.0048122,0,0,0,0.0079952,0.00043848,0.0025301,-2.0064,0.0036546,0.0067582,1.0884e-08,0.88,0.72,0
0.045015,-0.0048799,0.0080098,0.00048546,0.0025486,-0.00021599,0,0,0.049697,-0.018774,0,-0.003931,0,0,0,0.008016,0.00047927,0.0025486,-1.6429,0.0036813,0.0067445,1.0901e-08,0.9,0.72,0
0.046009,-0.004985,0.008032,0.00051279,0.0025635,-0.00016929,0,0,0.049764,-0.018661,0,-0.0030811,0,0,0,0.0080359,0.00050898,0.0025635,-1.2891,0.0037028,0.0067388,1.0932e-08,0.92,0.72,0
0.047005,-0.005067,0.0080511,0.00053171,0.0025748,-0.00012462,0,0,0.049834,-0.018592,0,-0.002268,0,0,0,0.0080531,0.00052965,0.0025748,-0.9492,0.0037192,0.0067379,1.0968e-08,0.94,0.72,0
0.048003,-0.0051256,0.0080656,0.00054391,0.0025828,-8.1849e-05,0,0,0.049893,-0.018554,0,-0.0014897,0,0,0,0.0080665,0.00054302,0.0025828,-0.62338,0.0037308,0.0067392,1.1001e-08,0.96,0.72,0
0.049001,-0.0051609,0.0080747,0.0005507,0.0025876,-4.0534e-05,0,0,0.049932,-0.018536,0,-0.00073773,0,0,0,0.0080749,0.00055048,0.0025876,-0.30866,0.0037377,0.0067408,1.1023e-08,0.98,0.72,0
0.05,-0.0051726,0.0080778,0.00055287,0.0025892,-3.2255e-05,0,0,0.049946,-0.018531,0,-0.00058703,0,0,0,0.0080779,0.00055273,0.0025892,-0.24558,0.00374,0.0067417,1.1032e-08,1,0.72,0
0,0,0.008029,0.003441,0.003441,-0.001348,0,0,0.041751,-5.9631e-19,0,-0.024534,0,0,0,0.0083957,0.0030742,0.003441,-15.22,0.0049703,0.0051479,6.887e-09,0,0.74,0
0.00083501,-0.00049068,0.0080115,0.0032202,0.0033695,-0.0013391,0,0,0.042242,-0.0013586,0,-0.024371,0,0,0,0.0083604,0.0028714,0.0033695,-14.602,0.0048671,0.0052576,7.239e-09,0.02,0.74,0
0.0016897,-0.00096305,0.0080836,0.003023,0.003332,-0.0012985,0,0,0.04324,-0.0028117,0,-0.023632,0,0,0,0.0083973,0.0027093,0.003332,-13.583,0.0048128,0.0054037,7.7421e-09,0.04,0.74,0
0.0025646,-0.0014143,0.0081536,0.0028171,0.0032912,-0.0012468,0,0,0.044248,-0.0043145,0,-0.022692,0,0,0,0.0084306,0.0025402,0.0032912,-12.523,0.004754,0.0055531,8.255e-09,0.06,0.74,0
0.0034596,-0.0018415,0.0082185,0.0026084,0.0032481,-0.0011836,0,0,0.045231,-0.005821,0,-0.021541,0,0,0,0.008458,0.0023689,0.0032481,-11.438,0.0046917,0.0057005,8.7562e-09,0.08,0.74,0
0.0043738,-0.0022413,0.0082753,0.0024024,0.0032033,-0.001109,0,0,0.046155,-0.0072881,0,-0.020183,0,0,0,0.0084777,0.0022,0.0032033,-10.345,0.004627,0.0058411,9.2255e-09,0.1,0.74,0
0.0053058,-0.0026106,0.0083219,0.0022039,0.0031577,-0.0010241,0,0,0.046994,-0.0086799,0,-0.018638,0,0,0,0.0084887,0.002037,0.0031577,-9.2546,0.0045611,0.0059708,9.6469e-09,0.12,0.74,0
0.0062536,-0.0029467,0.0083565,0.0020162,0.0031118,-0.00093048,0,0,0.047727,-0.0099702,0,-0.016935,0,0,0,0.0084902,0.0018824,0.0031118,-8.1788,0.0044948,0.0060869,1.0009e-08,0.14,0.74,0
0.0072149,-0.0032473,0.0083786,0.0018415,0.003066,-0.00083005,0,0,0.048344,-0.011143,0,-0.015107,0,0,0,0.0084823,0.0017377,0.003066,-7.1246,0.0044287,0.0061883,1.0306e-08,0.16,0.74,0
0.0081873,-0.0035105,0.008388,0.0016806,0.0030206,-0.00072462,0,0,0.048843,-0.012193,0,-0.013188,0,0,0,0.0084654,0.0016033,0.0030206,-6.0962,0.0043631,0.0062747,1.0538e-08,0.18,0.74,0
0.0091686,-0.0037351,0.0083854,0.0015333,0.0029756,-0.00061591,0,0,0.049229,-0.013125,0,-0.01121,0,0,0,0.0084403,0.0014784,0.0029756,-5.0957,0.0042981,0.0063472,1.071e-08,0.2,0.74,0
0.010157,-0.0039202,0.0083721,0.0013983,0.0029311,-0.0005054,0,0,0.049513,-0.013949,0,-0.0091982,0,0,0,0.0084085,0.0013618,0.0029311,-4.1235,0.0042338,0.0064078,1.083e-08,0.22,0.74,0
0.011149,-0.0040655,0.0083496,0.0012734,0.0028869,-0.00039433,0,0,0.049711,-0.014683,0,-0.0071768,0,0,0,0.0083715,0.0012515,0.0028869,-3.1798,0.00417,0.0064595,1.0909e-08,0.24,0.74,0
0.012145,-0.0041713,0.0083199,0.0011563,0.0028429,-0.0002838,0,0,0.049841,-0.015348,0,-0.0051652,0,0,0,0.0083312,0.0011451,0.0028429,-2.2652,0.0041064,0.0065055,1.096e-08,0.26,0.74,0
0.013143,-0.0042383,0.0082852,0.0010439,0.0027987,-0.00017486,0,0,0.049927,-0.015969,0,-0.0031824,0,0,0,0.0082894,0.0010397,0.0027987,-1.3825,0.0040426,0.0065498,1.0999e-08,0.28,0.74,0
0.014142,-0.0042676,0.0082475,0.00093306,0.0027542,-6.8616e-05,0,0,0.049989,-0.016572,0,-0.0012488,0,0,0,0.0082481,0.00093242,0.0027542,-0.53742,0.0039782,0.0065963,1.1038e-08,0.3,0.74,0
0.015142,-0.004261,0.0082092,0.00082081,0.002709,3.3599e-05,0,0,0.050052,-0.017183,0,0.0006115,0,0,0,0.0082094,0.00082066,0.002709,0.26055,0.003913,0.0066488,1.1091e-08,0.32,0.74,0
0.016144,-0.0042206,0.0081725,0.00070427,0.002663,0.00013016,0,0,0.050136,-0.017825,0,0.0023689,0,0,0,0.0081748,0.000702,0.002663,0.99816,0.0038466,0.0067107,1.1169e-08,0.34,0.74,0
0.017148,-0.0041496,0.0081394,0.00058109,0.0026161,0.00021905,0,0,0.050261,-0.018519,0,0.0039868,0,0,0,0.0081457,0.00057475,0.0026161,1.6587,0.0037789,0.0067846,1.128e-08,0.36,0.74,0
0.018155,-0.0040517,0.0081115,0.00044967,0.0025683,0.00029789,0,0,0.050442,-0.01928,0,0.0054215,0,0,0,0.008123,0.00043811,0.0025683,2.2231,0.0037098,0.0068721,1.1428e-08,0.38,0.74,0
0.019165,-0.0039313,0.0080901,0.00030945,0.0025199,0.00036394,0,0,0.050689,-0.020115,0,0.0066236,0,0,0,0.0081071,0.00029246,0.0025199,2.6722,0.0036398,0.006973,1.1612e-08,0.4,0.74,0
0.020182,-0.0037939,0.0080758,0.00016116,0.0024711,0.00041431,0,0,0.051003,-0.02102,0,0.0075404,0,0,0,0.0080974,0.00013953,0.0024711,2.9884,0.0035694,0.0070859,1.1826e-08,0.42,0.74,0
0.021206,-0.0036457,0.0080686,7.0541e-06,0.0024227,0.00044622,0,0,0.051378,-0.021982,0,0.0081212,0,0,0,0.0080932,-1.7569e-05,0.0024227,3.1585,0.0034994,0.0072075,1.2062e-08,0.44,0.74,0
0.022237,-0.0034936,0.0080677,-0.00014904,0.0023756,0.00045735,0,0,0.051798,-0.022974,0,0.0083237,0,0,0,0.008093,-0.00017442,0.0023756,3.1761,0.0034314,0.0073329,1.2305e-08,0.46,0.74,0
0.023277,-0.0033449,0.0080715,-0.00030189,0.0023309,0.00044625,0,0,0.05224,-0.023958,0,0.0081218,0,0,0,0.0080952,-0.0003256,0.0023309,3.042,0.0033668,0.0074563,1.2541e-08,0.48,0.74,0
0.024327,-0.0032071,0.0080781,-0.0004453,0.0022899,0.0004127,0,0,0.052673,-0.02489,0,0.0075112,0,0,0,0.0080981,-0.00046523,0.0022899,2.7656,0.0033076,0.0075715,1.2754e-08,0.5,0.74,0
0.025385,-0.0030874,0.0080855,-0.00057278,0.0022538,0.0003579,0,0,0.053068,-0.025722,0,0.0065138,0,0,0,0.0081003,-0.00058755,0.0022538,2.363,0.0032555,0.0076724,1.2931e-08,0.52,0.74,0
0.02645,-0.0029923,0.0080915,-0.00067831,0.0022239,0.00028445,0,0,0.053394,-0.02641,0,0.0051769,0,0,0,0.0081007,-0.00068753,0.0022239,1.8558,0.0032124,0.0077539,1.3065e-08,0.54,0.74,0
0.02752,-0.0029274,0.0080942,-0.00075693,0.0022012,0.00019609,0,0,0.053627,-0.026919,0,0.0035688,0,0,0,0.0080986,-0.00076127,0.0022012,1.2685,0.0031795,0.0078119,1.3149e-08,0.56,0.74,0
0.028595,-0.0028966,0.0080925,-0.00080516,0.0021862,9.7408e-05,0,0,0.053747,-0.027221,0,0.0017728,0,0,0,0.0080936,-0.00080623,0.0021862,0.62715,0.0031579,0.0078441,1.3181e-08,0.58,0.74,0
0.02967,-0.0029025,0.0080856,-0.00082115,0.0021793,-6.5219e-06,0,0,0.053747,-0.027304,0,-0.0001187,0,0,0,0.0080856,-0.00082115,0.0021793,-0.041955,0.0031479,0.0078491,1.3162e-08,0.6,0.74,0
0.030744,-0.002946,0.0080731,-0.00080472,0.0021805,-0.00011043,0,0,0.053622,-0.027166,0,-0.0020099,0,0,0,0.0080744,-0.0008061,0.0021805,-0.71258,0.0031496,0.0078269,1.309e-08,0.62,0.74,0
0.031815,-0.0030259,0.0080554,-0.00075743,0.0021894,-0.00020913,0,0,0.053381,-0.026816,0,-0.0038062,0,0,0,0.0080604,-0.00076239,0.0021894,-1.3586,0.0031625,0.0077789,1.297e-08,0.64,0.74,0
0.03288,-0.00314,0.0080335,-0.00068255,0.0022053,-0.00029779,0,0,0.053037,-0.026279,0,-0.0054198,0,0,0,0.0080437,-0.00069271,0.0022053,-1.9545,0.0031854,0.0077075,1.2804e-08,0.66,0.74,0
0.033937,-0.003284,0.0080089,-0.000585,0.0022272,-0.00037233,0,0,0.052614,-0.025591,0,-0.0067764,0,0,0,0.008025,-0.0006011,0.0022272,-2.4762,0.003217,0.0076165,1.2599e-08,0.68,0.74,0
0.034984,-0.0034529,0.0079834,-0.000471,0.0022537,-0.00042979,0,0,0.05214,-0.024795,0,-0.0078222,0,0,0,0.0080052,-0.00049279,0.0022537,-2.9028,0.0032554,0.0075113,1.2364e-08,0.7,0.74,0
0.036022,-0.0036406,0.0079591,-0.00034743,0.0022835,-0.00046864,0,0,0.051648,-0.023942,0,-0.0085292,0,0,0,0.0079855,-0.00037379,0.0022835,-3.2189,0.0032984,0.0073977,1.2112e-08,0.72,0.74,0
0.03705,-0.0038408,0.0079381,-0.00022111,0.0023151,-0.00048879,0,0,0.051169,-0.023079,0,-0.0088961,0,0,0,0.0079672,-0.00025029,0.0023151,-3.4162,0.003344,0.007282,1.1855e-08,0.74,0.74,0
0.038069,-0.0040473,0.0079218,-9.8097e-05,0.0023471,-0.0004915,0,0,0.05073,-0.022252,0,-0.0089453,0,0,0,0.0079518,-0.00012811,0.0023471,-3.4939,0.0033903,0.0071703,1.1608e-08,0.76,0.74,0
0.039079,-0.004254,0.0079115,1.6833e-05,0.0023785,-0.00047897,0,0,0.05035,-0.021491,0,-0.0087173,0,0,0,0.0079405,-1.212e-05,0.0023785,-3.4592,0.0034356,0.0070673,1.1384e-08,0.78,0.74,0
0.040083,-0.0044556,0.0079074,0.00012035,0.0024083,-0.00045397,0,0,0.050042,-0.020821,0,-0.0082622,0,0,0,0.0079338,9.3973e-05,0.0024083,-3.3252,0.0034787,0.0069768,1.1191e-08,0.8,0.74,0
0.041081,-0.0046477,0.0079094,0.00021055,0.002436,-0.00041943,0,0,0.049808,-0.020251,0,-0.0076335,0,0,0,0.0079321,0.00018777,0.002436,-3.1092,0.0035186,0.0069006,1.1035e-08,0.82,0.74,0
0.042075,-0.0048265,0.0079165,0.00028676,0.002461,-0.00037813,0,0,0.049645,-0.019785,0,-0.006882,0,0,0,0.0079352,0.00026807,0.002461,-2.8304,0.0035547,0.0068396,1.0918e-08,0.84,0.74,0
0.043067,-0.004989,0.0079276,0.00034928,0.0024831,-0.00033254,0,0,0.049545,-0.019417,0,-0.0060522,0,0,0,0.0079421,0.00033472,0.0024831,-2.5077,0.0035866,0.006793,1.0838e-08,0.86,0.74,0
0.044057,-0.005133,0.0079412,0.00039909,0.0025021,-0.00028462,0,0,0.049496,-0.019137,0,-0.0051801,0,0,0,0.007952,0.00038837,0.0025021,-2.1581,0.0036141,0.0067593,1.0789e-08,0.88,0.74,0
0.045047,-0.0052568,0.007956,0.00043757,0.0025181,-0.00023586,0,0,0.049485,-0.018933,0,-0.0042927,0,0,0,0.0079634,0.00043018,0.0025181,-1.7951,0.0036372,0.0067364,1.0766e-08,0.9,0.74,0
0.046036,-0.0053592,0.0079703,0.00046628,0.002531,-0.00018725,0,0,0.049498,-0.018789,0,-0.003408,0,0,0,0.007975,0.00046162,0.002531,-1.4286,0.0036559,0.006722,1.0761e-08,0.92,0.74,0
0.047027,-0.0054395,0.007983,0.00048675,0.0025409,-0.00013933,0,0,0.049523,-0.018693,0,-0.0025358,0,0,0,0.0079856,0.00048416,0.0025409,-1.0644,0.0036702,0.0067136,1.0766e-08,0.94,0.74,0
0.048017,-0.0054972,0.0079928,0.00050032,0.002548,-9.2261e-05,0,0,0.049549,-0.018633,0,-0.0016791,0,0,0,0.007994,0.00049919,0.002548,-0.70538,0.0036804,0.0067093,1.0774e-08,0.96,0.74,0
0.049009,-0.0055318,0.0079991,0.00050803,0.0025521,-4.5923e-05,0,0,0.049567,-0.018601,0,-0.0008358,0,0,0,0.0079994,0.00050775,0.0025521,-0.35123,0.0036864,0.0067073,1.0782e-08,0.98,0.74,0
0.05,-0.0055434,0.0080012,0.00051052,0.0025535,-3.1811e-05,0,0,0.049574,-0.018591,0,-0.00057895,0,0,0,0.0080014,0.00051039,0.0025535,-0.24331,0.0036884,0.006707,1.0786e-08,1,0.74,0
0,0,0.0079782,0.0034192,0.0034192,-0.0014245,0,0,0.041486,-1.0842e-19,0,-0.025926,0,0,0,0.0083867,0.0030107,0.0034192,-16.001,0.0049389,0.0051838,7.0046e-09,0,0.76,0
0.00082973,-0.00051851,0.0079599,0.0031859,0.0033437,-0.0014147,0,0,0.042007,-0.0014364,0,-0.025748,0,0,0,0.0083476,0.0027981,0.0033437,-15.327,0.0048298,0.0052978,7.3643e-09,0.02,0.76,0
0.0016803,-0.0010207,0.008036,0.0029761,0.0033036,-0.0013738,0,0,0.043065,-0.0029806,0,-0.025003,0,0,0,0.008385,0.0026272,0.0033036,-14.251,0.0047719,0.0054511,7.8889e-09,0.04,0.76,0
0.0025523,-0.0015029,0.00811,0.0027566,0.00326,-0.0013182,0,0,0.044135,-0.004581,0,-0.023991,0,0,0,0.008417,0.0024496,0.00326,-13.109,0.0047088,0.0056063,8.4161e-09,0.06,0.76,0
0.0034457,-0.001961,0.0081782,0.0025343,0.0032138,-0.0012476,0,0,0.045176,-0.0061828,0,-0.022706,0,0,0,0.0084417,0.0022709,0.0032138,-11.925,0.0046421,0.0057576,8.9227e-09,0.08,0.76,0
0.0043594,-0.0023909,0.0082374,0.002316,0.003166,-0.0011627,0,0,0.04615,-0.0077352,0,-0.021162,0,0,0,0.0084576,0.0020959,0.003166,-10.721,0.0045732,0.0058999,9.3884e-09,0.1,0.76,0
0.0052917,-0.0027887,0.0082853,0.0021071,0.0031177,-0.0010656,0,0,0.047025,-0.0091967,0,-0.019395,0,0,0,0.008464,0.0019285,0.0031177,-9.5164,0.0045034,0.0060295,9.798e-09,0.12,0.76,0
0.0062404,-0.0031512,0.0083204,0.0019114,0.0030695,-0.0009588,0,0,0.047783,-0.010539,0,-0.01745,0,0,0,0.0084607,0.0017711,0.0030695,-8.3288,0.0044338,0.0061442,1.0143e-08,0.14,0.76,0
0.007203,-0.0034756,0.0083421,0.0017312,0.003022,-0.000845,0,0,0.048413,-0.011746,0,-0.015379,0,0,0,0.0084484,0.0016249,0.003022,-7.1699,0.0043651,0.0062433,1.042e-08,0.16,0.76,0
0.0081769,-0.0037601,0.0083509,0.001567,0.0029753,-0.00072686,0,0,0.048917,-0.012816,0,-0.013229,0,0,0,0.0084279,0.00149,0.0029753,-6.0475,0.0042977,0.0063274,1.0633e-08,0.18,0.76,0
0.0091597,-0.0040034,0.0083478,0.0014181,0.0029298,-0.00060671,0,0,0.049304,-0.013756,0,-0.011042,0,0,0,0.0084005,0.0013654,0.0029298,-4.966,0.0042319,0.006398,1.0788e-08,0.2,0.76,0
0.010149,-0.0042051,0.0083346,0.001283,0.0028853,-0.00048644,0,0,0.049589,-0.014581,0,-0.0088532,0,0,0,0.008368,0.0012496,0.0028853,-3.9277,0.0041676,0.0064578,1.0898e-08,0.22,0.76,0
0.011143,-0.0043652,0.0083131,0.0011593,0.0028417,-0.0003676,0,0,0.049789,-0.01531,0,-0.0066903,0,0,0,0.0083319,0.0011405,0.0028417,-2.9339,0.0041047,0.0065097,1.0973e-08,0.24,0.76,0
0.012141,-0.0044843,0.0082855,0.0010444,0.002799,-0.00025145,0,0,0.049927,-0.015967,0,-0.0045763,0,0,0,0.0082942,0.0010357,0.002799,-1.9864,0.0040429,0.0065572,1.1027e-08,0.26,0.76,0
0.01314,-0.0045637,0.008254,0.00093517,0.0027568,-0.00013911,0,0,0.050025,-0.016576,0,-0.0025318,0,0,0,0.0082567,0.00093253,0.0027568,-1.0885,0.003982,0.0066038,1.1074e-08,0.28,0.76,0
0.014142,-0.004605,0.0082208,0.0008287,0.0027149,-3.1712e-05,0,0,0.050104,-0.017164,0,-0.00057715,0,0,0,0.008221,0.00082856,0.0027149,-0.24579,0.0039215,0.0066529,1.1125e-08,0.3,0.76,0
0.015144,-0.0046104,0.0081881,0.00072213,0.0026731,6.9492e-05,0,0,0.050187,-0.017753,0,0.0012648,0,0,0,0.0081887,0.00072148,0.0026731,0.53324,0.0038611,0.0067079,1.1192e-08,0.32,0.76,0
0.016149,-0.0045827,0.0081577,0.00061295,0.0026312,0.00016303,0,0,0.050291,-0.018366,0,0.0029672,0,0,0,0.0081612,0.00060943,0.0026312,1.2373,0.0038006,0.0067712,1.1283e-08,0.34,0.76,0
0.017156,-0.0045252,0.0081312,0.00049916,0.0025891,0.00024717,0,0,0.050433,-0.019019,0,0.0044984,0,0,0,0.0081392,0.00049116,0.0025891,1.8529,0.0037398,0.0068446,1.1403e-08,0.36,0.76,0
0.018166,-0.004442,0.0081101,0.00037949,0.0025469,0.00031988,0,0,0.050626,-0.019723,0,0.0058218,0,0,0,0.0081234,0.00036628,0.0025469,2.3654,0.0036788,0.0069291,1.1555e-08,0.38,0.76,0
0.019181,-0.0043376,0.0080952,0.00025363,0.0025047,0.00037898,0,0,0.050874,-0.020484,0,0.0068974,0,0,0,0.0081135,0.00023536,0.0025047,2.7605,0.0036178,0.007024,1.1737e-08,0.4,0.76,0
0.020201,-0.0042175,0.0080868,0.00012233,0.0024627,0.0004222,0,0,0.051179,-0.021298,0,0.0076841,0,0,0,0.0081091,0.00010001,0.0024627,3.026,0.0035573,0.0071277,1.1943e-08,0.42,0.76,0
0.021228,-0.0040874,0.0080845,-1.2406e-05,0.0024216,0.00044749,0,0,0.051532,-0.02215,0,0.0081444,0,0,0,0.0081092,-3.7062e-05,0.0024216,3.1538,0.0034979,0.0072372,1.2164e-08,0.44,0.76,0
0.022263,-0.0039539,0.0080875,-0.00014739,0.002382,0.00045322,0,0,0.05192,-0.023018,0,0.0082487,0,0,0,0.0081124,-0.00017226,0.002382,3.1407,0.0034407,0.0073484,1.239e-08,0.46,0.76,0
0.023305,-0.0038235,0.0080944,-0.0002784,0.0023448,0.00043853,0,0,0.052321,-0.023871,0,0.0079813,0,0,0,0.0081173,-0.0003013,0.0023448,2.99,0.0033869,0.0074564,1.2606e-08,0.48,0.76,0
0.024355,-0.0037029,0.0081032,-0.00040051,0.0023108,0.00040354,0,0,0.052711,-0.024673,0,0.0073444,0,0,0,0.0081224,-0.00041962,0.0023108,2.7108,0.0033378,0.0075563,1.2802e-08,0.5,0.76,0
0.025413,-0.0035986,0.0081122,-0.00050861,0.0022811,0.0003495,0,0,0.053063,-0.025386,0,0.0063608,0,0,0,0.0081263,-0.00052275,0.0022811,2.3178,0.0032949,0.0076431,1.2965e-08,0.52,0.76,0
0.026478,-0.0035163,0.0081192,-0.00059788,0.0022564,0.00027876,0,0,0.053352,-0.025974,0,0.0050735,0,0,0,0.0081281,-0.00060678,0.0022564,1.8298,0.0032592,0.0077128,1.3088e-08,0.54,0.76,0
0.027548,-0.0034607,0.0081227,-0.00066432,0.0022375,0.00019468,0,0,0.053555,-0.026407,0,0.0035432,0,0,0,0.008127,-0.00066863,0.0022375,1.2686,0.003232,0.007762,1.3165e-08,0.56,0.76,0
0.02862,-0.0034355,0.0081214,-0.00070504,0.0022249,0.00010132,0,0,0.053658,-0.026663,0,0.001844,0,0,0,0.0081226,-0.00070621,0.0022249,0.65758,0.0032138,0.0077885,1.3193e-08,0.58,0.76,0
0.029694,-0.0034429,0.0081145,-0.00071851,0.0022188,3.2144e-06,0,0,0.053651,-0.026729,0,5.8502e-05,0,0,0,0.0081145,-0.00071851,0.0022188,0.02085,0.0032049,0.0077913,1.3171e-08,0.6,0.76,0
0.030766,-0.0034837,0.0081018,-0.0007046,0.0022192,-9.4913e-05,0,0,0.053532,-0.026606,0,-0.0017274,0,0,0,0.0081028,-0.00070562,0.0022192,-0.61742,0.0032055,0.0077705,1.3099e-08,0.62,0.76,0
0.031835,-0.0035572,0.0080836,-0.00066467,0.0022257,-0.00018844,0,0,0.053307,-0.026302,0,-0.0034295,0,0,0,0.0080877,-0.00066873,0.0022257,-1.2334,0.0032149,0.0077271,1.298e-08,0.64,0.76,0
0.032899,-0.0036612,0.0080609,-0.00060149,0.0022378,-0.00027311,0,0,0.05299,-0.025838,0,-0.0049706,0,0,0,0.0080695,-0.00061009,0.0022378,-1.804,0.0032324,0.0076634,1.2818e-08,0.66,0.76,0
0.033955,-0.0037925,0.008035,-0.00051908,0.0022548,-0.00034537,0,0,0.0526,-0.025242,0,-0.0062858,0,0,0,0.0080489,-0.000533,0.0022548,-2.3083,0.0032569,0.0075826,1.2619e-08,0.68,0.76,0
0.035003,-0.0039465,0.0080075,-0.00042245,0.0022755,-0.00040261,0,0,0.052161,-0.024551,0,-0.0073275,0,0,0,0.0080267,-0.00044164,0.0022755,-2.7281,0.0032869,0.007489,1.2392e-08,0.7,0.76,0
0.036041,-0.0041183,0.0079804,-0.00031708,0.002299,-0.00044334,0,0,0.051701,-0.023806,0,-0.0080688,0,0,0,0.008004,-0.0003407,0.002299,-3.0498,0.0033207,0.0073874,1.2148e-08,0.72,0.76,0
0.037071,-0.0043023,0.0079553,-0.00020844,0.0023241,-0.00046725,0,0,0.051245,-0.023046,0,-0.008504,0,0,0,0.007982,-0.0002351,0.0023241,-3.2651,0.003357,0.0072829,1.1898e-08,0.74,0.76,0
0.038091,-0.0044931,0.007934,-0.00010148,0.0023497,-0.0004751,0,0,0.050816,-0.022306,0,-0.0086469,0,0,0,0.007962,-0.00012947,0.0023497,-3.372,0.0033941,0.0071803,1.1655e-08,0.76,0.76,0
0.039103,-0.0046853,0.0079173,-2.4724e-07,0.0023751,-0.00046848,0,0,0.050434,-0.021616,0,-0.0085263,0,0,0,0.0079449,-2.787e-05,0.0023751,-3.3745,0.0034307,0.0070838,1.1427e-08,0.78,0.76,0
0.040108,-0.004874,0.0079058,9.2266e-05,0.0023994,-0.00044949,0,0,0.050108,-0.020995,0,-0.0081806,0,0,0,0.0079315,6.6493e-05,0.0023994,-3.2816,0.0034658,0.0069966,1.1225e-08,0.8,0.76,0
0.041108,-0.0050549,0.0078995,0.00017417,0.0024221,-0.00042049,0,0,0.049844,-0.020456,0,-0.0076529,0,0,0,0.0079223,0.00015135,0.0024221,-3.1064,0.0034986,0.0069209,1.1052e-08,0.82,0.76,0
0.042102,-0.0052245,0.007898,0.00024459,0.0024428,-0.00038383,0,0,0.049642,-0.020004,0,-0.0069857,0,0,0,0.0079172,0.00022539,0.0024428,-2.8639,0.0035284,0.0068575,1.0912e-08,0.84,0.76,0
0.043093,-0.0053796,0.0079004,0.00030344,0.0024612,-0.00034166,0,0,0.049497,-0.019635,0,-0.0062182,0,0,0,0.0079158,0.00028811,0.0024612,-2.5699,0.003555,0.0068065,1.0805e-08,0.86,0.76,0
0.044082,-0.0055178,0.0079058,0.00035126,0.0024771,-0.00029581,0,0,0.049401,-0.019345,0,-0.0053837,0,0,0,0.0079174,0.00033969,0.0024771,-2.2389,0.0035781,0.006767,1.0727e-08,0.88,0.76,0
0.045069,-0.0056372,0.0079129,0.00038898,0.0024906,-0.00024773,0,0,0.049343,-0.019124,0,-0.0045087,0,0,0,0.007921,0.00038083,0.0024906,-1.8838,0.0035975,0.0067378,1.0674e-08,0.9,0.76,0
0.046056,-0.0057365,0.0079206,0.00041771,0.0025015,-0.0001985,0,0,0.049314,-0.018962,0,-0.0036127,0,0,0,0.0079258,0.00041246,0.0025015,-1.5145,0.0036133,0.0067171,1.0641e-08,0.92,0.76,0
0.047042,-0.0058147,0.0079278,0.00043862,0.0025099,-0.00014883,0,0,0.049303,-0.018849,0,-0.0027087,0,0,0,0.0079308,0.00043566,0.0025099,-1.138,0.0036254,0.0067031,1.0622e-08,0.94,0.76,0
0.048028,-0.005871,0.0079336,0.00045272,0.0025159,-9.9114e-05,0,0,0.049301,-0.018775,0,-0.0018039,0,0,0,0.0079349,0.00045141,0.0025159,-0.75893,0.0036341,0.0066945,1.0612e-08,0.96,0.76,0
0.049014,-0.0059049,0.0079374,0.00046084,0.0025195,-4.9508e-05,0,0,0.049303,-0.018734,0,-0.00090104,0,0,0,0.0079378,0.00046051,0.0025195,-0.37938,0.0036393,0.0066898,1.0609e-08,0.98,0.76,0
0.05,-0.0059162,0.0079387,0.00046349,0.0025207,-3.1151e-05,0,0,0.049304,-0.01872,0,-0.00056695,0,0,0,0.0079389,0.00046336,0.0025207,-0.23876,0.003641,0.0066885,1.0608e-08,1,0.76,0
0,0,0.0079406,0.0034031,0.0034031,-0.0015059,0,0,0.041291,-4.3368e-19,0,-0.027407,0,0,0,0.0083949,0.0029488,0.0034031,-16.787,0.0049156,0.0052337,7.1762e-09,0,0.78,0
0.00082582,-0.00054813,0.0079212,0.0031532,0.0033223,-0.0014952,0,0,0.041849,-0.0015386,0,-0.027213,0,0,0,0.0083513,0.0027232,0.0033223,-16.048,0.0047989,0.0053537,7.5494e-09,0.02,0.78,0
0.001674,-0.0010823,0.0080025,0.0029269,0.0032788,-0.0014539,0,0,0.042986,-0.0032027,0,-0.026462,0,0,0,0.0083895,0.0025399,0.0032788,-14.904,0.0047361,0.0055174,8.1071e-09,0.04,0.78,0
0.0025453,-0.0015976,0.0080812,0.0026896,0.0032312,-0.0013938,0,0,0.044135,-0.0049292,0,-0.025367,0,0,0,0.0084202,0.0023506,0.0032312,-13.67,0.0046673,0.0056807,8.6575e-09,0.06,0.78,0
0.0034394,-0.0020888,0.0081531,0.0024502,0.003181,-0.0013146,0,0,0.045246,-0.00665,0,-0.023926,0,0,0,0.0084415,0.0021618,0.003181,-12.376,0.0045947,0.0058373,9.1743e-09,0.08,0.78,0
0.0043551,-0.0025506,0.0082145,0.002217,0.0031294,-0.0012181,0,0,0.046274,-0.0083032,0,-0.022169,0,0,0,0.0084524,0.0019791,0.0031294,-11.053,0.0045203,0.0059817,9.6364e-09,0.1,0.78,0
0.0052903,-0.0029785,0.0082628,0.0019964,0.0030778,-0.0011073,0,0,0.047184,-0.0098407,0,-0.020152,0,0,0,0.0084527,0.0018065,0.0030778,-9.7315,0.0044457,0.0061106,1.003e-08,0.12,0.78,0
0.0062425,-0.0033683,0.0082969,0.0017925,0.0030268,-0.00098599,0,0,0.047958,-0.011232,0,-0.017945,0,0,0,0.0084431,0.0016463,0.0030268,-8.433,0.0043721,0.0062224,1.035e-08,0.14,0.78,0
0.0072086,-0.0037172,0.0083166,0.0016074,0.0029772,-0.00085815,0,0,0.048588,-0.012465,0,-0.015618,0,0,0,0.0084246,0.0014993,0.0029772,-7.1746,0.0043004,0.0063173,1.0598e-08,0.16,0.78,0
0.008186,-0.0040232,0.0083228,0.0014411,0.0029292,-0.00072721,0,0,0.049082,-0.013541,0,-0.013235,0,0,0,0.0083988,0.0013651,0.0029292,-5.9668,0.004231,0.0063967,1.0782e-08,0.18,0.78,0
0.0091719,-0.0042853,0.0083174,0.0012926,0.002883,-0.00059605,0,0,0.049453,-0.014473,0,-0.010848,0,0,0,0.0083676,0.0012423,0.002883,-4.8157,0.0041643,0.006463,1.0911e-08,0.2,0.78,0
0.010164,-0.0045034,0.0083024,0.0011595,0.0028386,-0.00046692,0,0,0.049721,-0.015279,0,-0.0084979,0,0,0,0.0083327,0.0011291,0.0028386,-3.7242,0.0041001,0.0065192,1.1e-08,0.22,0.78,0
0.011161,-0.0046779,0.0082801,0.0010392,0.0027958,-0.00034147,0,0,0.049907,-0.015985,0,-0.0062148,0,0,0,0.0082962,0.0010231,0.0027958,-2.694,0.0040384,0.0065686,1.1061e-08,0.24,0.78,0
0.01216,-0.00481,0.008253,0.00092867,0.0027545,-0.00022101,0,0,0.050037,-0.016615,0,-0.0040224,0,0,0,0.0082597,0.000922,0.0027545,-1.7268,0.0039787,0.0066146,1.1108e-08,0.26,0.78,0
0.013162,-0.0049014,0.0082234,0.00082486,0.0027145,-0.0001066,0,0,0.050131,-0.017195,0,-0.0019401,0,0,0,0.0082249,0.00082333,0.0027145,-0.8253,0.0039209,0.0066605,1.1152e-08,0.28,0.78,0
0.014166,-0.0049542,0.0081932,0.00072485,0.0026754,7.6315e-07,0,0,0.050212,-0.01775,0,1.3889e-05,0,0,0,0.0081932,0.00072485,0.0026754,0.0058547,0.0038645,0.0067092,1.1205e-08,0.3,0.78,0
0.015171,-0.0049711,0.0081645,0.00062593,0.0026371,0.0001,0,0,0.050299,-0.018302,0,0.00182,0,0,0,0.0081658,0.00062461,0.0026371,0.75986,0.0038092,0.0067634,1.1275e-08,0.32,0.78,0
0.016178,-0.0049553,0.0081388,0.00052584,0.0025994,0.00018988,0,0,0.050409,-0.018869,0,0.0034559,0,0,0,0.0081436,0.00052111,0.0025994,1.4279,0.0037547,0.0068249,1.1368e-08,0.34,0.78,0
0.017187,-0.0049104,0.0081176,0.00042284,0.0025621,0.00026899,0,0,0.050555,-0.019468,0,0.0048957,0,0,0,0.008127,0.00041345,0.0025621,1.9997,0.0037009,0.0068951,1.1489e-08,0.36,0.78,0
0.0182,-0.0048406,0.0081018,0.0003159,0.0025253,0.00033572,0,0,0.050746,-0.020106,0,0.0061101,0,0,0,0.0081163,0.00030145,0.0025253,2.4644,0.0036477,0.0069741,1.1636e-08,0.38,0.78,0
0.019217,-0.0047507,0.0080919,0.00020479,0.002489,0.00038836,0,0,0.050986,-0.020786,0,0.0070681,0,0,0,0.0081109,0.00018572,0.002489,2.8122,0.0035952,0.0070612,1.1809e-08,0.4,0.78,0
0.020239,-0.0046458,0.0080878,9.0243e-05,0.0024534,0.00042522,0,0,0.051273,-0.021505,0,0.007739,0,0,0,0.0081104,6.7698e-05,0.0024534,3.0349,0.0035438,0.0071546,1.2001e-08,0.42,0.78,0
0.021268,-0.0045317,0.0080893,-2.6059e-05,0.002419,0.00044482,0,0,0.0516,-0.02225,0,0.0080958,0,0,0,0.0081136,-5.0368e-05,0.002419,3.128,0.003494,0.0072518,1.2205e-08,0.44,0.78,0
0.022303,-0.0044143,0.0080951,-0.00014149,0.0023861,0.00044612,0,0,0.051952,-0.023001,0,0.0081193,0,0,0,0.0081192,-0.00016558,0.0023861,3.0912,0.0034466,0.0073491,1.2411e-08,0.46,0.78,0
0.023346,-0.0042997,0.008104,-0.00025265,0.0023554,0.00042867,0,0,0.052312,-0.023733,0,0.0078019,0,0,0,0.008126,-0.00027458,0.0023554,2.9289,0.0034023,0.0074426,1.2607e-08,0.48,0.78,0
0.024396,-0.004194,0.0081144,-0.00035564,0.0023276,0.00039289,0,0,0.052659,-0.024418,0,0.0071505,0,0,0,0.0081326,-0.00037382,0.0023276,2.6501,0.0033621,0.0075284,1.2783e-08,0.5,0.78,0
0.025452,-0.0041028,0.0081242,-0.00044641,0.0023034,0.00034004,0,0,0.05297,-0.025023,0,0.0061887,0,0,0,0.0081377,-0.00045988,0.0023034,2.2685,0.0033271,0.0076024,1.2931e-08,0.52,0.78,0
0.026514,-0.0040313,0.008132,-0.00052116,0.0022832,0.00027233,0,0,0.053223,-0.02552,0,0.0049563,0,0,0,0.0081405,-0.00052972,0.0022832,1.8008,0.003298,0.0076614,1.3042e-08,0.54,0.78,0
0.027581,-0.0039836,0.008136,-0.00057669,0.0022678,0.00019273,0,0,0.0534,-0.025885,0,0.0035077,0,0,0,0.0081402,-0.00058095,0.0022678,1.2666,0.0032757,0.0077026,1.3111e-08,0.56,0.78,0
0.02865,-0.0039631,0.0081351,-0.00061066,0.0022573,0.00010488,0,0,0.053488,-0.026099,0,0.0019088,0,0,0,0.0081364,-0.00061192,0.0022573,0.68695,0.0032606,0.0077243,1.3134e-08,0.58,0.78,0
0.029721,-0.0039717,0.0081287,-0.00062184,0.002252,1.2777e-05,0,0,0.053477,-0.026152,0,0.00023255,0,0,0,0.0081287,-0.00062186,0.002252,0.083663,0.003253,0.0077255,1.3111e-08,0.6,0.78,0
0.03079,-0.0040102,0.0081164,-0.00061015,0.0022519,-7.9395e-05,0,0,0.053367,-0.026044,0,-0.001445,0,0,0,0.0081171,-0.00061087,0.0022519,-0.52122,0.0032527,0.0077063,1.3042e-08,0.62,0.78,0
0.031855,-0.004078,0.0080986,-0.00057672,0.0022566,-0.00016756,0,0,0.053163,-0.025783,0,-0.0030496,0,0,0,0.0081019,-0.00057996,0.0022566,-1.1061,0.0032595,0.0076677,1.2929e-08,0.64,0.78,0
0.032916,-0.0041735,0.0080761,-0.00052383,0.0022657,-0.00024798,0,0,0.052875,-0.025385,0,-0.0045133,0,0,0,0.0080833,-0.00053097,0.0022657,-1.6503,0.0032727,0.0076115,1.2776e-08,0.66,0.78,0
0.03397,-0.0042937,0.0080501,-0.00045473,0.0022786,-0.00031752,0,0,0.052521,-0.024873,0,-0.005779,0,0,0,0.008062,-0.00046657,0.0022786,-2.1352,0.0032913,0.0075405,1.2588e-08,0.68,0.78,0
0.035017,-0.004435,0.0080221,-0.00037342,0.0022946,-0.00037384,0,0,0.05212,-0.024279,0,-0.0068039,0,0,0,0.0080387,-0.00039003,0.0022946,-2.5446,0.0033144,0.007458,1.2375e-08,0.7,0.78,0
0.036055,-0.0045929,0.0079936,-0.00028427,0.0023128,-0.00041549,0,0,0.051695,-0.023633,0,-0.0075619,0,0,0,0.0080144,-0.00030508,0.0023128,-2.8662,0.0033407,0.007368,1.2144e-08,0.72,0.78,0
0.037085,-0.0047627,0.0079663,-0.00019168,0.0023324,-0.000442,0,0,0.051269,-0.022969,0,-0.0080444,0,0,0,0.0079902,-0.00021556,0.0023324,-3.0922,0.003369,0.0072745,1.1906e-08,0.74,0.78,0
0.038106,-0.0049395,0.0079416,-9.9683e-05,0.0023526,-0.00045376,0,0,0.05086,-0.022315,0,-0.0082585,0,0,0,0.0079671,-0.00012521,0.0023526,-3.2195,0.0033981,0.0071815,1.1671e-08,0.76,0.78,0
0.039119,-0.0051186,0.0079204,-1.1677e-05,0.0023726,-0.00045188,0,0,0.050485,-0.021697,0,-0.0082242,0,0,0,0.0079461,-3.7337e-05,0.0023726,-3.25,0.0034271,0.0070925,1.1447e-08,0.78,0.78,0
0.040125,-0.0052954,0.0079035,6.9724e-05,0.002392,-0.00043795,0,0,0.050155,-0.021132,0,-0.0079707,0,0,0,0.0079279,4.5316e-05,0.002392,-3.1899,0.0034551,0.0070103,1.1242e-08,0.8,0.78,0
0.041125,-0.005466,0.007891,0.00014275,0.0024101,-0.00041386,0,0,0.049876,-0.020633,0,-0.0075322,0,0,0,0.0079131,0.00012071,0.0024101,-3.0488,0.0034813,0.006937,1.1061e-08,0.82,0.78,0
0.04212,-0.0056267,0.0078828,0.00020642,0.0024268,-0.00038154,0,0,0.04965,-0.020205,0,-0.0069441,0,0,0,0.0079017,0.0001875,0.0024268,-2.8385,0.0035053,0.0068738,1.0908e-08,0.84,0.78,0
0.043111,-0.0057744,0.0078783,0.00026043,0.0024416,-0.00034288,0,0,0.049474,-0.019849,0,-0.0062404,0,0,0,0.0078937,0.00024503,0.0024416,-2.5719,0.0035268,0.006821,1.0783e-08,0.86,0.78,0
0.044099,-0.0059068,0.0078769,0.00030501,0.0024546,-0.00029952,0,0,0.049343,-0.019561,0,-0.0054513,0,0,0,0.0078887,0.00029318,0.0024546,-2.2617,0.0035455,0.0067784,1.0685e-08,0.88,0.78,0
0.045085,-0.0060218,0.0078777,0.00034073,0.0024655,-0.00025288,0,0,0.049251,-0.019336,0,-0.0046023,0,0,0,0.0078862,0.00033225,0.0024655,-1.9195,0.0035613,0.0067452,1.061e-08,0.9,0.78,0
0.046069,-0.0061177,0.0078798,0.00036837,0.0024745,-0.00020405,0,0,0.049189,-0.019165,0,-0.0037136,0,0,0,0.0078854,0.00036283,0.0024745,-1.5549,0.0035742,0.0067203,1.0557e-08,0.92,0.78,0
0.047053,-0.0061935,0.0078825,0.00038877,0.0024814,-0.00015386,0,0,0.04915,-0.019043,0,-0.0028003,0,0,0,0.0078856,0.00038562,0.0024814,-1.1757,0.0035842,0.0067025,1.052e-08,0.94,0.78,0
0.048035,-0.0062482,0.0078849,0.00040271,0.0024863,-0.0001029,0,0,0.049127,-0.018961,0,-0.0018727,0,0,0,0.0078863,0.0004013,0.0024863,-0.78775,0.0035913,0.0066908,1.0497e-08,0.96,0.78,0
0.049018,-0.0062812,0.0078866,0.00041081,0.0024892,-5.1532e-05,0,0,0.049116,-0.018913,0,-0.00093788,0,0,0,0.0078869,0.00041045,0.0024892,-0.39492,0.0035955,0.0066841,1.0485e-08,0.98,0.78,0
0.05,-0.0062922,0.0078872,0.00041346,0.0024902,-3.0351e-05,0,0,0.049113,-0.018898,0,-0.00055238,0,0,0,0.0078873,0.00041334,0.0024902,-0.23267,0.0035969,0.0066822,1.0482e-08,1,0.78,0
0,0,0.0079182,0.0033935,0.0033935,-0.0015936,0,0,0.041175,-5.421e-19,0,-0.029003,0,0,0,0.0084231,0.0028886,0.0033935,-17.58,0.0049018,0.0053001,7.4133e-09,0,0.8,0
0.0008235,-0.00058006,0.0078974,0.0031227,0.003306,-0.0015818,0,0,0.041781,-0.0016685,0,-0.028789,0,0,0,0.0083739,0.0026461,0.003306,-16.764,0.0047753,0.0054279,7.8058e-09,0.02,0.8,0
0.0016712,-0.0011488,0.007985,0.0028747,0.0032579,-0.0015401,0,0,0.043016,-0.0034868,0,-0.02803,0,0,0,0.0084132,0.0024465,0.0032579,-15.54,0.0047059,0.0056052,8.4095e-09,0.04,0.8,0
0.0025441,-0.0017001,0.008069,0.0026146,0.0032051,-0.0014742,0,0,0.044262,-0.0053732,0,-0.026831,0,0,0,0.008442,0.0022417,0.0032051,-14.197,0.0046296,0.0057791,8.9915e-09,0.06,0.8,0
0.0034417,-0.002227,0.0081445,0.002354,0.0031496,-0.0013845,0,0,0.045454,-0.0072392,0,-0.025197,0,0,0,0.0084585,0.00204,0.0031496,-12.778,0.0045494,0.0059419,9.5206e-09,0.08,0.8,0
0.0043623,-0.002723,0.0082071,0.0021033,0.0030931,-0.0012738,0,0,0.046538,-0.0090075,0,-0.023184,0,0,0,0.0084623,0.0018481,0.0030931,-11.328,0.0044678,0.0060879,9.9745e-09,0.1,0.8,0
0.0053032,-0.0031824,0.0082543,0.0018699,0.0030373,-0.0011471,0,0,0.047475,-0.010623,0,-0.020878,0,0,0,0.0084541,0.00167,0.0030373,-9.8833,0.0043872,0.0062143,1.0343e-08,0.12,0.8,0
0.0062613,-0.0036005,0.008285,0.0016582,0.002983,-0.0010099,0,0,0.048248,-0.012055,0,-0.018379,0,0,0,0.0084355,0.0015078,0.002983,-8.4751,0.0043087,0.0063206,1.0625e-08,0.14,0.8,0
0.0072332,-0.0039742,0.0083,0.0014697,0.0029309,-0.00086714,0,0,0.048859,-0.013297,0,-0.015782,0,0,0,0.0084084,0.0013613,0.0029309,-7.1234,0.0042335,0.0064081,1.083e-08,0.16,0.8,0
0.0082156,-0.0043018,0.0083011,0.0013035,0.0028814,-0.00072336,0,0,0.04932,-0.014359,0,-0.013165,0,0,0,0.0083751,0.0012295,0.0028814,-5.8406,0.004162,0.0064795,1.097e-08,0.18,0.8,0
0.0092059,-0.0045823,0.0082908,0.0011576,0.0028345,-0.00058184,0,0,0.049652,-0.01526,0,-0.010589,0,0,0,0.008338,0.0011105,0.0028345,-4.6327,0.0040943,0.0065382,1.1061e-08,0.2,0.8,0
0.010202,-0.0048163,0.0082719,0.001029,0.0027903,-0.00044494,0,0,0.049883,-0.016028,0,-0.008098,0,0,0,0.0082991,0.0010018,0.0027903,-3.5022,0.0040304,0.0065878,1.1116e-08,0.22,0.8,0
0.011201,-0.0050046,0.008247,0.00091444,0.0027484,-0.0003143,0,0,0.050037,-0.016689,0,-0.0057202,0,0,0,0.0082605,0.000901,0.0027484,-2.4499,0.00397,0.0066316,1.1152e-08,0.24,0.8,0
0.012203,-0.0051489,0.0082188,0.00081062,0.0027088,-0.00019103,0,0,0.050141,-0.017274,0,-0.0034767,0,0,0,0.0082237,0.0008057,0.0027088,-1.4761,0.0039128,0.0066732,1.1181e-08,0.26,0.8,0
0.013207,-0.0052515,0.0081896,0.00071434,0.0026712,-7.5979e-05,0,0,0.050217,-0.017807,0,-0.0013828,0,0,0,0.0081903,0.00071356,0.0026712,-0.58228,0.0038583,0.0067155,1.1214e-08,0.28,0.8,0
0.014212,-0.005315,0.0081612,0.00062267,0.0026352,3.009e-05,0,0,0.050287,-0.018314,0,0.00054764,0,0,0,0.0081613,0.00062255,0.0026352,0.22869,0.0038063,0.006761,1.1259e-08,0.3,0.8,0
0.015218,-0.0053425,0.0081354,0.00053307,0.0026005,0.00012638,0,0,0.050367,-0.018814,0,0.0023001,0,0,0,0.0081375,0.00053097,0.0026005,0.95214,0.0037563,0.0068118,1.1324e-08,0.32,0.8,0
0.016227,-0.0053375,0.0081135,0.00044345,0.0025671,0.00021197,0,0,0.050472,-0.019325,0,0.0038579,0,0,0,0.0081194,0.00043759,0.0025671,1.5818,0.003708,0.0068692,1.1413e-08,0.34,0.8,0
0.017237,-0.0053039,0.0080965,0.00035225,0.0025346,0.00028578,0,0,0.050613,-0.01986,0,0.0052013,0,0,0,0.0081071,0.00034172,0.0025346,2.1105,0.0036611,0.006934,1.1527e-08,0.36,0.8,0
0.018251,-0.0052462,0.0080851,0.00025861,0.0025031,0.00034662,0,0,0.050796,-0.020425,0,0.0063084,0,0,0,0.0081004,0.00024328,0.0025031,2.5309,0.0036156,0.0070061,1.1666e-08,0.38,0.8,0
0.019269,-0.0051691,0.0080793,0.00016233,0.0024725,0.00039321,0,0,0.051022,-0.021022,0,0.0071564,0,0,0,0.0080988,0.00014285,0.0024725,2.8364,0.0035714,0.0070844,1.1827e-08,0.4,0.8,0
0.020292,-0.0050777,0.008079,6.4056e-05,0.0024429,0.00042435,0,0,0.051288,-0.021648,0,0.0077232,0,0,0,0.0081014,4.1651e-05,0.0024429,3.0223,0.0035287,0.0071674,1.2004e-08,0.42,0.8,0
0.021321,-0.0049774,0.0080835,-3.4829e-05,0.0024146,0.00043906,0,0,0.051587,-0.02229,0,0.0079909,0,0,0,0.0081072,-5.8505e-05,0.0024146,3.0867,0.0034878,0.0072526,1.2189e-08,0.44,0.8,0
0.022356,-0.0048739,0.0080919,-0.0001322,0.0023879,0.0004367,0,0,0.051906,-0.022933,0,0.007948,0,0,0,0.008115,-0.00015532,0.0023879,3.0311,0.0034492,0.0073371,1.2376e-08,0.46,0.8,0
0.023397,-0.0047728,0.0081026,-0.00022534,0.0023632,0.0004172,0,0,0.052229,-0.023556,0,0.0075931,0,0,0,0.0081235,-0.00024619,0.0023632,2.8608,0.0034135,0.0074176,1.2553e-08,0.48,0.8,0
0.024445,-0.0046796,0.0081142,-0.00031117,0.0023409,0.00038114,0,0,0.052537,-0.024134,0,0.0069367,0,0,0,0.0081314,-0.00032837,0.0023409,2.5848,0.0033813,0.0074908,1.2712e-08,0.5,0.8,0
0.025498,-0.0045995,0.008125,-0.00038651,0.0023216,0.00032982,0,0,0.052812,-0.024643,0,0.0060027,0,0,0,0.0081378,-0.00039927,0.0023216,2.2157,0.0033534,0.0075536,1.2845e-08,0.52,0.8,0
0.026557,-0.0045371,0.0081335,-0.00044835,0.0023055,0.00026528,0,0,0.053034,-0.02506,0,0.0048281,0,0,0,0.0081417,-0.00045655,0.0023055,1.7689,0.0033302,0.0076033,1.2945e-08,0.54,0.8,0
0.02762,-0.0044961,0.0081382,-0.00049418,0.0022932,0.00019022,0,0,0.053189,-0.025365,0,0.0034619,0,0,0,0.0081424,-0.00049837,0.0022932,1.2617,0.0033124,0.0076377,1.3007e-08,0.56,0.8,0
0.028685,-0.0044795,0.008138,-0.00052215,0.0022848,0.00010784,0,0,0.053265,-0.025543,0,0.0019626,0,0,0,0.0081394,-0.00052349,0.0022848,0.71329,0.0033002,0.0076553,1.3028e-08,0.58,0.8,0
0.02975,-0.004489,0.0081324,-0.00053126,0.0022803,2.1678e-05,0,0,0.053254,-0.025586,0,0.00039455,0,0,0,0.0081325,-0.00053132,0.0022803,0.14336,0.0032938,0.0076555,1.3006e-08,0.6,0.8,0
0.030815,-0.0045255,0.0081211,-0.00052149,0.0022799,-6.4582e-05,0,0,0.053155,-0.025492,0,-0.0011754,0,0,0,0.0081216,-0.00052197,0.0022799,-0.42811,0.0032931,0.0076383,1.2942e-08,0.62,0.8,0
0.031877,-0.0045885,0.0081043,-0.00049375,0.0022832,-0.00014736,0,0,0.052972,-0.02527,0,-0.002682,0,0,0,0.0081068,-0.00049628,0.0022832,-0.9816,0.0032979,0.0076044,1.2837e-08,0.64,0.8,0
0.032934,-0.0046766,0.0080827,-0.00044987,0.0022898,-0.00022338,0,0,0.052715,-0.024931,0,-0.0040655,0,0,0,0.0080885,-0.00045572,0.0022898,-1.4986,0.0033076,0.0075554,1.2696e-08,0.66,0.8,0
0.033985,-0.0047874,0.0080574,-0.00039246,0.0022995,-0.00028985,0,0,0.052397,-0.024497,0,-0.0052753,0,0,0,0.0080673,-0.00040239,0.0022995,-1.9623,0.0033215,0.0074934,1.2523e-08,0.68,0.8,0
0.03503,-0.0049177,0.0080296,-0.00032469,0.0023115,-0.00034465,0,0,0.052035,-0.023989,0,-0.0062726,0,0,0,0.0080438,-0.00033888,0.0023115,-2.3584,0.0033388,0.0074213,1.2325e-08,0.7,0.8,0
0.036067,-0.0050637,0.0080007,-0.00025003,0.0023252,-0.0003864,0,0,0.051647,-0.023435,0,-0.0070324,0,0,0,0.0080188,-0.00026809,0.0023252,-2.6755,0.0033586,0.0073421,1.211e-08,0.72,0.8,0
0.037095,-0.0052211,0.0079722,-0.00017201,0.0023401,-0.0004145,0,0,0.051253,-0.02286,0,-0.0075439,0,0,0,0.0079933,-0.00019305,0.0023401,-2.9061,0.0033801,0.0072592,1.1887e-08,0.74,0.8,0
0.038117,-0.0053857,0.0079453,-9.3889e-05,0.0023554,-0.00042909,0,0,0.050868,-0.022289,0,-0.0078094,0,0,0,0.0079682,-0.00011673,0.0023554,-3.0466,0.0034023,0.0071757,1.1662e-08,0.76,0.8,0
0.03913,-0.0055532,0.0079211,-1.8499e-05,0.0023708,-0.00043089,0,0,0.050508,-0.021742,0,-0.0078423,0,0,0,0.0079444,-4.1816e-05,0.0023708,-3.0974,0.0034244,0.0070945,1.1446e-08,0.78,0.8,0
0.040137,-0.0057193,0.0079001,5.1926e-05,0.0023856,-0.00042113,0,0,0.050182,-0.021237,0,-0.0076645,0,0,0,0.0079227,2.9394e-05,0.0023856,-3.0627,0.0034459,0.0070183,1.1244e-08,0.8,0.8,0
0.041138,-0.0058803,0.0078829,0.00011579,0.0023996,-0.00040126,0,0,0.049898,-0.020783,0,-0.0073029,0,0,0,0.0079036,9.5114e-05,0.0023996,-2.9495,0.0034661,0.006949,1.1061e-08,0.82,0.8,0
0.042133,-0.0060327,0.0078694,0.00017211,0.0024125,-0.00037291,0,0,0.049658,-0.020387,0,-0.006787,0,0,0,0.0078874,0.00015409,0.0024125,-2.7672,0.0034847,0.0068877,1.0901e-08,0.84,0.8,0
0.043124,-0.0061735,0.0078594,0.00022047,0.0024239,-0.00033769,0,0,0.049462,-0.020052,0,-0.006146,0,0,0,0.0078743,0.00020557,0.0024239,-2.5263,0.0035013,0.0068351,1.0765e-08,0.86,0.8,0
0.044111,-0.0063002,0.0078524,0.00026087,0.002434,-0.00029708,0,0,0.049308,-0.019775,0,-0.0054069,0,0,0,0.007864,0.00024926,0.002434,-2.2376,0.0035158,0.0067913,1.0654e-08,0.88,0.8,0
0.045096,-0.0064107,0.007848,0.00029365,0.0024425,-0.00025241,0,0,0.04919,-0.019554,0,-0.0045938,0,0,0,0.0078564,0.00028523,0.0024425,-1.9115,0.0035281,0.006756,1.0565e-08,0.9,0.8,0
0.046079,-0.0065032,0.0078455,0.00031932,0.0024494,-0.00020478,0,0,0.049104,-0.019384,0,-0.003727,0,0,0,0.007851,0.00031375,0.0024494,-1.5574,0.0035381,0.0067286,1.0497e-08,0.92,0.8,0
0.04706,-0.0065764,0.0078442,0.00033847,0.0024548,-0.0001551,0,0,0.049044,-0.019259,0,-0.0028228,0,0,0,0.0078474,0.00033526,0.0024548,-1.1833,0.0035458,0.0067084,1.0447e-08,0.94,0.8,0
0.048041,-0.0066294,0.0078438,0.00035167,0.0024586,-0.00010406,0,0,0.049005,-0.019173,0,-0.0018939,0,0,0,0.0078452,0.00035023,0.0024586,-0.7956,0.0035514,0.0066946,1.0414e-08,0.96,0.8,0
0.049021,-0.0066615,0.0078437,0.00035939,0.0024609,-5.2217e-05,0,0,0.048983,-0.019124,0,-0.00095036,0,0,0,0.007844,0.00035903,0.0024609,-0.39972,0.0035547,0.0066866,1.0395e-08,0.98,0.8,0
0.05,-0.0066722,0.0078437,0.00036193,0.0024617,-2.9474e-05,0,0,0.048976,-0.019108,0,-0.00053642,0,0,0,0.0078438,0.00036181,0.0024617,-0.22571,0.0035558,0.0066842,1.039e-08,1,0.8,0
0,0,0.0079142,0.0033918,0.0033918,-0.0016892,0,0,0.041154,8.6736e-19,0,-0.030744,0,0,0,0.0084755,0.0028305,0.0033918,-18.381,0.0048992,0.0053863,7.7329e-09,0,0.82,0
0.00082307,-0.00061487,0.0078914,0.0030945,0.0032958,-0.0016761,0,0,0.04182,-0.0018317,0,-0.030505,0,0,0,0.008419,0.0025669,0.0032958,-17.473,0.0047606,0.0055239,8.151e-09,0.02,0.82,0
0.0016728,-0.0012217,0.0079863,0.0028186,0.0032415,-0.0016334,0,0,0.043178,-0.0038482,0,-0.029727,0,0,0,0.0084593,0.0023456,0.0032415,-16.149,0.0046821,0.0057186,8.8156e-09,0.04,0.82,0
0.0025502,-0.0018125,0.0080762,0.0025293,0.0031816,-0.0015597,0,0,0.04454,-0.0059363,0,-0.028386,0,0,0,0.0084846,0.0021208,0.0031816,-14.676,0.0045957,0.0059053,9.4365e-09,0.06,0.82,0
0.0034544,-0.0023783,0.0081545,0.0022426,0.0031191,-0.0014562,0,0,0.045822,-0.0079764,0,-0.026502,0,0,0,0.0084937,0.0019034,0.0031191,-13.113,0.0045054,0.0060744,9.975e-09,0.08,0.82,0
0.0043831,-0.002911,0.0082165,0.0019718,0.0030565,-0.001328,0,0,0.046956,-0.0098705,0,-0.024169,0,0,0,0.0084871,0.0017012,0.0030565,-11.52,0.0044149,0.0062201,1.0409e-08,0.1,0.82,0
0.0053327,-0.0034034,0.0082594,0.0017255,0.0029955,-0.0011824,0,0,0.047902,-0.011557,0,-0.021519,0,0,0,0.0084668,0.0015181,0.0029955,-9.948,0.0043268,0.0063404,1.0733e-08,0.12,0.82,0
0.0062991,-0.0038505,0.0082832,0.0015075,0.0029372,-0.0010271,0,0,0.048649,-0.01301,0,-0.018693,0,0,0,0.0084355,0.0013552,0.0029372,-8.4326,0.0042426,0.0064368,1.0958e-08,0.14,0.82,0
0.0072786,-0.0042491,0.0082898,0.001318,0.0028824,-0.0008687,0,0,0.049208,-0.014236,0,-0.01581,0,0,0,0.0083964,0.0012114,0.0028824,-6.9966,0.0041634,0.0065124,1.1099e-08,0.16,0.82,0
0.0082675,-0.0045975,0.0082823,0.0011548,0.0028311,-0.00071236,0,0,0.049606,-0.015255,0,-0.012965,0,0,0,0.0083528,0.0010843,0.0028311,-5.652,0.0040894,0.0065716,1.1178e-08,0.18,0.82,0
0.0092628,-0.0048957,0.0082642,0.0010145,0.0027836,-0.00056155,0,0,0.049873,-0.016099,0,-0.01022,0,0,0,0.0083074,0.00097126,0.0027836,-4.4031,0.0040208,0.0066188,1.1213e-08,0.2,0.82,0
0.010262,-0.0051445,0.0082389,0.00089315,0.0027396,-0.00041848,0,0,0.050043,-0.016803,0,-0.0076164,0,0,0,0.0082626,0.00086939,0.0027396,-3.2501,0.0039572,0.0066581,1.1224e-08,0.22,0.82,0
0.011265,-0.0053455,0.0082095,0.00078686,0.0026989,-0.00028445,0,0,0.050146,-0.0174,0,-0.005177,0,0,0,0.0082204,0.00077598,0.0026989,-2.1914,0.0038984,0.0066934,1.1224e-08,0.24,0.82,0
0.012268,-0.005501,0.0081788,0.00069195,0.0026612,-0.0001602,0,0,0.05021,-0.01792,0,-0.0029156,0,0,0,0.0081822,0.00068853,0.0026612,-1.2252,0.003844,0.0067279,1.1226e-08,0.26,0.82,0
0.013273,-0.0056137,0.0081489,0.0006051,0.0026262,-4.6196e-05,0,0,0.050256,-0.018392,0,-0.00084077,0,0,0,0.0081492,0.00060482,0.0026262,-0.35085,0.0037934,0.0067641,1.124e-08,0.28,0.82,0
0.014278,-0.0056867,0.0081215,0.00052341,0.0025935,5.7161e-05,0,0,0.050305,-0.018838,0,0.0010403,0,0,0,0.0081219,0.00052298,0.0025935,0.43101,0.0037461,0.0068042,1.1272e-08,0.3,0.82,0
0.015285,-0.0057237,0.008098,0.00044444,0.0025627,0.00014942,0,0,0.050371,-0.019276,0,0.0027194,0,0,0,0.0081009,0.00044153,0.0025627,1.118,0.0037017,0.0068497,1.1327e-08,0.32,0.82,0
0.016293,-0.0057283,0.0080794,0.00036627,0.0025337,0.00023,0,0,0.050466,-0.019724,0,0.004186,0,0,0,0.0080863,0.00035941,0.0025337,1.7065,0.0036598,0.0069015,1.1407e-08,0.34,0.82,0
0.017304,-0.0057047,0.0080663,0.00028751,0.0025061,0.00029818,0,0,0.050597,-0.020189,0,0.0054269,0,0,0,0.0080777,0.0002761,0.0025061,2.192,0.00362,0.0069599,1.1512e-08,0.36,0.82,0
0.018317,-0.0056576,0.0080589,0.00020739,0.0024799,0.00035313,0,0,0.050769,-0.02068,0,0.006427,0,0,0,0.0080747,0.00019154,0.0024799,2.57,0.003582,0.0070244,1.1641e-08,0.38,0.82,0
0.019335,-0.0055915,0.0080571,0.00012574,0.0024549,0.00039398,0,0,0.05098,-0.021195,0,0.0071705,0,0,0,0.0080766,0.00010622,0.0024549,2.8368,0.0035459,0.0070939,1.1789e-08,0.4,0.82,0
0.020356,-0.0055117,0.0080605,4.3077e-05,0.0024311,0.00041994,0,0,0.051228,-0.021731,0,0.0076428,0,0,0,0.0080824,2.1142e-05,0.0024311,2.9901,0.0035115,0.0071669,1.1952e-08,0.42,0.82,0
0.021384,-0.0054233,0.0080682,-3.9482e-05,0.0024086,0.00043038,0,0,0.051502,-0.022278,0,0.0078329,0,0,0,0.008091,-6.2264e-05,0.0024086,3.0301,0.0034791,0.0072412,1.2122e-08,0.44,0.82,0
0.022417,-0.0053316,0.0080792,-0.00012024,0.0023877,0.00042503,0,0,0.051792,-0.022822,0,0.0077355,0,0,0,0.0081011,-0.00014221,0.0023877,2.9594,0.0034489,0.0073143,1.2293e-08,0.46,0.82,0
0.023455,-0.005242,0.008092,-0.00019706,0.0023685,0.00040405,0,0,0.052084,-0.023346,0,0.0073536,0,0,0,0.0081117,-0.0002167,0.0023685,2.7841,0.0034212,0.0073834,1.2454e-08,0.48,0.82,0
0.0245,-0.0051594,0.0081053,-0.00026751,0.0023513,0.00036814,0,0,0.052361,-0.023831,0,0.0067002,0,0,0,0.0081215,-0.00028367,0.0023513,2.5128,0.0033964,0.0074459,1.2599e-08,0.5,0.82,0
0.02555,-0.0050886,0.0081175,-0.00032912,0.0023365,0.00031862,0,0,0.052607,-0.024257,0,0.0057989,0,0,0,0.0081295,-0.00034112,0.0023365,2.1572,0.0033749,0.0074993,1.2721e-08,0.52,0.82,0
0.026604,-0.0050337,0.0081271,-0.00037954,0.0023243,0.00025737,0,0,0.052805,-0.024605,0,0.0046842,0,0,0,0.0081348,-0.00038732,0.0023243,1.7314,0.0033573,0.0075413,1.2814e-08,0.54,0.82,0
0.027662,-0.0049983,0.0081328,-0.0004168,0.0023148,0.00018683,0,0,0.052944,-0.024858,0,0.0034002,0,0,0,0.0081369,-0.00042088,0.0023148,1.2512,0.0033436,0.0075702,1.2872e-08,0.56,0.82,0
0.028722,-0.0049848,0.0081338,-0.00043945,0.0023083,0.00010983,0,0,0.053012,-0.025005,0,0.0019988,0,0,0,0.0081352,-0.00044086,0.0023083,0.73382,0.0033342,0.0075849,1.2892e-08,0.58,0.82,0
0.029782,-0.0049951,0.0081294,-0.00044673,0.0023048,2.9493e-05,0,0,0.053004,-0.025039,0,0.00053678,0,0,0,0.0081295,-0.00044683,0.0023048,0.19704,0.0033292,0.0075846,1.2874e-08,0.6,0.82,0
0.030842,-0.0050299,0.0081194,-0.00043862,0.0023042,-5.095e-05,0,0,0.052918,-0.02496,0,-0.00092729,0,0,0,0.0081197,-0.00043892,0.0023042,-0.34109,0.0033283,0.0075695,1.2817e-08,0.62,0.82,0
0.031899,-0.0050888,0.008104,-0.00041584,0.0023064,-0.00012836,0,0,0.052758,-0.024773,0,-0.0023361,0,0,0,0.0081059,-0.00041778,0.0023064,-0.86294,0.0033315,0.0075402,1.2723e-08,0.64,0.82,0
0.032952,-0.0051707,0.0080837,-0.00037987,0.0023111,-0.00019984,0,0,0.05253,-0.024488,0,-0.0036371,0,0,0,0.0080884,-0.00038458,0.0023111,-1.3519,0.0033383,0.0074978,1.2595e-08,0.66,0.82,0
0.034,-0.0052736,0.0080594,-0.00033273,0.002318,-0.00026293,0,0,0.052247,-0.024122,0,-0.0047854,0,0,0,0.0080676,-0.00034096,0.002318,-1.7928,0.0033482,0.0074442,1.2437e-08,0.68,0.82,0
0.035042,-0.0053945,0.0080323,-0.00027694,0.0023266,-0.0003157,0,0,0.051922,-0.023692,0,-0.0057457,0,0,0,0.0080442,-0.00028892,0.0023266,-2.1727,0.0033606,0.0073815,1.2255e-08,0.7,0.82,0
0.036077,-0.0055303,0.0080035,-0.00021525,0.0023365,-0.00035682,0,0,0.05157,-0.023221,0,-0.0064941,0,0,0,0.008019,-0.00023071,0.0023365,-2.4813,0.0033749,0.0073123,1.2056e-08,0.72,0.82,0
0.037105,-0.0056771,0.0079744,-0.00015044,0.0023472,-0.00038564,0,0,0.051208,-0.022728,0,-0.0070187,0,0,0,0.0079927,-0.0001687,0.0023472,-2.7114,0.0033904,0.0072391,1.1848e-08,0.74,0.82,0
0.038126,-0.0058311,0.007946,-8.5143e-05,0.0023583,-0.0004021,0,0,0.050849,-0.022235,0,-0.0073182,0,0,0,0.0079661,-0.00010522,0.0023583,-2.8591,0.0034064,0.0071646,1.1636e-08,0.76,0.82,0
0.039139,-0.0059883,0.0079195,-2.1674e-05,0.0023693,-0.00040667,0,0,0.050506,-0.021758,0,-0.0074013,0,0,0,0.0079403,-4.2445e-05,0.0023693,-2.9239,0.0034224,0.0070914,1.1429e-08,0.78,0.82,0
0.040146,-0.0061449,0.0078954,3.8094e-05,0.0023801,-0.00040022,0,0,0.05019,-0.021312,0,-0.0072841,0,0,0,0.0079158,1.7761e-05,0.0023801,-2.9084,0.0034379,0.0070215,1.1233e-08,0.8,0.82,0
0.041147,-0.0062973,0.0078744,9.2768e-05,0.0023902,-0.00038395,0,0,0.049907,-0.020906,0,-0.0069878,0,0,0,0.0078933,7.387e-05,0.0023902,-2.8178,0.0034524,0.0069568,1.1051e-08,0.82,0.82,0
0.042142,-0.0064421,0.0078566,0.00014144,0.0023994,-0.00035916,0,0,0.04966,-0.020547,0,-0.0065367,0,0,0,0.0078733,0.00012475,0.0023994,-2.6596,0.0034658,0.0068984,1.0888e-08,0.84,0.82,0
0.043133,-0.0065765,0.007842,0.00018362,0.0024077,-0.00032724,0,0,0.049452,-0.020239,0,-0.0059557,0,0,0,0.007856,0.00016967,0.0024077,-2.4423,0.0034778,0.0068473,1.0746e-08,0.86,0.82,0
0.04412,-0.0066978,0.0078304,0.00021922,0.0024149,-0.00028952,0,0,0.049281,-0.019981,0,-0.0052692,0,0,0,0.0078414,0.00020822,0.0024149,-2.1752,0.0034882,0.0068038,1.0626e-08,0.88,0.82,0
0.045104,-0.0068039,0.0078216,0.00024837,0.002421,-0.00024722,0,0,0.049146,-0.019771,0,-0.0044994,0,0,0,0.0078297,0.00024031,0.002421,-1.8677,0.003497,0.0067679,1.0527e-08,0.9,0.82,0
0.046086,-0.0068931,0.0078151,0.00027141,0.002426,-0.00020143,0,0,0.049042,-0.019606,0,-0.0036661,0,0,0,0.0078205,0.00026603,0.002426,-1.5285,0.0035042,0.0067393,1.0449e-08,0.92,0.82,0
0.047066,-0.0069638,0.0078106,0.00028874,0.0024298,-0.00015309,0,0,0.048965,-0.019484,0,-0.0027862,0,0,0,0.0078137,0.00028562,0.0024298,-1.1655,0.0035097,0.0067177,1.039e-08,0.94,0.82,0
0.048045,-0.0070151,0.0078076,0.00030077,0.0024325,-0.00010297,0,0,0.048914,-0.019399,0,-0.0018741,0,0,0,0.0078091,0.00029935,0.0024325,-0.78574,0.0035136,0.0067027,1.035e-08,0.96,0.82,0
0.049022,-0.0070462,0.007806,0.00030784,0.0024341,-5.1752e-05,0,0,0.048884,-0.019349,0,-0.00094189,0,0,0,0.0078064,0.00030748,0.0024341,-0.39543,0.003516,0.0066939,1.0326e-08,0.98,0.82,0
0.05,-0.0070565,0.0078055,0.00031017,0.0024347,-2.8572e-05,0,0,0.048874,-0.019333,0,-0.00052001,0,0,0,0.0078056,0.00031006,0.0024347,-0.21841,0.0035168,0.0066912,1.0319e-08,1,0.82,0
0,0,0.0079331,0.0033999,0.0033999,-0.0017948,0,0,0.041252,1.0842e-18,0,-0.032666,0,0,0,0.0085577,0.0027753,0.0033999,-19.187,0.004911,0.0054968,8.1599e-09,0,0.84,0
0.00082505,-0.00065333,0.0079079,0.0030691,0.0032931,-0.0017797,0,0,0.041995,-0.0020388,0,-0.032391,0,0,0,0.008492,0.002485,0.0032931,-18.169,0.0047567,0.0056465,8.6111e-09,0.02,0.84,0
0.0016798,-0.0013028,0.0080111,0.0027563,0.0032302,-0.0017349,0,0,0.043506,-0.004313,0,-0.031574,0,0,0,0.0085322,0.0022352,0.0032302,-16.718,0.0046659,0.0058632,9.3549e-09,0.04,0.84,0
0.0025653,-0.0019375,0.0081066,0.0024293,0.0031608,-0.0016498,0,0,0.045007,-0.0066562,0,-0.030026,0,0,0,0.0085512,0.0019847,0.0031608,-15.082,0.0045656,0.0060646,1.0019e-08,0.06,0.84,0
0.0034801,-0.0025461,0.008186,0.002111,0.0030891,-0.0015274,0,0,0.046382,-0.0089005,0,-0.027798,0,0,0,0.0085484,0.0017486,0.0030891,-13.348,0.0044621,0.0062385,1.0555e-08,0.08,0.84,0
0.0044206,-0.0031179,0.0082436,0.0018184,0.0030186,-0.0013765,0,0,0.047548,-0.010922,0,-0.025052,0,0,0,0.0085261,0.0015359,0.0030186,-11.597,0.0043602,0.0063794,1.0945e-08,0.1,0.84,0
0.005382,-0.0036447,0.0082775,0.0015603,0.0029513,-0.0012082,0,0,0.048468,-0.012658,0,-0.021989,0,0,0,0.0084882,0.0013496,0.0029513,-9.8925,0.004263,0.0064877,1.1195e-08,0.12,0.84,0
0.0063593,-0.0041209,0.008289,0.0013392,0.0028885,-0.0010328,0,0,0.049145,-0.014099,0,-0.018797,0,0,0,0.0084393,0.0011889,0.0028885,-8.2764,0.0041722,0.0065676,1.1331e-08,0.14,0.84,0
0.0073478,-0.0045437,0.0082822,0.0011527,0.0028305,-0.00085849,0,0,0.049611,-0.015268,0,-0.015624,0,0,0,0.0083841,0.0010508,0.0028305,-6.7702,0.0040885,0.0066253,1.1382e-08,0.16,0.84,0
0.0083437,-0.0049119,0.0082617,0.00099639,0.0027774,-0.00069064,0,0,0.049907,-0.016207,0,-0.01257,0,0,0,0.0083268,0.00093132,0.0027774,-5.3823,0.0040118,0.006667,1.1377e-08,0.18,0.84,0
0.0093441,-0.0052263,0.0082324,0.00086523,0.0027293,-0.00053245,0,0,0.050078,-0.016963,0,-0.0096907,0,0,0,0.0082706,0.00082695,0.0027293,-4.1125,0.0039423,0.0066983,1.1341e-08,0.2,0.84,0
0.010347,-0.0054884,0.0081983,0.00075418,0.0026857,-0.00038554,0,0,0.050164,-0.017577,0,-0.0070169,0,0,0,0.0082182,0.00073426,0.0026857,-2.9569,0.0038794,0.006724,1.1294e-08,0.22,0.84,0
0.011351,-0.0057006,0.0081628,0.00065866,0.0026464,-0.00025055,0,0,0.050199,-0.018089,0,-0.0045601,0,0,0,0.0081711,0.0006503,0.0026464,-1.9102,0.0038226,0.0067479,1.125e-08,0.24,0.84,0
0.012355,-0.0058657,0.0081285,0.0005747,0.0026109,-0.00012761,0,0,0.050209,-0.01853,0,-0.0023226,0,0,0,0.0081306,0.00057254,0.0026109,-0.96759,0.0037714,0.006773,1.122e-08,0.26,0.84,0
0.013359,-0.0059872,0.0080974,0.00049889,0.0025789,-1.6669e-05,0,0,0.050218,-0.018928,0,-0.00030338,0,0,0,0.0080974,0.00049886,0.0025789,-0.12569,0.003725,0.0068014,1.121e-08,0.28,0.84,0
0.014363,-0.0060685,0.0080707,0.00042843,0.0025497,8.2332e-05,0,0,0.050241,-0.019304,0,0.0014984,0,0,0,0.0080716,0.00042754,0.0025497,0.61716,0.003683,0.0068347,1.1226e-08,0.3,0.84,0
0.015369,-0.0061135,0.0080496,0.00036101,0.0025232,0.00016932,0,0,0.05029,-0.019676,0,0.0030816,0,0,0,0.0080533,0.00035728,0.0025232,1.261,0.0036446,0.006874,1.1269e-08,0.32,0.84,0
0.016375,-0.0061264,0.0080344,0.00029488,0.0024988,0.00024407,0,0,0.050374,-0.020056,0,0.004442,0,0,0,0.0080421,0.00028719,0.0024988,1.8044,0.0036093,0.0069195,1.134e-08,0.34,0.84,0
0.017384,-0.0061115,0.0080254,0.0002288,0.0024763,0.00030619,0,0,0.050497,-0.020452,0,0.0055726,0,0,0,0.0080374,0.0002168,0.0024763,2.2455,0.0035768,0.0069711,1.1437e-08,0.36,0.84,0
0.018395,-0.0060734,0.0080224,0.0001621,0.0024554,0.00035518,0,0,0.05066,-0.020869,0,0.0064642,0,0,0,0.0080384,0.00014608,0.0024554,2.5819,0.0035466,0.0070283,1.1557e-08,0.38,0.84,0
0.01941,-0.0060169,0.0080251,9.4614e-05,0.0024359,0.0003905,0,0,0.050861,-0.021306,0,0.0071071,0,0,0,0.0080443,7.5432e-05,0.0024359,2.8122,0.0035185,0.0070897,1.1697e-08,0.4,0.84,0
0.020429,-0.0059469,0.0080327,2.6729e-05,0.0024178,0.00041168,0,0,0.051095,-0.021759,0,0.0074925,0,0,0,0.0080538,5.6158e-06,0.0024178,2.9359,0.0034924,0.0071539,1.185e-08,0.42,0.84,0
0.021454,-0.0058685,0.0080442,-4.0665e-05,0.0024011,0.00041839,0,0,0.051353,-0.02222,0,0.0076148,0,0,0,0.0080658,-6.2259e-05,0.0024011,2.9545,0.0034682,0.0072188,1.201e-08,0.44,0.84,0
0.022484,-0.0057868,0.0080585,-0.00010624,0.0023857,0.00041061,0,0,0.051623,-0.022676,0,0.0074731,0,0,0,0.0080791,-0.00012684,0.0023857,2.8718,0.003446,0.0072823,1.217e-08,0.46,0.84,0
0.023519,-0.0057067,0.0080742,-0.00016833,0.0023718,0.00038866,0,0,0.051892,-0.023115,0,0.0070736,0,0,0,0.0080925,-0.00018661,0.0023718,2.6937,0.0034259,0.0073422,1.2321e-08,0.48,0.84,0
0.024559,-0.0056329,0.0080899,-0.00022505,0.0023594,0.00035333,0,0,0.052147,-0.023519,0,0.0064305,0,0,0,0.0081049,-0.00024003,0.0023594,2.4288,0.0034081,0.0073961,1.2458e-08,0.5,0.84,0
0.025605,-0.0055698,0.0081041,-0.00027448,0.0023489,0.00030588,0,0,0.052373,-0.023873,0,0.005567,0,0,0,0.0081153,-0.00028563,0.0023489,2.088,0.0033928,0.007442,1.2574e-08,0.52,0.84,0
0.026654,-0.0055213,0.0081155,-0.00031481,0.0023402,0.00024807,0,0,0.052555,-0.024161,0,0.0045148,0,0,0,0.0081228,-0.00032211,0.0023402,1.684,0.0033803,0.0074781,1.2663e-08,0.54,0.84,0
0.027707,-0.0054904,0.008123,-0.00034453,0.0023336,0.00018207,0,0,0.052684,-0.02437,0,0.0033137,0,0,0,0.0081269,-0.00034844,0.0023336,1.2312,0.0033707,0.007503,1.272e-08,0.56,0.84,0
0.028761,-0.0054796,0.0081257,-0.00036251,0.002329,0.00011041,0,0,0.05275,-0.024492,0,0.0020095,0,0,0,0.0081271,-0.00036395,0.002329,0.74513,0.003364,0.0075156,1.2744e-08,0.58,0.84,0
0.029817,-0.0054906,0.0081229,-0.00036817,0.0023264,3.5839e-05,0,0,0.052748,-0.024521,0,0.00065227,0,0,0,0.0081231,-0.00036833,0.0023264,0.24183,0.0033604,0.0075155,1.2731e-08,0.6,0.84,0
0.030871,-0.0055239,0.0081145,-0.00036151,0.0023259,-3.8827e-05,0,0,0.052677,-0.024456,0,-0.00070665,0,0,0,0.0081147,-0.00036168,0.0023259,-0.26245,0.0033597,0.0075028,1.2683e-08,0.62,0.84,0
0.031924,-0.0055794,0.0081007,-0.00034309,0.0023273,-0.00011083,0,0,0.052538,-0.0243,0,-0.002017,0,0,0,0.0081021,-0.00034454,0.0023273,-0.75185,0.0033616,0.0074778,1.26e-08,0.64,0.84,0
0.032973,-0.0056562,0.0080818,-0.00031404,0.0023303,-0.00017762,0,0,0.052339,-0.024064,0,-0.0032327,0,0,0,0.0080856,-0.00031779,0.0023303,-1.2114,0.003366,0.0074415,1.2485e-08,0.66,0.84,0
0.034017,-0.0057523,0.0080587,-0.00027596,0.0023348,-0.00023701,0,0,0.052087,-0.023758,0,-0.0043135,0,0,0,0.0080654,-0.0002827,0.0023348,-1.6275,0.0033725,0.0073954,1.2342e-08,0.68,0.84,0
0.035056,-0.0058654,0.0080323,-0.00023081,0.0023405,-0.00028724,0,0,0.051796,-0.023398,0,-0.0052278,0,0,0,0.0080423,-0.00024078,0.0023405,-1.9885,0.0033807,0.0073411,1.2176e-08,0.7,0.84,0
0.036089,-0.0059925,0.0080038,-0.00018071,0.0023469,-0.00032709,0,0,0.051477,-0.023002,0,-0.005953,0,0,0,0.0080168,-0.00019377,0.0023469,-2.2849,0.00339,0.0072807,1.1992e-08,0.72,0.84,0
0.037116,-0.0061303,0.0079829,-0.00012801,0.0023565,-0.0003538,0,0,0.051201,-0.022609,0,-0.0064392,0,0,0,0.0079983,-0.00014341,0.0023565,-2.4929,0.0034038,0.0072239,1.1835e-08,0.74,0.84,0
0.038135,-0.0062751,0.0079329,-8.1487e-05,0.0023554,-0.00037606,0,0,0.050755,-0.022176,0,-0.0068444,0,0,0,0.0079505,-9.9094e-05,0.0023554,-2.6807,0.0034023,0.0071458,1.1559e-08,0.76,0.84,0
0.039148,-0.0064235,0.0079261,-1.8232e-05,0.0023724,-0.0003809,0,0,0.050539,-0.021754,0,-0.0069323,0,0,0,0.0079443,-3.6453e-05,0.0023724,-2.7387,0.0034267,0.0070902,1.1438e-08,0.78,0.84,0
0.040155,-0.0065718,0.0078806,2.4751e-05,0.0023716,-0.00037526,0,0,0.050132,-0.021356,0,-0.0068296,0,0,0,0.0078984,6.867e-06,0.0023716,-2.7286,0.0034256,0.0070148,1.1175e-08,0.8,0.84,0
0.041155,-0.0067165,0.0078748,7.9636e-05,0.0023863,-0.00036651,0,0,0.049945,-0.020991,0,-0.0066704,0,0,0,0.007892,6.2441e-05,0.0023863,-2.686,0.0034469,0.0069647,1.1063e-08,0.82,0.84,0
0.042151,-0.0068546,0.0078378,0.000115,0.0023859,-0.0003373,0,0,0.049613,-0.020665,0,-0.0061389,0,0,0,0.0078525,0.0001003,0.0023859,-2.4961,0.0034462,0.0068995,1.084e-08,0.84,0.84,0
0.043141,-0.0069831,0.0078335,0.00015769,0.0023974,-0.00031832,0,0,0.049469,-0.020381,0,-0.0057935,0,0,0,0.0078467,0.00014452,0.0023974,-2.3707,0.0034629,0.0068591,1.0747e-08,0.86,0.84,0
0.044128,-0.0070994,0.0078065,0.00018384,0.0023971,-0.00027136,0,0,0.049226,-0.020141,0,-0.0049387,0,0,0,0.0078162,0.00017419,0.0023971,-2.0362,0.0034625,0.0068084,1.0575e-08,0.88,0.84,0
0.045111,-0.0072015,0.0078036,0.00021357,0.0024052,-0.00024559,0,0,0.049126,-0.019943,0,-0.0044697,0,0,0,0.0078116,0.00020563,0.0024052,-1.8513,0.0034741,0.0067793,1.0508e-08,0.9,0.84,0
0.046092,-0.0072874,0.0077862,0.00023066,0.0024051,-0.00018665,0,0,0.048969,-0.019787,0,-0.0033971,0,0,0,0.0077909,0.00022605,0.0024051,-1.4143,0.003474,0.0067447,1.0392e-08,0.92,0.84,0
0.047071,-0.0073558,0.0077846,0.00024846,0.0024099,-0.00015694,0,0,0.048909,-0.019669,0,-0.0028563,0,0,0,0.0077878,0.00024519,0.0024099,-1.1925,0.003481,0.0067268,1.0349e-08,0.94,0.84,0
0.048048,-0.0074054,0.0077755,0.00025745,0.0024099,-9.1043e-05,0,0,0.048827,-0.019587,0,-0.001657,0,0,0,0.0077766,0.00025635,0.0024099,-0.69371,0.003481,0.006708,1.0287e-08,0.96,0.84,0
0.049024,-0.0074354,0.0077748,0.00026474,0.0024119,-5.9463e-05,0,0,0.048803,-0.019539,0,-0.0010822,0,0,0,0.0077753,0.00026427,0.0024119,-0.45362,0.0034838,0.0067005,1.0269e-08,0.98,0.84,0
0.05,-0.0074455,0.0077793,0.0002809,0.0024181,-2.7684e-05,0,0,0.048787,-0.019448,0,-0.00050385,0,0,0,0.0077794,0.0002808,0.0024181,-0.21153,0.0034927,0.006691,1.0259e-08,1,0.84,0
0,0,0.0079828,0.0034212,0.0034212,-0.0019133,0,0,0.041511,-4.3368e-19,0,-0.034821,0,0,0,0.008679,0.002725,0.0034212,-19.996,0.0049417,0.0056383,8.7343e-09,0,0.86,0
0.00083021,-0.00069642,0.0079045,0.0030333,0.0032813,-0.0018962,0,0,0.042071,-0.0022575,0,-0.034511,0,0,0,0.0085556,0.0023822,0.0032813,-18.951,0.0047397,0.0057766,9.0968e-09,0.02,0.86,0
0.001694,-0.0013943,0.0081315,0.0027299,0.0032584,-0.0018441,0,0,0.044345,-0.0048098,0,-0.033562,0,0,0,0.008701,0.0021604,0.0032584,-17.162,0.0047066,0.0060666,1.0213e-08,0.04,0.86,0
0.0025925,-0.0020788,0.0081298,0.0023199,0.0031349,-0.0017637,0,0,0.045453,-0.0074165,0,-0.032099,0,0,0,0.0086233,0.0018264,0.0031349,-15.632,0.0045282,0.0062463,1.0688e-08,0.06,0.86,0
0.0035228,-0.0027344,0.008303,0.002012,0.0030945,-0.0015849,0,0,0.047398,-0.0098506,0,-0.028845,0,0,0,0.0086798,0.0016353,0.0030945,-13.371,0.0044699,0.0064401,1.138e-08,0.08,0.86,0
0.0044796,-0.0033478,0.008277,0.0016688,0.0029837,-0.0014496,0,0,0.048169,-0.011966,0,-0.026383,0,0,0,0.008581,0.0013648,0.0029837,-11.844,0.0043099,0.0065584,1.1566e-08,0.1,0.86,0
0.0054562,-0.0039097,0.0083471,0.0014251,0.0029317,-0.0012058,0,0,0.04928,-0.01371,0,-0.021946,0,0,0,0.0085511,0.0012211,0.0029317,-9.6044,0.0042346,0.0066421,1.1752e-08,0.12,0.86,0
0.0064463,-0.0044144,0.0082982,0.0011532,0.0028354,-0.0010205,0,0,0.049712,-0.015308,0,-0.018573,0,0,0,0.0084411,0.0010103,0.0028354,-7.9711,0.0040956,0.0067072,1.1715e-08,0.14,0.86,0
0.0074446,-0.0048598,0.0082713,0.00097528,0.002774,-0.00083118,0,0,0.050026,-0.016368,0,-0.015128,0,0,0,0.0083648,0.00088179,0.002774,-6.4177,0.0040069,0.0067392,1.1642e-08,0.16,0.86,0
0.0084473,-0.0052458,0.0082328,0.00083082,0.0027191,-0.00065427,0,0,0.050175,-0.017183,0,-0.011908,0,0,0,0.0082902,0.00077344,0.0027191,-5.0127,0.0039276,0.0067574,1.153e-08,0.18,0.86,0
0.0094516,-0.0055742,0.0081888,0.00071278,0.0026705,-0.0004919,0,0,0.050217,-0.017815,0,-0.0089526,0,0,0,0.008221,0.00068055,0.0026705,-3.7484,0.0038573,0.0067686,1.1408e-08,0.2,0.86,0
0.010456,-0.0058476,0.0081438,0.00061506,0.0026277,-0.00034452,0,0,0.050197,-0.018315,0,-0.0062704,0,0,0,0.0081595,0.00059932,0.0026277,-2.6147,0.0037955,0.0067776,1.1294e-08,0.22,0.86,0
0.011459,-0.006069,0.0081011,0.0005326,0.0025901,-0.00021178,0,0,0.05015,-0.018723,0,-0.0038544,0,0,0,0.008107,0.00052667,0.0025901,-1.6016,0.0037413,0.0067881,1.1202e-08,0.24,0.86,0
0.012462,-0.0062422,0.008063,0.00046126,0.0025573,-9.2992e-05,0,0,0.050102,-0.019074,0,-0.0016925,0,0,0,0.0080641,0.00046012,0.0025573,-0.70076,0.0036938,0.0068024,1.1137e-08,0.26,0.86,0
0.013464,-0.0063708,0.0080309,0.0003977,0.0025286,1.2518e-05,0,0,0.050071,-0.019391,0,0.00022783,0,0,0,0.0080309,0.00039768,0.0025286,0.093962,0.0036524,0.0068221,1.1104e-08,0.28,0.86,0
0.014465,-0.0064589,0.0080056,0.00033926,0.0025034,0.00010528,0,0,0.050069,-0.019694,0,0.0019161,0,0,0,0.008007,0.00033781,0.0025034,0.78664,0.0036161,0.0068482,1.1105e-08,0.3,0.86,0
0.015466,-0.0065107,0.0079874,0.00028385,0.0024814,0.00018561,0,0,0.050105,-0.019998,0,0.0033781,0,0,0,0.0079919,0.00027938,0.0024814,1.3794,0.0035842,0.006881,1.1139e-08,0.32,0.86,0
0.016469,-0.0065305,0.0079765,0.00022992,0.0024619,0.0002536,0,0,0.050183,-0.020311,0,0.0046155,0,0,0,0.0079848,0.00022163,0.0024619,1.873,0.0035561,0.0069206,1.1204e-08,0.34,0.86,0
0.017474,-0.0065228,0.0079726,0.00017639,0.0024447,0.00030915,0,0,0.050304,-0.020642,0,0.0056265,0,0,0,0.0079848,0.00016415,0.0024447,2.2673,0.0035312,0.0069662,1.1297e-08,0.36,0.86,0
0.018481,-0.0064923,0.007975,0.00012268,0.0024293,0.00035203,0,0,0.050466,-0.02099,0,0.006407,0,0,0,0.0079908,0.00010693,0.0024293,2.5618,0.003509,0.0070171,1.1414e-08,0.38,0.86,0
0.019492,-0.0064438,0.0079832,6.8623e-05,0.0024155,0.00038197,0,0,0.050666,-0.021357,0,0.0069519,0,0,0,0.0080016,5.0231e-05,0.0024155,2.7567,0.0034891,0.0070719,1.1551e-08,0.4,0.86,0
0.020508,-0.0063821,0.0079961,1.452e-05,0.0024032,0.00039873,0,0,0.050896,-0.021737,0,0.0072568,0,0,0,0.008016,-5.3496e-06,0.0024032,2.8528,0.0034713,0.007129,1.1701e-08,0.42,0.86,0
0.021528,-0.0063121,0.0080027,-4.62e-05,0.002387,0.00040024,0,0,0.051103,-0.022142,0,0.0072844,0,0,0,0.0080226,-6.6054e-05,0.002387,2.8398,0.0034478,0.0071834,1.1824e-08,0.44,0.86,0
0.022554,-0.0062387,0.0080238,-0.00010848,0.0023746,0.00039246,0,0,0.051408,-0.022596,0,0.0071428,0,0,0,0.0080427,-0.00012737,0.0023746,2.7565,0.00343,0.0072504,1.2007e-08,0.46,0.86,0
0.023584,-0.0061665,0.0080407,-0.00016377,0.0023631,0.00037077,0,0,0.051666,-0.022994,0,0.0067481,0,0,0,0.0080574,-0.00018049,0.0023631,2.5823,0.0034133,0.0073061,1.2154e-08,0.48,0.86,0
0.02462,-0.0061001,0.0080574,-0.00021422,0.0023529,0.00033681,0,0,0.05191,-0.023361,0,0.0061299,0,0,0,0.008071,-0.00022791,0.0023529,2.3279,0.0033987,0.0073563,1.2286e-08,0.5,0.86,0
0.025661,-0.0060435,0.0080724,-0.00025811,0.0023443,0.00029179,0,0,0.052126,-0.023682,0,0.0053106,0,0,0,0.0080826,-0.00026831,0.0023443,2.0036,0.0033862,0.0073991,1.2399e-08,0.52,0.86,0
0.026705,-0.0060001,0.008101,-0.00026537,0.0023507,0.00022942,0,0,0.052328,-0.023806,0,0.0041754,0,0,0,0.0081073,-0.00027166,0.0023507,1.5696,0.0033954,0.0074237,1.2517e-08,0.54,0.86,0
0.027753,-0.0059731,0.0081024,-0.00029297,0.0023428,0.00018387,0,0,0.052412,-0.023986,0,0.0033465,0,0,0,0.0081064,-0.00029699,0.0023428,1.2541,0.0033841,0.0074433,1.255e-08,0.56,0.86,0
0.028803,-0.0059645,0.0080976,-0.00033548,0.0023286,0.00010858,0,0,0.052498,-0.024244,0,0.0019761,0,0,0,0.008099,-0.00033688,0.0023286,0.73752,0.0033636,0.0074688,1.2575e-08,0.58,0.86,0
0.029853,-0.005976,0.0081087,-0.00031073,0.0023394,3.0424e-05,0,0,0.052501,-0.024116,0,0.00055373,0,0,0,0.0081089,-0.00031084,0.0023394,0.20704,0.0033791,0.0074566,1.2582e-08,0.6,0.86,0
0.030903,-0.0060081,0.0081094,-0.00029023,0.0023457,-2.8432e-05,0,0,0.052449,-0.023987,0,-0.00051746,0,0,0,0.0081095,-0.00029033,0.0023457,-0.19394,0.0033883,0.0074406,1.2554e-08,0.62,0.86,0
0.031951,-0.0060608,0.0080972,-0.00027563,0.0023465,-9.4866e-05,0,0,0.052332,-0.023861,0,-0.0017266,0,0,0,0.0080983,-0.00027671,0.0023465,-0.64907,0.0033894,0.0074197,1.2483e-08,0.64,0.86,0
0.032996,-0.0061333,0.0080797,-0.00025268,0.0023481,-0.00015671,0,0,0.052158,-0.023667,0,-0.0028521,0,0,0,0.0080827,-0.00025563,0.0023481,-1.0771,0.0033917,0.0073889,1.238e-08,0.66,0.86,0
0.034037,-0.0062239,0.0080577,-0.0002226,0.0023505,-0.00021201,0,0,0.051935,-0.023415,0,-0.0038586,0,0,0,0.0080631,-0.00022803,0.0023505,-1.4658,0.0033952,0.0073493,1.2251e-08,0.68,0.86,0
0.035073,-0.0063304,0.0080319,-0.00018688,0.0023535,-0.00025921,0,0,0.051673,-0.023117,0,-0.0047176,0,0,0,0.00804,-0.00019505,0.0023535,-1.8046,0.0033995,0.0073023,1.2098e-08,0.7,0.86,0
0.036104,-0.0064503,0.0080033,-0.00014716,0.0023568,-0.00029714,0,0,0.051383,-0.022786,0,-0.005408,0,0,0,0.0080141,-0.00015798,0.0023568,-2.0852,0.0034043,0.0072495,1.1927e-08,0.72,0.86,0
0.037129,-0.0065804,0.0079851,-9.6092e-05,0.0023667,-0.00031993,0,0,0.051127,-0.022411,0,-0.0058227,0,0,0,0.0079977,-0.00010874,0.0023667,-2.2635,0.0034186,0.0071955,1.178e-08,0.74,0.86,0
0.038147,-0.0067176,0.0079333,-6.394e-05,0.0023608,-0.00034255,0,0,0.05071,-0.022065,0,-0.0062345,0,0,0,0.0079479,-7.8587e-05,0.0023608,-2.4482,0.00341,0.0071271,1.1517e-08,0.76,0.86,0
0.039159,-0.0068584,0.0079218,-1.5322e-05,0.0023719,-0.00034849,0,0,0.050503,-0.021724,0,-0.0063425,0,0,0,0.007937,-3.0593e-05,0.0023719,-2.5092,0.0034261,0.007079,1.1397e-08,0.78,0.86,0
0.040165,-0.0069994,0.0078727,1.4852e-05,0.0023663,-0.00034542,0,0,0.050108,-0.021398,0,-0.0062866,0,0,0,0.0078878,-3.033e-07,0.0023663,-2.5122,0.0034179,0.0070111,1.1141e-08,0.8,0.86,0
0.041165,-0.0071375,0.0078622,5.8028e-05,0.0023761,-0.00033886,0,0,0.049924,-0.021094,0,-0.0061672,0,0,0,0.0078769,4.3342e-05,0.0023761,-2.4815,0.0034321,0.0069666,1.1029e-08,0.82,0.86,0
0.04216,-0.0072696,0.0078205,8.3303e-05,0.0023711,-0.00031341,0,0,0.049589,-0.020819,0,-0.0057041,0,0,0,0.0078331,7.0628e-05,0.0023711,-2.3159,0.003425,0.0069059,1.0804e-08,0.84,0.86,0
0.043151,-0.0073928,0.0078119,0.00011778,0.0023789,-0.00029706,0,0,0.04944,-0.020576,0,-0.0054065,0,0,0,0.0078234,0.00010633,0.0023789,-2.2077,0.0034362,0.0068687,1.071e-08,0.86,0.86,0
0.044137,-0.0075047,0.0077798,0.00013682,0.002375,-0.00025415,0,0,0.049184,-0.020367,0,-0.0046255,0,0,0,0.0077883,0.00012838,0.002375,-1.9024,0.0034306,0.00682,1.0532e-08,0.88,0.86,0
0.045119,-0.007603,0.0077735,0.00016149,0.0023805,-0.00023097,0,0,0.049077,-0.020193,0,-0.0042036,0,0,0,0.0077805,0.00015449,0.0023805,-1.7364,0.0034385,0.0067923,1.046e-08,0.9,0.86,0
0.046099,-0.007686,0.0077517,0.00017416,0.0023778,-0.00017584,0,0,0.048903,-0.020053,0,-0.0032004,0,0,0,0.0077558,0.00017008,0.0023778,-1.3287,0.0034346,0.006758,1.0336e-08,0.92,0.86,0
0.047076,-0.007752,0.0077478,0.00018929,0.0023811,-0.00014847,0,0,0.048837,-0.019946,0,-0.0027022,0,0,0,0.0077507,0.00018637,0.0023811,-1.1249,0.0034394,0.0067405,1.0291e-08,0.94,0.86,0
0.048052,-0.0078001,0.007736,0.00019605,0.0023796,-8.6003e-05,0,0,0.048743,-0.01987,0,-0.0015653,0,0,0,0.0077369,0.00019506,0.0023796,-0.65343,0.0034372,0.0067214,1.0222e-08,0.96,0.86,0
0.049026,-0.0078292,0.0077343,0.00020234,0.002381,-5.6542e-05,0,0,0.048715,-0.019826,0,-0.0010291,0,0,0,0.0077347,0.00020192,0.002381,-0.43008,0.0034392,0.0067139,1.0203e-08,0.98,0.86,0
0.05,-0.007839,0.0077263,0.00019039,0.002375,-2.6836e-05,0,0,0.048696,-0.01988,0,-0.00048841,0,0,0,0.0077263,0.0001903,0.002375,-0.20403,0.0034306,0.0067157,1.0187e-08,1,0.86,0
0,0,0.0080759,0.0034611,0.0034611,-0.0020486,0,0,0.041995,-6.5052e-19,0,-0.037284,0,0,0,0.0088541,0.0026829,0.0034611,-20.8,0.0049994,0.0058212,9.5236e-09,0,0.88,0
0.0008399,-0.00074568,0.0079738,0.0029856,0.0032878,-0.0020173,0,0,0.042642,-0.0027498,0,-0.036714,0,0,0,0.0086875,0.002272,0.0032878,-19.483,0.0047491,0.0059727,9.8844e-09,0.02,0.88,0
0.0017186,-0.0014998,0.0082126,0.0025876,0.0032401,-0.0019523,0,0,0.04525,-0.0059371,0,-0.035532,0,0,0,0.0088238,0.0019764,0.0032401,-17.384,0.0046801,0.0063111,1.1186e-08,0.04,0.88,0
0.0026368,-0.0022413,0.0081888,0.0020824,0.0030814,-0.0018375,0,0,0.046478,-0.0090906,0,-0.033442,0,0,0,0.0086991,0.0015721,0.0030814,-15.52,0.0044509,0.006505,1.1613e-08,0.06,0.88,0
0.0035892,-0.0029488,0.0083476,0.0017192,0.00302,-0.0016063,0,0,0.048481,-0.011837,0,-0.029235,0,0,0,0.0087163,0.0013505,0.00302,-12.929,0.0043623,0.0066892,1.2204e-08,0.08,0.88,0
0.0045674,-0.0036058,0.0083043,0.0013584,0.0028988,-0.0014354,0,0,0.04919,-0.014018,0,-0.026124,0,0,0,0.0085892,0.0010735,0.0028988,-11.228,0.0041872,0.0067897,1.2244e-08,0.1,0.88,0
0.0055623,-0.0042022,0.0083357,0.0011159,0.0028355,-0.0011503,0,0,0.050052,-0.015648,0,-0.020936,0,0,0,0.0085146,0.00093705,0.0028355,-8.8373,0.0040957,0.0068292,1.2196e-08,0.12,0.88,0
0.0065664,-0.0047333,0.0083032,0.00095145,0.0027764,-0.00098171,0,0,0.050294,-0.016607,0,-0.017867,0,0,0,0.0084321,0.00082261,0.0027764,-7.4764,0.0040104,0.006845,1.206e-08,0.14,0.88,0
0.0075741,-0.0051984,0.0082482,0.0007895,0.0027113,-0.00078079,0,0,0.050386,-0.017489,0,-0.01421,0,0,0,0.0083291,0.00070864,0.0027113,-5.9124,0.0039163,0.0068426,1.1827e-08,0.16,0.88,0
0.0085819,-0.0055993,0.0081866,0.00066238,0.0026547,-0.00059951,0,0,0.05034,-0.01813,0,-0.010911,0,0,0,0.008234,0.00061491,0.0026547,-4.5271,0.0038345,0.0068316,1.1588e-08,0.18,0.88,0
0.0095877,-0.0059389,0.008125,0.00056138,0.0026059,-0.00043789,0,0,0.050224,-0.018605,0,-0.0079696,0,0,0,0.0081503,0.00053612,0.0026059,-3.3024,0.0037641,0.0068191,1.137e-08,0.2,0.88,0
0.010591,-0.006221,0.008068,0.00047969,0.0025643,-0.00029467,0,0,0.050083,-0.01897,0,-0.0053629,0,0,0,0.0080794,0.00046827,0.0025643,-2.2204,0.003704,0.0068095,1.1188e-08,0.22,0.88,0
0.011591,-0.0064495,0.0080181,0.00041206,0.0025291,-0.00016821,0,0,0.049951,-0.019265,0,-0.0030614,0,0,0,0.0080219,0.00040834,0.0025291,-1.2663,0.0036531,0.0068057,1.1048e-08,0.24,0.88,0
0.012589,-0.0066287,0.0079769,0.00035444,0.0024994,-5.695e-05,0,0,0.049846,-0.019519,0,-0.0010365,0,0,0,0.0079774,0.00035402,0.0024994,-0.42804,0.0036103,0.006809,1.0953e-08,0.26,0.88,0
0.013585,-0.0067628,0.007945,0.00030374,0.0024746,4.0422e-05,0,0,0.04978,-0.019755,0,0.00073568,0,0,0,0.0079452,0.00030353,0.0024746,0.30308,0.0035745,0.0068204,1.0902e-08,0.28,0.88,0
0.01458,-0.0068563,0.0079224,0.00025757,0.002454,0.00012488,0,0,0.049763,-0.019987,0,0.0022728,0,0,0,0.0079245,0.00025554,0.002454,0.93314,0.0035447,0.00684,1.0894e-08,0.3,0.88,0
0.015575,-0.0069134,0.0079089,0.00021413,0.0024369,0.00019705,0,0,0.049795,-0.020227,0,0.0035864,0,0,0,0.007914,0.00020908,0.0024369,1.466,0.00352,0.0068676,1.0925e-08,0.32,0.88,0
0.016572,-0.0069389,0.0079039,0.00017209,0.0024228,0.0002573,0,0,0.049878,-0.020482,0,0.0046829,0,0,0,0.0079125,0.00016354,0.0024228,1.9039,0.0034996,0.0069024,1.0991e-08,0.34,0.88,0
0.01757,-0.0069372,0.0079067,0.00013058,0.0024112,0.00030575,0,0,0.050009,-0.020754,0,0.0055646,0,0,0,0.0079187,0.00011857,0.0024112,2.2481,0.0034828,0.0069438,1.1089e-08,0.36,0.88,0
0.018572,-0.006913,0.0079163,8.9085e-05,0.0024016,0.00034235,0,0,0.050184,-0.021044,0,0.0062308,0,0,0,0.0079313,7.414e-05,0.0024016,2.4997,0.003469,0.0069903,1.1211e-08,0.38,0.88,0
0.019578,-0.0068712,0.0079317,4.7487e-05,0.0023937,0.00036702,0,0,0.050395,-0.021351,0,0.0066799,0,0,0,0.0079487,3.0438e-05,0.0023937,2.6596,0.0034576,0.0070406,1.1354e-08,0.4,0.88,0
0.020588,-0.0068163,0.0079515,5.9896e-06,0.0023873,0.00037969,0,0,0.050635,-0.02167,0,0.0069104,0,0,0,0.0079696,-1.2114e-05,0.0023873,2.7297,0.0034482,0.0070932,1.151e-08,0.42,0.88,0
0.021603,-0.0067534,0.007968,-3.3918e-05,0.0023802,0.00037753,0,0,0.050849,-0.021969,0,0.006871,0,0,0,0.0079858,-5.169e-05,0.0023802,2.6952,0.0034381,0.0071393,1.1641e-08,0.44,0.88,0
0.022624,-0.0066869,0.0080076,-5.5279e-05,0.0023857,0.0003648,0,0,0.051159,-0.022213,0,0.0066393,0,0,0,0.0080241,-7.175e-05,0.0023857,2.5852,0.003446,0.0071893,1.184e-08,0.46,0.88,0
0.02365,-0.0066214,0.008035,-8.7395e-05,0.0023843,0.00034217,0,0,0.051421,-0.022492,0,0.0062275,0,0,0,0.0080493,-0.00010179,0.0023843,2.408,0.0034439,0.0072358,1.1998e-08,0.48,0.88,0
0.024681,-0.0065611,0.008061,-0.00011651,0.0023834,0.00030951,0,0,0.051667,-0.022749,0,0.005633,0,0,0,0.0080727,-0.00012821,0.0023834,2.1644,0.0034426,0.0072778,1.2143e-08,0.5,0.88,0
0.025716,-0.0065098,0.0080844,-0.00014175,0.0023828,0.00026787,0,0,0.051885,-0.022973,0,0.0048753,0,0,0,0.0080931,-0.00015046,0.0023828,1.8631,0.0034418,0.0073138,1.2269e-08,0.52,0.88,0
0.026756,-0.0064708,0.0080985,-0.00018418,0.0023743,0.00021404,0,0,0.05209,-0.023282,0,0.0038955,0,0,0,0.0081041,-0.00018971,0.0023743,1.4793,0.0034295,0.007355,1.2379e-08,0.54,0.88,0
0.027799,-0.0064469,0.0081037,-0.00020446,0.0023698,0.00017296,0,0,0.052179,-0.023425,0,0.0031479,0,0,0,0.0081073,-0.00020806,0.0023698,1.1921,0.003423,0.0073725,1.2421e-08,0.56,0.88,0
0.028844,-0.0064402,0.0081263,-0.00018672,0.0023819,0.00010434,0,0,0.052274,-0.023374,0,0.0018991,0,0,0,0.0081276,-0.00018803,0.0023819,0.71902,0.0034405,0.0073746,1.2484e-08,0.58,0.88,0
0.02989,-0.0064522,0.0081166,-0.00021626,0.0023701,3.4041e-05,0,0,0.052293,-0.023536,0,0.00061955,0,0,0,0.0081167,-0.0002164,0.0023701,0.23406,0.0034235,0.0073876,1.2477e-08,0.6,0.88,0
0.030936,-0.0064834,0.0081068,-0.00022502,0.0023645,-1.9888e-05,0,0,0.052255,-0.023565,0,-0.00036196,0,0,0,0.0081069,-0.00022507,0.0023645,-0.13676,0.0034155,0.0073859,1.2445e-08,0.62,0.88,0
0.03198,-0.0065339,0.0080963,-0.00021379,0.0023648,-8.0419e-05,0,0,0.052157,-0.023465,0,-0.0014636,0,0,0,0.0080971,-0.00021456,0.0023648,-0.55439,0.0034158,0.0073687,1.2385e-08,0.64,0.88,0
0.033022,-0.0066028,0.0080801,-0.0001962,0.0023652,-0.0001369,0,0,0.052006,-0.023308,0,-0.0024917,0,0,0,0.0080823,-0.00019846,0.0023652,-0.94743,0.0034163,0.0073427,1.2293e-08,0.66,0.88,0
0.03406,-0.0066889,0.0080587,-0.00017316,0.0023656,-0.00018763,0,0,0.051806,-0.023103,0,-0.0034149,0,0,0,0.0080629,-0.00017743,0.0023656,-1.3051,0.0034171,0.0073085,1.2174e-08,0.68,0.88,0
0.035094,-0.0067901,0.0080329,-0.00014578,0.0023661,-0.00023121,0,0,0.051568,-0.022859,0,-0.004208,0,0,0,0.0080395,-0.00015231,0.0023661,-1.618,0.0034178,0.0072675,1.2031e-08,0.7,0.88,0
0.036123,-0.0069039,0.0080038,-0.00011529,0.0023666,-0.00026658,0,0,0.051299,-0.022585,0,-0.0048518,0,0,0,0.0080126,-0.00012403,0.0023666,-1.8785,0.0034184,0.007221,1.1869e-08,0.72,0.88,0
0.037146,-0.0070277,0.0079723,-8.2945e-05,0.0023668,-0.00029308,0,0,0.05101,-0.022293,0,-0.0053341,0,0,0,0.007983,-9.3595e-05,0.0023668,-2.081,0.0034187,0.0071703,1.1693e-08,0.74,0.88,0
0.038163,-0.0071583,0.0079396,-4.9977e-05,0.0023669,-0.00031042,0,0,0.050711,-0.021993,0,-0.0056496,0,0,0,0.0079516,-6.202e-05,0.0023669,-2.2217,0.0034188,0.0071171,1.1508e-08,0.76,0.88,0
0.039175,-0.0072927,0.0079065,-1.749e-05,0.0023667,-0.00031863,0,0,0.050412,-0.021696,0,-0.0057991,0,0,0,0.0079193,-3.0282e-05,0.0023667,-2.299,0.0034186,0.007063,1.1321e-08,0.78,0.88,0
0.04018,-0.0074275,0.007874,1.3571e-05,0.0023663,-0.00031805,0,0,0.05012,-0.02141,0,-0.0057886,0,0,0,0.0078868,7.2253e-07,0.0023663,-2.3133,0.0034179,0.0070094,1.1136e-08,0.8,0.88,0
0.041179,-0.0075598,0.0078429,4.2455e-05,0.0023656,-0.00030927,0,0,0.049843,-0.021141,0,-0.0056287,0,0,0,0.0078551,3.0212e-05,0.0023656,-2.2669,0.003417,0.0069577,1.0957e-08,0.82,0.88,0
0.042174,-0.0076866,0.0078138,6.8614e-05,0.0023647,-0.00029302,0,0,0.049587,-0.020895,0,-0.0053329,0,0,0,0.0078249,5.7544e-05,0.0023647,-2.1635,0.0034157,0.006909,1.079e-08,0.84,0.88,0
0.043163,-0.0078052,0.0077874,9.1697e-05,0.0023637,-0.00027016,0,0,0.049355,-0.020675,0,-0.0049169,0,0,0,0.0077969,8.2224e-05,0.0023637,-2.0081,0.0034143,0.0068644,1.0637e-08,0.86,0.88,0
0.044148,-0.0079131,0.007764,0.00011152,0.0023626,-0.0002416,0,0,0.049152,-0.020485,0,-0.0043972,0,0,0,0.0077716,0.0001039,0.0023626,-1.8065,0.0034127,0.0068247,1.0501e-08,0.88,0.88,0
0.045129,-0.008008,0.0077439,0.00012804,0.0023616,-0.00020827,0,0,0.048979,-0.020325,0,-0.0037906,0,0,0,0.0077495,0.00012235,0.0023616,-1.5653,0.0034111,0.0067904,1.0383e-08,0.9,0.88,0
0.046107,-0.0080883,0.0077272,0.00014131,0.0023606,-0.00017107,0,0,0.048837,-0.020195,0,-0.0031134,0,0,0,0.0077311,0.00013745,0.0023606,-1.2912,0.0034097,0.0067619,1.0286e-08,0.92,0.88,0
0.047082,-0.0081523,0.0077142,0.00015143,0.0023597,-0.00013085,0,0,0.048726,-0.020095,0,-0.0023815,0,0,0,0.0077165,0.00014917,0.0023597,-0.99093,0.0034084,0.0067396,1.021e-08,0.94,0.88,0
0.048056,-0.0081988,0.0077049,0.00015855,0.002359,-8.8429e-05,0,0,0.048647,-0.020024,0,-0.0016094,0,0,0,0.0077059,0.00015751,0.002359,-0.67128,0.0034075,0.0067236,1.0155e-08,0.96,0.88,0
0.049028,-0.0082271,0.0076993,0.00016276,0.0023586,-4.4569e-05,0,0,0.0486,-0.019982,0,-0.00081116,0,0,0,0.0076995,0.00016249,0.0023586,-0.33882,0.0034069,0.006714,1.0123e-08,0.98,0.88,0
0.05,-0.0082366,0.0076974,0.00016415,0.0023585,-2.604e-05,0,0,0.048584,-0.019968,0,-0.00047393,0,0,0,0.0076975,0.00016406,0.0023585,-0.19805,0.0034067,0.0067109,1.0112e-08,1,0.88,0
0,0,0.0082345,0.0035291,0.0035291,-0.0022075,0,0,0.042819,8.6736e-19,0,-0.040177,0,0,0,0.009108,0.0026556,0.0035291,-21.588,0.0050975,0.0060631,1.065e-08,0,0.9,0
0.00085639,-0.00080354,0.0081909,0.0030049,0.0033587,-0.0021717,0,0,0.043973,-0.0032203,0,-0.039525,0,0,0,0.0089802,0.0022156,0.0033587,-19.973,0.0048515,0.0062717,1.1264e-08,0.02,0.9,0
0.0017589,-0.0016252,0.0083179,0.0024653,0.003235,-0.0020921,0,0,0.046255,-0.007004,0,-0.038076,0,0,0,0.0089889,0.0017944,0.003235,-17.781,0.0046727,0.0065933,1.2385e-08,0.04,0.9,0
0.0027066,-0.0024328,0.0084105,0.0019431,0.0031061,-0.001911,0,0,0.04827,-0.010583,0,-0.03478,0,0,0,0.0089329,0.0014206,0.0031061,-15.291,0.0044865,0.0068274,1.3048e-08,0.06,0.9,0
0.0036897,-0.0031967,0.0084498,0.0015076,0.0029872,-0.001665,0,0,0.049709,-0.013465,0,-0.030304,0,0,0,0.0088285,0.0011289,0.0029872,-12.813,0.0043149,0.0069591,1.3238e-08,0.08,0.9,0
0.004695,-0.0038974,0.0084334,0.0011729,0.0028819,-0.0013977,0,0,0.050518,-0.015551,0,-0.025437,0,0,0,0.0086931,0.00091316,0.0028819,-10.529,0.0041627,0.0070062,1.3074e-08,0.1,0.9,0
0.0057105,-0.0045254,0.0083744,0.00092426,0.0027896,-0.0011401,0,0,0.050822,-0.016975,0,-0.020749,0,0,0,0.0085449,0.00075371,0.0027896,-8.5084,0.0040294,0.006999,1.2716e-08,0.12,0.9,0
0.0067278,-0.0050787,0.0082911,0.0007398,0.0027093,-0.00090678,0,0,0.050795,-0.017922,0,-0.016503,0,0,0,0.0083985,0.00063244,0.0027093,-6.7523,0.0039134,0.0069639,1.2286e-08,0.14,0.9,0
0.0077422,-0.0055593,0.0081997,0.00060195,0.0026405,-0.00070176,0,0,0.050589,-0.018551,0,-0.012772,0,0,0,0.008264,0.00053768,0.0026405,-5.2331,0.003814,0.0069188,1.1863e-08,0.16,0.9,0
0.0087514,-0.005971,0.0081108,0.00049745,0.0025825,-0.00052378,0,0,0.050308,-0.018974,0,-0.0095329,0,0,0,0.0081466,0.00046158,0.0025825,-3.9172,0.0037302,0.0068745,1.1488e-08,0.18,0.9,0
0.0097546,-0.0063184,0.0080305,0.0004167,0.0025342,-0.00036984,0,0,0.050017,-0.019269,0,-0.0067311,0,0,0,0.0080485,0.00039878,0.0025342,-2.7744,0.0036605,0.0068369,1.1177e-08,0.2,0.9,0
0.010752,-0.0066064,0.0079621,0.00035285,0.0024945,-0.00023664,0,0,0.049756,-0.019489,0,-0.0043069,0,0,0,0.0079695,0.0003455,0.0024945,-1.7795,0.0036032,0.0068088,1.0934e-08,0.22,0.9,0
0.011745,-0.0068396,0.0079068,0.00030093,0.0024623,-0.00012124,0,0,0.049545,-0.019669,0,-0.0022067,0,0,0,0.0079087,0.000299,0.0024623,-0.91304,0.0035567,0.0067916,1.0758e-08,0.24,0.9,0
0.012734,-0.0070229,0.0078647,0.00025733,0.0024366,-2.1277e-05,0,0,0.049396,-0.019831,0,-0.00038724,0,0,0,0.0078648,0.00025727,0.0024366,-0.16025,0.0035196,0.0067856,1.0644e-08,0.26,0.9,0
0.013721,-0.007161,0.0078354,0.00021937,0.0024164,6.5068e-05,0,0,0.049313,-0.019993,0,0.0011842,0,0,0,0.007836,0.00021882,0.0024164,0.48946,0.0034904,0.0067905,1.0587e-08,0.28,0.9,0
0.014706,-0.0072584,0.0078181,0.00018509,0.0024009,0.00013908,0,0,0.049296,-0.020164,0,0.0025312,0,0,0,0.0078206,0.00018255,0.0024009,1.0435,0.003468,0.0068057,1.0581e-08,0.3,0.9,0
0.015692,-0.0073198,0.0078117,0.00015301,0.0023894,0.0002016,0,0,0.049343,-0.020351,0,0.0036691,0,0,0,0.007817,0.00014771,0.0023894,1.5068,0.0034514,0.0068302,1.062e-08,0.32,0.9,0
0.01668,-0.0073498,0.0078151,0.00012209,0.0023811,0.00025314,0,0,0.049449,-0.020557,0,0.0046072,0,0,0,0.0078234,0.00011377,0.0023811,1.8826,0.0034394,0.0068628,1.0698e-08,0.34,0.9,0
0.01767,-0.007353,0.0078269,9.1648e-05,0.0023756,0.00029396,0,0,0.049607,-0.020784,0,0.0053501,0,0,0,0.0078381,8.0493e-05,0.0023756,2.1732,0.0034314,0.0069024,1.081e-08,0.36,0.9,0
0.018664,-0.0073341,0.007846,6.129e-05,0.0023722,0.00032415,0,0,0.049812,-0.021029,0,0.0058995,0,0,0,0.0078595,4.7816e-05,0.0023722,2.3803,0.0034265,0.0069475,1.0949e-08,0.38,0.9,0
0.019663,-0.0072978,0.0078707,3.0912e-05,0.0023705,0.00034371,0,0,0.050052,-0.02129,0,0.0062555,0,0,0,0.0078858,1.5872e-05,0.0023705,2.5055,0.0034241,0.0069964,1.1108e-08,0.4,0.9,0
0.020667,-0.0072489,0.0078998,6.6339e-07,0.0023701,0.00035267,0,0,0.05032,-0.021562,0,0.0064186,0,0,0,0.0079155,-1.5051e-05,0.0023701,2.5513,0.0034235,0.0070475,1.1281e-08,0.42,0.9,0
0.021676,-0.0071918,0.0079315,-2.9087e-05,0.0023707,0.00035114,0,0,0.050603,-0.021838,0,0.0063907,0,0,0,0.007947,-4.4545e-05,0.0023707,2.5208,0.0034244,0.007099,1.1461e-08,0.44,0.9,0
0.022691,-0.0071312,0.0079644,-5.7784e-05,0.002372,0.00033938,0,0,0.050891,-0.022111,0,0.0061766,0,0,0,0.0079787,-7.2116e-05,0.002372,2.4181,0.0034262,0.0071493,1.1641e-08,0.46,0.9,0
0.023711,-0.0070713,0.007997,-8.474e-05,0.0023737,0.00031786,0,0,0.051172,-0.022371,0,0.0057851,0,0,0,0.0080094,-9.7223e-05,0.0023737,2.2489,0.0034286,0.0071967,1.1814e-08,0.48,0.9,0
0.024737,-0.0070161,0.0080277,-0.00010919,0.0023756,0.00028732,0,0,0.051435,-0.022611,0,0.0052293,0,0,0,0.0080378,-0.00011932,0.0023756,2.0198,0.0034314,0.0072396,1.1973e-08,0.5,0.9,0
0.025769,-0.0069692,0.0080552,-0.00013034,0.0023775,0.00024876,0,0,0.051667,-0.022821,0,0.0045274,0,0,0,0.0080628,-0.0001379,0.0023775,1.7391,0.0034341,0.0072767,1.2113e-08,0.52,0.9,0
0.026804,-0.0069339,0.0080783,-0.00014748,0.0023792,0.00020343,0,0,0.051861,-0.022993,0,0.0037024,0,0,0,0.0080833,-0.00015251,0.0023792,1.4158,0.0034367,0.0073067,1.2228e-08,0.54,0.9,0
0.027843,-0.0069127,0.0080959,-0.00015999,0.0023808,0.00015283,0,0,0.052008,-0.023121,0,0.0027815,0,0,0,0.0080988,-0.00016282,0.0023808,1.0602,0.0034389,0.0073287,1.2313e-08,0.56,0.9,0
0.028885,-0.0069077,0.0081074,-0.00016742,0.002382,9.865e-05,0,0,0.052101,-0.0232,0,0.0017954,0,0,0,0.0081086,-0.00016859,0.002382,0.68294,0.0034406,0.007342,1.2367e-08,0.58,0.9,0
0.029927,-0.0069201,0.0081121,-0.00016953,0.0023828,4.2685e-05,0,0,0.052137,-0.023226,0,0.00077686,0,0,0,0.0081123,-0.00016975,0.0023828,0.2953,0.0034418,0.0073463,1.2386e-08,0.6,0.9,0
0.03097,-0.0069507,0.0081099,-0.00016633,0.0023831,-1.3222e-05,0,0,0.052115,-0.0232,0,-0.00024064,0,0,0,0.00811,-0.00016635,0.0023831,-0.091536,0.0034422,0.0073415,1.237e-08,0.62,0.9,0
0.032012,-0.0069994,0.008101,-0.00015804,0.0023829,-6.7271e-05,0,0,0.052035,-0.023122,0,-0.0012243,0,0,0,0.0081015,-0.00015859,0.0023829,-0.46664,0.0034419,0.0073277,1.2319e-08,0.64,0.9,0
0.033051,-0.0070656,0.0080855,-0.00014514,0.0023821,-0.00011779,0,0,0.051901,-0.022998,0,-0.0021437,0,0,0,0.0080872,-0.00014682,0.0023821,-0.81972,0.0034408,0.0073056,1.2237e-08,0.66,0.9,0
0.034088,-0.007148,0.0080642,-0.00012825,0.0023808,-0.00016329,0,0,0.051719,-0.022832,0,-0.0029718,0,0,0,0.0080674,-0.0001315,0.0023808,-1.1414,0.0034389,0.0072757,1.2124e-08,0.68,0.9,0
0.03512,-0.0072448,0.0080377,-0.00010818,0.0023789,-0.00020255,0,0,0.051496,-0.022632,0,-0.0036864,0,0,0,0.0080428,-0.00011322,0.0023789,-1.4235,0.0034361,0.0072391,1.1986e-08,0.7,0.9,0
0.036148,-0.0073537,0.0080072,-8.5813e-05,0.0023764,-0.00023464,0,0,0.05124,-0.022406,0,-0.0042705,0,0,0,0.008014,-9.261e-05,0.0023764,-1.6593,0.0034326,0.0071971,1.1827e-08,0.72,0.9,0
0.03717,-0.0074722,0.0079736,-6.205e-05,0.0023735,-0.00025895,0,0,0.050961,-0.022163,0,-0.004713,0,0,0,0.0079819,-7.0387e-05,0.0023735,-1.8438,0.0034283,0.0071508,1.1652e-08,0.74,0.9,0
0.038186,-0.0075973,0.0079379,-3.7779e-05,0.00237,-0.00027518,0,0,0.050668,-0.021911,0,-0.0050083,0,0,0,0.0079474,-4.7262e-05,0.00237,-1.9737,0.0034234,0.0071016,1.1468e-08,0.76,0.9,0
0.039196,-0.0077262,0.0079014,-1.3806e-05,0.0023663,-0.00028331,0,0,0.050369,-0.021659,0,-0.0051562,0,0,0,0.0079115,-2.3934e-05,0.0023663,-2.0473,0.0034179,0.007051,1.1278e-08,0.78,0.9,0
0.040201,-0.0078558,0.0078649,9.1742e-06,0.0023622,-0.00028359,0,0,0.050074,-0.021413,0,-0.0051613,0,0,0,0.0078751,-1.0498e-06,0.0023622,-2.0648,0.0034121,0.0070004,1.1089e-08,0.8,0.9,0
0.041199,-0.0079831,0.0078294,3.0605e-05,0.002358,-0.00027647,0,0,0.04979,-0.02118,0,-0.0050318,0,0,0,0.0078392,2.0816e-05,0.002358,-2.0278,0.003406,0.0069511,1.0905e-08,0.82,0.9,0
0.042192,-0.0081054,0.0077958,5.0071e-05,0.0023538,-0.00026258,0,0,0.049523,-0.020964,0,-0.0047789,0,0,0,0.0078047,4.118e-05,0.0023538,-1.9393,0.0033999,0.0069041,1.0731e-08,0.84,0.9,0
0.04318,-0.0082198,0.0077648,6.73e-05,0.0023496,-0.00024263,0,0,0.049278,-0.020769,0,-0.0044158,0,0,0,0.0077724,5.966e-05,0.0023496,-1.8036,0.0033939,0.0068607,1.0571e-08,0.86,0.9,0
0.044164,-0.0083241,0.0077369,8.2142e-05,0.0023457,-0.00021741,0,0,0.04906,-0.020598,0,-0.0039569,0,0,0,0.007743,7.5972e-05,0.0023457,-1.6256,0.0033882,0.0068216,1.0427e-08,0.88,0.9,0
0.045143,-0.008416,0.0077126,9.4545e-05,0.0023421,-0.00018774,0,0,0.048871,-0.020453,0,-0.0034169,0,0,0,0.0077172,8.9921e-05,0.0023421,-1.4109,0.0033831,0.0067875,1.0302e-08,0.9,0.9,0
0.046118,-0.0084938,0.0076923,0.00010453,0.002339,-0.00015443,0,0,0.048714,-0.020334,0,-0.0028107,0,0,0,0.0076954,0.00010139,0.002339,-1.1655,0.0033786,0.0067589,1.0197e-08,0.92,0.9,0
0.047091,-0.0085558,0.0076762,0.00011217,0.0023365,-0.00011826,0,0,0.048591,-0.020241,0,-0.0021524,0,0,0,0.0076781,0.00011033,0.0023365,-0.89551,0.003375,0.0067364,1.0115e-08,0.94,0.9,0
0.048062,-0.008601,0.0076646,0.00011755,0.0023347,-7.9989e-05,0,0,0.048503,-0.020176,0,-0.0014558,0,0,0,0.0076655,0.0001167,0.0023347,-0.60717,0.0033723,0.0067201,1.0056e-08,0.96,0.9,0
0.049031,-0.0086285,0.0076576,0.00012074,0.0023335,-4.0336e-05,0,0,0.048449,-0.020136,0,-0.00073412,0,0,0,0.0076578,0.00012052,0.0023335,-0.30663,0.0033706,0.0067103,1.002e-08,0.98,0.9,0
0.05,-0.0086377,0.0076553,0.0001218,0.0023331,-2.5298e-05,0,0,0.048432,-0.020123,0,-0.00046042,0,0,0,0.0076554,0.00012171,0.0023331,-0.1924,0.0033701,0.0067072,1.0008e-08,1,0.9,0
0,0,0.0085007,0.0036432,0.0036432,-0.0024024,0,0,0.044204,1.301e-18,0,-0.043724,0,0,0,0.0094882,0.0026557,0.0036432,-22.344,0.0052623,0.0063961,1.2367e-08,0,0.92,0
0.00088407,-0.00087449,0.0084346,0.0029703,0.0034215,-0.0023421,0,0,0.04562,-0.0041058,0,-0.042625,0,0,0,0.009301,0.0021038,0.0034215,-20.302,0.0049421,0.0066372,1.3044e-08,0.02,0.92,0
0.0018248,-0.00178,0.0085576,0.0022662,0.0032472,-0.0022144,0,0,0.048325,-0.0089264,0,-0.040302,0,0,0,0.0092589,0.001565,0.0032472,-17.572,0.0046903,0.007006,1.4288e-08,0.04,0.92,0
0.0028171,-0.0026646,0.0086224,0.0016497,0.0030816,-0.0019483,0,0,0.050421,-0.013031,0,-0.035459,0,0,0,0.0091299,0.0011422,0.0030816,-14.599,0.0044512,0.0072161,1.4702e-08,0.06,0.92,0
0.0038416,-0.0034874,0.0086041,0.0011983,0.0029407,-0.0016207,0,0,0.051537,-0.015856,0,-0.029497,0,0,0,0.0089433,0.00085913,0.0029407,-11.819,0.0042477,0.0072704,1.4419e-08,0.08,0.92,0
0.0048786,-0.0042279,0.0085142,0.00089112,0.0028216,-0.0013024,0,0,0.051803,-0.017567,0,-0.023704,0,0,0,0.0087306,0.00067474,0.0028216,-9.4327,0.0040756,0.0072257,1.3765e-08,0.1,0.92,0
0.0059137,-0.0048811,0.0083821,0.00067852,0.0027182,-0.0010228,0,0,0.051542,-0.018561,0,-0.018616,0,0,0,0.0085156,0.00054503,0.0027182,-7.4357,0.0039263,0.0071366,1.2998e-08,0.12,0.92,0
0.0069402,-0.0054501,0.0082404,0.00052949,0.002631,-0.00078728,0,0,0.051046,-0.019123,0,-0.014329,0,0,0,0.0083199,0.00044992,0.002631,-5.7706,0.0038003,0.0070377,1.2277e-08,0.14,0.92,0
0.0079556,-0.0059404,0.0081068,0.00042272,0.0025589,-0.000591,0,0,0.050486,-0.019439,0,-0.010756,0,0,0,0.008152,0.00037754,0.0025589,-4.3725,0.0036961,0.0069456,1.166e-08,0.16,0.92,0
0.0089597,-0.0063582,0.0079901,0.00034444,0.0025004,-0.00042722,0,0,0.049956,-0.019619,0,-0.0077753,0,0,0,0.0080138,0.00032064,0.0025004,-3.1883,0.0036116,0.0068679,1.1163e-08,0.18,0.92,0
0.0099538,-0.0067097,0.0078933,0.00028552,0.0024536,-0.00028964,0,0,0.049501,-0.01973,0,-0.0052714,0,0,0,0.0079043,0.0002745,0.0024536,-2.1771,0.0035441,0.006807,1.0779e-08,0.2,0.92,0
0.01094,-0.0070005,0.0078169,0.00023988,0.002417,-0.00017318,0,0,0.049139,-0.019812,0,-0.003152,0,0,0,0.0078208,0.00023592,0.002417,-1.3087,0.0034912,0.0067635,1.0498e-08,0.22,0.92,0
0.011919,-0.0072362,0.0077599,0.00020337,0.002389,-7.3971e-05,0,0,0.048875,-0.019889,0,-0.0013463,0,0,0,0.0077606,0.00020264,0.002389,-0.5608,0.0034507,0.0067364,1.0306e-08,0.24,0.92,0
0.012895,-0.0074219,0.0077208,0.00017308,0.0023682,1.0857e-05,0,0,0.048709,-0.019975,0,0.0001976,0,0,0,0.0077208,0.00017306,0.0023682,0.082418,0.0034207,0.0067245,1.0192e-08,0.26,0.92,0
0.013868,-0.0075625,0.0076979,0.00014694,0.0023535,8.3336e-05,0,0,0.048635,-0.020079,0,0.0015167,0,0,0,0.0076989,0.00014603,0.0023535,0.63224,0.0033995,0.0067265,1.0145e-08,0.28,0.92,0
0.01484,-0.0076628,0.0076895,0.00012348,0.0023439,0.00014486,0,0,0.048645,-0.020206,0,0.0026365,0,0,0,0.0076922,0.0001207,0.0023439,1.0965,0.0033856,0.0067408,1.0156e-08,0.3,0.92,0
0.015814,-0.0077275,0.0076936,0.0001016,0.0023386,0.00019635,0,0,0.048731,-0.020356,0,0.0035735,0,0,0,0.0076987,9.6522e-05,0.0023386,1.4805,0.0033779,0.0067657,1.0217e-08,0.32,0.92,0
0.016789,-0.0077612,0.0077086,8.0551e-05,0.0023367,0.00023834,0,0,0.048884,-0.020531,0,0.0043377,0,0,0,0.007716,7.3111e-05,0.0023367,1.7879,0.0033753,0.0067998,1.0322e-08,0.34,0.92,0
0.017769,-0.0077685,0.0077326,5.9842e-05,0.0023377,0.00027112,0,0,0.049093,-0.020729,0,0.0049344,0,0,0,0.0077422,5.0274e-05,0.0023377,2.0212,0.0033767,0.0068413,1.0461e-08,0.36,0.92,0
0.018753,-0.0077542,0.0077641,3.9201e-05,0.002341,0.00029483,0,0,0.04935,-0.020946,0,0.005366,0,0,0,0.0077753,2.7964e-05,0.002341,2.1826,0.0033814,0.0068885,1.0629e-08,0.38,0.92,0
0.019743,-0.0077227,0.0078011,1.8552e-05,0.0023459,0.00030952,0,0,0.049642,-0.021179,0,0.0056333,0,0,0,0.0078134,6.2612e-06,0.0023459,2.274,0.0033885,0.0069397,1.0819e-08,0.4,0.92,0
0.020739,-0.0076788,0.007842,-2.0026e-06,0.002352,0.00031525,0,0,0.049959,-0.021421,0,0.0057375,0,0,0,0.0078546,-1.4652e-05,0.002352,2.2978,0.0033973,0.0069931,1.1023e-08,0.42,0.92,0
0.021741,-0.0076269,0.007885,-2.2209e-05,0.0023588,0.00031213,0,0,0.050288,-0.021668,0,0.0056807,0,0,0,0.0078973,-3.4511e-05,0.0023588,2.257,0.0034072,0.0070469,1.1233e-08,0.44,0.92,0
0.02275,-0.0075714,0.0079285,-4.1689e-05,0.002366,0.00030042,0,0,0.050618,-0.02191,0,0.0054676,0,0,0,0.0079398,-5.2996e-05,0.002366,2.1556,0.0034176,0.0070994,1.1443e-08,0.46,0.92,0
0.023766,-0.0075163,0.0079706,-5.9972e-05,0.0023732,0.00028054,0,0,0.050937,-0.022142,0,0.0051059,0,0,0,0.0079804,-6.976e-05,0.0023732,1.9983,0.003428,0.0071489,1.1645e-08,0.48,0.92,0
0.024788,-0.0074655,0.00801,-7.6538e-05,0.00238,0.00025314,0,0,0.051233,-0.022355,0,0.0046071,0,0,0,0.0080179,-8.4454e-05,0.00238,1.7912,0.0034378,0.007194,1.1832e-08,0.5,0.92,0
0.025815,-0.0074226,0.0080452,-9.0856e-05,0.0023863,0.00021906,0,0,0.051496,-0.022542,0,0.0039868,0,0,0,0.0080511,-9.675e-05,0.0023863,1.5412,0.0034469,0.0072333,1.1998e-08,0.52,0.92,0
0.026848,-0.0073905,0.0080748,-0.00010244,0.0023917,0.00017937,0,0,0.051716,-0.022697,0,0.0032645,0,0,0,0.0080788,-0.00010637,0.0023917,1.256,0.0034547,0.0072656,1.2136e-08,0.54,0.92,0
0.027884,-0.0073717,0.008098,-0.00011086,0.0023961,0.00013533,0,0,0.051887,-0.022814,0,0.002463,0,0,0,0.0081002,-0.00011309,0.0023961,0.94422,0.0034611,0.0072901,1.2243e-08,0.56,0.92,0
0.028923,-0.0073682,0.0081138,-0.00011582,0.0023994,8.8352e-05,0,0,0.052001,-0.022888,0,0.001608,0,0,0,0.0081148,-0.00011677,0.0023994,0.61502,0.0034658,0.007306,1.2315e-08,0.58,0.92,0
0.029964,-0.0073812,0.0081219,-0.00011717,0.0024014,3.9945e-05,0,0,0.052056,-0.022919,0,0.000727,0,0,0,0.0081221,-0.00011736,0.0024014,0.27777,0.0034687,0.007313,1.2349e-08,0.6,0.92,0
0.031005,-0.0074114,0.008122,-0.0001149,0.0024021,-8.353e-06,0,0,0.052051,-0.022905,0,-0.00015202,0,0,0,0.008122,-0.00011491,0.0024021,-0.058103,0.0034698,0.0073109,1.2345e-08,0.62,0.92,0
0.032046,-0.0074588,0.0081142,-0.00010917,0.0024015,-5.5036e-05,0,0,0.051986,-0.022847,0,-0.0010017,0,0,0,0.0081146,-0.00010954,0.0024015,-0.38344,0.0034689,0.0073,1.2303e-08,0.64,0.92,0
0.033085,-0.0075228,0.008099,-0.00010028,0.0023996,-9.87e-05,0,0,0.051864,-0.022749,0,-0.0017963,0,0,0,0.0081002,-0.00010147,0.0023996,-0.68957,0.0034661,0.0072807,1.2225e-08,0.66,0.92,0
0.034121,-0.0076022,0.0080768,-8.8677e-05,0.0023964,-0.0001381,0,0,0.051692,-0.022615,0,-0.0025134,0,0,0,0.0080792,-9.1012e-05,0.0023964,-0.96863,0.0034615,0.0072537,1.2114e-08,0.68,0.92,0
0.035152,-0.0076954,0.0080486,-7.4891e-05,0.0023921,-0.00017219,0,0,0.051474,-0.02245,0,-0.0031339,0,0,0,0.0080523,-7.8539e-05,0.0023921,-1.2138,0.0034553,0.0072198,1.1975e-08,0.7,0.92,0
0.03618,-0.0078002,0.0080154,-5.9517e-05,0.0023868,-0.00020018,0,0,0.051221,-0.022261,0,-0.0036434,0,0,0,0.0080204,-6.4477e-05,0.0023868,-1.4192,0.0034476,0.0071802,1.1812e-08,0.72,0.92,0
0.037201,-0.0079142,0.0079783,-4.3174e-05,0.0023805,-0.00022154,0,0,0.050939,-0.022056,0,-0.004032,0,0,0,0.0079844,-4.9288e-05,0.0023805,-1.5808,0.0034385,0.0071361,1.1631e-08,0.74,0.92,0
0.038217,-0.0080348,0.0079384,-2.6462e-05,0.0023736,-0.00023598,0,0,0.05064,-0.02184,0,-0.0042947,0,0,0,0.0079454,-3.3447e-05,0.0023736,-1.6955,0.0034285,0.0070887,1.1438e-08,0.76,0.92,0
0.039227,-0.008159,0.007897,-9.9319e-06,0.0023661,-0.00024346,0,0,0.050331,-0.021622,0,-0.0044309,0,0,0,0.0079045,-1.7421e-05,0.0023661,-1.7619,0.0034177,0.0070396,1.1238e-08,0.78,0.92,0
0.04023,-0.008284,0.0078552,5.9396e-06,0.0023583,-0.00024416,0,0,0.050021,-0.021407,0,-0.0044438,0,0,0,0.0078628,-1.6481e-06,0.0023583,-1.78,0.0034065,0.0069899,1.1038e-08,0.8,0.92,0
0.041228,-0.008407,0.0078141,2.0767e-05,0.0023505,-0.00023846,0,0,0.049719,-0.0212,0,-0.0043399,0,0,0,0.0078214,1.3477e-05,0.0023505,-1.7509,0.0033951,0.0069411,1.0842e-08,0.82,0.92,0
0.042219,-0.0085252,0.0077748,3.426e-05,0.0023427,-0.00022684,0,0,0.049432,-0.021007,0,-0.0041285,0,0,0,0.0077814,2.7618e-05,0.0023427,-1.6772,0.0033839,0.0068943,1.0655e-08,0.84,0.92,0
0.043205,-0.008636,0.0077381,4.6225e-05,0.0023353,-0.00020991,0,0,0.049166,-0.020831,0,-0.0038205,0,0,0,0.0077438,4.05e-05,0.0023353,-1.5621,0.0033732,0.0068505,1.0482e-08,0.86,0.92,0
0.044186,-0.008737,0.0077048,5.655e-05,0.0023284,-0.00018835,0,0,0.048925,-0.020674,0,-0.0034279,0,0,0,0.0077095,5.1915e-05,0.0023284,-1.4098,0.0033633,0.0068109,1.0326e-08,0.88,0.92,0
0.045162,-0.0088262,0.0076756,6.5195e-05,0.0023223,-0.00016283,0,0,0.048716,-0.020539,0,-0.0029636,0,0,0,0.0076791,6.1713e-05,0.0023223,-1.2251,0.0033544,0.0067761,1.019e-08,0.9,0.92,0
0.046134,-0.0089016,0.0076511,7.2168e-05,0.002317,-0.00013407,0,0,0.04854,-0.020428,0,-0.0024401,0,0,0,0.0076534,6.9797e-05,0.002317,-1.0131,0.0033467,0.0067468,1.0076e-08,0.92,0.92,0
0.047104,-0.0089619,0.0076315,7.7509e-05,0.0023127,-0.00010275,0,0,0.048401,-0.02034,0,-0.00187,0,0,0,0.0076329,7.6112e-05,0.0023127,-0.77913,0.0033406,0.0067235,9.9862e-09,0.94,0.92,0
0.04807,-0.0090058,0.0076173,8.1271e-05,0.0023096,-6.9534e-05,0,0,0.048301,-0.020278,0,-0.0012655,0,0,0,0.007618,8.063e-05,0.0023096,-0.5286,0.0033361,0.0067067,9.921e-09,0.96,0.92,0
0.049036,-0.0090325,0.0076087,8.3505e-05,0.0023077,-3.5076e-05,0,0,0.04824,-0.02024,0,-0.00063838,0,0,0,0.0076089,8.3342e-05,0.0023077,-0.26705,0.0033333,0.0066964,9.8815e-09,0.98,0.92,0
0.05,-0.0090415,0.0076058,8.4246e-05,0.002307,-2.4597e-05,0,0,0.048219,-0.020227,0,-0.00044767,0,0,0,0.0076059,8.4165e-05,0.002307,-0.18737,0.0033324,0.0066932,9.8688e-09,1,0.92,0
0,0,0.0089554,0.003838,0.003838,-0.0026587,0,0,0.046568,2.6021e-18,0,-0.048389,0,0,0,0.010087,0.0027068,0.003838,-23.049,0.0055438,0.0068843,1.5243e-08,0,0.94,0
0.00093136,-0.00096778,0.0088376,0.0028833,0.0035163,-0.0025315,0,0,0.048424,-0.0057599,0,-0.046074,0,0,0,0.0097684,0.0019525,0.0035163,-20.188,0.005079,0.0071632,1.5887e-08,0.02,0.94,0
0.001937,-0.0019822,0.0089228,0.0019166,0.0032518,-0.0022987,0,0,0.051606,-0.01215,0,-0.041836,0,0,0,0.0096096,0.0012298,0.0032518,-16.636,0.0046971,0.0075741,1.7069e-08,0.04,0.94,0
0.0029956,-0.002954,0.0089118,0.0012327,0.0030434,-0.0018788,0,0,0.053403,-0.016477,0,-0.034194,0,0,0,0.0093469,0.00079766,0.0030434,-13.037,0.004396,0.0076768,1.6707e-08,0.06,0.94,0
0.0040731,-0.003831,0.0087808,0.00084588,0.002888,-0.0014594,0,0,0.053624,-0.018583,0,-0.026562,0,0,0,0.0090407,0.00058597,0.002888,-10.098,0.0041716,0.0075709,1.5538e-08,0.08,0.94,0
0.0051406,-0.0046,0.008558,0.00060055,0.0027476,-0.0011094,0,0,0.052875,-0.019538,0,-0.020191,0,0,0,0.0087098,0.00044879,0.0027476,-7.7899,0.0039687,0.007385,1.413e-08,0.1,0.94,0
0.0061881,-0.0052678,0.008327,0.0004427,0.0026309,-0.00083506,0,0,0.051834,-0.019913,0,-0.015198,0,0,0,0.0084145,0.00035523,0.0026309,-5.98,0.0038002,0.0071965,1.2888e-08,0.12,0.94,0
0.007214,-0.0058436,0.0081193,0.00033731,0.002537,-0.00062059,0,0,0.050799,-0.020017,0,-0.011295,0,0,0,0.0081685,0.00028813,0.002537,-4.531,0.0036645,0.0070311,1.1889e-08,0.14,0.94,0
0.0082201,-0.0063369,0.0079456,0.0002647,0.0024631,-0.00045094,0,0,0.049891,-0.020005,0,-0.0082072,0,0,0,0.007972,0.00023832,0.0024631,-3.3485,0.0035578,0.0068959,1.1122e-08,0.16,0.94,0
0.0092096,-0.0067558,0.0078068,0.00021303,0.002406,-0.00031439,0,0,0.049148,-0.019956,0,-0.005722,0,0,0,0.0078198,0.00020003,0.002406,-2.3667,0.0034753,0.0067911,1.055e-08,0.18,0.94,0
0.010186,-0.0071077,0.0077004,0.00017504,0.0023626,-0.00020256,0,0,0.048574,-0.019907,0,-0.0036867,0,0,0,0.0077059,0.00016959,0.0023626,-1.5408,0.0034127,0.006714,1.0137e-08,0.2,0.94,0
0.011153,-0.0073989,0.0076229,0.00014614,0.0023307,-0.00010959,0,0,0.048159,-0.01988,0,-0.0019945,0,0,0,0.0076245,0.00014454,0.0023307,-0.83954,0.0033666,0.0066615,9.8534e-09,0.22,0.94,0
0.012112,-0.0076352,0.0075706,0.00012334,0.0023082,-3.1393e-05,0,0,0.047888,-0.019882,0,-0.00057136,0,0,0,0.0075707,0.00012321,0.0023082,-0.24152,0.003334,0.0066307,9.6757e-09,0.24,0.94,0
0.013068,-0.0078219,0.0075403,0.00010461,0.0022935,3.482e-05,0,0,0.047746,-0.019918,0,0.00063372,0,0,0,0.0075404,0.00010445,0.0022935,0.2683,0.0033128,0.0066187,9.5862e-09,0.26,0.94,0
0.014022,-0.0079642,0.007529,8.856e-05,0.0022852,9.0961e-05,0,0,0.047718,-0.01999,0,0.0016555,0,0,0,0.0075301,8.7449e-05,0.0022852,0.70032,0.0033009,0.0066231,9.5706e-09,0.28,0.94,0
0.014977,-0.0080666,0.007534,7.4196e-05,0.0022825,0.00013829,0,0,0.047789,-0.020095,0,0.0025169,0,0,0,0.0075366,7.1633e-05,0.0022825,1.0617,0.0032969,0.0066415,9.6178e-09,0.3,0.94,0
0.015934,-0.008134,0.0075529,6.0822e-05,0.0022841,0.00017762,0,0,0.047946,-0.020232,0,0.0032326,0,0,0,0.0075572,5.6613e-05,0.0022841,1.3573,0.0032993,0.0066717,9.7184e-09,0.32,0.94,0
0.016895,-0.008171,0.0075835,4.7954e-05,0.0022894,0.00020941,0,0,0.048176,-0.020397,0,0.0038112,0,0,0,0.0075893,4.2139e-05,0.0022894,1.5906,0.003307,0.0067119,9.8639e-09,0.34,0.94,0
0.017861,-0.0081821,0.0076235,3.528e-05,0.0022976,0.00023391,0,0,0.048466,-0.020588,0,0.0042571,0,0,0,0.0076307,2.8077e-05,0.0022976,1.7639,0.0033188,0.0067599,1.0047e-08,0.36,0.94,0
0.018833,-0.0081719,0.0076709,2.2631e-05,0.0023081,0.00025122,0,0,0.048802,-0.020797,0,0.0045723,0,0,0,0.0076791,1.4388e-05,0.0023081,1.8793,0.0033339,0.0068139,1.0259e-08,0.38,0.94,0
0.019813,-0.008145,0.0077236,9.9613e-06,0.0023201,0.0002614,0,0,0.049172,-0.021022,0,0.0047576,0,0,0,0.0077325,1.1128e-06,0.0023201,1.9387,0.0033512,0.0068719,1.0494e-08,0.4,0.94,0
0.0208,-0.0081057,0.0077796,-2.6624e-06,0.0023331,0.00026449,0,0,0.049564,-0.021255,0,0.0048137,0,0,0,0.0077886,-1.1641e-05,0.0023331,1.9443,0.00337,0.006932,1.0743e-08,0.42,0.94,0
0.021795,-0.0080585,0.007837,-1.508e-05,0.0023466,0.00026058,0,0,0.049963,-0.021491,0,0.0047425,0,0,0,0.0078457,-2.3718e-05,0.0023466,1.8986,0.0033895,0.0069923,1.0999e-08,0.44,0.94,0
0.022799,-0.0080076,0.0078939,-2.7055e-05,0.00236,0.00024987,0,0,0.050358,-0.021723,0,0.0045477,0,0,0,0.0079018,-3.493e-05,0.00236,1.8051,0.003409,0.0070512,1.1253e-08,0.46,0.94,0
0.02381,-0.0079569,0.0079484,-3.8295e-05,0.002373,0.00023272,0,0,0.050736,-0.021943,0,0.0042354,0,0,0,0.0079552,-4.507e-05,0.002373,1.6676,0.0034277,0.0071067,1.1498e-08,0.48,0.94,0
0.024828,-0.0079103,0.0079988,-4.8476e-05,0.0023851,0.00020962,0,0,0.051085,-0.022145,0,0.0038151,0,0,0,0.0080043,-5.3932e-05,0.0023851,1.4911,0.0034452,0.0071575,1.1725e-08,0.5,0.94,0
0.025853,-0.0078709,0.0080436,-5.7269e-05,0.0023959,0.00018126,0,0,0.051394,-0.022324,0,0.003299,0,0,0,0.0080477,-6.1323e-05,0.0023959,1.2812,0.0034608,0.007202,1.1928e-08,0.52,0.94,0
0.026884,-0.0078418,0.0080816,-6.4369e-05,0.0024052,0.0001485,0,0,0.051655,-0.022473,0,0.0027026,0,0,0,0.0080843,-6.7075e-05,0.0024052,1.044,0.0034741,0.0072391,1.21e-08,0.54,0.94,0
0.027919,-0.0078253,0.0081115,-6.9519e-05,0.0024126,0.00011232,0,0,0.05186,-0.022587,0,0.0020443,0,0,0,0.008113,-7.1061e-05,0.0024126,0.78646,0.0034848,0.0072678,1.2236e-08,0.56,0.94,0
0.028958,-0.0078232,0.0081326,-7.2533e-05,0.002418,7.387e-05,0,0,0.052003,-0.022664,0,0.0013444,0,0,0,0.0081333,-7.3198e-05,0.002418,0.51577,0.0034927,0.0072875,1.233e-08,0.58,0.94,0
0.029999,-0.0078369,0.0081444,-7.331e-05,0.0024213,3.4332e-05,0,0,0.05208,-0.022701,0,0.00062484,0,0,0,0.0081446,-7.3454e-05,0.0024213,0.23937,0.0034975,0.0072978,1.2382e-08,0.6,0.94,0
0.031041,-0.0078669,0.0081467,-7.1849e-05,0.0024225,-5.0645e-06,0,0,0.052091,-0.022698,0,-9.2174e-05,0,0,0,0.0081467,-7.1852e-05,0.0024225,-0.035307,0.0034991,0.0072984,1.2389e-08,0.62,0.94,0
0.032083,-0.0079133,0.0081397,-6.8247e-05,0.0024214,-4.3121e-05,0,0,0.052036,-0.022656,0,-0.0007848,0,0,0,0.0081399,-6.8473e-05,0.0024214,-0.301,0.0034976,0.0072897,1.2353e-08,0.64,0.94,0
0.033123,-0.0079756,0.0081238,-6.2691e-05,0.0024183,-7.8717e-05,0,0,0.05192,-0.022577,0,-0.0014327,0,0,0,0.0081245,-6.3448e-05,0.0024183,-0.55086,0.0034931,0.007272,1.2275e-08,0.66,0.94,0
0.03416,-0.0080526,0.0080996,-5.5451e-05,0.0024132,-0.00011086,0,0,0.051746,-0.022465,0,-0.0020176,0,0,0,0.0081011,-5.6958e-05,0.0024132,-0.77867,0.0034858,0.007246,1.216e-08,0.68,0.94,0
0.035193,-0.0081428,0.0080681,-4.6856e-05,0.0024064,-0.00013871,0,0,0.051522,-0.022325,0,-0.0025245,0,0,0,0.0080705,-4.9226e-05,0.0024064,-0.97897,0.0034759,0.0072126,1.2011e-08,0.7,0.94,0
0.036221,-0.0082442,0.0080306,-3.7273e-05,0.002398,-0.00016163,0,0,0.051256,-0.022161,0,-0.0029416,0,0,0,0.0080338,-4.051e-05,0.002398,-1.1472,0.0034638,0.007173,1.1834e-08,0.72,0.94,0
0.037243,-0.0083544,0.0079881,-2.7084e-05,0.0023883,-0.00017918,0,0,0.050958,-0.02198,0,-0.003261,0,0,0,0.0079921,-3.1087e-05,0.0023883,-1.28,0.0034498,0.0071284,1.1637e-08,0.74,0.94,0
0.038259,-0.0084709,0.0079421,-1.666e-05,0.0023776,-0.00019112,0,0,0.050636,-0.021788,0,-0.0034784,0,0,0,0.0079466,-2.1247e-05,0.0023776,-1.3748,0.0034343,0.0070801,1.1425e-08,0.76,0.94,0
0.039268,-0.0085911,0.0078939,-6.342e-06,0.0023663,-0.00019742,0,0,0.050301,-0.021591,0,-0.003593,0,0,0,0.0078988,-1.1272e-05,0.0023663,-1.4306,0.0034179,0.0070296,1.1205e-08,0.78,0.94,0
0.040271,-0.0087121,0.0078449,3.5723e-06,0.0023545,-0.00019821,0,0,0.049962,-0.021394,0,-0.0036074,0,0,0,0.0078499,-1.4347e-06,0.0023545,-1.447,0.003401,0.0069783,1.0983e-08,0.8,0.94,0
0.041267,-0.0088311,0.0077965,1.2842e-05,0.0023428,-0.00019377,0,0,0.049629,-0.021203,0,-0.0035265,0,0,0,0.0078013,8.0213e-06,0.0023428,-1.4251,0.0033841,0.0069276,1.0767e-08,0.82,0.94,0
0.042256,-0.0089456,0.0077499,2.1285e-05,0.0023313,-0.00018449,0,0,0.049308,-0.021021,0,-0.0033577,0,0,0,0.0077543,1.6884e-05,0.0023313,-1.3667,0.0033675,0.0068787,1.056e-08,0.84,0.94,0
0.043239,-0.009053,0.0077061,2.8779e-05,0.0023205,-0.00017086,0,0,0.049009,-0.020854,0,-0.0031097,0,0,0,0.0077099,2.4978e-05,0.0023205,-1.2743,0.0033518,0.0068328,1.0368e-08,0.86,0.94,0
0.044217,-0.009151,0.0076662,3.5252e-05,0.0023104,-0.00015342,0,0,0.048737,-0.020704,0,-0.0027922,0,0,0,0.0076693,3.2169e-05,0.0023104,-1.1513,0.0033373,0.0067909,1.0194e-08,0.88,0.94,0
0.045189,-0.0092376,0.007631,4.0676e-05,0.0023015,-0.00013271,0,0,0.048498,-0.020574,0,-0.0024154,0,0,0,0.0076333,3.8356e-05,0.0023015,-1.0014,0.0033244,0.006754,1.0042e-08,0.9,0.94,0
0.046157,-0.0093109,0.0076013,4.5053e-05,0.0022939,-0.00010933,0,0,0.048297,-0.020464,0,-0.0019898,0,0,0,0.0076028,4.3472e-05,0.0022939,-0.82876,0.0033134,0.0067228,9.9149e-09,0.92,0.94,0
0.047121,-0.0093694,0.0075775,4.8409e-05,0.0022878,-8.3819e-05,0,0,0.048137,-0.020378,0,-0.0015255,0,0,0,0.0075785,4.7476e-05,0.0022878,-0.63775,0.0033046,0.006698,9.814e-09,0.94,0.94,0
0.048082,-0.0094121,0.0075603,5.0774e-05,0.0022833,-5.6741e-05,0,0,0.04802,-0.020316,0,-0.0010327,0,0,0,0.0075607,5.0345e-05,0.0022833,-0.43289,0.0032981,0.0066799,9.741e-09,0.96,0.94,0
0.049042,-0.0094381,0.0075498,5.2178e-05,0.0022806,-2.8627e-05,0,0,0.04795,-0.020279,0,-0.00052102,0,0,0,0.0075499,5.2069e-05,0.0022806,-0.21876,0.0032942,0.0066689,9.6968e-09,0.98,0.94,0
0.05,-0.0094468,0.0075463,5.2644e-05,0.0022797,-2.3915e-05,0,0,0.047926,-0.020266,0,-0.00043526,0,0,0,0.0075464,5.2568e-05,0.0022797,-0.18285,0.0032929,0.0066654,9.6824e-09,1,0.94,0
0,0,0.0098398,0.004217,0.004217,-0.0030354,0,0,0.051167,8.6736e-19,0,-0.055244,0,0,0,0.011166,0.0028911,0.004217,-23.597,0.0060913,0.0076978,2.1103e-08,0,0.96,0
0.0010233,-0.0011049,0.0094779,0.0025406,0.0036055,-0.0027408,0,0,0.053438,-0.0096911,0,-0.049883,0,0,0,0.01043,0.0015884,0.0036055,-19.157,0.005208,0.0080255,2.1001e-08,0.02,0.96,0
0.0021375,-0.002266,0.0094578,0.0012374,0.0032086,-0.0021785,0,0,0.056868,-0.017938,0,-0.039648,0,0,0,0.0099994,0.00069575,0.0032086,-13.962,0.0046346,0.0083363,2.0893e-08,0.04,0.96,0
0.0032981,-0.0033237,0.0093147,0.0007846,0.0030298,-0.00158,0,0,0.057193,-0.020431,0,-0.028756,0,0,0,0.0095979,0.00050134,0.0030298,-10.164,0.0043764,0.0081327,1.8891e-08,0.06,0.96,0
0.0044252,-0.0042307,0.0088888,0.00050482,0.0028181,-0.0011182,0,0,0.055244,-0.021051,0,-0.020351,0,0,0,0.0090354,0.00035824,0.0028181,-7.4678,0.0040706,0.0077459,1.6006e-08,0.08,0.96,0
0.0055078,-0.0050094,0.008484,0.00034386,0.0026483,-0.00080258,0,0,0.053104,-0.020971,0,-0.014607,0,0,0,0.0085623,0.00026548,0.0026483,-5.5775,0.0038254,0.007399,1.3762e-08,0.1,0.96,0
0.0065494,-0.0056777,0.0081495,0.0002454,0.0025185,-0.00057928,0,0,0.051242,-0.020685,0,-0.010543,0,0,0,0.0081917,0.00020317,0.0025185,-4.1695,0.0036378,0.0071191,1.2139e-08,0.12,0.96,0
0.0075575,-0.0062508,0.0078884,0.00018282,0.0024214,-0.00041621,0,0,0.04975,-0.020371,0,-0.007575,0,0,0,0.0079109,0.0001604,0.0024214,-3.0828,0.0034975,0.0069035,1.099e-08,0.14,0.96,0
0.0085394,-0.0067406,0.0076904,0.00014124,0.0023495,-0.00029254,0,0,0.048602,-0.020095,0,-0.0053242,0,0,0,0.0077017,0.00012993,0.0023495,-2.2158,0.0033937,0.0067418,1.018e-08,0.16,0.96,0
0.0095016,-0.0071564,0.0075443,0.00011247,0.002297,-0.0001957,0,0,0.04775,-0.01988,0,-0.0035617,0,0,0,0.0075494,0.00010732,0.002297,-1.5073,0.0033179,0.0066245,9.6167e-09,0.18,0.96,0
0.010449,-0.0075059,0.0074408,9.1757e-05,0.0022598,-0.0001178,0,0,0.047147,-0.019729,0,-0.0021439,0,0,0,0.0074427,8.987e-05,0.0022598,-0.91806,0.0032641,0.0065435,9.2364e-09,0.2,0.96,0
0.011388,-0.0077957,0.0073725,7.6248e-05,0.0022346,-5.378e-05,0,0,0.046754,-0.019641,0,-0.00097879,0,0,0,0.0073729,7.5851e-05,0.0022346,-0.42229,0.0032278,0.0064926,8.9969e-09,0.22,0.96,0
0.01232,-0.0080315,0.0073335,6.4149e-05,0.0022193,-3.5395e-07,0,0,0.046539,-0.019612,0,-6.4419e-06,0,0,0,0.0073335,6.4149e-05,0.0022193,-0.0027898,0.0032057,0.006467,8.8687e-09,0.24,0.96,0
0.013249,-0.0082187,0.0073193,5.4288e-05,0.0022121,4.4654e-05,0,0,0.046476,-0.019636,0,0.0008127,0,0,0,0.0073196,5.4014e-05,0.0022121,0.35215,0.0031952,0.0064627,8.8313e-09,0.26,0.96,0
0.014179,-0.0083621,0.0073258,4.5874e-05,0.0022115,8.267e-05,0,0,0.04654,-0.019707,0,0.0015046,0,0,0,0.0073268,4.4935e-05,0.0022115,0.65053,0.0031944,0.0064763,8.8696e-09,0.28,0.96,0
0.015111,-0.0084666,0.0073499,3.8356e-05,0.0022165,0.00011461,0,0,0.046714,-0.019821,0,0.0020859,0,0,0,0.0073517,3.656e-05,0.0022165,0.8978,0.0032016,0.0065052,8.9718e-09,0.3,0.96,0
0.016047,-0.0085368,0.0073887,3.1353e-05,0.002226,0.00014103,0,0,0.04698,-0.019971,0,0.0025667,0,0,0,0.0073913,2.8651e-05,0.002226,1.0977,0.0032153,0.0065467,9.1286e-09,0.32,0.96,0
0.01699,-0.0085771,0.0074394,2.4603e-05,0.0022392,0.00016224,0,0,0.047322,-0.020153,0,0.0029528,0,0,0,0.0074429,2.1055e-05,0.0022392,1.2529,0.0032344,0.0065986,9.3316e-09,0.34,0.96,0
0.01794,-0.008592,0.0074997,1.7938e-05,0.0022553,0.00017841,0,0,0.047724,-0.02036,0,0.0032471,0,0,0,0.0075039,1.3686e-05,0.0022553,1.3653,0.0032576,0.0066587,9.5732e-09,0.36,0.96,0
0.018899,-0.0085861,0.0075671,1.1269e-05,0.0022735,0.00018958,0,0,0.048172,-0.020586,0,0.0034503,0,0,0,0.0075719,6.5159e-06,0.0022735,1.4363,0.003284,0.0067248,9.8459e-09,0.38,0.96,0
0.019867,-0.0085636,0.0076394,4.5747e-06,0.0022932,0.00019575,0,0,0.048651,-0.020827,0,0.0035626,0,0,0,0.0076445,-4.4084e-07,0.0022932,1.4677,0.0033124,0.0067949,1.0142e-08,0.4,0.96,0
0.020845,-0.008529,0.0077144,-2.1083e-06,0.0023137,0.00019694,0,0,0.049147,-0.021074,0,0.0035844,0,0,0,0.0077194,-7.1314e-06,0.0023137,1.461,0.003342,0.0068669,1.0453e-08,0.42,0.96,0
0.021833,-0.0084866,0.0077898,-8.6915e-06,0.0023343,0.00019321,0,0,0.049645,-0.021322,0,0.0035164,0,0,0,0.0077946,-1.3475e-05,0.0023343,1.4184,0.0033718,0.0069387,1.077e-08,0.44,0.96,0
0.022831,-0.0084403,0.0078634,-1.5046e-05,0.0023545,0.00018468,0,0,0.050131,-0.021563,0,0.0033613,0,0,0,0.0078678,-1.9373e-05,0.0023545,1.3421,0.003401,0.0070085,1.1085e-08,0.46,0.96,0
0.023838,-0.008394,0.0079334,-2.1014e-05,0.0023737,0.0001716,0,0,0.050593,-0.021792,0,0.0031231,0,0,0,0.0079371,-2.4714e-05,0.0023737,1.2353,0.0034287,0.0070744,1.1389e-08,0.48,0.96,0
0.024854,-0.0083514,0.0079977,-2.642e-05,0.0023914,0.00015432,0,0,0.051017,-0.022002,0,0.0028085,0,0,0,0.0080006,-2.9387e-05,0.0023914,1.1013,0.0034542,0.0071346,1.1671e-08,0.5,0.96,0
0.025879,-0.0083156,0.0080546,-3.1088e-05,0.002407,0.00013331,0,0,0.051393,-0.022187,0,0.0024262,0,0,0,0.0080568,-3.3285e-05,0.002407,0.9443,0.0034769,0.0071876,1.1925e-08,0.52,0.96,0
0.02691,-0.0082894,0.0081027,-3.4853e-05,0.0024204,0.00010919,0,0,0.051709,-0.022342,0,0.0019873,0,0,0,0.0081042,-3.6318e-05,0.0024204,0.76863,0.0034961,0.0072322,1.2141e-08,0.54,0.96,0
0.027947,-0.0082752,0.0081409,-3.7577e-05,0.002431,8.2679e-05,0,0,0.05196,-0.022464,0,0.0015048,0,0,0,0.0081417,-3.8413e-05,0.002431,0.57914,0.0035114,0.0072672,1.2313e-08,0.56,0.96,0
0.028989,-0.0082748,0.0081682,-3.916e-05,0.0024387,5.4571e-05,0,0,0.052138,-0.022548,0,0.00099319,0,0,0,0.0081685,-3.9522e-05,0.0024387,0.38094,0.0035226,0.0072919,1.2437e-08,0.58,0.96,0
0.030033,-0.0082892,0.0081841,-3.9547e-05,0.0024433,2.5727e-05,0,0,0.05224,-0.022594,0,0.00046823,0,0,0,0.0081841,-3.9627e-05,0.0024433,0.17924,0.0035293,0.0073059,1.2509e-08,0.6,0.96,0
0.031078,-0.0083193,0.0081884,-3.8737e-05,0.0024449,-2.9754e-06,0,0,0.052266,-0.022601,0,-5.4153e-05,0,0,0,0.0081884,-3.8738e-05,0.0024449,-0.020721,0.0035315,0.007309,1.2527e-08,0.62,0.96,0
0.032123,-0.008365,0.0081814,-3.6781e-05,0.0024434,-3.0676e-05,0,0,0.052216,-0.02257,0,-0.00055831,0,0,0,0.0081815,-3.6895e-05,0.0024434,-0.21387,0.0035294,0.0073014,1.2492e-08,0.64,0.96,0
0.033167,-0.0084259,0.0081636,-3.378e-05,0.002439,-5.6573e-05,0,0,0.052094,-0.022502,0,-0.0010296,0,0,0,0.008164,-3.4171e-05,0.002439,-0.39539,0.0035229,0.0072836,1.2408e-08,0.66,0.96,0
0.034207,-0.0085008,0.0081358,-2.9877e-05,0.0024318,-7.9948e-05,0,0,0.051907,-0.022401,0,-0.0014551,0,0,0,0.0081366,-3.066e-05,0.0024318,-0.5609,0.0035126,0.0072565,1.2278e-08,0.68,0.96,0
0.035243,-0.0085883,0.0080991,-2.5249e-05,0.0024222,-0.00010021,0,0,0.05166,-0.022271,0,-0.0018238,0,0,0,0.0081004,-2.6485e-05,0.0024222,-0.70654,0.0034987,0.0072209,1.2108e-08,0.7,0.96,0
0.036274,-0.0086866,0.008055,-2.0091e-05,0.0024105,-0.00011688,0,0,0.051365,-0.022118,0,-0.0021273,0,0,0,0.0080567,-2.1783e-05,0.0024105,-0.8291,0.0034818,0.0071783,1.1906e-08,0.72,0.96,0
0.037298,-0.0087934,0.0080047,-1.4608e-05,0.002397,-0.00012966,0,0,0.05103,-0.021946,0,-0.0023598,0,0,0,0.0080068,-1.6703e-05,0.002397,-0.92607,0.0034624,0.00713,1.1679e-08,0.74,0.96,0
0.038315,-0.0089063,0.0079501,-8.9975e-06,0.0023823,-0.00013837,0,0,0.050667,-0.021761,0,-0.0025184,0,0,0,0.0079525,-1.1402e-05,0.0023823,-0.99572,0.0034411,0.0070774,1.1435e-08,0.76,0.96,0
0.039324,-0.0090226,0.0078927,-3.4444e-06,0.0023668,-0.00014299,0,0,0.050286,-0.021569,0,-0.0026024,0,0,0,0.0078953,-6.033e-06,0.0023668,-1.0371,0.0034187,0.0070223,1.1182e-08,0.78,0.96,0
0.040326,-0.0091398,0.0078341,1.8925e-06,0.0023508,-0.00014361,0,0,0.049898,-0.021375,0,-0.0026136,0,0,0,0.0078368,-7.3967e-07,0.0023508,-1.0501,0.0033956,0.0069661,1.0927e-08,0.8,0.96,0
0.04132,-0.0092551,0.0077761,6.8835e-06,0.0023349,-0.00014043,0,0,0.049515,-0.021185,0,-0.0025557,0,0,0,0.0077786,4.3462e-06,0.0023349,-1.0352,0.0033726,0.0069103,1.0678e-08,0.82,0.96,0
0.042307,-0.0093661,0.0077199,1.1431e-05,0.0023194,-0.00013373,0,0,0.049145,-0.021003,0,-0.0024339,0,0,0,0.0077223,9.1113e-06,0.0023194,-0.99361,0.0033503,0.0068564,1.0441e-08,0.84,0.96,0
0.043286,-0.0094702,0.0076672,1.5467e-05,0.0023048,-0.00012388,0,0,0.048798,-0.020833,0,-0.0022546,0,0,0,0.0076692,1.3462e-05,0.0023048,-0.92727,0.0033291,0.0068058,1.0221e-08,0.86,0.96,0
0.044259,-0.0095652,0.0076189,1.8954e-05,0.0022914,-0.00011124,0,0,0.048481,-0.020679,0,-0.0020247,0,0,0,0.0076206,1.7326e-05,0.0022914,-0.83843,0.0033098,0.0067595,1.0022e-08,0.88,0.96,0
0.045225,-0.0096491,0.0075763,2.1877e-05,0.0022795,-9.6246e-05,0,0,0.048202,-0.020544,0,-0.0017517,0,0,0,0.0075776,2.0651e-05,0.0022795,-0.72981,0.0032926,0.0067186,9.8483e-09,0.9,0.96,0
0.046187,-0.0097202,0.0075403,2.4236e-05,0.0022693,-7.9293e-05,0,0,0.047965,-0.020431,0,-0.0014431,0,0,0,0.0075411,2.34e-05,0.0022693,-0.60437,0.0032779,0.006684,9.7029e-09,0.92,0.96,0
0.047144,-0.0097771,0.0075115,2.6045e-05,0.0022612,-6.0797e-05,0,0,0.047777,-0.02034,0,-0.0011065,0,0,0,0.007512,2.5551e-05,0.0022612,-0.46532,0.0032663,0.0066564,9.5877e-09,0.94,0.96,0
0.048098,-0.0098185,0.0074905,2.7319e-05,0.0022553,-4.1158e-05,0,0,0.04764,-0.020275,0,-0.00074908,0,0,0,0.0074907,2.7092e-05,0.0022553,-0.31596,0.0032577,0.0066363,9.5044e-09,0.96,0.96,0
0.049049,-0.0098437,0.0074778,2.8076e-05,0.0022517,-2.0766e-05,0,0,0.047557,-0.020235,0,-0.00037794,0,0,0,0.0074778,2.8018e-05,0.0022517,-0.15971,0.0032525,0.0066241,9.454e-09,0.98,0.96,0
0.05,-0.0098521,0.0074735,2.8327e-05,0.0022505,-2.3217e-05,0,0,0.047529,-0.020222,0,-0.00042256,0,0,0,0.0074735,2.8255e-05,0.0022505,-0.17867,0.0032508,0.0066201,9.4375e-09,1,0.96,0
0,0,0.011558,0.0049536,0.0049536,-0.0037237,0,0,0.060103,0,0,-0.067771,0,0,0,0.013233,0.0032788,0.0049536,-24.216,0.0071551,0.0092315,3.5964e-08,0,0.98,0
0.0012021,-0.0013554,0.010532,0.0010413,0.003472,-0.0023417,0,0,0.064246,-0.022119,0,-0.04262,0,0,0,0.011078,0.00049498,0.003472,-13.133,0.0050151,0.0094533,2.9324e-08,0.02,0.98,0
0.0025698,-0.0026997,0.010588,0.00082199,0.0034229,-0.0015256,0,0,0.0652,-0.023668,0,-0.027765,0,0,0,0.010821,0.00058922,0.0034229,-8.6752,0.0049442,0.0091497,2.6994e-08,0.04,0.98,0
0.0038101,-0.0037712,0.0095087,0.00043893,0.0029843,-0.00091054,0,0,0.059372,-0.023163,0,-0.016572,0,0,0,0.0095992,0.00034842,0.0029843,-5.6766,0.0043106,0.0082548,1.9271e-08,0.06,0.98,0
0.0049447,-0.004673,0.0087188,0.00025974,0.0026935,-0.00059961,0,0,0.05483,-0.022148,0,-0.010913,0,0,0,0.0087611,0.00021745,0.0026935,-4.0344,0.0038907,0.0076138,1.485e-08,0.08,0.98,0
0.0060032,-0.0054389,0.0081677,0.00016534,0.0024999,-0.00040946,0,0,0.051577,-0.021244,0,-0.0074522,0,0,0,0.0081886,0.00014444,0.0024999,-2.9215,0.003611,0.007163,1.2224e-08,0.1,0.98,0
0.0070078,-0.0060952,0.0077828,0.00011335,0.0023689,-0.00028636,0,0,0.049267,-0.020525,0,-0.0052118,0,0,0,0.0077935,0.00010267,0.0023689,-2.1353,0.0034217,0.0068451,1.0592e-08,0.12,0.98,0
0.0079739,-0.0066585,0.0075114,8.2342e-05,0.0022781,-0.00020011,0,0,0.047623,-0.019982,0,-0.003642,0,0,0,0.0075168,7.6956e-05,0.0022781,-1.5418,0.0032906,0.0066197,9.5345e-09,0.14,0.98,0
0.0089127,-0.0071407,0.0073208,6.264e-05,0.002215,-0.00013637,0,0,0.046462,-0.019587,0,-0.002482,0,0,0,0.0073234,6.0079e-05,0.002215,-1.076,0.0031995,0.0064612,8.8371e-09,0.16,0.98,0
0.0098324,-0.007551,0.0071906,4.9409e-05,0.002172,-8.7178e-05,0,0,0.045669,-0.019316,0,-0.0015866,0,0,0,0.0071916,4.8345e-05,0.002172,-0.69931,0.0031373,0.0063535,8.3824e-09,0.18,0.98,0
0.01074,-0.0078968,0.0071072,4.0082e-05,0.0021442,-4.7929e-05,0,0,0.045163,-0.019147,0,-0.0008723,0,0,0,0.0071075,3.9757e-05,0.0021442,-0.38855,0.0030971,0.0062855,8.1016e-09,0.2,0.98,0
0.011639,-0.0081845,0.0070612,3.32e-05,0.0021283,-1.5813e-05,0,0,0.044889,-0.019066,0,-0.00028779,0,0,0,0.0070612,3.3165e-05,0.0021283,-0.12891,0.0030742,0.0062497,7.9522e-09,0.22,0.98,0
0.012535,-0.0084197,0.0070458,2.7884e-05,0.0021221,1.0942e-05,0,0,0.044806,-0.019058,0,0.00019914,0,0,0,0.0070458,2.7867e-05,0.0021221,0.089332,0.0030653,0.0062402,7.9067e-09,0.24,0.98,0
0.013431,-0.0086074,0.0070559,2.3576e-05,0.0021238,3.347e-05,0,0,0.044881,-0.019112,0,0.00060916,0,0,0,0.007056,2.3417e-05,0.0021238,0.27269,0.0030678,0.0062528,7.9465e-09,0.26,0.98,0
0.01433,-0.0087525,0.0070872,1.9908e-05,0.0021321,5.2499e-05,0,0,0.045091,-0.019221,0,0.00095548,0,0,0,0.0070876,1.9518e-05,0.0021321,0.42559,0.0030797,0.006284,8.0585e-09,0.28,0.98,0
0.015235,-0.0088595,0.0071363,1.6627e-05,0.0021459,6.8481e-05,0,0,0.045413,-0.019376,0,0.0012464,0,0,0,0.007137,1.5969e-05,0.0021459,0.55103,0.0030996,0.0063307,8.2328e-09,0.3,0.98,0
0.016147,-0.0089329,0.0072003,1.3562e-05,0.0021641,8.1683e-05,0,0,0.045829,-0.01957,0,0.0014866,0,0,0,0.0072012,1.2634e-05,0.0021641,0.6511,0.003126,0.0063904,8.4613e-09,0.32,0.98,0
0.017068,-0.0089771,0.0072762,1.0594e-05,0.002186,9.2243e-05,0,0,0.04632,-0.019797,0,0.0016788,0,0,0,0.0072774,9.4232e-06,0.002186,0.72727,0.0031576,0.0064607,8.737e-09,0.34,0.98,0
0.018,-0.0089965,0.0073615,7.6499e-06,0.0022108,0.00010022,0,0,0.046872,-0.020048,0,0.001824,0,0,0,0.0073629,6.2844e-06,0.0022108,0.78063,0.0031933,0.0065392,9.053e-09,0.36,0.98,0
0.018943,-0.0089954,0.0074536,4.6908e-06,0.0022375,0.00010561,0,0,0.047467,-0.020319,0,0.0019221,0,0,0,0.0074551,3.1938e-06,0.0022375,0.81212,0.0032319,0.0066237,9.4019e-09,0.38,0.98,0
0.019898,-0.008978,0.0075501,1.7089e-06,0.0022655,0.00010841,0,0,0.048089,-0.020601,0,0.001973,0,0,0,0.0075516,1.5227e-07,0.0022655,0.82264,0.0032724,0.0067119,9.776e-09,0.4,0.98,0
0.020866,-0.0089487,0.0076483,-1.2773e-06,0.0022941,0.0001086,0,0,0.048723,-0.020888,0,0.0019765,0,0,0,0.0076498,-2.8187e-06,0.0022941,0.81319,0.0033137,0.0068016,1.0167e-08,0.42,0.98,0
0.021847,-0.0089114,0.0077459,-4.2261e-06,0.0023225,0.0001062,0,0,0.049353,-0.021173,0,0.0019328,0,0,0,0.0077473,-5.681e-06,0.0023225,0.78491,0.0033547,0.0068905,1.0564e-08,0.44,0.98,0
0.02284,-0.0088701,0.0078403,-7.0778e-06,0.00235,0.00010126,0,0,0.049962,-0.021449,0,0.001843,0,0,0,0.0078416,-8.3843e-06,0.00235,0.73919,0.0033944,0.0069765,1.0959e-08,0.46,0.98,0
0.023846,-0.0088286,0.0079293,-9.7592e-06,0.0023759,9.3917e-05,0,0,0.050536,-0.021709,0,0.0017093,0,0,0,0.0079304,-1.087e-05,0.0023759,0.67767,0.0034318,0.0070574,1.1339e-08,0.48,0.98,0
0.024862,-0.0087904,0.0080107,-1.219e-05,0.0023996,8.434e-05,0,0,0.051062,-0.021947,0,0.001535,0,0,0,0.0080116,-1.3076e-05,0.0023996,0.60223,0.003466,0.0071313,1.1694e-08,0.5,0.98,0
0.025888,-0.0087584,0.0080826,-1.4289e-05,0.0024205,7.2787e-05,0,0,0.051525,-0.022156,0,0.0013247,0,0,0,0.0080832,-1.4943e-05,0.0024205,0.51501,0.0034963,0.0071965,1.2013e-08,0.52,0.98,0
0.026923,-0.0087355,0.0081432,-1.598e-05,0.0024382,5.9582e-05,0,0,0.051916,-0.022333,0,0.0010844,0,0,0,0.0081436,-1.6415e-05,0.0024382,0.41837,0.0035218,0.0072513,1.2287e-08,0.54,0.98,0
0.027965,-0.0087238,0.0081913,-1.72e-05,0.0024522,4.5106e-05,0,0,0.052225,-0.022472,0,0.00082094,0,0,0,0.0081915,-1.7448e-05,0.0024522,0.31483,0.0035421,0.0072947,1.2506e-08,0.56,0.98,0
0.029012,-0.0087252,0.0082257,-1.7903e-05,0.0024623,2.9792e-05,0,0,0.052447,-0.02257,0,0.00054222,0,0,0,0.0082258,-1.8011e-05,0.0024623,0.20706,0.0035567,0.0073257,1.2665e-08,0.58,0.98,0
0.030063,-0.0087407,0.008246,-1.8065e-05,0.0024684,1.4101e-05,0,0,0.052577,-0.022627,0,0.00025664,0,0,0,0.0082461,-1.8089e-05,0.0024684,0.097762,0.0035655,0.0073437,1.2759e-08,0.6,0.98,0
0.031115,-0.008771,0.0082521,-1.7683e-05,0.0024703,-1.4949e-06,0,0,0.052614,-0.022641,0,-2.7207e-05,0,0,0,0.0082521,-1.7684e-05,0.0024703,-0.010357,0.0035682,0.0073488,1.2786e-08,0.62,0.98,0
0.032167,-0.0088161,0.0082441,-1.6782e-05,0.0024682,-1.6532e-05,0,0,0.052561,-0.022613,0,-0.00030088,0,0,0,0.0082442,-1.6815e-05,0.0024682,-0.11466,0.0035652,0.007341,1.2748e-08,0.64,0.98,0
0.033217,-0.0088757,0.0082228,-1.5406e-05,0.0024622,-3.0576e-05,0,0,0.052422,-0.022547,0,-0.00055649,0,0,0,0.008223,-1.5519e-05,0.0024622,-0.21265,0.0035566,0.0073211,1.2648e-08,0.66,0.98,0
0.034264,-0.0089487,0.0081893,-1.3621e-05,0.0024527,-4.3243e-05,0,0,0.052203,-0.022444,0,-0.00078703,0,0,0,0.0081895,-1.3849e-05,0.0024527,-0.30203,0.0035428,0.0072901,1.2491e-08,0.68,0.98,0
0.035306,-0.0090337,0.0081449,-1.1507e-05,0.00244,-5.4211e-05,0,0,0.051914,-0.022309,0,-0.00098664,0,0,0,0.0081452,-1.1868e-05,0.00244,-0.38079,0.0035245,0.0072491,1.2287e-08,0.7,0.98,0
0.036341,-0.0091289,0.0080912,-9.1535e-06,0.0024246,-6.323e-05,0,0,0.051566,-0.022147,0,-0.0011508,0,0,0,0.0080917,-9.647e-06,0.0024246,-0.44721,0.0035022,0.0071998,1.2043e-08,0.72,0.98,0
0.037368,-0.0092322,0.0080302,-6.6526e-06,0.0024071,-7.0133e-05,0,0,0.05117,-0.021965,0,-0.0012764,0,0,0,0.0080308,-7.2646e-06,0.0024071,-0.49994,0.0034769,0.0071437,1.1769e-08,0.74,0.98,0
0.038387,-0.0093414,0.0079637,-4.0953e-06,0.0023879,-7.483e-05,0,0,0.05074,-0.021767,0,-0.0013619,0,0,0,0.0079644,-4.798e-06,0.0023879,-0.53803,0.0034492,0.0070828,1.1476e-08,0.76,0.98,0
0.039398,-0.0094538,0.0078939,-1.5649e-06,0.0023677,-7.7307e-05,0,0,0.050288,-0.02156,0,-0.001407,0,0,0,0.0078946,-2.3218e-06,0.0023677,-0.56093,0.00342,0.0070188,1.1173e-08,0.78,0.98,0
0.040399,-0.0095671,0.0078227,8.6598e-07,0.002347,-7.7619e-05,0,0,0.049828,-0.02135,0,-0.0014127,0,0,0,0.0078234,9.5815e-08,0.002347,-0.56849,0.0033902,0.0069535,1.087e-08,0.8,0.98,0
0.041391,-0.0096785,0.007752,3.1384e-06,0.0023265,-7.5878e-05,0,0,0.049371,-0.021143,0,-0.001381,0,0,0,0.0077527,2.3955e-06,0.0023265,-0.56098,0.0033605,0.0068889,1.0575e-08,0.82,0.98,0
0.042374,-0.0097857,0.0076837,5.2079e-06,0.0023067,-7.2241e-05,0,0,0.048931,-0.020943,0,-0.0013148,0,0,0,0.0076844,4.5283e-06,0.0023067,-0.53899,0.0033319,0.0068264,1.0294e-08,0.84,0.98,0
0.043348,-0.0098864,0.0076195,7.0442e-06,0.0022879,-6.6899e-05,0,0,0.048517,-0.020756,0,-0.0012176,0,0,0,0.00762,6.4563e-06,0.0022879,-0.50347,0.0033048,0.0067677,1.0035e-08,0.86,0.98,0
0.044315,-0.0099782,0.0075608,8.6299e-06,0.0022708,-6.0062e-05,0,0,0.048139,-0.020586,0,-0.0010931,0,0,0,0.0075613,8.1522e-06,0.0022708,-0.45563,0.0032801,0.0067141,9.8023e-09,0.88,0.98,0
0.045274,-0.010059,0.007509,9.958e-06,0.0022557,-5.1951e-05,0,0,0.047805,-0.020436,0,-0.00094551,0,0,0,0.0075093,9.5982e-06,0.0022557,-0.39691,0.0032582,0.0066668,9.5996e-09,0.9,0.98,0
0.046227,-0.010128,0.0074651,1.103e-05,0.0022428,-4.2792e-05,0,0,0.047523,-0.02031,0,-0.00077881,0,0,0,0.0074653,1.0784e-05,0.0022428,-0.3289,0.0032397,0.0066267,9.4303e-09,0.92,0.98,0
0.047175,-0.010183,0.0074301,1.1851e-05,0.0022326,-3.2805e-05,0,0,0.047297,-0.020209,0,-0.00059704,0,0,0,0.0074302,1.1706e-05,0.0022326,-0.25336,0.0032248,0.0065948,9.2965e-09,0.94,0.98,0
0.048119,-0.010223,0.0074046,1.2429e-05,0.0022251,-2.2205e-05,0,0,0.047133,-0.020135,0,-0.00040414,0,0,0,0.0074046,1.2363e-05,0.0022251,-0.17211,0.003214,0.0065715,9.1998e-09,0.96,0.98,0
0.04906,-0.010247,0.0073891,1.2773e-05,0.0022205,-1.1203e-05,0,0,0.047033,-0.020091,0,-0.00020389,0,0,0,0.0073891,1.2756e-05,0.0022205,-0.087017,0.0032075,0.0065574,9.1415e-09,0.98,0.98,0
0.05,-0.010256,0.0073839,1.2887e-05,0.002219,-2.2457e-05,0,0,0.047,-0.020076,0,-0.00040873,0,0,0,0.007384,1.2818e-05,0.002219,-0.17456,0.0032053,0.0065528,9.1223e-09,1,0.98,0
0,0,0.019407,0.0083171,0.0083171,-0.0054661,0,0,0.10091,-6.9389e-18,0,-0.099483,0,0,0,0.021648,0.0060758,0.0083171,-22.295,0.012013,0.014581,1.4662e-07,0,1,0
0.0020183,-0.0019896,0.013938,0.00099517,0.00448,-0.0021708,0,0,0.086068,-0.031711,0,-0.039508,0,0,0,0.014292,0.00064079,0.00448,-9.2718,0.006471,0.012194,6.2953e-08,0.02,1,0
0.0034427,-0.0032127,0.010339,0.00040402,0.0032228,-0.00070716,0,0,0.064754,-0.025651,0,-0.01287,0,0,0,0.010389,0.00035393,0.0032228,-4.0511,0.0046552,0.008952,2.4492e-08,0.04,1,0
0.0046085,-0.0042502,0.0086687,-4.4598e-05,0.0025872,-0.00042186,0,0,0.055342,-0.02395,0,-0.0076778,0,0,0,0.0086891,-6.4974e-05,0.0025872,-2.7654,0.0037371,0.007775,1.5011e-08,0.06,1,0
0.0056564,-0.0051166,0.0079002,-9.6477e-05,0.0023411,-0.00025503,0,0,0.050588,-0.022182,0,-0.0046416,0,0,0,0.0079083,-0.0001046,0.0023411,-1.8248,0.0033816,0.0071127,1.1385e-08,0.08,1,0
0.006632,-0.0058592,0.0074225,-0.00011791,0.0021914,-0.00017119,0,0,0.047603,-0.021015,0,-0.0031156,0,0,0,0.0074264,-0.0001218,0.0021914,-1.2999,0.0031653,0.0066982,9.4587e-09,0.1,1,0
0.0075605,-0.0064987,0.007113,-0.00011833,0.0020984,-0.00011741,0,0,0.045633,-0.020172,0,-0.0021369,0,0,0,0.0071149,-0.00012023,0.0020984,-0.92994,0.003031,0.0064201,8.3219e-09,0.12,1,0
0.0084573,-0.0070501,0.0069059,-0.00011418,0.0020375,-8.0739e-05,0,0,0.044302,-0.01958,0,-0.0014694,0,0,0,0.0069068,-0.00011511,0.0020375,-0.65885,0.0029431,0.006231,7.6111e-09,0.14,1,0
0.0093326,-0.0075241,0.0067707,-0.00010795,0.0019988,-5.3816e-05,0,0,0.043424,-0.019172,0,-0.00097945,0,0,0,0.0067712,-0.00010837,0.0019988,-0.44822,0.0028872,0.0061051,7.1666e-09,0.16,1,0
0.010194,-0.0079291,0.0066892,-0.00010106,0.0019764,-3.3122e-05,0,0,0.042886,-0.018905,0,-0.00060283,0,0,0,0.0066894,-0.00010122,0.0019764,-0.27948,0.0028549,0.0060266,6.9037e-09,0.18,1,0
0.011048,-0.0082718,0.0066496,-9.3933e-05,0.0019667,-1.6625e-05,0,0,0.042614,-0.018752,0,-0.00030257,0,0,0,0.0066497,-9.3974e-05,0.0019667,-0.14125,0.0028408,0.0059855,6.7746e-09,0.2,1,0
0.011899,-0.0085583,0.0066441,-8.6765e-05,0.0019672,-3.1169e-06,0,0,0.04256,-0.018691,0,-5.6727e-05,0,0,0,0.0066441,-8.6766e-05,0.0019672,-0.026532,0.0028415,0.0059748,6.7501e-09,0.22,1,0
0.01275,-0.0087938,0.0066668,-7.9608e-05,0.0019762,8.1533e-06,0,0,0.042685,-0.018707,0,0.00014839,0,0,0,0.0066668,-7.9618e-05,0.0019762,0.069244,0.0028545,0.0059893,6.8118e-09,0.24,1,0
0.013606,-0.0089832,0.0067134,-7.2479e-05,0.0019923,1.7661e-05,0,0,0.042962,-0.018789,0,0.00032143,0,0,0,0.0067134,-7.2525e-05,0.0019923,0.14912,0.0028777,0.006025,6.9475e-09,0.26,1,0
0.014469,-0.009131,0.0067802,-6.5373e-05,0.0020145,2.5706e-05,0,0,0.043369,-0.018926,0,0.00046785,0,0,0,0.0067803,-6.547e-05,0.0020145,0.21515,0.0029098,0.0060788,7.1488e-09,0.28,1,0
0.015341,-0.0092417,0.0068643,-5.8292e-05,0.0020418,3.2472e-05,0,0,0.043884,-0.019111,0,0.00059099,0,0,0,0.0068644,-5.8445e-05,0.0020418,0.26875,0.0029493,0.006148,7.4092e-09,0.3,1,0
0.016224,-0.0093196,0.0069627,-5.1242e-05,0.0020734,3.8062e-05,0,0,0.044492,-0.019335,0,0.00069273,0,0,0,0.0069629,-5.1449e-05,0.0020734,0.31091,0.002995,0.0062299,7.7236e-09,0.32,1,0
0.017121,-0.0093689,0.0070728,-4.424e-05,0.0021086,4.2527e-05,0,0,0.045174,-0.019591,0,0.00077399,0,0,0,0.007073,-4.4494e-05,0.0021086,0.34235,0.0030457,0.0063222,8.0866e-09,0.34,1,0
0.018031,-0.0093939,0.007192,-3.7316e-05,0.0021464,4.5881e-05,0,0,0.045915,-0.019872,0,0.00083503,0,0,0,0.0071922,-3.7607e-05,0.0021464,0.36361,0.0031003,0.0064227,8.4929e-09,0.36,1,0
0.018957,-0.0093988,0.0073175,-3.0513e-05,0.0021861,4.8118e-05,0,0,0.046696,-0.020171,0,0.00087574,0,0,0,0.0073178,-3.0828e-05,0.0021861,0.37517,0.0031577,0.0065289,8.936e-09,0.38,1,0
0.019899,-0.0093877,0.0074467,-2.3885e-05,0.0022268,4.9223e-05,0,0,0.0475,-0.020481,0,0.00089586,0,0,0,0.007447,-2.4209e-05,0.0022268,0.3775,0.0032165,0.0066384,9.408e-09,0.4,1,0
0.020857,-0.0093646,0.0075766,-1.7496e-05,0.0022677,4.9187e-05,0,0,0.048311,-0.020796,0,0.0008952,0,0,0,0.0075769,-1.7814e-05,0.0022677,0.37108,0.0032756,0.0067488,9.8997e-09,0.42,1,0
0.021832,-0.0093335,0.0077046,-1.1417e-05,0.002308,4.801e-05,0,0,0.049109,-0.021106,0,0.00087379,0,0,0,0.0077049,-1.1716e-05,0.002308,0.35649,0.0033337,0.0068576,1.04e-08,0.44,1,0
0.022822,-0.0092982,0.0078276,-5.7259e-06,0.0023466,4.5717e-05,0,0,0.049878,-0.021406,0,0.00083204,0,0,0,0.0078279,-5.9927e-06,0.0023466,0.33437,0.0033895,0.0069624,1.0898e-08,0.46,1,0
0.023827,-0.0092624,0.007943,-4.9925e-07,0.0023827,4.2354e-05,0,0,0.050598,-0.021688,0,0.00077084,0,0,0,0.0079432,-7.2507e-07,0.0023827,0.30548,0.0034418,0.0070607,1.1378e-08,0.48,1,0
0.024846,-0.0092292,0.0080481,4.1873e-06,0.0024157,3.8002e-05,0,0,0.051255,-0.021945,0,0.00069164,0,0,0,0.0080483,4.0078e-06,0.0024157,0.27068,0.0034893,0.0071503,1.1829e-08,0.5,1,0
0.025877,-0.0092018,0.0081406,8.2645e-06,0.0024447,3.2774e-05,0,0,0.051833,-0.022171,0,0.00059649,0,0,0,0.0081407,8.1324e-06,0.0024447,0.2309,0.0035312,0.0072292,1.2234e-08,0.52,1,0
0.026919,-0.0091827,0.0082183,1.1673e-05,0.002469,2.6812e-05,0,0,0.052319,-0.022362,0,0.00048798,0,0,0,0.0082184,1.1585e-05,0.002469,0.18719,0.0035663,0.0072955,1.2582e-08,0.54,1,0
0.02797,-0.0091741,0.0082797,1.4365e-05,0.0024882,2.0287e-05,0,0,0.052703,-0.022512,0,0.00036922,0,0,0,0.0082798,1.4316e-05,0.0024882,0.14063,0.0035941,0.0073478,1.2862e-08,0.56,1,0
0.029027,-0.0091776,0.0083236,1.6311e-05,0.002502,1.3391e-05,0,0,0.052977,-0.022619,0,0.00024372,0,0,0,0.0083236,1.629e-05,0.002502,0.092359,0.0036139,0.0073852,1.3064e-08,0.58,1,0
0.030089,-0.0091943,0.0083491,1.7497e-05,0.00251,6.3318e-06,0,0,0.053136,-0.022682,0,0.00011524,0,0,0,0.0083492,1.7492e-05,0.00251,0.043543,0.0036255,0.0074069,1.3183e-08,0.6,1,0
0.031152,-0.0092249,0.0083564,1.7928e-05,0.0025123,-6.7915e-07,0,0,0.053181,-0.022699,0,-1.236e-05,0,0,0,0.0083564,1.7928e-05,0.0025123,-0.0046666,0.0036289,0.007413,1.3216e-08,0.62,1,0
0.032216,-0.0092695,0.0083457,1.7629e-05,0.002509,-7.434e-06,0,0,0.053114,-0.022671,0,-0.0001353,0,0,0,0.0083457,1.7623e-05,0.002509,-0.051145,0.0036241,0.0074037,1.3166e-08,0.64,1,0
0.033277,-0.0093277,0.008318,1.6643e-05,0.0025004,-1.3739e-05,0,0,0.05294,-0.022602,0,-0.00025004,0,0,0,0.008318,1.662e-05,0.0025004,-0.094822,0.0036117,0.0073799,1.3037e-08,0.66,1,0
0.034334,-0.0093985,0.0082747,1.503e-05,0.0024869,-1.942e-05,0,0,0.052669,-0.022494,0,-0.00035344,0,0,0,0.0082748,1.4984e-05,0.0024869,-0.13471,0.0035922,0.0073428,1.2837e-08,0.68,1,0
0.035384,-0.0094807,0.0082177,1.2863e-05,0.0024692,-2.4334e-05,0,0,0.052312,-0.022353,0,-0.00044289,0,0,0,0.0082178,1.2791e-05,0.0024692,-0.16993,0.0035666,0.0072939,1.2577e-08,0.7,1,0
0.036426,-0.0095725,0.0081491,1.0231e-05,0.0024478,-2.8371e-05,0,0,0.051882,-0.022182,0,-0.00051635,0,0,0,0.0081492,1.0132e-05,0.0024478,-0.19972,0.0035357,0.0072351,1.2269e-08,0.72,1,0
0.037459,-0.009672,0.0080714,7.2279e-06,0.0024236,-3.1455e-05,0,0,0.051395,-0.021989,0,-0.00057248,0,0,0,0.0080715,7.1052e-06,0.0024236,-0.22348,0.0035007,0.0071684,1.1926e-08,0.74,1,0
0.038482,-0.009777,0.0079869,3.9541e-06,0.0023973,-3.3548e-05,0,0,0.050866,-0.021779,0,-0.00061057,0,0,0,0.0079871,3.8131e-06,0.0023973,-0.24077,0.0034627,0.007096,1.1561e-08,0.76,1,0
0.039494,-0.009885,0.0078985,5.1205e-07,0.0023697,-3.4644e-05,0,0,0.050312,-0.021559,0,-0.00063052,0,0,0,0.0078986,3.6009e-07,0.0023697,-0.25132,0.0034229,0.0070202,1.1186e-08,0.78,1,0
0.040494,-0.0099938,0.0078085,-2.997e-06,0.0023416,-3.4769e-05,0,0,0.049748,-0.021336,0,-0.0006328,0,0,0,0.0078086,-3.1518e-06,0.0023416,-0.25502,0.0033824,0.006943,1.0813e-08,0.8,1,0
0.041484,-0.010101,0.0077195,-6.4761e-06,0.0023139,-3.3976e-05,0,0,0.049191,-0.021115,0,-0.00061836,0,0,0,0.0077196,-6.6255e-06,0.0023139,-0.25196,0.0033423,0.0068666,1.0453e-08,0.82,1,0
0.042462,-0.010204,0.0076336,-9.8345e-06,0.0022871,-3.2335e-05,0,0,0.048653,-0.020903,0,-0.0005885,0,0,0,0.0076338,-9.9713e-06,0.0022871,-0.24238,0.0033036,0.006793,1.0113e-08,0.84,1,0
0.04343,-0.0103,0.0075531,-1.299e-05,0.002262,-2.9933e-05,0,0,0.048149,-0.020703,0,-0.00054478,0,0,0,0.0075533,-1.3108e-05,0.002262,-0.22667,0.0032674,0.006724,9.8007e-09,0.86,1,0
0.044388,-0.010389,0.0074798,-1.5868e-05,0.0022392,-2.6865e-05,0,0,0.047689,-0.020521,0,-0.00048894,0,0,0,0.0074798,-1.5965e-05,0.0022392,-0.20535,0.0032343,0.006661,9.5218e-09,0.88,1,0
0.045337,-0.010467,0.0074151,-1.8408e-05,0.002219,-2.323e-05,0,0,0.047284,-0.02036,0,-0.00042279,0,0,0,0.0074151,-1.848e-05,0.002219,-0.17905,0.0032052,0.0066055,9.2803e-09,0.9,1,0
0.046279,-0.010533,0.0073604,-2.0555e-05,0.002202,-1.913e-05,0,0,0.046942,-0.020225,0,-0.00034816,0,0,0,0.0073605,-2.0605e-05,0.002202,-0.14849,0.0031806,0.0065586,9.0795e-09,0.92,1,0
0.047215,-0.010585,0.0073168,-2.2268e-05,0.0021884,-1.4662e-05,0,0,0.046669,-0.020117,0,-0.00026685,0,0,0,0.0073169,-2.2297e-05,0.0021884,-0.11446,0.003161,0.0065212,8.9215e-09,0.94,1,0
0.048146,-0.010624,0.0072851,-2.3514e-05,0.0021785,-9.923e-06,0,0,0.046471,-0.020038,0,-0.0001806,0,0,0,0.0072852,-2.3528e-05,0.0021785,-0.077791,0.0031467,0.006494,8.8077e-09,0.96,1,0
0.049074,-0.010647,0.0072659,-2.4271e-05,0.0021725,-5.0058e-06,0,0,0.04635,-0.019991,0,-9.1105e-05,0,0,0,0.0072659,-2.4274e-05,0.0021725,-0.039342,0.003138,0.0064775,8.7391e-09,0.98,1,0
0.05,-0.010655,0.0072594,-2.4525e-05,0.0021705,-2.1579e-05,0,0,0.04631,-0.019974,0,-0.00039273,0,0,0,0.0072595,-2.4589e-05,0.0021705,-0.16974,0.0031351,0.0064721,8.7165e-09,1,1,0
