"Displacements:0","Displacements:1","Stress/Strain:0","Stress/Strain:1","Stress/Strain:2","Stress/Strain:3","Stress/Strain:4","Stress/Strain:5","Stress/Strain:6","Stress/Strain:7","Stress/Strain:8","Stress/Strain:9","Stress/Strain:10","Stress/Strain:11","Stress/Strain:12","Principal Stress:0","Principal Stress:1","Principal Stress:2","Principal Stress:3","Principal Stress:4","Principal Stress:5","Principal Stress:6","nodes:0","nodes:1","nodes:2"
0,0,0.019809,0.0084897,0.0084897,0.0056379,0,0,0.11772,6.9389e-18,0,0.11727,0,0,0,0.022138,0.0061608,0.0084897,22.444,0.012263,0.01495,1.5765e-07,0,0,0
0.0023545,0.0023453,0.014184,0.0010413,0.0045677,0.0022483,0,0,0.10001,-0.036675,0,0.046765,0,0,0,0.014558,0.00066731,0.0045677,9.4436,0.0065978,0.012409,6.6452e-08,0.02,0,0
0.0040006,0.0038101,0.010404,0.00042473,0.0032485,0.00075461,0,0,0.074414,-0.029368,0,0.015696,0,0,0,0.01046,0.00036799,0.0032485,4.3001,0.0046923,0.0090046,2.497e-08,0.04,0,0
0.005331,0.0050615,0.0086061,-4.4383e-05,0.0025685,0.00046176,0,0,0.062791,-0.027174,0,0.0096047,0,0,0,0.0086307,-6.8963e-05,0.0025685,3.0469,0.0037101,0.0077262,1.4718e-08,0.06,0,0
0.0065122,0.0061123,0.0077383,-0.00010442,0.0022902,0.00029129,0,0,0.056661,-0.024904,0,0.0060588,0,0,0,0.0077491,-0.00011522,0.0022902,2.1241,0.003308,0.0069798,1.0729e-08,0.08,0,0
0.0075975,0.0070159,0.0071689,-0.0001314,0.0021112,0.00020724,0,0,0.052599,-0.023324,0,0.0043106,0,0,0,0.0071747,-0.00013728,0.0021112,1.6248,0.0030496,0.0064869,8.553e-09,0.1,0,0
0.0086162,0.007795,0.0067668,-0.00013602,0.0019892,0.00015516,0,0,0.049687,-0.022103,0,0.0032274,0,0,0,0.0067703,-0.0001395,0.0019892,1.287,0.0028733,0.0061292,7.1971e-09,0.12,0,0
0.0095849,0.0084658,0.0064613,-0.00013571,0.0018977,0.00012135,0,0,0.047462,-0.021147,0,0.002524,0,0,0,0.0064636,-0.00013794,0.0018977,1.0534,0.0027411,0.0058554,6.2673e-09,0.14,0,0
0.010515,0.009039,0.0062195,-0.00013334,0.0018259,9.78e-05,0,0,0.045694,-0.020376,0,0.0020343,0,0,0,0.0062211,-0.00013484,0.0018259,0.88177,0.0026374,0.0056374,5.5899e-09,0.16,0,0
0.011413,0.0095224,0.0060223,-0.00013046,0.0017675,8.0447e-05,0,0,0.044249,-0.019739,0,0.0016733,0,0,0,0.0060234,-0.00013151,0.0017675,0.74896,0.0025531,0.005459,5.0745e-09,0.18,0,0
0.012285,0.0099213,0.0058587,-0.0001275,0.0017194,6.6726e-05,0,0,0.043049,-0.019207,0,0.0013879,0,0,0,0.0058595,-0.00012824,0.0017194,0.63855,0.0024835,0.0053107,4.6717e-09,0.2,0,0
0.013135,0.010239,0.0057231,-0.0001245,0.0016796,5.4917e-05,0,0,0.042052,-0.018762,0,0.0011423,0,0,0,0.0057236,-0.00012502,0.0016796,0.53803,0.002426,0.0051873,4.354e-09,0.22,0,0
0.013967,0.010479,0.0056132,-0.00012129,0.0016476,4.3764e-05,0,0,0.041242,-0.018396,0,0.00091028,0,0,0,0.0056135,-0.00012163,0.0016476,0.43723,0.0023798,0.0050868,4.1068e-09,0.24,0,0
0.014784,0.010642,0.0055296,-0.00011755,0.0016236,3.2317e-05,0,0,0.040622,-0.018108,0,0.0006722,0,0,0,0.0055298,-0.00011774,0.0016236,0.32788,0.0023452,0.0050092,3.9243e-09,0.26,0,0
0.015592,0.01073,0.005475,-0.00011288,0.0016086,1.9871e-05,0,0,0.04021,-0.017904,0,0.00041332,0,0,0,0.0054751,-0.00011295,0.0016086,0.20375,0.0023236,0.0049568,3.8065e-09,0.28,0,0
0.016393,0.010745,0.0054536,-0.00010683,0.001604,5.9522e-06,0,0,0.040035,-0.017793,0,0.00012381,0,0,0,0.0054536,-0.00010684,0.001604,0.061333,0.0023169,0.0049327,3.7579e-09,0.3,0,0
0.017193,0.010687,0.0054703,-9.8921e-05,0.0016114,-9.6564e-06,0,0,0.040133,-0.017788,0,-0.00020085,0,0,0,0.0054703,-9.8938e-05,0.0016114,-0.099344,0.0023276,0.0049413,3.7868e-09,0.32,0,0
0.017998,0.01056,0.0055305,-8.8717e-05,0.0016325,-2.6877e-05,0,0,0.040539,-0.017901,0,-0.00055904,0,0,0,0.0055306,-8.8845e-05,0.0016325,-0.27404,0.0023581,0.0049868,3.9054e-09,0.34,0,0
0.018815,0.010368,0.0056387,-7.5849e-05,0.0016689,-4.5297e-05,0,0,0.041287,-0.018145,0,-0.00094218,0,0,0,0.0056391,-7.6208e-05,0.0016689,-0.45412,0.0024106,0.0050731,4.1289e-09,0.36,0,0
0.01965,0.010117,0.0057979,-6.0105e-05,0.0017213,-6.4138e-05,0,0,0.042397,-0.018527,0,-0.0013341,0,0,0,0.0057986,-6.0807e-05,0.0017213,-0.62721,0.0024864,0.0052026,4.4754e-09,0.38,0,0
0.02051,0.0098165,0.0060083,-4.1524e-05,0.0017901,-8.2235e-05,0,0,0.04387,-0.019048,0,-0.0017105,0,0,0,0.0060095,-4.2641e-05,0.0017901,-0.77862,0.0025856,0.0053754,4.9639e-09,0.4,0,0
0.021404,0.009477,0.0062663,-2.0479e-05,0.0018737,-9.8059e-05,0,0,0.045682,-0.0197,0,-0.0020396,0,0,0,0.0062678,-2.2008e-05,0.0018737,-0.8934,0.0027065,0.0055885,5.6107e-09,0.42,0,0
0.022338,0.0091134,0.0065631,2.3074e-06,0.0019696,-0.00010983,0,0,0.047772,-0.02046,0,-0.0022845,0,0,0,0.006565,4.6926e-07,0.0019696,-0.95881,0.002845,0.0058347,6.4226e-09,0.44,0,0
0.023315,0.0087426,0.0068853,2.589e-05,0.0020733,-0.00011579,0,0,0.050044,-0.021293,0,-0.0024084,0,0,0,0.0068872,2.3936e-05,0.0020733,-0.96681,0.0029948,0.0061024,7.3884e-09,0.46,0,0
0.02434,0.0083837,0.0072144,4.9305e-05,0.0021791,-0.00011463,0,0,0.052367,-0.02215,0,-0.0023843,0,0,0,0.0072162,4.7472e-05,0.0021791,-0.91633,0.0031476,0.006376,8.4699e-09,0.48,0,0
0.02541,0.0080565,0.0075297,7.1711e-05,0.0022804,-0.00010597,0,0,0.054592,-0.022971,0,-0.0022042,0,0,0,0.0075312,7.0205e-05,0.0022804,-0.81389,0.0032939,0.0066378,9.5992e-09,0.5,0,0
0.026523,0.0077803,0.0078109,9.2286e-05,0.002371,-9.0578e-05,0,0,0.056575,-0.023698,0,-0.001884,0,0,0,0.0078119,9.1224e-05,0.002371,-0.67224,0.0034247,0.0068706,1.0685e-08,0.52,0,0
0.027673,0.0075718,0.008041,0.00011,0.0024453,-7.0115e-05,0,0,0.058195,-0.024287,0,-0.0014584,0,0,0,0.0080416,0.00010938,0.0024453,-0.50648,0.0035321,0.0070603,1.1631e-08,0.54,0,0
0.028851,0.0074447,0.0082079,0.00012349,0.0024994,-4.6514e-05,0,0,0.059368,-0.024709,0,-0.00096749,0,0,0,0.0082081,0.00012323,0.0024994,-0.32964,0.0036103,0.0071973,1.2349e-08,0.56,0,0
0.030048,0.0074084,0.0083045,0.00013142,0.0025308,-2.1318e-05,0,0,0.060047,-0.024953,0,-0.00044343,0,0,0,0.0083046,0.00013136,0.0025308,-0.14945,0.0036556,0.0072765,1.2778e-08,0.58,0,0
0.031253,0.0074679,0.0083276,0.00013287,0.0025381,4.5144e-06,0,0,0.06021,-0.025015,0,9.3899e-05,0,0,0,0.0083276,0.00013286,0.0025381,0.031563,0.0036662,0.0072958,1.2882e-08,0.6,0,0
0.032456,0.0076246,0.0082763,0.00012781,0.0025212,3.0314e-05,0,0,0.059853,-0.024892,0,0.00063053,0,0,0,0.0082764,0.0001277,0.0025212,0.21315,0.0036418,0.0072544,1.2654e-08,0.62,0,0
0.033647,0.0078751,0.0081524,0.00011708,0.0024808,5.5127e-05,0,0,0.058984,-0.024583,0,0.0011466,0,0,0,0.0081528,0.00011671,0.0024808,0.39306,0.0035834,0.0071533,1.211e-08,0.64,0,0
0.034815,0.0082122,0.0079615,0.00010201,0.0024191,7.7399e-05,0,0,0.057642,-0.024097,0,0.0016099,0,0,0,0.0079623,0.00010125,0.0024191,0.56417,0.0034942,0.0069963,1.1301e-08,0.66,0,0
0.035953,0.0086243,0.0077142,8.3901e-05,0.0023394,9.5172e-05,0,0,0.055897,-0.023457,0,0.0019796,0,0,0,0.0077154,8.2714e-05,0.0023394,0.7145,0.0033792,0.0067916,1.0305e-08,0.68,0,0
0.037051,0.0090963,0.007426,6.3773e-05,0.0022469,0.00010672,0,0,0.053863,-0.022705,0,0.0022198,0,0,0,0.0074276,6.2226e-05,0.0022469,0.83031,0.0032456,0.0065521,9.218e-09,0.7,0,0
0.038107,0.0096109,0.0071162,4.2436e-05,0.0021476,0.00011119,0,0,0.051674,-0.021894,0,0.0023127,0,0,0,0.007118,4.0688e-05,0.0021476,0.90031,0.0031021,0.0062941,8.1364e-09,0.72,0,0
0.039118,0.01015,0.0068047,2.0729e-05,0.0020476,0.00010886,0,0,0.049474,-0.02108,0,0.0022643,0,0,0,0.0068065,1.8982e-05,0.0020476,0.91909,0.0029577,0.0060345,7.1368e-09,0.74,0,0
0.040086,0.010694,0.0065091,-3.7909e-07,0.0019526,0.00010094,0,0,0.047387,-0.020311,0,0.0020995,0,0,0,0.0065106,-1.9439e-06,0.0019526,0.88816,0.0028204,0.0057884,6.267e-09,0.76,0,0
0.041014,0.01123,0.0062428,-1.9926e-05,0.0018668,8.9106e-05,0,0,0.04551,-0.019623,0,0.0018534,0,0,0,0.006244,-2.1194e-05,0.0018668,0.81498,0.0026966,0.0055668,5.5465e-09,0.78,0,0
0.041906,0.011742,0.0060141,-3.7162e-05,0.0017931,7.5103e-05,0,0,0.043899,-0.019034,0,0.0015621,0,0,0,0.006015,-3.8094e-05,0.0017931,0.71096,0.00259,0.0053767,4.9737e-09,0.8,0,0
0.04277,0.01222,0.0058267,-5.1678e-05,0.0017325,6.0462e-05,0,0,0.042579,-0.018555,0,0.0012576,0,0,0,0.0058273,-5.23e-05,0.0017325,0.58923,0.0025025,0.0052212,4.535e-09,0.82,0,0
0.04361,0.012656,0.0056802,-6.3388e-05,0.001685,4.6397e-05,0,0,0.041549,-0.018183,0,0.00096506,0,0,0,0.0056805,-6.3763e-05,0.001685,0.4628,0.0024339,0.0050999,4.2107e-09,0.84,0,0
0.044432,0.013045,0.0055712,-7.2455e-05,0.0016496,3.3784e-05,0,0,0.040785,-0.01791,0,0.0007027,0,0,0,0.0055715,-7.2657e-05,0.0016496,0.34296,0.0023828,0.0050101,3.9802e-09,0.86,0,0
0.045241,0.013384,0.0054948,-7.9184e-05,0.0016247,2.3169e-05,0,0,0.040249,-0.01772,0,0.00048193,0,0,0,0.0054949,-7.9281e-05,0.0016247,0.23816,0.0023468,0.0049474,3.8239e-09,0.88,0,0
0.046042,0.01367,0.0054447,-8.3957e-05,0.0016082,1.4803e-05,0,0,0.039899,-0.017599,0,0.00030791,0,0,0,0.0054447,-8.3996e-05,0.0016082,0.15341,0.002323,0.0049066,3.7238e-09,0.9,0,0
0.046837,0.013903,0.0054144,-8.7173e-05,0.0015982,8.6742e-06,0,0,0.039689,-0.017528,0,0.00018042,0,0,0,0.0054144,-8.7186e-05,0.0015982,0.090337,0.0023085,0.0048822,3.6645e-09,0.92,0,0
0.047629,0.014084,0.0053979,-8.9214e-05,0.0015926,4.5603e-06,0,0,0.039575,-0.017491,0,9.4854e-05,0,0,0,0.0053979,-8.9218e-05,0.0015926,0.047618,0.0023004,0.0048691,3.6326e-09,0.94,0,0
0.04842,0.014212,0.00539,-9.0412e-05,0.0015899,2.081e-06,0,0,0.039522,-0.017475,0,4.3285e-05,0,0,0,0.00539,-9.0413e-05,0.0015899,0.021756,0.0022965,0.0048631,3.6177e-09,0.96,0,0
0.04921,0.014289,0.0053869,-9.1024e-05,0.0015888,7.465e-07,0,0,0.039501,-0.01747,0,1.5527e-05,0,0,0,0.0053869,-9.1024e-05,0.0015888,0.0078079,0.0022949,0.0048609,3.612e-09,0.98,0,0
0.05,0.014314,0.0053862,-9.1209e-05,0.0015885,6.1314e-05,0,0,0.039496,-0.017469,0,0.0012753,0,0,0,0.0053869,-9.1895e-05,0.0015885,0.64126,0.0022945,0.0048615,3.6124e-09,1,0,0
0,0,0.01165,0.004993,0.004993,0.0038746,0,0,0.069237,6.0715e-18,0,0.080593,0,0,0,0.01343,0.0032136,0.004993,24.667,0.0072122,0.009453,3.8254e-08,0,0.02,0
0.0013847,0.0016118,0.010605,0.0010567,0.0034986,0.0024531,0,0,0.073911,-0.025396,0,0.051025,0,0,0,0.011199,0.00046331,0.0034986,13.597,0.0050536,0.0095853,3.0412e-08,0.02,0.02,0
0.0029564,0.0032227,0.010618,0.00083979,0.0034374,0.001624,0,0,0.074681,-0.027016,0,0.033779,0,0,0,0.010881,0.00057714,0.0034374,9.187,0.0049652,0.0092129,2.7497e-08,0.04,0.02,0
0.004372,0.004518,0.0094629,0.0004476,0.0029731,0.00099609,0,0,0.067493,-0.026266,0,0.020719,0,0,0,0.0095716,0.00033885,0.0029731,6.2305,0.0042945,0.0082378,1.9125e-08,0.06,0.02,0
0.0056561,0.0056143,0.0085955,0.00026149,0.0026571,0.00068044,0,0,0.06176,-0.024914,0,0.014153,0,0,0,0.0086507,0.0002063,0.0026571,4.6371,0.003838,0.0075246,1.4312e-08,0.08,0.02,0
0.0068424,0.0065494,0.0079665,0.00016209,0.0024386,0.0004908,0,0,0.05749,-0.023675,0,0.010209,0,0,0,0.0079972,0.00013135,0.0024386,3.5843,0.0035224,0.0070034,1.1403e-08,0.1,0.02,0
0.0079558,0.0073529,0.0075011,0.00010681,0.0022824,0.00037188,0,0,0.054275,-0.022626,0,0.0077351,0,0,0,0.0075198,8.8152e-05,0.0022824,2.8719,0.0032968,0.0066134,9.5303e-09,0.12,0.02,0
0.0090134,0.0080428,0.0071444,7.3972e-05,0.0021655,0.00029206,0,0,0.051781,-0.021752,0,0.006075,0,0,0,0.0071565,6.1928e-05,0.0021655,2.3614,0.003128,0.0063114,8.2425e-09,0.14,0.02,0
0.010027,0.0086315,0.0068626,5.3776e-05,0.0020749,0.00023579,0,0,0.049792,-0.02102,0,0.0049045,0,0,0,0.0068708,4.5621e-05,0.0020749,1.981,0.0029971,0.0060705,7.3105e-09,0.16,0.02,0
0.011005,0.0091276,0.006635,4.1332e-05,0.0020029,0.00019394,0,0,0.048174,-0.0204,0,0.0040339,0,0,0,0.0066407,3.5633e-05,0.0020029,1.6833,0.0028931,0.0058739,6.6095e-09,0.18,0.02,0
0.011954,0.0095371,0.0064486,3.4057e-05,0.0019448,0.00016079,0,0,0.046839,-0.019872,0,0.0033443,0,0,0,0.0064526,3.003e-05,0.0019448,1.435,0.0028091,0.0057112,6.0683e-09,0.2,0.02,0
0.012879,0.009864,0.0062956,3.0482e-05,0.0018978,0.00013243,0,0,0.045737,-0.01942,0,0.0027545,0,0,0,0.0062984,2.7684e-05,0.0018978,1.2104,0.0027413,0.005576,5.6451e-09,0.22,0.02,0
0.013783,0.010111,0.0061718,2.9686e-05,0.0018604,0.00010601,0,0,0.044838,-0.01904,0,0.0022051,0,0,0,0.0061736,2.7856e-05,0.0018604,0.98856,0.0026873,0.0054649,5.3155e-09,0.24,0.02,0
0.014672,0.01028,0.0060753,3.0998e-05,0.0018319,7.9406e-05,0,0,0.044132,-0.018729,0,0.0016516,0,0,0,0.0060764,2.9955e-05,0.0018319,0.75254,0.0026461,0.0053769,5.066e-09,0.26,0.02,0
0.015549,0.010372,0.0060064,3.3829e-05,0.0018121,5.1016e-05,0,0,0.043621,-0.018494,0,0.0010611,0,0,0,0.0060068,3.3393e-05,0.0018121,0.48936,0.0026174,0.0053123,4.8907e-09,0.28,0.02,0
0.016417,0.010389,0.0059661,3.7562e-05,0.0018011,1.9791e-05,0,0,0.043316,-0.018341,0,0.00041166,0,0,0,0.0059662,3.7496e-05,0.0018011,0.19127,0.0026016,0.005273,4.7884e-09,0.3,0.02,0
0.017281,0.010331,0.0059566,4.1502e-05,0.0017994,-1.4748e-05,0,0,0.043235,-0.018283,0,-0.00030676,0,0,0,0.0059566,4.1466e-05,0.0017994,-0.14285,0.0025992,0.0052613,4.7619e-09,0.32,0.02,0
0.018146,0.010202,0.0059799,4.4864e-05,0.0018074,-5.2434e-05,0,0,0.043393,-0.018331,0,-0.0010906,0,0,0,0.0059803,4.4401e-05,0.0018074,-0.50614,0.0026107,0.00528,4.8164e-09,0.34,0.02,0
0.019017,0.010005,0.0060375,4.6787e-05,0.0018253,-9.238e-05,0,0,0.043807,-0.018496,0,-0.0019215,0,0,0,0.0060389,4.5362e-05,0.0018253,-0.88325,0.0026365,0.0053313,4.9589e-09,0.36,0.02,0
0.019899,0.0097468,0.00613,4.6362e-05,0.0018529,-0.00013293,0,0,0.044482,-0.018788,0,-0.0027649,0,0,0,0.0061329,4.3459e-05,0.0018529,-1.2511,0.0026764,0.0054164,5.1965e-09,0.38,0.02,0
0.020796,0.0094355,0.0062562,4.2686e-05,0.0018897,-0.00017163,0,0,0.045412,-0.019208,0,-0.00357,0,0,0,0.0062609,3.7949e-05,0.0018897,-1.5811,0.0027295,0.0055345,5.5349e-09,0.4,0.02,0
0.021715,0.009083,0.0064123,3.4957e-05,0.0019342,-0.00020532,0,0,0.046573,-0.019752,0,-0.0042706,0,0,0,0.0064189,2.8354e-05,0.0019342,-1.8421,0.0027938,0.0056826,5.9754e-09,0.42,0.02,0
0.022659,0.0087042,0.0065923,2.2758e-05,0.0019845,-0.00023028,0,0,0.047921,-0.020402,0,-0.0047899,0,0,0,0.0066003,1.4696e-05,0.0019845,-2.0051,0.0028665,0.0058548,6.5119e-09,0.44,0.02,0
0.023632,0.0083167,0.006787,6.5106e-06,0.0020381,-0.00024289,0,0,0.049389,-0.021128,0,-0.005052,0,0,0,0.0067957,-2.1787e-06,0.0020381,-2.0489,0.0029438,0.0060419,7.1268e-09,0.46,0.02,0
0.024635,0.0079407,0.0069852,-1.2081e-05,0.0020919,-0.00024039,0,0,0.05089,-0.021882,0,-0.0050001,0,0,0,0.0069934,-2.033e-05,0.0020919,-1.9653,0.0030217,0.0062321,7.7887e-09,0.48,0.02,0
0.025667,0.0075971,0.0071746,-3.0166e-05,0.0021433,-0.00022204,0,0,0.052325,-0.022604,0,-0.0046184,0,0,0,0.0071814,-3.7002e-05,0.0021433,-1.7635,0.0030959,0.0064126,8.4539e-09,0.5,0.02,0
0.026728,0.0073063,0.0073435,-4.4764e-05,0.0021896,-0.00018954,0,0,0.0536,-0.023238,0,-0.0039425,0,0,0,0.0073483,-4.9623e-05,0.0021896,-1.4686,0.0031628,0.006571,9.0725e-09,0.52,0.02,0
0.027811,0.0070861,0.0074821,-5.4245e-05,0.0022284,-0.00014657,0,0,0.054639,-0.023739,0,-0.0030486,0,0,0,0.0074849,-5.7094e-05,0.0022284,-1.1137,0.0032187,0.0066984,9.5967e-09,0.54,0.02,0
0.028913,0.0069505,0.0075834,-5.9073e-05,0.0022573,-9.7277e-05,0,0,0.055391,-0.02409,0,-0.0020234,0,0,0,0.0075846,-6.0311e-05,0.0022573,-0.72913,0.0032605,0.0067896,9.9886e-09,0.56,0.02,0
0.030027,0.0069093,0.007643,-6.1086e-05,0.0022746,-4.491e-05,0,0,0.055831,-0.024291,0,-0.00093412,0,0,0,0.0076432,-6.1348e-05,0.0022746,-0.33398,0.0032855,0.0068425,1.0223e-08,0.58,0.02,0
0.031147,0.0069676,0.0076587,-6.1862e-05,0.002279,8.7211e-06,0,0,0.055948,-0.024345,0,0.0001814,0,0,0,0.0076587,-6.1872e-05,0.002279,0.064722,0.0032919,0.0068566,1.0285e-08,0.6,0.02,0
0.032265,0.0071267,0.0076298,-6.141e-05,0.0022705,6.2449e-05,0,0,0.055737,-0.024252,0,0.0012989,0,0,0,0.0076303,-6.1917e-05,0.0022705,0.46518,0.0032796,0.0068315,1.0172e-08,0.62,0.02,0
0.033376,0.0073834,0.0075573,-5.8152e-05,0.0022498,0.00011447,0,0,0.055199,-0.024002,0,0.0023809,0,0,0,0.007559,-5.9872e-05,0.0022498,0.86094,0.0032496,0.0067665,9.8876e-09,0.64,0.02,0
0.034473,0.0077302,0.0074443,-5.0207e-05,0.0022182,0.00016153,0,0,0.054351,-0.023592,0,0.0033597,0,0,0,0.0074478,-5.3687e-05,0.0022182,1.2341,0.0032041,0.0066626,9.4504e-09,0.66,0.02,0
0.03555,0.0081551,0.0072966,-3.7036e-05,0.0021779,0.00019939,0,0,0.053234,-0.023035,0,0.0041474,0,0,0,0.007302,-4.2453e-05,0.0021779,1.5563,0.0031458,0.0065241,8.8931e-09,0.68,0.02,0
0.036602,0.0086422,0.0071227,-2.0187e-05,0.0021308,0.00022428,0,0,0.051916,-0.02237,0,0.004665,0,0,0,0.0071298,-2.7222e-05,0.0021308,1.7967,0.0030778,0.0063588,8.2612e-09,0.7,0.02,0
0.037627,0.009173,0.0069336,-2.5838e-06,0.0020793,0.00023428,0,0,0.050484,-0.021652,0,0.004873,0,0,0,0.0069415,-1.0488e-05,0.0020793,1.9323,0.0030034,0.0061781,7.6051e-09,0.72,0.02,0
0.038622,0.0097279,0.0067404,1.2932e-05,0.002026,0.00022994,0,0,0.04903,-0.020936,0,0.0047826,0,0,0,0.0067483,5.0824e-06,0.002026,1.9552,0.0029265,0.0059939,6.9707e-09,0.74,0.02,0
0.039588,0.010288,0.0065539,2.4623e-05,0.0019736,0.00021377,0,0,0.047636,-0.020269,0,0.0044463,0,0,0,0.0065609,1.7631e-05,0.0019736,1.8732,0.0028507,0.0058174,6.3928e-09,0.76,0.02,0
0.040527,0.010837,0.0063826,3.1991e-05,0.0019244,0.00018927,0,0,0.046365,-0.019681,0,0.0039368,0,0,0,0.0063882,2.6355e-05,0.0019244,1.7056,0.0027796,0.0056569,5.8918e-09,0.78,0.02,0
0.041443,0.011361,0.0062321,3.5348e-05,0.0018802,0.00016006,0,0,0.04526,-0.019187,0,0.0033291,0,0,0,0.0062363,3.1217e-05,0.0018802,1.4786,0.0027159,0.005518,5.4761e-09,0.8,0.02,0
0.042338,0.011849,0.0061058,3.5373e-05,0.0018423,0.00012931,0,0,0.044339,-0.018792,0,0.0026898,0,0,0,0.0061085,3.262e-05,0.0018423,1.2198,0.0026612,0.0054033,5.1445e-09,0.82,0.02,0
0.043216,0.012292,0.0060041,3.2846e-05,0.0018111,9.9624e-05,0,0,0.043608,-0.018494,0,0.0020722,0,0,0,0.0060058,3.1185e-05,0.0018111,0.95555,0.002616,0.0053132,4.8902e-09,0.84,0.02,0
0.044082,0.012687,0.0059261,2.8563e-05,0.0017864,7.2864e-05,0,0,0.043053,-0.018282,0,0.0015156,0,0,0,0.005927,2.7663e-05,0.0017864,0.70774,0.0025804,0.005246,4.7029e-09,0.86,0.02,0
0.044938,0.013029,0.0058691,2.3285e-05,0.0017677,5.0243e-05,0,0,0.042654,-0.018142,0,0.0010451,0,0,0,0.0058696,2.2853e-05,0.0017677,0.49239,0.0025534,0.0051987,4.5713e-09,0.88,0.02,0
0.045788,0.013318,0.0058297,1.7708e-05,0.0017542,3.2331e-05,0,0,0.042385,-0.01806,0,0.00067249,0,0,0,0.0058299,1.7529e-05,0.0017542,0.31871,0.0025339,0.0051677,4.4835e-09,0.9,0.02,0
0.046634,0.013553,0.0058041,1.2422e-05,0.001745,1.9138e-05,0,0,0.042215,-0.018018,0,0.00039807,0,0,0,0.0058041,1.2359e-05,0.001745,0.18933,0.0025205,0.005149,4.4286e-09,0.92,0.02,0
0.047477,0.013734,0.0057886,7.8887e-06,0.0017389,1.0216e-05,0,0,0.042116,-0.018003,0,0.00021248,0,0,0,0.0057886,7.8707e-06,0.0017389,0.10125,0.0025118,0.0051387,4.3968e-09,0.94,0.02,0
0.048318,0.013862,0.00578,4.4394e-06,0.0017353,4.7674e-06,0,0,0.042065,-0.018001,0,9.9162e-05,0,0,0,0.00578,4.4354e-06,0.0017353,0.047294,0.0025066,0.0051339,4.3801e-09,0.96,0.02,0
0.049159,0.013939,0.0057759,2.2906e-06,0.0017335,1.7569e-06,0,0,0.042042,-0.018004,0,3.6545e-05,0,0,0,0.0057759,2.29e-06,0.0017335,0.017435,0.0025039,0.0051319,4.3725e-09,0.98,0.02,0
0.05,0.013965,0.0057748,1.5617e-06,0.0017329,6.1362e-05,0,0,0.042035,-0.018006,0,0.0012763,0,0,0,0.0057754,9.0955e-07,0.0017329,0.6089,0.0025031,0.0051326,4.3724e-09,1,0.02,0
0,0,0.009867,0.0042287,0.0042287,0.0031959,0,0,0.058638,4.3368e-19,0,0.066475,0,0,0,0.01131,0.0027862,0.0042287,24.292,0.0061081,0.0079014,2.2516e-08,0,0.04,0
0.0011728,0.0013295,0.0095061,0.0025849,0.0036273,0.0028983,0,0,0.06114,-0.010841,0,0.060285,0,0,0,0.010559,0.0015315,0.0036273,19.973,0.0052394,0.0081839,2.205e-08,0.02,0.04,0
0.0024456,0.0027294,0.0094535,0.0012611,0.0032144,0.0023323,0,0,0.064887,-0.020314,0,0.048511,0,0,0,0.010071,0.00064367,0.0032144,14.828,0.004643,0.0084408,2.1503e-08,0.04,0.04,0
0.0037682,0.0040108,0.009274,0.00079577,0.0030209,0.0017279,0,0,0.065032,-0.023142,0,0.035941,0,0,0,0.0096127,0.00045713,0.0030209,11.088,0.0043636,0.0081807,1.9089e-08,0.06,0.04,0
0.0050469,0.0051158,0.0087977,0.00050441,0.0027906,0.0012644,0,0,0.062474,-0.023777,0,0.0263,0,0,0,0.0089862,0.00031591,0.0027906,8.4789,0.0040309,0.0077357,1.5831e-08,0.08,0.04,0
0.0062672,0.0060689,0.0083346,0.00033458,0.0026008,0.00095322,0,0,0.059632,-0.023568,0,0.019827,0,0,0,0.0084466,0.00022257,0.0026008,6.7019,0.0037566,0.0073302,1.3284e-08,0.1,0.04,0
0.0074322,0.0068899,0.0079356,0.00022998,0.0024497,0.00073921,0,0,0.057054,-0.023085,0,0.015376,0,0,0,0.0080059,0.00015971,0.0024497,5.4305,0.0035384,0.0069885,1.1394e-08,0.12,0.04,0
0.0085493,0.0075957,0.007604,0.00016393,0.0023304,0.00058869,0,0,0.054846,-0.022531,0,0.012245,0,0,0,0.0076503,0.00011764,0.0023304,4.4962,0.0033661,0.0067059,9.9944e-09,0.14,0.04,0
0.009626,0.0081983,0.0073294,0.0001215,0.0022353,0.00047904,0,0,0.052979,-0.021983,0,0.0099641,0,0,0,0.0073611,8.9801e-05,0.0022353,3.7857,0.0032287,0.0064711,8.935e-09,0.16,0.04,0
0.010668,0.0087064,0.0071009,9.4466e-05,0.0021586,0.00039586,0,0,0.0514,-0.021467,0,0.0082338,0,0,0,0.0071232,7.2171e-05,0.0021586,3.2235,0.003118,0.0062737,8.1149e-09,0.18,0.04,0
0.011682,0.0091264,0.0069098,7.8108e-05,0.0020964,0.00032938,0,0,0.050059,-0.02099,0,0.0068512,0,0,0,0.0069256,6.2263e-05,0.0020964,2.754,0.0030281,0.0061059,7.4675e-09,0.2,0.04,0
0.012671,0.0094625,0.0067497,6.9575e-05,0.0020458,0.0002727,0,0,0.048921,-0.020553,0,0.0056721,0,0,0,0.0067608,5.8461e-05,0.0020458,2.3338,0.002955,0.0059625,6.9497e-09,0.22,0.04,0
0.013639,0.0097175,0.0066166,6.7e-05,0.0020051,0.00022066,0,0,0.04796,-0.020156,0,0.0045897,0,0,0,0.006624,5.9574e-05,0.0020051,1.9274,0.0028962,0.00584,6.5339e-09,0.24,0.04,0
0.014589,0.0098931,0.0065081,6.8982e-05,0.0019731,0.00016936,0,0,0.047164,-0.019803,0,0.0035227,0,0,0,0.0065125,6.4531e-05,0.0019731,1.5056,0.0028501,0.005737,6.2031e-09,0.26,0.04,0
0.015525,0.0099907,0.006423,7.4262e-05,0.0019492,0.00011591,0,0,0.046528,-0.019499,0,0.002411,0,0,0,0.0064251,7.2147e-05,0.0019492,1.0456,0.0028155,0.0056532,5.948e-09,0.28,0.04,0
0.01645,0.010011,0.0063612,8.1518e-05,0.0019328,5.8381e-05,0,0,0.046055,-0.019254,0,0.0012143,0,0,0,0.0063618,8.0975e-05,0.0019328,0.5326,0.0027919,0.0055899,5.7642e-09,0.3,0.04,0
0.017368,0.0099556,0.0063232,8.9253e-05,0.0019237,-4.1188e-06,0,0,0.045754,-0.019079,0,-8.5672e-05,0,0,0,0.0063232,8.9251e-05,0.0019237,-0.037856,0.0027787,0.005549,5.6512e-09,0.32,0.04,0
0.018281,0.0098268,0.0063094,9.5785e-05,0.0019216,-7.1317e-05,0,0,0.045634,-0.018988,0,-0.0014834,0,0,0,0.0063102,9.4967e-05,0.0019216,-0.6575,0.0027756,0.0055329,5.6106e-09,0.34,0.04,0
0.019193,0.0096282,0.0063202,9.9301e-05,0.0019259,-0.00014169,0,0,0.045701,-0.018996,0,-0.0029471,0,0,0,0.0063234,9.6076e-05,0.0019259,-1.3041,0.0027818,0.0055438,5.645e-09,0.36,0.04,0
0.020109,0.0093658,0.0063552,9.7969e-05,0.001936,-0.00021241,0,0,0.04596,-0.019115,0,-0.004418,0,0,0,0.0063624,9.0766e-05,0.001936,-1.942,0.0027964,0.0055826,5.756e-09,0.38,0.04,0
0.021031,0.0090481,0.0064132,8.9993e-05,0.0019509,-0.00027941,0,0,0.046407,-0.019354,0,-0.0058117,0,0,0,0.0064255,7.7671e-05,0.0019509,-2.5252,0.002818,0.0056491,5.9434e-09,0.4,0.04,0
0.021965,0.008687,0.0064915,7.3783e-05,0.0019696,-0.00033748,0,0,0.047028,-0.019716,0,-0.0070195,0,0,0,0.0065092,5.6085e-05,0.0019696,-3.0019,0.002845,0.0057407,6.2025e-09,0.42,0.04,0
0.022912,0.0082973,0.006586,4.831e-05,0.0019903,-0.00038054,0,0,0.047796,-0.020197,0,-0.0079153,0,0,0,0.0066081,2.6234e-05,0.0019903,-3.3201,0.0028749,0.0058525,6.5226e-09,0.44,0.04,0
0.023877,0.0078975,0.0066908,1.4172e-05,0.0020115,-0.0004024,0,0,0.048665,-0.020772,0,-0.00837,0,0,0,0.006715,-9.9932e-06,0.0020115,-3.4366,0.0029055,0.0059764,6.8846e-09,0.46,0.04,0
0.024859,0.0075084,0.0067984,-2.5231e-05,0.002032,-0.0003983,0,0,0.049571,-0.021395,0,-0.0082847,0,0,0,0.0068216,-4.8401e-05,0.002032,-3.3293,0.002935,0.0061019,7.2606e-09,0.48,0.04,0
0.02586,0.0071523,0.0069006,-6.3469e-05,0.0020511,-0.00036689,0,0,0.050435,-0.021992,0,-0.0076313,0,0,0,0.0069199,-8.2744e-05,0.0020511,-3.0074,0.0029628,0.0062167,7.6176e-09,0.5,0.04,0
0.026876,0.0068508,0.0069902,-9.3469e-05,0.002069,-0.0003116,0,0,0.051181,-0.02249,0,-0.0064812,0,0,0,0.0070039,-0.00010715,0.002069,-2.5138,0.0029886,0.006311,7.9256e-09,0.52,0.04,0
0.027907,0.0066223,0.0070621,-0.00011148,0.0020852,-0.00023958,0,0,0.05176,-0.022846,0,-0.0049832,0,0,0,0.0070701,-0.00011947,0.0020852,-1.9107,0.003012,0.0063797,8.1658e-09,0.54,0.04,0
0.028947,0.0064811,0.0071139,-0.00011917,0.0020984,-0.00015872,0,0,0.052161,-0.023063,0,-0.0033015,0,0,0,0.0071174,-0.00012265,0.0020984,-1.2565,0.003031,0.0064242,8.3333e-09,0.56,0.04,0
0.029993,0.0064367,0.0071449,-0.00012173,0.002107,-7.4382e-05,0,0,0.052395,-0.023178,0,-0.0015471,0,0,0,0.0071457,-0.00012249,0.002107,-0.5864,0.0030434,0.0064492,8.4324e-09,0.58,0.04,0
0.031043,0.0064941,0.0071554,-0.00012343,0.0021096,1.1439e-05,0,0,0.052476,-0.023223,0,0.00023794,0,0,0,0.0071554,-0.00012345,0.0021096,0.090046,0.0030472,0.0064586,8.4678e-09,0.6,0.04,0
0.032092,0.0066545,0.0071447,-0.00012431,0.0021061,9.8314e-05,0,0,0.052401,-0.023196,0,0.0020449,0,0,0,0.007146,-0.00012564,0.0021061,0.77475,0.0030421,0.006452,8.4373e-09,0.62,0.04,0
0.033139,0.006915,0.0071117,-0.00012011,0.0020975,0.00018426,0,0,0.052148,-0.023063,0,0.0038327,0,0,0,0.0071163,-0.0001248,0.0020975,1.4586,0.0030297,0.006425,8.3324e-09,0.64,0.04,0
0.034178,0.0072685,0.0070558,-0.00010555,0.0020851,0.00026394,0,0,0.051695,-0.022782,0,0.00549,0,0,0,0.0070655,-0.00011526,0.0020851,2.1079,0.0030118,0.0063722,8.1448e-09,0.66,0.04,0
0.035207,0.0077029,0.0069783,-7.8762e-05,0.0020699,0.00032935,0,0,0.051048,-0.022346,0,0.0068506,0,0,0,0.0069937,-9.41e-05,0.0020699,2.6663,0.0029898,0.0062914,7.8759e-09,0.68,0.04,0
0.03622,0.0082015,0.0068834,-4.3323e-05,0.002052,0.00037312,0,0,0.050247,-0.021792,0,0.0077609,0,0,0,0.0069035,-6.3364e-05,0.002052,3.0745,0.0029641,0.0061866,7.5416e-09,0.7,0.04,0
0.037216,0.0087448,0.0067774,-6.1816e-06,0.0020314,0.00039147,0,0,0.049358,-0.02119,0,0.0081425,0,0,0,0.0067999,-2.8698e-05,0.0020314,3.2919,0.0029342,0.0060668,7.1698e-09,0.72,0.04,0
0.038194,0.0093121,0.0066674,2.625e-05,0.0020081,0.00038535,0,0,0.048457,-0.020611,0,0.0080154,0,0,0,0.0066897,3.9646e-06,0.0020081,3.3098,0.0029006,0.0059428,6.792e-09,0.74,0.04,0
0.039155,0.0098836,0.0065604,5.0491e-05,0.0019833,0.00035918,0,0,0.047602,-0.020101,0,0.0074709,0,0,0,0.0065802,3.0734e-05,0.0019833,3.1485,0.0028647,0.0058241,6.4354e-09,0.76,0.04,0
0.040099,0.010442,0.0064617,6.5777e-05,0.0019583,0.00031887,0,0,0.046836,-0.019682,0,0.0066325,0,0,0,0.0064776,4.9919e-05,0.0019583,2.847,0.0028286,0.0057176,6.1187e-09,0.78,0.04,0
0.041028,0.010974,0.0063749,7.2898e-05,0.0019344,0.00027037,0,0,0.046182,-0.019359,0,0.0056236,0,0,0,0.0063865,6.132e-05,0.0019344,2.4521,0.0027941,0.0056275,5.852e-09,0.8,0.04,0
0.041946,0.011468,0.006302,7.3171e-05,0.0019126,0.00021896,0,0,0.04565,-0.01913,0,0.0045543,0,0,0,0.0063097,6.5484e-05,0.0019126,2.0108,0.0027626,0.0055559,5.6385e-09,0.82,0.04,0
0.042854,0.011916,0.0062436,6.8113e-05,0.0018935,0.00016897,0,0,0.045241,-0.018984,0,0.0035145,0,0,0,0.0062482,6.3493e-05,0.0018935,1.5661,0.0027351,0.0055029,5.4766e-09,0.84,0.04,0
0.043755,0.012314,0.0061991,5.9302e-05,0.0018775,0.00012368,0,0,0.044945,-0.01891,0,0.0025726,0,0,0,0.0062016,5.6812e-05,0.0018775,1.1535,0.002712,0.0054668,5.3609e-09,0.86,0.04,0
0.044652,0.012658,0.0061672,4.8333e-05,0.0018647,8.526e-05,0,0,0.044747,-0.01889,0,0.0017734,0,0,0,0.0061684,4.7145e-05,0.0018647,0.79815,0.0026934,0.005445,5.284e-09,0.88,0.04,0
0.045545,0.012948,0.0061458,3.6684e-05,0.0018547,5.4776e-05,0,0,0.044627,-0.018908,0,0.0011393,0,0,0,0.0061463,3.6193e-05,0.0018547,0.51368,0.0026791,0.005434,5.2374e-09,0.9,0.04,0
0.046437,0.013182,0.0061325,2.5617e-05,0.0018474,3.2314e-05,0,0,0.044564,-0.018947,0,0.00067214,0,0,0,0.0061326,2.5446e-05,0.0018474,0.30317,0.0026685,0.0054305,5.2124e-09,0.92,0.04,0
0.047328,0.013364,0.0061249,1.6115e-05,0.0018423,1.7146e-05,0,0,0.044539,-0.018992,0,0.00035663,0,0,0,0.006125,1.6067e-05,0.0018423,0.16081,0.0026611,0.0054312,5.2016e-09,0.94,0.04,0
0.048218,0.013492,0.0061212,8.8844e-06,0.001839,7.9264e-06,0,0,0.044534,-0.019033,0,0.00016487,0,0,0,0.0061212,8.8742e-06,0.001839,0.074301,0.0026564,0.0054335,5.1985e-09,0.96,0.04,0
0.049109,0.013569,0.0061196,4.3795e-06,0.0018372,2.8875e-06,0,0,0.044537,-0.019061,0,6.006e-05,0,0,0,0.0061196,4.3781e-06,0.0018372,0.027054,0.0026537,0.0054357,5.1985e-09,0.98,0.04,0
0.05,0.013594,0.0061192,2.8514e-06,0.0018366,6.116e-05,0,0,0.044539,-0.019071,0,0.0012721,0,0,0,0.0061198,2.2399e-06,0.0018366,0.57285,0.0026529,0.0054376,5.201e-09,1,0.04,0
0,0,0.0089746,0.0038462,0.0038462,0.0028322,0,0,0.053335,-6.5052e-19,0,0.05891,0,0,0,0.010231,0.0025899,0.0038462,23.922,0.0055557,0.0070968,1.6435e-08,0,0.06,0
0.0010667,0.0011782,0.008862,0.0029254,0.0035362,0.0027079,0,0,0.055388,-0.0063527,0,0.056324,0,0,0,0.0099116,0.0018758,0.0035362,21.187,0.0051079,0.0073477,1.6919e-08,0.02,0.06,0
0.0022155,0.0024101,0.0089274,0.0019474,0.0032624,0.0024798,0,0,0.058915,-0.013676,0,0.05158,0,0,0,0.0097186,0.0011561,0.0032624,17.698,0.0047124,0.0077278,1.7899e-08,0.04,0.06,0
0.0034233,0.0035923,0.0088935,0.0012435,0.0030411,0.0020641,0,0,0.060865,-0.018695,0,0.042934,0,0,0,0.0094149,0.00072212,0.0030411,14.177,0.0043927,0.0077964,1.7276e-08,0.06,0.06,0
0.0046501,0.0046632,0.0087319,0.00083933,0.0028714,0.0016517,0,0,0.06095,-0.021133,0,0.034355,0,0,0,0.0090636,0.00050762,0.0028714,11.356,0.0041475,0.007653,1.5834e-08,0.08,0.06,0
0.0058613,0.0056067,0.0084692,0.00057994,0.0027148,0.001313,0,0,0.059847,-0.022202,0,0.027311,0,0,0,0.008682,0.00036715,0.0027148,9.2054,0.0039213,0.0074249,1.4155e-08,0.1,0.06,0
0.007044,0.0064295,0.0081902,0.00041213,0.0025807,0.0010546,0,0,0.058339,-0.022553,0,0.021936,0,0,0,0.0083307,0.00027167,0.0025807,7.5862,0.0037277,0.0071882,1.2651e-08,0.12,0.06,0
0.0081948,0.0071416,0.0079273,0.00030106,0.0024685,0.00085923,0,0,0.056771,-0.022541,0,0.017872,0,0,0,0.0080229,0.00020545,0.0024685,6.3493,0.0035656,0.0069672,1.1393e-08,0.14,0.06,0
0.0093148,0.0077522,0.0076915,0.00022715,0.0023756,0.00071007,0,0,0.055286,-0.022344,0,0.014769,0,0,0,0.0077585,0.0001602,0.0023756,5.386,0.0034314,0.0067682,1.0362e-08,0.16,0.06,0
0.010406,0.008269,0.0074842,0.00017866,0.0022989,0.00059333,0,0,0.053928,-0.02205,0,0.012341,0,0,0,0.0075321,0.00013079,0.0022989,4.6131,0.0033206,0.0065904,9.5169e-09,0.18,0.06,0
0.011472,0.0086975,0.0073033,0.00014845,0.0022355,0.00049844,0,0,0.052705,-0.021706,0,0.010367,0,0,0,0.0073379,0.00011389,0.0022355,3.9659,0.0032291,0.0064312,8.8177e-09,0.2,0.06,0
0.012514,0.0090419,0.0071459,0.00013196,0.0021834,0.0004172,0,0,0.05161,-0.021335,0,0.0086778,0,0,0,0.0071706,0.00010723,0.0021834,3.3921,0.0031537,0.0062879,8.2337e-09,0.22,0.06,0
0.013536,0.0093049,0.0070094,0.00012611,0.0021407,0.00034324,0,0,0.050635,-0.020951,0,0.0071393,0,0,0,0.0070265,0.00010904,0.0021407,2.8476,0.003092,0.0061583,7.7421e-09,0.24,0.06,0
0.01454,0.009488,0.0068918,0.00012849,0.0021061,0.00027153,0,0,0.049771,-0.020567,0,0.0056478,0,0,0,0.0069027,0.00011761,0.0021061,2.2954,0.0030421,0.0060415,7.3275e-09,0.26,0.06,0
0.015527,0.0095923,0.0067918,0.0001369,0.0020786,0.00019828,0,0,0.049017,-0.020194,0,0.0041242,0,0,0,0.0067977,0.000131,0.0020786,1.7051,0.0030024,0.0059375,6.9805e-09,0.28,0.06,0
0.016501,0.0096187,0.0067086,0.00014896,0.0020573,0.00012088,0,0,0.048374,-0.019846,0,0.0025143,0,0,0,0.0067109,0.00014674,0.0020573,1.0554,0.0029716,0.0058478,6.6966e-09,0.3,0.06,0
0.017462,0.0095681,0.0066421,0.00016196,0.0020412,3.8095e-05,0,0,0.047849,-0.019544,0,0.00079237,0,0,0,0.0066423,0.00016174,0.0020412,0.33681,0.0029484,0.005775,6.475e-09,0.32,0.06,0
0.018415,0.0094424,0.006592,0.00017282,0.0020294,-4.9793e-05,0,0,0.04745,-0.019309,0,-0.0010357,0,0,0,0.0065924,0.00017243,0.0020294,-0.4444,0.0029314,0.0057221,6.3168e-09,0.34,0.06,0
0.01936,0.0092453,0.0065581,0.00017827,0.0020209,-0.00014085,0,0,0.047186,-0.019163,0,-0.0029296,0,0,0,0.0065612,0.00017516,0.0020209,-1.2641,0.0029191,0.0056922,6.2236e-09,0.36,0.06,0
0.020302,0.0089821,0.0065397,0.00017509,0.0020144,-0.00023153,0,0,0.047063,-0.019129,0,-0.0048159,0,0,0,0.0065481,0.00016668,0.0020144,-2.0806,0.0029097,0.0056873,6.1954e-09,0.38,0.06,0
0.021243,0.0086613,0.0065358,0.00016044,0.0020089,-0.0003169,0,0,0.04708,-0.019224,0,-0.0065914,0,0,0,0.0065515,0.00014472,0.0020089,-2.8386,0.0029017,0.0057078,6.2292e-09,0.4,0.06,0
0.022185,0.0082944,0.0065449,0.00013169,0.002003,-0.00039084,0,0,0.047236,-0.019462,0,-0.0081295,0,0,0,0.0065687,0.00010795,0.002003,-3.4746,0.0028932,0.0057523,6.3188e-09,0.42,0.06,0
0.023132,0.0078963,0.006565,8.6955e-05,0.0019956,-0.00044611,0,0,0.047522,-0.01985,0,-0.009279,0,0,0,0.0065955,5.6378e-05,0.0019956,-3.921,0.0028825,0.0058173,6.4531e-09,0.44,0.06,0
0.024086,0.0074858,0.0065923,2.6276e-05,0.0019856,-0.00047489,0,0,0.04791,-0.020376,0,-0.0098777,0,0,0,0.0066264,-7.8932e-06,0.0019856,-4.1154,0.002868,0.005896,6.6136e-09,0.46,0.06,0
0.025049,0.0070849,0.0066218,-4.4899e-05,0.0019731,-0.00047025,0,0,0.048346,-0.020987,0,-0.0097813,0,0,0,0.0066548,-7.7906e-05,0.0019731,-4.015,0.00285,0.0059772,6.7733e-09,0.48,0.06,0
0.02602,0.0067174,0.0066478,-0.00011418,0.0019601,-0.00043012,0,0,0.048752,-0.021572,0,-0.0089465,0,0,0,0.006675,-0.00014143,0.0019601,-3.625,0.0028312,0.0060461,6.9016e-09,0.5,0.06,0
0.026999,0.0064067,0.0066662,-0.00016632,0.00195,-0.00035989,0,0,0.049049,-0.022009,0,-0.0074857,0,0,0,0.0066851,-0.00018523,0.00195,-3.0068,0.0028166,0.0060902,6.978e-09,0.52,0.06,0
0.027982,0.0061723,0.0066763,-0.00019338,0.0019449,-0.00027184,0,0,0.049207,-0.022238,0,-0.0056543,0,0,0,0.006687,-0.00020412,0.0019449,-2.2626,0.0028093,0.0061071,7.0033e-09,0.54,0.06,0
0.028967,0.006028,0.0066807,-0.00020053,0.0019441,-0.00017836,0,0,0.049261,-0.022304,0,-0.0037099,0,0,0,0.0066853,-0.00020515,0.0019441,-1.4838,0.0028081,0.0061065,6.9991e-09,0.56,0.06,0
0.029952,0.0059822,0.0066843,-0.00020056,0.0019451,-8.6079e-05,0,0,0.049287,-0.022315,0,-0.0017905,0,0,0,0.0066854,-0.00020163,0.0019451,-0.7162,0.0028096,0.0061037,6.9957e-09,0.58,0.06,0
0.030938,0.0060387,0.0066906,-0.0002037,0.0019461,5.928e-06,0,0,0.049343,-0.022357,0,0.0001233,0,0,0,0.0066906,-0.0002037,0.0019461,0.049266,0.002811,0.00611,7.0139e-09,0.6,0.06,0
0.031926,0.0061989,0.0066991,-0.00021005,0.0019467,0.00010168,0,0,0.049425,-0.02243,0,0.0021149,0,0,0,0.0067006,-0.00021155,0.0019467,0.84295,0.0028119,0.0061252,7.0532e-09,0.62,0.06,0
0.032915,0.0064609,0.0067055,-0.00020947,0.0019488,0.0002022,0,0,0.049469,-0.022446,0,0.0042057,0,0,0,0.0067114,-0.00021537,0.0019488,1.6735,0.0028149,0.0061378,7.0908e-09,0.64,0.06,0
0.033905,0.0068189,0.0067039,-0.00018896,0.0019545,0.00030093,0,0,0.049394,-0.022292,0,0.0062594,0,0,0,0.006717,-0.00020207,0.0019545,2.4951,0.0028231,0.0061321,7.0948e-09,0.66,0.06,0
0.034891,0.0072613,0.0066906,-0.00014297,0.0019643,0.00038542,0,0,0.049154,-0.021916,0,0.0080166,0,0,0,0.0067123,-0.00016464,0.0019643,3.2179,0.0028373,0.0060979,7.0413e-09,0.68,0.06,0
0.035871,0.0077706,0.0066655,-7.9049e-05,0.0019759,0.00044305,0,0,0.048771,-0.021372,0,0.0092155,0,0,0,0.0066945,-0.00010803,0.0019759,3.7424,0.0028541,0.0060366,6.9266e-09,0.7,0.06,0
0.036842,0.0083254,0.0066316,-1.2222e-05,0.0019858,0.00046797,0,0,0.048316,-0.02078,0,0.0097337,0,0,0,0.0066644,-4.5022e-05,0.0019858,4.0093,0.0028684,0.0059594,6.7678e-09,0.72,0.06,0
0.037804,0.0089034,0.006594,4.5137e-05,0.0019917,0.00046169,0,0,0.047863,-0.020244,0,0.0096031,0,0,0,0.0066263,1.2748e-05,0.0019917,4.0129,0.0028769,0.0058794,6.5913e-09,0.74,0.06,0
0.038756,0.0094841,0.0065569,8.7415e-05,0.0019933,0.00043067,0,0,0.047461,-0.019821,0,0.0089579,0,0,0,0.0065854,5.8872e-05,0.0019933,3.7918,0.0028792,0.0058063,6.4206e-09,0.76,0.06,0
0.039702,0.01005,0.0065234,0.00011427,0.0019913,0.00038235,0,0,0.047134,-0.019521,0,0.0079528,0,0,0,0.0065461,9.1539e-05,0.0019913,3.402,0.0028763,0.0057453,6.2712e-09,0.78,0.06,0
0.040642,0.010587,0.0064952,0.00012712,0.0019867,0.00032384,0,0,0.046888,-0.019339,0,0.0067359,0,0,0,0.0065116,0.0001107,0.0019867,2.9037,0.0028697,0.0056994,6.1516e-09,0.8,0.06,0
0.041578,0.011083,0.0064732,0.00012808,0.0019804,0.00026137,0,0,0.046725,-0.019264,0,0.0054365,0,0,0,0.0064839,0.00011733,0.0019804,2.3548,0.0028605,0.0056695,6.0659e-09,0.82,0.06,0
0.042511,0.011533,0.0064577,0.00011945,0.0019731,0.00020031,0,0,0.046639,-0.019278,0,0.0041665,0,0,0,0.006464,0.00011312,0.0019731,1.8084,0.0028501,0.0056551,6.0143e-09,0.84,0.06,0
0.043443,0.011931,0.0064485,0.00010397,0.0019657,0.0001449,0,0,0.046621,-0.019362,0,0.0030139,0,0,0,0.0064518,0.00010066,0.0019657,1.3076,0.0028394,0.0056542,5.9931e-09,0.86,0.06,0
0.044376,0.012274,0.0064447,8.4514e-05,0.0019588,9.802e-05,0,0,0.046654,-0.019492,0,0.0020388,0,0,0,0.0064463,8.3004e-05,0.0019588,0.88273,0.0028294,0.0056634,5.9959e-09,0.88,0.06,0
0.045309,0.012562,0.0064451,6.3782e-05,0.0019527,6.1128e-05,0,0,0.046721,-0.019644,0,0.0012715,0,0,0,0.0064457,6.3196e-05,0.0019527,0.54878,0.0028205,0.0056786,6.0148e-09,0.9,0.06,0
0.046245,0.012795,0.0064481,4.4074e-05,0.0019476,3.4371e-05,0,0,0.046804,-0.019797,0,0.00071491,0,0,0,0.0064483,4.389e-05,0.0019476,0.3075,0.0028133,0.0056963,6.0419e-09,0.92,0.06,0
0.047182,0.012974,0.0064521,2.7164e-05,0.0019438,1.6832e-05,0,0,0.046887,-0.019933,0,0.0003501,0,0,0,0.0064522,2.712e-05,0.0019438,0.1501,0.0028077,0.0057132,6.0701e-09,0.94,0.06,0
0.04812,0.013101,0.006456,1.4303e-05,0.0019411,6.8037e-06,0,0,0.046955,-0.020039,0,0.00014152,0,0,0,0.006456,1.4296e-05,0.0019411,0.060515,0.0028038,0.0057268,6.0941e-09,0.96,0.06,0
0.04906,0.013177,0.0064588,6.2962e-06,0.0019395,2.0468e-06,0,0,0.047,-0.020105,0,4.2573e-05,0,0,0,0.0064588,6.2956e-06,0.0019395,0.018175,0.0028015,0.0057356,6.11e-09,0.98,0.06,0
0.05,0.013202,0.0064597,3.581e-06,0.001939,6.0418e-05,0,0,0.047016,-0.020128,0,0.0012567,0,0,0,0.0064603,3.0156e-06,0.001939,0.53612,0.0028008,0.0057396,6.1177e-09,1,0.06,0
0,0,0.0085446,0.003662,0.003662,0.0025851,0,0,0.050779,0,0,0.053769,0,0,0,0.009659,0.0025477,0.003662,23.319,0.0052895,0.0066248,1.352e-08,0,0.08,0
0.0010156,0.0010754,0.0084821,0.0030074,0.0034469,0.0025299,0,0,0.052367,-0.0045705,0,0.052621,0,0,0,0.0094722,0.0020174,0.0034469,21.372,0.0049788,0.0068528,1.4134e-08,0.02,0.08,0
0.0020947,0.0021824,0.0085952,0.0022915,0.003266,0.0024086,0,0,0.055424,-0.010135,0,0.050098,0,0,0,0.0094101,0.0014766,0.003266,18.693,0.0047176,0.0072074,1.5307e-08,0.04,0.08,0
0.0032325,0.003263,0.008648,0.0016529,0.0030903,0.0021541,0,0,0.0578,-0.014949,0,0.044804,0,0,0,0.0092581,0.0010428,0.0030903,15.814,0.0044637,0.0074069,1.5619e-08,0.06,0.08,0
0.0044067,0.0042704,0.0086122,0.0011788,0.0029373,0.0018419,0,0,0.059019,-0.018289,0,0.038311,0,0,0,0.0090435,0.00074739,0.0029373,13.181,0.0042427,0.0074468,1.5189e-08,0.08,0.08,0
0.0055933,0.0051808,0.0084973,0.00085255,0.002805,0.0015431,0,0,0.0592,-0.020305,0,0.032097,0,0,0,0.008797,0.00055282,0.002805,10.992,0.0040516,0.0073805,1.4351e-08,0.1,0.08,0
0.0067747,0.0059878,0.0083322,0.00062607,0.0026875,0.0012869,0,0,0.058705,-0.021439,0,0.026768,0,0,0,0.0085415,0.00041684,0.0026875,9.2347,0.0038819,0.0072607,1.3372e-08,0.12,0.08,0
0.0079415,0.006694,0.0081498,0.00046905,0.0025857,0.0010776,0,0,0.057867,-0.022013,0,0.022415,0,0,0,0.0082981,0.00032072,0.0025857,7.8373,0.0037348,0.0071204,1.2414e-08,0.14,0.08,0
0.0090894,0.0073045,0.0079681,0.00036059,0.0024986,0.00090881,0,0,0.056883,-0.022235,0,0.018903,0,0,0,0.0080751,0.00025353,0.0024986,6.7188,0.0036091,0.0069755,1.1539e-08,0.16,0.08,0
0.010217,0.0078244,0.0077959,0.00028721,0.0024249,0.00077163,0,0,0.055858,-0.022232,0,0.01605,0,0,0,0.0078744,0.00020873,0.0024249,5.8071,0.0035027,0.0068327,1.0761e-08,0.18,0.08,0
0.011324,0.0082582,0.0076365,0.00024005,0.002363,0.00065751,0,0,0.054845,-0.022078,0,0.013676,0,0,0,0.0076945,0.00018206,0.002363,5.0406,0.0034132,0.006694,1.0073e-08,0.2,0.08,0
0.012411,0.0086091,0.0074904,0.00021321,0.0023111,0.00055886,0,0,0.053865,-0.021818,0,0.011624,0,0,0,0.0075331,0.00017054,0.0023111,4.366,0.0033383,0.0065597,9.4636e-09,0.22,0.08,0
0.013478,0.0088794,0.007357,0.00020244,0.0022678,0.00046925,0,0,0.052927,-0.02148,0,0.0097603,0,0,0,0.0073876,0.00017179,0.0022678,3.7365,0.0032758,0.0064294,8.9196e-09,0.24,0.08,0
0.014528,0.0090705,0.0072351,0.00020433,0.0022318,0.00038327,0,0,0.052034,-0.021086,0,0.007972,0,0,0,0.0072559,0.0001835,0.0022318,3.1111,0.0032238,0.006303,8.4311e-09,0.26,0.08,0
0.01556,0.0091829,0.0071237,0.00021565,0.0022018,0.00029664,0,0,0.051188,-0.020656,0,0.0061702,0,0,0,0.0071365,0.00020294,0.0022018,2.4543,0.0031804,0.0061814,7.9922e-09,0.28,0.08,0
0.016575,0.0092172,0.0070222,0.00023281,0.0021765,0.00020629,0,0,0.050396,-0.020215,0,0.0042908,0,0,0,0.0070285,0.00022654,0.0021765,1.7387,0.0031439,0.0060668,7.6011e-09,0.3,0.08,0
0.017576,0.0091739,0.0069301,0.00025158,0.0021545,0.00011064,0,0,0.049667,-0.01979,0,0.0023013,0,0,0,0.006932,0.00024975,0.0021545,0.94882,0.0031121,0.0059626,7.2593e-09,0.32,0.08,0
0.018562,0.0090544,0.0068471,0.00026709,0.0021343,9.9185e-06,0,0,0.049014,-0.019419,0,0.0002063,0,0,0,0.0068471,0.00026707,0.0021343,0.086365,0.0030828,0.0058734,6.9712e-09,0.34,0.08,0
0.019536,0.0088616,0.0067727,0.00027409,0.002114,-9.3618e-05,0,0,0.04845,-0.019135,0,-0.0019472,0,0,0,0.0067741,0.00027274,0.002114,-0.82516,0.0030536,0.005804,6.7401e-09,0.36,0.08,0
0.0205,0.0086006,0.0067061,0.00026772,0.0020921,-0.00019579,0,0,0.047985,-0.018974,0,-0.0040725,0,0,0,0.006712,0.00026178,0.0020921,-1.7402,0.003022,0.0057576,6.5666e-09,0.38,0.08,0
0.021455,0.0082792,0.0066459,0.00024396,0.002067,-0.0002911,0,0,0.047621,-0.018959,0,-0.0060548,0,0,0,0.0066591,0.00023075,0.002067,-2.5981,0.0029856,0.0057351,6.4459e-09,0.4,0.08,0
0.022405,0.0079085,0.0065914,0.00020024,0.0020375,-0.00037321,0,0,0.047361,-0.019107,0,-0.0077628,0,0,0,0.0066131,0.00017852,0.0020375,-3.3307,0.0029431,0.0057357,6.3704e-09,0.42,0.08,0
0.02335,0.0075033,0.0065417,0.00013339,0.0020025,-0.0004354,0,0,0.047207,-0.019439,0,-0.0090563,0,0,0,0.0065711,0.00010395,0.0020025,-3.8692,0.0028925,0.0057576,6.3302e-09,0.44,0.08,0
0.024293,0.0070824,0.0064958,4.2119e-05,0.0019614,-0.00046875,0,0,0.047158,-0.01996,0,-0.00975,0,0,0,0.0065297,8.25e-06,0.0019614,-4.1326,0.0028331,0.0057971,6.3116e-09,0.46,0.08,0
0.025236,0.0066689,0.0064499,-6.9056e-05,0.0019142,-0.00046432,0,0,0.047171,-0.020626,0,-0.0096578,0,0,0,0.0064828,-0.00010196,0.0019142,-4.0537,0.002765,0.0058436,6.2876e-09,0.48,0.08,0
0.02618,0.0062895,0.0063998,-0.00017887,0.0018663,-0.00041672,0,0,0.047149,-0.02127,0,-0.0086678,0,0,0,0.0064261,-0.00020516,0.0018663,-3.6101,0.0026957,0.0058761,6.2235e-09,0.5,0.08,0
0.027122,0.0059704,0.0063444,-0.00025604,0.0018265,-0.00033528,0,0,0.046986,-0.021658,0,-0.0069739,0,0,0,0.0063613,-0.00027303,0.0018265,-2.9005,0.0026383,0.0058731,6.1008e-09,0.52,0.08,0
0.028059,0.0057328,0.0062875,-0.00028473,0.0018008,-0.0002403,0,0,0.046662,-0.02169,0,-0.0049982,0,0,0,0.0062963,-0.0002935,0.0018008,-2.0912,0.0026012,0.0058319,5.9359e-09,0.54,0.08,0
0.028989,0.005589,0.0062392,-0.00027863,0.0017882,-0.00015285,0,0,0.046291,-0.021495,0,-0.0031792,0,0,0,0.0062428,-0.00028221,0.0017882,-1.3426,0.0025829,0.0057752,5.7782e-09,0.56,0.08,0
0.029911,0.0055441,0.0062117,-0.00026764,0.0017832,-7.9039e-05,0,0,0.046056,-0.021329,0,-0.001644,0,0,0,0.0062127,-0.0002686,0.0017832,-0.69879,0.0025758,0.0057374,5.6846e-09,0.58,0.08,0
0.030831,0.0055998,0.0062147,-0.00027257,0.0017826,-1.0697e-05,0,0,0.046093,-0.021374,0,-0.0002225,0,0,0,0.0062147,-0.00027259,0.0017826,-0.094478,0.0025749,0.0057425,5.6934e-09,0.6,0.08,0
0.031755,0.0057573,0.0062478,-0.00029368,0.0017862,6.7228e-05,0,0,0.0464,-0.021631,0,0.0013983,0,0,0,0.0062485,-0.00029437,0.0017862,0.58876,0.0025801,0.0057901,5.8044e-09,0.62,0.08,0
0.032687,0.0060172,0.0063008,-0.00031044,0.0017971,0.0001632,0,0,0.046838,-0.021919,0,0.0033945,0,0,0,0.0063048,-0.00031446,0.0017971,1.4132,0.0025958,0.0058563,5.9778e-09,0.64,0.08,0
0.033628,0.0063768,0.0063604,-0.0002926,0.0018203,0.00027139,0,0,0.047217,-0.021975,0,0.0056448,0,0,0,0.0063715,-0.00030365,0.0018203,2.332,0.0026294,0.0059068,6.1569e-09,0.66,0.08,0
0.034576,0.0068263,0.0064158,-0.00022567,0.001857,0.00037073,0,0,0.047411,-0.02166,0,0.0077111,0,0,0,0.0064364,-0.0002463,0.001857,3.185,0.0026824,0.0059183,6.2917e-09,0.68,0.08,0
0.035525,0.0073467,0.006462,-0.00012472,0.0019012,0.00044049,0,0,0.047432,-0.021069,0,0.0091623,0,0,0,0.0064913,-0.00015404,0.0019012,3.8091,0.0027462,0.005893,6.3635e-09,0.7,0.08,0
0.036473,0.0079136,0.0064992,-2.0726e-05,0.0019436,0.0004707,0,0,0.047379,-0.020429,0,0.0097906,0,0,0,0.0065331,-5.4533e-05,0.0019436,4.108,0.0028074,0.0058503,6.3861e-09,0.72,0.08,0
0.03742,0.0085023,0.0065309,6.5006e-05,0.0019788,0.00046603,0,0,0.047342,-0.019903,0,0.0096934,0,0,0,0.0065643,3.159e-05,0.0019788,4.1013,0.0028582,0.0058093,6.3879e-09,0.74,0.08,0
0.038366,0.0090908,0.0065603,0.0001277,0.0020064,0.00043479,0,0,0.047361,-0.019539,0,0.0090436,0,0,0,0.0065896,9.8447e-05,0.0020064,3.8493,0.0028981,0.0057784,6.39e-09,0.76,0.08,0
0.039314,0.0096615,0.0065879,0.00016815,0.0020268,0.00038544,0,0,0.047436,-0.01933,0,0.0080172,0,0,0,0.006611,0.00014509,0.0020268,3.4236,0.0029276,0.0057604,6.4015e-09,0.78,0.08,0
0.040264,0.010201,0.0066143,0.00018878,0.0020409,0.00032454,0,0,0.047563,-0.019262,0,0.0067504,0,0,0,0.0066307,0.00017243,0.0020409,2.8841,0.002948,0.0057561,6.4287e-09,0.8,0.08,0
0.041217,0.010698,0.0066398,0.00019124,0.0020493,0.0002586,0,0,0.047741,-0.019324,0,0.0053788,0,0,0,0.0066501,0.00018089,0.0020493,2.2927,0.0029601,0.0057667,6.4765e-09,0.82,0.08,0
0.042174,0.011145,0.0066651,0.00017869,0.0020532,0.00019372,0,0,0.047965,-0.019494,0,0.0040293,0,0,0,0.0066709,0.00017291,0.0020532,1.7091,0.0029657,0.0057915,6.5471e-09,0.84,0.08,0
0.043135,0.011539,0.0066904,0.0001552,0.0020537,0.00013503,0,0,0.048222,-0.019744,0,0.0028086,0,0,0,0.0066932,0.00015242,0.0020537,1.1832,0.0029664,0.0058276,6.6371e-09,0.86,0.08,0
0.044103,0.011878,0.0067152,0.0001254,0.0020522,8.6042e-05,0,0,0.048495,-0.020039,0,0.0017897,0,0,0,0.0067163,0.00012428,0.0020522,0.74794,0.0029643,0.0058705,6.7387e-09,0.88,0.08,0
0.045075,0.012162,0.0067384,9.3603e-05,0.0020496,4.847e-05,0,0,0.048764,-0.020342,0,0.0010082,0,0,0,0.0067388,9.3249e-05,0.0020496,0.41791,0.0029606,0.0059152,6.8425e-09,0.9,0.08,0
0.046053,0.012391,0.0067591,6.3427e-05,0.0020467,2.2434e-05,0,0,0.049008,-0.020627,0,0.00046662,0,0,0,0.0067592,6.3352e-05,0.0020467,0.19197,0.0029564,0.0059571,6.939e-09,0.92,0.08,0
0.047036,0.012566,0.0067761,3.7594e-05,0.0020441,6.812e-06,0,0,0.049213,-0.020868,0,0.00014169,0,0,0,0.0067761,3.7587e-05,0.0020441,0.05792,0.0029526,0.0059928,7.0209e-09,0.94,0.08,0
0.048022,0.01269,0.0067888,1.7989e-05,0.0020421,-3.8345e-07,0,0,0.049367,-0.02105,0,-7.9757e-06,0,0,0,0.0067888,1.7989e-05,0.0020421,-0.0032448,0.0029496,0.0060197,7.0827e-09,0.96,0.08,0
0.04901,0.012764,0.0067967,5.7994e-06,0.0020407,-1.6983e-06,0,0,0.049462,-0.021163,0,-3.5324e-05,0,0,0,0.0067967,5.7989e-06,0.0020407,-0.014329,0.0029477,0.0060364,7.121e-09,0.98,0.08,0
0.05,0.012789,0.0067993,1.6688e-06,0.0020403,5.8966e-05,0,0,0.049494,-0.021202,0,0.0012265,0,0,0,0.0067998,1.1574e-06,0.0020403,0.49696,0.0029471,0.0060429,7.1361e-09,1,0.08,0
0,0,0.0083221,0.0035666,0.0035666,0.0023928,0,0,0.049457,-4.3368e-19,0,0.049769,0,0,0,0.0093176,0.0025711,0.0035666,22.59,0.0051518,0.006308,1.1816e-08,0,0.1,0
0.00098914,0.00099539,0.0082796,0.0030389,0.0033956,0.002363,0,0,0.050794,-0.0037095,0,0.04915,0,0,0,0.0091877,0.0021308,0.0033956,21.022,0.0049047,0.0065173,1.2432e-08,0.02,0.1,0
0.0020318,0.0020048,0.0084057,0.0024797,0.0032656,0.0022902,0,0,0.053457,-0.0081738,0,0.047636,0,0,0,0.0091876,0.0016978,0.0032656,18.851,0.004717,0.006842,1.3583e-08,0.04,0.1,0
0.0031274,0.0029944,0.0084958,0.0019305,0.0031279,0.0021251,0,0,0.055826,-0.012453,0,0.044203,0,0,0,0.0091236,0.0013027,0.0031279,16.459,0.0045181,0.0070869,1.4274e-08,0.06,0.1,0
0.0042648,0.0039317,0.0085285,0.0014675,0.0029988,0.0019014,0,0,0.057509,-0.015926,0,0.039549,0,0,0,0.009008,0.00098803,0.0029988,14.153,0.0043316,0.0072275,1.4449e-08,0.08,0.1,0
0.0054278,0.0047945,0.0084994,0.0011091,0.0028826,0.0016611,0,0,0.058416,-0.018444,0,0.03455,0,0,0,0.0088556,0.00075289,0.0028826,12.102,0.0041637,0.0072756,1.4216e-08,0.1,0.1,0
0.0066015,0.005572,0.0084208,0.0008428,0.0027791,0.0014344,0,0,0.058674,-0.020137,0,0.029836,0,0,0,0.0086832,0.00058036,0.0027791,10.368,0.0040142,0.0072578,1.3731e-08,0.12,0.1,0
0.0077748,0.0062611,0.0083104,0.00064807,0.0026875,0.0012349,0,0,0.058478,-0.021211,0,0.025685,0,0,0,0.0085045,0.00045398,0.0026875,8.9326,0.003882,0.0071985,1.3124e-08,0.14,0.1,0
0.0089406,0.0068628,0.0081842,0.00050809,0.0026077,0.0010648,0,0,0.057996,-0.021836,0,0.022147,0,0,0,0.0083292,0.00036313,0.0026077,7.7526,0.0037667,0.0071145,1.2479e-08,0.16,0.1,0
0.010095,0.0073797,0.0080526,0.00041017,0.0025388,0.00092099,0,0,0.057343,-0.022138,0,0.019157,0,0,0,0.008162,0.00030074,0.0025388,6.7755,0.0036672,0.0070153,1.1839e-08,0.18,0.1,0
0.011234,0.0078144,0.0079214,0.00034523,0.00248,0.0007983,0,0,0.056591,-0.022201,0,0.016605,0,0,0,0.0080046,0.00026202,0.00248,5.9502,0.0035822,0.0069061,1.1221e-08,0.2,0.1,0
0.012358,0.0081692,0.0077933,0.00030674,0.00243,0.00069091,0,0,0.055778,-0.022082,0,0.014371,0,0,0,0.0078565,0.00024351,0.00243,5.2288,0.00351,0.0067891,1.0632e-08,0.22,0.1,0
0.013465,0.0084457,0.007669,0.00028976,0.0023876,0.00059321,0,0,0.054926,-0.021818,0,0.012339,0,0,0,0.0077164,0.00024238,0.0023876,4.5669,0.0034488,0.0066655,1.0068e-08,0.24,0.1,0
0.014555,0.0086446,0.0075483,0.00029015,0.0023515,0.00050009,0,0,0.054047,-0.021438,0,0.010402,0,0,0,0.0075826,0.00025586,0.0023515,3.923,0.0033967,0.006536,9.5273e-09,0.26,0.1,0
0.015627,0.0087661,0.0074308,0.00030378,0.0023204,0.00040715,0,0,0.053148,-0.020973,0,0.0084688,0,0,0,0.007454,0.0002806,0.0023204,3.2591,0.0033516,0.006402,9.0085e-09,0.28,0.1,0
0.016681,0.0088101,0.0073158,0.0003259,0.0022925,0.00031098,0,0,0.052242,-0.020453,0,0.0064685,0,0,0,0.0073297,0.00031209,0.0022925,2.5424,0.0033114,0.0062666,8.5143e-09,0.3,0.1,0
0.017717,0.0087764,0.0072032,0.00035067,0.0022662,0.00020963,0,0,0.051345,-0.019921,0,0.0043603,0,0,0,0.0072096,0.00034426,0.0022662,1.7506,0.0032733,0.0061345,8.0517e-09,0.32,0.1,0
0.018735,0.0086657,0.0070928,0.00037098,0.0022391,0.00010318,0,0,0.050478,-0.019429,0,0.0021461,0,0,0,0.0070944,0.00036939,0.0022391,0.87921,0.0032343,0.0060123,7.6308e-09,0.34,0.1,0
0.019736,0.0084799,0.0069843,0.00037904,0.002209,-5.7347e-06,0,0,0.049663,-0.019032,0,-0.00011928,0,0,0,0.0069843,0.00037904,0.002209,-0.049744,0.0031908,0.0059068,7.2609e-09,0.36,0.1,0
0.020722,0.0082232,0.0068762,0.0003675,0.0021731,-0.00011199,0,0,0.048912,-0.018778,0,-0.0023293,0,0,0,0.0068782,0.00036558,0.0021731,-0.98543,0.003139,0.0058232,6.9446e-09,0.38,0.1,0
0.021693,0.007903,0.0067665,0.00033159,0.0021294,-0.00020871,0,0,0.048225,-0.018697,0,-0.0043412,0,0,0,0.0067732,0.00032482,0.0021294,-1.8558,0.0030758,0.0057621,6.6746e-09,0.4,0.1,0
0.022651,0.0075301,0.0066515,0.00026862,0.002076,-0.00028965,0,0,0.047585,-0.018797,0,-0.0060247,0,0,0,0.0066646,0.0002555,0.002076,-2.5929,0.0029987,0.0057204,6.4335e-09,0.42,0.1,0
0.023596,0.0071187,0.006533,0.00018056,0.0020141,-0.00034919,0,0,0.046997,-0.019068,0,-0.0072631,0,0,0,0.0065521,0.00016142,0.0020141,-3.1369,0.0029092,0.0056951,6.2127e-09,0.44,0.1,0
0.02453,0.0066874,0.0064097,5.8897e-05,0.0019406,-0.00038292,0,0,0.046479,-0.01957,0,-0.0079647,0,0,0,0.0064327,3.5893e-05,0.0019406,-3.438,0.0028031,0.0056889,6.0064e-09,0.46,0.1,0
0.025455,0.0062598,0.0062819,-9.6145e-05,0.0018557,-0.00037598,0,0,0.046032,-0.0203,0,-0.0078204,0,0,0,0.006304,-0.00011823,0.0018557,-3.362,0.0026805,0.0056977,5.7994e-09,0.48,0.1,0
0.026372,0.0058666,0.0061429,-0.00025931,0.0017651,-0.00032081,0,0,0.045529,-0.021053,0,-0.0066729,0,0,0,0.0061589,-0.00027534,0.0017651,-2.8615,0.0025495,0.0056951,5.5459e-09,0.5,0.1,0
0.027276,0.0055404,0.0059973,-0.00036225,0.0016905,-0.00022479,0,0,0.044791,-0.021349,0,-0.0046757,0,0,0,0.0060053,-0.00037019,0.0016905,-2.0219,0.0024419,0.0056352,5.2202e-09,0.52,0.1,0
0.028163,0.0053047,0.0058584,-0.00036934,0.0016467,-0.00013125,0,0,0.043801,-0.020967,0,-0.0027301,0,0,0,0.0058611,-0.00037211,0.0016467,-1.2068,0.0023786,0.0055086,4.861e-09,0.54,0.1,0
0.029028,0.0051682,0.0057412,-0.0003248,0.0016249,-7.1282e-05,0,0,0.042809,-0.020277,0,-0.0014827,0,0,0,0.005742,-0.00032563,0.0016249,-0.67317,0.0023471,0.0053652,4.5435e-09,0.56,0.1,0
0.029876,0.005129,0.0056736,-0.00028685,0.001616,-5.0184e-05,0,0,0.042199,-0.01979,0,-0.0010438,0,0,0,0.005674,-0.00028727,0.001616,-0.48235,0.0023343,0.0052739,4.3601e-09,0.58,0.1,0
0.030716,0.0051837,0.0056739,-0.00029371,0.0016141,-4.2984e-05,0,0,0.042223,-0.019841,0,-0.00089407,0,0,0,0.0056743,-0.00029402,0.0016141,-0.41267,0.0023314,0.0052795,4.3653e-09,0.6,0.1,0
0.031565,0.0053336,0.005742,-0.00034598,0.0016188,-1.752e-05,0,0,0.042881,-0.020434,0,-0.00036441,0,0,0,0.0057421,-0.00034604,0.0016188,-0.16488,0.0023383,0.0053818,4.558e-09,0.62,0.1,0
0.032432,0.0055842,0.0058592,-0.0004062,0.0016359,5.1832e-05,0,0,0.043922,-0.021238,0,0.0010781,0,0,0,0.0058596,-0.00040663,0.0016359,0.47395,0.002363,0.0055353,4.8821e-09,0.64,0.1,0
0.033321,0.00594,0.0059968,-0.00041561,0.0016744,0.00016054,0,0,0.044954,-0.021736,0,0.0033392,0,0,0,0.0060009,-0.00041962,0.0016744,1.4332,0.0024185,0.0056712,5.246e-09,0.66,0.1,0
0.03423,0.0063949,0.0061387,-0.00032827,0.0017431,0.00027773,0,0,0.045714,-0.021542,0,0.0057768,0,0,0,0.0061506,-0.00034018,0.0017431,2.4546,0.0025178,0.00574,5.5771e-09,0.68,0.1,0
0.03515,0.0069278,0.0062706,-0.00017831,0.0018277,0.00035941,0,0,0.046206,-0.020862,0,0.0074757,0,0,0,0.0062906,-0.00019828,0.0018277,3.1801,0.00264,0.0057501,5.8357e-09,0.7,0.1,0
0.036078,0.0075082,0.0063869,-3.3944e-05,0.0019059,0.00039719,0,0,0.046602,-0.020174,0,0.0082615,0,0,0,0.0064113,-5.8421e-05,0.0019059,3.5264,0.0027529,0.0057452,6.0406e-09,0.72,0.1,0
0.037014,0.0081073,0.0064934,7.9389e-05,0.0019718,0.00039778,0,0,0.047025,-0.019682,0,0.0082738,0,0,0,0.006518,5.4814e-05,0.0019718,3.5353,0.0028482,0.0057496,6.2291e-09,0.74,0.1,0
0.037959,0.0087026,0.0065897,0.0001612,0.0020253,0.00037527,0,0,0.04747,-0.019387,0,0.0078055,0,0,0,0.0066116,0.00013937,0.0020253,3.3296,0.0029254,0.0057654,6.4095e-09,0.76,0.1,0
0.038913,0.0092767,0.0066768,0.00021928,0.0020688,0.00033346,0,0,0.047923,-0.019235,0,0.006936,0,0,0,0.0066939,0.0002021,0.0020688,2.9483,0.0029883,0.0057888,6.5822e-09,0.78,0.1,0
0.039876,0.0098161,0.0067526,0.00025048,0.0021009,0.00027769,0,0,0.048377,-0.019245,0,0.005776,0,0,0,0.0067644,0.00023865,0.0021009,2.4411,0.0030347,0.0058224,6.7516e-09,0.8,0.1,0
0.040848,0.010311,0.0068205,0.00025606,0.002123,0.00021449,0,0,0.048854,-0.019416,0,0.0044613,0,0,0,0.0068275,0.00024906,0.002123,1.8694,0.0030665,0.0058703,6.9324e-09,0.82,0.1,0
0.04183,0.010753,0.0068825,0.00023944,0.0021366,0.0001515,0,0,0.049357,-0.01973,0,0.0031513,0,0,0,0.0068859,0.00023598,0.0021366,1.3058,0.0030862,0.0059326,7.1306e-09,0.84,0.1,0
0.042822,0.011141,0.0069394,0.00020685,0.0021439,9.5104e-05,0,0,0.049873,-0.020145,0,0.0019782,0,0,0,0.0069407,0.00020551,0.0021439,0.80915,0.0030967,0.0060054,7.3424e-09,0.86,0.1,0
0.043825,0.011472,0.0069908,0.00016523,0.0021468,4.9476e-05,0,0,0.050377,-0.020608,0,0.0010291,0,0,0,0.0069911,0.00016487,0.0021468,0.41529,0.0031009,0.0060825,7.5562e-09,0.88,0.1,0
0.044837,0.011748,0.0070357,0.00012097,0.002147,1.6438e-05,0,0,0.050843,-0.021071,0,0.00034192,0,0,0,0.0070358,0.00012093,0.002147,0.13621,0.0031012,0.0061571,7.7583e-09,0.9,0.1,0
0.045859,0.01197,0.0070734,7.9193e-05,0.0021458,-4.0918e-06,0,0,0.051247,-0.021492,0,-8.511e-05,0,0,0,0.0070734,7.919e-05,0.0021458,-0.03352,0.0030995,0.0062238,7.9364e-09,0.92,0.1,0
0.046887,0.012139,0.007103,4.3606e-05,0.002144,-1.353e-05,0,0,0.051574,-0.021844,0,-0.00028143,0,0,0,0.0071031,4.358e-05,0.002144,-0.10981,0.0030969,0.0062786,8.0817e-09,0.94,0.1,0
0.047922,0.012259,0.0071244,1.6701e-05,0.0021423,-1.4126e-05,0,0,0.051813,-0.022107,0,-0.00029383,0,0,0,0.0071244,1.6673e-05,0.0021423,-0.11388,0.0030945,0.006319,8.1884e-09,0.96,0.1,0
0.04896,0.01233,0.0071372,1.5287e-08,0.0021412,-8.6175e-06,0,0,0.051959,-0.022268,0,-0.00017924,0,0,0,0.0071372,4.8822e-09,0.0021412,-0.069179,0.0030928,0.0063437,8.2534e-09,0.98,0.1,0
0.05,0.012354,0.0071415,-5.632e-06,0.0021407,5.6734e-05,0,0,0.052008,-0.022322,0,0.0011801,0,0,0,0.0071419,-6.0824e-06,0.0021407,0.45478,0.0030922,0.0063527,8.2773e-09,1,0.1,0
0,0,0.0082187,0.0035223,0.0035223,0.0022284,0,0,0.048843,-1.301e-18,0,0.046351,0,0,0,0.0091078,0.0026333,0.0035223,21.75,0.0050878,0.0060789,1.071e-08,0,0.12,0
0.00097685,0.00092701,0.0081829,0.0030586,0.0033725,0.0022107,0,0,0.050028,-0.0032636,0,0.045983,0,0,0,0.0090048,0.0022367,0.0033725,20.395,0.0048713,0.0062778,1.1318e-08,0.02,0.12,0
0.0020011,0.0018554,0.0083121,0.002593,0.0032715,0.0021589,0,0,0.052422,-0.0070571,0,0.044904,0,0,0,0.0090356,0.0018695,0.0032715,18.526,0.0047256,0.006578,1.241e-08,0.04,0.12,0
0.0030738,0.0027649,0.0084194,0.0021182,0.0031613,0.0020463,0,0,0.054685,-0.010849,0,0.042562,0,0,0,0.0090256,0.001512,0.0031613,16.501,0.0045663,0.0068398,1.3269e-08,0.06,0.12,0
0.0041885,0.0036334,0.0084885,0.0016876,0.0030528,0.0018851,0,0,0.056531,-0.014198,0,0.03921,0,0,0,0.0089761,0.0012,0.0030528,14.501,0.0044096,0.0070351,1.3788e-08,0.08,0.12,0
0.005335,0.004443,0.008512,0.0013275,0.0029519,0.0016992,0,0,0.057826,-0.016893,0,0.035344,0,0,0,0.0088936,0.00094588,0.0029519,12.658,0.0042638,0.0071588,1.3973e-08,0.1,0.12,0
0.0065016,0.0051823,0.0084927,0.0010413,0.0028602,0.0015107,0,0,0.058578,-0.018916,0,0.031423,0,0,0,0.0087873,0.00074666,0.0028602,11.036,0.0041314,0.0072198,1.389e-08,0.12,0.12,0
0.0076781,0.0058456,0.0084395,0.00082118,0.0027782,0.001334,0,0,0.058878,-0.020353,0,0.027747,0,0,0,0.0086664,0.00059435,0.0027782,9.6502,0.004013,0.0072318,1.362e-08,0.14,0.12,0
0.0088567,0.0064311,0.008363,0.00065638,0.0027058,0.0011756,0,0,0.058834,-0.021314,0,0.024453,0,0,0,0.0085383,0.00048103,0.0027058,8.4834,0.0039084,0.0072072,1.3231e-08,0.16,0.12,0
0.010032,0.0069389,0.0082716,0.00053712,0.0026426,0.0010367,0,0,0.058542,-0.021897,0,0.021564,0,0,0,0.0084082,0.00040058,0.0026426,7.5034,0.0038171,0.0071551,1.2774e-08,0.18,0.12,0
0.011198,0.0073701,0.0081714,0.00045545,0.0025881,0.00091522,0,0,0.058067,-0.022179,0,0.019037,0,0,0,0.0082785,0.00034838,0.0025881,6.6727,0.0037383,0.0070811,1.2275e-08,0.2,0.12,0
0.012354,0.0077258,0.0080657,0.00040514,0.0025413,0.00080752,0,0,0.057454,-0.022215,0,0.016796,0,0,0,0.0081499,0.00032094,0.0025413,5.9526,0.0036707,0.0069885,1.175e-08,0.22,0.12,0
0.013496,0.0080067,0.0079559,0.00038118,0.0025011,0.00070939,0,0,0.05673,-0.022048,0,0.014755,0,0,0,0.0080218,0.00031532,0.0025011,5.3044,0.0036128,0.0068792,1.1206e-08,0.24,0.12,0
0.014623,0.0082129,0.0078424,0.00037912,0.0024665,0.00061638,0,0,0.05591,-0.021708,0,0.012821,0,0,0,0.007893,0.00032856,0.0024665,4.6896,0.0035627,0.0067542,1.0645e-08,0.26,0.12,0
0.015733,0.008344,0.0077248,0.00039432,0.0024357,0.00052427,0,0,0.055007,-0.021231,0,0.010905,0,0,0,0.0077621,0.00035701,0.0024357,4.0701,0.0035183,0.0066154,1.007e-08,0.28,0.12,0
0.016824,0.0083991,0.0076028,0.00042116,0.0024072,0.00042938,0,0,0.054034,-0.020655,0,0.0089311,0,0,0,0.0076284,0.00039558,0.0024072,3.4094,0.0034771,0.0064661,9.4893e-09,0.3,0.12,0
0.017894,0.008377,0.0074764,0.00045227,0.0023786,0.0003292,0,0,0.053017,-0.020034,0,0.0068473,0,0,0,0.0074918,0.00043687,0.0023786,2.6774,0.0034358,0.0063121,8.9157e-09,0.32,0.12,0
0.018944,0.0082773,0.007346,0.00047804,0.0023472,0.0002234,0,0,0.051987,-0.019439,0,0.0046466,0,0,0,0.0073533,0.00047078,0.0023472,1.8611,0.0033904,0.0061624,8.3689e-09,0.34,0.12,0
0.019974,0.0081004,0.0072118,0.00048697,0.0023096,0.0001149,0,0,0.050983,-0.018956,0,0.00239,0,0,0,0.0072138,0.00048501,0.0023096,0.9786,0.0033361,0.0060273,7.8687e-09,0.36,0.12,0
0.020984,0.0078495,0.0070726,0.00046824,0.0022622,1.0717e-05,0,0,0.050028,-0.018658,0,0.00022291,0,0,0,0.0070726,0.00046822,0.0022622,0.092973,0.0032677,0.0059151,7.4257e-09,0.38,0.12,0
0.021975,0.0075313,0.0069231,0.00041389,0.0022011,-7.9654e-05,0,0,0.049109,-0.018587,0,-0.0016568,0,0,0,0.0069241,0.00041291,0.0022011,-0.70099,0.0031794,0.0058267,7.0269e-09,0.4,0.12,0
0.022948,0.0071566,0.0067575,0.00032562,0.0021249,-0.00014607,0,0,0.048179,-0.018713,0,-0.0030383,0,0,0,0.0067608,0.0003223,0.0021249,-1.3003,0.0030694,0.0057531,6.6403e-09,0.42,0.12,0
0.023902,0.0067406,0.0065619,0.00020387,0.0020297,-0.00018666,0,0,0.047135,-0.018989,0,-0.0038826,0,0,0,0.0065674,0.00019839,0.0020297,-1.6802,0.0029319,0.0056793,6.2158e-09,0.44,0.12,0
0.024833,0.0062996,0.0063563,7.0951e-05,0.0019282,-0.0001996,0,0,0.046052,-0.019315,0,-0.0041518,0,0,0,0.0063626,6.4618e-05,0.0019282,-1.8171,0.0027851,0.0056036,5.783e-09,0.46,0.12,0
0.025744,0.0058569,0.0061232,-0.00012769,0.0017986,-0.00019088,0,0,0.044975,-0.020034,0,-0.0039703,0,0,0,0.006129,-0.00013352,0.0017986,-1.7474,0.002598,0.0055545,5.3459e-09,0.48,0.12,0
0.026632,0.0054473,0.0058627,-0.00036606,0.001649,-0.00011283,0,0,0.043823,-0.020957,0,-0.0023468,0,0,0,0.0058648,-0.00036811,0.001649,-1.0374,0.0023819,0.0055086,4.8671e-09,0.5,0.12,0
0.027497,0.0051164,0.0055943,-0.00048711,0.0015321,-2.0099e-06,0,0,0.042246,-0.021,0,-4.1806e-05,0,0,0,0.0055943,-0.00048711,0.0015321,-0.018936,0.0022131,0.0053647,4.3106e-09,0.52,0.12,0
0.028322,0.0048941,0.0053394,-0.00042553,0.0014742,8.6259e-05,0,0,0.040199,-0.019757,0,0.0017942,0,0,0,0.0053407,-0.00042683,0.0014742,0.85704,0.0021294,0.0050906,3.7291e-09,0.54,0.12,0
0.029105,0.0047779,0.0051347,-0.00029022,0.0014533,7.8571e-05,0,0,0.038286,-0.018133,0,0.0016343,0,0,0,0.0051358,-0.00029135,0.0014533,0.8296,0.0020993,0.0047989,3.2512e-09,0.56,0.12,0
0.029854,0.0047525,0.0050063,-0.00022137,0.0014355,3.1473e-06,0,0,0.037136,-0.017231,0,6.5463e-05,0,0,0,0.0050063,-0.00022137,0.0014355,0.034495,0.0020735,0.0046273,2.9772e-09,0.58,0.12,0
0.03059,0.0048062,0.0050043,-0.00023004,0.0014323,-9.4613e-05,0,0,0.037149,-0.017288,0,-0.001968,0,0,0,0.005006,-0.00023175,0.0014323,-1.0352,0.0020689,0.0046355,2.9825e-09,0.6,0.12,0
0.03134,0.0049399,0.0051292,-0.00031733,0.0014436,-0.00016598,0,0,0.038331,-0.018313,0,-0.0034525,0,0,0,0.0051342,-0.00032239,0.0014436,-1.7439,0.0020851,0.0048226,3.2655e-09,0.62,0.12,0
0.032124,0.0051677,0.0053305,-0.00047411,0.0014569,-0.00016436,0,0,0.040286,-0.020083,0,-0.0034187,0,0,0,0.0053352,-0.00047876,0.0014569,-1.6206,0.0021045,0.0051278,3.747e-09,0.64,0.12,0
0.032951,0.0055074,0.0055812,-0.0005597,0.0015064,-5.9657e-05,0,0,0.042377,-0.021488,0,-0.0012409,0,0,0,0.0055817,-0.00056028,0.0015064,-0.55654,0.002176,0.0054131,4.3261e-09,0.66,0.12,0
0.033819,0.0059645,0.0058436,-0.00046134,0.0016147,7.5385e-05,0,0,0.043981,-0.021591,0,0.001568,0,0,0,0.0058445,-0.00046224,0.0016147,0.68492,0.0023323,0.0055669,4.8839e-09,0.68,0.12,0
0.03471,0.0065122,0.0060952,-0.00024097,0.0017563,0.00018411,0,0,0.045125,-0.020771,0,0.0038295,0,0,0,0.0061005,-0.00024631,0.0017563,1.663,0.0025368,0.0056199,5.368e-09,0.7,0.12,0
0.035624,0.0071067,0.0063152,-5.6942e-05,0.0018775,0.00022834,0,0,0.046152,-0.020118,0,0.0047494,0,0,0,0.0063233,-6.5113e-05,0.0018775,2.0496,0.0027119,0.0056724,5.8024e-09,0.72,0.12,0
0.036556,0.007715,0.0065029,6.4236e-05,0.0019701,0.0002548,0,0,0.04714,-0.019821,0,0.0052998,0,0,0,0.0065129,5.4169e-05,0.0019701,2.2627,0.0028457,0.0057456,6.2152e-09,0.74,0.12,0
0.037509,0.0083153,0.0066756,0.00017735,0.0020559,0.00025675,0,0,0.048045,-0.019537,0,0.0053404,0,0,0,0.0066858,0.00016722,0.0020559,2.2591,0.0029696,0.0058092,6.5978e-09,0.76,0.12,0
0.038478,0.0088921,0.0068135,0.00025919,0.0021218,0.00023495,0,0,0.048794,-0.019371,0,0.004887,0,0,0,0.006822,0.00025078,0.0021218,2.0503,0.0030649,0.005864,6.9131e-09,0.78,0.12,0
0.039461,0.0094308,0.0069304,0.0003073,0.0021713,0.0001909,0,0,0.049494,-0.019386,0,0.0039707,0,0,0,0.0069359,0.0003018,0.0021713,1.6497,0.0031363,0.0059248,7.2062e-09,0.8,0.12,0
0.040458,0.0099209,0.0070323,0.00031787,0.002205,0.00013504,0,0,0.050203,-0.019627,0,0.0028089,0,0,0,0.007035,0.00031516,0.002205,1.1518,0.0031851,0.0060023,7.5078e-09,0.82,0.12,0
0.041469,0.010356,0.0071245,0.00029692,0.0022264,7.7965e-05,0,0,0.05094,-0.020067,0,0.0016217,0,0,0,0.0071254,0.00029602,0.0022264,0.65415,0.003216,0.0060978,7.832e-09,0.84,0.12,0
0.042495,0.010734,0.0072081,0.00025375,0.0022386,2.8238e-05,0,0,0.051683,-0.020642,0,0.00058735,0,0,0,0.0072082,0.00025364,0.0022386,0.23264,0.0032335,0.0062049,8.1703e-09,0.86,0.12,0
0.043537,0.011054,0.0072823,0.00019887,0.0022443,-9.3514e-06,0,0,0.052394,-0.021273,0,-0.00019451,0,0,0,0.0072823,0.00019885,0.0022443,-0.075641,0.0032418,0.0063143,8.5034e-09,0.88,0.12,0
0.044591,0.011319,0.0073459,0.00014111,0.0022461,-3.3191e-05,0,0,0.053038,-0.021892,0,-0.00069038,0,0,0,0.007346,0.00014095,0.0022461,-0.26395,0.0032444,0.0064169,8.8106e-09,0.9,0.12,0
0.045658,0.011531,0.007398,8.7136e-05,0.0022455,-4.3874e-05,0,0,0.053586,-0.022447,0,-0.00091258,0,0,0,0.0073983,8.6873e-05,0.0022455,-0.34383,0.0032436,0.0065064,9.0756e-09,0.92,0.12,0
0.046735,0.011692,0.0074384,4.1531e-05,0.002244,-4.325e-05,0,0,0.054022,-0.022905,0,-0.0008996,0,0,0,0.0074386,4.1278e-05,0.002244,-0.335,0.0032413,0.0065786,9.2879e-09,0.94,0.12,0
0.047819,0.011806,0.0074669,7.2457e-06,0.0022422,-3.3825e-05,0,0,0.054337,-0.023244,0,-0.00070357,0,0,0,0.0074671,7.0923e-06,0.0022422,-0.2598,0.0032388,0.0066312,9.4418e-09,0.96,0.12,0
0.048908,0.011874,0.0074839,-1.3942e-05,0.002241,-1.8421e-05,0,0,0.054526,-0.023451,0,-0.00038315,0,0,0,0.0074839,-1.3987e-05,0.002241,-0.14077,0.003237,0.0066631,9.5347e-09,0.98,0.12,0
0.05,0.011896,0.0074895,-2.1101e-05,0.0022405,5.373e-05,0,0,0.05459,-0.023521,0,0.0011176,0,0,0,0.0074899,-2.1485e-05,0.0022405,0.40986,0.0032363,0.0066743,9.5677e-09,1,0.12,0
0,0,0.0081866,0.0035086,0.0035086,0.0020789,0,0,0.048652,-4.3368e-19,0,0.043242,0,0,0,0.008977,0.0027182,0.0035086,20.816,0.0050679,0.0059034,9.931e-09,0,0.14,0
0.00097304,0.00086484,0.0081531,0.0030783,0.0033694,0.0020675,0,0,0.049751,-0.003028,0,0.043004,0,0,0,0.0088888,0.0023426,0.0033694,19.586,0.004867,0.006098,1.0542e-08,0.02,0.14,0
0.00199,0.0017225,0.0082829,0.0026689,0.0032855,0.0020259,0,0,0.051972,-0.0064132,0,0.042139,0,0,0,0.0089376,0.0020142,0.0032855,17.91,0.0047457,0.0063834,1.1593e-08,0.04,0.14,0
0.0030519,0.0025604,0.0083986,0.002248,0.003194,0.0019445,0,0,0.054128,-0.0098384,0,0.040447,0,0,0,0.0089618,0.0016848,0.003194,16.153,0.0046135,0.0066521,1.2535e-08,0.06,0.14,0
0.0041552,0.0033637,0.0084883,0.0018515,0.003102,0.0018266,0,0,0.056018,-0.013004,0,0.037994,0,0,0,0.0089578,0.001382,0.003102,14.415,0.0044806,0.006879,1.3261e-08,0.08,0.14,0
0.0052927,0.0041188,0.0085445,0.0015029,0.0030142,0.0016845,0,0,0.057515,-0.015718,0,0.035038,0,0,0,0.0089268,0.0011207,0.0030142,12.784,0.0043539,0.0070526,1.3733e-08,0.1,0.14,0
0.0064558,0.0048153,0.008566,0.0012116,0.0029333,0.0015329,0,0,0.058581,-0.017906,0,0.031883,0,0,0,0.0088727,0.00090491,0.0029333,11.315,0.004237,0.0071721,1.3963e-08,0.12,0.14,0
0.0076359,0.0054469,0.0085564,0.00097739,0.0028601,0.0013836,0,0,0.059241,-0.019581,0,0.028778,0,0,0,0.0088011,0.00073271,0.0028601,10.029,0.0041313,0.0072429,1.3988e-08,0.14,0.14,0
0.0088254,0.0060102,0.0085215,0.00079535,0.002795,0.0012441,0,0,0.059555,-0.020797,0,0.025878,0,0,0,0.0087169,0.00059996,0.002795,8.9256,0.0040373,0.0072723,1.3855e-08,0.16,0.14,0
0.010018,0.0065038,0.0084673,0.00065921,0.002738,0.0011178,0,0,0.059585,-0.021619,0,0.02325,0,0,0,0.0086242,0.00050234,0.002738,7.9887,0.0039548,0.0072667,1.3602e-08,0.18,0.14,0
0.011209,0.0069272,0.0083986,0.00056298,0.0026885,0.001005,0,0,0.059385,-0.022105,0,0.020903,0,0,0,0.0085254,0.00043613,0.0026885,7.1935,0.0038833,0.0072312,1.3258e-08,0.2,0.14,0
0.012394,0.0072806,0.0083183,0.00050144,0.0026459,0.00090399,0,0,0.058993,-0.022303,0,0.018803,0,0,0,0.0084215,0.00039826,0.0026459,6.5115,0.0038219,0.0071687,1.284e-08,0.22,0.14,0
0.013569,0.0075638,0.0082279,0.00047009,0.0026094,0.00081207,0,0,0.058432,-0.022249,0,0.016891,0,0,0,0.008312,0.00038599,0.0026094,5.9122,0.0037691,0.0070811,1.2359e-08,0.24,0.14,0
0.014731,0.0077762,0.0081277,0.00046465,0.0025777,0.00072572,0,0,0.05772,-0.021976,0,0.015095,0,0,0,0.0081958,0.00039653,0.0025777,5.3626,0.0037233,0.0069695,1.1819e-08,0.26,0.14,0
0.015877,0.0079169,0.0080171,0.00048049,0.0025493,0.00064107,0,0,0.056865,-0.021515,0,0.013334,0,0,0,0.0080712,0.00042635,0.0025493,4.8274,0.0036823,0.0068353,1.1226e-08,0.28,0.14,0
0.017005,0.0079839,0.0078956,0.00051165,0.0025222,0.00055421,0,0,0.055884,-0.02091,0,0.011527,0,0,0,0.007937,0.00047029,0.0025222,4.2685,0.0036432,0.0066814,1.0589e-08,0.3,0.14,0
0.018113,0.0079751,0.0077636,0.00054976,0.002494,0.00046177,0,0,0.054803,-0.02022,0,0.0096049,0,0,0,0.007793,0.00052032,0.002494,3.6478,0.0036024,0.0065141,9.9265e-09,0.32,0.14,0
0.019197,0.0078881,0.0076221,0.00058257,0.0024614,0.00036229,0,0,0.053671,-0.01954,0,0.0075356,0,0,0,0.0076406,0.00056398,0.0024614,2.9384,0.0035553,0.0063444,9.2694e-09,0.34,0.14,0
0.020259,0.0077216,0.007473,0.00059411,0.0024201,0.00025853,0,0,0.05255,-0.018991,0,0.0053774,0,0,0,0.0074827,0.00058441,0.0024201,2.1493,0.0034958,0.0061882,8.6568e-09,0.36,0.14,0
0.021299,0.0074769,0.0073156,0.00056581,0.0023644,0.00015927,0,0,0.051492,-0.018705,0,0.0033128,0,0,0,0.0073193,0.00056205,0.0023644,1.351,0.0034153,0.0060606,8.1162e-09,0.38,0.14,0
0.022319,0.0071595,0.0071463,0.00048717,0.00229,8.0891e-05,0,0,0.050505,-0.01875,0,0.0016825,0,0,0,0.0071472,0.00048619,0.00229,0.69586,0.0033078,0.0059673,7.6452e-09,0.4,0.14,0
0.02332,0.0067816,0.0069456,0.00035304,0.0021896,3.8611e-05,0,0,0.049462,-0.0191,0,0.00080311,0,0,0,0.0069458,0.00035281,0.0021896,0.33555,0.0031627,0.0058934,7.1727e-09,0.42,0.14,0
0.024298,0.0063592,0.0067042,0.00019263,0.002069,4.8884e-05,0,0,0.048206,-0.019515,0,0.0010168,0,0,0,0.0067046,0.00019226,0.002069,0.4301,0.0029886,0.0058061,6.6254e-09,0.44,0.14,0
0.025248,0.0059148,0.0063488,-1.7365e-05,0.0018994,8.9002e-05,0,0,0.046274,-0.019935,0,0.0018512,0,0,0,0.0063501,-1.8609e-05,0.0018994,0.80081,0.0027436,0.0056589,5.831e-09,0.46,0.14,0
0.026149,0.0054585,0.0060194,-0.00014033,0.0017637,0.00017368,0,0,0.044259,-0.019802,0,0.0036126,0,0,0,0.0060243,-0.00014522,0.0017637,1.6138,0.0025476,0.0054708,5.0885e-09,0.48,0.14,0
0.027018,0.0050284,0.0055429,-0.00052169,0.0015064,0.00023961,0,0,0.04198,-0.021092,0,0.004984,0,0,0,0.0055524,-0.00053114,0.0015064,2.2591,0.0021759,0.0053634,4.243e-09,0.5,0.14,0
0.027828,0.0047004,0.0050557,-0.00066582,0.001317,0.00042973,0,0,0.038883,-0.020621,0,0.0089384,0,0,0,0.0050878,-0.00069791,0.001317,4.2714,0.0019023,0.0050869,3.3615e-09,0.52,0.14,0
0.028574,0.0045144,0.0046957,-0.00032126,0.0013123,0.00043327,0,0,0.035187,-0.016989,0,0.0090121,0,0,0,0.0047328,-0.0003584,0.0013123,4.8999,0.0018956,0.0044951,2.5862e-09,0.54,0.14,0
0.029235,0.0044429,0.0043251,-0.00013552,0.0012569,0.00028926,0,0,0.03191,-0.014481,0,0.0060167,0,0,0,0.0043438,-0.0001542,0.0012569,3.6949,0.0018155,0.0039845,1.9289e-09,0.56,0.14,0
0.02985,0.0044398,0.0041509,-4.9255e-05,0.0012305,7.2135e-05,0,0,0.030372,-0.013309,0,0.0015004,0,0,0,0.0041522,-5.0493e-05,0.0012305,0.98363,0.0017774,0.0037309,1.646e-09,0.58,0.14,0
0.03045,0.0044922,0.0041469,-5.9526e-05,0.0012262,-0.00015748,0,0,0.030375,-0.013372,0,-0.0032757,0,0,0,0.0041528,-6.5414e-05,0.0012262,-2.1411,0.0017712,0.0037434,1.6528e-09,0.6,0.14,0
0.031065,0.0046011,0.0043138,-0.00016776,0.0012438,-0.0003714,0,0,0.031928,-0.014681,0,-0.0077251,0,0,0,0.0043444,-0.00019833,0.0012438,-4.7054,0.0017966,0.0040206,1.9482e-09,0.62,0.14,0
0.031727,0.0047809,0.0046789,-0.00038019,0.0012896,-0.00050742,0,0,0.035248,-0.017366,0,-0.010554,0,0,0,0.0047293,-0.00043058,0.0012896,-5.6715,0.0018628,0.0045505,2.6125e-09,0.64,0.14,0
0.032475,0.0050804,0.0050329,-0.00075922,0.0012821,-0.00048761,0,0,0.039009,-0.02123,0,-0.010142,0,0,0,0.0050737,-0.00079998,0.0012821,-4.7786,0.0018519,0.0051581,3.3757e-09,0.66,0.14,0
0.033288,0.0055312,0.0055123,-0.00064895,0.001459,-0.00026992,0,0,0.042154,-0.021923,0,-0.0056143,0,0,0,0.0055241,-0.00066075,0.001459,-2.5037,0.0021074,0.0054438,4.2523e-09,0.68,0.14,0
0.034161,0.0060969,0.0059804,-0.00028793,0.0017078,-0.00016901,0,0,0.044436,-0.020755,0,-0.0035155,0,0,0,0.005985,-0.00029249,0.0017078,-1.5434,0.0024668,0.0055544,5.1088e-09,0.7,0.14,0
0.035065,0.0067035,0.0062955,-0.00018487,0.0018332,-4.5145e-05,0,0,0.046408,-0.020988,0,-0.00093901,0,0,0,0.0062958,-0.00018519,0.0018332,-0.39912,0.0026479,0.0057442,5.8383e-09,0.72,0.14,0
0.036017,0.0073145,0.0066327,8.9506e-06,0.0019925,3.9302e-05,0,0,0.048258,-0.020629,0,0.00081749,0,0,0,0.006633,8.7174e-06,0.0019925,0.33995,0.0028781,0.0058886,6.6155e-09,0.74,0.14,0
0.036996,0.0079211,0.0068522,0.00015884,0.0021033,9.693e-05,0,0,0.049389,-0.020223,0,0.0020161,0,0,0,0.0068536,0.00015743,0.0021033,0.82949,0.0030381,0.0059662,7.1241e-09,0.76,0.14,0
0.037993,0.0085018,0.0070264,0.00028524,0.0021935,0.00010388,0,0,0.050262,-0.019846,0,0.0021607,0,0,0,0.007028,0.00028364,0.0021935,0.88262,0.0031684,0.0060211,7.5259e-09,0.78,0.14,0
0.039006,0.0090407,0.0071658,0.00035667,0.0022567,7.5713e-05,0,0,0.051054,-0.019761,0,0.0015748,0,0,0,0.0071666,0.00035583,0.0022567,0.63699,0.0032597,0.0060872,7.8899e-09,0.8,0.14,0
0.040035,0.0095255,0.0072903,0.00037479,0.0022995,2.8216e-05,0,0,0.051904,-0.020017,0,0.0005869,0,0,0,0.0072905,0.00037468,0.0022995,0.23377,0.0033215,0.0061823,8.288e-09,0.82,0.14,0
0.041082,0.0099506,0.007404,0.00034752,0.0023254,-2.0837e-05,0,0,0.052817,-0.02057,0,-0.00043341,0,0,0,0.007404,0.00034745,0.0023254,-0.16919,0.003359,0.0063047,8.7296e-09,0.84,0.14,0
0.042148,0.010315,0.0075076,0.00029152,0.0023397,-6.0597e-05,0,0,0.053746,-0.021302,0,-0.0012604,0,0,0,0.0075081,0.00029101,0.0023397,-0.4811,0.0033796,0.0064419,9.194e-09,0.86,0.14,0
0.043232,0.010621,0.007599,0.00022174,0.0023462,-8.6081e-05,0,0,0.054629,-0.022095,0,-0.0017905,0,0,0,0.0076,0.00022073,0.0023462,-0.66843,0.003389,0.0065793,9.6462e-09,0.88,0.14,0
0.044333,0.010872,0.0076763,0.00014981,0.0023478,-9.6655e-05,0,0,0.055416,-0.02286,0,-0.0020104,0,0,0,0.0076776,0.00014857,0.0023478,-0.73562,0.0033913,0.0067056,1.0056e-08,0.9,0.14,0
0.045449,0.011072,0.0077387,8.3617e-05,0.0023467,-9.383e-05,0,0,0.056077,-0.023536,0,-0.0019517,0,0,0,0.0077399,8.2467e-05,0.0023467,-0.70214,0.0033897,0.0068135,1.0404e-08,0.92,0.14,0
0.046576,0.011223,0.0077863,2.8276e-05,0.0023444,-8.0019e-05,0,0,0.056596,-0.024087,0,-0.0016644,0,0,0,0.0077871,2.7451e-05,0.0023444,-0.59089,0.0033863,0.0068994,1.0679e-08,0.94,0.14,0
0.047712,0.011329,0.0078195,-1.3032e-05,0.002342,-5.7931e-05,0,0,0.056967,-0.024492,0,-0.001205,0,0,0,0.00782,-1.346e-05,0.002342,-0.42374,0.0033828,0.0069613,1.0876e-08,0.96,0.14,0
0.048855,0.011392,0.0078392,-3.8448e-05,0.0023402,-3.0337e-05,0,0,0.057189,-0.024738,0,-0.00063101,0,0,0,0.0078393,-3.8565e-05,0.0023402,-0.22065,0.0033803,0.0069985,1.0994e-08,0.98,0.14,0
0.05,0.011413,0.0078457,-4.7018e-05,0.0023396,5.0032e-05,0,0,0.057263,-0.024821,0,0.0010407,0,0,0,0.007846,-4.7335e-05,0.0023396,0.36318,0.0033794,0.0070115,1.1035e-08,1,0.14,0
0,0,0.0081992,0.0035139,0.0035139,0.0019372,0,0,0.048726,-1.301e-18,0,0.040294,0,0,0,0.0088964,0.0028167,0.0035139,19.795,0.0050757,0.0057628,9.346e-09,0,0.16,0
0.00097453,0.00080589,0.0081661,0.0030999,0.0033798,0.0019293,0,0,0.049778,-0.0029113,0,0.04013,0,0,0,0.0088171,0.0024488,0.0033798,18.647,0.0048819,0.0059577,9.9724e-09,0.02,0.16,0
0.0019911,0.0015989,0.0082963,0.0027246,0.0033063,0.0018933,0,0,0.051896,-0.0060491,0,0.039381,0,0,0,0.0088787,0.0021421,0.0033063,17.101,0.0047757,0.0062366,1.101e-08,0.04,0.16,0
0.0030504,0.0023714,0.008417,0.0023412,0.0032274,0.0018317,0,0,0.053971,-0.0092172,0,0.0381,0,0,0,0.0089265,0.0018317,0.0032274,15.544,0.0046619,0.0065101,1.2004e-08,0.06,0.16,0
0.00415,0.0031133,0.0085194,0.0019736,0.0031479,0.0017436,0,0,0.055863,-0.012213,0,0.036268,0,0,0,0.0089549,0.0015381,0.0031479,14.023,0.004547,0.0067573,1.2866e-08,0.08,0.16,0
0.0052849,0.0038143,0.0085971,0.0016403,0.0030712,0.0016351,0,0,0.057469,-0.014881,0,0.03401,0,0,0,0.0089622,0.0012752,0.0030712,12.589,0.0044362,0.0069649,1.354e-08,0.1,0.16,0
0.0064487,0.0044661,0.0086474,0.0013518,0.0029998,0.0015153,0,0,0.058735,-0.017139,0,0.031517,0,0,0,0.0089496,0.0010496,0.0029998,11.279,0.004333,0.0071278,1.4012e-08,0.12,0.16,0
0.0076343,0.0050624,0.0086709,0.0011117,0.0029348,0.001393,0,0,0.059656,-0.01896,0,0.028974,0,0,0,0.0089194,0.00086314,0.0029348,10.116,0.0042391,0.0072461,1.429e-08,0.14,0.16,0
0.0088349,0.0055992,0.0086705,0.00091883,0.0028768,0.0012749,0,0,0.060255,-0.020363,0,0.026519,0,0,0,0.0088748,0.00071452,0.0028768,9.1042,0.0041554,0.0073227,1.4396e-08,0.16,0.16,0
0.010044,0.0060741,0.0086498,0.0007702,0.002826,0.0011653,0,0,0.060568,-0.021381,0,0.024239,0,0,0,0.0088186,0.00060147,0.002826,8.2387,0.004082,0.0073614,1.4357e-08,0.18,0.16,0
0.011258,0.0064859,0.008612,0.00066188,0.0027822,0.0010659,0,0,0.060631,-0.022051,0,0.02217,0,0,0,0.0087525,0.00052146,0.0027822,7.505,0.0040187,0.0073656,1.4194e-08,0.2,0.16,0
0.01247,0.0068337,0.0085594,0.00059003,0.0027448,0.00097642,0,0,0.060471,-0.02241,0,0.02031,0,0,0,0.0086772,0.00047214,0.0027448,6.8844,0.0039647,0.0073377,1.3922e-08,0.22,0.16,0
0.013676,0.0071167,0.0084928,0.00055101,0.0027132,0.00089561,0,0,0.060109,-0.022486,0,0.018629,0,0,0,0.0085926,0.00045127,0.0027132,6.355,0.003919,0.0072789,1.355e-08,0.24,0.16,0
0.014874,0.0073339,0.0084123,0.00054117,0.002686,0.00082096,0,0,0.059553,-0.022307,0,0.017076,0,0,0,0.008497,0.00045646,0.002686,5.8915,0.0038798,0.0071899,1.3083e-08,0.26,0.16,0
0.016059,0.0074834,0.0083168,0.00055634,0.002662,0.00074923,0,0,0.058811,-0.021898,0,0.015584,0,0,0,0.0083885,0.00048466,0.002662,5.4643,0.003845,0.0070712,1.2524e-08,0.28,0.16,0
0.017226,0.0075627,0.0082053,0.0005909,0.0026388,0.00067641,0,0,0.057891,-0.021299,0,0.014069,0,0,0,0.0082649,0.00053128,0.0026388,5.0372,0.0038117,0.0069247,1.1879e-08,0.3,0.16,0
0.018374,0.0075682,0.0080773,0.00063644,0.0026141,0.00059801,0,0,0.056817,-0.020568,0,0.012439,0,0,0,0.008125,0.00058869,0.0026141,4.5658,0.003776,0.0067553,1.1166e-08,0.32,0.16,0
0.019499,0.0074957,0.007935,0.00067948,0.0025844,0.0005104,0,0,0.055647,-0.019811,0,0.010616,0,0,0,0.0079707,0.00064375,0.0025844,4.0043,0.003733,0.0065751,1.0426e-08,0.34,0.16,0
0.0206,0.0073407,0.0077821,0.00069754,0.0025439,0.00041382,0,0,0.054477,-0.019202,0,0.0086075,0,0,0,0.0078062,0.00067345,0.0025439,3.3317,0.0036745,0.0064057,9.7201e-09,0.36,0.16,0
0.021678,0.0071012,0.0076244,0.0006638,0.0024864,0.0003191,0,0,0.053434,-0.018956,0,0.0066374,0,0,0,0.007639,0.0006492,0.0024864,2.6194,0.0035915,0.0062762,9.1249e-09,0.38,0.16,0
0.022738,0.0067813,0.0074533,0.00054695,0.0024001,0.00024756,0,0,0.052554,-0.019273,0,0.0051493,0,0,0,0.0074622,0.00053809,0.0024001,2.0503,0.0034668,0.0062062,8.6543e-09,0.4,0.16,0
0.02378,0.0063926,0.0072699,0.00036071,0.0022892,0.00023736,0,0,0.0518,-0.020056,0,0.0049371,0,0,0,0.0072781,0.00035256,0.0022892,1.9652,0.0033066,0.0061888,8.2762e-09,0.42,0.16,0
0.02481,0.00596,0.0070029,9.2251e-05,0.0021285,0.00029822,0,0,0.050693,-0.021177,0,0.0062029,0,0,0,0.0070157,7.9406e-05,0.0021285,2.4664,0.0030746,0.0061724,7.7429e-09,0.44,0.16,0
0.025808,0.0055022,0.0066983,-0.00012022,0.0019734,0.00048528,0,0,0.049139,-0.021774,0,0.010094,0,0,0,0.0067327,-0.00015458,0.0019734,4.0506,0.0028505,0.006108,7.0947e-09,0.46,0.16,0
0.026775,0.0050649,0.0058587,-0.0006059,0.0015758,0.00066921,0,0,0.044542,-0.02269,0,0.013919,0,0,0,0.0059273,-0.00067445,0.0015758,5.8485,0.0022762,0.005813,5.2316e-09,0.48,0.16,0
0.02759,0.0046036,0.005101,-0.00086584,0.0012706,0.0012634,0,0,0.039837,-0.022218,0,0.026279,0,0,0,0.0053575,-0.0011223,0.0012706,11.476,0.0018352,0.0056753,4.0787e-09,0.5,0.16,0
0.028369,0.0042916,0.0045042,-0.00030991,0.0012583,0.0010811,0,0,0.033758,-0.016309,0,0.022488,0,0,0,0.0047359,-0.00054156,0.0012583,12.094,0.0018175,0.0046467,2.6696e-09,0.52,0.16,0
0.02894,0.0042145,0.0035975,-3.3658e-05,0.0010692,0.00084739,0,0,0.026295,-0.011469,0,0.017626,0,0,0,0.0037855,-0.00022167,0.0010692,12.51,0.0015444,0.0035428,1.3041e-09,0.54,0.16,0
0.02942,0.0041987,0.0032302,0.0001314,0.0010085,0.00047906,0,0,0.023106,-0.0091216,0,0.0099644,0,0,0,0.0033026,5.9025e-05,0.0010085,8.5906,0.0014567,0.0028883,8.0176e-10,0.56,0.16,0
0.029864,0.0042201,0.0031063,0.00021479,0.00099632,0.00013113,0,0,0.021943,-0.0081279,0,0.0027275,0,0,0,0.0031122,0.00020886,0.00099632,2.5913,0.0014391,0.0026006,6.3196e-10,0.58,0.16,0
0.030298,0.0042713,0.0031008,0.00020309,0.00099115,-0.00020702,0,0,0.02194,-0.0081958,0,-0.0043061,0,0,0,0.0031155,0.00018838,0.00099115,-4.066,0.0014317,0.0026196,6.3941e-10,0.6,0.16,0
0.030742,0.0043527,0.0032139,9.4426e-05,0.00099249,-0.00055243,0,0,0.023102,-0.0093399,0,-0.011491,0,0,0,0.0033088,-5.1742e-07,0.00099249,-9.7518,0.0014336,0.0029414,8.2251e-10,0.62,0.16,0
0.031222,0.004473,0.0035727,-0.00010125,0.0010414,-0.00091476,0,0,0.026325,-0.011884,0,-0.019027,0,0,0,0.0037879,-0.00031641,0.0010414,-13.236,0.0015043,0.0036216,1.3344e-09,0.64,0.16,0
0.031795,0.0046582,0.0044746,-0.00042079,0.0012161,-0.0011342,0,0,0.033888,-0.017024,0,-0.023591,0,0,0,0.0047246,-0.00067079,0.0012161,-12.431,0.0017567,0.0047424,2.7e-09,0.66,0.16,0
0.032578,0.0050876,0.0050599,-0.0010337,0.0012078,-0.0012871,0,0,0.040061,-0.023312,0,-0.026773,0,0,0,0.0053206,-0.0012944,0.0012078,-11.451,0.0017447,0.0057851,4.045e-09,0.68,0.16,0
0.033397,0.005682,0.0058122,-0.00078914,0.0015069,-0.00065339,0,0,0.044775,-0.023879,0,-0.013591,0,0,0,0.0058762,-0.00085319,0.0015069,-5.5987,0.0021766,0.0059138,5.2051e-09,0.7,0.16,0
0.034369,0.0062671,0.0066361,-0.0003335,0.0018908,-0.00042562,0,0,0.049352,-0.023133,0,-0.0088529,0,0,0,0.006662,-0.00035939,0.0018908,-3.4817,0.0027311,0.00621,7.0786e-09,0.72,0.16,0
0.035371,0.0068899,0.0069253,-0.00013903,0.0020359,-0.00019088,0,0,0.05085,-0.022619,0,-0.0039703,0,0,0,0.0069304,-0.00014419,0.0020359,-1.5467,0.0029407,0.0062753,7.7217e-09,0.74,0.16,0
0.036403,0.0075064,0.0071705,0.00011555,0.0021858,-7.7934e-05,0,0,0.05184,-0.021531,0,-0.001621,0,0,0,0.0071713,0.00011469,0.0021858,-0.63283,0.0031573,0.0062826,8.2265e-09,0.76,0.16,0
0.037445,0.0080983,0.0073303,0.00029449,0.0022874,-3.5625e-05,0,0,0.052446,-0.020727,0,-0.00074101,0,0,0,0.0073305,0.00029431,0.0022874,-0.29011,0.0033041,0.0062814,8.5423e-09,0.78,0.16,0
0.038501,0.0086404,0.0074751,0.00040396,0.0023637,-5.4632e-05,0,0,0.053159,-0.020382,0,-0.0011363,0,0,0,0.0074756,0.00040354,0.0023637,-0.44263,0.0034143,0.006324,8.9066e-09,0.8,0.16,0
0.039571,0.0091202,0.007606,0.00042623,0.0024097,-9.6452e-05,0,0,0.054042,-0.020628,0,-0.0020062,0,0,0,0.0076073,0.00042493,0.0024097,-0.76952,0.0034806,0.0064242,9.3636e-09,0.82,0.16,0
0.040662,0.0095332,0.0077319,0.00038858,0.0024362,-0.00013755,0,0,0.055076,-0.021295,0,-0.002861,0,0,0,0.0077345,0.00038601,0.0024362,-1.0727,0.0035189,0.006568,9.9149e-09,0.84,0.16,0
0.041774,0.0098816,0.0078475,0.00031594,0.002449,-0.00016443,0,0,0.056144,-0.022184,0,-0.0034201,0,0,0,0.007851,0.00031235,0.002449,-1.2501,0.0035375,0.0067297,1.0499e-08,0.86,0.16,0
0.042908,0.01017,0.0079486,0.00022988,0.0024535,-0.00017416,0,0,0.057148,-0.023126,0,-0.0036225,0,0,0,0.0079525,0.00022595,0.0024535,-1.2919,0.003544,0.0068884,1.106e-08,0.88,0.16,0
0.04406,0.010405,0.0080325,0.00014377,0.0024529,-0.00016815,0,0,0.058028,-0.024015,0,-0.0034975,0,0,0,0.0080361,0.00014019,0.0024529,-1.2205,0.0035431,0.0070309,1.1557e-08,0.9,0.16,0
0.045229,0.010589,0.008099,6.5995e-05,0.0024495,-0.00014921,0,0,0.058755,-0.024788,0,-0.0031036,0,0,0,0.0081017,6.3225e-05,0.0024495,-1.0638,0.0035382,0.0071505,1.197e-08,0.92,0.16,0
0.046411,0.010729,0.0081489,1.758e-06,0.0024452,-0.00012027,0,0,0.059318,-0.025412,0,-0.0025016,0,0,0,0.0081506,-1.7013e-08,0.0024452,-0.84555,0.0035319,0.0072445,1.2292e-08,0.94,0.16,0
0.047602,0.010826,0.0081834,-4.5807e-05,0.0024413,-8.4077e-05,0,0,0.059718,-0.025866,0,-0.0017488,0,0,0,0.0081842,-4.6666e-05,0.0024413,-0.58531,0.0035263,0.0073116,1.252e-08,0.96,0.16,0
0.048799,0.010884,0.0082036,-7.4929e-05,0.0024386,-4.3191e-05,0,0,0.059956,-0.026141,0,-0.00089837,0,0,0,0.0082038,-7.5154e-05,0.0024386,-0.29891,0.0035224,0.0073518,1.2656e-08,0.98,0.16,0
0.05,0.010903,0.0082103,-8.4724e-05,0.0024377,4.5783e-05,0,0,0.060035,-0.026233,0,0.00095229,0,0,0,0.0082105,-8.4977e-05,0.0024377,0.31622,0.0035211,0.0073656,1.2703e-08,1,0.16,0
0,0,0.0082394,0.0035312,0.0035312,0.001799,0,0,0.048966,-1.6263e-18,0,0.03742,0,0,0,0.0088481,0.0029225,0.0035312,18.694,0.0051006,0.005646,8.8822e-09,0,0.18,0
0.00097931,0.00074839,0.0082059,0.0031232,0.0033987,0.0017933,0,0,0.049994,-0.0028653,0,0.0373,0,0,0,0.0087749,0.0025542,0.0033987,17.604,0.0049093,0.0058443,9.5348e-09,0.02,0.18,0
0.0019998,0.0014805,0.0083372,0.0027685,0.0033317,0.001761,0,0,0.052057,-0.0058575,0,0.036629,0,0,0,0.0088473,0.0022583,0.0033317,16.156,0.0048124,0.0061233,1.0581e-08,0.04,0.18,0
0.0030616,0.0021917,0.0084615,0.0024104,0.0032616,0.0017125,0,0,0.05408,-0.0088521,0,0.03562,0,0,0,0.0089126,0.0019594,0.0032616,14.755,0.0047112,0.0064022,1.162e-08,0.06,0.18,0
0.004163,0.0028752,0.0085728,0.0020653,0.0031914,0.0016454,0,0,0.055966,-0.011712,0,0.034224,0,0,0,0.0089651,0.0016729,0.0031914,13.413,0.0046098,0.006664,1.258e-08,0.08,0.18,0
0.0053002,0.0035235,0.0086656,0.0017468,0.0031237,0.0015622,0,0,0.057636,-0.01432,0,0.032493,0,0,0,0.009002,0.0014105,0.0031237,12.151,0.0045121,0.0068964,1.3405e-08,0.1,0.18,0
0.0064684,0.0041298,0.0087372,0.0014645,0.0030605,0.0014683,0,0,0.059037,-0.016598,0,0.030541,0,0,0,0.0090224,0.0011793,0.0030605,10.994,0.0044208,0.0070922,1.4068e-08,0.12,0.18,0
0.0076617,0.0046885,0.0087867,0.0012232,0.003003,0.00137,0,0,0.060151,-0.018509,0,0.028497,0,0,0,0.0090273,0.00098273,0.003003,9.9572,0.0043377,0.0072487,1.456e-08,0.14,0.18,0
0.0088744,0.0051957,0.0088153,0.0010243,0.0029519,0.001273,0,0,0.06098,-0.020047,0,0.026478,0,0,0,0.009018,0.00082157,0.0029519,9.0481,0.0042638,0.0073661,1.4887e-08,0.16,0.18,0
0.010101,0.0056486,0.0088248,0.00086673,0.0029074,0.0011811,0,0,0.06154,-0.021223,0,0.024568,0,0,0,0.0089964,0.00069512,0.0029074,8.2665,0.0041997,0.0074458,1.5061e-08,0.18,0.18,0
0.011336,0.0060452,0.0088171,0.00074855,0.0028697,0.001097,0,0,0.061853,-0.02206,0,0.022818,0,0,0,0.0089636,0.00060206,0.0028697,7.6061,0.0041451,0.0074898,1.5098e-08,0.2,0.18,0
0.012575,0.0063842,0.0087938,0.00066729,0.0028383,0.0010215,0,0,0.061937,-0.022579,0,0.021248,0,0,0,0.0089203,0.00054085,0.0028383,7.0561,0.0040998,0.0074994,1.5006e-08,0.22,0.18,0
0.013813,0.0066643,0.0087554,0.00062034,0.0028127,0.00095445,0,0,0.061804,-0.022801,0,0.019853,0,0,0,0.0088659,0.00050986,0.0028127,6.6028,0.0040628,0.0074755,1.4792e-08,0.24,0.18,0
0.015047,0.006884,0.0087014,0.0006049,0.0027919,0.00089439,0,0,0.061459,-0.022745,0,0.018603,0,0,0,0.0087991,0.00050728,0.0027919,6.2292,0.0040327,0.0074182,1.4457e-08,0.26,0.18,0
0.016272,0.0070409,0.0086305,0.00061758,0.0027744,0.00083896,0,0,0.060903,-0.022431,0,0.01745,0,0,0,0.0087174,0.00053068,0.0027744,5.9135,0.0040075,0.0073272,1.4e-08,0.28,0.18,0
0.017483,0.0071319,0.0085403,0.00065368,0.0027582,0.00078453,0,0,0.060134,-0.021887,0,0.016318,0,0,0,0.0086175,0.0005764,0.0027582,5.6261,0.003984,0.0072025,1.342e-08,0.3,0.18,0
0.018677,0.0071524,0.0084288,0.00070582,0.0027404,0.00072594,0,0,0.059159,-0.021159,0,0.0151,0,0,0,0.0084964,0.00063818,0.0027404,5.3235,0.0039583,0.0070464,1.2724e-08,0.32,0.18,0
0.01985,0.0070957,0.0082968,0.00076146,0.0027175,0.00065633,0,0,0.058025,-0.020343,0,0.013652,0,0,0,0.0083536,0.00070472,0.0027175,4.9408,0.0039253,0.0068674,1.1943e-08,0.34,0.18,0
0.020998,0.0069536,0.0081536,0.00079732,0.0026853,0.00057069,0,0,0.05687,-0.019635,0,0.01187,0,0,0,0.0081976,0.00075331,0.0026853,4.4098,0.0038787,0.0066908,1.117e-08,0.36,0.18,0
0.022124,0.0067187,0.008004,0.00076278,0.00263,0.00047359,0,0,0.055889,-0.019419,0,0.0098508,0,0,0,0.0080348,0.00073194,0.00263,3.7261,0.0037989,0.006563,1.0529e-08,0.38,0.18,0
0.023234,0.0063886,0.0078692,0.00062063,0.0025469,0.0004018,0,0,0.055351,-0.020034,0,0.0083575,0,0,0,0.0078914,0.00059842,0.0025469,3.1631,0.0036789,0.0065401,1.0185e-08,0.4,0.18,0
0.024338,0.0059793,0.0076964,0.00031103,0.0024022,0.00039217,0,0,0.05506,-0.021749,0,0.0081571,0,0,0,0.0077172,0.00029027,0.0024022,3.0311,0.0034699,0.0066283,9.9973e-09,0.42,0.18,0
0.025436,0.0055121,0.007589,1.3195e-05,0.0022807,0.0005359,0,0,0.055207,-0.023582,0,0.011147,0,0,0,0.0076268,-2.4525e-05,0.0022807,4.0263,0.0032943,0.0067984,1.0106e-08,0.44,0.18,0
0.026547,0.0050438,0.0072398,-0.00047739,0.0020287,0.000719,0,0,0.054195,-0.026063,0,0.014955,0,0,0,0.0073062,-0.0005438,0.0020287,5.2776,0.0029304,0.0069315,9.5041e-09,0.46,0.18,0
0.027604,0.0045509,0.0076852,-0.00046468,0.0021661,0.0012691,0,0,0.057398,-0.027361,0,0.026397,0,0,0,0.0078782,-0.00065772,0.0021661,8.6492,0.0031289,0.0075321,1.2005e-08,0.48,0.18,0
0.028843,0.0041396,0.010032,-0.0014861,0.0025638,0.0015637,0,0,0.02977,-0.013235,0,0.016988,0,0,0,0.010273,-0.0017274,0.0025638,9.0473,0.0037032,0.01054,3.9034e-08,0.5,0.18,0
0.029117,0.004048,0.0083481,0.00040902,0.0026271,0.0012399,0,0,0.013222,-0.0082127,0,0.018666,0,0,0,0.0088055,-4.8435e-05,0.0026271,15.226,0.0037947,0.0079171,3.5496e-08,0.52,0.18,0
0.029372,0.0040557,0.008062,0.00035609,0.0025254,0.00095806,0,0,0.012796,-0.0062959,0,0.012259,0,0,0,0.0083224,9.5768e-05,0.0025254,13.567,0.0036479,0.0073358,3.244e-08,0.54,0.18,0
0.029628,0.0040781,0.0081784,0.00051796,0.0026089,0.00050143,0,0,0.012872,-0.0053566,0,0.0064979,0,0,0,0.0082675,0.00042886,0.0026089,8.9486,0.0037684,0.0070108,3.2603e-08,0.56,0.18,0
0.029886,0.0041146,0.008239,0.00057777,0.002645,0.00013862,0,0,0.012928,-0.0049954,0,0.0017885,0,0,0,0.0082465,0.00057026,0.002645,2.7954,0.0038206,0.006878,3.2887e-08,0.58,0.18,0
0.030145,0.0041644,0.0082358,0.00056645,0.0026407,-0.00020346,0,0,0.012931,-0.0050357,0,-0.0026338,0,0,0,0.0082519,0.00055035,0.0026407,-4.057,0.0038143,0.0068985,3.2921e-08,0.6,0.18,0
0.030404,0.0042275,0.0081705,0.00048313,0.0025961,-0.00056396,0,0,0.012883,-0.0054853,0,-0.0073215,0,0,0,0.0082805,0.00037316,0.0025961,-9.7636,0.0037499,0.0070674,3.273e-08,0.62,0.18,0
0.030661,0.0043055,0.0080521,0.00029023,0.0025027,-0.0010174,0,0,0.012825,-0.0065404,0,-0.013045,0,0,0,0.0083376,4.8061e-06,0.0025027,-13.952,0.003615,0.0074242,3.2723e-08,0.64,0.18,0
0.030917,0.0043995,0.0083628,0.00032012,0.0026049,-0.001276,0,0,0.013307,-0.0086301,0,-0.019321,0,0,0,0.0088373,-0.00015436,0.0026049,-15.254,0.0037626,0.0080342,3.6183e-08,0.66,0.18,0
0.031193,0.0045988,0.010001,-0.0017647,0.0024709,-0.0015699,0,0,0.02996,-0.013892,0,-0.017008,0,0,0,0.010239,-0.0020028,0.0024709,-8.9059,0.003569,0.010736,3.9054e-08,0.68,0.18,0
0.032438,0.0051418,0.0076347,-0.00069606,0.0020816,-0.0012325,0,0,0.057752,-0.028888,0,-0.025636,0,0,0,0.0078132,-0.00087458,0.0020816,-8.2414,0.0030067,0.0076508,1.1967e-08,0.7,0.18,0
0.033503,0.0057782,0.0071783,-0.00072929,0.0019347,-0.00064651,0,0,0.054533,-0.027706,0,-0.013447,0,0,0,0.0072308,-0.0007818,0.0019347,-4.6433,0.0027946,0.007058,9.459e-09,0.72,0.18,0
0.034619,0.0064097,0.007503,-0.00027378,0.0021688,-0.0004098,0,0,0.055476,-0.025403,0,-0.0085238,0,0,0,0.0075245,-0.00029532,0.0021688,-3.0081,0.0031327,0.0069248,1.0062e-08,0.74,0.18,0
0.035722,0.0070599,0.0075949,1.2302e-05,0.0022822,-0.0002118,0,0,0.055252,-0.023606,0,-0.0044055,0,0,0,0.0076008,6.3906e-06,0.0022822,-1.5988,0.0032964,0.0067506,9.9593e-09,0.76,0.18,0
0.036829,0.0076728,0.0077463,0.00031479,0.0024183,-0.00016571,0,0,0.055411,-0.021877,0,-0.0034467,0,0,0,0.00775,0.00031109,0.0024183,-1.2767,0.0034931,0.0066409,1.0094e-08,0.78,0.18,0
0.037939,0.0082254,0.0078609,0.00045246,0.002494,-0.00018498,0,0,0.055815,-0.021232,0,-0.0038477,0,0,0,0.0078655,0.00044785,0.002494,-1.4295,0.0036025,0.0066356,1.0336e-08,0.8,0.18,0
0.039062,0.0087004,0.0079907,0.00047481,0.0025397,-0.00023057,0,0,0.056691,-0.021475,0,-0.0047958,0,0,0,0.0079978,0.00046775,0.0025397,-1.7555,0.0036684,0.0067374,1.0845e-08,0.82,0.18,0
0.040206,0.0090989,0.0081174,0.0004156,0.0025599,-0.00026288,0,0,0.057798,-0.022301,0,-0.005468,0,0,0,0.0081263,0.00040664,0.0025599,-1.9526,0.0036976,0.0068998,1.1497e-08,0.84,0.18,0
0.041374,0.0094279,0.0082356,0.00032307,0.0025676,-0.0002735,0,0,0.058947,-0.023343,0,-0.0056887,0,0,0,0.0082451,0.00031363,0.0025676,-1.9773,0.0037088,0.0070789,1.2186e-08,0.86,0.18,0
0.042564,0.0096963,0.0083361,0.00022055,0.002567,-0.00026428,0,0,0.059998,-0.024403,0,-0.005497,0,0,0,0.0083447,0.00021195,0.002567,-1.8632,0.0037079,0.007248,1.2823e-08,0.88,0.18,0
0.043774,0.0099117,0.0084169,0.00012118,0.0025614,-0.00023975,0,0,0.060897,-0.025378,0,-0.0049868,0,0,0,0.0084238,0.00011425,0.0025614,-1.6541,0.0036998,0.0073961,1.337e-08,0.9,0.18,0
0.045,0.01008,0.0084794,3.3118e-05,0.0025537,-0.00020376,0,0,0.061626,-0.026215,0,-0.0042382,0,0,0,0.0084843,2.8206e-05,0.0025537,-1.3811,0.0036887,0.0075185,1.3814e-08,0.92,0.18,0
0.046239,0.010207,0.0085255,-3.8694e-05,0.002546,-0.00015941,0,0,0.062186,-0.026881,0,-0.0033157,0,0,0,0.0085284,-4.166e-05,0.002546,-1.066,0.0036776,0.0076136,1.4155e-08,0.94,0.18,0
0.047487,0.010295,0.008557,-9.1414e-05,0.0025397,-0.00010927,0,0,0.06258,-0.027363,0,-0.0022728,0,0,0,0.0085584,-9.2795e-05,0.0025397,-0.72376,0.0036684,0.0076811,1.4394e-08,0.96,0.18,0
0.048742,0.010347,0.0085754,-0.00012352,0.0025356,-5.5506e-05,0,0,0.062814,-0.027654,0,-0.0011545,0,0,0,0.0085757,-0.00012387,0.0025356,-0.36558,0.0036625,0.0077214,1.4536e-08,0.98,0.18,0
0.05,0.010364,0.0085814,-0.00013429,0.0025341,4.1177e-05,0,0,0.062891,-0.027751,0,0.00085649,0,0,0,0.0085816,-0.00013448,0.0025341,0.27069,0.0036604,0.0077351,1.4584e-08,1,0.18,0
0,0,0.0082958,0.0035553,0.0035553,0.0016617,0,0,0.049301,-6.5052e-19,0,0.034564,0,0,0,0.0088203,0.0030309,0.0035553,17.517,0.0051355,0.0055458,8.4966e-09,0,0.2,0
0.00098601,0.00069128,0.0082614,0.0031474,0.0034227,0.0016574,0,0,0.050323,-0.0028623,0,0.034473,0,0,0,0.0087516,0.0026573,0.0034227,16.475,0.0049438,0.0057499,9.183e-09,0.02,0.2,0
0.0020129,0.0013646,0.0083945,0.0028046,0.0033597,0.0016281,0,0,0.052362,-0.0057733,0,0.033864,0,0,0,0.0088341,0.002365,0.0033597,15.11,0.004853,0.0060336,1.0255e-08,0.04,0.2,0
0.0030805,0.0020173,0.0085223,0.0024636,0.0032957,0.0015888,0,0,0.054356,-0.0086548,0,0.033047,0,0,0,0.0089136,0.0020722,0.0032957,13.838,0.0047605,0.0063191,1.1339e-08,0.06,0.2,0
0.0041871,0.0026448,0.0086403,0.0021351,0.0032326,0.0015367,0,0,0.05624,-0.011414,0,0.031963,0,0,0,0.008985,0.0017904,0.0032326,12.644,0.0046693,0.0065929,1.2377e-08,0.08,0.2,0
0.0053301,0.0032415,0.0087447,0.0018293,0.0031722,0.0014723,0,0,0.057954,-0.013966,0,0.030624,0,0,0,0.0090451,0.0015289,0.0031722,11.532,0.004582,0.0068441,1.332e-08,0.1,0.2,0
0.0065053,0.0038022,0.0088328,0.001554,0.003116,0.0013989,0,0,0.059455,-0.016245,0,0.029097,0,0,0,0.0090924,0.0012944,0.003116,10.513,0.0045009,0.0070656,1.4137e-08,0.12,0.2,0
0.0077082,0.004322,0.0089035,0.001314,0.0030653,0.0013208,0,0,0.060718,-0.018213,0,0.027472,0,0,0,0.0091268,0.0010907,0.0030653,9.5954,0.0044276,0.0072533,1.4812e-08,0.14,0.2,0
0.008934,0.0047973,0.0089569,0.0011118,0.0030206,0.0012423,0,0,0.061737,-0.019851,0,0.02584,0,0,0,0.0091489,0.00091982,0.0030206,8.7869,0.0043631,0.0074057,1.5339e-08,0.16,0.2,0
0.010178,0.0052252,0.0089938,0.00094796,0.0029825,0.0011672,0,0,0.062518,-0.02116,0,0.024278,0,0,0,0.0091597,0.00078205,0.0029825,8.0897,0.0043081,0.0075228,1.5723e-08,0.18,0.2,0
0.011435,0.0056035,0.0090155,0.0008217,0.0029512,0.0010981,0,0,0.063069,-0.022146,0,0.022841,0,0,0,0.0091601,0.00067709,0.0029512,7.5024,0.0042628,0.0076054,1.597e-08,0.2,0.2,0
0.0127,0.0059306,0.0090229,0.00073183,0.0029264,0.0010367,0,0,0.063403,-0.022824,0,0.021563,0,0,0,0.0091505,0.00060417,0.0029264,7.0201,0.004227,0.0076542,1.6085e-08,0.22,0.2,0
0.013971,0.0062047,0.0090163,0.00067673,0.0029079,0.00098346,0,0,0.063528,-0.023204,0,0.020456,0,0,0,0.0091307,0.00056233,0.0029079,6.6354,0.0042003,0.0076695,1.6073e-08,0.24,0.2,0
0.015242,0.0064241,0.0089955,0.00065451,0.002895,0.00093811,0,0,0.063446,-0.023301,0,0.019513,0,0,0,0.0090998,0.0005503,0.002895,6.3385,0.0041817,0.0076515,1.5933e-08,0.26,0.2,0
0.016509,0.0065861,0.0089591,0.00066269,0.0028865,0.00089928,0,0,0.063155,-0.023128,0,0.018705,0,0,0,0.0090554,0.00056633,0.0028865,6.1159,0.0041694,0.0075995,1.566e-08,0.28,0.2,0
0.017768,0.0066872,0.0089042,0.00069768,0.0028805,0.00086436,0,0,0.062646,-0.022702,0,0.017979,0,0,0,0.0089942,0.00060763,0.0028805,5.9478,0.0041608,0.0075126,1.5245e-08,0.3,0.2,0
0.019015,0.0067219,0.0088267,0.00075371,0.0028741,0.00082874,0,0,0.061907,-0.022052,0,0.017238,0,0,0,0.0089109,0.00066951,0.0028741,5.8011,0.0041515,0.00739,1.4678e-08,0.32,0.2,0
0.020244,0.006682,0.0087222,0.00082042,0.0028628,0.00078424,0,0,0.060938,-0.021241,0,0.016312,0,0,0,0.0087993,0.00074333,0.0028628,5.6135,0.0041351,0.007233,1.3956e-08,0.34,0.2,0
0.021452,0.0065554,0.0085955,0.00087994,0.0028426,0.0007166,0,0,0.05983,-0.020412,0,0.014905,0,0,0,0.0086615,0.00081395,0.0028426,5.2615,0.004106,0.0070555,1.3137e-08,0.36,0.2,0
0.022637,0.0063245,0.0084823,0.00088848,0.0028112,0.00061904,0,0,0.058979,-0.019997,0,0.012876,0,0,0,0.0085324,0.00083835,0.0028112,4.63,0.0040606,0.0069218,1.2483e-08,0.38,0.2,0
0.023811,0.0059799,0.00835,0.0006857,0.0027107,0.00051037,0,0,0.058648,-0.02106,0,0.010616,0,0,0,0.0083838,0.00065187,0.0027107,3.793,0.0039155,0.0069356,1.2182e-08,0.4,0.2,0
0.024983,0.0055227,0.008313,0.00032881,0.0025925,0.00052376,0,0,0.059493,-0.023543,0,0.010894,0,0,0,0.0083472,0.0002946,0.0025925,3.7372,0.0037448,0.0071848,1.2686e-08,0.42,0.2,0
0.026191,0.0050167,0.0080333,-0.00036115,0.0023017,0.00060412,0,0,0.059609,-0.027693,0,0.012566,0,0,0,0.0080766,-0.0004044,0.0023017,4.0952,0.0033246,0.0075033,1.2568e-08,0.44,0.2,0
0.027368,0.0044597,0.00853,-0.00048341,0.002414,0.0010663,0,0,0.063606,-0.030133,0,0.022179,0,0,0,0.0086544,-0.00060784,0.002414,6.6557,0.0034868,0.0081812,1.574e-08,0.46,0.2,0
0.028735,0.0039704,0.011139,-0.00054769,0.0031774,0.0011141,0,0,0.032394,-0.014325,0,0.012694,0,0,0,0.011261,-0.00066953,0.0031774,6.3091,0.0045896,0.010547,4.9038e-08,0.48,0.2,0
0.029023,0.0039746,0.0062705,-0.0013527,0.0014753,0.00043955,0,0,0.012535,-0.0072869,0,0.0051803,0,0,0,0.0063212,-0.0014034,0.0014753,6.4941,0.002131,0.0067616,1.654e-08,0.5,0.2,0
0.029199,0.0039631,0.010286,-0.00018168,0.0030312,0.0005697,0,0,0.0094309,-0.0041768,0,0.0014812,0,0,0,0.010317,-0.0002126,0.0030312,3.1062,0.0043784,0.0093399,2.5466e-08,0.52,0.2,0
0.0294,0.0039627,0.011737,0.0003287,0.0036198,0.00039678,0,0,0.010553,-0.0042784,0,0.0010316,0,0,0,0.011751,0.00031492,0.0036198,1.9895,0.0052285,0.010194,3.5749e-08,0.54,0.2,0
0.029621,0.0039844,0.012604,0.00061765,0.0039666,0.00026085,0,0,0.011229,-0.0043537,0,0.00067822,0,0,0,0.01261,0.00061197,0.0039666,1.2461,0.0057296,0.010722,4.3042e-08,0.56,0.2,0
0.02985,0.0040203,0.0129,0.00070364,0.0040812,7.0272e-05,0,0,0.011465,-0.0043908,0,0.00018271,0,0,0,0.012901,0.00070324,0.0040812,0.3301,0.005895,0.010908,4.5743e-08,0.58,0.2,0
0.03008,0.0040699,0.012889,0.00068963,0.0040735,-0.00011877,0,0,0.01146,-0.004399,0,-0.00030881,0,0,0,0.01289,0.00068848,0.0040735,-0.55778,0.0058839,0.01091,4.5691e-08,0.6,0.2,0
0.030308,0.0041333,0.012568,0.00057339,0.0039425,-0.00030727,0,0,0.011213,-0.0043798,0,-0.00079891,0,0,0,0.012576,0.00056552,0.0039425,-1.4665,0.0056946,0.010728,4.288e-08,0.62,0.2,0
0.030528,0.0042114,0.011668,0.00024386,0.0035734,-0.00043585,0,0,0.010522,-0.0043284,0,-0.0011332,0,0,0,0.011684,0.00022726,0.0035734,-2.1818,0.0051616,0.010204,3.5441e-08,0.64,0.2,0
0.030729,0.004313,0.010191,-0.00031874,0.0029617,-0.0006056,0,0,0.0093983,-0.0042646,0,-0.0015746,0,0,0,0.010226,-0.00035352,0.0029617,-3.287,0.0042781,0.0093725,2.5143e-08,0.66,0.2,0
0.030904,0.0044265,0.0061826,-0.0015403,0.0013927,-0.00045917,0,0,0.012531,-0.0075826,0,-0.0053217,0,0,0,0.0062354,-0.0015931,0.0013927,-6.5747,0.0020117,0.006843,1.6036e-08,0.68,0.2,0
0.031193,0.0045265,0.010993,-0.00091445,0.0030236,-0.0010767,0,0,0.032446,-0.015167,0,-0.012166,0,0,0,0.011104,-0.0010255,0.0030236,-5.9735,0.0043674,0.010697,4.828e-08,0.7,0.2,0
0.032563,0.0051589,0.0084323,-0.00080788,0.0022873,-0.00097516,0,0,0.063907,-0.03219,0,-0.020283,0,0,0,0.008534,-0.00090967,0.0022873,-5.9592,0.0033039,0.0083194,1.5533e-08,0.72,0.2,0
0.033749,0.0058737,0.0079448,-0.00069724,0.0021743,-0.00046876,0,0,0.060013,-0.029864,0,-0.0097501,0,0,0,0.0079701,-0.00072259,0.0021743,-3.0957,0.0031406,0.0076664,1.2501e-08,0.74,0.2,0
0.034963,0.0065622,0.0082029,-3.3855e-05,0.0024507,-0.00032445,0,0,0.059823,-0.025839,0,-0.0067485,0,0,0,0.0082156,-4.6616e-05,0.0024507,-2.2523,0.0035399,0.0073395,1.2665e-08,0.76,0.2,0
0.036142,0.0072232,0.0082299,0.00032807,0.0025674,-0.0002552,0,0,0.05889,-0.023289,0,-0.0053082,0,0,0,0.0082381,0.00031984,0.0025674,-1.8479,0.0037084,0.0070678,1.2144e-08,0.78,0.2,0
0.037319,0.0077911,0.0083466,0.00052981,0.0026629,-0.00031258,0,0,0.05911,-0.022184,0,-0.0065017,0,0,0,0.008359,0.00051733,0.0026629,-2.2863,0.0038464,0.0070193,1.2328e-08,0.8,0.2,0
0.038506,0.0082612,0.0084501,0.0005107,0.0026883,-0.00036376,0,0,0.059923,-0.022646,0,-0.0075663,0,0,0,0.0084668,0.00049407,0.0026883,-2.6178,0.003883,0.0071333,1.2869e-08,0.82,0.2,0
0.039716,0.0086412,0.0085721,0.00042309,0.0026985,-0.0003832,0,0,0.061085,-0.023665,0,-0.0079705,0,0,0,0.00859,0.00040511,0.0026985,-2.6864,0.0038979,0.0073131,1.3629e-08,0.84,0.2,0
0.040949,0.0089479,0.0086783,0.00031125,0.0026969,-0.00037317,0,0,0.062207,-0.02481,0,-0.0077618,0,0,0,0.0086949,0.00029464,0.0026969,-2.5486,0.0038955,0.0074937,1.4363e-08,0.86,0.2,0
0.042204,0.0091941,0.0087622,0.00019349,0.0026867,-0.00034402,0,0,0.063185,-0.02593,0,-0.0071555,0,0,0,0.008776,0.0001797,0.0026867,-2.2954,0.0038808,0.0076571,1.5e-08,0.88,0.2,0
0.043477,0.0093894,0.0088272,8.2437e-05,0.0026729,-0.00030174,0,0,0.064005,-0.026941,0,-0.0062762,0,0,0,0.0088376,7.2038e-05,0.0026729,-1.9739,0.0038608,0.0077975,1.5531e-08,0.9,0.2,0
0.044764,0.0095409,0.0088763,-1.4232e-05,0.0026586,-0.00025019,0,0,0.064664,-0.027797,0,-0.005204,0,0,0,0.0088833,-2.1267e-05,0.0026586,-1.6107,0.0038402,0.0079126,1.5954e-08,0.92,0.2,0
0.046063,0.0096538,0.0089119,-9.2027e-05,0.002646,-0.00019226,0,0,0.065166,-0.028475,0,-0.003999,0,0,0,0.008916,-9.613e-05,0.002646,-1.2227,0.0038219,0.0080016,1.6274e-08,0.94,0.2,0
0.047371,0.0097319,0.0089359,-0.00014861,0.0026362,-0.00013018,0,0,0.065517,-0.028962,0,-0.0027078,0,0,0,0.0089378,-0.00015047,0.0026362,-0.82083,0.0038078,0.0080645,1.6496e-08,0.96,0.2,0
0.048684,0.0097779,0.0089497,-0.00018285,0.0026301,-6.5654e-05,0,0,0.065725,-0.029254,0,-0.0013656,0,0,0,0.0089502,-0.00018333,0.0026301,-0.41187,0.003799,0.0081019,1.6626e-08,0.98,0.2,0
0.05,0.009793,0.0089543,-0.00019431,0.002628,3.644e-05,0,0,0.065793,-0.029352,0,0.00075796,0,0,0,0.0089544,-0.00019446,0.002628,0.22822,0.003796,0.0081145,1.667e-08,1,0.2,0
0,0,0.0083599,0.0035828,0.0035828,0.0015238,0,0,0.049682,-4.3368e-19,0,0.031695,0,0,0,0.0088046,0.0031381,0.0035828,16.268,0.0051752,0.0054577,8.1627e-09,0,0.22,0
0.00099363,0.0006339,0.0083245,0.0031715,0.0034488,0.0015204,0,0,0.050707,-0.0028838,0,0.031624,0,0,0,0.0087396,0.0027564,0.0034488,15.272,0.0049816,0.0056688,8.8875e-09,0.02,0.22,0
0.0020283,0.0012496,0.0084599,0.0028353,0.0033886,0.0014938,0,0,0.052742,-0.0057542,0,0.031071,0,0,0,0.008832,0.0024631,0.0033886,13.988,0.0048946,0.0059603,9.9969e-09,0.04,0.22,0
0.0031033,0.0018455,0.0085909,0.0025054,0.0033289,0.0014613,0,0,0.054725,-0.008564,0,0.030395,0,0,0,0.0089236,0.0021727,0.0033289,12.827,0.0048084,0.0062535,1.1127e-08,0.06,0.22,0
0.0042173,0.0024186,0.0087146,0.0021891,0.0032711,0.00142,0,0,0.056612,-0.011253,0,0.029535,0,0,0,0.0090102,0.0018935,0.0032711,11.759,0.004725,0.0065377,1.2231e-08,0.08,0.22,0
0.0053678,0.0029649,0.0088284,0.0018935,0.0032166,0.0013695,0,0,0.058363,-0.013759,0,0.028486,0,0,0,0.009089,0.0016329,0.0032166,10.776,0.0046462,0.006804,1.327e-08,0.1,0.22,0
0.0065518,0.00348,0.0089301,0.0016247,0.0031664,0.0013117,0,0,0.059942,-0.016034,0,0.027284,0,0,0,0.0091585,0.0013964,0.0031664,9.877,0.0045737,0.0070458,1.4214e-08,0.12,0.22,0
0.0077655,0.00396,0.0090185,0.0013872,0.0031217,0.0012496,0,0,0.061327,-0.018039,0,0.025991,0,0,0,0.0092179,0.0011878,0.0031217,9.0663,0.0045091,0.0072591,1.5045e-08,0.14,0.22,0
0.0090049,0.0044017,0.0090936,0.0011835,0.0030831,0.0011864,0,0,0.062509,-0.019756,0,0.024678,0,0,0,0.0092677,0.0010094,0.0030831,8.3491,0.0044534,0.0074414,1.5753e-08,0.16,0.22,0
0.010266,0.0048022,0.0091556,0.001015,0.0030512,0.0011255,0,0,0.063486,-0.021176,0,0.023411,0,0,0,0.0093083,0.00086226,0.0030512,7.7285,0.0044072,0.0075921,1.6336e-08,0.18,0.22,0
0.011544,0.0051593,0.0092054,0.00088207,0.0030262,0.0010694,0,0,0.064263,-0.022299,0,0.022244,0,0,0,0.0093406,0.00074687,0.0030262,7.2057,0.0043712,0.007711,1.6796e-08,0.2,0.22,0
0.012836,0.0054713,0.0092439,0.00078437,0.0030085,0.0010201,0,0,0.064848,-0.023131,0,0.021217,0,0,0,0.0093651,0.0006631,0.0030085,6.7794,0.0043456,0.0077985,1.7137e-08,0.22,0.22,0
0.014138,0.0057362,0.0092717,0.00072118,0.0029979,0.00097855,0,0,0.065248,-0.023678,0,0.020354,0,0,0,0.0093823,0.00061062,0.0029979,6.446,0.0043303,0.007855,1.736e-08,0.24,0.22,0
0.015446,0.0059519,0.0092893,0.00069147,0.0029942,0.00094518,0,0,0.065468,-0.023949,0,0.01966,0,0,0,0.0093919,0.00058879,0.0029942,6.2001,0.004325,0.0078808,1.7468e-08,0.26,0.22,0
0.016757,0.0061158,0.0092961,0.00069368,0.0029969,0.00091949,0,0,0.065512,-0.023954,0,0.019125,0,0,0,0.0093933,0.0005965,0.0029969,6.0334,0.0043289,0.0078759,1.7457e-08,0.28,0.22,0
0.018067,0.0062239,0.009291,0.00072534,0.0030049,0.00090002,0,0,0.065376,-0.023707,0,0.018721,0,0,0,0.0093846,0.0006318,0.0030049,5.9339,0.0043404,0.0078404,1.7322e-08,0.3,0.22,0
0.019372,0.0062703,0.0092704,0.00078211,0.0030158,0.00088388,0,0,0.065048,-0.02323,0,0.018385,0,0,0,0.0093614,0.00069105,0.0030158,5.8821,0.0043561,0.0077733,1.7048e-08,0.32,0.22,0
0.020669,0.0062461,0.0092268,0.00085631,0.0030249,0.0008652,0,0,0.064499,-0.022554,0,0.017996,0,0,0,0.0093153,0.00076781,0.0030249,5.84,0.0043693,0.0076721,1.6604e-08,0.34,0.22,0
0.021952,0.0061371,0.0091428,0.00093028,0.0030219,0.0008297,0,0,0.063657,-0.021753,0,0.017258,0,0,0,0.0092258,0.00084729,0.0030219,5.7116,0.004365,0.0075305,1.5923e-08,0.36,0.22,0
0.023215,0.0059188,0.009037,0.00098775,0.0030074,0.00073974,0,0,0.062707,-0.021004,0,0.015387,0,0,0,0.0091044,0.00092033,0.0030074,5.2075,0.004344,0.0073657,1.5105e-08,0.38,0.22,0
0.02446,0.0055462,0.0090586,0.00092354,0.0029946,0.00061155,0,0,0.063065,-0.021539,0,0.01272,0,0,0,0.0091043,0.00087782,0.0029946,4.2752,0.0043256,0.0073988,1.5204e-08,0.4,0.22,0
0.025738,0.0050376,0.008755,6.3227e-05,0.0026455,0.00050807,0,0,0.063539,-0.026855,0,0.010568,0,0,0,0.0087846,3.363e-05,0.0026455,3.334,0.0038212,0.0077811,1.5326e-08,0.42,0.22,0
0.027002,0.0044044,0.0092542,-0.0003834,0.0026612,0.00092151,0,0,0.068567,-0.031664,0,0.019167,0,0,0,0.0093415,-0.00047072,0.0026612,5.413,0.003844,0.0086809,1.9453e-08,0.44,0.22,0
0.02848,0.0038385,0.012184,-0.0002086,0.0035927,0.00061986,0,0,0.034994,-0.015022,0,0.0097184,0,0,0,0.01224,-0.00026461,0.0035927,3.938,0.0051895,0.011091,6.1162e-08,0.46,0.22,0
0.028791,0.0038309,0.0070958,-0.00049494,0.0019802,-8.9584e-05,0,0,0.013445,-0.0062699,0,0.00081981,0,0,0,0.0071022,-0.00050136,0.0019802,0.87713,0.0028604,0.0067161,2.1696e-08,0.48,0.22,0
0.028976,0.0038675,0.010379,-0.0012148,0.0027492,-0.00040375,0,0,0.0099183,-0.0051531,0,-0.0010498,0,0,0,0.010393,-0.0012288,0.0027492,-1.9922,0.003971,0.01023,2.8289e-08,0.5,0.22,0
0.029188,0.0038809,0.011433,5.8057e-05,0.0034473,-0.00035001,0,0,0.010381,-0.004406,0,-0.00091002,0,0,0,0.011444,4.7297e-05,0.0034473,-1.7608,0.0049795,0.010134,3.387e-08,0.52,0.22,0
0.029392,0.0038845,0.011513,0.00056957,0.0036249,-0.00021101,0,0,0.010255,-0.0039719,0,-0.00054863,0,0,0,0.011517,0.0005655,0.0036249,-1.1042,0.005236,0.0097877,3.2771e-08,0.54,0.22,0
0.029598,0.0039039,0.011759,0.00072426,0.0037449,-6.4439e-05,0,0,0.010418,-0.0039269,0,-0.00016754,0,0,0,0.011759,0.00072388,0.0037449,-0.33458,0.0054093,0.0098776,3.4335e-08,0.56,0.22,0
0.029808,0.003939,0.011949,0.00080808,0.003827,-1.7799e-05,0,0,0.010558,-0.0039246,0,-4.6277e-05,0,0,0,0.011949,0.00080805,0.003827,-0.091538,0.0055279,0.0099796,3.5739e-08,0.58,0.22,0
0.03002,0.0039884,0.011931,0.00079214,0.0038171,-3.6984e-06,0,0,0.010549,-0.0039324,0,-9.6158e-06,0,0,0,0.011931,0.00079214,0.0038171,-0.019023,0.0055136,0.009977,3.5643e-08,0.6,0.22,0
0.03023,0.0040523,0.011706,0.00067442,0.0037141,4.7752e-05,0,0,0.010389,-0.0039517,0,0.00012416,0,0,0,0.011706,0.00067422,0.0037141,0.24801,0.0053649,0.0098697,3.4045e-08,0.62,0.22,0
0.030436,0.0041324,0.011428,0.00048102,0.0035726,0.00020296,0,0,0.010212,-0.004019,0,0.00052771,0,0,0,0.011431,0.00047725,0.0035726,1.0619,0.0051604,0.0097809,3.2332e-08,0.64,0.22,0
0.030639,0.0042289,0.011312,-9.8597e-05,0.0033639,0.00035278,0,0,0.010332,-0.0045013,0,0.00091722,0,0,0,0.011323,-0.00010949,0.0033639,1.7692,0.004859,0.010151,3.3291e-08,0.66,0.22,0
0.030849,0.0043162,0.010236,-0.0014589,0.0026332,0.00039631,0,0,0.0098838,-0.0053197,0,0.0010304,0,0,0,0.010249,-0.0014723,0.0026332,1.9386,0.0038035,0.010302,2.7596e-08,0.68,0.22,0
0.031034,0.0043791,0.0069946,-0.00070978,0.0018855,9.4205e-05,0,0,0.013433,-0.0065973,0,-0.00078208,0,0,0,0.007001,-0.0007161,0.0018855,-0.81082,0.0027234,0.0068005,2.1296e-08,0.7,0.22,0
0.031344,0.0044906,0.011973,-0.00070774,0.0033795,-0.00053261,0,0,0.035041,-0.016158,0,-0.0086857,0,0,0,0.012016,-0.00075141,0.0033795,-3.3939,0.0048815,0.011285,6.011e-08,0.72,0.22,0
0.032826,0.0052152,0.0091199,-0.00082144,0.0024895,-0.00077356,0,0,0.068956,-0.034434,0,-0.01609,0,0,0,0.0091798,-0.00088127,0.0024895,-4.4228,0.003596,0.0088698,1.9179e-08,0.74,0.22,0
0.034103,0.0060263,0.0086453,-0.0003574,0.0024864,-0.0003019,0,0,0.064053,-0.029575,0,-0.0062796,0,0,0,0.0086555,-0.00036751,0.0024864,-1.9185,0.0035914,0.007988,1.5361e-08,0.76,0.22,0
0.035388,0.0067412,0.0089337,0.00051033,0.0028332,-0.00033952,0,0,0.063445,-0.024158,0,-0.007062,0,0,0,0.0089473,0.00049667,0.0028332,-2.3044,0.0040924,0.0075583,1.5241e-08,0.78,0.22,0
0.03664,0.007338,0.0089109,0.00059103,0.0028506,-0.00042502,0,0,0.063027,-0.023499,0,-0.0088405,0,0,0,0.0089325,0.00056937,0.0028506,-2.9169,0.0041175,0.0074879,1.5008e-08,0.8,0.22,0
0.037909,0.0077945,0.0090148,0.00052022,0.0028605,-0.00047626,0,0,0.064005,-0.024339,0,-0.0099061,0,0,0,0.0090414,0.0004936,0.0028605,-3.199,0.0041319,0.0076443,1.5746e-08,0.82,0.22,0
0.039201,0.0081523,0.0091104,0.00041432,0.0028574,-0.00047216,0,0,0.065031,-0.025408,0,-0.0098209,0,0,0,0.009136,0.00038876,0.0028574,-3.0987,0.0041274,0.0078112,1.6488e-08,0.84,0.22,0
0.04051,0.0084354,0.009173,0.00028449,0.0028372,-0.00044305,0,0,0.065892,-0.026549,0,-0.0092155,0,0,0,0.009195,0.00026246,0.0028372,-2.8466,0.0040982,0.0079637,1.7093e-08,0.86,0.22,0
0.041836,0.0086591,0.0092192,0.00015241,0.0028115,-0.00039898,0,0,0.06664,-0.027654,0,-0.0082989,0,0,0,0.0092367,0.00013489,0.0028115,-2.5148,0.004061,0.0081022,1.7605e-08,0.88,0.22,0
0.043176,0.0088341,0.0092545,3.0644e-05,0.0027855,-0.00034389,0,0,0.067277,-0.028651,0,-0.0071529,0,0,0,0.0092673,1.7841e-05,0.0027855,-2.1322,0.0040236,0.0082227,1.8031e-08,0.9,0.22,0
0.044527,0.0089684,0.0092811,-7.3151e-05,0.0027624,-0.00028119,0,0,0.067794,-0.029489,0,-0.0058487,0,0,0,0.0092895,-8.1596e-05,0.0027624,-1.7202,0.0039901,0.0083219,1.8368e-08,0.92,0.22,0
0.045888,0.0090678,0.0093,-0.00015537,0.0027434,-0.00021371,0,0,0.068189,-0.030147,0,-0.0044452,0,0,0,0.0093048,-0.0001602,0.0027434,-1.2941,0.0039627,0.0083985,1.862e-08,0.94,0.22,0
0.047255,0.0091363,0.0093124,-0.00021449,0.0027294,-0.00014355,0,0,0.068463,-0.030616,0,-0.0029859,0,0,0,0.0093145,-0.00021666,0.0027294,-0.86309,0.0039424,0.0084524,1.8792e-08,0.96,0.22,0
0.048626,0.0091764,0.0093193,-0.00025003,0.0027208,-7.2047e-05,0,0,0.068625,-0.030896,0,-0.0014986,0,0,0,0.0093198,-0.00025057,0.0027208,-0.43134,0.00393,0.0084844,1.8892e-08,0.98,0.22,0
0.05,0.0091897,0.0093215,-0.00026187,0.0027179,3.1806e-05,0,0,0.068678,-0.03099,0,0.00066156,0,0,0,0.0093216,-0.00026198,0.0027179,0.19015,0.0039258,0.0084951,1.8926e-08,1,0.22,0
0,0,0.0084252,0.0036108,0.0036108,0.0013844,0,0,0.05007,-8.6736e-19,0,0.028796,0,0,0,0.0087949,0.0032411,0.0036108,14.952,0.0052156,0.0053785,7.864e-09,0,0.24,0
0.0010014,0.00057593,0.0083888,0.0031945,0.003475,0.0013816,0,0,0.051103,-0.0029169,0,0.028738,0,0,0,0.0087334,0.0028499,0.003475,14.006,0.0050194,0.0055972,8.6285e-09,0.02,0.24,0
0.0020441,0.0011344,0.0085267,0.0028617,0.0034165,0.0013578,0,0,0.053146,-0.0057703,0,0.028241,0,0,0,0.0088353,0.0025531,0.0034165,12.805,0.0049349,0.0058981,9.781e-09,0.04,0.24,0
0.0031272,0.0016748,0.0086608,0.0025393,0.00336,0.0013304,0,0,0.055128,-0.0085355,0,0.027672,0,0,0,0.0089374,0.0022627,0.00336,11.746,0.0048534,0.0061993,1.0955e-08,0.06,0.24,0
0.0042493,0.0021947,0.0087895,0.0022319,0.0033064,0.0012968,0,0,0.057024,-0.011175,0,0.026973,0,0,0,0.0090366,0.0019847,0.0033064,10.79,0.0047759,0.0064927,1.2117e-08,0.08,0.24,0
0.0054082,0.0026911,0.0089111,0.0019444,0.0032566,0.0012563,0,0,0.058806,-0.013648,0,0.026132,0,0,0,0.0091307,0.0017247,0.0032566,9.9164,0.004704,0.0067713,1.3235e-08,0.1,0.24,0
0.0066015,0.0031608,0.0090241,0.0016813,0.0032116,0.00121,0,0,0.06045,-0.015915,0,0.025167,0,0,0,0.0092183,0.001487,0.0032116,9.1201,0.004639,0.0070295,1.4285e-08,0.12,0.24,0
0.0078262,0.0036004,0.0091276,0.0014463,0.0031722,0.0011597,0,0,0.061937,-0.017949,0,0.024122,0,0,0,0.0092989,0.001275,0.0031722,8.401,0.004582,0.0072636,1.5248e-08,0.14,0.24,0
0.009079,0.0040071,0.0092216,0.0012421,0.0031391,0.0011082,0,0,0.063258,-0.019729,0,0.023051,0,0,0,0.0093727,0.001091,0.0031391,7.7619,0.0045343,0.0074712,1.6116e-08,0.16,0.24,0
0.010356,0.0043781,0.0093063,0.0010703,0.003113,0.0010582,0,0,0.06441,-0.021244,0,0.02201,0,0,0,0.0094401,0.00093654,0.003113,7.2056,0.0044965,0.0076511,1.6883e-08,0.18,0.24,0
0.011655,0.0047115,0.0093825,0.00093192,0.0030943,0.0010119,0,0,0.065397,-0.022489,0,0.021048,0,0,0,0.009502,0.00081244,0.0030943,6.7341,0.0044696,0.007803,1.7549e-08,0.2,0.24,0
0.012972,0.0050053,0.0094512,0.00082732,0.0030836,0.00097136,0,0,0.066224,-0.023465,0,0.020204,0,0,0,0.0095593,0.00071926,0.0030836,6.3476,0.004454,0.0079269,1.8118e-08,0.22,0.24,0
0.014304,0.0052576,0.0095137,0.00075662,0.0030811,0.00093768,0,0,0.066899,-0.024175,0,0.019504,0,0,0,0.009613,0.00065734,0.0030811,6.0438,0.0044505,0.0080232,1.8593e-08,0.24,0.24,0
0.015648,0.0054661,0.0095715,0.00071967,0.0030873,0.00091137,0,0,0.067435,-0.024624,0,0.018957,0,0,0,0.0096643,0.00062681,0.0030873,5.8178,0.0044595,0.0080928,1.8979e-08,0.26,0.24,0
0.017002,0.005628,0.0096261,0.00071592,0.0031026,0.00089205,0,0,0.067845,-0.024822,0,0.018555,0,0,0,0.0097146,0.00062748,0.0031026,5.6613,0.0044815,0.0081369,1.9283e-08,0.28,0.24,0
0.018362,0.0057389,0.00968,0.00074416,0.0031272,0.00087848,0,0,0.068149,-0.024784,0,0.018272,0,0,0,0.0097655,0.00065862,0.0031272,5.5618,0.0045171,0.0081577,1.9516e-08,0.3,0.24,0
0.019728,0.0057927,0.0097358,0.00080201,0.0031613,0.00086844,0,0,0.068375,-0.024537,0,0.018064,0,0,0,0.0098195,0.00071837,0.0031613,5.501,0.0045664,0.0081587,1.9692e-08,0.32,0.24,0
0.021097,0.0057798,0.0097949,0.00088419,0.0032037,0.00085815,0,0,0.068548,-0.024123,0,0.017849,0,0,0,0.0098768,0.0008023,0.0032037,5.4511,0.0046276,0.0081438,1.9824e-08,0.34,0.24,0
0.02247,0.0056852,0.009852,0.00098082,0.0032498,0.00084176,0,0,0.068662,-0.023598,0,0.017508,0,0,0,0.0099312,0.00090165,0.0032498,5.3727,0.0046942,0.0081144,1.9891e-08,0.36,0.24,0
0.023844,0.0054843,0.0098249,0.0010374,0.0032587,0.00079136,0,0,0.068289,-0.023102,0,0.01646,0,0,0,0.0098956,0.00096666,0.0032587,5.105,0.004707,0.0080321,1.9489e-08,0.38,0.24,0
0.025201,0.0051184,0.0097396,0.001058,0.0032393,0.00061358,0,0,0.067603,-0.022685,0,0.012762,0,0,0,0.0097828,0.0010149,0.0032393,4.0228,0.004679,0.0078943,1.8668e-08,0.4,0.24,0
0.026548,0.0044484,0.010235,0.00019869,0.00313,0.00075045,0,0,0.073887,-0.030485,0,0.015609,0,0,0,0.01029,0.00014289,0.00313,4.2529,0.0045211,0.0090323,2.4363e-08,0.42,0.24,0
0.028157,0.0037501,0.013598,-0.0001931,0.0040214,0.00019981,0,0,0.03846,-0.016172,0,0.0070562,0,0,0,0.013632,-0.00022744,0.0040214,2.0569,0.0058087,0.012299,8.6162e-08,0.44,0.24,0
0.028506,0.0036984,0.0080361,-0.000113,0.0023769,-0.0004168,0,0,0.014999,-0.0063009,0,-0.0016508,0,0,0,0.0080582,-0.00013509,0.0023769,-2.3361,0.0034334,0.0072707,2.9997e-08,0.46,0.24,0
0.028707,0.0037338,0.011469,-0.00049273,0.003293,-0.00057713,0,0,0.010629,-0.0049215,0,-0.0015005,0,0,0,0.011497,-0.00052051,0.003293,-2.7558,0.0047566,0.010637,3.6096e-08,0.48,0.24,0
0.028931,0.0037685,0.011832,-0.00049823,0.0034003,-0.00037855,0,0,0.010962,-0.0050681,0,-0.00098422,0,0,0,0.011844,-0.00050984,0.0034003,-1.7567,0.0049115,0.010936,3.9382e-08,0.5,0.24,0
0.029146,0.0037869,0.011569,-0.00020391,0.0034096,-0.00048787,0,0,0.010608,-0.0046976,0,-0.0012685,0,0,0,0.01159,-0.0002241,0.0034096,-2.3689,0.004925,0.01048,3.6057e-08,0.52,0.24,0
0.029355,0.0038038,0.011558,0.00040884,0.0035902,-0.00038332,0,0,0.010359,-0.0041358,0,-0.00099663,0,0,0,0.011572,0.00039568,0.0035902,-1.9667,0.0051859,0.0099703,3.3843e-08,0.54,0.24,0
0.02956,0.0038273,0.011495,0.00068379,0.0036535,-0.00021938,0,0,0.010193,-0.0038606,0,-0.00057038,0,0,0,0.011499,0.00067934,0.0036535,-1.162,0.0052773,0.0096815,3.2208e-08,0.56,0.24,0
0.029763,0.0038633,0.011491,0.00078074,0.0036815,-6.4827e-05,0,0,0.010152,-0.003771,0,-0.00016855,0,0,0,0.011491,0.00078035,0.0036815,-0.34678,0.0053178,0.0095952,3.178e-08,0.58,0.24,0
0.029966,0.0039126,0.011474,0.00076182,0.0036707,7.547e-05,0,0,0.010144,-0.0037816,0,0.00019622,0,0,0,0.011475,0.00076129,0.0036707,0.40364,0.0053022,0.0095952,3.1704e-08,0.6,0.24,0
0.030169,0.0039752,0.011443,0.00062597,0.0036208,0.00023695,0,0,0.010169,-0.0038933,0,0.00061608,0,0,0,0.011449,0.00062078,0.0036208,1.2543,0.00523,0.0096828,3.1981e-08,0.62,0.24,0
0.030373,0.0040507,0.011471,0.00030521,0.003533,0.00041234,0,0,0.01032,-0.0041961,0,0.0010721,0,0,0,0.011487,0.00029,0.003533,2.112,0.0051032,0.0099785,3.345e-08,0.64,0.24,0
0.030582,0.0041329,0.011448,-0.00036524,0.0033247,0.00052361,0,0,0.01056,-0.004797,0,0.0013614,0,0,0,0.011471,-0.0003884,0.0033247,2.533,0.0048024,0.010507,3.5465e-08,0.66,0.24,0
0.030795,0.0042137,0.011669,-0.0007421,0.003278,0.00041253,0,0,0.010908,-0.0052262,0,0.0010726,0,0,0,0.011683,-0.0007558,0.003278,1.9017,0.0047349,0.010991,3.8535e-08,0.68,0.24,0
0.031018,0.004278,0.011306,-0.00079837,0.0031523,0.00058552,0,0,0.0106,-0.0051359,0,0.0015224,0,0,0,0.011334,-0.00082663,0.0031523,2.7629,0.0045534,0.010739,3.5439e-08,0.7,0.24,0
0.031219,0.00434,0.0079264,-0.0003936,0.0022598,0.00044044,0,0,0.015027,-0.0067432,0,0.0018263,0,0,0,0.0079503,-0.00041752,0.0022598,2.5051,0.0032642,0.007402,2.9771e-08,0.72,0.24,0
0.03157,0.0044964,0.013345,-0.00088138,0.0037391,-5.3722e-05,0,0,0.038617,-0.017751,0,-0.0054117,0,0,0,0.013371,-0.00090697,0.0037391,-1.31,0.0054009,0.012614,8.5219e-08,0.74,0.24,0
0.033186,0.0053792,0.010069,-0.00036781,0.0029104,-0.00052619,0,0,0.074451,-0.034093,0,-0.010945,0,0,0,0.010096,-0.00039427,0.0029104,-2.8789,0.0042039,0.0092894,2.4297e-08,0.76,0.24,0
0.034548,0.0062569,0.0096308,0.00062955,0.0030781,-0.0003376,0,0,0.068148,-0.025465,0,-0.0070222,0,0,0,0.0096434,0.0006169,0.0030781,-2.145,0.0044462,0.0080821,1.8878e-08,0.78,0.24,0
0.035912,0.0068511,0.0096951,0.00060209,0.0030892,-0.00047784,0,0,0.068702,-0.025865,0,-0.009939,0,0,0,0.0097202,0.00057705,0.0030892,-2.9999,0.0044621,0.0081816,1.9447e-08,0.8,0.24,0
0.037296,0.0072876,0.0097451,0.00054249,0.0030863,-0.00050334,0,0,0.069252,-0.026455,0,-0.010469,0,0,0,0.0097725,0.00051504,0.0030863,-3.1214,0.0044579,0.008277,1.9929e-08,0.82,0.24,0
0.038682,0.0076249,0.0097161,0.00040777,0.0030372,-0.00049133,0,0,0.069461,-0.027346,0,-0.01022,0,0,0,0.0097419,0.00038191,0.0030372,-3.0131,0.004387,0.0083551,2.0073e-08,0.84,0.24,0
0.040074,0.007886,0.0096953,0.00025467,0.002985,-0.00046293,0,0,0.069788,-0.028396,0,-0.0096289,0,0,0,0.009718,0.00023202,0.002985,-2.8006,0.0043117,0.0084527,2.0288e-08,0.86,0.24,0
0.041474,0.008088,0.0096855,0.0001041,0.0029369,-0.000417,0,0,0.070186,-0.029461,0,-0.0086736,0,0,0,0.0097037,8.5987e-05,0.0029369,-2.4873,0.0042422,0.0085562,2.0543e-08,0.88,0.24,0
0.042882,0.0082434,0.0096822,-2.8891e-05,0.002896,-0.00035791,0,0,0.070577,-0.030419,0,-0.0074446,0,0,0,0.0096954,-4.2065e-05,0.002896,-2.1079,0.0041831,0.0086511,2.0785e-08,0.9,0.24,0
0.044297,0.0083613,0.0096802,-0.00013891,0.0028624,-0.00029074,0,0,0.070905,-0.031214,0,-0.0060473,0,0,0,0.0096888,-0.00014751,0.0028624,-1.6945,0.0041346,0.0087296,2.0979e-08,0.92,0.24,0
0.045718,0.0084479,0.009678,-0.00022423,0.0028361,-0.00021951,0,0,0.071155,-0.031828,0,-0.0045659,0,0,0,0.0096829,-0.00022909,0.0028361,-1.2693,0.0040966,0.0087898,2.1119e-08,0.94,0.24,0
0.047143,0.0085073,0.0096757,-0.00028471,0.0028173,-0.00014666,0,0,0.071327,-0.032261,0,-0.0030505,0,0,0,0.0096779,-0.00028687,0.0028173,-0.84339,0.0040694,0.0088317,2.1211e-08,0.96,0.24,0
0.048571,0.008542,0.009674,-0.00032073,0.002806,-7.3353e-05,0,0,0.071427,-0.032518,0,-0.0015257,0,0,0,0.0096745,-0.00032127,0.002806,-0.42047,0.0040531,0.0088564,2.1263e-08,0.98,0.24,0
0.05,0.0085535,0.0096733,-0.00033269,0.0028022,2.7482e-05,0,0,0.07146,-0.032603,0,0.00057163,0,0,0,0.0096734,-0.00033277,0.0028022,0.15737,0.0040476,0.0088646,2.128e-08,1,0.24,0
0,0,0.0084867,0.0036371,0.0036371,0.0012433,0,0,0.050435,-8.6736e-19,0,0.025861,0,0,0,0.0087868,0.0033369,0.0036371,13.574,0.0052536,0.0053062,7.5903e-09,0,0.26,0
0.0010087,0.00051723,0.0084493,0.0032157,0.0034995,0.0012409,0,0,0.051478,-0.0029516,0,0.02581,0,0,0,0.0087286,0.0029364,0.0034995,12.685,0.0050548,0.0055322,8.3928e-09,0.02,0.26,0
0.0020591,0.0010188,0.0085895,0.0028846,0.0034422,0.0012198,0,0,0.053532,-0.0057995,0,0.025372,0,0,0,0.0088394,0.0026347,0.0034422,11.576,0.0049721,0.0058429,9.5885e-09,0.04,0.26,0
0.00315,0.0015041,0.0087264,0.0025674,0.0033881,0.0011964,0,0,0.055518,-0.0085356,0,0.024884,0,0,0,0.0089506,0.0023432,0.0033881,10.615,0.004894,0.0061519,1.0804e-08,0.06,0.26,0
0.0042798,0.0019716,0.0088594,0.0022667,0.0033378,0.0011682,0,0,0.057424,-0.01114,0,0.024299,0,0,0,0.0090602,0.0020658,0.0033378,9.7572,0.0048213,0.0064531,1.2014e-08,0.08,0.26,0
0.0054469,0.002419,0.0089874,0.0019856,0.0032919,0.0011346,0,0,0.059233,-0.013585,0,0.0236,0,0,0,0.0091667,0.0018064,0.0032919,8.9788,0.004755,0.0067415,1.3196e-08,0.1,0.26,0
0.0066492,0.0028433,0.0091098,0.0017275,0.0032512,0.0010961,0,0,0.06093,-0.015846,0,0.022799,0,0,0,0.0092692,0.0015682,0.0032512,8.2695,0.0046962,0.0070126,1.4331e-08,0.12,0.26,0
0.0078841,0.003242,0.0092262,0.0014952,0.0032164,0.0010541,0,0,0.062502,-0.0179,0,0.021925,0,0,0,0.0093673,0.0013541,0.0032164,7.6266,0.0046459,0.0072634,1.5405e-08,0.14,0.26,0
0.0091492,0.0036125,0.0093364,0.0012911,0.0031883,0.0010106,0,0,0.063941,-0.01973,0,0.02102,0,0,0,0.0094614,0.0011661,0.0031883,7.0511,0.0046053,0.0074917,1.6409e-08,0.16,0.26,0
0.010442,0.0039524,0.009441,0.0011171,0.0031674,0.00096777,0,0,0.065245,-0.021324,0,0.02013,0,0,0,0.009552,0.0010061,0.0031674,6.5451,0.0045752,0.0076964,1.7338e-08,0.18,0.26,0
0.011759,0.0042598,0.0095409,0.00097439,0.0031546,0.00092771,0,0,0.066417,-0.022674,0,0.019296,0,0,0,0.0096402,0.00087507,0.0031546,6.1105,0.0045566,0.0078768,1.8194e-08,0.2,0.26,0
0.013098,0.0045327,0.0096373,0.00086409,0.0031504,0.00089202,0,0,0.067463,-0.023778,0,0.018554,0,0,0,0.0097271,0.00077431,0.0031504,5.7472,0.0045506,0.0080327,1.8978e-08,0.22,0.26,0
0.014458,0.0047692,0.009732,0.0007871,0.0031557,0.00086167,0,0,0.068393,-0.024634,0,0.017923,0,0,0,0.0098142,0.00070484,0.0031557,5.4526,0.0045583,0.0081646,1.9696e-08,0.24,0.26,0
0.015834,0.004967,0.0098273,0.00074425,0.0031715,0.00083672,0,0,0.069221,-0.025243,0,0.017404,0,0,0,0.0099037,0.00066781,0.0031715,5.2195,0.004581,0.0082732,2.0356e-08,0.26,0.26,0
0.017226,0.0051229,0.0099268,0.00073635,0.0031989,0.00081596,0,0,0.06997,-0.025611,0,0.016972,0,0,0,0.0099987,0.00066447,0.0031989,5.0345,0.0046207,0.0083602,2.0974e-08,0.28,0.26,0
0.018633,0.0052325,0.010036,0.00076409,0.0032401,0.0007966,0,0,0.070681,-0.025751,0,0.016569,0,0,0,0.010104,0.00069615,0.0032401,4.8748,0.0046802,0.0084292,2.1577e-08,0.3,0.26,0
0.020054,0.0052888,0.010166,0.00082799,0.0032983,0.0007735,0,0,0.071428,-0.025691,0,0.016089,0,0,0,0.01023,0.00076436,0.0032983,4.7031,0.0047642,0.0084873,2.2221e-08,0.32,0.26,0
0.02149,0.0052812,0.010337,0.00092941,0.00338,0.0007386,0,0,0.072355,-0.025486,0,0.015363,0,0,0,0.010395,0.00087177,0.00338,4.4618,0.0048822,0.0085495,2.3027e-08,0.34,0.26,0
0.022948,0.0051932,0.010591,0.0010735,0.0034994,0.00067516,0,0,0.073754,-0.025229,0,0.014043,0,0,0,0.010639,0.0010259,0.0034994,4.0375,0.0050547,0.0086457,2.4261e-08,0.36,0.26,0
0.02444,0.0049947,0.011062,0.0013033,0.0037097,0.00055939,0,0,0.076469,-0.025027,0,0.011635,0,0,0,0.011095,0.0012713,0.0037097,3.2699,0.0053585,0.0088593,2.6801e-08,0.38,0.26,0
0.026007,0.0046388,0.01203,0.0017086,0.0041216,9.3217e-05,0,0,0.082248,-0.025096,0,0.0019389,0,0,0,0.012031,0.0017077,0.0041216,0.5174,0.0059534,0.0093529,3.2773e-08,0.4,0.26,0
0.02773,0.0038182,0.016924,-0.00053763,0.0049161,0.00062933,0,0,0.044112,-0.017898,0,0.0071602,0,0,0,0.016954,-0.00056692,0.0049161,2.7094,0.007101,0.015527,1.9035e-07,0.42,0.26,0
0.028192,0.0035921,0.010353,0.00069333,0.0033139,-0.0008024,0,0,0.019248,-0.0068641,0,-0.0062648,0,0,0,0.010428,0.00061878,0.0033139,-6.2789,0.0047868,0.0087774,5.7142e-08,0.44,0.26,0
0.028424,0.0036005,0.012956,0.00016126,0.0039351,-0.00049726,0,0,0.011727,-0.004906,0,-0.0012929,0,0,0,0.012975,0.00014196,0.0039351,-2.2224,0.005684,0.011419,4.9e-08,0.46,0.26,0
0.028661,0.0036341,0.012564,-0.00019522,0.0037106,-0.00011686,0,0,0.011509,-0.0050776,0,-0.00030384,0,0,0,0.012565,-0.00019629,0.0037106,-0.52471,0.0053598,0.011325,4.5777e-08,0.48,0.26,0
0.028884,0.0036647,0.011912,-0.00045218,0.003438,-0.00023196,0,0,0.011016,-0.0050572,0,-0.00060309,0,0,0,0.011916,-0.00045652,0.003438,-1.0744,0.004966,0.010958,3.9929e-08,0.5,0.26,0
0.029101,0.003693,0.011691,-0.00011847,0.0034717,-0.00030178,0,0,0.010685,-0.0046672,0,-0.00078462,0,0,0,0.011698,-0.00012618,0.0034717,-1.4629,0.0050146,0.010499,3.6759e-08,0.52,0.26,0
0.029311,0.0037191,0.011481,0.00025238,0.00352,-0.00030713,0,0,0.010349,-0.004248,0,-0.00079855,0,0,0,0.011489,0.00024398,0.00352,-1.5656,0.0050845,0.010018,3.3631e-08,0.54,0.26,0
0.029515,0.0037495,0.011362,0.00054637,0.0035725,-0.00020588,0,0,0.010126,-0.0039339,0,-0.00053529,0,0,0,0.011366,0.00054245,0.0035725,-1.0901,0.0051602,0.0096711,3.1547e-08,0.56,0.26,0
0.029716,0.0037882,0.011292,0.00066729,0.0035879,-6.0574e-05,0,0,0.010016,-0.0037968,0,-0.00015749,0,0,0,0.011293,0.00066694,0.0035879,-0.32663,0.0051825,0.009508,3.0507e-08,0.58,0.26,0
0.029916,0.0038372,0.01128,0.0006438,0.0035772,9.8692e-05,0,0,0.010014,-0.0038134,0,0.0002566,0,0,0,0.011281,0.00064289,0.0035772,0.53157,0.005167,0.0095166,3.0491e-08,0.6,0.26,0
0.030117,0.0038966,0.011323,0.00047494,0.0035394,0.0002537,0,0,0.010119,-0.0039838,0,0.00065963,0,0,0,0.011329,0.00046901,0.0035394,1.339,0.0051125,0.0096965,3.1485e-08,0.62,0.26,0
0.030321,0.0039645,0.011411,0.0001307,0.0034624,0.00037067,0,0,0.010333,-0.0043312,0,0.00096374,0,0,0,0.011423,0.00011854,0.0034624,1.8801,0.0050012,0.010058,3.3454e-08,0.64,0.26,0
0.03053,0.004037,0.011577,-0.00029493,0.0033847,0.00037976,0,0,0.01065,-0.0047835,0,0.00098738,0,0,0,0.011589,-0.00030706,0.0033847,1.8303,0.004889,0.010547,3.6314e-08,0.66,0.26,0
0.030747,0.0041071,0.011753,-0.00068014,0.0033219,0.00030802,0,0,0.01096,-0.0052026,0,0.00080086,0,0,0,0.011761,-0.00068777,0.0033219,1.4183,0.0047983,0.011006,3.91e-08,0.68,0.26,0
0.030969,0.0041737,0.012363,-0.00049229,0.0035613,0.00017309,0,0,0.011442,-0.0052696,0,0.00045003,0,0,0,0.012365,-0.00049462,0.0035613,0.77125,0.0051441,0.011388,4.4688e-08,0.7,0.26,0
0.031204,0.0042366,0.012797,-0.0002144,0.0037748,0.00050246,0,0,0.011729,-0.005186,0,0.0013064,0,0,0,0.012816,-0.00023377,0.0037748,2.2082,0.0054525,0.011579,4.871e-08,0.72,0.26,0
0.031438,0.0043232,0.01028,0.00031059,0.0031772,0.00085708,0,0,0.019442,-0.0075143,0,0.0067691,0,0,0,0.010363,0.00022758,0.0031772,6.5438,0.0045893,0.0090296,5.8499e-08,0.74,0.26,0
0.031904,0.0046626,0.016678,-0.001493,0.0045556,-0.00039714,0,0,0.044406,-0.020097,0,-0.0044259,0,0,0,0.016689,-0.001504,0.0045556,-1.6274,0.0065803,0.016049,1.9118e-07,0.76,0.26,0
0.033635,0.0057226,0.011887,0.0012306,0.0039352,0.00020446,0,0,0.082696,-0.028127,0,0.0042528,0,0,0,0.011891,0.0012267,0.0039352,1.0988,0.0056842,0.0096006,3.3549e-08,0.78,0.26,0
0.035212,0.0063034,0.010945,0.00084835,0.0035381,-0.00026442,0,0,0.077035,-0.027973,0,-0.0055,0,0,0,0.010952,0.00084143,0.0035381,-1.4991,0.0051106,0.0090683,2.719e-08,0.8,0.26,0
0.036717,0.0067363,0.010508,0.00063003,0.0033415,-0.0003675,0,0,0.074535,-0.028199,0,-0.007644,0,0,0,0.010522,0.00061638,0.0033415,-2.1276,0.0048266,0.0088631,2.4692e-08,0.82,0.26,0
0.038194,0.0070584,0.0103,0.0004323,0.0032198,-0.00042318,0,0,0.073637,-0.02899,0,-0.0088021,0,0,0,0.010318,0.00041419,0.0032198,-2.4511,0.0046508,0.0088418,2.3824e-08,0.84,0.26,0
0.039662,0.0072996,0.01019,0.00023107,0.0031262,-0.0004268,0,0,0.07346,-0.03011,0,-0.0088774,0,0,0,0.010208,0.00021281,0.0031262,-2.4495,0.0045157,0.0089034,2.3596e-08,0.86,0.26,0
0.041132,0.0074806,0.010129,5.5508e-05,0.0030555,-0.00039407,0,0,0.07357,-0.0312,0,-0.0081966,0,0,0,0.010145,4.0116e-05,0.0030555,-2.2367,0.0044135,0.0089849,2.3601e-08,0.88,0.26,0
0.042605,0.0076173,0.010089,-9.0015e-05,0.0029996,-0.00033976,0,0,0.073726,-0.032132,0,-0.0070671,0,0,0,0.0101,-0.00010134,0.0029996,-1.9097,0.0043327,0.0090581,2.3638e-08,0.9,0.26,0
0.044081,0.0077198,0.010057,-0.00020562,0.0029554,-0.0002753,0,0,0.073855,-0.032874,0,-0.0057263,0,0,0,0.010064,-0.000213,0.0029554,-1.5355,0.0042689,0.0091158,2.3655e-08,0.92,0.26,0
0.045559,0.0077947,0.010032,-0.00029292,0.0029216,-0.00020694,0,0,0.073945,-0.033431,0,-0.0043043,0,0,0,0.010036,-0.00029707,0.0029216,-1.1478,0.0042201,0.0091581,2.3652e-08,0.94,0.26,0
0.047039,0.0078459,0.010013,-0.00035375,0.0028978,-0.00013769,0,0,0.074,-0.033816,0,-0.002864,0,0,0,0.010015,-0.00035558,0.0028978,-0.7608,0.0041858,0.0091866,2.364e-08,0.96,0.26,0
0.048519,0.0078757,0.010002,-0.00038961,0.0028837,-6.8677e-05,0,0,0.074029,-0.034042,0,-0.0014285,0,0,0,0.010002,-0.00039006,0.0028837,-0.37865,0.0041653,0.009203,2.3628e-08,0.98,0.26,0
0.05,0.0078856,0.0099979,-0.00040145,0.0028789,2.3631e-05,0,0,0.074038,-0.034116,0,0.00049152,0,0,0,0.009998,-0.00040151,0.0028789,0.13019,0.0041585,0.0092085,2.3624e-08,1,0.26,0
0,0,0.0085401,0.00366,0.00366,0.0011006,0,0,0.050752,-2.1684e-19,0,0.022893,0,0,0,0.0087768,0.0034233,0.00366,12.139,0.0052867,0.0052392,7.3352e-09,0,0.28,0
0.001015,0.00045786,0.0085019,0.0032343,0.0035209,0.0010984,0,0,0.051803,-0.00298,0,0.022846,0,0,0,0.0087218,0.0030145,0.0035209,11.319,0.0050857,0.0054717,8.1712e-09,0.02,0.28,0
0.0020721,0.00090246,0.0086441,0.0029045,0.0034646,0.0010801,0,0,0.053867,-0.0058245,0,0.022466,0,0,0,0.0088406,0.002708,0.0034646,10.313,0.0050044,0.0057915,9.4054e-09,0.04,0.28,0
0.0031697,0.0013333,0.0087832,0.0025914,0.0034124,0.0010597,0,0,0.055856,-0.0085378,0,0.022042,0,0,0,0.0089596,0.0024151,0.0034124,9.448,0.004929,0.0061072,1.0655e-08,0.06,0.28,0
0.0043064,0.0017491,0.0089195,0.0022962,0.0033647,0.0010353,0,0,0.05777,-0.011113,0,0.021534,0,0,0,0.0090775,0.0021381,0.0033647,8.6801,0.0048601,0.0064147,1.1903e-08,0.08,0.28,0
0.0054805,0.0021477,0.0090527,0.0020206,0.003322,0.0010061,0,0,0.0596,-0.013535,0,0.020927,0,0,0,0.0091938,0.0018795,0.003322,7.9839,0.0047984,0.0067104,1.3134e-08,0.1,0.28,0
0.0066904,0.002527,0.0091827,0.0017669,0.0032849,0.00097241,0,0,0.061337,-0.015787,0,0.020226,0,0,0,0.0093081,0.0016415,0.0032849,7.3475,0.0047448,0.0069913,1.4335e-08,0.12,0.28,0
0.007934,0.0028844,0.0093094,0.0015374,0.003254,0.00093533,0,0,0.062976,-0.017853,0,0.019455,0,0,0,0.0094203,0.0014264,0.003254,6.7666,0.0047002,0.0072549,1.5496e-08,0.14,0.28,0
0.0092094,0.0032178,0.009433,0.001334,0.0032301,0.0008964,0,0,0.06451,-0.019719,0,0.018645,0,0,0,0.009531,0.001236,0.0032301,6.2409,0.0046657,0.0074995,1.661e-08,0.16,0.28,0
0.010514,0.0035252,0.0095543,0.0011587,0.0032139,0.00085739,0,0,0.06594,-0.021374,0,0.017834,0,0,0,0.009641,0.001072,0.0032139,5.7718,0.0046423,0.0077241,1.7675e-08,0.18,0.28,0
0.011847,0.0038046,0.0096742,0.0010129,0.0032061,0.00081997,0,0,0.067268,-0.02281,0,0.017055,0,0,0,0.0097512,0.00093597,0.0032061,5.3608,0.0046311,0.0079278,1.8692e-08,0.2,0.28,0
0.013205,0.0040542,0.0097941,0.00089836,0.0032078,0.00078543,0,0,0.068499,-0.024018,0,0.016337,0,0,0,0.009863,0.00082954,0.0032078,5.0072,0.0046334,0.0081102,1.9664e-08,0.22,0.28,0
0.014587,0.0042723,0.0099159,0.00081672,0.0032198,0.00075433,0,0,0.06964,-0.024992,0,0.01569,0,0,0,0.009978,0.00075461,0.0032198,4.7071,0.0046508,0.0082711,2.0594e-08,0.24,0.28,0
0.015991,0.0044564,0.010042,0.00077009,0.0032436,0.00072608,0,0,0.070703,-0.025725,0,0.015102,0,0,0,0.010098,0.00071358,0.0032436,4.4506,0.0046853,0.0084104,2.149e-08,0.26,0.28,0
0.017415,0.0046035,0.010176,0.00076106,0.0032812,0.0006982,0,0,0.071708,-0.026209,0,0.014523,0,0,0,0.010228,0.00070957,0.0032812,4.2182,0.0047395,0.0085282,2.2363e-08,0.28,0.28,0
0.018859,0.0047089,0.010324,0.00079301,0.0033352,0.00066536,0,0,0.072688,-0.026439,0,0.013839,0,0,0,0.010371,0.00074679,0.0033352,3.9739,0.0048176,0.008626,2.3233e-08,0.3,0.28,0
0.020323,0.004765,0.010497,0.00087055,0.0034104,0.00061761,0,0,0.073705,-0.026414,0,0.012846,0,0,0,0.010537,0.00083109,0.0034104,3.6558,0.0049261,0.0087076,2.4147e-08,0.32,0.28,0
0.021807,0.0047604,0.010715,0.001001,0.0035147,0.00053669,0,0,0.07488,-0.026142,0,0.011163,0,0,0,0.010744,0.00097147,0.0035147,3.1529,0.0050768,0.0087818,2.52e-08,0.34,0.28,0
0.023318,0.0046761,0.011009,0.0011992,0.0036624,0.00039096,0,0,0.076403,-0.025617,0,0.0081319,0,0,0,0.011024,0.0011837,0.0036624,2.2786,0.0052902,0.0088652,2.6577e-08,0.36,0.28,0
0.024863,0.0044832,0.011418,0.0015027,0.0038763,9.5585e-05,0,0,0.078437,-0.024685,0,0.0019882,0,0,0,0.011419,0.0015018,0.0038763,0.55226,0.0055991,0.0089691,2.8486e-08,0.38,0.28,0
0.026455,0.0041145,0.011539,0.0018711,0.0040232,-0.0003755,0,0,0.07817,-0.022381,0,-0.0078105,0,0,0,0.011554,0.0018566,0.0040232,-2.2208,0.0058113,0.0088162,2.8157e-08,0.4,0.28,0
0.02799,0.0035964,0.010113,-0.0014759,0.0025911,-0.00014647,0,0,0.043355,-0.0093993,0,-0.0088072,0,0,0,0.010177,-0.0015405,0.0025911,-1.936,0.0037426,0.01049,1.5406e-08,0.42,0.28,0
0.028189,0.0034963,0.011555,-9.6761e-05,0.0034375,-0.00070641,0,0,0.010553,-0.0045945,0,-0.0018367,0,0,0,0.011598,-0.00013943,0.0034375,-3.4568,0.0049652,0.01042,3.5864e-08,0.44,0.28,0
0.028412,0.0035022,0.012076,-0.00011944,0.0035869,0.00019392,0,0,0.011035,-0.0048182,0,0.00050419,0,0,0,0.012079,-0.00012252,0.0035869,0.91077,0.005181,0.010834,4.0435e-08,0.46,0.28,0
0.028631,0.0035307,0.011817,-0.00036011,0.0034372,0.00014972,0,0,0.010894,-0.0049365,0,0.00038928,0,0,0,0.011819,-0.00036195,0.0034372,0.70432,0.0049648,0.010795,3.8673e-08,0.48,0.28,0
0.028848,0.0035662,0.011678,-0.00025934,0.0034256,2.7854e-05,0,0,0.010728,-0.0047904,0,7.2421e-05,0,0,0,0.011678,-0.00025941,0.0034256,0.13369,0.0049481,0.010587,3.6996e-08,0.5,0.28,0
0.02906,0.0036002,0.011481,-6.9092e-05,0.0034236,-0.00011564,0,0,0.010475,-0.0045405,0,-0.00030067,0,0,0,0.011482,-7.0249e-05,0.0034236,-0.57359,0.0049452,0.010262,3.4589e-08,0.52,0.28,0
0.029267,0.0036339,0.011343,0.00021218,0.0034666,-0.00016704,0,0,0.010239,-0.0042307,0,-0.00043429,0,0,0,0.011345,0.00020968,0.0034666,-0.85955,0.0050073,0.009917,3.2484e-08,0.54,0.28,0
0.02947,0.00367,0.011233,0.00043006,0.0034989,-0.00013211,0,0,0.010054,-0.0039895,0,-0.00034349,0,0,0,0.011234,0.00042845,0.0034989,-0.70055,0.0050539,0.0096447,3.0824e-08,0.56,0.28,0
0.029669,0.0037115,0.011175,0.00053548,0.0035133,-3.4535e-05,0,0,0.0099608,-0.0038711,0,-8.9791e-05,0,0,0,0.011176,0.00053537,0.0035133,-0.18597,0.0050747,0.0095077,2.9983e-08,0.58,0.28,0
0.029868,0.0037601,0.011172,0.00050589,0.0035033,8.7117e-05,0,0,0.0099689,-0.0038966,0,0.0002265,0,0,0,0.011172,0.00050517,0.0035033,0.46794,0.0050603,0.0095287,3.0057e-08,0.6,0.28,0
0.030068,0.0038159,0.011219,0.00034126,0.0034682,0.00019774,0,0,0.010077,-0.004065,0,0.00051413,0,0,0,0.011223,0.00033767,0.0034682,1.0411,0.0050096,0.0097063,3.1024e-08,0.62,0.28,0
0.030271,0.0038774,0.011311,6.4421e-05,0.0034126,0.00025695,0,0,0.010268,-0.0043526,0,0.00066807,0,0,0,0.011317,5.8553e-05,0.0034126,1.3081,0.0049293,0.010012,3.2717e-08,0.64,0.28,0
0.030479,0.0039416,0.011412,-0.00027212,0.003342,0.00023564,0,0,0.010491,-0.0046983,0,0.00061266,0,0,0,0.011417,-0.00027687,0.003342,1.1549,0.0048273,0.010369,3.4638e-08,0.66,0.28,0
0.030691,0.0040056,0.011537,-0.00051083,0.0033078,0.00011737,0,0,0.010698,-0.0049642,0,0.00030516,0,0,0,0.011538,-0.00051197,0.0033078,0.55812,0.004778,0.010666,3.6452e-08,0.68,0.28,0
0.030907,0.0040672,0.011576,-0.00063838,0.0032812,-1.7176e-05,0,0,0.010783,-0.0050955,0,-4.4658e-05,0,0,0,0.011576,-0.00063841,0.0032812,-0.080572,0.0047395,0.010802,3.7174e-08,0.7,0.28,0
0.031122,0.0041326,0.01178,-0.00043063,0.0034047,-0.00012307,0,0,0.010887,-0.0049859,0,-0.00031998,0,0,0,0.011781,-0.00043187,0.0034047,-0.57742,0.0049179,0.010817,3.8521e-08,0.72,0.28,0
0.031342,0.0042187,0.011277,-0.00068236,0.0031784,0.00072307,0,0,0.010528,-0.0050189,0,0.00188,0,0,0,0.011321,-0.00072592,0.0031784,3.4474,0.004591,0.010646,3.5045e-08,0.74,0.28,0
0.031543,0.004418,0.0097618,-0.0023992,0.0022088,0.00029545,0,0,0.043369,-0.010649,0,0.011371,0,0,0,0.0098515,-0.0024888,0.0022088,2.8459,0.0031905,0.011008,9.7269e-09,0.76,0.28,0
0.033077,0.0051318,0.011324,0.0012996,0.003787,0.00062038,0,0,0.078382,-0.025869,0,0.012904,0,0,0,0.011362,0.0012614,0.003787,3.5281,0.0054701,0.0091044,2.8938e-08,0.78,0.28,0
0.034678,0.0057322,0.011304,0.0010723,0.003713,0.00018343,0,0,0.078949,-0.027463,0,0.0038153,0,0,0,0.011307,0.001069,0.003713,1.0267,0.0053631,0.0092058,2.9206e-08,0.8,0.28,0
0.036235,0.0061597,0.010948,0.00079878,0.003524,-0.00015449,0,0,0.077208,-0.028342,0,-0.0032135,0,0,0,0.01095,0.00079643,0.003524,-0.87192,0.0050902,0.0091018,2.7324e-08,0.82,0.28,0
0.037767,0.0064653,0.010717,0.00047253,0.003357,-0.00030914,0,0,0.076549,-0.029998,0,-0.0064302,0,0,0,0.010727,0.00046321,0.003357,-1.7268,0.004849,0.0091659,2.6668e-08,0.84,0.28,0
0.039297,0.0066816,0.010604,0.0002136,0.0032454,-0.0003532,0,0,0.076535,-0.031531,0,-0.0073465,0,0,0,0.010616,0.00020161,0.0032454,-1.9446,0.0046879,0.0092755,2.6601e-08,0.86,0.28,0
0.040828,0.00684,0.010523,1.096e-05,0.0031601,-0.00033494,0,0,0.076572,-0.032751,0,-0.0069668,0,0,0,0.010533,2.9814e-07,0.0031601,-1.8232,0.0045646,0.0093621,2.653e-08,0.88,0.28,0
0.04236,0.0069581,0.010453,-0.00014672,0.0030918,-0.0002898,0,0,0.076554,-0.033681,0,-0.0060278,0,0,0,0.010461,-0.00015463,0.0030918,-1.565,0.004466,0.0094214,2.6392e-08,0.9,0.28,0
0.04389,0.0070463,0.010393,-0.00026688,0.003038,-0.00023402,0,0,0.076497,-0.03437,0,-0.0048676,0,0,0,0.010399,-0.00027201,0.003038,-1.257,0.0043882,0.0094604,2.6222e-08,0.92,0.28,0
0.04542,0.0071106,0.010346,-0.00035513,0.0029972,-0.00017506,0,0,0.076426,-0.034864,0,-0.0036412,0,0,0,0.010349,-0.000358,0.0029972,-0.93697,0.0043293,0.0094851,2.606e-08,0.94,0.28,0
0.046947,0.0071546,0.010311,-0.0004155,0.0029687,-0.00011598,0,0,0.076361,-0.035195,0,-0.0024125,0,0,0,0.010312,-0.00041676,0.0029687,-0.61942,0.0042881,0.0095001,2.5929e-08,0.96,0.28,0
0.048474,0.0071804,0.01029,-0.00045069,0.0029518,-5.7687e-05,0,0,0.076317,-0.035386,0,-0.0011999,0,0,0,0.01029,-0.000451,0.0029518,-0.30772,0.0042637,0.0095081,2.5846e-08,0.98,0.28,0
0.05,0.0071888,0.010283,-0.00046226,0.0029462,2.0348e-05,0,0,0.076302,-0.035448,0,0.00042324,0,0,0,0.010283,-0.00046229,0.0029462,0.1085,0.0042556,0.0095107,2.5818e-08,1,0.28,0
0,0,0.0085822,0.0036781,0.0036781,0.0009568,0,0,0.051003,8.6736e-19,0,0.019901,0,0,0,0.0087623,0.003498,0.0036781,10.658,0.0053128,0.0051766,7.0954e-09,0,0.3,0
0.0010201,0.00039803,0.0085436,0.00325,0.0035381,0.00095453,0,0,0.052057,-0.0029959,0,0.019854,0,0,0,0.0087104,0.0030832,0.0035381,9.9156,0.0051106,0.0054142,7.9575e-09,0.02,0.3,0
0.0020823,0.00078578,0.0086869,0.0029219,0.0034826,0.00093922,0,0,0.054124,-0.0058319,0,0.019536,0,0,0,0.008836,0.0027727,0.0034826,9.0237,0.0050305,0.0057414,9.221e-09,0.04,0.3,0
0.003185,0.0011626,0.0088274,0.0026126,0.003432,0.00092121,0,0,0.056112,-0.0085218,0,0.019161,0,0,0,0.0089611,0.0024789,0.003432,8.2564,0.0049574,0.0060621,1.0495e-08,0.06,0.3,0
0.0043268,0.0015271,0.008966,0.0023223,0.0033865,0.0008991,0,0,0.058027,-0.011068,0,0.018701,0,0,0,0.0090855,0.0022027,0.0033865,7.5724,0.0048916,0.0063739,1.1768e-08,0.08,0.3,0
0.0055061,0.0018776,0.0091029,0.0020517,0.0033464,0.00087232,0,0,0.059868,-0.013465,0,0.018144,0,0,0,0.0092092,0.0019454,0.0033464,6.9486,0.0048337,0.0066745,1.3032e-08,0.1,0.3,0
0.0067215,0.0022119,0.0092384,0.0018023,0.0033122,0.00084109,0,0,0.061633,-0.015703,0,0.017495,0,0,0,0.0093324,0.0017084,0.0033122,6.3734,0.0047843,0.0069621,1.4279e-08,0.12,0.3,0
0.0079714,0.0025279,0.0093729,0.0015758,0.0032846,0.00080623,0,0,0.063318,-0.017772,0,0.016769,0,0,0,0.0094554,0.0014933,0.0032846,5.8421,0.0047445,0.0072347,1.5503e-08,0.14,0.3,0
0.0092542,0.0028237,0.0095069,0.0013739,0.0032642,0.00076897,0,0,0.064924,-0.01966,0,0.015994,0,0,0,0.009579,0.0013018,0.0032642,5.354,0.004715,0.0074913,1.67e-08,0.16,0.3,0
0.010568,0.0030974,0.0096412,0.0011982,0.0032518,0.00073073,0,0,0.066449,-0.021357,0,0.015199,0,0,0,0.0097039,0.0011355,0.0032518,4.9103,0.0046971,0.0077307,1.787e-08,0.18,0.3,0
0.011912,0.0033474,0.0097768,0.0010507,0.0032482,0.00069289,0,0,0.067897,-0.022854,0,0.014412,0,0,0,0.0098314,0.00099604,0.0032482,4.5119,0.0046919,0.0079522,1.9014e-08,0.2,0.3,0
0.013284,0.003572,0.009915,0.0009334,0.0032545,0.00065647,0,0,0.069269,-0.02414,0,0.013654,0,0,0,0.0099627,0.00088567,0.0032545,4.1583,0.004701,0.0081549,2.0134e-08,0.22,0.3,0
0.014683,0.0037695,0.010057,0.00084886,0.0032718,0.00062175,0,0,0.070569,-0.025199,0,0.012932,0,0,0,0.010099,0.00080707,0.0032718,3.8453,0.004726,0.0083375,2.123e-08,0.24,0.3,0
0.016107,0.003938,0.010205,0.00080053,0.0033017,0.00058774,0,0,0.071797,-0.026013,0,0.012225,0,0,0,0.010242,0.00076394,0.0033017,3.5622,0.0047692,0.0084981,2.2302e-08,0.26,0.3,0
0.017555,0.0040746,0.010361,0.00079318,0.0033462,0.00055129,0,0,0.072952,-0.026551,0,0.011467,0,0,0,0.010393,0.00076152,0.0033462,3.2869,0.0048334,0.0086338,2.3341e-08,0.28,0.3,0
0.019025,0.004175,0.010526,0.00083356,0.0034079,0.00050567,0,0,0.074028,-0.026773,0,0.010518,0,0,0,0.010552,0.00080725,0.0034079,2.9785,0.0049225,0.0087399,2.433e-08,0.3,0.3,0
0.020516,0.0042322,0.010703,0.00093134,0.0034903,0.00043829,0,0,0.075012,-0.026613,0,0.0091165,0,0,0,0.010723,0.00091172,0.0034903,2.5631,0.0050415,0.0088093,2.5235e-08,0.32,0.3,0
0.022025,0.0042355,0.010892,0.0011005,0.0035976,0.00032795,0,0,0.075858,-0.025971,0,0.0068213,0,0,0,0.010903,0.0010895,0.0035976,1.9162,0.0051966,0.0088304,2.5982e-08,0.34,0.3,0
0.02355,0.0041685,0.011078,0.0013641,0.0037327,0.00013952,0,0,0.076394,-0.024634,0,0.0029019,0,0,0,0.01108,0.0013621,0.0037327,0.82266,0.0053917,0.0087764,2.6368e-08,0.36,0.3,0
0.025081,0.0040073,0.011157,0.0017476,0.0038713,-0.00015441,0,0,0.075768,-0.022086,0,-0.0032118,0,0,0,0.011159,0.001745,0.0038713,-0.93995,0.0055918,0.0085516,2.5549e-08,0.38,0.3,0
0.026581,0.0037435,0.011076,0.0024893,0.0040697,-0.00049594,0,0,0.07287,-0.016436,0,-0.010316,0,0,0,0.011105,0.0024607,0.0040697,-3.2945,0.0058785,0.0079626,2.2402e-08,0.4,0.3,0
0.027996,0.0034422,0.010809,1.3625e-05,0.0032468,-0.00072808,0,0,0.040786,-0.0074722,0,-0.0085642,0,0,0,0.010863,-4.0299e-05,0.0032468,-4.2247,0.0046898,0.0098082,2.4416e-08,0.42,0.3,0
0.028212,0.0034083,0.011104,-0.00057865,0.0031575,-0.00029192,0,0,0.01033,-0.0048571,0,-0.000759,0,0,0,0.011111,-0.00058594,0.0031575,-1.4305,0.0045609,0.010346,3.2804e-08,0.44,0.3,0
0.028409,0.0034078,0.010807,-0.00042407,0.0031149,8.4009e-05,0,0,0.0099997,-0.0046006,0,0.00021842,0,0,0,0.010808,-0.0004247,0.0031149,0.42855,0.0044993,0.0099466,2.9816e-08,0.46,0.3,0
0.028612,0.0034366,0.011097,-0.000255,0.0032527,0.00021343,0,0,0.010198,-0.00456,0,0.00055492,0,0,0,0.011101,-0.00025901,0.0032527,1.0767,0.0046984,0.010075,3.1817e-08,0.48,0.3,0
0.028817,0.0034731,0.011179,-0.00015063,0.0033086,0.00010869,0,0,0.010232,-0.004497,0,0.0002826,0,0,0,0.01118,-0.00015167,0.0033086,0.5496,0.0047791,0.010059,3.2181e-08,0.5,0.3,0
0.029022,0.0035114,0.011188,2.5447e-05,0.003364,-6.2146e-06,0,0,0.010171,-0.0043401,0,-1.6158e-05,0,0,0,0.011188,2.5444e-05,0.003364,-0.031899,0.004859,0.0099235,3.1711e-08,0.52,0.3,0
0.029224,0.0035498,0.011146,0.00021028,0.0034069,-7.3393e-05,0,0,0.010061,-0.0041556,0,-0.00019082,0,0,0,0.011147,0.00020979,0.0034069,-0.3845,0.0049211,0.00974,3.0792e-08,0.54,0.3,0
0.029424,0.0035899,0.011104,0.00036226,0.0034399,-7.0656e-05,0,0,0.0099635,-0.004001,0,-0.00018371,0,0,0,0.011105,0.0003618,0.0034399,-0.37685,0.0049688,0.009582,2.9965e-08,0.56,0.3,0
0.029623,0.0036333,0.01108,0.0004304,0.0034532,-1.5623e-05,0,0,0.0099152,-0.0039296,0,-4.062e-05,0,0,0,0.01108,0.00043038,0.0034532,-0.084051,0.004988,0.0095061,2.9547e-08,0.58,0.3,0
0.029821,0.0036813,0.011088,0.00039408,0.0034447,6.3287e-05,0,0,0.0099366,-0.0039658,0,0.00016454,0,0,0,0.011088,0.0003937,0.0034447,0.33905,0.0049756,0.0095424,2.9732e-08,0.6,0.3,0
0.03002,0.003734,0.011127,0.00025343,0.003414,0.00013369,0,0,0.010027,-0.0041088,0,0.00034759,0,0,0,0.011128,0.00025178,0.003414,0.70432,0.0049314,0.0096905,3.0509e-08,0.62,0.3,0
0.030222,0.0037904,0.011178,3.0134e-05,0.0033626,0.00016786,0,0,0.010161,-0.0043322,0,0.00043642,0,0,0,0.011181,2.7607e-05,0.0033626,0.86242,0.0048571,0.0099158,3.1647e-08,0.64,0.3,0
0.030426,0.0038491,0.011214,-0.00022228,0.0032976,0.00014968,0,0,0.010292,-0.0045758,0,0.00038917,0,0,0,0.011216,-0.00022424,0.0032976,0.74971,0.0047631,0.010149,3.2704e-08,0.66,0.3,0
0.030634,0.0039085,0.011157,-0.00045539,0.0032106,0.00010018,0,0,0.010331,-0.0047658,0,0.00026046,0,0,0,0.011158,-0.00045625,0.0032106,0.49422,0.0046375,0.010284,3.2863e-08,0.68,0.3,0
0.03084,0.0039698,0.010918,-0.00060243,0.0030946,6.5775e-05,0,0,0.01017,-0.0048061,0,0.00017102,0,0,0,0.010918,-0.0006028,0.0030946,0.32712,0.0044699,0.010188,3.1192e-08,0.7,0.3,0
0.03104,0.0040372,0.010332,-0.0007539,0.0028734,0.00017277,0,0,0.0096959,-0.0047154,0,0.0004492,0,0,0,0.010334,-0.00075659,0.0028734,0.89266,0.0041504,0.0097943,2.6869e-08,0.72,0.3,0
0.031228,0.0041225,0.010842,-0.00071612,0.0030378,0.00040371,0,0,0.010146,-0.0048801,0,0.0010496,0,0,0,0.010856,-0.00073021,0.0030378,1.998,0.0043879,0.010237,3.0991e-08,0.74,0.3,0
0.031446,0.0042366,0.010294,-0.0011383,0.0027466,0.00067233,0,0,0.040245,-0.0089785,0,0.0096626,0,0,0,0.01035,-0.0011951,0.0027466,4.1302,0.0039673,0.010312,1.9653e-08,0.76,0.3,0
0.032837,0.0046879,0.010685,0.0017679,0.0037359,0.00070934,0,0,0.072272,-0.020468,0,0.014754,0,0,0,0.010741,0.0017118,0.0037359,4.5198,0.0053963,0.0082068,2.2672e-08,0.78,0.3,0
0.034337,0.0052049,0.011026,0.0015464,0.0037717,0.00030082,0,0,0.075445,-0.023144,0,0.0062571,0,0,0,0.011036,0.0015369,0.0037717,1.8157,0.0054481,0.0086019,2.5401e-08,0.8,0.3,0
0.035855,0.0056026,0.010965,0.00092597,0.0035674,-5.6905e-05,0,0,0.076939,-0.027471,0,-0.0011836,0,0,0,0.010966,0.00092565,0.0035674,-0.32475,0.0051529,0.0090143,2.7013e-08,0.82,0.3,0
0.037415,0.0058585,0.010992,0.00049853,0.0034471,-0.00022802,0,0,0.078464,-0.030665,0,-0.0047428,0,0,0,0.010997,0.00049358,0.0034471,-1.2443,0.0049791,0.0093817,2.8672e-08,0.84,0.3,0
0.038994,0.0060384,0.010945,0.00019852,0.0033429,-0.00026177,0,0,0.079058,-0.032702,0,-0.0054447,0,0,0,0.010951,0.00019215,0.0033429,-1.3946,0.0048287,0.0095803,2.9243e-08,0.86,0.3,0
0.040577,0.0061706,0.010854,-2.5975e-05,0.0032484,-0.00024571,0,0,0.079098,-0.034053,0,-0.0051107,0,0,0,0.010859,-3.1521e-05,0.0032484,-1.2931,0.0046921,0.0096773,2.9162e-08,0.88,0.3,0
0.042158,0.0062701,0.010759,-0.00019305,0.0031697,-0.00021024,0,0,0.078925,-0.034972,0,-0.004373,0,0,0,0.010763,-0.00019709,0.0031697,-1.0994,0.0045784,0.0097238,2.8847e-08,0.9,0.3,0
0.043734,0.006345,0.010674,-0.00031621,0.0031073,-0.00016812,0,0,0.078692,-0.035604,0,-0.0034969,0,0,0,0.010676,-0.00031878,0.0031073,-0.87622,0.0044883,0.0097448,2.8484e-08,0.92,0.3,0
0.045305,0.0064001,0.010606,-0.00040445,0.0030603,-0.00012473,0,0,0.07847,-0.036034,0,-0.0025944,0,0,0,0.010607,-0.00040586,0.0030603,-0.64898,0.0044205,0.0097531,2.8158e-08,0.94,0.3,0
0.046873,0.006438,0.010556,-0.00046379,0.0030277,-8.2114e-05,0,0,0.078295,-0.036311,0,-0.001708,0,0,0,0.010557,-0.0004644,0.0030277,-0.42691,0.0043733,0.0097556,2.7909e-08,0.96,0.3,0
0.048437,0.0064603,0.010526,-0.00049802,0.0030084,-4.0678e-05,0,0,0.078184,-0.036467,0,-0.00084609,0,0,0,0.010526,-0.00049817,0.0030084,-0.21141,0.0043455,0.0097558,2.7755e-08,0.98,0.3,0
0.05,0.0064677,0.010516,-0.0005092,0.0030021,1.7659e-05,0,0,0.078146,-0.036517,0,0.00036731,0,0,0,0.010516,-0.00050923,0.0030021,0.09177,0.0043363,0.0097558,2.7703e-08,1,0.3,0
0,0,0.0086106,0.0036903,0.0036903,0.00081257,0,0,0.051172,-1.0842e-18,0,0.016901,0,0,0,0.0087414,0.0035596,0.0036903,9.1388,0.0053304,0.0051177,6.869e-09,0,0.32,0
0.0010234,0.00033803,0.0085718,0.0032623,0.0035502,0.00081021,0,0,0.052224,-0.0029944,0,0.016852,0,0,0,0.0086927,0.0031414,0.0035502,8.486,0.0051281,0.0053586,7.7477e-09,0.02,0.32,0
0.002089,0.00066919,0.0087153,0.0029368,0.0034956,0.00079787,0,0,0.054284,-0.0058116,0,0.016596,0,0,0,0.0088234,0.0028287,0.0034956,7.7188,0.0050493,0.0056907,9.028e-09,0.04,0.32,0
0.0031948,0.00099246,0.0088562,0.0026318,0.0034464,0.00078176,0,0,0.056262,-0.0084719,0,0.016261,0,0,0,0.0089529,0.0025351,0.0034464,7.0503,0.0049782,0.0060142,1.0313e-08,0.06,0.32,0
0.0043395,0.0013064,0.0089958,0.0023465,0.0034027,0.00076096,0,0,0.058168,-0.010985,0,0.015828,0,0,0,0.0090818,0.0022605,0.0034027,6.446,0.004915,0.006328,1.1598e-08,0.08,0.32,0
0.0055216,0.0016091,0.0091348,0.002081,0.0033647,0.00073513,0,0,0.060008,-0.013351,0,0.015291,0,0,0,0.0092105,0.0020052,0.0033647,5.8869,0.0048601,0.006631,1.2878e-08,0.1,0.32,0
0.0067398,0.0018988,0.0092737,0.0018361,0.0033329,0.00070447,0,0,0.061784,-0.015567,0,0.014653,0,0,0,0.0093398,0.00177,0.0033329,5.3634,0.0048143,0.006922,1.415e-08,0.12,0.32,0
0.0079929,0.0021735,0.0094133,0.0016131,0.0033079,0.00066969,0,0,0.063496,-0.017626,0,0.013929,0,0,0,0.0094704,0.001556,0.0033079,4.8716,0.0047781,0.0072001,1.5412e-08,0.14,0.32,0
0.0092796,0.0024315,0.0095543,0.0014134,0.0032903,0.00063178,0,0,0.065145,-0.01952,0,0.013141,0,0,0,0.009603,0.0013646,0.0032903,4.4113,0.0047526,0.0074642,1.6662e-08,0.16,0.32,0
0.010599,0.0026709,0.0096975,0.0012385,0.0032808,0.00059194,0,0,0.066734,-0.02124,0,0.012312,0,0,0,0.0097387,0.0011973,0.0032808,3.9835,0.0047389,0.0077137,1.7903e-08,0.18,0.32,0
0.011949,0.0028904,0.009844,0.0010905,0.0032803,0.00055133,0,0,0.068262,-0.022775,0,0.011468,0,0,0,0.0098786,0.0010559,0.0032803,3.5898,0.0047383,0.0079475,1.9135e-08,0.2,0.32,0
0.013329,0.0030886,0.0099949,0.00097176,0.00329,0.00051088,0,0,0.069731,-0.02411,0,0.010626,0,0,0,0.010024,0.00094293,0.00329,3.2302,0.0047522,0.0081643,2.0359e-08,0.22,0.32,0
0.014738,0.0032643,0.010151,0.00088569,0.003311,0.00047094,0,0,0.071136,-0.025223,0,0.0097956,0,0,0,0.010175,0.00086182,0.003311,2.9023,0.0047825,0.0083619,2.1571e-08,0.24,0.32,0
0.016175,0.0034159,0.010313,0.00083693,0.0033448,0.00043084,0,0,0.072464,-0.026082,0,0.0089614,0,0,0,0.010332,0.00081738,0.0033448,2.598,0.0048314,0.0085363,2.2759e-08,0.26,0.32,0
0.017637,0.0035415,0.010478,0.00083232,0.0033933,0.00038808,0,0,0.073687,-0.026634,0,0.008072,0,0,0,0.010494,0.00081673,0.0033933,2.3001,0.0049014,0.0086808,2.3888e-08,0.28,0.32,0
0.019122,0.003638,0.010646,0.00088198,0.0034583,0.00033717,0,0,0.074749,-0.026794,0,0.007013,0,0,0,0.010657,0.00087035,0.0034583,1.9754,0.0049953,0.0087837,2.489e-08,0.3,0.32,0
0.020627,0.0037005,0.010806,0.0010009,0.003542,0.00026806,0,0,0.075543,-0.026428,0,0.0055757,0,0,0,0.010813,0.00099355,0.003542,1.5649,0.0051162,0.0088258,2.5636e-08,0.32,0.32,0
0.022144,0.0037216,0.010942,0.0012111,0.0036461,0.00016492,0,0,0.075882,-0.025324,0,0.0034304,0,0,0,0.010945,0.0012083,0.0036461,0.97067,0.0052665,0.0087758,2.5893e-08,0.34,0.32,0
0.023662,0.0036907,0.011018,0.0015424,0.0037682,1.1946e-05,0,0,0.0754,-0.023148,0,0.00024847,0,0,0,0.011018,0.0015424,0.0037682,0.07223,0.0054429,0.0085822,2.5252e-08,0.36,0.32,0
0.02516,0.0035997,0.010998,0.0020582,0.0039168,-0.0001841,0,0,0.073642,-0.019329,0,-0.0038293,0,0,0,0.011002,0.0020544,0.0039168,-1.1793,0.0056576,0.0081766,2.3241e-08,0.38,0.32,0
0.026608,0.0034571,0.010899,0.0028107,0.0041129,-0.00035451,0,0,0.070575,-0.013543,0,-0.0073738,0,0,0,0.010914,0.0027952,0.0041129,-2.5049,0.0059408,0.0075472,1.9829e-08,0.4,0.32,0
0.027983,0.0032975,0.01057,0.00013997,0.0032129,-0.00041347,0,0,0.039646,-0.0071019,0,-0.0051031,0,0,0,0.010589,0.00012115,0.0032129,-2.5407,0.0046409,0.0094302,2.2596e-08,0.42,0.32,0
0.028193,0.003302,0.010654,-0.0014155,0.0027715,-0.00033025,0,0,0.010247,-0.0054431,0,-0.00085864,0,0,0,0.010663,-0.0014245,0.0027715,-1.5662,0.0040033,0.01063,3.0873e-08,0.44,0.32,0
0.028393,0.0033182,0.010627,-0.00047424,0.0030458,-6.355e-05,0,0,0.0098555,-0.0045761,0,-0.00016523,0,0,0,0.010627,-0.00047461,0.0030458,-0.32798,0.0043995,0.0098267,2.8492e-08,0.46,0.32,0
0.028588,0.0033483,0.010675,-0.00020824,0.0031401,5.9123e-05,0,0,0.0097956,-0.0043528,0,0.00015372,0,0,0,0.010675,-0.00020856,0.0031401,0.31124,0.0045356,0.0096555,2.8186e-08,0.48,0.32,0
0.028785,0.0033863,0.010832,-3.7229e-05,0.0032386,4.9658e-05,0,0,0.009872,-0.0042585,0,0.00012911,0,0,0,0.010833,-3.7456e-05,0.0032386,0.26175,0.0046779,0.0096582,2.8964e-08,0.5,0.32,0
0.028983,0.0034266,0.01093,9.7192e-05,0.0033083,-1.082e-05,0,0,0.0099087,-0.0041744,0,-2.8133e-05,0,0,0,0.01093,9.7182e-05,0.0033083,-0.057228,0.0047786,0.0096376,2.936e-08,0.52,0.32,0
0.029181,0.0034677,0.010979,0.00022583,0.0033616,-5.0069e-05,0,0,0.0099033,-0.0040765,0,-0.00013018,0,0,0,0.01098,0.0002256,0.0033616,-0.26676,0.0048556,0.0095792,2.9373e-08,0.54,0.32,0
0.029379,0.0035099,0.010998,0.00032243,0.0033961,-4.9906e-05,0,0,0.0098823,-0.0039958,0,-0.00012976,0,0,0,0.010998,0.00032219,0.0033961,-0.26784,0.0049055,0.0095188,2.9224e-08,0.56,0.32,0
0.029576,0.0035543,0.01101,0.00035901,0.0034107,-1.5208e-05,0,0,0.0098791,-0.0039672,0,-3.9541e-05,0,0,0,0.01101,0.00035899,0.0034107,-0.08181,0.0049266,0.0095002,2.9205e-08,0.58,0.32,0
0.029774,0.0036014,0.01103,0.0003164,0.0034038,3.6317e-05,0,0,0.0099137,-0.0040137,0,9.4425e-05,0,0,0,0.01103,0.00031627,0.0034038,0.19423,0.0049166,0.0095517,2.9499e-08,0.6,0.32,0
0.029973,0.0036515,0.011059,0.00019451,0.0033761,8.4871e-05,0,0,0.0099879,-0.004136,0,0.00022066,0,0,0,0.01106,0.00019385,0.0033761,0.44754,0.0048766,0.0096755,3.0123e-08,0.62,0.32,0
0.030173,0.0037041,0.011088,1.2831e-05,0.0033302,0.00011504,0,0,0.010085,-0.0043126,0,0.0002991,0,0,0,0.011089,1.1637e-05,0.0033302,0.59505,0.0048103,0.0098469,3.0921e-08,0.64,0.32,0
0.030376,0.0037586,0.011094,-0.00019874,0.0032685,0.00012776,0,0,0.010173,-0.0045075,0,0.00033219,0,0,0,0.011095,-0.00020018,0.0032685,0.64813,0.0047212,0.010022,3.1597e-08,0.66,0.32,0
0.03058,0.0038149,0.011051,-0.0004108,0.0031921,0.00015432,0,0,0.010217,-0.0046838,0,0.00040122,0,0,0,0.011053,-0.00041288,0.0031921,0.77121,0.0046108,0.010155,3.1836e-08,0.68,0.32,0
0.030785,0.0038749,0.010904,-0.00064826,0.0030767,0.0002876,0,0,0.010175,-0.0048424,0,0.00074777,0,0,0,0.010911,-0.00065542,0.0030767,1.4253,0.0044441,0.010225,3.1267e-08,0.7,0.32,0
0.030987,0.003944,0.010548,-0.0010181,0.0028588,0.00062265,0,0,0.0099953,-0.00504,0,0.0016189,0,0,0,0.010581,-0.0010515,0.0028588,3.0727,0.0041294,0.010253,2.9447e-08,0.72,0.32,0
0.031185,0.0040235,0.0094873,-0.0020226,0.0022394,0.00077761,0,0,0.0094222,-0.0055406,0,0.0020218,0,0,0,0.0095396,-0.0020749,0.0022394,3.8476,0.0032347,0.010169,2.3102e-08,0.74,0.32,0
0.031364,0.0040588,0.0092436,-0.00063865,0.0025815,0.00070674,0,0,0.037853,-0.0074421,0,0.0075233,0,0,0,0.0092952,-0.00069034,0.0025815,4.2639,0.0037288,0.0089644,1.3575e-08,0.76,0.32,0
0.032699,0.0043131,0.0099985,0.0020983,0.003629,-0.00028359,0,0,0.066242,-0.01592,0,-0.0058986,0,0,0,0.010009,0.0020881,0.003629,-2.0532,0.0052419,0.0072736,1.6812e-08,0.78,0.32,0
0.034014,0.0048064,0.010413,0.0015812,0.0035984,-3.4179e-06,0,0,0.070877,-0.020979,0,-7.1092e-05,0,0,0,0.010413,0.0015812,0.0035984,-0.022172,0.0051977,0.0080164,2.0917e-08,0.8,0.32,0
0.035534,0.0050608,0.011142,0.00093943,0.0036244,-0.00015489,0,0,0.078182,-0.027924,0,-0.0032218,0,0,0,0.011144,0.00093708,0.0036244,-0.8696,0.0052352,0.0091639,2.8367e-08,0.82,0.32,0
0.037141,0.0052387,0.011326,0.00052071,0.0035539,-0.00015758,0,0,0.080826,-0.031545,0,-0.0032777,0,0,0,0.011328,0.00051842,0.0035539,-0.83537,0.0051334,0.0096565,3.1308e-08,0.84,0.32,0
0.038767,0.0053735,0.011245,0.00018992,0.0034304,-0.00014446,0,0,0.081269,-0.033701,0,-0.0030048,0,0,0,0.011247,0.00018803,0.0034304,-0.74857,0.004955,0.0098463,3.1705e-08,0.86,0.32,0
0.040392,0.0054778,0.011117,-4.9701e-05,0.0033201,-0.00012574,0,0,0.081085,-0.035046,0,-0.0026154,0,0,0,0.011118,-5.1116e-05,0.0033201,-0.64507,0.0047957,0.0099229,3.1353e-08,0.88,0.32,0
0.04201,0.0055592,0.010991,-0.00022302,0.0032303,-0.00010362,0,0,0.080709,-0.035915,0,-0.0021553,0,0,0,0.010992,-0.00022398,0.0032303,-0.52937,0.0046661,0.009949,3.0793e-08,0.9,0.32,0
0.04362,0.0056221,0.010883,-0.00034753,0.0031605,-8.0693e-05,0,0,0.08031,-0.036484,0,-0.0016784,0,0,0,0.010883,-0.00034811,0.0031605,-0.41166,0.0045652,0.0099523,3.0234e-08,0.92,0.32,0
0.045223,0.0056693,0.010797,-0.00043503,0.0031087,-5.8594e-05,0,0,0.079961,-0.036854,0,-0.0012188,0,0,0,0.010797,-0.00043533,0.0031087,-0.29888,0.0044903,0.0099462,2.9761e-08,0.94,0.32,0
0.046819,0.0057022,0.010736,-0.00049306,0.0030728,-3.7935e-05,0,0,0.079695,-0.037085,0,-0.00078905,0,0,0,0.010736,-0.00049319,0.0030728,-0.19356,0.0044385,0.0099381,2.9409e-08,0.96,0.32,0
0.048411,0.0057217,0.010699,-0.00052623,0.0030518,-1.859e-05,0,0,0.079531,-0.037212,0,-0.00038668,0,0,0,0.010699,-0.00052626,0.0030518,-0.094888,0.0044082,0.009932,2.9193e-08,0.98,0.32,0
0.05,0.0057281,0.010687,-0.00053703,0.0030449,1.5513e-05,0,0,0.079475,-0.037252,0,0.00032267,0,0,0,0.010687,-0.00053705,0.0030449,0.07919,0.0043982,0.0099298,2.9121e-08,1,0.32,0
0,0,0.0086236,0.0036958,0.0036958,0.00066888,0,0,0.051249,-1.0842e-18,0,0.013913,0,0,0,0.0087127,0.0036066,0.0036958,7.5941,0.0053384,0.0050621,6.6552e-09,0,0.34,0
0.001025,0.00027825,0.0085848,0.003271,0.0035567,0.00066637,0,0,0.052292,-0.0029721,0,0.01386,0,0,0,0.0086671,0.0031887,0.0035567,7.0397,0.0051375,0.005304,7.5393e-09,0.02,0.34,0
0.0020917,0.00055332,0.0087274,0.0029496,0.0035031,0.00065703,0,0,0.054333,-0.0057563,0,0.013666,0,0,0,0.0088012,0.0028759,0.0035031,6.4065,0.00506,0.0056379,8.8212e-09,0.04,0.34,0
0.0031983,0.00082372,0.0088676,0.0026497,0.0034552,0.0006425,0,0,0.056289,-0.008377,0,0.013364,0,0,0,0.0089333,0.002584,0.0034552,5.8383,0.0049908,0.0059616,1.0103e-08,0.06,0.34,0
0.0043432,0.0010877,0.0090067,0.0023699,0.003413,0.00062232,0,0,0.058175,-0.010848,0,0.012944,0,0,0,0.0090645,0.002312,0.003413,5.3108,0.0049299,0.0062749,1.1384e-08,0.08,0.34,0
0.0055253,0.0013435,0.0091459,0.0021099,0.0033767,0.00059639,0,0,0.059999,-0.013175,0,0.012405,0,0,0,0.0091961,0.0020597,0.0033767,4.8108,0.0048775,0.0065775,1.2663e-08,0.1,0.34,0
0.0067432,0.0015892,0.009286,0.0018701,0.0033468,0.000565,0,0,0.061768,-0.015358,0,0.011752,0,0,0,0.0093288,0.0018273,0.0033468,4.3319,0.0048343,0.006869,1.3939e-08,0.12,0.34,0
0.007996,0.0018229,0.0094279,0.0016512,0.0033237,0.00052877,0,0,0.063483,-0.017394,0,0.010998,0,0,0,0.0094637,0.0016154,0.0033237,3.8721,0.0048009,0.0071488,1.5213e-08,0.14,0.34,0
0.0092825,0.0020429,0.0095724,0.0014545,0.003308,0.00048856,0,0,0.065149,-0.019277,0,0.010162,0,0,0,0.0096016,0.0014252,0.003308,3.4318,0.0047783,0.0074165,1.6487e-08,0.16,0.34,0
0.010602,0.0022479,0.0097204,0.0012815,0.0033006,0.00044542,0,0,0.066766,-0.020998,0,0.0092646,0,0,0,0.0097438,0.001258,0.0033006,3.013,0.0047675,0.0076713,1.7763e-08,0.18,0.34,0
0.011953,0.0024364,0.009873,0.0011341,0.0033021,0.00040041,0,0,0.068337,-0.022547,0,0.0083286,0,0,0,0.0098913,0.0011158,0.0033021,2.618,0.0047697,0.0079122,1.9043e-08,0.2,0.34,0
0.013335,0.0026076,0.010031,0.0010152,0.0033139,0.00035457,0,0,0.069858,-0.023906,0,0.007375,0,0,0,0.010045,0.0010013,0.0033139,2.2487,0.0047867,0.0081376,2.0327e-08,0.22,0.34,0
0.014748,0.0027606,0.010195,0.0009284,0.003337,0.00030867,0,0,0.071321,-0.025049,0,0.0064203,0,0,0,0.010205,0.00091813,0.003337,1.9057,0.0048201,0.0083447,2.1607e-08,0.24,0.34,0
0.016188,0.0028947,0.010364,0.00087923,0.0033729,0.00026304,0,0,0.072704,-0.025934,0,0.0054712,0,0,0,0.010371,0.00087194,0.0033729,1.5874,0.0048719,0.0085281,2.2862e-08,0.26,0.34,0
0.017656,0.0030092,0.010535,0.00087588,0.0034231,0.00021722,0,0,0.073958,-0.026491,0,0.0045182,0,0,0,0.010539,0.00087099,0.0034231,1.2877,0.0049445,0.0086785,2.4041e-08,0.28,0.34,0
0.019147,0.0031032,0.0107,0.00093072,0.0034893,0.00016949,0,0,0.074993,-0.026609,0,0.0035253,0,0,0,0.010703,0.00092778,0.0034893,0.9936,0.00504,0.0087795,2.504e-08,0.3,0.34,0
0.020655,0.0031751,0.010847,0.0010624,0.0035727,0.00011621,0,0,0.075648,-0.026107,0,0.0024172,0,0,0,0.010848,0.001061,0.0035727,0.68042,0.0051605,0.008804,2.5669e-08,0.32,0.34,0
0.022173,0.0032225,0.01095,0.0012982,0.0036745,5.215e-05,0,0,0.075666,-0.024713,0,0.0010847,0,0,0,0.01095,0.0012979,0.0036745,0.30956,0.0053075,0.0087107,2.5619e-08,0.34,0.34,0
0.023682,0.0032425,0.010984,0.0016761,0.003798,-2.6303e-05,0,0,0.074732,-0.022067,0,-0.00054711,0,0,0,0.010984,0.0016761,0.003798,-0.16192,0.005486,0.0084491,2.4515e-08,0.36,0.34,0
0.025162,0.0032341,0.010935,0.0022272,0.0039486,-0.00011136,0,0,0.072657,-0.017903,0,-0.0023164,0,0,0,0.010936,0.0022257,0.0039486,-0.73261,0.0057035,0.0079896,2.2143e-08,0.38,0.34,0
0.026588,0.0032018,0.010816,0.0029191,0.0041204,-0.00017904,0,0,0.06963,-0.012494,0,-0.0037241,0,0,0,0.01082,0.002915,0.0041204,-1.2982,0.0059517,0.0073762,1.877e-08,0.4,0.34,0
0.027947,0.0031582,0.010548,0.00023857,0.003236,-0.0002177,0,0,0.039228,-0.0069274,0,-0.0024858,0,0,0,0.010553,0.0002336,0.003236,-1.3175,0.0046742,0.0093051,2.249e-08,0.42,0.34,0
0.028157,0.0031906,0.01055,-0.0016308,0.0026759,-0.00020957,0,0,0.010237,-0.0055987,0,-0.00054489,0,0,0,0.010554,-0.0016344,0.0026759,-0.98537,0.0038652,0.010705,3.0333e-08,0.44,0.34,0
0.028356,0.0032248,0.010515,-0.00066204,0.0029559,-0.00015631,0,0,0.009827,-0.0047034,0,-0.00040641,0,0,0,0.010517,-0.00066423,0.0029559,-0.80106,0.0042697,0.009882,2.8079e-08,0.46,0.34,0
0.02855,0.0032625,0.010567,-0.00018969,0.0031132,-0.00010092,0,0,0.0096899,-0.0042937,0,-0.0002624,0,0,0,0.010568,-0.00019063,0.0031132,-0.53751,0.0044968,0.0095455,2.7301e-08,0.48,0.34,0
0.028744,0.0033028,0.010683,9.3071e-06,0.0032077,-8.6976e-05,0,0,0.0097178,-0.0041579,0,-0.00022614,0,0,0,0.010684,8.5984e-06,0.0032077,-0.46685,0.0046333,0.0094889,2.7658e-08,0.5,0.34,0
0.028939,0.0033444,0.010809,0.00013029,0.0032818,-8.7763e-05,0,0,0.0097854,-0.004097,0,-0.00022818,0,0,0,0.01081,0.00012956,0.0032818,-0.47084,0.0047404,0.0095046,2.8302e-08,0.52,0.34,0
0.029136,0.0033868,0.010898,0.00022541,0.0033369,-8.3292e-05,0,0,0.009829,-0.004045,0,-0.00021656,0,0,0,0.010898,0.00022477,0.0033369,-0.44713,0.00482,0.0095075,2.8722e-08,0.54,0.34,0
0.029332,0.0034301,0.01095,0.00029239,0.0033728,-6.3895e-05,0,0,0.0098508,-0.0040046,0,-0.00016613,0,0,0,0.010951,0.00029201,0.0033728,-0.34347,0.0048719,0.0095007,2.8937e-08,0.56,0.34,0
0.02953,0.0034746,0.010983,0.00031002,0.003388,-3.1407e-05,0,0,0.0098738,-0.0040013,0,-8.1658e-05,0,0,0,0.010983,0.00030992,0.003388,-0.1686,0.0048937,0.0095154,2.9143e-08,0.58,0.34,0
0.029727,0.0035208,0.011011,0.00026285,0.003382,8.4476e-06,0,0,0.0099171,-0.0040549,0,2.1964e-05,0,0,0,0.011011,0.00026284,0.003382,0.045034,0.0048852,0.009577,2.9509e-08,0.6,0.34,0
0.029926,0.0035686,0.011037,0.00015057,0.0033563,4.8734e-05,0,0,0.0099851,-0.0041675,0,0.00012671,0,0,0,0.011037,0.00015036,0.0033563,0.25648,0.004848,0.0096903,3.0073e-08,0.62,0.34,0
0.030127,0.0036179,0.01106,-1.1569e-05,0.0033145,8.4804e-05,0,0,0.010069,-0.0043238,0,0.00022049,0,0,0,0.01106,-1.2219e-05,0.0033145,0.43884,0.0047875,0.0098404,3.0752e-08,0.64,0.34,0
0.030329,0.0036688,0.01108,-0.00020102,0.0032637,0.000118,0,0,0.010161,-0.0045041,0,0.00030681,0,0,0,0.011081,-0.00020225,0.0032637,0.59925,0.0047142,0.010011,3.1482e-08,0.66,0.34,0
0.030533,0.0037212,0.011133,-0.00040906,0.003217,0.00016564,0,0,0.01029,-0.0047139,0,0.00043067,0,0,0,0.011135,-0.00041144,0.003217,0.82207,0.0046468,0.010227,3.2535e-08,0.68,0.34,0
0.030741,0.0037761,0.011345,-0.00066748,0.0032032,0.00026765,0,0,0.010584,-0.0050319,0,0.00069588,0,0,0,0.011351,-0.00067344,0.0032032,1.2758,0.0046268,0.01063,3.5178e-08,0.7,0.34,0
0.030957,0.0038356,0.011983,-0.0010788,0.0032714,0.00049684,0,0,0.011326,-0.0056552,0,0.0012918,0,0,0,0.012002,-0.0010977,0.0032714,2.1751,0.0047253,0.011553,4.2717e-08,0.72,0.34,0
0.031194,0.0039008,0.013003,-0.0017671,0.0033708,0.00065428,0,0,0.012522,-0.0066793,0,0.0017011,0,0,0,0.013032,-0.001796,0.0033708,2.5314,0.004869,0.013037,5.6516e-08,0.74,0.34,0
0.031457,0.0039389,0.010168,0.00080635,0.0032924,0.00081937,0,0,0.01761,-0.0058548,0,0.006621,0,0,0,0.010256,0.00071892,0.0032924,7.4276,0.0047557,0.0085462,5.685e-08,0.76,0.34,0
0.031854,0.0040511,0.015776,0.0010864,0.0050588,8.2129e-05,0,0,0.04209,-0.010278,0,-0.0071512,0,0,0,0.015842,0.0010207,0.0050588,-1.8596,0.0073071,0.013302,1.2532e-07,0.78,0.34,0
0.033586,0.0043657,0.012665,0.0019849,0.0043949,-4.3736e-05,0,0,0.086006,-0.025064,0,-0.00090972,0,0,0,0.012665,0.0019847,0.0043949,-0.23464,0.0063482,0.0097022,3.7329e-08,0.8,0.34,0
0.035294,0.0044857,0.012108,0.0011332,0.0039723,-4.9689e-05,0,0,0.084609,-0.029527,0,-0.0010335,0,0,0,0.012108,0.001133,0.0039723,-0.25941,0.0057378,0.0098667,3.5907e-08,0.82,0.34,0
0.036971,0.0045967,0.011712,0.00056264,0.0036824,9.7248e-06,0,0,0.083508,-0.032445,0,0.00020227,0,0,0,0.011712,0.00056263,0.0036824,0.049975,0.005319,0.0099628,3.4505e-08,0.84,0.34,0
0.038634,0.0046903,0.01147,0.00019608,0.0035,2.2151e-05,0,0,0.082893,-0.03436,0,0.00046074,0,0,0,0.01147,0.00019604,0.0035,0.11257,0.0050555,0.010039,3.3622e-08,0.86,0.34,0
0.040287,0.0047688,0.011284,-5.5248e-05,0.0033686,2.5042e-05,0,0,0.082319,-0.035608,0,0.00052088,0,0,0,0.011284,-5.5303e-05,0.0033686,0.12654,0.0048657,0.010074,3.2786e-08,0.88,0.34,0
0.041927,0.0048335,0.011131,-0.00023158,0.0032697,2.4726e-05,0,0,0.081753,-0.036413,0,0.00051429,0,0,0,0.011131,-0.00023163,0.0032697,0.12468,0.0047229,0.010079,3.1988e-08,0.9,0.34,0
0.043557,0.0048857,0.011006,-0.00035597,0.003195,2.2583e-05,0,0,0.081235,-0.03693,0,0.00046973,0,0,0,0.011006,-0.00035601,0.003195,0.11388,0.004615,0.010068,3.128e-08,0.92,0.34,0
0.045177,0.0049259,0.01091,-0.00044226,0.0031402,1.8765e-05,0,0,0.080802,-0.037258,0,0.0003903,0,0,0,0.01091,-0.00044229,0.0031402,0.094709,0.0045359,0.010051,3.0705e-08,0.94,0.34,0
0.046789,0.0049546,0.010841,-0.00049898,0.0031026,1.3453e-05,0,0,0.08048,-0.037457,0,0.00027982,0,0,0,0.010841,-0.00049899,0.0031026,0.06797,0.0044816,0.010036,3.0284e-08,0.96,0.34,0
0.048396,0.0049718,0.0108,-0.00053121,0.0030807,7.0236e-06,0,0,0.080283,-0.037564,0,0.00014609,0,0,0,0.0108,-0.00053122,0.0030807,0.035514,0.0044499,0.010026,3.0029e-08,0.98,0.34,0
0.05,0.0049776,0.010787,-0.00054168,0.0030735,1.3781e-05,0,0,0.080216,-0.037597,0,0.00028664,0,0,0,0.010787,-0.00054169,0.0030735,0.069701,0.0044395,0.010022,2.9944e-08,1,0.34,0
0,0,0.0086199,0.0036942,0.0036942,0.00052679,0,0,0.051227,6.5052e-19,0,0.010957,0,0,0,0.0086756,0.0036385,0.0036942,6.0367,0.0053361,0.0050094,6.4537e-09,0,0.36,0
0.0010245,0.00021914,0.0085816,0.0032758,0.0035572,0.00052409,0,0,0.052254,-0.002927,0,0.010901,0,0,0,0.0086329,0.0032245,0.0035572,5.5875,0.0051382,0.0052499,7.3311e-09,0.02,0.36,0
0.0020901,0.00043894,0.0087221,0.0029603,0.0035047,0.0005178,0,0,0.054261,-0.0056617,0,0.01077,0,0,0,0.0087682,0.0029142,0.0035047,5.0947,0.0050624,0.0055823,8.598e-09,0.04,0.36,0
0.0031949,0.00065738,0.0088601,0.0026667,0.003458,0.00050468,0,0,0.056182,-0.0082303,0,0.010497,0,0,0,0.008901,0.0026258,0.003458,4.6281,0.0049949,0.0059032,9.8613e-09,0.06,0.36,0
0.0043374,0.00087245,0.0089974,0.0023932,0.0034172,0.00048472,0,0,0.058034,-0.010649,0,0.010082,0,0,0,0.0090328,0.0023579,0.0034172,4.1755,0.0049359,0.0062133,1.1122e-08,0.08,0.36,0
0.0055163,0.0010821,0.009135,0.0021395,0.0033823,0.00045809,0,0,0.059827,-0.012926,0,0.0095284,0,0,0,0.0091649,0.0021096,0.0033823,3.7307,0.0048856,0.0065128,1.2382e-08,0.1,0.36,0
0.0067305,0.0012845,0.0092739,0.0019053,0.0033538,0.0004252,0,0,0.06157,-0.015064,0,0.008844,0,0,0,0.0092984,0.0018809,0.0033538,3.2916,0.0048443,0.0068018,1.3642e-08,0.12,0.36,0
0.0079791,0.0014778,0.0094152,0.0016914,0.003332,0.00038661,0,0,0.063265,-0.017062,0,0.0080415,0,0,0,0.0094345,0.0016721,0.003332,2.8584,0.0048128,0.0070799,1.4904e-08,0.14,0.36,0
0.0092611,0.0016604,0.0095596,0.0014987,0.0033175,0.00034313,0,0,0.064918,-0.018916,0,0.007137,0,0,0,0.0095742,0.0014841,0.0033175,2.433,0.0047919,0.007347,1.6172e-08,0.16,0.36,0
0.010576,0.001831,0.0097083,0.0013286,0.0033111,0.00029567,0,0,0.066531,-0.020618,0,0.00615,0,0,0,0.0097187,0.0013181,0.0033111,2.0183,0.0047826,0.0076026,1.7449e-08,0.18,0.36,0
0.011922,0.0019885,0.0098621,0.001183,0.0033136,0.00024533,0,0,0.068105,-0.022157,0,0.0051029,0,0,0,0.0098691,0.0011761,0.0033136,1.6178,0.0047862,0.0078457,1.8737e-08,0.2,0.36,0
0.0133,0.0021324,0.010022,0.0010648,0.003326,0.00019329,0,0,0.069638,-0.023517,0,0.0040205,0,0,0,0.010026,0.0010606,0.003326,1.2357,0.0048043,0.0080748,2.0037e-08,0.22,0.36,0
0.014708,0.0022623,0.010188,0.00097761,0.0033497,0.00014093,0,0,0.07112,-0.02467,0,0.0029314,0,0,0,0.01019,0.00097545,0.0033497,0.87643,0.0048385,0.0082869,2.1341e-08,0.24,0.36,0
0.016145,0.0023786,0.01036,0.00092712,0.0033861,8.9899e-05,0,0,0.072527,-0.025573,0,0.0018699,0,0,0,0.010361,0.00092626,0.0033861,0.546,0.004891,0.0084765,2.2628e-08,0.26,0.36,0
0.017609,0.0024818,0.010534,0.00092166,0.0034366,4.2346e-05,0,0,0.07381,-0.026156,0,0.00088081,0,0,0,0.010534,0.00092148,0.0034366,0.25241,0.004964,0.0086342,2.3846e-08,0.28,0.36,0
0.019097,0.0025736,0.010703,0.00097384,0.003503,1.3021e-06,0,0,0.074877,-0.026303,0,2.7083e-05,0,0,0,0.010703,0.00097383,0.003503,0.0076681,0.0050598,0.0087431,2.4889e-08,0.3,0.36,0
0.020604,0.0026562,0.010852,0.0011026,0.0035864,-2.8834e-05,0,0,0.075564,-0.025832,0,-0.00059975,0,0,0,0.010852,0.0011025,0.0035864,-0.16945,0.0051804,0.0087756,2.5563e-08,0.32,0.36,0
0.02212,0.002733,0.010958,0.0013354,0.0036882,-4.2581e-05,0,0,0.075611,-0.024468,0,-0.00088567,0,0,0,0.010959,0.0013353,0.0036882,-0.25352,0.0053273,0.0086892,2.555e-08,0.34,0.36,0
0.023629,0.002808,0.010995,0.0017108,0.0038116,-3.6371e-05,0,0,0.074703,-0.021849,0,-0.00075651,0,0,0,0.010995,0.0017106,0.0038116,-0.22446,0.0055057,0.0084323,2.4468e-08,0.36,0.36,0
0.025108,0.0028836,0.010948,0.0022587,0.003962,-1.715e-05,0,0,0.072655,-0.017714,0,-0.00035671,0,0,0,0.010948,0.0022587,0.003962,-0.11308,0.005723,0.0079754,2.2101e-08,0.38,0.36,0
0.026535,0.0029573,0.010832,0.0029449,0.004133,-5.431e-06,0,0,0.069668,-0.012357,0,-0.00011297,0,0,0,0.010832,0.0029449,0.004133,-0.039454,0.0059699,0.0073652,1.8733e-08,0.4,0.36,0
0.027895,0.0030204,0.010571,0.00027815,0.0032547,-2.382e-05,0,0,0.03926,-0.006879,0,-5.9069e-06,0,0,0,0.010571,0.00027804,0.0032547,-0.090637,0.0047012,0.0092849,2.2584e-08,0.42,0.36,0
0.028105,0.0030781,0.010577,-0.0015972,0.0026938,-0.00010515,0,0,0.010248,-0.0055784,0,-0.0002734,0,0,0,0.010577,-0.0015982,0.0026938,-0.49485,0.003891,0.010696,3.0468e-08,0.44,0.36,0
0.028305,0.0031301,0.010545,-0.00065659,0.0029667,-0.00020023,0,0,0.0098525,-0.0047103,0,-0.0005206,0,0,0,0.010549,-0.00066017,0.0029667,-1.0237,0.0042852,0.0099069,2.832e-08,0.46,0.36,0
0.028499,0.0031765,0.0106,-0.00020149,0.0031197,-0.00025356,0,0,0.0097249,-0.0043175,0,-0.00065927,0,0,0,0.010606,-0.00020744,0.0031197,-1.344,0.0045062,0.0095932,2.7643e-08,0.48,0.36,0
0.028694,0.00322,0.010717,-1.1844e-05,0.0032115,-0.0002369,0,0,0.0097568,-0.0041903,0,-0.00061594,0,0,0,0.010722,-1.7072e-05,0.0032115,-1.2643,0.0046388,0.0095435,2.8029e-08,0.5,0.36,0
0.028889,0.0032627,0.010842,0.00010354,0.0032836,-0.00018886,0,0,0.0098256,-0.004134,0,-0.00049103,0,0,0,0.010845,0.00010022,0.0032836,-1.0073,0.0047429,0.0095593,2.8666e-08,0.52,0.36,0
0.029087,0.0033059,0.010929,0.00019477,0.0033371,-0.00013586,0,0,0.0098695,-0.0040851,0,-0.00035324,0,0,0,0.010931,0.00019305,0.0033371,-0.72503,0.0048203,0.0095616,2.9077e-08,0.54,0.36,0
0.029284,0.0033497,0.010981,0.00025894,0.003372,-9.095e-05,0,0,0.0098917,-0.0040469,0,-0.00023647,0,0,0,0.010982,0.00025817,0.003372,-0.48597,0.0048706,0.0095551,2.9289e-08,0.56,0.36,0
0.029482,0.0033942,0.011014,0.00027425,0.0033863,-5.3949e-05,0,0,0.0099153,-0.0040457,0,-0.00014027,0,0,0,0.011014,0.00027398,0.0033863,-0.28781,0.0048914,0.009571,2.95e-08,0.58,0.36,0
0.029681,0.0034392,0.011041,0.00022513,0.0033799,-2.0097e-05,0,0,0.0099596,-0.0041011,0,-5.2251e-05,0,0,0,0.011041,0.00022509,0.0033799,-0.10646,0.004882,0.0096341,2.9874e-08,0.6,0.36,0
0.029881,0.0034848,0.011068,0.00011129,0.0033538,1.6698e-05,0,0,0.010029,-0.0042153,0,4.3414e-05,0,0,0,0.011068,0.00011127,0.0033538,0.087317,0.0048444,0.0097488,3.0445e-08,0.62,0.36,0
0.030082,0.0035312,0.011091,-5.1752e-05,0.0033118,5.9759e-05,0,0,0.010113,-0.0043726,0,0.00015537,0,0,0,0.011091,-5.2072e-05,0.0033118,0.30727,0.0047837,0.0098998,3.113e-08,0.64,0.36,0
0.030285,0.0035784,0.011111,-0.00024073,0.003261,0.00010524,0,0,0.010205,-0.0045522,0,0.00027362,0,0,0,0.011112,-0.00024171,0.003261,0.53113,0.0047103,0.01007,3.1855e-08,0.66,0.36,0
0.03049,0.0036264,0.011158,-0.0004467,0.0032134,0.0001309,0,0,0.010328,-0.0047581,0,0.00034035,0,0,0,0.011159,-0.00044817,0.0032134,0.64619,0.0046416,0.010278,3.2851e-08,0.68,0.36,0
0.030698,0.0036737,0.011352,-0.00070031,0.0031955,8.8325e-05,0,0,0.010603,-0.0050645,0,0.00022965,0,0,0,0.011352,-0.00070095,0.0031955,0.41986,0.0046157,0.010654,3.527e-08,0.7,0.36,0
0.030914,0.0037178,0.011911,-0.0011194,0.0032375,-0.00010978,0,0,0.011276,-0.005664,0,-0.00028543,0,0,0,0.011912,-0.0011203,0.0032375,-0.48266,0.0046764,0.011491,4.1846e-08,0.72,0.36,0
0.031149,0.0037563,0.012719,-0.0018387,0.0032642,-0.00022816,0,0,0.012292,-0.0066338,0,-0.00059322,0,0,0,0.012723,-0.0018423,0.0032642,-0.89768,0.0047149,0.0128,5.282e-08,0.74,0.36,0
0.031406,0.0038275,0.0098058,0.00056146,0.0031102,-0.00038767,0,0,0.017154,-0.0060918,0,-0.0035607,0,0,0,0.0098292,0.00053808,0.0031102,-4.0858,0.0044925,0.0083096,5.1558e-08,0.76,0.36,0
0.031792,0.0038737,0.015513,0.0010509,0.0049691,0.00042776,0,0,0.042054,-0.0097153,0,0.011563,0,0,0,0.015603,0.00096011,0.0049691,4.0099,0.0071776,0.013143,1.1577e-07,0.78,0.36,0
0.033543,0.0038039,0.012782,0.0020253,0.004442,0.00039047,0,0,0.086731,-0.025135,0,0.0081217,0,0,0,0.012796,0.0020111,0.004442,2.0763,0.0064163,0.009798,3.8468e-08,0.8,0.36,0
0.035262,0.0038798,0.012177,0.0011558,0.0039998,0.00034216,0,0,0.085042,-0.029577,0,0.007117,0,0,0,0.012188,0.0011452,0.0039998,1.7765,0.0057775,0.0099277,3.6599e-08,0.82,0.36,0
0.036945,0.0039409,0.011757,0.00057583,0.0036998,0.00025687,0,0,0.083794,-0.03249,0,0.0053429,0,0,0,0.011763,0.00056993,0.0036998,1.3154,0.0053442,0.010002,3.4939e-08,0.84,0.36,0
0.038613,0.0039991,0.011508,0.00020877,0.003515,0.00022036,0,0,0.083127,-0.034385,0,0.0045835,0,0,0,0.011512,0.00020448,0.003515,1.1168,0.0050773,0.010069,3.3965e-08,0.86,0.36,0
0.04027,0.0040535,0.011317,-4.139e-05,0.0033827,0.00019174,0,0,0.082517,-0.035611,0,0.0039882,0,0,0,0.01132,-4.4625e-05,0.0033827,0.96685,0.0048861,0.010097,3.3071e-08,0.88,0.36,0
0.041914,0.0041027,0.011161,-0.00021599,0.0032834,0.00016315,0,0,0.081924,-0.036394,0,0.0033936,0,0,0,0.011163,-0.00021833,0.0032834,0.82144,0.0047427,0.010097,3.2228e-08,0.9,0.36,0
0.043547,0.0041449,0.011034,-0.00033865,0.0032086,0.00013286,0,0,0.081384,-0.036892,0,0.0027634,0,0,0,0.011036,-0.0003402,0.0032086,0.66922,0.0046347,0.010081,3.1486e-08,0.92,0.36,0
0.045169,0.004179,0.010936,-0.00042344,0.0031538,0.00010097,0,0,0.080935,-0.037203,0,0.0021002,0,0,0,0.010937,-0.00042434,0.0031538,0.50923,0.0045554,0.010061,3.0884e-08,0.94,0.36,0
0.046784,0.0042039,0.010866,-0.00047903,0.0031162,6.792e-05,0,0,0.080602,-0.037391,0,0.0014127,0,0,0,0.010867,-0.00047944,0.0031162,0.34299,0.0045012,0.010043,3.0446e-08,0.96,0.36,0
0.048393,0.0042191,0.010825,-0.00051057,0.0030943,3.4136e-05,0,0,0.080398,-0.037491,0,0.00071004,0,0,0,0.010825,-0.00051067,0.0030943,0.17254,0.0044695,0.010031,3.0181e-08,0.98,0.36,0
0.05,0.0042242,0.010811,-0.0005208,0.0030871,1.2273e-05,0,0,0.080329,-0.037522,0,0.00025527,0,0,0,0.010811,-0.00052081,0.0030871,0.062053,0.0044591,0.010027,3.0092e-08,1,0.36,0
0,0,0.0085992,0.0036854,0.0036854,0.00038743,0,0,0.051104,-1.0842e-19,0,0.0080586,0,0,0,0.0086296,0.003655,0.0036854,4.4806,0.0053233,0.0049594,6.2642e-09,0,0.38,0
0.0010221,0.00016117,0.0085618,0.0032766,0.0035515,0.00038456,0,0,0.052107,-0.0028587,0,0.0079988,0,0,0,0.0085896,0.0032488,0.0035515,4.1399,0.00513,0.005196,7.1228e-09,0.02,0.38,0
0.0020843,0.00032685,0.0086989,0.002969,0.0035004,0.00038134,0,0,0.054065,-0.0055264,0,0.0079319,0,0,0,0.0087241,0.0029437,0.0035004,3.7909,0.0050561,0.0055232,8.3579e-09,0.04,0.38,0
0.0031847,0.00049451,0.0088336,0.0026829,0.0034549,0.0003696,0,0,0.055938,-0.0080292,0,0.0076876,0,0,0,0.0088557,0.0026608,0.0034549,3.4265,0.0049905,0.0058385,9.5872e-09,0.06,0.38,0
0.0043218,0.00066179,0.0089674,0.0024169,0.0034153,0.00034975,0,0,0.057742,-0.010384,0,0.0072749,0,0,0,0.008986,0.0023982,0.0034153,3.0476,0.0049332,0.0061427,1.0813e-08,0.08,0.38,0
0.0054943,0.00082649,0.0091015,0.0021701,0.0033815,0.00032224,0,0,0.059489,-0.012599,0,0.0067026,0,0,0,0.0091165,0.0021551,0.0033815,2.656,0.0048844,0.0064364,1.2036e-08,0.1,0.38,0
0.0067013,0.00098662,0.0092371,0.0019424,0.0033538,0.00028757,0,0,0.061185,-0.014679,0,0.0059814,0,0,0,0.0092484,0.0019311,0.0033538,2.254,0.0048444,0.0067199,1.326e-08,0.12,0.38,0
0.0079418,0.0011404,0.0093749,0.0017343,0.0033327,0.00024633,0,0,0.062838,-0.016624,0,0.0051236,0,0,0,0.0093828,0.0017263,0.0033327,1.8446,0.0048139,0.006993,1.4488e-08,0.14,0.38,0
0.0092148,0.0012863,0.0095159,0.0015465,0.0033187,0.00019925,0,0,0.06445,-0.018431,0,0.0041443,0,0,0,0.0095208,0.0015415,0.0033187,1.4313,0.0047937,0.0072558,1.5722e-08,0.16,0.38,0
0.01052,0.0014231,0.009661,0.0013804,0.0033124,0.00014719,0,0,0.066026,-0.020093,0,0.0030615,0,0,0,0.0096637,0.0013778,0.0033124,1.018,0.0047846,0.0075079,1.6967e-08,0.18,0.38,0
0.011856,0.0015501,0.0098114,0.0012377,0.0033147,9.121e-05,0,0,0.067565,-0.021601,0,0.0018972,0,0,0,0.0098124,0.0012368,0.0033147,0.60944,0.004788,0.0077485,1.8226e-08,0.2,0.38,0
0.013222,0.0016669,0.0099679,0.001121,0.0033267,3.2649e-05,0,0,0.069068,-0.022939,0,0.00067909,0,0,0,0.009968,0.0011209,0.0033267,0.21144,0.0048052,0.0079763,1.9499e-08,0.22,0.38,0
0.014619,0.0017738,0.010131,0.0010338,0.0033495,-2.6664e-05,0,0,0.070529,-0.024083,0,-0.0005546,0,0,0,0.010131,0.0010337,0.0033495,-0.16793,0.0048381,0.008189,2.0785e-08,0.24,0.38,0
0.016043,0.0018718,0.010301,0.00098096,0.0033846,-8.4027e-05,0,0,0.071932,-0.024998,0,-0.0017477,0,0,0,0.010302,0.0009802,0.0033846,-0.5165,0.0048889,0.0083822,2.2068e-08,0.26,0.38,0
0.017496,0.001963,0.010477,0.00096992,0.003434,-0.0001352,0,0,0.073244,-0.025626,0,-0.0028121,0,0,0,0.010479,0.000968,0.003434,-0.8146,0.0049602,0.0085486,2.3313e-08,0.28,0.38,0
0.018973,0.0020511,0.010654,0.0010114,0.0034995,-0.00017327,0,0,0.074404,-0.025877,0,-0.0036041,0,0,0,0.010657,0.0010083,0.0034995,-1.0292,0.0050549,0.0086755,2.4447e-08,0.3,0.38,0
0.020472,0.0021418,0.010824,0.0011211,0.0035834,-0.00018726,0,0,0.075298,-0.025608,0,-0.0038951,0,0,0,0.010827,0.0011175,0.0035834,-1.1053,0.0051761,0.0087417,2.5327e-08,0.32,0.38,0
0.021985,0.0022438,0.010969,0.0013222,0.0036873,-0.00016097,0,0,0.075729,-0.024598,0,-0.0033483,0,0,0,0.010972,0.0013195,0.0036873,-0.95573,0.0053262,0.008713,2.5703e-08,0.34,0.38,0
0.023501,0.0023686,0.011052,0.0016453,0.0038092,-7.8927e-05,0,0,0.075326,-0.022505,0,-0.0016417,0,0,0,0.011053,0.0016447,0.0038092,-0.48069,0.0055022,0.0085342,2.5134e-08,0.36,0.38,0
0.024998,0.0025256,0.011039,0.0021529,0.0039576,5.1586e-05,0,0,0.073647,-0.018768,0,0.001073,0,0,0,0.011039,0.0021526,0.0039576,0.3326,0.0057165,0.0081357,2.3135e-08,0.38,0.38,0
0.026447,0.0027075,0.010949,0.0028902,0.0041518,0.00016401,0,0,0.070693,-0.013121,0,0.0034114,0,0,0,0.010953,0.0028868,0.0041518,1.1654,0.0059971,0.0075135,1.972e-08,0.4,0.38,0
0.027826,0.002883,0.010641,0.00026534,0.0032718,0.00016092,0,0,0.039744,-0.0069483,0,0.0025132,0,0,0,0.010645,0.0002614,0.0032718,1.0976,0.0047259,0.0093662,2.2912e-08,0.42,0.38,0
0.028037,0.0029674,0.010733,-0.0013194,0.002824,2.0848e-06,0,0,0.010281,-0.0053865,0,5.4206e-06,0,0,0,0.010733,-0.0013194,0.002824,0.0099113,0.0040791,0.010606,3.1259e-08,0.44,0.38,0
0.028237,0.0030364,0.010718,-0.00046415,0.0030762,-0.00029945,0,0,0.0099345,-0.0046025,0,-0.00077858,0,0,0,0.010726,-0.00047217,0.0030762,-1.5329,0.0044434,0.0099125,2.9276e-08,0.46,0.38,0
0.028434,0.0030898,0.010774,-0.00024456,0.003159,-0.00041281,0,0,0.0099002,-0.0044246,0,-0.0010733,0,0,0,0.01079,-0.00026,0.003159,-2.1425,0.004563,0.0097986,2.9236e-08,0.48,0.38,0
0.028633,0.0031352,0.010931,-9.9764e-05,0.0032495,-0.00037088,0,0,0.0099864,-0.004354,0,-0.0009643,0,0,0,0.010944,-0.00011222,0.0032495,-1.9235,0.0046937,0.0098168,3.0078e-08,0.5,0.38,0
0.028834,0.0031791,0.011025,1.7084e-05,0.0033127,-0.00026325,0,0,0.010026,-0.0042843,0,-0.00068444,0,0,0,0.011031,1.0792e-05,0.0033127,-1.3691,0.004785,0.0097964,3.0443e-08,0.52,0.38,0
0.029034,0.0032234,0.011071,0.00013439,0.0033617,-0.00016742,0,0,0.010023,-0.0041956,0,-0.0004353,0,0,0,0.011074,0.00013183,0.0033617,-0.87682,0.0048558,0.0097376,3.0431e-08,0.54,0.38,0
0.029235,0.0032682,0.011088,0.00022243,0.0033931,-0.0001042,0,0,0.010003,-0.0041219,0,-0.00027091,0,0,0,0.011089,0.00022143,0.0033931,-0.54938,0.0049011,0.0096795,3.0278e-08,0.56,0.38,0
0.029434,0.0033128,0.011099,0.00025204,0.0034055,-7.0272e-05,0,0,0.010002,-0.0040995,0,-0.00018271,0,0,0,0.0111,0.00025158,0.0034055,-0.37115,0.004919,0.0096654,3.0275e-08,0.58,0.38,0
0.029635,0.0033567,0.01112,0.0002035,0.003397,-4.8806e-05,0,0,0.01004,-0.0041516,0,-0.00012689,0,0,0,0.01112,0.00020329,0.003397,-0.25616,0.0049068,0.0097217,3.0593e-08,0.6,0.38,0
0.029836,0.0033999,0.011151,7.6898e-05,0.0033683,-2.0795e-05,0,0,0.010117,-0.0042788,0,-5.4068e-05,0,0,0,0.011151,7.6859e-05,0.0033683,-0.10759,0.0048653,0.0098497,3.1241e-08,0.62,0.38,0
0.030039,0.003443,0.011181,-0.00010751,0.0033221,2.8216e-05,0,0,0.010217,-0.0044586,0,7.3363e-05,0,0,0,0.011181,-0.00010758,0.0033221,0.14321,0.0047987,0.010024,3.2059e-08,0.64,0.38,0
0.030245,0.0034867,0.011187,-0.00031827,0.0032608,9.5547e-05,0,0,0.010305,-0.0046527,0,0.00024842,0,0,0,0.011188,-0.00031906,0.0032608,0.47576,0.00471,0.0102,3.2737e-08,0.66,0.38,0
0.030451,0.0035309,0.01114,-0.00052231,0.0031853,0.00014754,0,0,0.010341,-0.0048199,0,0.00038362,0,0,0,0.011142,-0.00052417,0.0031853,0.72472,0.004601,0.010324,3.2905e-08,0.68,0.38,0
0.030658,0.0035736,0.010972,-0.00074343,0.0030685,8.7276e-05,0,0,0.010274,-0.0049555,0,0.00022692,0,0,0,0.010972,-0.00074408,0.0030685,0.42681,0.0044323,0.010351,3.2012e-08,0.7,0.38,0
0.030863,0.003609,0.01058,-0.0010739,0.0028518,-0.00017648,0,0,0.010046,-0.0051034,0,-0.00045884,0,0,0,0.010582,-0.0010766,0.0028518,-0.8674,0.0041192,0.010275,2.9512e-08,0.72,0.38,0
0.03106,0.0036355,0.0096058,-0.0019804,0.0022876,-0.00031066,0,0,0.0095136,-0.0055484,0,-0.00080771,0,0,0,0.0096141,-0.0019887,0.0022876,-1.5348,0.0033043,0.010163,2.3544e-08,0.74,0.38,0
0.031243,0.0037004,0.0093242,-0.00072667,0.0025793,-0.00030137,0,0,0.038154,-0.0076404,0,-0.0037242,0,0,0,0.0093345,-0.00073695,0.0025793,-1.9037,0.0037256,0.0090414,1.3585e-08,0.76,0.38,0
0.032586,0.0036455,0.010139,0.0023256,0.0037393,0.00062934,0,0,0.066555,-0.014703,0,0.01309,0,0,0,0.010189,0.0022752,0.0037393,4.5757,0.0054013,0.007293,1.7247e-08,0.78,0.38,0
0.033905,0.0033603,0.010507,0.0016362,0.0036429,0.00034465,0,0,0.071385,-0.020869,0,0.0071688,0,0,0,0.01052,0.0016229,0.0036429,2.2217,0.005262,0.008079,2.1481e-08,0.8,0.38,0
0.035442,0.0033026,0.011273,0.00098285,0.0036767,0.00046456,0,0,0.078999,-0.028016,0,0.0096629,0,0,0,0.011294,0.00096192,0.0036767,2.5798,0.0053108,0.0092772,2.9479e-08,0.82,0.38,0
0.037065,0.0032971,0.011446,0.00055822,0.0036011,0.00043436,0,0,0.081582,-0.031646,0,0.0090347,0,0,0,0.011463,0.00054091,0.0036011,2.281,0.0052016,0.0097586,3.2384e-08,0.84,0.38,0
0.038705,0.0033149,0.011352,0.0002279,0.003474,0.00039467,0,0,0.081931,-0.033759,0,0.0082092,0,0,0,0.011366,0.00021392,0.003474,2.0294,0.0050179,0.0099317,3.2647e-08,0.86,0.38,0
0.040342,0.0033443,0.011214,-7.6363e-06,0.0033619,0.00034848,0,0,0.081661,-0.035043,0,0.0072483,0,0,0,0.011225,-1.8448e-05,0.0033619,1.777,0.004856,0.0099914,3.2161e-08,0.88,0.38,0
0.041971,0.0033777,0.01108,-0.00017573,0.0032713,0.00029609,0,0,0.081211,-0.035849,0,0.0061586,0,0,0,0.011088,-0.00018352,0.0032713,1.5058,0.0047252,0.010002,3.1484e-08,0.9,0.38,0
0.043591,0.00341,0.010966,-0.00029508,0.0032012,0.00023956,0,0,0.080751,-0.036361,0,0.0049829,0,0,0,0.010971,-0.00030017,0.0032012,1.2182,0.004624,0.0099916,3.083e-08,0.92,0.38,0
0.045201,0.0034378,0.010876,-0.00037815,0.0031493,0.00018075,0,0,0.080355,-0.036685,0,0.0037597,0,0,0,0.010879,-0.00038105,0.0031493,0.91993,0.004549,0.0099746,3.0284e-08,0.94,0.38,0
0.046805,0.003459,0.010811,-0.00043284,0.0031136,0.00012085,0,0,0.080057,-0.036882,0,0.0025137,0,0,0,0.010813,-0.00043414,0.0031136,0.61571,0.0044973,0.0099587,2.9882e-08,0.96,0.38,0
0.048404,0.0034722,0.010773,-0.00046395,0.0030927,6.0499e-05,0,0,0.079873,-0.036989,0,0.0012584,0,0,0,0.010773,-0.00046427,0.0030927,0.30847,0.0044672,0.0099478,2.9637e-08,0.98,0.38,0
0.05,0.0034767,0.01076,-0.00047405,0.0030858,1.0767e-05,0,0,0.079811,-0.037022,0,0.00022395,0,0,0,0.01076,-0.00047406,0.0030858,0.054913,0.0044572,0.009944,2.9555e-08,1,0.38,0
0,0,0.0085618,0.0036693,0.0036693,0.00025192,0,0,0.050882,-6.5052e-19,0,0.0052398,0,0,0,0.0085747,0.0036564,0.0036693,2.9398,0.0053002,0.0049119,6.0863e-09,0,0.4,0
0.0010176,0.0001048,0.0085255,0.0032736,0.0035397,0.00024891,0,0,0.051852,-0.002768,0,0.0051774,0,0,0,0.0085373,0.0032618,0.0035397,2.7074,0.0051129,0.0051422,6.9145e-09,0.02,0.4,0
0.0020741,0.00021788,0.0086581,0.0029755,0.0034901,0.0002488,0,0,0.053747,-0.0053517,0,0.0051751,0,0,0,0.0086689,0.0029646,0.0034901,2.5022,0.0050412,0.0054606,8.1021e-09,0.04,0.4,0
0.0031675,0.00033621,0.0087881,0.0026984,0.003446,0.00023855,0,0,0.055559,-0.0077748,0,0.0049618,0,0,0,0.0087975,0.002689,0.003446,2.2398,0.0049775,0.0057673,9.283e-09,0.06,0.4,0
0.0042964,0.00045711,0.0089171,0.0024407,0.0034073,0.00021897,0,0,0.057301,-0.010053,0,0.0045546,0,0,0,0.0089245,0.0024333,0.0034073,1.9343,0.0049217,0.0060631,1.0459e-08,0.08,0.4,0
0.0054596,0.00057818,0.0090461,0.0022018,0.0033744,0.00019075,0,0,0.058986,-0.012195,0,0.0039677,0,0,0,0.0090514,0.0021965,0.0033744,1.5952,0.0048741,0.0063485,1.1631e-08,0.1,0.4,0
0.0066559,0.00069735,0.0091761,0.0019814,0.0033472,0.00015452,0,0,0.06062,-0.014205,0,0.003214,0,0,0,0.0091794,0.0019781,0.0033472,1.2298,0.0048349,0.0066237,1.2802e-08,0.12,0.4,0
0.0078844,0.00081282,0.0093078,0.0017799,0.0033263,0.0001109,0,0,0.062207,-0.016083,0,0.0023066,0,0,0,0.0093094,0.0017783,0.0033263,0.8438,0.0048046,0.0068889,1.3975e-08,0.14,0.4,0
0.0091442,0.00092314,0.0094421,0.001598,0.003312,6.0557e-05,0,0,0.063753,-0.017826,0,0.0012596,0,0,0,0.0094425,0.0015975,0.003312,0.44229,0.004784,0.0071438,1.5151e-08,0.16,0.4,0
0.010434,0.0010272,0.0095799,0.0014369,0.003305,4.2916e-06,0,0,0.065258,-0.019429,0,8.9266e-05,0,0,0,0.0095799,0.0014369,0.003305,0.030197,0.0047739,0.0073882,1.6334e-08,0.18,0.4,0
0.011754,0.0011245,0.0097221,0.0012982,0.0033061,-5.6916e-05,0,0,0.066727,-0.020882,0,-0.0011838,0,0,0,0.0097225,0.0012978,0.0033061,-0.38709,0.0047754,0.0076217,1.7528e-08,0.2,0.4,0
0.013104,0.0012149,0.0098698,0.0011839,0.0033161,-0.00012173,0,0,0.068159,-0.022175,0,-0.002532,0,0,0,0.0098716,0.0011822,0.0033161,-0.80278,0.00479,0.0078432,1.8735e-08,0.22,0.4,0
0.014481,0.001299,0.010024,0.0010972,0.0033364,-0.0001882,0,0,0.069554,-0.023289,0,-0.0039146,0,0,0,0.010028,0.0010932,0.0033364,-1.2072,0.0048193,0.0080513,1.9955e-08,0.24,0.4,0
0.015886,0.0013786,0.010187,0.0010418,0.0033685,-0.00025327,0,0,0.070908,-0.024198,0,-0.0052679,0,0,0,0.010194,0.0010348,0.0033685,-1.5852,0.0048656,0.0082435,2.1187e-08,0.26,0.4,0
0.017317,0.0014568,0.010358,0.0010234,0.0034144,-0.00031194,0,0,0.072214,-0.024867,0,-0.0064883,0,0,0,0.010368,0.001013,0.0034144,-1.9118,0.004932,0.0084159,2.2418e-08,0.28,0.4,0
0.018774,0.0015385,0.01054,0.0010496,0.003477,-0.00035593,0,0,0.07346,-0.025245,0,-0.0074034,0,0,0,0.010554,0.0010363,0.003477,-2.1447,0.0050224,0.0085622,2.3625e-08,0.3,0.4,0
0.020256,0.0016319,0.010735,0.0011314,0.0035599,-0.00037145,0,0,0.074621,-0.025257,0,-0.0077263,0,0,0,0.010749,0.001117,0.0035599,-2.2117,0.0051421,0.0086729,2.4759e-08,0.32,0.4,0
0.021759,0.0017491,0.01094,0.0012841,0.0036673,-0.00033654,0,0,0.075638,-0.024785,0,-0.0070001,0,0,0,0.010952,0.0012724,0.0036673,-1.9937,0.0052972,0.0087319,2.572e-08,0.34,0.4,0
0.023281,0.0019079,0.01114,0.0015322,0.0038018,-0.00021642,0,0,0.07632,-0.023603,0,-0.0045016,0,0,0,0.011145,0.0015274,0.0038018,-1.2897,0.0054914,0.0087063,2.6256e-08,0.36,0.4,0
0.024812,0.0021329,0.01123,0.0019034,0.00394,1.4183e-05,0,0,0.075816,-0.021181,0,0.00029501,0,0,0,0.01123,0.0019034,0.00394,0.087132,0.0056912,0.0084935,2.5473e-08,0.38,0.4,0
0.026314,0.0024325,0.011166,0.0026288,0.0041383,0.0002947,0,0,0.073085,-0.0157,0,0.0061299,0,0,0,0.011176,0.0026186,0.0041383,1.9748,0.0059776,0.0079077,2.2268e-08,0.4,0.4,0
0.027735,0.0027425,0.010943,0.00025295,0.0033586,0.00045288,0,0,0.040956,-0.0071776,0,0.0057839,0,0,0,0.010965,0.00023025,0.0033586,2.741,0.0048513,0.0096788,2.5062e-08,0.42,0.4,0
0.027952,0.0028626,0.01123,-0.00044919,0.0032343,-6.0184e-05,0,0,0.010395,-0.0047885,0,-0.00015648,0,0,0,0.01123,-0.0004495,0.0032343,-0.29524,0.0046717,0.010342,3.3477e-08,0.44,0.4,0
0.028151,0.002946,0.01096,-0.00041966,0.003162,-0.00045103,0,0,0.010137,-0.0046562,0,-0.0011727,0,0,0,0.010978,-0.00043751,0.003162,-2.2662,0.0045674,0.010108,3.1262e-08,0.46,0.4,0
0.028357,0.0029995,0.011257,-0.00031213,0.0032835,-0.00056502,0,0,0.010366,-0.0046743,0,-0.001469,0,0,0,0.011285,-0.00033966,0.0032835,-2.7894,0.0047428,0.010302,3.3642e-08,0.48,0.4,0
0.028566,0.0030458,0.011331,-0.00025571,0.0033226,-0.00042575,0,0,0.010411,-0.0046518,0,-0.001107,0,0,0,0.011347,-0.00027133,0.0033226,-2.1015,0.0047993,0.010302,3.3993e-08,0.5,0.4,0
0.028774,0.0030913,0.011337,-0.00010694,0.0033689,-0.0002647,0,0,0.010358,-0.0045187,0,-0.00068821,0,0,0,0.011343,-0.00011306,0.0033689,-1.3243,0.0048663,0.010172,3.348e-08,0.52,0.4,0
0.02898,0.0031381,0.011292,5.8884e-05,0.0034053,-0.00014199,0,0,0.010253,-0.0043504,0,-0.00036917,0,0,0,0.011294,5.709e-05,0.0034053,-0.72406,0.0049188,0.0099928,3.2525e-08,0.54,0.4,0
0.029184,0.0031849,0.011249,0.00019673,0.0034338,-8.2833e-05,0,0,0.01016,-0.0042082,0,-0.00021537,0,0,0,0.01125,0.00019611,0.0034338,-0.42938,0.0049599,0.0098427,3.1706e-08,0.56,0.4,0
0.029386,0.0032303,0.011225,0.00025284,0.0034435,-7.0454e-05,0,0,0.010117,-0.0041478,0,-0.00018318,0,0,0,0.011226,0.00025239,0.0034435,-0.36787,0.0049739,0.0097766,3.1323e-08,0.58,0.4,0
0.029589,0.0032732,0.011235,0.00020661,0.0034324,-7.7382e-05,0,0,0.010143,-0.0041935,0,-0.00020119,0,0,0,0.011235,0.00020606,0.0034324,-0.40201,0.0049579,0.0098218,3.1551e-08,0.6,0.4,0
0.029792,0.0033137,0.011276,5.8235e-05,0.0034002,-7.2094e-05,0,0,0.010238,-0.0043446,0,-0.00018745,0,0,0,0.011276,5.7772e-05,0.0034002,-0.36821,0.0049115,0.0099765,3.237e-08,0.62,0.4,0
0.029998,0.0033528,0.011331,-0.00017019,0.0033482,-2.7606e-05,0,0,0.010377,-0.0045739,0,-7.1776e-05,0,0,0,0.011331,-0.00017026,0.0033482,-0.13753,0.0048363,0.010207,3.355e-08,0.64,0.4,0
0.030207,0.0033923,0.01137,-0.00042195,0.0032845,7.1722e-05,0,0,0.010512,-0.0048184,0,0.00018648,0,0,0,0.011371,-0.00042239,0.0032845,0.34846,0.0047443,0.010445,3.4653e-08,0.66,0.4,0
0.030419,0.0034336,0.011316,-0.00064451,0.0032015,0.00020261,0,0,0.010549,-0.0049998,0,0.00052679,0,0,0,0.01132,-0.00064794,0.0032015,0.97021,0.0046244,0.010582,3.4825e-08,0.68,0.4,0
0.030629,0.0034755,0.011086,-0.00075913,0.0030982,0.00031843,0,0,0.010385,-0.0050145,0,0.00082793,0,0,0,0.011095,-0.00076769,0.0030982,1.5388,0.0044752,0.010479,3.3136e-08,0.7,0.4,0
0.030834,0.0035137,0.010518,-0.00086511,0.0028958,0.00027909,0,0,0.0099087,-0.0048892,0,0.00072564,0,0,0,0.010525,-0.00087195,0.0028958,1.4037,0.0041829,0.010057,2.8607e-08,0.72,0.4,0
0.031026,0.0035344,0.011015,-0.00077304,0.0030725,6.9536e-05,0,0,0.010325,-0.0049992,0,0.00018079,0,0,0,0.011015,-0.00077344,0.0030725,0.33798,0.004438,0.010413,3.2453e-08,0.74,0.4,0
0.031247,0.0035218,0.010489,-0.0010125,0.002843,-0.00029163,0,0,0.040761,-0.0089104,0,-0.0056976,0,0,0,0.010508,-0.0010318,0.002843,-2.0997,0.0041065,0.01032,2.0836e-08,0.76,0.4,0
0.032656,0.0032856,0.010872,0.0019261,0.0038395,-0.00037728,0,0,0.07314,-0.019899,0,-0.0078474,0,0,0,0.010888,0.0019102,0.0038395,-2.4106,0.0055459,0.0081855,2.298e-08,0.78,0.4,0
0.034173,0.0029691,0.011202,0.0016576,0.003858,3.0391e-05,0,0,0.076381,-0.022884,0,0.00063214,0,0,0,0.011202,0.0016575,0.003858,0.18243,0.0055726,0.008657,2.6204e-08,0.8,0.4,0
0.035711,0.0027592,0.011143,0.00099296,0.0036409,0.00037107,0,0,0.078025,-0.027538,0,0.0077183,0,0,0,0.011157,0.00097941,0.0036409,2.0909,0.0052591,0.009142,2.8319e-08,0.82,0.4,0
0.037294,0.002675,0.011171,0.00055999,0.0035194,0.00051784,0,0,0.07958,-0.030778,0,0.010771,0,0,0,0.011196,0.00053478,0.0035194,2.7872,0.0050836,0.0095268,3.0157e-08,0.84,0.4,0
0.038894,0.0026487,0.011113,0.00026298,0.0034127,0.00052429,0,0,0.080081,-0.032758,0,0.010905,0,0,0,0.011138,0.0002377,0.0034127,2.7601,0.0049295,0.0097103,3.0635e-08,0.86,0.4,0
0.040497,0.0026518,0.011009,4.5809e-05,0.0033166,0.00047888,0,0,0.080005,-0.034016,0,0.0099607,0,0,0,0.01103,2.4932e-05,0.0033166,2.4963,0.0047906,0.009784,3.0391e-08,0.88,0.4,0
0.042095,0.0026687,0.010903,-0.00011254,0.0032371,0.00041098,0,0,0.079725,-0.034837,0,0.0085484,0,0,0,0.010918,-0.00012785,0.0032371,2.1337,0.0046759,0.0098067,2.9914e-08,0.9,0.4,0
0.043686,0.0026905,0.010809,-0.00022724,0.0031746,0.00033324,0,0,0.079401,-0.03538,0,0.0069313,0,0,0,0.010819,-0.00023729,0.0031746,1.7279,0.0045856,0.0098065,2.9413e-08,0.92,0.4,0
0.045271,0.0027116,0.010734,-0.00030828,0.0031279,0.00025132,0,0,0.079109,-0.035736,0,0.0052275,0,0,0,0.01074,-0.000314,0.0031279,1.3031,0.004518,0.0097977,2.898e-08,0.94,0.4,0
0.04685,0.0027286,0.010681,-0.00036221,0.0030955,0.00016786,0,0,0.078884,-0.03596,0,0.0034914,0,0,0,0.010683,-0.00036476,0.0030955,0.87066,0.0044713,0.0097877,2.8656e-08,0.96,0.4,0
0.048426,0.0027396,0.010648,-0.00039309,0.0030765,8.3959e-05,0,0,0.078744,-0.036084,0,0.0017464,0,0,0,0.010649,-0.00039373,0.0030765,0.43566,0.0044438,0.0097805,2.8457e-08,0.98,0.4,0
0.05,0.0027433,0.010637,-0.00040315,0.0030702,9.0547e-06,0,0,0.078697,-0.036123,0,0.00018834,0,0,0,0.010637,-0.00040315,0.0030702,0.046991,0.0044348,0.0097779,2.839e-08,1,0.4,0
0,0,0.0085085,0.0036465,0.0036465,0.00012128,0,0,0.050565,8.6736e-19,0,0.0025226,0,0,0,0.0085115,0.0036435,0.0036465,1.428,0.0052671,0.0048665,5.9194e-09,0,0.42,0
0.0010113,5.0453e-05,0.0084736,0.0032666,0.0035221,0.00011824,0,0,0.051496,-0.002657,0,0.0024593,0,0,0,0.0084763,0.0032639,0.0035221,1.3001,0.0050874,0.0050882,6.7072e-09,0.02,0.42,0
0.0020598,0.00011278,0.0086006,0.0029798,0.0034741,0.00012126,0,0,0.053315,-0.005141,0,0.0025223,0,0,0,0.0086032,0.0029772,0.0034741,1.2353,0.0050182,0.0053948,7.8335e-09,0.04,0.42,0
0.0031439,0.00018352,0.0087249,0.0027129,0.0034313,0.00011272,0,0,0.055053,-0.0074721,0,0.0023446,0,0,0,0.008727,0.0027107,0.0034313,1.0737,0.0049564,0.0056903,8.9535e-09,0.06,0.42,0
0.004262,0.00025967,0.0088478,0.0024645,0.0033937,9.3792e-05,0,0,0.056722,-0.0096631,0,0.0019509,0,0,0,0.0088492,0.0024632,0.0033937,0.84163,0.004902,0.0059753,1.0067e-08,0.08,0.42,0
0.0054128,0.0003387,0.0089701,0.0022342,0.0033613,6.5383e-05,0,0,0.058331,-0.011721,0,0.00136,0,0,0,0.0089707,0.0022336,0.0033613,0.55609,0.0048552,0.00625,1.1176e-08,0.1,0.42,0
0.0065952,0.00041843,0.0090926,0.0020218,0.0033343,2.824e-05,0,0,0.059886,-0.01365,0,0.00058739,0,0,0,0.0090927,0.0020217,0.0033343,0.22883,0.0048163,0.0065146,1.2279e-08,0.12,0.42,0
0.0078082,0.00049708,0.0092159,0.0018277,0.0033131,-1.6977e-05,0,0,0.061389,-0.015448,0,-0.00035313,0,0,0,0.0092159,0.0018276,0.0033131,-0.13166,0.0047855,0.0067689,1.3379e-08,0.14,0.42,0
0.0090508,0.00057326,0.0093406,0.0016525,0.0032979,-6.9624e-05,0,0,0.062844,-0.017113,0,-0.0014482,0,0,0,0.0093413,0.0016518,0.0032979,-0.51881,0.0047637,0.0070128,1.4477e-08,0.16,0.42,0
0.010322,0.00064598,0.0094675,0.0014972,0.0032894,-0.00012899,0,0,0.064252,-0.018639,0,-0.0026831,0,0,0,0.0094696,0.0014951,0.0032894,-0.92698,0.0047514,0.0072459,1.5574e-08,0.18,0.42,0
0.011621,0.00071481,0.0095973,0.0013634,0.0032882,-0.00019423,0,0,0.065615,-0.020018,0,-0.00404,0,0,0,0.0096019,0.0013588,0.0032882,-1.3505,0.0047496,0.0074677,1.6672e-08,0.2,0.42,0
0.012947,0.0007799,0.009731,0.0012526,0.0032951,-0.00026416,0,0,0.066934,-0.021241,0,-0.0054945,0,0,0,0.0097392,0.0012444,0.0032951,-1.7828,0.0047596,0.0076777,1.7774e-08,0.22,0.42,0
0.014298,0.00084223,0.00987,0.0011673,0.0033112,-0.00033705,0,0,0.068212,-0.022296,0,-0.0070105,0,0,0,0.0098831,0.0011543,0.0033112,-2.2146,0.0047829,0.007875,1.8884e-08,0.24,0.42,0
0.015675,0.00090385,0.010016,0.0011103,0.003338,-0.0004102,0,0,0.069455,-0.023168,0,-0.0085322,0,0,0,0.010035,0.0010915,0.003338,-2.6315,0.0048216,0.0080589,2.0005e-08,0.26,0.42,0
0.017076,0.00096831,0.010173,0.0010852,0.0033775,-0.00047931,0,0,0.070675,-0.023841,0,-0.0099697,0,0,0,0.010198,0.0010599,0.0033775,-3.0107,0.0048786,0.0082282,2.1144e-08,0.28,0.42,0
0.018502,0.0010413,0.010346,0.0010965,0.0034328,-0.00053739,0,0,0.071899,-0.024297,0,-0.011178,0,0,0,0.010377,0.0010654,0.0034328,-3.314,0.0049585,0.0083828,2.2316e-08,0.3,0.42,0
0.019952,0.0011315,0.010545,0.0011505,0.0035087,-0.0005731,0,0,0.07318,-0.024526,0,-0.011921,0,0,0,0.01058,0.0011156,0.0035087,-3.478,0.0050681,0.0085237,2.3556e-08,0.32,0.42,0
0.021429,0.0012524,0.010789,0.0012563,0.0036135,-0.00056708,0,0,0.074623,-0.024516,0,-0.011795,0,0,0,0.010823,0.0012227,0.0036135,-3.3925,0.0052195,0.0086557,2.4937e-08,0.34,0.42,0
0.022937,0.0014245,0.011109,0.0014311,0.0037619,-0.000487,0,0,0.076405,-0.02424,0,-0.01013,0,0,0,0.011133,0.0014066,0.0037619,-2.8736,0.0054338,0.0087887,2.6607e-08,0.36,0.42,0
0.024486,0.0016783,0.011535,0.0017127,0.0039744,-0.00025079,0,0,0.078634,-0.023522,0,-0.0052165,0,0,0,0.011542,0.0017063,0.0039744,-1.4616,0.0057408,0.0089203,2.8664e-08,0.38,0.42,0
0.026083,0.0020795,0.011678,0.0020738,0.0041254,0.00015955,0,0,0.078543,-0.021337,0,0.0033186,0,0,0,0.01168,0.0020711,0.0041254,0.95151,0.0059589,0.0087645,2.8278e-08,0.4,0.42,0
0.027627,0.0025959,0.010339,-0.001063,0.0027829,-0.00014975,0,0,0.04361,-0.0088883,0,0.0058474,0,0,0,0.010401,-0.0011244,0.0027829,0.41914,0.0040197,0.010339,1.7736e-08,0.42,0.42,0
0.027827,0.0027759,0.011716,1.0651e-05,0.0035178,0.00034185,0,0,0.010657,-0.0045593,0,0.00088881,0,0,0,0.011725,6.7559e-07,0.0035178,1.6715,0.0050813,0.010421,3.6594e-08,0.44,0.42,0
0.028053,0.0028501,0.012282,-9.2531e-05,0.0036569,-0.00056753,0,0,0.011213,-0.0048742,0,-0.0014756,0,0,0,0.012308,-0.0001185,0.0036569,-2.6204,0.0052821,0.011034,4.2759e-08,0.46,0.42,0
0.028276,0.0029028,0.011997,-0.00045167,0.0034635,-0.00049972,0,0,0.011093,-0.0050897,0,-0.0012993,0,0,0,0.012017,-0.0004717,0.0034635,-2.2951,0.0050028,0.011059,4.0982e-08,0.48,0.42,0
0.028497,0.0029491,0.011867,-0.00040589,0.0034385,-0.00034604,0,0,0.010958,-0.0049976,0,-0.0008997,0,0,0,0.011877,-0.00041564,0.0034385,-1.6137,0.0049667,0.01089,3.9411e-08,0.5,0.42,0
0.028714,0.0029983,0.011671,-0.00025524,0.0034247,-0.00015416,0,0,0.01072,-0.004784,0,-0.00040082,0,0,0,0.011673,-0.00025723,0.0034247,-0.74047,0.0049468,0.010581,3.6941e-08,0.52,0.42,0
0.028926,0.0030494,0.011536,2.6802e-06,0.0034616,-4.8398e-05,0,0,0.010497,-0.0044966,0,-0.00012584,0,0,0,0.011536,2.4771e-06,0.0034616,-0.24043,0.0050001,0.010252,3.4845e-08,0.54,0.42,0
0.029134,0.0030999,0.011427,0.00019977,0.0034881,-2.2487e-05,0,0,0.010321,-0.0042748,0,-5.8465e-05,0,0,0,0.011427,0.00019973,0.0034881,-0.11475,0.0050383,0.0099975,3.3228e-08,0.56,0.42,0
0.029339,0.0031469,0.011372,0.00028732,0.0034977,-5.328e-05,0,0,0.010236,-0.0041735,0,-0.00013853,0,0,0,0.011372,0.00028706,0.0034977,-0.2754,0.0050522,0.0098788,3.2458e-08,0.58,0.42,0
0.029543,0.003189,0.01137,0.00024384,0.0034842,-0.00010307,0,0,0.010252,-0.0042124,0,-0.00026798,0,0,0,0.011371,0.00024289,0.0034842,-0.5307,0.0050327,0.0099132,3.2596e-08,0.6,0.42,0
0.029749,0.0032262,0.011421,6.9315e-05,0.0034469,-0.00013871,0,0,0.010366,-0.0043909,0,-0.00036065,0,0,0,0.011422,6.762e-05,0.0034469,-0.70001,0.0049789,0.010098,3.3613e-08,0.62,0.42,0
0.029958,0.0032601,0.011516,-0.00021459,0.0033904,-0.00012035,0,0,0.010563,-0.0046864,0,-0.00031291,0,0,0,0.011517,-0.00021582,0.0033904,-0.58775,0.0048972,0.010409,3.5363e-08,0.64,0.42,0
0.030171,0.0032939,0.01162,-0.00055452,0.0033197,-1.8834e-05,0,0,0.010791,-0.0050365,0,-4.8968e-05,0,0,0,0.01162,-0.00055455,0.0033197,-0.088633,0.0047952,0.010774,3.7353e-08,0.66,0.42,0
0.030389,0.0033309,0.011754,-0.00077929,0.0032923,0.00018242,0,0,0.011,-0.005293,0,0.0004743,0,0,0,0.011756,-0.00078194,0.0032923,0.83374,0.0047555,0.011078,3.9329e-08,0.68,0.42,0
0.030611,0.003373,0.0118,-0.00087513,0.0032774,0.00039018,0,0,0.011079,-0.0053983,0,0.0010145,0,0,0,0.011812,-0.00088713,0.0032774,1.7615,0.0047341,0.011213,4.0183e-08,0.7,0.42,0
0.030833,0.0034134,0.012055,-0.00057986,0.0034426,0.00056138,0,0,0.011196,-0.0052293,0,0.0014596,0,0,0,0.01208,-0.00060476,0.0034426,2.539,0.0049727,0.011223,4.2056e-08,0.72,0.42,0
0.031059,0.0034355,0.011517,-0.00077289,0.0032232,-0.00027628,0,0,0.010782,-0.0051949,0,-0.00071833,0,0,0,0.011523,-0.00077909,0.0032232,-1.2872,0.0046557,0.010868,3.7071e-08,0.74,0.42,0
0.031264,0.003344,0.010094,-0.0020735,0.0024063,9.8113e-05,0,0,0.044148,-0.010353,0,-0.0073824,0,0,0,0.010169,-0.0021483,0.0024063,-0.92926,0.0034758,0.011005,1.2547e-08,0.76,0.42,0
0.032825,0.0028495,0.011583,0.0014409,0.0039071,-0.00028426,0,0,0.079827,-0.025649,0,-0.0059125,0,0,0,0.011591,0.001433,0.0039071,-1.6042,0.0056436,0.0091745,3.0151e-08,0.78,0.42,0
0.034457,0.002445,0.011563,0.0011848,0.0038245,0.00014462,0,0,0.080485,-0.027452,0,0.003008,0,0,0,0.011565,0.0011828,0.0038245,0.79816,0.0055242,0.0093461,3.091e-08,0.8,0.42,0
0.036045,0.002201,0.011198,0.00089236,0.0036271,0.00047624,0,0,0.078737,-0.028441,0,0.0099057,0,0,0,0.01122,0.0008704,0.0036271,2.6402,0.0052392,0.0092834,2.9205e-08,0.82,0.42,0
0.037607,0.002066,0.010954,0.00055947,0.0034539,0.0006127,0,0,0.077996,-0.030102,0,0.012744,0,0,0,0.01099,0.00052347,0.0034539,3.3619,0.004989,0.0093518,2.852e-08,0.84,0.42,0
0.039164,0.0020046,0.010826,0.00030666,0.0033399,0.00063058,0,0,0.07786,-0.031546,0,0.013116,0,0,0,0.010864,0.000269,0.0033399,3.4181,0.0048244,0.009442,2.8318e-08,0.86,0.42,0
0.040721,0.0019837,0.01073,0.00011482,0.0032535,0.00058115,0,0,0.077757,-0.032642,0,0.012088,0,0,0,0.010762,8.3095e-05,0.0032535,3.1243,0.0046995,0.0094991,2.8059e-08,0.88,0.42,0
0.042275,0.0019842,0.010648,-3.0695e-05,0.0031851,0.00050107,0,0,0.07761,-0.033444,0,0.010422,0,0,0,0.010671,-5.4156e-05,0.0031851,2.6807,0.0046007,0.0095279,2.7734e-08,0.9,0.42,0
0.043825,0.0019948,0.010578,-0.00013933,0.0031316,0.00040713,0,0,0.077443,-0.034018,0,0.0084684,0,0,0,0.010594,-0.00015478,0.0031316,2.1724,0.0045235,0.0095396,2.7404e-08,0.92,0.42,0
0.045372,0.0020084,0.010523,-0.00021785,0.0030915,0.00030734,0,0,0.077286,-0.034417,0,0.0063927,0,0,0,0.010532,-0.00022664,0.0030915,1.6377,0.0044655,0.0095422,2.7117e-08,0.94,0.42,0
0.046917,0.0020206,0.010483,-0.00027093,0.0030636,0.00020536,0,0,0.077162,-0.034679,0,0.0042714,0,0,0,0.010487,-0.00027485,0.0030636,1.0936,0.0044252,0.0095411,2.6897e-08,0.96,0.42,0
0.048459,0.0020289,0.010459,-0.00030164,0.0030472,0.00010273,0,0,0.077082,-0.034828,0,0.0021368,0,0,0,0.01046,-0.00030262,0.0030472,0.54694,0.0044015,0.0095394,2.6762e-08,0.98,0.42,0
0.05,0.0020318,0.010451,-0.00031168,0.0030418,6.9759e-06,0,0,0.077055,-0.034876,0,0.0001451,0,0,0,0.010451,-0.00031169,0.0030418,0.037137,0.0043936,0.0095387,2.6716e-08,1,0.42,0
0,0,0.0084405,0.0036174,0.0036174,-3.5627e-06,0,0,0.050161,-5.421e-19,0,-7.4103e-05,0,0,0,0.0084405,0.0036174,0.0036174,-0.042322,0.0052251,0.0048232,5.7627e-09,0,0.44,0
0.0010032,-1.4821e-06,0.0084074,0.0032558,0.003499,-6.5318e-06,0,0,0.051048,-0.0025289,0,-0.00013586,0,0,0,0.0084074,0.0032558,0.003499,-0.072646,0.0050541,0.0050345,6.5021e-09,0.02,0.44,0
0.0020419,1.2239e-05,0.0085279,0.0029817,0.0034529,-3.5355e-07,0,0,0.05278,-0.0049003,0,-7.3538e-06,0,0,0,0.0085279,0.0029817,0.0034529,-0.0036524,0.0049875,0.0053262,7.556e-09,0.04,0.44,0
0.0031144,3.7328e-05,0.0086455,0.002726,0.0034115,-6.8614e-06,0,0,0.054434,-0.0071288,0,-0.00014272,0,0,0,0.0086455,0.002726,0.0034115,-0.066412,0.0049277,0.0056083,8.6053e-09,0.06,0.44,0
0.0042193,7.0582e-05,0.0087613,0.0024878,0.0033747,-2.4579e-05,0,0,0.05602,-0.0092239,0,-0.00051124,0,0,0,0.0087613,0.0024877,0.0033747,-0.22448,0.0048746,0.0058805,9.6479e-09,0.08,0.44,0
0.0053552,0.00010933,0.0088757,0.0022667,0.0033427,-5.2393e-05,0,0,0.057543,-0.01119,0,-0.0010898,0,0,0,0.0088761,0.0022663,0.0033427,-0.45419,0.0048284,0.0061427,1.0682e-08,0.1,0.44,0
0.006521,0.00015136,0.0089892,0.0020629,0.0033156,-8.944e-05,0,0,0.059005,-0.013029,0,-0.0018603,0,0,0,0.0089903,0.0020617,0.0033156,-0.7397,0.0047892,0.0063945,1.1708e-08,0.12,0.44,0
0.0077154,0.0001949,0.0091022,0.0018766,0.0032936,-0.00013501,0,0,0.060409,-0.014737,0,-0.0028082,0,0,0,0.0091047,0.001874,0.0032936,-1.0701,0.0047575,0.0066357,1.2723e-08,0.14,0.44,0
0.0089374,0.00023863,0.009215,0.0017086,0.0032771,-0.00018847,0,0,0.061754,-0.016312,0,-0.0039201,0,0,0,0.0092197,0.0017039,0.0032771,-1.4373,0.0047336,0.0068658,1.3726e-08,0.16,0.44,0
0.010186,0.00028169,0.009328,0.0015599,0.0032664,-0.00024918,0,0,0.063041,-0.017747,0,-0.0051829,0,0,0,0.009336,0.0015519,0.0032664,-1.8354,0.0047181,0.0070842,1.4717e-08,0.18,0.44,0
0.011459,0.00032376,0.0094417,0.0014317,0.003262,-0.00031642,0,0,0.064269,-0.019035,0,-0.0065815,0,0,0,0.0094542,0.0014192,0.003262,-2.2586,0.0047118,0.0072904,1.5696e-08,0.2,0.44,0
0.012756,0.0003652,0.0095567,0.0013254,0.0032646,-0.00038924,0,0,0.065437,-0.020168,0,-0.0080961,0,0,0,0.009575,0.0013071,0.0032646,-2.7013,0.0047156,0.0074837,1.6663e-08,0.22,0.44,0
0.014077,0.00040717,0.009674,0.0012428,0.003275,-0.0004663,0,0,0.066549,-0.021135,0,-0.0096989,0,0,0,0.0096997,0.0012171,0.003275,-3.156,0.0047306,0.0076638,1.762e-08,0.24,0.44,0
0.015418,0.00045192,0.0097955,0.0011857,0.0032943,-0.00054562,0,0,0.067612,-0.02193,0,-0.011349,0,0,0,0.0098299,0.0011512,0.0032943,-3.6117,0.0047585,0.0078302,1.8572e-08,0.26,0.44,0
0.016781,0.00050317,0.009924,0.0011562,0.0033241,-0.00062425,0,0,0.06864,-0.022546,0,-0.012984,0,0,0,0.0099682,0.0011119,0.0033241,-4.0521,0.0048014,0.0079835,1.9527e-08,0.28,0.44,0
0.018164,0.00056664,0.010065,0.0011564,0.0033665,-0.00069781,0,0,0.069667,-0.022985,0,-0.014514,0,0,0,0.01012,0.0011021,0.0033665,-4.4517,0.0048627,0.0081255,2.0509e-08,0.3,0.44,0
0.019568,0.00065086,0.010229,0.0011887,0.0034254,-0.00075983,0,0,0.070761,-0.023262,0,-0.015804,0,0,0,0.010293,0.0011252,0.0034254,-4.7708,0.0049478,0.0082612,2.1567e-08,0.32,0.44,0
0.020994,0.00076849,0.010437,0.0012566,0.003508,-0.00080104,0,0,0.072058,-0.023414,0,-0.016662,0,0,0,0.010506,0.0011872,0.003508,-4.9497,0.0050671,0.0084024,2.2812e-08,0.34,0.44,0
0.02245,0.00093825,0.01073,0.0013687,0.0036297,-0.00080432,0,0,0.073846,-0.023514,0,-0.01673,0,0,0,0.010799,0.0013001,0.0036297,-4.8751,0.0052429,0.0085747,2.4503e-08,0.36,0.44,0
0.023948,0.001192,0.011248,0.0015747,0.0038469,-0.0007452,0,0,0.076973,-0.02363,0,-0.0155,0,0,0,0.011305,0.0015177,0.0038469,-4.3794,0.0055566,0.0088557,2.7524e-08,0.38,0.44,0
0.025529,0.001579,0.012262,0.0019705,0.0042696,-0.00034916,0,0,0.083117,-0.023911,0,-0.0072626,0,0,0,0.012273,0.0019587,0.0042696,-1.941,0.0061673,0.0093754,3.3812e-08,0.4,0.44,0
0.027273,0.0023869,0.0172,7.1816e-05,0.0051816,-0.001017,0,0,0.044414,-0.016573,0,-0.010483,0,0,0,0.01727,2.0106e-06,0.0051816,-4.1623,0.0074845,0.015353,1.9266e-07,0.42,0.44,0
0.027733,0.0026803,0.010379,0.00078069,0.0033478,0.00054296,0,0,0.019212,-0.0066656,0,0.0048394,0,0,0,0.010418,0.00074153,0.0033478,4.8341,0.0048357,0.0086722,5.6297e-08,0.44,0.44,0
0.027965,0.002751,0.013048,0.00011421,0.0039487,0.0001189,0,0,0.011829,-0.0049848,0,0.00030914,0,0,0,0.013049,0.00011312,0.0039487,0.52665,0.0057037,0.011508,4.997e-08,0.46,0.44,0
0.028206,0.0027959,0.012756,-0.00030491,0.0037352,-0.00026045,0,0,0.011727,-0.0052522,0,-0.00067717,0,0,0,0.012761,-0.00031011,0.0037352,-1.142,0.0053953,0.01159,4.8371e-08,0.48,0.44,0
0.028434,0.0028459,0.012111,-0.00065764,0.0034361,-9.4359e-05,0,0,0.011278,-0.0053218,0,-0.00024533,0,0,0,0.012112,-0.00065834,0.0034361,-0.42337,0.0049632,0.011294,4.2553e-08,0.5,0.44,0
0.028658,0.0029,0.011914,-0.00035609,0.0034674,2.5539e-05,0,0,0.010981,-0.0049706,0,6.6401e-05,0,0,0,0.011914,-0.00035615,0.0034674,0.11925,0.0050085,0.010875,3.9586e-08,0.52,0.44,0
0.028873,0.0029582,0.011713,-1.4313e-05,0.0035095,8.6975e-05,0,0,0.010664,-0.004581,0,0.00022614,0,0,0,0.011713,-1.4958e-05,0.0035095,0.42491,0.0050693,0.010423,3.6533e-08,0.54,0.44,0
0.029084,0.0030139,0.011601,0.00025179,0.0035559,4.5571e-05,0,0,0.010459,-0.0042954,0,0.00011849,0,0,0,0.011602,0.00025161,0.0035559,0.23005,0.0051363,0.010111,3.4606e-08,0.56,0.44,0
0.029292,0.0030633,0.011536,0.00034545,0.0035646,-3.1014e-05,0,0,0.010363,-0.0041849,0,-8.0635e-05,0,0,0,0.011536,0.00034536,0.0035646,-0.15878,0.0051488,0.0099789,3.3704e-08,0.58,0.44,0
0.029499,0.0031047,0.011527,0.00030452,0.0035494,-0.00011536,0,0,0.010371,-0.0042184,0,-0.00029994,0,0,0,0.011528,0.00030333,0.0035494,-0.5889,0.0051269,0.010005,3.3772e-08,0.6,0.44,0
0.029707,0.003138,0.011571,0.0001273,0.0035095,-0.00019429,0,0,0.01048,-0.0043968,0,-0.00050516,0,0,0,0.011574,0.000124,0.0035095,-0.9724,0.0050692,0.010188,3.479e-08,0.62,0.44,0
0.029918,0.0031654,0.011658,-0.0002252,0.0034298,-0.00023581,0,0,0.010697,-0.0047516,0,-0.0006131,0,0,0,0.011663,-0.00022987,0.0034298,-1.1364,0.0049542,0.01055,3.6758e-08,0.64,0.44,0
0.030135,0.0031908,0.011825,-0.00065859,0.00335,-0.00016492,0,0,0.011018,-0.0052112,0,-0.00042878,0,0,0,0.011827,-0.00066077,0.00335,-0.75672,0.0048389,0.011043,3.9678e-08,0.66,0.44,0
0.030359,0.0032219,0.011991,-0.0010436,0.0032842,-1.0981e-05,0,0,0.011319,-0.0056261,0,-2.8551e-05,0,0,0,0.011991,-0.0010436,0.0032842,-0.04827,0.0047438,0.011499,4.2446e-08,0.68,0.44,0
0.030587,0.0032595,0.012608,-0.00079355,0.0035442,0.00020955,0,0,0.011782,-0.0056391,0,0.00054483,0,0,0,0.012611,-0.00079683,0.0035442,0.89562,0.0051194,0.011849,4.8407e-08,0.7,0.44,0
0.03083,0.0033045,0.012958,-0.00046899,0.0037469,-8.4586e-05,0,0,0.011975,-0.0054806,0,-0.00021992,0,0,0,0.012959,-0.00046952,0.0037469,-0.36091,0.0054121,0.011895,5.1253e-08,0.72,0.44,0
0.031066,0.0033266,0.01037,0.00024262,0.0031837,-0.00055417,0,0,0.019656,-0.0076558,0,-0.0051171,0,0,0,0.01041,0.00020236,0.0031837,-4.8161,0.0045987,0.0090916,5.9691e-08,0.74,0.44,0
0.031538,0.0031077,0.017145,-0.00099096,0.0048463,0.00087619,0,0,0.045397,-0.019352,0,0.0085965,0,0,0,0.017192,-0.001038,0.0048463,3.2924,0.0070003,0.016119,2.0168e-07,0.76,0.44,0
0.033319,0.0022597,0.012282,0.001385,0.0041001,0.00015919,0,0,0.085092,-0.028237,0,0.0033111,0,0,0,0.012284,0.0013827,0.0041001,0.83675,0.0059224,0.0098289,3.6492e-08,0.78,0.44,0
0.034941,0.001871,0.011295,0.00097118,0.0036798,0.00061428,0,0,0.079197,-0.02817,0,0.012777,0,0,0,0.011331,0.00093476,0.0036798,3.3933,0.0053153,0.0093319,2.9884e-08,0.8,0.44,0
0.036486,0.0016215,0.01082,0.00074092,0.0034683,0.00070822,0,0,0.076459,-0.028365,0,0.014731,0,0,0,0.01087,0.0006914,0.0034683,3.9997,0.0050098,0.0091129,2.7046e-08,0.82,0.44,0
0.038,0.0014709,0.010587,0.00054564,0.0033399,0.00074442,0,0,0.075374,-0.02906,0,0.015484,0,0,0,0.010642,0.00049076,0.0033399,4.2168,0.0048243,0.0090691,2.595e-08,0.84,0.44,0
0.039501,0.0013869,0.010458,0.00035493,0.0032438,0.00072039,0,0,0.075025,-0.030044,0,0.014984,0,0,0,0.010509,0.00030382,0.0032438,4.0582,0.0046855,0.0090985,2.5506e-08,0.86,0.44,0
0.041001,0.0013461,0.010382,0.00019413,0.0031729,0.00065415,0,0,0.074976,-0.030979,0,0.013606,0,0,0,0.010424,0.0001523,0.0031729,3.6588,0.004583,0.0091435,2.5304e-08,0.88,0.44,0
0.0425,0.001331,0.010329,6.415e-05,0.0031178,0.00056215,0,0,0.074992,-0.031758,0,0.011693,0,0,0,0.010359,3.3454e-05,0.0031178,3.1255,0.0045035,0.0091808,2.5149e-08,0.9,0.44,0
0.044,0.0013297,0.010287,-3.7099e-05,0.0030749,0.00045685,0,0,0.075005,-0.032365,0,0.0095025,0,0,0,0.010307,-5.7275e-05,0.0030749,2.5288,0.0044416,0.0092069,2.5005e-08,0.92,0.44,0
0.045501,0.0013349,0.010254,-0.00011242,0.0030426,0.0003452,0,0,0.075003,-0.032812,0,0.0071802,0,0,0,0.010266,-0.0001239,0.0030426,1.905,0.0043949,0.0092237,2.4875e-08,0.94,0.44,0
0.047001,0.0013414,0.010231,-0.00016433,0.00302,0.00023087,0,0,0.074994,-0.033117,0,0.0048021,0,0,0,0.010236,-0.00016946,0.00302,1.2716,0.0043622,0.0092336,2.4772e-08,0.96,0.44,0
0.0485,0.0013465,0.010217,-0.00019472,0.0030066,0.00011557,0,0,0.074985,-0.033294,0,0.0024038,0,0,0,0.010218,-0.000196,0.0030066,0.63588,0.0043429,0.0092388,2.4707e-08,0.98,0.44,0
0.05,0.0013483,0.010212,-0.00020472,0.0030022,4.4364e-06,0,0,0.074982,-0.033351,0,9.2276e-05,0,0,0,0.010212,-0.00020472,0.0030022,0.024402,0.0043365,0.0092404,2.4684e-08,1,0.44,0
0,0,0.0083598,0.0035828,0.0035828,-0.00012189,0,0,0.049681,-6.5052e-19,0,-0.0025352,0,0,0,0.0083629,0.0035797,0.0035828,-1.4606,0.0051751,0.0047817,5.6152e-09,0,0.46,0
0.00099362,-5.0705e-05,0.0083285,0.0032414,0.003471,-0.00012465,0,0,0.050519,-0.002388,0,-0.0025927,0,0,0,0.0083316,0.0032383,0.003471,-1.4027,0.0050136,0.004981,6.3005e-09,0.02,0.46,0
0.0020207,-8.3225e-05,0.0084418,0.002981,0.0034269,-0.00011531,0,0,0.052156,-0.0046368,0,-0.0023984,0,0,0,0.0084443,0.0029786,0.0034269,-1.2091,0.0049499,0.0052559,7.2745e-09,0.04,0.46,0
0.0030798,-0.00010164,0.0085522,0.0027373,0.0033868,-0.0001194,0,0,0.05372,-0.0067553,0,-0.0024836,0,0,0,0.0085546,0.0027348,0.0033868,-1.1759,0.0048921,0.0055227,8.2463e-09,0.06,0.46,0
0.0041695,-0.00010929,0.00866,0.0025097,0.0033509,-0.00013521,0,0,0.055215,-0.0087484,0,-0.0028125,0,0,0,0.008663,0.0025068,0.0033509,-1.2588,0.0048402,0.0057806,9.2113e-09,0.08,0.46,0
0.0052884,-0.00010891,0.0087656,0.0022983,0.0033192,-0.00016145,0,0,0.056643,-0.010617,0,-0.0033582,0,0,0,0.0087696,0.0022943,0.0033192,-1.4291,0.0047944,0.0060286,1.0166e-08,0.1,0.46,0
0.0064352,-0.00010271,0.0088691,0.0021032,0.0032917,-0.00019713,0,0,0.058005,-0.01236,0,-0.0041003,0,0,0,0.0088748,0.0020975,0.0032917,-1.6675,0.0047547,0.0062662,1.1105e-08,0.12,0.46,0
0.0076086,-9.2413e-05,0.0089705,0.001925,0.0032687,-0.00024147,0,0,0.059299,-0.013974,0,-0.0050226,0,0,0,0.0089788,0.0019168,0.0032687,-1.9607,0.0047214,0.0064925,1.2027e-08,0.14,0.46,0
0.0088072,-7.9237e-05,0.0090698,0.0017646,0.0032503,-0.00029382,0,0,0.060523,-0.015452,0,-0.0061115,0,0,0,0.0090816,0.0017528,0.0032503,-2.2995,0.0046949,0.0067066,1.2927e-08,0.16,0.46,0
0.01003,-6.3915e-05,0.0091669,0.0016227,0.0032369,-0.00035358,0,0,0.061672,-0.016787,0,-0.0073544,0,0,0,0.0091835,0.0016062,0.0032369,-2.6775,0.0046755,0.0069078,1.3801e-08,0.18,0.46,0
0.011274,-4.6609e-05,0.0092619,0.0015006,0.0032287,-0.00042009,0,0,0.062744,-0.017972,0,-0.0087378,0,0,0,0.0092846,0.001478,0.0032287,-3.0892,0.0046638,0.0070951,1.4647e-08,0.2,0.46,0
0.012539,-2.681e-05,0.0093547,0.0013994,0.0032262,-0.00049256,0,0,0.063736,-0.018999,0,-0.010245,0,0,0,0.0093851,0.0013691,0.0032262,-3.5296,0.0046601,0.0072676,1.546e-08,0.22,0.46,0
0.013824,-3.187e-06,0.0094456,0.0013204,0.0032298,-0.00056998,0,0,0.064644,-0.019858,0,-0.011856,0,0,0,0.0094854,0.0012806,0.0032298,-3.9933,0.0046653,0.0074246,1.6237e-08,0.24,0.46,0
0.015125,2.6648e-05,0.0095351,0.0012648,0.00324,-0.00065094,0,0,0.06547,-0.020542,0,-0.013539,0,0,0,0.0095861,0.0012139,0.00324,-4.4729,0.00468,0.0075654,1.6978e-08,0.26,0.46,0
0.016442,6.6462e-05,0.0096245,0.0012335,0.0032574,-0.0007335,0,0,0.066218,-0.021049,0,-0.015257,0,0,0,0.0096881,0.0011698,0.0032574,-4.9584,0.0047051,0.00769,1.7683e-08,0.28,0.46,0
0.017774,0.00012188,0.0097155,0.001227,0.0032828,-0.00081511,0,0,0.066901,-0.02138,0,-0.016954,0,0,0,0.0097931,0.0011494,0.0032828,-5.4356,0.0047418,0.007799,1.8357e-08,0.3,0.46,0
0.019118,0.00020106,0.009811,0.0012449,0.0033168,-0.00089242,0,0,0.06754,-0.021548,0,-0.018562,0,0,0,0.009903,0.0011529,0.0033168,-5.8849,0.0047909,0.0078938,1.9009e-08,0.32,0.46,0
0.020475,0.00031582,0.0099125,0.0012844,0.0033591,-0.00096085,0,0,0.068155,-0.021576,0,-0.019986,0,0,0,0.010018,0.0011787,0.0033591,-6.2782,0.004852,0.007976,1.9644e-08,0.34,0.46,0
0.021845,0.00048393,0.010015,0.0013394,0.0034064,-0.0010139,0,0,0.068733,-0.021497,0,-0.021088,0,0,0,0.010132,0.0012224,0.0034064,-6.5774,0.0049204,0.0080434,2.0232e-08,0.36,0.46,0
0.023225,0.00073312,0.010036,0.0013613,0.0034193,-0.001026,0,0,0.068817,-0.021403,0,-0.02134,0,0,0,0.010156,0.0012416,0.0034193,-6.654,0.004939,0.0080496,2.0325e-08,0.38,0.46,0
0.024597,0.0011231,0.0099676,0.0013572,0.0033974,-0.00088977,0,0,0.068329,-0.021218,0,-0.018507,0,0,0,0.010058,0.0012662,0.0033974,-5.8386,0.0049074,0.0079441,1.9637e-08,0.4,0.46,0
0.025958,0.0018105,0.010571,0.00063249,0.0033611,-0.0010343,0,0,0.074985,-0.028377,0,-0.021514,0,0,0,0.010678,0.00052599,0.0033611,-5.8788,0.0048549,0.0090727,2.6108e-08,0.42,0.46,0
0.027597,0.0025281,0.013959,0.00021186,0.0042511,-0.00060923,0,0,0.039096,-0.015381,0,-0.010212,0,0,0,0.014016,0.00015486,0.0042511,-3.7138,0.0061405,0.012334,9.0132e-08,0.44,0.46,0
0.02795,0.0026507,0.0081274,-0.00011392,0.002404,0.00014167,0,0,0.015173,-0.0063319,0,0.00021216,0,0,0,0.0081307,-0.00011718,0.002404,0.40241,0.0034725,0.0073208,3.0688e-08,0.46,0.46,0
0.028154,0.0026927,0.011603,-0.00069356,0.003273,0.00017734,0,0,0.01083,-0.0051565,0,0.00046108,0,0,0,0.011606,-0.00069611,0.003273,0.82605,0.0047276,0.010875,3.7628e-08,0.48,0.46,0
0.028383,0.0027362,0.012058,-0.00075466,0.003391,1.9111e-05,0,0,0.011267,-0.0053894,0,4.9689e-05,0,0,0,0.012058,-0.00075469,0.003391,0.085462,0.0048981,0.011324,4.2294e-08,0.5,0.46,0
0.028604,0.0027995,0.011811,-0.00050255,0.0033926,0.00020021,0,0,0.010944,-0.0050637,0,0.00052055,0,0,0,0.011815,-0.0005058,0.0033926,0.93125,0.0049005,0.010907,3.9079e-08,0.52,0.46,0
0.028821,0.0028661,0.011829,9.3397e-05,0.0035768,0.00014781,0,0,0.010728,-0.0045284,0,0.00038432,0,0,0,0.011831,9.1536e-05,0.0035768,0.7215,0.0051664,0.010443,3.7279e-08,0.54,0.46,0
0.029033,0.0029281,0.011777,0.00032007,0.0036292,4.505e-05,0,0,0.010592,-0.0043018,0,0.00011713,0,0,0,0.011777,0.0003199,0.0036292,0.22528,0.0052421,0.010213,3.5975e-08,0.56,0.46,0
0.029245,0.0029795,0.011786,0.00037678,0.0036487,-3.3576e-05,0,0,0.010578,-0.0042535,0,-8.7297e-05,0,0,0,0.011786,0.00037668,0.0036487,-0.16862,0.0052704,0.010176,3.585e-08,0.58,0.46,0
0.029457,0.0030202,0.011771,0.00033726,0.0036324,-8.9453e-05,0,0,0.01058,-0.0042836,0,-0.00023258,0,0,0,0.011771,0.00033655,0.0036324,-0.44824,0.0052467,0.010195,3.586e-08,0.6,0.46,0
0.029668,0.0030503,0.011734,0.00020006,0.0035801,-0.00016906,0,0,0.0106,-0.0043941,0,-0.00043955,0,0,0,0.011736,0.00019758,0.0035801,-0.83958,0.0051713,0.010274,3.6023e-08,0.62,0.46,0
0.02988,0.00307,0.011756,-0.00011823,0.0034914,-0.00027058,0,0,0.010744,-0.0046925,0,-0.0007035,0,0,0,0.011762,-0.00012439,0.0034914,-1.3047,0.0050431,0.010554,3.7357e-08,0.64,0.46,0
0.030098,0.0030855,0.011715,-0.00081603,0.0032697,-0.00030708,0,0,0.010979,-0.0053115,0,-0.00079842,0,0,0,0.011723,-0.00082355,0.0032697,-1.403,0.0047229,0.011082,3.9118e-08,0.66,0.46,0
0.03032,0.0031058,0.011927,-0.0011969,0.0032189,-9.6482e-05,0,0,0.01132,-0.0057405,0,-0.00025085,0,0,0,0.011927,-0.0011976,0.0032189,-0.4212,0.0046496,0.011567,4.2211e-08,0.68,0.46,0
0.030551,0.0031474,0.011489,-0.0012139,0.0030826,-0.00019225,0,0,0.010929,-0.0055855,0,-0.00049985,0,0,0,0.011492,-0.0012169,0.0030826,-0.86684,0.0044527,0.011197,3.7913e-08,0.7,0.46,0
0.030757,0.0031942,0.008071,-0.00056538,0.0022517,-0.0001541,0,0,0.015447,-0.0071451,0,-0.00032714,0,0,0,0.0080744,-0.00056878,0.0022517,-0.5202,0.0032524,0.0076346,3.1592e-08,0.72,0.46,0
0.031117,0.0031514,0.013829,-0.00073455,0.0039284,0.00048667,0,0,0.039918,-0.017837,0,0.0087273,0,0,0,0.013869,-0.00077417,0.0039284,2.9334,0.0056744,0.01295,9.3305e-08,0.74,0.46,0
0.032792,0.0024192,0.010536,-7.4256e-05,0.0031384,0.0008566,0,0,0.076931,-0.033412,0,0.017817,0,0,0,0.010604,-0.00014297,0.0031384,4.5862,0.0045333,0.0095397,2.7457e-08,0.76,0.46,0
0.034194,0.00172,0.0099941,0.00076591,0.003228,0.00071486,0,0,0.070367,-0.025606,0,0.014869,0,0,0,0.010049,0.00071086,0.003228,4.4034,0.0046626,0.0083686,2.1174e-08,0.78,0.46,0
0.035606,0.0013182,0.010063,0.00072748,0.0032372,0.00086053,0,0,0.07099,-0.026101,0,0.017899,0,0,0,0.010142,0.00064883,0.0032372,5.2227,0.0046759,0.0084997,2.1958e-08,0.8,0.46,0
0.037034,0.0010664,0.010089,0.00067055,0.0032278,0.000868,0,0,0.071355,-0.026596,0,0.018055,0,0,0,0.010168,0.00059122,0.0032278,5.2218,0.0046624,0.0085686,2.2297e-08,0.82,0.46,0
0.03846,0.00090359,0.010038,0.00054769,0.0031757,0.00083168,0,0,0.071367,-0.027331,0,0.017299,0,0,0,0.01011,0.00047535,0.0031757,4.9707,0.0045871,0.0086084,2.2224e-08,0.84,0.46,0
0.039889,0.00080287,0.0099998,0.00041159,0.0031234,0.00077212,0,0,0.071515,-0.028203,0,0.01606,0,0,0,0.010062,0.00034981,0.0031234,4.5746,0.0045116,0.0086646,2.2232e-08,0.86,0.46,0
0.041321,0.00074454,0.0099766,0.00028013,0.003077,0.00068973,0,0,0.071755,-0.029087,0,0.014346,0,0,0,0.010025,0.00023132,0.003077,4.0484,0.0044446,0.0087264,2.2296e-08,0.88,0.46,0
0.042759,0.00071391,0.0099628,0.00016602,0.0030386,0.00059021,0,0,0.072011,-0.029875,0,0.012276,0,0,0,0.0099982,0.00013059,0.0030386,3.4352,0.0043891,0.0087824,2.2367e-08,0.9,0.46,0
0.044201,0.00070019,0.0099528,7.2931e-05,0.0030077,0.00047968,0,0,0.072229,-0.030522,0,0.0099774,0,0,0,0.0099761,4.9696e-05,0.0030077,2.7731,0.0043445,0.0088273,2.2418e-08,0.92,0.46,0
0.045648,0.00069588,0.0099449,1.5391e-06,0.0029839,0.00036297,0,0,0.072394,-0.031017,0,0.0075498,0,0,0,0.0099581,-1.1693e-05,0.0029839,2.0878,0.0043101,0.0088603,2.2445e-08,0.94,0.46,0
0.047097,0.00069592,0.0099387,-4.8661e-05,0.002967,0.00024311,0,0,0.072506,-0.031363,0,0.0050566,0,0,0,0.0099446,-5.4575e-05,0.002967,1.3936,0.0042857,0.0088826,2.2457e-08,0.96,0.46,0
0.048548,0.00069712,0.0099348,-7.8405e-05,0.0029569,0.00012182,0,0,0.07257,-0.031567,0,0.0025338,0,0,0,0.0099363,-7.9887e-05,0.0029569,0.6969,0.0042711,0.0088954,2.246e-08,0.98,0.46,0
0.05,0.00069771,0.0099334,-8.8253e-05,0.0029536,1.413e-06,0,0,0.072591,-0.031635,0,2.939e-05,0,0,0,0.0099334,-8.8253e-05,0.0029536,0.0080784,0.0042662,0.0088996,2.2461e-08,1,0.46,0
0,0,0.0082682,0.0035435,0.0035435,-0.00023318,0,0,0.049137,7.5894e-19,0,-0.0048501,0,0,0,0.0082797,0.0035321,0.0035435,-2.8186,0.0051184,0.0047419,5.4762e-09,0,0.48,0
0.00098274,-9.7001e-05,0.008239,0.0032235,0.0034387,-0.00023558,0,0,0.049923,-0.0022388,0,-0.0049002,0,0,0,0.0082501,0.0032124,0.0034387,-2.6834,0.0049671,0.0049284,6.1043e-09,0.02,0.48,0
0.0019969,-0.00017323,0.0083448,0.0029775,0.0033967,-0.0002231,0,0,0.05146,-0.0043592,0,-0.0046405,0,0,0,0.008354,0.0029683,0.0033967,-2.3762,0.0049063,0.0051848,6.994e-09,0.04,0.48,0
0.0030411,-0.00023289,0.0084474,0.0027462,0.0033581,-0.00022438,0,0,0.052929,-0.0063636,0,-0.0046671,0,0,0,0.0084562,0.0027374,0.0033581,-2.2503,0.0048506,0.0054351,7.8848e-09,0.06,0.48,0
0.0041141,-0.00027935,0.0085469,0.0025295,0.0033229,-0.00023752,0,0,0.05433,-0.0082517,0,-0.0049404,0,0,0,0.0085563,0.0025201,0.0033229,-2.2569,0.0047998,0.0056775,8.769e-09,0.08,0.48,0
0.0052143,-0.00031536,0.0086433,0.0023277,0.0032913,-0.00026108,0,0,0.05566,-0.010021,0,-0.0054304,0,0,0,0.008654,0.002317,0.0032913,-2.3632,0.0047541,0.0059104,9.6401e-09,0.1,0.48,0
0.0063405,-0.00034305,0.0087362,0.0021415,0.0032633,-0.00029396,0,0,0.056918,-0.011667,0,-0.0061144,0,0,0,0.0087493,0.0021284,0.0032633,-2.5473,0.0047136,0.0061327,1.0492e-08,0.12,0.48,0
0.007491,-0.00036404,0.0088253,0.0019714,0.003239,-0.0003353,0,0,0.058098,-0.013184,0,-0.0069743,0,0,0,0.0088417,0.001955,0.003239,-2.7941,0.0046786,0.0063429,1.1317e-08,0.14,0.48,0
0.0086644,-0.00037944,0.0089103,0.0018183,0.0032186,-0.00038439,0,0,0.059194,-0.014563,0,-0.0079954,0,0,0,0.0089311,0.0017975,0.0032186,-3.0934,0.0046491,0.0065399,1.2111e-08,0.16,0.48,0
0.0098588,-0.00038981,0.0089906,0.0016832,0.0032021,-0.00044057,0,0,0.0602,-0.015797,0,-0.0091639,0,0,0,0.009017,0.0016568,0.0032021,-3.4379,0.0046253,0.0067222,1.2865e-08,0.18,0.48,0
0.011072,-0.00039514,0.0090656,0.0015671,0.0031898,-0.00050318,0,0,0.061108,-0.016876,0,-0.010466,0,0,0,0.0090992,0.0015335,0.0031898,-3.822,0.0046075,0.0068885,1.3572e-08,0.2,0.48,0
0.012303,-0.00039475,0.0091347,0.0014711,0.0031817,-0.00057146,0,0,0.061911,-0.017791,0,-0.011886,0,0,0,0.009177,0.0014287,0.0031817,-4.2412,0.0045958,0.0070375,1.4226e-08,0.22,0.48,0
0.013549,-0.00038713,0.0091971,0.0013959,0.0031779,-0.00064443,0,0,0.0626,-0.018533,0,-0.013404,0,0,0,0.00925,0.001343,0.0031779,-4.6907,0.0045903,0.0071678,1.4818e-08,0.24,0.48,0
0.014807,-0.00036976,0.009252,0.0013424,0.0031783,-0.00072084,0,0,0.063166,-0.019094,0,-0.014993,0,0,0,0.0093171,0.0012772,0.0031783,-5.165,0.0045909,0.007278,1.5339e-08,0.26,0.48,0
0.016075,-0.00033877,0.0092981,0.0013107,0.0031826,-0.00079894,0,0,0.063601,-0.019468,0,-0.016618,0,0,0,0.0093773,0.0012315,0.0031826,-5.6563,0.0045972,0.0073666,1.5779e-08,0.28,0.48,0
0.017351,-0.00028855,0.0093069,0.001249,0.0031668,-0.00088263,0,0,0.063857,-0.019945,0,-0.018359,0,0,0,0.0094024,0.0011535,0.0031668,-6.1784,0.0045742,0.0074492,1.6118e-08,0.3,0.48,0
0.018631,-0.00021104,0.0093336,0.0012562,0.0031769,-0.00092984,0,0,0.064029,-0.019976,0,-0.019341,0,0,0,0.0094393,0.0011505,0.0031769,-6.4827,0.0045889,0.0074842,1.6327e-08,0.32,0.48,0
0.019912,-9.4561e-05,0.0093546,0.0013309,0.0032056,-0.001011,0,0,0.063949,-0.019497,0,-0.021029,0,0,0,0.00948,0.0012055,0.0032056,-7.0724,0.0046304,0.0074778,1.6408e-08,0.34,0.48,0
0.021189,7.8352e-05,0.0093139,0.0013532,0.0032001,-0.001047,0,0,0.063583,-0.019208,0,-0.021777,0,0,0,0.0094493,0.0012178,0.0032001,-7.3686,0.0046224,0.0074411,1.6206e-08,0.36,0.48,0
0.022455,0.00033591,0.0092454,0.0013633,0.0031826,-0.001016,0,0,0.063053,-0.018921,0,-0.021133,0,0,0,0.0093743,0.0012345,0.0031826,-7.2279,0.0045971,0.0073617,1.5755e-08,0.38,0.48,0
0.023711,0.00073025,0.0093127,0.0012814,0.0031782,-0.00092808,0,0,0.063798,-0.019727,0,-0.019304,0,0,0,0.0094185,0.0011756,0.0031782,-6.5067,0.0045908,0.0074464,1.6148e-08,0.4,0.48,0
0.025007,0.0012518,0.0090415,0.00039885,0.0028321,-0.00081973,0,0,0.064578,-0.025306,0,-0.01705,0,0,0,0.0091186,0.00032178,0.0028321,-5.3705,0.0040908,0.0078487,1.6538e-08,0.42,0.48,0
0.026294,0.0019095,0.0096455,-3.4765e-05,0.0028832,-0.0012103,0,0,0.070328,-0.030347,0,-0.025174,0,0,0,0.0097945,-0.00018379,0.0028832,-7.0195,0.0041646,0.0088527,2.1751e-08,0.44,0.48,0
0.02782,0.0025109,0.012628,1.465e-05,0.0037929,-0.0010523,0,0,0.036067,-0.014825,0,-0.012973,0,0,0,0.012737,-9.4164e-05,0.0037929,-5.7164,0.0054786,0.011396,6.7419e-08,0.46,0.48,0
0.028139,0.0025897,0.007225,-0.0006346,0.0019771,-0.00020247,0,0,0.0138,-0.0065984,0,-0.0023748,0,0,0,0.0072356,-0.00064525,0.0019771,-3.0013,0.0028558,0.0069513,2.319e-08,0.48,0.48,0
0.028329,0.0026303,0.010542,-0.001626,0.0026749,2.1738e-05,0,0,0.010228,-0.0055912,0,5.6518e-05,0,0,0,0.010542,-0.0016261,0.0026749,0.10236,0.0038637,0.010688,3.0222e-08,0.5,0.48,0
0.028549,0.0026974,0.011724,-0.00026043,0.0034391,2.7759e-05,0,0,0.010771,-0.0048094,0,7.2174e-05,0,0,0,0.011724,-0.00026049,0.0034391,0.13271,0.0049676,0.010629,3.7437e-08,0.52,0.48,0
0.02876,0.0027771,0.011815,0.00019721,0.0036035,-5.6258e-05,0,0,0.010674,-0.0044282,0,-0.00014627,0,0,0,0.011815,0.00019694,0.0036035,-0.27746,0.0052051,0.010344,3.6759e-08,0.54,0.48,0
0.028976,0.0028418,0.012093,0.00027547,0.0037105,-0.0001339,0,0,0.010897,-0.0044656,0,-0.00034813,0,0,0,0.012094,0.00027395,0.0037105,-0.64907,0.0053597,0.010531,3.9165e-08,0.56,0.48,0
0.029196,0.0028932,0.012307,0.00031138,0.0037856,-8.9219e-05,0,0,0.011078,-0.0045165,0,-0.00023197,0,0,0,0.012308,0.00031072,0.0037856,-0.4261,0.0054681,0.010692,4.1153e-08,0.58,0.48,0
0.029419,0.0029333,0.012291,0.00027222,0.0037689,-3.6779e-06,0,0,0.011078,-0.0045457,0,-9.5625e-06,0,0,0,0.012291,0.00027222,0.0037689,-0.017534,0.005444,0.010707,4.1126e-08,0.6,0.48,0
0.029639,0.0029623,0.012042,0.00015514,0.0036592,4.0275e-05,0,0,0.010898,-0.0045553,0,0.00010472,0,0,0,0.012042,0.000155,0.0036592,0.19412,0.0052855,0.01058,3.909e-08,0.62,0.48,0
0.029854,0.0029777,0.011739,-9.5659e-06,0.0035189,-3.5987e-05,0,0,0.010686,-0.004587,0,-9.3567e-05,0,0,0,0.011739,-9.6762e-06,0.0035189,-0.1755,0.0050829,0.010442,3.676e-08,0.64,0.48,0
0.030067,0.0029784,0.011613,-0.00060326,0.0033029,-0.00011432,0,0,0.010803,-0.0050781,0,-0.00029723,0,0,0,0.011614,-0.00060433,0.0033029,-0.53611,0.0047709,0.010808,3.744e-08,0.66,0.48,0
0.030287,0.0029922,0.010429,-0.0020851,0.0025031,-6.2058e-05,0,0,0.010303,-0.0059647,0,-0.00016135,0,0,0,0.010429,-0.0020854,0.0025031,-0.28413,0.0036155,0.010965,2.9962e-08,0.68,0.48,0
0.030479,0.0030361,0.007162,-0.0010252,0.0018411,0.00018102,0,0,0.014007,-0.0072975,0,0.0022543,0,0,0,0.0071711,-0.0010343,0.0018411,2.7134,0.0026593,0.0072114,2.3437e-08,0.7,0.48,0
0.030803,0.003035,0.012487,-0.00080395,0.0035051,0.00094056,0,0,0.036702,-0.016951,0,0.011674,0,0,0,0.012571,-0.00088745,0.0035051,4.8914,0.0050628,0.011888,6.8851e-08,0.72,0.48,0
0.032357,0.0024316,0.009592,-0.00068626,0.0026717,0.0010569,0,0,0.071971,-0.034923,0,0.021983,0,0,0,0.0096995,-0.00079382,0.0026717,5.8106,0.0038591,0.0092604,2.2374e-08,0.74,0.48,0
0.033682,0.0017712,0.0090339,-0.00021453,0.0026458,0.00064684,0,0,0.066436,-0.029748,0,0.013454,0,0,0,0.009079,-0.00025955,0.0026458,3.9814,0.0038218,0.0082775,1.7494e-08,0.76,0.48,0
0.035014,0.0012354,0.009311,0.00065828,0.0029908,0.00073351,0,0,0.06573,-0.024258,0,0.015257,0,0,0,0.0093727,0.00059654,0.0029908,4.8114,0.00432,0.0078576,1.7339e-08,0.78,0.48,0
0.036311,0.00082698,0.0092698,0.0007254,0.0029986,0.00082339,0,0,0.065221,-0.023641,0,0.017127,0,0,0,0.0093484,0.00064678,0.0029986,5.4545,0.0043312,0.0077964,1.7081e-08,0.8,0.48,0
0.037623,0.00055766,0.0093674,0.00066874,0.0030108,0.0008587,0,0,0.066108,-0.024358,0,0.017861,0,0,0,0.0094513,0.00058478,0.0030108,5.5842,0.004349,0.0079367,1.782e-08,0.82,0.48,0
0.038955,0.00037768,0.0094521,0.00058324,0.0030106,0.00082701,0,0,0.066991,-0.025244,0,0.017202,0,0,0,0.0095285,0.00050678,0.0030106,5.2821,0.0043486,0.0080667,1.8462e-08,0.84,0.48,0
0.040303,0.00025875,0.0095047,0.00047671,0.0029944,0.00076381,0,0,0.067707,-0.026184,0,0.015887,0,0,0,0.0095689,0.00041254,0.0029944,4.802,0.0043253,0.0081771,1.8932e-08,0.86,0.48,0
0.041664,0.00018262,0.009543,0.0003682,0.0029734,0.0006807,0,0,0.068325,-0.027094,0,0.014159,0,0,0,0.0095933,0.00031798,0.0029734,4.2201,0.0042949,0.0082736,1.9307e-08,0.88,0.48,0
0.043036,0.00013596,0.0095724,0.00026849,0.0029523,0.00058296,0,0,0.06885,-0.027911,0,0.012126,0,0,0,0.0096088,0.0002321,0.0029523,3.5714,0.0042644,0.0083556,1.9606e-08,0.9,0.48,0
0.044418,0.00010888,0.0095948,0.00018393,0.0029336,0.00047501,0,0,0.069276,-0.028597,0,0.0098801,0,0,0,0.0096187,0.00016001,0.0029336,2.8822,0.0042374,0.0084217,1.9836e-08,0.92,0.48,0
0.045807,9.4201e-05,0.0095803,6.0582e-05,0.0028922,0.00035587,0,0,0.069555,-0.029449,0,0.0074022,0,0,0,0.0095935,4.7297e-05,0.0028922,2.1379,0.0041777,0.0084892,1.9937e-08,0.94,0.48,0
0.047202,8.6921e-05,0.0096039,1.908e-05,0.0028869,0.00024248,0,0,0.069857,-0.029825,0,0.0050436,0,0,0,0.00961,1.295e-05,0.0028869,1.4483,0.0041699,0.0085312,2.0118e-08,0.96,0.48,0
0.0486,8.3774e-05,0.0096273,4.0896e-05,0.0029005,0.00012145,0,0,0.069959,-0.02974,0,0.0025263,0,0,0,0.0096289,3.9358e-05,0.0029005,0.72575,0.0041896,0.0085269,2.0177e-08,0.98,0.48,0
0.05,8.2923e-05,0.0096293,3.1368e-05,0.0028982,-2.0471e-06,0,0,0.070003,-0.029815,0,-4.258e-05,0,0,0,0.0096293,3.1368e-05,0.0028982,-0.012221,0.0041863,0.0085336,2.0198e-08,1,0.48,0
0,0,0.0081682,0.0035006,0.0035006,-0.00033716,0,0,0.048542,0,0,-0.0070129,0,0,0,0.0081924,0.0034764,0.0035006,-4.1103,0.0050565,0.0047039,5.3452e-09,0,0.5,0
0.00097085,-0.00014026,0.008141,0.0032024,0.003403,-0.00033907,0,0,0.049275,-0.0020865,0,-0.0070527,0,0,0,0.0081642,0.0031792,0.003403,-3.9093,0.0049155,0.0048769,5.9152e-09,0.02,0.5,0
0.001971,-0.00025759,0.0082391,0.0029711,0.003363,-0.00032349,0,0,0.050711,-0.0040768,0,-0.0067286,0,0,0,0.0082589,0.0029513,0.003363,-3.5008,0.0048577,0.0051142,6.72e-09,0.04,0.5,0
0.0029993,-0.00035618,0.0083339,0.0027521,0.0033258,-0.00032156,0,0,0.052084,-0.0059665,0,-0.0066884,0,0,0,0.0083524,0.0027336,0.0033258,-3.2862,0.004804,0.0053473,7.5292e-09,0.06,0.5,0
0.0040544,-0.00043935,0.0084251,0.0025462,0.0032914,-0.00033125,0,0,0.053391,-0.0077503,0,-0.00689,0,0,0,0.0084437,0.0025275,0.0032914,-3.2148,0.0047542,0.0055736,8.3325e-09,0.08,0.5,0
0.0051349,-0.00050975,0.0084714,0.0023228,0.0032383,-0.00035404,0,0,0.054425,-0.0095211,0,-0.0073641,0,0,0,0.0084917,0.0023025,0.0032383,-3.2847,0.0046775,0.0057785,9.04e-09,0.1,0.5,0
0.0062394,-0.0005694,0.0086174,0.0021701,0.0032362,-0.00037447,0,0,0.055964,-0.011088,0,-0.0077891,0,0,0,0.008639,0.0021484,0.0032362,-3.313,0.0046746,0.0060209,9.9876e-09,0.12,0.5,0
0.007366,-0.00061975,0.0086713,0.0020136,0.0032055,-0.00041617,0,0,0.056845,-0.012396,0,-0.0086564,0,0,0,0.0086973,0.0019877,0.0032055,-3.563,0.0046301,0.0061912,1.0616e-08,0.14,0.5,0
0.0085132,-0.00066176,0.0087421,0.0018674,0.0031829,-0.00045979,0,0,0.057816,-0.01368,0,-0.0095636,0,0,0,0.0087727,0.0018368,0.0031829,-3.8094,0.0045974,0.0063704,1.1305e-08,0.16,0.5,0
0.0096787,-0.00069579,0.0088057,0.0017385,0.0031633,-0.00050973,0,0,0.058681,-0.014817,0,-0.010603,0,0,0,0.0088422,0.001702,0.0031633,-4.1043,0.0045692,0.0065334,1.1943e-08,0.18,0.5,0
0.01086,-0.00072164,0.0088611,0.0016279,0.0031467,-0.00056524,0,0,0.059429,-0.015795,0,-0.011757,0,0,0,0.008905,0.001584,0.0031467,-4.4415,0.0045452,0.0066782,1.2519e-08,0.2,0.5,0
0.012056,-0.00073844,0.008907,0.0015363,0.003133,-0.0006254,0,0,0.060049,-0.016605,0,-0.013008,0,0,0,0.0089597,0.0014836,0.003133,-4.8157,0.0045254,0.006803,1.3022e-08,0.22,0.5,0
0.013262,-0.00074449,0.0089419,0.0014644,0.0031219,-0.00068909,0,0,0.060528,-0.017238,0,-0.014333,0,0,0,0.0090049,0.0014014,0.0031219,-5.2215,0.0045094,0.0069059,1.3441e-08,0.24,0.5,0
0.014477,-0.0007371,0.0089639,0.0014123,0.0031129,-0.00075476,0,0,0.06085,-0.017685,0,-0.015699,0,0,0,0.0090386,0.0013376,0.0031129,-5.6521,0.0044964,0.0069846,1.3763e-08,0.26,0.5,0
0.015696,-0.00071228,0.0089704,0.0013798,0.003105,-0.00082025,0,0,0.061,-0.017943,0,-0.017061,0,0,0,0.009058,0.0012921,0.003105,-6.0976,0.0044851,0.0070368,1.3971e-08,0.28,0.5,0
0.016917,-0.00066437,0.0089808,0.0014104,0.0031174,-0.00089178,0,0,0.06098,-0.017752,0,-0.018549,0,0,0,0.0090845,0.0013068,0.0031174,-6.6284,0.0045029,0.007049,1.4067e-08,0.3,0.5,0
0.018135,-0.00058539,0.0089312,0.0014055,0.003101,-0.00091291,0,0,0.060634,-0.017634,0,-0.018989,0,0,0,0.0090404,0.0012963,0.003101,-6.8185,0.0044792,0.007018,1.3873e-08,0.32,0.5,0
0.019345,-0.00046406,0.0088577,0.00137,0.0030683,-0.00097135,0,0,0.06021,-0.017662,0,-0.020204,0,0,0,0.0089817,0.0012461,0.0030683,-7.2724,0.004432,0.0070046,1.3705e-08,0.34,0.5,0
0.020543,-0.0002844,0.0087683,0.0013672,0.0030407,-0.00097354,0,0,0.059567,-0.017403,0,-0.02025,0,0,0,0.0088942,0.0012413,0.0030407,-7.3698,0.0043921,0.0069307,1.3292e-08,0.36,0.5,0
0.021728,-2.3714e-05,0.0086908,0.0013187,0.0030028,-0.00093235,0,0,0.059154,-0.017515,0,-0.019393,0,0,0,0.0088069,0.0012026,0.0030028,-7.0974,0.0043374,0.006883,1.2965e-08,0.38,0.5,0
0.022909,0.00033404,0.0085912,0.0010634,0.0028964,-0.00085872,0,0,0.059227,-0.019063,0,-0.017861,0,0,0,0.008688,0.00096669,0.0028964,-6.4259,0.0041837,0.00696,1.2933e-08,0.4,0.5,0
0.024097,0.00079824,0.0085998,0.0006636,0.002779,-0.00088325,0,0,0.060536,-0.022,0,-0.018372,0,0,0,0.0086969,0.00056649,0.002779,-6.2744,0.0040141,0.0072808,1.3826e-08,0.42,0.5,0
0.025331,0.0013142,0.0083554,-0.00010319,0.0024757,-0.0009383,0,0,0.06115,-0.02682,0,-0.019517,0,0,0,0.0084583,-0.00020603,0.0024757,-6.2544,0.003576,0.0076829,1.4087e-08,0.44,0.5,0
0.026543,0.001901,0.0086468,-0.00042998,0.002465,-0.0014645,0,0,0.06429,-0.030108,0,-0.030462,0,0,0,0.0088772,-0.00066043,0.002465,-8.9424,0.0035606,0.0084217,1.7047e-08,0.46,0.5,0
0.027976,0.0024432,0.01102,-0.00058157,0.0031315,-0.0014273,0,0,0.029235,-0.012991,0,-0.013247,0,0,0,0.011203,-0.0007646,0.0031315,-7.7991,0.0045233,0.010573,5.5551e-08,0.48,0.5,0
0.028278,0.0025126,0.0073852,-0.00070741,0.0020033,1.1401e-05,0,0,0.013597,-0.0075853,0,-0.0050759,0,0,0,0.0074612,-0.00078341,0.0020033,-5.1914,0.0028937,0.0072664,2.6427e-08,0.5,0.5,0
0.02846,0.0026071,0.010888,-0.00038395,0.0031512,-0.00067707,0,0,0.010058,-0.0045957,0,-0.0017604,0,0,0,0.010929,-0.00042447,0.0031512,-3.4252,0.0045518,0.010054,3.0815e-08,0.52,0.5,0
0.028671,0.002689,0.011947,-4.7787e-05,0.0035696,-0.00051725,0,0,0.01089,-0.0047026,0,-0.0013449,0,0,0,0.011969,-7.0052e-05,0.0035696,-2.4648,0.0051561,0.010694,3.9165e-08,0.54,0.5,0
0.028903,0.0027494,0.0132,0.00029451,0.0040484,-0.000463,0,0,0.011897,-0.0048801,0,-0.0012038,0,0,0,0.013217,0.00027792,0.0040484,-2.052,0.0058477,0.011526,5.1206e-08,0.56,0.5,0
0.029144,0.0027988,0.013383,0.00027163,0.0040965,-0.00013783,0,0,0.012073,-0.0049724,0,-0.00035835,0,0,0,0.013385,0.00027019,0.0040965,-0.60218,0.0059172,0.011681,5.3236e-08,0.58,0.5,0
0.029387,0.0028384,0.013373,0.0002336,0.0040819,6.4372e-05,0,0,0.012078,-0.0050028,0,0.00016737,0,0,0,0.013373,0.00023329,0.0040819,0.2807,0.0058961,0.0117,5.326e-08,0.6,0.5,0
0.029628,0.0028681,0.013159,0.00017409,0.0040001,0.00039188,0,0,0.011907,-0.0049738,0,0.0010189,0,0,0,0.013171,0.00016227,0.0040001,1.727,0.0057779,0.011577,5.1178e-08,0.62,0.5,0
0.029861,0.0028865,0.011869,-0.00026023,0.0034828,0.00043806,0,0,0.010903,-0.0048659,0,0.0011389,0,0,0,0.011885,-0.00027603,0.0034828,2.0656,0.0050306,0.010785,3.9039e-08,0.64,0.5,0
0.030071,0.0028824,0.010464,-0.00089638,0.0028702,0.00090999,0,0,0.0098715,-0.0048965,0,0.002366,0,0,0,0.010536,-0.00096881,0.0028702,4.551,0.0041458,0.010146,2.8908e-08,0.66,0.5,0
0.030255,0.0028672,0.0063167,-0.0021232,0.001258,0.00073084,0,0,0.013272,-0.0088104,0,0.0070022,0,0,0,0.006406,-0.0022125,0.001258,7.945,0.0018172,0.0075109,1.7483e-08,0.68,0.5,0
0.030561,0.0028728,0.011544,-0.0012752,0.0030806,0.0014613,0,0,0.034455,-0.016729,0,0.014952,0,0,0,0.01172,-0.0014509,0.0030806,7.1383,0.0044497,0.01159,5.7939e-08,0.7,0.5,0
0.032017,0.0023364,0.0089053,-0.0008448,0.0024181,0.0012309,0,0,0.067466,-0.033934,0,0.025603,0,0,0,0.0090583,-0.0009978,0.0024181,7.0853,0.0034929,0.0088568,1.8624e-08,0.72,0.5,0
0.03326,0.0017545,0.0083293,-0.00067035,0.0022977,0.00078283,0,0,0.062729,-0.030868,0,0.016283,0,0,0,0.0083969,-0.00073794,0.0022977,4.9344,0.0033189,0.0080579,1.4586e-08,0.74,0.5,0
0.034526,0.0012293,0.0085738,6.4279e-05,0.0025914,0.00069425,0,0,0.062217,-0.026282,0,0.01444,0,0,0,0.0086301,8.0119e-06,0.0025914,4.6336,0.0037432,0.0076642,1.4577e-08,0.76,0.5,0
0.035749,0.00074971,0.0085841,0.0004522,0.0027109,0.00065262,0,0,0.061081,-0.02349,0,0.013574,0,0,0,0.0086361,0.00040016,0.0027109,4.5594,0.0039157,0.007358,1.3863e-08,0.78,0.5,0
0.036969,0.00037255,0.0086997,0.00067752,0.0028132,0.00071557,0,0,0.06122,-0.022211,0,0.014884,0,0,0,0.0087631,0.00061419,0.0028132,5.0575,0.0040635,0.0073021,1.4053e-08,0.8,0.5,0
0.038198,9.2118e-05,0.0088032,0.00068215,0.0028456,0.0007516,0,0,0.061959,-0.0225,0,0.015633,0,0,0,0.0088721,0.00061317,0.0028456,5.2434,0.0041103,0.0073998,1.4603e-08,0.82,0.5,0
0.039447,-0.00010619,0.0089261,0.00062325,0.0028648,0.00074357,0,0,0.063037,-0.023312,0,0.015466,0,0,0,0.0089921,0.00055718,0.0028648,5.0773,0.004138,0.0075504,1.5345e-08,0.84,0.5,0
0.040719,-0.0002445,0.0090323,0.00054063,0.0028719,0.00069824,0,0,0.064068,-0.024245,0,0.014523,0,0,0,0.0090893,0.0004836,0.0028719,4.6694,0.0041483,0.0076948,1.6025e-08,0.86,0.5,0
0.04201,-0.00033921,0.0091164,0.00045069,0.0028701,0.00062874,0,0,0.064961,-0.025162,0,0.013078,0,0,0,0.0091617,0.00040531,0.0028701,4.1283,0.0041457,0.007821,1.6594e-08,0.88,0.5,0
0.043318,-0.00040255,0.0091819,0.00036464,0.002864,0.00054266,0,0,0.065707,-0.025993,0,0.011287,0,0,0,0.0092152,0.00033136,0.002864,3.5086,0.0041368,0.007927,1.7056e-08,0.9,0.5,0
0.044638,-0.00044368,0.009232,0.0002892,0.0028564,0.00044497,0,0,0.066307,-0.026698,0,0.0092553,0,0,0,0.0092541,0.00026711,0.0028564,2.8415,0.0041258,0.0080125,1.7418e-08,0.92,0.5,0
0.04597,-0.0004694,0.0092361,0.0002143,0.0028351,0.00032671,0,0,0.06657,-0.027257,0,0.0067955,0,0,0,0.0092479,0.00020248,0.0028351,2.0712,0.0040952,0.0080584,1.7524e-08,0.94,0.5,0
0.047309,-0.00048458,0.0093152,0.00019308,0.0028525,0.00023748,0,0,0.067212,-0.027658,0,0.0049396,0,0,0,0.0093214,0.0001869,0.0028525,1.4902,0.0041203,0.0081361,1.7983e-08,0.96,0.5,0
0.048653,-0.00049246,0.0092829,0.00010432,0.0028162,0.00011309,0,0,0.067254,-0.028203,0,0.0023522,0,0,0,0.0092843,0.00010292,0.0028162,0.70578,0.0040678,0.00817,1.7949e-08,0.98,0.5,0
0.05,-0.00049489,0.0092475,-5.2917e-06,0.0027727,-5.8315e-06,0,0,0.067338,-0.028891,0,-0.0001213,0,0,0,0.0092475,-5.2954e-06,0.0027727,-0.03611,0.0040049,0.0082236,1.7963e-08,1,0.5,0
0,0,0.008062,0.0034551,0.0034551,-0.0004338,0,0,0.047911,-2.1684e-19,0,-0.0090231,0,0,0,0.0081025,0.0034146,0.0034551,-5.3328,0.0049908,0.0046677,5.2219e-09,0,0.52,0
0.00095822,-0.00018046,0.007997,0.0031579,0.0033465,-0.00044477,0,0,0.048365,-0.0019609,0,-0.0092513,0,0,0,0.0080375,0.0031174,0.0033465,-5.2081,0.0048338,0.0048097,5.6707e-09,0.02,0.52,0
0.0019437,-0.0003363,0.008161,0.0029695,0.0033391,-0.00040793,0,0,0.050147,-0.0038443,0,-0.0084849,0,0,0,0.0081928,0.0029376,0.0033391,-4.4656,0.0048232,0.0050664,6.5378e-09,0.04,0.52,0
0.0029554,-0.00047155,0.0082147,0.0027545,0.0032907,-0.000411,0,0,0.051209,-0.005577,0,-0.0085489,0,0,0,0.0082454,0.0027237,0.0032907,-4.2807,0.0047533,0.0052612,7.1873e-09,0.06,0.52,0
0.003992,-0.00058937,0.0082977,0.0025588,0.003257,-0.00041653,0,0,0.052424,-0.0072608,0,-0.0086638,0,0,0,0.0083278,0.0025287,0.003257,-4.1297,0.0047045,0.0054714,7.9123e-09,0.08,0.52,0
0.0050523,-0.00069223,0.0083517,0.0023781,0.003219,-0.00043715,0,0,0.053381,-0.0087448,0,-0.0090927,0,0,0,0.0083836,0.0023463,0.003219,-4.1633,0.0046496,0.0056517,8.5313e-09,0.1,0.52,0
0.0061346,-0.00078198,0.0084842,0.0022358,0.003216,-0.00045006,0,0,0.054789,-0.010194,0,-0.0093613,0,0,0,0.0085165,0.0022036,0.003216,-4.0988,0.0046454,0.0058725,9.3677e-09,0.12,0.52,0
0.0072371,-0.00085988,0.0085133,0.0020498,0.0031689,-0.00048444,0,0,0.055581,-0.011639,0,-0.010076,0,0,0,0.0085494,0.0020137,0.0031689,-4.2625,0.0045773,0.0060415,9.9441e-09,0.14,0.52,0
0.0083579,-0.00092666,0.0085706,0.0019097,0.0031441,-0.00052053,0,0,0.056436,-0.012838,0,-0.010827,0,0,0,0.0086111,0.0018693,0.0031441,-4.4415,0.0045415,0.0062034,1.0536e-08,0.16,0.52,0
0.0094946,-0.00098249,0.0086187,0.0017861,0.0031215,-0.00056182,0,0,0.057172,-0.013888,0,-0.011686,0,0,0,0.0086646,0.0017402,0.0031215,-4.6694,0.0045088,0.0063475,1.1067e-08,0.18,0.52,0
0.010645,-0.0010269,0.0086562,0.0016798,0.0031008,-0.00060735,0,0,0.057776,-0.014778,0,-0.012633,0,0,0,0.0087087,0.0016273,0.0031008,-4.9385,0.0044789,0.0064717,1.1525e-08,0.2,0.52,0
0.011806,-0.001059,0.0086813,0.0015914,0.0030818,-0.00065601,0,0,0.058235,-0.0155,0,-0.013645,0,0,0,0.0087415,0.0015312,0.0030818,-5.2421,0.0044515,0.0065736,1.1898e-08,0.22,0.52,0
0.012974,-0.0010766,0.0086921,0.0015213,0.003064,-0.00070637,0,0,0.058532,-0.016045,0,-0.014692,0,0,0,0.008761,0.0014524,0.003064,-5.5726,0.0044258,0.006651,1.2171e-08,0.24,0.52,0
0.014147,-0.0010772,0.0086864,0.001469,0.0030466,-0.00075649,0,0,0.058653,-0.016407,0,-0.015735,0,0,0,0.0087648,0.0013906,0.0030466,-5.9198,0.0044007,0.0067015,1.2333e-08,0.26,0.52,0
0.01532,-0.0010565,0.0086613,0.0014336,0.0030285,-0.00080368,0,0,0.058582,-0.016587,0,-0.016717,0,0,0,0.0087496,0.0013453,0.0030285,-6.2689,0.0043745,0.0067227,1.2368e-08,0.28,0.52,0
0.01649,-0.001009,0.0086139,0.0014121,0.0030078,-0.00084403,0,0,0.058304,-0.016596,0,-0.017556,0,0,0,0.0087115,0.0013145,0.0030078,-6.5958,0.0043446,0.0067125,1.2265e-08,0.3,0.52,0
0.017652,-0.00092722,0.0085416,0.0013991,0.0029822,-0.00087191,0,0,0.057818,-0.016464,0,-0.018136,0,0,0,0.0086465,0.0012942,0.0029822,-6.8601,0.0043077,0.0066705,1.2016e-08,0.32,0.52,0
0.018803,-0.00080105,0.0084449,0.0013843,0.0029488,-0.00087956,0,0,0.057159,-0.01627,0,-0.018295,0,0,0,0.0085528,0.0012764,0.0029488,-6.9952,0.0042593,0.006601,1.1638e-08,0.34,0.52,0
0.019939,-0.00061779,0.0083325,0.0013472,0.0029039,-0.00086027,0,0,0.056458,-0.01619,0,-0.017894,0,0,0,0.0084369,0.0012428,0.0029039,-6.9184,0.0041945,0.0065241,1.1206e-08,0.36,0.52,0
0.021061,-0.00036469,0.0082097,0.0012389,0.0028346,-0.0008154,0,0,0.055901,-0.016595,0,-0.01696,0,0,0,0.0083038,0.0011448,0.0028346,-6.5837,0.0040944,0.0064815,1.0845e-08,0.38,0.52,0
0.022175,-3.2279e-05,0.0081005,0.0010242,0.0027374,-0.00077831,0,0,0.055776,-0.017817,0,-0.016189,0,0,0,0.0081851,0.00093962,0.0027374,-6.2031,0.003954,0.0065348,1.0759e-08,0.4,0.52,0
0.023292,0.00037181,0.0079513,0.00063565,0.0025761,-0.00078122,0,0,0.055902,-0.020181,0,-0.016249,0,0,0,0.0080338,0.00055316,0.0025761,-6.0279,0.003721,0.0067022,1.0846e-08,0.42,0.52,0
0.024411,0.00083673,0.0078793,0.00025602,0.0024406,-0.00091868,0,0,0.056562,-0.02272,0,-0.019109,0,0,0,0.0079884,0.00014687,0.0024406,-6.7755,0.0035253,0.0069832,1.134e-08,0.44,0.52,0
0.025555,0.0013143,0.0076969,-0.00014302,0.0022662,-0.0010577,0,0,0.05648,-0.025056,0,-0.022,0,0,0,0.0078371,-0.00028321,0.0022662,-7.5499,0.0032734,0.0071929,1.1335e-08,0.46,0.52,0
0.026656,0.0018433,0.0084739,-0.00020368,0.0024811,-0.0014776,0,0,0.062326,-0.027921,0,-0.030735,0,0,0,0.0087186,-0.00044839,0.0024811,-9.4033,0.0035838,0.0081094,1.583e-08,0.48,0.52,0
0.027975,0.0023269,0.0067785,0.00013326,0.0020735,-0.0016941,0,0,0.048932,-0.020179,0,-0.035238,0,0,0,0.0071855,-0.00027371,0.0020735,-13.508,0.0029951,0.0066061,8.7524e-09,0.5,0.52,0
0.028273,0.002512,0.0084138,-9.0459e-05,0.002497,-0.0021161,0,0,0.013922,-0.01026,0,-0.023587,0,0,0,0.0090945,-0.00077116,0.002497,-17.915,0.0036068,0.0087659,4.2066e-08,0.52,0.52,0
0.028545,0.002583,0.0083336,-0.00017294,0.0024482,-0.0011861,0,0,0.013596,-0.0087017,0,-0.015024,0,0,0,0.0086555,-0.00049482,0.0024482,-13.757,0.0035363,0.008122,3.9065e-08,0.54,0.52,0
0.028816,0.0026414,0.0083606,-0.00012071,0.002472,-0.00074631,0,0,0.013602,-0.0080554,0,-0.0086356,0,0,0,0.0084864,-0.00024643,0.002472,-9.5276,0.0035706,0.0077576,3.8698e-08,0.56,0.52,0
0.029088,0.0026892,0.0083549,-0.0001403,0.0024644,-0.00019726,0,0,0.013621,-0.0078973,0,-0.0027344,0,0,0,0.0083684,-0.00015387,0.0024644,-3.287,0.0035597,0.0075729,3.8255e-08,0.58,0.52,0
0.029361,0.0027281,0.0083533,-0.00017634,0.0024531,0.00015364,0,0,0.013638,-0.0080397,0,0.0024426,0,0,0,0.0083642,-0.0001873,0.0024531,2.891,0.0035433,0.0075968,3.843e-08,0.6,0.52,0
0.029634,0.002758,0.0083233,-0.00024462,0.0024236,0.00070688,0,0,0.013633,-0.0084935,0,0.0083749,0,0,0,0.0084385,-0.00035977,0.0024236,9.0363,0.0035008,0.0078089,3.878e-08,0.62,0.52,0
0.029907,0.0027768,0.0083046,-0.00037893,0.0023777,0.0011476,0,0,0.013683,-0.0094745,0,0.014817,0,0,0,0.0086067,-0.00068105,0.0023777,13.148,0.0034345,0.0082343,3.9697e-08,0.64,0.52,0
0.030181,0.0027825,0.0088265,-0.0001908,0.0025907,0.0015063,0,0,0.014412,-0.011454,0,0.021941,0,0,0,0.0093438,-0.00070805,0.0025907,14.938,0.0037422,0.0089535,4.606e-08,0.66,0.52,0
0.030483,0.0026654,0.01062,-0.0025493,0.0024211,0.0018685,0,0,0.03234,-0.016374,0,0.01952,0,0,0,0.010913,-0.0028422,0.0024211,9.3147,0.0034972,0.012029,4.8208e-08,0.68,0.52,0
0.031819,0.0021956,0.0080549,-0.00093581,0.0021357,0.0014692,0,0,0.061559,-0.031944,0,0.03056,0,0,0,0.0082889,-0.0011698,0.0021357,9.0495,0.0030849,0.0083143,1.4572e-08,0.7,0.52,0
0.032946,0.0016776,0.0075204,-0.00085514,0.0019996,0.00093384,0,0,0.057417,-0.029689,0,0.019424,0,0,0,0.0076233,-0.000958,0.0019996,6.2854,0.0028883,0.0075502,1.1222e-08,0.72,0.52,0
0.034115,0.0011969,0.0078373,-0.00029208,0.0022636,0.00074821,0,0,0.057967,-0.026579,0,0.015563,0,0,0,0.0079056,-0.00036037,0.0022636,5.215,0.0032696,0.0073159,1.1739e-08,0.74,0.52,0
0.035264,0.00071993,0.0079227,6.6343e-05,0.0023967,0.0005852,0,0,0.05747,-0.024236,0,0.012172,0,0,0,0.0079661,2.2992e-05,0.0023967,4.2366,0.0034619,0.007062,1.144e-08,0.76,0.52,0
0.036414,0.00029583,0.0080804,0.00042633,0.002552,0.00055992,0,0,0.057495,-0.022107,0,0.011646,0,0,0,0.0081211,0.00038559,0.002552,4.1619,0.0036862,0.0069118,1.1512e-08,0.78,0.52,0
0.037564,-6.1457e-05,0.0082038,0.00060739,0.0026434,0.00058089,0,0,0.057829,-0.021174,0,0.012082,0,0,0,0.008248,0.00056323,0.0026434,4.3476,0.0038182,0.0068845,1.1745e-08,0.8,0.52,0
0.038727,-0.00034233,0.0083454,0.00066942,0.0027045,0.00061219,0,0,0.058666,-0.021164,0,0.012733,0,0,0,0.0083939,0.0006209,0.0027045,4.5313,0.0039064,0.0069689,1.2288e-08,0.82,0.52,0
0.039911,-0.00055481,0.0084834,0.00064759,0.0027393,0.00061788,0,0,0.059739,-0.021754,0,0.012852,0,0,0,0.0085318,0.00059916,0.0027393,4.481,0.0039568,0.0071085,1.2967e-08,0.84,0.52,0
0.041117,-0.00071105,0.0086121,0.00059035,0.0027608,0.00059366,0,0,0.060854,-0.022572,0,0.012348,0,0,0,0.0086558,0.00054666,0.0027608,4.2097,0.0039877,0.0072599,1.3666e-08,0.86,0.52,0
0.042345,-0.00082386,0.008722,0.00051974,0.0027725,0.00054425,0,0,0.061874,-0.023429,0,0.01132,0,0,0,0.0087579,0.00048378,0.0027725,3.7797,0.0040047,0.0074002,1.4299e-08,0.88,0.52,0
0.043592,-0.00090376,0.0088112,0.00044805,0.0027778,0.0004761,0,0,0.062747,-0.024229,0,0.009903,0,0,0,0.0088382,0.00042104,0.0027778,3.2478,0.0040123,0.007521,1.4835e-08,0.9,0.52,0
0.044855,-0.00095906,0.008881,0.00038292,0.0027792,0.00039438,0,0,0.063459,-0.024921,0,0.0082031,0,0,0,0.0088993,0.00036466,0.0027792,2.6514,0.0040144,0.0076199,1.5269e-08,0.92,0.52,0
0.04613,-0.00099606,0.0089407,0.00037143,0.0027936,0.00029433,0,0,0.06393,-0.025191,0,0.0061221,0,0,0,0.0089508,0.00036133,0.0027936,1.9649,0.0040353,0.0076683,1.5547e-08,0.94,0.52,0
0.047415,-0.0010194,0.0089987,0.00034101,0.0028019,0.00020752,0,0,0.064447,-0.025594,0,0.0043164,0,0,0,0.0090037,0.00033604,0.0028019,1.3723,0.0040472,0.0077353,1.5882e-08,0.96,0.52,0
0.048706,-0.0010322,0.009007,0.00031107,0.0027954,9.9133e-05,0,0,0.064601,-0.025837,0,0.002062,0,0,0,0.0090081,0.00030994,0.0027954,0.65306,0.0040378,0.00776,1.5961e-08,0.98,0.52,0
0.05,-0.0010363,0.0090597,0.00040141,0.0028383,-9.7758e-06,0,0,0.064702,-0.025344,0,-0.00020334,0,0,0,0.0090598,0.0004014,0.0028383,-0.064691,0.0040998,0.0077334,1.6045e-08,1,0.52,0
0,0,0.007952,0.003408,0.003408,-0.00052333,0,0,0.047258,-1.0842e-19,0,-0.010885,0,0,0,0.0080115,0.0033485,0.003408,-6.4855,0.0049227,0.0046335,5.1065e-09,0,0.54,0
0.00094515,-0.0002177,0.0078953,0.0031407,0.0033108,-0.0005343,0,0,0.047679,-0.0017693,0,-0.011114,0,0,0,0.0079546,0.0030814,0.0033108,-6.3334,0.0047822,0.0047627,5.505e-09,0.02,0.54,0
0.0019156,-0.00040954,0.0080497,0.0029703,0.003306,-0.00049362,0,0,0.049335,-0.0034912,0,-0.010267,0,0,0,0.0080972,0.0029228,0.003306,-5.4994,0.0047754,0.0049939,6.2695e-09,0.04,0.54,0
0.0029104,-0.00057926,0.0080924,0.0027528,0.0032536,-0.00049307,0,0,0.050324,-0.0052076,0,-0.010256,0,0,0,0.0081376,0.0027077,0.0032536,-5.2319,0.0046996,0.0051785,6.8661e-09,0.06,0.54,0
0.0039285,-0.00072979,0.0081679,0.0025666,0.0032204,-0.0004938,0,0,0.051455,-0.0067988,0,-0.010271,0,0,0,0.0082111,0.0025234,0.0032204,-4.9997,0.0046516,0.0053732,7.5177e-09,0.08,0.54,0
0.0049686,-0.00086333,0.0082377,0.0023913,0.0031887,-0.00050292,0,0,0.05251,-0.0082933,0,-0.010461,0,0,0,0.0082807,0.0023483,0.0031887,-4.8808,0.0046059,0.00556,8.152e-09,0.1,0.54,0
0.0060289,-0.0009815,0.0083007,0.0022281,0.0031586,-0.00051906,0,0,0.053477,-0.0096777,0,-0.010797,0,0,0,0.0083448,0.002184,0.0031586,-4.8505,0.0045625,0.0057358,8.7563e-09,0.12,0.54,0
0.0071077,-0.0010853,0.0083556,0.0020784,0.0031302,-0.00054107,0,0,0.054344,-0.010939,0,-0.011254,0,0,0,0.0084019,0.0020321,0.0031302,-4.8906,0.0045214,0.0058979,9.3178e-09,0.14,0.54,0
0.0082027,-0.0011753,0.008401,0.0019432,0.0031033,-0.0005679,0,0,0.055097,-0.012065,0,-0.011812,0,0,0,0.0084506,0.0018936,0.0031033,-4.9876,0.0044825,0.0060436,9.824e-09,0.16,0.54,0
0.0093116,-0.0012513,0.0084356,0.0018235,0.0030777,-0.00059853,0,0,0.055722,-0.013044,0,-0.01245,0,0,0,0.0084893,0.0017698,0.0030777,-5.1309,0.0044456,0.0061705,1.0262e-08,0.18,0.54,0
0.010432,-0.0013128,0.0084577,0.0017201,0.0030533,-0.00063184,0,0,0.056205,-0.013866,0,-0.013142,0,0,0,0.0085165,0.0016614,0.0030533,-5.3114,0.0044104,0.0062759,1.0621e-08,0.2,0.54,0
0.01156,-0.0013584,0.0084656,0.0016333,0.0030297,-0.00066649,0,0,0.056533,-0.014522,0,-0.013863,0,0,0,0.00853,0.0015689,0.0030297,-5.5199,0.0043762,0.0063578,1.0887e-08,0.22,0.54,0
0.012693,-0.0013863,0.0084572,0.001563,0.0030061,-0.0007008,0,0,0.056692,-0.015008,0,-0.014577,0,0,0,0.0085277,0.0014925,0.0030061,-5.7459,0.0043421,0.0064138,1.1049e-08,0.24,0.54,0
0.013827,-0.0013934,0.0084305,0.0015084,0.0029817,-0.00073255,0,0,0.056667,-0.015322,0,-0.015237,0,0,0,0.0085071,0.0014318,0.0029817,-5.9754,0.0043069,0.0064418,1.1096e-08,0.26,0.54,0
0.01496,-0.0013758,0.0083832,0.0014675,0.0029552,-0.0007588,0,0,0.056451,-0.015472,0,-0.015783,0,0,0,0.0084655,0.0013853,0.0029552,-6.1885,0.0042686,0.0064404,1.102e-08,0.28,0.54,0
0.016085,-0.0013282,0.0083135,0.0014365,0.002925,-0.0007757,0,0,0.056041,-0.01548,0,-0.016135,0,0,0,0.0083999,0.0013501,0.002925,-6.3563,0.004225,0.0064092,1.0819e-08,0.3,0.54,0
0.017201,-0.0012439,0.0082209,0.0014084,0.0028888,-0.00077853,0,0,0.055453,-0.015395,0,-0.016193,0,0,0,0.0083087,0.0013206,0.0028888,-6.4373,0.0041727,0.0063509,1.0501e-08,0.32,0.54,0
0.018304,-0.0011148,0.0081073,0.0013715,0.0028437,-0.0007628,0,0,0.054742,-0.01531,0,-0.015866,0,0,0,0.0081926,0.0012862,0.0028437,-6.3808,0.0041075,0.0062744,1.01e-08,0.34,0.54,0
0.019391,-0.000932,0.0079767,0.0013047,0.0027844,-0.00072709,0,0,0.054,-0.01539,0,-0.015123,0,0,0,0.008055,0.0012263,0.0027844,-6.1477,0.0040219,0.0061983,9.6745e-09,0.36,0.54,0
0.020464,-0.00068751,0.0078358,0.0011823,0.0027054,-0.00067988,0,0,0.053356,-0.015841,0,-0.014142,0,0,0,0.0079045,0.0011135,0.0027054,-5.7752,0.0039078,0.0061515,9.3107e-09,0.38,0.54,0
0.021525,-0.00037865,0.0076763,0.00097235,0.0025946,-0.00063953,0,0,0.05285,-0.016871,0,-0.013302,0,0,0,0.0077368,0.00091188,0.0025946,-5.4009,0.0037478,0.0061584,9.0448e-09,0.4,0.54,0
0.022578,-8.9874e-06,0.0075017,0.0006877,0.0024568,-0.00064258,0,0,0.052467,-0.018399,0,-0.013366,0,0,0,0.0075618,0.00062763,0.0024568,-5.3403,0.0035488,0.0062245,8.8752e-09,0.42,0.54,0
0.023624,0.00040545,0.0072373,0.00030837,0.0022637,-0.00069681,0,0,0.051726,-0.020335,0,-0.014494,0,0,0,0.0073067,0.00023899,0.0022637,-5.6861,0.0032698,0.0063041,8.535e-09,0.44,0.54,0
0.024647,0.00085597,0.0069332,-2.463e-05,0.0020726,-0.00086216,0,0,0.050551,-0.021811,0,-0.017933,0,0,0,0.0070385,-0.00012987,0.0020726,-6.9594,0.0029937,0.0063599,8.0693e-09,0.46,0.54,0
0.025646,0.0013056,0.006052,-0.00067466,0.0016132,-0.0010018,0,0,0.046164,-0.023794,0,-0.020838,0,0,0,0.0061981,-0.00082069,0.0016132,-8.2934,0.0023302,0.0061728,6.0586e-09,0.48,0.54,0
0.026493,0.0018144,0.0052541,-0.0011382,0.0012348,-0.0015804,0,0,0.041801,-0.024679,0,-0.032872,0,0,0,0.0056235,-0.0015076,0.0012348,-13.155,0.0017836,0.0062303,4.8088e-09,0.5,0.54,0
0.027318,0.0021967,0.0046091,-0.00079212,0.0011451,-0.0013487,0,0,0.036026,-0.020147,0,-0.028053,0,0,0,0.0049272,-0.0011102,0.0011451,-13.269,0.001654,0.0052839,3.1927e-09,0.52,0.54,0
0.027934,0.0023409,0.0036357,-0.00064403,0.0008975,-0.0010699,0,0,0.028477,-0.016032,0,-0.022253,0,0,0,0.0038882,-0.00089657,0.0008975,-13.282,0.0012964,0.0041867,1.572e-09,0.54,0.54,0
0.028457,0.0024272,0.0032182,-0.00057813,0.00079202,-0.00063753,0,0,0.025232,-0.01425,0,-0.013261,0,0,0,0.0033224,-0.00068233,0.00079202,-9.2828,0.001144,0.0035082,9.7103e-10,0.56,0.54,0
0.028944,0.0024829,0.0030689,-0.00055834,0.00075316,-0.00021688,0,0,0.024083,-0.01364,0,-0.0045112,0,0,0,0.0030818,-0.00057126,0.00075316,-3.4097,0.0010879,0.0032032,7.678e-10,0.58,0.54,0
0.02942,0.0025168,0.0030572,-0.00059903,0.00073746,0.00019716,0,0,0.024126,-0.0139,0,0.004101,0,0,0,0.0030678,-0.00060963,0.00073746,3.0778,0.0010652,0.0032225,7.6223e-10,0.6,0.54,0
0.029909,0.0025283,0.0031845,-0.00070253,0.0007446,0.00061822,0,0,0.025375,-0.01505,0,0.012859,0,0,0,0.0032805,-0.00079849,0.0007446,8.8226,0.0010755,0.0035672,9.4814e-10,0.62,0.54,0
0.030435,0.0025075,0.0035876,-0.00085826,0.00081881,0.00105,0,0,0.028796,-0.017441,0,0.021839,0,0,0,0.0038231,-0.0010938,0.00081881,12.641,0.0011827,0.004293,1.5167e-09,0.64,0.54,0
0.03106,0.0024242,0.0045629,-0.0011134,0.0010348,0.0013166,0,0,0.036691,-0.022342,0,0.027385,0,0,0,0.0048534,-0.0014039,0.0010348,12.443,0.0014948,0.0054627,3.1046e-09,0.66,0.54,0
0.031903,0.0020866,0.0051954,-0.0015903,0.0010815,0.0015115,0,0,0.042785,-0.027787,0,0.03144,0,0,0,0.0055169,-0.0019118,0.0010815,12.007,0.0015622,0.0064737,4.5789e-09,0.68,0.54,0
0.032772,0.0015951,0.0060084,-0.0011199,0.0014666,0.00088892,0,0,0.047235,-0.026899,0,0.018489,0,0,0,0.0061176,-0.0012291,0.0014666,7.0021,0.0021183,0.006437,6.05e-09,0.7,0.54,0
0.033792,0.0011488,0.0068844,-0.00051189,0.0019118,0.00071582,0,0,0.051715,-0.025206,0,0.014889,0,0,0,0.006953,-0.00058053,0.0019118,5.4774,0.0027614,0.0066476,8.2526e-09,0.72,0.54,0
0.03484,0.0006913,0.0071968,-0.00020531,0.0020975,0.00052236,0,0,0.053034,-0.023949,0,0.010865,0,0,0,0.0072335,-0.00024199,0.0020975,4.0168,0.0030297,0.0066233,8.8897e-09,0.74,0.54,0
0.035914,0.00025987,0.0074639,0.00014223,0.0022818,0.00044029,0,0,0.053893,-0.022252,0,0.009158,0,0,0,0.0074903,0.00011585,0.0022818,3.4291,0.003296,0.0065651,9.3791e-09,0.76,0.54,0
0.036996,-0.00013457,0.0076446,0.00039518,0.0024119,0.0004134,0,0,0.05442,-0.020974,0,0.0085988,0,0,0,0.0076681,0.00037168,0.0024119,3.2532,0.0034839,0.0065203,9.679e-09,0.78,0.54,0
0.03809,-0.00047442,0.0078124,0.00056674,0.0025137,0.00043254,0,0,0.055106,-0.020249,0,0.0089967,0,0,0,0.0078382,0.00054101,0.0025137,3.4042,0.003631,0.0065379,1.007e-08,0.8,0.54,0
0.0392,-0.00075446,0.0079664,0.0006422,0.0025826,0.00046023,0,0,0.055992,-0.02018,0,0.0095728,0,0,0,0.0079952,0.00061339,0.0025826,3.5815,0.0037304,0.0066207,1.058e-08,0.82,0.54,0
0.04033,-0.00097634,0.008115,0.00065162,0.00263,0.000476,0,0,0.057044,-0.020575,0,0.0099007,0,0,0,0.0081453,0.00062138,0.00263,3.6345,0.0037989,0.0067477,1.1193e-08,0.84,0.54,0
0.041482,-0.0011474,0.0082517,0.00062046,0.0026617,0.00046947,0,0,0.058137,-0.021228,0,0.0097649,0,0,0,0.0082805,0.00059169,0.0026617,3.5072,0.0038446,0.0068911,1.1835e-08,0.86,0.54,0
0.042656,-0.0012764,0.0083721,0.00057031,0.0026827,0.00044046,0,0,0.059169,-0.021969,0,0.0091617,0,0,0,0.0083969,0.00054552,0.0026827,3.2211,0.003875,0.0070307,1.2446e-08,0.88,0.54,0
0.043849,-0.0013717,0.0084731,0.00051433,0.0026962,0.00039244,0,0,0.060079,-0.022692,0,0.0081628,0,0,0,0.0084924,0.00049502,0.0026962,2.8161,0.0038945,0.0071554,1.2987e-08,0.9,0.54,0
0.045059,-0.0014405,0.0085541,0.00046084,0.0027045,0.00032964,0,0,0.060836,-0.023334,0,0.0068566,0,0,0,0.0085675,0.00044744,0.0027045,2.3285,0.0039065,0.0072596,1.3437e-08,0.92,0.54,0
0.046282,-0.0014885,0.0086157,0.00041518,0.0027093,0.00025592,0,0,0.061427,-0.023859,0,0.005323,0,0,0,0.0086237,0.0004072,0.0027093,1.7857,0.0039134,0.0073413,1.3788e-08,0.94,0.54,0
0.047516,-0.0015198,0.0086589,0.00038066,0.0027119,0.00017457,0,0,0.061849,-0.024245,0,0.0036311,0,0,0,0.0086626,0.00037698,0.0027119,1.2075,0.0039172,0.0073998,1.4039e-08,0.96,0.54,0
0.048756,-0.0015374,0.0086844,0.00035926,0.0027131,8.8439e-05,0,0,0.062102,-0.02448,0,0.0018395,0,0,0,0.0086854,0.00035833,0.0027131,0.60857,0.0039189,0.0074348,1.4189e-08,0.98,0.54,0
0.05,-0.0015431,0.0086929,0.00035203,0.0027135,-1.3688e-05,0,0,0.062186,-0.024559,0,-0.00028472,0,0,0,0.0086929,0.000352,0.0027135,-0.094028,0.0039195,0.0074465,1.424e-08,1,0.54,0
0,0,0.0078406,0.0033602,0.0033602,-0.00060616,0,0,0.046595,0,0,-0.012608,0,0,0,0.0079211,0.0032797,0.0033602,-7.5705,0.0048537,0.0046017,4.9995e-09,0,0.56,0
0.00093191,-0.00025216,0.0078195,0.0031232,0.0032828,-0.00060587,0,0,0.047181,-0.0016599,0,-0.012602,0,0,0,0.0078963,0.0030463,0.0032828,-7.234,0.0047418,0.0047362,5.4108e-09,0.02,0.56,0
0.0018873,-0.00047766,0.0078963,0.0029322,0.0032485,-0.0005817,0,0,0.048337,-0.0032902,0,-0.012099,0,0,0,0.0079635,0.0028649,0.0032485,-6.5949,0.0046923,0.0049181,5.9843e-09,0.04,0.56,0
0.0028654,-0.00067985,0.0079698,0.0027468,0.003215,-0.00056835,0,0,0.049451,-0.0048695,0,-0.011822,0,0,0,0.008031,0.0026856,0.003215,-6.1389,0.0046438,0.0051013,6.5713e-09,0.06,0.56,0
0.0038653,-0.00086132,0.0080386,0.0025689,0.0031823,-0.00056379,0,0,0.050506,-0.0063786,0,-0.011727,0,0,0,0.0080961,0.0025114,0.0031823,-5.8243,0.0045966,0.0052813,7.1558e-09,0.08,0.56,0
0.0048856,-0.001024,0.0081011,0.0024005,0.0031505,-0.00056637,0,0,0.051487,-0.0078001,0,-0.01178,0,0,0,0.0081569,0.0023447,0.0031505,-5.6192,0.0045507,0.0054541,7.7232e-09,0.1,0.56,0
0.0059247,-0.0011691,0.0081561,0.002243,0.0031197,-0.00057468,0,0,0.052378,-0.0091182,0,-0.011953,0,0,0,0.0082114,0.0021876,0.0031197,-5.4999,0.0045063,0.0056161,8.259e-09,0.12,0.56,0
0.0069807,-0.0012974,0.008202,0.0020978,0.00309,-0.00058752,0,0,0.053166,-0.010318,0,-0.01222,0,0,0,0.0082581,0.0020418,0.00309,-5.448,0.0044633,0.0057641,8.7498e-09,0.14,0.56,0
0.0080514,-0.0014092,0.0082375,0.0019662,0.0030611,-0.00060377,0,0,0.053835,-0.011387,0,-0.012558,0,0,0,0.0082951,0.0019086,0.0030611,-5.4494,0.0044216,0.0058953,9.1823e-09,0.16,0.56,0
0.0091341,-0.0015042,0.008261,0.0018491,0.003033,-0.00062229,0,0,0.054371,-0.012313,0,-0.012944,0,0,0,0.0083209,0.0017892,0.003033,-5.4924,0.004381,0.0060071,9.544e-09,0.18,0.56,0
0.010226,-0.0015816,0.0082709,0.0017469,0.0030054,-0.00064186,0,0,0.054762,-0.013088,0,-0.013351,0,0,0,0.0083335,0.0016844,0.0030054,-5.5659,0.0043411,0.0060969,9.8231e-09,0.2,0.56,0
0.011325,-0.0016398,0.0082656,0.0016599,0.0029777,-0.00066101,0,0,0.054995,-0.013704,0,-0.013749,0,0,0,0.0083311,0.0015944,0.0029777,-5.6586,0.0043011,0.0061626,1.0009e-08,0.22,0.56,0
0.012426,-0.0016769,0.0082433,0.0015876,0.0029493,-0.00067792,0,0,0.055058,-0.014161,0,-0.014101,0,0,0,0.0083117,0.0015192,0.0029493,-5.7571,0.0042601,0.0062023,1.0092e-08,0.24,0.56,0
0.013527,-0.00169,0.0082024,0.0015285,0.0029193,-0.00069034,0,0,0.054944,-0.014464,0,-0.014359,0,0,0,0.0082731,0.0014579,0.0029193,-5.8441,0.0042167,0.0062147,1.0067e-08,0.26,0.56,0
0.014624,-0.0016754,0.0081415,0.00148,0.0028865,-0.00069544,0,0,0.054652,-0.014627,0,-0.014465,0,0,0,0.0082133,0.0014082,0.0028865,-5.8969,0.0041693,0.0061996,9.9319e-09,0.28,0.56,0
0.015713,-0.0016282,0.0080597,0.0014376,0.0028492,-0.00068995,0,0,0.054189,-0.014681,0,-0.014351,0,0,0,0.0081308,0.0013665,0.0028492,-5.8854,0.0041155,0.0061584,9.6917e-09,0.3,0.56,0
0.016791,-0.001543,0.0079576,0.0013938,0.0028054,-0.00067057,0,0,0.053582,-0.014681,0,-0.013948,0,0,0,0.0080254,0.001326,0.0028054,-5.774,0.0040523,0.0060959,9.3643e-09,0.32,0.56,0
0.017856,-0.0014135,0.0078367,0.0013371,0.0027522,-0.00063515,0,0,0.052879,-0.014716,0,-0.013211,0,0,0,0.0078982,0.0012757,0.0027522,-5.5293,0.0039753,0.0060216,8.9818e-09,0.34,0.56,0
0.018906,-0.0012334,0.0076998,0.0012524,0.0026856,-0.00058501,0,0,0.052147,-0.014906,0,-0.012168,0,0,0,0.0077525,0.0011997,0.0026856,-5.1428,0.0038793,0.0059506,8.5893e-09,0.36,0.56,0
0.019942,-0.00099831,0.0075468,0.0011211,0.0026004,-0.00052684,0,0,0.051443,-0.015384,0,-0.010958,0,0,0,0.0075897,0.0010782,0.0026004,-4.6562,0.0037561,0.0058996,8.2265e-09,0.38,0.56,0
0.020964,-0.00070714,0.0073755,0.00093264,0.0024924,-0.00047467,0,0,0.050784,-0.016222,0,-0.0098731,0,0,0,0.0074102,0.00089786,0.0024924,-4.191,0.0036002,0.0058796,7.908e-09,0.4,0.56,0
0.021973,-0.00036415,0.0071665,0.00068017,0.002354,-0.00044135,0,0,0.05005,-0.017408,0,-0.00918,0,0,0,0.0071964,0.00065028,0.002354,-3.8747,0.0034002,0.0058823,7.5728e-09,0.42,0.56,0
0.022966,2.331e-05,0.0069116,0.00039207,0.0021911,-0.00044215,0,0,0.049093,-0.01871,0,-0.0091968,0,0,0,0.0069415,0.00036222,0.0021911,-3.8622,0.0031649,0.0058821,7.1468e-09,0.44,0.56,0
0.023937,0.00044184,0.0065339,3.9192e-05,0.0019719,-0.00045177,0,0,0.047445,-0.020101,0,-0.0093968,0,0,0,0.0065652,7.918e-06,0.0019719,-3.96,0.0028483,0.0058289,6.4154e-09,0.46,0.56,0
0.024864,0.00089151,0.0061891,-0.00023724,0.0017855,-0.00048852,0,0,0.045797,-0.021037,0,-0.010161,0,0,0,0.006226,-0.00027416,0.0017855,-4.3224,0.0025791,0.0057538,5.7255e-09,0.48,0.56,0
0.025769,0.0013398,0.0056895,-0.00082678,0.0014588,-0.00049511,0,0,0.043999,-0.02377,0,-0.010298,0,0,0,0.0057269,-0.00086418,0.0014588,-4.3203,0.0021072,0.0057903,4.8351e-09,0.5,0.56,0
0.026624,0.0017061,0.005173,-0.0011908,0.0011947,-0.00064571,0,0,0.041375,-0.024809,0,-0.013431,0,0,0,0.0052378,-0.0012557,0.0011947,-5.7357,0.0017256,0.0056796,3.8548e-09,0.52,0.56,0
0.027424,0.0019417,0.004794,-0.00099139,0.0011408,-0.00061115,0,0,0.037994,-0.022175,0,-0.012712,0,0,0,0.0048579,-0.0010552,0.0011408,-5.9648,0.0016478,0.0051771,3.0504e-09,0.54,0.56,0
0.028144,0.0020714,0.0043979,-0.00090994,0.0010464,-0.00041915,0,0,0.034856,-0.020346,0,-0.0087183,0,0,0,0.0044308,-0.00094284,0.0010464,-4.4874,0.0015115,0.0047057,2.3104e-09,0.56,0.56,0
0.028818,0.0021436,0.0042068,-0.00089136,0.00099465,-0.00014511,0,0,0.033407,-0.019614,0,-0.0030184,0,0,0,0.004211,-0.00089549,0.00099465,-1.6291,0.0014367,0.0044718,1.9832e-09,0.58,0.56,0
0.02948,0.0021721,0.0042001,-0.00093149,0.0009806,0.0001446,0,0,0.033483,-0.019886,0,0.0030078,0,0,0,0.0042042,-0.00093556,0.0009806,1.6128,0.0014164,0.0044989,1.9814e-09,0.6,0.56,0
0.030158,0.002156,0.0043801,-0.0010319,0.0010045,0.00041619,0,0,0.035107,-0.021178,0,0.0086568,0,0,0,0.004412,-0.0010637,0.0010045,4.3719,0.0014509,0.0047891,2.3048e-09,0.62,0.56,0
0.030884,0.0020792,0.0047715,-0.0012006,0.0010713,0.00060002,0,0,0.038482,-0.023627,0,0.012481,0,0,0,0.0048312,-0.0012603,0.0010713,5.681,0.0015474,0.0053235,3.0436e-09,0.64,0.56,0
0.031697,0.0018889,0.0051465,-0.0014976,0.0010947,0.00061348,0,0,0.042139,-0.026959,0,0.01276,0,0,0,0.0052027,-0.0015538,0.0010947,5.2315,0.0015812,0.0058966,3.8298e-09,0.66,0.56,0
0.03257,0.0015539,0.005657,-0.0012156,0.0013324,0.00042373,0,0,0.044976,-0.0265,0,0.0088137,0,0,0,0.005683,-0.0012417,0.0013324,3.5148,0.0019246,0.0060624,4.8862e-09,0.68,0.56,0
0.033496,0.0011197,0.006157,-0.00065747,0.0016499,0.00037593,0,0,0.046874,-0.023996,0,0.0078193,0,0,0,0.0061777,-0.00067815,0.0016499,3.1481,0.0023831,0.0060383,5.9059e-09,0.7,0.56,0
0.034445,0.00066937,0.0064951,-0.00041232,0.0018248,0.00030665,0,0,0.048571,-0.023266,0,0.0063783,0,0,0,0.0065087,-0.00042591,0.0018248,2.5369,0.0026359,0.0061275,6.6681e-09,0.72,0.56,0
0.035439,0.0002389,0.0068676,-9.3573e-05,0.0020322,0.00026686,0,0,0.050288,-0.022108,0,0.0055508,0,0,0,0.0068778,-0.00010379,0.0020322,2.1922,0.0029354,0.0061962,7.5037e-09,0.74,0.56,0
0.036456,-0.00017014,0.0071213,0.0001621,0.002185,0.00023803,0,0,0.051338,-0.021039,0,0.0049511,0,0,0,0.0071295,0.00015397,0.002185,1.9567,0.0031562,0.0062141,8.032e-09,0.76,0.56,0
0.037492,-0.00054314,0.0073305,0.000379,0.0023129,0.00024485,0,0,0.052184,-0.020112,0,0.0050928,0,0,0,0.0073391,0.00037038,0.0023129,2.0147,0.0033408,0.006229,8.4649e-09,0.78,0.56,0
0.038544,-0.00087142,0.0075053,0.00052725,0.0024098,0.00027213,0,0,0.052993,-0.019578,0,0.0056602,0,0,0,0.0075159,0.00051665,0.0024098,2.2299,0.0034808,0.0062708,8.8818e-09,0.8,0.56,0
0.039612,-0.0011495,0.0076652,0.00061105,0.0024829,0.000306,0,0,0.053896,-0.019467,0,0.0063647,0,0,0,0.0076784,0.00059781,0.0024829,2.4792,0.0035864,0.0063515,9.3571e-09,0.82,0.56,0
0.040699,-0.0013778,0.0078132,0.00063986,0.0025359,0.00033121,0,0,0.054884,-0.019719,0,0.0068891,0,0,0,0.0078284,0.0006246,0.0025359,2.638,0.003663,0.0064637,9.8904e-09,0.84,0.56,0
0.041807,-0.0015602,0.0079492,0.00063143,0.0025742,0.00033971,0,0,0.0559,-0.020205,0,0.0070661,0,0,0,0.007965,0.0006157,0.0025742,2.6522,0.0037183,0.006592,1.0452e-08,0.86,0.56,0
0.042936,-0.0017026,0.0080702,0.00060129,0.0026015,0.00032906,0,0,0.056875,-0.020802,0,0.0068445,0,0,0,0.0080847,0.00058682,0.0026015,2.5178,0.0037577,0.006721,1.0999e-08,0.88,0.56,0
0.044082,-0.0018114,0.0081738,0.00056157,0.0026206,0.00030062,0,0,0.057753,-0.021414,0,0.006253,0,0,0,0.0081857,0.00054972,0.0026206,2.258,0.0037853,0.0068398,1.1498e-08,0.9,0.56,0
0.045246,-0.0018924,0.0082585,0.00052066,0.0026337,0.00025735,0,0,0.058497,-0.021976,0,0.0053528,0,0,0,0.008267,0.00051211,0.0026337,1.9027,0.0038043,0.0069417,1.1924e-08,0.92,0.56,0
0.046422,-0.0019504,0.008324,0.0004842,0.0026425,0.00020256,0,0,0.059088,-0.022446,0,0.0042132,0,0,0,0.0083292,0.00047897,0.0026425,1.4791,0.0038169,0.007023,1.2265e-08,0.94,0.56,0
0.047609,-0.0019892,0.0083703,0.00045592,0.0026479,0.00013947,0,0,0.059514,-0.022796,0,0.002901,0,0,0,0.0083728,0.00045346,0.0026479,1.0093,0.0038247,0.0070819,1.2511e-08,0.96,0.56,0
0.048803,-0.0020114,0.008398,0.00043812,0.0026508,7.1042e-05,0,0,0.05977,-0.023012,0,0.0014777,0,0,0,0.0083986,0.00043749,0.0026508,0.51131,0.003829,0.0071174,1.266e-08,0.98,0.56,0
0.05,-0.0020186,0.0084072,0.00043206,0.0026518,-1.7379e-05,0,0,0.059856,-0.023085,0,-0.00036149,0,0,0,0.0084072,0.00043202,0.0026518,-0.12486,0.0038303,0.0071294,1.271e-08,1,0.56,0
0,0,0.0077297,0.0033127,0.0033127,-0.00068293,0,0,0.045936,6.5052e-19,0,-0.014205,0,0,0,0.0078329,0.0032095,0.0033127,-8.5916,0.004785,0.0045726,4.902e-09,0,0.58,0
0.00091873,-0.0002841,0.0077103,0.0030926,0.0032409,-0.00068174,0,0,0.046482,-0.001542,0,-0.01418,0,0,0,0.0078089,0.0029941,0.0032409,-8.2252,0.0046813,0.0046963,5.2701e-09,0.02,0.58,0
0.0018593,-0.00054115,0.0077814,0.0029125,0.0032082,-0.00065509,0,0,0.047562,-0.0030747,0,-0.013626,0,0,0,0.007868,0.0028259,0.0032082,-7.5305,0.004634,0.0048622,5.7809e-09,0.04,0.58,0
0.0028212,-0.00077404,0.0078493,0.0027359,0.0031756,-0.00063764,0,0,0.048607,-0.0045724,0,-0.013263,0,0,0,0.0079276,0.0026576,0.0031756,-7.0019,0.0045869,0.0050311,6.3073e-09,0.06,0.58,0
0.0038036,-0.00098493,0.0079123,0.0025651,0.0031432,-0.00062745,0,0,0.049598,-0.0060122,0,-0.013051,0,0,0,0.0079849,0.0024925,0.0031432,-6.6038,0.0045402,0.0051977,6.8325e-09,0.08,0.58,0
0.0048051,-0.0011753,0.0079688,0.0024022,0.0031113,-0.00062293,0,0,0.050517,-0.0073741,0,-0.012957,0,0,0,0.0080376,0.0023334,0.0031113,-6.3079,0.0044941,0.0053578,7.3409e-09,0.1,0.58,0
0.0058243,-0.0013462,0.0080171,0.0022491,0.0030799,-0.0006227,0,0,0.051347,-0.0086401,0,-0.012952,0,0,0,0.0080836,0.0021826,0.0030799,-6.0919,0.0044487,0.0055074,7.8175e-09,0.12,0.58,0
0.006859,-0.001498,0.0080559,0.0021071,0.0030489,-0.00062553,0,0,0.052072,-0.0097943,0,-0.013011,0,0,0,0.0081209,0.0020421,0.0030489,-5.9383,0.004404,0.0056432,8.2483e-09,0.14,0.58,0
0.0079072,-0.0016307,0.0080835,0.0019777,0.0030183,-0.0006303,0,0,0.052678,-0.010823,0,-0.01311,0,0,0,0.0081479,0.0019133,0.0030183,-5.8326,0.0043598,0.0057621,8.6202e-09,0.16,0.58,0
0.0089661,-0.0017438,0.0080985,0.0018615,0.002988,-0.00063583,0,0,0.05315,-0.011716,0,-0.013225,0,0,0,0.0081627,0.0017973,0.002988,-5.762,0.004316,0.0058614,8.9211e-09,0.18,0.58,0
0.010033,-0.0018363,0.0080995,0.0017591,0.0029576,-0.00064088,0,0,0.053476,-0.012464,0,-0.01333,0,0,0,0.0081637,0.0016949,0.0029576,-5.7143,0.0042721,0.0059389,9.1406e-09,0.2,0.58,0
0.011105,-0.0019066,0.0080851,0.0016703,0.0029266,-0.00064396,0,0,0.053648,-0.013066,0,-0.013394,0,0,0,0.0081491,0.0016063,0.0029266,-5.6762,0.0042273,0.0059927,9.2704e-09,0.22,0.58,0
0.012179,-0.0019527,0.0080538,0.0015942,0.0028944,-0.0006433,0,0,0.053658,-0.013522,0,-0.013381,0,0,0,0.0081172,0.0015307,0.0028944,-5.6323,0.0041808,0.0060216,9.3045e-09,0.24,0.58,0
0.013251,-0.0019719,0.0080047,0.001529,0.0028601,-0.00063681,0,0,0.053504,-0.013843,0,-0.013246,0,0,0,0.0080667,0.001467,0.0028601,-5.5634,0.0041313,0.0060252,9.2413e-09,0.26,0.58,0
0.014319,-0.0019608,0.0079371,0.0014717,0.0028226,-0.00062206,0,0,0.05319,-0.014049,0,-0.012939,0,0,0,0.0079964,0.0014124,0.0028226,-5.4461,0.0040771,0.0060044,9.0842e-09,0.28,0.58,0
0.015379,-0.0019154,0.007851,0.0014173,0.0027805,-0.00059654,0,0,0.052733,-0.014177,0,-0.012408,0,0,0,0.0079058,0.0013625,0.0027805,-5.2529,0.0040163,0.0059621,8.8442e-09,0.3,0.58,0
0.016428,-0.0018312,0.0077471,0.0013588,0.0027318,-0.00055813,0,0,0.05216,-0.014279,0,-0.011609,0,0,0,0.0077955,0.0013104,0.0027318,-4.9557,0.0039459,0.0059042,8.541e-09,0.32,0.58,0
0.017465,-0.0017035,0.0076273,0.0012864,0.0026741,-0.00050607,0,0,0.051513,-0.014432,0,-0.010526,0,0,0,0.0076674,0.0012463,0.0026741,-4.5346,0.0038626,0.0058396,8.2031e-09,0.34,0.58,0
0.018489,-0.0015283,0.0074927,0.0011886,0.0026044,-0.00044204,0,0,0.050839,-0.014724,0,-0.0091944,0,0,0,0.0075236,0.0011577,0.0026044,-3.9914,0.0037619,0.0057799,7.8621e-09,0.36,0.58,0
0.019499,-0.0013029,0.007344,0.0010542,0.0025195,-0.00037115,0,0,0.050175,-0.015239,0,-0.0077199,0,0,0,0.0073659,0.0010323,0.0025195,-3.3653,0.0036392,0.0057364,7.5426e-09,0.38,0.58,0
0.020496,-0.0010275,0.0071774,0.00087466,0.0024156,-0.00030061,0,0,0.049523,-0.016026,0,-0.0062526,0,0,0,0.0071917,0.00086035,0.0024156,-2.7244,0.0034892,0.0057147,7.2456e-09,0.4,0.58,0
0.02148,-0.0007053,0.0069889,0.00065125,0.002292,-0.00023828,0,0,0.048848,-0.017064,0,-0.0049562,0,0,0,0.0069979,0.0006423,0.002292,-2.1501,0.0033107,0.0057123,6.9494e-09,0.42,0.58,0
0.02245,-0.00034295,0.0067665,0.00038303,0.0021448,-0.00018386,0,0,0.048065,-0.018323,0,-0.0038243,0,0,0,0.0067717,0.00037774,0.0021448,-1.6484,0.0030981,0.005719,6.6054e-09,0.44,0.58,0
0.023402,5.1952e-05,0.0065351,9.1986e-05,0.0019881,-0.00013872,0,0,0.047289,-0.01972,0,-0.0028853,0,0,0,0.0065381,8.9001e-05,0.0019881,-1.2328,0.0028717,0.0057402,6.2507e-09,0.46,0.58,0
0.024341,0.00046413,0.0062794,-0.00028493,0.0017983,-9.9371e-05,0,0,0.046603,-0.021666,0,-0.0020669,0,0,0,0.0062809,-0.00028643,0.0017983,-0.86708,0.0025976,0.0058125,5.8869e-09,0.48,0.58,0
0.025267,0.00086358,0.0059994,-0.00072283,0.001583,-0.00012601,0,0,0.045931,-0.02398,0,-0.002621,0,0,0,0.0060018,-0.00072519,0.001583,-1.0735,0.0022865,0.0059206,5.4583e-09,0.5,0.58,0
0.026179,0.0012044,0.005714,-0.0010402,0.0014021,-0.00019074,0,0,0.044844,-0.025401,0,-0.0039673,0,0,0,0.0057194,-0.0010456,0.0014021,-1.6163,0.0020253,0.0059328,4.9017e-09,0.52,0.58,0
0.02706,0.001454,0.0054446,-0.0011389,0.0012917,-0.00023896,0,0,0.04319,-0.025278,0,-0.0049704,0,0,0,0.0054533,-0.0011476,0.0012917,-2.076,0.0018658,0.005781,4.3032e-09,0.54,0.58,0
0.027906,0.0016134,0.0052275,-0.0011169,0.0012332,-0.00018906,0,0,0.041541,-0.024441,0,-0.0039324,0,0,0,0.0052332,-0.0011225,0.0012332,-1.7054,0.0017813,0.0055652,3.8092e-09,0.56,0.58,0
0.028722,0.0016984,0.0050898,-0.0011194,0.0011911,-6.7296e-05,0,0,0.040546,-0.024029,0,-0.0013998,0,0,0,0.0050905,-0.0011201,0.0011911,-0.62088,0.0017205,0.0054369,3.5138e-09,0.58,0.58,0
0.029528,0.0017214,0.0050863,-0.001158,0.0011785,7.8303e-05,0,0,0.040641,-0.0243,0,0.0016287,0,0,0,0.0050873,-0.001159,0.0011785,0.71833,0.0017023,0.0054662,3.5174e-09,0.6,0.58,0
0.030348,0.0016812,0.0052182,-0.0012337,0.0011954,0.00019455,0,0,0.041838,-0.025262,0,0.0040467,0,0,0,0.0052241,-0.0012396,0.0011954,1.7256,0.0017266,0.0056541,3.8215e-09,0.62,0.58,0
0.031202,0.0015625,0.005431,-0.0013365,0.0012284,0.0002311,0,0,0.043708,-0.026674,0,0.0048068,0,0,0,0.0054389,-0.0013444,0.0012284,1.9535,0.0017743,0.0059313,4.3261e-09,0.64,0.58,0
0.032096,0.0013459,0.005696,-0.0013169,0.0013137,0.00015847,0,0,0.045575,-0.027358,0,0.0032963,0,0,0,0.0056996,-0.0013204,0.0013137,1.2939,0.0018976,0.0061423,4.9532e-09,0.66,0.58,0
0.033025,0.0010266,0.0059759,-0.0010646,0.0014734,5.9527e-05,0,0,0.046826,-0.026395,0,0.0012382,0,0,0,0.0059764,-0.0010651,0.0014734,0.48438,0.0021282,0.0061767,5.5795e-09,0.68,0.58,0
0.033969,0.00063523,0.0062492,-0.00067125,0.0016734,-4.3814e-06,0,0,0.047589,-0.024384,0,-9.1132e-05,0,0,0,0.0062492,-0.00067125,0.0016734,-0.036274,0.0024171,0.0060963,6.103e-09,0.7,0.58,0
0.034928,0.00021816,0.0064964,-0.00032925,0.0018501,3.3197e-07,0,0,0.048321,-0.022666,0,6.9049e-06,0,0,0,0.0064964,-0.00032925,0.0018501,0.0027866,0.0026724,0.0060385,6.5442e-09,0.72,0.58,0
0.035902,-0.00019303,0.0067189,-7.2048e-05,0.0019941,1.3929e-05,0,0,0.049139,-0.021488,0,0.00028972,0,0,0,0.006719,-7.2076e-05,0.0019941,0.11752,0.0028803,0.0060296,6.9642e-09,0.74,0.58,0
0.036894,-0.00058167,0.0069344,0.00016138,0.0021287,3.8361e-05,0,0,0.049979,-0.020461,0,0.00079791,0,0,0,0.0069346,0.00016116,0.0021287,0.3245,0.0030749,0.0060352,7.3775e-09,0.76,0.58,0
0.037901,-0.00093906,0.0071186,0.00034789,0.0022399,7.1885e-05,0,0,0.050738,-0.019677,0,0.0014952,0,0,0,0.0071193,0.00034712,0.0022399,0.60823,0.0032355,0.006052,7.7432e-09,0.78,0.58,0
0.038923,-0.0012575,0.0072834,0.00048606,0.0023308,0.00011428,0,0,0.051506,-0.019186,0,0.0023771,0,0,0,0.0072853,0.00048414,0.0023308,0.96295,0.0033667,0.0060915,8.1133e-09,0.8,0.58,0
0.039961,-0.0015331,0.0074334,0.00057314,0.002402,0.00015707,0,0,0.052327,-0.01902,0,0.0032671,0,0,0,0.007437,0.00056954,0.002402,1.3109,0.0034695,0.0061592,8.5164e-09,0.82,0.58,0
0.041016,-0.0017651,0.0075727,0.00061633,0.0024567,0.00019216,0,0,0.053206,-0.01914,0,0.0039969,0,0,0,0.007578,0.00061103,0.0024567,1.5811,0.0035486,0.0062519,8.9609e-09,0.84,0.58,0
0.04209,-0.0019556,0.0077006,0.00062611,0.002498,0.00021353,0,0,0.054107,-0.019468,0,0.0044414,0,0,0,0.007707,0.00061967,0.002498,1.7273,0.0036082,0.0063597,9.4296e-09,0.86,0.58,0
0.043181,-0.0021084,0.0078155,0.00061405,0.0025289,0.00021873,0,0,0.054981,-0.019914,0,0.0045495,0,0,0,0.0078221,0.00060741,0.0025289,1.7381,0.0036528,0.0064716,9.8949e-09,0.88,0.58,0
0.044289,-0.0022283,0.0079151,0.00059006,0.0025515,0.000208,0,0,0.055781,-0.020399,0,0.0043264,0,0,0,0.007921,0.00058416,0.0025515,1.6252,0.0036856,0.0065776,1.0329e-08,0.9,0.58,0
0.045412,-0.0023196,0.0079977,0.00056185,0.0025679,0.00018327,0,0,0.056471,-0.020863,0,0.003812,0,0,0,0.0080023,0.00055734,0.0025679,1.411,0.0037092,0.0066709,1.0707e-08,0.92,0.58,0
0.046548,-0.0023863,0.0080625,0.00053502,0.0025792,0.00014722,0,0,0.057026,-0.02126,0,0.0030623,0,0,0,0.0080654,0.00053215,0.0025792,1.12,0.0037256,0.0067468,1.1015e-08,0.94,0.58,0
0.047693,-0.0024317,0.0081088,0.00051342,0.0025867,0.00010276,0,0,0.05743,-0.021562,0,0.0021373,0,0,0,0.0081102,0.00051203,0.0025867,0.77495,0.0037363,0.0068024,1.1241e-08,0.96,0.58,0
0.048845,-0.0024579,0.0081366,0.00049954,0.0025909,5.2748e-05,0,0,0.057676,-0.02175,0,0.0010972,0,0,0,0.008137,0.00049917,0.0025909,0.3957,0.0037423,0.0068363,1.1379e-08,0.98,0.58,0
0.05,-0.0024665,0.0081459,0.00049476,0.0025922,-2.0689e-05,0,0,0.057759,-0.021813,0,-0.00043033,0,0,0,0.008146,0.00049471,0.0025922,-0.15493,0.0037443,0.0068478,1.1426e-08,1,0.58,0
0,0,0.0076213,0.0032663,0.0032663,-0.00075443,0,0,0.045292,-2.1684e-19,0,-0.015692,0,0,0,0.0077483,0.0031393,0.0032663,-9.5546,0.004718,0.0045468,4.8152e-09,0,0.6,0
0.00090585,-0.00031384,0.0076034,0.0030606,0.0031992,-0.00075231,0,0,0.045804,-0.0014418,0,-0.015648,0,0,0,0.0077248,0.0029392,0.0031992,-9.1626,0.0046211,0.004661,5.1462e-09,0.02,0.6,0
0.0018322,-0.00060065,0.0076697,0.0028897,0.0031678,-0.00072343,0,0,0.04682,-0.0028929,0,-0.015047,0,0,0,0.0077768,0.0027826,0.0031678,-8.4202,0.0045757,0.0048132,5.6034e-09,0.04,0.6,0
0.0027786,-0.00086274,0.007733,0.0027202,0.003136,-0.00070188,0,0,0.047809,-0.0043239,0,-0.014599,0,0,0,0.0078294,0.0026238,0.003136,-7.8221,0.0045297,0.0049694,6.0776e-09,0.06,0.6,0
0.0037445,-0.0011018,0.0077913,0.0025549,0.0031039,-0.00068588,0,0,0.04875,-0.0057093,0,-0.014266,0,0,0,0.0078797,0.0024665,0.0031039,-7.3398,0.0044834,0.0051243,6.5517e-09,0.08,0.6,0
0.0047286,-0.0013189,0.0078429,0.0023961,0.0030717,-0.00067391,0,0,0.049621,-0.0070265,0,-0.014017,0,0,0,0.0079251,0.0023139,0.0030717,-6.9493,0.0044369,0.0052733,7.0097e-09,0.1,0.6,0
0.0057294,-0.0015147,0.0078862,0.0022458,0.0030396,-0.00066466,0,0,0.050405,-0.0082558,0,-0.013825,0,0,0,0.0079635,0.0021685,0.0030396,-6.6306,0.0043905,0.0054123,7.4364e-09,0.12,0.6,0
0.0067448,-0.0016892,0.0079195,0.0021056,0.0030075,-0.00065697,0,0,0.051085,-0.0093802,0,-0.013665,0,0,0,0.0079928,0.0020323,0.0030075,-6.3675,0.0043442,0.0055377,7.8179e-09,0.14,0.6,0
0.0077727,-0.0018422,0.0079414,0.0019768,0.0029755,-0.00064977,0,0,0.051646,-0.010386,0,-0.013515,0,0,0,0.0080114,0.0019068,0.0029755,-6.1456,0.0042979,0.0056466,8.1415e-09,0.16,0.6,0
0.0088106,-0.0019729,0.0079506,0.0018602,0.0029432,-0.00064194,0,0,0.052076,-0.011263,0,-0.013352,0,0,0,0.0080175,0.0017933,0.0029432,-5.952,0.0042513,0.0057363,8.3964e-09,0.18,0.6,0
0.0098558,-0.0020801,0.0079457,0.0017561,0.0029105,-0.0006323,0,0,0.052366,-0.012006,0,-0.013152,0,0,0,0.0080096,0.0016922,0.0029105,-5.7736,0.0042041,0.0058049,8.5737e-09,0.2,0.6,0
0.010905,-0.0021625,0.0079257,0.0016641,0.002877,-0.00061948,0,0,0.052507,-0.012613,0,-0.012885,0,0,0,0.0079864,0.0016034,0.002877,-5.5962,0.0041556,0.0058511,8.6677e-09,0.22,0.6,0
0.011956,-0.0022178,0.0078897,0.0015831,0.0028419,-0.00060191,0,0,0.052498,-0.013091,0,-0.01252,0,0,0,0.0079467,0.0015262,0.0028419,-5.4034,0.0041049,0.0058742,8.6758e-09,0.24,0.6,0
0.013005,-0.0022438,0.0078403,0.0015059,0.0028039,-0.00060335,0,0,0.052379,-0.013499,0,-0.01255,0,0,0,0.0078973,0.001449,0.0028039,-5.3927,0.0040501,0.005889,8.6465e-09,0.26,0.6,0
0.01405,-0.0022373,0.0077557,0.0014343,0.002757,-0.00054577,0,0,0.051987,-0.013756,0,-0.011352,0,0,0,0.0078025,0.0013875,0.002757,-4.8984,0.0039823,0.0058517,8.4218e-09,0.28,0.6,0
0.015087,-0.0021953,0.0076834,0.0013787,0.0027186,-0.00050252,0,0,0.051634,-0.013936,0,-0.010452,0,0,0,0.0077232,0.0013389,0.0027186,-4.5286,0.0039269,0.0058185,8.2312e-09,0.3,0.6,0
0.016115,-0.0021142,0.0075838,0.0013072,0.0026673,-0.00044831,0,0,0.051132,-0.014145,0,-0.0093248,0,0,0,0.0076156,0.0012753,0.0026673,-4.0648,0.0038527,0.0057716,7.9718e-09,0.32,0.6,0
0.017132,-0.0019907,0.0074711,0.001222,0.0026079,-0.00038255,0,0,0.050577,-0.014413,0,-0.0079571,0,0,0,0.0074944,0.0011987,0.0026079,-3.4902,0.003767,0.0057227,7.6935e-09,0.34,0.6,0
0.018138,-0.0018223,0.007347,0.0011145,0.0025385,-0.00030689,0,0,0.050009,-0.014809,0,-0.0063834,0,0,0,0.0073621,0.0010995,0.0025385,-2.8123,0.0036667,0.0056815,7.4211e-09,0.36,0.6,0
0.019133,-0.0016079,0.0072125,0.00097643,0.0024567,-0.00022477,0,0,0.04946,-0.015395,0,-0.0046753,0,0,0,0.0072206,0.00096834,0.0024567,-2.0616,0.0035485,0.0056568,7.1727e-09,0.38,0.6,0
0.020116,-0.0013482,0.0070679,0.00080227,0.002361,-0.00014096,0,0,0.048951,-0.016211,0,-0.002932,0,0,0,0.007071,0.0007991,0.002361,-1.2882,0.0034104,0.0056551,6.955e-09,0.4,0.6,0
0.021091,-0.0010467,0.0069126,0.00058887,0.0022505,-5.9571e-05,0,0,0.048487,-0.01728,0,-0.0012391,0,0,0,0.0069132,0.00058831,0.0022505,-0.53968,0.0032506,0.0056793,6.7623e-09,0.42,0.6,0
0.022056,-0.0007096,0.0067522,0.00033808,0.0021271,1.5291e-05,0,0,0.048102,-0.018606,0,0.00031804,0,0,0,0.0067523,0.00033804,0.0021271,0.13659,0.0030725,0.005733,6.5957e-09,0.44,0.6,0
0.023015,-0.00034695,0.0065891,4.0376e-05,0.0019888,7.9071e-05,0,0,0.047843,-0.020264,0,0.0016447,0,0,0,0.00659,3.9421e-05,0.0019888,0.69167,0.0028728,0.0058259,6.455e-09,0.46,0.6,0
0.02397,2.4875e-05,0.0064264,-0.00030378,0.0018368,0.00011302,0,0,0.047732,-0.022262,0,0.0023507,0,0,0,0.0064283,-0.00030568,0.0018368,0.96177,0.0026531,0.005959,6.3225e-09,0.48,0.6,0
0.024924,0.00038053,0.0062583,-0.00066345,0.0016784,0.00010302,0,0,0.04763,-0.024356,0,0.0021429,0,0,0,0.0062598,-0.00066499,0.0016784,0.85253,0.0024244,0.0061005,6.1287e-09,0.5,0.6,0
0.025875,0.00069006,0.0060892,-0.00095394,0.0015406,5.0084e-05,0,0,0.047306,-0.025943,0,0.0010417,0,0,0,0.0060896,-0.0009543,0.0015406,0.4074,0.0022253,0.006186,5.8331e-09,0.52,0.6,0
0.026816,0.00093055,0.0059318,-0.0011197,0.0014436,-3.5278e-06,0,0,0.046677,-0.026659,0,-7.3378e-05,0,0,0,0.0059318,-0.0011197,0.0014436,-0.028664,0.0020852,0.0061822,5.4844e-09,0.54,0.6,0
0.027742,0.0010938,0.0058006,-0.0011935,0.0013821,-2.4828e-05,0,0,0.045952,-0.026786,0,-0.00051642,0,0,0,0.0058007,-0.0011936,0.0013821,-0.20339,0.0019964,0.0061269,5.1687e-09,0.56,0.6,0
0.028654,0.0011824,0.0057241,-0.0012295,0.0013484,-6.8379e-06,0,0,0.045508,-0.02681,0,-0.00014223,0,0,0,0.0057241,-0.0012296,0.0013484,-0.056342,0.0019476,0.0060888,4.9856e-09,0.58,0.6,0
0.029562,0.0012001,0.0057218,-0.0012656,0.0013369,2.4651e-05,0,0,0.045603,-0.027065,0,0.00051273,0,0,0,0.0057218,-0.0012657,0.0013369,0.20213,0.001931,0.0061167,4.9923e-09,0.6,0.6,0
0.030478,0.0011455,0.0057937,-0.0013018,0.0013476,3.5502e-05,0,0,0.04624,-0.027553,0,0.00073845,0,0,0,0.0057938,-0.001302,0.0013476,0.28667,0.0019465,0.0062105,5.19e-09,0.62,0.6,0
0.031412,0.0010122,0.0059203,-0.0012995,0.0013862,-1.0215e-06,0,0,0.047154,-0.027932,0,-2.1247e-05,0,0,0,0.0059203,-0.0012995,0.0013862,-0.0081066,0.0020024,0.0063205,5.5263e-09,0.64,0.6,0
0.032365,0.00079453,0.0060722,-0.0012009,0.0014614,-7.8459e-05,0,0,0.047952,-0.027688,0,-0.0016319,0,0,0,0.006073,-0.0012017,0.0014614,-0.61799,0.0021109,0.006375,5.9108e-09,0.66,0.6,0
0.03333,0.00049812,0.0062341,-0.00096805,0.0015798,-0.00016228,0,0,0.048404,-0.026498,0,-0.0033754,0,0,0,0.0062377,-0.00097171,0.0015798,-1.2901,0.0022819,0.0063318,6.2659e-09,0.68,0.6,0
0.034301,0.00014429,0.0063932,-0.00065435,0.0017216,-0.00020648,0,0,0.048584,-0.02471,0,-0.0042949,0,0,0,0.0063992,-0.0006604,0.0017216,-1.6768,0.0024868,0.0062206,6.5326e-09,0.7,0.6,0
0.035273,-0.00023725,0.0065451,-0.00034842,0.001859,-0.00020669,0,0,0.048736,-0.022957,0,-0.0042992,0,0,0,0.0065513,-0.00035461,0.001859,-1.7159,0.0026852,0.0061078,6.7326e-09,0.72,0.6,0
0.03625,-0.0006206,0.0066971,-8.6032e-05,0.0019833,-0.00017578,0,0,0.049023,-0.021521,0,-0.0036561,0,0,0,0.0067017,-9.0584e-05,0.0019833,-1.4834,0.0028648,0.006029,6.9305e-09,0.74,0.6,0
0.037234,-0.00098857,0.0068472,0.00012923,0.0020929,-0.00013261,0,0,0.049444,-0.020422,0,-0.0027582,0,0,0,0.0068498,0.00012661,0.0020929,-1.1304,0.0030231,0.0059873,7.1487e-09,0.76,0.6,0
0.038228,-0.0013302,0.0069939,0.00030488,0.0021896,-8.2266e-05,0,0,0.049964,-0.019601,0,-0.0017111,0,0,0,0.0069949,0.00030387,0.0021896,-0.70453,0.0031628,0.0059756,7.3924e-09,0.78,0.6,0
0.039233,-0.0016388,0.0071322,0.00043748,0.0022709,-2.9316e-05,0,0,0.050557,-0.019068,0,-0.00060978,0,0,0,0.0071323,0.00043736,0.0022709,-0.25089,0.0032802,0.0059924,7.6635e-09,0.8,0.6,0
0.04025,-0.0019103,0.007263,0.0005287,0.0023375,2.159e-05,0,0,0.051225,-0.018812,0,0.00044906,0,0,0,0.0072631,0.00052863,0.0023375,0.18368,0.0033764,0.0060368,7.9729e-09,0.82,0.6,0
0.041282,-0.0021434,0.0073862,0.00058287,0.0023907,6.5065e-05,0,0,0.051953,-0.018801,0,0.0013533,0,0,0,0.0073868,0.00058225,0.0023907,0.54789,0.0034532,0.0061046,8.3199e-09,0.84,0.6,0
0.042328,-0.0023389,0.0075007,0.00060751,0.0024325,9.7053e-05,0,0,0.052709,-0.018979,0,0.0020187,0,0,0,0.007502,0.00060614,0.0024325,0.80649,0.0035135,0.0061883,8.6922e-09,0.86,0.6,0
0.04339,-0.0024992,0.0076046,0.00061102,0.0024647,0.00011542,0,0,0.053455,-0.019278,0,0.0024007,0,0,0,0.0076065,0.00060912,0.0024647,0.94524,0.0035601,0.0062787,9.0692e-09,0.88,0.6,0
0.044467,-0.0026274,0.0076958,0.00060139,0.0024891,0.00011997,0,0,0.054149,-0.019633,0,0.0024953,0,0,0,0.0076978,0.00059936,0.0024891,0.9685,0.0035954,0.0063675,9.428e-09,0.9,0.6,0
0.045556,-0.0027269,0.0077724,0.00058529,0.0025073,0.00011192,0,0,0.054757,-0.019989,0,0.0023278,0,0,0,0.0077742,0.00058354,0.0025073,0.8919,0.0036217,0.0064477,9.7477e-09,0.92,0.6,0
0.046657,-0.0028008,0.0078331,0.00056791,0.0025203,9.3334e-05,0,0,0.055253,-0.020305,0,0.0019414,0,0,0,0.0078343,0.00056671,0.0025203,0.73591,0.0036404,0.0065143,1.0012e-08,0.94,0.6,0
0.047766,-0.0028516,0.0078769,0.00055302,0.002529,6.6713e-05,0,0,0.055619,-0.02055,0,0.0013876,0,0,0,0.0078776,0.00055241,0.002529,0.52185,0.003653,0.006564,1.0208e-08,0.96,0.6,0
0.048882,-0.0028814,0.0079034,0.00054312,0.002534,3.4704e-05,0,0,0.055842,-0.020705,0,0.00072184,0,0,0,0.0079036,0.00054296,0.002534,0.27014,0.0036602,0.0065945,1.0329e-08,0.98,0.6,0
0.05,-0.0028911,0.0079122,0.00053967,0.0025356,-2.3503e-05,0,0,0.055917,-0.020757,0,-0.00048887,0,0,0,0.0079123,0.00053959,0.0025356,-0.18265,0.0036625,0.0066049,1.037e-08,1,0.6,0
0,0,0.007517,0.0032216,0.0032216,-0.00082156,0,0,0.044673,0,0,-0.017088,0,0,0,0.0076688,0.0030698,0.0032216,-10.467,0.0046534,0.004525,4.7406e-09,0,0.62,0
0.00089345,-0.00034177,0.0075004,0.0030274,0.0031583,-0.00081851,0,0,0.045157,-0.0013615,0,-0.017025,0,0,0,0.0076455,0.0028824,0.0031583,-10.051,0.0045621,0.0046313,5.0408e-09,0.02,0.62,0
0.0018063,-0.00065686,0.0075629,0.0028637,0.003128,-0.00078769,0,0,0.046123,-0.0027489,0,-0.016384,0,0,0,0.0076914,0.0027351,0.003128,-9.2667,0.0045182,0.004772,5.4538e-09,0.04,0.62,0
0.0027384,-0.000947,0.0076226,0.0026995,0.0030966,-0.00076214,0,0,0.04707,-0.0041301,0,-0.015853,0,0,0,0.0077379,0.0025842,0.0030966,-8.6018,0.0044729,0.0049175,5.8845e-09,0.06,0.62,0
0.0036891,-0.0012133,0.0076774,0.002538,0.0030646,-0.00074025,0,0,0.047973,-0.0054773,0,-0.015397,0,0,0,0.0077819,0.0024335,0.0030646,-8.0349,0.0044267,0.0050625,6.3159e-09,0.08,0.62,0
0.0046573,-0.0014564,0.0077255,0.0023816,0.0030321,-0.00072065,0,0,0.048811,-0.0067657,0,-0.014989,0,0,0,0.007821,0.0022861,0.0030321,-7.5469,0.0043797,0.0052022,6.732e-09,0.1,0.62,0
0.0056416,-0.0016765,0.0077652,0.0022326,0.0029993,-0.00070214,0,0,0.049565,-0.007974,0,-0.014604,0,0,0,0.0078529,0.0021449,0.0029993,-7.121,0.0043324,0.0053324,7.1179e-09,0.12,0.62,0
0.0066399,-0.0018732,0.0077947,0.0020927,0.0029663,-0.0006837,0,0,0.050216,-0.0090846,0,-0.014221,0,0,0,0.0078756,0.0020119,0.0029663,-6.7427,0.0042846,0.0054496,7.46e-09,0.14,0.62,0
0.0076502,-0.0020462,0.0078129,0.0019633,0.0029329,-0.00066436,0,0,0.050753,-0.010084,0,-0.013819,0,0,0,0.0078874,0.0018888,0.0029329,-6.3987,0.0042364,0.0055507,7.7465e-09,0.16,0.62,0
0.00867,-0.0021944,0.0078184,0.001845,0.002899,-0.00064319,0,0,0.051162,-0.010962,0,-0.013378,0,0,0,0.0078869,0.0017766,0.002899,-6.0765,0.0041875,0.0056336,7.968e-09,0.18,0.62,0
0.0096967,-0.0023165,0.0078103,0.0017382,0.0028645,-0.00061915,0,0,0.051436,-0.011714,0,-0.012878,0,0,0,0.0078728,0.0016757,0.0028645,-5.7631,0.0041377,0.0056965,8.1176e-09,0.2,0.62,0
0.010727,-0.0024111,0.0077878,0.0016421,0.002829,-0.00059111,0,0,0.051572,-0.012343,0,-0.012295,0,0,0,0.0078441,0.0015858,0.002829,-5.4443,0.0040863,0.0057387,8.1918e-09,0.22,0.62,0
0.01176,-0.0024764,0.0077505,0.0015555,0.0027918,-0.0005578,0,0,0.05157,-0.012857,0,-0.011602,0,0,0,0.0078003,0.0015057,0.0027918,-5.1043,0.0040326,0.0057603,8.1909e-09,0.24,0.62,0
0.01279,-0.00251,0.0077048,0.0014808,0.0027557,-0.00051853,0,0,0.051471,-0.013259,0,-0.010785,0,0,0,0.0077477,0.0014379,0.0027557,-4.7299,0.0039804,0.005765,8.1339e-09,0.26,0.62,0
0.013817,-0.0025097,0.0076235,0.0013973,0.0027062,-0.0004404,0,0,0.051139,-0.013613,0,-0.0091603,0,0,0,0.0076545,0.0013663,0.0027062,-4.026,0.003909,0.0057368,7.9423e-09,0.28,0.62,0
0.014838,-0.0024728,0.0075521,0.0013247,0.0026631,-0.00041281,0,0,0.050847,-0.013919,0,-0.0085864,0,0,0,0.0075794,0.0012974,0.0026631,-3.7761,0.0038466,0.0057227,7.8088e-09,0.3,0.62,0
0.015851,-0.002397,0.0074606,0.0012423,0.0026109,-0.00034599,0,0,0.050437,-0.014233,0,-0.0071967,0,0,0,0.0074798,0.0012231,0.0026109,-3.175,0.0037713,0.0056911,7.6031e-09,0.32,0.62,0
0.016855,-0.00228,0.0073593,0.001147,0.0025519,-0.00026981,0,0,0.049997,-0.014611,0,-0.005612,0,0,0,0.007371,0.0011353,0.0025519,-2.4822,0.0036861,0.0056619,7.3915e-09,0.34,0.62,0
0.017851,-0.0021206,0.0072503,0.0010319,0.0024847,-0.00018581,0,0,0.049563,-0.015109,0,-0.0038648,0,0,0,0.0072559,0.0010263,0.0024847,-1.71,0.003589,0.0056435,7.1949e-09,0.36,0.62,0
0.018838,-0.0019187,0.0071358,0.00089063,0.0024079,-9.6835e-05,0,0,0.04917,-0.01578,0,-0.0020142,0,0,0,0.0071373,0.00088913,0.0024079,-0.88812,0.0034781,0.0056442,7.0297e-09,0.38,0.62,0
0.019818,-0.001676,0.0070178,0.00071827,0.0023208,-6.6603e-06,0,0,0.048849,-0.016667,0,-0.00013853,0,0,0,0.0070179,0.00071826,0.0023208,-0.060576,0.0033523,0.0056708,6.9053e-09,0.4,0.62,0
0.020792,-0.0013965,0.0068996,0.00051197,0.0022235,8.0097e-05,0,0,0.048632,-0.0178,0,0.001666,0,0,0,0.0069006,0.00051096,0.0022235,0.71831,0.0032117,0.0057287,6.8264e-09,0.42,0.62,0
0.021763,-0.0010872,0.0067843,0.00026896,0.002116,0.00015776,0,0,0.048551,-0.019209,0,0.0032813,0,0,0,0.0067882,0.00026514,0.002116,1.3862,0.0030564,0.0058226,6.7921e-09,0.44,0.62,0
0.022734,-0.00075861,0.0066753,-1.0433e-05,0.0019994,0.00021684,0,0,0.048628,-0.020903,0,0.0045103,0,0,0,0.0066823,-1.7459e-05,0.0019994,1.8557,0.0028881,0.0059533,6.7926e-09,0.46,0.62,0
0.023708,-0.00042635,0.0065717,-0.00031785,0.0018762,0.00024583,0,0,0.048834,-0.022818,0,0.0051132,0,0,0,0.0065804,-0.00032661,0.0018762,2.0409,0.00271,0.0061111,6.7951e-09,0.48,0.62,0
0.024687,-0.00011065,0.0064715,-0.00062383,0.0017543,0.00023509,0,0,0.049059,-0.024733,0,0.0048898,0,0,0,0.0064793,-0.00063161,0.0017543,1.8956,0.002534,0.0062683,6.7517e-09,0.5,0.62,0
0.02567,0.00016664,0.0063744,-0.00088419,0.001647,0.00019014,0,0,0.049164,-0.026325,0,0.003955,0,0,0,0.0063793,-0.00088916,0.001647,1.4995,0.0023791,0.0063898,6.6357e-09,0.52,0.62,0
0.026654,0.0003876,0.0062845,-0.0010689,0.0015647,0.00012945,0,0,0.049086,-0.027389,0,0.0026925,0,0,0,0.0062867,-0.0010712,0.0015647,1.0082,0.0022601,0.006457,6.4678e-09,0.54,0.62,0
0.027634,0.00054193,0.0062118,-0.0011809,0.0015093,7.4215e-05,0,0,0.048907,-0.027978,0,0.0015437,0,0,0,0.0062126,-0.0011817,0.0015093,0.5751,0.0021801,0.0064822,6.305e-09,0.56,0.62,0
0.02861,0.00062596,0.0061692,-0.0012442,0.0014775,3.1088e-05,0,0,0.048794,-0.028306,0,0.00064662,0,0,0,0.0061694,-0.0012443,0.0014775,0.24026,0.0021342,0.0064956,6.2072e-09,0.58,0.62,0
0.029586,0.00063877,0.0061668,-0.0012769,0.001467,-8.0922e-06,0,0,0.048878,-0.028536,0,-0.00016832,0,0,0,0.0061668,-0.001277,0.001467,-0.062287,0.0021189,0.0065202,6.214e-09,0.6,0.62,0
0.030565,0.00057907,0.0062044,-0.0012787,0.0014777,-5.8728e-05,0,0,0.049157,-0.028666,0,-0.0012215,0,0,0,0.0062048,-0.0012791,0.0014777,-0.44962,0.0021345,0.0065557,6.3272e-09,0.62,0.62,0
0.031552,0.0004452,0.0062713,-0.0012298,0.0015125,-0.00012908,0,0,0.049492,-0.028519,0,-0.0026848,0,0,0,0.0062735,-0.001232,0.0015125,-0.98557,0.0021846,0.0065776,6.5111e-09,0.64,0.62,0
0.032545,0.00023835,0.0063541,-0.0011039,0.0015751,-0.00021215,0,0,0.049702,-0.027861,0,-0.0044127,0,0,0,0.0063602,-0.0011099,0.0015751,-1.6281,0.0022751,0.0065539,6.7117e-09,0.66,0.62,0
0.03354,-3.3279e-05,0.0064424,-0.00089566,0.001664,-0.00028529,0,0,0.049695,-0.026621,0,-0.005934,0,0,0,0.0064535,-0.00090673,0.001664,-2.2231,0.0024036,0.00647,6.8747e-09,0.68,0.62,0
0.034533,-0.00035318,0.0065318,-0.00063439,0.0017692,-0.00032775,0,0,0.049531,-0.024998,0,-0.0068173,0,0,0,0.0065468,-0.00064935,0.0017692,-2.6132,0.0025556,0.0063427,6.9741e-09,0.7,0.62,0
0.035521,-0.00070013,0.0066231,-0.00036602,0.0018771,-0.00033183,0,0,0.049358,-0.023329,0,-0.0069021,0,0,0,0.0066388,-0.00038174,0.0018771,-2.7122,0.0027114,0.0062074,7.0271e-09,0.72,0.62,0
0.036507,-0.0010539,0.0067191,-0.00012287,0.0019789,-0.00030589,0,0,0.049298,-0.021858,0,-0.0063625,0,0,0,0.0067327,-0.00013652,0.0019789,-2.5548,0.0028584,0.0060935,7.0757e-09,0.74,0.62,0
0.037493,-0.0013986,0.0068215,8.4085e-05,0.0020717,-0.00026114,0,0,0.049398,-0.020671,0,-0.0054317,0,0,0,0.0068316,7.3978e-05,0.0020717,-2.2163,0.0029924,0.006013,7.153e-09,0.76,0.62,0
0.038483,-0.0017231,0.006928,0.0002525,0.0021541,-0.0002072,0,0,0.049648,-0.019777,0,-0.0043097,0,0,0,0.0069344,0.00024608,0.0021541,-1.7761,0.0031115,0.0059676,7.2716e-09,0.78,0.62,0
0.039479,-0.0020202,0.0070358,0.00038353,0.0022258,-0.00015009,0,0,0.050024,-0.01916,0,-0.0031219,0,0,0,0.0070392,0.00038014,0.0022258,-1.2918,0.003215,0.0059547,7.4359e-09,0.8,0.62,0
0.040484,-0.0022856,0.0071422,0.00047864,0.0022863,-9.4841e-05,0,0,0.050502,-0.018799,0,-0.0019727,0,0,0,0.0071436,0.00047729,0.0022863,-0.81526,0.0033024,0.005971,7.6454e-09,0.82,0.62,0
0.041499,-0.0025172,0.0072453,0.00054175,0.0023361,-4.5654e-05,0,0,0.051056,-0.018662,0,-0.0009496,0,0,0,0.0072457,0.00054144,0.0023361,-0.39018,0.0033744,0.0060113,7.8952e-09,0.84,0.62,0
0.042526,-0.0027148,0.007343,0.00057838,0.0023764,-5.7644e-06,0,0,0.051653,-0.0187,0,-0.0001199,0,0,0,0.007343,0.00057837,0.0023764,-0.048824,0.0034326,0.0060688,8.1737e-09,0.86,0.62,0
0.043565,-0.0028796,0.0074331,0.00059495,0.0024084,2.2982e-05,0,0,0.052256,-0.01886,0,0.00047803,0,0,0,0.0074331,0.00059487,0.0024084,0.19256,0.0034788,0.0061359,8.4638e-09,0.88,0.62,0
0.044616,-0.0030136,0.0075131,0.00059783,0.0024333,4.0139e-05,0,0,0.05283,-0.019089,0,0.00083489,0,0,0,0.0075133,0.0005976,0.0024333,0.33255,0.0035147,0.006205,8.7465e-09,0.9,0.62,0
0.045678,-0.0031191,0.0075812,0.00059267,0.0024522,4.6426e-05,0,0,0.053342,-0.019339,0,0.00096567,0,0,0,0.0075815,0.00059236,0.0024522,0.38061,0.003542,0.0062696,9.0036e-09,0.92,0.62,0
0.04675,-0.0031985,0.0076356,0.00058408,0.0024659,4.3385e-05,0,0,0.053765,-0.019571,0,0.00090241,0,0,0,0.0076359,0.00058381,0.0024659,0.3525,0.0035619,0.0063247,9.2195e-09,0.94,0.62,0
0.047829,-0.0032536,0.0076752,0.00057554,0.0024752,3.3063e-05,0,0,0.05408,-0.019757,0,0.00068772,0,0,0,0.0076754,0.00057539,0.0024752,0.26682,0.0035753,0.0063664,9.382e-09,0.96,0.62,0
0.048913,-0.0032861,0.0076993,0.00056949,0.0024806,1.7784e-05,0,0,0.054274,-0.019876,0,0.0003699,0,0,0,0.0076993,0.00056944,0.0024806,0.14291,0.0035831,0.0063923,9.4828e-09,0.98,0.62,0
0.05,-0.0032968,0.0077074,0.00056731,0.0024824,-2.576e-05,0,0,0.05434,-0.019917,0,-0.00053582,0,0,0,0.0077075,0.00056722,0.0024824,-0.20671,0.0035857,0.0064013,9.5175e-09,1,0.62,0
0,0,0.0074182,0.0031792,0.0031792,-0.00088534,0,0,0.044086,2.7105e-19,0,-0.018415,0,0,0,0.0075957,0.0030018,0.0031792,-11.335,0.0045922,0.0045078,4.6801e-09,0,0.64,0
0.00088171,-0.0003683,0.0074026,0.0029936,0.0031188,-0.00088137,0,0,0.044551,-0.0013026,0,-0.018333,0,0,0,0.0075722,0.0028239,0.0031188,-10.896,0.004505,0.0046079,4.9557e-09,0.02,0.64,0
0.001782,-0.0007106,0.0074624,0.0028347,0.0030891,-0.00084891,0,0,0.045482,-0.0026457,0,-0.017657,0,0,0,0.0076132,0.0026839,0.0030891,-10.074,0.0044621,0.0047397,5.3339e-09,0.04,0.64,0
0.002701,-0.0010279,0.0075196,0.0026739,0.0030581,-0.00081952,0,0,0.0464,-0.0039953,0,-0.017046,0,0,0,0.0076545,0.002539,0.0030581,-9.3439,0.0044172,0.0048767,5.7296e-09,0.06,0.64,0
0.003638,-0.0013209,0.0075721,0.0025142,0.0030259,-0.00079177,0,0,0.047281,-0.0053214,0,-0.016469,0,0,0,0.0076932,0.0023932,0.0030259,-8.6923,0.0043708,0.0050136,6.1266e-09,0.08,0.64,0
0.0045922,-0.0015896,0.007618,0.0023586,0.002993,-0.00076448,0,0,0.0481,-0.0065973,0,-0.015901,0,0,0,0.0077268,0.0022498,0.002993,-8.1049,0.0043232,0.0051459,6.509e-09,0.1,0.64,0
0.005562,-0.0018337,0.0076553,0.0022094,0.0029594,-0.00073664,0,0,0.048838,-0.0078003,0,-0.015322,0,0,0,0.0077532,0.0021115,0.0029594,-7.5688,0.0042747,0.0052692,6.8624e-09,0.12,0.64,0
0.0065457,-0.0020526,0.0076827,0.0020684,0.0029254,-0.0007074,0,0,0.049477,-0.0089119,0,-0.014714,0,0,0,0.0077705,0.0019807,0.0029254,-7.072,0.0042255,0.00538,7.1739e-09,0.14,0.64,0
0.0075411,-0.0022455,0.0076989,0.0019371,0.0028908,-0.00067602,0,0,0.050004,-0.0099181,0,-0.014061,0,0,0,0.0077771,0.0018589,0.0028908,-6.603,0.0041756,0.0054757,7.4328e-09,0.16,0.64,0
0.0085459,-0.0024113,0.0076922,0.00181,0.0028506,-0.0006602,0,0,0.050352,-0.010823,0,-0.013732,0,0,0,0.0077653,0.0017368,0.0028506,-6.3258,0.0041176,0.005556,7.629e-09,0.18,0.64,0
0.0095575,-0.0025487,0.0076916,0.0017016,0.002818,-0.00062901,0,0,0.050686,-0.01161,0,-0.013083,0,0,0,0.007757,0.0016363,0.002818,-5.9304,0.0040704,0.0056237,7.7925e-09,0.2,0.64,0
0.010573,-0.0026562,0.0076702,0.0016041,0.0027823,-0.000591,0,0,0.050834,-0.012253,0,-0.012293,0,0,0,0.0077273,0.001547,0.0027823,-5.513,0.0040189,0.0056645,7.8593e-09,0.22,0.64,0
0.011591,-0.0027321,0.0076339,0.0015134,0.0027442,-0.00051196,0,0,0.050853,-0.0128,0,-0.010649,0,0,0,0.0076764,0.0014709,0.0027442,-4.7486,0.0039638,0.005677,7.8267e-09,0.24,0.64,0
0.012608,-0.0027747,0.0075852,0.0014266,0.0027035,-0.00046017,0,0,0.050769,-0.01328,0,-0.0095715,0,0,0,0.0076194,0.0013924,0.0027035,-4.2497,0.0039051,0.0056859,7.7753e-09,0.26,0.64,0
0.013622,-0.0027819,0.0075237,0.0013432,0.0026601,-0.0003992,0,0,0.050582,-0.013695,0,-0.0083034,0,0,0,0.0075494,0.0013176,0.0026601,-3.6804,0.0038423,0.0056808,7.6723e-09,0.28,0.64,0
0.014631,-0.0027521,0.0074514,0.0012585,0.002613,-0.00033057,0,0,0.05032,-0.014087,0,-0.0068759,0,0,0,0.007469,0.0012409,0.002613,-3.0468,0.0037743,0.0056681,7.5371e-09,0.3,0.64,0
0.015634,-0.0026835,0.0073702,0.0011673,0.0025613,-0.00025423,0,0,0.050013,-0.014497,0,-0.0052879,0,0,0,0.0073806,0.0011569,0.0025613,-2.343,0.0036996,0.0056539,7.3874e-09,0.32,0.64,0
0.016631,-0.0025752,0.0072964,0.0010802,0.002513,-0.0002065,0,0,0.049747,-0.014901,0,-0.0042952,0,0,0,0.0073032,0.0010734,0.002513,-1.9006,0.0036299,0.0056494,7.2724e-09,0.34,0.64,0
0.017622,-0.0024267,0.0072089,0.00098716,0.0024588,-0.00014566,0,0,0.049401,-0.015305,0,-0.0030297,0,0,0,0.0072123,0.00098375,0.0024588,-1.3404,0.0035516,0.0056377,7.1226e-09,0.36,0.64,0
0.018607,-0.0022391,0.0070984,0.00081474,0.0023739,1.1484e-06,0,0,0.049134,-0.016216,0,2.3887e-05,0,0,0,0.0070984,0.00081474,0.0023739,0.010472,0.003429,0.0056673,7.0176e-09,0.38,0.64,0
0.019589,-0.0020148,0.0070048,0.00063076,0.0022907,9.9256e-05,0,0,0.049027,-0.017263,0,0.0020645,0,0,0,0.0070064,0.00062922,0.0022907,0.89192,0.0033088,0.00573,6.994e-09,0.4,0.64,0
0.020569,-0.0017587,0.0069174,0.00043143,0.0022046,0.00018324,0,0,0.049012,-0.018441,0,0.0038114,0,0,0,0.0069226,0.00042626,0.0022046,1.617,0.0031845,0.0058148,7.0047e-09,0.42,0.64,0
0.021549,-0.001478,0.0068373,0.0002021,0.0021118,0.00025446,0,0,0.049145,-0.019861,0,0.0052928,0,0,0,0.006847,0.00019236,0.0021118,2.193,0.0030504,0.0059326,7.0615e-09,0.44,0.64,0
0.022534,-0.0011831,0.0067658,-5.39e-05,0.0020136,0.00030473,0,0,0.049423,-0.021502,0,0.0063385,0,0,0,0.0067794,-6.749e-05,0.0020136,2.5535,0.0029085,0.0060796,7.148e-09,0.46,0.64,0
0.023526,-0.00088783,0.0067024,-0.00032516,0.0019131,0.00032545,0,0,0.049808,-0.023279,0,0.0067695,0,0,0,0.0067174,-0.0003402,0.0019131,2.6459,0.0027635,0.0062437,7.2349e-09,0.48,0.64,0
0.024527,-0.00060877,0.0066447,-0.00059026,0.0018163,0.00031202,0,0,0.050215,-0.025028,0,0.0064899,0,0,0,0.0066581,-0.0006037,0.0018163,2.4648,0.0026236,0.0064044,7.2878e-09,0.5,0.64,0
0.025535,-0.00036294,0.0065913,-0.0008225,0.0017307,0.00026731,0,0,0.050551,-0.026553,0,0.0055601,0,0,0,0.006601,-0.00083213,0.0017307,2.0623,0.0024998,0.0065398,7.2877e-09,0.52,0.64,0
0.026549,-0.00016502,0.0065434,-0.0010022,0.0016624,0.00020209,0,0,0.050763,-0.027712,0,0.0042035,0,0,0,0.0065488,-0.0010076,0.0016624,1.5331,0.0024012,0.0066372,7.2428e-09,0.54,0.64,0
0.027565,-2.5346e-05,0.0065051,-0.001125,0.001614,0.00012831,0,0,0.050867,-0.028486,0,0.0026689,0,0,0,0.0065072,-0.0011271,0.001614,0.96316,0.0023314,0.0066986,7.1833e-09,0.56,0.64,0
0.028583,5.0185e-05,0.0064823,-0.0011974,0.0015854,5.2931e-05,0,0,0.050927,-0.028942,0,0.001101,0,0,0,0.0064826,-0.0011978,0.0015854,0.39488,0.0022901,0.0067349,7.1444e-09,0.58,0.64,0
0.029603,5.8658e-05,0.0064792,-0.0012266,0.0015758,-2.4404e-05,0,0,0.050995,-0.029145,0,-0.00050761,0,0,0,0.0064793,-0.0012266,0.0015758,-0.18146,0.0022761,0.0067557,7.1492e-09,0.6,0.64,0
0.030623,-1.1148e-06,0.0064956,-0.0012118,0.0015851,-0.00010702,0,0,0.051069,-0.029088,0,-0.0022259,0,0,0,0.0064971,-0.0012133,0.0015851,-0.79533,0.0022896,0.0067605,7.1994e-09,0.62,0.64,0
0.031645,-0.00012855,0.0065267,-0.0011447,0.0016146,-0.00019505,0,0,0.051086,-0.028697,0,-0.0040571,0,0,0,0.0065316,-0.0011497,0.0016146,-1.4555,0.0023322,0.0067387,7.2751e-09,0.64,0.64,0
0.032667,-0.00031991,0.0065659,-0.0010172,0.0016646,-0.00028095,0,0,0.050973,-0.027891,0,-0.0058438,0,0,0,0.0065763,-0.0010276,0.0016646,-2.1189,0.0024044,0.006678,7.3447e-09,0.66,0.64,0
0.033684,-0.00056671,0.0066088,-0.00083234,0.001733,-0.00035158,0,0,0.050709,-0.026679,0,-0.0073128,0,0,0,0.0066254,-0.00084891,0.001733,-2.6991,0.0025031,0.0065753,7.3792e-09,0.68,0.64,0
0.034695,-0.00085562,0.0066543,-0.00060958,0.0018134,-0.00039461,0,0,0.050345,-0.025199,0,-0.0082079,0,0,0,0.0066756,-0.00063096,0.0018134,-3.1004,0.0026194,0.0064421,7.3676e-09,0.7,0.64,0
0.035698,-0.0011704,0.0067039,-0.00037665,0.0018982,-0.00040564,0,0,0.04998,-0.023658,0,-0.0084373,0,0,0,0.0067271,-0.00039981,0.0018982,-3.2682,0.0027418,0.0063005,7.3237e-09,0.72,0.64,0
0.036694,-0.0014949,0.0067607,-0.00015679,0.0019812,-0.00038822,0,0,0.049707,-0.022235,0,-0.008075,0,0,0,0.0067824,-0.00017851,0.0019812,-3.2022,0.0028617,0.0061713,7.2772e-09,0.74,0.64,0
0.037686,-0.0018154,0.0068259,3.6578e-05,0.0020587,-0.00035047,0,0,0.049578,-0.02103,0,-0.0072898,0,0,0,0.0068439,1.8535e-05,0.0020587,-2.9472,0.0029737,0.0060682,7.256e-09,0.76,0.64,0
0.038677,-0.0021213,0.0068989,0.00019835,0.0021292,-0.00030051,0,0,0.049605,-0.020081,0,-0.0062505,0,0,0,0.0069124,0.0001849,0.0021292,-2.5627,0.0030755,0.0059966,7.2771e-09,0.78,0.64,0
0.03967,-0.0024052,0.0069776,0.00032753,0.0021916,-0.0002451,0,0,0.049775,-0.019386,0,-0.0050982,0,0,0,0.0069866,0.0003185,0.0021916,-2.108,0.0031656,0.0059567,7.347e-09,0.8,0.64,0
0.040668,-0.0026623,0.0070593,0.00042556,0.0022455,-0.00018948,0,0,0.050064,-0.018927,0,-0.0039413,0,0,0,0.0070647,0.00042016,0.0022455,-1.6348,0.0032434,0.0059459,7.4653e-09,0.82,0.64,0
0.041673,-0.0028899,0.0071413,0.00049544,0.002291,-0.00013772,0,0,0.050443,-0.018674,0,-0.0028646,0,0,0,0.0071441,0.00049259,0.002291,-1.1866,0.0033092,0.0059594,7.6259e-09,0.84,0.64,0
0.042686,-0.0030869,0.0072209,0.00054145,0.0023287,-9.2767e-05,0,0,0.050879,-0.018587,0,-0.0019296,0,0,0,0.0072222,0.00054016,0.0023287,-0.79554,0.0033637,0.0059914,7.8182e-09,0.86,0.64,0
0.043708,-0.0032536,0.0072957,0.00056858,0.0023593,-5.6425e-05,0,0,0.051339,-0.018623,0,-0.0011736,0,0,0,0.0072962,0.00056811,0.0023593,-0.48053,0.0034079,0.0060352,8.0279e-09,0.88,0.64,0
0.04474,-0.003391,0.0073632,0.00058193,0.0023835,-2.9357e-05,0,0,0.051789,-0.018737,0,-0.00061063,0,0,0,0.0073634,0.0005818,0.0023835,-0.24803,0.0034429,0.0060842,8.239e-09,0.9,0.64,0
0.04578,-0.0035005,0.0074214,0.00058619,0.0024023,-1.1245e-05,0,0,0.052199,-0.018887,0,-0.0002339,0,0,0,0.0074214,0.00058617,0.0024023,-0.094265,0.0034699,0.0061323,8.4356e-09,0.92,0.64,0
0.046828,-0.0035836,0.0074683,0.00058535,0.0024161,-1.0116e-06,0,0,0.052543,-0.01904,0,-2.1041e-05,0,0,0,0.0074683,0.00058535,0.0024161,-0.0084206,0.0034899,0.0061746,8.6036e-09,0.94,0.64,0
0.047881,-0.0036419,0.0075028,0.00058254,0.0024256,2.9504e-06,0,0,0.052803,-0.019168,0,6.1368e-05,0,0,0,0.0075028,0.00058254,0.0024256,0.024428,0.0035036,0.0062074,8.7319e-09,0.96,0.64,0
0.04894,-0.0036764,0.0075238,0.00057998,0.0024311,2.5791e-06,0,0,0.052964,-0.019252,0,5.3645e-05,0,0,0,0.0075238,0.00057998,0.0024311,0.021281,0.0035116,0.0062281,8.8121e-09,0.98,0.64,0
0.05,-0.0036878,0.0075309,0.00057898,0.002433,-2.7445e-05,0,0,0.053018,-0.019281,0,-0.00057086,0,0,0,0.007531,0.00057887,0.002433,-0.22619,0.0035143,0.0062354,8.84e-09,1,0.64,0
0,0,0.007326,0.0031397,0.0031397,-0.00094682,0,0,0.043538,1.6263e-19,0,-0.019694,0,0,0,0.0075302,0.0029356,0.0031397,-12.169,0.0045352,0.0044961,4.6355e-09,0,0.66,0
0.00087075,-0.00039388,0.0073111,0.0029594,0.0030811,-0.00094196,0,0,0.043991,-0.001266,0,-0.019593,0,0,0,0.0075062,0.0027643,0.0030811,-11.704,0.0044505,0.0045917,4.8924e-09,0.02,0.66,0
0.0017596,-0.00076269,0.0073693,0.0028031,0.0030517,-0.00090815,0,0,0.044902,-0.0025852,0,-0.01889,0,0,0,0.0075432,0.0026291,0.0030517,-10.846,0.004408,0.004717,5.2449e-09,0.04,0.66,0
0.0026669,-0.0011068,0.0074251,0.0026434,0.0030206,-0.00087511,0,0,0.045808,-0.0039222,0,-0.018202,0,0,0,0.0075803,0.0024883,0.0030206,-10.052,0.0043631,0.0048478,5.6142e-09,0.06,0.66,0
0.003592,-0.0014262,0.0074765,0.0024837,0.0029881,-0.00084161,0,0,0.046679,-0.005245,0,-0.017506,0,0,0,0.0076145,0.0023457,0.0029881,-9.3154,0.0043161,0.0049788,5.9845e-09,0.08,0.66,0
0.004534,-0.0017203,0.0075212,0.0023271,0.0029545,-0.00080666,0,0,0.047494,-0.006525,0,-0.016778,0,0,0,0.0076436,0.0022047,0.0029545,-8.6275,0.0042676,0.0051055,6.3408e-09,0.1,0.66,0
0.0054917,-0.0019885,0.0075576,0.0021761,0.0029201,-0.00076949,0,0,0.04823,-0.0077378,0,-0.016005,0,0,0,0.0076654,0.0020682,0.0029201,-7.9797,0.0042179,0.0052236,6.669e-09,0.12,0.66,0
0.0064632,-0.0022297,0.0075841,0.0020327,0.0028851,-0.00072953,0,0,0.04887,-0.0088639,0,-0.015174,0,0,0,0.0076783,0.0019385,0.0028851,-7.363,0.0041673,0.00533,6.9573e-09,0.14,0.66,0
0.0074465,-0.0024429,0.0075995,0.0018985,0.0028494,-0.00068632,0,0,0.049401,-0.0098892,0,-0.014275,0,0,0,0.007681,0.0018171,0.0028494,-6.7688,0.0041158,0.005422,7.1962e-09,0.16,0.66,0
0.0084393,-0.0026268,0.0075923,0.001768,0.0028081,-0.00064446,0,0,0.049756,-0.010817,0,-0.013405,0,0,0,0.0076628,0.0016976,0.0028081,-6.2392,0.0040562,0.0054948,7.3611e-09,0.18,0.66,0
0.0094391,-0.00278,0.0075905,0.0016512,0.0027725,-0.00056291,0,0,0.050107,-0.011662,0,-0.011708,0,0,0,0.0076434,0.0015983,0.0027725,-5.3666,0.0040048,0.0055519,7.4811e-09,0.2,0.66,0
0.010444,-0.002901,0.0075677,0.0015426,0.0027331,-0.00050356,0,0,0.05028,-0.012382,0,-0.010474,0,0,0,0.0076095,0.0015008,0.0027331,-4.7447,0.0039478,0.0055953,7.5467e-09,0.22,0.66,0
0.01145,-0.0029886,0.0075372,0.0014515,0.0026966,-0.00044748,0,0,0.050342,-0.012949,0,-0.0093076,0,0,0,0.0075699,0.0014188,0.0026966,-4.183,0.0038951,0.0056222,7.562e-09,0.24,0.66,0
0.012457,-0.0030412,0.0074943,0.0013644,0.0026576,-0.00040679,0,0,0.050302,-0.013449,0,-0.0084613,0,0,0,0.0075212,0.0013375,0.0026576,-3.7802,0.0038388,0.0056407,7.5433e-09,0.26,0.66,0
0.013462,-0.0030575,0.0074392,0.0012744,0.0026141,-0.00033509,0,0,0.050181,-0.013933,0,-0.0069699,0,0,0,0.0074574,0.0012562,0.0026141,-3.1021,0.0037759,0.0056461,7.4725e-09,0.28,0.66,0
0.014464,-0.0030363,0.0073756,0.0011827,0.0025675,-0.00025749,0,0,0.050004,-0.014401,0,-0.0053558,0,0,0,0.0073862,0.0011721,0.0025675,-2.3769,0.0037086,0.0056473,7.3807e-09,0.3,0.66,0
0.015463,-0.0029769,0.0073054,0.0010852,0.0025172,-0.00017438,0,0,0.049798,-0.014893,0,-0.0036271,0,0,0,0.0073103,0.0010803,0.0025172,-1.6046,0.003636,0.0056503,7.2841e-09,0.32,0.66,0
0.016456,-0.0028789,0.0072304,0.00096473,0.0024585,-8.427e-05,0,0,0.049628,-0.015536,0,-0.0017528,0,0,0,0.0072316,0.00096359,0.0024585,-0.77041,0.0035512,0.0056703,7.2152e-09,0.34,0.66,0
0.017446,-0.0027431,0.0071348,0.00080462,0.0023818,5.9612e-05,0,0,0.049431,-0.016403,0,0.0012399,0,0,0,0.0071354,0.00080406,0.0023818,0.5395,0.0034404,0.0057084,7.1499e-09,0.36,0.66,0
0.018434,-0.0025712,0.0070728,0.00069264,0.0023296,0.00012615,0,0,0.049329,-0.017025,0,0.0026238,0,0,0,0.0070753,0.00069015,0.0023296,1.1322,0.003365,0.0057437,7.1248e-09,0.38,0.66,0
0.01942,-0.0023665,0.0070119,0.0005455,0.0022672,0.00017945,0,0,0.049345,-0.017906,0,0.0037325,0,0,0,0.0070169,0.00054052,0.0022672,1.5883,0.0032749,0.0058088,7.1489e-09,0.4,0.66,0
0.020407,-0.0021342,0.006949,0.00035608,0.0021915,0.00025648,0,0,0.049478,-0.019089,0,0.0053349,0,0,0,0.006959,0.00034612,0.0021915,2.2245,0.0031655,0.0059103,7.223e-09,0.42,0.66,0
0.021399,-0.0018816,0.0068948,0.00014348,0.0021115,0.00031849,0,0,0.049746,-0.020467,0,0.0066247,0,0,0,0.0069098,0.00012849,0.0021115,2.695,0.0030499,0.0060391,7.3372e-09,0.44,0.66,0
0.022397,-0.0016187,0.0068498,-8.7407e-05,0.0020287,0.00035876,0,0,0.050139,-0.022008,0,0.0074623,0,0,0,0.0068683,-0.00010591,0.0020287,2.9526,0.0029304,0.0061894,7.4749e-09,0.46,0.66,0
0.023405,-0.0013575,0.006813,-0.00032622,0.001946,0.00037143,0,0,0.050616,-0.023631,0,0.0077258,0,0,0,0.0068322,-0.00034549,0.001946,2.9703,0.0028109,0.00635,7.6118e-09,0.48,0.66,0
0.024422,-0.0011118,0.0067823,-0.00055714,0.0018675,0.00035362,0,0,0.051113,-0.025217,0,0.0073553,0,0,0,0.0067993,-0.00057414,0.0018675,2.7521,0.0026975,0.0065058,7.7229e-09,0.5,0.66,0
0.025449,-0.00089547,0.0067557,-0.00076238,0.001798,0.00030731,0,0,0.05156,-0.026628,0,0.006392,0,0,0,0.0067682,-0.00077492,0.001798,2.3368,0.0025971,0.0066416,7.7931e-09,0.52,0.66,0
0.026484,-0.00072087,0.0067326,-0.00092775,0.0017415,0.00023881,0,0,0.051908,-0.02776,0,0.0049673,0,0,0,0.0067401,-0.00093518,0.0017415,1.7839,0.0025155,0.0067476,7.8231e-09,0.54,0.66,0
0.027525,-0.0005975,0.0067141,-0.0010465,0.0017003,0.00015606,0,0,0.052144,-0.028566,0,0.003246,0,0,0,0.0067173,-0.0010496,0.0017003,1.1515,0.002456,0.0068212,7.8271e-09,0.56,0.66,0
0.02857,-0.00053172,0.0067022,-0.001118,0.0016752,6.5296e-05,0,0,0.05228,-0.02905,0,0.0013582,0,0,0,0.0067027,-0.0011186,0.0016752,0.47835,0.0024198,0.0068649,7.8234e-09,0.58,0.66,0
0.029617,-0.00052701,0.0066983,-0.0011437,0.0016664,-2.9947e-05,0,0,0.052332,-0.029225,0,-0.0006229,0,0,0,0.0066984,-0.0011438,0.0016664,-0.2188,0.002407,0.0068818,7.8248e-09,0.6,0.66,0
0.030663,-0.00058446,0.0067022,-0.0011229,0.0016738,-0.00012743,0,0,0.052295,-0.029085,0,-0.0026505,0,0,0,0.0067042,-0.001125,0.0016738,-0.9327,0.0024177,0.0068715,7.8327e-09,0.62,0.66,0
0.031708,-0.00070268,0.0067117,-0.0010532,0.0016976,-0.00022335,0,0,0.052147,-0.028608,0,-0.0046456,0,0,0,0.0067182,-0.0010596,0.0016976,-1.6462,0.002452,0.0068302,7.837e-09,0.64,0.66,0
0.032749,-0.00087728,0.0067245,-0.00093417,0.0017371,-0.00031086,0,0,0.051869,-0.027781,0,-0.0064658,0,0,0,0.0067371,-0.00094677,0.0017371,-2.3205,0.0025092,0.0067545,7.8217e-09,0.66,0.66,0
0.033783,-0.0011004,0.0067392,-0.00077184,0.0017902,-0.00038109,0,0,0.05147,-0.026645,0,-0.0079267,0,0,0,0.0067585,-0.00079113,0.0017902,-2.8971,0.0025859,0.0066462,7.7735e-09,0.68,0.66,0
0.034808,-0.0013611,0.0067563,-0.00058033,0.0018528,-0.0004266,0,0,0.050997,-0.025305,0,-0.0088733,0,0,0,0.006781,-0.00060506,0.0018528,-3.3167,0.0026762,0.0065147,7.6902e-09,0.7,0.66,0
0.035823,-0.0016465,0.006778,-0.00037817,0.0019199,-0.0004443,0,0,0.050524,-0.023901,0,-0.0092415,0,0,0,0.0068055,-0.00040565,0.0019199,-3.5392,0.0027733,0.0063749,7.5839e-09,0.72,0.66,0
0.036829,-0.0019433,0.0068068,-0.00018244,0.0019873,-0.00043623,0,0,0.050123,-0.022565,0,-0.0090737,0,0,0,0.006834,-0.00020956,0.0019873,-3.5577,0.0028706,0.0062421,7.4762e-09,0.74,0.66,0
0.037828,-0.0022398,0.0068444,-5.0207e-06,0.0020518,-0.00040776,0,0,0.049843,-0.021391,0,-0.0084813,0,0,0,0.0068686,-2.921e-05,0.0020518,-3.3949,0.0029637,0.0061283,7.3896e-09,0.76,0.66,0
0.038823,-0.0025263,0.0068908,0.00014767,0.0021115,-0.0003654,0,0,0.049704,-0.020424,0,-0.0076003,0,0,0,0.0069105,0.00012792,0.0021115,-3.0927,0.00305,0.0060402,7.3403e-09,0.78,0.66,0
0.039816,-0.0027957,0.0069446,0.00027332,0.0021654,-0.00031524,0,0,0.049704,-0.019677,0,-0.0065569,0,0,0,0.0069595,0.00025845,0.0021654,-2.6994,0.0031278,0.0059801,7.3363e-09,0.8,0.66,0
0.040811,-0.0030427,0.0070037,0.00037225,0.0022128,-0.00026237,0,0,0.049826,-0.019142,0,-0.0054573,0,0,0,0.0070141,0.00036188,0.0022128,-2.2622,0.0031962,0.0059468,7.3788e-09,0.82,0.66,0
0.041809,-0.0032641,0.0070656,0.00044651,0.0022536,-0.00021077,0,0,0.050044,-0.018794,0,-0.0043841,0,0,0,0.0070723,0.00043981,0.0022536,-1.822,0.0032552,0.0059371,7.4633e-09,0.84,0.66,0
0.042813,-0.0034582,0.0071276,0.00049932,0.0022881,-0.00016336,0,0,0.050331,-0.018603,0,-0.0033979,0,0,0,0.0071316,0.0004953,0.0022881,-1.411,0.003305,0.0059462,7.5808e-09,0.86,0.66,0
0.043822,-0.0036245,0.0071871,0.00053454,0.0023165,-0.000122,0,0,0.050655,-0.018532,0,-0.0025376,0,0,0,0.0071894,0.0005323,0.0023165,-1.0503,0.0033461,0.0059685,7.7197e-09,0.88,0.66,0
0.044839,-0.003763,0.0072419,0.00055621,0.0023394,-8.7583e-05,0,0,0.050986,-0.018545,0,-0.0018217,0,0,0,0.007243,0.00055506,0.0023394,-0.75041,0.0033792,0.0059983,7.8666e-09,0.9,0.66,0
0.045862,-0.0038746,0.0072897,0.0005682,0.0023574,-6.0136e-05,0,0,0.051296,-0.018607,0,-0.0012508,0,0,0,0.0072902,0.00056766,0.0023574,-0.51257,0.0034051,0.0060303,8.0081e-09,0.92,0.66,0
0.046891,-0.0039601,0.0073287,0.00057387,0.0023708,-3.8997e-05,0,0,0.051562,-0.018688,0,-0.00081114,0,0,0,0.0073289,0.00057365,0.0023708,-0.33076,0.0034244,0.00606,8.1319e-09,0.94,0.66,0
0.047924,-0.0040204,0.0073575,0.00057596,0.00238,-2.2985e-05,0,0,0.051766,-0.018763,0,-0.0004781,0,0,0,0.0073576,0.00057588,0.00238,-0.1942,0.0034379,0.0060837,8.2279e-09,0.96,0.66,0
0.048961,-0.0040562,0.0073752,0.00057641,0.0023855,-1.0569e-05,0,0,0.051893,-0.018815,0,-0.00021983,0,0,0,0.0073753,0.0005764,0.0023855,-0.089067,0.0034457,0.006099,8.2885e-09,0.98,0.66,0
0.05,-0.0040681,0.0073812,0.00057643,0.0023873,-2.8582e-05,0,0,0.051937,-0.018833,0,-0.0005945,0,0,0,0.0073813,0.00057631,0.0023873,-0.24065,0.0034483,0.0061044,8.3099e-09,1,0.66,0
0,0,0.0072414,0.0031035,0.0031035,-0.0010071,0,0,0.043035,-2.7105e-19,0,-0.020947,0,0,0,0.0074735,0.0028714,0.0031035,-12.977,0.0044828,0.0044906,4.6089e-09,0,0.68,0
0.00086069,-0.00041894,0.0072268,0.0029252,0.0030456,-0.0010014,0,0,0.043485,-0.001252,0,-0.020829,0,0,0,0.0074485,0.0027035,0.0030456,-12.483,0.0043992,0.0045835,4.8528e-09,0.02,0.68,0
0.0017394,-0.00081401,0.0072845,0.0027691,0.0030161,-0.00096651,0,0,0.044392,-0.0025685,0,-0.020103,0,0,0,0.0074827,0.0025709,0.0030161,-11.588,0.0043566,0.004705,5.1882e-09,0.04,0.68,0
0.0026363,-0.0011848,0.0073401,0.0026083,0.0029845,-0.00093001,0,0,0.045298,-0.0039128,0,-0.019344,0,0,0,0.0075163,0.002432,0.0029845,-10.73,0.004311,0.0048318,5.539e-09,0.06,0.68,0
0.0035513,-0.0015307,0.0073913,0.0024465,0.0029513,-0.00089086,0,0,0.046176,-0.0052506,0,-0.01853,0,0,0,0.0075469,0.0022909,0.0029513,-9.9076,0.004263,0.0049589,5.8901e-09,0.08,0.68,0
0.0044834,-0.0018506,0.007436,0.002287,0.0029169,-0.00084829,0,0,0.046999,-0.0065511,0,-0.017644,0,0,0,0.0075721,0.0021508,0.0029169,-9.1184,0.0042133,0.0050818,6.2269e-09,0.1,0.68,0
0.0054312,-0.0021432,0.0074724,0.0021327,0.0028815,-0.00080183,0,0,0.047745,-0.0077881,0,-0.016678,0,0,0,0.0075902,0.0020148,0.0028815,-8.3583,0.0041622,0.0051965,6.5364e-09,0.12,0.68,0
0.0063932,-0.0024071,0.007499,0.0019857,0.0028454,-0.00075125,0,0,0.048397,-0.0089406,0,-0.015626,0,0,0,0.0075995,0.0018852,0.0028454,-7.6222,0.00411,0.0052999,6.8074e-09,0.14,0.68,0
0.0073671,-0.0026411,0.0075147,0.0018477,0.0028087,-0.00069646,0,0,0.048942,-0.0099944,0,-0.014486,0,0,0,0.0075991,0.0017634,0.0028087,-6.9047,0.0040571,0.0053896,7.0318e-09,0.16,0.68,0
0.0083509,-0.0028435,0.0075189,0.0017194,0.0027715,-0.00063745,0,0,0.049373,-0.010942,0,-0.013259,0,0,0,0.0075882,0.0016502,0.0027715,-6.1991,0.0040033,0.0054643,7.2046e-09,0.18,0.68,0
0.0093421,-0.0030132,0.0075114,0.0016008,0.0027337,-0.00057422,0,0,0.049688,-0.011782,0,-0.011944,0,0,0,0.0075667,0.0015456,0.0027337,-5.4978,0.0039486,0.0055237,7.3243e-09,0.2,0.68,0
0.010338,-0.0031487,0.0074923,0.0014911,0.002695,-0.00050674,0,0,0.049892,-0.012521,0,-0.01054,0,0,0,0.0075348,0.0014486,0.002695,-4.7928,0.0038928,0.0055686,7.3928e-09,0.22,0.68,0
0.011338,-0.0032488,0.0074622,0.0013888,0.0026553,-0.00043494,0,0,0.049992,-0.013172,0,-0.0090468,0,0,0,0.0074932,0.0013578,0.0026553,-4.0754,0.0038354,0.0056006,7.4157e-09,0.24,0.68,0
0.012338,-0.0033126,0.0074223,0.0012915,0.0026141,-0.0003588,0,0,0.050005,-0.013755,0,-0.0074631,0,0,0,0.0074432,0.0012706,0.0026141,-3.338,0.003776,0.0056226,7.4016e-09,0.26,0.68,0
0.013338,-0.0033392,0.0073739,0.0011964,0.0025711,-0.0002784,0,0,0.04995,-0.014297,0,-0.0057907,0,0,0,0.0073865,0.0011839,0.0025711,-2.5751,0.0037138,0.0056384,7.3618e-09,0.28,0.68,0
0.014336,-0.0033281,0.007319,0.0011,0.0025257,-0.00019406,0,0,0.04985,-0.014827,0,-0.0040365,0,0,0,0.0073251,0.001094,0.0025257,-1.7856,0.0036483,0.0056529,7.3097e-09,0.3,0.68,0
0.015332,-0.0032792,0.0072597,0.0009985,0.0024774,-0.00010653,0,0,0.049735,-0.015381,0,-0.0022158,0,0,0,0.0072615,0.00099669,0.0024774,-0.97448,0.0035785,0.0056713,7.2595e-09,0.32,0.68,0
0.016325,-0.0031931,0.0071984,0.00088781,0.0024258,-1.7105e-05,0,0,0.049634,-0.015996,0,-0.00035579,0,0,0,0.0071984,0.00088776,0.0024258,-0.1553,0.003504,0.0056994,7.2254e-09,0.34,0.68,0
0.017317,-0.0030712,0.0071377,0.00076417,0.0023705,7.221e-05,0,0,0.049578,-0.016706,0,0.001502,0,0,0,0.0071385,0.00076335,0.0023705,0.64903,0.0034241,0.0057428,7.2197e-09,0.36,0.68,0
0.018309,-0.0029159,0.0070802,0.00062435,0.0023114,0.0001586,0,0,0.049596,-0.017545,0,0.0032989,0,0,0,0.0070841,0.00062045,0.0023114,1.4064,0.0033386,0.0058059,7.2515e-09,0.38,0.68,0
0.019301,-0.0027311,0.0070284,0.00046616,0.0022484,0.00023838,0,0,0.049712,-0.018535,0,0.0049582,0,0,0,0.007037,0.00045751,0.0022484,2.0777,0.0032476,0.0058919,7.3255e-09,0.4,0.68,0
0.020297,-0.0025223,0.0069842,0.00028903,0.002182,0.00030701,0,0,0.049943,-0.019686,0,0.0063858,0,0,0,0.0069982,0.00027498,0.002182,2.62,0.0031517,0.0060015,7.4403e-09,0.42,0.68,0
0.021299,-0.0022967,0.0069487,9.4786e-05,0.002113,0.00035935,0,0,0.050291,-0.02099,0,0.0074744,0,0,0,0.0069675,7.5997e-05,0.002113,2.993,0.0030522,0.0061322,7.5877e-09,0.44,0.68,0
0.022309,-0.0020634,0.0069219,-0.00011153,0.0020431,0.00039021,0,0,0.05074,-0.022408,0,0.0081163,0,0,0,0.0069435,-0.00013311,0.0020431,3.1657,0.0029512,0.0062781,7.7527e-09,0.46,0.68,0
0.023328,-0.0018331,0.0069027,-0.00032115,0.0019744,0.00039546,0,0,0.051253,-0.023874,0,0.0082255,0,0,0,0.0069242,-0.00034274,0.0019744,3.1241,0.002852,0.0064296,7.9158e-09,0.48,0.68,0
0.024359,-0.0016174,0.0068889,-0.00052224,0.00191,0.0003733,0,0,0.05178,-0.025295,0,0.0077647,0,0,0,0.0069076,-0.000541,0.00191,2.8763,0.0027589,0.0065752,8.0578e-09,0.5,0.68,0
0.0254,-0.001428,0.0068784,-0.00070197,0.0018529,0.0003251,0,0,0.052264,-0.026571,0,0.0067621,0,0,0,0.0068923,-0.00071589,0.0018529,2.4513,0.0026764,0.0067037,8.1661e-09,0.52,0.68,0
0.026449,-0.0012754,0.0068696,-0.00084947,0.0018061,0.0002551,0,0,0.052661,-0.027617,0,0.0053061,0,0,0,0.0068781,-0.00085789,0.0018061,1.8908,0.0026087,0.0068069,8.2371e-09,0.54,0.68,0
0.027506,-0.001168,0.0068622,-0.00095776,0.0017713,0.00016907,0,0,0.052945,-0.028382,0,0.0035167,0,0,0,0.0068658,-0.00096142,0.0017713,1.238,0.0025586,0.0068807,8.2758e-09,0.56,0.68,0
0.028567,-0.0011118,0.006856,-0.0010237,0.0017497,7.2731e-05,0,0,0.053105,-0.028843,0,0.0015128,0,0,0,0.0068566,-0.0010243,0.0017497,0.5288,0.0025273,0.0069241,8.2906e-09,0.58,0.68,0
0.02963,-0.0011103,0.0068512,-0.001046,0.0017416,-2.8983e-05,0,0,0.053141,-0.028991,0,-0.00060284,0,0,0,0.0068513,-0.0010462,0.0017416,-0.21027,0.0025156,0.0069373,8.2879e-09,0.6,0.68,0
0.030693,-0.0011645,0.0068477,-0.0010245,0.001747,-0.00013148,0,0,0.053048,-0.028823,0,-0.0027348,0,0,0,0.0068499,-0.0010267,0.001747,-0.9566,0.0025234,0.0069201,8.2688e-09,0.62,0.68,0
0.031752,-0.0012729,0.0068448,-0.00095923,0.0017657,-0.00022958,0,0,0.052823,-0.028339,0,-0.0047752,0,0,0,0.0068515,-0.00096598,0.0017657,-1.6836,0.0025504,0.0068717,8.2292e-09,0.64,0.68,0
0.032806,-0.0014312,0.0068418,-0.00085274,0.0017967,-0.00031704,0,0,0.052469,-0.027554,0,-0.0065945,0,0,0,0.0068548,-0.00086578,0.0017967,-2.3555,0.0025952,0.0067927,8.1625e-09,0.66,0.68,0
0.033851,-0.0016325,0.0068391,-0.00071158,0.0018382,-0.00038738,0,0,0.052008,-0.026518,0,-0.0080576,0,0,0,0.0068589,-0.0007314,0.0018382,-2.9293,0.0026552,0.0066866,8.0644e-09,0.68,0.68,0
0.034886,-0.0018678,0.0068381,-0.00054668,0.0018874,-0.0004355,0,0,0.051487,-0.025315,0,-0.0090585,0,0,0,0.0068637,-0.00057228,0.0018874,-3.3634,0.0027263,0.0065615,7.9377e-09,0.7,0.68,0
0.03591,-0.0021264,0.0068411,-0.00037141,0.0019409,-0.00045922,0,0,0.050962,-0.024048,0,-0.0095518,0,0,0,0.0068702,-0.00040053,0.0019409,-3.6285,0.0028035,0.0064282,7.7932e-09,0.72,0.68,0
0.036925,-0.0023975,0.0068504,-0.00019856,0.0019956,-0.00045967,0,0,0.050491,-0.022819,0,-0.0095612,0,0,0,0.0068803,-0.00022841,0.0019956,-3.7154,0.0028825,0.0062984,7.6479e-09,0.74,0.68,0
0.03793,-0.002671,0.0068677,-3.8102e-05,0.0020489,-0.00044055,0,0,0.050116,-0.021705,0,-0.0091634,0,0,0,0.0068957,-6.6093e-05,0.0020489,-3.6355,0.0029595,0.0061819,7.5195e-09,0.76,0.68,0
0.038929,-0.0029383,0.0068935,0.00010364,0.0020992,-0.0004068,0,0,0.049862,-0.020753,0,-0.0084614,0,0,0,0.0069178,7.935e-05,0.0020992,-3.4165,0.0030321,0.0060854,7.422e-09,0.78,0.68,0
0.039925,-0.0031923,0.0069271,0.00022357,0.0021452,-0.00036353,0,0,0.049732,-0.019985,0,-0.0075614,0,0,0,0.0069468,0.00020391,0.0021452,-3.095,0.0030986,0.0060121,7.3639e-09,0.8,0.68,0
0.040918,-0.003428,0.006967,0.00032107,0.0021864,-0.00031531,0,0,0.049718,-0.0194,0,-0.0065585,0,0,0,0.0069819,0.00030615,0.0021864,-2.7103,0.0031582,0.0059623,7.3477e-09,0.82,0.68,0
0.041913,-0.0036416,0.007011,0.00039725,0.0022225,-0.0002659,0,0,0.0498,-0.018982,0,-0.0055308,0,0,0,0.0070216,0.00038657,0.0022225,-2.2986,0.0032102,0.0059341,7.3708e-09,0.84,0.68,0
0.04291,-0.003831,0.0070568,0.00045432,0.0022533,-0.00021815,0,0,0.049956,-0.01871,0,-0.0045374,0,0,0,0.007064,0.00044712,0.0022533,-1.8903,0.0032548,0.005924,7.4266e-09,0.86,0.68,0
0.043911,-0.0039949,0.0071021,0.00049521,0.0022792,-0.00017398,0,0,0.050159,-0.018554,0,-0.0036189,0,0,0,0.0071067,0.00049063,0.0022792,-1.5074,0.0032922,0.0059277,7.5058e-09,0.88,0.68,0
0.044917,-0.0041328,0.0071447,0.00052308,0.0023003,-0.0001345,0,0,0.050381,-0.018483,0,-0.0027977,0,0,0,0.0071474,0.00052034,0.0023003,-1.1632,0.0033227,0.0059406,7.5978e-09,0.9,0.68,0
0.045927,-0.0042448,0.0071824,0.00054104,0.002317,-0.00010004,0,0,0.0506,-0.01847,0,-0.0020809,0,0,0,0.0071839,0.00053953,0.002317,-0.86283,0.0033468,0.0059579,7.6913e-09,0.92,0.68,0
0.046941,-0.0043311,0.0072136,0.00055189,0.0023296,-7.0306e-05,0,0,0.050793,-0.018489,0,-0.0014624,0,0,0,0.0072143,0.00055115,0.0023296,-0.6046,0.003365,0.0059758,7.776e-09,0.94,0.68,0
0.047958,-0.0043924,0.0072369,0.00055793,0.0023384,-4.451e-05,0,0,0.050944,-0.018517,0,-0.00092582,0,0,0,0.0072372,0.00055764,0.0023384,-0.38181,0.0033777,0.005991,7.8431e-09,0.96,0.68,0
0.048979,-0.004429,0.0072512,0.00056086,0.0023436,-2.1526e-05,0,0,0.051039,-0.018541,0,-0.00044773,0,0,0,0.0072513,0.0005608,0.0023436,-0.18434,0.0033852,0.0060011,7.8862e-09,0.98,0.68,0
0.05,-0.0044411,0.0072561,0.00056173,0.0023453,-2.9222e-05,0,0,0.051072,-0.01855,0,-0.00060782,0,0,0,0.0072562,0.0005616,0.0023453,-0.2501,0.0033877,0.0060048,7.9016e-09,1,0.68,0
0,0,0.0071651,0.0030707,0.0030707,-0.0010672,0,0,0.042581,3.7947e-19,0,-0.022198,0,0,0,0.0074265,0.0028093,0.0030707,-13.767,0.0044355,0.0044922,4.6028e-09,0,0.7,0
0.00085162,-0.00044396,0.0071506,0.0028914,0.0030126,-0.0010607,0,0,0.043035,-0.0012607,0,-0.022063,0,0,0,0.0074001,0.0026418,0.0030126,-13.238,0.0043515,0.0045842,4.8388e-09,0.02,0.7,0
0.0017214,-0.00086543,0.0072088,0.0027329,0.0029825,-0.0010251,0,0,0.043954,-0.0025963,0,-0.021321,0,0,0,0.0074324,0.0025093,0.0029825,-12.305,0.0043081,0.0047044,5.1653e-09,0.04,0.7,0
0.0026098,-0.0012633,0.0072652,0.0025685,0.0029501,-0.00098527,0,0,0.044877,-0.0039684,0,-0.020494,0,0,0,0.0074635,0.0023702,0.0029501,-11.381,0.0042613,0.0048295,5.5052e-09,0.06,0.7,0
0.0035165,-0.0016362,0.0073172,0.0024024,0.0029159,-0.00094052,0,0,0.045774,-0.00534,0,-0.019563,0,0,0,0.007491,0.0022286,0.0029159,-10.472,0.0042118,0.0049547,5.8437e-09,0.08,0.7,0
0.0044407,-0.0019823,0.0073627,0.0022382,0.0028803,-0.00089031,0,0,0.046617,-0.0066774,0,-0.018518,0,0,0,0.007513,0.002088,0.0028803,-9.5804,0.0041604,0.0050755,6.1671e-09,0.1,0.7,0
0.0053812,-0.0023,0.0073999,0.0020791,0.0028437,-0.00083453,0,0,0.047385,-0.0079518,0,-0.017358,0,0,0,0.0075277,0.0019513,0.0028437,-8.708,0.0041076,0.0051881,6.4627e-09,0.12,0.7,0
0.0063361,-0.0025873,0.0074273,0.0019275,0.0028064,-0.00077337,0,0,0.048057,-0.009141,0,-0.016086,0,0,0,0.007534,0.0018208,0.0028064,-7.8539,0.0040538,0.0052897,6.7207e-09,0.14,0.7,0
0.0073035,-0.0028427,0.0074439,0.0017851,0.0027687,-0.00070719,0,0,0.048622,-0.01023,0,-0.01471,0,0,0,0.007531,0.001698,0.0027687,-7.0165,0.0039992,0.0053781,6.9342e-09,0.16,0.7,0
0.008281,-0.0030644,0.0074493,0.0016526,0.0027306,-0.00063646,0,0,0.049075,-0.011211,0,-0.013238,0,0,0,0.0075184,0.0015835,0.0027306,-6.1925,0.0039442,0.0054526,7.0997e-09,0.18,0.7,0
0.0092665,-0.0032512,0.0074435,0.00153,0.0026921,-0.00056163,0,0,0.049415,-0.012085,0,-0.011682,0,0,0,0.0074964,0.0014772,0.0026921,-5.3776,0.0038885,0.0055131,7.2173e-09,0.2,0.7,0
0.010258,-0.0034019,0.0074269,0.0014165,0.0026531,-0.00048311,0,0,0.049648,-0.01286,0,-0.010049,0,0,0,0.0074655,0.001378,0.0026531,-4.5663,0.0038322,0.0055608,7.2902e-09,0.22,0.7,0
0.011252,-0.0035155,0.0074005,0.0013105,0.0026133,-0.00040125,0,0,0.049787,-0.013549,0,-0.0083461,0,0,0,0.0074268,0.0012842,0.0026133,-3.7534,0.0037748,0.0055977,7.325e-09,0.24,0.7,0
0.012249,-0.0035914,0.0073655,0.0012098,0.0025726,-0.00031643,0,0,0.049847,-0.014173,0,-0.0065818,0,0,0,0.0073818,0.0011936,0.0025726,-2.9349,0.003716,0.0056269,7.3305e-09,0.26,0.7,0
0.013246,-0.0036293,0.0073236,0.0011115,0.0025305,-0.00022909,0,0,0.049848,-0.014758,0,-0.0047651,0,0,0,0.0073321,0.001103,0.0025305,-2.1091,0.0036552,0.0056521,7.3178e-09,0.28,0.7,0
0.014243,-0.0036294,0.0072768,0.0010125,0.0024868,-0.00013989,0,0,0.049816,-0.015333,0,-0.0029097,0,0,0,0.0072799,0.0010094,0.0024868,-1.2786,0.003592,0.0056779,7.299e-09,0.3,0.7,0
0.015239,-0.0035921,0.0072272,0.00090935,0.0024409,-4.9819e-05,0,0,0.049777,-0.015929,0,-0.0010362,0,0,0,0.0072276,0.00090896,0.0024409,-0.45177,0.0035258,0.0057089,7.2866e-09,0.32,0.7,0
0.016234,-0.0035188,0.0071771,0.00079871,0.0023927,3.9651e-05,0,0,0.049757,-0.016578,0,0.00082475,0,0,0,0.0071773,0.00079847,0.0023927,0.35616,0.0034562,0.00575,7.2922e-09,0.34,0.7,0
0.017229,-0.0034114,0.0071289,0.00067745,0.0023419,0.00012647,0,0,0.049785,-0.01731,0,0.0026306,0,0,0,0.0071314,0.00067498,0.0023419,1.1226,0.0033828,0.0058053,7.3255e-09,0.36,0.7,0
0.018225,-0.003273,0.007085,0.00054311,0.0022884,0.00020794,0,0,0.049884,-0.018151,0,0.0043251,0,0,0,0.0070916,0.00053651,0.0022884,1.8187,0.0033055,0.0058783,7.3931e-09,0.38,0.7,0
0.019225,-0.0031079,0.0070472,0.00039426,0.0022324,0.00028068,0,0,0.050073,-0.019117,0,0.0058382,0,0,0,0.007059,0.00038244,0.0022324,2.4116,0.0032246,0.0059705,7.4972e-09,0.4,0.7,0
0.020228,-0.0029216,0.0070169,0.00023105,0.0021744,0.00034079,0,0,0.050362,-0.020211,0,0.0070883,0,0,0,0.007034,0.00021397,0.0021744,2.8678,0.0031408,0.0060816,7.635e-09,0.42,0.7,0
0.021239,-0.0027212,0.0069948,5.5632e-05,0.0021151,0.00038406,0,0,0.050748,-0.021419,0,0.0079885,0,0,0,0.0070159,3.444e-05,0.0021151,3.1583,0.0030552,0.0062084,7.7983e-09,0.44,0.7,0
0.022258,-0.002515,0.0069804,-0.00012731,0.0020559,0.00040659,0,0,0.051214,-0.022706,0,0.0084571,0,0,0,0.0070035,-0.0001505,0.0020559,3.2634,0.0029696,0.0063454,7.9741e-09,0.46,0.7,0
0.023288,-0.0023125,0.0069724,-0.00031059,0.0019985,0.00040548,0,0,0.051728,-0.024015,0,0.0084339,0,0,0,0.0069949,-0.0003331,0.0019985,3.1768,0.0028868,0.0064846,8.1466e-09,0.48,0.7,0
0.024327,-0.0021236,0.0069689,-0.0004851,0.0019452,0.0003796,0,0,0.052248,-0.025275,0,0.0078956,0,0,0,0.0069882,-0.00050438,0.0019452,2.9077,0.0028097,0.0066171,8.3008e-09,0.5,0.7,0
0.025378,-0.0019583,0.0069678,-0.00064117,0.001898,0.00033007,0,0,0.052726,-0.026407,0,0.0068654,0,0,0,0.0069821,-0.00065547,0.001898,2.4792,0.0027415,0.0067343,8.4254e-09,0.52,0.7,0
0.026437,-0.0018256,0.0069671,-0.00077021,0.0018591,0.00026009,0,0,0.053123,-0.027344,0,0.0054099,0,0,0,0.0069758,-0.00077895,0.0018591,1.9231,0.0026853,0.0068292,8.515e-09,0.54,0.7,0
0.027502,-0.0017328,0.0069654,-0.00086588,0.0018299,0.00017427,0,0,0.05341,-0.028036,0,0.0036249,0,0,0,0.0069693,-0.00086976,0.0018299,1.2742,0.0026431,0.0068976,8.5697e-09,0.56,0.7,0
0.028573,-0.0016854,0.0069621,-0.00092434,0.0018113,7.7782e-05,0,0,0.053568,-0.028451,0,0.0016179,0,0,0,0.0069629,-0.0009251,0.0018113,0.56502,0.0026164,0.0069371,8.5922e-09,0.58,0.7,0
0.029645,-0.0016867,0.0069567,-0.00094374,0.0018039,-2.4145e-05,0,0,0.053589,-0.028576,0,-0.00050223,0,0,0,0.0069568,-0.00094381,0.0018039,-0.17511,0.0026056,0.006947,8.5853e-09,0.6,0.7,0
0.030717,-0.0017374,0.006949,-0.00092375,0.0018076,-0.00012626,0,0,0.053471,-0.028406,0,-0.0026262,0,0,0,0.006951,-0.00092578,0.0018076,-0.91857,0.0026109,0.0069271,8.5501e-09,0.62,0.7,0
0.031784,-0.0018362,0.0069389,-0.00086559,0.001822,-0.00022312,0,0,0.053215,-0.027951,0,-0.0046409,0,0,0,0.0069452,-0.00087196,0.001822,-1.6362,0.0026317,0.006878,8.4855e-09,0.64,0.7,0
0.032845,-0.0019794,0.0069267,-0.0007726,0.0018462,-0.00030915,0,0,0.052837,-0.027236,0,-0.0064303,0,0,0,0.0069391,-0.00078499,0.0018462,-2.2957,0.0026668,0.0068015,8.3901e-09,0.66,0.7,0
0.033897,-0.0021612,0.0069136,-0.00065089,0.0018788,-0.00037919,0,0,0.052362,-0.026309,0,-0.0078871,0,0,0,0.0069325,-0.00066986,0.0018788,-2.8625,0.0027138,0.006702,8.2647e-09,0.68,0.7,0
0.03494,-0.0023737,0.0069013,-0.00050916,0.0019176,-0.00042941,0,0,0.05183,-0.025239,0,-0.0089317,0,0,0,0.0069261,-0.00053396,0.0019176,-3.3053,0.0027699,0.0065859,8.1145e-09,0.7,0.7,0
0.035971,-0.0026084,0.006892,-0.00035752,0.0019604,-0.00045808,0,0,0.051289,-0.024106,0,-0.0095281,0,0,0,0.0069208,-0.00038635,0.0019604,-3.6013,0.0028316,0.0064618,7.9494e-09,0.72,0.7,0
0.036991,-0.002856,0.006888,-0.00020584,0.0020046,-0.00046581,0,0,0.050786,-0.022989,0,-0.0096887,0,0,0,0.0069184,-0.0002363,0.0020046,-3.7409,0.0028956,0.0063386,7.783e-09,0.74,0.7,0
0.038002,-0.003108,0.0068907,-6.2307e-05,0.0020485,-0.00045511,0,0,0.050359,-0.021953,0,-0.0094664,0,0,0,0.0069204,-9.197e-05,0.0020485,-3.7291,0.002959,0.0062245,7.6296e-09,0.76,0.7,0
0.039005,-0.0033565,0.006901,6.7326e-05,0.0020905,-0.00042972,0,0,0.05003,-0.021041,0,-0.0089381,0,0,0,0.006928,4.041e-05,0.0020905,-3.584,0.0030196,0.0061255,7.5011e-09,0.78,0.7,0
0.040003,-0.0035951,0.0069188,0.00017973,0.0021296,-0.00039372,0,0,0.049808,-0.020278,0,-0.0081894,0,0,0,0.0069417,0.0001568,0.0021296,-3.3323,0.003076,0.006045,7.4055e-09,0.8,0.7,0
0.040998,-0.0038187,0.0069428,0.00027365,0.002165,-0.00035104,0,0,0.04969,-0.019669,0,-0.0073017,0,0,0,0.0069613,0.00025522,0.002165,-3.0048,0.0031271,0.0059843,7.3462e-09,0.82,0.7,0
0.041991,-0.0040234,0.0069717,0.00034939,0.0021963,-0.00030508,0,0,0.049664,-0.019208,0,-0.0063456,0,0,0,0.0069857,0.00033537,0.0021963,-2.6321,0.0031725,0.0059426,7.3222e-09,0.84,0.7,0
0.042984,-0.0042066,0.0070034,0.00040836,0.0022235,-0.00025852,0,0,0.049711,-0.018878,0,-0.0053771,0,0,0,0.0070136,0.00039824,0.0022235,-2.2413,0.0032118,0.0059177,7.3293e-09,0.86,0.7,0
0.043979,-0.0043666,0.007036,0.00045265,0.0022466,-0.00021332,0,0,0.04981,-0.018657,0,-0.0044371,0,0,0,0.0070429,0.00044575,0.0022466,-1.854,0.0032451,0.0059064,7.3602e-09,0.88,0.7,0
0.044977,-0.0045024,0.0070674,0.00048468,0.0022656,-0.00017073,0,0,0.049939,-0.018522,0,-0.0035511,0,0,0,0.0070719,0.00048026,0.0022656,-1.4847,0.0032726,0.0059049,7.4068e-09,0.9,0.7,0
0.045977,-0.0046134,0.0070959,0.00050691,0.0022808,-0.00013132,0,0,0.050076,-0.018449,0,-0.0027313,0,0,0,0.0070985,0.00050429,0.0022808,-1.1413,0.0032945,0.0059097,7.4601e-09,0.92,0.7,0
0.04698,-0.0046996,0.0071197,0.00052159,0.0022924,-9.5111e-05,0,0,0.050204,-0.018416,0,-0.0019783,0,0,0,0.0071211,0.00052022,0.0022924,-0.82568,0.0033112,0.0059173,7.5117e-09,0.94,0.7,0
0.047985,-0.0047611,0.0071377,0.00053064,0.0023005,-6.1693e-05,0,0,0.050307,-0.018407,0,-0.0012832,0,0,0,0.0071383,0.00053006,0.0023005,-0.53493,0.0033229,0.0059248,7.5541e-09,0.96,0.7,0
0.048992,-0.0047978,0.0071489,0.00053547,0.0023053,-3.0311e-05,0,0,0.050373,-0.018406,0,-0.00063047,0,0,0,0.007149,0.00053533,0.0023053,-0.2626,0.0033299,0.0059302,7.5819e-09,0.98,0.7,0
0.05,-0.0048101,0.0071526,0.00053699,0.0023069,-2.9435e-05,0,0,0.050396,-0.018407,0,-0.00061224,0,0,0,0.0071528,0.00053686,0.0023069,-0.25492,0.0033322,0.0059324,7.5922e-09,1,0.7,0
0,0,0.0070977,0.0030419,0.0030419,-0.0011283,0,0,0.042181,1.0842e-19,0,-0.023468,0,0,0,0.0073905,0.0027491,0.0030419,-14.545,0.0043938,0.0045021,4.62e-09,0,0.72,0
0.00084362,-0.00046937,0.0070831,0.0028581,0.0029824,-0.001121,0,0,0.042647,-0.0012921,0,-0.023318,0,0,0,0.0073621,0.0025791,0.0029824,-13.977,0.0043079,0.0045947,4.8526e-09,0.02,0.72,0
0.0017059,-0.00091786,0.0071429,0.0026946,0.0029513,-0.0010848,0,0,0.043593,-0.0026693,0,-0.022565,0,0,0,0.0073934,0.0024441,0.0029513,-13,0.0042629,0.0047162,5.1782e-09,0.04,0.72,0
0.0025873,-0.0013436,0.007201,0.0025242,0.0029176,-0.0010419,0,0,0.044548,-0.0040907,0,-0.021671,0,0,0,0.0074226,0.0023026,0.0029176,-12.008,0.0042143,0.0048419,5.5142e-09,0.06,0.72,0
0.0034878,-0.0017443,0.0072547,0.0023515,0.0028819,-0.00099145,0,0,0.045477,-0.0055155,0,-0.020622,0,0,0,0.0074476,0.0021586,0.0028819,-11.009,0.0041627,0.004967,5.8463e-09,0.08,0.72,0
0.0044065,-0.0021177,0.0073018,0.0021807,0.0028447,-0.00093343,0,0,0.046353,-0.006906,0,-0.019415,0,0,0,0.0074666,0.0020159,0.0028447,-10.015,0.0041091,0.0050872,6.161e-09,0.1,0.72,0
0.0053419,-0.0024612,0.0073403,0.0020153,0.0028067,-0.00086814,0,0,0.047149,-0.0082303,0,-0.018057,0,0,0,0.0074782,0.0018773,0.0028067,-9.0297,0.0040541,0.0051989,6.4465e-09,0.12,0.72,0
0.0062924,-0.0027728,0.0073687,0.001858,0.002768,-0.00079628,0,0,0.047847,-0.009464,0,-0.016563,0,0,0,0.0074815,0.0017453,0.002768,-8.0595,0.0039983,0.0052994,6.6941e-09,0.14,0.72,0
0.0072558,-0.0030503,0.0073864,0.0017107,0.0027291,-0.00071879,0,0,0.048436,-0.010592,0,-0.014951,0,0,0,0.007476,0.0016211,0.0027291,-7.1067,0.0039421,0.0053871,6.8982e-09,0.16,0.72,0
0.0082299,-0.003292,0.007393,0.0015741,0.0026901,-0.00063665,0,0,0.04891,-0.011607,0,-0.013242,0,0,0,0.0074618,0.0015053,0.0026901,-6.1716,0.0038857,0.0054614,7.057e-09,0.18,0.72,0
0.0092122,-0.0034966,0.0073887,0.0014481,0.002651,-0.00055083,0,0,0.049272,-0.012511,0,-0.011457,0,0,0,0.0074394,0.0013975,0.002651,-5.2529,0.0038293,0.0055229,7.172e-09,0.2,0.72,0
0.010201,-0.0036631,0.0073744,0.0013318,0.0026119,-0.00046217,0,0,0.04953,-0.013313,0,-0.0096131,0,0,0,0.0074095,0.0012966,0.0026119,-4.3485,0.0037727,0.0055729,7.2479e-09,0.22,0.72,0
0.011193,-0.0037908,0.0073512,0.0012234,0.0025724,-0.00037143,0,0,0.0497,-0.014029,0,-0.0077257,0,0,0,0.0073736,0.001201,0.0025724,-3.456,0.0037156,0.005614,7.2917e-09,0.24,0.72,0
0.012189,-0.0038795,0.0073205,0.0011208,0.0025324,-0.0002793,0,0,0.049797,-0.014681,0,-0.0058095,0,0,0,0.0073331,0.0011082,0.0025324,-2.5742,0.0036579,0.0056491,7.3127e-09,0.26,0.72,0
0.013185,-0.0039296,0.0072843,0.0010212,0.0024917,-0.00018653,0,0,0.049844,-0.015293,0,-0.0038798,0,0,0,0.0072898,0.0010156,0.0024917,-1.7044,0.003599,0.0056819,7.3211e-09,0.28,0.72,0
0.014182,-0.0039414,0.0072444,0.00092176,0.0024499,-9.3996e-05,0,0,0.049864,-0.015892,0,-0.0019551,0,0,0,0.0072458,0.00092037,0.0024499,-0.85154,0.0035387,0.0057163,7.3279e-09,0.3,0.72,0
0.01518,-0.0039164,0.0072031,0.00081942,0.0024068,-2.8442e-06,0,0,0.049882,-0.016508,0,-5.916e-05,0,0,0,0.0072031,0.00081942,0.0024068,-0.025528,0.0034764,0.0057565,7.3437e-09,0.32,0.72,0
0.016178,-0.0038562,0.0071624,0.00071126,0.0023621,8.5399e-05,0,0,0.049923,-0.017169,0,0.0017763,0,0,0,0.0071635,0.00071013,0.0023621,0.7583,0.0034119,0.0058064,7.378e-09,0.34,0.72,0
0.017177,-0.0037636,0.0071244,0.00059473,0.0023158,0.00016875,0,0,0.05001,-0.017899,0,0.00351,0,0,0,0.0071288,0.00059037,0.0023158,1.4794,0.003345,0.0058691,7.438e-09,0.36,0.72,0
0.018178,-0.0036419,0.0070911,0.00046798,0.0022677,0.00024472,0,0,0.050163,-0.018717,0,0.0050903,0,0,0,0.0071001,0.00045895,0.0022677,2.1132,0.0032756,0.0059468,7.528e-09,0.38,0.72,0
0.019183,-0.0034958,0.0070639,0.00033015,0.0022182,0.00031039,0,0,0.050395,-0.019636,0,0.0064561,0,0,0,0.0070782,0.00031587,0.0022182,2.6336,0.0032041,0.0060402,7.6486e-09,0.4,0.72,0
0.020194,-0.0033307,0.0070438,0.00018176,0.0021677,0.00036248,0,0,0.050712,-0.020654,0,0.0075395,0,0,0,0.0070629,0.00016266,0.0021677,3.0154,0.0031311,0.006148,7.7963e-09,0.42,0.72,0
0.021212,-0.0031534,0.007031,2.5015e-05,0.0021168,0.00039769,0,0,0.051108,-0.021755,0,0.0082719,0,0,0,0.0070535,2.5132e-06,0.0021168,3.2385,0.0030576,0.0062673,7.9633e-09,0.44,0.72,0
0.022238,-0.0029716,0.0070249,-0.00013599,0.0020667,0.00041311,0,0,0.051565,-0.022908,0,0.0085928,0,0,0,0.0070486,-0.00015974,0.0020667,3.2909,0.0029852,0.0063928,8.1386e-09,0.46,0.72,0
0.023274,-0.0027937,0.0070241,-0.00029539,0.0020186,0.00040676,0,0,0.052057,-0.024066,0,0.0084605,0,0,0,0.0070466,-0.00031792,0.0020186,3.171,0.0029158,0.0065183,8.3093e-09,0.48,0.72,0
0.02432,-0.0026284,0.0070267,-0.00044607,0.0019742,0.000378,0,0,0.052546,-0.025171,0,0.0078624,0,0,0,0.0070458,-0.00046514,0.0019742,2.8884,0.0028516,0.0066365,8.4631e-09,0.5,0.72,0
0.025376,-0.0024843,0.0070308,-0.00058054,0.0019351,0.0003279,0,0,0.052995,-0.026162,0,0.0068204,0,0,0,0.0070449,-0.00059464,0.0019351,2.4623,0.0027951,0.0067406,8.5903e-09,0.52,0.72,0
0.02644,-0.0023692,0.0070343,-0.00069193,0.0019027,0.00025912,0,0,0.053368,-0.026984,0,0.0053896,0,0,0,0.007043,-0.00070061,0.0019027,1.9187,0.0027484,0.006825,8.6848e-09,0.54,0.72,0
0.027511,-0.0022894,0.0070356,-0.00077481,0.0018782,0.00017553,0,0,0.053636,-0.027592,0,0.0036511,0,0,0,0.0070395,-0.00077876,0.0018782,1.2868,0.002713,0.0068857,8.744e-09,0.56,0.72,0
0.028586,-0.0022499,0.0070336,-0.00082554,0.0018624,8.1793e-05,0,0,0.053781,-0.027955,0,0.0017013,0,0,0,0.0070345,-0.00082639,0.0018624,0.59621,0.0026902,0.00692,8.7679e-09,0.58,0.72,0
0.029662,-0.0022533,0.0070278,-0.00084221,0.0018557,-1.7092e-05,0,0,0.05379,-0.028058,0,-0.00035551,0,0,0,0.0070278,-0.00084225,0.0018557,-0.12443,0.0026804,0.006927,8.7574e-09,0.6,0.72,0
0.030737,-0.0023008,0.0070177,-0.00082459,0.0018579,-0.00011596,0,0,0.053662,-0.027898,0,-0.002412,0,0,0,0.0070194,-0.00082631,0.0018579,-0.84696,0.0026837,0.0069066,8.7132e-09,0.62,0.72,0
0.031809,-0.0023909,0.0070037,-0.00077413,0.0018689,-0.00020964,0,0,0.053402,-0.027487,0,-0.0043606,0,0,0,0.0070094,-0.00077978,0.0018689,-1.5428,0.0026995,0.0068597,8.636e-09,0.64,0.72,0
0.032873,-0.0025206,0.0069866,-0.00069416,0.0018877,-0.00029319,0,0,0.053028,-0.026852,0,-0.0060983,0,0,0,0.0069977,-0.00070533,0.0018877,-2.1828,0.0027267,0.0067887,8.527e-09,0.66,0.72,0
0.03393,-0.0026849,0.0069675,-0.00058998,0.0019133,-0.00036229,0,0,0.052564,-0.026034,0,-0.0075356,0,0,0,0.0069848,-0.00060731,0.0019133,-2.7382,0.0027636,0.0066976,8.3895e-09,0.68,0.72,0
0.034976,-0.0028773,0.0069484,-0.00046858,0.0019439,-0.00041383,0,0,0.052046,-0.02509,0,-0.0086077,0,0,0,0.0069714,-0.0004916,0.0019439,-3.1837,0.0028079,0.0065918,8.2294e-09,0.7,0.72,0
0.036012,-0.0030907,0.0069313,-0.00033785,0.001978,-0.0004463,0,0,0.051514,-0.024085,0,-0.0092831,0,0,0,0.0069586,-0.00036515,0.001978,-3.5002,0.0028572,0.0064782,8.0559e-09,0.72,0.72,0
0.037037,-0.0033171,0.0069182,-0.00020554,0.0020138,-0.00045993,0,0,0.051006,-0.023081,0,-0.0095664,0,0,0,0.0069478,-0.00023511,0.0020138,-3.6788,0.0029088,0.0063638,7.8803e-09,0.74,0.72,0
0.038052,-0.0035492,0.0069107,-7.8355e-05,0.0020497,-0.00045642,0,0,0.050555,-0.022132,0,-0.0094935,0,0,0,0.0069404,-0.00010804,0.0020497,-3.7206,0.0029607,0.0062552,7.714e-09,0.76,0.72,0
0.039059,-0.0037799,0.0069097,3.8661e-05,0.0020845,-0.00043852,0,0,0.050182,-0.021277,0,-0.0091212,0,0,0,0.0069376,1.0787e-05,0.0020845,-3.637,0.003011,0.0061576,7.5673e-09,0.78,0.72,0
0.040059,-0.0040034,0.0069152,0.00014225,0.0021172,-0.00040947,0,0,0.049899,-0.02054,0,-0.0085169,0,0,0,0.0069399,0.00011759,0.0021172,-3.4472,0.0030582,0.0060745,7.4474e-09,0.8,0.72,0
0.041055,-0.0042147,0.0069268,0.00023082,0.0021473,-0.00037252,0,0,0.049707,-0.019931,0,-0.0077484,0,0,0,0.0069474,0.00021016,0.0021473,-3.1745,0.0031016,0.0060077,7.3582e-09,0.82,0.72,0
0.042047,-0.00441,0.0069432,0.00030412,0.0021742,-0.00033063,0,0,0.049598,-0.019449,0,-0.0068771,0,0,0,0.0069596,0.0002877,0.0021742,-2.844,0.0031405,0.0059571,7.2998e-09,0.84,0.72,0
0.043039,-0.0045861,0.0069631,0.00036289,0.0021978,-0.00028628,0,0,0.049559,-0.019083,0,-0.0059547,0,0,0,0.0069754,0.0003505,0.0021978,-2.479,0.0031746,0.0059215,7.2698e-09,0.86,0.72,0
0.04403,-0.0047412,0.0069847,0.00040856,0.002218,-0.00024138,0,0,0.049574,-0.018818,0,-0.0050208,0,0,0,0.0069935,0.00039971,0.002218,-2.0993,0.0032037,0.0058987,7.2632e-09,0.88,0.72,0
0.045022,-0.0048737,0.0070063,0.00044289,0.0022348,-0.00019725,0,0,0.049624,-0.018635,0,-0.0041028,0,0,0,0.0070123,0.00043696,0.0022348,-1.7198,0.003228,0.005886,7.2737e-09,0.9,0.72,0
0.046015,-0.0049827,0.0070265,0.00046777,0.0022483,-0.00015465,0,0,0.049693,-0.018517,0,-0.0032167,0,0,0,0.0070301,0.00046413,0.0022483,-1.35,0.0032475,0.0058806,7.2945e-09,0.92,0.72,0
0.047009,-0.0050678,0.0070437,0.00048501,0.0022586,-0.00011387,0,0,0.049765,-0.018446,0,-0.0023685,0,0,0,0.0070457,0.00048303,0.0022586,-0.99434,0.0032625,0.0058795,7.3188e-09,0.94,0.72,0
0.048005,-0.0051287,0.0070569,0.00049613,0.0022659,-7.4806e-05,0,0,0.049826,-0.018406,0,-0.001556,0,0,0,0.0070578,0.00049528,0.0022659,-0.65317,0.003273,0.0058806,7.3409e-09,0.96,0.72,0
0.049002,-0.0051652,0.0070652,0.00050232,0.0022702,-3.7051e-05,0,0,0.049867,-0.018386,0,-0.00077066,0,0,0,0.0070654,0.00050211,0.0022702,-0.32345,0.0032792,0.005882,7.356e-09,0.98,0.72,0
0.05,-0.0051774,0.007068,0.0005043,0.0022717,-2.9298e-05,0,0,0.049881,-0.018381,0,-0.00060941,0,0,0,0.0070681,0.00050417,0.0022717,-0.25575,0.0032813,0.0058828,7.362e-09,1,0.72,0
0,0,0.0070402,0.0030172,0.0030172,-0.0011914,0,0,0.041839,-5.421e-19,0,-0.024782,0,0,0,0.0073665,0.0026908,0.0030172,-15.32,0.0043582,0.0045214,4.6638e-09,0,0.74,0
0.00083677,-0.00049564,0.007025,0.0028258,0.0029553,-0.0011835,0,0,0.042326,-0.0013461,0,-0.024616,0,0,0,0.0073356,0.0025153,0.0029553,-14.704,0.0042687,0.0046161,4.8974e-09,0.02,0.74,0
0.001693,-0.0009722,0.0070875,0.0026544,0.0029226,-0.0011469,0,0,0.043315,-0.0027887,0,-0.023855,0,0,0,0.0073666,0.0023753,0.0029226,-13.679,0.0042215,0.0047414,5.2295e-09,0.04,0.74,0
0.0025694,-0.0014269,0.0071482,0.0024753,0.002887,-0.0011007,0,0,0.044316,-0.0042824,0,-0.022894,0,0,0,0.0073945,0.002229,0.002887,-12.612,0.0041702,0.0048699,5.5683e-09,0.06,0.74,0
0.0034657,-0.0018568,0.0072043,0.0022935,0.0028493,-0.0010444,0,0,0.045291,-0.0057808,0,-0.021723,0,0,0,0.0074172,0.0020806,0.0028493,-11.521,0.0041157,0.0049967,5.8994e-09,0.08,0.74,0
0.004381,-0.0022586,0.0072533,0.002114,0.0028102,-0.00097812,0,0,0.046209,-0.0072406,0,-0.020345,0,0,0,0.0074332,0.0019341,0.0028102,-10.419,0.0040592,0.0051176,6.2091e-09,0.1,0.74,0
0.005314,-0.0026292,0.0072933,0.0019409,0.0027703,-0.00090288,0,0,0.04704,-0.0086257,0,-0.01878,0,0,0,0.0074415,0.0017927,0.0027703,-9.3214,0.0040015,0.005229,6.4866e-09,0.12,0.74,0
0.0062626,-0.0029659,0.0073228,0.0017772,0.00273,-0.00081999,0,0,0.047765,-0.0099095,0,-0.017056,0,0,0,0.0074415,0.0016584,0.00273,-8.2371,0.0039433,0.0053287,6.7242e-09,0.14,0.74,0
0.0072246,-0.0032663,0.0073412,0.0016248,0.0026898,-0.00073105,0,0,0.048374,-0.011076,0,-0.015206,0,0,0,0.0074332,0.0015328,0.0026898,-7.1735,0.0038852,0.0054154,6.9182e-09,0.16,0.74,0
0.0081976,-0.0035287,0.0073484,0.0014844,0.0026498,-0.00063768,0,0,0.048865,-0.01212,0,-0.013264,0,0,0,0.0074169,0.0014159,0.0026498,-6.1351,0.0038275,0.0054891,7.0686e-09,0.18,0.74,0
0.0091792,-0.0037516,0.007345,0.0013558,0.0026102,-0.00054135,0,0,0.049242,-0.013046,0,-0.01126,0,0,0,0.0073936,0.0013073,0.0026102,-5.1235,0.0037704,0.0055507,7.1785e-09,0.2,0.74,0
0.010167,-0.0039344,0.0073322,0.0012378,0.002571,-0.00044335,0,0,0.049516,-0.013865,0,-0.0092217,0,0,0,0.0073643,0.0012057,0.002571,-4.1391,0.0037137,0.0056021,7.2537e-09,0.22,0.74,0
0.01116,-0.0040766,0.0073113,0.0011286,0.0025319,-0.00034477,0,0,0.049705,-0.014595,0,-0.0071712,0,0,0,0.0073304,0.0011094,0.0025319,-3.1819,0.0036573,0.0056458,7.3021e-09,0.24,0.74,0
0.012155,-0.0041786,0.007284,0.0010259,0.002493,-0.00024657,0,0,0.049827,-0.015258,0,-0.0051286,0,0,0,0.0072937,0.0010162,0.002493,-2.2527,0.0036009,0.0056849,7.3327e-09,0.26,0.74,0
0.013153,-0.0042411,0.0072523,0.00092706,0.0024538,-0.00014966,0,0,0.049904,-0.015878,0,-0.003113,0,0,0,0.0072558,0.00092352,0.0024538,-1.3547,0.0035444,0.0057227,7.3553e-09,0.28,0.74,0
0.014152,-0.0042651,0.0072181,0.00082935,0.0024142,-5.5066e-05,0,0,0.04996,-0.016483,0,-0.0011454,0,0,0,0.0072185,0.00082887,0.0024142,-0.4938,0.0034872,0.0057629,7.3795e-09,0.3,0.74,0
0.015151,-0.0042524,0.0071834,0.00073,0.002374,3.6032e-05,0,0,0.050017,-0.017098,0,0.00074946,0,0,0,0.0071836,0.00072979,0.002374,0.31989,0.0034291,0.0058089,7.4141e-09,0.32,0.74,0
0.016152,-0.0042055,0.0071502,0.00062647,0.002333,0.00012215,0,0,0.050098,-0.017748,0,0.0025408,0,0,0,0.0071524,0.00062418,0.002333,1.0723,0.0033699,0.0058637,7.4667e-09,0.34,0.74,0
0.017155,-0.0041273,0.0071202,0.00051667,0.0022911,0.00020148,0,0,0.050223,-0.018454,0,0.0041908,0,0,0,0.0071264,0.00051053,0.0022911,1.746,0.0033093,0.0059296,7.5425e-09,0.36,0.74,0
0.018161,-0.0040217,0.0070951,0.00039918,0.0022483,0.00027183,0,0,0.050407,-0.019231,0,0.005654,0,0,0,0.0071061,0.00038817,0.0022483,2.3209,0.0032475,0.0060079,7.6441e-09,0.38,0.74,0
0.019172,-0.0038933,0.0070759,0.00027351,0.0022048,0.00033073,0,0,0.050659,-0.020086,0,0.0068792,0,0,0,0.0070919,0.00025747,0.0022048,2.777,0.0031847,0.0060986,7.771e-09,0.4,0.74,0
0.020188,-0.0037478,0.0070631,0.00014035,0.002161,0.00037556,0,0,0.050982,-0.021015,0,0.0078116,0,0,0,0.0070834,0.00012004,0.002161,3.0962,0.0031215,0.0062002,7.9192e-09,0.42,0.74,0
0.021211,-0.0035914,0.0070568,1.7671e-06,0.0021176,0.00040378,0,0,0.051368,-0.022004,0,0.0083986,0,0,0,0.0070798,-2.1267e-05,0.0021176,3.265,0.0030587,0.0063096,8.0817e-09,0.44,0.74,0
0.022242,-0.0034313,0.0070561,-0.00013877,0.0020752,0.00041328,0,0,0.051801,-0.023025,0,0.0085962,0,0,0,0.0070797,-0.00016243,0.0020752,3.2768,0.0029975,0.0064227,8.2491e-09,0.46,0.74,0
0.023283,-0.0032751,0.0070597,-0.00027649,0.002035,0.00040274,0,0,0.052257,-0.024039,0,0.008377,0,0,0,0.0070817,-0.00029853,0.002035,3.1329,0.0029394,0.0065339,8.411e-09,0.48,0.74,0
0.024333,-0.0031304,0.0070659,-0.00040578,0.001998,0.00037195,0,0,0.052706,-0.025,0,0.0077365,0,0,0,0.0070844,-0.00042425,0.001998,2.8429,0.002886,0.0066377,8.557e-09,0.5,0.74,0
0.025391,-0.0030048,0.0070727,-0.00052073,0.0019656,0.00032198,0,0,0.053114,-0.025858,0,0.0066972,0,0,0,0.0070863,-0.00053436,0.0019656,2.4237,0.0028392,0.0067286,8.6788e-09,0.52,0.74,0
0.026457,-0.0029049,0.0070783,-0.00061587,0.0019387,0.00025518,0,0,0.053451,-0.026568,0,0.0053077,0,0,0,0.0070867,-0.00062433,0.0019387,1.8974,0.0028004,0.0068019,8.7701e-09,0.54,0.74,0
0.027529,-0.0028365,0.007081,-0.0006867,0.0019183,0.00017493,0,0,0.053692,-0.027092,0,0.0036385,0,0,0,0.0070849,-0.00069064,0.0019183,1.2894,0.0027709,0.0068542,8.8276e-09,0.56,0.74,0
0.028605,-0.0028036,0.0070796,-0.00073006,0.0019049,8.5382e-05,0,0,0.053818,-0.027403,0,0.0017759,0,0,0,0.0070806,-0.00073099,0.0019049,0.6263,0.0027515,0.0068832,8.8497e-09,0.58,0.74,0
0.029682,-0.002809,0.0070735,-0.00074425,0.0018988,-8.8842e-06,0,0,0.053817,-0.027488,0,-0.00018479,0,0,0,0.0070735,-0.00074426,0.0018988,-0.065112,0.0027427,0.0068877,8.8363e-09,0.6,0.74,0
0.030758,-0.0028533,0.0070624,-0.00072911,0.0019,-0.0001031,0,0,0.053689,-0.027343,0,-0.0021446,0,0,0,0.0070638,-0.00073048,0.0019,-0.75802,0.0027444,0.0068678,8.788e-09,0.62,0.74,0
0.031829,-0.0029357,0.0070466,-0.00068603,0.0019082,-0.00019258,0,0,0.05344,-0.02698,0,-0.0040056,0,0,0,0.0070514,-0.00069082,0.0019082,-1.4257,0.0027563,0.0068246,8.7062e-09,0.64,0.74,0
0.032895,-0.0030535,0.007027,-0.00061797,0.0019227,-0.00027293,0,0,0.053085,-0.026423,0,-0.005677,0,0,0,0.0070367,-0.0006277,0.0019227,-2.0421,0.0027773,0.0067602,8.5933e-09,0.66,0.74,0
0.033953,-0.0032025,0.0070049,-0.00052937,0.0019427,-0.00034048,0,0,0.052647,-0.025709,0,-0.0070819,0,0,0,0.0070202,-0.00054472,0.0019427,-2.5822,0.0028061,0.0066782,8.4534e-09,0.68,0.74,0
0.035001,-0.0033773,0.006982,-0.00042586,0.0019668,-0.00039253,0,0,0.052158,-0.024884,0,-0.0081646,0,0,0,0.0070027,-0.0004466,0.0019668,-3.0247,0.002841,0.0065832,8.2927e-09,0.7,0.74,0
0.036039,-0.0035718,0.0069602,-0.00031369,0.0019939,-0.00042769,0,0,0.051649,-0.023999,0,-0.0088959,0,0,0,0.0069852,-0.00033875,0.0019939,-3.3535,0.0028801,0.0064805,8.1193e-09,0.72,0.74,0
0.037067,-0.0037793,0.0069412,-0.00019903,0.0020227,-0.00044589,0,0,0.051153,-0.023106,0,-0.0092745,0,0,0,0.006969,-0.00022677,0.0020227,-3.5596,0.0029216,0.0063759,7.9425e-09,0.74,0.74,0
0.038085,-0.0039933,0.0069267,-8.736e-05,0.0020518,-0.00044826,0,0,0.050699,-0.022247,0,-0.0093238,0,0,0,0.0069552,-0.00011589,0.0020518,-3.642,0.0029637,0.0062746,7.7721e-09,0.76,0.74,0
0.039095,-0.0042076,0.0069174,1.6979e-05,0.0020803,-0.00043679,0,0,0.050306,-0.021459,0,-0.0090853,0,0,0,0.006945,-1.056e-05,0.0020803,-3.6076,0.0030049,0.0061812,7.6166e-09,0.78,0.74,0
0.040098,-0.0044167,0.0069138,0.00011097,0.0021074,-0.000414,0,0,0.049986,-0.020763,0,-0.0086112,0,0,0,0.0069389,8.5868e-05,0.0021074,-3.4698,0.0030441,0.0060989,7.4825e-09,0.8,0.74,0
0.041094,-0.0046159,0.0069156,0.00019289,0.0021325,-0.00038253,0,0,0.049744,-0.020172,0,-0.0079567,0,0,0,0.0069373,0.00017119,0.0021325,-3.2462,0.0030803,0.0060296,7.3737e-09,0.82,0.74,0
0.042087,-0.0048014,0.0069221,0.00026212,0.0021553,-0.00034492,0,0,0.049575,-0.019689,0,-0.0071744,0,0,0,0.0069399,0.00024431,0.0021553,-2.9568,0.0031132,0.0059739,7.2915e-09,0.84,0.74,0
0.043077,-0.00497,0.0069322,0.00031894,0.0021753,-0.00030338,0,0,0.049471,-0.019307,0,-0.0063104,0,0,0,0.0069461,0.00030505,0.0021753,-2.6211,0.0031421,0.0059313,7.2345e-09,0.86,0.74,0
0.044066,-0.0051193,0.0069446,0.00036422,0.0021926,-0.00025972,0,0,0.04942,-0.019016,0,-0.0054021,0,0,0,0.0069548,0.00035398,0.0021926,-2.2567,0.0031672,0.0059004,7.1997e-09,0.88,0.74,0
0.045054,-0.0052478,0.006958,0.00039921,0.0022072,-0.00021527,0,0,0.049408,-0.018803,0,-0.0044776,0,0,0,0.006965,0.00039215,0.0022072,-1.8779,0.0031881,0.0058794,7.1825e-09,0.9,0.74,0
0.046042,-0.0053541,0.006971,0.00042533,0.0022189,-0.00017093,0,0,0.049422,-0.018653,0,-0.0035554,0,0,0,0.0069754,0.00042087,0.0022189,-1.4949,0.0032051,0.005866,7.1779e-09,0.92,0.74,0
0.047031,-0.0054374,0.0069825,0.00044396,0.0022279,-0.00012721,0,0,0.049447,-0.018553,0,-0.0026459,0,0,0,0.0069849,0.00044149,0.0022279,-1.1141,0.0032181,0.0058582,7.1807e-09,0.94,0.74,0
0.04802,-0.0054973,0.0069914,0.00045632,0.0022343,-8.4244e-05,0,0,0.049474,-0.018491,0,-0.0017523,0,0,0,0.0069925,0.00045523,0.0022343,-0.73844,0.0032273,0.0058541,7.1864e-09,0.96,0.74,0
0.04901,-0.0055333,0.0069971,0.00046333,0.0022381,-4.1936e-05,0,0,0.049493,-0.018458,0,-0.00087226,0,0,0,0.0069973,0.00046307,0.0022381,-0.36773,0.0032328,0.0058522,7.1913e-09,0.98,0.74,0
0.05,-0.0055453,0.006999,0.00046561,0.0022394,-2.8892e-05,0,0,0.0495,-0.018447,0,-0.00060095,0,0,0,0.0069991,0.00046548,0.0022394,-0.25337,0.0032347,0.0058519,7.1938e-09,1,0.74,0
0,0,0.0069931,0.0029971,0.0029971,-0.0012577,0,0,0.041559,-1.0842e-19,0,-0.026161,0,0,0,0.007356,0.0026342,0.0029971,-16.095,0.0043291,0.0045513,4.7384e-09,0,0.76,0
0.00083119,-0.00052322,0.0069773,0.0027947,0.0029316,-0.001249,0,0,0.042075,-0.0014236,0,-0.02598,0,0,0,0.0073219,0.0024501,0.0029316,-15.424,0.0042346,0.0046498,4.977e-09,0.02,0.76,0
0.001683,-0.0010294,0.0070434,0.0026124,0.0028967,-0.0012122,0,0,0.043125,-0.002957,0,-0.025213,0,0,0,0.0073533,0.0023025,0.0028967,-14.342,0.0041842,0.0047815,5.3232e-09,0.04,0.76,0
0.0025562,-0.0015149,0.0071075,0.0024213,0.0028586,-0.0011625,0,0,0.044188,-0.0045481,0,-0.024181,0,0,0,0.00738,0.0021488,0.0028586,-13.194,0.0041291,0.0049149,5.6713e-09,0.06,0.76,0
0.0034505,-0.0019755,0.0071665,0.0022277,0.0028183,-0.0010997,0,0,0.045222,-0.0061419,0,-0.022874,0,0,0,0.0074003,0.0019939,0.0028183,-12.003,0.0040708,0.005045,6.0057e-09,0.08,0.76,0
0.0043651,-0.0024073,0.0072177,0.0020374,0.0027765,-0.0010245,0,0,0.046189,-0.0076872,0,-0.02131,0,0,0,0.007413,0.0018421,0.0027765,-10.79,0.0040105,0.0051674,6.3127e-09,0.1,0.76,0
0.0052981,-0.0028063,0.007259,0.0018552,0.0027342,-0.00093851,0,0,0.047057,-0.0091423,0,-0.019521,0,0,0,0.0074173,0.0016968,0.0027342,-9.5774,0.0039495,0.0052788,6.5821e-09,0.12,0.76,0
0.0062473,-0.0031692,0.0072889,0.0016845,0.002692,-0.00084394,0,0,0.047808,-0.010478,0,-0.017554,0,0,0,0.0074132,0.0015601,0.002692,-8.3803,0.0038884,0.0053773,6.8081e-09,0.14,0.76,0
0.0072104,-0.0034933,0.0073071,0.0015271,0.0026503,-0.00074322,0,0,0.048431,-0.011681,0,-0.015459,0,0,0,0.0074011,0.0014331,0.0026503,-7.2112,0.0038282,0.0054621,6.989e-09,0.16,0.76,0
0.0081846,-0.0037768,0.0073139,0.0013837,0.0026093,-0.00063865,0,0,0.048928,-0.012746,0,-0.013284,0,0,0,0.0073819,0.0013157,0.0026093,-6.0776,0.003769,0.0055339,7.1268e-09,0.18,0.76,0
0.0091675,-0.0040184,0.0073103,0.0012537,0.0025692,-0.00053223,0,0,0.049307,-0.013681,0,-0.01107,0,0,0,0.0073567,0.0012073,0.0025692,-4.984,0.0037111,0.0055942,7.2267e-09,0.2,0.76,0
0.010157,-0.0042177,0.0072977,0.0011356,0.00253,-0.00042563,0,0,0.049584,-0.014502,0,-0.0088532,0,0,0,0.0073269,0.0011063,0.00253,-3.9327,0.0036544,0.0056451,7.2959e-09,0.22,0.76,0
0.011151,-0.0043746,0.0072779,0.0010273,0.0024915,-0.00032021,0,0,0.049778,-0.015228,0,-0.0066604,0,0,0,0.0072942,0.0010109,0.0024915,-2.925,0.0035989,0.0056894,7.3427e-09,0.24,0.76,0
0.012148,-0.0044899,0.0072527,0.00092643,0.0024537,-0.00021707,0,0,0.049909,-0.015884,0,-0.0045151,0,0,0,0.0072601,0.00091899,0.0024537,-1.9629,0.0035443,0.00573,7.3763e-09,0.26,0.76,0
0.013147,-0.0045647,0.0072241,0.00083036,0.0024163,-0.00011722,0,0,0.050001,-0.016494,0,-0.0024382,0,0,0,0.0072263,0.00082821,0.0024163,-1.05,0.0034903,0.0057703,7.4056e-09,0.28,0.76,0
0.014148,-0.0046007,0.0071941,0.00073641,0.0023792,-2.1675e-05,0,0,0.050076,-0.017085,0,-0.00045084,0,0,0,0.0071942,0.00073634,0.0023792,-0.19231,0.0034366,0.0058132,7.439e-09,0.3,0.76,0
0.01515,-0.0046003,0.0071646,0.00064205,0.002342,6.8439e-05,0,0,0.050155,-0.017679,0,0.0014235,0,0,0,0.0071653,0.00064133,0.002342,0.6011,0.0033829,0.0058617,7.4839e-09,0.32,0.76,0
0.016154,-0.0045661,0.0071372,0.00054503,0.0023047,0.00015178,0,0,0.050258,-0.0183,0,0.003157,0,0,0,0.0071407,0.00054154,0.0023047,1.3183,0.003329,0.005918,7.546e-09,0.34,0.76,0
0.017161,-0.0045017,0.0071135,0.00044359,0.0022671,0.00022677,0,0,0.050402,-0.018965,0,0.0047167,0,0,0,0.0071212,0.00043589,0.0022671,1.945,0.0032747,0.0059837,7.6288e-09,0.36,0.76,0
0.01817,-0.0044112,0.0070946,0.00033661,0.0022294,0.00029156,0,0,0.050599,-0.019685,0,0.0060645,0,0,0,0.0071072,0.00032405,0.0022294,2.4658,0.0032202,0.0060595,7.7338e-09,0.38,0.76,0
0.019185,-0.0042992,0.0070814,0.00022381,0.0021916,0.00034416,0,0,0.050854,-0.020465,0,0.0071585,0,0,0,0.0070986,0.00020658,0.0021916,2.8659,0.0031656,0.0061449,7.8595e-09,0.4,0.76,0
0.020205,-0.0041713,0.0070739,0.00010592,0.002154,0.00038252,0,0,0.051168,-0.0213,0,0.0079563,0,0,0,0.0070949,8.4985e-05,0.002154,3.1328,0.0031113,0.0062383,8.002e-09,0.42,0.76,0
0.021231,-0.0040336,0.0070721,-1.5237e-05,0.0021171,0.00040474,0,0,0.051533,-0.022176,0,0.0084186,0,0,0,0.0070951,-3.8275e-05,0.0021171,3.2579,0.003058,0.0063369,8.155e-09,0.44,0.76,0
0.022266,-0.0038926,0.0070751,-0.00013675,0.0020815,0.00040936,0,0,0.051933,-0.02307,0,0.0085146,0,0,0,0.0070982,-0.00015991,0.0020815,3.2384,0.0030066,0.0064371,8.3105e-09,0.46,0.76,0
0.023309,-0.0037552,0.0070815,-0.00025478,0.002048,0.00039557,0,0,0.052348,-0.023949,0,0.0082278,0,0,0,0.0071027,-0.00027605,0.002048,3.0775,0.0029582,0.0065344,8.4597e-09,0.48,0.76,0
0.02436,-0.0036284,0.0070897,-0.00036485,0.0020175,0.00036347,0,0,0.052751,-0.024776,0,0.0075602,0,0,0,0.0071074,-0.00038253,0.0020175,2.7849,0.0029141,0.0066244,8.5942e-09,0.5,0.76,0
0.025419,-0.0035187,0.007098,-0.00046231,0.0019907,0.00031419,0,0,0.053116,-0.025511,0,0.0065351,0,0,0,0.007111,-0.00047534,0.0019907,2.3756,0.0028754,0.0067027,8.7064e-09,0.52,0.76,0
0.026484,-0.0034319,0.0071045,-0.00054278,0.0019685,0.00024985,0,0,0.053414,-0.026118,0,0.0051969,0,0,0,0.0071127,-0.00055094,0.0019685,1.8693,0.0028434,0.0067654,8.7908e-09,0.54,0.76,0
0.027555,-0.0033731,0.0071079,-0.00060264,0.0019516,0.00017348,0,0,0.053626,-0.026564,0,0.0036083,0,0,0,0.0071118,-0.00060654,0.0019516,1.2882,0.0028189,0.0068097,8.8436e-09,0.56,0.76,0
0.028629,-0.003346,0.0071069,-0.00063924,0.0019403,8.8741e-05,0,0,0.053732,-0.026827,0,0.0018458,0,0,0,0.0071079,-0.00064025,0.0019403,0.65628,0.0028026,0.0068336,8.8627e-09,0.58,0.76,0
0.029704,-0.0033529,0.0071008,-0.00065118,0.0019349,-2.5301e-07,0,0,0.053725,-0.026895,0,-5.2626e-06,0,0,0,0.0071008,-0.00065118,0.0019349,-0.00187,0.0027948,0.0068362,8.8475e-09,0.6,0.76,0
0.030778,-0.0033945,0.0070894,-0.00063834,0.0019353,-8.9235e-05,0,0,0.053603,-0.026766,0,-0.0018561,0,0,0,0.0070905,-0.00063937,0.0019353,-0.66149,0.0027955,0.0068175,8.7984e-09,0.62,0.76,0
0.031849,-0.0034701,0.0070732,-0.00060195,0.0019414,-0.00017402,0,0,0.053371,-0.02645,0,-0.0036195,0,0,0,0.0070771,-0.00060589,0.0019414,-1.2982,0.0028042,0.0067784,8.7171e-09,0.64,0.76,0
0.032913,-0.0035775,0.0070527,-0.00054451,0.0019525,-0.00025076,0,0,0.053043,-0.025968,0,-0.0052157,0,0,0,0.007061,-0.00055277,0.0019525,-1.8884,0.0028202,0.0067209,8.6064e-09,0.66,0.76,0
0.03397,-0.0037132,0.0070293,-0.00046965,0.0019679,-0.00031622,0,0,0.052639,-0.025351,0,-0.0065774,0,0,0,0.0070427,-0.00048296,0.0019679,-2.4104,0.0028425,0.0066481,8.4703e-09,0.68,0.76,0
0.035019,-0.0038727,0.0070046,-0.00038191,0.0019868,-0.00036805,0,0,0.052185,-0.024635,0,-0.0076555,0,0,0,0.0070229,-0.0004002,0.0019868,-2.8455,0.0028698,0.0065636,8.3148e-09,0.7,0.76,0
0.036058,-0.0040506,0.0069801,-0.00028625,0.0020082,-0.0004049,0,0,0.051708,-0.023862,0,-0.008422,0,0,0,0.0070026,-0.00030874,0.0020082,-3.1795,0.0029007,0.0064718,8.1469e-09,0.72,0.76,0
0.037087,-0.0042413,0.0069576,-0.00018763,0.002031,-0.00042649,0,0,0.051236,-0.023074,0,-0.008871,0,0,0,0.0069829,-0.000213,0.002031,-3.4038,0.0029336,0.0063773,7.9746e-09,0.74,0.76,0
0.038107,-0.004439,0.0069383,-9.053e-05,0.0020543,-0.0004335,0,0,0.050793,-0.022306,0,-0.0090167,0,0,0,0.0069649,-0.00011716,0.0020543,-3.5159,0.0029674,0.0062843,7.806e-09,0.76,0.76,0
0.039119,-0.0046383,0.0069232,1.3696e-06,0.0020774,-0.00042736,0,0,0.050397,-0.02159,0,-0.0088891,0,0,0,0.0069495,-2.4916e-05,0.0020774,-3.5197,0.0030007,0.0061968,7.6483e-09,0.78,0.76,0
0.040123,-0.004834,0.0069128,8.5364e-05,0.0020995,-0.00040999,0,0,0.050059,-0.020947,0,-0.0085279,0,0,0,0.0069374,6.0832e-05,0.0020995,-3.4242,0.0030326,0.0061175,7.5075e-09,0.8,0.76,0
0.041121,-0.0050216,0.0069072,0.00015974,0.0021201,-0.00038353,0,0,0.049786,-0.020387,0,-0.0079775,0,0,0,0.0069289,0.00013801,0.0021201,-3.2428,0.0030623,0.0060485,7.3872e-09,0.82,0.76,0
0.042114,-0.0051975,0.0069058,0.0002237,0.0021389,-0.00035011,0,0,0.049577,-0.019918,0,-0.0072823,0,0,0,0.0069241,0.0002054,0.0021389,-2.9911,0.0030895,0.0059908,7.2894e-09,0.84,0.76,0
0.043104,-0.0053584,0.0069081,0.00027716,0.0021556,-0.00031166,0,0,0.049426,-0.019536,0,-0.0064826,0,0,0,0.0069227,0.00026254,0.0021556,-2.6851,0.0031136,0.0059442,7.2138e-09,0.86,0.76,0
0.044091,-0.0055018,0.0069129,0.00032061,0.0021701,-0.00026986,0,0,0.049326,-0.019234,0,-0.0056131,0,0,0,0.0069239,0.00030959,0.0021701,-2.3402,0.0031345,0.0059081,7.1587e-09,0.88,0.76,0
0.045077,-0.0056257,0.0069194,0.0003549,0.0021823,-0.00022603,0,0,0.049266,-0.019005,0,-0.0047013,0,0,0,0.0069271,0.00034712,0.0021823,-1.9697,0.0031522,0.0058812,7.121e-09,0.9,0.76,0
0.046062,-0.0057288,0.0069263,0.00038102,0.0021922,-0.00018113,0,0,0.049235,-0.018836,0,-0.0037675,0,0,0,0.0069313,0.00037601,0.0021922,-1.5839,0.0031665,0.0058622,7.0972e-09,0.92,0.76,0
0.047047,-0.0058099,0.0069329,0.00040003,0.0021999,-0.00013582,0,0,0.049223,-0.018718,0,-0.002825,0,0,0,0.0069357,0.00039721,0.0021999,-1.1905,0.0031776,0.0058493,7.0835e-09,0.94,0.76,0
0.048031,-0.0058683,0.0069381,0.00041287,0.0022053,-9.0452e-05,0,0,0.049222,-0.018641,0,-0.0018814,0,0,0,0.0069394,0.00041161,0.0022053,-0.79402,0.0031854,0.0058413,7.0765e-09,0.96,0.76,0
0.049015,-0.0059035,0.0069416,0.00042025,0.0022086,-4.5183e-05,0,0,0.049224,-0.018598,0,-0.00093981,0,0,0,0.0069419,0.00041994,0.0022086,-0.39695,0.0031901,0.0058369,7.0734e-09,0.98,0.76,0
0.05,-0.0059153,0.0069428,0.00042266,0.0022096,-2.829e-05,0,0,0.049225,-0.018585,0,-0.00058844,0,0,0,0.0069429,0.00042254,0.0022096,-0.2486,0.0031917,0.0058358,7.0732e-09,1,0.76,0
0,0,0.0069579,0.002982,0.002982,-0.0013283,0,0,0.04135,2.1684e-19,0,-0.027629,0,0,0,0.0073608,0.002579,0.002982,-16.875,0.0043073,0.0045936,4.8495e-09,0,0.78,0
0.000827,-0.00055258,0.0069411,0.0027652,0.0029119,-0.0013188,0,0,0.041904,-0.0015257,0,-0.027432,0,0,0,0.0073227,0.0023835,0.0029119,-16.139,0.0042061,0.0046974,5.0969e-09,0.02,0.78,0
0.0016761,-0.0010905,0.0070117,0.0025683,0.002874,-0.0012817,0,0,0.043032,-0.0031789,0,-0.02666,0,0,0,0.0073549,0.0022251,0.002874,-14.991,0.0041513,0.0048381,5.4652e-09,0.04,0.78,0
0.0025483,-0.0016089,0.0070799,0.0023617,0.0028325,-0.0012281,0,0,0.044173,-0.0048962,0,-0.025545,0,0,0,0.0073805,0.0020612,0.0028325,-13.75,0.0040914,0.0049786,5.8285e-09,0.06,0.78,0
0.0034431,-0.0021025,0.0071422,0.0021531,0.0027886,-0.0011578,0,0,0.045278,-0.0066092,0,-0.024083,0,0,0,0.0073978,0.0018975,0.0027886,-12.449,0.004028,0.0051134,6.1695e-09,0.08,0.78,0
0.0043594,-0.0025661,0.0071954,0.0019497,0.0027435,-0.0010723,0,0,0.046299,-0.0082557,0,-0.022304,0,0,0,0.0074061,0.001739,0.0027435,-11.118,0.0039629,0.0052376,6.4739e-09,0.1,0.78,0
0.0052951,-0.0029949,0.0072371,0.0017572,0.0026983,-0.00097426,0,0,0.047204,-0.0097874,0,-0.020265,0,0,0,0.0074052,0.0015891,0.0026983,-9.787,0.0038975,0.0053484,6.7327e-09,0.12,0.78,0
0.0062475,-0.0033851,0.0072663,0.0015792,0.0026537,-0.00086701,0,0,0.047971,-0.011174,0,-0.018034,0,0,0,0.0073955,0.00145,0.0026537,-8.4785,0.0038331,0.0054444,6.9423e-09,0.14,0.78,0
0.0072139,-0.0037336,0.0072828,0.0014176,0.0026101,-0.00075395,0,0,0.048596,-0.012402,0,-0.015682,0,0,0,0.0073781,0.0013222,0.0026101,-7.2091,0.0037702,0.0055257,7.104e-09,0.16,0.78,0
0.0081914,-0.0040385,0.0072875,0.0012724,0.002568,-0.00063812,0,0,0.049083,-0.013474,0,-0.013273,0,0,0,0.0073545,0.0012054,0.002568,-5.9894,0.0037093,0.0055937,7.2227e-09,0.18,0.78,0
0.0091772,-0.0042989,0.007282,0.0011425,0.0025273,-0.00052203,0,0,0.049448,-0.014402,0,-0.010858,0,0,0,0.0073261,0.0010984,0.0025273,-4.8256,0.0036506,0.0056504,7.3057e-09,0.2,0.78,0
0.010169,-0.0045144,0.0072681,0.0010261,0.0024883,-0.00040763,0,0,0.04971,-0.015206,0,-0.0084788,0,0,0,0.0072946,0.00099957,0.0024883,-3.7207,0.0035941,0.0056984,7.3619e-09,0.22,0.78,0
0.011166,-0.0046858,0.0072478,0.00092068,0.0024506,-0.00029642,0,0,0.049892,-0.015911,0,-0.0061656,0,0,0,0.0072617,0.00090682,0.0024506,-2.6764,0.0035397,0.0057408,7.4002e-09,0.24,0.78,0
0.012165,-0.004814,0.0072233,0.00082365,0.0024141,-0.00018953,0,0,0.050016,-0.016541,0,-0.0039421,0,0,0,0.0072289,0.00081804,0.0024141,-1.6948,0.003487,0.0057805,7.4297e-09,0.26,0.78,0
0.013166,-0.0049008,0.0071966,0.0007323,0.0023787,-8.7901e-05,0,0,0.050106,-0.017122,0,-0.0018283,0,0,0,0.0071978,0.0007311,0.0023787,-0.77891,0.0034358,0.0058205,7.4584e-09,0.28,0.78,0
0.014169,-0.0049485,0.0071695,0.000644,0.002344,7.5431e-06,0,0,0.050185,-0.01768,0,0.0001569,0,0,0,0.0071695,0.00064399,0.002344,0.06623,0.0033859,0.0058633,7.4938e-09,0.3,0.78,0
0.015174,-0.0049596,0.0071438,0.00055639,0.0023101,9.5829e-05,0,0,0.050271,-0.018238,0,0.0019932,0,0,0,0.0071452,0.00055499,0.0023101,0.83327,0.0033367,0.0059114,7.5416e-09,0.32,0.78,0
0.01618,-0.0049375,0.0071209,0.00046743,0.0022765,0.00017583,0,0,0.050382,-0.018814,0,0.0036574,0,0,0,0.0071255,0.00046279,0.0022765,1.5128,0.0032883,0.0059664,7.606e-09,0.34,0.78,0
0.017189,-0.0048859,0.007102,0.0003756,0.0022433,0.00024626,0,0,0.050531,-0.019424,0,0.0051221,0,0,0,0.007111,0.0003666,0.0022433,2.0939,0.0032403,0.0060292,7.6894e-09,0.36,0.78,0
0.018201,-0.0048091,0.007088,0.00027999,0.0022104,0.00030563,0,0,0.050727,-0.020076,0,0.0063571,0,0,0,0.0071017,0.00026629,0.0022104,2.5653,0.0031928,0.0061003,7.792e-09,0.38,0.78,0
0.019218,-0.0047119,0.0070793,0.00018042,0.0021779,0.00035239,0,0,0.050974,-0.020774,0,0.0073297,0,0,0,0.0070973,0.00016247,0.0021779,2.9165,0.0031459,0.0061787,7.9119e-09,0.4,0.78,0
0.02024,-0.0045998,0.007076,7.7577e-05,0.0021461,0.00038499,0,0,0.051271,-0.021512,0,0.0080078,0,0,0,0.0070971,5.6461e-05,0.0021461,3.1393,0.0030999,0.0062629,8.0451e-09,0.42,0.78,0
0.021269,-0.0044784,0.0070775,-2.6992e-05,0.0021152,0.00040208,0,0,0.051608,-0.022278,0,0.0083634,0,0,0,0.0071002,-4.9676e-05,0.0021152,3.229,0.0030552,0.0063505,8.1861e-09,0.44,0.78,0
0.022305,-0.0043541,0.0070831,-0.00013089,0.0020857,0.0004027,0,0,0.051973,-0.023052,0,0.0083761,0,0,0,0.0071055,-0.0001533,0.0020857,3.1852,0.0030126,0.0064382,8.3281e-09,0.46,0.78,0
0.023348,-0.004233,0.0070914,-0.00023103,0.0020581,0.00038643,0,0,0.052346,-0.023807,0,0.0080378,0,0,0,0.0071117,-0.00025136,0.0020581,3.0126,0.0029728,0.0065226,8.4635e-09,0.48,0.78,0
0.024398,-0.0041215,0.0071009,-0.00032385,0.0020331,0.00035363,0,0,0.052705,-0.024512,0,0.0073555,0,0,0,0.0071177,-0.00034066,0.0020331,2.7207,0.0029367,0.0065998,8.5852e-09,0.5,0.78,0
0.025456,-0.0040252,0.0071101,-0.00040568,0.0020113,0.00030544,0,0,0.053027,-0.025137,0,0.0063532,0,0,0,0.0071225,-0.00041808,0.0020113,2.3234,0.0029052,0.0066665,8.6867e-09,0.52,0.78,0
0.02652,-0.0039496,0.0071172,-0.00047306,0.0019932,0.00024385,0,0,0.053289,-0.02565,0,0.0050721,0,0,0,0.0071251,-0.00048089,0.0019932,1.8382,0.0028791,0.0067196,8.763e-09,0.54,0.78,0
0.027588,-0.003899,0.007121,-0.00052308,0.0019794,0.00017155,0,0,0.053473,-0.026026,0,0.0035682,0,0,0,0.0071249,-0.00052692,0.0019794,1.285,0.0028591,0.0067568,8.8104e-09,0.56,0.78,0
0.028658,-0.0038767,0.0071204,-0.0005536,0.00197,9.1808e-05,0,0,0.053564,-0.026246,0,0.0019096,0,0,0,0.0071215,-0.0005547,0.00197,0.68533,0.0028456,0.0067763,8.8266e-09,0.58,0.78,0
0.02973,-0.0038848,0.0071147,-0.0005635,0.0019653,8.2597e-06,0,0,0.053553,-0.0263,0,0.0001718,0,0,0,0.0071147,-0.00056351,0.0019653,0.061635,0.0028388,0.0067774,8.8109e-09,0.6,0.78,0
0.030801,-0.003924,0.0071037,-0.00055271,0.0019653,-7.5319e-05,0,0,0.053439,-0.026187,0,-0.0015666,0,0,0,0.0071044,-0.00055345,0.0019653,-0.56357,0.0028388,0.0067601,8.7635e-09,0.62,0.78,0
0.031868,-0.0039937,0.0070877,-0.00052224,0.0019696,-0.00015524,0,0,0.053228,-0.025916,0,-0.0032289,0,0,0,0.0070909,-0.0005254,0.0019696,-1.1681,0.002845,0.0067253,8.6859e-09,0.64,0.78,0
0.03293,-0.0040923,0.0070674,-0.00047414,0.001978,-0.00022811,0,0,0.05293,-0.025502,0,-0.0047447,0,0,0,0.0070743,-0.00048103,0.001978,-1.7309,0.0028571,0.0066747,8.5809e-09,0.66,0.78,0
0.033985,-0.0042165,0.007044,-0.00041137,0.0019898,-0.0002911,0,0,0.052563,-0.024972,0,-0.006055,0,0,0,0.0070553,-0.00042272,0.0019898,-2.2327,0.0028741,0.0066106,8.4523e-09,0.68,0.78,0
0.035032,-0.0043627,0.0070186,-0.00033753,0.0020043,-0.00034208,0,0,0.052149,-0.024355,0,-0.0071153,0,0,0,0.0070345,-0.0003534,0.0020043,-2.6568,0.0028951,0.0065361,8.3055e-09,0.7,0.78,0
0.036071,-0.0045263,0.0069929,-0.0002566,0.0020209,-0.00037975,0,0,0.051709,-0.023686,0,-0.0078988,0,0,0,0.0070127,-0.00027644,0.0020209,-2.9904,0.0029191,0.0064548,8.1465e-09,0.72,0.78,0
0.037101,-0.0047022,0.0069682,-0.00017254,0.0020387,-0.00040368,0,0,0.051267,-0.022997,0,-0.0083965,0,0,0,0.006991,-0.00019529,0.0020387,-3.2253,0.0029448,0.0063702,7.9821e-09,0.74,0.78,0
0.038122,-0.0048855,0.0069458,-8.9029e-05,0.002057,-0.00041421,0,0,0.050843,-0.022319,0,-0.0086156,0,0,0,0.0069701,-0.00011333,0.002057,-3.3581,0.0029713,0.0062859,7.8191e-09,0.76,0.78,0
0.039134,-0.0050712,0.0069267,-9.1374e-06,0.0020753,-0.00041236,0,0,0.050455,-0.021678,0,-0.008577,0,0,0,0.0069511,-3.3567e-05,0.0020753,-3.3905,0.0029976,0.0062051,7.6638e-09,0.78,0.78,0
0.04014,-0.0052545,0.0069114,6.4763e-05,0.0020928,-0.00039957,0,0,0.050113,-0.021092,0,-0.008311,0,0,0,0.0069346,4.1524e-05,0.0020928,-3.3287,0.003023,0.0061305,7.5214e-09,0.8,0.78,0
0.041139,-0.0054314,0.0069001,0.00013107,0.0021093,-0.00037754,0,0,0.049824,-0.020574,0,-0.0078528,0,0,0,0.0069211,0.00011008,0.0021093,-3.1825,0.0030468,0.0060638,7.3957e-09,0.82,0.78,0
0.042133,-0.0055981,0.0068926,0.00018889,0.0021244,-0.00034804,0,0,0.049589,-0.02013,0,-0.0072393,0,0,0,0.0069106,0.00017087,0.0021244,-2.964,0.0030687,0.0060062,7.2886e-09,0.84,0.78,0
0.043122,-0.0057514,0.0068886,0.00023795,0.002138,-0.00031277,0,0,0.049406,-0.01976,0,-0.0065055,0,0,0,0.0069032,0.00022327,0.002138,-2.6866,0.0030882,0.005958,7.2009e-09,0.86,0.78,0
0.044109,-0.0058887,0.0068873,0.00027844,0.0021497,-0.00027322,0,0,0.049271,-0.019461,0,-0.005683,0,0,0,0.0068985,0.00026716,0.0021497,-2.3634,0.0031051,0.0059191,7.1317e-09,0.88,0.78,0
0.045093,-0.006008,0.006888,0.0003109,0.0021596,-0.00023068,0,0,0.049174,-0.019227,0,-0.0047981,0,0,0,0.006896,0.00030282,0.0021596,-2.0063,0.0031195,0.0058886,7.0793e-09,0.9,0.78,0
0.046076,-0.0061076,0.0068899,0.00033602,0.0021678,-0.00018614,0,0,0.04911,-0.01905,0,-0.0038718,0,0,0,0.0068952,0.00033074,0.0021678,-1.6256,0.0031312,0.0058658,7.0415e-09,0.92,0.78,0
0.047058,-0.0061862,0.0068922,0.00035456,0.002174,-0.00014037,0,0,0.049069,-0.018922,0,-0.0029196,0,0,0,0.0068953,0.00035155,0.002174,-1.2294,0.0031403,0.0058494,7.0155e-09,0.94,0.78,0
0.048039,-0.0062429,0.0068944,0.00036724,0.0021785,-9.3875e-05,0,0,0.049046,-0.018837,0,-0.0019526,0,0,0,0.0068958,0.00036589,0.0021785,-0.82381,0.0031467,0.0058386,6.9989e-09,0.96,0.78,0
0.049019,-0.0062772,0.0068959,0.0003746,0.0021812,-4.7014e-05,0,0,0.049034,-0.018788,0,-0.0009779,0,0,0,0.0068963,0.00037426,0.0021812,-0.41303,0.0031506,0.0058324,6.9899e-09,0.98,0.78,0
0.05,-0.0062887,0.0068965,0.00037701,0.0021821,-2.7562e-05,0,0,0.04903,-0.018772,0,-0.00057328,0,0,0,0.0068966,0.00037689,0.0021821,-0.24222,0.0031518,0.0058306,6.9875e-09,1,0.78,0
0,0,0.0069361,0.0029726,0.0029726,-0.0014044,0,0,0.041221,8.6736e-19,0,-0.029212,0,0,0,0.0073833,0.0025254,0.0029726,-17.662,0.0042938,0.0046505,5.0048e-09,0,0.8,0
0.00082441,-0.00058425,0.0069181,0.0027375,0.0028967,-0.001394,0,0,0.041823,-0.0016557,0,-0.028996,0,0,0,0.0073403,0.0023153,0.0028967,-16.85,0.004184,0.004761,5.265e-09,0.02,0.8,0
0.0016729,-0.0011566,0.0069941,0.0025218,0.0028548,-0.0013565,0,0,0.043049,-0.0034633,0,-0.028216,0,0,0,0.0073734,0.0021425,0.0028548,-15.621,0.0041235,0.0049137,5.6639e-09,0.04,0.8,0
0.0025464,-0.0017107,0.0070671,0.0022952,0.0028087,-0.0012979,0,0,0.044288,-0.0053406,0,-0.026997,0,0,0,0.0073973,0.001965,0.0028087,-14.273,0.004057,0.0050635,6.0483e-09,0.06,0.8,0
0.0034444,-0.0022399,0.0071326,0.0020679,0.0027602,-0.0012184,0,0,0.045474,-0.0071992,0,-0.025343,0,0,0,0.0074105,0.0017901,0.0027602,-12.847,0.0039869,0.0052036,6.3972e-09,0.08,0.8,0
0.0043653,-0.0027375,0.0071869,0.0018492,0.0027108,-0.0011206,0,0,0.046551,-0.0089613,0,-0.023308,0,0,0,0.0074126,0.0016235,0.0027108,-11.388,0.0039156,0.0053293,6.6961e-09,0.1,0.8,0
0.0053065,-0.0031978,0.0072277,0.0016454,0.0026619,-0.0010086,0,0,0.047483,-0.010571,0,-0.020979,0,0,0,0.0074043,0.0014688,0.0026619,-9.9339,0.003845,0.005438,6.9378e-09,0.12,0.8,0
0.0062647,-0.0036161,0.007254,0.0014606,0.0026144,-0.00088729,0,0,0.048252,-0.011999,0,-0.018456,0,0,0,0.0073868,0.0013277,0.0026144,-8.5152,0.0037763,0.0055292,7.1224e-09,0.14,0.8,0
0.0072365,-0.0039894,0.0072666,0.0012959,0.0025687,-0.00076118,0,0,0.048857,-0.013238,0,-0.015833,0,0,0,0.0073621,0.0012004,0.0025687,-7.1521,0.0037104,0.0056042,7.2555e-09,0.16,0.8,0
0.008219,-0.0043158,0.0072669,0.0011507,0.0025253,-0.00063408,0,0,0.049313,-0.014296,0,-0.013189,0,0,0,0.007332,0.0010856,0.0025253,-5.8569,0.0036476,0.0056654,7.3456e-09,0.18,0.8,0
0.0092091,-0.0045945,0.0072573,0.001023,0.0024841,-0.00050889,0,0,0.049641,-0.015195,0,-0.010585,0,0,0,0.0072986,0.00098178,0.0024841,-4.636,0.0035882,0.0057157,7.4031e-09,0.2,0.8,0
0.010205,-0.0048259,0.0072401,0.00091047,0.0024452,-0.0003877,0,0,0.049868,-0.015961,0,-0.0080641,0,0,0,0.0072638,0.00088681,0.0024452,-3.492,0.0035319,0.0057582,7.4381e-09,0.22,0.8,0
0.011204,-0.005011,0.0072178,0.00081006,0.0024084,-0.00027194,0,0,0.050018,-0.016622,0,-0.0056563,0,0,0,0.0072293,0.00079854,0.0024084,-2.4258,0.0034787,0.005796,7.4604e-09,0.24,0.8,0
0.012205,-0.0051515,0.0071926,0.00071888,0.0023734,-0.00016262,0,0,0.050119,-0.017207,0,-0.0033824,0,0,0,0.0071966,0.0007148,0.0023734,-1.438,0.0034283,0.0058322,7.4789e-09,0.26,0.8,0
0.013208,-0.0052496,0.0071664,0.00063411,0.0023402,-6.0492e-05,0,0,0.050193,-0.017743,0,-0.0012582,0,0,0,0.007167,0.00063355,0.0023402,-0.53052,0.0033802,0.0058693,7.5007e-09,0.28,0.8,0
0.014213,-0.005308,0.0071412,0.00055316,0.0023083,3.3739e-05,0,0,0.050262,-0.018253,0,0.00070177,0,0,0,0.0071414,0.00055298,0.0023083,0.29341,0.0033342,0.0059096,7.5319e-09,0.3,0.8,0
0.015219,-0.0053298,0.0071183,0.00047377,0.0022776,0.00011934,0,0,0.050343,-0.01876,0,0.0024822,0,0,0,0.0071204,0.00047163,0.0022776,1.0286,0.0032899,0.0059549,7.577e-09,0.32,0.8,0
0.016227,-0.0053187,0.0070989,0.0003941,0.0022479,0.00019545,0,0,0.05045,-0.01928,0,0.0040654,0,0,0,0.0071046,0.00038841,0.0022479,1.6684,0.003247,0.0060063,7.6387e-09,0.34,0.8,0
0.017237,-0.0052787,0.007084,0.00031279,0.002219,0.00026109,0,0,0.050595,-0.019825,0,0.0054307,0,0,0,0.007094,0.00030274,0.002219,2.2049,0.0032053,0.0060646,7.7183e-09,0.36,0.8,0
0.018251,-0.0052142,0.007074,0.00022906,0.0021909,0.00031515,0,0,0.050784,-0.020403,0,0.0065551,0,0,0,0.0070884,0.00021458,0.0021909,2.6305,0.0031646,0.0061295,7.8152e-09,0.38,0.8,0
0.019268,-0.0051301,0.0070691,0.00014279,0.0021636,0.00035646,0,0,0.051018,-0.021016,0,0.0074143,0,0,0,0.0070874,0.00012449,0.0021636,2.9383,0.0031252,0.0062002,7.9269e-09,0.4,0.8,0
0.020291,-0.0050318,0.0070692,5.4557e-05,0.0021371,0.00038391,0,0,0.051293,-0.021659,0,0.0079854,0,0,0,0.0070901,3.3608e-05,0.0021371,3.1234,0.003087,0.006275,8.0498e-09,0.42,0.8,0
0.02132,-0.0049247,0.0070736,-3.4348e-05,0.0021118,0.0003966,0,0,0.051603,-0.02232,0,0.0082492,0,0,0,0.0070956,-5.6408e-05,0.0021118,3.1837,0.0030503,0.0063518,8.1786e-09,0.44,0.8,0
0.022355,-0.0048147,0.0070814,-0.00012198,0.0020878,0.00039393,0,0,0.051933,-0.022982,0,0.0081938,0,0,0,0.0071029,-0.00014346,0.0020878,3.1209,0.0030157,0.006428,8.3074e-09,0.46,0.8,0
0.023397,-0.0047075,0.0070913,-0.00020588,0.0020656,0.00037583,0,0,0.052267,-0.023624,0,0.0078172,0,0,0,0.0071107,-0.00022519,0.0020656,2.9405,0.0029837,0.0065006,8.4298e-09,0.48,0.8,0
0.024446,-0.0046089,0.0071021,-0.00028324,0.0020456,0.0003428,0,0,0.052587,-0.02422,0,0.0071302,0,0,0,0.0071179,-0.00029912,0.0020456,2.6519,0.0029548,0.0065665,8.5396e-09,0.5,0.8,0
0.025501,-0.0045241,0.007112,-0.00035115,0.0020283,0.00029602,0,0,0.052871,-0.024746,0,0.0061571,0,0,0,0.0071238,-0.00036287,0.0020283,2.2678,0.0029297,0.0066231,8.6313e-09,0.52,0.8,0
0.026561,-0.0044579,0.0071198,-0.0004069,0.0020139,0.00023732,0,0,0.053102,-0.025176,0,0.0049362,0,0,0,0.0071273,-0.00041437,0.0020139,1.8041,0.0029089,0.0066679,8.7002e-09,0.54,0.8,0
0.027625,-0.0044141,0.0071242,-0.00044817,0.0020028,0.00016914,0,0,0.053263,-0.02549,0,0.003518,0,0,0,0.007128,-0.00045194,0.0020028,1.2789,0.002893,0.0066988,8.743e-09,0.56,0.8,0
0.028692,-0.0043958,0.0071242,-0.00047329,0.0019953,9.4367e-05,0,0,0.053341,-0.025673,0,0.0019628,0,0,0,0.0071254,-0.00047446,0.0019953,0.71152,0.0028821,0.0067147,8.7574e-09,0.58,0.8,0
0.029759,-0.0044049,0.0071192,-0.00048136,0.0019913,1.6217e-05,0,0,0.05333,-0.025716,0,0.00033732,0,0,0,0.0071192,-0.0004814,0.0019913,0.12225,0.0028764,0.0067149,8.7425e-09,0.6,0.8,0
0.030825,-0.004442,0.007109,-0.00047234,0.001991,-6.1993e-05,0,0,0.053227,-0.025619,0,-0.0012894,0,0,0,0.0071095,-0.00047285,0.001991,-0.46847,0.0028759,0.0066993,8.6984e-09,0.62,0.8,0
0.031888,-0.0045067,0.0070938,-0.00044705,0.001994,-0.00013702,0,0,0.053038,-0.025387,0,-0.00285,0,0,0,0.0070963,-0.00044954,0.001994,-1.0406,0.0028803,0.0066688,8.6266e-09,0.64,0.8,0
0.032946,-0.0045976,0.0070743,-0.00040715,0.0020002,-0.00020589,0,0,0.052771,-0.025036,0,-0.0042825,0,0,0,0.00708,-0.00041281,0.0020002,-1.5752,0.0028891,0.0066246,8.5293e-09,0.66,0.8,0
0.033999,-0.0047121,0.0070514,-0.00035499,0.0020089,-0.00026608,0,0,0.052442,-0.024585,0,-0.0055346,0,0,0,0.007061,-0.00036453,0.0020089,-2.0549,0.0029018,0.0065686,8.4102e-09,0.68,0.8,0
0.035044,-0.0048469,0.0070263,-0.00029344,0.0020198,-0.00031568,0,0,0.052067,-0.024058,0,-0.0065661,0,0,0,0.0070398,-0.00030703,0.0020198,-2.4649,0.0029176,0.0065035,8.2738e-09,0.7,0.8,0
0.036081,-0.0049981,0.0070001,-0.00022566,0.0020323,-0.00035342,0,0,0.051665,-0.023483,0,-0.0073512,0,0,0,0.0070174,-0.0002429,0.0020323,-2.7935,0.0029356,0.0064319,8.1254e-09,0.72,0.8,0
0.03711,-0.0051612,0.0069743,-0.00015483,0.0020458,-0.00037878,0,0,0.051256,-0.022887,0,-0.0078785,0,0,0,0.0069944,-0.0001749,0.0020458,-3.0328,0.0029551,0.0063568,7.9707e-09,0.74,0.8,0
0.038131,-0.0053318,0.0069499,-8.3917e-05,0.0020598,-0.00039186,0,0,0.050857,-0.022295,0,-0.0081507,0,0,0,0.0069717,-0.00010568,0.0020598,-3.1789,0.0029753,0.0062811,7.8155e-09,0.76,0.8,0
0.039145,-0.0055054,0.0069279,-1.5482e-05,0.0020737,-0.00039334,0,0,0.050484,-0.021728,0,-0.0081815,0,0,0,0.0069501,-3.7693e-05,0.0020737,-3.232,0.0029954,0.0062076,7.6654e-09,0.78,0.8,0
0.040151,-0.0056777,0.0069089,4.845e-05,0.0020872,-0.00038431,0,0,0.050146,-0.021203,0,-0.0079936,0,0,0,0.0069304,2.6989e-05,0.0020872,-3.1962,0.0030149,0.0061383,7.5248e-09,0.8,0.8,0
0.041151,-0.0058446,0.0068933,0.00010643,0.0020999,-0.00036611,0,0,0.049851,-0.020732,0,-0.007615,0,0,0,0.006913,8.6738e-05,0.0020999,-3.0788,0.0030332,0.0060752,7.3975e-09,0.82,0.8,0
0.042145,-0.0060027,0.006881,0.00015757,0.0021116,-0.0003402,0,0,0.049602,-0.020322,0,-0.0070761,0,0,0,0.0068982,0.0001404,0.0021116,-2.8893,0.00305,0.0060193,7.2857e-09,0.84,0.8,0
0.043135,-0.0061488,0.0068719,0.00020148,0.002122,-0.00030804,0,0,0.049399,-0.019974,0,-0.0064072,0,0,0,0.0068861,0.00018729,0.002122,-2.6384,0.0030651,0.0059713,7.1906e-09,0.86,0.8,0
0.044121,-0.0062802,0.0068656,0.00023818,0.0021311,-0.00027098,0,0,0.049238,-0.019687,0,-0.0056365,0,0,0,0.0068766,0.00022712,0.0021311,-2.3375,0.0030783,0.0059313,7.1122e-09,0.88,0.8,0
0.045104,-0.0063948,0.0068615,0.00026796,0.0021388,-0.00023023,0,0,0.049116,-0.019457,0,-0.0047888,0,0,0,0.0068696,0.00025992,0.0021388,-1.9974,0.0030894,0.005899,7.0497e-09,0.9,0.8,0
0.046085,-0.0064908,0.0068592,0.00029127,0.0021451,-0.00018679,0,0,0.049026,-0.01928,0,-0.0038851,0,0,0,0.0068645,0.00028597,0.0021451,-1.6277,0.0030985,0.0058739,7.0018e-09,0.92,0.8,0
0.047065,-0.0065668,0.0068581,0.00030868,0.00215,-0.00014147,0,0,0.048964,-0.01915,0,-0.0029425,0,0,0,0.0068611,0.00030562,0.00215,-1.2368,0.0031056,0.0058554,6.9669e-09,0.94,0.8,0
0.048044,-0.0066218,0.0068576,0.00032068,0.0021535,-9.4917e-05,0,0,0.048923,-0.019061,0,-0.0019743,0,0,0,0.006859,0.0003193,0.0021535,-0.83171,0.0031106,0.0058427,6.9434e-09,0.96,0.8,0
0.049022,-0.0066551,0.0068575,0.00032769,0.0021556,-4.763e-05,0,0,0.0489,-0.01901,0,-0.0009907,0,0,0,0.0068579,0.00032734,0.0021556,-0.4179,0.0031136,0.0058353,6.9299e-09,0.98,0.8,0
0.05,-0.0066662,0.0068575,0.00033,0.0021563,-2.6764e-05,0,0,0.048893,-0.018993,0,-0.00055669,0,0,0,0.0068576,0.00032989,0.0021563,-0.23492,0.0031146,0.0058331,6.9259e-09,1,0.8,0
0,0,0.0069305,0.0029702,0.0029702,-0.0014875,0,0,0.041187,6.5052e-19,0,-0.03094,0,0,0,0.007427,0.0024737,0.0029702,-18.457,0.0042903,0.0047246,5.2154e-09,0,0.82,0
0.00082374,-0.00061881,0.0069108,0.0027119,0.0028868,-0.0014759,0,0,0.041849,-0.0018191,0,-0.030699,0,0,0,0.0073777,0.002245,0.0028868,-17.553,0.0041698,0.0048437,5.4927e-09,0.02,0.82,0
0.001674,-0.001229,0.0069933,0.0024717,0.0028395,-0.0014376,0,0,0.043199,-0.003825,0,-0.029902,0,0,0,0.0074116,0.0020533,0.0028395,-16.226,0.0041015,0.0050117,5.9323e-09,0.04,0.82,0
0.0025517,-0.0018225,0.0070713,0.0022195,0.0027873,-0.0013722,0,0,0.044554,-0.0059044,0,-0.028542,0,0,0,0.0074326,0.0018583,0.0027873,-14.747,0.004026,0.0051727,6.3426e-09,0.06,0.82,0
0.0034562,-0.0023905,0.0071394,0.0019694,0.0027327,-0.0012806,0,0,0.045831,-0.0079376,0,-0.026638,0,0,0,0.0074393,0.0016696,0.0027327,-13.177,0.0039472,0.0053184,6.6977e-09,0.08,0.82,0
0.0043849,-0.0029245,0.0071932,0.001733,0.0026779,-0.0011674,0,0,0.046959,-0.0098262,0,-0.024282,0,0,0,0.0074323,0.0014939,0.0026779,-11.576,0.003868,0.0054439,6.983e-09,0.1,0.82,0
0.0053345,-0.0034178,0.0072303,0.0015179,0.0026245,-0.0010389,0,0,0.047901,-0.011508,0,-0.02161,0,0,0,0.0074134,0.0013348,0.0026245,-9.9942,0.0037909,0.0055473,7.1955e-09,0.12,0.82,0
0.006301,-0.003865,0.0072507,0.0013275,0.0025735,-0.00090185,0,0,0.048643,-0.012958,0,-0.018758,0,0,0,0.007385,0.0011932,0.0025735,-8.468,0.0037172,0.00563,7.3415e-09,0.14,0.82,0
0.0072803,-0.0042631,0.0072561,0.0011619,0.0025254,-0.00076203,0,0,0.049199,-0.01418,0,-0.01585,0,0,0,0.0073499,0.001068,0.0025254,-7.0204,0.0036478,0.0056948,7.4324e-09,0.16,0.82,0
0.0082689,-0.0046104,0.007249,0.0010192,0.0024805,-0.00062392,0,0,0.049593,-0.015197,0,-0.012978,0,0,0,0.0073109,0.00095733,0.0024805,-5.6633,0.0035829,0.0057455,7.4819e-09,0.18,0.82,0
0.009264,-0.0049067,0.0072327,0.00089645,0.0024387,-0.0004906,0,0,0.049857,-0.01604,0,-0.010205,0,0,0,0.0072705,0.00085869,0.0024387,-4.4014,0.0035226,0.0057859,7.5032e-09,0.2,0.82,0
0.010263,-0.0051529,0.0072101,0.0007902,0.0024001,-0.00036402,0,0,0.050024,-0.016743,0,-0.0075717,0,0,0,0.0072307,0.00076962,0.0024001,-3.2349,0.0034668,0.0058198,7.5085e-09,0.22,0.82,0
0.011265,-0.0053507,0.007184,0.00069699,0.0023643,-0.00024533,0,0,0.050125,-0.01734,0,-0.0051028,0,0,0,0.0071933,0.00068773,0.0023643,-2.1627,0.0034151,0.0058503,7.5078e-09,0.24,0.82,0
0.012268,-0.0055023,0.0071568,0.00061361,0.0023311,-0.00013519,0,0,0.050187,-0.017862,0,-0.002812,0,0,0,0.0071596,0.00061082,0.0023311,-1.1831,0.0033672,0.0058805,7.5092e-09,0.26,0.82,0
0.013272,-0.0056105,0.0071303,0.00053712,0.0023002,-3.4051e-05,0,0,0.050233,-0.018336,0,-0.00070827,0,0,0,0.0071305,0.00053694,0.0023002,-0.2959,0.0033226,0.0059125,7.519e-09,0.28,0.82,0
0.014278,-0.0056786,0.0071062,0.00046496,0.0022713,5.7718e-05,0,0,0.050282,-0.018786,0,0.0012005,0,0,0,0.0071067,0.00046445,0.0022713,0.4979,0.0032808,0.0059483,7.5418e-09,0.3,0.82,0
0.015284,-0.00571,0.0070855,0.00039497,0.0022441,0.00013968,0,0,0.05035,-0.019231,0,0.0029054,0,0,0,0.0070884,0.00039206,0.0022441,1.1955,0.0032415,0.0059891,7.5806e-09,0.32,0.82,0
0.016292,-0.0057087,0.0070692,0.00032547,0.0022184,0.00021129,0,0,0.050448,-0.019686,0,0.0043948,0,0,0,0.0070758,0.00031886,0.0022184,1.7928,0.0032044,0.0060357,7.6369e-09,0.34,0.82,0
0.017302,-0.0056789,0.0070578,0.00025524,0.0021939,0.00027187,0,0,0.050585,-0.020162,0,0.0056548,0,0,0,0.0070687,0.0002444,0.0021939,2.285,0.003169,0.0060883,7.7107e-09,0.36,0.82,0
0.018315,-0.0056252,0.0070516,0.0001836,0.0021706,0.00032064,0,0,0.050763,-0.020664,0,0.0066692,0,0,0,0.0070665,0.00016866,0.0021706,2.6672,0.0031353,0.0061465,7.8008e-09,0.38,0.82,0
0.019332,-0.0055526,0.0070504,0.00011043,0.0021482,0.00035679,0,0,0.050982,-0.021193,0,0.0074213,0,0,0,0.0070687,9.214e-05,0.0021482,2.9353,0.003103,0.0062093,7.9045e-09,0.4,0.82,0
0.020354,-0.0054661,0.0070538,3.6218e-05,0.002127,0.00037959,0,0,0.051239,-0.021744,0,0.0078955,0,0,0,0.0070743,1.5746e-05,0.002127,3.0872,0.0030724,0.0062752,8.0178e-09,0.42,0.82,0
0.021382,-0.0053712,0.0070611,-3.8009e-05,0.0021069,0.00038846,0,0,0.051523,-0.022307,0,0.0080799,0,0,0,0.0070823,-5.9201e-05,0.0021069,3.1227,0.0030433,0.0063422,8.1361e-09,0.44,0.82,0
0.022415,-0.0052734,0.0070713,-0.0001107,0.0020882,0.00038312,0,0,0.051825,-0.022868,0,0.0079688,0,0,0,0.0070917,-0.00013108,0.0020882,3.0449,0.0030163,0.0064081,8.254e-09,0.46,0.82,0
0.023455,-0.005178,0.0070832,-0.00017989,0.002071,0.00036371,0,0,0.052127,-0.023409,0,0.0075651,0,0,0,0.0071014,-0.00019806,0.002071,2.8596,0.0029914,0.0064705,8.3658e-09,0.48,0.82,0
0.0245,-0.0050903,0.0070954,-0.00024339,0.0020556,0.00033086,0,0,0.052414,-0.023909,0,0.0068818,0,0,0,0.0071103,-0.00025827,0.0020556,2.5761,0.0029692,0.0065268,8.4662e-09,0.5,0.82,0
0.025551,-0.0050151,0.0071065,-0.00029893,0.0020423,0.00028573,0,0,0.052668,-0.024349,0,0.0059432,0,0,0,0.0071175,-0.00030993,0.0020423,2.2063,0.00295,0.0065749,8.5503e-09,0.52,0.82,0
0.026607,-0.0049567,0.0071153,-0.00034437,0.0020313,0.00023004,0,0,0.052874,-0.024707,0,0.0047848,0,0,0,0.0071224,-0.00035146,0.0020313,1.7646,0.0029341,0.0066127,8.6139e-09,0.54,0.82,0
0.027666,-0.0049186,0.0071207,-0.00037792,0.0020228,0.00016597,0,0,0.053018,-0.024968,0,0.0034522,0,0,0,0.0071243,-0.00038159,0.0020228,1.2673,0.0029219,0.0066387,8.6538e-09,0.56,0.82,0
0.028728,-0.0049036,0.0071216,-0.00039827,0.002017,9.61e-05,0,0,0.053088,-0.025119,0,0.0019989,0,0,0,0.0071228,-0.0003995,0.002017,0.73205,0.0029135,0.0066519,8.668e-09,0.58,0.82,0
0.02979,-0.0049134,0.0071177,-0.00040471,0.0020139,2.3243e-05,0,0,0.053079,-0.025153,0,0.00048346,0,0,0,0.0071177,-0.00040479,0.0020139,0.17704,0.0029089,0.0066516,8.6554e-09,0.6,0.82,0
0.030851,-0.0049487,0.0071086,-0.00039722,0.0020134,-4.968e-05,0,0,0.05299,-0.025071,0,-0.0010333,0,0,0,0.0071089,-0.00039755,0.0020134,-0.37921,0.0029083,0.0066379,8.616e-09,0.62,0.82,0
0.031909,-0.0050092,0.0070946,-0.00037646,0.0020154,-0.00011982,0,0,0.052823,-0.024876,0,-0.0024923,0,0,0,0.0070965,-0.00037839,0.0020154,-0.91862,0.0029112,0.0066114,8.5511e-09,0.64,0.82,0
0.032964,-0.0050937,0.0070762,-0.00034374,0.0020197,-0.00018458,0,0,0.052587,-0.02458,0,-0.0038392,0,0,0,0.0070808,-0.00034833,0.0020197,-1.4241,0.0029174,0.0065732,8.4626e-09,0.66,0.82,0
0.034013,-0.0051999,0.0070542,-0.00030092,0.002026,-0.00024169,0,0,0.052293,-0.0242,0,-0.0050272,0,0,0,0.0070621,-0.00030885,0.002026,-1.8801,0.0029264,0.0065248,8.3536e-09,0.68,0.82,0
0.035056,-0.005325,0.0070296,-0.00025025,0.0020338,-0.00028943,0,0,0.051956,-0.023754,0,-0.0060201,0,0,0,0.0070411,-0.00026174,0.0020338,-2.2732,0.0029377,0.0064681,8.2281e-09,0.7,0.82,0
0.036091,-0.0054656,0.0070035,-0.00019424,0.0020428,-0.0003266,0,0,0.051591,-0.023265,0,-0.0067932,0,0,0,0.0070183,-0.00020903,0.0020428,-2.5927,0.0029507,0.0064055,8.0906e-09,0.72,0.82,0
0.037119,-0.0056177,0.006977,-0.00013541,0.0020525,-0.00035259,0,0,0.051215,-0.022754,0,-0.007334,0,0,0,0.0069945,-0.00015285,0.0020525,-2.8312,0.0029647,0.0063392,7.946e-09,0.74,0.82,0
0.03814,-0.0057773,0.0069513,-7.6141e-05,0.0020625,-0.00036736,0,0,0.050843,-0.022242,0,-0.0076412,0,0,0,0.0069704,-9.5293e-05,0.0020625,-2.9844,0.0029792,0.0062717,7.7994e-09,0.76,0.82,0
0.039153,-0.0059403,0.0069272,-1.8529e-05,0.0020726,-0.00037134,0,0,0.050487,-0.021748,0,-0.0077238,0,0,0,0.006947,-3.8325e-05,0.0020726,-3.0516,0.0029937,0.0062052,7.6556e-09,0.78,0.82,0
0.040159,-0.0061027,0.0069053,3.5726e-05,0.0020823,-0.00036532,0,0,0.050159,-0.021285,0,-0.0075986,0,0,0,0.0069247,1.6353e-05,0.0020823,-3.0355,0.0030078,0.0061417,7.5187e-09,0.8,0.82,0
0.041159,-0.0062607,0.0068862,8.5359e-05,0.0020915,-0.00035036,0,0,0.049865,-0.020863,0,-0.0072876,0,0,0,0.0069042,6.7356e-05,0.0020915,-2.9414,0.003021,0.0060828,7.3922e-09,0.82,0.82,0
0.042154,-0.0064109,0.00687,0.00012954,0.0020998,-0.00032768,0,0,0.049609,-0.020491,0,-0.0068158,0,0,0,0.0068859,0.00011365,0.0020998,-2.7767,0.0030331,0.0060297,7.2785e-09,0.84,0.82,0
0.043144,-0.0065503,0.0068567,0.00016785,0.0021074,-0.00029852,0,0,0.049393,-0.020171,0,-0.0062092,0,0,0,0.00687,0.00015455,0.0021074,-2.5503,0.003044,0.005983,7.1791e-09,0.86,0.82,0
0.04413,-0.0066762,0.0068461,0.00020017,0.0021139,-0.00026408,0,0,0.049215,-0.019903,0,-0.0054929,0,0,0,0.0068566,0.00018969,0.0021139,-2.2719,0.0030534,0.0059432,7.0948e-09,0.88,0.82,0
0.045112,-0.0067863,0.0068381,0.00022665,0.0021194,-0.00022549,0,0,0.049074,-0.019685,0,-0.0046901,0,0,0,0.0068458,0.00021896,0.0021194,-1.9511,0.0030614,0.0059104,7.0255e-09,0.9,0.82,0
0.046093,-0.0068788,0.0068322,0.00024757,0.0021239,-0.00018372,0,0,0.048966,-0.019514,0,-0.0038213,0,0,0,0.0068373,0.00024245,0.0021239,-1.597,0.0030679,0.0058842,6.9707e-09,0.92,0.82,0
0.047071,-0.0069522,0.006828,0.00026332,0.0021274,-0.00013962,0,0,0.048886,-0.019387,0,-0.0029041,0,0,0,0.006831,0.00026035,0.0021274,-1.2179,0.0030729,0.0058644,6.9294e-09,0.94,0.82,0
0.048048,-0.0070054,0.0068253,0.00027425,0.0021299,-9.3914e-05,0,0,0.048833,-0.019298,0,-0.0019534,0,0,0,0.0068267,0.0002729,0.0021299,-0.82115,0.0030765,0.0058506,6.9008e-09,0.96,0.82,0
0.049024,-0.0070376,0.0068238,0.00028067,0.0021314,-4.7198e-05,0,0,0.048802,-0.019247,0,-0.00098173,0,0,0,0.0068242,0.00028033,0.0021314,-0.41327,0.0030786,0.0058425,6.8839e-09,0.98,0.82,0
0.05,-0.0070484,0.0068233,0.00028279,0.0021318,-2.5944e-05,0,0,0.048792,-0.01923,0,-0.00053963,0,0,0,0.0068234,0.00028268,0.0021318,-0.22727,0.0030793,0.00584,6.8789e-09,1,0.82,0
0,0,0.0069452,0.0029765,0.0029765,-0.0015793,0,0,0.041274,1.0842e-19,0,-0.03285,0,0,0,0.007497,0.0024247,0.0029765,-19.258,0.0042994,0.0048201,5.4983e-09,0,0.84,0
0.00082548,-0.00065701,0.0069233,0.0026888,0.0028836,-0.0015659,0,0,0.042013,-0.0020262,0,-0.032572,0,0,0,0.0074395,0.0021726,0.0028836,-18.244,0.0041653,0.0049498,5.7977e-09,0.02,0.84,0
0.0016805,-0.0013096,0.0070131,0.0024163,0.0028288,-0.0015259,0,0,0.043516,-0.0042901,0,-0.031738,0,0,0,0.0074735,0.0019559,0.0028288,-16.79,0.0040861,0.005137,6.2902e-09,0.04,0.84,0
0.0025661,-0.0019469,0.0070961,0.0021311,0.0027682,-0.0014506,0,0,0.045011,-0.0066252,0,-0.030172,0,0,0,0.0074888,0.0017384,0.0027682,-15.149,0.0039985,0.005311,6.7292e-09,0.06,0.84,0
0.0034809,-0.0025574,0.0071652,0.0018533,0.0027055,-0.0013425,0,0,0.04638,-0.0088632,0,-0.027925,0,0,0,0.0074852,0.0015333,0.0027055,-13.408,0.003908,0.005461,7.0825e-09,0.08,0.84,0
0.0044213,-0.0031306,0.0072152,0.0015977,0.0026439,-0.0012095,0,0,0.047542,-0.01088,0,-0.025157,0,0,0,0.0074645,0.0013484,0.0026439,-11.649,0.0038189,0.0055823,7.338e-09,0.1,0.84,0
0.0053826,-0.0036581,0.0072444,0.0013723,0.002585,-0.0010611,0,0,0.048458,-0.012612,0,-0.022071,0,0,0,0.0074303,0.0011864,0.002585,-9.9349,0.0037339,0.0056753,7.5011e-09,0.12,0.84,0
0.0063596,-0.0041344,0.0072542,0.001179,0.00253,-0.00090648,0,0,0.049132,-0.01405,0,-0.018855,0,0,0,0.0073866,0.0010466,0.00253,-8.308,0.0036544,0.0057438,7.5879e-09,0.14,0.84,0
0.0073479,-0.0045566,0.0072479,0.0010159,0.0024791,-0.0007527,0,0,0.049595,-0.015217,0,-0.015656,0,0,0,0.0073375,0.00092632,0.0024791,-6.7902,0.003581,0.005793,7.6186e-09,0.16,0.84,0
0.0083435,-0.0049237,0.0072296,0.00087926,0.0024327,-0.00060453,0,0,0.049889,-0.016155,0,-0.012574,0,0,0,0.0072867,0.00082222,0.0024327,-5.3898,0.0035139,0.0058286,7.6127e-09,0.18,0.84,0
0.0093434,-0.0052361,0.0072036,0.00076448,0.0023904,-0.00046477,0,0,0.050057,-0.01691,0,-0.0096673,0,0,0,0.007237,0.00073111,0.0023904,-4.1072,0.0034528,0.0058553,7.587e-09,0.2,0.84,0
0.010346,-0.0054956,0.0071735,0.0006672,0.0023522,-0.00033486,0,0,0.050141,-0.017524,0,-0.0069651,0,0,0,0.0071907,0.00065001,0.0023522,-2.9385,0.0033976,0.0058775,7.5545e-09,0.22,0.84,0
0.011349,-0.0057046,0.0071422,0.00058342,0.0023177,-0.00021537,0,0,0.050175,-0.018037,0,-0.0044797,0,0,0,0.0071493,0.00057635,0.0023177,-1.8787,0.0033478,0.0058983,7.5248e-09,0.24,0.84,0
0.012353,-0.005866,0.0071121,0.00050963,0.0022865,-0.00010644,0,0,0.050186,-0.01848,0,-0.002214,0,0,0,0.0071138,0.00050792,0.0022865,-0.92338,0.0033028,0.0059205,7.505e-09,0.26,0.84,0
0.013357,-0.005983,0.0070848,0.00044286,0.0022583,-8.0532e-06,0,0,0.050195,-0.01888,0,-0.00016751,0,0,0,0.0070848,0.00044285,0.0022583,-0.069471,0.003262,0.0059458,7.4998e-09,0.28,0.84,0
0.014361,-0.0060594,0.0070615,0.0003806,0.0022326,7.9812e-05,0,0,0.05022,-0.019261,0,0.0016601,0,0,0,0.0070624,0.00037965,0.0022326,0.68434,0.0032249,0.0059758,7.5122e-09,0.3,0.84,0
0.015365,-0.0060991,0.0070431,0.00032084,0.0022092,0.00015706,0,0,0.050272,-0.019639,0,0.0032668,0,0,0,0.0070467,0.00031717,0.0022092,1.3377,0.003191,0.0060112,7.5435e-09,0.32,0.84,0
0.016372,-0.0061062,0.00703,0.00026203,0.0021876,0.00022345,0,0,0.050361,-0.020026,0,0.0046477,0,0,0,0.0070373,0.00025467,0.0021876,1.8889,0.0031599,0.0060523,7.594e-09,0.34,0.84,0
0.01738,-0.0060852,0.0070224,0.00020311,0.0021677,0.0002786,0,0,0.050489,-0.020431,0,0.005795,0,0,0,0.0070337,0.00019174,0.0021677,2.3356,0.003131,0.006099,7.6626e-09,0.36,0.84,0
0.018391,-0.0060408,0.0070202,0.00014346,0.0021491,0.00032204,0,0,0.050659,-0.020859,0,0.0066985,0,0,0,0.0070352,0.00012841,0.0021491,2.6754,0.0031042,0.0061507,7.7472e-09,0.38,0.84,0
0.019406,-0.0059779,0.007023,8.2974e-05,0.0021318,0.00035326,0,0,0.050869,-0.021308,0,0.0073477,0,0,0,0.007041,6.504e-05,0.0021318,2.9064,0.0030793,0.0062062,7.8448e-09,0.4,0.84,0
0.020426,-0.0059016,0.0070303,2.2023e-05,0.0021157,0.00037179,0,0,0.051112,-0.021774,0,0.0077332,0,0,0,0.0070499,2.3552e-06,0.0021157,3.0282,0.003056,0.0062642,7.9515e-09,0.42,0.84,0
0.021451,-0.005817,0.007041,-3.8573e-05,0.0021007,0.00037733,0,0,0.051379,-0.022249,0,0.0078485,0,0,0,0.0070611,-5.8628e-05,0.0021007,3.0423,0.0030344,0.0063229,8.0626e-09,0.44,0.84,0
0.022481,-0.0057294,0.0070542,-9.7598e-05,0.002087,0.00036984,0,0,0.051659,-0.02272,0,0.0076927,0,0,0,0.0070733,-0.00011667,0.002087,2.9524,0.0030145,0.0063802,8.1733e-09,0.46,0.84,0
0.023517,-0.0056439,0.0070686,-0.00015353,0.0020745,0.0003496,0,0,0.051938,-0.023172,0,0.0072716,0,0,0,0.0070855,-0.00017041,0.0020745,2.7649,0.0029965,0.0064342,8.2784e-09,0.48,0.84,0
0.024559,-0.0055653,0.0070829,-0.00020465,0.0020635,0.0003173,0,0,0.052202,-0.023589,0,0.0065999,0,0,0,0.0070967,-0.00021844,0.0020635,2.4884,0.0029806,0.0064827,8.3731e-09,0.5,0.84,0
0.025605,-0.0054981,0.0070959,-0.00024921,0.002054,0.00027409,0,0,0.052436,-0.023953,0,0.0057012,0,0,0,0.0071061,-0.00025942,0.002054,2.1341,0.0029669,0.0065241,8.4529e-09,0.52,0.84,0
0.026656,-0.0054462,0.0071063,-0.00028557,0.0020462,0.00022155,0,0,0.052625,-0.024251,0,0.0046082,0,0,0,0.0071129,-0.0002922,0.0020462,1.7152,0.0029557,0.0065565,8.5141e-09,0.54,0.84,0
0.02771,-0.0054128,0.0071131,-0.00031233,0.0020402,0.00016163,0,0,0.052758,-0.024467,0,0.0033619,0,0,0,0.0071166,-0.00031584,0.0020402,1.2464,0.002947,0.0065788,8.5536e-09,0.56,0.84,0
0.028766,-0.0054006,0.0071155,-0.00032848,0.0020361,9.6619e-05,0,0,0.052826,-0.024592,0,0.0020097,0,0,0,0.0071168,-0.00032974,0.0020361,0.7435,0.002941,0.0065902,8.5696e-09,0.58,0.84,0
0.029823,-0.005411,0.007113,-0.0003335,0.0020338,2.9e-05,0,0,0.052823,-0.02462,0,0.00060321,0,0,0,0.0071131,-0.00033361,0.0020338,0.22314,0.0029378,0.00659,8.5608e-09,0.6,0.84,0
0.030879,-0.0054448,0.0071053,-0.00032734,0.0020334,-3.8671e-05,0,0,0.052748,-0.024552,0,-0.00080436,0,0,0,0.0071055,-0.00032755,0.0020334,-0.29809,0.0029371,0.0065784,8.5273e-09,0.62,0.84,0
0.031933,-0.0055017,0.0070927,-0.00031055,0.0020346,-0.0001039,0,0,0.052604,-0.02439,0,-0.0021611,0,0,0,0.0070942,-0.00031201,0.0020346,-0.8039,0.0029389,0.0065558,8.4698e-09,0.64,0.84,0
0.032983,-0.0055808,0.0070755,-0.00028414,0.0020374,-0.00016438,0,0,0.052396,-0.024144,0,-0.0034192,0,0,0,0.0070792,-0.00028781,0.0020374,-1.2789,0.0029429,0.006523,8.3902e-09,0.66,0.84,0
0.034029,-0.0056801,0.0070545,-0.00024954,0.0020415,-0.00021814,0,0,0.052136,-0.023827,0,-0.0045373,0,0,0,0.007061,-0.00025605,0.0020415,-1.7091,0.0029488,0.0064813,8.2911e-09,0.68,0.84,0
0.035069,-0.0057971,0.0070305,-0.00020854,0.0020466,-0.00026357,0,0,0.051833,-0.023453,0,-0.0054823,0,0,0,0.0070401,-0.00021812,0.0020466,-2.0825,0.0029562,0.0064322,8.1759e-09,0.7,0.84,0
0.036102,-0.0059287,0.0070046,-0.00016306,0.0020524,-0.00029958,0,0,0.051502,-0.023041,0,-0.0062312,0,0,0,0.0070171,-0.00017556,0.0020524,-2.3892,0.0029647,0.0063775,8.0486e-09,0.72,0.84,0
0.037129,-0.0060714,0.0069856,-0.00011511,0.0020612,-0.00032364,0,0,0.051215,-0.022633,0,-0.0067318,0,0,0,0.0070003,-0.00012983,0.0020612,-2.6043,0.0029772,0.006326,7.9396e-09,0.74,0.84,0
0.038148,-0.0062215,0.0069401,-7.2898e-05,0.0020602,-0.00034372,0,0,0.050752,-0.022184,0,-0.0071493,0,0,0,0.0069569,-8.9704e-05,0.0020602,-2.7992,0.0029758,0.0062552,7.748e-09,0.76,0.84,0
0.039161,-0.0063753,0.0069339,-1.5475e-05,0.0020755,-0.00034789,0,0,0.050527,-0.021746,0,-0.0072362,0,0,0,0.0069512,-3.2848e-05,0.0020755,-2.8588,0.002998,0.0062047,7.6634e-09,0.78,0.84,0
0.040167,-0.006529,0.0068925,2.3526e-05,0.0020748,-0.00034262,0,0,0.050104,-0.021333,0,-0.0071266,0,0,0,0.0069095,6.4779e-06,0.0020748,-2.8485,0.0029969,0.0061361,7.4809e-09,0.8,0.84,0
0.041167,-0.0066791,0.0068872,7.3355e-05,0.0020882,-0.00033448,0,0,0.04991,-0.020954,0,-0.0069572,0,0,0,0.0069036,5.6976e-05,0.0020882,-2.8036,0.0030162,0.0060906,7.4025e-09,0.82,0.84,0
0.042162,-0.0068223,0.0068535,0.00010545,0.0020877,-0.0003078,0,0,0.049565,-0.020615,0,-0.0064023,0,0,0,0.0068676,9.1436e-05,0.0020877,-2.6062,0.0030156,0.0060311,7.2464e-09,0.84,0.84,0
0.043152,-0.0069556,0.0068496,0.00014422,0.0020981,-0.00029038,0,0,0.049415,-0.020321,0,-0.0060398,0,0,0,0.0068621,0.00013166,0.0020981,-2.475,0.0030306,0.0059942,7.1816e-09,0.86,0.84,0
0.044137,-0.0070763,0.006825,0.00016794,0.0020979,-0.00024756,0,0,0.049162,-0.020071,0,-0.0051492,0,0,0,0.0068342,0.00015875,0.0020979,-2.1268,0.0030303,0.0059479,7.0616e-09,0.88,0.84,0
0.045119,-0.0071822,0.0068223,0.00019495,0.0021052,-0.00022397,0,0,0.049058,-0.019866,0,-0.0046585,0,0,0,0.0068299,0.00018739,0.0021052,-1.9333,0.0030408,0.0059213,7.0141e-09,0.9,0.84,0
0.046099,-0.0072714,0.0068065,0.00021046,0.0021051,-0.00017027,0,0,0.048895,-0.019704,0,-0.0035416,0,0,0,0.0068109,0.00020607,0.0021051,-1.4777,0.0030407,0.0058896,6.9327e-09,0.92,0.84,0
0.047076,-0.0073423,0.0068049,0.00022663,0.0021095,-0.00014309,0,0,0.048833,-0.019582,0,-0.0029763,0,0,0,0.0068081,0.00022352,0.0021095,-1.2455,0.003047,0.0058732,6.9031e-09,0.94,0.84,0
0.048051,-0.0073938,0.0067967,0.0002348,0.0021094,-8.3065e-05,0,0,0.048747,-0.019496,0,-0.0017277,0,0,0,0.0067977,0.00023375,0.0021094,-0.72513,0.003047,0.0058559,6.8591e-09,0.96,0.84,0
0.049026,-0.007425,0.0067961,0.00024142,0.0021112,-5.4191e-05,0,0,0.048722,-0.019446,0,-0.0011272,0,0,0,0.0067965,0.00024098,0.0021112,-0.47366,0.0030496,0.0058491,6.8467e-09,0.98,0.84,0
0.05,-0.0074354,0.0068001,0.00025626,0.0021169,-2.5136e-05,0,0,0.048705,-0.019351,0,-0.00052284,0,0,0,0.0068002,0.00025617,0.0021169,-0.22008,0.0030578,0.0058404,6.8399e-09,1,0.84,0
0,0,0.0069868,0.0029944,0.0029944,-0.0016823,0,0,0.041522,-2.1684e-19,0,-0.034993,0,0,0,0.0076012,0.00238,0.0029944,-20.061,0.0043252,0.0049428,5.8802e-09,0,0.86,0
0.00083044,-0.00069986,0.0069188,0.0026568,0.0028727,-0.0016675,0,0,0.042079,-0.0022449,0,-0.034685,0,0,0,0.0074937,0.0020819,0.0028727,-19.022,0.0041494,0.0050629,6.1208e-09,0.02,0.86,0
0.0016943,-0.0014006,0.0071164,0.0023923,0.0028526,-0.0016208,0,0,0.044344,-0.0047871,0,-0.033712,0,0,0,0.007619,0.0018897,0.0028526,-17.228,0.0041205,0.0053137,6.8605e-09,0.04,0.86,0
0.0025927,-0.0020875,0.0071148,0.0020346,0.0027448,-0.0015501,0,0,0.045448,-0.0073862,0,-0.032241,0,0,0,0.0075504,0.001599,0.0027448,-15.697,0.0039647,0.0054693,7.175e-09,0.06,0.86,0
0.0035228,-0.002745,0.0072657,0.0017657,0.0027094,-0.0013923,0,0,0.047386,-0.0098146,0,-0.02896,0,0,0,0.0075981,0.0014334,0.0027094,-13.426,0.0039136,0.0056361,7.6301e-09,0.08,0.86,0
0.0044793,-0.0033597,0.0072429,0.0014659,0.0026126,-0.0012734,0,0,0.048154,-0.011926,0,-0.026486,0,0,0,0.0075111,0.0011977,0.0026126,-11.895,0.0037738,0.0057383,7.7514e-09,0.1,0.86,0
0.0054556,-0.0039223,0.0073037,0.0012529,0.002567,-0.0010585,0,0,0.049262,-0.013667,0,-0.022017,0,0,0,0.0074835,0.0010731,0.002567,-9.6418,0.0037078,0.0058094,7.8694e-09,0.12,0.86,0
0.0064453,-0.004427,0.0072607,0.001015,0.0024827,-0.00089541,0,0,0.049691,-0.015264,0,-0.018624,0,0,0,0.0073865,0.0008892,0.0024827,-7.9996,0.0035862,0.0058652,7.8416e-09,0.14,0.86,0
0.0074432,-0.0048718,0.0072369,0.00085947,0.0024289,-0.00072852,0,0,0.050003,-0.016322,0,-0.015153,0,0,0,0.0073191,0.0007773,0.0024289,-6.4347,0.0035084,0.0058922,7.7898e-09,0.16,0.86,0
0.0084454,-0.0052566,0.007203,0.00073308,0.0023808,-0.00057245,0,0,0.050151,-0.017137,0,-0.011907,0,0,0,0.0072533,0.00068282,0.0023808,-5.0175,0.003439,0.0059074,7.713e-09,0.18,0.86,0
0.0094493,-0.0055831,0.0071643,0.00062975,0.0023382,-0.00042906,0,0,0.050191,-0.017768,0,-0.0089245,0,0,0,0.0071924,0.00060169,0.0023382,-3.7407,0.0033774,0.0059167,7.63e-09,0.2,0.86,0
0.010453,-0.0058538,0.0071248,0.00054413,0.0023007,-0.00029879,0,0,0.050171,-0.018268,0,-0.0062148,0,0,0,0.0071383,0.00053059,0.0023007,-2.5943,0.0033232,0.0059245,7.5536e-09,0.22,0.86,0
0.011456,-0.0060721,0.0070874,0.00047178,0.0022677,-0.00018133,0,0,0.050124,-0.018678,0,-0.0037716,0,0,0,0.0070924,0.00046682,0.0022677,-1.5688,0.0032756,0.0059337,7.4918e-09,0.24,0.86,0
0.012458,-0.0062415,0.0070541,0.00040908,0.0022389,-7.6106e-05,0,0,0.050077,-0.019031,0,-0.001583,0,0,0,0.0070549,0.00040821,0.0022389,-0.6561,0.003234,0.0059466,7.4496e-09,0.26,0.86,0
0.013459,-0.0063658,0.007026,0.00035307,0.0022137,1.7442e-05,0,0,0.050048,-0.019351,0,0.00036279,0,0,0,0.0070261,0.00035303,0.0022137,0.14976,0.0031976,0.0059645,7.4293e-09,0.28,0.86,0
0.01446,-0.006449,0.0070041,0.00030143,0.0021917,9.9752e-05,0,0,0.050049,-0.019658,0,0.0020748,0,0,0,0.0070056,0.00029994,0.0021917,0.85245,0.0031657,0.0059882,7.432e-09,0.3,0.86,0
0.015461,-0.0064956,0.0069885,0.00025231,0.0021723,0.00017107,0,0,0.050089,-0.019967,0,0.0035582,0,0,0,0.0069929,0.00024797,0.0021723,1.4538,0.0031377,0.0060181,7.4574e-09,0.32,0.86,0
0.016464,-0.0065097,0.0069794,0.00020434,0.0021551,0.00023144,0,0,0.050172,-0.020288,0,0.0048139,0,0,0,0.0069873,0.00019644,0.0021551,1.9542,0.003113,0.006054,7.5043e-09,0.34,0.86,0
0.017468,-0.0064961,0.0069764,0.00015659,0.0021399,0.00028074,0,0,0.0503,-0.020626,0,0.0058394,0,0,0,0.006988,0.00014506,0.0021399,2.3533,0.003091,0.0060954,7.5705e-09,0.36,0.86,0
0.018476,-0.0064596,0.0069792,0.00010855,0.0021263,0.00031874,0,0,0.05047,-0.020985,0,0.0066298,0,0,0,0.0069939,9.3794e-05,0.0021263,2.6505,0.0030714,0.0061415,7.6531e-09,0.38,0.86,0
0.019487,-0.0064049,0.006987,6.0097e-05,0.0021141,0.00034516,0,0,0.050678,-0.021362,0,0.0071793,0,0,0,0.0070042,4.2941e-05,0.0021141,2.8456,0.0030537,0.0061912,7.7488e-09,0.4,0.86,0
0.020503,-0.0063371,0.006999,1.1513e-05,0.0021032,0.00035976,0,0,0.050917,-0.021753,0,0.007483,0,0,0,0.0070175,-6.9612e-06,0.0021032,2.9396,0.0030379,0.0062428,7.8533e-09,0.42,0.86,0
0.021524,-0.0062612,0.0070053,-4.3062e-05,0.0020887,0.00036088,0,0,0.051133,-0.02217,0,0.0075064,0,0,0,0.0070237,-6.1492e-05,0.0020887,2.9234,0.003017,0.006292,7.939e-09,0.44,0.86,0
0.02255,-0.0061822,0.0070246,-9.8981e-05,0.0020777,0.00035334,0,0,0.051448,-0.022637,0,0.0073494,0,0,0,0.0070421,-0.00011646,0.0020777,2.8327,0.0030011,0.0063523,8.0661e-09,0.46,0.86,0
0.023581,-0.0061049,0.0070401,-0.0001488,0.0020674,0.00033335,0,0,0.051716,-0.023048,0,0.0069337,0,0,0,0.0070555,-0.00016423,0.0020674,2.6493,0.0029862,0.0064026,8.1675e-09,0.48,0.86,0
0.024618,-0.0060338,0.0070552,-0.00019429,0.0020583,0.00030231,0,0,0.051968,-0.023427,0,0.0062881,0,0,0,0.0070678,-0.00020688,0.0020583,2.3838,0.0029731,0.0064478,8.259e-09,0.5,0.86,0
0.02566,-0.0059732,0.0070689,-0.00023387,0.0020505,0.00026132,0,0,0.052191,-0.023758,0,0.0054355,0,0,0,0.0070783,-0.00024321,0.0020505,2.0468,0.0029618,0.0064863,8.3367e-09,0.52,0.86,0
0.026706,-0.0059267,0.0070947,-0.00024054,0.0020562,0.00020455,0,0,0.0524,-0.023887,0,0.0042546,0,0,0,0.0071004,-0.00024624,0.0020562,1.5961,0.0029701,0.0065083,8.4176e-09,0.54,0.86,0
0.027755,-0.0058973,0.0070959,-0.0002654,0.0020492,0.00016339,0,0,0.052486,-0.024071,0,0.0033985,0,0,0,0.0070995,-0.00026903,0.0020492,1.2709,0.0029599,0.006526,8.4406e-09,0.56,0.86,0
0.028806,-0.0058873,0.0070916,-0.00030361,0.0020364,9.4989e-05,0,0,0.052574,-0.024336,0,0.0019758,0,0,0,0.0070928,-0.00030483,0.0020364,0.73578,0.0029415,0.0065488,8.457e-09,0.58,0.86,0
0.029858,-0.0058982,0.0071014,-0.00028133,0.002046,2.4084e-05,0,0,0.052576,-0.024205,0,0.00050095,0,0,0,0.0071015,-0.0002814,0.002046,0.18691,0.0029554,0.0065377,8.4615e-09,0.6,0.86,0
0.030909,-0.0059308,0.0071019,-0.00026277,0.0020517,-2.9157e-05,0,0,0.052521,-0.024071,0,-0.00060646,0,0,0,0.007102,-0.00026288,0.0020517,-0.22683,0.0029636,0.0065232,8.4422e-09,0.62,0.86,0
0.031959,-0.0059848,0.0070907,-0.00024946,0.0020524,-8.9329e-05,0,0,0.052399,-0.023939,0,-0.001858,0,0,0,0.0070918,-0.00025055,0.0020524,-0.69715,0.0029645,0.0065042,8.3924e-09,0.64,0.86,0
0.033005,-0.0060595,0.0070747,-0.00022859,0.0020538,-0.00014532,0,0,0.052217,-0.023737,0,-0.0030226,0,0,0,0.0070776,-0.00023148,0.0020538,-1.1394,0.0029666,0.0064763,8.3211e-09,0.66,0.86,0
0.034048,-0.006153,0.0070546,-0.00020127,0.002056,-0.00019536,0,0,0.051985,-0.023475,0,-0.0040635,0,0,0,0.0070598,-0.00020652,0.002056,-1.5412,0.0029698,0.0064404,8.2309e-09,0.68,0.86,0
0.035085,-0.0062632,0.007031,-0.00016883,0.0020586,-0.00023804,0,0,0.051712,-0.023166,0,-0.0049511,0,0,0,0.0070389,-0.00017669,0.0020586,-1.8915,0.0029736,0.0063978,8.1245e-09,0.7,0.86,0
0.036116,-0.0063872,0.007005,-0.00013277,0.0020616,-0.0002723,0,0,0.05141,-0.022822,0,-0.0056639,0,0,0,0.0070153,-0.00014315,0.0020616,-2.1816,0.0029779,0.00635,8.0057e-09,0.72,0.86,0
0.037141,-0.006522,0.0069883,-8.6511e-05,0.0020705,-0.00029277,0,0,0.051145,-0.022433,0,-0.0060897,0,0,0,0.0070004,-9.8606e-05,0.0020705,-2.3657,0.0029908,0.006301,7.9038e-09,0.74,0.86,0
0.03816,-0.0066641,0.0069411,-5.7346e-05,0.0020651,-0.00031318,0,0,0.05071,-0.022074,0,-0.0065141,0,0,0,0.0069551,-7.1333e-05,0.0020651,-2.5572,0.002983,0.0062389,7.7207e-09,0.76,0.86,0
0.039172,-0.00681,0.0069306,-1.3194e-05,0.0020752,-0.00031836,0,0,0.050496,-0.021719,0,-0.0066219,0,0,0,0.0069451,-2.776e-05,0.0020752,-2.6196,0.0029975,0.0061952,7.6373e-09,0.78,0.86,0
0.040177,-0.0069563,0.0068859,1.4176e-05,0.00207,-0.00031543,0,0,0.050085,-0.021381,0,-0.0065609,0,0,0,0.0069003,-2.7205e-07,0.00207,-2.6227,0.00299,0.0061333,7.4588e-09,0.8,0.86,0
0.041177,-0.0070995,0.0068763,5.3388e-05,0.0020789,-0.00030927,0,0,0.049893,-0.021066,0,-0.0064328,0,0,0,0.0068903,3.9398e-05,0.0020789,-2.59,0.0030029,0.0060928,7.3804e-09,0.82,0.86,0
0.042171,-0.0072365,0.0068383,7.6316e-05,0.0020744,-0.00028601,0,0,0.049544,-0.02078,0,-0.0059491,0,0,0,0.0068503,6.424e-05,0.0020744,-2.4177,0.0029963,0.0060374,7.2236e-09,0.84,0.86,0
0.043161,-0.0073643,0.0068305,0.00010763,0.0020814,-0.00027098,0,0,0.04939,-0.020528,0,-0.0056363,0,0,0,0.0068414,9.6728e-05,0.0020814,-2.3044,0.0030065,0.0060036,7.1573e-09,0.86,0.86,0
0.044145,-0.0074803,0.0068012,0.0001249,0.0020778,-0.00023185,0,0,0.049123,-0.02031,0,-0.0048225,0,0,0,0.0068093,0.00011686,0.0020778,-1.9866,0.0030013,0.005959,7.033e-09,0.88,0.86,0
0.045127,-0.0075823,0.0067954,0.00014732,0.0020828,-0.00021062,0,0,0.049011,-0.020129,0,-0.0043809,0,0,0,0.0068021,0.00014065,0.0020828,-1.8128,0.0030085,0.0059337,6.983e-09,0.9,0.86,0
0.046105,-0.0076684,0.0067756,0.00015881,0.0020803,-0.00016039,0,0,0.048831,-0.019984,0,-0.0033362,0,0,0,0.0067795,0.00015493,0.0020803,-1.3878,0.0030049,0.0059023,6.8963e-09,0.92,0.86,0
0.047081,-0.007737,0.006772,0.00017256,0.0020834,-0.00013536,0,0,0.048761,-0.019872,0,-0.0028154,0,0,0,0.0067747,0.00016978,0.0020834,-1.1745,0.0030093,0.0058863,6.8644e-09,0.94,0.86,0
0.048055,-0.0077868,0.0067612,0.00017869,0.002082,-7.8457e-05,0,0,0.048664,-0.019794,0,-0.0016319,0,0,0,0.0067621,0.00017776,0.002082,-0.68278,0.0030073,0.0058687,6.8164e-09,0.96,0.86,0
0.049028,-0.007817,0.0067596,0.00018441,0.0020832,-5.1522e-05,0,0,0.048635,-0.019748,0,-0.0010716,0,0,0,0.00676,0.00018401,0.0020832,-0.44892,0.0030091,0.0058619,6.8027e-09,0.98,0.86,0
0.05,-0.0078272,0.0067523,0.00017341,0.0020777,-2.4365e-05,0,0,0.048616,-0.019805,0,-0.00050679,0,0,0,0.0067524,0.00017332,0.0020777,-0.21219,0.0030011,0.0058636,6.7918e-09,1,0.86,0
0,0,0.0070666,0.0030286,0.0030286,-0.0018001,0,0,0.041996,3.2526e-19,0,-0.037443,0,0,0,0.0077526,0.0023426,0.0030286,-20.86,0.0043746,0.0051017,6.4061e-09,0,0.88,0
0.00083992,-0.00074885,0.0069777,0.0026145,0.0028777,-0.0017728,0,0,0.04264,-0.0027368,0,-0.036875,0,0,0,0.0076072,0.001985,0.0028777,-19.549,0.0041566,0.0052333,6.645e-09,0.02,0.88,0
0.0017185,-0.0015057,0.0071857,0.0022672,0.0028359,-0.001715,0,0,0.045238,-0.0059144,0,-0.035671,0,0,0,0.0077246,0.0017282,0.0028359,-17.445,0.0040962,0.0055264,7.5085e-09,0.04,0.88,0
0.0026364,-0.0022495,0.0071648,0.0018259,0.0026972,-0.0016141,0,0,0.046463,-0.0090612,0,-0.033574,0,0,0,0.0076149,0.0013759,0.0026972,-15.58,0.003896,0.0056945,7.7897e-09,0.06,0.88,0
0.0035884,-0.0029587,0.0073031,0.0015085,0.0026435,-0.0014106,0,0,0.04846,-0.011804,0,-0.029341,0,0,0,0.0076282,0.0011834,0.0026435,-12.98,0.0038184,0.0058531,8.178e-09,0.08,0.88,0
0.0045662,-0.0036169,0.0072651,0.0011931,0.0025375,-0.0012606,0,0,0.049167,-0.013981,0,-0.026219,0,0,0,0.0075163,0.00094184,0.0025375,-11.274,0.0036652,0.0059397,8.2011e-09,0.1,0.88,0
0.0055607,-0.0042139,0.0072922,0.00098103,0.002482,-0.0010096,0,0,0.050026,-0.01561,0,-0.021,0,0,0,0.0074497,0.00082346,0.002482,-8.8708,0.0035851,0.0059723,8.1629e-09,0.12,0.88,0
0.0065642,-0.004745,0.0072636,0.00083735,0.0024303,-0.00086121,0,0,0.050266,-0.016567,0,-0.017913,0,0,0,0.007377,0.00072393,0.0024303,-7.5021,0.0035104,0.0059852,8.069e-09,0.14,0.88,0
0.0075713,-0.0052095,0.0072153,0.00069568,0.0023733,-0.00068422,0,0,0.050357,-0.017447,0,-0.014232,0,0,0,0.0072863,0.00062464,0.0023733,-5.927,0.0034281,0.0059822,7.9105e-09,0.16,0.88,0
0.0085785,-0.0056091,0.0071612,0.00058444,0.0023237,-0.00052437,0,0,0.05031,-0.018088,0,-0.010907,0,0,0,0.0072027,0.00054289,0.0023237,-4.5301,0.0033564,0.005972,7.7491e-09,0.18,0.88,0
0.0095837,-0.0059469,0.0071072,0.000496,0.002281,-0.0003817,0,0,0.050193,-0.018564,0,-0.0079394,0,0,0,0.0071292,0.00047404,0.002281,-3.2934,0.0032947,0.0059608,7.6026e-09,0.2,0.88,0
0.010586,-0.0062264,0.0070574,0.00042441,0.0022445,-0.00025513,0,0,0.050053,-0.018929,0,-0.0053068,0,0,0,0.0070672,0.00041461,0.0022445,-2.1995,0.0032421,0.0059524,7.4807e-09,0.22,0.88,0
0.011586,-0.0064517,0.0070138,0.00036506,0.0022137,-0.00014326,0,0,0.049922,-0.019226,0,-0.0029797,0,0,0,0.0070169,0.00036197,0.0022137,-1.2337,0.0031975,0.0059493,7.3879e-09,0.24,0.88,0
0.012583,-0.0066272,0.006978,0.0003144,0.0021877,-4.4714e-05,0,0,0.049819,-0.019482,0,-0.00093004,0,0,0,0.0069783,0.0003141,0.0021877,-0.38444,0.00316,0.0059528,7.3258e-09,0.26,0.88,0
0.013579,-0.0067571,0.0069503,0.00026972,0.002166,4.1615e-05,0,0,0.049757,-0.019721,0,0.00086558,0,0,0,0.0069506,0.00026946,0.002166,0.35689,0.0031287,0.0059635,7.2941e-09,0.28,0.88,0
0.014573,-0.0068458,0.006931,0.00022891,0.002148,0.00011655,0,0,0.049743,-0.019958,0,0.0024243,0,0,0,0.006933,0.00022688,0.002148,0.996,0.0031026,0.0059816,7.2912e-09,0.3,0.88,0
0.015568,-0.0068978,0.0069197,0.00019038,0.002133,0.00018063,0,0,0.049781,-0.020203,0,0.0037571,0,0,0,0.0069245,0.00018554,0.002133,1.5365,0.003081,0.0060069,7.315e-09,0.32,0.88,0
0.016565,-0.0069177,0.0069159,0.00015299,0.0021207,0.00023413,0,0,0.04987,-0.020464,0,0.0048698,0,0,0,0.006924,0.00014489,0.0021207,1.9804,0.0030632,0.0060387,7.363e-09,0.34,0.88,0
0.017563,-0.0069102,0.006919,0.00011595,0.0021105,0.00027711,0,0,0.050009,-0.020743,0,0.005764,0,0,0,0.0069303,0.00010468,0.0021105,2.3287,0.0030485,0.0060763,7.4319e-09,0.36,0.88,0
0.018565,-0.0068802,0.0069282,7.8828e-05,0.0021021,0.00030954,0,0,0.050191,-0.021042,0,0.0064384,0,0,0,0.0069422,6.4867e-05,0.0021021,2.5823,0.0030364,0.0061186,7.5182e-09,0.38,0.88,0
0.019571,-0.0068324,0.0069424,4.1531e-05,0.0020952,0.00033129,0,0,0.050411,-0.021358,0,0.0068908,0,0,0,0.0069583,2.5664e-05,0.0020952,2.7422,0.0030264,0.0061642,7.6178e-09,0.4,0.88,0
0.020581,-0.0067717,0.0069607,4.2593e-06,0.0020895,0.00034228,0,0,0.05066,-0.021686,0,0.0071193,0,0,0,0.0069775,-1.2541e-05,0.0020895,2.8101,0.0030181,0.0062118,7.7265e-09,0.42,0.88,0
0.021597,-0.006703,0.0069758,-3.1745e-05,0.0020832,0.00034006,0,0,0.050883,-0.021996,0,0.0070733,0,0,0,0.0069923,-4.8209e-05,0.0020832,2.7718,0.0030091,0.0062534,7.8177e-09,0.44,0.88,0
0.022618,-0.0066312,0.0070116,-5.1124e-05,0.0020881,0.00032802,0,0,0.051204,-0.022248,0,0.0068227,0,0,0,0.0070268,-6.6325e-05,0.0020881,2.6534,0.0030162,0.0062986,7.9553e-09,0.46,0.88,0
0.023645,-0.0065607,0.0070364,-8.005e-05,0.0020869,0.0003073,0,0,0.051475,-0.022536,0,0.0063919,0,0,0,0.0070497,-9.3295e-05,0.0020869,2.468,0.0030144,0.0063405,8.0648e-09,0.48,0.88,0
0.024678,-0.006496,0.00706,-0.00010628,0.0020861,0.00027755,0,0,0.051729,-0.022801,0,0.0057729,0,0,0,0.0070708,-0.00011702,0.0020861,2.2146,0.0030133,0.0063783,8.1651e-09,0.5,0.88,0
0.025715,-0.0064409,0.0070811,-0.00012902,0.0020856,0.00023971,0,0,0.051953,-0.023032,0,0.0049859,0,0,0,0.0070891,-0.00013698,0.0020856,1.902,0.0030126,0.0064106,8.2519e-09,0.52,0.88,0
0.026756,-0.0063988,0.0070939,-0.00016712,0.002078,0.00019071,0,0,0.052165,-0.02335,0,0.0039669,0,0,0,0.0070989,-0.00017213,0.002078,1.5035,0.0030016,0.0064475,8.3271e-09,0.54,0.88,0
0.0278,-0.0063727,0.0070985,-0.00018537,0.0020739,0.00015364,0,0,0.052255,-0.023497,0,0.0031956,0,0,0,0.0071017,-0.00018861,0.0020739,1.2078,0.0029957,0.0064632,8.3562e-09,0.56,0.88,0
0.028847,-0.0063646,0.0071187,-0.00016948,0.0020848,9.1386e-05,0,0,0.052353,-0.023444,0,0.0019008,0,0,0,0.0071198,-0.00017063,0.0020848,0.71828,0.0030113,0.0064649,8.3987e-09,0.58,0.88,0
0.029894,-0.006376,0.0071097,-0.00019596,0.0020741,2.7559e-05,0,0,0.05237,-0.023609,0,0.00057322,0,0,0,0.0071098,-0.00019606,0.0020741,0.21613,0.0029959,0.0064764,8.3931e-09,0.6,0.88,0
0.030942,-0.0064076,0.0071008,-0.0002037,0.0020691,-2.1239e-05,0,0,0.052329,-0.023637,0,-0.00044177,0,0,0,0.0071008,-0.00020376,0.0020691,-0.16659,0.0029887,0.0064746,8.3707e-09,0.62,0.88,0
0.031987,-0.0064593,0.007091,-0.00019346,0.0020693,-7.605e-05,0,0,0.052226,-0.023533,0,-0.0015818,0,0,0,0.0070918,-0.00019426,0.0020693,-0.59808,0.002989,0.006459,8.3282e-09,0.64,0.88,0
0.03303,-0.0065303,0.0070761,-0.00017747,0.0020696,-0.00012718,0,0,0.052068,-0.023369,0,-0.0026453,0,0,0,0.0070783,-0.0001797,0.0020696,-1.0042,0.0029894,0.0064353,8.2642e-09,0.66,0.88,0
0.03407,-0.0066191,0.0070564,-0.00015654,0.00207,-0.00017307,0,0,0.051859,-0.023156,0,-0.0035998,0,0,0,0.0070606,-0.00016069,0.00207,-1.3737,0.00299,0.0064043,8.1809e-09,0.68,0.88,0
0.035105,-0.0067237,0.0070329,-0.00013169,0.0020704,-0.00021246,0,0,0.05161,-0.022901,0,-0.0044192,0,0,0,0.0070392,-0.00013798,0.0020704,-1.6971,0.0029905,0.006367,8.0811e-09,0.7,0.88,0
0.036134,-0.0068415,0.0070063,-0.00010401,0.0020707,-0.00024441,0,0,0.05133,-0.022617,0,-0.0050837,0,0,0,0.0070147,-0.0001124,0.0020707,-1.9664,0.002991,0.0063247,7.968e-09,0.72,0.88,0
0.037158,-0.0069697,0.0069775,-7.4652e-05,0.0020709,-0.0002683,0,0,0.051029,-0.022313,0,-0.0055806,0,0,0,0.0069877,-8.4844e-05,0.0020709,-2.1756,0.0029912,0.0062787,7.8452e-09,0.74,0.88,0
0.038176,-0.007105,0.0069476,-4.473e-05,0.0020709,-0.00028386,0,0,0.050718,-0.022002,0,-0.0059044,0,0,0,0.0069591,-5.6235e-05,0.0020709,-2.3209,0.0029912,0.0062303,7.7166e-09,0.76,0.88,0
0.039187,-0.0072442,0.0069174,-1.5246e-05,0.0020706,-0.00029115,0,0,0.050406,-0.021693,0,-0.0060559,0,0,0,0.0069296,-2.7452e-05,0.0020706,-2.4006,0.0029909,0.0061811,7.5858e-09,0.78,0.88,0
0.040192,-0.0073841,0.0068877,1.2944e-05,0.0020702,-0.00029046,0,0,0.050102,-0.021396,0,-0.0060415,0,0,0,0.0069,6.9413e-07,0.0020702,-2.415,0.0029903,0.0061323,7.4566e-09,0.8,0.88,0
0.041191,-0.0075213,0.0068594,3.9159e-05,0.0020695,-0.00028231,0,0,0.049814,-0.021116,0,-0.0058721,0,0,0,0.006871,2.7493e-05,0.0020695,-2.3663,0.0029893,0.0060851,7.3322e-09,0.82,0.88,0
0.042184,-0.0076528,0.0068329,6.2903e-05,0.0020687,-0.00026739,0,0,0.049547,-0.020861,0,-0.0055618,0,0,0,0.0068434,5.2358e-05,0.0020687,-2.2583,0.0029882,0.0060408,7.2154e-09,0.84,0.88,0
0.043173,-0.0077758,0.0068087,8.3855e-05,0.0020678,-0.00024647,0,0,0.049306,-0.020633,0,-0.0051266,0,0,0,0.0068178,7.4834e-05,0.0020678,-2.0962,0.0029868,0.0060001,7.1085e-09,0.86,0.88,0
0.044157,-0.0078876,0.0067874,0.00010185,0.0020668,-0.00022038,0,0,0.049094,-0.020435,0,-0.0045839,0,0,0,0.0067946,9.4594e-05,0.0020668,-1.8859,0.0029853,0.0059638,7.0133e-09,0.88,0.88,0
0.045137,-0.0079862,0.006769,0.00011685,0.0020658,-0.00018995,0,0,0.048914,-0.020269,0,-0.0039509,0,0,0,0.0067744,0.00011143,0.0020658,-1.6343,0.0029839,0.0059324,6.9312e-09,0.9,0.88,0
0.046113,-0.0080694,0.0067538,0.00012889,0.0020648,-0.000156,0,0,0.048766,-0.020134,0,-0.0032448,0,0,0,0.0067575,0.00012522,0.0020648,-1.3482,0.0029825,0.0059064,6.8632e-09,0.92,0.88,0
0.047087,-0.0081358,0.006742,0.00013809,0.002064,-0.00011932,0,0,0.04865,-0.02003,0,-0.0024818,0,0,0,0.0067441,0.00013593,0.002064,-1.0348,0.0029813,0.0058859,6.8099e-09,0.94,0.88,0
0.048059,-0.0081841,0.0067334,0.00014455,0.0020634,-8.0631e-05,0,0,0.048568,-0.019956,0,-0.0016771,0,0,0,0.0067344,0.00014356,0.0020634,-0.70101,0.0029805,0.0058713,6.7716e-09,0.96,0.88,0
0.04903,-0.0082134,0.0067283,0.00014837,0.002063,-4.0638e-05,0,0,0.048519,-0.019912,0,-0.00084527,0,0,0,0.0067286,0.00014812,0.002063,-0.35384,0.0029799,0.0058624,6.7486e-09,0.98,0.88,0
0.05,-0.0082233,0.0067266,0.00014964,0.0020629,-2.3641e-05,0,0,0.048503,-0.019898,0,-0.00049174,0,0,0,0.0067267,0.00014955,0.0020629,-0.20595,0.0029797,0.0058596,6.7412e-09,1,0.88,0
0,0,0.0072038,0.0030874,0.0030874,-0.0019386,0,0,0.042811,-1.0842e-18,0,-0.040323,0,0,0,0.0079731,0.0023181,0.0030874,-21.643,0.0044595,0.0053123,7.1582e-09,0,0.9,0
0.00085623,-0.00080646,0.007166,0.0026307,0.002939,-0.0019072,0,0,0.043961,-0.0032067,0,-0.039669,0,0,0,0.0078614,0.0019353,0.002939,-20.032,0.0042452,0.0054934,7.5653e-09,0.02,0.9,0
0.0017584,-0.0016306,0.0072766,0.0021596,0.0028309,-0.001837,0,0,0.046235,-0.006981,0,-0.03821,0,0,0,0.0078677,0.0015684,0.0028309,-17.839,0.004089,0.0057726,8.3089e-09,0.04,0.9,0
0.0027056,-0.0024403,0.0073571,0.0017033,0.0027181,-0.0016779,0,0,0.048245,-0.010554,0,-0.034901,0,0,0,0.0078175,0.0012428,0.0027181,-15.346,0.0039262,0.0059753,8.7463e-09,0.06,0.9,0
0.0036882,-0.0032059,0.0073911,0.0013226,0.0026141,-0.0014619,0,0,0.049681,-0.013432,0,-0.030408,0,0,0,0.007725,0.00098875,0.0026141,-12.863,0.0037759,0.0060885,8.8666e-09,0.08,0.9,0
0.0046929,-0.0039078,0.0073764,0.0010299,0.0025219,-0.0012271,0,0,0.050487,-0.015517,0,-0.025523,0,0,0,0.0076054,0.00080091,0.0025219,-10.57,0.0036427,0.006128,8.7516e-09,0.1,0.9,0
0.0057077,-0.0045364,0.0073245,0.00081239,0.0024411,-0.0010007,0,0,0.050788,-0.016938,0,-0.020813,0,0,0,0.0074748,0.0006621,0.0024411,-8.5415,0.003526,0.0061203,8.5072e-09,0.12,0.9,0
0.0067244,-0.0050897,0.0072515,0.00065102,0.0023707,-0.00079544,0,0,0.050759,-0.017885,0,-0.016545,0,0,0,0.007346,0.00055651,0.0023707,-6.7757,0.0034244,0.0060885,8.2164e-09,0.14,0.9,0
0.0077381,-0.0055697,0.0071713,0.0005304,0.0023105,-0.00061491,0,0,0.050552,-0.018513,0,-0.01279,0,0,0,0.0072278,0.00047394,0.0023105,-5.2459,0.0033374,0.0060484,7.9317e-09,0.16,0.9,0
0.0087465,-0.0059801,0.0070934,0.00043892,0.0022597,-0.00045803,0,0,0.050271,-0.018936,0,-0.0095271,0,0,0,0.0071248,0.00040754,0.0022597,-3.9191,0.003264,0.0060092,7.6796e-09,0.18,0.9,0
0.0097489,-0.0063256,0.0070233,0.00036821,0.0022174,-0.00032217,0,0,0.04998,-0.019232,0,-0.0067012,0,0,0,0.0070388,0.00035265,0.0022174,-2.7651,0.003203,0.0059761,7.4711e-09,0.2,0.9,0
0.010746,-0.006611,0.0069635,0.00031224,0.0021827,-0.00020447,0,0,0.04972,-0.019453,0,-0.004253,0,0,0,0.0069698,0.00030596,0.0021827,-1.7592,0.0031528,0.0059517,7.3091e-09,0.22,0.9,0
0.011738,-0.0068411,0.0069153,0.00026667,0.0021546,-0.00010238,0,0,0.049512,-0.019634,0,-0.0021295,0,0,0,0.0069169,0.00026509,0.0021546,-0.88198,0.0031122,0.005937,7.1924e-09,0.24,0.9,0
0.012726,-0.0070208,0.0068789,0.00022833,0.0021322,-1.3828e-05,0,0,0.049366,-0.0198,0,-0.00028763,0,0,0,0.0068789,0.0002283,0.0021322,-0.11913,0.0030798,0.0059324,7.1179e-09,0.26,0.9,0
0.013712,-0.0071546,0.0068537,0.00019487,0.0021146,6.2736e-05,0,0,0.049287,-0.019965,0,0.0013049,0,0,0,0.0068543,0.00019428,0.0021146,0.53975,0.0030544,0.0059375,7.0821e-09,0.28,0.9,0
0.014698,-0.0072474,0.0068392,0.00016455,0.0021011,0.00012842,0,0,0.049276,-0.02014,0,0.0026711,0,0,0,0.0068416,0.00016208,0.0021011,1.1018,0.0030349,0.0059518,7.0809e-09,0.3,0.9,0
0.015683,-0.0073037,0.0068343,0.0001361,0.0020911,0.00018394,0,0,0.049329,-0.020332,0,0.003826,0,0,0,0.0068393,0.00013105,0.0020911,1.5718,0.0030205,0.0059745,7.1105e-09,0.32,0.9,0
0.016671,-0.0073283,0.0068381,0.00010859,0.002084,0.00022972,0,0,0.049442,-0.020544,0,0.0047782,0,0,0,0.0068459,0.00010075,0.002084,1.9528,0.0030102,0.0060044,7.1668e-09,0.34,0.9,0
0.017661,-0.0073259,0.0068493,8.1414e-05,0.0020792,0.00026595,0,0,0.049609,-0.020777,0,0.0055318,0,0,0,0.0068598,7.0979e-05,0.0020792,2.2469,0.0030033,0.0060405,7.2458e-09,0.36,0.9,0
0.018655,-0.0073012,0.006867,5.4246e-05,0.0020764,0.00029269,0,0,0.049822,-0.02103,0,0.0060879,0,0,0,0.0068795,4.1694e-05,0.0020764,2.4555,0.0029992,0.0060814,7.3431e-09,0.38,0.9,0
0.019654,-0.0072592,0.0068897,2.7001e-05,0.002075,0.00030992,0,0,0.050073,-0.021299,0,0.0064464,0,0,0,0.0069036,1.3033e-05,0.002075,2.5805,0.0029972,0.0061257,7.4542e-09,0.4,0.9,0
0.020658,-0.0072045,0.0069161,-1.7551e-07,0.0020748,0.00031765,0,0,0.05035,-0.02158,0,0.006607,0,0,0,0.0069307,-1.4734e-05,0.0020748,2.6241,0.0029969,0.0061719,7.5747e-09,0.42,0.9,0
0.021668,-0.007142,0.006945,-2.6941e-05,0.0020754,0.00031595,0,0,0.050643,-0.021864,0,0.0065717,0,0,0,0.0069592,-4.1229e-05,0.0020754,2.5894,0.0029978,0.0062185,7.6996e-09,0.44,0.9,0
0.022684,-0.0070761,0.0069748,-5.2787e-05,0.0020766,0.00030504,0,0,0.050941,-0.022145,0,0.0063449,0,0,0,0.006988,-6.6003e-05,0.0020766,2.4808,0.0029995,0.0062638,7.8241e-09,0.46,0.9,0
0.023706,-0.0070114,0.0070042,-7.7082e-05,0.0020781,0.00028536,0,0,0.051231,-0.022414,0,0.0059356,0,0,0,0.0070157,-8.8563e-05,0.0020781,2.304,0.0030017,0.0063065,7.9436e-09,0.48,0.9,0
0.024733,-0.006952,0.0070319,-9.9128e-05,0.0020798,0.00025756,0,0,0.051501,-0.022661,0,0.0053572,0,0,0,0.0070412,-0.00010842,0.0020798,2.0658,0.0030042,0.0063451,8.0534e-09,0.5,0.9,0
0.025766,-0.0069015,0.0070566,-0.00011821,0.0020815,0.00022252,0,0,0.051741,-0.022877,0,0.0046283,0,0,0,0.0070635,-0.00012511,0.0020815,1.7747,0.0030066,0.0063783,8.1495e-09,0.52,0.9,0
0.026803,-0.0068633,0.0070773,-0.00013367,0.0020831,0.00018138,0,0,0.05194,-0.023054,0,0.0037727,0,0,0,0.0070819,-0.00013823,0.0020831,1.44,0.0030089,0.0064051,8.2283e-09,0.54,0.9,0
0.027843,-0.0068399,0.007093,-0.00014494,0.0020844,0.0001355,0,0,0.052089,-0.023185,0,0.0028184,0,0,0,0.0070956,-0.00014747,0.0020844,1.0721,0.0030108,0.0064247,8.2867e-09,0.56,0.9,0
0.028886,-0.0068335,0.0071031,-0.00015162,0.0020854,8.6396e-05,0,0,0.052184,-0.023266,0,0.001797,0,0,0,0.0071042,-0.00015265,0.0020854,0.6822,0.0030123,0.0064365,8.3227e-09,0.58,0.9,0
0.029931,-0.0068454,0.0071071,-0.00015349,0.0020861,3.5695e-05,0,0,0.052219,-0.023292,0,0.00074246,0,0,0,0.0071073,-0.00015366,0.0020861,0.28167,0.0030132,0.0064401,8.3349e-09,0.6,0.9,0
0.030975,-0.0068763,0.0071049,-0.00015055,0.0020863,-1.4934e-05,0,0,0.052193,-0.023263,0,-0.00031063,0,0,0,0.0071049,-0.00015058,0.0020863,-0.11793,0.0030135,0.0064355,8.3229e-09,0.62,0.9,0
0.032018,-0.0069261,0.0070964,-0.000143,0.002086,-6.3863e-05,0,0,0.052108,-0.023182,0,-0.0013284,0,0,0,0.007097,-0.00014357,0.002086,-0.50539,0.0030131,0.0064228,8.287e-09,0.64,0.9,0
0.033059,-0.0069942,0.0070821,-0.00013127,0.0020852,-0.00010957,0,0,0.051967,-0.023052,0,-0.0022792,0,0,0,0.0070837,-0.00013293,0.0020852,-0.87008,0.003012,0.0064026,8.2286e-09,0.66,0.9,0
0.034097,-0.0070792,0.0070624,-0.00011593,0.002084,-0.00015073,0,0,0.051776,-0.022879,0,-0.0031351,0,0,0,0.0070656,-0.0001191,0.002084,-1.2024,0.0030101,0.0063753,8.1497e-09,0.68,0.9,0
0.03513,-0.0071792,0.0070382,-9.7716e-05,0.0020821,-0.00018621,0,0,0.051543,-0.02267,0,-0.0038733,0,0,0,0.007043,-0.00010257,0.0020821,-1.4938,0.0030075,0.006342,8.053e-09,0.7,0.9,0
0.036159,-0.0072919,0.0070102,-7.7411e-05,0.0020798,-0.00021519,0,0,0.051276,-0.022435,0,-0.004476,0,0,0,0.0070167,-8.3939e-05,0.0020798,-1.7375,0.0030042,0.0063037,7.9418e-09,0.72,0.9,0
0.037181,-0.0074146,0.0069794,-5.5845e-05,0.0020771,-0.0002371,0,0,0.050984,-0.022182,0,-0.0049318,0,0,0,0.0069874,-6.3827e-05,0.0020771,-1.9281,0.0030002,0.0062616,7.8197e-09,0.74,0.9,0
0.038198,-0.0075442,0.0069468,-3.3818e-05,0.0020739,-0.00025168,0,0,0.050679,-0.02192,0,-0.0052349,0,0,0,0.0069559,-4.288e-05,0.0020739,-2.0621,0.0029956,0.0062168,7.6904e-09,0.76,0.9,0
0.039209,-0.0076778,0.0069134,-1.2062e-05,0.0020704,-0.0002589,0,0,0.050367,-0.021658,0,-0.0053851,0,0,0,0.0069231,-2.1727e-05,0.0020704,-2.1379,0.0029906,0.0061707,7.5579e-09,0.78,0.9,0
0.040213,-0.0078121,0.0068801,8.7932e-06,0.0020667,-0.000259,0,0,0.05006,-0.021402,0,-0.0053871,0,0,0,0.0068899,-9.5523e-07,0.0020667,-2.1555,0.0029852,0.0061246,7.4258e-09,0.8,0.9,0
0.041211,-0.0079441,0.0068477,2.8242e-05,0.0020628,-0.00025238,0,0,0.049763,-0.021159,0,-0.0052496,0,0,0,0.0068571,1.8915e-05,0.0020628,-2.1166,0.0029796,0.0060796,7.2975e-09,0.82,0.9,0
0.042203,-0.0080709,0.0068171,4.591e-05,0.0020589,-0.00023961,0,0,0.049485,-0.020935,0,-0.004984,0,0,0,0.0068255,3.7441e-05,0.0020589,-2.0242,0.0029739,0.0060368,7.176e-09,0.84,0.9,0
0.04319,-0.0081896,0.0067887,6.1548e-05,0.0020551,-0.00022135,0,0,0.04923,-0.020733,0,-0.0046041,0,0,0,0.006796,5.4273e-05,0.0020551,-1.8825,0.0029685,0.0059971,7.0638e-09,0.86,0.9,0
0.044173,-0.0082977,0.0067632,7.502e-05,0.0020515,-0.00019831,0,0,0.049002,-0.020555,0,-0.0041247,0,0,0,0.0067691,6.9145e-05,0.0020515,-1.6968,0.0029633,0.0059613,6.9632e-09,0.88,0.9,0
0.045151,-0.0083931,0.0067411,8.6279e-05,0.0020482,-0.00017122,0,0,0.048806,-0.020404,0,-0.0035613,0,0,0,0.0067455,8.1877e-05,0.0020482,-1.4728,0.0029585,0.0059302,6.8758e-09,0.9,0.9,0
0.046125,-0.0084738,0.0067225,9.5347e-05,0.0020454,-0.00014082,0,0,0.048643,-0.02028,0,-0.0029291,0,0,0,0.0067255,9.2356e-05,0.0020454,-1.2167,0.0029544,0.0059041,6.8029e-09,0.92,0.9,0
0.047096,-0.0085381,0.0067079,0.00010228,0.002043,-0.00010783,0,0,0.048514,-0.020184,0,-0.0022429,0,0,0,0.0067097,0.00010052,0.002043,-0.93497,0.0029511,0.0058835,6.7454e-09,0.94,0.9,0
0.048065,-0.008585,0.0066973,0.00010716,0.0020413,-7.293e-05,0,0,0.048422,-0.020115,0,-0.0015169,0,0,0,0.0066981,0.00010636,0.0020413,-0.63396,0.0029486,0.0058686,6.7039e-09,0.96,0.9,0
0.049033,-0.0086135,0.0066909,0.00011006,0.0020403,-3.6775e-05,0,0,0.048366,-0.020074,0,-0.00076492,0,0,0,0.0066911,0.00010986,0.0020403,-0.32017,0.0029471,0.0058596,6.6789e-09,0.98,0.9,0
0.05,-0.0086231,0.0066888,0.00011102,0.0020399,-2.2966e-05,0,0,0.048348,-0.020061,0,-0.00047769,0,0,0,0.0066889,0.00011094,0.0020399,-0.20004,0.0029466,0.0058567,6.6708e-09,1,0.9,0
0,0,0.0074355,0.0031866,0.0031866,-0.0021085,0,0,0.044188,-2.1684e-19,0,-0.043856,0,0,0,0.0083042,0.0023179,0.0031866,-22.392,0.0046029,0.0056026,8.305e-09,0,0.92,0
0.00088376,-0.00087712,0.007378,0.0026,0.0029934,-0.0020556,0,0,0.045599,-0.0040911,0,-0.042757,0,0,0,0.0081406,0.0018374,0.0029934,-20.355,0.0043238,0.0058121,8.7542e-09,0.02,0.92,0
0.001824,-0.001785,0.007485,0.0019849,0.002841,-0.0019435,0,0,0.048298,-0.008903,0,-0.040425,0,0,0,0.0081024,0.0013675,0.002841,-17.625,0.0041036,0.0061325,9.5789e-09,0.04,0.92,0
0.0028157,-0.0026716,0.0075411,0.0014459,0.0026961,-0.0017101,0,0,0.050388,-0.013003,0,-0.035571,0,0,0,0.0079882,0.00099883,0.0026961,-14.649,0.0038944,0.0063142,9.8485e-09,0.06,0.92,0
0.0038395,-0.003496,0.0075247,0.0010511,0.0025727,-0.0014228,0,0,0.0515,-0.015825,0,-0.029594,0,0,0,0.0078236,0.00075217,0.0025727,-11.864,0.0037162,0.0063597,9.6521e-09,0.08,0.92,0
0.0048757,-0.0042376,0.0074456,0.00078236,0.0024684,-0.0011434,0,0,0.051763,-0.017535,0,-0.023782,0,0,0,0.0076364,0.00059163,0.0024684,-9.4707,0.0035655,0.006319,9.2088e-09,0.1,0.92,0
0.0059101,-0.0048914,0.0073298,0.00059635,0.0023778,-0.00089778,0,0,0.0515,-0.018527,0,-0.018674,0,0,0,0.0074474,0.00047871,0.0023778,-7.4656,0.0034347,0.0062398,8.6916e-09,0.12,0.92,0
0.0069357,-0.0054604,0.0072055,0.00046594,0.0023014,-0.00069066,0,0,0.051002,-0.019089,0,-0.014366,0,0,0,0.0072755,0.00039589,0.0023014,-5.7915,0.0033243,0.0061523,8.206e-09,0.14,0.92,0
0.0079501,-0.0059501,0.0070884,0.00037249,0.0022383,-0.00051788,0,0,0.050442,-0.019404,0,-0.010772,0,0,0,0.0071281,0.00033279,0.0022383,-4.3837,0.0032331,0.0060711,7.7919e-09,0.16,0.92,0
0.0089534,-0.0063666,0.0069862,0.00030395,0.002187,-0.00037352,0,0,0.049911,-0.019584,0,-0.0077693,0,0,0,0.007007,0.00028314,0.002187,-3.1895,0.0031591,0.0060028,7.4584e-09,0.18,0.92,0
0.0099466,-0.0067161,0.0069016,0.00025234,0.0021462,-0.00025211,0,0,0.049456,-0.019696,0,-0.0052439,0,0,0,0.0069112,0.00024279,0.0021462,-2.1682,0.0031,0.0059496,7.2019e-09,0.2,0.92,0
0.010932,-0.0070045,0.006835,0.00021232,0.0021142,-0.00014919,0,0,0.049096,-0.019779,0,-0.0031032,0,0,0,0.0068383,0.00020897,0.0021142,-1.2899,0.0030538,0.0059117,7.0144e-09,0.22,0.92,0
0.01191,-0.0072371,0.0067855,0.00018027,0.0020897,-6.1394e-05,0,0,0.048836,-0.019858,0,-0.001277,0,0,0,0.0067861,0.0001797,0.0020897,-0.53249,0.0030185,0.0058885,6.8875e-09,0.24,0.92,0
0.012885,-0.0074192,0.0067519,0.00015363,0.0020716,1.3772e-05,0,0,0.048674,-0.019947,0,0.00028645,0,0,0,0.0067519,0.0001536,0.0020716,0.11958,0.0029924,0.0058788,6.8133e-09,0.26,0.92,0
0.013857,-0.0075557,0.0067325,0.00013059,0.0020589,7.8069e-05,0,0,0.048605,-0.020055,0,0.0016238,0,0,0,0.0067335,0.00012967,0.0020589,0.67741,0.002974,0.0058815,6.7846e-09,0.28,0.92,0
0.014829,-0.0076514,0.0067259,0.00010983,0.0020507,0.0001327,0,0,0.048622,-0.020185,0,0.0027602,0,0,0,0.0067286,0.00010717,0.0020507,1.1486,0.0029622,0.005895,6.7955e-09,0.3,0.92,0
0.015802,-0.0077111,0.0067305,9.0419e-05,0.0020463,0.00017845,0,0,0.048716,-0.020341,0,0.0037117,0,0,0,0.0067353,8.5626e-05,0.0020463,1.5383,0.0029557,0.0059181,6.8404e-09,0.32,0.92,0
0.016778,-0.0077395,0.0067447,7.1682e-05,0.0020449,0.00021576,0,0,0.048877,-0.020522,0,0.0044879,0,0,0,0.0067516,6.4713e-05,0.0020449,1.85,0.0029538,0.0059493,6.9143e-09,0.34,0.92,0
0.017757,-0.0077413,0.0067669,5.3191e-05,0.002046,0.00024488,0,0,0.049097,-0.020726,0,0.0050935,0,0,0,0.0067758,4.4271e-05,0.002046,2.0861,0.0029554,0.0059871,7.0123e-09,0.36,0.92,0
0.018742,-0.0077214,0.0067956,3.4712e-05,0.0020491,0.00026589,0,0,0.049364,-0.02095,0,0.0055305,0,0,0,0.0068061,2.4271e-05,0.0020491,2.2487,0.0029598,0.00603,7.1296e-09,0.38,0.92,0
0.019732,-0.0076843,0.0068293,1.6186e-05,0.0020536,0.00027883,0,0,0.049667,-0.02119,0,0.0057996,0,0,0,0.0068407,4.7936e-06,0.0020536,2.3396,0.0029664,0.0060763,7.2614e-09,0.4,0.92,0
0.020728,-0.0076349,0.0068664,-2.288e-06,0.0020592,0.00028372,0,0,0.049994,-0.02144,0,0.0059013,0,0,0,0.0068781,-1.3987e-05,0.0020592,2.3613,0.0029744,0.0061245,7.4027e-09,0.42,0.92,0
0.021732,-0.0075776,0.0069052,-2.0473e-05,0.0020654,0.00028066,0,0,0.050334,-0.021693,0,0.0058378,0,0,0,0.0069166,-3.1828e-05,0.0020654,2.3168,0.0029834,0.0061731,7.5484e-09,0.44,0.92,0
0.022742,-0.007517,0.0069444,-3.8022e-05,0.0020719,0.00026988,0,0,0.050674,-0.021944,0,0.0056135,0,0,0,0.0069549,-4.8438e-05,0.0020719,2.2101,0.0029928,0.0062203,7.6934e-09,0.46,0.92,0
0.023759,-0.0074573,0.0069824,-5.4506e-05,0.0020784,0.00025174,0,0,0.051002,-0.022182,0,0.0052362,0,0,0,0.0069914,-6.3501e-05,0.0020784,2.0462,0.0030021,0.0062649,7.8328e-09,0.48,0.92,0
0.024782,-0.0074024,0.0070178,-6.9449e-05,0.0020845,0.00022682,0,0,0.051307,-0.022401,0,0.0047178,0,0,0,0.0070251,-7.6701e-05,0.0020845,1.8312,0.003011,0.0063054,7.9617e-09,0.5,0.92,0
0.025811,-0.0073559,0.0070494,-8.2368e-05,0.0020901,0.00019588,0,0,0.051576,-0.022594,0,0.0040743,0,0,0,0.0070548,-8.7744e-05,0.0020901,1.5721,0.003019,0.0063406,8.0756e-09,0.52,0.92,0
0.026845,-0.007321,0.0070759,-9.2814e-05,0.0020949,0.00015988,0,0,0.051802,-0.022752,0,0.0033256,0,0,0,0.0070795,-9.6378e-05,0.0020949,1.277,0.003026,0.0063695,8.1707e-09,0.54,0.92,0
0.027883,-0.0073001,0.0070965,-0.00010041,0.0020988,0.00011997,0,0,0.051976,-0.022872,0,0.0024953,0,0,0,0.0070985,-0.00010241,0.0020988,0.95473,0.0030316,0.0063912,8.2436e-09,0.56,0.92,0
0.028924,-0.0072952,0.0071105,-0.00010488,0.0021017,7.7409e-05,0,0,0.052091,-0.022948,0,0.0016101,0,0,0,0.0071113,-0.00010571,0.0021017,0.6146,0.0030358,0.0064052,8.292e-09,0.58,0.92,0
0.029967,-0.0073077,0.0071174,-0.00010607,0.0021034,3.3569e-05,0,0,0.052145,-0.022978,0,0.00069824,0,0,0,0.0071176,-0.00010622,0.0021034,0.26626,0.0030382,0.0064112,8.3144e-09,0.6,0.92,0
0.03101,-0.0073381,0.0071171,-0.00010399,0.0021039,-1.0158e-05,0,0,0.052137,-0.022962,0,-0.00021128,0,0,0,0.0071171,-0.000104,0.0021039,-0.080598,0.003039,0.006409,8.3102e-09,0.62,0.92,0
0.032052,-0.0073866,0.0071096,-9.8767e-05,0.0021033,-5.241e-05,0,0,0.052066,-0.022901,0,-0.0010901,0,0,0,0.00711,-9.9148e-05,0.0021033,-0.41655,0.003038,0.0063988,8.2797e-09,0.64,0.92,0
0.033092,-0.0074524,0.0070954,-9.0692e-05,0.0021014,-9.1913e-05,0,0,0.051937,-0.022798,0,-0.0019118,0,0,0,0.0070966,-9.1867e-05,0.0021014,-0.73268,0.0030354,0.006381,8.2243e-09,0.66,0.92,0
0.03413,-0.0075343,0.0070749,-8.0155e-05,0.0020984,-0.00012754,0,0,0.051755,-0.022657,0,-0.0026528,0,0,0,0.0070772,-8.2427e-05,0.0020984,-1.0209,0.003031,0.0063562,8.1462e-09,0.68,0.92,0
0.035163,-0.0076305,0.007049,-6.764e-05,0.0020944,-0.00015835,0,0,0.051527,-0.022485,0,-0.0032937,0,0,0,0.0070525,-7.1162e-05,0.0020944,-1.274,0.0030252,0.0063253,8.0482e-09,0.7,0.92,0
0.036191,-0.0077389,0.0070184,-5.3687e-05,0.0020894,-0.00018362,0,0,0.051262,-0.022288,0,-0.0038193,0,0,0,0.0070232,-5.8452e-05,0.0020894,-1.4863,0.0030181,0.0062891,7.9338e-09,0.72,0.92,0
0.037213,-0.007857,0.0069844,-3.8856e-05,0.0020837,-0.00020287,0,0,0.050968,-0.022074,0,-0.0042196,0,0,0,0.0069903,-4.4711e-05,0.0020837,-1.6531,0.0030097,0.0062488,7.8069e-09,0.74,0.92,0
0.038229,-0.0079818,0.0069479,-2.369e-05,0.0020773,-0.00021583,0,0,0.050655,-0.02185,0,-0.0044893,0,0,0,0.0069546,-3.0365e-05,0.0020773,-1.7715,0.0030005,0.0062057,7.6716e-09,0.76,0.92,0
0.039239,-0.0081106,0.0069101,-8.6896e-06,0.0020704,-0.00022248,0,0,0.050332,-0.021623,0,-0.0046277,0,0,0,0.0069172,-1.5837e-05,0.0020704,-1.8399,0.0029906,0.0061608,7.5319e-09,0.78,0.92,0
0.040243,-0.0082402,0.0068719,5.7134e-06,0.0020633,-0.00022299,0,0,0.050009,-0.021399,0,-0.0046382,0,0,0,0.0068791,-1.5209e-06,0.0020633,-1.8582,0.0029803,0.0061155,7.3917e-09,0.8,0.92,0
0.04124,-0.0083677,0.0068344,1.9169e-05,0.0020561,-0.00021767,0,0,0.049694,-0.021184,0,-0.0045276,0,0,0,0.0068413,1.2224e-05,0.0020561,-1.8275,0.0029699,0.0060709,7.2549e-09,0.82,0.92,0
0.04223,-0.0084902,0.0067985,3.1415e-05,0.002049,-0.00020699,0,0,0.049395,-0.020983,0,-0.0043055,0,0,0,0.0068048,2.5089e-05,0.002049,-1.7504,0.0029596,0.0060282,7.1246e-09,0.84,0.92,0
0.043215,-0.0086051,0.006765,4.2274e-05,0.0020422,-0.0001915,0,0,0.049117,-0.020799,0,-0.0039831,0,0,0,0.0067704,3.6823e-05,0.0020422,-1.6303,0.0029498,0.0059883,7.0039e-09,0.86,0.92,0
0.044195,-0.0087098,0.0067346,5.1646e-05,0.0020359,-0.00017178,0,0,0.048867,-0.020636,0,-0.0035731,0,0,0,0.006739,4.7233e-05,0.0020359,-1.4715,0.0029407,0.0059521,6.895e-09,0.88,0.92,0
0.04517,-0.0088023,0.0067079,5.9493e-05,0.0020302,-0.00014849,0,0,0.048648,-0.020496,0,-0.0030886,0,0,0,0.0067113,5.6178e-05,0.0020302,-1.2788,0.0029326,0.0059203,6.8e-09,0.9,0.92,0
0.046141,-0.0088806,0.0066855,6.5822e-05,0.0020254,-0.00012224,0,0,0.048465,-0.02038,0,-0.0025427,0,0,0,0.0066878,6.3566e-05,0.0020254,-1.0576,0.0029256,0.0058935,6.7205e-09,0.92,0.92,0
0.047109,-0.0089432,0.0066677,7.0671e-05,0.0020215,-9.3676e-05,0,0,0.04832,-0.020289,0,-0.0019485,0,0,0,0.006669,6.9341e-05,0.0020215,-0.81337,0.00292,0.0058722,6.6575e-09,0.94,0.92,0
0.048074,-0.0089887,0.0066547,7.4087e-05,0.0020186,-6.3391e-05,0,0,0.048215,-0.020223,0,-0.0013185,0,0,0,0.0066553,7.3476e-05,0.0020186,-0.55186,0.0029158,0.0058568,6.612e-09,0.96,0.92,0
0.049037,-0.0090164,0.0066469,7.6115e-05,0.0020169,-3.1976e-05,0,0,0.048152,-0.020184,0,-0.0006651,0,0,0,0.0066471,7.5959e-05,0.0020169,-0.27881,0.0029133,0.0058474,6.5845e-09,0.98,0.92,0
0.05,-0.0090257,0.0066443,7.6787e-05,0.0020163,-2.2328e-05,0,0,0.048131,-0.020171,0,-0.00046442,0,0,0,0.0066444,7.6711e-05,0.0020163,-0.19479,0.0029125,0.0058444,6.5756e-09,1,0.92,0
0,0,0.0078324,0.0033567,0.0033567,-0.002332,0,0,0.046547,1.301e-18,0,-0.048505,0,0,0,0.0088266,0.0023626,0.0033567,-23.09,0.0048486,0.0060288,1.023e-08,0,0.94,0
0.00093094,-0.0009701,0.0077297,0.0025237,0.003076,-0.0022207,0,0,0.048398,-0.0057439,0,-0.04619,0,0,0,0.0085482,0.0017051,0.003076,-20.234,0.0044431,0.006271,1.0654e-08,0.02,0.94,0
0.0019359,-0.0019867,0.0078034,0.0016786,0.0028446,-0.0020167,0,0,0.051572,-0.012127,0,-0.041947,0,0,0,0.0084078,0.0010742,0.0028446,-16.683,0.0041089,0.0066282,1.1436e-08,0.04,0.94,0
0.0029938,-0.0029604,0.0077932,0.0010803,0.0026621,-0.0016488,0,0,0.053364,-0.01645,0,-0.034294,0,0,0,0.0081763,0.00069722,0.0026621,-13.081,0.0038452,0.0067158,1.1185e-08,0.06,0.94,0
0.0040705,-0.003839,0.007678,0.00074191,0.002526,-0.0012811,0,0,0.053581,-0.018554,0,-0.026647,0,0,0,0.007907,0.00051285,0.002526,-10.137,0.0036486,0.0066213,1.0394e-08,0.08,0.94,0
0.005137,-0.0046092,0.0074825,0.00052724,0.0024029,-0.00097398,0,0,0.052827,-0.019507,0,-0.020259,0,0,0,0.0076163,0.00039342,0.0024029,-7.823,0.0034709,0.0064571,9.4466e-09,0.1,0.94,0
0.0061836,-0.0052775,0.0072798,0.0003891,0.0023007,-0.00073308,0,0,0.051783,-0.01988,0,-0.015248,0,0,0,0.007357,0.00031197,0.0023007,-6.0059,0.0033232,0.006291,8.6116e-09,0.12,0.94,0
0.0072084,-0.0058532,0.0070977,0.00029684,0.0022184,-0.00054453,0,0,0.050745,-0.019984,0,-0.011326,0,0,0,0.0071411,0.00025352,0.0022184,-4.5489,0.0032043,0.0061454,7.9412e-09,0.14,0.94,0
0.0082134,-0.0063458,0.0069455,0.00023328,0.0021536,-0.0003952,0,0,0.049836,-0.019972,0,-0.0082202,0,0,0,0.0069687,0.00021009,0.0021536,-3.358,0.0031108,0.0060267,7.4269e-09,0.16,0.94,0
0.0092018,-0.0067635,0.006824,0.00018803,0.0021036,-0.00027484,0,0,0.049092,-0.019922,0,-0.0057166,0,0,0,0.0068354,0.00017666,0.0021036,-2.3676,0.0030386,0.0059347,7.0441e-09,0.18,0.94,0
0.010177,-0.0071135,0.0067311,0.00015474,0.0020657,-0.00017612,0,0,0.048519,-0.019874,0,-0.0036632,0,0,0,0.0067358,0.00015003,0.0020657,-1.5329,0.0029839,0.0058674,6.7683e-09,0.2,0.94,0
0.011143,-0.0074022,0.0066635,0.0001294,0.0020379,-9.3918e-05,0,0,0.048107,-0.019848,0,-0.0019535,0,0,0,0.0066649,0.00012805,0.0020379,-0.82331,0.0029436,0.0058218,6.5798e-09,0.22,0.94,0
0.012101,-0.0076355,0.0066183,0.00010938,0.0020183,-2.4686e-05,0,0,0.04784,-0.019853,0,-0.00051348,0,0,0,0.0066184,0.00010929,0.0020183,-0.2173,0.0029153,0.0057954,6.4628e-09,0.24,0.94,0
0.013056,-0.0078187,0.0065925,9.2905e-05,0.0020056,3.4021e-05,0,0,0.047704,-0.019892,0,0.00070764,0,0,0,0.0065927,9.2727e-05,0.0020056,0.29989,0.002897,0.0057858,6.4054e-09,0.26,0.94,0
0.014009,-0.0079568,0.0065835,7.8746e-05,0.0019987,8.386e-05,0,0,0.047682,-0.019967,0,0.0017443,0,0,0,0.0065846,7.7665e-05,0.0019987,0.7385,0.002887,0.0057906,6.398e-09,0.28,0.94,0
0.014963,-0.0080548,0.006589,6.6038e-05,0.0019965,0.00012592,0,0,0.047762,-0.020077,0,0.0026192,0,0,0,0.0065914,6.3608e-05,0.0019965,1.1055,0.0028839,0.0058078,6.4332e-09,0.3,0.94,0
0.01592,-0.0081173,0.0066068,5.4165e-05,0.0019983,0.0001609,0,0,0.047929,-0.020219,0,0.0033466,0,0,0,0.0066108,5.0217e-05,0.0019983,1.4057,0.0028864,0.0058357,6.5046e-09,0.32,0.94,0
0.016881,-0.0081492,0.0066349,4.2705e-05,0.0020033,0.00018917,0,0,0.048169,-0.02039,0,0.0039348,0,0,0,0.0066403,3.7281e-05,0.0020033,1.6424,0.0028936,0.0058723,6.6066e-09,0.34,0.94,0
0.017847,-0.0081549,0.0066714,3.1383e-05,0.0020108,0.00021095,0,0,0.04847,-0.020586,0,0.0043878,0,0,0,0.0066781,2.4687e-05,0.0020108,1.8178,0.0029045,0.0059159,6.7339e-09,0.36,0.94,0
0.018819,-0.0081392,0.0067144,2.0053e-05,0.0020203,0.00022631,0,0,0.048818,-0.020803,0,0.0047073,0,0,0,0.006722,1.2411e-05,0.0020203,1.9341,0.0029182,0.0059647,6.8815e-09,0.38,0.94,0
0.0198,-0.0081068,0.006762,8.6811e-06,0.0020312,0.00023528,0,0,0.049201,-0.021034,0,0.0048938,0,0,0,0.0067702,4.9416e-07,0.0020312,1.9929,0.002934,0.0060171,7.0441e-09,0.4,0.94,0
0.020787,-0.0080621,0.0068126,-2.669e-06,0.002043,0.00023787,0,0,0.049604,-0.021275,0,0.0049478,0,0,0,0.0068209,-1.0961e-05,0.002043,1.9966,0.002951,0.0060713,7.2164e-09,0.42,0.94,0
0.021784,-0.0080097,0.0068643,-1.3849e-05,0.0020551,0.00023418,0,0,0.050016,-0.021518,0,0.004871,0,0,0,0.0068723,-2.1813e-05,0.0020551,1.9477,0.0029685,0.0061257,7.3931e-09,0.44,0.94,0
0.022788,-0.0079539,0.0069155,-2.4641e-05,0.0020673,0.00022437,0,0,0.050422,-0.021756,0,0.0046669,0,0,0,0.0069228,-3.1887e-05,0.0020673,1.8498,0.0029861,0.0061786,7.5687e-09,0.46,0.94,0
0.0238,-0.0078987,0.0069645,-3.4778e-05,0.0020789,0.00020875,0,0,0.05081,-0.021982,0,0.004342,0,0,0,0.0069707,-4.0998e-05,0.0020789,1.7068,0.0030029,0.0062285,7.7374e-09,0.48,0.94,0
0.02482,-0.007848,0.0070098,-4.3964e-05,0.0020897,0.00018777,0,0,0.051168,-0.02219,0,0.0039056,0,0,0,0.0070148,-4.8959e-05,0.0020897,1.5238,0.0030185,0.006274,7.8941e-09,0.5,0.94,0
0.025847,-0.0078052,0.0070499,-5.19e-05,0.0020994,0.00016205,0,0,0.051485,-0.022374,0,0.0033706,0,0,0,0.0070536,-5.5596e-05,0.0020994,1.3064,0.0030325,0.0063139,8.0336e-09,0.52,0.94,0
0.02688,-0.0077734,0.0070838,-5.8308e-05,0.0021076,0.00013235,0,0,0.051752,-0.022526,0,0.0027528,0,0,0,0.0070862,-6.076e-05,0.0021076,1.0612,0.0030444,0.006347,8.1515e-09,0.54,0.94,0
0.027917,-0.0077548,0.0071104,-6.2954e-05,0.0021142,9.9577e-05,0,0,0.05196,-0.022643,0,0.0020712,0,0,0,0.0071118,-6.4336e-05,0.0021142,0.79515,0.0030539,0.0063725,8.244e-09,0.56,0.94,0
0.028958,-0.0077514,0.007129,-6.5666e-05,0.002119,6.4751e-05,0,0,0.052104,-0.022721,0,0.0013468,0,0,0,0.0071296,-6.6249e-05,0.002119,0.5156,0.0030608,0.0063899,8.3082e-09,0.58,0.94,0
0.030002,-0.0077645,0.0071392,-6.6355e-05,0.0021219,2.8953e-05,0,0,0.05218,-0.022757,0,0.00060223,0,0,0,0.0071393,-6.6472e-05,0.0021219,0.23022,0.0030649,0.0063987,8.3424e-09,0.6,0.94,0
0.031046,-0.0077948,0.0071408,-6.5017e-05,0.0021227,-6.7064e-06,0,0,0.052188,-0.022752,0,-0.00013949,0,0,0,0.0071408,-6.5024e-05,0.0021227,-0.053325,0.0030662,0.0063989,8.3458e-09,0.62,0.94,0
0.032089,-0.0078422,0.0071339,-6.1739e-05,0.0021216,-4.1143e-05,0,0,0.052127,-0.022707,0,-0.00085578,0,0,0,0.0071341,-6.1975e-05,0.0021216,-0.32759,0.0030646,0.0063905,8.3188e-09,0.64,0.94,0
0.033131,-0.0079061,0.0071189,-5.6692e-05,0.0021187,-7.3342e-05,0,0,0.052003,-0.022624,0,-0.0015255,0,0,0,0.0071197,-5.7442e-05,0.0021187,-0.58554,0.0030603,0.006374,8.263e-09,0.66,0.94,0
0.034169,-0.0079855,0.0070965,-5.0119e-05,0.0021139,-0.0001024,0,0,0.051819,-0.022506,0,-0.00213,0,0,0,0.007098,-5.1586e-05,0.0021139,-0.82075,0.0030534,0.0063501,8.1808e-09,0.68,0.94,0
0.035203,-0.0080786,0.0070675,-4.2318e-05,0.0021076,-0.00012757,0,0,0.051583,-0.022359,0,-0.0026534,0,0,0,0.0070698,-4.4606e-05,0.0021076,-1.0276,0.0030443,0.0063194,8.0757e-09,0.7,0.94,0
0.036232,-0.0081835,0.007033,-3.3621e-05,0.0020998,-0.00014826,0,0,0.051305,-0.022188,0,-0.0030837,0,0,0,0.0070361,-3.673e-05,0.0020998,-1.2013,0.003033,0.0062832,7.9516e-09,0.72,0.94,0
0.037255,-0.0082975,0.006994,-2.4375e-05,0.0020909,-0.00016407,0,0,0.050993,-0.021999,0,-0.0034127,0,0,0,0.0069978,-2.8208e-05,0.0020909,-1.3384,0.0030202,0.0062424,7.8128e-09,0.74,0.94,0
0.038272,-0.0084182,0.0069519,-1.4916e-05,0.0020811,-0.0001748,0,0,0.050656,-0.021798,0,-0.0036358,0,0,0,0.0069563,-1.9299e-05,0.0020811,-1.4364,0.003006,0.0061983,7.6641e-09,0.76,0.94,0
0.039282,-0.0085427,0.0069078,-5.5533e-06,0.0020707,-0.0001804,0,0,0.050306,-0.021593,0,-0.0037524,0,0,0,0.0069125,-1.0258e-05,0.0020707,-1.4938,0.002991,0.0061522,7.5102e-09,0.78,0.94,0
0.040284,-0.0086681,0.0068631,3.4431e-06,0.00206,-0.00018101,0,0,0.049952,-0.021388,0,-0.0037649,0,0,0,0.0068679,-1.3298e-06,0.00206,-1.5105,0.0029755,0.0061053,7.3553e-09,0.8,0.94,0
0.04128,-0.0087915,0.0068189,1.1855e-05,0.0020492,-0.00017686,0,0,0.049604,-0.021188,0,-0.0036788,0,0,0,0.0068235,7.2626e-06,0.0020492,-1.4874,0.00296,0.006059,7.2038e-09,0.82,0.94,0
0.042269,-0.0089102,0.0067763,1.9517e-05,0.0020387,-0.00016834,0,0,0.04927,-0.021,0,-0.0035014,0,0,0,0.0067805,1.5326e-05,0.0020387,-1.4263,0.0029448,0.0060143,7.0594e-09,0.84,0.94,0
0.043251,-0.0090215,0.0067363,2.6318e-05,0.0020288,-0.00015586,0,0,0.048958,-0.020826,0,-0.0032418,0,0,0,0.0067399,2.27e-05,0.0020288,-1.3299,0.0029305,0.0059724,6.9252e-09,0.86,0.94,0
0.044227,-0.0091232,0.0066999,3.2193e-05,0.0020196,-0.00013991,0,0,0.048675,-0.020669,0,-0.0029101,0,0,0,0.0067028,2.9258e-05,0.0020196,-1.2016,0.0029172,0.0059342,6.8041e-09,0.88,0.94,0
0.045198,-0.0092129,0.0066678,3.7116e-05,0.0020115,-0.00012101,0,0,0.048426,-0.020533,0,-0.002517,0,0,0,0.00667,3.4908e-05,0.0020115,-1.0452,0.0029054,0.0059005,6.6983e-09,0.9,0.94,0
0.046164,-0.0092889,0.0066406,4.109e-05,0.0020045,-9.9673e-05,0,0,0.048216,-0.02042,0,-0.0020732,0,0,0,0.0066422,3.9585e-05,0.0020045,-0.86508,0.0028954,0.0058721,6.6096e-09,0.92,0.94,0
0.047126,-0.0093497,0.006619,4.4135e-05,0.0019989,-7.6411e-05,0,0,0.048049,-0.02033,0,-0.0015893,0,0,0,0.0066199,4.3248e-05,0.0019989,-0.66575,0.0028874,0.0058494,6.5393e-09,0.94,0.94,0
0.048086,-0.009394,0.0066033,4.6282e-05,0.0019949,-5.1722e-05,0,0,0.047927,-0.020265,0,-0.0010758,0,0,0,0.0066037,4.5874e-05,0.0019949,-0.45192,0.0028815,0.0058329,6.4884e-09,0.96,0.94,0
0.049043,-0.0094209,0.0065937,4.7557e-05,0.0019924,-2.6094e-05,0,0,0.047854,-0.020226,0,-0.00054276,0,0,0,0.0065938,4.7454e-05,0.0019924,-0.22839,0.0028779,0.0058229,6.4576e-09,0.98,0.94,0
0.05,-0.0094299,0.0065905,4.798e-05,0.0019915,-2.1707e-05,0,0,0.047829,-0.020213,0,-0.00045151,0,0,0,0.0065906,4.7908e-05,0.0019915,-0.19009,0.0028767,0.0058196,6.4476e-09,1,0.94,0
0,0,0.0086059,0.0036883,0.0036883,-0.0026608,0,0,0.051144,1.7347e-18,0,-0.055344,0,0,0,0.00977,0.0025242,0.0036883,-23.629,0.0053275,0.0067396,1.4155e-08,0,0.96,0
0.0010229,-0.0011069,0.0082896,0.0022238,0.003154,-0.0024029,0,0,0.05341,-0.0096745,0,-0.049981,0,0,0,0.0091262,0.0013872,0.003154,-19.195,0.0045558,0.0070242,1.4075e-08,0.02,0.96,0
0.0021364,-0.0022701,0.008271,0.0010837,0.0028064,-0.0019106,0,0,0.056832,-0.017916,0,-0.039741,0,0,0,0.0087473,0.00060733,0.0028064,-13.999,0.0040537,0.0072935,1.3989e-08,0.04,0.96,0
0.0032961,-0.0033296,0.0081448,0.00068757,0.0026497,-0.0013864,0,0,0.057149,-0.020406,0,-0.028838,0,0,0,0.0083942,0.00043816,0.0026497,-10.198,0.0038274,0.007113,1.2638e-08,0.06,0.96,0
0.0044224,-0.0042382,0.0077712,0.00044275,0.0024642,-0.00098166,0,0,0.055193,-0.021023,0,-0.020418,0,0,0,0.0079004,0.00031353,0.0024642,-7.4988,0.0035594,0.0067726,1.0699e-08,0.08,0.96,0
0.0055038,-0.0050179,0.007416,0.00030188,0.0023153,-0.00070479,0,0,0.053046,-0.02094,0,-0.01466,0,0,0,0.0074851,0.00023273,0.0023153,-5.6037,0.0033444,0.0064677,9.1931e-09,0.1,0.96,0
0.0065442,-0.0056867,0.0071225,0.00021569,0.0022015,-0.0005087,0,0,0.051179,-0.020652,0,-0.010581,0,0,0,0.0071598,0.00017843,0.0022015,-4.1898,0.0031799,0.0062216,8.1039e-09,0.12,0.96,0
0.007551,-0.0062598,0.0068936,0.00016091,0.0021163,-0.00036532,0,0,0.049683,-0.020337,0,-0.0075986,0,0,0,0.0069133,0.00014114,0.0021163,-3.0968,0.0030569,0.0060322,7.3333e-09,0.14,0.96,0
0.0085316,-0.0067489,0.00672,0.0001245,0.0020533,-0.00025643,0,0,0.048533,-0.02006,0,-0.0053337,0,0,0,0.0067299,0.00011454,0.0020533,-2.2232,0.0029659,0.0058904,6.7912e-09,0.16,0.96,0
0.0094923,-0.0071635,0.0065921,9.9298e-05,0.0020074,-0.00017104,0,0,0.04768,-0.019844,0,-0.0035575,0,0,0,0.0065966,9.4795e-05,0.0020074,-1.5079,0.0028996,0.0057875,6.4145e-09,0.18,0.96,0
0.010439,-0.0075111,0.0065017,8.1145e-05,0.0019749,-0.00010223,0,0,0.047079,-0.019695,0,-0.0021264,0,0,0,0.0065033,7.9518e-05,0.0019749,-0.91197,0.0028526,0.0057168,6.161e-09,0.2,0.96,0
0.011376,-0.0077984,0.0064424,6.7542e-05,0.001953,-4.5597e-05,0,0,0.04669,-0.019609,0,-0.00094842,0,0,0,0.0064427,6.7216e-05,0.001953,-0.40979,0.002821,0.0056728,6.0023e-09,0.22,0.96,0
0.012306,-0.0080312,0.006409,5.6916e-05,0.0019398,1.7439e-06,0,0,0.04648,-0.019582,0,3.6272e-05,0,0,0,0.006409,5.6916e-05,0.0019398,0.01573,0.0028019,0.005651,5.9187e-09,0.24,0.96,0
0.013235,-0.0082149,0.0063975,4.8239e-05,0.0019337,4.1687e-05,0,0,0.046423,-0.019609,0,0.00086708,0,0,0,0.0063977,4.7965e-05,0.0019337,0.37616,0.0027931,0.0056482,5.8965e-09,0.26,0.96,0
0.014163,-0.0083543,0.0064043,4.0815e-05,0.0019336,7.547e-05,0,0,0.046496,-0.019685,0,0.0015698,0,0,0,0.0064053,3.992e-05,0.0019336,0.67939,0.0027929,0.0056612,5.9255e-09,0.28,0.96,0
0.015095,-0.0084544,0.0064268,3.4161e-05,0.0019383,0.00010388,0,0,0.04668,-0.019803,0,0.0021608,0,0,0,0.0064285,3.2474e-05,0.0019383,0.93077,0.0027997,0.0056878,5.9979e-09,0.3,0.96,0
0.01603,-0.0085198,0.0064622,2.7942e-05,0.001947,0.00012741,0,0,0.046958,-0.019959,0,0.0026501,0,0,0,0.0064647,2.542e-05,0.001947,1.134,0.0028124,0.0057257,6.1074e-09,0.32,0.96,0
0.016973,-0.0085551,0.0065083,2.1927e-05,0.0019591,0.00014631,0,0,0.047312,-0.020146,0,0.0030432,0,0,0,0.0065116,1.8629e-05,0.0019591,1.2915,0.0028298,0.0057728,6.2484e-09,0.34,0.96,0
0.017923,-0.0085648,0.0065628,1.597e-05,0.0019736,0.0001607,0,0,0.047728,-0.02036,0,0.0033425,0,0,0,0.0065668,1.2028e-05,0.0019736,1.4053,0.0028508,0.0058271,6.4158e-09,0.36,0.96,0
0.018882,-0.0085535,0.0066238,9.9944e-06,0.0019901,0.00017062,0,0,0.04819,-0.020593,0,0.0035488,0,0,0,0.0066281,5.5958e-06,0.0019901,1.4768,0.0028746,0.0058867,6.6043e-09,0.38,0.96,0
0.019851,-0.0085257,0.006689,3.9827e-06,0.0020079,0.00017606,0,0,0.048683,-0.020841,0,0.003662,0,0,0,0.0066936,-6.5094e-07,0.0020079,1.5076,0.0029003,0.0059499,6.8088e-09,0.4,0.96,0
0.020829,-0.0084858,0.0067565,-2.0285e-06,0.0020263,0.00017703,0,0,0.049193,-0.021095,0,0.0036822,0,0,0,0.0067611,-6.6623e-06,0.0020263,1.4994,0.0029269,0.0060147,7.0236e-09,0.42,0.96,0
0.021818,-0.0084383,0.0068243,-7.9577e-06,0.0020449,0.00017356,0,0,0.049705,-0.02135,0,0.0036101,0,0,0,0.0068287,-1.2364e-05,0.0020449,1.4543,0.0029537,0.0060793,7.2427e-09,0.44,0.96,0
0.022818,-0.0083872,0.0068905,-1.3687e-05,0.002063,0.00016578,0,0,0.050205,-0.021598,0,0.0034482,0,0,0,0.0068944,-1.7665e-05,0.002063,1.3747,0.0029799,0.006142,7.46e-09,0.46,0.96,0
0.023827,-0.0083366,0.0069532,-1.9071e-05,0.0020803,0.00015389,0,0,0.050679,-0.021833,0,0.0032009,0,0,0,0.0069566,-2.2466e-05,0.0020803,1.2638,0.0030048,0.0062011,7.6691e-09,0.48,0.96,0
0.024845,-0.00829,0.0070109,-2.3951e-05,0.0020961,0.00013821,0,0,0.051114,-0.022048,0,0.0028747,0,0,0,0.0070136,-2.6665e-05,0.0020961,1.1251,0.0030277,0.0062551,7.8637e-09,0.5,0.96,0
0.025871,-0.0082509,0.0070618,-2.8165e-05,0.0021101,0.00011917,0,0,0.051498,-0.022238,0,0.0024787,0,0,0,0.0070638,-3.0167e-05,0.0021101,0.96265,0.0030479,0.0063026,8.0379e-09,0.52,0.96,0
0.026905,-0.008222,0.0071048,-3.1564e-05,0.002122,9.7317e-05,0,0,0.051821,-0.022397,0,0.0020242,0,0,0,0.0071061,-3.2891e-05,0.002122,0.78114,0.0030651,0.0063423,8.1862e-09,0.54,0.96,0
0.027944,-0.0082058,0.0071387,-3.4022e-05,0.0021314,7.3306e-05,0,0,0.052076,-0.02252,0,0.0015248,0,0,0,0.0071394,-3.4772e-05,0.0021314,0.58549,0.0030787,0.0063735,8.3041e-09,0.56,0.96,0
0.028988,-0.008204,0.0071628,-3.5448e-05,0.0021382,4.7858e-05,0,0,0.052256,-0.022606,0,0.00099545,0,0,0,0.0071631,-3.5766e-05,0.0021382,0.38092,0.0030885,0.0063953,8.3879e-09,0.58,0.96,0
0.030034,-0.008218,0.0071765,-3.5791e-05,0.0021422,2.1749e-05,0,0,0.052357,-0.022651,0,0.00045238,0,0,0,0.0071766,-3.5856e-05,0.0021422,0.17278,0.0030943,0.0064073,8.4355e-09,0.6,0.96,0
0.031082,-0.0082482,0.0071798,-3.505e-05,0.0021434,-4.2255e-06,0,0,0.052378,-0.022656,0,-8.7891e-05,0,0,0,0.0071798,-3.5053e-05,0.0021434,-0.033556,0.0030961,0.0064096,8.4459e-09,0.62,0.96,0
0.032129,-0.0082949,0.0071728,-3.3272e-05,0.0021419,-2.9288e-05,0,0,0.052322,-0.022621,0,-0.00060919,0,0,0,0.0071729,-3.3391e-05,0.0021419,-0.23286,0.0030938,0.0064021,8.4197e-09,0.64,0.96,0
0.033175,-0.0083573,0.0071561,-3.0546e-05,0.0021377,-5.2709e-05,0,0,0.052191,-0.022549,0,-0.0010964,0,0,0,0.0071564,-3.0933e-05,0.0021377,-0.4202,0.0030877,0.0063855,8.3587e-09,0.66,0.96,0
0.034217,-0.0084345,0.0071303,-2.7003e-05,0.002131,-7.3842e-05,0,0,0.051993,-0.022443,0,-0.0015359,0,0,0,0.007131,-2.7765e-05,0.002131,-0.59104,0.0030781,0.0063604,8.2662e-09,0.68,0.96,0
0.035255,-0.0085249,0.0070964,-2.2803e-05,0.0021221,-9.2145e-05,0,0,0.051733,-0.022307,0,-0.0019166,0,0,0,0.0070976,-2.3995e-05,0.0021221,-0.74142,0.0030652,0.0063277,8.1462e-09,0.7,0.96,0
0.036286,-0.0086265,0.0070558,-1.8122e-05,0.0021113,-0.0001072,0,0,0.051423,-0.022146,0,-0.0022297,0,0,0,0.0070575,-1.9746e-05,0.0021113,-0.86798,0.0030497,0.0062886,8.0037e-09,0.72,0.96,0
0.037311,-0.0087369,0.0070098,-1.3146e-05,0.002099,-0.00011871,0,0,0.051072,-0.021966,0,-0.0024692,0,0,0,0.0070118,-1.5152e-05,0.002099,-0.96813,0.0030319,0.0062443,7.8441e-09,0.74,0.96,0
0.038329,-0.0088538,0.0069598,-8.0561e-06,0.0020855,-0.00012654,0,0,0.050692,-0.021773,0,-0.002632,0,0,0,0.0069621,-1.0353e-05,0.0020855,-1.04,0.0030124,0.0061963,7.6728e-09,0.76,0.96,0
0.039339,-0.0089743,0.0069073,-3.0174e-06,0.0020713,-0.00013065,0,0,0.050294,-0.021573,0,-0.0027175,0,0,0,0.0069097,-5.4866e-06,0.0020713,-1.0827,0.0029918,0.0061459,7.4955e-09,0.78,0.96,0
0.040341,-0.0090957,0.0068538,1.8252e-06,0.0020567,-0.00013113,0,0,0.04989,-0.021371,0,-0.0027274,0,0,0,0.0068563,-6.8326e-07,0.0020567,-1.0959,0.0029708,0.0060945,7.3174e-09,0.8,0.96,0
0.041335,-0.0092152,0.0068007,6.3541e-06,0.0020421,-0.00012816,0,0,0.049489,-0.021172,0,-0.0026657,0,0,0,0.0068031,3.9375e-06,0.0020421,-1.0802,0.0029497,0.0060436,7.1434e-09,0.82,0.96,0
0.04232,-0.0093302,0.0067495,1.048e-05,0.002028,-0.00012201,0,0,0.049104,-0.020982,0,-0.0025377,0,0,0,0.0067517,8.2723e-06,0.002028,-1.0369,0.0029293,0.0059944,6.9778e-09,0.84,0.96,0
0.043299,-0.0094381,0.0067013,1.4144e-05,0.0020146,-0.00011298,0,0,0.048742,-0.020805,0,-0.00235,0,0,0,0.0067032,1.2235e-05,0.0020146,-0.96766,0.00291,0.0059482,6.8241e-09,0.86,0.96,0
0.04427,-0.0095366,0.0066573,1.7308e-05,0.0020024,-0.00010144,0,0,0.048411,-0.020645,0,-0.0021099,0,0,0,0.0066589,1.5759e-05,0.0020024,-0.87503,0.0028923,0.0059059,6.6856e-09,0.88,0.96,0
0.045235,-0.0096237,0.0066185,1.9961e-05,0.0019915,-8.7747e-05,0,0,0.04812,-0.020504,0,-0.0018251,0,0,0,0.0066196,1.8794e-05,0.0019915,-0.76174,0.0028767,0.0058687,6.5648e-09,0.9,0.96,0
0.046195,-0.0096974,0.0065856,2.2102e-05,0.0019823,-7.2282e-05,0,0,0.047874,-0.020386,0,-0.0015035,0,0,0,0.0065864,2.1306e-05,0.0019823,-0.63088,0.0028633,0.0058371,6.4636e-09,0.92,0.96,0
0.04715,-0.0097564,0.0065593,2.3744e-05,0.0019749,-5.5416e-05,0,0,0.047678,-0.020292,0,-0.0011527,0,0,0,0.0065598,2.3274e-05,0.0019749,-0.48578,0.0028526,0.0058119,6.3834e-09,0.94,0.96,0
0.048102,-0.0097993,0.0065402,2.4901e-05,0.0019695,-3.7513e-05,0,0,0.047535,-0.020224,0,-0.00078028,0,0,0,0.0065404,2.4685e-05,0.0019695,-0.32988,0.0028449,0.0057935,6.3255e-09,0.96,0.96,0
0.049052,-0.0098254,0.0065286,2.5588e-05,0.0019663,-1.8926e-05,0,0,0.047448,-0.020183,0,-0.00039367,0,0,0,0.0065286,2.5533e-05,0.0019663,-0.16675,0.0028401,0.0057824,6.2904e-09,0.98,0.96,0
0.05,-0.0098342,0.0065247,2.5816e-05,0.0019652,-2.1071e-05,0,0,0.047419,-0.020169,0,-0.00043828,0,0,0,0.0065247,2.5748e-05,0.0019652,-0.18577,0.0028385,0.0057788,6.279e-09,1,0.96,0
0,0,0.010111,0.0043332,0.0043332,-0.0032622,0,0,0.060087,3.4694e-18,0,-0.067854,0,0,0,0.011579,0.0028646,0.0043332,-24.237,0.0062591,0.0080813,2.4116e-08,0,0.98,0
0.0012017,-0.0013571,0.0092128,0.00091139,0.0030373,-0.0020522,0,0,0.064225,-0.022109,0,-0.042686,0,0,0,0.0096924,0.00043177,0.0030373,-13.155,0.0043871,0.0082716,1.964e-08,0.02,0.98,0
0.002569,-0.0027034,0.00926,0.00071981,0.0029939,-0.0013377,0,0,0.065167,-0.023651,0,-0.027825,0,0,0,0.0094646,0.00051517,0.0029939,-8.6974,0.0043246,0.0080033,1.8065e-08,0.04,0.98,0
0.0038084,-0.0037767,0.0083138,0.00038463,0.0026095,-0.00079909,0,0,0.059325,-0.023139,0,-0.016621,0,0,0,0.0083936,0.0003049,0.0026095,-5.6978,0.0037693,0.0072178,1.2883e-08,0.06,0.98,0
0.004942,-0.0046799,0.0076208,0.0002278,0.0023546,-0.00052654,0,0,0.054769,-0.022119,0,-0.010952,0,0,0,0.0076581,0.00019049,0.0023546,-4.0534,0.0034011,0.006655,9.9172e-09,0.08,0.98,0
0.0059992,-0.0054468,0.0071371,0.00014516,0.0021847,-0.00035972,0,0,0.051506,-0.021211,0,-0.0074821,0,0,0,0.0071556,0.00012671,0.0021847,-2.9374,0.0031557,0.006259,8.1567e-09,0.1,0.98,0
0.0070022,-0.0061036,0.0067993,9.9641e-05,0.0020697,-0.00025159,0,0,0.049188,-0.020488,0,-0.005233,0,0,0,0.0068087,9.0207e-05,0.0020697,-2.1475,0.0029895,0.0059798,7.0624e-09,0.12,0.98,0
0.0079667,-0.0066667,0.006561,7.2488e-05,0.0019901,-0.00017572,0,0,0.047538,-0.019943,0,-0.003655,0,0,0,0.0065658,6.7733e-05,0.0019901,-1.5501,0.0028745,0.0057817,6.3537e-09,0.14,0.98,0
0.0089037,-0.0071482,0.0063939,5.5232e-05,0.0019347,-0.00011957,0,0,0.046375,-0.019547,0,-0.0024871,0,0,0,0.0063961,5.2977e-05,0.0019347,-1.0803,0.0027946,0.0056427,5.8869e-09,0.16,0.98,0
0.0098217,-0.0075572,0.0062798,4.364e-05,0.001897,-7.6166e-05,0,0,0.045581,-0.019275,0,-0.0015842,0,0,0,0.0062808,4.271e-05,0.001897,-0.69964,0.0027402,0.0055484,5.5832e-09,0.18,0.98,0
0.010727,-0.0079013,0.0062071,3.5464e-05,0.0018728,-4.1474e-05,0,0,0.045077,-0.019108,0,-0.00086265,0,0,0,0.0062074,3.5186e-05,0.0018728,-0.38501,0.0027051,0.0054892,5.3965e-09,0.2,0.98,0
0.011625,-0.0081865,0.0061674,2.9427e-05,0.0018591,-1.3036e-05,0,0,0.044807,-0.019028,0,-0.00027115,0,0,0,0.0061675,2.9399e-05,0.0018591,-0.12169,0.0026853,0.0054583,5.2983e-09,0.22,0.98,0
0.012519,-0.0084188,0.0061549,2.4757e-05,0.0018539,1.0695e-05,0,0,0.04473,-0.019023,0,0.00022246,0,0,0,0.0061549,2.4738e-05,0.0018539,0.099963,0.0026778,0.0054508,5.2702e-09,0.24,0.98,0
0.013414,-0.008603,0.0061648,2.0965e-05,0.0018557,3.071e-05,0,0,0.044815,-0.019082,0,0.00063878,0,0,0,0.006165,2.0811e-05,0.0018557,0.28639,0.0026805,0.005463,5.2999e-09,0.26,0.98,0
0.014312,-0.0087442,0.0061937,1.7727e-05,0.0018634,4.7641e-05,0,0,0.045035,-0.019195,0,0.00099094,0,0,0,0.0061941,1.7359e-05,0.0018634,0.44194,0.0026916,0.0054915,5.3785e-09,0.28,0.98,0
0.015215,-0.0088469,0.0062384,1.4822e-05,0.001876,6.1879e-05,0,0,0.045369,-0.019356,0,0.0012871,0,0,0,0.006239,1.4207e-05,0.001876,0.5696,0.0027097,0.005534,5.4995e-09,0.3,0.98,0
0.016127,-0.0089157,0.0062962,1.2098e-05,0.0018925,7.365e-05,0,0,0.045799,-0.019556,0,0.0015319,0,0,0,0.0062971,1.1235e-05,0.0018925,0.67139,0.0027336,0.005588,5.6576e-09,0.32,0.98,0
0.017047,-0.008955,0.0063647,9.4515e-06,0.0019123,8.3071e-05,0,0,0.046306,-0.019789,0,0.0017279,0,0,0,0.0063658,8.3659e-06,0.0019123,0.74875,0.0027622,0.0056514,5.8479e-09,0.34,0.98,0
0.017979,-0.0089693,0.0064416,6.8185e-06,0.0019345,9.0182e-05,0,0,0.046874,-0.020048,0,0.0018758,0,0,0,0.0064429,5.5549e-06,0.0019345,0.80277,0.0027943,0.0057221,6.0658e-09,0.36,0.98,0
0.018922,-0.008963,0.0065246,4.1653e-06,0.0019586,9.4981e-05,0,0,0.047486,-0.020326,0,0.0019756,0,0,0,0.006526,2.782e-06,0.0019586,0.83438,0.0028291,0.0057982,6.3065e-09,0.38,0.98,0
0.019878,-0.0089404,0.0066114,1.4861e-06,0.0019839,9.7451e-05,0,0,0.048126,-0.020617,0,0.002027,0,0,0,0.0066128,4.9669e-08,0.0019839,0.84448,0.0028656,0.0058775,6.5644e-09,0.4,0.98,0
0.020847,-0.0089059,0.0066997,-1.2012e-06,0.0020095,9.7577e-05,0,0,0.048777,-0.020912,0,0.0020296,0,0,0,0.0067011,-2.6218e-06,0.0020095,0.83409,0.0029027,0.0059581,6.8339e-09,0.42,0.98,0
0.021829,-0.0088637,0.0067873,-3.8583e-06,0.002035,9.5369e-05,0,0,0.049424,-0.021205,0,0.0019837,0,0,0,0.0067887,-5.1974e-06,0.002035,0.8044,0.0029395,0.006038,7.1081e-09,0.44,0.98,0
0.022824,-0.0088178,0.0068721,-6.4303e-06,0.0020597,9.0879e-05,0,0,0.050049,-0.021488,0,0.0018903,0,0,0,0.0068733,-7.6308e-06,0.0020597,0.75682,0.0029751,0.0061152,7.3801e-09,0.46,0.98,0
0.023831,-0.008772,0.006952,-8.8504e-06,0.0020829,8.4211e-05,0,0,0.050638,-0.021754,0,0.0017516,0,0,0,0.006953,-9.869e-06,0.0020829,0.69302,0.0030087,0.0061878,7.6422e-09,0.48,0.98,0
0.02485,-0.00873,0.0070249,-1.1045e-05,0.0021042,7.553e-05,0,0,0.051176,-0.021998,0,0.001571,0,0,0,0.0070257,-1.1856e-05,0.0021042,0.61497,0.0030393,0.0062541,7.8868e-09,0.5,0.98,0
0.025878,-0.0086948,0.0070892,-1.2941e-05,0.0021229,6.5064e-05,0,0,0.05165,-0.022212,0,0.0013533,0,0,0,0.0070898,-1.3537e-05,0.0021229,0.52484,0.0030664,0.0063124,8.1065e-09,0.52,0.98,0
0.026916,-0.0086692,0.0071433,-1.4468e-05,0.0021387,5.3106e-05,0,0,0.052048,-0.022392,0,0.0011046,0,0,0,0.0071437,-1.4862e-05,0.0021387,0.42507,0.0030892,0.0063613,8.2944e-09,0.54,0.98,0
0.02796,-0.0086556,0.007186,-1.557e-05,0.0021511,4.0002e-05,0,0,0.052363,-0.022534,0,0.00083203,0,0,0,0.0071862,-1.5792e-05,0.0021511,0.31824,0.0031072,0.0063999,8.4445e-09,0.56,0.98,0
0.02901,-0.0086556,0.0072165,-1.6204e-05,0.0021601,2.614e-05,0,0,0.052586,-0.022633,0,0.00054371,0,0,0,0.0072165,-1.6299e-05,0.0021601,0.20707,0.0031201,0.0064272,8.5523e-09,0.58,0.98,0
0.030064,-0.0086706,0.0072341,-1.6347e-05,0.0021653,1.1939e-05,0,0,0.052715,-0.022689,0,0.00024833,0,0,0,0.0072341,-1.6367e-05,0.0021653,0.094347,0.0031277,0.0064429,8.6149e-09,0.6,0.98,0
0.031119,-0.008701,0.0072388,-1.5999e-05,0.0021668,-2.1727e-06,0,0,0.052748,-0.022701,0,-4.5192e-05,0,0,0,0.0072388,-1.6e-05,0.0021668,-0.017159,0.0031299,0.0064467,8.6311e-09,0.62,0.98,0
0.032174,-0.008747,0.0072308,-1.5179e-05,0.0021647,-1.5776e-05,0,0,0.052687,-0.022671,0,-0.00032813,0,0,0,0.0072308,-1.5214e-05,0.0021647,-0.12474,0.0031268,0.006439,8.6018e-09,0.64,0.98,0
0.033226,-0.0088081,0.0072108,-1.393e-05,0.0021591,-2.8477e-05,0,0,0.052538,-0.022599,0,-0.00059232,0,0,0,0.0072109,-1.4042e-05,0.0021591,-0.22583,0.0031186,0.0064204,8.5293e-09,0.66,0.98,0
0.034275,-0.0088832,0.0071796,-1.231e-05,0.0021502,-3.9928e-05,0,0,0.052306,-0.02249,0,-0.0008305,0,0,0,0.0071799,-1.2532e-05,0.0021502,-0.31808,0.0031058,0.0063916,8.418e-09,0.68,0.98,0
0.035319,-0.0089709,0.0071387,-1.0392e-05,0.0021385,-4.9836e-05,0,0,0.052002,-0.022348,0,-0.0010366,0,0,0,0.007139,-1.0739e-05,0.0021385,-0.39938,0.0030889,0.0063539,8.2731e-09,0.7,0.98,0
0.036355,-0.0090693,0.0070894,-8.2563e-06,0.0021244,-5.7977e-05,0,0,0.051637,-0.022179,0,-0.0012059,0,0,0,0.0070899,-8.7299e-06,0.0021244,-0.46798,0.0030685,0.0063086,8.101e-09,0.72,0.98,0
0.037384,-0.0091762,0.0070335,-5.9872e-06,0.0021082,-6.4198e-05,0,0,0.051222,-0.021988,0,-0.0013353,0,0,0,0.0070341,-6.5726e-06,0.0021082,-0.52246,0.0030452,0.0062573,7.9086e-09,0.74,0.98,0
0.038404,-0.0092891,0.0069727,-3.667e-06,0.0020907,-6.8416e-05,0,0,0.050772,-0.021781,0,-0.0014231,0,0,0,0.0069733,-4.3379e-06,0.0020907,-0.56182,0.0030199,0.0062015,7.703e-09,0.76,0.98,0
0.039415,-0.0094056,0.0069088,-1.3712e-06,0.0020722,-7.0621e-05,0,0,0.0503,-0.021565,0,-0.0014689,0,0,0,0.0069095,-2.0928e-06,0.0020722,-0.58547,0.0029932,0.006143,7.4909e-09,0.78,0.98,0
0.040416,-0.0095229,0.0068437,8.3449e-07,0.0020534,-7.0862e-05,0,0,0.04982,-0.021346,0,-0.0014739,0,0,0,0.0068445,1.0076e-07,0.0020534,-0.59324,0.002966,0.0060834,7.2788e-09,0.8,0.98,0
0.041408,-0.0096384,0.0067792,2.8965e-06,0.0020346,-6.924e-05,0,0,0.049344,-0.02113,0,-0.0014402,0,0,0,0.0067799,2.189e-06,0.0020346,-0.58536,0.0029389,0.0060244,7.0725e-09,0.82,0.98,0
0.04239,-0.0097494,0.0067169,4.7743e-06,0.0020165,-6.5897e-05,0,0,0.048884,-0.020922,0,-0.0013707,0,0,0,0.0067175,4.1274e-06,0.0020165,-0.56244,0.0029127,0.0059674,6.8769e-09,0.84,0.98,0
0.043363,-0.0098537,0.0066583,6.4407e-06,0.0019994,-6.1007e-05,0,0,0.048452,-0.020727,0,-0.001269,0,0,0,0.0066589,5.8812e-06,0.0019994,-0.52543,0.0028881,0.0059138,6.6963e-09,0.86,0.98,0
0.044328,-0.0099489,0.0066048,7.8797e-06,0.0019838,-5.476e-05,0,0,0.048058,-0.02055,0,-0.001139,0,0,0,0.0066053,7.4252e-06,0.0019838,-0.47556,0.0028655,0.0058649,6.5342e-09,0.88,0.98,0
0.045285,-0.010033,0.0065575,9.0851e-06,0.00197,-4.7358e-05,0,0,0.047711,-0.020393,0,-0.00098504,0,0,0,0.0065579,8.7427e-06,0.00197,-0.41433,0.0028455,0.0058218,6.3932e-09,0.9,0.98,0
0.046236,-0.010104,0.0065176,1.0058e-05,0.0019583,-3.9003e-05,0,0,0.047416,-0.020262,0,-0.00081127,0,0,0,0.0065178,9.8241e-06,0.0019583,-0.34339,0.0028286,0.0057853,6.2755e-09,0.92,0.98,0
0.047182,-0.010161,0.0064856,1.0803e-05,0.0019489,-2.9898e-05,0,0,0.047182,-0.020157,0,-0.00062187,0,0,0,0.0064858,1.0665e-05,0.0019489,-0.26456,0.0028151,0.0057561,6.1825e-09,0.94,0.98,0
0.048124,-0.010203,0.0064624,1.1328e-05,0.0019421,-2.0236e-05,0,0,0.047011,-0.02008,0,-0.00042092,0,0,0,0.0064624,1.1265e-05,0.0019421,-0.17973,0.0028053,0.0057349,6.1154e-09,0.96,0.98,0
0.049063,-0.010228,0.0064482,1.164e-05,0.001938,-1.0209e-05,0,0,0.046907,-0.020034,0,-0.00021235,0,0,0,0.0064483,1.1624e-05,0.001938,-0.090876,0.0027993,0.0057221,6.0748e-09,0.98,0.98,0
0.05,-0.010237,0.0064435,1.1743e-05,0.0019366,-2.0379e-05,0,0,0.046872,-0.020018,0,-0.00042387,0,0,0,0.0064436,1.1679e-05,0.0019366,-0.18154,0.0027973,0.0057179,6.0615e-09,1,0.98,0
0,0,0.016985,0.0072794,0.0072794,-0.0047866,0,0,0.10094,-1.3878e-17,0,-0.099561,0,0,0,0.018949,0.005316,0.0072794,-22.303,0.010515,0.012765,9.8357e-08,0,1,0
0.0020188,-0.0019912,0.012197,0.00087196,0.0039207,-0.0019013,0,0,0.086075,-0.031707,0,-0.039548,0,0,0,0.012508,0.00056127,0.0039207,-9.2803,0.0056633,0.010671,4.2192e-08,0.02,1,0
0.003443,-0.0032161,0.0090424,0.00035396,0.0028189,-0.0006202,0,0,0.064724,-0.025635,0,-0.0129,0,0,0,0.0090864,0.00030991,0.0028189,-4.0625,0.0040717,0.0078296,1.6387e-08,0.04,1,0
0.0046078,-0.0042552,0.0075773,-3.914e-05,0.0022614,-0.00037026,0,0,0.055285,-0.023926,0,-0.0077015,0,0,0,0.0075952,-5.7098e-05,0.0022614,-2.7767,0.0032665,0.0067964,1.0026e-08,0.06,1,0
0.0056544,-0.0051229,0.006902,-8.4811e-05,0.0020451,-0.00022403,0,0,0.050511,-0.022152,0,-0.0046598,0,0,0,0.0069092,-9.1987e-05,0.0020451,-1.8347,0.0029541,0.0062146,7.5927e-09,0.08,1,0
0.0066282,-0.0058663,0.0064819,-0.00010374,0.0019135,-0.00015045,0,0,0.047512,-0.020979,0,-0.0031293,0,0,0,0.0064854,-0.00010717,0.0019135,-1.308,0.0027639,0.0058501,6.3002e-09,0.1,1,0
0.0075549,-0.0065062,0.0062096,-0.0001042,0.0018316,-0.0001032,0,0,0.045531,-0.020133,0,-0.0021465,0,0,0,0.0062113,-0.00010589,0.0018316,-0.93613,0.0026457,0.0056055,5.5377e-09,0.12,1,0
0.0084495,-0.0070575,0.0060275,-0.00010063,0.001778,-7.0927e-05,0,0,0.044194,-0.019538,0,-0.0014753,0,0,0,0.0060283,-0.00010145,0.001778,-0.66303,0.0025683,0.0054392,5.0613e-09,0.14,1,0
0.0093226,-0.0075308,0.0059087,-9.5207e-05,0.001744,-4.7199e-05,0,0,0.043312,-0.019128,0,-0.00098173,0,0,0,0.0059091,-9.5578e-05,0.001744,-0.45038,0.0025192,0.0053286,4.7638e-09,0.16,1,0
0.010182,-0.0079345,0.0058373,-8.9179e-05,0.0017244,-2.8929e-05,0,0,0.042773,-0.018861,0,-0.00060172,0,0,0,0.0058374,-8.932e-05,0.0017244,-0.27967,0.0024908,0.0052599,4.5884e-09,0.18,1,0
0.011034,-0.0082754,0.005803,-8.293e-05,0.001716,-1.4337e-05,0,0,0.042505,-0.018709,0,-0.0002982,0,0,0,0.005803,-8.2965e-05,0.001716,-0.13956,0.0024787,0.0052242,4.5032e-09,0.2,1,0
0.011882,-0.0085596,0.0057989,-7.6623e-05,0.0017167,-2.3668e-06,0,0,0.042455,-0.01865,0,-4.9229e-05,0,0,0,0.0057989,-7.6623e-05,0.0017167,-0.02308,0.0024796,0.0052155,4.4886e-09,0.22,1,0
0.012732,-0.0087922,0.0058199,-7.031e-05,0.0017249,7.6381e-06,0,0,0.042588,-0.01867,0,0.00015887,0,0,0,0.0058199,-7.032e-05,0.0017249,0.074298,0.0024915,0.0052291,4.5323e-09,0.24,1,0
0.013586,-0.0089782,0.0058621,-6.4006e-05,0.0017394,1.6093e-05,0,0,0.042876,-0.018756,0,0.00033473,0,0,0,0.0058622,-6.405e-05,0.0017394,0.15559,0.0025125,0.0052616,4.6263e-09,0.26,1,0
0.014447,-0.0091222,0.0059225,-5.771e-05,0.0017594,2.3258e-05,0,0,0.043296,-0.018898,0,0.00048376,0,0,0,0.0059226,-5.7801e-05,0.0017594,0.22283,0.0025414,0.0053103,4.7649e-09,0.28,1,0
0.015317,-0.0092287,0.0059981,-5.1423e-05,0.001784,2.9291e-05,0,0,0.043827,-0.019089,0,0.00060925,0,0,0,0.0059983,-5.1565e-05,0.001784,0.27741,0.0025769,0.0053726,4.944e-09,0.3,1,0
0.0162,-0.0093021,0.0060866,-4.5153e-05,0.0018124,3.4281e-05,0,0,0.044452,-0.019319,0,0.00071305,0,0,0,0.0060868,-4.5344e-05,0.0018124,0.32031,0.002618,0.0054463,5.16e-09,0.32,1,0
0.017096,-0.0093466,0.0061856,-3.8915e-05,0.001844,3.8269e-05,0,0,0.045153,-0.019582,0,0.00079599,0,0,0,0.0061858,-3.915e-05,0.001844,0.35224,0.0026636,0.0055294,5.4096e-09,0.34,1,0
0.018006,-0.0093667,0.0062927,-3.274e-05,0.001878,4.1263e-05,0,0,0.045913,-0.019872,0,0.00085828,0,0,0,0.006293,-3.3009e-05,0.001878,0.37374,0.0027127,0.0056197,5.6891e-09,0.36,1,0
0.018932,-0.0093665,0.0064055,-2.6665e-05,0.0019137,4.3257e-05,0,0,0.046715,-0.020179,0,0.00089974,0,0,0,0.0064058,-2.6956e-05,0.0019137,0.3853,0.0027642,0.0057151,5.994e-09,0.38,1,0
0.019875,-0.0093504,0.0065215,-2.0741e-05,0.0019502,4.4235e-05,0,0,0.047542,-0.020498,0,0.00092008,0,0,0,0.0065218,-2.104e-05,0.0019502,0.38737,0.002817,0.0058135,6.3191e-09,0.4,1,0
0.020834,-0.0093223,0.0066383,-1.5027e-05,0.001987,4.4185e-05,0,0,0.048373,-0.020821,0,0.00091905,0,0,0,0.0066386,-1.532e-05,0.001987,0.38048,0.0028701,0.0059127,6.658e-09,0.42,1,0
0.021809,-0.0092865,0.0067531,-9.5882e-06,0.0020231,4.3109e-05,0,0,0.049193,-0.02114,0,0.00089666,0,0,0,0.0067534,-9.863e-06,0.0020231,0.36521,0.0029222,0.0060104,7.0032e-09,0.44,1,0
0.022801,-0.0092467,0.0068636,-4.4947e-06,0.0020577,4.1024e-05,0,0,0.049981,-0.021447,0,0.0008533,0,0,0,0.0068638,-4.7397e-06,0.0020577,0.34222,0.0029723,0.0061045,7.3463e-09,0.46,1,0
0.023809,-0.0092067,0.0069671,1.8274e-07,0.0020902,3.7975e-05,0,0,0.05072,-0.021736,0,0.00078987,0,0,0,0.0069673,-2.4248e-08,0.0020902,0.31229,0.0030191,0.0061927,7.6778e-09,0.48,1,0
0.02483,-0.0091699,0.0070613,4.3753e-06,0.0021197,3.4032e-05,0,0,0.051392,-0.021999,0,0.00070787,0,0,0,0.0070614,4.2112e-06,0.0021197,0.2763,0.0030618,0.006273,7.9882e-09,0.5,1,0
0.025864,-0.0091394,0.007144,8.0199e-06,0.0021456,2.9298e-05,0,0,0.051983,-0.022231,0,0.00060939,0,0,0,0.0071441,7.8996e-06,0.0021456,0.23523,0.0030992,0.0063435,8.2676e-09,0.52,1,0
0.02691,-0.0091177,0.0072134,1.1062e-05,0.0021674,2.39e-05,0,0,0.052479,-0.022425,0,0.00049712,0,0,0,0.0072135,1.0983e-05,0.0021674,0.19013,0.0031306,0.0064027,8.507e-09,0.54,1,0
0.027964,-0.0091071,0.007268,1.3459e-05,0.0021845,1.7994e-05,0,0,0.052869,-0.022578,0,0.00037427,0,0,0,0.0072681,1.3414e-05,0.0021845,0.14211,0.0031553,0.0064493,8.6986e-09,0.56,1,0
0.029024,-0.0091094,0.0073068,1.5182e-05,0.0021966,1.1753e-05,0,0,0.053146,-0.022687,0,0.00024447,0,0,0,0.0073068,1.5163e-05,0.0021966,0.092354,0.0031729,0.0064823,8.8361e-09,0.58,1,0
0.03009,-0.0091255,0.007329,1.6219e-05,0.0022036,5.3651e-06,0,0,0.053304,-0.022748,0,0.0001116,0,0,0,0.007329,1.6215e-05,0.0022036,0.042036,0.0031829,0.0065012,8.9156e-09,0.6,1,0
0.031157,-0.0091563,0.0073346,1.6574e-05,0.0022054,-9.7818e-07,0,0,0.053344,-0.022763,0,-2.0346e-05,0,0,0,0.0073346,1.6574e-05,0.0022054,-0.0076586,0.0031855,0.0065059,8.9356e-09,0.62,1,0
0.032223,-0.0092017,0.007324,1.6271e-05,0.0022021,-7.0885e-06,0,0,0.053268,-0.022732,0,-0.00014744,0,0,0,0.007324,1.6264e-05,0.0022021,-0.055577,0.0031808,0.0064967,8.8973e-09,0.64,1,0
0.033287,-0.0092613,0.0072981,1.5346e-05,0.002194,-1.279e-05,0,0,0.053082,-0.022658,0,-0.00026603,0,0,0,0.0072981,1.5324e-05,0.002194,-0.10062,0.0031691,0.0064744,8.8042e-09,0.66,1,0
0.034347,-0.0093341,0.007258,1.3855e-05,0.0021816,-1.7926e-05,0,0,0.052795,-0.022544,0,-0.00037286,0,0,0,0.0072581,1.3811e-05,0.0021816,-0.14178,0.0031511,0.0064401,8.662e-09,0.68,1,0
0.035399,-0.0094188,0.0072055,1.1865e-05,0.0021652,-2.2366e-05,0,0,0.052419,-0.022395,0,-0.00046521,0,0,0,0.0072056,1.1795e-05,0.0021652,-0.17813,0.0031275,0.0063951,8.478e-09,0.7,1,0
0.036443,-0.0095136,0.0071426,9.4539e-06,0.0021456,-2.6009e-05,0,0,0.051969,-0.022216,0,-0.00054099,0,0,0,0.0071427,9.3591e-06,0.0021456,-0.20891,0.0030992,0.0063411,8.2609e-09,0.72,1,0
0.037478,-0.0096165,0.0070714,6.7085e-06,0.0021234,-2.8788e-05,0,0,0.051459,-0.022014,0,-0.0005988,0,0,0,0.0070715,6.5912e-06,0.0021234,-0.23347,0.0030672,0.00628,8.0196e-09,0.74,1,0
0.038502,-0.009725,0.0069942,3.7196e-06,0.0020994,-3.0668e-05,0,0,0.050906,-0.021795,0,-0.00063789,0,0,0,0.0069943,3.585e-06,0.0020994,-0.25136,0.0030324,0.0062138,7.7633e-09,0.76,1,0
0.039514,-0.0098369,0.0069134,5.7986e-07,0.0020742,-3.1644e-05,0,0,0.050327,-0.021566,0,-0.00065819,0,0,0,0.0069135,4.3501e-07,0.0020742,-0.26227,0.0029961,0.0061445,7.5009e-09,0.78,1,0
0.040515,-0.0099495,0.0068312,-2.619e-06,0.0020486,-3.1739e-05,0,0,0.049739,-0.021333,0,-0.00066017,0,0,0,0.0068314,-2.7664e-06,0.0020486,-0.2661,0.0029591,0.0060741,7.2404e-09,0.8,1,0
0.041504,-0.01006,0.00675,-5.789e-06,0.0020233,-3.1e-05,0,0,0.049158,-0.021102,0,-0.0006448,0,0,0,0.0067501,-5.9312e-06,0.0020233,-0.2629,0.0029225,0.0060044,6.9887e-09,0.82,1,0
0.042481,-0.010167,0.0066717,-8.8479e-06,0.0019989,-2.9493e-05,0,0,0.048598,-0.02088,0,-0.00061345,0,0,0,0.0066719,-8.9781e-06,0.0019989,-0.25294,0.0028873,0.0059372,6.7517e-09,0.84,1,0
0.043448,-0.010267,0.0065983,-1.1721e-05,0.001976,-2.7294e-05,0,0,0.048072,-0.020672,0,-0.00056772,0,0,0,0.0065984,-1.1834e-05,0.001976,-0.23658,0.0028542,0.0058743,6.5344e-09,0.86,1,0
0.044404,-0.010359,0.0065314,-1.4342e-05,0.0019551,-2.4491e-05,0,0,0.047593,-0.020483,0,-0.00050942,0,0,0,0.0065315,-1.4433e-05,0.0019551,-0.21437,0.0028241,0.0058169,6.3404e-09,0.88,1,0
0.045351,-0.010439,0.0064725,-1.6653e-05,0.0019368,-2.1174e-05,0,0,0.047172,-0.020315,0,-0.00044043,0,0,0,0.0064725,-1.6722e-05,0.0019368,-0.18696,0.0027975,0.0057663,6.1727e-09,0.9,1,0
0.046291,-0.010508,0.0064227,-1.8608e-05,0.0019212,-1.7435e-05,0,0,0.046815,-0.020174,0,-0.00036264,0,0,0,0.0064227,-1.8655e-05,0.0019212,-0.15508,0.0027751,0.0057235,6.0332e-09,0.92,1,0
0.047224,-0.010563,0.006383,-2.0167e-05,0.0019088,-1.3362e-05,0,0,0.046531,-0.020062,0,-0.00027792,0,0,0,0.006383,-2.0195e-05,0.0019088,-0.11956,0.0027572,0.0056895,5.9236e-09,0.94,1,0
0.048152,-0.010603,0.0063541,-2.1301e-05,0.0018998,-9.0424e-06,0,0,0.046324,-0.01998,0,-0.00018808,0,0,0,0.0063541,-2.1313e-05,0.0018998,-0.081264,0.0027442,0.0056647,5.8447e-09,0.96,1,0
0.049077,-0.010627,0.0063365,-2.1989e-05,0.0018944,-4.5614e-06,0,0,0.046199,-0.01993,0,-9.4876e-05,0,0,0,0.0063365,-2.1992e-05,0.0018944,-0.041102,0.0027363,0.0056496,5.7972e-09,0.98,1,0
0.05,-0.010635,0.0063307,-2.222e-05,0.0018925,-1.9578e-05,0,0,0.046157,-0.019914,0,-0.00040722,0,0,0,0.0063307,-2.228e-05,0.0018925,-0.17657,0.0027337,0.0056447,5.7815e-09,1,1,0
