"Displacements:0","Displacements:1","Stress/Strain:0","Stress/Strain:1","Stress/Strain:2","Stress/Strain:3","Stress/Strain:4","Stress/Strain:5","Stress/Strain:6","Stress/Strain:7","Stress/Strain:8","Stress/Strain:9","Stress/Strain:10","Stress/Strain:11","Stress/Strain:12","Principal Stress:0","Principal Stress:1","Principal Stress:2","Principal Stress:3","Principal Stress:4","Principal Stress:5","Principal Stress:6","nodes:0","nodes:1","nodes:2"
0,0,0.01768,0.0075773,0.0075773,0.0050348,0,0,0.11821,3.4694e-18,0,0.11782,0,0,0,0.019761,0.0054967,0.0075773,22.453,0.010945,0.013346,1.1216e-07,0,0,0
0.0023641,0.0023563,0.012658,0.00093051,0.0040765,0.0020083,0,0,0.1004,-0.036808,0,0.046994,0,0,0,0.012992,0.00059613,0.0040765,9.4531,0.0058883,0.011074,4.7227e-08,0.02,0,0
0.004016,0.0038289,0.0092782,0.00037955,0.0028973,0.00067503,0,0,0.074656,-0.029458,0,0.015796,0,0,0,0.0093291,0.00032863,0.0028973,4.3134,0.004185,0.0080304,1.7712e-08,0.04,0,0
0.0053504,0.0050874,0.0076695,-3.9683e-05,0.0022889,0.00041346,0,0,0.062952,-0.027245,0,0.009675,0,0,0,0.0076916,-6.1795e-05,0.0022889,3.0612,0.0033063,0.0068859,1.0418e-08,0.06,0,0
0.0065341,0.0061442,0.0068916,-9.3587e-05,0.0020394,0.00026115,0,0,0.05677,-0.024956,0,0.0061109,0,0,0,0.0069013,-0.00010334,0.0020394,2.1381,0.0029458,0.0062167,7.5798e-09,0.08,0,0
0.0076212,0.0070528,0.0063804,-0.00011788,0.0018787,0.00018603,0,0,0.052669,-0.02336,0,0.004353,0,0,0,0.0063857,-0.0001232,0.0018787,1.6384,0.0027137,0.0057743,6.031e-09,0.1,0,0
0.0086409,0.0078359,0.0060188,-0.00012215,0.001769,0.00013947,0,0,0.049723,-0.022127,0,0.0032637,0,0,0,0.006022,-0.00012532,0.001769,1.3004,0.0025552,0.0054528,5.0659e-09,0.12,0,0
0.0096101,0.0085097,0.0057437,-0.000122,0.0016865,0.00010924,0,0,0.047469,-0.02116,0,0.0025563,0,0,0,0.0057458,-0.00012403,0.0016865,1.0666,0.0024361,0.0052063,4.4037e-09,0.14,0,0
0.01054,0.009085,0.0055256,-0.00011998,0.0016217,8.8187e-05,0,0,0.045676,-0.020377,0,0.0020636,0,0,0,0.005527,-0.00012135,0.0016217,0.8947,0.0023424,0.0050097,3.921e-09,0.16,0,0
0.011437,0.0095695,0.0053473,-0.00011749,0.0015689,7.2659e-05,0,0,0.044207,-0.019731,0,0.0017002,0,0,0,0.0053483,-0.00011846,0.0015689,0.76162,0.0022663,0.0048485,3.5535e-09,0.18,0,0
0.012308,0.0099683,0.0051992,-0.00011492,0.0015253,6.0364e-05,0,0,0.042985,-0.01919,0,0.0014125,0,0,0,0.0051999,-0.0001156,0.0015253,0.65072,0.0022032,0.0047143,3.2661e-09,0.2,0,0
0.013156,0.010285,0.0050761,-0.0001123,0.0014892,4.9756e-05,0,0,0.041968,-0.018737,0,0.0011643,0,0,0,0.0050766,-0.00011278,0.0014892,0.54938,0.002151,0.0046025,3.0393e-09,0.22,0,0
0.013987,0.010523,0.0049763,-0.00010948,0.0014601,3.9705e-05,0,0,0.04114,-0.018364,0,0.00092909,0,0,0,0.0049766,-0.00010979,0.0014601,0.44727,0.002109,0.0045112,2.8627e-09,0.24,0,0
0.014802,0.010683,0.0049003,-0.00010616,0.0014382,2.9358e-05,0,0,0.040506,-0.018069,0,0.00068698,0,0,0,0.0049004,-0.00010633,0.0014382,0.33597,0.0020775,0.0044407,2.7323e-09,0.26,0,0
0.015607,0.010766,0.0048505,-0.00010198,0.0014245,1.8081e-05,0,0,0.040084,-0.01786,0,0.00042309,0,0,0,0.0048506,-0.00010204,0.0014245,0.20918,0.0020577,0.004393,2.6479e-09,0.28,0,0
0.016405,0.010775,0.0048308,-9.6526e-05,0.0014203,5.4493e-06,0,0,0.039903,-0.017747,0,0.00012751,0,0,0,0.0048308,-9.6532e-05,0.0014203,0.063366,0.0020515,0.004371,2.613e-09,0.3,0,0
0.017203,0.01071,0.0048458,-8.938e-05,0.0014269,-8.7266e-06,0,0,0.040001,-0.017741,0,-0.0002042,0,0,0,0.0048458,-8.9395e-05,0.0014269,-0.10131,0.0020611,0.0043786,2.6333e-09,0.32,0,0
0.018006,0.010574,0.0049004,-8.0135e-05,0.0014461,-2.437e-05,0,0,0.040415,-0.017857,0,-0.00057025,0,0,0,0.0049005,-8.0254e-05,0.0014461,-0.28034,0.0020888,0.0044199,2.7177e-09,0.34,0,0
0.01882,0.010373,0.0049986,-6.8459e-05,0.001479,-4.11e-05,0,0,0.041178,-0.018106,0,-0.00096174,0,0,0,0.0049989,-6.8793e-05,0.001479,-0.4647,0.0021364,0.0044981,2.877e-09,0.36,0,0
0.019653,0.010112,0.0051431,-5.4161e-05,0.0015267,-5.8205e-05,0,0,0.042312,-0.018496,0,-0.001362,0,0,0,0.0051437,-5.4812e-05,0.0015267,-0.64157,0.0022052,0.0046157,3.1244e-09,0.38,0,0
0.020512,0.0097995,0.0053341,-3.7274e-05,0.001589,-7.4627e-05,0,0,0.043817,-0.019028,0,-0.0017463,0,0,0,0.0053351,-3.8311e-05,0.001589,-0.79584,0.0022953,0.0047726,3.4736e-09,0.4,0,0
0.021405,0.0094482,0.0055682,-1.8139e-05,0.001665,-8.8976e-05,0,0,0.045667,-0.019693,0,-0.002082,0,0,0,0.0055696,-1.9556e-05,0.001665,-0.91226,0.002405,0.004966,3.9368e-09,0.42,0,0
0.022339,0.0090725,0.0058376,2.5852e-06,0.0017521,-9.9637e-05,0,0,0.047801,-0.020469,0,-0.0023315,0,0,0,0.0058394,8.8433e-07,0.0017521,-0.97798,0.0025308,0.0051894,4.5193e-09,0.44,0,0
0.023317,0.0086897,0.00613,2.4037e-05,0.0018462,-0.00010501,0,0,0.05012,-0.021319,0,-0.0024573,0,0,0,0.0061318,2.2232e-05,0.0018462,-0.985,0.0026667,0.0054323,5.2133e-09,0.46,0,0
0.024344,0.0083196,0.0064285,4.534e-05,0.0019422,-0.00010392,0,0,0.052491,-0.022193,0,-0.0024317,0,0,0,0.0064302,4.3648e-05,0.0019422,-0.93247,0.0028053,0.0056805,5.9915e-09,0.48,0,0
0.025417,0.0079822,0.0067145,6.5727e-05,0.0020341,-9.6023e-05,0,0,0.054761,-0.02303,0,-0.0022469,0,0,0,0.0067159,6.4341e-05,0.0020341,-0.82724,0.0029381,0.0059179,6.8051e-09,0.5,0,0
0.026534,0.0076973,0.0069694,8.4455e-05,0.0021162,-8.2023e-05,0,0,0.056783,-0.023771,0,-0.0019194,0,0,0,0.0069704,8.3478e-05,0.0021162,-0.68246,0.0030567,0.0061288,7.5882e-09,0.52,0,0
0.027688,0.007482,0.0071778,0.00010058,0.0021835,-6.3442e-05,0,0,0.058433,-0.02437,0,-0.0014846,0,0,0,0.0071784,0.00010001,0.0021835,-0.51356,0.003154,0.0063005,8.27e-09,0.54,0,0
0.028871,0.0073503,0.0073289,0.00011287,0.0022325,-4.2036e-05,0,0,0.059628,-0.0248,0,-0.00098364,0,0,0,0.0073292,0.00011263,0.0022325,-0.33375,0.0032248,0.0064245,8.7879e-09,0.56,0,0
0.030073,0.0073116,0.0074163,0.00012009,0.0022609,-1.9202e-05,0,0,0.060318,-0.025048,0,-0.00044932,0,0,0,0.0074164,0.00012003,0.0022609,-0.15079,0.0032658,0.0064961,9.0969e-09,0.58,0,0
0.031284,0.0073714,0.0074369,0.0001214,0.0022675,4.2063e-06,0,0,0.060482,-0.025109,0,9.8428e-05,0,0,0,0.0074369,0.0001214,0.0022675,0.032944,0.0032753,0.0065133,9.1714e-09,0.6,0,0
0.032493,0.0075308,0.0073901,0.00011679,0.0022521,2.7599e-05,0,0,0.060115,-0.024983,0,0.00064581,0,0,0,0.0073902,0.00011668,0.0022521,0.21741,0.003253,0.0064755,9.0051e-09,0.62,0,0
0.033689,0.0077865,0.0072774,0.000107,0.0022153,5.0125e-05,0,0,0.059227,-0.024667,0,0.0011729,0,0,0,0.0072778,0.00010665,0.0022153,0.4005,0.0031999,0.0063836,8.6112e-09,0.64,0,0
0.034862,0.0081311,0.0071039,9.3252e-05,0.0021591,7.0382e-05,0,0,0.057853,-0.024171,0,0.0016469,0,0,0,0.0071046,9.2545e-05,0.0021591,0.57513,0.0031187,0.0062408,8.0255e-09,0.66,0,0
0.036003,0.0085528,0.0068788,7.6739e-05,0.0020867,8.6583e-05,0,0,0.056068,-0.023516,0,0.0020261,0,0,0,0.00688,7.5637e-05,0.0020867,0.72915,0.0030141,0.0060547,7.3046e-09,0.68,0,0
0.037104,0.0090361,0.0066166,5.8387e-05,0.0020025,9.7152e-05,0,0,0.053985,-0.022746,0,0.0022734,0,0,0,0.006618,5.6948e-05,0.0020025,0.84852,0.0028925,0.0058368,6.5189e-09,0.7,0,0
0.038162,0.0095633,0.0063345,3.8931e-05,0.001912,0.0001013,0,0,0.051742,-0.021915,0,0.0023704,0,0,0,0.0063361,3.7302e-05,0.001912,0.9216,0.0027618,0.0056019,5.7378e-09,0.72,0,0
0.039174,0.010115,0.0060505,1.9133e-05,0.0018209,9.9263e-05,0,0,0.049486,-0.021081,0,0.0023228,0,0,0,0.0060521,1.7499e-05,0.0018209,0.94263,0.0026302,0.0053653,5.0167e-09,0.74,0,0
0.040142,0.010674,0.0057808,-1.2695e-07,0.0017342,9.2134e-05,0,0,0.047345,-0.020292,0,0.0021559,0,0,0,0.0057823,-1.595e-06,0.0017342,0.91285,0.002505,0.0051407,4.3901e-09,0.76,0,0
0.041068,0.011223,0.0055376,-1.7971e-05,0.0016559,8.1435e-05,0,0,0.045416,-0.019584,0,0.0019056,0,0,0,0.0055388,-1.9164e-05,0.0016559,0.83962,0.0023918,0.0049383,3.8716e-09,0.78,0,0
0.041958,0.011749,0.0053285,-3.3714e-05,0.0015884,6.8741e-05,0,0,0.043758,-0.018979,0,0.0016085,0,0,0,0.0053293,-3.4595e-05,0.0015884,0.73435,0.0022944,0.0047645,3.4599e-09,0.8,0,0
0.042818,0.012239,0.0051568,-4.6982e-05,0.0015329,5.5441e-05,0,0,0.042399,-0.018485,0,0.0012973,0,0,0,0.0051574,-4.7573e-05,0.0015329,0.61034,0.0022143,0.004622,3.1446e-09,0.82,0,0
0.043654,0.012688,0.0050223,-5.7699e-05,0.0014894,4.2642e-05,0,0,0.041335,-0.018101,0,0.00099781,0,0,0,0.0050227,-5.8057e-05,0.0014894,0.4809,0.0021513,0.0045107,2.9116e-09,0.84,0,0
0.044472,0.013087,0.0049221,-6.6007e-05,0.0014568,3.1141e-05,0,0,0.040544,-0.017817,0,0.00072869,0,0,0,0.0049223,-6.6202e-05,0.0014568,0.35768,0.0021043,0.004428,2.7459e-09,0.86,0,0
0.045276,0.013435,0.0048515,-7.2186e-05,0.0014338,2.1442e-05,0,0,0.039987,-0.01762,0,0.00050174,0,0,0,0.0048516,-7.2279e-05,0.0014338,0.24951,0.0020711,0.0043701,2.6332e-09,0.88,0,0
0.046071,0.013729,0.004805,-7.6578e-05,0.0014185,1.3777e-05,0,0,0.039622,-0.017493,0,0.00032239,0,0,0,0.004805,-7.6616e-05,0.0014185,0.1617,0.002049,0.0043321,2.5609e-09,0.9,0,0
0.046861,0.013969,0.0047767,-7.9546e-05,0.0014091,8.1411e-06,0,0,0.0394,-0.017418,0,0.0001905,0,0,0,0.0047767,-7.9559e-05,0.0014091,0.096051,0.0020354,0.0043093,2.5176e-09,0.92,0,0
0.047647,0.014155,0.0047611,-8.1437e-05,0.0014039,4.3358e-06,0,0,0.039279,-0.017378,0,0.00010146,0,0,0,0.0047611,-8.144e-05,0.0014039,0.0513,0.0020279,0.0042969,2.4942e-09,0.94,0,0
0.048432,0.014287,0.0047536,-8.2551e-05,0.0014013,2.0174e-06,0,0,0.039221,-0.017361,0,4.7206e-05,0,0,0,0.0047536,-8.2552e-05,0.0014013,0.023901,0.0020241,0.0042911,2.483e-09,0.96,0,0
0.049216,0.014365,0.0047505,-8.3122e-05,0.0014002,7.4094e-07,0,0,0.039198,-0.017355,0,1.7338e-05,0,0,0,0.0047505,-8.3122e-05,0.0014002,0.0087828,0.0020225,0.0042889,2.4786e-09,0.98,0,0
0.05,0.014392,0.0047497,-8.3295e-05,0.0013999,5.6057e-05,0,0,0.039193,-0.017354,0,0.0013117,0,0,0,0.0047504,-8.3946e-05,0.0013999,0.66443,0.0020221,0.0042894,2.4788e-09,1,0,0
0,0,0.010392,0.0044536,0.0044536,0.0034618,0,0,0.069476,6.9389e-18,0,0.081007,0,0,0,0.011983,0.002862,0.0044536,24.691,0.006433,0.0084388,2.7201e-08,0,0.02,0
0.0013895,0.0016201,0.0094591,0.00094297,0.0031206,0.0021925,0,0,0.07416,-0.025479,0,0.051305,0,0,0,0.0099904,0.00041165,0.0031206,13.622,0.0045076,0.0085524,2.1596e-08,0.02,0.02,0
0.0029664,0.0032398,0.0094687,0.00074982,0.0030656,0.0014525,0,0,0.074917,-0.027094,0,0.033988,0,0,0,0.0097043,0.00051421,0.0030656,9.2135,0.004428,0.0082171,1.9508e-08,0.04,0.02,0
0.0043862,0.0045425,0.0084352,0.00039981,0.0026505,0.00089182,0,0,0.067681,-0.026333,0,0.020869,0,0,0,0.008533,0.00030202,0.0026505,6.2576,0.0038285,0.007344,1.3551e-08,0.06,0.02,0
0.0056737,0.0056451,0.0076588,0.00023364,0.0023677,0.00060984,0,0,0.061906,-0.024969,0,0.01427,0,0,0,0.0077086,0.00018388,0.0023677,4.6642,0.0034201,0.006705,1.0126e-08,0.08,0.02,0
0.0068624,0.0065855,0.0070952,0.00014485,0.002172,0.00044039,0,0,0.057601,-0.023718,0,0.010305,0,0,0,0.007123,0.00011706,0.002172,3.6111,0.0031373,0.0062377,8.0571e-09,0.1,0.02,0
0.0079777,0.0073933,0.0066777,9.5456e-05,0.0020319,0.00033412,0,0,0.054355,-0.022657,0,0.0078183,0,0,0,0.0066946,7.854e-05,0.0020319,2.8984,0.002935,0.0058876,6.7245e-09,0.12,0.02,0
0.0090366,0.0080865,0.0063573,6.6118e-05,0.001927,0.00026278,0,0,0.051834,-0.021773,0,0.006149,0,0,0,0.0063682,5.5161e-05,0.001927,2.3877,0.0027835,0.0056162,5.8079e-09,0.14,0.02,0
0.010051,0.0086775,0.0061039,4.8086e-05,0.0018456,0.00021247,0,0,0.049822,-0.021031,0,0.0049718,0,0,0,0.0061113,4.064e-05,0.0018456,2.007,0.0026658,0.0053994,5.1442e-09,0.16,0.02,0
0.011029,0.0091748,0.0058988,3.6995e-05,0.0017807,0.00017503,0,0,0.048181,-0.020402,0,0.0040957,0,0,0,0.005904,3.1773e-05,0.0017807,1.7088,0.0025722,0.0052222,4.6448e-09,0.18,0.02,0
0.011978,0.0095845,0.0057306,3.054e-05,0.0017284,0.00014533,0,0,0.046827,-0.019864,0,0.0034008,0,0,0,0.0057343,2.6837e-05,0.0017284,1.4596,0.0024965,0.0050754,4.2589e-09,0.2,0.02,0
0.012903,0.0099105,0.0055924,2.7408e-05,0.001686,0.00011987,0,0,0.045706,-0.019405,0,0.0028049,0,0,0,0.005595,2.4827e-05,0.001686,1.2334,0.0024353,0.0049531,3.9571e-09,0.22,0.02,0
0.013806,0.010155,0.0054805,2.6774e-05,0.0016522,9.6085e-05,0,0,0.044791,-0.019017,0,0.0022484,0,0,0,0.0054822,2.5082e-05,0.0016522,1.009,0.0023865,0.0048526,3.7218e-09,0.24,0.02,0
0.014694,0.010321,0.0053932,2.8037e-05,0.0016264,7.2051e-05,0,0,0.044072,-0.0187,0,0.001686,0,0,0,0.0053942,2.7069e-05,0.0016264,0.76927,0.0023492,0.0047728,3.5438e-09,0.26,0.02,0
0.015569,0.010409,0.0053307,3.066e-05,0.0016084,4.6347e-05,0,0,0.043551,-0.01846,0,0.0010845,0,0,0,0.0053311,3.0255e-05,0.0016084,0.50098,0.0023233,0.0047142,3.4185e-09,0.28,0.02,0
0.016436,0.01042,0.0052942,3.4086e-05,0.0015985,1.8029e-05,0,0,0.04324,-0.018304,0,0.00042187,0,0,0,0.0052943,3.4024e-05,0.0015985,0.19637,0.0023089,0.0046785,3.3454e-09,0.3,0.02,0
0.017299,0.010355,0.0052856,3.7683e-05,0.001597,-1.3323e-05,0,0,0.043157,-0.018244,0,-0.00031176,0,0,0,0.0052856,3.765e-05,0.001597,-0.14546,0.0023067,0.0046679,3.3264e-09,0.32,0.02,0
0.018163,0.010217,0.0053066,4.0738e-05,0.0016042,-4.7542e-05,0,0,0.043318,-0.018293,0,-0.0011125,0,0,0,0.0053071,4.0309e-05,0.0016042,-0.51723,0.0023172,0.0046848,3.3654e-09,0.34,0.02,0
0.019032,0.010011,0.0053589,4.2472e-05,0.0016204,-8.3809e-05,0,0,0.04374,-0.018462,0,-0.0019611,0,0,0,0.0053602,4.1151e-05,0.0016204,-0.90292,0.0023406,0.0047314,3.4672e-09,0.36,0.02,0
0.019912,0.0097418,0.0054428,4.2066e-05,0.0016455,-0.00012061,0,0,0.044429,-0.01876,0,-0.0028222,0,0,0,0.0054455,3.9374e-05,0.0016455,-1.2787,0.0023768,0.0048086,3.6371e-09,0.38,0.02,0
0.020809,0.009419,0.0055572,3.8705e-05,0.0016788,-0.00015572,0,0,0.045378,-0.019189,0,-0.0036437,0,0,0,0.0055616,3.4315e-05,0.0016788,-1.615,0.0024249,0.0049159,3.8792e-09,0.4,0.02,0
0.021727,0.0090544,0.0056988,3.1666e-05,0.0017191,-0.00018624,0,0,0.046562,-0.019743,0,-0.0043581,0,0,0,0.0057049,2.5552e-05,0.0017191,-1.8802,0.0024832,0.0050502,4.1946e-09,0.42,0.02,0
0.022671,0.0086631,0.0058619,2.0573e-05,0.0017648,-0.00020884,0,0,0.047937,-0.020407,0,-0.0048869,0,0,0,0.0058694,1.3116e-05,0.0017648,-2.045,0.0025491,0.0052063,4.5791e-09,0.44,0.02,0
0.023645,0.0082634,0.0060383,5.8102e-06,0.0018132,-0.0002202,0,0,0.049434,-0.021147,0,-0.0051526,0,0,0,0.0060464,-2.2167e-06,0.0018132,-2.0877,0.0026191,0.0053759,5.02e-09,0.46,0.02,0
0.024649,0.0078757,0.0062179,-1.107e-05,0.001862,-0.00021784,0,0,0.050963,-0.021915,0,-0.0050976,0,0,0,0.0062255,-1.868e-05,0.001862,-2.0006,0.0026896,0.0055482,5.4948e-09,0.48,0.02,0
0.025683,0.0075216,0.0063893,-2.747e-05,0.0019086,-0.00020111,0,0,0.052425,-0.022652,0,-0.0047059,0,0,0,0.0063956,-3.3766e-05,0.0019086,-1.7933,0.0027568,0.0057116,5.9722e-09,0.5,0.02,0
0.026746,0.0072218,0.0065422,-4.0676e-05,0.0019504,-0.00017155,0,0,0.053723,-0.023296,0,-0.0040143,0,0,0,0.0065466,-4.5144e-05,0.0019504,-1.4918,0.0028173,0.0058548,6.4162e-09,0.52,0.02,0
0.027832,0.0069946,0.0066675,-4.9215e-05,0.0019855,-0.00013253,0,0,0.054779,-0.023806,0,-0.0031013,0,0,0,0.0066701,-5.1829e-05,0.0019855,-1.13,0.0028679,0.0059699,6.7923e-09,0.54,0.02,0
0.028937,0.0068543,0.0067589,-5.3529e-05,0.0020116,-8.7844e-05,0,0,0.055543,-0.024162,0,-0.0020556,0,0,0,0.00676,-5.4661e-05,0.0020116,-0.73865,0.0029057,0.0060522,7.0732e-09,0.56,0.02,0
0.030054,0.0068107,0.0068126,-5.5316e-05,0.0020272,-4.0406e-05,0,0,0.055989,-0.024365,0,-0.0009455,0,0,0,0.0068128,-5.5554e-05,0.0020272,-0.33707,0.0029282,0.0060998,7.2407e-09,0.58,0.02,0
0.031176,0.0068693,0.0068265,-5.6032e-05,0.0020311,8.1674e-06,0,0,0.056106,-0.02442,0,0.00019112,0,0,0,0.0068265,-5.6042e-05,0.0020311,0.067992,0.0029339,0.0061123,7.2849e-09,0.6,0.02,0
0.032298,0.0070311,0.0068001,-5.5686e-05,0.0020233,5.6861e-05,0,0,0.055888,-0.024324,0,0.0013306,0,0,0,0.0068006,-5.6157e-05,0.0020233,0.47516,0.0029226,0.0060894,7.2025e-09,0.62,0.02,0
0.033412,0.0072932,0.0067341,-5.2823e-05,0.0020044,0.00010407,0,0,0.055338,-0.024069,0,0.0024352,0,0,0,0.0067357,-5.4419e-05,0.0020044,0.87829,0.0028952,0.0060304,6.9971e-09,0.64,0.02,0
0.034512,0.0076477,0.0066314,-4.5707e-05,0.0019757,0.00014686,0,0,0.054471,-0.02365,0,0.0034365,0,0,0,0.0066346,-4.8936e-05,0.0019757,1.2594,0.0028538,0.0059361,6.6816e-09,0.66,0.02,0
0.035591,0.0080825,0.006497,-3.3818e-05,0.001939,0.00018138,0,0,0.053329,-0.023081,0,0.0042443,0,0,0,0.006502,-3.8852e-05,0.001939,1.5897,0.0028007,0.0058102,6.2798e-09,0.68,0.02,0
0.036645,0.0085812,0.0063388,-1.8551e-05,0.0018961,0.00020415,0,0,0.05198,-0.022401,0,0.0047772,0,0,0,0.0063453,-2.5101e-05,0.0018961,1.8374,0.0027388,0.0056599,5.8243e-09,0.7,0.02,0
0.03767,0.0091249,0.0061665,-2.5655e-06,0.0018492,0.00021342,0,0,0.050513,-0.021666,0,0.0049941,0,0,0,0.0061739,-9.9402e-06,0.0018492,1.979,0.002671,0.0054954,5.3515e-09,0.72,0.02,0
0.038665,0.0096937,0.0059905,1.1551e-05,0.0018006,0.00020966,0,0,0.049022,-0.020932,0,0.004906,0,0,0,0.0059979,4.2077e-06,0.0018006,2.0058,0.0026009,0.0053276,4.8945e-09,0.74,0.02,0
0.039631,0.010268,0.0058204,2.2211e-05,0.0017528,0.00019513,0,0,0.047591,-0.020248,0,0.0045659,0,0,0,0.0058269,1.5652e-05,0.0017528,1.9253,0.0025318,0.0051666,4.4783e-09,0.76,0.02,0
0.040569,0.010831,0.0056639,2.8959e-05,0.0017078,0.00017298,0,0,0.046285,-0.019643,0,0.0040478,0,0,0,0.0056692,2.3653e-05,0.0017078,1.7567,0.0024669,0.00502,4.1177e-09,0.78,0.02,0
0.041482,0.011369,0.0055263,3.2072e-05,0.0016675,0.00014651,0,0,0.045148,-0.019135,0,0.0034282,0,0,0,0.0055302,2.8168e-05,0.0016675,1.5264,0.0024086,0.0048928,3.8183e-09,0.8,0.02,0
0.042375,0.01187,0.0054105,3.2158e-05,0.0016328,0.00011859,0,0,0.044199,-0.018728,0,0.002775,0,0,0,0.0054131,2.9545e-05,0.0016328,1.2625,0.0023585,0.0047877,3.5795e-09,0.82,0.02,0
0.04325,0.012325,0.0053172,2.992e-05,0.0016041,9.1571e-05,0,0,0.043443,-0.018419,0,0.0021428,0,0,0,0.0053188,2.8334e-05,0.0016041,0.9919,0.0023171,0.0047049,3.3962e-09,0.84,0.02,0
0.044113,0.012731,0.0052455,2.6072e-05,0.0015815,6.7172e-05,0,0,0.042869,-0.018198,0,0.0015718,0,0,0,0.0052463,2.5208e-05,0.0015815,0.73722,0.0022843,0.0046429,3.2611e-09,0.86,0.02,0
0.044965,0.013083,0.0051929,2.1306e-05,0.0015643,4.6502e-05,0,0,0.042455,-0.018052,0,0.0010881,0,0,0,0.0051933,2.0888e-05,0.0015643,0.51514,0.0022595,0.0045992,3.1659e-09,0.88,0.02,0
0.045811,0.013379,0.0051563,1.6254e-05,0.0015518,3.0091e-05,0,0,0.042173,-0.017966,0,0.00070412,0,0,0,0.0051565,1.6078e-05,0.0015518,0.3354,0.0022415,0.0045704,3.1021e-09,0.9,0.02,0
0.046652,0.013621,0.0051325,1.1456e-05,0.0015432,1.7958e-05,0,0,0.041995,-0.017921,0,0.00042022,0,0,0,0.0051325,1.1393e-05,0.0015432,0.20092,0.002229,0.0045528,3.062e-09,0.92,0.02,0
0.04749,0.013807,0.005118,7.3348e-06,0.0015376,9.7045e-06,0,0,0.04189,-0.017904,0,0.00022709,0,0,0,0.005118,7.3164e-06,0.0015376,0.1088,0.002221,0.0045431,3.0386e-09,0.94,0.02,0
0.048328,0.013939,0.0051099,4.1962e-06,0.0015342,4.6102e-06,0,0,0.041835,-0.017901,0,0.00010788,0,0,0,0.0051099,4.192e-06,0.0015342,0.051736,0.0022161,0.0045384,3.0262e-09,0.96,0.02,0
0.049164,0.014018,0.005106,2.2398e-06,0.0015325,1.7345e-06,0,0,0.04181,-0.017904,0,4.0586e-05,0,0,0,0.005106,2.2392e-06,0.0015325,0.019471,0.0022135,0.0045365,3.0205e-09,0.98,0.02,0
0.05,0.014045,0.0051048,1.576e-06,0.0015319,5.6111e-05,0,0,0.041803,-0.017905,0,0.001313,0,0,0,0.0051054,9.5912e-07,0.0015319,0.62988,0.0022128,0.004537,3.0204e-09,1,0.02,0
0,0,0.0087989,0.0037709,0.0037709,0.0028572,0,0,0.058827,4.3368e-19,0,0.066857,0,0,0,0.010091,0.0024792,0.0037709,24.328,0.0054469,0.0070548,1.6015e-08,0,0.04,0
0.0011765,0.0013372,0.0084773,0.0023071,0.0032353,0.0025916,0,0,0.061331,-0.01086,0,0.060644,0,0,0,0.0094213,0.001363,0.0032353,20.016,0.0046732,0.0073044,1.567e-08,0.02,0.04,0
0.0024532,0.0027452,0.0084289,0.001126,0.0028665,0.0020865,0,0,0.06508,-0.020363,0,0.048823,0,0,0,0.008983,0.00057194,0.0028665,14.872,0.0041405,0.0075306,1.5265e-08,0.04,0.04,0
0.0037798,0.004034,0.0082675,0.00071075,0.0026935,0.0015469,0,0,0.065216,-0.023198,0,0.036198,0,0,0,0.0085719,0.00040634,0.0026935,11.133,0.0038906,0.007296,1.3538e-08,0.06,0.04,0
0.0050619,0.0051455,0.0078409,0.00045062,0.0024875,0.001133,0,0,0.062635,-0.023831,0,0.026512,0,0,0,0.0080107,0.00028083,0.0024875,8.5231,0.003593,0.0068966,1.1216e-08,0.08,0.04,0
0.0062852,0.006104,0.007426,0.00029894,0.0023175,0.00085499,0,0,0.05977,-0.023617,0,0.020007,0,0,0,0.0075272,0.00019781,0.0023175,6.7459,0.0033475,0.0065328,9.4017e-09,0.1,0.04,0
0.0074527,0.0069296,0.0070683,0.0002055,0.0021821,0.00066381,0,0,0.057168,-0.023127,0,0.015533,0,0,0,0.0071319,0.00014188,0.0021821,5.4743,0.003152,0.0062259,8.056e-09,0.12,0.04,0
0.0085719,0.0076388,0.0067708,0.0001465,0.0020752,0.00052932,0,0,0.054938,-0.022566,0,0.012386,0,0,0,0.0068128,0.00010447,0.0020752,4.5399,0.0029975,0.005972,7.0585e-09,0.14,0.04,0
0.0096502,0.0082438,0.0065241,0.00010862,0.0019898,0.00043132,0,0,0.053051,-0.02201,0,0.010093,0,0,0,0.006553,7.9748e-05,0.0019898,3.8291,0.0028742,0.0057608,6.3036e-09,0.16,0.04,0
0.010694,0.0087534,0.0063186,8.4527e-05,0.0019209,0.00035694,0,0,0.051452,-0.021486,0,0.0083523,0,0,0,0.006339,6.4157e-05,0.0019209,3.2663,0.0027747,0.005583,5.7189e-09,0.18,0.04,0
0.011708,0.0091737,0.0061465,7.0011e-05,0.0018649,0.00029742,0,0,0.050094,-0.021001,0,0.0069596,0,0,0,0.006161,5.5488e-05,0.0018649,2.7955,0.0026938,0.0054317,5.2571e-09,0.2,0.04,0
0.012698,0.0095091,0.0060022,6.252e-05,0.0018194,0.00024656,0,0,0.048938,-0.020556,0,0.0057695,0,0,0,0.0060124,5.2303e-05,0.0018194,2.3729,0.002628,0.0053022,4.8875e-09,0.22,0.04,0
0.013666,0.0097621,0.0058821,6.0385e-05,0.0017827,0.00019974,0,0,0.047962,-0.020152,0,0.004674,0,0,0,0.0058889,5.354e-05,0.0017827,1.9627,0.0025751,0.0051915,4.5905e-09,0.24,0.04,0
0.014616,0.0099346,0.005784,6.2345e-05,0.0017539,0.00015346,0,0,0.047152,-0.019791,0,0.003591,0,0,0,0.0057882,5.8232e-05,0.0017539,1.5353,0.0025334,0.0050982,4.3542e-09,0.26,0.04,0
0.015552,0.010028,0.0057071,6.7262e-05,0.0017323,0.00010512,0,0,0.046505,-0.019481,0,0.0024599,0,0,0,0.0057091,6.5304e-05,0.0017323,1.0675,0.0025022,0.0050222,4.1718e-09,0.28,0.04,0
0.016476,0.010042,0.0056513,7.3935e-05,0.0017176,5.2999e-05,0,0,0.046024,-0.01923,0,0.0012402,0,0,0,0.0056517,7.3431e-05,0.0017176,0.54439,0.0024809,0.0049648,4.0404e-09,0.3,0.04,0
0.017393,0.00998,0.0056168,8.1004e-05,0.0017093,-3.687e-06,0,0,0.045717,-0.019052,0,-8.6276e-05,0,0,0,0.0056168,8.1002e-05,0.0017093,-0.038161,0.002469,0.0049277,3.9596e-09,0.32,0.04,0
0.018305,0.0098427,0.0056043,8.6941e-05,0.0017074,-6.4659e-05,0,0,0.045594,-0.018959,0,-0.001513,0,0,0,0.0056051,8.6184e-05,0.0017074,-0.67133,0.0024662,0.0049132,3.9306e-09,0.34,0.04,0
0.019217,0.0096344,0.0056141,9.0107e-05,0.0017113,-0.0001285,0,0,0.045663,-0.018968,0,-0.003007,0,0,0,0.0056171,8.7119e-05,0.0017113,-1.3319,0.0024718,0.0049231,3.9553e-09,0.36,0.04,0
0.020132,0.0093613,0.0056458,8.8849e-05,0.0017204,-0.00019264,0,0,0.045927,-0.019089,0,-0.0045078,0,0,0,0.0056524,8.2179e-05,0.0017204,-1.9831,0.002485,0.0049585,4.0349e-09,0.38,0.04,0
0.021054,0.009032,0.0056982,8.1555e-05,0.0017339,-0.00025337,0,0,0.046382,-0.019333,0,-0.0059289,0,0,0,0.0057096,7.0149e-05,0.0017339,-2.5777,0.0025045,0.0050188,4.169e-09,0.4,0.04,0
0.021987,0.0086585,0.005769,6.6793e-05,0.0017507,-0.00030595,0,0,0.047014,-0.019702,0,-0.0071592,0,0,0,0.0057854,5.0424e-05,0.0017507,-3.0625,0.0025288,0.0051019,4.3544e-09,0.42,0.04,0
0.022934,0.0082562,0.0058544,4.3634e-05,0.0017694,-0.00034488,0,0,0.047794,-0.020192,0,-0.0080703,0,0,0,0.0058748,2.3236e-05,0.0017694,-3.3848,0.0025558,0.0052031,4.5833e-09,0.44,0.04,0
0.023899,0.0078439,0.0059491,1.2623e-05,0.0017885,-0.00036455,0,0,0.048679,-0.020778,0,-0.0085305,0,0,0,0.0059714,-9.68e-06,0.0017885,-3.5009,0.0025834,0.0053152,4.842e-09,0.46,0.04,0
0.024882,0.0074429,0.0060461,-2.3147e-05,0.0018069,-0.00036065,0,0,0.049599,-0.021411,0,-0.0084391,0,0,0,0.0060675,-4.4502e-05,0.0018069,-3.3887,0.00261,0.0054285,5.1103e-09,0.48,0.04,0
0.025883,0.0070761,0.0061382,-5.7812e-05,0.0018241,-0.00033197,0,0,0.050475,-0.022019,0,-0.0077682,0,0,0,0.006156,-7.5547e-05,0.0018241,-3.0581,0.0026349,0.005532,5.3647e-09,0.5,0.04,0
0.026901,0.0067654,0.0062189,-8.4927e-05,0.0018402,-0.00028169,0,0,0.051231,-0.022524,0,-0.0065915,0,0,0,0.0062314,-9.749e-05,0.0018402,-2.5535,0.002658,0.0056166,5.5837e-09,0.52,0.04,0
0.027932,0.0065298,0.0062834,-0.0001011,0.0018547,-0.00021633,0,0,0.051816,-0.022883,0,-0.0050621,0,0,0,0.0062907,-0.00010842,0.0018547,-1.9384,0.002679,0.0056781,5.754e-09,0.54,0.04,0
0.028973,0.0063838,0.0063298,-0.00010791,0.0018666,-0.00014308,0,0,0.052219,-0.023101,0,-0.003348,0,0,0,0.0063329,-0.00011108,0.0018666,-1.2726,0.0026961,0.0057177,5.8723e-09,0.56,0.04,0
0.030021,0.006337,0.0063574,-0.00011013,0.0018742,-6.6768e-05,0,0,0.052454,-0.023217,0,-0.0015624,0,0,0,0.0063581,-0.00011082,0.0018742,-0.59141,0.0027072,0.0057399,5.9421e-09,0.58,0.04,0
0.031071,0.0063946,0.0063666,-0.00011169,0.0018765,1.0855e-05,0,0,0.052535,-0.023262,0,0.00025401,0,0,0,0.0063666,-0.00011171,0.0018765,0.096005,0.0027105,0.0057482,5.9666e-09,0.6,0.04,0
0.032122,0.0065578,0.0063568,-0.00011265,0.0018732,8.9498e-05,0,0,0.052457,-0.023235,0,0.0020943,0,0,0,0.006358,-0.00011388,0.0018732,0.79243,0.0027058,0.0057423,5.9446e-09,0.62,0.04,0
0.03317,0.0068238,0.0063268,-0.00010906,0.0018653,0.00016744,0,0,0.052199,-0.0231,0,0.0039182,0,0,0,0.0063312,-0.00011342,0.0018653,1.4893,0.0026944,0.005718,5.8697e-09,0.64,0.04,0
0.03421,0.0071851,0.0062761,-9.6075e-05,0.001854,0.00023986,0,0,0.051739,-0.022816,0,0.0056128,0,0,0,0.0062851,-0.00010509,0.001854,2.1527,0.002678,0.0056704,5.7356e-09,0.66,0.04,0
0.035239,0.0076295,0.0062059,-7.1928e-05,0.0018402,0.00029948,0,0,0.051078,-0.022372,0,0.0070079,0,0,0,0.0062201,-8.6182e-05,0.0018402,2.7251,0.002658,0.0055975,5.5432e-09,0.68,0.04,0
0.036253,0.0081401,0.0061197,-3.9827e-05,0.0018239,0.00033954,0,0,0.05026,-0.021806,0,0.0079453,0,0,0,0.0061383,-5.8488e-05,0.0018239,3.1457,0.0026346,0.0055026,5.3036e-09,0.7,0.04,0
0.037249,0.0086966,0.0060232,-6.1015e-06,0.0018051,0.00035655,0,0,0.049351,-0.021191,0,0.0083434,0,0,0,0.0060442,-2.7114e-05,0.0018051,3.3726,0.0026074,0.0053939,5.0367e-09,0.72,0.04,0
0.038227,0.009278,0.0059231,2.3401e-05,0.0017839,0.00035134,0,0,0.048428,-0.020598,0,0.0082214,0,0,0,0.0059439,2.5515e-06,0.0017839,3.3961,0.0025768,0.005281,4.7651e-09,0.74,0.04,0
0.039187,0.0098642,0.0058255,4.5506e-05,0.0017613,0.00032786,0,0,0.047551,-0.020075,0,0.0076719,0,0,0,0.005844,2.6969e-05,0.0017613,3.2362,0.0025441,0.0051728,4.5084e-09,0.76,0.04,0
0.040129,0.010437,0.0057353,5.951e-05,0.0017385,0.00029147,0,0,0.046763,-0.019644,0,0.0068203,0,0,0,0.0057503,4.4582e-05,0.0017385,2.932,0.0025111,0.0050754,4.2801e-09,0.78,0.04,0
0.041057,0.010983,0.0056559,6.612e-05,0.0017166,0.00024754,0,0,0.046089,-0.019311,0,0.0057924,0,0,0,0.0056668,5.5179e-05,0.0017166,2.5307,0.0024795,0.0049927,4.0875e-09,0.8,0.04,0
0.041973,0.01149,0.005589,6.6512e-05,0.0016966,0.00020086,0,0,0.04554,-0.019072,0,0.0047002,0,0,0,0.0055963,5.9216e-05,0.0016966,2.0803,0.0024507,0.0049268,3.9331e-09,0.82,0.04,0
0.042879,0.011951,0.0055352,6.2043e-05,0.0016792,0.00015538,0,0,0.045116,-0.01892,0,0.003636,0,0,0,0.0055396,5.7636e-05,0.0016792,1.6249,0.0024255,0.0048777,3.8156e-09,0.84,0.04,0
0.043777,0.012359,0.0054942,5.4136e-05,0.0016645,0.00011409,0,0,0.044808,-0.018841,0,0.0026697,0,0,0,0.0054966,5.1745e-05,0.0016645,1.2009,0.0024043,0.0048442,3.7315e-09,0.86,0.04,0
0.044671,0.012713,0.0054646,4.4234e-05,0.0016527,7.8978e-05,0,0,0.0446,-0.018819,0,0.0018481,0,0,0,0.0054658,4.3083e-05,0.0016527,0.83459,0.0023872,0.0048237,3.6753e-09,0.88,0.04,0
0.045561,0.013011,0.0054446,3.3682e-05,0.0016435,5.104e-05,0,0,0.044473,-0.018835,0,0.0011943,0,0,0,0.0054451,3.3201e-05,0.0016435,0.54039,0.0023739,0.0048132,3.6408e-09,0.9,0.04,0
0.04645,0.013252,0.0054321,2.3636e-05,0.0016367,3.0375e-05,0,0,0.044406,-0.018873,0,0.00071077,0,0,0,0.0054323,2.3466e-05,0.0016367,0.32177,0.0023642,0.0048096,3.6222e-09,0.92,0.04,0
0.047338,0.013439,0.005425,1.4999e-05,0.001632,1.6333e-05,0,0,0.044378,-0.018919,0,0.00038218,0,0,0,0.005425,1.495e-05,0.001632,0.17297,0.0023573,0.0048099,3.6138e-09,0.94,0.04,0
0.048225,0.013571,0.0054213,8.42e-06,0.0016289,7.6995e-06,0,0,0.044371,-0.01896,0,0.00018017,0,0,0,0.0054213,8.4091e-06,0.0016289,0.0815,0.0023529,0.0048119,3.6111e-09,0.96,0.04,0
0.049113,0.013649,0.0054197,4.3185e-06,0.0016272,2.8705e-06,0,0,0.044373,-0.018988,0,6.717e-05,0,0,0,0.0054197,4.317e-06,0.0016272,0.030371,0.0023504,0.0048137,3.6109e-09,0.98,0.04,0
0.05,0.013676,0.0054193,2.9269e-06,0.0016267,5.5935e-05,0,0,0.044374,-0.018998,0,0.0013089,0,0,0,0.0054199,2.3493e-06,0.0016267,0.59161,0.0023496,0.0048154,3.6126e-09,1,0.04,0
0,0,0.008003,0.0034298,0.0034298,0.0025336,0,0,0.053506,-1.9516e-18,0,0.059286,0,0,0,0.0091293,0.0023036,0.0034298,23.967,0.0049542,0.006338,1.1697e-08,0,0.06,0
0.0010701,0.0011857,0.0079029,0.0026107,0.0031541,0.0024227,0,0,0.055561,-0.0063571,0,0.056692,0,0,0,0.0088445,0.0016692,0.0031541,21.239,0.0045559,0.0065602,1.2033e-08,0.02,0.06,0
0.0022224,0.0024252,0.0079603,0.0017387,0.0029097,0.0022192,0,0,0.059092,-0.013701,0,0.051929,0,0,0,0.0086707,0.0010282,0.0029097,17.752,0.0042029,0.006897,1.2718e-08,0.04,0.06,0
0.0034338,0.0036145,0.0079292,0.0011106,0.0027119,0.0018482,0,0,0.061042,-0.018736,0,0.043247,0,0,0,0.0083979,0.00064187,0.0027119,14.231,0.0039172,0.006956,1.2265e-08,0.06,0.06,0
0.0046641,0.0046919,0.007784,0.00074973,0.0025601,0.0014799,0,0,0.06112,-0.021182,0,0.03463,0,0,0,0.0080827,0.00045107,0.0025601,11.41,0.003698,0.006826,1.1232e-08,0.08,0.06,0
0.0058786,0.0056409,0.0075486,0.00051808,0.00242,0.0011775,0,0,0.060004,-0.022252,0,0.027554,0,0,0,0.0077405,0.00032611,0.00242,9.2597,0.0034955,0.0066206,1.0033e-08,0.1,0.06,0
0.0070643,0.0064683,0.0072984,0.00036819,0.0023,0.00094672,0,0,0.058481,-0.022602,0,0.022153,0,0,0,0.0074254,0.00024118,0.0023,7.6406,0.0033222,0.0064078,8.9601e-09,0.12,0.06,0
0.0082178,0.0071839,0.0070625,0.00026899,0.0021994,0.00077221,0,0,0.056897,-0.022586,0,0.01807,0,0,0,0.0071491,0.00018231,0.0021994,6.4039,0.003177,0.0062091,8.0624e-09,0.14,0.06,0
0.0093402,0.0077971,0.0068508,0.00020302,0.0021161,0.00063896,0,0,0.055396,-0.022384,0,0.014952,0,0,0,0.0069117,0.00014217,0.0021161,5.4407,0.0030567,0.0060299,7.3267e-09,0.16,0.06,0
0.010434,0.0083154,0.0066645,0.00015982,0.0020473,0.00053461,0,0,0.054021,-0.022083,0,0.01251,0,0,0,0.0067082,0.00011618,0.0020473,4.6673,0.0029572,0.0058697,6.7232e-09,0.18,0.06,0
0.011501,0.0087445,0.0065017,0.00013301,0.0019904,0.00044969,0,0,0.052782,-0.021732,0,0.010523,0,0,0,0.0065333,0.00010141,0.0019904,4.0191,0.0028751,0.0057261,6.2237e-09,0.2,0.06,0
0.012545,0.0090883,0.00636,0.00011852,0.0019436,0.00037687,0,0,0.051672,-0.021353,0,0.0088187,0,0,0,0.0063827,9.5845e-05,0.0019436,3.4429,0.0028074,0.0055966,5.8062e-09,0.22,0.06,0
0.013568,0.0093495,0.0062369,0.00011359,0.0019051,0.0003104,0,0,0.050681,-0.020961,0,0.0072633,0,0,0,0.0062526,9.7893e-05,0.0019051,2.8945,0.0027519,0.0054794,5.4545e-09,0.24,0.06,0
0.014572,0.0095296,0.0061307,0.00011606,0.001874,0.00024579,0,0,0.049803,-0.020568,0,0.0057514,0,0,0,0.0061408,0.00010603,0.001874,2.3362,0.0027069,0.0053735,5.1577e-09,0.26,0.06,0
0.01556,0.0096297,0.0060404,0.00012392,0.0018493,0.00017961,0,0,0.049036,-0.020187,0,0.004203,0,0,0,0.0060458,0.00011848,0.0018493,1.7373,0.0026712,0.0052792,4.9092e-09,0.28,0.06,0
0.016534,0.0096504,0.0059652,0.00013504,0.0018301,0.00010956,0,0,0.048381,-0.019832,0,0.0025638,0,0,0,0.0059673,0.00013298,0.0018301,1.0762,0.0026434,0.0051979,4.7058e-09,0.3,0.06,0
0.017495,0.0095928,0.005905,0.00014693,0.0018156,3.4548e-05,0,0,0.047846,-0.019523,0,0.00080842,0,0,0,0.0059052,0.00014673,0.0018156,0.34375,0.0026225,0.0051318,4.547e-09,0.32,0.06,0
0.018447,0.0094589,0.0058596,0.00015681,0.0018049,-4.5134e-05,0,0,0.047439,-0.019283,0,-0.0010561,0,0,0,0.0058599,0.00015645,0.0018049,-0.45342,0.0026071,0.0050838,4.4338e-09,0.34,0.06,0
0.019393,0.0092521,0.0058287,0.0001617,0.0017971,-0.00012768,0,0,0.04717,-0.019135,0,-0.0029877,0,0,0,0.0058316,0.00015882,0.0017971,-1.29,0.0025959,0.0050568,4.3671e-09,0.36,0.06,0
0.020334,0.0089782,0.0058119,0.00015872,0.0017912,-0.00020985,0,0,0.047043,-0.0191,0,-0.0049105,0,0,0,0.0058197,0.00015094,0.0017912,-2.1229,0.0025873,0.0050524,4.3469e-09,0.38,0.06,0
0.021275,0.0086457,0.0058082,0.0001453,0.001786,-0.00028713,0,0,0.047059,-0.019197,0,-0.0067188,0,0,0,0.0058227,0.00013078,0.001786,-2.8952,0.0025798,0.0050711,4.3711e-09,0.4,0.06,0
0.022217,0.0082663,0.0058161,0.00011911,0.0017806,-0.00035399,0,0,0.047216,-0.019439,0,-0.0082833,0,0,0,0.005838,9.7203e-05,0.0017806,-3.542,0.0025719,0.0051114,4.4349e-09,0.42,0.06,0
0.023163,0.0078554,0.0058337,7.8457e-05,0.0017736,-0.00040386,0,0,0.047503,-0.019834,0,-0.0094503,0,0,0,0.0058619,5.0256e-05,0.0017736,-3.9945,0.0025619,0.00517,4.5302e-09,0.44,0.06,0
0.024117,0.0074322,0.0058577,2.3348e-05,0.0017643,-0.00042968,0,0,0.047893,-0.020369,0,-0.010054,0,0,0,0.0058892,-8.1263e-06,0.0017643,-4.1894,0.0025485,0.0052409,4.6437e-09,0.46,0.06,0
0.025079,0.0070192,0.0058837,-4.1254e-05,0.0017527,-0.00042517,0,0,0.048332,-0.02099,0,-0.0099489,0,0,0,0.005914,-7.1608e-05,0.0017527,-4.0836,0.0025317,0.0053138,4.7559e-09,0.48,0.06,0
0.02605,0.0066409,0.0059063,-0.00010404,0.0017407,-0.00038848,0,0,0.048738,-0.021583,0,-0.0090904,0,0,0,0.0059313,-0.00012905,0.0017407,-3.6829,0.0025143,0.0053752,4.845e-09,0.5,0.06,0
0.027028,0.0063209,0.005922,-0.00015112,0.0017313,-0.00032458,0,0,0.049032,-0.022024,0,-0.0075953,0,0,0,0.0059393,-0.00016842,0.0017313,-3.0506,0.0025007,0.0054139,4.8966e-09,0.52,0.06,0
0.028011,0.0060793,0.0059302,-0.00017529,0.0017265,-0.00024473,0,0,0.049183,-0.022251,0,-0.0057266,0,0,0,0.00594,-0.00018509,0.0017265,-2.2917,0.0024938,0.0054279,4.9116e-09,0.54,0.06,0
0.028996,0.0059302,0.0059333,-0.00018138,0.0017256,-0.00016019,0,0,0.049231,-0.022312,0,-0.0037484,0,0,0,0.0059375,-0.00018557,0.0017256,-1.4996,0.0024925,0.0054261,4.906e-09,0.56,0.06,0
0.029981,0.005882,0.005936,-0.00018117,0.0017264,-7.6937e-05,0,0,0.049251,-0.022319,0,-0.0018003,0,0,0,0.0059369,-0.00018214,0.0017264,-0.72048,0.0024937,0.0054228,4.9018e-09,0.58,0.06,0
0.030966,0.0059388,0.0059414,-0.00018406,0.0017272,5.9968e-06,0,0,0.049306,-0.022362,0,0.00014033,0,0,0,0.0059414,-0.00018406,0.0017272,0.056093,0.0024948,0.0054283,4.9142e-09,0.6,0.06,0
0.031953,0.0061018,0.0059492,-0.00019014,0.0017277,9.2429e-05,0,0,0.049391,-0.022439,0,0.0021628,0,0,0,0.0059505,-0.00019153,0.0017277,0.86234,0.0024956,0.0054425,4.9428e-09,0.62,0.06,0
0.032941,0.0063692,0.0059552,-0.00019011,0.0017295,0.00018343,0,0,0.04944,-0.02246,0,0.0042924,0,0,0,0.0059607,-0.00019558,0.0017295,1.7082,0.0024982,0.0054547,4.9711e-09,0.64,0.06,0
0.03393,0.0067351,0.0059542,-0.00017199,0.0017347,0.00027312,0,0,0.049369,-0.022308,0,0.006391,0,0,0,0.0059663,-0.00018415,0.0017347,2.5476,0.0025056,0.0054506,4.9759e-09,0.66,0.06,0
0.034916,0.0071876,0.0059426,-0.00013059,0.0017436,0.00035013,0,0,0.049128,-0.021928,0,0.0081931,0,0,0,0.0059627,-0.00015071,0.0017436,3.2887,0.0025185,0.0054205,4.9397e-09,0.68,0.06,0
0.035895,0.007709,0.0059201,-7.271e-05,0.0017542,0.00040293,0,0,0.048741,-0.021375,0,0.0094285,0,0,0,0.0059471,-9.968e-05,0.0017542,3.8293,0.0025339,0.0053657,4.8593e-09,0.7,0.06,0
0.036866,0.0082773,0.0058896,-1.2034e-05,0.0017633,0.00042606,0,0,0.048278,-0.020771,0,0.0099699,0,0,0,0.0059202,-4.2634e-05,0.0017633,4.108,0.002547,0.0052961,4.7465e-09,0.72,0.06,0
0.037827,0.0088698,0.0058555,4.014e-05,0.0017687,0.00042086,0,0,0.047815,-0.020224,0,0.0098482,0,0,0,0.0058858,9.8396e-06,0.0017687,4.118,0.0025548,0.0052235,4.6204e-09,0.74,0.06,0
0.038778,0.0094652,0.0058217,7.8695e-05,0.0017701,0.00039313,0,0,0.047403,-0.01979,0,0.0091993,0,0,0,0.0058485,5.1908e-05,0.0017701,3.8979,0.0025568,0.0051568,4.4976e-09,0.76,0.06,0
0.039723,0.010046,0.005791,0.00010331,0.0017683,0.00034959,0,0,0.047066,-0.01948,0,0.0081804,0,0,0,0.0058125,8.1907e-05,0.0017683,3.504,0.0025542,0.0051009,4.3895e-09,0.78,0.06,0
0.040661,0.010597,0.005765,0.00011526,0.0017641,0.00029666,0,0,0.046811,-0.019291,0,0.0069418,0,0,0,0.0057806,9.973e-05,0.0017641,2.9975,0.0025481,0.0050584,4.3024e-09,0.8,0.06,0
0.041595,0.011107,0.0057446,0.00011641,0.0017583,0.00023997,0,0,0.04664,-0.01921,0,0.0056153,0,0,0,0.0057548,0.00010619,0.0017583,2.437,0.0025398,0.0050304,4.2395e-09,0.82,0.06,0
0.042527,0.011569,0.0057301,0.00010881,0.0017517,0.00018442,0,0,0.046548,-0.019222,0,0.0043155,0,0,0,0.0057362,0.00010277,0.0017517,1.8771,0.0025302,0.0050165,4.2009e-09,0.84,0.06,0
0.043457,0.011977,0.0057214,9.4931e-05,0.0017449,0.00013389,0,0,0.046525,-0.019304,0,0.003133,0,0,0,0.0057245,9.1747e-05,0.0017449,1.3624,0.0025204,0.0050149,4.1843e-09,0.86,0.06,0
0.044388,0.01233,0.0057176,7.7367e-05,0.0017385,9.1028e-05,0,0,0.046555,-0.019435,0,0.0021301,0,0,0,0.005719,7.5898e-05,0.0017385,0.92438,0.0025111,0.0050227,4.1851e-09,0.88,0.06,0
0.045319,0.012626,0.0057176,5.8588e-05,0.0017328,5.7192e-05,0,0,0.046621,-0.019589,0,0.0013383,0,0,0,0.0057181,5.801e-05,0.0017328,0.57898,0.002503,0.0050361,4.1978e-09,0.9,0.06,0
0.046253,0.012866,0.00572,4.0698e-05,0.0017282,3.2546e-05,0,0,0.046704,-0.019744,0,0.00076157,0,0,0,0.0057202,4.0511e-05,0.0017282,0.32832,0.0024963,0.0050519,4.2164e-09,0.92,0.06,0
0.047188,0.01305,0.0057235,2.5325e-05,0.0017246,1.6271e-05,0,0,0.046787,-0.019882,0,0.00038074,0,0,0,0.0057235,2.5278e-05,0.0017246,0.16361,0.0024912,0.005067,4.2361e-09,0.94,0.06,0
0.048124,0.013181,0.0057269,1.3623e-05,0.0017221,6.8269e-06,0,0,0.046855,-0.01999,0,0.00015975,0,0,0,0.0057269,1.3614e-05,0.0017221,0.068464,0.0024875,0.0050793,4.253e-09,0.96,0.06,0
0.049062,0.013259,0.0057293,6.332e-06,0.0017207,2.1797e-06,0,0,0.0469,-0.020058,0,5.1006e-05,0,0,0,0.0057293,6.3312e-06,0.0017207,0.021823,0.0024854,0.0050872,4.2641e-09,0.98,0.06,0
0.05,0.013285,0.0057301,3.8592e-06,0.0017202,5.5264e-05,0,0,0.046916,-0.020081,0,0.0012932,0,0,0,0.0057307,3.3259e-06,0.0017202,0.55289,0.0024847,0.0050909,4.2696e-09,1,0.06,0
0,0,0.0076207,0.003266,0.003266,0.0023138,0,0,0.05095,-2.1684e-19,0,0.054143,0,0,0,0.0086205,0.0022662,0.003266,23.37,0.0047176,0.0059181,9.6296e-09,0,0.08,0
0.001019,0.0010829,0.0075652,0.002684,0.0030748,0.0022646,0,0,0.052539,-0.0045724,0,0.052993,0,0,0,0.0084541,0.0017951,0.0030748,21.429,0.0044413,0.0061203,1.0061e-08,0.02,0.08,0
0.0021016,0.0021971,0.0076655,0.0020458,0.0029134,0.0021563,0,0,0.055599,-0.010151,0,0.050457,0,0,0,0.0083975,0.0013138,0.0029134,18.751,0.0042082,0.0064348,1.0886e-08,0.04,0.08,0
0.003243,0.0032846,0.007712,0.001476,0.0027564,0.0019291,0,0,0.05798,-0.01498,0,0.045142,0,0,0,0.0082605,0.00092749,0.0027564,15.873,0.0039815,0.0066111,1.11e-08,0.06,0.08,0
0.0044208,0.0042982,0.0076794,0.0010528,0.0026196,0.0016505,0,0,0.059199,-0.018332,0,0.038622,0,0,0,0.0080677,0.00066444,0.0026196,13.24,0.0037839,0.006645,1.0788e-08,0.08,0.08,0
0.0056109,0.005214,0.0075762,0.00076148,0.0025013,0.0013838,0,0,0.059376,-0.020356,0,0.032381,0,0,0,0.0078464,0.0004912,0.0025013,11.052,0.003613,0.0065845,1.0187e-08,0.1,0.08,0
0.0067958,0.0060255,0.0074281,0.00055921,0.0023962,0.0011551,0,0,0.058873,-0.021493,0,0.02703,0,0,0,0.0076171,0.00037016,0.0023962,9.2947,0.0034612,0.0064761,9.4856e-09,0.12,0.08,0
0.0079659,0.0067353,0.0072643,0.000419,0.002305,0.00096826,0,0,0.058024,-0.022066,0,0.022657,0,0,0,0.0073986,0.00028468,0.002305,7.898,0.0033294,0.0063496,8.8005e-09,0.14,0.08,0
0.0091167,0.0073485,0.0071011,0.00032222,0.002227,0.0008175,0,0,0.057027,-0.022286,0,0.019129,0,0,0,0.0071983,0.00022503,0.002227,6.78,0.0032168,0.0062189,8.1748e-09,0.16,0.08,0
0.010247,0.0078701,0.0069464,0.00025685,0.002161,0.00069494,0,0,0.05599,-0.022278,0,0.016262,0,0,0,0.0070178,0.00018541,0.002161,5.8686,0.0031214,0.0060899,7.6182e-09,0.18,0.08,0
0.011356,0.0083045,0.006803,0.000215,0.0021054,0.00059289,0,0,0.054962,-0.022118,0,0.013874,0,0,0,0.006856,0.00016207,0.0021054,5.1017,0.0030411,0.0059646,7.126e-09,0.2,0.08,0
0.012445,0.0086549,0.0066715,0.00019138,0.0020589,0.00050454,0,0,0.053968,-0.02185,0,0.011806,0,0,0,0.0067106,0.00015234,0.0020589,4.4254,0.0029739,0.0058431,6.6893e-09,0.22,0.08,0
0.013515,0.0089237,0.0065512,0.00018222,0.00202,0.00042409,0,0,0.053015,-0.021502,0,0.0099237,0,0,0,0.0065793,0.0001541,0.00202,3.7928,0.0029178,0.005725,6.2992e-09,0.24,0.08,0
0.014566,0.0091119,0.0064412,0.00018443,0.0019877,0.00034672,0,0,0.052106,-0.021098,0,0.0081132,0,0,0,0.0064603,0.00016527,0.0019877,3.1621,0.0028711,0.0056104,5.9487e-09,0.26,0.08,0
0.015599,0.0092203,0.0063406,0.00019509,0.0019607,0.00026856,0,0,0.051244,-0.020658,0,0.0062842,0,0,0,0.0063523,0.00018337,0.0019607,2.4975,0.0028321,0.0055,5.6337e-09,0.28,0.08,0
0.016616,0.0092491,0.0062488,0.00021094,0.0019379,0.00018687,0,0,0.050437,-0.020206,0,0.0043727,0,0,0,0.0062545,0.00020516,0.0019379,1.771,0.0027992,0.0053959,5.3527e-09,0.3,0.08,0
0.017617,0.009199,0.0061653,0.00022814,0.001918,0.00010027,0,0,0.049694,-0.019772,0,0.0023462,0,0,0,0.0061671,0.00022645,0.001918,0.96724,0.0027705,0.0053012,5.1074e-09,0.32,0.08,0
0.018603,0.0090714,0.0060901,0.00024225,0.0018997,9.0226e-06,0,0,0.049028,-0.019392,0,0.00021113,0,0,0,0.0060901,0.00024223,0.0018997,0.088401,0.002744,0.0052204,4.9006e-09,0.34,0.08,0
0.019578,0.0088691,0.0060226,0.00024851,0.0018813,-8.4762e-05,0,0,0.048453,-0.019104,0,-0.0019834,0,0,0,0.0060238,0.00024726,0.0018813,-0.84085,0.0027175,0.0051575,4.735e-09,0.36,0.08,0
0.020542,0.0085973,0.0059619,0.00024254,0.0018613,-0.00017724,0,0,0.047977,-0.01894,0,-0.0041474,0,0,0,0.0059674,0.00023706,0.0018613,-1.7733,0.0026886,0.0051154,4.6107e-09,0.38,0.08,0
0.021497,0.0082641,0.005907,0.00022076,0.0018383,-0.00026338,0,0,0.047604,-0.018926,0,-0.006163,0,0,0,0.0059192,0.00020858,0.0018383,-2.6463,0.0026554,0.0050951,4.524e-09,0.4,0.08,0
0.022446,0.0078809,0.0058571,0.00018092,0.0018114,-0.00033745,0,0,0.047335,-0.019077,0,-0.0078963,0,0,0,0.0058771,0.00016093,0.0018114,-3.3903,0.0026165,0.0050955,4.4693e-09,0.42,0.08,0
0.02339,0.0074629,0.0058112,0.00012017,0.0017794,-0.00039339,0,0,0.047172,-0.019413,0,-0.0092054,0,0,0,0.0058383,9.3103e-05,0.0017794,-3.9356,0.0025703,0.0051149,4.4391e-09,0.44,0.08,0
0.024333,0.0070291,0.0057686,3.7306e-05,0.0017418,-0.00042316,0,0,0.047114,-0.019942,0,-0.0099019,0,0,0,0.0057997,6.2313e-06,0.0017418,-4.2,0.0025159,0.0051499,4.4235e-09,0.46,0.08,0
0.025275,0.0066034,0.0057257,-6.3596e-05,0.0016986,-0.00041866,0,0,0.047117,-0.020618,0,-0.0097966,0,0,0,0.0057559,-9.3715e-05,0.0016986,-4.1148,0.0024536,0.0051909,4.4033e-09,0.48,0.08,0
0.026217,0.0062128,0.0056789,-0.00016312,0.0016547,-0.00037503,0,0,0.047083,-0.021269,0,-0.0087757,0,0,0,0.0057029,-0.00018709,0.0016547,-3.6581,0.0023902,0.0052188,4.3536e-09,0.5,0.08,0
0.027158,0.0058845,0.0056271,-0.00023266,0.0016183,-0.00030088,0,0,0.046902,-0.021656,0,-0.0070405,0,0,0,0.0056425,-0.00024807,0.0016183,-2.9317,0.0023376,0.0052142,4.2616e-09,0.52,0.08,0
0.028094,0.0056398,0.005574,-0.0002579,0.0015948,-0.0002148,0,0,0.046556,-0.021677,0,-0.0050263,0,0,0,0.0055819,-0.0002658,0.0015948,-2.1065,0.0023036,0.0051747,4.1398e-09,0.54,0.08,0
0.029021,0.0054913,0.0055289,-0.00025155,0.0015832,-0.00013602,0,0,0.046165,-0.021467,0,-0.0031829,0,0,0,0.0055321,-0.00025475,0.0015832,-1.3472,0.0022868,0.0051215,4.0241e-09,0.56,0.08,0
0.02994,0.0054443,0.0055031,-0.00024109,0.0015786,-6.9998e-05,0,0,0.045917,-0.02129,0,-0.0016379,0,0,0,0.0055039,-0.00024195,0.0015786,-0.69806,0.0022802,0.0050862,3.9553e-09,0.58,0.08,0
0.030857,0.0055002,0.0055055,-0.00024561,0.001578,-9.0751e-06,0,0,0.045952,-0.021336,0,-0.00021236,0,0,0,0.0055055,-0.00024563,0.001578,-0.090411,0.0022793,0.0050905,3.9611e-09,0.6,0.08,0
0.031778,0.0056603,0.0055359,-0.00026536,0.0015812,6.0705e-05,0,0,0.04627,-0.021604,0,0.0014205,0,0,0,0.0055365,-0.000266,0.0015812,0.59946,0.0022839,0.0051345,4.0412e-09,0.62,0.08,0
0.032708,0.0059254,0.0055847,-0.00028153,0.001591,0.00014727,0,0,0.046727,-0.021908,0,0.0034461,0,0,0,0.0055884,-0.00028523,0.001591,1.4371,0.002298,0.0051961,4.1673e-09,0.64,0.08,0
0.033647,0.0062928,0.0056398,-0.00026632,0.0016121,0.00024546,0,0,0.047125,-0.021977,0,0.0057437,0,0,0,0.00565,-0.00027651,0.0016121,2.3757,0.0023285,0.0052438,4.2983e-09,0.66,0.08,0
0.034593,0.0067524,0.0056911,-0.00020623,0.0016455,0.00033606,0,0,0.047334,-0.021665,0,0.0078638,0,0,0,0.0057102,-0.00022532,0.0016455,3.251,0.0023768,0.005256,4.3982e-09,0.68,0.08,0
0.035541,0.0072851,0.0057339,-0.00011482,0.0016857,0.00040006,0,0,0.047364,-0.021066,0,0.0093614,0,0,0,0.0057611,-0.00014206,0.0016857,3.8949,0.0024349,0.0052344,4.4527e-09,0.7,0.08,0
0.036487,0.0078658,0.0057684,-2.0397e-05,0.0017244,0.0004282,0,0,0.047315,-0.020414,0,0.01002,0,0,0,0.0057999,-5.19e-05,0.0017244,4.2077,0.0024908,0.0051966,4.4712e-09,0.72,0.08,0
0.037433,0.0084691,0.0057976,5.757e-05,0.0017565,0.00042466,0,0,0.04728,-0.019878,0,0.0099371,0,0,0,0.0058288,2.6322e-05,0.0017565,4.2084,0.0025372,0.0051598,4.4737e-09,0.74,0.08,0
0.038379,0.0090726,0.0058245,0.00011475,0.0017818,0.00039693,0,0,0.0473,-0.019504,0,0.0092882,0,0,0,0.0058519,8.7292e-05,0.0017818,3.9578,0.0025737,0.0051317,4.4755e-09,0.76,0.08,0
0.039325,0.0096582,0.0058496,0.00015188,0.0018004,0.00035263,0,0,0.047375,-0.019288,0,0.0082515,0,0,0,0.0058713,0.00013014,0.0018004,3.5281,0.0026006,0.0051148,4.4831e-09,0.78,0.08,0
0.040274,0.010212,0.0058734,0.00017109,0.0018133,0.00029763,0,0,0.047503,-0.019214,0,0.0069646,0,0,0,0.0058889,0.00015559,0.0018133,2.9798,0.0026193,0.0051102,4.5013e-09,0.8,0.08,0
0.041225,0.010722,0.0058963,0.0001738,0.001821,0.00023784,0,0,0.04768,-0.019273,0,0.0055654,0,0,0,0.0059061,0.00016393,0.001821,2.3758,0.0026304,0.0051189,4.5339e-09,0.82,0.08,0
0.042181,0.011182,0.005919,0.00016279,0.0018245,0.00017881,0,0,0.047905,-0.019442,0,0.0041841,0,0,0,0.0059245,0.00015724,0.0018245,1.7775,0.0026355,0.0051406,4.583e-09,0.84,0.08,0
0.043141,0.011587,0.0059417,0.00014175,0.001825,0.00012526,0,0,0.048165,-0.019695,0,0.0029311,0,0,0,0.0059444,0.00013904,0.001825,1.2366,0.0026362,0.0051728,4.6461e-09,0.86,0.08,0
0.044108,0.011936,0.005964,0.00011484,0.0018237,8.0426e-05,0,0,0.048442,-0.019993,0,0.001882,0,0,0,0.0059651,0.00011374,0.0018237,0.78762,0.0026342,0.0052112,4.718e-09,0.88,0.08,0
0.045079,0.012227,0.005985,8.6039e-05,0.0018213,4.5916e-05,0,0,0.048715,-0.020303,0,0.0010744,0,0,0,0.0059853,8.5681e-05,0.0018213,0.44594,0.0026308,0.0052515,4.7917e-09,0.9,0.08,0
0.046056,0.012462,0.0060036,5.864e-05,0.0018187,2.187e-05,0,0,0.048963,-0.020592,0,0.00051175,0,0,0,0.0060037,5.856e-05,0.0018187,0.21077,0.002627,0.0052894,4.8605e-09,0.92,0.08,0
0.047038,0.012643,0.006019,3.5152e-05,0.0018162,7.2886e-06,0,0,0.049172,-0.020839,0,0.00017055,0,0,0,0.006019,3.5143e-05,0.0018162,0.069789,0.0026235,0.0053217,4.919e-09,0.94,0.08,0
0.048023,0.012771,0.0060305,1.7309e-05,0.0018143,3.7455e-07,0,0,0.049329,-0.021025,0,8.7645e-06,0,0,0,0.0060305,1.7309e-05,0.0018143,0.0035689,0.0026207,0.0053462,4.9632e-09,0.96,0.08,0
0.049011,0.012847,0.0060375,6.209e-06,0.0018131,-1.185e-06,0,0,0.049426,-0.021141,0,-2.7729e-05,0,0,0,0.0060375,6.2087e-06,0.0018131,-0.011257,0.002619,0.0053613,4.9906e-09,0.98,0.08,0
0.05,0.012872,0.0060399,2.4467e-06,0.0018127,5.3946e-05,0,0,0.049458,-0.02118,0,0.0012623,0,0,0,0.0060404,1.9647e-06,0.0018127,0.51189,0.0026184,0.0053673,5.0014e-09,1,0.08,0
0,0,0.0074241,0.0031817,0.0031817,0.0021428,0,0,0.049635,0,0,0.050141,0,0,0,0.008318,0.0022878,0.0031817,22.645,0.0045959,0.0056366,8.4233e-09,0,0.1,0
0.0009927,0.0010028,0.0073864,0.0027123,0.0030296,0.0021163,0,0,0.050974,-0.0037127,0,0.049522,0,0,0,0.0082022,0.0018965,0.0030296,21.081,0.0043761,0.0058225,8.8574e-09,0.02,0.1,0
0.002039,0.0020192,0.0074984,0.0022138,0.0029137,0.0020511,0,0,0.053642,-0.0081887,0,0.047996,0,0,0,0.0082011,0.0015111,0.0029137,18.91,0.0042086,0.0061107,9.6699e-09,0.04,0.1,0
0.0031384,0.0030153,0.0075784,0.0017238,0.0027907,0.0019038,0,0,0.056017,-0.012482,0,0.044549,0,0,0,0.008143,0.0011592,0.0027907,16.519,0.004031,0.0063279,1.0155e-08,0.06,0.1,0
0.0042796,0.0039586,0.0076072,0.0013105,0.0026753,0.0017042,0,0,0.057703,-0.015969,0,0.039877,0,0,0,0.0080389,0.00087886,0.0026753,14.213,0.0038643,0.0064522,1.0275e-08,0.08,0.1,0
0.0054465,0.0048266,0.0075808,0.00099043,0.0025714,0.0014897,0,0,0.058611,-0.018497,0,0.034859,0,0,0,0.0079019,0.00066934,0.0025714,12.164,0.0037142,0.006494,1.0104e-08,0.1,0.1,0
0.0066241,0.0056086,0.0075101,0.00075264,0.0024788,0.0012875,0,0,0.058866,-0.020196,0,0.030127,0,0,0,0.0077471,0.00051565,0.0024788,10.43,0.0035805,0.006477,9.7548e-09,0.12,0.1,0
0.0078012,0.0063012,0.007411,0.00057878,0.0023969,0.0011094,0,0,0.058664,-0.021272,0,0.02596,0,0,0,0.0075866,0.00040315,0.0023969,8.9959,0.0034622,0.006423,9.3192e-09,0.14,0.1,0
0.0089706,0.0069057,0.0072976,0.00045389,0.0023254,0.0009576,0,0,0.058174,-0.021897,0,0.022408,0,0,0,0.0074291,0.00032243,0.0023254,7.8171,0.003359,0.0063468,8.8565e-09,0.16,0.1,0
0.010128,0.0074243,0.0071793,0.00036668,0.0022638,0.00082924,0,0,0.057511,-0.022196,0,0.019404,0,0,0,0.0072788,0.0002672,0.0022638,6.8411,0.0032699,0.0062569,8.3974e-09,0.18,0.1,0
0.011271,0.0078598,0.0070612,0.00030905,0.0022111,0.00071961,0,0,0.056747,-0.022254,0,0.016839,0,0,0,0.0071371,0.00023321,0.0022111,6.0163,0.0031938,0.0061579,7.9546e-09,0.2,0.1,0
0.012398,0.0082143,0.0069458,0.00027517,0.0021663,0.00062353,0,0,0.05592,-0.022126,0,0.014591,0,0,0,0.0070036,0.00021739,0.0021663,5.2945,0.0031291,0.0060519,7.5311e-09,0.22,0.1,0
0.013508,0.0084894,0.0068337,0.00026063,0.0021283,0.00053595,0,0,0.055053,-0.021852,0,0.012541,0,0,0,0.0068771,0.00021722,0.0021283,4.6309,0.0030742,0.0059396,7.1259e-09,0.24,0.1,0
0.0146,0.0086857,0.0067248,0.0002617,0.002096,0.00045226,0,0,0.054157,-0.021461,0,0.010583,0,0,0,0.0067563,0.0002302,0.002096,3.9835,0.0030275,0.0058219,6.7369e-09,0.26,0.1,0
0.015674,0.0088034,0.0066185,0.00027464,0.0020679,0.00036852,0,0,0.053242,-0.020982,0,0.0086233,0,0,0,0.0066399,0.0002533,0.0020679,3.3135,0.002987,0.0057002,6.3636e-09,0.28,0.1,0
0.01673,0.0088422,0.0065145,0.00029514,0.0020429,0.00028166,0,0,0.052318,-0.020449,0,0.0065909,0,0,0,0.0065272,0.00028241,0.0020429,2.5878,0.0029508,0.005577,6.0079e-09,0.3,0.1,0
0.017767,0.0088019,0.0064125,0.00031787,0.0020191,0.00018998,0,0,0.051402,-0.019904,0,0.0044455,0,0,0,0.0064184,0.00031196,0.0020191,1.7837,0.0029165,0.0054569,5.675e-09,0.32,0.1,0
0.018786,0.0086832,0.0063124,0.00033636,0.0019946,9.3603e-05,0,0,0.050518,-0.019402,0,0.0021903,0,0,0,0.0063138,0.00033489,0.0019946,0.89714,0.0028811,0.0053459,5.3725e-09,0.34,0.1,0
0.019788,0.008488,0.0062139,0.00034352,0.0019672,-4.9812e-06,0,0,0.049686,-0.018997,0,-0.00011656,0,0,0,0.0062139,0.00034352,0.0019672,-0.048617,0.0028415,0.0052503,5.107e-09,0.36,0.1,0
0.020773,0.0082206,0.0061157,0.00033272,0.0019345,-0.00010103,0,0,0.04892,-0.018741,0,-0.0023642,0,0,0,0.0061175,0.00033095,0.0019345,-1.0006,0.0027943,0.0051746,4.8802e-09,0.38,0.1,0
0.021744,0.0078886,0.0060158,0.00029971,0.0018947,-0.00018825,0,0,0.048218,-0.018661,0,-0.0044051,0,0,0,0.006022,0.00029352,0.0018947,-1.8842,0.0027367,0.0051193,4.6865e-09,0.4,0.1,0
0.022702,0.0075032,0.0059109,0.00024224,0.0018459,-0.00026096,0,0,0.04756,-0.018763,0,-0.0061065,0,0,0,0.0059229,0.00023026,0.0018459,-2.6302,0.0026664,0.0050812,4.5127e-09,0.42,0.1,0
0.023647,0.0070789,0.0058024,0.00016224,0.0017894,-0.00031415,0,0,0.046953,-0.019038,0,-0.0073512,0,0,0,0.0058199,0.0001448,0.0017894,-3.1782,0.0025847,0.0050575,4.3527e-09,0.44,0.1,0
0.02458,0.0066346,0.0056893,5.1864e-05,0.0017223,-0.00034397,0,0,0.046413,-0.019545,0,-0.0080489,0,0,0,0.0057102,3.0954e-05,0.0017223,-3.4787,0.0024878,0.0050506,4.202e-09,0.46,0.1,0
0.025503,0.0061945,0.0055716,-8.8834e-05,0.0016448,-0.0003369,0,0,0.045943,-0.020284,0,-0.0078835,0,0,0,0.0055916,-0.00010882,0.0016448,-3.3942,0.0023759,0.005057,4.05e-09,0.48,0.1,0
0.026418,0.0057901,0.0054434,-0.00023678,0.001562,-0.00028612,0,0,0.045413,-0.021046,0,-0.0066952,0,0,0,0.0054578,-0.00025116,0.001562,-2.8764,0.0022562,0.0050526,3.864e-09,0.5,0.1,0
0.02732,0.0054546,0.0053091,-0.00032928,0.0014939,-0.0001985,0,0,0.044637,-0.021332,0,-0.0046449,0,0,0,0.005316,-0.00033626,0.0014939,-2.0138,0.0021579,0.0049953,3.6263e-09,0.52,0.1,0
0.028203,0.0052122,0.0051807,-0.00033409,0.001454,-0.00011386,0,0,0.043603,-0.020921,0,-0.0026644,0,0,0,0.0051831,-0.00033644,0.001454,-1.1823,0.0021002,0.0048773,3.3658e-09,0.54,0.1,0
0.029064,0.0050716,0.0050725,-0.00029215,0.0014341,-6.0521e-05,0,0,0.042569,-0.020197,0,-0.0014162,0,0,0,0.0050732,-0.00029283,0.0014341,-0.64627,0.0020715,0.0047444,3.1364e-09,0.56,0.1,0
0.029906,0.0050304,0.00501,-0.00025683,0.001426,-4.3109e-05,0,0,0.041933,-0.019689,0,-0.0010088,0,0,0,0.0050104,-0.00025719,0.001426,-0.46892,0.0020597,0.0046598,3.004e-09,0.58,0.1,0
0.030741,0.0050853,0.00501,-0.00026309,0.0014241,-3.8529e-05,0,0,0.041956,-0.01974,0,-0.00090157,0,0,0,0.0050103,-0.00026337,0.0014241,-0.41861,0.002057,0.0046648,3.0073e-09,0.6,0.1,0
0.031584,0.0052376,0.0050725,-0.00031152,0.0014283,-1.7167e-05,0,0,0.042637,-0.020356,0,-0.0004017,0,0,0,0.0050726,-0.00031157,0.0014283,-0.18268,0.0020631,0.004759,3.1455e-09,0.62,0.1,0
0.032447,0.0054929,0.0051803,-0.00036788,0.0014437,4.47e-05,0,0,0.043718,-0.021196,0,0.001046,0,0,0,0.0051807,-0.00036825,0.0014437,0.46158,0.0020854,0.0049009,3.3788e-09,0.64,0.1,0
0.033333,0.005856,0.005307,-0.00037833,0.0014786,0.00014319,0,0,0.044792,-0.021726,0,0.0033507,0,0,0,0.0053106,-0.00038194,0.0014786,1.4419,0.0021357,0.0050274,3.642e-09,0.66,0.1,0
0.034238,0.006321,0.0054375,-0.00030027,0.0015412,0.00025023,0,0,0.045587,-0.021545,0,0.0058554,0,0,0,0.0054484,-0.00031116,0.0015412,2.4924,0.0022261,0.0050927,3.883e-09,0.68,0.1,0
0.035157,0.0068663,0.0055589,-0.0001644,0.0016183,0.00032535,0,0,0.046104,-0.020858,0,0.0076131,0,0,0,0.0055773,-0.00018284,0.0016183,3.2431,0.0023376,0.0051038,4.0723e-09,0.7,0.1,0
0.036083,0.0074607,0.0056657,-3.33e-05,0.0016897,0.00036068,0,0,0.046518,-0.020159,0,0.0084398,0,0,0,0.0056884,-5.6036e-05,0.0016897,3.607,0.0024407,0.0051008,4.2222e-09,0.72,0.1,0
0.037017,0.0080746,0.0057633,6.9741e-05,0.0017499,0.0003622,0,0,0.046956,-0.019658,0,0.0084756,0,0,0,0.0057862,4.6791e-05,0.0017499,3.6255,0.0025276,0.0051056,4.3593e-09,0.74,0.1,0
0.037961,0.0086851,0.0058512,0.00014437,0.0017987,0.00034271,0,0,0.047414,-0.019355,0,0.0080193,0,0,0,0.0058717,0.00012386,0.0017987,3.4243,0.0025981,0.0051201,4.4894e-09,0.76,0.1,0
0.038914,0.0092742,0.0059304,0.00019776,0.0018384,0.00030549,0,0,0.047876,-0.019196,0,0.0071485,0,0,0,0.0059466,0.00018153,0.0018384,3.0418,0.0026555,0.005141,4.6129e-09,0.78,0.1,0
0.039876,0.009828,0.0059992,0.00022689,0.0018678,0.0002553,0,0,0.048337,-0.019199,0,0.0059739,0,0,0,0.0060105,0.00021562,0.0018678,2.5275,0.002698,0.0051707,4.733e-09,0.8,0.1,0
0.040847,0.010336,0.0060608,0.0002327,0.0018881,0.00019802,0,0,0.048821,-0.019367,0,0.0046337,0,0,0,0.0060675,0.00022598,0.0018881,1.9438,0.0027272,0.0052131,4.861e-09,0.82,0.1,0
0.041829,0.010791,0.0061169,0.0002182,0.0019005,0.00014069,0,0,0.049332,-0.019683,0,0.0032922,0,0,0,0.0061203,0.00021484,0.0019005,1.3655,0.0027452,0.0052689,5.0017e-09,0.84,0.1,0
0.042821,0.011189,0.0061685,0.000189,0.0019072,8.9166e-05,0,0,0.049856,-0.020103,0,0.0020865,0,0,0,0.0061698,0.00018767,0.0019072,0.85414,0.0027549,0.0053344,5.1526e-09,0.86,0.1,0
0.043823,0.01153,0.0062151,0.00015142,0.00191,4.7329e-05,0,0,0.05037,-0.020575,0,0.0011075,0,0,0,0.0062154,0.00015105,0.00191,0.44718,0.0027588,0.0054041,5.3054e-09,0.88,0.1,0
0.044835,0.011814,0.0062559,0.00011131,0.0019102,1.6892e-05,0,0,0.050845,-0.021047,0,0.00039528,0,0,0,0.0062559,0.00011126,0.0019102,0.15751,0.0027591,0.0054717,5.4502e-09,0.9,0.1,0
0.045857,0.012042,0.0062901,7.3363e-05,0.001909,-2.1843e-06,0,0,0.051258,-0.021477,0,-5.1113e-05,0,0,0,0.0062901,7.3362e-05,0.001909,-0.020132,0.0027575,0.0055322,5.5781e-09,0.92,0.1,0
0.046886,0.012217,0.0063171,4.0996e-05,0.0019074,-1.1169e-05,0,0,0.051593,-0.021837,0,-0.00026135,0,0,0,0.0063171,4.0976e-05,0.0019074,-0.10196,0.0027552,0.005582,5.6826e-09,0.94,0.1,0
0.04792,0.01234,0.0063365,1.6503e-05,0.0019059,-1.21e-05,0,0,0.051838,-0.022106,0,-0.00028314,0,0,0,0.0063365,1.648e-05,0.0019059,-0.1097,0.002753,0.0056188,5.7594e-09,0.96,0.1,0
0.048959,0.012413,0.0063481,1.3045e-06,0.0019048,-7.4669e-06,0,0,0.051987,-0.022271,0,-0.00017473,0,0,0,0.0063481,1.2957e-06,0.0019048,-0.067408,0.0027514,0.0056413,5.8062e-09,0.98,0.1,0
0.05,0.012438,0.006352,-3.8406e-06,0.0019045,5.1914e-05,0,0,0.052036,-0.022327,0,0.0012148,0,0,0,0.0063524,-4.2645e-06,0.0019045,0.46794,0.0027509,0.0056496,5.8235e-09,1,0.1,0
0,0,0.007334,0.0031432,0.0031432,0.0019965,0,0,0.049033,1.301e-18,0,0.046718,0,0,0,0.0081329,0.0023443,0.0031432,21.807,0.0045401,0.0054333,7.6412e-09,0,0.12,0
0.00098067,0.00093435,0.0073022,0.0027303,0.0030097,0.0019808,0,0,0.050222,-0.0032699,0,0.046351,0,0,0,0.008041,0.0019915,0.0030097,20.454,0.0043474,0.0056101,8.0709e-09,0.02,0.12,0
0.0020089,0.0018696,0.0074173,0.002315,0.0029197,0.0019342,0,0,0.052622,-0.0070751,0,0.045261,0,0,0,0.0080677,0.0016646,0.0029197,18.584,0.0042173,0.0058769,8.8432e-09,0.04,0.12,0
0.0030855,0.0027853,0.0075129,0.0018913,0.0028212,0.0018337,0,0,0.054892,-0.010881,0,0.042908,0,0,0,0.0080581,0.001346,0.0028212,16.559,0.0040751,0.0061095,9.4502e-09,0.06,0.12,0
0.0042045,0.0036595,0.0075743,0.0015068,0.0027243,0.0016899,0,0,0.056744,-0.014245,0,0.039544,0,0,0,0.0080132,0.0010679,0.0027243,14.56,0.0039352,0.006283,9.8164e-09,0.08,0.12,0
0.0053553,0.0044741,0.007595,0.0011853,0.0026341,0.0015241,0,0,0.058043,-0.016951,0,0.035665,0,0,0,0.007939,0.00084133,0.0026341,12.717,0.0038048,0.0063927,9.9449e-09,0.1,0.12,0
0.0065263,0.0052176,0.0075774,0.0009297,0.0025521,0.001356,0,0,0.058796,-0.018983,0,0.031731,0,0,0,0.0078434,0.00066373,0.0025521,11.097,0.0036864,0.0064464,9.8822e-09,0.12,0.12,0
0.0077072,0.0058845,0.0075296,0.00073319,0.0024788,0.0011984,0,0,0.059094,-0.020424,0,0.028044,0,0,0,0.0077347,0.00052806,0.0024788,9.7132,0.0035805,0.0064563,9.6865e-09,0.14,0.12,0
0.00889,0.0064726,0.0074607,0.00058619,0.0024141,0.0010572,0,0,0.059046,-0.021386,0,0.024739,0,0,0,0.0076196,0.00042728,0.0024141,8.5484,0.003487,0.0064333,9.4067e-09,0.16,0.12,0
0.010069,0.0069822,0.0073786,0.00047999,0.0023576,0.00093333,0,0,0.058746,-0.021968,0,0.02184,0,0,0,0.0075026,0.00035595,0.0023576,7.5704,0.0034054,0.0063856,9.0771e-09,0.18,0.12,0
0.01124,0.0074143,0.0072883,0.00040752,0.0023088,0.00082488,0,0,0.058261,-0.022245,0,0.019302,0,0,0,0.0073859,0.00031001,0.0023088,6.7414,0.0033349,0.0063182,8.7181e-09,0.2,0.12,0
0.012399,0.0077699,0.0071931,0.00036321,0.0022669,0.00072866,0,0,0.057636,-0.022273,0,0.017051,0,0,0,0.0072699,0.00028634,0.0022669,6.0224,0.0032744,0.0062339,8.3401e-09,0.22,0.12,0
0.013545,0.0080496,0.007094,0.0003426,0.002231,0.00064082,0,0,0.056898,-0.022094,0,0.014995,0,0,0,0.0071543,0.00028232,0.002231,5.3743,0.0032225,0.0061344,7.9478e-09,0.24,0.12,0
0.014675,0.0082535,0.0069915,0.00034168,0.0021999,0.00055738,0,0,0.056061,-0.021742,0,0.013043,0,0,0,0.0070379,0.00029528,0.0021999,4.7582,0.0031777,0.0060206,7.5431e-09,0.26,0.12,0
0.015788,0.008381,0.0068851,0.00035625,0.0021724,0.00047451,0,0,0.055138,-0.021249,0,0.011104,0,0,0,0.0069194,0.00032194,0.0021724,4.1353,0.0031379,0.0058943,7.1286e-09,0.28,0.12,0
0.016881,0.0084312,0.0067746,0.00038121,0.0021467,0.00038892,0,0,0.054146,-0.020657,0,0.0091007,0,0,0,0.0067981,0.00035764,0.0021467,3.4684,0.0031008,0.0057583,6.7096e-09,0.3,0.12,0
0.017954,0.0084029,0.00666,0.00040982,0.0021209,0.00029837,0,0,0.053107,-0.02002,0,0.0069818,0,0,0,0.0066742,0.00039561,0.0021209,2.7269,0.0030636,0.0056182,6.296e-09,0.32,0.12,0
0.019005,0.0082953,0.0065418,0.00043331,0.0020925,0.00020263,0,0,0.052056,-0.019413,0,0.0047415,0,0,0,0.0065485,0.0004266,0.0020925,1.8978,0.0030225,0.0054822,5.9022e-09,0.34,0.12,0
0.020036,0.0081092,0.00642,0.00044119,0.0020584,0.00010447,0,0,0.051032,-0.018921,0,0.0024446,0,0,0,0.0064219,0.00043936,0.0020584,1.0007,0.0029732,0.0053596,5.5428e-09,0.36,0.12,0
0.021046,0.0078476,0.0062937,0.00042365,0.0020152,1.0384e-05,0,0,0.050058,-0.018621,0,0.00024299,0,0,0,0.0062937,0.00042363,0.0020152,0.10136,0.0029109,0.0052582,5.2252e-09,0.38,0.12,0
0.022038,0.0075177,0.0061579,0.00037358,0.0019594,-7.0856e-05,0,0,0.049122,-0.018555,0,-0.001658,0,0,0,0.0061588,0.00037272,0.0019594,-0.70171,0.0028303,0.0051783,4.9392e-09,0.4,0.12,0
0.023011,0.0071304,0.006007,0.00029283,0.00189,-0.00012998,0,0,0.04817,-0.018686,0,-0.0030416,0,0,0,0.00601,0.00028988,0.00189,-1.3024,0.0027299,0.0051115,4.6614e-09,0.42,0.12,0
0.023965,0.0067013,0.0058284,0.00018205,0.0018031,-0.00016545,0,0,0.047096,-0.018967,0,-0.0038714,0,0,0,0.0058333,0.0001772,0.0018031,-1.6769,0.0026045,0.0050436,4.3548e-09,0.44,0.12,0
0.024895,0.0062473,0.0056403,6.1825e-05,0.0017106,-0.00017582,0,0,0.045977,-0.019291,0,-0.0041141,0,0,0,0.0056458,5.6289e-05,0.0017106,-1.8034,0.0024709,0.0049732,4.0412e-09,0.46,0.12,0
0.025804,0.005792,0.0054264,-0.00011852,0.0015924,-0.00016677,0,0,0.044858,-0.020017,0,-0.0039024,0,0,0,0.0054314,-0.00012354,0.0015924,-1.7211,0.0023001,0.0049264,3.724e-09,0.48,0.12,0
0.026689,0.005371,0.0051869,-0.00033508,0.0014555,-9.4484e-05,0,0,0.043657,-0.02095,0,-0.0022109,0,0,0,0.0051885,-0.0003367,0.0014555,-0.97998,0.0021025,0.0048824,3.3764e-09,0.5,0.12,0
0.02755,0.0050312,0.0049399,-0.00044299,0.0013491,6.926e-06,0,0,0.042013,-0.020967,0,0.00016207,0,0,0,0.0049399,-0.00044299,0.0013491,0.07372,0.0019487,0.0047477,2.9742e-09,0.52,0.12,0
0.02837,0.0048029,0.0047053,-0.00038388,0.0012964,8.6624e-05,0,0,0.039884,-0.01966,0,0.002027,0,0,0,0.0047068,-0.00038535,0.0012964,0.97487,0.0018726,0.0044938,2.5566e-09,0.54,0.12,0
0.029146,0.0046834,0.0045167,-0.00025832,0.0012775,7.7541e-05,0,0,0.037898,-0.017969,0,0.0018145,0,0,0,0.0045179,-0.00025958,0.0012775,0.93009,0.0018453,0.0042242,2.2147e-09,0.56,0.12,0
0.029886,0.0046567,0.0043983,-0.00019471,0.0012611,6.1833e-06,0,0,0.036706,-0.017033,0,0.00014469,0,0,0,0.0043983,-0.00019471,0.0012611,0.077133,0.0018216,0.0040656,2.019e-09,0.58,0.12,0
0.030614,0.0047106,0.0043963,-0.00020259,0.0012581,-8.5721e-05,0,0,0.036717,-0.01709,0,-0.0020059,0,0,0,0.0043979,-0.00020419,0.0012581,-1.0675,0.0018173,0.0040728,2.0225e-09,0.6,0.12,0
0.031355,0.0048461,0.0045109,-0.00028301,0.0012684,-0.00015346,0,0,0.037938,-0.018151,0,-0.0035909,0,0,0,0.0045158,-0.00028792,0.0012684,-1.8316,0.0018321,0.0042452,2.2238e-09,0.62,0.12,0
0.032131,0.0050776,0.004696,-0.00042825,0.0012803,-0.00015417,0,0,0.039963,-0.01999,0,-0.0036076,0,0,0,0.0047006,-0.00043289,0.0012803,-1.7217,0.0018494,0.004527,2.5674e-09,0.64,0.12,0
0.032953,0.0054238,0.0049265,-0.0005096,0.0013251,-5.954e-05,0,0,0.042137,-0.021466,0,-0.0013932,0,0,0,0.0049271,-0.00051025,0.0013251,-0.62745,0.001914,0.004791,2.9827e-09,0.66,0.12,0
0.033817,0.0058906,0.0051677,-0.00042275,0.0014235,6.4059e-05,0,0,0.043807,-0.021601,0,0.001499,0,0,0,0.0051684,-0.00042349,0.0014235,0.65642,0.0020561,0.0049348,3.3852e-09,0.68,0.12,0
0.034705,0.0064507,0.0053988,-0.00022264,0.0015528,0.00016449,0,0,0.044997,-0.020773,0,0.0038491,0,0,0,0.0054036,-0.00022745,0.0015528,1.6747,0.002243,0.0049853,3.7363e-09,0.7,0.12,0
0.035617,0.0070594,0.0056004,-5.5368e-05,0.0016635,0.00020603,0,0,0.046062,-0.020111,0,0.0048211,0,0,0,0.0056079,-6.2863e-05,0.0016635,2.0835,0.0024028,0.0050347,4.0511e-09,0.72,0.12,0
0.036548,0.0076828,0.0057719,5.4525e-05,0.0017479,0.00023158,0,0,0.047081,-0.019813,0,0.0054189,0,0,0,0.0057813,4.5161e-05,0.0017479,2.3157,0.0025248,0.0051025,4.3495e-09,0.74,0.12,0
0.0375,0.0082984,0.0059296,0.00015787,0.0018262,0.00023477,0,0,0.048009,-0.01952,0,0.0054937,0,0,0,0.0059391,0.00014833,0.0018262,2.3255,0.0026379,0.0051607,4.6253e-09,0.76,0.12,0
0.038468,0.0088903,0.0060551,0.00023328,0.0018865,0.00021606,0,0,0.048773,-0.019343,0,0.0050558,0,0,0,0.0060631,0.00022527,0.0018865,2.1225,0.002725,0.0052098,4.851e-09,0.78,0.12,0
0.039451,0.0094435,0.0061612,0.00027821,0.0019318,0.00017664,0,0,0.049483,-0.019347,0,0.0041333,0,0,0,0.0061665,0.00027291,0.0019318,1.7183,0.0027904,0.005264,5.0597e-09,0.8,0.12,0
0.040448,0.0099472,0.0062536,0.00028892,0.0019628,0.00012604,0,0,0.050203,-0.019584,0,0.0029493,0,0,0,0.0062563,0.00028626,0.0019628,1.21,0.0028351,0.0053332,5.2743e-09,0.82,0.12,0
0.041459,0.010395,0.0063373,0.00027071,0.0019824,7.4001e-05,0,0,0.050952,-0.020027,0,0.0017316,0,0,0,0.0063382,0.00026981,0.0019824,0.69876,0.0028635,0.005419,5.5056e-09,0.84,0.12,0
0.042486,0.010783,0.0064132,0.00023202,0.0019936,2.8457e-05,0,0,0.05171,-0.02061,0,0.00066589,0,0,0,0.0064133,0.00023189,0.0019936,0.26377,0.0028796,0.0055158,5.7479e-09,0.86,0.12,0
0.043527,0.011113,0.0064807,0.00018242,0.0019989,-6.1389e-06,0,0,0.052436,-0.021253,0,-0.00014365,0,0,0,0.0064807,0.00018242,0.0019989,-0.055846,0.0028873,0.0056149,5.9872e-09,0.88,0.12,0
0.044583,0.011385,0.0065385,0.00013004,0.0020006,-2.8255e-05,0,0,0.053094,-0.021885,0,-0.00066118,0,0,0,0.0065387,0.00012991,0.0020006,-0.25261,0.0028897,0.0057082,6.2084e-09,0.9,0.12,0
0.045651,0.011603,0.006586,8.0992e-05,0.0020001,-3.8398e-05,0,0,0.053655,-0.022454,0,-0.00089851,0,0,0,0.0065863,8.0766e-05,0.0020001,-0.33819,0.0028891,0.0057896,6.3995e-09,0.92,0.12,0
0.046729,0.01177,0.0066228,3.9494e-05,0.0019987,-3.8236e-05,0,0,0.054102,-0.022922,0,-0.00089471,0,0,0,0.006623,3.9272e-05,0.0019987,-0.33276,0.002887,0.0058553,6.5528e-09,0.94,0.12,0
0.047815,0.011887,0.0066488,8.2704e-06,0.0019971,-3.0046e-05,0,0,0.054425,-0.02327,0,-0.00070308,0,0,0,0.006649,8.1344e-06,0.0019971,-0.25923,0.0028847,0.0059032,6.664e-09,0.96,0.12,0
0.048906,0.011956,0.0066643,-1.1035e-05,0.001996,-1.64e-05,0,0,0.05462,-0.023482,0,-0.00038375,0,0,0,0.0066644,-1.1075e-05,0.001996,-0.14076,0.0028831,0.0059323,6.7312e-09,0.98,0.12,0
0.05,0.011979,0.0066695,-1.7559e-05,0.0019956,4.9176e-05,0,0,0.054684,-0.023554,0,0.0011507,0,0,0,0.0066698,-1.7921e-05,0.0019956,0.42132,0.0028825,0.0059426,6.7552e-09,1,0.12,0
0,0,0.0073078,0.0031319,0.0031319,0.0018633,0,0,0.048858,1.0842e-18,0,0.043601,0,0,0,0.0080184,0.0024214,0.0031319,20.873,0.0045239,0.0052777,7.0909e-09,0,0.14,0
0.00097716,0.00087202,0.007278,0.0027482,0.0030079,0.0018531,0,0,0.049961,-0.0030381,0,0.043363,0,0,0,0.0079395,0.0020867,0.0030079,19.645,0.0043447,0.0054509,7.5238e-09,0.02,0.14,0
0.0019984,0.0017362,0.0073937,0.0023829,0.002933,0.0018157,0,0,0.052191,-0.0064364,0,0.042487,0,0,0,0.0079825,0.0017941,0.002933,17.965,0.0042365,0.0057048,8.2692e-09,0.04,0.14,0
0.0030648,0.0025801,0.007497,0.0020071,0.0028512,0.001743,0,0,0.054356,-0.0098764,0,0.040786,0,0,0,0.0080036,0.0015005,0.0028512,16.207,0.0041184,0.005944,8.9369e-09,0.06,0.14,0
0.0041727,0.0033888,0.007577,0.0016531,0.002769,0.0016378,0,0,0.056253,-0.013057,0,0.038325,0,0,0,0.0079997,0.0012304,0.002769,14.47,0.0039997,0.0061462,9.4522e-09,0.08,0.14,0
0.0053149,0.0041486,0.0076271,0.0013417,0.0026907,0.0015112,0,0,0.057757,-0.015783,0,0.035362,0,0,0,0.0079716,0.00099723,0.0026907,12.84,0.0038865,0.0063007,9.7864e-09,0.1,0.14,0
0.0064829,0.0048493,0.0076462,0.0010815,0.0026183,0.0013761,0,0,0.058826,-0.01798,0,0.0322,0,0,0,0.007923,0.00080474,0.0026183,11.373,0.003782,0.0064069,9.9476e-09,0.12,0.14,0
0.007668,0.0054843,0.0076374,0.00087242,0.0025529,0.0012431,0,0,0.059488,-0.019662,0,0.029088,0,0,0,0.0078586,0.00065124,0.0025529,10.089,0.0036876,0.0064696,9.9633e-09,0.14,0.14,0
0.0088624,0.0060502,0.0076059,0.00071006,0.0024948,0.0011188,0,0,0.0598,-0.020881,0,0.02618,0,0,0,0.0077829,0.00053307,0.0024948,8.9889,0.0036036,0.0064951,9.8657e-09,0.16,0.14,0
0.01006,0.0065456,0.0075571,0.00058884,0.0024438,0.0010063,0,0,0.059826,-0.021703,0,0.023547,0,0,0,0.0076995,0.00044643,0.0024438,8.0549,0.0035299,0.0064892,9.6823e-09,0.18,0.14,0
0.011255,0.00697,0.0074952,0.00050344,0.0023996,0.00090574,0,0,0.059619,-0.022185,0,0.021194,0,0,0,0.0076106,0.00038801,0.0023996,7.2626,0.0034661,0.0064563,9.4334e-09,0.2,0.14,0
0.012445,0.0073234,0.0074228,0.00044923,0.0023616,0.00081567,0,0,0.059216,-0.022375,0,0.019087,0,0,0,0.0075169,0.0003551,0.0023616,6.5832,0.0034112,0.006399,9.1315e-09,0.22,0.14,0
0.013624,0.0076056,0.0073412,0.00042217,0.002329,0.00073356,0,0,0.058642,-0.02231,0,0.017165,0,0,0,0.0074181,0.00034525,0.002329,5.9859,0.0033641,0.006319,8.7835e-09,0.24,0.14,0
0.01479,0.007816,0.0072505,0.00041842,0.0023007,0.00065626,0,0,0.057913,-0.022022,0,0.015357,0,0,0,0.007313,0.00035595,0.0023007,5.4374,0.0033232,0.0062171,8.3933e-09,0.26,0.14,0
0.015941,0.0079534,0.0071504,0.00043379,0.0022752,0.00058028,0,0,0.057039,-0.021545,0,0.013579,0,0,0,0.0072001,0.00038402,0.0022752,4.9017,0.0032865,0.0060947,7.9644e-09,0.28,0.14,0
0.017072,0.0080159,0.0070403,0.00046287,0.002251,0.00050207,0,0,0.056036,-0.020921,0,0.011748,0,0,0,0.0070784,0.00042477,0.002251,4.34,0.0032514,0.0059544,7.5037e-09,0.3,0.14,0
0.018182,0.0080012,0.0069206,0.000498,0.0022256,0.00041861,0,0,0.054932,-0.020213,0,0.0097954,0,0,0,0.0069477,0.00047083,0.0022256,3.7134,0.0032147,0.0058021,7.025e-09,0.32,0.14,0
0.019269,0.0079067,0.0067922,0.00052796,0.0021961,0.00032861,0,0,0.053775,-0.019517,0,0.0076894,0,0,0,0.0068094,0.00051077,0.0021961,2.9946,0.0031721,0.0056478,6.5509e-09,0.34,0.14,0
0.020333,0.0077311,0.0066571,0.00053816,0.0021586,0.00023471,0,0,0.052633,-0.018959,0,0.0054922,0,0,0,0.0066661,0.00052917,0.0021586,2.1934,0.003118,0.0055061,6.1101e-09,0.36,0.14,0
0.021375,0.0074758,0.0065144,0.00051165,0.0021078,0.00014509,0,0,0.051557,-0.018675,0,0.0033951,0,0,0,0.0065179,0.00050814,0.0021078,1.3838,0.0030446,0.005391,5.7224e-09,0.38,0.14,0
0.022395,0.0071465,0.0063608,0.00043907,0.00204,7.4874e-05,0,0,0.050554,-0.018731,0,0.0017521,0,0,0,0.0063618,0.00043812,0.00204,0.72429,0.0029466,0.0053073,5.3855e-09,0.4,0.14,0
0.023397,0.0067557,0.0061785,0.00031608,0.0019484,3.8031e-05,0,0,0.049493,-0.019098,0,0.00088992,0,0,0,0.0061788,0.00031583,0.0019484,0.37167,0.0028143,0.005241,5.0471e-09,0.42,0.14,0
0.024375,0.0063202,0.0059586,0.00016983,0.0018385,4.9533e-05,0,0,0.048205,-0.019524,0,0.0011591,0,0,0,0.005959,0.0001694,0.0018385,0.49022,0.0026557,0.0051616,4.6532e-09,0.44,0.14,0
0.025325,0.0058629,0.0056337,-2.0861e-05,0.0016838,8.8222e-05,0,0,0.046213,-0.019945,0,0.0020644,0,0,0,0.0056351,-2.2237e-05,0.0016838,0.89363,0.0024322,0.0050263,4.0792e-09,0.46,0.14,0
0.026224,0.0053938,0.0053326,-0.00013087,0.0015605,0.00016752,0,0,0.044133,-0.019789,0,0.00392,0,0,0,0.0053377,-0.000136,0.0015605,1.7546,0.0022541,0.0048532,3.5442e-09,0.48,0.14,0
0.02709,0.0049521,0.0048943,-0.00048014,0.0013242,0.00022947,0,0,0.04177,-0.021111,0,0.0053697,0,0,0,0.0049041,-0.00048992,0.0013242,2.4404,0.0019128,0.004754,2.933e-09,0.5,0.14,0
0.027894,0.0046159,0.0044471,-0.00060584,0.0011524,0.00040475,0,0,0.038549,-0.020571,0,0.0094713,0,0,0,0.0044794,-0.00063806,0.0011524,4.5508,0.0016646,0.0044979,2.3017e-09,0.52,0.14,0
0.028632,0.0044258,0.0041158,-0.00028533,0.0011492,0.00040589,0,0,0.03471,-0.016783,0,0.0094977,0,0,0,0.004153,-0.00032245,0.0011492,5.2252,0.0016599,0.0039508,1.7501e-09,0.54,0.14,0
0.029283,0.0043528,0.0037745,-0.0001143,0.0010981,0.00027134,0,0,0.031314,-0.014185,0,0.0063494,0,0,0,0.0037934,-0.00013314,0.0010981,3.9722,0.0015861,0.0034783,1.2841e-09,0.56,0.14,0
0.029885,0.0043491,0.0036145,-3.458e-05,0.001074,6.977e-05,0,0,0.029724,-0.01297,0,0.0016326,0,0,0,0.0036158,-3.5913e-05,0.001074,1.095,0.0015513,0.0032425,1.0845e-09,0.58,0.14,0
0.030472,0.0044017,0.0036105,-4.3885e-05,0.00107,-0.00014319,0,0,0.029724,-0.013032,0,-0.0033507,0,0,0,0.0036161,-4.9487e-05,0.00107,-2.2405,0.0015455,0.0032537,1.089e-09,0.6,0.14,0
0.031074,0.0045115,0.0037634,-0.00014355,0.001086,-0.00034194,0,0,0.031326,-0.014385,0,-0.0080014,0,0,0,0.0037931,-0.00017326,0.001086,-4.9642,0.0015686,0.0035105,1.2967e-09,0.62,0.14,0
0.031725,0.0046932,0.0040993,-0.00033892,0.0011281,-0.00046941,0,0,0.034763,-0.017164,0,-0.010984,0,0,0,0.0041484,-0.00038802,0.0011281,-5.9718,0.0016295,0.004,1.7667e-09,0.64,0.14,0
0.032464,0.0049974,0.0044249,-0.00069128,0.0011201,-0.00045366,0,0,0.038666,-0.021193,0,-0.010616,0,0,0,0.0044648,-0.00073119,0.0011201,-5.0282,0.0016179,0.0045614,2.3084e-09,0.66,0.14,0
0.033271,0.005457,0.0048644,-0.00059736,0.0012801,-0.00025316,0,0,0.041936,-0.021966,0,-0.0059238,0,0,0,0.0048761,-0.00060906,0.0012801,-2.6481,0.0018491,0.0048264,2.9353e-09,0.68,0.14,0
0.034142,0.0060354,0.005295,-0.00026642,0.0015086,-0.00015905,0,0,0.044301,-0.020768,0,-0.0037219,0,0,0,0.0052996,-0.00027097,0.0015086,-1.6368,0.0021791,0.0049279,3.5542e-09,0.7,0.14,0
0.035043,0.0066563,0.0055829,-0.00017411,0.0016226,-4.4017e-05,0,0,0.046335,-0.021022,0,-0.00103,0,0,0,0.0055832,-0.00017444,0.0016226,-0.43804,0.0023438,0.0051023,4.0791e-09,0.72,0.14,0
0.035995,0.0072821,0.0058911,2.2363e-06,0.001768,3.5003e-05,0,0,0.04824,-0.020659,0,0.00081907,0,0,0,0.0058913,2.0282e-06,0.001768,0.34055,0.0025538,0.0052347,4.64e-09,0.74,0.14,0
0.036973,0.0079043,0.006091,0.00013946,0.0018691,8.9469e-05,0,0,0.049396,-0.020237,0,0.0020936,0,0,0,0.0060923,0.00013812,0.0018691,0.86107,0.0026999,0.0053049,5.0058e-09,0.76,0.14,0
0.037971,0.0085004,0.0062492,0.00025606,0.0019516,9.7177e-05,0,0,0.050282,-0.019838,0,0.0022739,0,0,0,0.0062508,0.00025449,0.0019516,0.9287,0.002819,0.0053535,5.2928e-09,0.78,0.14,0
0.038984,0.0090541,0.0063756,0.00032281,0.0020095,7.2244e-05,0,0,0.051083,-0.019735,0,0.0016905,0,0,0,0.0063765,0.00032195,0.0020095,0.68373,0.0029027,0.0054118,5.5516e-09,0.8,0.14,0
0.040014,0.0095526,0.0064886,0.00034082,0.0020488,2.9135e-05,0,0,0.051945,-0.019984,0,0.00068176,0,0,0,0.0064887,0.00034069,0.0020488,0.27152,0.0029594,0.0054968,5.8353e-09,0.82,0.14,0
0.041062,0.0099899,0.0065918,0.00031709,0.0020727,-1.5752e-05,0,0,0.052874,-0.02054,0,-0.0003686,0,0,0,0.0065918,0.00031705,0.0020727,-0.14384,0.0029938,0.005607,6.1514e-09,0.84,0.14,0
0.042129,0.010365,0.006686,0.00026681,0.0020859,-5.2356e-05,0,0,0.053822,-0.021283,0,-0.0012251,0,0,0,0.0066865,0.00026639,0.0020859,-0.46727,0.0030129,0.0057312,6.4853e-09,0.86,0.14,0
0.043215,0.01068,0.0067693,0.00020368,0.0020919,-7.6016e-05,0,0,0.054725,-0.022092,0,-0.0017788,0,0,0,0.0067701,0.0002028,0.0020919,-0.66325,0.0030216,0.005856,6.8115e-09,0.88,0.14,0
0.044318,0.010939,0.0068397,0.00013839,0.0020934,-8.61e-05,0,0,0.055532,-0.022874,0,-0.0020147,0,0,0,0.0068408,0.00013728,0.0020934,-0.73598,0.0030238,0.0059708,7.1079e-09,0.9,0.14,0
0.045436,0.011144,0.0068966,7.8196e-05,0.0020925,-8.3959e-05,0,0,0.056209,-0.023567,0,-0.0019646,0,0,0,0.0068977,7.7162e-05,0.0020925,-0.70537,0.0030224,0.0060692,7.3596e-09,0.92,0.14,0
0.046567,0.0113,0.00694,2.7811e-05,0.0020903,-7.1786e-05,0,0,0.056741,-0.024132,0,-0.0016798,0,0,0,0.0069408,2.7065e-05,0.0020903,-0.59495,0.0030194,0.0061475,7.5586e-09,0.94,0.14,0
0.047706,0.011409,0.0069704,-9.8271e-06,0.0020882,-5.2048e-05,0,0,0.057122,-0.024547,0,-0.0012179,0,0,0,0.0069708,-1.0215e-05,0.0020882,-0.4272,0.0030162,0.0062039,7.7015e-09,0.96,0.14,0
0.048851,0.011474,0.0069883,-3.2996e-05,0.0020866,-2.7278e-05,0,0,0.05735,-0.024799,0,-0.00063831,0,0,0,0.0069885,-3.3102e-05,0.0020866,-0.22259,0.003014,0.0062379,7.7872e-09,0.98,0.14,0
0.05,0.011495,0.0069943,-4.0809e-05,0.002086,4.5805e-05,0,0,0.057426,-0.024884,0,0.0010718,0,0,0,0.0069946,-4.1107e-05,0.002086,0.37303,0.0030132,0.0062498,7.8171e-09,1,0.14,0
0,0,0.0073215,0.0031378,0.0031378,0.0017368,0,0,0.04895,-1.0842e-19,0,0.040641,0,0,0,0.0079486,0.0025108,0.0031378,19.851,0.0045324,0.005153,6.678e-09,0,0.16,0
0.000979,0.00081283,0.007292,0.002768,0.003018,0.0017298,0,0,0.050006,-0.0029254,0,0.040477,0,0,0,0.0078776,0.0021824,0.003018,18.703,0.0043593,0.0053268,7.1233e-09,0.02,0.16,0
0.0020002,0.0016121,0.0074083,0.0024328,0.0029523,0.0016973,0,0,0.052135,-0.0060788,0,0.039717,0,0,0,0.0079322,0.0019089,0.0029523,17.152,0.0042645,0.0055753,7.8602e-09,0.04,0.16,0
0.0030644,0.0023903,0.0075162,0.0020902,0.0028819,0.0016423,0,0,0.054221,-0.0092629,0,0.038428,0,0,0,0.0079745,0.0016319,0.0028819,15.594,0.0041628,0.0058192,8.5675e-09,0.06,0.16,0
0.0041691,0.0031372,0.0076077,0.0017618,0.0028109,0.0015637,0,0,0.056123,-0.012274,0,0.036591,0,0,0,0.0079997,0.0013698,0.0028109,14.073,0.0040601,0.0060397,9.1806e-09,0.08,0.16,0
0.0053093,0.0038428,0.0076772,0.0014641,0.0027424,0.0014671,0,0,0.057737,-0.014956,0,0.03433,0,0,0,0.0080062,0.0011351,0.0027424,12.64,0.0039612,0.0062251,9.6608e-09,0.1,0.16,0
0.0064786,0.0044984,0.0077221,0.0012064,0.0026786,0.0013604,0,0,0.05901,-0.017224,0,0.031834,0,0,0,0.0079948,0.00093376,0.0026786,11.332,0.003869,0.0063704,9.996e-09,0.12,0.16,0
0.0076697,0.005098,0.0077431,0.00099197,0.0026205,0.0012516,0,0,0.059934,-0.019054,0,0.029287,0,0,0,0.0079677,0.00076741,0.0026205,10.172,0.0037852,0.0064757,1.0193e-08,0.14,0.16,0
0.008876,0.0056373,0.0077427,0.00081998,0.0025688,0.0011466,0,0,0.060534,-0.020461,0,0.02683,0,0,0,0.0079276,0.00063502,0.0025688,9.1639,0.0037105,0.0065437,1.0267e-08,0.16,0.16,0
0.010091,0.0061141,0.007724,0.00068765,0.0025235,0.0010491,0,0,0.060846,-0.021479,0,0.024549,0,0,0,0.0078771,0.00053456,0.0025235,8.3021,0.003645,0.0065776,1.0237e-08,0.18,0.16,0
0.01131,0.0065269,0.0076899,0.00059152,0.0024844,0.00096061,0,0,0.060904,-0.022147,0,0.022478,0,0,0,0.0078176,0.00046382,0.0024844,7.5723,0.0035886,0.0065804,1.0117e-08,0.2,0.16,0
0.012527,0.0068749,0.0076424,0.00052819,0.0024512,0.00088103,0,0,0.060737,-0.022499,0,0.020616,0,0,0,0.0077498,0.00042071,0.0024512,6.9556,0.0035406,0.0065542,9.9196e-09,0.22,0.16,0
0.013739,0.0071572,0.0075822,0.0004944,0.002423,0.00080904,0,0,0.060363,-0.022565,0,0.018932,0,0,0,0.0076734,0.00040323,0.002423,6.4299,0.0034999,0.0065001,9.65e-09,0.24,0.16,0
0.014942,0.0073726,0.0075094,0.00048688,0.0023989,0.00074245,0,0,0.059793,-0.02237,0,0.017373,0,0,0,0.007587,0.00040924,0.0023989,5.9696,0.0034651,0.0064186,9.3115e-09,0.26,0.16,0
0.016131,0.0075192,0.0074229,0.00050186,0.0023774,0.00067828,0,0,0.059032,-0.021944,0,0.015872,0,0,0,0.0074888,0.00043601,0.0023774,5.5448,0.0034341,0.0063102,8.9061e-09,0.28,0.16,0
0.017303,0.0075944,0.0073218,0.00053423,0.0023568,0.0006129,0,0,0.05809,-0.021324,0,0.014342,0,0,0,0.0073767,0.00047933,0.0023568,5.1185,0.0034043,0.0061765,8.4386e-09,0.3,0.16,0
0.018455,0.0075944,0.0072056,0.00057631,0.0023346,0.00054223,0,0,0.056991,-0.020572,0,0.012688,0,0,0,0.0072497,0.00053225,0.0023346,4.6452,0.0033722,0.0060221,7.9222e-09,0.32,0.16,0
0.019583,0.0075146,0.0070766,0.00061573,0.0023077,0.000463,0,0,0.055796,-0.019796,0,0.010834,0,0,0,0.0071096,0.00058272,0.0023077,4.0781,0.0033333,0.005858,7.3865e-09,0.34,0.16,0
0.020686,0.0073508,0.0069379,0.00063187,0.0022709,0.0003755,0,0,0.054603,-0.019177,0,0.0087866,0,0,0,0.0069602,0.00060959,0.0022709,3.3957,0.0032802,0.0057043,6.8775e-09,0.36,0.16,0
0.021767,0.0071006,0.0067951,0.00060017,0.0022186,0.00028985,0,0,0.053545,-0.018935,0,0.0067824,0,0,0,0.0068086,0.00058664,0.0022186,2.673,0.0032046,0.0055877,6.4506e-09,0.38,0.16,0
0.022828,0.0067685,0.0066402,0.00049216,0.0021397,0.00022576,0,0,0.052656,-0.019276,0,0.0052828,0,0,0,0.0066485,0.00048388,0.0021397,2.1002,0.0030907,0.005526,6.1154e-09,0.4,0.16,0
0.023873,0.0063665,0.0064744,0.00032117,0.0020387,0.0002183,0,0,0.051898,-0.020095,0,0.0051083,0,0,0,0.0064821,0.00031343,0.0020387,2.0293,0.0029447,0.0055124,5.8475e-09,0.42,0.16,0
0.024904,0.0059204,0.0062322,7.607e-05,0.0018925,0.00027609,0,0,0.050775,-0.021252,0,0.0064606,0,0,0,0.0062446,6.3712e-05,0.0018925,2.5628,0.0027336,0.0054994,5.4667e-09,0.44,0.16,0
0.025904,0.0054495,0.0059558,-0.00011658,0.0017518,0.00044951,0,0,0.049187,-0.02186,0,0.010519,0,0,0,0.0059889,-0.00014967,0.0017518,4.2107,0.0025303,0.0054429,5.0037e-09,0.46,0.16,0
0.026872,0.0050004,0.0051875,-0.00055969,0.0013883,0.00061979,0,0,0.04445,-0.022792,0,0.014503,0,0,0,0.0052536,-0.00062577,0.0013883,6.0857,0.0020054,0.0051751,3.6564e-09,0.48,0.16,0
0.027682,0.0045265,0.0044893,-0.00080514,0.0011053,0.0011716,0,0,0.039594,-0.022352,0,0.027416,0,0,0,0.004737,-0.0010528,0.0011053,11.937,0.0015965,0.005068,2.8339e-09,0.5,0.16,0
0.028455,0.0042083,0.0039459,-0.00027231,0.0011021,0.0010042,0,0,0.033273,-0.016081,0,0.023499,0,0,0,0.0041728,-0.00049919,0.0011021,12.73,0.0015919,0.0041122,1.8329e-09,0.52,0.16,0
0.029013,0.0041316,0.0031081,-1.9693e-05,0.00092653,0.00078692,0,0,0.025525,-0.011071,0,0.018414,0,0,0,0.0032949,-0.00020651,0.00092653,13.355,0.0013383,0.0030946,8.6302e-10,0.54,0.16,0
0.029476,0.004116,0.0027714,0.00013303,0.00087131,0.00044591,0,0,0.02223,-0.0086379,0,0.010434,0,0,0,0.0028447,5.9702e-05,0.00087131,9.3382,0.0012586,0.0024808,5.1057e-10,0.56,0.16,0
0.029902,0.0041379,0.0026573,0.00021019,0.00086023,0.00012424,0,0,0.021025,-0.0076055,0,0.0029073,0,0,0,0.0026636,0.0002039,0.00086023,2.8991,0.0012426,0.002206,3.9126e-10,0.58,0.16,0
0.030317,0.0041893,0.002652,0.00019961,0.00085549,-0.00018857,0,0,0.021019,-0.0076737,0,-0.0044125,0,0,0,0.0026664,0.0001852,0.00085549,-4.3713,0.0012357,0.0022232,3.9622e-10,0.6,0.16,0
0.030743,0.0042706,0.0027557,9.9557e-05,0.00085659,-0.000508,0,0,0.02222,-0.0088573,0,-0.011887,0,0,0,0.0028496,5.7145e-06,0.00085659,-10.466,0.0012373,0.0025282,5.2415e-10,0.62,0.16,0
0.031206,0.004391,0.0030841,-8.1055e-05,0.00090092,-0.00084375,0,0,0.025544,-0.011489,0,-0.019744,0,0,0,0.003295,-0.00029193,0.00090092,-14.032,0.0013013,0.0031639,8.8187e-10,0.64,0.16,0
0.031765,0.004576,0.0039173,-0.00037318,0.0010632,-0.0010483,0,0,0.033392,-0.016806,0,-0.02453,0,0,0,0.0041597,-0.0006156,0.0010632,-13.021,0.0015358,0.0041958,1.8496e-09,0.66,0.16,0
0.032542,0.005012,0.0044495,-0.00095998,0.0010468,-0.0011889,0,0,0.039811,-0.02348,0,-0.02782,0,0,0,0.0046993,-0.0012098,0.0010468,-11.864,0.0015121,0.0051647,2.7985e-09,0.68,0.16,0
0.033357,0.00562,0.0051428,-0.00072732,0.0013246,-0.00060107,0,0,0.044673,-0.024008,0,-0.014065,0,0,0,0.0052037,-0.00078823,0.0013246,-5.7867,0.0019134,0.0052638,3.6287e-09,0.7,0.16,0
0.034329,0.0062185,0.0058965,-0.00031161,0.0016755,-0.00039085,0,0,0.049386,-0.023249,0,-0.009146,0,0,0,0.005921,-0.00033612,0.0016755,-3.5884,0.0024201,0.0055328,4.982e-09,0.72,0.16,0
0.035333,0.0068564,0.0061591,-0.00013474,0.0018073,-0.00017419,0,0,0.050916,-0.022722,0,-0.0040761,0,0,0,0.0061639,-0.00013955,0.0018073,-1.5841,0.0026106,0.0055903,5.4425e-09,0.74,0.16,0
0.036365,0.0074889,0.0063815,9.8332e-05,0.0019439,-6.9134e-05,0,0,0.051919,-0.021594,0,-0.0016177,0,0,0,0.0063822,9.7571e-05,0.0019439,-0.63033,0.0028079,0.0055948,5.8033e-09,0.76,0.16,0
0.037409,0.0080968,0.0065261,0.0002635,0.0020369,-2.9098e-05,0,0,0.052524,-0.020748,0,-0.0006809,0,0,0,0.0065262,0.00026337,0.0020369,-0.26621,0.0029422,0.0055912,6.0264e-09,0.78,0.16,0
0.038466,0.0086542,0.0066573,0.00036573,0.0021069,-4.5847e-05,0,0,0.05324,-0.020372,0,-0.0010728,0,0,0,0.0066577,0.00036539,0.0021069,-0.41749,0.0030433,0.0056274,6.2842e-09,0.8,0.16,0
0.039539,0.0091479,0.0067759,0.00038795,0.0021492,-8.404e-05,0,0,0.054133,-0.020606,0,-0.0019665,0,0,0,0.006777,0.00038685,0.0021492,-0.7536,0.0031044,0.0057165,6.61e-09,0.82,0.16,0
0.040632,0.009573,0.0068904,0.00035496,0.0021736,-0.00012192,0,0,0.055186,-0.021278,0,-0.002853,0,0,0,0.0068927,0.00035268,0.0021736,-1.0684,0.0031397,0.0058462,7.006e-09,0.84,0.16,0
0.041746,0.0099317,0.0069956,0.00028955,0.0021855,-0.00014695,0,0,0.056278,-0.022183,0,-0.0034386,0,0,0,0.0069988,0.00028633,0.0021855,-1.2547,0.0031569,0.005993,7.4276e-09,0.86,0.16,0
0.042883,0.010229,0.0070878,0.00021158,0.0021898,-0.00015634,0,0,0.057307,-0.023145,0,-0.0036584,0,0,0,0.0070914,0.00020802,0.0021898,-1.3018,0.0031631,0.0061373,7.8334e-09,0.88,0.16,0
0.044039,0.01047,0.0071644,0.00013334,0.0021893,-0.00015135,0,0,0.058209,-0.024055,0,-0.0035417,0,0,0,0.0071677,0.00013008,0.0021893,-1.2326,0.0031624,0.0062671,8.194e-09,0.9,0.16,0
0.045211,0.010661,0.0072251,6.2552e-05,0.0021863,-0.00013454,0,0,0.058954,-0.024848,0,-0.0031482,0,0,0,0.0072277,6.0026e-05,0.0021863,-1.0757,0.003158,0.0063762,8.4942e-09,0.92,0.16,0
0.046397,0.010804,0.0072707,4.0285e-06,0.0021824,-0.00010856,0,0,0.059533,-0.025487,0,-0.0025403,0,0,0,0.0072724,2.407e-06,0.0021824,-0.85572,0.0031524,0.0064619,8.728e-09,0.94,0.16,0
0.047593,0.010905,0.0073023,-3.9335e-05,0.0021789,-7.5947e-05,0,0,0.059944,-0.025953,0,-0.0017771,0,0,0,0.0073031,-4.0121e-05,0.0021789,-0.59262,0.0031473,0.0065232,8.8941e-09,0.96,0.16,0
0.048795,0.010964,0.0073208,-6.5895e-05,0.0021765,-3.903e-05,0,0,0.060188,-0.026236,0,-0.00091329,0,0,0,0.007321,-6.6101e-05,0.0021765,-0.30273,0.0031438,0.0065599,8.993e-09,0.98,0.16,0
0.05,0.010984,0.0073269,-7.4831e-05,0.0021756,4.1928e-05,0,0,0.06027,-0.02633,0,0.00098112,0,0,0,0.0073271,-7.5068e-05,0.0021756,0.32455,0.0031426,0.0065725,9.027e-09,1,0.16,0
0,0,0.00736,0.0031543,0.0031543,0.0016133,0,0,0.049207,-7.5894e-19,0,0.03775,0,0,0,0.0079075,0.0026067,0.0031543,18.747,0.0045562,0.0050494,6.3506e-09,0,0.18,0
0.00098414,0.00075501,0.00733,0.0027893,0.0030358,0.0016082,0,0,0.050242,-0.0028836,0,0.037631,0,0,0,0.0078419,0.0022775,0.0030358,17.656,0.0043851,0.0052267,6.8158e-09,0.02,0.18,0
0.0020097,0.0014931,0.0074475,0.0024721,0.0029759,0.001579,0,0,0.052318,-0.0058941,0,0.036949,0,0,0,0.0079063,0.0020133,0.0029759,16.202,0.0042985,0.0054755,7.5606e-09,0.04,0.18,0
0.0030768,0.0022096,0.0075588,0.002152,0.0029132,0.0015356,0,0,0.054353,-0.0089065,0,0.035934,0,0,0,0.0079645,0.0017463,0.0029132,14.799,0.004208,0.0057247,8.3019e-09,0.06,0.18,0
0.0041838,0.0028978,0.0076583,0.0018435,0.0028505,0.0014758,0,0,0.056251,-0.011783,0,0.034535,0,0,0,0.0080115,0.0014903,0.0028505,13.456,0.0041174,0.0059586,8.9863e-09,0.08,0.18,0
0.0053269,0.0035503,0.0077415,0.0015589,0.0027901,0.0014018,0,0,0.057931,-0.014406,0,0.032802,0,0,0,0.0080445,0.0012559,0.0027901,12.196,0.0040301,0.0061664,9.5755e-09,0.1,0.18,0
0.0065011,0.0041603,0.0078056,0.0013066,0.0027337,0.0013184,0,0,0.059342,-0.016696,0,0.03085,0,0,0,0.0080629,0.0010494,0.0027337,11.041,0.0039486,0.0063414,1.0049e-08,0.12,0.18,0
0.0077006,0.0047221,0.00785,0.0010912,0.0026824,0.0012311,0,0,0.060462,-0.018617,0,0.028807,0,0,0,0.0080673,0.00087395,0.0026824,10.008,0.0038745,0.0064812,1.0399e-08,0.14,0.18,0
0.0089195,0.0052318,0.0078757,0.00091372,0.0026368,0.0011448,0,0,0.061295,-0.02016,0,0.026789,0,0,0,0.0080591,0.00073029,0.0026368,9.1027,0.0038087,0.0065859,1.0632e-08,0.16,0.18,0
0.010152,0.0056864,0.0078842,0.00077343,0.0025973,0.0010633,0,0,0.061857,-0.021339,0,0.024882,0,0,0,0.0080398,0.00061782,0.0025973,8.3254,0.0037516,0.0066567,1.0756e-08,0.18,0.18,0
0.011394,0.0060841,0.0078773,0.00066853,0.0025637,0.00098868,0,0,0.062168,-0.022174,0,0.023135,0,0,0,0.0080104,0.00053539,0.0025637,7.6695,0.0037032,0.0066954,1.078e-08,0.2,0.18,0
0.012639,0.0064234,0.0078562,0.00059685,0.0025359,0.00092173,0,0,0.062248,-0.022687,0,0.021569,0,0,0,0.0079714,0.00048165,0.0025359,7.1243,0.003663,0.0067031,1.0711e-08,0.22,0.18,0
0.013884,0.006703,0.0078216,0.00055607,0.0025133,0.00086222,0,0,0.062107,-0.022899,0,0.020176,0,0,0,0.0079225,0.00045515,0.0025133,6.6759,0.0036303,0.0066804,1.0555e-08,0.24,0.18,0
0.015123,0.0069212,0.0077728,0.00054366,0.0024949,0.00080889,0,0,0.061751,-0.02283,0,0.018928,0,0,0,0.0078622,0.00045426,0.0024949,6.3071,0.0036038,0.0066275,1.0311e-08,0.26,0.18,0
0.016354,0.0070757,0.0077085,0.00055658,0.0024795,0.00075958,0,0,0.061179,-0.022498,0,0.017774,0,0,0,0.0077883,0.0004768,0.0024795,5.9961,0.0035815,0.0065441,9.9796e-09,0.28,0.18,0
0.01757,0.007163,0.0076267,0.00059056,0.0024652,0.00071098,0,0,0.060389,-0.021933,0,0.016637,0,0,0,0.0076978,0.00051944,0.0024652,5.7126,0.0035608,0.0064302,9.5582e-09,0.3,0.18,0
0.018769,0.0071783,0.0075254,0.00063884,0.0024493,0.00065837,0,0,0.059391,-0.021182,0,0.015406,0,0,0,0.0075878,0.00057646,0.0024493,5.4122,0.0035378,0.0062877,9.0524e-09,0.32,0.18,0
0.019946,0.0071149,0.0074056,0.00068994,0.0024287,0.00059549,0,0,0.05823,-0.020343,0,0.013935,0,0,0,0.007458,0.00063755,0.0024287,5.0282,0.0035081,0.0061246,8.486e-09,0.34,0.18,0
0.021098,0.0069641,0.0072757,0.0007225,0.0023995,0.0005178,0,0,0.057052,-0.01962,0,0.012116,0,0,0,0.0073163,0.00068184,0.0023995,4.4901,0.0034659,0.0059642,7.9264e-09,0.36,0.18,0
0.022228,0.0067183,0.0071402,0.00068982,0.002349,0.00042964,0,0,0.056057,-0.019412,0,0.010053,0,0,0,0.0071687,0.00066133,0.002349,3.7939,0.003393,0.0058491,7.466e-09,0.38,0.18,0
0.023341,0.0063754,0.0070185,0.00055809,0.002273,0.00036514,0,0,0.055523,-0.020064,0,0.0085442,0,0,0,0.0070391,0.00053752,0.002273,3.2246,0.0032832,0.0058309,7.2233e-09,0.4,0.18,0
0.024449,0.005952,0.0068621,0.00027331,0.0021406,0.00035804,0,0,0.055241,-0.021847,0,0.0083781,0,0,0,0.0068815,0.00025391,0.0021406,3.1013,0.003092,0.0059144,7.0944e-09,0.42,0.18,0
0.02555,0.0054701,0.0067669,2.4468e-06,0.0020308,0.00049144,0,0,0.055412,-0.023732,0,0.0115,0,0,0,0.0068024,-3.3071e-05,0.0020308,4.1337,0.0029334,0.0060725,7.1826e-09,0.44,0.18,0
0.026666,0.0049885,0.0064534,-0.00044225,0.0018033,0.00065898,0,0,0.054406,-0.026273,0,0.01542,0,0,0,0.0065158,-0.00050466,0.0018033,5.4102,0.0026048,0.0061976,6.7582e-09,0.46,0.18,0
0.027727,0.0044821,0.0068812,-0.00042097,0.0019381,0.0011589,0,0,0.057834,-0.027601,0,0.027119,0,0,0,0.0070607,-0.00060049,0.0019381,8.8054,0.0027994,0.0067594,8.6527e-09,0.48,0.18,0
0.028979,0.004058,0.0090716,-0.0014146,0.0022971,0.0014449,0,0,0.029213,-0.012897,0,0.017299,0,0,0,0.009299,-0.001642,0.0022971,9.2533,0.003318,0.0096053,2.9439e-08,0.5,0.18,0
0.029229,0.0039727,0.007539,0.00042427,0.002389,0.0011456,0,0,0.012051,-0.00779,0,0.019342,0,0,0,0.0079879,-2.4683e-05,0.002389,15.95,0.0034507,0.0071709,2.6827e-08,0.52,0.18,0
0.029461,0.003983,0.0072408,0.00034997,0.0022772,0.00089174,0,0,0.011615,-0.0058077,0,0.012658,0,0,0,0.0075018,8.8963e-05,0.0022772,14.524,0.0032893,0.0066122,2.4269e-08,0.54,0.18,0
0.029694,0.0040073,0.0073369,0.00049568,0.0023498,0.00046799,0,0,0.01167,-0.0048278,0,0.0067364,0,0,0,0.0074298,0.00040281,0.0023498,9.9424,0.0033941,0.0062871,2.429e-08,0.56,0.18,0
0.029928,0.0040449,0.0073885,0.00054941,0.0023814,0.00013177,0,0,0.011717,-0.0044494,0,0.0018841,0,0,0,0.0073968,0.0005411,0.0023814,3.2598,0.0034398,0.0061459,2.4466e-08,0.58,0.18,0
0.030162,0.0040948,0.0073851,0.00053921,0.0023773,-0.00018541,0,0,0.011718,-0.0044892,0,-0.0026752,0,0,0,0.0074016,0.00052269,0.0023773,-4.5492,0.0034339,0.0061648,2.4486e-08,0.6,0.18,0
0.030397,0.0041573,0.0073284,0.00046432,0.0023378,-0.00051957,0,0,0.011678,-0.0049554,0,-0.0075064,0,0,0,0.0074402,0.00035252,0.0023378,-10.695,0.0033769,0.0063371,2.4367e-08,0.62,0.18,0
0.03063,0.0042337,0.0072295,0.0002904,0.002256,-0.00094055,0,0,0.011638,-0.0060507,0,-0.013393,0,0,0,0.0075121,7.8336e-06,0.002256,-14.839,0.0032586,0.0066882,2.4453e-08,0.64,0.18,0
0.030862,0.0043251,0.0075496,0.00034434,0.0023682,-0.0011731,0,0,0.012125,-0.0082067,0,-0.019953,0,0,0,0.0080122,-0.0001182,0.0023682,-15.929,0.0034207,0.0072712,2.7312e-08,0.66,0.18,0
0.031115,0.0045178,0.009037,-0.0016726,0.0022093,-0.0014446,0,0,0.029382,-0.013548,0,-0.017258,0,0,0,0.0092598,-0.0018954,0.0022093,-9.0794,0.0031912,0.0097796,2.936e-08,0.68,0.18,0
0.032372,0.0050751,0.0068308,-0.00063346,0.0018592,-0.0011212,0,0,0.058168,-0.029164,0,-0.026235,0,0,0,0.0069956,-0.00079823,0.0018592,-8.3604,0.0026855,0.0068625,8.6027e-09,0.7,0.18,0
0.033441,0.0057263,0.0063946,-0.000672,0.0017168,-0.00058909,0,0,0.05473,-0.027949,0,-0.013785,0,0,0,0.0064433,-0.00072077,0.0017168,-4.7328,0.0024798,0.006309,6.7112e-09,0.72,0.18,0
0.034562,0.0063733,0.0066858,-0.00025913,0.001928,-0.00037269,0,0,0.055666,-0.025589,0,-0.0087209,0,0,0,0.0067057,-0.00027907,0.001928,-3.0629,0.0027849,0.006184,7.1374e-09,0.74,0.18,0
0.035668,0.0070405,0.0067673,1.9217e-06,0.0020308,-0.00019008,0,0,0.055418,-0.023738,0,-0.0044479,0,0,0,0.0067726,-3.4146e-06,0.0020308,-1.6081,0.0029333,0.0060224,7.056e-09,0.76,0.18,0
0.036778,0.0076705,0.0069046,0.00028119,0.0021558,-0.00014671,0,0,0.055562,-0.021932,0,-0.003433,0,0,0,0.0069079,0.00027795,0.0021558,-1.2683,0.0031139,0.0059188,7.1477e-09,0.78,0.18,0
0.03789,0.0082392,0.0070083,0.00041005,0.0022255,-0.00016394,0,0,0.055958,-0.021241,0,-0.0038362,0,0,0,0.0070123,0.00040598,0.0022255,-1.4224,0.0032146,0.0059105,7.3151e-09,0.8,0.18,0
0.039017,0.0087283,0.0071262,0.00043283,0.0022677,-0.00020598,0,0,0.056844,-0.021468,0,-0.00482,0,0,0,0.0071325,0.0004265,0.0022677,-1.761,0.0032756,0.0060011,7.6791e-09,0.82,0.18,0
0.040164,0.0091388,0.0072415,0.00038017,0.0022865,-0.00023613,0,0,0.057973,-0.022304,0,-0.0055255,0,0,0,0.0072496,0.00037205,0.0022865,-1.9688,0.0033027,0.0061481,8.1501e-09,0.84,0.18,0
0.041336,0.0094778,0.0073493,0.0002966,0.0022938,-0.00024647,0,0,0.05915,-0.023367,0,-0.0057673,0,0,0,0.0073579,0.000288,0.0022938,-1.999,0.0033132,0.0063108,8.6491e-09,0.86,0.18,0
0.04253,0.0097543,0.0074411,0.00020358,0.0022934,-0.00023864,0,0,0.060228,-0.024451,0,-0.0055842,0,0,0,0.0074489,0.00019572,0.0022934,-1.8865,0.0033127,0.0064649,9.1115e-09,0.88,0.18,0
0.043745,0.0099763,0.0075149,0.0001132,0.0022884,-0.00021679,0,0,0.06115,-0.02545,0,-0.0050729,0,0,0,0.0075213,0.00010685,0.0022884,-1.6762,0.0033055,0.0065998,9.5095e-09,0.9,0.18,0
0.044976,0.01015,0.0075721,3.2992e-05,0.0022815,-0.00018442,0,0,0.0619,-0.026308,0,-0.0043154,0,0,0,0.0075766,2.8484e-05,0.0022815,-1.4004,0.0032955,0.0067115,9.8335e-09,0.92,0.18,0
0.046221,0.01028,0.0076143,-3.248e-05,0.0022745,-0.00014437,0,0,0.062475,-0.026992,0,-0.0033783,0,0,0,0.007617,-3.5205e-05,0.0022745,-1.0812,0.0032855,0.0067983,1.0082e-08,0.94,0.18,0
0.047475,0.010371,0.0076432,-8.0574e-05,0.0022688,-9.9005e-05,0,0,0.06288,-0.027487,0,-0.0023167,0,0,0,0.0076444,-8.1843e-05,0.0022688,-0.73428,0.0032771,0.00686,1.0256e-08,0.96,0.18,0
0.048736,0.010425,0.0076599,-0.00010987,0.002265,-5.0304e-05,0,0,0.063121,-0.027786,0,-0.0011771,0,0,0,0.0076603,-0.0001102,0.002265,-0.37093,0.0032717,0.0068968,1.0359e-08,0.98,0.18,0
0.05,0.010442,0.0076655,-0.0001197,0.0022637,3.7722e-05,0,0,0.0632,-0.027886,0,0.00088271,0,0,0,0.0076656,-0.00011989,0.0022637,0.27761,0.0032698,0.0069093,1.0394e-08,1,0.18,0
0,0,0.0074128,0.0031769,0.0031769,0.0014904,0,0,0.04956,-2.1684e-19,0,0.034874,0,0,0,0.0078846,0.0027051,0.0031769,17.567,0.0045889,0.0049605,6.0781e-09,0,0.2,0
0.0009912,0.00069748,0.007382,0.0028115,0.003058,0.0014865,0,0,0.05059,-0.0028847,0,0.034784,0,0,0,0.0078229,0.0023705,0.003058,16.522,0.0044172,0.0051432,6.5686e-09,0.02,0.2,0
0.0020236,0.0013763,0.0075013,0.0025046,0.0030018,0.00146,0,0,0.052644,-0.0058169,0,0.034163,0,0,0,0.0078966,0.0021093,0.0030018,15.151,0.0043359,0.0053967,7.3338e-09,0.04,0.2,0
0.003097,0.002034,0.0076157,0.0021994,0.0029445,0.0014249,0,0,0.054653,-0.0087182,0,0.033342,0,0,0,0.0079677,0.0018474,0.0029445,13.875,0.0042532,0.0056521,8.1086e-09,0.06,0.2,0
0.0042097,0.0026659,0.0077215,0.0019056,0.0028881,0.0013784,0,0,0.05655,-0.011496,0,0.032255,0,0,0,0.0080316,0.0015954,0.0028881,12.681,0.0041717,0.0058971,8.8505e-09,0.08,0.2,0
0.005359,0.0032665,0.0078151,0.0016321,0.0028342,0.0013212,0,0,0.058277,-0.014064,0,0.030917,0,0,0,0.0080856,0.0013617,0.0028342,11.57,0.0040938,0.006122,9.5254e-09,0.1,0.2,0
0.0065408,0.0038306,0.0078942,0.0013861,0.0027841,0.0012561,0,0,0.059789,-0.016357,0,0.029393,0,0,0,0.0081283,0.0011521,0.0027841,10.553,0.0040215,0.0063202,1.011e-08,0.12,0.2,0
0.0077505,0.0043533,0.0079578,0.0011718,0.0027389,0.0011868,0,0,0.061061,-0.018335,0,0.027771,0,0,0,0.0081593,0.00097021,0.0027389,9.6395,0.0039561,0.0064882,1.0593e-08,0.14,0.2,0
0.0089832,0.0048309,0.0080058,0.00099141,0.0026992,0.0011173,0,0,0.062087,-0.019981,0,0.026144,0,0,0,0.0081794,0.00081775,0.0026992,8.835,0.0038988,0.0066245,1.097e-08,0.16,0.2,0
0.010234,0.0052605,0.0080391,0.00084545,0.0026653,0.0010507,0,0,0.062872,-0.021293,0,0.024587,0,0,0,0.0081894,0.00069511,0.0026653,8.1424,0.0038499,0.0067291,1.1245e-08,0.18,0.2,0
0.011498,0.00564,0.0080586,0.00073335,0.0026376,0.00098962,0,0,0.063426,-0.02228,0,0.023157,0,0,0,0.00819,0.00060201,0.0026376,7.56,0.0038099,0.0068026,1.142e-08,0.2,0.2,0
0.012771,0.0059674,0.0080654,0.000654,0.0026158,0.00093532,0,0,0.06376,-0.022953,0,0.021887,0,0,0,0.0081816,0.00053779,0.0026158,7.0829,0.0037784,0.0068456,1.1502e-08,0.22,0.2,0
0.014049,0.0062412,0.0080596,0.00060599,0.0025997,0.00088835,0,0,0.063881,-0.023326,0,0.020788,0,0,0,0.008164,0.00050158,0.0025997,6.7037,0.0037551,0.0068584,1.1492e-08,0.24,0.2,0
0.015326,0.0064594,0.0080409,0.00058761,0.0025885,0.00084838,0,0,0.063792,-0.023411,0,0.019852,0,0,0,0.0081362,0.00049226,0.0025885,6.4125,0.003739,0.0068411,1.1388e-08,0.26,0.2,0
0.0166,0.0066193,0.008008,0.00059662,0.0025814,0.00081416,0,0,0.063491,-0.023222,0,0.019051,0,0,0,0.0080963,0.00050824,0.0025814,6.1957,0.0037287,0.0067931,1.1189e-08,0.28,0.2,0
0.017866,0.006717,0.0079583,0.00062977,0.0025764,0.00078332,0,0,0.062968,-0.022776,0,0.01833,0,0,0,0.0080411,0.00054698,0.0025764,6.0333,0.0037215,0.0067135,1.0887e-08,0.3,0.2,0
0.019119,0.0067471,0.0078881,0.00068177,0.0025709,0.00075166,0,0,0.06221,-0.022103,0,0.017589,0,0,0,0.0079656,0.0006042,0.0025709,5.8918,0.0037136,0.0066016,1.0475e-08,0.32,0.2,0
0.020354,0.0067009,0.0077931,0.00074312,0.0025609,0.0007117,0,0,0.061217,-0.021268,0,0.016654,0,0,0,0.0078642,0.00067199,0.0025609,5.7074,0.003699,0.0064584,9.9497e-09,0.34,0.2,0
0.021568,0.006566,0.0076779,0.0007975,0.0025426,0.00065035,0,0,0.060083,-0.020418,0,0.015218,0,0,0,0.0077388,0.00073657,0.0025426,5.3525,0.0036727,0.0062966,9.3543e-09,0.36,0.2,0
0.022758,0.0063241,0.0075755,0.0008046,0.002514,0.00056147,0,0,0.059219,-0.02,0,0.013138,0,0,0,0.0076218,0.00075836,0.002514,4.7083,0.0036314,0.0061757,8.8818e-09,0.38,0.2,0
0.023936,0.0059659,0.0074551,0.00061571,0.0024212,0.00046283,0,0,0.058896,-0.021125,0,0.01083,0,0,0,0.0074862,0.00058453,0.0024212,3.8539,0.0034973,0.0061912,8.6692e-09,0.4,0.2,0
0.025114,0.0054926,0.007422,0.00028663,0.0023126,0.00047776,0,0,0.05978,-0.023704,0,0.01118,0,0,0,0.0074538,0.00025478,0.0023126,3.8137,0.0033404,0.0064224,9.0452e-09,0.42,0.2,0
0.026328,0.0049711,0.0071648,-0.00034352,0.0020464,0.00055287,0,0,0.059886,-0.027962,0,0.012937,0,0,0,0.0072053,-0.00038401,0.0020464,4.1889,0.0029559,0.0067126,8.9501e-09,0.44,0.2,0
0.027509,0.0043986,0.0076215,-0.00044542,0.0021528,0.00097523,0,0,0.063983,-0.030399,0,0.02282,0,0,0,0.0077377,-0.00056164,0.0021528,6.7962,0.0031096,0.0073293,1.1272e-08,0.46,0.2,0
0.028887,0.0038964,0.0099954,-0.00050118,0.0028483,0.0010268,0,0,0.031632,-0.013966,0,0.012833,0,0,0,0.01011,-0.00061583,0.0028483,6.4736,0.0041141,0.0094814,3.5932e-08,0.48,0.2,0
0.029147,0.0039054,0.005499,-0.0012932,0.0012618,0.00040185,0,0,0.011285,-0.0067136,0,0.0049743,0,0,0,0.0055455,-0.0013396,0.0012618,6.8299,0.0018225,0.0060217,1.1763e-08,0.5,0.2,0
0.029304,0.0038967,0.0092168,-0.00015737,0.0027178,0.00053037,0,0,0.0084487,-0.0037378,0,0.001379,0,0,0,0.0092467,-0.00018728,0.0027178,3.2279,0.0039258,0.0083686,1.8329e-08,0.52,0.2,0
0.029485,0.0038993,0.010572,0.00031466,0.0032659,0.0003733,0,0,0.0094976,-0.0038367,0,0.00097058,0,0,0,0.010585,0.00030109,0.0032659,2.0816,0.0047174,0.0091687,2.6081e-08,0.54,0.2,0
0.029684,0.0039229,0.011384,0.00058445,0.0035905,0.00024769,0,0,0.010131,-0.0039079,0,0.00064401,0,0,0,0.01139,0.00057878,0.0035905,1.3132,0.0051863,0.0096637,3.1625e-08,0.56,0.2,0
0.02989,0.0039599,0.011659,0.00066424,0.0036968,6.9535e-05,0,0,0.01035,-0.0039424,0,0.00018079,0,0,0,0.011659,0.0006638,0.0036968,0.36236,0.0053399,0.0098359,3.3662e-08,0.58,0.2,0
0.030098,0.0040097,0.011647,0.00065167,0.0036897,-0.00010713,0,0,0.010345,-0.0039495,0,-0.00027854,0,0,0,0.011648,0.00065063,0.0036897,-0.55816,0.0053296,0.0098369,3.3617e-08,0.6,0.2,0
0.030304,0.0040724,0.011349,0.00054469,0.0035681,-0.00028353,0,0,0.010115,-0.0039305,0,-0.00073718,0,0,0,0.011357,0.00053725,0.0035681,-1.5022,0.005154,0.009667,3.1486e-08,0.62,0.2,0
0.030503,0.0041489,0.010505,0.00023819,0.0032231,-0.00040263,0,0,0.009467,-0.0038803,0,-0.0010468,0,0,0,0.010521,0.00022242,0.0032231,-2.2423,0.0046555,0.0091741,2.5826e-08,0.64,0.2,0
0.030683,0.0042478,0.0091277,-0.00028093,0.002654,-0.00055744,0,0,0.0084157,-0.0038154,0,-0.0014493,0,0,0,0.0091606,-0.00031384,0.002654,-3.3789,0.0038336,0.0083937,1.8069e-08,0.66,0.2,0
0.030839,0.0043584,0.0054171,-0.0014621,0.0011865,-0.00041641,0,0,0.011277,-0.0069844,0,-0.0050895,0,0,0,0.0054651,-0.0015101,0.0011865,-6.8865,0.0017138,0.0060923,1.1355e-08,0.68,0.2,0
0.031099,0.0044535,0.0098553,-0.00083839,0.0027051,-0.00098772,0,0,0.031665,-0.014802,0,-0.012248,0,0,0,0.0099589,-0.000942,0.0027051,-6.1048,0.0039074,0.0096117,3.529e-08,0.7,0.2,0
0.032479,0.0051006,0.0075281,-0.00074228,0.0020357,-0.00088857,0,0,0.06426,-0.032503,0,-0.020793,0,0,0,0.0076225,-0.00083667,0.0020357,-6.0637,0.0029405,0.0074505,1.1094e-08,0.72,0.2,0
0.03367,0.0058328,0.0070815,-0.0006494,0.0019296,-0.00042637,0,0,0.060277,-0.030175,0,-0.0099771,0,0,0,0.0071049,-0.00067284,0.0019296,-3.1472,0.0027872,0.0068575,8.8837e-09,0.74,0.2,0
0.03489,0.0065394,0.0073192,-4.3063e-05,0.0021828,-0.0002929,0,0,0.060095,-0.026043,0,-0.0068539,0,0,0,0.0073308,-5.4697e-05,0.0021828,-2.2747,0.003153,0.0065595,9.0144e-09,0.76,0.2,0
0.036073,0.0072195,0.0073438,0.00029211,0.0022908,-0.0002274,0,0,0.059121,-0.023384,0,-0.005321,0,0,0,0.0073512,0.00028478,0.0022908,-1.845,0.0033089,0.0063073,8.6295e-09,0.78,0.2,0
0.037255,0.0078045,0.0074505,0.00048152,0.0023796,-0.00027988,0,0,0.059329,-0.022208,0,-0.0065493,0,0,0,0.0074617,0.0004703,0.0023796,-2.2962,0.0034372,0.0062591,8.7557e-09,0.8,0.2,0
0.038447,0.0082891,0.0075445,0.00046626,0.0024032,-0.00032742,0,0,0.060152,-0.022662,0,-0.0076616,0,0,0,0.0075596,0.00045115,0.0024032,-2.6428,0.0034713,0.0063611,9.1441e-09,0.82,0.2,0
0.039661,0.0086808,0.0076559,0.00038763,0.002413,-0.00034598,0,0,0.061341,-0.023697,0,-0.008096,0,0,0,0.0076723,0.00037119,0.002413,-2.7192,0.0034855,0.0065244,9.6959e-09,0.84,0.2,0
0.0409,0.0089971,0.007753,0.00028643,0.0024118,-0.00033753,0,0,0.062492,-0.024867,0,-0.0078982,0,0,0,0.0077683,0.00027121,0.0024118,-2.583,0.0034838,0.0066888,1.023e-08,0.86,0.2,0
0.042161,0.0092509,0.0078298,0.00017945,0.0024028,-0.00031155,0,0,0.063496,-0.026013,0,-0.0072903,0,0,0,0.0078425,0.00016679,0.0024028,-2.3282,0.0034707,0.0068376,1.0695e-08,0.88,0.2,0
0.04344,0.0094523,0.0078892,7.8348e-05,0.0023903,-0.00027352,0,0,0.064338,-0.02705,0,-0.0064004,0,0,0,0.0078988,6.8781e-05,0.0023903,-2.0031,0.0034526,0.0069657,1.1082e-08,0.9,0.2,0
0.044734,0.0096084,0.0079342,-9.7832e-06,0.0023773,-0.00022695,0,0,0.065016,-0.027929,0,-0.0053105,0,0,0,0.0079407,-1.6261e-05,0.0023773,-1.6351,0.0034339,0.0070708,1.1391e-08,0.92,0.2,0
0.046041,0.0097248,0.0079669,-8.0767e-05,0.0023658,-0.00017448,0,0,0.065532,-0.028625,0,-0.0040829,0,0,0,0.0079707,-8.4548e-05,0.0023658,-1.2415,0.0034173,0.0071521,1.1625e-08,0.94,0.2,0
0.047356,0.0098054,0.0079889,-0.00013242,0.002357,-0.00011818,0,0,0.065894,-0.029126,0,-0.0027654,0,0,0,0.0079907,-0.00013414,0.002357,-0.83352,0.0034045,0.0072096,1.1787e-08,0.96,0.2,0
0.048676,0.0098528,0.0080016,-0.0001637,0.0023514,-5.9612e-05,0,0,0.066108,-0.029426,0,-0.0013949,0,0,0,0.0080021,-0.00016413,0.0023514,-0.41827,0.0033964,0.0072438,1.1883e-08,0.98,0.2,0
0.05,0.0098684,0.0080058,-0.00017416,0.0023495,3.3394e-05,0,0,0.066179,-0.029527,0,0.00078143,0,0,0,0.0080059,-0.0001743,0.0023495,0.2339,0.0033937,0.0072554,1.1915e-08,1,0.2,0
0,0,0.0074723,0.0032024,0.0032024,0.0013667,0,0,0.049958,-2.1684e-19,0,0.031981,0,0,0,0.0078723,0.0028025,0.0032024,16.313,0.0046257,0.0048822,5.8417e-09,0,0.22,0
0.00099916,0.00063962,0.0074406,0.0028335,0.0030822,0.0013637,0,0,0.050993,-0.0029102,0,0.031911,0,0,0,0.007814,0.0024601,0.0030822,15.313,0.0044521,0.0050715,6.3608e-09,0.02,0.22,0
0.0020397,0.0012604,0.007562,0.0025321,0.0030283,0.0013396,0,0,0.053045,-0.0058046,0,0.031347,0,0,0,0.0078966,0.0021976,0.0030283,14.021,0.0043742,0.0053324,7.1545e-09,0.04,0.22,0
0.003121,0.0018609,0.0076796,0.0022367,0.0029749,0.0013105,0,0,0.055045,-0.0086365,0,0.030666,0,0,0,0.0079787,0.0019376,0.0029749,12.857,0.0042971,0.005595,7.9634e-09,0.06,0.22,0
0.0042415,0.002438,0.0077906,0.0019536,0.0029233,0.0012737,0,0,0.056948,-0.011345,0,0.029805,0,0,0,0.0080565,0.0016878,0.0029233,11.789,0.0042225,0.0058496,8.7544e-09,0.08,0.22,0
0.0053989,0.0029878,0.0078928,0.0016892,0.0028746,0.001229,0,0,0.058713,-0.013869,0,0.028758,0,0,0,0.0081274,0.0014546,0.0028746,10.807,0.0041522,0.0060883,9.4991e-09,0.1,0.22,0
0.00659,0.003506,0.0079841,0.0014489,0.0028299,0.0011777,0,0,0.060305,-0.016158,0,0.027559,0,0,0,0.0081899,0.0012431,0.0028299,9.9103,0.0040876,0.006305,1.0176e-08,0.12,0.22,0
0.0078111,0.0039887,0.0080637,0.0012366,0.0027901,0.0011227,0,0,0.061702,-0.018176,0,0.026272,0,0,0,0.0082436,0.0010567,0.0027901,9.103,0.0040301,0.0064961,1.0772e-08,0.14,0.22,0
0.0090581,0.0044325,0.0081313,0.0010548,0.0027558,0.0010669,0,0,0.062893,-0.019902,0,0.024965,0,0,0,0.0082887,0.00089748,0.0027558,8.3898,0.0039807,0.0066594,1.128e-08,0.16,0.22,0
0.010327,0.0048347,0.0081873,0.00090476,0.0027276,0.0010131,0,0,0.063878,-0.021327,0,0.023706,0,0,0,0.0083256,0.00076645,0.0027276,7.7738,0.0039399,0.0067943,1.1699e-08,0.18,0.22,0
0.011613,0.0051929,0.0082323,0.00078668,0.0027057,0.0009636,0,0,0.064662,-0.022453,0,0.022548,0,0,0,0.008355,0.00066399,0.0027057,7.2559,0.0039083,0.0069006,1.2029e-08,0.2,0.22,0
0.012913,0.0055053,0.0082673,0.00070034,0.0026903,0.00092016,0,0,0.065251,-0.023282,0,0.021532,0,0,0,0.0083776,0.00059005,0.0026903,6.8347,0.003886,0.0069786,1.2273e-08,0.22,0.22,0
0.014223,0.00577,0.0082927,0.00064513,0.0026813,0.00088373,0,0,0.065653,-0.023824,0,0.020679,0,0,0,0.0083935,0.00054433,0.0026813,6.5067,0.003873,0.0070287,1.2433e-08,0.24,0.22,0
0.015539,0.0059848,0.0083088,0.00062011,0.0026787,0.00085456,0,0,0.065872,-0.024085,0,0.019997,0,0,0,0.0084026,0.00052627,0.0026787,6.2663,0.0038692,0.007051,1.251e-08,0.26,0.22,0
0.016858,0.0061468,0.0083154,0.00062387,0.0026818,0.00083221,0,0,0.065913,-0.024077,0,0.019474,0,0,0,0.0084044,0.00053486,0.0026818,6.1052,0.0038737,0.0070458,1.2501e-08,0.28,0.22,0
0.018176,0.0062519,0.0083111,0.00065417,0.0026896,0.00081537,0,0,0.065772,-0.023814,0,0.01908,0,0,0,0.008397,0.0005683,0.0026896,6.0115,0.0038849,0.0070129,1.2403e-08,0.3,0.22,0
0.019489,0.0062941,0.0082928,0.00070701,0.0027,0.00080141,0,0,0.065437,-0.023317,0,0.018753,0,0,0,0.0083766,0.00062327,0.0027,5.9653,0.0038999,0.0069516,1.2204e-08,0.32,0.22,0
0.020793,0.0062642,0.0082536,0.00077533,0.0027087,0.00078502,0,0,0.064876,-0.02262,0,0.01837,0,0,0,0.0083351,0.00069381,0.0027087,5.9284,0.0039125,0.0068595,1.1882e-08,0.34,0.22,0
0.022084,0.0061473,0.0081771,0.00084278,0.002706,0.00075316,0,0,0.064013,-0.021799,0,0.017624,0,0,0,0.0082537,0.00076624,0.002706,5.803,0.0039086,0.0067306,1.1386e-08,0.36,0.22,0
0.023354,0.0059183,0.0080805,0.00089478,0.0026926,0.0006712,0,0,0.063038,-0.021034,0,0.015706,0,0,0,0.0081426,0.00083262,0.0026926,5.2909,0.0038893,0.0065802,1.0788e-08,0.38,0.22,0
0.024606,0.0055304,0.0081023,0.00083391,0.0026808,0.00055493,0,0,0.06343,-0.021609,0,0.012985,0,0,0,0.0081444,0.00079179,0.0026808,4.3409,0.0038723,0.0066136,1.0872e-08,0.4,0.22,0
0.025891,0.0050038,0.0078175,3.2858e-05,0.0023551,0.00046381,0,0,0.06391,-0.02717,0,0.010853,0,0,0,0.007845,5.3214e-06,0.0023551,3.3977,0.0034018,0.0069685,1.0952e-08,0.42,0.22,0
0.027162,0.0043517,0.0082749,-0.00036456,0.0023731,0.00085058,0,0,0.069051,-0.032031,0,0.019904,0,0,0,0.0083579,-0.00044751,0.0023731,5.5697,0.0034278,0.0077881,1.3972e-08,0.44,0.22,0
0.028653,0.0037725,0.010958,-0.00017671,0.0032344,0.00056748,0,0,0.034212,-0.014644,0,0.00997,0,0,0,0.011011,-0.00022964,0.0032344,4.0514,0.0046719,0.0099706,4.5004e-08,0.46,0.22,0
0.028934,0.0037703,0.00628,-0.00045605,0.0017472,-8.6528e-05,0,0,0.012132,-0.0056667,0,0.0007694,0,0,0,0.0062857,-0.00046174,0.0017472,0.91346,0.0025237,0.0059585,1.5788e-08,0.48,0.22,0
0.0291,0.0038079,0.0092985,-0.0011592,0.0024418,-0.00037407,0,0,0.0089137,-0.0046813,0,-0.00097258,0,0,0,0.0093118,-0.0011726,0.0024418,-2.046,0.003527,0.0092245,2.0457e-08,0.5,0.22,0
0.029291,0.0038232,0.010282,5.7935e-05,0.003102,-0.00032789,0,0,0.009334,-0.0039572,0,-0.00085251,0,0,0,0.010292,4.743e-05,0.003102,-1.835,0.0044806,0.0091103,2.4629e-08,0.52,0.22,0
0.029474,0.0038295,0.010355,0.00054015,0.0032685,-0.00019406,0,0,0.0092121,-0.0035468,0,-0.00050456,0,0,0,0.010358,0.00053631,0.0032685,-1.1323,0.0047211,0.0087809,2.3761e-08,0.54,0.22,0
0.029659,0.003851,0.010585,0.00068311,0.0033804,-5.5237e-05,0,0,0.0093659,-0.0035065,0,-0.00014362,0,0,0,0.010585,0.0006828,0.0033804,-0.31961,0.0048828,0.0088669,2.4949e-08,0.56,0.22,0
0.029848,0.0038872,0.010764,0.00076144,0.0034575,-1.1993e-05,0,0,0.0094979,-0.0035049,0,-3.1183e-05,0,0,0,0.010764,0.00076143,0.0034575,-0.068703,0.0049942,0.0089636,2.6019e-08,0.58,0.22,0
0.030039,0.0039368,0.010748,0.00074717,0.0034484,1.362e-07,0,0,0.0094888,-0.0035116,0,3.5413e-07,0,0,0,0.010748,0.00074717,0.0034484,0.00078035,0.004981,0.0089605,2.5944e-08,0.6,0.22,0
0.030228,0.004,0.010535,0.00063846,0.0033522,4.7598e-05,0,0,0.0093382,-0.0035278,0,0.00012376,0,0,0,0.010536,0.00063823,0.0033522,0.27555,0.004842,0.008858,2.4725e-08,0.62,0.22,0
0.030412,0.0040785,0.010274,0.00046074,0.0032205,0.00019388,0,0,0.0091698,-0.0035877,0,0.00050408,0,0,0,0.010278,0.00045691,0.0032205,1.1314,0.0046518,0.0087721,2.3423e-08,0.64,0.22,0
0.030595,0.0041725,0.010168,-8.3634e-05,0.0030253,0.0003369,0,0,0.0092856,-0.0040416,0,0.00087593,0,0,0,0.010179,-9.4693e-05,0.0030253,1.8802,0.0043699,0.0091231,2.418e-08,0.66,0.22,0
0.030784,0.0042581,0.0091657,-0.0013797,0.0023358,0.00037218,0,0,0.0088788,-0.0048301,0,0.00096767,0,0,0,0.0091788,-0.0013928,0.0023358,2.0188,0.0033739,0.0092867,1.9917e-08,0.68,0.22,0
0.03095,0.0043202,0.0061867,-0.00064824,0.0016615,9.3089e-05,0,0,0.012116,-0.0059645,0,-0.00072151,0,0,0,0.0061924,-0.00065392,0.0016615,-0.82492,0.0024,0.0060318,1.5472e-08,0.7,0.22,0
0.03123,0.0044262,0.010758,-0.00063494,0.003037,-0.00048383,0,0,0.034243,-0.015771,0,-0.008887,0,0,0,0.010799,-0.00067594,0.003037,-3.4756,0.0043868,0.010142,4.415e-08,0.72,0.22,0
0.032724,0.0051663,0.0081485,-0.00076455,0.0022152,-0.00071297,0,0,0.06942,-0.034863,0,-0.016684,0,0,0,0.0082052,-0.00082122,0.0022152,-4.5447,0.0031997,0.0079554,1.3739e-08,0.74,0.22,0
0.034007,0.0059988,0.0077152,-0.00034946,0.0022097,-0.0002734,0,0,0.064414,-0.029943,0,-0.0063976,0,0,0,0.0077245,-0.00035872,0.0022097,-1.9394,0.0031918,0.0071536,1.0959e-08,0.76,0.22,0
0.0353,0.0067351,0.0079864,0.00046,0.0025339,-0.00030445,0,0,0.063794,-0.024265,0,-0.0071241,0,0,0,0.0079987,0.0004477,0.0025339,-2.3126,0.0036601,0.006754,1.0883e-08,0.78,0.22,0
0.036559,0.0073509,0.0079642,0.00053798,0.0025507,-0.00038257,0,0,0.063339,-0.023548,0,-0.0089521,0,0,0,0.0079839,0.00051832,0.0025507,-2.9413,0.0036843,0.0066852,1.0699e-08,0.8,0.22,0
0.037834,0.0078218,0.0080596,0.00047541,0.0025605,-0.00043025,0,0,0.06434,-0.024396,0,-0.010068,0,0,0,0.008084,0.00045108,0.0025605,-3.2365,0.0036985,0.0068271,1.1237e-08,0.82,0.22,0
0.039132,0.0081909,0.0081474,0.0003804,0.0025583,-0.00042725,0,0,0.065392,-0.025482,0,-0.0099976,0,0,0,0.0081708,0.00035697,0.0025583,-3.1391,0.0036954,0.0069786,1.1779e-08,0.84,0.22,0
0.04045,0.0084831,0.0082046,0.00026275,0.0025402,-0.00040142,0,0,0.066273,-0.026646,0,-0.0093932,0,0,0,0.0082248,0.00024251,0.0025402,-2.8862,0.0036692,0.0071173,1.222e-08,0.86,0.22,0
0.041783,0.0087138,0.0082468,0.0001426,0.0025168,-0.00036189,0,0,0.067041,-0.027779,0,-0.0084682,0,0,0,0.008263,0.00012647,0.0025168,-2.5517,0.0036354,0.0072434,1.2594e-08,0.88,0.22,0
0.043131,0.0088944,0.0082792,3.1595e-05,0.0024932,-0.00031218,0,0,0.067696,-0.028801,0,-0.0073051,0,0,0,0.008291,1.9795e-05,0.0024932,-2.1646,0.0036014,0.0073534,1.2905e-08,0.9,0.22,0
0.044491,0.0090329,0.0083037,-6.3136e-05,0.0024722,-0.00025542,0,0,0.068229,-0.029663,0,-0.0059769,0,0,0,0.0083115,-7.0927e-05,0.0024722,-1.747,0.0035709,0.0074441,1.3152e-08,0.92,0.22,0
0.04586,0.0091354,0.0083211,-0.00013823,0.0024549,-0.00019421,0,0,0.068635,-0.030339,0,-0.0045446,0,0,0,0.0083256,-0.00014268,0.0024549,-1.3145,0.0035459,0.0075141,1.3337e-08,0.94,0.22,0
0.047237,0.0092061,0.0083326,-0.00019225,0.0024421,-0.00013049,0,0,0.068919,-0.030822,0,-0.0030535,0,0,0,0.0083346,-0.00019425,0.0024421,-0.87678,0.0035275,0.0075635,1.3464e-08,0.96,0.22,0
0.048617,0.0092475,0.008339,-0.00022472,0.0024343,-6.5503e-05,0,0,0.069085,-0.03111,0,-0.0015328,0,0,0,0.0083395,-0.00022522,0.0024343,-0.43821,0.0035162,0.0075927,1.3537e-08,0.98,0.22,0
0.05,0.0092612,0.008341,-0.00023555,0.0024317,2.9156e-05,0,0,0.06914,-0.031206,0,0.00068226,0,0,0,0.0083412,-0.00023565,0.0024317,0.19478,0.0035124,0.0076026,1.3562e-08,1,0.22,0
0,0,0.0075328,0.0032283,0.0032283,0.0012416,0,0,0.050362,2.1684e-19,0,0.029054,0,0,0,0.0078653,0.0028959,0.0032283,14.99,0.0046632,0.0048118,5.6299e-09,0,0.24,0
0.0010072,0.00058108,0.0075,0.0028545,0.0031063,0.0012391,0,0,0.051406,-0.0029469,0,0.028996,0,0,0,0.0078099,0.0025446,0.0031063,14.039,0.004487,0.0050081,6.1783e-09,0.02,0.24,0
0.0020562,0.0011442,0.0076239,0.0025559,0.0030539,0.0012175,0,0,0.053469,-0.0058271,0,0.02849,0,0,0,0.0079012,0.0022786,0.0030539,12.832,0.0044112,0.0052778,7.0046e-09,0.04,0.24,0
0.003146,0.0016886,0.0077443,0.0022669,0.0030034,0.001193,0,0,0.055469,-0.0086164,0,0.027916,0,0,0,0.0079929,0.0020184,0.0030034,11.769,0.0043382,0.005548,7.8469e-09,0.06,0.24,0
0.004275,0.0022121,0.00786,0.0019916,0.0029555,0.0011631,0,0,0.057383,-0.011277,0,0.027217,0,0,0,0.0080821,0.0017695,0.0029555,10.812,0.004269,0.0058111,8.6805e-09,0.08,0.24,0
0.0054413,0.0027118,0.0079693,0.0017342,0.002911,0.0011272,0,0,0.059181,-0.013769,0,0.026378,0,0,0,0.0081668,0.0015367,0.002911,9.9396,0.0042048,0.0060609,9.4831e-09,0.1,0.24,0
0.0066423,0.0031843,0.0080709,0.0014989,0.002871,0.0010862,0,0,0.06084,-0.016053,0,0.025417,0,0,0,0.0082458,0.001324,0.002871,9.1457,0.0041469,0.0062926,1.0237e-08,0.12,0.24,0
0.0078749,0.0036263,0.0081642,0.0012889,0.0028359,0.0010418,0,0,0.062341,-0.0181,0,0.024378,0,0,0,0.0083186,0.0011345,0.0028359,8.4298,0.0040964,0.0065025,1.0929e-08,0.14,0.24,0
0.0091359,0.0040348,0.008249,0.0011066,0.0028067,0.00099634,0,0,0.063675,-0.01989,0,0.023314,0,0,0,0.0083853,0.00097025,0.0028067,7.7945,0.0040541,0.0066887,1.1553e-08,0.16,0.24,0
0.010422,0.0044074,0.0083254,0.00095357,0.0027837,0.00095221,0,0,0.064838,-0.021413,0,0.022282,0,0,0,0.0084465,0.00083257,0.0027837,7.2424,0.0040209,0.00685,1.2104e-08,0.18,0.24,0
0.011729,0.0047418,0.0083944,0.00083059,0.0027675,0.00091151,0,0,0.065835,-0.022662,0,0.021329,0,0,0,0.0085027,0.00072229,0.0027675,6.7755,0.0039975,0.0069861,1.2584e-08,0.2,0.24,0
0.013055,0.0050361,0.0084568,0.00073809,0.0027584,0.00087591,0,0,0.06667,-0.023638,0,0.020496,0,0,0,0.0085549,0.00063994,0.0027584,6.3936,0.0039844,0.007097,1.2994e-08,0.22,0.24,0
0.014396,0.0052883,0.0085136,0.00067618,0.0027569,0.00084646,0,0,0.067353,-0.024345,0,0.019807,0,0,0,0.008604,0.00058581,0.0027569,6.0945,0.0039822,0.0071831,1.3336e-08,0.24,0.24,0
0.015749,0.005496,0.0085663,0.00064474,0.0027633,0.00082357,0,0,0.067895,-0.024787,0,0.019272,0,0,0,0.008651,0.00056002,0.0027633,5.8731,0.0039914,0.0072451,1.3615e-08,0.26,0.24,0
0.017112,0.0056562,0.0086163,0.00064327,0.0027779,0.00080687,0,0,0.06831,-0.024975,0,0.018881,0,0,0,0.0086972,0.00056244,0.0027779,5.721,0.0040125,0.0072842,1.3836e-08,0.28,0.24,0
0.018482,0.0057645,0.0086659,0.00067067,0.002801,0.00079519,0,0,0.06862,-0.024925,0,0.018607,0,0,0,0.0087443,0.00059235,0.002801,5.6251,0.0040459,0.0073025,1.4005e-08,0.3,0.24,0
0.019857,0.0058144,0.0087177,0.00072473,0.0028327,0.00078654,0,0,0.068854,-0.024664,0,0.018405,0,0,0,0.0087943,0.00064806,0.0028327,5.567,0.0040917,0.0073033,1.4136e-08,0.32,0.24,0
0.021236,0.0057961,0.0087728,0.00080056,0.002872,0.00077749,0,0,0.06904,-0.024236,0,0.018193,0,0,0,0.008848,0.00072545,0.002872,5.5184,0.0041485,0.0072902,1.4237e-08,0.34,0.24,0
0.022618,0.005694,0.0088269,0.00088904,0.0029148,0.00076292,0,0,0.069172,-0.023701,0,0.017852,0,0,0,0.0088996,0.00081638,0.0029148,5.4404,0.0042102,0.007265,1.4295e-08,0.36,0.24,0
0.024003,0.0054828,0.0088025,0.00093884,0.0029224,0.0007174,0,0,0.068797,-0.023208,0,0.016787,0,0,0,0.0088675,0.00087392,0.0029224,5.1702,0.0042213,0.0071915,1.4006e-08,0.38,0.24,0
0.02537,0.0051015,0.0087228,0.00095473,0.0029033,0.00055568,0,0,0.068089,-0.022798,0,0.013003,0,0,0,0.0087624,0.00091518,0.0029033,4.0709,0.0041936,0.0070661,1.3401e-08,0.4,0.24,0
0.026726,0.0044058,0.0091698,0.00013764,0.0027922,0.0006975,0,0,0.074617,-0.031059,0,0.016321,0,0,0,0.0092233,8.409e-05,0.0027922,4.3899,0.0040332,0.0081308,1.7636e-08,0.42,0.24,0
0.028355,0.0036899,0.012274,-0.00016303,0.0036334,0.00017255,0,0,0.037709,-0.0158,0,0.007393,0,0,0,0.012308,-0.00019675,0.0036334,2.1117,0.0052483,0.011097,6.4143e-08,0.44,0.24,0
0.028672,0.0036462,0.007143,-0.0001014,0.0021125,-0.00038577,0,0,0.013583,-0.0056853,0,-0.0015553,0,0,0,0.0071642,-0.00012257,0.0021125,-2.4294,0.0030513,0.006466,2.2093e-08,0.46,0.24,0
0.028853,0.0036825,0.010324,-0.00046718,0.0029571,-0.00053159,0,0,0.0095772,-0.0044516,0,-0.0013821,0,0,0,0.01035,-0.00049331,0.0029571,-2.8133,0.0042714,0.0095955,2.6394e-08,0.48,0.24,0
0.029055,0.0037181,0.010653,-0.00048,0.0030518,-0.00035043,0,0,0.0098812,-0.0045914,0,-0.00091111,0,0,0,0.010664,-0.00049102,0.0030518,-1.8011,0.0044082,0.0098723,2.8823e-08,0.5,0.24,0
0.029248,0.0037384,0.010408,-0.00019189,0.0030649,-0.00045417,0,0,0.0095462,-0.0042338,0,-0.0011808,0,0,0,0.010427,-0.00021131,0.0030649,-2.4489,0.004427,0.0094373,2.6286e-08,0.52,0.24,0
0.029437,0.0037574,0.010395,0.00038774,0.0032348,-0.00035528,0,0,0.0093081,-0.0037011,0,-0.00092373,0,0,0,0.010407,0.00037515,0.0032348,-2.0307,0.0046724,0.0089518,2.4567e-08,0.54,0.24,0
0.029621,0.0037827,0.010334,0.00064584,0.0032938,-0.00020057,0,0,0.0091516,-0.0034424,0,-0.00052147,0,0,0,0.010338,0.00064169,0.0032938,-1.1855,0.0047577,0.0086794,2.3312e-08,0.56,0.24,0
0.029803,0.0038197,0.01033,0.00073668,0.0033201,-5.6104e-05,0,0,0.0091133,-0.0033584,0,-0.00014587,0,0,0,0.010331,0.00073635,0.0033201,-0.33505,0.0047957,0.0085986,2.2988e-08,0.58,0.24,0
0.029985,0.0038692,0.010314,0.00071974,0.0033102,7.4335e-05,0,0,0.0091054,-0.0033677,0,0.00019327,0,0,0,0.010315,0.00071916,0.0033102,0.44386,0.0047815,0.0085983,2.293e-08,0.6,0.24,0
0.030167,0.0039313,0.010286,0.0005941,0.003264,0.00022498,0,0,0.0091284,-0.0034708,0,0.00058494,0,0,0,0.010291,0.00058888,0.003264,1.3291,0.0047146,0.0086795,2.3141e-08,0.62,0.24,0
0.03035,0.0040054,0.010313,0.00029488,0.0031825,0.00038978,0,0,0.0092703,-0.0037539,0,0.0010134,0,0,0,0.010329,0.00027974,0.0031825,2.2246,0.004597,0.0089575,2.4268e-08,0.64,0.24,0
0.030538,0.0040861,0.010294,-0.00033651,0.0029874,0.00049397,0,0,0.0094992,-0.0043211,0,0.0012843,0,0,0,0.010317,-0.00035941,0.0029874,2.6546,0.0043151,0.0094584,2.583e-08,0.66,0.24,0
0.03073,0.0041652,0.0105,-0.00069961,0.00294,0.00038742,0,0,0.0098275,-0.0047315,0,0.0010073,0,0,0,0.010513,-0.000713,0.00294,1.9789,0.0042467,0.0099177,2.8158e-08,0.68,0.24,0
0.030931,0.0042289,0.010172,-0.000742,0.002829,0.00054293,0,0,0.0095459,-0.0046423,0,0.0014116,0,0,0,0.010199,-0.00076894,0.002829,2.8409,0.0040863,0.0096839,2.5873e-08,0.7,0.24,0
0.031112,0.0042903,0.0070414,-0.00035297,0.0020065,0.00040821,0,0,0.013603,-0.0060885,0,0.0017236,0,0,0,0.0070644,-0.00037599,0.0020065,2.6104,0.0028983,0.0065812,2.1899e-08,0.72,0.24,0
0.03143,0.0044383,0.012037,-0.00079449,0.0033727,-3.6219e-05,0,0,0.037851,-0.017365,0,-0.0057042,0,0,0,0.012062,-0.00081999,0.0033727,-1.3384,0.0048716,0.011381,6.3351e-08,0.74,0.24,0
0.033065,0.0053417,0.0090149,-0.00038029,0.0025904,-0.0004909,0,0,0.075167,-0.034757,0,-0.011487,0,0,0,0.0090405,-0.00040587,0.0025904,-2.9829,0.0037417,0.0083611,1.7543e-08,0.76,0.24,0
0.034436,0.0062489,0.008622,0.00056832,0.0027571,-0.00030215,0,0,0.06862,-0.025609,0,-0.0070703,0,0,0,0.0086334,0.000557,0.0027571,-2.1455,0.0039825,0.0072318,1.3536e-08,0.78,0.24,0
0.03581,0.0068626,0.0086825,0.00054771,0.0027691,-0.00043041,0,0,0.069187,-0.02599,0,-0.010072,0,0,0,0.0087052,0.000525,0.0027691,-3.0203,0.0039997,0.0073208,1.3952e-08,0.8,0.24,0
0.037204,0.0073133,0.0087286,0.00049714,0.0027677,-0.00045443,0,0,0.069743,-0.026566,0,-0.010634,0,0,0,0.0087537,0.00047213,0.0027677,-3.1503,0.0039978,0.0074056,1.4301e-08,0.82,0.24,0
0.0386,0.0076616,0.008701,0.00037562,0.002723,-0.00044441,0,0,0.069943,-0.027464,0,-0.010399,0,0,0,0.0087247,0.00035197,0.002723,-3.0469,0.0039332,0.0074748,1.4399e-08,0.84,0.24,0
0.040002,0.0079312,0.0086816,0.0002365,0.0026754,-0.00041956,0,0,0.070272,-0.028535,0,-0.0098178,0,0,0,0.0087024,0.00021571,0.0026754,-2.8372,0.0038645,0.007563,1.4554e-08,0.86,0.24,0
0.041411,0.0081398,0.0086726,9.9216e-05,0.0026315,-0.00037851,0,0,0.07068,-0.029628,0,-0.0088571,0,0,0,0.0086893,8.2538e-05,0.0026315,-2.523,0.0038011,0.0076573,1.474e-08,0.88,0.24,0
0.042829,0.0083002,0.0086697,-2.2225e-05,0.0025943,-0.00032521,0,0,0.071083,-0.030613,0,-0.00761,0,0,0,0.0086819,-3.4376e-05,0.0025943,-2.1398,0.0037472,0.0077441,1.4918e-08,0.9,0.24,0
0.044254,0.0084219,0.0086681,-0.00012277,0.0025636,-0.00026436,0,0,0.071423,-0.031431,0,-0.0061859,0,0,0,0.0086761,-0.00013071,0.0025636,-1.7209,0.003703,0.007816,1.5062e-08,0.92,0.24,0
0.045686,0.0085113,0.0086663,-0.00020077,0.0025397,-0.00019968,0,0,0.071682,-0.032063,0,-0.0046726,0,0,0,0.0086708,-0.00020526,0.0025397,-1.2894,0.0036684,0.0078711,1.5165e-08,0.94,0.24,0
0.047121,0.0085726,0.0086643,-0.00025608,0.0025225,-0.00013345,0,0,0.07186,-0.032509,0,-0.0031226,0,0,0,0.0086663,-0.00025808,0.0025225,-0.85687,0.0036436,0.0079096,1.5233e-08,0.96,0.24,0
0.04856,0.0086084,0.0086628,-0.00028903,0.0025121,-6.6754e-05,0,0,0.071963,-0.032774,0,-0.001562,0,0,0,0.0086633,-0.00028953,0.0025121,-0.42722,0.0036287,0.0079322,1.5271e-08,0.98,0.24,0
0.05,0.0086202,0.0086623,-0.00029997,0.0025087,2.5199e-05,0,0,0.071997,-0.032861,0,0.00058965,0,0,0,0.0086623,-0.00030004,0.0025087,0.16109,0.0036237,0.0079398,1.5284e-08,1,0.24,0
0,0,0.0075895,0.0032527,0.0032527,0.0011148,0,0,0.050741,6.5052e-19,0,0.026087,0,0,0,0.0078593,0.0029829,0.0032527,13.604,0.0046983,0.0047473,5.4352e-09,0,0.26,0
0.0010148,0.00052175,0.0075559,0.0028738,0.0031289,0.0011127,0,0,0.051796,-0.0029848,0,0.026037,0,0,0,0.0078068,0.0026228,0.0031289,12.711,0.0045195,0.0049504,6.0119e-09,0.02,0.26,0
0.0020718,0.0010273,0.007682,0.0025765,0.0030776,0.0010936,0,0,0.053872,-0.005862,0,0.02559,0,0,0,0.0079063,0.0023521,0.0030776,11.595,0.0044453,0.0052294,6.8706e-09,0.04,0.26,0
0.0031697,0.0015162,0.0078051,0.002292,0.0030291,0.0010726,0,0,0.055878,-0.008624,0,0.025098,0,0,0,0.0080064,0.0020907,0.0030291,10.63,0.0043754,0.0055068,7.7436e-09,0.06,0.26,0
0.004307,0.0019869,0.0079246,0.0020225,0.0029841,0.0010475,0,0,0.057803,-0.011251,0,0.024512,0,0,0,0.008105,0.0018421,0.0029841,9.7717,0.0043104,0.0057772,8.6131e-09,0.08,0.26,0
0.0054818,0.002437,0.0080398,0.0017708,0.0029432,0.0010178,0,0,0.059631,-0.013717,0,0.023816,0,0,0,0.0082009,0.0016097,0.0029432,8.9942,0.0042513,0.006036,9.4627e-09,0.1,0.26,0
0.0066922,0.0028639,0.0081501,0.0015398,0.002907,0.00098368,0,0,0.061344,-0.015996,0,0.023018,0,0,0,0.0082933,0.0013965,0.002907,8.2871,0.0041989,0.0062794,1.0279e-08,0.12,0.26,0
0.0079356,0.0032647,0.0082549,0.0013321,0.0028761,0.00094655,0,0,0.062932,-0.018065,0,0.022149,0,0,0,0.008382,0.001205,0.0028761,7.6471,0.0041544,0.0065045,1.1051e-08,0.14,0.26,0
0.0092095,0.0036369,0.0083544,0.0011499,0.0028513,0.00090816,0,0,0.064386,-0.019906,0,0.021251,0,0,0,0.0084671,0.0010372,0.0028513,7.0749,0.0041185,0.0067094,1.1773e-08,0.16,0.26,0
0.010511,0.0039782,0.008449,0.00099479,0.0028331,0.00087044,0,0,0.065705,-0.021508,0,0.020368,0,0,0,0.0085492,0.00089449,0.0028331,6.5727,0.0040923,0.006893,1.2443e-08,0.18,0.26,0
0.011838,0.0042864,0.0085394,0.00086795,0.0028222,0.0008352,0,0,0.066891,-0.022865,0,0.019544,0,0,0,0.0086292,0.00077807,0.0028222,6.142,0.0040765,0.0070548,1.306e-08,0.2,0.26,0
0.013187,0.0045598,0.0086268,0.00077036,0.0028191,0.00080388,0,0,0.067949,-0.023971,0,0.018811,0,0,0,0.0087082,0.00068895,0.0028191,5.7827,0.0040721,0.0071947,1.3626e-08,0.22,0.26,0
0.014556,0.0047962,0.0087128,0.00070286,0.0028247,0.0007773,0,0,0.068891,-0.024826,0,0.018189,0,0,0,0.0087876,0.00062813,0.0028247,5.4918,0.0040801,0.0073129,1.4145e-08,0.24,0.26,0
0.015942,0.0049933,0.0087996,0.00066623,0.0028397,0.00075547,0,0,0.06973,-0.02543,0,0.017678,0,0,0,0.0088692,0.00059666,0.0028397,5.2619,0.0041019,0.0074101,1.4623e-08,0.26,0.26,0
0.017345,0.0051478,0.0088904,0.00066122,0.0028655,0.00073725,0,0,0.070492,-0.02579,0,0.017252,0,0,0,0.008956,0.00059569,0.0028655,5.0792,0.0041391,0.007488,1.5072e-08,0.28,0.26,0
0.018762,0.0052549,0.0089907,0.00068844,0.0029038,0.00072,0,0,0.071218,-0.025919,0,0.016848,0,0,0,0.0090527,0.00062646,0.0029038,4.9199,0.0041943,0.0075498,1.5511e-08,0.3,0.26,0
0.020194,0.0053076,0.0091102,0.00074838,0.0029576,0.00069898,0,0,0.071986,-0.025848,0,0.016356,0,0,0,0.0091682,0.00069035,0.0029576,4.7456,0.0042721,0.0076022,1.5983e-08,0.32,0.26,0
0.021641,0.0052947,0.0092678,0.00084227,0.003033,0.00066674,0,0,0.072947,-0.025632,0,0.015602,0,0,0,0.0093203,0.00078983,0.003033,4.4967,0.004381,0.0076593,1.6579e-08,0.34,0.26,0
0.023112,0.0051993,0.0095034,0.000975,0.0031435,0.00060767,0,0,0.074411,-0.025372,0,0.01422,0,0,0,0.0095465,0.00093192,0.0031435,4.0552,0.0045407,0.0077492,1.75e-08,0.36,0.26,0
0.024618,0.00499,0.0099448,0.0011875,0.0033397,0.00050005,0,0,0.07728,-0.025181,0,0.011701,0,0,0,0.0099733,0.001159,0.0033397,3.2575,0.004824,0.0079515,1.9423e-08,0.38,0.26,0
0.026203,0.0046185,0.010859,0.0015647,0.0037271,6.3812e-05,0,0,0.083443,-0.0253,0,0.0014932,0,0,0,0.010859,0.0015642,0.0037271,0.39335,0.0053836,0.0084246,2.4021e-08,0.4,0.26,0
0.027956,0.0037615,0.015455,-0.00060058,0.0044563,0.00057297,0,0,0.043425,-0.017656,0,0.0072323,0,0,0,0.015482,-0.00062743,0.0044563,2.7292,0.0064368,0.014268,1.4886e-07,0.42,0.26,0
0.028382,0.0035468,0.0093496,0.000689,0.0030116,-0.0007488,0,0,0.017712,-0.0061992,0,-0.0061204,0,0,0,0.009422,0.00061662,0.0030116,-6.6582,0.0043501,0.0078856,4.3828e-08,0.44,0.26,0
0.028592,0.0035578,0.01174,0.00015922,0.0035698,-0.00045215,0,0,0.010622,-0.0044338,0,-0.0011756,0,0,0,0.011758,0.00014159,0.0035698,-2.2324,0.0051564,0.010338,3.6418e-08,0.46,0.26,0
0.028807,0.0035922,0.011344,-0.00018862,0.0033467,-9.9925e-05,0,0,0.010397,-0.0045959,0,-0.00025981,0,0,0,0.011345,-0.00018948,0.0033467,-0.49639,0.0048341,0.010235,3.3733e-08,0.48,0.26,0
0.029008,0.0036242,0.010728,-0.00042851,0.0030898,-0.00020905,0,0,0.0099295,-0.0045738,0,-0.00054354,0,0,0,0.010732,-0.00043243,0.0030898,-1.0731,0.0044631,0.0098855,2.9221e-08,0.5,0.26,0
0.029204,0.0036539,0.010516,-0.00011261,0.0031211,-0.00027695,0,0,0.0096138,-0.0042039,0,-0.00072008,0,0,0,0.010524,-0.00011982,0.0031211,-1.4916,0.0045083,0.0094494,2.6776e-08,0.52,0.26,0
0.029392,0.0036815,0.010318,0.00023965,0.0031675,-0.00028264,0,0,0.0092964,-0.0038061,0,-0.00073488,0,0,0,0.010326,0.00023173,0.0031675,-1.6051,0.0045752,0.0089937,2.4383e-08,0.54,0.26,0
0.029576,0.0037132,0.010206,0.00051726,0.0032168,-0.00018797,0,0,0.0090853,-0.0035095,0,-0.00048873,0,0,0,0.010209,0.00051361,0.0032168,-1.1111,0.0046466,0.0086662,2.279e-08,0.56,0.26,0
0.029756,0.0037528,0.01014,0.0006315,0.0032315,-5.2348e-05,0,0,0.0089813,-0.00338,0,-0.0001361,0,0,0,0.010141,0.00063121,0.0032315,-0.31542,0.0046677,0.0085124,2.1999e-08,0.58,0.26,0
0.029935,0.0038021,0.010129,0.00061041,0.0032218,9.5999e-05,0,0,0.0089792,-0.0033948,0,0.0002496,0,0,0,0.01013,0.00060944,0.0032218,0.57778,0.0046537,0.0085201,2.1988e-08,0.6,0.26,0
0.030115,0.0038612,0.01017,0.00045316,0.0031869,0.00024046,0,0,0.0090778,-0.0035538,0,0.0006252,0,0,0,0.010176,0.00044721,0.0031869,1.4167,0.0046033,0.0086889,2.2744e-08,0.62,0.26,0
0.030298,0.0039283,0.010253,0.00013062,0.0031152,0.00034933,0,0,0.0092795,-0.0038799,0,0.00090826,0,0,0,0.010265,0.00011858,0.0031152,1.9742,0.0044997,0.0090294,2.4248e-08,0.64,0.26,0
0.030486,0.0039997,0.010411,-0.00027052,0.0030421,0.00035642,0,0,0.0095794,-0.0043064,0,0.00092669,0,0,0,0.010423,-0.0002824,0.0030421,1.909,0.0043942,0.0094902,2.643e-08,0.66,0.26,0
0.030681,0.0040688,0.01058,-0.00063184,0.0029843,0.0002856,0,0,0.0098739,-0.004701,0,0.00074256,0,0,0,0.010587,-0.00063911,0.0029843,1.4583,0.0043107,0.0099235,2.857e-08,0.68,0.26,0
0.030881,0.0041345,0.011157,-0.00045391,0.0032108,0.00015631,0,0,0.01033,-0.0047641,0,0.00040642,0,0,0,0.011159,-0.00045601,0.0032108,0.7712,0.0046378,0.010284,3.2865e-08,0.7,0.26,0
0.031095,0.0041969,0.011593,-0.00017724,0.0034247,0.00045813,0,0,0.010619,-0.0046826,0,0.0011911,0,0,0,0.011611,-0.00019504,0.0034247,2.2256,0.0049469,0.010476,3.6163e-08,0.72,0.26,0
0.031306,0.0042813,0.0092838,0.00034655,0.0028891,0.00079796,0,0,0.017891,-0.0067932,0,0.0065965,0,0,0,0.009364,0.00026636,0.0028891,6.9214,0.0041732,0.0081109,4.4898e-08,0.74,0.26,0
0.031737,0.0046085,0.015225,-0.0014824,0.0041229,-0.00035853,0,0,0.043697,-0.019842,0,-0.004432,0,0,0,0.015235,-0.0014923,0.0041229,-1.6255,0.0059553,0.014748,1.4929e-07,0.76,0.26,0
0.033497,0.0057108,0.010726,0.0011339,0.0035579,0.00020967,0,0,0.083866,-0.028362,0,0.0049064,0,0,0,0.010731,0.0011293,0.0035579,1.2516,0.0051393,0.0086467,2.4583e-08,0.78,0.26,0
0.035092,0.0063113,0.0098363,0.00077942,0.0031847,-0.00023081,0,0,0.077824,-0.028142,0,-0.0054009,0,0,0,0.0098422,0.00077354,0.0031847,-1.4589,0.0046001,0.0081356,1.9686e-08,0.8,0.26,0
0.03661,0.0067592,0.0094273,0.00057991,0.0030022,-0.00032806,0,0,0.075174,-0.02834,0,-0.0076767,0,0,0,0.0094394,0.00056777,0.0030022,-2.1207,0.0043365,0.0079395,1.7792e-08,0.82,0.26,0
0.038099,0.0070923,0.0092344,0.00039994,0.0028903,-0.00038157,0,0,0.074226,-0.029137,0,-0.0089286,0,0,0,0.0092509,0.00038349,0.0028903,-2.4685,0.0041749,0.0079174,1.7141e-08,0.84,0.26,0
0.039579,0.0073417,0.0091326,0.00021613,0.0028046,-0.00038661,0,0,0.074038,-0.030285,0,-0.0090468,0,0,0,0.0091494,0.00019939,0.0028046,-2.4781,0.0040511,0.0079732,1.6972e-08,0.86,0.26,0
0.04106,0.0075287,0.0090778,5.5598e-05,0.00274,-0.00035784,0,0,0.074152,-0.031408,0,-0.0083734,0,0,0,0.009092,4.1428e-05,0.00274,-2.2677,0.0039578,0.0080481,1.6978e-08,0.88,0.26,0
0.042545,0.0076698,0.0090408,-7.753e-05,0.002689,-0.00030893,0,0,0.074316,-0.032368,0,-0.007229,0,0,0,0.0090513,-8.7984e-05,0.002689,-1.9382,0.0038841,0.0081153,1.7007e-08,0.9,0.26,0
0.044033,0.0077757,0.0090121,-0.00018332,0.0026486,-0.00025051,0,0,0.074452,-0.033134,0,-0.0058619,0,0,0,0.0090189,-0.00019014,0.0026486,-1.5594,0.0038258,0.0081684,1.7022e-08,0.92,0.26,0
0.045523,0.0078529,0.0089894,-0.00026322,0.0026178,-0.00018838,0,0,0.074547,-0.033708,0,-0.0044082,0,0,0,0.0089932,-0.00026706,0.0026178,-1.1659,0.0037813,0.0082073,1.7021e-08,0.94,0.26,0
0.047015,0.0079057,0.0089726,-0.0003189,0.0025961,-0.00012538,0,0,0.074605,-0.034106,0,-0.0029338,0,0,0,0.0089743,-0.00032059,0.0025961,-0.77295,0.0037499,0.0082336,1.7013e-08,0.96,0.26,0
0.048507,0.0079366,0.0089623,-0.00035172,0.0025832,-6.2544e-05,0,0,0.074636,-0.034338,0,-0.0014635,0,0,0,0.0089627,-0.00035214,0.0025832,-0.38472,0.0037312,0.0082487,1.7005e-08,0.98,0.26,0
0.05,0.0079467,0.0089588,-0.00036256,0.0025789,2.1669e-05,0,0,0.074645,-0.034415,0,0.00050705,0,0,0,0.0089589,-0.00036261,0.0025789,0.13319,0.003725,0.0082537,1.7002e-08,1,0.26,0
0,0,0.0076388,0.0032738,0.0032738,0.00098651,0,0,0.051071,6.5052e-19,0,0.023084,0,0,0,0.0078514,0.0030612,0.0032738,12.162,0.0047288,0.0046876,5.2534e-09,0,0.28,0
0.0010214,0.00046169,0.0076045,0.0028908,0.0031486,0.00098449,0,0,0.052134,-0.0030159,0,0.023037,0,0,0,0.0078018,0.0026935,0.0031486,11.336,0.004548,0.0048967,5.8549e-09,0.02,0.28,0
0.0020854,0.00090969,0.0077323,0.0025945,0.0030981,0.00096797,0,0,0.054221,-0.0058917,0,0.022651,0,0,0,0.0079087,0.0024182,0.0030981,10.323,0.004475,0.0051841,6.7425e-09,0.04,0.28,0
0.0031903,0.0013436,0.0078575,0.0023135,0.0030513,0.00094969,0,0,0.056233,-0.0086327,0,0.022223,0,0,0,0.0080157,0.0021553,0.0030513,9.4556,0.0044074,0.0054677,7.6411e-09,0.06,0.28,0
0.0043347,0.0017621,0.0079802,0.0020487,0.0030086,0.00092793,0,0,0.058167,-0.011232,0,0.021714,0,0,0,0.0081219,0.0019069,0.0030086,8.687,0.0043458,0.005744,8.5388e-09,0.08,0.28,0
0.0055169,0.0021631,0.0081001,0.0018017,0.0029706,0.00090202,0,0,0.060016,-0.013675,0,0.021107,0,0,0,0.0082268,0.0016751,0.0029706,7.9916,0.0042908,0.0060096,9.4245e-09,0.1,0.28,0
0.0067353,0.0025444,0.0082173,0.0015746,0.0029376,0.00087221,0,0,0.061772,-0.015946,0,0.02041,0,0,0,0.0083299,0.001462,0.0029376,7.3571,0.0042432,0.0062619,1.0289e-08,0.12,0.28,0
0.0079878,0.0029037,0.0083315,0.0013694,0.0029103,0.00083941,0,0,0.063429,-0.018028,0,0.019642,0,0,0,0.0084313,0.0012696,0.0029103,6.7786,0.0042037,0.0064986,1.1124e-08,0.14,0.28,0
0.0092725,0.0032386,0.0084432,0.0011878,0.0028893,0.00080501,0,0,0.064981,-0.019908,0,0.018837,0,0,0,0.0085314,0.0010995,0.0028893,6.2558,0.0041734,0.0067183,1.1927e-08,0.16,0.28,0
0.010587,0.0035471,0.0085529,0.0010314,0.0028753,0.00077058,0,0,0.066428,-0.021573,0,0.018031,0,0,0,0.008631,0.00095332,0.0028753,5.7899,0.0041532,0.0069199,1.2696e-08,0.18,0.28,0
0.01193,0.0038273,0.0086614,0.00090188,0.002869,0.00073758,0,0,0.067772,-0.023015,0,0.017259,0,0,0,0.0087309,0.00083239,0.002869,5.382,0.0041441,0.0071027,1.343e-08,0.2,0.28,0
0.013298,0.0040773,0.0087702,0.0008005,0.0028712,0.00070715,0,0,0.069018,-0.024227,0,0.016547,0,0,0,0.0088324,0.00073824,0.0028712,5.0315,0.0041473,0.0072664,1.4132e-08,0.22,0.28,0
0.01469,0.0042953,0.0088807,0.00072891,0.0028829,0.00067974,0,0,0.070175,-0.025202,0,0.015906,0,0,0,0.008937,0.00067262,0.0028829,4.7341,0.0041642,0.0074107,1.4805e-08,0.24,0.28,0
0.016105,0.0044788,0.0089954,0.00068903,0.0029053,0.00065475,0,0,0.071254,-0.025931,0,0.015321,0,0,0,0.0090467,0.00063773,0.0029053,4.4795,0.0041966,0.0075355,1.5454e-08,0.26,0.28,0
0.01754,0.0046246,0.0091175,0.00068325,0.0029402,0.00062985,0,0,0.072274,-0.026407,0,0.014738,0,0,0,0.0091643,0.00063647,0.0029402,4.2473,0.004247,0.007641,1.6086e-08,0.28,0.28,0
0.018996,0.0047277,0.0092527,0.00071466,0.0029902,0.00060005,0,0,0.073271,-0.026624,0,0.014041,0,0,0,0.0092947,0.0006727,0.0029902,4.0005,0.0043192,0.0077284,1.6718e-08,0.3,0.28,0
0.020471,0.0047805,0.0094109,0.0007875,0.0030595,0.00055614,0,0,0.074311,-0.026582,0,0.013014,0,0,0,0.0094466,0.00075178,0.0030595,3.6748,0.0044193,0.0078013,1.7383e-08,0.32,0.28,0
0.021968,0.0047708,0.0096097,0.0009085,0.0031555,0.00048113,0,0,0.075515,-0.02629,0,0.011258,0,0,0,0.0096363,0.00088197,0.0031555,3.1553,0.0045579,0.0078679,1.8152e-08,0.34,0.28,0
0.023492,0.0046792,0.0098795,0.0010912,0.0032912,0.0003457,0,0,0.077083,-0.02574,0,0.0080894,0,0,0,0.0098931,0.0010776,0.0032912,2.2492,0.004754,0.0079434,1.9162e-08,0.36,0.28,0
0.025052,0.0044755,0.010253,0.0013698,0.0034869,7.0352e-05,0,0,0.079167,-0.024771,0,0.0016462,0,0,0,0.010254,0.0013692,0.0034869,0.45371,0.0050367,0.0080379,2.056e-08,0.38,0.28,0
0.026659,0.0040895,0.010343,0.0017021,0.0036136,-0.00036523,0,0,0.078738,-0.022365,0,-0.0085464,0,0,0,0.010359,0.0016867,0.0036136,-2.4159,0.0052197,0.0078872,2.0219e-08,0.4,0.28,0
0.028201,0.0035539,0.0089579,-0.0015049,0.0022359,-0.00013977,0,0,0.043018,-0.0087535,0,-0.0095075,0,0,0,0.009023,-0.0015701,0.0022359,-2.1067,0.0032296,0.0094856,9.6141e-09,0.42,0.28,0
0.028379,0.003461,0.010356,-8.7285e-05,0.0030807,-0.00065841,0,0,0.0094583,-0.0041184,0,-0.0017119,0,0,0,0.010398,-0.00012863,0.0030807,-3.5932,0.0044499,0.0093446,2.5853e-08,0.44,0.28,0
0.02858,0.0034689,0.010852,-0.0001215,0.0032191,0.00019312,0,0,0.0099225,-0.0043428,0,0.00050212,0,0,0,0.010855,-0.0001249,0.0032191,1.0079,0.0046498,0.0097482,2.9392e-08,0.46,0.28,0
0.028776,0.0034987,0.010628,-0.00034182,0.0030858,0.00015341,0,0,0.0098045,-0.0044559,0,0.00039886,0,0,0,0.01063,-0.00034396,0.0030858,0.80106,0.0044572,0.0097237,2.8181e-08,0.48,0.28,0
0.028972,0.0035352,0.010498,-0.00024645,0.0030755,3.5843e-05,0,0,0.0096494,-0.0043185,0,9.3191e-05,0,0,0,0.010498,-0.00024657,0.0030755,0.19113,0.0044424,0.0095285,2.6912e-08,0.5,0.28,0
0.029162,0.0035703,0.010314,-6.4705e-05,0.0030747,-0.00010079,0,0,0.0094107,-0.0040812,0,-0.00026206,0,0,0,0.010315,-6.5684e-05,0.0030747,-0.55637,0.0044412,0.0092204,2.5082e-08,0.52,0.28,0
0.029348,0.0036052,0.010184,0.00020204,0.0031158,-0.0001505,0,0,0.0091886,-0.0037879,0,-0.0003913,0,0,0,0.010186,0.00019977,0.0031158,-0.8636,0.0045006,0.0088944,2.3479e-08,0.54,0.28,0
0.02953,0.0036423,0.01008,0.00040865,0.0031467,-0.00011874,0,0,0.0090139,-0.0035595,0,-0.00030871,0,0,0,0.010082,0.0004072,0.0031467,-0.70325,0.0045453,0.0086372,2.2217e-08,0.56,0.28,0
0.029709,0.0036845,0.010027,0.00050894,0.0031607,-2.8189e-05,0,0,0.0089257,-0.0034472,0,-7.3291e-05,0,0,0,0.010027,0.00050886,0.0031607,-0.16969,0.0045654,0.0085078,2.1578e-08,0.58,0.28,0
0.029887,0.0037335,0.010023,0.00048224,0.0031517,8.4833e-05,0,0,0.0089332,-0.0034703,0,0.00022057,0,0,0,0.010024,0.00048149,0.0031517,0.50938,0.0045525,0.0085271,2.1634e-08,0.6,0.28,0
0.030066,0.0037892,0.010069,0.00032861,0.0031192,0.00018743,0,0,0.0090343,-0.0036277,0,0.00048731,0,0,0,0.010072,0.00032501,0.0031192,1.102,0.0045055,0.0086937,2.2369e-08,0.62,0.28,0
0.030248,0.0038502,0.010155,6.9082e-05,0.0030673,0.0002416,0,0,0.0092142,-0.0038976,0,0.00062817,0,0,0,0.010161,6.3298e-05,0.0030673,1.3714,0.0044305,0.0089807,2.3655e-08,0.64,0.28,0
0.030434,0.0039138,0.010251,-0.00024679,0.0030012,0.00021957,0,0,0.0094244,-0.0042223,0,0.00057089,0,0,0,0.010255,-0.00025138,0.0030012,1.1978,0.004335,0.0093164,2.5112e-08,0.66,0.28,0
0.030625,0.0039772,0.010367,-0.00047096,0.0029689,0.00010585,0,0,0.0096179,-0.0044718,0,0.00027522,0,0,0,0.010368,-0.00047199,0.0029689,0.55952,0.0042884,0.0095943,2.648e-08,0.68,0.28,0
0.030819,0.0040383,0.010402,-0.00058809,0.0029441,-2.4941e-05,0,0,0.009695,-0.0045918,0,-6.4846e-05,0,0,0,0.010402,-0.00058815,0.0029441,-0.13003,0.0042526,0.0097179,2.7006e-08,0.7,0.28,0
0.031013,0.004103,0.010574,-0.00039487,0.0030537,-0.00012486,0,0,0.0097762,-0.0044831,0,-0.00032464,0,0,0,0.010575,-0.00039629,0.0030537,-0.6521,0.0044109,0.0097173,2.7885e-08,0.72,0.28,0
0.03121,0.0041877,0.010095,-0.00061578,0.0028438,0.00067235,0,0,0.0094268,-0.0044975,0,0.0017481,0,0,0,0.010137,-0.00065782,0.0028438,3.5779,0.0041078,0.0095391,2.5181e-08,0.74,0.28,0
0.03139,0.0043798,0.0086264,-0.0023556,0.0018812,0.00027494,0,0,0.042988,-0.0099143,0,0.012135,0,0,0,0.0087162,-0.0024454,0.0018812,3.0394,0.0027173,0.0099622,4.9346e-09,0.76,0.28,0
0.03293,0.0051145,0.010141,0.0011846,0.0033977,0.00058848,0,0,0.078897,-0.025893,0,0.01377,0,0,0,0.01018,0.0011461,0.0033977,3.7432,0.0049078,0.0081445,2.0763e-08,0.78,0.28,0
0.034546,0.0057369,0.010147,0.00098573,0.0033399,0.00018356,0,0,0.079648,-0.027544,0,0.0042953,0,0,0,0.010151,0.00098206,0.0033399,1.1474,0.0048244,0.0082469,2.1066e-08,0.8,0.28,0
0.036116,0.0061797,0.0098231,0.0007375,0.0031682,-0.00013249,0,0,0.077863,-0.028439,0,-0.0031002,0,0,0,0.0098251,0.00073557,0.0031682,-0.83524,0.0045763,0.0081502,1.9681e-08,0.82,0.28,0
0.03766,0.0064961,0.0096128,0.00043857,0.0030154,-0.00027761,0,0,0.07719,-0.030149,0,-0.0064961,0,0,0,0.0096212,0.00043018,0.0030154,-1.7317,0.0043556,0.0082096,1.9207e-08,0.84,0.28,0
0.039203,0.0067198,0.0095106,0.00020125,0.0029136,-0.00031995,0,0,0.077186,-0.031734,0,-0.0074868,0,0,0,0.0095216,0.00019027,0.0029136,-1.9661,0.0042085,0.0083113,1.9168e-08,0.86,0.28,0
0.040748,0.0068835,0.0094368,1.5577e-05,0.0028357,-0.00030433,0,0,0.077233,-0.032995,0,-0.0071213,0,0,0,0.0094466,5.757e-06,0.0028357,-1.8482,0.004096,0.0083917,1.9125e-08,0.88,0.28,0
0.042293,0.0070055,0.0093735,-0.00012888,0.0027734,-0.00026368,0,0,0.077221,-0.033957,0,-0.00617,0,0,0,0.0093808,-0.0001362,0.0027734,-1.5882,0.004006,0.0084468,1.9027e-08,0.9,0.28,0
0.043837,0.0070966,0.0093196,-0.00023897,0.0027242,-0.00021307,0,0,0.077167,-0.034669,0,-0.004986,0,0,0,0.0093244,-0.00024372,0.0027242,-1.2764,0.003935,0.0084829,1.8906e-08,0.92,0.28,0
0.045379,0.0071629,0.0092764,-0.00031982,0.002687,-0.00015946,0,0,0.077096,-0.035179,0,-0.0037313,0,0,0,0.009279,-0.00032247,0.002687,-0.95171,0.0038812,0.0085059,1.8788e-08,0.94,0.28,0
0.04692,0.0072083,0.0092448,-0.00037512,0.0026609,-0.00010567,0,0,0.077032,-0.035521,0,-0.0024727,0,0,0,0.009246,-0.00037628,0.0026609,-0.62926,0.0038435,0.0085199,1.8694e-08,0.96,0.28,0
0.048461,0.0072349,0.0092256,-0.00040735,0.0026455,-5.2563e-05,0,0,0.076988,-0.035718,0,-0.00123,0,0,0,0.0092259,-0.00040764,0.0026455,-0.31263,0.0038213,0.0085273,1.8633e-08,0.98,0.28,0
0.05,0.0072436,0.0092192,-0.00041795,0.0026404,1.8656e-05,0,0,0.076972,-0.035782,0,0.00043655,0,0,0,0.0092193,-0.00041798,0.0026404,0.11091,0.0038139,0.0085297,1.8612e-08,1,0.28,0
0,0,0.0076777,0.0032905,0.0032905,0.00085707,0,0,0.051331,1.9516e-18,0,0.020056,0,0,0,0.0078392,0.003129,0.0032905,10.671,0.0047529,0.0046316,5.0821e-09,0,0.3,0
0.0010266,0.00040111,0.0076429,0.0029051,0.0031644,0.00085506,0,0,0.052399,-0.0030338,0,0.020008,0,0,0,0.0077925,0.0027555,0.0031644,9.9236,0.0045708,0.0048455,5.703e-09,0.02,0.3,0
0.0020959,0.00079162,0.0077719,0.0026101,0.0031146,0.00084119,0,0,0.054491,-0.0059028,0,0.019684,0,0,0,0.0079055,0.0024765,0.0031146,9.0261,0.0044989,0.0051398,6.6127e-09,0.04,0.3,0
0.0032062,0.0011709,0.0078984,0.0023324,0.0030692,0.00082504,0,0,0.056502,-0.0086215,0,0.019306,0,0,0,0.0080182,0.0022127,0.0030692,8.2563,0.0044333,0.0054281,7.5295e-09,0.06,0.3,0
0.004356,0.0015376,0.0080232,0.0020719,0.0030285,0.00080532,0,0,0.058438,-0.011193,0,0.018845,0,0,0,0.0081303,0.0019648,0.0030285,7.5718,0.0043745,0.0057084,8.4463e-09,0.08,0.3,0
0.0055438,0.00189,0.0081466,0.0018293,0.0029928,0.00078152,0,0,0.060299,-0.013612,0,0.018288,0,0,0,0.0082418,0.0017341,0.0029928,6.9487,0.0043229,0.0059786,9.3565e-09,0.1,0.3,0
0.006768,0.002226,0.0082688,0.0016061,0.0029624,0.00075379,0,0,0.062084,-0.01587,0,0.017639,0,0,0,0.008353,0.0015218,0.0029624,6.3749,0.0042791,0.0062369,1.0254e-08,0.12,0.3,0
0.0080271,0.0025436,0.0083901,0.0014035,0.0029381,0.00072287,0,0,0.063789,-0.017955,0,0.016915,0,0,0,0.0084641,0.0013294,0.0029381,5.8456,0.0042439,0.0064818,1.1136e-08,0.14,0.3,0
0.0093195,0.0028406,0.0085112,0.0012231,0.0029203,0.00068984,0,0,0.065413,-0.019857,0,0.016142,0,0,0,0.0085759,0.0011583,0.0029203,5.3598,0.0042182,0.0067123,1.1999e-08,0.16,0.3,0
0.010644,0.0031152,0.0086326,0.0010665,0.0029097,0.00065596,0,0,0.066958,-0.021566,0,0.01535,0,0,0,0.008689,0.00101,0.0029097,4.9185,0.0042029,0.0069274,1.2844e-08,0.18,0.3,0
0.011998,0.0033658,0.0087554,0.00093529,0.0029072,0.00062245,0,0,0.068424,-0.023071,0,0.014565,0,0,0,0.0088046,0.00088605,0.0029072,4.5226,0.0041993,0.0071263,1.367e-08,0.2,0.3,0
0.013381,0.0035907,0.0088807,0.00083147,0.0029136,0.00059017,0,0,0.069814,-0.024361,0,0.01381,0,0,0,0.0089237,0.00078843,0.0029136,4.1712,0.0042086,0.0073082,1.4479e-08,0.22,0.3,0
0.01479,0.0037881,0.0090098,0.00075736,0.0029301,0.00055935,0,0,0.071132,-0.025421,0,0.013089,0,0,0,0.0090475,0.00071962,0.0029301,3.86,0.0042324,0.007472,1.5273e-08,0.24,0.3,0
0.016226,0.0039561,0.0091441,0.00071612,0.0029581,0.00052901,0,0,0.072377,-0.026231,0,0.012379,0,0,0,0.0091772,0.00068305,0.0029581,3.5777,0.0042728,0.0076159,1.6048e-08,0.26,0.3,0
0.017685,0.0040915,0.0092854,0.00071215,0.0029993,0.0004962,0,0,0.073548,-0.026759,0,0.011611,0,0,0,0.009314,0.00068353,0.0029993,3.3015,0.0043323,0.0077371,1.68e-08,0.28,0.3,0
0.019168,0.00419,0.0094354,0.00075163,0.0030561,0.00045466,0,0,0.074638,-0.026963,0,0.010639,0,0,0,0.0094592,0.00072789,0.0030561,2.9889,0.0044144,0.0078312,1.7515e-08,0.3,0.3,0
0.020671,0.0042443,0.0095963,0.00084347,0.0031319,0.00039271,0,0,0.075633,-0.026775,0,0.0091895,0,0,0,0.0096139,0.00082588,0.0031319,2.5638,0.0045239,0.0078918,1.8166e-08,0.32,0.3,0
0.022193,0.0042431,0.0097674,0.0010005,0.0032304,0.0002908,0,0,0.076483,-0.02609,0,0.0068046,0,0,0,0.0097771,0.00099082,0.0032304,1.8977,0.0046661,0.007908,1.8699e-08,0.34,0.3,0
0.02373,0.0041697,0.0099357,0.0012439,0.0033539,0.00011648,0,0,0.077007,-0.024687,0,0.0027257,0,0,0,0.0099372,0.0012424,0.0033539,0.76767,0.0048445,0.0078549,1.896e-08,0.36,0.3,0
0.025273,0.0039992,0.010001,0.0015968,0.0034793,-0.0001545,0,0,0.076302,-0.022025,0,-0.0036152,0,0,0,0.010004,0.001594,0.0034793,-1.0528,0.0050256,0.0076434,1.8316e-08,0.38,0.3,0
0.026782,0.0037239,0.0099244,0.002285,0.0036628,-0.00046803,0,0,0.07326,-0.01612,0,-0.010952,0,0,0,0.0099529,0.0022565,0.0036628,-3.4928,0.0052907,0.0070986,1.5968e-08,0.4,0.3,0
0.028204,0.0034113,0.0096574,-6.9513e-05,0.0028764,-0.00068449,0,0,0.040401,-0.0068934,0,-0.0088695,0,0,0,0.0097103,-0.00012244,0.0028764,-4.4245,0.0041548,0.0088457,1.7215e-08,0.42,0.3,0
0.028399,0.0033821,0.0099445,-0.00055887,0.0028157,-0.00027845,0,0,0.0092675,-0.0043869,0,-0.00072396,0,0,0,0.0099519,-0.00056625,0.0028157,-1.5175,0.0040671,0.0093004,2.3658e-08,0.44,0.3,0
0.028574,0.003384,0.0096615,-0.00040128,0.002778,8.2251e-05,0,0,0.0089484,-0.0041331,0,0.00021385,0,0,0,0.0096621,-0.00040196,0.002778,0.46829,0.0040127,0.0089104,2.1351e-08,0.46,0.3,0
0.028756,0.003414,0.0099384,-0.00024377,0.0029084,0.00020838,0,0,0.009139,-0.0040978,0,0.00054177,0,0,0,0.0099426,-0.00024803,0.0029084,1.1719,0.004201,0.0090358,2.2894e-08,0.48,0.3,0
0.02894,0.0034515,0.010022,-0.00014269,0.0029637,0.00011053,0,0,0.0091754,-0.0040383,0,0.00028737,0,0,0,0.010023,-0.00014389,0.0029637,0.62294,0.0042809,0.0090237,2.3204e-08,0.5,0.3,0
0.029123,0.0034906,0.010032,2.5138e-05,0.0030172,1.4821e-06,0,0,0.0091194,-0.0038896,0,3.8535e-06,0,0,0,0.010032,2.5138e-05,0.0030172,0.008486,0.0043581,0.0088966,2.2858e-08,0.52,0.3,0
0.029305,0.00353,0.0099942,0.00020119,0.0030586,-6.279e-05,0,0,0.0090162,-0.0037146,0,-0.00016326,0,0,0,0.0099946,0.00020079,0.0030586,-0.36735,0.004418,0.0087233,2.2166e-08,0.54,0.3,0
0.029484,0.0035709,0.0099555,0.00034587,0.0030904,-6.1371e-05,0,0,0.0089246,-0.0035679,0,-0.00015956,0,0,0,0.0099559,0.00034548,0.0030904,-0.36589,0.0044639,0.0085741,2.1541e-08,0.56,0.3,0
0.029662,0.0036149,0.0099337,0.00041138,0.0031035,-1.0828e-05,0,0,0.0088792,-0.0034998,0,-2.8153e-05,0,0,0,0.0099337,0.00041137,0.0031035,-0.065153,0.0044829,0.0085021,2.1225e-08,0.58,0.3,0
0.029839,0.0036633,0.0099415,0.00037847,0.003096,6.2069e-05,0,0,0.0088991,-0.0035328,0,0.00016138,0,0,0,0.0099419,0.00037807,0.003096,0.37186,0.004472,0.0085358,2.1365e-08,0.6,0.3,0
0.030018,0.0037161,0.009978,0.00024731,0.0030676,0.00012689,0,0,0.0089835,-0.0036664,0,0.00032992,0,0,0,0.0099797,0.00024565,0.0030676,0.74699,0.004431,0.0086744,2.1953e-08,0.62,0.3,0
0.030199,0.0037724,0.010027,3.8277e-05,0.0030195,0.00015755,0,0,0.0091094,-0.0038756,0,0.00040962,0,0,0,0.010029,3.5793e-05,0.0030195,0.90341,0.0043615,0.0088856,2.2813e-08,0.64,0.3,0
0.030382,0.0038308,0.01006,-0.00019837,0.0029584,0.00013892,0,0,0.0092316,-0.0041038,0,0.0003612,0,0,0,0.010061,-0.00020025,0.0029584,0.77576,0.0042732,0.0091031,2.3606e-08,0.66,0.3,0
0.030568,0.0038899,0.010004,-0.00041654,0.0028763,9.0858e-05,0,0,0.0092663,-0.0042807,0,0.00023623,0,0,0,0.010005,-0.00041733,0.0028763,0.49951,0.0041547,0.0092274,2.3708e-08,0.68,0.3,0
0.030753,0.0039508,0.0097722,-0.00055403,0.0027655,5.8527e-05,0,0,0.0091088,-0.0043153,0,0.00015217,0,0,0,0.0097725,-0.00055436,0.0027655,0.32473,0.0039945,0.0091314,2.2399e-08,0.7,0.3,0
0.030932,0.0040175,0.0092154,-0.00069087,0.0025574,0.00016216,0,0,0.0086555,-0.0042227,0,0.00042161,0,0,0,0.0092181,-0.00069352,0.0025574,0.93755,0.003694,0.0087513,1.91e-08,0.72,0.3,0
0.031099,0.0041014,0.0096999,-0.00066024,0.0027119,0.00038311,0,0,0.0090844,-0.0043838,0,0.00099608,0,0,0,0.009714,-0.00067439,0.0027119,2.1149,0.0039172,0.0091765,2.2243e-08,0.74,0.3,0
0.031296,0.004212,0.0091738,-0.0011296,0.0024133,0.00062634,0,0,0.039787,-0.0082903,0,0.0099821,0,0,0,0.0092287,-0.0011845,0.0024133,4.3082,0.0034858,0.0093026,1.3337e-08,0.76,0.3,0
0.03269,0.004675,0.0095581,0.0016284,0.0033559,0.00065929,0,0,0.072565,-0.020212,0,0.015427,0,0,0,0.0096125,0.0015739,0.0033559,4.7205,0.0048475,0.0073123,1.6131e-08,0.78,0.3,0
0.034198,0.0052095,0.0098786,0.0014259,0.0033914,0.00028424,0,0,0.075901,-0.022996,0,0.0066512,0,0,0,0.0098882,0.0014164,0.0033914,1.9238,0.0048986,0.0076773,1.8158e-08,0.8,0.3,0
0.035727,0.0056216,0.009831,0.00085614,0.0032062,-4.6565e-05,0,0,0.077511,-0.027495,0,-0.0010896,0,0,0,0.0098313,0.0008559,0.0032062,-0.29726,0.0046311,0.0080614,1.9396e-08,0.82,0.3,0
0.037299,0.0058864,0.0098608,0.00046344,0.0030973,-0.00020568,0,0,0.079133,-0.030816,0,-0.004813,0,0,0,0.0098653,0.00045894,0.0030973,-1.2533,0.0044738,0.0084037,2.066e-08,0.84,0.3,0
0.038892,0.0060723,0.0098209,0.00018823,0.0030027,-0.00023762,0,0,0.079772,-0.03293,0,-0.0055603,0,0,0,0.0098268,0.00018237,0.0030027,-1.4122,0.0043373,0.0085888,2.1105e-08,0.86,0.3,0
0.040489,0.0062089,0.0097394,-1.7686e-05,0.0029165,-0.0002235,0,0,0.079828,-0.03433,0,-0.0052299,0,0,0,0.0097445,-2.2803e-05,0.0029165,-1.3115,0.0042128,0.0086794,2.1058e-08,0.88,0.3,0
0.042085,0.0063116,0.009653,-0.0001709,0.0028446,-0.00019142,0,0,0.079658,-0.035282,0,-0.0044792,0,0,0,0.0096568,-0.00017463,0.0028446,-1.1158,0.0041089,0.0087229,2.0832e-08,0.9,0.3,0
0.043676,0.0063889,0.0095759,-0.00028381,0.0027876,-0.00015315,0,0,0.079423,-0.035936,0,-0.0035837,0,0,0,0.0095783,-0.00028619,0.0027876,-0.88967,0.0040266,0.0087427,2.0568e-08,0.92,0.3,0
0.045262,0.0064458,0.0095138,-0.00036471,0.0027447,-0.00011365,0,0,0.079198,-0.03638,0,-0.0026595,0,0,0,0.0095151,-0.00036601,0.0027447,-0.65908,0.0039646,0.0087507,2.0331e-08,0.94,0.3,0
0.046844,0.0064849,0.0094687,-0.0004191,0.0027149,-7.4835e-05,0,0,0.079019,-0.036667,0,-0.0017511,0,0,0,0.0094692,-0.00041967,0.0027149,-0.43361,0.0039215,0.0087532,2.0149e-08,0.96,0.3,0
0.048423,0.0065078,0.0094414,-0.00045047,0.0026973,-3.7074e-05,0,0,0.078906,-0.036829,0,-0.00086754,0,0,0,0.0094416,-0.00045061,0.0026973,-0.21474,0.0038961,0.0087536,2.0036e-08,0.98,0.3,0
0.05,0.0065154,0.0094323,-0.00046072,0.0026915,1.6185e-05,0,0,0.078868,-0.036881,0,0.00037872,0,0,0,0.0094324,-0.00046075,0.0026915,0.093732,0.0038877,0.0087536,1.9998e-08,1,0.3,0
0,0,0.007704,0.0033017,0.0033017,0.00072721,0,0,0.051507,4.3368e-19,0,0.017017,0,0,0,0.007821,0.0031847,0.0033017,9.1412,0.0047692,0.0045789,4.92e-09,0,0.32,0
0.0010301,0.00034033,0.007669,0.0029163,0.0031756,0.00072511,0,0,0.052573,-0.0030336,0,0.016968,0,0,0,0.0077772,0.0028081,0.0031756,8.4845,0.004587,0.0047959,5.5533e-09,0.02,0.32,0
0.0021029,0.00067358,0.0077982,0.0026236,0.0031265,0.00071394,0,0,0.054659,-0.0058848,0,0.016706,0,0,0,0.0078949,0.0025269,0.0031265,7.7131,0.0045161,0.0050948,6.4758e-09,0.04,0.32,0
0.0032165,0.00099873,0.0079252,0.0023495,0.0030824,0.00069949,0,0,0.05666,-0.0085747,0,0.016368,0,0,0,0.0080116,0.0022631,0.0030824,7.0426,0.0044524,0.0053858,7.4015e-09,0.06,0.32,0
0.0043693,0.0013143,0.0080509,0.0020935,0.0030433,0.0006809,0,0,0.058589,-0.011113,0,0.015933,0,0,0,0.0081277,0.0020166,0.0030433,6.438,0.0043959,0.0056679,8.327e-09,0.08,0.32,0
0.0055601,0.0016186,0.0081761,0.0018554,0.0030095,0.00065786,0,0,0.06045,-0.013502,0,0.015394,0,0,0,0.0082439,0.0017877,0.0030095,5.8794,0.004347,0.0059403,9.2493e-09,0.1,0.32,0
0.0067873,0.0019096,0.0083015,0.0016361,0.0029813,0.00063055,0,0,0.062246,-0.015738,0,0.014755,0,0,0,0.0083606,0.001577,0.0029813,5.357,0.0043063,0.0062019,1.0166e-08,0.12,0.32,0
0.0080499,0.0021855,0.0084275,0.0014366,0.0029592,0.00059958,0,0,0.063978,-0.017815,0,0.01403,0,0,0,0.0084785,0.0013855,0.0029592,4.8666,0.0042744,0.0064517,1.1075e-08,0.14,0.32,0
0.0093465,0.0024443,0.0085548,0.0012581,0.0029439,0.00056583,0,0,0.065648,-0.019723,0,0.01324,0,0,0,0.0085985,0.0012145,0.0029439,4.4079,0.0042523,0.0066891,1.1977e-08,0.16,0.32,0
0.010676,0.0026845,0.0086844,0.0011022,0.002936,0.00053036,0,0,0.067257,-0.021455,0,0.01241,0,0,0,0.0087213,0.0010653,0.002936,3.9819,0.0042409,0.0069132,1.2873e-08,0.18,0.32,0
0.012037,0.0029044,0.0088171,0.0009706,0.0029363,0.0004942,0,0,0.068805,-0.022999,0,0.011564,0,0,0,0.0088481,0.00093959,0.0029363,3.5898,0.0042413,0.0071232,1.3763e-08,0.2,0.32,0
0.013428,0.0031028,0.0089538,0.00086557,0.0029458,0.00045816,0,0,0.070293,-0.024339,0,0.010721,0,0,0,0.0089797,0.0008397,0.0029458,3.2318,0.004255,0.0073178,1.4648e-08,0.22,0.32,0
0.014849,0.0032784,0.0090953,0.00079017,0.0029656,0.00042252,0,0,0.071717,-0.025453,0,0.009887,0,0,0,0.0091167,0.00076873,0.0029656,2.9049,0.0042837,0.007495,1.5525e-08,0.24,0.32,0
0.016297,0.0034295,0.0092418,0.0007487,0.0029972,0.00038661,0,0,0.073062,-0.026307,0,0.0090466,0,0,0,0.0092593,0.00073114,0.0029972,2.6009,0.0043292,0.0076512,1.6384e-08,0.26,0.32,0
0.017771,0.0035542,0.0093923,0.00074745,0.0030419,0.00034808,0,0,0.074299,-0.026845,0,0.008145,0,0,0,0.0094063,0.00073346,0.0030419,2.302,0.0043939,0.0077798,1.7199e-08,0.28,0.32,0
0.019269,0.0036492,0.0095436,0.00079576,0.0031018,0.00030182,0,0,0.075369,-0.026981,0,0.0070627,0,0,0,0.009554,0.00078536,0.0031018,1.9737,0.0044804,0.0078704,1.792e-08,0.3,0.32,0
0.020786,0.0037095,0.0096882,0.00090736,0.0031787,0.00023857,0,0,0.076161,-0.026574,0,0.0055826,0,0,0,0.0096947,0.00090088,0.0031787,1.5552,0.0045914,0.007905,1.8448e-08,0.32,0.32,0
0.022315,0.0037272,0.0098106,0.0011026,0.0032739,0.00014375,0,0,0.076479,-0.025405,0,0.0033638,0,0,0,0.009813,0.0011002,0.0032739,0.94551,0.004729,0.0078548,1.8613e-08,0.34,0.32,0
0.023845,0.0036917,0.0098762,0.0014087,0.0033855,3.1088e-06,0,0,0.075942,-0.023129,0,7.2746e-05,0,0,0,0.0098762,0.0014087,0.0033855,0.021036,0.0048901,0.0076726,1.811e-08,0.36,0.32,0
0.025353,0.0035945,0.0098537,0.0018847,0.0035215,-0.00017664,0,0,0.074087,-0.019151,0,-0.0041333,0,0,0,0.0098576,0.0018807,0.0035215,-1.2691,0.0050866,0.0072962,1.6598e-08,0.38,0.32,0
0.026808,0.0034447,0.0097589,0.0025754,0.0037003,-0.00033151,0,0,0.070886,-0.013161,0,-0.0077573,0,0,0,0.0097742,0.0025601,0.0037003,-2.6366,0.0053449,0.006717,1.4065e-08,0.4,0.32,0
0.028188,0.0032782,0.009443,6.523e-05,0.0028525,-0.0003868,0,0,0.039232,-0.0065221,0,-0.0052874,0,0,0,0.0094614,4.6833e-05,0.0028525,-2.6594,0.0041202,0.0084835,1.595e-08,0.42,0.32,0
0.028378,0.0032855,0.0095243,-0.001357,0.0024502,-0.00031276,0,0,0.0091964,-0.0049493,0,-0.00081318,0,0,0,0.0095333,-0.001366,0.0024502,-1.645,0.0035392,0.0095793,2.22e-08,0.44,0.32,0
0.028556,0.0033035,0.0094982,-0.00045534,0.0027129,-6.0117e-05,0,0,0.008821,-0.0041187,0,-0.00015631,0,0,0,0.0094986,-0.00045571,0.0027129,-0.34604,0.0039186,0.0088083,2.0405e-08,0.46,0.32,0
0.02873,0.0033348,0.0095423,-0.00019929,0.0028029,5.9448e-05,0,0,0.0087612,-0.0039029,0,0.00015457,0,0,0,0.0095427,-0.00019965,0.0028029,0.34963,0.0040486,0.0086416,2.016e-08,0.48,0.32,0
0.028907,0.0033736,0.0096918,-3.5593e-05,0.0028969,5.2428e-05,0,0,0.0088335,-0.0038122,0,0.00013631,0,0,0,0.0096921,-3.5875e-05,0.0028969,0.3088,0.0041844,0.0086432,2.075e-08,0.5,0.32,0
0.029084,0.0034147,0.0097862,9.3555e-05,0.0029639,-4.3035e-06,0,0,0.0088689,-0.0037315,0,-1.1189e-05,0,0,0,0.0097862,9.3553e-05,0.0029639,-0.025439,0.0042812,0.0086235,2.1055e-08,0.52,0.32,0
0.029261,0.0034566,0.0098339,0.00021673,0.0030152,-4.185e-05,0,0,0.0088643,-0.003638,0,-0.00010881,0,0,0,0.0098341,0.00021654,0.0030152,-0.24932,0.0043553,0.0085682,2.1069e-08,0.54,0.32,0
0.029438,0.0034996,0.0098523,0.00030942,0.0030485,-4.2589e-05,0,0,0.0088449,-0.0035608,0,-0.00011073,0,0,0,0.0098525,0.00030923,0.0030485,-0.2557,0.0044034,0.0085109,2.0958e-08,0.56,0.32,0
0.029615,0.0035446,0.0098645,0.00034538,0.003063,-1.0989e-05,0,0,0.008842,-0.0035329,0,-2.8573e-05,0,0,0,0.0098645,0.00034537,0.003063,-0.066146,0.0044243,0.0084929,2.0945e-08,0.58,0.32,0
0.029792,0.0035922,0.0098835,0.00030664,0.003057,3.6342e-05,0,0,0.0088744,-0.0035755,0,9.4489e-05,0,0,0,0.0098836,0.0003065,0.003057,0.21742,0.0044157,0.0085408,2.1167e-08,0.6,0.32,0
0.02997,0.0036425,0.0099113,0.00019318,0.0030313,8.0815e-05,0,0,0.008944,-0.0036896,0,0.00021012,0,0,0,0.009912,0.00019251,0.0030313,0.47642,0.0043786,0.0086565,2.1638e-08,0.62,0.32,0
0.03015,0.0036952,0.0099383,2.3329e-05,0.0029885,0.000108,0,0,0.0090348,-0.0038547,0,0.00028079,0,0,0,0.0099395,2.2153e-05,0.0029885,0.62399,0.0043167,0.0088167,2.2238e-08,0.64,0.32,0
0.030332,0.0037497,0.0099435,-0.00017474,0.0029306,0.00011893,0,0,0.0091167,-0.004037,0,0.00030922,0,0,0,0.0099449,-0.00017614,0.0029306,0.67334,0.0042331,0.0089802,2.2744e-08,0.66,0.32,0
0.030514,0.0038059,0.0099022,-0.00037346,0.0028586,0.00014361,0,0,0.0091566,-0.0042017,0,0.00037338,0,0,0,0.0099042,-0.00037547,0.0028586,0.80053,0.0041291,0.0091041,2.2916e-08,0.68,0.32,0
0.030698,0.0038657,0.0097634,-0.00059564,0.0027503,0.00027038,0,0,0.009117,-0.0043498,0,0.00070298,0,0,0,0.0097704,-0.00060269,0.0027503,1.4941,0.0039727,0.0091686,2.2483e-08,0.7,0.32,0
0.030879,0.0039341,0.0094307,-0.00094444,0.0025459,0.00058953,0,0,0.0089503,-0.0045374,0,0.0015328,0,0,0,0.0094641,-0.00097784,0.0025459,3.2417,0.0036774,0.0092009,2.1134e-08,0.72,0.32,0
0.031056,0.0040123,0.0084293,-0.001901,0.0019585,0.00073333,0,0,0.0084121,-0.0050174,0,0.0019067,0,0,0,0.0084811,-0.0019528,0.0019585,4.0403,0.0028289,0.0091299,1.6312e-08,0.74,0.32,0
0.031216,0.0040482,0.0081889,-0.00064222,0.002264,0.00064784,0,0,0.037341,-0.0068006,0,0.0074679,0,0,0,0.0082373,-0.00069058,0.002264,4.3616,0.0032702,0.0080191,9.0805e-09,0.76,0.32,0
0.032549,0.004306,0.0089084,0.0019139,0.0032467,-0.00027527,0,0,0.066242,-0.015594,0,-0.0064413,0,0,0,0.0089192,0.0019031,0.0032467,-2.2502,0.0046897,0.0064502,1.1792e-08,0.78,0.32,0
0.033865,0.0048171,0.0093118,0.0014573,0.0032307,-5.3584e-06,0,0,0.071149,-0.02075,0,-0.00012539,0,0,0,0.0093118,0.0014572,0.0032307,-0.039087,0.0046666,0.0071351,1.4842e-08,0.8,0.32,0
0.035395,0.0050799,0.0099928,0.00086778,0.0032582,-0.00014265,0,0,0.078796,-0.027968,0,-0.0033381,0,0,0,0.0099951,0.00086555,0.0032582,-0.89541,0.0047063,0.0081993,2.0395e-08,0.82,0.32,0
0.037017,0.0052634,0.010168,0.00048434,0.0031958,-0.00014399,0,0,0.081577,-0.031724,0,-0.0033693,0,0,0,0.01017,0.0004822,0.0031958,-0.85168,0.0046161,0.0086564,2.2612e-08,0.84,0.32,0
0.038658,0.0054026,0.010096,0.0001808,0.0030832,-0.00013161,0,0,0.082055,-0.033958,0,-0.0030797,0,0,0,0.010098,0.00017905,0.0030832,-0.76033,0.0044534,0.0088326,2.2924e-08,0.86,0.32,0
0.040299,0.0055103,0.0099802,-3.9065e-05,0.0029823,-0.00011448,0,0,0.081875,-0.035351,0,-0.0026789,0,0,0,0.0099816,-4.0373e-05,0.0029823,-0.65455,0.0043078,0.0089041,2.2673e-08,0.88,0.32,0
0.041933,0.0055942,0.0098656,-0.00019808,0.0029003,-9.4343e-05,0,0,0.081495,-0.036251,0,-0.0022076,0,0,0,0.0098665,-0.00019896,0.0029003,-0.53706,0.0041893,0.0089288,2.2266e-08,0.9,0.32,0
0.043559,0.0056591,0.009767,-0.00031229,0.0028364,-7.3479e-05,0,0,0.081088,-0.03684,0,-0.0017194,0,0,0,0.0097676,-0.00031282,0.0028364,-0.41766,0.0040971,0.0089323,2.1857e-08,0.92,0.32,0
0.045177,0.0057077,0.009689,-0.00039253,0.002789,-5.3363e-05,0,0,0.080731,-0.037223,0,-0.0012487,0,0,0,0.0096893,-0.00039282,0.002789,-0.30326,0.0040285,0.0089272,2.151e-08,0.94,0.32,0
0.046788,0.0057416,0.0096331,-0.00044575,0.0027562,-3.4551e-05,0,0,0.080459,-0.037463,0,-0.00080849,0,0,0,0.0096332,-0.00044587,0.0027562,-0.19641,0.0039812,0.00892,2.1252e-08,0.96,0.32,0
0.048395,0.0057617,0.0095995,-0.00047617,0.002737,-1.6933e-05,0,0,0.080291,-0.037594,0,-0.00039622,0,0,0,0.0095995,-0.0004762,0.002737,-0.096287,0.0039534,0.0089145,2.1094e-08,0.98,0.32,0
0.05,0.0057684,0.0095883,-0.00048607,0.0027307,1.4208e-05,0,0,0.080234,-0.037636,0,0.00033248,0,0,0,0.0095883,-0.00048609,0.0027307,0.080807,0.0039443,0.0089126,2.1041e-08,1,0.32,0
0,0,0.0077161,0.0033069,0.0033069,0.00059779,0,0,0.051588,-1.0842e-18,0,0.013988,0,0,0,0.0077957,0.0032273,0.0033069,7.5856,0.0047766,0.0045291,4.7667e-09,0,0.34,0
0.0010317,0.00027976,0.0076812,0.0029242,0.0031816,0.00059554,0,0,0.052645,-0.0030119,0,0.013936,0,0,0,0.0077546,0.0028507,0.0031816,7.0285,0.0045956,0.0047471,5.4042e-09,0.02,0.34,0
0.0021058,0.00055623,0.0078096,0.0026351,0.0031334,0.00058711,0,0,0.054712,-0.0058304,0,0.013738,0,0,0,0.0078754,0.0025693,0.0031334,6.3926,0.004526,0.0050477,6.3283e-09,0.04,0.34,0
0.0032202,0.00082792,0.0079359,0.0023656,0.0030904,0.00057406,0,0,0.056692,-0.008481,0,0.013433,0,0,0,0.0079944,0.002307,0.0030904,5.8232,0.004464,0.005339,7.2521e-09,0.06,0.34,0
0.0043735,0.0010931,0.0080613,0.0021144,0.0030527,0.00055598,0,0,0.0586,-0.010978,0,0.01301,0,0,0,0.0081128,0.0020629,0.0030527,5.2955,0.0044094,0.0056208,8.175e-09,0.08,0.34,0
0.0055642,0.0013499,0.0081867,0.0018813,0.0030204,0.00053278,0,0,0.060446,-0.013328,0,0.012467,0,0,0,0.0082314,0.0018366,0.0030204,4.7959,0.0043628,0.0058928,9.0965e-09,0.1,0.34,0
0.0067913,0.0015965,0.0083131,0.0016664,0.0029939,0.0005047,0,0,0.062235,-0.015531,0,0.01181,0,0,0,0.0083512,0.0016283,0.0029939,4.3176,0.0043245,0.0061548,1.0016e-08,0.12,0.34,0
0.0080536,0.001831,0.0084412,0.0014706,0.0029736,0.0004723,0,0,0.063972,-0.017584,0,0.011052,0,0,0,0.0084731,0.0014387,0.0029736,3.8586,0.0042951,0.0064063,1.0935e-08,0.14,0.34,0
0.0093502,0.0020517,0.0085718,0.0012948,0.00296,0.00043635,0,0,0.065658,-0.019482,0,0.010211,0,0,0,0.0085979,0.0012688,0.00296,3.4193,0.0042755,0.0066468,1.1855e-08,0.16,0.34,0
0.01068,0.0022571,0.0087057,0.0011406,0.0029539,0.00039776,0,0,0.067296,-0.021216,0,0.0093076,0,0,0,0.0087265,0.0011197,0.0029539,3.0015,0.0042667,0.0068757,1.2776e-08,0.18,0.34,0
0.012042,0.0024459,0.0088438,0.0010096,0.002956,0.00035751,0,0,0.068887,-0.022773,0,0.0083657,0,0,0,0.0088601,0.00099331,0.002956,2.6074,0.0042698,0.0070921,1.3701e-08,0.2,0.34,0
0.013435,0.0026171,0.008987,0.00090437,0.0029674,0.00031649,0,0,0.070429,-0.024137,0,0.0074058,0,0,0,0.0089993,0.000892,0.0029674,2.2389,0.0042863,0.0072945,1.4629e-08,0.22,0.34,0
0.014859,0.00277,0.0091354,0.00082836,0.0029891,0.00027539,0,0,0.071912,-0.025281,0,0.006444,0,0,0,0.0091445,0.00081924,0.0029891,1.8966,0.0043176,0.0074802,1.5555e-08,0.24,0.34,0
0.016312,0.0029038,0.0092884,0.00078662,0.0030225,0.00023447,0,0,0.073311,-0.02616,0,0.0054867,0,0,0,0.0092949,0.00078016,0.0030225,1.5786,0.0043659,0.0076443,1.6462e-08,0.26,0.34,0
0.017792,0.0030177,0.0094431,0.00078669,0.0030689,0.0001933,0,0,0.074578,-0.026702,0,0.0045231,0,0,0,0.0094474,0.00078237,0.0030689,1.2786,0.0044329,0.0077781,1.7312e-08,0.28,0.34,0
0.019295,0.0031107,0.0095928,0.00083995,0.0031298,0.00015023,0,0,0.075617,-0.026791,0,0.0035154,0,0,0,0.0095953,0.00083737,0.0031298,0.98303,0.0045208,0.0078664,1.8028e-08,0.3,0.34,0
0.020816,0.0031813,0.0097243,0.00096354,0.0032064,0.00010193,0,0,0.07626,-0.026241,0,0.0023851,0,0,0,0.0097255,0.00096236,0.0032064,0.6665,0.0046314,0.0078844,1.8467e-08,0.32,0.34,0
0.022345,0.0032269,0.009816,0.0011825,0.0032995,4.3584e-05,0,0,0.076242,-0.024769,0,0.0010199,0,0,0,0.0098162,0.0011823,0.0032995,0.28923,0.004766,0.007794,1.8402e-08,0.34,0.34,0
0.023866,0.0032445,0.0098433,0.0015318,0.0034125,-2.8012e-05,0,0,0.075241,-0.022005,0,-0.00065548,0,0,0,0.0098434,0.0015317,0.0034125,-0.1931,0.0049292,0.0075492,1.7558e-08,0.36,0.34,0
0.025355,0.0032331,0.0097947,0.0020389,0.0035501,-0.00010544,0,0,0.073062,-0.017681,0,-0.0024674,0,0,0,0.0097961,0.0020374,0.0035501,-0.77877,0.0051279,0.0071239,1.5783e-08,0.38,0.34,0
0.026788,0.0031975,0.0096818,0.0026734,0.0037066,-0.00016681,0,0,0.06991,-0.012088,0,-0.0039035,0,0,0,0.0096858,0.0026694,0.0037066,-1.3627,0.0053539,0.0065595,1.3283e-08,0.4,0.34,0
0.028151,0.0031504,0.0094272,0.00016425,0.0028774,-0.00020251,0,0,0.038803,-0.0063488,0,-0.0025607,0,0,0,0.009432,0.00015945,0.0028774,-1.3722,0.0041563,0.0083635,1.5917e-08,0.42,0.34,0
0.028341,0.0031841,0.0094293,-0.0015596,0.0023609,-0.0001961,0,0,0.0091889,-0.0050967,0,-0.00050987,0,0,0,0.0094328,-0.0015631,0.0023609,-1.022,0.0034102,0.0096519,2.1791e-08,0.44,0.34,0
0.028519,0.0032193,0.0093949,-0.00063698,0.0026274,-0.00014566,0,0,0.0087978,-0.0042436,0,-0.00037872,0,0,0,0.009397,-0.00063909,0.0026274,-0.83169,0.0037951,0.0088663,2.0112e-08,0.46,0.34,0
0.028692,0.0032579,0.0094418,-0.00018384,0.0027774,-9.1986e-05,0,0,0.0086637,-0.0038496,0,-0.00023916,0,0,0,0.0094426,-0.00018472,0.0027774,-0.54748,0.0040118,0.0085407,1.9506e-08,0.48,0.34,0
0.028865,0.003299,0.0095503,8.2745e-06,0.0028676,-7.7757e-05,0,0,0.0086876,-0.0037171,0,-0.00020217,0,0,0,0.009551,7.6409e-06,0.0028676,-0.46685,0.0041421,0.008483,1.9761e-08,0.5,0.34,0
0.02904,0.0033413,0.0096698,0.00012515,0.0029385,-7.8248e-05,0,0,0.0087507,-0.0036574,0,-0.00020345,0,0,0,0.0096705,0.00012451,0.0029385,-0.46967,0.0042445,0.008496,2.0243e-08,0.52,0.34,0
0.029216,0.0033845,0.0097545,0.00021703,0.0029915,-7.4323e-05,0,0,0.008792,-0.0036068,0,-0.00019324,0,0,0,0.0097551,0.00021645,0.0029915,-0.44645,0.004321,0.0084981,2.0561e-08,0.54,0.34,0
0.029392,0.0034284,0.0098052,0.00028199,0.0030262,-5.6655e-05,0,0,0.0088127,-0.0035674,0,-0.0001473,0,0,0,0.0098055,0.00028166,0.0030262,-0.34085,0.0043711,0.0084911,2.0725e-08,0.56,0.34,0
0.029568,0.0034736,0.0098369,0.00030024,0.0030411,-2.6851e-05,0,0,0.0088345,-0.0035632,0,-6.9812e-05,0,0,0,0.009837,0.00030017,0.0030411,-0.16131,0.0043928,0.0085043,2.0881e-08,0.58,0.34,0
0.029745,0.0035203,0.0098632,0.00025731,0.0030362,9.7695e-06,0,0,0.0088751,-0.0036125,0,2.5401e-05,0,0,0,0.0098632,0.0002573,0.0030362,0.058272,0.0043855,0.0085616,2.1157e-08,0.6,0.34,0
0.029923,0.0035685,0.0098884,0.00015293,0.0030124,4.6742e-05,0,0,0.0089388,-0.0037173,0,0.00012153,0,0,0,0.0098886,0.00015271,0.0030124,0.27508,0.0043512,0.0086674,2.1582e-08,0.62,0.34,0
0.030103,0.0036182,0.0099095,1.4758e-06,0.0029733,7.9761e-05,0,0,0.0090171,-0.0038634,0,0.00020738,0,0,0,0.0099102,8.3377e-07,0.0029733,0.4612,0.0042948,0.0088077,2.2093e-08,0.64,0.34,0
0.030284,0.0036693,0.0099284,-0.00017587,0.0029258,0.00011022,0,0,0.0091035,-0.0040321,0,0.00028657,0,0,0,0.0099296,-0.00017707,0.0029258,0.6249,0.0042261,0.0089674,2.2643e-08,0.66,0.34,0
0.030467,0.0037219,0.0099785,-0.00037103,0.0028822,0.00015462,0,0,0.0092251,-0.0042292,0,0.00040201,0,0,0,0.0099808,-0.00037334,0.0028822,0.85574,0.0041632,0.0091705,2.3441e-08,0.68,0.34,0
0.030653,0.0037768,0.010181,-0.00061478,0.0028698,0.00025086,0,0,0.0095042,-0.0045299,0,0.00065224,0,0,0,0.010186,-0.00062061,0.0028698,1.3305,0.0041452,0.0095528,2.5462e-08,0.7,0.34,0
0.030847,0.0038361,0.010788,-0.0010046,0.0029349,0.00046658,0,0,0.010208,-0.0051213,0,0.0012131,0,0,0,0.010806,-0.001023,0.0029349,2.2624,0.0042392,0.010429,3.1252e-08,0.72,0.34,0
0.031061,0.0039007,0.011756,-0.0016537,0.0030306,0.00061497,0,0,0.011343,-0.0060896,0,0.0015989,0,0,0,0.011784,-0.0016818,0.0030306,2.6203,0.0043776,0.011835,4.1912e-08,0.74,0.34,0
0.031301,0.0039399,0.0091452,0.00075206,0.0029692,0.00075346,0,0,0.016103,-0.0052886,0,0.0063218,0,0,0,0.0092269,0.00067033,0.0029692,7.7443,0.0042888,0.0076702,4.3094e-08,0.76,0.34,0
0.031664,0.0040513,0.014334,0.00095709,0.0045872,8.1429e-05,0,0,0.041365,-0.0097056,0,-0.007687,0,0,0,0.014398,0.00089222,0.0045872,-1.9999,0.0066259,0.01212,9.5962e-08,0.78,0.34,0
0.033419,0.0043796,0.011416,0.0018312,0.0039741,-4.2238e-05,0,0,0.087067,-0.025071,0,-0.00098838,0,0,0,0.011416,0.0018311,0.0039741,-0.25249,0.0057403,0.0087133,2.7172e-08,0.8,0.34,0
0.035147,0.0045029,0.010895,0.0010481,0.0035828,-4.7469e-05,0,0,0.085548,-0.029656,0,-0.0011108,0,0,0,0.010895,0.0010478,0.0035828,-0.27621,0.0051751,0.0088559,2.6064e-08,0.82,0.34,0
0.036841,0.0046174,0.010527,0.00052342,0.0033151,8.6165e-06,0,0,0.084379,-0.032663,0,0.00020163,0,0,0,0.010527,0.00052341,0.0033151,0.049351,0.0047885,0.0089409,2.5004e-08,0.84,0.34,0
0.038522,0.004714,0.010305,0.00018677,0.0031474,2.0365e-05,0,0,0.08374,-0.03464,0,0.00047653,0,0,0,0.010305,0.00018673,0.0031474,0.11532,0.0045463,0.0090102,2.4349e-08,0.86,0.34,0
0.040191,0.0047949,0.010134,-4.3952e-05,0.003027,2.3078e-05,0,0,0.08315,-0.03593,0,0.00054002,0,0,0,0.010134,-4.4004e-05,0.003027,0.12992,0.0043723,0.0090424,2.3735e-08,0.88,0.34,0
0.041848,0.0048616,0.0099937,-0.00020578,0.0029364,2.2763e-05,0,0,0.082571,-0.036763,0,0.00053266,0,0,0,0.0099937,-0.00020583,0.0029364,0.12787,0.0042414,0.0090474,2.3149e-08,0.9,0.34,0
0.043494,0.0049153,0.00988,-0.00031991,0.002868,2.0765e-05,0,0,0.08204,-0.037299,0,0.00048589,0,0,0,0.00988,-0.00031996,0.002868,0.11664,0.0041427,0.009038,2.2629e-08,0.92,0.34,0
0.045129,0.0049568,0.0097919,-0.00039908,0.0028179,1.7237e-05,0,0,0.081597,-0.037638,0,0.00040335,0,0,0,0.009792,-0.00039911,0.0028179,0.096911,0.0040702,0.0090234,2.2206e-08,0.94,0.34,0
0.046757,0.0049864,0.0097294,-0.00045111,0.0027835,1.235e-05,0,0,0.081267,-0.037845,0,0.000289,0,0,0,0.0097294,-0.00045112,0.0027835,0.069507,0.0040206,0.0090097,2.1897e-08,0.96,0.34,0
0.04838,0.0050041,0.009692,-0.00048068,0.0027634,6.4458e-06,0,0,0.081064,-0.037956,0,0.00015083,0,0,0,0.009692,-0.00048068,0.0027634,0.036305,0.0039916,0.0090004,2.171e-08,0.98,0.34,0
0.05,0.00501,0.0096796,-0.00049027,0.0027568,1.2612e-05,0,0,0.080996,-0.037991,0,0.00029511,0,0,0,0.0096796,-0.00049029,0.0027568,0.071053,0.003982,0.0089971,2.1647e-08,1,0.34,0
0,0,0.0077129,0.0033055,0.0033055,0.00046978,0,0,0.051567,8.6736e-19,0,0.010993,0,0,0,0.0077625,0.003256,0.0033055,6.017,0.0047747,0.0044819,4.622e-09,0,0.36,0
0.0010313,0.00021986,0.0076784,0.0029285,0.0031821,0.00046735,0,0,0.052607,-0.0029666,0,0.010936,0,0,0,0.007724,0.002883,0.0031821,5.5663,0.0045964,0.0046986,5.2548e-09,0.02,0.36,0
0.0021043,0.00044036,0.007805,0.0026447,0.0031349,0.00046169,0,0,0.05464,-0.0057354,0,0.010804,0,0,0,0.007846,0.0026037,0.0031349,5.0726,0.0045282,0.0049979,6.1683e-09,0.04,0.36,0
0.0032169,0.00065949,0.0079294,0.0023808,0.003093,0.0004499,0,0,0.056585,-0.0083336,0,0.010528,0,0,0,0.0079656,0.0023445,0.003093,4.6057,0.0044678,0.0052867,7.0789e-09,0.06,0.36,0
0.0043677,0.00087521,0.0080531,0.0021353,0.0030565,0.00043198,0,0,0.05846,-0.010778,0,0.010108,0,0,0,0.0080844,0.002104,0.0030565,4.1531,0.004415,0.0055657,7.9875e-09,0.08,0.36,0
0.0055553,0.0010855,0.0081771,0.0019077,0.0030255,0.00040807,0,0,0.060275,-0.013077,0,0.0095489,0,0,0,0.0082036,0.0018813,0.0030255,3.7085,0.0043701,0.005835,8.8952e-09,0.1,0.36,0
0.0067787,0.0012884,0.0083025,0.001698,0.0030001,0.00037854,0,0,0.062038,-0.015235,0,0.0088578,0,0,0,0.0083241,0.0016764,0.0030001,3.2696,0.0043335,0.0060947,9.8034e-09,0.12,0.36,0
0.0080368,0.0014821,0.00843,0.0015066,0.002981,0.0003439,0,0,0.063754,-0.01725,0,0.0080473,0,0,0,0.008447,0.0014895,0.002981,2.8367,0.0043059,0.0063447,1.0714e-08,0.14,0.36,0
0.0093288,0.001665,0.0085606,0.0013344,0.0029685,0.00030486,0,0,0.065427,-0.019119,0,0.0071337,0,0,0,0.0085734,0.0013216,0.0029685,2.4115,0.0042878,0.0065847,1.1629e-08,0.16,0.36,0
0.010654,0.0018358,0.008695,0.0011828,0.0029633,0.00026226,0,0,0.067061,-0.020833,0,0.0061368,0,0,0,0.0087042,0.0011736,0.0029633,1.997,0.0042804,0.0068143,1.255e-08,0.18,0.36,0
0.012011,0.0019935,0.0088343,0.0010534,0.0029663,0.00021706,0,0,0.068655,-0.022381,0,0.0050791,0,0,0,0.0088403,0.0010474,0.0029663,1.5967,0.0042847,0.0070326,1.3481e-08,0.2,0.36,0
0.0134,0.0021374,0.0089791,0.00094882,0.0029784,0.00017034,0,0,0.070208,-0.023746,0,0.0039859,0,0,0,0.0089827,0.00094521,0.0029784,1.2146,0.0043021,0.0072383,1.4421e-08,0.22,0.36,0
0.01482,0.0022672,0.0091296,0.00087249,0.0030006,0.00012334,0,0,0.071709,-0.024899,0,0.0028863,0,0,0,0.0091315,0.00087064,0.0030006,0.85563,0.0043343,0.0074285,1.5364e-08,0.24,0.36,0
0.016269,0.0023832,0.0092851,0.00082957,0.0030344,7.7574e-05,0,0,0.073134,-0.025797,0,0.0018152,0,0,0,0.0092859,0.00082886,0.0030344,0.52559,0.004383,0.0075982,1.6294e-08,0.26,0.36,0
0.017745,0.0024861,0.0094426,0.00082776,0.0030811,3.4999e-05,0,0,0.07443,-0.026364,0,0.00081897,0,0,0,0.0094428,0.00082762,0.0030811,0.23276,0.0044505,0.0077385,1.7173e-08,0.28,0.36,0
0.019246,0.0025776,0.0095952,0.00087865,0.0031422,-1.6078e-06,0,0,0.075501,-0.026483,0,-3.7623e-05,0,0,0,0.0095952,0.00087865,0.0031422,-0.010568,0.0045387,0.007834,1.792e-08,0.3,0.36,0
0.020765,0.0026598,0.0097295,0.00099961,0.0032187,-2.8208e-05,0,0,0.076176,-0.025964,0,-0.00066008,0,0,0,0.0097296,0.00099952,0.0032187,-0.18513,0.0046493,0.0078591,1.8392e-08,0.32,0.36,0
0.022293,0.0027365,0.0098236,0.001216,0.0033119,-3.9812e-05,0,0,0.076187,-0.024522,0,-0.0009316,0,0,0,0.0098238,0.0012159,0.0033119,-0.265,0.0047839,0.0077748,1.8353e-08,0.34,0.36,0
0.023812,0.0028115,0.0098532,0.001563,0.0034249,-3.3232e-05,0,0,0.075212,-0.021784,0,-0.00077764,0,0,0,0.0098533,0.0015628,0.0034249,-0.22967,0.004947,0.0075341,1.7524e-08,0.36,0.36,0
0.025301,0.0028873,0.0098067,0.0020673,0.0035622,-1.5067e-05,0,0,0.073061,-0.017491,0,-0.00035256,0,0,0,0.0098068,0.0020673,0.0035622,-0.11154,0.0051454,0.0071109,1.5751e-08,0.38,0.36,0
0.026735,0.0029612,0.0096966,0.0026965,0.0037179,-3.9458e-06,0,0,0.06995,-0.01195,0,-9.2332e-05,0,0,0,0.0096966,0.0026965,0.0037179,-0.032296,0.0053704,0.0065494,1.3253e-08,0.4,0.36,0
0.028099,0.0030242,0.009448,0.00020117,0.0028947,-2.0255e-05,0,0,0.038837,-0.006303,0,1.7659e-05,0,0,0,0.0094481,0.00020107,0.0028947,-0.081276,0.0041813,0.008344,1.5991e-08,0.42,0.36,0
0.028288,0.0030817,0.0094533,-0.0015283,0.0023775,-9.4945e-05,0,0,0.0091986,-0.0050776,0,-0.00024686,0,0,0,0.0094541,-0.0015291,0.0023775,-0.49532,0.0034342,0.0096429,2.1891e-08,0.44,0.36,0
0.028467,0.0031338,0.0094228,-0.00063238,0.0026371,-0.00018407,0,0,0.0088214,-0.0042503,0,-0.00047858,0,0,0,0.0094261,-0.00063575,0.0026371,-1.0484,0.0038092,0.0088894,2.029e-08,0.46,0.36,0
0.028641,0.0031808,0.0094724,-0.0001954,0.0027831,-0.00023494,0,0,0.0086961,-0.003872,0,-0.00061084,0,0,0,0.0094781,-0.00020111,0.0027831,-1.3913,0.00402,0.0085853,1.9759e-08,0.48,0.36,0
0.028815,0.0032249,0.0095811,-1.1804e-05,0.0028708,-0.00021976,0,0,0.0087234,-0.0037474,0,-0.00057138,0,0,0,0.0095862,-1.6836e-05,0.0028708,-1.3116,0.0041467,0.0085338,2.0035e-08,0.5,0.36,0
0.02899,0.0032684,0.0096994,0.00010009,0.0029398,-0.0001747,0,0,0.0087874,-0.0036917,0,-0.00045422,0,0,0,0.0097026,9.6912e-05,0.0029398,-1.0423,0.0042464,0.0085465,2.0511e-08,0.52,0.36,0
0.029167,0.0033123,0.0097827,0.00018855,0.0029914,-0.00012497,0,0,0.0088287,-0.0036437,0,-0.00032492,0,0,0,0.0097843,0.00018692,0.0029914,-0.74616,0.0043209,0.0085475,2.082e-08,0.54,0.36,0
0.029343,0.0033569,0.0098325,0.00025108,0.0030251,-8.301e-05,0,0,0.0088496,-0.0036062,0,-0.00021583,0,0,0,0.0098332,0.00025036,0.0030251,-0.49634,0.0043695,0.0085405,2.098e-08,0.56,0.36,0
0.029521,0.003402,0.0098639,0.0002673,0.0030394,-4.8673e-05,0,0,0.0088719,-0.0036037,0,-0.00012655,0,0,0,0.0098641,0.00026705,0.0030394,-0.29059,0.0043902,0.0085547,2.1139e-08,0.58,0.36,0
0.029698,0.0034477,0.0098903,0.00022261,0.0030339,-1.7421e-05,0,0,0.0089133,-0.0036546,0,-4.5296e-05,0,0,0,0.0098903,0.00022258,0.0030339,-0.10325,0.0043822,0.0086133,2.142e-08,0.6,0.36,0
0.029877,0.0034938,0.0099159,0.00011679,0.0030098,1.6543e-05,0,0,0.0089779,-0.0037609,0,4.3011e-05,0,0,0,0.0099159,0.00011676,0.0030098,0.096725,0.0043475,0.0087203,2.1851e-08,0.62,0.36,0
0.030057,0.0035407,0.0099374,-3.5563e-05,0.0029706,5.6401e-05,0,0,0.0090569,-0.0039079,0,0.00014664,0,0,0,0.0099377,-3.5882e-05,0.0029706,0.32402,0.0042908,0.0088615,2.2365e-08,0.64,0.36,0
0.030239,0.0035884,0.0099556,-0.00021257,0.0029229,9.8498e-05,0,0,0.0091425,-0.0040761,0,0.00025609,0,0,0,0.0099566,-0.00021352,0.0029229,0.55495,0.004222,0.0090206,2.2911e-08,0.66,0.36,0
0.030423,0.0036368,0.010001,-0.00040593,0.0028784,0.00012172,0,0,0.0092588,-0.0042696,0,0.00031647,0,0,0,0.010002,-0.00040735,0.0028784,0.67003,0.0041577,0.0092167,2.3665e-08,0.68,0.36,0
0.03061,0.0036845,0.010184,-0.00064541,0.0028617,8.0038e-05,0,0,0.0095196,-0.0045593,0,0.0002081,0,0,0,0.010185,-0.00064601,0.0028617,0.42342,0.0041336,0.009572,2.5507e-08,0.7,0.36,0
0.030804,0.0037292,0.010712,-0.0010439,0.0029003,-0.00010824,0,0,0.010155,-0.0051274,0,-0.00028142,0,0,0,0.010712,-0.0010449,0.0029003,-0.5275,0.0041893,0.010364,3.0516e-08,0.72,0.36,0
0.031016,0.0037687,0.011466,-0.0017255,0.0029222,-0.00021962,0,0,0.011107,-0.006042,0,-0.00057101,0,0,0,0.01147,-0.0017292,0.0029222,-0.95353,0.0042209,0.011595,3.8839e-08,0.74,0.36,0
0.031248,0.0038392,0.0087753,0.00050705,0.0027847,-0.0003489,0,0,0.015621,-0.0055246,0,-0.0033192,0,0,0,0.008796,0.00048632,0.0027847,-4.1822,0.0040223,0.0074323,3.8584e-08,0.76,0.36,0
0.031601,0.0038875,0.014041,0.00090728,0.0044844,0.00039048,0,0,0.04131,-0.0090859,0,0.012162,0,0,0,0.01413,0.00081789,0.0044844,4.2046,0.0064775,0.011945,8.7388e-08,0.78,0.36,0
0.033374,0.0038142,0.011523,0.0018687,0.0040174,0.00036328,0,0,0.087811,-0.02514,0,0.0085008,0,0,0,0.011536,0.001855,0.0040174,2.152,0.0058029,0.0088015,2.8021e-08,0.8,0.36,0
0.035113,0.0038936,0.010959,0.0010694,0.0036084,0.0003165,0,0,0.085998,-0.029707,0,0.007406,0,0,0,0.010969,0.0010593,0.0036084,1.8312,0.0052122,0.0089127,2.6584e-08,0.82,0.36,0
0.036814,0.0039569,0.010569,0.00053575,0.0033313,0.00023603,0,0,0.084676,-0.032708,0,0.0055231,0,0,0,0.010574,0.0005302,0.0033313,1.3469,0.0048119,0.0089773,2.5328e-08,0.84,0.36,0
0.0385,0.004017,0.010339,0.00019852,0.0031613,0.00020189,0,0,0.083982,-0.034665,0,0.0047241,0,0,0,0.010343,0.00019451,0.0031613,1.1401,0.0045664,0.0090383,2.4605e-08,0.86,0.36,0
0.040173,0.0040731,0.010164,-3.1197e-05,0.0030399,0.00017544,0,0,0.083355,-0.035932,0,0.0041053,0,0,0,0.010167,-3.4215e-05,0.0030399,0.98554,0.004391,0.0090643,2.3946e-08,0.88,0.36,0
0.041834,0.0041237,0.010021,-0.00019148,0.002949,0.0001492,0,0,0.082748,-0.036743,0,0.0034913,0,0,0,0.010024,-0.00019366,0.002949,0.8368,0.0042596,0.0090642,2.3327e-08,0.9,0.36,0
0.043483,0.0041672,0.0099056,-0.00030405,0.0028805,0.00012147,0,0,0.082194,-0.037259,0,0.0028423,0,0,0,0.0099071,-0.00030549,0.0028805,0.68153,0.0041607,0.0090504,2.2781e-08,0.92,0.36,0
0.045122,0.0042022,0.0098161,-0.00038186,0.0028303,9.2303e-05,0,0,0.081734,-0.037582,0,0.0021599,0,0,0,0.0098169,-0.00038269,0.0028303,0.51854,0.0040882,0.0090324,2.2339e-08,0.94,0.36,0
0.046753,0.0042279,0.0097526,-0.00043286,0.0027959,6.2087e-05,0,0,0.081393,-0.037777,0,0.0014528,0,0,0,0.0097529,-0.00043324,0.0027959,0.34924,0.0040385,0.0090162,2.2017e-08,0.96,0.36,0
0.048378,0.0042435,0.0097146,-0.00046179,0.0027758,3.1204e-05,0,0,0.081183,-0.03788,0,0.00073017,0,0,0,0.0097147,-0.00046189,0.0027758,0.17568,0.0040095,0.0090054,2.1822e-08,0.98,0.36,0
0.05,0.0042487,0.009702,-0.00047117,0.0027692,1.122e-05,0,0,0.081113,-0.037913,0,0.00026254,0,0,0,0.009702,-0.00047118,0.0027692,0.06319,0.004,0.0090016,2.1756e-08,1,0.36,0
0,0,0.0076943,0.0032975,0.0032975,0.00034423,0,0,0.051442,1.0842e-19,0,0.0080549,0,0,0,0.0077211,0.0032708,0.0032975,4.4496,0.0047631,0.004437,4.4857e-09,0,0.38,0
0.0010288,0.0001611,0.0076605,0.0029293,0.0031769,0.00034163,0,0,0.052458,-0.0028973,0,0.0079942,0,0,0,0.007685,0.0029048,0.0031769,4.1088,0.0045889,0.0046502,5.1049e-09,0.02,0.38,0
0.0020983,0.00032681,0.007784,0.0026525,0.0031309,0.00033877,0,0,0.054441,-0.0055983,0,0.0079273,0,0,0,0.0078063,0.0026302,0.0031309,3.7607,0.0045225,0.0049448,5.9954e-09,0.04,0.38,0
0.0032065,0.00049457,0.0079054,0.0023954,0.0030902,0.00032821,0,0,0.056337,-0.0081297,0,0.0076802,0,0,0,0.0079249,0.0023759,0.0030902,3.3969,0.0044637,0.0052285,6.8814e-09,0.06,0.38,0
0.0043518,0.00066199,0.008026,0.0021566,0.0030548,0.00031035,0,0,0.058163,-0.010509,0,0.0072622,0,0,0,0.0080423,0.0021402,0.0030548,3.0183,0.0044124,0.0055022,7.7643e-09,0.08,0.38,0
0.005533,0.00082684,0.0081469,0.0019352,0.0030246,0.00028558,0,0,0.05993,-0.012746,0,0.0066825,0,0,0,0.00816,0.0019221,0.0030246,2.6268,0.0043689,0.0057662,8.6459e-09,0.1,0.38,0
0.006749,0.0009871,0.0082691,0.0017313,0.0030001,0.00025435,0,0,0.061647,-0.014845,0,0.0059518,0,0,0,0.008279,0.0017215,0.0030001,2.2246,0.0043335,0.0060209,9.5281e-09,0.12,0.38,0
0.0079989,0.001141,0.0083935,0.0015451,0.0029816,0.00021721,0,0,0.06332,-0.016807,0,0.0050826,0,0,0,0.0084004,0.0015383,0.0029816,1.8148,0.0043068,0.0062664,1.0413e-08,0.14,0.38,0
0.0092818,0.0012869,0.0085209,0.0013774,0.0029695,0.0001748,0,0,0.064952,-0.018627,0,0.0040903,0,0,0,0.0085252,0.0013732,0.0029695,1.4009,0.0042893,0.0065025,1.1304e-08,0.16,0.38,0
0.010597,0.0014237,0.0086522,0.0012294,0.0029645,0.00012791,0,0,0.066547,-0.020301,0,0.0029931,0,0,0,0.0086544,0.0012272,0.0029645,0.98694,0.004282,0.006729,1.2202e-08,0.18,0.38,0
0.011944,0.0015506,0.0087883,0.0011026,0.0029673,7.7498e-05,0,0,0.068106,-0.021816,0,0.0018134,0,0,0,0.0087891,0.0011018,0.0029673,0.57766,0.0042861,0.006945,1.3111e-08,0.2,0.38,0
0.013321,0.0016673,0.00893,0.0009994,0.0029788,2.4779e-05,0,0,0.069629,-0.023159,0,0.00057983,0,0,0,0.0089301,0.00099932,0.0029788,0.17902,0.0043027,0.0071496,1.4032e-08,0.22,0.38,0
0.014729,0.0017741,0.0090779,0.00092295,0.0030003,-2.8567e-05,0,0,0.071109,-0.024305,0,-0.00066847,0,0,0,0.009078,0.00092285,0.0030003,-0.20071,0.0043337,0.0073404,1.4962e-08,0.24,0.38,0
0.016166,0.0018719,0.0092321,0.00087788,0.003033,-8.0059e-05,0,0,0.072529,-0.025215,0,-0.0018734,0,0,0,0.0092328,0.00087711,0.003033,-0.549,0.004381,0.0075134,1.5889e-08,0.26,0.38,0
0.01763,0.0019631,0.0093911,0.0008709,0.0030786,-0.00012579,0,0,0.073856,-0.02583,0,-0.0029434,0,0,0,0.0093929,0.00086905,0.0030786,-0.84563,0.0044468,0.0076619,1.6788e-08,0.28,0.38,0
0.01912,0.0020514,0.0095513,0.00091191,0.003139,-0.00015939,0,0,0.075024,-0.026057,0,-0.0037296,0,0,0,0.0095543,0.00090897,0.003139,-1.0566,0.0045341,0.007774,1.7604e-08,0.3,0.38,0
0.020631,0.0021428,0.0097047,0.0010154,0.003216,-0.00017074,0,0,0.075917,-0.025747,0,-0.0039954,0,0,0,0.009708,0.001012,0.003216,-1.1253,0.0046454,0.0078302,1.823e-08,0.32,0.38,0
0.022156,0.0022461,0.0098349,0.0012025,0.0033112,-0.00014499,0,0,0.076327,-0.024672,0,-0.0033928,0,0,0,0.0098373,0.0012,0.0033112,-0.962,0.0047828,0.007799,1.8478e-08,0.34,0.38,0
0.023684,0.0023732,0.009907,0.0015014,0.0034225,-6.8192e-05,0,0,0.075869,-0.022477,0,-0.0015957,0,0,0,0.0099076,0.0015008,0.0034225,-0.46478,0.0049436,0.0076296,1.8025e-08,0.36,0.38,0
0.025191,0.0025335,0.0098912,0.00197,0.0035584,5.2488e-05,0,0,0.074094,-0.018583,0,0.0012282,0,0,0,0.0098915,0.0019697,0.0035584,0.37964,0.0051398,0.0072591,1.6518e-08,0.38,0.38,0
0.026648,0.0027194,0.0098047,0.0026467,0.0037354,0.00015519,0,0,0.071011,-0.012738,0,0.0036313,0,0,0,0.0098081,0.0026434,0.0037354,1.2414,0.0053956,0.0066859,1.3979e-08,0.4,0.38,0
0.028032,0.0028983,0.0095084,0.00018241,0.0029072,0.00015376,0,0,0.039334,-0.0063761,0,0.0026443,0,0,0,0.0095123,0.00017846,0.0029072,1.1713,0.0041993,0.0084217,1.62e-08,0.42,0.38,0
0.028221,0.002981,0.0095966,-0.0012675,0.0024987,9.1415e-06,0,0,0.0092273,-0.0048961,0,2.3768e-05,0,0,0,0.0095966,-0.0012675,0.0024987,0.048211,0.0036093,0.009555,2.2484e-08,0.44,0.38,0
0.028401,0.0030493,0.0095818,-0.00044762,0.0027403,-0.00027536,0,0,0.008894,-0.0041442,0,-0.00071594,0,0,0,0.0095893,-0.00045518,0.0027403,-1.5715,0.0039581,0.0088886,2.0986e-08,0.46,0.38,0
0.028577,0.003103,0.0096333,-0.00023472,0.0028196,-0.00038517,0,0,0.0088578,-0.0039706,0,-0.0010014,0,0,0,0.0096483,-0.00024973,0.0028196,-2.2319,0.0040727,0.0087756,2.094e-08,0.48,0.38,0
0.028755,0.0031491,0.0097817,-9.4901e-05,0.002906,-0.00034705,0,0,0.0089384,-0.0039012,0,-0.00090234,0,0,0,0.0097939,-0.00010708,0.002906,-2.01,0.0041976,0.0087906,2.1574e-08,0.5,0.38,0
0.028934,0.0031937,0.0098717,1.8527e-05,0.0029671,-0.00024594,0,0,0.008976,-0.0038331,0,-0.00063944,0,0,0,0.0098778,1.2392e-05,0.0029671,-1.4289,0.0042857,0.0087697,2.185e-08,0.52,0.38,0
0.029114,0.0032387,0.0099163,0.00013179,0.0030144,-0.00015566,0,0,0.0089724,-0.0037474,0,-0.00040472,0,0,0,0.0099187,0.00012931,0.0030144,-0.91122,0.0043542,0.0087128,2.1839e-08,0.54,0.38,0
0.029293,0.0032842,0.0099326,0.00021705,0.0030449,-9.6229e-05,0,0,0.008954,-0.0036762,0,-0.0002502,0,0,0,0.0099335,0.0002161,0.0030449,-0.56742,0.0043982,0.0086569,2.1721e-08,0.56,0.38,0
0.029472,0.0033295,0.0099441,0.00024689,0.0030573,-6.4561e-05,0,0,0.0089528,-0.0036535,0,-0.00016786,0,0,0,0.0099445,0.00024646,0.0030573,-0.38144,0.0044161,0.0086425,2.1718e-08,0.58,0.38,0
0.029652,0.0033741,0.0099636,0.00020284,0.0030499,-4.4744e-05,0,0,0.0089878,-0.0037012,0,-0.00011633,0,0,0,0.0099638,0.00020263,0.0030499,-0.26264,0.0044055,0.0086946,2.1956e-08,0.6,0.38,0
0.029832,0.0034181,0.0099929,8.4989e-05,0.0030234,-1.8806e-05,0,0,0.0090604,-0.0038199,0,-4.8894e-05,0,0,0,0.0099929,8.4954e-05,0.0030234,-0.10875,0.0043671,0.0088141,2.2445e-08,0.62,0.38,0
0.030014,0.0034619,0.010021,-8.758e-05,0.0029802,2.6921e-05,0,0,0.0091538,-0.0039881,0,6.9994e-05,0,0,0,0.010022,-8.7651e-05,0.0029802,0.15258,0.0043047,0.0089775,2.3061e-08,0.64,0.38,0
0.030198,0.0035062,0.010027,-0.00028519,0.0029225,8.9892e-05,0,0,0.0092355,-0.0041699,0,0.00023372,0,0,0,0.010027,-0.00028597,0.0029225,0.49942,0.0042213,0.0091417,2.3568e-08,0.66,0.38,0
0.030383,0.0035511,0.0099807,-0.00047675,0.0028512,0.000138,0,0,0.0092683,-0.0043263,0,0.00035881,0,0,0,0.0099825,-0.00047857,0.0028512,0.75594,0.0041184,0.0092568,2.3685e-08,0.68,0.38,0
0.030569,0.0035945,0.0098213,-0.00068402,0.0027412,7.9278e-05,0,0,0.0092042,-0.0044528,0,0.00020612,0,0,0,0.0098219,-0.00068461,0.0027412,0.43235,0.0039595,0.0092806,2.2998e-08,0.7,0.38,0
0.030752,0.003631,0.0094534,-0.00099576,0.0025373,-0.00017226,0,0,0.0089909,-0.004593,0,-0.00044787,0,0,0,0.0094562,-0.0009986,0.0025373,-0.9442,0.003665,0.0092108,2.1117e-08,0.72,0.38,0
0.030928,0.0036591,0.0085396,-0.0018568,0.0020048,-0.00029719,0,0,0.0084952,-0.0050202,0,-0.0007727,0,0,0,0.0085481,-0.0018653,0.0020048,-1.6361,0.0028959,0.0091168,1.6626e-08,0.74,0.38,0
0.031091,0.0037238,0.0082625,-0.00072987,0.0022598,-0.00027252,0,0,0.037637,-0.0069958,0,-0.003648,0,0,0,0.0082718,-0.00073911,0.0022598,-1.9196,0.0032641,0.0080935,9.0526e-09,0.76,0.38,0
0.032434,0.00367,0.0090396,0.0021338,0.003352,0.0005917,0,0,0.066545,-0.014253,0,0.013846,0,0,0,0.0090899,0.0020835,0.003352,4.862,0.0048418,0.0064662,1.2104e-08,0.78,0.38,0
0.033753,0.003374,0.0093969,0.0015102,0.0032721,0.00032002,0,0,0.07166,-0.020615,0,0.0074884,0,0,0,0.0094099,0.0014972,0.0032721,2.3198,0.0047264,0.0071914,1.525e-08,0.8,0.38,0
0.0353,0.0033146,0.010114,0.00090887,0.0033068,0.00042776,0,0,0.079641,-0.028055,0,0.010009,0,0,0,0.010134,0.00088904,0.0033068,2.655,0.0047764,0.0083039,2.1221e-08,0.82,0.38,0
0.036939,0.0033091,0.010279,0.0005194,0.0032395,0.00039817,0,0,0.08236,-0.031824,0,0.0093172,0,0,0,0.010295,0.00050319,0.0032395,2.3324,0.0046792,0.0087506,2.3411e-08,0.84,0.38,0
0.038595,0.0033274,0.010195,0.00021597,0.0031233,0.00036105,0,0,0.082739,-0.034016,0,0.0084486,0,0,0,0.010208,0.00020292,0.0031233,2.0694,0.0045114,0.0089114,2.3623e-08,0.86,0.38,0
0.040248,0.0033576,0.01007,-3.4617e-07,0.0030207,0.00031855,0,0,0.08247,-0.035347,0,0.007454,0,0,0,0.010079,-1.0413e-05,0.0030207,1.8101,0.0043633,0.0089672,2.3273e-08,0.88,0.38,0
0.041893,0.0033918,0.0099474,-0.00015469,0.0029378,0.00027058,0,0,0.082012,-0.036182,0,0.0063316,0,0,0,0.0099547,-0.00016193,0.0029378,1.5332,0.0042435,0.0089775,2.2778e-08,0.9,0.38,0
0.043529,0.003425,0.0098432,-0.00026423,0.0028737,0.0002189,0,0,0.081543,-0.036714,0,0.0051223,0,0,0,0.0098479,-0.00026897,0.0028737,1.2401,0.0041509,0.0089685,2.2298e-08,0.92,0.38,0
0.045155,0.0034535,0.009761,-0.00034046,0.0028262,0.00016516,0,0,0.081138,-0.037049,0,0.0038648,0,0,0,0.0097637,-0.00034316,0.0028262,0.93646,0.0040822,0.0089533,2.1897e-08,0.94,0.38,0
0.046774,0.0034753,0.0097022,-0.00039065,0.0027935,0.00011043,0,0,0.080832,-0.037254,0,0.0025839,0,0,0,0.0097034,-0.00039185,0.0027935,0.62677,0.004035,0.0089389,2.1601e-08,0.96,0.38,0
0.048388,0.0034889,0.009667,-0.00041919,0.0027743,5.528e-05,0,0,0.080644,-0.037364,0,0.0012936,0,0,0,0.0096673,-0.00041949,0.0027743,0.31401,0.0040074,0.008929,2.1421e-08,0.98,0.38,0
0.05,0.0034935,0.0096552,-0.00042845,0.002768,9.8299e-06,0,0,0.08058,-0.037399,0,0.00023002,0,0,0,0.0096553,-0.00042846,0.002768,0.055854,0.0039983,0.0089256,2.1361e-08,1,0.38,0
0,0,0.0076603,0.003283,0.003283,0.00022215,0,0,0.051214,-1.0842e-18,0,0.0051982,0,0,0,0.0076715,0.0032717,0.003283,2.8978,0.0047421,0.0043942,4.3576e-09,0,0.4,0
0.0010243,0.00010396,0.0076276,0.0029265,0.0031662,0.00021943,0,0,0.052198,-0.0028049,0,0.0051347,0,0,0,0.0076378,0.0029163,0.0031662,2.6667,0.0045734,0.0046016,4.9547e-09,0.02,0.4,0
0.0020879,0.00021643,0.007747,0.0026583,0.0031216,0.0002194,0,0,0.054117,-0.0054202,0,0.0051339,0,0,0,0.0077564,0.0026489,0.0031216,2.4642,0.004509,0.0048883,5.8107e-09,0.04,0.4,0
0.003189,0.0003343,0.0078641,0.0024093,0.003082,0.00021017,0,0,0.05595,-0.0078708,0,0.004918,0,0,0,0.0078722,0.0024012,0.003082,2.2032,0.0044518,0.0051643,6.6614e-09,0.06,0.4,0
0.0043259,0.00045485,0.0079803,0.0021781,0.0030475,0.00019251,0,0,0.057714,-0.010172,0,0.0045048,0,0,0,0.0079867,0.0021717,0.0030475,1.8982,0.0044019,0.0054303,7.5082e-09,0.08,0.4,0
0.0054975,0.00057565,0.0080966,0.0019638,0.0030181,0.00016704,0,0,0.059418,-0.012335,0,0.0039088,0,0,0,0.0081011,0.0019593,0.0030181,1.5591,0.0043595,0.0056868,8.3526e-09,0.1,0.4,0
0.0067026,0.00069458,0.0082137,0.0017665,0.0029941,0.00013432,0,0,0.06107,-0.014363,0,0.0031432,0,0,0,0.0082165,0.0017637,0.0029941,1.193,0.0043248,0.0059341,9.1961e-09,0.12,0.4,0
0.0079403,0.00080983,0.0083326,0.0015863,0.0029757,9.4928e-05,0,0,0.062676,-0.016256,0,0.0022213,0,0,0,0.0083339,0.0015849,0.0029757,0.806,0.0042982,0.0061723,1.0041e-08,0.14,0.4,0
0.0092097,0.00091993,0.0084539,0.0014239,0.0029633,4.9466e-05,0,0,0.06424,-0.018011,0,0.0011575,0,0,0,0.0084542,0.0014235,0.0029633,0.40313,0.0042804,0.0064012,1.0889e-08,0.16,0.4,0
0.01051,0.0010238,0.0085785,0.0012803,0.0029576,-1.3452e-06,0,0,0.065764,-0.019624,0,-3.1478e-05,0,0,0,0.0085785,0.0012803,0.0029576,-0.010561,0.0042721,0.0066208,1.1743e-08,0.18,0.4,0
0.01184,0.0011208,0.0087072,0.0011571,0.0029593,-5.6606e-05,0,0,0.06725,-0.021086,0,-0.0013246,0,0,0,0.0087076,0.0011566,0.0029593,-0.42954,0.0042745,0.0068304,1.2604e-08,0.2,0.4,0
0.0132,0.001211,0.008841,0.0010561,0.0029691,-0.00011509,0,0,0.068701,-0.022382,0,-0.0026932,0,0,0,0.0088427,0.0010544,0.0029691,-0.84684,0.0042887,0.0070293,1.3476e-08,0.22,0.4,0
0.014588,0.001295,0.0089809,0.00098,0.0029883,-0.00017501,0,0,0.070114,-0.023497,0,-0.0040953,0,0,0,0.0089847,0.00097618,0.0029883,-1.2525,0.0043164,0.007216,1.4359e-08,0.24,0.4,0
0.016005,0.0013746,0.0091281,0.00093251,0.0030182,-0.00023353,0,0,0.071486,-0.024402,0,-0.0054647,0,0,0,0.0091348,0.00092586,0.0030182,-1.6309,0.0043596,0.0073884,1.525e-08,0.26,0.4,0
0.017448,0.0014529,0.0092838,0.00091866,0.0030607,-0.00028606,0,0,0.07281,-0.025062,0,-0.0066937,0,0,0,0.0092936,0.00090889,0.0030607,-1.9563,0.0044211,0.0075426,1.6141e-08,0.28,0.4,0
0.018917,0.0015353,0.0094493,0.00094554,0.0031184,-0.00032493,0,0,0.074071,-0.025423,0,-0.0076033,0,0,0,0.0094617,0.00093314,0.0031184,-2.185,0.0045044,0.0076729,1.7013e-08,0.3,0.4,0
0.020411,0.0016299,0.0096258,0.0010231,0.0031947,-0.0003374,0,0,0.075244,-0.025407,0,-0.0078952,0,0,0,0.009639,0.0010099,0.0031947,-2.2426,0.0046145,0.0077706,1.783e-08,0.32,0.4,0
0.021927,0.0017496,0.0098117,0.0011656,0.0032932,-0.00030325,0,0,0.076267,-0.024893,0,-0.0070961,0,0,0,0.0098223,0.001155,0.0032932,-2.0063,0.0047568,0.0078206,1.8516e-08,0.34,0.4,0
0.023461,0.0019124,0.0099919,0.0013953,0.0034162,-0.00019041,0,0,0.076936,-0.023644,0,-0.0044556,0,0,0,0.0099961,0.0013911,0.0034162,-1.2683,0.0049345,0.0077924,1.8881e-08,0.36,0.4,0
0.025004,0.0021439,0.010068,0.0017375,0.0035415,2.3397e-05,0,0,0.076354,-0.021106,0,0.00054748,0,0,0,0.010068,0.0017375,0.0035415,0.16093,0.0051155,0.0075906,1.8256e-08,0.38,0.4,0
0.026515,0.0024517,0.010006,0.0024106,0.0037249,0.0002817,0,0,0.073485,-0.015377,0,0.0065918,0,0,0,0.010016,0.0024002,0.0037249,2.1212,0.0053804,0.0070475,1.5858e-08,0.4,0.4,0
0.027943,0.0027692,0.0097809,0.00015488,0.0029807,0.00043017,0,0,0.040576,-0.0066125,0,0.006031,0,0,0,0.0098035,0.00013226,0.0029807,2.8981,0.0043055,0.0087207,1.7737e-08,0.42,0.4,0
0.028138,0.0028858,0.01006,-0.00043982,0.002886,-4.7275e-05,0,0,0.009326,-0.0043236,0,-0.00012292,0,0,0,0.01006,-0.00044003,0.002886,-0.25797,0.0041687,0.0092946,2.4147e-08,0.44,0.4,0
0.028317,0.002968,0.0098016,-0.00040006,0.0028205,-0.00042069,0,0,0.0090755,-0.0041867,0,-0.0010938,0,0,0,0.0098189,-0.00041738,0.0028205,-2.3574,0.004074,0.0090621,2.2426e-08,0.46,0.4,0
0.028501,0.003022,0.010084,-0.0002994,0.0029353,-0.00053127,0,0,0.0092931,-0.0042052,0,-0.0013813,0,0,0,0.010111,-0.00032651,0.0029353,-2.9214,0.0042399,0.0092485,2.4251e-08,0.48,0.4,0
0.028688,0.0030689,0.010159,-0.0002422,0.002975,-0.00040056,0,0,0.009339,-0.0041823,0,-0.0010415,0,0,0,0.010174,-0.0002576,0.002975,-2.2022,0.0042972,0.0092493,2.4541e-08,0.5,0.4,0
0.028875,0.0031151,0.010166,-9.8749e-05,0.0030201,-0.00024824,0,0,0.0092894,-0.0040545,0,-0.00064543,0,0,0,0.010172,-0.00010475,0.0030201,-1.3846,0.0043624,0.0091247,2.4153e-08,0.52,0.4,0
0.02906,0.0031624,0.010125,6.0672e-05,0.0030556,-0.00013236,0,0,0.0091899,-0.0038935,0,-0.00034413,0,0,0,0.010127,5.8932e-05,0.0030556,-0.75335,0.0044137,0.0089536,2.3426e-08,0.54,0.4,0
0.029243,0.0032098,0.010085,0.00019307,0.0030833,-7.6612e-05,0,0,0.0091017,-0.0037573,0,-0.00019919,0,0,0,0.010085,0.00019248,0.0030833,-0.44373,0.0044537,0.0088105,2.2801e-08,0.56,0.4,0
0.029424,0.0032559,0.010063,0.00024799,0.0030932,-6.5128e-05,0,0,0.0090602,-0.0036987,0,-0.00016933,0,0,0,0.010063,0.00024756,0.0030932,-0.38018,0.0044679,0.0087469,2.2508e-08,0.58,0.4,0
0.029605,0.0032996,0.010072,0.00020617,0.0030833,-7.1918e-05,0,0,0.0090847,-0.0037403,0,-0.00018699,0,0,0,0.010072,0.00020565,0.0030833,-0.41765,0.0044537,0.0087884,2.2678e-08,0.6,0.4,0
0.029787,0.003341,0.010111,6.7836e-05,0.0030535,-6.7233e-05,0,0,0.0091742,-0.0038814,0,-0.00017481,0,0,0,0.010111,6.7386e-05,0.0030535,-0.38355,0.0044107,0.0089331,2.3297e-08,0.62,0.4,0
0.029972,0.0033812,0.010162,-0.00014629,0.0030048,-2.553e-05,0,0,0.0093049,-0.0040965,0,-6.6377e-05,0,0,0,0.010162,-0.00014635,0.0030048,-0.14189,0.0043403,0.0091497,2.4189e-08,0.64,0.4,0
0.030159,0.0034216,0.010199,-0.00038288,0.0029448,6.8033e-05,0,0,0.0094304,-0.004326,0,0.00017688,0,0,0,0.0102,-0.00038332,0.0029448,0.36834,0.0042537,0.0093729,2.502e-08,0.66,0.4,0
0.030349,0.0034637,0.010146,-0.00059181,0.0028663,0.00019164,0,0,0.0094639,-0.0044956,0,0.00049828,0,0,0,0.01015,-0.00059523,0.0028663,1.0221,0.0041402,0.0094995,2.5136e-08,0.68,0.4,0
0.030538,0.0035064,0.0099244,-0.00069939,0.0027675,0.00030016,0,0,0.009304,-0.004507,0,0.00078042,0,0,0,0.0099329,-0.00070787,0.0027675,1.6171,0.0039975,0.009398,2.3818e-08,0.7,0.4,0
0.030721,0.0035455,0.009386,-0.00079387,0.0025776,0.00026017,0,0,0.0088509,-0.004383,0,0.00067645,0,0,0,0.0093927,-0.00080052,0.0025776,1.4631,0.0037233,0.0089932,2.0372e-08,0.72,0.4,0
0.030892,0.0035679,0.009857,-0.0007152,0.0027425,5.8319e-05,0,0,0.0092488,-0.004495,0,0.00015163,0,0,0,0.0098573,-0.00071552,0.0027425,0.31605,0.0039614,0.0093371,2.3304e-08,0.74,0.4,0
0.031091,0.0035594,0.0093541,-0.0010082,0.0025038,-0.000276,0,0,0.040306,-0.008218,0,-0.0059614,0,0,0,0.009373,-0.001027,0.0025038,-2.2249,0.0036166,0.0093034,1.424e-08,0.76,0.4,0
0.032504,0.0033173,0.0097302,0.0017793,0.0034528,-0.00035462,0,0,0.073445,-0.019581,0,-0.0082982,0,0,0,0.009746,0.0017635,0.0034528,-2.5487,0.0049875,0.0072862,1.6324e-08,0.78,0.4,0
0.034029,0.0029896,0.01004,0.0015319,0.0034715,2.0706e-05,0,0,0.076849,-0.022694,0,0.00048453,0,0,0,0.01004,0.0015318,0.0034715,0.13944,0.0050144,0.0077231,1.8723e-08,0.8,0.4,0
0.035578,0.0027714,0.0099941,0.00091942,0.0032741,0.00033567,0,0,0.078624,-0.027549,0,0.0078546,0,0,0,0.010006,0.00090702,0.0032741,2.1155,0.0047292,0.0081771,2.0351e-08,0.82,0.4,0
0.037174,0.0026839,0.010026,0.00052085,0.003164,0.00047195,0,0,0.080283,-0.030925,0,0.011044,0,0,0,0.010049,0.00049747,0.003164,2.8356,0.0045702,0.0085367,2.1757e-08,0.84,0.4,0
0.038789,0.0026564,0.0099754,0.00024789,0.003067,0.0004785,0,0,0.080828,-0.032983,0,0.011197,0,0,0,0.0099988,0.00022441,0.003067,2.8094,0.0044301,0.0087083,2.2135e-08,0.86,0.4,0
0.040407,0.0026592,0.0098821,4.8395e-05,0.0029791,0.00043726,0,0,0.080765,-0.03429,0,0.010232,0,0,0,0.0099015,2.899e-05,0.0029791,2.541,0.0043032,0.0087775,2.1968e-08,0.88,0.4,0
0.04202,0.0026764,0.0097854,-9.6997e-05,0.0029065,0.00037535,0,0,0.080483,-0.035141,0,0.0087832,0,0,0,0.0097996,-0.00011123,0.0029065,2.172,0.0041983,0.0087991,2.1621e-08,0.9,0.4,0
0.043626,0.0026986,0.0097001,-0.00020228,0.0028494,0.00030438,0,0,0.080154,-0.035704,0,0.0071226,0,0,0,0.0097095,-0.00021163,0.0028494,1.759,0.0041157,0.0087994,2.1254e-08,0.92,0.4,0
0.045226,0.0027202,0.0096319,-0.00027665,0.0028066,0.00022958,0,0,0.079856,-0.036074,0,0.0053721,0,0,0,0.0096372,-0.00028196,0.0028066,1.3266,0.0040539,0.0087916,2.0937e-08,0.94,0.4,0
0.046821,0.0027377,0.0095826,-0.00032612,0.0027769,0.00015334,0,0,0.079626,-0.036306,0,0.0035882,0,0,0,0.009585,-0.00032849,0.0027769,0.88639,0.0040111,0.0087826,2.0699e-08,0.96,0.4,0
0.048411,0.0027489,0.0095529,-0.00035445,0.0027595,7.6701e-05,0,0,0.079483,-0.036434,0,0.0017948,0,0,0,0.0095535,-0.00035504,0.0027595,0.44354,0.003986,0.0087761,2.0553e-08,0.98,0.4,0
0.05,0.0027528,0.009543,-0.00036368,0.0027538,8.2515e-06,0,0,0.079434,-0.036475,0,0.00019308,0,0,0,0.0095431,-0.00036368,0.0027538,0.047723,0.0039777,0.0087737,2.0504e-08,1,0.4,0
0,0,0.0076117,0.0032622,0.0032622,0.00010449,0,0,0.05089,2.1684e-19,0,0.0024451,0,0,0,0.0076142,0.0032596,0.0032622,1.3754,0.004712,0.0043533,4.2372e-09,0,0.42,0
0.0010178,4.8902e-05,0.0075803,0.0029201,0.0031501,0.00010174,0,0,0.051833,-0.0026915,0,0.0023806,0,0,0,0.0075825,0.0029179,0.0031501,1.25,0.0045502,0.004553,4.8049e-09,0.02,0.42,0
0.0020733,0.00011,0.0076946,0.0026621,0.003107,0.00010455,0,0,0.053675,-0.0052051,0,0.0024466,0,0,0,0.0076968,0.00266,0.003107,1.1897,0.0044879,0.0048288,5.6161e-09,0.04,0.42,0
0.0031648,0.00017974,0.0078065,0.0024224,0.0030687,9.6872e-05,0,0,0.055433,-0.0075617,0,0.0022668,0,0,0,0.0078083,0.0024206,0.0030687,1.0304,0.0044325,0.0050946,6.4225e-09,0.06,0.42,0
0.0042907,0.00025509,0.0079172,0.0021996,0.003035,7.9766e-05,0,0,0.057121,-0.0097747,0,0.0018665,0,0,0,0.0079183,0.0021985,0.003035,0.79912,0.0043839,0.0053508,7.2243e-09,0.08,0.42,0
0.0054496,0.00033344,0.0080274,0.0019932,0.0030062,5.4067e-05,0,0,0.058748,-0.011852,0,0.0012652,0,0,0,0.0080278,0.0019927,0.0030062,0.51333,0.0043422,0.0055976,8.0219e-09,0.1,0.42,0
0.0066406,0.0004126,0.0081377,0.0018031,0.0029822,2.0455e-05,0,0,0.060319,-0.013796,0,0.00047864,0,0,0,0.0081378,0.001803,0.0029822,0.18501,0.0043077,0.0058353,8.8163e-09,0.12,0.42,0
0.0078624,0.00049074,0.0082489,0.0016295,0.0029635,-2.047e-05,0,0,0.061839,-0.015608,0,-0.00047901,0,0,0,0.008249,0.0016294,0.0029635,-0.17718,0.0042807,0.0060636,9.6082e-09,0.14,0.42,0
0.0091141,0.00056645,0.0083615,0.0014731,0.0029504,-6.812e-05,0,0,0.06331,-0.017284,0,-0.001594,0,0,0,0.0083622,0.0014725,0.0029504,-0.56653,0.0042617,0.0062825,1.0399e-08,0.16,0.42,0
0.010395,0.00063877,0.0084762,0.0013349,0.0029433,-0.00012185,0,0,0.064734,-0.018819,0,-0.0028513,0,0,0,0.0084782,0.0013328,0.0029433,-0.97727,0.0042515,0.0064918,1.1189e-08,0.18,0.42,0
0.011704,0.00070722,0.0085935,0.001216,0.0029429,-0.00018088,0,0,0.066113,-0.020204,0,-0.0042325,0,0,0,0.008598,0.0012116,0.0029429,-1.4036,0.0042508,0.0066909,1.1982e-08,0.2,0.42,0
0.013039,0.00077202,0.0087146,0.0011182,0.0029498,-0.00024412,0,0,0.067448,-0.021431,0,-0.0057123,0,0,0,0.0087224,0.0011103,0.0029498,-1.8387,0.0042609,0.0068794,1.2777e-08,0.22,0.42,0
0.014401,0.00083418,0.0088406,0.0010433,0.0029652,-0.00030997,0,0,0.068742,-0.022486,0,-0.0072534,0,0,0,0.0088529,0.001031,0.0029652,-2.273,0.0042831,0.0070565,1.3579e-08,0.24,0.42,0
0.015789,0.00089583,0.0089734,0.0009942,0.0029903,-0.00037596,0,0,0.070003,-0.023354,0,-0.0087974,0,0,0,0.0089911,0.00097653,0.0029903,-2.6917,0.0043193,0.0072214,1.4391e-08,0.26,0.42,0
0.017202,0.00096065,0.0091159,0.00097404,0.003027,-0.00043809,0,0,0.071241,-0.02402,0,-0.010251,0,0,0,0.0091394,0.00095053,0.003027,-3.0711,0.0043723,0.0073733,1.5216e-08,0.28,0.42,0
0.018639,0.0010345,0.0092733,0.00098706,0.0030781,-0.00048989,0,0,0.072484,-0.024465,0,-0.011463,0,0,0,0.0093022,0.0009582,0.0030781,-3.3718,0.0044462,0.0075118,1.6066e-08,0.3,0.42,0
0.020101,0.0011265,0.0094548,0.0010389,0.0031481,-0.00052089,0,0,0.073789,-0.024678,0,-0.012189,0,0,0,0.0094869,0.0010068,0.0031481,-3.5283,0.0045473,0.0076381,1.6966e-08,0.32,0.42,0
0.02159,0.0012503,0.0096775,0.0011379,0.0032446,-0.00051314,0,0,0.075264,-0.024648,0,-0.012008,0,0,0,0.0097082,0.0011072,0.0032446,-3.4265,0.0046867,0.0077564,1.7972e-08,0.34,0.42,0
0.023112,0.0014274,0.0099701,0.0013,0.003381,-0.00043673,0,0,0.077092,-0.024348,0,-0.010219,0,0,0,0.009992,0.001278,0.003381,-2.8764,0.0048837,0.0078759,1.919e-08,0.36,0.42,0
0.024674,0.0016892,0.010359,0.0015593,0.0035755,-0.00021485,0,0,0.079369,-0.023591,0,-0.0050276,0,0,0,0.010365,0.001554,0.0035755,-1.3978,0.0051647,0.0079938,2.0687e-08,0.38,0.42,0
0.026286,0.0021044,0.010469,0.0018861,0.0037065,0.00016539,0,0,0.079122,-0.0213,0,0.0038702,0,0,0,0.010472,0.0018829,0.0037065,1.1035,0.0053539,0.0078383,2.0293e-08,0.4,0.42,0
0.027839,0.0026338,0.0091695,-0.0011153,0.0024163,-0.00013343,0,0,0.04328,-0.0082638,0,0.0064805,0,0,0,0.0092307,-0.0011765,0.0024163,0.54833,0.0034902,0.0093382,1.151e-08,0.42,0.42,0
0.028017,0.002808,0.010502,8.6946e-06,0.0031531,0.0003215,0,0,0.0095532,-0.0040878,0,0.00083589,0,0,0,0.010512,-1.1466e-06,0.0031531,1.7533,0.0045545,0.0093438,2.6369e-08,0.44,0.42,0
0.028221,0.0028818,0.011039,-9.9867e-05,0.0032818,-0.00053661,0,0,0.010085,-0.0043962,0,-0.0013952,0,0,0,0.011065,-0.00012566,0.0032818,-2.7516,0.0047404,0.0099354,3.1125e-08,0.46,0.42,0
0.028421,0.0029348,0.010788,-0.00043039,0.0031074,-0.00047395,0,0,0.0099852,-0.0045991,0,-0.0012323,0,0,0,0.010808,-0.00045037,0.0031074,-2.4148,0.0044884,0.0099679,2.9888e-08,0.48,0.42,0
0.02862,0.0029818,0.010667,-0.00038512,0.0030847,-0.00032625,0,0,0.0098576,-0.0045108,0,-0.00084826,0,0,0,0.010677,-0.00039475,0.0030847,-1.6893,0.0044557,0.0098065,2.8685e-08,0.5,0.42,0
0.028815,0.0030315,0.010483,-0.00023874,0.0030733,-0.00014436,0,0,0.0096327,-0.0043057,0,-0.00037534,0,0,0,0.010485,-0.00024068,0.0030733,-0.77125,0.0044392,0.009512,2.6796e-08,0.52,0.42,0
0.029006,0.003083,0.010356,7.7989e-06,0.003109,-4.4255e-05,0,0,0.0094206,-0.0040316,0,-0.00011506,0,0,0,0.010356,7.6097e-06,0.003109,-0.24503,0.0044908,0.0091984,2.5192e-08,0.54,0.42,0
0.029192,0.0031339,0.010253,0.00019627,0.0031348,-1.999e-05,0,0,0.0092537,-0.0038201,0,-5.1973e-05,0,0,0,0.010253,0.00019623,0.0031348,-0.11389,0.004528,0.0089566,2.3957e-08,0.56,0.42,0
0.029376,0.0031815,0.010201,0.00028072,0.0031444,-4.9223e-05,0,0,0.0091731,-0.0037228,0,-0.00012798,0,0,0,0.010201,0.00028047,0.0031444,-0.28429,0.0045419,0.0088434,2.3367e-08,0.58,0.42,0
0.029559,0.0032245,0.010199,0.00024154,0.0031323,-9.6352e-05,0,0,0.0091873,-0.003758,0,-0.00025051,0,0,0,0.0102,0.00024061,0.0031323,-0.55432,0.0045244,0.0088746,2.347e-08,0.6,0.42,0
0.029743,0.0032628,0.010247,7.8745e-05,0.0030978,-0.00013022,0,0,0.0092943,-0.0039248,0,-0.00033858,0,0,0,0.010249,7.7077e-05,0.0030978,-0.73359,0.0044746,0.009048,2.4241e-08,0.62,0.42,0
0.029931,0.003298,0.010337,-0.00018782,0.0030449,-0.00011319,0,0,0.0094804,-0.0042026,0,-0.00029429,0,0,0,0.010339,-0.00018904,0.0030449,-0.61606,0.0043982,0.0093406,2.557e-08,0.64,0.42,0
0.030122,0.0033332,0.010436,-0.00050781,0.0029786,-1.721e-05,0,0,0.0096952,-0.0045323,0,-4.4745e-05,0,0,0,0.010436,-0.00050784,0.0029786,-0.090096,0.0043024,0.0096838,2.7083e-08,0.66,0.42,0
0.030318,0.0033713,0.010561,-0.00072001,0.0029524,0.0001735,0,0,0.0098916,-0.0047741,0,0.00045109,0,0,0,0.010564,-0.00072268,0.0029524,0.88089,0.0042645,0.0099707,2.8583e-08,0.68,0.42,0
0.030518,0.0034142,0.010604,-0.00080837,0.0029386,0.00037233,0,0,0.0099647,-0.0048711,0,0.00096805,0,0,0,0.010616,-0.00082051,0.0029386,1.8666,0.0042447,0.010096,2.9224e-08,0.7,0.42,0
0.030717,0.0034556,0.010826,-0.00053382,0.0030877,0.00053295,0,0,0.01006,-0.004708,0,0.0013857,0,0,0,0.010851,-0.00055877,0.0030877,2.6801,0.00446,0.010093,3.052e-08,0.72,0.42,0
0.030921,0.0034793,0.010314,-0.00070085,0.002884,-0.00025706,0,0,0.0096593,-0.0046603,0,-0.00066836,0,0,0,0.01032,-0.00070684,0.002884,-1.3361,0.0041658,0.0097414,2.6652e-08,0.74,0.42,0
0.031103,0.0033951,0.0089371,-0.0020402,0.0020691,8.7935e-05,0,0,0.043777,-0.0096156,0,-0.0080728,0,0,0,0.0090117,-0.0021148,0.0020691,-1.0729,0.0029887,0.0099465,7.1764e-09,0.76,0.42,0
0.032672,0.0028867,0.010379,0.0013192,0.0035095,-0.00027949,0,0,0.080373,-0.025626,0,-0.00654,0,0,0,0.010388,0.0013106,0.0035095,-1.7653,0.0050692,0.0082017,2.1618e-08,0.78,0.42,0
0.034318,0.0024662,0.010384,0.0010927,0.0034431,0.000118,0,0,0.081212,-0.0275,0,0.0027612,0,0,0,0.010386,0.0010912,0.0034431,0.72747,0.0049733,0.0083703,2.2295e-08,0.8,0.42,0
0.03592,0.0022127,0.010052,0.00082573,0.0032634,0.00042818,0,0,0.079429,-0.02852,0,0.01002,0,0,0,0.010072,0.0008059,0.0032634,2.6514,0.0047138,0.0083144,2.1057e-08,0.82,0.42,0
0.037496,0.0020721,0.0098292,0.00051967,0.0031047,0.00055645,0,0,0.078677,-0.030245,0,0.013021,0,0,0,0.0098624,0.00048653,0.0031047,3.4085,0.0044845,0.0083794,2.057e-08,0.84,0.42,0
0.039067,0.0020081,0.0097141,0.00028735,0.0030004,0.00057454,0,0,0.07855,-0.031743,0,0.013444,0,0,0,0.009749,0.00025247,0.0030004,3.4749,0.004334,0.008464,2.0436e-08,0.86,0.42,0
0.040638,0.001986,0.0096269,0.00011119,0.0029214,0.00053017,0,0,0.078454,-0.03288,0,0.012406,0,0,0,0.0096563,8.1739e-05,0.0029214,3.1791,0.0042198,0.0085175,2.0253e-08,0.88,0.42,0
0.042205,0.0019862,0.0095519,-2.2372e-05,0.0028588,0.00045738,0,0,0.078308,-0.03371,0,0.010703,0,0,0,0.0095736,-4.4173e-05,0.0028588,2.7289,0.0041294,0.0085445,2.0018e-08,0.9,0.42,0
0.04377,0.0019968,0.0094886,-0.00012205,0.00281,0.00037175,0,0,0.07814,-0.034305,0,0.008699,0,0,0,0.009503,-0.00013641,0.00281,2.2119,0.0040588,0.0085556,1.9777e-08,0.92,0.42,0
0.045331,0.0020106,0.0094383,-0.00019408,0.0027733,0.00028068,0,0,0.077981,-0.034718,0,0.0065679,0,0,0,0.0094465,-0.00020225,0.0027733,1.6677,0.0040059,0.0085582,1.9566e-08,0.94,0.42,0
0.046889,0.0020231,0.009402,-0.00024276,0.0027478,0.00018756,0,0,0.077854,-0.034989,0,0.0043889,0,0,0,0.0094056,-0.0002464,0.0027478,1.1137,0.003969,0.0085573,1.9406e-08,0.96,0.42,0
0.048445,0.0020315,0.00938,-0.00027091,0.0027327,9.3833e-05,0,0,0.077773,-0.035143,0,0.0021957,0,0,0,0.0093809,-0.00027183,0.0027327,0.557,0.0039473,0.0085557,1.9306e-08,0.98,0.42,0
0.05,0.0020345,0.0093726,-0.00028013,0.0027278,6.3382e-06,0,0,0.077745,-0.035192,0,0.00014831,0,0,0,0.0093727,-0.00028013,0.0027278,0.037621,0.0039401,0.0085551,1.9272e-08,1,0.42,0
0,0,0.0075498,0.0032356,0.0032356,-7.8956e-06,0,0,0.050476,5.421e-19,0,-0.00018476,0,0,0,0.0075498,0.0032356,0.0032356,-0.10486,0.0046737,0.0043142,4.124e-09,0,0.44,0
0.0010095,-3.6952e-06,0.0075199,0.0029102,0.003129,-1.0588e-05,0,0,0.051373,-0.0025604,0,-0.00024776,0,0,0,0.0075199,0.0029102,0.003129,-0.1316,0.0045197,0.0045043,4.6563e-09,0.02,0.44,0
0.0020549,8.2241e-06,0.0076283,0.0026638,0.0030876,-4.9012e-06,0,0,0.053126,-0.0049588,0,-0.00011469,0,0,0,0.0076283,0.0026638,0.0030876,-0.056565,0.0044599,0.0047668,5.4147e-09,0.04,0.44,0
0.0031345,3.1834e-05,0.0077342,0.0024342,0.0030505,-1.0751e-05,0,0,0.054799,-0.0072106,0,-0.00025157,0,0,0,0.0077342,0.0024342,0.0030505,-0.11622,0.0044063,0.0050203,6.1695e-09,0.06,0.44,0
0.0042469,6.386e-05,0.0078383,0.0022206,0.0030177,-2.6788e-05,0,0,0.056402,-0.0093256,0,-0.00062683,0,0,0,0.0078385,0.0022205,0.0030177,-0.2732,0.0043589,0.0052648,6.9193e-09,0.08,0.44,0
0.0053906,0.00010157,0.0079413,0.0020226,0.0029892,-5.1995e-05,0,0,0.05794,-0.011309,0,-0.0012167,0,0,0,0.0079417,0.0020221,0.0029892,-0.50328,0.0043177,0.0055002,7.6631e-09,0.1,0.44,0
0.0065645,0.00014272,0.0080435,0.0018402,0.0029651,-8.5583e-05,0,0,0.059417,-0.013161,0,-0.0020026,0,0,0,0.0080447,0.001839,0.0029651,-0.79027,0.0042829,0.0057263,8.4003e-09,0.12,0.44,0
0.0077673,0.0001855,0.0081453,0.0016738,0.0029457,-0.0001269,0,0,0.060835,-0.014882,0,-0.0029695,0,0,0,0.0081478,0.0016713,0.0029457,-1.123,0.004255,0.0059427,9.1301e-09,0.14,0.44,0
0.0089979,0.00022856,0.0082471,0.001524,0.0029313,-0.00017538,0,0,0.062194,-0.016466,0,-0.0041039,0,0,0,0.0082516,0.0015194,0.0029313,-1.4933,0.0042341,0.0061491,9.852e-09,0.16,0.44,0
0.010255,0.00027105,0.0083491,0.0013916,0.0029222,-0.00023043,0,0,0.063494,-0.017908,0,-0.005392,0,0,0,0.0083567,0.001384,0.0029222,-1.8948,0.004221,0.006345,1.0566e-08,0.18,0.44,0
0.011538,0.00031266,0.0084518,0.0012779,0.0029189,-0.00029138,0,0,0.064735,-0.0192,0,-0.0068183,0,0,0,0.0084636,0.0012661,0.0029189,-2.3221,0.0042162,0.0065299,1.1271e-08,0.2,0.44,0
0.012845,0.00035375,0.0085558,0.001184,0.0029219,-0.00035737,0,0,0.065916,-0.020334,0,-0.0083623,0,0,0,0.0085731,0.0011667,0.0029219,-2.7689,0.0042206,0.0067034,1.1968e-08,0.22,0.44,0
0.014174,0.00039555,0.0086621,0.0011116,0.0029321,-0.00042715,0,0,0.067041,-0.0213,0,-0.0099953,0,0,0,0.0086862,0.0010875,0.0029321,-3.2276,0.0042353,0.0068648,1.2659e-08,0.24,0.44,0
0.015526,0.0004404,0.0087723,0.0010623,0.0029504,-0.00049891,0,0,0.068116,-0.022091,0,-0.011674,0,0,0,0.0088044,0.0010301,0.0029504,-3.687,0.0042616,0.0070142,1.3347e-08,0.26,0.44,0
0.016899,0.00049214,0.0088892,0.0010379,0.0029781,-0.0005699,0,0,0.069159,-0.0227,0,-0.013336,0,0,0,0.0089303,0.00099679,0.0029781,-4.1301,0.0043018,0.0071518,1.4039e-08,0.28,0.44,0
0.018292,0.00055668,0.0090179,0.0010406,0.0030176,-0.0006361,0,0,0.070204,-0.02313,0,-0.014885,0,0,0,0.0090683,0.00099019,0.0030176,-4.5305,0.0043587,0.0072794,1.4752e-08,0.3,0.44,0
0.019707,0.00064282,0.0091681,0.0010723,0.0030721,-0.00069153,0,0,0.071323,-0.023398,0,-0.016182,0,0,0,0.0092267,0.0010137,0.0030721,-4.8473,0.0044375,0.0074017,1.5524e-08,0.32,0.44,0
0.021145,0.00076365,0.0093587,0.0011364,0.0031485,-0.00072765,0,0,0.072659,-0.023542,0,-0.017027,0,0,0,0.0094226,0.0010725,0.0031485,-5.0185,0.0045479,0.0075299,1.6438e-08,0.34,0.44,0
0.022614,0.00093848,0.0096301,0.0012408,0.0032613,-0.00072856,0,0,0.074515,-0.02364,0,-0.017048,0,0,0,0.0096929,0.001178,0.0032613,-4.9266,0.0047107,0.007688,1.7689e-08,0.36,0.44,0
0.024126,0.0012003,0.010114,0.0014326,0.0034639,-0.00067192,0,0,0.077802,-0.023766,0,-0.015723,0,0,0,0.010165,0.0013809,0.0034639,-4.3998,0.0050034,0.0079502,1.996e-08,0.38,0.44,0
0.025726,0.0015997,0.011069,0.0018023,0.0038613,-0.00030044,0,0,0.084325,-0.02409,0,-0.0070303,0,0,0,0.011078,0.0017926,0.0038613,-1.8551,0.0055774,0.0084436,2.4773e-08,0.4,0.44,0
0.027499,0.0024386,0.0157,-2.7662e-05,0.0047017,-0.00093175,0,0,0.043718,-0.016297,0,-0.010591,0,0,0,0.015764,-9.2095e-05,0.0047017,-4.2077,0.0067913,0.01409,1.5036e-07,0.42,0.44,0
0.027924,0.0027223,0.0093619,0.00076319,0.0030375,0.00051168,0,0,0.017662,-0.006013,0,0.0047822,0,0,0,0.0094006,0.00072457,0.0030375,5.1954,0.0043876,0.0077819,4.3008e-08,0.44,0.44,0
0.028134,0.0027922,0.011814,0.00010966,0.0035771,0.0001043,0,0,0.010708,-0.0045077,0,0.00027119,0,0,0,0.011815,0.00010873,0.0035771,0.51054,0.005167,0.010415,3.7069e-08,0.46,0.44,0
0.028352,0.002838,0.011512,-0.00029515,0.0033651,-0.00024602,0,0,0.010591,-0.0047583,0,-0.00063966,0,0,0,0.011517,-0.00030028,0.0033651,-1.1931,0.0048607,0.010477,3.5625e-08,0.48,0.44,0
0.028558,0.0028885,0.010903,-0.00062282,0.0030841,-8.8575e-05,0,0,0.010165,-0.004819,0,-0.0002303,0,0,0,0.010904,-0.0006235,0.0030841,-0.44027,0.0044549,0.010193,3.1126e-08,0.5,0.44,0
0.028759,0.0029429,0.010714,-0.0003346,0.0031139,2.6294e-05,0,0,0.0098805,-0.004483,0,6.8364e-05,0,0,0,0.010714,-0.00033467,0.0031139,0.13635,0.0044979,0.0097913,2.8827e-08,0.52,0.44,0
0.028953,0.0030012,0.010524,-7.2068e-06,0.0031549,8.386e-05,0,0,0.0095793,-0.0041108,0,0.00021804,0,0,0,0.010524,-7.8746e-06,0.0031549,0.45623,0.0045571,0.0093605,2.6484e-08,0.54,0.44,0
0.029142,0.003057,0.010418,0.00024588,0.0031991,4.4117e-05,0,0,0.0093843,-0.0038392,0,0.0001147,0,0,0,0.010418,0.00024569,0.0031991,0.2485,0.0046209,0.0090639,2.5004e-08,0.56,0.44,0
0.029328,0.003107,0.010356,0.00033559,0.0032076,-2.8474e-05,0,0,0.0092935,-0.0037336,0,-7.4033e-05,0,0,0,0.010357,0.00033551,0.0032076,-0.1628,0.0046332,0.0089381,2.4314e-08,0.58,0.44,0
0.029514,0.0031493,0.010348,0.00029884,0.0031939,-0.00010811,0,0,0.0092998,-0.0037636,0,-0.00028108,0,0,0,0.010349,0.00029767,0.0031939,-0.61631,0.0046135,0.0089612,2.4363e-08,0.6,0.44,0
0.0297,0.003184,0.01039,0.00013404,0.0031571,-0.00018293,0,0,0.0094023,-0.00393,0,-0.00047561,0,0,0,0.010393,0.00013078,0.0031571,-1.0215,0.0045603,0.0091331,2.5135e-08,0.62,0.44,0
0.02989,0.0032131,0.010473,-0.00019672,0.0030828,-0.0002228,0,0,0.0096071,-0.0042634,0,-0.00057928,0,0,0,0.010478,-0.00020137,0.0030828,-1.1957,0.004453,0.0094738,2.6639e-08,0.64,0.44,0
0.030084,0.0032403,0.010631,-0.00060664,0.0030074,-0.00015631,0,0,0.0099112,-0.0046983,0,-0.00040639,0,0,0,0.010634,-0.00060882,0.0030074,-0.79669,0.0043441,0.0099405,2.887e-08,0.66,0.44,0
0.030286,0.0032728,0.010791,-0.00096964,0.0029463,-9.2623e-06,0,0,0.010198,-0.0050907,0,-2.4082e-05,0,0,0,0.010791,-0.00096965,0.0029463,-0.045126,0.0042558,0.010372,3.1004e-08,0.68,0.44,0
0.030492,0.0033116,0.011374,-0.00073461,0.0031918,0.00019983,0,0,0.010637,-0.0051043,0,0.00051957,0,0,0,0.011377,-0.00073791,0.0031918,0.94524,0.0046104,0.010706,3.5597e-08,0.7,0.44,0
0.030712,0.0033572,0.011731,-0.00041566,0.0033946,-6.9793e-05,0,0,0.010837,-0.0049533,0,-0.00018146,0,0,0,0.011731,-0.00041606,0.0033946,-0.3292,0.0049033,0.010761,3.7995e-08,0.72,0.44,0
0.030926,0.0033815,0.009355,0.00028224,0.0028912,-0.00051958,0,0,0.01807,-0.0069161,0,-0.0050406,0,0,0,0.0093943,0.00024292,0.0028912,-5.1595,0.0041761,0.0081565,4.5642e-08,0.74,0.44,0
0.031361,0.0031747,0.015651,-0.00099864,0.0043956,0.00080335,0,0,0.044679,-0.019038,0,0.0086593,0,0,0,0.015694,-0.001042,0.0043956,3.3248,0.0063492,0.014791,1.5724e-07,0.76,0.44,0
0.033171,0.0022923,0.011088,0.0012801,0.0037104,0.00012552,0,0,0.086318,-0.028435,0,0.0029371,0,0,0,0.01109,0.0012785,0.0037104,0.73308,0.0053595,0.0088495,2.6739e-08,0.78,0.44,0
0.034814,0.0018896,0.010157,0.00089581,0.0033158,0.00055203,0,0,0.080039,-0.028313,0,0.012918,0,0,0,0.01019,0.00086302,0.0033158,3.3993,0.0047894,0.008374,2.1665e-08,0.8,0.44,0
0.036373,0.0016306,0.0097129,0.00068418,0.0031191,0.00064097,0,0,0.077147,-0.028489,0,0.014999,0,0,0,0.0097582,0.0006389,0.0031191,4.0406,0.0045054,0.0081667,1.9522e-08,0.82,0.44,0
0.037899,0.0014742,0.0094974,0.00050549,0.0030009,0.00067656,0,0,0.076009,-0.029196,0,0.015831,0,0,0,0.009548,0.00045487,0.0030009,4.2789,0.0043346,0.008125,1.8705e-08,0.84,0.44,0
0.039413,0.0013866,0.0093781,0.00033065,0.0029126,0.00065614,0,0,0.075646,-0.030209,0,0.015354,0,0,0,0.0094255,0.00028331,0.0029126,4.1264,0.0042071,0.0081519,1.8378e-08,0.86,0.44,0
0.040925,0.001344,0.0093091,0.00018321,0.0028477,0.00059652,0,0,0.075598,-0.031174,0,0.013958,0,0,0,0.0093479,0.00014438,0.0028477,3.724,0.0041133,0.0081934,1.8232e-08,0.88,0.44,0
0.042437,0.001328,0.0092604,6.4028e-05,0.0027973,0.00051296,0,0,0.075618,-0.031979,0,0.012003,0,0,0,0.0092889,3.5505e-05,0.0027973,3.1827,0.0040406,0.0082278,1.8119e-08,0.9,0.44,0
0.04395,0.0013264,0.0092225,-2.8795e-05,0.0027581,0.00041702,0,0,0.075633,-0.032607,0,0.0097583,0,0,0,0.0092412,-4.7555e-05,0.0027581,2.5758,0.0039839,0.0082518,1.8014e-08,0.92,0.44,0
0.045463,0.0013315,0.0091929,-9.7841e-05,0.0027285,0.00031518,0,0,0.075634,-0.033069,0,0.0073752,0,0,0,0.0092036,-0.00010852,0.0027285,1.9407,0.0039412,0.0082671,1.7919e-08,0.94,0.44,0
0.046975,0.0013381,0.0091716,-0.00014542,0.0027078,0.00021081,0,0,0.075625,-0.033383,0,0.004933,0,0,0,0.0091763,-0.00015019,0.0027078,1.2955,0.0039113,0.0082763,1.7844e-08,0.96,0.44,0
0.048488,0.0013432,0.0091585,-0.00017327,0.0026956,0.00010553,0,0,0.075617,-0.033566,0,0.0024695,0,0,0,0.0091597,-0.00017447,0.0026956,0.64785,0.0038936,0.008281,1.7795e-08,0.98,0.44,0
0.05,0.0013451,0.0091542,-0.00018244,0.0026915,4.0049e-06,0,0,0.075613,-0.033625,0,9.3716e-05,0,0,0,0.0091542,-0.00018244,0.0026915,0.024577,0.0038878,0.0082825,1.7779e-08,1,0.44,0
0,0,0.0074761,0.003204,0.003204,-0.00011435,0,0,0.049983,-9.7578e-19,0,-0.0026758,0,0,0,0.0074791,0.003201,0.003204,-1.5321,0.004628,0.0042766,4.0173e-09,0,0.46,0
0.00099966,-5.3515e-05,0.0074479,0.002897,0.0031035,-0.00011686,0,0,0.05083,-0.002416,0,-0.0027344,0,0,0,0.0074509,0.002894,0.0031035,-1.4699,0.0044828,0.0044559,4.5101e-09,0.02,0.46,0
0.0020332,-8.835e-05,0.0075498,0.0026631,0.0030639,-0.00010829,0,0,0.052486,-0.0046889,0,-0.002534,0,0,0,0.0075522,0.0026607,0.0030639,-1.2689,0.0044256,0.0047029,5.2101e-09,0.04,0.46,0
0.0030991,-0.00010868,0.007649,0.0024444,0.0030281,-0.00011196,0,0,0.054066,-0.0068281,0,-0.0026199,0,0,0,0.0076514,0.002442,0.0030281,-1.2318,0.0043739,0.0049425,5.9083e-09,0.06,0.46,0
0.0041958,-0.00011793,0.007746,0.0022405,0.0029959,-0.0001263,0,0,0.055575,-0.0088386,0,-0.0029553,0,0,0,0.0077489,0.0022376,0.0029959,-1.3135,0.0043275,0.005174,6.6014e-09,0.08,0.46,0
0.0053221,-0.00011891,0.0078409,0.0020512,0.0029677,-0.00015011,0,0,0.057017,-0.010722,0,-0.0035126,0,0,0,0.0078448,0.0020473,0.0029677,-1.4842,0.0042866,0.0053965,7.2867e-09,0.1,0.46,0
0.0064765,-0.00011386,0.007934,0.0018768,0.0029433,-0.00018252,0,0,0.058392,-0.012477,0,-0.0042709,0,0,0,0.0079395,0.0018713,0.0029433,-1.7244,0.0042514,0.0056096,7.9615e-09,0.12,0.46,0
0.0076578,-0.00010453,0.0080253,0.0017178,0.0029229,-0.00022279,0,0,0.059697,-0.0141,0,-0.0052133,0,0,0,0.0080331,0.0017099,0.0029229,-2.0204,0.004222,0.0058124,8.6234e-09,0.14,0.46,0
0.0088644,-9.218e-05,0.0081147,0.0015748,0.0029068,-0.00027035,0,0,0.060932,-0.015585,0,-0.0063261,0,0,0,0.0081258,0.0015636,0.0029068,-2.3631,0.0041988,0.0060044,9.2697e-09,0.16,0.46,0
0.010095,-7.7542e-05,0.0082022,0.0014487,0.0028953,-0.00032462,0,0,0.062091,-0.016925,0,-0.007596,0,0,0,0.0082178,0.0014331,0.0028953,-2.7456,0.004182,0.0061846,9.898e-09,0.18,0.46,0
0.011348,-6.0769e-05,0.0082878,0.0013404,0.0028885,-0.00038501,0,0,0.063172,-0.018112,0,-0.0090092,0,0,0,0.0083091,0.0013192,0.0028885,-3.1623,0.0041722,0.0063524,1.0506e-08,0.2,0.46,0
0.012622,-4.1325e-05,0.0083716,0.0012511,0.0028868,-0.00045081,0,0,0.064172,-0.019138,0,-0.010549,0,0,0,0.0084,0.0012227,0.0028868,-3.6083,0.0041699,0.0065069,1.1091e-08,0.22,0.46,0
0.013915,-1.7826e-05,0.0084538,0.0011819,0.0028907,-0.00052106,0,0,0.065088,-0.019993,0,-0.012193,0,0,0,0.008491,0.0011448,0.0028907,-4.0777,0.0041755,0.0066475,1.1651e-08,0.24,0.46,0
0.015225,1.2198e-05,0.008535,0.0011339,0.0029006,-0.00059448,0,0,0.065922,-0.020671,0,-0.013911,0,0,0,0.0085824,0.0010864,0.0029006,-4.5632,0.0041898,0.0067736,1.2185e-08,0.26,0.46,0
0.016552,5.2639e-05,0.0086161,0.0011078,0.0029172,-0.0006693,0,0,0.066678,-0.02117,0,-0.015661,0,0,0,0.0086753,0.0010486,0.0029172,-5.0543,0.0042137,0.0068853,1.2695e-08,0.28,0.46,0
0.017893,0.00010929,0.0086991,0.0011042,0.002941,-0.00074315,0,0,0.06737,-0.021491,0,-0.01739,0,0,0,0.0087712,0.0010321,0.002941,-5.5363,0.0042481,0.0069831,1.3183e-08,0.3,0.46,0
0.019247,0.00019058,0.0087866,0.0011225,0.0029728,-0.00081304,0,0,0.068022,-0.021647,0,-0.019025,0,0,0,0.0088719,0.0010372,0.0029728,-5.9894,0.004294,0.0070685,1.3658e-08,0.32,0.46,0
0.020613,0.00030867,0.0088801,0.0011604,0.0030121,-0.00087479,0,0,0.068655,-0.021666,0,-0.02047,0,0,0,0.008978,0.0010625,0.0030121,-6.3848,0.0043509,0.0071431,1.4124e-08,0.34,0.46,0
0.021993,0.00048185,0.0089757,0.0012118,0.0030562,-0.00092268,0,0,0.069257,-0.02158,0,-0.021591,0,0,0,0.0090838,0.0011037,0.0030562,-6.6852,0.0044146,0.0072051,1.456e-08,0.36,0.46,0
0.023384,0.00073863,0.0089949,0.0012315,0.0030679,-0.0009336,0,0,0.069346,-0.021486,0,-0.021846,0,0,0,0.0091056,0.0011208,0.0030679,-6.7618,0.0044314,0.0072112,1.463e-08,0.38,0.46,0
0.024767,0.0011408,0.0089289,0.0012262,0.0030465,-0.00080912,0,0,0.068824,-0.021298,0,-0.018933,0,0,0,0.009013,0.0011421,0.0030465,-5.9322,0.0044006,0.0071125,1.411e-08,0.4,0.46,0
0.026137,0.0018512,0.0094768,0.00053994,0.003005,-0.00095614,0,0,0.07572,-0.028841,0,-0.022374,0,0,0,0.0095779,0.00043879,0.003005,-6.0389,0.0043406,0.0081643,1.8924e-08,0.42,0.46,0
0.027796,0.0025848,0.012599,0.00021105,0.003843,-0.00054902,0,0,0.038332,-0.014988,0,-0.010523,0,0,0,0.012653,0.00015697,0.003843,-3.7967,0.0055511,0.011122,6.6983e-08,0.44,0.46,0
0.028116,0.0027015,0.0072181,-0.00010637,0.0021335,0.00013562,0,0,0.013734,-0.0057132,0,0.00022185,0,0,0,0.0072213,-0.00010957,0.0021335,0.44905,0.0030817,0.0065064,2.2544e-08,0.46,0.46,0
0.028299,0.0027445,0.010436,-0.00065952,0.0029329,0.00016416,0,0,0.0097539,-0.0046702,0,0.00042681,0,0,0,0.010438,-0.00066195,0.0029329,0.84744,0.0042365,0.00981,2.7457e-08,0.48,0.46,0
0.028506,0.002789,0.01085,-0.00072325,0.0030379,2.1996e-05,0,0,0.010155,-0.0048895,0,5.719e-05,0,0,0,0.01085,-0.00072329,0.0030379,0.1089,0.0043881,0.010225,3.0919e-08,0.5,0.46,0
0.028705,0.0028522,0.010621,-0.0004705,0.003045,0.00019328,0,0,0.0098482,-0.0045702,0,0.00050252,0,0,0,0.010624,-0.00047387,0.003045,0.99805,0.0043984,0.0098231,2.8463e-08,0.52,0.46,0
0.0289,0.0029185,0.010634,9.6586e-05,0.0032192,0.00014234,0,0,0.0096393,-0.0040594,0,0.00037009,0,0,0,0.010636,9.4663e-05,0.0032192,0.77379,0.0046499,0.0093779,2.705e-08,0.54,0.46,0
0.029091,0.0029803,0.010584,0.00031102,0.0032684,4.3551e-05,0,0,0.0095099,-0.0038446,0,0.00011323,0,0,0,0.010584,0.00031083,0.0032684,0.2429,0.0047211,0.0091597,2.6043e-08,0.56,0.46,0
0.029281,0.0030322,0.010592,0.00036508,0.0032871,-3.1112e-05,0,0,0.0094962,-0.0037986,0,-8.0892e-05,0,0,0,0.010592,0.00036498,0.0032871,-0.17431,0.004748,0.0091238,2.5945e-08,0.58,0.46,0
0.029471,0.0030739,0.010578,0.00032964,0.0032722,-8.3818e-05,0,0,0.0094973,-0.0038254,0,-0.00021793,0,0,0,0.010578,0.00032895,0.0032722,-0.46857,0.0047266,0.0091405,2.595e-08,0.6,0.46,0
0.02966,0.0031056,0.010543,0.00020339,0.003224,-0.00015937,0,0,0.009515,-0.0039268,0,-0.00041436,0,0,0,0.010546,0.00020093,0.003224,-0.88282,0.0046569,0.009213,2.607e-08,0.62,0.46,0
0.029851,0.0031275,0.010566,-9.3602e-05,0.0031417,-0.00025694,0,0,0.0096515,-0.0042059,0,-0.00066805,0,0,0,0.010572,-9.9792e-05,0.0031417,-1.38,0.004538,0.0094765,2.7094e-08,0.64,0.46,0
0.030047,0.0031453,0.010531,-0.00075299,0.0029333,-0.00029282,0,0,0.0098767,-0.0047922,0,-0.00076134,0,0,0,0.010538,-0.00076058,0.0029333,-1.4855,0.004237,0.0099787,2.8467e-08,0.66,0.46,0
0.030246,0.0031676,0.010727,-0.0011233,0.0028811,-9.347e-05,0,0,0.0102,-0.0052057,0,-0.00024302,0,0,0,0.010728,-0.001124,0.0028811,-0.45189,0.0041615,0.010442,3.0812e-08,0.68,0.46,0
0.030454,0.00321,0.010329,-0.0011298,0.0027598,-0.00017658,0,0,0.0098402,-0.0050565,0,-0.00045911,0,0,0,0.010332,-0.0011325,0.0027598,-0.88264,0.0039864,0.010098,2.7625e-08,0.7,0.46,0
0.03064,0.0032575,0.0071653,-0.00051074,0.0019964,-0.00014528,0,0,0.01398,-0.0064552,0,-0.00032145,0,0,0,0.0071686,-0.00051403,0.0019964,-0.55802,0.0028837,0.0067855,2.3191e-08,0.72,0.46,0
0.030967,0.0032229,0.012478,-0.0006505,0.0035484,0.00043734,0,0,0.039139,-0.017406,0,0.009012,0,0,0,0.012516,-0.00068826,0.0035484,3.0006,0.0051254,0.011678,6.9328e-08,0.74,0.46,0
0.032661,0.0024732,0.009444,-9.8155e-05,0.0028037,0.00079323,0,0,0.077691,-0.033952,0,0.018562,0,0,0,0.0095095,-0.00016365,0.0028037,4.7198,0.0040498,0.0085831,1.9876e-08,0.76,0.46,0
0.034074,0.0017493,0.0089539,0.0006982,0.0028956,0.00064865,0,0,0.070882,-0.02571,0,0.015178,0,0,0,0.0090046,0.00064754,0.0028956,4.4652,0.0041826,0.0074904,1.521e-08,0.78,0.46,0
0.035497,0.0013337,0.0090199,0.00066648,0.0029059,0.00078199,0,0,0.071533,-0.026201,0,0.018298,0,0,0,0.0090924,0.00059391,0.0029059,5.3022,0.0041974,0.0076106,1.5796e-08,0.8,0.46,0
0.036936,0.0010731,0.0090435,0.00061719,0.0028982,0.00078932,0,0,0.0719,-0.026688,0,0.01847,0,0,0,0.0091168,0.00054389,0.0028982,5.3056,0.0041863,0.0076717,1.6039e-08,0.82,0.46,0
0.038373,0.0009043,0.0089955,0.00050566,0.0028504,0.00075698,0,0,0.071898,-0.027433,0,0.017713,0,0,0,0.0090625,0.0004387,0.0028504,5.0555,0.0041172,0.0077064,1.5979e-08,0.84,0.46,0
0.039811,0.00079971,0.0089601,0.00038147,0.0028025,0.00070347,0,0,0.072044,-0.028326,0,0.016461,0,0,0,0.0090174,0.00032417,0.0028025,4.657,0.004048,0.0077569,1.5981e-08,0.86,0.46,0
0.041254,0.000739,0.0089386,0.00026124,0.00276,0.00062889,0,0,0.07229,-0.029235,0,0.014716,0,0,0,0.008984,0.00021589,0.00276,4.1238,0.0039866,0.0078131,1.6027e-08,0.88,0.46,0
0.042703,0.00070699,0.0089261,0.00015677,0.0027249,0.00053844,0,0,0.072554,-0.030047,0,0.012599,0,0,0,0.008959,0.00012384,0.0027249,3.5004,0.0039359,0.0078642,1.6079e-08,0.9,0.46,0
0.044157,0.00069254,0.0089171,7.1531e-05,0.0026966,0.00043776,0,0,0.07278,-0.030713,0,0.010243,0,0,0,0.0089387,4.992e-05,0.0026966,2.8263,0.0038951,0.007905,1.6116e-08,0.92,0.46,0
0.045614,0.00068786,0.0089099,6.1484e-06,0.0026748,0.00033132,0,0,0.072951,-0.031223,0,0.0077529,0,0,0,0.0089222,-6.1633e-06,0.0026748,2.1281,0.0038636,0.0079352,1.6136e-08,0.94,0.46,0
0.047075,0.00068775,0.0089044,-3.9828e-05,0.0026594,0.00022194,0,0,0.073067,-0.03158,0,0.0051934,0,0,0,0.0089099,-4.5332e-05,0.0026594,1.4206,0.0038413,0.0079555,1.6144e-08,0.96,0.46,0
0.048537,0.00068889,0.0089008,-6.7071e-05,0.0026501,0.00011122,0,0,0.073133,-0.031791,0,0.0026025,0,0,0,0.0089022,-6.845e-05,0.0026501,0.71043,0.003828,0.0079671,1.6146e-08,0.98,0.46,0
0.05,0.00068947,0.0088996,-7.6091e-05,0.002647,1.2315e-06,0,0,0.073154,-0.031861,0,2.8817e-05,0,0,0,0.0088996,-7.6091e-05,0.002647,0.0078613,0.0038235,0.0079709,1.6147e-08,1,0.46,0
0,0,0.0073925,0.0031682,0.0031682,-0.00021439,0,0,0.049424,-2.1684e-19,0,-0.0050168,0,0,0,0.0074034,0.0031574,0.0031682,-2.898,0.0045763,0.0042406,3.9164e-09,0,0.48,0
0.00098848,-0.00010033,0.0073662,0.0028806,0.0030741,-0.00021658,0,0,0.050218,-0.002263,0,-0.005068,0,0,0,0.0073767,0.0028702,0.0030741,-2.7579,0.0044403,0.0044081,4.3674e-09,0.02,0.48,0
0.0020087,-0.00017933,0.0074612,0.0026599,0.0030364,-0.00020516,0,0,0.051771,-0.0044043,0,-0.0048007,0,0,0,0.00747,0.0026512,0.0030364,-2.4423,0.0043858,0.0046383,5.0059e-09,0.04,0.48,0
0.0030593,-0.00024129,0.0075534,0.0024525,0.0030018,-0.00020628,0,0,0.053254,-0.0064264,0,-0.004827,0,0,0,0.0075617,0.0024442,0.0030018,-2.312,0.0043359,0.0048628,5.6449e-09,0.06,0.48,0
0.0041389,-0.00028968,0.0076428,0.0022584,0.0029704,-0.00021821,0,0,0.054667,-0.0083295,0,-0.0051061,0,0,0,0.0076516,0.0022496,0.0029704,-2.317,0.0042905,0.0050801,6.279e-09,0.08,0.48,0
0.005246,-0.00032731,0.0077293,0.002078,0.0029422,-0.00023964,0,0,0.056009,-0.010111,0,-0.0056075,0,0,0,0.0077394,0.0020678,0.0029422,-2.4238,0.0042498,0.0052889,6.9035e-09,0.1,0.48,0
0.0063793,-0.00035636,0.0078127,0.0019116,0.0029173,-0.00026955,0,0,0.057277,-0.011767,0,-0.0063075,0,0,0,0.007825,0.0018993,0.0029173,-2.6099,0.0042139,0.005488,7.514e-09,0.12,0.48,0
0.0075371,-0.0003785,0.0078928,0.0017599,0.0028958,-0.00030717,0,0,0.058465,-0.01329,0,-0.0071877,0,0,0,0.0079081,0.0017445,0.0028958,-2.8601,0.0041828,0.0056762,8.1058e-09,0.14,0.48,0
0.0087178,-0.00039483,0.0079691,0.0016236,0.0028778,-0.00035183,0,0,0.059568,-0.014674,0,-0.0082328,0,0,0,0.0079886,0.0016042,0.0028778,-3.1638,0.0041569,0.0058525,8.6743e-09,0.16,0.48,0
0.0099198,-0.00040595,0.0080413,0.0015036,0.0028635,-0.00040294,0,0,0.06058,-0.01591,0,-0.0094287,0,0,0,0.008066,0.0014789,0.0028635,-3.5136,0.0041361,0.0060156,9.2147e-09,0.18,0.48,0
0.011141,-0.00041183,0.0081087,0.0014009,0.0028529,-0.00045989,0,0,0.061493,-0.016989,0,-0.010761,0,0,0,0.0081401,0.0013695,0.0028529,-3.9038,0.0041208,0.0061643,9.722e-09,0.2,0.48,0
0.01238,-0.00041175,0.0081709,0.0013162,0.0028461,-0.00052198,0,0,0.0623,-0.0179,0,-0.012214,0,0,0,0.0082104,0.0012767,0.0028461,-4.3297,0.0041111,0.0062974,1.0191e-08,0.22,0.48,0
0.013633,-0.00040417,0.0082271,0.0012505,0.0028433,-0.00058832,0,0,0.062991,-0.018636,0,-0.013767,0,0,0,0.0082764,0.0012012,0.0028433,-4.7866,0.0041069,0.0064138,1.0615e-08,0.24,0.48,0
0.014899,-0.00038646,0.0082766,0.0012043,0.0028443,-0.00065776,0,0,0.063558,-0.019188,0,-0.015392,0,0,0,0.0083372,0.0011436,0.0028443,-5.2686,0.0041084,0.0065121,1.0989e-08,0.26,0.48,0
0.016175,-0.00035465,0.0083183,0.0011778,0.0028488,-0.00072871,0,0,0.063993,-0.019551,0,-0.017052,0,0,0,0.008392,0.0011042,0.0028488,-5.7679,0.004115,0.006591,1.1305e-08,0.28,0.48,0
0.017459,-0.00030295,0.0083263,0.0011239,0.0028351,-0.00080469,0,0,0.064248,-0.020021,0,-0.01883,0,0,0,0.0084152,0.0010351,0.0028351,-6.2979,0.0040951,0.006665,1.1549e-08,0.3,0.48,0
0.018747,-0.00022307,0.0083504,0.0011322,0.0028448,-0.00084727,0,0,0.064416,-0.020037,0,-0.019826,0,0,0,0.0084485,0.0010341,0.0028448,-6.6058,0.0041091,0.0066953,1.1698e-08,0.32,0.48,0
0.020035,-0.00010298,0.0083697,0.0012021,0.0028716,-0.00092126,0,0,0.064329,-0.019533,0,-0.021558,0,0,0,0.0084862,0.0010856,0.0028716,-7.2082,0.0041478,0.0066889,1.1756e-08,0.34,0.48,0
0.02132,7.5294e-05,0.0083323,0.0012235,0.0028668,-0.00095383,0,0,0.063947,-0.019226,0,-0.02232,0,0,0,0.0084581,0.0010978,0.0028668,-7.5108,0.0041409,0.0066546,1.1606e-08,0.36,0.48,0
0.022593,0.00034086,0.0082692,0.0012338,0.0028509,-0.00092497,0,0,0.063394,-0.01892,0,-0.021644,0,0,0,0.0083888,0.0011142,0.0028509,-7.3661,0.0041179,0.0065804,1.127e-08,0.38,0.48,0
0.023856,0.00074777,0.0083322,0.0011592,0.0028474,-0.00084464,0,0,0.064172,-0.019752,0,-0.019765,0,0,0,0.0084303,0.0010611,0.0028474,-6.626,0.0041129,0.0066583,1.1562e-08,0.4,0.48,0
0.02516,0.001285,0.0080767,0.00034053,0.0025252,-0.0007473,0,0,0.064953,-0.02556,0,-0.017487,0,0,0,0.0081482,0.00026901,0.0025252,-5.4673,0.0036475,0.0070282,1.1832e-08,0.42,0.48,0
0.026454,0.0019606,0.0086305,-4.2827e-05,0.0025763,-0.0011111,0,0,0.070834,-0.030644,0,-0.025999,0,0,0,0.0087706,-0.0001829,0.0025763,-7.1852,0.0037213,0.0079419,1.5651e-08,0.44,0.48,0
0.027993,0.0025754,0.011357,2.6799e-05,0.0034153,-0.00096348,0,0,0.03527,-0.014434,0,-0.013173,0,0,0,0.011459,-7.5079e-05,0.0034153,-5.8539,0.0049332,0.010245,4.9599e-08,0.46,0.48,0
0.028282,0.0026512,0.0063888,-0.00058832,0.0017402,-0.00017852,0,0,0.012449,-0.0059721,0,-0.0022083,0,0,0,0.0063981,-0.00059755,0.0017402,-3.0874,0.0025136,0.0061686,1.6847e-08,0.48,0.48,0
0.028452,0.0026929,0.0094348,-0.0015496,0.0023656,2.4528e-05,0,0,0.00919,-0.0050897,0,6.3773e-05,0,0,0,0.0094348,-0.0015497,0.0023656,0.12794,0.0034169,0.0096427,2.1788e-08,0.5,0.48,0
0.028649,0.0027601,0.010538,-0.00023781,0.0030901,3.4907e-05,0,0,0.0096826,-0.0043263,0,9.0759e-05,0,0,0,0.010538,-0.00023792,0.0030901,0.1856,0.0044636,0.0095572,2.7197e-08,0.52,0.48,0
0.028839,0.0028388,0.01062,0.00019732,0.0032452,-4.8888e-05,0,0,0.0095872,-0.0039622,0,-0.00012711,0,0,0,0.01062,0.00019709,0.0032452,-0.26874,0.0046875,0.0092823,2.6642e-08,0.54,0.48,0
0.029033,0.0029033,0.010882,0.00026967,0.0033454,-0.0001246,0,0,0.009797,-0.0039984,0,-0.00032397,0,0,0,0.010883,0.00026821,0.0033454,-0.67264,0.0048322,0.0094594,2.847e-08,0.56,0.48,0
0.029231,0.002955,0.011084,0.00030416,0.0034164,-8.3486e-05,0,0,0.0099677,-0.0040459,0,-0.00021706,0,0,0,0.011085,0.00030351,0.0034164,-0.4437,0.0049348,0.0096104,2.9985e-08,0.58,0.48,0
0.029431,0.0029963,0.011068,0.00026902,0.0034012,-3.4021e-06,0,0,0.0099673,-0.0040719,0,-8.8454e-06,0,0,0,0.011068,0.00026902,0.0034012,-0.01805,0.0049129,0.0096235,2.9961e-08,0.6,0.48,0
0.02963,0.003027,0.010834,0.00016162,0.0032987,3.7137e-05,0,0,0.0097961,-0.0040783,0,9.6555e-05,0,0,0,0.010834,0.00016149,0.0032987,0.19936,0.0047648,0.0095009,2.8402e-08,0.62,0.48,0
0.029823,0.0030448,0.01055,1.1615e-05,0.0031684,-3.7168e-05,0,0,0.0095958,-0.0041039,0,-9.6638e-05,0,0,0,0.01055,1.1484e-05,0.0031684,-0.20208,0.0045766,0.0093679,2.6625e-08,0.64,0.48,0
0.030014,0.0030486,0.010435,-0.00054782,0.0029661,-0.0001155,0,0,0.0097093,-0.0045681,0,-0.00030029,0,0,0,0.010436,-0.00054904,0.0029661,-0.60245,0.0042843,0.0097166,2.7177e-08,0.66,0.48,0
0.030212,0.0030645,0.0093289,-0.0019663,0.0022088,-6.14e-05,0,0,0.0092562,-0.0054276,0,-0.00015964,0,0,0,0.0093292,-0.0019666,0.0022088,-0.31144,0.0031905,0.0098927,2.1548e-08,0.68,0.48,0
0.030384,0.0031093,0.006331,-0.00093814,0.0016179,0.00015978,0,0,0.012636,-0.0066109,0,0.0020997,0,0,0,0.0063389,-0.00094603,0.0016179,2.7955,0.0023369,0.0064005,1.7007e-08,0.7,0.48,0
0.030677,0.0031137,0.011227,-0.00071922,0.0031522,0.00086125,0,0,0.035893,-0.016532,0,0.011848,0,0,0,0.011305,-0.00079733,0.0031522,5.0073,0.0045532,0.010689,5.0636e-08,0.72,0.48,0
0.032245,0.0024957,0.0085815,-0.00063088,0.0023852,0.00097026,0,0,0.072497,-0.035288,0,0.022704,0,0,0,0.0086826,-0.00073196,0.0023852,5.9475,0.0034453,0.0083069,1.6081e-08,0.74,0.48,0
0.033577,0.0018166,0.0080703,-0.00021048,0.002358,0.00058879,0,0,0.066835,-0.030051,0,0.013778,0,0,0,0.008112,-0.00025213,0.002358,4.0468,0.0034059,0.0074122,1.2509e-08,0.76,0.48,0
0.034918,0.0012639,0.0083312,0.00060143,0.0026798,0.00066618,0,0,0.066122,-0.024317,0,0.015589,0,0,0,0.0083882,0.00054444,0.0026798,4.8899,0.0038708,0.0070239,1.2409e-08,0.78,0.48,0
0.036222,0.00084159,0.0082921,0.00066485,0.0026871,0.00074853,0,0,0.065579,-0.02366,0,0.017515,0,0,0,0.0083649,0.00059209,0.0026871,5.5523,0.0038813,0.0069657,1.2212e-08,0.8,0.48,0
0.037541,0.0005631,0.0083819,0.00061425,0.0026988,0.00078159,0,0,0.066492,-0.02439,0,0.018289,0,0,0,0.0084597,0.00053638,0.0026988,5.6892,0.0038983,0.0070938,1.2754e-08,0.82,0.48,0
0.038881,0.00037684,0.0084595,0.0005371,0.002699,0.0007532,0,0,0.067398,-0.025294,0,0.017625,0,0,0,0.0085305,0.00046613,0.002699,5.383,0.0038985,0.007212,1.3223e-08,0.84,0.48,0
0.040237,0.00025362,0.0085075,0.00044018,0.0026843,0.00069603,0,0,0.068132,-0.026256,0,0.016287,0,0,0,0.0085671,0.00038057,0.0026843,4.8951,0.0038773,0.0073121,1.3565e-08,0.86,0.48,0
0.041607,0.00017464,0.0085425,0.00034117,0.0026651,0.00062062,0,0,0.068765,-0.02719,0,0.014522,0,0,0,0.0085892,0.00029448,0.0026651,4.3031,0.0038496,0.0073999,1.3838e-08,0.88,0.48,0
0.042988,0.00012613,0.0085693,0.00025004,0.0026458,0.00053172,0,0,0.069305,-0.028031,0,0.012442,0,0,0,0.0086032,0.0002162,0.0026458,3.6422,0.0038217,0.0074745,1.4056e-08,0.9,0.48,0
0.044379,9.7915e-05,0.0085898,0.00017271,0.0026288,0.00043338,0,0,0.069745,-0.028736,0,0.010141,0,0,0,0.0086121,0.00015045,0.0026288,2.9397,0.0037971,0.0075346,1.4224e-08,0.92,0.48,0
0.045778,8.2561e-05,0.0085766,5.9946e-05,0.002591,0.00032473,0,0,0.070032,-0.029613,0,0.0075986,0,0,0,0.008589,4.7583e-05,0.002591,2.1804,0.0037425,0.0075961,1.4298e-08,0.94,0.48,0
0.047182,7.4904e-05,0.0085983,2.1967e-05,0.0025861,0.00022134,0,0,0.070343,-0.03,0,0.0051794,0,0,0,0.008604,1.6258e-05,0.0025861,1.4774,0.0037354,0.0076344,1.443e-08,0.96,0.48,0
0.04859,7.157e-05,0.0086198,4.1833e-05,0.0025985,0.00011086,0,0,0.070449,-0.029913,0,0.0025941,0,0,0,0.0086212,4.0401e-05,0.0025985,0.74032,0.0037534,0.0076304,1.4473e-08,0.98,0.48,0
0.05,7.0663e-05,0.0086215,3.3113e-05,0.0025964,-1.9385e-06,0,0,0.070494,-0.02999,0,-4.536e-05,0,0,0,0.0086215,3.3112e-05,0.0025964,-0.012932,0.0037503,0.0076365,1.4488e-08,1,0.48,0
0,0,0.0073012,0.0031291,0.0031291,-0.00030777,0,0,0.048813,0,0,-0.0072018,0,0,0,0.0073237,0.0031065,0.0031291,-4.1964,0.0045198,0.004206,3.8211e-09,0,0.5,0
0.00097627,-0.00014404,0.0072768,0.0028614,0.0030414,-0.00030951,0,0,0.049553,-0.0021067,0,-0.0072426,0,0,0,0.0072984,0.0028398,0.0030414,-3.9904,0.0043932,0.0043612,4.2297e-09,0.02,0.5,0
0.0019821,-0.00026452,0.0073648,0.002654,0.0030056,-0.00029527,0,0,0.051002,-0.0041144,0,-0.0069094,0,0,0,0.0073832,0.0026355,0.0030056,-3.5726,0.0043415,0.0045739,4.8061e-09,0.04,0.5,0
0.0030164,-0.00036574,0.0074498,0.0024579,0.0029723,-0.00029349,0,0,0.052387,-0.0060189,0,-0.0068676,0,0,0,0.007467,0.0024407,0.0029723,-3.3531,0.0042933,0.0047827,5.3855e-09,0.06,0.5,0
0.0040776,-0.00045111,0.0075316,0.0022736,0.0029415,-0.00030231,0,0,0.053703,-0.0078149,0,-0.007074,0,0,0,0.0075489,0.0022563,0.0029415,-3.2799,0.0042489,0.0049854,5.9606e-09,0.08,0.5,0
0.0051645,-0.00052335,0.007573,0.0020737,0.002894,-0.00032308,0,0,0.054745,-0.009598,0,-0.00756,0,0,0,0.007592,0.0020548,0.002894,-3.3507,0.0041802,0.0051689,6.4671e-09,0.1,0.5,0
0.0062754,-0.00058452,0.0077037,0.0019374,0.0028923,-0.00034167,0,0,0.056293,-0.011173,0,-0.0079951,0,0,0,0.0077239,0.0019172,0.0028923,-3.3792,0.0041778,0.0053857,7.1448e-09,0.12,0.5,0
0.0074087,-0.00063614,0.0077522,0.0017983,0.0028652,-0.00037971,0,0,0.057179,-0.012482,0,-0.0088853,0,0,0,0.0077764,0.0017742,0.0028652,-3.6344,0.0041386,0.0055379,7.5942e-09,0.14,0.5,0
0.0085626,-0.00067915,0.0078156,0.0016683,0.0028452,-0.00041947,0,0,0.058154,-0.013769,0,-0.0098155,0,0,0,0.0078441,0.0016398,0.0028452,-3.8857,0.0041097,0.005698,8.0868e-09,0.16,0.5,0
0.0097349,-0.00071395,0.0078725,0.001554,0.002828,-0.00046499,0,0,0.059021,-0.014905,0,-0.010881,0,0,0,0.0079065,0.00152,0.002828,-4.1864,0.0040848,0.0058434,8.5422e-09,0.18,0.5,0
0.010923,-0.00074031,0.007922,0.0014562,0.0028135,-0.00051557,0,0,0.05977,-0.01588,0,-0.012064,0,0,0,0.0079629,0.0014153,0.0028135,-4.5304,0.0040639,0.0059725,8.9533e-09,0.2,0.5,0
0.012126,-0.00075733,0.0079631,0.0013756,0.0028016,-0.00057038,0,0,0.060389,-0.016684,0,-0.013347,0,0,0,0.0080121,0.0013265,0.0028016,-4.9122,0.0040467,0.0060837,9.3124e-09,0.22,0.5,0
0.013339,-0.00076326,0.0079942,0.0013127,0.0027921,-0.00062838,0,0,0.060865,-0.017308,0,-0.014704,0,0,0,0.0080527,0.0012542,0.0027921,-5.3264,0.004033,0.006175,9.611e-09,0.24,0.5,0
0.01456,-0.00075532,0.0080136,0.0012679,0.0027844,-0.00068818,0,0,0.061181,-0.017744,0,-0.016103,0,0,0,0.0080831,0.0011984,0.0027844,-5.766,0.004022,0.0062446,9.8393e-09,0.26,0.5,0
0.015786,-0.00072942,0.0080191,0.0012405,0.0027779,-0.00074779,0,0,0.061322,-0.017987,0,-0.017498,0,0,0,0.0081006,0.001159,0.0027779,-6.221,0.0040125,0.0062904,9.9858e-09,0.28,0.5,0
0.017013,-0.00067971,0.0080285,0.0012708,0.0027898,-0.00081302,0,0,0.061293,-0.017772,0,-0.019025,0,0,0,0.0081249,0.0011744,0.0027898,-6.7647,0.0040297,0.0063001,1.0053e-08,0.3,0.5,0
0.018237,-0.00059799,0.0079825,0.0012681,0.0027752,-0.00083203,0,0,0.060926,-0.017633,0,-0.01947,0,0,0,0.0080841,0.0011665,0.0027752,-6.9596,0.0040086,0.00627,9.9057e-09,0.32,0.5,0
0.019453,-0.00047263,0.0079154,0.0012375,0.0027459,-0.0008851,0,0,0.060484,-0.017648,0,-0.020711,0,0,0,0.0080307,0.0011222,0.0027459,-7.4233,0.0039662,0.0062568,9.7814e-09,0.34,0.5,0
0.020656,-0.00028718,0.0078336,0.0012363,0.002721,-0.00088672,0,0,0.059818,-0.01737,0,-0.020749,0,0,0,0.0079507,0.0011192,0.002721,-7.5231,0.0039303,0.0061881,9.4764e-09,0.36,0.5,0
0.021846,-1.8185e-05,0.0077633,0.0011929,0.0026869,-0.00084856,0,0,0.059394,-0.017479,0,-0.019856,0,0,0,0.0078711,0.0010851,0.0026869,-7.2415,0.003881,0.0061437,9.2369e-09,0.38,0.5,0
0.023032,0.0003507,0.0076722,0.00095801,0.0025891,-0.00078098,0,0,0.059473,-0.019083,0,-0.018275,0,0,0,0.0077618,0.00086837,0.0025891,-6.548,0.0037398,0.0062144,9.2143e-09,0.4,0.5,0
0.024224,0.00082878,0.0076806,0.00059179,0.0024817,-0.00080481,0,0,0.060827,-0.022112,0,-0.018832,0,0,0,0.0077708,0.00050157,0.0024817,-6.3965,0.0035847,0.0065091,9.8702e-09,0.42,0.5,0
0.025465,0.001359,0.0074556,-0.00010752,0.0022044,-0.00085508,0,0,0.061439,-0.02705,0,-0.020009,0,0,0,0.0075511,-0.00020299,0.0022044,-6.3707,0.0031842,0.0068741,1.0048e-08,0.44,0.5,0
0.026682,0.0019615,0.0077261,-0.00039288,0.0022,-0.0013345,0,0,0.064656,-0.030336,0,-0.031227,0,0,0,0.0079398,-0.00060659,0.0022,-9.0985,0.0031777,0.0075453,1.2218e-08,0.46,0.5,0
0.028127,0.0025187,0.0098762,-0.00053526,0.0028023,-0.0013126,0,0,0.028284,-0.012544,0,-0.013222,0,0,0,0.010048,-0.00070723,0.0028023,-7.9894,0.0040478,0.0095004,4.0811e-08,0.48,0.5,0
0.0284,0.0025854,0.0065187,-0.00068444,0.0017503,3.0959e-05,0,0,0.012252,-0.0069942,0,-0.0048743,0,0,0,0.0065866,-0.00075238,0.0017503,-5.4268,0.0025282,0.0064643,1.9108e-08,0.5,0.5,0
0.028563,0.0026791,0.0097599,-0.00034428,0.0028247,-0.00062456,0,0,0.0090158,-0.0041197,0,-0.0016239,0,0,0,0.0097984,-0.00038274,0.0028247,-3.5237,0.0040801,0.0090159,2.2214e-08,0.52,0.5,0
0.028752,0.0027601,0.01075,-3.0399e-05,0.0032157,-0.00047844,0,0,0.0097939,-0.00422,0,-0.0012439,0,0,0,0.010771,-5.1591e-05,0.0032157,-2.5363,0.004645,0.0096145,2.851e-08,0.54,0.5,0
0.028962,0.0028204,0.011925,0.00028962,0.0036643,-0.00043224,0,0,0.010738,-0.0043871,0,-0.0011238,0,0,0,0.011941,0.00027358,0.0036643,-2.1246,0.0052928,0.010395,3.7678e-08,0.56,0.5,0
0.029179,0.0028703,0.012095,0.00026863,0.003709,-0.00012837,0,0,0.010901,-0.0044725,0,-0.00033377,0,0,0,0.012096,0.00026724,0.003709,-0.62184,0.0053575,0.010538,3.9206e-08,0.58,0.5,0
0.029398,0.0029111,0.012085,0.00023442,0.0036957,5.9697e-05,0,0,0.010906,-0.0044997,0,0.00015521,0,0,0,0.012085,0.00023413,0.0036957,0.28863,0.0053383,0.010555,3.9219e-08,0.6,0.5,0
0.029616,0.0029425,0.011887,0.0001815,0.0036206,0.00036586,0,0,0.010746,-0.0044708,0,0.00095125,0,0,0,0.011898,0.00017007,0.0036206,1.7885,0.0052297,0.01044,3.7645e-08,0.62,0.5,0
0.029826,0.0029633,0.010677,-0.00022178,0.0031367,0.00040472,0,0,0.009803,-0.004366,0,0.0010523,0,0,0,0.010693,-0.00023678,0.0031367,2.1237,0.0045308,0.0096933,2.8395e-08,0.64,0.5,0
0.030015,0.0029626,0.0093655,-0.00081068,0.0025665,0.0008412,0,0,0.0088388,-0.0043903,0,0.0021871,0,0,0,0.0094346,-0.00087975,0.0025665,4.6938,0.0037071,0.0090949,2.0777e-08,0.66,0.5,0
0.030179,0.0029505,0.0055251,-0.0020068,0.0010555,0.00066699,0,0,0.011951,-0.0081426,0,0.0066889,0,0,0,0.0056074,-0.0020891,0.0010555,8.2883,0.0015246,0.0067024,1.2249e-08,0.68,0.5,0
0.030455,0.0029613,0.010357,-0.0011704,0.002756,0.0013438,0,0,0.033666,-0.016346,0,0.015,0,0,0,0.010521,-0.0013349,0.002756,7.2883,0.0039809,0.010432,4.2484e-08,0.7,0.5,0
0.031923,0.0024094,0.0079619,-0.00076875,0.002158,0.0011196,0,0,0.067906,-0.034242,0,0.026198,0,0,0,0.0081032,-0.00091004,0.002158,7.1924,0.003117,0.0079372,1.3353e-08,0.72,0.5,0
0.033172,0.0018114,0.0074324,-0.00061777,0.0020444,0.00071234,0,0,0.06304,-0.031147,0,0.016669,0,0,0,0.0074949,-0.00068031,0.0020444,5.018,0.002953,0.00721,1.0396e-08,0.74,0.5,0
0.034444,0.0012711,0.0076574,5.3605e-05,0.0023133,0.00063135,0,0,0.062526,-0.026438,0,0.014774,0,0,0,0.0077094,1.5388e-06,0.0023133,4.7143,0.0033414,0.0068511,1.04e-08,0.76,0.5,0
0.035673,0.00077667,0.0076664,0.00041107,0.0024232,0.00059201,0,0,0.061345,-0.023542,0,0.013853,0,0,0,0.0077144,0.00036308,0.0024232,4.6342,0.0035002,0.0065682,9.8723e-09,0.78,0.5,0
0.036898,0.00038729,0.0077722,0.00062072,0.0025179,0.00065,0,0,0.061476,-0.022197,0,0.01521,0,0,0,0.0078308,0.00056213,0.0025179,5.1514,0.0036369,0.0065148,1.0006e-08,0.8,0.5,0
0.038132,9.7534e-05,0.0078662,0.00062612,0.0025477,0.00068371,0,0,0.062226,-0.022482,0,0.015999,0,0,0,0.0079302,0.00056212,0.0025477,5.3477,0.00368,0.0066031,1.0404e-08,0.82,0.5,0
0.039387,-0.00010746,0.0079785,0.00057303,0.0025655,0.00067705,0,0,0.063333,-0.023311,0,0.015843,0,0,0,0.0080399,0.00051164,0.0025655,5.181,0.0037057,0.0067403,1.0945e-08,0.84,0.5,0
0.040665,-0.00025054,0.0080757,0.00049802,0.0025721,0.00063616,0,0,0.064392,-0.024267,0,0.014886,0,0,0,0.0081287,0.00044498,0.0025721,4.7657,0.0037153,0.0068717,1.144e-08,0.86,0.5,0
0.041963,-0.0003486,0.0081525,0.00041608,0.0025706,0.00057311,0,0,0.065309,-0.025208,0,0.013411,0,0,0,0.0081947,0.00037386,0.0025706,4.2138,0.0037131,0.0069865,1.1855e-08,0.88,0.5,0
0.043278,-0.00041423,0.0082124,0.00033755,0.002565,0.00049482,0,0,0.066075,-0.026061,0,0.011579,0,0,0,0.0082434,0.00030658,0.002565,3.5814,0.003705,0.007083,1.2191e-08,0.9,0.5,0
0.044606,-0.0004569,0.0082583,0.00026864,0.0025581,0.00040586,0,0,0.066692,-0.026786,0,0.0094971,0,0,0,0.0082788,0.00024808,0.0025581,2.9006,0.003695,0.0071609,1.2455e-08,0.92,0.5,0
0.045945,-0.00048362,0.0082621,0.00020017,0.0025387,0.00029794,0,0,0.066964,-0.02736,0,0.0069717,0,0,0,0.0082731,0.00018917,0.0025387,2.1136,0.003667,0.0072025,1.2532e-08,0.94,0.5,0
0.047292,-0.00049941,0.0083345,0.00018079,0.0025546,0.00021677,0,0,0.067625,-0.027773,0,0.0050725,0,0,0,0.0083403,0.00017503,0.0025546,1.5218,0.00369,0.0072735,1.2867e-08,0.96,0.5,0
0.048645,-0.00050762,0.008305,9.9671e-05,0.0025214,0.00010316,0,0,0.067668,-0.028334,0,0.0024141,0,0,0,0.0083063,9.8374e-05,0.0025214,0.72022,0.003642,0.0073043,1.2843e-08,0.98,0.5,0
0.05,-0.00051015,0.0082726,-4.458e-07,0.0024817,-5.402e-06,0,0,0.067754,-0.029041,0,-0.00012641,0,0,0,0.0082726,-4.4933e-07,0.0024817,-0.037412,0.0035846,0.0073532,1.2853e-08,1,0.5,0
0,0,0.0072042,0.0030875,0.0030875,-0.00039445,0,0,0.048165,-1.0842e-19,0,-0.0092302,0,0,0,0.0072416,0.00305,0.0030875,-5.4242,0.0044597,0.004173,3.7312e-09,0,0.52,0
0.0009633,-0.0001846,0.0071458,0.002821,0.0029901,-0.00040447,0,0,0.048623,-0.0019776,0,-0.0094647,0,0,0,0.0071833,0.0027835,0.0029901,-5.2973,0.004319,0.0043003,4.0525e-09,0.02,0.52,0
0.0019541,-0.00034391,0.0072927,0.0026523,0.0029835,-0.00037082,0,0,0.050418,-0.0038756,0,-0.0086771,0,0,0,0.0073222,0.0026228,0.0029835,-4.54,0.0043095,0.0045298,4.6719e-09,0.04,0.52,0
0.0029712,-0.00048204,0.0073409,0.0024601,0.0029403,-0.00037364,0,0,0.051487,-0.0056188,0,-0.0087431,0,0,0,0.0073693,0.0024316,0.0029403,-4.3523,0.0042471,0.0047041,5.136e-09,0.06,0.52,0
0.0040136,-0.00060228,0.0074152,0.0022852,0.0029101,-0.00037869,0,0,0.05271,-0.0073121,0,-0.0088614,0,0,0,0.007443,0.0022573,0.0029101,-4.1991,0.0042035,0.0048921,5.6539e-09,0.08,0.52,0
0.0050796,-0.00070716,0.0074637,0.0021242,0.0028764,-0.00039755,0,0,0.053672,-0.0088006,0,-0.0093027,0,0,0,0.0074932,0.0020948,0.0028764,-4.2348,0.0041548,0.0050532,6.0958e-09,0.1,0.52,0
0.0061678,-0.00079855,0.0075821,0.0019974,0.0028738,-0.00040937,0,0,0.055086,-0.010254,0,-0.0095792,0,0,0,0.0076119,0.0019676,0.0028738,-4.1702,0.0041511,0.0052502,6.6923e-09,0.12,0.52,0
0.0072763,-0.00087779,0.0076079,0.0018314,0.0028318,-0.00044076,0,0,0.055881,-0.011705,0,-0.010314,0,0,0,0.0076414,0.0017979,0.0028318,-4.3383,0.0040904,0.0054012,7.1037e-09,0.14,0.52,0
0.008403,-0.00094559,0.007659,0.0017069,0.0028098,-0.00047373,0,0,0.056736,-0.012904,0,-0.011085,0,0,0,0.0076965,0.0016695,0.0028098,-4.5223,0.0040586,0.0055455,7.5256e-09,0.16,0.52,0
0.0095458,-0.0010022,0.0077018,0.0015974,0.0027898,-0.00051145,0,0,0.057471,-0.013951,0,-0.011968,0,0,0,0.0077444,0.0015548,0.0027898,-4.7562,0.0040297,0.0056738,7.9034e-09,0.18,0.52,0
0.010702,-0.001047,0.007735,0.0015035,0.0027715,-0.00055304,0,0,0.058072,-0.014836,0,-0.012941,0,0,0,0.0077837,0.0014548,0.0027715,-5.0325,0.0040033,0.005784,8.2285e-09,0.2,0.52,0
0.011869,-0.0010791,0.007757,0.0014258,0.0027548,-0.00059747,0,0,0.058525,-0.01555,0,-0.013981,0,0,0,0.0078129,0.0013699,0.0027548,-5.3441,0.0039792,0.0058742,8.492e-09,0.22,0.52,0
0.013043,-0.0010965,0.0077661,0.0013646,0.0027392,-0.00064343,0,0,0.058815,-0.016083,0,-0.015056,0,0,0,0.0078301,0.0013005,0.0027392,-5.6832,0.0039566,0.0059423,8.6845e-09,0.24,0.52,0
0.014221,-0.0010962,0.0077602,0.0013195,0.0027239,-0.00068918,0,0,0.058924,-0.016431,0,-0.016127,0,0,0,0.0078331,0.0012466,0.0027239,-6.0398,0.0039345,0.0059862,8.7962e-09,0.26,0.52,0
0.0154,-0.0010741,0.0077368,0.0012895,0.0027079,-0.00073222,0,0,0.058838,-0.016595,0,-0.017134,0,0,0,0.0078189,0.0012074,0.0027079,-6.3986,0.0039114,0.0060035,8.8167e-09,0.28,0.52,0
0.016575,-0.0010245,0.0076931,0.0012721,0.0026896,-0.000769,0,0,0.058541,-0.016584,0,-0.017995,0,0,0,0.0077839,0.0011813,0.0026896,-6.7351,0.0038849,0.0059926,8.7369e-09,0.3,0.52,0
0.017742,-0.00093952,0.0076268,0.0012622,0.0026667,-0.00079436,0,0,0.058033,-0.016432,0,-0.018588,0,0,0,0.0077244,0.0011646,0.0026667,-7.0079,0.0038519,0.0059527,8.5519e-09,0.32,0.52,0
0.018896,-0.0008089,0.0075382,0.0012504,0.0026366,-0.00080119,0,0,0.057349,-0.016219,0,-0.018748,0,0,0,0.0076387,0.0011499,0.0026366,-7.1484,0.0038084,0.005888,8.2735e-09,0.34,0.52,0
0.020036,-0.00061952,0.0074358,0.0012178,0.0025961,-0.00078332,0,0,0.056625,-0.016126,0,-0.01833,0,0,0,0.007533,0.0011206,0.0025961,-7.0707,0.0037499,0.0058167,7.9576e-09,0.36,0.52,0
0.021161,-0.00035829,0.0073241,0.0011194,0.002533,-0.00074211,0,0,0.056055,-0.01654,0,-0.017365,0,0,0,0.0074116,0.0010318,0.002533,-6.7264,0.0036588,0.0057773,7.6953e-09,0.38,0.52,0
0.022278,-1.5567e-05,0.0072253,0.00092308,0.0024445,-0.00070849,0,0,0.055935,-0.017801,0,-0.016579,0,0,0,0.0073039,0.00084441,0.0024445,-6.3358,0.003531,0.0058266,7.6356e-09,0.4,0.52,0
0.023398,0.00040051,0.00709,0.00056771,0.0022973,-0.00071183,0,0,0.056074,-0.020236,0,-0.016657,0,0,0,0.0071667,0.00049092,0.0022973,-6.1566,0.0033183,0.0059809,7.7031e-09,0.42,0.52,0
0.024521,0.0008786,0.0070271,0.00022328,0.0021751,-0.00083838,0,0,0.056769,-0.022837,0,-0.019618,0,0,0,0.0071289,0.0001215,0.0021751,-6.9222,0.0031418,0.0062395,8.0719e-09,0.44,0.52,0
0.025669,0.0013692,0.0068655,-0.0001382,0.0020182,-0.00096553,0,0,0.056714,-0.02523,0,-0.022593,0,0,0,0.0069962,-0.00026887,0.0020182,-7.7073,0.0029152,0.006434,8.0814e-09,0.46,0.52,0
0.026775,0.0019128,0.0076071,-0.00018072,0.0022279,-0.0013448,0,0,0.062936,-0.028181,0,-0.031468,0,0,0,0.0078327,-0.00040641,0.0022279,-9.5265,0.0032181,0.0072883,1.1483e-08,0.48,0.52,0
0.02811,0.0024131,0.0060432,0.00012626,0.0018508,-0.0015478,0,0,0.04905,-0.020177,0,-0.036218,0,0,0,0.0064236,-0.00025415,0.0018508,-13.809,0.0026734,0.0059133,6.2618e-09,0.5,0.52,0
0.028383,0.0025938,0.0075726,-4.2209e-05,0.0022591,-0.001972,0,0,0.012686,-0.0098603,0,-0.024233,0,0,0,0.0082351,-0.00070472,0.0022591,-18.681,0.0032632,0.0079474,3.1799e-08,0.52,0.52,0
0.02863,0.0026643,0.0074935,-0.00013266,0.0022083,-0.0010965,0,0,0.012356,-0.008244,0,-0.015432,0,0,0,0.0078098,-0.00044893,0.0022083,-14.533,0.0031897,0.0073336,2.9387e-08,0.54,0.52,0
0.028876,0.0027229,0.0074904,-9.446e-05,0.0022188,-0.00069155,0,0,0.012331,-0.0075622,0,-0.0088594,0,0,0,0.0076166,-0.00022063,0.0022188,-10.303,0.0032049,0.0069641,2.8819e-08,0.56,0.52,0
0.029123,0.0027714,0.0074847,-0.00011175,0.0022119,-0.00018214,0,0,0.012344,-0.0073895,0,-0.002822,0,0,0,0.0074987,-0.00012573,0.0022119,-3.6479,0.0031949,0.0067773,2.8475e-08,0.58,0.52,0
0.029371,0.0028115,0.0074831,-0.00014422,0.0022017,0.00014088,0,0,0.01236,-0.0075319,0,0.0025121,0,0,0,0.0074943,-0.0001554,0.0022017,3.1966,0.0031802,0.006798,2.8604e-08,0.6,0.52,0
0.029618,0.0028432,0.0074565,-0.00020603,0.0021751,0.00065423,0,0,0.01236,-0.0080002,0,0.0085816,0,0,0,0.0075717,-0.00032123,0.0021751,9.7595,0.0031419,0.0070077,2.8878e-08,0.62,0.52,0
0.029865,0.0028643,0.0074678,-0.00031812,0.0021449,0.0010604,0,0,0.012436,-0.0090174,0,0.015212,0,0,0,0.0077643,-0.00061454,0.0021449,13.888,0.0030982,0.0074319,2.987e-08,0.64,0.52,0
0.030114,0.002873,0.0079848,-0.00011446,0.0023611,0.0013849,0,0,0.013159,-0.011057,0,0.022637,0,0,0,0.0084863,-0.00061601,0.0023611,15.542,0.0034105,0.0081158,3.5012e-08,0.66,0.52,0
0.030391,0.0027633,0.0096144,-0.0024098,0.0021614,0.0017198,0,0,0.031767,-0.016029,0,0.019767,0,0,0,0.0098876,-0.002683,0.0021614,9.4661,0.003122,0.010989,3.6375e-08,0.68,0.52,0
0.031743,0.0022765,0.0072176,-0.00084806,0.0019109,0.0013346,0,0,0.062089,-0.03228,0,0.031231,0,0,0,0.0074328,-0.0010632,0.0019109,9.1558,0.0027602,0.0074672,1.052e-08,0.7,0.52,0
0.032875,0.001744,0.0067064,-0.00078162,0.0017774,0.00085029,0,0,0.057669,-0.029941,0,0.019897,0,0,0,0.0068017,-0.00087696,0.0017774,6.3976,0.0025674,0.0067547,7.9884e-09,0.72,0.52,0
0.03405,0.0012498,0.0069894,-0.00026989,0.0020159,0.00068162,0,0,0.058191,-0.026743,0,0.01595,0,0,0,0.0070529,-0.00033334,0.0020159,5.3179,0.0029118,0.0065363,8.3481e-09,0.74,0.52,0
0.035202,0.00075912,0.0070646,5.6994e-05,0.0021365,0.00053188,0,0,0.057659,-0.02433,0,0.012446,0,0,0,0.0071048,1.6854e-05,0.0021365,4.3158,0.003086,0.0063014,8.1207e-09,0.76,0.52,0
0.036356,0.00032221,0.0072077,0.00038813,0.0022787,0.00050824,0,0,0.057669,-0.02212,0,0.011893,0,0,0,0.0072454,0.00035046,0.0022787,4.2389,0.0032915,0.0061614,8.1658e-09,0.78,0.52,0
0.037509,-4.6286e-05,0.0073196,0.0005557,0.0023626,0.00052738,0,0,0.057997,-0.02114,0,0.012341,0,0,0,0.0073604,0.00051482,0.0023626,4.4316,0.0034126,0.0061341,8.3289e-09,0.8,0.52,0
0.038676,-0.0003362,0.0074484,0.00061392,0.0024187,0.00055647,0,0,0.058848,-0.021116,0,0.013022,0,0,0,0.0074935,0.00056891,0.0024187,4.6245,0.0034937,0.0062098,8.7195e-09,0.82,0.52,0
0.039863,-0.00055562,0.0075742,0.00059478,0.0024507,0.00056224,0,0,0.059945,-0.021714,0,0.013156,0,0,0,0.0076192,0.00054978,0.0024507,4.5762,0.0035399,0.0063366,9.2118e-09,0.84,0.52,0
0.041074,-0.00071705,0.0076918,0.00054299,0.0024704,0.00054061,0,0,0.06109,-0.022551,0,0.01265,0,0,0,0.0077324,0.00050234,0.0024704,4.3003,0.0035684,0.0064744,9.7195e-09,0.86,0.52,0
0.042307,-0.00083367,0.0077921,0.00047878,0.0024813,0.00049587,0,0,0.062137,-0.023429,0,0.011603,0,0,0,0.0078256,0.00044531,0.0024813,3.8613,0.0035841,0.0066021,1.018e-08,0.88,0.52,0
0.043559,-0.00091631,0.0078737,0.00041345,0.0024861,0.00043396,0,0,0.063034,-0.024251,0,0.010155,0,0,0,0.0078988,0.00038829,0.0024861,3.3179,0.0035911,0.0067122,1.057e-08,0.9,0.52,0
0.044828,-0.00097354,0.0079376,0.00035402,0.0024875,0.00035957,0,0,0.063766,-0.024961,0,0.008414,0,0,0,0.0079546,0.00033701,0.0024875,2.7086,0.003593,0.0068022,1.0886e-08,0.92,0.52,0
0.04611,-0.0010119,0.0079921,0.0003435,0.0025007,0.00026835,0,0,0.06425,-0.025239,0,0.0062794,0,0,0,0.0080015,0.0003341,0.0025007,2.0069,0.0036121,0.0068463,1.1088e-08,0.94,0.52,0
0.047401,-0.001036,0.0080452,0.00031573,0.0025083,0.00018929,0,0,0.064782,-0.025653,0,0.0044295,0,0,0,0.0080498,0.0003111,0.0025083,1.4021,0.0036231,0.0069074,1.1332e-08,0.96,0.52,0
0.048699,-0.0010493,0.0080528,0.00028838,0.0025023,9.0386e-05,0,0,0.06494,-0.025903,0,0.002115,0,0,0,0.0080538,0.00028733,0.0025023,0.66687,0.0036145,0.0069298,1.139e-08,0.98,0.52,0
0.05,-0.0010535,0.008101,0.00037087,0.0025416,-9.0089e-06,0,0,0.065045,-0.025397,0,-0.00021081,0,0,0,0.008101,0.00037086,0.0025416,-0.066775,0.0036711,0.0069056,1.145e-08,1,0.52,0
0,0,0.0071037,0.0030445,0.0030445,-0.00047463,0,0,0.047493,2.1684e-19,0,-0.011106,0,0,0,0.0071585,0.0029897,0.0030445,-6.581,0.0043975,0.0041417,3.6467e-09,0,0.54,0
0.00094987,-0.00022213,0.0070529,0.0028053,0.0029575,-0.00048466,0,0,0.047917,-0.0017807,0,-0.011341,0,0,0,0.0071075,0.0027507,0.0029575,-6.4274,0.0042719,0.0042572,3.9313e-09,0.02,0.54,0
0.0019252,-0.00041767,0.0071911,0.002653,0.0029532,-0.00044752,0,0,0.049583,-0.0035125,0,-0.010472,0,0,0,0.0072348,0.0026093,0.0029532,-5.5785,0.0042658,0.0044635,4.4758e-09,0.04,0.54,0
0.002925,-0.00059049,0.0072292,0.0024586,0.0029063,-0.00044704,0,0,0.050578,-0.0052389,0,-0.010461,0,0,0,0.0072708,0.002417,0.0029063,-5.3075,0.004198,0.0046285,4.9013e-09,0.06,0.54,0
0.0039483,-0.00074359,0.0072967,0.0022923,0.0028767,-0.00044776,0,0,0.051714,-0.006837,0,-0.010478,0,0,0,0.0073364,0.0022526,0.0028767,-5.0728,0.0041552,0.0048023,5.3656e-09,0.08,0.54,0
0.0049935,-0.00087927,0.007359,0.002136,0.0028485,-0.00045616,0,0,0.052772,-0.0083363,0,-0.010674,0,0,0,0.0073985,0.0020964,0.0028485,-4.954,0.0041145,0.0049689,5.8173e-09,0.1,0.54,0
0.0060592,-0.00099916,0.0074151,0.0019907,0.0028217,-0.00047098,0,0,0.053742,-0.0097233,0,-0.011021,0,0,0,0.0074556,0.0019501,0.0028217,-4.9257,0.0040758,0.0051256,6.2473e-09,0.12,0.54,0
0.0071432,-0.0011043,0.0074638,0.0018575,0.0027964,-0.00049118,0,0,0.054609,-0.010985,0,-0.011494,0,0,0,0.0075065,0.0018148,0.0027964,-4.9694,0.0040393,0.0052699,6.6464e-09,0.14,0.54,0
0.0082435,-0.0011953,0.0075041,0.0017376,0.0027725,-0.0005158,0,0,0.05536,-0.012109,0,-0.01207,0,0,0,0.0075499,0.0016918,0.0027725,-5.0713,0.0040047,0.0053995,7.0056e-09,0.16,0.54,0
0.0093576,-0.001272,0.0075345,0.0016316,0.0027498,-0.00054389,0,0,0.055981,-0.013083,0,-0.012727,0,0,0,0.0075842,0.0015819,0.0027498,-5.2206,0.003972,0.0055119,7.3159e-09,0.18,0.54,0
0.010483,-0.0013338,0.0075537,0.0015404,0.0027282,-0.00057442,0,0,0.056458,-0.013898,0,-0.013441,0,0,0,0.007608,0.001486,0.0027282,-5.408,0.0039407,0.0056051,7.5685e-09,0.2,0.54,0
0.011616,-0.0013793,0.0075599,0.0014641,0.0027072,-0.00060618,0,0,0.056777,-0.014544,0,-0.014184,0,0,0,0.0076196,0.0014044,0.0027072,-5.6242,0.0039104,0.005677,7.7546e-09,0.22,0.54,0
0.012754,-0.0014066,0.0075515,0.0014028,0.0026863,-0.00063762,0,0,0.056923,-0.015017,0,-0.01492,0,0,0,0.0076169,0.0013373,0.0026863,-5.8585,0.0038802,0.0057255,7.8657e-09,0.24,0.54,0
0.013893,-0.0014126,0.0075264,0.0013555,0.0026646,-0.00066671,0,0,0.056883,-0.015316,0,-0.015601,0,0,0,0.0075976,0.0012843,0.0026646,-6.0966,0.0038488,0.0057488,7.8941e-09,0.26,0.54,0
0.015029,-0.0013932,0.0074827,0.0013206,0.002641,-0.00069077,0,0,0.056648,-0.015449,0,-0.016164,0,0,0,0.0075592,0.0012441,0.002641,-6.3183,0.0038147,0.0057454,7.8338e-09,0.28,0.54,0
0.016159,-0.0013431,0.0074186,0.0012944,0.0026139,-0.00070626,0,0,0.056215,-0.015438,0,-0.016526,0,0,0,0.007499,0.001214,0.0026139,-6.4939,0.0037757,0.0057151,7.6829e-09,0.3,0.54,0
0.017278,-0.0012553,0.0073337,0.0012707,0.0025813,-0.00070888,0,0,0.055603,-0.015334,0,-0.016588,0,0,0,0.0074155,0.0011889,0.0025813,-6.5807,0.0037286,0.0056603,7.4484e-09,0.32,0.54,0
0.018383,-0.0011214,0.00723,0.0012386,0.0025406,-0.00069452,0,0,0.054866,-0.015233,0,-0.016252,0,0,0,0.0073095,0.0011591,0.0025406,-6.5263,0.0036697,0.0055892,7.1541e-09,0.34,0.54,0
0.019472,-0.00093224,0.0071109,0.0011787,0.0024869,-0.00066192,0,0,0.054101,-0.015305,0,-0.015489,0,0,0,0.0071839,0.0011058,0.0024869,-6.2901,0.0035922,0.0055187,6.8439e-09,0.36,0.54,0
0.020547,-0.00067978,0.0069827,0.0010677,0.0024151,-0.00061899,0,0,0.05344,-0.015765,0,-0.014484,0,0,0,0.0070467,0.0010036,0.0024151,-5.9106,0.0034885,0.0054756,6.5804e-09,0.38,0.54,0
0.02161,-0.00036132,0.0068378,0.00087621,0.0023142,-0.00058267,0,0,0.052926,-0.016824,0,-0.013635,0,0,0,0.0068942,0.0008198,0.0023142,-5.5302,0.0033427,0.0054821,6.3898e-09,0.4,0.54,0
0.022664,1.9335e-05,0.0066795,0.00061673,0.0021889,-0.00058653,0,0,0.05254,-0.018394,0,-0.013725,0,0,0,0.0067357,0.00056051,0.0021889,-5.4753,0.0031617,0.0055434,6.2708e-09,0.42,0.54,0
0.023712,0.00044557,0.0064394,0.00027134,0.0020132,-0.00063745,0,0,0.051786,-0.02038,0,-0.014916,0,0,0,0.0065045,0.00020614,0.0020132,-5.8392,0.002908,0.0056173,6.0286e-09,0.44,0.54,0
0.024735,0.00090846,0.006163,-3.1093e-05,0.0018396,-0.00079026,0,0,0.050584,-0.021887,0,-0.018492,0,0,0,0.0062623,-0.00013033,0.0018396,-7.1573,0.0026572,0.0056704,5.6967e-09,0.46,0.54,0
0.025735,0.0013703,0.0053561,-0.00062482,0.0014194,-0.00091944,0,0,0.04606,-0.023917,0,-0.021515,0,0,0,0.0054943,-0.00076298,0.0014194,-8.5452,0.0020502,0.0055009,4.2379e-09,0.48,0.54,0
0.026578,0.0018939,0.0046197,-0.0010611,0.0010676,-0.0014584,0,0,0.04156,-0.024906,0,-0.034126,0,0,0,0.0049722,-0.0014137,0.0010676,-13.589,0.001542,0.0055759,3.3354e-09,0.5,0.54,0
0.027397,0.0022847,0.0040325,-0.00071699,0.00099466,-0.001246,0,0,0.035543,-0.020026,0,-0.029157,0,0,0,0.0043396,-0.001024,0.00099466,-13.843,0.0014367,0.0046921,2.1895e-09,0.52,0.54,0
0.028,0.0024303,0.0031318,-0.00058224,0.00076487,-0.00098763,0,0,0.027693,-0.015761,0,-0.02311,0,0,0,0.0033781,-0.00082853,0.00076487,-14.003,0.0011048,0.0036786,1.0359e-09,0.54,0.54,0
0.028505,0.0025179,0.0027491,-0.00052028,0.00066865,-0.00058827,0,0,0.024341,-0.01391,0,-0.013765,0,0,0,0.0028517,-0.00062291,0.00066865,-9.8959,0.00096583,0.003042,6.1737e-10,0.56,0.54,0
0.028973,0.0025748,0.0026119,-0.00050115,0.00063322,-0.00020056,0,0,0.02315,-0.013272,0,-0.0046932,0,0,0,0.0026248,-0.00051401,0.00063322,-3.6712,0.00091466,0.0027508,4.7675e-10,0.58,0.54,0
0.029431,0.0026098,0.0026013,-0.00053788,0.00061901,0.00018115,0,0,0.023192,-0.013536,0,0.0042388,0,0,0,0.0026117,-0.0005483,0.00061901,3.2917,0.00089413,0.0027676,4.7259e-10,0.6,0.54,0
0.029901,0.0026225,0.0027183,-0.00063264,0.0006257,0.0005693,0,0,0.024483,-0.014723,0,0.013322,0,0,0,0.0028124,-0.00072671,0.0006257,9.3835,0.00090379,0.0030932,6.0004e-10,0.62,0.54,0
0.030411,0.0026026,0.0030877,-0.00077588,0.00069355,0.00096838,0,0,0.028012,-0.017192,0,0.02266,0,0,0,0.0033169,-0.001005,0.00069355,13.312,0.0010018,0.0037713,9.9294e-10,0.64,0.54,0
0.031021,0.0025203,0.0039907,-0.0010075,0.00089495,0.0012159,0,0,0.03622,-0.022259,0,0.028452,0,0,0,0.0042708,-0.0012876,0.00089495,12.972,0.0012927,0.0048505,2.1192e-09,0.66,0.54,0
0.031859,0.0021761,0.0045661,-0.001473,0.00092793,0.0013945,0,0,0.042566,-0.02809,0,0.032632,0,0,0,0.0048725,-0.0017794,0.00092793,12.395,0.0013403,0.0057939,3.1511e-09,0.68,0.54,0
0.032724,0.0016702,0.005317,-0.0010272,0.0012869,0.00081493,0,0,0.047151,-0.027075,0,0.019069,0,0,0,0.00542,-0.0011302,0.0012869,7.2041,0.0018589,0.0057371,4.2214e-09,0.7,0.54,0
0.033745,0.0012117,0.006119,-0.0004705,0.0016945,0.00065522,0,0,0.051766,-0.025331,0,0.015332,0,0,0,0.0061835,-0.00053502,0.0016945,5.6238,0.0024477,0.0059271,5.8188e-09,0.72,0.54,0
0.034795,0.00074164,0.0064033,-0.00019042,0.0018639,0.00047692,0,0,0.053111,-0.024035,0,0.01116,0,0,0,0.0064376,-0.00022474,0.0018639,4.1156,0.0026922,0.005902,6.2751e-09,0.74,0.54,0
0.03587,0.00029794,0.0066459,0.00012761,0.002032,0.00040074,0,0,0.053982,-0.022282,0,0.0093773,0,0,0,0.0066704,0.00010306,0.002032,3.5049,0.0029352,0.0058466,6.6243e-09,0.76,0.54,0
0.036954,-0.00010814,0.0068099,0.00035997,0.002151,0.00037533,0,0,0.05451,-0.020955,0,0.0087827,0,0,0,0.0068317,0.00033821,0.002151,3.3192,0.0031069,0.0058034,6.8357e-09,0.78,0.54,0
0.03805,-0.00045833,0.0069624,0.00051832,0.0022442,0.00039255,0,0,0.055203,-0.020193,0,0.0091857,0,0,0,0.0069862,0.0004945,0.0022442,3.4731,0.0032417,0.0058177,7.1142e-09,0.8,0.54,0
0.039162,-0.00074711,0.0071025,0.00058854,0.0023073,0.000418,0,0,0.056104,-0.02011,0,0.0097812,0,0,0,0.0071292,0.00056182,0.0023073,3.6567,0.0033328,0.0058918,7.4797e-09,0.82,0.54,0
0.040294,-0.00097603,0.0072379,0.00059802,0.0023508,0.00043275,0,0,0.057179,-0.020507,0,0.010127,0,0,0,0.007266,0.00056993,0.0023508,3.7133,0.0033956,0.006007,7.9225e-09,0.84,0.54,0
0.041449,-0.0011526,0.0073626,0.0005701,0.0023798,0.00042718,0,0,0.058299,-0.021174,0,0.0099959,0,0,0,0.0073894,0.00054334,0.0023798,3.5845,0.0034375,0.0061374,8.3877e-09,0.86,0.54,0
0.042626,-0.0012858,0.0074725,0.00052463,0.0023992,0.00040103,0,0,0.059359,-0.021932,0,0.0093842,0,0,0,0.0074956,0.00050156,0.0023992,3.2926,0.0034654,0.0062646,8.8311e-09,0.88,0.54,0
0.043824,-0.0013843,0.0075648,0.0004737,0.0024116,0.00035748,0,0,0.060293,-0.022673,0,0.0083649,0,0,0,0.0075828,0.00045572,0.0024116,2.8787,0.0034833,0.0063781,9.2235e-09,0.9,0.54,0
0.045038,-0.0014554,0.0076388,0.00042496,0.0024191,0.00030037,0,0,0.06107,-0.023332,0,0.0070287,0,0,0,0.0076513,0.00041248,0.0024191,2.3802,0.0034943,0.0064731,9.5505e-09,0.92,0.54,0
0.046266,-0.0015049,0.0076952,0.00038331,0.0024236,0.00023325,0,0,0.061678,-0.023871,0,0.0054579,0,0,0,0.0077026,0.00037588,0.0024236,1.8252,0.0035007,0.0065476,9.8062e-09,0.94,0.54,0
0.047505,-0.0015373,0.0077347,0.00035181,0.002426,0.00015913,0,0,0.062112,-0.024267,0,0.0037237,0,0,0,0.0077381,0.00034838,0.002426,1.2342,0.0035042,0.0066009,9.9888e-09,0.96,0.54,0
0.048751,-0.0015556,0.007758,0.00033227,0.0024271,8.0625e-05,0,0,0.062372,-0.024509,0,0.0018866,0,0,0,0.0077589,0.0003314,0.0024271,0.62199,0.0035058,0.0066328,1.0098e-08,0.98,0.54,0
0.05,-0.0015615,0.0077658,0.00032566,0.0024274,-1.2584e-05,0,0,0.062459,-0.024591,0,-0.00029447,0,0,0,0.0077658,0.00032564,0.0024274,-0.09691,0.0035063,0.0066435,1.0135e-08,1,0.54,0
0,0,0.0070019,0.0030008,0.0030008,-0.00054869,0,0,0.046812,-7.5894e-19,0,-0.012839,0,0,0,0.0070757,0.0029269,0.0030008,-7.6687,0.0043345,0.0041124,3.5681e-09,0,0.56,0
0.00093625,-0.00025678,0.006983,0.002789,0.0029316,-0.00054843,0,0,0.047401,-0.001668,0,-0.012833,0,0,0,0.0070535,0.0027185,0.0029316,-7.3283,0.0042345,0.0042325,3.8608e-09,0.02,0.56,0
0.001896,-0.00048616,0.0070516,0.0026185,0.002901,-0.00052638,0,0,0.048562,-0.0033056,0,-0.012317,0,0,0,0.0071132,0.0025568,0.002901,-6.6795,0.0041904,0.0043944,4.2684e-09,0.04,0.56,0
0.0028787,-0.0006916,0.0071172,0.0024531,0.0028711,-0.00051424,0,0,0.04968,-0.0048908,0,-0.012033,0,0,0,0.0071732,0.002397,0.0028711,-6.2177,0.0041471,0.0045577,4.6856e-09,0.06,0.56,0
0.0038832,-0.00087576,0.0071785,0.0022945,0.0028419,-0.00051018,0,0,0.050738,-0.0064043,0,-0.011938,0,0,0,0.0072312,0.0022418,0.0028419,-5.9003,0.0041049,0.004718,5.101e-09,0.08,0.56,0
0.0049082,-0.0010406,0.0072341,0.0021445,0.0028136,-0.00051265,0,0,0.05172,-0.0078283,0,-0.011996,0,0,0,0.0072852,0.0020934,0.0028136,-5.6949,0.004064,0.0048718,5.5039e-09,0.1,0.56,0
0.005952,-0.0011875,0.0072829,0.0020044,0.0027862,-0.0005204,0,0,0.052611,-0.009147,0,-0.012177,0,0,0,0.0073337,0.0019536,0.0027862,-5.5772,0.0040245,0.0050159,5.884e-09,0.12,0.56,0
0.0070127,-0.0013172,0.0073235,0.0018755,0.0027597,-0.00053231,0,0,0.053397,-0.010346,0,-0.012456,0,0,0,0.007375,0.0018239,0.0027597,-5.5285,0.0039862,0.0051474,6.2316e-09,0.14,0.56,0
0.0080879,-0.0014299,0.0073547,0.0017588,0.002734,-0.00054735,0,0,0.054061,-0.011411,0,-0.012808,0,0,0,0.0074077,0.0017057,0.002734,-5.5343,0.0039492,0.0052637,6.5371e-09,0.16,0.56,0
0.0091751,-0.0015255,0.007375,0.0016551,0.002709,-0.00056449,0,0,0.054592,-0.012331,0,-0.013209,0,0,0,0.0074302,0.0015999,0.002709,-5.5827,0.0039131,0.0053624,6.7916e-09,0.18,0.56,0
0.010272,-0.0016029,0.007383,0.001565,0.0026844,-0.00058259,0,0,0.054974,-0.013097,0,-0.013633,0,0,0,0.0074408,0.0015073,0.0026844,-5.6624,0.0038775,0.0054413,6.9865e-09,0.2,0.56,0
0.011374,-0.0016609,0.0073772,0.0014886,0.0026597,-0.0006003,0,0,0.055194,-0.013702,0,-0.014047,0,0,0,0.0074378,0.001428,0.0026597,-5.762,0.0038419,0.0054984,7.1143e-09,0.22,0.56,0
0.012479,-0.0016972,0.0073561,0.0014254,0.0026344,-0.00061598,0,0,0.055243,-0.014146,0,-0.014414,0,0,0,0.0074194,0.0013621,0.0026344,-5.8675,0.0038053,0.005532,7.1684e-09,0.24,0.56,0
0.013584,-0.0017089,0.007318,0.001374,0.0026076,-0.00062755,0,0,0.055112,-0.014433,0,-0.014685,0,0,0,0.0073836,0.0013085,0.0026076,-5.9615,0.0037666,0.0055409,7.1443e-09,0.26,0.56,0
0.014684,-0.0016921,0.0072618,0.0013322,0.0025782,-0.00063242,0,0,0.054798,-0.014579,0,-0.014799,0,0,0,0.0073285,0.0012654,0.0025782,-6.0206,0.0037241,0.0055249,7.0408e-09,0.28,0.56,0
0.015776,-0.001642,0.0071868,0.0012955,0.0025447,-0.00062761,0,0,0.054312,-0.014615,0,-0.014686,0,0,0,0.0072529,0.0012294,0.0025447,-6.0139,0.0036757,0.0054854,6.8621e-09,0.3,0.56,0
0.016856,-0.0015529,0.0070932,0.0012574,0.0025052,-0.00061009,0,0,0.05368,-0.014599,0,-0.014276,0,0,0,0.0071563,0.0011943,0.0025052,-5.9048,0.0036186,0.0054266,6.621e-09,0.32,0.56,0
0.017923,-0.0014182,0.0069828,0.0012073,0.002457,-0.00057794,0,0,0.052951,-0.014622,0,-0.013524,0,0,0,0.00704,0.00115,0.002457,-5.6587,0.003549,0.0053574,6.3411e-09,0.34,0.56,0
0.018974,-0.0012317,0.0068579,0.0011311,0.0023967,-0.00053242,0,0,0.052196,-0.014807,0,-0.012459,0,0,0,0.0069069,0.001082,0.0023967,-5.2667,0.0034619,0.0052915,6.0553e-09,0.36,0.56,0
0.020011,-0.00098888,0.0067184,0.0010122,0.0023192,-0.00047974,0,0,0.051471,-0.015292,0,-0.011226,0,0,0,0.0067585,0.00097211,0.0023192,-4.7723,0.0033499,0.0052443,5.7925e-09,0.38,0.56,0
0.021033,-0.00068854,0.0065624,0.00084077,0.002221,-0.00043286,0,0,0.050795,-0.016148,0,-0.010129,0,0,0,0.006595,0.00080821,0.002221,-4.3019,0.003208,0.0052256,5.5629e-09,0.4,0.56,0
0.022043,-0.00033525,0.006372,0.00061099,0.0020949,-0.00040355,0,0,0.050042,-0.017362,0,-0.009443,0,0,0,0.0064001,0.00058286,0.0020949,-3.9875,0.0030259,0.0052279,5.3216e-09,0.42,0.56,0
0.023035,6.3407e-05,0.0061393,0.00034906,0.0019465,-0.00040572,0,0,0.049056,-0.01869,0,-0.0094939,0,0,0,0.0061676,0.00032077,0.0019465,-3.9888,0.0028116,0.0052271,5.0141e-09,0.44,0.56,0
0.024005,0.0004937,0.0057936,2.8361e-05,0.0017466,-0.00041585,0,0,0.04735,-0.020103,0,-0.0097309,0,0,0,0.0058234,-1.4797e-06,0.0017466,-4.1045,0.0025229,0.0051772,4.4844e-09,0.46,0.56,0
0.024929,0.00095607,0.0054784,-0.00022207,0.0015769,-0.00045082,0,0,0.045647,-0.021048,0,-0.010549,0,0,0,0.0055138,-0.0002575,0.0015769,-4.494,0.0022777,0.0051075,3.9867e-09,0.48,0.56,0
0.025831,0.0014169,0.0050184,-0.00076364,0.0012764,-0.00045863,0,0,0.043782,-0.023869,0,-0.010732,0,0,0,0.0050546,-0.00079979,0.0012764,-4.5071,0.0018437,0.005141,3.3388e-09,0.5,0.56,0
0.02668,0.0017927,0.0045445,-0.0010906,0.0010362,-0.00059869,0,0,0.041047,-0.024883,0,-0.014009,0,0,0,0.0046074,-0.0011535,0.0010362,-5.9982,0.0014967,0.0050366,2.6323e-09,0.52,0.56,0
0.027473,0.0020339,0.0041958,-0.00090215,0.00098809,-0.00056553,0,0,0.03753,-0.022116,0,-0.013233,0,0,0,0.0042578,-0.00096413,0.00098809,-6.2547,0.0014272,0.00457,2.061e-09,0.54,0.56,0
0.028181,0.0021665,0.0038308,-0.00082644,0.0009013,-0.00038763,0,0,0.034275,-0.020215,0,-0.0090705,0,0,0,0.0038628,-0.00085848,0.0009013,-4.7255,0.0013019,0.0041327,1.5366e-09,0.56,0.56,0
0.028844,0.0022405,0.0036554,-0.00080841,0.0008541,-0.0001346,0,0,0.032775,-0.019451,0,-0.0031496,0,0,0,0.0036595,-0.00081246,0.0008541,-1.7255,0.0012337,0.0039144,1.3064e-09,0.58,0.56,0
0.029492,0.0022701,0.0036493,-0.00084467,0.0008414,0.00013269,0,0,0.032853,-0.019727,0,0.003105,0,0,0,0.0036532,-0.00084858,0.0008414,1.6898,0.0012154,0.0039388,1.3046e-09,0.6,0.56,0
0.030158,0.0022543,0.0038146,-0.00093666,0.00086339,0.00038358,0,0,0.034529,-0.02106,0,0.0089759,0,0,0,0.0038454,-0.00096742,0.00086339,4.5861,0.0012471,0.0042076,1.5309e-09,0.62,0.56,0
0.030874,0.0021767,0.0041755,-0.0010913,0.00092527,0.00055421,0,0,0.038028,-0.023594,0,0.012969,0,0,0,0.0042332,-0.001149,0.00092527,5.9423,0.0013365,0.0047018,2.0529e-09,0.64,0.56,0
0.031679,0.0019827,0.0045209,-0.0013686,0.0009457,0.00056824,0,0,0.04183,-0.027077,0,0.013297,0,0,0,0.0045752,-0.0014229,0.0009457,5.4611,0.001366,0.0052326,2.6083e-09,0.66,0.56,0
0.032547,0.0016396,0.0049895,-0.0011165,0.0011619,0.00039218,0,0,0.044783,-0.026657,0,0.009177,0,0,0,0.0050146,-0.0011416,0.0011619,3.66,0.0016783,0.0053874,3.3685e-09,0.68,0.56,0
0.03347,0.0011935,0.0054501,-0.00060191,0.0014545,0.00034643,0,0,0.046749,-0.02406,0,0.0081065,0,0,0,0.0054699,-0.00062167,0.0014545,3.2655,0.0021009,0.0053638,4.1111e-09,0.7,0.56,0
0.034417,0.00073075,0.0057593,-0.00037839,0.0016143,0.00028179,0,0,0.048497,-0.023314,0,0.006594,0,0,0,0.0057722,-0.0003913,0.0016143,2.6232,0.0023317,0.0054452,4.6604e-09,0.72,0.56,0
0.03541,0.00028841,0.0061002,-8.7308e-05,0.0018039,0.00024428,0,0,0.050267,-0.022127,0,0.0057161,0,0,0,0.0061099,-9.6937e-05,0.0018039,2.2573,0.0026056,0.0055081,5.2645e-09,0.74,0.56,0
0.036427,-0.00013216,0.006332,0.00014668,0.0019436,0.00021675,0,0,0.051344,-0.021024,0,0.0050718,0,0,0,0.0063395,0.00013909,0.0019436,2.0045,0.0028074,0.0055239,5.6449e-09,0.76,0.56,0
0.037464,-0.00051597,0.0065226,0.00034573,0.0020605,0.00022213,0,0,0.052207,-0.020063,0,0.0051978,0,0,0,0.0065306,0.00033775,0.0020605,2.0569,0.0029763,0.0055363,5.9548e-09,0.78,0.56,0
0.038516,-0.00085401,0.0066818,0.00048226,0.0021492,0.00024662,0,0,0.053031,-0.019503,0,0.0057709,0,0,0,0.0066916,0.00047246,0.0021492,2.2745,0.0031044,0.0055732,6.2529e-09,0.8,0.56,0
0.039585,-0.0011406,0.0068274,0.00055984,0.0022162,0.0002775,0,0,0.053951,-0.019379,0,0.0064935,0,0,0,0.0068397,0.00054758,0.0022162,2.5302,0.0032011,0.0056459,6.5938e-09,0.82,0.56,0
0.040674,-0.0013759,0.0069623,0.00058694,0.0022648,0.00030069,0,0,0.054961,-0.01963,0,0.0070361,0,0,0,0.0069764,0.00057279,0.0022648,2.6943,0.0032713,0.0057476,6.9779e-09,0.84,0.56,0
0.041783,-0.001564,0.0070864,0.00057979,0.0022998,0.00030872,0,0,0.056002,-0.020125,0,0.0072241,0,0,0,0.007101,0.00056518,0.0022998,2.7104,0.003322,0.0058642,7.3835e-09,0.86,0.56,0
0.042914,-0.0017109,0.0071969,0.00055263,0.0023248,0.00029927,0,0,0.057002,-0.020735,0,0.007003,0,0,0,0.0072103,0.00053918,0.0023248,2.5738,0.0033581,0.0059816,7.7797e-09,0.88,0.56,0
0.044063,-0.0018232,0.0072914,0.00051659,0.0023424,0.00027357,0,0,0.057904,-0.021362,0,0.0064015,0,0,0,0.0073025,0.00050556,0.0023424,2.3086,0.0033835,0.0060899,8.1413e-09,0.9,0.56,0
0.04523,-0.0019068,0.0073688,0.00047936,0.0023545,0.00023428,0,0,0.058668,-0.021939,0,0.0054822,0,0,0,0.0073768,0.00047141,0.0023545,1.9454,0.0034009,0.0061828,8.4507e-09,0.92,0.56,0
0.04641,-0.0019667,0.0074287,0.00044615,0.0023624,0.00018446,0,0,0.059275,-0.022421,0,0.0043164,0,0,0,0.0074335,0.00044128,0.0023624,1.5122,0.0034124,0.0062569,8.6977e-09,0.94,0.56,0
0.047601,-0.0020067,0.0074711,0.00042037,0.0023674,0.00012704,0,0,0.059713,-0.022781,0,0.0029727,0,0,0,0.0074734,0.00041808,0.0023674,1.0319,0.0034196,0.0063106,8.8767e-09,0.96,0.56,0
0.048799,-0.0020297,0.0074963,0.00040414,0.0023701,6.4715e-05,0,0,0.059977,-0.023002,0,0.0015143,0,0,0,0.0074969,0.00040355,0.0023701,0.52275,0.0034235,0.006343,8.9849e-09,0.98,0.56,0
0.05,-0.0020371,0.0075047,0.00039861,0.002371,-1.5955e-05,0,0,0.060065,-0.023077,0,-0.00037336,0,0,0,0.0075048,0.00039857,0.002371,-0.12865,0.0034248,0.0063539,9.0213e-09,1,0.56,0
0,0,0.0069005,0.0029574,0.0029574,-0.00061719,0,0,0.046135,0,0,-0.014442,0,0,0,0.0069949,0.002863,0.0029574,-8.6912,0.0042718,0.0040855,3.4961e-09,0,0.58,0
0.0009227,-0.00028885,0.0068832,0.0027611,0.0028933,-0.00061613,0,0,0.046682,-0.0015465,0,-0.014417,0,0,0,0.0069733,0.002671,0.0028933,-8.3217,0.0041792,0.0041956,3.7574e-09,0.02,0.58,0
0.0018673,-0.00054989,0.0069466,0.0026006,0.0028642,-0.00059182,0,0,0.047764,-0.0030834,0,-0.013849,0,0,0,0.0070257,0.0025215,0.0028642,-7.6176,0.0041371,0.0043431,4.1192e-09,0.04,0.58,0
0.0028333,-0.00078612,0.007007,0.0024433,0.0028351,-0.00057597,0,0,0.048812,-0.0045843,0,-0.013478,0,0,0,0.0070786,0.0023717,0.0028351,-7.083,0.0040951,0.0044931,4.4922e-09,0.06,0.58,0
0.0038197,-0.00099976,0.007063,0.0022912,0.0028063,-0.0005668,0,0,0.049804,-0.0060263,0,-0.013263,0,0,0,0.0071294,0.0022248,0.0028063,-6.6818,0.0040535,0.0046413,4.8643e-09,0.08,0.58,0
0.0048254,-0.0011924,0.0071131,0.0021463,0.0027778,-0.00056286,0,0,0.050722,-0.0073887,0,-0.013171,0,0,0,0.007176,0.0020833,0.0027778,-6.3851,0.0040124,0.0047835,5.2242e-09,0.1,0.58,0
0.0058487,-0.001365,0.0071558,0.0020102,0.0027498,-0.00056287,0,0,0.05155,-0.0086535,0,-0.013171,0,0,0,0.0072167,0.0019493,0.0027498,-6.1702,0.0039719,0.0049162,5.5612e-09,0.12,0.58,0
0.0068874,-0.0015182,0.0071899,0.0018842,0.0027222,-0.00056572,0,0,0.052271,-0.0098047,0,-0.013238,0,0,0,0.0072495,0.0018246,0.0027222,-6.0191,0.0039321,0.0050365,5.8651e-09,0.14,0.58,0
0.0079395,-0.0016517,0.0072138,0.0017695,0.002695,-0.00057038,0,0,0.052871,-0.010828,0,-0.013347,0,0,0,0.007273,0.0017104,0.002695,-5.917,0.0038928,0.0051415,6.1265e-09,0.16,0.58,0
0.0090023,-0.0017652,0.0072264,0.0016668,0.002668,-0.00057576,0,0,0.053334,-0.011714,0,-0.013473,0,0,0,0.0072854,0.0016078,0.002668,-5.8508,0.0038537,0.0052288,6.3368e-09,0.18,0.58,0
0.010073,-0.0018576,0.0072263,0.0015764,0.0026408,-0.00058071,0,0,0.05365,-0.012453,0,-0.013589,0,0,0,0.0072854,0.0015174,0.0026408,-5.8081,0.0038145,0.0052964,6.4885e-09,0.2,0.58,0
0.011148,-0.0019274,0.0072122,0.0014983,0.0026131,-0.00058387,0,0,0.053809,-0.013043,0,-0.013663,0,0,0,0.0072712,0.0014393,0.0026131,-5.7753,0.0037746,0.0053426,6.5756e-09,0.22,0.58,0
0.012225,-0.0019724,0.0071828,0.0014317,0.0025844,-0.00058363,0,0,0.053802,-0.013486,0,-0.013657,0,0,0,0.0072415,0.001373,0.0025844,-5.7365,0.003733,0.0053663,6.594e-09,0.24,0.58,0
0.0133,-0.0019899,0.0071373,0.0013748,0.0025536,-0.00057805,0,0,0.053629,-0.013793,0,-0.013526,0,0,0,0.0071947,0.0013174,0.0025536,-5.6721,0.0036886,0.0053671,6.5424e-09,0.26,0.58,0
0.01437,-0.0019764,0.007075,0.0013248,0.0025199,-0.00056492,0,0,0.053295,-0.013983,0,-0.013219,0,0,0,0.00713,0.0012698,0.0025199,-5.5582,0.0036399,0.0053459,6.4235e-09,0.28,0.58,0
0.015432,-0.0019277,0.006996,0.0012773,0.002482,-0.00054195,0,0,0.052814,-0.014095,0,-0.012682,0,0,0,0.0070469,0.0012264,0.002482,-5.3662,0.0035851,0.0053053,6.2452e-09,0.3,0.58,0
0.016483,-0.0018392,0.0069009,0.0012257,0.002438,-0.00050721,0,0,0.052216,-0.014184,0,-0.011869,0,0,0,0.0069459,0.0011807,0.002438,-5.0672,0.0035215,0.0052507,6.0221e-09,0.32,0.58,0
0.017521,-0.0017062,0.0067913,0.0011612,0.0023858,-0.00046003,0,0,0.051545,-0.014327,0,-0.010765,0,0,0,0.0068286,0.0011239,0.0023858,-4.6406,0.0034461,0.0051902,5.7749e-09,0.34,0.58,0
0.018545,-0.0015245,0.0066685,0.0010732,0.0023225,-0.000402,0,0,0.050848,-0.014617,0,-0.0094069,0,0,0,0.0066972,0.0010445,0.0023225,-4.0886,0.0033547,0.0051344,5.5266e-09,0.36,0.58,0
0.019555,-0.0012915,0.0065328,0.0009516,0.0022453,-0.00033786,0,0,0.050163,-0.015136,0,-0.007906,0,0,0,0.0065531,0.00093123,0.0022453,-3.4517,0.0032432,0.0050936,5.2949e-09,0.38,0.58,0
0.020551,-0.0010072,0.0063807,0.00078869,0.0021508,-0.00027424,0,0,0.04949,-0.015937,0,-0.0064172,0,0,0,0.0063942,0.00077527,0.0021508,-2.8009,0.0031068,0.005073,5.08e-09,0.4,0.58,0
0.021534,-0.00067513,0.0062086,0.00058576,0.0020383,-0.00021831,0,0,0.048792,-0.016995,0,-0.0051085,0,0,0,0.006217,0.00057729,0.0020383,-2.2201,0.0029442,0.0050697,4.8657e-09,0.42,0.58,0
0.022503,-0.00030204,0.006005,0.00034215,0.0019042,-0.00016965,0,0,0.04798,-0.018276,0,-0.0039699,0,0,0,0.0060101,0.00033708,0.0019042,-1.7145,0.0027505,0.0050744,4.6161e-09,0.44,0.58,0
0.023453,0.00010433,0.0057933,7.8033e-05,0.0017614,-0.00012932,0,0,0.047173,-0.019696,0,-0.0030262,0,0,0,0.0057963,7.5108e-05,0.0017614,-1.2956,0.0025443,0.0050919,4.3585e-09,0.46,0.58,0
0.02439,0.00052837,0.0055588,-0.00026537,0.001588,-9.409e-05,0,0,0.046458,-0.021685,0,-0.0022017,0,0,0,0.0055603,-0.00026689,0.001588,-0.9253,0.0022938,0.0051564,4.0934e-09,0.48,0.58,0
0.025312,0.00093919,0.0053016,-0.00066493,0.001391,-0.00011953,0,0,0.045754,-0.024054,0,-0.002797,0,0,0,0.005304,-0.00066732,0.001391,-1.1472,0.0020092,0.0052538,3.7801e-09,0.5,0.58,0
0.02622,0.0012894,0.0050393,-0.00095263,0.001226,-0.00017935,0,0,0.044616,-0.02549,0,-0.0041969,0,0,0,0.0050447,-0.00095799,0.001226,-1.713,0.0017709,0.0052623,3.3752e-09,0.52,0.58,0
0.027096,0.0015457,0.0047915,-0.0010399,0.0011255,-0.00022317,0,0,0.042892,-0.025335,0,-0.0052223,0,0,0,0.0048,-0.0010484,0.0011255,-2.1885,0.0016257,0.0051202,2.9441e-09,0.54,0.58,0
0.027936,0.0017093,0.0045918,-0.0010176,0.0010723,-0.0001762,0,0,0.041178,-0.024451,0,-0.0041232,0,0,0,0.0045973,-0.0010231,0.0010723,-1.7974,0.0015488,0.0049196,2.5907e-09,0.56,0.58,0
0.028744,0.0017967,0.0044651,-0.001019,0.0010338,-6.3206e-05,0,0,0.040146,-0.024018,0,-0.001479,0,0,0,0.0044658,-0.0010197,0.0010338,-0.66024,0.0014933,0.0048003,2.3798e-09,0.58,0.58,0
0.029541,0.0018207,0.004462,-0.0010539,0.0010224,7.1696e-05,0,0,0.040243,-0.024293,0,0.0016777,0,0,0,0.0044629,-0.0010548,0.0010224,0.74457,0.0014768,0.0048269,2.3819e-09,0.6,0.58,0
0.030353,0.0017801,0.0045836,-0.0011232,0.0010381,0.00017972,0,0,0.041482,-0.025288,0,0.0042056,0,0,0,0.0045892,-0.0011289,0.0010381,1.802,0.0014995,0.0050002,2.5979e-09,0.62,0.58,0
0.031201,0.0016589,0.0047796,-0.0012187,0.0010683,0.00021459,0,0,0.043423,-0.026758,0,0.0050215,0,0,0,0.0047873,-0.0012263,0.0010683,2.0463,0.0015431,0.0052564,2.9578e-09,0.64,0.58,0
0.03209,0.0014372,0.0050237,-0.0012031,0.0011462,0.00014851,0,0,0.045367,-0.027487,0,0.003475,0,0,0,0.0050272,-0.0012067,0.0011462,1.3654,0.0016556,0.0054525,3.4086e-09,0.66,0.58,0
0.033016,0.0011098,0.0052812,-0.00097428,0.0012921,5.7306e-05,0,0,0.046672,-0.026516,0,0.001341,0,0,0,0.0052817,-0.00097481,0.0012921,0.52482,0.0018663,0.0054863,3.8636e-09,0.68,0.58,0
0.033957,0.00070778,0.0055325,-0.00061421,0.0014755,-2.2917e-06,0,0,0.047467,-0.02445,0,-5.3627e-05,0,0,0,0.0055325,-0.00061421,0.0014755,-0.021362,0.0021313,0.0054134,4.246e-09,0.7,0.58,0
0.034914,0.00027919,0.0057593,-0.00030124,0.0016374,1.3325e-06,0,0,0.048226,-0.022683,0,3.118e-05,0,0,0,0.0057593,-0.00030124,0.0016374,0.012597,0.0023652,0.0053609,4.5667e-09,0.72,0.58,0
0.035886,-0.00014344,0.0059631,-6.6497e-05,0.001769,1.3025e-05,0,0,0.049071,-0.021475,0,0.00030478,0,0,0,0.0059631,-6.6525e-05,0.001769,0.12377,0.0025552,0.0053533,4.8705e-09,0.74,0.58,0
0.036877,-0.00054301,0.0061602,0.00014693,0.0018921,3.4562e-05,0,0,0.049937,-0.020419,0,0.00080876,0,0,0,0.0061604,0.00014673,0.0018921,0.3293,0.0027331,0.0053586,5.1687e-09,0.76,0.58,0
0.037884,-0.00091066,0.0063284,0.00031786,0.0019939,6.4517e-05,0,0,0.050714,-0.01961,0,0.0015097,0,0,0,0.0063291,0.00031716,0.0019939,0.61491,0.0028801,0.0053735,5.4314e-09,0.78,0.58,0
0.038906,-0.0012385,0.0064788,0.00044483,0.0020771,0.00010283,0,0,0.0515,-0.019097,0,0.0024063,0,0,0,0.0064805,0.00044308,0.0020771,0.97609,0.0030002,0.0054089,5.6965e-09,0.8,0.58,0
0.039944,-0.0015223,0.0066156,0.00052513,0.0021422,0.00014177,0,0,0.052339,-0.01892,0,0.0033173,0,0,0,0.0066189,0.00052183,0.0021422,1.3327,0.0030943,0.00547,5.9856e-09,0.82,0.58,0
0.040999,-0.0017613,0.0067426,0.00056524,0.0021924,0.00017386,0,0,0.053238,-0.019037,0,0.0040684,0,0,0,0.0067475,0.00056035,0.0021924,1.6109,0.0031667,0.005554,6.3053e-09,0.84,0.58,0
0.042073,-0.0019576,0.0068593,0.00057467,0.0022302,0.00019355,0,0,0.054161,-0.01937,0,0.004529,0,0,0,0.0068653,0.00056872,0.0022302,1.7623,0.0032214,0.0056521,6.6431e-09,0.86,0.58,0
0.043166,-0.0021152,0.0069642,0.00056402,0.0022585,0.00019851,0,0,0.055057,-0.019825,0,0.0046452,0,0,0,0.0069704,0.00055787,0.0022585,1.7749,0.0032622,0.0057539,6.9793e-09,0.88,0.58,0
0.044276,-0.0022387,0.0070552,0.00054236,0.0022793,0.00018895,0,0,0.055878,-0.020322,0,0.0044214,0,0,0,0.0070606,0.00053688,0.0022793,1.6604,0.0032923,0.0058505,7.293e-09,0.9,0.58,0
0.045401,-0.0023329,0.0071307,0.00051676,0.0022942,0.00016659,0,0,0.056586,-0.020796,0,0.0038982,0,0,0,0.0071349,0.00051257,0.0022942,1.442,0.0033139,0.0059355,7.5675e-09,0.92,0.58,0
0.046539,-0.0024017,0.0071898,0.00049237,0.0023047,0.00013388,0,0,0.057156,-0.021204,0,0.0031329,0,0,0,0.0071925,0.00048969,0.0023047,1.1447,0.0033289,0.0060047,7.7907e-09,0.94,0.58,0
0.047687,-0.0024485,0.0072322,0.0004727,0.0023115,9.3471e-05,0,0,0.057572,-0.021514,0,0.0021872,0,0,0,0.0072335,0.00047141,0.0023115,0.79209,0.0033388,0.0060555,7.9547e-09,0.96,0.58,0
0.048842,-0.0024756,0.0072576,0.00046005,0.0023153,4.799e-05,0,0,0.057825,-0.021706,0,0.001123,0,0,0,0.0072579,0.00045971,0.0023153,0.40447,0.0033443,0.0060864,8.0547e-09,0.98,0.58,0
0.05,-0.0024845,0.0072661,0.0004557,0.0023165,-1.8976e-05,0,0,0.05791,-0.021772,0,-0.00044405,0,0,0,0.0072661,0.00045565,0.0023165,-0.15965,0.0033461,0.0060969,8.0886e-09,1,0.58,0
0,0,0.0068014,0.0029149,0.0029149,-0.00068087,0,0,0.045472,-1.6263e-19,0,-0.015932,0,0,0,0.0069173,0.0027991,0.0029149,-9.6545,0.0042104,0.0040615,3.4316e-09,0,0.6,0
0.00090945,-0.00031865,0.0067855,0.0027319,0.0028552,-0.00067896,0,0,0.045984,-0.0014431,0,-0.015888,0,0,0,0.0068962,0.0026212,0.0028552,-9.2601,0.0041242,0.004163,3.6659e-09,0.02,0.6,0
0.0018394,-0.0006095,0.0068444,0.0025798,0.0028273,-0.00065263,0,0,0.047001,-0.0028955,0,-0.015272,0,0,0,0.0069421,0.0024821,0.0028273,-8.5088,0.0040838,0.0042978,3.9886e-09,0.04,0.6,0
0.0027895,-0.00087497,0.0069006,0.002429,0.0027989,-0.00063307,0,0,0.04799,-0.0043275,0,-0.014814,0,0,0,0.0069885,0.0023411,0.0027989,-7.9047,0.0040428,0.0044363,4.3235e-09,0.06,0.6,0
0.003759,-0.0011168,0.0069523,0.002282,0.0027703,-0.00061863,0,0,0.04893,-0.0057129,0,-0.014476,0,0,0,0.0070329,0.0022015,0.0027703,-7.419,0.0040016,0.0045736,4.6583e-09,0.08,0.6,0
0.0047467,-0.0013362,0.006998,0.0021409,0.0027417,-0.00060794,0,0,0.049799,-0.0070289,0,-0.014226,0,0,0,0.0070729,0.002066,0.0027417,-7.0271,0.0039602,0.0047056,4.9815e-09,0.1,0.6,0
0.0057509,-0.0015336,0.007036,0.0020074,0.002713,-0.0005998,0,0,0.050579,-0.0082556,0,-0.014035,0,0,0,0.0071066,0.0019369,0.002713,-6.7087,0.0039188,0.0048286,5.2822e-09,0.12,0.6,0
0.0067698,-0.0017094,0.0070651,0.0018831,0.0026845,-0.00059314,0,0,0.051254,-0.0093759,0,-0.013879,0,0,0,0.0071322,0.0018161,0.0026845,-6.447,0.0038776,0.0049394,5.5502e-09,0.14,0.6,0
0.0078011,-0.0018631,0.0070839,0.0017691,0.0026559,-0.00058696,0,0,0.051808,-0.010376,0,-0.013735,0,0,0,0.0071479,0.001705,0.0026559,-6.2276,0.0038363,0.0050353,5.7766e-09,0.16,0.6,0
0.0088421,-0.001994,0.0070911,0.001666,0.0026271,-0.00058025,0,0,0.052228,-0.011245,0,-0.013578,0,0,0,0.0071525,0.0016046,0.0026271,-6.0371,0.0037947,0.0051138,5.9535e-09,0.18,0.6,0
0.0098902,-0.0021011,0.0070856,0.0015741,0.0025979,-0.0005719,0,0,0.052506,-0.011978,0,-0.013383,0,0,0,0.0071443,0.0015154,0.0025979,-5.8621,0.0037526,0.0051733,6.0747e-09,0.2,0.6,0
0.010942,-0.0021826,0.0070664,0.0014932,0.0025679,-0.00056067,0,0,0.052633,-0.012574,0,-0.01312,0,0,0,0.0071223,0.0014373,0.0025679,-5.688,0.0037092,0.0052125,6.136e-09,0.22,0.6,0
0.011995,-0.0022366,0.0070328,0.001422,0.0025364,-0.0005451,0,0,0.052608,-0.013039,0,-0.012755,0,0,0,0.0070853,0.0013695,0.0025364,-5.4979,0.0036638,0.0052308,6.1356e-09,0.24,0.6,0
0.013047,-0.0022606,0.0069873,0.0013541,0.0025024,-0.00054677,0,0,0.052473,-0.013435,0,-0.012795,0,0,0,0.0070399,0.0013015,0.0025024,-5.4929,0.0036146,0.0052422,6.1099e-09,0.26,0.6,0
0.014093,-0.0022514,0.0069089,0.0012908,0.0024599,-0.00049477,0,0,0.052053,-0.013679,0,-0.011578,0,0,0,0.0069521,0.0012475,0.0024599,-4.9946,0.0035532,0.0052054,5.9407e-09,0.28,0.6,0
0.015131,-0.0022058,0.0068428,0.0012424,0.0024255,-0.00045574,0,0,0.051682,-0.013843,0,-0.010664,0,0,0,0.0068797,0.0012055,0.0024255,-4.622,0.0035036,0.0051732,5.7991e-09,0.3,0.6,0
0.01616,-0.0021202,0.0067515,0.001179,0.0023792,-0.00040671,0,0,0.051157,-0.014042,0,-0.009517,0,0,0,0.0067811,0.0011494,0.0023792,-4.1524,0.0034366,0.0051286,5.6081e-09,0.32,0.6,0
0.017178,-0.0019913,0.0066484,0.0011029,0.0023254,-0.00034716,0,0,0.05058,-0.014303,0,-0.0081235,0,0,0,0.0066701,0.0010812,0.0023254,-3.5682,0.0033589,0.0050823,5.4044e-09,0.34,0.6,0
0.018183,-0.0018164,0.006535,0.0010061,0.0022624,-0.00027863,0,0,0.04999,-0.014698,0,-0.0065198,0,0,0,0.006549,0.00099214,0.0022624,-2.8777,0.0032679,0.0050432,5.2058e-09,0.36,0.6,0
0.019177,-0.0015943,0.0064121,0.00088129,0.002188,-0.00020428,0,0,0.049422,-0.015289,0,-0.0047802,0,0,0,0.0064197,0.00087376,0.002188,-2.1124,0.0031605,0.0050195,5.0252e-09,0.38,0.6,0
0.02016,-0.001326,0.00628,0.00072344,0.002101,-0.0001285,0,0,0.048894,-0.016118,0,-0.0030068,0,0,0,0.006283,0.00072047,0.002101,-1.324,0.0030348,0.0050168,4.8672e-09,0.4,0.6,0
0.021133,-0.001015,0.006138,0.00052979,0.0020004,-5.4973e-05,0,0,0.048411,-0.017206,0,-0.0012864,0,0,0,0.0061386,0.00052925,0.0020004,-0.56155,0.0028894,0.0050376,4.7271e-09,0.42,0.6,0
0.022097,-0.00066761,0.0059913,0.00030209,0.001888,1.2631e-05,0,0,0.048008,-0.018555,0,0.00029556,0,0,0,0.0059913,0.00030207,0.001888,0.1272,0.0027271,0.0050852,4.6055e-09,0.44,0.6,0
0.023053,-0.00029412,0.0058417,3.1473e-05,0.001762,7.0255e-05,0,0,0.047733,-0.020247,0,0.001644,0,0,0,0.0058426,3.0623e-05,0.001762,0.69266,0.0025451,0.0051686,4.502e-09,0.46,0.6,0
0.024006,8.8676e-05,0.0056925,-0.00028186,0.0016232,0.00010069,0,0,0.047611,-0.022289,0,0.0023563,0,0,0,0.0056942,-0.00028355,0.0016232,0.96532,0.0023446,0.0052888,4.4034e-09,0.48,0.6,0
0.024958,0.00045471,0.005538,-0.0006095,0.0014786,9.1039e-05,0,0,0.047496,-0.02443,0,0.0021303,0,0,0,0.0055394,-0.00061084,0.0014786,0.84825,0.0021357,0.0054167,4.2594e-09,0.5,0.6,0
0.025906,0.00077314,0.0053826,-0.00087346,0.0013527,4.2311e-05,0,0,0.047149,-0.026047,0,0.00099008,0,0,0,0.0053829,-0.00087375,0.0013527,0.38748,0.001954,0.0054929,4.0419e-09,0.52,0.6,0
0.026844,0.0010205,0.0052378,-0.0010232,0.0012644,-6.5038e-06,0,0,0.046489,-0.026765,0,-0.00015219,0,0,0,0.0052378,-0.0010232,0.0012644,-0.059518,0.0018264,0.0054874,3.7877e-09,0.54,0.6,0
0.027765,0.0011884,0.0051171,-0.0010892,0.0012084,-2.5266e-05,0,0,0.045732,-0.026881,0,-0.00059122,0,0,0,0.0051172,-0.0010893,0.0012084,-0.23325,0.0017454,0.005435,3.5591e-09,0.56,0.6,0
0.028673,0.0012798,0.0050468,-0.0011212,0.0011777,-7.7445e-06,0,0,0.045269,-0.026897,0,-0.00018122,0,0,0,0.0050468,-0.0011212,0.0011777,-0.071939,0.0017011,0.0053991,3.4269e-09,0.58,0.6,0
0.029576,0.0012983,0.0050448,-0.0011538,0.0011673,2.2233e-05,0,0,0.045367,-0.027157,0,0.00052024,0,0,0,0.0050449,-0.0011539,0.0011673,0.2055,0.0016861,0.0054244,3.4314e-09,0.6,0.6,0
0.030488,0.0012428,0.0051112,-0.0011871,0.0011772,3.3271e-05,0,0,0.046028,-0.027663,0,0.00077853,0,0,0,0.0051114,-0.0011873,0.0011772,0.30265,0.0017004,0.005511,3.5733e-09,0.62,0.6,0
0.031417,0.0011064,0.005228,-0.0011858,0.0012127,6.4487e-07,0,0,0.04698,-0.028062,0,1.509e-05,0,0,0,0.005228,-0.0011858,0.0012127,0.0057607,0.0017516,0.0056131,3.8161e-09,0.64,0.6,0
0.032367,0.00088321,0.0053681,-0.0010968,0.0012814,-6.9925e-05,0,0,0.047814,-0.027825,0,-0.0016363,0,0,0,0.0053688,-0.0010976,0.0012814,-0.61963,0.0018509,0.0056648,4.0957e-09,0.66,0.6,0
0.03333,0.00057898,0.0055172,-0.00088472,0.0013897,-0.00014689,0,0,0.048291,-0.026611,0,-0.0034373,0,0,0,0.0055205,-0.00088809,0.0013897,-1.3138,0.0020074,0.0056268,4.3564e-09,0.68,0.6,0
0.034299,0.00021554,0.0056636,-0.00059801,0.0015197,-0.00018781,0,0,0.048484,-0.024777,0,-0.0043948,0,0,0,0.0056692,-0.00060364,0.0015197,-1.7165,0.0021951,0.0055261,4.5534e-09,0.7,0.6,0
0.035269,-0.00017655,0.0058032,-0.00031832,0.0016455,-0.00018849,0,0,0.048646,-0.022976,0,-0.0044107,0,0,0,0.005809,-0.00032411,0.0016455,-1.762,0.0023768,0.0054235,4.7005e-09,0.72,0.6,0
0.036244,-0.00057058,0.0059426,-7.8522e-05,0.0017592,-0.00016069,0,0,0.048945,-0.021501,0,-0.0037601,0,0,0,0.0059469,-8.2808e-05,0.0017592,-1.5276,0.0025411,0.0053519,4.8446e-09,0.74,0.6,0
0.037227,-0.00094892,0.00608,0.00011824,0.0018595,-0.00012174,0,0,0.04938,-0.020372,0,-0.0028487,0,0,0,0.0060824,0.00011576,0.0018595,-1.1693,0.0026859,0.0053139,5.0022e-09,0.76,0.6,0
0.03822,-0.0013004,0.0062141,0.00027905,0.0019479,-7.6199e-05,0,0,0.049914,-0.019526,0,-0.0017831,0,0,0,0.0062151,0.00027807,0.0019479,-0.73545,0.0028137,0.0053031,5.1772e-09,0.78,0.6,0
0.039224,-0.0016179,0.0063405,0.00040069,0.0020223,-2.8148e-05,0,0,0.050522,-0.018973,0,-0.00065867,0,0,0,0.0063406,0.00040055,0.0020223,-0.27151,0.0029212,0.005318,5.3715e-09,0.8,0.6,0
0.04024,-0.0018974,0.0064599,0.00048456,0.0020833,1.82e-05,0,0,0.051206,-0.018706,0,0.00042589,0,0,0,0.0064599,0.00048451,0.0020833,0.17452,0.0030093,0.005358,5.5932e-09,0.82,0.6,0
0.041272,-0.0021374,0.0065723,0.00053456,0.002132,5.791e-05,0,0,0.05195,-0.018691,0,0.0013551,0,0,0,0.0065728,0.000534,0.002132,0.54948,0.0030796,0.0054195,5.8424e-09,0.84,0.6,0
0.042319,-0.0023388,0.0066768,0.00055749,0.0021703,8.7235e-05,0,0,0.052726,-0.01887,0,0.0020413,0,0,0,0.006678,0.00055625,0.0021703,0.81657,0.0031348,0.0054955,6.1104e-09,0.86,0.6,0
0.043381,-0.0025039,0.0067716,0.00056104,0.0021998,0.00010418,0,0,0.053491,-0.019174,0,0.0024378,0,0,0,0.0067734,0.00055929,0.0021998,0.96075,0.0031775,0.0055778,6.3822e-09,0.88,0.6,0
0.044458,-0.0026361,0.0068549,0.00055248,0.0022222,0.00010854,0,0,0.054203,-0.019536,0,0.0025397,0,0,0,0.0068568,0.00055061,0.0022222,0.98632,0.0032099,0.0056587,6.6413e-09,0.9,0.6,0
0.045549,-0.0027387,0.0069249,0.00053795,0.0022389,0.0001014,0,0,0.054827,-0.019901,0,0.0023727,0,0,0,0.0069265,0.00053634,0.0022389,0.90929,0.0032339,0.0057318,6.8725e-09,0.92,0.6,0
0.046651,-0.0028148,0.0069804,0.00052219,0.0022508,8.4637e-05,0,0,0.055336,-0.020224,0,0.0019805,0,0,0,0.0069815,0.00052108,0.0022508,0.75071,0.0032511,0.0057926,7.0636e-09,0.94,0.6,0
0.047762,-0.0028673,0.0070204,0.00050866,0.0022587,6.053e-05,0,0,0.055712,-0.020476,0,0.0014164,0,0,0,0.007021,0.0005081,0.0022587,0.53253,0.0032626,0.0058379,7.2058e-09,0.96,0.6,0
0.04888,-0.0028979,0.0070446,0.00049967,0.0022633,3.1497e-05,0,0,0.055941,-0.020634,0,0.00073703,0,0,0,0.0070448,0.00049952,0.0022633,0.27572,0.0032692,0.0058657,7.2933e-09,0.98,0.6,0
0.05,-0.002908,0.0070527,0.00049653,0.0022648,-2.1544e-05,0,0,0.056019,-0.020688,0,-0.00050412,0,0,0,0.0070528,0.00049646,0.0022648,-0.18827,0.0032713,0.0058752,7.3232e-09,1,0.6,0
0,0,0.006706,0.002874,0.002874,-0.00074054,0,0,0.044835,-1.0842e-19,0,-0.017329,0,0,0,0.0068442,0.0027359,0.002874,-10.566,0.0041514,0.004041,3.3758e-09,0,0.62,0
0.00089669,-0.00034657,0.0066913,0.0027016,0.0028179,-0.00073778,0,0,0.045319,-0.00136,0,-0.017264,0,0,0,0.0068233,0.0025696,0.0028179,-10.148,0.0040703,0.0041352,3.5876e-09,0.02,0.62,0
0.0018127,-0.00066571,0.0067467,0.0025561,0.0027909,-0.00070969,0,0,0.046283,-0.0027462,0,-0.016607,0,0,0,0.0068636,0.0024392,0.0027909,-9.3559,0.0040312,0.0042595,3.8781e-09,0.04,0.62,0
0.002748,-0.00095922,0.0067996,0.0024103,0.002763,-0.0006865,0,0,0.047229,-0.0041263,0,-0.016064,0,0,0,0.0069045,0.0023054,0.002763,-8.685,0.003991,0.0043882,4.1812e-09,0.06,0.62,0
0.0037019,-0.0012283,0.0068481,0.0022668,0.0027345,-0.00066674,0,0,0.048129,-0.0054717,0,-0.015602,0,0,0,0.0069432,0.0021717,0.0027345,-8.1143,0.0039498,0.0045164,4.4849e-09,0.08,0.62,0
0.0046732,-0.0014736,0.0068905,0.002128,0.0027056,-0.00064914,0,0,0.048964,-0.0067575,0,-0.01519,0,0,0,0.0069774,0.0020411,0.0027056,-7.6243,0.003908,0.0046399,4.7776e-09,0.1,0.62,0
0.0056605,-0.0016953,0.0069252,0.0019958,0.0026763,-0.00063263,0,0,0.049713,-0.0079621,0,-0.014803,0,0,0,0.0070051,0.0019159,0.0026763,-7.1977,0.0038658,0.0047549,5.0485e-09,0.12,0.62,0
0.0066617,-0.0018932,0.0069509,0.0018718,0.0026468,-0.00061624,0,0,0.050358,-0.0090676,0,-0.01442,0,0,0,0.0070246,0.0017981,0.0026468,-6.8198,0.0038232,0.0048581,5.2879e-09,0.14,0.62,0
0.0076748,-0.0020667,0.0069663,0.0017572,0.002617,-0.00059909,0,0,0.050886,-0.01006,0,-0.014019,0,0,0,0.0070343,0.0016892,0.002617,-6.4769,0.0037802,0.0049469,5.4874e-09,0.16,0.62,0
0.0086972,-0.002215,0.0069702,0.0016527,0.0025868,-0.0005803,0,0,0.051285,-0.01093,0,-0.013579,0,0,0,0.0070328,0.0015901,0.0025868,-6.1562,0.0037366,0.0050191,5.6402e-09,0.18,0.62,0
0.0097262,-0.0023367,0.0069617,0.0015583,0.002556,-0.00055893,0,0,0.051547,-0.011673,0,-0.013079,0,0,0,0.007019,0.0015011,0.002556,-5.8442,0.003692,0.0050733,5.7413e-09,0.2,0.62,0
0.010759,-0.0024304,0.0069403,0.0014736,0.0025242,-0.00053392,0,0,0.051669,-0.012292,0,-0.012494,0,0,0,0.006992,0.0014219,0.0025242,-5.5264,0.003646,0.0051089,5.7885e-09,0.22,0.62,0
0.011793,-0.002494,0.0069054,0.0013973,0.0024908,-0.00050411,0,0,0.051651,-0.012794,0,-0.011796,0,0,0,0.0069512,0.0013516,0.0024908,-5.1864,0.0035979,0.0051259,5.7818e-09,0.24,0.62,0
0.012825,-0.0025254,0.0068635,0.0013319,0.0024586,-0.00046883,0,0,0.051537,-0.013182,0,-0.010971,0,0,0,0.0069029,0.0012925,0.0024586,-4.8105,0.0035513,0.0051278,5.736e-09,0.26,0.62,0
0.013853,-0.0025221,0.0067881,0.0012578,0.0024138,-0.00039823,0,0,0.05118,-0.013525,0,-0.0093185,0,0,0,0.0068166,0.0012292,0.0024138,-4.0976,0.0034865,0.0050994,5.5913e-09,0.28,0.62,0
0.014874,-0.0024814,0.0067227,0.0011936,0.0023749,-0.00037348,0,0,0.05087,-0.013821,0,-0.0087394,0,0,0,0.0067478,0.0011685,0.0023749,-3.8469,0.0034304,0.0050847,5.4917e-09,0.3,0.62,0
0.015888,-0.0024009,0.0066388,0.0011202,0.0023277,-0.00031305,0,0,0.05044,-0.014127,0,-0.0073253,0,0,0,0.0066565,0.0011026,0.0023277,-3.2363,0.0033623,0.005054,5.3398e-09,0.32,0.62,0
0.016892,-0.0022784,0.0065461,0.0010349,0.0022743,-0.00024407,0,0,0.04998,-0.014501,0,-0.0057112,0,0,0,0.0065569,0.0010241,0.0022743,-2.5308,0.0032851,0.0050257,5.1846e-09,0.34,0.62,0
0.017887,-0.0021124,0.0064465,0.00093127,0.0022133,-0.00016798,0,0,0.049528,-0.015,0,-0.0039308,0,0,0,0.0064516,0.00092616,0.0022133,-1.743,0.003197,0.0050075,5.0408e-09,0.36,0.62,0
0.018873,-0.001903,0.0063418,0.00080363,0.0021436,-8.7397e-05,0,0,0.049118,-0.015678,0,-0.0020451,0,0,0,0.0063431,0.00080225,0.0021436,-0.90388,0.0030963,0.0050068,4.9203e-09,0.38,0.62,0
0.019852,-0.001652,0.0062339,0.0006475,0.0020644,-5.7379e-06,0,0,0.048783,-0.016578,0,-0.00013427,0,0,0,0.0062339,0.00064749,0.0020644,-0.05885,0.0029819,0.0050299,4.8295e-09,0.4,0.62,0
0.020824,-0.0013633,0.0061257,0.00046034,0.0019758,7.2814e-05,0,0,0.048554,-0.017731,0,0.0017038,0,0,0,0.0061266,0.00045941,0.0019758,0.73623,0.002854,0.0050817,4.7715e-09,0.42,0.62,0
0.021794,-0.0010442,0.0060201,0.00023963,0.0018779,0.00014313,0,0,0.048464,-0.019168,0,0.0033491,0,0,0,0.0060237,0.00023609,0.0018779,1.4175,0.0027126,0.0051662,4.7453e-09,0.44,0.62,0
0.022763,-0.00070554,0.0059201,-1.4408e-05,0.0017717,0.00019658,0,0,0.048537,-0.020898,0,0.0045999,0,0,0,0.0059267,-2.0913e-05,0.0017717,1.8951,0.0025592,0.0052844,4.7436e-09,0.46,0.62,0
0.023735,-0.0003632,0.0058251,-0.00029421,0.0016593,0.00022263,0,0,0.04874,-0.022856,0,0.0052095,0,0,0,0.0058332,-0.0003023,0.0016593,2.0808,0.0023967,0.0054274,4.7425e-09,0.48,0.62,0
0.024713,-3.8023e-05,0.005733,-0.00057278,0.0015481,0.00021246,0,0,0.048964,-0.024814,0,0.0049716,0,0,0,0.0057401,-0.00057993,0.0015481,1.9276,0.0022361,0.0055698,4.7073e-09,0.5,0.62,0
0.025694,0.00024753,0.0056437,-0.00080956,0.0014502,0.00017121,0,0,0.049063,-0.02644,0,0.0040064,0,0,0,0.0056482,-0.0008141,0.0014502,1.5187,0.0020948,0.0056794,4.6194e-09,0.52,0.62,0
0.026675,0.00047507,0.005561,-0.0009772,0.0013751,0.00011584,0,0,0.048974,-0.027522,0,0.0027107,0,0,0,0.005563,-0.00097925,0.0013751,1.0147,0.0019863,0.0057395,4.4948e-09,0.54,0.62,0
0.027653,0.00063408,0.0054942,-0.0010785,0.0013247,6.5775e-05,0,0,0.048783,-0.028118,0,0.0015391,0,0,0,0.0054949,-0.0010792,0.0013247,0.5733,0.0019135,0.0057614,4.3753e-09,0.56,0.62,0
0.028626,0.00072083,0.0054551,-0.0011356,0.0012958,2.7001e-05,0,0,0.048663,-0.028448,0,0.00063183,0,0,0,0.0054552,-0.0011357,0.0012958,0.23473,0.0018718,0.0057729,4.3036e-09,0.58,0.62,0
0.029599,0.00073442,0.005453,-0.0011652,0.0012863,-8.0686e-06,0,0,0.04875,-0.028683,0,-0.00018881,0,0,0,0.005453,-0.0011652,0.0012863,-0.069851,0.001858,0.0057954,4.3083e-09,0.6,0.62,0
0.030576,0.00067353,0.0054878,-0.0011669,0.0012963,-5.3679e-05,0,0,0.049041,-0.028819,0,-0.0012561,0,0,0,0.0054883,-0.0011673,0.0012963,-0.46212,0.0018724,0.0058284,4.3906e-09,0.62,0.62,0
0.031561,0.0005364,0.0055497,-0.0011226,0.0013281,-0.00011753,0,0,0.049392,-0.028673,0,-0.0027501,0,0,0,0.0055518,-0.0011246,0.0013281,-1.0088,0.0019184,0.0058493,4.5252e-09,0.64,0.62,0
0.032552,0.00032422,0.0056263,-0.001008,0.0013855,-0.00019331,0,0,0.049617,-0.028004,0,-0.0045235,0,0,0,0.0056319,-0.0010136,0.0013855,-1.6676,0.0020012,0.0058288,4.6734e-09,0.66,0.62,0
0.033546,4.5333e-05,0.0057078,-0.00081804,0.0014669,-0.00026029,0,0,0.049618,-0.026734,0,-0.0060907,0,0,0,0.0057182,-0.00082841,0.0014669,-2.2805,0.0021189,0.0057532,4.7954e-09,0.68,0.62,0
0.034537,-0.0002833,0.0057903,-0.00057934,0.0015633,-0.00029936,0,0,0.049456,-0.025069,0,-0.0070051,0,0,0,0.0058043,-0.00059338,0.0015633,-2.685,0.0022581,0.0056377,4.8713e-09,0.7,0.62,0
0.035524,-0.00063986,0.0058742,-0.00033402,0.0016621,-0.00030338,0,0,0.049282,-0.023354,0,-0.007099,0,0,0,0.005889,-0.00034881,0.0016621,-2.791,0.0024008,0.0055146,4.9124e-09,0.72,0.62,0
0.036508,-0.0010035,0.0059623,-0.00011177,0.0017552,-0.00027997,0,0,0.049224,-0.021843,0,-0.0065513,0,0,0,0.0059752,-0.00012465,0.0017552,-2.6335,0.0025353,0.0054107,4.949e-09,0.74,0.62,0
0.037493,-0.0013579,0.0060562,7.7444e-05,0.0018401,-0.00023939,0,0,0.049329,-0.020623,0,-0.0056016,0,0,0,0.0060658,6.7875e-05,0.0018401,-2.2892,0.0026579,0.0053372,5.0051e-09,0.76,0.62,0
0.038481,-0.0016917,0.0061537,0.00023155,0.0019156,-0.00019039,0,0,0.049586,-0.019703,0,-0.004455,0,0,0,0.0061598,0.00022544,0.0019156,-1.8394,0.0027669,0.0052956,5.0902e-09,0.78,0.62,0
0.039476,-0.0019974,0.0062523,0.00035159,0.0019812,-0.00013843,0,0,0.049972,-0.019066,0,-0.0032392,0,0,0,0.0062555,0.00034835,0.0019812,-1.3432,0.0028617,0.0052835,5.2076e-09,0.8,0.62,0
0.04048,-0.0022705,0.0063495,0.00043888,0.0020365,-8.807e-05,0,0,0.050462,-0.018692,0,-0.0020608,0,0,0,0.0063508,0.00043757,0.0020365,-0.85347,0.0029416,0.0052979,5.3575e-09,0.82,0.62,0
0.041495,-0.0025089,0.0064437,0.00049693,0.0020822,-4.3145e-05,0,0,0.051029,-0.018547,0,-0.0010096,0,0,0,0.006444,0.00049662,0.0020822,-0.41566,0.0030076,0.0053343,5.5365e-09,0.84,0.62,0
0.042521,-0.0027124,0.0065329,0.00053074,0.0021191,-6.6268e-06,0,0,0.051641,-0.018584,0,-0.00015507,0,0,0,0.0065329,0.00053073,0.0021191,-0.063259,0.0030609,0.0053866,5.7365e-09,0.86,0.62,0
0.04356,-0.0028821,0.0066151,0.00054617,0.0021484,1.9774e-05,0,0,0.05226,-0.018746,0,0.00046271,0,0,0,0.0066151,0.0005461,0.0021484,0.18668,0.0031032,0.0054476,5.9454e-09,0.88,0.62,0
0.044612,-0.0030202,0.0066882,0.00054903,0.0021712,3.5625e-05,0,0,0.052849,-0.018979,0,0.00083363,0,0,0,0.0066884,0.00054882,0.0021712,0.33247,0.0031361,0.0055105,6.1492e-09,0.9,0.62,0
0.045674,-0.0031289,0.0067503,0.00054448,0.0021884,4.1568e-05,0,0,0.053374,-0.019234,0,0.00097268,0,0,0,0.0067506,0.0005442,0.0021884,0.38375,0.0031611,0.0055694,6.3348e-09,0.92,0.62,0
0.046747,-0.0032107,0.0068001,0.00053675,0.002201,3.8998e-05,0,0,0.053809,-0.019472,0,0.00091255,0,0,0,0.0068003,0.00053651,0.002201,0.35673,0.0031793,0.0056196,6.4908e-09,0.94,0.62,0
0.047827,-0.0032676,0.0068363,0.00052903,0.0022096,2.978e-05,0,0,0.054132,-0.019662,0,0.00069686,0,0,0,0.0068364,0.00052889,0.0022096,0.27052,0.0031916,0.0056576,6.6083e-09,0.96,0.62,0
0.048912,-0.003301,0.0068583,0.00052354,0.0022145,1.6034e-05,0,0,0.054332,-0.019785,0,0.00037519,0,0,0,0.0068583,0.0005235,0.0022145,0.14502,0.0031988,0.0056813,6.6812e-09,0.98,0.62,0
0.05,-0.0033121,0.0068656,0.00052157,0.0022162,-2.3601e-05,0,0,0.054399,-0.019827,0,-0.00055226,0,0,0,0.0068657,0.00052148,0.0022162,-0.21314,0.0032011,0.0056895,6.7063e-09,1,0.62,0
0,0,0.0066156,0.0028353,0.0028353,-0.0007971,0,0,0.04423,-4.8789e-19,0,-0.018652,0,0,0,0.0067768,0.0026741,0.0028353,-11.433,0.0040954,0.0040246,3.3299e-09,0,0.64,0
0.0008846,-0.00037305,0.0066017,0.0026707,0.0027817,-0.00079351,0,0,0.044694,-0.0012987,0,-0.018568,0,0,0,0.0067559,0.0025166,0.0027817,-10.992,0.0040181,0.0041131,3.5238e-09,0.02,0.64,0
0.0017878,-0.00071935,0.0066547,0.0025298,0.0027554,-0.00076394,0,0,0.045622,-0.0026385,0,-0.017876,0,0,0,0.0067916,0.0023929,0.0027554,-10.163,0.00398,0.0042291,3.7888e-09,0.04,0.64,0
0.0027095,-0.00104,0.0067053,0.0023871,0.0027277,-0.00073727,0,0,0.046538,-0.0039852,0,-0.017252,0,0,0,0.0068277,0.0022647,0.0027277,-9.4268,0.00394,0.00435,4.0665e-09,0.06,0.64,0
0.0036493,-0.0013357,0.0067516,0.0022454,0.0026991,-0.00071221,0,0,0.047414,-0.0053081,0,-0.016666,0,0,0,0.0068615,0.0021356,0.0026991,-8.771,0.0038987,0.0044709,4.3451e-09,0.08,0.64,0
0.0046061,-0.0016065,0.0067919,0.0021074,0.0026698,-0.00068767,0,0,0.048229,-0.0065802,0,-0.016092,0,0,0,0.0068908,0.0020085,0.0026698,-8.1809,0.0038564,0.0045875,4.6132e-09,0.1,0.64,0
0.0055784,-0.0018521,0.0068246,0.0019751,0.0026399,-0.00066272,0,0,0.048961,-0.0077786,0,-0.015508,0,0,0,0.0069136,0.0018861,0.0026399,-7.6431,0.0038132,0.0046961,4.8604e-09,0.12,0.64,0
0.0065645,-0.0020721,0.0068483,0.0018502,0.0026095,-0.00063657,0,0,0.049593,-0.0088845,0,-0.014896,0,0,0,0.0069281,0.0017704,0.0026095,-7.1454,0.0037693,0.0047935,5.0777e-09,0.14,0.64,0
0.0075622,-0.0022655,0.0068618,0.0017339,0.0025787,-0.00060854,0,0,0.050112,-0.009884,0,-0.01424,0,0,0,0.006933,0.0016627,0.0025787,-6.676,0.0037248,0.0048772,5.2572e-09,0.16,0.64,0
0.008569,-0.0024312,0.006855,0.0016213,0.0025429,-0.00059464,0,0,0.050451,-0.010783,0,-0.013915,0,0,0,0.0069217,0.0015546,0.0025429,-6.4012,0.003673,0.0049475,5.3929e-09,0.18,0.64,0
0.0095824,-0.002568,0.0068528,0.001525,0.0025134,-0.00056684,0,0,0.050772,-0.011563,0,-0.013264,0,0,0,0.0069125,0.0014654,0.0025134,-6.0063,0.0036304,0.005006,5.5035e-09,0.2,0.64,0
0.0106,-0.0026743,0.0068324,0.001439,0.0024814,-0.00053283,0,0,0.050907,-0.012196,0,-0.012468,0,0,0,0.0068845,0.0013869,0.0024814,-5.5884,0.0035843,0.0050403,5.5455e-09,0.22,0.64,0
0.011619,-0.0027484,0.0067982,0.0013592,0.0024472,-0.00046158,0,0,0.050907,-0.01273,0,-0.010801,0,0,0,0.0068371,0.0013203,0.0024472,-4.8164,0.0035349,0.0050486,5.5151e-09,0.24,0.64,0
0.012637,-0.0027884,0.0067536,0.0012829,0.0024109,-0.00041498,0,0,0.050809,-0.013199,0,-0.0097105,0,0,0,0.0067849,0.0012516,0.0024109,-4.3133,0.0034825,0.0050544,5.4737e-09,0.26,0.64,0
0.013651,-0.0027925,0.006697,0.001209,0.0023718,-0.00036002,0,0,0.050604,-0.013604,0,-0.0084244,0,0,0,0.0067205,0.0011855,0.0023718,-3.7374,0.0034259,0.0050475,5.3949e-09,0.28,0.64,0
0.014661,-0.0027587,0.0066306,0.0011337,0.0023293,-0.00029804,0,0,0.050325,-0.013988,0,-0.0069742,0,0,0,0.0066467,0.0011176,0.0023293,-3.0945,0.0033645,0.0050338,5.2936e-09,0.3,0.64,0
0.015664,-0.0026853,0.0065561,0.0010524,0.0022826,-0.000229,0,0,0.050001,-0.014393,0,-0.0053586,0,0,0,0.0065657,0.0010429,0.0022826,-2.3785,0.003297,0.0050191,5.1826e-09,0.32,0.64,0
0.016661,-0.0025714,0.0064886,0.00097446,0.0022389,-0.00018594,0,0,0.049721,-0.014794,0,-0.0043509,0,0,0,0.0064948,0.00096819,0.0022389,-1.9291,0.003234,0.0050136,5.0976e-09,0.34,0.64,0
0.017651,-0.0024164,0.0064082,0.00089063,0.0021897,-0.000131,0,0,0.049357,-0.015199,0,-0.0030654,0,0,0,0.0064113,0.00088752,0.0021897,-1.3593,0.0031628,0.0050015,4.9874e-09,0.36,0.64,0
0.018635,-0.0022214,0.0063072,0.00073479,0.0021126,2.1721e-06,0,0,0.049077,-0.01612,0,5.0828e-05,0,0,0,0.0063072,0.00073479,0.0021126,0.022334,0.0030515,0.0050271,4.9102e-09,0.38,0.64,0
0.019615,-0.0019891,0.0062218,0.00056827,0.002037,9.114e-05,0,0,0.048962,-0.017184,0,0.0021327,0,0,0,0.0062232,0.0005668,0.002037,0.92335,0.0029423,0.0050834,4.8925e-09,0.4,0.64,0
0.020593,-0.0017243,0.0061417,0.00038743,0.0019587,0.00016723,0,0,0.048941,-0.018384,0,0.0039133,0,0,0,0.0061466,0.00038258,0.0019587,1.6633,0.0028293,0.0051597,4.8992e-09,0.42,0.64,0
0.021573,-0.0014343,0.0060683,0.00017912,0.0018742,0.00023174,0,0,0.049071,-0.019833,0,0.0054228,0,0,0,0.0060774,0.00017001,0.0018742,2.25,0.0027072,0.0052664,4.9387e-09,0.44,0.64,0
0.022556,-0.00113,0.0060028,-5.3668e-05,0.0017847,0.00027721,0,0,0.049351,-0.021509,0,0.0064867,0,0,0,0.0060155,-6.633e-05,0.0017847,2.6152,0.002578,0.0053997,4.9992e-09,0.46,0.64,0
0.023547,-0.00082555,0.0059445,-0.00030052,0.0016932,0.00029577,0,0,0.04974,-0.023327,0,0.006921,0,0,0,0.0059585,-0.00031449,0.0016932,2.7055,0.0024457,0.0055486,5.0592e-09,0.48,0.64,0
0.024546,-0.00053785,0.0058915,-0.00054181,0.0016049,0.00028322,0,0,0.050153,-0.025117,0,0.0066274,0,0,0,0.005904,-0.00055425,0.0016049,2.5159,0.0023182,0.0056944,5.0941e-09,0.5,0.64,0
0.025553,-0.00028444,0.0058424,-0.00075311,0.0015268,0.00024224,0,0,0.050493,-0.026675,0,0.0056683,0,0,0,0.0058513,-0.00076199,0.0015268,2.1005,0.0022054,0.005817,5.0903e-09,0.52,0.64,0
0.026566,-8.0394e-05,0.0057984,-0.00091644,0.0014646,0.00018267,0,0,0.050705,-0.027858,0,0.0042746,0,0,0,0.0058033,-0.00092141,0.0014646,1.5572,0.0021155,0.0059051,5.0547e-09,0.54,0.64,0
0.027581,6.3707e-05,0.0057631,-0.0010279,0.0014206,0.00011547,0,0,0.050808,-0.028647,0,0.002702,0,0,0,0.0057651,-0.0010298,0.0014206,0.97385,0.0020519,0.0059603,5.0095e-09,0.56,0.64,0
0.028598,0.00014183,0.0057423,-0.0010935,0.0013946,4.6951e-05,0,0,0.050867,-0.029111,0,0.0010987,0,0,0,0.0057426,-0.0010938,0.0013946,0.39351,0.0020145,0.0059931,4.9802e-09,0.58,0.64,0
0.029616,0.000151,0.0057396,-0.0011199,0.0013859,-2.3295e-05,0,0,0.050938,-0.029318,0,-0.0005451,0,0,0,0.0057397,-0.0011199,0.0013859,-0.19457,0.0020019,0.0060121,4.9837e-09,0.6,0.64,0
0.030635,8.9999e-05,0.005755,-0.0011063,0.0013946,-9.8399e-05,0,0,0.051017,-0.029261,0,-0.0023025,0,0,0,0.0057564,-0.0011077,0.0013946,-0.82146,0.0020144,0.0060168,5.0209e-09,0.62,0.64,0
0.031656,-4.0587e-05,0.0057839,-0.0010451,0.0014216,-0.00017859,0,0,0.051039,-0.028861,0,-0.004179,0,0,0,0.0057886,-0.0010498,0.0014216,-1.497,0.0020535,0.0059976,5.0779e-09,0.64,0.64,0
0.032677,-0.00023694,0.0058204,-0.00092877,0.0014675,-0.00025699,0,0,0.050929,-0.028036,0,-0.0060135,0,0,0,0.0058301,-0.00093854,0.0014675,-2.1774,0.0021197,0.0059429,5.1315e-09,0.66,0.64,0
0.033694,-0.00049038,0.0058602,-0.00075996,0.0015301,-0.00032157,0,0,0.050662,-0.026793,0,-0.0075248,0,0,0,0.0058758,-0.00077554,0.0015301,-2.7744,0.0022101,0.0058498,5.1604e-09,0.68,0.64,0
0.034703,-0.0007872,0.0059023,-0.00055641,0.0016037,-0.00036103,0,0,0.050292,-0.025274,0,-0.0084482,0,0,0,0.0059224,-0.00057653,0.0016037,-3.1895,0.0023165,0.0057289,5.1556e-09,0.7,0.64,0
0.035705,-0.0011107,0.0059481,-0.0003435,0.0016814,-0.00037128,0,0,0.049921,-0.023691,0,-0.008688,0,0,0,0.0059699,-0.00036533,0.0016814,-3.3656,0.0024287,0.0055998,5.1266e-09,0.72,0.64,0
0.0367,-0.0014443,0.0060003,-0.00014251,0.0017573,-0.00035555,0,0,0.049643,-0.022228,0,-0.0083198,0,0,0,0.0060208,-0.00016302,0.0017573,-3.3016,0.0025384,0.005482,5.0946e-09,0.74,0.64,0
0.037691,-0.0017738,0.0060602,3.4303e-05,0.0018283,-0.00032124,0,0,0.049512,-0.02099,0,-0.0075169,0,0,0,0.0060773,1.7227e-05,0.0018283,-3.0429,0.0026409,0.0053878,5.0798e-09,0.76,0.64,0
0.038681,-0.0020885,0.0061271,0.0001823,0.0018928,-0.00027575,0,0,0.049541,-0.020013,0,-0.0064526,0,0,0,0.0061399,0.00016953,0.0018928,-2.6501,0.0027341,0.0053222,5.0947e-09,0.78,0.64,0
0.039673,-0.0023805,0.0061991,0.00030057,0.0019499,-0.00022526,0,0,0.049716,-0.019297,0,-0.0052712,0,0,0,0.0062077,0.00029198,0.0019499,-2.1839,0.0028165,0.0052855,5.1443e-09,0.8,0.64,0
0.040669,-0.0026451,0.0062738,0.00039043,0.0019993,-0.00017451,0,0,0.050012,-0.018823,0,-0.0040836,0,0,0,0.006279,0.00038526,0.0019993,-1.6975,0.0028878,0.0052752,5.2285e-09,0.82,0.64,0
0.041673,-0.0028793,0.0063487,0.00045457,0.002041,-0.00012721,0,0,0.0504,-0.018561,0,-0.0029768,0,0,0,0.0063514,0.00045183,0.002041,-1.2359,0.0029481,0.0052873,5.3433e-09,0.84,0.64,0
0.042686,-0.0030821,0.0064214,0.00049688,0.0020755,-8.6072e-05,0,0,0.050847,-0.01847,0,-0.0020141,0,0,0,0.0064227,0.00049564,0.0020755,-0.83216,0.0029979,0.0053162,5.4811e-09,0.86,0.64,0
0.043707,-0.0032538,0.0064897,0.00052192,0.0021035,-5.2744e-05,0,0,0.051319,-0.018505,0,-0.0012342,0,0,0,0.0064902,0.00052145,0.0021035,-0.50633,0.0030384,0.0053559,5.6317e-09,0.88,0.64,0
0.044738,-0.0033952,0.0065514,0.00053431,0.0021257,-2.7851e-05,0,0,0.051781,-0.018619,0,-0.00065172,0,0,0,0.0065515,0.00053418,0.0021257,-0.2652,0.0030705,0.0054004,5.7835e-09,0.9,0.64,0
0.045778,-0.003508,0.0066045,0.00053836,0.0021429,-1.1116e-05,0,0,0.052201,-0.018773,0,-0.00026012,0,0,0,0.0066045,0.00053834,0.0021429,-0.105,0.0030952,0.0054442,5.9252e-09,0.92,0.64,0
0.046826,-0.0035937,0.0066474,0.0005377,0.0021555,-1.5641e-06,0,0,0.052555,-0.018929,0,-3.6601e-05,0,0,0,0.0066474,0.0005377,0.0021555,-0.014668,0.0031135,0.0054828,6.0464e-09,0.94,0.64,0
0.04788,-0.0036538,0.0066789,0.00053521,0.0021642,2.2659e-06,0,0,0.052821,-0.01906,0,5.3021e-05,0,0,0,0.0066789,0.00053521,0.0021642,0.021131,0.0031261,0.0055127,6.139e-09,0.96,0.64,0
0.048939,-0.0036893,0.0066981,0.00053291,0.0021693,2.1407e-06,0,0,0.052987,-0.019146,0,5.0093e-05,0,0,0,0.0066981,0.00053291,0.0021693,0.019894,0.0031334,0.0055316,6.1969e-09,0.98,0.64,0
0.05,-0.0037011,0.0067046,0.00053201,0.002171,-2.5135e-05,0,0,0.053043,-0.019176,0,-0.00058816,0,0,0,0.0067047,0.00053191,0.002171,-0.23331,0.0031358,0.0055382,6.217e-09,1,0.64,0
0,0,0.0065312,0.0027991,0.0027991,-0.00085153,0,0,0.043666,1.6263e-19,0,-0.019926,0,0,0,0.0067163,0.002614,0.0027991,-12.264,0.0040431,0.004013,3.2953e-09,0,0.66,0
0.00087331,-0.00039852,0.0065179,0.0026396,0.0027473,-0.00084714,0,0,0.044117,-0.00126,0,-0.019823,0,0,0,0.0066949,0.0024626,0.0027473,-11.799,0.0039682,0.0040974,3.4756e-09,0.02,0.66,0
0.0017647,-0.00077126,0.0065694,0.0025011,0.0027211,-0.00081635,0,0,0.045024,-0.0025743,0,-0.019103,0,0,0,0.0067271,0.0023434,0.0027211,-10.934,0.0039305,0.0042075,3.7218e-09,0.04,0.66,0
0.0026743,-0.0011186,0.0066187,0.0023596,0.0026935,-0.00078638,0,0,0.045925,-0.003907,0,-0.018401,0,0,0,0.0067593,0.002219,0.0026935,-10.134,0.0038906,0.0043226,3.9801e-09,0.06,0.66,0
0.0036017,-0.0014406,0.0066639,0.002218,0.0026646,-0.00075613,0,0,0.046793,-0.0052254,0,-0.017693,0,0,0,0.006789,0.0020929,0.0026646,-9.3926,0.0038488,0.004438,4.2393e-09,0.08,0.66,0
0.004546,-0.0017368,0.0067032,0.0020791,0.0026347,-0.00072467,0,0,0.047602,-0.0065007,0,-0.016957,0,0,0,0.0068141,0.0019682,0.0026347,-8.7012,0.0038057,0.0045495,4.4883e-09,0.1,0.66,0
0.0055058,-0.0020064,0.006735,0.0019452,0.0026041,-0.0006913,0,0,0.048332,-0.0077084,0,-0.016176,0,0,0,0.0068328,0.0018475,0.0026041,-8.0506,0.0037614,0.0046534,4.7173e-09,0.12,0.66,0
0.0064792,-0.0022486,0.0067578,0.0018182,0.0025728,-0.00065548,0,0,0.048965,-0.0088285,0,-0.015338,0,0,0,0.0068433,0.0017327,0.0025728,-7.4318,0.0037163,0.0047466,4.9177e-09,0.14,0.66,0
0.0074643,-0.0024621,0.0067707,0.0016994,0.002541,-0.00061677,0,0,0.049487,-0.0098471,0,-0.014432,0,0,0,0.0068446,0.0016255,0.002541,-6.8355,0.0036704,0.0048269,5.0828e-09,0.16,0.66,0
0.0084587,-0.0026458,0.0067636,0.0015842,0.0025043,-0.0005793,0,0,0.049834,-0.010766,0,-0.013556,0,0,0,0.0068276,0.0015202,0.0025043,-6.3045,0.0036174,0.0048902,5.1957e-09,0.18,0.66,0
0.00946,-0.0027981,0.0067607,0.0014809,0.0024725,-0.00050588,0,0,0.050172,-0.011601,0,-0.011838,0,0,0,0.0068087,0.0014329,0.0024725,-5.4241,0.0035714,0.0049388,5.2747e-09,0.2,0.66,0
0.010466,-0.0029178,0.006739,0.0013848,0.0024371,-0.00045255,0,0,0.050332,-0.012313,0,-0.01059,0,0,0,0.006777,0.0013468,0.0024371,-4.7974,0.0035203,0.0049755,5.3161e-09,0.22,0.66,0
0.011473,-0.0030034,0.0067099,0.0013039,0.0024041,-0.00040219,0,0,0.050377,-0.012873,0,-0.0094112,0,0,0,0.0067396,0.0012741,0.0024041,-4.2316,0.0034726,0.0049973,5.3212e-09,0.24,0.66,0
0.012481,-0.0030533,0.0066704,0.0012268,0.0023692,-0.00036571,0,0,0.050325,-0.013366,0,-0.0085576,0,0,0,0.0066949,0.0012024,0.0023692,-3.8263,0.0034221,0.005012,5.3039e-09,0.26,0.66,0
0.013486,-0.0030662,0.0066196,0.0011469,0.0023299,-0.00030105,0,0,0.050189,-0.013842,0,-0.0070446,0,0,0,0.0066361,0.0011304,0.0023299,-3.1392,0.0033655,0.0050148,5.2488e-09,0.28,0.66,0
0.014488,-0.0030409,0.0065611,0.0010653,0.0022879,-0.00023099,0,0,0.049996,-0.014305,0,-0.0054051,0,0,0,0.0065708,0.0010556,0.0022879,-2.4025,0.0033048,0.0050139,5.1792e-09,0.3,0.66,0
0.015486,-0.0029766,0.0064968,0.00097812,0.0022425,-0.00015585,0,0,0.049776,-0.014793,0,-0.003647,0,0,0,0.0065012,0.00097372,0.0022425,-1.6164,0.0032392,0.005015,5.1069e-09,0.32,0.66,0
0.016479,-0.0028731,0.0064284,0.00087001,0.0021895,-7.4277e-05,0,0,0.049595,-0.015438,0,-0.0017381,0,0,0,0.0064294,0.00086901,0.0021895,-0.76547,0.0031626,0.0050318,5.0554e-09,0.34,0.66,0
0.017469,-0.0027308,0.0063408,0.00072551,0.0021199,5.618e-05,0,0,0.049385,-0.016314,0,0.0013146,0,0,0,0.0063414,0.00072495,0.0021199,0.57316,0.0030621,0.0050651,5.0068e-09,0.36,0.66,0
0.018455,-0.0025518,0.0062838,0.00062425,0.0020724,0.00011631,0,0,0.049273,-0.016944,0,0.0027218,0,0,0,0.0062862,0.00062186,0.0020724,1.1769,0.0029935,0.0050963,4.9872e-09,0.38,0.66,0
0.01944,-0.0023393,0.0062282,0.00049103,0.0020158,0.00016451,0,0,0.049285,-0.017839,0,0.0038495,0,0,0,0.0062329,0.00048632,0.0020158,1.6411,0.0029117,0.0051549,5.0037e-09,0.4,0.66,0
0.020426,-0.0020987,0.0061706,0.00031919,0.0019469,0.00023429,0,0,0.049417,-0.019045,0,0.0054825,0,0,0,0.00618,0.00030982,0.0019469,2.2893,0.0028122,0.0052468,5.0562e-09,0.42,0.66,0
0.021417,-0.0018376,0.0061209,0.00012606,0.0018741,0.00029043,0,0,0.049688,-0.020452,0,0.006796,0,0,0,0.006135,0.00011202,0.0018741,2.7671,0.002707,0.0053635,5.1373e-09,0.44,0.66,0
0.022414,-0.0015659,0.0060796,-8.3874e-05,0.0017987,0.00032679,0,0,0.050087,-0.022027,0,0.0076469,0,0,0,0.0060969,-0.00010115,0.0017987,3.0265,0.0025982,0.0055,5.235e-09,0.46,0.66,0
0.02342,-0.0012963,0.0060459,-0.00030116,0.0017234,0.00033802,0,0,0.050573,-0.023687,0,0.0079098,0,0,0,0.0060638,-0.00031911,0.0017234,3.04,0.0024894,0.0056459,5.3314e-09,0.48,0.66,0
0.024437,-0.0010427,0.0060176,-0.00051133,0.0016519,0.0003215,0,0,0.051079,-0.02531,0,0.0075231,0,0,0,0.0060334,-0.00052712,0.0016519,2.8123,0.0023861,0.0057873,5.4088e-09,0.5,0.66,0
0.025463,-0.00081946,0.0059932,-0.00069809,0.0015885,0.00027905,0,0,0.051534,-0.026753,0,0.0065297,0,0,0,0.0060048,-0.0007097,0.0015885,2.3839,0.0022945,0.0059106,5.4565e-09,0.52,0.66,0
0.026498,-0.00063925,0.005972,-0.0008485,0.0015371,0.00021644,0,0,0.051889,-0.027911,0,0.0050647,0,0,0,0.0059788,-0.00085536,0.0015371,1.8158,0.0022202,0.0060066,5.4754e-09,0.54,0.66,0
0.027539,-0.0005118,0.005955,-0.0009564,0.0014996,0.00014092,0,0,0.052129,-0.028735,0,0.0032974,0,0,0,0.0059579,-0.00095927,0.0014996,1.1676,0.0021661,0.0060733,5.4764e-09,0.56,0.66,0
0.028583,-0.00044362,0.0059441,-0.0010213,0.0014768,5.8171e-05,0,0,0.052267,-0.029229,0,0.0013612,0,0,0,0.0059446,-0.0010218,0.0014768,0.47845,0.0021332,0.0061129,5.4727e-09,0.58,0.66,0
0.029629,-0.00043829,0.0059408,-0.0010445,0.0014689,-2.8628e-05,0,0,0.052321,-0.029406,0,-0.0006699,0,0,0,0.0059409,-0.0010446,0.0014689,-0.23481,0.0021217,0.0061284,5.4738e-09,0.6,0.66,0
0.030676,-0.00049691,0.0059446,-0.0010253,0.0014758,-0.00011749,0,0,0.052285,-0.029263,0,-0.0027492,0,0,0,0.0059466,-0.0010273,0.0014758,-0.96542,0.0021317,0.0061192,5.4806e-09,0.62,0.66,0
0.031721,-0.00061805,0.0059537,-0.00096167,0.0014976,-0.00020498,0,0,0.052137,-0.028774,0,-0.0047966,0,0,0,0.0059598,-0.00096774,0.0014976,-1.6963,0.0021632,0.0060819,5.4859e-09,0.64,0.66,0
0.032761,-0.00079723,0.0059659,-0.00085291,0.0015339,-0.00028488,0,0,0.051854,-0.027925,0,-0.0066662,0,0,0,0.0059778,-0.00086479,0.0015339,-2.3882,0.0022156,0.0060134,5.4779e-09,0.66,0.66,0
0.033795,-0.0010264,0.0059797,-0.00070458,0.0015825,-0.00034907,0,0,0.051447,-0.026759,0,-0.0081682,0,0,0,0.0059979,-0.00072276,0.0015825,-2.9813,0.0022859,0.0059151,5.4464e-09,0.68,0.66,0
0.034819,-0.0012943,0.0059958,-0.00052955,0.0016399,-0.00039072,0,0,0.050964,-0.025382,0,-0.0091429,0,0,0,0.0060191,-0.00055286,0.0016399,-3.4145,0.0023687,0.0057955,5.3894e-09,0.7,0.66,0
0.035833,-0.0015875,0.006016,-0.00034474,0.0017014,-0.00040699,0,0,0.050481,-0.023939,0,-0.0095236,0,0,0,0.0060419,-0.00037068,0.0017014,-3.6463,0.0024575,0.0056681,5.315e-09,0.72,0.66,0
0.036839,-0.0018926,0.0060426,-0.00016579,0.001763,-0.00039972,0,0,0.050071,-0.022568,0,-0.0093533,0,0,0,0.0060683,-0.00019142,0.001763,-3.6687,0.0025466,0.005547,5.2387e-09,0.74,0.66,0
0.037836,-0.0021975,0.0060772,-3.553e-06,0.0018221,-0.0003738,0,0,0.049785,-0.02136,0,-0.0087468,0,0,0,0.0061001,-2.6445e-05,0.0018221,-3.5045,0.0026319,0.005443,5.1768e-09,0.76,0.66,0
0.03883,-0.0024922,0.0061197,0.00013612,0.0018767,-0.00033518,0,0,0.049643,-0.020365,0,-0.0078432,0,0,0,0.0061384,0.0001174,0.0018767,-3.1962,0.0027109,0.0053624,5.141e-09,0.78,0.66,0
0.039822,-0.0027693,0.006169,0.00025112,0.001926,-0.00028941,0,0,0.049643,-0.019597,0,-0.0067722,0,0,0,0.0061831,0.000237,0.001926,-2.7931,0.0027821,0.0053072,5.1375e-09,0.8,0.66,0
0.040816,-0.0030234,0.0062231,0.00034173,0.0019694,-0.00024112,0,0,0.049767,-0.019044,0,-0.0056423,0,0,0,0.006233,0.00033186,0.0019694,-2.3438,0.0028448,0.0052765,5.1673e-09,0.82,0.66,0
0.041813,-0.0032513,0.0062796,0.00040982,0.0020068,-0.00019395,0,0,0.049992,-0.018685,0,-0.0045384,0,0,0,0.006286,0.00040342,0.0020068,-1.8904,0.0028988,0.0052672,5.2272e-09,0.84,0.66,0
0.042815,-0.0034511,0.0063363,0.00045829,0.0020384,-0.00015055,0,0,0.050286,-0.018487,0,-0.0035229,0,0,0,0.0063401,0.00045444,0.0020384,-1.4662,0.0029443,0.0052752,5.3111e-09,0.86,0.66,0
0.043824,-0.0036223,0.0063907,0.00049066,0.0020644,-0.00011264,0,0,0.050618,-0.018413,0,-0.0026358,0,0,0,0.0063929,0.00048851,0.0020644,-1.0933,0.0029819,0.0052953,5.4105e-09,0.88,0.66,0
0.04484,-0.0037649,0.0064407,0.00051063,0.0020854,-8.1038e-05,0,0,0.050957,-0.018425,0,-0.0018963,0,0,0,0.0064418,0.00050953,0.0020854,-0.78278,0.0030123,0.0053223,5.516e-09,0.9,0.66,0
0.045863,-0.0038798,0.0064844,0.00052172,0.0021018,-5.5779e-05,0,0,0.051276,-0.018487,0,-0.0013052,0,0,0,0.0064849,0.0005212,0.0021018,-0.53592,0.003036,0.0053514,5.6177e-09,0.92,0.66,0
0.046891,-0.0039679,0.00652,0.00052701,0.0021141,-3.6267e-05,0,0,0.051549,-0.018569,0,-0.00084865,0,0,0,0.0065202,0.00052679,0.0021141,-0.34671,0.0030537,0.0053784,5.7068e-09,0.94,0.66,0
0.047924,-0.0040299,0.0065464,0.00052898,0.0021226,-2.1431e-05,0,0,0.051758,-0.018645,0,-0.00050147,0,0,0,0.0065465,0.00052891,0.0021226,-0.20405,0.003066,0.0054001,5.7759e-09,0.96,0.66,0
0.048961,-0.0040669,0.0065626,0.00052944,0.0021276,-9.8725e-06,0,0,0.051889,-0.018698,0,-0.00023102,0,0,0,0.0065626,0.00052943,0.0021276,-0.093757,0.0030732,0.005414,5.8196e-09,0.98,0.66,0
0.05,-0.0040791,0.006568,0.00052947,0.0021293,-2.6168e-05,0,0,0.051934,-0.018717,0,-0.00061234,0,0,0,0.0065681,0.00052936,0.0021293,-0.24829,0.0030756,0.0054189,5.835e-09,1,0.66,0
0,0,0.0064536,0.0027658,0.0027658,-0.0009048,0,0,0.043147,1.6263e-19,0,-0.021172,0,0,0,0.0066636,0.0025558,0.0027658,-13.069,0.0039951,0.0040069,3.2736e-09,0,0.68,0
0.00086294,-0.00042345,0.0064407,0.0026084,0.0027147,-0.00089965,0,0,0.043594,-0.0012445,0,-0.021052,0,0,0,0.0066414,0.0024077,0.0027147,-12.575,0.0039213,0.0040888,3.4443e-09,0.02,0.68,0
0.0017438,-0.00082232,0.0064916,0.0024702,0.0026885,-0.00086791,0,0,0.044496,-0.0025547,0,-0.020309,0,0,0,0.0066709,0.0022909,0.0026885,-11.674,0.0038835,0.0041954,3.678e-09,0.04,0.68,0
0.0026428,-0.0011963,0.0065407,0.0023277,0.0026605,-0.00083483,0,0,0.045398,-0.0038935,0,-0.019535,0,0,0,0.0067,0.0021683,0.0026605,-10.81,0.003843,0.0043068,3.9227e-09,0.06,0.68,0
0.0035597,-0.0015447,0.0065857,0.0021844,0.002631,-0.00079947,0,0,0.04627,-0.005226,0,-0.018708,0,0,0,0.0067265,0.0020436,0.002631,-9.9826,0.0038004,0.0044185,4.1677e-09,0.08,0.68,0
0.0044936,-0.0018665,0.006625,0.002043,0.0026004,-0.00076114,0,0,0.047087,-0.0065213,0,-0.017811,0,0,0,0.0067481,0.0019199,0.0026004,-9.1892,0.0037561,0.0045265,4.4025e-09,0.1,0.68,0
0.0054432,-0.0021604,0.0066567,0.0019063,0.0025689,-0.00071941,0,0,0.047827,-0.0077527,0,-0.016834,0,0,0,0.0067633,0.0017997,0.0025689,-8.4253,0.0037106,0.0046272,4.6178e-09,0.12,0.68,0
0.0064067,-0.0024252,0.0066796,0.0017761,0.0025367,-0.00067401,0,0,0.048472,-0.0088992,0,-0.015772,0,0,0,0.0067706,0.0016851,0.0025367,-7.6857,0.0036642,0.0047177,4.8057e-09,0.14,0.68,0
0.0073821,-0.0026594,0.0066928,0.0016539,0.002504,-0.00062486,0,0,0.049009,-0.0099465,0,-0.014622,0,0,0,0.0067691,0.0015775,0.002504,-6.9645,0.0036169,0.0047959,4.9604e-09,0.16,0.68,0
0.008367,-0.0028615,0.0066956,0.0015403,0.0024707,-0.00057192,0,0,0.04943,-0.010887,0,-0.013383,0,0,0,0.0067583,0.0014776,0.0024707,-6.255,0.0035689,0.0048608,5.0784e-09,0.18,0.68,0
0.0093593,-0.0030302,0.0066878,0.0014352,0.0024369,-0.00051516,0,0,0.049735,-0.011719,0,-0.012055,0,0,0,0.0067378,0.0013852,0.0024369,-5.5491,0.00352,0.0049119,5.1586e-09,0.2,0.68,0
0.010356,-0.0031641,0.0066695,0.0013381,0.0024023,-0.00045453,0,0,0.049926,-0.012451,0,-0.010636,0,0,0,0.006708,0.0012996,0.0024023,-4.8383,0.00347,0.00495,5.2024e-09,0.22,0.68,0
0.011356,-0.0032621,0.0066414,0.0012474,0.0023667,-0.00038996,0,0,0.050015,-0.013095,0,-0.009125,0,0,0,0.0066695,0.0012194,0.0023667,-4.1137,0.0034185,0.0049766,5.214e-09,0.24,0.68,0
0.012357,-0.003323,0.0066044,0.0011611,0.0023297,-0.0003214,0,0,0.050015,-0.013672,0,-0.0075207,0,0,0,0.0066233,0.0011422,0.0023297,-3.3674,0.0033651,0.0049944,5.1995e-09,0.26,0.68,0
0.013357,-0.0033461,0.0065598,0.0010766,0.0022909,-0.0002489,0,0,0.049946,-0.014208,0,-0.0058244,0,0,0,0.0065711,0.0010653,0.0022909,-2.5938,0.0033091,0.0050068,5.1672e-09,0.28,0.68,0
0.014355,-0.0033309,0.0065094,0.00099062,0.00225,-0.00017278,0,0,0.049835,-0.014735,0,-0.0040431,0,0,0,0.0065148,0.00098522,0.00225,-1.7915,0.00325,0.0050182,5.1267e-09,0.3,0.68,0
0.01535,-0.0032771,0.006455,0.00089972,0.0022064,-9.3691e-05,0,0,0.049708,-0.015288,0,-0.0021924,0,0,0,0.0064565,0.00089815,0.0022064,-0.96595,0.003187,0.0050334,5.0882e-09,0.32,0.68,0
0.016343,-0.0031853,0.0063988,0.00080028,0.0021597,-1.2824e-05,0,0,0.049597,-0.015905,0,-0.00030008,0,0,0,0.0063988,0.00080025,0.0021597,-0.13124,0.0031196,0.0050578,5.0619e-09,0.34,0.68,0
0.017334,-0.0030571,0.0063432,0.00068884,0.0021096,6.7994e-05,0,0,0.049533,-0.016623,0,0.0015911,0,0,0,0.0063441,0.00068802,0.0021096,0.68884,0.0030472,0.0050962,5.0565e-09,0.36,0.68,0
0.018325,-0.0028949,0.0062907,0.00056246,0.0020559,0.0001462,0,0,0.049546,-0.017474,0,0.003421,0,0,0,0.0062944,0.00055873,0.0020559,1.461,0.0029697,0.0051529,5.0785e-09,0.38,0.68,0
0.019316,-0.0027027,0.0062433,0.00041918,0.0019987,0.00021842,0,0,0.049661,-0.018481,0,0.0051111,0,0,0,0.0062515,0.000411,0.0019987,2.1448,0.0028871,0.0052305,5.131e-09,0.4,0.68,0
0.020311,-0.0024861,0.0062028,0.00025849,0.0019384,0.00028054,0,0,0.049894,-0.019655,0,0.0065647,0,0,0,0.006216,0.00024528,0.0019384,2.6961,0.0027999,0.0053299,5.2129e-09,0.42,0.68,0
0.021312,-0.0022524,0.0061703,8.2046e-05,0.0018757,0.00032786,0,0,0.050247,-0.020986,0,0.0076718,0,0,0,0.006188,6.4442e-05,0.0018757,3.0735,0.0027094,0.0054486,5.3182e-09,0.44,0.68,0
0.022321,-0.0020111,0.0061458,-0.00010553,0.0018121,0.00035563,0,0,0.050705,-0.022436,0,0.0083219,0,0,0,0.006166,-0.0001257,0.0018121,3.2456,0.0026175,0.0055811,5.4357e-09,0.46,0.68,0
0.02334,-0.001773,0.0061282,-0.00029624,0.0017496,0.0003601,0,0,0.051229,-0.023936,0,0.0084264,0,0,0,0.0061483,-0.00031636,0.0017496,3.1982,0.0025272,0.0057187,5.5515e-09,0.48,0.68,0
0.02437,-0.0015502,0.0061155,-0.00047923,0.0016909,0.00033962,0,0,0.051768,-0.02539,0,0.0079471,0,0,0,0.0061329,-0.00049668,0.0016909,2.9403,0.0024424,0.005851,5.6518e-09,0.5,0.68,0
0.025411,-0.0013546,0.0061058,-0.0006428,0.0016389,0.00029542,0,0,0.052263,-0.026696,0,0.0069128,0,0,0,0.0061187,-0.0006557,0.0016389,2.5017,0.0023673,0.0059677,5.7275e-09,0.52,0.68,0
0.026461,-0.0011968,0.0060979,-0.00077699,0.0015963,0.00023139,0,0,0.052669,-0.027767,0,0.0054146,0,0,0,0.0061056,-0.00078477,0.0015963,1.9256,0.0023057,0.0060614,5.7767e-09,0.54,0.68,0
0.027517,-0.0010857,0.006091,-0.00087546,0.0015647,0.0001528,0,0,0.052958,-0.028549,0,0.0035755,0,0,0,0.0060944,-0.00087881,0.0015647,1.2559,0.0022601,0.0061284,5.8031e-09,0.56,0.68,0
0.028579,-0.0010273,0.0060855,-0.00093528,0.0015451,6.4848e-05,0,0,0.053123,-0.02902,0,0.0015175,0,0,0,0.0060861,-0.00093588,0.0015451,0.52916,0.0022317,0.0061678,5.813e-09,0.58,0.68,0
0.029642,-0.0010253,0.0060813,-0.00095548,0.0015378,-2.7979e-05,0,0,0.05316,-0.029171,0,-0.00065472,0,0,0,0.0060814,-0.00095559,0.0015378,-0.22781,0.0022212,0.0061799,5.8112e-09,0.6,0.68,0
0.030705,-0.0010805,0.0060784,-0.00093562,0.0015428,-0.00012152,0,0,0.053066,-0.028998,0,-0.0028437,0,0,0,0.0060805,-0.00093772,0.0015428,-0.99231,0.0022285,0.0061644,5.7986e-09,0.62,0.68,0
0.031765,-0.0011915,0.006076,-0.00087588,0.00156,-0.00021107,0,0,0.052836,-0.0285,0,-0.0049391,0,0,0,0.0060824,-0.00088229,0.00156,-1.7375,0.0022534,0.0061206,5.7719e-09,0.64,0.68,0
0.032819,-0.001354,0.0060735,-0.00077852,0.0015885,-0.00029095,0,0,0.052475,-0.027694,0,-0.0068082,0,0,0,0.0060859,-0.00079085,0.0015885,-2.4271,0.0022945,0.0060488,5.7262e-09,0.66,0.68,0
0.033864,-0.0015608,0.0060714,-0.00064948,0.0016266,-0.00035522,0,0,0.052005,-0.02663,0,-0.0083122,0,0,0,0.0060901,-0.0006682,0.0016266,-3.0171,0.0023495,0.0059525,5.6581e-09,0.68,0.68,0
0.034899,-0.0018025,0.0060708,-0.00049873,0.0016716,-0.00039921,0,0,0.051471,-0.025393,0,-0.0093416,0,0,0,0.006095,-0.0005229,0.0016716,-3.4647,0.0024146,0.0058386,5.5692e-09,0.7,0.68,0
0.035923,-0.0020683,0.0060739,-0.00033848,0.0017206,-0.00042093,0,0,0.050933,-0.024091,0,-0.0098497,0,0,0,0.0061014,-0.00036599,0.0017206,-3.7397,0.0024853,0.0057172,5.4669e-09,0.72,0.68,0
0.036936,-0.002347,0.0060827,-0.00018044,0.0017707,-0.00042138,0,0,0.05045,-0.022828,0,-0.0098604,0,0,0,0.0061109,-0.00020866,0.0017707,-3.8319,0.0025576,0.0055987,5.3634e-09,0.74,0.68,0
0.037941,-0.0026282,0.0060987,-3.3704e-05,0.0018195,-0.00040395,0,0,0.050067,-0.021682,0,-0.0094524,0,0,0,0.0061252,-6.0199e-05,0.0018195,-3.7526,0.0026282,0.0054923,5.2712e-09,0.76,0.68,0
0.038939,-0.0029031,0.0061224,9.5944e-05,0.0018655,-0.00037314,0,0,0.049806,-0.020704,0,-0.0087316,0,0,0,0.0061454,7.2928e-05,0.0018655,-3.5297,0.0026946,0.005404,5.2009e-09,0.78,0.68,0
0.039933,-0.0031644,0.0061532,0.00020569,0.0019077,-0.00033362,0,0,0.049673,-0.019913,0,-0.0078067,0,0,0,0.0061719,0.00018703,0.0019077,-3.2005,0.0027555,0.0053368,5.1585e-09,0.8,0.68,0
0.040926,-0.0034068,0.0061897,0.00029496,0.0019454,-0.00028954,0,0,0.049658,-0.01931,0,-0.0067752,0,0,0,0.0062039,0.00028077,0.0019454,-2.8053,0.00281,0.005291,5.146e-09,0.82,0.68,0
0.041919,-0.0036267,0.0062299,0.00036474,0.0019784,-0.00024434,0,0,0.049743,-0.01888,0,-0.0057175,0,0,0,0.0062401,0.00035458,0.0019784,-2.3814,0.0028577,0.0052649,5.1618e-09,0.84,0.68,0
0.042916,-0.0038216,0.0062718,0.00041707,0.0020067,-0.00020061,0,0,0.049903,-0.018598,0,-0.0046942,0,0,0,0.0062787,0.0004102,0.0020067,-1.9601,0.0028985,0.0052554,5.2012e-09,0.86,0.68,0
0.043916,-0.0039903,0.0063133,0.00045459,0.0020304,-0.00016013,0,0,0.05011,-0.018437,0,-0.0037471,0,0,0,0.0063176,0.00045021,0.0020304,-1.5645,0.0029327,0.0052585,5.2576e-09,0.88,0.68,0
0.04492,-0.0041322,0.0063521,0.00048019,0.0020497,-0.0001239,0,0,0.050338,-0.018363,0,-0.0028993,0,0,0,0.0063547,0.00047757,0.0020497,-1.2083,0.0029607,0.00527,5.3233e-09,0.9,0.68,0
0.045929,-0.0042475,0.0063866,0.00049672,0.002065,-9.2237e-05,0,0,0.050563,-0.018349,0,-0.0021583,0,0,0,0.006388,0.00049527,0.002065,-0.89697,0.0029828,0.0052857,5.3903e-09,0.92,0.68,0
0.046942,-0.0043365,0.0064151,0.00050672,0.0020765,-6.4871e-05,0,0,0.050761,-0.018367,0,-0.001518,0,0,0,0.0064158,0.00050601,0.0020765,-0.62898,0.0029994,0.0053019,5.451e-09,0.94,0.68,0
0.04796,-0.0043996,0.0064363,0.0005123,0.0020846,-4.1096e-05,0,0,0.050916,-0.018396,0,-0.00096165,0,0,0,0.0064366,0.00051202,0.0020846,-0.39745,0.0030111,0.0053157,5.4993e-09,0.96,0.68,0
0.048979,-0.0044373,0.0064495,0.00051502,0.0020893,-1.9883e-05,0,0,0.051013,-0.01842,0,-0.00046526,0,0,0,0.0064495,0.00051495,0.0020893,-0.19196,0.0030179,0.0053249,5.5302e-09,0.98,0.68,0
0.05,-0.0044498,0.0064539,0.00051582,0.0020909,-2.6749e-05,0,0,0.051047,-0.018429,0,-0.00062592,0,0,0,0.006454,0.0005157,0.0020909,-0.25809,0.0030202,0.0053283,5.5413e-09,1,0.68,0
0,0,0.0063835,0.0027358,0.0027358,-0.0009579,0,0,0.042678,7.5894e-19,0,-0.022415,0,0,0,0.0066197,0.0024995,0.0027358,-13.854,0.0039517,0.0040073,3.2664e-09,0,0.7,0
0.00085357,-0.0004483,0.0063707,0.0025774,0.0026845,-0.00095202,0,0,0.04313,-0.001252,0,-0.022277,0,0,0,0.0065963,0.0023519,0.0026845,-13.327,0.0038776,0.0040882,3.4312e-09,0.02,0.7,0
0.0017252,-0.00087345,0.0064221,0.0024373,0.0026578,-0.00091958,0,0,0.044042,-0.0025803,0,-0.021518,0,0,0,0.0066241,0.0022353,0.0026578,-12.388,0.0038391,0.0041935,3.6582e-09,0.04,0.7,0
0.0026153,-0.0012744,0.0064718,0.0022918,0.0026291,-0.00088354,0,0,0.04496,-0.0039461,0,-0.020675,0,0,0,0.0066509,0.0021127,0.0026291,-11.458,0.0037975,0.0043033,3.8948e-09,0.06,0.7,0
0.0035236,-0.0016496,0.0065176,0.0021447,0.0025987,-0.00084315,0,0,0.045851,-0.0053118,0,-0.01973,0,0,0,0.0066745,0.0019877,0.0025987,-10.544,0.0037536,0.0044131,4.1306e-09,0.08,0.7,0
0.0044493,-0.0019976,0.0065575,0.0019992,0.002567,-0.00079795,0,0,0.046689,-0.0066435,0,-0.018672,0,0,0,0.0066932,0.0018636,0.002567,-9.6477,0.0037079,0.0045192,4.3555e-09,0.1,0.7,0
0.0053911,-0.0023165,0.00659,0.0018582,0.0025345,-0.00074783,0,0,0.04745,-0.0079123,0,-0.017499,0,0,0,0.0067054,0.0017428,0.0025345,-8.7705,0.0036609,0.0046179,4.5608e-09,0.12,0.7,0
0.0063473,-0.0026045,0.0066137,0.0017239,0.0025013,-0.00069291,0,0,0.048115,-0.0090956,0,-0.016214,0,0,0,0.00671,0.0016276,0.0025013,-7.9117,0.0036129,0.0047068,4.7394e-09,0.14,0.7,0
0.0073157,-0.00286,0.0066276,0.0015976,0.0024676,-0.00063352,0,0,0.048673,-0.010178,0,-0.014824,0,0,0,0.0067062,0.0015191,0.0024676,-7.0693,0.0035643,0.0047839,4.8863e-09,0.16,0.7,0
0.0082942,-0.0030812,0.0066315,0.0014803,0.0024335,-0.00057003,0,0,0.049117,-0.011153,0,-0.013339,0,0,0,0.0066939,0.001418,0.0024335,-6.2397,0.0035151,0.0048486,4.9993e-09,0.18,0.7,0
0.0092804,-0.0032669,0.0066253,0.0013717,0.0023991,-0.00050283,0,0,0.049447,-0.012021,0,-0.011766,0,0,0,0.006673,0.001324,0.0023991,-5.4183,0.0034654,0.0049007,5.0782e-09,0.2,0.7,0
0.010272,-0.0034159,0.0066095,0.0012711,0.0023642,-0.00043227,0,0,0.04967,-0.012789,0,-0.010115,0,0,0,0.0066442,0.0012363,0.0023642,-4.5995,0.0034149,0.0049415,5.1256e-09,0.22,0.7,0
0.011267,-0.0035272,0.0065848,0.001177,0.0023285,-0.00035865,0,0,0.049798,-0.013473,0,-0.0083924,0,0,0,0.0066084,0.0011533,0.0023285,-3.7779,0.0033634,0.0049728,5.1462e-09,0.24,0.7,0
0.012264,-0.0036002,0.0065524,0.0010875,0.002292,-0.00028228,0,0,0.049847,-0.014092,0,-0.0066054,0,0,0,0.0065669,0.001073,0.002292,-2.9491,0.0033106,0.0049972,5.1463e-09,0.26,0.7,0
0.013261,-0.0036345,0.0065138,0.00099997,0.0022541,-0.00020356,0,0,0.049838,-0.014674,0,-0.0047634,0,0,0,0.0065213,0.00099247,0.0022541,-2.1115,0.003256,0.0050184,5.134e-09,0.28,0.7,0
0.014257,-0.0036303,0.0064707,0.00091155,0.0022147,-0.00012308,0,0,0.049796,-0.015247,0,-0.0028802,0,0,0,0.0064735,0.00090883,0.0022147,-1.2677,0.003199,0.0050402,5.1179e-09,0.3,0.7,0
0.015253,-0.0035882,0.0064252,0.00081916,0.0021733,-4.1748e-05,0,0,0.049747,-0.015844,0,-0.0009769,0,0,0,0.0064256,0.00081885,0.0021733,-0.42664,0.0031392,0.0050671,5.1071e-09,0.32,0.7,0
0.016247,-0.0035093,0.0063794,0.00071971,0.0021297,3.9108e-05,0,0,0.049721,-0.016497,0,0.00091513,0,0,0,0.0063797,0.00071944,0.0021297,0.39588,0.0030763,0.0051034,5.1097e-09,0.34,0.7,0
0.017242,-0.0033958,0.0063354,0.00061038,0.0020837,0.00011761,0,0,0.049744,-0.017238,0,0.0027522,0,0,0,0.0063378,0.00060797,0.0020837,1.1764,0.0030098,0.0051529,5.1327e-09,0.36,0.7,0
0.018237,-0.0032508,0.0062952,0.00048894,0.0020352,0.0001913,0,0,0.049841,-0.018092,0,0.0044764,0,0,0,0.0063015,0.00048265,0.0020352,1.885,0.0029398,0.0052187,5.1806e-09,0.38,0.7,0
0.019235,-0.0030786,0.0062606,0.00035413,0.0019844,0.0002571,0,0,0.050032,-0.019075,0,0.0060161,0,0,0,0.0062718,0.00034296,0.0019844,2.4877,0.0028664,0.0053022,5.255e-09,0.4,0.7,0
0.020238,-0.0028849,0.006233,0.00020606,0.0019317,0.00031143,0,0,0.050325,-0.02019,0,0.0072875,0,0,0,0.006249,0.00019001,0.0019317,2.9502,0.0027903,0.005403,5.3537e-09,0.42,0.7,0
0.021248,-0.002677,0.0062127,4.6732e-05,0.0018778,0.00035047,0,0,0.050718,-0.021424,0,0.008201,0,0,0,0.0062326,2.6876e-05,0.0018778,3.2427,0.0027124,0.0055182,5.4706e-09,0.44,0.7,0
0.022267,-0.0024634,0.0061996,-0.00011958,0.001824,0.00037065,0,0,0.051194,-0.02274,0,0.0086731,0,0,0,0.0062213,-0.00014124,0.001824,3.3453,0.0026347,0.0056427,5.5962e-09,0.46,0.7,0
0.023296,-0.0022537,0.0061924,-0.00028629,0.0017718,0.0003693,0,0,0.05172,-0.02408,0,0.0086415,0,0,0,0.0062133,-0.00030728,0.0017718,3.2519,0.0025593,0.0057692,5.7191e-09,0.48,0.7,0
0.024336,-0.0020583,0.0061892,-0.00044509,0.0017232,0.0003454,0,0,0.052252,-0.025369,0,0.0080824,0,0,0,0.0062071,-0.00046302,0.0017232,2.9723,0.0024891,0.0058896,5.8286e-09,0.5,0.7,0
0.025386,-0.0018873,0.0061881,-0.00058712,0.0016803,0.00029997,0,0,0.052742,-0.026529,0,0.0070194,0,0,0,0.0062014,-0.00060038,0.0016803,2.5301,0.0024271,0.0059961,5.9168e-09,0.52,0.7,0
0.026446,-0.0017499,0.0061875,-0.00070454,0.0016449,0.00023593,0,0,0.053149,-0.027488,0,0.0055208,0,0,0,0.0061956,-0.0007126,0.0016449,1.9583,0.002376,0.0060824,5.9799e-09,0.54,0.7,0
0.027512,-0.0016538,0.0061861,-0.00079154,0.0016184,0.00015748,0,0,0.053443,-0.028196,0,0.0036851,0,0,0,0.0061897,-0.00079509,0.0016184,1.2922,0.0023377,0.0061445,6.0182e-09,0.56,0.7,0
0.028583,-0.0016044,0.0061832,-0.00084462,0.0016016,6.9327e-05,0,0,0.053605,-0.028621,0,0.0016222,0,0,0,0.0061839,-0.0008453,0.0016016,0.56513,0.0023134,0.0061804,6.034e-09,0.58,0.7,0
0.029656,-0.0016051,0.0061785,-0.0008621,0.0015949,-2.3764e-05,0,0,0.053628,-0.028747,0,-0.00055609,0,0,0,0.0061785,-0.00086218,0.0015949,-0.19339,0.0023038,0.0061894,6.0292e-09,0.6,0.7,0
0.030728,-0.0016568,0.0061716,-0.00084365,0.0015984,-0.00011702,0,0,0.053506,-0.028572,0,-0.0027382,0,0,0,0.0061735,-0.00084561,0.0015984,-0.95537,0.0023088,0.0061715,6.0048e-09,0.62,0.7,0
0.031797,-0.001758,0.0061626,-0.00079037,0.0016117,-0.00020547,0,0,0.053246,-0.028104,0,-0.0048081,0,0,0,0.0061686,-0.00079644,0.0016117,-1.6912,0.002328,0.0061269,5.9597e-09,0.64,0.7,0
0.032858,-0.001905,0.0061517,-0.00070531,0.0016339,-0.00028405,0,0,0.052858,-0.027369,0,-0.0066468,0,0,0,0.0061635,-0.00071706,0.0016339,-2.3681,0.0023601,0.0060575,5.8929e-09,0.66,0.7,0
0.033911,-0.0020916,0.00614,-0.00059402,0.0016638,-0.00034804,0,0,0.052372,-0.026416,0,-0.0081441,0,0,0,0.0061579,-0.00061195,0.0016638,-2.9508,0.0024033,0.0059669,5.8046e-09,0.68,0.7,0
0.034953,-0.00231,0.006129,-0.00046442,0.0016994,-0.00039393,0,0,0.051827,-0.025316,0,-0.0092179,0,0,0,0.0061525,-0.00048787,0.0016994,-3.407,0.0024547,0.0058612,5.6981e-09,0.7,0.7,0
0.035984,-0.0025512,0.0061208,-0.00032576,0.0017385,-0.00042013,0,0,0.051273,-0.024152,0,-0.0098311,0,0,0,0.006148,-0.00035303,0.0017385,-3.7131,0.0025112,0.0057481,5.5806e-09,0.72,0.7,0
0.037004,-0.0028058,0.0061173,-0.00018707,0.0017791,-0.00042719,0,0,0.050757,-0.023004,0,-0.0099963,0,0,0,0.0061461,-0.00021588,0.0017791,-3.859,0.0025697,0.0056358,5.4617e-09,0.74,0.7,0
0.038014,-0.0030648,0.0061199,-5.5799e-05,0.0018192,-0.00041742,0,0,0.050318,-0.021938,0,-0.0097677,0,0,0,0.006148,-8.3885e-05,0.0018192,-3.8493,0.0026278,0.0055316,5.3516e-09,0.76,0.7,0
0.039017,-0.0033204,0.0061295,6.2774e-05,0.0018577,-0.00039421,0,0,0.04998,-0.021,0,-0.0092244,0,0,0,0.006155,3.7266e-05,0.0018577,-3.7022,0.0026833,0.005441,5.2589e-09,0.78,0.7,0
0.040014,-0.0035658,0.0061458,0.00016562,0.0018934,-0.00036128,0,0,0.049753,-0.020215,0,-0.0084541,0,0,0,0.0061676,0.00014387,0.0018934,-3.4447,0.0027349,0.0053672,5.1896e-09,0.8,0.7,0
0.041007,-0.0037958,0.0061679,0.00025157,0.0019258,-0.00032224,0,0,0.049632,-0.019589,0,-0.0075403,0,0,0,0.0061854,0.00023407,0.0019258,-3.1084,0.0027818,0.0053115,5.1462e-09,0.82,0.7,0
0.041999,-0.0040065,0.0061943,0.00032093,0.0019546,-0.00028015,0,0,0.049605,-0.019114,0,-0.0065556,0,0,0,0.0062076,0.00030759,0.0019546,-2.7247,0.0028233,0.0052731,5.1281e-09,0.84,0.7,0
0.042991,-0.0041951,0.0062233,0.00037495,0.0019795,-0.0002375,0,0,0.049653,-0.018773,0,-0.0055576,0,0,0,0.0062329,0.00036532,0.0019795,-2.3217,0.0028592,0.0052501,5.1323e-09,0.86,0.7,0
0.043985,-0.0043597,0.0062531,0.00041556,0.0020006,-0.00019607,0,0,0.049754,-0.018545,0,-0.0045881,0,0,0,0.0062597,0.00040898,0.0020006,-1.9216,0.0028897,0.0052394,5.154e-09,0.88,0.7,0
0.044981,-0.0044995,0.0062818,0.00044494,0.002018,-0.00015699,0,0,0.049886,-0.018405,0,-0.0036737,0,0,0,0.006286,0.00044072,0.002018,-1.5396,0.0029149,0.0052379,5.1869e-09,0.9,0.7,0
0.04598,-0.0046138,0.0063078,0.00046534,0.0020319,-0.00012081,0,0,0.050027,-0.018329,0,-0.0028269,0,0,0,0.0063103,0.00046284,0.0020319,-1.1841,0.002935,0.0052421,5.2248e-09,0.92,0.7,0
0.046982,-0.0047025,0.0063296,0.00047883,0.0020425,-8.7532e-05,0,0,0.050159,-0.018295,0,-0.0020483,0,0,0,0.0063309,0.00047752,0.0020425,-0.85694,0.0029503,0.0052489,5.2616e-09,0.94,0.7,0
0.047987,-0.0047658,0.006346,0.00048715,0.00205,-5.6794e-05,0,0,0.050264,-0.018285,0,-0.001329,0,0,0,0.0063466,0.0004866,0.00205,-0.55534,0.002961,0.0052556,5.292e-09,0.96,0.7,0
0.048993,-0.0048036,0.0063562,0.00049161,0.0020543,-2.7909e-05,0,0,0.050332,-0.018284,0,-0.00065308,0,0,0,0.0063563,0.00049147,0.0020543,-0.27266,0.0029674,0.0052605,5.3119e-09,0.98,0.7,0
0.05,-0.0048162,0.0063597,0.000493,0.0020558,-2.6939e-05,0,0,0.050355,-0.018285,0,-0.00063038,0,0,0,0.0063598,0.00049288,0.0020558,-0.26309,0.0029695,0.0052625,5.3193e-09,1,0.7,0
0,0,0.0063216,0.0027092,0.0027092,-0.0010118,0,0,0.042264,-7.0473e-19,0,-0.023676,0,0,0,0.0065857,0.0024452,0.0027092,-14.629,0.0039134,0.004015,3.2757e-09,0,0.72,0
0.00084529,-0.00047353,0.0063087,0.0025471,0.0026567,-0.0010053,0,0,0.042728,-0.0012825,0,-0.023523,0,0,0,0.0065605,0.0022953,0.0026567,-14.062,0.0038375,0.0040964,3.438e-09,0.02,0.72,0
0.0017091,-0.00092554,0.0063614,0.0024025,0.0026292,-0.00097232,0,0,0.043667,-0.0026518,0,-0.022752,0,0,0,0.0065873,0.0021766,0.0026292,-13.08,0.0037977,0.0042027,3.664e-09,0.04,0.72,0
0.002592,-0.0013541,0.0064126,0.0022518,0.0025993,-0.00093342,0,0,0.044616,-0.0040663,0,-0.021842,0,0,0,0.0066124,0.002052,0.0025993,-12.082,0.0037546,0.0043129,3.8975e-09,0.06,0.72,0
0.0034937,-0.0017572,0.0064599,0.0020988,0.0025676,-0.00088795,0,0,0.04554,-0.0054848,0,-0.020778,0,0,0,0.0066338,0.001925,0.0025676,-11.079,0.0037088,0.0044226,4.1284e-09,0.08,0.72,0
0.0044136,-0.0021322,0.0065012,0.0019475,0.0025346,-0.00083575,0,0,0.046409,-0.0068695,0,-0.019557,0,0,0,0.0066498,0.0017989,0.0025346,-10.078,0.0036611,0.004528,4.347e-09,0.1,0.72,0
0.0053501,-0.0024769,0.0065349,0.0018009,0.0025007,-0.00077709,0,0,0.047199,-0.0081881,0,-0.018184,0,0,0,0.0066592,0.0016766,0.0025007,-9.0875,0.0036122,0.0046259,4.5449e-09,0.12,0.72,0
0.0063016,-0.002789,0.0065596,0.0016615,0.0024663,-0.00071257,0,0,0.047891,-0.0094162,0,-0.016674,0,0,0,0.0066611,0.00156,0.0024663,-8.1115,0.0035625,0.0047138,4.716e-09,0.14,0.72,0
0.0072657,-0.0030665,0.0065745,0.0015309,0.0024316,-0.00064302,0,0,0.048472,-0.010538,0,-0.015047,0,0,0,0.0066552,0.0014502,0.0024316,-7.1523,0.0035124,0.0047903,4.8564e-09,0.16,0.72,0
0.0082404,-0.0033076,0.0065795,0.0014098,0.0023968,-0.00056929,0,0,0.048938,-0.011548,0,-0.013321,0,0,0,0.0066415,0.0013479,0.0023968,-6.2103,0.0034621,0.0048549,4.9648e-09,0.18,0.72,0
0.0092233,-0.003511,0.0065748,0.0012981,0.0023619,-0.00049222,0,0,0.049292,-0.012446,0,-0.011518,0,0,0,0.0066204,0.0012526,0.0023619,-5.2838,0.0034116,0.0049081,5.0423e-09,0.2,0.72,0
0.010212,-0.0036756,0.0065611,0.0011949,0.0023268,-0.00041255,0,0,0.049542,-0.013244,0,-0.0096537,0,0,0,0.0065927,0.0011633,0.0023268,-4.3706,0.0033609,0.0049512,5.0923e-09,0.22,0.72,0
0.011205,-0.003801,0.0065394,0.0010986,0.0022914,-0.00033095,0,0,0.049702,-0.013956,0,-0.0077443,0,0,0,0.0065595,0.0010786,0.0022914,-3.4681,0.0033098,0.0049864,5.12e-09,0.24,0.72,0
0.0122,-0.0038867,0.0065111,0.0010073,0.0022555,-0.00024803,0,0,0.04979,-0.014604,0,-0.005804,0,0,0,0.0065222,0.00099617,0.0022555,-2.5751,0.003258,0.0050164,5.1317e-09,0.26,0.72,0
0.013196,-0.0039331,0.0064777,0.00091858,0.0022189,-0.00016446,0,0,0.049828,-0.015214,0,-0.0038483,0,0,0,0.0064826,0.00091372,0.0022189,-1.693,0.0032051,0.0050446,5.1351e-09,0.28,0.72,0
0.014193,-0.0039407,0.0064412,0.00082971,0.0021813,-8.1017e-05,0,0,0.049841,-0.015813,0,-0.0018958,0,0,0,0.0064423,0.00082854,0.0021813,-0.827,0.0031507,0.0050745,5.138e-09,0.3,0.72,0
0.01519,-0.0039108,0.0064033,0.00073795,0.0021424,1.2407e-06,0,0,0.049853,-0.016432,0,2.9033e-05,0,0,0,0.0064033,0.00073795,0.0021424,0.012548,0.0030945,0.00511,5.1478e-09,0.32,0.72,0
0.016187,-0.0038452,0.0063661,0.00064068,0.002102,8.0927e-05,0,0,0.04989,-0.017098,0,0.0018937,0,0,0,0.0063672,0.00063954,0.002102,0.80965,0.0030363,0.0051545,5.1714e-09,0.34,0.72,0
0.017186,-0.0037466,0.0063314,0.0005356,0.0020601,0.00015623,0,0,0.049974,-0.017837,0,0.0036558,0,0,0,0.0063356,0.00053139,0.0020601,1.543,0.0029757,0.0052109,5.2138e-09,0.36,0.72,0
0.018186,-0.0036186,0.006301,0.00042101,0.0020166,0.00022489,0,0,0.050128,-0.018669,0,0.0052624,0,0,0,0.0063096,0.00041242,0.0020166,2.1871,0.0029129,0.0052811,5.2782e-09,0.38,0.72,0
0.019191,-0.0034657,0.0062762,0.00029617,0.0019717,0.00028421,0,0,0.050363,-0.019604,0,0.0066505,0,0,0,0.0062897,0.0002827,0.0019717,2.7149,0.002848,0.0053657,5.3646e-09,0.4,0.72,0
0.020201,-0.0032937,0.0062579,0.00016156,0.0019259,0.00033122,0,0,0.050685,-0.020642,0,0.0077504,0,0,0,0.0062759,0.00014362,0.0019259,3.1007,0.0027818,0.0054637,5.4706e-09,0.42,0.72,0
0.021218,-0.0031094,0.0062463,1.9212e-05,0.0018797,0.00036289,0,0,0.05109,-0.021767,0,0.0084917,0,0,0,0.0062673,-1.8651e-06,0.0018797,3.324,0.0027151,0.005572,5.5903e-09,0.44,0.72,0
0.022245,-0.0029207,0.0062407,-0.00012714,0.0018341,0.00037658,0,0,0.051558,-0.022946,0,0.0088119,0,0,0,0.0062629,-0.00014933,0.0018341,3.3727,0.0026492,0.0056862,5.7158e-09,0.46,0.72,0
0.023281,-0.0027362,0.0062401,-0.00027212,0.0017904,0.00037044,0,0,0.052061,-0.024131,0,0.0086682,0,0,0,0.0062611,-0.00029312,0.0017904,3.2452,0.0025861,0.0058002,5.8378e-09,0.48,0.72,0
0.024327,-0.002565,0.0062426,-0.00040922,0.00175,0.00034391,0,0,0.052563,-0.025263,0,0.0080474,0,0,0,0.0062603,-0.00042695,0.00175,2.9518,0.0025278,0.0059077,5.9475e-09,0.5,0.72,0
0.025383,-0.0024157,0.0062463,-0.00053158,0.0017144,0.00029795,0,0,0.053023,-0.026278,0,0.006972,0,0,0,0.0062594,-0.00054465,0.0017144,2.5122,0.0024764,0.0060023,6.038e-09,0.52,0.72,0
0.026448,-0.0022964,0.0062496,-0.00063293,0.001685,0.00023497,0,0,0.053406,-0.02712,0,0.0054984,0,0,0,0.0062576,-0.00064094,0.001685,1.9531,0.0024339,0.006079,6.105e-09,0.54,0.72,0
0.027519,-0.0022135,0.0062509,-0.00070831,0.0016628,0.00015853,0,0,0.053681,-0.027742,0,0.0037096,0,0,0,0.0062545,-0.00071192,0.0016628,1.3043,0.0024018,0.0061341,6.147e-09,0.56,0.72,0
0.028595,-0.0021721,0.0062493,-0.00075436,0.0016485,7.285e-05,0,0,0.053829,-0.028113,0,0.0017047,0,0,0,0.00625,-0.00075512,0.0016485,0.59589,0.0023811,0.0061654,6.1639e-09,0.58,0.72,0
0.029673,-0.0021751,0.006244,-0.00076937,0.0016424,-1.7501e-05,0,0,0.053839,-0.028218,0,-0.00040953,0,0,0,0.0062441,-0.00076941,0.0016424,-0.14297,0.0023724,0.0061718,6.1565e-09,0.6,0.72,0
0.030749,-0.0022234,0.006235,-0.00075309,0.0016446,-0.00010782,0,0,0.053708,-0.028053,0,-0.0025231,0,0,0,0.0062367,-0.00075476,0.0016446,-0.88376,0.0023755,0.0061532,6.1254e-09,0.62,0.72,0
0.031821,-0.0023157,0.0062225,-0.00070684,0.0016547,-0.0001934,0,0,0.053443,-0.02763,0,-0.0045255,0,0,0,0.0062279,-0.00071224,0.0016547,-1.5975,0.0023901,0.0061107,6.071e-09,0.64,0.72,0
0.032886,-0.0024487,0.006207,-0.00063366,0.001672,-0.00026971,0,0,0.053059,-0.026976,0,-0.0063112,0,0,0,0.0062176,-0.00064428,0.001672,-2.2544,0.0024151,0.0060462,5.994e-09,0.66,0.72,0
0.033943,-0.0026174,0.0061898,-0.00053836,0.0016954,-0.00033283,0,0,0.052584,-0.026135,0,-0.0077883,0,0,0,0.0062062,-0.00055479,0.0016954,-2.8252,0.002449,0.0059633,5.8964e-09,0.68,0.72,0
0.03499,-0.0028151,0.0061725,-0.00042734,0.0017235,-0.00037991,0,0,0.052053,-0.025166,0,-0.0088899,0,0,0,0.0061943,-0.00044914,0.0017235,-3.2837,0.0024896,0.005867,5.7825e-09,0.7,0.72,0
0.036025,-0.0030344,0.0061571,-0.00030779,0.0017548,-0.00040956,0,0,0.051507,-0.024132,0,-0.0095838,0,0,0,0.0061829,-0.00033363,0.0017548,-3.6106,0.0025347,0.0057635,5.6586e-09,0.72,0.72,0
0.03705,-0.0032672,0.0061453,-0.0001868,0.0017875,-0.00042199,0,0,0.050986,-0.0231,0,-0.0098745,0,0,0,0.0061733,-0.0002148,0.0017875,-3.796,0.002582,0.0056591,5.5328e-09,0.74,0.72,0
0.038065,-0.0035058,0.0061386,-7.048e-05,0.0018204,-0.00041875,0,0,0.050522,-0.022124,0,-0.0097987,0,0,0,0.0061667,-9.8594e-05,0.0018204,-3.8409,0.0026295,0.00556,5.4134e-09,0.76,0.72,0
0.039071,-0.0037431,0.0061377,3.6551e-05,0.0018523,-0.00040235,0,0,0.05014,-0.021244,0,-0.009415,0,0,0,0.0061642,1.0131e-05,0.0018523,-3.7568,0.0026755,0.0054707,5.3076e-09,0.78,0.72,0
0.04007,-0.003973,0.0061429,0.00013132,0.0018823,-0.00037575,0,0,0.049849,-0.020486,0,-0.0087925,0,0,0,0.0061663,0.00010793,0.0018823,-3.5627,0.0027188,0.0053946,5.2209e-09,0.8,0.72,0
0.041065,-0.0041904,0.0061535,0.00021237,0.0019097,-0.0003419,0,0,0.049652,-0.019859,0,-0.0080006,0,0,0,0.0061731,0.00019276,0.0019097,-3.2829,0.0027585,0.0053333,5.1559e-09,0.82,0.72,0
0.042056,-0.0043912,0.0061685,0.00027946,0.0019344,-0.00030353,0,0,0.049539,-0.019363,0,-0.0071027,0,0,0,0.0061841,0.00026386,0.0019344,-2.9427,0.0027941,0.0052868,5.1132e-09,0.84,0.72,0
0.043047,-0.0045725,0.0061867,0.00033328,0.001956,-0.00026289,0,0,0.049499,-0.018986,0,-0.0061516,0,0,0,0.0061985,0.0003215,0.001956,-2.5664,0.0028253,0.005254,5.0908e-09,0.86,0.72,0
0.044036,-0.0047321,0.0062064,0.00037511,0.0019745,-0.00022172,0,0,0.049514,-0.018712,0,-0.0051882,0,0,0,0.0062149,0.00036669,0.0019745,-2.1743,0.002852,0.0052329,5.0853e-09,0.88,0.72,0
0.045027,-0.0048684,0.0062263,0.00040657,0.0019899,-0.00018123,0,0,0.049566,-0.018524,0,-0.0042407,0,0,0,0.0062319,0.00040094,0.0019899,-1.7819,0.0028742,0.0052211,5.0922e-09,0.9,0.72,0
0.046019,-0.0049807,0.0062447,0.0004294,0.0020022,-0.00014212,0,0,0.049637,-0.018402,0,-0.0033257,0,0,0,0.0062482,0.00042592,0.0020022,-1.3992,0.0028921,0.0052159,5.1067e-09,0.92,0.72,0
0.047012,-0.0050683,0.0062604,0.00044521,0.0020117,-0.00010467,0,0,0.04971,-0.018328,0,-0.0024493,0,0,0,0.0062623,0.00044333,0.0020117,-1.0308,0.0029058,0.0052148,5.1239e-09,0.94,0.72,0
0.048007,-0.005131,0.0062725,0.00045542,0.0020184,-6.8774e-05,0,0,0.049773,-0.018287,0,-0.0016093,0,0,0,0.0062733,0.00045461,0.0020184,-0.67727,0.0029154,0.0052157,5.1395e-09,0.96,0.72,0
0.049003,-0.0051686,0.00628,0.0004611,0.0020223,-3.4067e-05,0,0,0.049815,-0.018266,0,-0.00079716,0,0,0,0.0062802,0.0004609,0.0020223,-0.33542,0.0029211,0.0052169,5.1502e-09,0.98,0.72,0
0.05,-0.0051812,0.0062826,0.00046292,0.0020236,-2.6811e-05,0,0,0.049829,-0.01826,0,-0.00062738,0,0,0,0.0062827,0.0004628,0.0020236,-0.26395,0.002923,0.0052176,5.1545e-09,1,0.72,0
0,0,0.0062684,0.0026865,0.0026865,-0.0010675,0,0,0.041909,1.0842e-19,0,-0.02498,0,0,0,0.0065625,0.0023925,0.0026865,-15.399,0.0038805,0.004031,3.3039e-09,0,0.74,0
0.00083818,-0.0004996,0.0062552,0.0025176,0.0026318,-0.0010603,0,0,0.042393,-0.0013362,0,-0.024811,0,0,0,0.006535,0.0022378,0.0026318,-14.785,0.0038015,0.0041144,3.4667e-09,0.02,0.74,0
0.0016957,-0.00097952,0.0063102,0.0023661,0.0026029,-0.0010271,0,0,0.043376,-0.0027702,0,-0.024033,0,0,0,0.0065616,0.0021147,0.0026029,-13.755,0.0037598,0.004224,3.6971e-09,0.04,0.74,0
0.0025732,-0.001437,0.0063637,0.0022076,0.0025714,-0.00098528,0,0,0.04437,-0.0042566,0,-0.023055,0,0,0,0.0065855,0.0019858,0.0025714,-12.684,0.0037142,0.0043366,3.9324e-09,0.06,0.74,0
0.0034705,-0.001869,0.0064132,0.0020466,0.0025379,-0.00093452,0,0,0.04534,-0.0057486,0,-0.021868,0,0,0,0.0066048,0.001855,0.0025379,-11.586,0.0036659,0.0044478,4.1622e-09,0.08,0.74,0
0.0043868,-0.0022724,0.0064563,0.0018875,0.0025031,-0.00087496,0,0,0.046252,-0.0072026,0,-0.020474,0,0,0,0.0066181,0.0017257,0.0025031,-10.479,0.0036157,0.0045537,4.3771e-09,0.1,0.74,0
0.0053206,-0.002644,0.0064913,0.0017341,0.0024676,-0.00080738,0,0,0.047077,-0.0085823,0,-0.018893,0,0,0,0.0066245,0.0016008,0.0024676,-9.3745,0.0035643,0.0046513,4.5692e-09,0.12,0.74,0
0.0062699,-0.0029812,0.0065169,0.0015889,0.0024317,-0.00073299,0,0,0.047796,-0.0098609,0,-0.017152,0,0,0,0.0066236,0.0014822,0.0024317,-8.2834,0.0035125,0.0047385,4.7333e-09,0.14,0.74,0
0.0072324,-0.0032815,0.0065326,0.0014538,0.0023959,-0.00065318,0,0,0.048399,-0.011023,0,-0.015284,0,0,0,0.0066152,0.0013711,0.0023959,-7.2125,0.0034607,0.0048142,4.8668e-09,0.16,0.74,0
0.0082058,-0.0035431,0.0065382,0.0013293,0.0023603,-0.00056939,0,0,0.048882,-0.012062,0,-0.013324,0,0,0,0.0065998,0.0012678,0.0023603,-6.1659,0.0034093,0.0048784,4.9695e-09,0.18,0.74,0
0.0091877,-0.0037648,0.0065345,0.0012152,0.0023249,-0.0004829,0,0,0.049252,-0.012984,0,-0.0113,0,0,0,0.006578,0.0011717,0.0023249,-5.1455,0.0033582,0.0049318,5.0437e-09,0.2,0.74,0
0.010176,-0.0039456,0.0065222,0.0011104,0.0022898,-0.00039487,0,0,0.049519,-0.013799,0,-0.00924,0,0,0,0.0065509,0.0010818,0.0022898,-4.1513,0.0033075,0.0049763,5.0938e-09,0.22,0.74,0
0.011168,-0.0040854,0.0065027,0.0010134,0.0022548,-0.00030625,0,0,0.049701,-0.014525,0,-0.0071662,0,0,0,0.0065198,0.00099631,0.0022548,-3.1833,0.003257,0.0050141,5.1252e-09,0.24,0.74,0
0.012164,-0.0041843,0.0064776,0.00092192,0.0022199,-0.0002179,0,0,0.049815,-0.015186,0,-0.0050988,0,0,0,0.0064861,0.00091339,0.0022199,-2.2426,0.0032065,0.0050479,5.1445e-09,0.26,0.74,0
0.013161,-0.0042431,0.0064484,0.00083376,0.0021847,-0.00013064,0,0,0.049886,-0.015806,0,-0.003057,0,0,0,0.0064515,0.00083072,0.0021847,-1.3322,0.0031556,0.0050809,5.1586e-09,0.28,0.74,0
0.014159,-0.0042629,0.0064171,0.00074637,0.0021491,-4.5397e-05,0,0,0.049937,-0.016411,0,-0.0010623,0,0,0,0.0064175,0.000746,0.0021491,-0.45864,0.0031042,0.0051163,5.1744e-09,0.3,0.74,0
0.015159,-0.0042454,0.0063854,0.00065725,0.0021128,3.6755e-05,0,0,0.04999,-0.01703,0,0.00086007,0,0,0,0.0063857,0.00065701,0.0021128,0.36762,0.0030518,0.0051573,5.1982e-09,0.32,0.74,0
0.016159,-0.0041932,0.0063552,0.00056412,0.0020758,0.00011446,0,0,0.050069,-0.017687,0,0.0026785,0,0,0,0.0063574,0.00056186,0.0020758,1.1319,0.0029984,0.0052064,5.2353e-09,0.34,0.74,0
0.017161,-0.0041092,0.0063279,0.00046509,0.0020379,0.00018607,0,0,0.050193,-0.018402,0,0.004354,0,0,0,0.0063338,0.00045919,0.0020379,1.8159,0.0029436,0.0052658,5.2895e-09,0.36,0.74,0
0.018167,-0.0039975,0.0063051,0.00035887,0.0019992,0.00024957,0,0,0.050379,-0.019192,0,0.0058399,0,0,0,0.0063155,0.00034842,0.0019992,2.3992,0.0028877,0.0053368,5.3624e-09,0.38,0.74,0
0.019176,-0.0038627,0.0062876,0.00024505,0.0019598,0.00030271,0,0,0.050635,-0.020063,0,0.0070834,0,0,0,0.0063027,0.00022993,0.0019598,2.8608,0.0028308,0.0054191,5.4536e-09,0.4,0.74,0
0.020192,-0.0037106,0.0062761,0.00012427,0.0019201,0.00034309,0,0,0.050965,-0.021011,0,0.0080282,0,0,0,0.0062951,0.0001052,0.0019201,3.1822,0.0027735,0.0055113,5.56e-09,0.42,0.74,0
0.021215,-0.0035477,0.0062704,-1.5808e-06,0.0018806,0.00036838,0,0,0.05136,-0.022022,0,0.00862,0,0,0,0.0062919,-2.3143e-05,0.0018806,3.3499,0.0027165,0.0056109,5.6767e-09,0.44,0.74,0
0.022246,-0.0033812,0.0062698,-0.00012931,0.0018422,0.00037665,0,0,0.051804,-0.023066,0,0.0088136,0,0,0,0.0062919,-0.0001514,0.0018422,3.357,0.0026609,0.0057136,5.7968e-09,0.46,0.74,0
0.023287,-0.0032189,0.0062732,-0.00025456,0.0018056,0.00036669,0,0,0.052271,-0.024104,0,0.0085806,0,0,0,0.0062938,-0.00027509,0.0018056,3.2051,0.0026081,0.0058148,5.9127e-09,0.48,0.74,0
0.024337,-0.0030688,0.006279,-0.00037218,0.0017721,0.0003383,0,0,0.052731,-0.025087,0,0.0079162,0,0,0,0.0062962,-0.00038934,0.0017721,2.9043,0.0025596,0.0059091,6.0172e-09,0.5,0.74,0
0.025396,-0.0029384,0.0062853,-0.00047678,0.0017426,0.00029245,0,0,0.05315,-0.025966,0,0.0068433,0,0,0,0.006298,-0.0004894,0.0017426,2.4718,0.002517,0.0059917,6.104e-09,0.52,0.74,0
0.026463,-0.0028347,0.0062905,-0.00056334,0.0017182,0.00023127,0,0,0.053497,-0.026693,0,0.0054118,0,0,0,0.0062983,-0.00057113,0.0017182,1.9304,0.0024818,0.0060584,6.1692e-09,0.54,0.74,0
0.027536,-0.0027635,0.0062931,-0.00062775,0.0016996,0.00015786,0,0,0.053744,-0.02723,0,0.003694,0,0,0,0.0062967,-0.00063135,0.0016996,1.306,0.002455,0.0061059,6.2101e-09,0.56,0.74,0
0.028613,-0.0027289,0.006292,-0.00066711,0.0016875,7.5991e-05,0,0,0.053873,-0.027549,0,0.0017782,0,0,0,0.0062928,-0.00066794,0.0016875,0.62555,0.0024375,0.0061323,6.2258e-09,0.58,0.74,0
0.029691,-0.0027338,0.0062866,-0.00067987,0.001682,-1.0162e-05,0,0,0.053873,-0.027634,0,-0.00023778,0,0,0,0.0062866,-0.00067988,0.001682,-0.083574,0.0024296,0.0061364,6.2164e-09,0.6,0.74,0
0.030768,-0.0027789,0.0062766,-0.00066587,0.0016832,-9.6253e-05,0,0,0.053742,-0.027484,0,-0.0022523,0,0,0,0.0062779,-0.0006672,0.0016832,-0.79417,0.0024313,0.0061184,6.1822e-09,0.62,0.74,0
0.031841,-0.0028632,0.0062623,-0.00062637,0.0016908,-0.00017799,0,0,0.053487,-0.027111,0,-0.0041651,0,0,0,0.0062669,-0.00063096,0.0016908,-1.4791,0.0024422,0.0060791,6.1242e-09,0.64,0.74,0
0.032907,-0.002984,0.0062445,-0.00056406,0.0017041,-0.0002514,0,0,0.053123,-0.026538,0,-0.0058827,0,0,0,0.0062538,-0.00057333,0.0017041,-2.1117,0.0024615,0.0060206,6.044e-09,0.66,0.74,0
0.033966,-0.003137,0.0062245,-0.00048301,0.0017224,-0.00031309,0,0,0.052674,-0.025804,0,-0.0073262,0,0,0,0.0062391,-0.00049759,0.0017224,-2.6667,0.002488,0.005946,5.9444e-09,0.68,0.74,0
0.035014,-0.0033166,0.0062037,-0.00038833,0.0017446,-0.00036062,0,0,0.052171,-0.024955,0,-0.0084384,0,0,0,0.0062234,-0.000408,0.0017446,-3.1219,0.00252,0.0058595,5.8297e-09,0.7,0.74,0
0.036053,-0.0035164,0.0061839,-0.00028574,0.0017695,-0.00039271,0,0,0.051649,-0.024046,0,-0.0091893,0,0,0,0.0062077,-0.00030949,0.0017695,-3.4609,0.0025559,0.005766,5.7056e-09,0.72,0.74,0
0.037081,-0.0037297,0.0061667,-0.00018088,0.0017958,-0.00040929,0,0,0.05114,-0.023127,0,-0.0095775,0,0,0,0.006193,-0.00020717,0.0017958,-3.6742,0.0025939,0.0056705,5.5788e-09,0.74,0.74,0
0.038098,-0.0039498,0.0061535,-7.8755e-05,0.0018224,-0.0004114,0,0,0.050674,-0.022244,0,-0.0096268,0,0,0,0.0061806,-0.00010579,0.0018224,-3.7604,0.0026324,0.0055781,5.4562e-09,0.76,0.74,0
0.039107,-0.0041702,0.0061451,1.6679e-05,0.0018486,-0.00040086,0,0,0.05027,-0.021433,0,-0.00938,0,0,0,0.0061712,-9.4295e-06,0.0018486,-3.7265,0.0026701,0.0054927,5.3441e-09,0.78,0.74,0
0.040109,-0.0043853,0.0061419,0.00010266,0.0018734,-0.00037995,0,0,0.049942,-0.020717,0,-0.0088908,0,0,0,0.0061657,7.885e-05,0.0018734,-3.5858,0.002706,0.0054173,5.2472e-09,0.8,0.74,0
0.041105,-0.0045902,0.0061436,0.00017761,0.0018964,-0.0003511,0,0,0.049693,-0.020109,0,-0.0082157,0,0,0,0.0061642,0.00015702,0.0018964,-3.3564,0.0027392,0.0053538,5.1683e-09,0.82,0.74,0
0.042097,-0.004781,0.0061496,0.00024097,0.0019172,-0.00031662,0,0,0.049519,-0.019611,0,-0.0074088,0,0,0,0.0061665,0.00022405,0.0019172,-3.0585,0.0027692,0.0053026,5.1083e-09,0.84,0.74,0
0.043086,-0.0049545,0.0061588,0.00029298,0.0019355,-0.00027853,0,0,0.049412,-0.019218,0,-0.0065175,0,0,0,0.006172,0.00027978,0.0019355,-2.7124,0.0027958,0.0052634,5.0666e-09,0.86,0.74,0
0.044073,-0.0051082,0.0061701,0.00033444,0.0019514,-0.00023848,0,0,0.04936,-0.018918,0,-0.0055804,0,0,0,0.0061799,0.00032471,0.0019514,-2.3362,0.0028186,0.0052349,5.0408e-09,0.88,0.74,0
0.04506,-0.0052404,0.0061824,0.00036649,0.0019647,-0.00019769,0,0,0.049347,-0.018698,0,-0.004626,0,0,0,0.0061891,0.00035978,0.0019647,-1.9446,0.0028378,0.0052154,5.0278e-09,0.9,0.74,0
0.046047,-0.0053499,0.0061943,0.00039043,0.0019754,-0.000157,0,0,0.049361,-0.018544,0,-0.0036739,0,0,0,0.0061985,0.00038619,0.0019754,-1.5484,0.0028534,0.005203,5.0239e-09,0.92,0.74,0
0.047035,-0.0054356,0.0062047,0.00040751,0.0019837,-0.00011685,0,0,0.049386,-0.018441,0,-0.0027344,0,0,0,0.0062071,0.00040515,0.0019837,-1.1543,0.0028653,0.0051957,5.0256e-09,0.94,0.74,0
0.048023,-0.0054972,0.0062129,0.00041883,0.0019895,-7.7394e-05,0,0,0.049413,-0.018377,0,-0.001811,0,0,0,0.0062139,0.0004178,0.0019895,-0.76515,0.0028738,0.0051919,5.0294e-09,0.96,0.74,0
0.049011,-0.0055343,0.0062181,0.00042527,0.001993,-3.8529e-05,0,0,0.049433,-0.018343,0,-0.00090157,0,0,0,0.0062183,0.00042501,0.001993,-0.38106,0.0028788,0.0051901,5.0327e-09,0.98,0.74,0
0.05,-0.0055467,0.0062198,0.00042735,0.0019942,-2.6436e-05,0,0,0.04944,-0.018332,0,-0.00061861,0,0,0,0.00622,0.00042723,0.0019942,-0.26149,0.0028805,0.0051898,5.0345e-09,1,0.74,0
0,0,0.0062248,0.0026678,0.0026678,-0.001126,0,0,0.041618,-1.6263e-19,0,-0.026349,0,0,0,0.0065513,0.0023413,0.0026678,-16.169,0.0038535,0.0040566,3.3539e-09,0,0.76,0
0.00083235,-0.00052697,0.0062109,0.0024893,0.0026101,-0.0011182,0,0,0.04213,-0.0014133,0,-0.026165,0,0,0,0.006521,0.0021792,0.0026101,-15.501,0.0037701,0.0041433,3.5201e-09,0.02,0.76,0
0.0016852,-0.0010363,0.0062692,0.0023281,0.0025792,-0.0010847,0,0,0.043173,-0.0029381,0,-0.025381,0,0,0,0.006548,0.0020492,0.0025792,-14.415,0.0037255,0.0042586,3.7603e-09,0.04,0.76,0
0.0025593,-0.0015244,0.0063257,0.0021589,0.0025454,-0.0010398,0,0,0.04423,-0.0045218,0,-0.024332,0,0,0,0.0065708,0.0019138,0.0025454,-13.262,0.0036767,0.0043755,4.0019e-09,0.06,0.76,0
0.0034544,-0.0019871,0.0063778,0.0019874,0.0025096,-0.0009833,0,0,0.045258,-0.0061092,0,-0.023009,0,0,0,0.006588,0.0017772,0.0025096,-12.065,0.0036249,0.0044896,4.2339e-09,0.08,0.76,0
0.0043696,-0.0024203,0.0064229,0.0018187,0.0024725,-0.00091571,0,0,0.04622,-0.0076488,0,-0.021428,0,0,0,0.0065983,0.0016433,0.0024725,-10.846,0.0035714,0.0045969,4.4467e-09,0.1,0.76,0
0.0053032,-0.0028202,0.006459,0.0016572,0.0024349,-0.00083853,0,0,0.047083,-0.0090988,0,-0.019622,0,0,0,0.0066013,0.001515,0.0024349,-9.6259,0.003517,0.0046944,4.6331e-09,0.12,0.76,0
0.0062529,-0.0031835,0.0064851,0.0015058,0.0023973,-0.0007537,0,0,0.047828,-0.01043,0,-0.017636,0,0,0,0.0065967,0.0013942,0.0023973,-8.4213,0.0034627,0.0047805,4.789e-09,0.14,0.76,0
0.0072163,-0.0035074,0.0065007,0.0013662,0.0023601,-0.00066336,0,0,0.048445,-0.011628,0,-0.015523,0,0,0,0.006585,0.0012819,0.0023601,-7.244,0.003409,0.0048547,4.9133e-09,0.16,0.76,0
0.0081907,-0.0037901,0.0065061,0.001239,0.0023235,-0.00056954,0,0,0.048936,-0.012689,0,-0.013327,0,0,0,0.006567,0.0011781,0.0023235,-6.1015,0.0033562,0.0049173,5.0075e-09,0.18,0.76,0
0.0091738,-0.0040303,0.0065023,0.0011235,0.0022877,-0.00047404,0,0,0.04931,-0.013621,0,-0.011092,0,0,0,0.0065437,0.0010821,0.0022877,-4.9982,0.0033045,0.0049697,5.0752e-09,0.2,0.76,0
0.010163,-0.0042276,0.0064904,0.0010186,0.0022527,-0.00037832,0,0,0.049581,-0.014439,0,-0.0088527,0,0,0,0.0065164,0.00099254,0.0022527,-3.9365,0.0032539,0.005014,5.1215e-09,0.22,0.76,0
0.011157,-0.004382,0.006472,0.00092228,0.0022183,-0.00028359,0,0,0.049769,-0.015163,0,-0.006636,0,0,0,0.0064865,0.00090782,0.0022183,-2.9177,0.0032042,0.0050525,5.1524e-09,0.24,0.76,0
0.012154,-0.0044942,0.0064489,0.00083243,0.0021844,-0.00019084,0,0,0.049895,-0.015818,0,-0.0044657,0,0,0,0.0064554,0.00082596,0.0021844,-1.9439,0.0031552,0.0050881,5.1744e-09,0.26,0.76,0
0.013153,-0.0045653,0.0064228,0.00074668,0.0021508,-0.00010098,0,0,0.049982,-0.016429,0,-0.002363,0,0,0,0.0064246,0.00074488,0.0021508,-1.0189,0.0031068,0.0051235,5.1939e-09,0.28,0.76,0
0.014153,-0.0045972,0.0063954,0.00066261,0.0021174,-1.4934e-05,0,0,0.050053,-0.017021,0,-0.00034945,0,0,0,0.0063955,0.00066257,0.0021174,-0.14925,0.0030585,0.0051616,5.2169e-09,0.3,0.76,0
0.015155,-0.004592,0.0063686,0.00057793,0.002084,6.6274e-05,0,0,0.05013,-0.01762,0,0.0015508,0,0,0,0.0063693,0.00057718,0.002084,0.65564,0.0030102,0.005205,5.2485e-09,0.32,0.76,0
0.016158,-0.0045527,0.0063437,0.00049064,0.0020503,0.00014141,0,0,0.050233,-0.018248,0,0.0033091,0,0,0,0.0063471,0.00048723,0.0020503,1.3832,0.0029615,0.0052557,5.2928e-09,0.34,0.76,0
0.017164,-0.0044827,0.0063222,0.00039914,0.0020164,0.00020903,0,0,0.050378,-0.018922,0,0.0048914,0,0,0,0.0063296,0.00039177,0.0020164,2.0187,0.0029126,0.0053151,5.3523e-09,0.36,0.76,0
0.018173,-0.0043863,0.0063051,0.00030242,0.0019823,0.00026746,0,0,0.050577,-0.019654,0,0.0062585,0,0,0,0.006317,0.00029053,0.0019823,2.5462,0.0028633,0.0053838,5.4278e-09,0.38,0.76,0
0.019187,-0.0042682,0.0062931,0.00020026,0.001948,0.00031484,0,0,0.050838,-0.020449,0,0.0073673,0,0,0,0.0063094,0.00018404,0.001948,2.9502,0.0028138,0.0054614,5.5183e-09,0.4,0.76,0
0.020207,-0.0041341,0.0062865,9.3338e-05,0.001914,0.00034931,0,0,0.051159,-0.021301,0,0.0081739,0,0,0,0.0063062,7.3698e-05,0.001914,3.218,0.0027646,0.0055462,5.6209e-09,0.42,0.76,0
0.021234,-0.0039902,0.006285,-1.6675e-05,0.0018805,0.00036913,0,0,0.051533,-0.022197,0,0.0086377,0,0,0,0.0063066,-3.8224e-05,0.0018805,3.341,0.0027163,0.0056359,5.7309e-09,0.44,0.76,0
0.022268,-0.0038433,0.0062878,-0.00012711,0.0018482,0.00037295,0,0,0.051943,-0.023111,0,0.0087271,0,0,0,0.0063095,-0.00014872,0.0018482,3.3162,0.0026696,0.0057271,5.8426e-09,0.46,0.76,0
0.023311,-0.0037004,0.0062938,-0.00023443,0.0018178,0.00036003,0,0,0.052369,-0.024011,0,0.0084247,0,0,0,0.0063136,-0.00025423,0.0018178,3.1471,0.0026257,0.0058156,5.9496e-09,0.48,0.76,0
0.024363,-0.0035685,0.0063015,-0.00033456,0.0017901,0.00033045,0,0,0.052783,-0.024858,0,0.0077325,0,0,0,0.0063179,-0.00035098,0.0017901,2.8437,0.0025857,0.0058974,6.0459e-09,0.5,0.76,0
0.025423,-0.0034544,0.0063091,-0.00042323,0.0017658,0.00028522,0,0,0.053157,-0.025611,0,0.0066742,0,0,0,0.0063212,-0.0004353,0.0017658,2.4216,0.0025506,0.0059685,6.1263e-09,0.52,0.76,0
0.026489,-0.0033641,0.0063153,-0.00049645,0.0017456,0.0002263,0,0,0.053464,-0.026232,0,0.0052954,0,0,0,0.0063228,-0.00050396,0.0017456,1.9007,0.0025215,0.0060256,6.1866e-09,0.54,0.76,0
0.027561,-0.0033027,0.0063184,-0.00055087,0.0017303,0.00015642,0,0,0.053682,-0.026689,0,0.0036601,0,0,0,0.006322,-0.00055443,0.0017303,1.3037,0.0024993,0.0060659,6.2243e-09,0.56,0.76,0
0.028637,-0.0032741,0.0063176,-0.00058409,0.0017201,7.8933e-05,0,0,0.053791,-0.026959,0,0.001847,0,0,0,0.0063185,-0.00058499,0.0017201,0.65516,0.0024845,0.0060876,6.238e-09,0.58,0.76,0
0.029713,-0.0032805,0.0063122,-0.00059482,0.0017152,-2.411e-06,0,0,0.053785,-0.027027,0,-5.6417e-05,0,0,0,0.0063122,-0.00059482,0.0017152,-0.02,0.0024775,0.00609,6.2272e-09,0.6,0.76,0
0.030788,-0.0033228,0.006302,-0.00058294,0.0017157,-8.3722e-05,0,0,0.053659,-0.026894,0,-0.0019591,0,0,0,0.006303,-0.00058396,0.0017157,-0.69659,0.0024782,0.0060729,6.1924e-09,0.62,0.76,0
0.031859,-0.0034001,0.0062872,-0.00054956,0.0017213,-0.00016118,0,0,0.053421,-0.026569,0,-0.0037716,0,0,0,0.006291,-0.00055336,0.0017213,-1.3498,0.0024863,0.0060374,6.1345e-09,0.64,0.76,0
0.032925,-0.0035102,0.0062686,-0.00049696,0.0017315,-0.00023127,0,0,0.053084,-0.026073,0,-0.0054118,0,0,0,0.0062765,-0.00050486,0.0017315,-1.9555,0.0025011,0.0059852,6.0555e-09,0.66,0.76,0
0.033983,-0.0036496,0.0062474,-0.00042847,0.0017457,-0.00029106,0,0,0.05267,-0.025438,0,-0.0068108,0,0,0,0.0062601,-0.00044114,0.0017457,-2.4917,0.0025215,0.005919,5.9584e-09,0.68,0.76,0
0.035032,-0.0038134,0.0062249,-0.00034821,0.001763,-0.00033838,0,0,0.052204,-0.024701,0,-0.007918,0,0,0,0.0062423,-0.00036558,0.001763,-2.9392,0.0025466,0.005842,5.8471e-09,0.7,0.76,0
0.036071,-0.0039962,0.0062026,-0.00026072,0.0017826,-0.000372,0,0,0.051715,-0.023907,0,-0.0087047,0,0,0,0.006224,-0.00028206,0.0017826,-3.2832,0.0025748,0.0057583,5.7268e-09,0.72,0.76,0
0.0371,-0.0041922,0.0061821,-0.00017053,0.0018035,-0.00039166,0,0,0.05123,-0.023096,0,-0.0091648,0,0,0,0.0062062,-0.00019458,0.0018035,-3.5147,0.002605,0.0056721,5.603e-09,0.74,0.76,0
0.03812,-0.0043955,0.0061645,-8.1719e-05,0.0018249,-0.00039799,0,0,0.050774,-0.022307,0,-0.0093129,0,0,0,0.0061898,-0.00010697,0.0018249,-3.6311,0.0026359,0.0055872,5.4817e-09,0.76,0.76,0
0.039131,-0.0046004,0.0061508,2.3355e-06,0.001846,-0.00039229,0,0,0.050367,-0.02157,0,-0.0091797,0,0,0,0.0061758,-2.2593e-05,0.001846,-3.636,0.0026664,0.0055072,5.368e-09,0.78,0.76,0
0.040135,-0.0048017,0.0061414,7.9167e-05,0.0018662,-0.00037633,0,0,0.05002,-0.020908,0,-0.0088061,0,0,0,0.0061647,5.5895e-05,0.0018662,-3.5387,0.0026956,0.0054347,5.2662e-09,0.8,0.76,0
0.041132,-0.0049948,0.0061363,0.00014721,0.001885,-0.00035204,0,0,0.049739,-0.020333,0,-0.0082377,0,0,0,0.0061569,0.00012659,0.001885,-3.3525,0.0027228,0.0053715,5.1791e-09,0.82,0.76,0
0.042124,-0.0051757,0.0061351,0.00020573,0.0019022,-0.00032137,0,0,0.049524,-0.019849,0,-0.0075201,0,0,0,0.0061524,0.00018836,0.0019022,-3.0934,0.0027477,0.0053184,5.108e-09,0.84,0.76,0
0.043113,-0.0053412,0.0061371,0.00025466,0.0019175,-0.0002861,0,0,0.049369,-0.019456,0,-0.0066947,0,0,0,0.006151,0.00024078,0.0019175,-2.7779,0.0027698,0.0052756,5.0528e-09,0.86,0.76,0
0.044099,-0.0054888,0.0061415,0.00029444,0.0019308,-0.00024775,0,0,0.049266,-0.019145,0,-0.0057972,0,0,0,0.006152,0.00028396,0.0019308,-2.4219,0.0027889,0.0052424,5.0125e-09,0.88,0.76,0
0.045084,-0.0056164,0.0061474,0.00032583,0.001942,-0.00020752,0,0,0.049204,-0.018909,0,-0.0048559,0,0,0,0.0061548,0.00031844,0.001942,-2.0389,0.0028051,0.0052176,4.9847e-09,0.9,0.76,0
0.046067,-0.0057225,0.0061538,0.00034975,0.001951,-0.00016631,0,0,0.049172,-0.018735,0,-0.0038917,0,0,0,0.0061585,0.00034499,0.001951,-1.64,0.0028182,0.0052,4.967e-09,0.92,0.76,0
0.047051,-0.0058059,0.0061597,0.00036717,0.0019581,-0.00012471,0,0,0.049159,-0.018614,0,-0.0029183,0,0,0,0.0061624,0.00036449,0.0019581,-1.2328,0.0028283,0.0051881,4.9567e-09,0.94,0.76,0
0.048034,-0.0058661,0.0061646,0.00037893,0.001963,-8.3063e-05,0,0,0.049158,-0.018534,0,-0.0019437,0,0,0,0.0061658,0.00037773,0.001963,-0.82236,0.0028355,0.0051806,4.9514e-09,0.96,0.76,0
0.049017,-0.0059023,0.0061677,0.00038569,0.001966,-4.1494e-05,0,0,0.04916,-0.01849,0,-0.00097095,0,0,0,0.006168,0.0003854,0.001966,-0.41115,0.0028398,0.0051766,4.949e-09,0.98,0.76,0
0.05,-0.0059144,0.0061688,0.0003879,0.001967,-2.5884e-05,0,0,0.049161,-0.018475,0,-0.00060569,0,0,0,0.0061689,0.00038779,0.001967,-0.25654,0.0028412,0.0051755,4.9488e-09,1,0.76,0
0,0,0.0061918,0.0026536,0.0026536,-0.0011883,0,0,0.041397,-6.5052e-19,0,-0.027807,0,0,0,0.0065539,0.0022916,0.0026536,-16.945,0.003833,0.0040933,3.4297e-09,0,0.78,0
0.00082794,-0.00055613,0.006177,0.0024623,0.0025918,-0.0011798,0,0,0.041947,-0.0015155,0,-0.027606,0,0,0,0.00652,0.0021193,0.0025918,-16.211,0.0037437,0.0041846,3.6021e-09,0.02,0.78,0
0.0016779,-0.001097,0.0062393,0.0022882,0.0025583,-0.0011461,0,0,0.043069,-0.0031599,0,-0.026818,0,0,0,0.0065477,0.0019798,0.0025583,-15.06,0.0036953,0.0043079,3.8576e-09,0.04,0.78,0
0.0025507,-0.0016179,0.0062996,0.0021052,0.0025215,-0.0010977,0,0,0.044204,-0.0048698,0,-0.025687,0,0,0,0.0065695,0.0018353,0.0025215,-13.814,0.0036421,0.0044312,4.1098e-09,0.06,0.78,0
0.0034461,-0.0021134,0.0063546,0.0019204,0.0024825,-0.0010345,0,0,0.045303,-0.0065766,0,-0.024207,0,0,0,0.0065841,0.0016909,0.0024825,-12.507,0.0035858,0.0045493,4.3463e-09,0.08,0.78,0
0.0043628,-0.0025784,0.0064014,0.0017401,0.0024425,-0.00095775,0,0,0.04632,-0.0082177,0,-0.022411,0,0,0,0.0065905,0.001551,0.0024425,-11.17,0.003528,0.0046582,4.5572e-09,0.1,0.78,0
0.0052989,-0.003008,0.0064381,0.0015693,0.0024022,-0.00086983,0,0,0.047219,-0.0097447,0,-0.020354,0,0,0,0.0065888,0.0014186,0.0024022,-9.8313,0.0034699,0.0047553,4.7361e-09,0.12,0.78,0
0.0062516,-0.0033984,0.0064635,0.0014115,0.0023625,-0.0007737,0,0,0.047982,-0.011127,0,-0.018104,0,0,0,0.0065794,0.0012956,0.0023625,-8.5146,0.0034125,0.0048393,4.8806e-09,0.14,0.78,0
0.0072181,-0.0037466,0.0064777,0.001268,0.0023237,-0.00067234,0,0,0.048602,-0.012352,0,-0.015733,0,0,0,0.0065631,0.0011826,0.0023237,-7.2364,0.0033565,0.0049104,4.9916e-09,0.16,0.78,0
0.0081957,-0.0040507,0.0064814,0.0011391,0.0022861,-0.00056848,0,0,0.049085,-0.013421,0,-0.013303,0,0,0,0.0065413,0.0010793,0.0022861,-6.0073,0.0033022,0.0049697,5.0726e-09,0.18,0.78,0
0.0091815,-0.0043096,0.006476,0.0010237,0.0022499,-0.00046434,0,0,0.049445,-0.014346,0,-0.010866,0,0,0,0.0065152,0.00098448,0.0022499,-4.8333,0.0032499,0.0050191,5.1288e-09,0.2,0.78,0
0.010174,-0.0045232,0.006463,0.00092026,0.002215,-0.00036167,0,0,0.049702,-0.015148,0,-0.0084631,0,0,0,0.0064865,0.00089676,0.002215,-3.7176,0.0031994,0.0050611,5.1664e-09,0.22,0.78,0
0.01117,-0.0046919,0.0064445,0.00082647,0.0021813,-0.00026178,0,0,0.049879,-0.015851,0,-0.0061257,0,0,0,0.0064566,0.0008143,0.0021813,-2.6621,0.0031507,0.0050982,5.1919e-09,0.24,0.78,0
0.012169,-0.004817,0.0064221,0.00074,0.0021486,-0.0001657,0,0,0.05,-0.016481,0,-0.0038775,0,0,0,0.0064269,0.00073517,0.0021486,-1.669,0.0031036,0.0051331,5.2116e-09,0.26,0.78,0
0.01317,-0.0049002,0.0063978,0.00065842,0.0021169,-7.4297e-05,0,0,0.050087,-0.017064,0,-0.0017385,0,0,0,0.0063988,0.00065746,0.0021169,-0.74153,0.0030577,0.0051685,5.2313e-09,0.28,0.78,0
0.014172,-0.0049437,0.0063733,0.00057938,0.0020858,1.1608e-05,0,0,0.050163,-0.017625,0,0.00027164,0,0,0,0.0063733,0.00057936,0.0020858,0.11479,0.0030128,0.0052068,5.2562e-09,0.3,0.78,0
0.015176,-0.0049502,0.00635,0.00050074,0.0020552,9.1116e-05,0,0,0.050249,-0.018187,0,0.0021321,0,0,0,0.0063514,0.00049932,0.0020552,0.89223,0.0029686,0.00525,5.2903e-09,0.32,0.78,0
0.016182,-0.0049231,0.0063293,0.00042069,0.002025,0.00016319,0,0,0.05036,-0.01877,0,0.0038187,0,0,0,0.0063338,0.00041619,0.002025,1.5809,0.002925,0.0052996,5.3366e-09,0.34,0.78,0
0.017191,-0.0048661,0.0063123,0.00033785,0.001995,0.00022664,0,0,0.050512,-0.019389,0,0.0053035,0,0,0,0.0063208,0.00032926,0.001995,2.1694,0.0028817,0.0053566,5.3968e-09,0.36,0.78,0
0.018202,-0.0047837,0.0062997,0.00025141,0.0019653,0.00028012,0,0,0.050712,-0.020053,0,0.0065547,0,0,0,0.0063126,0.00023846,0.0019653,2.646,0.0028388,0.0054211,5.4708e-09,0.38,0.78,0
0.019219,-0.0046807,0.006292,0.00016123,0.001936,0.00032218,0,0,0.050965,-0.020764,0,0.0075389,0,0,0,0.0063088,0.00014435,0.001936,2.9999,0.0027964,0.0054924,5.5573e-09,0.4,0.78,0
0.020241,-0.0045627,0.0062891,6.7958e-05,0.0019071,0.0003514,0,0,0.051269,-0.021518,0,0.0082228,0,0,0,0.0063089,4.8172e-05,0.0019071,3.2227,0.0027547,0.005569,5.6533e-09,0.42,0.78,0
0.02127,-0.0044356,0.0062907,-2.6986e-05,0.0018791,0.00036655,0,0,0.051615,-0.022301,0,0.0085773,0,0,0,0.0063119,-4.8183e-05,0.0018791,3.3095,0.0027143,0.0056486,5.7549e-09,0.44,0.78,0
0.022306,-0.0043057,0.0062959,-0.0001214,0.0018524,0.00036672,0,0,0.05199,-0.023093,0,0.0085813,0,0,0,0.0063168,-0.00014229,0.0018524,3.2601,0.0026756,0.0057284,5.857e-09,0.46,0.78,0
0.023349,-0.0041794,0.0063037,-0.00021245,0.0018274,0.00035155,0,0,0.052373,-0.023866,0,0.0082263,0,0,0,0.0063226,-0.00023137,0.0018274,3.0793,0.0026395,0.0058052,5.9543e-09,0.48,0.78,0
0.024401,-0.0040631,0.0063125,-0.00029689,0.0018047,0.00032133,0,0,0.052742,-0.024588,0,0.0075192,0,0,0,0.0063281,-0.00031247,0.0018047,2.7769,0.0026068,0.0058754,6.0416e-09,0.5,0.78,0
0.025459,-0.0039629,0.006321,-0.00037134,0.0017849,0.00027712,0,0,0.053072,-0.025228,0,0.0064846,0,0,0,0.0063325,-0.00038279,0.0017849,2.3671,0.0025782,0.0059361,6.1144e-09,0.52,0.78,0
0.026523,-0.003884,0.0063277,-0.00043263,0.0017685,0.0002207,0,0,0.053342,-0.025753,0,0.0051645,0,0,0,0.0063349,-0.00043983,0.0017685,1.8679,0.0025545,0.0059843,6.169e-09,0.54,0.78,0
0.027593,-0.003831,0.0063312,-0.0004781,0.0017559,0.00015455,0,0,0.053531,-0.026138,0,0.0036164,0,0,0,0.0063347,-0.00048161,0.0017559,1.2995,0.0025364,0.0060181,6.203e-09,0.56,0.78,0
0.028665,-0.0038073,0.0063307,-0.00050581,0.0017475,8.1628e-05,0,0,0.053624,-0.026364,0,0.0019101,0,0,0,0.0063317,-0.00050678,0.0017475,0.68398,0.0025241,0.0060358,6.2146e-09,0.58,0.78,0
0.029738,-0.0038149,0.0063256,-0.0005147,0.0017433,5.2584e-06,0,0,0.053614,-0.026418,0,0.00012305,0,0,0,0.0063256,-0.0005147,0.0017433,0.044045,0.0025181,0.0060368,6.2034e-09,0.6,0.78,0
0.030809,-0.0038547,0.0063157,-0.0005047,0.0017433,-7.1116e-05,0,0,0.053497,-0.026302,0,-0.0016641,0,0,0,0.0063164,-0.00050544,0.0017433,-0.59733,0.0025181,0.0060211,6.1696e-09,0.62,0.78,0
0.031878,-0.003926,0.0063012,-0.00047675,0.0017473,-0.00014412,0,0,0.05328,-0.026022,0,-0.0033725,0,0,0,0.0063042,-0.00047981,0.0017473,-1.2176,0.0025239,0.0059895,6.1142e-09,0.64,0.78,0
0.03294,-0.004027,0.0062827,-0.0004327,0.001755,-0.00021069,0,0,0.052974,-0.025596,0,-0.0049301,0,0,0,0.0062893,-0.00043931,0.001755,-1.7952,0.002535,0.0059435,6.0391e-09,0.66,0.78,0
0.033996,-0.0041545,0.0062613,-0.00037526,0.0017658,-0.0002682,0,0,0.052597,-0.025051,0,-0.0062759,0,0,0,0.0062722,-0.00038608,0.0017658,-2.3105,0.0025506,0.0058851,5.9471e-09,0.68,0.78,0
0.035044,-0.0043047,0.0062382,-0.00030771,0.0017792,-0.00031473,0,0,0.052171,-0.024416,0,-0.0073647,0,0,0,0.0062534,-0.00032281,0.0017792,-2.7463,0.0025699,0.0058173,5.8419e-09,0.7,0.78,0
0.036083,-0.0044727,0.0062148,-0.00023369,0.0017943,-0.00034909,0,0,0.05172,-0.023728,0,-0.0081686,0,0,0,0.0062337,-0.00025253,0.0017943,-3.0896,0.0025918,0.0057432,5.7277e-09,0.72,0.78,0
0.037113,-0.0046536,0.0061923,-0.00015681,0.0018107,-0.00037087,0,0,0.051265,-0.023019,0,-0.0086784,0,0,0,0.0062139,-0.0001784,0.0018107,-3.3317,0.0026154,0.005666,5.6096e-09,0.74,0.78,0
0.038134,-0.004842,0.0061719,-8.0431e-05,0.0018274,-0.00038041,0,0,0.05083,-0.022322,0,-0.0089017,0,0,0,0.006195,-0.00010349,0.0018274,-3.469,0.0026396,0.005589,5.4922e-09,0.76,0.78,0
0.039146,-0.005033,0.0061544,-7.3613e-06,0.0018441,-0.00037862,0,0,0.050431,-0.021662,0,-0.0088597,0,0,0,0.0061776,-3.0539e-05,0.0018441,-3.5031,0.0026637,0.0055152,5.3802e-09,0.78,0.78,0
0.040151,-0.0052216,0.0061405,6.0234e-05,0.0018602,-0.00036682,0,0,0.050079,-0.02106,0,-0.0085836,0,0,0,0.0061625,3.8183e-05,0.0018602,-3.44,0.002687,0.0054469,5.2773e-09,0.8,0.78,0
0.04115,-0.0054035,0.0061301,0.00012089,0.0018753,-0.00034657,0,0,0.049781,-0.020527,0,-0.0081098,0,0,0,0.0061501,0.00010097,0.0018753,-3.2899,0.0027088,0.0053858,5.1862e-09,0.82,0.78,0
0.042142,-0.005575,0.0061233,0.00017379,0.0018891,-0.00031948,0,0,0.04954,-0.02007,0,-0.0074759,0,0,0,0.0061404,0.00015668,0.0018891,-3.065,0.0027287,0.0053329,5.1084e-09,0.84,0.78,0
0.043131,-0.0057327,0.0061196,0.00021867,0.0019015,-0.0002871,0,0,0.049352,-0.019689,0,-0.0067182,0,0,0,0.0061335,0.00020474,0.0019015,-2.7789,0.0027466,0.0052887,5.0446e-09,0.86,0.78,0
0.044117,-0.0058741,0.0061184,0.00025573,0.0019122,-0.00025081,0,0,0.049212,-0.019381,0,-0.0058689,0,0,0,0.0061291,0.00024503,0.0019122,-2.4452,0.0027621,0.0052528,4.9942e-09,0.88,0.78,0
0.0451,-0.0059968,0.006119,0.00028544,0.0019213,-0.00021176,0,0,0.049113,-0.01914,0,-0.0049552,0,0,0,0.0061267,0.00027777,0.0019213,-2.0762,0.0027753,0.0052248,4.9559e-09,0.9,0.78,0
0.046081,-0.0060993,0.0061208,0.00030844,0.0019288,-0.00017088,0,0,0.049046,-0.018958,0,-0.0039986,0,0,0,0.0061258,0.00030342,0.0019288,-1.6825,0.002786,0.0052037,4.9281e-09,0.92,0.78,0
0.047061,-0.0061802,0.0061229,0.00032543,0.0019345,-0.00012886,0,0,0.049004,-0.018826,0,-0.0030154,0,0,0,0.0061258,0.00032256,0.0019345,-1.2727,0.0027943,0.0051886,4.9089e-09,0.94,0.78,0
0.048041,-0.0062386,0.0061249,0.00033703,0.0019386,-8.6184e-05,0,0,0.04898,-0.018738,0,-0.0020167,0,0,0,0.0061262,0.00033575,0.0019386,-0.85291,0.0028002,0.0051785,4.8967e-09,0.96,0.78,0
0.049021,-0.0062739,0.0061263,0.00034377,0.001941,-4.3163e-05,0,0,0.048968,-0.018688,0,-0.00101,0,0,0,0.0061266,0.00034345,0.001941,-0.42765,0.0028037,0.0051728,4.89e-09,0.98,0.78,0
0.05,-0.0062857,0.0061268,0.00034598,0.0019418,-2.5216e-05,0,0,0.048964,-0.018671,0,-0.00059005,0,0,0,0.0061269,0.00034587,0.0019418,-0.24992,0.0028049,0.0051712,4.8882e-09,1,0.78,0
0,0,0.0061709,0.0026447,0.0026447,-0.0012555,0,0,0.041257,1.0842e-19,0,-0.02938,0,0,0,0.0065723,0.0022433,0.0026447,-17.727,0.0038201,0.0041429,3.5367e-09,0,0.8,0
0.00082514,-0.00058759,0.006155,0.0024369,0.0025776,-0.0012462,0,0,0.041856,-0.0016455,0,-0.02916,0,0,0,0.006534,0.0020579,0.0025776,-16.918,0.0037232,0.0042402,3.718e-09,0.02,0.8,0
0.0016742,-0.0011627,0.0062222,0.0022461,0.0025405,-0.0012122,0,0,0.043076,-0.0034444,0,-0.028365,0,0,0,0.0065626,0.0019057,0.0025405,-15.686,0.0036696,0.0043742,3.995e-09,0.04,0.8,0
0.0025482,-0.0017192,0.0062867,0.0020454,0.0024996,-0.0011594,0,0,0.044309,-0.0053146,0,-0.02713,0,0,0,0.0065829,0.0017491,0.0024996,-14.333,0.0036106,0.0045057,4.2618e-09,0.06,0.8,0
0.0034466,-0.0022502,0.0063445,0.001844,0.0024566,-0.001088,0,0,0.045489,-0.0071672,0,-0.025459,0,0,0,0.0065937,0.0015948,0.0024566,-12.902,0.0035484,0.0046287,4.5038e-09,0.08,0.8,0
0.0043678,-0.002749,0.0063924,0.0016499,0.0024127,-0.0010003,0,0,0.046563,-0.0089244,0,-0.023406,0,0,0,0.0065948,0.0014476,0.0024127,-11.436,0.003485,0.0047389,4.7107e-09,0.1,0.8,0
0.0053091,-0.00321,0.0064282,0.0014692,0.0023692,-0.00089995,0,0,0.04749,-0.01053,0,-0.021059,0,0,0,0.0065865,0.0013109,0.0023692,-9.9742,0.0034222,0.0048341,4.8776e-09,0.12,0.8,0
0.0062674,-0.0036286,0.0064513,0.0013052,0.0023269,-0.00079129,0,0,0.048255,-0.011955,0,-0.018516,0,0,0,0.0065702,0.0011862,0.0023269,-8.5471,0.0033611,0.004914,5.0047e-09,0.14,0.8,0
0.0072393,-0.0040015,0.0064621,0.0011589,0.0022863,-0.00067831,0,0,0.048856,-0.01319,0,-0.015873,0,0,0,0.0065474,0.0010735,0.0022863,-7.1748,0.0033024,0.0049795,5.0958e-09,0.16,0.8,0
0.0082216,-0.0043269,0.006462,0.00103,0.0022476,-0.00056441,0,0,0.049308,-0.014246,0,-0.013207,0,0,0,0.00652,0.00097194,0.0022476,-5.8697,0.0032465,0.005033,5.1571e-09,0.18,0.8,0
0.0092116,-0.0046042,0.006453,0.00091659,0.0022109,-0.00045217,0,0,0.049633,-0.015143,0,-0.010581,0,0,0,0.0064897,0.0008799,0.0022109,-4.6385,0.0031935,0.0050769,5.1957e-09,0.2,0.8,0
0.010207,-0.0048335,0.0064373,0.00081649,0.0021761,-0.00034344,0,0,0.049856,-0.015908,0,-0.0080365,0,0,0,0.0064582,0.00079558,0.0021761,-3.4836,0.0031433,0.0051141,5.2189e-09,0.22,0.8,0
0.011206,-0.005016,0.006417,0.00072711,0.0021432,-0.00023952,0,0,0.050003,-0.016569,0,-0.0056048,0,0,0,0.0064271,0.00071704,0.0021432,-2.4062,0.0030958,0.0051473,5.2337e-09,0.24,0.8,0
0.012207,-0.0051534,0.0063942,0.00064581,0.002112,-0.00014131,0,0,0.050102,-0.017154,0,-0.0033066,0,0,0,0.0063977,0.00064234,0.002112,-1.4073,0.0030507,0.0051793,5.2461e-09,0.26,0.8,0
0.01321,-0.0052479,0.0063706,0.00057009,0.0020822,-4.9495e-05,0,0,0.050174,-0.017692,0,-0.0011582,0,0,0,0.006371,0.00056966,0.0020822,-0.48885,0.0030076,0.0052124,5.2614e-09,0.28,0.8,0
0.014214,-0.0053022,0.0063478,0.0004976,0.0020536,3.5274e-05,0,0,0.050242,-0.018205,0,0.0008254,0,0,0,0.006348,0.00049739,0.0020536,0.34545,0.0029663,0.0052485,5.2838e-09,0.3,0.8,0
0.01522,-0.0053195,0.0063272,0.00042634,0.0020261,0.00011232,0,0,0.050324,-0.018717,0,0.0026282,0,0,0,0.0063294,0.0004242,0.0020261,1.09,0.0029265,0.0052894,5.3164e-09,0.32,0.8,0
0.016227,-0.0053035,0.0063098,0.00035463,0.0019993,0.00018084,0,0,0.050433,-0.019243,0,0.0042317,0,0,0,0.0063153,0.00034915,0.0019993,1.7378,0.0028879,0.005336,5.3611e-09,0.34,0.8,0
0.017237,-0.0052583,0.0062965,0.00028127,0.0019733,0.00023994,0,0,0.050581,-0.019797,0,0.0056145,0,0,0,0.006306,0.00027172,0.0019733,2.2806,0.0028504,0.0053889,5.4188e-09,0.36,0.8,0
0.01825,-0.0051884,0.0062876,0.00020557,0.001948,0.00028857,0,0,0.050774,-0.020386,0,0.0067525,0,0,0,0.0063013,0.00019191,0.001948,2.7103,0.0028137,0.0054479,5.4888e-09,0.38,0.8,0
0.019268,-0.0050988,0.0062835,0.00012744,0.0019233,0.00032567,0,0,0.051014,-0.021011,0,0.0076207,0,0,0,0.0063006,0.00011026,0.0019233,3.0199,0.002778,0.0055122,5.5697e-09,0.4,0.8,0
0.020291,-0.0049948,0.0062837,4.7424e-05,0.0018993,0.00035022,0,0,0.051297,-0.021667,0,0.0081951,0,0,0,0.0063033,2.7818e-05,0.0018993,3.2042,0.0027435,0.0055803,5.6584e-09,0.42,0.8,0
0.02132,-0.0048823,0.006288,-3.3296e-05,0.0018764,0.00036136,0,0,0.051615,-0.022343,0,0.0084558,0,0,0,0.0063085,-5.3886e-05,0.0018764,3.2612,0.0027104,0.0056502,5.7513e-09,0.44,0.8,0
0.022355,-0.0047671,0.0062953,-0.00011293,0.0018547,0.00035856,0,0,0.051955,-0.023021,0,0.0083903,0,0,0,0.0063153,-0.00013293,0.0018547,3.1926,0.002679,0.0057196,5.844e-09,0.46,0.8,0
0.023398,-0.004655,0.0063045,-0.00018921,0.0018346,0.00034173,0,0,0.052298,-0.023679,0,0.0079964,0,0,0,0.0063225,-0.00020715,0.0018346,3.0041,0.00265,0.0057856,5.9321e-09,0.48,0.8,0
0.024447,-0.004552,0.0063145,-0.00025958,0.0018165,0.00031132,0,0,0.052626,-0.02429,0,0.0072848,0,0,0,0.0063292,-0.00027428,0.0018165,2.7052,0.0026238,0.0058456,6.011e-09,0.5,0.8,0
0.025503,-0.0044635,0.0063237,-0.00032136,0.0018007,0.0002684,0,0,0.052919,-0.024828,0,0.0062805,0,0,0,0.0063345,-0.00033218,0.0018007,2.3092,0.002601,0.005897,6.0768e-09,0.52,0.8,0
0.026564,-0.0043942,0.0063309,-0.00037207,0.0017877,0.00021464,0,0,0.053156,-0.025269,0,0.0050225,0,0,0,0.0063378,-0.00037893,0.0017877,1.8322,0.0025822,0.0059377,6.1262e-09,0.54,0.8,0
0.027629,-0.0043483,0.006335,-0.00040959,0.0017776,0.00015225,0,0,0.053321,-0.02559,0,0.0035627,0,0,0,0.0063384,-0.00041303,0.0017776,1.2925,0.0025677,0.0059658,6.1569e-09,0.56,0.8,0
0.028697,-0.0043286,0.006335,-0.00043239,0.0017708,8.3884e-05,0,0,0.053402,-0.025777,0,0.0019629,0,0,0,0.0063361,-0.00043343,0.0017708,0.71005,0.0025578,0.0059803,6.1672e-09,0.58,0.8,0
0.029765,-0.0043372,0.0063305,-0.00043963,0.0017673,1.2452e-05,0,0,0.05339,-0.025821,0,0.00029137,0,0,0,0.0063305,-0.00043965,0.0017673,0.10538,0.0025527,0.0059804,6.1566e-09,0.6,0.8,0
0.030832,-0.0043748,0.0063213,-0.00043127,0.001767,-5.9011e-05,0,0,0.053285,-0.02572,0,-0.0013809,0,0,0,0.0063218,-0.00043179,0.001767,-0.50066,0.0025523,0.0059662,6.125e-09,0.62,0.8,0
0.031897,-0.004441,0.0063075,-0.00040807,0.0017698,-0.00012755,0,0,0.053091,-0.025481,0,-0.0029846,0,0,0,0.0063099,-0.00041049,0.0017698,-1.0877,0.0025564,0.0059384,6.0736e-09,0.64,0.8,0
0.032956,-0.0045341,0.0062897,-0.00037153,0.0017755,-0.00019044,0,0,0.052817,-0.02512,0,-0.0044563,0,0,0,0.0062951,-0.00037697,0.0017755,-1.6363,0.0025645,0.0058982,6.0039e-09,0.66,0.8,0
0.034009,-0.0046516,0.0062688,-0.00032379,0.0017835,-0.00024539,0,0,0.052478,-0.024655,0,-0.0057422,0,0,0,0.0062779,-0.00033291,0.0017835,-2.1288,0.0025762,0.0058473,5.9185e-09,0.68,0.8,0
0.035055,-0.00479,0.0062458,-0.00026749,0.0017935,-0.00029065,0,0,0.052092,-0.024113,0,-0.0068011,0,0,0,0.0062588,-0.00028043,0.0017935,-2.55,0.0025906,0.005788,5.8206e-09,0.7,0.8,0
0.036093,-0.0049453,0.006222,-0.00020549,0.0018049,-0.00032506,0,0,0.051679,-0.023522,0,-0.0076064,0,0,0,0.0062384,-0.00022189,0.0018049,-2.8879,0.0026071,0.0057227,5.7139e-09,0.72,0.8,0
0.037122,-0.005113,0.0061984,-0.00014071,0.0018173,-0.00034815,0,0,0.051259,-0.022909,0,-0.0081466,0,0,0,0.0062174,-0.00015977,0.0018173,-3.1341,0.002625,0.0056542,5.6025e-09,0.74,0.8,0
0.038143,-0.0052884,0.0061761,-7.5856e-05,0.0018301,-0.00036,0,0,0.050849,-0.022299,0,-0.0084241,0,0,0,0.0061968,-9.6517e-05,0.0018301,-3.2848,0.0026434,0.005585,5.4907e-09,0.76,0.8,0
0.039156,-0.0054669,0.006156,-1.3265e-05,0.0018428,-0.00036125,0,0,0.050464,-0.021716,0,-0.0084533,0,0,0,0.0061771,-3.4347e-05,0.0018428,-3.3398,0.0026619,0.0055178,5.3823e-09,0.78,0.8,0
0.040162,-0.0056441,0.0061386,4.5209e-05,0.0018552,-0.00035288,0,0,0.050117,-0.021176,0,-0.0082574,0,0,0,0.006159,2.4841e-05,0.0018552,-3.3034,0.0026797,0.0054544,5.2807e-09,0.8,0.8,0
0.041161,-0.0058158,0.0061243,9.8243e-05,0.0018668,-0.00033612,0,0,0.049813,-0.020692,0,-0.0078651,0,0,0,0.006143,7.9553e-05,0.0018668,-3.1826,0.0026964,0.0053966,5.1885e-09,0.82,0.8,0
0.042154,-0.0059785,0.0061131,0.00014503,0.0018774,-0.0003123,0,0,0.049557,-0.020269,0,-0.0073079,0,0,0,0.0061294,0.00012873,0.0018774,-2.9874,0.0027119,0.0053453,5.1074e-09,0.84,0.8,0
0.043143,-0.0061288,0.0061047,0.0001852,0.001887,-0.00028276,0,0,0.049348,-0.019911,0,-0.0066167,0,0,0,0.0061182,0.00017173,0.001887,-2.7286,0.0027256,0.0053012,5.0383e-09,0.86,0.8,0
0.044128,-0.0062641,0.0060989,0.00021878,0.0018953,-0.00024874,0,0,0.049182,-0.019615,0,-0.0058206,0,0,0,0.0061094,0.00020828,0.0018953,-2.418,0.0027377,0.0052644,4.9812e-09,0.88,0.8,0
0.045111,-0.006382,0.0060952,0.00024603,0.0019024,-0.00021133,0,0,0.049056,-0.019379,0,-0.0049452,0,0,0,0.0061028,0.0002384,0.0019024,-2.0665,0.0027479,0.0052347,4.9356e-09,0.9,0.8,0
0.046091,-0.0064808,0.0060931,0.00026737,0.0019081,-0.00017145,0,0,0.048964,-0.019197,0,-0.004012,0,0,0,0.0060981,0.00026233,0.0019081,-1.6843,0.0027562,0.0052116,4.9007e-09,0.92,0.8,0
0.047069,-0.006559,0.006092,0.0002833,0.0019126,-0.00012986,0,0,0.048899,-0.019063,0,-0.0030386,0,0,0,0.0060949,0.0002804,0.0019126,-1.28,0.0027626,0.0051944,4.8751e-09,0.94,0.8,0
0.048047,-0.0066156,0.0060916,0.00029429,0.0019158,-8.7127e-05,0,0,0.048857,-0.018971,0,-0.0020388,0,0,0,0.0060929,0.00029298,0.0019158,-0.86083,0.0027672,0.0051827,4.8578e-09,0.96,0.8,0
0.049023,-0.0066498,0.0060915,0.00030071,0.0019177,-4.3721e-05,0,0,0.048834,-0.018918,0,-0.0010231,0,0,0,0.0060918,0.00030038,0.0019177,-0.43255,0.00277,0.0051759,4.8479e-09,0.98,0.8,0
0.05,-0.0066613,0.0060915,0.00030283,0.0019183,-2.4485e-05,0,0,0.048826,-0.018901,0,-0.00057295,0,0,0,0.0060916,0.00030272,0.0019183,-0.24235,0.0027709,0.0051739,4.845e-09,1,0.8,0
0,0,0.0061645,0.0026419,0.0026419,-0.0013289,0,0,0.041214,-4.3368e-19,0,-0.031098,0,0,0,0.0066096,0.0021968,0.0026419,-18.518,0.0038161,0.0042079,3.6827e-09,0,0.82,0
0.00082427,-0.00062195,0.0061471,0.0024136,0.0025682,-0.0013185,0,0,0.041873,-0.001809,0,-0.030853,0,0,0,0.0065658,0.0019949,0.0025682,-17.617,0.0037096,0.0043129,3.8759e-09,0.02,0.82,0
0.0016749,-0.0012348,0.00622,0.0022009,0.0025263,-0.0012838,0,0,0.043216,-0.0038064,0,-0.030042,0,0,0,0.0065951,0.0018258,0.0025263,-16.287,0.0036491,0.0044605,4.1815e-09,0.04,0.82,0
0.0025529,-0.0018305,0.006289,0.0019775,0.0024799,-0.0012251,0,0,0.044566,-0.005879,0,-0.028666,0,0,0,0.0066128,0.0016537,0.0024799,-14.804,0.0035821,0.0046019,4.4664e-09,0.06,0.82,0
0.0034576,-0.0024001,0.0063492,0.0017557,0.0024315,-0.001143,0,0,0.045837,-0.0079066,0,-0.026745,0,0,0,0.0066179,0.001487,0.0024315,-13.229,0.0035121,0.0047299,4.7126e-09,0.08,0.82,0
0.0043864,-0.0029353,0.0063966,0.001546,0.0023828,-0.0010416,0,0,0.046962,-0.0097908,0,-0.024373,0,0,0,0.0066108,0.0013318,0.0023828,-11.621,0.0034418,0.0048399,4.9099e-09,0.1,0.82,0
0.005336,-0.0034292,0.0064293,0.001355,0.0023353,-0.00092656,0,0,0.0479,-0.011469,0,-0.021681,0,0,0,0.0065932,0.0011911,0.0023353,-10.031,0.0033732,0.0049306,5.0564e-09,0.12,0.82,0
0.0063024,-0.0038766,0.0064471,0.001186,0.0022899,-0.00080388,0,0,0.048639,-0.012916,0,-0.018811,0,0,0,0.0065672,0.0010659,0.0022899,-8.4963,0.0033077,0.0050029,5.1565e-09,0.14,0.82,0
0.0072816,-0.0042742,0.0064516,0.0010389,0.0022471,-0.0006787,0,0,0.049192,-0.014136,0,-0.015882,0,0,0,0.0065354,0.00095511,0.0022471,-7.0393,0.0032459,0.0050595,5.2182e-09,0.16,0.82,0
0.0082701,-0.0046205,0.006445,0.00091218,0.0022072,-0.00055501,0,0,0.049583,-0.015151,0,-0.012987,0,0,0,0.0065001,0.00085706,0.0022072,-5.6722,0.0031881,0.0051038,5.2512e-09,0.18,0.82,0
0.0092649,-0.0049153,0.0064302,0.00080308,0.00217,-0.00043554,0,0,0.049844,-0.015993,0,-0.010192,0,0,0,0.0064637,0.00076957,0.00217,-4.3998,0.0031344,0.0051391,5.2648e-09,0.2,0.82,0
0.010264,-0.0051595,0.0064098,0.00070857,0.0021355,-0.00032203,0,0,0.050009,-0.016695,0,-0.0075355,0,0,0,0.0064279,0.00069044,0.0021355,-3.2226,0.0030846,0.0051688,5.2676e-09,0.22,0.82,0
0.011265,-0.0053547,0.0063863,0.00062558,0.0021036,-0.00021551,0,0,0.050108,-0.017293,0,-0.0050431,0,0,0,0.0063944,0.00061753,0.0021036,-2.1395,0.0030385,0.0051957,5.2666e-09,0.24,0.82,0
0.012268,-0.0055032,0.0063619,0.00055122,0.0020739,-0.00011661,0,0,0.050169,-0.017816,0,-0.0027287,0,0,0,0.0063642,0.00054888,0.0020739,-1.1492,0.0029957,0.0052226,5.2676e-09,0.26,0.82,0
0.013272,-0.0056079,0.0063381,0.00048287,0.0020463,-2.5722e-05,0,0,0.050214,-0.018292,0,-0.00060189,0,0,0,0.0063382,0.00048276,0.0020463,-0.25169,0.0029558,0.0052513,5.2748e-09,0.28,0.82,0
0.014277,-0.0056719,0.0063165,0.00041824,0.0020204,5.6796e-05,0,0,0.050264,-0.018745,0,0.001329,0,0,0,0.006317,0.0004177,0.0020204,0.55165,0.0029184,0.0052835,5.2916e-09,0.3,0.82,0
0.015283,-0.0056989,0.006298,0.00035541,0.001996,0.00013053,0,0,0.050334,-0.019195,0,0.0030544,0,0,0,0.0063009,0.00035255,0.001996,1.2577,0.0028832,0.0053205,5.32e-09,0.32,0.82,0
0.01629,-0.0056928,0.0062836,0.00029285,0.0019729,0.00019496,0,0,0.050435,-0.019657,0,0.0045622,0,0,0,0.0062899,0.00028651,0.0019729,1.862,0.0028498,0.0053629,5.3611e-09,0.34,0.82,0
0.0173,-0.005658,0.0062735,0.00022949,0.0019509,0.00024946,0,0,0.050575,-0.020141,0,0.0058374,0,0,0,0.0062838,0.00021921,0.0019509,2.3595,0.002818,0.0054107,5.4149e-09,0.36,0.82,0
0.018313,-0.0055991,0.0062682,0.00016471,0.0019299,0.0002933,0,0,0.050758,-0.020652,0,0.0068632,0,0,0,0.0062822,0.00015065,0.0019299,2.7449,0.0027876,0.0054637,5.4803e-09,0.38,0.82,0
0.01933,-0.0055211,0.0062673,9.8447e-05,0.0019097,0.00032573,0,0,0.050984,-0.021192,0,0.0076221,0,0,0,0.0062845,8.1295e-05,0.0019097,3.0142,0.0027585,0.0055209,5.5554e-09,0.4,0.82,0
0.020352,-0.0054294,0.0062707,3.1137e-05,0.0018905,0.00034605,0,0,0.051248,-0.021755,0,0.0080976,0,0,0,0.0062898,1.2003e-05,0.0018905,3.1648,0.0027308,0.0055809,5.6373e-09,0.42,0.82,0
0.02138,-0.0053293,0.0062776,-3.6256e-05,0.0018724,0.00035374,0,0,0.051541,-0.022331,0,0.0082775,0,0,0,0.0062973,-5.6013e-05,0.0018724,3.1967,0.0027046,0.005642,5.7227e-09,0.44,0.82,0
0.022414,-0.0052265,0.0062871,-0.00010231,0.0018554,0.00034852,0,0,0.05185,-0.022905,0,0.0081555,0,0,0,0.006306,-0.00012126,0.0018554,3.113,0.0026801,0.005702,5.8077e-09,0.46,0.82,0
0.023454,-0.0051265,0.006298,-0.00016522,0.0018399,0.00033052,0,0,0.052161,-0.023459,0,0.0077342,0,0,0,0.0063149,-0.00018208,0.0018399,2.9199,0.0026576,0.0057587,5.8883e-09,0.48,0.82,0
0.024501,-0.0050347,0.0063093,-0.00022298,0.0018259,0.0003003,0,0,0.052456,-0.023972,0,0.007027,0,0,0,0.0063231,-0.00023675,0.0018259,2.6266,0.0026374,0.0058099,5.9605e-09,0.5,0.82,0
0.025552,-0.004956,0.0063196,-0.0002735,0.0018138,0.00025891,0,0,0.052717,-0.024422,0,0.0060586,0,0,0,0.0063297,-0.00028365,0.0018138,2.2454,0.00262,0.0058536,6.0209e-09,0.52,0.82,0
0.026609,-0.0048948,0.0063277,-0.00031484,0.0018039,0.00020792,0,0,0.052929,-0.024789,0,0.0048652,0,0,0,0.0063342,-0.00032134,0.0018039,1.7911,0.0026056,0.005888,6.0665e-09,0.54,0.82,0
0.02767,-0.0048546,0.0063326,-0.00034534,0.0017962,0.0001493,0,0,0.053076,-0.025056,0,0.0034937,0,0,0,0.0063359,-0.00034868,0.0017962,1.2801,0.0025945,0.0059116,6.0951e-09,0.56,0.82,0
0.028732,-0.0048384,0.0063335,-0.00036381,0.0017909,8.5417e-05,0,0,0.053149,-0.02521,0,0.0019988,0,0,0,0.0063346,-0.0003649,0.0017909,0.73059,0.0025869,0.0059235,6.1053e-09,0.58,0.82,0
0.029796,-0.0048477,0.0063299,-0.00036959,0.0017881,1.8831e-05,0,0,0.053139,-0.025245,0,0.00044065,0,0,0,0.00633,-0.00036964,0.0017881,0.16105,0.0025828,0.0059232,6.0962e-09,0.6,0.82,0
0.030858,-0.0048835,0.0063217,-0.00036265,0.0017877,-4.7794e-05,0,0,0.053047,-0.025159,0,-0.0011184,0,0,0,0.006322,-0.00036299,0.0017877,-0.40964,0.0025822,0.0059108,6.0679e-09,0.62,0.82,0
0.031918,-0.0049453,0.0063089,-0.0003436,0.0017896,-0.00011186,0,0,0.052876,-0.024958,0,-0.0026175,0,0,0,0.0063108,-0.00034548,0.0017896,-0.96305,0.002585,0.0058867,6.0213e-09,0.64,0.82,0
0.032973,-0.0050317,0.0062921,-0.00031364,0.0017935,-0.00017098,0,0,0.052633,-0.024654,0,-0.004001,0,0,0,0.0062965,-0.00031806,0.0017935,-1.4817,0.0025907,0.0058518,5.9577e-09,0.66,0.82,0
0.034023,-0.0051407,0.006272,-0.00027445,0.0017993,-0.00022312,0,0,0.052331,-0.024262,0,-0.005221,0,0,0,0.0062796,-0.00028204,0.0017993,-1.9498,0.0025989,0.0058077,5.8794e-09,0.68,0.82,0
0.035066,-0.0052692,0.0062495,-0.0002281,0.0018064,-0.00026667,0,0,0.051984,-0.023804,0,-0.00624,0,0,0,0.0062604,-0.00023906,0.0018064,-2.3535,0.0026093,0.0057561,5.7891e-09,0.7,0.82,0
0.036102,-0.0054136,0.0062256,-0.00017687,0.0018146,-0.00030055,0,0,0.051608,-0.0233,0,-0.0070329,0,0,0,0.0062397,-0.00019094,0.0018146,-2.6818,0.0026211,0.005699,5.6901e-09,0.72,0.82,0
0.03713,-0.0055699,0.0062014,-0.00012306,0.0018235,-0.00032421,0,0,0.051221,-0.022775,0,-0.0075866,0,0,0,0.006218,-0.00013963,0.0018235,-2.9269,0.0026339,0.0056385,5.5859e-09,0.74,0.82,0
0.038151,-0.005734,0.0061779,-6.8853e-05,0.0018327,-0.00033761,0,0,0.050838,-0.022248,0,-0.0079,0,0,0,0.006196,-8.7047e-05,0.0018327,-3.0846,0.0026472,0.0055768,5.4802e-09,0.76,0.82,0
0.039164,-0.0059016,0.0061558,-1.6163e-05,0.0018419,-0.00034113,0,0,0.050472,-0.021739,0,-0.0079823,0,0,0,0.0061746,-3.496e-05,0.0018419,-3.154,0.0026605,0.005516,5.3763e-09,0.78,0.82,0
0.04017,-0.0060686,0.0061358,3.3457e-05,0.0018508,-0.0003355,0,0,0.050134,-0.021263,0,-0.0078507,0,0,0,0.0061541,1.5067e-05,0.0018508,-3.1375,0.0026733,0.0054579,5.2773e-09,0.8,0.82,0
0.041169,-0.0062312,0.0061182,7.8854e-05,0.0018591,-0.0003217,0,0,0.049832,-0.020829,0,-0.0075279,0,0,0,0.0061353,6.1766e-05,0.0018591,-3.0405,0.0026854,0.0054039,5.1856e-09,0.82,0.82,0
0.042163,-0.0063857,0.0061034,0.00011927,0.0018668,-0.00030084,0,0,0.049568,-0.020446,0,-0.0070395,0,0,0,0.0061185,0.00010419,0.0018668,-2.8707,0.0026965,0.0053552,5.1032e-09,0.84,0.82,0
0.043152,-0.0065292,0.0060912,0.00015431,0.0018737,-0.00027403,0,0,0.049345,-0.020116,0,-0.0064124,0,0,0,0.0061038,0.00014169,0.0018737,-2.6372,0.0027064,0.0053123,5.031e-09,0.86,0.82,0
0.044137,-0.0066587,0.0060815,0.00018388,0.0018796,-0.00024241,0,0,0.049162,-0.01984,0,-0.0056723,0,0,0,0.0060915,0.00017394,0.0018796,-2.3497,0.002715,0.0052757,4.9697e-09,0.88,0.82,0
0.045119,-0.006772,0.0060742,0.00020811,0.0018847,-0.00020697,0,0,0.049017,-0.019616,0,-0.0048431,0,0,0,0.0060815,0.00020081,0.0018847,-2.0182,0.0027223,0.0052455,4.9193e-09,0.9,0.82,0
0.046098,-0.0068671,0.0060687,0.00022726,0.0018888,-0.00016863,0,0,0.048905,-0.01944,0,-0.0039458,0,0,0,0.0060736,0.00022239,0.0018888,-1.6521,0.0027283,0.0052214,4.8793e-09,0.92,0.82,0
0.047075,-0.0069427,0.0060649,0.00024167,0.001892,-0.00012815,0,0,0.048823,-0.019309,0,-0.0029987,0,0,0,0.0060677,0.00023885,0.001892,-1.2601,0.0027329,0.0052032,4.8492e-09,0.94,0.82,0
0.048051,-0.0069974,0.0060624,0.00025167,0.0018942,-8.6197e-05,0,0,0.048768,-0.019218,0,-0.002017,0,0,0,0.0060637,0.00025039,0.0018942,-0.84968,0.0027361,0.0051904,4.8282e-09,0.96,0.82,0
0.049025,-0.0070306,0.006061,0.00025755,0.0018956,-4.332e-05,0,0,0.048736,-0.019165,0,-0.0010137,0,0,0,0.0060614,0.00025723,0.0018956,-0.42765,0.0027381,0.0051829,4.816e-09,0.98,0.82,0
0.05,-0.0070417,0.0060606,0.00025949,0.001896,-2.3734e-05,0,0,0.048725,-0.019147,0,-0.00055537,0,0,0,0.0060607,0.00025939,0.001896,-0.23441,0.0027387,0.0051806,4.8122e-09,1,0.82,0
0,0,0.0061761,0.0026469,0.0026469,-0.0014101,0,0,0.041292,-7.5894e-19,0,-0.032997,0,0,0,0.0066703,0.0021527,0.0026469,-19.315,0.0038233,0.004292,3.8796e-09,0,0.84,0
0.00082583,-0.00065995,0.0061568,0.0023925,0.0025648,-0.0013981,0,0,0.042027,-0.0020162,0,-0.032717,0,0,0,0.0066193,0.00193,0.0025648,-18.303,0.0037047,0.0044063,4.0882e-09,0.02,0.84,0
0.0016811,-0.001315,0.0062362,0.0021511,0.0025162,-0.0013619,0,0,0.043524,-0.0042719,0,-0.031869,0,0,0,0.0066486,0.0017387,0.0025162,-16.847,0.0036345,0.0045711,4.4308e-09,0.04,0.84,0
0.0025668,-0.0019544,0.0063097,0.0018982,0.0024624,-0.0012944,0,0,0.045013,-0.0066004,0,-0.030288,0,0,0,0.0066614,0.0015465,0.0024624,-15.203,0.0035568,0.004724,4.7358e-09,0.06,0.84,0
0.0034816,-0.0025664,0.0063707,0.0016518,0.0024068,-0.0011977,0,0,0.046379,-0.0088334,0,-0.028025,0,0,0,0.0066573,0.0013652,0.0024068,-13.456,0.0034764,0.0048558,4.9807e-09,0.08,0.84,0
0.004422,-0.0031407,0.0064149,0.0014249,0.0023519,-0.0010787,0,0,0.047537,-0.010846,0,-0.025241,0,0,0,0.0066381,0.0012017,0.0023519,-11.69,0.0033973,0.0049623,5.1571e-09,0.1,0.84,0
0.0053831,-0.0036688,0.0064407,0.0012248,0.0022996,-0.00094599,0,0,0.04845,-0.012576,0,-0.022136,0,0,0,0.0066069,0.0010585,0.0022996,-9.9687,0.0033217,0.0050437,5.2689e-09,0.12,0.84,0
0.00636,-0.0041452,0.0064491,0.0010531,0.0022507,-0.00080771,0,0,0.049122,-0.014011,0,-0.0189,0,0,0,0.0065674,0.00093482,0.0022507,-8.3332,0.003251,0.0051035,5.3276e-09,0.14,0.84,0
0.0073479,-0.0045669,0.0064432,0.00090829,0.0022055,-0.00067013,0,0,0.049582,-0.015177,0,-0.015681,0,0,0,0.0065232,0.00082831,0.0022055,-6.806,0.0031857,0.0051464,5.3472e-09,0.16,0.84,0
0.0083432,-0.004933,0.0064268,0.00078684,0.0021641,-0.0005375,0,0,0.049874,-0.016114,0,-0.012578,0,0,0,0.0064776,0.00073607,0.0021641,-5.3957,0.0031259,0.0051773,5.3417e-09,0.18,0.84,0
0.0093429,-0.0052439,0.0064035,0.0006848,0.0021265,-0.00041231,0,0,0.050041,-0.016868,0,-0.0096481,0,0,0,0.006433,0.00065522,0.0021265,-4.1027,0.0030716,0.0052007,5.3226e-09,0.2,0.84,0
0.010345,-0.0055013,0.0063765,0.00059826,0.0020924,-0.00029586,0,0,0.050124,-0.017482,0,-0.0069232,0,0,0,0.0063916,0.00058314,0.0020924,-2.9235,0.0030224,0.0052201,5.2992e-09,0.22,0.84,0
0.011348,-0.0057077,0.0063485,0.00052364,0.0020616,-0.00018867,0,0,0.050157,-0.017995,0,-0.004415,0,0,0,0.0063546,0.00051753,0.0020616,-1.8533,0.0029779,0.0052386,5.2783e-09,0.24,0.84,0
0.012351,-0.005866,0.0063216,0.00045782,0.0020338,-9.0887e-05,0,0,0.050167,-0.018439,0,-0.0021268,0,0,0,0.006323,0.00045641,0.0020338,-0.88779,0.0029378,0.0052584,5.2647e-09,0.26,0.84,0
0.013355,-0.0059796,0.0062973,0.00039814,0.0020086,-2.4979e-06,0,0,0.050177,-0.018843,0,-5.845e-05,0,0,0,0.0062973,0.00039814,0.0020086,-0.024261,0.0029014,0.0052814,5.2617e-09,0.28,0.84,0
0.014358,-0.006052,0.0062766,0.00034238,0.0019857,7.6485e-05,0,0,0.050203,-0.019227,0,0.0017897,0,0,0,0.0062775,0.00034139,0.0019857,0.73831,0.0028682,0.0053086,5.2715e-09,0.3,0.84,0
0.015363,-0.0060873,0.0062603,0.00028871,0.0019647,0.00014595,0,0,0.050258,-0.019609,0,0.0034153,0,0,0,0.0062638,0.00028515,0.0019647,1.3993,0.0028379,0.0053408,5.2949e-09,0.32,0.84,0
0.016369,-0.0060898,0.0062488,0.00023577,0.0019454,0.00020567,0,0,0.05035,-0.020002,0,0.0048126,0,0,0,0.0062558,0.00022875,0.0019454,1.9567,0.00281,0.0053783,5.3321e-09,0.34,0.84,0
0.017377,-0.0060639,0.0062422,0.0001826,0.0019275,0.00025526,0,0,0.050483,-0.020415,0,0.0059731,0,0,0,0.006253,0.00017187,0.0019275,2.4079,0.0027841,0.0054209,5.3822e-09,0.36,0.84,0
0.018388,-0.0060145,0.0062406,0.00012866,0.0019108,0.00029428,0,0,0.050659,-0.020851,0,0.0068861,0,0,0,0.0062547,0.00011453,0.0019108,2.7502,0.00276,0.005468,5.4438e-09,0.38,0.84,0
0.019403,-0.0059464,0.0062435,7.3881e-05,0.0018952,0.00032224,0,0,0.050875,-0.021309,0,0.0075404,0,0,0,0.0062603,5.7096e-05,0.0018952,2.9817,0.0027375,0.0055187,5.5147e-09,0.4,0.84,0
0.020423,-0.0058651,0.0062503,1.8599e-05,0.0018807,0.00033871,0,0,0.051125,-0.021786,0,0.0079258,0,0,0,0.0062687,2.4299e-07,0.0018807,3.102,0.0027165,0.0055715,5.5919e-09,0.42,0.84,0
0.021448,-0.0057755,0.0062603,-3.6422e-05,0.0018672,0.0003434,0,0,0.0514,-0.022272,0,0.0080356,0,0,0,0.006279,-5.5094e-05,0.0018672,3.1124,0.002697,0.0056249,5.6722e-09,0.44,0.84,0
0.022479,-0.0056833,0.0062725,-9.0059e-05,0.0018547,0.00033625,0,0,0.051688,-0.022754,0,0.0078684,0,0,0,0.0062902,-0.00010778,0.0018547,3.0168,0.0026791,0.0056771,5.752e-09,0.46,0.84,0
0.023516,-0.0055934,0.0062858,-0.00014091,0.0018435,0.00031752,0,0,0.051975,-0.023217,0,0.0074301,0,0,0,0.0063014,-0.00015656,0.0018435,2.8216,0.0026628,0.0057262,5.8278e-09,0.48,0.84,0
0.024558,-0.0055109,0.006299,-0.00018741,0.0018335,0.00028784,0,0,0.052246,-0.023644,0,0.0067354,0,0,0,0.0063117,-0.00020016,0.0018335,2.5359,0.0026483,0.0057704,5.8959e-09,0.5,0.84,0
0.025605,-0.0054404,0.0063109,-0.00022796,0.0018249,0.00024822,0,0,0.052486,-0.024018,0,0.0058084,0,0,0,0.0063203,-0.00023737,0.0018249,2.1709,0.0026359,0.005808,5.9532e-09,0.52,0.84,0
0.026657,-0.0053858,0.0063204,-0.00026103,0.0018178,0.00020012,0,0,0.05268,-0.024323,0,0.0046828,0,0,0,0.0063265,-0.00026711,0.0018178,1.74,0.0026257,0.0058374,5.9971e-09,0.54,0.84,0
0.027713,-0.0053505,0.0063266,-0.00028536,0.0018124,0.00014531,0,0,0.052817,-0.024544,0,0.0034003,0,0,0,0.0063298,-0.00028855,0.0018124,1.2584,0.0026179,0.0058577,6.0255e-09,0.56,0.84,0
0.02877,-0.005337,0.0063288,-0.00030002,0.0018086,8.5883e-05,0,0,0.052886,-0.024671,0,0.0020097,0,0,0,0.0063299,-0.00030114,0.0018086,0.74216,0.0026125,0.0058679,6.0368e-09,0.58,0.84,0
0.029828,-0.005347,0.0063265,-0.00030452,0.0018066,2.4094e-05,0,0,0.052883,-0.0247,0,0.0005638,0,0,0,0.0063266,-0.0003046,0.0018066,0.20818,0.0026095,0.0058677,6.0304e-09,0.6,0.84,0
0.030885,-0.0053812,0.0063195,-0.00029882,0.0018062,-3.7723e-05,0,0,0.052805,-0.024629,0,-0.00088272,0,0,0,0.0063197,-0.00029904,0.0018062,-0.32656,0.002609,0.0058571,6.0062e-09,0.62,0.84,0
0.03194,-0.0054393,0.0063079,-0.00028342,0.0018074,-9.7291e-05,0,0,0.052657,-0.024462,0,-0.0022766,0,0,0,0.0063094,-0.00028485,0.0018074,-0.84546,0.0026106,0.0058365,5.9647e-09,0.64,0.84,0
0.032992,-0.0055202,0.0062922,-0.00025923,0.0018099,-0.00015251,0,0,0.052443,-0.024209,0,-0.0035687,0,0,0,0.0062957,-0.00026277,0.0018099,-1.3328,0.0026143,0.0058066,5.9074e-09,0.66,0.84,0
0.034038,-0.0056221,0.0062729,-0.00022757,0.0018136,-0.00020156,0,0,0.052174,-0.023882,0,-0.0047165,0,0,0,0.0062792,-0.00023382,0.0018136,-1.7743,0.0026196,0.0057685,5.836e-09,0.68,0.84,0
0.035078,-0.0057422,0.0062509,-0.00019006,0.0018183,-0.000243,0,0,0.051862,-0.023497,0,-0.0056863,0,0,0,0.0062601,-0.00019921,0.0018183,-2.1576,0.0026264,0.0057237,5.753e-09,0.7,0.84,0
0.036112,-0.0058773,0.0062271,-0.00014846,0.0018236,-0.00027582,0,0,0.051521,-0.023073,0,-0.0064541,0,0,0,0.0062391,-0.00016037,0.0018236,-2.4725,0.0026341,0.0056738,5.6612e-09,0.72,0.84,0
0.037139,-0.006024,0.0062098,-0.00010453,0.0018316,-0.0002977,0,0,0.051226,-0.022653,0,-0.0069662,0,0,0,0.0062238,-0.00011854,0.0018316,-2.6933,0.0026456,0.0056267,5.5826e-09,0.74,0.84,0
0.038159,-0.0061783,0.0061682,-6.5939e-05,0.0018307,-0.00031597,0,0,0.050749,-0.02219,0,-0.0073937,0,0,0,0.0061842,-8.1912e-05,0.0018307,-2.8941,0.0026443,0.0055621,5.4442e-09,0.76,0.84,0
0.039172,-0.0063365,0.0061624,-1.3419e-05,0.0018447,-0.00031965,0,0,0.050517,-0.02174,0,-0.0074798,0,0,0,0.0061789,-2.9919e-05,0.0018447,-2.955,0.0026646,0.0055159,5.383e-09,0.78,0.84,0
0.040177,-0.0064946,0.0061245,2.224e-05,0.001844,-0.00031473,0,0,0.050081,-0.021315,0,-0.0073646,0,0,0,0.0061407,6.0503e-06,0.001844,-2.9447,0.0026636,0.0054531,5.2509e-09,0.8,0.84,0
0.041177,-0.006649,0.0061196,6.782e-05,0.0018562,-0.00030714,0,0,0.049882,-0.020924,0,-0.0071871,0,0,0,0.0061352,5.2272e-05,0.0018562,-2.8979,0.0026812,0.0054113,5.1941e-09,0.82,0.84,0
0.042171,-0.0067963,0.0060888,9.7162e-05,0.0018558,-0.00028263,0,0,0.049526,-0.020576,0,-0.0066135,0,0,0,0.0061021,8.386e-05,0.0018558,-2.6947,0.0026806,0.0053568,5.081e-09,0.84,0.84,0
0.04316,-0.0069334,0.0060851,0.00013263,0.0018653,-0.00026655,0,0,0.049372,-0.020273,0,-0.0062374,0,0,0,0.006097,0.00012072,0.0018653,-2.5589,0.0026944,0.0053229,5.0339e-09,0.86,0.84,0
0.044144,-0.0070577,0.0060626,0.00015433,0.0018651,-0.00022727,0,0,0.049111,-0.020016,0,-0.005318,0,0,0,0.0060713,0.0001456,0.0018651,-2.1996,0.002694,0.0052803,4.9467e-09,0.88,0.84,0
0.045125,-0.0071666,0.0060601,0.00017904,0.0018718,-0.00020555,0,0,0.049004,-0.019805,0,-0.0048099,0,0,0,0.0060673,0.00017187,0.0018718,-1.9993,0.0027037,0.0052559,4.9121e-09,0.9,0.84,0
0.046104,-0.0072584,0.0060456,0.00019323,0.0018717,-0.0001563,0,0,0.048835,-0.019637,0,-0.0036575,0,0,0,0.0060498,0.00018906,0.0018717,-1.5288,0.0027035,0.0052266,4.8529e-09,0.92,0.84,0
0.04708,-0.0073313,0.0060442,0.00020803,0.0018757,-0.00013131,0,0,0.048772,-0.019511,0,-0.0030726,0,0,0,0.0060471,0.00020508,0.0018757,-1.2882,0.0027093,0.0052116,4.8313e-09,0.94,0.84,0
0.048054,-0.0073843,0.0060366,0.0002155,0.0018756,-7.6261e-05,0,0,0.048683,-0.019423,0,-0.0017845,0,0,0,0.0060376,0.0002145,0.0018756,-0.75045,0.0027092,0.0051956,4.7993e-09,0.96,0.84,0
0.049027,-0.0074164,0.006036,0.00022157,0.0018773,-4.9711e-05,0,0,0.048657,-0.019372,0,-0.0011632,0,0,0,0.0060364,0.00022114,0.0018773,-0.4898,0.0027116,0.0051894,4.7902e-09,0.98,0.84,0
0.05,-0.0074272,0.0060398,0.00023525,0.0018825,-2.2994e-05,0,0,0.04864,-0.019273,0,-0.00053807,0,0,0,0.0060399,0.00023516,0.0018825,-0.22697,0.0027192,0.0051813,4.7852e-09,1,0.84,0
0,0,0.0062118,0.0026622,0.0026622,-0.0015013,0,0,0.041531,6.5052e-19,0,-0.03513,0,0,0,0.0067616,0.0021124,0.0026622,-20.114,0.0038454,0.0044002,4.1461e-09,0,0.86,0
0.00083061,-0.0007026,0.0061517,0.0023635,0.0025546,-0.0014882,0,0,0.042086,-0.0022348,0,-0.034824,0,0,0,0.0066664,0.0018488,0.0025546,-19.079,0.0036899,0.0045063,4.3138e-09,0.02,0.86,0
0.0016945,-0.0014057,0.0063267,0.0021291,0.0025367,-0.0014458,0,0,0.044342,-0.004769,0,-0.033831,0,0,0,0.0067765,0.0016794,0.0025367,-17.281,0.0036642,0.0047271,4.829e-09,0.04,0.86,0
0.0025928,-0.0020945,0.0063251,0.0018119,0.0024411,-0.0013827,0,0,0.045443,-0.0073619,0,-0.032354,0,0,0,0.006715,0.001422,0.0024411,-15.748,0.003526,0.0048642,5.0475e-09,0.06,0.86,0
0.0035228,-0.0027534,0.0064589,0.0015732,0.0024096,-0.0012415,0,0,0.047376,-0.0097859,0,-0.029051,0,0,0,0.0067562,0.0012759,0.0024096,-13.47,0.0034806,0.0050106,5.3626e-09,0.08,0.86,0
0.0044791,-0.0033692,0.0064384,0.0013071,0.0023237,-0.0011354,0,0,0.048143,-0.011894,0,-0.026569,0,0,0,0.0066784,0.0010671,0.0023237,-11.936,0.0033564,0.0051005,5.4458e-09,0.1,0.86,0
0.0054551,-0.0039322,0.0064922,0.0011179,0.002283,-0.0009433,0,0,0.049247,-0.013632,0,-0.022073,0,0,0,0.0066529,0.00095711,0.002283,-9.6716,0.0032977,0.0051622,5.525e-09,0.12,0.86,0
0.0064446,-0.004437,0.0064538,0.00090653,0.0022081,-0.00079765,0,0,0.049675,-0.015228,0,-0.018665,0,0,0,0.0065662,0.00079411,0.0022081,-8.0222,0.0031895,0.005211,5.5038e-09,0.14,0.86,0
0.0074421,-0.0048813,0.0064325,0.0007683,0.0021602,-0.00064843,0,0,0.049985,-0.016286,0,-0.015173,0,0,0,0.0065057,0.00069502,0.0021602,-6.4481,0.0031203,0.0052343,5.4658e-09,0.16,0.86,0
0.008444,-0.0052651,0.0064022,0.00065598,0.0021174,-0.00050879,0,0,0.050131,-0.017099,0,-0.011906,0,0,0,0.0064469,0.00061127,0.0021174,-5.0211,0.0030585,0.0052472,5.4107e-09,0.18,0.86,0
0.0094474,-0.00559,0.0063676,0.00056409,0.0020795,-0.00038041,0,0,0.050171,-0.01773,0,-0.0089016,0,0,0,0.0063925,0.00053926,0.0020795,-3.7343,0.0030037,0.0052552,5.3518e-09,0.2,0.86,0
0.010451,-0.0058588,0.0063324,0.0004879,0.0020461,-0.00026367,0,0,0.05015,-0.018231,0,-0.00617,0,0,0,0.0063443,0.00047603,0.0020461,-2.5779,0.0029555,0.005262,5.298e-09,0.22,0.86,0
0.011453,-0.0060745,0.0062991,0.00042346,0.0020168,-0.00015833,0,0,0.050104,-0.018642,0,-0.0037049,0,0,0,0.0063034,0.00041919,0.0020168,-1.5425,0.0029131,0.0052703,5.2548e-09,0.24,0.86,0
0.012455,-0.0062408,0.0062695,0.00036752,0.0019911,-6.3892e-05,0,0,0.050057,-0.018996,0,-0.0014951,0,0,0,0.0062702,0.00036682,0.0019911,-0.62015,0.0028761,0.005282,5.2257e-09,0.26,0.86,0
0.013456,-0.0063616,0.0062447,0.00031746,0.0019687,2.0132e-05,0,0,0.05003,-0.019319,0,0.0004711,0,0,0,0.0062448,0.00031739,0.0019687,0.19461,0.0028436,0.0052984,5.2125e-09,0.28,0.86,0
0.014456,-0.006441,0.0062253,0.00027119,0.001949,9.4109e-05,0,0,0.050034,-0.01963,0,0.0022021,0,0,0,0.0062268,0.0002697,0.001949,0.90529,0.0028152,0.0053201,5.2157e-09,0.3,0.86,0
0.015457,-0.0064833,0.0062117,0.00022707,0.0019316,0.00015823,0,0,0.050077,-0.019943,0,0.0037026,0,0,0,0.0062159,0.00022289,0.0019316,1.5135,0.0027901,0.0053475,5.2351e-09,0.32,0.86,0
0.016459,-0.0064929,0.0062039,0.00018388,0.0019163,0.00021252,0,0,0.050164,-0.02027,0,0.0049729,0,0,0,0.0062114,0.00017639,0.0019163,2.0193,0.002768,0.0053803,5.2699e-09,0.34,0.86,0
0.017464,-0.0064746,0.0062016,0.00014079,0.0019027,0.00025684,0,0,0.050297,-0.020615,0,0.00601,0,0,0,0.0062124,0.00012993,0.0019027,2.4222,0.0027484,0.0054182,5.3184e-09,0.36,0.86,0
0.018471,-0.0064331,0.0062045,9.7342e-05,0.0018905,0.00029095,0,0,0.050473,-0.02098,0,0.0068082,0,0,0,0.0062183,8.3512e-05,0.0018905,2.7214,0.0027308,0.0054603,5.3787e-09,0.38,0.86,0
0.019482,-0.0063735,0.0062119,5.3451e-05,0.0018796,0.00031459,0,0,0.050688,-0.021366,0,0.0073614,0,0,0,0.0062279,3.7423e-05,0.0018796,2.9167,0.002715,0.0055056,5.4482e-09,0.4,0.86,0
0.020499,-0.0063008,0.0062231,9.3801e-06,0.0018697,0.00032752,0,0,0.050934,-0.021766,0,0.0076641,0,0,0,0.0062403,-7.836e-06,0.0018697,3.009,0.0027007,0.0055527,5.5239e-09,0.42,0.86,0
0.02152,-0.0062202,0.0062289,-4.0158e-05,0.0018566,0.00032838,0,0,0.051156,-0.022193,0,0.007684,0,0,0,0.0062461,-5.7312e-05,0.0018566,2.9903,0.0026818,0.0055975,5.5858e-09,0.44,0.86,0
0.022547,-0.0061367,0.0062468,-9.0879e-05,0.0018468,0.00032114,0,0,0.05148,-0.022671,0,0.0075147,0,0,0,0.006263,-0.00010711,0.0018468,2.8934,0.0026676,0.0056524,5.6776e-09,0.46,0.86,0
0.023579,-0.0060552,0.006261,-0.00013619,0.0018375,0.00030266,0,0,0.051756,-0.023092,0,0.0070823,0,0,0,0.0062753,-0.00015048,0.0018375,2.7027,0.0026541,0.0056981,5.7506e-09,0.48,0.86,0
0.024617,-0.0059805,0.0062749,-0.00017758,0.0018292,0.00027413,0,0,0.052015,-0.023479,0,0.0064147,0,0,0,0.0062865,-0.0001892,0.0018292,2.4284,0.0026422,0.0057392,5.8164e-09,0.5,0.86,0
0.02566,-0.0059167,0.0062874,-0.0002136,0.0018221,0.00023656,0,0,0.052244,-0.023818,0,0.0055354,0,0,0,0.006296,-0.0002222,0.0018221,2.0812,0.002632,0.0057742,5.8722e-09,0.52,0.86,0
0.026707,-0.0058677,0.0063108,-0.00021975,0.0018273,0.00018453,0,0,0.052457,-0.023951,0,0.0043179,0,0,0,0.006316,-0.00022496,0.0018273,1.6172,0.0026395,0.0057942,5.9303e-09,0.54,0.86,0
0.027757,-0.0058364,0.006312,-0.00024236,0.0018209,0.00014701,0,0,0.052546,-0.02414,0,0.0034399,0,0,0,0.0063153,-0.00024566,0.0018209,1.2842,0.0026302,0.0058102,5.9466e-09,0.56,0.86,0
0.028809,-0.0058252,0.006308,-0.00027703,0.0018093,8.4417e-05,0,0,0.052635,-0.02441,0,0.0019754,0,0,0,0.0063091,-0.00027812,0.0018093,0.73434,0.0026134,0.0058308,5.9581e-09,0.58,0.86,0
0.029862,-0.0058357,0.0063168,-0.00025678,0.001818,1.9597e-05,0,0,0.052636,-0.024275,0,0.00045856,0,0,0,0.0063169,-0.00025684,0.001818,0.1708,0.002626,0.0058206,5.9611e-09,0.6,0.86,0
0.030915,-0.0058686,0.0063171,-0.00023985,0.0018232,-2.8968e-05,0,0,0.052579,-0.024137,0,-0.00067784,0,0,0,0.0063173,-0.00023997,0.0018232,-0.25312,0.0026335,0.0058074,5.9471e-09,0.62,0.86,0
0.031965,-0.0059237,0.0063068,-0.00022764,0.0018238,-8.3907e-05,0,0,0.052452,-0.024001,0,-0.0019634,0,0,0,0.0063079,-0.00022872,0.0018238,-0.73556,0.0026343,0.00579,5.911e-09,0.64,0.86,0
0.033013,-0.0060001,0.0062921,-0.00020853,0.0018251,-0.00013501,0,0,0.052265,-0.023793,0,-0.0031593,0,0,0,0.0062949,-0.00021134,0.0018251,-1.1893,0.0026362,0.0057645,5.8595e-09,0.66,0.86,0
0.034056,-0.006096,0.0062736,-0.00018353,0.001827,-0.00018067,0,0,0.052025,-0.023523,0,-0.0042277,0,0,0,0.0062787,-0.00018858,0.001827,-1.6015,0.002639,0.0057317,5.7943e-09,0.68,0.86,0
0.035094,-0.0062091,0.006252,-0.00015385,0.0018294,-0.00021959,0,0,0.051744,-0.023205,0,-0.0051383,0,0,0,0.0062595,-0.00016137,0.0018294,-1.961,0.0026425,0.0056928,5.7175e-09,0.7,0.86,0
0.036126,-0.0063365,0.0062281,-0.00012087,0.0018322,-0.00025081,0,0,0.051432,-0.022851,0,-0.005869,0,0,0,0.006238,-0.00013077,0.0018322,-2.2587,0.0026465,0.0056491,5.6316e-09,0.72,0.86,0
0.037151,-0.006475,0.0062128,-7.8631e-05,0.0018402,-0.00026939,0,0,0.051159,-0.022451,0,-0.0063037,0,0,0,0.0062243,-9.0145e-05,0.0018402,-2.4474,0.0026581,0.0056044,5.5579e-09,0.74,0.86,0
0.03817,-0.0066211,0.0061695,-5.1972e-05,0.0018353,-0.00028796,0,0,0.050711,-0.022081,0,-0.0067383,0,0,0,0.0061828,-6.5272e-05,0.0018353,-2.6444,0.0026509,0.0055476,5.4255e-09,0.76,0.86,0
0.039182,-0.0067711,0.0061598,-1.1578e-05,0.0018445,-0.00029256,0,0,0.05049,-0.021716,0,-0.0068458,0,0,0,0.0061737,-2.5416e-05,0.0018445,-2.708,0.0026642,0.0055076,5.3651e-09,0.78,0.86,0
0.040187,-0.0069215,0.0061188,1.3441e-05,0.0018397,-0.00028977,0,0,0.050066,-0.021367,0,-0.0067807,0,0,0,0.0061325,-2.8148e-07,0.0018397,-2.7113,0.0026573,0.0054509,5.2359e-09,0.8,0.86,0
0.041187,-0.0070688,0.0061101,4.9316e-05,0.0018478,-0.00028401,0,0,0.049868,-0.021042,0,-0.0066458,0,0,0,0.0061233,3.6037e-05,0.0018478,-2.6771,0.0026691,0.0054138,5.179e-09,0.82,0.86,0
0.04218,-0.0072097,0.0060751,7.0276e-05,0.0018436,-0.00026263,0,0,0.049509,-0.020748,0,-0.0061455,0,0,0,0.0060866,5.8811e-05,0.0018436,-2.4995,0.002663,0.005363,5.0653e-09,0.84,0.86,0
0.043169,-0.0073412,0.006068,9.8932e-05,0.0018501,-0.00024874,0,0,0.049349,-0.020488,0,-0.0058206,0,0,0,0.0060783,8.8584e-05,0.0018501,-2.3821,0.0026723,0.0053319,5.0172e-09,0.86,0.86,0
0.044153,-0.0074606,0.0060411,0.00011472,0.0018468,-0.00021284,0,0,0.049074,-0.020265,0,-0.0049805,0,0,0,0.0060488,0.00010709,0.0018468,-2.0542,0.0026675,0.0052909,4.9269e-09,0.88,0.86,0
0.045133,-0.0075656,0.0060358,0.00013523,0.0018513,-0.00019329,0,0,0.048959,-0.020078,0,-0.004523,0,0,0,0.0060422,0.00012891,0.0018513,-1.8742,0.0026741,0.0052677,4.8906e-09,0.9,0.86,0
0.04611,-0.0076542,0.0060176,0.00014574,0.001849,-0.00014723,0,0,0.048773,-0.019928,0,-0.0034451,0,0,0,0.0060213,0.00014206,0.001849,-1.4354,0.0026708,0.0052387,4.8276e-09,0.92,0.86,0
0.047085,-0.0077247,0.0060143,0.00015833,0.0018518,-0.0001242,0,0,0.048701,-0.019813,0,-0.0029062,0,0,0,0.0060169,0.00015569,0.0018518,-1.2144,0.0026748,0.0052239,4.8044e-09,0.94,0.86,0
0.048057,-0.007776,0.0060044,0.00016393,0.0018505,-7.2023e-05,0,0,0.0486,-0.019733,0,-0.0016853,0,0,0,0.0060053,0.00016305,0.0018505,-0.70642,0.0026729,0.0052077,4.7694e-09,0.96,0.86,0
0.049029,-0.0078071,0.006003,0.00016917,0.0018516,-4.7257e-05,0,0,0.048571,-0.019685,0,-0.0011058,0,0,0,0.0060034,0.00016879,0.0018516,-0.46409,0.0026746,0.0052015,4.7595e-09,0.98,0.86,0
0.05,-0.0078175,0.0059962,0.000159,0.0018465,-2.2288e-05,0,0,0.048551,-0.019744,0,-0.00052154,0,0,0,0.0059963,0.00015891,0.0018465,-0.21876,0.0026672,0.005203,4.7516e-09,1,0.86,0
0,0,0.0062816,0.0026921,0.0026921,-0.0016055,0,0,0.041997,1.0842e-18,0,-0.03757,0,0,0,0.0068949,0.0020788,0.0026921,-20.908,0.0038886,0.0045407,4.5138e-09,0,0.88,0
0.00083993,-0.00075139,0.0062029,0.0023255,0.0025585,-0.0015813,0,0,0.042639,-0.0027264,0,-0.037003,0,0,0,0.006766,0.0017623,0.0025585,-19.602,0.0036956,0.0046569,4.68e-09,0.02,0.88,0
0.0017184,-0.0015104,0.0063871,0.0020174,0.0025213,-0.0015292,0,0,0.045229,-0.0058962,0,-0.035783,0,0,0,0.006869,0.0015354,0.0025213,-17.494,0.0036419,0.0049154,5.2819e-09,0.04,0.88,0
0.0026361,-0.002256,0.0063684,0.0016258,0.0023983,-0.0014393,0,0,0.04645,-0.0090377,0,-0.03368,0,0,0,0.006771,0.0012232,0.0023983,-15.628,0.0034641,0.0050636,5.4767e-09,0.06,0.88,0
0.0035878,-0.0029666,0.0064909,0.0013439,0.0023504,-0.0012575,0,0,0.048443,-0.011777,0,-0.029426,0,0,0,0.0067817,0.0010531,0.0023504,-13.021,0.0033951,0.0052027,5.7448e-09,0.08,0.88,0
0.0045652,-0.0036258,0.006457,0.0010638,0.0022562,-0.0011237,0,0,0.049149,-0.013952,0,-0.026296,0,0,0,0.0066818,0.00083901,0.0022562,-11.312,0.003259,0.0052788,5.759e-09,0.1,0.88,0
0.0055593,-0.0042232,0.0064808,0.00087532,0.0022068,-0.00089959,0,0,0.050005,-0.015579,0,-0.02105,0,0,0,0.0066216,0.00073448,0.0022068,-8.8975,0.0031876,0.0053064,5.7288e-09,0.12,0.88,0
0.0065624,-0.0047544,0.0064553,0.00074774,0.0021609,-0.00076708,0,0,0.050244,-0.016534,0,-0.01795,0,0,0,0.0065566,0.00064645,0.0021609,-7.5226,0.0031213,0.0053172,5.6615e-09,0.14,0.88,0
0.0075691,-0.0052184,0.0064122,0.00062184,0.0021102,-0.00060891,0,0,0.050333,-0.017414,0,-0.014248,0,0,0,0.0064756,0.0005585,0.0021102,-5.9386,0.0030481,0.0053139,5.5489e-09,0.16,0.88,0
0.0085758,-0.0056169,0.006364,0.00052295,0.0020661,-0.00046595,0,0,0.050286,-0.018055,0,-0.010903,0,0,0,0.006401,0.00048601,0.0020661,-4.5323,0.0029844,0.0053045,5.4347e-09,0.18,0.88,0
0.0095805,-0.0059531,0.006316,0.0004443,0.0020281,-0.00033824,0,0,0.050169,-0.01853,0,-0.0079149,0,0,0,0.0063355,0.00042488,0.0020281,-3.286,0.0029295,0.0052943,5.3315e-09,0.2,0.88,0
0.010582,-0.0062306,0.0062717,0.00038058,0.0019957,-0.00022485,0,0,0.050029,-0.018897,0,-0.0052615,0,0,0,0.0062803,0.00037201,0.0019957,-2.1826,0.0028827,0.0052869,5.246e-09,0.22,0.88,0
0.011582,-0.0064534,0.0062331,0.0003277,0.0019682,-0.00012453,0,0,0.049899,-0.019194,0,-0.002914,0,0,0,0.0062357,0.00032507,0.0019682,-1.2075,0.002843,0.0052843,5.1814e-09,0.24,0.88,0
0.012578,-0.0066259,0.0062013,0.0002825,0.0019452,-3.6092e-05,0,0,0.049798,-0.019453,0,-0.00084455,0,0,0,0.0062016,0.00028228,0.0019452,-0.34936,0.0028097,0.0052877,5.1386e-09,0.26,0.88,0
0.013574,-0.0067523,0.006177,0.00024256,0.0019259,4.1446e-05,0,0,0.049738,-0.019695,0,0.00096983,0,0,0,0.0061773,0.00024226,0.0019259,0.40012,0.0027818,0.0052978,5.1175e-09,0.28,0.88,0
0.014568,-0.0068372,0.0061601,0.00020599,0.0019098,0.0001088,0,0,0.049728,-0.019935,0,0.0025458,0,0,0,0.006162,0.000204,0.0019098,1.0465,0.0027586,0.0053146,5.117e-09,0.3,0.88,0
0.015563,-0.0068851,0.0061504,0.00017138,0.0018965,0.00016641,0,0,0.04977,-0.020184,0,0.003894,0,0,0,0.006155,0.00016675,0.0018965,1.593,0.0027394,0.0053379,5.1355e-09,0.32,0.88,0
0.016559,-0.0069006,0.0061474,0.0001377,0.0018855,0.00021451,0,0,0.049864,-0.02045,0,0.0050196,0,0,0,0.0061551,0.00013005,0.0018855,2.0417,0.0027236,0.0053671,5.1712e-09,0.34,0.88,0
0.017557,-0.0068885,0.0061507,0.00010426,0.0018765,0.00025315,0,0,0.050008,-0.020735,0,0.0059238,0,0,0,0.0061613,9.3684e-05,0.0018765,2.3933,0.0027105,0.0054016,5.2217e-09,0.36,0.88,0
0.018559,-0.0068537,0.0061594,7.069e-05,0.001869,0.00028225,0,0,0.050197,-0.021041,0,0.0066047,0,0,0,0.0061725,5.7634e-05,0.001869,2.6485,0.0026997,0.0054402,5.2846e-09,0.38,0.88,0
0.019565,-0.0068011,0.0061727,3.6899e-05,0.0018629,0.0003017,0,0,0.050425,-0.021364,0,0.0070598,0,0,0,0.0061875,2.21e-05,0.0018629,2.8082,0.0026908,0.0054819,5.3569e-09,0.4,0.88,0
0.020576,-0.0067357,0.0061895,3.0838e-06,0.0018578,0.0003114,0,0,0.050681,-0.0217,0,0.0072866,0,0,0,0.0062052,-1.2551e-05,0.0018578,2.8743,0.0026835,0.0055253,5.4355e-09,0.42,0.88,0
0.021592,-0.0066625,0.0062034,-2.9692e-05,0.0018521,0.0003092,0,0,0.05091,-0.022017,0,0.0072353,0,0,0,0.0062187,-4.4993e-05,0.0018521,2.833,0.0026753,0.0055632,5.5014e-09,0.44,0.88,0
0.022614,-0.0065863,0.0062361,-4.7407e-05,0.0018566,0.00029784,0,0,0.05124,-0.022277,0,0.0069696,0,0,0,0.0062502,-6.1493e-05,0.0018566,2.7078,0.0026818,0.0056045,5.6006e-09,0.46,0.88,0
0.023642,-0.0065119,0.0062588,-7.3705e-05,0.0018555,0.00027878,0,0,0.051518,-0.022572,0,0.0065235,0,0,0,0.006271,-8.5955e-05,0.0018555,2.5159,0.0026802,0.0056425,5.6795e-09,0.48,0.88,0
0.024675,-0.0064436,0.0062803,-9.7563e-05,0.0018548,0.00025149,0,0,0.051778,-0.022843,0,0.0058849,0,0,0,0.0062902,-0.00010747,0.0018548,2.2546,0.0026792,0.0056768,5.7516e-09,0.5,0.88,0
0.025713,-0.0063854,0.0062995,-0.00011824,0.0018544,0.00021685,0,0,0.052008,-0.02308,0,0.0050744,0,0,0,0.0063068,-0.00012556,0.0018544,1.9331,0.0026786,0.0057062,5.814e-09,0.52,0.88,0
0.026755,-0.006341,0.0063111,-0.0001528,0.0018475,0.00017196,0,0,0.052225,-0.023404,0,0.0040239,0,0,0,0.0063157,-0.00015737,0.0018475,1.5228,0.0026686,0.0057396,5.8679e-09,0.54,0.88,0
0.027801,-0.006313,0.0063153,-0.00016939,0.0018438,0.0001382,0,0,0.052317,-0.023554,0,0.0032338,0,0,0,0.0063182,-0.00017233,0.0018438,1.2203,0.0026632,0.0057538,5.8886e-09,0.56,0.88,0
0.028849,-0.0063038,0.0063335,-0.000155,0.0018536,8.1288e-05,0,0,0.052416,-0.0235,0,0.0019022,0,0,0,0.0063346,-0.00015602,0.0018536,0.71765,0.0026774,0.0057552,5.9188e-09,0.58,0.88,0
0.029898,-0.0063148,0.0063252,-0.00017898,0.0018439,2.2906e-05,0,0,0.052432,-0.023667,0,0.00053601,0,0,0,0.0063253,-0.00017906,0.0018439,0.20178,0.0026634,0.0057655,5.9144e-09,0.6,0.88,0
0.030946,-0.0063467,0.006317,-0.00018591,0.0018393,-2.1615e-05,0,0,0.052389,-0.023695,0,-0.0005058,0,0,0,0.0063171,-0.00018598,0.0018393,-0.19045,0.0026568,0.0057638,5.8979e-09,0.62,0.88,0
0.031993,-0.0063994,0.0063079,-0.00017652,0.0018394,-7.1651e-05,0,0,0.052282,-0.023587,0,-0.0016766,0,0,0,0.0063088,-0.00017731,0.0018394,-0.63299,0.0026569,0.0057494,5.8669e-09,0.64,0.88,0
0.033037,-0.006472,0.0062941,-0.00016188,0.0018397,-0.00011831,0,0,0.052117,-0.023418,0,-0.0027684,0,0,0,0.0062963,-0.00016405,0.0018397,-1.0495,0.0026573,0.0057277,5.8204e-09,0.66,0.88,0
0.034078,-0.006563,0.006276,-0.00014273,0.00184,-0.00016017,0,0,0.051902,-0.023198,0,-0.0037481,0,0,0,0.00628,-0.00014673,0.00184,-1.4286,0.0026578,0.0056993,5.7601e-09,0.68,0.88,0
0.035113,-0.0066704,0.0062544,-0.00012,0.0018403,-0.00019609,0,0,0.051644,-0.022936,0,-0.0045885,0,0,0,0.0062604,-0.00012602,0.0018403,-1.7603,0.0026582,0.0056652,5.6877e-09,0.7,0.88,0
0.036144,-0.0067913,0.0062299,-9.468e-05,0.0018406,-0.00022519,0,0,0.051355,-0.022642,0,-0.0052695,0,0,0,0.0062379,-0.00010269,0.0018406,-2.0366,0.0026586,0.0056265,5.6058e-09,0.72,0.88,0
0.037168,-0.006923,0.0062035,-6.7837e-05,0.0018407,-0.00024693,0,0,0.051044,-0.02233,0,-0.0057781,0,0,0,0.0062132,-7.7544e-05,0.0018407,-2.2513,0.0026588,0.0055844,5.5168e-09,0.74,0.88,0
0.038185,-0.0070621,0.006176,-4.0475e-05,0.0018407,-0.00026105,0,0,0.050723,-0.022009,0,-0.0061086,0,0,0,0.0061869,-5.1418e-05,0.0018407,-2.4004,0.0026587,0.0055402,5.4237e-09,0.76,0.88,0
0.039197,-0.0072053,0.0061482,-1.3512e-05,0.0018404,-0.0002676,0,0,0.050401,-0.021691,0,-0.0062618,0,0,0,0.0061598,-2.5112e-05,0.0018404,-2.4821,0.0026584,0.005495,5.3289e-09,0.78,0.88,0
0.040202,-0.0073491,0.006121,1.2267e-05,0.00184,-0.00026685,0,0,0.050088,-0.021384,0,-0.0062443,0,0,0,0.0061326,6.3168e-07,0.00184,-2.4966,0.0026577,0.0054503,5.2353e-09,0.8,0.88,0
0.0412,-0.0074902,0.006095,3.624e-05,0.0018394,-0.00025929,0,0,0.04979,-0.021097,0,-0.0060673,0,0,0,0.006106,2.5164e-05,0.0018394,-2.4461,0.0026569,0.0054071,5.1451e-09,0.82,0.88,0
0.042193,-0.0076255,0.0060706,5.7955e-05,0.0018386,-0.00024553,0,0,0.049515,-0.020833,0,-0.0057453,0,0,0,0.0060806,4.7946e-05,0.0018386,-2.3345,0.0026557,0.0053663,5.0603e-09,0.84,0.88,0
0.043181,-0.007752,0.0060485,7.7117e-05,0.0018377,-0.00022627,0,0,0.049266,-0.020599,0,-0.0052948,0,0,0,0.006057,6.8556e-05,0.0018377,-2.167,0.0026544,0.0053289,4.9827e-09,0.86,0.88,0
0.044164,-0.0078671,0.0060289,9.3577e-05,0.0018367,-0.00020229,0,0,0.049048,-0.020395,0,-0.0047336,0,0,0,0.0060358,8.6691e-05,0.0018367,-1.9498,0.0026531,0.0052956,4.9137e-09,0.88,0.88,0
0.045143,-0.0079685,0.006012,0.0001073,0.0018358,-0.00017434,0,0,0.048862,-0.020223,0,-0.0040796,0,0,0,0.0060171,0.00010215,0.0018358,-1.6897,0.0026517,0.0052667,4.8541e-09,0.9,0.88,0
0.046118,-0.0080541,0.0059981,0.00011831,0.0018349,-0.00014317,0,0,0.048709,-0.020084,0,-0.0033502,0,0,0,0.0060015,0.00011483,0.0018349,-1.394,0.0026504,0.0052428,4.8047e-09,0.92,0.88,0
0.047091,-0.0081224,0.0059872,0.00012673,0.0018342,-0.0001095,0,0,0.04859,-0.019977,0,-0.0025622,0,0,0,0.0059892,0.00012468,0.0018342,-1.07,0.0026493,0.0052239,4.7659e-09,0.94,0.88,0
0.048062,-0.0081721,0.0059793,0.00013263,0.0018336,-7.3993e-05,0,0,0.048505,-0.019901,0,-0.0017314,0,0,0,0.0059803,0.0001317,0.0018336,-0.72495,0.0026485,0.0052104,4.7381e-09,0.96,0.88,0
0.049031,-0.0082023,0.0059746,0.00013613,0.0018332,-3.7291e-05,0,0,0.048454,-0.019856,0,-0.00087262,0,0,0,0.0059749,0.0001359,0.0018332,-0.36594,0.002648,0.0052023,4.7214e-09,0.98,0.88,0
0.05,-0.0082124,0.0059731,0.00013729,0.0018331,-2.1625e-05,0,0,0.048438,-0.019841,0,-0.00050602,0,0,0,0.0059731,0.00013721,0.0018331,-0.21231,0.0026478,0.0051997,4.716e-09,1,0.88,0
0,0,0.0064024,0.0027439,0.0027439,-0.0017282,0,0,0.042805,2.1684e-19,0,-0.040439,0,0,0,0.0070897,0.0020567,0.0027439,-21.686,0.0039634,0.004727,5.0404e-09,0,0.9,0
0.0008561,-0.00080879,0.006369,0.0023394,0.0026125,-0.0017002,0,0,0.043951,-0.0031958,0,-0.039785,0,0,0,0.0069905,0.0017179,0.0026125,-20.08,0.0037736,0.0048871,5.324e-09,0.02,0.9,0
0.001758,-0.001635,0.0064669,0.0019214,0.0025165,-0.0016374,0,0,0.04622,-0.0069626,0,-0.038316,0,0,0,0.0069953,0.001393,0.0025165,-17.886,0.0036349,0.0051337,5.8424e-09,0.04,0.9,0
0.0027049,-0.0024463,0.0065381,0.0015162,0.0024163,-0.0014956,0,0,0.048225,-0.010531,0,-0.034997,0,0,0,0.0069498,0.0011046,0.0024163,-15.39,0.0034902,0.0053123,6.1455e-09,0.06,0.9,0
0.003687,-0.0032133,0.0065681,0.001178,0.0023239,-0.0013031,0,0,0.049658,-0.013406,0,-0.030491,0,0,0,0.0068666,0.00087956,0.0023239,-12.902,0.0033567,0.0054114,6.2263e-09,0.08,0.9,0
0.0046912,-0.003916,0.0065548,0.00091801,0.0022419,-0.0010936,0,0,0.050462,-0.015489,0,-0.025591,0,0,0,0.0067596,0.00071326,0.0022419,-10.604,0.0032382,0.0054454,6.1425e-09,0.1,0.9,0
0.0057055,-0.0045451,0.0065085,0.00072474,0.00217,-0.00089165,0,0,0.050761,-0.016909,0,-0.020865,0,0,0,0.0066429,0.0005904,0.00217,-8.568,0.0031344,0.0054376,5.9686e-09,0.12,0.9,0
0.0067217,-0.0050984,0.0064434,0.00058131,0.0021074,-0.00070847,0,0,0.050731,-0.017855,0,-0.016578,0,0,0,0.0065278,0.0004969,0.0021074,-6.7942,0.003044,0.0054086,5.7627e-09,0.14,0.9,0
0.0077348,-0.0055779,0.0063721,0.00047409,0.0020538,-0.0005472,0,0,0.050523,-0.018483,0,-0.012804,0,0,0,0.0064224,0.00042375,0.0020538,-5.256,0.0029667,0.0053724,5.5618e-09,0.16,0.9,0
0.0087426,-0.0059873,0.0063028,0.00039275,0.0020087,-0.00040693,0,0,0.050241,-0.018906,0,-0.0095222,0,0,0,0.0063307,0.00036487,0.0020087,-3.9204,0.0029014,0.0053373,5.3843e-09,0.18,0.9,0
0.0097444,-0.0063313,0.0062404,0.00032985,0.0019711,-0.00028534,0,0,0.049951,-0.019202,0,-0.006677,0,0,0,0.0062542,0.00031611,0.0019711,-2.7575,0.0028471,0.0053077,5.2379e-09,0.2,0.9,0
0.010741,-0.0066146,0.0061874,0.00028003,0.0019402,-0.0001799,0,0,0.049692,-0.019424,0,-0.0042097,0,0,0,0.0061929,0.00027456,0.0019402,-1.7427,0.0028026,0.0052861,5.1245e-09,0.22,0.9,0
0.011732,-0.0068423,0.0061448,0.00023942,0.0019153,-8.8351e-05,0,0,0.049485,-0.019607,0,-0.0020674,0,0,0,0.0061461,0.0002381,0.0019153,-0.85696,0.0027665,0.0052734,5.0433e-09,0.24,0.9,0
0.01272,-0.0070189,0.0061126,0.00020521,0.0018954,-8.8734e-06,0,0,0.049342,-0.019775,0,-0.00020764,0,0,0,0.0061126,0.00020519,0.0018954,-0.086062,0.0027377,0.0052697,4.9921e-09,0.26,0.9,0
0.013706,-0.0071494,0.0060906,0.00017529,0.0018798,5.9904e-05,0,0,0.049267,-0.019942,0,0.0014018,0,0,0,0.0060912,0.00017468,0.0018798,0.58015,0.0027152,0.0052749,4.9683e-09,0.28,0.9,0
0.014691,-0.0072384,0.0060781,0.00014812,0.0018679,0.00011895,0,0,0.04926,-0.020121,0,0.0027833,0,0,0,0.0060805,0.00014573,0.0018679,1.1487,0.002698,0.0052883,4.9691e-09,0.3,0.9,0
0.015676,-0.0072906,0.0060742,0.00012255,0.001859,0.00016888,0,0,0.049318,-0.020317,0,0.0039517,0,0,0,0.006079,0.00011776,0.001859,1.624,0.0026853,0.0053093,4.9918e-09,0.32,0.9,0
0.016663,-0.0073109,0.0060782,9.7769e-05,0.0018528,0.00021005,0,0,0.049437,-0.020534,0,0.0049152,0,0,0,0.0060856,9.0401e-05,0.0018528,2.0091,0.0026762,0.0053369,5.0335e-09,0.34,0.9,0
0.017654,-0.007304,0.0060889,7.3234e-05,0.0018486,0.00024262,0,0,0.049611,-0.020772,0,0.0056774,0,0,0,0.0060986,6.3465e-05,0.0018486,2.3058,0.0026702,0.00537,5.0912e-09,0.36,0.9,0
0.018648,-0.0072747,0.0061053,4.8655e-05,0.0018462,0.00026662,0,0,0.049831,-0.021031,0,0.0062389,0,0,0,0.006117,3.694e-05,0.0018462,2.5158,0.0026667,0.0054074,5.162e-09,0.38,0.9,0
0.019647,-0.0072281,0.0061262,2.3965e-05,0.001845,0.00028202,0,0,0.050089,-0.021307,0,0.0065992,0,0,0,0.0061392,1.0959e-05,0.001845,2.6405,0.002665,0.0054479,5.2425e-09,0.4,0.9,0
0.020651,-0.0071688,0.0061504,-6.9665e-07,0.0018449,0.0002888,0,0,0.050374,-0.021594,0,0.0067579,0,0,0,0.0061639,-1.4226e-05,0.0018449,2.6822,0.0026649,0.00549,5.3296e-09,0.42,0.9,0
0.021662,-0.0071018,0.0061768,-2.5011e-05,0.0018455,0.00028703,0,0,0.050676,-0.021885,0,0.0067165,0,0,0,0.00619,-3.8267e-05,0.0018455,2.6442,0.0026658,0.0055324,5.4197e-09,0.44,0.9,0
0.022679,-0.0070318,0.006204,-4.8507e-05,0.0018466,0.00027691,0,0,0.050981,-0.022173,0,0.0064797,0,0,0,0.0062162,-6.0747e-05,0.0018466,2.5309,0.0026674,0.0055737,5.5095e-09,0.46,0.9,0
0.023701,-0.0069633,0.0062308,-7.0608e-05,0.001848,0.00025881,0,0,0.051278,-0.022448,0,0.0060561,0,0,0,0.0062414,-8.122e-05,0.001848,2.3479,0.0026694,0.0056124,5.5954e-09,0.48,0.9,0
0.02473,-0.0069004,0.006256,-9.067e-05,0.0018496,0.00023331,0,0,0.051555,-0.022701,0,0.0054596,0,0,0,0.0062645,-9.9235e-05,0.0018496,2.1025,0.0026716,0.0056475,5.6743e-09,0.5,0.9,0
0.025763,-0.006847,0.0062784,-0.00010804,0.0018511,0.00020125,0,0,0.0518,-0.022922,0,0.0047091,0,0,0,0.0062848,-0.00011437,0.0018511,1.8031,0.0026738,0.0056776,5.7433e-09,0.52,0.9,0
0.026802,-0.0068064,0.0062972,-0.00012211,0.0018525,0.00016363,0,0,0.052003,-0.023103,0,0.003829,0,0,0,0.0063014,-0.00012627,0.0018525,1.4592,0.0026759,0.0057019,5.7996e-09,0.54,0.9,0
0.027843,-0.0067813,0.0063114,-0.00013236,0.0018537,0.0001217,0,0,0.052155,-0.023237,0,0.0028479,0,0,0,0.0063137,-0.00013466,0.0018537,1.0816,0.0026776,0.0057195,5.8413e-09,0.56,0.9,0
0.028888,-0.0067738,0.0063204,-0.00013842,0.0018546,7.6847e-05,0,0,0.05225,-0.023318,0,0.0017982,0,0,0,0.0063213,-0.00013934,0.0018546,0.68158,0.0026789,0.0057301,5.8667e-09,0.58,0.9,0
0.029933,-0.0067853,0.0063239,-0.0001401,0.0018551,3.0548e-05,0,0,0.052284,-0.023344,0,0.00071482,0,0,0,0.006324,-0.00014025,0.0018551,0.27076,0.0026796,0.0057332,5.875e-09,0.6,0.9,0
0.030979,-0.0068164,0.0063216,-0.00013739,0.0018553,-1.5674e-05,0,0,0.052256,-0.023314,0,-0.00036678,0,0,0,0.0063216,-0.00013742,0.0018553,-0.13904,0.0026798,0.0057288,5.8658e-09,0.62,0.9,0
0.032024,-0.0068672,0.0063137,-0.00013047,0.001855,-6.0332e-05,0,0,0.052167,-0.02323,0,-0.0014118,0,0,0,0.0063142,-0.00013103,0.001855,-0.53636,0.0026794,0.0057171,5.8394e-09,0.64,0.9,0
0.033066,-0.0069368,0.0063003,-0.00011973,0.0018542,-0.00010204,0,0,0.05202,-0.023095,0,-0.0023877,0,0,0,0.006302,-0.00012135,0.0018542,-0.91035,0.0026783,0.0056984,5.7967e-09,0.66,0.9,0
0.034105,-0.0070239,0.0062822,-0.0001057,0.0018529,-0.00013958,0,0,0.051822,-0.022916,0,-0.0032661,0,0,0,0.0062852,-0.00010875,0.0018529,-1.2511,0.0026765,0.0056735,5.7393e-09,0.68,0.9,0
0.035139,-0.0071265,0.0062598,-8.9036e-05,0.0018512,-0.00017193,0,0,0.05158,-0.022701,0,-0.0040231,0,0,0,0.0062645,-9.3688e-05,0.0018512,-1.55,0.002674,0.0056429,5.669e-09,0.7,0.9,0
0.036168,-0.0072422,0.006234,-7.0467e-05,0.0018491,-0.00019832,0,0,0.051304,-0.022459,0,-0.0046407,0,0,0,0.0062403,-7.6699e-05,0.0018491,-1.8,0.0026709,0.0056078,5.5882e-09,0.72,0.9,0
0.037191,-0.0073682,0.0062057,-5.0745e-05,0.0018465,-0.00021825,0,0,0.051003,-0.022198,0,-0.0051072,0,0,0,0.0062133,-5.835e-05,0.0018465,-1.9955,0.0026672,0.0055692,5.4996e-09,0.74,0.9,0
0.038208,-0.0075015,0.0061758,-3.0604e-05,0.0018436,-0.00023148,0,0,0.050687,-0.021928,0,-0.0054165,0,0,0,0.0061844,-3.9225e-05,0.0018436,-2.133,0.0026629,0.0055282,5.4058e-09,0.76,0.9,0
0.039218,-0.0076388,0.0061451,-1.071e-05,0.0018403,-0.00023797,0,0,0.050366,-0.021657,0,-0.0055686,0,0,0,0.0061542,-1.9896e-05,0.0018403,-2.2106,0.0026582,0.0054859,5.3097e-09,0.78,0.9,0
0.040222,-0.0077769,0.0061144,8.3608e-06,0.0018368,-0.00023796,0,0,0.050048,-0.021393,0,-0.0055682,0,0,0,0.0061237,-8.9849e-07,0.0018368,-2.2283,0.0026532,0.0054436,5.2139e-09,0.8,0.9,0
0.04122,-0.0079127,0.0060847,2.6146e-05,0.0018333,-0.0002318,0,0,0.049742,-0.021143,0,-0.0054241,0,0,0,0.0060936,1.729e-05,0.0018333,-2.1879,0.002648,0.0054023,5.1208e-09,0.82,0.9,0
0.042212,-0.0080431,0.0060565,4.2303e-05,0.0018296,-0.00022002,0,0,0.049454,-0.020912,0,-0.0051484,0,0,0,0.0060646,3.4265e-05,0.0018296,-2.0923,0.0026428,0.005363,5.0326e-09,0.84,0.9,0
0.043198,-0.0081652,0.0060305,5.6605e-05,0.0018261,-0.00020321,0,0,0.049191,-0.020703,0,-0.0047551,0,0,0,0.0060374,4.9701e-05,0.0018261,-1.946,0.0026377,0.0053265,4.9513e-09,0.86,0.9,0
0.04418,-0.0082764,0.0060071,6.8926e-05,0.0018228,-0.00018202,0,0,0.048956,-0.020521,0,-0.0042594,0,0,0,0.0060127,6.3351e-05,0.0018228,-1.7541,0.0026329,0.0052936,4.8783e-09,0.88,0.9,0
0.045157,-0.0083745,0.0059868,7.9224e-05,0.0018198,-0.00015714,0,0,0.048753,-0.020365,0,-0.0036771,0,0,0,0.0059909,7.5047e-05,0.0018198,-1.5227,0.0026286,0.005265,4.8149e-09,0.9,0.9,0
0.04613,-0.0084575,0.0059697,8.7519e-05,0.0018172,-0.00012923,0,0,0.048585,-0.020237,0,-0.0030241,0,0,0,0.0059726,8.4681e-05,0.0018172,-1.258,0.0026248,0.005241,4.762e-09,0.92,0.9,0
0.0471,-0.0085238,0.0059563,9.3864e-05,0.001815,-9.8951e-05,0,0,0.048453,-0.020138,0,-0.0023155,0,0,0,0.005958,9.2194e-05,0.001815,-0.96672,0.0026217,0.005222,4.7202e-09,0.94,0.9,0
0.048068,-0.008572,0.0059466,9.8329e-05,0.0018135,-6.6922e-05,0,0,0.048357,-0.020067,0,-0.001566,0,0,0,0.0059473,9.7564e-05,0.0018135,-0.65552,0.0026195,0.0052083,4.6901e-09,0.96,0.9,0
0.049034,-0.0086014,0.0059407,0.00010098,0.0018125,-3.3745e-05,0,0,0.0483,-0.020025,0,-0.00078963,0,0,0,0.0059409,0.00010078,0.0018125,-0.33107,0.0026181,0.0052,4.672e-09,0.98,0.9,0
0.05,-0.0086112,0.0059387,0.00010186,0.0018122,-2.1006e-05,0,0,0.048281,-0.020011,0,-0.00049154,0,0,0,0.0059388,0.00010178,0.0018122,-0.20619,0.0026176,0.0051974,4.6661e-09,1,0.9,0
0,0,0.0066074,0.0028318,0.0028318,-0.0018787,0,0,0.044175,-6.5052e-19,0,-0.043961,0,0,0,0.0073829,0.0020562,0.0028318,-22.43,0.0040903,0.0049844,5.8444e-09,0,0.92,0
0.00088351,-0.00087922,0.0065565,0.0023118,0.0026605,-0.0018317,0,0,0.045583,-0.0040793,0,-0.042861,0,0,0,0.0072376,0.0016307,0.0026605,-20.398,0.0038429,0.0051695,6.157e-09,0.02,0.92,0
0.0018233,-0.001789,0.0066512,0.0017657,0.0025251,-0.0017318,0,0,0.048275,-0.0088842,0,-0.040523,0,0,0,0.0072028,0.0012142,0.0025251,-17.667,0.0036473,0.0054527,6.7316e-09,0.04,0.92,0
0.0028145,-0.0026772,0.0067008,0.0012869,0.0023963,-0.0015239,0,0,0.050362,-0.01298,0,-0.03566,0,0,0,0.0071002,0.00088741,0.0023963,-14.689,0.0034613,0.0056126,6.9165e-09,0.06,0.92,0
0.0038378,-0.0035029,0.0066859,0.00093611,0.0022866,-0.001268,0,0,0.051471,-0.015801,0,-0.02967,0,0,0,0.006953,0.00066891,0.0022866,-11.9,0.0033028,0.0056517,6.7747e-09,0.08,0.92,0
0.0048734,-0.0042454,0.0066153,0.0006973,0.0021938,-0.001019,0,0,0.051732,-0.017509,0,-0.023844,0,0,0,0.0067858,0.00052676,0.0021938,-9.5011,0.0031688,0.0056143,6.4604e-09,0.1,0.92,0
0.0059071,-0.0048996,0.0065121,0.00053197,0.0021132,-0.0008,0,0,0.051466,-0.0185,0,-0.01872,0,0,0,0.0066172,0.0004268,0.0021132,-7.4895,0.0030524,0.0055431,6.0952e-09,0.12,0.92,0
0.006932,-0.0054686,0.0064014,0.00041604,0.0020452,-0.00061518,0,0,0.050967,-0.019061,0,-0.014395,0,0,0,0.0064639,0.00035347,0.0020452,-5.8081,0.0029542,0.0054647,5.7529e-09,0.14,0.92,0
0.0079458,-0.0059577,0.0062972,0.00033296,0.0019891,-0.00046086,0,0,0.050405,-0.019376,0,-0.010784,0,0,0,0.0063326,0.00029756,0.0019891,-4.3925,0.0028731,0.0053921,5.4614e-09,0.16,0.92,0
0.0089483,-0.0063732,0.0062063,0.000272,0.0019435,-0.00033181,0,0,0.049875,-0.019557,0,-0.0077642,0,0,0,0.0062248,0.00025351,0.0019435,-3.1903,0.0028073,0.0053312,5.2271e-09,0.18,0.92,0
0.0099408,-0.0067212,0.0061312,0.00022608,0.0019072,-0.00022314,0,0,0.049421,-0.019669,0,-0.0052215,0,0,0,0.0061396,0.00021766,0.0019072,-2.161,0.0027548,0.0052838,5.0472e-09,0.2,0.92,0
0.010925,-0.0070076,0.0060722,0.00019046,0.0018788,-0.00013094,0,0,0.049062,-0.019753,0,-0.0030639,0,0,0,0.0060751,0.00018755,0.0018788,-1.2747,0.0027138,0.0052503,4.9162e-09,0.22,0.92,0
0.011903,-0.0072377,0.0060284,0.0001619,0.0018571,-5.2192e-05,0,0,0.048805,-0.019834,0,-0.0012213,0,0,0,0.0060289,0.00016143,0.0018571,-0.50969,0.0026825,0.00523,4.8281e-09,0.24,0.92,0
0.012877,-0.0074169,0.0059989,0.00013812,0.0018411,1.529e-05,0,0,0.048646,-0.019925,0,0.00035779,0,0,0,0.005999,0.00013808,0.0018411,0.14948,0.0026594,0.005222,4.7772e-09,0.26,0.92,0
0.013849,-0.00755,0.0059822,0.00011751,0.0018299,7.3068e-05,0,0,0.048582,-0.020035,0,0.0017098,0,0,0,0.0059831,0.0001166,0.0018299,0.71369,0.0026432,0.005225,4.7587e-09,0.28,0.92,0
0.014821,-0.007642,0.0059769,9.8902e-05,0.0018228,0.0001222,0,0,0.048604,-0.020169,0,0.0028594,0,0,0,0.0059795,9.6363e-05,0.0018228,1.1904,0.0026329,0.0052378,4.7681e-09,0.3,0.92,0
0.015793,-0.0076977,0.0059817,8.1453e-05,0.0018189,0.00016336,0,0,0.048704,-0.020329,0,0.0038225,0,0,0,0.0059862,7.6933e-05,0.0018189,1.5847,0.0026274,0.0052593,4.8017e-09,0.32,0.92,0
0.016769,-0.0077219,0.005995,6.457e-05,0.0018179,0.00019693,0,0,0.048873,-0.020514,0,0.0046082,0,0,0,0.0060016,5.8037e-05,0.0018179,1.8998,0.0026258,0.005288,4.8559e-09,0.34,0.92,0
0.017748,-0.0077194,0.0060156,4.7869e-05,0.0018191,0.00022312,0,0,0.0491,-0.020723,0,0.0052209,0,0,0,0.006024,3.9539e-05,0.0018191,2.1381,0.0026275,0.0053226,4.9272e-09,0.36,0.92,0
0.018733,-0.0076949,0.006042,3.1145e-05,0.0018219,0.00024198,0,0,0.049375,-0.020952,0,0.0056624,0,0,0,0.0060517,2.142e-05,0.0018219,2.3016,0.0026317,0.0053618,5.0123e-09,0.38,0.92,0
0.019723,-0.0076533,0.0060729,1.4351e-05,0.0018262,0.00025354,0,0,0.049686,-0.021198,0,0.0059328,0,0,0,0.0060834,3.76e-06,0.0018262,2.3921,0.0026378,0.0054041,5.1075e-09,0.4,0.92,0
0.02072,-0.0075994,0.0061067,-2.4168e-06,0.0018313,0.0002578,0,0,0.050022,-0.021454,0,0.0060325,0,0,0,0.0061176,-1.3277e-05,0.0018313,2.4121,0.0026452,0.005448,5.2095e-09,0.42,0.92,0
0.021724,-0.0075379,0.0061422,-1.894e-05,0.001837,0.00025485,0,0,0.050371,-0.021714,0,0.0059636,0,0,0,0.0061527,-2.9464e-05,0.001837,2.3646,0.0026534,0.0054922,5.3145e-09,0.44,0.92,0
0.022735,-0.0074732,0.0061779,-3.4899e-05,0.0018429,0.00024488,0,0,0.050719,-0.02197,0,0.0057303,0,0,0,0.0061875,-4.4536e-05,0.0018429,2.2537,0.002662,0.0055352,5.4189e-09,0.46,0.92,0
0.023753,-0.0074098,0.0062124,-4.9897e-05,0.0018487,0.00022823,0,0,0.051055,-0.022214,0,0.0053406,0,0,0,0.0062207,-5.8203e-05,0.0018487,2.0845,0.0026704,0.0055756,5.519e-09,0.48,0.92,0
0.024777,-0.0073516,0.0062445,-6.3498e-05,0.0018543,0.00020541,0,0,0.051366,-0.022438,0,0.0048065,0,0,0,0.0062512,-7.0179e-05,0.0018543,1.8631,0.0026785,0.0056123,5.6116e-09,0.5,0.92,0
0.025808,-0.0073023,0.0062731,-7.5259e-05,0.0018594,0.00017711,0,0,0.051641,-0.022635,0,0.0041443,0,0,0,0.0062781,-8.0196e-05,0.0018594,1.5968,0.0026857,0.0056442,5.6932e-09,0.52,0.92,0
0.026843,-0.0072651,0.0062971,-8.4768e-05,0.0018637,0.00014421,0,0,0.051871,-0.022797,0,0.0033745,0,0,0,0.0063004,-8.8025e-05,0.0018637,1.2938,0.002692,0.0056703,5.7612e-09,0.54,0.92,0
0.027882,-0.0072425,0.0063157,-9.1678e-05,0.0018672,0.00010774,0,0,0.052047,-0.022919,0,0.0025212,0,0,0,0.0063175,-9.3489e-05,0.0018672,0.9631,0.0026971,0.0056899,5.8132e-09,0.56,0.92,0
0.028925,-0.0072365,0.0063282,-9.5736e-05,0.0018697,6.8877e-05,0,0,0.052164,-0.022996,0,0.0016117,0,0,0,0.0063289,-9.6474e-05,0.0018697,0.61423,0.0027007,0.0057024,5.8475e-09,0.58,0.92,0
0.029969,-0.0072486,0.0063342,-9.6807e-05,0.0018712,2.8852e-05,0,0,0.052217,-0.023026,0,0.00067513,0,0,0,0.0063343,-9.6937e-05,0.0018712,0.25704,0.0027029,0.0057076,5.8629e-09,0.6,0.92,0
0.031013,-0.0072793,0.0063336,-9.4887e-05,0.0018716,-1.1061e-05,0,0,0.052206,-0.023008,0,-0.00025883,0,0,0,0.0063336,-9.4906e-05,0.0018716,-0.098585,0.0027035,0.0057054,5.8591e-09,0.62,0.92,0
0.032057,-0.0073285,0.0063265,-9.0105e-05,0.0018709,-4.9618e-05,0,0,0.052131,-0.022944,0,-0.0011611,0,0,0,0.0063269,-9.0489e-05,0.0018709,-0.44301,0.0027025,0.0056959,5.8364e-09,0.64,0.92,0
0.033099,-0.0073958,0.0063132,-8.2714e-05,0.0018692,-8.5656e-05,0,0,0.051996,-0.022837,0,-0.0020043,0,0,0,0.0063144,-8.3861e-05,0.0018692,-0.76713,0.0026999,0.0056794,5.7956e-09,0.66,0.92,0
0.034137,-0.0074797,0.0062943,-7.3074e-05,0.0018663,-0.00011815,0,0,0.051806,-0.022691,0,-0.0027646,0,0,0,0.0062964,-7.5266e-05,0.0018663,-1.0626,0.0026958,0.0056566,5.7385e-09,0.68,0.92,0
0.035171,-0.0075784,0.0062703,-6.1628e-05,0.0018626,-0.00014623,0,0,0.05157,-0.022513,0,-0.0034218,0,0,0,0.0062737,-6.5004e-05,0.0018626,-1.3222,0.0026904,0.0056281,5.6671e-09,0.7,0.92,0
0.0362,-0.0076897,0.0062422,-4.8869e-05,0.001858,-0.00016925,0,0,0.051295,-0.02231,0,-0.0039604,0,0,0,0.0062467,-5.3419e-05,0.001858,-1.5399,0.0026838,0.0055949,5.5838e-09,0.72,0.92,0
0.037223,-0.0078109,0.0062108,-3.5307e-05,0.0018526,-0.00018675,0,0,0.050991,-0.022089,0,-0.00437,0,0,0,0.0062164,-4.0886e-05,0.0018526,-1.711,0.0026761,0.0055579,5.4916e-09,0.74,0.92,0
0.038239,-0.0079392,0.0061772,-2.144e-05,0.0018467,-0.00019851,0,0,0.050667,-0.021858,0,-0.0046452,0,0,0,0.0061836,-2.7791e-05,0.0018467,-1.8324,0.0026675,0.0055183,5.3932e-09,0.76,0.92,0
0.039249,-0.0080716,0.0061424,-7.7241e-06,0.0018404,-0.00020451,0,0,0.050333,-0.021623,0,-0.0047854,0,0,0,0.0061492,-1.4517e-05,0.0018404,-1.9024,0.0026584,0.0054771,5.2918e-09,0.78,0.92,0
0.040253,-0.0082048,0.0061073,5.4458e-06,0.0018338,-0.00020487,0,0,0.05,-0.021392,0,-0.004794,0,0,0,0.0061142,-1.4252e-06,0.0018338,-1.9208,0.0026489,0.0054355,5.19e-09,0.8,0.92,0
0.041249,-0.0083359,0.0060728,1.775e-05,0.0018272,-0.00019992,0,0,0.049674,-0.02117,0,-0.0046781,0,0,0,0.0060794,1.1156e-05,0.0018272,-1.889,0.0026393,0.0053946,5.0907e-09,0.82,0.92,0
0.04224,-0.0084619,0.0060399,2.8948e-05,0.0018206,-0.00019006,0,0,0.049365,-0.020963,0,-0.0044474,0,0,0,0.0060459,2.2944e-05,0.0018206,-1.8092,0.0026298,0.0053554,4.9963e-09,0.84,0.92,0
0.043224,-0.0085801,0.0060091,3.8878e-05,0.0018144,-0.00017579,0,0,0.049078,-0.020774,0,-0.0041136,0,0,0,0.0060143,3.3707e-05,0.0018144,-1.6851,0.0026208,0.0053187,4.9087e-09,0.86,0.92,0
0.044203,-0.0086879,0.0059812,4.745e-05,0.0018086,-0.00015767,0,0,0.04882,-0.020605,0,-0.0036895,0,0,0,0.0059854,4.3263e-05,0.0018086,-1.521,0.0026124,0.0052854,4.8297e-09,0.88,0.92,0
0.045177,-0.0087831,0.0059567,5.4626e-05,0.0018034,-0.00013627,0,0,0.048594,-0.020461,0,-0.0031888,0,0,0,0.0059599,5.1481e-05,0.0018034,-1.322,0.0026049,0.0052562,4.7609e-09,0.9,0.92,0
0.046147,-0.0088636,0.0059362,6.0416e-05,0.001799,-0.00011218,0,0,0.048405,-0.020341,0,-0.002625,0,0,0,0.0059383,5.8275e-05,0.001799,-1.0933,0.0025985,0.0052316,4.7032e-09,0.92,0.92,0
0.047113,-0.008928,0.0059198,6.4851e-05,0.0017954,-8.5956e-05,0,0,0.048255,-0.020247,0,-0.0020114,0,0,0,0.005921,6.3589e-05,0.0017954,-0.84092,0.0025933,0.005212,4.6575e-09,0.94,0.92,0
0.048077,-0.0089748,0.0059079,6.7975e-05,0.0017928,-5.8165e-05,0,0,0.048147,-0.02018,0,-0.0013611,0,0,0,0.0059085,6.7396e-05,0.0017928,-0.57058,0.0025895,0.0051978,4.6245e-09,0.96,0.92,0
0.049039,-0.0090033,0.0059007,6.983e-05,0.0017912,-2.9339e-05,0,0,0.048082,-0.02014,0,-0.00068653,0,0,0,0.0059009,6.9683e-05,0.0017912,-0.28828,0.0025872,0.0051892,4.6046e-09,0.98,0.92,0
0.05,-0.0090129,0.0058983,7.0446e-05,0.0017906,-2.0421e-05,0,0,0.04806,-0.020126,0,-0.00047786,0,0,0,0.0058984,7.0374e-05,0.0017906,-0.20077,0.0025865,0.0051864,4.5981e-09,1,0.92,0
0,0,0.0069596,0.0029827,0.0029827,-0.0020768,0,0,0.04653,1.301e-18,0,-0.048598,0,0,0,0.0078464,0.0020958,0.0029827,-23.123,0.0043083,0.0053624,7.1949e-09,0,0.94,0
0.00093059,-0.00097196,0.0068685,0.0022439,0.0027337,-0.0019779,0,0,0.048377,-0.005731,0,-0.046283,0,0,0,0.007599,0.0015133,0.0027337,-20.272,0.0039487,0.0055766,7.489e-09,0.02,0.94,0
0.0019351,-0.0019903,0.0069335,0.0014931,0.002528,-0.0017964,0,0,0.051545,-0.012108,0,-0.042035,0,0,0,0.0074732,0.0009535,0.002528,-16.72,0.0036516,0.0058924,8.0325e-09,0.04,0.94,0
0.0029924,-0.0029655,0.006924,0.00096148,0.0023656,-0.001469,0,0,0.053333,-0.016429,0,-0.034374,0,0,0,0.0072663,0.00061922,0.0023656,-13.116,0.003417,0.0059686,7.8508e-09,0.06,0.94,0
0.0040684,-0.0038453,0.0068211,0.00066072,0.0022446,-0.0011416,0,0,0.053546,-0.018531,0,-0.026715,0,0,0,0.0070259,0.00045595,0.0022446,-10.168,0.0032421,0.0058832,7.2919e-09,0.08,0.94,0
0.0051342,-0.0046164,0.0066469,0.0004699,0.002135,-0.00086807,0,0,0.052789,-0.019482,0,-0.020313,0,0,0,0.0067666,0.00035023,0.002135,-7.8494,0.003084,0.0057362,6.6237e-09,0.1,0.94,0
0.00618,-0.0052851,0.0064665,0.00034709,0.0020441,-0.00065332,0,0,0.051742,-0.019855,0,-0.015288,0,0,0,0.0065354,0.00027812,0.0020441,-6.0266,0.0029525,0.0055877,6.0358e-09,0.12,0.94,0
0.0072039,-0.0058609,0.0063043,0.00026507,0.0019708,-0.00048509,0,0,0.050702,-0.019957,0,-0.011351,0,0,0,0.006343,0.00022635,0.0019708,-4.5632,0.0028467,0.0054577,5.5641e-09,0.14,0.94,0
0.008208,-0.0063529,0.0061689,0.00020854,0.0019132,-0.00035172,0,0,0.049791,-0.019945,0,-0.0082303,0,0,0,0.0061896,0.00018786,0.0019132,-3.3655,0.0027636,0.0053518,5.2027e-09,0.16,0.94,0
0.0091955,-0.0067695,0.0060609,0.00016829,0.0018687,-0.00024411,0,0,0.049048,-0.019895,0,-0.0057121,0,0,0,0.006071,0.0001582,0.0018687,-2.3681,0.0026993,0.00527,4.934e-09,0.18,0.94,0
0.01017,-0.007118,0.0059783,0.00013867,0.0018351,-0.00015574,0,0,0.048476,-0.019848,0,-0.0036443,0,0,0,0.0059825,0.00013452,0.0018351,-1.5266,0.0026507,0.0052102,4.7409e-09,0.2,0.94,0
0.011135,-0.0074048,0.0059185,0.00011611,0.0018104,-8.2072e-05,0,0,0.048065,-0.019823,0,-0.0019205,0,0,0,0.0059197,0.00011495,0.0018104,-0.8102,0.002615,0.0051699,4.6093e-09,0.22,0.94,0
0.012093,-0.0076356,0.0058787,9.8264e-05,0.0017931,-1.9955e-05,0,0,0.047802,-0.01983,0,-0.00046695,0,0,0,0.0058788,9.8195e-05,0.0017931,-0.19779,0.00259,0.0051469,4.5283e-09,0.24,0.94,0
0.013047,-0.0078159,0.0058563,8.3555e-05,0.001782,3.2777e-05,0,0,0.04767,-0.019871,0,0.00076698,0,0,0,0.0058565,8.3369e-05,0.001782,0.32531,0.0025739,0.0051389,4.4894e-09,0.26,0.94,0
0.013999,-0.0079508,0.005849,7.0889e-05,0.001776,7.7588e-05,0,0,0.047654,-0.019949,0,0.0018156,0,0,0,0.00585,6.9848e-05,0.001776,0.76918,0.0025653,0.0051439,4.486e-09,0.28,0.94,0
0.014953,-0.0080451,0.0058546,5.9493e-05,0.0017742,0.00011544,0,0,0.04774,-0.020063,0,0.0027012,0,0,0,0.0058569,5.7195e-05,0.0017742,1.1407,0.0025628,0.0051601,4.5127e-09,0.3,0.94,0
0.015909,-0.0081038,0.0058713,4.8819e-05,0.001776,0.00014692,0,0,0.047915,-0.020208,0,0.003438,0,0,0,0.005875,4.5114e-05,0.001776,1.4446,0.0025654,0.0051858,4.5651e-09,0.32,0.94,0
0.016869,-0.0081315,0.0058972,3.8489e-05,0.0017807,0.00017239,0,0,0.048163,-0.020384,0,0.0040338,0,0,0,0.0059023,3.3421e-05,0.0017807,1.6839,0.0025722,0.0052194,4.6393e-09,0.34,0.94,0
0.017836,-0.0081329,0.0059307,2.8259e-05,0.0017877,0.00019199,0,0,0.048473,-0.020585,0,0.0044925,0,0,0,0.0059369,2.2021e-05,0.0017877,1.8611,0.0025822,0.0052593,4.7314e-09,0.36,0.94,0
0.018808,-0.0081128,0.00597,1.8002e-05,0.0017964,0.00020579,0,0,0.048831,-0.020807,0,0.0048155,0,0,0,0.0059771,1.0895e-05,0.0017964,1.9779,0.0025948,0.0053038,4.838e-09,0.38,0.94,0
0.019789,-0.008076,0.0060135,7.6905e-06,0.0018063,0.0002138,0,0,0.049223,-0.021044,0,0.0050029,0,0,0,0.0060211,8.8945e-08,0.0018063,2.0362,0.0026092,0.0053516,4.9552e-09,0.4,0.94,0
0.020777,-0.008027,0.0060595,-2.6151e-06,0.0018171,0.00021604,0,0,0.049637,-0.02129,0,0.0050552,0,0,0,0.0060672,-1.0304e-05,0.0018171,2.0384,0.0026247,0.0054009,5.0794e-09,0.42,0.94,0
0.021774,-0.0079704,0.0061066,-1.2776e-05,0.0018281,0.00021256,0,0,0.050058,-0.021539,0,0.0049738,0,0,0,0.006114,-2.0151e-05,0.0018281,1.987,0.0026407,0.0054503,5.2065e-09,0.44,0.94,0
0.02278,-0.0079106,0.0061531,-2.2593e-05,0.0018392,0.00020352,0,0,0.050473,-0.021782,0,0.0047624,0,0,0,0.0061598,-2.9292e-05,0.0018392,1.8855,0.0026566,0.0054984,5.3327e-09,0.46,0.94,0
0.023793,-0.0078519,0.0061976,-3.1818e-05,0.0018497,0.0001892,0,0,0.05087,-0.022014,0,0.0044273,0,0,0,0.0062033,-3.7559e-05,0.0018497,1.7381,0.0026718,0.0055436,5.454e-09,0.48,0.94,0
0.024814,-0.007798,0.0062386,-4.0182e-05,0.0018595,0.00017001,0,0,0.051235,-0.022227,0,0.0039781,0,0,0,0.0062432,-4.4781e-05,0.0018595,1.5498,0.002686,0.0055849,5.5664e-09,0.5,0.94,0
0.025843,-0.0077524,0.006275,-4.7408e-05,0.0018683,0.00014649,0,0,0.051558,-0.022413,0,0.0034279,0,0,0,0.0062784,-5.0801e-05,0.0018683,1.3266,0.0026986,0.0056209,5.6664e-09,0.52,0.94,0
0.026877,-0.0077183,0.0063056,-5.3244e-05,0.0018757,0.00011936,0,0,0.051829,-0.022569,0,0.002793,0,0,0,0.0063078,-5.5483e-05,0.0018757,1.075,0.0027093,0.0056509,5.7507e-09,0.54,0.94,0
0.027916,-0.0076981,0.0063295,-5.7472e-05,0.0018816,8.9431e-05,0,0,0.05204,-0.022687,0,0.0020927,0,0,0,0.0063307,-5.8724e-05,0.0018816,0.80205,0.0027179,0.0056739,5.8167e-09,0.56,0.94,0
0.028958,-0.0076936,0.0063461,-5.9937e-05,0.0018859,5.7636e-05,0,0,0.052185,-0.022766,0,0.0013487,0,0,0,0.0063467,-6.0456e-05,0.0018859,0.51543,0.002724,0.0056894,5.8621e-09,0.58,0.94,0
0.030003,-0.0077063,0.0063551,-6.0555e-05,0.0018884,2.496e-05,0,0,0.052261,-0.022802,0,0.00058406,0,0,0,0.0063552,-6.0653e-05,0.0018884,0.2229,0.0027276,0.0056971,5.8859e-09,0.6,0.94,0
0.031049,-0.0077368,0.0063562,-5.9324e-05,0.001889,-7.5837e-06,0,0,0.052265,-0.022796,0,-0.00017746,0,0,0,0.0063562,-5.9333e-05,0.001889,-0.067729,0.0027286,0.0056969,5.8873e-09,0.62,0.94,0
0.032094,-0.007785,0.0063495,-5.6321e-05,0.001888,-3.9004e-05,0,0,0.0522,-0.022748,0,-0.0009127,0,0,0,0.0063497,-5.6558e-05,0.001888,-0.34885,0.002727,0.005689,5.8669e-09,0.64,0.94,0
0.033137,-0.0078503,0.0063355,-5.1702e-05,0.0018851,-6.8375e-05,0,0,0.052069,-0.022661,0,-0.0016,0,0,0,0.0063362,-5.2434e-05,0.0018851,-0.61326,0.002723,0.0056737,5.8256e-09,0.66,0.94,0
0.034176,-0.0079316,0.0063147,-4.5689e-05,0.0018807,-9.4873e-05,0,0,0.051878,-0.022539,0,-0.00222,0,0,0,0.0063161,-4.7104e-05,0.0018807,-0.85439,0.0027166,0.0056515,5.7653e-09,0.68,0.94,0
0.035212,-0.0080271,0.0062879,-3.8555e-05,0.0018748,-0.00011781,0,0,0.051633,-0.022386,0,-0.0027567,0,0,0,0.00629,-4.0748e-05,0.0018748,-1.0665,0.002708,0.0056233,5.6885e-09,0.7,0.94,0
0.036242,-0.0081346,0.006256,-3.0603e-05,0.0018676,-0.00013665,0,0,0.051344,-0.022209,0,-0.0031976,0,0,0,0.0062589,-3.3572e-05,0.0018676,-1.2447,0.0026977,0.0055899,5.5979e-09,0.72,0.94,0
0.037266,-0.0082518,0.0062201,-2.2149e-05,0.0018594,-0.00015103,0,0,0.05102,-0.022014,0,-0.0035342,0,0,0,0.0062237,-2.5801e-05,0.0018594,-1.3852,0.0026858,0.0055524,5.4969e-09,0.74,0.94,0
0.038283,-0.0083758,0.0061813,-1.35e-05,0.0018503,-0.00016077,0,0,0.050672,-0.021807,0,-0.003762,0,0,0,0.0061855,-1.7669e-05,0.0018503,-1.4856,0.0026727,0.0055119,5.3888e-09,0.76,0.94,0
0.039293,-0.0085037,0.0061408,-4.9396e-06,0.0018407,-0.00016582,0,0,0.05031,-0.021595,0,-0.0038801,0,0,0,0.0061452,-9.4102e-06,0.0018407,-1.5444,0.0026589,0.0054695,5.2769e-09,0.78,0.94,0
0.040295,-0.0086326,0.0060996,3.2863e-06,0.0018309,-0.00016629,0,0,0.049945,-0.021383,0,-0.0038912,0,0,0,0.0061042,-1.2463e-06,0.0018309,-1.5613,0.0026446,0.0054265,5.1645e-09,0.8,0.94,0
0.04129,-0.0087595,0.006059,1.0978e-05,0.001821,-0.00016243,0,0,0.049585,-0.021177,0,-0.0038008,0,0,0,0.0060634,6.6188e-06,0.001821,-1.5373,0.0026303,0.0053839,5.0545e-09,0.82,0.94,0
0.042278,-0.0088816,0.0060199,1.7985e-05,0.0018113,-0.00015455,0,0,0.04924,-0.020982,0,-0.0036165,0,0,0,0.0060238,1.4007e-05,0.0018113,-1.4741,0.0026164,0.0053429,4.9497e-09,0.84,0.94,0
0.04326,-0.0089961,0.0059832,2.4204e-05,0.0018022,-0.00014306,0,0,0.048917,-0.020803,0,-0.0033477,0,0,0,0.0059866,2.0771e-05,0.0018022,-1.3745,0.0026032,0.0053044,4.8525e-09,0.86,0.94,0
0.044235,-0.0091007,0.0059497,2.9576e-05,0.0017938,-0.00012841,0,0,0.048624,-0.020641,0,-0.0030048,0,0,0,0.0059525,2.6792e-05,0.0017938,-1.242,0.002591,0.0052693,4.7647e-09,0.88,0.94,0
0.045205,-0.009193,0.0059203,3.4078e-05,0.0017863,-0.00011105,0,0,0.048367,-0.020501,0,-0.0025985,0,0,0,0.0059223,3.1984e-05,0.0017863,-1.0804,0.0025802,0.0052384,4.6881e-09,0.9,0.94,0
0.04617,-0.0092712,0.0058953,3.7713e-05,0.0017799,-9.1458e-05,0,0,0.04815,-0.020384,0,-0.0021401,0,0,0,0.0058968,3.6285e-05,0.0017799,-0.8943,0.002571,0.0052122,4.6238e-09,0.92,0.94,0
0.047131,-0.0093337,0.0058755,4.0499e-05,0.0017748,-7.0108e-05,0,0,0.047978,-0.020291,0,-0.0016405,0,0,0,0.0058763,3.9657e-05,0.0017748,-0.68828,0.0025636,0.0051913,4.5729e-09,0.94,0.94,0
0.048089,-0.0093793,0.005861,4.2462e-05,0.001771,-4.7454e-05,0,0,0.047853,-0.020224,0,-0.0011104,0,0,0,0.0058614,4.2075e-05,0.001771,-0.46724,0.0025582,0.0051762,4.5361e-09,0.96,0.94,0
0.049045,-0.0094069,0.0058523,4.3629e-05,0.0017688,-2.394e-05,0,0,0.047777,-0.020184,0,-0.00056021,0,0,0,0.0058524,4.353e-05,0.0017688,-0.23614,0.0025549,0.005167,4.5138e-09,0.98,0.94,0
0.05,-0.0094162,0.0058493,4.4015e-05,0.001768,-1.9852e-05,0,0,0.047752,-0.020171,0,-0.00046454,0,0,0,0.0058494,4.3948e-05,0.001768,-0.19593,0.0025538,0.005164,4.5065e-09,1,0.94,0
0,0,0.007647,0.0032773,0.0032773,-0.0023685,0,0,0.051125,2.6021e-18,0,-0.055423,0,0,0,0.0086844,0.0022398,0.0032773,-23.655,0.0047338,0.0059936,9.9508e-09,0,0.96,0
0.0010225,-0.0011085,0.007366,0.0019772,0.002803,-0.0021393,0,0,0.053388,-0.0096612,0,-0.05006,0,0,0,0.008112,0.0012312,0.002803,-19.224,0.0040487,0.0062451,9.8887e-09,0.02,0.96,0
0.0021355,-0.0022733,0.0073487,0.00096396,0.0024938,-0.0017015,0,0,0.056802,-0.017899,0,-0.039816,0,0,0,0.0077738,0.00053881,0.0024938,-14.029,0.0036021,0.0064825,9.8206e-09,0.04,0.96,0
0.0032946,-0.0033343,0.0072359,0.00061192,0.0023543,-0.0012352,0,0,0.057114,-0.020386,0,-0.028903,0,0,0,0.0074587,0.0003891,0.0023543,-10.226,0.0034007,0.0063204,8.8665e-09,0.06,0.96,0
0.0044201,-0.0042441,0.006903,0.00039429,0.0021892,-0.00087488,0,0,0.055152,-0.021,0,-0.020472,0,0,0,0.0070186,0.00027875,0.0021892,-7.5237,0.0031622,0.0060165,7.5015e-09,0.08,0.96,0
0.0055007,-0.0050246,0.0065866,0.00026905,0.0020567,-0.00062827,0,0,0.053,-0.020916,0,-0.014702,0,0,0,0.0066485,0.00020717,0.0020567,-5.6246,0.0029708,0.0057444,6.4417e-09,0.1,0.96,0
0.0065401,-0.0056938,0.0063252,0.00019242,0.0019553,-0.00045347,0,0,0.051128,-0.020626,0,-0.010611,0,0,0,0.0063586,0.00015907,0.0019553,-4.206,0.0028243,0.0055249,5.6758e-09,0.12,0.96,0
0.0075458,-0.0062669,0.0061213,0.00014369,0.0018795,-0.00032553,0,0,0.049629,-0.020309,0,-0.0076173,0,0,0,0.006139,0.00012602,0.0018795,-3.1079,0.0027148,0.005356,5.1343e-09,0.14,0.96,0
0.0085252,-0.0067555,0.0059668,0.00011132,0.0018234,-0.00022826,0,0,0.048477,-0.020032,0,-0.0053412,0,0,0,0.0059757,0.00010243,0.0018234,-2.229,0.0026339,0.0052296,4.7536e-09,0.16,0.96,0
0.0094849,-0.007169,0.0058531,8.8894e-05,0.0017826,-0.00015188,0,0,0.047625,-0.019816,0,-0.0035541,0,0,0,0.0058571,8.4894e-05,0.0017826,-1.5083,0.0025749,0.0051382,4.4894e-09,0.18,0.96,0
0.01043,-0.0075151,0.0057729,7.2739e-05,0.0017537,-9.0267e-05,0,0,0.047025,-0.019667,0,-0.0021122,0,0,0,0.0057743,7.1309e-05,0.0017537,-0.90702,0.0025331,0.0050754,4.3121e-09,0.2,0.96,0
0.011366,-0.0078005,0.0057205,6.0624e-05,0.0017343,-3.9486e-05,0,0,0.046638,-0.019582,0,-0.00092397,0,0,0,0.0057208,6.0349e-05,0.0017343,-0.3997,0.0025051,0.0050366,4.2016e-09,0.22,0.96,0
0.012296,-0.0080309,0.0056913,5.1151e-05,0.0017227,3.017e-06,0,0,0.046432,-0.019558,0,7.0598e-05,0,0,0,0.0056913,5.115e-05,0.0017227,0.030648,0.0024884,0.0050177,4.1442e-09,0.24,0.96,0
0.013223,-0.0082117,0.0056817,4.3403e-05,0.0017175,3.8921e-05,0,0,0.046381,-0.019587,0,0.00091074,0,0,0,0.005682,4.3134e-05,0.0017175,0.39548,0.0024809,0.0050158,4.1302e-09,0.26,0.96,0
0.014151,-0.008348,0.0056887,3.676e-05,0.0017176,6.932e-05,0,0,0.046461,-0.019666,0,0.0016221,0,0,0,0.0056895,3.591e-05,0.0017176,0.70258,0.002481,0.0050283,4.1525e-09,0.28,0.96,0
0.015082,-0.0084445,0.0057096,3.0792e-05,0.0017221,9.491e-05,0,0,0.046653,-0.019788,0,0.0022209,0,0,0,0.0057112,2.9206e-05,0.0017221,0.95724,0.0024875,0.0050529,4.2055e-09,0.3,0.96,0
0.016017,-0.0085061,0.0057422,2.5198e-05,0.0017302,0.00011611,0,0,0.04694,-0.019949,0,0.002717,0,0,0,0.0057445,2.2841e-05,0.0017302,1.163,0.0024992,0.0050876,4.2849e-09,0.32,0.96,0
0.016959,-0.0085373,0.0057843,1.9775e-05,0.0017412,0.00013314,0,0,0.047304,-0.020141,0,0.0031156,0,0,0,0.0057874,1.6701e-05,0.0017412,1.3224,0.0025151,0.0051306,4.3868e-09,0.34,0.96,0
0.017909,-0.0085428,0.0058341,1.4391e-05,0.0017545,0.00014611,0,0,0.047731,-0.02036,0,0.003419,0,0,0,0.0058378,1.0724e-05,0.0017545,1.4373,0.0025343,0.0051801,4.5074e-09,0.36,0.96,0
0.018868,-0.0085272,0.0058896,8.9784e-06,0.0017696,0.00015503,0,0,0.048204,-0.020599,0,0.0036278,0,0,0,0.0058937,4.894e-06,0.0017696,1.5091,0.002556,0.0052345,4.6432e-09,0.38,0.96,0
0.019837,-0.0084951,0.0059489,3.5252e-06,0.0017857,0.0001599,0,0,0.048709,-0.020852,0,0.0037417,0,0,0,0.0059532,-7.7217e-07,0.0017857,1.5395,0.0025794,0.005292,4.7903e-09,0.4,0.96,0
0.020817,-0.008451,0.0060103,-1.9345e-06,0.0018025,0.00016071,0,0,0.049231,-0.021112,0,0.0037605,0,0,0,0.0060146,-6.2271e-06,0.0018025,1.53,0.0026036,0.0053508,4.9448e-09,0.42,0.96,0
0.021807,-0.0083994,0.0060719,-7.325e-06,0.0018194,0.00015748,0,0,0.049754,-0.021372,0,0.0036851,0,0,0,0.006076,-1.1402e-05,0.0018194,1.4829,0.002628,0.0054095,5.1023e-09,0.44,0.96,0
0.022807,-0.0083445,0.006132,-1.2537e-05,0.0018358,0.00015034,0,0,0.050265,-0.021626,0,0.0035179,0,0,0,0.0061356,-1.6213e-05,0.0018358,1.4007,0.0026518,0.0054664,5.2584e-09,0.46,0.96,0
0.023817,-0.0082904,0.0061889,-1.7439e-05,0.0018514,0.00013945,0,0,0.050748,-0.021866,0,0.0032631,0,0,0,0.006192,-2.057e-05,0.0018514,1.2865,0.0026743,0.00552,5.4086e-09,0.48,0.96,0
0.024837,-0.0082407,0.0062411,-2.1883e-05,0.0018658,0.00012511,0,0,0.051191,-0.022086,0,0.0029276,0,0,0,0.0062436,-2.4381e-05,0.0018658,1.144,0.002695,0.0055689,5.5483e-09,0.5,0.96,0
0.025865,-0.0081989,0.0062872,-2.5721e-05,0.0018784,0.00010772,0,0,0.051582,-0.022279,0,0.0025206,0,0,0,0.006289,-2.7559e-05,0.0018784,0.97727,0.0027133,0.0056118,5.6732e-09,0.52,0.96,0
0.0269,-0.0081678,0.006326,-2.8818e-05,0.0018892,8.7766e-05,0,0,0.051911,-0.02244,0,0.0020537,0,0,0,0.0063272,-3.003e-05,0.0018892,0.79111,0.0027288,0.0056477,5.7793e-09,0.54,0.96,0
0.027941,-0.00815,0.0063565,-3.1056e-05,0.0018976,6.5845e-05,0,0,0.052169,-0.022566,0,0.0015408,0,0,0,0.0063572,-3.1734e-05,0.0018976,0.59054,0.002741,0.0056758,5.8634e-09,0.56,0.96,0
0.028987,-0.0081472,0.006378,-3.2351e-05,0.0019037,4.2616e-05,0,0,0.05235,-0.022652,0,0.00099722,0,0,0,0.0063783,-3.2635e-05,0.0019037,0.38088,0.0027498,0.0056952,5.9228e-09,0.58,0.96,0
0.030035,-0.0081607,0.0063901,-3.266e-05,0.0019072,1.8788e-05,0,0,0.05245,-0.022697,0,0.00043965,0,0,0,0.0063902,-3.2715e-05,0.0019072,0.1676,0.0027549,0.0057059,5.956e-09,0.6,0.96,0
0.031085,-0.0081911,0.0063927,-3.1979e-05,0.0019082,-4.9128e-06,0,0,0.052469,-0.0227,0,-0.00011496,0,0,0,0.0063927,-3.1983e-05,0.0019082,-0.043813,0.0027563,0.0057075,5.9623e-09,0.62,0.96,0
0.032134,-0.0082385,0.0063859,-3.035e-05,0.0019067,-2.7777e-05,0,0,0.052407,-0.022663,0,-0.00064998,0,0,0,0.006386,-3.047e-05,0.0019067,-0.24804,0.0027541,0.0057004,5.9421e-09,0.64,0.96,0
0.033181,-0.0083022,0.0063701,-2.7856e-05,0.0019027,-4.9139e-05,0,0,0.052269,-0.022587,0,-0.0011499,0,0,0,0.0063705,-2.8233e-05,0.0019027,-0.44002,0.0027483,0.0056848,5.8969e-09,0.66,0.96,0
0.034225,-0.0083812,0.0063462,-2.4616e-05,0.0018965,-6.8408e-05,0,0,0.052061,-0.022477,0,-0.0016007,0,0,0,0.0063469,-2.535e-05,0.0018965,-0.61514,0.0027393,0.0056615,5.8288e-09,0.68,0.96,0
0.035264,-0.0084738,0.0063149,-2.0774e-05,0.0018882,-8.5088e-05,0,0,0.051792,-0.022335,0,-0.001991,0,0,0,0.006316,-2.1917e-05,0.0018882,-0.7693,0.0027274,0.0056313,5.7409e-09,0.7,0.96,0
0.036297,-0.0085781,0.0062774,-1.6495e-05,0.0018783,-9.8796e-05,0,0,0.05147,-0.022169,0,-0.0023118,0,0,0,0.0062789,-1.8045e-05,0.0018783,-0.89908,0.002713,0.0055953,5.6369e-09,0.72,0.96,0
0.037323,-0.0086915,0.006235,-1.1946e-05,0.0018669,-0.00010927,0,0,0.051106,-0.021982,0,-0.0025569,0,0,0,0.0062369,-1.3857e-05,0.0018669,-1.0018,0.0026966,0.0055545,5.5205e-09,0.74,0.96,0
0.038341,-0.0088115,0.0061889,-7.2917e-06,0.0018545,-0.00011637,0,0,0.050713,-0.021783,0,-0.002723,0,0,0,0.0061911,-9.4765e-06,0.0018545,-1.0756,0.0026787,0.0055103,5.3959e-09,0.76,0.96,0
0.039351,-0.0089353,0.0061406,-2.6849e-06,0.0018414,-0.00012007,0,0,0.050301,-0.021576,0,-0.0028097,0,0,0,0.006143,-5.0308e-06,0.0018414,-1.1193,0.0026598,0.005464,5.267e-09,0.78,0.96,0
0.040353,-0.0090601,0.0060914,1.7428e-06,0.001828,-0.00012045,0,0,0.049883,-0.021367,0,-0.0028186,0,0,0,0.0060938,-6.389e-07,0.001828,-1.1327,0.0026404,0.0054168,5.1377e-09,0.8,0.96,0
0.041346,-0.009183,0.0060427,5.8838e-06,0.0018146,-0.00011769,0,0,0.049469,-0.021162,0,-0.0027539,0,0,0,0.006045,3.5903e-06,0.0018146,-1.1164,0.0026211,0.00537,5.0114e-09,0.82,0.96,0
0.042332,-0.0093013,0.0059956,9.6568e-06,0.0018016,-0.00011201,0,0,0.049071,-0.020966,0,-0.0026209,0,0,0,0.0059977,7.5618e-06,0.0018016,-1.0716,0.0026023,0.0053249,4.8913e-09,0.84,0.96,0
0.043309,-0.0094122,0.0059514,1.3006e-05,0.0017893,-0.0001037,0,0,0.048696,-0.020783,0,-0.0024266,0,0,0,0.0059532,1.1196e-05,0.0017893,-1.0001,0.0025846,0.0052824,4.78e-09,0.86,0.96,0
0.044279,-0.0095136,0.005911,1.5901e-05,0.0017781,-9.309e-05,0,0,0.048356,-0.020618,0,-0.0021783,0,0,0,0.0059125,1.4431e-05,0.0017781,-0.90446,0.0025683,0.0052436,4.6797e-09,0.88,0.96,0
0.045243,-0.0096031,0.0058754,1.8326e-05,0.0017681,-8.0515e-05,0,0,0.048055,-0.020472,0,-0.0018841,0,0,0,0.0058765,1.722e-05,0.0017681,-0.78743,0.0025539,0.0052094,4.5923e-09,0.9,0.96,0
0.046202,-0.009679,0.0058452,2.0285e-05,0.0017596,-6.6319e-05,0,0,0.047801,-0.02035,0,-0.0015519,0,0,0,0.0058459,1.953e-05,0.0017596,-0.65222,0.0025417,0.0051804,4.519e-09,0.92,0.96,0
0.047155,-0.0097396,0.0058211,2.1786e-05,0.0017529,-5.0841e-05,0,0,0.047598,-0.020254,0,-0.0011897,0,0,0,0.0058215,2.1341e-05,0.0017529,-0.50225,0.0025319,0.0051572,4.4611e-09,0.94,0.96,0
0.048106,-0.0097838,0.0058035,2.2845e-05,0.0017479,-3.4415e-05,0,0,0.047451,-0.020183,0,-0.0008053,0,0,0,0.0058037,2.264e-05,0.0017479,-0.34109,0.0025248,0.0051404,4.4192e-09,0.96,0.96,0
0.049053,-0.0098107,0.0057929,2.3473e-05,0.0017449,-1.7362e-05,0,0,0.047361,-0.020141,0,-0.00040628,0,0,0,0.0057929,2.3421e-05,0.0017449,-0.17242,0.0025204,0.0051301,4.3938e-09,0.98,0.96,0
0.05,-0.0098197,0.0057893,2.3682e-05,0.0017439,-1.9269e-05,0,0,0.047331,-0.020126,0,-0.00045089,0,0,0,0.0057893,2.3617e-05,0.0017439,-0.19148,0.0025189,0.0051268,4.3856e-09,1,0.96,0
0,0,0.0089854,0.0038509,0.0038509,-0.0029026,0,0,0.060074,5.2042e-18,0,-0.06792,0,0,0,0.010293,0.0025431,0.0038509,-24.254,0.0055624,0.007186,1.695e-08,0,0.98,0
0.0012015,-0.0013584,0.0081871,0.00081028,0.0026992,-0.0018264,0,0,0.064208,-0.0221,0,-0.042738,0,0,0,0.0086145,0.00038284,0.0026992,-13.172,0.0038989,0.0073525,1.3791e-08,0.02,0.98,0
0.0025683,-0.0027063,0.008228,0.00064024,0.0026605,-0.0011911,0,0,0.06514,-0.023637,0,-0.027873,0,0,0,0.0084106,0.00045764,0.0026605,-8.7153,0.0038429,0.0071122,1.2677e-08,0.04,0.98,0
0.0038071,-0.003781,0.0073856,0.0003423,0.0023184,-0.00071198,0,0,0.059286,-0.02312,0,-0.01666,0,0,0,0.0074568,0.00027105,0.0023184,-5.7148,0.0033487,0.0064121,9.0328e-09,0.06,0.98,0
0.0049398,-0.0046853,0.0067683,0.00020286,0.0020914,-0.00046937,0,0,0.05472,-0.022095,0,-0.010983,0,0,0,0.0068017,0.00016948,0.0020914,-4.0686,0.0030208,0.0059105,6.9478e-09,0.08,0.98,0
0.0059959,-0.005453,0.0063373,0.00012938,0.00194,-0.00032076,0,0,0.051448,-0.021184,0,-0.0075059,0,0,0,0.0063538,0.00011285,0.00194,-2.95,0.0028022,0.0055574,5.7102e-09,0.1,0.98,0
0.0069977,-0.0061101,0.0060362,8.8898e-05,0.0018375,-0.00022435,0,0,0.049125,-0.020459,0,-0.0052498,0,0,0,0.0060447,8.0447e-05,0.0018375,-2.1573,0.0026542,0.0053084,4.9412e-09,0.12,0.98,0
0.0079609,-0.0066732,0.0058239,6.4746e-05,0.0017666,-0.00015663,0,0,0.04747,-0.019911,0,-0.0036653,0,0,0,0.0058281,6.0489e-05,0.0017666,-1.5568,0.0025517,0.0051319,4.4434e-09,0.14,0.98,0
0.0088965,-0.0071542,0.005675,4.9395e-05,0.0017173,-0.00010646,0,0,0.046305,-0.019515,0,-0.0024912,0,0,0,0.005677,4.7381e-05,0.0017173,-1.0838,0.0024806,0.005008,4.1159e-09,0.16,0.98,0
0.0098131,-0.0075622,0.0055736,3.908e-05,0.0016838,-6.7618e-05,0,0,0.04551,-0.019243,0,-0.0015823,0,0,0,0.0055744,3.8254e-05,0.0016838,-0.69988,0.0024322,0.0049241,3.9031e-09,0.18,0.98,0
0.010717,-0.0079047,0.0055091,3.1803e-05,0.0016623,-3.6532e-05,0,0,0.045008,-0.019076,0,-0.00085485,0,0,0,0.0055094,3.1559e-05,0.0016623,-0.38212,0.0024011,0.0048716,3.7728e-09,0.2,0.98,0
0.011613,-0.0081881,0.0054743,2.6425e-05,0.0016502,-1.1015e-05,0,0,0.044742,-0.018998,0,-0.00025776,0,0,0,0.0054743,2.6403e-05,0.0016502,-0.11585,0.0023836,0.0048446,3.7049e-09,0.22,0.98,0
0.012507,-0.0084179,0.0054637,2.2261e-05,0.0016458,1.0307e-05,0,0,0.04467,-0.018995,0,0.00024119,0,0,0,0.0054638,2.2241e-05,0.0016458,0.10853,0.0023773,0.0048385,3.6865e-09,0.24,0.98,0
0.0134,-0.0085994,0.0054734,1.8874e-05,0.0016477,2.8314e-05,0,0,0.044761,-0.019057,0,0.00066255,0,0,0,0.0054736,1.8727e-05,0.0016477,0.29741,0.00238,0.0048501,3.709e-09,0.26,0.98,0
0.014297,-0.0087374,0.0055001,1.5976e-05,0.0016548,4.3563e-05,0,0,0.04499,-0.019175,0,0.0010194,0,0,0,0.0055004,1.563e-05,0.0016548,0.45509,0.0023903,0.0048764,3.7663e-09,0.28,0.98,0
0.0152,-0.0088367,0.005541,1.3369e-05,0.0016663,5.6399e-05,0,0,0.045334,-0.019339,0,0.0013197,0,0,0,0.0055416,1.2794e-05,0.0016663,0.58451,0.0024069,0.0049153,3.8537e-09,0.3,0.98,0
0.01611,-0.0089017,0.0055938,1.0918e-05,0.0016814,6.7018e-05,0,0,0.045775,-0.019545,0,0.0015682,0,0,0,0.0055946,1.0113e-05,0.0016814,0.68766,0.0024287,0.0049645,3.9675e-09,0.32,0.98,0
0.017031,-0.0089371,0.0056562,8.5304e-06,0.0016994,7.552e-05,0,0,0.046294,-0.019783,0,0.0017672,0,0,0,0.0056572,7.5207e-06,0.0016994,0.76597,0.0024547,0.0050222,4.1043e-09,0.34,0.98,0
0.017962,-0.0089473,0.0057262,6.1494e-06,0.0017197,8.1936e-05,0,0,0.046876,-0.020048,0,0.0019173,0,0,0,0.0057273,4.976e-06,0.0017197,0.82051,0.002484,0.0050866,4.2609e-09,0.36,0.98,0
0.018906,-0.0089368,0.0058015,3.7455e-06,0.0017416,8.6259e-05,0,0,0.047502,-0.020333,0,0.0020185,0,0,0,0.0058028,2.4625e-06,0.0017416,0.85219,0.0025156,0.0051557,4.4337e-09,0.38,0.98,0
0.019862,-0.0089101,0.0058804,1.3142e-06,0.0017645,8.847e-05,0,0,0.048155,-0.020629,0,0.0020702,0,0,0,0.0058817,-1.6832e-08,0.0017645,0.86195,0.0025487,0.0052278,4.6191e-09,0.4,0.98,0
0.020832,-0.0088715,0.0059605,-1.1275e-06,0.0017878,8.8553e-05,0,0,0.048821,-0.020931,0,0.0020721,0,0,0,0.0059619,-2.4426e-06,0.0017878,0.85081,0.0025824,0.005301,4.8126e-09,0.42,0.98,0
0.021815,-0.0088253,0.0060401,-3.5441e-06,0.001811,8.6514e-05,0,0,0.049481,-0.02123,0,0.0020244,0,0,0,0.0060413,-4.7823e-06,0.001811,0.81997,0.0026158,0.0053735,5.0097e-09,0.44,0.98,0
0.022811,-0.0087757,0.006117,-5.8849e-06,0.0018333,8.24e-05,0,0,0.050119,-0.021519,0,0.0019282,0,0,0,0.0061181,-6.9936e-06,0.0018333,0.77088,0.0026481,0.0054435,5.2051e-09,0.46,0.98,0
0.02382,-0.0087265,0.0061894,-8.0886e-06,0.0018544,7.6302e-05,0,0,0.050719,-0.021791,0,0.0017855,0,0,0,0.0061903,-9.0279e-06,0.0018544,0.70527,0.0026786,0.0055093,5.3934e-09,0.48,0.98,0
0.02484,-0.0086814,0.0062554,-1.0088e-05,0.0018736,6.8371e-05,0,0,0.051267,-0.022039,0,0.0015999,0,0,0,0.0062562,-1.0834e-05,0.0018736,0.62512,0.0027063,0.0055693,5.569e-09,0.5,0.98,0
0.025871,-0.0086436,0.0063136,-1.1815e-05,0.0018905,5.8814e-05,0,0,0.05175,-0.022257,0,0.0013763,0,0,0,0.0063141,-1.2362e-05,0.0018905,0.53268,0.0027308,0.005622,5.7266e-09,0.52,0.98,0
0.02691,-0.0086159,0.0063624,-1.3207e-05,0.0019048,4.7897e-05,0,0,0.052155,-0.02244,0,0.0011208,0,0,0,0.0063628,-1.3567e-05,0.0019048,0.4304,0.0027513,0.0056662,5.8611e-09,0.54,0.98,0
0.027957,-0.0086007,0.0064009,-1.4211e-05,0.001916,3.5936e-05,0,0,0.052473,-0.022583,0,0.0008409,0,0,0,0.0064011,-1.4412e-05,0.001916,0.32094,0.0027676,0.0057009,5.9683e-09,0.56,0.98,0
0.029009,-0.0085997,0.0064281,-1.4787e-05,0.001924,2.3285e-05,0,0,0.052698,-0.022684,0,0.00054488,0,0,0,0.0064282,-1.4871e-05,0.001924,0.20707,0.0027791,0.0057254,6.0449e-09,0.58,0.98,0
0.030065,-0.0086142,0.0064437,-1.4916e-05,0.0019286,1.0327e-05,0,0,0.052826,-0.022739,0,0.00024166,0,0,0,0.0064437,-1.4933e-05,0.0019286,0.091616,0.0027858,0.0057392,6.0887e-09,0.6,0.98,0
0.031122,-0.0086448,0.0064474,-1.4596e-05,0.0019299,-2.5479e-06,0,0,0.052856,-0.02275,0,-5.9621e-05,0,0,0,0.0064474,-1.4597e-05,0.0019299,-0.022591,0.0027876,0.0057422,6.099e-09,0.62,0.98,0
0.032179,-0.0086915,0.0064396,-1.3846e-05,0.0019277,-1.4957e-05,0,0,0.052789,-0.022716,0,-0.00034999,0,0,0,0.0064396,-1.388e-05,0.0019277,-0.13279,0.0027845,0.0057348,6.0762e-09,0.64,0.98,0
0.033233,-0.0087538,0.0064208,-1.2703e-05,0.0019224,-2.6541e-05,0,0,0.052631,-0.022641,0,-0.00062105,0,0,0,0.0064209,-1.2812e-05,0.0019224,-0.23636,0.0027768,0.0057173,6.0223e-09,0.66,0.98,0
0.034284,-0.0088306,0.0063919,-1.1222e-05,0.0019142,-3.6981e-05,0,0,0.052389,-0.022527,0,-0.00086535,0,0,0,0.0063921,-1.1435e-05,0.0019142,-0.3309,0.0027649,0.0056905,5.9403e-09,0.68,0.98,0
0.035329,-0.0089205,0.006354,-9.4676e-06,0.0019034,-4.6011e-05,0,0,0.052073,-0.02238,0,-0.0010766,0,0,0,0.0063543,-9.8002e-06,0.0019034,-0.41425,0.0027493,0.0056557,5.8341e-09,0.7,0.98,0
0.036367,-0.0090214,0.0063085,-7.5149e-06,0.0018903,-5.3425e-05,0,0,0.051693,-0.022204,0,-0.0012501,0,0,0,0.006309,-7.9668e-06,0.0018903,-0.48459,0.0027304,0.0056139,5.7084e-09,0.72,0.98,0
0.037397,-0.0091311,0.006257,-5.4405e-06,0.0018755,-5.9082e-05,0,0,0.051264,-0.022007,0,-0.0013825,0,0,0,0.0062576,-5.9978e-06,0.0018755,-0.54049,0.002709,0.0055666,5.5681e-09,0.74,0.98,0
0.038418,-0.0092471,0.006201,-3.3192e-06,0.0018593,-6.291e-05,0,0,0.050798,-0.021793,0,-0.0014721,0,0,0,0.0062017,-3.957e-06,0.0018593,-0.58088,0.0026857,0.0055153,5.4184e-09,0.76,0.98,0
0.039429,-0.0093667,0.0061423,-1.2202e-06,0.0018423,-6.4897e-05,0,0,0.05031,-0.02157,0,-0.0015186,0,0,0,0.006143,-1.9057e-06,0.0018423,-0.60515,0.0026612,0.0054616,5.2643e-09,0.78,0.98,0
0.04043,-0.0094873,0.0060825,7.9637e-07,0.001825,-6.5087e-05,0,0,0.049813,-0.021343,0,-0.001523,0,0,0,0.0060832,9.9885e-08,0.001825,-0.61309,0.0026361,0.0054068,5.1103e-09,0.8,0.98,0
0.041421,-0.009606,0.0060233,2.6816e-06,0.0018078,-6.3575e-05,0,0,0.049321,-0.02112,0,-0.0014877,0,0,0,0.006024,2.0104e-06,0.0018078,-0.60493,0.0026112,0.0053526,4.9606e-09,0.82,0.98,0
0.042403,-0.0097202,0.0059661,4.3987e-06,0.0017911,-6.049e-05,0,0,0.048847,-0.020905,0,-0.0014155,0,0,0,0.0059667,3.785e-06,0.0017911,-0.58127,0.0025872,0.0053003,4.8189e-09,0.84,0.98,0
0.043375,-0.0098274,0.0059123,5.9224e-06,0.0017755,-5.5989e-05,0,0,0.048401,-0.020704,0,-0.0013101,0,0,0,0.0059128,5.3917e-06,0.0017755,-0.54307,0.0025646,0.0052511,4.6882e-09,0.86,0.98,0
0.044339,-0.0099253,0.0058632,7.2383e-06,0.0017611,-5.0248e-05,0,0,0.047994,-0.02052,0,-0.0011758,0,0,0,0.0058636,6.8072e-06,0.0017611,-0.49159,0.0025438,0.0052062,4.5709e-09,0.88,0.98,0
0.045295,-0.010012,0.0058198,8.3407e-06,0.0017484,-4.3451e-05,0,0,0.047635,-0.020359,0,-0.0010167,0,0,0,0.0058201,8.0158e-06,0.0017484,-0.42835,0.0025255,0.0051666,4.4689e-09,0.9,0.98,0
0.046244,-0.010085,0.0057831,9.2303e-06,0.0017377,-3.5782e-05,0,0,0.047331,-0.020223,0,-0.0008373,0,0,0,0.0057833,9.0085e-06,0.0017377,-0.35506,0.00251,0.0051331,4.3838e-09,0.92,0.98,0
0.047188,-0.010144,0.0057538,9.9119e-06,0.0017291,-2.7427e-05,0,0,0.047089,-0.020115,0,-0.00064178,0,0,0,0.0057539,9.7809e-06,0.0017291,-0.27358,0.0024976,0.0051064,4.3167e-09,0.94,0.98,0
0.048128,-0.010187,0.0057325,1.0392e-05,0.0017229,-1.8563e-05,0,0,0.046913,-0.020036,0,-0.00043438,0,0,0,0.0057325,1.0332e-05,0.0017229,-0.18587,0.0024886,0.0050869,4.2682e-09,0.96,0.98,0
0.049065,-0.010213,0.0057195,1.0677e-05,0.0017191,-9.3646e-06,0,0,0.046805,-0.019988,0,-0.00021913,0,0,0,0.0057195,1.0662e-05,0.0017191,-0.093986,0.0024831,0.0050751,4.239e-09,0.98,0.98,0
0.05,-0.010221,0.0057152,1.0772e-05,0.0017178,-1.8633e-05,0,0,0.046769,-0.019972,0,-0.00043602,0,0,0,0.0057152,1.0711e-05,0.0017178,-0.18715,0.0024812,0.0050713,4.2294e-09,1,0.98,0
0,0,0.015101,0.006472,0.006472,-0.0042574,0,0,0.10096,0,0,-0.099624,0,0,0,0.016848,0.0047251,0.006472,-22.309,0.0093484,0.011351,6.9153e-08,0,1,0
0.0020193,-0.0019925,0.010843,0.00077591,0.0034856,-0.0016914,0,0,0.08608,-0.031704,0,-0.039579,0,0,0,0.011119,0.00049932,0.0034856,-9.2871,0.0050348,0.0094863,2.9643e-08,0.02,1,0
0.0034432,-0.0032187,0.0080348,0.00031495,0.0025049,-0.00055231,0,0,0.0647,-0.025623,0,-0.012924,0,0,0,0.0080741,0.00027563,0.0025049,-4.0715,0.0036182,0.0069571,1.1497e-08,0.04,1,0
0.0046072,-0.0042591,0.0067297,-3.4876e-05,0.0020085,-0.00032993,0,0,0.055239,-0.023907,0,-0.0077204,0,0,0,0.0067458,-5.093e-05,0.0020085,-2.7857,0.0029011,0.0060365,7.0245e-09,0.06,1,0
0.0056527,-0.0051279,0.0061275,-7.5668e-05,0.0018155,-0.00019976,0,0,0.05045,-0.022127,0,-0.0046744,0,0,0,0.0061339,-8.2094e-05,0.0018155,-1.8426,0.0026224,0.0055176,5.3133e-09,0.08,1,0
0.0066252,-0.005872,0.0057526,-9.2611e-05,0.001698,-0.0001342,0,0,0.047439,-0.02095,0,-0.0031402,0,0,0,0.0057557,-9.569e-05,0.001698,-1.3145,0.0024527,0.0051923,4.4044e-09,0.1,1,0
0.0075503,-0.0065122,0.0055095,-9.3094e-05,0.0016249,-9.2056e-05,0,0,0.04545,-0.020101,0,-0.0021541,0,0,0,0.005511,-9.4607e-05,0.0016249,-0.94109,0.0023471,0.004974,3.8684e-09,0.12,1,0
0.0084432,-0.0070633,0.0053469,-8.9961e-05,0.0015771,-6.3245e-05,0,0,0.044107,-0.019504,0,-0.0014799,0,0,0,0.0053476,-9.0696e-05,0.0015771,-0.66638,0.002278,0.0048256,3.5337e-09,0.14,1,0
0.0093146,-0.007536,0.005241,-8.5163e-05,0.0015467,-4.2031e-05,0,0,0.043222,-0.019093,0,-0.00098352,0,0,0,0.0052413,-8.5494e-05,0.0015467,-0.45211,0.0022342,0.004727,3.3249e-09,0.16,1,0
0.010172,-0.0079387,0.0051774,-7.9807e-05,0.0015293,-2.5675e-05,0,0,0.042683,-0.018826,0,-0.00060079,0,0,0,0.0051776,-7.9933e-05,0.0015293,-0.27981,0.002209,0.0046659,3.2022e-09,0.18,1,0
0.011022,-0.0082782,0.0051472,-7.4241e-05,0.0015219,-1.2593e-05,0,0,0.042416,-0.018675,0,-0.00029467,0,0,0,0.0051473,-7.4271e-05,0.0015219,-0.13818,0.0021983,0.0046344,3.143e-09,0.2,1,0
0.011869,-0.0085604,0.0051441,-6.861e-05,0.0015226,-1.8459e-06,0,0,0.042371,-0.018618,0,-4.3194e-05,0,0,0,0.0051441,-6.861e-05,0.0015226,-0.020289,0.0021994,0.0046271,3.1338e-09,0.22,1,0
0.012717,-0.0087907,0.0051636,-6.2963e-05,0.0015302,7.1494e-06,0,0,0.042511,-0.01864,0,0.0001673,0,0,0,0.0051636,-6.2972e-05,0.0015302,0.078374,0.0022103,0.0046399,3.1658e-09,0.24,1,0
0.013569,-0.008974,0.0052022,-5.7312e-05,0.0015435,1.4761e-05,0,0,0.042807,-0.018729,0,0.0003454,0,0,0,0.0052023,-5.7353e-05,0.0015435,0.1608,0.0022295,0.0046697,3.2335e-09,0.26,1,0
0.014429,-0.009115,0.0052571,-5.166e-05,0.0015616,2.1219e-05,0,0,0.043237,-0.018876,0,0.00049652,0,0,0,0.0052572,-5.1744e-05,0.0015616,0.229,0.0022557,0.0047141,3.333e-09,0.28,1,0
0.015299,-0.0092181,0.0053259,-4.6006e-05,0.001584,2.6663e-05,0,0,0.043781,-0.019071,0,0.0006239,0,0,0,0.005326,-4.6139e-05,0.001584,0.28437,0.0022879,0.0047708,3.4613e-09,0.3,1,0
0.01618,-0.0092879,0.0054063,-4.036e-05,0.0016098,3.1168e-05,0,0,0.044419,-0.019307,0,0.00072933,0,0,0,0.0054065,-4.0538e-05,0.0016098,0.32786,0.0023252,0.0048378,3.6161e-09,0.32,1,0
0.017076,-0.0093286,0.0054962,-3.4737e-05,0.0016384,3.477e-05,0,0,0.045136,-0.019576,0,0.00081362,0,0,0,0.0054964,-3.4956e-05,0.0016384,0.36017,0.0023666,0.0049132,3.795e-09,0.34,1,0
0.017986,-0.0093447,0.0055934,-2.9164e-05,0.0016693,3.7475e-05,0,0,0.045912,-0.019872,0,0.0008769,0,0,0,0.0055936,-2.9413e-05,0.0016693,0.38186,0.0024111,0.0049952,3.9954e-09,0.36,1,0
0.018912,-0.0093405,0.0056957,-2.3677e-05,0.0017016,3.9273e-05,0,0,0.046731,-0.020186,0,0.00091898,0,0,0,0.005696,-2.3947e-05,0.0017016,0.3934,0.0024579,0.0050818,4.2141e-09,0.38,1,0
0.019855,-0.0093203,0.005801,-1.8323e-05,0.0017348,4.0149e-05,0,0,0.047575,-0.020512,0,0.00093949,0,0,0,0.0058013,-1.86e-05,0.0017348,0.39527,0.0025058,0.0051712,4.4474e-09,0.4,1,0
0.020815,-0.0092883,0.0059069,-1.3156e-05,0.0017681,4.0092e-05,0,0,0.048424,-0.020841,0,0.00093816,0,0,0,0.0059072,-1.3427e-05,0.0017681,0.388,0.002554,0.0052612,4.6908e-09,0.42,1,0
0.021792,-0.0092486,0.0060111,-8.2361e-06,0.0018009,3.9101e-05,0,0,0.04926,-0.021166,0,0.00091497,0,0,0,0.0060114,-8.49e-06,0.0018009,0.37217,0.0026012,0.0053498,4.9388e-09,0.44,1,0
0.022785,-0.0092053,0.0061112,-3.6276e-06,0.0018323,3.7193e-05,0,0,0.050064,-0.02148,0,0.00087032,0,0,0,0.0061115,-3.8538e-06,0.0018323,0.34848,0.0026466,0.0054351,5.1853e-09,0.46,1,0
0.023794,-0.009162,0.006205,6.0435e-07,0.0018617,3.4407e-05,0,0,0.050817,-0.021775,0,0.00080511,0,0,0,0.0062052,4.1356e-07,0.0018617,0.31772,0.0026891,0.005515,5.4236e-09,0.48,1,0
0.024818,-0.0091223,0.0062903,4.3965e-06,0.0018884,3.0806e-05,0,0,0.051502,-0.022043,0,0.00072087,0,0,0,0.0062905,4.2456e-06,0.0018884,0.28079,0.0027277,0.0055877,5.6466e-09,0.5,1,0
0.025854,-0.0090892,0.0063652,7.6909e-06,0.0019119,2.6484e-05,0,0,0.052104,-0.022279,0,0.00061973,0,0,0,0.0063653,7.5806e-06,0.0019119,0.23868,0.0027616,0.0056515,5.8472e-09,0.52,1,0
0.026902,-0.0090654,0.0064279,1.0437e-05,0.0019315,2.1557e-05,0,0,0.052608,-0.022476,0,0.00050444,0,0,0,0.006428,1.0365e-05,0.0019315,0.19246,0.0027899,0.005705,6.0189e-09,0.54,1,0
0.027959,-0.0090533,0.0064771,1.2597e-05,0.0019469,1.6167e-05,0,0,0.053003,-0.022631,0,0.00037831,0,0,0,0.0064771,1.2557e-05,0.0019469,0.14329,0.0028122,0.005747,6.1558e-09,0.56,1,0
0.029022,-0.0090545,0.0065118,1.4143e-05,0.0019578,1.0473e-05,0,0,0.053282,-0.022741,0,0.00024505,0,0,0,0.0065118,1.4126e-05,0.0019578,0.092345,0.0028279,0.0057765,6.2537e-09,0.58,1,0
0.03009,-0.0090703,0.0065314,1.5065e-05,0.0019639,4.6438e-06,0,0,0.053439,-0.022802,0,0.00010867,0,0,0,0.0065314,1.5061e-05,0.0019639,0.040831,0.0028368,0.0057932,6.3095e-09,0.6,1,0
0.03116,-0.0091011,0.0065359,1.5365e-05,0.0019654,-1.1433e-06,0,0,0.053475,-0.022815,0,-2.6753e-05,0,0,0,0.0065359,1.5365e-05,0.0019654,-0.010046,0.0028389,0.005797,6.3222e-09,0.62,1,0
0.032229,-0.0091471,0.0065256,1.5065e-05,0.0019622,-6.7171e-06,0,0,0.053392,-0.022781,0,-0.00015718,0,0,0,0.0065256,1.5058e-05,0.0019622,-0.059113,0.0028343,0.0057881,6.2926e-09,0.64,1,0
0.033295,-0.0092079,0.0065013,1.4199e-05,0.0019546,-1.1917e-05,0,0,0.053196,-0.022703,0,-0.00027885,0,0,0,0.0065013,1.4177e-05,0.0019546,-0.10525,0.0028234,0.0057672,6.2234e-09,0.66,1,0
0.034357,-0.0092823,0.0064641,1.2817e-05,0.0019431,-1.6599e-05,0,0,0.052896,-0.022584,0,-0.00038842,0,0,0,0.0064642,1.2775e-05,0.0019431,-0.14742,0.0028067,0.0057353,6.1187e-09,0.68,1,0
0.035411,-0.009369,0.0064156,1.0981e-05,0.001928,-2.0645e-05,0,0,0.052505,-0.022429,0,-0.0004831,0,0,0,0.0064157,1.0914e-05,0.001928,-0.18469,0.0027849,0.0056937,5.9839e-09,0.7,1,0
0.036457,-0.0094662,0.0063576,8.7611e-06,0.0019099,-2.3963e-05,0,0,0.052038,-0.022243,0,-0.00056074,0,0,0,0.0063577,8.6707e-06,0.0019099,-0.21626,0.0027588,0.0056439,5.8252e-09,0.72,1,0
0.037493,-0.0095718,0.0062921,6.237e-06,0.0018895,-2.6491e-05,0,0,0.05151,-0.022034,0,-0.00061989,0,0,0,0.0062922,6.1253e-06,0.0018895,-0.24146,0.0027293,0.0055877,5.6493e-09,0.74,1,0
0.038518,-0.0096832,0.0062211,3.4915e-06,0.0018674,-2.8197e-05,0,0,0.050938,-0.021807,0,-0.0006598,0,0,0,0.0062212,3.3636e-06,0.0018674,-0.25983,0.0026973,0.0055268,5.4629e-09,0.76,1,0
0.03953,-0.0097981,0.0061468,6.0946e-07,0.0018442,-2.9076e-05,0,0,0.05034,-0.02157,0,-0.00068037,0,0,0,0.0061469,4.7191e-07,0.0018442,-0.27104,0.0026639,0.0054631,5.2722e-09,0.78,1,0
0.040531,-0.0099139,0.0060713,-2.3255e-06,0.0018207,-2.915e-05,0,0,0.049732,-0.02133,0,-0.00068211,0,0,0,0.0060715,-2.4654e-06,0.0018207,-0.27498,0.0026299,0.0053984,5.083e-09,0.8,1,0
0.04152,-0.010028,0.0059968,-5.233e-06,0.0017975,-2.8462e-05,0,0,0.049132,-0.021091,0,-0.000666,0,0,0,0.0059969,-5.3679e-06,0.0017975,-0.27169,0.0025963,0.0053345,4.9005e-09,0.82,1,0
0.042496,-0.010137,0.0059249,-8.0378e-06,0.0017751,-2.707e-05,0,0,0.048553,-0.020862,0,-0.00063345,0,0,0,0.0059251,-8.1613e-06,0.0017751,-0.26142,0.002564,0.0052728,4.729e-09,0.84,1,0
0.043462,-0.01024,0.0058576,-1.0672e-05,0.0017541,-2.5048e-05,0,0,0.048011,-0.020647,0,-0.00058611,0,0,0,0.0058577,-1.0779e-05,0.0017541,-0.24455,0.0025337,0.005215,4.5717e-09,0.86,1,0
0.044417,-0.010334,0.0057962,-1.3074e-05,0.0017349,-2.2472e-05,0,0,0.047517,-0.020452,0,-0.00052584,0,0,0,0.0057963,-1.3161e-05,0.0017349,-0.22163,0.002506,0.0051624,4.4315e-09,0.88,1,0
0.045363,-0.010417,0.0057421,-1.5193e-05,0.0017181,-1.9426e-05,0,0,0.047081,-0.020279,0,-0.00045457,0,0,0,0.0057422,-1.5258e-05,0.0017181,-0.19332,0.0024817,0.005116,4.3103e-09,0.9,1,0
0.0463,-0.010488,0.0056964,-1.6984e-05,0.0017038,-1.5994e-05,0,0,0.046713,-0.020133,0,-0.00037425,0,0,0,0.0056965,-1.7028e-05,0.0017038,-0.16039,0.0024611,0.0050767,4.2097e-09,0.92,1,0
0.047231,-0.010544,0.00566,-1.8412e-05,0.0016925,-1.2256e-05,0,0,0.04642,-0.020017,0,-0.0002868,0,0,0,0.00566,-1.8438e-05,0.0016925,-0.12367,0.0024447,0.0050455,4.1306e-09,0.94,1,0
0.048157,-0.010585,0.0056335,-1.9451e-05,0.0016842,-8.2942e-06,0,0,0.046207,-0.019933,0,-0.00019408,0,0,0,0.0056335,-1.9463e-05,0.0016842,-0.084066,0.0024328,0.0050227,4.0737e-09,0.96,1,0
0.049079,-0.01061,0.0056174,-2.0082e-05,0.0016792,-4.1838e-06,0,0,0.046077,-0.019882,0,-9.7902e-05,0,0,0,0.0056174,-2.0085e-05,0.0016792,-0.042521,0.0024255,0.0050089,4.0394e-09,0.98,1,0
0.05,-0.010619,0.0056121,-2.0294e-05,0.0016775,-1.7899e-05,0,0,0.046034,-0.019865,0,-0.00041883,0,0,0,0.0056121,-2.0351e-05,0.0016775,-0.18208,0.0024231,0.0050044,4.0281e-09,1,1,0
