"Displacements:0","Displacements:1","Displacements:2","Stress/Strain:0","Stress/Strain:1","Stress/Strain:2","Stress/Strain:3","Stress/Strain:4","Stress/Strain:5","Stress/Strain:6","Stress/Strain:7","Stress/Strain:8","Stress/Strain:9","Stress/Strain:10","Stress/Strain:11","Stress/Strain:12","Stress/Strain:13","Stress/Strain:14","Stress/Strain:15","Principal Stress:0","Principal Stress:1","Principal Stress:2","Principal Stress:3","Principal Stress:4","Principal Stress:5","Principal Stress:6","nodes:0","nodes:1","nodes:2"
0,0,1,-1.2995,-1.9855,-1.9855,-6.0014e-18,0,0,0.8918,3.5025e-17,0,-1.5604e-17,0,0,1,0,0,1,-1.2995,-1.9855,-1.9855,-5.0124e-16,-1.7568,0.686,0.016581,0,0,0
0.017836,0,0.98,-1.274,-1.946,-1.946,6.5239e-17,0,0,0.8736,-3.6325e-17,0,1.6962e-16,0,0,1,5.5033e-15,0,1,-1.274,-1.946,-1.946,5.5623e-15,-1.722,0.672,0.015586,0.02,0,0
0.034944,0,0.96,-1.273,-1.917,-1.917,1.4726e-16,0,0,0.8372,-3.5706e-16,0,3.8287e-16,0,0,1,-3.7269e-15,0,1,-1.273,-1.917,-1.917,1.3101e-14,-1.7023,0.644,0.013718,0.04,0,0
0.051324,0,0.94,-1.272,-1.888,-1.888,-2.4951e-16,0,0,0.8008,-1.1103e-16,0,-6.4873e-16,0,0,1,5.4395e-15,0,1,-1.272,-1.888,-1.888,-2.3208e-14,-1.6827,0.616,0.012005,0.06,0,0
0.066976,0,0.92,-1.271,-1.859,-1.859,4.552e-16,0,0,0.7644,1.0984e-15,0,1.1835e-15,0,0,1,-4.1391e-15,0,1,-1.271,-1.859,-1.859,4.4356e-14,-1.663,0.588,0.010441,0.08,0,0
0.0819,0,0.9,-1.27,-1.83,-1.83,4.6889e-17,0,0,0.728,-3.6048e-16,0,1.2191e-16,0,0,1,3.251e-15,0,1,-1.27,-1.83,-1.83,4.7974e-15,-1.6433,0.56,0.0090197,0.1,0,0
0.096096,0,0.88,-1.269,-1.801,-1.801,-3.1259e-17,0,0,0.6916,-4.3359e-16,0,-8.1274e-17,0,0,1,0,0,1,-1.269,-1.801,-1.801,-3.3666e-15,-1.6237,0.532,0.0077332,0.12,0,0
0.10956,0,0.86,-1.268,-1.772,-1.772,-8.3759e-18,0,0,0.6552,-5.0251e-16,0,-2.1777e-17,0,0,1,6.6294e-15,0,1,-1.268,-1.772,-1.772,-9.5219e-16,-1.604,0.504,0.0065753,0.14,0,0
0.1223,0,0.84,-1.267,-1.743,-1.743,-1.5936e-16,0,0,0.6188,1.755e-15,0,-4.1434e-16,0,0,1,-4.6789e-15,0,1,-1.267,-1.743,-1.743,-1.9182e-14,-1.5843,0.476,0.0055392,0.16,0,0
0.13432,0,0.82,-1.266,-1.714,-1.714,3.698e-16,0,0,0.5824,-7.0465e-16,0,9.6148e-16,0,0,1,6.5019e-16,0,1,-1.266,-1.714,-1.714,4.7295e-14,-1.5647,0.448,0.0046181,0.18,0,0
0.1456,0,0.8,-1.265,-1.685,-1.685,6.865e-17,0,0,0.546,-8.1986e-16,0,1.7849e-16,0,0,1,-8.8818e-16,0,1,-1.265,-1.685,-1.685,9.3651e-15,-1.545,0.42,0.0038052,0.2,0,0
0.15616,0,0.78,-1.264,-1.656,-1.656,6.2518e-17,0,0,0.5096,1.3833e-15,0,1.6255e-16,0,0,1,-8.4058e-15,0,1,-1.264,-1.656,-1.656,9.1379e-15,-1.5253,0.392,0.0030937,0.22,0,0
0.16598,0,0.76,-1.263,-1.627,-1.627,-4.2701e-16,0,0,0.4732,-8.9413e-16,0,-1.1102e-15,0,0,1,4.4409e-15,0,1,-1.263,-1.627,-1.627,-6.7214e-14,-1.5057,0.364,0.002477,0.24,0,0
0.17508,0,0.74,-1.262,-1.598,-1.598,-1.0829e-16,0,0,0.4368,-6.7332e-16,0,-2.8154e-16,0,0,1,0,0,1,-1.262,-1.598,-1.598,-1.8465e-14,-1.486,0.336,0.0019482,0.26,0,0
0.18346,0,0.72,-1.261,-1.569,-1.569,-4.6051e-16,0,0,0.4004,-1.7857e-15,0,-1.1973e-15,0,0,1,3.3147e-15,0,1,-1.261,-1.569,-1.569,-8.5667e-14,-1.4663,0.308,0.0015006,0.28,0,0
0.1911,0,0.7,-1.26,-1.54,-1.54,-3.1872e-16,0,0,0.364,1.73e-15,0,-8.2868e-16,0,0,1,-8.8818e-16,0,1,-1.26,-1.54,-1.54,-6.522e-14,-1.4467,0.28,0.0011275,0.3,0,0
0.19802,0,0.68,-1.259,-1.511,-1.511,6.2518e-17,0,0,0.3276,1.0145e-15,0,1.6255e-16,0,0,1,0,0,1,-1.259,-1.511,-1.511,1.4215e-14,-1.427,0.252,0.00082192,0.32,0,0
0.2042,0,0.66,-1.258,-1.482,-1.482,7.927e-17,0,0,0.2912,1.4307e-15,0,2.061e-16,0,0,1,-2.4265e-15,0,1,-1.258,-1.482,-1.482,2.0276e-14,-1.4073,0.224,0.00057726,0.34,0,0
0.20966,0,0.64,-1.257,-1.453,-1.453,-2.9584e-16,0,0,0.2548,-1.4209e-15,0,-7.6918e-16,0,0,1,-2.4265e-15,0,1,-1.257,-1.453,-1.453,-8.6482e-14,-1.3877,0.196,0.00038672,0.36,0,0
0.2144,0,0.62,-1.256,-1.424,-1.424,6.2518e-17,0,0,0.2184,-1.1793e-15,0,1.6255e-16,0,0,1,0,0,1,-1.256,-1.424,-1.424,2.1322e-14,-1.368,0.168,0.00024353,0.38,0,0
0.2184,0,0.6,-1.255,-1.395,-1.395,-1.8755e-16,0,0,0.182,-1.7028e-15,0,-4.8764e-16,0,0,1,1.3004e-15,0,1,-1.255,-1.395,-1.395,-7.6758e-14,-1.3483,0.14,0.00014093,0.4,0,0
0.22168,0,0.58,-1.254,-1.366,-1.366,4.5767e-17,0,0,0.1456,1.3571e-15,0,1.1899e-16,0,0,1,-6.9546e-15,0,1,-1.254,-1.366,-1.366,2.3413e-14,-1.3287,0.112,7.2157e-05,0.42,0,0
0.22422,0,0.56,-1.253,-1.337,-1.337,-6.2518e-17,0,0,0.1092,1.028e-15,0,-1.6255e-16,0,0,1,-5.6308e-16,0,1,-1.253,-1.337,-1.337,-4.2643e-14,-1.309,0.084,3.0441e-05,0.44,0,0
0.22604,0,0.54,-1.252,-1.308,-1.308,1.2504e-16,0,0,0.0728,1.7891e-15,0,3.251e-16,0,0,1,1.0072e-15,0,1,-1.252,-1.308,-1.308,1.2793e-13,-1.2893,0.056,9.0196e-06,0.46,0,0
0.22714,0,0.52,-1.251,-1.279,-1.279,1.8755e-16,0,0,0.0364,-1.447e-15,0,4.8764e-16,0,0,1,-6.8208e-16,0,1,-1.251,-1.279,-1.279,3.8379e-13,-1.2697,0.028,1.1275e-06,0.48,0,0
0.2275,0,0.5,-1.25,-1.25,-1.25,-6.2518e-17,0,0,4.4062e-16,-6.7207e-16,0,-1.6255e-16,0,0,1,0,0,1,-1.25,-1.25,-1.25,-2.6808,-1.25,1.1538e-15,0,0.5,0,0
0.22714,0,0.48,-1.249,-1.221,-1.221,2.4652e-32,0,0,-0.0364,-4.2509e-16,0,9.8608e-32,0,0,1,0,0,1,-1.221,-1.249,-1.221,90,-1.2303,0.028,-1.1275e-06,0.52,0,0
0.22604,0,0.46,-1.248,-1.192,-1.192,1.6752e-17,0,0,-0.0728,-8.3905e-16,0,4.3555e-17,0,0,1,-5.6308e-16,0,1,-1.192,-1.248,-1.192,90,-1.2107,0.056,-9.0196e-06,0.54,0,0
0.22422,0,0.44,-1.247,-1.163,-1.163,3.6449e-16,0,0,-0.1092,-2.214e-15,0,9.4767e-16,0,0,1,-2.7516e-15,0,1,-1.163,-1.247,-1.163,90,-1.191,0.084,-3.0441e-05,0.56,0,0
0.22168,0,0.42,-1.246,-1.134,-1.134,-1.2688e-15,0,0,-0.1456,2.5416e-15,0,-3.2988e-15,0,0,1,2.4265e-15,0,1,-1.134,-1.246,-1.134,-90,-1.1713,0.112,-7.2157e-05,0.58,0,0
0.2184,0,0.4,-1.245,-1.105,-1.105,-1.708e-16,0,0,-0.182,1.4107e-15,0,-4.4409e-16,0,0,1,0,0,1,-1.105,-1.245,-1.105,-90,-1.1517,0.14,-0.00014093,0.6,0,0
0.2144,0,0.38,-1.244,-1.076,-1.076,0,0,0,-0.2184,1.2547e-15,0,0,0,0,1,0,0,1,-1.076,-1.244,-1.076,90,-1.132,0.168,-0.00024353,0.62,0,0
0.20966,0,0.36,-1.243,-1.047,-1.047,0,0,0,-0.2548,1.3987e-15,0,0,0,0,1,0,0,1,-1.047,-1.243,-1.047,90,-1.1123,0.196,-0.00038672,0.64,0,0
0.2042,0,0.34,-1.242,-1.018,-1.018,1.708e-16,0,0,-0.2912,1.3718e-15,0,4.4409e-16,0,0,1,0,0,1,-1.018,-1.242,-1.018,90,-1.0927,0.224,-0.00057726,0.66,0,0
0.19802,0,0.32,-1.241,-0.989,-0.989,8.5402e-17,0,0,-0.3276,2.5561e-15,0,2.2204e-16,0,0,1,-1.4513e-15,0,1,-0.989,-1.241,-0.989,90,-1.073,0.252,-0.00082192,0.68,0,0
0.1911,0,0.3,-1.24,-0.96,-0.96,3.3548e-16,0,0,-0.364,-1.9804e-15,0,8.7224e-16,0,0,1,1.3758e-15,0,1,-0.96,-1.24,-0.96,90,-1.0533,0.28,-0.0011275,0.7,0,0
0.18346,0,0.28,-1.239,-0.931,-0.931,-6.2518e-17,0,0,-0.4004,-9.0511e-16,0,-1.6255e-16,0,0,1,-4.8966e-15,0,1,-0.931,-1.239,-0.931,-90,-1.0337,0.308,-0.0015006,0.72,0,0
0.17508,0,0.26,-1.238,-0.902,-0.902,0,0,0,-0.4368,-1.003e-15,0,0,0,0,1,2.9142e-15,0,1,-0.902,-1.238,-0.902,90,-1.014,0.336,-0.0019482,0.74,0,0
0.16598,0,0.24,-1.237,-0.873,-0.873,0,0,0,-0.4732,-7.0513e-16,0,0,0,0,1,2.8154e-16,0,1,-0.873,-1.237,-0.873,90,-0.99433,0.364,-0.002477,0.76,0,0
0.15616,0,0.22,-1.236,-0.844,-0.844,6.2518e-17,0,0,-0.5096,-1.1296e-15,0,1.6255e-16,0,0,1,3.251e-16,0,1,-0.844,-1.236,-0.844,90,-0.97467,0.392,-0.0030937,0.78,0,0
0.1456,0,0.2,-1.235,-0.815,-0.815,-1.2504e-16,0,0,-0.546,-2.0226e-15,0,-3.251e-16,0,0,1,-1.6414e-15,0,1,-0.815,-1.235,-0.815,-90,-0.955,0.42,-0.0038052,0.8,0,0
0.13432,0,0.18,-1.234,-0.786,-0.786,3.5305e-16,0,0,-0.5824,1.9957e-15,0,9.1793e-16,0,0,1,2.9301e-15,0,1,-0.786,-1.234,-0.786,90,-0.93533,0.448,-0.0046181,0.82,0,0
0.1223,0,0.16,-1.233,-0.757,-0.757,-7.396e-17,0,0,-0.6188,8.8623e-16,0,-1.923e-16,0,0,1,0,0,1,-0.757,-1.233,-0.757,-90,-0.91567,0.476,-0.0055392,0.84,0,0
0.10956,0,0.14,-1.232,-0.728,-0.728,3.1259e-17,0,0,-0.6552,7.0073e-16,0,8.1274e-17,0,0,1,0,0,1,-0.728,-1.232,-0.728,90,-0.896,0.504,-0.0065753,0.86,0,0
0.096096,0,0.12,-1.231,-0.699,-0.699,-8.5402e-17,0,0,-0.6916,8.0324e-16,0,-2.2204e-16,0,0,1,0,0,1,-0.699,-1.231,-0.699,-90,-0.87633,0.532,-0.0077332,0.88,0,0
0.0819,0,0.1,-1.23,-0.67,-0.67,-3.5989e-16,0,0,-0.728,9.8006e-16,0,-9.3572e-16,0,0,1,-8.1274e-17,0,1,-0.67,-1.23,-0.67,-90,-0.85667,0.56,-0.0090197,0.9,0,0
0.066976,0,0.08,-1.229,-0.641,-0.641,2.5886e-16,0,0,-0.7644,2.0722e-15,0,6.7304e-16,0,0,1,-8.9245e-17,0,1,-0.641,-1.229,-0.641,90,-0.837,0.588,-0.010441,0.92,0,0
0.051324,0,0.06,-1.228,-0.612,-0.612,3.271e-16,0,0,-0.8008,-1.9373e-15,0,8.5046e-16,0,0,1,-7.3652e-16,0,1,-0.612,-1.228,-0.612,90,-0.81733,0.616,-0.012005,0.94,0,0
0.034944,0,0.04,-1.227,-0.583,-0.583,-1.6677e-17,0,0,-0.8372,-7.2695e-16,0,-4.3359e-17,0,0,1,-5.1526e-17,0,1,-0.583,-1.227,-0.583,-90,-0.79767,0.644,-0.013718,0.96,0,0
0.017836,0,0.02,-1.226,-0.554,-0.554,-9.4787e-17,0,0,-0.8736,-4.747e-16,0,-2.4645e-16,0,0,1,2.9316e-16,0,1,-0.554,-1.226,-0.554,-90,-0.778,0.672,-0.015586,0.98,0,0
0,0,0,-1.2005,-0.5145,-0.5145,2.5258e-17,0,0,-0.8918,-3.181e-16,0,6.567e-17,0,0,1,-5.4443e-18,0,1,-0.5145,-1.2005,-0.5145,90,-0.74317,0.686,-0.016581,1,0,0
0,7.0049e-19,1,-1.2995,-1.9855,-1.9855,-6.3145e-17,0,0,0.8918,3.8526e-17,0,-1.6418e-16,0,0,1,0,0,1,-1.2995,-1.9855,-1.9855,-5.2739e-15,-1.7568,0.686,0.016581,0,0.02,0
0.017836,-7.265e-19,0.98,-1.274,-1.946,-1.946,-4.4393e-17,0,0,0.8736,-3.8901e-17,0,-1.1542e-16,0,0,1,5.5033e-15,0,1,-1.274,-1.946,-1.946,-3.785e-15,-1.722,0.672,0.015586,0.02,0.02,0
0.034944,-7.1413e-18,0.96,-1.273,-1.917,-1.917,5.1703e-17,0,0,0.8372,-2.1429e-16,0,1.3443e-16,0,0,1,-5.7094e-15,0,1,-1.273,-1.917,-1.917,4.5999e-15,-1.7023,0.644,0.013718,0.04,0.02,0
0.051324,-2.2206e-18,0.94,-1.272,-1.888,-1.888,1.0114e-17,0,0,0.8008,-1.2724e-16,0,2.6297e-17,0,0,1,4.9721e-15,0,1,-1.272,-1.888,-1.888,9.4074e-16,-1.6827,0.616,0.012005,0.06,0.02,0
0.066976,2.1968e-17,0.92,-1.271,-1.859,-1.859,3.9478e-16,0,0,0.7644,5.4421e-16,0,1.0264e-15,0,0,1,-1.1776e-14,0,1,-1.271,-1.859,-1.859,3.8468e-14,-1.663,0.588,0.010441,0.08,0.02,0
0.0819,-7.2095e-18,0.9,-1.27,-1.83,-1.83,-3.7991e-16,0,0,0.728,-2.5916e-16,0,-9.8778e-16,0,0,1,3.5208e-15,0,1,-1.27,-1.83,-1.83,-3.8871e-14,-1.6433,0.56,0.0090197,0.1,0.02,0
0.096096,-8.6718e-18,0.88,-1.269,-1.801,-1.801,-8.5402e-17,0,0,0.6916,-1.9692e-16,0,-2.2204e-16,0,0,1,0,0,1,-1.269,-1.801,-1.801,-9.1977e-15,-1.6237,0.532,0.0077332,0.12,0.02,0
0.10956,-1.005e-17,0.86,-1.268,-1.772,-1.772,1.8797e-16,0,0,0.6552,-2.301e-16,0,4.8871e-16,0,0,1,2.4265e-15,0,1,-1.268,-1.772,-1.772,2.1368e-14,-1.604,0.504,0.0065753,0.14,0.02,0
0.1223,3.5101e-17,0.84,-1.267,-1.743,-1.743,2.9165e-16,0,0,0.6188,1.0586e-15,0,7.583e-16,0,0,1,-9.7529e-16,0,1,-1.267,-1.743,-1.743,3.5106e-14,-1.5843,0.476,0.0055392,0.16,0.02,0
0.13432,-1.4093e-17,0.82,-1.266,-1.714,-1.714,-3.7133e-16,0,0,0.5824,-5.2842e-16,0,-9.6547e-16,0,0,1,-3.8778e-15,0,1,-1.266,-1.714,-1.714,-4.7491e-14,-1.5647,0.448,0.0046181,0.18,0.02,0
0.1456,-1.6397e-17,0.8,-1.265,-1.685,-1.685,3.5724e-16,0,0,0.546,-4.8577e-16,0,9.2882e-16,0,0,1,-1.0072e-15,0,1,-1.265,-1.685,-1.685,4.8734e-14,-1.545,0.42,0.0038052,0.2,0.02,0
0.15616,2.7666e-17,0.78,-1.264,-1.656,-1.656,1.2504e-16,0,0,0.5096,8.636e-16,0,3.251e-16,0,0,1,-1.4194e-15,0,1,-1.264,-1.656,-1.656,1.8276e-14,-1.5253,0.392,0.0030937,0.22,0.02,0
0.16598,-1.7883e-17,0.76,-1.263,-1.627,-1.627,-3.9268e-16,0,0,0.4732,-6.6061e-16,0,-1.021e-15,0,0,1,1.2133e-15,0,1,-1.263,-1.627,-1.627,-6.1811e-14,-1.5057,0.364,0.002477,0.24,0.02,0
0.17508,-1.3466e-17,0.74,-1.262,-1.598,-1.598,-1.708e-16,0,0,0.4368,-6.7334e-16,0,-4.4409e-16,0,0,1,0,0,1,-1.262,-1.598,-1.598,-2.9126e-14,-1.486,0.336,0.0019482,0.26,0.02,0
0.18346,-3.5713e-17,0.72,-1.261,-1.569,-1.569,2.6458e-16,0,0,0.4004,-9.9938e-16,0,6.8791e-16,0,0,1,1.2133e-15,0,1,-1.261,-1.569,-1.569,4.9219e-14,-1.4663,0.308,0.0015006,0.28,0.02,0
0.1911,3.4599e-17,0.7,-1.26,-1.54,-1.54,7.1141e-16,0,0,0.364,1.1118e-15,0,1.8497e-15,0,0,1,-3.251e-16,0,1,-1.26,-1.54,-1.54,1.4557e-13,-1.4467,0.28,0.0011275,0.3,0.02,0
0.19802,2.0291e-17,0.68,-1.259,-1.511,-1.511,-3.8124e-16,0,0,0.3276,9.2661e-16,0,-9.9123e-16,0,0,1,0,0,1,-1.259,-1.511,-1.511,-8.6681e-14,-1.427,0.252,0.00082192,0.32,0.02,0
0.2042,2.8614e-17,0.66,-1.258,-1.482,-1.482,1.4485e-16,0,0,0.2912,1.0887e-15,0,3.7662e-16,0,0,1,-8.8818e-16,0,1,-1.258,-1.482,-1.482,3.7051e-14,-1.4073,0.224,0.00057726,0.34,0.02,0
0.20966,-2.8418e-17,0.64,-1.257,-1.453,-1.453,-9.6455e-16,0,0,0.2548,-8.2375e-16,0,-2.5078e-15,0,0,1,-8.8818e-16,0,1,-1.257,-1.453,-1.453,-2.8196e-13,-1.3877,0.196,0.00038672,0.36,0.02,0
0.2144,-2.3587e-17,0.62,-1.256,-1.424,-1.424,-3.0728e-16,0,0,0.2184,-1.0544e-15,0,-7.9893e-16,0,0,1,0,0,1,-1.256,-1.424,-1.424,-1.048e-13,-1.368,0.168,0.00024353,0.38,0.02,0
0.2184,-3.4056e-17,0.6,-1.255,-1.395,-1.395,3.7287e-16,0,0,0.182,-9.9164e-16,0,9.6945e-16,0,0,1,2.6326e-15,0,1,-1.255,-1.395,-1.395,1.526e-13,-1.3483,0.14,0.00014093,0.4,0.02,0
0.22168,2.7141e-17,0.58,-1.254,-1.366,-1.366,1.127e-15,0,0,0.1456,9.1868e-16,0,2.9301e-15,0,0,1,-5.1346e-15,0,1,-1.254,-1.366,-1.366,5.7653e-13,-1.3287,0.112,7.2157e-05,0.42,0.02,0
0.22422,2.0561e-17,0.56,-1.253,-1.337,-1.337,3.1259e-17,0,0,0.1092,1.1402e-15,0,8.1274e-17,0,0,1,-2.8154e-16,0,1,-1.253,-1.337,-1.337,2.1322e-14,-1.309,0.084,3.0441e-05,0.44,0.02,0
0.22604,3.5782e-17,0.54,-1.252,-1.308,-1.308,-2.2495e-16,0,0,0.0728,9.6998e-16,0,-5.8486e-16,0,0,1,-1.3758e-15,0,1,-1.252,-1.308,-1.308,-2.3015e-13,-1.2893,0.056,9.0196e-06,0.46,0.02,0
0.22714,-2.894e-17,0.52,-1.251,-1.279,-1.279,-4.4683e-16,0,0,0.0364,-8.8149e-16,0,-1.1617e-15,0,0,1,1.8199e-15,0,1,-1.251,-1.279,-1.279,-9.1433e-13,-1.2697,0.028,1.1275e-06,0.48,0.02,0
0.2275,-1.3442e-17,0.5,-1.25,-1.25,-1.25,1.1666e-16,0,0,4.4756e-16,-6.4697e-16,0,3.0332e-16,0,0,1,1.7764e-15,0,1,-1.25,-1.25,-1.25,4.9668,-1.25,1.1854e-15,6.8316e-47,0.5,0.02,0
0.22714,-8.5019e-18,0.48,-1.249,-1.221,-1.221,-2.0206e-16,0,0,-0.0364,-5.9608e-16,0,-5.2536e-16,0,0,1,8.8818e-16,0,1,-1.221,-1.249,-1.221,-90,-1.2303,0.028,-1.1275e-06,0.52,0.02,0
0.22604,-1.6781e-17,0.46,-1.248,-1.192,-1.192,-2.6765e-16,0,0,-0.0728,-7.3471e-16,0,-6.9588e-16,0,0,1,-2.8154e-16,0,1,-1.192,-1.248,-1.192,-90,-1.2107,0.056,-9.0196e-06,0.54,0.02,0
0.22422,-4.4279e-17,0.44,-1.247,-1.163,-1.163,9.4473e-16,0,0,-0.1092,-1.4895e-15,0,2.4563e-15,0,0,1,-2.145e-15,0,1,-1.163,-1.247,-1.163,90,-1.191,0.084,-3.0441e-05,0.56,0.02,0
0.22168,5.0832e-17,0.42,-1.246,-1.134,-1.134,-9.0712e-17,0,0,-0.1456,1.7747e-15,0,-2.3585e-16,0,0,1,2.5455e-15,0,1,-1.134,-1.246,-1.134,-90,-1.1713,0.112,-7.2157e-05,0.58,0.02,0
0.2184,2.8214e-17,0.4,-1.245,-1.105,-1.105,-1.6243e-16,0,0,-0.182,1.3154e-15,0,-4.2231e-16,0,0,1,0,0,1,-1.105,-1.245,-1.105,-90,-1.1517,0.14,-0.00014093,0.6,0.02,0
0.2144,2.5094e-17,0.38,-1.244,-1.076,-1.076,-1.5936e-16,0,0,-0.2184,1.1923e-15,0,-4.1434e-16,0,0,1,0,0,1,-1.076,-1.244,-1.076,-90,-1.132,0.168,-0.00024353,0.62,0.02,0
0.20966,2.7974e-17,0.36,-1.243,-1.047,-1.047,-1.1666e-16,0,0,-0.2548,1.1881e-15,0,-3.0332e-16,0,0,1,0,0,1,-1.047,-1.243,-1.047,-90,-1.1123,0.196,-0.00038672,0.64,0.02,0
0.2042,2.7436e-17,0.34,-1.242,-1.018,-1.018,3.7287e-16,0,0,-0.2912,1.2957e-15,0,9.6945e-16,0,0,1,0,0,1,-1.018,-1.242,-1.018,90,-1.0927,0.224,-0.00057726,0.66,0.02,0
0.19802,5.1122e-17,0.32,-1.241,-0.989,-0.989,-6.7708e-16,0,0,-0.3276,1.8199e-15,0,-1.7604e-15,0,0,1,4.2815e-16,0,1,-0.989,-1.241,-0.989,-90,-1.073,0.252,-0.00082192,0.68,0.02,0
0.1911,-3.9608e-17,0.3,-1.24,-0.96,-0.96,-5.7208e-17,0,0,-0.364,-1.3495e-15,0,-1.4874e-16,0,0,1,-2.4048e-15,0,1,-0.96,-1.24,-0.96,-90,-1.0533,0.28,-0.0011275,0.7,0.02,0
0.18346,-1.8102e-17,0.28,-1.239,-0.931,-0.931,3.3017e-16,0,0,-0.4004,-8.4404e-16,0,8.5843e-16,0,0,1,-2.1777e-17,0,1,-0.931,-1.239,-0.931,90,-1.0337,0.308,-0.0015006,0.72,0.02,0
0.17508,-2.006e-17,0.26,-1.238,-0.902,-0.902,-5.4143e-17,0,0,-0.4368,-7.751e-16,0,-1.4077e-16,0,0,1,1.132e-15,0,1,-0.902,-1.238,-0.902,-90,-1.014,0.336,-0.0019482,0.74,0.02,0
0.16598,-1.4103e-17,0.24,-1.237,-0.873,-0.873,5.4143e-17,0,0,-0.4732,-8.1554e-16,0,1.4077e-16,0,0,1,1.4077e-16,0,1,-0.873,-1.237,-0.873,90,-0.99433,0.364,-0.002477,0.76,0.02,0
0.15616,-2.2593e-17,0.22,-1.236,-0.844,-0.844,-3.3017e-16,0,0,-0.5096,-8.3883e-16,0,-8.5843e-16,0,0,1,1.6255e-16,0,1,-0.844,-1.236,-0.844,-90,-0.97467,0.392,-0.0030937,0.78,0.02,0
0.1456,-4.0451e-17,0.2,-1.235,-0.815,-0.815,6.3592e-16,0,0,-0.546,-1.3951e-15,0,1.6534e-15,0,0,1,-2.8738e-16,0,1,-0.815,-1.235,-0.815,90,-0.955,0.42,-0.0038052,0.8,0.02,0
0.13432,3.9913e-17,0.18,-1.234,-0.786,-0.786,-6.9772e-17,0,0,-0.5824,1.287e-15,0,-1.8141e-16,0,0,1,3.0114e-15,0,1,-0.786,-1.234,-0.786,-90,-0.93533,0.448,-0.0046181,0.82,0.02,0
0.1223,1.7725e-17,0.16,-1.233,-0.757,-0.757,-2.4323e-16,0,0,-0.6188,8.4892e-16,0,-6.324e-16,0,0,1,0,0,1,-0.757,-1.233,-0.757,-90,-0.91567,0.476,-0.0055392,0.84,0.02,0
0.10956,1.4015e-17,0.14,-1.232,-0.728,-0.728,-1.1666e-16,0,0,-0.6552,7.8524e-16,0,-3.0332e-16,0,0,1,0,0,1,-0.728,-1.232,-0.728,-90,-0.896,0.504,-0.0065753,0.86,0.02,0
0.096096,1.6065e-17,0.12,-1.231,-0.699,-0.699,5.833e-17,0,0,-0.6916,7.4647e-16,0,1.5166e-16,0,0,1,-8.1274e-17,0,1,-0.699,-1.231,-0.699,90,-0.87633,0.532,-0.0077332,0.88,0.02,0
0.0819,1.9601e-17,0.1,-1.23,-0.67,-0.67,4.9544e-18,0,0,-0.728,9.5211e-16,0,1.2881e-17,0,0,1,3.3307e-16,0,1,-0.67,-1.23,-0.67,90,-0.85667,0.56,-0.0090197,0.9,0.02,0
0.066976,4.1443e-17,0.08,-1.229,-0.641,-0.641,-2.5963e-16,0,0,-0.7644,1.3861e-15,0,-6.7503e-16,0,0,1,-6.1461e-16,0,1,-0.641,-1.229,-0.641,-90,-0.837,0.588,-0.010441,0.92,0.02,0
0.051324,-3.8747e-17,0.06,-1.228,-0.612,-0.612,-3.956e-17,0,0,-0.8008,-1.284e-15,0,-1.0286e-16,0,0,1,-8.4827e-16,0,1,-0.612,-1.228,-0.612,-90,-0.81733,0.616,-0.012005,0.94,0.02,0
0.034944,-1.4539e-17,0.04,-1.227,-0.583,-0.583,1.6313e-16,0,0,-0.8372,-7.0298e-16,0,4.2413e-16,0,0,1,-2.8485e-17,0,1,-0.583,-1.227,-0.583,90,-0.79767,0.644,-0.013718,0.96,0.02,0
0.017836,-9.4939e-18,0.02,-1.226,-0.554,-0.554,3.6012e-18,0,0,-0.8736,-4.8748e-16,0,9.3631e-18,0,0,1,1.4658e-16,0,1,-0.554,-1.226,-0.554,90,-0.778,0.672,-0.015586,0.98,0.02,0
0,-6.362e-18,0,-1.2005,-0.5145,-0.5145,3.5358e-17,0,0,-0.8918,-3.8859e-16,0,9.1931e-17,0,0,1,-2.7222e-18,0,1,-0.5145,-1.2005,-0.5145,90,-0.74317,0.686,-0.016581,1,0.02,0
0,1.541e-18,1,-1.2995,-1.9855,-1.9855,-2.3113e-17,0,0,0.8918,-6.4706e-20,0,-6.0093e-17,0,0,1,0,0,1,-1.2995,-1.9855,-1.9855,-1.9304e-15,-1.7568,0.686,0.016581,0,0.04,0
0.017836,-1.556e-18,0.98,-1.274,-1.946,-1.946,-1.7528e-16,0,0,0.8736,-4.2646e-17,0,-4.5573e-16,0,0,1,4.6151e-15,0,1,-1.274,-1.946,-1.946,-1.4945e-14,-1.722,0.672,0.015586,0.02,0.04,0
0.034944,-8.5715e-18,0.96,-1.273,-1.917,-1.917,2.9305e-17,0,0,0.8372,-1.8837e-17,0,7.6194e-17,0,0,1,-7.6918e-15,0,1,-1.273,-1.917,-1.917,2.6073e-15,-1.7023,0.644,0.013718,0.04,0.04,0
0.051324,-5.0897e-18,0.94,-1.272,-1.888,-1.888,1.7806e-16,0,0,0.8008,8.531e-17,0,4.6295e-16,0,0,1,3.0767e-15,0,1,-1.272,-1.888,-1.888,1.6562e-14,-1.6827,0.616,0.012005,0.06,0.04,0
0.066976,2.1768e-17,0.92,-1.271,-1.859,-1.859,3.4845e-16,0,0,0.7644,6.5528e-17,0,9.0597e-16,0,0,1,-8.342e-15,0,1,-1.271,-1.859,-1.859,3.3954e-14,-1.663,0.588,0.010441,0.08,0.04,0
0.0819,-1.0366e-17,0.9,-1.27,-1.83,-1.83,-4.9525e-16,0,0,0.728,-1.2221e-16,0,-1.2876e-15,0,0,1,2.8387e-15,0,1,-1.27,-1.83,-1.83,-5.0671e-14,-1.6433,0.56,0.0090197,0.1,0.04,0
0.096096,-7.8767e-18,0.88,-1.269,-1.801,-1.801,1.0675e-16,0,0,0.6916,-5.5628e-17,0,2.7756e-16,0,0,1,0,0,1,-1.269,-1.801,-1.801,1.1497e-14,-1.6237,0.532,0.0077332,0.12,0.04,0
0.10956,-9.2042e-18,0.86,-1.268,-1.772,-1.772,2.8062e-16,0,0,0.6552,3.4076e-17,0,7.2962e-16,0,0,1,2.4265e-15,0,1,-1.268,-1.772,-1.772,3.1902e-14,-1.604,0.504,0.0065753,0.14,0.04,0
0.1223,4.2343e-17,0.84,-1.267,-1.743,-1.743,3.0575e-16,0,0,0.6188,1.1467e-16,0,7.9495e-16,0,0,1,8.0107e-16,0,1,-1.267,-1.743,-1.743,3.6803e-14,-1.5843,0.476,0.0055392,0.16,0.04,0
0.13432,-2.1137e-17,0.82,-1.266,-1.714,-1.714,-7.7852e-16,0,0,0.5824,-1.7402e-16,0,-2.0242e-15,0,0,1,1.2133e-15,0,1,-1.266,-1.714,-1.714,-9.9567e-14,-1.5647,0.448,0.0046181,0.18,0.04,0
0.1456,-1.9431e-17,0.8,-1.265,-1.685,-1.685,5.8637e-16,0,0,0.546,-2.0114e-16,0,1.5246e-15,0,0,1,8.8818e-16,0,1,-1.265,-1.685,-1.685,7.9992e-14,-1.545,0.42,0.0038052,0.2,0.04,0
0.15616,3.4544e-17,0.78,-1.264,-1.656,-1.656,3.0728e-16,0,0,0.5096,1.6847e-16,0,7.9893e-16,0,0,1,-5.312e-16,0,1,-1.264,-1.656,-1.656,4.4913e-14,-1.5253,0.392,0.0030937,0.22,0.04,0
0.16598,-2.6425e-17,0.76,-1.263,-1.627,-1.627,-6.7177e-16,0,0,0.4732,-2.2425e-16,0,-1.7466e-15,0,0,1,-6.8208e-16,0,1,-1.263,-1.627,-1.627,-1.0574e-13,-1.5057,0.364,0.002477,0.24,0.04,0
0.17508,-2.6933e-17,0.74,-1.262,-1.598,-1.598,-4.9304e-32,0,0,0.4368,-5.4919e-16,0,-1.9721e-31,0,0,1,0,0,1,-1.262,-1.598,-1.598,-8.4074e-30,-1.486,0.336,0.0019482,0.26,0.04,0
0.18346,-3.9975e-17,0.72,-1.261,-1.569,-1.569,4.9259e-16,0,0,0.4004,-6.8629e-17,0,1.2807e-15,0,0,1,-7.6918e-16,0,1,-1.261,-1.569,-1.569,9.1635e-14,-1.4663,0.308,0.0015006,0.28,0.04,0
0.1911,4.4473e-17,0.7,-1.26,-1.54,-1.54,9.0509e-16,0,0,0.364,5.1019e-16,0,2.3533e-15,0,0,1,-2.061e-16,0,1,-1.26,-1.54,-1.54,1.8521e-13,-1.4467,0.28,0.0011275,0.3,0.04,0
0.19802,3.7064e-17,0.68,-1.259,-1.511,-1.511,-1.5936e-16,0,0,0.3276,6.3232e-16,0,-4.1434e-16,0,0,1,0,0,1,-1.259,-1.511,-1.511,-3.6233e-14,-1.427,0.252,0.00082192,0.32,0.04,0
0.2042,4.3547e-17,0.66,-1.258,-1.482,-1.482,-1.5405e-16,0,0,0.2912,5.3616e-16,0,-4.0054e-16,0,0,1,-2.9896e-15,0,1,-1.258,-1.482,-1.482,-3.9404e-14,-1.4073,0.224,0.00057726,0.34,0.04,0
0.20966,-3.295e-17,0.64,-1.257,-1.453,-1.453,-1.6425e-15,0,0,0.2548,-1.1484e-16,0,-4.2704e-15,0,0,1,2.7516e-15,0,1,-1.257,-1.453,-1.453,-4.8013e-13,-1.3877,0.196,0.00038672,0.36,0.04,0
0.2144,-4.2176e-17,0.62,-1.256,-1.424,-1.424,-2.6458e-16,0,0,0.2184,-4.9443e-16,0,-6.8791e-16,0,0,1,0,0,1,-1.256,-1.424,-1.424,-9.0234e-14,-1.368,0.168,0.00024353,0.38,0.04,0
0.2184,-3.9665e-17,0.6,-1.255,-1.395,-1.395,9.905e-16,0,0,0.182,-1.7487e-16,0,2.5753e-15,0,0,1,1.0943e-15,0,1,-1.255,-1.395,-1.395,4.0537e-13,-1.3483,0.14,0.00014093,0.4,0.04,0
0.22168,3.6747e-17,0.58,-1.254,-1.366,-1.366,6.9466e-16,0,0,0.1456,5.7879e-16,0,1.8061e-15,0,0,1,-1.4194e-15,0,1,-1.254,-1.366,-1.366,3.5537e-13,-1.3287,0.112,7.2157e-05,0.42,0.04,0
0.22422,4.5608e-17,0.56,-1.253,-1.337,-1.337,1.1442e-17,0,0,0.1092,8.2944e-16,0,2.9748e-17,0,0,1,0,0,1,-1.253,-1.337,-1.337,7.8043e-15,-1.309,0.084,3.0441e-05,0.44,0.04,0
0.22604,3.8799e-17,0.54,-1.252,-1.308,-1.308,-7.3429e-16,0,0,0.0728,4.2659e-16,0,-1.9092e-15,0,0,1,-1.0943e-15,0,1,-1.252,-1.308,-1.308,-7.5128e-13,-1.2893,0.056,9.0196e-06,0.46,0.04,0
0.22714,-3.526e-17,0.52,-1.251,-1.279,-1.279,-1.053e-15,0,0,0.0364,-3.3267e-16,0,-2.7378e-15,0,0,1,7.6918e-16,0,1,-1.251,-1.279,-1.279,-2.1548e-12,-1.2697,0.028,1.1275e-06,0.48,0.04,0
0.2275,-2.5879e-17,0.5,-1.25,-1.25,-1.25,5.5205e-16,0,0,4.4669e-16,-6.37e-16,0,1.4353e-15,0,0,1,1.7764e-15,0,1,-1.25,-1.25,-1.25,22.421,-1.25,1.5384e-15,0,0.5,0.04,0
0.22714,-2.3843e-17,0.48,-1.249,-1.221,-1.221,-1.0522e-16,0,0,-0.0364,-6.7812e-16,0,-2.7357e-16,0,0,1,8.8818e-16,0,1,-1.221,-1.249,-1.221,-90,-1.2303,0.028,-1.1275e-06,0.52,0.04,0
0.22604,-2.9388e-17,0.46,-1.248,-1.192,-1.192,-4.5827e-16,0,0,-0.0728,-6.0255e-16,0,-1.1915e-15,0,0,1,0,0,1,-1.192,-1.248,-1.192,-90,-1.2107,0.056,-9.0196e-06,0.54,0.04,0
0.22422,-5.9579e-17,0.44,-1.247,-1.163,-1.163,1.0843e-15,0,0,-0.1092,-3.9982e-16,0,2.8191e-15,0,0,1,2.1769e-15,0,1,-1.163,-1.247,-1.163,90,-1.191,0.084,-3.0441e-05,0.56,0.04,0
0.22168,7.0989e-17,0.42,-1.246,-1.134,-1.134,7.915e-16,0,0,-0.1456,8.3978e-16,0,2.0579e-15,0,0,1,2.026e-15,0,1,-1.134,-1.246,-1.134,90,-1.1713,0.112,-7.2157e-05,0.58,0.04,0
0.2184,5.2616e-17,0.4,-1.245,-1.105,-1.105,7.396e-17,0,0,-0.182,1.1433e-15,0,1.923e-16,0,0,1,0,0,1,-1.105,-1.245,-1.105,90,-1.1517,0.14,-0.00014093,0.6,0.04,0
0.2144,4.7693e-17,0.38,-1.244,-1.076,-1.076,-5.1077e-17,0,0,-0.2184,9.3417e-16,0,-1.328e-16,0,0,1,0,0,1,-1.076,-1.244,-1.076,-90,-1.132,0.168,-0.00024353,0.62,0.04,0
0.20966,4.7523e-17,0.36,-1.243,-1.047,-1.047,4.0413e-16,0,0,-0.2548,8.9204e-16,0,1.0507e-15,0,0,1,0,0,1,-1.047,-1.243,-1.047,90,-1.1123,0.196,-0.00038672,0.64,0.04,0
0.2042,5.1828e-17,0.34,-1.242,-1.018,-1.018,2.6765e-16,0,0,-0.2912,1.1545e-15,0,6.9588e-16,0,0,1,0,0,1,-1.018,-1.242,-1.018,90,-1.0927,0.224,-0.00057726,0.66,0.04,0
0.19802,7.2794e-17,0.32,-1.241,-0.989,-0.989,-1.4259e-15,0,0,-0.3276,7.9011e-16,0,-3.7073e-15,0,0,1,-4.6003e-16,0,1,-0.989,-1.241,-0.989,-90,-1.073,0.252,-0.00082192,0.68,0.04,0
0.1911,-5.3979e-17,0.3,-1.24,-0.96,-0.96,-8.0092e-17,0,0,-0.364,-2.6346e-16,0,-2.0824e-16,0,0,1,-3.5803e-15,0,1,-0.96,-1.24,-0.96,-90,-1.0533,0.28,-0.0011275,0.7,0.04,0
0.18346,-3.3762e-17,0.28,-1.239,-0.931,-0.931,7.7026e-17,0,0,-0.4004,-6.6557e-16,0,2.0027e-16,0,0,1,2.4265e-15,0,1,-0.931,-1.239,-0.931,90,-1.0337,0.308,-0.0015006,0.72,0.04,0
0.17508,-3.1004e-17,0.26,-1.238,-0.902,-0.902,2.135e-16,0,0,-0.4368,-5.6677e-16,0,5.5511e-16,0,0,1,-3.251e-16,0,1,-0.902,-1.238,-0.902,90,-1.014,0.336,-0.0019482,0.74,0.04,0
0.16598,-3.2621e-17,0.24,-1.237,-0.873,-0.873,-1.8224e-16,0,0,-0.4732,-7.1979e-16,0,-4.7384e-16,0,0,1,0,0,1,-0.873,-1.237,-0.873,-90,-0.99433,0.364,-0.002477,0.76,0.04,0
0.15616,-3.3553e-17,0.22,-1.236,-0.844,-0.844,-5.4143e-17,0,0,-0.5096,-4.8391e-16,0,-1.4077e-16,0,0,1,8.1274e-17,0,1,-0.844,-1.236,-0.844,-90,-0.97467,0.392,-0.0030937,0.78,0.04,0
0.1456,-5.5806e-17,0.2,-1.235,-0.815,-0.815,5.3795e-16,0,0,-0.546,-5.0956e-16,0,1.3987e-15,0,0,1,2.0824e-16,0,1,-0.815,-1.235,-0.815,90,-0.955,0.42,-0.0038052,0.8,0.04,0
0.13432,5.1481e-17,0.18,-1.234,-0.786,-0.786,1.1135e-16,0,0,-0.5824,3.8715e-16,0,2.8951e-16,0,0,1,2.6783e-15,0,1,-0.786,-1.234,-0.786,90,-0.93533,0.448,-0.0046181,0.82,0.04,0
0.1223,3.3957e-17,0.16,-1.233,-0.757,-0.757,-2.6918e-16,0,0,-0.6188,7.0665e-16,0,-6.9987e-16,0,0,1,0,0,1,-0.757,-1.233,-0.757,-90,-0.91567,0.476,-0.0055392,0.84,0.04,0
0.10956,3.1409e-17,0.14,-1.232,-0.728,-0.728,5.833e-17,0,0,-0.6552,7.3507e-16,0,1.5166e-16,0,0,1,-8.1274e-17,0,1,-0.728,-1.232,-0.728,90,-0.896,0.504,-0.0065753,0.86,0.04,0
0.096096,2.9859e-17,0.12,-1.231,-0.699,-0.699,5.7208e-18,0,0,-0.6916,6.8576e-16,0,1.4874e-17,0,0,1,4.8473e-16,0,1,-0.699,-1.231,-0.699,90,-0.87633,0.532,-0.0077332,0.88,0.04,0
0.0819,3.8084e-17,0.1,-1.23,-0.67,-0.67,4.6818e-16,0,0,-0.728,7.5352e-16,0,1.2173e-15,0,0,1,4.4409e-16,0,1,-0.67,-1.23,-0.67,90,-0.85667,0.56,-0.0090197,0.9,0.04,0
0.066976,5.5443e-17,0.08,-1.229,-0.641,-0.641,-5.6139e-16,0,0,-0.7644,5.9374e-16,0,-1.4596e-15,0,0,1,-5.8685e-16,0,1,-0.641,-1.229,-0.641,-90,-0.837,0.588,-0.010441,0.92,0.04,0
0.051324,-5.1358e-17,0.06,-1.228,-0.612,-0.612,-7.9784e-17,0,0,-0.8008,-4.105e-16,0,-2.0744e-16,0,0,1,-1.3608e-15,0,1,-0.612,-1.228,-0.612,-90,-0.81733,0.616,-0.012005,0.94,0.04,0
0.034944,-2.8119e-17,0.04,-1.227,-0.583,-0.583,2.7951e-16,0,0,-0.8372,-5.6937e-16,0,7.2672e-16,0,0,1,1.8413e-16,0,1,-0.583,-1.227,-0.583,90,-0.79767,0.644,-0.013718,0.96,0.04,0
0.017836,-1.9499e-17,0.02,-1.226,-0.554,-0.554,1.8062e-17,0,0,-0.8736,-4.8555e-16,0,4.6962e-17,0,0,1,6.8028e-17,0,1,-0.554,-1.226,-0.554,90,-0.778,0.672,-0.015586,0.98,0.04,0
0,-1.5544e-17,0,-1.2005,-0.5145,-0.5145,1.0318e-16,0,0,-0.8918,-4.8826e-16,0,2.6826e-16,0,0,1,1.7596e-17,0,1,-0.5145,-1.2005,-0.5145,90,-0.74317,0.686,-0.016581,1,0.04,0
0,6.979e-19,1,-1.2995,-1.9855,-1.9855,-7.4918e-17,0,0,0.8918,3.3615e-17,0,-1.9479e-16,0,0,1,0,0,1,-1.2995,-1.9855,-1.9855,-6.2573e-15,-1.7568,0.686,0.016581,0,0.06,0
0.017836,-2.4323e-18,0.98,-1.274,-1.946,-1.946,-1.3094e-16,0,0,0.8736,-1.3115e-17,0,-3.4044e-16,0,0,1,4.6151e-15,0,1,-1.274,-1.946,-1.946,-1.1164e-14,-1.722,0.672,0.015586,0.02,0.06,0
0.034944,-7.8947e-18,0.96,-1.273,-1.917,-1.917,1.2552e-16,0,0,0.8372,4.5773e-17,0,3.2636e-16,0,0,1,-4.4961e-15,0,1,-1.273,-1.917,-1.917,1.1168e-14,-1.7023,0.644,0.013718,0.04,0.06,0
0.051324,1.1918e-18,0.94,-1.272,-1.888,-1.888,3.4848e-16,0,0,0.8008,3.3803e-16,0,9.0604e-16,0,0,1,8.7861e-15,0,1,-1.272,-1.888,-1.888,3.2413e-14,-1.6827,0.616,0.012005,0.06,0.06,0
0.066976,2.4589e-17,0.92,-1.271,-1.859,-1.859,5.3937e-17,0,0,0.7644,2.0472e-17,0,1.4024e-16,0,0,1,-1.0594e-14,0,1,-1.271,-1.859,-1.859,5.2557e-15,-1.663,0.588,0.010441,0.08,0.06,0
0.0819,-1.2098e-17,0.9,-1.27,-1.83,-1.83,-4.5255e-16,0,0,0.728,1.8148e-16,0,-1.1766e-15,0,0,1,8.818e-15,0,1,-1.27,-1.83,-1.83,-4.6302e-14,-1.6433,0.56,0.0090197,0.1,0.06,0
0.096096,-1.0897e-17,0.88,-1.269,-1.801,-1.801,-7.396e-17,0,0,0.6916,-3.7091e-17,0,-1.923e-16,0,0,1,-4.8531e-15,0,1,-1.269,-1.801,-1.801,-7.9654e-15,-1.6237,0.532,0.0077332,0.12,0.06,0
0.10956,-8.6871e-18,0.86,-1.268,-1.772,-1.772,6.8894e-16,0,0,0.6552,-6.0587e-17,0,1.7912e-15,0,0,1,1.1899e-16,0,1,-1.268,-1.772,-1.772,7.832e-14,-1.604,0.504,0.0065753,0.14,0.06,0
0.1223,3.9687e-17,0.84,-1.267,-1.743,-1.743,8.3869e-17,0,0,0.6188,-1.4754e-17,0,2.1806e-16,0,0,1,-2.4265e-15,0,1,-1.267,-1.743,-1.743,1.0095e-14,-1.5843,0.476,0.0055392,0.16,0.06,0
0.13432,-2.1054e-17,0.82,-1.266,-1.714,-1.714,-6.8321e-16,0,0,0.5824,-2.6765e-18,0,-1.7764e-15,0,0,1,2.7835e-15,0,1,-1.266,-1.714,-1.714,-8.7378e-14,-1.5647,0.448,0.0046181,0.18,0.06,0
0.1456,-2.4443e-17,0.8,-1.265,-1.685,-1.685,5.8218e-16,0,0,0.546,-4.0433e-17,0,1.5137e-15,0,0,1,7.6918e-16,0,1,-1.265,-1.685,-1.685,7.9421e-14,-1.545,0.42,0.0038052,0.2,0.06,0
0.15616,3.4404e-17,0.78,-1.264,-1.656,-1.656,3.7287e-16,0,0,0.5096,1.686e-17,0,9.6945e-16,0,0,1,-3.9649e-15,0,1,-1.264,-1.656,-1.656,5.4499e-14,-1.5253,0.392,0.0030937,0.22,0.06,0
0.16598,-2.6853e-17,0.76,-1.263,-1.627,-1.627,-9.905e-16,0,0,0.4732,-8.8286e-17,0,-2.5753e-15,0,0,1,7.6918e-16,0,1,-1.263,-1.627,-1.627,-1.5591e-13,-1.5057,0.364,0.002477,0.24,0.06,0
0.17508,-3.5434e-17,0.74,-1.262,-1.598,-1.598,-1.8224e-16,0,0,0.4368,-2.0196e-16,0,-4.7384e-16,0,0,1,0,0,1,-1.262,-1.598,-1.598,-3.1077e-14,-1.486,0.336,0.0019482,0.26,0.06,0
0.18346,-3.8458e-17,0.72,-1.261,-1.569,-1.569,6.9772e-16,0,0,0.4004,6.9679e-18,0,1.8141e-15,0,0,1,2.4265e-15,0,1,-1.261,-1.569,-1.569,1.2979e-13,-1.4663,0.308,0.0015006,0.28,0.06,0
0.1911,5.5007e-17,0.7,-1.26,-1.54,-1.54,1.0873e-15,0,0,0.364,3.7778e-16,0,2.8271e-15,0,0,1,8.8818e-16,0,1,-1.26,-1.54,-1.54,2.225e-13,-1.4467,0.28,0.0011275,0.3,0.06,0
0.19802,4.5583e-17,0.68,-1.259,-1.511,-1.511,2.8193e-17,0,0,0.3276,4.2943e-16,0,7.3303e-17,0,0,1,3.251e-16,0,1,-1.259,-1.511,-1.511,6.4102e-15,-1.427,0.252,0.00082192,0.32,0.06,0
0.2042,5.0061e-17,0.66,-1.258,-1.482,-1.482,-1.2269e-15,0,0,0.2912,2.8271e-16,0,-3.1899e-15,0,0,1,-5.9474e-15,0,1,-1.258,-1.482,-1.482,-3.1382e-13,-1.4073,0.224,0.00057726,0.34,0.06,0
0.20966,-3.3011e-17,0.64,-1.257,-1.453,-1.453,-9.2798e-16,0,0,0.2548,-1.8045e-16,0,-2.4127e-15,0,0,1,8.5629e-16,0,1,-1.257,-1.453,-1.453,-2.7127e-13,-1.3877,0.196,0.00038672,0.36,0.06,0
0.2144,-4.3364e-17,0.62,-1.256,-1.424,-1.424,-3.4998e-16,0,0,0.2184,7.9314e-17,0,-9.0996e-16,0,0,1,0,0,1,-1.256,-1.424,-1.424,-1.1936e-13,-1.368,0.168,0.00024353,0.38,0.06,0
0.2184,-4.105e-17,0.6,-1.255,-1.395,-1.395,8.342e-16,0,0,0.182,-2.041e-16,0,2.1689e-15,0,0,1,8.8818e-16,0,1,-1.255,-1.395,-1.395,3.414e-13,-1.3483,0.14,0.00014093,0.4,0.06,0
0.22168,5.0292e-17,0.58,-1.254,-1.366,-1.366,7.0303e-16,0,0,0.1456,4.2134e-16,0,1.8279e-15,0,0,1,8.8818e-16,0,1,-1.254,-1.366,-1.366,3.5965e-13,-1.3287,0.112,7.2157e-05,0.42,0.06,0
0.22422,5.3738e-17,0.56,-1.253,-1.337,-1.337,3.4998e-16,0,0,0.1092,1.7949e-16,0,9.0996e-16,0,0,1,0,0,1,-1.253,-1.337,-1.337,2.3872e-13,-1.309,0.084,3.0441e-05,0.44,0.06,0
0.22604,5.2846e-17,0.54,-1.252,-1.308,-1.308,-8.342e-16,0,0,0.0728,4.4108e-16,0,-2.1689e-15,0,0,1,-2.9896e-15,0,1,-1.252,-1.308,-1.308,-8.535e-13,-1.2893,0.056,9.0196e-06,0.46,0.06,0
0.22714,-4.2247e-17,0.52,-1.251,-1.279,-1.279,-1.0103e-15,0,0,0.0364,-1.3347e-16,0,-2.6268e-15,0,0,1,3.3147e-15,0,1,-1.251,-1.279,-1.279,-2.0674e-12,-1.2697,0.028,1.1275e-06,0.48,0.06,0
0.2275,-3.8922e-17,0.5,-1.25,-1.25,-1.25,6.8015e-16,0,0,1.4138e-16,-5.483e-16,0,1.7684e-15,0,0,1,0,0,1,-1.25,-1.25,-1.25,40.365,-1.25,1.1854e-15,6.8316e-47,0.5,0.06,0
0.22714,-3.5627e-17,0.48,-1.249,-1.221,-1.221,-1.9818e-17,0,0,-0.0364,-4.0542e-16,0,-5.1526e-17,0,0,1,0,0,1,-1.221,-1.249,-1.221,-90,-1.2303,0.028,-1.1275e-06,0.52,0.06,0
0.22604,-4.0883e-17,0.46,-1.248,-1.192,-1.192,-4.8953e-16,0,0,-0.0728,-5.365e-16,0,-1.2728e-15,0,0,1,0,0,1,-1.192,-1.248,-1.192,-90,-1.2107,0.056,-9.0196e-06,0.54,0.06,0
0.22422,-6.0272e-17,0.44,-1.247,-1.163,-1.163,1.4998e-15,0,0,-0.1092,2.0268e-17,0,3.8996e-15,0,0,1,-4.5121e-15,0,1,-1.163,-1.247,-1.163,90,-1.191,0.084,-3.0441e-05,0.56,0.06,0
0.22168,8.4423e-17,0.42,-1.246,-1.134,-1.134,1.5799e-15,0,0,-0.1456,6.4661e-16,0,4.1078e-15,0,0,1,3.8183e-15,0,1,-1.134,-1.246,-1.134,90,-1.1713,0.112,-7.2157e-05,0.58,0.06,0
0.2184,7.3946e-17,0.4,-1.245,-1.105,-1.105,-1.0829e-16,0,0,-0.182,8.6265e-16,0,-2.8154e-16,0,0,1,0,0,1,-1.105,-1.245,-1.105,-90,-1.1517,0.14,-0.00014093,0.6,0.06,0
0.2144,6.2461e-17,0.38,-1.244,-1.076,-1.076,-1.0522e-16,0,0,-0.2184,7.5137e-16,0,-2.7357e-16,0,0,1,0,0,1,-1.076,-1.244,-1.076,-90,-1.132,0.168,-0.00024353,0.62,0.06,0
0.20966,6.3656e-17,0.36,-1.243,-1.047,-1.047,5.0934e-16,0,0,-0.2548,7.149e-16,0,1.3243e-15,0,0,1,0,0,1,-1.047,-1.243,-1.047,90,-1.1123,0.196,-0.00038672,0.64,0.06,0
0.2042,7.3617e-17,0.34,-1.242,-1.018,-1.018,1.3117e-16,0,0,-0.2912,9.9957e-16,0,3.4104e-16,0,0,1,0,0,1,-1.018,-1.242,-1.018,90,-1.0927,0.224,-0.00057726,0.66,0.06,0
0.19802,8.2727e-17,0.32,-1.241,-0.989,-0.989,-1.0645e-15,0,0,-0.3276,3.8357e-16,0,-2.7676e-15,0,0,1,2.061e-16,0,1,-0.989,-1.241,-0.989,-90,-1.073,0.252,-0.00082192,0.68,0.06,0
0.1911,-5.0146e-17,0.3,-1.24,-0.96,-0.96,-7.488e-16,0,0,-0.364,7.4768e-17,0,-1.9469e-15,0,0,1,-2.8706e-15,0,1,-0.96,-1.24,-0.96,-90,-1.0533,0.28,-0.0011275,0.7,0.06,0
0.18346,-4.4725e-17,0.28,-1.239,-0.931,-0.931,2.2495e-16,0,0,-0.4004,-3.6772e-16,0,5.8486e-16,0,0,1,1.6255e-16,0,1,-0.931,-1.239,-0.931,90,-1.0337,0.308,-0.0015006,0.72,0.06,0
0.17508,-4.273e-17,0.26,-1.238,-0.902,-0.902,1.708e-16,0,0,-0.4368,-4.4471e-16,0,4.4409e-16,0,0,1,-1.2133e-15,0,1,-0.902,-1.238,-0.902,90,-1.014,0.336,-0.0019482,0.74,0.06,0
0.16598,-4.2894e-17,0.24,-1.237,-0.873,-0.873,1.0829e-16,0,0,-0.4732,-4.1901e-16,0,2.8154e-16,0,0,1,1.6255e-16,0,1,-0.873,-1.237,-0.873,90,-0.99433,0.364,-0.002477,0.76,0.06,0
0.15616,-4.1949e-17,0.22,-1.236,-0.844,-0.844,-1.281e-16,0,0,-0.5096,-4.737e-16,0,-3.3307e-16,0,0,1,8.1274e-17,0,1,-0.844,-1.236,-0.844,-90,-0.97467,0.392,-0.0030937,0.78,0.06,0
0.1456,-6.0834e-17,0.2,-1.235,-0.815,-0.815,7.4839e-16,0,0,-0.546,-1.3312e-16,0,1.9458e-15,0,0,1,2.3002e-16,0,1,-0.815,-1.235,-0.815,90,-0.955,0.42,-0.0038052,0.8,0.06,0
0.13432,5.5399e-17,0.18,-1.234,-0.786,-0.786,7.2898e-16,0,0,-0.5824,2.6605e-16,0,1.8953e-15,0,0,1,1.243e-15,0,1,-0.786,-1.234,-0.786,90,-0.93533,0.448,-0.0046181,0.82,0.06,0
0.1223,4.599e-17,0.16,-1.233,-0.757,-0.757,-1.1442e-17,0,0,-0.6188,4.7978e-16,0,-2.9748e-17,0,0,1,8.1274e-17,0,1,-0.757,-1.233,-0.757,-90,-0.91567,0.476,-0.0055392,0.84,0.06,0
0.10956,4.3418e-17,0.14,-1.232,-0.728,-0.728,-9.1123e-17,0,0,-0.6552,5.2013e-16,0,-2.3692e-16,0,0,1,-8.1274e-17,0,1,-0.728,-1.232,-0.728,-90,-0.896,0.504,-0.0065753,0.86,0.06,0
0.096096,4.3495e-17,0.12,-1.231,-0.699,-0.699,-7.9681e-17,0,0,-0.6916,6.4543e-16,0,-2.0717e-16,0,0,1,5.66e-16,0,1,-0.699,-1.231,-0.699,-90,-0.87633,0.532,-0.0077332,0.88,0.06,0
0.0819,4.9742e-17,0.1,-1.23,-0.67,-0.67,4.2338e-16,0,0,-0.728,5.3801e-16,0,1.1008e-15,0,0,1,7.0385e-17,0,1,-0.67,-1.23,-0.67,90,-0.85667,0.56,-0.0090197,0.9,0.06,0
0.066976,6.5193e-17,0.08,-1.229,-0.641,-0.641,-6.4966e-16,0,0,-0.7644,3.3665e-16,0,-1.6891e-15,0,0,1,-8.5697e-16,0,1,-0.641,-1.229,-0.641,-90,-0.837,0.588,-0.010441,0.92,0.06,0
0.051324,-5.5167e-17,0.06,-1.228,-0.612,-0.612,-4.6943e-16,0,0,-0.8008,-8.4663e-17,0,-1.2205e-15,0,0,1,-1.333e-15,0,1,-0.612,-1.228,-0.612,-90,-0.81733,0.616,-0.012005,0.94,0.06,0
0.034944,-3.7314e-17,0.04,-1.227,-0.583,-0.583,2.6779e-16,0,0,-0.8372,-3.9479e-16,0,6.9625e-16,0,0,1,1.8413e-16,0,1,-0.583,-1.227,-0.583,90,-0.79767,0.644,-0.013718,0.96,0.06,0
0.017836,-2.8916e-17,0.02,-1.226,-0.554,-0.554,1.4092e-16,0,0,-0.8736,-4.8788e-16,0,3.664e-16,0,0,1,6.8028e-17,0,1,-0.554,-1.226,-0.554,90,-0.778,0.672,-0.015586,0.98,0.06,0
0,-2.5892e-17,0,-1.2005,-0.5145,-0.5145,3.6316e-17,0,0,-0.8918,-5.1523e-16,0,9.4422e-17,0,0,1,1.7596e-17,0,1,-0.5145,-1.2005,-0.5145,90,-0.74317,0.686,-0.016581,1,0.06,0
0,2.8857e-18,1,-1.2995,-1.9855,-1.9855,-8.7687e-17,0,0,0.8918,4.8563e-17,0,-2.2799e-16,0,0,1,0,0,1,-1.2995,-1.9855,-1.9855,-7.3238e-15,-1.7568,0.686,0.016581,0,0.08,0
0.017836,-2.0806e-18,0.98,-1.274,-1.946,-1.946,-1.6239e-16,0,0,0.8736,4.7963e-17,0,-4.2221e-16,0,0,1,4.8531e-15,0,1,-1.274,-1.946,-1.946,-1.3845e-14,-1.722,0.672,0.015586,0.02,0.08,0
0.034944,-6.7406e-18,0.96,-1.273,-1.917,-1.917,1.3444e-16,0,0,0.8372,-4.4523e-18,0,3.4953e-16,0,0,1,5.9497e-16,0,1,-1.273,-1.917,-1.917,1.1961e-14,-1.7023,0.644,0.013718,0.04,0.08,0
0.051324,8.4317e-18,0.94,-1.272,-1.888,-1.888,1.8273e-16,0,0,0.8008,1.6956e-16,0,4.751e-16,0,0,1,6.3044e-15,0,1,-1.272,-1.888,-1.888,1.6996e-14,-1.6827,0.616,0.012005,0.06,0.08,0
0.066976,2.2587e-17,0.92,-1.271,-1.859,-1.859,2.4037e-16,0,0,0.7644,1.6125e-16,0,6.2496e-16,0,0,1,2.3799e-16,0,1,-1.271,-1.859,-1.859,2.3422e-14,-1.663,0.588,0.010441,0.08,0.08,0
0.0819,-3.1074e-18,0.9,-1.27,-1.83,-1.83,-3.6791e-16,0,0,0.728,2.3818e-16,0,-9.5657e-16,0,0,1,3.1957e-15,0,1,-1.27,-1.83,-1.83,-3.7643e-14,-1.6433,0.56,0.0090197,0.1,0.08,0
0.096096,-9.3603e-18,0.88,-1.269,-1.801,-1.801,-1.3229e-16,0,0,0.6916,4.7829e-17,0,-3.4396e-16,0,0,1,-4.8531e-15,0,1,-1.269,-1.801,-1.801,-1.4248e-14,-1.6237,0.532,0.0077332,0.12,0.08,0
0.10956,-1.1628e-17,0.86,-1.268,-1.772,-1.772,6.5614e-16,0,0,0.6552,-6.6688e-17,0,1.706e-15,0,0,1,8.7109e-17,0,1,-1.268,-1.772,-1.772,7.4592e-14,-1.604,0.504,0.0065753,0.14,0.08,0
0.1223,4.1753e-17,0.84,-1.267,-1.743,-1.743,-2.2341e-16,0,0,0.6188,1.2834e-16,0,-5.8087e-16,0,0,1,2.5455e-15,0,1,-1.267,-1.743,-1.743,-2.6892e-14,-1.5843,0.476,0.0055392,0.16,0.08,0
0.13432,-2.1244e-17,0.82,-1.266,-1.714,-1.714,-5.3529e-16,0,0,0.5824,-4.9208e-17,0,-1.3918e-15,0,0,1,2.9577e-15,0,1,-1.266,-1.714,-1.714,-6.846e-14,-1.5647,0.448,0.0046181,0.18,0.08,0
0.1456,-2.1048e-17,0.8,-1.265,-1.685,-1.685,4.6552e-16,0,0,0.546,2.2594e-16,0,1.2104e-15,0,0,1,3.251e-16,0,1,-1.265,-1.685,-1.685,6.3506e-14,-1.545,0.42,0.0038052,0.2,0.08,0
0.15616,3.5218e-17,0.78,-1.264,-1.656,-1.656,1.1666e-16,0,0,0.5096,-9.6822e-17,0,3.0332e-16,0,0,1,-3.9649e-15,0,1,-1.264,-1.656,-1.656,1.7051e-14,-1.5253,0.392,0.0030937,0.22,0.08,0
0.16598,-2.9956e-17,0.76,-1.263,-1.627,-1.627,-7.9988e-16,0,0,0.4732,-2.8209e-17,0,-2.0797e-15,0,0,1,1.8635e-15,0,1,-1.263,-1.627,-1.627,-1.2591e-13,-1.5057,0.364,0.002477,0.24,0.08,0
0.17508,-3.5012e-17,0.74,-1.262,-1.598,-1.598,8.3759e-18,0,0,0.4368,-9.4936e-17,0,2.1777e-17,0,0,1,0,0,1,-1.262,-1.598,-1.598,1.4283e-15,-1.486,0.336,0.0019482,0.26,0.08,0
0.18346,-3.9697e-17,0.72,-1.261,-1.569,-1.569,6.8628e-16,0,0,0.4004,1.0518e-16,0,1.7843e-15,0,0,1,2.4265e-15,0,1,-1.261,-1.569,-1.569,1.2766e-13,-1.4663,0.308,0.0015006,0.28,0.08,0
0.1911,5.9584e-17,0.7,-1.26,-1.54,-1.54,1.1842e-15,0,0,0.364,1.7235e-16,0,3.0789e-15,0,0,1,-6.5019e-16,0,1,-1.26,-1.54,-1.54,2.4232e-13,-1.4467,0.28,0.0011275,0.3,0.08,0
0.19802,5.4242e-17,0.68,-1.259,-1.511,-1.511,1.708e-16,0,0,0.3276,3.7287e-16,0,4.4409e-16,0,0,1,3.251e-16,0,1,-1.259,-1.511,-1.511,3.8835e-14,-1.427,0.252,0.00082192,0.32,0.08,0
0.2042,5.4856e-17,0.66,-1.258,-1.482,-1.482,-7.061e-16,0,0,0.2912,2.1881e-16,0,-1.8359e-15,0,0,1,-4.8531e-15,0,1,-1.258,-1.482,-1.482,-1.8061e-13,-1.4073,0.224,0.00057726,0.34,0.08,0
0.20966,-4.0168e-17,0.64,-1.257,-1.453,-1.453,-5.3529e-16,0,0,0.2548,-2.5679e-16,0,-1.3918e-15,0,0,1,9.7529e-16,0,1,-1.257,-1.453,-1.453,-1.5648e-13,-1.3877,0.196,0.00038672,0.36,0.08,0
0.2144,-3.9003e-17,0.62,-1.256,-1.424,-1.424,1.1442e-17,0,0,0.2184,5.6509e-17,0,2.9748e-17,0,0,1,0,0,1,-1.256,-1.424,-1.424,3.9021e-15,-1.368,0.168,0.00024353,0.38,0.08,0
0.2184,-4.7829e-17,0.6,-1.255,-1.395,-1.395,5.8944e-16,0,0,0.182,-1.6179e-16,0,1.5325e-15,0,0,1,-6.5019e-16,0,1,-1.255,-1.395,-1.395,2.4123e-13,-1.3483,0.14,0.00014093,0.4,0.08,0
0.22168,5.3601e-17,0.58,-1.254,-1.366,-1.366,1.1499e-15,0,0,0.1456,2.2763e-16,0,2.9896e-15,0,0,1,2.4265e-15,0,1,-1.254,-1.366,-1.366,5.8823e-13,-1.3287,0.112,7.2157e-05,0.42,0.08,0
0.22422,5.2788e-17,0.56,-1.253,-1.337,-1.337,-9.6843e-17,0,0,0.1092,9.2218e-17,0,-2.5179e-16,0,0,1,0,0,1,-1.253,-1.337,-1.337,-6.6056e-14,-1.309,0.084,3.0441e-05,0.44,0.08,0
0.22604,5.6443e-17,0.54,-1.252,-1.308,-1.308,-9.623e-16,0,0,0.0728,1.2158e-16,0,-2.502e-15,0,0,1,-1.3758e-15,0,1,-1.252,-1.308,-1.308,-9.8457e-13,-1.2893,0.056,9.0196e-06,0.46,0.08,0
0.22714,-4.0598e-17,0.52,-1.251,-1.279,-1.279,-9.0509e-16,0,0,0.0364,2.5031e-17,0,-2.3533e-15,0,0,1,6.5019e-16,0,1,-1.251,-1.279,-1.279,-1.8521e-12,-1.2697,0.028,1.1275e-06,0.48,0.08,0
0.2275,-4.7811e-17,0.5,-1.25,-1.25,-1.25,3.3017e-16,0,0,3.0878e-16,-1.9404e-16,0,8.5843e-16,0,0,1,-2.1014e-15,0,1,-1.25,-1.25,-1.25,35.707,-1.25,7.6918e-16,0,0.5,0.08,0
0.22714,-4.006e-17,0.48,-1.249,-1.221,-1.221,-1.7918e-16,0,0,-0.0364,-1.1793e-16,0,-4.6587e-16,0,0,1,-2.8154e-16,0,1,-1.221,-1.249,-1.221,-90,-1.2303,0.028,-1.1275e-06,0.52,0.08,0
0.22604,-5.0848e-17,0.46,-1.248,-1.192,-1.192,-1.708e-16,0,0,-0.0728,-3.5237e-16,0,-4.4409e-16,0,0,1,-2.8154e-16,0,1,-1.192,-1.248,-1.192,-90,-1.2107,0.056,-9.0196e-06,0.54,0.08,0
0.22422,-5.8768e-17,0.44,-1.247,-1.163,-1.163,1.6394e-15,0,0,-0.1092,2.1332e-17,0,4.2624e-15,0,0,1,-2.145e-15,0,1,-1.163,-1.247,-1.163,90,-1.191,0.084,-3.0441e-05,0.56,0.08,0
0.22168,9.6854e-17,0.42,-1.246,-1.134,-1.134,8.7159e-16,0,0,-0.1456,4.8447e-16,0,2.2661e-15,0,0,1,3.8459e-15,0,1,-1.134,-1.246,-1.134,90,-1.1713,0.112,-7.2157e-05,0.58,0.08,0
0.2184,8.7122e-17,0.4,-1.245,-1.105,-1.105,-8.8468e-17,0,0,-0.182,5.607e-16,0,-2.3002e-16,0,0,1,-2.4265e-15,0,1,-1.105,-1.245,-1.105,-90,-1.1517,0.14,-0.00014093,0.6,0.08,0
0.2144,7.7748e-17,0.38,-1.244,-1.076,-1.076,-3.5305e-16,0,0,-0.2184,7.305e-16,0,-9.1793e-16,0,0,1,3.251e-16,0,1,-1.076,-1.244,-1.076,-90,-1.132,0.168,-0.00024353,0.62,0.08,0
0.20966,7.6119e-17,0.36,-1.243,-1.047,-1.047,2.8746e-16,0,0,-0.2548,4.694e-16,0,7.4741e-16,0,0,1,0,0,1,-1.047,-1.243,-1.047,90,-1.1123,0.196,-0.00038672,0.64,0.08,0
0.2042,9.181e-17,0.34,-1.242,-1.018,-1.018,-1.4792e-16,0,0,-0.2912,6.4675e-16,0,-3.8459e-16,0,0,1,0,0,1,-1.018,-1.242,-1.018,-90,-1.0927,0.224,-0.00057726,0.66,0.08,0
0.19802,8.8137e-17,0.32,-1.241,-0.989,-0.989,-8.342e-16,0,0,-0.3276,3.7821e-16,0,-2.1689e-15,0,0,1,5.907e-16,0,1,-0.989,-1.241,-0.989,-90,-1.073,0.252,-0.00082192,0.68,0.08,0
0.1911,-5.0988e-17,0.3,-1.24,-0.96,-0.96,-5.78e-16,0,0,-0.364,-1.0452e-18,0,-1.5028e-15,0,0,1,-5.5192e-15,0,1,-0.96,-1.24,-0.96,-90,-1.0533,0.28,-0.0011275,0.7,0.08,0
0.18346,-4.8471e-17,0.28,-1.239,-0.931,-0.931,-2.1044e-16,0,0,-0.4004,-2.3146e-16,0,-5.4714e-16,0,0,1,4.8764e-16,0,1,-0.931,-1.239,-0.931,-90,-1.0337,0.308,-0.0015006,0.72,0.08,0
0.17508,-4.8792e-17,0.26,-1.238,-0.902,-0.902,3.4998e-16,0,0,-0.4368,-6.5827e-17,0,9.0996e-16,0,0,1,-1.2133e-15,0,1,-0.902,-1.238,-0.902,90,-1.014,0.336,-0.0019482,0.74,0.08,0
0.16598,-4.9382e-17,0.24,-1.237,-0.873,-0.873,1.4792e-16,0,0,-0.4732,-3.1542e-16,0,3.8459e-16,0,0,1,1.6255e-16,0,1,-0.873,-1.237,-0.873,90,-0.99433,0.364,-0.002477,0.76,0.08,0
0.15616,-5.2501e-17,0.22,-1.236,-0.844,-0.844,-3.1872e-16,0,0,-0.5096,-4.0461e-16,0,-8.2868e-16,0,0,1,0,0,1,-0.844,-1.236,-0.844,-90,-0.97467,0.392,-0.0030937,0.78,0.08,0
0.1456,-6.1131e-17,0.2,-1.235,-0.815,-0.815,1.1441e-15,0,0,-0.546,-7.3022e-18,0,2.9748e-15,0,0,1,7.2563e-16,0,1,-0.815,-1.235,-0.815,90,-0.955,0.42,-0.0038052,0.8,0.08,0
0.13432,6.2123e-17,0.18,-1.234,-0.786,-0.786,5.1701e-16,0,0,-0.5824,2.8503e-16,0,1.3442e-15,0,0,1,1.1915e-15,0,1,-0.786,-1.234,-0.786,90,-0.93533,0.448,-0.0046181,0.82,0.08,0
0.1223,5.3148e-17,0.16,-1.233,-0.757,-0.757,-2.135e-17,0,0,-0.6188,3.4266e-16,0,-5.5511e-17,0,0,1,-1.4077e-16,0,1,-0.757,-1.233,-0.757,-90,-0.91567,0.476,-0.0055392,0.84,0.08,0
0.10956,5.2215e-17,0.14,-1.232,-0.728,-0.728,-2.0625e-16,0,0,-0.6552,3.5095e-16,0,-5.3625e-16,0,0,1,-4.8473e-16,0,1,-0.728,-1.232,-0.728,-90,-0.896,0.504,-0.0065753,0.86,0.08,0
0.096096,5.5676e-17,0.12,-1.231,-0.699,-0.699,1.0522e-16,0,0,-0.6916,5.6371e-16,0,2.7357e-16,0,0,1,-2.9748e-17,0,1,-0.699,-1.231,-0.699,90,-0.87633,0.532,-0.0077332,0.88,0.08,0
0.0819,5.9605e-17,0.1,-1.23,-0.67,-0.67,1.3592e-16,0,0,-0.728,4.1752e-16,0,3.5339e-16,0,0,1,-1.5166e-16,0,1,-0.67,-1.23,-0.67,90,-0.85667,0.56,-0.0090197,0.9,0.08,0
0.066976,6.8909e-17,0.08,-1.229,-0.641,-0.641,-6.8454e-16,0,0,-0.7644,1.9988e-16,0,-1.7798e-15,0,0,1,-8.1633e-16,0,1,-0.641,-1.229,-0.641,-90,-0.837,0.588,-0.010441,0.92,0.08,0
0.051324,-5.4745e-17,0.06,-1.228,-0.612,-0.612,-4.3388e-16,0,0,-0.8008,5.273e-17,0,-1.1281e-15,0,0,1,-1.3479e-15,0,1,-0.612,-1.228,-0.612,-90,-0.81733,0.616,-0.012005,0.94,0.08,0
0.034944,-4.3911e-17,0.04,-1.227,-0.583,-0.583,1.9287e-16,0,0,-0.8372,-2.7937e-16,0,5.0146e-16,0,0,1,-2.7222e-18,0,1,-0.583,-1.227,-0.583,90,-0.79767,0.644,-0.013718,0.96,0.08,0
0.017836,-3.9015e-17,0.02,-1.226,-0.554,-0.554,9.9365e-17,0,0,-0.8736,-4.1676e-16,0,2.5835e-16,0,0,1,0,0,1,-0.554,-1.226,-0.554,90,-0.778,0.672,-0.015586,0.98,0.08,0
0,-3.6153e-17,0,-1.2005,-0.5145,-0.5145,4.3799e-17,0,0,-0.8918,-4.6156e-16,0,1.1388e-16,0,0,1,0,0,1,-0.5145,-1.2005,-0.5145,90,-0.74317,0.686,-0.016581,1,0.08,0
0,2.6404e-18,1,-1.2995,-1.9855,-1.9855,-7.3488e-17,0,0,0.8918,1.3896e-16,0,-1.9107e-16,0,0,1,0,0,1,-1.2995,-1.9855,-1.9855,-6.1378e-15,-1.7568,0.686,0.016581,0,0.1,0
0.017836,-5.1384e-19,0.98,-1.274,-1.946,-1.946,-1.9246e-16,0,0,0.8736,1.2761e-16,0,-5.004e-16,0,0,1,5.2972e-15,0,1,-1.274,-1.946,-1.946,-1.641e-14,-1.722,0.672,0.015586,0.02,0.1,0
0.034944,-8.0728e-18,0.96,-1.273,-1.917,-1.917,2.1288e-16,0,0,0.8372,9.9077e-17,0,5.5348e-16,0,0,1,3.5698e-16,0,1,-1.273,-1.917,-1.917,1.894e-14,-1.7023,0.644,0.013718,0.04,0.1,0
0.051324,7.9742e-18,0.94,-1.272,-1.888,-1.888,4.1319e-16,0,0,0.8008,-7.1995e-18,0,1.0743e-15,0,0,1,5.7413e-15,0,1,-1.272,-1.888,-1.888,3.8432e-14,-1.6827,0.616,0.012005,0.06,0.1,0
0.066976,3.1039e-17,0.92,-1.271,-1.859,-1.859,4.0402e-17,0,0,0.7644,2.6354e-16,0,1.0504e-16,0,0,1,-3.489e-15,0,1,-1.271,-1.859,-1.859,3.9368e-15,-1.663,0.588,0.010441,0.08,0.1,0
0.0819,-2.571e-18,0.9,-1.27,-1.83,-1.83,-6.3612e-16,0,0,0.728,2.5929e-17,0,-1.6539e-15,0,0,1,6.5019e-16,0,1,-1.27,-1.83,-1.83,-6.5084e-14,-1.6433,0.56,0.0090197,0.1,0.1,0
0.096096,-8.9838e-18,0.88,-1.269,-1.801,-1.801,-1.281e-16,0,0,0.6916,1.7068e-16,0,-3.3307e-16,0,0,1,0,0,1,-1.269,-1.801,-1.801,-1.3796e-14,-1.6237,0.532,0.0077332,0.12,0.1,0
0.10956,-1.1355e-17,0.86,-1.268,-1.772,-1.772,4.2282e-16,0,0,0.6552,8.7433e-17,0,1.0993e-15,0,0,1,-1.5703e-15,0,1,-1.268,-1.772,-1.772,4.8067e-14,-1.604,0.504,0.0065753,0.14,0.1,0
0.1223,4.4821e-17,0.84,-1.267,-1.743,-1.743,1.5936e-16,0,0,0.6188,1.1658e-16,0,4.1434e-16,0,0,1,2.2523e-15,0,1,-1.267,-1.743,-1.743,1.9182e-14,-1.5843,0.476,0.0055392,0.16,0.1,0
0.13432,-2.3022e-17,0.82,-1.266,-1.714,-1.714,-5.9934e-16,0,0,0.5824,2.6819e-16,0,-1.5583e-15,0,0,1,-3.1086e-15,0,1,-1.266,-1.714,-1.714,-7.6652e-14,-1.5647,0.448,0.0046181,0.18,0.1,0
0.1456,-1.5406e-17,0.8,-1.265,-1.685,-1.685,6.0925e-16,0,0,0.546,2.2246e-16,0,1.5841e-15,0,0,1,9.7529e-16,0,1,-1.265,-1.685,-1.685,8.3113e-14,-1.545,0.42,0.0038052,0.2,0.1,0
0.15616,3.0532e-17,0.78,-1.264,-1.656,-1.656,-1.5099e-16,0,0,0.5096,-6.6493e-17,0,-3.9256e-16,0,0,1,-6.5019e-16,0,1,-1.264,-1.656,-1.656,-2.2068e-14,-1.5253,0.392,0.0030937,0.22,0.1,0
0.16598,-2.7981e-17,0.76,-1.263,-1.627,-1.627,-7.4573e-16,0,0,0.4732,-5.9207e-18,0,-1.9389e-15,0,0,1,9.7529e-16,0,1,-1.263,-1.627,-1.627,-1.1738e-13,-1.5057,0.364,0.002477,0.24,0.1,0
0.17508,-3.9231e-17,0.74,-1.262,-1.598,-1.598,-1.281e-16,0,0,0.4368,1.2116e-16,0,-3.3307e-16,0,0,1,0,0,1,-1.262,-1.598,-1.598,-2.1844e-14,-1.486,0.336,0.0019482,0.26,0.1,0
0.18346,-3.4251e-17,0.72,-1.261,-1.569,-1.569,7.1754e-16,0,0,0.4004,1.2946e-16,0,1.8656e-15,0,0,1,2.4265e-15,0,1,-1.261,-1.569,-1.569,1.3348e-13,-1.4663,0.308,0.0015006,0.28,0.1,0
0.1911,6.1901e-17,0.7,-1.26,-1.54,-1.54,1.1415e-15,0,0,0.364,2.2083e-16,0,2.9678e-15,0,0,1,8.8818e-16,0,1,-1.26,-1.54,-1.54,2.3358e-13,-1.4467,0.28,0.0011275,0.3,0.1,0
0.19802,6.0498e-17,0.68,-1.259,-1.511,-1.511,5.4143e-17,0,0,0.3276,3.2329e-16,0,1.4077e-16,0,0,1,0,0,1,-1.259,-1.511,-1.511,1.231e-14,-1.427,0.252,0.00082192,0.32,0.1,0
0.2042,5.8813e-17,0.66,-1.258,-1.482,-1.482,-1.8531e-16,0,0,0.2912,8.9286e-17,0,-4.8181e-16,0,0,1,-1.6574e-15,0,1,-1.258,-1.482,-1.482,-4.74e-14,-1.4073,0.224,0.00057726,0.34,0.1,0
0.20966,-4.3283e-17,0.64,-1.257,-1.453,-1.453,-9.1654e-16,0,0,0.2548,6.3918e-17,0,-2.383e-15,0,0,1,1.9825e-15,0,1,-1.257,-1.453,-1.453,-2.6793e-13,-1.3877,0.196,0.00038672,0.36,0.1,0
0.2144,-4.1103e-17,0.62,-1.256,-1.424,-1.424,-2.1044e-16,0,0,0.2184,2.3833e-17,0,-5.4714e-16,0,0,1,0,0,1,-1.256,-1.424,-1.424,-7.1769e-14,-1.368,0.168,0.00024353,0.38,0.1,0
0.2184,-4.7522e-17,0.6,-1.255,-1.395,-1.395,9.0816e-16,0,0,0.182,1.4461e-16,0,2.3612e-15,0,0,1,7.6918e-16,0,1,-1.255,-1.395,-1.395,3.7167e-13,-1.3483,0.14,0.00014093,0.4,0.1,0
0.22168,5.9398e-17,0.58,-1.254,-1.366,-1.366,1.2467e-15,0,0,0.1456,2.0298e-16,0,3.2414e-15,0,0,1,2.8706e-15,0,1,-1.254,-1.366,-1.366,6.3777e-13,-1.3287,0.112,7.2157e-05,0.42,0.1,0
0.22422,5.7427e-17,0.56,-1.253,-1.337,-1.337,8.3759e-18,0,0,0.1092,2.467e-16,0,2.1777e-17,0,0,1,0,0,1,-1.253,-1.337,-1.337,5.7131e-15,-1.309,0.084,3.0441e-05,0.44,0.1,0
0.22604,5.7709e-17,0.54,-1.252,-1.308,-1.308,-1.079e-15,0,0,0.0728,-5.9338e-17,0,-2.8053e-15,0,0,1,-1.5384e-15,0,1,-1.252,-1.308,-1.308,-1.1039e-12,-1.2893,0.056,9.0196e-06,0.46,0.1,0
0.22714,-4.1246e-17,0.52,-1.251,-1.279,-1.279,-1.2978e-15,0,0,0.0364,2.6035e-16,0,-3.3742e-15,0,0,1,4.3555e-17,0,1,-1.251,-1.279,-1.279,-2.6556e-12,-1.2697,0.028,1.1275e-06,0.48,0.1,0
0.2275,-4.6683e-17,0.5,-1.25,-1.25,-1.25,-1.1442e-17,0,0,9.541e-18,1.2173e-16,0,-2.9748e-17,0,0,1,-3.251e-16,0,1,-1.25,-1.25,-1.25,-0.73793,-1.25,1.1213e-15,9.1088e-47,0.5,0.1,0
0.22714,-4.0344e-17,0.48,-1.249,-1.221,-1.221,-2.2188e-16,0,0,-0.0364,-3.1227e-17,0,-5.7689e-16,0,0,1,9.3173e-16,0,1,-1.221,-1.249,-1.221,-90,-1.2303,0.028,-1.1275e-06,0.52,0.1,0
0.22604,-5.4978e-17,0.46,-1.248,-1.192,-1.192,-2.8746e-16,0,0,-0.0728,-1.0342e-16,0,-7.4741e-16,0,0,1,-2.7081e-15,0,1,-1.192,-1.248,-1.192,-90,-1.2107,0.056,-9.0196e-06,0.54,0.1,0
0.22422,-5.9419e-17,0.44,-1.247,-1.163,-1.163,1.981e-15,0,0,-0.1092,1.4557e-16,0,5.1506e-15,0,0,1,-1.3758e-15,0,1,-1.163,-1.247,-1.163,90,-1.191,0.084,-3.0441e-05,0.56,0.1,0
0.22168,1.038e-16,0.42,-1.246,-1.134,-1.134,7.0916e-16,0,0,-0.1456,3.2301e-16,0,1.8438e-15,0,0,1,3.5208e-15,0,1,-1.134,-1.246,-1.134,90,-1.1713,0.112,-7.2157e-05,0.58,0.1,0
0.2184,9.6374e-17,0.4,-1.245,-1.105,-1.105,4.2701e-17,0,0,-0.182,4.6424e-16,0,1.1102e-16,0,0,1,-2.4265e-15,0,1,-1.105,-1.245,-1.105,90,-1.1517,0.14,-0.00014093,0.6,0.1,0
0.2144,9.1681e-17,0.38,-1.244,-1.076,-1.076,1.9062e-16,0,0,-0.2184,6.2671e-16,0,4.9561e-16,0,0,1,3.251e-16,0,1,-1.076,-1.244,-1.076,90,-1.132,0.168,-0.00024353,0.62,0.1,0
0.20966,8.2432e-17,0.36,-1.243,-1.047,-1.047,-2.7602e-16,0,0,-0.2548,4.2666e-16,0,-7.1766e-16,0,0,1,-4.4409e-16,0,1,-1.047,-1.243,-1.047,-90,-1.1123,0.196,-0.00038672,0.64,0.1,0
0.2042,9.9488e-17,0.34,-1.242,-1.018,-1.018,1.5099e-16,0,0,-0.2912,2.3972e-16,0,3.9256e-16,0,0,1,-1.0507e-15,0,1,-1.018,-1.242,-1.018,90,-1.0927,0.224,-0.00057726,0.66,0.1,0
0.19802,9.7855e-17,0.32,-1.241,-0.989,-0.989,-1.2696e-15,0,0,-0.3276,4.3264e-16,0,-3.3009e-15,0,0,1,1.5224e-15,0,1,-0.989,-1.241,-0.989,-90,-1.073,0.252,-0.00082192,0.68,0.1,0
0.1911,-5.0188e-17,0.3,-1.24,-0.96,-0.96,-7.6331e-16,0,0,-0.364,1.8022e-16,0,-1.9846e-15,0,0,1,-4.75e-15,0,1,-0.96,-1.24,-0.96,-90,-1.0533,0.28,-0.0011275,0.7,0.1,0
0.18346,-5.3984e-17,0.28,-1.239,-0.931,-0.931,1.6243e-16,0,0,-0.4004,-1.3364e-16,0,4.2231e-16,0,0,1,3.251e-16,0,1,-0.931,-1.239,-0.931,90,-1.0337,0.308,-0.0015006,0.72,0.1,0
0.17508,-4.5363e-17,0.26,-1.238,-0.902,-0.902,-4.2701e-17,0,0,-0.4368,1.3115e-17,0,-1.1102e-16,0,0,1,0,0,1,-0.902,-1.238,-0.902,-90,-1.014,0.336,-0.0019482,0.74,0.1,0
0.16598,-5.5511e-17,0.24,-1.237,-0.873,-0.873,2.7602e-16,0,0,-0.4732,-2.5913e-17,0,7.1766e-16,0,0,1,0,0,1,-0.873,-1.237,-0.873,90,-0.99433,0.364,-0.002477,0.76,0.1,0
0.15616,-5.8134e-17,0.22,-1.236,-0.844,-0.844,-3.6143e-16,0,0,-0.5096,-1.3988e-16,0,-9.397e-16,0,0,1,0,0,1,-0.844,-1.236,-0.844,-90,-0.97467,0.392,-0.0030937,0.78,0.1,0
0.1456,-6.1126e-17,0.2,-1.235,-0.815,-0.815,1.4389e-15,0,0,-0.546,3.9238e-17,0,3.741e-15,0,0,1,5.9283e-16,0,1,-0.815,-1.235,-0.815,90,-0.955,0.42,-0.0038052,0.8,0.1,0
0.13432,6.6801e-17,0.18,-1.234,-0.786,-0.786,4.598e-16,0,0,-0.5824,2.6446e-16,0,1.1955e-15,0,0,1,2.0717e-15,0,1,-0.786,-1.234,-0.786,90,-0.93533,0.448,-0.0046181,0.82,0.1,0
0.1223,5.9697e-17,0.16,-1.233,-0.757,-0.757,-6.5584e-17,0,0,-0.6188,4.1855e-16,0,-1.7052e-16,0,0,1,-8.2868e-16,0,1,-0.757,-1.233,-0.757,-90,-0.91567,0.476,-0.0055392,0.84,0.1,0
0.10956,5.7456e-17,0.14,-1.232,-0.728,-0.728,-1.6355e-16,0,0,-0.6552,3.0485e-16,0,-4.2523e-16,0,0,1,-4.0345e-16,0,1,-0.728,-1.232,-0.728,-90,-0.896,0.504,-0.0065753,0.86,0.1,0
0.096096,6.6043e-17,0.12,-1.231,-0.699,-0.699,1.2238e-16,0,0,-0.6916,4.4408e-16,0,3.1819e-16,0,0,1,-2.9748e-17,0,1,-0.699,-1.231,-0.699,90,-0.87633,0.532,-0.0077332,0.88,0.1,0
0.0819,6.6443e-17,0.1,-1.23,-0.67,-0.67,-3.2026e-17,0,0,-0.728,4.214e-16,0,-8.3267e-17,0,0,1,-8.1274e-17,0,1,-0.67,-1.23,-0.67,-90,-0.85667,0.56,-0.0090197,0.9,0.1,0
0.066976,7.3188e-17,0.08,-1.229,-0.641,-0.641,-9.194e-16,0,0,-0.7644,2.0681e-16,0,-2.3904e-15,0,0,1,-5.259e-16,0,1,-0.641,-1.229,-0.641,-90,-0.837,0.588,-0.010441,0.92,0.1,0
0.051324,-5.3058e-17,0.06,-1.228,-0.612,-0.612,-5.8504e-16,0,0,-0.8008,4.0733e-17,0,-1.5211e-15,0,0,1,-1.7297e-15,0,1,-0.612,-1.228,-0.612,-90,-0.81733,0.616,-0.012005,0.94,0.1,0
0.034944,-4.8489e-17,0.04,-1.227,-0.583,-0.583,2.014e-16,0,0,-0.8372,-1.1925e-16,0,5.2364e-16,0,0,1,1.2626e-16,0,1,-0.583,-1.227,-0.583,90,-0.79767,0.644,-0.013718,0.96,0.1,0
0.017836,-4.5586e-17,0.02,-1.226,-0.554,-0.554,1.5284e-16,0,0,-0.8736,-2.0273e-16,0,3.9738e-16,0,0,1,-1.3611e-18,0,1,-0.554,-1.226,-0.554,90,-0.778,0.672,-0.015586,0.98,0.1,0
0,-4.4355e-17,0,-1.2005,-0.5145,-0.5145,2.6024e-17,0,0,-0.8918,-2.6524e-16,0,6.7663e-17,0,0,1,0,0,1,-0.5145,-1.2005,-0.5145,90,-0.74317,0.686,-0.016581,1,0.1,0
0,8.4441e-18,1,-1.2995,-1.9855,-1.9855,-1.231e-16,0,0,0.8918,1.0081e-16,0,-3.2005e-16,0,0,1,0,0,1,-1.2995,-1.9855,-1.9855,-1.0281e-14,-1.7568,0.686,0.016581,0,0.12,0
0.017836,3.0239e-18,0.98,-1.274,-1.946,-1.946,-2.0926e-16,0,0,0.8736,2.2791e-16,0,-5.4407e-16,0,0,1,4.29e-15,0,1,-1.274,-1.946,-1.946,-1.7842e-14,-1.722,0.672,0.015586,0.02,0.12,0
0.034944,-2.7776e-18,0.96,-1.273,-1.917,-1.917,2.4138e-16,0,0,0.8372,8.9617e-17,0,6.2759e-16,0,0,1,-3.4018e-15,0,1,-1.273,-1.917,-1.917,2.1475e-14,-1.7023,0.644,0.013718,0.04,0.12,0
0.051324,8.1437e-18,0.94,-1.272,-1.888,-1.888,3.4171e-16,0,0,0.8008,2.1512e-16,0,8.8844e-16,0,0,1,3.2828e-15,0,1,-1.272,-1.888,-1.888,3.1783e-14,-1.6827,0.616,0.012005,0.06,0.12,0
0.066976,3.3129e-17,0.92,-1.271,-1.859,-1.859,8.3869e-17,0,0,0.7644,1.49e-16,0,2.1806e-16,0,0,1,-8.58e-15,0,1,-1.271,-1.859,-1.859,8.1723e-15,-1.663,0.588,0.010441,0.08,0.12,0
0.0819,-2.0703e-18,0.9,-1.2782,-1.8335,-1.8335,-3.444e-16,0,0,0.72193,7.4382e-17,0,-8.9544e-16,0,0,1,6.7456e-15,0,1,-1.2782,-1.8335,-1.8335,-3.4649e-14,-1.6484,0.55533,0.0088035,0.1,0.12,0
0.096096,-2.5333e-18,0.88,-1.269,-1.801,-1.801,-8.5402e-17,0,0,0.6916,1.3943e-16,0,-2.2204e-16,0,0,1,0,0,1,-1.269,-1.801,-1.801,-9.1977e-15,-1.6237,0.532,0.0077332,0.12,0.12,0
0.10956,-8.1303e-18,0.86,-1.268,-1.772,-1.772,4.3426e-16,0,0,0.6552,1.3919e-16,0,1.1291e-15,0,0,1,3.7588e-15,0,1,-1.268,-1.772,-1.772,4.9368e-14,-1.604,0.504,0.0065753,0.14,0.12,0
0.1223,4.6416e-17,0.84,-1.267,-1.743,-1.743,-2.5355e-16,0,0,0.6188,5.9262e-17,0,-6.5923e-16,0,0,1,-8.5248e-15,0,1,-1.267,-1.743,-1.743,-3.052e-14,-1.5843,0.476,0.0055392,0.16,0.12,0
0.13432,-1.0516e-17,0.82,-1.266,-1.714,-1.714,-5.6655e-16,0,0,0.5824,4.208e-16,0,-1.473e-15,0,0,1,7.8886e-31,0,1,-1.266,-1.714,-1.714,-7.2458e-14,-1.5647,0.448,0.0046181,0.18,0.12,0
0.1456,-1.215e-17,0.8,-1.265,-1.685,-1.685,5.9209e-16,0,0,0.546,-1.0234e-16,0,1.5394e-15,0,0,1,9.7529e-16,0,1,-1.265,-1.685,-1.685,8.0772e-14,-1.545,0.42,0.0038052,0.2,0.12,0
0.15616,3.2559e-17,0.78,-1.264,-1.656,-1.656,1.5936e-16,0,0,0.5096,1.3129e-16,0,4.1434e-16,0,0,1,-5.2972e-15,0,1,-1.264,-1.656,-1.656,2.3293e-14,-1.5253,0.392,0.0030937,0.22,0.12,0
0.16598,-3.0193e-17,0.76,-1.263,-1.627,-1.627,-4.9259e-16,0,0,0.4732,2.508e-17,0,-1.2807e-15,0,0,1,3.4337e-15,0,1,-1.263,-1.627,-1.627,-7.7537e-14,-1.5057,0.364,0.002477,0.24,0.12,0
0.17508,-3.0165e-17,0.74,-1.262,-1.598,-1.598,-2.562e-16,0,0,0.4368,-3.6527e-18,0,-6.6613e-16,0,0,1,4.2029e-15,0,1,-1.262,-1.598,-1.598,-4.3689e-14,-1.486,0.336,0.0019482,0.26,0.12,0
0.18346,-3.4518e-17,0.72,-1.261,-1.569,-1.569,1.0904e-15,0,0,0.4004,1.3936e-16,0,2.8351e-15,0,0,1,2.6645e-15,0,1,-1.261,-1.569,-1.569,2.0284e-13,-1.4663,0.308,0.0015006,0.28,0.12,0
0.1911,6.8417e-17,0.7,-1.26,-1.54,-1.54,1.1842e-15,0,0,0.364,1.6308e-16,0,3.0789e-15,0,0,1,-4.8531e-15,0,1,-1.26,-1.54,-1.54,2.4232e-13,-1.4467,0.28,0.0011275,0.3,0.12,0
0.19802,6.7173e-17,0.68,-1.259,-1.511,-1.511,4.3539e-16,0,0,0.3276,4.6079e-19,0,1.132e-15,0,0,1,1.3004e-15,0,1,-1.259,-1.511,-1.511,9.8991e-14,-1.427,0.252,0.00082192,0.32,0.12,0
0.2042,5.8427e-17,0.66,-1.2498,-1.4785,-1.4785,-5.9577e-16,0,0,0.29727,2.1705e-16,0,-1.549e-15,0,0,1,1.3429e-15,0,1,-1.2498,-1.4785,-1.4785,-1.5307e-13,-1.4023,0.22867,0.00061716,0.34,0.12,0
0.20966,-3.7611e-17,0.64,-1.257,-1.453,-1.453,-8.8528e-16,0,0,0.2548,1.2194e-16,0,-2.3017e-15,0,0,1,-6.8208e-16,0,1,-1.257,-1.453,-1.453,-2.5879e-13,-1.3877,0.196,0.00038672,0.36,0.12,0
0.2144,-3.805e-17,0.62,-1.256,-1.424,-1.424,-1.281e-16,0,0,0.2184,-2.2693e-16,0,-3.3307e-16,0,0,1,0,0,1,-1.256,-1.424,-1.424,-4.3689e-14,-1.368,0.168,0.00024353,0.38,0.12,0
0.2184,-4.2045e-17,0.6,-1.255,-1.395,-1.395,1.4488e-15,0,0,0.182,-2.2933e-17,0,3.7668e-15,0,0,1,-3.251e-16,0,1,-1.255,-1.395,-1.395,5.9292e-13,-1.3483,0.14,0.00014093,0.4,0.12,0
0.22168,6.172e-17,0.58,-1.254,-1.366,-1.366,1.1842e-15,0,0,0.1456,-8.7686e-17,0,3.0789e-15,0,0,1,-1.8635e-15,0,1,-1.254,-1.366,-1.366,6.0579e-13,-1.3287,0.112,7.2157e-05,0.42,0.12,0
0.22422,6.2656e-17,0.56,-1.253,-1.337,-1.337,2.6458e-16,0,0,0.1092,-2.0299e-17,0,6.8791e-16,0,0,1,0,0,1,-1.253,-1.337,-1.337,1.8047e-13,-1.309,0.084,3.0441e-05,0.44,0.12,0
0.22604,5.4069e-17,0.54,-1.252,-1.308,-1.308,-6.2907e-16,0,0,0.0728,-1.4443e-16,0,-1.6356e-15,0,0,1,-2.8271e-15,0,1,-1.252,-1.308,-1.308,-6.4363e-13,-1.2893,0.056,9.0196e-06,0.46,0.12,0
0.22714,-3.0184e-17,0.52,-1.251,-1.279,-1.279,-2.106e-15,0,0,0.0364,9.9159e-17,0,-5.4757e-15,0,0,1,3.5963e-15,0,1,-1.251,-1.279,-1.279,-4.3095e-12,-1.2697,0.028,1.1275e-06,0.48,0.12,0
0.2275,-4.2942e-17,0.5,-1.25,-1.25,-1.25,1.281e-16,0,0,3.0444e-16,5.3665e-17,0,3.3307e-16,0,0,1,1.7764e-15,0,1,-1.25,-1.25,-1.25,24.543,-1.25,3.8459e-16,0,0.5,0.12,0
0.22714,-4.1309e-17,0.48,-1.249,-1.221,-1.221,-2.8746e-16,0,0,-0.0364,-2.141e-16,0,-7.4741e-16,0,0,1,1.2133e-15,0,1,-1.221,-1.249,-1.221,-90,-1.2303,0.028,-1.1275e-06,0.52,0.12,0
0.22604,-5.4985e-17,0.46,-1.248,-1.192,-1.192,-4.2701e-16,0,0,-0.0728,-5.8186e-17,0,-1.1102e-15,0,0,1,-2.4265e-15,0,1,-1.192,-1.248,-1.192,-90,-1.2107,0.056,-9.0196e-06,0.54,0.12,0
0.22422,-5.2945e-17,0.44,-1.247,-1.163,-1.163,1.0873e-15,0,0,-0.1092,7.596e-17,0,2.8271e-15,0,0,1,-1.7604e-15,0,1,-1.163,-1.247,-1.163,90,-1.191,0.084,-3.0441e-05,0.56,0.12,0
0.22168,1.0977e-16,0.42,-1.246,-1.134,-1.134,9.4555e-16,0,0,-0.1456,4.5795e-16,0,2.4584e-15,0,0,1,2.605e-15,0,1,-1.134,-1.246,-1.134,90,-1.1713,0.112,-7.2157e-05,0.58,0.12,0
0.2184,1.0569e-16,0.4,-1.245,-1.105,-1.105,2.8746e-16,0,0,-0.182,3.527e-16,0,7.4741e-16,0,0,1,0,0,1,-1.105,-1.245,-1.105,90,-1.1517,0.14,-0.00014093,0.6,0.12,0
0.2144,1.0282e-16,0.38,-1.244,-1.076,-1.076,4.8953e-16,0,0,-0.2184,3.2912e-16,0,1.2728e-15,0,0,1,0,0,1,-1.076,-1.244,-1.076,90,-1.132,0.168,-0.00024353,0.62,0.12,0
0.20966,9.3185e-17,0.36,-1.243,-1.047,-1.047,-1.1666e-16,0,0,-0.2548,4.3858e-16,0,-3.0332e-16,0,0,1,-4.4409e-16,0,1,-1.047,-1.243,-1.047,-90,-1.1123,0.196,-0.00038672,0.64,0.12,0
0.2042,1.014e-16,0.34,-1.242,-1.018,-1.018,2.5314e-16,0,0,-0.2912,1.8376e-17,0,6.5816e-16,0,0,1,-1.0507e-15,0,1,-1.018,-1.242,-1.018,90,-1.0927,0.224,-0.00057726,0.66,0.12,0
0.19802,1.0544e-16,0.32,-1.241,-0.989,-0.989,-1.4488e-15,0,0,-0.3276,1.984e-16,0,-3.7668e-15,0,0,1,-4.0054e-16,0,1,-0.989,-1.241,-0.989,-90,-1.073,0.252,-0.00082192,0.68,0.12,0
0.1911,-4.3779e-17,0.3,-1.24,-0.96,-0.96,-9.5393e-16,0,0,-0.364,1.9807e-16,0,-2.4802e-15,0,0,1,-3.4773e-15,0,1,-0.96,-1.24,-0.96,-90,-1.0533,0.28,-0.0011275,0.7,0.12,0
0.18346,-5.3816e-17,0.28,-1.239,-0.931,-0.931,-8.5402e-17,0,0,-0.4004,-9.0515e-18,0,-2.2204e-16,0,0,1,-1.132e-15,0,1,-0.931,-1.239,-0.931,-90,-1.0337,0.308,-0.0015006,0.72,0.12,0
0.17508,-4.8268e-17,0.26,-1.238,-0.902,-0.902,3.8431e-16,0,0,-0.4368,-1.6278e-16,0,9.992e-16,0,0,1,-1.4077e-16,0,1,-0.902,-1.238,-0.902,90,-1.014,0.336,-0.0019482,0.74,0.12,0
0.16598,-5.0418e-17,0.24,-1.237,-0.873,-0.873,5.6042e-16,0,0,-0.4732,5.2119e-17,0,1.4571e-15,0,0,1,0,0,1,-0.873,-1.237,-0.873,90,-0.99433,0.364,-0.002477,0.76,0.12,0
0.15616,-5.8096e-17,0.22,-1.236,-0.844,-0.844,-2.135e-16,0,0,-0.5096,-1.8143e-16,0,-5.5511e-16,0,0,1,0,0,1,-0.844,-1.236,-0.844,-90,-0.97467,0.392,-0.0030937,0.78,0.12,0
0.1456,-5.9561e-17,0.2,-1.235,-0.815,-0.815,7.2591e-16,0,0,-0.546,-7.8243e-17,0,1.8874e-15,0,0,1,6.7468e-17,0,1,-0.815,-1.235,-0.815,90,-0.955,0.42,-0.0038052,0.8,0.12,0
0.13432,7.2702e-17,0.18,-1.234,-0.786,-0.786,8.0447e-16,0,0,-0.5824,1.6859e-16,0,2.0916e-15,0,0,1,2.8191e-15,0,1,-0.786,-1.234,-0.786,90,-0.93533,0.448,-0.0046181,0.82,0.12,0
0.1223,6.989e-17,0.16,-1.233,-0.757,-0.757,-2.7184e-16,0,0,-0.6188,2.352e-16,0,-7.0677e-16,0,0,1,6.0664e-16,0,1,-0.757,-1.233,-0.757,-90,-0.91567,0.476,-0.0055392,0.84,0.12,0
0.10956,6.4408e-17,0.14,-1.232,-0.728,-0.728,-9.1123e-17,0,0,-0.6552,2.3951e-16,0,-2.3692e-16,0,0,1,-8.1274e-17,0,1,-0.728,-1.232,-0.728,-90,-0.896,0.504,-0.0065753,0.86,0.12,0
0.096096,7.3439e-17,0.12,-1.231,-0.699,-0.699,1.2238e-16,0,0,-0.6916,1.1491e-16,0,3.1819e-16,0,0,1,0,0,1,-0.699,-1.231,-0.699,90,-0.87633,0.532,-0.0077332,0.88,0.12,0
0.0819,7.6461e-17,0.1,-1.23,-0.67,-0.67,-3.412e-17,0,0,-0.728,2.0819e-16,0,-8.8711e-17,0,0,1,-1.4791e-31,0,1,-0.67,-1.23,-0.67,-90,-0.85667,0.56,-0.0090197,0.9,0.12,0
0.066976,7.7182e-17,0.08,-1.229,-0.641,-0.641,-8.5039e-16,0,0,-0.7644,6.7024e-17,0,-2.211e-15,0,0,1,-9.9031e-16,0,1,-0.641,-1.229,-0.641,-90,-0.837,0.588,-0.010441,0.92,0.12,0
0.051324,-5.3115e-17,0.06,-1.228,-0.612,-0.612,-7.0428e-16,0,0,-0.8008,-3.3306e-17,0,-1.8311e-15,0,0,1,-1.5022e-15,0,1,-0.612,-1.228,-0.612,-90,-0.81733,0.616,-0.012005,0.94,0.12,0
0.034944,-4.8681e-17,0.04,-1.227,-0.583,-0.583,2.3004e-16,0,0,-0.8372,-1.338e-16,0,5.9811e-16,0,0,1,1.0594e-16,0,1,-0.583,-1.227,-0.583,90,-0.79767,0.644,-0.013718,0.96,0.12,0
0.017836,-4.7124e-17,0.02,-1.226,-0.554,-0.554,8.4948e-17,0,0,-0.8736,-1.5001e-16,0,2.2087e-16,0,0,1,1.4776e-16,0,1,-0.554,-1.226,-0.554,90,-0.778,0.672,-0.015586,0.98,0.12,0
0,-4.6762e-17,0,-1.2005,-0.5145,-0.5145,1.3012e-17,0,0,-0.8918,-1.8335e-16,0,3.3832e-17,0,0,1,-2.168e-17,0,1,-0.5145,-1.2005,-0.5145,90,-0.74317,0.686,-0.016581,1,0.12,0
0,6.6729e-18,1,-1.2995,-1.9855,-1.9855,3.2166e-17,0,0,0.8918,6.51e-17,0,8.3631e-17,0,0,1,0,0,1,-1.2995,-1.9855,-1.9855,2.6865e-15,-1.7568,0.686,0.016581,0,0.14,0
0.017836,8.6026e-18,0.98,-1.274,-1.946,-1.946,-1.175e-16,0,0,0.8736,1.4851e-16,0,-3.0549e-16,0,0,1,4.29e-15,0,1,-1.274,-1.946,-1.946,-1.0018e-14,-1.722,0.672,0.015586,0.02,0.14,0
0.034944,-4.4881e-18,0.96,-1.273,-1.917,-1.917,1.5917e-16,0,0,0.8372,-1.3933e-17,0,4.1384e-16,0,0,1,-4.9402e-15,0,1,-1.273,-1.917,-1.917,1.4161e-14,-1.7023,0.644,0.013718,0.04,0.14,0
0.051324,1.6579e-17,0.94,-1.272,-1.888,-1.888,3.8441e-16,0,0,0.8008,1.8111e-16,0,9.9947e-16,0,0,1,3.8459e-15,0,1,-1.272,-1.888,-1.888,3.5755e-14,-1.6827,0.616,0.012005,0.06,0.14,0
0.066976,3.6999e-17,0.92,-1.271,-1.859,-1.859,1.2943e-16,0,0,0.7644,1.8788e-16,0,3.3652e-16,0,0,1,-8.58e-15,0,1,-1.271,-1.859,-1.859,1.2612e-14,-1.663,0.588,0.010441,0.08,0.14,0
0.0819,-8.9174e-20,0.9,-1.27,-1.83,-1.83,-5.2155e-16,0,0,0.728,1.4656e-16,0,-1.356e-15,0,0,1,5.9155e-15,0,1,-1.27,-1.83,-1.83,-5.225e-14,-1.6433,0.56,0.0090366,0.1,0.14,0
0.096096,-3.4065e-18,0.88,-1.269,-1.801,-1.801,5.7208e-18,0,0,0.6916,2.863e-17,0,1.4874e-17,0,0,1,0,0,1,-1.269,-1.801,-1.801,6.1613e-16,-1.6237,0.532,0.0077332,0.12,0.14,0
0.10956,-5.7869e-18,0.86,-1.268,-1.772,-1.772,3.9003e-16,0,0,0.6552,2.7393e-16,0,1.0141e-15,0,0,1,1.4194e-15,0,1,-1.268,-1.772,-1.772,4.4339e-14,-1.604,0.504,0.0065753,0.14,0.14,0
0.1223,4.7192e-17,0.84,-1.267,-1.743,-1.743,-1.7499e-16,0,0,0.6188,1.2998e-16,0,-4.5498e-16,0,0,1,-5.8284e-15,0,1,-1.267,-1.743,-1.743,-2.1064e-14,-1.5843,0.476,0.0055392,0.16,0.14,0
0.13432,-6.19e-18,0.82,-1.266,-1.714,-1.714,-9.6077e-16,0,0,0.5824,2.0888e-16,0,-2.498e-15,0,0,1,-1.3323e-15,0,1,-1.266,-1.714,-1.714,-1.2287e-13,-1.5647,0.448,0.0046181,0.18,0.14,0
0.1456,-1.9499e-17,0.8,-1.265,-1.685,-1.685,3.885e-16,0,0,0.546,-4.0901e-17,0,1.0101e-15,0,0,1,6.7166e-15,0,1,-1.265,-1.685,-1.685,5.2998e-14,-1.545,0.42,0.0038052,0.2,0.14,0
0.15616,3.5783e-17,0.78,-1.264,-1.656,-1.656,-5.4143e-17,0,0,0.5096,2.4484e-18,0,-1.4077e-16,0,0,1,3.5698e-16,0,1,-1.264,-1.656,-1.656,-7.9136e-15,-1.5253,0.392,0.0030937,0.22,0.14,0
0.16598,-2.6978e-17,0.76,-1.263,-1.627,-1.627,-9.4473e-16,0,0,0.4732,2.296e-16,0,-2.4563e-15,0,0,1,-1.3323e-15,0,1,-1.263,-1.627,-1.627,-1.4871e-13,-1.5057,0.364,0.002477,0.24,0.14,0
0.17508,-3.9377e-17,0.74,-1.262,-1.598,-1.598,-7.396e-17,0,0,0.4368,-5.5846e-17,0,-1.923e-16,0,0,1,2.1014e-15,0,1,-1.262,-1.598,-1.598,-1.2612e-14,-1.486,0.336,0.0019482,0.26,0.14,0
0.18346,-2.8677e-17,0.72,-1.261,-1.569,-1.569,1.204e-15,0,0,0.4004,1.4454e-16,0,3.1304e-15,0,0,1,7.6918e-16,0,1,-1.261,-1.569,-1.569,2.2398e-13,-1.4663,0.308,0.0015006,0.28,0.14,0
0.1911,6.8424e-17,0.7,-1.26,-1.54,-1.54,9.7374e-16,0,0,0.364,9.4939e-17,0,2.5317e-15,0,0,1,4.647e-15,0,1,-1.26,-1.54,-1.54,1.9925e-13,-1.4467,0.28,0.0011275,0.3,0.14,0
0.19802,6.0516e-17,0.68,-1.259,-1.511,-1.511,5.6042e-16,0,0,0.3276,-2.408e-17,0,1.4571e-15,0,0,1,5.9165e-31,0,1,-1.259,-1.511,-1.511,1.2742e-13,-1.427,0.252,0.00082192,0.32,0.14,0
0.2042,6.5132e-17,0.66,-1.258,-1.482,-1.482,-1.2467e-15,0,0,0.2912,2.9518e-16,0,-3.2414e-15,0,0,1,-7.5176e-15,0,1,-1.258,-1.482,-1.482,-3.3065e-13,-1.4073,0.224,0.00058402,0.34,0.14,0
0.20966,-3.8406e-17,0.64,-1.257,-1.453,-1.453,-1.3435e-15,0,0,0.2548,5.2752e-17,0,-3.4932e-15,0,0,1,2.5455e-15,0,1,-1.257,-1.453,-1.453,-3.9275e-13,-1.3877,0.196,0.00038672,0.36,0.14,0
0.2144,-5.0181e-17,0.62,-1.256,-1.424,-1.424,-6.3745e-16,0,0,0.2184,-1.8832e-16,0,-1.6574e-15,0,0,1,0,0,1,-1.256,-1.424,-1.424,-2.174e-13,-1.368,0.168,0.00024353,0.38,0.14,0
0.2184,-4.8439e-17,0.6,-1.255,-1.395,-1.395,1.0134e-15,0,0,0.182,-1.6584e-16,0,2.6348e-15,0,0,1,2.7516e-15,0,1,-1.255,-1.395,-1.395,4.1473e-13,-1.3483,0.14,0.00014093,0.4,0.14,0
0.22168,5.589e-17,0.58,-1.254,-1.366,-1.366,1.1529e-15,0,0,0.1456,-6.7838e-17,0,2.9976e-15,0,0,1,1.2133e-15,0,1,-1.254,-1.366,-1.366,5.898e-13,-1.3287,0.112,7.2157e-05,0.42,0.14,0
0.22422,5.6615e-17,0.56,-1.253,-1.337,-1.337,-5.4143e-17,0,0,0.1092,-1.1303e-16,0,-1.4077e-16,0,0,1,0,0,1,-1.253,-1.337,-1.337,-3.693e-14,-1.309,0.084,3.0441e-05,0.44,0.14,0
0.22604,5.1932e-17,0.54,-1.252,-1.308,-1.308,-1.1331e-15,0,0,0.0728,8.5069e-17,0,-2.9461e-15,0,0,1,4.0054e-16,0,1,-1.252,-1.308,-1.308,-1.1593e-12,-1.2893,0.056,9.0196e-06,0.46,0.14,0
0.22714,-3.728e-17,0.52,-1.251,-1.279,-1.279,-9.0509e-16,0,0,0.0364,-7.077e-17,0,-2.3533e-15,0,0,1,-2.9461e-15,0,1,-1.251,-1.279,-1.279,-1.8521e-12,-1.2697,0.028,1.1275e-06,0.48,0.14,0
0.2275,-4.4537e-17,0.5,-1.25,-1.25,-1.25,9.3778e-17,0,0,1.4832e-16,-1.9206e-16,0,2.4382e-16,0,0,1,-1.7764e-15,0,1,-1.25,-1.25,-1.25,20.093,-1.25,6.0809e-16,0,0.5,0.14,0
0.22714,-4.8908e-17,0.48,-1.249,-1.221,-1.221,-1.7918e-16,0,0,-0.0364,-8.8301e-17,0,-4.6587e-16,0,0,1,-8.8818e-16,0,1,-1.221,-1.249,-1.221,-90,-1.2303,0.028,-1.1275e-06,0.52,0.14,0
0.22604,-5.7305e-17,0.46,-1.248,-1.192,-1.192,-5.4367e-16,0,0,-0.0728,9.9552e-17,0,-1.4135e-15,0,0,1,0,0,1,-1.192,-1.248,-1.192,-90,-1.2107,0.056,-9.0196e-06,0.54,0.14,0
0.22422,-5.638e-17,0.44,-1.247,-1.163,-1.163,1.9154e-15,0,0,-0.1092,-1.1842e-16,0,4.9801e-15,0,0,1,1.8359e-15,0,1,-1.163,-1.247,-1.163,90,-1.191,0.084,-3.0441e-05,0.56,0.14,0
0.22168,1.2212e-16,0.42,-1.246,-1.134,-1.134,1.0393e-15,0,0,-0.1456,3.9106e-16,0,2.7023e-15,0,0,1,2.5296e-15,0,1,-1.134,-1.246,-1.134,90,-1.1713,0.112,-7.2157e-05,0.58,0.14,0
0.2184,1.1048e-16,0.4,-1.245,-1.105,-1.105,7.7393e-16,0,0,-0.182,3.719e-16,0,2.0122e-15,0,0,1,0,0,1,-1.105,-1.245,-1.105,90,-1.1517,0.14,-0.00014093,0.6,0.14,0
0.2144,1.0485e-16,0.38,-1.244,-1.076,-1.076,-5.2916e-16,0,0,-0.2184,3.2578e-16,0,-1.3758e-15,0,0,1,0,0,1,-1.076,-1.244,-1.076,-90,-1.132,0.168,-0.00024353,0.62,0.14,0
0.20966,9.9975e-17,0.36,-1.243,-1.047,-1.047,-4.4376e-16,0,0,-0.2548,2.7355e-16,0,-1.1538e-15,0,0,1,0,0,1,-1.047,-1.243,-1.047,-90,-1.1123,0.196,-0.00038672,0.64,0.14,0
0.2042,1.0022e-16,0.34,-1.242,-1.018,-1.018,1.0522e-16,0,0,-0.2912,2.0395e-16,0,2.7357e-16,0,0,1,0,0,1,-1.018,-1.242,-1.018,90,-1.0927,0.224,-0.00057726,0.66,0.14,0
0.19802,1.0579e-16,0.32,-1.241,-0.989,-0.989,-1.2696e-15,0,0,-0.3276,1.8959e-16,0,-3.3009e-15,0,0,1,9.7529e-16,0,1,-0.989,-1.241,-0.989,-90,-1.073,0.252,-0.00082192,0.68,0.14,0
0.1911,-4.2265e-17,0.3,-1.24,-0.96,-0.96,-9.3104e-16,0,0,-0.364,1.1941e-16,0,-2.4207e-15,0,0,1,-1.9389e-15,0,1,-0.96,-1.24,-0.96,-90,-1.0533,0.28,-0.0011275,0.7,0.14,0
0.18346,-5.4346e-17,0.28,-1.239,-0.931,-0.931,-3.6143e-16,0,0,-0.4004,1.3043e-16,0,-9.397e-16,0,0,1,-1.132e-15,0,1,-0.931,-1.239,-0.931,-90,-1.0337,0.308,-0.0015006,0.72,0.14,0
0.17508,-5.1875e-17,0.26,-1.238,-0.902,-0.902,-1.1666e-16,0,0,-0.4368,-1.1329e-16,0,-3.0332e-16,0,0,1,-1.4077e-16,0,1,-0.902,-1.238,-0.902,-90,-1.014,0.336,-0.0019482,0.74,0.14,0
0.16598,-5.3426e-17,0.24,-1.237,-0.873,-0.873,-3.1035e-16,0,0,-0.4732,8.6703e-17,0,-8.069e-16,0,0,1,0,0,1,-0.873,-1.237,-0.873,-90,-0.99433,0.364,-0.002477,0.76,0.14,0
0.15616,-6.5391e-17,0.22,-1.236,-0.844,-0.844,-2.9584e-16,0,0,-0.5096,1.0828e-17,0,-7.6918e-16,0,0,1,0,0,1,-0.844,-1.236,-0.844,-90,-0.97467,0.392,-0.0030937,0.78,0.14,0
0.1456,-6.4256e-17,0.2,-1.235,-0.815,-0.815,1.8571e-15,0,0,-0.546,-3.2044e-17,0,4.8284e-15,0,0,1,2.0824e-16,0,1,-0.815,-1.235,-0.815,90,-0.955,0.42,-0.0038052,0.8,0.14,0
0.13432,7.3544e-17,0.18,-1.234,-0.786,-0.786,5.3836e-16,0,0,-0.5824,6.1453e-17,0,1.3997e-15,0,0,1,2.2937e-15,0,1,-0.786,-1.234,-0.786,90,-0.93533,0.448,-0.0046181,0.82,0.14,0
0.1223,6.9105e-17,0.16,-1.233,-0.757,-0.757,2.4895e-16,0,0,-0.6188,2.0282e-16,0,6.4727e-16,0,0,1,6.0664e-16,0,1,-0.757,-1.233,-0.757,90,-0.91567,0.476,-0.0055392,0.84,0.14,0
0.10956,6.7036e-17,0.14,-1.232,-0.728,-0.728,-3.1147e-16,0,0,-0.6552,2.4867e-16,0,-8.0982e-16,0,0,1,-8.1274e-17,0,1,-0.728,-1.232,-0.728,-90,-0.896,0.504,-0.0065753,0.86,0.14,0
0.096096,7.064e-17,0.12,-1.231,-0.699,-0.699,1.1094e-16,0,0,-0.6916,8.1641e-17,0,2.8844e-16,0,0,1,0,0,1,-0.699,-1.231,-0.699,90,-0.87633,0.532,-0.0077332,0.88,0.14,0
0.0819,7.477e-17,0.1,-1.23,-0.67,-0.67,1.0885e-16,0,0,-0.728,1.2652e-17,0,2.83e-16,0,0,1,-7.0385e-17,0,1,-0.67,-1.23,-0.67,90,-0.85667,0.56,-0.0090197,0.9,0.14,0
0.066976,7.5869e-17,0.08,-1.229,-0.641,-0.641,-8.9023e-16,0,0,-0.7644,1.106e-16,0,-2.3146e-15,0,0,1,-1.2916e-15,0,1,-0.641,-1.229,-0.641,-90,-0.837,0.588,-0.010441,0.92,0.14,0
0.051324,-5.439e-17,0.06,-1.228,-0.612,-0.612,-6.1107e-16,0,0,-0.8008,-7.677e-18,0,-1.5888e-15,0,0,1,-1.7974e-15,0,1,-0.612,-1.228,-0.612,-90,-0.81733,0.616,-0.012005,0.94,0.14,0
0.034944,-5.384e-17,0.04,-1.227,-0.583,-0.583,6.0808e-17,0,0,-0.8372,-1.0838e-16,0,1.581e-16,0,0,1,-2.3041e-17,0,1,-0.583,-1.227,-0.583,90,-0.79767,0.644,-0.013718,0.96,0.14,0
0.017836,-5.1587e-17,0.02,-1.226,-0.554,-0.554,-3.8742e-17,0,0,-0.8736,-1.1861e-16,0,-1.0073e-16,0,0,1,1.4912e-16,0,1,-0.554,-1.226,-0.554,-90,-0.778,0.672,-0.015586,0.98,0.14,0
0,-5.1689e-17,0,-1.2005,-0.5145,-0.5145,1.0292e-17,0,0,-0.8918,-1.0078e-16,0,2.6759e-17,0,0,1,-2.168e-17,0,1,-0.5145,-1.2005,-0.5145,90,-0.74317,0.686,-0.016581,1,0.14,0
0,1.1048e-17,1,-1.2995,-1.9855,-1.9855,-4.2126e-17,0,0,0.8918,8.4953e-17,0,-1.0953e-16,0,0,1,0,0,1,-1.2995,-1.9855,-1.9855,-3.5184e-15,-1.7568,0.686,0.016581,0,0.16,0
0.017836,8.9643e-18,0.98,-1.274,-1.946,-1.946,-1.3198e-16,0,0,0.8736,2.6288e-17,0,-3.4316e-16,0,0,1,4.29e-15,0,1,-1.274,-1.946,-1.946,-1.1253e-14,-1.722,0.672,0.015586,0.02,0.16,0
0.034944,-3.3349e-18,0.96,-1.273,-1.917,-1.917,1.3477e-16,0,0,0.8372,6.6306e-17,0,3.504e-16,0,0,1,-3.489e-15,0,1,-1.273,-1.917,-1.917,1.199e-14,-1.7023,0.644,0.013718,0.04,0.16,0
0.051324,1.5388e-17,0.94,-1.272,-1.888,-1.888,3.7335e-16,0,0,0.8008,1.7108e-17,0,9.7072e-16,0,0,1,4.4961e-15,0,1,-1.272,-1.888,-1.888,3.4726e-14,-1.6827,0.616,0.012005,0.06,0.16,0
0.066976,4.0644e-17,0.92,-1.271,-1.859,-1.859,1.7136e-16,0,0,0.7644,1.6149e-16,0,4.4555e-16,0,0,1,-8.461e-15,0,1,-1.271,-1.859,-1.859,1.6698e-14,-1.663,0.588,0.010441,0.08,0.16,0
0.0819,3.792e-18,0.9,-1.27,-1.83,-1.83,-5.5072e-16,0,0,0.728,1.0969e-16,0,-1.4319e-15,0,0,1,1.157e-14,0,1,-1.27,-1.83,-1.83,-5.4943e-14,-1.6433,0.56,0.0090366,0.1,0.16,0
0.096096,-1.3881e-18,0.88,-1.269,-1.801,-1.801,6.4051e-17,0,0,0.6916,2.3223e-16,0,1.6653e-16,0,0,1,-1.3004e-15,0,1,-1.269,-1.801,-1.801,6.8982e-15,-1.6237,0.532,0.0077332,0.12,0.16,0
0.10956,2.827e-18,0.86,-1.268,-1.772,-1.772,4.4417e-16,0,0,0.6552,4.2911e-16,0,1.1549e-15,0,0,1,3.6398e-15,0,1,-1.268,-1.772,-1.772,5.0494e-14,-1.604,0.504,0.0065753,0.14,0.16,0
0.1223,5.1615e-17,0.84,-1.267,-1.743,-1.743,7.2427e-17,0,0,0.6188,2.818e-16,0,1.8831e-16,0,0,1,-6.5019e-16,0,1,-1.267,-1.743,-1.743,8.718e-15,-1.5843,0.476,0.0055392,0.16,0.16,0
0.13432,-2.1611e-18,0.82,-1.266,-1.714,-1.714,-6.3479e-16,0,0,0.5824,1.2873e-16,0,-1.6505e-15,0,0,1,0,0,1,-1.266,-1.714,-1.714,-8.1185e-14,-1.5647,0.448,0.0046181,0.18,0.16,0
0.1456,-1.3786e-17,0.8,-1.265,-1.685,-1.685,5.5675e-17,0,0,0.546,3.8755e-16,0,1.4476e-16,0,0,1,-4.4409e-16,0,1,-1.265,-1.685,-1.685,7.5952e-15,-1.545,0.42,0.0038052,0.2,0.16,0
0.15616,3.2656e-17,0.78,-1.264,-1.656,-1.656,2.1044e-16,0,0,0.5096,1.8849e-17,0,5.4714e-16,0,0,1,-1.7445e-15,0,1,-1.264,-1.656,-1.656,3.0758e-14,-1.5253,0.392,0.0030937,0.22,0.16,0
0.16598,-2.1009e-17,0.76,-1.263,-1.627,-1.627,-7.9988e-16,0,0,0.4732,1.7657e-16,0,-2.0797e-15,0,0,1,1.2133e-15,0,1,-1.263,-1.627,-1.627,-1.2591e-13,-1.5057,0.364,0.002477,0.24,0.16,0
0.17508,-3.2399e-17,0.74,-1.262,-1.598,-1.598,-6.2518e-17,0,0,0.4368,3.947e-16,0,-1.6255e-16,0,0,1,0,0,1,-1.262,-1.598,-1.598,-1.0661e-14,-1.486,0.336,0.0019482,0.26,0.16,0
0.18346,-2.8737e-17,0.72,-1.261,-1.569,-1.569,1.0248e-15,0,0,0.4004,9.1617e-17,0,2.6645e-15,0,0,1,1.4513e-15,0,1,-1.261,-1.569,-1.569,1.9064e-13,-1.4663,0.308,0.0015006,0.28,0.16,0
0.1911,7.2215e-17,0.7,-1.26,-1.54,-1.54,1.1217e-15,0,0,0.364,1.3565e-16,0,2.9163e-15,0,0,1,-1.2133e-15,0,1,-1.26,-1.54,-1.54,2.2952e-13,-1.4467,0.28,0.0011275,0.3,0.16,0
0.19802,6.621e-17,0.68,-1.259,-1.511,-1.511,6.2518e-17,0,0,0.3276,3.2406e-16,0,1.6255e-16,0,0,1,-1.9721e-31,0,1,-1.259,-1.511,-1.511,1.4215e-14,-1.427,0.252,0.00082192,0.32,0.16,0
0.2042,7.0235e-17,0.66,-1.258,-1.482,-1.482,-4.6133e-16,0,0,0.2912,2.4386e-16,0,-1.1995e-15,0,0,1,-3.0767e-15,0,1,-1.258,-1.482,-1.482,-1.361e-13,-1.4073,0.224,0.00058402,0.34,0.16,0
0.20966,-3.5501e-17,0.64,-1.257,-1.453,-1.453,-1.0561e-15,0,0,0.2548,5.7716e-17,0,-2.7458e-15,0,0,1,1.5384e-15,0,1,-1.257,-1.453,-1.453,-3.0872e-13,-1.3877,0.196,0.00038672,0.36,0.16,0
0.2144,-4.5583e-17,0.62,-1.256,-1.424,-1.424,-1.281e-16,0,0,0.2184,2.8646e-16,0,-3.3307e-16,0,0,1,0,0,1,-1.256,-1.424,-1.424,-4.3689e-14,-1.368,0.168,0.00024353,0.38,0.16,0
0.2184,-4.8679e-17,0.6,-1.255,-1.395,-1.395,1.1102e-15,0,0,0.182,1.3855e-16,0,2.8866e-15,0,0,1,1.2133e-15,0,1,-1.255,-1.395,-1.395,4.5437e-13,-1.3483,0.14,0.00014093,0.4,0.16,0
0.22168,5.9007e-17,0.58,-1.254,-1.366,-1.366,1.3519e-15,0,0,0.1456,-4.5038e-17,0,3.515e-15,0,0,1,-3.251e-16,0,1,-1.254,-1.366,-1.366,6.916e-13,-1.3287,0.112,7.2157e-05,0.42,0.16,0
0.22422,5.8135e-17,0.56,-1.253,-1.337,-1.337,-4.0413e-16,0,0,0.1092,1.4895e-16,0,-1.0507e-15,0,0,1,0,0,1,-1.253,-1.337,-1.337,-2.7565e-13,-1.309,0.084,3.0441e-05,0.44,0.16,0
0.22604,5.7472e-17,0.54,-1.252,-1.308,-1.308,-8.769e-16,0,0,0.0728,2.6953e-16,0,-2.2799e-15,0,0,1,-2.264e-15,0,1,-1.252,-1.308,-1.308,-8.9719e-13,-1.2893,0.056,9.0196e-06,0.46,0.16,0
0.22714,-3.3015e-17,0.52,-1.251,-1.279,-1.279,-8.3113e-16,0,0,0.0364,1.1015e-16,0,-2.161e-15,0,0,1,-8.4462e-16,0,1,-1.251,-1.279,-1.279,-1.7007e-12,-1.2697,0.028,1.1275e-06,0.48,0.16,0
0.2275,-5.0624e-17,0.5,-1.25,-1.25,-1.25,-7.3956e-32,0,0,1.4312e-16,-1.3908e-16,0,-4.9304e-32,0,0,1,-1.7764e-15,0,1,-1.25,-1.25,-1.25,-90,-1.25,7.6918e-16,0,0.5,0.16,0
0.22714,-4.4841e-17,0.48,-1.249,-1.221,-1.221,-2.1044e-16,0,0,-0.0364,2.1998e-16,0,-5.4714e-16,0,0,1,-8.8818e-16,0,1,-1.221,-1.249,-1.221,-90,-1.2303,0.028,-1.1275e-06,0.52,0.16,0
0.22604,-5.1003e-17,0.46,-1.248,-1.192,-1.192,1.1666e-16,0,0,-0.0728,2.2795e-16,0,3.0332e-16,0,0,1,0,0,1,-1.192,-1.248,-1.192,90,-1.2107,0.056,-9.0196e-06,0.54,0.16,0
0.22422,-5.7682e-17,0.44,-1.247,-1.163,-1.163,2.0664e-15,0,0,-0.1092,1.2996e-16,0,5.3726e-15,0,0,1,4.0054e-16,0,1,-1.163,-1.247,-1.163,90,-1.191,0.084,-3.0441e-05,0.56,0.16,0
0.22168,1.2542e-16,0.42,-1.246,-1.134,-1.134,9.9663e-16,0,0,-0.1456,2.2645e-16,0,2.5912e-15,0,0,1,2.7081e-15,0,1,-1.134,-1.246,-1.134,90,-1.1713,0.112,-7.2157e-05,0.58,0.16,0
0.2184,1.2057e-16,0.4,-1.245,-1.105,-1.105,1.0215e-16,0,0,-0.182,2.7835e-16,0,2.656e-16,0,0,1,0,0,1,-1.105,-1.245,-1.105,90,-1.1517,0.14,-0.00014093,0.6,0.16,0
0.2144,1.1585e-16,0.38,-1.244,-1.076,-1.076,-2.9584e-16,0,0,-0.2184,3.4551e-16,0,-7.6918e-16,0,0,1,0,0,1,-1.076,-1.244,-1.076,-90,-1.132,0.168,-0.00024353,0.62,0.16,0
0.20966,1.0413e-16,0.36,-1.243,-1.047,-1.047,2.4476e-16,0,0,-0.2548,4.0788e-16,0,6.3638e-16,0,0,1,0,0,1,-1.047,-1.243,-1.047,90,-1.1123,0.196,-0.00038672,0.64,0.16,0
0.2042,1.0956e-16,0.34,-1.242,-1.018,-1.018,1.9818e-17,0,0,-0.2912,3.5137e-16,0,5.1526e-17,0,0,1,0,0,1,-1.018,-1.242,-1.018,90,-1.0927,0.224,-0.00057726,0.66,0.16,0
0.19802,1.1303e-16,0.32,-1.241,-0.989,-0.989,-1.4259e-15,0,0,-0.3276,2.6469e-16,0,-3.7073e-15,0,0,1,2.061e-16,0,1,-0.989,-1.241,-0.989,-90,-1.073,0.252,-0.00082192,0.68,0.16,0
0.1911,-3.9003e-17,0.3,-1.24,-0.96,-0.96,-9.2267e-16,0,0,-0.364,1.3655e-16,0,-2.3989e-15,0,0,1,-2.8706e-15,0,1,-0.96,-1.24,-0.96,-90,-1.0533,0.28,-0.0011275,0.7,0.16,0
0.18346,-4.8599e-17,0.28,-1.239,-0.931,-0.931,1.7918e-16,0,0,-0.4004,1.9069e-16,0,4.6587e-16,0,0,1,0,0,1,-0.931,-1.239,-0.931,90,-1.0337,0.308,-0.0015006,0.72,0.16,0
0.17508,-5.2799e-17,0.26,-1.238,-0.902,-0.902,2.2883e-17,0,0,-0.4368,2.2197e-16,0,5.9497e-17,0,0,1,1.6255e-16,0,1,-0.902,-1.238,-0.902,90,-1.014,0.336,-0.0019482,0.74,0.16,0
0.16598,-4.695e-17,0.24,-1.237,-0.873,-0.873,-2.135e-16,0,0,-0.4732,2.5299e-16,0,-5.5511e-16,0,0,1,-1.2133e-15,0,1,-0.873,-1.237,-0.873,-90,-0.99433,0.364,-0.002477,0.76,0.16,0
0.15616,-5.7663e-17,0.22,-1.236,-0.844,-0.844,-3.1872e-16,0,0,-0.5096,3.0642e-16,0,-8.2868e-16,0,0,1,1.6255e-16,0,1,-0.844,-1.236,-0.844,-90,-0.97467,0.392,-0.0030937,0.78,0.16,0
0.1456,-6.0843e-17,0.2,-1.235,-0.815,-0.815,1.3378e-15,0,0,-0.546,2.503e-16,0,3.4783e-15,0,0,1,-1.8432e-16,0,1,-0.815,-1.235,-0.815,90,-0.955,0.42,-0.0038052,0.8,0.16,0
0.13432,7.516e-17,0.18,-1.234,-0.786,-0.786,9.0244e-16,0,0,-0.5824,1.2913e-16,0,2.3463e-15,0,0,1,2.1827e-15,0,1,-0.786,-1.234,-0.786,90,-0.93533,0.448,-0.0046181,0.82,0.16,0
0.1223,7.8003e-17,0.16,-1.233,-0.757,-0.757,-9.9088e-18,0,0,-0.6188,3.5647e-16,0,-2.5763e-17,0,0,1,-5.2536e-16,0,1,-0.757,-1.233,-0.757,-90,-0.91567,0.476,-0.0055392,0.84,0.16,0
0.10956,7.4355e-17,0.14,-1.232,-0.728,-0.728,-1.2238e-16,0,0,-0.6552,3.1664e-16,0,-3.1819e-16,0,0,1,8.1274e-17,0,1,-0.728,-1.232,-0.728,-90,-0.896,0.504,-0.0065753,0.86,0.16,0
0.096096,7.6705e-17,0.12,-1.231,-0.699,-0.699,5.261e-17,0,0,-0.6916,2.6941e-16,0,1.3678e-16,0,0,1,0,0,1,-0.699,-1.231,-0.699,90,-0.87633,0.532,-0.0077332,0.88,0.16,0
0.0819,7.6967e-17,0.1,-1.23,-0.67,-0.67,2.3904e-16,0,0,-0.728,1.905e-16,0,6.2151e-16,0,0,1,0,0,1,-0.67,-1.23,-0.67,90,-0.85667,0.56,-0.0090197,0.9,0.16,0
0.066976,8.1606e-17,0.08,-1.229,-0.641,-0.641,-1.0746e-15,0,0,-0.7644,1.4525e-16,0,-2.7939e-15,0,0,1,-9.9774e-16,0,1,-0.641,-1.229,-0.641,-90,-0.837,0.588,-0.010441,0.92,0.16,0
0.051324,-5.3423e-17,0.06,-1.228,-0.612,-0.612,-6.9828e-16,0,0,-0.8008,6.3433e-17,0,-1.8155e-15,0,0,1,-1.53e-15,0,1,-0.612,-1.228,-0.612,-90,-0.81733,0.616,-0.012005,0.94,0.16,0
0.034944,-5.3016e-17,0.04,-1.227,-0.583,-0.583,1.1914e-17,0,0,-0.8372,7.928e-17,0,3.0976e-17,0,0,1,1.0159e-17,0,1,-0.583,-1.227,-0.583,90,-0.79767,0.644,-0.013718,0.96,0.16,0
0.017836,-5.1868e-17,0.02,-1.226,-0.554,-0.554,1.8541e-17,0,0,-0.8736,2.2347e-17,0,4.8208e-17,0,0,1,-7.329e-17,0,1,-0.554,-1.226,-0.554,90,-0.778,0.672,-0.015586,0.98,0.16,0
0,-5.0794e-17,0,-1.2005,-0.5145,-0.5145,2.9165e-17,0,0,-0.8918,5.1737e-17,0,7.583e-17,0,0,1,1.3611e-18,0,1,-0.5145,-1.2005,-0.5145,90,-0.74317,0.686,-0.016581,1,0.16,0
0,1.0071e-17,1,-1.2995,-1.9855,-1.9855,2.2397e-17,0,0,0.8918,-5.5657e-17,0,5.8233e-17,0,0,1,0,0,1,-1.2995,-1.9855,-1.9855,1.8707e-15,-1.7568,0.686,0.016581,0,0.18,0
0.017836,9.6541e-18,0.98,-1.274,-1.946,-1.946,-2.4776e-16,0,0,0.8736,-2.3915e-17,0,-6.4419e-16,0,0,1,4.29e-15,0,1,-1.274,-1.946,-1.946,-2.1125e-14,-1.722,0.672,0.015586,0.02,0.18,0
0.034944,-1.8359e-18,0.96,-1.273,-1.917,-1.917,2.1769e-16,0,0,0.8372,1.4139e-16,0,5.66e-16,0,0,1,-4.29e-15,0,1,-1.273,-1.917,-1.917,1.9368e-14,-1.7023,0.644,0.013718,0.04,0.18,0
0.051324,1.7263e-17,0.94,-1.272,-1.888,-1.888,4.5771e-16,0,0,0.8008,9.3981e-17,0,1.19e-15,0,0,1,1.0031e-14,0,1,-1.272,-1.888,-1.888,4.2572e-14,-1.6827,0.616,0.012005,0.06,0.18,0
0.066976,4.3459e-17,0.92,-1.271,-1.859,-1.859,1.4863e-17,0,0,0.7644,1.3794e-16,0,3.8644e-17,0,0,1,-8.58e-15,0,1,-1.271,-1.859,-1.859,1.4483e-15,-1.663,0.588,0.010441,0.08,0.18,0
0.0819,4.2986e-18,0.9,-1.27,-1.83,-1.83,-3.6086e-16,0,0,0.728,1.006e-16,0,-9.3824e-16,0,0,1,1.6255e-15,0,1,-1.27,-1.83,-1.83,-3.5344e-14,-1.6433,0.56,0.0090366,0.1,0.18,0
0.096096,5.8828e-18,0.88,-1.269,-1.801,-1.801,5.261e-17,0,0,0.6916,1.1999e-16,0,1.3678e-16,0,0,1,-9.3677e-31,0,1,-1.269,-1.801,-1.801,5.666e-15,-1.6237,0.532,0.0077332,0.12,0.18,0
0.10956,1.1377e-17,0.86,-1.268,-1.772,-1.772,3.9156e-16,0,0,0.6552,1.3575e-16,0,1.0181e-15,0,0,1,2.1886e-15,0,1,-1.268,-1.772,-1.772,4.4514e-14,-1.604,0.504,0.0065753,0.14,0.18,0
0.1223,5.8464e-17,0.84,-1.267,-1.743,-1.743,4.3804e-16,0,0,0.6188,2.5749e-16,0,1.1389e-15,0,0,1,-8.7109e-17,0,1,-1.267,-1.743,-1.743,5.2726e-14,-1.5843,0.476,0.0055392,0.16,0.18,0
0.13432,-1.0406e-18,0.82,-1.266,-1.714,-1.714,-9.3217e-16,0,0,0.5824,-8.1978e-17,0,-2.4236e-15,0,0,1,7.373e-16,0,1,-1.266,-1.714,-1.714,-1.1922e-13,-1.5647,0.448,0.0046181,0.18,0.18,0
0.1456,-3.9972e-18,0.8,-1.265,-1.685,-1.685,6.1763e-16,0,0,0.546,1.2921e-16,0,1.6058e-15,0,0,1,-1.6574e-15,0,1,-1.265,-1.685,-1.685,8.4256e-14,-1.545,0.42,0.0038052,0.2,0.18,0
0.15616,3.6537e-17,0.78,-1.264,-1.656,-1.656,3.9443e-31,0,0,0.5096,3.9134e-16,0,-9.8608e-32,0,0,1,-5.4162e-15,0,1,-1.264,-1.656,-1.656,5.7651e-29,-1.5253,0.392,0.0030937,0.22,0.18,0
0.16598,-1.9915e-17,0.76,-1.263,-1.627,-1.627,-8.1969e-16,0,0,0.4732,-1.373e-17,0,-2.1312e-15,0,0,1,3.7588e-15,0,1,-1.263,-1.627,-1.627,-1.2902e-13,-1.5057,0.364,0.002477,0.24,0.18,0
0.17508,-2.3589e-17,0.74,-1.262,-1.598,-1.598,-2.2495e-16,0,0,0.4368,-2.0319e-17,0,-5.8486e-16,0,0,1,0,0,1,-1.262,-1.598,-1.598,-3.8358e-14,-1.486,0.336,0.0019482,0.26,0.18,0
0.18346,-2.5012e-17,0.72,-1.261,-1.569,-1.569,1.3664e-15,0,0,0.4004,-3.6182e-17,0,3.5527e-15,0,0,1,2.7516e-15,0,1,-1.261,-1.569,-1.569,2.5419e-13,-1.4663,0.308,0.0015006,0.28,0.18,0
0.1911,7.385e-17,0.7,-1.26,-1.54,-1.54,1.1842e-15,0,0,0.364,1.3633e-16,0,3.0789e-15,0,0,1,-4.29e-15,0,1,-1.26,-1.54,-1.54,2.4232e-13,-1.4467,0.28,0.0011275,0.3,0.18,0
0.19802,7.3479e-17,0.68,-1.259,-1.511,-1.511,-8.3759e-18,0,0,0.3276,-3.6137e-18,0,-2.1777e-17,0,0,1,6.5019e-16,0,1,-1.259,-1.511,-1.511,-1.9044e-15,-1.427,0.252,0.00082192,0.32,0.18,0
0.2042,7.4886e-17,0.66,-1.258,-1.482,-1.482,-8.1438e-16,0,0,0.2912,8.9444e-17,0,-2.1174e-15,0,0,1,2.0143e-15,0,1,-1.258,-1.482,-1.482,-2.3206e-13,-1.4073,0.224,0.00058402,0.34,0.18,0
0.20966,-3.6097e-17,0.64,-1.257,-1.453,-1.453,-9.5924e-16,0,0,0.2548,-3.379e-17,0,-2.494e-15,0,0,1,-6.8208e-16,0,1,-1.257,-1.453,-1.453,-2.8041e-13,-1.3877,0.196,0.00038672,0.36,0.18,0
0.2144,-3.8722e-17,0.62,-1.256,-1.424,-1.424,4.2394e-16,0,0,0.2184,-5.7168e-17,0,1.1022e-15,0,0,1,0,0,1,-1.256,-1.424,-1.424,1.4458e-13,-1.368,0.168,0.00024353,0.38,0.18,0
0.2184,-4.2897e-17,0.6,-1.255,-1.395,-1.395,1.2383e-15,0,0,0.182,9.3605e-17,0,3.2197e-15,0,0,1,-3.251e-16,0,1,-1.255,-1.395,-1.395,5.0679e-13,-1.3483,0.14,0.00014093,0.4,0.18,0
0.22168,5.4089e-17,0.58,-1.254,-1.366,-1.366,1.2467e-15,0,0,0.1456,1.0424e-16,0,3.2414e-15,0,0,1,-1.8635e-15,0,1,-1.254,-1.366,-1.366,6.3777e-13,-1.3287,0.112,7.2157e-05,0.42,0.18,0
0.22422,6.2573e-17,0.56,-1.253,-1.337,-1.337,3.1259e-17,0,0,0.1092,-5.0948e-18,0,8.1274e-17,0,0,1,0,0,1,-1.253,-1.337,-1.337,2.1322e-14,-1.309,0.084,3.0441e-05,0.44,0.18,0
0.22604,6.2713e-17,0.54,-1.252,-1.308,-1.308,-7.2591e-16,0,0,0.0728,-4.7981e-18,0,-1.8874e-15,0,0,1,-2.6645e-15,0,1,-1.252,-1.308,-1.308,-7.4271e-13,-1.2893,0.056,9.0196e-06,0.46,0.18,0
0.22714,-3.2874e-17,0.52,-1.251,-1.279,-1.279,-1.204e-15,0,0,0.0364,-1.2084e-16,0,-3.1304e-15,0,0,1,-2.1014e-15,0,1,-1.251,-1.279,-1.279,-2.4637e-12,-1.2697,0.028,1.1275e-06,0.48,0.18,0
0.2275,-5.01e-17,0.5,-1.2582,-1.2535,-1.2535,-6.3336e-16,0,0,-0.0060667,1.1708e-16,0,-1.6467e-15,0,0,1,-7.5078e-16,0,1,-1.2512,-1.2605,-1.2535,-45,-1.2551,0.0093333,-6.7856e-08,0.5,0.18,0
0.22714,-4.0108e-17,0.48,-1.249,-1.221,-1.221,-4.2701e-17,0,0,-0.0364,-7.1453e-17,0,-1.1102e-16,0,0,1,0,0,1,-1.221,-1.249,-1.221,8.5265e-14,-1.2303,0.028,-1.1275e-06,0.52,0.18,0
0.22604,-4.8187e-17,0.46,-1.248,-1.192,-1.192,4.552e-16,0,0,-0.0728,3.055e-17,0,1.1835e-15,0,0,1,0,0,1,-1.192,-1.248,-1.192,-4.7606e-13,-1.2107,0.056,-9.0196e-06,0.54,0.18,0
0.22422,-5.1182e-17,0.44,-1.247,-1.163,-1.163,2.0893e-15,0,0,-0.1092,2.9009e-16,0,5.4321e-15,0,0,1,-2.0855e-15,0,1,-1.163,-1.247,-1.163,90,-1.191,0.084,-3.0441e-05,0.56,0.18,0
0.22168,1.3118e-16,0.42,-1.246,-1.134,-1.134,1.2528e-15,0,0,-0.1456,6.6662e-17,0,3.2574e-15,0,0,1,2.605e-15,0,1,-1.134,-1.246,-1.134,90,-1.1713,0.112,-7.2157e-05,0.58,0.18,0
0.2184,1.2162e-16,0.4,-1.245,-1.105,-1.105,-5.3223e-16,0,0,-0.182,1.9057e-16,0,-1.3838e-15,0,0,1,0,0,1,-1.105,-1.245,-1.105,-90,-1.1517,0.14,-0.00014093,0.6,0.18,0
0.2144,1.1867e-16,0.38,-1.244,-1.076,-1.076,-3.9268e-16,0,0,-0.2184,2.6966e-17,0,-1.021e-15,0,0,1,0,0,1,-1.076,-1.244,-1.076,-90,-1.132,0.168,-0.00024353,0.62,0.18,0
0.20966,1.1629e-16,0.36,-1.243,-1.047,-1.047,1.7918e-16,0,0,-0.2548,3.8901e-16,0,4.6587e-16,0,0,1,0,0,1,-1.047,-1.243,-1.047,-4.2633e-14,-1.1123,0.196,-0.00038672,0.64,0.18,0
0.2042,1.1428e-16,0.34,-1.242,-1.018,-1.018,6.0619e-16,0,0,-0.2912,2.621e-16,0,1.5761e-15,0,0,1,6.5019e-16,0,1,-1.018,-1.242,-1.018,90,-1.0927,0.224,-0.00057726,0.66,0.18,0
0.19802,1.1638e-16,0.32,-1.241,-0.989,-0.989,-1.9352e-15,0,0,-0.3276,2.498e-16,0,-5.0316e-15,0,0,1,-2.9896e-15,0,1,-0.989,-1.241,-0.989,-90,-1.073,0.252,-0.00082192,0.68,0.18,0
0.1911,-3.6803e-17,0.3,-1.24,-0.96,-0.96,-6.6646e-16,0,0,-0.364,-1.0063e-16,0,-1.7328e-15,0,0,1,-3.3147e-15,0,1,-0.96,-1.24,-0.96,-90,-1.0533,0.28,-0.0011275,0.7,0.18,0
0.18346,-4.6718e-17,0.28,-1.239,-0.931,-0.931,-1.1442e-17,0,0,-0.4004,1.0562e-16,0,-2.9748e-17,0,0,1,0,0,1,-0.931,-1.239,-0.931,0,-1.0337,0.308,-0.0015006,0.72,0.18,0
0.17508,-4.2996e-17,0.26,-1.238,-0.902,-0.902,4.2701e-17,0,0,-0.4368,1.3857e-16,0,1.1102e-16,0,0,1,3.251e-16,0,1,-0.902,-1.238,-0.902,-7.1054e-15,-1.014,0.336,-0.0019482,0.74,0.18,0
0.16598,-4.3307e-17,0.24,-1.237,-0.873,-0.873,3.8124e-16,0,0,-0.4732,7.7723e-17,0,9.9123e-16,0,0,1,-2.4265e-15,0,1,-0.873,-1.237,-0.873,90,-0.99433,0.364,-0.002477,0.76,0.18,0
0.15616,-5.3134e-17,0.22,-1.236,-0.844,-0.844,-2.2495e-16,0,0,-0.5096,-4.0426e-17,0,-5.8486e-16,0,0,1,-5.9497e-17,0,1,-0.844,-1.236,-0.844,-90,-0.97467,0.392,-0.0030937,0.78,0.18,0
0.1456,-5.4244e-17,0.2,-1.235,-0.815,-0.815,7.3164e-16,0,0,-0.546,1.6715e-16,0,1.9023e-15,0,0,1,-1.8432e-16,0,1,-0.815,-1.235,-0.815,90,-0.955,0.42,-0.0038052,0.8,0.18,0
0.13432,7.8709e-17,0.18,-1.234,-0.786,-0.786,9.6802e-16,0,0,-0.5824,1.4986e-16,0,2.5169e-15,0,0,1,1.6574e-15,0,1,-0.786,-1.234,-0.786,90,-0.93533,0.448,-0.0046181,0.82,0.18,0
0.1223,8.3364e-17,0.16,-1.233,-0.757,-0.757,-2.3751e-16,0,0,-0.6188,1.1917e-16,0,-6.1753e-16,0,0,1,1.6255e-16,0,1,-0.757,-1.233,-0.757,2.8422e-14,-0.91567,0.476,-0.0055392,0.84,0.18,0
0.10956,7.9701e-17,0.14,-1.232,-0.728,-0.728,1.9634e-16,0,0,-0.6552,1.0022e-16,0,5.1049e-16,0,0,1,0,0,1,-0.728,-1.232,-0.728,-2.1316e-14,-0.896,0.504,-0.0065753,0.86,0.18,0
0.096096,8.1416e-17,0.12,-1.231,-0.699,-0.699,3.2792e-17,0,0,-0.6916,1.2992e-16,0,8.5259e-17,0,0,1,0,0,1,-0.699,-1.231,-0.699,-7.1054e-15,-0.87633,0.532,-0.0077332,0.88,0.18,0
0.0819,8.239e-17,0.1,-1.23,-0.67,-0.67,-2.3904e-16,0,0,-0.728,1.3763e-16,0,-6.2151e-16,0,0,1,0,0,1,-0.67,-1.23,-0.67,2.8422e-14,-0.85667,0.56,-0.0090197,0.9,0.18,0
0.066976,8.1679e-17,0.08,-1.2208,-0.6375,-0.6375,-5.3134e-16,0,0,-0.75833,9.1526e-18,0,-1.3815e-15,0,0,1,-1.1254e-15,0,1,-0.6375,-1.2208,-0.6375,4.2633e-14,-0.83194,0.58333,-0.010203,0.92,0.18,0
0.051324,-5.1853e-17,0.06,-1.228,-0.612,-0.612,-7.1925e-16,0,0,-0.8008,1.2533e-17,0,-1.8701e-15,0,0,1,-2.0526e-15,0,1,-0.612,-1.228,-0.612,-90,-0.81733,0.616,-0.012005,0.94,0.18,0
0.034944,-5.0669e-17,0.04,-1.227,-0.583,-0.583,9.6282e-18,0,0,-0.8372,-2.9013e-17,0,2.5033e-17,0,0,1,-7.4371e-18,0,1,-0.583,-1.227,-0.583,90,-0.79767,0.644,-0.013718,0.96,0.18,0
0.017836,-5.0693e-17,0.02,-1.226,-0.554,-0.554,4.9801e-17,0,0,-0.8736,-2.8296e-17,0,1.2948e-16,0,0,1,7.583e-17,0,1,-0.554,-1.226,-0.554,90,-0.778,0.672,-0.015586,0.98,0.18,0
0,-4.9619e-17,0,-1.2005,-0.5145,-0.5145,4.3084e-17,0,0,-0.8918,-2.6071e-17,0,1.1202e-16,0,0,1,-2.0318e-17,0,1,-0.5145,-1.2005,-0.5145,90,-0.74317,0.686,-0.016581,1,0.18,0
0,8.8218e-18,1,-1.2995,-1.9855,-1.9855,-4.4514e-17,0,0,0.8918,7.488e-17,0,-1.1574e-16,0,0,1,0,0,1,-1.2995,-1.9855,-1.9855,-3.7179e-15,-1.7568,0.686,0.016581,0,0.2,0
0.017836,8.0078e-18,0.98,-1.274,-1.946,-1.946,-1.2915e-16,0,0,0.8736,4.5727e-19,0,-3.3579e-16,0,0,1,4.29e-15,0,1,-1.274,-1.946,-1.946,-1.1011e-14,-1.722,0.672,0.015586,0.02,0.2,0
0.034944,2.3208e-18,0.96,-1.273,-1.917,-1.917,2.2108e-16,0,0,0.8372,1.0738e-16,0,5.748e-16,0,0,1,-5.9155e-15,0,1,-1.273,-1.917,-1.917,1.9669e-14,-1.7023,0.644,0.013718,0.04,0.2,0
0.051324,1.9147e-17,0.94,-1.272,-1.888,-1.888,4.029e-16,0,0,0.8008,-1.9831e-17,0,1.0475e-15,0,0,1,-3.1884e-17,0,1,-1.272,-1.888,-1.888,3.7475e-14,-1.6827,0.616,0.012005,0.06,0.2,0
0.066976,4.6161e-17,0.92,-1.271,-1.859,-1.859,-4.3467e-17,0,0,0.7644,7.769e-17,0,-1.1301e-16,0,0,1,-8.699e-15,0,1,-1.271,-1.859,-1.859,-4.2355e-15,-1.663,0.588,0.010441,0.08,0.2,0
0.0819,7.816e-18,0.9,-1.27,-1.83,-1.83,-4.9525e-16,0,0,0.728,1.5409e-16,0,-1.2876e-15,0,0,1,-2.6645e-15,0,1,-1.27,-1.83,-1.83,-4.9704e-14,-1.6433,0.56,0.0090366,0.1,0.2,0
0.096096,3.4116e-18,0.88,-1.269,-1.801,-1.801,-4.1879e-18,0,0,0.6916,7.9058e-17,0,-1.0889e-17,0,0,1,1.3004e-15,0,1,-1.269,-1.801,-1.801,-4.5104e-16,-1.6237,0.532,0.0077332,0.12,0.2,0
0.10956,8.257e-18,0.86,-1.268,-1.772,-1.772,5.0822e-16,0,0,0.6552,-3.779e-17,0,1.3214e-15,0,0,1,2.1014e-15,0,1,-1.268,-1.772,-1.772,5.7776e-14,-1.604,0.504,0.0065753,0.14,0.2,0
0.1223,6.1915e-17,0.84,-1.267,-1.743,-1.743,1.0369e-16,0,0,0.6188,7.0385e-17,0,2.6959e-16,0,0,1,-8.4929e-15,0,1,-1.267,-1.743,-1.743,1.2481e-14,-1.5843,0.476,0.0055392,0.16,0.2,0
0.13432,-5.4403e-18,0.82,-1.266,-1.714,-1.714,-1.1556e-15,0,0,0.5824,-4.9138e-18,0,-3.0045e-15,0,0,1,5.6308e-16,0,1,-1.266,-1.714,-1.714,-1.4779e-13,-1.5647,0.448,0.0046181,0.18,0.2,0
0.1456,-8.6176e-18,0.8,-1.265,-1.685,-1.685,6.6605e-16,0,0,0.546,7.6423e-18,0,1.7317e-15,0,0,1,6.7166e-15,0,1,-1.265,-1.685,-1.685,9.0862e-14,-1.545,0.42,0.0038052,0.2,0.2,0
0.15616,4.831e-17,0.78,-1.264,-1.656,-1.656,1.9818e-17,0,0,0.5096,3.591e-16,0,5.1526e-17,0,0,1,3.5698e-16,0,1,-1.264,-1.656,-1.656,2.8966e-15,-1.5253,0.392,0.0030937,0.22,0.2,0
0.16598,-2.1558e-17,0.76,-1.263,-1.627,-1.627,-1.1186e-15,0,0,0.4732,1.5699e-16,0,-2.9084e-15,0,0,1,-1.5703e-15,0,1,-1.263,-1.627,-1.627,-1.7607e-13,-1.5057,0.364,0.002477,0.24,0.2,0
0.17508,-3.3212e-17,0.74,-1.262,-1.598,-1.598,1.3954e-16,0,0,0.4368,-6.8665e-17,0,3.6282e-16,0,0,1,-4.2029e-15,0,1,-1.262,-1.598,-1.598,2.3795e-14,-1.486,0.336,0.0019482,0.26,0.2,0
0.18346,-3.0184e-17,0.72,-1.261,-1.569,-1.569,1.0561e-15,0,0,0.4004,-1.1113e-16,0,2.7458e-15,0,0,1,1.4194e-15,0,1,-1.261,-1.569,-1.569,1.9646e-13,-1.4663,0.308,0.0015006,0.28,0.2,0
0.1911,7.7668e-17,0.7,-1.26,-1.54,-1.54,1.0988e-15,0,0,0.364,1.2816e-16,0,2.8568e-15,0,0,1,4.4409e-16,0,1,-1.26,-1.54,-1.54,2.2484e-13,-1.4467,0.28,0.0011275,0.3,0.2,0
0.19802,6.6066e-17,0.68,-1.259,-1.511,-1.511,3.1259e-17,0,0,0.3276,-8.3726e-17,0,8.1274e-17,0,0,1,-4.528e-15,0,1,-1.259,-1.511,-1.511,7.1072e-15,-1.427,0.252,0.00082192,0.32,0.2,0
0.2042,7.3812e-17,0.66,-1.258,-1.482,-1.482,-1.0561e-15,0,0,0.2912,-7.1848e-17,0,-2.7458e-15,0,0,1,-3.1086e-15,0,1,-1.258,-1.482,-1.482,-2.8951e-13,-1.4073,0.224,0.00058402,0.34,0.2,0
0.20966,-3.6853e-17,0.64,-1.257,-1.453,-1.453,-1.4488e-15,0,0,0.2548,3.7568e-17,0,-3.7668e-15,0,0,1,2.5455e-15,0,1,-1.257,-1.453,-1.453,-4.2351e-13,-1.3877,0.196,0.00038672,0.36,0.2,0
0.2144,-4.787e-17,0.62,-1.256,-1.424,-1.424,3.3854e-16,0,0,0.2184,-4.9653e-17,0,8.8021e-16,0,0,1,-1.2133e-15,0,1,-1.256,-1.424,-1.424,1.1546e-13,-1.368,0.168,0.00024353,0.38,0.2,0
0.2184,-4.4935e-17,0.6,-1.255,-1.395,-1.395,1.005e-15,0,0,0.182,1.1085e-16,0,2.613e-15,0,0,1,3.0767e-15,0,1,-1.255,-1.395,-1.395,4.113e-13,-1.3483,0.14,0.00014093,0.4,0.2,0
0.22168,6.3176e-17,0.58,-1.254,-1.366,-1.366,1.0675e-15,0,0,0.1456,2.3634e-16,0,2.7756e-15,0,0,1,1.2133e-15,0,1,-1.254,-1.366,-1.366,5.4611e-13,-1.3287,0.112,7.2157e-05,0.42,0.2,0
0.22422,5.7931e-17,0.56,-1.253,-1.337,-1.337,-2.2883e-17,0,0,0.1092,-1.9554e-16,0,-5.9497e-17,0,0,1,0,0,1,-1.253,-1.337,-1.337,-1.5609e-14,-1.309,0.084,3.0441e-05,0.44,0.2,0
0.22604,5.728e-17,0.54,-1.252,-1.308,-1.308,-7.061e-16,0,0,0.0728,-8.4412e-18,0,-1.8359e-15,0,0,1,-1.1899e-16,0,1,-1.252,-1.308,-1.308,-7.2244e-13,-1.2893,0.056,9.0196e-06,0.46,0.2,0
0.22714,-3.7849e-17,0.52,-1.251,-1.279,-1.279,-1.1102e-15,0,0,0.0364,-1.9734e-17,0,-2.8866e-15,0,0,1,-4.3219e-15,0,1,-1.251,-1.279,-1.279,-2.2718e-12,-1.2697,0.028,1.1275e-06,0.48,0.2,0
0.2275,-4.6849e-17,0.5,-1.25,-1.25,-1.25,-3.4325e-17,0,0,-3.0011e-16,2.6283e-16,0,-8.9245e-17,0,0,1,-1.1262e-15,0,1,-1.243,-1.257,-1.25,-45,-1.25,0.014,3.3484e-21,0.5,0.2,0
0.22714,-4.7699e-17,0.48,-1.249,-1.221,-1.221,-4.6664e-16,0,0,-0.0364,5.5485e-17,0,-1.2133e-15,0,0,1,-3.251e-16,0,1,-1.221,-1.249,-1.221,-90,-1.2303,0.028,-1.1275e-06,0.52,0.2,0
0.22604,-4.9781e-17,0.46,-1.248,-1.192,-1.192,1.4792e-16,0,0,-0.0728,1.2104e-16,0,3.8459e-16,0,0,1,2.4265e-15,0,1,-1.192,-1.248,-1.192,90,-1.2107,0.056,-9.0196e-06,0.54,0.2,0
0.22422,-4.6079e-17,0.44,-1.247,-1.163,-1.163,1.9497e-15,0,0,-0.1092,2.3309e-16,0,5.0693e-15,0,0,1,1.5108e-15,0,1,-1.163,-1.247,-1.163,90,-1.191,0.084,-3.0441e-05,0.56,0.2,0
0.22168,1.2808e-16,0.42,-1.246,-1.134,-1.134,1.0424e-15,0,0,-0.1456,3.395e-17,0,2.7102e-15,0,0,1,2.5296e-15,0,1,-1.134,-1.246,-1.134,90,-1.1713,0.112,-7.2157e-05,0.58,0.2,0
0.2184,1.2819e-16,0.4,-1.245,-1.105,-1.105,6.6564e-16,0,0,-0.182,2.9679e-16,0,1.7307e-15,0,0,1,0,0,1,-1.105,-1.245,-1.105,90,-1.1517,0.14,-0.00014093,0.6,0.2,0
0.2144,1.1693e-16,0.38,-1.244,-1.076,-1.076,-9.7599e-16,0,0,-0.2184,5.1675e-17,0,-2.5376e-15,0,0,1,-2.8154e-16,0,1,-1.076,-1.244,-1.076,-90,-1.132,0.168,-0.00024353,0.62,0.2,0
0.20966,1.1969e-16,0.36,-1.243,-1.047,-1.047,-6.2518e-17,0,0,-0.2548,1.4878e-16,0,-1.6255e-16,0,0,1,-1.6574e-15,0,1,-1.047,-1.243,-1.047,-90,-1.1123,0.196,-0.00038672,0.64,0.2,0
0.2042,1.2004e-16,0.34,-1.242,-1.018,-1.018,7.1978e-16,0,0,-0.2912,3.3455e-16,0,1.8714e-15,0,0,1,7.6918e-16,0,1,-1.018,-1.242,-1.018,90,-1.0927,0.224,-0.00057726,0.66,0.2,0
0.19802,1.2302e-16,0.32,-1.241,-0.989,-0.989,-1.3435e-15,0,0,-0.3276,2.5378e-16,0,-3.4932e-15,0,0,1,4.3555e-17,0,1,-0.989,-1.241,-0.989,-90,-1.073,0.252,-0.00082192,0.68,0.2,0
0.1911,-4.3028e-17,0.3,-1.24,-0.96,-0.96,-1.0508e-15,0,0,-0.364,-3.3103e-17,0,-2.732e-15,0,0,1,-1.3323e-15,0,1,-0.96,-1.24,-0.96,-90,-1.0533,0.28,-0.0011275,0.7,0.2,0
0.18346,-4.4374e-17,0.28,-1.239,-0.931,-0.931,9.6843e-17,0,0,-0.4004,8.9165e-17,0,2.5179e-16,0,0,1,0,0,1,-0.931,-1.239,-0.931,90,-1.0337,0.308,-0.0015006,0.72,0.2,0
0.17508,-4.7257e-17,0.26,-1.238,-0.902,-0.902,-3.1259e-17,0,0,-0.4368,9.3962e-18,0,-8.1274e-17,0,0,1,0,0,1,-0.902,-1.238,-0.902,-90,-1.014,0.336,-0.0019482,0.74,0.2,0
0.16598,-4.3841e-17,0.24,-1.237,-0.873,-0.873,-2.4476e-16,0,0,-0.4732,9.5768e-17,0,-6.3638e-16,0,0,1,1.6255e-16,0,1,-0.873,-1.237,-0.873,-90,-0.99433,0.364,-0.002477,0.76,0.2,0
0.15616,-5.928e-17,0.22,-1.236,-0.844,-0.844,-3.271e-16,0,0,-0.5096,9.1574e-17,0,-8.5046e-16,0,0,1,-1.4353e-15,0,1,-0.844,-1.236,-0.844,-90,-0.97467,0.392,-0.0030937,0.78,0.2,0
0.1456,-5.4157e-17,0.2,-1.235,-0.815,-0.815,1.7816e-15,0,0,-0.546,6.3764e-17,0,4.6321e-15,0,0,1,1.7052e-16,0,1,-0.815,-1.235,-0.815,90,-0.955,0.42,-0.0038052,0.8,0.2,0
0.13432,8.1154e-17,0.18,-1.234,-0.786,-0.786,7.9875e-16,0,0,-0.5824,2.5955e-16,0,2.0768e-15,0,0,1,1.9092e-15,0,1,-0.786,-1.234,-0.786,90,-0.93533,0.448,-0.0046181,0.82,0.2,0
0.1223,8.277e-17,0.16,-1.233,-0.757,-0.757,5.7208e-18,0,0,-0.6188,8.7939e-17,0,1.4874e-17,0,0,1,0,0,1,-0.757,-1.233,-0.757,90,-0.91567,0.476,-0.0055392,0.84,0.2,0
0.10956,7.8364e-17,0.14,-1.232,-0.728,-0.728,2.135e-17,0,0,-0.6552,1.8126e-16,0,5.5511e-17,0,0,1,8.1274e-17,0,1,-0.728,-1.232,-0.728,90,-0.896,0.504,-0.0065753,0.86,0.2,0
0.096096,8.1901e-17,0.12,-1.231,-0.699,-0.699,-3.2792e-17,0,0,-0.6916,1.545e-16,0,-8.5259e-17,0,0,1,-6.0664e-16,0,1,-0.699,-1.231,-0.699,-90,-0.87633,0.532,-0.0077332,0.88,0.2,0
0.0819,8.2472e-17,0.1,-1.23,-0.67,-0.67,-9.9088e-18,0,0,-0.728,8.0156e-17,0,-2.5763e-17,0,0,1,8.1274e-17,0,1,-0.67,-1.23,-0.67,-90,-0.85667,0.56,-0.0090197,0.9,0.2,0
0.066976,8.1917e-17,0.08,-1.229,-0.641,-0.641,-9.3656e-16,0,0,-0.7644,6.1492e-17,0,-2.435e-15,0,0,1,-2.2542e-15,0,1,-0.641,-1.229,-0.641,9.2371e-14,-0.837,0.588,-0.010459,0.92,0.2,0
0.051324,-5.2921e-17,0.06,-1.228,-0.612,-0.612,-8.9881e-16,0,0,-0.8008,5.539e-17,0,-2.3369e-15,0,0,1,-1.7649e-15,0,1,-0.612,-1.228,-0.612,-90,-0.81733,0.616,-0.012005,0.94,0.2,0
0.034944,-5.4177e-17,0.04,-1.227,-0.583,-0.583,1.5526e-16,0,0,-0.8372,-4.8238e-17,0,4.0368e-16,0,0,1,-1.0159e-17,0,1,-0.583,-1.227,-0.583,90,-0.79767,0.644,-0.013718,0.96,0.2,0
0.017836,-5.3e-17,0.02,-1.226,-0.554,-0.554,1.201e-17,0,0,-0.8736,3.485e-17,0,3.1225e-17,0,0,1,7.583e-17,0,1,-0.554,-1.226,-0.554,90,-0.778,0.672,-0.015586,0.98,0.2,0
0,-5.1837e-17,0,-1.2005,-0.5145,-0.5145,3.1923e-18,0,0,-0.8918,-5.0787e-19,0,8.3e-18,0,0,1,-2.0318e-17,0,1,-0.5145,-1.2005,-0.5145,90,-0.74317,0.686,-0.016581,1,0.2,0
0,1.3066e-17,1,-1.2995,-1.9855,-1.9855,-4.4603e-17,0,0,0.8918,6.6368e-17,0,-1.1597e-16,0,0,1,0,0,1,-1.2995,-1.9855,-1.9855,-3.7253e-15,-1.7568,0.686,0.016581,0,0.22,0
0.017836,9.6724e-18,0.98,-1.274,-1.946,-1.946,-1.4852e-16,0,0,0.8736,1.5375e-16,0,-3.8615e-16,0,0,1,4.29e-15,0,1,-1.274,-1.946,-1.946,-1.2663e-14,-1.722,0.672,0.015586,0.02,0.22,0
0.034944,2.4592e-18,0.96,-1.273,-1.917,-1.917,9.7073e-17,0,0,0.8372,1.5086e-17,0,2.5239e-16,0,0,1,-6.8037e-15,0,1,-1.273,-1.917,-1.917,8.6364e-15,-1.7023,0.644,0.013718,0.04,0.22,0
0.051324,1.647e-17,0.94,-1.272,-1.888,-1.888,4.0147e-16,0,0,0.8008,-3.5366e-17,0,1.0438e-15,0,0,1,3.0449e-15,0,1,-1.272,-1.888,-1.888,3.7342e-14,-1.6827,0.616,0.012005,0.06,0.22,0
0.066976,4.6566e-17,0.92,-1.271,-1.859,-1.859,1.9271e-16,0,0,0.7644,8.0103e-17,0,5.0106e-16,0,0,1,-1.1895e-14,0,1,-1.271,-1.859,-1.859,1.8778e-14,-1.663,0.588,0.010441,0.08,0.22,0
0.0819,1.0462e-17,0.9,-1.27,-1.83,-1.83,-4.8039e-16,0,0,0.728,1.2041e-16,0,-1.249e-15,0,0,1,7.2159e-15,0,1,-1.27,-1.83,-1.83,-4.7981e-14,-1.6433,0.56,0.0090366,0.1,0.22,0
0.096096,9.0451e-18,0.88,-1.269,-1.801,-1.801,4.6222e-32,0,0,0.6916,3.09e-16,0,1.1093e-31,0,0,1,0,0,1,-1.269,-1.801,-1.801,4.9781e-30,-1.6237,0.532,0.0077332,0.12,0.22,0
0.10956,9.8659e-18,0.86,-1.268,-1.772,-1.772,4.5561e-16,0,0,0.6552,1.5836e-16,0,1.1846e-15,0,0,1,1.5384e-15,0,1,-1.268,-1.772,-1.772,5.1795e-14,-1.604,0.504,0.0065753,0.14,0.22,0
0.1223,6.1279e-17,0.84,-1.267,-1.743,-1.743,4.1168e-17,0,0,0.6188,-1.0314e-17,0,1.0704e-16,0,0,1,5.9793e-15,0,1,-1.267,-1.743,-1.743,4.9554e-15,-1.5843,0.476,0.0055392,0.16,0.22,0
0.13432,-1.2372e-18,0.82,-1.266,-1.714,-1.714,-7.0303e-16,0,0,0.5824,3.1972e-16,0,-1.8279e-15,0,0,1,-8.8818e-16,0,1,-1.266,-1.714,-1.714,-8.9912e-14,-1.5647,0.448,0.0046181,0.18,0.22,0
0.1456,-3.6915e-18,0.8,-1.265,-1.685,-1.685,3.317e-16,0,0,0.546,2.2392e-16,0,8.6242e-16,0,0,1,-4.4409e-16,0,1,-1.265,-1.685,-1.685,4.525e-14,-1.545,0.42,0.0038052,0.2,0.22,0
0.15616,5.0901e-17,0.78,-1.264,-1.656,-1.656,1.99e-16,0,0,0.5096,1.2547e-18,0,5.1739e-16,0,0,1,-1.7445e-15,0,1,-1.264,-1.656,-1.656,2.9086e-14,-1.5253,0.392,0.0030937,0.22,0.22,0
0.16598,-1.3635e-17,0.76,-1.263,-1.627,-1.627,-8.7384e-16,0,0,0.4732,2.2183e-16,0,-2.272e-15,0,0,1,1.2133e-15,0,1,-1.263,-1.627,-1.627,-1.3755e-13,-1.5057,0.364,0.002477,0.24,0.22,0
0.17508,-2.6336e-17,0.74,-1.262,-1.598,-1.598,-3.3017e-16,0,0,0.4368,4.1736e-16,0,-8.5843e-16,0,0,1,-1.5777e-30,0,1,-1.262,-1.598,-1.598,-5.6301e-14,-1.486,0.336,0.0019482,0.26,0.22,0
0.18346,-2.9457e-17,0.72,-1.261,-1.569,-1.569,1.3123e-15,0,0,0.4004,3.9508e-18,0,3.4119e-15,0,0,1,8.8818e-16,0,1,-1.261,-1.569,-1.569,2.4412e-13,-1.4663,0.308,0.0015006,0.28,0.22,0
0.1911,7.8976e-17,0.7,-1.26,-1.54,-1.54,1.0675e-15,0,0,0.364,1.0332e-16,0,2.7756e-15,0,0,1,3.251e-16,0,1,-1.26,-1.54,-1.54,2.1845e-13,-1.4467,0.28,0.0011275,0.3,0.22,0
0.19802,7.013e-17,0.68,-1.259,-1.511,-1.511,-9.8608e-32,0,0,0.3276,2.8659e-16,0,-2.4652e-31,0,0,1,-4.528e-15,0,1,-1.259,-1.511,-1.511,-2.242e-29,-1.427,0.252,0.00082192,0.32,0.22,0
0.2042,7.2012e-17,0.66,-1.258,-1.482,-1.482,-1.0675e-15,0,0,0.2912,-1.4501e-16,0,-2.7756e-15,0,0,1,-8.8818e-16,0,1,-1.258,-1.482,-1.482,-2.9126e-13,-1.4073,0.224,0.00058402,0.34,0.22,0
0.20966,-3.4594e-17,0.64,-1.257,-1.453,-1.453,-1.0873e-15,0,0,0.2548,2.5518e-16,0,-2.8271e-15,0,0,1,1.5384e-15,0,1,-1.257,-1.453,-1.453,-3.1786e-13,-1.3877,0.196,0.00038672,0.36,0.22,0
0.2144,-4.0708e-17,0.62,-1.256,-1.424,-1.424,4.1557e-16,0,0,0.2184,2.5857e-16,0,1.0805e-15,0,0,1,-1.2133e-15,0,1,-1.256,-1.424,-1.424,1.4173e-13,-1.368,0.168,0.00024353,0.38,0.22,0
0.2184,-3.8463e-17,0.6,-1.255,-1.395,-1.395,1.2071e-15,0,0,0.182,2.8939e-16,0,3.1384e-15,0,0,1,1.5384e-15,0,1,-1.255,-1.395,-1.395,4.94e-13,-1.3483,0.14,0.00014093,0.4,0.22,0
0.22168,6.3543e-17,0.58,-1.254,-1.366,-1.366,9.5924e-16,0,0,0.1456,-1.541e-16,0,2.494e-15,0,0,1,-3.251e-16,0,1,-1.254,-1.366,-1.366,4.9072e-13,-1.3287,0.112,7.2157e-05,0.42,0.22,0
0.22422,5.4752e-17,0.56,-1.253,-1.337,-1.337,1.2504e-16,0,0,0.1092,1.1579e-16,0,3.251e-16,0,0,1,6.5019e-16,0,1,-1.253,-1.337,-1.337,8.5287e-14,-1.309,0.084,3.0441e-05,0.44,0.22,0
0.22604,6.2375e-17,0.54,-1.252,-1.308,-1.308,-1.0675e-15,0,0,0.0728,3.9692e-17,0,-2.7756e-15,0,0,1,-5.3567e-15,0,1,-1.252,-1.308,-1.308,-1.0922e-12,-1.2893,0.056,9.0196e-06,0.46,0.22,0
0.22714,-3.3663e-17,0.52,-1.251,-1.279,-1.279,-1.5624e-15,0,0,0.0364,2.5724e-16,0,-4.0621e-15,0,0,1,-7.8513e-16,0,1,-1.251,-1.279,-1.279,-3.197e-12,-1.2697,0.028,1.1275e-06,0.48,0.22,0
0.2275,-3.9587e-17,0.5,-1.25,-1.25,-1.25,1.9062e-16,0,0,1.6827e-16,2.1497e-16,0,4.9561e-16,0,0,1,1.7764e-15,0,1,-1.243,-1.257,-1.25,45,-1.25,0.014,2.0117e-20,0.5,0.22,0
0.22714,-3.7889e-17,0.48,-1.249,-1.221,-1.221,-1.8224e-16,0,0,-0.0364,4.2386e-16,0,-4.7384e-16,0,0,1,8.8818e-16,0,1,-1.221,-1.249,-1.221,-90,-1.2303,0.028,-1.1275e-06,0.52,0.22,0
0.22604,-4.3346e-17,0.46,-1.248,-1.192,-1.192,-5.3223e-16,0,0,-0.0728,2.6165e-16,0,-1.3838e-15,0,0,1,6.0664e-16,0,1,-1.192,-1.248,-1.192,-90,-1.2107,0.056,-9.0196e-06,0.54,0.22,0
0.22422,-4.1859e-17,0.44,-1.247,-1.163,-1.163,1.8956e-15,0,0,-0.1092,2.2379e-16,0,4.9285e-15,0,0,1,1.9548e-15,0,1,-1.163,-1.247,-1.163,90,-1.191,0.084,-3.0441e-05,0.56,0.22,0
0.22168,1.3254e-16,0.42,-1.246,-1.134,-1.134,1.1476e-15,0,0,-0.1456,2.3136e-16,0,2.9838e-15,0,0,1,2.042e-15,0,1,-1.134,-1.246,-1.134,90,-1.1713,0.112,-7.2157e-05,0.58,0.22,0
0.2184,1.3349e-16,0.4,-1.245,-1.105,-1.105,-1.0829e-16,0,0,-0.182,1.9321e-16,0,-2.8154e-16,0,0,1,1.6255e-16,0,1,-1.105,-1.245,-1.105,-90,-1.1517,0.14,-0.00014093,0.6,0.22,0
0.2144,1.2073e-16,0.38,-1.244,-1.076,-1.076,-4.552e-16,0,0,-0.2184,2.06e-16,0,-1.1835e-15,0,0,1,-1.6574e-15,0,1,-1.076,-1.244,-1.076,-90,-1.132,0.168,-0.00024353,0.62,0.22,0
0.20966,1.2224e-16,0.36,-1.243,-1.047,-1.047,1.5936e-16,0,0,-0.2548,8.8735e-17,0,4.1434e-16,0,0,1,-2.8154e-16,0,1,-1.047,-1.243,-1.047,90,-1.1123,0.196,-0.00038672,0.64,0.22,0
0.2042,1.2766e-16,0.34,-1.242,-1.018,-1.018,4.0413e-16,0,0,-0.2912,4.4458e-16,0,1.0507e-15,0,0,1,2.8154e-16,0,1,-1.018,-1.242,-1.018,90,-1.0927,0.224,-0.00057726,0.66,0.22,0
0.19802,1.2653e-16,0.32,-1.241,-0.989,-0.989,-1.3748e-15,0,0,-0.3276,7.8435e-17,0,-3.5745e-15,0,0,1,1.7009e-15,0,1,-0.989,-1.241,-0.989,-90,-1.073,0.252,-0.00082192,0.68,0.22,0
0.1911,-3.8128e-17,0.3,-1.24,-0.96,-0.96,-1.0195e-15,0,0,-0.364,2.667e-16,0,-2.6507e-15,0,0,1,-2.4265e-15,0,1,-0.96,-1.24,-0.96,-90,-1.0533,0.28,-0.0011275,0.7,0.22,0
0.18346,-4.3151e-17,0.28,-1.239,-0.931,-0.931,5.1077e-17,0,0,-0.4004,1.8021e-16,0,1.328e-16,0,0,1,0,0,1,-0.931,-1.239,-0.931,90,-1.0337,0.308,-0.0015006,0.72,0.22,0
0.17508,-4.262e-17,0.26,-1.238,-0.902,-0.902,-1.7918e-16,0,0,-0.4368,2.1105e-16,0,-4.6587e-16,0,0,1,0,0,1,-0.902,-1.238,-0.902,-90,-1.014,0.336,-0.0019482,0.74,0.22,0
0.16598,-3.9476e-17,0.24,-1.237,-0.873,-0.873,1.0522e-16,0,0,-0.4732,1.1688e-16,0,2.7357e-16,0,0,1,1.6255e-16,0,1,-0.873,-1.237,-0.873,90,-0.99433,0.364,-0.002477,0.76,0.22,0
0.15616,-4.9471e-17,0.22,-1.236,-0.844,-0.844,-2.6765e-16,0,0,-0.5096,4.4341e-16,0,-6.9588e-16,0,0,1,-1.2133e-15,0,1,-0.844,-1.236,-0.844,-90,-0.97467,0.392,-0.0030937,0.78,0.22,0
0.1456,-5.1693e-17,0.2,-1.235,-0.815,-0.815,1.6196e-15,0,0,-0.546,2.1777e-16,0,4.2109e-15,0,0,1,1.1915e-15,0,1,-0.815,-1.235,-0.815,90,-0.955,0.42,-0.0038052,0.8,0.22,0
0.13432,8.9091e-17,0.18,-1.234,-0.786,-0.786,9.5086e-16,0,0,-0.5824,3.5248e-16,0,2.4722e-15,0,0,1,1.4135e-15,0,1,-0.786,-1.234,-0.786,90,-0.93533,0.448,-0.0046181,0.82,0.22,0
0.1223,8.6882e-17,0.16,-1.233,-0.757,-0.757,-2.4476e-16,0,0,-0.6188,2.061e-16,0,-6.3638e-16,0,0,1,0,0,1,-0.757,-1.233,-0.757,-90,-0.91567,0.476,-0.0055392,0.84,0.22,0
0.10956,8.6952e-17,0.14,-1.232,-0.728,-0.728,5.261e-17,0,0,-0.6552,4.18e-16,0,1.3678e-16,0,0,1,0,0,1,-0.728,-1.232,-0.728,90,-0.896,0.504,-0.0065753,0.86,0.22,0
0.096096,8.7596e-17,0.12,-1.231,-0.699,-0.699,-7.9681e-17,0,0,-0.6916,2.7835e-16,0,-2.0717e-16,0,0,1,-1.5166e-16,0,1,-0.699,-1.231,-0.699,-90,-0.87633,0.532,-0.0077332,0.88,0.22,0
0.0819,8.5597e-17,0.1,-1.23,-0.67,-0.67,-2.9165e-17,0,0,-0.728,2.0045e-16,0,-7.583e-17,0,0,1,-7.0385e-17,0,1,-0.67,-1.23,-0.67,-90,-0.85667,0.56,-0.0090197,0.9,0.22,0
0.066976,8.4138e-17,0.08,-1.229,-0.641,-0.641,-8.056e-16,0,0,-0.7644,8.7664e-17,0,-2.0946e-15,0,0,1,-1.0384e-15,0,1,-0.641,-1.229,-0.641,-90,-0.837,0.588,-0.010459,0.92,0.22,0
0.051324,-4.9637e-17,0.06,-1.228,-0.612,-0.612,-7.751e-16,0,0,-0.8008,1.1189e-16,0,-2.0153e-15,0,0,1,-1.8482e-15,0,1,-0.612,-1.228,-0.612,-90,-0.81733,0.616,-0.012005,0.94,0.22,0
0.034944,-5.2599e-17,0.04,-1.227,-0.583,-0.583,-4.8945e-17,0,0,-0.8372,1.4095e-16,0,-1.2726e-16,0,0,1,-1.161e-16,0,1,-0.583,-1.227,-0.583,-90,-0.79767,0.644,-0.013718,0.96,0.22,0
0.017836,-4.9299e-17,0.02,-1.226,-0.554,-0.554,-3.3902e-17,0,0,-0.8736,1.3465e-16,0,-8.8146e-17,0,0,1,-7.1929e-17,0,1,-0.554,-1.226,-0.554,-90,-0.778,0.672,-0.015586,0.98,0.22,0
0,-4.964e-17,0,-1.2005,-0.5145,-0.5145,-2.4019e-17,0,0,-0.8918,1.4107e-16,0,-6.245e-17,0,0,1,1.3611e-18,0,1,-0.5145,-1.2005,-0.5145,-90,-0.74317,0.686,-0.016581,1,0.22,0
0,1.1477e-17,1,-1.2995,-1.9855,-1.9855,5.5994e-17,0,0,0.8918,2.1964e-17,0,1.4558e-16,0,0,1,0,0,1,-1.2995,-1.9855,-1.9855,4.6767e-15,-1.7568,0.686,0.016581,0,0.24,0
0.017836,1.4158e-17,0.98,-1.274,-1.946,-1.946,-1.3046e-16,0,0,0.8736,8.13e-17,0,-3.3919e-16,0,0,1,4.29e-15,0,1,-1.274,-1.946,-1.946,-1.1123e-14,-1.722,0.672,0.015586,0.02,0.24,0
0.034944,2.9243e-18,0.96,-1.273,-1.917,-1.917,1.0956e-16,0,0,0.8372,1.8324e-16,0,2.8486e-16,0,0,1,-5.5033e-15,0,1,-1.273,-1.917,-1.917,9.7475e-15,-1.7023,0.644,0.013718,0.04,0.24,0
0.051324,1.7733e-17,0.94,-1.272,-1.888,-1.888,3.9575e-16,0,0,0.8008,1.5909e-16,0,1.029e-15,0,0,1,7.5729e-15,0,1,-1.272,-1.888,-1.888,3.681e-14,-1.6827,0.616,0.012005,0.06,0.24,0
0.066976,4.9365e-17,0.92,-1.271,-1.859,-1.859,8.8823e-17,0,0,0.7644,1.0241e-16,0,2.3094e-16,0,0,1,-7.0417e-15,0,1,-1.271,-1.859,-1.859,8.6551e-15,-1.663,0.588,0.010441,0.08,0.24,0
0.0819,1.2632e-17,0.9,-1.27,-1.83,-1.83,-5.3509e-16,0,0,0.728,9.9528e-17,0,-1.3912e-15,0,0,1,9.6424e-15,0,1,-1.27,-1.83,-1.83,-5.3222e-14,-1.6433,0.56,0.0090366,0.1,0.24,0
0.096096,1.5771e-17,0.88,-1.269,-1.801,-1.801,-2.135e-17,0,0,0.6916,1.2012e-16,0,-5.5511e-17,0,0,1,0,0,1,-1.269,-1.801,-1.801,-2.2994e-15,-1.6237,0.532,0.0077332,0.12,0.24,0
0.10956,1.4591e-17,0.86,-1.268,-1.772,-1.772,4.4417e-16,0,0,0.6552,2.0878e-16,0,1.1549e-15,0,0,1,3.5527e-15,0,1,-1.268,-1.772,-1.772,5.0494e-14,-1.604,0.504,0.0065753,0.14,0.24,0
0.1223,6.1502e-17,0.84,-1.267,-1.743,-1.743,1.99e-16,0,0,0.6188,-4.4395e-18,0,5.1739e-16,0,0,1,-1.0269e-14,0,1,-1.267,-1.743,-1.743,2.3953e-14,-1.5843,0.476,0.0055392,0.16,0.24,0
0.13432,7.3485e-18,0.82,-1.266,-1.714,-1.714,-8.5248e-16,0,0,0.5824,1.2612e-16,0,-2.2165e-15,0,0,1,2.1014e-15,0,1,-1.266,-1.714,-1.714,-1.0903e-13,-1.5647,0.448,0.0046181,0.18,0.24,0
0.1456,3.3943e-19,0.8,-1.265,-1.685,-1.685,5.3948e-16,0,0,0.546,6.9826e-17,0,1.4027e-15,0,0,1,-1.6574e-15,0,1,-1.265,-1.685,-1.685,7.3595e-14,-1.545,0.42,0.0038052,0.2,0.24,0
0.15616,4.836e-17,0.78,-1.264,-1.656,-1.656,-1.3954e-16,0,0,0.5096,2.3232e-17,0,-3.6282e-16,0,0,1,-5.4162e-15,0,1,-1.264,-1.656,-1.656,-2.0396e-14,-1.5253,0.392,0.0030937,0.22,0.24,0
0.16598,-1.2685e-17,0.76,-1.263,-1.627,-1.627,-7.6862e-16,0,0,0.4732,-8.0898e-17,0,-1.9984e-15,0,0,1,4.3219e-15,0,1,-1.263,-1.627,-1.627,-1.2098e-13,-1.5057,0.364,0.002477,0.24,0.24,0
0.17508,-1.6517e-17,0.74,-1.262,-1.598,-1.598,-1.708e-16,0,0,0.4368,1.7429e-16,0,-4.4409e-16,0,0,1,3.5527e-15,0,1,-1.262,-1.598,-1.598,-2.9126e-14,-1.486,0.336,0.0019482,0.26,0.24,0
0.18346,-3.0026e-17,0.72,-1.261,-1.569,-1.569,9.623e-16,0,0,0.4004,1.2643e-17,0,2.502e-15,0,0,1,5.6542e-15,0,1,-1.261,-1.569,-1.569,1.7901e-13,-1.4663,0.308,0.0015006,0.28,0.24,0
0.1911,8.1801e-17,0.7,-1.26,-1.54,-1.54,8.342e-16,0,0,0.364,2.6437e-17,0,2.1689e-15,0,0,1,-6.5019e-16,0,1,-1.26,-1.54,-1.54,1.707e-13,-1.4467,0.28,0.0011275,0.3,0.24,0
0.19802,7.7529e-17,0.68,-1.259,-1.511,-1.511,-1.5936e-16,0,0,0.3276,6.7113e-17,0,-4.1434e-16,0,0,1,2.1014e-15,0,1,-1.259,-1.511,-1.511,-3.6233e-14,-1.427,0.252,0.00082192,0.32,0.24,0
0.2042,6.8012e-17,0.66,-1.258,-1.482,-1.482,-6.8321e-16,0,0,0.2912,-3.1242e-16,0,-1.7764e-15,0,0,1,8.8818e-16,0,1,-1.258,-1.482,-1.482,-1.8878e-13,-1.4073,0.224,0.00058402,0.34,0.24,0
0.20966,-2.6646e-17,0.64,-1.257,-1.453,-1.453,-7.488e-16,0,0,0.2548,1.6971e-16,0,-1.9469e-15,0,0,1,-3.5527e-15,0,1,-1.257,-1.453,-1.453,-2.1889e-13,-1.3877,0.196,0.00038672,0.36,0.24,0
0.2144,-3.7527e-17,0.62,-1.256,-1.424,-1.424,5.5205e-16,0,0,0.2184,1.2289e-16,0,1.4353e-15,0,0,1,-5.6308e-16,0,1,-1.256,-1.424,-1.424,1.8827e-13,-1.368,0.168,0.00024353,0.38,0.24,0
0.2184,-3.3359e-17,0.6,-1.255,-1.395,-1.395,1.2154e-15,0,0,0.182,9.1424e-19,0,3.1601e-15,0,0,1,-3.251e-16,0,1,-1.255,-1.395,-1.395,4.9743e-13,-1.3483,0.14,0.00014093,0.4,0.24,0
0.22168,5.7012e-17,0.58,-1.254,-1.366,-1.366,7.9988e-16,0,0,0.1456,-1.1825e-16,0,2.0797e-15,0,0,1,-1.8635e-15,0,1,-1.254,-1.366,-1.366,4.0919e-13,-1.3287,0.112,7.2157e-05,0.42,0.24,0
0.22422,6.2563e-17,0.56,-1.253,-1.337,-1.337,-1.3954e-16,0,0,0.1092,1.9133e-16,0,-3.6282e-16,0,0,1,6.5019e-16,0,1,-1.253,-1.337,-1.337,-9.5182e-14,-1.309,0.084,3.0441e-05,0.44,0.24,0
0.22604,5.8868e-17,0.54,-1.252,-1.308,-1.308,-7.061e-16,0,0,0.0728,-1.4508e-16,0,-1.8359e-15,0,0,1,-5.2972e-15,0,1,-1.252,-1.308,-1.308,-7.2244e-13,-1.2893,0.056,9.0196e-06,0.46,0.24,0
0.22714,-2.7559e-17,0.52,-1.251,-1.279,-1.279,-1.4998e-15,0,0,0.0364,7.661e-17,0,-3.8996e-15,0,0,1,-1.0072e-15,0,1,-1.251,-1.279,-1.279,-3.0691e-12,-1.2697,0.028,1.1275e-06,0.48,0.24,0
0.2275,-3.8251e-17,0.5,-1.25,-1.25,-1.25,-5.2916e-16,0,0,-6.0368e-16,-4.9886e-17,0,-1.3758e-15,0,0,1,1.1697e-15,0,1,-1.243,-1.257,-1.25,-45,-1.25,0.014,-2.0117e-20,0.5,0.24,0
0.22714,-3.0745e-17,0.48,-1.249,-1.221,-1.221,2.1044e-16,0,0,-0.0364,-1.7925e-17,0,5.4714e-16,0,0,1,1.2133e-15,0,1,-1.221,-1.249,-1.221,90,-1.2303,0.028,-1.1275e-06,0.52,0.24,0
0.22604,-3.9315e-17,0.46,-1.248,-1.192,-1.192,-2.7602e-16,0,0,-0.0728,1.3628e-16,0,-7.1766e-16,0,0,1,9.8608e-31,0,1,-1.192,-1.248,-1.192,-90,-1.2107,0.056,-9.0196e-06,0.54,0.24,0
0.22422,-3.7127e-17,0.44,-1.247,-1.163,-1.163,2.1518e-15,0,0,-0.1092,1.7928e-16,0,5.5947e-15,0,0,1,-1.1378e-15,0,1,-1.163,-1.247,-1.163,90,-1.191,0.084,-3.0441e-05,0.56,0.24,0
0.22168,1.3734e-16,0.42,-1.246,-1.134,-1.134,5.6124e-16,0,0,-0.1456,-3.9466e-17,0,1.4592e-15,0,0,1,2.6645e-15,0,1,-1.134,-1.246,-1.134,90,-1.1713,0.112,-7.2157e-05,0.58,0.24,0
0.2184,1.3592e-16,0.4,-1.245,-1.105,-1.105,-4.4683e-16,0,0,-0.182,3.7784e-18,0,-1.1617e-15,0,0,1,1.6255e-16,0,1,-1.105,-1.245,-1.105,-90,-1.1517,0.14,-0.00014093,0.6,0.24,0
0.2144,1.2517e-16,0.38,-1.244,-1.076,-1.076,-4.3539e-16,0,0,-0.2184,1.2199e-16,0,-1.132e-15,0,0,1,-1.2133e-15,0,1,-1.076,-1.244,-1.076,-90,-1.132,0.168,-0.00024353,0.62,0.24,0
0.20966,1.2324e-16,0.36,-1.243,-1.047,-1.047,6.5727e-16,0,0,-0.2548,1.905e-16,0,1.7089e-15,0,0,1,9.3173e-16,0,1,-1.047,-1.243,-1.047,90,-1.1123,0.196,-0.00038672,0.64,0.24,0
0.2042,1.3782e-16,0.34,-1.242,-1.018,-1.018,2.2883e-17,0,0,-0.2912,1.8743e-16,0,5.9497e-17,0,0,1,-7.6918e-16,0,1,-1.018,-1.242,-1.018,90,-1.0927,0.224,-0.00057726,0.66,0.24,0
0.19802,1.2616e-16,0.32,-1.241,-0.989,-0.989,-2.0664e-15,0,0,-0.3276,-4.0867e-17,0,-5.3726e-15,0,0,1,-5.6308e-16,0,1,-0.989,-1.241,-0.989,-90,-1.073,0.252,-0.00082192,0.68,0.24,0
0.1911,-3.236e-17,0.3,-1.24,-0.96,-0.96,-9.3104e-16,0,0,-0.364,2.1799e-16,0,-2.4207e-15,0,0,1,-3.6398e-15,0,1,-0.96,-1.24,-0.96,-90,-1.0533,0.28,-0.0011275,0.7,0.24,0
0.18346,-3.7166e-17,0.28,-1.239,-0.931,-0.931,-2.3332e-16,0,0,-0.4004,1.1552e-16,0,-6.0664e-16,0,0,1,0,0,1,-0.931,-1.239,-0.931,-90,-1.0337,0.308,-0.0015006,0.72,0.24,0
0.17508,-3.8815e-17,0.26,-1.238,-0.902,-0.902,4.2701e-17,0,0,-0.4368,4.0699e-17,0,1.1102e-16,0,0,1,1.6255e-16,0,1,-0.902,-1.238,-0.902,90,-1.014,0.336,-0.0019482,0.74,0.24,0
0.16598,-3.9166e-17,0.24,-1.237,-0.873,-0.873,-1.6774e-16,0,0,-0.4732,-8.9787e-17,0,-4.3612e-16,0,0,1,-1.2133e-15,0,1,-0.873,-1.237,-0.873,-90,-0.99433,0.364,-0.002477,0.76,0.24,0
0.15616,-4.1544e-17,0.22,-1.236,-0.844,-0.844,2.6458e-16,0,0,-0.5096,1.4684e-16,0,6.8791e-16,0,0,1,1.6255e-16,0,1,-0.844,-1.236,-0.844,90,-0.97467,0.392,-0.0030937,0.78,0.24,0
0.1456,-4.5446e-17,0.2,-1.235,-0.815,-0.815,9.2226e-16,0,0,-0.546,1.3645e-16,0,2.3979e-15,0,0,1,1.0884e-15,0,1,-0.815,-1.235,-0.815,90,-0.955,0.42,-0.0038052,0.8,0.24,0
0.13432,9.5253e-17,0.18,-1.234,-0.786,-0.786,9.5658e-16,0,0,-0.5824,8.6451e-17,0,2.4871e-15,0,0,1,1.5761e-15,0,1,-0.786,-1.234,-0.786,90,-0.93533,0.448,-0.0046181,0.82,0.24,0
0.1223,9.1014e-17,0.16,-1.233,-0.757,-0.757,-2.9165e-16,0,0,-0.6188,1.3237e-16,0,-7.583e-16,0,0,1,0,0,1,-0.757,-1.233,-0.757,-90,-0.91567,0.476,-0.0055392,0.84,0.24,0
0.10956,9.5084e-17,0.14,-1.232,-0.728,-0.728,8.959e-17,0,0,-0.6552,1.7466e-16,0,2.3293e-16,0,0,1,6.163e-32,0,1,-0.728,-1.232,-0.728,90,-0.896,0.504,-0.0065753,0.86,0.24,0
0.096096,9.3035e-17,0.12,-1.231,-0.699,-0.699,-3.698e-17,0,0,-0.6916,9.578e-17,0,-9.6148e-17,0,0,1,-2.7117e-31,0,1,-0.699,-1.231,-0.699,-90,-0.87633,0.532,-0.0077332,0.88,0.24,0
0.0819,9.049e-17,0.1,-1.23,-0.67,-0.67,-7.6645e-19,0,0,-0.728,9.9521e-17,0,-1.9928e-18,0,0,1,4.0637e-17,0,1,-0.67,-1.23,-0.67,-90,-0.85667,0.56,-0.0090197,0.9,0.24,0
0.066976,8.5423e-17,0.08,-1.229,-0.641,-0.641,-1.0361e-15,0,0,-0.7644,2.7544e-17,0,-2.6938e-15,0,0,1,-9.9575e-16,0,1,-0.641,-1.229,-0.641,-90,-0.837,0.588,-0.010459,0.92,0.24,0
0.051324,-4.8446e-17,0.06,-1.228,-0.612,-0.612,-7.2277e-16,0,0,-0.8008,5.933e-17,0,-1.8792e-15,0,0,1,-2.1082e-15,0,1,-0.612,-1.228,-0.612,-90,-0.81733,0.616,-0.012005,0.94,0.24,0
0.034944,-4.8539e-17,0.04,-1.227,-0.583,-0.583,8.7687e-17,0,0,-0.8372,1.2824e-16,0,2.2799e-16,0,0,1,-1.2354e-16,0,1,-0.583,-1.227,-0.583,90,-0.79767,0.644,-0.013718,0.96,0.24,0
0.017836,-4.7614e-17,0.02,-1.226,-0.554,-0.554,-2.8738e-17,0,0,-0.8736,1.6023e-17,0,-7.4718e-17,0,0,1,1.3611e-18,0,1,-0.554,-1.226,-0.554,-90,-0.778,0.672,-0.015586,0.98,0.24,0
0,-4.6194e-17,0,-1.2005,-0.5145,-0.5145,4.1986e-17,0,0,-0.8918,4.4867e-17,0,1.0916e-16,0,0,1,0,0,1,-0.5145,-1.2005,-0.5145,90,-0.74317,0.686,-0.016581,1,0.24,0
0,1.3945e-17,1,-1.2995,-1.9855,-1.9855,-4.7655e-17,0,0,0.8918,-1.5902e-18,0,-1.239e-16,0,0,1,0,0,1,-1.2995,-1.9855,-1.9855,-3.9802e-15,-1.7568,0.686,0.016581,0,0.26,0
0.017836,1.2924e-17,0.98,-1.274,-1.946,-1.946,-1.535e-16,0,0,0.8736,4.9537e-17,0,-3.991e-16,0,0,1,4.29e-15,0,1,-1.274,-1.946,-1.946,-1.3088e-14,-1.722,0.672,0.015586,0.02,0.26,0
0.034944,9.789e-18,0.96,-1.273,-1.917,-1.917,2.6559e-16,0,0,0.8372,1.9562e-16,0,6.9054e-16,0,0,1,-4.6151e-15,0,1,-1.273,-1.917,-1.917,2.3629e-14,-1.7023,0.644,0.013718,0.04,0.26,0
0.051324,2.2834e-17,0.94,-1.272,-1.888,-1.888,3.235e-16,0,0,0.8008,3.0033e-16,0,8.411e-16,0,0,1,3.9649e-15,0,1,-1.272,-1.888,-1.888,3.009e-14,-1.6827,0.616,0.012005,0.06,0.26,0
0.066976,5.0663e-17,0.92,-1.271,-1.859,-1.859,-1.6166e-16,0,0,0.7644,4.7256e-17,0,-4.2032e-16,0,0,1,-1.0356e-14,0,1,-1.271,-1.859,-1.859,-1.5753e-14,-1.663,0.588,0.010441,0.08,0.26,0
0.0819,1.4443e-17,0.9,-1.27,-1.83,-1.83,-5.1736e-16,0,0,0.728,1.8082e-17,0,-1.3451e-15,0,0,1,7.2796e-15,0,1,-1.27,-1.83,-1.83,-5.189e-14,-1.6433,0.56,0.0090366,0.1,0.26,0
0.096096,1.385e-17,0.88,-1.269,-1.801,-1.801,1.1247e-16,0,0,0.6916,-9.4161e-17,0,2.9243e-16,0,0,1,0,0,1,-1.269,-1.801,-1.801,1.2113e-14,-1.6237,0.532,0.0077332,0.12,0.26,0
0.10956,1.8217e-17,0.86,-1.268,-1.772,-1.772,5.3529e-16,0,0,0.6552,1.7797e-17,0,1.3918e-15,0,0,1,3.0767e-15,0,1,-1.268,-1.772,-1.772,6.0853e-14,-1.604,0.504,0.0065753,0.14,0.26,0
0.1223,6.1102e-17,0.84,-1.267,-1.743,-1.743,3.4845e-16,0,0,0.6188,2.0161e-16,0,9.0597e-16,0,0,1,-7.9298e-15,0,1,-1.267,-1.743,-1.743,4.1943e-14,-1.5843,0.476,0.0055392,0.16,0.26,0
0.13432,3.8078e-18,0.82,-1.266,-1.714,-1.714,-1.1014e-15,0,0,0.5824,-2.5465e-16,0,-2.8637e-15,0,0,1,1.3004e-15,0,1,-1.266,-1.714,-1.714,-1.4087e-13,-1.5647,0.448,0.0046181,0.18,0.26,0
0.1456,-8.9852e-19,0.8,-1.265,-1.685,-1.685,6.2335e-16,0,0,0.546,-1.531e-16,0,1.6207e-15,0,0,1,1.8635e-15,0,1,-1.265,-1.685,-1.685,8.5037e-14,-1.545,0.42,0.0038052,0.2,0.26,0
0.15616,5.1831e-17,0.78,-1.264,-1.656,-1.656,-3.4998e-16,0,0,0.5096,4.5465e-17,0,-9.0996e-16,0,0,1,-4.29e-15,0,1,-1.264,-1.656,-1.656,-5.1154e-14,-1.5253,0.392,0.0030937,0.22,0.26,0
0.16598,-1.6871e-17,0.76,-1.263,-1.627,-1.627,-3.0197e-16,0,0,0.4732,-1.1676e-16,0,-7.8513e-16,0,0,1,1.5384e-15,0,1,-1.263,-1.627,-1.627,-4.7532e-14,-1.5057,0.364,0.002477,0.24,0.26,0
0.17508,-1.9364e-17,0.74,-1.262,-1.598,-1.598,-6.2518e-17,0,0,0.4368,-1.4683e-16,0,-1.6255e-16,0,0,1,-6.5019e-16,0,1,-1.262,-1.598,-1.598,-1.0661e-14,-1.486,0.336,0.0019482,0.26,0.26,0
0.18346,-2.8951e-17,0.72,-1.261,-1.569,-1.569,1.0248e-15,0,0,0.4004,5.1111e-17,0,2.6645e-15,0,0,1,4.409e-15,0,1,-1.261,-1.569,-1.569,1.9064e-13,-1.4663,0.308,0.0015006,0.28,0.26,0
0.1911,8.0034e-17,0.7,-1.26,-1.54,-1.54,1.2154e-15,0,0,0.364,-1.7063e-16,0,3.1601e-15,0,0,1,1.8953e-15,0,1,-1.26,-1.54,-1.54,2.4871e-13,-1.4467,0.28,0.0011275,0.3,0.26,0
0.19802,7.2814e-17,0.68,-1.259,-1.511,-1.511,-4.0413e-16,0,0,0.3276,-3.3434e-16,0,-1.0507e-15,0,0,1,2.1014e-15,0,1,-1.259,-1.511,-1.511,-9.1884e-14,-1.427,0.252,0.00082192,0.32,0.26,0
0.2042,5.9516e-17,0.66,-1.258,-1.482,-1.482,-8.5402e-16,0,0,0.2912,-1.0424e-16,0,-2.2205e-15,0,0,1,-7.6918e-16,0,1,-1.258,-1.482,-1.482,-2.3164e-13,-1.4073,0.224,0.00058402,0.34,0.26,0
0.20966,-2.7806e-17,0.64,-1.257,-1.453,-1.453,-8.2276e-16,0,0,0.2548,-2.4192e-16,0,-2.1392e-15,0,0,1,-4.647e-15,0,1,-1.257,-1.453,-1.453,-2.4051e-13,-1.3877,0.196,0.00038672,0.36,0.26,0
0.2144,-3.5793e-17,0.62,-1.256,-1.424,-1.424,2.135e-16,0,0,0.2184,8.2651e-17,0,5.5511e-16,0,0,1,-2.3799e-16,0,1,-1.256,-1.424,-1.424,7.2815e-14,-1.368,0.168,0.00024353,0.38,0.26,0
0.2184,-3.8427e-17,0.6,-1.255,-1.395,-1.395,1.281e-15,0,0,0.182,-1.8981e-16,0,3.3307e-15,0,0,1,-2.1014e-15,0,1,-1.255,-1.395,-1.395,5.2427e-13,-1.3483,0.14,0.00014093,0.4,0.26,0
0.22168,5.8813e-17,0.58,-1.254,-1.366,-1.366,1.2353e-15,0,0,0.1456,4.9589e-17,0,3.2117e-15,0,0,1,-5.6308e-16,0,1,-1.254,-1.366,-1.366,6.3192e-13,-1.3287,0.112,7.2157e-05,0.42,0.26,0
0.22422,6.2405e-17,0.56,-1.253,-1.337,-1.337,-2.0206e-16,0,0,0.1092,-1.3002e-16,0,-5.2536e-16,0,0,1,-2.264e-15,0,1,-1.253,-1.337,-1.337,-1.3783e-13,-1.309,0.084,3.0441e-05,0.44,0.26,0
0.22604,5.6572e-17,0.54,-1.252,-1.308,-1.308,-5.1548e-16,0,0,0.0728,-8.1786e-17,0,-1.3402e-15,0,0,1,-2.383e-15,0,1,-1.252,-1.308,-1.308,-5.274e-13,-1.2893,0.056,9.0196e-06,0.46,0.26,0
0.22714,-3.0598e-17,0.52,-1.251,-1.279,-1.279,-1.3519e-15,0,0,0.0364,-2.3032e-16,0,-3.515e-15,0,0,1,-5.6308e-16,0,1,-1.251,-1.279,-1.279,-2.7664e-12,-1.2697,0.028,1.1275e-06,0.48,0.26,0
0.2275,-4.1582e-17,0.5,-1.25,-1.25,-1.25,-5.2916e-16,0,0,-1.4051e-16,-1.264e-16,0,-1.3758e-15,0,0,1,-1.2133e-15,0,1,-1.243,-1.257,-1.25,-45,-1.25,0.014,1.6676e-21,0.5,0.26,0
0.22714,-3.8606e-17,0.48,-1.249,-1.221,-1.221,1.9062e-16,0,0,-0.0364,-3.4192e-16,0,4.9561e-16,0,0,1,3.251e-16,0,1,-1.221,-1.249,-1.221,90,-1.2303,0.028,-1.1275e-06,0.52,0.26,0
0.22604,-3.7895e-17,0.46,-1.248,-1.192,-1.192,5.406e-16,0,0,-0.0728,-7.2456e-17,0,1.4056e-15,0,0,1,-6.0664e-16,0,1,-1.192,-1.248,-1.192,90,-1.2107,0.056,-9.0196e-06,0.54,0.26,0
0.22422,-3.4687e-17,0.44,-1.247,-1.163,-1.163,1.9612e-15,0,0,-0.1092,6.4276e-17,0,5.099e-15,0,0,1,3.4104e-16,0,1,-1.163,-1.247,-1.163,90,-1.191,0.084,-3.0441e-05,0.56,0.26,0
0.22168,1.3096e-16,0.42,-1.246,-1.134,-1.134,5.1017e-16,0,0,-0.1456,-9.357e-17,0,1.3264e-15,0,0,1,3.6993e-15,0,1,-1.134,-1.246,-1.134,90,-1.1713,0.112,-7.2157e-05,0.58,0.26,0
0.2184,1.3364e-16,0.4,-1.245,-1.105,-1.105,-6.5584e-17,0,0,-0.182,-1.1551e-16,0,-1.7052e-16,0,0,1,0,0,1,-1.105,-1.245,-1.105,-90,-1.1517,0.14,-0.00014093,0.6,0.26,0
0.2144,1.2561e-16,0.38,-1.244,-1.076,-1.076,-6.6871e-16,0,0,-0.2184,1.419e-17,0,-1.7386e-15,0,0,1,1.6255e-16,0,1,-1.076,-1.244,-1.076,-90,-1.132,0.168,-0.00024353,0.62,0.26,0
0.20966,1.2986e-16,0.36,-1.243,-1.047,-1.047,1.99e-16,0,0,-0.2548,1.8949e-16,0,5.1739e-16,0,0,1,-4.4409e-16,0,1,-1.047,-1.243,-1.047,90,-1.1123,0.196,-0.00038672,0.64,0.26,0
0.2042,1.3516e-16,0.34,-1.242,-1.018,-1.018,1.9818e-17,0,0,-0.2912,-2.3805e-16,0,5.1526e-17,0,0,1,-6.0664e-16,0,1,-1.018,-1.242,-1.018,90,-1.0927,0.224,-0.00057726,0.66,0.26,0
0.19802,1.249e-16,0.32,-1.241,-0.989,-0.989,-1.7904e-15,0,0,-0.3276,8.5402e-17,0,-4.655e-15,0,0,1,2.061e-16,0,1,-0.989,-1.241,-0.989,-90,-1.073,0.252,-0.00082192,0.68,0.26,0
0.1911,-2.9408e-17,0.3,-1.24,-0.96,-0.96,-1.3352e-15,0,0,-0.364,-4.0864e-17,0,-3.4714e-15,0,0,1,-2.8706e-15,0,1,-0.96,-1.24,-0.96,-90,-1.0533,0.28,-0.0011275,0.7,0.26,0
0.18346,-3.853e-17,0.28,-1.239,-0.931,-0.931,1.9818e-17,0,0,-0.4004,-7.6265e-17,0,5.1526e-17,0,0,1,0,0,1,-0.931,-1.239,-0.931,90,-1.0337,0.308,-0.0015006,0.72,0.26,0
0.17508,-4.0992e-17,0.26,-1.238,-0.902,-0.902,-4.1557e-16,0,0,-0.4368,-2.5557e-17,0,-1.0805e-15,0,0,1,1.6255e-16,0,1,-0.902,-1.238,-0.902,-90,-1.014,0.336,-0.0019482,0.74,0.26,0
0.16598,-4.3068e-17,0.24,-1.237,-0.873,-0.873,2.2188e-16,0,0,-0.4732,-2.8999e-16,0,5.7689e-16,0,0,1,-1.2133e-15,0,1,-0.873,-1.237,-0.873,90,-0.99433,0.364,-0.002477,0.76,0.26,0
0.15616,-4.3598e-17,0.22,-1.236,-0.844,-0.844,2.9891e-16,0,0,-0.5096,-2.4259e-17,0,7.7716e-16,0,0,1,1.6255e-16,0,1,-0.844,-1.236,-0.844,90,-0.97467,0.392,-0.0030937,0.78,0.26,0
0.1456,-4.6235e-17,0.2,-1.235,-0.815,-0.815,1.3279e-15,0,0,-0.546,-1.4579e-17,0,3.4526e-15,0,0,1,4.8181e-16,0,1,-0.815,-1.235,-0.815,90,-0.955,0.42,-0.0038052,0.8,0.26,0
0.13432,9.2549e-17,0.18,-1.234,-0.786,-0.786,6.4358e-16,0,0,-0.5824,-2.0206e-17,0,1.6733e-15,0,0,1,2.4048e-15,0,1,-0.786,-1.234,-0.786,90,-0.93533,0.448,-0.0046181,0.82,0.26,0
0.1223,9.2177e-17,0.16,-1.233,-0.757,-0.757,7.5493e-17,0,0,-0.6188,-5.1423e-18,0,1.9628e-16,0,0,1,0,0,1,-0.757,-1.233,-0.757,90,-0.91567,0.476,-0.0055392,0.84,0.26,0
0.10956,9.3939e-17,0.14,-1.232,-0.728,-0.728,5.833e-17,0,0,-0.6552,-2.1793e-17,0,1.5166e-16,0,0,1,8.1274e-17,0,1,-0.728,-1.232,-0.728,90,-0.896,0.504,-0.0065753,0.86,0.26,0
0.096096,9.1427e-17,0.12,-1.231,-0.699,-0.699,-1.3801e-16,0,0,-0.6916,-9.5088e-17,0,-3.5883e-16,0,0,1,-5.66e-16,0,1,-0.699,-1.231,-0.699,-90,-0.87633,0.532,-0.0077332,0.88,0.26,0
0.0819,8.9577e-17,0.1,-1.23,-0.67,-0.67,3.2026e-17,0,0,-0.728,-8.6567e-17,0,8.3267e-17,0,0,1,-7.0385e-17,0,1,-0.67,-1.23,-0.67,90,-0.85667,0.56,-0.0090197,0.9,0.26,0
0.066976,8.524e-17,0.08,-1.229,-0.641,-0.641,-1.1194e-15,0,0,-0.7644,-3.1353e-17,0,-2.9104e-15,0,0,1,-2.0876e-15,0,1,-0.641,-1.229,-0.641,-90,-0.837,0.588,-0.010459,0.92,0.26,0
0.051324,-4.7264e-17,0.06,-1.228,-0.612,-0.612,-7.5375e-16,0,0,-0.8008,1.5237e-17,0,-1.9598e-15,0,0,1,-2.0249e-15,0,1,-0.612,-1.228,-0.612,-90,-0.81733,0.616,-0.012005,0.94,0.26,0
0.034944,-4.7469e-17,0.04,-1.227,-0.583,-0.583,7.8774e-17,0,0,-0.8372,2.7151e-17,0,2.0481e-16,0,0,1,2.7222e-18,0,1,-0.583,-1.227,-0.583,90,-0.79767,0.644,-0.013718,0.96,0.26,0
0.017836,-4.8658e-17,0.02,-1.226,-0.554,-0.554,5.6473e-17,0,0,-0.8736,-4.7875e-17,0,1.4683e-16,0,0,1,0,0,1,-0.554,-1.226,-0.554,90,-0.778,0.672,-0.015586,0.98,0.26,0
0,-4.7845e-17,0,-1.2005,-0.5145,-0.5145,7.8662e-18,0,0,-0.8918,-6.6345e-17,0,2.0452e-17,0,0,1,0,0,1,-0.5145,-1.2005,-0.5145,90,-0.74317,0.686,-0.016581,1,0.26,0
0,1.1413e-17,1,-1.2995,-1.9855,-1.9855,8.1111e-17,0,0,0.8918,8.5261e-17,0,2.1089e-16,0,0,1,0,0,1,-1.2995,-1.9855,-1.9855,6.7745e-15,-1.7568,0.686,0.016581,0,0.28,0
0.017836,1.6139e-17,0.98,-1.274,-1.946,-1.946,-1.0794e-16,0,0,0.8736,1.5785e-16,0,-2.8064e-16,0,0,1,4.29e-15,0,1,-1.274,-1.946,-1.946,-9.2031e-15,-1.722,0.672,0.015586,0.02,0.28,0
0.034944,1.0749e-17,0.96,-1.273,-1.917,-1.917,1.6517e-16,0,0,0.8372,1.5306e-16,0,4.2945e-16,0,0,1,-4.9402e-15,0,1,-1.273,-1.917,-1.917,1.4695e-14,-1.7023,0.644,0.013718,0.04,0.28,0
0.051324,2.9746e-17,0.94,-1.272,-1.888,-1.888,4.0346e-16,0,0,0.8008,1.3314e-16,0,1.049e-15,0,0,1,3.9649e-15,0,1,-1.272,-1.888,-1.888,3.7527e-14,-1.6827,0.616,0.012005,0.06,0.28,0
0.066976,5.1256e-17,0.92,-1.271,-1.859,-1.859,-1.4945e-16,0,0,0.7644,-3.0813e-17,0,-3.8858e-16,0,0,1,-9.0241e-15,0,1,-1.271,-1.859,-1.859,-1.4563e-14,-1.663,0.588,0.010441,0.08,0.28,0
0.0819,1.3356e-17,0.9,-1.27,-1.83,-1.83,-4.5827e-16,0,0,0.728,-8.5351e-17,0,-1.1915e-15,0,0,1,5.9155e-15,0,1,-1.27,-1.83,-1.83,-4.5117e-14,-1.6433,0.56,0.0090366,0.1,0.28,0
0.096096,1.2005e-17,0.88,-1.269,-1.801,-1.801,1.1442e-17,0,0,0.6916,-1.2845e-16,0,2.9748e-17,0,0,1,0,0,1,-1.269,-1.801,-1.801,1.2323e-15,-1.6237,0.532,0.0077332,0.12,0.28,0
0.10956,1.5303e-17,0.86,-1.268,-1.772,-1.772,5.5664e-16,0,0,0.6552,-1.1263e-16,0,1.4473e-15,0,0,1,1.9506e-15,0,1,-1.268,-1.772,-1.772,6.328e-14,-1.604,0.504,0.0065753,0.14,0.28,0
0.1223,6.9567e-17,0.84,-1.267,-1.743,-1.743,1.8183e-16,0,0,0.6188,-8.6173e-17,0,4.7277e-16,0,0,1,1.6892e-15,0,1,-1.267,-1.743,-1.743,2.1887e-14,-1.5843,0.476,0.0055392,0.16,0.28,0
0.13432,-2.8377e-18,0.82,-1.266,-1.714,-1.714,-8.6239e-16,0,0,0.5824,-8.9403e-17,0,-2.2422e-15,0,0,1,-4.7597e-16,0,1,-1.266,-1.714,-1.714,-1.1029e-13,-1.5647,0.448,0.0046181,0.18,0.28,0
0.1456,-5.7845e-18,0.8,-1.265,-1.685,-1.685,6.3061e-16,0,0,0.546,-6.4219e-17,0,1.6396e-15,0,0,1,5.6223e-15,0,1,-1.265,-1.685,-1.685,8.6026e-14,-1.545,0.42,0.0038052,0.2,0.28,0
0.15616,5.0179e-17,0.78,-1.264,-1.656,-1.656,-4.6664e-16,0,0,0.5096,-1.929e-16,0,-1.2133e-15,0,0,1,1.1899e-16,0,1,-1.264,-1.656,-1.656,-6.8206e-14,-1.5253,0.392,0.0030937,0.22,0.28,0
0.16598,-1.7355e-17,0.76,-1.263,-1.627,-1.627,-5.1241e-16,0,0,0.4732,3.7774e-17,0,-1.3323e-15,0,0,1,-2.3799e-16,0,1,-1.263,-1.627,-1.627,-8.0657e-14,-1.5057,0.364,0.002477,0.24,0.28,0
0.17508,-2.2391e-17,0.74,-1.262,-1.598,-1.598,2.6765e-16,0,0,0.4368,-3.3599e-18,0,6.9588e-16,0,0,1,0,0,1,-1.262,-1.598,-1.598,4.564e-14,-1.486,0.336,0.0019482,0.26,0.28,0
0.18346,-2.7981e-17,0.72,-1.261,-1.569,-1.569,1.1644e-15,0,0,0.4004,1.2517e-16,0,3.0274e-15,0,0,1,2.4265e-15,0,1,-1.261,-1.569,-1.569,2.166e-13,-1.4663,0.308,0.0015006,0.28,0.28,0
0.1911,7.4976e-17,0.7,-1.26,-1.54,-1.54,1.4144e-15,0,0,0.364,-2.3131e-16,0,3.6775e-15,0,0,1,-6.5019e-16,0,1,-1.26,-1.54,-1.54,2.8943e-13,-1.4467,0.28,0.0011275,0.3,0.28,0
0.19802,6.4156e-17,0.68,-1.259,-1.511,-1.511,4.2701e-17,0,0,0.3276,-1.8461e-16,0,1.1102e-16,0,0,1,0,0,1,-1.259,-1.511,-1.511,9.7087e-15,-1.427,0.252,0.00082192,0.32,0.28,0
0.2042,6.3842e-17,0.66,-1.258,-1.482,-1.482,-1.1644e-15,0,0,0.2912,1.3142e-16,0,-3.0274e-15,0,0,1,-5.7413e-15,0,1,-1.258,-1.482,-1.482,-3.1019e-13,-1.4073,0.224,0.00058402,0.34,0.28,0
0.20966,-3.6323e-17,0.64,-1.257,-1.453,-1.453,-1.1727e-15,0,0,0.2548,-1.5527e-16,0,-3.0491e-15,0,0,1,7.6918e-16,0,1,-1.257,-1.453,-1.453,-3.4282e-13,-1.3877,0.196,0.00038672,0.36,0.28,0
0.2144,-3.4221e-17,0.62,-1.256,-1.424,-1.424,1.3648e-16,0,0,0.2184,1.7659e-17,0,3.5484e-16,0,0,1,9.8608e-32,0,1,-1.256,-1.424,-1.424,4.6545e-14,-1.368,0.168,0.00024353,0.38,0.28,0
0.2184,-4.0951e-17,0.6,-1.255,-1.395,-1.395,9.196e-16,0,0,0.182,-6.0171e-17,0,2.391e-15,0,0,1,1.6574e-15,0,1,-1.255,-1.395,-1.395,3.7635e-13,-1.3483,0.14,0.00014093,0.4,0.28,0
0.22168,5.8996e-17,0.58,-1.254,-1.366,-1.366,1.3405e-15,0,0,0.1456,-1.7351e-16,0,3.4852e-15,0,0,1,-1.6574e-15,0,1,-1.254,-1.366,-1.366,6.8575e-13,-1.3287,0.112,7.2157e-05,0.42,0.28,0
0.22422,5.7362e-17,0.56,-1.253,-1.337,-1.337,-1.7918e-16,0,0,0.1092,-2.6659e-16,0,-4.6587e-16,0,0,1,-2.264e-15,0,1,-1.253,-1.337,-1.337,-1.2222e-13,-1.309,0.084,3.0441e-05,0.44,0.28,0
0.22604,5.5596e-17,0.54,-1.252,-1.308,-1.308,-7.6862e-16,0,0,0.0728,2.559e-17,0,-1.9984e-15,0,0,1,-1.0667e-15,0,1,-1.252,-1.308,-1.308,-7.864e-13,-1.2893,0.056,9.0196e-06,0.46,0.28,0
0.22714,-3.6772e-17,0.52,-1.251,-1.279,-1.279,-1.2467e-15,0,0,0.0364,-2.3316e-16,0,-3.2414e-15,0,0,1,2.3671e-15,0,1,-1.251,-1.279,-1.279,-2.5511e-12,-1.2697,0.028,1.1275e-06,0.48,0.28,0
0.2275,-4.3307e-17,0.5,-1.25,-1.25,-1.25,-1.7918e-16,0,0,-1.3531e-16,-1.2479e-16,0,-4.6587e-16,0,0,1,0,0,1,-1.243,-1.257,-1.25,-45,-1.25,0.014,1.5088e-20,0.5,0.28,0
0.22714,-4.4422e-17,0.48,-1.249,-1.221,-1.221,3.698e-16,0,0,-0.0364,-2.0799e-16,0,9.6148e-16,0,0,1,3.251e-16,0,1,-1.221,-1.249,-1.221,90,-1.2303,0.028,-1.1275e-06,0.52,0.28,0
0.22604,-4.2213e-17,0.46,-1.248,-1.192,-1.192,-1.7918e-16,0,0,-0.0728,-1.0379e-16,0,-4.6587e-16,0,0,1,-2.4265e-15,0,1,-1.192,-1.248,-1.192,-90,-1.2107,0.056,-9.0196e-06,0.54,0.28,0
0.22422,-3.4556e-17,0.44,-1.247,-1.163,-1.163,1.8925e-15,0,0,-0.1092,1.2342e-16,0,4.9206e-15,0,0,1,2.1174e-15,0,1,-1.163,-1.247,-1.163,90,-1.191,0.084,-3.0441e-05,0.56,0.28,0
0.22168,1.336e-16,0.42,-1.246,-1.134,-1.134,1.3809e-15,0,0,-0.1456,5.3224e-17,0,3.5904e-15,0,0,1,7.5324e-16,0,1,-1.134,-1.246,-1.134,90,-1.1713,0.112,-7.2157e-05,0.58,0.28,0
0.2184,1.313e-16,0.4,-1.245,-1.105,-1.105,-2.0206e-16,0,0,-0.182,-1.9517e-16,0,-5.2536e-16,0,0,1,-6.0664e-16,0,1,-1.105,-1.245,-1.105,-90,-1.1517,0.14,-0.00014093,0.6,0.28,0
0.2144,1.2573e-16,0.38,-1.244,-1.076,-1.076,1.0522e-16,0,0,-0.2184,-2.0304e-16,0,2.7357e-16,0,0,1,0,0,1,-1.076,-1.244,-1.076,90,-1.132,0.168,-0.00024353,0.62,0.28,0
0.20966,1.3082e-16,0.36,-1.243,-1.047,-1.047,-6.2518e-17,0,0,-0.2548,-4.7013e-18,0,-1.6255e-16,0,0,1,0,0,1,-1.047,-1.243,-1.047,-90,-1.1123,0.196,-0.00038672,0.64,0.28,0
0.2042,1.283e-16,0.34,-1.242,-1.018,-1.018,1.1666e-16,0,0,-0.2912,-1.9037e-16,0,3.0332e-16,0,0,1,3.251e-16,0,1,-1.018,-1.242,-1.018,90,-1.0927,0.224,-0.00057726,0.66,0.28,0
0.19802,1.2957e-16,0.32,-1.241,-0.989,-0.989,-1.6196e-15,0,0,-0.3276,1.2807e-16,0,-4.2109e-15,0,0,1,-1.6733e-15,0,1,-0.989,-1.241,-0.989,-90,-1.073,0.252,-0.00082192,0.68,0.28,0
0.1911,-3.3995e-17,0.3,-1.24,-0.96,-0.96,-1.2018e-15,0,0,-0.364,-1.993e-16,0,-3.1246e-15,0,0,1,-1.7169e-15,0,1,-0.96,-1.24,-0.96,-90,-1.0533,0.28,-0.0011275,0.7,0.28,0
0.18346,-4.0217e-17,0.28,-1.239,-0.931,-0.931,-2.2883e-17,0,0,-0.4004,3.7336e-17,0,-5.9497e-17,0,0,1,0,0,1,-0.931,-1.239,-0.931,-90,-1.0337,0.308,-0.0015006,0.72,0.28,0
0.17508,-3.9837e-17,0.26,-1.238,-0.902,-0.902,-7.9681e-16,0,0,-0.4368,1.0421e-16,0,-2.0717e-15,0,0,1,-1.4077e-16,0,1,-0.902,-1.238,-0.902,-90,-1.014,0.336,-0.0019482,0.74,0.28,0
0.16598,-5.0766e-17,0.24,-1.237,-0.873,-0.873,4.3232e-16,0,0,-0.4732,-1.1062e-16,0,1.124e-15,0,0,1,-1.0507e-15,0,1,-0.873,-1.237,-0.873,90,-0.99433,0.364,-0.002477,0.76,0.28,0
0.15616,-4.2514e-17,0.22,-1.236,-0.844,-0.844,7.396e-17,0,0,-0.5096,1.5128e-16,0,1.923e-16,0,0,1,-1.4077e-16,0,1,-0.844,-1.236,-0.844,90,-0.97467,0.392,-0.0030937,0.78,0.28,0
0.1456,-4.6029e-17,0.2,-1.235,-0.815,-0.815,1.3847e-15,0,0,-0.546,5.563e-17,0,3.6003e-15,0,0,1,-4.3555e-17,0,1,-0.815,-1.235,-0.815,90,-0.955,0.42,-0.0038052,0.8,0.28,0
0.13432,9.4445e-17,0.18,-1.234,-0.786,-0.786,6.7065e-16,0,0,-0.5824,1.0377e-16,0,1.7437e-15,0,0,1,2.9301e-15,0,1,-0.786,-1.234,-0.786,90,-0.93533,0.448,-0.0046181,0.82,0.28,0
0.1223,9.0808e-17,0.16,-1.233,-0.757,-0.757,-5.7208e-18,0,0,-0.6188,1.0581e-16,0,-1.4874e-17,0,0,1,-2.2204e-16,0,1,-0.757,-1.233,-0.757,-90,-0.91567,0.476,-0.0055392,0.84,0.28,0
0.10956,9.4212e-17,0.14,-1.232,-0.728,-0.728,-3.698e-17,0,0,-0.6552,-7.0028e-18,0,-9.6148e-17,0,0,1,-4.8473e-16,0,1,-0.728,-1.232,-0.728,-90,-0.896,0.504,-0.0065753,0.86,0.28,0
0.096096,8.9232e-17,0.12,-1.231,-0.699,-0.699,2.3904e-16,0,0,-0.6916,8.0887e-17,0,6.2151e-16,0,0,1,-1.8141e-16,0,1,-0.699,-1.231,-0.699,90,-0.87633,0.532,-0.0077332,0.88,0.28,0
0.0819,8.7028e-17,0.1,-1.23,-0.67,-0.67,-4.4795e-17,0,0,-0.728,-3.1448e-17,0,-1.1647e-16,0,0,1,-2.6268e-16,0,1,-0.67,-1.23,-0.67,-90,-0.85667,0.56,-0.0090197,0.9,0.28,0
0.066976,8.4169e-17,0.08,-1.229,-0.641,-0.641,-7.4936e-16,0,0,-0.7644,-1.2299e-17,0,-1.9483e-15,0,0,1,-1.2327e-15,0,1,-0.641,-1.229,-0.641,-90,-0.837,0.588,-0.010459,0.92,0.28,0
0.051324,-4.7836e-17,0.06,-1.228,-0.612,-0.612,-6.7913e-16,0,0,-0.8008,-9.8831e-18,0,-1.7657e-15,0,0,1,-1.4116e-15,0,1,-0.612,-1.228,-0.612,-90,-0.81733,0.616,-0.012005,0.94,0.28,0
0.034944,-4.7452e-17,0.04,-1.227,-0.583,-0.583,-5.7615e-17,0,0,-0.8372,3.3832e-17,0,-1.498e-16,0,0,1,0,0,1,-0.583,-1.227,-0.583,-90,-0.79767,0.644,-0.013718,0.96,0.28,0
0.017836,-4.9529e-17,0.02,-1.226,-0.554,-0.554,4.7228e-17,0,0,-0.8736,4.9793e-17,0,1.2279e-16,0,0,1,0,0,1,-0.554,-1.226,-0.554,90,-0.778,0.672,-0.015586,0.98,0.28,0
0,-4.8848e-17,0,-1.2005,-0.5145,-0.5145,1.5298e-17,0,0,-0.8918,1.6989e-17,0,3.9774e-17,0,0,1,0,0,1,-0.5145,-1.2005,-0.5145,90,-0.74317,0.686,-0.016581,1,0.28,0
0,1.7355e-17,1,-1.2995,-1.9855,-1.9855,8.7215e-18,0,0,0.8918,3.1276e-16,0,2.2676e-17,0,0,1,0,0,1,-1.2995,-1.9855,-1.9855,7.2843e-16,-1.7568,0.686,0.016581,0,0.3,0
0.017836,1.9238e-17,0.98,-1.274,-1.946,-1.946,-1.2069e-16,0,0,0.8736,1.2675e-16,0,-3.1379e-16,0,0,1,4.4961e-15,0,1,-1.274,-1.946,-1.946,-1.029e-14,-1.722,0.672,0.015586,0.02,0.3,0
0.034944,1.5911e-17,0.96,-1.273,-1.917,-1.917,1.811e-16,0,0,0.8372,1.3052e-16,0,4.7085e-16,0,0,1,-6.5976e-15,0,1,-1.273,-1.917,-1.917,1.6112e-14,-1.7023,0.644,0.013718,0.04,0.3,0
0.051324,2.8159e-17,0.94,-1.272,-1.888,-1.888,2.6489e-16,0,0,0.8008,-5.018e-17,0,6.8871e-16,0,0,1,3.695e-15,0,1,-1.272,-1.888,-1.888,2.4638e-14,-1.6827,0.616,0.012005,0.06,0.3,0
0.066976,4.943e-17,0.92,-1.271,-1.859,-1.859,-5.7769e-17,0,0,0.7644,8.2003e-17,0,-1.502e-16,0,0,1,-5.5225e-17,0,1,-1.271,-1.859,-1.859,-5.6292e-15,-1.663,0.588,0.010441,0.08,0.3,0
0.0819,1.1029e-17,0.9,-1.27,-1.83,-1.83,-4.2129e-16,0,0,0.728,-1.2609e-16,0,-1.0953e-15,0,0,1,3.4018e-15,0,1,-1.27,-1.83,-1.83,-4.1644e-14,-1.6433,0.56,0.0090366,0.1,0.3,0
0.096096,8.7118e-18,0.88,-1.269,-1.801,-1.801,-4.8422e-17,0,0,0.6916,-8.8176e-17,0,-1.259e-16,0,0,1,-8.7109e-17,0,1,-1.269,-1.801,-1.801,-5.215e-15,-1.6237,0.532,0.0077332,0.12,0.3,0
0.10956,1.3712e-17,0.86,-1.268,-1.772,-1.772,3.3323e-16,0,0,0.6552,-2.4389e-16,0,8.664e-16,0,0,1,1.0951e-14,0,1,-1.268,-1.772,-1.772,3.7882e-14,-1.604,0.504,0.0065753,0.14,0.3,0
0.1223,5.7655e-17,0.84,-1.267,-1.743,-1.743,5.6767e-16,0,0,0.6188,-2.7362e-16,0,1.476e-15,0,0,1,-1.6455e-14,0,1,-1.267,-1.743,-1.743,6.8331e-14,-1.5843,0.476,0.0055392,0.16,0.3,0
0.13432,2.3165e-19,0.82,-1.266,-1.714,-1.714,-1.2722e-15,0,0,0.5824,-7.1756e-17,0,-3.3078e-15,0,0,1,2.4265e-15,0,1,-1.266,-1.714,-1.714,-1.6271e-13,-1.5647,0.448,0.0046181,0.18,0.3,0
0.1456,-3.4673e-18,0.8,-1.265,-1.685,-1.685,6.1916e-16,0,0,0.546,-1.9794e-16,0,1.6098e-15,0,0,1,-5.9165e-31,0,1,-1.265,-1.685,-1.685,8.4465e-14,-1.545,0.42,0.0038052,0.2,0.3,0
0.15616,4.4115e-17,0.78,-1.264,-1.656,-1.656,2.2188e-16,0,0,0.5096,-2.2655e-16,0,5.7689e-16,0,0,1,-5.1782e-15,0,1,-1.264,-1.656,-1.656,3.2431e-14,-1.5253,0.392,0.0030937,0.22,0.3,0
0.16598,-1.536e-17,0.76,-1.263,-1.627,-1.627,-5.3529e-16,0,0,0.4732,-5.3813e-17,0,-1.3918e-15,0,0,1,8.8818e-16,0,1,-1.263,-1.627,-1.627,-8.4259e-14,-1.5057,0.364,0.002477,0.24,0.3,0
0.17508,-1.9499e-17,0.74,-1.262,-1.598,-1.598,-1.8224e-16,0,0,0.4368,1.4364e-17,0,-4.7384e-16,0,0,1,0,0,1,-1.262,-1.598,-1.598,-3.1077e-14,-1.486,0.336,0.0019482,0.26,0.3,0
0.18346,-2.3945e-17,0.72,-1.261,-1.569,-1.569,7.6024e-16,0,0,0.4004,2.7483e-17,0,1.9766e-15,0,0,1,2.4265e-15,0,1,-1.261,-1.569,-1.569,1.4142e-13,-1.4663,0.308,0.0015006,0.28,0.3,0
0.1911,7.0781e-17,0.7,-1.26,-1.54,-1.54,1.3123e-15,0,0,0.364,-1.1119e-16,0,3.4119e-15,0,0,1,-1.5384e-15,0,1,-1.26,-1.54,-1.54,2.6853e-13,-1.4467,0.28,0.0011275,0.3,0.3,0
0.19802,6.543e-17,0.68,-1.259,-1.511,-1.511,-2.4652e-32,0,0,0.3276,2.6821e-17,0,-9.8608e-32,0,0,1,-2.1014e-15,0,1,-1.259,-1.511,-1.511,-5.605e-30,-1.427,0.252,0.00082192,0.32,0.3,0
0.2042,6.4772e-17,0.66,-1.258,-1.482,-1.482,-1.1186e-15,0,0,0.2912,-1.623e-16,0,-2.9084e-15,0,0,1,-4.4409e-16,0,1,-1.258,-1.482,-1.482,-2.9771e-13,-1.4073,0.224,0.00058402,0.34,0.3,0
0.20966,-3.4017e-17,0.64,-1.257,-1.453,-1.453,-1.554e-15,0,0,0.2548,1.1424e-16,0,-4.0404e-15,0,0,1,2.061e-16,0,1,-1.257,-1.453,-1.453,-4.5427e-13,-1.3877,0.196,0.00038672,0.36,0.3,0
0.2144,-3.5087e-17,0.62,-1.256,-1.424,-1.424,4.4376e-16,0,0,0.2184,-1.8112e-16,0,1.1538e-15,0,0,1,4.9304e-32,0,1,-1.256,-1.424,-1.424,1.5134e-13,-1.368,0.168,0.00024353,0.38,0.3,0
0.2184,-4.0834e-17,0.6,-1.255,-1.395,-1.395,7.915e-16,0,0,0.182,-6.5531e-17,0,2.0579e-15,0,0,1,1.0943e-15,0,1,-1.255,-1.395,-1.395,3.2393e-13,-1.3483,0.14,0.00014093,0.4,0.3,0
0.22168,5.1872e-17,0.58,-1.254,-1.366,-1.366,1.1415e-15,0,0,0.1456,-2.3103e-16,0,2.9678e-15,0,0,1,1.1899e-16,0,1,-1.254,-1.366,-1.366,5.8395e-13,-1.3287,0.112,7.2157e-05,0.42,0.3,0
0.22422,5.1741e-17,0.56,-1.253,-1.337,-1.337,3.1259e-17,0,0,0.1092,-1.7764e-16,0,8.1274e-17,0,0,1,0,0,1,-1.253,-1.337,-1.337,2.1322e-14,-1.309,0.084,3.0441e-05,0.44,0.3,0
0.22604,5.7595e-17,0.54,-1.252,-1.308,-1.308,-9.0816e-16,0,0,0.0728,-1.4055e-16,0,-2.3612e-15,0,0,1,-1.4789e-15,0,1,-1.252,-1.308,-1.308,-9.2917e-13,-1.2893,0.056,9.0196e-06,0.46,0.3,0
0.22714,-3.9925e-17,0.52,-1.251,-1.279,-1.279,-1.1926e-15,0,0,0.0364,-7.7318e-17,0,-3.1007e-15,0,0,1,-2.3235e-15,0,1,-1.251,-1.279,-1.279,-2.4403e-12,-1.2697,0.028,1.1275e-06,0.48,0.3,0
0.2275,-4.6574e-17,0.5,-1.25,-1.25,-1.25,-1.9818e-17,0,0,-3.0705e-16,-1.5075e-16,0,-5.1526e-17,0,0,1,0,0,1,-1.243,-1.257,-1.25,-45,-1.25,0.014,-8.3909e-21,0.5,0.3,0
0.22714,-4.6926e-17,0.48,-1.249,-1.221,-1.221,3.9268e-16,0,0,-0.0364,-1.2601e-16,0,1.021e-15,0,0,1,0,0,1,-1.221,-1.249,-1.221,90,-1.2303,0.028,-1.1275e-06,0.52,0.3,0
0.22604,-4.2046e-17,0.46,-1.248,-1.192,-1.192,-3.9268e-16,0,0,-0.0728,-9.3777e-17,0,-1.021e-15,0,0,1,0,0,1,-1.192,-1.248,-1.192,-90,-1.2107,0.056,-9.0196e-06,0.54,0.3,0
0.22422,-2.975e-17,0.44,-1.247,-1.163,-1.163,2.3226e-15,0,0,-0.1092,1.6967e-16,0,6.0388e-15,0,0,1,-3.4773e-15,0,1,-1.163,-1.247,-1.163,90,-1.191,0.084,-3.0441e-05,0.56,0.3,0
0.22168,1.3309e-16,0.42,-1.246,-1.134,-1.134,5.1854e-16,0,0,-0.1456,-1.1661e-16,0,1.3482e-15,0,0,1,5.0911e-15,0,1,-1.134,-1.246,-1.134,90,-1.1713,0.112,-7.2157e-05,0.58,0.3,0
0.2184,1.2583e-16,0.4,-1.245,-1.105,-1.105,-3.6143e-16,0,0,-0.182,-2.799e-16,0,-9.397e-16,0,0,1,-7.6918e-16,0,1,-1.105,-1.245,-1.105,-90,-1.1517,0.14,-0.00014093,0.6,0.3,0
0.2144,1.1749e-16,0.38,-1.244,-1.076,-1.076,4.0413e-16,0,0,-0.2184,-1.7398e-16,0,1.0507e-15,0,0,1,1.2133e-15,0,1,-1.076,-1.244,-1.076,90,-1.132,0.168,-0.00024353,0.62,0.3,0
0.20966,1.2967e-16,0.36,-1.243,-1.047,-1.047,-1.9818e-17,0,0,-0.2548,-1.656e-16,0,-5.1526e-17,0,0,1,-1.6255e-16,0,1,-1.047,-1.243,-1.047,-90,-1.1123,0.196,-0.00038672,0.64,0.3,0
0.2042,1.2754e-16,0.34,-1.242,-1.018,-1.018,1.0522e-16,0,0,-0.2912,-2.1859e-17,0,2.7357e-16,0,0,1,3.251e-16,0,1,-1.018,-1.242,-1.018,90,-1.0927,0.224,-0.00057726,0.66,0.3,0
0.19802,1.3002e-16,0.32,-1.241,-0.989,-0.989,-1.981e-15,0,0,-0.3276,-7.8309e-17,0,-5.1506e-15,0,0,1,-2.9896e-15,0,1,-0.989,-1.241,-0.989,-90,-1.073,0.252,-0.00082192,0.68,0.3,0
0.1911,-3.738e-17,0.3,-1.24,-0.96,-0.96,-1.0081e-15,0,0,-0.364,-1.1247e-17,0,-2.621e-15,0,0,1,-2.5455e-15,0,1,-0.96,-1.24,-0.96,-90,-1.0533,0.28,-0.0011275,0.7,0.3,0
0.18346,-3.7037e-17,0.28,-1.239,-0.931,-0.931,-4.979e-16,0,0,-0.4004,1.0619e-16,0,-1.2945e-15,0,0,1,1.6255e-16,0,1,-0.931,-1.239,-0.931,-90,-1.0337,0.308,-0.0015006,0.72,0.3,0
0.17508,-3.6824e-17,0.26,-1.238,-0.902,-0.902,4.2394e-16,0,0,-0.4368,-7.7799e-17,0,1.1022e-15,0,0,1,-1.354e-15,0,1,-0.902,-1.238,-0.902,90,-1.014,0.336,-0.0019482,0.74,0.3,0
0.16598,-4.7493e-17,0.24,-1.237,-0.873,-0.873,-3.1872e-16,0,0,-0.4732,8.2726e-17,0,-8.2868e-16,0,0,1,-8.8818e-16,0,1,-0.873,-1.237,-0.873,-90,-0.99433,0.364,-0.002477,0.76,0.3,0
0.15616,-3.7546e-17,0.22,-1.236,-0.844,-0.844,1.281e-16,0,0,-0.5096,1.2711e-16,0,3.3307e-16,0,0,1,-1.4077e-16,0,1,-0.844,-1.236,-0.844,90,-0.97467,0.392,-0.0030937,0.78,0.3,0
0.1456,-4.401e-17,0.2,-1.235,-0.815,-0.815,1.0645e-15,0,0,-0.546,4.1589e-17,0,2.7676e-15,0,0,1,6.7411e-16,0,1,-0.815,-1.235,-0.815,90,-0.955,0.42,-0.0038052,0.8,0.3,0
0.13432,9.67e-17,0.18,-1.234,-0.786,-0.786,1.0904e-15,0,0,-0.5824,1.1292e-16,0,2.8351e-15,0,0,1,1.4651e-15,0,1,-0.786,-1.234,-0.786,90,-0.93533,0.448,-0.0046181,0.82,0.3,0
0.1223,9.6409e-17,0.16,-1.233,-0.757,-0.757,-1.563e-17,0,0,-0.6188,1.0977e-16,0,-4.0637e-17,0,0,1,-5.9497e-17,0,1,-0.757,-1.233,-0.757,-90,-0.91567,0.476,-0.0055392,0.84,0.3,0
0.10956,9.3659e-17,0.14,-1.232,-0.728,-0.728,-8.3869e-17,0,0,-0.6552,8.9002e-18,0,-2.1806e-16,0,0,1,-4.8473e-16,0,1,-0.728,-1.232,-0.728,-90,-0.896,0.504,-0.0065753,0.86,0.3,0
0.096096,9.4662e-17,0.12,-1.231,-0.699,-0.699,1.2238e-16,0,0,-0.6916,5.0488e-17,0,3.1819e-16,0,0,1,-7.0385e-17,0,1,-0.699,-1.231,-0.699,90,-0.87633,0.532,-0.0077332,0.88,0.3,0
0.0819,8.832e-17,0.1,-1.23,-0.67,-0.67,1.0103e-16,0,0,-0.728,2.8681e-17,0,2.6268e-16,0,0,1,0,0,1,-0.67,-1.23,-0.67,90,-0.85667,0.56,-0.0090197,0.9,0.3,0
0.066976,8.4748e-17,0.08,-1.229,-0.641,-0.641,-1.2381e-15,0,0,-0.7644,-4.4115e-17,0,-3.2191e-15,0,0,1,-1.2847e-15,0,1,-0.641,-1.229,-0.641,1.1369e-13,-0.837,0.588,-0.010459,0.92,0.3,0
0.051324,-4.7659e-17,0.06,-1.228,-0.612,-0.612,-5.9038e-16,0,0,-0.8008,-3.7112e-17,0,-1.535e-15,0,0,1,-1.9463e-15,0,1,-0.612,-1.228,-0.612,-90,-0.81733,0.616,-0.012005,0.94,0.3,0
0.034944,-4.6116e-17,0.04,-1.227,-0.583,-0.583,4.8754e-17,0,0,-0.8372,2.1935e-18,0,1.2676e-16,0,0,1,1.0159e-17,0,1,-0.583,-1.227,-0.583,90,-0.79767,0.644,-0.013718,0.96,0.3,0
0.017836,-4.6666e-17,0.02,-1.226,-0.554,-0.554,-2.8022e-17,0,0,-0.8736,5.6645e-17,0,-7.2858e-17,0,0,1,-7.075e-17,0,1,-0.554,-1.226,-0.554,-90,-0.778,0.672,-0.015586,0.98,0.3,0
0,-4.7166e-17,0,-1.2005,-0.5145,-0.5145,-1.4914e-17,0,0,-0.8918,9.1829e-17,0,-3.8778e-17,0,0,1,-1.7596e-17,0,1,-0.5145,-1.2005,-0.5145,-90,-0.74317,0.686,-0.016581,1,0.3,0
0,2.3924e-17,1,-1.2995,-1.9855,-1.9855,-5.9377e-17,0,0,0.8918,2.2375e-16,0,-1.5438e-16,0,0,1,0,0,1,-1.2995,-1.9855,-1.9855,-4.9593e-15,-1.7568,0.686,0.016581,0,0.32,0
0.017836,2.1209e-17,0.98,-1.274,-1.946,-1.946,-7.7536e-17,0,0,0.8736,8.2855e-17,0,-2.0159e-16,0,0,1,4.409e-15,0,1,-1.274,-1.946,-1.946,-6.6108e-15,-1.722,0.672,0.015586,0.02,0.32,0
0.034944,1.597e-17,0.96,-1.273,-1.917,-1.917,1.8038e-16,0,0,0.8372,-2.2466e-17,0,4.6899e-16,0,0,1,-6.9227e-15,0,1,-1.273,-1.917,-1.917,1.6048e-14,-1.7023,0.644,0.013718,0.04,0.32,0
0.051324,2.7739e-17,0.94,-1.272,-1.888,-1.888,3.4733e-16,0,0,0.8008,2.1791e-17,0,9.0305e-16,0,0,1,5.9474e-15,0,1,-1.272,-1.888,-1.888,3.2306e-14,-1.6827,0.616,0.012005,0.06,0.32,0
0.066976,5.4536e-17,0.92,-1.271,-1.859,-1.859,1.0445e-16,0,0,0.7644,1.43e-16,0,2.7158e-16,0,0,1,-4.6151e-15,0,1,-1.271,-1.859,-1.859,1.0178e-14,-1.663,0.588,0.010441,0.08,0.32,0
0.0819,8.3122e-18,0.9,-1.27,-1.83,-1.83,-5.7207e-16,0,0,0.728,1.1658e-18,0,-1.4874e-15,0,0,1,5.6223e-15,0,1,-1.27,-1.83,-1.83,-5.7292e-14,-1.6433,0.56,0.0090366,0.1,0.32,0
0.096096,8.478e-18,0.88,-1.269,-1.801,-1.801,1.1247e-16,0,0,0.6916,-6.3922e-17,0,2.9243e-16,0,0,1,-6.5019e-16,0,1,-1.269,-1.801,-1.801,1.2113e-14,-1.6237,0.532,0.0077332,0.12,0.32,0
0.10956,5.5478e-18,0.86,-1.268,-1.772,-1.772,4.8687e-16,0,0,0.6552,-2.8359e-16,0,1.2659e-15,0,0,1,3.8459e-15,0,1,-1.268,-1.772,-1.772,5.5349e-14,-1.604,0.504,0.0065753,0.14,0.32,0
0.1223,5.8622e-17,0.84,-1.267,-1.743,-1.743,1.1932e-16,0,0,0.6188,-3.3691e-17,0,3.1022e-16,0,0,1,-6.2725e-15,0,1,-1.267,-1.743,-1.743,1.4362e-14,-1.5843,0.476,0.0055392,0.16,0.32,0
0.13432,-5.7079e-18,0.82,-1.266,-1.714,-1.714,-8.5248e-16,0,0,0.5824,-2.6164e-16,0,-2.2165e-15,0,0,1,1.3004e-15,0,1,-1.266,-1.714,-1.714,-1.0903e-13,-1.5647,0.448,0.0046181,0.18,0.32,0
0.1456,-1.3702e-17,0.8,-1.265,-1.685,-1.685,5.4786e-16,0,0,0.546,-3.7382e-16,0,1.4244e-15,0,0,1,1.5384e-15,0,1,-1.265,-1.685,-1.685,7.4738e-14,-1.545,0.42,0.0038052,0.2,0.32,0
0.15616,4.1117e-17,0.78,-1.264,-1.656,-1.656,-3.1872e-16,0,0,0.5096,-2.6123e-16,0,-8.2868e-16,0,0,1,-3.0767e-15,0,1,-1.264,-1.656,-1.656,-4.6586e-14,-1.5253,0.392,0.0030937,0.22,0.32,0
0.16598,-1.9508e-17,0.76,-1.263,-1.627,-1.627,-6.7177e-16,0,0,0.4732,-5.722e-17,0,-1.7466e-15,0,0,1,1.5384e-15,0,1,-1.263,-1.627,-1.627,-1.0574e-13,-1.5057,0.364,0.002477,0.24,0.32,0
0.17508,-2.1816e-17,0.74,-1.262,-1.598,-1.598,-1.5936e-16,0,0,0.4368,-2.6128e-16,0,-4.1434e-16,0,0,1,0,0,1,-1.262,-1.598,-1.598,-2.7175e-14,-1.486,0.336,0.0019482,0.26,0.32,0
0.18346,-2.6882e-17,0.72,-1.261,-1.569,-1.569,7.6862e-16,0,0,0.4004,-1.1245e-16,0,1.9984e-15,0,0,1,1.2133e-15,0,1,-1.261,-1.569,-1.569,1.4298e-13,-1.4663,0.308,0.0015006,0.28,0.32,0
0.1911,7.0528e-17,0.7,-1.26,-1.54,-1.54,1.0988e-15,0,0,0.364,-1.5243e-16,0,2.8568e-15,0,0,1,-1.2133e-15,0,1,-1.26,-1.54,-1.54,2.2484e-13,-1.4467,0.28,0.0011275,0.3,0.32,0
0.19802,6.5228e-17,0.68,-1.259,-1.511,-1.511,0,0,0,0.3276,4.0336e-17,0,0,0,0,1,-2.1014e-15,0,1,-1.259,-1.511,-1.511,0,-1.427,0.252,0.00082192,0.32,0.32,0
0.2042,5.735e-17,0.66,-1.258,-1.482,-1.482,-1.2018e-15,0,0,0.2912,-9.6701e-17,0,-3.1246e-15,0,0,1,-8.8818e-16,0,1,-1.258,-1.482,-1.482,-3.2788e-13,-1.4073,0.224,0.00058402,0.34,0.32,0
0.20966,-3.1753e-17,0.64,-1.257,-1.453,-1.453,-1.0645e-15,0,0,0.2548,-1.1711e-16,0,-2.7676e-15,0,0,1,3.251e-16,0,1,-1.257,-1.453,-1.453,-3.1117e-13,-1.3877,0.196,0.00038672,0.36,0.32,0
0.2144,-4.1466e-17,0.62,-1.256,-1.424,-1.424,5.4143e-17,0,0,0.2184,-9.9436e-17,0,1.4077e-16,0,0,1,3.251e-16,0,1,-1.256,-1.424,-1.424,1.8465e-14,-1.368,0.168,0.00024353,0.38,0.32,0
0.2184,-4.3572e-17,0.6,-1.255,-1.395,-1.395,1.2581e-15,0,0,0.182,-1.7316e-16,0,3.2712e-15,0,0,1,-1.7764e-15,0,1,-1.255,-1.395,-1.395,5.149e-13,-1.3483,0.14,0.00014093,0.4,0.32,0
0.22168,4.9754e-17,0.58,-1.254,-1.366,-1.366,8.4564e-16,0,0,0.1456,-6.8522e-17,0,2.1987e-15,0,0,1,-2.1014e-15,0,1,-1.254,-1.366,-1.366,4.3261e-13,-1.3287,0.112,7.2157e-05,0.42,0.32,0
0.22422,5.0256e-17,0.56,-1.253,-1.337,-1.337,3.9268e-16,0,0,0.1092,-9.44e-17,0,1.021e-15,0,0,1,0,0,1,-1.253,-1.337,-1.337,2.6785e-13,-1.309,0.084,3.0441e-05,0.44,0.32,0
0.22604,4.9974e-17,0.54,-1.252,-1.308,-1.308,-9.1654e-16,0,0,0.0728,-1.8443e-16,0,-2.383e-15,0,0,1,-2.1014e-15,0,1,-1.252,-1.308,-1.308,-9.3774e-13,-1.2893,0.056,9.0196e-06,0.46,0.32,0
0.22714,-3.9865e-17,0.52,-1.251,-1.279,-1.279,-1.1102e-15,0,0,0.0364,-1.5462e-16,0,-2.8866e-15,0,0,1,-2.3799e-16,0,1,-1.251,-1.279,-1.279,-2.2718e-12,-1.2697,0.028,1.1275e-06,0.48,0.32,0
0.2275,-4.9337e-17,0.5,-1.25,-1.25,-1.25,-1.1666e-16,0,0,-2.9837e-16,-9.4067e-17,0,-3.0332e-16,0,0,1,-2.4265e-15,0,1,-1.243,-1.257,-1.25,-45,-1.25,0.014,-3.3617e-21,0.5,0.32,0
0.22714,-4.9462e-17,0.48,-1.249,-1.221,-1.221,1.2504e-16,0,0,-0.0364,-3.9482e-17,0,3.251e-16,0,0,1,3.251e-16,0,1,-1.221,-1.249,-1.221,90,-1.2303,0.028,-1.1275e-06,0.52,0.32,0
0.22604,-4.5965e-17,0.46,-1.248,-1.192,-1.192,-1.0522e-16,0,0,-0.0728,-2.3344e-16,0,-2.7357e-16,0,0,1,0,0,1,-1.192,-1.248,-1.192,-90,-1.2107,0.056,-9.0196e-06,0.54,0.32,0
0.22422,-2.7769e-17,0.44,-1.247,-1.163,-1.163,2.1289e-15,0,0,-0.1092,-7.2269e-17,0,5.5352e-15,0,0,1,5.6308e-16,0,1,-1.163,-1.247,-1.163,90,-1.191,0.084,-3.0441e-05,0.56,0.32,0
0.22168,1.2893e-16,0.42,-1.246,-1.134,-1.134,6.0394e-16,0,0,-0.1456,-1.7292e-16,0,1.5703e-15,0,0,1,2.1014e-15,0,1,-1.134,-1.246,-1.134,90,-1.1713,0.112,-7.2157e-05,0.58,0.32,0
0.2184,1.201e-16,0.4,-1.245,-1.105,-1.105,-1.9062e-16,0,0,-0.182,-1.1975e-16,0,-4.9561e-16,0,0,1,7.3956e-32,0,1,-1.105,-1.245,-1.105,-90,-1.1517,0.14,-0.00014093,0.6,0.32,0
0.2144,1.1877e-16,0.38,-1.244,-1.076,-1.076,1.9062e-16,0,0,-0.2184,-3.4737e-18,0,4.9561e-16,0,0,1,-2.9582e-31,0,1,-1.076,-1.244,-1.076,90,-1.132,0.168,-0.00024353,0.62,0.32,0
0.20966,1.2419e-16,0.36,-1.243,-1.047,-1.047,6.5584e-17,0,0,-0.2548,-2.0285e-16,0,1.7052e-16,0,0,1,0,0,1,-1.047,-1.243,-1.047,90,-1.1123,0.196,-0.00038672,0.64,0.32,0
0.2042,1.2743e-16,0.34,-1.242,-1.018,-1.018,2.0206e-16,0,0,-0.2912,-1.6184e-16,0,5.2536e-16,0,0,1,0,0,1,-1.018,-1.242,-1.018,90,-1.0927,0.224,-0.00057726,0.66,0.32,0
0.19802,1.2644e-16,0.32,-1.241,-0.989,-0.989,-1.705e-15,0,0,-0.3276,-1.9107e-16,0,-4.4329e-15,0,0,1,-1.1697e-15,0,1,-0.989,-1.241,-0.989,-90,-1.073,0.252,-0.00082192,0.68,0.32,0
0.1911,-3.4445e-17,0.3,-1.24,-0.96,-0.96,-1.1987e-15,0,0,-0.364,9.2085e-17,0,-3.1166e-15,0,0,1,-1.9389e-15,0,1,-0.96,-1.24,-0.96,-90,-1.0533,0.28,-0.0011275,0.7,0.32,0
0.18346,-3.5969e-17,0.28,-1.239,-0.931,-0.931,3.9635e-17,0,0,-0.4004,-1.4183e-16,0,1.0305e-16,0,0,1,-7.3956e-32,0,1,-0.931,-1.239,-0.931,90,-1.0337,0.308,-0.0015006,0.72,0.32,0
0.17508,-4.2949e-17,0.26,-1.238,-0.902,-0.902,-1.9369e-16,0,0,-0.4368,-2.0569e-16,0,-5.0359e-16,0,0,1,2.9582e-31,0,1,-0.902,-1.238,-0.902,-90,-1.014,0.336,-0.0019482,0.74,0.32,0
0.16598,-4.7457e-17,0.24,-1.237,-0.873,-0.873,6.5584e-17,0,0,-0.4732,2.4016e-18,0,1.7052e-16,0,0,1,0,0,1,-0.873,-1.237,-0.873,90,-0.99433,0.364,-0.002477,0.76,0.32,0
0.15616,-3.743e-17,0.22,-1.236,-0.844,-0.844,-4.2701e-17,0,0,-0.5096,-7.0331e-17,0,-1.1102e-16,0,0,1,1.6255e-16,0,1,-0.844,-1.236,-0.844,-90,-0.97467,0.392,-0.0030937,0.78,0.32,0
0.1456,-4.4366e-17,0.2,-1.235,-0.815,-0.815,1.3519e-15,0,0,-0.546,5.4208e-17,0,3.515e-15,0,0,1,-4.0637e-16,0,1,-0.815,-1.235,-0.815,90,-0.955,0.42,-0.0038052,0.8,0.32,0
0.13432,9.8962e-17,0.18,-1.234,-0.786,-0.786,6.7065e-16,0,0,-0.5824,4.453e-17,0,1.7437e-15,0,0,1,1.7981e-15,0,1,-0.786,-1.234,-0.786,90,-0.93533,0.448,-0.0046181,0.82,0.32,0
0.1223,9.5199e-17,0.16,-1.233,-0.757,-0.757,-1.1094e-16,0,0,-0.6188,-1.5393e-17,0,-2.8844e-16,0,0,1,1.6255e-16,0,1,-0.757,-1.233,-0.757,-90,-0.91567,0.476,-0.0055392,0.84,0.32,0
0.10956,9.4568e-17,0.14,-1.232,-0.728,-0.728,-4.2701e-17,0,0,-0.6552,-6.5426e-18,0,-1.1102e-16,0,0,1,0,0,1,-0.728,-1.232,-0.728,-90,-0.896,0.504,-0.0065753,0.86,0.32,0
0.096096,9.1251e-17,0.12,-1.231,-0.699,-0.699,-5.261e-17,0,0,-0.6916,-6.1817e-17,0,-1.3678e-16,0,0,1,0,0,1,-0.699,-1.231,-0.699,-90,-0.87633,0.532,-0.0077332,0.88,0.32,0
0.0819,8.8175e-17,0.1,-1.23,-0.67,-0.67,3.4886e-17,0,0,-0.728,-6.5878e-17,0,9.0704e-17,0,0,1,0,0,1,-0.67,-1.23,-0.67,90,-0.85667,0.56,-0.0090197,0.9,0.32,0
0.066976,8.2405e-17,0.08,-1.229,-0.641,-0.641,-9.884e-16,0,0,-0.7644,-3.0866e-17,0,-2.5699e-15,0,0,1,-2.1987e-15,0,1,-0.641,-1.229,-0.641,-90,-0.837,0.588,-0.010459,0.92,0.32,0
0.051324,-4.9321e-17,0.06,-1.228,-0.612,-0.612,-7.2602e-16,0,0,-0.8008,-6.9475e-17,0,-1.8876e-15,0,0,1,-1.6762e-15,0,1,-0.612,-1.228,-0.612,-90,-0.81733,0.616,-0.012005,0.94,0.32,0
0.034944,-4.7365e-17,0.04,-1.227,-0.583,-0.583,3.0736e-17,0,0,-0.8372,-4.5751e-17,0,7.9913e-17,0,0,1,-4.6222e-33,0,1,-0.583,-1.227,-0.583,90,-0.79767,0.644,-0.013718,0.96,0.32,0
0.017836,-4.7264e-17,0.02,-1.226,-0.554,-0.554,2.3304e-17,0,0,-0.8736,-5.8629e-18,0,6.0591e-17,0,0,1,1.8489e-32,0,1,-0.554,-1.226,-0.554,90,-0.778,0.672,-0.015586,0.98,0.32,0
0,-4.5174e-17,0,-1.2005,-0.5145,-0.5145,2.6305e-17,0,0,-0.8918,1.3488e-17,0,6.8393e-17,0,0,1,6.163e-33,0,1,-0.5145,-1.2005,-0.5145,90,-0.74317,0.686,-0.016581,1,0.32,0
0,2.6305e-17,1,-1.2995,-1.9855,-1.9855,-7.6489e-17,0,0,0.8918,1.274e-16,0,-1.9887e-16,0,0,1,0,0,1,-1.2995,-1.9855,-1.9855,-6.3884e-15,-1.7568,0.686,0.016581,0,0.34,0
0.017836,2.2553e-17,0.98,-1.274,-1.946,-1.946,-8.3876e-17,0,0,0.8736,1.3422e-16,0,-2.1808e-16,0,0,1,5.1782e-15,0,1,-1.274,-1.946,-1.946,-7.1514e-15,-1.722,0.672,0.015586,0.02,0.34,0
0.034944,1.5013e-17,0.96,-1.273,-1.917,-1.917,1.9973e-16,0,0,0.8372,8.0663e-18,0,5.1929e-16,0,0,1,-5.312e-16,0,1,-1.273,-1.917,-1.917,1.7769e-14,-1.7023,0.644,0.013718,0.04,0.34,0
0.051324,2.9031e-17,0.94,-1.272,-1.888,-1.888,5.0069e-16,0,0,0.8008,2.8384e-17,0,1.3018e-15,0,0,1,6.4233e-15,0,1,-1.272,-1.888,-1.888,4.657e-14,-1.6827,0.616,0.012005,0.06,0.34,0
0.066976,5.515e-17,0.92,-1.271,-1.859,-1.859,-1.0542e-16,0,0,0.7644,-7.4222e-17,0,-2.741e-16,0,0,1,-1.1451e-14,0,1,-1.271,-1.859,-1.859,-1.0273e-14,-1.663,0.588,0.010441,0.08,0.34,0
0.0819,1.1076e-17,0.9,-1.27,-1.83,-1.83,-6.02e-16,0,0,0.728,1.4057e-16,0,-1.5652e-15,0,0,1,8.818e-15,0,1,-1.27,-1.83,-1.83,-6.0091e-14,-1.6433,0.56,0.0090366,0.1,0.34,0
0.096096,6.1549e-18,0.88,-1.269,-1.801,-1.801,-1.4373e-16,0,0,0.6916,-9.8749e-17,0,-3.737e-16,0,0,1,-5.6308e-16,0,1,-1.269,-1.801,-1.801,-1.548e-14,-1.6237,0.532,0.0077332,0.12,0.34,0
0.10956,2.3684e-18,0.86,-1.268,-1.772,-1.772,3.9156e-16,0,0,0.6552,-1.1395e-16,0,1.0181e-15,0,0,1,-3.4656e-15,0,1,-1.268,-1.772,-1.772,4.4514e-14,-1.604,0.504,0.0065753,0.14,0.34,0
0.1223,5.6307e-17,0.84,-1.267,-1.743,-1.743,-3.4325e-17,0,0,0.6188,-2.7109e-16,0,-8.9245e-17,0,0,1,2.5774e-15,0,1,-1.267,-1.743,-1.743,-4.1317e-15,-1.5843,0.476,0.0055392,0.16,0.34,0
0.13432,-1.0234e-17,0.82,-1.266,-1.714,-1.714,-9.337e-16,0,0,0.5824,8.4982e-18,0,-2.4276e-15,0,0,1,-8.0107e-16,0,1,-1.266,-1.714,-1.714,-1.1941e-13,-1.5647,0.448,0.0046181,0.18,0.34,0
0.1456,-1.842e-17,0.8,-1.265,-1.685,-1.685,4.4836e-16,0,0,0.546,-5.5705e-17,0,1.1657e-15,0,0,1,4.8531e-15,0,1,-1.265,-1.685,-1.685,6.1164e-14,-1.545,0.42,0.0038052,0.2,0.34,0
0.15616,3.3666e-17,0.78,-1.264,-1.656,-1.656,5.4143e-17,0,0,0.5096,-4.7835e-16,0,1.4077e-16,0,0,1,1.7764e-15,0,1,-1.264,-1.656,-1.656,7.9136e-15,-1.5253,0.392,0.0030937,0.22,0.34,0
0.16598,-1.7649e-17,0.76,-1.263,-1.627,-1.627,-1.053e-15,0,0,0.4732,-6.8011e-17,0,-2.7378e-15,0,0,1,-2.3799e-16,0,1,-1.263,-1.627,-1.627,-1.6575e-13,-1.5057,0.364,0.002477,0.24,0.34,0
0.17508,-2.995e-17,0.74,-1.262,-1.598,-1.598,-4.2701e-17,0,0,0.4368,-1.0928e-16,0,-1.1102e-16,0,0,1,0,0,1,-1.262,-1.598,-1.598,-7.2815e-15,-1.486,0.336,0.0019482,0.26,0.34,0
0.18346,-2.8443e-17,0.72,-1.261,-1.569,-1.569,9.3942e-16,0,0,0.4004,7.3906e-17,0,2.4425e-15,0,0,1,2.4265e-15,0,1,-1.261,-1.569,-1.569,1.7476e-13,-1.4663,0.308,0.0015006,0.28,0.34,0
0.1911,6.4684e-17,0.7,-1.26,-1.54,-1.54,1.1926e-15,0,0,0.364,-1.545e-16,0,3.1007e-15,0,0,1,-6.5019e-16,0,1,-1.26,-1.54,-1.54,2.4403e-13,-1.4467,0.28,0.0011275,0.3,0.34,0
0.19802,6.7043e-17,0.68,-1.259,-1.511,-1.511,-5.4143e-17,0,0,0.3276,2.0868e-16,0,-1.4077e-16,0,0,1,0,0,1,-1.259,-1.511,-1.511,-1.231e-14,-1.427,0.252,0.00082192,0.32,0.34,0
0.2042,6.0904e-17,0.66,-1.258,-1.482,-1.482,-8.9978e-16,0,0,0.2912,2.3453e-17,0,-2.3394e-15,0,0,1,-5.7413e-15,0,1,-1.258,-1.482,-1.482,-2.3901e-13,-1.4073,0.224,0.00058402,0.34,0.34,0
0.20966,-3.8701e-17,0.64,-1.257,-1.453,-1.453,-1.2269e-15,0,0,0.2548,-2.12e-16,0,-3.1899e-15,0,0,1,7.6918e-16,0,1,-1.257,-1.453,-1.453,-3.5865e-13,-1.3877,0.196,0.00038672,0.36,0.34,0
0.2144,-3.9064e-17,0.62,-1.256,-1.424,-1.424,1.9818e-17,0,0,0.2184,2.6997e-17,0,5.1526e-17,0,0,1,0,0,1,-1.256,-1.424,-1.424,6.7587e-15,-1.368,0.168,0.00024353,0.38,0.34,0
0.2184,-4.776e-17,0.6,-1.255,-1.395,-1.395,8.6546e-16,0,0,0.182,-6.3828e-17,0,2.2502e-15,0,0,1,3.6398e-15,0,1,-1.255,-1.395,-1.395,3.5419e-13,-1.3483,0.14,0.00014093,0.4,0.34,0
0.22168,4.9131e-17,0.58,-1.254,-1.366,-1.366,8.8528e-16,0,0,0.1456,-2.0667e-16,0,2.3017e-15,0,0,1,-3.9649e-15,0,1,-1.254,-1.366,-1.366,4.5288e-13,-1.3287,0.112,7.2157e-05,0.42,0.34,0
0.22422,4.7965e-17,0.56,-1.253,-1.337,-1.337,-1.1442e-17,0,0,0.1092,-2.1381e-16,0,-2.9748e-17,0,0,1,2.264e-15,0,1,-1.253,-1.337,-1.337,-7.8043e-15,-1.309,0.084,3.0441e-05,0.44,0.34,0
0.22604,5.0218e-17,0.54,-1.252,-1.308,-1.308,-1.1446e-15,0,0,0.0728,-3.3584e-17,0,-2.9758e-15,0,0,1,-5.0359e-16,0,1,-1.252,-1.308,-1.308,-1.171e-12,-1.2893,0.056,9.0196e-06,0.46,0.34,0
0.22714,-4.611e-17,0.52,-1.251,-1.279,-1.279,-9.1654e-16,0,0,0.0364,-2.3032e-16,0,-2.383e-15,0,0,1,2.6922e-15,0,1,-1.251,-1.279,-1.279,-1.8755e-12,-1.2697,0.028,1.1275e-06,0.48,0.34,0
0.2275,-5.0337e-17,0.5,-1.25,-1.25,-1.25,-2.0206e-16,0,0,1.6653e-16,-7.1789e-17,0,-5.2536e-16,0,0,1,-2.4265e-15,0,1,-1.243,-1.257,-1.25,-45,-1.25,0.014,1.6676e-21,0.5,0.34,0
0.22714,-4.8505e-17,0.48,-1.249,-1.221,-1.221,7.0894e-17,0,0,-0.0364,-2.4906e-17,0,1.8432e-16,0,0,1,3.251e-16,0,1,-1.221,-1.249,-1.221,90,-1.2303,0.028,-1.1275e-06,0.52,0.34,0
0.22604,-5.1384e-17,0.46,-1.248,-1.192,-1.192,-1.7918e-16,0,0,-0.0728,-2.7127e-17,0,-4.6587e-16,0,0,1,0,0,1,-1.192,-1.248,-1.192,-90,-1.2107,0.056,-9.0196e-06,0.54,0.34,0
0.22422,-3.2641e-17,0.44,-1.247,-1.163,-1.163,1.8498e-15,0,0,-0.1092,-2.8637e-16,0,4.8095e-15,0,0,1,1.2887e-15,0,1,-1.163,-1.247,-1.163,90,-1.191,0.084,-3.0441e-05,0.56,0.34,0
0.22168,1.2617e-16,0.42,-1.246,-1.134,-1.134,1.1705e-15,0,0,-0.1456,4.1979e-18,0,3.0433e-15,0,0,1,2.4701e-15,0,1,-1.134,-1.246,-1.134,90,-1.1713,0.112,-7.2157e-05,0.58,0.34,0
0.2184,1.2104e-16,0.4,-1.245,-1.105,-1.105,7.396e-17,0,0,-0.182,-1.6469e-17,0,1.923e-16,0,0,1,1.6255e-16,0,1,-1.105,-1.245,-1.105,90,-1.1517,0.14,-0.00014093,0.6,0.34,0
0.2144,1.1735e-16,0.38,-1.244,-1.076,-1.076,1.1442e-17,0,0,-0.2184,-2.3344e-16,0,2.9748e-17,0,0,1,-1.2133e-15,0,1,-1.076,-1.244,-1.076,90,-1.132,0.168,-0.00024353,0.62,0.34,0
0.20966,1.2156e-16,0.36,-1.243,-1.047,-1.047,3.1259e-17,0,0,-0.2548,-2.0028e-16,0,8.1274e-17,0,0,1,1.6255e-16,0,1,-1.047,-1.243,-1.047,90,-1.1123,0.196,-0.00038672,0.64,0.34,0
0.2042,1.2107e-16,0.34,-1.242,-1.018,-1.018,3.1259e-17,0,0,-0.2912,-1.416e-16,0,8.1274e-17,0,0,1,0,0,1,-1.018,-1.242,-1.018,90,-1.0927,0.224,-0.00057726,0.66,0.34,0
0.19802,1.2237e-16,0.32,-1.241,-0.989,-0.989,-1.5769e-15,0,0,-0.3276,-2.041e-16,0,-4.0998e-15,0,0,1,-1.4513e-15,0,1,-0.989,-1.241,-0.989,-90,-1.073,0.252,-0.00082192,0.68,0.34,0
0.1911,-3.3696e-17,0.3,-1.24,-0.96,-0.96,-1.1674e-15,0,0,-0.364,-6.0612e-17,0,-3.0353e-15,0,0,1,-1.6574e-15,0,1,-0.96,-1.24,-0.96,-90,-1.0533,0.28,-0.0011275,0.7,0.34,0
0.18346,-4.271e-17,0.28,-1.239,-0.931,-0.931,9.3778e-17,0,0,-0.4004,-8.4327e-17,0,2.4382e-16,0,0,1,1.6255e-16,0,1,-0.931,-1.239,-0.931,90,-1.0337,0.308,-0.0015006,0.72,0.34,0
0.17508,-4.5052e-17,0.26,-1.238,-0.902,-0.902,-6.5727e-16,0,0,-0.4368,-2.7511e-17,0,-1.7089e-15,0,0,1,-1.0725e-15,0,1,-0.902,-1.238,-0.902,-90,-1.014,0.336,-0.0019482,0.74,0.34,0
0.16598,-4.7396e-17,0.24,-1.237,-0.873,-0.873,1.4792e-16,0,0,-0.4732,8.7098e-17,0,3.8459e-16,0,0,1,1.2133e-15,0,1,-0.873,-1.237,-0.873,90,-0.99433,0.364,-0.002477,0.76,0.34,0
0.15616,-4.036e-17,0.22,-1.236,-0.844,-0.844,1.281e-16,0,0,-0.5096,1.711e-17,0,3.3307e-16,0,0,1,3.0332e-16,0,1,-0.844,-1.236,-0.844,90,-0.97467,0.392,-0.0030937,0.78,0.34,0
0.1456,-4.1842e-17,0.2,-1.235,-0.815,-0.815,1.2139e-15,0,0,-0.546,1.4948e-18,0,3.1562e-15,0,0,1,-4.7967e-16,0,1,-0.815,-1.235,-0.815,90,-0.955,0.42,-0.0038052,0.8,0.34,0
0.13432,9.8481e-17,0.18,-1.234,-0.786,-0.786,9.6649e-16,0,0,-0.5824,2.2657e-17,0,2.5129e-15,0,0,1,2.5971e-15,0,1,-0.786,-1.234,-0.786,90,-0.93533,0.448,-0.0046181,0.82,0.34,0
0.1223,9.5793e-17,0.16,-1.233,-0.757,-0.757,1.563e-17,0,0,-0.6188,9.1082e-17,0,4.0637e-17,0,0,1,-8.1274e-17,0,1,-0.757,-1.233,-0.757,90,-0.91567,0.476,-0.0055392,0.84,0.34,0
0.10956,9.3397e-17,0.14,-1.232,-0.728,-0.728,-1.3801e-16,0,0,-0.6552,6.5846e-17,0,-3.5883e-16,0,0,1,0,0,1,-0.728,-1.232,-0.728,-90,-0.896,0.504,-0.0065753,0.86,0.34,0
0.096096,9.219e-17,0.12,-1.231,-0.699,-0.699,-4.2701e-17,0,0,-0.6916,1.1298e-16,0,-1.1102e-16,0,0,1,0,0,1,-0.699,-1.231,-0.699,-90,-0.87633,0.532,-0.0077332,0.88,0.34,0
0.0819,8.5684e-17,0.1,-1.23,-0.67,-0.67,-9.3217e-17,0,0,-0.728,-8.3696e-18,0,-2.4236e-16,0,0,1,0,0,1,-0.67,-1.23,-0.67,-90,-0.85667,0.56,-0.0090197,0.9,0.34,0
0.066976,8.3514e-17,0.08,-1.229,-0.641,-0.641,-6.3061e-16,0,0,-0.7644,3.8592e-17,0,-1.6396e-15,0,0,1,-2.5466e-15,0,1,-0.641,-1.229,-0.641,5.6843e-14,-0.837,0.588,-0.010459,0.92,0.34,0
0.051324,-5.0438e-17,0.06,-1.228,-0.612,-0.612,-7.7395e-16,0,0,-0.8008,3.5341e-18,0,-2.0123e-15,0,0,1,-1.4116e-15,0,1,-0.612,-1.228,-0.612,-90,-0.81733,0.616,-0.012005,0.94,0.34,0
0.034944,-4.7946e-17,0.04,-1.227,-0.583,-0.583,9.3025e-17,0,0,-0.8372,6.4977e-17,0,2.4186e-16,0,0,1,1.0159e-17,0,1,-0.583,-1.227,-0.583,90,-0.79767,0.644,-0.013718,0.96,0.34,0
0.017836,-4.6901e-17,0.02,-1.226,-0.554,-0.554,-2.5987e-18,0,0,-0.8736,8.9485e-17,0,-6.7565e-18,0,0,1,-7.583e-17,0,1,-0.554,-1.226,-0.554,-90,-0.778,0.672,-0.015586,0.98,0.34,0
0,-4.6626e-17,0,-1.2005,-0.5145,-0.5145,2.7595e-17,0,0,-0.8918,5.7851e-17,0,7.1746e-17,0,0,1,2.0318e-17,0,1,-0.5145,-1.2005,-0.5145,90,-0.74317,0.686,-0.016581,1,0.34,0
0,2.9019e-17,1,-1.2995,-1.9855,-1.9855,-1.3344e-17,0,0,0.8918,5.9201e-17,0,-3.4694e-17,0,0,1,0,0,1,-1.2995,-1.9855,-1.9855,-1.1145e-15,-1.7568,0.686,0.016581,0,0.36,0
0.017836,2.6578e-17,0.98,-1.274,-1.946,-1.946,-2.049e-16,0,0,0.8736,8.1881e-17,0,-5.3273e-16,0,0,1,3.8459e-15,0,1,-1.274,-1.946,-1.946,-1.747e-14,-1.722,0.672,0.015586,0.02,0.36,0
0.034944,1.6292e-17,0.96,-1.273,-1.917,-1.917,1.5279e-16,0,0,0.8372,1.4277e-16,0,3.9724e-16,0,0,1,-3.1638e-15,0,1,-1.273,-1.917,-1.917,1.3593e-14,-1.7023,0.644,0.013718,0.04,0.36,0
0.051324,2.8874e-17,0.94,-1.272,-1.888,-1.888,3.5514e-16,0,0,0.8008,4.184e-18,0,9.2337e-16,0,0,1,4.2581e-15,0,1,-1.272,-1.888,-1.888,3.3033e-14,-1.6827,0.616,0.012005,0.06,0.36,0
0.066976,5.1567e-17,0.92,-1.271,-1.859,-1.859,7.8148e-17,0,0,0.7644,4.3845e-17,0,2.0318e-16,0,0,1,-9.434e-16,0,1,-1.271,-1.859,-1.859,7.6149e-15,-1.663,0.588,0.010441,0.08,0.36,0
0.0819,1.3935e-17,0.9,-1.27,-1.83,-1.83,-6.02e-16,0,0,0.728,1.1209e-16,0,-1.5652e-15,0,0,1,7.6918e-15,0,1,-1.27,-1.83,-1.83,-6.0309e-14,-1.6433,0.56,0.0090366,0.1,0.36,0
0.096096,4.528e-18,0.88,-1.269,-1.801,-1.801,-7.9681e-17,0,0,0.6916,-2.1391e-17,0,-2.0717e-16,0,0,1,0,0,1,-1.269,-1.801,-1.801,-8.5815e-15,-1.6237,0.532,0.0077332,0.12,0.36,0
0.10956,9.8962e-19,0.86,-1.268,-1.772,-1.772,5.8218e-16,0,0,0.6552,-8.5059e-17,0,1.5137e-15,0,0,1,4.2029e-15,0,1,-1.268,-1.772,-1.772,6.6184e-14,-1.604,0.504,0.0065753,0.14,0.36,0
0.1223,4.7778e-17,0.84,-1.267,-1.743,-1.743,1.2504e-16,0,0,0.6188,-2.4198e-16,0,3.251e-16,0,0,1,-1.5122e-14,0,1,-1.267,-1.743,-1.743,1.5051e-14,-1.5843,0.476,0.0055392,0.16,0.36,0
0.13432,-5.368e-18,0.82,-1.266,-1.714,-1.714,-9.5352e-16,0,0,0.5824,1.2678e-17,0,-2.4791e-15,0,0,1,2.7516e-15,0,1,-1.266,-1.714,-1.714,-1.2195e-13,-1.5647,0.448,0.0046181,0.18,0.36,0
0.1456,-1.593e-17,0.8,-1.265,-1.685,-1.685,4.1557e-16,0,0,0.546,7.4244e-17,0,1.0805e-15,0,0,1,-2.4265e-15,0,1,-1.265,-1.685,-1.685,5.6691e-14,-1.545,0.42,0.0038052,0.2,0.36,0
0.15616,2.1983e-17,0.78,-1.264,-1.656,-1.656,2.9584e-16,0,0,0.5096,-3.2931e-16,0,7.6918e-16,0,0,1,-4.8531e-15,0,1,-1.264,-1.656,-1.656,4.3241e-14,-1.5253,0.392,0.0030937,0.22,0.36,0
0.16598,-2.2228e-17,0.76,-1.263,-1.627,-1.627,-7.4573e-16,0,0,0.4732,-2.6876e-16,0,-1.9389e-15,0,0,1,8.8818e-16,0,1,-1.263,-1.627,-1.627,-1.1738e-13,-1.5057,0.364,0.002477,0.24,0.36,0
0.17508,-2.6187e-17,0.74,-1.262,-1.598,-1.598,-1.3954e-16,0,0,0.4368,5.6481e-17,0,-3.6282e-16,0,0,1,6.5019e-16,0,1,-1.262,-1.598,-1.598,-2.3795e-14,-1.486,0.336,0.0019482,0.26,0.36,0
0.18346,-2.3926e-17,0.72,-1.261,-1.569,-1.569,8.4564e-16,0,0,0.4004,4.1682e-17,0,2.1987e-15,0,0,1,-1.1899e-16,0,1,-1.261,-1.569,-1.569,1.5731e-13,-1.4663,0.308,0.0015006,0.28,0.36,0
0.1911,6.4348e-17,0.7,-1.26,-1.54,-1.54,1.0988e-15,0,0,0.364,9.5888e-17,0,2.8568e-15,0,0,1,-2.061e-16,0,1,-1.26,-1.54,-1.54,2.2484e-13,-1.4467,0.28,0.0011275,0.3,0.36,0
0.19802,7.3575e-17,0.68,-1.259,-1.511,-1.511,-5.4143e-17,0,0,0.3276,5.0467e-17,0,-1.4077e-16,0,0,1,0,0,1,-1.259,-1.511,-1.511,-1.231e-14,-1.427,0.252,0.00082192,0.32,0.36,0
0.2042,5.8288e-17,0.66,-1.258,-1.482,-1.482,-1.4488e-15,0,0,0.2912,6.9345e-17,0,-3.7668e-15,0,0,1,-1.5384e-15,0,1,-1.258,-1.482,-1.482,-3.8367e-13,-1.4073,0.224,0.00058402,0.34,0.36,0
0.20966,-4.0233e-17,0.64,-1.257,-1.453,-1.453,-1.3946e-15,0,0,0.2548,-1.1481e-16,0,-3.626e-15,0,0,1,2.061e-16,0,1,-1.257,-1.453,-1.453,-4.0768e-13,-1.3877,0.196,0.00038672,0.36,0.36,0
0.2144,-4.0386e-17,0.62,-1.256,-1.424,-1.424,2.1044e-16,0,0,0.2184,-1.839e-16,0,5.4714e-16,0,0,1,0,0,1,-1.256,-1.424,-1.424,7.1769e-14,-1.368,0.168,0.00024353,0.38,0.36,0
0.2184,-4.6126e-17,0.6,-1.255,-1.395,-1.395,9.2798e-16,0,0,0.182,-2.014e-17,0,2.4127e-15,0,0,1,9.7529e-16,0,1,-1.255,-1.395,-1.395,3.7978e-13,-1.3483,0.14,0.00014093,0.4,0.36,0
0.22168,4.1488e-17,0.58,-1.254,-1.366,-1.366,1.0873e-15,0,0,0.1456,-1.636e-16,0,2.8271e-15,0,0,1,-9.7529e-16,0,1,-1.254,-1.366,-1.366,5.5625e-13,-1.3287,0.112,7.2157e-05,0.42,0.36,0
0.22422,4.1704e-17,0.56,-1.253,-1.337,-1.337,-6.8852e-16,0,0,0.1092,-1.6305e-16,0,-1.7902e-15,0,0,1,-1.9721e-31,0,1,-1.253,-1.337,-1.337,-4.6964e-13,-1.309,0.084,3.0441e-05,0.44,0.36,0
0.22604,4.8631e-17,0.54,-1.252,-1.308,-1.308,-7.915e-16,0,0,0.0728,-2.5779e-16,0,-2.0579e-15,0,0,1,-1.4789e-15,0,1,-1.252,-1.308,-1.308,-8.0981e-13,-1.2893,0.056,9.0196e-06,0.46,0.36,0
0.22714,-4.9078e-17,0.52,-1.251,-1.279,-1.279,-1.6394e-15,0,0,0.0364,-6.9375e-17,0,-4.2624e-15,0,0,1,-2.3235e-15,0,1,-1.251,-1.279,-1.279,-3.3546e-12,-1.2697,0.028,1.1275e-06,0.48,0.36,0
0.2275,-5.2208e-17,0.5,-1.25,-1.25,-1.25,-2.2883e-17,0,0,-2.9664e-16,-2.3109e-16,0,-5.9497e-17,0,0,1,6.5019e-16,0,1,-1.243,-1.257,-1.25,-45,-1.25,0.014,-1.3407e-20,0.5,0.36,0
0.22714,-5.0458e-17,0.48,-1.249,-1.221,-1.221,1.5936e-16,0,0,-0.0364,-1.21e-16,0,4.1434e-16,0,0,1,-2.4265e-15,0,1,-1.221,-1.249,-1.221,90,-1.2303,0.028,-1.1275e-06,0.52,0.36,0
0.22604,-4.705e-17,0.46,-1.248,-1.192,-1.192,-7.396e-17,0,0,-0.0728,-6.4586e-17,0,-1.923e-16,0,0,1,3.251e-16,0,1,-1.192,-1.248,-1.192,-90,-1.2107,0.056,-9.0196e-06,0.54,0.36,0
0.22422,-3.9224e-17,0.44,-1.247,-1.163,-1.163,2.0382e-15,0,0,-0.1092,-2.2186e-16,0,5.2993e-15,0,0,1,-4.5716e-15,0,1,-1.163,-1.247,-1.163,90,-1.191,0.084,-3.0441e-05,0.56,0.36,0
0.22168,1.291e-16,0.42,-1.246,-1.134,-1.134,8.6015e-16,0,0,-0.1456,-3.9134e-17,0,2.2364e-15,0,0,1,3.5963e-15,0,1,-1.134,-1.246,-1.134,90,-1.1713,0.112,-7.2157e-05,0.58,0.36,0
0.2184,1.1944e-16,0.4,-1.245,-1.105,-1.105,4.4683e-16,0,0,-0.182,-4.9946e-17,0,1.1617e-15,0,0,1,-1.0507e-15,0,1,-1.105,-1.245,-1.105,90,-1.1517,0.14,-0.00014093,0.6,0.36,0
0.2144,1.0944e-16,0.38,-1.244,-1.076,-1.076,-2.7602e-16,0,0,-0.2184,-1.6574e-16,0,-7.1766e-16,0,0,1,1.6255e-16,0,1,-1.076,-1.244,-1.076,-90,-1.132,0.168,-0.00024353,0.62,0.36,0
0.20966,1.1618e-16,0.36,-1.243,-1.047,-1.047,8.3759e-18,0,0,-0.2548,-2.2671e-16,0,2.1777e-17,0,0,1,0,0,1,-1.047,-1.243,-1.047,90,-1.1123,0.196,-0.00038672,0.64,0.36,0
0.2042,1.2176e-16,0.34,-1.242,-1.018,-1.018,-5.4143e-17,0,0,-0.2912,-1.0225e-16,0,-1.4077e-16,0,0,1,0,0,1,-1.018,-1.242,-1.018,-90,-1.0927,0.224,-0.00057726,0.66,0.36,0
0.19802,1.1828e-16,0.32,-1.241,-0.989,-0.989,-1.8727e-15,0,0,-0.3276,-1.5758e-16,0,-4.869e-15,0,0,1,-1.1899e-16,0,1,-0.989,-1.241,-0.989,-90,-1.073,0.252,-0.00082192,0.68,0.36,0
0.1911,-3.6869e-17,0.3,-1.24,-0.96,-0.96,-5.071e-16,0,0,-0.364,-2.5177e-16,0,-1.3185e-15,0,0,1,-2.9896e-15,0,1,-0.96,-1.24,-0.96,-90,-1.0533,0.28,-0.0011275,0.7,0.36,0
0.18346,-3.9342e-17,0.28,-1.239,-0.931,-0.931,1.9062e-16,0,0,-0.4004,9.9575e-17,0,4.9561e-16,0,0,1,3.251e-16,0,1,-0.931,-1.239,-0.931,90,-1.0337,0.308,-0.0015006,0.72,0.36,0
0.17508,-4.4049e-17,0.26,-1.238,-0.902,-0.902,4.2394e-16,0,0,-0.4368,3.4569e-17,0,1.1022e-15,0,0,1,-2.1232e-15,0,1,-0.902,-1.238,-0.902,90,-1.014,0.336,-0.0019482,0.74,0.36,0
0.16598,-4.3973e-17,0.24,-1.237,-0.873,-0.873,-1.0522e-16,0,0,-0.4732,8.7214e-17,0,-2.7357e-16,0,0,1,1.6255e-16,0,1,-0.873,-1.237,-0.873,-90,-0.99433,0.364,-0.002477,0.76,0.36,0
0.15616,-3.6745e-17,0.22,-1.236,-0.844,-0.844,-3.6143e-16,0,0,-0.5096,1.7797e-17,0,-9.397e-16,0,0,1,1.4077e-16,0,1,-0.844,-1.236,-0.844,-90,-0.97467,0.392,-0.0030937,0.78,0.36,0
0.1456,-4.4306e-17,0.2,-1.235,-0.815,-0.815,1.241e-15,0,0,-0.546,-9.9477e-17,0,3.2265e-15,0,0,1,1.6138e-15,0,1,-0.815,-1.235,-0.815,90,-0.955,0.42,-0.0038052,0.8,0.36,0
0.13432,9.9868e-17,0.18,-1.234,-0.786,-0.786,8.9406e-16,0,0,-0.5824,-3.7506e-17,0,2.3246e-15,0,0,1,2.2422e-15,0,1,-0.786,-1.234,-0.786,90,-0.93533,0.448,-0.0046181,0.82,0.36,0
0.1223,9.8842e-17,0.16,-1.233,-0.757,-0.757,-2.5538e-17,0,0,-0.6188,-2.4233e-18,0,-6.64e-17,0,0,1,8.1274e-17,0,1,-0.757,-1.233,-0.757,-90,-0.91567,0.476,-0.0055392,0.84,0.36,0
0.10956,9.7202e-17,0.14,-1.232,-0.728,-0.728,-5.261e-17,0,0,-0.6552,4.136e-17,0,-1.3678e-16,0,0,1,0,0,1,-0.728,-1.232,-0.728,-90,-0.896,0.504,-0.0065753,0.86,0.36,0
0.096096,9.577e-17,0.12,-1.231,-0.699,-0.699,-3.698e-17,0,0,-0.6916,9.3156e-17,0,-9.6148e-17,0,0,1,0,0,1,-0.699,-1.231,-0.699,-90,-0.87633,0.532,-0.0077332,0.88,0.36,0
0.0819,8.784e-17,0.1,-1.23,-0.67,-0.67,-6.3285e-17,0,0,-0.728,5.5553e-17,0,-1.6454e-16,0,0,1,0,0,1,-0.67,-1.23,-0.67,-90,-0.85667,0.56,-0.0090197,0.9,0.36,0
0.066976,8.3948e-17,0.08,-1.229,-0.641,-0.641,-8.5402e-16,0,0,-0.7644,1.5568e-17,0,-2.2205e-15,0,0,1,-1.2035e-15,0,1,-0.641,-1.229,-0.641,7.816e-14,-0.837,0.588,-0.010459,0.92,0.36,0
0.051324,-4.9179e-17,0.06,-1.228,-0.612,-0.612,-7.1343e-16,0,0,-0.8008,1.0714e-16,0,-1.8549e-15,0,0,1,-2.2395e-15,0,1,-0.612,-1.228,-0.612,-90,-0.81733,0.616,-0.012005,0.94,0.36,0
0.034944,-4.4766e-17,0.04,-1.227,-0.583,-0.583,5.1563e-17,0,0,-0.8372,1.3867e-16,0,1.3406e-16,0,0,1,2.3041e-17,0,1,-0.583,-1.227,-0.583,90,-0.79767,0.644,-0.013718,0.96,0.36,0
0.017836,-4.3684e-17,0.02,-1.226,-0.554,-0.554,7.32e-17,0,0,-0.8736,1.1073e-16,0,1.9032e-16,0,0,1,-1.4658e-16,0,1,-0.554,-1.226,-0.554,90,-0.778,0.672,-0.015586,0.98,0.36,0
0,-4.286e-17,0,-1.2005,-0.5145,-0.5145,-9.9601e-18,0,0,-0.8918,1.1399e-16,0,-2.5896e-17,0,0,1,2.7222e-18,0,1,-0.5145,-1.2005,-0.5145,-90,-0.74317,0.686,-0.016581,1,0.36,0
0,2.8673e-17,1,-1.2995,-1.9855,-1.9855,-6.4051e-17,0,0,0.8918,-4.5389e-18,0,-1.6653e-16,0,0,1,0,0,1,-1.2995,-1.9855,-1.9855,-5.3497e-15,-1.7568,0.686,0.016581,0,0.38,0
0.017836,2.5828e-17,0.98,-1.274,-1.946,-1.946,-1.0689e-16,0,0,0.8736,6.0308e-17,0,-2.7792e-16,0,0,1,4.8531e-15,0,1,-1.274,-1.946,-1.946,-9.1138e-15,-1.722,0.672,0.015586,0.02,0.38,0
0.034944,2.0723e-17,0.96,-1.273,-1.917,-1.917,1.2577e-16,0,0,0.8372,1.6256e-16,0,3.2699e-16,0,0,1,-7.373e-16,0,1,-1.273,-1.917,-1.917,1.1189e-14,-1.7023,0.644,0.013718,0.04,0.38,0
0.051324,2.9198e-17,0.94,-1.272,-1.888,-1.888,3.6763e-16,0,0,0.8008,1.936e-16,0,9.5584e-16,0,0,1,5.7413e-15,0,1,-1.272,-1.888,-1.888,3.4194e-14,-1.6827,0.616,0.012005,0.06,0.38,0
0.066976,5.6904e-17,0.92,-1.271,-1.859,-1.859,-1.7929e-17,0,0,0.7644,7.547e-17,0,-4.6615e-17,0,0,1,-1.0356e-14,0,1,-1.271,-1.859,-1.859,-1.747e-15,-1.663,0.588,0.010441,0.08,0.38,0
0.0819,1.5559e-17,0.9,-1.27,-1.83,-1.83,-5.3299e-16,0,0,0.728,2.1273e-17,0,-1.3858e-15,0,0,1,7.2796e-15,0,1,-1.27,-1.83,-1.83,-5.2605e-14,-1.6433,0.56,0.0090366,0.1,0.38,0
0.096096,5.2993e-18,0.88,-1.269,-1.801,-1.801,-1.5936e-16,0,0,0.6916,6.2639e-17,0,-4.1434e-16,0,0,1,0,0,1,-1.269,-1.801,-1.801,-1.7163e-14,-1.6237,0.532,0.0077332,0.12,0.38,0
0.10956,-1.034e-18,0.86,-1.268,-1.772,-1.772,3.2179e-16,0,0,0.6552,1.2286e-16,0,8.3665e-16,0,0,1,3.0767e-15,0,1,-1.268,-1.772,-1.772,3.6582e-14,-1.604,0.504,0.0065753,0.14,0.38,0
0.1223,4.6628e-17,0.84,-1.267,-1.743,-1.743,4.0259e-16,0,0,0.6188,-1.2199e-16,0,1.0467e-15,0,0,1,-7.9298e-15,0,1,-1.267,-1.743,-1.743,4.846e-14,-1.5843,0.476,0.0055392,0.16,0.38,0
0.13432,-9.7267e-18,0.82,-1.266,-1.714,-1.714,-8.0406e-16,0,0,0.5824,-1.8363e-16,0,-2.0906e-15,0,0,1,1.3004e-15,0,1,-1.266,-1.714,-1.714,-1.0283e-13,-1.5647,0.448,0.0046181,0.18,0.38,0
0.1456,-1.545e-17,0.8,-1.265,-1.685,-1.685,4.5255e-16,0,0,0.546,-7.9117e-17,0,1.1766e-15,0,0,1,1.5384e-15,0,1,-1.265,-1.685,-1.685,6.1736e-14,-1.545,0.42,0.0038052,0.2,0.38,0
0.15616,2.0493e-17,0.78,-1.264,-1.656,-1.656,1.4791e-31,0,0,0.5096,7.3112e-17,0,3.9443e-31,0,0,1,-3.0767e-15,0,1,-1.264,-1.656,-1.656,2.1619e-29,-1.5253,0.392,0.0030937,0.22,0.38,0
0.16598,-2.84e-17,0.76,-1.263,-1.627,-1.627,-7.0303e-16,0,0,0.4732,-2.0502e-16,0,-1.8279e-15,0,0,1,1.5384e-15,0,1,-1.263,-1.627,-1.627,-1.1066e-13,-1.5057,0.364,0.002477,0.24,0.38,0
0.17508,-2.7691e-17,0.74,-1.262,-1.598,-1.598,1.5936e-16,0,0,0.4368,-1.1243e-16,0,4.1434e-16,0,0,1,6.5019e-16,0,1,-1.262,-1.598,-1.598,2.7175e-14,-1.486,0.336,0.0019482,0.26,0.38,0
0.18346,-2.6775e-17,0.72,-1.261,-1.569,-1.569,1.0134e-15,0,0,0.4004,-1.4974e-16,0,2.6348e-15,0,0,1,-1.1833e-30,0,1,-1.261,-1.569,-1.569,1.8851e-13,-1.4663,0.308,0.0015006,0.28,0.38,0
0.1911,6.852e-17,0.7,-1.26,-1.54,-1.54,1.0561e-15,0,0,0.364,1.0188e-16,0,2.7458e-15,0,0,1,1.7764e-15,0,1,-1.26,-1.54,-1.54,2.161e-13,-1.4467,0.28,0.0011275,0.3,0.38,0
0.19802,6.9062e-17,0.68,-1.259,-1.511,-1.511,-1.2326e-32,0,0,0.3276,-2.6026e-16,0,-1.2326e-32,0,0,1,-6.5019e-16,0,1,-1.259,-1.511,-1.511,-2.8025e-30,-1.427,0.252,0.00082192,0.32,0.38,0
0.2042,6.3678e-17,0.66,-1.258,-1.482,-1.482,-7.6024e-16,0,0,0.2912,3.0001e-16,0,-1.9766e-15,0,0,1,-2.4265e-15,0,1,-1.258,-1.482,-1.482,-2.0879e-13,-1.4073,0.224,0.00058402,0.34,0.38,0
0.20966,-4.3294e-17,0.64,-1.257,-1.453,-1.453,-1.2665e-15,0,0,0.2548,-1.0448e-16,0,-3.2929e-15,0,0,1,3.251e-16,0,1,-1.257,-1.453,-1.453,-3.7024e-13,-1.3877,0.196,0.00038672,0.36,0.38,0
0.2144,-4.642e-17,0.62,-1.256,-1.424,-1.424,1.9818e-17,0,0,0.2184,-1.9947e-16,0,5.1526e-17,0,0,1,0,0,1,-1.256,-1.424,-1.424,6.7587e-15,-1.368,0.168,0.00024353,0.38,0.38,0
0.2184,-4.8566e-17,0.6,-1.255,-1.395,-1.395,1.0561e-15,0,0,0.182,-1.4287e-16,0,2.7458e-15,0,0,1,2.6326e-15,0,1,-1.255,-1.395,-1.395,4.3221e-13,-1.3483,0.14,0.00014093,0.4,0.38,0
0.22168,4.2587e-17,0.58,-1.254,-1.366,-1.366,7.6024e-16,0,0,0.1456,-8.9465e-18,0,1.9766e-15,0,0,1,-4.9721e-15,0,1,-1.254,-1.366,-1.366,3.8892e-13,-1.3287,0.112,7.2157e-05,0.42,0.38,0
0.22422,4.1443e-17,0.56,-1.253,-1.337,-1.337,3.8124e-16,0,0,0.1092,-1.2962e-16,0,9.9123e-16,0,0,1,-1.9389e-15,0,1,-1.253,-1.337,-1.337,2.6004e-13,-1.309,0.084,3.0441e-05,0.44,0.38,0
0.22604,3.9907e-17,0.54,-1.252,-1.308,-1.308,-2.9053e-16,0,0,0.0728,-2.0174e-16,0,-7.5538e-16,0,0,1,-2.383e-15,0,1,-1.252,-1.308,-1.308,-2.9725e-13,-1.2893,0.056,9.0196e-06,0.46,0.38,0
0.22714,-4.8885e-17,0.52,-1.251,-1.279,-1.279,-1.8216e-15,0,0,0.0364,-1.6992e-16,0,-4.7362e-15,0,0,1,-5.6308e-16,0,1,-1.251,-1.279,-1.279,-3.7276e-12,-1.2697,0.028,1.1275e-06,0.48,0.38,0
0.2275,-5.958e-17,0.5,-1.25,-1.25,-1.25,-2.135e-16,0,0,-1.6306e-16,-3.1747e-16,0,-5.5511e-16,0,0,1,-2.9582e-31,0,1,-1.243,-1.257,-1.25,-45,-1.25,0.014,1.6755e-20,0.5,0.38,0
0.22714,-5.3345e-17,0.48,-1.249,-1.221,-1.221,4.2394e-16,0,0,-0.0364,-1.9858e-16,0,1.1022e-15,0,0,1,5.9165e-31,0,1,-1.221,-1.249,-1.221,90,-1.2303,0.028,-1.1275e-06,0.52,0.38,0
0.22604,-5.3967e-17,0.46,-1.248,-1.192,-1.192,-6.2518e-17,0,0,-0.0728,-2.8886e-16,0,-1.6255e-16,0,0,1,0,0,1,-1.192,-1.248,-1.192,-90,-1.2107,0.056,-9.0196e-06,0.54,0.38,0
0.22422,-4.1515e-17,0.44,-1.247,-1.163,-1.163,2.0122e-15,0,0,-0.1092,-2.0591e-16,0,5.2319e-15,0,0,1,-6.5019e-16,0,1,-1.163,-1.247,-1.163,90,-1.191,0.084,-3.0441e-05,0.56,0.38,0
0.22168,1.2461e-16,0.42,-1.246,-1.134,-1.134,1.4122e-15,0,0,-0.1456,-1.5892e-16,0,3.6717e-15,0,0,1,2.4265e-15,0,1,-1.134,-1.246,-1.134,90,-1.1713,0.112,-7.2157e-05,0.58,0.38,0
0.2184,1.1904e-16,0.4,-1.245,-1.105,-1.105,-8.5402e-17,0,0,-0.182,-7.1765e-17,0,-2.2204e-16,0,0,1,3.9443e-31,0,1,-1.105,-1.245,-1.105,-90,-1.1517,0.14,-0.00014093,0.6,0.38,0
0.2144,1.1072e-16,0.38,-1.244,-1.076,-1.076,-1.9062e-16,0,0,-0.2184,9.969e-17,0,-4.9561e-16,0,0,1,0,0,1,-1.076,-1.244,-1.076,-90,-1.132,0.168,-0.00024353,0.62,0.38,0
0.20966,1.1249e-16,0.36,-1.243,-1.047,-1.047,1.1442e-17,0,0,-0.2548,-1.8473e-16,0,2.9748e-17,0,0,1,1.6255e-16,0,1,-1.047,-1.243,-1.047,90,-1.1123,0.196,-0.00038672,0.64,0.38,0
0.2042,1.1698e-16,0.34,-1.242,-1.018,-1.018,9.3778e-17,0,0,-0.2912,-2.832e-16,0,2.4382e-16,0,0,1,-1.0507e-15,0,1,-1.018,-1.242,-1.018,90,-1.0927,0.224,-0.00057726,0.66,0.38,0
0.19802,1.1607e-16,0.32,-1.241,-0.989,-0.989,-1.557e-15,0,0,-0.3276,2.5767e-17,0,-4.0483e-15,0,0,1,-1.6138e-15,0,1,-0.989,-1.241,-0.989,-90,-1.073,0.252,-0.00082192,0.68,0.38,0
0.1911,-4.3768e-17,0.3,-1.24,-0.96,-0.96,-1.0592e-15,0,0,-0.364,-3.2701e-16,0,-2.7538e-15,0,0,1,-1.9389e-15,0,1,-0.96,-1.24,-0.96,-90,-1.0533,0.28,-0.0011275,0.7,0.38,0
0.18346,-3.8727e-17,0.28,-1.239,-0.931,-0.931,-2.7602e-16,0,0,-0.4004,-8.0169e-17,0,-7.1766e-16,0,0,1,0,0,1,-0.931,-1.239,-0.931,-90,-1.0337,0.308,-0.0015006,0.72,0.38,0
0.17508,-4.3669e-17,0.26,-1.238,-0.902,-0.902,-1.9369e-16,0,0,-0.4368,-1.3571e-17,0,-5.0359e-16,0,0,1,-7.3956e-32,0,1,-0.902,-1.238,-0.902,-90,-1.014,0.336,-0.0019482,0.74,0.38,0
0.16598,-4.3908e-17,0.24,-1.237,-0.873,-0.873,1.3954e-16,0,0,-0.4732,2.49e-17,0,3.6282e-16,0,0,1,2.9582e-31,0,1,-0.873,-1.237,-0.873,90,-0.99433,0.364,-0.002477,0.76,0.38,0
0.15616,-3.9648e-17,0.22,-1.236,-0.844,-0.844,-4.2701e-17,0,0,-0.5096,-2.0031e-16,0,-1.1102e-16,0,0,1,7.3956e-32,0,1,-0.844,-1.236,-0.844,-90,-0.97467,0.392,-0.0030937,0.78,0.38,0
0.1456,-4.5821e-17,0.2,-1.235,-0.815,-0.815,1.5368e-15,0,0,-0.546,-8.662e-18,0,3.9957e-15,0,0,1,8.3665e-16,0,1,-0.815,-1.235,-0.815,90,-0.955,0.42,-0.0038052,0.8,0.38,0
0.13432,9.6981e-17,0.18,-1.234,-0.786,-0.786,5.9097e-16,0,0,-0.5824,-1.2513e-16,0,1.5365e-15,0,0,1,1.9092e-15,0,1,-0.786,-1.234,-0.786,90,-0.93533,0.448,-0.0046181,0.82,0.38,0
0.1223,9.5696e-17,0.16,-1.233,-0.757,-0.757,3.1259e-17,0,0,-0.6188,-1.6091e-16,0,8.1274e-17,0,0,1,1.6255e-16,0,1,-0.757,-1.233,-0.757,90,-0.91567,0.476,-0.0055392,0.84,0.38,0
0.10956,9.5051e-17,0.14,-1.232,-0.728,-0.728,2.7071e-17,0,0,-0.6552,-1.0207e-16,0,7.0385e-17,0,0,1,8.1274e-17,0,1,-0.728,-1.232,-0.728,90,-0.896,0.504,-0.0065753,0.86,0.38,0
0.096096,9.5916e-17,0.12,-1.231,-0.699,-0.699,-5.833e-17,0,0,-0.6916,-8.2797e-17,0,-1.5166e-16,0,0,1,-6.0664e-16,0,1,-0.699,-1.231,-0.699,-90,-0.87633,0.532,-0.0077332,0.88,0.38,0
0.0819,8.7907e-17,0.1,-1.23,-0.67,-0.67,-2.1274e-16,0,0,-0.728,1.1078e-17,0,-5.5312e-16,0,0,1,8.1274e-17,0,1,-0.67,-1.23,-0.67,-90,-0.85667,0.56,-0.0090197,0.9,0.38,0
0.066976,8.4136e-17,0.08,-1.229,-0.641,-0.641,-8.2618e-16,0,0,-0.7644,1.0743e-16,0,-2.1481e-15,0,0,1,-1.9251e-15,0,1,-0.641,-1.229,-0.641,-90,-0.837,0.588,-0.010459,0.92,0.38,0
0.051324,-4.6152e-17,0.06,-1.228,-0.612,-0.612,-7.4165e-16,0,0,-0.8008,1.7851e-16,0,-1.9283e-15,0,0,1,-1.6614e-15,0,1,-0.612,-1.228,-0.612,-90,-0.81733,0.616,-0.012005,0.94,0.38,0
0.034944,-4.2399e-17,0.04,-1.227,-0.583,-0.583,7.1675e-17,0,0,-0.8372,9.3265e-17,0,1.8635e-16,0,0,1,-1.0159e-17,0,1,-0.583,-1.227,-0.583,90,-0.79767,0.644,-0.013718,0.96,0.38,0
0.017836,-4.2472e-17,0.02,-1.226,-0.554,-0.554,-1.0126e-17,0,0,-0.8736,5.7647e-17,0,-2.6328e-17,0,0,1,7.075e-17,0,1,-0.554,-1.226,-0.554,-90,-0.778,0.672,-0.015586,0.98,0.38,0
0,-4.2067e-17,0,-1.2005,-0.5145,-0.5145,1.7635e-17,0,0,-0.8918,6.2442e-17,0,4.585e-17,0,0,1,1.7596e-17,0,1,-0.5145,-1.2005,-0.5145,90,-0.74317,0.686,-0.016581,1,0.38,0
0,2.8838e-17,1,-1.2995,-1.9855,-1.9855,1.6218e-18,0,0,0.8918,-8.4646e-17,0,4.2167e-18,0,0,1,0,0,1,-1.2995,-1.9855,-1.9855,1.3546e-16,-1.7568,0.686,0.016581,0,0.4,0
0.017836,2.899e-17,0.98,-1.274,-1.946,-1.946,-9.1952e-17,0,0,0.8736,1.3493e-16,0,-2.3908e-16,0,0,1,5.2972e-15,0,1,-1.274,-1.946,-1.946,-7.84e-15,-1.722,0.672,0.015586,0.02,0.4,0
0.034944,2.2795e-17,0.96,-1.273,-1.917,-1.917,1.5812e-16,0,0,0.8372,1.2356e-17,0,4.1112e-16,0,0,1,-1.4194e-15,0,1,-1.273,-1.917,-1.917,1.4068e-14,-1.7023,0.644,0.013718,0.04,0.4,0
0.051324,3.6618e-17,0.94,-1.272,-1.888,-1.888,4.7362e-16,0,0,0.8008,1.2986e-16,0,1.2314e-15,0,0,1,5.9165e-31,0,1,-1.272,-1.888,-1.888,4.4052e-14,-1.6827,0.616,0.012005,0.06,0.4,0
0.066976,5.4586e-17,0.92,-1.271,-1.859,-1.859,-2.9681e-16,0,0,0.7644,-8.5736e-17,0,-7.7171e-16,0,0,1,-8.3739e-15,0,1,-1.271,-1.859,-1.859,-2.8922e-14,-1.663,0.588,0.010441,0.08,0.4,0
0.0819,1.4786e-17,0.9,-1.27,-1.83,-1.83,-6.0772e-16,0,0,0.728,-9.8849e-17,0,-1.5801e-15,0,0,1,5.9155e-15,0,1,-1.27,-1.83,-1.83,-6.072e-14,-1.6433,0.56,0.0090366,0.1,0.4,0
0.096096,7.0335e-18,0.88,-1.269,-1.801,-1.801,-1.563e-17,0,0,0.6916,7.9893e-17,0,-4.0637e-17,0,0,1,0,0,1,-1.269,-1.801,-1.801,-1.6833e-15,-1.6237,0.532,0.0077332,0.12,0.4,0
0.10956,5.9039e-18,0.86,-1.268,-1.772,-1.772,4.7124e-16,0,0,0.6552,2.099e-16,0,1.2252e-15,0,0,1,1.9506e-15,0,1,-1.268,-1.772,-1.772,5.3572e-14,-1.604,0.504,0.0065753,0.14,0.4,0
0.1223,4.2899e-17,0.84,-1.267,-1.743,-1.743,3.0156e-16,0,0,0.6188,-6.0013e-17,0,7.8406e-16,0,0,1,1.6892e-15,0,1,-1.267,-1.743,-1.743,3.6299e-14,-1.5843,0.476,0.0055392,0.16,0.4,0
0.13432,-1.2713e-17,0.82,-1.266,-1.714,-1.714,-7.9834e-16,0,0,0.5824,-7.6366e-17,0,-2.0757e-15,0,0,1,-8.0107e-16,0,1,-1.266,-1.714,-1.714,-1.021e-13,-1.5647,0.448,0.0046181,0.18,0.4,0
0.1456,-1.9095e-17,0.8,-1.265,-1.685,-1.685,3.2026e-16,0,0,0.546,-1.1839e-16,0,8.3267e-16,0,0,1,4.8531e-15,0,1,-1.265,-1.685,-1.685,4.3689e-14,-1.545,0.42,0.0038052,0.2,0.4,0
0.15616,2.4907e-17,0.78,-1.264,-1.656,-1.656,-4.2701e-17,0,0,0.5096,1.5078e-16,0,-1.1102e-16,0,0,1,1.7764e-15,0,1,-1.264,-1.656,-1.656,-6.2413e-15,-1.5253,0.392,0.0030937,0.22,0.4,0
0.16598,-3.0429e-17,0.76,-1.263,-1.627,-1.627,-6.2601e-16,0,0,0.4732,-1.3261e-16,0,-1.6276e-15,0,0,1,-2.3799e-16,0,1,-1.263,-1.627,-1.627,-9.8537e-14,-1.5057,0.364,0.002477,0.24,0.4,0
0.17508,-3.0685e-17,0.74,-1.262,-1.598,-1.598,1.1442e-17,0,0,0.4368,3.8957e-18,0,2.9748e-17,0,0,1,0,0,1,-1.262,-1.598,-1.598,1.9511e-15,-1.486,0.336,0.0019482,0.26,0.4,0
0.18346,-2.9915e-17,0.72,-1.261,-1.569,-1.569,8.9672e-16,0,0,0.4004,-1.2301e-16,0,2.3315e-15,0,0,1,2.5455e-15,0,1,-1.261,-1.569,-1.569,1.6681e-13,-1.4663,0.308,0.0015006,0.28,0.4,0
0.1911,6.8423e-17,0.7,-1.26,-1.54,-1.54,1.1926e-15,0,0,0.364,-6.1561e-17,0,3.1007e-15,0,0,1,1.3323e-15,0,1,-1.26,-1.54,-1.54,2.4403e-13,-1.4467,0.28,0.0011275,0.3,0.4,0
0.19802,6.3165e-17,0.68,-1.259,-1.511,-1.511,-2.2883e-17,0,0,0.3276,-1.1679e-16,0,-5.9497e-17,0,0,1,-6.5019e-16,0,1,-1.259,-1.511,-1.511,-5.2028e-15,-1.427,0.252,0.00082192,0.32,0.4,0
0.2042,7.0289e-17,0.66,-1.258,-1.482,-1.482,-9.4248e-16,0,0,0.2912,3.3594e-17,0,-2.4505e-15,0,0,1,-5.7413e-15,0,1,-1.258,-1.482,-1.482,-2.5989e-13,-1.4073,0.224,0.00058402,0.34,0.4,0
0.20966,-4.4412e-17,0.64,-1.257,-1.453,-1.453,-1.9894e-15,0,0,0.2548,1.137e-16,0,-5.1724e-15,0,0,1,7.6918e-16,0,1,-1.257,-1.453,-1.453,-5.8154e-13,-1.3877,0.196,0.00038672,0.36,0.4,0
0.2144,-4.8365e-17,0.62,-1.256,-1.424,-1.424,4.4376e-16,0,0,0.2184,2.6573e-17,0,1.1538e-15,0,0,1,0,0,1,-1.256,-1.424,-1.424,1.5134e-13,-1.368,0.168,0.00024353,0.38,0.4,0
0.2184,-5.184e-17,0.6,-1.255,-1.395,-1.395,1.079e-15,0,0,0.182,-9.5041e-17,0,2.8053e-15,0,0,1,3.1957e-15,0,1,-1.255,-1.395,-1.395,4.4157e-13,-1.3483,0.14,0.00014093,0.4,0.4,0
0.22168,4.113e-17,0.58,-1.254,-1.366,-1.366,8.5402e-16,0,0,0.1456,-9.8239e-17,0,2.2205e-15,0,0,1,-2.145e-15,0,1,-1.254,-1.366,-1.366,4.3689e-13,-1.3287,0.112,7.2157e-05,0.42,0.4,0
0.22422,3.6519e-17,0.56,-1.253,-1.337,-1.337,3.8124e-16,0,0,0.1092,-5.2181e-17,0,9.9123e-16,0,0,1,6.0664e-16,0,1,-1.253,-1.337,-1.337,2.6004e-13,-1.309,0.084,3.0441e-05,0.44,0.4,0
0.22604,4.0561e-17,0.54,-1.252,-1.308,-1.308,-1.2498e-15,0,0,0.0728,-8.5535e-17,0,-3.2494e-15,0,0,1,-7.8513e-16,0,1,-1.252,-1.308,-1.308,-1.2787e-12,-1.2893,0.056,9.0196e-06,0.46,0.4,0
0.22714,-5.5874e-17,0.52,-1.251,-1.279,-1.279,-9.5924e-16,0,0,0.0364,-2.4772e-16,0,-2.494e-15,0,0,1,2.3671e-15,0,1,-1.251,-1.279,-1.279,-1.9629e-12,-1.2697,0.028,1.1275e-06,0.48,0.4,0
0.2275,-6.4907e-17,0.5,-1.25,-1.25,-1.25,-8.1663e-16,0,0,1.131e-15,-1.195e-16,0,-2.1232e-15,0,0,1,-6.5019e-16,0,1,-1.243,-1.257,-1.25,-45,-1.25,0.014,2.0117e-20,0.5,0.4,0
0.22714,-5.8401e-17,0.48,-1.249,-1.221,-1.221,4.7502e-16,0,0,-0.0364,-1.505e-16,0,1.2351e-15,0,0,1,2.4265e-15,0,1,-1.221,-1.249,-1.221,90,-1.2303,0.028,-1.1275e-06,0.52,0.4,0
0.22604,-5.8604e-17,0.46,-1.248,-1.192,-1.192,1.281e-16,0,0,-0.0728,-1.8651e-16,0,3.3307e-16,0,0,1,-6.0664e-16,0,1,-1.192,-1.248,-1.192,90,-1.2107,0.056,-9.0196e-06,0.54,0.4,0
0.22422,-4.7461e-17,0.44,-1.247,-1.163,-1.163,1.5342e-15,0,0,-0.1092,-2.2208e-16,0,3.9888e-15,0,0,1,1.7849e-16,0,1,-1.163,-1.247,-1.163,90,-1.191,0.084,-3.0441e-05,0.56,0.4,0
0.22168,1.2274e-16,0.42,-1.246,-1.134,-1.134,8.6015e-16,0,0,-0.1456,-4.9701e-18,0,2.2364e-15,0,0,1,7.5324e-16,0,1,-1.134,-1.246,-1.134,90,-1.1713,0.112,-7.2157e-05,0.58,0.4,0
0.2184,1.1657e-16,0.4,-1.245,-1.105,-1.105,-1.6243e-16,0,0,-0.182,-4.6224e-17,0,-4.2231e-16,0,0,1,1.6255e-16,0,1,-1.105,-1.245,-1.105,-90,-1.1517,0.14,-0.00014093,0.6,0.4,0
0.2144,1.1342e-16,0.38,-1.244,-1.076,-1.076,2.9584e-16,0,0,-0.2184,-2.3838e-16,0,7.6918e-16,0,0,1,-9.8608e-32,0,1,-1.076,-1.244,-1.076,90,-1.132,0.168,-0.00024353,0.62,0.4,0
0.20966,1.0879e-16,0.36,-1.243,-1.047,-1.047,-5.1077e-17,0,0,-0.2548,-2.3312e-16,0,-1.328e-16,0,0,1,1.6255e-16,0,1,-1.047,-1.243,-1.047,-90,-1.1123,0.196,-0.00038672,0.64,0.4,0
0.2042,1.1044e-16,0.34,-1.242,-1.018,-1.018,-3.1259e-17,0,0,-0.2912,-1.1842e-16,0,-8.1274e-17,0,0,1,-1.0507e-15,0,1,-1.018,-1.242,-1.018,-90,-1.0927,0.224,-0.00057726,0.66,0.4,0
0.19802,1.1931e-16,0.32,-1.241,-0.989,-0.989,-1.4831e-15,0,0,-0.3276,1.0079e-16,0,-3.856e-15,0,0,1,-1.8953e-15,0,1,-0.989,-1.241,-0.989,-90,-1.073,0.252,-0.00082192,0.68,0.4,0
0.1911,-4.995e-17,0.3,-1.24,-0.96,-0.96,-1.6341e-15,0,0,-0.364,-1.1111e-16,0,-4.2486e-15,0,0,1,-1.6574e-15,0,1,-0.96,-1.24,-0.96,-90,-1.0533,0.28,-0.0011275,0.7,0.4,0
0.18346,-4.2549e-17,0.28,-1.239,-0.931,-0.931,-6.5584e-17,0,0,-0.4004,-8.3829e-17,0,-1.7052e-16,0,0,1,0,0,1,-0.931,-1.239,-0.931,-90,-1.0337,0.308,-0.0015006,0.72,0.4,0
0.17508,-4.4592e-17,0.26,-1.238,-0.902,-0.902,-3.6143e-16,0,0,-0.4368,-1.5776e-17,0,-9.397e-16,0,0,1,-1.6255e-16,0,1,-0.902,-1.238,-0.902,-90,-1.014,0.336,-0.0019482,0.74,0.4,0
0.16598,-4.2977e-17,0.24,-1.237,-0.873,-0.873,-2.2883e-17,0,0,-0.4732,6.9437e-17,0,-5.9497e-17,0,0,1,1.2133e-15,0,1,-0.873,-1.237,-0.873,-90,-0.99433,0.364,-0.002477,0.76,0.4,0
0.15616,-4.4758e-17,0.22,-1.236,-0.844,-0.844,1.9062e-16,0,0,-0.5096,-1.1505e-16,0,4.9561e-16,0,0,1,-4.9304e-32,0,1,-0.844,-1.236,-0.844,90,-0.97467,0.392,-0.0030937,0.78,0.4,0
0.1456,-4.4652e-17,0.2,-1.235,-0.815,-0.815,1.4389e-15,0,0,-0.546,-5.5586e-17,0,3.741e-15,0,0,1,-3.1713e-16,0,1,-0.815,-1.235,-0.815,90,-0.955,0.42,-0.0038052,0.8,0.4,0
0.13432,9.4863e-17,0.18,-1.234,-0.786,-0.786,9.8937e-16,0,0,-0.5824,-9.0504e-18,0,2.5724e-15,0,0,1,1.6871e-15,0,1,-0.786,-1.234,-0.786,90,-0.93533,0.448,-0.0046181,0.82,0.4,0
0.1223,9.2406e-17,0.16,-1.233,-0.757,-0.757,7.396e-17,0,0,-0.6188,-4.2064e-17,0,1.923e-16,0,0,1,2.2204e-16,0,1,-0.757,-1.233,-0.757,90,-0.91567,0.476,-0.0055392,0.84,0.4,0
0.10956,9.3119e-17,0.14,-1.232,-0.728,-0.728,-4.1879e-18,0,0,-0.6552,-3.1063e-17,0,-1.0889e-17,0,0,1,2.6268e-16,0,1,-0.728,-1.232,-0.728,-90,-0.896,0.504,-0.0065753,0.86,0.4,0
0.096096,9.2459e-17,0.12,-1.231,-0.699,-0.699,-1.5936e-16,0,0,-0.6916,3.3251e-17,0,-4.1434e-16,0,0,1,-4.5498e-16,0,1,-0.699,-1.231,-0.699,-90,-0.87633,0.532,-0.0077332,0.88,0.4,0
0.0819,8.8283e-17,0.1,-1.23,-0.67,-0.67,-5.4143e-17,0,0,-0.728,1.1599e-16,0,-1.4077e-16,0,0,1,8.1274e-17,0,1,-0.67,-1.23,-0.67,-90,-0.85667,0.56,-0.0090197,0.9,0.4,0
0.066976,8.8246e-17,0.08,-1.229,-0.641,-0.641,-8.7174e-16,0,0,-0.7644,1.9748e-16,0,-2.2665e-15,0,0,1,-2.5466e-15,0,1,-0.641,-1.229,-0.641,7.816e-14,-0.837,0.588,-0.010459,0.92,0.4,0
0.051324,-4.2039e-17,0.06,-1.228,-0.612,-0.612,-7.4765e-16,0,0,-0.8008,1.5031e-16,0,-1.9439e-15,0,0,1,-1.6039e-15,0,1,-0.612,-1.228,-0.612,-90,-0.81733,0.616,-0.012005,0.94,0.4,0
0.034944,-4.1035e-17,0.04,-1.227,-0.583,-0.583,-3.8602e-17,0,0,-0.8372,9.5696e-17,0,-1.0037e-16,0,0,1,-1.0159e-17,0,1,-0.583,-1.227,-0.583,-90,-0.79767,0.644,-0.013718,0.96,0.4,0
0.017836,-4.1378e-17,0.02,-1.226,-0.554,-0.554,3.9151e-17,0,0,-0.8736,1.1468e-16,0,1.0179e-16,0,0,1,7.075e-17,0,1,-0.554,-1.226,-0.554,90,-0.778,0.672,-0.015586,0.98,0.4,0
0,-4.0363e-17,0,-1.2005,-0.5145,-0.5145,1.0484e-17,0,0,-0.8918,1.2354e-16,0,2.7257e-17,0,0,1,1.7596e-17,0,1,-0.5145,-1.2005,-0.5145,90,-0.74317,0.686,-0.016581,1,0.4,0
0,2.5288e-17,1,-1.2995,-1.9855,-1.9855,1.1704e-16,0,0,0.8918,-1.3234e-16,0,3.0431e-16,0,0,1,0,0,1,-1.2995,-1.9855,-1.9855,9.7757e-15,-1.7568,0.686,0.016581,0,0.42,0
0.017836,3.1225e-17,0.98,-1.274,-1.946,-1.946,-1.5455e-16,0,0,0.8736,-8.8849e-17,0,-4.0182e-16,0,0,1,3.8459e-15,0,1,-1.274,-1.946,-1.946,-1.3177e-14,-1.722,0.672,0.015586,0.02,0.42,0
0.034944,2.1218e-17,0.96,-1.273,-1.917,-1.917,9.4315e-17,0,0,0.8372,8.2521e-17,0,2.4522e-16,0,0,1,-2.3076e-15,0,1,-1.273,-1.917,-1.917,8.3911e-15,-1.7023,0.644,0.013718,0.04,0.42,0
0.051324,3.4393e-17,0.94,-1.272,-1.888,-1.888,2.1103e-16,0,0,0.8008,-8.3378e-17,0,5.4867e-16,0,0,1,-4.7979e-15,0,1,-1.272,-1.888,-1.888,1.9628e-14,-1.6827,0.616,0.012005,0.06,0.42,0
0.066976,5.3475e-17,0.92,-1.271,-1.859,-1.859,-7.2537e-18,0,0,0.7644,-6.2331e-17,0,-1.886e-17,0,0,1,1.4832e-15,0,1,-1.271,-1.859,-1.859,-7.0682e-16,-1.663,0.588,0.010441,0.08,0.42,0
0.0819,1.1605e-17,0.9,-1.27,-1.83,-1.83,-5.9132e-16,0,0,0.728,-6.108e-17,0,-1.5374e-15,0,0,1,4.3771e-15,0,1,-1.27,-1.83,-1.83,-5.8916e-14,-1.6433,0.56,0.0090366,0.1,0.42,0
0.096096,8.495e-18,0.88,-1.269,-1.801,-1.801,-1.0675e-16,0,0,0.6916,1.0854e-16,0,-2.7756e-16,0,0,1,5.6308e-16,0,1,-1.269,-1.801,-1.801,-1.1497e-14,-1.6237,0.532,0.0077332,0.12,0.42,0
0.10956,7.3622e-18,0.86,-1.268,-1.772,-1.772,3.2026e-16,0,0,0.6552,-5.6571e-17,0,8.3267e-16,0,0,1,9.7381e-15,0,1,-1.268,-1.772,-1.772,3.6407e-14,-1.604,0.504,0.0065753,0.14,0.42,0
0.1223,4.4227e-17,0.84,-1.267,-1.743,-1.743,-1.6662e-16,0,0,0.6188,7.1177e-17,0,-4.332e-16,0,0,1,-1.5003e-14,0,1,-1.267,-1.743,-1.743,-2.0055e-14,-1.5843,0.476,0.0055392,0.16,0.42,0
0.13432,-1.2781e-17,0.82,-1.266,-1.714,-1.714,-8.3685e-16,0,0,0.5824,-2.2094e-17,0,-2.1758e-15,0,0,1,1.5384e-15,0,1,-1.266,-1.714,-1.714,-1.0703e-13,-1.5647,0.448,0.0046181,0.18,0.42,0
0.1456,-2.0186e-17,0.8,-1.265,-1.685,-1.685,8.3532e-16,0,0,0.546,-3.9641e-18,0,2.1718e-15,0,0,1,-2.4265e-15,0,1,-1.265,-1.685,-1.685,1.1395e-13,-1.545,0.42,0.0038052,0.2,0.42,0
0.15616,2.6524e-17,0.78,-1.264,-1.656,-1.656,4.6664e-16,0,0,0.5096,6.9425e-17,0,1.2133e-15,0,0,1,-4.8531e-15,0,1,-1.264,-1.656,-1.656,6.8206e-14,-1.5253,0.392,0.0030937,0.22,0.42,0
0.16598,-3.3704e-17,0.76,-1.263,-1.627,-1.627,-7.7699e-16,0,0,0.4732,-3.0735e-17,0,-2.0202e-15,0,0,1,8.8818e-16,0,1,-1.263,-1.627,-1.627,-1.223e-13,-1.5057,0.364,0.002477,0.24,0.42,0
0.17508,-2.7535e-17,0.74,-1.262,-1.598,-1.598,-9.6843e-17,0,0,0.4368,-4.3487e-17,0,-2.5179e-16,0,0,1,0,0,1,-1.262,-1.598,-1.598,-1.6514e-14,-1.486,0.336,0.0019482,0.26,0.42,0
0.18346,-3.1696e-17,0.72,-1.261,-1.569,-1.569,7.1754e-16,0,0,0.4004,6.1376e-18,0,1.8656e-15,0,0,1,1.2133e-15,0,1,-1.261,-1.569,-1.569,1.3348e-13,-1.4663,0.308,0.0015006,0.28,0.42,0
0.1911,6.6057e-17,0.7,-1.26,-1.54,-1.54,1.0019e-15,0,0,0.364,-1.5753e-16,0,2.605e-15,0,0,1,-3.251e-16,0,1,-1.26,-1.54,-1.54,2.0502e-13,-1.4467,0.28,0.0011275,0.3,0.42,0
0.19802,6.439e-17,0.68,-1.259,-1.511,-1.511,-4.3539e-16,0,0,0.3276,9.7215e-17,0,-1.132e-15,0,0,1,0,0,1,-1.259,-1.511,-1.511,-9.8991e-14,-1.427,0.252,0.00082192,0.32,0.42,0
0.2042,6.5022e-17,0.66,-1.258,-1.482,-1.482,-1.1446e-15,0,0,0.2912,-1.6359e-16,0,-2.9758e-15,0,0,1,-1.5384e-15,0,1,-1.258,-1.482,-1.482,-3.0031e-13,-1.4073,0.224,0.00058402,0.34,0.42,0
0.20966,-3.8745e-17,0.64,-1.257,-1.453,-1.453,-1.6081e-15,0,0,0.2548,1.0973e-16,0,-4.1811e-15,0,0,1,2.061e-16,0,1,-1.257,-1.453,-1.453,-4.701e-13,-1.3877,0.196,0.00038672,0.36,0.42,0
0.2144,-4.5357e-17,0.62,-1.256,-1.424,-1.424,3.5836e-16,0,0,0.2184,2.1382e-17,0,9.3173e-16,0,0,1,0,0,1,-1.256,-1.424,-1.424,1.2222e-13,-1.368,0.168,0.00024353,0.38,0.42,0
0.2184,-5.2367e-17,0.6,-1.255,-1.395,-1.395,4.8422e-16,0,0,0.182,-1.3175e-16,0,1.259e-15,0,0,1,1.0943e-15,0,1,-1.255,-1.395,-1.395,1.9817e-13,-1.3483,0.14,0.00014093,0.4,0.42,0
0.22168,3.8658e-17,0.58,-1.254,-1.366,-1.366,1.0134e-15,0,0,0.1456,-3.5189e-17,0,2.6348e-15,0,0,1,-1.5819e-15,0,1,-1.254,-1.366,-1.366,5.1841e-13,-1.3287,0.112,7.2157e-05,0.42,0.42,0
0.22422,3.9356e-17,0.56,-1.253,-1.337,-1.337,-4.8953e-16,0,0,0.1092,1.012e-16,0,-1.2728e-15,0,0,1,6.0664e-16,0,1,-1.253,-1.337,-1.337,-3.339e-13,-1.309,0.084,3.0441e-05,0.44,0.42,0
0.22604,3.6485e-17,0.54,-1.252,-1.308,-1.308,-7.9988e-16,0,0,0.0728,-1.8852e-16,0,-2.0797e-15,0,0,1,-1.4789e-15,0,1,-1.252,-1.308,-1.308,-8.1838e-13,-1.2893,0.056,9.0196e-06,0.46,0.42,0
0.22714,-5.8794e-17,0.52,-1.251,-1.279,-1.279,-1.4175e-15,0,0,0.0364,-3.0598e-18,0,-3.6855e-15,0,0,1,-2.3235e-15,0,1,-1.251,-1.279,-1.279,-2.9006e-12,-1.2697,0.028,1.1275e-06,0.48,0.42,0
0.2275,-6.436e-17,0.5,-1.2582,-1.2535,-1.2535,-9.5413e-16,0,0,-0.0060667,-2.6266e-17,0,-2.4807e-15,0,0,1,4.3346e-16,0,1,-1.2512,-1.2605,-1.2535,-45,-1.2551,0.0093333,-6.7856e-08,0.5,0.42,0
0.22714,-5.9365e-17,0.48,-1.249,-1.221,-1.221,3.5836e-16,0,0,-0.0364,-1.5221e-16,0,9.3173e-16,0,0,1,-4.8531e-15,0,1,-1.221,-1.249,-1.221,90,-1.2303,0.028,-1.1275e-06,0.52,0.42,0
0.22604,-6.1428e-17,0.46,-1.248,-1.192,-1.192,-7.396e-17,0,0,-0.0728,-1.3237e-16,0,-1.923e-16,0,0,1,4.3555e-17,0,1,-1.192,-1.248,-1.192,-90,-1.2107,0.056,-9.0196e-06,0.54,0.42,0
0.22422,-5.0399e-17,0.44,-1.247,-1.163,-1.163,2.0466e-15,0,0,-0.1092,-1.9038e-16,0,5.3211e-15,0,0,1,-1.8635e-15,0,1,-1.163,-1.247,-1.163,90,-1.191,0.084,-3.0441e-05,0.56,0.42,0
0.22168,1.2441e-16,0.42,-1.246,-1.134,-1.134,6.352e-16,0,0,-0.1456,-5.1043e-17,0,1.6515e-15,0,0,1,6.5019e-16,0,1,-1.134,-1.246,-1.134,90,-1.1713,0.112,-7.2157e-05,0.58,0.42,0
0.2184,1.172e-16,0.4,-1.245,-1.105,-1.105,-1.99e-16,0,0,-0.182,-1.276e-16,0,-5.1739e-16,0,0,1,-1.7764e-15,0,1,-1.105,-1.245,-1.105,7.816e-14,-1.1517,0.14,-0.00014093,0.6,0.42,0
0.2144,1.0119e-16,0.38,-1.244,-1.076,-1.076,2.7296e-16,0,0,-0.2184,-2.0998e-16,0,7.0969e-16,0,0,1,3.251e-16,0,1,-1.076,-1.244,-1.076,-9.9476e-14,-1.132,0.168,-0.00024353,0.62,0.42,0
0.20966,1.0317e-16,0.36,-1.243,-1.047,-1.047,3.1259e-16,0,0,-0.2548,-2.5372e-16,0,4.0637e-16,0,0,1,0,0,1,-1.047,-1.243,-1.047,90,-1.1123,0.196,-0.00038672,0.64,0.42,0
0.2042,1.1224e-16,0.34,-1.242,-1.018,-1.018,-6.2518e-17,0,0,-0.2912,-8.8372e-18,0,-1.6255e-16,0,0,1,0,0,1,-1.018,-1.242,-1.018,7.1054e-15,-1.0927,0.224,-0.00057726,0.66,0.42,0
0.19802,1.201e-16,0.32,-1.241,-0.989,-0.989,-1.7789e-15,0,0,-0.3276,9.7391e-18,0,-4.6252e-15,0,0,1,-1.1899e-16,0,1,-0.989,-1.241,-0.989,-90,-1.073,0.252,-0.00082192,0.68,0.42,0
0.1911,-4.8212e-17,0.3,-1.24,-0.96,-0.96,-8.9978e-16,0,0,-0.364,-1.3669e-16,0,-2.3394e-15,0,0,1,-2.9896e-15,0,1,-0.96,-1.24,-0.96,-90,-1.0533,0.28,-0.0011275,0.7,0.42,0
0.18346,-4.208e-17,0.28,-1.239,-0.931,-0.931,-5.4143e-17,0,0,-0.4004,4.9249e-18,0,-1.4077e-16,0,0,1,0,0,1,-0.931,-1.239,-0.931,-90,-1.0337,0.308,-0.0015006,0.72,0.42,0
0.17508,-4.43e-17,0.26,-1.238,-0.902,-0.902,-8.2336e-17,0,0,-0.4368,-9.5972e-17,0,-2.1407e-16,0,0,1,3.251e-16,0,1,-0.902,-1.238,-0.902,1.4211e-14,-1.014,0.336,-0.0019482,0.74,0.42,0
0.16598,-4.113e-17,0.24,-1.237,-0.873,-0.873,-1.5936e-16,0,0,-0.4732,-3.7828e-17,0,-4.1434e-16,0,0,1,-2.4265e-15,0,1,-0.873,-1.237,-0.873,-90,-0.99433,0.364,-0.002477,0.76,0.42,0
0.15616,-4.425e-17,0.22,-1.236,-0.844,-0.844,-1.281e-16,0,0,-0.5096,-9.273e-17,0,-3.3307e-16,0,0,1,-4.9304e-32,0,1,-0.844,-1.236,-0.844,2.1316e-14,-0.97467,0.392,-0.0030937,0.78,0.42,0
0.1456,-4.8044e-17,0.2,-1.235,-0.815,-0.815,1.3165e-15,0,0,-0.546,-1.011e-16,0,3.4228e-15,0,0,1,1.5543e-15,0,1,-0.815,-1.235,-0.815,90,-0.955,0.42,-0.0038052,0.8,0.42,0
0.13432,9.6619e-17,0.18,-1.234,-0.786,-0.786,5.9097e-16,0,0,-0.5824,-1.6804e-17,0,1.5365e-15,0,0,1,2.8489e-15,0,1,-0.786,-1.234,-0.786,90,-0.93533,0.448,-0.0046181,0.82,0.42,0
0.1223,9.4014e-17,0.16,-1.233,-0.757,-0.757,-4.6889e-17,0,0,-0.6188,3.4197e-17,0,-1.2191e-16,0,0,1,-3.0332e-16,0,1,-0.757,-1.233,-0.757,7.1054e-15,-0.91567,0.476,-0.0055392,0.84,0.42,0
0.10956,9.3809e-17,0.14,-1.232,-0.728,-0.728,-3.2792e-17,0,0,-0.6552,3.4036e-18,0,-8.5259e-17,0,0,1,-3.8459e-16,0,1,-0.728,-1.232,-0.728,0,-0.896,0.504,-0.0065753,0.86,0.42,0
0.096096,9.7246e-17,0.12,-1.231,-0.699,-0.699,-1.8071e-16,0,0,-0.6916,6.9098e-17,0,-4.6985e-16,0,0,1,7.6918e-16,0,1,-0.699,-1.231,-0.699,1.4211e-14,-0.87633,0.532,-0.0077332,0.88,0.42,0
0.0819,9.2546e-17,0.1,-1.23,-0.67,-0.67,-1.0675e-16,0,0,-0.728,7.9407e-17,0,-2.7756e-16,0,0,1,-1.3758e-15,0,1,-0.67,-1.23,-0.67,-90,-0.85667,0.56,-0.0090197,0.9,0.42,0
0.066976,9.2036e-17,0.08,-1.2208,-0.6375,-0.6375,-1.3074e-15,0,0,-0.75833,1.2581e-16,0,-3.3994e-15,0,0,1,-4.9173e-16,0,1,-0.6375,-1.2208,-0.6375,6.3949e-14,-0.83194,0.58333,-0.010203,0.92,0.42,0
0.051324,-4.014e-17,0.06,-1.228,-0.612,-0.612,-7.1248e-16,0,0,-0.8008,1.376e-16,0,-1.8524e-15,0,0,1,-1.9463e-15,0,1,-0.612,-1.228,-0.612,-90,-0.81733,0.616,-0.012005,0.94,0.42,0
0.034944,-3.8571e-17,0.04,-1.227,-0.583,-0.583,6.9594e-18,0,0,-0.8372,1.133e-16,0,1.8094e-17,0,0,1,1.0159e-17,0,1,-0.583,-1.227,-0.583,90,-0.79767,0.644,-0.013718,0.96,0.42,0
0.017836,-3.7885e-17,0.02,-1.226,-0.554,-0.554,-4.0032e-18,0,0,-0.8736,1.2443e-16,0,-1.0408e-17,0,0,1,-7.075e-17,0,1,-0.554,-1.226,-0.554,-90,-0.778,0.672,-0.015586,0.98,0.42,0
0,-3.7125e-17,0,-1.2005,-0.5145,-0.5145,2.7403e-17,0,0,-0.8918,9.7236e-17,0,7.1248e-17,0,0,1,-1.7596e-17,0,1,-0.5145,-1.2005,-0.5145,90,-0.74317,0.686,-0.016581,1,0.42,0
0,2.3544e-17,1,-1.2995,-1.9855,-1.9855,1.1722e-17,0,0,0.8918,-1.8361e-17,0,3.0478e-17,0,0,1,0,0,1,-1.2995,-1.9855,-1.9855,9.7906e-16,-1.7568,0.686,0.016581,0,0.44,0
0.017836,2.5436e-17,0.98,-1.274,-1.946,-1.946,-4.9609e-17,0,0,0.8736,-1.1914e-16,0,-1.2898e-16,0,0,1,4.8531e-15,0,1,-1.274,-1.946,-1.946,-4.2297e-15,-1.722,0.672,0.015586,0.02,0.44,0
0.034944,2.6096e-17,0.96,-1.273,-1.917,-1.917,1.0846e-16,0,0,0.8372,1.4663e-16,0,2.82e-16,0,0,1,-6.7166e-15,0,1,-1.273,-1.917,-1.917,9.6498e-15,-1.7023,0.644,0.013718,0.04,0.44,0
0.051324,3.3283e-17,0.94,-1.272,-1.888,-1.888,3.6973e-16,0,0,0.8008,1.0049e-17,0,9.6129e-16,0,0,1,6.5019e-16,0,1,-1.272,-1.888,-1.888,3.4389e-14,-1.6827,0.616,0.012005,0.06,0.44,0
0.066976,5.2092e-17,0.92,-1.271,-1.859,-1.859,-1.3536e-16,0,0,0.7644,-1.2228e-16,0,-3.5193e-16,0,0,1,-3.0767e-15,0,1,-1.271,-1.859,-1.859,-1.3189e-14,-1.663,0.588,0.010441,0.08,0.44,0
0.0819,1.2343e-17,0.9,-1.2782,-1.8335,-1.8335,-9.5821e-16,0,0,0.72193,3.526e-17,0,-2.4914e-15,0,0,1,3.6689e-15,0,1,-1.2782,-1.8335,-1.8335,-9.7228e-14,-1.6484,0.55533,0.0088035,0.1,0.44,0
0.096096,1.1375e-17,0.88,-1.269,-1.801,-1.801,-9.1123e-17,0,0,0.6916,1.0649e-16,0,-2.3692e-16,0,0,1,-1.1833e-30,0,1,-1.269,-1.801,-1.801,-9.8138e-15,-1.6237,0.532,0.0077332,0.12,0.44,0
0.10956,3.641e-18,0.86,-1.268,-1.772,-1.772,2.5774e-16,0,0,0.6552,-1.7619e-16,0,6.7012e-16,0,0,1,2.6326e-15,0,1,-1.268,-1.772,-1.772,2.93e-14,-1.604,0.504,0.0065753,0.14,0.44,0
0.1223,4.5746e-17,0.84,-1.267,-1.743,-1.743,1.6927e-16,0,0,0.6188,1.1295e-16,0,4.401e-16,0,0,1,-6.1854e-15,0,1,-1.267,-1.743,-1.743,2.0375e-14,-1.5843,0.476,0.0055392,0.16,0.44,0
0.13432,-1.3597e-17,0.82,-1.266,-1.714,-1.714,-1.305e-15,0,0,0.5824,4.4106e-17,0,-3.3931e-15,0,0,1,5.1782e-15,0,1,-1.266,-1.714,-1.714,-1.669e-13,-1.5647,0.448,0.0046181,0.18,0.44,0
0.1456,-1.9254e-17,0.8,-1.265,-1.685,-1.685,6.2907e-16,0,0,0.546,-2.8359e-17,0,1.6356e-15,0,0,1,1.5384e-15,0,1,-1.265,-1.685,-1.685,8.5817e-14,-1.545,0.42,0.0038052,0.2,0.44,0
0.15616,2.7684e-17,0.78,-1.264,-1.656,-1.656,-4.2701e-17,0,0,0.5096,-1.5575e-16,0,-2.2204e-16,0,0,1,-3.0767e-15,0,1,-1.264,-1.656,-1.656,-6.2413e-15,-1.5253,0.392,0.0030937,0.22,0.44,0
0.16598,-3.1659e-17,0.76,-1.263,-1.627,-1.627,-7.2285e-16,0,0,0.4732,1.3455e-16,0,-1.8794e-15,0,0,1,1.5384e-15,0,1,-1.263,-1.627,-1.627,-1.1378e-13,-1.5057,0.364,0.002477,0.24,0.44,0
0.17508,-3.2424e-17,0.74,-1.262,-1.598,-1.598,1.7918e-16,0,0,0.4368,-1.1916e-16,0,4.6587e-16,0,0,1,0,0,1,-1.262,-1.598,-1.598,3.0554e-14,-1.486,0.336,0.0019482,0.26,0.44,0
0.18346,-2.967e-17,0.72,-1.261,-1.569,-1.569,7.915e-16,0,0,0.4004,-7.0065e-17,0,2.0579e-15,0,0,1,1.2133e-15,0,1,-1.261,-1.569,-1.569,1.4724e-13,-1.4663,0.308,0.0015006,0.28,0.44,0
0.1911,6.2122e-17,0.7,-1.26,-1.54,-1.54,9.0509e-16,0,0,0.364,8.7444e-17,0,2.3533e-15,0,0,1,-3.251e-16,0,1,-1.26,-1.54,-1.54,1.8521e-13,-1.4467,0.28,0.0011275,0.3,0.44,0
0.19802,6.7054e-17,0.68,-1.259,-1.511,-1.511,-5.3223e-16,0,0,0.3276,-1.5447e-16,0,-1.3838e-15,0,0,1,0,0,1,-1.259,-1.511,-1.511,-1.2101e-13,-1.427,0.252,0.00082192,0.32,0.44,0
0.2042,6.3745e-17,0.66,-1.2498,-1.4785,-1.4785,-7.7066e-16,0,0,0.29727,2.1165e-18,0,-2.0037e-15,0,0,1,-1.6177e-15,0,1,-1.2498,-1.4785,-1.4785,-1.991e-13,-1.4023,0.22867,0.00061716,0.34,0.44,0
0.20966,-4.0023e-17,0.64,-1.257,-1.453,-1.453,-1.5029e-15,0,0,0.2548,-4.4449e-17,0,-3.9076e-15,0,0,1,3.251e-16,0,1,-1.257,-1.453,-1.453,-4.3934e-13,-1.3877,0.196,0.00038672,0.36,0.44,0
0.2144,-4.7509e-17,0.62,-1.256,-1.424,-1.424,-1.0829e-16,0,0,0.2184,-9.5802e-17,0,-2.8154e-16,0,0,1,0,0,1,-1.256,-1.424,-1.424,-3.693e-14,-1.368,0.168,0.00024353,0.38,0.44,0
0.2184,-5.7111e-17,0.6,-1.255,-1.395,-1.395,1.0446e-15,0,0,0.182,-8.4181e-17,0,2.7161e-15,0,0,1,2.3076e-15,0,1,-1.255,-1.395,-1.395,4.2752e-13,-1.3483,0.14,0.00014093,0.4,0.44,0
0.22168,3.9723e-17,0.58,-1.254,-1.366,-1.366,7.6862e-16,0,0,0.1456,3.1579e-17,0,1.9984e-15,0,0,1,-4.0839e-15,0,1,-1.254,-1.366,-1.366,3.932e-13,-1.3287,0.112,7.2157e-05,0.42,0.44,0
0.22422,4.0567e-17,0.56,-1.253,-1.337,-1.337,-8.1969e-16,0,0,0.1092,-4.3323e-17,0,-2.1312e-15,0,0,1,3.251e-16,0,1,-1.253,-1.337,-1.337,-5.5911e-13,-1.309,0.084,3.0441e-05,0.44,0.44,0
0.22604,3.3021e-17,0.54,-1.252,-1.308,-1.308,-1.3039e-15,0,0,0.0728,1.4804e-17,0,-3.3902e-15,0,0,1,-2.1014e-15,0,1,-1.252,-1.308,-1.308,-1.3341e-12,-1.2893,0.056,9.0196e-06,0.46,0.44,0
0.22714,-5.5997e-17,0.52,-1.251,-1.279,-1.279,-1.4175e-15,0,0,0.0364,-1.1663e-16,0,-3.6855e-15,0,0,1,-5.6308e-16,0,1,-1.251,-1.279,-1.279,-2.9006e-12,-1.2697,0.028,1.1275e-06,0.48,0.44,0
0.2275,-6.703e-17,0.5,-1.25,-1.25,-1.25,-4.0413e-16,0,0,-1.6046e-16,-1.7772e-16,0,-1.0507e-15,0,0,1,3.251e-16,0,1,-1.25,-1.25,-1.25,45,-1.25,8.1584e-16,3.0363e-47,0.5,0.44,0
0.22714,-6.449e-17,0.48,-1.249,-1.221,-1.221,2.1044e-16,0,0,-0.0364,-1.6137e-16,0,5.4714e-16,0,0,1,-2.4265e-15,0,1,-1.221,-1.249,-1.221,90,-1.2303,0.028,-1.1275e-06,0.52,0.44,0
0.22604,-6.3899e-17,0.46,-1.248,-1.192,-1.192,1.1666e-16,0,0,-0.0728,-2.2633e-16,0,3.0332e-16,0,0,1,3.251e-16,0,1,-1.192,-1.248,-1.192,90,-1.2107,0.056,-9.0196e-06,0.54,0.44,0
0.22422,-5.5076e-17,0.44,-1.247,-1.163,-1.163,2.0237e-15,0,0,-0.1092,-2.2654e-16,0,5.2616e-15,0,0,1,-8.1274e-16,0,1,-1.163,-1.247,-1.163,90,-1.191,0.084,-3.0441e-05,0.56,0.44,0
0.22168,1.207e-16,0.42,-1.246,-1.134,-1.134,1.3611e-15,0,0,-0.1456,-1.9656e-16,0,3.5389e-15,0,0,1,3.0332e-15,0,1,-1.134,-1.246,-1.134,90,-1.1713,0.112,-7.2157e-05,0.58,0.44,0
0.2184,1.1147e-16,0.4,-1.245,-1.105,-1.105,-3.9635e-17,0,0,-0.182,-2.4753e-16,0,-1.0305e-16,0,0,1,0,0,1,-1.105,-1.245,-1.105,-90,-1.1517,0.14,-0.00014093,0.6,0.44,0
0.2144,1.0503e-16,0.38,-1.244,-1.076,-1.076,4.125e-16,0,0,-0.2184,3.2699e-17,0,1.0725e-15,0,0,1,0,0,1,-1.076,-1.244,-1.076,90,-1.132,0.168,-0.00024353,0.62,0.44,0
0.20966,9.8643e-17,0.36,-1.243,-1.047,-1.047,5.4143e-17,0,0,-0.2548,-1.487e-16,0,1.4077e-16,0,0,1,0,0,1,-1.047,-1.243,-1.047,90,-1.1123,0.196,-0.00038672,0.64,0.44,0
0.2042,1.1008e-16,0.34,-1.242,-1.018,-1.018,3.1872e-16,0,0,-0.2912,-1.5679e-16,0,8.2868e-16,0,0,1,0,0,1,-1.018,-1.242,-1.018,90,-1.0927,0.224,-0.00057726,0.66,0.44,0
0.19802,1.1969e-16,0.32,-1.241,-0.989,-0.989,-1.6081e-15,0,0,-0.3276,-7.2058e-17,0,-4.1811e-15,0,0,1,-1.0072e-15,0,1,-0.989,-1.241,-0.989,-90,-1.073,0.252,-0.00082192,0.68,0.44,0
0.1911,-5.5417e-17,0.3,-1.24,-0.96,-0.96,-1.1446e-15,0,0,-0.364,-1.8974e-16,0,-2.9758e-15,0,0,1,-2.4643e-15,0,1,-0.96,-1.24,-0.96,-90,-1.0533,0.28,-0.0011275,0.7,0.44,0
0.18346,-4.2352e-17,0.28,-1.239,-0.931,-0.931,2.9584e-16,0,0,-0.4004,-2.419e-16,0,7.6918e-16,0,0,1,-3.0332e-16,0,1,-0.931,-1.239,-0.931,90,-1.0337,0.308,-0.0015006,0.72,0.44,0
0.17508,-4.8431e-17,0.26,-1.238,-0.902,-0.902,-1.4792e-16,0,0,-0.4368,-1.575e-16,0,-3.8459e-16,0,0,1,1.6255e-16,0,1,-0.902,-1.238,-0.902,-90,-1.014,0.336,-0.0019482,0.74,0.44,0
0.16598,-4.449e-17,0.24,-1.237,-0.873,-0.873,1.1666e-16,0,0,-0.4732,-2.8816e-16,0,3.0332e-16,0,0,1,-1.0507e-15,0,1,-0.873,-1.237,-0.873,90,-0.99433,0.364,-0.002477,0.76,0.44,0
0.15616,-4.8467e-17,0.22,-1.236,-0.844,-0.844,-3.1259e-17,0,0,-0.5096,-2.205e-16,0,-8.1274e-17,0,0,1,-1.0507e-15,0,1,-0.844,-1.236,-0.844,-90,-0.97467,0.392,-0.0030937,0.78,0.44,0
0.1456,-4.8697e-17,0.2,-1.235,-0.815,-0.815,1.5227e-15,0,0,-0.546,-1.3332e-16,0,3.9591e-15,0,0,1,1.0587e-15,0,1,-0.815,-1.235,-0.815,90,-0.955,0.42,-0.0038052,0.8,0.44,0
0.13432,9.4191e-17,0.18,-1.234,-0.786,-0.786,8.0294e-16,0,0,-0.5824,-1.0453e-17,0,2.0876e-15,0,0,1,2.2937e-15,0,1,-0.786,-1.234,-0.786,90,-0.93533,0.448,-0.0046181,0.82,0.44,0
0.1223,9.3774e-17,0.16,-1.233,-0.757,-0.757,-9.6843e-17,0,0,-0.6188,-1.6205e-17,0,-2.5179e-16,0,0,1,3.9443e-31,0,1,-0.757,-1.233,-0.757,-90,-0.91567,0.476,-0.0055392,0.84,0.44,0
0.10956,9.3255e-17,0.14,-1.232,-0.728,-0.728,1.1442e-17,0,0,-0.6552,3.7857e-17,0,2.9748e-17,0,0,1,4.9304e-32,0,1,-0.728,-1.232,-0.728,90,-0.896,0.504,-0.0065753,0.86,0.44,0
0.096096,9.5223e-17,0.12,-1.231,-0.699,-0.699,-4.8422e-17,0,0,-0.6916,-1.0704e-16,0,-1.259e-16,0,0,1,9.8608e-32,0,1,-0.699,-1.231,-0.699,-90,-0.87633,0.532,-0.0077332,0.88,0.44,0
0.0819,9.146e-17,0.1,-1.23,-0.67,-0.67,-1.6222e-16,0,0,-0.728,-8.7001e-17,0,-4.2178e-16,0,0,1,1.4791e-31,0,1,-0.67,-1.23,-0.67,-90,-0.85667,0.56,-0.0090197,0.9,0.44,0
0.066976,9.2004e-17,0.08,-1.229,-0.641,-0.641,-1.1087e-15,0,0,-0.7644,5.1053e-17,0,-2.8826e-15,0,0,1,-8.9216e-16,0,1,-0.641,-1.229,-0.641,-90,-0.837,0.588,-0.010441,0.92,0.44,0
0.051324,-3.6535e-17,0.06,-1.228,-0.612,-0.612,-6.9504e-16,0,0,-0.8008,9.7313e-17,0,-1.8071e-15,0,0,1,-1.924e-15,0,1,-0.612,-1.228,-0.612,-90,-0.81733,0.616,-0.012005,0.94,0.44,0
0.034944,-3.6503e-17,0.04,-1.227,-0.583,-0.583,5.7999e-17,0,0,-0.8372,1.2799e-16,0,1.508e-16,0,0,1,1.0159e-17,0,1,-0.583,-1.227,-0.583,90,-0.79767,0.644,-0.013718,0.96,0.44,0
0.017836,-3.6401e-17,0.02,-1.226,-0.554,-0.554,-2.0871e-17,0,0,-0.8736,6.8505e-17,0,-5.4266e-17,0,0,1,-7.075e-17,0,1,-0.554,-1.226,-0.554,-90,-0.778,0.672,-0.015586,0.98,0.44,0
0,-3.6473e-17,0,-1.2005,-0.5145,-0.5145,-1.2821e-17,0,0,-0.8918,3.2904e-17,0,-3.3333e-17,0,0,1,-1.7596e-17,0,1,-0.5145,-1.2005,-0.5145,-90,-0.74317,0.686,-0.016581,1,0.44,0
0,2.4553e-17,1,-1.2995,-1.9855,-1.9855,5.9289e-17,0,0,0.8918,-7.4689e-17,0,1.5415e-16,0,0,1,0,0,1,-1.2995,-1.9855,-1.9855,4.9519e-15,-1.7568,0.686,0.016581,0,0.46,0
0.017836,2.646e-17,0.98,-1.274,-1.946,-1.946,-4.3199e-17,0,0,0.8736,-5.6179e-17,0,-1.1232e-16,0,0,1,4.171e-15,0,1,-1.274,-1.946,-1.946,-3.6832e-15,-1.722,0.672,0.015586,0.02,0.46,0
0.034944,2.7083e-17,0.96,-1.273,-1.917,-1.917,1.7075e-16,0,0,0.8372,-1.3756e-16,0,4.4396e-16,0,0,1,-5.7094e-15,0,1,-1.273,-1.917,-1.917,1.5192e-14,-1.7023,0.644,0.013718,0.04,0.46,0
0.051324,3.4795e-17,0.94,-1.272,-1.888,-1.888,3.6582e-16,0,0,0.8008,2.3673e-17,0,9.5113e-16,0,0,1,6.6294e-15,0,1,-1.272,-1.888,-1.888,3.4026e-14,-1.6827,0.616,0.012005,0.06,0.46,0
0.066976,4.8584e-17,0.92,-1.271,-1.859,-1.859,-1.9655e-16,0,0,0.7644,1.0988e-16,0,-5.1102e-16,0,0,1,-1.0269e-14,0,1,-1.271,-1.859,-1.859,-1.9152e-14,-1.663,0.588,0.010441,0.08,0.46,0
0.0819,1.2984e-17,0.9,-1.27,-1.83,-1.83,-6.8168e-16,0,0,0.728,1.0017e-16,0,-1.7724e-15,0,0,1,4.8531e-15,0,1,-1.27,-1.83,-1.83,-6.9745e-14,-1.6433,0.56,0.0090197,0.1,0.46,0
0.096096,1.2755e-17,0.88,-1.269,-1.801,-1.801,-1.5936e-16,0,0,0.6916,4.2247e-19,0,-4.1434e-16,0,0,1,-5.6308e-16,0,1,-1.269,-1.801,-1.801,-1.7163e-14,-1.6237,0.532,0.0077332,0.12,0.46,0
0.10956,3.1446e-19,0.86,-1.268,-1.772,-1.772,5.7227e-16,0,0,0.6552,6.3144e-17,0,1.4879e-15,0,0,1,-3.4656e-15,0,1,-1.268,-1.772,-1.772,6.5057e-14,-1.604,0.504,0.0065753,0.14,0.46,0
0.1223,4.8745e-17,0.84,-1.267,-1.743,-1.743,2.2607e-16,0,0,0.6188,9.1602e-17,0,5.8778e-16,0,0,1,3.4656e-15,0,1,-1.267,-1.743,-1.743,2.7212e-14,-1.5843,0.476,0.0055392,0.16,0.46,0
0.13432,-1.1017e-17,0.82,-1.266,-1.714,-1.714,-8.4676e-16,0,0,0.5824,1.0246e-16,0,-2.2016e-15,0,0,1,-4.1158e-15,0,1,-1.266,-1.714,-1.714,-1.0829e-13,-1.5647,0.448,0.0046181,0.18,0.46,0
0.1456,-2.132e-17,0.8,-1.265,-1.685,-1.685,1.7652e-16,0,0,0.546,5.0611e-17,0,4.5896e-16,0,0,1,4.8531e-15,0,1,-1.265,-1.685,-1.685,2.4081e-14,-1.545,0.42,0.0038052,0.2,0.46,0
0.15616,2.0294e-17,0.78,-1.264,-1.656,-1.656,-3.1872e-16,0,0,0.5096,-2.7253e-16,0,-8.2868e-16,0,0,1,1.7764e-15,0,1,-1.264,-1.656,-1.656,-4.6586e-14,-1.5253,0.392,0.0030937,0.22,0.46,0
0.16598,-2.8322e-17,0.76,-1.263,-1.627,-1.627,-7.6555e-16,0,0,0.4732,1.182e-16,0,-1.9904e-15,0,0,1,-2.3799e-16,0,1,-1.263,-1.627,-1.627,-1.205e-13,-1.5057,0.364,0.002477,0.24,0.46,0
0.17508,-3.2301e-17,0.74,-1.262,-1.598,-1.598,6.5584e-17,0,0,0.4368,1.4425e-16,0,1.7052e-16,0,0,1,-3.251e-16,0,1,-1.262,-1.598,-1.598,1.1184e-14,-1.486,0.336,0.0019482,0.26,0.46,0
0.18346,-3.4498e-17,0.72,-1.261,-1.569,-1.569,6.207e-16,0,0,0.4004,7.4847e-17,0,1.6138e-15,0,0,1,3.1957e-15,0,1,-1.261,-1.569,-1.569,1.1547e-13,-1.4663,0.308,0.0015006,0.28,0.46,0
0.1911,6.9555e-17,0.7,-1.26,-1.54,-1.54,1.2238e-15,0,0,0.364,1.1234e-16,0,3.1819e-15,0,0,1,1.0072e-15,0,1,-1.26,-1.54,-1.54,2.5043e-13,-1.4467,0.28,0.0011275,0.3,0.46,0
0.19802,5.8212e-17,0.68,-1.259,-1.511,-1.511,2.2188e-16,0,0,0.3276,-1.1588e-16,0,5.7689e-16,0,0,1,0,0,1,-1.259,-1.511,-1.511,5.0448e-14,-1.427,0.252,0.00082192,0.32,0.46,0
0.2042,6.6425e-17,0.66,-1.258,-1.482,-1.482,-1.0363e-15,0,0,0.2912,1.2122e-16,0,-2.6943e-15,0,0,1,-2.8706e-15,0,1,-1.258,-1.482,-1.482,-2.6506e-13,-1.4073,0.224,0.00057726,0.34,0.46,0
0.20966,-4.0524e-17,0.64,-1.257,-1.453,-1.453,-1.7133e-15,0,0,0.2548,-2.1972e-17,0,-4.4547e-15,0,0,1,7.6918e-16,0,1,-1.257,-1.453,-1.453,-5.0085e-13,-1.3877,0.196,0.00038672,0.36,0.46,0
0.2144,-4.9189e-17,0.62,-1.256,-1.424,-1.424,4.125e-16,0,0,0.2184,7.0433e-17,0,1.0725e-15,0,0,1,0,0,1,-1.256,-1.424,-1.424,1.4068e-13,-1.368,0.168,0.00024353,0.38,0.46,0
0.2184,-5.5734e-17,0.6,-1.255,-1.395,-1.395,1.13e-15,0,0,0.182,2.5595e-16,0,2.9381e-15,0,0,1,6.5019e-16,0,1,-1.255,-1.395,-1.395,4.6248e-13,-1.3483,0.14,0.00014093,0.4,0.46,0
0.22168,3.9921e-17,0.58,-1.254,-1.366,-1.366,5.6655e-16,0,0,0.1456,5.3178e-17,0,1.473e-15,0,0,1,2.3799e-16,0,1,-1.254,-1.366,-1.366,2.8983e-13,-1.3287,0.112,7.2157e-05,0.42,0.46,0
0.22422,3.7623e-17,0.56,-1.253,-1.337,-1.337,4.6358e-16,0,0,0.1092,7.7187e-17,0,1.2053e-15,0,0,1,0,0,1,-1.253,-1.337,-1.337,3.162e-13,-1.309,0.084,3.0441e-05,0.44,0.46,0
0.22604,3.7077e-17,0.54,-1.252,-1.308,-1.308,-1.7477e-15,0,0,0.0728,2.2209e-18,0,-4.5439e-15,0,0,1,-7.8513e-16,0,1,-1.252,-1.308,-1.308,-1.7881e-12,-1.2893,0.056,9.0196e-06,0.46,0.46,0
0.22714,-6.3459e-17,0.52,-1.251,-1.279,-1.279,-1.5227e-15,0,0,0.0364,-1.6544e-16,0,-3.9591e-15,0,0,1,2.3671e-15,0,1,-1.251,-1.279,-1.279,-3.1159e-12,-1.2697,0.028,1.1275e-06,0.48,0.46,0
0.2275,-7.1469e-17,0.5,-1.25,-1.25,-1.25,-4.0413e-16,0,0,1.2759e-15,-1.0009e-16,0,-1.0507e-15,0,0,1,0,0,1,-1.25,-1.25,-1.25,-25.253,-1.25,9.0195e-16,-2.2772e-47,0.5,0.46,0
0.22714,-6.582e-17,0.48,-1.249,-1.221,-1.221,1.2504e-16,0,0,-0.0364,-8.7233e-17,0,3.251e-16,0,0,1,3.251e-16,0,1,-1.221,-1.249,-1.221,90,-1.2303,0.028,-1.1275e-06,0.52,0.46,0
0.22604,-7.0481e-17,0.46,-1.248,-1.192,-1.192,-1.4791e-31,0,0,-0.0728,-1.9377e-16,0,-5.9165e-31,0,0,1,-2.4265e-15,0,1,-1.192,-1.248,-1.192,-90,-1.2107,0.056,-9.0196e-06,0.54,0.46,0
0.22422,-5.946e-17,0.44,-1.247,-1.163,-1.163,1.9924e-15,0,0,-0.1092,-2.0524e-16,0,5.1803e-15,0,0,1,-2.5891e-15,0,1,-1.163,-1.247,-1.163,90,-1.191,0.084,-3.0441e-05,0.56,0.46,0
0.22168,1.1654e-16,0.42,-1.246,-1.134,-1.134,1.8361e-15,0,0,-0.1456,-1.1076e-16,0,4.774e-15,0,0,1,4.3654e-15,0,1,-1.134,-1.246,-1.134,90,-1.1713,0.112,-7.2157e-05,0.58,0.46,0
0.2184,1.073e-16,0.4,-1.245,-1.105,-1.105,-8.3759e-18,0,0,-0.182,-8.8251e-17,0,-2.1777e-17,0,0,1,0,0,1,-1.105,-1.245,-1.105,-90,-1.1517,0.14,-0.00014093,0.6,0.46,0
0.2144,1.025e-16,0.38,-1.244,-1.076,-1.076,2.8746e-16,0,0,-0.2184,-2.4538e-16,0,7.4741e-16,0,0,1,0,0,1,-1.076,-1.244,-1.076,90,-1.132,0.168,-0.00024353,0.62,0.46,0
0.20966,9.7218e-17,0.36,-1.243,-1.047,-1.047,-1.5936e-16,0,0,-0.2548,1.4301e-16,0,-4.1434e-16,0,0,1,0,0,1,-1.047,-1.243,-1.047,-90,-1.1123,0.196,-0.00038672,0.64,0.46,0
0.2042,1.0597e-16,0.34,-1.242,-1.018,-1.018,1.1666e-16,0,0,-0.2912,-1.3466e-16,0,3.0332e-16,0,0,1,0,0,1,-1.018,-1.242,-1.018,90,-1.0927,0.224,-0.00057726,0.66,0.46,0
0.19802,1.1722e-16,0.32,-1.241,-0.989,-0.989,-1.2894e-15,0,0,-0.3276,-1.3335e-16,0,-3.3524e-15,0,0,1,-1.0667e-15,0,1,-0.989,-1.241,-0.989,-90,-1.073,0.252,-0.00082192,0.68,0.46,0
0.1911,-5.5801e-17,0.3,-1.24,-0.96,-0.96,-1.1446e-15,0,0,-0.364,3.8937e-17,0,-2.9758e-15,0,0,1,-2.6863e-15,0,1,-0.96,-1.24,-0.96,-90,-1.0533,0.28,-0.0011275,0.7,0.46,0
0.18346,-5.1756e-17,0.28,-1.239,-0.931,-0.931,4.0413e-16,0,0,-0.4004,-3.7369e-16,0,1.0507e-15,0,0,1,-1.2728e-15,0,1,-0.931,-1.239,-0.931,90,-1.0337,0.308,-0.0015006,0.72,0.46,0
0.17508,-5.06e-17,0.26,-1.238,-0.902,-0.902,-2.7602e-16,0,0,-0.4368,-1.5069e-18,0,-7.1766e-16,0,0,1,-1.4077e-16,0,1,-0.902,-1.238,-0.902,-90,-1.014,0.336,-0.0019482,0.74,0.46,0
0.16598,-5.2657e-17,0.24,-1.237,-0.873,-0.873,1.0522e-16,0,0,-0.4732,-4.2083e-17,0,2.7357e-16,0,0,1,1.6255e-16,0,1,-0.873,-1.237,-0.873,90,-0.99433,0.364,-0.002477,0.76,0.46,0
0.15616,-5.307e-17,0.22,-1.236,-0.844,-0.844,-6.2518e-17,0,0,-0.5096,-2.1561e-16,0,-1.6255e-16,0,0,1,-1.0507e-15,0,1,-0.844,-1.236,-0.844,-90,-0.97467,0.392,-0.0030937,0.78,0.46,0
0.1456,-5.3377e-17,0.2,-1.235,-0.815,-0.815,1.3035e-15,0,0,-0.546,-2.5138e-17,0,3.3891e-15,0,0,1,-1.5458e-16,0,1,-0.815,-1.235,-0.815,90,-0.955,0.42,-0.0038052,0.8,0.46,0
0.13432,9.6201e-17,0.18,-1.234,-0.786,-0.786,8.6699e-16,0,0,-0.5824,4.8775e-17,0,2.2542e-15,0,0,1,1.7684e-15,0,1,-0.786,-1.234,-0.786,90,-0.93533,0.448,-0.0046181,0.82,0.46,0
0.1223,9.3365e-17,0.16,-1.233,-0.757,-0.757,-7.396e-17,0,0,-0.6188,6.91e-17,0,-1.923e-16,0,0,1,-9.0996e-16,0,1,-0.757,-1.233,-0.757,-90,-0.91567,0.476,-0.0055392,0.84,0.46,0
0.10956,9.5323e-17,0.14,-1.232,-0.728,-0.728,3.2792e-17,0,0,-0.6552,2.0885e-16,0,8.5259e-17,0,0,1,4.6587e-16,0,1,-0.728,-1.232,-0.728,90,-0.896,0.504,-0.0065753,0.86,0.46,0
0.096096,9.2965e-17,0.12,-1.231,-0.699,-0.699,2.9165e-16,0,0,-0.6916,3.446e-17,0,7.583e-16,0,0,1,-1.6255e-16,0,1,-0.699,-1.231,-0.699,90,-0.87633,0.532,-0.0077332,0.88,0.46,0
0.0819,8.9066e-17,0.1,-1.23,-0.67,-0.67,-9.531e-17,0,0,-0.728,9.2683e-17,0,-2.4781e-16,0,0,1,3.0332e-16,0,1,-0.67,-1.23,-0.67,-90,-0.85667,0.56,-0.0090197,0.9,0.46,0
0.066976,9.4078e-17,0.08,-1.229,-0.641,-0.641,-7.7357e-16,0,0,-0.7644,5.506e-17,0,-2.0113e-15,0,0,1,-1.3843e-15,0,1,-0.641,-1.229,-0.641,-90,-0.837,0.588,-0.010441,0.92,0.46,0
0.051324,-3.6247e-17,0.06,-1.228,-0.612,-0.612,-8.7366e-16,0,0,-0.8008,8.5567e-17,0,-2.2715e-15,0,0,1,-1.8157e-15,0,1,-0.612,-1.228,-0.612,-90,-0.81733,0.616,-0.012005,0.94,0.46,0
0.034944,-3.3452e-17,0.04,-1.227,-0.583,-0.583,3.1259e-17,0,0,-0.8372,9.4941e-17,0,8.1274e-17,0,0,1,-3.1076e-16,0,1,-0.583,-1.227,-0.583,90,-0.79767,0.644,-0.013718,0.96,0.46,0
0.017836,-3.5144e-17,0.02,-1.226,-0.554,-0.554,-7.8181e-17,0,0,-0.8736,7.6815e-17,0,-2.0327e-16,0,0,1,1.493e-16,0,1,-0.554,-1.226,-0.554,-90,-0.778,0.672,-0.015586,0.98,0.46,0
0,-3.5809e-17,0,-1.2005,-0.5145,-0.5145,7.2913e-18,0,0,-0.8918,8.0364e-17,0,1.8957e-17,0,0,1,-2.7222e-18,0,1,-0.5145,-1.2005,-0.5145,90,-0.74317,0.686,-0.016581,1,0.46,0
0,2.0557e-17,1,-1.2995,-1.9855,-1.9855,4.3748e-17,0,0,0.8918,-7.5615e-17,0,1.1374e-16,0,0,1,0,0,1,-1.2995,-1.9855,-1.9855,3.6539e-15,-1.7568,0.686,0.016581,0,0.48,0
0.017836,2.3189e-17,0.98,-1.274,-1.946,-1.946,-1.0484e-17,0,0,0.8736,-1.1891e-16,0,-2.7257e-17,0,0,1,4.29e-15,0,1,-1.274,-1.946,-1.946,-8.9385e-16,-1.722,0.672,0.015586,0.02,0.48,0
0.034944,2.0594e-17,0.96,-1.273,-1.917,-1.917,1.7881e-16,0,0,0.8372,-1.9746e-16,0,4.6491e-16,0,0,1,-4.6151e-15,0,1,-1.273,-1.917,-1.917,1.5909e-14,-1.7023,0.644,0.013718,0.04,0.48,0
0.051324,3.423e-17,0.94,-1.272,-1.888,-1.888,2.075e-16,0,0,0.8008,2.9807e-17,0,5.3951e-16,0,0,1,1.7422e-16,0,1,-1.272,-1.888,-1.888,1.93e-14,-1.6827,0.616,0.012005,0.06,0.48,0
0.066976,5.6488e-17,0.92,-1.271,-1.859,-1.859,-7.0539e-17,0,0,0.7644,1.2301e-16,0,-1.834e-16,0,0,1,3.8886e-16,0,1,-1.271,-1.859,-1.859,-6.8734e-15,-1.663,0.588,0.010441,0.08,0.48,0
0.0819,1.6349e-17,0.9,-1.27,-1.83,-1.83,-5.145e-16,0,0,0.728,1.678e-16,0,-1.3377e-15,0,0,1,2.1886e-15,0,1,-1.27,-1.83,-1.83,-5.2641e-14,-1.6433,0.56,0.0090197,0.1,0.48,0
0.096096,1.1392e-17,0.88,-1.269,-1.801,-1.801,-1.4373e-16,0,0,0.6916,5.5631e-18,0,-3.737e-16,0,0,1,5.6308e-16,0,1,-1.269,-1.801,-1.801,-1.548e-14,-1.6237,0.532,0.0077332,0.12,0.48,0
0.10956,6.1668e-18,0.86,-1.268,-1.772,-1.772,3.2598e-16,0,0,0.6552,1.8108e-16,0,8.4754e-16,0,0,1,9.7381e-15,0,1,-1.268,-1.772,-1.772,3.7058e-14,-1.604,0.504,0.0065753,0.14,0.48,0
0.1223,4.941e-17,0.84,-1.267,-1.743,-1.743,-2.5202e-16,0,0,0.6188,1.6508e-16,0,-6.5524e-16,0,0,1,-1.5003e-14,0,1,-1.267,-1.743,-1.743,-3.0335e-14,-1.5843,0.476,0.0055392,0.16,0.48,0
0.13432,-9.4988e-18,0.82,-1.266,-1.714,-1.714,-6.6033e-16,0,0,0.5824,-1.3214e-16,0,-1.7169e-15,0,0,1,1.5384e-15,0,1,-1.266,-1.714,-1.714,-8.4451e-14,-1.5647,0.448,0.0046181,0.18,0.48,0
0.1456,-1.7229e-17,0.8,-1.265,-1.685,-1.685,6.9731e-16,0,0,0.546,2.5884e-16,0,1.813e-15,0,0,1,-2.6326e-15,0,1,-1.265,-1.685,-1.685,9.5126e-14,-1.545,0.42,0.0038052,0.2,0.48,0
0.15616,1.6783e-17,0.78,-1.264,-1.656,-1.656,-1.3954e-16,0,0,0.5096,4.8191e-17,0,-3.6282e-16,0,0,1,-3.3147e-15,0,1,-1.264,-1.656,-1.656,-2.0396e-14,-1.5253,0.392,0.0030937,0.22,0.48,0
0.16598,-2.6931e-17,0.76,-1.263,-1.627,-1.627,-7.4573e-16,0,0,0.4732,1.0387e-17,0,-1.9389e-15,0,0,1,6.8208e-16,0,1,-1.263,-1.627,-1.627,-1.1738e-13,-1.5057,0.364,0.002477,0.24,0.48,0
0.17508,-2.6654e-17,0.74,-1.262,-1.598,-1.598,-2.2883e-17,0,0,0.4368,1.6222e-16,0,-5.9497e-17,0,0,1,-3.251e-16,0,1,-1.262,-1.598,-1.598,-3.9021e-15,-1.486,0.336,0.0019482,0.26,0.48,0
0.18346,-2.6676e-17,0.72,-1.261,-1.569,-1.569,1.079e-15,0,0,0.4004,1.4951e-16,0,2.8053e-15,0,0,1,3.7588e-15,0,1,-1.261,-1.569,-1.569,2.0071e-13,-1.4663,0.308,0.0015006,0.28,0.48,0
0.1911,6.6616e-17,0.7,-1.2518,-1.5365,-1.5365,1.7192e-15,0,0,0.37007,-1.9253e-16,0,4.4699e-15,0,0,1,-1.459e-15,0,1,-1.2518,-1.5365,-1.5365,3.4603e-13,-1.4416,0.28467,0.0011848,0.3,0.48,0
0.19802,6.2418e-17,0.68,-1.2672,-1.5145,-1.5145,-3.0511e-17,0,0,0.32153,9.2284e-17,0,-7.9329e-17,0,0,1,0,0,1,-1.2672,-1.5145,-1.5145,-7.068e-15,-1.4321,0.24733,0.00077709,0.32,0.48,0
0.2042,6.8594e-17,0.66,-1.258,-1.482,-1.482,-1.0904e-15,0,0,0.2912,-1.3347e-16,0,-2.8351e-15,0,0,1,-7.6918e-16,0,1,-1.258,-1.482,-1.482,-2.7891e-13,-1.4073,0.224,0.00057726,0.34,0.48,0
0.20966,-4.0902e-17,0.64,-1.257,-1.453,-1.453,-1.4259e-15,0,0,0.2548,2.4259e-17,0,-3.7073e-15,0,0,1,2.061e-16,0,1,-1.257,-1.453,-1.453,-4.1682e-13,-1.3877,0.196,0.00038672,0.36,0.48,0
0.2144,-4.4692e-17,0.62,-1.256,-1.424,-1.424,4.2394e-16,0,0,0.2184,3.9424e-17,0,1.1022e-15,0,0,1,0,0,1,-1.256,-1.424,-1.424,1.4458e-13,-1.368,0.168,0.00024353,0.38,0.48,0
0.2184,-4.6873e-17,0.6,-1.255,-1.395,-1.395,8.4564e-16,0,0,0.182,1.1992e-16,0,2.1987e-15,0,0,1,3.3147e-15,0,1,-1.255,-1.395,-1.395,3.4608e-13,-1.3483,0.14,0.00014093,0.4,0.48,0
0.22168,4.185e-17,0.58,-1.254,-1.366,-1.366,7.915e-16,0,0,0.1456,8.2044e-17,0,2.0579e-15,0,0,1,-2.4265e-15,0,1,-1.254,-1.366,-1.366,4.0491e-13,-1.3287,0.112,7.2157e-05,0.42,0.48,0
0.22422,4.3655e-17,0.56,-1.253,-1.337,-1.337,-3.9268e-16,0,0,0.1092,1.281e-16,0,-1.021e-15,0,0,1,0,0,1,-1.253,-1.337,-1.337,-2.6785e-13,-1.309,0.084,3.0441e-05,0.44,0.48,0
0.22604,3.3109e-17,0.54,-1.252,-1.308,-1.308,-6.0925e-16,0,0,0.0728,-7.2033e-17,0,-1.5841e-15,0,0,1,-1.4789e-15,0,1,-1.252,-1.308,-1.308,-6.2335e-13,-1.2893,0.056,9.0196e-06,0.46,0.48,0
0.22714,-6.2615e-17,0.52,-1.251,-1.279,-1.279,-9.623e-16,0,0,0.0364,7.7932e-18,0,-2.502e-15,0,0,1,-2.3235e-15,0,1,-1.251,-1.279,-1.279,-1.9691e-12,-1.2697,0.028,1.1275e-06,0.48,0.48,0
0.2275,-7.1033e-17,0.5,-1.25,-1.25,-1.25,-2.844e-16,0,0,1.2724e-15,-3.608e-17,0,-7.3944e-16,0,0,1,-6.0664e-16,0,1,-1.25,-1.25,-1.25,-16.318,-1.25,1.3867e-15,9.1088e-47,0.5,0.48,0
0.22714,-6.7979e-17,0.48,-1.249,-1.221,-1.221,1.7918e-16,0,0,-0.0364,-1.7658e-16,0,4.6587e-16,0,0,1,3.251e-16,0,1,-1.221,-1.249,-1.221,90,-1.2303,0.028,-1.1275e-06,0.52,0.48,0
0.22604,-7.1649e-17,0.46,-1.248,-1.192,-1.192,2.0206e-16,0,0,-0.0728,-1.3885e-16,0,5.2536e-16,0,0,1,-6.0664e-16,0,1,-1.192,-1.248,-1.192,90,-1.2107,0.056,-9.0196e-06,0.54,0.48,0
0.22422,-6.3285e-17,0.44,-1.247,-1.163,-1.163,2.0466e-15,0,0,-0.1092,-2.009e-16,0,5.3211e-15,0,0,1,5.1953e-16,0,1,-1.163,-1.247,-1.163,90,-1.191,0.084,-3.0441e-05,0.56,0.48,0
0.22168,1.1627e-16,0.42,-1.246,-1.134,-1.134,1.1674e-15,0,0,-0.1456,-8.7087e-17,0,3.0353e-15,0,0,1,2.4701e-15,0,1,-1.134,-1.246,-1.134,90,-1.1713,0.112,-7.2157e-05,0.58,0.48,0
0.2184,1.0794e-16,0.4,-1.245,-1.105,-1.105,-2.562e-16,0,0,-0.182,5.6895e-17,0,-6.6613e-16,0,0,1,-6.0664e-16,0,1,-1.105,-1.245,-1.105,-90,-1.1517,0.14,-0.00014093,0.6,0.48,0
0.2144,9.521e-17,0.38,-1.244,-1.076,-1.076,5.4143e-17,0,0,-0.2184,-2.0211e-16,0,1.4077e-16,0,0,1,-4.4409e-16,0,1,-1.076,-1.244,-1.076,90,-1.132,0.168,-0.00024353,0.62,0.48,0
0.20966,1.0436e-16,0.36,-1.243,-1.047,-1.047,4.7809e-16,0,0,-0.2548,1.0068e-16,0,1.243e-15,0,0,1,1.6255e-16,0,1,-1.047,-1.243,-1.047,90,-1.1123,0.196,-0.00038672,0.64,0.48,0
0.2042,1.047e-16,0.34,-1.242,-1.018,-1.018,-3.1259e-17,0,0,-0.2912,-4.3787e-17,0,-8.1274e-17,0,0,1,-4.4409e-16,0,1,-1.018,-1.242,-1.018,-90,-1.0927,0.224,-0.00057726,0.66,0.48,0
0.19802,1.1436e-16,0.32,-1.241,-0.989,-0.989,-1.9924e-15,0,0,-0.3276,-1.9054e-16,0,-5.1803e-15,0,0,1,-1.2292e-15,0,1,-0.989,-1.241,-0.989,-90,-1.073,0.252,-0.00082192,0.68,0.48,0
0.1911,-5.386e-17,0.3,-1.24,-0.96,-0.96,-1.0164e-15,0,0,-0.364,2.2368e-17,0,-2.6428e-15,0,0,1,-3.0491e-15,0,1,-0.96,-1.24,-0.96,-90,-1.0533,0.28,-0.0011275,0.7,0.48,0
0.18346,-5.73e-17,0.28,-1.239,-0.931,-0.931,4.2701e-17,0,0,-0.4004,-6.2558e-17,0,1.1102e-16,0,0,1,-9.6945e-16,0,1,-0.931,-1.239,-0.931,90,-1.0337,0.308,-0.0015006,0.72,0.48,0
0.17508,-4.8491e-17,0.26,-1.238,-0.902,-0.902,6.3745e-16,0,0,-0.4368,-5.2915e-17,0,1.6574e-15,0,0,1,-1.4077e-16,0,1,-0.902,-1.238,-0.902,90,-1.014,0.336,-0.0019482,0.74,0.48,0
0.16598,-4.6173e-17,0.24,-1.237,-0.873,-0.873,-2.3332e-16,0,0,-0.4732,2.3874e-16,0,-6.0664e-16,0,0,1,0,0,1,-0.873,-1.237,-0.873,-90,-0.99433,0.364,-0.002477,0.76,0.48,0
0.15616,-5.7091e-17,0.22,-1.236,-0.844,-0.844,-2.0206e-16,0,0,-0.5096,-7.6222e-17,0,-5.2536e-16,0,0,1,0,0,1,-0.844,-1.236,-0.844,-90,-0.97467,0.392,-0.0030937,0.78,0.48,0
0.1456,-4.9702e-17,0.2,-1.235,-0.815,-0.815,1.5696e-15,0,0,-0.546,1.4026e-16,0,4.081e-15,0,0,1,6.4436e-16,0,1,-0.815,-1.235,-0.815,90,-0.955,0.42,-0.0038052,0.8,0.48,0
0.13432,9.6142e-17,0.18,-1.234,-0.786,-0.786,7.8731e-16,0,0,-0.5824,6.541e-17,0,2.047e-15,0,0,1,2.9301e-15,0,1,-0.786,-1.234,-0.786,90,-0.93533,0.448,-0.0046181,0.82,0.48,0
0.1223,9.6538e-17,0.16,-1.233,-0.757,-0.757,9.9088e-18,0,0,-0.6188,1.1723e-16,0,2.5763e-17,0,0,1,-9.0996e-16,0,1,-0.757,-1.233,-0.757,90,-0.91567,0.476,-0.0055392,0.84,0.48,0
0.10956,1.0161e-16,0.14,-1.232,-0.728,-0.728,-8.5402e-17,0,0,-0.6552,1.3135e-16,0,-2.2204e-16,0,0,1,4.6587e-16,0,1,-0.728,-1.232,-0.728,-90,-0.896,0.504,-0.0065753,0.86,0.48,0
0.096096,9.6601e-17,0.12,-1.231,-0.699,-0.699,-2.3332e-16,0,0,-0.6916,1.3709e-16,0,-6.0664e-16,0,0,1,-8.1274e-17,0,1,-0.699,-1.231,-0.699,-90,-0.87633,0.532,-0.0077332,0.88,0.48,0
0.0819,9.5167e-17,0.1,-1.23,-0.67,-0.67,1.3724e-16,0,0,-0.728,2.0638e-16,0,3.5684e-16,0,0,1,-3.0332e-16,0,1,-0.67,-1.23,-0.67,90,-0.85667,0.56,-0.0090197,0.9,0.48,0
0.066976,9.4206e-17,0.08,-1.229,-0.641,-0.641,-1.1108e-15,0,0,-0.7644,-3.5512e-17,0,-2.888e-15,0,0,1,-6.0571e-16,0,1,-0.641,-1.229,-0.641,-90,-0.837,0.588,-0.010441,0.92,0.48,0
0.051324,-3.3112e-17,0.06,-1.2198,-0.6085,-0.6085,-9.3802e-16,0,0,-0.79473,1.3389e-16,0,-2.4389e-15,0,0,1,-2.3189e-15,0,1,-0.6085,-1.2198,-0.6085,-90,-0.81228,0.61133,-0.011734,0.94,0.48,0
0.034944,-3.2705e-17,0.04,-1.2352,-0.5865,-0.5865,-2.8723e-17,0,0,-0.84327,-2.8165e-18,0,-7.4679e-17,0,0,1,-3.1686e-16,0,1,-0.5865,-1.2352,-0.5865,-90,-0.80272,0.64867,-0.014018,0.96,0.48,0
0.017836,-3.3329e-17,0.02,-1.226,-0.554,-0.554,-2.702e-17,0,0,-0.8736,1.0052e-17,0,-7.0252e-17,0,0,1,9.6148e-17,0,1,-0.554,-1.226,-0.554,-90,-0.778,0.672,-0.015586,0.98,0.48,0
0,-3.3259e-17,0,-1.2005,-0.5145,-0.5145,-2.8604e-18,0,0,-0.8918,3.6597e-17,0,-7.4371e-18,0,0,1,-2.0318e-17,0,1,-0.5145,-1.2005,-0.5145,-90,-0.74317,0.686,-0.016581,1,0.48,0
0,2.1529e-17,1,-1.2995,-1.9855,-1.9855,-2.1453e-18,0,0,0.8918,1.6062e-17,0,-5.5778e-18,0,0,1,0,0,1,-1.2995,-1.9855,-1.9855,-1.7918e-16,-1.7568,0.686,0.016581,0,0.5,0
0.017836,2.1703e-17,0.98,-1.274,-1.946,-1.946,-1.0537e-16,0,0,0.8736,-1.0654e-16,0,-2.7395e-16,0,0,1,4.29e-15,0,1,-1.274,-1.946,-1.946,-8.9837e-15,-1.722,0.672,0.015586,0.02,0.5,0
0.034944,1.9184e-17,0.96,-1.273,-1.917,-1.917,2.1541e-16,0,0,0.8372,-2.4376e-17,0,5.6006e-16,0,0,1,-4.6151e-15,0,1,-1.273,-1.917,-1.917,1.9164e-14,-1.7023,0.644,0.013718,0.04,0.5,0
0.051324,3.5987e-17,0.94,-1.272,-1.888,-1.888,2.9357e-16,0,0,0.8008,-2.8427e-17,0,7.6328e-16,0,0,1,6.5019e-16,0,1,-1.272,-1.888,-1.888,2.7306e-14,-1.6827,0.616,0.012005,0.06,0.5,0
0.066976,5.3504e-17,0.92,-1.271,-1.859,-1.859,-8.6935e-17,0,0,0.7644,-7.9875e-18,0,-2.2603e-16,0,0,1,-3.0767e-15,0,1,-1.271,-1.859,-1.859,-8.4711e-15,-1.663,0.588,0.010441,0.08,0.5,0
0.0819,1.9695e-17,0.9,-1.2618,-1.8265,-1.8265,-5.9019e-16,0,0,0.73407,1.1657e-16,0,-1.5345e-15,0,0,1,3.6689e-15,0,1,-1.2618,-1.8265,-1.8265,-5.9885e-14,-1.6383,0.56467,0.009247,0.1,0.5,0
0.096096,1.2977e-17,0.88,-1.2772,-1.8045,-1.8045,-8.5402e-17,0,0,0.68553,1.4262e-16,0,-2.2204e-16,0,0,1,7.5078e-16,0,1,-1.2772,-1.8045,-1.8045,-9.2791e-15,-1.6287,0.52733,0.0075315,0.12,0.5,0
0.10956,7.5576e-18,0.86,-1.268,-1.772,-1.772,3.9422e-16,0,0,0.6552,6.0696e-17,0,1.025e-15,0,0,1,8.1678e-15,0,1,-1.268,-1.772,-1.772,4.4815e-14,-1.604,0.504,0.0065753,0.14,0.5,0
0.1223,5.5349e-17,0.84,-1.267,-1.743,-1.743,-3.4325e-17,0,0,0.6188,1.8158e-17,0,-8.9245e-17,0,0,1,-6.0664e-15,0,1,-1.267,-1.743,-1.743,-4.1317e-15,-1.5843,0.476,0.0055392,0.16,0.5,0
0.13432,-1.6303e-17,0.82,-1.266,-1.714,-1.714,-1.2196e-15,0,0,0.5824,-1.7528e-16,0,-3.171e-15,0,0,1,4.6151e-15,0,1,-1.266,-1.714,-1.714,-1.5598e-13,-1.5647,0.448,0.0046181,0.18,0.5,0
0.1456,-1.0966e-17,0.8,-1.265,-1.685,-1.685,4.0413e-16,0,0,0.546,1.3651e-16,0,1.0507e-15,0,0,1,-2.1014e-15,0,1,-1.265,-1.685,-1.685,5.513e-14,-1.545,0.42,0.0038052,0.2,0.5,0
0.15616,2.2222e-17,0.78,-1.264,-1.656,-1.656,2.6458e-16,0,0,0.5096,2.5131e-16,0,6.8791e-16,0,0,1,-7.6918e-16,0,1,-1.264,-1.656,-1.656,3.8672e-14,-1.5253,0.392,0.0030937,0.22,0.5,0
0.16598,-2.7907e-17,0.76,-1.263,-1.627,-1.627,-6.8015e-16,0,0,0.4732,-6.5207e-17,0,-1.7684e-15,0,0,1,1.4194e-15,0,1,-1.263,-1.627,-1.627,-1.0706e-13,-1.5057,0.364,0.002477,0.24,0.5,0
0.17508,-2.5813e-17,0.74,-1.262,-1.598,-1.598,2.4652e-32,0,0,0.4368,-9.9262e-17,0,9.8608e-32,0,0,1,0,0,1,-1.262,-1.598,-1.598,4.2037e-30,-1.486,0.336,0.0019482,0.26,0.5,0
0.18346,-2.8518e-17,0.72,-1.261,-1.569,-1.569,7.2898e-16,0,0,0.4004,-8.464e-17,0,1.8953e-15,0,0,1,1.2133e-15,0,1,-1.261,-1.569,-1.569,1.3561e-13,-1.4663,0.308,0.0015006,0.28,0.5,0
0.1911,6.0942e-17,0.7,-1.2518,-1.5365,-1.5365,2.0415e-15,0,0,0.37007,-2.3612e-16,0,5.3078e-15,0,0,1,-4.3346e-16,0,1,-1.2518,-1.5365,-1.5365,4.1089e-13,-1.4416,0.28467,0.0011848,0.3,0.5,0
0.19802,5.9542e-17,0.68,-1.2672,-1.5145,-1.5145,-3.111e-16,0,0,0.32153,-2.2182e-16,0,-8.0885e-16,0,0,1,0,0,1,-1.2672,-1.5145,-1.5145,-7.2067e-14,-1.4321,0.24733,0.00077709,0.32,0.5,0
0.2042,6.1086e-17,0.66,-1.258,-1.482,-1.482,-1.2581e-15,0,0,0.2912,-3.2533e-16,0,-3.2712e-15,0,0,1,-1.2133e-15,0,1,-1.258,-1.482,-1.482,-3.2181e-13,-1.4073,0.224,0.00057726,0.34,0.5,0
0.20966,-3.9553e-17,0.64,-1.257,-1.453,-1.453,-1.6851e-15,0,0,0.2548,6.4868e-17,0,-4.3814e-15,0,0,1,3.251e-16,0,1,-1.257,-1.453,-1.453,-4.9261e-13,-1.3877,0.196,0.00038672,0.36,0.5,0
0.2144,-4.7612e-17,0.62,-1.256,-1.424,-1.424,3.9635e-17,0,0,0.2184,-7.1255e-17,0,1.0305e-16,0,0,1,0,0,1,-1.256,-1.424,-1.424,1.3517e-14,-1.368,0.168,0.00024353,0.38,0.5,0
0.2184,-5.0938e-17,0.6,-1.255,-1.395,-1.395,5.4674e-16,0,0,0.182,-1.9488e-16,0,1.4215e-15,0,0,1,1.2133e-15,0,1,-1.255,-1.395,-1.395,2.2375e-13,-1.3483,0.14,0.00014093,0.4,0.5,0
0.22168,4.3203e-17,0.58,-1.254,-1.366,-1.366,1.1072e-15,0,0,0.1456,5.0518e-17,0,2.8786e-15,0,0,1,-3.251e-16,0,1,-1.254,-1.366,-1.366,5.6639e-13,-1.3287,0.112,7.2157e-05,0.42,0.5,0
0.22422,4.2747e-17,0.56,-1.253,-1.337,-1.337,-7.8537e-16,0,0,0.1092,-1.6896e-16,0,-2.042e-15,0,0,1,0,0,1,-1.253,-1.337,-1.337,-5.3569e-13,-1.309,0.084,3.0441e-05,0.44,0.5,0
0.22604,3.4196e-17,0.54,-1.2438,-1.3045,-1.3045,-3.1518e-16,0,0,0.078867,5.5711e-17,0,-8.1948e-16,0,0,1,-1.7764e-15,0,1,-1.2438,-1.3045,-1.3045,-2.9767e-13,-1.2843,0.060667,1.1468e-05,0.46,0.5,0
0.22714,-6.3147e-17,0.52,-1.2592,-1.2825,-1.2825,-2.9993e-16,0,0,0.030333,-1.0503e-17,0,-7.7981e-16,0,0,1,1.0256e-15,0,1,-1.2592,-1.2825,-1.2825,-7.3648e-13,-1.2747,0.023333,6.5246e-07,0.48,0.5,0
0.2275,-7.2913e-17,0.5,-1.2418,-1.2465,-1.2465,-9.0686e-16,0,0,0.0060667,-5.4917e-17,0,-2.3578e-15,0,0,1,-8.0885e-16,0,1,-1.2418,-1.2465,-1.2465,-1.1134e-11,-1.2449,0.0046667,5.2197e-09,0.5,0.5,0
0.22714,-7.2883e-17,0.48,-1.2572,-1.2245,-1.2245,1.1387e-16,0,0,-0.042467,-2.7802e-16,0,2.9606e-16,0,0,1,6.5738e-32,0,1,-1.2245,-1.2572,-1.2245,90,-1.2354,0.032667,-1.7904e-06,0.52,0.5,0
0.22604,-7.6035e-17,0.46,-1.2398,-1.1885,-1.1885,-3.111e-16,0,0,-0.066733,-1.7133e-16,0,-8.0885e-16,0,0,1,2.4265e-15,0,1,-1.1885,-1.2398,-1.1885,-90,-1.2056,0.051333,-6.9474e-06,0.54,0.5,0
0.22422,-6.7496e-17,0.44,-1.2552,-1.1665,-1.1665,2.8579e-15,0,0,-0.11527,-1.6309e-16,0,7.4305e-15,0,0,1,-1.5171e-15,0,1,-1.1665,-1.2552,-1.1665,90,-1.1961,0.088667,-3.5802e-05,0.56,0.5,0
0.22168,1.1306e-16,0.42,-1.2378,-1.1305,-1.1305,8.4694e-16,0,0,-0.13953,-2.1868e-16,0,2.202e-15,0,0,1,4.0443e-15,0,1,-1.1305,-1.2378,-1.1305,90,-1.1663,0.10733,-6.3508e-05,0.58,0.5,0
0.2184,1.0957e-16,0.4,-1.2532,-1.1085,-1.1085,1.9723e-16,0,0,-0.18807,1.1124e-17,0,5.1279e-16,0,0,1,-8.0885e-16,0,1,-1.1085,-1.2532,-1.1085,90,-1.1567,0.14467,-0.0001555,0.6,0.5,0
0.2144,9.4412e-17,0.38,-1.2358,-1.0725,-1.0725,-3.4161e-16,0,0,-0.21233,-5.5393e-17,0,-8.8818e-16,0,0,1,-5.9212e-16,0,1,-1.0725,-1.2358,-1.0725,-90,-1.1269,0.16333,-0.00022379,0.62,0.5,0
0.20966,1.0125e-16,0.36,-1.2512,-1.0505,-1.0505,6.1102e-16,0,0,-0.26087,-1.1104e-16,0,1.5887e-15,0,0,1,2.1673e-16,0,1,-1.0505,-1.2512,-1.0505,90,-1.1174,0.20067,-0.000415,0.64,0.5,0
0.2042,1.0422e-16,0.34,-1.242,-1.018,-1.018,3.1872e-16,0,0,-0.2912,-2.9676e-17,0,8.2868e-16,0,0,1,-4.4409e-16,0,1,-1.018,-1.242,-1.018,90,-1.0927,0.224,-0.00057726,0.66,0.5,0
0.19802,1.096e-16,0.32,-1.241,-0.989,-0.989,-1.6394e-15,0,0,-0.3276,-9.9479e-17,0,-4.2624e-15,0,0,1,-1.6138e-15,0,1,-0.989,-1.241,-0.989,-90,-1.073,0.252,-0.00082192,0.68,0.5,0
0.1911,-5.4907e-17,0.3,-1.24,-0.96,-0.96,-1.1133e-15,0,0,-0.364,-6.0554e-17,0,-2.8946e-15,0,0,1,-2.7081e-15,0,1,-0.96,-1.24,-0.96,-90,-1.0533,0.28,-0.0011275,0.7,0.5,0
0.18346,-5.4259e-17,0.28,-1.239,-0.931,-0.931,1.1666e-16,0,0,-0.4004,1.5747e-16,0,3.0332e-16,0,0,1,0,0,1,-0.931,-1.239,-0.931,90,-1.0337,0.308,-0.0015006,0.72,0.5,0
0.17508,-5.2716e-17,0.26,-1.238,-0.902,-0.902,-1.5936e-16,0,0,-0.4368,-1.3421e-16,0,-4.1434e-16,0,0,1,0,0,1,-0.902,-1.238,-0.902,-90,-1.014,0.336,-0.0019482,0.74,0.5,0
0.16598,-4.3107e-17,0.24,-1.237,-0.873,-0.873,1.9818e-17,0,0,-0.4732,5.817e-17,0,5.1526e-17,0,0,1,0,0,1,-0.873,-1.237,-0.873,90,-0.99433,0.364,-0.002477,0.76,0.5,0
0.15616,-5.6118e-17,0.22,-1.236,-0.844,-0.844,-7.396e-17,0,0,-0.5096,9.388e-17,0,-1.923e-16,0,0,1,0,0,1,-0.844,-1.236,-0.844,-90,-0.97467,0.392,-0.0030937,0.78,0.5,0
0.1456,-4.7766e-17,0.2,-1.235,-0.815,-0.815,1.3264e-15,0,0,-0.546,4.9105e-18,0,3.4486e-15,0,0,1,7.0385e-16,0,1,-0.815,-1.235,-0.815,90,-0.955,0.42,-0.0038052,0.8,0.5,0
0.13432,9.8817e-17,0.18,-1.234,-0.786,-0.786,8.5555e-16,0,0,-0.5824,1.0083e-16,0,2.2244e-15,0,0,1,2.6268e-15,0,1,-0.786,-1.234,-0.786,90,-0.93533,0.448,-0.0046181,0.82,0.5,0
0.1223,9.8055e-17,0.16,-1.233,-0.757,-0.757,6.9772e-17,0,0,-0.6188,6.8049e-17,0,1.8141e-16,0,0,1,-3.9443e-31,0,1,-0.757,-1.233,-0.757,90,-0.91567,0.476,-0.0055392,0.84,0.5,0
0.10956,1.0058e-16,0.14,-1.232,-0.728,-0.728,-1.1666e-16,0,0,-0.6552,-2.4098e-17,0,-3.0332e-16,0,0,1,8.1274e-17,0,1,-0.728,-1.232,-0.728,-90,-0.896,0.504,-0.0065753,0.86,0.5,0
0.096096,9.8448e-17,0.12,-1.231,-0.699,-0.699,-2.8746e-16,0,0,-0.6916,8.8088e-17,0,-7.4741e-16,0,0,1,-6.0664e-16,0,1,-0.699,-1.231,-0.699,-90,-0.87633,0.532,-0.0077332,0.88,0.5,0
0.0819,9.7321e-17,0.1,-1.23,-0.67,-0.67,1.3275e-18,0,0,-0.728,5.6845e-18,0,3.4516e-18,0,0,1,8.1274e-17,0,1,-0.67,-1.23,-0.67,90,-0.85667,0.56,-0.0090197,0.9,0.5,0
0.066976,9.2657e-17,0.08,-1.229,-0.641,-0.641,-8.866e-16,0,0,-0.7644,5.6179e-17,0,-2.3052e-15,0,0,1,-9.0704e-16,0,1,-0.641,-1.229,-0.641,-90,-0.837,0.588,-0.010441,0.92,0.5,0
0.051324,-3.1349e-17,0.06,-1.2035,-0.6015,-0.6015,-1.5559e-15,0,0,-0.7826,5.286e-17,0,-4.0454e-15,0,0,1,-3.737e-15,0,1,-0.6015,-1.2035,-0.6015,-90,-0.80217,0.602,-0.011205,0.94,0.5,0
0.034944,-3.4367e-17,0.04,-1.2515,-0.5935,-0.5935,8.8926e-17,0,0,-0.8554,-6.4569e-17,0,2.3121e-16,0,0,1,-2.4652e-32,0,1,-0.5935,-1.2515,-0.5935,90,-0.81283,0.658,-0.014632,0.96,0.5,0
0.017836,-3.4742e-17,0.02,-1.2178,-0.5505,-0.5505,1.5698e-17,0,0,-0.86753,-5.0062e-17,0,4.0815e-17,0,0,1,-4.378e-17,0,1,-0.5505,-1.2178,-0.5505,90,-0.77294,0.66733,-0.015263,0.98,0.5,0
0,-3.4345e-17,0,-1.2005,-0.5145,-0.5145,1.3536e-17,0,0,-0.8918,-5.4304e-17,0,3.5193e-17,0,0,1,-3.5193e-17,0,1,-0.5145,-1.2005,-0.5145,90,-0.74317,0.686,-0.016581,1,0.5,0
0,2.1199e-17,1,-1.2995,-1.9855,-1.9855,-3.5026e-17,0,0,0.8918,-1.7349e-17,0,-9.1069e-17,0,0,1,0,0,1,-1.2995,-1.9855,-1.9855,-2.9254e-15,-1.7568,0.686,0.016581,0,0.52,0
0.017836,1.8927e-17,0.98,-1.2658,-1.9425,-1.9425,-8.6193e-17,0,0,0.87967,-2.0046e-17,0,-2.241e-16,0,0,1,1.459e-15,0,1,-1.2658,-1.9425,-1.9425,-7.2983e-15,-1.7169,0.67667,0.015913,0.02,0.52,0
0.034944,1.9618e-17,0.96,-1.2812,-1.9205,-1.9205,2.0892e-16,0,0,0.83113,-5.0793e-17,0,5.432e-16,0,0,1,-3.5102e-15,0,1,-1.2812,-1.9205,-1.9205,1.8723e-14,-1.7074,0.63933,0.013422,0.04,0.52,0
0.051324,3.3093e-17,0.94,-1.272,-1.888,-1.888,4.7581e-16,0,0,0.8008,-2.0116e-16,0,1.2371e-15,0,0,1,6.5019e-16,0,1,-1.272,-1.888,-1.888,4.4257e-14,-1.6827,0.616,0.012005,0.06,0.52,0
0.066976,5.6168e-17,0.92,-1.271,-1.859,-1.859,-1.3173e-16,0,0,0.7644,2.5977e-16,0,-3.425e-16,0,0,1,-3.0767e-15,0,1,-1.271,-1.859,-1.859,-1.2836e-14,-1.663,0.588,0.010441,0.08,0.52,0
0.0819,1.9997e-17,0.9,-1.2618,-1.8265,-1.8265,-7.5997e-16,0,0,0.73407,1.6541e-16,0,-1.9759e-15,0,0,1,3.6689e-15,0,1,-1.2618,-1.8265,-1.8265,-7.7113e-14,-1.6383,0.56467,0.009247,0.1,0.52,0
0.096096,1.8365e-17,0.88,-1.2772,-1.8045,-1.8045,9.3029e-17,0,0,0.68553,6.7288e-17,0,2.4188e-16,0,0,1,-7.5078e-16,0,1,-1.2772,-1.8045,-1.8045,1.0108e-14,-1.6287,0.52733,0.0075315,0.12,0.52,0
0.10956,8.5946e-18,0.86,-1.268,-1.772,-1.772,3.8584e-16,0,0,0.6552,1.3035e-16,0,1.0032e-15,0,0,1,-2.7835e-15,0,1,-1.268,-1.772,-1.772,4.3863e-14,-1.604,0.504,0.0065753,0.14,0.52,0
0.1223,5.0136e-17,0.84,-1.267,-1.743,-1.743,-3.5858e-17,0,0,0.6188,-3.5965e-17,0,-9.323e-17,0,0,1,-2.9577e-15,0,1,-1.267,-1.743,-1.743,-4.3162e-15,-1.5843,0.476,0.0055392,0.16,0.52,0
0.13432,-1.651e-17,0.82,-1.266,-1.714,-1.714,-1.0431e-15,0,0,0.5824,9.3706e-17,0,-2.7121e-15,0,0,1,6.5019e-16,0,1,-1.266,-1.714,-1.714,-1.3341e-13,-1.5647,0.448,0.0046181,0.18,0.52,0
0.1456,-1.1769e-17,0.8,-1.265,-1.685,-1.685,6.4051e-16,0,0,0.546,-8.3592e-17,0,1.6653e-15,0,0,1,8.7109e-17,0,1,-1.265,-1.685,-1.685,8.7378e-14,-1.545,0.42,0.0038052,0.2,0.52,0
0.15616,2.6835e-17,0.78,-1.264,-1.656,-1.656,-6.5584e-17,0,0,0.5096,1.3257e-16,0,-1.7052e-16,0,0,1,-5.8284e-15,0,1,-1.264,-1.656,-1.656,-9.586e-15,-1.5253,0.392,0.0030937,0.22,0.52,0
0.16598,-2.9539e-17,0.76,-1.263,-1.627,-1.627,-8.5095e-16,0,0,0.4732,9.3183e-17,0,-2.2125e-15,0,0,1,6.5019e-16,0,1,-1.263,-1.627,-1.627,-1.3394e-13,-1.5057,0.364,0.002477,0.24,0.52,0
0.17508,-3.0625e-17,0.74,-1.262,-1.598,-1.598,1.4791e-31,0,0,0.4368,-2.6332e-16,0,9.8608e-32,0,0,1,0,0,1,-1.262,-1.598,-1.598,2.5222e-29,-1.486,0.336,0.0019482,0.26,0.52,0
0.18346,-3.0062e-17,0.72,-1.261,-1.569,-1.569,7.2898e-16,0,0,0.4004,-5.745e-17,0,1.8953e-15,0,0,1,1.0943e-15,0,1,-1.261,-1.569,-1.569,1.3561e-13,-1.4663,0.308,0.0015006,0.28,0.52,0
0.1911,5.6695e-17,0.7,-1.26,-1.54,-1.54,1.4571e-15,0,0,0.364,-1.5414e-16,0,3.7886e-15,0,0,1,-2.3076e-15,0,1,-1.26,-1.54,-1.54,2.9817e-13,-1.4467,0.28,0.0011275,0.3,0.52,0
0.19802,5.4326e-17,0.68,-1.259,-1.511,-1.511,-5.2079e-16,0,0,0.3276,-2.2446e-16,0,-1.354e-15,0,0,1,6.5019e-16,0,1,-1.259,-1.511,-1.511,-1.1841e-13,-1.427,0.252,0.00082192,0.32,0.52,0
0.2042,5.5581e-17,0.66,-1.258,-1.482,-1.482,-1.2925e-15,0,0,0.2912,-1.6494e-16,0,-3.3604e-15,0,0,1,-1.2133e-15,0,1,-1.258,-1.482,-1.482,-3.3059e-13,-1.4073,0.224,0.00057726,0.34,0.52,0
0.20966,-3.8307e-17,0.64,-1.257,-1.453,-1.453,-1.5342e-15,0,0,0.2548,-1.2658e-16,0,-3.9888e-15,0,0,1,3.251e-16,0,1,-1.257,-1.453,-1.453,-4.4848e-13,-1.3877,0.196,0.00038672,0.36,0.52,0
0.2144,-4.7542e-17,0.62,-1.256,-1.424,-1.424,-4.5767e-17,0,0,0.2184,2.3238e-17,0,-1.1899e-16,0,0,1,0,0,1,-1.256,-1.424,-1.424,-1.5609e-14,-1.368,0.168,0.00024353,0.38,0.52,0
0.2184,-5.4668e-17,0.6,-1.255,-1.395,-1.395,8.342e-16,0,0,0.182,-1.7439e-16,0,2.1689e-15,0,0,1,1.2133e-15,0,1,-1.255,-1.395,-1.395,3.414e-13,-1.3483,0.14,0.00014093,0.4,0.52,0
0.22168,4.387e-17,0.58,-1.2622,-1.3695,-1.3695,6.527e-16,0,0,0.13953,-1.5336e-16,0,1.697e-15,0,0,1,-4.3346e-16,0,1,-1.2622,-1.3695,-1.3695,3.1841e-13,-1.3337,0.10733,6.4949e-05,0.42,0.52,0
0.22422,3.6896e-17,0.56,-1.253,-1.337,-1.337,-4.2701e-17,0,0,0.1092,-1.8894e-16,0,-1.1102e-16,0,0,1,0,0,1,-1.253,-1.337,-1.337,-2.9126e-14,-1.309,0.084,3.0441e-05,0.44,0.52,0
0.22604,3.5365e-17,0.54,-1.2397,-1.3028,-1.3028,-4.6133e-16,0,0,0.0819,-3.3912e-19,0,-1.1995e-15,0,0,1,-1.1262e-15,0,1,-1.2397,-1.3028,-1.3028,-3.7184e-13,-1.2817,0.063,1.3318e-05,0.46,0.52,0
0.22714,-6.2713e-17,0.52,-1.2632,-1.2842,-1.2842,-5.2385e-16,0,0,0.0273,-4.2978e-17,0,-1.362e-15,0,0,1,-6.6294e-15,0,1,-1.2632,-1.2842,-1.2842,-1.1656e-12,-1.2772,0.021,6.3419e-07,0.48,0.52,0
0.2275,-7.2449e-17,0.5,-1.2377,-1.2448,-1.2448,-5.1077e-17,0,0,0.0091,-2.2668e-17,0,-1.328e-16,0,0,1,6.5019e-16,0,1,-1.2377,-1.2448,-1.2448,-31.723,-1.2424,0.007,7.0466e-08,0.5,0.52,0
0.22714,-7.9757e-17,0.48,-1.2612,-1.2263,-1.2263,-4.5296e-16,0,0,-0.0455,-1.6159e-16,0,-1.1777e-15,0,0,1,6.5019e-16,0,1,-1.2263,-1.2612,-1.2263,3.7659e-13,-1.2379,0.035,-2.4663e-06,0.52,0.52,0
0.22604,-7.7544e-17,0.46,-1.2357,-1.1867,-1.1867,2.9891e-16,0,0,-0.0637,-7.9883e-17,0,7.7716e-16,0,0,1,-4.8531e-15,0,1,-1.1867,-1.2357,-1.1867,90,-1.2031,0.049,-6.4124e-06,0.54,0.52,0
0.22422,-6.886e-17,0.44,-1.2592,-1.1683,-1.1683,2.8121e-15,0,0,-0.1183,-1.7648e-16,0,7.3115e-15,0,0,1,-2.0855e-15,0,1,-1.1683,-1.2592,-1.1683,90,-1.1986,0.091,-3.9391e-05,0.56,0.52,0
0.22168,1.0636e-16,0.42,-1.2337,-1.1287,-1.1287,1.9475e-15,0,0,-0.1365,-2.6108e-16,0,5.0635e-15,0,0,1,5.3567e-15,0,1,-1.1287,-1.2337,-1.1287,90,-1.1638,0.105,-6.0248e-05,0.58,0.52,0
0.2184,1.0698e-16,0.4,-1.2572,-1.1102,-1.1102,-5.2079e-16,0,0,-0.1911,-2.2697e-16,0,-1.354e-15,0,0,1,0,0,1,-1.1102,-1.2572,-1.1102,-90,-1.1592,0.147,-0.00016426,0.6,0.52,0
0.2144,9.2686e-17,0.38,-1.2317,-1.0708,-1.0708,2.3639e-16,0,0,-0.2093,-5.4154e-17,0,6.1461e-16,0,0,1,0,0,1,-1.0708,-1.2317,-1.0708,90,-1.1244,0.161,-0.00021556,0.62,0.52,0
0.20966,1.0082e-16,0.36,-1.2552,-1.0522,-1.0522,-1.9369e-16,0,0,-0.2639,3.3843e-17,0,-5.0359e-16,0,0,1,0,0,1,-1.0522,-1.2552,-1.0522,4.9738e-14,-1.1199,0.203,-0.00043118,0.64,0.52,0
0.2042,1.0351e-16,0.34,-1.242,-1.018,-1.018,2.9584e-16,0,0,-0.2912,-4.1201e-17,0,7.6918e-16,0,0,1,0,0,1,-1.018,-1.242,-1.018,90,-1.0927,0.224,-0.00057726,0.66,0.52,0
0.19802,1.1038e-16,0.32,-1.241,-0.989,-0.989,-2.1289e-15,0,0,-0.3276,-8.29e-17,0,-5.5352e-15,0,0,1,4.3555e-17,0,1,-0.989,-1.241,-0.989,-90,-1.073,0.252,-0.00082192,0.68,0.52,0
0.1911,-5.6282e-17,0.3,-1.24,-0.96,-0.96,-8.2582e-16,0,0,-0.364,1.0753e-16,0,-2.1471e-15,0,0,1,-2.264e-15,0,1,-0.96,-1.24,-0.96,-90,-1.0533,0.28,-0.0011275,0.7,0.52,0
0.18346,-5.1001e-17,0.28,-1.239,-0.931,-0.931,9.3778e-17,0,0,-0.4004,-8.3424e-17,0,2.4382e-16,0,0,1,0,0,1,-0.931,-1.239,-0.931,90,-1.0337,0.308,-0.0015006,0.72,0.52,0
0.17508,-5.386e-17,0.26,-1.238,-0.902,-0.902,-3.1259e-17,0,0,-0.4368,4.0003e-17,0,-8.1274e-17,0,0,1,0,0,1,-0.902,-1.238,-0.902,7.1054e-15,-1.014,0.336,-0.0019482,0.74,0.52,0
0.16598,-4.3846e-17,0.24,-1.237,-0.873,-0.873,1.9062e-16,0,0,-0.4732,-1.2679e-17,0,4.9561e-16,0,0,1,0,0,1,-0.873,-1.237,-0.873,90,-0.99433,0.364,-0.002477,0.76,0.52,0
0.15616,-5.3336e-17,0.22,-1.236,-0.844,-0.844,-1.1666e-16,0,0,-0.5096,6.1756e-17,0,-3.0332e-16,0,0,1,-4.4409e-16,0,1,-0.844,-1.236,-0.844,7.1054e-15,-0.97467,0.392,-0.0030937,0.78,0.52,0
0.1456,-4.9506e-17,0.2,-1.235,-0.815,-0.815,1.2993e-15,0,0,-0.546,-2.5035e-17,0,3.3782e-15,0,0,1,2.8951e-16,0,1,-0.815,-1.235,-0.815,90,-0.955,0.42,-0.0038052,0.8,0.52,0
0.13432,1.0017e-16,0.18,-1.234,-0.786,-0.786,9.5658e-16,0,0,-0.5824,2.5939e-17,0,2.4871e-15,0,0,1,2.375e-15,0,1,-0.786,-1.234,-0.786,90,-0.93533,0.448,-0.0046181,0.82,0.52,0
0.1223,9.926e-17,0.16,-1.233,-0.757,-0.757,5.833e-17,0,0,-0.6188,1.7469e-17,0,1.5166e-16,0,0,1,-1.0507e-15,0,1,-0.757,-1.233,-0.757,90,-0.91567,0.476,-0.0055392,0.84,0.52,0
0.10956,1.0065e-16,0.14,-1.232,-0.728,-0.728,-1.2085e-16,0,0,-0.6552,-2.1597e-17,0,-3.1421e-16,0,0,1,-9.6945e-16,0,1,-0.728,-1.232,-0.728,-90,-0.896,0.504,-0.0065753,0.86,0.52,0
0.096096,1.0012e-16,0.12,-1.231,-0.699,-0.699,1.0103e-16,0,0,-0.6916,2.2984e-17,0,2.6268e-16,0,0,1,-1.4077e-16,0,1,-0.699,-1.231,-0.699,-1.4211e-14,-0.87633,0.532,-0.0077332,0.88,0.52,0
0.0819,9.5394e-17,0.1,-1.23,-0.67,-0.67,6.1191e-17,0,0,-0.728,-3.4084e-17,0,1.591e-16,0,0,1,0,0,1,-0.67,-1.23,-0.67,-7.1054e-15,-0.85667,0.56,-0.0090197,0.9,0.52,0
0.066976,9.6453e-17,0.08,-1.229,-0.641,-0.641,-9.9698e-16,0,0,-0.7644,9.4386e-17,0,-2.5922e-15,0,0,1,-9.4767e-16,0,1,-0.641,-1.229,-0.641,-90,-0.837,0.588,-0.010441,0.92,0.52,0
0.051324,-3.0998e-17,0.06,-1.2158,-0.60675,-0.60675,-1.1844e-15,0,0,-0.7917,-2.1859e-17,0,-3.0794e-15,0,0,1,-2.4439e-15,0,1,-0.60675,-1.2158,-0.60675,-90,-0.80975,0.609,-0.011605,0.94,0.52,0
0.034944,-3.5288e-17,0.04,-1.2352,-0.5865,-0.5865,4.3143e-17,0,0,-0.84327,-6.2646e-17,0,1.1217e-16,0,0,1,-8.756e-17,0,1,-0.5865,-1.2352,-0.5865,90,-0.80272,0.64867,-0.014018,0.96,0.52,0
0.017836,-3.4919e-17,0.02,-1.2178,-0.5505,-0.5505,-2.57e-17,0,0,-0.86753,-4.1961e-17,0,-6.6821e-17,0,0,1,-6.7242e-17,0,1,-0.5505,-1.2178,-0.5505,-90,-0.77294,0.66733,-0.015263,0.98,0.52,0
0,-3.7104e-17,0,-1.2005,-0.5145,-0.5145,-6.7678e-18,0,0,-0.8918,5.9976e-19,0,-1.7596e-17,0,0,1,-3.5193e-17,0,1,-0.5145,-1.2005,-0.5145,-90,-0.74317,0.686,-0.016581,1,0.52,0
0,2.0835e-17,1,-1.2995,-1.9855,-1.9855,2.3444e-17,0,0,0.8918,9.4908e-17,0,6.0956e-17,0,0,1,0,0,1,-1.2995,-1.9855,-1.9855,1.9581e-15,-1.7568,0.686,0.016581,0,0.54,0
0.017836,2.3276e-17,0.98,-1.2658,-1.9425,-1.9425,-1.5885e-17,0,0,0.87967,7.4023e-17,0,-4.1301e-17,0,0,1,5.1279e-15,0,1,-1.2658,-1.9425,-1.9425,-1.3451e-15,-1.7169,0.67667,0.015913,0.02,0.54,0
0.034944,1.5703e-17,0.96,-1.2812,-1.9205,-1.9205,2.4572e-16,0,0,0.83113,-5.8484e-17,0,6.3886e-16,0,0,1,-1.0732e-14,0,1,-1.2812,-1.9205,-1.9205,2.2021e-14,-1.7074,0.63933,0.013422,0.04,0.54,0
0.051324,2.7941e-17,0.94,-1.272,-1.888,-1.888,3.6125e-16,0,0,0.8008,-1.1942e-16,0,9.3924e-16,0,0,1,1.3004e-15,0,1,-1.272,-1.888,-1.888,3.3601e-14,-1.6827,0.616,0.012005,0.06,0.54,0
0.066976,6.3895e-17,0.92,-1.271,-1.859,-1.859,1.1666e-16,0,0,0.7644,1.8524e-16,0,3.0332e-16,0,0,1,-3.0767e-15,0,1,-1.271,-1.859,-1.859,1.1368e-14,-1.663,0.588,0.010441,0.08,0.54,0
0.0819,2.4809e-17,0.9,-1.27,-1.83,-1.83,-5.3586e-16,0,0,0.728,2.0656e-16,0,-1.3932e-15,0,0,1,2.7516e-15,0,1,-1.27,-1.83,-1.83,-5.4825e-14,-1.6433,0.56,0.0090197,0.1,0.54,0
0.096096,1.769e-17,0.88,-1.269,-1.801,-1.801,-3.1035e-16,0,0,0.6916,4.9715e-17,0,-8.069e-16,0,0,1,-5.6308e-16,0,1,-1.269,-1.801,-1.801,-3.3424e-14,-1.6237,0.532,0.0077332,0.12,0.54,0
0.10956,1.2772e-17,0.86,-1.268,-1.772,-1.772,8.2747e-17,0,0,0.6552,8.5126e-17,0,2.1514e-16,0,0,1,-2.3394e-15,0,1,-1.268,-1.772,-1.772,9.4068e-15,-1.604,0.504,0.0065753,0.14,0.54,0
0.1223,5.391e-17,0.84,-1.267,-1.743,-1.743,-3.0658e-18,0,0,0.6188,2.0073e-16,0,-7.971e-18,0,0,1,-4.6151e-15,0,1,-1.267,-1.743,-1.743,-3.6903e-16,-1.5843,0.476,0.0055392,0.16,0.54,0
0.13432,-1.2555e-17,0.82,-1.266,-1.714,-1.714,-1.0446e-15,0,0,0.5824,1.7543e-16,0,-2.7161e-15,0,0,1,-5.9165e-31,0,1,-1.266,-1.714,-1.714,-1.336e-13,-1.5647,0.448,0.0046181,0.18,0.54,0
0.1456,-1.431e-17,0.8,-1.265,-1.685,-1.685,4.5827e-16,0,0,0.546,-3.5091e-17,0,1.1915e-15,0,0,1,5.6223e-15,0,1,-1.265,-1.685,-1.685,6.2516e-14,-1.545,0.42,0.0038052,0.2,0.54,0
0.15616,2.7525e-17,0.78,-1.264,-1.656,-1.656,5.6349e-16,0,0,0.5096,-9.6905e-17,0,1.4651e-15,0,0,1,-3.5208e-15,0,1,-1.264,-1.656,-1.656,8.2361e-14,-1.5253,0.392,0.0030937,0.22,0.54,0
0.16598,-2.4179e-17,0.76,-1.263,-1.627,-1.627,-7.2285e-16,0,0,0.4732,7.767e-17,0,-1.8794e-15,0,0,1,1.5384e-15,0,1,-1.263,-1.627,-1.627,-1.1378e-13,-1.5057,0.364,0.002477,0.24,0.54,0
0.17508,-3.6346e-17,0.74,-1.262,-1.598,-1.598,-2.135e-16,0,0,0.4368,-1.1148e-16,0,-5.5511e-16,0,0,1,6.5019e-16,0,1,-1.262,-1.598,-1.598,-3.6407e-14,-1.486,0.336,0.0019482,0.26,0.54,0
0.18346,-3.0816e-17,0.72,-1.261,-1.569,-1.569,8.2276e-16,0,0,0.4004,-1.0087e-16,0,2.1392e-15,0,0,1,-8.8818e-16,0,1,-1.261,-1.569,-1.569,1.5305e-13,-1.4663,0.308,0.0015006,0.28,0.54,0
0.1911,5.4777e-17,0.7,-1.26,-1.54,-1.54,8.5402e-16,0,0,0.364,-5.8135e-17,0,2.2205e-15,0,0,1,-3.9649e-15,0,1,-1.26,-1.54,-1.54,1.7476e-13,-1.4467,0.28,0.0011275,0.3,0.54,0
0.19802,5.0563e-17,0.68,-1.259,-1.511,-1.511,2.7296e-16,0,0,0.3276,-1.4749e-16,0,7.0969e-16,0,0,1,6.5019e-16,0,1,-1.259,-1.511,-1.511,6.2061e-14,-1.427,0.252,0.00082192,0.32,0.54,0
0.2042,5.4489e-17,0.66,-1.258,-1.482,-1.482,-9.623e-16,0,0,0.2912,-3.7904e-17,0,-2.502e-15,0,0,1,-1.2133e-15,0,1,-1.258,-1.482,-1.482,-2.4614e-13,-1.4073,0.224,0.00057726,0.34,0.54,0
0.20966,-4.4616e-17,0.64,-1.257,-1.453,-1.453,-1.7561e-15,0,0,0.2548,-2.2571e-16,0,-4.5657e-15,0,0,1,3.251e-16,0,1,-1.257,-1.453,-1.453,-5.1334e-13,-1.3877,0.196,0.00038672,0.36,0.54,0
0.2144,-4.6683e-17,0.62,-1.256,-1.424,-1.424,6.2518e-17,0,0,0.2184,-1.6193e-16,0,1.6255e-16,0,0,1,0,0,1,-1.256,-1.424,-1.424,2.1322e-14,-1.368,0.168,0.00024353,0.38,0.54,0
0.2184,-5.7913e-17,0.6,-1.255,-1.395,-1.395,5.0404e-16,0,0,0.182,-2.7474e-16,0,1.3105e-15,0,0,1,1.2133e-15,0,1,-1.255,-1.395,-1.395,2.0628e-13,-1.3483,0.14,0.00014093,0.4,0.54,0
0.22168,3.8936e-17,0.58,-1.254,-1.366,-1.366,1.1926e-15,0,0,0.1456,-1.2201e-16,0,3.1007e-15,0,0,1,-6.5019e-16,0,1,-1.254,-1.366,-1.366,5.5041e-13,-1.3287,0.112,7.554e-05,0.42,0.54,0
0.22422,3.519e-17,0.56,-1.253,-1.337,-1.337,-2.7602e-16,0,0,0.1092,-1.4747e-16,0,-7.1766e-16,0,0,1,0,0,1,-1.253,-1.337,-1.337,-1.8827e-13,-1.309,0.084,3.0441e-05,0.44,0.54,0
0.22604,3.4183e-17,0.54,-1.252,-1.308,-1.308,-7.8006e-16,0,0,0.0728,6.0991e-17,0,-2.0282e-15,0,0,1,-1.6574e-15,0,1,-1.252,-1.308,-1.308,-7.9811e-13,-1.2893,0.056,9.0196e-06,0.46,0.54,0
0.22714,-6.4866e-17,0.52,-1.251,-1.279,-1.279,-9.9356e-16,0,0,0.0364,-4.9386e-17,0,-2.5833e-15,0,0,1,-2.502e-15,0,1,-1.251,-1.279,-1.279,-2.0331e-12,-1.2697,0.028,1.1275e-06,0.48,0.54,0
0.2275,-7.3819e-17,0.5,-1.25,-1.25,-1.25,-3.9268e-16,0,0,3.27e-16,-9.7646e-17,0,-1.021e-15,0,0,1,-2.1014e-15,0,1,-1.25,-1.25,-1.25,-52.894,-1.25,7.6918e-16,0,0.5,0.54,0
0.22714,-7.9346e-17,0.48,-1.249,-1.221,-1.221,1.9818e-17,0,0,-0.0364,-5.6589e-18,0,5.1526e-17,0,0,1,-2.8154e-16,0,1,-1.221,-1.249,-1.221,90,-1.2303,0.028,-1.1275e-06,0.52,0.54,0
0.22604,-7.923e-17,0.46,-1.248,-1.192,-1.192,-9.3778e-17,0,0,-0.0728,-8.6263e-18,0,-2.4382e-16,0,0,1,5.9165e-31,0,1,-1.192,-1.248,-1.192,-90,-1.2107,0.056,-9.0196e-06,0.54,0.54,0
0.22422,-7.4555e-17,0.44,-1.247,-1.163,-1.163,2.1175e-15,0,0,-0.1092,-2.0879e-16,0,5.5054e-15,0,0,1,-8.1274e-16,0,1,-1.163,-1.247,-1.163,90,-1.191,0.084,-3.0441e-05,0.56,0.54,0
0.22168,1.0262e-16,0.42,-1.246,-1.134,-1.134,1.307e-15,0,0,-0.1456,-1.8457e-16,0,3.3981e-15,0,0,1,3.0332e-15,0,1,-1.134,-1.246,-1.134,90,-1.1713,0.112,-7.2157e-05,0.58,0.54,0
0.2184,1.0049e-16,0.4,-1.245,-1.105,-1.105,-2.2188e-16,0,0,-0.182,-2.5971e-16,0,-5.7689e-16,0,0,1,0,0,1,-1.105,-1.245,-1.105,-90,-1.1517,0.14,-0.00014093,0.6,0.54,0
0.2144,9.2245e-17,0.38,-1.244,-1.076,-1.076,-2.7602e-16,0,0,-0.2184,5.3807e-18,0,-7.1766e-16,0,0,1,0,0,1,-1.076,-1.244,-1.076,-90,-1.132,0.168,-0.00024353,0.62,0.54,0
0.20966,1.026e-16,0.36,-1.243,-1.047,-1.047,2.6458e-16,0,0,-0.2548,-1.0203e-17,0,6.8791e-16,0,0,1,-6.0664e-16,0,1,-1.047,-1.243,-1.047,90,-1.1123,0.196,-0.00038672,0.64,0.54,0
0.2042,1.0257e-16,0.34,-1.242,-1.018,-1.018,8.5402e-17,0,0,-0.2912,-5.3153e-17,0,2.2204e-16,0,0,1,1.6255e-16,0,1,-1.018,-1.242,-1.018,90,-1.0927,0.224,-0.00057726,0.66,0.54,0
0.19802,1.0628e-16,0.32,-1.241,-0.989,-0.989,-1.48e-15,0,0,-0.3276,-1.1821e-16,0,-3.8481e-15,0,0,1,4.3555e-17,0,1,-0.989,-1.241,-0.989,-90,-1.073,0.252,-0.00082192,0.68,0.54,0
0.1911,-5.0606e-17,0.3,-1.24,-0.96,-0.96,-1.3893e-15,0,0,-0.364,1.7192e-17,0,-3.6122e-15,0,0,1,-2.264e-15,0,1,-0.96,-1.24,-0.96,-90,-1.0533,0.28,-0.0011275,0.7,0.54,0
0.18346,-5.7596e-17,0.28,-1.239,-0.931,-0.931,4.2701e-17,0,0,-0.4004,-7.6545e-17,0,1.1102e-16,0,0,1,0,0,1,-0.931,-1.239,-0.931,90,-1.0337,0.308,-0.0015006,0.72,0.54,0
0.17508,-5.1116e-17,0.26,-1.238,-0.902,-0.902,-8.5402e-17,0,0,-0.4368,1.2587e-16,0,-2.2204e-16,0,0,1,0,0,1,-0.902,-1.238,-0.902,-90,-1.014,0.336,-0.0019482,0.74,0.54,0
0.16598,-4.3614e-17,0.24,-1.237,-0.873,-0.873,3.1259e-17,0,0,-0.4732,-1.1619e-16,0,8.1274e-17,0,0,1,0,0,1,-0.873,-1.237,-0.873,90,-0.99433,0.364,-0.002477,0.76,0.54,0
0.15616,-5.3648e-17,0.22,-1.236,-0.844,-0.844,-1.1666e-16,0,0,-0.5096,5.0685e-17,0,-3.0332e-16,0,0,1,-2.2204e-16,0,1,-0.844,-1.236,-0.844,-90,-0.97467,0.392,-0.0030937,0.78,0.54,0
0.1456,-4.8768e-17,0.2,-1.235,-0.815,-0.815,1.305e-15,0,0,-0.546,4.1625e-17,0,3.3931e-15,0,0,1,1.1899e-16,0,1,-0.815,-1.235,-0.815,90,-0.955,0.42,-0.0038052,0.8,0.54,0
0.13432,9.9855e-17,0.18,-1.234,-0.786,-0.786,9.3523e-16,0,0,-0.5824,-4.4675e-17,0,2.4316e-15,0,0,1,1.5761e-15,0,1,-0.786,-1.234,-0.786,90,-0.93533,0.448,-0.0046181,0.82,0.54,0
0.1223,9.8754e-17,0.16,-1.233,-0.757,-0.757,5.833e-17,0,0,-0.6188,-2.4298e-17,0,1.5166e-16,0,0,1,8.1274e-17,0,1,-0.757,-1.233,-0.757,90,-0.91567,0.476,-0.0055392,0.84,0.54,0
0.10956,9.9713e-17,0.14,-1.232,-0.728,-0.728,-8.959e-17,0,0,-0.6552,-8.6678e-17,0,-2.3293e-16,0,0,1,0,0,1,-0.728,-1.232,-0.728,-90,-0.896,0.504,-0.0065753,0.86,0.54,0
0.096096,9.9367e-17,0.12,-1.231,-0.699,-0.699,-7.396e-17,0,0,-0.6916,-6.3883e-17,0,-1.923e-16,0,0,1,0,0,1,-0.699,-1.231,-0.699,-90,-0.87633,0.532,-0.0077332,0.88,0.54,0
0.0819,9.5958e-17,0.1,-1.23,-0.67,-0.67,1.849e-17,0,0,-0.728,1.0095e-16,0,4.8074e-17,0,0,1,4.0637e-17,0,1,-0.67,-1.23,-0.67,90,-0.85667,0.56,-0.0090197,0.9,0.54,0
0.066976,9.6433e-17,0.08,-1.229,-0.641,-0.641,-9.6133e-16,0,0,-0.7644,-1.3142e-18,0,-2.4995e-15,0,0,1,-1.0012e-15,0,1,-0.641,-1.229,-0.641,-90,-0.837,0.588,-0.010441,0.92,0.54,0
0.051324,-3.1698e-17,0.06,-1.228,-0.612,-0.612,-7.4556e-16,0,0,-0.8008,-4.1455e-17,0,-1.9384e-15,0,0,1,-3.7817e-15,0,1,-0.612,-1.228,-0.612,-90,-0.81733,0.616,-0.012024,0.94,0.54,0
0.034944,-3.6707e-17,0.04,-1.227,-0.583,-0.583,3.3596e-17,0,0,-0.8372,-3.5836e-17,0,8.735e-17,0,0,1,1.0159e-17,0,1,-0.583,-1.227,-0.583,90,-0.79767,0.644,-0.013718,0.96,0.54,0
0.017836,-3.6089e-17,0.02,-1.226,-0.554,-0.554,-2.0897e-17,0,0,-0.8736,-8.5137e-17,0,-5.4332e-17,0,0,1,-7.075e-17,0,1,-0.554,-1.226,-0.554,-90,-0.778,0.672,-0.015586,0.98,0.54,0
0,-3.7092e-17,0,-1.2005,-0.5145,-0.5145,-3.4363e-17,0,0,-0.8918,-6.0459e-17,0,-8.9343e-17,0,0,1,-1.7596e-17,0,1,-0.5145,-1.2005,-0.5145,-90,-0.74317,0.686,-0.016581,1,0.54,0
0,2.4995e-17,1,-1.2995,-1.9855,-1.9855,-2.9497e-17,0,0,0.8918,8.8451e-17,0,-7.6693e-17,0,0,1,-1.3004e-15,0,1,-1.2995,-1.9855,-1.9855,-2.4637e-15,-1.7568,0.686,0.016581,0,0.56,0
0.017836,2.3322e-17,0.98,-1.274,-1.946,-1.946,-1.7404e-16,0,0,0.8736,1.0692e-16,0,-4.5251e-16,0,0,1,8.9051e-15,0,1,-1.274,-1.946,-1.946,-1.4839e-14,-1.722,0.672,0.015586,0.02,0.56,0
0.034944,1.5906e-17,0.96,-1.273,-1.917,-1.917,1.086e-16,0,0,0.8372,-1.5507e-17,0,2.8237e-16,0,0,1,-1.0324e-14,0,1,-1.273,-1.917,-1.917,9.6623e-15,-1.7023,0.644,0.013718,0.04,0.56,0
0.051324,2.8316e-17,0.94,-1.272,-1.888,-1.888,3.2779e-16,0,0,0.8008,2.9014e-17,0,8.5226e-16,0,0,1,5.7413e-15,0,1,-1.272,-1.888,-1.888,3.0489e-14,-1.6827,0.616,0.012005,0.06,0.56,0
0.066976,6.3578e-17,0.92,-1.271,-1.859,-1.859,-1.1533e-16,0,0,0.7644,-1.1899e-16,0,-2.9987e-16,0,0,1,-1.2014e-14,0,1,-1.271,-1.859,-1.859,-1.1238e-14,-1.663,0.588,0.010441,0.08,0.56,0
0.0819,2.826e-17,0.9,-1.27,-1.83,-1.83,-5.7646e-16,0,0,0.728,8.1757e-17,0,-1.4988e-15,0,0,1,3.0767e-15,0,1,-1.27,-1.83,-1.83,-5.898e-14,-1.6433,0.56,0.0090197,0.1,0.56,0
0.096096,2.0353e-17,0.88,-1.269,-1.801,-1.801,-2.7756e-16,0,0,0.6916,1.7103e-16,0,-7.2165e-16,0,0,1,-6.5019e-16,0,1,-1.269,-1.801,-1.801,-2.9892e-14,-1.6237,0.532,0.0077332,0.12,0.56,0
0.10956,1.2e-17,0.86,-1.268,-1.772,-1.772,3.0463e-16,0,0,0.6552,-4.1841e-18,0,7.9203e-16,0,0,1,8.0488e-15,0,1,-1.268,-1.772,-1.772,3.4631e-14,-1.604,0.504,0.0065753,0.14,0.56,0
0.1223,5.8165e-17,0.84,-1.267,-1.743,-1.743,-2.9625e-16,0,0,0.6188,-4.1291e-17,0,-7.7025e-16,0,0,1,6.8208e-16,0,1,-1.267,-1.743,-1.743,-3.5659e-14,-1.5843,0.476,0.0055392,0.16,0.56,0
0.13432,-9.4928e-18,0.82,-1.266,-1.714,-1.714,-1.2921e-15,0,0,0.5824,2.7965e-16,0,-3.3594e-15,0,0,1,-6.6294e-15,0,1,-1.266,-1.714,-1.714,-1.6524e-13,-1.5647,0.448,0.0046181,0.18,0.56,0
0.1456,-1.3173e-17,0.8,-1.265,-1.685,-1.685,3.9841e-16,0,0,0.546,1.2178e-16,0,1.0359e-15,0,0,1,5.6223e-15,0,1,-1.265,-1.685,-1.685,5.435e-14,-1.545,0.42,0.0038052,0.2,0.56,0
0.15616,2.2959e-17,0.78,-1.264,-1.656,-1.656,-2.6765e-16,0,0,0.5096,-1.6527e-17,0,-6.9588e-16,0,0,1,-2.5137e-15,0,1,-1.264,-1.656,-1.656,-3.912e-14,-1.5253,0.392,0.0030937,0.22,0.56,0
0.16598,-2.6432e-17,0.76,-1.263,-1.627,-1.627,-1.1186e-15,0,0,0.4732,-2.0242e-16,0,-2.9084e-15,0,0,1,1.0943e-15,0,1,-1.263,-1.627,-1.627,-1.7607e-13,-1.5057,0.364,0.002477,0.24,0.56,0
0.17508,-3.5084e-17,0.74,-1.262,-1.598,-1.598,-3.3017e-16,0,0,0.4368,8.4281e-17,0,-8.5843e-16,0,0,1,6.5019e-16,0,1,-1.262,-1.598,-1.598,-5.6301e-14,-1.486,0.336,0.0019482,0.26,0.56,0
0.18346,-3.4097e-17,0.72,-1.261,-1.569,-1.569,8.1132e-16,0,0,0.4004,-3.0182e-17,0,2.1094e-15,0,0,1,-3.3147e-15,0,1,-1.261,-1.569,-1.569,1.5093e-13,-1.4663,0.308,0.0015006,0.28,0.56,0
0.1911,5.437e-17,0.7,-1.26,-1.54,-1.54,7.915e-16,0,0,0.364,-5.3314e-17,0,2.0579e-15,0,0,1,2.3799e-16,0,1,-1.26,-1.54,-1.54,1.6196e-13,-1.4467,0.28,0.0011275,0.3,0.56,0
0.19802,4.8426e-17,0.68,-1.259,-1.511,-1.511,5.2916e-16,0,0,0.3276,5.2619e-17,0,1.3758e-15,0,0,1,0,0,1,-1.259,-1.511,-1.511,1.2031e-13,-1.427,0.252,0.00082192,0.32,0.56,0
0.2042,5.4065e-17,0.66,-1.258,-1.482,-1.482,-1.3039e-15,0,0,0.2912,7.6473e-17,0,-3.3902e-15,0,0,1,-7.6918e-16,0,1,-1.258,-1.482,-1.482,-3.3352e-13,-1.4073,0.224,0.00057726,0.34,0.56,0
0.20966,-4.7335e-17,0.64,-1.257,-1.453,-1.453,-1.554e-15,0,0,0.2548,-1.1799e-16,0,-4.0404e-15,0,0,1,2.061e-16,0,1,-1.257,-1.453,-1.453,-4.5427e-13,-1.3877,0.196,0.00038672,0.36,0.56,0
0.2144,-5.402e-17,0.62,-1.256,-1.424,-1.424,-1.0829e-16,0,0,0.2184,-2.3525e-17,0,-2.8154e-16,0,0,1,0,0,1,-1.256,-1.424,-1.424,-3.693e-14,-1.368,0.168,0.00024353,0.38,0.56,0
0.2184,-6.5658e-17,0.6,-1.255,-1.395,-1.395,5.2692e-16,0,0,0.182,2.078e-16,0,1.37e-15,0,0,1,-8.8818e-16,0,1,-1.255,-1.395,-1.395,2.1564e-13,-1.3483,0.14,0.00014093,0.4,0.56,0
0.22168,3.899e-17,0.58,-1.254,-1.366,-1.366,6.3745e-16,0,0,0.1456,6.1941e-17,0,1.6574e-15,0,0,1,4.7597e-16,0,1,-1.254,-1.366,-1.366,2.6619e-13,-1.3287,0.112,7.554e-05,0.42,0.56,0
0.22422,3.0997e-17,0.56,-1.253,-1.337,-1.337,-4.8953e-16,0,0,0.1092,-7.1463e-17,0,-1.2728e-15,0,0,1,0,0,1,-1.253,-1.337,-1.337,-3.339e-13,-1.309,0.084,3.0441e-05,0.44,0.56,0
0.22604,3.7805e-17,0.54,-1.252,-1.308,-1.308,-1.6425e-15,0,0,0.0728,3.4007e-17,0,-4.2704e-15,0,0,1,-2.7676e-15,0,1,-1.252,-1.308,-1.308,-1.6805e-12,-1.2893,0.056,9.0196e-06,0.46,0.56,0
0.22714,-6.4688e-17,0.52,-1.251,-1.279,-1.279,-1.2894e-15,0,0,0.0364,5.3173e-17,0,-3.3524e-15,0,0,1,2.5296e-15,0,1,-1.251,-1.279,-1.279,-2.6385e-12,-1.2697,0.028,1.1275e-06,0.48,0.56,0
0.2275,-7.6355e-17,0.5,-1.25,-1.25,-1.25,-2.3639e-16,0,0,-1.1388e-15,1.147e-16,0,-6.1461e-16,0,0,1,-3.251e-16,0,1,-1.25,-1.25,-1.25,45,-1.25,6.0809e-16,0,0.5,0.56,0
0.22714,-7.9983e-17,0.48,-1.249,-1.221,-1.221,-1.7918e-16,0,0,-0.0364,7.2779e-18,0,-4.6587e-16,0,0,1,1.4948e-15,0,1,-1.221,-1.249,-1.221,-90,-1.2303,0.028,-1.1275e-06,0.52,0.56,0
0.22604,-7.7889e-17,0.46,-1.248,-1.192,-1.192,-1.1442e-17,0,0,-0.0728,1.5525e-16,0,-2.9748e-17,0,0,1,2.1014e-15,0,1,-1.192,-1.248,-1.192,-90,-1.2107,0.056,-9.0196e-06,0.54,0.56,0
0.22422,-7.7212e-17,0.44,-1.247,-1.163,-1.163,2.257e-15,0,0,-0.1092,-1.533e-16,0,5.8682e-15,0,0,1,-4.5121e-15,0,1,-1.163,-1.247,-1.163,90,-1.191,0.084,-3.0441e-05,0.56,0.56,0
0.22168,9.8973e-17,0.42,-1.246,-1.134,-1.134,1.1446e-15,0,0,-0.1456,-1.7434e-16,0,2.9758e-15,0,0,1,4.7065e-15,0,1,-1.134,-1.246,-1.134,90,-1.1713,0.112,-7.2157e-05,0.58,0.56,0
0.2184,9.6587e-17,0.4,-1.245,-1.105,-1.105,5.1077e-17,0,0,-0.182,-2.1361e-16,0,1.328e-16,0,0,1,0,0,1,-1.105,-1.245,-1.105,90,-1.1517,0.14,-0.00014093,0.6,0.56,0
0.2144,9.2901e-17,0.38,-1.244,-1.076,-1.076,-3.3854e-16,0,0,-0.2184,1.1297e-18,0,-8.8021e-16,0,0,1,0,0,1,-1.076,-1.244,-1.076,-90,-1.132,0.168,-0.00024353,0.62,0.56,0
0.20966,1.0041e-16,0.36,-1.243,-1.047,-1.047,3.5836e-16,0,0,-0.2548,-1.6892e-17,0,9.3173e-16,0,0,1,-6.0664e-16,0,1,-1.047,-1.243,-1.047,90,-1.1123,0.196,-0.00038672,0.64,0.56,0
0.2042,1.0138e-16,0.34,-1.242,-1.018,-1.018,-2.9584e-16,0,0,-0.2912,-6.9329e-17,0,-7.6918e-16,0,0,1,1.6255e-16,0,1,-1.018,-1.242,-1.018,-90,-1.0927,0.224,-0.00057726,0.66,0.56,0
0.19802,1.0565e-16,0.32,-1.241,-0.989,-0.989,-1.3862e-15,0,0,-0.3276,5.853e-17,0,-3.6042e-15,0,0,1,1.0943e-15,0,1,-0.989,-1.241,-0.989,-90,-1.073,0.252,-0.00082192,0.68,0.56,0
0.1911,-5.5594e-17,0.3,-1.24,-0.96,-0.96,-1.0279e-15,0,0,-0.364,-2.9143e-17,0,-2.6725e-15,0,0,1,-3.3147e-15,0,1,-0.96,-1.24,-0.96,-90,-1.0533,0.28,-0.0011275,0.7,0.56,0
0.18346,-5.4063e-17,0.28,-1.239,-0.931,-0.931,1.3648e-16,0,0,-0.4004,1.0175e-16,0,3.5484e-16,0,0,1,0,0,1,-0.931,-1.239,-0.931,90,-1.0337,0.308,-0.0015006,0.72,0.56,0
0.17508,-4.8825e-17,0.26,-1.238,-0.902,-0.902,-4.4376e-16,0,0,-0.4368,1.6507e-16,0,-1.1538e-15,0,0,1,0,0,1,-0.902,-1.238,-0.902,-90,-1.014,0.336,-0.0019482,0.74,0.56,0
0.16598,-4.8494e-17,0.24,-1.237,-0.873,-0.873,9.3778e-17,0,0,-0.4732,-5.075e-17,0,2.4382e-16,0,0,1,-1.4077e-16,0,1,-0.873,-1.237,-0.873,90,-0.99433,0.364,-0.002477,0.76,0.56,0
0.15616,-5.1309e-17,0.22,-1.236,-0.844,-0.844,-1.1666e-16,0,0,-0.5096,1.8118e-16,0,-3.0332e-16,0,0,1,-1.0507e-15,0,1,-0.844,-1.236,-0.844,-90,-0.97467,0.392,-0.0030937,0.78,0.56,0
0.1456,-4.7841e-17,0.2,-1.235,-0.815,-0.815,1.48e-15,0,0,-0.546,8.9409e-17,0,3.8481e-15,0,0,1,7.2563e-16,0,1,-0.815,-1.235,-0.815,90,-0.955,0.42,-0.0038052,0.8,0.56,0
0.13432,9.8388e-17,0.18,-1.234,-0.786,-0.786,7.3317e-16,0,0,-0.5824,-3.142e-17,0,1.9062e-15,0,0,1,1.0507e-15,0,1,-0.786,-1.234,-0.786,90,-0.93533,0.448,-0.0046181,0.82,0.56,0
0.1223,9.8288e-17,0.16,-1.233,-0.757,-0.757,2.8604e-17,0,0,-0.6188,7.8046e-17,0,7.4371e-17,0,0,1,8.1274e-17,0,1,-0.757,-1.233,-0.757,90,-0.91567,0.476,-0.0055392,0.84,0.56,0
0.10956,9.7179e-17,0.14,-1.232,-0.728,-0.728,1.563e-17,0,0,-0.6552,7.6568e-17,0,4.0637e-17,0,0,1,0,0,1,-0.728,-1.232,-0.728,90,-0.896,0.504,-0.0065753,0.86,0.56,0
0.096096,9.7569e-17,0.12,-1.231,-0.699,-0.699,-2.9165e-16,0,0,-0.6916,1.2172e-17,0,-7.583e-16,0,0,1,0,0,1,-0.699,-1.231,-0.699,-90,-0.87633,0.532,-0.0077332,0.88,0.56,0
0.0819,9.9432e-17,0.1,-1.23,-0.67,-0.67,6.9006e-17,0,0,-0.728,1.4737e-16,0,1.7942e-16,0,0,1,4.0637e-17,0,1,-0.67,-1.23,-0.67,90,-0.85667,0.56,-0.0090197,0.9,0.56,0
0.066976,9.64e-17,0.08,-1.229,-0.641,-0.641,-8.6679e-16,0,0,-0.7644,8.96e-18,0,-2.2536e-15,0,0,1,-1.7154e-15,0,1,-0.641,-1.229,-0.641,-90,-0.837,0.588,-0.010441,0.92,0.56,0
0.051324,-3.2656e-17,0.06,-1.228,-0.612,-0.612,-7.3812e-16,0,0,-0.8008,-7.4895e-17,0,-1.9191e-15,0,0,1,-1.5199e-15,0,1,-0.612,-1.228,-0.612,7.1054e-14,-0.81733,0.616,-0.012024,0.94,0.56,0
0.034944,-3.6722e-17,0.04,-1.227,-0.583,-0.583,-4.4131e-17,0,0,-0.8372,-3.0187e-17,0,-1.1474e-16,0,0,1,2.7222e-18,0,1,-0.583,-1.227,-0.583,-90,-0.79767,0.644,-0.013718,0.96,0.56,0
0.017836,-3.8324e-17,0.02,-1.226,-0.554,-0.554,-7.0244e-17,0,0,-0.8736,-2.5693e-17,0,-1.8264e-16,0,0,1,0,0,1,-0.554,-1.226,-0.554,-90,-0.778,0.672,-0.015586,0.98,0.56,0
0,-3.9523e-17,0,-1.2005,-0.5145,-0.5145,-3.0595e-17,0,0,-0.8918,-5.7059e-18,0,-7.9548e-17,0,0,1,0,0,1,-0.5145,-1.2005,-0.5145,-90,-0.74317,0.686,-0.016581,1,0.56,0
0,2.4373e-17,1,-1.2995,-1.9855,-1.9855,6.1191e-17,0,0,0.8918,8.8374e-17,0,1.591e-16,0,0,1,-1.3004e-15,0,1,-1.2995,-1.9855,-1.9855,5.1108e-15,-1.7568,0.686,0.016581,0,0.58,0
0.017836,2.7553e-17,0.98,-1.274,-1.946,-1.946,-1.6932e-16,0,0,0.8736,1.3006e-16,0,-4.4024e-16,0,0,1,1.0269e-14,0,1,-1.274,-1.946,-1.946,-1.4437e-14,-1.722,0.672,0.015586,0.02,0.58,0
0.034944,1.5082e-17,0.96,-1.273,-1.917,-1.917,6.4907e-17,0,0,0.8372,1.5159e-16,0,1.6876e-16,0,0,1,-1.5065e-15,0,1,-1.273,-1.917,-1.917,5.7747e-15,-1.7023,0.644,0.013718,0.04,0.58,0
0.051324,2.9101e-17,0.94,-1.272,-1.888,-1.888,5.3443e-16,0,0,0.8008,3.7335e-18,0,1.3895e-15,0,0,1,2.2757e-15,0,1,-1.272,-1.888,-1.888,4.9708e-14,-1.6827,0.616,0.012005,0.06,0.58,0
0.066976,5.9136e-17,0.92,-1.271,-1.859,-1.859,-6.1191e-17,0,0,0.7644,-6.029e-17,0,-1.591e-16,0,0,1,-1.5065e-15,0,1,-1.271,-1.859,-1.859,-5.9625e-15,-1.663,0.588,0.010441,0.08,0.58,0
0.0819,2.8079e-17,0.9,-1.27,-1.83,-1.83,-5.3872e-16,0,0,0.728,6.0408e-17,0,-1.4007e-15,0,0,1,4.6151e-15,0,1,-1.27,-1.83,-1.83,-5.5118e-14,-1.6433,0.56,0.0090197,0.1,0.58,0
0.096096,2.4531e-17,0.88,-1.269,-1.801,-1.801,-3.9994e-16,0,0,0.6916,9.5985e-17,0,-1.0398e-15,0,0,1,-6.5019e-16,0,1,-1.269,-1.801,-1.801,-4.3073e-14,-1.6237,0.532,0.0077332,0.12,0.58,0
0.10956,1.2604e-17,0.86,-1.268,-1.772,-1.772,2.6611e-16,0,0,0.6552,1.743e-17,0,6.919e-16,0,0,1,8.7309e-15,0,1,-1.268,-1.772,-1.772,3.0252e-14,-1.604,0.504,0.0065753,0.14,0.58,0
0.1223,5.2258e-17,0.84,-1.267,-1.743,-1.743,-7.9681e-17,0,0,0.6188,-8.0662e-17,0,-2.0717e-16,0,0,1,-6.9546e-15,0,1,-1.267,-1.743,-1.743,-9.5911e-15,-1.5843,0.476,0.0055392,0.16,0.58,0
0.13432,-1.3686e-18,0.82,-1.266,-1.714,-1.714,-1.1087e-15,0,0,0.5824,2.8916e-16,0,-2.8826e-15,0,0,1,-8.8818e-16,0,1,-1.266,-1.714,-1.714,-1.4179e-13,-1.5647,0.448,0.0046181,0.18,0.58,0
0.1456,-9.4388e-18,0.8,-1.265,-1.685,-1.685,4.7962e-16,0,0,0.546,1.0416e-16,0,1.247e-15,0,0,1,-6.8208e-16,0,1,-1.265,-1.685,-1.685,6.5429e-14,-1.545,0.42,0.0038052,0.2,0.58,0
0.15616,2.6864e-17,0.78,-1.264,-1.656,-1.656,-5.9781e-16,0,0,0.5096,8.0764e-17,0,-1.5543e-15,0,0,1,-7.6918e-16,0,1,-1.264,-1.656,-1.656,-8.7378e-14,-1.5253,0.392,0.0030937,0.22,0.58,0
0.16598,-3.2276e-17,0.76,-1.263,-1.627,-1.627,-1.0645e-15,0,0,0.4732,-3.0694e-17,0,-2.7676e-15,0,0,1,-1.4513e-15,0,1,-1.263,-1.627,-1.627,-1.6755e-13,-1.5057,0.364,0.002477,0.24,0.58,0
0.17508,-3.2974e-17,0.74,-1.262,-1.598,-1.598,3.0728e-16,0,0,0.4368,2.0829e-17,0,7.9893e-16,0,0,1,-5.6308e-16,0,1,-1.262,-1.598,-1.598,5.2399e-14,-1.486,0.336,0.0019482,0.26,0.58,0
0.18346,-3.2023e-17,0.72,-1.261,-1.569,-1.569,7.6024e-16,0,0,0.4004,1.2181e-17,0,1.9766e-15,0,0,1,4.647e-15,0,1,-1.261,-1.569,-1.569,1.4142e-13,-1.4663,0.308,0.0015006,0.28,0.58,0
0.1911,5.2644e-17,0.7,-1.26,-1.54,-1.54,1.0019e-15,0,0,0.364,-8.033e-17,0,2.605e-15,0,0,1,-1.6574e-15,0,1,-1.26,-1.54,-1.54,2.0502e-13,-1.4467,0.28,0.0011275,0.3,0.58,0
0.19802,5.2668e-17,0.68,-1.259,-1.511,-1.511,-3.4161e-16,0,0,0.3276,1.2687e-16,0,-8.8818e-16,0,0,1,0,0,1,-1.259,-1.511,-1.511,-7.7669e-14,-1.427,0.252,0.00082192,0.32,0.58,0
0.2042,5.7548e-17,0.66,-1.258,-1.482,-1.482,-7.6024e-16,0,0,0.2912,1.6996e-16,0,-1.9766e-15,0,0,1,-2.8706e-15,0,1,-1.258,-1.482,-1.482,-1.9446e-13,-1.4073,0.224,0.00057726,0.34,0.58,0
0.20966,-4.9336e-17,0.64,-1.257,-1.453,-1.453,-1.7561e-15,0,0,0.2548,-1.8124e-16,0,-4.5657e-15,0,0,1,7.6918e-16,0,1,-1.257,-1.453,-1.453,-5.1334e-13,-1.3877,0.196,0.00038672,0.36,0.58,0
0.2144,-4.7624e-17,0.62,-1.256,-1.424,-1.424,-1.5936e-16,0,0,0.2184,7.2098e-17,0,-4.1434e-16,0,0,1,0,0,1,-1.256,-1.424,-1.424,-5.435e-14,-1.368,0.168,0.00024353,0.38,0.58,0
0.2184,-4.9601e-17,0.6,-1.255,-1.395,-1.395,8.7384e-16,0,0,0.182,1.7699e-16,0,2.272e-15,0,0,1,3.3147e-15,0,1,-1.255,-1.395,-1.395,3.5762e-13,-1.3483,0.14,0.00014093,0.4,0.58,0
0.22168,4.1413e-17,0.58,-1.254,-1.366,-1.366,1.0645e-15,0,0,0.1456,-9.8086e-17,0,2.7676e-15,0,0,1,-1.7764e-15,0,1,-1.254,-1.366,-1.366,4.8255e-13,-1.3287,0.112,7.554e-05,0.42,0.58,0
0.22422,3.2331e-17,0.56,-1.253,-1.337,-1.337,-4.0413e-16,0,0,0.1092,9.753e-17,0,-1.0507e-15,0,0,1,0,0,1,-1.253,-1.337,-1.337,-2.7565e-13,-1.309,0.084,3.0441e-05,0.44,0.58,0
0.22604,3.5543e-17,0.54,-1.252,-1.308,-1.308,-3.4467e-16,0,0,0.0728,-1.9679e-16,0,-8.9615e-16,0,0,1,-1.3918e-15,0,1,-1.252,-1.308,-1.308,-3.5265e-13,-1.2893,0.056,9.0196e-06,0.46,0.58,0
0.22714,-6.2739e-17,0.52,-1.251,-1.279,-1.279,-1.2925e-15,0,0,0.0364,-1.5513e-17,0,-3.3604e-15,0,0,1,-4.75e-15,0,1,-1.251,-1.279,-1.279,-2.6448e-12,-1.2697,0.028,1.1275e-06,0.48,0.58,0
0.2275,-6.9231e-17,0.5,-1.25,-1.25,-1.25,-1.3648e-16,0,0,-1.2577e-16,2.7794e-16,0,-3.5484e-16,0,0,1,1.8199e-15,0,1,-1.25,-1.25,-1.25,-81.458,-1.25,9.4206e-16,6.0725e-47,0.5,0.58,0
0.22714,-7.9055e-17,0.48,-1.249,-1.221,-1.221,6.6871e-16,0,0,-0.0364,2.1316e-16,0,1.7386e-15,0,0,1,2.1014e-15,0,1,-1.221,-1.249,-1.221,90,-1.2303,0.028,-1.1275e-06,0.52,0.58,0
0.22604,-7.302e-17,0.46,-1.248,-1.192,-1.192,1.1666e-16,0,0,-0.0728,-3.5338e-18,0,3.0332e-16,0,0,1,1.4948e-15,0,1,-1.192,-1.248,-1.192,90,-1.2107,0.056,-9.0196e-06,0.54,0.58,0
0.22422,-8.0687e-17,0.44,-1.247,-1.163,-1.163,1.3977e-15,0,0,-0.1092,-1.1606e-16,0,3.634e-15,0,0,1,2.0738e-15,0,1,-1.163,-1.247,-1.163,90,-1.191,0.084,-3.0441e-05,0.56,0.58,0
0.22168,9.5644e-17,0.42,-1.246,-1.134,-1.134,1.3268e-15,0,0,-0.1456,-1.2535e-16,0,3.4497e-15,0,0,1,1.9665e-15,0,1,-1.134,-1.246,-1.134,90,-1.1713,0.112,-7.2157e-05,0.58,0.58,0
0.2184,9.1947e-17,0.4,-1.245,-1.105,-1.105,-3.698e-16,0,0,-0.182,-1.7667e-16,0,-9.6148e-16,0,0,1,0,0,1,-1.105,-1.245,-1.105,-90,-1.1517,0.14,-0.00014093,0.6,0.58,0
0.2144,9.2291e-17,0.38,-1.244,-1.076,-1.076,-4.7809e-16,0,0,-0.2184,1.1744e-17,0,-1.243e-15,0,0,1,0,0,1,-1.076,-1.244,-1.076,-90,-1.132,0.168,-0.00024353,0.62,0.58,0
0.20966,1.0192e-16,0.36,-1.243,-1.047,-1.047,2.0737e-16,0,0,-0.2548,6.3684e-17,0,5.3917e-16,0,0,1,6.0664e-16,0,1,-1.047,-1.243,-1.047,90,-1.1123,0.196,-0.00038672,0.64,0.58,0
0.2042,9.9797e-17,0.34,-1.242,-1.018,-1.018,-7.9681e-16,0,0,-0.2912,-4.7132e-17,0,-2.0717e-15,0,0,1,-1.6255e-16,0,1,-1.018,-1.242,-1.018,-90,-1.0927,0.224,-0.00057726,0.66,0.58,0
0.19802,1.0863e-16,0.32,-1.241,-0.989,-0.989,-1.8872e-15,0,0,-0.3276,-6.7518e-18,0,-4.9068e-15,0,0,1,-2.3799e-16,0,1,-0.989,-1.241,-0.989,-90,-1.073,0.252,-0.00082192,0.68,0.58,0
0.1911,-5.1771e-17,0.3,-1.24,-0.96,-0.96,-8.9978e-16,0,0,-0.364,1.393e-16,0,-2.3394e-15,0,0,1,-1.9825e-15,0,1,-0.96,-1.24,-0.96,-90,-1.0533,0.28,-0.0011275,0.7,0.58,0
0.18346,-5.3526e-17,0.28,-1.239,-0.931,-0.931,1.8224e-16,0,0,-0.4004,1.4746e-17,0,4.7384e-16,0,0,1,-4.4409e-16,0,1,-0.931,-1.239,-0.931,90,-1.0337,0.308,-0.0015006,0.72,0.58,0
0.17508,-4.4514e-17,0.26,-1.238,-0.902,-0.902,4.4683e-16,0,0,-0.4368,3.1526e-17,0,1.1617e-15,0,0,1,-8.8818e-16,0,1,-0.902,-1.238,-0.902,90,-1.014,0.336,-0.0019482,0.74,0.58,0
0.16598,-4.5645e-17,0.24,-1.237,-0.873,-0.873,7.396e-17,0,0,-0.4732,1.0362e-16,0,1.923e-16,0,0,1,-5.8486e-16,0,1,-0.873,-1.237,-0.873,90,-0.99433,0.364,-0.002477,0.76,0.58,0
0.15616,-4.6401e-17,0.22,-1.236,-0.844,-0.844,-2.135e-16,0,0,-0.5096,1.9131e-17,0,-5.5511e-16,0,0,1,-1.0507e-15,0,1,-0.844,-1.236,-0.844,-90,-0.97467,0.392,-0.0030937,0.78,0.58,0
0.1456,-4.5191e-17,0.2,-1.235,-0.815,-0.815,8.5402e-16,0,0,-0.546,2.432e-17,0,2.2205e-15,0,0,1,7.971e-18,0,1,-0.815,-1.235,-0.815,90,-0.955,0.42,-0.0038052,0.8,0.58,0
0.13432,9.8598e-17,0.18,-1.234,-0.786,-0.786,8.6699e-16,0,0,-0.5824,-6.7455e-17,0,2.2542e-15,0,0,1,2.2125e-15,0,1,-0.786,-1.234,-0.786,90,-0.93533,0.448,-0.0046181,0.82,0.58,0
0.1223,1.0188e-16,0.16,-1.233,-0.757,-0.757,-5.4143e-17,0,0,-0.6188,1.2043e-16,0,-1.4077e-16,0,0,1,0,0,1,-0.757,-1.233,-0.757,-90,-0.91567,0.476,-0.0055392,0.84,0.58,0
0.10956,1.0278e-16,0.14,-1.232,-0.728,-0.728,-2.276e-16,0,0,-0.6552,6.3098e-17,0,-5.9176e-16,0,0,1,0,0,1,-0.728,-1.232,-0.728,-90,-0.896,0.504,-0.0065753,0.86,0.58,0
0.096096,9.9854e-17,0.12,-1.231,-0.699,-0.699,-8.5402e-17,0,0,-0.6916,4.1292e-17,0,-2.2204e-16,0,0,1,0,0,1,-0.699,-1.231,-0.699,-90,-0.87633,0.532,-0.0077332,0.88,0.58,0
0.0819,1.0185e-16,0.1,-1.23,-0.67,-0.67,-9.8171e-17,0,0,-0.728,6.6263e-18,0,-2.5525e-16,0,0,1,0,0,1,-0.67,-1.23,-0.67,-90,-0.85667,0.56,-0.0090197,0.9,0.58,0
0.066976,9.6791e-17,0.08,-1.229,-0.641,-0.641,-1.0902e-15,0,0,-0.7644,-3.478e-17,0,-2.8345e-15,0,0,1,-9.8831e-16,0,1,-0.641,-1.229,-0.641,-90,-0.837,0.588,-0.010441,0.92,0.58,0
0.051324,-3.4694e-17,0.06,-1.228,-0.612,-0.612,-7.7329e-16,0,0,-0.8008,-7.0093e-17,0,-2.0105e-15,0,0,1,-2.0398e-15,0,1,-0.612,-1.228,-0.612,-90,-0.81733,0.616,-0.012024,0.94,0.58,0
0.034944,-3.7914e-17,0.04,-1.227,-0.583,-0.583,-3.2741e-17,0,0,-0.8372,-7.4342e-17,0,-8.5126e-17,0,0,1,2.7222e-18,0,1,-0.583,-1.227,-0.583,-90,-0.79767,0.644,-0.013718,0.96,0.58,0
0.017836,-3.7117e-17,0.02,-1.226,-0.554,-0.554,1.3082e-17,0,0,-0.8736,-1.7142e-17,0,3.4014e-17,0,0,1,0,0,1,-0.554,-1.226,-0.554,90,-0.778,0.672,-0.015586,0.98,0.58,0
0,-3.732e-17,0,-1.2005,-0.5145,-0.5145,1.5489e-17,0,0,-0.8918,3.9163e-17,0,4.0272e-17,0,0,1,0,0,1,-0.5145,-1.2005,-0.5145,90,-0.74317,0.686,-0.016581,1,0.58,0
0,2.853e-17,1,-1.2995,-1.9855,-1.9855,-1.3867e-17,0,0,0.8918,1.506e-16,0,-3.6056e-17,0,0,1,0,0,1,-1.2995,-1.9855,-1.9855,-1.1582e-15,-1.7568,0.686,0.016581,0,0.6,0
0.017836,2.8525e-17,0.98,-1.274,-1.946,-1.946,-1.2372e-16,0,0,0.8736,9.6616e-17,0,-3.2166e-16,0,0,1,5.1782e-15,0,1,-1.274,-1.946,-1.946,-1.0548e-14,-1.722,0.672,0.015586,0.02,0.6,0
0.034944,2.197e-17,0.96,-1.273,-1.917,-1.917,2.0864e-16,0,0,0.8372,9.8812e-17,0,5.4246e-16,0,0,1,-8.7109e-17,0,1,-1.273,-1.917,-1.917,1.8562e-14,-1.7023,0.644,0.013718,0.04,0.6,0
0.051324,2.8465e-17,0.94,-1.2802,-1.8915,-1.8915,3.617e-16,0,0,0.79473,1.6758e-16,0,9.4042e-16,0,0,1,-2.9025e-15,0,1,-1.2802,-1.8915,-1.8915,3.3899e-14,-1.6877,0.61133,0.011743,0.06,0.6,0
0.066976,6.1166e-17,0.92,-1.271,-1.859,-1.859,1.4715e-16,0,0,0.7644,8.1351e-17,0,3.826e-16,0,0,1,-3.0767e-15,0,1,-1.271,-1.859,-1.859,1.4339e-14,-1.663,0.588,0.010441,0.08,0.6,0
0.0819,3.0676e-17,0.9,-1.27,-1.83,-1.83,-6.0696e-16,0,0,0.728,1.0924e-16,0,-1.5781e-15,0,0,1,2.7516e-15,0,1,-1.27,-1.83,-1.83,-6.21e-14,-1.6433,0.56,0.0090197,0.1,0.6,0
0.096096,2.4193e-17,0.88,-1.269,-1.801,-1.801,-2.5467e-16,0,0,0.6916,2.5193e-17,0,-6.6215e-16,0,0,1,0,0,1,-1.269,-1.801,-1.801,-2.7428e-14,-1.6237,0.532,0.0077332,0.12,0.6,0
0.10956,1.2697e-17,0.86,-1.268,-1.772,-1.772,3.5724e-16,0,0,0.6552,1.1413e-16,0,9.2882e-16,0,0,1,2.7516e-15,0,1,-1.268,-1.772,-1.772,4.0611e-14,-1.604,0.504,0.0065753,0.14,0.6,0
0.1223,5.4939e-17,0.84,-1.267,-1.743,-1.743,-1.5099e-16,0,0,0.6188,1.444e-16,0,-3.9256e-16,0,0,1,-5.1782e-15,0,1,-1.267,-1.743,-1.743,-1.8174e-14,-1.5843,0.476,0.0055392,0.16,0.6,0
0.13432,2.0738e-18,0.82,-1.266,-1.714,-1.714,-4.2282e-16,0,0,0.5824,-2.3938e-17,0,-1.0993e-15,0,0,1,4.6151e-15,0,1,-1.266,-1.714,-1.714,-5.4076e-14,-1.5647,0.448,0.0046181,0.18,0.6,0
0.1456,-9.0063e-18,0.8,-1.265,-1.685,-1.685,-1.6355e-16,0,0,0.546,-9.8354e-18,0,-4.2523e-16,0,0,1,-2.2205e-15,0,1,-1.265,-1.685,-1.685,-2.2311e-14,-1.545,0.42,0.0038052,0.2,0.6,0
0.15616,2.619e-17,0.78,-1.264,-1.656,-1.656,2.1044e-16,0,0,0.5096,2.0007e-17,0,5.4714e-16,0,0,1,-1.8635e-15,0,1,-1.264,-1.656,-1.656,3.0758e-14,-1.5253,0.392,0.0030937,0.22,0.6,0
0.16598,-2.766e-17,0.76,-1.263,-1.627,-1.627,-7.6555e-16,0,0,0.4732,8.5503e-17,0,-1.9904e-15,0,0,1,-6.4233e-15,0,1,-1.263,-1.627,-1.627,-1.205e-13,-1.5057,0.364,0.002477,0.24,0.6,0
0.17508,-3.4251e-17,0.74,-1.2497,-1.5928,-1.5928,-1.5099e-16,0,0,0.4459,-6.9801e-17,0,-3.9256e-16,0,0,1,-1.1262e-15,0,1,-1.2497,-1.5928,-1.5928,-2.4582e-14,-1.4784,0.343,0.0020751,0.26,0.6,0
0.18346,-3.3609e-17,0.72,-1.2732,-1.5742,-1.5742,1.3382e-15,0,0,0.3913,-1.2486e-16,0,3.4794e-15,0,0,1,6.5105e-15,0,1,-1.2732,-1.5742,-1.5742,2.5767e-13,-1.4739,0.301,0.0014029,0.28,0.6,0
0.1911,5.1157e-17,0.7,-1.26,-1.54,-1.54,8.8528e-16,0,0,0.364,-6.325e-17,0,2.3017e-15,0,0,1,-9.7529e-16,0,1,-1.26,-1.54,-1.54,1.8115e-13,-1.4467,0.28,0.0011275,0.3,0.6,0
0.19802,5.3501e-17,0.68,-1.259,-1.511,-1.511,3.8124e-16,0,0,0.3276,-3.0616e-17,0,9.9123e-16,0,0,1,0,0,1,-1.259,-1.511,-1.511,8.6681e-14,-1.427,0.252,0.00082192,0.32,0.6,0
0.2042,6.0863e-17,0.66,-1.2498,-1.4785,-1.4785,-6.7763e-16,0,0,0.29727,7.4724e-18,0,-1.7618e-15,0,0,1,-3.9862e-15,0,1,-1.2498,-1.4785,-1.4785,-1.6745e-13,-1.4023,0.22867,0.00061716,0.34,0.6,0
0.20966,-5.4585e-17,0.64,-1.257,-1.453,-1.453,-1.3405e-15,0,0,0.2548,-2.3512e-16,0,-3.4852e-15,0,0,1,1.2133e-15,0,1,-1.257,-1.453,-1.453,-3.9186e-13,-1.3877,0.196,0.00038672,0.36,0.6,0
0.2144,-5.1136e-17,0.62,-1.256,-1.424,-1.424,-1.99e-16,0,0,0.2184,-1.6913e-16,0,-5.1739e-16,0,0,1,0,0,1,-1.256,-1.424,-1.424,-6.7867e-14,-1.368,0.168,0.00024353,0.38,0.6,0
0.2184,-5.8578e-17,0.6,-1.255,-1.395,-1.395,6.207e-16,0,0,0.182,-2.8757e-16,0,1.6138e-15,0,0,1,1.2133e-15,0,1,-1.255,-1.395,-1.395,2.5402e-13,-1.3483,0.14,0.00014093,0.4,0.6,0
0.22168,3.5067e-17,0.58,-1.254,-1.366,-1.366,1.6706e-15,0,0,0.1456,-1.9303e-16,0,4.3437e-15,0,0,1,-6.5019e-16,0,1,-1.254,-1.366,-1.366,7.8594e-13,-1.3287,0.112,7.554e-05,0.42,0.6,0
0.22422,3.4899e-17,0.56,-1.253,-1.337,-1.337,-1.9818e-17,0,0,0.1092,8.2227e-17,0,-5.1526e-17,0,0,1,0,0,1,-1.253,-1.337,-1.337,-1.3517e-14,-1.309,0.084,3.0441e-05,0.44,0.6,0
0.22604,2.9933e-17,0.54,-1.252,-1.308,-1.308,-9.8212e-16,0,0,0.0728,-1.8881e-16,0,-2.5535e-15,0,0,1,-1.4513e-15,0,1,-1.252,-1.308,-1.308,-1.0048e-12,-1.2893,0.056,9.0196e-06,0.46,0.6,0
0.22714,-6.5308e-17,0.52,-1.251,-1.279,-1.279,-4.9259e-16,0,0,0.0364,-1.8106e-16,0,-1.2807e-15,0,0,1,-4.2029e-15,0,1,-1.251,-1.279,-1.279,-1.008e-12,-1.2697,0.028,1.1275e-06,0.48,0.6,0
0.2275,-6.5237e-17,0.5,-1.25,-1.25,-1.25,-3.5836e-16,0,0,3.0271e-16,1.4225e-16,0,-9.3173e-16,0,0,1,3.251e-16,0,1,-1.25,-1.25,-1.25,45,-1.25,9.4206e-16,6.0725e-47,0.5,0.6,0
0.22714,-7.1457e-17,0.48,-1.249,-1.221,-1.221,5.6349e-16,0,0,-0.0364,2.8328e-16,0,1.4651e-15,0,0,1,-3.251e-16,0,1,-1.221,-1.249,-1.221,90,-1.2303,0.028,-1.1275e-06,0.52,0.6,0
0.22604,-7.803e-17,0.46,-1.248,-1.192,-1.192,1.3954e-16,0,0,-0.0728,1.5225e-17,0,3.6282e-16,0,0,1,2.4265e-15,0,1,-1.192,-1.248,-1.192,90,-1.2107,0.056,-9.0196e-06,0.54,0.6,0
0.22422,-8.1854e-17,0.44,-1.247,-1.163,-1.163,1.981e-15,0,0,-0.1092,-1.89e-16,0,5.1506e-15,0,0,1,-1.1378e-15,0,1,-1.163,-1.247,-1.163,90,-1.191,0.084,-3.0441e-05,0.56,0.6,0
0.22168,9.3959e-17,0.42,-1.246,-1.134,-1.134,1.4663e-15,0,0,-0.1456,-1.6134e-16,0,3.8125e-15,0,0,1,3.0332e-15,0,1,-1.134,-1.246,-1.134,90,-1.1713,0.112,-7.2157e-05,0.58,0.6,0
0.2184,8.952e-17,0.4,-1.245,-1.105,-1.105,4.2701e-17,0,0,-0.182,1.2531e-16,0,1.1102e-16,0,0,1,6.0664e-16,0,1,-1.105,-1.245,-1.105,90,-1.1517,0.14,-0.00014093,0.6,0.6,0
0.2144,9.3371e-17,0.38,-1.244,-1.076,-1.076,-3.7287e-16,0,0,-0.2184,-1.2364e-17,0,-9.6945e-16,0,0,1,4.4409e-16,0,1,-1.076,-1.244,-1.076,-90,-1.132,0.168,-0.00024353,0.62,0.6,0
0.20966,1.0296e-16,0.36,-1.243,-1.047,-1.047,1.4485e-16,0,0,-0.2548,-2.5268e-17,0,3.7662e-16,0,0,1,4.4409e-16,0,1,-1.047,-1.243,-1.047,90,-1.1123,0.196,-0.00038672,0.64,0.6,0
0.2042,9.9498e-17,0.34,-1.242,-1.018,-1.018,-4.7809e-16,0,0,-0.2912,-9.3727e-18,0,-1.243e-15,0,0,1,-1.6255e-16,0,1,-1.018,-1.242,-1.018,-90,-1.0927,0.224,-0.00057726,0.66,0.6,0
0.19802,1.0538e-16,0.32,-1.241,-0.989,-0.989,-1.1727e-15,0,0,-0.3276,-3.1087e-17,0,-3.0491e-15,0,0,1,4.3555e-17,0,1,-0.989,-1.241,-0.989,-90,-1.073,0.252,-0.00082192,0.68,0.6,0
0.1911,-5.0022e-17,0.3,-1.24,-0.96,-0.96,-1.1133e-15,0,0,-0.364,-6.1417e-18,0,-2.8946e-15,0,0,1,-2.264e-15,0,1,-0.96,-1.24,-0.96,-90,-1.0533,0.28,-0.0011275,0.7,0.6,0
0.18346,-5.3473e-17,0.28,-1.239,-0.931,-0.931,1.0522e-16,0,0,-0.4004,-4.9449e-17,0,2.7357e-16,0,0,1,-4.4409e-16,0,1,-0.931,-1.239,-0.931,90,-1.0337,0.308,-0.0015006,0.72,0.6,0
0.17508,-4.7564e-17,0.26,-1.238,-0.902,-0.902,-5.4143e-17,0,0,-0.4368,-1.7822e-16,0,-1.4077e-16,0,0,1,-1.029e-15,0,1,-0.902,-1.238,-0.902,-90,-1.014,0.336,-0.0019482,0.74,0.6,0
0.16598,-4.4349e-17,0.24,-1.237,-0.873,-0.873,7.396e-17,0,0,-0.4732,1.8828e-17,0,1.923e-16,0,0,1,-1.4948e-15,0,1,-0.873,-1.237,-0.873,90,-0.99433,0.364,-0.002477,0.76,0.6,0
0.15616,-5.0544e-17,0.22,-1.236,-0.844,-0.844,-1.1442e-17,0,0,-0.5096,-1.3153e-16,0,-2.9748e-17,0,0,1,-2.2204e-16,0,1,-0.844,-1.236,-0.844,-90,-0.97467,0.392,-0.0030937,0.78,0.6,0
0.1456,-4.6868e-17,0.2,-1.235,-0.815,-0.815,1.1014e-15,0,0,-0.546,-9.0555e-17,0,2.8637e-15,0,0,1,5.6308e-16,0,1,-0.815,-1.235,-0.815,90,-0.955,0.42,-0.0038052,0.8,0.6,0
0.13432,9.569e-17,0.18,-1.234,-0.786,-0.786,9.3676e-16,0,0,-0.5824,-1.6052e-16,0,2.4356e-15,0,0,1,2.1827e-15,0,1,-0.786,-1.234,-0.786,90,-0.93533,0.448,-0.0046181,0.82,0.6,0
0.1223,1.0311e-16,0.16,-1.233,-0.757,-0.757,-1.1442e-17,0,0,-0.6188,-3.9049e-17,0,-2.9748e-17,0,0,1,0,0,1,-0.757,-1.233,-0.757,-90,-0.91567,0.476,-0.0055392,0.84,0.6,0
0.10956,9.9703e-17,0.14,-1.232,-0.728,-0.728,-3.9268e-16,0,0,-0.6552,-8.9049e-17,0,-1.021e-15,0,0,1,0,0,1,-0.728,-1.232,-0.728,-90,-0.896,0.504,-0.0065753,0.86,0.6,0
0.096096,9.9221e-17,0.12,-1.231,-0.699,-0.699,5.6798e-17,0,0,-0.6916,1.3752e-17,0,1.4767e-16,0,0,1,-1.5166e-16,0,1,-0.699,-1.231,-0.699,90,-0.87633,0.532,-0.0077332,0.88,0.6,0
0.0819,9.9697e-17,0.1,-1.23,-0.67,-0.67,2.094e-18,0,0,-0.728,-1.7694e-16,0,5.4443e-18,0,0,1,-7.0385e-17,0,1,-0.67,-1.23,-0.67,90,-0.85667,0.56,-0.0090197,0.9,0.6,0
0.066976,9.5009e-17,0.08,-1.229,-0.641,-0.641,-1.0652e-15,0,0,-0.7644,-1.018e-16,0,-2.7696e-15,0,0,1,-1.079e-15,0,1,-0.641,-1.229,-0.641,-90,-0.837,0.588,-0.010441,0.92,0.6,0
0.051324,-3.546e-17,0.06,-1.228,-0.612,-0.612,-6.7693e-16,0,0,-0.8008,-8.2316e-17,0,-1.76e-15,0,0,1,-3.2821e-15,0,1,-0.612,-1.228,-0.612,-90,-0.81733,0.616,-0.012024,0.94,0.6,0
0.034944,-3.9695e-17,0.04,-1.227,-0.583,-0.583,1.089e-16,0,0,-0.8372,-6.6535e-17,0,2.8313e-16,0,0,1,0,0,1,-0.583,-1.227,-0.583,90,-0.79767,0.644,-0.013718,0.96,0.6,0
0.017836,-3.901e-17,0.02,-1.226,-0.554,-0.554,4.537e-17,0,0,-0.8736,-5.6456e-17,0,1.1796e-16,0,0,1,0,0,1,-0.554,-1.226,-0.554,90,-0.778,0.672,-0.015586,0.98,0.6,0
0,-3.7956e-17,0,-1.2005,-0.5145,-0.5145,1.2326e-32,0,0,-0.8918,-5.8132e-17,0,1.5407e-32,0,0,1,0,0,1,-0.5145,-1.2005,-0.5145,90,-0.74317,0.686,-0.016581,1,0.6,0
0,3.0397e-17,1,-1.2995,-1.9855,-1.9855,4.4655e-17,0,0,0.8918,8.2855e-17,0,1.161e-16,0,0,1,0,0,1,-1.2995,-1.9855,-1.9855,3.7296e-15,-1.7568,0.686,0.016581,0,0.62,0
0.017836,3.1418e-17,0.98,-1.274,-1.946,-1.946,-1.58e-16,0,0,0.8736,1.3738e-16,0,-4.108e-16,0,0,1,4.9402e-15,0,1,-1.274,-1.946,-1.946,-1.3471e-14,-1.722,0.672,0.015586,0.02,0.62,0
0.034944,1.9035e-17,0.96,-1.273,-1.917,-1.917,9.6026e-17,0,0,0.8372,1.0351e-17,0,2.4967e-16,0,0,1,-1.0563e-14,0,1,-1.273,-1.917,-1.917,8.5433e-15,-1.7023,0.644,0.013718,0.04,0.62,0
0.051324,3.3811e-17,0.94,-1.272,-1.888,-1.888,2.0865e-16,0,0,0.8008,2.1928e-16,0,5.425e-16,0,0,1,6.2725e-15,0,1,-1.272,-1.888,-1.888,1.9434e-14,-1.6827,0.616,0.012024,0.06,0.62,0
0.066976,6.239e-17,0.92,-1.271,-1.859,-1.859,3.3359e-16,0,0,0.7644,9.0826e-17,0,8.6733e-16,0,0,1,-3.7269e-15,0,1,-1.271,-1.859,-1.859,3.2505e-14,-1.663,0.588,0.010441,0.08,0.62,0
0.0819,3.2449e-17,0.9,-1.27,-1.83,-1.83,-6.0333e-16,0,0,0.728,1.0833e-16,0,-1.5686e-15,0,0,1,2.7516e-15,0,1,-1.27,-1.83,-1.83,-6.1729e-14,-1.6433,0.56,0.0090197,0.1,0.62,0
0.096096,2.5539e-17,0.88,-1.269,-1.801,-1.801,1.9818e-17,0,0,0.6916,1.7003e-16,0,5.1526e-17,0,0,1,0,0,1,-1.269,-1.801,-1.801,2.1343e-15,-1.6237,0.532,0.0077332,0.12,0.62,0
0.10956,1.7169e-17,0.86,-1.268,-1.772,-1.772,2.562e-16,0,0,0.6552,9.7749e-17,0,6.6613e-16,0,0,1,2.7516e-15,0,1,-1.268,-1.772,-1.772,2.9126e-14,-1.604,0.504,0.0065753,0.14,0.62,0
0.1223,5.8034e-17,0.84,-1.267,-1.743,-1.743,-4.0046e-17,0,0,0.6188,1.4024e-16,0,-1.0412e-16,0,0,1,-4.29e-15,0,1,-1.267,-1.743,-1.743,-4.8203e-15,-1.5843,0.476,0.0055392,0.16,0.62,0
0.13432,-2.3261e-18,0.82,-1.266,-1.714,-1.714,-1.2993e-15,0,0,0.5824,-6.8374e-17,0,-3.3782e-15,0,0,1,6.5019e-16,0,1,-1.266,-1.714,-1.714,-1.6617e-13,-1.5647,0.448,0.0046181,0.18,0.62,0
0.1456,-9.8322e-18,0.8,-1.265,-1.685,-1.685,-1.1094e-16,0,0,0.546,-7.6688e-18,0,-2.8844e-16,0,0,1,1.8635e-15,0,1,-1.265,-1.685,-1.685,-1.5134e-14,-1.545,0.42,0.0038052,0.2,0.62,0
0.15616,2.7664e-17,0.78,-1.264,-1.656,-1.656,1.563e-16,0,0,0.5096,2.7242e-17,0,4.0637e-16,0,0,1,-3.6398e-15,0,1,-1.264,-1.656,-1.656,2.2845e-14,-1.5253,0.392,0.0030937,0.22,0.62,0
0.16598,-2.8856e-17,0.76,-1.263,-1.627,-1.627,-7.4573e-16,0,0,0.4732,-5.6979e-17,0,-1.9389e-15,0,0,1,-8.8818e-16,0,1,-1.263,-1.627,-1.627,-1.1738e-13,-1.5057,0.364,0.002477,0.24,0.62,0
0.17508,-3.5766e-17,0.74,-1.2538,-1.5945,-1.5945,-3.2869e-32,0,0,0.44287,3.4783e-17,0,-2.6295e-31,0,0,1,0,0,1,-1.2538,-1.5945,-1.5945,-5.5282e-30,-1.4809,0.34067,0.0020305,0.26,0.62,0
0.18346,-3.7018e-17,0.72,-1.2692,-1.5725,-1.5725,7.2898e-16,0,0,0.39433,-1.9159e-16,0,1.8953e-15,0,0,1,4.8531e-15,0,1,-1.2692,-1.5725,-1.5725,1.377e-13,-1.4714,0.30333,0.0014335,0.28,0.62,0
0.1911,5.0114e-17,0.7,-1.26,-1.54,-1.54,1.0988e-15,0,0,0.364,-6.374e-17,0,2.8568e-15,0,0,1,-9.7529e-16,0,1,-1.26,-1.54,-1.54,2.2484e-13,-1.4467,0.28,0.0011275,0.3,0.62,0
0.19802,5.1443e-17,0.68,-1.259,-1.511,-1.511,3.271e-16,0,0,0.3276,-1.2978e-16,0,8.5046e-16,0,0,1,0,0,1,-1.259,-1.511,-1.511,7.4371e-14,-1.427,0.252,0.00082192,0.32,0.62,0
0.2042,5.943e-17,0.66,-1.258,-1.482,-1.482,-6.0925e-16,0,0,0.2912,-7.4421e-17,0,-1.5841e-15,0,0,1,-1.3004e-15,0,1,-1.258,-1.482,-1.482,-1.6221e-13,-1.4073,0.224,0.00058402,0.34,0.62,0
0.20966,-5.8741e-17,0.64,-1.257,-1.453,-1.453,-1.3092e-15,0,0,0.2548,-1.3156e-16,0,-3.404e-15,0,0,1,-1.7764e-15,0,1,-1.257,-1.453,-1.453,-3.8272e-13,-1.3877,0.196,0.00038672,0.36,0.62,0
0.2144,-5.4389e-17,0.62,-1.256,-1.424,-1.424,-3.6978e-32,0,0,0.2184,-6.9623e-17,0,0,0,0,1,-8.8818e-16,0,1,-1.256,-1.424,-1.424,-1.2611e-29,-1.368,0.168,0.00024353,0.38,0.62,0
0.2184,-6.1104e-17,0.6,-1.255,-1.395,-1.395,5.5818e-16,0,0,0.182,-2.7155e-16,0,1.4513e-15,0,0,1,-8.8818e-16,0,1,-1.255,-1.395,-1.395,2.2844e-13,-1.3483,0.14,0.00014093,0.4,0.62,0
0.22168,3.3692e-17,0.58,-1.254,-1.366,-1.366,1.5425e-15,0,0,0.1456,-6.6932e-17,0,4.0106e-15,0,0,1,0,0,1,-1.254,-1.366,-1.366,7.373e-13,-1.3287,0.112,7.554e-05,0.42,0.62,0
0.22422,3.562e-17,0.56,-1.253,-1.337,-1.337,-6.2518e-17,0,0,0.1092,4.5151e-17,0,-1.6255e-16,0,0,1,0,0,1,-1.253,-1.337,-1.337,-4.2643e-14,-1.309,0.084,3.0441e-05,0.44,0.62,0
0.22604,2.799e-17,0.54,-1.252,-1.308,-1.308,-8.6546e-16,0,0,0.0728,-4.1066e-17,0,-2.2502e-15,0,0,1,-1.7764e-15,0,1,-1.252,-1.308,-1.308,-8.8549e-13,-1.2893,0.056,9.0196e-06,0.46,0.62,0
0.22714,-6.9981e-17,0.52,-1.251,-1.279,-1.279,-7.9988e-16,0,0,0.0364,-2.1658e-16,0,-2.0797e-15,0,0,1,-1.7764e-15,0,1,-1.251,-1.279,-1.279,-1.6368e-12,-1.2697,0.028,1.1275e-06,0.48,0.62,0
0.2275,-6.3541e-17,0.5,-1.25,-1.25,-1.25,-3.1872e-16,0,0,-4.6404e-16,8.468e-17,0,-8.2868e-16,0,0,1,-9.8608e-32,0,1,-1.25,-1.25,-1.25,-27.568,-1.25,7.6918e-16,0,0.5,0.62,0
0.22714,-6.7724e-17,0.48,-1.249,-1.221,-1.221,2.844e-16,0,0,-0.0364,1.8294e-17,0,7.3944e-16,0,0,1,3.251e-16,0,1,-1.221,-1.249,-1.221,90,-1.2303,0.028,-1.1275e-06,0.52,0.62,0
0.22604,-7.2411e-17,0.46,-1.248,-1.192,-1.192,-3.5305e-16,0,0,-0.0728,8.8396e-17,0,-9.1793e-16,0,0,1,-2.4265e-15,0,1,-1.192,-1.248,-1.192,-90,-1.2107,0.056,-9.0196e-06,0.54,0.62,0
0.22422,-8.8247e-17,0.44,-1.247,-1.163,-1.163,2.0977e-15,0,0,-0.1092,-2.5496e-16,0,5.4539e-15,0,0,1,-4.8764e-16,0,1,-1.163,-1.247,-1.163,90,-1.191,0.084,-3.0441e-05,0.56,0.62,0
0.22168,8.919e-17,0.42,-1.246,-1.134,-1.134,9.2573e-16,0,0,-0.1456,-1.6693e-16,0,2.4069e-15,0,0,1,3.0332e-15,0,1,-1.134,-1.246,-1.134,90,-1.1713,0.112,-7.2157e-05,0.58,0.62,0
0.2184,9.696e-17,0.4,-1.245,-1.105,-1.105,1.1442e-17,0,0,-0.182,9.8761e-17,0,2.9748e-17,0,0,1,-9.8608e-32,0,1,-1.105,-1.245,-1.105,90,-1.1517,0.14,-0.00014093,0.6,0.62,0
0.2144,9.1796e-17,0.38,-1.244,-1.076,-1.076,4.0413e-16,0,0,-0.2184,-3.7428e-17,0,1.0507e-15,0,0,1,-9.8608e-32,0,1,-1.076,-1.244,-1.076,90,-1.132,0.168,-0.00024353,0.62,0.62,0
0.20966,1.0091e-16,0.36,-1.243,-1.047,-1.047,3.1259e-17,0,0,-0.2548,-4.9449e-17,0,8.1274e-17,0,0,1,0,0,1,-1.047,-1.243,-1.047,90,-1.1123,0.196,-0.00038672,0.64,0.62,0
0.2042,9.9422e-17,0.34,-1.242,-1.018,-1.018,1.1666e-16,0,0,-0.2912,1.0591e-17,0,3.0332e-16,0,0,1,0,0,1,-1.018,-1.242,-1.018,90,-1.0927,0.224,-0.00057726,0.66,0.62,0
0.19802,1.0738e-16,0.32,-1.241,-0.989,-0.989,-1.7362e-15,0,0,-0.3276,9.5164e-17,0,-4.5142e-15,0,0,1,4.3555e-17,0,1,-0.989,-1.241,-0.989,-90,-1.073,0.252,-0.00082192,0.68,0.62,0
0.1911,-5.2017e-17,0.3,-1.24,-0.96,-0.96,-9.9663e-16,0,0,-0.364,-1.3391e-16,0,-2.5912e-15,0,0,1,-2.264e-15,0,1,-0.96,-1.24,-0.96,-90,-1.0533,0.28,-0.0011275,0.7,0.62,0
0.18346,-5.5504e-17,0.28,-1.239,-0.931,-0.931,-5.4143e-17,0,0,-0.4004,-2.0998e-17,0,-1.4077e-16,0,0,1,0,0,1,-0.931,-1.239,-0.931,-90,-1.0337,0.308,-0.0015006,0.72,0.62,0
0.17508,-5.1642e-17,0.26,-1.238,-0.902,-0.902,-3.9268e-16,0,0,-0.4368,-2.252e-16,0,-1.021e-15,0,0,1,2.9582e-31,0,1,-0.902,-1.238,-0.902,-90,-1.014,0.336,-0.0019482,0.74,0.62,0
0.16598,-4.4892e-17,0.24,-1.237,-0.873,-0.873,-9.6843e-17,0,0,-0.4732,-1.2366e-16,0,-2.5179e-16,0,0,1,0,0,1,-0.873,-1.237,-0.873,-90,-0.99433,0.364,-0.002477,0.76,0.62,0
0.15616,-5.1662e-17,0.22,-1.236,-0.844,-0.844,-2.7602e-16,0,0,-0.5096,7.4503e-17,0,-7.1766e-16,0,0,1,-8.1274e-17,0,1,-0.844,-1.236,-0.844,-90,-0.97467,0.392,-0.0030937,0.78,0.62,0
0.1456,-4.8813e-17,0.2,-1.235,-0.815,-0.815,1.6123e-15,0,0,-0.546,-1.3944e-16,0,4.192e-15,0,0,1,5.6308e-16,0,1,-0.815,-1.235,-0.815,90,-0.955,0.42,-0.0038052,0.8,0.62,0
0.13432,9.2177e-17,0.18,-1.234,-0.786,-0.786,5.7687e-16,0,0,-0.5824,-8.9913e-17,0,1.4999e-15,0,0,1,2.1827e-15,0,1,-0.786,-1.234,-0.786,90,-0.93533,0.448,-0.0046181,0.82,0.62,0
0.1223,1.0031e-16,0.16,-1.233,-0.757,-0.757,1.5364e-16,0,0,-0.6188,-1.5282e-16,0,3.9947e-16,0,0,1,0,0,1,-0.757,-1.233,-0.757,90,-0.91567,0.476,-0.0055392,0.84,0.62,0
0.10956,9.9214e-17,0.14,-1.232,-0.728,-0.728,-1.3801e-16,0,0,-0.6552,-1.882e-17,0,-3.5883e-16,0,0,1,0,0,1,-0.728,-1.232,-0.728,-90,-0.896,0.504,-0.0065753,0.86,0.62,0
0.096096,1.004e-16,0.12,-1.231,-0.699,-0.699,-4.2701e-17,0,0,-0.6916,-8.0031e-18,0,-1.1102e-16,0,0,1,2.4652e-32,0,1,-0.699,-1.231,-0.699,-90,-0.87633,0.532,-0.0077332,0.88,0.62,0
0.0819,9.4776e-17,0.1,-1.23,-0.67,-0.67,1.0027e-16,0,0,-0.728,-1.9501e-16,0,2.6069e-16,0,0,1,1.4791e-31,0,1,-0.67,-1.23,-0.67,90,-0.85667,0.56,-0.0090197,0.9,0.62,0
0.066976,9.2719e-17,0.08,-1.229,-0.641,-0.641,-9.7773e-16,0,0,-0.7644,-1.4812e-16,0,-2.5421e-15,0,0,1,-9.6799e-16,0,1,-0.641,-1.229,-0.641,-90,-0.837,0.588,-0.010441,0.92,0.62,0
0.051324,-3.7986e-17,0.06,-1.228,-0.612,-0.612,-7.1e-16,0,0,-0.8008,-1.0048e-16,0,-1.846e-15,0,0,1,-3.2821e-15,0,1,-0.612,-1.228,-0.612,7.1054e-14,-0.81733,0.616,-0.012024,0.94,0.62,0
0.034944,-4.0576e-17,0.04,-1.227,-0.583,-0.583,-2.6688e-17,0,0,-0.8372,-5.2277e-18,0,-6.9389e-17,0,0,1,0,0,1,-0.583,-1.227,-0.583,-90,-0.79767,0.644,-0.013718,0.96,0.62,0
0.017836,-3.9375e-17,0.02,-1.226,-0.554,-0.554,8.0588e-17,0,0,-0.8736,-4.8595e-17,0,2.0953e-16,0,0,1,0,0,1,-0.554,-1.226,-0.554,90,-0.778,0.672,-0.015586,0.98,0.62,0
0,-3.9646e-17,0,-1.2005,-0.5145,-0.5145,1.8134e-18,0,0,-0.8918,-7.3573e-17,0,4.7149e-18,0,0,1,0,0,1,-0.5145,-1.2005,-0.5145,90,-0.74317,0.686,-0.016581,1,0.62,0
0,3.1845e-17,1,-1.2995,-1.9855,-1.9855,2.988e-17,0,0,0.8918,1.9722e-18,0,7.7689e-17,0,0,1,0,0,1,-1.2995,-1.9855,-1.9855,2.4956e-15,-1.7568,0.686,0.016581,0,0.64,0
0.017836,3.402e-17,0.98,-1.274,-1.946,-1.946,-1.3225e-16,0,0,0.8736,4.951e-17,0,-3.4384e-16,0,0,1,3.8459e-15,0,1,-1.274,-1.946,-1.946,-1.1275e-14,-1.722,0.672,0.015586,0.02,0.64,0
0.034944,2.2384e-17,0.96,-1.273,-1.917,-1.917,4.5702e-17,0,0,0.8372,2.0377e-16,0,1.1882e-16,0,0,1,-3.814e-15,0,1,-1.273,-1.917,-1.917,4.066e-15,-1.7023,0.644,0.013718,0.04,0.64,0
0.051324,3.7237e-17,0.94,-1.272,-1.888,-1.888,3.6983e-16,0,0,0.8008,7.9982e-17,0,9.6155e-16,0,0,1,9.5872e-15,0,1,-1.272,-1.888,-1.888,3.4408e-14,-1.6827,0.616,0.012024,0.06,0.64,0
0.066976,6.4799e-17,0.92,-1.271,-1.859,-1.859,2.724e-16,0,0,0.7644,2.4237e-16,0,7.0823e-16,0,0,1,-4.6151e-15,0,1,-1.271,-1.859,-1.859,2.6543e-14,-1.663,0.588,0.010441,0.08,0.64,0
0.0819,3.5009e-17,0.9,-1.27,-1.83,-1.83,-5.6788e-16,0,0,0.728,-5.4844e-17,0,-1.4765e-15,0,0,1,2.7516e-15,0,1,-1.27,-1.83,-1.83,-5.8102e-14,-1.6433,0.56,0.0090197,0.1,0.64,0
0.096096,3.0993e-17,0.88,-1.269,-1.801,-1.801,-4.5255e-16,0,0,0.6916,2.1104e-16,0,-1.1766e-15,0,0,1,0,0,1,-1.269,-1.801,-1.801,-4.8739e-14,-1.6237,0.532,0.0077332,0.12,0.64,0
0.10956,1.6607e-17,0.86,-1.268,-1.772,-1.772,5.6921e-16,0,0,0.6552,-5.0076e-17,0,1.4799e-15,0,0,1,2.7516e-15,0,1,-1.268,-1.772,-1.772,6.4709e-14,-1.604,0.504,0.0065753,0.14,0.64,0
0.1223,6.0549e-17,0.84,-1.267,-1.743,-1.743,-2.322e-16,0,0,0.6188,6.9e-18,0,-6.0372e-16,0,0,1,-4.29e-15,0,1,-1.267,-1.743,-1.743,-2.795e-14,-1.5843,0.476,0.0055392,0.16,0.64,0
0.13432,-6.6117e-19,0.82,-1.2578,-1.7105,-1.7105,-1.7116e-15,0,0,0.58847,8.0822e-17,0,-4.4501e-15,0,0,1,8.6692e-16,0,1,-1.2578,-1.7105,-1.7105,-2.1664e-13,-1.5596,0.45267,0.0047639,0.18,0.64,0
0.1456,-9.3131e-18,0.8,-1.265,-1.685,-1.685,-1.281e-16,0,0,0.546,2.5957e-17,0,-3.3307e-16,0,0,1,3.9649e-15,0,1,-1.265,-1.685,-1.685,-1.7476e-14,-1.545,0.42,0.0038052,0.2,0.64,0
0.15616,2.728e-17,0.78,-1.264,-1.656,-1.656,5.5205e-16,0,0,0.5096,-1.9235e-17,0,1.4353e-15,0,0,1,-6.8674e-15,0,1,-1.264,-1.656,-1.656,8.0688e-14,-1.5253,0.392,0.0030937,0.22,0.64,0
0.16598,-2.9939e-17,0.76,-1.2712,-1.6305,-1.6305,-7.2489e-16,0,0,0.46713,-2.2885e-16,0,-1.8847e-15,0,0,1,1.1842e-15,0,1,-1.2712,-1.6305,-1.6305,-1.1558e-13,-1.5107,0.35933,0.002383,0.24,0.64,0
0.17508,-3.3965e-17,0.74,-1.262,-1.598,-1.598,-2.3332e-16,0,0,0.4368,-5.8061e-17,0,-6.0664e-16,0,0,1,0,0,1,-1.262,-1.598,-1.598,-3.9787e-14,-1.486,0.336,0.0019482,0.26,0.64,0
0.18346,-4.1061e-17,0.72,-1.261,-1.569,-1.569,7.2898e-16,0,0,0.4004,-1.7708e-16,0,1.8953e-15,0,0,1,3.6398e-15,0,1,-1.261,-1.569,-1.569,1.3561e-13,-1.4663,0.308,0.0015006,0.28,0.64,0
0.1911,4.8607e-17,0.7,-1.26,-1.54,-1.54,1.204e-15,0,0,0.364,-3.6067e-17,0,3.1304e-15,0,0,1,-9.7529e-16,0,1,-1.26,-1.54,-1.54,2.4637e-13,-1.4467,0.28,0.0011275,0.3,0.64,0
0.19802,4.831e-17,0.68,-1.259,-1.511,-1.511,2.844e-16,0,0,0.3276,-4.8527e-17,0,7.3944e-16,0,0,1,0,0,1,-1.259,-1.511,-1.511,6.4662e-14,-1.427,0.252,0.00082192,0.32,0.64,0
0.2042,5.7886e-17,0.66,-1.258,-1.482,-1.482,-8.5708e-16,0,0,0.2912,-1.2438e-16,0,-2.2284e-15,0,0,1,-1.7764e-15,0,1,-1.258,-1.482,-1.482,-2.3522e-13,-1.4073,0.224,0.00058402,0.34,0.64,0
0.20966,-5.9847e-17,0.64,-1.257,-1.453,-1.453,-1.2124e-15,0,0,0.2548,-5.5335e-17,0,-3.1522e-15,0,0,1,3.3147e-15,0,1,-1.257,-1.453,-1.453,-3.5441e-13,-1.3877,0.196,0.00038672,0.36,0.64,0
0.2144,-5.3921e-17,0.62,-1.2642,-1.4275,-1.4275,1.5555e-16,0,0,0.21233,-4.9063e-17,0,4.0443e-16,0,0,1,-1.1842e-15,0,1,-1.2642,-1.4275,-1.4275,5.4565e-14,-1.3731,0.16333,0.00022379,0.38,0.64,0
0.2184,-6.944e-17,0.6,-1.255,-1.395,-1.395,5.5818e-16,0,0,0.182,-3.7672e-16,0,1.4513e-15,0,0,1,-8.8818e-16,0,1,-1.255,-1.395,-1.395,2.2844e-13,-1.3483,0.14,0.00014093,0.4,0.64,0
0.22168,3.2389e-17,0.58,-1.254,-1.366,-1.366,1.1811e-15,0,0,0.1456,-2.2637e-17,0,3.0709e-15,0,0,1,3.9443e-31,0,1,-1.254,-1.366,-1.366,5.5224e-13,-1.3287,0.112,7.554e-05,0.42,0.64,0
0.22422,3.6705e-17,0.56,-1.253,-1.337,-1.337,-1.9818e-17,0,0,0.1092,-7.6656e-17,0,-5.1526e-17,0,0,1,0,0,1,-1.253,-1.337,-1.337,-1.3517e-14,-1.309,0.084,3.0441e-05,0.44,0.64,0
0.22604,2.8291e-17,0.54,-1.252,-1.308,-1.308,-5.4674e-16,0,0,0.0728,-9.1795e-17,0,-1.4215e-15,0,0,1,-1.7764e-15,0,1,-1.252,-1.308,-1.308,-5.5939e-13,-1.2893,0.056,9.0196e-06,0.46,0.64,0
0.22714,-7.3972e-17,0.52,-1.251,-1.279,-1.279,-1.2436e-15,0,0,0.0364,-1.0362e-16,0,-3.2335e-15,0,0,1,-1.7764e-15,0,1,-1.251,-1.279,-1.279,-2.5448e-12,-1.2697,0.028,1.1275e-06,0.48,0.64,0
0.2275,-6.185e-17,0.5,-1.25,-1.25,-1.25,2.562e-16,0,0,4.7098e-16,-4.8101e-17,0,6.6613e-16,0,0,1,-6.0664e-16,0,1,-1.25,-1.25,-1.25,33.286,-1.25,6.6613e-16,1.5181e-47,0.5,0.64,0
0.22714,-7.0725e-17,0.48,-1.249,-1.221,-1.221,-6.5584e-17,0,0,-0.0364,-1.3841e-16,0,-1.7052e-16,0,0,1,6.5019e-16,0,1,-1.221,-1.249,-1.221,-90,-1.2303,0.028,-1.1275e-06,0.52,0.64,0
0.22604,-7.4494e-17,0.46,-1.248,-1.192,-1.192,-1.9369e-16,0,0,-0.0728,-2.4556e-16,0,-5.0359e-16,0,0,1,-3.0332e-15,0,1,-1.192,-1.248,-1.192,-90,-1.2107,0.056,-9.0196e-06,0.54,0.64,0
0.22422,-9.2053e-17,0.44,-1.247,-1.163,-1.163,1.907e-15,0,0,-0.1092,-2.5464e-16,0,4.9583e-15,0,0,1,-4.8764e-16,0,1,-1.163,-1.247,-1.163,90,-1.191,0.084,-3.0441e-05,0.56,0.64,0
0.22168,8.7282e-17,0.42,-1.246,-1.134,-1.134,1.1362e-15,0,0,-0.1456,-1.2571e-17,0,2.954e-15,0,0,1,3.0332e-15,0,1,-1.134,-1.246,-1.134,90,-1.1713,0.112,-7.2157e-05,0.58,0.64,0
0.2184,9.3471e-17,0.4,-1.245,-1.105,-1.105,-6.7708e-16,0,0,-0.182,-2.5867e-16,0,-1.7604e-15,0,0,1,-6.0664e-16,0,1,-1.105,-1.245,-1.105,-90,-1.1517,0.14,-0.00014093,0.6,0.64,0
0.2144,9.1874e-17,0.38,-1.244,-1.076,-1.076,1.4792e-16,0,0,-0.2184,-8.5396e-17,0,3.8459e-16,0,0,1,-4.4409e-16,0,1,-1.076,-1.244,-1.076,90,-1.132,0.168,-0.00024353,0.62,0.64,0
0.20966,1.0098e-16,0.36,-1.243,-1.047,-1.047,-1.8224e-16,0,0,-0.2548,-3.1334e-17,0,-4.7384e-16,0,0,1,1.6255e-16,0,1,-1.047,-1.243,-1.047,-90,-1.1123,0.196,-0.00038672,0.64,0.64,0
0.2042,9.9921e-17,0.34,-1.242,-1.018,-1.018,6.2518e-17,0,0,-0.2912,2.3397e-17,0,1.6255e-16,0,0,1,0,0,1,-1.018,-1.242,-1.018,90,-1.0927,0.224,-0.00057726,0.66,0.64,0
0.19802,1.0919e-16,0.32,-1.241,-0.989,-0.989,-1.7362e-15,0,0,-0.3276,1.765e-17,0,-4.5142e-15,0,0,1,-4.6003e-16,0,1,-0.989,-1.241,-0.989,-90,-1.073,0.252,-0.00082192,0.68,0.64,0
0.1911,-5.5379e-17,0.3,-1.24,-0.96,-0.96,-9.1429e-16,0,0,-0.364,-1.385e-16,0,-2.3772e-15,0,0,1,-2.9301e-15,0,1,-0.96,-1.24,-0.96,-90,-1.0533,0.28,-0.0011275,0.7,0.64,0
0.18346,-5.4313e-17,0.28,-1.239,-0.931,-0.931,-6.3745e-16,0,0,-0.4004,-3.8182e-17,0,-1.6574e-15,0,0,1,-1.0507e-15,0,1,-0.931,-1.239,-0.931,-90,-1.0337,0.308,-0.0015006,0.72,0.64,0
0.17508,-5.6572e-17,0.26,-1.238,-0.902,-0.902,1.5936e-16,0,0,-0.4368,-2.6871e-16,0,4.1434e-16,0,0,1,1.6255e-16,0,1,-0.902,-1.238,-0.902,90,-1.014,0.336,-0.0019482,0.74,0.64,0
0.16598,-4.9295e-17,0.24,-1.237,-0.873,-0.873,2.3332e-16,0,0,-0.4732,-8.0928e-17,0,6.0664e-16,0,0,1,0,0,1,-0.873,-1.237,-0.873,90,-0.99433,0.364,-0.002477,0.76,0.64,0
0.15616,-4.7564e-17,0.22,-1.236,-0.844,-0.844,-2.3332e-16,0,0,-0.5096,-1.7552e-17,0,-6.0664e-16,0,0,1,-4.9304e-32,0,1,-0.844,-1.236,-0.844,-90,-0.97467,0.392,-0.0030937,0.78,0.64,0
0.1456,-5.2445e-17,0.2,-1.235,-0.815,-0.815,1.5795e-15,0,0,-0.546,-3.7941e-17,0,4.1068e-15,0,0,1,2.5976e-16,0,1,-0.815,-1.235,-0.815,90,-0.955,0.42,-0.0038052,0.8,0.64,0
0.13432,9.2093e-17,0.18,-1.234,-0.786,-0.786,8.3154e-16,0,0,-0.5824,-9.6304e-18,0,2.162e-15,0,0,1,2.1827e-15,0,1,-0.786,-1.234,-0.786,90,-0.93533,0.448,-0.0046181,0.82,0.64,0
0.1223,9.6992e-17,0.16,-1.233,-0.757,-0.757,1.7918e-16,0,0,-0.6188,-9.6077e-17,0,4.6587e-16,0,0,1,0,0,1,-0.757,-1.233,-0.757,90,-0.91567,0.476,-0.0055392,0.84,0.64,0
0.10956,9.895e-17,0.14,-1.232,-0.728,-0.728,-1.4792e-16,0,0,-0.6552,-9.2312e-17,0,-3.8459e-16,0,0,1,0,0,1,-0.728,-1.232,-0.728,-90,-0.896,0.504,-0.0065753,0.86,0.64,0
0.096096,9.8901e-17,0.12,-1.231,-0.699,-0.699,-1.3801e-16,0,0,-0.6916,-7.6668e-17,0,-3.5883e-16,0,0,1,-2.4652e-32,0,1,-0.699,-1.231,-0.699,-90,-0.87633,0.532,-0.0077332,0.88,0.64,0
0.0819,9.1897e-17,0.1,-1.23,-0.67,-0.67,3.698e-17,0,0,-0.728,-1.2919e-16,0,9.6148e-17,0,0,1,-1.4791e-31,0,1,-0.67,-1.23,-0.67,90,-0.85667,0.56,-0.0090197,0.9,0.64,0
0.066976,8.9085e-17,0.08,-1.229,-0.641,-0.641,-1.004e-15,0,0,-0.7644,-1.1781e-16,0,-2.6105e-15,0,0,1,-9.6799e-16,0,1,-0.641,-1.229,-0.641,-90,-0.837,0.588,-0.010441,0.92,0.64,0
0.051324,-3.9479e-17,0.06,-1.228,-0.612,-0.612,-7.8721e-16,0,0,-0.8008,-6.0267e-17,0,-2.0467e-15,0,0,1,-3.2821e-15,0,1,-0.612,-1.228,-0.612,-90,-0.81733,0.616,-0.012024,0.94,0.64,0
0.034944,-3.9904e-17,0.04,-1.227,-0.583,-0.583,-2.974e-17,0,0,-0.8372,1.0452e-17,0,-7.7324e-17,0,0,1,0,0,1,-0.583,-1.227,-0.583,-90,-0.79767,0.644,-0.013718,0.96,0.64,0
0.017836,-4.0953e-17,0.02,-1.226,-0.554,-0.554,-3.6386e-17,0,0,-0.8736,-4.9217e-18,0,-9.4605e-17,0,0,1,0,0,1,-0.554,-1.226,-0.554,-90,-0.778,0.672,-0.015586,0.98,0.64,0
0,-4.0899e-17,0,-1.2005,-0.5145,-0.5145,-4.8141e-18,0,0,-0.8918,-4.4019e-17,0,-1.2517e-17,0,0,1,0,0,1,-0.5145,-1.2005,-0.5145,-90,-0.74317,0.686,-0.016581,1,0.64,0
0,3.0475e-17,1,-1.2995,-1.9855,-1.9855,5.5853e-17,0,0,0.8918,-3.5709e-19,0,1.4522e-16,0,0,1,0,0,1,-1.2995,-1.9855,-1.9855,4.665e-15,-1.7568,0.686,0.016581,0,0.66,0
0.017836,3.3398e-17,0.98,-1.274,-1.946,-1.946,-1.4607e-16,0,0,0.8736,-1.2312e-17,0,-3.7978e-16,0,0,1,5.5033e-15,0,1,-1.274,-1.946,-1.946,-1.2454e-14,-1.722,0.672,0.015586,0.02,0.66,0
0.034944,2.7186e-17,0.96,-1.273,-1.917,-1.917,8.7164e-17,0,0,0.8372,5.8953e-17,0,2.2663e-16,0,0,1,-3.7269e-15,0,1,-1.273,-1.917,-1.917,7.7548e-15,-1.7023,0.644,0.013718,0.04,0.66,0
0.051324,3.701e-17,0.94,-1.272,-1.888,-1.888,4.1319e-16,0,0,0.8008,1.2212e-16,0,1.0743e-15,0,0,1,4.29e-15,0,1,-1.272,-1.888,-1.888,3.8834e-14,-1.6827,0.616,0.012024,0.06,0.66,0
0.066976,7.2084e-17,0.92,-1.271,-1.859,-1.859,1.5287e-16,0,0,0.7644,1.1986e-16,0,3.9747e-16,0,0,1,-3.7269e-15,0,1,-1.271,-1.859,-1.859,1.4896e-14,-1.663,0.588,0.010441,0.08,0.66,0
0.0819,3.0255e-17,0.9,-1.27,-1.83,-1.83,-6.3403e-16,0,0,0.728,1.7391e-17,0,-1.6485e-15,0,0,1,2.7516e-15,0,1,-1.27,-1.83,-1.83,-6.487e-14,-1.6433,0.56,0.0090197,0.1,0.66,0
0.096096,3.398e-17,0.88,-1.269,-1.801,-1.801,-4.7809e-16,0,0,0.6916,-7.1539e-17,0,-1.243e-15,0,0,1,-5.6308e-16,0,1,-1.269,-1.801,-1.801,-5.1489e-14,-1.6237,0.532,0.0077332,0.12,0.66,0
0.10956,1.5166e-17,0.86,-1.268,-1.772,-1.772,4.0413e-16,0,0,0.6552,1.3018e-16,0,1.0507e-15,0,0,1,-2.7835e-15,0,1,-1.268,-1.772,-1.772,4.5942e-14,-1.604,0.504,0.0065753,0.14,0.66,0
0.1223,5.831e-17,0.84,-1.267,-1.743,-1.743,-3.0463e-16,0,0,0.6188,-1.9933e-17,0,-7.9203e-16,0,0,1,-2.9577e-15,0,1,-1.267,-1.743,-1.743,-3.6668e-14,-1.5843,0.476,0.0055392,0.16,0.66,0
0.13432,8.5821e-19,0.82,-1.2578,-1.7105,-1.7105,-1.3644e-15,0,0,0.58847,-2.8556e-17,0,-3.5474e-15,0,0,1,-7.8886e-31,0,1,-1.2578,-1.7105,-1.7105,-1.727e-13,-1.5596,0.45267,0.0047639,0.18,0.66,0
0.1456,-8.5781e-18,0.8,-1.265,-1.685,-1.685,5.0097e-16,0,0,0.546,-8.248e-17,0,1.3025e-15,0,0,1,7.2796e-15,0,1,-1.265,-1.685,-1.685,6.8341e-14,-1.545,0.42,0.0038052,0.2,0.66,0
0.15616,3.2543e-17,0.78,-1.264,-1.656,-1.656,-7.061e-16,0,0,0.5096,-2.7807e-16,0,-1.8359e-15,0,0,1,-1.0624e-15,0,1,-1.264,-1.656,-1.656,-1.0321e-13,-1.5253,0.392,0.0030937,0.22,0.66,0
0.16598,-4.1504e-17,0.76,-1.2712,-1.6305,-1.6305,-4.2496e-16,0,0,0.46713,-2.6524e-16,0,-1.1049e-15,0,0,1,3.8275e-15,0,1,-1.2712,-1.6305,-1.6305,-6.7761e-14,-1.5107,0.35933,0.002383,0.24,0.66,0
0.17508,-3.8089e-17,0.74,-1.262,-1.598,-1.598,-2.3639e-16,0,0,0.4368,-3.9489e-16,0,-6.1461e-16,0,0,1,5.6308e-16,0,1,-1.262,-1.598,-1.598,-4.031e-14,-1.486,0.336,0.0019482,0.26,0.66,0
0.18346,-4.4101e-17,0.72,-1.261,-1.569,-1.569,8.1438e-16,0,0,0.4004,-8.8074e-17,0,2.1174e-15,0,0,1,3.6398e-15,0,1,-1.261,-1.569,-1.569,1.515e-13,-1.4663,0.308,0.0015006,0.28,0.66,0
0.1911,4.8671e-17,0.7,-1.26,-1.54,-1.54,1.5456e-15,0,0,0.364,-3.255e-17,0,4.0186e-15,0,0,1,-9.7529e-16,0,1,-1.26,-1.54,-1.54,3.1627e-13,-1.4467,0.28,0.0011275,0.3,0.66,0
0.19802,4.9502e-17,0.68,-1.259,-1.511,-1.511,2.562e-16,0,0,0.3276,-1.1252e-16,0,6.6613e-16,0,0,1,0,0,1,-1.259,-1.511,-1.511,5.8252e-14,-1.427,0.252,0.00082192,0.32,0.66,0
0.2042,5.2566e-17,0.66,-1.258,-1.482,-1.482,-3.1341e-16,0,0,0.2912,-1.3531e-16,0,-8.1487e-16,0,0,1,-5.3291e-15,0,1,-1.258,-1.482,-1.482,-8.7885e-14,-1.4073,0.224,0.00058402,0.34,0.66,0
0.20966,-5.6788e-17,0.64,-1.257,-1.453,-1.453,-2.9539e-15,0,0,0.2548,2.2695e-16,0,-7.6802e-15,0,0,1,1.5384e-15,0,1,-1.257,-1.453,-1.453,-8.635e-13,-1.3877,0.196,0.00038672,0.36,0.66,0
0.2144,-5.78e-17,0.62,-1.2642,-1.4275,-1.4275,3.7591e-17,0,0,0.21233,-1.5492e-16,0,9.7737e-17,0,0,1,1.1842e-15,0,1,-1.2642,-1.4275,-1.4275,1.3187e-14,-1.3731,0.16333,0.00022379,0.38,0.66,0
0.2184,-7.6173e-17,0.6,-1.255,-1.395,-1.395,6.8628e-16,0,0,0.182,-2.1237e-16,0,1.7843e-15,0,0,1,3.3147e-15,0,1,-1.255,-1.395,-1.395,2.8086e-13,-1.3483,0.14,0.00014093,0.4,0.66,0
0.22168,3.2786e-17,0.58,-1.254,-1.366,-1.366,1.204e-15,0,0,0.1456,-9.7873e-17,0,6.2608e-15,0,0,1,-1.3004e-15,0,1,-1.254,-1.366,-1.366,5.4749e-13,-1.3287,0.112,7.554e-05,0.42,0.66,0
0.22422,3.2554e-17,0.56,-1.253,-1.337,-1.337,-3.8124e-16,0,0,0.1092,-3.3818e-16,0,-9.9123e-16,0,0,1,0,0,1,-1.253,-1.337,-1.337,-2.6004e-13,-1.309,0.084,3.0441e-05,0.44,0.66,0
0.22604,2.4318e-17,0.54,-1.252,-1.308,-1.308,-3.5612e-16,0,0,0.0728,-1.4498e-16,0,-9.259e-16,0,0,1,-1.9825e-15,0,1,-1.252,-1.308,-1.308,-3.6436e-13,-1.2893,0.056,9.0196e-06,0.46,0.66,0
0.22714,-7.4126e-17,0.52,-1.251,-1.279,-1.279,-9.478e-16,0,0,0.0364,3.2023e-17,0,-2.4643e-15,0,0,1,2.061e-16,0,1,-1.251,-1.279,-1.279,-1.9395e-12,-1.2697,0.028,1.1275e-06,0.48,0.66,0
0.2275,-6.5465e-17,0.5,-1.25,-1.25,-1.25,-6.2518e-17,0,0,-3.0271e-16,-1.7017e-16,0,-1.6255e-16,0,0,1,-3.251e-16,0,1,-1.25,-1.25,-1.25,-82.138,-1.25,5.439e-16,0,0.5,0.66,0
0.22714,-7.326e-17,0.48,-1.249,-1.221,-1.221,-4.2701e-17,0,0,-0.0364,-2.0507e-16,0,-1.1102e-16,0,0,1,-3.251e-16,0,1,-1.221,-1.249,-1.221,-90,-1.2303,0.028,-1.1275e-06,0.52,0.66,0
0.22604,-8.2233e-17,0.46,-1.248,-1.192,-1.192,2.5314e-16,0,0,-0.0728,-3.7664e-16,0,6.5816e-16,0,0,1,2.4265e-15,0,1,-1.192,-1.248,-1.192,90,-1.2107,0.056,-9.0196e-06,0.54,0.66,0
0.22422,-9.8433e-17,0.44,-1.247,-1.163,-1.163,2.4278e-15,0,0,-0.1092,-1.2492e-16,0,6.3123e-15,0,0,1,-1.1378e-15,0,1,-1.163,-1.247,-1.163,90,-1.191,0.084,-3.0441e-05,0.56,0.66,0
0.22168,8.8687e-17,0.42,-1.246,-1.134,-1.134,1.1903e-15,0,0,-0.1456,-1.8427e-16,0,3.0948e-15,0,0,1,3.0332e-15,0,1,-1.134,-1.246,-1.134,90,-1.1713,0.112,-7.2157e-05,0.58,0.66,0
0.2184,8.6613e-17,0.4,-1.245,-1.105,-1.105,8.5402e-17,0,0,-0.182,-5.6401e-17,0,2.2204e-16,0,0,1,0,0,1,-1.105,-1.245,-1.105,90,-1.1517,0.14,-0.00014093,0.6,0.66,0
0.2144,8.838e-17,0.38,-1.244,-1.076,-1.076,-5.1241e-16,0,0,-0.2184,-8.8227e-17,0,-1.3323e-15,0,0,1,0,0,1,-1.076,-1.244,-1.076,-90,-1.132,0.168,-0.00024353,0.62,0.66,0
0.20966,9.966e-17,0.36,-1.243,-1.047,-1.047,1.7918e-16,0,0,-0.2548,-1.6305e-16,0,4.6587e-16,0,0,1,1.6255e-16,0,1,-1.047,-1.243,-1.047,90,-1.1123,0.196,-0.00038672,0.64,0.66,0
0.2042,1.0036e-16,0.34,-1.242,-1.018,-1.018,4.3539e-16,0,0,-0.2912,-5.6023e-17,0,1.132e-15,0,0,1,-1.2133e-15,0,1,-1.018,-1.242,-1.018,90,-1.0927,0.224,-0.00057726,0.66,0.66,0
0.19802,1.0809e-16,0.32,-1.241,-0.989,-0.989,-1.5967e-15,0,0,-0.3276,-1.5075e-16,0,-4.1514e-15,0,0,1,-6.8208e-16,0,1,-0.989,-1.241,-0.989,-90,-1.073,0.252,-0.00082192,0.68,0.66,0
0.1911,-5.7557e-17,0.3,-1.24,-0.96,-0.96,-1.6768e-15,0,0,-0.364,-3.6084e-17,0,-4.3596e-15,0,0,1,-4.528e-15,0,1,-0.96,-1.24,-0.96,-90,-1.0533,0.28,-0.0011275,0.7,0.66,0
0.18346,-5.7031e-17,0.28,-1.239,-0.931,-0.931,3.1259e-17,0,0,-0.4004,-1.4211e-16,0,8.1274e-17,0,0,1,1.6255e-16,0,1,-0.931,-1.239,-0.931,90,-1.0337,0.308,-0.0015006,0.72,0.66,0
0.17508,-6.2391e-17,0.26,-1.238,-0.902,-0.902,1.281e-16,0,0,-0.4368,6.2317e-18,0,3.3307e-16,0,0,1,-1.4077e-16,0,1,-0.902,-1.238,-0.902,90,-1.014,0.336,-0.0019482,0.74,0.66,0
0.16598,-4.8129e-17,0.24,-1.237,-0.873,-0.873,2.3332e-16,0,0,-0.4732,-1.3346e-16,0,6.0664e-16,0,0,1,-1.0507e-15,0,1,-0.873,-1.237,-0.873,90,-0.99433,0.364,-0.002477,0.76,0.66,0
0.15616,-5.2364e-17,0.22,-1.236,-0.844,-0.844,-1.3648e-16,0,0,-0.5096,-2.7482e-16,0,-3.5484e-16,0,0,1,-5.9497e-17,0,1,-0.844,-1.236,-0.844,-90,-0.97467,0.392,-0.0030937,0.78,0.66,0
0.1456,-5.0331e-17,0.2,-1.235,-0.815,-0.815,1.8613e-15,0,0,-0.546,5.9923e-17,0,4.8393e-15,0,0,1,-4.3555e-17,0,1,-0.815,-1.235,-0.815,90,-0.955,0.42,-0.0038052,0.8,0.66,0
0.13432,9.1792e-17,0.18,-1.234,-0.786,-0.786,7.3051e-16,0,0,-0.5824,-1.4684e-18,0,1.8993e-15,0,0,1,2.1827e-15,0,1,-0.786,-1.234,-0.786,90,-0.93533,0.448,-0.0046181,0.82,0.66,0
0.1223,9.647e-17,0.16,-1.233,-0.757,-0.757,1.0675e-16,0,0,-0.6188,-4.7884e-17,0,2.7756e-16,0,0,1,0,0,1,-0.757,-1.233,-0.757,90,-0.91567,0.476,-0.0055392,0.84,0.66,0
0.10956,9.5521e-17,0.14,-1.232,-0.728,-0.728,-1.1094e-16,0,0,-0.6552,-5.955e-17,0,-2.8844e-16,0,0,1,0,0,1,-0.728,-1.232,-0.728,-90,-0.896,0.504,-0.0065753,0.86,0.66,0
0.096096,9.7338e-17,0.12,-1.231,-0.699,-0.699,3.698e-17,0,0,-0.6916,-1.8763e-16,0,9.6148e-17,0,0,1,2.4652e-32,0,1,-0.699,-1.231,-0.699,90,-0.87633,0.532,-0.0077332,0.88,0.66,0
0.0819,8.9608e-17,0.1,-1.23,-0.67,-0.67,-3.984e-17,0,0,-0.728,-1.4115e-16,0,-1.0358e-16,0,0,1,1.4791e-31,0,1,-0.67,-1.23,-0.67,-90,-0.85667,0.56,-0.0090197,0.9,0.66,0
0.066976,8.8007e-17,0.08,-1.229,-0.641,-0.641,-1.0389e-15,0,0,-0.7644,-2.7525e-17,0,-2.7012e-15,0,0,1,-9.6799e-16,0,1,-0.641,-1.229,-0.641,-90,-0.837,0.588,-0.010441,0.92,0.66,0
0.051324,-4.0397e-17,0.06,-1.228,-0.612,-0.612,-6.3852e-16,0,0,-0.8008,-5.6119e-17,0,-1.6602e-15,0,0,1,-1.6207e-15,0,1,-0.612,-1.228,-0.612,-90,-0.81733,0.616,-0.012024,0.94,0.66,0
0.034944,-4.0158e-17,0.04,-1.227,-0.583,-0.583,-5.9429e-17,0,0,-0.8372,-1.5142e-17,0,-1.5452e-16,0,0,1,-1.4658e-16,0,1,-0.583,-1.227,-0.583,-90,-0.79767,0.644,-0.013718,0.96,0.66,0
0.017836,-3.9572e-17,0.02,-1.226,-0.554,-0.554,-7.184e-17,0,0,-0.8736,-1.464e-17,0,-1.8679e-16,0,0,1,1.3611e-18,0,1,-0.554,-1.226,-0.554,-90,-0.778,0.672,-0.015586,0.98,0.66,0
0,-4.1406e-17,0,-1.2005,-0.5145,-0.5145,-1.7251e-17,0,0,-0.8918,1.3026e-17,0,-4.4854e-17,0,0,1,0,0,1,-0.5145,-1.2005,-0.5145,-90,-0.74317,0.686,-0.016581,1,0.66,0
0,3.183e-17,1,-1.2995,-1.9855,-1.9855,3.8934e-17,0,0,0.8918,9.8159e-17,0,1.0123e-16,0,0,1,0,0,1,-1.2995,-1.9855,-1.9855,3.2518e-15,-1.7568,0.686,0.016581,0,0.68,0
0.017836,3.3528e-17,0.98,-1.274,-1.946,-1.946,-1.3013e-16,0,0,0.8736,-7.272e-17,0,-3.3833e-16,0,0,1,4.6151e-15,0,1,-1.274,-1.946,-1.946,-1.1095e-14,-1.722,0.672,0.015586,0.02,0.68,0
0.034944,2.4742e-17,0.96,-1.273,-1.917,-1.917,1.3391e-16,0,0,0.8372,-9.8325e-17,0,3.4817e-16,0,0,1,-1.0118e-14,0,1,-1.273,-1.917,-1.917,1.1914e-14,-1.7023,0.644,0.013718,0.04,0.68,0
0.051324,4.2122e-17,0.94,-1.272,-1.888,-1.888,5.9143e-16,0,0,0.8008,5.9756e-17,0,1.5377e-15,0,0,1,3.9649e-15,0,1,-1.272,-1.888,-1.888,5.5248e-14,-1.6827,0.616,0.012024,0.06,0.68,0
0.066976,6.9593e-17,0.92,-1.271,-1.859,-1.859,3.5447e-17,0,0,0.7644,-5.5667e-17,0,9.2163e-17,0,0,1,-1.0118e-14,0,1,-1.271,-1.859,-1.859,3.454e-15,-1.663,0.588,0.010441,0.08,0.68,0
0.0819,3.5705e-17,0.9,-1.27,-1.83,-1.83,-4.8743e-16,0,0,0.728,1.395e-16,0,-1.2673e-15,0,0,1,2.5137e-15,0,1,-1.27,-1.83,-1.83,-4.9871e-14,-1.6433,0.56,0.0090197,0.1,0.68,0
0.096096,2.8132e-17,0.88,-1.269,-1.801,-1.801,-6.4051e-17,0,0,0.6916,-9.3336e-17,0,-1.6653e-16,0,0,1,-2.6645e-15,0,1,-1.269,-1.801,-1.801,-6.8982e-15,-1.6237,0.532,0.0077332,0.12,0.68,0
0.10956,2.1814e-17,0.86,-1.268,-1.772,-1.772,6.5461e-16,0,0,0.6552,1.9851e-16,0,1.702e-15,0,0,1,-3.1086e-15,0,1,-1.268,-1.772,-1.772,7.4417e-14,-1.604,0.504,0.0065753,0.14,0.68,0
0.1223,5.9751e-17,0.84,-1.267,-1.743,-1.743,-2.1504e-16,0,0,0.6188,1.9317e-18,0,-5.591e-16,0,0,1,1.5703e-15,0,1,-1.267,-1.743,-1.743,-2.5884e-14,-1.5843,0.476,0.0055392,0.16,0.68,0
0.13432,-7.5817e-19,0.82,-1.266,-1.714,-1.714,-9.9622e-16,0,0,0.5824,-1.1673e-16,0,-2.5902e-15,0,0,1,-8.8818e-16,0,1,-1.266,-1.714,-1.714,-1.2741e-13,-1.5647,0.448,0.0046181,0.18,0.68,0
0.1456,-1.0228e-17,0.8,-1.265,-1.685,-1.685,2.7756e-16,0,0,0.546,-1.4312e-16,0,7.2165e-16,0,0,1,1.9825e-15,0,1,-1.265,-1.685,-1.685,3.7864e-14,-1.545,0.42,0.0038052,0.2,0.68,0
0.15616,2.6982e-17,0.78,-1.264,-1.656,-1.656,2.1044e-16,0,0,0.5096,-2.3997e-16,0,5.4714e-16,0,0,1,-2.6326e-15,0,1,-1.264,-1.656,-1.656,3.0758e-14,-1.5253,0.392,0.0030937,0.22,0.68,0
0.16598,-4.3679e-17,0.76,-1.263,-1.627,-1.627,-1.1102e-15,0,0,0.4732,-2.4623e-16,0,-2.8866e-15,0,0,1,7.2796e-15,0,1,-1.263,-1.627,-1.627,-1.7476e-13,-1.5057,0.364,0.002477,0.24,0.68,0
0.17508,-4.9761e-17,0.74,-1.262,-1.598,-1.598,-1.9818e-17,0,0,0.4368,-2.4304e-16,0,-5.1526e-17,0,0,1,-4.29e-15,0,1,-1.262,-1.598,-1.598,-3.3793e-15,-1.486,0.336,0.0019482,0.26,0.68,0
0.18346,-4.4584e-17,0.72,-1.261,-1.569,-1.569,8.5708e-16,0,0,0.4004,-1.934e-17,0,2.2284e-15,0,0,1,5.312e-16,0,1,-1.261,-1.569,-1.569,1.5944e-13,-1.4663,0.308,0.0015006,0.28,0.68,0
0.1911,4.7305e-17,0.7,-1.26,-1.54,-1.54,1.355e-15,0,0,0.364,-1.3652e-16,0,3.523e-15,0,0,1,1.5703e-15,0,1,-1.26,-1.54,-1.54,2.7727e-13,-1.4467,0.28,0.0011275,0.3,0.68,0
0.19802,4.3809e-17,0.68,-1.259,-1.511,-1.511,4.2701e-17,0,0,0.3276,-1.5511e-16,0,1.1102e-16,0,0,1,-3.251e-16,0,1,-1.259,-1.511,-1.511,9.7087e-15,-1.427,0.252,0.00082192,0.32,0.68,0
0.2042,5.0731e-17,0.66,-1.258,-1.482,-1.482,-2.936e-16,0,0,0.2912,-5.9614e-17,0,-7.6335e-16,0,0,1,2.2205e-15,0,1,-1.258,-1.482,-1.482,-8.3848e-14,-1.4073,0.224,0.00058402,0.34,0.68,0
0.20966,-5.2249e-17,0.64,-1.257,-1.453,-1.453,-1.5624e-15,0,0,0.2548,1.7846e-16,0,-4.0621e-15,0,0,1,-2.2205e-15,0,1,-1.257,-1.453,-1.453,-4.5672e-13,-1.3877,0.196,0.00038672,0.36,0.68,0
0.2144,-6.0508e-17,0.62,-1.256,-1.424,-1.424,3.5836e-16,0,0,0.2184,-1.3575e-16,0,9.3173e-16,0,0,1,8.8818e-16,0,1,-1.256,-1.424,-1.424,1.2222e-13,-1.368,0.168,0.00024353,0.38,0.68,0
0.2184,-7.7935e-17,0.6,-1.255,-1.395,-1.395,8.9672e-16,0,0,0.182,-6.923e-17,0,2.3315e-15,0,0,1,1.2133e-15,0,1,-1.255,-1.395,-1.395,3.6699e-13,-1.3483,0.14,0.00014093,0.4,0.68,0
0.22168,2.8475e-17,0.58,-1.254,-1.366,-1.366,1.2269e-15,0,0,0.1456,-9.0287e-17,0,3.1899e-15,0,0,1,-1.7422e-16,0,1,-1.254,-1.366,-1.366,5.5939e-13,-1.3287,0.112,7.554e-05,0.42,0.68,0
0.22422,2.3177e-17,0.56,-1.253,-1.337,-1.337,-1.4792e-16,0,0,0.1092,-2.0319e-16,0,-3.8459e-16,0,0,1,0,0,1,-1.253,-1.337,-1.337,-1.0089e-13,-1.309,0.084,3.0441e-05,0.44,0.68,0
0.22604,2.2491e-17,0.54,-1.252,-1.308,-1.308,-8.342e-16,0,0,0.0728,-3.0978e-17,0,-2.1689e-15,0,0,1,-2.7676e-15,0,1,-1.252,-1.308,-1.308,-8.535e-13,-1.2893,0.056,9.0196e-06,0.46,0.68,0
0.22714,-7.2691e-17,0.52,-1.251,-1.279,-1.279,-5.8944e-16,0,0,0.0364,9.0086e-18,0,-1.5325e-15,0,0,1,3.4613e-15,0,1,-1.251,-1.279,-1.279,-1.2062e-12,-1.2697,0.028,1.1275e-06,0.48,0.68,0
0.2275,-6.8657e-17,0.5,-1.25,-1.25,-1.25,-8.7915e-16,0,0,-1.622e-16,-9.7003e-17,0,-2.2858e-15,0,0,1,-3.0767e-15,0,1,-1.25,-1.25,-1.25,45,-1.25,1.7413e-15,-9.1088e-47,0.5,0.68,0
0.22714,-7.8928e-17,0.48,-1.249,-1.221,-1.221,-2.509e-16,0,0,-0.0364,-5.2664e-17,0,-6.5233e-16,0,0,1,2.4265e-15,0,1,-1.221,-1.249,-1.221,-90,-1.2303,0.028,-1.1275e-06,0.52,0.68,0
0.22604,-8.956e-17,0.46,-1.248,-1.192,-1.192,5.4143e-17,0,0,-0.0728,5.4667e-17,0,1.4077e-16,0,0,1,2.1014e-15,0,1,-1.192,-1.248,-1.192,90,-1.2107,0.056,-9.0196e-06,0.54,0.68,0
0.22422,-9.7049e-17,0.44,-1.247,-1.163,-1.163,1.981e-15,0,0,-0.1092,1.6713e-16,0,5.1506e-15,0,0,1,-4.5121e-15,0,1,-1.163,-1.247,-1.163,90,-1.191,0.084,-3.0441e-05,0.56,0.68,0
0.22168,7.9911e-17,0.42,-1.246,-1.134,-1.134,1.5746e-15,0,0,-0.1456,-4.0575e-17,0,4.094e-15,0,0,1,4.7065e-15,0,1,-1.134,-1.246,-1.134,90,-1.1713,0.112,-7.2157e-05,0.58,0.68,0
0.2184,9.1215e-17,0.4,-1.245,-1.105,-1.105,-2.0206e-16,0,0,-0.182,1.3048e-16,0,-5.2536e-16,0,0,1,0,0,1,-1.105,-1.245,-1.105,-90,-1.1517,0.14,-0.00014093,0.6,0.68,0
0.2144,8.8345e-17,0.38,-1.244,-1.076,-1.076,-3.5836e-16,0,0,-0.2184,-1.2616e-16,0,-9.3173e-16,0,0,1,1.6255e-16,0,1,-1.076,-1.244,-1.076,-90,-1.132,0.168,-0.00024353,0.62,0.68,0
0.20966,9.4459e-17,0.36,-1.243,-1.047,-1.047,-1.1442e-17,0,0,-0.2548,-1.1231e-16,0,-2.9748e-17,0,0,1,-8.8818e-16,0,1,-1.047,-1.243,-1.047,-90,-1.1123,0.196,-0.00038672,0.64,0.68,0
0.2042,9.768e-17,0.34,-1.242,-1.018,-1.018,4.0413e-16,0,0,-0.2912,-1.5176e-16,0,1.0507e-15,0,0,1,-1.6574e-15,0,1,-1.018,-1.242,-1.018,90,-1.0927,0.224,-0.00057726,0.66,0.68,0
0.19802,1.0316e-16,0.32,-1.241,-0.989,-0.989,-1.7362e-15,0,0,-0.3276,-1.5861e-16,0,-4.5142e-15,0,0,1,1.4194e-15,0,1,-0.989,-1.241,-0.989,-90,-1.073,0.252,-0.00082192,0.68,0.68,0
0.1911,-5.6822e-17,0.3,-1.24,-0.96,-0.96,-1.3466e-15,0,0,-0.364,8.2598e-17,0,-3.5012e-15,0,0,1,-3.3147e-15,0,1,-0.96,-1.24,-0.96,-90,-1.0533,0.28,-0.0011275,0.7,0.68,0
0.18346,-5.9997e-17,0.28,-1.239,-0.931,-0.931,3.0728e-16,0,0,-0.4004,-6.9003e-17,0,7.9893e-16,0,0,1,1.2133e-15,0,1,-0.931,-1.239,-0.931,90,-1.0337,0.308,-0.0015006,0.72,0.68,0
0.17508,-5.6323e-17,0.26,-1.238,-0.902,-0.902,-6.2518e-17,0,0,-0.4368,2.6516e-16,0,-1.6255e-16,0,0,1,-1.6255e-16,0,1,-0.902,-1.238,-0.902,-90,-1.014,0.336,-0.0019482,0.74,0.68,0
0.16598,-5.4634e-17,0.24,-1.237,-0.873,-0.873,2.135e-16,0,0,-0.4732,-5.5961e-17,0,5.5511e-16,0,0,1,0,0,1,-0.873,-1.237,-0.873,90,-0.99433,0.364,-0.002477,0.76,0.68,0
0.15616,-5.8556e-17,0.22,-1.236,-0.844,-0.844,-3.8124e-16,0,0,-0.5096,-3.8902e-17,0,-9.9123e-16,0,0,1,8.1274e-17,0,1,-0.844,-1.236,-0.844,-90,-0.97467,0.392,-0.0030937,0.78,0.68,0
0.1456,-5.0049e-17,0.2,-1.235,-0.815,-0.815,1.8826e-15,0,0,-0.546,-7.4348e-18,0,4.8948e-15,0,0,1,3.7079e-16,0,1,-0.815,-1.235,-0.815,90,-0.955,0.42,-0.0038052,0.8,0.68,0
0.13432,9.2034e-17,0.18,-1.234,-0.786,-0.786,6.6646e-16,0,0,-0.5824,3.5049e-17,0,1.7328e-15,0,0,1,1.7684e-15,0,1,-0.786,-1.234,-0.786,90,-0.93533,0.448,-0.0046181,0.82,0.68,0
0.1223,9.5077e-17,0.16,-1.233,-0.757,-0.757,1.0256e-16,0,0,-0.6188,8.0369e-17,0,2.6667e-16,0,0,1,-1.8141e-16,0,1,-0.757,-1.233,-0.757,90,-0.91567,0.476,-0.0055392,0.84,0.68,0
0.10956,9.6568e-17,0.14,-1.232,-0.728,-0.728,1.8071e-16,0,0,-0.6552,7.0439e-17,0,4.6985e-16,0,0,1,1.0889e-17,0,1,-0.728,-1.232,-0.728,90,-0.896,0.504,-0.0065753,0.86,0.68,0
0.096096,9.1395e-17,0.12,-1.231,-0.699,-0.699,-7.396e-17,0,0,-0.6916,-7.0561e-17,0,-1.923e-16,0,0,1,-5.66e-16,0,1,-0.699,-1.231,-0.699,-90,-0.87633,0.532,-0.0077332,0.88,0.68,0
0.0819,8.6251e-17,0.1,-1.23,-0.67,-0.67,2.8399e-17,0,0,-0.728,-1.6351e-17,0,7.3837e-17,0,0,1,-1.1102e-16,0,1,-0.67,-1.23,-0.67,90,-0.85667,0.56,-0.0090197,0.9,0.68,0
0.066976,8.7984e-17,0.08,-1.229,-0.641,-0.641,-8.4753e-16,0,0,-0.7644,-3.7681e-17,0,-2.2036e-15,0,0,1,-9.4767e-16,0,1,-0.641,-1.229,-0.641,-90,-0.837,0.588,-0.010441,0.92,0.68,0
0.051324,-4.1724e-17,0.06,-1.228,-0.612,-0.612,-7.0753e-16,0,0,-0.8008,-5.0804e-17,0,-1.8396e-15,0,0,1,-1.6559e-15,0,1,-0.612,-1.228,-0.612,7.1054e-14,-0.81733,0.616,-0.012024,0.94,0.68,0
0.034944,-4.051e-17,0.04,-1.227,-0.583,-0.583,3.3456e-17,0,0,-0.8372,6.5577e-19,0,8.6985e-17,0,0,1,-1.4658e-16,0,1,-0.583,-1.227,-0.583,90,-0.79767,0.644,-0.013718,0.96,0.68,0
0.017836,-4.1539e-17,0.02,-1.226,-0.554,-0.554,1.5917e-17,0,0,-0.8736,-4.8563e-18,0,4.1384e-17,0,0,1,1.3611e-18,0,1,-0.554,-1.226,-0.554,90,-0.778,0.672,-0.015586,0.98,0.68,0
0,-4.0378e-17,0,-1.2005,-0.5145,-0.5145,5.6695e-18,0,0,-0.8918,5.9117e-17,0,1.4741e-17,0,0,1,0,0,1,-0.5145,-1.2005,-0.5145,90,-0.74317,0.686,-0.016581,1,0.68,0
0,3.4402e-17,1,-1.2995,-1.9855,-1.9855,-9.231e-17,0,0,0.8918,5.0963e-17,0,-2.4001e-16,0,0,1,0,0,1,-1.2995,-1.9855,-1.9855,-7.7099e-15,-1.7568,0.686,0.016581,0,0.7,0
0.017836,3.049e-17,0.98,-1.274,-1.946,-1.946,-1.6001e-16,0,0,0.8736,-4.12e-17,0,-4.1602e-16,0,0,1,5.2972e-15,0,1,-1.274,-1.946,-1.946,-1.3642e-14,-1.722,0.672,0.015586,0.02,0.7,0
0.034944,2.3253e-17,0.96,-1.273,-1.917,-1.917,1.4712e-16,0,0,0.8372,8.7671e-17,0,3.825e-16,0,0,1,-8.5629e-16,0,1,-1.273,-1.917,-1.917,1.3089e-14,-1.7023,0.644,0.013718,0.04,0.7,0
0.051324,3.94e-17,0.94,-1.272,-1.888,-1.888,2.951e-16,0,0,0.8008,-1.0225e-16,0,7.6726e-16,0,0,1,7.4857e-15,0,1,-1.272,-1.888,-1.888,2.7621e-14,-1.6827,0.616,0.012024,0.06,0.7,0
0.066976,6.9858e-17,0.92,-1.271,-1.859,-1.859,1.8281e-16,0,0,0.7644,4.0706e-17,0,4.753e-16,0,0,1,-3.7269e-15,0,1,-1.271,-1.859,-1.859,1.7813e-14,-1.663,0.588,0.010441,0.08,0.7,0
0.0819,3.5835e-17,0.9,-1.27,-1.83,-1.83,-5.6997e-16,0,0,0.728,-7.2596e-17,0,-1.4819e-15,0,0,1,6.9227e-15,0,1,-1.27,-1.83,-1.83,-5.8316e-14,-1.6433,0.56,0.0090197,0.1,0.7,0
0.096096,3.0247e-17,0.88,-1.269,-1.801,-1.801,-1.8071e-16,0,0,0.6916,4.7943e-17,0,-4.6985e-16,0,0,1,-2.1886e-15,0,1,-1.269,-1.801,-1.801,-1.9463e-14,-1.6237,0.532,0.0077332,0.12,0.7,0
0.10956,2.3106e-17,0.86,-1.268,-1.772,-1.772,3.5877e-16,0,0,0.6552,-1.0728e-16,0,9.328e-16,0,0,1,9.6191e-15,0,1,-1.268,-1.772,-1.772,4.0786e-14,-1.604,0.504,0.0065753,0.14,0.7,0
0.1223,5.8388e-17,0.84,-1.267,-1.743,-1.743,1.5364e-16,0,0,0.6188,8.5614e-17,0,3.9947e-16,0,0,1,-6.9546e-15,0,1,-1.267,-1.743,-1.743,1.8494e-14,-1.5843,0.476,0.0055392,0.16,0.7,0
0.13432,-3.8111e-18,0.82,-1.266,-1.714,-1.714,-7.301e-16,0,0,0.5824,-1.3163e-16,0,-1.8983e-15,0,0,1,8.8818e-16,0,1,-1.266,-1.714,-1.714,-9.3375e-14,-1.5647,0.448,0.0046181,0.18,0.7,0
0.1456,-1.4303e-17,0.8,-1.265,-1.685,-1.685,5.879e-16,0,0,0.546,-2.6018e-16,0,1.5285e-15,0,0,1,3.251e-16,0,1,-1.265,-1.685,-1.685,8.0201e-14,-1.545,0.42,0.0038052,0.2,0.7,0
0.15616,2.2944e-17,0.78,-1.264,-1.656,-1.656,-2.5927e-16,0,0,0.5096,-5.9313e-17,0,-6.7411e-16,0,0,1,-2.1014e-15,0,1,-1.264,-1.656,-1.656,-3.7896e-14,-1.5253,0.392,0.0030937,0.22,0.7,0
0.16598,-5.1353e-17,0.76,-1.263,-1.627,-1.627,-6.2907e-16,0,0,0.4732,-1.0173e-16,0,-1.6356e-15,0,0,1,-1.4513e-15,0,1,-1.263,-1.627,-1.627,-9.902e-14,-1.5057,0.364,0.002477,0.24,0.7,0
0.17508,-4.7811e-17,0.74,-1.262,-1.598,-1.598,-1.1442e-17,0,0,0.4368,-1.2413e-16,0,-2.9748e-17,0,0,1,-2.1014e-15,0,1,-1.262,-1.598,-1.598,-1.9511e-15,-1.486,0.336,0.0019482,0.26,0.7,0
0.18346,-4.4875e-17,0.72,-1.261,-1.569,-1.569,1.1217e-15,0,0,0.4004,-2.0197e-16,0,2.9163e-15,0,0,1,6.1854e-15,0,1,-1.261,-1.569,-1.569,2.0866e-13,-1.4663,0.308,0.0015006,0.28,0.7,0
0.1911,4.321e-17,0.7,-1.26,-1.54,-1.54,5.4674e-16,0,0,0.364,-1.1998e-16,0,1.4215e-15,0,0,1,-1.6574e-15,0,1,-1.26,-1.54,-1.54,1.1188e-13,-1.4467,0.28,0.0011275,0.3,0.7,0
0.19802,4.3298e-17,0.68,-1.259,-1.511,-1.511,5.1077e-17,0,0,0.3276,-1.3404e-16,0,1.328e-16,0,0,1,-3.251e-16,0,1,-1.259,-1.511,-1.511,1.1613e-14,-1.427,0.252,0.00082192,0.32,0.7,0
0.2042,5.0181e-17,0.66,-1.258,-1.482,-1.482,-8.5402e-16,0,0,0.2912,-2.1548e-17,0,-2.2205e-15,0,0,1,7.6918e-16,0,1,-1.258,-1.482,-1.482,-2.3438e-13,-1.4073,0.224,0.00058402,0.34,0.7,0
0.20966,-4.9649e-17,0.64,-1.257,-1.453,-1.453,-9.0509e-16,0,0,0.2548,-7.1889e-17,0,-2.3533e-15,0,0,1,1.6574e-15,0,1,-1.257,-1.453,-1.453,-2.6458e-13,-1.3877,0.196,0.00038672,0.36,0.7,0
0.2144,-6.3231e-17,0.62,-1.256,-1.424,-1.424,2.2883e-17,0,0,0.2184,-1.7475e-16,0,5.9497e-17,0,0,1,0,0,1,-1.256,-1.424,-1.424,7.8043e-15,-1.368,0.168,0.00024353,0.38,0.7,0
0.2184,-7.8942e-17,0.6,-1.255,-1.395,-1.395,1.3862e-15,0,0,0.182,8.4187e-17,0,3.6042e-15,0,0,1,3.3147e-15,0,1,-1.255,-1.395,-1.395,5.6733e-13,-1.3483,0.14,0.00014093,0.4,0.7,0
0.22168,2.9175e-17,0.58,-1.254,-1.366,-1.366,8.342e-16,0,0,0.1456,-2.6231e-16,0,2.1689e-15,0,0,1,-1.7764e-15,0,1,-1.254,-1.366,-1.366,3.6418e-13,-1.3287,0.112,7.554e-05,0.42,0.7,0
0.22422,2.4426e-17,0.56,-1.253,-1.337,-1.337,4.6664e-16,0,0,0.1092,-5.2767e-17,0,1.2133e-15,0,0,1,0,0,1,-1.253,-1.337,-1.337,3.1829e-13,-1.309,0.084,3.0441e-05,0.44,0.7,0
0.22604,2.3079e-17,0.54,-1.252,-1.308,-1.308,-8.3113e-16,0,0,0.0728,-7.5497e-17,0,-2.161e-15,0,0,1,-1.5979e-15,0,1,-1.252,-1.308,-1.308,-8.5037e-13,-1.2893,0.056,9.0196e-06,0.46,0.7,0
0.22714,-7.3766e-17,0.52,-1.251,-1.279,-1.279,-8.8528e-16,0,0,0.0364,-2.9824e-17,0,-2.3017e-15,0,0,1,-1.8359e-15,0,1,-1.251,-1.279,-1.279,-1.8115e-12,-1.2697,0.028,1.1275e-06,0.48,0.7,0
0.2275,-6.9345e-17,0.5,-1.25,-1.25,-1.25,1.708e-16,0,0,1.0538e-15,-1.0157e-16,0,4.4409e-16,0,0,1,-1.2568e-15,0,1,-1.25,-1.25,-1.25,7.1907,-1.25,1.2755e-15,1.3663e-46,0.5,0.7,0
0.22714,-7.5367e-17,0.48,-1.249,-1.221,-1.221,2.135e-16,0,0,-0.0364,3.427e-17,0,5.5511e-16,0,0,1,3.6834e-15,0,1,-1.221,-1.249,-1.221,90,-1.2303,0.028,-1.1275e-06,0.52,0.7,0
0.22604,-8.0047e-17,0.46,-1.248,-1.192,-1.192,-2.5927e-16,0,0,-0.0728,1.7298e-16,0,-6.7411e-16,0,0,1,-3.3583e-15,0,1,-1.192,-1.248,-1.192,-90,-1.2107,0.056,-9.0196e-06,0.54,0.7,0
0.22422,-9.1747e-17,0.44,-1.247,-1.163,-1.163,1.6112e-15,0,0,-0.1092,2.9648e-17,0,4.1891e-15,0,0,1,2.724e-15,0,1,-1.163,-1.247,-1.163,90,-1.191,0.084,-3.0441e-05,0.56,0.7,0
0.22168,8.7064e-17,0.42,-1.246,-1.134,-1.134,8.6015e-16,0,0,-0.1456,9.0499e-17,0,2.2364e-15,0,0,1,1.9665e-15,0,1,-1.134,-1.246,-1.134,90,-1.1713,0.112,-7.2157e-05,0.58,0.7,0
0.2184,9.1832e-17,0.4,-1.245,-1.105,-1.105,-3.8431e-16,0,0,-0.182,-6.0456e-17,0,-9.992e-16,0,0,1,0,0,1,-1.105,-1.245,-1.105,-90,-1.1517,0.14,-0.00014093,0.6,0.7,0
0.2144,8.3334e-17,0.38,-1.244,-1.076,-1.076,-5.8637e-16,0,0,-0.2184,-1.2081e-16,0,-1.5246e-15,0,0,1,1.6255e-16,0,1,-1.076,-1.244,-1.076,-90,-1.132,0.168,-0.00024353,0.62,0.7,0
0.20966,9.5167e-17,0.36,-1.243,-1.047,-1.047,2.2188e-16,0,0,-0.2548,-2.0725e-16,0,5.7689e-16,0,0,1,-6.0664e-16,0,1,-1.047,-1.243,-1.047,90,-1.1123,0.196,-0.00038672,0.64,0.7,0
0.2042,9.4287e-17,0.34,-1.242,-1.018,-1.018,1.708e-16,0,0,-0.2912,-2.4573e-17,0,4.4409e-16,0,0,1,6.0664e-16,0,1,-1.018,-1.242,-1.018,90,-1.0927,0.224,-0.00057726,0.66,0.7,0
0.19802,1.0174e-16,0.32,-1.241,-0.989,-0.989,-1.3008e-15,0,0,-0.3276,-2.4165e-16,0,-3.3822e-15,0,0,1,-1.0072e-15,0,1,-0.989,-1.241,-0.989,-90,-1.073,0.252,-0.00082192,0.68,0.7,0
0.1911,-5.4253e-17,0.3,-1.24,-0.96,-0.96,-9.7681e-16,0,0,-0.364,1.0584e-16,0,-2.5397e-15,0,0,1,-2.4265e-15,0,1,-0.96,-1.24,-0.96,-90,-1.0533,0.28,-0.0011275,0.7,0.7,0
0.18346,-5.9791e-17,0.28,-1.239,-0.931,-0.931,-1.4792e-16,0,0,-0.4004,5.8241e-17,0,-3.8459e-16,0,0,1,-1.2133e-15,0,1,-0.931,-1.239,-0.931,-90,-1.0337,0.308,-0.0015006,0.72,0.7,0
0.17508,-5.1784e-17,0.26,-1.238,-0.902,-0.902,2.562e-16,0,0,-0.4368,1.0803e-16,0,6.6613e-16,0,0,1,3.0332e-16,0,1,-0.902,-1.238,-0.902,90,-1.014,0.336,-0.0019482,0.74,0.7,0
0.16598,-5.0367e-17,0.24,-1.237,-0.873,-0.873,-3.4325e-17,0,0,-0.4732,8.2635e-17,0,-8.9245e-17,0,0,1,1.0507e-15,0,1,-0.873,-1.237,-0.873,-90,-0.99433,0.364,-0.002477,0.76,0.7,0
0.15616,-5.392e-17,0.22,-1.236,-0.844,-0.844,8.5402e-17,0,0,-0.5096,-1.0118e-16,0,2.2204e-16,0,0,1,1.4077e-16,0,1,-0.844,-1.236,-0.844,90,-0.97467,0.392,-0.0030937,0.78,0.7,0
0.1456,-5.0628e-17,0.2,-1.235,-0.815,-0.815,1.3165e-15,0,0,-0.546,-1.2809e-18,0,3.4228e-15,0,0,1,1.4874e-16,0,1,-0.815,-1.235,-0.815,90,-0.955,0.42,-0.0038052,0.8,0.7,0
0.13432,9.3194e-17,0.18,-1.234,-0.786,-0.786,9.4667e-16,0,0,-0.5824,6.9597e-17,0,2.4614e-15,0,0,1,2.1312e-15,0,1,-0.786,-1.234,-0.786,90,-0.93533,0.448,-0.0046181,0.82,0.7,0
0.1223,9.9685e-17,0.16,-1.233,-0.757,-0.757,-4.2701e-17,0,0,-0.6188,5.4335e-18,0,-1.1102e-16,0,0,1,2.6268e-16,0,1,-0.757,-1.233,-0.757,-90,-0.91567,0.476,-0.0055392,0.84,0.7,0
0.10956,9.8339e-17,0.14,-1.232,-0.728,-0.728,1.4373e-16,0,0,-0.6552,-4.5966e-17,0,3.737e-16,0,0,1,1.5166e-16,0,1,-0.728,-1.232,-0.728,90,-0.896,0.504,-0.0065753,0.86,0.7,0
0.096096,9.4515e-17,0.12,-1.231,-0.699,-0.699,9.1123e-17,0,0,-0.6916,3.7194e-17,0,2.3692e-16,0,0,1,-1.1102e-16,0,1,-0.699,-1.231,-0.699,90,-0.87633,0.532,-0.0077332,0.88,0.7,0
0.0819,8.8954e-17,0.1,-1.23,-0.67,-0.67,1.3536e-17,0,0,-0.728,-4.6825e-17,0,3.5193e-17,0,0,1,-2.6268e-16,0,1,-0.67,-1.23,-0.67,90,-0.85667,0.56,-0.0090197,0.9,0.7,0
0.066976,8.6499e-17,0.08,-1.229,-0.641,-0.641,-1.0837e-15,0,0,-0.7644,-7.9189e-17,0,-2.8176e-15,0,0,1,-1.0032e-15,0,1,-0.641,-1.229,-0.641,-90,-0.837,0.588,-0.010441,0.92,0.7,0
0.051324,-4.2429e-17,0.06,-1.228,-0.612,-0.612,-6.8046e-16,0,0,-0.8008,-3.3364e-17,0,-1.7692e-15,0,0,1,-2.0452e-15,0,1,-0.612,-1.228,-0.612,6.3949e-14,-0.81733,0.616,-0.012024,0.94,0.7,0
0.034944,-4.0131e-17,0.04,-1.227,-0.583,-0.583,1.0675e-17,0,0,-0.8372,-4.8474e-17,0,2.7756e-17,0,0,1,8.3631e-17,0,1,-0.583,-1.227,-0.583,90,-0.79767,0.644,-0.013718,0.96,0.7,0
0.017836,-3.9766e-17,0.02,-1.226,-0.554,-0.554,1.487e-17,0,0,-0.8736,3.0936e-17,0,3.8662e-17,0,0,1,-5.4332e-17,0,1,-0.554,-1.226,-0.554,90,-0.778,0.672,-0.015586,0.98,0.7,0
0,-3.9042e-17,0,-1.2005,-0.5145,-0.5145,2.2066e-17,0,0,-0.8918,3.8552e-17,0,5.737e-17,0,0,1,1.3611e-18,0,1,-0.5145,-1.2005,-0.5145,90,-0.74317,0.686,-0.016581,1,0.7,0
0,3.3869e-17,1,-1.2995,-1.9855,-1.9855,-4.6417e-17,0,0,0.8918,3.7062e-17,0,-1.2068e-16,0,0,1,0,0,1,-1.2995,-1.9855,-1.9855,-3.8768e-15,-1.7568,0.686,0.016581,0,0.72,0
0.017836,3.188e-17,0.98,-1.274,-1.946,-1.946,-4.8588e-17,0,0,0.8736,1.7276e-16,0,-1.2633e-16,0,0,1,5.8284e-15,0,1,-1.274,-1.946,-1.946,-4.1427e-15,-1.722,0.672,0.015586,0.02,0.72,0
0.034944,2.8249e-17,0.96,-1.273,-1.917,-1.917,9.4264e-17,0,0,0.8372,7.0458e-17,0,2.4509e-16,0,0,1,-4.9402e-15,0,1,-1.273,-1.917,-1.917,8.3865e-15,-1.7023,0.644,0.013718,0.04,0.72,0
0.051324,3.8031e-17,0.94,-1.272,-1.888,-1.888,4.1748e-16,0,0,0.8008,4.7495e-17,0,1.0855e-15,0,0,1,6.8356e-15,0,1,-1.272,-1.888,-1.888,3.9302e-14,-1.6827,0.616,0.012024,0.06,0.72,0
0.066976,7.1222e-17,0.92,-1.271,-1.859,-1.859,1.7136e-16,0,0,0.7644,-3.86e-17,0,4.4555e-16,0,0,1,-1.1245e-14,0,1,-1.271,-1.859,-1.859,1.6698e-14,-1.663,0.588,0.010441,0.08,0.72,0
0.0819,3.2801e-17,0.9,-1.27,-1.83,-1.83,-6.2049e-16,0,0,0.728,-1.7876e-17,0,-1.6133e-15,0,0,1,5.2972e-15,0,1,-1.27,-1.83,-1.83,-6.3485e-14,-1.6433,0.56,0.0090197,0.1,0.72,0
0.096096,3.005e-17,0.88,-1.269,-1.801,-1.801,-1.4373e-16,0,0,0.6916,-1.4601e-16,0,-3.737e-16,0,0,1,5.6308e-16,0,1,-1.269,-1.801,-1.801,-1.548e-14,-1.6237,0.532,0.0077332,0.12,0.72,0
0.10956,1.7523e-17,0.86,-1.268,-1.772,-1.772,6.6186e-16,0,0,0.6552,-9.0404e-17,0,1.7208e-15,0,0,1,8.1678e-15,0,1,-1.268,-1.772,-1.772,7.5242e-14,-1.604,0.504,0.0065753,0.14,0.72,0
0.1223,6.3176e-17,0.84,-1.267,-1.743,-1.743,-8.2747e-17,0,0,0.6188,1.6893e-16,0,-2.1514e-16,0,0,1,-5.1782e-15,0,1,-1.267,-1.743,-1.743,-9.9602e-15,-1.5843,0.476,0.0055392,0.16,0.72,0
0.13432,-6.0232e-18,0.82,-1.266,-1.714,-1.714,-9.0663e-16,0,0,0.5824,-8.5417e-17,0,-2.3572e-15,0,0,1,6.5019e-16,0,1,-1.266,-1.714,-1.714,-1.1595e-13,-1.5647,0.448,0.0046181,0.18,0.72,0
0.1456,-2.0635e-17,0.8,-1.265,-1.685,-1.685,2.6346e-16,0,0,0.546,-2.9203e-16,0,6.8499e-16,0,0,1,1.8635e-15,0,1,-1.265,-1.685,-1.685,3.5941e-14,-1.545,0.42,0.0038052,0.2,0.72,0
0.15616,2.4609e-17,0.78,-1.264,-1.656,-1.656,2.844e-16,0,0,0.5096,8.066e-20,0,7.3944e-16,0,0,1,-2.3076e-15,0,1,-1.264,-1.656,-1.656,4.1568e-14,-1.5253,0.392,0.0030937,0.22,0.72,0
0.16598,-4.7748e-17,0.76,-1.263,-1.627,-1.627,-1.2009e-15,0,0,0.4732,1.3922e-16,0,-3.1224e-15,0,0,1,-7.0735e-15,0,1,-1.263,-1.627,-1.627,-1.8903e-13,-1.5057,0.364,0.002477,0.24,0.72,0
0.17508,-5.4726e-17,0.74,-1.262,-1.598,-1.598,2.3332e-16,0,0,0.4368,-2.0539e-16,0,6.0664e-16,0,0,1,2.7516e-15,0,1,-1.262,-1.598,-1.598,3.9787e-14,-1.486,0.336,0.0019482,0.26,0.72,0
0.18346,-5.2663e-17,0.72,-1.261,-1.569,-1.569,5.8106e-16,0,0,0.4004,-2.8794e-16,0,1.5108e-15,0,0,1,4.528e-15,0,1,-1.261,-1.569,-1.569,1.0809e-13,-1.4663,0.308,0.0015006,0.28,0.72,0
0.1911,4.2506e-17,0.7,-1.26,-1.54,-1.54,1.0363e-15,0,0,0.364,-1.779e-16,0,2.6943e-15,0,0,1,-9.7529e-16,0,1,-1.26,-1.54,-1.54,2.1205e-13,-1.4467,0.28,0.0011275,0.3,0.72,0
0.19802,3.8447e-17,0.68,-1.259,-1.511,-1.511,7.5411e-16,0,0,0.3276,-1.1653e-16,0,1.9607e-15,0,0,1,0,0,1,-1.259,-1.511,-1.511,1.7146e-13,-1.427,0.252,0.00082192,0.32,0.72,0
0.2042,4.9869e-17,0.66,-1.258,-1.482,-1.482,-7.4573e-16,0,0,0.2912,5.1066e-17,0,-1.9389e-15,0,0,1,-2.4265e-15,0,1,-1.258,-1.482,-1.482,-2.0968e-13,-1.4073,0.224,0.00058402,0.34,0.72,0
0.20966,-5.5124e-17,0.64,-1.257,-1.453,-1.453,-1.1415e-15,0,0,0.2548,-3.9752e-16,0,-2.9678e-15,0,0,1,3.251e-16,0,1,-1.257,-1.453,-1.453,-3.3368e-13,-1.3877,0.196,0.00038672,0.36,0.72,0
0.2144,-6.7498e-17,0.62,-1.256,-1.424,-1.424,-2.3332e-16,0,0,0.2184,-8.2122e-17,0,-6.0664e-16,0,0,1,0,0,1,-1.256,-1.424,-1.424,-7.9574e-14,-1.368,0.168,0.00024353,0.38,0.72,0
0.2184,-7.4568e-17,0.6,-1.255,-1.395,-1.395,1.5998e-15,0,0,0.182,4.4569e-17,0,4.1594e-15,0,0,1,1.2133e-15,0,1,-1.255,-1.395,-1.395,6.5471e-13,-1.3483,0.14,0.00014093,0.4,0.72,0
0.22168,1.7982e-17,0.58,-1.254,-1.366,-1.366,1.0477e-15,0,0,0.1456,-3.0759e-16,0,2.724e-15,0,0,1,-6.5019e-16,0,1,-1.254,-1.366,-1.366,5.2487e-13,-1.3287,0.112,7.554e-05,0.42,0.72,0
0.22422,2.1067e-17,0.56,-1.253,-1.337,-1.337,-2.6458e-16,0,0,0.1092,-1.1648e-16,0,-6.8791e-16,0,0,1,0,0,1,-1.253,-1.337,-1.337,-1.8047e-13,-1.309,0.084,3.0441e-05,0.44,0.72,0
0.22604,1.9471e-17,0.54,-1.252,-1.308,-1.308,-9.196e-16,0,0,0.0728,-2.3687e-16,0,-2.391e-15,0,0,1,-2.1014e-15,0,1,-1.252,-1.308,-1.308,-9.4088e-13,-1.2893,0.056,9.0196e-06,0.46,0.72,0
0.22714,-7.3884e-17,0.52,-1.251,-1.279,-1.279,-1.0134e-15,0,0,0.0364,-3.2558e-17,0,-2.6348e-15,0,0,1,-5.6308e-16,0,1,-1.251,-1.279,-1.279,-2.0737e-12,-1.2697,0.028,1.1275e-06,0.48,0.72,0
0.2275,-7.2719e-17,0.5,-1.25,-1.25,-1.25,2.8746e-16,0,0,7.52e-16,-9.0034e-17,0,7.4741e-16,0,0,1,-6.0664e-16,0,1,-1.25,-1.25,-1.25,34.441,-1.25,9.0195e-16,2.2772e-47,0.5,0.72,0
0.22714,-7.7557e-17,0.48,-1.249,-1.221,-1.221,-5.5205e-16,0,0,-0.0364,-2.9894e-17,0,-1.4353e-15,0,0,1,3.251e-16,0,1,-1.221,-1.249,-1.221,-90,-1.2303,0.028,-1.1275e-06,0.52,0.72,0
0.22604,-8.2641e-17,0.46,-1.248,-1.192,-1.192,-1.9675e-16,0,0,-0.0728,-8.2617e-17,0,-5.1156e-16,0,0,1,-6.0664e-16,0,1,-1.192,-1.248,-1.192,-90,-1.2107,0.056,-9.0196e-06,0.54,0.72,0
0.22422,-9.5863e-17,0.44,-1.247,-1.163,-1.163,1.7248e-15,0,0,-0.1092,-1.1965e-16,0,4.4844e-15,0,0,1,-8.1274e-16,0,1,-1.163,-1.247,-1.163,90,-1.191,0.084,-3.0441e-05,0.56,0.72,0
0.22168,8.3531e-17,0.42,-1.246,-1.134,-1.134,1.1362e-15,0,0,-0.1456,-5.599e-17,0,2.954e-15,0,0,1,3.0332e-15,0,1,-1.134,-1.246,-1.134,90,-1.1713,0.112,-7.2157e-05,0.58,0.72,0
0.2184,8.8796e-17,0.4,-1.245,-1.105,-1.105,-8.5402e-17,0,0,-0.182,-2.2422e-16,0,-2.2204e-16,0,0,1,0,0,1,-1.105,-1.245,-1.105,-90,-1.1517,0.14,-0.00014093,0.6,0.72,0
0.2144,8.3512e-17,0.38,-1.244,-1.076,-1.076,1.1666e-16,0,0,-0.2184,-1.1347e-16,0,3.0332e-16,0,0,1,0,0,1,-1.076,-1.244,-1.076,90,-1.132,0.168,-0.00024353,0.62,0.72,0
0.20966,8.6169e-17,0.36,-1.243,-1.047,-1.047,7.396e-17,0,0,-0.2548,-2.9976e-16,0,1.923e-16,0,0,1,4.4409e-16,0,1,-1.047,-1.243,-1.047,90,-1.1123,0.196,-0.00038672,0.64,0.72,0
0.2042,9.6697e-17,0.34,-1.242,-1.018,-1.018,-5.0934e-16,0,0,-0.2912,2.0578e-17,0,-1.3243e-15,0,0,1,1.0507e-15,0,1,-1.018,-1.242,-1.018,-90,-1.0927,0.224,-0.00057726,0.66,0.72,0
0.19802,9.3494e-17,0.32,-1.241,-0.989,-0.989,-2.0466e-15,0,0,-0.3276,-1.6885e-16,0,-5.3211e-15,0,0,1,-4.0054e-16,0,1,-0.989,-1.241,-0.989,-90,-1.073,0.252,-0.00082192,0.68,0.72,0
0.1911,-5.2588e-17,0.3,-1.24,-0.96,-0.96,-7.3205e-16,0,0,-0.364,-8.9252e-17,0,-1.9033e-15,0,0,1,-3.1522e-15,0,1,-0.96,-1.24,-0.96,-90,-1.0533,0.28,-0.0011275,0.7,0.72,0
0.18346,-5.7667e-17,0.28,-1.239,-0.931,-0.931,-3.8124e-16,0,0,-0.4004,4.7161e-17,0,-9.9123e-16,0,0,1,-1.2133e-15,0,1,-0.931,-1.239,-0.931,-90,-1.0337,0.308,-0.0015006,0.72,0.72,0
0.17508,-5.2001e-17,0.26,-1.238,-0.902,-0.902,2.0206e-16,0,0,-0.4368,-9.8241e-17,0,5.2536e-16,0,0,1,3.0332e-16,0,1,-0.902,-1.238,-0.902,90,-1.014,0.336,-0.0019482,0.74,0.72,0
0.16598,-5.1329e-17,0.24,-1.237,-0.873,-0.873,-1.1442e-17,0,0,-0.4732,-8.6189e-17,0,-2.9748e-17,0,0,1,1.0507e-15,0,1,-0.873,-1.237,-0.873,-90,-0.99433,0.364,-0.002477,0.76,0.72,0
0.15616,-6.2604e-17,0.22,-1.236,-0.844,-0.844,-2.7602e-16,0,0,-0.5096,-2.0908e-16,0,-7.1766e-16,0,0,1,2.2204e-16,0,1,-0.844,-1.236,-0.844,-90,-0.97467,0.392,-0.0030937,0.78,0.72,0
0.1456,-5.01e-17,0.2,-1.235,-0.815,-0.815,1.4118e-15,0,0,-0.546,-4.1639e-17,0,3.6706e-15,0,0,1,-2.3585e-16,0,1,-0.815,-1.235,-0.815,90,-0.955,0.42,-0.0038052,0.8,0.72,0
0.13432,9.4818e-17,0.18,-1.234,-0.786,-0.786,8.342e-16,0,0,-0.5824,1.5095e-17,0,2.1689e-15,0,0,1,2.4563e-15,0,1,-0.786,-1.234,-0.786,90,-0.93533,0.448,-0.0046181,0.82,0.72,0
0.1223,9.5294e-17,0.16,-1.233,-0.757,-0.757,7.9681e-17,0,0,-0.6188,-1.7236e-16,0,2.0717e-16,0,0,1,4.4409e-16,0,1,-0.757,-1.233,-0.757,90,-0.91567,0.476,-0.0055392,0.84,0.72,0
0.10956,9.4729e-17,0.14,-1.232,-0.728,-0.728,-8.959e-17,0,0,-0.6552,-1.5209e-16,0,-2.3293e-16,0,0,1,2.2204e-16,0,1,-0.728,-1.232,-0.728,-90,-0.896,0.504,-0.0065753,0.86,0.72,0
0.096096,9.2883e-17,0.12,-1.231,-0.699,-0.699,4.2701e-17,0,0,-0.6916,-1.8894e-16,0,1.1102e-16,0,0,1,-1.4791e-31,0,1,-0.699,-1.231,-0.699,90,-0.87633,0.532,-0.0077332,0.88,0.72,0
0.0819,8.4378e-17,0.1,-1.23,-0.67,-0.67,8.0447e-17,0,0,-0.728,-9.4362e-17,0,2.0916e-16,0,0,1,0,0,1,-0.67,-1.23,-0.67,90,-0.85667,0.56,-0.0090197,0.9,0.72,0
0.066976,8.4816e-17,0.08,-1.229,-0.641,-0.641,-1.0553e-15,0,0,-0.7644,-9.3693e-17,0,-2.7438e-15,0,0,1,-9.1248e-16,0,1,-0.641,-1.229,-0.641,-90,-0.837,0.588,-0.010441,0.92,0.72,0
0.051324,-4.3058e-17,0.06,-1.228,-0.612,-0.612,-5.4635e-16,0,0,-0.8008,-6.2269e-17,0,-1.4205e-15,0,0,1,-1.9897e-15,0,1,-0.612,-1.228,-0.612,4.2633e-14,-0.81733,0.616,-0.012024,0.94,0.72,0
0.034944,-4.2449e-17,0.04,-1.227,-0.583,-0.583,4.4655e-17,0,0,-0.8372,-5.751e-17,0,1.161e-16,0,0,1,1.2881e-17,0,1,-0.583,-1.227,-0.583,90,-0.79767,0.644,-0.013718,0.96,0.72,0
0.017836,-4.0302e-17,0.02,-1.226,-0.554,-0.554,-3.3582e-18,0,0,-0.8736,-6.0534e-17,0,-8.7314e-18,0,0,1,-7.329e-17,0,1,-0.554,-1.226,-0.554,-90,-0.778,0.672,-0.015586,0.98,0.72,0
0,-3.8836e-17,0,-1.2005,-0.5145,-0.5145,3.1834e-17,0,0,-0.8918,-4.9871e-17,0,8.2768e-17,0,0,1,1.3611e-18,0,1,-0.5145,-1.2005,-0.5145,90,-0.74317,0.686,-0.016581,1,0.72,0
0,3.5884e-17,1,-1.2995,-1.9855,-1.9855,4.0939e-17,0,0,0.8918,3.8947e-17,0,1.0644e-16,0,0,1,0,0,1,-1.2995,-1.9855,-1.9855,3.4193e-15,-1.7568,0.686,0.016581,0,0.74,0
0.017836,3.74e-17,0.98,-1.274,-1.946,-1.946,-1.1714e-16,0,0,0.8736,2.2318e-16,0,-3.0456e-16,0,0,1,3.8459e-15,0,1,-1.274,-1.946,-1.946,-9.9875e-15,-1.722,0.672,0.015586,0.02,0.74,0
0.034944,2.6071e-17,0.96,-1.273,-1.917,-1.917,1.0475e-16,0,0,0.8372,3.9029e-17,0,2.7234e-16,0,0,1,-4.8212e-15,0,1,-1.273,-1.917,-1.917,9.3192e-15,-1.7023,0.644,0.013718,0.04,0.74,0
0.051324,4.13e-17,0.94,-1.272,-1.888,-1.888,4.2034e-16,0,0,0.8008,2.0014e-18,0,1.0929e-15,0,0,1,3.2828e-15,0,1,-1.272,-1.888,-1.888,3.9093e-14,-1.6827,0.616,0.012024,0.06,0.74,0
0.066976,6.8314e-17,0.92,-1.271,-1.859,-1.859,7.3194e-17,0,0,0.7644,-1.1349e-16,0,1.903e-16,0,0,1,-7.6918e-15,0,1,-1.271,-1.859,-1.859,7.1321e-15,-1.663,0.588,0.010441,0.08,0.74,0
0.0819,3.512e-17,0.9,-1.27,-1.83,-1.83,-6.994e-16,0,0,0.728,-1.6591e-17,0,-1.8185e-15,0,0,1,5.312e-16,0,1,-1.27,-1.83,-1.83,-7.1559e-14,-1.6433,0.56,0.0090197,0.1,0.74,0
0.096096,2.4406e-17,0.88,-1.269,-1.801,-1.801,-1.1442e-17,0,0,0.6916,-1.2744e-16,0,-2.9748e-17,0,0,1,8.7109e-17,0,1,-1.269,-1.801,-1.801,-1.2323e-15,-1.6237,0.532,0.0077332,0.12,0.74,0
0.10956,1.949e-17,0.86,-1.268,-1.772,-1.772,4.8687e-16,0,0,0.6552,5.8138e-17,0,1.2659e-15,0,0,1,-3.9968e-15,0,1,-1.268,-1.772,-1.772,5.5349e-14,-1.604,0.504,0.0065753,0.14,0.74,0
0.1223,6.5145e-17,0.84,-1.267,-1.743,-1.743,-4.0046e-17,0,0,0.6188,1.4977e-17,0,-1.0412e-16,0,0,1,-2.9577e-15,0,1,-1.267,-1.743,-1.743,-4.8203e-15,-1.5843,0.476,0.0055392,0.16,0.74,0
0.13432,-7.2278e-18,0.82,-1.266,-1.714,-1.714,-1.3108e-15,0,0,0.5824,-2.6834e-17,0,-3.408e-15,0,0,1,6.5019e-16,0,1,-1.266,-1.714,-1.714,-1.6763e-13,-1.5647,0.448,0.0046181,0.18,0.74,0
0.1456,-2.5984e-17,0.8,-1.265,-1.685,-1.685,2.9319e-16,0,0,0.546,-1.3711e-16,0,7.6228e-16,0,0,1,1.8635e-15,0,1,-1.265,-1.685,-1.685,3.9996e-14,-1.545,0.42,0.0038052,0.2,0.74,0
0.15616,2.2948e-17,0.78,-1.264,-1.656,-1.656,4.7502e-16,0,0,0.5096,-2.6677e-16,0,1.2351e-15,0,0,1,-3.6398e-15,0,1,-1.264,-1.656,-1.656,6.943e-14,-1.5253,0.392,0.0030937,0.22,0.74,0
0.16598,-4.5784e-17,0.76,-1.263,-1.627,-1.627,-9.7906e-16,0,0,0.4732,9.2175e-19,0,-2.5455e-15,0,0,1,-8.8818e-16,0,1,-1.263,-1.627,-1.627,-1.5411e-13,-1.5057,0.364,0.002477,0.24,0.74,0
0.17508,-5.6026e-17,0.74,-1.262,-1.598,-1.598,2.8746e-16,0,0,0.4368,5.9539e-18,0,7.4741e-16,0,0,1,0,0,1,-1.262,-1.598,-1.598,4.9019e-14,-1.486,0.336,0.0019482,0.26,0.74,0
0.18346,-5.6392e-17,0.72,-1.261,-1.569,-1.569,9.623e-16,0,0,0.4004,-5.1385e-17,0,2.502e-15,0,0,1,3.6398e-15,0,1,-1.261,-1.569,-1.569,1.7901e-13,-1.4663,0.308,0.0015006,0.28,0.74,0
0.1911,3.6094e-17,0.7,-1.26,-1.54,-1.54,1.6196e-15,0,0,0.364,-2.5082e-16,0,4.2109e-15,0,0,1,-9.7529e-16,0,1,-1.26,-1.54,-1.54,3.3141e-13,-1.4467,0.28,0.0011275,0.3,0.74,0
0.19802,3.8637e-17,0.68,-1.259,-1.511,-1.511,2.9891e-16,0,0,0.3276,5.4772e-18,0,7.7716e-16,0,0,1,0,0,1,-1.259,-1.511,-1.511,6.7961e-14,-1.427,0.252,0.00082192,0.32,0.74,0
0.2042,5.2224e-17,0.66,-1.258,-1.482,-1.482,-1.2238e-15,0,0,0.2912,-9.9536e-17,0,-3.1819e-15,0,0,1,-2.4265e-15,0,1,-1.258,-1.482,-1.482,-3.329e-13,-1.4073,0.224,0.00058402,0.34,0.74,0
0.20966,-6.555e-17,0.64,-1.257,-1.453,-1.453,-1.0675e-15,0,0,0.2548,-2.8059e-16,0,-2.7756e-15,0,0,1,3.251e-16,0,1,-1.257,-1.453,-1.453,-3.1206e-13,-1.3877,0.196,0.00038672,0.36,0.74,0
0.2144,-6.6516e-17,0.62,-1.256,-1.424,-1.424,6.2518e-17,0,0,0.2184,-7.0898e-17,0,1.6255e-16,0,0,1,0,0,1,-1.256,-1.424,-1.424,2.1322e-14,-1.368,0.168,0.00024353,0.38,0.74,0
0.2184,-7.7159e-17,0.6,-1.255,-1.395,-1.395,9.3635e-16,0,0,0.182,2.7383e-17,0,2.4345e-15,0,0,1,1.2133e-15,0,1,-1.255,-1.395,-1.395,3.8321e-13,-1.3483,0.14,0.00014093,0.4,0.74,0
0.22168,1.6871e-17,0.58,-1.254,-1.366,-1.366,1.5769e-15,0,0,0.1456,-3.2636e-17,0,4.0998e-15,0,0,1,-6.5019e-16,0,1,-1.254,-1.366,-1.366,7.4993e-13,-1.3287,0.112,7.554e-05,0.42,0.74,0
0.22422,1.9767e-17,0.56,-1.253,-1.337,-1.337,-5.6349e-16,0,0,0.1092,-2.8716e-17,0,-1.4651e-15,0,0,1,0,0,1,-1.253,-1.337,-1.337,-3.8435e-13,-1.309,0.084,3.0441e-05,0.44,0.74,0
0.22604,1.3605e-17,0.54,-1.252,-1.308,-1.308,-8.769e-16,0,0,0.0728,-1.6913e-16,0,-2.2799e-15,0,0,1,-2.1014e-15,0,1,-1.252,-1.308,-1.308,-8.9719e-13,-1.2893,0.056,9.0196e-06,0.46,0.74,0
0.22714,-7.5068e-17,0.52,-1.251,-1.279,-1.279,-7.6862e-16,0,0,0.0364,-1.1543e-16,0,-1.9984e-15,0,0,1,-5.6308e-16,0,1,-1.251,-1.279,-1.279,-1.5728e-12,-1.2697,0.028,1.1275e-06,0.48,0.74,0
0.2275,-7.2947e-17,0.5,-1.25,-1.25,-1.25,-1.7918e-16,0,0,4.3368e-18,2.7345e-17,0,-4.6587e-16,0,0,1,0,0,1,-1.25,-1.25,-1.25,-10.986,-1.25,7.6918e-16,0,0.5,0.74,0
0.22714,-7.6563e-17,0.48,-1.249,-1.221,-1.221,-5.3223e-16,0,0,-0.0364,6.5564e-17,0,-1.3838e-15,0,0,1,-3.251e-16,0,1,-1.221,-1.249,-1.221,-90,-1.2303,0.028,-1.1275e-06,0.52,0.74,0
0.22604,-8.3351e-17,0.46,-1.248,-1.192,-1.192,5.9453e-17,0,0,-0.0728,-2.5459e-17,0,1.5458e-16,0,0,1,2.4265e-15,0,1,-1.192,-1.248,-1.192,90,-1.2107,0.056,-9.0196e-06,0.54,0.74,0
0.22422,-9.6533e-17,0.44,-1.247,-1.163,-1.163,1.8445e-15,0,0,-0.1092,-4.8891e-17,0,4.7957e-15,0,0,1,-1.1378e-15,0,1,-1.163,-1.247,-1.163,90,-1.191,0.084,-3.0441e-05,0.56,0.74,0
0.22168,8.4825e-17,0.42,-1.246,-1.134,-1.134,1.509e-15,0,0,-0.1456,-2.7397e-18,0,3.9235e-15,0,0,1,3.0332e-15,0,1,-1.134,-1.246,-1.134,90,-1.1713,0.112,-7.2157e-05,0.58,0.74,0
0.2184,8.2863e-17,0.4,-1.245,-1.105,-1.105,9.6843e-17,0,0,-0.182,-2.5748e-16,0,2.5179e-16,0,0,1,0,0,1,-1.105,-1.245,-1.105,90,-1.1517,0.14,-0.00014093,0.6,0.74,0
0.2144,7.8795e-17,0.38,-1.244,-1.076,-1.076,-1.1666e-16,0,0,-0.2184,-2.7408e-16,0,-3.0332e-16,0,0,1,0,0,1,-1.076,-1.244,-1.076,-90,-1.132,0.168,-0.00024353,0.62,0.74,0
0.20966,8.3177e-17,0.36,-1.243,-1.047,-1.047,7.396e-17,0,0,-0.2548,-1.822e-16,0,1.923e-16,0,0,1,-6.0664e-16,0,1,-1.047,-1.243,-1.047,90,-1.1123,0.196,-0.00038672,0.64,0.74,0
0.2042,9.511e-17,0.34,-1.242,-1.018,-1.018,-5.2079e-16,0,0,-0.2912,-2.1944e-16,0,-1.354e-15,0,0,1,1.6255e-16,0,1,-1.018,-1.242,-1.018,-90,-1.0927,0.224,-0.00057726,0.66,0.74,0
0.19802,9.4989e-17,0.32,-1.241,-0.989,-0.989,-1.429e-15,0,0,-0.3276,7.5487e-17,0,-3.7153e-15,0,0,1,-2.3799e-16,0,1,-0.989,-1.241,-0.989,-90,-1.073,0.252,-0.00082192,0.68,0.74,0
0.1911,-5.7823e-17,0.3,-1.24,-0.96,-0.96,-1.1049e-15,0,0,-0.364,-2.0183e-16,0,-2.8728e-15,0,0,1,-3.3147e-15,0,1,-0.96,-1.24,-0.96,-90,-1.0533,0.28,-0.0011275,0.7,0.74,0
0.18346,-5.7905e-17,0.28,-1.239,-0.931,-0.931,-2.8746e-16,0,0,-0.4004,-9.9075e-17,0,-7.4741e-16,0,0,1,4.4409e-16,0,1,-0.931,-1.239,-0.931,-90,-1.0337,0.308,-0.0015006,0.72,0.74,0
0.17508,-5.5714e-17,0.26,-1.238,-0.902,-0.902,4.2701e-17,0,0,-0.4368,-1.5485e-16,0,1.1102e-16,0,0,1,7.4741e-16,0,1,-0.902,-1.238,-0.902,90,-1.014,0.336,-0.0019482,0.74,0.74,0
0.16598,-5.3815e-17,0.24,-1.237,-0.873,-0.873,1.5936e-16,0,0,-0.4732,-1.2749e-16,0,4.1434e-16,0,0,1,-6.0664e-16,0,1,-0.873,-1.237,-0.873,90,-0.99433,0.364,-0.002477,0.76,0.74,0
0.15616,-6.2284e-17,0.22,-1.236,-0.844,-0.844,-3.0728e-16,0,0,-0.5096,3.1279e-17,0,-7.9893e-16,0,0,1,-1.4077e-16,0,1,-0.844,-1.236,-0.844,-90,-0.97467,0.392,-0.0030937,0.78,0.74,0
0.1456,-5.2294e-17,0.2,-1.235,-0.815,-0.815,1.3904e-15,0,0,-0.546,-1.2623e-16,0,3.6151e-15,0,0,1,2.5976e-16,0,1,-0.815,-1.235,-0.815,90,-0.955,0.42,-0.0038052,0.8,0.74,0
0.13432,9.3798e-17,0.18,-1.234,-0.786,-0.786,7.8159e-16,0,0,-0.5824,-1.3643e-16,0,2.0321e-15,0,0,1,1.7386e-15,0,1,-0.786,-1.234,-0.786,90,-0.93533,0.448,-0.0046181,0.82,0.74,0
0.1223,9.2791e-17,0.16,-1.233,-0.757,-0.757,-5.261e-17,0,0,-0.6188,-8.3543e-17,0,-1.3678e-16,0,0,1,-5.8486e-16,0,1,-0.757,-1.233,-0.757,-90,-0.91567,0.476,-0.0055392,0.84,0.74,0
0.10956,9.2255e-17,0.14,-1.232,-0.728,-0.728,-1.2238e-16,0,0,-0.6552,-1.3189e-16,0,-3.1819e-16,0,0,1,-5.2536e-16,0,1,-0.728,-1.232,-0.728,-90,-0.896,0.504,-0.0065753,0.86,0.74,0
0.096096,8.6958e-17,0.12,-1.231,-0.699,-0.699,-6.4051e-17,0,0,-0.6916,-2.2471e-16,0,-1.6653e-16,0,0,1,1.4791e-31,0,1,-0.699,-1.231,-0.699,-90,-0.87633,0.532,-0.0077332,0.88,0.74,0
0.0819,8.5179e-17,0.1,-1.23,-0.67,-0.67,1.6396e-17,0,0,-0.728,1.3998e-17,0,4.263e-17,0,0,1,0,0,1,-0.67,-1.23,-0.67,90,-0.85667,0.56,-0.0090197,0.9,0.74,0
0.066976,8.2752e-17,0.08,-1.229,-0.641,-0.641,-8.8737e-16,0,0,-0.7644,-1.2117e-16,0,-2.3072e-15,0,0,1,-9.6799e-16,0,1,-0.641,-1.229,-0.641,-90,-0.837,0.588,-0.010441,0.92,0.74,0
0.051324,-4.492e-17,0.06,-1.228,-0.612,-0.612,-7.0714e-16,0,0,-0.8008,-9.9829e-17,0,-1.8386e-15,0,0,1,-1.6207e-15,0,1,-0.612,-1.228,-0.612,7.1054e-14,-0.81733,0.616,-0.012024,0.94,0.74,0
0.034944,-4.2432e-17,0.04,-1.227,-0.583,-0.583,1.7147e-16,0,0,-0.8372,-2.5244e-17,0,4.4582e-16,0,0,1,-7.075e-17,0,1,-0.583,-1.227,-0.583,90,-0.79767,0.644,-0.013718,0.96,0.74,0
0.017836,-4.2188e-17,0.02,-1.226,-0.554,-0.554,-2.7378e-17,0,0,-0.8736,-8.0687e-17,0,-7.1182e-17,0,0,1,-1.8957e-17,0,1,-0.554,-1.226,-0.554,-90,-0.778,0.672,-0.015586,0.98,0.74,0
0,-4.1037e-17,0,-1.2005,-0.5145,-0.5145,3.4311e-17,0,0,-0.8918,-1.3351e-16,0,8.9209e-17,0,0,1,0,0,1,-0.5145,-1.2005,-0.5145,90,-0.74317,0.686,-0.016581,1,0.74,0
0,3.5427e-17,1,-1.2995,-1.9855,-1.9855,1.0728e-16,0,0,0.8918,-2.9225e-18,0,2.7892e-16,0,0,1,0,0,1,-1.2995,-1.9855,-1.9855,8.9598e-15,-1.7568,0.686,0.016581,0,0.76,0
0.017836,4.0807e-17,0.98,-1.274,-1.946,-1.946,-1.0415e-16,0,0,0.8736,4.5678e-17,0,-2.708e-16,0,0,1,5.2972e-15,0,1,-1.274,-1.946,-1.946,-8.8803e-15,-1.722,0.672,0.015586,0.02,0.76,0
0.034944,2.981e-17,0.96,-1.273,-1.917,-1.917,1.5941e-16,0,0,0.8372,1.47e-16,0,4.1447e-16,0,0,1,-5.312e-16,0,1,-1.273,-1.917,-1.917,1.4183e-14,-1.7023,0.644,0.013718,0.04,0.76,0
0.051324,3.8111e-17,0.94,-1.272,-1.888,-1.888,4.8611e-16,0,0,0.8008,-5.1806e-17,0,1.2639e-15,0,0,1,1.7445e-15,0,1,-1.272,-1.888,-1.888,4.5802e-14,-1.6827,0.616,0.012024,0.06,0.76,0
0.066976,6.6682e-17,0.92,-1.271,-1.859,-1.859,2.3388e-16,0,0,0.7644,4.284e-19,0,6.081e-16,0,0,1,-1.0624e-15,0,1,-1.271,-1.859,-1.859,2.279e-14,-1.663,0.588,0.010441,0.08,0.76,0
0.0819,3.2138e-17,0.9,-1.27,-1.83,-1.83,-3.6715e-16,0,0,0.728,-2.0219e-16,0,-9.5458e-16,0,0,1,8.5629e-16,0,1,-1.27,-1.83,-1.83,-3.7564e-14,-1.6433,0.56,0.0090197,0.1,0.76,0
0.096096,2.4952e-17,0.88,-1.269,-1.801,-1.801,1.5364e-16,0,0,0.6916,-4.6649e-17,0,3.9947e-16,0,0,1,-5.6308e-16,0,1,-1.269,-1.801,-1.801,1.6547e-14,-1.6237,0.532,0.0077332,0.12,0.76,0
0.10956,1.9848e-17,0.86,-1.268,-1.772,-1.772,2.9053e-16,0,0,0.6552,3.8368e-17,0,7.5538e-16,0,0,1,-2.3394e-15,0,1,-1.268,-1.772,-1.772,3.3028e-14,-1.604,0.504,0.0065753,0.14,0.76,0
0.1223,6.3775e-17,0.84,-1.267,-1.743,-1.743,1.1513e-16,0,0,0.6188,-1.7276e-16,0,2.9933e-16,0,0,1,-4.6151e-15,0,1,-1.267,-1.743,-1.743,1.3858e-14,-1.5843,0.476,0.0055392,0.16,0.76,0
0.13432,-7.0966e-18,0.82,-1.266,-1.714,-1.714,-1.379e-15,0,0,0.5824,-6.3712e-17,0,-3.5854e-15,0,0,1,6.5019e-16,0,1,-1.266,-1.714,-1.714,-1.7636e-13,-1.5647,0.448,0.0046181,0.18,0.76,0
0.1456,-2.6119e-17,0.8,-1.265,-1.685,-1.685,2.135e-16,0,0,0.546,1.1548e-18,0,5.5511e-16,0,0,1,1.8635e-15,0,1,-1.265,-1.685,-1.685,2.9126e-14,-1.545,0.42,0.0038052,0.2,0.76,0
0.15616,1.3939e-17,0.78,-1.264,-1.656,-1.656,-3.4325e-17,0,0,0.5096,-2.7311e-16,0,-8.9245e-17,0,0,1,-3.6398e-15,0,1,-1.264,-1.656,-1.656,-5.017e-15,-1.5253,0.392,0.0030937,0.22,0.76,0
0.16598,-4.7711e-17,0.76,-1.263,-1.627,-1.627,-1.0332e-15,0,0,0.4732,-1.1839e-16,0,-2.6863e-15,0,0,1,-8.8818e-16,0,1,-1.263,-1.627,-1.627,-1.6263e-13,-1.5057,0.364,0.002477,0.24,0.76,0
0.17508,-5.4488e-17,0.74,-1.262,-1.598,-1.598,1.5936e-16,0,0,0.4368,3.1032e-17,0,4.1434e-16,0,0,1,0,0,1,-1.262,-1.598,-1.598,2.7175e-14,-1.486,0.336,0.0019482,0.26,0.76,0
0.18346,-5.4718e-17,0.72,-1.261,-1.569,-1.569,9.9356e-16,0,0,0.4004,4.8176e-17,0,2.5833e-15,0,0,1,3.6398e-15,0,1,-1.261,-1.569,-1.569,1.8483e-13,-1.4663,0.308,0.0015006,0.28,0.76,0
0.1911,3.2473e-17,0.7,-1.26,-1.54,-1.54,1.0248e-15,0,0,0.364,-1.4795e-16,0,2.6645e-15,0,0,1,-9.7529e-16,0,1,-1.26,-1.54,-1.54,2.0971e-13,-1.4467,0.28,0.0011275,0.3,0.76,0
0.19802,3.8666e-17,0.68,-1.259,-1.511,-1.511,9.6843e-17,0,0,0.3276,-3.933e-17,0,2.5179e-16,0,0,1,0,0,1,-1.259,-1.511,-1.511,2.2019e-14,-1.427,0.252,0.00082192,0.32,0.76,0
0.2042,4.5888e-17,0.66,-1.258,-1.482,-1.482,-1.2353e-15,0,0,0.2912,-2.6384e-16,0,-3.2117e-15,0,0,1,-2.4265e-15,0,1,-1.258,-1.482,-1.482,-3.405e-13,-1.4073,0.224,0.00058402,0.34,0.76,0
0.20966,-6.6348e-17,0.64,-1.257,-1.453,-1.453,-8.2276e-16,0,0,0.2548,6.1065e-17,0,-2.1392e-15,0,0,1,3.251e-16,0,1,-1.257,-1.453,-1.453,-2.4051e-13,-1.3877,0.196,0.00038672,0.36,0.76,0
0.2144,-7.0334e-17,0.62,-1.256,-1.424,-1.424,6.2518e-17,0,0,0.2184,-1.0645e-16,0,1.6255e-16,0,0,1,0,0,1,-1.256,-1.424,-1.424,2.1322e-14,-1.368,0.168,0.00024353,0.38,0.76,0
0.2184,-7.3472e-17,0.6,-1.255,-1.395,-1.395,1.13e-15,0,0,0.182,2.1756e-16,0,2.9381e-15,0,0,1,1.2133e-15,0,1,-1.255,-1.395,-1.395,4.6248e-13,-1.3483,0.14,0.00014093,0.4,0.76,0
0.22168,1.6676e-17,0.58,-1.254,-1.366,-1.366,4.9259e-16,0,0,0.1456,4.9975e-17,0,1.2807e-15,0,0,1,-6.5019e-16,0,1,-1.254,-1.366,-1.366,2.129e-13,-1.3287,0.112,7.554e-05,0.42,0.76,0
0.22422,1.9918e-17,0.56,-1.253,-1.337,-1.337,-5.4143e-17,0,0,0.1092,-2.3375e-19,0,-1.4077e-16,0,0,1,0,0,1,-1.253,-1.337,-1.337,-3.693e-14,-1.309,0.084,3.0441e-05,0.44,0.76,0
0.22604,1.2706e-17,0.54,-1.252,-1.308,-1.308,-8.2276e-16,0,0,0.0728,2.608e-17,0,-2.1392e-15,0,0,1,-2.1014e-15,0,1,-1.252,-1.308,-1.308,-8.418e-13,-1.2893,0.056,9.0196e-06,0.46,0.76,0
0.22714,-7.8501e-17,0.52,-1.251,-1.279,-1.279,-7.6862e-16,0,0,0.0364,-3.5364e-18,0,-1.9984e-15,0,0,1,-2.8154e-16,0,1,-1.251,-1.279,-1.279,-1.5728e-12,-1.2697,0.028,1.1275e-06,0.48,0.76,0
0.2275,-7.1626e-17,0.5,-1.25,-1.25,-1.25,-2.417e-16,0,0,-6.0455e-16,2.1711e-17,0,-6.2841e-16,0,0,1,2.1014e-15,0,1,-1.25,-1.25,-1.25,-57.336,-1.25,3.8459e-16,0,0.5,0.76,0
0.22714,-7.4934e-17,0.48,-1.249,-1.221,-1.221,5.1077e-17,0,0,-0.0364,1.5495e-16,0,1.328e-16,0,0,1,2.8154e-16,0,1,-1.221,-1.249,-1.221,90,-1.2303,0.028,-1.1275e-06,0.52,0.76,0
0.22604,-8.3659e-17,0.46,-1.248,-1.192,-1.192,-6.7177e-16,0,0,-0.0728,4.1773e-17,0,-1.7466e-15,0,0,1,0,0,1,-1.192,-1.248,-1.192,-90,-1.2107,0.056,-9.0196e-06,0.54,0.76,0
0.22422,-9.7819e-17,0.44,-1.247,-1.163,-1.163,2.1373e-15,0,0,-0.1092,2.3718e-17,0,5.5569e-15,0,0,1,-8.1274e-16,0,1,-1.163,-1.247,-1.163,90,-1.191,0.084,-3.0441e-05,0.56,0.76,0
0.22168,8.3421e-17,0.42,-1.246,-1.134,-1.134,1.1133e-15,0,0,-0.1456,-7.9247e-17,0,2.8946e-15,0,0,1,3.0332e-15,0,1,-1.134,-1.246,-1.134,90,-1.1713,0.112,-7.2157e-05,0.58,0.76,0
0.2184,7.8497e-17,0.4,-1.245,-1.105,-1.105,3.7287e-16,0,0,-0.182,-1.8118e-16,0,9.6945e-16,0,0,1,0,0,1,-1.105,-1.245,-1.105,90,-1.1517,0.14,-0.00014093,0.6,0.76,0
0.2144,7.2549e-17,0.38,-1.244,-1.076,-1.076,6.5584e-17,0,0,-0.2184,-1.4268e-16,0,1.7052e-16,0,0,1,0,0,1,-1.076,-1.244,-1.076,90,-1.132,0.168,-0.00024353,0.62,0.76,0
0.20966,7.8881e-17,0.36,-1.243,-1.047,-1.047,1.1666e-16,0,0,-0.2548,-2.2729e-16,0,3.0332e-16,0,0,1,-4.4409e-16,0,1,-1.047,-1.243,-1.047,90,-1.1123,0.196,-0.00038672,0.64,0.76,0
0.2042,8.792e-17,0.34,-1.242,-1.018,-1.018,1.1442e-17,0,0,-0.2912,-2.8046e-16,0,2.9748e-17,0,0,1,-1.0507e-15,0,1,-1.018,-1.242,-1.018,90,-1.0927,0.224,-0.00057726,0.66,0.76,0
0.19802,9.6514e-17,0.32,-1.241,-0.989,-0.989,-1.705e-15,0,0,-0.3276,4.2894e-17,0,-4.4329e-15,0,0,1,-7.5439e-17,0,1,-0.989,-1.241,-0.989,-90,-1.073,0.252,-0.00082192,0.68,0.76,0
0.1911,-6.0661e-17,0.3,-1.24,-0.96,-0.96,-8.9141e-16,0,0,-0.364,-9.5272e-17,0,-2.3177e-15,0,0,1,-3.4773e-15,0,1,-0.96,-1.24,-0.96,-90,-1.0533,0.28,-0.0011275,0.7,0.76,0
0.18346,-6.163e-17,0.28,-1.239,-0.931,-0.931,-2.2188e-16,0,0,-0.4004,-1.1494e-16,0,-5.7689e-16,0,0,1,1.2133e-15,0,1,-0.931,-1.239,-0.931,-90,-1.0337,0.308,-0.0015006,0.72,0.76,0
0.17508,-5.8195e-17,0.26,-1.238,-0.902,-0.902,1.1442e-17,0,0,-0.4368,-1.7073e-16,0,2.9748e-17,0,0,1,-3.0332e-16,0,1,-0.902,-1.238,-0.902,90,-1.014,0.336,-0.0019482,0.74,0.76,0
0.16598,-5.6428e-17,0.24,-1.237,-0.873,-0.873,3.9635e-17,0,0,-0.4732,-8.8208e-17,0,1.0305e-16,0,0,1,-1.0507e-15,0,1,-0.873,-1.237,-0.873,90,-0.99433,0.364,-0.002477,0.76,0.76,0
0.15616,-6.1353e-17,0.22,-1.236,-0.844,-0.844,-4.7809e-16,0,0,-0.5096,-2.3895e-17,0,-1.243e-15,0,0,1,-1.4077e-16,0,1,-0.844,-1.236,-0.844,-90,-0.97467,0.392,-0.0030937,0.78,0.76,0
0.1456,-5.5149e-17,0.2,-1.235,-0.815,-0.815,1.5056e-15,0,0,-0.546,-2.2478e-16,0,3.9145e-15,0,0,1,5.6308e-16,0,1,-0.815,-1.235,-0.815,90,-0.955,0.42,-0.0038052,0.8,0.76,0
0.13432,8.9361e-17,0.18,-1.234,-0.786,-0.786,1.3466e-15,0,0,-0.5824,-2.0011e-16,0,3.5012e-15,0,0,1,1.6574e-15,0,1,-0.786,-1.234,-0.786,90,-0.93533,0.448,-0.0046181,0.82,0.76,0
0.1223,9.1953e-17,0.16,-1.233,-0.757,-0.757,2.2341e-16,0,0,-0.6188,-9.3143e-17,0,5.8087e-16,0,0,1,-5.8486e-16,0,1,-0.757,-1.233,-0.757,90,-0.91567,0.476,-0.0055392,0.84,0.76,0
0.10956,8.9453e-17,0.14,-1.232,-0.728,-0.728,-7.396e-17,0,0,-0.6552,-1.5356e-16,0,-1.923e-16,0,0,1,-8.2868e-16,0,1,-0.728,-1.232,-0.728,-90,-0.896,0.504,-0.0065753,0.86,0.76,0
0.096096,8.3894e-17,0.12,-1.231,-0.699,-0.699,9.531e-17,0,0,-0.6916,-1.0264e-16,0,2.4781e-16,0,0,1,8.1274e-17,0,1,-0.699,-1.231,-0.699,90,-0.87633,0.532,-0.0077332,0.88,0.76,0
0.0819,8.4938e-17,0.1,-1.23,-0.67,-0.67,-4.8422e-17,0,0,-0.728,-8.1548e-17,0,-1.259e-16,0,0,1,0,0,1,-0.67,-1.23,-0.67,-90,-0.85667,0.56,-0.0090197,0.9,0.76,0
0.066976,7.9969e-17,0.08,-1.229,-0.641,-0.641,-9.3007e-16,0,0,-0.7644,-1.056e-16,0,-2.4182e-15,0,0,1,-9.6799e-16,0,1,-0.641,-1.229,-0.641,-90,-0.837,0.588,-0.010441,0.92,0.76,0
0.051324,-4.7052e-17,0.06,-1.228,-0.612,-0.612,-6.9609e-16,0,0,-0.8008,-7.7393e-17,0,-1.8098e-15,0,0,1,-3.2821e-15,0,1,-0.612,-1.228,-0.612,-90,-0.81733,0.616,-0.012024,0.94,0.76,0
0.034944,-4.3459e-17,0.04,-1.227,-0.583,-0.583,1.6665e-16,0,0,-0.8372,-4.8133e-17,0,4.333e-16,0,0,1,0,0,1,-0.583,-1.227,-0.583,90,-0.79767,0.644,-0.013718,0.96,0.76,0
0.017836,-4.3529e-17,0.02,-1.226,-0.554,-0.554,-3.0212e-17,0,0,-0.8736,-2.5017e-17,0,-7.8552e-17,0,0,1,0,0,1,-0.554,-1.226,-0.554,-90,-0.778,0.672,-0.015586,0.98,0.76,0
0,-4.4176e-17,0,-1.2005,-0.5145,-0.5145,-3.9074e-18,0,0,-0.8918,-5.4301e-17,0,-1.0159e-17,0,0,1,0,0,1,-0.5145,-1.2005,-0.5145,-90,-0.74317,0.686,-0.016581,1,0.76,0
0,3.5767e-17,1,-1.2995,-1.9855,-1.9855,7.5965e-17,0,0,0.8918,1.455e-17,0,1.9751e-16,0,0,1,0,0,1,-1.2995,-1.9855,-1.9855,6.3447e-15,-1.7568,0.686,0.016581,0,0.78,0
0.017836,3.9227e-17,0.98,-1.274,-1.946,-1.946,-6.6311e-17,0,0,0.8736,-1.4524e-16,0,-1.7241e-16,0,0,1,4.29e-15,0,1,-1.274,-1.946,-1.946,-5.6538e-15,-1.722,0.672,0.015586,0.02,0.78,0
0.034944,3.1951e-17,0.96,-1.273,-1.917,-1.917,1.5793e-16,0,0,0.8372,-8.3437e-17,0,4.1062e-16,0,0,1,-4.6151e-15,0,1,-1.273,-1.917,-1.917,1.4051e-14,-1.7023,0.644,0.013718,0.04,0.78,0
0.051324,3.9228e-17,0.94,-1.272,-1.888,-1.888,4.6448e-16,0,0,0.8008,-1.8878e-17,0,1.2076e-15,0,0,1,3.0767e-15,0,1,-1.272,-1.888,-1.888,4.3747e-14,-1.6827,0.616,0.012024,0.06,0.78,0
0.066976,6.8331e-17,0.92,-1.271,-1.859,-1.859,9.531e-17,0,0,0.7644,3.9118e-17,0,2.4781e-16,0,0,1,-3.7269e-15,0,1,-1.271,-1.859,-1.859,9.2872e-15,-1.663,0.588,0.010441,0.08,0.78,0
0.0819,2.7032e-17,0.9,-1.27,-1.83,-1.83,-2.747e-16,0,0,0.728,-1.3387e-16,0,-7.1421e-16,0,0,1,2.7516e-15,0,1,-1.27,-1.83,-1.83,-2.8105e-14,-1.6433,0.56,0.0090197,0.1,0.78,0
0.096096,2.254e-17,0.88,-1.269,-1.801,-1.801,-5.7208e-18,0,0,0.6916,-1.1927e-16,0,-1.4874e-17,0,0,1,0,0,1,-1.269,-1.801,-1.801,-6.1613e-16,-1.6237,0.532,0.0077332,0.12,0.78,0
0.10956,2.1025e-17,0.86,-1.268,-1.772,-1.772,3.8584e-16,0,0,0.6552,-4.8683e-17,0,1.0032e-15,0,0,1,3.0767e-15,0,1,-1.268,-1.772,-1.772,4.3863e-14,-1.604,0.504,0.0065753,0.14,0.78,0
0.1223,5.8234e-17,0.84,-1.267,-1.743,-1.743,8.0803e-17,0,0,0.6188,-6.5088e-17,0,2.1009e-16,0,0,1,-5.5033e-15,0,1,-1.267,-1.743,-1.743,9.7262e-15,-1.5843,0.476,0.0055392,0.16,0.78,0
0.13432,-9.7762e-18,0.82,-1.266,-1.714,-1.714,-1.2025e-15,0,0,0.5824,-1.1239e-16,0,-3.1264e-15,0,0,1,-5.9165e-31,0,1,-1.266,-1.714,-1.714,-1.5379e-13,-1.5647,0.448,0.0046181,0.18,0.78,0
0.1456,-2.5938e-17,0.8,-1.265,-1.685,-1.685,4.0413e-16,0,0,0.546,1.0381e-16,0,1.0507e-15,0,0,1,5.6223e-15,0,1,-1.265,-1.685,-1.685,5.513e-14,-1.545,0.42,0.0038052,0.2,0.78,0
0.15616,1.2023e-17,0.78,-1.264,-1.656,-1.656,-4.5767e-17,0,0,0.5096,-7.0132e-17,0,-1.1899e-16,0,0,1,-3.9649e-15,0,1,-1.264,-1.656,-1.656,-6.6894e-15,-1.5253,0.392,0.0030937,0.22,0.78,0
0.16598,-5.052e-17,0.76,-1.263,-1.627,-1.627,-1.0332e-15,0,0,0.4732,-3.804e-17,0,-2.6863e-15,0,0,1,3.7588e-15,0,1,-1.263,-1.627,-1.627,-1.6263e-13,-1.5057,0.364,0.002477,0.24,0.78,0
0.17508,-5.4785e-17,0.74,-1.262,-1.598,-1.598,1.8489e-32,0,0,0.4368,-1.2189e-16,0,2.4652e-32,0,0,1,5.6308e-16,0,1,-1.262,-1.598,-1.598,3.1528e-30,-1.486,0.336,0.0019482,0.26,0.78,0
0.18346,-5.4465e-17,0.72,-1.261,-1.569,-1.569,7.6024e-16,0,0,0.4004,-2.1567e-17,0,1.9766e-15,0,0,1,3.6398e-15,0,1,-1.261,-1.569,-1.569,1.4142e-13,-1.4663,0.308,0.0015006,0.28,0.78,0
0.1911,3.0176e-17,0.7,-1.26,-1.54,-1.54,1.5227e-15,0,0,0.364,4.0876e-18,0,3.9591e-15,0,0,1,-9.7529e-16,0,1,-1.26,-1.54,-1.54,3.1159e-13,-1.4467,0.28,0.0011275,0.3,0.78,0
0.19802,3.7064e-17,0.68,-1.259,-1.511,-1.511,1.281e-16,0,0,0.3276,-1.3151e-16,0,3.3307e-16,0,0,1,0,0,1,-1.259,-1.511,-1.511,2.9126e-14,-1.427,0.252,0.00082192,0.32,0.78,0
0.2042,4.167e-17,0.66,-1.258,-1.482,-1.482,-1.204e-15,0,0,0.2912,-2.0934e-16,0,-3.1304e-15,0,0,1,-2.4265e-15,0,1,-1.258,-1.482,-1.482,-3.2512e-13,-1.4073,0.224,0.00058402,0.34,0.78,0
0.20966,-6.3108e-17,0.64,-1.257,-1.453,-1.453,-1.1758e-15,0,0,0.2548,-9.9195e-17,0,-3.0571e-15,0,0,1,3.251e-16,0,1,-1.257,-1.453,-1.453,-3.4372e-13,-1.3877,0.196,0.00038672,0.36,0.78,0
0.2144,-7.0774e-17,0.62,-1.256,-1.424,-1.424,1.0522e-16,0,0,0.2184,1.4458e-16,0,2.7357e-16,0,0,1,0,0,1,-1.256,-1.424,-1.424,3.5885e-14,-1.368,0.168,0.00024353,0.38,0.78,0
0.2184,-6.8457e-17,0.6,-1.255,-1.395,-1.395,1.0873e-15,0,0,0.182,1.844e-16,0,2.8271e-15,0,0,1,1.2133e-15,0,1,-1.255,-1.395,-1.395,4.45e-13,-1.3483,0.14,0.00014093,0.4,0.78,0
0.22168,1.887e-17,0.58,-1.254,-1.366,-1.366,6.0925e-16,0,0,0.1456,7.9304e-17,0,1.5841e-15,0,0,1,-6.5019e-16,0,1,-1.254,-1.366,-1.366,2.7001e-13,-1.3287,0.112,7.554e-05,0.42,0.78,0
0.22422,1.9758e-17,0.56,-1.253,-1.337,-1.337,-1.0829e-16,0,0,0.1092,-8.2119e-17,0,-2.8154e-16,0,0,1,0,0,1,-1.253,-1.337,-1.337,-7.386e-14,-1.309,0.084,3.0441e-05,0.44,0.78,0
0.22604,1.4648e-17,0.54,-1.252,-1.308,-1.308,-1.2154e-15,0,0,0.0728,1.2798e-16,0,-3.1601e-15,0,0,1,-2.1014e-15,0,1,-1.252,-1.308,-1.308,-1.2436e-12,-1.2893,0.056,9.0196e-06,0.46,0.78,0
0.22714,-7.521e-17,0.52,-1.251,-1.279,-1.279,-9.5086e-16,0,0,0.0364,2.1702e-16,0,-2.4722e-15,0,0,1,-5.6308e-16,0,1,-1.251,-1.279,-1.279,-1.9457e-12,-1.2697,0.028,1.1275e-06,0.48,0.78,0
0.2275,-7.2078e-17,0.5,-1.25,-1.25,-1.25,-4.7502e-16,0,0,1.6567e-16,-6.3551e-17,0,-1.2351e-15,0,0,1,6.0664e-16,0,1,-1.25,-1.25,-1.25,-20.277,-1.25,1.1854e-15,6.8316e-47,0.5,0.78,0
0.22714,-7.0365e-17,0.48,-1.249,-1.221,-1.221,2.8193e-17,0,0,-0.0364,3.685e-18,0,7.3303e-17,0,0,1,-3.251e-16,0,1,-1.221,-1.249,-1.221,90,-1.2303,0.028,-1.1275e-06,0.52,0.78,0
0.22604,-8.168e-17,0.46,-1.248,-1.192,-1.192,-7.6555e-16,0,0,-0.0728,1.2732e-16,0,-1.9904e-15,0,0,1,6.0664e-16,0,1,-1.192,-1.248,-1.192,-90,-1.2107,0.056,-9.0196e-06,0.54,0.78,0
0.22422,-9.5584e-17,0.44,-1.247,-1.163,-1.163,1.8186e-15,0,0,-0.1092,3.3853e-16,0,4.7283e-15,0,0,1,-8.1274e-16,0,1,-1.163,-1.247,-1.163,90,-1.191,0.084,-3.0441e-05,0.56,0.78,0
0.22168,8.1655e-17,0.42,-1.246,-1.134,-1.134,2.9973e-16,0,0,-0.1456,-2.8363e-17,0,7.7929e-16,0,0,1,3.0332e-15,0,1,-1.134,-1.246,-1.134,90,-1.1713,0.112,-7.2157e-05,0.58,0.78,0
0.2184,7.5616e-17,0.4,-1.245,-1.105,-1.105,3.4998e-16,0,0,-0.182,-8.048e-17,0,9.0996e-16,0,0,1,0,0,1,-1.105,-1.245,-1.105,90,-1.1517,0.14,-0.00014093,0.6,0.78,0
0.2144,7.3088e-17,0.38,-1.244,-1.076,-1.076,5.4143e-17,0,0,-0.2184,-1.3365e-16,0,1.4077e-16,0,0,1,0,0,1,-1.076,-1.244,-1.076,90,-1.132,0.168,-0.00024353,0.62,0.78,0
0.20966,7.4085e-17,0.36,-1.243,-1.047,-1.047,-7.396e-17,0,0,-0.2548,-6.3241e-17,0,-1.923e-16,0,0,1,-7.3956e-32,0,1,-1.047,-1.243,-1.047,-90,-1.1123,0.196,-0.00038672,0.64,0.78,0
0.2042,8.3892e-17,0.34,-1.242,-1.018,-1.018,6.3745e-16,0,0,-0.2912,-6.5853e-17,0,1.6574e-15,0,0,1,2.9582e-31,0,1,-1.018,-1.242,-1.018,90,-1.0927,0.224,-0.00057726,0.66,0.78,0
0.19802,9.6705e-17,0.32,-1.241,-0.989,-0.989,-1.5738e-15,0,0,-0.3276,-9.3274e-17,0,-4.0919e-15,0,0,1,-2.3799e-16,0,1,-0.989,-1.241,-0.989,-90,-1.073,0.252,-0.00082192,0.68,0.78,0
0.1911,-6.1634e-17,0.3,-1.24,-0.96,-0.96,-8.9141e-16,0,0,-0.364,-1.662e-17,0,-2.3177e-15,0,0,1,-3.3147e-15,0,1,-0.96,-1.24,-0.96,-90,-1.0533,0.28,-0.0011275,0.7,0.78,0
0.18346,-6.2502e-17,0.28,-1.239,-0.931,-0.931,-2.0206e-16,0,0,-0.4004,-1.394e-16,0,-5.2536e-16,0,0,1,-4.4409e-16,0,1,-0.931,-1.239,-0.931,-90,-1.0337,0.308,-0.0015006,0.72,0.78,0
0.17508,-6.2543e-17,0.26,-1.238,-0.902,-0.902,-1.1442e-17,0,0,-0.4368,-1.2045e-16,0,-2.9748e-17,0,0,1,-7.4741e-16,0,1,-0.902,-1.238,-0.902,-90,-1.014,0.336,-0.0019482,0.74,0.78,0
0.16598,-5.7343e-17,0.24,-1.237,-0.873,-0.873,-4.4683e-16,0,0,-0.4732,-2.0117e-16,0,-1.1617e-15,0,0,1,6.0664e-16,0,1,-0.873,-1.237,-0.873,-90,-0.99433,0.364,-0.002477,0.76,0.78,0
0.15616,-6.3239e-17,0.22,-1.236,-0.844,-0.844,-4.2701e-17,0,0,-0.5096,-1.3629e-17,0,-1.1102e-16,0,0,1,2.2204e-16,0,1,-0.844,-1.236,-0.844,-90,-0.97467,0.392,-0.0030937,0.78,0.78,0
0.1456,-6.1285e-17,0.2,-1.235,-0.815,-0.815,1.6722e-15,0,0,-0.546,-2.0895e-16,0,4.3477e-15,0,0,1,2.8951e-16,0,1,-0.815,-1.235,-0.815,90,-0.955,0.42,-0.0038052,0.8,0.78,0
0.13432,8.5793e-17,0.18,-1.234,-0.786,-0.786,5.6962e-16,0,0,-0.5824,-1.7128e-16,0,1.481e-15,0,0,1,2.6783e-15,0,1,-0.786,-1.234,-0.786,90,-0.93533,0.448,-0.0046181,0.82,0.78,0
0.1223,8.9065e-17,0.16,-1.233,-0.757,-0.757,4.8422e-17,0,0,-0.6188,-1.2595e-16,0,1.259e-16,0,0,1,-1.6255e-16,0,1,-0.757,-1.233,-0.757,90,-0.91567,0.476,-0.0055392,0.84,0.78,0
0.10956,8.6113e-17,0.14,-1.232,-0.728,-0.728,-1.0103e-16,0,0,-0.6552,-1.9947e-16,0,-2.6268e-16,0,0,1,8.1274e-17,0,1,-0.728,-1.232,-0.728,-90,-0.896,0.504,-0.0065753,0.86,0.78,0
0.096096,8.2852e-17,0.12,-1.231,-0.699,-0.699,-5.833e-17,0,0,-0.6916,-1.8868e-16,0,-1.5166e-16,0,0,1,-5.2536e-16,0,1,-0.699,-1.231,-0.699,-90,-0.87633,0.532,-0.0077332,0.88,0.78,0
0.0819,8.1917e-17,0.1,-1.23,-0.67,-0.67,-2.094e-18,0,0,-0.728,-1.5484e-16,0,-5.4443e-18,0,0,1,1.6255e-16,0,1,-0.67,-1.23,-0.67,-90,-0.85667,0.56,-0.0090197,0.9,0.78,0
0.066976,7.8528e-17,0.08,-1.229,-0.641,-0.641,-7.8425e-16,0,0,-0.7644,-1.6635e-17,0,-2.039e-15,0,0,1,-1.5821e-15,0,1,-0.641,-1.229,-0.641,-90,-0.837,0.588,-0.010441,0.92,0.78,0
0.051324,-4.8015e-17,0.06,-1.228,-0.612,-0.612,-5.6694e-16,0,0,-0.8008,-4.0989e-17,0,-1.474e-15,0,0,1,-3.064e-15,0,1,-0.612,-1.228,-0.612,4.2633e-14,-0.81733,0.616,-0.012024,0.94,0.78,0
0.034944,-4.4357e-17,0.04,-1.227,-0.583,-0.583,-2.7543e-17,0,0,-0.8372,-1.2674e-17,0,-7.1613e-17,0,0,1,0,0,1,-0.583,-1.227,-0.583,-90,-0.79767,0.644,-0.013718,0.96,0.78,0
0.017836,-4.3188e-17,0.02,-1.226,-0.554,-0.554,7.5154e-17,0,0,-0.8736,3.9734e-17,0,1.954e-16,0,0,1,0,0,1,-0.554,-1.226,-0.554,90,-0.778,0.672,-0.015586,0.98,0.78,0
0,-4.3209e-17,0,-1.2005,-0.5145,-0.5145,-8.5299e-18,0,0,-0.8918,5.6821e-17,0,-2.2178e-17,0,0,1,0,0,1,-0.5145,-1.2005,-0.5145,-90,-0.74317,0.686,-0.016581,1,0.78,0
0,3.6009e-17,1,-1.2995,-1.9855,-1.9855,1.8134e-18,0,0,0.8918,-1.5325e-16,0,4.7149e-18,0,0,1,0,0,1,-1.2995,-1.9855,-1.9855,1.5146e-16,-1.7568,0.686,0.016581,0,0.8,0
0.017836,3.4997e-17,0.98,-1.274,-1.946,-1.946,-1.2896e-16,0,0,0.8736,-2.1797e-16,0,-3.3529e-16,0,0,1,4.8212e-15,0,1,-1.274,-1.946,-1.946,-1.0995e-14,-1.722,0.672,0.015586,0.02,0.8,0
0.034944,2.6472e-17,0.96,-1.273,-1.917,-1.917,2.481e-16,0,0,0.8372,-3.3062e-16,0,6.4505e-16,0,0,1,-1.0475e-14,0,1,-1.273,-1.917,-1.917,2.2073e-14,-1.7023,0.644,0.013718,0.04,0.8,0
0.051324,3.7356e-17,0.94,-1.272,-1.888,-1.888,3.9118e-16,0,0,0.8008,-1.347e-16,0,1.0171e-15,0,0,1,3.251e-16,0,1,-1.272,-1.888,-1.888,3.6564e-14,-1.6827,0.616,0.012024,0.06,0.8,0
0.066976,6.8247e-17,0.92,-1.271,-1.859,-1.859,-8.7496e-17,0,0,0.7644,-1.6029e-16,0,-2.2749e-16,0,0,1,-1.0681e-14,0,1,-1.271,-1.859,-1.859,-8.5257e-15,-1.663,0.588,0.010441,0.08,0.8,0
0.0819,2.6783e-17,0.9,-1.27,-1.83,-1.83,-4.9029e-16,0,0,0.728,-3.9001e-17,0,-1.2748e-15,0,0,1,3.0767e-15,0,1,-1.27,-1.83,-1.83,-5.0164e-14,-1.6433,0.56,0.0090197,0.1,0.8,0
0.096096,2.0181e-17,0.88,-1.269,-1.801,-1.801,5.833e-17,0,0,0.6916,8.5976e-17,0,1.5166e-16,0,0,1,0,0,1,-1.269,-1.801,-1.801,6.2821e-15,-1.6237,0.532,0.0077332,0.12,0.8,0
0.10956,1.7901e-17,0.86,-1.268,-1.772,-1.772,3.4314e-16,0,0,0.6552,-2.0195e-16,0,8.9216e-16,0,0,1,2.3076e-15,0,1,-1.268,-1.772,-1.772,3.9009e-14,-1.604,0.504,0.0065753,0.14,0.8,0
0.1223,6.1171e-17,0.84,-1.267,-1.743,-1.743,4.4376e-16,0,0,0.6188,-2.0557e-17,0,1.1538e-15,0,0,1,6.8208e-16,0,1,-1.267,-1.743,-1.743,5.3415e-14,-1.5843,0.476,0.0055392,0.16,0.8,0
0.13432,-1.1592e-17,0.82,-1.266,-1.714,-1.714,-1.2025e-15,0,0,0.5824,-1.5792e-16,0,-3.1264e-15,0,0,1,-8.8818e-16,0,1,-1.266,-1.714,-1.714,-1.5379e-13,-1.5647,0.448,0.0046181,0.18,0.8,0
0.1456,-2.1967e-17,0.8,-1.265,-1.685,-1.685,5.4214e-16,0,0,0.546,4.3394e-17,0,1.4096e-15,0,0,1,4.9721e-15,0,1,-1.265,-1.685,-1.685,7.3958e-14,-1.545,0.42,0.0038052,0.2,0.8,0
0.15616,1.1133e-17,0.78,-1.264,-1.656,-1.656,-1.4508e-17,0,0,0.5096,-8.9714e-17,0,-3.7719e-17,0,0,1,-3.8459e-15,0,1,-1.264,-1.656,-1.656,-2.1204e-15,-1.5253,0.392,0.0030937,0.22,0.8,0
0.16598,-4.9232e-17,0.76,-1.263,-1.627,-1.627,-4.4989e-16,0,0,0.4732,-2.3751e-17,0,-1.1697e-15,0,0,1,6.6294e-15,0,1,-1.263,-1.627,-1.627,-7.0816e-14,-1.5057,0.364,0.002477,0.24,0.8,0
0.17508,-5.9364e-17,0.74,-1.262,-1.598,-1.598,-2.562e-16,0,0,0.4368,-6.4715e-17,0,-6.6613e-16,0,0,1,5.6308e-16,0,1,-1.262,-1.598,-1.598,-4.3689e-14,-1.486,0.336,0.0019482,0.26,0.8,0
0.18346,-5.5581e-17,0.72,-1.261,-1.569,-1.569,1.2269e-15,0,0,0.4004,-6.7628e-18,0,3.1899e-15,0,0,1,-1.1899e-16,0,1,-1.261,-1.569,-1.569,2.2823e-13,-1.4663,0.308,0.0015006,0.28,0.8,0
0.1911,3.2637e-17,0.7,-1.26,-1.54,-1.54,1.1499e-15,0,0,0.364,1.3316e-16,0,2.9896e-15,0,0,1,1.5703e-15,0,1,-1.26,-1.54,-1.54,2.3529e-13,-1.4467,0.28,0.0011275,0.3,0.8,0
0.19802,3.3406e-17,0.68,-1.259,-1.511,-1.511,-3.1259e-17,0,0,0.3276,5.0819e-17,0,-8.1274e-17,0,0,1,0,0,1,-1.259,-1.511,-1.511,-7.1072e-15,-1.427,0.252,0.00082192,0.32,0.8,0
0.2042,3.7514e-17,0.66,-1.258,-1.482,-1.482,-8.6546e-16,0,0,0.2912,8.2793e-17,0,-2.2502e-15,0,0,1,-1.5384e-15,0,1,-1.258,-1.482,-1.482,-2.3914e-13,-1.4073,0.224,0.00058402,0.34,0.8,0
0.20966,-7.0315e-17,0.64,-1.257,-1.453,-1.453,-1.1217e-15,0,0,0.2548,-5.2979e-17,0,-2.9163e-15,0,0,1,2.061e-16,0,1,-1.257,-1.453,-1.453,-3.2789e-13,-1.3877,0.196,0.00038672,0.36,0.8,0
0.2144,-6.4551e-17,0.62,-1.256,-1.424,-1.424,-2.8746e-16,0,0,0.2184,9.073e-17,0,-7.4741e-16,0,0,1,0,0,1,-1.256,-1.424,-1.424,-9.8039e-14,-1.368,0.168,0.00024353,0.38,0.8,0
0.2184,-6.6096e-17,0.6,-1.255,-1.395,-1.395,8.8528e-16,0,0,0.182,7.0077e-17,0,2.3017e-15,0,0,1,-8.8818e-16,0,1,-1.255,-1.395,-1.395,3.623e-13,-1.3483,0.14,0.00014093,0.4,0.8,0
0.22168,1.9849e-17,0.58,-1.254,-1.366,-1.366,4.8422e-16,0,0,0.1456,5.7305e-17,0,1.259e-15,0,0,1,4.7597e-16,0,1,-1.254,-1.366,-1.366,2.0761e-13,-1.3287,0.112,7.554e-05,0.42,0.8,0
0.22422,1.6633e-17,0.56,-1.253,-1.337,-1.337,3.271e-16,0,0,0.1092,-2.4416e-19,0,8.5046e-16,0,0,1,0,0,1,-1.253,-1.337,-1.337,2.2311e-13,-1.309,0.084,3.0441e-05,0.44,0.8,0
0.22604,1.7826e-17,0.54,-1.252,-1.308,-1.308,-1.281e-15,0,0,0.0728,4.6255e-17,0,-3.3307e-15,0,0,1,-2.4425e-15,0,1,-1.252,-1.308,-1.308,-1.3107e-12,-1.2893,0.056,9.0196e-06,0.46,0.8,0
0.22714,-6.982e-17,0.52,-1.251,-1.279,-1.279,-6.9466e-16,0,0,0.0364,1.6098e-16,0,-1.8061e-15,0,0,1,7.0969e-16,0,1,-1.251,-1.279,-1.279,-1.4215e-12,-1.2697,0.028,1.1275e-06,0.48,0.8,0
0.2275,-7.4167e-17,0.5,-1.25,-1.25,-1.25,-5.1772e-16,0,0,8.6736e-19,6.0698e-17,0,-1.3461e-15,0,0,1,6.0664e-16,0,1,-1.25,-1.25,-1.25,-61.377,-1.25,1.1538e-15,0,0.5,0.8,0
0.22714,-7.4787e-17,0.48,-1.249,-1.221,-1.221,5.2916e-16,0,0,-0.0364,2.5533e-17,0,1.3758e-15,0,0,1,-3.251e-16,0,1,-1.221,-1.249,-1.221,90,-1.2303,0.028,-1.1275e-06,0.52,0.8,0
0.22604,-7.8566e-17,0.46,-1.248,-1.192,-1.192,9.6843e-17,0,0,-0.0728,2.465e-16,0,2.5179e-16,0,0,1,6.0664e-16,0,1,-1.192,-1.248,-1.192,90,-1.2107,0.056,-9.0196e-06,0.54,0.8,0
0.22422,-8.4278e-17,0.44,-1.247,-1.163,-1.163,1.9779e-15,0,0,-0.1092,2.2349e-16,0,5.1426e-15,0,0,1,-3.6398e-15,0,1,-1.163,-1.247,-1.163,90,-1.191,0.084,-3.0441e-05,0.56,0.8,0
0.22168,8.2287e-17,0.42,-1.246,-1.134,-1.134,1.3924e-15,0,0,-0.1456,-1.2068e-17,0,3.6202e-15,0,0,1,3.4337e-15,0,1,-1.134,-1.246,-1.134,90,-1.1713,0.112,-7.2157e-05,0.58,0.8,0
0.2184,7.5278e-17,0.4,-1.245,-1.105,-1.105,-9.6843e-17,0,0,-0.182,-8.208e-17,0,-2.5179e-16,0,0,1,0,0,1,-1.105,-1.245,-1.105,-90,-1.1517,0.14,-0.00014093,0.6,0.8,0
0.2144,6.7203e-17,0.38,-1.244,-1.076,-1.076,-6.2518e-17,0,0,-0.2184,3.3696e-18,0,-1.6255e-16,0,0,1,0,0,1,-1.076,-1.244,-1.076,-90,-1.132,0.168,-0.00024353,0.62,0.8,0
0.20966,7.6352e-17,0.36,-1.243,-1.047,-1.047,2.0513e-16,0,0,-0.2548,1.1007e-16,0,5.3333e-16,0,0,1,-1.6255e-16,0,1,-1.047,-1.243,-1.047,90,-1.1123,0.196,-0.00038672,0.64,0.8,0
0.2042,8.5286e-17,0.34,-1.242,-1.018,-1.018,6.4889e-16,0,0,-0.2912,6.2159e-17,0,1.6871e-15,0,0,1,1.2133e-15,0,1,-1.018,-1.242,-1.018,90,-1.0927,0.224,-0.00057726,0.66,0.8,0
0.19802,9.2782e-17,0.32,-1.241,-0.989,-0.989,-2.0435e-15,0,0,-0.3276,-1.0221e-16,0,-5.3131e-15,0,0,1,1.1538e-15,0,1,-0.989,-1.241,-0.989,-90,-1.073,0.252,-0.00082192,0.68,0.8,0
0.1911,-6.1326e-17,0.3,-1.24,-0.96,-0.96,-8.7997e-16,0,0,-0.364,-6.7185e-17,0,-2.2879e-15,0,0,1,-2.2422e-15,0,1,-0.96,-1.24,-0.96,-90,-1.0533,0.28,-0.0011275,0.7,0.8,0
0.18346,-6.7206e-17,0.28,-1.239,-0.931,-0.931,-2.0206e-16,0,0,-0.4004,-2.5505e-17,0,-5.2536e-16,0,0,1,-7.9096e-16,0,1,-0.931,-1.239,-0.931,-90,-1.0337,0.308,-0.0015006,0.72,0.8,0
0.17508,-6.3013e-17,0.26,-1.238,-0.902,-0.902,-2.135e-16,0,0,-0.4368,1.8967e-17,0,-5.5511e-16,0,0,1,9.0996e-16,0,1,-0.902,-1.238,-0.902,-90,-1.014,0.336,-0.0019482,0.74,0.8,0
0.16598,-6.4475e-17,0.24,-1.237,-0.873,-0.873,-3.8124e-16,0,0,-0.4732,-1.9443e-16,0,-9.9123e-16,0,0,1,1.0507e-15,0,1,-0.873,-1.237,-0.873,-90,-0.99433,0.364,-0.002477,0.76,0.8,0
0.15616,-6.1898e-17,0.22,-1.236,-0.844,-0.844,5.0934e-16,0,0,-0.5096,-2.4883e-17,0,1.3243e-15,0,0,1,1.4077e-16,0,1,-0.844,-1.236,-0.844,90,-0.97467,0.392,-0.0030937,0.78,0.8,0
0.1456,-6.3507e-17,0.2,-1.235,-0.815,-0.815,1.4118e-15,0,0,-0.546,-9.1813e-17,0,3.6706e-15,0,0,1,7.0385e-16,0,1,-0.815,-1.235,-0.815,90,-0.955,0.42,-0.0038052,0.8,0.8,0
0.13432,8.251e-17,0.18,-1.234,-0.786,-0.786,7.774e-16,0,0,-0.5824,-1.2115e-16,0,2.0212e-15,0,0,1,2.9301e-15,0,1,-0.786,-1.234,-0.786,90,-0.93533,0.448,-0.0046181,0.82,0.8,0
0.1223,8.6914e-17,0.16,-1.233,-0.757,-0.757,-3.3589e-16,0,0,-0.6188,-1.4107e-16,0,-8.733e-16,0,0,1,-1.6255e-16,0,1,-0.757,-1.233,-0.757,-90,-0.91567,0.476,-0.0055392,0.84,0.8,0
0.10956,8.1474e-17,0.14,-1.232,-0.728,-0.728,-2.135e-17,0,0,-0.6552,-1.033e-16,0,-5.5511e-17,0,0,1,3.0332e-16,0,1,-0.728,-1.232,-0.728,-90,-0.896,0.504,-0.0065753,0.86,0.8,0
0.096096,7.6347e-17,0.12,-1.231,-0.699,-0.699,1.563e-17,0,0,-0.6916,-1.3137e-16,0,4.0637e-17,0,0,1,0,0,1,-0.699,-1.231,-0.699,90,-0.87633,0.532,-0.0077332,0.88,0.8,0
0.0819,7.8745e-17,0.1,-1.23,-0.67,-0.67,-1.563e-17,0,0,-0.728,-9.1446e-17,0,-4.0637e-17,0,0,1,8.1274e-17,0,1,-0.67,-1.23,-0.67,-90,-0.85667,0.56,-0.0090197,0.9,0.8,0
0.066976,7.9304e-17,0.08,-1.229,-0.641,-0.641,-8.3972e-16,0,0,-0.7644,-3.2126e-17,0,-2.1833e-15,0,0,1,-1.8041e-15,0,1,-0.641,-1.229,-0.641,-90,-0.837,0.588,-0.010441,0.92,0.8,0
0.051324,-4.8691e-17,0.06,-1.228,-0.612,-0.612,-5.7828e-16,0,0,-0.8008,2.0727e-17,0,-1.5035e-15,0,0,1,-2.842e-15,0,1,-0.612,-1.228,-0.612,4.2633e-14,-0.81733,0.616,-0.012024,0.94,0.8,0
0.034944,-4.3966e-17,0.04,-1.227,-0.583,-0.583,2.5641e-17,0,0,-0.8372,5.5274e-17,0,6.6667e-17,0,0,1,0,0,1,-0.583,-1.227,-0.583,90,-0.79767,0.644,-0.013718,0.96,0.8,0
0.017836,-4.194e-17,0.02,-1.226,-0.554,-0.554,7.9106e-18,0,0,-0.8736,7.7783e-17,0,2.0568e-17,0,0,1,0,0,1,-0.554,-1.226,-0.554,90,-0.778,0.672,-0.015586,0.98,0.8,0
0,-4.1903e-17,0,-1.2005,-0.5145,-0.5145,-5.6695e-18,0,0,-0.8918,1.4981e-16,0,-1.4741e-17,0,0,1,0,0,1,-0.5145,-1.2005,-0.5145,-90,-0.74317,0.686,-0.016581,1,0.8,0
0,2.9637e-17,1,-1.2995,-1.9855,-1.9855,3.7158e-18,0,0,0.8918,-2.9949e-16,0,9.6611e-18,0,0,1,0,0,1,-1.2995,-1.9855,-1.9855,3.1035e-16,-1.7568,0.686,0.016581,0,0.82,0
0.017836,3.0508e-17,0.98,-1.274,-1.946,-1.946,-1.4385e-16,0,0,0.8736,-3.0074e-16,0,-3.74e-16,0,0,1,4.9402e-15,0,1,-1.274,-1.946,-1.946,-1.2265e-14,-1.722,0.672,0.015586,0.02,0.82,0
0.034944,1.8726e-17,0.96,-1.273,-1.917,-1.917,2.2732e-16,0,0,0.8372,-2.747e-16,0,5.9103e-16,0,0,1,-8.58e-15,0,1,-1.273,-1.917,-1.917,2.0224e-14,-1.7023,0.644,0.013718,0.04,0.82,0
0.051324,3.384e-17,0.94,-1.2802,-1.8915,-1.8915,4.0991e-16,0,0,0.79473,-1.9222e-16,0,1.0658e-15,0,0,1,-2.0117e-16,0,1,-1.2802,-1.8915,-1.8915,3.833e-14,-1.6877,0.61133,0.011743,0.06,0.82,0
0.066976,6.1919e-17,0.92,-1.271,-1.859,-1.859,1.0808e-16,0,0,0.7644,-1.6648e-16,0,2.8101e-16,0,0,1,-2.3076e-15,0,1,-1.271,-1.859,-1.859,1.0532e-14,-1.663,0.588,0.010441,0.08,0.82,0
0.0819,2.5472e-17,0.9,-1.27,-1.83,-1.83,-4.2624e-16,0,0,0.728,-1.027e-16,0,-1.1082e-15,0,0,1,5.7094e-15,0,1,-1.27,-1.83,-1.83,-4.3611e-14,-1.6433,0.56,0.0090197,0.1,0.82,0
0.096096,2.5979e-17,0.88,-1.269,-1.801,-1.801,1.2238e-16,0,0,0.6916,4.8982e-17,0,3.1819e-16,0,0,1,-2.4265e-15,0,1,-1.269,-1.801,-1.801,1.318e-14,-1.6237,0.532,0.0077332,0.12,0.82,0
0.10956,1.2947e-17,0.86,-1.268,-1.772,-1.772,2.3639e-16,0,0,0.6552,-2.354e-16,0,6.1461e-16,0,0,1,5.7413e-15,0,1,-1.268,-1.772,-1.772,2.6873e-14,-1.604,0.504,0.0065753,0.14,0.82,0
0.1223,5.7412e-17,0.84,-1.267,-1.743,-1.743,4.1822e-16,0,0,0.6188,-1.4364e-16,0,1.0874e-15,0,0,1,-5.6223e-15,0,1,-1.267,-1.743,-1.743,5.0341e-14,-1.5843,0.476,0.0055392,0.16,0.82,0
0.13432,-1.6093e-17,0.82,-1.266,-1.714,-1.714,-9.0509e-16,0,0,0.5824,-3.23e-17,0,-2.3533e-15,0,0,1,3.0767e-15,0,1,-1.266,-1.714,-1.714,-1.1575e-13,-1.5647,0.448,0.0046181,0.18,0.82,0
0.1456,-2.4202e-17,0.8,-1.265,-1.685,-1.685,1.8378e-16,0,0,0.546,-1.6633e-16,0,4.7782e-16,0,0,1,-1.3323e-15,0,1,-1.265,-1.685,-1.685,2.5071e-14,-1.545,0.42,0.0038052,0.2,0.82,0
0.15616,8.4347e-18,0.78,-1.264,-1.656,-1.656,-4.3539e-16,0,0,0.5096,1.5546e-17,0,-1.132e-15,0,0,1,-1.8635e-15,0,1,-1.264,-1.656,-1.656,-6.3637e-14,-1.5253,0.392,0.0030937,0.22,0.82,0
0.16598,-5.147e-17,0.76,-1.263,-1.627,-1.627,-6.0925e-16,0,0,0.4732,-1.6116e-17,0,-1.5841e-15,0,0,1,3.1957e-15,0,1,-1.263,-1.627,-1.627,-9.59e-14,-1.5057,0.364,0.002477,0.24,0.82,0
0.17508,-5.7373e-17,0.74,-1.262,-1.598,-1.598,-1.9818e-17,0,0,0.4368,5.7517e-17,0,-5.1526e-17,0,0,1,0,0,1,-1.262,-1.598,-1.598,-3.3793e-15,-1.486,0.336,0.0019482,0.26,0.82,0
0.18346,-5.4736e-17,0.72,-1.261,-1.569,-1.569,7.2898e-16,0,0,0.4004,-1.3377e-16,0,1.8953e-15,0,0,1,4.647e-15,0,1,-1.261,-1.569,-1.569,1.3561e-13,-1.4663,0.308,0.0015006,0.28,0.82,0
0.1911,3.5503e-17,0.7,-1.26,-1.54,-1.54,1.0363e-15,0,0,0.364,1.7052e-16,0,2.6943e-15,0,0,1,-1.6574e-15,0,1,-1.26,-1.54,-1.54,2.1205e-13,-1.4467,0.28,0.0011275,0.3,0.82,0
0.19802,3.9097e-17,0.68,-1.259,-1.511,-1.511,3.3017e-16,0,0,0.3276,9.4261e-17,0,8.5843e-16,0,0,1,0,0,1,-1.259,-1.511,-1.511,7.5068e-14,-1.427,0.252,0.00082192,0.32,0.82,0
0.2042,4.4982e-17,0.66,-1.2498,-1.4785,-1.4785,-9.277e-16,0,0,0.29727,1.713e-16,0,-2.412e-15,0,0,1,-3.8275e-15,0,1,-1.2498,-1.4785,-1.4785,-2.35e-13,-1.4023,0.22867,0.00061716,0.34,0.82,0
0.20966,-6.5227e-17,0.64,-1.257,-1.453,-1.453,-8.9672e-16,0,0,0.2548,1.6623e-16,0,-2.3315e-15,0,0,1,7.6918e-16,0,1,-1.257,-1.453,-1.453,-2.6213e-13,-1.3877,0.196,0.00038672,0.36,0.82,0
0.2144,-6.7144e-17,0.62,-1.256,-1.424,-1.424,-1.563e-16,0,0,0.2184,7.0498e-17,0,-4.0637e-16,0,0,1,0,0,1,-1.256,-1.424,-1.424,-5.3304e-14,-1.368,0.168,0.00024353,0.38,0.82,0
0.2184,-6.5654e-17,0.6,-1.255,-1.395,-1.395,1.4571e-15,0,0,0.182,2.1912e-16,0,3.7886e-15,0,0,1,3.3147e-15,0,1,-1.255,-1.395,-1.395,5.9634e-13,-1.3483,0.14,0.00014093,0.4,0.82,0
0.22168,2.1162e-17,0.58,-1.254,-1.366,-1.366,1.1811e-15,0,0,0.1456,3.7637e-17,0,3.0709e-15,0,0,1,-1.7764e-15,0,1,-1.254,-1.366,-1.366,5.6185e-13,-1.3287,0.112,7.554e-05,0.42,0.82,0
0.22422,1.9748e-17,0.56,-1.253,-1.337,-1.337,-3.4998e-16,0,0,0.1092,6.9332e-17,0,-9.0996e-16,0,0,1,0,0,1,-1.253,-1.337,-1.337,-2.3872e-13,-1.309,0.084,3.0441e-05,0.44,0.82,0
0.22604,1.6498e-17,0.54,-1.252,-1.308,-1.308,-5.6655e-16,0,0,0.0728,5.7566e-17,0,-1.473e-15,0,0,1,-1.5979e-15,0,1,-1.252,-1.308,-1.308,-5.7966e-13,-1.2893,0.056,9.0196e-06,0.46,0.82,0
0.22714,-6.8771e-17,0.52,-1.251,-1.279,-1.279,-7.1754e-16,0,0,0.0364,1.3186e-16,0,-1.8656e-15,0,0,1,-2.4425e-15,0,1,-1.251,-1.279,-1.279,-1.4683e-12,-1.2697,0.028,1.1275e-06,0.48,0.82,0
0.2275,-6.965e-17,0.5,-1.25,-1.25,-1.25,-7.1978e-16,0,0,6.0715e-18,2.4249e-16,0,-1.8714e-15,0,0,1,-6.0664e-16,0,1,-1.25,-1.25,-1.25,-40.616,-1.25,1.1538e-15,0,0.5,0.82,0
0.22714,-6.9343e-17,0.48,-1.249,-1.221,-1.221,4.0106e-16,0,0,-0.0364,3.1975e-17,0,1.0428e-15,0,0,1,-2.4652e-32,0,1,-1.221,-1.249,-1.221,90,-1.2303,0.028,-1.1275e-06,0.52,0.82,0
0.22604,-7.182e-17,0.46,-1.248,-1.192,-1.192,-3.6143e-16,0,0,-0.0728,2.3979e-16,0,-9.397e-16,0,0,1,1.5384e-15,0,1,-1.192,-1.248,-1.192,-90,-1.2107,0.056,-9.0196e-06,0.54,0.82,0
0.22422,-8.6645e-17,0.44,-1.247,-1.163,-1.163,2.4278e-15,0,0,-0.1092,6.1003e-17,0,6.3123e-15,0,0,1,-1.4629e-15,0,1,-1.163,-1.247,-1.163,90,-1.191,0.084,-3.0441e-05,0.56,0.82,0
0.22168,8.1172e-17,0.42,-1.246,-1.134,-1.134,5.498e-16,0,0,-0.1456,-8.4452e-17,0,1.4295e-15,0,0,1,2.7952e-15,0,1,-1.134,-1.246,-1.134,90,-1.1713,0.112,-7.2157e-05,0.58,0.82,0
0.2184,7.2333e-17,0.4,-1.245,-1.105,-1.105,1.1666e-16,0,0,-0.182,-1.7292e-16,0,3.0332e-16,0,0,1,-1.8199e-15,0,1,-1.105,-1.245,-1.105,90,-1.1517,0.14,-0.00014093,0.6,0.82,0
0.2144,7.3223e-17,0.38,-1.244,-1.076,-1.076,3.4161e-16,0,0,-0.2184,1.1606e-16,0,8.8818e-16,0,0,1,3.251e-16,0,1,-1.076,-1.244,-1.076,90,-1.132,0.168,-0.00024353,0.62,0.82,0
0.20966,7.8488e-17,0.36,-1.243,-1.047,-1.047,3.3323e-16,0,0,-0.2548,-3.2404e-18,0,8.664e-16,0,0,1,1.6255e-16,0,1,-1.047,-1.243,-1.047,90,-1.1123,0.196,-0.00038672,0.64,0.82,0
0.2042,8.6378e-17,0.34,-1.242,-1.018,-1.018,1.1442e-17,0,0,-0.2912,1.469e-16,0,2.9748e-17,0,0,1,-1.2133e-15,0,1,-1.018,-1.242,-1.018,90,-1.0927,0.224,-0.00057726,0.66,0.82,0
0.19802,9.2616e-17,0.32,-1.241,-0.989,-0.989,-1.6196e-15,0,0,-0.3276,3.6678e-17,0,-4.2109e-15,0,0,1,-7.4157e-16,0,1,-0.989,-1.241,-0.989,-90,-1.073,0.252,-0.00082192,0.68,0.82,0
0.1911,-6.4322e-17,0.3,-1.24,-0.96,-0.96,-7.7475e-16,0,0,-0.364,-4.3083e-18,0,-2.0143e-15,0,0,1,-1.2351e-15,0,1,-0.96,-1.24,-0.96,-90,-1.0533,0.28,-0.0011275,0.7,0.82,0
0.18346,-6.3523e-17,0.28,-1.239,-0.931,-0.931,-3.1259e-17,0,0,-0.4004,1.2983e-16,0,-8.1274e-17,0,0,1,5.8486e-16,0,1,-0.931,-1.239,-0.931,-90,-1.0337,0.308,-0.0015006,0.72,0.82,0
0.17508,-6.1785e-17,0.26,-1.238,-0.902,-0.902,2.6458e-16,0,0,-0.4368,6.7062e-17,0,6.8791e-16,0,0,1,6.0664e-16,0,1,-0.902,-1.238,-0.902,90,-1.014,0.336,-0.0019482,0.74,0.82,0
0.16598,-6.512e-17,0.24,-1.237,-0.873,-0.873,-3.8124e-16,0,0,-0.4732,-1.5735e-16,0,-9.9123e-16,0,0,1,0,0,1,-0.873,-1.237,-0.873,-90,-0.99433,0.364,-0.002477,0.76,0.82,0
0.15616,-6.4235e-17,0.22,-1.236,-0.844,-0.844,3.1259e-17,0,0,-0.5096,-2.1031e-17,0,8.1274e-17,0,0,1,-1.6255e-16,0,1,-0.844,-1.236,-0.844,90,-0.97467,0.392,-0.0030937,0.78,0.82,0
0.1456,-6.4958e-17,0.2,-1.235,-0.815,-0.815,1.5769e-15,0,0,-0.546,2.253e-17,0,4.0998e-15,0,0,1,1.1995e-15,0,1,-0.815,-1.235,-0.815,90,-0.955,0.42,-0.0038052,0.8,0.82,0
0.13432,8.0947e-17,0.18,-1.234,-0.786,-0.786,6.7065e-16,0,0,-0.5824,-1.1699e-16,0,1.7437e-15,0,0,1,2.8786e-15,0,1,-0.786,-1.234,-0.786,90,-0.93533,0.448,-0.0046181,0.82,0.82,0
0.1223,8.3422e-17,0.16,-1.233,-0.757,-0.757,9.6843e-17,0,0,-0.6188,-1.9429e-16,0,2.5179e-16,0,0,1,5.2536e-16,0,1,-0.757,-1.233,-0.757,90,-0.91567,0.476,-0.0055392,0.84,0.82,0
0.10956,8.1981e-17,0.14,-1.232,-0.728,-0.728,-1.1442e-17,0,0,-0.6552,-1.2211e-16,0,-2.9748e-17,0,0,1,-1.6255e-16,0,1,-0.728,-1.232,-0.728,-90,-0.896,0.504,-0.0065753,0.86,0.82,0
0.096096,7.7597e-17,0.12,-1.231,-0.699,-0.699,1.563e-17,0,0,-0.6916,-6.3484e-17,0,4.0637e-17,0,0,1,6.0664e-16,0,1,-0.699,-1.231,-0.699,90,-0.87633,0.532,-0.0077332,0.88,0.82,0
0.0819,7.826e-17,0.1,-1.23,-0.67,-0.67,1.563e-17,0,0,-0.728,-1.2407e-16,0,4.0637e-17,0,0,1,-1.6255e-16,0,1,-0.67,-1.23,-0.67,90,-0.85667,0.56,-0.0090197,0.9,0.82,0
0.066976,7.7243e-17,0.08,-1.229,-0.641,-0.641,-9.9336e-16,0,0,-0.7644,-1.0465e-16,0,-2.5827e-15,0,0,1,-3.9456e-16,0,1,-0.641,-1.229,-0.641,-90,-0.837,0.588,-0.010441,0.92,0.82,0
0.051324,-4.7186e-17,0.06,-1.228,-0.612,-0.612,-7.2602e-16,0,0,-0.8008,5.3105e-17,0,-1.8876e-15,0,0,1,-3.8629e-15,0,1,-0.612,-1.228,-0.612,-90,-0.81733,0.616,-0.012024,0.94,0.82,0
0.034944,-4.2146e-17,0.04,-1.227,-0.583,-0.583,6.9861e-17,0,0,-0.8372,1.9636e-17,0,1.8164e-16,0,0,1,0,0,1,-0.583,-1.227,-0.583,90,-0.79767,0.644,-0.013718,0.96,0.82,0
0.017836,-4.0077e-17,0.02,-1.226,-0.554,-0.554,4.9756e-17,0,0,-0.8736,6.4157e-17,0,1.2937e-16,0,0,1,0,0,1,-0.554,-1.226,-0.554,90,-0.778,0.672,-0.015586,0.98,0.82,0
0,-3.7216e-17,0,-1.2005,-0.5145,-0.5145,5.0848e-17,0,0,-0.8918,8.2759e-17,0,1.322e-16,0,0,1,0,0,1,-0.5145,-1.2005,-0.5145,90,-0.74317,0.686,-0.016581,1,0.82,0
0,2.4029e-17,1,-1.2995,-1.9855,-1.9855,7.8148e-18,0,0,0.8918,-2.3628e-16,0,2.0318e-17,0,0,1,0,0,1,-1.2995,-1.9855,-1.9855,6.5271e-16,-1.7568,0.686,0.016581,0,0.84,0
0.017836,2.2968e-17,0.98,-1.274,-1.946,-1.946,-1.8481e-16,0,0,0.8736,-4.1856e-16,0,-4.8051e-16,0,0,1,5.5033e-15,0,1,-1.274,-1.946,-1.946,-1.5757e-14,-1.722,0.672,0.015586,0.02,0.84,0
0.034944,1.5484e-17,0.96,-1.273,-1.917,-1.917,1.7571e-16,0,0,0.8372,-2.0446e-16,0,4.5684e-16,0,0,1,-5.5904e-15,0,1,-1.273,-1.917,-1.917,1.5632e-14,-1.7023,0.644,0.013718,0.04,0.84,0
0.051324,2.9339e-17,0.94,-1.272,-1.888,-1.888,4.6723e-16,0,0,0.8008,-2.8864e-16,0,1.2148e-15,0,0,1,3.7269e-15,0,1,-1.272,-1.888,-1.888,4.3458e-14,-1.6827,0.616,0.012005,0.06,0.84,0
0.066976,6.1587e-17,0.92,-1.271,-1.859,-1.859,-1.1171e-16,0,0,0.7644,-3.8276e-17,0,-2.9044e-16,0,0,1,-8.4929e-15,0,1,-1.271,-1.859,-1.859,-1.0885e-14,-1.663,0.588,0.010441,0.08,0.84,0
0.0819,2.2675e-17,0.9,-1.27,-1.83,-1.83,-5.0306e-16,0,0,0.728,-1.6848e-16,0,-1.308e-15,0,0,1,1.6255e-15,0,1,-1.27,-1.83,-1.83,-5.147e-14,-1.6433,0.56,0.0090197,0.1,0.84,0
0.096096,2.2141e-17,0.88,-1.269,-1.801,-1.801,1.563e-17,0,0,0.6916,-1.8171e-16,0,4.0637e-17,0,0,1,-6.5019e-16,0,1,-1.269,-1.801,-1.801,1.6833e-15,-1.6237,0.532,0.0077332,0.12,0.84,0
0.10956,8.4848e-18,0.86,-1.268,-1.772,-1.772,6.9466e-16,0,0,0.6552,-5.9589e-17,0,1.8061e-15,0,0,1,8.6119e-15,0,1,-1.268,-1.772,-1.772,7.897e-14,-1.604,0.504,0.0065753,0.14,0.84,0
0.1223,5.5425e-17,0.84,-1.267,-1.743,-1.743,-4.0046e-17,0,0,0.6188,-1.5313e-16,0,-1.0412e-16,0,0,1,-6.8356e-15,0,1,-1.267,-1.743,-1.743,-4.8203e-15,-1.5843,0.476,0.0055392,0.16,0.84,0
0.13432,-1.2884e-17,0.82,-1.266,-1.714,-1.714,-9.0663e-16,0,0,0.5824,-2.8284e-18,0,-2.3572e-15,0,0,1,1.3004e-15,0,1,-1.266,-1.714,-1.714,-1.1595e-13,-1.5647,0.448,0.0046181,0.18,0.84,0
0.1456,-2.862e-17,0.8,-1.265,-1.685,-1.685,1.1247e-16,0,0,0.546,1.6861e-17,0,2.9243e-16,0,0,1,-2.2205e-15,0,1,-1.265,-1.685,-1.685,1.5343e-14,-1.545,0.42,0.0038052,0.2,0.84,0
0.15616,1.1755e-17,0.78,-1.264,-1.656,-1.656,-2.0206e-16,0,0,0.5096,5.7658e-17,0,-5.2536e-16,0,0,1,-3.8459e-15,0,1,-1.264,-1.656,-1.656,-2.9534e-14,-1.5253,0.392,0.0030937,0.22,0.84,0
0.16598,-4.9877e-17,0.76,-1.263,-1.627,-1.627,-6.4051e-16,0,0,0.4732,5.5455e-17,0,-1.6653e-15,0,0,1,1.5384e-15,0,1,-1.263,-1.627,-1.627,-1.0082e-13,-1.5057,0.364,0.002477,0.24,0.84,0
0.17508,-5.7063e-17,0.74,-1.262,-1.598,-1.598,4.2701e-17,0,0,0.4368,3.1075e-18,0,1.1102e-16,0,0,1,0,0,1,-1.262,-1.598,-1.598,7.2815e-15,-1.486,0.336,0.0019482,0.26,0.84,0
0.18346,-6.0932e-17,0.72,-1.261,-1.569,-1.569,8.5708e-16,0,0,0.4004,-1.934e-16,0,2.2284e-15,0,0,1,3.6398e-15,0,1,-1.261,-1.569,-1.569,1.5944e-13,-1.4663,0.308,0.0015006,0.28,0.84,0
0.1911,3.9458e-17,0.7,-1.26,-1.54,-1.54,1.5883e-15,0,0,0.364,4.1017e-17,0,4.1296e-15,0,0,1,-9.7529e-16,0,1,-1.26,-1.54,-1.54,3.2501e-13,-1.4467,0.28,0.0011275,0.3,0.84,0
0.19802,3.7176e-17,0.68,-1.259,-1.511,-1.511,4.8953e-16,0,0,0.3276,-7.8516e-17,0,1.2728e-15,0,0,1,0,0,1,-1.259,-1.511,-1.511,1.113e-13,-1.427,0.252,0.00082192,0.32,0.84,0
0.2042,4.0324e-17,0.66,-1.258,-1.482,-1.482,-1.2238e-15,0,0,0.2912,-1.1901e-16,0,-3.1819e-15,0,0,1,-2.9896e-15,0,1,-1.258,-1.482,-1.482,-3.1303e-13,-1.4073,0.224,0.00057726,0.34,0.84,0
0.20966,-6.3666e-17,0.64,-1.257,-1.453,-1.453,-1.1102e-15,0,0,0.2548,1.5001e-16,0,-2.8866e-15,0,0,1,1.2133e-15,0,1,-1.257,-1.453,-1.453,-3.2455e-13,-1.3877,0.196,0.00038672,0.36,0.84,0
0.2144,-6.1731e-17,0.62,-1.256,-1.424,-1.424,3.1259e-17,0,0,0.2184,7.3548e-17,0,8.1274e-17,0,0,1,0,0,1,-1.256,-1.424,-1.424,1.0661e-14,-1.368,0.168,0.00024353,0.38,0.84,0
0.2184,-5.7331e-17,0.6,-1.255,-1.395,-1.395,9.7068e-16,0,0,0.182,2.5108e-16,0,2.5238e-15,0,0,1,1.2133e-15,0,1,-1.255,-1.395,-1.395,3.9726e-13,-1.3483,0.14,0.00014093,0.4,0.84,0
0.22168,2.1354e-17,0.58,-1.254,-1.366,-1.366,1.0957e-15,0,0,0.1456,1.0867e-16,0,2.8489e-15,0,0,1,-6.5019e-16,0,1,-1.254,-1.366,-1.366,5.2559e-13,-1.3287,0.112,7.554e-05,0.42,0.84,0
0.22422,1.9406e-17,0.56,-1.253,-1.337,-1.337,-1.9062e-16,0,0,0.1092,1.132e-16,0,-4.9561e-16,0,0,1,0,0,1,-1.253,-1.337,-1.337,-1.3002e-13,-1.309,0.084,3.0441e-05,0.44,0.84,0
0.22604,2.0128e-17,0.54,-1.252,-1.308,-1.308,-1.1644e-15,0,0,0.0728,2.6906e-17,0,-3.0274e-15,0,0,1,-2.1014e-15,0,1,-1.252,-1.308,-1.308,-1.1913e-12,-1.2893,0.056,9.0196e-06,0.46,0.84,0
0.22714,-6.4546e-17,0.52,-1.251,-1.279,-1.279,-1.2696e-15,0,0,0.0364,1.3548e-16,0,-3.3009e-15,0,0,1,-5.6308e-16,0,1,-1.251,-1.279,-1.279,-2.5979e-12,-1.2697,0.028,1.1275e-06,0.48,0.84,0
0.2275,-6.4468e-17,0.5,-1.25,-1.25,-1.25,-8.9059e-16,0,0,-9.0639e-16,1.2999e-16,0,-2.3155e-15,0,0,1,9.8608e-32,0,1,-1.25,-1.25,-1.25,-58.252,-1.25,1.5384e-15,0,0.5,0.84,0
0.22714,-7.3508e-17,0.48,-1.249,-1.221,-1.221,9.3778e-17,0,0,-0.0364,8.8381e-18,0,2.4382e-16,0,0,1,7.3956e-32,0,1,-1.221,-1.249,-1.221,90,-1.2303,0.028,-1.1275e-06,0.52,0.84,0
0.22604,-6.8975e-17,0.46,-1.248,-1.192,-1.192,-1.0522e-16,0,0,-0.0728,4.3743e-17,0,-2.7357e-16,0,0,1,-9.8608e-31,0,1,-1.192,-1.248,-1.192,-90,-1.2107,0.056,-9.0196e-06,0.54,0.84,0
0.22422,-8.1838e-17,0.44,-1.247,-1.163,-1.163,1.7446e-15,0,0,-0.1092,2.5963e-16,0,4.536e-15,0,0,1,2.9748e-16,0,1,-1.163,-1.247,-1.163,90,-1.191,0.084,-3.0441e-05,0.56,0.84,0
0.22168,7.8909e-17,0.42,-1.246,-1.134,-1.134,9.0285e-16,0,0,-0.1456,-2.1915e-16,0,2.3474e-15,0,0,1,4.7936e-15,0,1,-1.134,-1.246,-1.134,90,-1.1713,0.112,-7.2157e-05,0.58,0.84,0
0.2184,6.8361e-17,0.4,-1.245,-1.105,-1.105,-6.2518e-17,0,0,-0.182,-1.0132e-16,0,-1.6255e-16,0,0,1,-1.8199e-15,0,1,-1.105,-1.245,-1.105,-90,-1.1517,0.14,-0.00014093,0.6,0.84,0
0.2144,7.1845e-17,0.38,-1.244,-1.076,-1.076,2.2883e-17,0,0,-0.2184,-7.7952e-17,0,5.9497e-17,0,0,1,3.251e-16,0,1,-1.076,-1.244,-1.076,90,-1.132,0.168,-0.00024353,0.62,0.84,0
0.20966,7.6222e-17,0.36,-1.243,-1.047,-1.047,2.562e-16,0,0,-0.2548,1.4968e-17,0,6.6613e-16,0,0,1,1.6255e-16,0,1,-1.047,-1.243,-1.047,90,-1.1123,0.196,-0.00038672,0.64,0.84,0
0.2042,9.1162e-17,0.34,-1.242,-1.018,-1.018,2.0206e-16,0,0,-0.2912,6.6767e-17,0,5.2536e-16,0,0,1,-1.2133e-15,0,1,-1.018,-1.242,-1.018,90,-1.0927,0.224,-0.00057726,0.66,0.84,0
0.19802,9.425e-17,0.32,-1.241,-0.989,-0.989,-1.6196e-15,0,0,-0.3276,4.3456e-17,0,-4.2109e-15,0,0,1,-1.7849e-16,0,1,-0.989,-1.241,-0.989,-90,-1.073,0.252,-0.00082192,0.68,0.84,0
0.1911,-6.1498e-17,0.3,-1.24,-0.96,-0.96,-9.3411e-16,0,0,-0.364,1.8997e-16,0,-2.4287e-15,0,0,1,-3.6993e-15,0,1,-0.96,-1.24,-0.96,-90,-1.0533,0.28,-0.0011275,0.7,0.84,0
0.18346,-6.2013e-17,0.28,-1.239,-0.931,-0.931,-3.1259e-17,0,0,-0.4004,2.8073e-17,0,-8.1274e-17,0,0,1,4.4409e-16,0,1,-0.931,-1.239,-0.931,-90,-1.0337,0.308,-0.0015006,0.72,0.84,0
0.17508,-6.0331e-17,0.26,-1.2298,-0.8985,-0.8985,3.5277e-16,0,0,-0.43073,7.279e-17,0,9.1722e-16,0,0,1,5.9212e-16,0,1,-0.8985,-1.2298,-0.8985,90,-1.0089,0.33133,-0.0018682,0.74,0.84,0
0.16598,-7.0769e-17,0.24,-1.2452,-0.8765,-0.8765,-7.208e-16,0,0,-0.47927,-1.2852e-16,0,-1.8741e-15,0,0,1,-7.0048e-16,0,1,-0.8765,-1.2452,-0.8765,-90,-0.99939,0.36867,-0.0025735,0.76,0.84,0
0.15616,-6.2739e-17,0.22,-1.2278,-0.8405,-0.8405,2.9584e-16,0,0,-0.50353,7.3982e-17,0,7.6918e-16,0,0,1,-4.0443e-16,0,1,-0.8405,-1.2278,-0.8405,90,-0.96961,0.38733,-0.0029846,0.78,0.84,0
0.1456,-6.2606e-17,0.2,-1.2432,-0.8185,-0.8185,1.7761e-15,0,0,-0.55207,7.5324e-17,0,4.618e-15,0,0,1,1.3032e-15,0,1,-0.8185,-1.2432,-0.8185,90,-0.96006,0.42467,-0.0039334,0.8,0.84,0
0.13432,7.783e-17,0.18,-1.2258,-0.7825,-0.7825,1.4768e-15,0,0,-0.57633,-1.1678e-16,0,3.8396e-15,0,0,1,3.5421e-15,0,1,-0.7825,-1.2258,-0.7825,90,-0.93028,0.44333,-0.0044753,0.82,0.84,0
0.1223,7.9143e-17,0.16,-1.2412,-0.7605,-0.7605,-2.8467e-17,0,0,-0.62487,-2.2705e-16,0,-7.4015e-17,0,0,1,4.0443e-16,0,1,-0.7605,-1.2412,-0.7605,-90,-0.92072,0.48067,-0.0057037,0.84,0.84,0
0.10956,7.659e-17,0.14,-1.2238,-0.7245,-0.7245,-8.5402e-17,0,0,-0.64913,-2.5098e-16,0,-2.2204e-16,0,0,1,-5.1279e-16,0,1,-0.7245,-1.2238,-0.7245,-90,-0.89094,0.49933,-0.0063944,0.86,0.84,0
0.096096,7.3808e-17,0.12,-1.2392,-0.7025,-0.7025,-1.1387e-16,0,0,-0.69767,-1.9146e-16,0,-2.9606e-16,0,0,1,8.0885e-16,0,1,-0.7025,-1.2392,-0.7025,-90,-0.88139,0.53667,-0.0079385,0.88,0.84,0
0.0819,7.3782e-17,0.1,-1.2218,-0.6665,-0.6665,4.9307e-17,0,0,-0.72193,-1.9446e-16,0,1.282e-16,0,0,1,-2.1673e-16,0,1,-0.6665,-1.2218,-0.6665,90,-0.85161,0.55533,-0.008796,0.9,0.84,0
0.066976,7.5118e-17,0.08,-1.2372,-0.6445,-0.6445,-1.3634e-15,0,0,-0.77047,-7.8631e-17,0,-3.5447e-15,0,0,1,-6.7411e-16,0,1,-0.6445,-1.2372,-0.6445,-90,-0.84206,0.59267,-0.010692,0.92,0.84,0
0.051324,-4.6567e-17,0.06,-1.228,-0.612,-0.612,-7.0038e-16,0,0,-0.8008,-8.5427e-18,0,-1.821e-15,0,0,1,-3.4188e-15,0,1,-0.612,-1.228,-0.612,-90,-0.81733,0.616,-0.012024,0.94,0.84,0
0.034944,-4.318e-17,0.04,-1.2352,-0.5865,-0.5865,2.2646e-16,0,0,-0.84327,-8.3012e-18,0,5.888e-16,0,0,1,0,0,1,-0.5865,-1.2352,-0.5865,90,-0.80272,0.64867,-0.014018,0.96,0.84,0
0.017836,-3.9373e-17,0.02,-1.2178,-0.5505,-0.5505,2.9165e-17,0,0,-0.86753,4.0849e-17,0,7.583e-17,0,0,1,0,0,1,-0.5505,-1.2178,-0.5505,90,-0.77294,0.66733,-0.015263,0.98,0.84,0
0,-3.8593e-17,0,-1.2005,-0.5145,-0.5145,2.4211e-17,0,0,-0.8918,-6.8836e-17,0,6.2948e-17,0,0,1,0,0,1,-0.5145,-1.2005,-0.5145,90,-0.74317,0.686,-0.016581,1,0.84,0
0,2.0186e-17,1,-1.2995,-1.9855,-1.9855,-1.4073e-16,0,0,0.8918,-2.117e-16,0,-3.659e-16,0,0,1,0,0,1,-1.2995,-1.9855,-1.9855,-1.1754e-14,-1.7568,0.686,0.016581,0,0.86,0
0.017836,1.3766e-17,0.98,-1.2658,-1.9425,-1.9425,-1.0519e-16,0,0,0.87967,-2.9863e-16,0,-2.735e-16,0,0,1,3.6689e-15,0,1,-1.2658,-1.9425,-1.9425,-8.9072e-15,-1.7169,0.67667,0.015913,0.02,0.86,0
0.034944,1.0548e-17,0.96,-1.2812,-1.9205,-1.9205,7.047e-17,0,0,0.83113,-2.1515e-16,0,1.8322e-16,0,0,1,-4.9692e-15,0,1,-1.2812,-1.9205,-1.9205,6.3154e-15,-1.7074,0.63933,0.013422,0.04,0.86,0
0.051324,2.2294e-17,0.94,-1.2638,-1.8845,-1.8845,2.4197e-16,0,0,0.80687,-2.8839e-16,0,6.2913e-16,0,0,1,8.6806e-15,0,1,-1.2638,-1.8845,-1.8845,2.2337e-14,-1.6776,0.62067,0.01228,0.06,0.86,0
0.066976,6.0388e-17,0.92,-1.2792,-1.8625,-1.8625,-1.7183e-16,0,0,0.75833,-2.0827e-16,0,-4.4675e-16,0,0,1,-2.0005e-14,0,1,-1.2792,-1.8625,-1.8625,-1.6877e-14,-1.6681,0.58333,0.010195,0.08,0.86,0
0.0819,1.8733e-17,0.9,-1.2618,-1.8265,-1.8265,-5.3325e-16,0,0,0.73407,-2.3595e-16,0,-1.3865e-15,0,0,1,1.3004e-15,0,1,-1.2618,-1.8265,-1.8265,-5.4108e-14,-1.6383,0.56467,0.009247,0.1,0.86,0
0.096096,1.8711e-17,0.88,-1.2772,-1.8045,-1.8045,-1.6318e-16,0,0,0.68553,-2.2749e-16,0,-4.2426e-16,0,0,1,-4.3346e-16,0,1,-1.2772,-1.8045,-1.8045,-1.7729e-14,-1.6287,0.52733,0.0075315,0.12,0.86,0
0.10956,1.0563e-17,0.86,-1.268,-1.772,-1.772,5.8218e-16,0,0,0.6552,6.4585e-17,0,1.5137e-15,0,0,1,3.8459e-15,0,1,-1.268,-1.772,-1.772,6.6184e-14,-1.604,0.504,0.0065753,0.14,0.86,0
0.1223,5.1287e-17,0.84,-1.267,-1.743,-1.743,3.3914e-17,0,0,0.6188,-2.1824e-16,0,8.8177e-17,0,0,1,-3.8459e-15,0,1,-1.267,-1.743,-1.743,4.0822e-15,-1.5843,0.476,0.0055392,0.16,0.86,0
0.13432,-1.6206e-17,0.82,-1.266,-1.714,-1.714,-1.0488e-15,0,0,0.5824,-1.1116e-16,0,-2.7269e-15,0,0,1,6.5019e-16,0,1,-1.266,-1.714,-1.714,-1.3414e-13,-1.5647,0.448,0.0046181,0.18,0.86,0
0.1456,-2.3528e-17,0.8,-1.265,-1.685,-1.685,6.2907e-16,0,0,0.546,6.631e-17,0,1.6356e-15,0,0,1,1.8635e-15,0,1,-1.265,-1.685,-1.685,8.5817e-14,-1.545,0.42,0.0038052,0.2,0.86,0
0.15616,1.0741e-17,0.78,-1.264,-1.656,-1.656,-3.3017e-16,0,0,0.5096,7.1474e-17,0,-8.5843e-16,0,0,1,-4.29e-15,0,1,-1.264,-1.656,-1.656,-4.8258e-14,-1.5253,0.392,0.0030937,0.22,0.86,0
0.16598,-4.9252e-17,0.76,-1.263,-1.627,-1.627,-7.8006e-16,0,0,0.4732,3.5735e-17,0,-2.0282e-15,0,0,1,1.5384e-15,0,1,-1.263,-1.627,-1.627,-1.2279e-13,-1.5057,0.364,0.002477,0.24,0.86,0
0.17508,-5.7249e-17,0.74,-1.262,-1.598,-1.598,-1.708e-16,0,0,0.4368,2.4488e-17,0,-4.4409e-16,0,0,1,0,0,1,-1.262,-1.598,-1.598,-2.9126e-14,-1.486,0.336,0.0019482,0.26,0.86,0
0.18346,-6.2472e-17,0.72,-1.261,-1.569,-1.569,1.0675e-15,0,0,0.4004,-3.9129e-17,0,2.7756e-15,0,0,1,3.6398e-15,0,1,-1.261,-1.569,-1.569,1.9859e-13,-1.4663,0.308,0.0015006,0.28,0.86,0
0.1911,3.7143e-17,0.7,-1.26,-1.54,-1.54,1.7362e-15,0,0,0.364,-1.7226e-16,0,4.5142e-15,0,0,1,-9.7529e-16,0,1,-1.26,-1.54,-1.54,3.5528e-13,-1.4467,0.28,0.0011275,0.3,0.86,0
0.19802,3.5956e-17,0.68,-1.259,-1.511,-1.511,-8.3759e-18,0,0,0.3276,1.0585e-16,0,-2.1777e-17,0,0,1,0,0,1,-1.259,-1.511,-1.511,-1.9044e-15,-1.427,0.252,0.00082192,0.32,0.86,0
0.2042,4.0221e-17,0.66,-1.258,-1.482,-1.482,-1.0332e-15,0,0,0.2912,3.437e-17,0,-2.6863e-15,0,0,1,-6.5019e-16,0,1,-1.258,-1.482,-1.482,-2.6428e-13,-1.4073,0.224,0.00057726,0.34,0.86,0
0.20966,-5.9226e-17,0.64,-1.257,-1.453,-1.453,-1.2581e-15,0,0,0.2548,2.1599e-16,0,-3.2712e-15,0,0,1,-1.7764e-15,0,1,-1.257,-1.453,-1.453,-3.6779e-13,-1.3877,0.196,0.00038672,0.36,0.86,0
0.2144,-6.4202e-17,0.62,-1.256,-1.424,-1.424,2.7296e-16,0,0,0.2184,2.5394e-18,0,7.0969e-16,0,0,1,0,0,1,-1.256,-1.424,-1.424,9.3091e-14,-1.368,0.168,0.00024353,0.38,0.86,0
0.2184,-5.5611e-17,0.6,-1.255,-1.395,-1.395,7.9988e-16,0,0,0.182,1.2735e-17,0,2.0797e-15,0,0,1,1.2133e-15,0,1,-1.255,-1.395,-1.395,3.2735e-13,-1.3483,0.14,0.00014093,0.4,0.86,0
0.22168,2.5509e-17,0.58,-1.254,-1.366,-1.366,7.4573e-16,0,0,0.1456,1.568e-16,0,1.9389e-15,0,0,1,-6.5019e-16,0,1,-1.254,-1.366,-1.366,3.1394e-13,-1.3287,0.112,7.554e-05,0.42,0.86,0
0.22422,2.4276e-17,0.56,-1.2448,-1.3335,-1.3335,-4.1679e-17,0,0,0.11527,2.0507e-16,0,-1.0836e-16,0,0,1,0,0,1,-1.2448,-1.3335,-1.3335,-2.6933e-14,-1.3039,0.088667,3.5802e-05,0.44,0.86,0
0.22604,1.7574e-17,0.54,-1.252,-1.308,-1.308,-8.5402e-16,0,0,0.0728,-1.277e-16,0,-2.2205e-15,0,0,1,-2.6645e-15,0,1,-1.252,-1.308,-1.308,-8.7378e-13,-1.2893,0.056,9.0196e-06,0.46,0.86,0
0.22714,-6.3351e-17,0.52,-1.251,-1.279,-1.279,-1.7248e-15,0,0,0.0364,5.9729e-17,0,-4.4844e-15,0,0,1,1.5384e-15,0,1,-1.251,-1.279,-1.279,-3.5294e-12,-1.2697,0.028,1.1275e-06,0.48,0.86,0
0.2275,-6.4451e-17,0.5,-1.25,-1.25,-1.25,-1.9369e-16,0,0,3.2266e-16,8.6485e-19,0,-5.0359e-16,0,0,1,1.2133e-15,0,1,-1.25,-1.25,-1.25,-30.089,-1.25,7.6918e-16,0,0.5,0.86,0
0.22714,-6.899e-17,0.48,-1.249,-1.221,-1.221,1.8755e-16,0,0,-0.0364,2.2591e-16,0,4.8764e-16,0,0,1,-9.8608e-32,0,1,-1.221,-1.249,-1.221,90,-1.2303,0.028,-1.1275e-06,0.52,0.86,0
0.22604,-7.0071e-17,0.46,-1.2562,-1.1955,-1.1955,1.708e-16,0,0,-0.078867,2.7776e-18,0,4.4409e-16,0,0,1,-4.3346e-16,0,1,-1.1955,-1.2562,-1.1955,90,-1.2157,0.060667,-1.1468e-05,0.54,0.86,0
0.22422,-7.626e-17,0.44,-1.2388,-1.1595,-1.1595,1.3471e-15,0,0,-0.10313,1.1518e-16,0,3.5024e-15,0,0,1,9.6751e-16,0,1,-1.1595,-1.2388,-1.1595,90,-1.1859,0.079333,-2.5644e-05,0.56,0.86,0
0.22168,7.2406e-17,0.42,-1.246,-1.134,-1.134,1.2246e-15,0,0,-0.1456,-3.2514e-16,0,3.1841e-15,0,0,1,3.5527e-15,0,1,-1.134,-1.246,-1.134,90,-1.1713,0.112,-7.2157e-05,0.58,0.86,0
0.2184,6.828e-17,0.4,-1.2532,-1.1085,-1.1085,-1.8606e-16,0,0,-0.18807,-3.8793e-17,0,-4.8375e-16,0,0,1,0,0,1,-1.1085,-1.2532,-1.1085,-90,-1.1567,0.14467,-0.0001555,0.6,0.86,0
0.2144,7.0105e-17,0.38,-1.244,-1.076,-1.076,5.4143e-17,0,0,-0.2184,-1.0305e-16,0,1.4077e-16,0,0,1,0,0,1,-1.076,-1.244,-1.076,90,-1.132,0.168,-0.00024353,0.62,0.86,0
0.20966,7.9087e-17,0.36,-1.243,-1.047,-1.047,2.0206e-16,0,0,-0.2548,-2.8774e-18,0,5.2536e-16,0,0,1,-1.6255e-16,0,1,-1.047,-1.243,-1.047,90,-1.1123,0.196,-0.00038672,0.64,0.86,0
0.2042,8.9049e-17,0.34,-1.242,-1.018,-1.018,-3.3854e-16,0,0,-0.2912,-1.755e-16,0,-8.8021e-16,0,0,1,1.2133e-15,0,1,-1.018,-1.242,-1.018,-90,-1.0927,0.224,-0.00057726,0.66,0.86,0
0.19802,9.4354e-17,0.32,-1.241,-0.989,-0.989,-1.7904e-15,0,0,-0.3276,1.1107e-16,0,-4.655e-15,0,0,1,4.8764e-16,0,1,-0.989,-1.241,-0.989,-90,-1.073,0.252,-0.00082192,0.68,0.86,0
0.1911,-5.6723e-17,0.3,-1.24,-0.96,-0.96,-8.9141e-16,0,0,-0.364,1.68e-16,0,-2.3177e-15,0,0,1,-8.8818e-16,0,1,-0.96,-1.24,-0.96,-90,-1.0533,0.28,-0.0011275,0.7,0.86,0
0.18346,-6.24e-17,0.28,-1.239,-0.931,-0.931,-2.0206e-16,0,0,-0.4004,1.8494e-17,0,-5.2536e-16,0,0,1,-1.3758e-15,0,1,-0.931,-1.239,-0.931,-90,-1.0337,0.308,-0.0015006,0.72,0.86,0
0.17508,-5.8871e-17,0.26,-1.2298,-0.8985,-0.8985,-8.3358e-17,0,0,-0.43073,7.6584e-17,0,-2.1673e-16,0,0,1,-1.8769e-16,0,1,-0.8985,-1.2298,-0.8985,-90,-1.0089,0.33133,-0.0018682,0.74,0.86,0
0.16598,-6.7182e-17,0.24,-1.2452,-0.8765,-0.8765,6.3745e-16,0,0,-0.47927,1.7159e-16,0,1.6574e-15,0,0,1,1.0836e-16,0,1,-0.8765,-1.2452,-0.8765,90,-0.99939,0.36867,-0.0025735,0.76,0.86,0
0.15616,-6.1291e-17,0.22,-1.2278,-0.8405,-0.8405,-1.4029e-16,0,0,-0.50353,1.6413e-16,0,-3.6476e-16,0,0,1,6.5738e-32,0,1,-0.8405,-1.2278,-0.8405,-90,-0.96961,0.38733,-0.0029846,0.78,0.86,0
0.1456,-6.279e-17,0.2,-1.2432,-0.8185,-0.8185,2.1726e-15,0,0,-0.55207,-1.0769e-16,0,5.6489e-15,0,0,1,3.4635e-16,0,1,-0.8185,-1.2432,-0.8185,90,-0.96006,0.42467,-0.0039334,0.8,0.86,0
0.13432,7.7057e-17,0.18,-1.2258,-0.7825,-0.7825,9.0741e-16,0,0,-0.57633,-5.3674e-17,0,2.3593e-15,0,0,1,2.9103e-15,0,1,-0.7825,-1.2258,-0.7825,90,-0.93028,0.44333,-0.0044753,0.82,0.86,0
0.1223,7.4079e-17,0.16,-1.2412,-0.7605,-0.7605,1.8401e-16,0,0,-0.62487,-2.1013e-16,0,4.7844e-16,0,0,1,-2.9606e-16,0,1,-0.7605,-1.2412,-0.7605,90,-0.92072,0.48067,-0.0057037,0.84,0.86,0
0.10956,7.2313e-17,0.14,-1.2238,-0.7245,-0.7245,-9.0986e-17,0,0,-0.64913,-2.3827e-16,0,-2.3656e-16,0,0,1,-5.9212e-16,0,1,-0.7245,-1.2238,-0.7245,-90,-0.89094,0.49933,-0.0063944,0.86,0.86,0
0.096096,6.99e-17,0.12,-1.2392,-0.7025,-0.7025,-7.7774e-17,0,0,-0.69767,-2.0857e-16,0,-2.0221e-16,0,0,1,-7.0048e-16,0,1,-0.7025,-1.2392,-0.7025,-90,-0.88139,0.53667,-0.0079385,0.88,0.86,0
0.0819,7.107e-17,0.1,-1.2218,-0.6665,-0.6665,1.7026e-17,0,0,-0.72193,-1.4152e-16,0,4.4266e-17,0,0,1,1.0836e-16,0,1,-0.6665,-1.2218,-0.6665,90,-0.85161,0.55533,-0.008796,0.9,0.86,0
0.066976,7.4649e-17,0.08,-1.2372,-0.6445,-0.6445,-1.1964e-15,0,0,-0.77047,-4.6772e-17,0,-3.1106e-15,0,0,1,-1.2907e-15,0,1,-0.6445,-1.2372,-0.6445,-90,-0.84206,0.59267,-0.010692,0.92,0.86,0
0.051324,-4.9109e-17,0.06,-1.228,-0.612,-0.612,-3.7098e-16,0,0,-0.8008,-5.8088e-17,0,-9.6454e-16,0,0,1,-3.2821e-15,0,1,-0.612,-1.228,-0.612,3.5527e-14,-0.81733,0.616,-0.012024,0.94,0.86,0
0.034944,-4.161e-17,0.04,-1.2352,-0.5865,-0.5865,8.3563e-17,0,0,-0.84327,4.8849e-17,0,2.1726e-16,0,0,1,0,0,1,-0.5865,-1.2352,-0.5865,90,-0.80272,0.64867,-0.014018,0.96,0.86,0
0.017836,-3.833e-17,0.02,-1.2178,-0.5505,-0.5505,1.5762e-16,0,0,-0.86753,8.606e-17,0,4.098e-16,0,0,1,0,0,1,-0.5505,-1.2178,-0.5505,90,-0.77294,0.66733,-0.015263,0.98,0.86,0
0,-3.6868e-17,0,-1.2005,-0.5145,-0.5145,-8.8618e-18,0,0,-0.8918,5.0551e-17,0,-2.3041e-17,0,0,1,0,0,1,-0.5145,-1.2005,-0.5145,-90,-0.74317,0.686,-0.016581,1,0.86,0
0,1.5561e-17,1,-1.2995,-1.9855,-1.9855,-1.6013e-17,0,0,0.8918,-1.9517e-16,0,-4.1633e-17,0,0,1,0,0,1,-1.2995,-1.9855,-1.9855,-1.3374e-15,-1.7568,0.686,0.016581,0,0.88,0
0.017836,1.4251e-17,0.98,-1.2658,-1.9425,-1.9425,-1.051e-16,0,0,0.87967,-1.0682e-16,0,-2.7326e-16,0,0,1,3.6689e-15,0,1,-1.2658,-1.9425,-1.9425,-8.8993e-15,-1.7169,0.67667,0.015913,0.02,0.88,0
0.034944,7.5121e-18,0.96,-1.2812,-1.9205,-1.9205,9.652e-17,0,0,0.83113,-2.1347e-16,0,2.5095e-16,0,0,1,-4.9692e-15,0,1,-1.2812,-1.9205,-1.9205,8.6499e-15,-1.7074,0.63933,0.013422,0.04,0.88,0
0.051324,1.9081e-17,0.94,-1.2638,-1.8845,-1.8845,3.7579e-16,0,0,0.80687,-1.8011e-16,0,9.7707e-16,0,0,1,5.4961e-16,0,1,-1.2638,-1.8845,-1.8845,3.4691e-14,-1.6776,0.62067,0.01228,0.06,0.88,0
0.066976,5.029e-17,0.92,-1.2792,-1.8625,-1.8625,-1.121e-16,0,0,0.75833,-5.6333e-16,0,-2.9146e-16,0,0,1,-6.2696e-15,0,1,-1.2792,-1.8625,-1.8625,-1.1011e-14,-1.6681,0.58333,0.010195,0.08,0.88,0
0.0819,1.2459e-17,0.9,-1.2618,-1.8265,-1.8265,-9.1933e-16,0,0,0.73407,-1.5467e-16,0,-2.3903e-15,0,0,1,4.5358e-15,0,1,-1.2618,-1.8265,-1.8265,-9.3283e-14,-1.6383,0.56467,0.009247,0.1,0.88,0
0.096096,1.1921e-17,0.88,-1.2772,-1.8045,-1.8045,2.5416e-16,0,0,0.68553,-3.0456e-16,0,6.6082e-16,0,0,1,-3.1732e-16,0,1,-1.2772,-1.8045,-1.8045,2.7615e-14,-1.6287,0.52733,0.0075315,0.12,0.88,0
0.10956,1.1068e-17,0.86,-1.268,-1.772,-1.772,1.6815e-16,0,0,0.6552,-1.7196e-17,0,4.3719e-16,0,0,1,-2.3394e-15,0,1,-1.268,-1.772,-1.772,1.9116e-14,-1.604,0.504,0.0065753,0.14,0.88,0
0.1223,4.6696e-17,0.84,-1.267,-1.743,-1.743,1.0787e-16,0,0,0.6188,-1.4237e-16,0,2.8047e-16,0,0,1,-4.6151e-15,0,1,-1.267,-1.743,-1.743,1.2985e-14,-1.5843,0.476,0.0055392,0.16,0.88,0
0.13432,-1.7331e-17,0.82,-1.266,-1.714,-1.714,-7.6708e-16,0,0,0.5824,2.9946e-17,0,-1.9944e-15,0,0,1,6.5019e-16,0,1,-1.266,-1.714,-1.714,-9.8104e-14,-1.5647,0.448,0.0046181,0.18,0.88,0
0.1456,-2.5967e-17,0.8,-1.265,-1.685,-1.685,4.5827e-16,0,0,0.546,-8.5473e-17,0,1.1915e-15,0,0,1,1.8635e-15,0,1,-1.265,-1.685,-1.685,6.2516e-14,-1.545,0.42,0.0038052,0.2,0.88,0
0.15616,1.4614e-17,0.78,-1.264,-1.656,-1.656,-2.562e-16,0,0,0.5096,1.7114e-16,0,-6.6613e-16,0,0,1,-4.29e-15,0,1,-1.264,-1.656,-1.656,-3.7448e-14,-1.5253,0.392,0.0030937,0.22,0.88,0
0.16598,-4.8448e-17,0.76,-1.263,-1.627,-1.627,-7.6862e-16,0,0,0.4732,7.8323e-17,0,-1.9984e-15,0,0,1,1.5384e-15,0,1,-1.263,-1.627,-1.627,-1.2098e-13,-1.5057,0.364,0.002477,0.24,0.88,0
0.17508,-5.6083e-17,0.74,-1.262,-1.598,-1.598,-1.708e-16,0,0,0.4368,2.0822e-16,0,-4.4409e-16,0,0,1,0,0,1,-1.262,-1.598,-1.598,-2.9126e-14,-1.486,0.336,0.0019482,0.26,0.88,0
0.18346,-6.2497e-17,0.72,-1.261,-1.569,-1.569,1.0363e-15,0,0,0.4004,-1.3296e-16,0,2.6943e-15,0,0,1,3.6398e-15,0,1,-1.261,-1.569,-1.569,1.9277e-13,-1.4663,0.308,0.0015006,0.28,0.88,0
0.1911,3.2567e-17,0.7,-1.26,-1.54,-1.54,1.2154e-15,0,0,0.364,-1.3351e-16,0,3.1601e-15,0,0,1,-9.7529e-16,0,1,-1.26,-1.54,-1.54,2.4871e-13,-1.4467,0.28,0.0011275,0.3,0.88,0
0.19802,4.141e-17,0.68,-1.259,-1.511,-1.511,2.8746e-16,0,0,0.3276,1.1177e-16,0,7.4741e-16,0,0,1,0,0,1,-1.259,-1.511,-1.511,6.5359e-14,-1.427,0.252,0.00082192,0.32,0.88,0
0.2042,4.1699e-17,0.66,-1.258,-1.482,-1.482,-8.6546e-16,0,0,0.2912,1.6375e-16,0,-2.2502e-15,0,0,1,0,0,1,-1.258,-1.482,-1.482,-2.2137e-13,-1.4073,0.224,0.00057726,0.34,0.88,0
0.20966,-5.5027e-17,0.64,-1.257,-1.453,-1.453,-1.6394e-15,0,0,0.2548,4.5887e-17,0,-4.2624e-15,0,0,1,1.5384e-15,0,1,-1.257,-1.453,-1.453,-4.7923e-13,-1.3877,0.196,0.00038672,0.36,0.88,0
0.2144,-6.163e-17,0.62,-1.256,-1.424,-1.424,-5.4143e-17,0,0,0.2184,1.4018e-16,0,-1.4077e-16,0,0,1,0,0,1,-1.256,-1.424,-1.424,-1.8465e-14,-1.368,0.168,0.00024353,0.38,0.88,0
0.2184,-5.6822e-17,0.6,-1.255,-1.395,-1.395,9.3942e-16,0,0,0.182,1.6387e-17,0,2.4425e-15,0,0,1,1.2133e-15,0,1,-1.255,-1.395,-1.395,3.8446e-13,-1.3483,0.14,0.00014093,0.4,0.88,0
0.22168,2.7626e-17,0.58,-1.254,-1.366,-1.366,9.1654e-16,0,0,0.1456,1.2239e-16,0,2.383e-15,0,0,1,-6.5019e-16,0,1,-1.254,-1.366,-1.366,4.0568e-13,-1.3287,0.112,7.554e-05,0.42,0.88,0
0.22422,2.6841e-17,0.56,-1.2448,-1.3335,-1.3335,-3.8329e-16,0,0,0.11527,5.6304e-17,0,-9.9654e-16,0,0,1,0,0,1,-1.2448,-1.3335,-1.3335,-2.4768e-13,-1.3039,0.088667,3.5802e-05,0.44,0.88,0
0.22604,2.3032e-17,0.54,-1.252,-1.308,-1.308,-7.061e-16,0,0,0.0728,-4.5701e-17,0,-1.8359e-15,0,0,1,-1.5384e-15,0,1,-1.252,-1.308,-1.308,-7.2244e-13,-1.2893,0.056,9.0196e-06,0.46,0.88,0
0.22714,-6.6381e-17,0.52,-1.251,-1.279,-1.279,-7.6862e-16,0,0,0.0364,6.2011e-17,0,-1.9984e-15,0,0,1,-2.6645e-15,0,1,-1.251,-1.279,-1.279,-1.5728e-12,-1.2697,0.028,1.1275e-06,0.48,0.88,0
0.2275,-6.2202e-17,0.5,-1.25,-1.25,-1.25,4.5767e-17,0,0,1.7347e-18,1.7264e-16,0,1.1899e-16,0,0,1,0,0,1,-1.25,-1.25,-1.25,5.8232,-1.25,4.7103e-16,7.5907e-48,0.5,0.88,0
0.22714,-6.8279e-17,0.48,-1.249,-1.221,-1.221,4.0413e-16,0,0,-0.0364,2.2386e-16,0,1.0507e-15,0,0,1,0,0,1,-1.221,-1.249,-1.221,90,-1.2303,0.028,-1.1275e-06,0.52,0.88,0
0.22604,-6.7712e-17,0.46,-1.2562,-1.1955,-1.1955,-6.527e-16,0,0,-0.078867,-6.9448e-17,0,-1.697e-15,0,0,1,1.6177e-15,0,1,-1.1955,-1.2562,-1.1955,-90,-1.2157,0.060667,-1.1468e-05,0.54,0.88,0
0.22422,-8.0505e-17,0.44,-1.2388,-1.1595,-1.1595,1.0472e-15,0,0,-0.10313,9.8858e-17,0,2.7226e-15,0,0,1,6.1338e-16,0,1,-1.1595,-1.2388,-1.1595,90,-1.1859,0.079333,-2.5644e-05,0.56,0.88,0
0.22168,6.9716e-17,0.42,-1.246,-1.134,-1.134,3.2485e-16,0,0,-0.1456,-1.975e-16,0,8.4462e-16,0,0,1,7.6918e-16,0,1,-1.134,-1.246,-1.134,90,-1.1713,0.112,-7.2157e-05,0.58,0.88,0
0.2184,6.6114e-17,0.4,-1.2532,-1.1085,-1.1085,4.9715e-16,0,0,-0.18807,-3.0924e-16,0,1.2926e-15,0,0,1,3.2354e-15,0,1,-1.1085,-1.2532,-1.1085,90,-1.1567,0.14467,-0.0001555,0.6,0.88,0
0.2144,6.7724e-17,0.38,-1.244,-1.076,-1.076,1.3954e-16,0,0,-0.2184,-4.5509e-17,0,3.6282e-16,0,0,1,-3.251e-16,0,1,-1.076,-1.244,-1.076,90,-1.132,0.168,-0.00024353,0.62,0.88,0
0.20966,7.6107e-17,0.36,-1.243,-1.047,-1.047,2.8746e-16,0,0,-0.2548,-2.0331e-16,0,7.4741e-16,0,0,1,7.3956e-32,0,1,-1.047,-1.243,-1.047,90,-1.1123,0.196,-0.00038672,0.64,0.88,0
0.2042,8.4142e-17,0.34,-1.242,-1.018,-1.018,2.4476e-16,0,0,-0.2912,-3.3314e-16,0,6.3638e-16,0,0,1,-2.9582e-31,0,1,-1.018,-1.242,-1.018,90,-1.0927,0.224,-0.00057726,0.66,0.88,0
0.19802,9.8692e-17,0.32,-1.241,-0.989,-0.989,-9.5924e-16,0,0,-0.3276,4.1143e-18,0,-2.494e-15,0,0,1,-4.6003e-16,0,1,-0.989,-1.241,-0.989,-90,-1.073,0.252,-0.00082192,0.68,0.88,0
0.1911,-5.4778e-17,0.3,-1.24,-0.96,-0.96,-1.1133e-15,0,0,-0.364,5.9911e-17,0,-2.8946e-15,0,0,1,-3.0927e-15,0,1,-0.96,-1.24,-0.96,-90,-1.0533,0.28,-0.0011275,0.7,0.88,0
0.18346,-6.1274e-17,0.28,-1.239,-0.931,-0.931,-1.9062e-16,0,0,-0.4004,1.6327e-16,0,-4.9561e-16,0,0,1,-2.8154e-16,0,1,-0.931,-1.239,-0.931,-90,-1.0337,0.308,-0.0015006,0.72,0.88,0
0.17508,-5.7303e-17,0.26,-1.238,-0.902,-0.902,3.1259e-17,0,0,-0.4368,1.3519e-17,0,8.1274e-17,0,0,1,-7.4741e-16,0,1,-0.902,-1.238,-0.902,90,-1.014,0.336,-0.0019482,0.74,0.88,0
0.16598,-6.3828e-17,0.24,-1.237,-0.873,-0.873,-9.8608e-32,0,0,-0.4732,2.5096e-16,0,-2.9582e-31,0,0,1,6.0664e-16,0,1,-0.873,-1.237,-0.873,-90,-0.99433,0.364,-0.002477,0.76,0.88,0
0.15616,-5.7091e-17,0.22,-1.236,-0.844,-0.844,6.2518e-17,0,0,-0.5096,1.1959e-16,0,1.6255e-16,0,0,1,2.2204e-16,0,1,-0.844,-1.236,-0.844,90,-0.97467,0.392,-0.0030937,0.78,0.88,0
0.1456,-6.5929e-17,0.2,-1.235,-0.815,-0.815,9.5352e-16,0,0,-0.546,-1.2088e-16,0,2.4791e-15,0,0,1,-4.3555e-17,0,1,-0.815,-1.235,-0.815,90,-0.955,0.42,-0.0038052,0.8,0.88,0
0.13432,7.5833e-17,0.18,-1.234,-0.786,-0.786,6.1232e-16,0,0,-0.5824,-1.5577e-16,0,1.592e-15,0,0,1,2.1827e-15,0,1,-0.786,-1.234,-0.786,90,-0.93533,0.448,-0.0046181,0.82,0.88,0
0.1223,7.0307e-17,0.16,-1.233,-0.757,-0.757,-2.2913e-16,0,0,-0.6188,-2.3897e-16,0,-5.9575e-16,0,0,1,0,0,1,-0.757,-1.233,-0.757,-90,-0.91567,0.476,-0.0055392,0.84,0.88,0
0.10956,6.7303e-17,0.14,-1.232,-0.728,-0.728,-1.281e-16,0,0,-0.6552,-2.9399e-16,0,-3.3307e-16,0,0,1,-2.2204e-16,0,1,-0.728,-1.232,-0.728,-90,-0.896,0.504,-0.0065753,0.86,0.88,0
0.096096,6.5597e-17,0.12,-1.231,-0.699,-0.699,-1.3801e-16,0,0,-0.6916,-2.3472e-16,0,-3.5883e-16,0,0,1,-5.2536e-16,0,1,-0.699,-1.231,-0.699,-90,-0.87633,0.532,-0.0077332,0.88,0.88,0
0.0819,6.818e-17,0.1,-1.23,-0.67,-0.67,1.8853e-16,0,0,-0.728,-1.3549e-16,0,4.9017e-16,0,0,1,8.1274e-17,0,1,-0.67,-1.23,-0.67,90,-0.85667,0.56,-0.0090197,0.9,0.88,0
0.066976,7.348e-17,0.08,-1.229,-0.641,-0.641,-8.5744e-16,0,0,-0.7644,-1.1228e-16,0,-2.2293e-15,0,0,1,-1.0235e-15,0,1,-0.641,-1.229,-0.641,-90,-0.837,0.588,-0.010441,0.92,0.88,0
0.051324,-4.9811e-17,0.06,-1.228,-0.612,-0.612,-4.681e-16,0,0,-0.8008,-5.7173e-17,0,-1.2171e-15,0,0,1,-1.2924e-15,0,1,-0.612,-1.228,-0.612,4.2633e-14,-0.81733,0.616,-0.012024,0.94,0.88,0
0.034944,-4.093e-17,0.04,-1.227,-0.583,-0.583,1.3825e-16,0,0,-0.8372,2.7948e-17,0,3.5946e-16,0,0,1,-2.7222e-18,0,1,-0.583,-1.227,-0.583,90,-0.79767,0.644,-0.013718,0.96,0.88,0
0.017836,-3.627e-17,0.02,-1.226,-0.554,-0.554,2.1542e-17,0,0,-0.8736,8.3579e-17,0,5.6009e-17,0,0,1,0,0,1,-0.554,-1.226,-0.554,90,-0.778,0.672,-0.015586,0.98,0.88,0
0,-3.5857e-17,0,-1.2005,-0.5145,-0.5145,2.6688e-17,0,0,-0.8918,1.0858e-16,0,6.9389e-17,0,0,1,0,0,1,-0.5145,-1.2005,-0.5145,90,-0.74317,0.686,-0.016581,1,0.88,0
0,1.2379e-17,1,-1.2995,-1.9855,-1.9855,-6.0999e-17,0,0,0.8918,-2.065e-16,0,-1.586e-16,0,0,1,0,0,1,-1.2995,-1.9855,-1.9855,-5.0948e-15,-1.7568,0.686,0.016581,0,0.9,0
0.017836,1.0804e-17,0.98,-1.274,-1.946,-1.946,-7.7561e-17,0,0,0.8736,-1.4714e-16,0,-2.0166e-16,0,0,1,4.8531e-15,0,1,-1.274,-1.946,-1.946,-6.613e-15,-1.722,0.672,0.015586,0.02,0.9,0
0.034944,2.6258e-18,0.96,-1.273,-1.917,-1.917,1.3144e-16,0,0,0.8372,-1.5436e-16,0,3.4173e-16,0,0,1,-7.373e-16,0,1,-1.273,-1.917,-1.917,1.1694e-14,-1.7023,0.644,0.013718,0.04,0.9,0
0.051324,1.5284e-17,0.94,-1.272,-1.888,-1.888,3.7297e-16,0,0,0.8008,-1.8427e-16,0,9.6972e-16,0,0,1,4.29e-15,0,1,-1.272,-1.888,-1.888,3.4691e-14,-1.6827,0.616,0.012005,0.06,0.9,0
0.066976,3.8439e-17,0.92,-1.271,-1.859,-1.859,1.3152e-16,0,0,0.7644,-3.9801e-16,0,3.4196e-16,0,0,1,-8.58e-15,0,1,-1.271,-1.859,-1.859,1.2816e-14,-1.663,0.588,0.010441,0.08,0.9,0
0.0819,1.0956e-17,0.9,-1.27,-1.83,-1.83,-5.0516e-16,0,0,0.728,-2.3322e-16,0,-1.3134e-15,0,0,1,3.4018e-15,0,1,-1.27,-1.83,-1.83,-5.1685e-14,-1.6433,0.56,0.0090197,0.1,0.9,0
0.096096,6.1794e-18,0.88,-1.269,-1.801,-1.801,1.2085e-16,0,0,0.6916,-1.8307e-16,0,3.1421e-16,0,0,1,6.5019e-16,0,1,-1.269,-1.801,-1.801,1.3015e-14,-1.6237,0.532,0.0077332,0.12,0.9,0
0.10956,9.8756e-18,0.86,-1.268,-1.772,-1.772,1.2126e-16,0,0,0.6552,-1.8241e-16,0,3.1527e-16,0,0,1,1.8635e-15,0,1,-1.268,-1.772,-1.772,1.3785e-14,-1.604,0.504,0.0065753,0.14,0.9,0
0.1223,4.5592e-17,0.84,-1.267,-1.743,-1.743,2.5886e-16,0,0,0.6188,4.5705e-17,0,6.7304e-16,0,0,1,-6.9546e-15,0,1,-1.267,-1.743,-1.743,3.1159e-14,-1.5843,0.476,0.0055392,0.16,0.9,0
0.13432,-1.5009e-17,0.82,-1.266,-1.714,-1.714,-1.0645e-15,0,0,0.5824,1.7363e-18,0,-2.7676e-15,0,0,1,1.8635e-15,0,1,-1.266,-1.714,-1.714,-1.3614e-13,-1.5647,0.448,0.0046181,0.18,0.9,0
0.1456,-2.6947e-17,0.8,-1.265,-1.685,-1.685,2.89e-16,0,0,0.546,-4.4188e-17,0,7.5139e-16,0,0,1,1.8635e-15,0,1,-1.265,-1.685,-1.685,3.9425e-14,-1.545,0.42,0.0038052,0.2,0.9,0
0.15616,1.7587e-17,0.78,-1.264,-1.656,-1.656,1.9818e-17,0,0,0.5096,9.2291e-17,0,5.1526e-17,0,0,1,-3.1957e-15,0,1,-1.264,-1.656,-1.656,2.8966e-15,-1.5253,0.392,0.0030937,0.22,0.9,0
0.16598,-4.6119e-17,0.76,-1.263,-1.627,-1.627,-6.5195e-16,0,0,0.4732,1.8257e-16,0,-1.6951e-15,0,0,1,-2.7835e-15,0,1,-1.263,-1.627,-1.627,-1.0262e-13,-1.5057,0.364,0.002477,0.24,0.9,0
0.17508,-4.892e-17,0.74,-1.262,-1.598,-1.598,-2.8746e-16,0,0,0.4368,1.0618e-16,0,-7.4741e-16,0,0,1,-2.6645e-15,0,1,-1.262,-1.598,-1.598,-4.9019e-14,-1.486,0.336,0.0019482,0.26,0.9,0
0.18346,-6.779e-17,0.72,-1.261,-1.569,-1.569,7.2591e-16,0,0,0.4004,6.0209e-17,0,1.8874e-15,0,0,1,2.7516e-15,0,1,-1.261,-1.569,-1.569,1.3504e-13,-1.4663,0.308,0.0015006,0.28,0.9,0
0.1911,3.1803e-17,0.7,-1.26,-1.54,-1.54,1.0019e-15,0,0,0.364,4.9273e-18,0,2.605e-15,0,0,1,-9.7529e-16,0,1,-1.26,-1.54,-1.54,2.0502e-13,-1.4467,0.28,0.0011275,0.3,0.9,0
0.19802,4.0427e-17,0.68,-1.259,-1.511,-1.511,-2.6458e-16,0,0,0.3276,-2.3826e-16,0,-6.8791e-16,0,0,1,0,0,1,-1.259,-1.511,-1.511,-6.0156e-14,-1.427,0.252,0.00082192,0.32,0.9,0
0.2042,4.6772e-17,0.66,-1.258,-1.482,-1.482,-1.0675e-15,0,0,0.2912,8.3247e-17,0,-2.7756e-15,0,0,1,-1.2133e-15,0,1,-1.258,-1.482,-1.482,-2.7306e-13,-1.4073,0.224,0.00057726,0.34,0.9,0
0.20966,-5.7391e-17,0.64,-1.257,-1.453,-1.453,-1.278e-15,0,0,0.2548,-1.2195e-16,0,-3.3227e-15,0,0,1,3.251e-16,0,1,-1.257,-1.453,-1.453,-3.7358e-13,-1.3877,0.196,0.00038672,0.36,0.9,0
0.2144,-5.8595e-17,0.62,-1.256,-1.424,-1.424,5.4143e-17,0,0,0.2184,1.8995e-16,0,1.4077e-16,0,0,1,0,0,1,-1.256,-1.424,-1.424,1.8465e-14,-1.368,0.168,0.00024353,0.38,0.9,0
0.2184,-5.4955e-17,0.6,-1.255,-1.395,-1.395,1.0561e-15,0,0,0.182,2.0539e-16,0,2.7458e-15,0,0,1,1.2133e-15,0,1,-1.255,-1.395,-1.395,4.3221e-13,-1.3483,0.14,0.00014093,0.4,0.9,0
0.22168,3.0405e-17,0.58,-1.254,-1.366,-1.366,7.9988e-16,0,0,0.1456,1.8286e-16,0,2.0797e-15,0,0,1,-6.5019e-16,0,1,-1.254,-1.366,-1.366,3.5669e-13,-1.3287,0.112,7.554e-05,0.42,0.9,0
0.22422,2.7248e-17,0.56,-1.253,-1.337,-1.337,-1.1666e-16,0,0,0.1092,-4.5797e-17,0,-3.0332e-16,0,0,1,0,0,1,-1.253,-1.337,-1.337,-7.9574e-14,-1.309,0.084,3.0441e-05,0.44,0.9,0
0.22604,2.2118e-17,0.54,-1.252,-1.308,-1.308,-1.2269e-15,0,0,0.0728,8.1939e-17,0,-3.1899e-15,0,0,1,-2.1014e-15,0,1,-1.252,-1.308,-1.308,-1.2553e-12,-1.2893,0.056,9.0196e-06,0.46,0.9,0
0.22714,-6.5141e-17,0.52,-1.251,-1.279,-1.279,-1.0019e-15,0,0,0.0364,1.0944e-16,0,-2.605e-15,0,0,1,-8.4462e-16,0,1,-1.251,-1.279,-1.279,-2.0502e-12,-1.2697,0.028,1.1275e-06,0.48,0.9,0
0.2275,-5.8749e-17,0.5,-1.25,-1.25,-1.25,-2.1044e-16,0,0,-1.5179e-16,2.1309e-16,0,-5.4714e-16,0,0,1,-2.1014e-15,0,1,-1.25,-1.25,-1.25,-68.269,-1.25,4.7103e-16,7.5907e-48,0.5,0.9,0
0.22714,-6.3802e-17,0.48,-1.249,-1.221,-1.221,7.9374e-16,0,0,-0.0364,3.0536e-16,0,2.0637e-15,0,0,1,4.3555e-17,0,1,-1.221,-1.249,-1.221,90,-1.2303,0.028,-1.1275e-06,0.52,0.9,0
0.22604,-7.0975e-17,0.46,-1.248,-1.192,-1.192,-1.2504e-16,0,0,-0.0728,7.366e-18,0,-3.251e-16,0,0,1,-2.4265e-15,0,1,-1.192,-1.248,-1.192,-90,-1.2107,0.056,-9.0196e-06,0.54,0.9,0
0.22422,-7.5416e-17,0.44,-1.247,-1.163,-1.163,2.3081e-15,0,0,-0.1092,1.1814e-16,0,6.001e-15,0,0,1,-4.8764e-16,0,1,-1.163,-1.247,-1.163,90,-1.191,0.084,-3.0441e-05,0.56,0.9,0
0.22168,6.5766e-17,0.42,-1.246,-1.134,-1.134,5.9781e-16,0,0,-0.1456,-3.479e-17,0,1.5543e-15,0,0,1,2.7081e-15,0,1,-1.134,-1.246,-1.134,90,-1.1713,0.112,-7.2157e-05,0.58,0.9,0
0.2184,5.792e-17,0.4,-1.245,-1.105,-1.105,-4.8953e-16,0,0,-0.182,-4.2527e-16,0,-1.2728e-15,0,0,1,2.4265e-15,0,1,-1.105,-1.245,-1.105,-90,-1.1517,0.14,-0.00014093,0.6,0.9,0
0.2144,6.8284e-17,0.38,-1.244,-1.076,-1.076,-5.6042e-16,0,0,-0.2184,-2.4263e-16,0,-1.4571e-15,0,0,1,-3.251e-16,0,1,-1.076,-1.244,-1.076,-90,-1.132,0.168,-0.00024353,0.62,0.9,0
0.20966,7.0954e-17,0.36,-1.243,-1.047,-1.047,5.1077e-17,0,0,-0.2548,-3.2596e-16,0,1.328e-16,0,0,1,-7.3956e-32,0,1,-1.047,-1.243,-1.047,90,-1.1123,0.196,-0.00038672,0.64,0.9,0
0.2042,7.5723e-17,0.34,-1.242,-1.018,-1.018,5.0097e-16,0,0,-0.2912,-3.5398e-16,0,1.3025e-15,0,0,1,2.9582e-31,0,1,-1.018,-1.242,-1.018,90,-1.0927,0.224,-0.00057726,0.66,0.9,0
0.19802,9.4519e-17,0.32,-1.241,-0.989,-0.989,-1.0301e-15,0,0,-0.3276,-1.9035e-16,0,-2.6783e-15,0,0,1,-3.4104e-16,0,1,-0.989,-1.241,-0.989,-90,-1.073,0.252,-0.00082192,0.68,0.9,0
0.1911,-5.4327e-17,0.3,-1.24,-0.96,-0.96,-7.1754e-16,0,0,-0.364,-3.0189e-17,0,-1.8656e-15,0,0,1,-3.8619e-15,0,1,-0.96,-1.24,-0.96,-90,-1.0533,0.28,-0.0011275,0.7,0.9,0
0.18346,-5.5869e-17,0.28,-1.239,-0.931,-0.931,2.3332e-16,0,0,-0.4004,2.9797e-16,0,6.0664e-16,0,0,1,1.2133e-15,0,1,-0.931,-1.239,-0.931,90,-1.0337,0.308,-0.0015006,0.72,0.9,0
0.17508,-5.833e-17,0.26,-1.238,-0.902,-0.902,7.396e-17,0,0,-0.4368,1.8877e-16,0,1.923e-16,0,0,1,-1.6255e-16,0,1,-0.902,-1.238,-0.902,90,-1.014,0.336,-0.0019482,0.74,0.9,0
0.16598,-5.7144e-17,0.24,-1.237,-0.873,-0.873,-4.7809e-16,0,0,-0.4732,2.9483e-16,0,-1.243e-15,0,0,1,0,0,1,-0.873,-1.237,-0.873,-90,-0.99433,0.364,-0.002477,0.76,0.9,0
0.15616,-5.6508e-17,0.22,-1.236,-0.844,-0.844,9.3778e-17,0,0,-0.5096,-2.7319e-17,0,2.4382e-16,0,0,1,2.4382e-16,0,1,-0.844,-1.236,-0.844,90,-0.97467,0.392,-0.0030937,0.78,0.9,0
0.1456,-6.7625e-17,0.2,-1.235,-0.815,-0.815,1.2722e-15,0,0,-0.546,3.983e-17,0,3.3078e-15,0,0,1,-8.4249e-16,0,1,-0.815,-1.235,-0.815,90,-0.955,0.42,-0.0038052,0.8,0.9,0
0.13432,7.0826e-17,0.18,-1.234,-0.786,-0.786,6.3939e-16,0,0,-0.5824,-2.5966e-16,0,1.6624e-15,0,0,1,1.9309e-15,0,1,-0.786,-1.234,-0.786,90,-0.93533,0.448,-0.0046181,0.82,0.9,0
0.1223,6.452e-17,0.16,-1.233,-0.757,-0.757,-3.8431e-16,0,0,-0.6188,-3.6213e-16,0,-9.992e-16,0,0,1,8.1274e-17,0,1,-0.757,-1.233,-0.757,-90,-0.91567,0.476,-0.0055392,0.84,0.9,0
0.10956,6.0553e-17,0.14,-1.232,-0.728,-0.728,-6.9772e-17,0,0,-0.6552,-3.7285e-16,0,-1.8141e-16,0,0,1,0,0,1,-0.728,-1.232,-0.728,-90,-0.896,0.504,-0.0065753,0.86,0.9,0
0.096096,6.0511e-17,0.12,-1.231,-0.699,-0.699,1.1666e-16,0,0,-0.6916,-3.5801e-16,0,3.0332e-16,0,0,1,0,0,1,-0.699,-1.231,-0.699,90,-0.87633,0.532,-0.0077332,0.88,0.9,0
0.0819,6.565e-17,0.1,-1.23,-0.67,-0.67,1.3173e-16,0,0,-0.728,-2.358e-16,0,3.425e-16,0,0,1,8.1274e-17,0,1,-0.67,-1.23,-0.67,90,-0.85667,0.56,-0.0090197,0.9,0.9,0
0.066976,7.0158e-17,0.08,-1.229,-0.641,-0.641,-8.4181e-16,0,0,-0.7644,-1.4352e-16,0,-2.1887e-15,0,0,1,-1.6376e-15,0,1,-0.641,-1.229,-0.641,-90,-0.837,0.588,-0.010441,0.92,0.9,0
0.051324,-5.1396e-17,0.06,-1.228,-0.612,-0.612,-5.1318e-16,0,0,-0.8008,-1.284e-17,0,-1.3343e-15,0,0,1,-1.2036e-15,0,1,-0.612,-1.228,-0.612,3.5527e-14,-0.81733,0.616,-0.012024,0.94,0.9,0
0.034944,-4.0492e-17,0.04,-1.227,-0.583,-0.583,1.231e-16,0,0,-0.8372,5.6862e-17,0,3.2005e-16,0,0,1,1.337e-16,0,1,-0.583,-1.227,-0.583,90,-0.79767,0.644,-0.013718,0.96,0.9,0
0.017836,-3.4986e-17,0.02,-1.226,-0.554,-0.554,6.7531e-17,0,0,-0.8736,7.8934e-17,0,1.7558e-16,0,0,1,7.1929e-17,0,1,-0.554,-1.226,-0.554,90,-0.778,0.672,-0.015586,0.98,0.9,0
0,-3.2524e-17,0,-1.2005,-0.5145,-0.5145,7.6489e-17,0,0,-0.8918,1.2526e-16,0,1.9887e-16,0,0,1,-1.3611e-18,0,1,-0.5145,-1.2005,-0.5145,90,-0.74317,0.686,-0.016581,1,0.9,0
0,7.301e-18,1,-1.2995,-1.9855,-1.9855,4.2649e-17,0,0,0.8918,-1.1006e-16,0,1.1089e-16,0,0,1,-1.3004e-15,0,1,-1.2995,-1.9855,-1.9855,3.5622e-15,-1.7568,0.686,0.016581,0,0.92,0
0.017836,8.3657e-18,0.98,-1.274,-1.946,-1.946,-1.9181e-16,0,0,0.8736,-2.0402e-16,0,-4.9872e-16,0,0,1,9.7062e-15,0,1,-1.274,-1.946,-1.946,-1.6354e-14,-1.722,0.672,0.015586,0.02,0.92,0
0.034944,1.3376e-18,0.96,-1.273,-1.917,-1.917,5.2035e-17,0,0,0.8372,-1.2722e-16,0,1.3529e-16,0,0,1,-1.6255e-15,0,1,-1.273,-1.917,-1.917,4.6295e-15,-1.7023,0.644,0.013718,0.04,0.92,0
0.051324,1.171e-17,0.94,-1.272,-1.888,-1.888,4.6161e-16,0,0,0.8008,-2.6182e-16,0,1.2002e-15,0,0,1,8.5248e-15,0,1,-1.272,-1.888,-1.888,4.2936e-14,-1.6827,0.616,0.012005,0.06,0.92,0
0.066976,3.437e-17,0.92,-1.271,-1.859,-1.859,4.289e-16,0,0,0.7644,-2.1879e-16,0,1.1151e-15,0,0,1,-7.1606e-15,0,1,-1.271,-1.859,-1.859,4.1793e-14,-1.663,0.588,0.010441,0.08,0.92,0
0.0819,3.1302e-18,0.9,-1.27,-1.83,-1.83,-3.9631e-16,0,0,0.728,-4.0407e-16,0,-1.0304e-15,0,0,1,5.5033e-15,0,1,-1.27,-1.83,-1.83,-4.0548e-14,-1.6433,0.56,0.0090197,0.1,0.92,0
0.096096,4.5986e-18,0.88,-1.269,-1.801,-1.801,9.531e-17,0,0,0.6916,-2.1432e-16,0,2.4781e-16,0,0,1,0,0,1,-1.269,-1.801,-1.801,1.0265e-14,-1.6237,0.532,0.0077332,0.12,0.92,0
0.10956,3.7718e-18,0.86,-1.268,-1.772,-1.772,2.2648e-16,0,0,0.6552,-2.3502e-16,0,5.8885e-16,0,0,1,2.3076e-15,0,1,-1.268,-1.772,-1.772,2.5747e-14,-1.604,0.504,0.0065753,0.14,0.92,0
0.1223,4.8524e-17,0.84,-1.267,-1.743,-1.743,1.3229e-16,0,0,0.6188,-3.2893e-17,0,3.4396e-16,0,0,1,5.9497e-16,0,1,-1.267,-1.743,-1.743,1.5924e-14,-1.5843,0.476,0.0055392,0.16,0.92,0
0.13432,-1.7261e-17,0.82,-1.266,-1.714,-1.714,-1.0702e-15,0,0,0.5824,-4.0047e-17,0,-2.7825e-15,0,0,1,-4.1158e-15,0,1,-1.266,-1.714,-1.714,-1.3687e-13,-1.5647,0.448,0.0046181,0.18,0.92,0
0.1456,-2.7735e-17,0.8,-1.265,-1.685,-1.685,5.9628e-16,0,0,0.546,1.3093e-16,0,1.5503e-15,0,0,1,1.9825e-15,0,1,-1.265,-1.685,-1.685,8.1344e-14,-1.545,0.42,0.0038052,0.2,0.92,0
0.15616,1.8306e-17,0.78,-1.264,-1.656,-1.656,2.7602e-16,0,0,0.5096,1.0949e-16,0,7.1766e-16,0,0,1,-4.528e-15,0,1,-1.264,-1.656,-1.656,4.0344e-14,-1.5253,0.392,0.0030937,0.22,0.92,0
0.16598,-4.1145e-17,0.76,-1.263,-1.627,-1.627,-9.3942e-16,0,0,0.4732,1.2881e-16,0,-2.4425e-15,0,0,1,-1.1899e-16,0,1,-1.263,-1.627,-1.627,-1.4787e-13,-1.5057,0.364,0.002477,0.24,0.92,0
0.17508,-5.1836e-17,0.74,-1.262,-1.598,-1.598,-4.1557e-16,0,0,0.4368,1.4587e-16,0,-1.0805e-15,0,0,1,-1.7764e-15,0,1,-1.262,-1.598,-1.598,-7.0864e-14,-1.486,0.336,0.0019482,0.26,0.92,0
0.18346,-6.0089e-17,0.72,-1.261,-1.569,-1.569,7.9988e-16,0,0,0.4004,2.9894e-16,0,2.0797e-15,0,0,1,-1.0072e-15,0,1,-1.261,-1.569,-1.569,1.488e-13,-1.4663,0.308,0.0015006,0.28,0.92,0
0.1911,3.2765e-17,0.7,-1.26,-1.54,-1.54,1.2665e-15,0,0,0.364,-1.9014e-18,0,3.2929e-15,0,0,1,1.5703e-15,0,1,-1.26,-1.54,-1.54,2.5916e-13,-1.4467,0.28,0.0011275,0.3,0.92,0
0.19802,3.188e-17,0.68,-1.259,-1.511,-1.511,-1.0522e-16,0,0,0.3276,-1.576e-16,0,-2.7357e-16,0,0,1,0,0,1,-1.259,-1.511,-1.511,-2.3923e-14,-1.427,0.252,0.00082192,0.32,0.92,0
0.2042,4.5029e-17,0.66,-1.258,-1.482,-1.482,-5.4674e-16,0,0,0.2912,1.0397e-16,0,-1.4215e-15,0,0,1,-7.6918e-16,0,1,-1.258,-1.482,-1.482,-1.3985e-13,-1.4073,0.224,0.00057726,0.34,0.92,0
0.20966,-5.9905e-17,0.64,-1.257,-1.453,-1.453,-8.5402e-16,0,0,0.2548,1.2008e-16,0,-2.2205e-15,0,0,1,2.061e-16,0,1,-1.257,-1.453,-1.453,-2.4965e-13,-1.3877,0.196,0.00038672,0.36,0.92,0
0.2144,-5.4032e-17,0.62,-1.256,-1.424,-1.424,1.8224e-16,0,0,0.2184,7.1072e-17,0,4.7384e-16,0,0,1,0,0,1,-1.256,-1.424,-1.424,6.2154e-14,-1.368,0.168,0.00024353,0.38,0.92,0
0.2184,-4.8606e-17,0.6,-1.255,-1.395,-1.395,9.5924e-16,0,0,0.182,1.9687e-16,0,2.494e-15,0,0,1,4.4409e-16,0,1,-1.255,-1.395,-1.395,3.9257e-13,-1.3483,0.14,0.00014093,0.4,0.92,0
0.22168,3.4941e-17,0.58,-1.254,-1.366,-1.366,5.1548e-16,0,0,0.1456,-4.0048e-17,0,1.3402e-15,0,0,1,2.2205e-15,0,1,-1.254,-1.366,-1.366,2.0558e-13,-1.3287,0.112,7.554e-05,0.42,0.92,0
0.22422,2.5009e-17,0.56,-1.253,-1.337,-1.337,2.2188e-16,0,0,0.1092,8.8581e-17,0,5.7689e-16,0,0,1,-3.251e-16,0,1,-1.253,-1.337,-1.337,1.5134e-13,-1.309,0.084,3.0441e-05,0.44,0.92,0
0.22604,2.631e-17,0.54,-1.252,-1.308,-1.308,-3.8124e-16,0,0,0.0728,1.9441e-16,0,-9.9123e-16,0,0,1,-2.4425e-15,0,1,-1.252,-1.308,-1.308,-3.9006e-13,-1.2893,0.056,9.0196e-06,0.46,0.92,0
0.22714,-6.2004e-17,0.52,-1.251,-1.279,-1.279,-9.2798e-16,0,0,0.0364,3.2171e-16,0,-2.4127e-15,0,0,1,4.2815e-16,0,1,-1.251,-1.279,-1.279,-1.8989e-12,-1.2697,0.028,1.1275e-06,0.48,0.92,0
0.2275,-5.3678e-17,0.5,-1.25,-1.25,-1.25,2.9891e-16,0,0,9.8619e-16,2.8723e-16,0,7.7716e-16,0,0,1,-2.1014e-15,0,1,-1.25,-1.25,-1.25,16.972,-1.25,1.0175e-15,4.5544e-47,0.5,0.92,0
0.22714,-5.6065e-17,0.48,-1.249,-1.221,-1.221,8.3759e-18,0,0,-0.0364,5.1117e-16,0,2.1777e-17,0,0,1,4.3555e-17,0,1,-1.221,-1.249,-1.221,90,-1.2303,0.028,-1.1275e-06,0.52,0.92,0
0.22604,-6.7418e-17,0.46,-1.248,-1.192,-1.192,-1.0522e-16,0,0,-0.0728,2.8287e-16,0,-2.7357e-16,0,0,1,-2.4265e-15,0,1,-1.192,-1.248,-1.192,-90,-1.2107,0.056,-9.0196e-06,0.54,0.92,0
0.22422,-7.5779e-17,0.44,-1.247,-1.163,-1.163,1.6363e-15,0,0,-0.1092,-4.8267e-17,0,4.2544e-15,0,0,1,-3.8619e-15,0,1,-1.163,-1.247,-1.163,90,-1.191,0.084,-3.0441e-05,0.56,0.92,0
0.22168,6.8325e-17,0.42,-1.246,-1.134,-1.134,8.6853e-16,0,0,-0.1456,-1.2174e-16,0,2.2582e-15,0,0,1,4.7065e-15,0,1,-1.134,-1.246,-1.134,90,-1.1713,0.112,-7.2157e-05,0.58,0.92,0
0.2184,4.9104e-17,0.4,-1.245,-1.105,-1.105,1.3954e-16,0,0,-0.182,-2.5248e-16,0,3.6282e-16,0,0,1,0,0,1,-1.105,-1.245,-1.105,90,-1.1517,0.14,-0.00014093,0.6,0.92,0
0.2144,5.8018e-17,0.38,-1.244,-1.076,-1.076,-1.2504e-16,0,0,-0.2184,-4.5507e-16,0,-3.251e-16,0,0,1,0,0,1,-1.076,-1.244,-1.076,-90,-1.132,0.168,-0.00024353,0.62,0.92,0
0.20966,6.3069e-17,0.36,-1.243,-1.047,-1.047,6.2518e-17,0,0,-0.2548,-4.9632e-16,0,1.6255e-16,0,0,1,-1.6255e-16,0,1,-1.047,-1.243,-1.047,90,-1.1123,0.196,-0.00038672,0.64,0.92,0
0.2042,6.9983e-17,0.34,-1.242,-1.018,-1.018,2.135e-16,0,0,-0.2912,-3.8668e-16,0,5.5511e-16,0,0,1,1.2133e-15,0,1,-1.018,-1.242,-1.018,90,-1.0927,0.224,-0.00057726,0.66,0.92,0
0.19802,9.1078e-17,0.32,-1.241,-0.989,-0.989,-1.2894e-15,0,0,-0.3276,-3.6934e-16,0,-3.3524e-15,0,0,1,1.5384e-15,0,1,-0.989,-1.241,-0.989,-90,-1.073,0.252,-0.00082192,0.68,0.92,0
0.1911,-5.5986e-17,0.3,-1.24,-0.96,-0.96,-8.769e-16,0,0,-0.364,2.054e-17,0,-2.2799e-15,0,0,1,-2.1014e-15,0,1,-0.96,-1.24,-0.96,-90,-1.0533,0.28,-0.0011275,0.7,0.92,0
0.18346,-4.9355e-17,0.28,-1.239,-0.931,-0.931,3.9268e-16,0,0,-0.4004,2.444e-16,0,1.021e-15,0,0,1,-1.6255e-16,0,1,-0.931,-1.239,-0.931,90,-1.0337,0.308,-0.0015006,0.72,0.92,0
0.17508,-4.9753e-17,0.26,-1.238,-0.902,-0.902,1.3954e-16,0,0,-0.4368,4.1198e-16,0,3.6282e-16,0,0,1,0,0,1,-0.902,-1.238,-0.902,90,-1.014,0.336,-0.0019482,0.74,0.92,0
0.16598,-5.2035e-17,0.24,-1.237,-0.873,-0.873,2.135e-16,0,0,-0.4732,4.343e-16,0,5.5511e-16,0,0,1,0,0,1,-0.873,-1.237,-0.873,90,-0.99433,0.364,-0.002477,0.76,0.92,0
0.15616,-5.8184e-17,0.22,-1.236,-0.844,-0.844,-4.2394e-16,0,0,-0.5096,3.4682e-16,0,-1.1022e-15,0,0,1,1.6255e-16,0,1,-0.844,-1.236,-0.844,-90,-0.97467,0.392,-0.0030937,0.78,0.92,0
0.1456,-6.4335e-17,0.2,-1.235,-0.815,-0.815,1.4686e-15,0,0,-0.546,6.6681e-17,0,3.8183e-15,0,0,1,-3.984e-16,0,1,-0.815,-1.235,-0.815,90,-0.955,0.42,-0.0038052,0.8,0.92,0
0.13432,6.5447e-17,0.18,-1.234,-0.786,-0.786,5.3264e-16,0,0,-0.5824,-2.2731e-16,0,1.3849e-15,0,0,1,3.0629e-15,0,1,-0.786,-1.234,-0.786,90,-0.93533,0.448,-0.0046181,0.82,0.92,0
0.1223,5.5822e-17,0.16,-1.233,-0.757,-0.757,-2.7071e-17,0,0,-0.6188,-3.4511e-16,0,-7.0385e-17,0,0,1,-8.1274e-17,0,1,-0.757,-1.233,-0.757,-90,-0.91567,0.476,-0.0055392,0.84,0.92,0
0.10956,5.239e-17,0.14,-1.232,-0.728,-0.728,9.9088e-18,0,0,-0.6552,-3.9713e-16,0,2.5763e-17,0,0,1,0,0,1,-0.728,-1.232,-0.728,90,-0.896,0.504,-0.0065753,0.86,0.92,0
0.096096,5.1276e-17,0.12,-1.231,-0.699,-0.699,3.13e-16,0,0,-0.6916,-4.1669e-16,0,8.1381e-16,0,0,1,0,0,1,-0.699,-1.231,-0.699,90,-0.87633,0.532,-0.0077332,0.88,0.92,0
0.0819,5.8748e-17,0.1,-1.23,-0.67,-0.67,2.0073e-16,0,0,-0.728,-2.8668e-16,0,5.2191e-16,0,0,1,4.0637e-17,0,1,-0.67,-1.23,-0.67,90,-0.85667,0.56,-0.0090197,0.9,0.92,0
0.066976,6.774e-17,0.08,-1.229,-0.641,-0.641,-5.9991e-16,0,0,-0.7644,-1.6129e-16,0,-1.5598e-15,0,0,1,-1.2158e-15,0,1,-0.641,-1.229,-0.641,-90,-0.837,0.588,-0.010441,0.92,0.92,0
0.051324,-5.0324e-17,0.06,-1.228,-0.612,-0.612,-3.8651e-16,0,0,-0.8008,-8.6815e-18,0,-1.0049e-15,0,0,1,-1.8279e-15,0,1,-0.612,-1.228,-0.612,3.5527e-14,-0.81733,0.616,-0.012024,0.94,0.92,0
0.034944,-3.8655e-17,0.04,-1.227,-0.583,-0.583,2.8185e-16,0,0,-0.8372,1.7673e-16,0,7.328e-16,0,0,1,1.3642e-16,0,1,-0.583,-1.227,-0.583,90,-0.79767,0.644,-0.013718,0.96,0.92,0
0.017836,-3.3112e-17,0.02,-1.226,-0.554,-0.554,1.0756e-16,0,0,-0.8736,2.4726e-16,0,2.7966e-16,0,0,1,7.1929e-17,0,1,-0.554,-1.226,-0.554,90,-0.778,0.672,-0.015586,0.98,0.92,0
0,-3.0846e-17,0,-1.2005,-0.5145,-0.5145,2.8833e-17,0,0,-0.8918,2.2697e-16,0,7.4967e-17,0,0,1,-1.3611e-18,0,1,-0.5145,-1.2005,-0.5145,90,-0.74317,0.686,-0.016581,1,0.92,0
0,7.9769e-18,1,-1.2995,-1.9855,-1.9855,-1.1104e-16,0,0,0.8918,-7.4006e-17,0,-2.8871e-16,0,0,1,-1.3004e-15,0,1,-1.2995,-1.9855,-1.9855,-9.2745e-15,-1.7568,0.686,0.016581,0,0.94,0
0.017836,2.6434e-18,0.98,-1.274,-1.946,-1.946,-2.186e-16,0,0,0.8736,-2.5417e-16,0,-5.6836e-16,0,0,1,9.7062e-15,0,1,-1.274,-1.946,-1.946,-1.8638e-14,-1.722,0.672,0.015586,0.02,0.94,0
0.034944,-2.4631e-18,0.96,-1.273,-1.917,-1.917,3.0862e-16,0,0,0.8372,-1.2281e-16,0,8.0242e-16,0,0,1,-5.2653e-15,0,1,-1.273,-1.917,-1.917,2.7458e-14,-1.7023,0.644,0.013718,0.04,0.94,0
0.051324,4.8117e-18,0.94,-1.272,-1.888,-1.888,1.8883e-16,0,0,0.8008,-9.4794e-17,0,4.9097e-16,0,0,1,-5.9497e-16,0,1,-1.272,-1.888,-1.888,1.7564e-14,-1.6827,0.616,0.012005,0.06,0.94,0
0.066976,2.9688e-17,0.92,-1.271,-1.859,-1.859,5.3698e-16,0,0,0.7644,-8.1041e-17,0,1.3961e-15,0,0,1,-2.8069e-15,0,1,-1.271,-1.859,-1.859,5.2324e-14,-1.663,0.588,0.010441,0.08,0.94,0
0.0819,-5.207e-18,0.9,-1.27,-1.83,-1.83,-4.9162e-16,0,0,0.728,-2.9209e-16,0,-1.2782e-15,0,0,1,5.1782e-15,0,1,-1.27,-1.83,-1.83,-5.03e-14,-1.6433,0.56,0.0090197,0.1,0.94,0
0.096096,-2.3934e-18,0.88,-1.269,-1.801,-1.801,-1.563e-17,0,0,0.6916,-3.7917e-16,0,-4.0637e-17,0,0,1,-8.7109e-17,0,1,-1.269,-1.801,-1.801,-1.6833e-15,-1.6237,0.532,0.0077332,0.12,0.94,0
0.10956,4.747e-19,0.86,-1.268,-1.772,-1.772,5.2957e-16,0,0,0.6552,-2.2415e-16,0,1.3769e-15,0,0,1,9.6191e-15,0,1,-1.268,-1.772,-1.772,6.0203e-14,-1.604,0.504,0.0065753,0.14,0.94,0
0.1223,4.4276e-17,0.84,-1.267,-1.743,-1.743,6.5174e-17,0,0,0.6188,-2.3591e-16,0,1.6945e-16,0,0,1,-7.6047e-15,0,1,-1.267,-1.743,-1.743,7.8449e-15,-1.5843,0.476,0.0055392,0.16,0.94,0
0.13432,-1.661e-17,0.82,-1.266,-1.714,-1.714,-5.1813e-16,0,0,0.5824,1.6462e-16,0,-1.3471e-15,0,0,1,3.3147e-15,0,1,-1.266,-1.714,-1.714,-6.6265e-14,-1.5647,0.448,0.0046181,0.18,0.94,0
0.1456,-2.1709e-17,0.8,-1.265,-1.685,-1.685,2.6918e-16,0,0,0.546,2.5266e-16,0,6.9987e-16,0,0,1,-1.1899e-16,0,1,-1.265,-1.685,-1.685,3.6721e-14,-1.545,0.42,0.0038052,0.2,0.94,0
0.15616,2.1967e-17,0.78,-1.264,-1.656,-1.656,1.0522e-16,0,0,0.5096,2.4634e-16,0,2.7357e-16,0,0,1,-1.8635e-15,0,1,-1.264,-1.656,-1.656,1.5379e-14,-1.5253,0.392,0.0030937,0.22,0.94,0
0.16598,-4.0967e-17,0.76,-1.263,-1.627,-1.627,-7.5717e-16,0,0,0.4732,1.8786e-16,0,-1.9687e-15,0,0,1,-1.3323e-15,0,1,-1.263,-1.627,-1.627,-1.1918e-13,-1.5057,0.364,0.002477,0.24,0.94,0
0.17508,-4.3085e-17,0.74,-1.262,-1.598,-1.598,-3.2179e-16,0,0,0.4368,4.4258e-16,0,-8.3665e-16,0,0,1,1.5384e-15,0,1,-1.262,-1.598,-1.598,-5.4873e-14,-1.486,0.336,0.0019482,0.26,0.94,0
0.18346,-5.5832e-17,0.72,-1.261,-1.569,-1.569,5.0404e-16,0,0,0.4004,1.2313e-16,0,1.3105e-15,0,0,1,4.647e-15,0,1,-1.261,-1.569,-1.569,9.3763e-14,-1.4663,0.308,0.0015006,0.28,0.94,0
0.1911,3.1727e-17,0.7,-1.26,-1.54,-1.54,9.3942e-16,0,0,0.364,2.2747e-17,0,2.4425e-15,0,0,1,-1.6574e-15,0,1,-1.26,-1.54,-1.54,1.9223e-13,-1.4467,0.28,0.0011275,0.3,0.94,0
0.19802,3.4123e-17,0.68,-1.259,-1.511,-1.511,5.7493e-16,0,0,0.3276,-7.4965e-17,0,1.4948e-15,0,0,1,0,0,1,-1.259,-1.511,-1.511,1.3072e-13,-1.427,0.252,0.00082192,0.32,0.94,0
0.2042,5.093e-17,0.66,-1.258,-1.482,-1.482,-7.2285e-16,0,0,0.2912,-1.0175e-16,0,-1.8794e-15,0,0,1,-4.647e-15,0,1,-1.258,-1.482,-1.482,-1.8489e-13,-1.4073,0.224,0.00057726,0.34,0.94,0
0.20966,-5.2588e-17,0.64,-1.257,-1.453,-1.453,-9.1654e-16,0,0,0.2548,2.8515e-16,0,-2.383e-15,0,0,1,1.6574e-15,0,1,-1.257,-1.453,-1.453,-2.6793e-13,-1.3877,0.196,0.00038672,0.36,0.94,0
0.2144,-5.5752e-17,0.62,-1.256,-1.424,-1.424,1.0522e-16,0,0,0.2184,3.355e-16,0,2.7357e-16,0,0,1,0,0,1,-1.256,-1.424,-1.424,3.5885e-14,-1.368,0.168,0.00024353,0.38,0.94,0
0.2184,-4.708e-17,0.6,-1.255,-1.395,-1.395,6.5195e-16,0,0,0.182,1.9278e-16,0,1.6951e-15,0,0,1,7.6918e-16,0,1,-1.255,-1.395,-1.395,2.6682e-13,-1.3483,0.14,0.00014093,0.4,0.94,0
0.22168,2.8803e-17,0.58,-1.2622,-1.3695,-1.3695,9.9635e-16,0,0,0.13953,-1.353e-16,0,2.5905e-15,0,0,1,2.2892e-15,0,1,-1.2622,-1.3695,-1.3695,5.3939e-13,-1.3337,0.10733,6.4949e-05,0.42,0.94,0
0.22422,3.0791e-17,0.56,-1.253,-1.337,-1.337,7.2285e-16,0,0,0.1092,-8.6406e-17,0,1.8794e-15,0,0,1,-6.5019e-16,0,1,-1.253,-1.337,-1.337,4.9305e-13,-1.309,0.084,3.0441e-05,0.44,0.94,0
0.22604,2.9894e-17,0.54,-1.252,-1.308,-1.308,-1.0988e-15,0,0,0.0728,1.0927e-16,0,-2.8568e-15,0,0,1,-1.5979e-15,0,1,-1.252,-1.308,-1.308,-1.1242e-12,-1.2893,0.056,9.0196e-06,0.46,0.94,0
0.22714,-5.2273e-17,0.52,-1.251,-1.279,-1.279,-1.1666e-16,0,0,0.0364,3.1869e-16,0,-3.0332e-16,0,0,1,-2.4425e-15,0,1,-1.251,-1.279,-1.279,-2.3872e-13,-1.2697,0.028,1.1275e-06,0.48,0.94,0
0.2275,-4.726e-17,0.5,-1.25,-1.25,-1.25,1.708e-16,0,0,-8.266e-16,5.1272e-16,0,4.4409e-16,0,0,1,-1.2133e-15,0,1,-1.25,-1.25,-1.25,80.979,-1.25,1.0279e-15,-2.2772e-47,0.5,0.94,0
0.22714,-4.3355e-17,0.48,-1.249,-1.221,-1.221,-7.1141e-16,0,0,-0.0364,6.249e-16,0,-1.8497e-15,0,0,1,6.5019e-16,0,1,-1.221,-1.249,-1.221,-90,-1.2303,0.028,-1.1275e-06,0.52,0.94,0
0.22604,-5.966e-17,0.46,-1.248,-1.192,-1.192,-4.1557e-16,0,0,-0.0728,5.1217e-16,0,-1.0805e-15,0,0,1,-1.2133e-15,0,1,-1.192,-1.248,-1.192,-90,-1.2107,0.056,-9.0196e-06,0.54,0.94,0
0.22422,-7.7347e-17,0.44,-1.247,-1.163,-1.163,2.0519e-15,0,0,-0.1092,1.159e-16,0,5.3349e-15,0,0,1,2.3989e-15,0,1,-1.163,-1.247,-1.163,90,-1.191,0.084,-3.0441e-05,0.56,0.94,0
0.22168,6.0897e-17,0.42,-1.246,-1.134,-1.134,2.7071e-16,0,0,-0.1456,-1.2725e-16,0,7.0385e-16,0,0,1,1.9665e-15,0,1,-1.134,-1.246,-1.134,-1.4211e-13,-1.1713,0.112,-7.2157e-05,0.58,0.94,0
0.2184,4.7821e-17,0.4,-1.245,-1.105,-1.105,-3.4161e-16,0,0,-0.182,-2.3244e-16,0,-8.8818e-16,0,0,1,0,0,1,-1.105,-1.245,-1.105,1.35e-13,-1.1517,0.14,-0.00014093,0.6,0.94,0
0.2144,5.0082e-17,0.38,-1.244,-1.076,-1.076,8.5402e-17,0,0,-0.2184,-6.2375e-16,0,2.2204e-16,0,0,1,0,0,1,-1.076,-1.244,-1.076,90,-1.132,0.168,-0.00024353,0.62,0.94,0
0.20966,5.1101e-17,0.36,-1.243,-1.047,-1.047,5.6349e-16,0,0,-0.2548,-7.1281e-16,0,1.4651e-15,0,0,1,1.2133e-15,0,1,-1.047,-1.243,-1.047,90,-1.1123,0.196,-0.00038672,0.64,0.94,0
0.2042,6.0256e-17,0.34,-1.242,-1.018,-1.018,1.8224e-16,0,0,-0.2912,-4.5305e-16,0,4.7384e-16,0,0,1,-3.251e-16,0,1,-1.018,-1.242,-1.018,90,-1.0927,0.224,-0.00057726,0.66,0.94,0
0.19802,7.9746e-17,0.32,-1.241,-0.989,-0.989,-1.3405e-15,0,0,-0.3276,-4.9345e-16,0,-3.4852e-15,0,0,1,-2.3799e-16,0,1,-0.989,-1.241,-0.989,-90,-1.073,0.252,-0.00082192,0.68,0.94,0
0.1911,-5.3505e-17,0.3,-1.24,-0.96,-0.96,-6.0088e-16,0,0,-0.364,6.8492e-17,0,-1.5623e-15,0,0,1,-1.9825e-15,0,1,-0.96,-1.24,-0.96,-90,-1.0533,0.28,-0.0011275,0.7,0.94,0
0.18346,-4.6093e-17,0.28,-1.239,-0.931,-0.931,2.562e-16,0,0,-0.4004,2.2576e-16,0,6.6613e-16,0,0,1,0,0,1,-0.931,-1.239,-0.931,90,-1.0337,0.308,-0.0015006,0.72,0.94,0
0.17508,-4.1851e-17,0.26,-1.238,-0.902,-0.902,-1.0215e-16,0,0,-0.4368,6.1575e-16,0,-2.656e-16,0,0,1,0,0,1,-0.902,-1.238,-0.902,7.1054e-15,-1.014,0.336,-0.0019482,0.74,0.94,0
0.16598,-3.9772e-17,0.24,-1.237,-0.873,-0.873,1.7611e-16,0,0,-0.4732,5.2075e-16,0,4.579e-16,0,0,1,0,0,1,-0.873,-1.237,-0.873,-2.8422e-14,-0.99433,0.364,-0.002477,0.76,0.94,0
0.15616,-4.2635e-17,0.22,-1.236,-0.844,-0.844,-2.135e-16,0,0,-0.5096,5.6045e-16,0,-5.5511e-16,0,0,1,0,0,1,-0.844,-1.236,-0.844,-90,-0.97467,0.392,-0.0030937,0.78,0.94,0
0.1456,-6.4958e-17,0.2,-1.235,-0.815,-0.815,8.1551e-16,0,0,-0.546,1.7952e-16,0,2.1203e-15,0,0,1,4.0054e-16,0,1,-0.815,-1.235,-0.815,90,-0.955,0.42,-0.0038052,0.8,0.94,0
0.13432,6.1734e-17,0.18,-1.234,-0.786,-0.786,1.754e-16,0,0,-0.5824,-2.9032e-16,0,4.5605e-16,0,0,1,3.0114e-15,0,1,-0.786,-1.234,-0.786,90,-0.93533,0.448,-0.0046181,0.82,0.94,0
0.1223,5.0716e-17,0.16,-1.233,-0.757,-0.757,-3.1259e-17,0,0,-0.6188,-4.5067e-16,0,-8.1274e-17,0,0,1,-8.1274e-17,0,1,-0.757,-1.233,-0.757,0,-0.91567,0.476,-0.0055392,0.84,0.94,0
0.10956,4.4668e-17,0.14,-1.232,-0.728,-0.728,-8.959e-17,0,0,-0.6552,-5.2092e-16,0,-2.3293e-16,0,0,1,0,0,1,-0.728,-1.232,-0.728,-90,-0.896,0.504,-0.0065753,0.86,0.94,0
0.096096,4.3843e-17,0.12,-1.231,-0.699,-0.699,1.0103e-16,0,0,-0.6916,-5.6159e-16,0,2.6268e-16,0,0,1,0,0,1,-0.699,-1.231,-0.699,90,-0.87633,0.532,-0.0077332,0.88,0.94,0
0.0819,5.4183e-17,0.1,-1.23,-0.67,-0.67,2.2341e-16,0,0,-0.728,-5.0303e-16,0,5.8087e-16,0,0,1,-8.1274e-17,0,1,-0.67,-1.23,-0.67,90,-0.85667,0.56,-0.0090197,0.9,0.94,0
0.066976,6.3707e-17,0.08,-1.229,-0.641,-0.641,-6.1114e-16,0,0,-0.7644,-2.819e-16,0,-1.589e-15,0,0,1,-6.5724e-16,0,1,-0.641,-1.229,-0.641,-90,-0.837,0.588,-0.010441,0.92,0.94,0
0.051324,-5.1743e-17,0.06,-1.2198,-0.6085,-0.6085,-3.2097e-16,0,0,-0.79473,6.5342e-18,0,-8.3453e-16,0,0,1,-2.3384e-15,0,1,-0.6085,-1.2198,-0.6085,3.5527e-14,-0.81228,0.61133,-0.011743,0.94,0.94,0
0.034944,-3.3423e-17,0.04,-1.227,-0.583,-0.583,3.2964e-16,0,0,-0.8372,3.2613e-16,0,8.5707e-16,0,0,1,0,0,1,-0.583,-1.227,-0.583,90,-0.79767,0.644,-0.013718,0.96,0.94,0
0.017836,-2.5096e-17,0.02,-1.226,-0.554,-0.554,1.1016e-16,0,0,-0.8736,3.4804e-16,0,2.8642e-16,0,0,1,0,0,1,-0.554,-1.226,-0.554,90,-0.778,0.672,-0.015586,0.98,0.94,0
0,-2.3446e-17,0,-1.2005,-0.5145,-0.5145,2.688e-17,0,0,-0.8918,3.975e-16,0,6.9887e-17,0,0,1,0,0,1,-0.5145,-1.2005,-0.5145,90,-0.74317,0.686,-0.016581,1,0.94,0
0,4.3408e-18,1,-1.2995,-1.9855,-1.9855,-8.8543e-17,0,0,0.8918,-1.6973e-16,0,-2.3021e-16,0,0,1,0,0,1,-1.2995,-1.9855,-1.9855,-7.3952e-15,-1.7568,0.686,0.016581,0,0.96,0
0.017836,-1.8011e-18,0.98,-1.274,-1.946,-1.946,-1.3267e-16,0,0,0.8736,-2.7618e-18,0,-3.4495e-16,0,0,1,4.8212e-15,0,1,-1.274,-1.946,-1.946,-1.1312e-14,-1.722,0.672,0.015586,0.02,0.96,0
0.034944,-3.5747e-18,0.96,-1.273,-1.917,-1.917,1.8476e-16,0,0,0.8372,-7.1081e-17,0,4.8038e-16,0,0,1,-9.0241e-15,0,1,-1.273,-1.917,-1.917,1.6438e-14,-1.7023,0.644,0.013718,0.04,0.96,0
0.051324,7.9187e-18,0.94,-1.272,-1.888,-1.888,2.179e-16,0,0,0.8008,6.3538e-17,0,5.6653e-16,0,0,1,2.5137e-15,0,1,-1.272,-1.888,-1.888,2.0267e-14,-1.6827,0.616,0.012005,0.06,0.96,0
0.066976,3.1128e-17,0.92,-1.271,-1.859,-1.859,2.56e-16,0,0,0.7644,-1.6195e-16,0,6.656e-16,0,0,1,-3.7269e-15,0,1,-1.271,-1.859,-1.859,2.4945e-14,-1.663,0.588,0.010441,0.08,0.96,0
0.0819,-8.5532e-18,0.9,-1.27,-1.83,-1.83,-5.9551e-16,0,0,0.728,-8.4681e-17,0,-1.5483e-15,0,0,1,5.1782e-15,0,1,-1.27,-1.83,-1.83,-6.0929e-14,-1.6433,0.56,0.0090197,0.1,0.96,0
0.096096,-1.0568e-17,0.88,-1.269,-1.801,-1.801,5.833e-17,0,0,0.6916,-1.28e-16,0,1.5166e-16,0,0,1,-8.7109e-17,0,1,-1.269,-1.801,-1.801,6.2821e-15,-1.6237,0.532,0.0077332,0.12,0.96,0
0.10956,-5.1941e-18,0.86,-1.268,-1.772,-1.772,3.1607e-16,0,0,0.6552,-1.9392e-16,0,8.2178e-16,0,0,1,9.3811e-15,0,1,-1.268,-1.772,-1.772,3.5931e-14,-1.604,0.504,0.0065753,0.14,0.96,0
0.1223,3.9088e-17,0.84,-1.267,-1.743,-1.743,8.959e-17,0,0,0.6188,-3.6792e-16,0,2.3293e-16,0,0,1,-6.0664e-15,0,1,-1.267,-1.743,-1.743,1.0784e-14,-1.5843,0.476,0.0055392,0.16,0.96,0
0.13432,-1.0676e-17,0.82,-1.266,-1.714,-1.714,-5.8218e-16,0,0,0.5824,1.3811e-16,0,-1.5137e-15,0,0,1,3.9649e-15,0,1,-1.266,-1.714,-1.714,-7.4457e-14,-1.5647,0.448,0.0046181,0.18,0.96,0
0.1456,-1.7629e-17,0.8,-1.265,-1.685,-1.685,2.1657e-16,0,0,0.546,2.5952e-16,0,5.6308e-16,0,0,1,1.8635e-15,0,1,-1.265,-1.685,-1.685,2.9544e-14,-1.545,0.42,0.0038052,0.2,0.96,0
0.15616,2.8159e-17,0.78,-1.264,-1.656,-1.656,3.1259e-17,0,0,0.5096,1.2543e-17,0,8.1274e-17,0,0,1,-2.3076e-15,0,1,-1.264,-1.656,-1.656,4.5689e-15,-1.5253,0.392,0.0030937,0.22,0.96,0
0.16598,-3.363e-17,0.76,-1.263,-1.627,-1.627,-4.7809e-16,0,0,0.4732,5.155e-16,0,-1.243e-15,0,0,1,-6.7485e-15,0,1,-1.263,-1.627,-1.627,-7.5253e-14,-1.5057,0.364,0.002477,0.24,0.96,0
0.17508,-3.4133e-17,0.74,-1.262,-1.598,-1.598,-2.562e-16,0,0,0.4368,6.29e-16,0,-6.6613e-16,0,0,1,6.5019e-16,0,1,-1.262,-1.598,-1.598,-4.3689e-14,-1.486,0.336,0.0019482,0.26,0.96,0
0.18346,-5.5164e-17,0.72,-1.261,-1.569,-1.569,7.3736e-16,0,0,0.4004,3.4755e-16,0,1.9171e-15,0,0,1,3.6398e-15,0,1,-1.261,-1.569,-1.569,1.3717e-13,-1.4663,0.308,0.0015006,0.28,0.96,0
0.1911,3.3674e-17,0.7,-1.26,-1.54,-1.54,1.2269e-15,0,0,0.364,-7.352e-17,0,3.1899e-15,0,0,1,-9.7529e-16,0,1,-1.26,-1.54,-1.54,2.5105e-13,-1.4467,0.28,0.0011275,0.3,0.96,0
0.19802,2.8881e-17,0.68,-1.259,-1.511,-1.511,5.3223e-16,0,0,0.3276,-4.7745e-16,0,1.3838e-15,0,0,1,0,0,1,-1.259,-1.511,-1.511,1.2101e-13,-1.427,0.252,0.00082192,0.32,0.96,0
0.2042,4.0959e-17,0.66,-1.258,-1.482,-1.482,-7.4573e-16,0,0,0.2912,-3.8502e-16,0,-1.9389e-15,0,0,1,-6.5019e-16,0,1,-1.258,-1.482,-1.482,-1.9075e-13,-1.4073,0.224,0.00057726,0.34,0.96,0
0.20966,-4.8499e-17,0.64,-1.257,-1.453,-1.453,-7.1447e-16,0,0,0.2548,4.449e-16,0,-1.8576e-15,0,0,1,-1.7764e-15,0,1,-1.257,-1.453,-1.453,-2.0886e-13,-1.3877,0.196,0.00038672,0.36,0.96,0
0.2144,-4.0612e-17,0.62,-1.256,-1.424,-1.424,-3.0815e-32,0,0,0.2184,8.1966e-16,0,-6.163e-32,0,0,1,0,0,1,-1.256,-1.424,-1.424,-1.0509e-29,-1.368,0.168,0.00024353,0.38,0.96,0
0.2184,-4.0895e-17,0.6,-1.255,-1.395,-1.395,8.8468e-17,0,0,0.182,4.3465e-16,0,2.3002e-16,0,0,1,1.8635e-15,0,1,-1.255,-1.395,-1.395,3.6206e-14,-1.3483,0.14,0.00014093,0.4,0.96,0
0.22168,3.296e-17,0.58,-1.254,-1.366,-1.366,7.9681e-16,0,0,0.1456,-7.3692e-17,0,2.0717e-15,0,0,1,-2.7516e-15,0,1,-1.254,-1.366,-1.366,4.0762e-13,-1.3287,0.112,7.2157e-05,0.42,0.96,0
0.22422,2.1553e-17,0.56,-1.253,-1.337,-1.337,-1.1666e-16,0,0,0.1092,-4.1807e-16,0,-3.0332e-16,0,0,1,0,0,1,-1.253,-1.337,-1.337,-7.9574e-14,-1.309,0.084,3.0441e-05,0.44,0.96,0
0.22604,3.068e-17,0.54,-1.252,-1.308,-1.308,-2.7071e-16,0,0,0.0728,-1.785e-16,0,-7.0385e-16,0,0,1,-2.1014e-15,0,1,-1.252,-1.308,-1.308,-2.7698e-13,-1.2893,0.056,9.0196e-06,0.46,0.96,0
0.22714,-4.9256e-17,0.52,-1.251,-1.279,-1.279,-6.2907e-16,0,0,0.0364,4.4558e-16,0,-1.6356e-15,0,0,1,-5.6308e-16,0,1,-1.251,-1.279,-1.279,-1.2873e-12,-1.2697,0.028,1.1275e-06,0.48,0.96,0
0.2275,-3.3169e-17,0.5,-1.25,-1.25,-1.25,-8.2336e-17,0,0,-1.0452e-15,8.0492e-16,0,-2.1407e-16,0,0,1,-6.0664e-16,0,1,-1.25,-1.25,-1.25,-86.477,-1.25,1.1854e-15,6.8316e-47,0.5,0.96,0
0.22714,-3.1069e-17,0.48,-1.249,-1.221,-1.221,4.979e-16,0,0,-0.0364,7.2817e-16,0,1.2945e-15,0,0,1,3.251e-16,0,1,-1.221,-1.249,-1.221,90,-1.2303,0.028,-1.1275e-06,0.52,0.96,0
0.22604,-4.6931e-17,0.46,-1.248,-1.192,-1.192,-4.6664e-16,0,0,-0.0728,8.9047e-16,0,-1.2133e-15,0,0,1,-6.0664e-16,0,1,-1.192,-1.248,-1.192,-90,-1.2107,0.056,-9.0196e-06,0.54,0.96,0
0.22422,-7.1143e-17,0.44,-1.247,-1.163,-1.163,1.2093e-15,0,0,-0.1092,5.0237e-16,0,3.1442e-15,0,0,1,-8.1274e-16,0,1,-1.163,-1.247,-1.163,90,-1.191,0.084,-3.0441e-05,0.56,0.96,0
0.22168,6.3235e-17,0.42,-1.246,-1.134,-1.134,3.9882e-16,0,0,-0.1456,-1.6128e-16,0,1.0369e-15,0,0,1,3.0332e-15,0,1,-1.134,-1.246,-1.134,90,-1.1713,0.112,-7.2157e-05,0.58,0.96,0
0.2184,3.9806e-17,0.4,-1.245,-1.105,-1.105,-7.1141e-16,0,0,-0.182,-7.3155e-16,0,-1.8497e-15,0,0,1,0,0,1,-1.105,-1.245,-1.105,-90,-1.1517,0.14,-0.00014093,0.6,0.96,0
0.2144,3.3068e-17,0.38,-1.244,-1.076,-1.076,-4.2701e-17,0,0,-0.2184,-8.9456e-16,0,-1.1102e-16,0,0,1,0,0,1,-1.076,-1.244,-1.076,-90,-1.132,0.168,-0.00024353,0.62,0.96,0
0.20966,3.4556e-17,0.36,-1.243,-1.047,-1.047,3.9268e-16,0,0,-0.2548,-7.5894e-16,0,1.021e-15,0,0,1,6.0664e-16,0,1,-1.047,-1.243,-1.047,90,-1.1123,0.196,-0.00038672,0.64,0.96,0
0.2042,5.1861e-17,0.34,-1.242,-1.018,-1.018,5.1241e-16,0,0,-0.2912,-8.7402e-16,0,1.3323e-15,0,0,1,-1.6255e-16,0,1,-1.018,-1.242,-1.018,90,-1.0927,0.224,-0.00057726,0.66,0.96,0
0.19802,7.134e-17,0.32,-1.241,-0.989,-0.989,-1.1041e-15,0,0,-0.3276,-7.2101e-16,0,-2.8706e-15,0,0,1,4.3555e-17,0,1,-0.989,-1.241,-0.989,-90,-1.073,0.252,-0.00082192,0.68,0.96,0
0.1911,-5.3246e-17,0.3,-1.24,-0.96,-0.96,-3.0197e-16,0,0,-0.364,3.1886e-16,0,-7.8513e-16,0,0,1,-2.264e-15,0,1,-0.96,-1.24,-0.96,-90,-1.0533,0.28,-0.0011275,0.7,0.96,0
0.18346,-4.0324e-17,0.28,-1.239,-0.931,-0.931,3.8431e-16,0,0,-0.4004,7.413e-16,0,9.992e-16,0,0,1,0,0,1,-0.931,-1.239,-0.931,90,-1.0337,0.308,-0.0015006,0.72,0.96,0
0.17508,-2.5123e-17,0.26,-1.238,-0.902,-0.902,-1.708e-16,0,0,-0.4368,5.729e-16,0,-4.4409e-16,0,0,1,-1.4077e-16,0,1,-0.902,-1.238,-0.902,-90,-1.014,0.336,-0.0019482,0.74,0.96,0
0.16598,-3.1205e-17,0.24,-1.237,-0.873,-0.873,-3.1259e-17,0,0,-0.4732,7.0952e-16,0,-8.1274e-17,0,0,1,-1.0507e-15,0,1,-0.873,-1.237,-0.873,-90,-0.99433,0.364,-0.002477,0.76,0.96,0
0.15616,-3.5766e-17,0.22,-1.236,-0.844,-0.844,-3.1872e-16,0,0,-0.5096,5.4539e-16,0,-8.2868e-16,0,0,1,-1.4077e-16,0,1,-0.844,-1.236,-0.844,-90,-0.97467,0.392,-0.0030937,0.78,0.96,0
0.1456,-5.7155e-17,0.2,-1.235,-0.815,-0.815,9.3329e-16,0,0,-0.546,6.2836e-16,0,2.4265e-15,0,0,1,5.6308e-16,0,1,-0.815,-1.235,-0.815,90,-0.955,0.42,-0.0038052,0.8,0.96,0
0.13432,5.3834e-17,0.18,-1.234,-0.786,-0.786,3.7391e-17,0,0,-0.5824,-5.651e-16,0,9.7216e-17,0,0,1,1.7981e-15,0,1,-0.786,-1.234,-0.786,90,-0.93533,0.448,-0.0046181,0.82,0.96,0
0.1223,3.7795e-17,0.16,-1.233,-0.757,-0.757,-1.8531e-16,0,0,-0.6188,-7.8947e-16,0,-4.8181e-16,0,0,1,-2.2204e-16,0,1,-0.757,-1.233,-0.757,-90,-0.91567,0.476,-0.0055392,0.84,0.96,0
0.10956,3.1553e-17,0.14,-1.232,-0.728,-0.728,-9.9088e-18,0,0,-0.6552,-6.9879e-16,0,-2.5763e-17,0,0,1,8.1274e-17,0,1,-0.728,-1.232,-0.728,-90,-0.896,0.504,-0.0065753,0.86,0.96,0
0.096096,2.8813e-17,0.12,-1.231,-0.699,-0.699,-2.5538e-17,0,0,-0.6916,-7.163e-16,0,-6.64e-17,0,0,1,1.1102e-16,0,1,-0.699,-1.231,-0.699,-90,-0.87633,0.532,-0.0077332,0.88,0.96,0
0.0819,3.8627e-17,0.1,-1.23,-0.67,-0.67,2.3772e-16,0,0,-0.728,-9.0301e-16,0,6.1806e-16,0,0,1,2.2204e-16,0,1,-0.67,-1.23,-0.67,90,-0.85667,0.56,-0.0090197,0.9,0.96,0
0.066976,5.6464e-17,0.08,-1.229,-0.641,-0.641,-5.1946e-16,0,0,-0.7644,-5.8058e-16,0,-1.3506e-15,0,0,1,-8.2922e-16,0,1,-0.641,-1.229,-0.641,-90,-0.837,0.588,-0.010441,0.92,0.96,0
0.051324,-4.8513e-17,0.06,-1.228,-0.612,-0.612,-1.9397e-16,0,0,-0.8008,4.0067e-16,0,-5.0431e-16,0,0,1,-1.2145e-15,0,1,-0.612,-1.228,-0.612,-90,-0.81733,0.616,-0.012005,0.94,0.96,0
0.034944,-2.561e-17,0.04,-1.227,-0.583,-0.583,3.5104e-16,0,0,-0.8372,4.7884e-16,0,9.1271e-16,0,0,1,1.083e-16,0,1,-0.583,-1.227,-0.583,90,-0.79767,0.644,-0.013718,0.96,0.96,0
0.017836,-1.9191e-17,0.02,-1.226,-0.554,-0.554,7.232e-17,0,0,-0.8736,4.2699e-16,0,1.8803e-16,0,0,1,8.8346e-17,0,1,-0.554,-1.226,-0.554,90,-0.778,0.672,-0.015586,0.98,0.96,0
0,-1.4946e-17,0,-1.2005,-0.5145,-0.5145,8.7356e-17,0,0,-0.8918,3.6595e-16,0,2.2712e-16,0,0,1,1.7596e-17,0,1,-0.5145,-1.2005,-0.5145,90,-0.74317,0.686,-0.016581,1,0.96,0
0,1.1878e-18,1,-1.2995,-1.9855,-1.9855,-1.2899e-18,0,0,0.8918,-1.0852e-16,0,-3.3538e-18,0,0,1,0,0,1,-1.2995,-1.9855,-1.9855,-1.0774e-16,-1.7568,0.686,0.016581,0,0.98,0
0.017836,2.5329e-18,0.98,-1.274,-1.946,-1.946,-1.0982e-16,0,0,0.8736,4.5028e-17,0,-2.8554e-16,0,0,1,4.4961e-15,0,1,-1.274,-1.946,-1.946,-9.3637e-15,-1.722,0.672,0.015586,0.02,0.98,0
0.034944,-5.3064e-18,0.96,-1.273,-1.917,-1.917,1.4973e-16,0,0,0.8372,8.9368e-17,0,3.8931e-16,0,0,1,-9.6743e-15,0,1,-1.273,-1.917,-1.917,1.3322e-14,-1.7023,0.644,0.013718,0.04,0.98,0
0.051324,7.3532e-18,0.94,-1.272,-1.888,-1.888,3.1178e-16,0,0,0.8008,-1.9797e-16,0,8.1062e-16,0,0,1,3.7269e-15,0,1,-1.272,-1.888,-1.888,2.8999e-14,-1.6827,0.616,0.012005,0.06,0.98,0
0.066976,2.321e-17,0.92,-1.271,-1.859,-1.859,-1.8224e-16,0,0,0.7644,-7.7821e-16,0,-4.7384e-16,0,0,1,1.0072e-15,0,1,-1.271,-1.859,-1.859,-1.7758e-14,-1.663,0.588,0.010441,0.08,0.98,0
0.0819,-8.5943e-18,0.9,-1.27,-1.83,-1.83,-2.3772e-16,0,0,0.728,2.1383e-16,0,-6.1806e-16,0,0,1,3.5208e-15,0,1,-1.27,-1.83,-1.83,-2.4322e-14,-1.6433,0.56,0.0090197,0.1,0.98,0
0.096096,-7.5135e-18,0.88,-1.269,-1.801,-1.801,-4.2701e-17,0,0,0.6916,2.642e-16,0,-1.1102e-16,0,0,1,0,0,1,-1.269,-1.801,-1.801,-4.5988e-15,-1.6237,0.532,0.0077332,0.12,0.98,0
0.10956,-7.2821e-18,0.86,-1.268,-1.772,-1.772,2.2883e-17,0,0,0.6552,1.2985e-16,0,5.9497e-17,0,0,1,2.7516e-15,0,1,-1.268,-1.772,-1.772,2.6014e-15,-1.604,0.504,0.0065753,0.14,0.98,0
0.1223,2.9559e-17,0.84,-1.267,-1.743,-1.743,2.9582e-31,0,0,0.6188,-9.7719e-16,0,6.9025e-31,0,0,1,-4.29e-15,0,1,-1.267,-1.743,-1.743,3.5608e-29,-1.5843,0.476,0.0055392,0.16,0.98,0
0.13432,-1.1086e-17,0.82,-1.266,-1.714,-1.714,-3.6868e-16,0,0,0.5824,2.6691e-16,0,-9.5856e-16,0,0,1,6.5019e-16,0,1,-1.266,-1.714,-1.714,-4.7151e-14,-1.5647,0.448,0.0046181,0.18,0.98,0
0.1456,-1.1328e-17,0.8,-1.265,-1.685,-1.685,2.8174e-16,0,0,0.546,4.4072e-16,0,7.3253e-16,0,0,1,1.8635e-15,0,1,-1.265,-1.685,-1.685,3.8435e-14,-1.545,0.42,0.0038052,0.2,0.98,0
0.15616,2.2468e-17,0.78,-1.264,-1.656,-1.656,-2.4476e-16,0,0,0.5096,-7.0398e-16,0,-6.3638e-16,0,0,1,-3.6398e-15,0,1,-1.264,-1.656,-1.656,-3.5775e-14,-1.5253,0.392,0.0030937,0.22,0.98,0
0.16598,-2.0347e-17,0.76,-1.263,-1.627,-1.627,-3.9575e-16,0,0,0.4732,8.4076e-16,0,-1.029e-15,0,0,1,-8.8818e-16,0,1,-1.263,-1.627,-1.627,-6.2293e-14,-1.5057,0.364,0.002477,0.24,0.98,0
0.17508,-1.7925e-17,0.74,-1.262,-1.598,-1.598,1.281e-16,0,0,0.4368,8.5332e-16,0,3.3307e-16,0,0,1,0,0,1,-1.262,-1.598,-1.598,2.1844e-14,-1.486,0.336,0.0019482,0.26,0.98,0
0.18346,-4.193e-17,0.72,-1.261,-1.569,-1.569,7.0303e-16,0,0,0.4004,1.3791e-15,0,1.8279e-15,0,0,1,3.6398e-15,0,1,-1.261,-1.569,-1.569,1.3078e-13,-1.4663,0.308,0.0015006,0.28,0.98,0
0.1911,2.8786e-17,0.7,-1.26,-1.54,-1.54,5.6349e-16,0,0,0.364,-8.4186e-16,0,1.4651e-15,0,0,1,-9.7529e-16,0,1,-1.26,-1.54,-1.54,1.1531e-13,-1.4467,0.28,0.0011275,0.3,0.98,0
0.19802,1.5025e-17,0.68,-1.259,-1.511,-1.511,4.2701e-17,0,0,0.3276,-7.2203e-16,0,1.1102e-16,0,0,1,0,0,1,-1.259,-1.511,-1.511,9.7087e-15,-1.427,0.252,0.00082192,0.32,0.98,0
0.2042,3.5529e-17,0.66,-1.258,-1.482,-1.482,-6.1456e-16,0,0,0.2912,-1.024e-15,0,-1.5979e-15,0,0,1,0,0,1,-1.258,-1.482,-1.482,-1.572e-13,-1.4073,0.224,0.00057726,0.34,0.98,0
0.20966,-3.4792e-17,0.64,-1.257,-1.453,-1.453,-1.3954e-16,0,0,0.2548,1.2125e-15,0,-3.6282e-16,0,0,1,1.5384e-15,0,1,-1.257,-1.453,-1.453,-4.0792e-14,-1.3877,0.196,0.00038672,0.36,0.98,0
0.2144,-2.2966e-17,0.62,-1.256,-1.424,-1.424,1.708e-16,0,0,0.2184,1.0153e-15,0,4.4409e-16,0,0,1,0,0,1,-1.256,-1.424,-1.424,5.8252e-14,-1.368,0.168,0.00024353,0.38,0.98,0
0.2184,-2.9694e-17,0.6,-1.255,-1.395,-1.395,1.9369e-16,0,0,0.182,1.0224e-15,0,5.0359e-16,0,0,1,2.6326e-15,0,1,-1.255,-1.395,-1.395,7.9267e-14,-1.3483,0.14,0.00014093,0.4,0.98,0
0.22168,2.5855e-17,0.58,-1.254,-1.366,-1.366,2.844e-16,0,0,0.1456,-8.24e-16,0,7.3944e-16,0,0,1,-5.2972e-15,0,1,-1.254,-1.366,-1.366,1.4549e-13,-1.3287,0.112,7.2157e-05,0.42,0.98,0
0.22422,1.4068e-17,0.56,-1.253,-1.337,-1.337,-2.7602e-16,0,0,0.1092,-5.3883e-16,0,-7.1766e-16,0,0,1,-4.9304e-32,0,1,-1.253,-1.337,-1.337,-1.8827e-13,-1.309,0.084,3.0441e-05,0.44,0.98,0
0.22604,2.2754e-17,0.54,-1.252,-1.308,-1.308,-9.6843e-17,0,0,0.0728,-7.6701e-16,0,-2.5179e-16,0,0,1,-5.0359e-16,0,1,-1.252,-1.308,-1.308,-9.9084e-14,-1.2893,0.056,9.0196e-06,0.46,0.98,0
0.22714,-3.445e-17,0.52,-1.251,-1.279,-1.279,-6.4889e-16,0,0,0.0364,1.2314e-15,0,-1.6871e-15,0,0,1,6.6613e-16,0,1,-1.251,-1.279,-1.279,-1.3278e-12,-1.2697,0.028,1.1275e-06,0.48,0.98,0
0.2275,-1.5063e-17,0.5,-1.25,-1.25,-1.25,-1.0522e-16,0,0,1.6046e-16,8.2922e-16,0,-2.7357e-16,0,0,1,0,0,1,-1.25,-1.25,-1.25,-77.323,-1.25,6.0809e-16,0,0.5,0.98,0
0.22714,-1.4228e-17,0.48,-1.249,-1.221,-1.221,7.5411e-16,0,0,-0.0364,7.7672e-16,0,1.9607e-15,0,0,1,0,0,1,-1.221,-1.249,-1.221,90,-1.2303,0.028,-1.1275e-06,0.52,0.98,0
0.22604,-2.4041e-17,0.46,-1.248,-1.192,-1.192,-6.1763e-16,0,0,-0.0728,1.1733e-15,0,-1.6058e-15,0,0,1,-2.8154e-16,0,1,-1.192,-1.248,-1.192,-90,-1.2107,0.056,-9.0196e-06,0.54,0.98,0
0.22422,-5.7252e-17,0.44,-1.247,-1.163,-1.163,7.3122e-16,0,0,-0.1092,1.7786e-15,0,1.9012e-15,0,0,1,-3.5208e-15,0,1,-1.163,-1.247,-1.163,90,-1.191,0.084,-3.0441e-05,0.56,0.98,0
0.22168,5.4445e-17,0.42,-1.246,-1.134,-1.134,4.6133e-16,0,0,-0.1456,-1.5809e-15,0,1.1995e-15,0,0,1,3.8024e-15,0,1,-1.134,-1.246,-1.134,90,-1.1713,0.112,-7.2157e-05,0.58,0.98,0
0.2184,1.8559e-17,0.4,-1.245,-1.105,-1.105,3.1259e-17,0,0,-0.182,-9.9515e-16,0,8.1274e-17,0,0,1,-2.4265e-15,0,1,-1.105,-1.245,-1.105,90,-1.1517,0.14,-0.00014093,0.6,0.98,0
0.2144,1.4299e-17,0.38,-1.244,-1.076,-1.076,1.3954e-16,0,0,-0.2184,-8.2671e-16,0,3.6282e-16,0,0,1,3.251e-16,0,1,-1.076,-1.244,-1.076,90,-1.132,0.168,-0.00024353,0.62,0.98,0
0.20966,2.0744e-17,0.36,-1.243,-1.047,-1.047,-1.8224e-16,0,0,-0.2548,-8.639e-16,0,-4.7384e-16,0,0,1,0,0,1,-1.047,-1.243,-1.047,-90,-1.1123,0.196,-0.00038672,0.64,0.98,0
0.2042,2.5295e-17,0.34,-1.242,-1.018,-1.018,3.1035e-16,0,0,-0.2912,-1.2965e-15,0,8.069e-16,0,0,1,4.4409e-16,0,1,-1.018,-1.242,-1.018,90,-1.0927,0.224,-0.00057726,0.66,0.98,0
0.19802,5.0905e-17,0.32,-1.241,-0.989,-0.989,-4.3232e-16,0,0,-0.3276,-1.7835e-15,0,-1.124e-15,0,0,1,1.0943e-15,0,1,-0.989,-1.241,-0.989,-90,-1.073,0.252,-0.00082192,0.68,0.98,0
0.1911,-4.075e-17,0.3,-1.24,-0.96,-0.96,-3.1035e-16,0,0,-0.364,1.3311e-15,0,-8.069e-16,0,0,1,-2.4265e-15,0,1,-0.96,-1.24,-0.96,-90,-1.0533,0.28,-0.0011275,0.7,0.98,0
0.18346,-1.6441e-17,0.28,-1.239,-0.931,-0.931,2.6458e-16,0,0,-0.4004,1.0081e-15,0,6.8791e-16,0,0,1,0,0,1,-0.931,-1.239,-0.931,90,-1.0337,0.308,-0.0015006,0.72,0.98,0
0.17508,-1.8935e-17,0.26,-1.238,-0.902,-0.902,1.1442e-17,0,0,-0.4368,6.2807e-16,0,2.9748e-17,0,0,1,2.9582e-31,0,1,-0.902,-1.238,-0.902,90,-1.014,0.336,-0.0019482,0.74,0.98,0
0.16598,-1.1391e-17,0.24,-1.237,-0.873,-0.873,8.5402e-17,0,0,-0.4732,7.8012e-16,0,2.2204e-16,0,0,1,1.6255e-16,0,1,-0.873,-1.237,-0.873,90,-0.99433,0.364,-0.002477,0.76,0.98,0
0.15616,-2.0819e-17,0.22,-1.236,-0.844,-0.844,-4.4683e-16,0,0,-0.5096,8.9416e-16,0,-1.1617e-15,0,0,1,-1.132e-15,0,1,-0.844,-1.236,-0.844,-90,-0.97467,0.392,-0.0030937,0.78,0.98,0
0.1456,-3.9824e-17,0.2,-1.235,-0.815,-0.815,8.3798e-16,0,0,-0.546,1.4289e-15,0,2.1787e-15,0,0,1,3.1129e-16,0,1,-0.815,-1.235,-0.815,90,-0.955,0.42,-0.0038052,0.8,0.98,0
0.13432,3.913e-17,0.18,-1.234,-0.786,-0.786,-3.557e-16,0,0,-0.5824,-1.3459e-15,0,-9.2483e-16,0,0,1,1.1617e-15,0,1,-0.786,-1.234,-0.786,-90,-0.93533,0.448,-0.0046181,0.82,0.98,0
0.1223,1.9137e-17,0.16,-1.233,-0.757,-0.757,-1.1442e-17,0,0,-0.6188,-9.4487e-16,0,-2.9748e-17,0,0,1,8.1274e-17,0,1,-0.757,-1.233,-0.757,-90,-0.91567,0.476,-0.0055392,0.84,0.98,0
0.10956,1.6716e-17,0.14,-1.232,-0.728,-0.728,-2.3904e-16,0,0,-0.6552,-7.8882e-16,0,-6.2151e-16,0,0,1,0,0,1,-0.728,-1.232,-0.728,-90,-0.896,0.504,-0.0065753,0.86,0.98,0
0.096096,1.5191e-17,0.12,-1.231,-0.699,-0.699,1.5936e-16,0,0,-0.6916,-7.2032e-16,0,4.1434e-16,0,0,1,1.1102e-16,0,1,-0.699,-1.231,-0.699,90,-0.87633,0.532,-0.0077332,0.88,0.98,0
0.0819,1.8063e-17,0.1,-1.23,-0.67,-0.67,1.6432e-16,0,0,-0.728,-9.6567e-16,0,4.2722e-16,0,0,1,2.9243e-16,0,1,-0.67,-1.23,-0.67,90,-0.85667,0.56,-0.0090197,0.9,0.98,0
0.066976,4.0484e-17,0.08,-1.229,-0.641,-0.641,-2.4686e-16,0,0,-0.7644,-1.4116e-15,0,-6.4183e-16,0,0,1,-2.409e-16,0,1,-0.641,-1.229,-0.641,-90,-0.837,0.588,-0.010441,0.92,0.98,0
0.051324,-3.5717e-17,0.06,-1.228,-0.612,-0.612,-1.4059e-16,0,0,-0.8008,1.2128e-15,0,-3.6554e-16,0,0,1,-9.0378e-16,0,1,-0.612,-1.228,-0.612,-90,-0.81733,0.616,-0.012005,0.94,0.98,0
0.034944,-1.4269e-17,0.04,-1.227,-0.583,-0.583,2.8637e-16,0,0,-0.8372,6.4025e-16,0,7.4455e-16,0,0,1,1.1301e-16,0,1,-0.583,-1.227,-0.583,90,-0.79767,0.644,-0.013718,0.96,0.98,0
0.017836,-8.0163e-18,0.02,-1.226,-0.554,-0.554,5.8286e-17,0,0,-0.8736,4.7977e-16,0,1.5154e-16,0,0,1,1.7596e-17,0,1,-0.554,-1.226,-0.554,90,-0.778,0.672,-0.015586,0.98,0.98,0
0,-8.8079e-18,0,-1.2005,-0.5145,-0.5145,-5.0848e-17,0,0,-0.8918,3.7365e-16,0,-1.322e-16,0,0,1,-6.163e-33,0,1,-0.5145,-1.2005,-0.5145,-90,-0.74317,0.686,-0.016581,1,0.98,0
0,0,1,-1.2995,-1.9855,-1.9855,1.4966e-17,0,0,0.8918,-5.939e-17,0,3.8911e-17,0,0,1,0,0,1,-1.2995,-1.9855,-1.9855,1.25e-15,-1.7568,0.686,0.016581,0,1,0
0.017836,0,0.98,-1.274,-1.946,-1.946,-6.5954e-17,0,0,0.8736,-1.2665e-16,0,-1.7148e-16,0,0,1,5.5033e-15,0,1,-1.274,-1.946,-1.946,-5.6233e-15,-1.722,0.672,0.015586,0.02,1,0
0.034944,0,0.96,-1.273,-1.917,-1.917,3.6676e-16,0,0,0.8372,2.6532e-16,0,9.5358e-16,0,0,1,-7.6918e-15,0,1,-1.273,-1.917,-1.917,3.263e-14,-1.7023,0.644,0.013718,0.04,1,0
0.051324,0,0.94,-1.272,-1.888,-1.888,-1.9767e-16,0,0,0.8008,-3.6766e-16,0,-5.1394e-16,0,0,1,9.294e-15,0,1,-1.272,-1.888,-1.888,-1.8386e-14,-1.6827,0.616,0.012005,0.06,1,0
0.066976,0,0.92,-1.271,-1.859,-1.859,-7.2537e-18,0,0,0.7644,-1.1605e-15,0,-1.886e-17,0,0,1,-1.172e-14,0,1,-1.271,-1.859,-1.859,-7.0682e-16,-1.663,0.588,0.010441,0.08,1,0
0.0819,0,0.9,-1.27,-1.83,-1.83,1.99e-16,0,0,0.728,4.2971e-16,0,5.1739e-16,0,0,1,3.3147e-15,0,1,-1.27,-1.83,-1.83,2.036e-14,-1.6433,0.56,0.0090197,0.1,1,0
0.096096,0,0.88,-1.269,-1.801,-1.801,1.708e-16,0,0,0.6916,3.7568e-16,0,4.4409e-16,0,0,1,0,0,1,-1.269,-1.801,-1.801,1.8395e-14,-1.6237,0.532,0.0077332,0.12,1,0
0.10956,0,0.86,-1.268,-1.772,-1.772,-2.1044e-16,0,0,0.6552,3.6411e-16,0,-5.4714e-16,0,0,1,-3.1405e-15,0,1,-1.268,-1.772,-1.772,-2.3923e-14,-1.604,0.504,0.0065753,0.14,1,0
0.1223,0,0.84,-1.267,-1.743,-1.743,-3.7287e-16,0,0,0.6188,-1.478e-15,0,-9.6945e-16,0,0,1,7.3434e-15,0,1,-1.267,-1.743,-1.743,-4.4882e-14,-1.5843,0.476,0.0055392,0.16,1,0
0.13432,0,0.82,-1.266,-1.714,-1.714,-4.1863e-16,0,0,0.5824,5.543e-16,0,-1.0884e-15,0,0,1,-4.7597e-16,0,1,-1.266,-1.714,-1.714,-5.354e-14,-1.5647,0.448,0.0046181,0.18,1,0
0.1456,0,0.8,-1.265,-1.685,-1.685,-6.2518e-17,0,0,0.546,5.6643e-16,0,-1.6255e-16,0,0,1,3.9649e-15,0,1,-1.265,-1.685,-1.685,-8.5287e-15,-1.545,0.42,0.0038052,0.2,1,0
0.15616,0,0.78,-1.264,-1.656,-1.656,-3.8124e-16,0,0,0.5096,-1.1234e-15,0,-9.9123e-16,0,0,1,-6.8674e-15,0,1,-1.264,-1.656,-1.656,-5.5723e-14,-1.5253,0.392,0.0030937,0.22,1,0
0.16598,0,0.76,-1.263,-1.627,-1.627,-4.5767e-17,0,0,0.4732,1.0173e-15,0,-1.1899e-16,0,0,1,1.7764e-15,0,1,-1.263,-1.627,-1.627,-7.204e-15,-1.5057,0.364,0.002477,0.24,1,0
0.17508,0,0.74,-1.262,-1.598,-1.598,-2.562e-16,0,0,0.4368,8.9626e-16,0,-6.6613e-16,0,0,1,0,0,1,-1.262,-1.598,-1.598,-4.3689e-14,-1.486,0.336,0.0019482,0.26,1,0
0.18346,0,0.72,-1.261,-1.569,-1.569,8.5402e-17,0,0,0.4004,2.0965e-15,0,2.2204e-16,0,0,1,1.5384e-15,0,1,-1.261,-1.569,-1.569,1.5887e-14,-1.4663,0.308,0.0015006,0.28,1,0
0.1911,0,0.7,-1.26,-1.54,-1.54,3.0197e-16,0,0,0.364,-1.4393e-15,0,7.8513e-16,0,0,1,-4.1221e-16,0,1,-1.26,-1.54,-1.54,6.1792e-14,-1.4467,0.28,0.0011275,0.3,1,0
0.19802,0,0.68,-1.259,-1.511,-1.511,4.0413e-16,0,0,0.3276,-7.5125e-16,0,1.0507e-15,0,0,1,0,0,1,-1.259,-1.511,-1.511,9.1884e-14,-1.427,0.252,0.00082192,0.32,1,0
0.2042,0,0.66,-1.258,-1.482,-1.482,-4.4989e-16,0,0,0.2912,-1.7765e-15,0,-1.1697e-15,0,0,1,-3.3147e-15,0,1,-1.258,-1.482,-1.482,-1.1508e-13,-1.4073,0.224,0.00057726,0.34,1,0
0.20966,0,0.64,-1.257,-1.453,-1.453,7.7924e-16,0,0,0.2548,1.7396e-15,0,2.026e-15,0,0,1,8.8818e-16,0,1,-1.257,-1.453,-1.453,2.2779e-13,-1.3877,0.196,0.00038672,0.36,1,0
0.2144,0,0.62,-1.256,-1.424,-1.424,1.0829e-16,0,0,0.2184,1.1483e-15,0,2.8154e-16,0,0,1,0,0,1,-1.256,-1.424,-1.424,3.693e-14,-1.368,0.168,0.00024353,0.38,1,0
0.2184,0,0.6,-1.255,-1.395,-1.395,-1.0215e-16,0,0,0.182,1.4847e-15,0,-2.656e-16,0,0,1,1.3004e-15,0,1,-1.255,-1.395,-1.395,-4.1807e-14,-1.3483,0.14,0.00014093,0.4,1,0
0.22168,0,0.58,-1.254,-1.366,-1.366,4.8953e-16,0,0,0.1456,-1.2928e-15,0,1.2728e-15,0,0,1,-7.2796e-15,0,1,-1.254,-1.366,-1.366,2.5043e-13,-1.3287,0.112,7.2157e-05,0.42,1,0
0.22422,0,0.56,-1.253,-1.337,-1.337,-2.3332e-16,0,0,0.1092,-7.034e-16,0,-6.0664e-16,0,0,1,1.9721e-31,0,1,-1.253,-1.337,-1.337,-1.5915e-13,-1.309,0.084,3.0441e-05,0.44,1,0
0.22604,0,0.54,-1.252,-1.308,-1.308,1.0215e-16,0,0,0.0728,-1.1377e-15,0,2.656e-16,0,0,1,5.2972e-15,0,1,-1.252,-1.308,-1.308,1.0452e-13,-1.2893,0.056,9.0196e-06,0.46,1,0
0.22714,0,0.52,-1.251,-1.279,-1.279,-4.8953e-16,0,0,0.0364,1.7225e-15,0,-1.2728e-15,0,0,1,7.6918e-16,0,1,-1.251,-1.279,-1.279,-1.0017e-12,-1.2697,0.028,1.1275e-06,0.48,1,0
0.2275,0,0.5,-1.25,-1.25,-1.25,6.865e-17,0,0,6.9389e-18,7.5313e-16,0,1.7849e-16,0,0,1,0,0,1,-1.25,-1.25,-1.25,74.135,-1.25,9.0195e-16,2.2772e-47,0.5,1,0
0.22714,0,0.48,-1.249,-1.221,-1.221,-6.865e-17,0,0,-0.0364,7.1139e-16,0,-1.7849e-16,0,0,1,0,0,1,-1.221,-1.249,-1.221,-90,-1.2303,0.028,-1.1275e-06,0.52,1,0
0.22604,0,0.46,-1.248,-1.192,-1.192,2.5007e-16,0,0,-0.0728,1.2021e-15,0,6.5019e-16,0,0,1,-5.6308e-16,0,1,-1.192,-1.248,-1.192,90,-1.2107,0.056,-9.0196e-06,0.54,1,0
0.22422,0,0.44,-1.247,-1.163,-1.163,-5.688e-16,0,0,-0.1092,2.8626e-15,0,-1.4789e-15,0,0,1,-4.409e-15,0,1,-1.163,-1.247,-1.163,-90,-1.191,0.084,-3.0441e-05,0.56,1,0
0.22168,0,0.42,-1.246,-1.134,-1.134,-1.2749e-15,0,0,-0.1456,-2.7223e-15,0,-3.3147e-15,0,0,1,5.0592e-15,0,1,-1.134,-1.246,-1.134,-90,-1.1713,0.112,-7.2157e-05,0.58,1,0
0.2184,0,0.4,-1.245,-1.105,-1.105,-1.4792e-16,0,0,-0.182,-9.2795e-16,0,-3.8459e-16,0,0,1,-4.8531e-15,0,1,-1.105,-1.245,-1.105,-90,-1.1517,0.14,-0.00014093,0.6,1,0
0.2144,0,0.38,-1.244,-1.076,-1.076,-3.1872e-16,0,0,-0.2184,-7.1495e-16,0,-8.2868e-16,0,0,1,6.5019e-16,0,1,-1.076,-1.244,-1.076,-90,-1.132,0.168,-0.00024353,0.62,1,0
0.20966,0,0.36,-1.243,-1.047,-1.047,4.8953e-16,0,0,-0.2548,-1.0372e-15,0,1.2728e-15,0,0,1,0,0,1,-1.047,-1.243,-1.047,90,-1.1123,0.196,-0.00038672,0.64,1,0
0.2042,0,0.34,-1.242,-1.018,-1.018,-2.7296e-16,0,0,-0.2912,-1.2648e-15,0,-7.0969e-16,0,0,1,8.8818e-16,0,1,-1.018,-1.242,-1.018,-90,-1.0927,0.224,-0.00057726,0.66,1,0
0.19802,0,0.32,-1.241,-0.989,-0.989,3.3548e-16,0,0,-0.3276,-2.5453e-15,0,8.7224e-16,0,0,1,3.1957e-15,0,1,-0.989,-1.241,-0.989,90,-1.073,0.252,-0.00082192,0.68,1,0
0.1911,0,0.3,-1.24,-0.96,-0.96,2.3332e-16,0,0,-0.364,2.0375e-15,0,6.0664e-16,0,0,1,-2.8706e-15,0,1,-0.96,-1.24,-0.96,90,-1.0533,0.28,-0.0011275,0.7,1,0
0.18346,0,0.28,-1.239,-0.931,-0.931,3.8124e-16,0,0,-0.4004,8.2204e-16,0,9.9123e-16,0,0,1,0,0,1,-0.931,-1.239,-0.931,90,-1.0337,0.308,-0.0015006,0.72,1,0
0.17508,0,0.26,-1.238,-0.902,-0.902,0,0,0,-0.4368,9.4675e-16,0,0,0,0,1,2.8154e-16,0,1,-0.902,-1.238,-0.902,90,-1.014,0.336,-0.0019482,0.74,1,0
0.16598,0,0.24,-1.237,-0.873,-0.873,-2.2883e-17,0,0,-0.4732,5.6957e-16,0,-5.9497e-17,0,0,1,2.4265e-15,0,1,-0.873,-1.237,-0.873,-90,-0.99433,0.364,-0.002477,0.76,1,0
0.15616,0,0.22,-1.236,-0.844,-0.844,-1.9369e-16,0,0,-0.5096,1.041e-15,0,-5.0359e-16,0,0,1,-1.9825e-15,0,1,-0.844,-1.236,-0.844,-90,-0.97467,0.392,-0.0030937,0.78,1,0
0.1456,0,0.2,-1.235,-0.815,-0.815,-3.1259e-17,0,0,-0.546,1.9912e-15,0,-8.1274e-17,0,0,1,-1.0507e-15,0,1,-0.815,-1.235,-0.815,-90,-0.955,0.42,-0.0038052,0.8,1,0
0.13432,0,0.18,-1.234,-0.786,-0.786,1.5405e-16,0,0,-0.5824,-1.9565e-15,0,4.0054e-16,0,0,1,1.4948e-15,0,1,-0.786,-1.234,-0.786,90,-0.93533,0.448,-0.0046181,0.82,1,0
0.1223,0,0.16,-1.233,-0.757,-0.757,0,0,0,-0.6188,-9.5684e-16,0,-1.9721e-31,0,0,1,7.6918e-16,0,1,-0.757,-1.233,-0.757,90,-0.91567,0.476,-0.0055392,0.84,1,0
0.10956,0,0.14,-1.232,-0.728,-0.728,4.2701e-17,0,0,-0.6552,-8.3582e-16,0,1.1102e-16,0,0,1,-1.6255e-16,0,1,-0.728,-1.232,-0.728,90,-0.896,0.504,-0.0065753,0.86,1,0
0.096096,0,0.12,-1.231,-0.699,-0.699,-2.0206e-16,0,0,-0.6916,-7.5956e-16,0,-5.2536e-16,0,0,1,0,0,1,-0.699,-1.231,-0.699,-90,-0.87633,0.532,-0.0077332,0.88,1,0
0.0819,0,0.1,-1.23,-0.67,-0.67,-1.6355e-16,0,0,-0.728,-9.0313e-16,0,-4.2523e-16,0,0,1,1.4077e-16,0,1,-0.67,-1.23,-0.67,-90,-0.85667,0.56,-0.0090197,0.9,1,0
0.066976,0,0.08,-1.229,-0.641,-0.641,-3.2792e-17,0,0,-0.7644,-2.0242e-15,0,-8.5259e-17,0,0,1,1.328e-16,0,1,-0.641,-1.229,-0.641,-90,-0.837,0.588,-0.010441,0.92,1,0
0.051324,0,0.06,-1.228,-0.612,-0.612,1.5211e-16,0,0,-0.8008,1.7858e-15,0,3.9548e-16,0,0,1,-7.3652e-16,0,1,-0.612,-1.228,-0.612,90,-0.81733,0.616,-0.012005,0.94,1,0
0.034944,0,0.04,-1.227,-0.583,-0.583,-8.1111e-17,0,0,-0.8372,7.1347e-16,0,-2.1089e-16,0,0,1,9.4298e-18,0,1,-0.583,-1.227,-0.583,-90,-0.79767,0.644,-0.013718,0.96,1,0
0.017836,0,0.02,-1.226,-0.554,-0.554,-1.1722e-17,0,0,-0.8736,4.0081e-16,0,-3.0478e-17,0,0,1,-1.415e-16,0,1,-0.554,-1.226,-0.554,-90,-0.778,0.672,-0.015586,0.98,1,0
0,0,0,-1.2005,-0.5145,-0.5145,1.0675e-17,0,0,-0.8918,4.4039e-16,0,2.7756e-17,0,0,1,-3.5193e-17,0,1,-0.5145,-1.2005,-0.5145,90,-0.74317,0.686,-0.016581,1,1,0
