"Displacements:0","Displacements:1","Displacements:2","Stress/Strain:0","Stress/Strain:1","Stress/Strain:2","Stress/Strain:3","Stress/Strain:4","Stress/Strain:5","Stress/Strain:6","Stress/Strain:7","Stress/Strain:8","Stress/Strain:9","Stress/Strain:10","Stress/Strain:11","Stress/Strain:12","Stress/Strain:13","Stress/Strain:14","Stress/Strain:15","Principal Stress:0","Principal Stress:1","Principal Stress:2","Principal Stress:3","Principal Stress:4","Principal Stress:5","Principal Stress:6","nodes:0","nodes:1","nodes:2"
0,0,1,-0.86177,-1.3067,-1.6505,-1.0408e-17,0,0,1.0254,0.44701,0,-2.7756e-17,0,0,0.88376,1.3852e-15,0,0.88376,-0.86177,-1.3067,-1.6505,-1.3404e-15,-1.273,0.68496,0.0036263,0,0,0
0.020508,0,0.98233,-0.84266,-1.2668,-1.6152,0.00013042,0,0,1.0043,0.45286,0,0.00033908,0,0,0.88965,-0.0061043,0,0.88967,-0.84266,-1.2668,-1.6152,0.017617,-1.2415,0.67008,0.0026109,0.02,0,0
0.04017,0,0.96441,-0.85259,-1.2233,-1.5872,0.00068636,0,0,0.95498,0.47302,0,0.0017845,0,0,0.90668,-0.011572,0,0.90675,-0.85259,-1.2233,-1.5872,0.10608,-1.221,0.63619,0.00021432,0.04,0,0
0.058707,0,0.94606,-0.87217,-1.1611,-1.556,0.0018798,0,0,0.88904,0.51339,0,0.0048874,0,0,0.9329,-0.015721,0,0.93303,-0.87216,-1.1611,-1.556,0.3727,-1.1965,0.59463,-0.0028545,0.06,0,0
0.075732,0,0.9271,-0.90293,-1.0739,-1.5201,0.0036122,0,0,0.80237,0.58016,0,0.0093918,0,0,0.96521,-0.017955,0,0.96537,-0.90285,-1.0739,-1.5201,1.2101,-1.1656,0.552,-0.0059235,0.08,0,0
0.090801,0,0.90745,-0.94391,-0.9599,-1.4786,0.005182,0,0,0.69509,0.6743,0,0.013473,0,0,0.9998,-0.018008,0,0.99997,-0.94238,-0.96143,-1.4786,16.474,-1.1275,0.52695,-0.0074818,0.1,0,0
0.10354,0,0.88711,-0.99102,-0.82754,-1.4327,0.0057859,0,0,0.57415,0.78668,0,0.015043,0,0,1.0329,-0.016146,0,1.033,-0.82733,-0.99123,-1.4327,87.976,-1.0837,0.5423,-0.0057393,0.12,0,0
0.11377,0,0.86613,-1.0381,-0.69396,-1.3857,0.0050542,0,0,0.45198,0.89931,0,0.013141,0,0,1.0616,-0.013072,0,1.0617,-0.69389,-1.0381,-1.3857,89.159,-1.0393,0.59916,-9.2644e-05,0.14,0,0
0.12162,0,0.84464,-1.0785,-0.57705,-1.3413,0.0035816,0,0,0.34166,0.99353,0,0.0093122,0,0,1.0842,-0.0096061,0,1.0842,-0.57702,-1.0785,-1.3413,89.591,-0.99894,0.67256,0.0079693,0.16,0,0
0.12743,0,0.82276,-1.1074,-0.48786,-1.3013,0.00217,0,0,0.25215,1.0575,0,0.005642,0,0,1.1003,-0.0063291,0,1.1004,-0.48785,-1.1074,-1.3013,89.799,-0.96552,0.73593,0.015777,0.18,0,0
0.1317,0,0.80063,-1.1226,-0.42957,-1.2663,0.0013554,0,0,0.18681,1.0877,0,0.003524,0,0,1.1103,-0.0034493,0,1.1103,-0.42957,-1.1226,-1.2663,89.888,-0.93947,0.77491,0.021156,0.2,0,0
0.13491,0,0.77835,-1.1241,-0.40062,-1.2358,0.0010221,0,0,0.14513,1.0857,0,0.0026573,0,0,1.1148,-0.00086438,0,1.1148,-0.40062,-1.1241,-1.2358,89.919,-0.92018,0.78532,0.023189,0.22,0,0
0.13751,0,0.75604,-1.1132,-0.39838,-1.2095,0.00073458,0,0,0.12525,1.0545,0,0.0019099,0,0,1.1139,0.0016743,0,1.1139,-0.39838,-1.1132,-1.2095,89.941,-0.90701,0.76749,0.02199,0.24,0,0
0.13992,0,0.73379,-1.0908,-0.42053,-1.1872,7.614e-05,0,0,0.12534,0.99665,0,0.00019797,0,0,1.1077,0.0044103,0,1.1077,-0.42053,-1.0908,-1.1872,89.993,-0.89949,0.72328,0.018274,0.26,0,0
0.14252,0,0.71173,-1.0587,-0.46423,-1.1686,-0.0010564,0,0,0.14291,0.91568,0,-0.0027467,0,0,1.0957,0.0074375,0,1.0957,-0.46423,-1.0587,-1.1686,-89.898,-0.89717,0.65635,0.01316,0.28,0,0
0.14563,0,0.68997,-1.0196,-0.5237,-1.153,-0.0022594,0,0,0.17332,0.81805,0,-0.0058744,0,0,1.0778,0.010557,0,1.0779,-0.52369,-1.0196,-1.153,-89.739,-0.89877,0.57435,0.0079914,0.3,0,0
0.14945,0,0.66862,-0.97778,-0.58872,-1.1386,-0.0030083,0,0,0.20902,0.71481,0,-0.0078216,0,0,1.0546,0.013235,0,1.0546,-0.58869,-0.97781,-1.1386,-89.557,-0.90169,0.4897,0.003913,0.32,0,0
0.15399,0,0.64778,-0.93763,-0.64642,-1.123,-0.0029641,0,0,0.24098,0.61955,0,-0.0077068,0,0,1.0275,0.014761,0,1.0276,-0.64639,-0.93766,-1.123,-89.417,-0.90235,0.41614,0.0013827,0.34,0,0
0.15909,0,0.62752,-0.90291,-0.68681,-1.1044,-0.002442,0,0,0.26198,0.54291,0,-0.0063493,0,0,0.99932,0.014588,0,0.99943,-0.68679,-0.90294,-1.1044,-89.353,-0.89806,0.36177,0.00014773,0.36,0,0
0.16447,0,0.60781,-0.87576,-0.7072,-1.0827,-0.0018724,0,0,0.26902,0.48815,0,-0.0048683,0,0,0.97315,0.012629,0,0.97323,-0.70718,-0.87578,-1.0827,-89.364,-0.88855,0.32577,-0.00031185,0.38,0,0
0.16985,0,0.58859,-0.85637,-0.71072,-1.0587,-0.0015087,0,0,0.26305,0.4524,0,-0.0039226,0,0,0.95185,0.0093217,0,0.9519,-0.7107,-0.85639,-1.0587,-89.407,-0.87527,0.30272,-0.00039524,0.4,0,0
0.17499,0,0.56974,-0.84383,-0.70195,-1.0335,-0.0011919,0,0,0.24653,0.43097,0,-0.003099,0,0,0.93731,0.0053936,0,0.93733,-0.70194,-0.84384,-1.0335,-89.519,-0.85975,0.2881,-0.00030242,0.42,0,0
0.17971,0,0.5511,-0.83707,-0.68375,-1.0073,-0.00071615,0,0,0.22135,0.42067,0,-0.001862,0,0,0.93012,0.0015661,0,0.93012,-0.68375,-0.83708,-1.0073,-89.732,-0.84272,0.28037,-0.00010249,0.44,0,0
0.18385,0,0.53253,-0.83554,-0.65703,-0.9803,1.5267e-05,0,0,0.18819,0.42026,0,3.9694e-05,0,0,0.92971,-0.0016529,0,0.92971,-0.65703,-0.83554,-0.9803,89.995,-0.82429,0.28047,0.00020357,0.46,0,0
0.18724,0,0.51391,-0.83898,-0.62187,-0.95217,0.00091285,0,0,0.14714,0.42938,0,0.0023734,0,0,0.93478,-0.0040082,0,0.93479,-0.62187,-0.83898,-0.95217,89.759,-0.80434,0.29073,0.00064797,0.48,0,0
0.18973,0,0.49514,-0.84696,-0.57886,-0.92289,0.0017904,0,0,0.098711,0.44723,0,0.0046549,0,0,0.94366,-0.0054516,0,0.94368,-0.57885,-0.84697,-0.92289,89.617,-0.7829,0.31306,0.0012688,0.5,0,0
0.19119,0,0.47616,-0.85851,-0.52978,-0.89265,0.002459,0,0,0.044386,0.47173,0,0.0063933,0,0,0.9547,-0.0060753,0,0.95472,-0.52976,-0.85853,-0.89265,89.571,-0.76031,0.34709,0.0020777,0.52,0,0
0.19151,0,0.45695,-0.87216,-0.47752,-0.86186,0.0028082,0,0,-0.013397,0.49964,0,0.0073013,0,0,0.96647,-0.0060549,0,0.96649,-0.4775,-0.87218,-0.86186,89.592,-0.73718,0.38962,0.0030306,0.54,0,0
0.19065,0,0.4375,-0.88619,-0.42549,-0.83101,0.0028379,0,0,-0.071741,0.52718,0,0.0073786,0,0,0.9779,-0.005597,0,0.97791,-0.42547,-0.88621,-0.83101,89.647,-0.71423,0.43577,0.0040211,0.56,0,0
0.18864,0,0.41784,-0.899,-0.37677,-0.80057,0.0026407,0,0,-0.12796,0.55093,0,0.0068658,0,0,0.98828,-0.0048956,0,0.98829,-0.37676,-0.89901,-0.80057,89.71,-0.69211,0.48065,0.0049064,0.58,0,0
0.18554,0,0.39797,-0.90938,-0.33356,-0.77086,0.0023456,0,0,-0.18009,0.56849,0,0.0060984,0,0,0.99725,-0.004102,0,0.99726,-0.33355,-0.90939,-0.77086,89.767,-0.67127,0.52059,0.0055532,0.6,0,0
0.18144,0,0.37795,-0.91672,-0.29694,-0.74204,0.0020646,0,0,-0.22708,0.57864,0,0.005368,0,0,1.0047,-0.0033144,0,1.0047,-0.29693,-0.91673,-0.74204,89.809,-0.6519,0.55353,0.0058756,0.62,0,0
0.17645,0,0.35779,-0.92089,-0.26708,-0.71418,0.0018622,0,0,-0.26873,0.58123,0,0.0048417,0,0,1.0106,-0.0025826,0,1.0106,-0.26707,-0.92089,-0.71418,89.837,-0.63405,0.57884,0.0058484,0.64,0,0
0.17069,0,0.33752,-0.92211,-0.24353,-0.68722,0.0017534,0,0,-0.30537,0.57679,0,0.0045589,0,0,1.0152,-0.0019204,0,1.0152,-0.24353,-0.92212,-0.68722,89.852,-0.61762,0.59688,0.0054967,0.66,0,0
0.16424,0,0.31718,-0.9208,-0.22555,-0.66108,0.0017182,0,0,-0.33763,0.5662,0,0.0044672,0,0,1.0184,-0.0013196,0,1.0184,-0.22554,-0.92081,-0.66108,89.858,-0.60248,0.6085,0.0048758,0.68,0,0
0.15718,0,0.29678,-0.91738,-0.21229,-0.63569,0.0017189,0,0,-0.36621,0.55041,0,0.0044691,0,0,1.0205,-0.0007605,0,1.0205,-0.21229,-0.91739,-0.63569,89.86,-0.58845,0.61473,0.0040522,0.7,0,0
0.14959,0,0.27636,-0.91222,-0.20296,-0.61091,0.0017144,0,0,-0.3917,0.53034,0,0.0044573,0,0,1.0215,-0.00021799,0,1.0215,-0.20296,-0.91222,-0.61091,89.862,-0.57537,0.61655,0.003092,0.72,0,0
0.14151,0,0.25592,-0.90559,-0.19685,-0.58666,0.0016684,0,0,-0.41462,0.50675,0,0.004338,0,0,1.0214,0.0003342,0,1.0214,-0.19684,-0.90559,-0.58666,89.865,-0.56303,0.61482,0.0020547,0.74,0,0
0.13301,0,0.2355,-0.89768,-0.1933,-0.5628,0.0015555,0,0,-0.43535,0.48034,0,0.0040444,0,0,1.0201,0.0009211,0,1.0201,-0.1933,-0.89769,-0.5628,89.874,-0.55126,0.61026,0.00099194,0.76,0,0
0.1241,0,0.21512,-0.88866,-0.1917,-0.53923,0.0013652,0,0,-0.45426,0.45178,0,0.0035496,0,0,1.0176,0.0015632,0,1.0176,-0.1917,-0.88866,-0.53923,89.888,-0.53986,0.60359,-5.3529e-05,0.78,0,0
0.11483,0,0.1948,-0.87871,-0.19137,-0.51582,0.0011063,0,0,-0.47175,0.42179,0,0.0028764,0,0,1.0137,0.0022708,0,1.0137,-0.19137,-0.87871,-0.51582,89.908,-0.52863,0.59557,-0.0010488,0.8,0,0
0.10523,0,0.17457,-0.86812,-0.19148,-0.49245,0.00080926,0,0,-0.48837,0.39126,0,0.0021041,0,0,1.0084,0.0030358,0,1.0084,-0.19148,-0.86812,-0.49245,89.931,-0.51735,0.58718,-0.0019735,0.82,0,0
0.095299,0,0.15446,-0.85733,-0.19099,-0.46896,0.00052251,0,0,-0.50488,0.36136,0,0.0013585,0,0,1.0015,0.003821,0,1.0015,-0.19099,-0.85733,-0.46896,89.955,-0.50576,0.5797,-0.0028237,0.84,0,0
0.085035,0,0.13451,-0.84689,-0.18867,-0.44518,0.00029956,0,0,-0.52223,0.33347,0,0.00077887,0,0,0.99323,0.0045519,0,0.99324,-0.18867,-0.84689,-0.44518,89.974,-0.49358,0.57465,-0.0036155,0.86,0,0
0.07441,0,0.11474,-0.83742,-0.1832,-0.42092,0.00017682,0,0,-0.54145,0.30904,0,0.00045974,0,0,0.98372,0.0051163,0,0.98373,-0.1832,-0.83742,-0.42092,89.984,-0.48052,0.57358,-0.0043846,0.88,0,0
0.063377,0,0.09516,-0.82944,-0.17352,-0.39605,0.0001542,0,0,-0.56341,0.28929,0,0.00040092,0,0,0.97347,0.0053799,0,0.97348,-0.17352,-0.82944,-0.39605,89.987,-0.46634,0.57774,-0.0051816,0.9,0,0
0.051874,0,0.075796,-0.82323,-0.15911,-0.3705,0.00019009,0,0,-0.58856,0.27481,0,0.00049425,0,0,0.96318,0.0052171,0,0.96319,-0.15911,-0.82323,-0.3705,89.984,-0.45095,0.58767,-0.0060604,0.92,0,0
0.039835,0,0.056633,-0.81879,-0.1402,-0.34433,0.00022233,0,0,-0.61679,0.26537,0,0.00057806,0,0,0.95375,0.0045495,0,0.95376,-0.1402,-0.81879,-0.34433,89.981,-0.43444,0.60302,-0.0070657,0.94,0,0
0.027202,0,0.037646,-0.81581,-0.11771,-0.3177,0.000201,0,0,-0.64754,0.25999,0,0.0005226,0,0,0.94612,0.0033792,0,0.94613,-0.11771,-0.81581,-0.3177,89.984,-0.41707,0.62268,-0.0082246,0.96,0,0
0.013933,0,0.018788,-0.8139,-0.092768,-0.29079,0.00011608,0,0,-0.68004,0.25743,0,0.00030179,0,0,0.94115,0.001803,0,0.94115,-0.092768,-0.8139,-0.29079,89.991,-0.39915,0.64533,-0.0095476,0.98,0,0
0,0,0,-0.7897,-0.056396,-0.25383,-4.5808e-18,0,0,-0.69664,0.25666,0,-1.1872e-17,0,0,0.93942,6.7221e-18,0,0.93942,-0.056396,-0.7897,-0.25383,-90,-0.36664,0.65722,-0.010267,1,0,0
0,0.0089401,1,-0.86225,-1.3087,-1.6513,0.0022505,0,0,1.0257,0.44539,0,0.0058513,0,0,0.87766,1.6783e-15,0,0.87764,-0.86224,-1.3087,-1.6513,0.28884,-1.2741,0.68529,0.0037282,0,0.02,0
0.020515,0.0090572,0.98245,-0.84303,-1.2696,-1.6162,0.0052893,0,0,1.0051,0.45067,0,0.013752,0,0,0.88387,-0.012507,0,0.88396,-0.84296,-1.2696,-1.6162,0.71038,-1.2429,0.67086,0.0027625,0.02,0.02,0
0.040206,0.0094604,0.96464,-0.85237,-1.2279,-1.5887,0.012965,0,0,0.95725,0.46911,0,0.033709,0,0,0.90187,-0.0238,0,0.90226,-0.85192,-1.2283,-1.5887,1.9752,-1.223,0.63813,0.00050109,0.04,0.02,0
0.058805,0.010268,0.94637,-0.87137,-1.168,-1.5582,0.02424,0,0,0.89284,0.50726,0,0.063025,0,0,0.9297,-0.032463,0,0.93041,-0.8694,-1.1699,-1.5582,4.6415,-1.1992,0.5981,-0.0023995,0.06,0.02,0
0.07592,0.011603,0.92746,-0.90213,-1.0818,-1.5226,0.038,0,0,0.80666,0.57308,0,0.098801,0,0,0.96406,-0.037107,0,0.96496,-0.89443,-1.0895,-1.5226,11.464,-1.1689,0.55692,-0.0053414,0.08,0.02,0
0.091071,0.013486,0.90781,-0.94365,-0.96534,-1.4805,0.050013,0,0,0.69791,0.66971,0,0.13003,0,0,1.0007,-0.03707,0,1.0016,-0.90332,-1.0057,-1.4805,38.882,-1.1298,0.53343,-0.0068382,0.1,0.02,0
0.10384,0.015734,0.88743,-0.9915,-0.82716,-1.433,0.054615,0,0,0.57398,0.78763,0,0.142,0,0,1.0354,-0.032914,0,1.036,-0.81066,-1.008,-1.433,73.195,-1.0839,0.55088,-0.0050202,0.12,0.02,0
0.11403,0.017986,0.86639,-1.0391,-0.68811,-1.3845,0.04942,0,0,0.44911,0.90537,0,0.12849,0,0,1.0649,-0.026288,0,1.0653,-0.68128,-1.0459,-1.3845,82.136,-1.0373,0.60919,0.00074223,0.14,0.02,0
0.1218,0.019871,0.84483,-1.0794,-0.56888,-1.3393,0.036852,0,0,0.33791,1.0016,0,0.095815,0,0,1.0876,-0.019037,0,1.0878,-0.56623,-1.082,-1.3393,85.892,-0.99586,0.68187,0.0088164,0.16,0.02,0
0.12755,0.02115,0.82289,-1.1075,-0.48028,-1.2992,0.021841,0,0,0.24926,1.0646,0,0.056787,0,0,1.1034,-0.012407,0,1.1035,-0.47952,-1.1082,-1.2992,88.008,-0.96233,0.74286,0.016456,0.18,0.02,0
0.13177,0.021754,0.8007,-1.1217,-0.42348,-1.2643,0.0078461,0,0,0.18532,1.093,0,0.0204,0,0,1.1131,-0.0067294,0,1.1131,-0.42339,-1.1218,-1.2643,89.356,-0.93647,0.77945,0.021608,0.2,0.02,0
0.13496,0.021714,0.77837,-1.1229,-0.39556,-1.2339,-0.0041938,0,0,0.14432,1.0898,0,-0.010904,0,0,1.1173,-0.0017069,0,1.1173,-0.39553,-1.1229,-1.2339,-89.67,-0.91745,0.78875,0.023529,0.22,0.02,0
0.13754,0.021089,0.756,-1.1123,-0.39335,-1.2077,-0.015107,0,0,0.12402,1.0587,0,-0.039279,0,0,1.1165,0.003227,0,1.1166,-0.39303,-1.1126,-1.2077,-88.797,-0.90445,0.77153,0.022384,0.24,0.02,0
0.13992,0.019933,0.73371,-1.0909,-0.41511,-1.1855,-0.025776,0,0,0.12301,1.0015,0,-0.067017,0,0,1.1105,0.0086244,0,1.1106,-0.41413,-1.0919,-1.1855,-87.819,-0.89717,0.72907,0.018802,0.26,0.02,0
0.14246,0.018314,0.71158,-1.0596,-0.45909,-1.1672,-0.035696,0,0,0.13987,0.92053,0,-0.092811,0,0,1.0988,0.014756,0,1.0989,-0.45698,-1.0617,-1.1672,-86.61,-0.89529,0.66379,0.013752,0.28,0.02,0
0.14552,0.016361,0.68976,-1.0209,-0.52079,-1.1523,-0.042694,0,0,0.17079,0.8209,0,-0.111,0,0,1.0807,0.021291,0,1.081,-0.51718,-1.0245,-1.1523,-85.155,-0.89798,0.58182,0.0084946,0.3,0.02,0
0.1493,0.014296,0.66835,-0.97884,-0.58973,-1.1389,-0.043981,0,0,0.2081,0.71396,0,-0.11435,0,0,1.0567,0.027073,0,1.0571,-0.58482,-0.98376,-1.1389,-83.631,-0.9025,0.49511,0.0042315,0.32,0.02,0
0.15384,0.012391,0.64749,-0.93829,-0.65084,-1.1242,-0.038983,0,0,0.24172,0.61541,0,-0.10136,0,0,1.0282,0.030473,0,1.0288,-0.64564,-0.94348,-1.1242,-82.412,-0.90445,0.41858,0.0015394,0.34,0.02,0
0.15896,0.010858,0.62723,-0.90318,-0.69204,-1.1058,-0.03016,0,0,0.2634,0.53788,0,-0.078416,0,0,0.99826,0.030173,0,0.99883,-0.68781,-0.9074,-1.1058,-82.028,-0.90033,0.36213,0.0002139,0.36,0.02,0
0.16437,0.009763,0.60756,-0.87578,-0.7112,-1.0837,-0.02129,0,0,0.27024,0.48418,0,-0.055353,0,0,0.97052,0.025989,0,0.97095,-0.70849,-0.87849,-1.0837,-82.747,-0.89021,0.32537,-0.00028572,0.38,0.02,0
0.16977,0.009048,0.5884,-0.85632,-0.71348,-1.0594,-0.014251,0,0,0.26393,0.44962,0,-0.037052,0,0,0.94824,0.01894,0,0.94847,-0.71208,-0.85773,-1.0594,-84.358,-0.87638,0.30204,-0.00038886,0.4,0.02,0
0.17493,0.0086195,0.56963,-0.84354,-0.70428,-1.034,-0.0087828,0,0,0.24756,0.4286,0,-0.022835,0,0,0.93343,0.010691,0,0.9335,-0.70373,-0.8441,-1.034,-86.406,-0.8606,0.28707,-0.00031125,0.42,0.02,0
0.17968,0.0084134,0.55107,-0.83641,-0.68633,-1.0079,-0.0037385,0,0,0.22293,0.41803,0,-0.0097202,0,0,0.92659,0.0027808,0,0.92659,-0.68623,-0.8365,-1.0079,-88.574,-0.84354,0.27876,-0.0001262,0.44,0.02,0
0.18385,0.0084051,0.53256,-0.8345,-0.65991,-0.98089,0.0015563,0,0,0.19031,0.41727,0,0.0040464,0,0,0.92692,-0.0037713,0,0.92693,-0.65989,-0.83451,-0.98089,89.489,-0.8251,0.27835,0.00016799,0.46,0.02,0
0.18729,0.0085877,0.51399,-0.83777,-0.6247,-0.95273,0.0069586,0,0,0.14945,0.42644,0,0.018092,0,0,0.93288,-0.0084951,0,0.93293,-0.62448,-0.838,-0.95273,88.132,-0.80507,0.28854,0.00060889,0.48,0.02,0
0.18983,0.0089446,0.49525,-0.84587,-0.58112,-0.92334,0.011737,0,0,0.10072,0.4449,0,0.030517,0,0,0.94263,-0.011327,0,0.94272,-0.58059,-0.84639,-0.92334,87.466,-0.78344,0.31148,0.0012385,0.5,0.02,0
0.19132,0.0094346,0.47629,-0.85775,-0.531,-0.89291,0.015036,0,0,0.045709,0.47048,0,0.039094,0,0,0.9544,-0.012478,0,0.9545,-0.53031,-0.85844,-0.89291,87.371,-0.76055,0.34665,0.0020683,0.52,0.02,0
0.19166,0.0099928,0.45707,-0.87181,-0.47755,-0.86188,0.016303,0,0,-0.012904,0.49963,0,0.042388,0,0,0.96671,-0.012325,0,0.96681,-0.47688,-0.87248,-0.86188,87.636,-0.73708,0.39041,0.0030487,0.54,0.02,0
0.1908,0.010544,0.43762,-0.88618,-0.42451,-0.83082,0.015525,0,0,-0.071958,0.52821,0,0.040365,0,0,0.97848,-0.011307,0,0.97856,-0.42399,-0.8867,-0.83082,88.076,-0.71384,0.43745,0.0040641,0.56,0.02,0
0.18878,0.011019,0.41794,-0.89916,-0.37518,-0.80023,0.013173,0,0,-0.1286,0.55258,0,0.034249,0,0,0.98903,-0.0098273,0,0.98909,-0.37485,-0.89949,-0.80023,88.561,-0.69152,0.48273,0.0049641,0.58,0.02,0
0.18566,0.01137,0.39806,-0.90955,-0.33175,-0.77045,0.00995,0,0,-0.18083,0.5703,0,0.02587,0,0,0.99804,-0.0081924,0,0.99808,-0.33158,-0.90972,-0.77045,89.014,-0.67058,0.52261,0.0056133,0.6,0.02,0
0.18154,0.011573,0.37801,-0.91677,-0.29522,-0.74161,0.006518,0,0,-0.22771,0.58031,0,0.016947,0,0,1.0054,-0.0065951,0,1.0055,-0.29515,-0.91684,-0.74161,89.399,-0.6512,0.55522,0.0059289,0.62,0.02,0
0.17655,0.011625,0.35784,-0.92078,-0.2656,-0.71375,0.0033331,0,0,-0.26913,0.58259,0,0.008666,0,0,1.0113,-0.005127,0,1.0113,-0.26559,-0.92079,-0.71375,89.709,-0.63338,0.58009,0.005891,0.64,0.02,0
0.17078,0.011536,0.33756,-0.92186,-0.24234,-0.68682,0.00061429,0,0,-0.30556,0.57783,0,0.0015972,0,0,1.0158,-0.0038084,0,1.0158,-0.24234,-0.92186,-0.68682,89.948,-0.61701,0.59773,0.005529,0.66,0.02,0
0.16433,0.011324,0.31721,-0.92048,-0.2246,-0.66073,-0.0016045,0,0,-0.33768,0.56697,0,-0.0041718,0,0,1.019,-0.0026178,0,1.019,-0.22459,-0.92049,-0.66073,-89.868,-0.60194,0.60908,0.0049,0.68,0.02,0
0.15727,0.011008,0.2968,-0.91708,-0.21152,-0.63538,-0.0033984,0,0,-0.36621,0.55101,0,-0.0088359,0,0,1.0211,-0.0015125,0,1.0211,-0.21151,-0.9171,-0.63538,-89.724,-0.588,0.61518,0.0040709,0.7,0.02,0
0.14968,0.010607,0.27636,-0.91202,-0.20231,-0.61066,-0.0048846,0,0,-0.39177,0.53086,0,-0.0127,0,0,1.0221,-0.000441,0,1.0221,-0.20228,-0.91205,-0.61066,-89.606,-0.575,0.61701,0.0031066,0.72,0.02,0
0.1416,0.010135,0.25592,-0.90555,-0.19626,-0.58646,-0.0061757,0,0,-0.41482,0.50726,0,-0.016057,0,0,1.022,0.0006504,0,1.022,-0.1962,-0.90561,-0.58646,-89.501,-0.56276,0.61539,0.0020654,0.74,0.02,0
0.13309,0.0096069,0.23548,-0.89785,-0.19274,-0.56266,-0.0073479,0,0,-0.43574,0.4809,0,-0.019105,0,0,1.0207,0.0018131,0,1.0207,-0.19266,-0.89793,-0.56266,-89.403,-0.55108,0.61102,0.0009979,0.76,0.02,0
0.12417,0.0090356,0.21509,-0.88903,-0.19118,-0.53915,-0.0084174,0,0,-0.45485,0.45237,0,-0.021885,0,0,1.0183,0.0030906,0,1.0183,-0.19108,-0.88913,-0.53915,-89.309,-0.53979,0.60454,-5.3732e-05,0.78,0.02,0
0.11489,0.0084358,0.19475,-0.87925,-0.19093,-0.51581,-0.0093232,0,0,-0.47248,0.42234,0,-0.02424,0,0,1.0145,0.004508,0,1.0145,-0.19081,-0.87938,-0.51581,-89.224,-0.52866,0.59663,-0.0010562,0.8,0.02,0
0.10527,0.0078253,0.17451,-0.86876,-0.19122,-0.49251,-0.0099244,0,0,-0.48913,0.39167,0,-0.025804,0,0,1.0091,0.0060548,0,1.0092,-0.19108,-0.86891,-0.49251,-89.161,-0.5175,0.58821,-0.0019877,0.82,0.02,0
0.095326,0.0072272,0.15439,-0.85797,-0.19104,-0.46909,-0.010028,0,0,-0.50555,0.36147,0,-0.026073,0,0,1.0023,0.0076622,0,1.0023,-0.19089,-0.85812,-0.46909,-89.139,-0.50603,0.58049,-0.0028422,0.84,0.02,0
0.08505,0.0066693,0.13442,-0.84745,-0.18911,-0.44538,-0.0094602,0,0,-0.52268,0.33316,0,-0.024596,0,0,0.99388,0.0091822,0,0.99393,-0.18897,-0.84758,-0.44538,-89.177,-0.49398,0.57501,-0.003634,0.86,0.02,0
0.074419,0.0061807,0.11463,-0.83784,-0.18404,-0.4212,-0.0081702,0,0,-0.54164,0.30831,0,-0.021243,0,0,0.98413,0.010384,0,0.9842,-0.18393,-0.83795,-0.4212,-89.284,-0.48103,0.57346,-0.0043988,0.88,0.02,0
0.063385,0.0057857,0.095053,-0.82973,-0.17461,-0.39635,-0.006317,0,0,-0.56339,0.28827,0,-0.016424,0,0,0.97352,0.010981,0,0.97359,-0.17454,-0.82979,-0.39635,-89.448,-0.4669,0.57724,-0.0051892,0.9,0.02,0
0.051883,0.0054962,0.075692,-0.82345,-0.16019,-0.37078,-0.0042612,0,0,-0.58847,0.27377,0,-0.011079,0,0,0.96276,0.010701,0,0.96284,-0.16016,-0.82348,-0.37078,-89.632,-0.45148,0.58706,-0.0060631,0.92,0.02,0
0.039846,0.0053073,0.056542,-0.819,-0.14104,-0.34456,-0.0024357,0,0,-0.61678,0.26457,0,-0.0063328,0,0,0.95283,0.0093676,0,0.95289,-0.14103,-0.81901,-0.34456,-89.794,-0.43487,0.60257,-0.007068,0.94,0.02,0
0.027212,0.0051999,0.037578,-0.81607,-0.11819,-0.31786,-0.0011446,0,0,-0.64768,0.25957,0,-0.002976,0,0,0.94475,0.0069766,0,0.94478,-0.11819,-0.81608,-0.31786,-89.906,-0.41737,0.62255,-0.0082308,0.96,0.02,0
0.013939,0.0051485,0.018752,-0.81422,-0.092969,-0.29091,-0.00041809,0,0,-0.68031,0.25732,0,-0.001087,0,0,0.93946,0.0037282,0,0.93947,-0.092968,-0.81422,-0.29091,-89.967,-0.39937,0.64546,-0.0095587,0.98,0.02,0
0,0.0051333,0,-0.7901,-0.056545,-0.25399,-0.00029323,0,0,-0.69694,0.25668,0,-0.00076241,0,0,0.93762,7.8063e-18,0,0.93762,-0.056545,-0.7901,-0.25399,-89.977,-0.36688,0.65746,-0.01028,1,0.02,0
0,0.017816,1,-0.86354,-1.3146,-1.6535,0.0040583,0,0,1.0269,0.44048,0,0.010552,0,0,0.85875,1.648e-16,0,0.85868,-0.8635,-1.3147,-1.6535,0.51542,-1.2772,0.68642,0.0040423,0,0.04,0
0.020538,0.018027,0.98282,-0.8442,-1.2776,-1.6194,0.01,0,0,1.0077,0.44431,0,0.026001,0,0,0.86586,-0.026083,0,0.86621,-0.84398,-1.2778,-1.6194,1.3212,-1.247,0.67309,0.0032009,0.02,0.04,0
0.040308,0.018764,0.96537,-0.85183,-1.2407,-1.5931,0.024574,0,0,0.96369,0.45815,0,0.063892,0,0,0.88672,-0.050175,0,0.88821,-0.85028,-1.2423,-1.5931,3.6016,-1.2286,0.64365,0.0013096,0.04,0.04,0
0.059085,0.02029,0.94736,-0.86941,-1.1886,-1.5648,0.046856,0,0,0.90394,0.48903,0,0.12183,0,0,0.91959,-0.069173,0,0.92238,-0.86267,-1.1953,-1.5648,8.1817,-1.2076,0.60829,-0.0010481,0.06,0.04,0
0.076466,0.022923,0.92858,-0.9003,-1.1072,-1.5308,0.076113,0,0,0.81969,0.55073,0,0.19789,0,0,0.9606,-0.079451,0,0.96415,-0.87532,-1.1322,-1.5308,18.172,-1.1794,0.5721,-0.0035022,0.08,0.04,0
0.091873,0.026788,0.90893,-0.94389,-0.9835,-1.4871,0.10264,0,0,0.70623,0.65475,0,0.26686,0,0,1.004,-0.0787,0,1.0073,-0.85916,-1.0682,-1.4871,39.54,-1.1382,0.55388,-0.0047227,0.1,0.04,0
0.10472,0.031505,0.88842,-0.9936,-0.82478,-1.4339,0.11248,0,0,0.57243,0.79191,0,0.29246,0,0,1.0437,-0.068386,0,1.0461,-0.76855,-1.0498,-1.4339,63.443,-1.0841,0.57853,-0.0026238,0.12,0.04,0
0.11477,0.036215,0.86718,-1.0424,-0.66782,-1.3802,0.099055,0,0,0.4392,0.92617,0,0.25754,0,0,1.0755,-0.052867,0,1.0768,-0.64324,-1.067,-1.3802,76.064,-1.0302,0.64066,0.0034591,0.14,0.04,0
0.12228,0.040063,0.8454,-1.082,-0.54329,-1.333,0.070915,0,0,0.32629,1.0266,0,0.18438,0,0,1.0981,-0.037097,0,1.0987,-0.53411,-1.0912,-1.333,82.625,-0.98609,0.70957,0.011424,0.16,0.04,0
0.12782,0.042585,0.82326,-1.1068,-0.45812,-1.2927,0.039948,0,0,0.24174,1.085,0,0.10387,0,0,1.1126,-0.023637,0,1.1129,-0.45567,-1.1092,-1.2927,86.489,-0.95254,0.76206,0.018363,0.18,0.04,0
0.13195,0.04372,0.8009,-1.1176,-0.40677,-1.2582,0.013524,0,0,0.18284,1.1068,0,0.035162,0,0,1.1211,-0.012753,0,1.1211,-0.40651,-1.1178,-1.2582,88.91,-0.9275,0.79088,0.022732,0.2,0.04,0
0.13514,0.043594,0.77842,-1.1173,-0.38172,-1.2281,-0.0080905,0,0,0.14408,1.1003,0,-0.021035,0,0,1.1247,-0.003331,0,1.1247,-0.38163,-1.1174,-1.2281,-89.37,-0.90904,0.79692,0.02431,0.22,0.04,0
0.13772,0.042346,0.75591,-1.1085,-0.37945,-1.2023,-0.02769,0,0,0.12189,1.0697,0,-0.071994,0,0,1.1242,0.0059315,0,1.1243,-0.3784,-1.1096,-1.2023,-87.828,-0.89677,0.78168,0.023372,0.24,0.04,0
0.14001,0.04006,0.73345,-1.0907,-0.39901,-1.1804,-0.047966,0,0,0.11658,1.0157,0,-0.12471,0,0,1.1192,0.016298,0,1.1193,-0.3957,-1.094,-1.1804,-86.052,-0.89002,0.74524,0.020298,0.26,0.04,0
0.14238,0.036821,0.71114,-1.0628,-0.44258,-1.1627,-0.068879,0,0,0.12997,0.93621,0,-0.17908,0,0,1.1084,0.028783,0,1.1087,-0.43502,-1.0703,-1.1627,-83.738,-0.88936,0.68619,0.015584,0.28,0.04,0
0.14521,0.032836,0.68911,-1.0253,-0.50999,-1.1497,-0.085264,0,0,0.16173,0.83162,0,-0.22168,0,0,1.0901,0.043053,0,1.091,-0.49625,-1.039,-1.1497,-80.844,-0.89499,0.60574,0.010143,0.3,0.04,0
0.14885,0.028558,0.66753,-0.98299,-0.59207,-1.1401,-0.089976,0,0,0.20418,0.71238,0,-0.23394,0,0,1.0637,0.05666,0,1.0654,-0.57235,-1.0027,-1.1401,-77.641,-0.90504,0.51301,0.0052948,0.32,0.04,0
0.15338,0.024616,0.64656,-0.94138,-0.66536,-1.1286,-0.079442,0,0,0.24337,0.6022,0,-0.20655,0,0,1.0306,0.065105,0,1.0328,-0.64412,-0.96261,-1.1286,-75.037,-0.91177,0.42643,0.0020454,0.34,0.04,0
0.15858,0.021515,0.62631,-0.90456,-0.70828,-1.1102,-0.060548,0,0,0.26728,0.52245,0,-0.15742,0,0,0.99484,0.064772,0,0.99712,-0.6911,-0.92173,-1.1102,-74.164,-0.90767,0.36353,0.00042771,0.36,0.04,0
0.16407,0.019367,0.60677,-0.87631,-0.72286,-1.0865,-0.042382,0,0,0.27327,0.47276,0,-0.11019,0,0,0.96192,0.055045,0,0.9636,-0.71193,-0.88724,-1.0865,-75.542,-0.89523,0.32463,-0.00019428,0.38,0.04,0
0.16951,0.017985,0.58783,-0.85631,-0.72111,-1.0611,-0.029097,0,0,0.26618,0.44193,0,-0.075653,0,0,0.93656,0.038984,0,0.9374,-0.71511,-0.8623,-1.0611,-78.355,-0.87949,0.3007,-0.00035571,0.4,0.04,0
0.17472,0.017144,0.56931,-0.8427,-0.71125,-1.0355,-0.018776,0,0,0.25063,0.42152,0,-0.048818,0,0,0.92115,0.02081,0,0.92137,-0.70862,-0.84533,-1.0355,-82.028,-0.86315,0.28434,-0.00032906,0.42,0.04,0
0.17954,0.016721,0.55099,-0.83412,-0.69432,-1.0095,-0.0086668,0,0,0.22802,0.40976,0,-0.022534,0,0,0.91565,0.004016,0,0.91564,-0.69378,-0.83466,-1.0095,-86.466,-0.84598,0.27397,-0.00019551,0.44,0.04,0
0.18384,0.016691,0.53268,-0.83101,-0.66894,-0.98267,0.0024623,0,0,0.19716,0.40784,0,0.006402,0,0,0.91844,-0.0094993,0,0.91848,-0.6689,-0.83105,-0.98267,89.13,-0.82754,0.27178,5.9839e-05,0.46,0.04,0
0.18743,0.017058,0.51425,-0.83389,-0.6336,-0.9545,0.014007,0,0,0.15679,0.41716,0,0.036418,0,0,0.92723,-0.018973,0,0.92743,-0.63263,-0.83486,-0.9545,86.019,-0.80733,0.28179,0.00049081,0.48,0.04,0
0.19011,0.017796,0.49559,-0.84248,-0.58814,-0.92478,0.02422,0,0,0.10699,0.43763,0,0.062973,0,0,0.93968,-0.024391,0,0.94002,-0.58586,-0.84476,-0.92478,84.608,-0.78513,0.30684,0.0011506,0.5,0.04,0
0.1917,0.018819,0.47666,-0.85548,-0.53468,-0.89371,0.031139,0,0,0.049705,0.46674,0,0.080962,0,0,0.9537,-0.026278,0,0.9541,-0.53169,-0.85847,-0.89371,84.507,-0.76129,0.34575,0.0020486,0.52,0.04,0
0.1921,0.019985,0.45745,-0.87082,-0.47744,-0.86192,0.033569,0,0,-0.011568,0.49983,0,0.087279,0,0,0.96764,-0.025501,0,0.968,-0.47459,-0.87367,-0.86192,85.157,-0.73673,0.39333,0.003116,0.54,0.04,0
0.19124,0.021128,0.43796,-0.88621,-0.42128,-0.83021,0.031596,0,0,-0.072809,0.5316,0,0.082151,0,0,0.9804,-0.02304,0,0.98068,-0.41914,-0.88835,-0.83021,86.13,-0.71257,0.443,0.0042071,0.56,0.04,0
0.18918,0.022103,0.41823,-0.89969,-0.37015,-0.79918,0.026408,0,0,-0.13066,0.55774,0,0.068659,0,0,0.99139,-0.019767,0,0.9916,-0.36884,-0.901,-0.79918,87.152,-0.68967,0.48927,0.0051481,0.58,0.04,0
0.18602,0.022812,0.3983,-0.91002,-0.32622,-0.76918,0.01961,0,0,-0.1831,0.57584,0,0.050986,0,0,1.0005,-0.016312,0,1.0006,-0.32556,-0.91068,-0.76918,88.078,-0.66847,0.52876,0.0057992,0.6,0.04,0
0.18186,0.023212,0.37821,-0.91682,-0.29008,-0.74028,0.012609,0,0,-0.22951,0.58527,0,0.032784,0,0,1.0077,-0.013038,0,1.0078,-0.28982,-0.91708,-0.74028,88.848,-0.64906,0.56019,0.0060897,0.62,0.04,0
0.17684,0.023304,0.35799,-0.9203,-0.26126,-0.71246,0.0062859,0,0,-0.27019,0.58656,0,0.016343,0,0,1.0134,-0.010092,0,1.0135,-0.2612,-0.92036,-0.71246,89.454,-0.63134,0.58367,0.006017,0.64,0.04,0
0.17105,0.023113,0.33767,-0.92096,-0.23886,-0.68562,0.0010036,0,0,-0.30594,0.58079,0,0.0026093,0,0,1.0177,-0.0074829,0,1.0177,-0.23886,-0.92096,-0.68562,89.916,-0.61515,0.6001,0.005623,0.66,0.04,0
0.1646,0.022679,0.31728,-0.91939,-0.22185,-0.65966,-0.003241,0,0,-0.33765,0.56914,0,-0.0084265,0,0,1.0207,-0.005148,0,1.0208,-0.22184,-0.9194,-0.65966,-89.734,-0.6003,0.61063,0.0049703,0.68,0.04,0
0.15755,0.022041,0.29685,-0.91606,-0.20931,-0.63446,-0.0066427,0,0,-0.36609,0.55269,0,-0.017271,0,0,1.0227,-0.0029907,0,1.0227,-0.20925,-0.91613,-0.63446,-89.462,-0.58661,0.61637,0.0041252,0.7,0.04,0
0.14996,0.021234,0.27638,-0.91133,-0.20042,-0.6099,-0.0094595,0,0,-0.39186,0.53233,0,-0.024595,0,0,1.0237,-0.00090251,0,1.0237,-0.20029,-0.91146,-0.6099,-89.238,-0.57388,0.61825,0.0031494,0.72,0.04,0
0.14187,0.020291,0.2559,-0.90539,-0.19452,-0.58587,-0.01193,0,0,-0.41537,0.50875,0,-0.031017,0,0,1.0236,0.0012273,0,1.0236,-0.19432,-0.90559,-0.58587,-89.039,-0.56193,0.61702,0.0020973,0.74,0.04,0
0.13334,0.019236,0.23543,-0.89832,-0.19107,-0.56225,-0.014218,0,0,-0.4369,0.48253,0,-0.036966,0,0,1.0226,0.0035063,0,1.0226,-0.19079,-0.89861,-0.56225,-88.849,-0.55055,0.61324,0.0010159,0.76,0.04,0
0.1244,0.018095,0.21499,-0.89017,-0.18958,-0.53892,-0.016373,0,0,-0.45662,0.45414,0,-0.042569,0,0,1.0203,0.0060305,0,1.0203,-0.1892,-0.89055,-0.53892,-88.662,-0.53956,0.60739,-5.4215e-05,0.78,0.04,0
0.11507,0.016894,0.19462,-0.88094,-0.18954,-0.51577,-0.018289,0,0,-0.47474,0.42409,0,-0.047552,0,0,1.0167,0.0088673,0,1.0167,-0.18906,-0.88143,-0.51577,-88.486,-0.52875,0.59993,-0.0010787,0.8,0.04,0
0.10541,0.015667,0.17433,-0.87079,-0.19033,-0.49267,-0.019686,0,0,-0.49157,0.39304,0,-0.051185,0,0,1.0115,0.012021,0,1.0116,-0.18976,-0.87136,-0.49267,-88.344,-0.51793,0.5915,-0.0020317,0.82,0.04,0
0.095412,0.014459,0.15416,-0.86004,-0.19103,-0.46948,-0.020142,0,0,-0.50773,0.36198,0,-0.052369,0,0,1.0047,0.01538,0,1.0048,-0.19042,-0.86064,-0.46948,-88.277,-0.50685,0.58313,-0.0029008,0.84,0.04,0
0.085098,0.013326,0.13414,-0.84926,-0.19033,-0.44602,-0.019224,0,0,-0.52421,0.3324,0,-0.049981,0,0,0.99595,0.01866,0,0.99614,-0.18976,-0.84982,-0.44602,-88.33,-0.4952,0.57636,-0.0036936,0.86,0.04,0
0.074444,0.012332,0.11432,-0.83922,-0.18653,-0.42204,-0.016734,0,0,-0.54233,0.30617,0,-0.043509,0,0,0.98552,0.021372,0,0.98577,-0.1861,-0.83965,-0.42204,-88.532,-0.4826,0.57323,-0.0044448,0.88,0.04,0
0.063404,0.011531,0.094721,-0.83067,-0.17795,-0.39731,-0.012944,0,0,-0.56337,0.28517,0,-0.033654,0,0,0.97378,0.022874,0,0.97407,-0.17769,-0.83093,-0.39731,-88.864,-0.46864,0.57575,-0.0052136,0.9,0.04,0
0.051909,0.010951,0.075368,-0.82411,-0.16357,-0.37167,-0.0086326,0,0,-0.58817,0.27054,0,-0.022445,0,0,0.96157,0.02252,0,0.96185,-0.16345,-0.82422,-0.37167,-89.251,-0.45312,0.58514,-0.0060704,0.92,0.04,0
0.039878,0.010583,0.056259,-0.8196,-0.14364,-0.34523,-0.0047886,0,0,-0.61668,0.26207,0,-0.01245,0,0,0.95002,0.019868,0,0.95025,-0.14361,-0.81964,-0.34523,-89.594,-0.43616,0.60113,-0.0070728,0.94,0.04,0
0.027241,0.010383,0.037367,-0.81679,-0.11965,-0.3183,-0.0021263,0,0,-0.64804,0.25825,0,-0.0055284,0,0,0.94048,0.014876,0,0.94061,-0.11964,-0.8168,-0.3183,-89.825,-0.41824,0.62209,-0.0082473,0.96,0.04,0
0.013956,0.010293,0.018639,-0.8151,-0.093521,-0.29123,-0.00071949,0,0,-0.68104,0.25702,0,-0.0018707,0,0,0.93417,0.0079734,0,0.93421,-0.09352,-0.8151,-0.29123,-89.943,-0.39995,0.64584,-0.00959,0.98,0.04,0
0,0.010267,0,-0.7912,-0.05693,-0.25444,-0.00049207,0,0,-0.69779,0.25676,0,-0.0012794,0,0,0.93197,-5.6378e-18,0,0.93196,-0.05693,-0.7912,-0.25444,-89.962,-0.36752,0.65814,-0.010318,1,0.04,0
0,0.026559,1,-0.86439,-1.3254,-1.6569,0.0052038,0,0,1.0303,0.43105,0,0.01353,0,0,0.82549,-1.471e-15,0,0.82532,-0.86433,-1.3254,-1.6569,0.64671,-1.2822,0.68946,0.0046888,0,0.06,0
0.020606,0.02683,0.98349,-0.84564,-1.2909,-1.6244,0.014682,0,0,1.0125,0.43364,0,0.038174,0,0,0.83369,-0.041186,0,0.83458,-0.84515,-1.2913,-1.6244,1.8867,-1.2536,0.67725,0.0039598,0.02,0.06,0
0.040498,0.027786,0.96665,-0.852,-1.2603,-1.6003,0.03488,0,0,0.97283,0.4421,0,0.090689,0,0,0.85878,-0.080992,0,0.86261,-0.84904,-1.2632,-1.6003,4.8485,-1.2375,0.65177,0.0025098,0.04,0.06,0
0.059519,0.029829,0.94914,-0.86701,-1.2207,-1.5755,0.06689,0,0,0.92099,0.46115,0,0.17391,0,0,0.90043,-0.1152,0,0.90806,-0.85478,-1.233,-1.5755,10.358,-1.2211,0.62438,0.0010703,0.06,0.06,0
0.077338,0.033633,0.93063,-0.90048,-1.1557,-1.5475,0.11369,0,0,0.84111,0.50932,0,0.29559,0,0,0.95454,-0.1342,0,0.96442,-0.85718,-1.199,-1.5475,20.849,-1.2012,0.59783,-0.00018363,0.08,0.06,0
0.093163,0.039676,0.91096,-0.94855,-1.021,-1.5018,0.16219,0,0,0.71927,0.62503,0,0.42169,0,0,1.0118,-0.1317,0,1.0207,-0.81861,-1.151,-1.5018,38.702,-1.1571,0.59176,-0.00049823,0.1,0.06,0
0.10611,0.04741,0.89016,-0.99936,-0.81406,-1.4342,0.1765,0,0,0.56528,0.80617,0,0.4589,0,0,1.0612,-0.10878,0,1.0669,-0.70737,-1.106,-1.4342,58.848,-1.0825,0.63043,0.002151,0.12,0.06,0
0.11577,0.055033,0.86851,-1.0494,-0.62381,-1.3705,0.14743,0,0,0.41744,0.97064,0,0.38331,0,0,1.0962,-0.078776,0,1.099,-0.57773,-1.0954,-1.3705,72.641,-1.0145,0.69716,0.0087198,0.14,0.06,0
0.12281,0.060935,0.84632,-1.0852,-0.49744,-1.3211,0.095755,0,0,0.30673,1.0708,0,0.24896,0,0,1.1168,-0.051663,0,1.118,-0.48223,-1.1003,-1.3211,80.976,-0.96789,0.75316,0.015754,0.16,0.06,0
0.12804,0.06455,0.82384,-1.1022,-0.42586,-1.2823,0.049537,0,0,0.23407,1.1133,0,0.1288,0,0,1.1278,-0.032102,0,1.1282,-0.42225,-1.1058,-1.2823,85.833,-0.93677,0.78676,0.020834,0.18,0.06,0
0.13217,0.066028,0.80121,-1.1043,-0.38357,-1.2476,0.01507,0,0,0.1862,1.1232,0,0.039183,0,0,1.1334,-0.017306,0,1.1335,-0.38326,-1.1047,-1.2476,88.803,-0.91184,0.80247,0.023728,0.2,0.06,0
0.13549,0.065727,0.7785,-1.102,-0.36285,-1.218,-0.010913,0,0,0.15073,1.1116,0,-0.028374,0,0,1.136,-0.0048081,0,1.136,-0.36269,-1.1022,-1.218,-89.154,-0.89428,0.80366,0.024804,0.22,0.06,0
0.1382,0.063877,0.75577,-1.0975,-0.35993,-1.193,-0.034577,0,0,0.12412,1.083,0,-0.089899,0,0,1.1362,0.0074978,0,1.1362,-0.35831,-1.0991,-1.193,-87.322,-0.88348,0.79194,0.024306,0.24,0.06,0
0.14046,0.060563,0.73305,-1.089,-0.37493,-1.1722,-0.061491,0,0,0.10818,1.0365,0,-0.15988,0,0,1.1334,0.021651,0,1.1336,-0.36967,-1.0943,-1.1722,-85.114,-0.87873,0.76656,0.02233,0.26,0.06,0
0.14253,0.055762,0.71043,-1.0687,-0.41109,-1.1544,-0.093923,0,0,0.11134,0.96627,0,-0.2442,0,0,1.1255,0.03991,0,1.1262,-0.39794,-1.0819,-1.1544,-82.029,-0.87807,0.72292,0.018748,0.28,0.06,0
0.14491,0.049626,0.68803,-1.0356,-0.48402,-1.1439,-0.12661,0,0,0.14083,0.85786,0,-0.32919,0,0,1.1086,0.064683,0,1.1105,-0.45635,-1.0633,-1.1439,-77.67,-0.88784,0.651,0.01344,0.3,0.06,0
0.14816,0.042791,0.66609,-0.99336,-0.59177,-1.1416,-0.13993,0,0,0.19275,0.71481,0,-0.36381,0,0,1.0787,0.091265,0,1.0827,-0.54782,-1.0373,-1.1416,-72.564,-0.90892,0.54912,0.0074802,0.32,0.06,0
0.15262,0.036479,0.64488,-0.9509,-0.69468,-1.1386,-0.12451,0,0,0.24396,0.57704,0,-0.32372,0,0,1.0363,0.11034,0,1.0425,-0.64414,-1.0014,-1.1386,-67.909,-0.92804,0.4421,0.0030412,0.34,0.06,0
0.15792,0.031756,0.62464,-0.90978,-0.73798,-1.119,-0.091138,0,0,0.27193,0.49528,0,-0.23696,0,0,0.9882,0.11008,0,0.99464,-0.69864,-0.94912,-1.119,-66.653,-0.92224,0.36624,0.00081984,0.36,0.06,0
0.1635,0.028673,0.60536,-0.87796,-0.73934,-1.0905,-0.064109,0,0,0.27637,0.45656,0,-0.16668,0,0,0.94473,0.090967,0,0.94925,-0.71424,-0.90306,-1.0905,-68.616,-0.90261,0.32589,1.0949e-05,0.38,0.06,0
0.16897,0.026725,0.58685,-0.85716,-0.73271,-1.0638,-0.0462,0,0,0.26864,0.43043,0,-0.12012,0,0,0.914,0.06045,0,0.91597,-0.71743,-0.87243,-1.0638,-71.704,-0.88455,0.30052,-0.00025182,0.4,0.06,0
0.17424,0.02548,0.5688,-0.84073,-0.72323,-1.038,-0.031724,0,0,0.25643,0.40918,0,-0.082483,0,0,0.89847,0.028978,0,0.89886,-0.71521,-0.84875,-1.038,-75.816,-0.86731,0.28092,-0.00033415,0.42,0.06,0
0.17923,0.024804,0.55091,-0.82903,-0.70866,-1.0122,-0.015918,0,0,0.23814,0.39462,0,-0.041386,0,0,0.89628,0.001639,0,0.89623,-0.70659,-0.8311,-1.0122,-82.592,-0.84997,0.26619,-0.00030437,0.44,0.06,0
0.18377,0.024719,0.53295,-0.82394,-0.68528,-0.98571,0.002315,0,0,0.2103,0.39056,0,0.006019,0,0,0.90394,-0.019501,0,0.90414,-0.68524,-0.82398,-0.98571,89.044,-0.83164,0.26047,-0.0001199,0.46,0.06,0
0.18764,0.025274,0.51475,-0.82661,-0.6498,-0.95767,0.02154,0,0,0.17039,0.40023,0,0.056005,0,0,0.91799,-0.03369,0,0.91864,-0.64722,-0.82919,-0.95767,83.153,-0.81136,0.27019,0.00029694,0.48,0.06,0
0.19059,0.02645,0.49623,-0.83654,-0.60081,-0.92743,0.038513,0,0,0.11816,0.42461,0,0.10013,0,0,0.93533,-0.041109,0,0.93627,-0.59468,-0.84267,-0.92743,80.952,-0.78826,0.29951,0.0010164,0.5,0.06,0
0.19237,0.028104,0.47734,-0.8518,-0.54087,-0.89514,0.049643,0,0,0.056337,0.46055,0,0.12907,0,0,0.95329,-0.042778,0,0.95429,-0.53313,-0.85953,-0.89514,81.145,-0.7626,0.34558,0.002044,0.52,0.06,0
0.19284,0.029986,0.45809,-0.86952,-0.47644,-0.86188,0.052841,0,0,-0.0099277,0.50108,0,0.13739,0,0,0.96995,-0.040312,0,0.97082,-0.46946,-0.8765,-0.86188,82.476,-0.73594,0.39993,0.0032705,0.54,0.06,0
0.19197,0.031808,0.43854,-0.88662,-0.41481,-0.82897,0.048646,0,0,-0.074954,0.53841,0,0.12648,0,0,0.98421,-0.035488,0,0.98487,-0.40985,-0.89159,-0.82897,84.174,-0.71013,0.45369,0.0044896,0.56,0.06,0
0.18984,0.033328,0.41873,-0.90073,-0.36095,-0.79723,0.039539,0,0,-0.13455,0.56716,0,0.1028,0,0,0.99575,-0.02979,0,0.99621,-0.35807,-0.90361,-0.79723,85.833,-0.6863,0.5009,0.0054859,0.58,0.06,0
0.18659,0.034403,0.39871,-0.91069,-0.31669,-0.76692,0.02849,0,0,-0.1869,0.58531,0,0.074075,0,0,1.0048,-0.024178,0,1.0051,-0.31532,-0.91206,-0.76692,87.26,-0.66477,0.53903,0.0061208,0.6,0.06,0
0.18236,0.034983,0.37854,-0.91654,-0.28159,-0.73797,0.017737,0,0,-0.23214,0.5933,0,0.046117,0,0,1.0117,-0.019109,0,1.0118,-0.28109,-0.91704,-0.73797,88.401,-0.64537,0.56799,0.0063543,0.62,0.06,0
0.1773,0.035087,0.35824,-0.919,-0.25432,-0.71024,0.0084618,0,0,-0.27139,0.59269,0,0.022001,0,0,1.0169,-0.014698,0,1.017,-0.25422,-0.91911,-0.71024,89.271,-0.62786,0.58893,0.0062163,0.64,0.06,0
0.17151,0.034767,0.33786,-0.91895,-0.23342,-0.68357,0.00098024,0,0,-0.30599,0.58519,0,0.0025486,0,0,1.0207,-0.010875,0,1.0208,-0.23342,-0.91895,-0.68357,89.918,-0.61198,0.60332,0.0057682,0.66,0.06,0
0.16506,0.03409,0.31741,-0.91711,-0.21762,-0.65783,-0.0048854,0,0,-0.33707,0.57228,0,-0.012702,0,0,1.0235,-0.0074979,0,1.0235,-0.21759,-0.91715,-0.65783,-89.6,-0.59752,0.61255,0.0050781,0.68,0.06,0
0.15802,0.033116,0.29692,-0.914,-0.2059,-0.63289,-0.0095249,0,0,-0.36544,0.55508,0,-0.024765,0,0,1.0253,-0.0043993,0,1.0253,-0.20578,-0.91413,-0.63289,-89.23,-0.58427,0.61777,0.0042093,0.7,0.06,0
0.15044,0.0319,0.2764,-0.9099,-0.19749,-0.60861,-0.013368,0,0,-0.39167,0.53446,0,-0.034757,0,0,1.0263,-0.0014065,0,1.0263,-0.19724,-0.91015,-0.60861,-88.925,-0.572,0.61983,0.0032171,0.72,0.06,0
0.14236,0.030485,0.25587,-0.90491,-0.19179,-0.58488,-0.016793,0,0,-0.41604,0.51101,0,-0.043662,0,0,1.0264,0.0016522,0,1.0264,-0.19139,-0.90531,-0.58488,-88.652,-0.56053,0.61934,0.0021489,0.74,0.06,0
0.1338,0.028908,0.23534,-0.89902,-0.18836,-0.56156,-0.020071,0,0,-0.4387,0.48516,0,-0.052183,0,0,1.0255,0.0049463,0,1.0255,-0.18779,-0.89959,-0.56156,-88.384,-0.54965,0.61669,0.0010458,0.76,0.06,0
0.12481,0.027201,0.21485,-0.8921,-0.18686,-0.53853,-0.023314,0,0,-0.45963,0.45717,0,-0.060617,0,0,1.0236,0.0086397,0,1.0237,-0.18609,-0.89287,-0.53853,-88.109,-0.53917,0.61209,-5.4608e-05,0.78,0.06,0
0.11542,0.025399,0.1944,-0.88398,-0.187,-0.51569,-0.02642,0,0,-0.47878,0.4273,0,-0.068692,0,0,1.0204,0.012873,0,1.0205,-0.186,-0.88498,-0.51569,-87.832,-0.52889,0.60566,-0.0011174,0.8,0.06,0
0.10566,0.023547,0.17403,-0.87457,-0.18842,-0.49293,-0.028997,0,0,-0.49614,0.39586,0,-0.075393,0,0,1.0157,0.017721,0,1.0158,-0.1872,-0.8758,-0.49293,-87.584,-0.51864,0.59759,-0.0021105,0.82,0.06,0
0.095572,0.021707,0.15377,-0.864,-0.19048,-0.47012,-0.030346,0,0,-0.51205,0.36353,0,-0.078899,0,0,1.0089,0.0231,0,1.0092,-0.18911,-0.86537,-0.47012,-87.425,-0.5082,0.58843,-0.0030093,0.84,0.06,0
0.085178,0.019965,0.13367,-0.85282,-0.19191,-0.44709,-0.029615,0,0,-0.52744,0.33173,0,-0.076998,0,0,0.99987,0.028639,0,1.0003,-0.19059,-0.85414,-0.44709,-87.439,-0.49727,0.57956,-0.0038081,0.86,0.06,0
0.074474,0.018427,0.11378,-0.84195,-0.19058,-0.42354,-0.026203,0,0,-0.54394,0.30284,0,-0.068128,0,0,0.98835,0.033558,0,0.98894,-0.18953,-0.84301,-0.42354,-87.7,-0.48536,0.57347,-0.0045351,0.88,0.06,0
0.06342,0.017192,0.094138,-0.83251,-0.18383,-0.39904,-0.020353,0,0,-0.56351,0.27977,0,-0.052918,0,0,0.97466,0.036697,0,0.97538,-0.18319,-0.83314,-0.39904,-88.205,-0.47179,0.57336,-0.0052606,0.9,0.06,0
0.051934,0.016318,0.074791,-0.82527,-0.16967,-0.37327,-0.013352,0,0,-0.58759,0.26468,0,-0.034715,0,0,0.95976,0.036782,0,0.96049,-0.1694,-0.82554,-0.37327,-88.834,-0.45607,0.58165,-0.0060806,0.92,0.06,0
0.039916,0.01579,0.055748,-0.82046,-0.14828,-0.34637,-0.0070679,0,0,-0.61632,0.25752,0,-0.018377,0,0,0.94519,0.032885,0,0.94578,-0.1482,-0.82054,-0.34637,-89.398,-0.43837,0.59839,-0.0070738,0.94,0.06,0
0.027281,0.01553,0.036983,-0.81771,-0.12209,-0.31893,-0.0028482,0,0,-0.64842,0.25588,0,-0.0074053,0,0,0.93285,0.024834,0,0.93319,-0.12208,-0.81772,-0.31893,-89.765,-0.41958,0.62107,-0.0082661,0.96,0.06,0
0.013979,0.015429,0.018433,-0.81622,-0.094291,-0.29159,-0.00083389,0,0,-0.68202,0.25648,0,-0.0021681,0,0,0.92458,0.013372,0,0.92467,-0.09429,-0.81622,-0.29159,-89.934,-0.4007,0.64628,-0.0096323,0.98,0.06,0
0,0.015404,0,-0.7927,-0.057412,-0.25503,-0.0004882,0,0,-0.69897,0.25691,0,-0.0012693,0,0,0.92167,-3.4694e-18,0,0.92166,-0.057411,-0.7927,-0.25503,-89.962,-0.36838,0.65909,-0.01037,1,0.06,0
0,0.035057,1,-0.85919,-1.3429,-1.6606,0.0060568,0,0,1.0419,0.41306,0,0.015748,0,0,0.77638,-4.7184e-16,0,0.77602,-0.85911,-1.343,-1.6606,0.71732,-1.2876,0.69908,0.0061389,0,0.08,0
0.020837,0.035372,0.98447,-0.84392,-1.3117,-1.6312,0.021658,0,0,1.0234,0.41531,0,0.05631,0,0,0.78486,-0.056963,0,0.78661,-0.84292,-1.3127,-1.6312,2.6453,-1.2623,0.68681,0.0054095,0.02,0.08,0
0.040936,0.036449,0.96861,-0.85355,-1.2859,-1.6104,0.048085,0,0,0.98396,0.42189,0,0.12502,0,0,0.81271,-0.11528,0,0.82067,-0.84827,-1.2912,-1.6104,6.27,-1.25,0.66296,0.0041395,0.04,0.08,0
0.060196,0.038736,0.95196,-0.86994,-1.2609,-1.5912,0.08664,0,0,0.93766,0.42939,0,0.22526,0,0,0.86638,-0.17388,0,0.88398,-0.8516,-1.2793,-1.5912,11.951,-1.2407,0.64314,0.0036469,0.06,0.08,0
0.078443,0.043296,0.93395,-0.90431,-1.2255,-1.5729,0.15245,0,0,0.86918,0.45157,0,0.39637,0,0,0.9441,-0.21844,0,0.97034,-0.84348,-1.2864,-1.5729,21.753,-1.2343,0.63652,0.0047825,0.08,0.08,0
0.094963,0.05179,0.9142,-0.9758,-1.1059,-1.5387,0.23132,0,0,0.73179,0.56264,0,0.60142,0,0,1.0294,-0.20703,0,1.0509,-0.80056,-1.2812,-1.5387,37.146,-1.2068,0.64891,0.0069497,0.1,0.08,0
0.10771,0.063752,0.89277,-1.01,-0.7664,-1.4257,0.25414,0,0,0.54036,0.8571,0,0.66076,0,0,1.0966,-0.15859,0,1.1081,-0.60639,-1.1701,-1.4257,57.806,-1.0674,0.72607,0.011759,0.12,0.08,0
0.11658,0.07504,0.87033,-1.0592,-0.53252,-1.3478,0.1783,0,0,0.37525,1.0599,0,0.46359,0,0,1.1326,-0.094168,0,1.1363,-0.47783,-1.1139,-1.3478,72.949,-0.97985,0.77982,0.017168,0.14,0.08,0
0.12272,0.082893,0.84747,-1.0909,-0.44513,-1.3083,0.10051,0,0,0.28258,1.1221,0,0.26134,0,0,1.1448,-0.058656,0,1.1462,-0.42984,-1.1062,-1.3083,81.354,-0.9481,0.79685,0.020461,0.16,0.08,0
0.12788,0.087117,0.82454,-1.0812,-0.39083,-1.2661,0.046099,0,0,0.24046,1.1379,0,0.11986,0,0,1.147,-0.036001,0,1.1475,-0.38776,-1.0842,-1.2661,86.197,-0.91272,0.80303,0.022065,0.18,0.08,0
0.13234,0.088649,0.80159,-1.0721,-0.35973,-1.2311,0.012587,0,0,0.20677,1.1328,0,0.032728,0,0,1.1483,-0.019706,0,1.1485,-0.35951,-1.0723,-1.2311,88.988,-0.88765,0.80406,0.023226,0.2,0.08,0
0.13615,0.08806,0.77861,-1.0688,-0.34353,-1.2023,-0.011042,0,0,0.17353,1.1164,0,-0.02871,0,0,1.1495,-0.0061127,0,1.1495,-0.34336,-1.069,-1.2023,-89.128,-0.87156,0.80066,0.023917,0.22,0.08,0
0.13928,0.085666,0.75561,-1.0716,-0.33946,-1.1789,-0.032813,0,0,0.1395,1.0913,0,-0.085315,0,0,1.1507,0.0073156,0,1.1507,-0.33799,-1.0731,-1.1789,-87.439,-0.86334,0.79333,0.024112,0.24,0.08,0
0.14173,0.08152,0.73258,-1.0785,-0.34778,-1.1604,-0.059945,0,0,0.10659,1.0565,0,-0.15586,0,0,1.1516,0.023038,0,1.1518,-0.34289,-1.0834,-1.1604,-85.341,-0.86223,0.78186,0.023745,0.26,0.08,0
0.14355,0.075472,0.70954,-1.0833,-0.373,-1.1464,-0.10046,0,0,0.082049,1.0055,0,-0.2612,0,0,1.1514,0.044435,0,1.1522,-0.35907,-1.0973,-1.1464,-82.103,-0.86759,0.76397,0.022582,0.28,0.08,0
0.14501,0.067151,0.68653,-1.054,-0.42055,-1.1289,-0.1541,0,0,0.097367,0.92084,0,-0.40067,0,0,1.1415,0.07734,0,1.1439,-0.38505,-1.0895,-1.1289,-77.027,-0.86781,0.72495,0.019373,0.3,0.08,0
0.14744,0.057151,0.66388,-1.0154,-0.56981,-1.1395,-0.20124,0,0,0.16126,0.74052,0,-0.52322,0,0,1.1094,0.13602,0,1.1178,-0.49238,-1.0928,-1.1395,-68.955,-0.90822,0.62506,0.012308,0.32,0.08,0
0.15146,0.047698,0.64215,-0.9827,-0.75936,-1.1648,-0.17642,0,0,0.23669,0.52703,0,-0.45868,0,0,1.0494,0.17691,0,1.0649,-0.66224,-1.0798,-1.1648,-61.167,-0.96894,0.4659,0.0046173,0.34,0.08,0
0.15691,0.041326,0.62191,-0.91908,-0.77458,-1.13,-0.12617,0,0,0.27421,0.46205,0,-0.32803,0,0,0.97546,0.1819,0,0.9932,-0.70144,-0.99222,-1.13,-59.899,-0.94122,0.37895,0.0016006,0.36,0.08,0
0.16243,0.03763,0.60313,-0.88514,-0.7595,-1.0965,-0.090703,0,0,0.27481,0.43813,0,-0.23583,0,0,0.91228,0.13562,0,0.92237,-0.71199,-0.93265,-1.0965,-62.352,-0.91372,0.33423,0.00048401,0.38,0.08,0
0.1679,0.035202,0.58542,-0.85793,-0.74953,-1.0676,-0.069456,0,0,0.27264,0.41356,0,-0.18058,0,0,0.87457,0.080878,0,0.87808,-0.71563,-0.89183,-1.0676,-63.983,-0.8917,0.30486,2.7059e-06,0.4,0.08,0
0.17334,0.033511,0.56815,-0.83459,-0.74217,-1.0412,-0.049244,0,0,0.26856,0.38871,0,-0.12804,0,0,0.86234,0.032315,0,0.86275,-0.72085,-0.85591,-1.0412,-66.59,-0.87264,0.27855,-0.00029686,0.42,0.08,0
0.17864,0.032506,0.55092,-0.81806,-0.73069,-1.0155,-0.025856,0,0,0.25673,0.37032,0,-0.067226,0,0,0.86718,-0.0072642,0,0.86711,-0.72361,-0.82514,-1.0155,-74.69,-0.85476,0.2567,-0.00043319,0.44,0.08,0
0.18361,0.032313,0.53346,-0.81138,-0.71051,-0.99003,0.0014485,0,0,0.23225,0.36337,0,0.003766,0,0,0.88311,-0.036743,0,0.88388,-0.71049,-0.8114,-0.99003,89.177,-0.83731,0.24519,-0.00034792,0.46,0.08,0
0.18793,0.033067,0.5156,-0.81512,-0.67537,-0.96274,0.03054,0,0,0.19192,0.37359,0,0.079405,0,0,0.90562,-0.055489,0,0.90739,-0.66898,-0.8215,-0.96274,78.196,-0.81774,0.25446,5.6183e-05,0.48,0.08,0
0.19128,0.03478,0.49724,-0.82807,-0.62064,-0.93185,0.056345,0,0,0.13492,0.40457,0,0.1465,0,0,0.93059,-0.063816,0,0.93287,-0.60632,-0.84238,-0.93185,75.743,-0.79352,0.29129,0.00087733,0.5,0.08,0
0.19333,0.037241,0.47837,-0.84725,-0.54929,-0.89734,0.072376,0,0,0.065114,0.45246,0,0.18818,0,0,0.9545,-0.063461,0,0.95668,-0.53264,-0.8639,-0.89734,77.044,-0.76462,0.34918,0.0021191,0.52,0.08,0
0.19389,0.040028,0.45906,-0.86864,-0.47275,-0.86148,0.075252,0,0,-0.0093107,0.50534,0,0.19565,0,0,0.97493,-0.057353,0,0.97666,-0.45893,-0.88246,-0.86148,79.592,-0.73429,0.41343,0.003598,0.54,0.08,0
0.19296,0.042665,0.43938,-0.88802,-0.40309,-0.82671,0.066683,0,0,-0.079699,0.5507,0,0.17338,0,0,0.99092,-0.0486,0,0.99213,-0.39409,-0.89702,-0.82671,82.311,-0.70594,0.47172,0.0049898,0.56,0.08,0
0.1907,0.04479,0.41942,-0.90247,-0.34645,-0.79409,0.051851,0,0,-0.14088,0.58194,0,0.13481,0,0,1.0027,-0.039545,0,1.0035,-0.34165,-0.90726,-0.79409,84.718,-0.681,0.51837,0.0060206,0.58,0.08,0
0.18732,0.046224,0.39927,-0.91118,-0.30292,-0.7635,0.035683,0,0,-0.19198,0.59875,0,0.092776,0,0,1.0112,-0.031389,0,1.0116,-0.30084,-0.91326,-0.7635,86.654,-0.6592,0.55297,0.0065842,0.6,0.08,0
0.18302,0.046944,0.37898,-0.91519,-0.27013,-0.73457,0.021212,0,0,-0.2348,0.60378,0,0.055152,0,0,1.0172,-0.024473,0,1.0175,-0.26943,-0.91588,-0.73457,88.119,-0.63996,0.57755,0.0067066,0.62,0.08,0
0.17793,0.047011,0.35858,-0.91602,-0.24535,-0.70699,0.0094949,0,0,-0.27174,0.60013,0,0.024687,0,0,1.0216,-0.018695,0,1.0218,-0.24521,-0.91616,-0.70699,89.189,-0.62279,0.59462,0.0064671,0.64,0.08,0
0.17215,0.046521,0.33811,-0.91502,-0.22658,-0.68059,0.00047287,0,0,-0.30476,0.59021,0,0.0012295,0,0,1.0249,-0.013816,0,1.025,-0.22658,-0.91502,-0.68059,89.961,-0.6074,0.60623,0.0059451,0.66,0.08,0
0.16574,0.04557,0.31758,-0.913,-0.21238,-0.6552,-0.0063867,0,0,-0.33514,0.57567,0,-0.016605,0,0,1.0272,-0.0095695,0,1.0273,-0.21232,-0.91306,-0.6552,-89.478,-0.59352,0.61387,0.0052087,0.68,0.08,0
0.15875,0.044244,0.29702,-0.91038,-0.2017,-0.63065,-0.011732,0,0,-0.36366,0.55763,0,-0.030503,0,0,1.0288,-0.0057027,0,1.0288,-0.2015,-0.91058,-0.63065,-89.052,-0.58091,0.61859,0.0043133,0.7,0.08,0
0.15119,0.042613,0.27643,-0.90733,-0.19383,-0.60678,-0.016174,0,0,-0.39071,0.53683,0,-0.042053,0,0,1.0297,-0.0019765,0,1.0297,-0.19347,-0.9077,-0.60678,-88.702,-0.56932,0.62109,0.0033038,0.72,0.08,0
0.14312,0.040731,0.25583,-0.90384,-0.18829,-0.58347,-0.020227,0,0,-0.41648,0.51374,0,-0.052591,0,0,1.03,0.0018406,0,1.03,-0.18772,-0.90441,-0.58347,-88.382,-0.55853,0.6218,0.0022177,0.74,0.08,0
0.13454,0.038642,0.23523,-0.89975,-0.18474,-0.56058,-0.024275,0,0,-0.44093,0.48859,0,-0.063115,0,0,1.0295,0.0059822,0,1.0295,-0.18392,-0.90058,-0.56058,-88.058,-0.54836,0.62091,0.0010878,0.76,0.08,0
0.12548,0.036382,0.21465,-0.89481,-0.18302,-0.538,-0.028536,0,0,-0.46386,0.46147,0,-0.074194,0,0,1.0282,0.010692,0,1.0283,-0.18188,-0.89596,-0.538,-87.708,-0.53861,0.61841,-5.4094e-05,0.78,0.08,0
0.11598,0.033986,0.1941,-0.88862,-0.18308,-0.51561,-0.032994,0,0,-0.48491,0.4323,0,-0.085784,0,0,1.0257,0.01622,0,1.0259,-0.18154,-0.89016,-0.51561,-87.328,-0.5291,0.61402,-0.0011738,0.8,0.08,0
0.10608,0.031501,0.17362,-0.88068,-0.1849,-0.49329,-0.037257,0,0,-0.5036,0.40091,0,-0.096869,0,0,1.0218,0.022793,0,1.022,-0.18291,-0.88267,-0.49329,-86.944,-0.51963,0.60729,-0.0022318,0.82,0.08,0
0.095838,0.029,0.15323,-0.87075,-0.18845,-0.47099,-0.040401,0,0,-0.51968,0.3673,0,-0.10504,0,0,1.0156,0.03051,0,1.016,-0.18607,-0.87313,-0.47099,-86.623,-0.51006,0.59789,-0.0031867,0.84,0.08,0
0.085296,0.026596,0.133,-0.8591,-0.1929,-0.4486,-0.040912,0,0,-0.53366,0.33241,0,-0.10637,0,0,1.0064,0.039077,0,1.0072,-0.19039,-0.8616,-0.4486,-86.499,-0.5002,0.58642,-0.004006,0.86,0.08,0
0.074492,0.024446,0.11298,-0.84693,-0.19581,-0.4258,-0.037342,0,0,-0.54747,0.29899,0,-0.097089,0,0,0.99357,0.047458,0,0.99473,-0.19367,-0.84907,-0.4258,-86.728,-0.48951,0.57558,-0.0046991,0.88,0.08,0
0.063398,0.022722,0.093253,-0.83583,-0.1927,-0.40181,-0.02937,0,0,-0.56422,0.27184,0,-0.076363,0,0,0.97701,0.053687,0,0.97852,-0.19137,-0.83717,-0.40181,-87.391,-0.47678,0.57047,-0.0053467,0.9,0.08,0
0.051923,0.021538,0.073897,-0.82714,-0.17934,-0.37584,-0.018995,0,0,-0.58669,0.25545,0,-0.049387,0,0,0.95775,0.055322,0,0.95941,-0.17878,-0.82769,-0.37584,-88.322,-0.46077,0.57623,-0.0060931,0.92,0.08,0
0.03993,0.020884,0.054943,-0.82138,-0.15542,-0.34798,-0.0095131,0,0,-0.61541,0.25033,0,-0.024734,0,0,0.93807,0.050405,0,0.93948,-0.15529,-0.82151,-0.34798,-89.182,-0.44159,0.59381,-0.0070601,0.94,0.08,0
0.027306,0.020618,0.036374,-0.81826,-0.12553,-0.31951,-0.0034575,0,0,-0.64838,0.25218,0,-0.0089896,0,0,0.92097,0.038478,0,0.92179,-0.12551,-0.81828,-0.31951,-89.714,-0.4211,0.61901,-0.0082696,0.96,0.08,0
0.013995,0.020552,0.018104,-0.81683,-0.0952,-0.29171,-0.00085851,0,0,-0.68265,0.25547,0,-0.0022321,0,0,0.90934,0.020817,0,0.90955,-0.095199,-0.81683,-0.29171,-89.932,-0.40125,0.64619,-0.0096596,0.98,0.08,0
0,0.020544,0,-0.7938,-0.057962,-0.25553,-0.00016492,0,0,-0.69976,0.25684,0,-0.0004288,0,0,0.90522,0,0,0.90518,-0.057962,-0.7938,-0.25553,-89.987,-0.3691,0.65963,-0.010405,1,0.08,0
0,0.043082,1,-0.83625,-1.3701,-1.6619,0.0069303,0,0,1.0734,0.37933,0,0.018019,0,0,0.71157,-9.09e-16,0,0.71098,-0.83616,-1.3702,-1.6619,0.74361,-1.2894,0.72531,0.0094566,0,0.1,0
0.021467,0.043442,0.98577,-0.82622,-1.3429,-1.6365,0.033633,0,0,1.0534,0.38169,0,0.087446,0,0,0.71842,-0.070902,0,0.7213,-0.82404,-1.3451,-1.6365,3.7088,-1.2685,0.71292,0.0086797,0.02,0.1,0
0.042135,0.044662,0.97126,-0.85097,-1.3259,-1.6243,0.071255,0,0,1.0054,0.38794,0,0.18526,0,0,0.74186,-0.14735,0,0.75573,-0.84051,-1.3364,-1.6243,8.3511,-1.2671,0.68672,0.007323,0.04,0.1,0
0.061682,0.047005,0.95609,-0.88296,-1.3094,-1.6138,0.12086,0,0,0.95011,0.39569,0,0.31424,0,0,0.79726,-0.23572,0,0.83086,-0.85109,-1.3413,-1.6138,14.772,-1.2687,0.66945,0.0072515,0.06,0.1,0
0.080139,0.051695,0.93937,-0.94784,-1.3293,-1.6225,0.20638,0,0,0.87707,0.3812,0,0.53659,0,0,0.92139,-0.34388,0,0.98524,-0.85755,-1.4196,-1.6225,23.629,-1.2999,0.68637,0.011843,0.08,0.1,0
0.096765,0.062182,0.91924,-1.052,-1.2592,-1.6126,0.34933,0,0,0.72873,0.45946,0,0.90826,0,0,1.0716,-0.40595,0,1.1514,-0.79125,-1.52,-1.6126,36.743,-1.3079,0.77918,0.023142,0.1,0.1,0
0.10929,0.081694,0.89651,-1.0047,-0.5362,-1.3588,0.28678,0,0,0.46032,1.0693,0,0.74562,0,0,1.1741,-0.15469,0,1.1812,-0.40016,-1.1407,-1.3588,64.621,-0.96655,0.87032,0.026828,0.12,0.1,0
0.11518,0.09743,0.87228,-1.1215,-0.47162,-1.3502,0.16352,0,0,0.29736,1.1421,0,0.42516,0,0,1.1961,-0.087661,0,1.1991,-0.43279,-1.1603,-1.3502,76.643,-0.9811,0.83874,0.025145,0.14,0.1,0
0.12118,0.10582,0.84866,-1.0562,-0.39866,-1.2851,0.075845,0,0,0.29761,1.1524,0,0.1972,0,0,1.175,-0.054531,0,1.1762,-0.39003,-1.0648,-1.2851,83.505,-0.91332,0.8078,0.020437,0.16,0.1,0
0.12708,0.11007,0.82528,-1.0218,-0.36105,-1.2401,0.034787,0,0,0.28383,1.1428,0,0.090448,0,0,1.1667,-0.034343,0,1.1672,-0.35923,-1.0236,-1.2401,86.995,-0.87433,0.79508,0.019506,0.18,0.1,0
0.13254,0.11134,0.802,-1.0096,-0.33916,-1.2066,0.010625,0,0,0.25611,1.1277,0,0.027625,0,0,1.1633,-0.0197,0,1.1634,-0.33899,-1.0098,-1.2066,89.092,-0.8518,0.78788,0.019932,0.2,0.1,0
0.13733,0.11038,0.77875,-1.0111,-0.3267,-1.1801,-0.0060365,0,0,0.21972,1.1094,0,-0.015695,0,0,1.163,-0.0072739,0,1.1631,-0.32665,-1.0111,-1.1801,-89.495,-0.83928,0.78274,0.020815,0.22,0.1,0
0.14132,0.10753,0.75547,-1.0222,-0.32138,-1.1585,-0.021791,0,0,0.17726,1.0883,0,-0.056656,0,0,1.1653,0.0050799,0,1.1653,-0.3207,-1.0229,-1.1585,-88.221,-0.83404,0.77892,0.02181,0.24,0.1,0
0.14442,0.10282,0.73213,-1.044,-0.32385,-1.1425,-0.042549,0,0,0.12806,1.0642,0,-0.11063,0,0,1.1705,0.019452,0,1.1707,-0.32135,-1.0465,-1.1425,-86.63,-0.83677,0.77759,0.022911,0.26,0.1,0
0.14645,0.095981,0.70865,-1.0805,-0.33775,-1.1341,-0.075604,0,0,0.069697,1.0353,0,-0.19657,0,0,1.1798,0.038967,0,1.1804,-0.33013,-1.0881,-1.1341,-84.247,-0.8508,0.78202,0.024276,0.28,0.1,0
0.14721,0.086459,0.68494,-1.1328,-0.37521,-1.1374,-0.14189,0,0,0.0058764,0.99078,0,-0.36891,0,0,1.2002,0.070435,0,1.2021,-0.34951,-1.1585,-1.1374,-79.733,-0.8818,0.79864,0.026101,0.3,0.1,0
0.14668,0.072412,0.66065,-1.0353,-0.39896,-1.0909,-0.22821,0,0,0.072326,0.89955,0,-0.59334,0,0,1.1783,0.133,0,1.1831,-0.32558,-1.1087,-1.0909,-72.175,-0.84172,0.77437,0.023807,0.32,0.1,0
0.1501,0.05756,0.63781,-1.0605,-0.87297,-1.2179,-0.28141,0,0,0.20454,0.44835,0,-0.73168,0,0,1.0822,0.3642,0,1.147,-0.67012,-1.2634,-1.2179,-54.215,-1.0505,0.57186,0.0093998,0.34,0.1,0
0.15486,0.050238,0.61736,-0.96228,-0.83434,-1.1563,-0.18313,0,0,0.25229,0.4186,0,-0.47614,0,0,0.9469,0.28851,0,0.9907,-0.70433,-1.0923,-1.1563,-54.627,-0.98432,0.42364,0.0036058,0.36,0.1,0
0.16019,0.046199,0.59993,-0.89352,-0.79041,-1.1051,-0.13402,0,0,0.27507,0.40911,0,-0.34846,0,0,0.84371,0.17856,0,0.86159,-0.69837,-0.98556,-1.1051,-55.52,-0.92968,0.36208,0.0015722,0.38,0.1,0
0.16587,0.043268,0.58361,-0.84814,-0.77907,-1.0718,-0.10106,0,0,0.29073,0.38051,0,-0.26277,0,0,0.8107,0.093626,0,0.81548,-0.70681,-0.92041,-1.0718,-54.432,-0.89966,0.3176,0.00047745,0.4,0.1,0
0.17182,0.041029,0.5675,-0.81454,-0.7699,-1.0428,-0.069868,0,0,0.29678,0.35482,0,-0.18166,0,0,0.81032,0.026501,0,0.8104,-0.71887,-0.86557,-1.0428,-53.859,-0.87576,0.28098,-0.00018521,0.42,0.1,0
0.17774,0.039617,0.5512,-0.7965,-0.76096,-1.0184,-0.036264,0,0,0.28852,0.33472,0,-0.094285,0,0,0.82722,-0.026286,0,0.82752,-0.73834,-0.81911,-1.0184,-58.053,-0.85863,0.2497,-0.00052671,0.44,0.1,0
0.18336,0.039254,0.53441,-0.79155,-0.74582,-0.99563,0.0014358,0,0,0.2653,0.32474,0,0.003733,0,0,0.85571,-0.065018,0,0.85825,-0.74578,-0.79159,-0.99563,88.203,-0.84433,0.23038,-0.00054525,0.46,0.1,0
0.18835,0.040218,0.51697,-0.79935,-0.71315,-0.97072,0.042839,0,0,0.22277,0.33485,0,0.11138,0,0,0.89092,-0.088337,0,0.89548,-0.69548,-0.81702,-0.97072,67.588,-0.82774,0.23891,-0.00014054,0.48,0.1,0
0.19227,0.042633,0.49878,-0.81832,-0.65042,-0.9394,0.080282,0,0,0.1574,0.37567,0,0.20873,0,0,0.92735,-0.095696,0,0.93246,-0.61821,-0.85053,-0.9394,68.14,-0.80271,0.28725,0.00083608,0.5,0.1,0
0.19465,0.046202,0.47987,-0.84334,-0.55869,-0.90048,0.10205,0,0,0.074283,0.44434,0,0.26533,0,0,0.95976,-0.089972,0,0.96407,-0.52588,-0.87615,-0.90048,72.18,-0.7675,0.36305,0.0024204,0.52,0.1,0
0.19524,0.0502,0.46039,-0.86961,-0.46227,-0.85995,0.10153,0,0,-0.012561,0.51699,0,0.26398,0,0,0.98481,-0.076647,0,0.98782,-0.43836,-0.89352,-0.85995,76.752,-0.73061,0.43934,0.0042696,0.54,0.1,0
0.19414,0.053836,0.44048,-0.89141,-0.38294,-0.82279,0.084663,0,0,-0.089214,0.57181,0,0.22012,0,0,1.002,-0.061568,0,1.0039,-0.36921,-0.90514,-0.82279,80.791,-0.69905,0.49987,0.0058323,0.56,0.1,0
0.19167,0.056606,0.42031,-0.90476,-0.32549,-0.78938,0.061475,0,0,-0.14999,0.60306,0,0.15983,0,0,1.013,-0.048095,0,1.0141,-0.31904,-0.91121,-0.78938,84.008,-0.67321,0.54163,0.0067896,0.58,0.1,0
0.18814,0.058353,0.39996,-0.91047,-0.28547,-0.75874,0.039779,0,0,-0.19724,0.61526,0,0.10343,0,0,1.0198,-0.037252,0,1.0205,-0.28294,-0.91299,-0.75874,86.373,-0.65156,0.56883,0.0071618,0.6,0.1,0
0.18378,0.059134,0.37951,-0.91121,-0.25658,-0.72985,0.022325,0,0,-0.23577,0.61525,0,0.058045,0,0,1.0244,-0.028668,0,1.0248,-0.25582,-0.91197,-0.72985,88.049,-0.63255,0.58669,0.007102,0.62,0.1,0
0.17871,0.059092,0.35899,-0.90993,-0.23524,-0.70254,0.0092409,0,0,-0.2696,0.60749,0,0.024026,0,0,1.0275,-0.021794,0,1.0278,-0.23512,-0.91005,-0.70254,89.215,-0.6159,0.59879,0.0067285,0.64,0.1,0
0.173,0.058376,0.33841,-0.90806,-0.21911,-0.67656,-0.00032906,0,0,-0.30095,0.59469,0,-0.00085556,0,0,1.0299,-0.01613,0,1.03,-0.21911,-0.90806,-0.67656,-89.973,-0.60125,0.60725,0.0061228,0.66,0.1,0
0.16667,0.057116,0.31779,-0.90622,-0.20673,-0.65168,-0.0073775,0,0,-0.33091,0.57843,0,-0.019182,0,0,1.0316,-0.011267,0,1.0317,-0.20666,-0.9063,-0.65168,-89.396,-0.58821,0.61335,0.0053411,0.68,0.1,0
0.15976,0.055421,0.29715,-0.9046,-0.19717,-0.62768,-0.012804,0,0,-0.36,0.55966,0,-0.033289,0,0,1.0329,-0.0068683,0,1.033,-0.19694,-0.90483,-0.62768,-88.963,-0.57648,0.61784,0.0044237,0.7,0.1,0
0.15227,0.053373,0.27648,-0.90316,-0.18983,-0.60437,-0.017356,0,0,-0.38842,0.53891,0,-0.045125,0,0,1.0338,-0.0026363,0,1.0338,-0.18941,-0.90358,-0.60437,-88.607,-0.56579,0.62119,0.0034016,0.72,0.1,0
0.14423,0.051034,0.25579,-0.90176,-0.18432,-0.58162,-0.02164,0,0,-0.41618,0.51648,0,-0.056264,0,0,1.0343,0.0017086,0,1.0343,-0.18367,-0.90241,-0.58162,-88.274,-0.5559,0.62364,0.0023,0.74,0.1,0
0.13563,0.048452,0.2351,-0.90019,-0.18046,-0.5593,-0.026134,0,0,-0.44316,0.49249,0,-0.067948,0,0,1.0344,0.0064545,0,1.0344,-0.17951,-0.90114,-0.5593,-87.923,-0.54665,0.62523,0.0011415,0.76,0.1,0
0.1265,0.04566,0.21442,-0.8981,-0.1782,-0.53731,-0.031186,0,0,-0.46903,0.46684,0,-0.081084,0,0,1.0339,0.011924,0,1.0339,-0.17685,-0.89945,-0.53731,-87.524,-0.53787,0.62579,-5.0796e-05,0.78,0.1,0
0.11687,0.042691,0.19375,-0.89494,-0.17768,-0.51554,-0.036965,0,0,-0.49322,0.43921,0,-0.096109,0,0,1.0325,0.018496,0,1.0327,-0.17578,-0.89684,-0.51554,-87.058,-0.52938,0.6248,-0.0012477,0.8,0.1,0
0.10677,0.039583,0.17312,-0.88983,-0.17927,-0.49385,-0.043318,0,0,-0.51478,0.40895,0,-0.11263,0,0,1.0299,0.026625,0,1.0303,-0.17664,-0.89246,-0.49385,-86.524,-0.52098,0.62126,-0.0024067,0.82,0.1,0
0.096276,0.036399,0.15255,-0.88158,-0.18352,-0.47208,-0.049378,0,0,-0.53235,0.37513,0,-0.12838,0,0,1.0252,0.0368,0,1.0259,-0.18004,-0.88505,-0.47208,-85.974,-0.51239,0.61355,-0.0034618,0.84,0.1,0
0.085477,0.033262,0.13211,-0.86994,-0.19134,-0.45049,-0.05311,0,0,-0.54528,0.3369,0,-0.13809,0,0,1.0168,0.049327,0,1.018,-0.18721,-0.87407,-0.45049,-85.552,-0.50392,0.60021,-0.004343,0.86,0.1,0
0.074465,0.030387,0.11188,-0.85585,-0.20075,-0.42886,-0.051123,0,0,-0.55509,0.29654,0,-0.13292,0,0,1.003,0.063224,0,1.005,-0.19679,-0.85981,-0.42886,-85.564,-0.49515,0.58274,-0.0050012,0.88,0.1,0
0.063273,0.028066,0.09199,-0.84206,-0.20509,-0.40614,-0.041646,0,0,-0.5667,0.26136,0,-0.10828,0,0,0.98253,0.075458,0,0.98549,-0.20238,-0.84477,-0.40614,-86.275,-0.48443,0.56859,-0.0055172,0.9,0.1,0
0.051797,0.026536,0.072578,-0.83047,-0.19416,-0.37997,-0.026709,0,0,-0.58566,0.24155,0,-0.069444,0,0,0.95647,0.080998,0,0.96001,-0.19304,-0.83159,-0.37997,-87.601,-0.4682,0.56862,-0.0061171,0.92,0.1,0
0.039847,0.025803,0.053732,-0.822,-0.16557,-0.35,-0.013022,0,0,-0.6136,0.23976,0,-0.033856,0,0,0.92834,0.07566,0,0.93153,-0.16531,-0.82226,-0.35,-88.864,-0.44586,0.58682,-0.0070182,0.94,0.1,0
0.027253,0.025617,0.035444,-0.81735,-0.12986,-0.31961,-0.0047342,0,0,-0.64707,0.24667,0,-0.012309,0,0,0.90327,0.05828,0,0.90517,-0.12983,-0.81739,-0.31961,-89.606,-0.42227,0.61503,-0.0082253,0.96,0.1,0
0.013964,0.025648,0.017601,-0.81519,-0.09647,-0.2911,-0.0014633,0,0,-0.68132,0.25302,0,-0.0038045,0,0,0.88611,0.031568,0,0.88661,-0.096467,-0.81519,-0.2911,-89.883,-0.40092,0.64386,-0.0096039,0.98,0.1,0
0,0.025677,0,-0.79274,-0.059436,-0.25565,0.0005653,0,0,-0.69822,0.25508,0,0.0014698,0,0,0.88004,-6.9389e-18,0,0.87994,-0.059436,-0.79274,-0.25565,89.956,-0.36928,0.65754,-0.010337,1,0.1,0
0,0.050231,1,-0.78158,-1.4076,-1.6568,0.0078716,0,0,1.1377,0.32387,0,0.020466,0,0,0.63457,-6.5919e-16,0,0.63375,-0.78148,-1.4077,-1.6568,0.72026,-1.282,0.78113,0.016353,0,0.12,0
0.022755,0.05064,0.98731,-0.77391,-1.3855,-1.6351,0.047915,0,0,1.1196,0.32449,0,0.12458,0,0,0.63751,-0.079633,0,0.64156,-0.77018,-1.3893,-1.6351,4.4525,-1.2649,0.77197,0.015799,0.02,0.12,0
0.044784,0.051966,0.9745,-0.80223,-1.3785,-1.6287,0.1043,0,0,1.0744,0.32531,0,0.27117,0,0,0.64789,-0.16799,0,0.66811,-0.78393,-1.3968,-1.6287,9.9499,-1.2698,0.75598,0.015351,0.04,0.12,0
0.065732,0.054564,0.96139,-0.87493,-1.3975,-1.6431,0.17415,0,0,0.99864,0.31933,0,0.45278,0,0,0.66985,-0.27845,0,0.72339,-0.82221,-1.4502,-1.6431,16.842,-1.3052,0.74346,0.016411,0.06,0.12,0
0.084729,0.058544,0.94771,-1.0066,-1.4695,-1.6905,0.32258,0,0,0.88906,0.28739,0,0.83872,0,0,0.77388,-0.44049,0,0.88306,-0.84105,-1.6351,-1.6905,27.173,-1.3889,0.82315,0.028207,0.08,0.12,0
0.10129,0.070168,0.93044,-0.87831,-1.0792,-1.099,0.37184,0,0,0.3093,-0.19717,0,2.4156,0,0,0.62879,-0.40815,0,0.76015,-0.59323,-1.3642,-1.099,38.551,-1.0188,0.68271,0.024303,0.1,0.12,0
0.10229,0.10652,0.89896,-0.75009,-0.38993,-0.83643,0.22371,0,0,0.2041,0.21742,0,1.7031,0,0,0.7782,-0.10098,0,0.78875,-0.25238,-0.88763,-0.83643,51.635,-0.65882,0.62829,0.031875,0.12,0.12,0
0.10946,0.12073,0.87384,-0.59689,-0.34368,-0.76278,0.082588,0,0,0.39212,0.20659,0,0.90705,0,0,0.67801,-0.066605,0,0.68493,-0.27565,-0.66492,-0.76278,53.435,-0.56778,0.46959,0.0082476,0.14,0.12,0
0.11798,0.12899,0.84965,-0.54984,-0.30762,-0.72455,0.047167,0,0,0.41295,0.2069,0,0.58628,0,0,0.65895,-0.044407,0,0.66254,-0.25297,-0.60449,-0.72455,52.717,-0.52733,0.44601,0.006223,0.16,0.12,0
0.12598,0.13283,0.82592,-0.54745,-0.2975,-0.70774,0.024861,0,0,0.37886,0.21146,0,0.35867,0,0,0.65001,-0.029856,0,0.65177,-0.25143,-0.59352,-0.70774,51.508,-0.51756,0.42962,0.0064742,0.18,0.12,0
0.13313,0.13376,0.80238,-0.55253,-0.28916,-0.69381,0.01076,0,0,0.33395,0.21687,0,0.19039,0,0,0.64648,-0.01837,0,0.64717,-0.24865,-0.59304,-0.69381,49.505,-0.51183,0.42011,0.007348,0.2,0.12,0
0.13933,0.13243,0.7789,-0.56005,-0.28249,-0.68116,-0.00057307,0,0,0.28625,0.22131,0,0.046182,0,0,0.64587,-0.0081289,0,0.646,-0.24596,-0.59658,-0.68116,-43.165,-0.5079,0.41367,0.0082538,0.22,0.12,0
0.14458,0.1292,0.7554,-0.56824,-0.27665,-0.66894,-0.011583,0,0,0.23802,0.22439,0,-0.094807,0,0,0.64759,0.0021418,0,0.64755,-0.24262,-0.60227,-0.66894,-46.562,-0.50461,0.41004,0.0090803,0.24,0.12,0
0.14885,0.12409,0.73181,-0.57885,-0.27227,-0.65783,-0.02459,0,0,0.18669,0.22715,0,-0.25256,0,0,0.65202,0.013702,0,0.65228,-0.23887,-0.61225,-0.65783,-50.545,-0.50298,0.41035,0.009896,0.26,0.12,0
0.15205,0.11688,0.70798,-0.59676,-0.26971,-0.64933,-0.043981,0,0,0.12426,0.23197,0,-0.45667,0,0,0.66131,0.028329,0,0.66257,-0.23378,-0.6327,-0.64933,-54.437,-0.50527,0.41938,0.011056,0.28,0.12,0
0.15382,0.10678,0.68371,-0.65193,-0.28746,-0.65785,-0.073743,0,0,0.014012,0.24263,0,-0.73499,0,0,0.67954,0.050396,0,0.68317,-0.24499,-0.69439,-0.65785,-57.754,-0.53241,0.44312,0.01293,0.3,0.12,0
0.15261,0.093133,0.65856,-0.79625,-0.31721,-0.69625,-0.17878,0,0,-0.23636,0.26541,0,-1.3524,0,0,0.77174,0.084345,0,0.77848,-0.23611,-0.87734,-0.69625,-58.078,-0.60323,0.58045,0.02188,0.32,0.12,0
0.14437,0.065632,0.62758,-0.82679,-0.75728,-0.82039,-0.30564,0,0,-0.19365,-0.026967,0,-1.9852,0,0,0.62257,0.36842,0,0.73122,-0.48435,-1.0997,-0.82039,-47.679,-0.80149,0.5357,0.0049136,0.34,0.12,0
0.14923,0.05807,0.61037,-0.96378,-0.92537,-1.1771,-0.28695,0,0,0.27733,0.32727,0,-0.74607,0,0,0.78983,0.36036,0,0.86013,-0.65698,-1.2322,-1.1771,-46.915,-1.0221,0.54973,0.0082445,0.36,0.12,0
0.15546,0.053994,0.59599,-0.85023,-0.85206,-1.1067,-0.18655,0,0,0.33338,0.331,0,-0.48502,0,0,0.7174,0.19796,0,0.74213,-0.6646,-1.0377,-1.1067,-44.859,-0.93632,0.41194,0.0032535,0.38,0.12,0
0.16256,0.050422,0.58167,-0.7905,-0.8196,-1.0647,-0.1313,0,0,0.35646,0.31863,0,-0.34139,0,0,0.72251,0.089652,0,0.72703,-0.67295,-0.93716,-1.0647,-41.839,-0.8916,0.34608,0.0011955,0.4,0.12,0
0.16972,0.047704,0.56709,-0.76873,-0.80641,-1.0396,-0.083989,0,0,0.35217,0.30319,0,-0.21837,0,0,0.74243,0.0075107,0,0.74196,-0.70149,-0.87364,-1.0396,-38.68,-0.87159,0.29285,4.0709e-05,0.42,0.12,0
0.17665,0.045895,0.55197,-0.7615,-0.79799,-1.0198,-0.040818,0,0,0.33582,0.28838,0,-0.10613,0,0,0.77565,-0.058421,0,0.77772,-0.73503,-0.82446,-1.0198,-32.957,-0.85977,0.25226,-0.00048883,0.44,0.12,0
0.18316,0.045303,0.53606,-0.76442,-0.78926,-1.0022,0.0058301,0,0,0.30907,0.27678,0,0.015158,0,0,0.82106,-0.10917,0,0.82853,-0.76312,-0.79056,-1.0022,12.573,-0.85195,0.22658,-0.00056798,0.46,0.12,0
0.18901,0.046461,0.51913,-0.7823,-0.76755,-0.98409,0.060334,0,0,0.26232,0.28149,0,0.15687,0,0,0.87494,-0.13843,0,0.8863,-0.71415,-0.83571,-0.98409,48.483,-0.84465,0.23416,-0.00011277,0.48,0.12,0
0.19365,0.049807,0.50107,-0.81162,-0.69578,-0.95328,0.11487,0,0,0.18416,0.33476,0,0.29866,0,0,0.92896,-0.14233,0,0.94019,-0.62505,-0.88234,-0.95328,58.38,-0.82023,0.29914,0.0011185,0.5,0.12,0
0.19638,0.055015,0.48197,-0.84329,-0.56405,-0.90417,0.14157,0,0,0.079147,0.44217,0,0.36809,0,0,0.97355,-0.12373,0,0.98151,-0.50483,-0.90251,-0.90417,67.301,-0.7705,0.39852,0.0032504,0.52,0.12,0
0.19681,0.060708,0.46212,-0.8752,-0.43632,-0.85558,0.13123,0,0,-0.025503,0.54504,0,0.3412,0,0,1.0033,-0.096738,0,1.008,-0.40008,-0.91144,-0.85558,74.56,-0.72237,0.48585,0.0056285,0.54,0.12,0
0.19536,0.065537,0.44184,-0.89758,-0.34988,-0.81608,0.098195,0,0,-0.10595,0.60606,0,0.25531,0,0,1.0195,-0.071751,0,1.022,-0.33281,-0.91465,-0.81608,80.137,-0.68785,0.53936,0.0071596,0.56,0.12,0
0.19258,0.068912,0.42135,-0.90685,-0.29964,-0.78329,0.065112,0,0,-0.16063,0.62875,0,0.16929,0,0,1.027,-0.053812,0,1.0284,-0.29273,-0.91376,-0.78329,83.948,-0.66326,0.56716,0.0077246,0.58,0.12,0
0.18893,0.070835,0.40076,-0.90554,-0.26602,-0.75223,0.039246,0,0,-0.19931,0.63207,0,0.10204,0,0,1.0306,-0.040844,0,1.0314,-0.26362,-0.90794,-0.75223,86.501,-0.64126,0.58229,0.0077483,0.6,0.12,0
0.1846,0.071554,0.38012,-0.90194,-0.24253,-0.72346,0.020898,0,0,-0.23202,0.62521,0,0.054334,0,0,1.0327,-0.031189,0,1.0332,-0.24187,-0.9026,-0.72346,88.187,-0.62264,0.59186,0.0074519,0.62,0.12,0
0.17965,0.071311,0.35945,-0.89876,-0.22518,-0.69664,0.0081305,0,0,-0.26277,0.61289,0,0.021139,0,0,1.0342,-0.023714,0,1.0345,-0.22509,-0.89886,-0.69664,89.308,-0.60686,0.59884,0.0069391,0.64,0.12,0
0.17409,0.070308,0.33875,-0.89678,-0.21185,-0.67135,-0.00078049,0,0,-0.29307,0.59734,0,-0.0020293,0,0,1.0354,-0.017665,0,1.0355,-0.21185,-0.89679,-0.67135,-89.935,-0.59333,0.6046,0.006262,0.66,0.12,0
0.16793,0.068707,0.31804,-0.89598,-0.2013,-0.64722,-0.0071933,0,0,-0.32339,0.5797,0,-0.018703,0,0,1.0365,-0.012516,0,1.0366,-0.20122,-0.89606,-0.64722,-89.407,-0.5815,0.60976,0.0054507,0.68,0.12,0
0.16116,0.06663,0.29729,-0.89612,-0.19278,-0.62396,-0.012122,0,0,-0.3538,0.56054,0,-0.031518,0,0,1.0374,-0.0078723,0,1.0375,-0.19257,-0.89633,-0.62396,-89.013,-0.57095,0.61464,0.0045252,0.7,0.12,0
0.15378,0.064169,0.27654,-0.89694,-0.18585,-0.60137,-0.016342,0,0,-0.38424,0.54019,0,-0.042488,0,0,1.0383,-0.0034059,0,1.0383,-0.18547,-0.89732,-0.60137,-88.684,-0.56139,0.61939,0.0035012,0.72,0.12,0
0.14579,0.061391,0.25576,-0.89824,-0.18025,-0.57931,-0.020463,0,0,-0.41461,0.51878,0,-0.053205,0,0,1.0391,0.0011866,0,1.0391,-0.17966,-0.89882,-0.57931,-88.369,-0.5526,0.6241,0.0023913,0.74,0.12,0
0.13719,0.058342,0.23497,-0.8998,-0.17587,-0.55767,-0.024999,0,0,-0.44477,0.49635,0,-0.064998,0,0,1.0397,0.0062233,0,1.0398,-0.175,-0.90066,-0.55767,-88.025,-0.54445,0.62875,0.0012069,0.76,0.12,0
0.128,0.055055,0.21417,-0.90137,-0.17275,-0.53641,-0.0304,0,0,-0.47445,0.47276,0,-0.079039,0,0,1.0402,0.012079,0,1.0403,-0.17148,-0.90263,-0.53641,-87.615,-0.53684,0.6332,-4.0185e-05,0.78,0.12,0
0.11822,0.051554,0.19336,-0.90248,-0.17112,-0.51545,-0.037071,0,0,-0.50314,0.44762,0,-0.096386,0,0,1.0405,0.019241,0,1.0406,-0.16925,-0.90435,-0.51545,-87.106,-0.52968,0.63698,-0.0013332,0.8,0.12,0
0.10787,0.047859,0.17255,-0.90217,-0.17152,-0.49466,-0.045301,0,0,-0.52977,0.42009,0,-0.11778,0,0,1.0401,0.028394,0,1.0404,-0.16872,-0.90497,-0.49466,-86.466,-0.52279,0.63901,-0.0026386,0.82,0.12,0
0.097024,0.044005,0.15176,-0.89858,-0.175,-0.47383,-0.055019,0,0,-0.55217,0.38849,0,-0.14305,0,0,1.0383,0.040544,0,1.0391,-0.17084,-0.90274,-0.47383,-85.677,-0.5158,0.63697,-0.0038842,0.84,0.12,0
0.085784,0.040072,0.13102,-0.888,-0.18311,-0.45236,-0.064458,0,0,-0.56634,0.35002,0,-0.16759,0,0,1.0328,0.05713,0,1.0344,-0.17726,-0.89385,-0.45236,-84.818,-0.50782,0.62613,-0.0049074,0.86,0.12,0
0.07437,0.036307,0.11045,-0.87233,-0.20147,-0.43259,-0.06887,0,0,-0.57166,0.30046,0,-0.17906,0,0,1.0197,0.079871,0,1.0228,-0.19447,-0.87932,-0.43259,-84.199,-0.50213,0.60221,-0.0055954,0.88,0.12,0
0.062918,0.033176,0.090235,-0.85426,-0.22055,-0.41268,-0.059633,0,0,-0.57406,0.24977,0,-0.15505,0,0,0.99478,0.10378,0,1.0003,-0.21499,-0.85983,-0.41268,-84.671,-0.49583,0.57221,-0.0058938,0.9,0.12,0
0.051408,0.0312,0.070657,-0.83751,-0.21716,-0.38706,-0.039628,0,0,-0.58559,0.22086,0,-0.10303,0,0,0.95796,0.11933,0,0.96562,-0.21464,-0.84003,-0.38706,-86.36,-0.48058,0.55947,-0.0061983,0.92,0.12,0
0.039495,0.030474,0.051917,-0.82232,-0.1791,-0.35234,-0.019462,0,0,-0.61097,0.22522,0,-0.050602,0,0,0.91536,0.11434,0,0.92274,-0.17851,-0.82291,-0.35234,-88.269,-0.45125,0.57745,-0.0069518,0.94,0.12,0
0.026969,0.030485,0.034042,-0.8124,-0.13391,-0.31794,-0.0095265,0,0,-0.6428,0.23923,0,-0.024769,0,0,0.87688,0.088127,0,0.88136,-0.13378,-0.81253,-0.31794,-89.196,-0.42141,0.60797,-0.0080717,0.96,0.12,0
0.013782,0.030673,0.016842,-0.80788,-0.10014,-0.28925,-0.0046735,0,0,-0.67422,0.24584,0,-0.012151,0,0,0.85106,0.046844,0,0.8522,-0.10011,-0.80792,-0.28925,-89.622,-0.39909,0.63473,-0.0093091,0.98,0.12,0
0,0.030747,0,-0.78505,-0.06479,-0.25495,0.0014244,0,0,-0.68912,0.24721,0,0.0037035,0,0,0.84209,-1.7347e-17,0,0.84186,-0.064788,-0.78505,-0.25495,89.887,-0.36826,0.64651,-0.0099374,1,0.12,0
0,0.056037,1,-0.69316,-1.4526,-1.6437,0.0074073,0,0,1.2357,0.24844,0,0.019259,0,0,0.5523,-1.079e-15,0,0.55133,-0.69309,-1.4527,-1.6437,0.55875,-1.2632,0.87099,0.02851,0,0.14,0
0.024715,0.056422,0.98895,-0.68006,-1.435,-1.6235,0.056454,0,0,1.2264,0.245,0,0.14678,0,0,0.55043,-0.080725,0,0.55524,-0.67587,-1.4392,-1.6235,4.2529,-1.2462,0.87023,0.028799,0.02,0.14,0
0.049057,0.057674,0.97798,-0.67919,-1.4338,-1.6119,0.1206,0,0,1.2125,0.23151,0,0.31356,0,0,0.54304,-0.17009,0,0.56761,-0.66038,-1.4526,-1.6119,8.863,-1.2416,0.8827,0.031481,0.04,0.14,0
0.073215,0.059778,0.96723,-0.65611,-1.4495,-1.5989,0.20483,0,0,1.2256,0.19423,0,0.53256,0,0,0.52476,-0.28103,0,0.59283,-0.60635,-1.4993,-1.5989,13.654,-1.2349,0.94669,0.041952,0.06,0.14,0
0.098084,0.063191,0.95699,-0.453,-1.4639,-1.5321,0.25719,0,0,1.4028,0.088576,0,0.6687,0,0,0.40872,-0.44106,0,0.59757,-0.39133,-1.5256,-1.5321,13.484,-1.1497,1.1375,0.07559,0.08,0.14,0
0.12933,0.06026,0.95088,-0.36156,-1.0873,-0.95763,0.21419,0,0,0.71924,-0.30639,0,1.6888,0,0,0.24287,-0.41066,0,0.49961,-0.28016,-1.1687,-0.95763,27.654,-0.80215,0.81117,0.067003,0.1,0.14,0
0.12685,0.090391,0.91482,-0.26677,-0.31541,-0.26614,0.07973,0,0,-0.0082534,-0.64056,0,2.073,0,0,0.16515,-0.066465,0,0.17836,-0.20774,-0.37445,-0.26614,36.519,-0.28277,0.14652,-7.935e-05,0.12,0.14,0
0.129,0.10569,0.88482,-0.23938,-0.30001,-0.2503,0.052916,0,0,0.14194,-0.64625,0,1.3758,0,0,0.1432,-0.049865,0,0.15159,-0.20871,-0.33068,-0.2503,30.096,-0.26323,0.1074,-3.2971e-05,0.14,0.14,0
0.13253,0.1141,0.85754,-0.2262,-0.29108,-0.24094,0.036054,0,0,0.19158,-0.65185,0,0.9374,0,0,0.13345,-0.036937,0,0.13841,-0.21014,-0.30714,-0.24094,24.01,-0.25274,0.085849,-1.8963e-05,0.16,0.14,0
0.13666,0.11853,0.83144,-0.21781,-0.28246,-0.23322,0.02363,0,0,0.20037,-0.64002,0,0.61438,0,0,0.1291,-0.026365,0,0.13171,-0.21009,-0.29017,-0.23322,18.085,-0.2445,0.071382,-1.2282e-05,0.18,0.14,0
0.14055,0.12002,0.8059,-0.21351,-0.2749,-0.22711,0.013383,0,0,0.17681,-0.62119,0,0.34797,0,0,0.12713,-0.017152,0,0.12823,-0.21072,-0.27769,-0.22711,11.78,-0.23851,0.060461,-8.6011e-06,0.2,0.14,0
0.14373,0.11924,0.78059,-0.21171,-0.26798,-0.22197,0.0043011,0,0,0.13331,-0.59817,0,0.11183,0,0,0.12667,-0.0085209,0,0.12691,-0.21138,-0.26831,-0.22197,4.3461,-0.23389,0.052438,-6.4008e-06,0.22,0.14,0
0.14588,0.11651,0.75524,-0.21204,-0.26157,-0.21761,-0.0045627,0,0,0.072415,-0.57156,0,-0.11863,0,0,0.12748,0.00018469,0,0.12742,-0.21162,-0.26199,-0.21761,-5.2189,-0.2304,0.047659,-5.2653e-06,0.24,0.14,0
0.14663,0.11191,0.7296,-0.21485,-0.25561,-0.2141,-0.014093,0,0,-0.0097818,-0.53966,0,-0.36642,0,0,0.12976,0.0096299,0,0.13006,-0.21045,-0.26001,-0.2141,-17.332,-0.22819,0.047838,-5.5126e-06,0.26,0.14,0
0.14549,0.10526,0.70333,-0.22168,-0.25028,-0.21192,-0.025146,0,0,-0.12682,-0.49867,0,-0.65381,0,0,0.13438,0.020618,0,0.13588,-0.20705,-0.26491,-0.21192,-30.186,-0.22796,0.055582,-8.5913e-06,0.28,0.14,0
0.14156,0.096165,0.67585,-0.23384,-0.24502,-0.21124,-0.039314,0,0,-0.29383,-0.43905,0,-1.0221,0,0,0.14423,0.034218,0,0.14817,-0.19972,-0.27914,-0.21124,-40.957,-0.23003,0.074329,-1.9394e-05,0.3,0.14,0
0.13373,0.083029,0.64564,-0.25903,-0.24435,-0.21558,-0.060341,0,0,-0.56488,-0.37402,0,-1.5689,0,0,0.16635,0.05196,0,0.17458,-0.1909,-0.31248,-0.21558,-48.468,-0.23965,0.11131,-5.9258e-05,0.32,0.14,0
0.11896,0.060787,0.6093,-0.3239,-0.67845,-0.63582,-0.17755,0,0,0.073109,-0.10075,0,-1.3462,0,0,0.24986,0.34741,0,0.45081,-0.22594,-0.77641,-0.63582,-36.095,-0.54605,0.50557,0.01471,0.34,0.14,0
0.13666,0.063329,0.60294,-0.43525,-0.89522,-1.0021,-0.22793,0,0,0.73689,0.13893,0,-0.59262,0,0,0.43231,0.33445,0,0.543,-0.34143,-0.98903,-1.0021,-22.372,-0.77752,0.65422,0.014362,0.36,0.14,0
0.14844,0.059438,0.59201,-0.62495,-0.88501,-1.045,-0.19684,0,0,0.54607,0.20799,0,-0.51178,0,0,0.573,0.17495,0,0.59706,-0.51907,-0.99089,-1.045,-28.276,-0.85165,0.50107,0.0062079,0.38,0.14,0
0.1585,0.056013,0.58002,-0.67207,-0.86389,-1.0408,-0.13057,0,0,0.47936,0.23,0,-0.33948,0,0,0.62024,0.063601,0,0.62243,-0.60597,-0.92999,-1.0408,-26.851,-0.85892,0.39138,0.002267,0.4,0.14,0
0.16761,0.053156,0.5672,-0.69644,-0.84927,-1.0309,-0.077195,0,0,0.43482,0.23614,0,-0.20071,0,0,0.66225,-0.025496,0,0.66216,-0.66424,-0.88148,-1.0309,-22.645,-0.85888,0.31936,0.00052477,0.42,0.14,0
0.17589,0.051152,0.55353,-0.71691,-0.83974,-1.0205,-0.028981,0,0,0.39471,0.23502,0,-0.075349,0,0,0.71054,-0.10309,0,0.71778,-0.71042,-0.84624,-1.0205,-12.63,-0.85906,0.26926,-0.0002134,0.44,0.14,0
0.1834,0.050325,0.53878,-0.73766,-0.8372,-1.0112,0.021101,0,0,0.35566,0.22625,0,0.054863,0,0,0.7757,-0.17232,0,0.79504,-0.73337,-0.84149,-1.0112,11.487,-0.86203,0.24261,-0.00027344,0.46,0.14,0
0.19012,0.051477,0.52251,-0.76733,-0.83482,-1.0031,0.087418,0,0,0.30656,0.21883,0,0.22729,0,0,0.85776,-0.22145,0,0.88728,-0.70737,-0.89478,-1.0031,34.447,-0.86843,0.25918,0.00039636,0.48,0.14,0
0.19566,0.056023,0.50447,-0.82491,-0.77839,-0.98546,0.16348,0,0,0.20872,0.26919,0,0.42504,0,0,0.94205,-0.21315,0,0.96671,-0.63653,-0.96678,-0.98546,49.049,-0.86292,0.33998,0.0019977,0.5,0.14,0
0.19847,0.063889,0.48482,-0.85111,-0.54326,-0.90314,0.19813,0,0,0.06763,0.46784,0,0.51515,0,0,1.0053,-0.16786,0,1.0193,-0.44629,-0.94809,-0.90314,63.921,-0.76584,0.4809,0.005544,0.52,0.14,0
0.19837,0.072001,0.46426,-0.88715,-0.37398,-0.8426,0.15221,0,0,-0.057924,0.6092,0,0.39574,0,0,1.0368,-0.10748,0,1.0421,-0.33223,-0.9289,-0.8426,74.662,-0.70124,0.55854,0.0082337,0.54,0.14,0
0.19615,0.078078,0.44335,-0.91068,-0.31241,-0.81028,0.098715,0,0,-0.13052,0.64724,0,0.25666,0,0,1.045,-0.074897,0,1.0476,-0.29654,-0.92655,-0.81028,80.869,-0.67779,0.58067,0.0087123,0.56,0.14,0
0.19315,0.081756,0.42246,-0.90093,-0.27287,-0.7746,0.05912,0,0,-0.16423,0.65224,0,0.15371,0,0,1.0439,-0.054776,0,1.0453,-0.26736,-0.90645,-0.7746,84.669,-0.64947,0.58443,0.0085195,0.58,0.14,0
0.18958,0.083636,0.4016,-0.89043,-0.24761,-0.74301,0.034241,0,0,-0.19165,0.64402,0,0.089027,0,0,1.0425,-0.041314,0,1.0433,-0.24579,-0.89225,-0.74301,86.96,-0.62701,0.58626,0.0081321,0.6,0.14,0
0.18548,0.084143,0.38076,-0.88357,-0.22977,-0.71476,0.018171,0,0,-0.21945,0.63049,0,0.047245,0,0,1.0415,-0.031646,0,1.042,-0.22927,-0.88408,-0.71476,88.409,-0.60937,0.58871,0.0076305,0.62,0.14,0
0.1808,0.083608,0.35994,-0.88049,-0.21628,-0.68897,0.0075921,0,0,-0.24898,0.61449,0,0.01974,0,0,1.0411,-0.024277,0,1.0413,-0.2162,-0.88058,-0.68897,89.345,-0.59525,0.5923,0.0070282,0.64,0.14,0
0.17552,0.082269,0.33912,-0.8802,-0.20549,-0.66482,0.00035938,0,0,-0.27998,0.59714,0,0.00093439,0,0,1.0411,-0.01834,0,1.0412,-0.20549,-0.8802,-0.66482,89.969,-0.5835,0.59691,0.0063239,0.66,0.14,0
0.16961,0.080304,0.31829,-0.88182,-0.1965,-0.64179,-0.0048583,0,0,-0.31203,0.57888,0,-0.012632,0,0,1.0414,-0.013281,0,1.0415,-0.19646,-0.88185,-0.64179,-89.594,-0.57337,0.60237,0.0055159,0.68,0.14,0
0.16304,0.077843,0.29746,-0.88471,-0.18882,-0.61952,-0.0089591,0,0,-0.34474,0.55991,0,-0.023294,0,0,1.042,-0.0087061,0,1.0421,-0.1887,-0.88482,-0.61952,-89.263,-0.56435,0.60851,0.0046052,0.7,0.14,0
0.15582,0.07498,0.27661,-0.88848,-0.18216,-0.5978,-0.012593,0,0,-0.37788,0.54034,0,-0.032742,0,0,1.0429,-0.004297,0,1.0429,-0.18193,-0.8887,-0.5978,-88.979,-0.55615,0.61526,0.0035946,0.72,0.14,0
0.14793,0.071786,0.25575,-0.89291,-0.17635,-0.57653,-0.016275,0,0,-0.4113,0.52023,0,-0.042315,0,0,1.044,0.00023787,0,1.044,-0.17598,-0.89328,-0.57653,-88.7,-0.5486,0.62261,0.0024871,0.74,0.14,0
0.13936,0.068306,0.23486,-0.89794,-0.17136,-0.55564,-0.020459,0,0,-0.44498,0.49957,0,-0.053194,0,0,1.0453,0.0052078,0,1.0453,-0.17078,-0.89851,-0.55564,-88.388,-0.54165,0.63058,0.0012845,0.76,0.14,0
0.13013,0.06457,0.21394,-0.90355,-0.16722,-0.53517,-0.025607,0,0,-0.4789,0.47833,0,-0.066577,0,0,1.0469,0.010989,0,1.0469,-0.16633,-0.90444,-0.53517,-88.011,-0.53531,0.63922,-1.3702e-05,0.78,0.14,0
0.12021,0.060596,0.19298,-0.90971,-0.16416,-0.51514,-0.032257,0,0,-0.51294,0.45627,0,-0.083869,0,0,1.0489,0.018097,0,1.049,-0.16277,-0.91111,-0.51514,-87.527,-0.52967,0.64844,-0.0014099,0.8,0.14,0
0.10961,0.056387,0.17198,-0.91613,-0.16268,-0.49563,-0.041142,0,0,-0.54666,0.43283,0,-0.10697,0,0,1.0513,0.027325,0,1.0516,-0.16044,-0.91837,-0.49563,-86.884,-0.52481,0.65785,-0.0029021,0.82,0.14,0
0.098341,0.051938,0.15093,-0.92142,-0.16373,-0.47648,-0.053157,0,0,-0.57843,0.40657,0,-0.13821,0,0,1.0539,0.040022,0,1.0547,-0.16002,-0.92513,-0.47648,-86.006,-0.52054,0.66589,-0.0044568,0.84,0.14,0
0.086471,0.047263,0.12982,-0.92136,-0.16944,-0.45706,-0.069487,0,0,-0.60359,0.37391,0,-0.18067,0,0,1.0561,0.058728,0,1.0577,-0.16307,-0.92773,-0.45706,-84.764,-0.51596,0.66808,-0.0059334,0.86,0.14,0
0.074197,0.042405,0.10868,-0.90044,-0.18156,-0.43328,-0.08609,0,0,-0.6073,0.32724,0,-0.22383,0,0,1.0496,0.088527,0,1.0532,-0.1714,-0.9106,-0.43328,-83.265,-0.50509,0.64917,-0.0067376,0.88,0.14,0
0.062179,0.038057,0.087839,-0.87977,-0.23305,-0.42168,-0.091609,0,0,-0.59551,0.24523,0,-0.23819,0,0,1.022,0.14279,0,1.032,-0.22032,-0.8925,-0.42168,-82.091,-0.5115,0.59751,-0.0069086,0.9,0.14,0
0.050377,0.03537,0.067805,-0.85738,-0.25912,-0.40276,-0.06155,0,0,-0.59102,0.18673,0,-0.16003,0,0,0.96704,0.18005,0,0.9843,-0.25285,-0.86365,-0.40276,-84.186,-0.50642,0.55135,-0.0065107,0.92,0.14,0
0.038538,0.034812,0.049158,-0.81877,-0.18803,-0.3512,-0.036858,0,0,-0.60785,0.21212,0,-0.095831,0,0,0.89714,0.18155,0,0.91621,-0.18588,-0.82092,-0.3512,-86.667,-0.45267,0.57063,-0.0069119,0.94,0.14,0
0.026063,0.035186,0.031919,-0.80189,-0.14147,-0.31493,-0.0247,0,0,-0.63305,0.22549,0,-0.06422,0,0,0.83577,0.13075,0,0.84593,-0.14055,-0.80281,-0.31493,-87.861,-0.41943,0.59457,-0.0077471,0.96,0.14,0
0.013216,0.035481,0.015727,-0.78631,-0.11159,-0.2851,-0.014426,0,0,-0.65158,0.22556,0,-0.037508,0,0,0.79798,0.066026,0,0.80031,-0.11128,-0.78662,-0.2851,-88.776,-0.39433,0.60738,-0.00841,0.98,0.14,0
0,0.035566,0,-0.76025,-0.079546,-0.25194,0.0016206,0,0,-0.66081,0.22411,0,0.0042135,0,0,0.78635,3.4694e-18,0,0.78588,-0.079542,-0.76026,-0.25194,89.864,-0.36391,0.61298,-0.0087504,1,0.14,0
0,0.060168,1,-0.58843,-1.4997,-1.6264,0.005231,0,0,1.3494,0.16476,0,0.013601,0,0,0.47312,-7.7369e-16,0,0.47216,-0.5884,-1.4997,-1.6264,0.32888,-1.2382,0.98084,0.045749,0,0.16,0
0.026988,0.06044,0.99054,-0.56916,-1.4859,-1.607,0.052234,0,0,1.3493,0.15753,0,0.13581,0,0,0.46742,-0.074208,0,0.47226,-0.56619,-1.4888,-1.607,3.2507,-1.2207,0.98707,0.047013,0.02,0.16,0
0.05397,0.061227,0.9813,-0.54212,-1.4894,-1.5908,0.10709,0,0,1.3632,0.13176,0,0.27844,0,0,0.44758,-0.15387,0,0.47218,-0.53017,-1.5014,-1.5908,6.3703,-1.2074,1.0188,0.05291,0.04,0.16,0
0.081518,0.062333,0.97263,-0.46885,-1.5073,-1.5655,0.15204,0,0,1.4256,0.075585,0,0.39531,0,0,0.39888,-0.24484,0,0.46711,-0.44705,-1.5292,-1.5655,8.1604,-1.1806,1.1007,0.068244,0.06,0.16,0
0.111,0.062087,0.96535,-0.41538,-1.6058,-1.5717,0.15727,0,0,1.5032,-0.044366,0,0.4089,0,0,0.30825,-0.35145,0,0.47017,-0.39495,-1.6263,-1.5717,7.4002,-1.1977,1.205,0.089235,0.08,0.16,0
0.14165,0.057912,0.9603,-0.31216,-0.92065,-0.89801,0.091336,0,0,0.7195,-0.053504,0,0.98743,0,0,0.21299,-0.21696,0,0.32403,-0.27362,-0.95918,-0.89801,25.594,-0.71027,0.66432,0.046042,0.1,0.16,0
0.13978,0.080903,0.92555,-0.25659,-0.28467,-0.25493,0.055906,0,0,-0.02149,-0.38664,0,1.4536,0,0,0.16629,-0.044455,0,0.17235,-0.21299,-0.32827,-0.25493,37.949,-0.2654,0.10107,-2.3911e-05,0.12,0.16,0
0.14079,0.094876,0.89379,-0.24119,-0.28322,-0.2467,0.039797,0,0,0.071617,-0.47472,0,1.0347,0,0,0.1528,-0.039161,0,0.15781,-0.2172,-0.30721,-0.2467,31.083,-0.25704,0.079477,-1.4324e-05,0.14,0.16,0
0.14264,0.10291,0.86443,-0.23216,-0.27821,-0.23955,0.028091,0,0,0.096083,-0.5025,0,0.73036,0,0,0.14331,-0.031257,0,0.14667,-0.21887,-0.29151,-0.23955,25.331,-0.24998,0.064821,-9.3353e-06,0.16,0.16,0
0.14463,0.10723,0.83646,-0.2262,-0.27269,-0.23331,0.018898,0,0,0.092431,-0.51187,0,0.49134,0,0,0.13797,-0.023436,0,0.13992,-0.21949,-0.2794,-0.23331,19.557,-0.24407,0.054335,-6.4758e-06,0.18,0.16,0
0.14634,0.10891,0.80924,-0.22248,-0.2666,-0.22765,0.011034,0,0,0.067174,-0.50638,0,0.2869,0,0,0.13539,-0.015987,0,0.13629,-0.21987,-0.26921,-0.22765,13.287,-0.23891,0.045941,-4.503e-06,0.2,0.16,0
0.14732,0.10851,0.78231,-0.22104,-0.26029,-0.22263,0.0038619,0,0,0.020647,-0.4896,0,0.10041,0,0,0.13477,-0.0087382,0,0.13502,-0.22067,-0.26067,-0.22263,5.5665,-0.23466,0.039057,-3.0339e-06,0.22,0.16,0
0.14716,0.10634,0.75533,-0.2218,-0.25375,-0.2182,-0.0030637,0,0,-0.046849,-0.46215,0,-0.079656,0,0,0.13589,-0.001408,0,0.13587,-0.22151,-0.25404,-0.2182,-5.4287,-0.23125,0.034305,-2.0085e-06,0.24,0.16,0
0.14544,0.1025,0.72795,-0.22498,-0.2469,-0.21436,-0.010138,0,0,-0.13811,-0.42299,0,-0.26358,0,0,0.13898,0.006295,0,0.1391,-0.22101,-0.25087,-0.21436,-21.388,-0.22875,0.033678,-1.7065e-06,0.26,0.16,0
0.14164,0.096937,0.69974,-0.23079,-0.23941,-0.21103,-0.017785,0,0,-0.25682,-0.36891,0,-0.46241,0,0,0.14483,0.014568,0,0.14555,-0.2168,-0.2534,-0.21103,-38.187,-0.22708,0.039798,-3.0095e-06,0.28,0.16,0
0.13517,0.08922,0.67002,-0.23992,-0.2313,-0.20837,-0.026672,0,0,-0.4102,-0.29808,0,-0.69347,0,0,0.1549,0.023196,0,0.1567,-0.20859,-0.26263,-0.20837,-49.592,-0.22653,0.054149,-8.1539e-06,0.3,0.16,0
0.12523,0.078172,0.63778,-0.25423,-0.22067,-0.20625,-0.038123,0,0,-0.62375,-0.18751,0,-0.9912,0,0,0.16926,0.029685,0,0.1721,-0.1958,-0.2791,-0.20625,-56.877,-0.22705,0.078602,-2.3462e-05,0.32,0.16,0
0.11022,0.061602,0.60232,-0.29241,-0.54909,-0.58373,-0.06361,0,0,0.040977,0.08186,0,-0.68106,0,0,0.22187,0.1448,0,0.27936,-0.2433,-0.59821,-0.58373,-35.515,-0.47508,0.36292,0.0062018,0.34,0.16,0
0.12687,0.063628,0.59699,-0.3992,-0.99842,-1.0163,-0.12298,0,0,0.80219,0.02321,0,-0.31974,0,0,0.33312,0.22114,0,0.40519,-0.37495,-1.0227,-1.0163,-11.158,-0.80463,0.64455,0.013749,0.36,0.16,0
0.14231,0.062314,0.58899,-0.46082,-0.93211,-1.0069,-0.12513,0,0,0.70986,0.09719,0,-0.32533,0,0,0.44655,0.11374,0,0.46048,-0.42966,-0.96327,-1.0069,-13.984,-0.79993,0.55669,0.0086778,0.38,0.16,0
0.15526,0.059623,0.57913,-0.552,-0.91187,-1.0183,-0.089861,0,0,0.60617,0.13835,0,-0.23364,0,0,0.52206,0.018688,0,0.52173,-0.53081,-0.93306,-1.0183,-13.269,-0.82739,0.45094,0.0041483,0.4,0.16,0
0.16656,0.05715,0.56811,-0.61339,-0.89658,-1.0211,-0.041582,0,0,0.53003,0.16187,0,-0.10811,0,0,0.57574,-0.068202,0,0.57915,-0.60741,-0.90256,-1.0211,-8.1827,-0.84369,0.36899,0.0017111,0.42,0.16,0
0.17647,0.055296,0.5561,-0.66836,-0.88972,-1.0235,0.0073525,0,0,0.46171,0.17394,0,0.019117,0,0,0.62883,-0.1537,0,0.64684,-0.66811,-0.88997,-1.0235,1.9002,-0.86053,0.31094,0.00064004,0.44,0.16,0
0.18502,0.054353,0.54296,-0.71918,-0.88996,-1.0257,0.061158,0,0,0.39848,0.17646,0,0.15901,0,0,0.7027,-0.24493,0,0.74394,-0.69953,-0.9096,-1.0257,17.806,-0.87828,0.28635,0.00057225,0.46,0.16,0
0.1924,0.055214,0.52799,-0.78782,-0.92535,-1.0419,0.13831,0,0,0.33036,0.15157,0,0.3596,0,0,0.83411,-0.34936,0,0.90661,-0.70212,-1.011,-1.0419,31.782,-0.91837,0.32547,0.001717,0.48,0.16,0
0.19824,0.060575,0.50959,-0.88306,-0.91318,-1.0485,0.26287,0,0,0.21503,0.17587,0,0.68346,0,0,0.98255,-0.40191,0,1.0667,-0.63482,-1.1614,-1.0485,43.361,-0.94823,0.48019,0.0046433,0.5,0.16,0
0.20101,0.073728,0.48869,-0.85377,-0.37707,-0.85794,0.22648,0,0,0.0054146,0.62513,0,0.58884,0,0,1.0792,-0.16013,0,1.0881,-0.28663,-0.94421,-0.85794,68.232,-0.69626,0.61897,0.011386,0.52,0.16,0
0.19845,0.085076,0.46642,-0.94999,-0.33262,-0.8512,0.14079,0,0,-0.12842,0.67417,0,0.36606,0,0,1.0963,-0.097383,0,1.1005,-0.30203,-0.98058,-0.8512,77.741,-0.71127,0.62401,0.010693,0.54,0.16,0
0.19587,0.091426,0.44483,-0.90043,-0.2792,-0.79872,0.076986,0,0,-0.13221,0.67537,0,0.20016,0,0,1.0722,-0.06733,0,1.0743,-0.26981,-0.90982,-0.79872,83.04,-0.65945,0.59233,0.0094206,0.56,0.16,0
0.19317,0.095002,0.42354,-0.87083,-0.25077,-0.76001,0.046633,0,0,-0.14406,0.66202,0,0.12125,0,0,1.0606,-0.049908,0,1.0618,-0.24728,-0.87432,-0.76001,85.723,-0.6272,0.57842,0.0086454,0.58,0.16,0
0.19011,0.096596,0.40241,-0.8571,-0.23258,-0.72931,0.028724,0,0,-0.16612,0.64576,0,0.074683,0,0,1.0537,-0.038352,0,1.0544,-0.23126,-0.85842,-0.72931,87.372,-0.60633,0.57361,0.0080626,0.6,0.16,0
0.18652,0.096774,0.38139,-0.85296,-0.21949,-0.70312,0.017618,0,0,-0.19479,0.62872,0,0.045806,0,0,1.0497,-0.029981,0,1.0501,-0.219,-0.85345,-0.70312,88.408,-0.59186,0.57424,0.0075246,0.62,0.16,0
0.18232,0.095891,0.36042,-0.85415,-0.20907,-0.67939,0.010162,0,0,-0.22719,0.61142,0,0.026422,0,0,1.0475,-0.023498,0,1.0477,-0.20891,-0.85431,-0.67939,89.098,-0.58087,0.57814,0.0069477,0.64,0.16,0
0.17743,0.094194,0.33949,-0.85828,-0.20021,-0.65704,0.0048506,0,0,-0.26162,0.59387,0,0.012612,0,0,1.0464,-0.018184,0,1.0466,-0.20018,-0.85832,-0.65704,89.578,-0.57184,0.58412,0.0062893,0.66,0.16,0
0.17185,0.091862,0.31857,-0.86404,-0.19239,-0.6355,0.00079006,0,0,-0.29711,0.57604,0,0.0020542,0,0,1.0461,-0.013586,0,1.0462,-0.19239,-0.86405,-0.6355,89.933,-0.56398,0.59148,0.0055293,0.68,0.16,0
0.16555,0.089027,0.29764,-0.87072,-0.18531,-0.61445,-0.0025949,0,0,-0.33315,0.55789,0,-0.0067468,0,0,1.0464,-0.0093813,0,1.0465,-0.1853,-0.87073,-0.61445,-89.783,-0.55683,0.59986,0.0046597,0.7,0.16,0
0.15852,0.085783,0.27671,-0.87796,-0.17881,-0.59374,-0.0057224,0,0,-0.36949,0.53941,0,-0.014878,0,0,1.0473,-0.0053086,0,1.0473,-0.17876,-0.87801,-0.59374,-89.531,-0.55017,0.60908,0.0036784,0.72,0.16,0
0.15077,0.082199,0.25575,-0.88569,-0.1728,-0.5733,-0.0089319,0,0,-0.40611,0.52065,0,-0.023223,0,0,1.0486,-0.0011262,0,1.0486,-0.17269,-0.8858,-0.5733,-89.282,-0.54393,0.61915,0.0025846,0.74,0.16,0
0.14228,0.078325,0.23477,-0.89404,-0.16725,-0.55315,-0.012538,0,0,-0.44315,0.50167,0,-0.0326,0,0,1.0505,0.0034228,0,1.0505,-0.16703,-0.89426,-0.55315,-89.012,-0.53815,0.63019,0.001375,0.76,0.16,0
0.13304,0.074188,0.21373,-0.90332,-0.1622,-0.53339,-0.016886,0,0,-0.48091,0.48255,0,-0.043904,0,0,1.0531,0.0086506,0,1.0532,-0.16181,-0.9037,-0.53339,-88.695,-0.53297,0.64249,4.0034e-05,0.78,0.16,0
0.12304,0.069805,0.19264,-0.91408,-0.1578,-0.5142,-0.022433,0,0,-0.51984,0.46332,0,-0.058326,0,0,1.0568,0.014989,0,1.0569,-0.15714,-0.91475,-0.5142,-88.302,-0.5287,0.65647,-0.0014412,0.8,0.16,0
0.11225,0.065172,0.17146,-0.92717,-0.15443,-0.49594,-0.029886,0,0,-0.5606,0.44397,0,-0.077704,0,0,1.062,0.02311,0,1.0622,-0.15327,-0.92833,-0.49594,-87.788,-0.52585,0.67271,-0.0031094,0.82,0.16,0
0.10062,0.060268,0.15016,-0.9438,-0.15296,-0.47919,-0.040636,0,0,-0.60399,0.42409,0,-0.10565,0,0,1.0697,0.034209,0,1.0702,-0.15088,-0.94588,-0.47919,-87.066,-0.52532,0.69195,-0.0050365,0.84,0.16,0
0.088091,0.055028,0.12867,-0.96447,-0.15506,-0.46453,-0.056931,0,0,-0.64992,0.40232,0,-0.14802,0,0,1.0813,0.050732,0,1.0825,-0.15107,-0.96846,-0.46453,-85.996,-0.52802,0.71425,-0.0073083,0.86,0.16,0
0.074623,0.049397,0.10691,-0.9832,-0.1644,-0.45119,-0.086462,0,0,-0.69162,0.37282,0,-0.2248,0,0,1.1038,0.078786,0,1.1065,-0.15537,-0.99223,-0.45119,-84.037,-0.53293,0.73504,-0.0098286,0.88,0.16,0
0.060426,0.042985,0.084523,-0.91342,-0.15911,-0.40628,-0.11648,0,0,-0.65928,0.32132,0,-0.30284,0,0,1.0863,0.1364,0,1.0923,-0.14154,-0.931,-0.40628,-81.419,-0.49294,0.69594,-0.0092489,0.9,0.16,0
0.048252,0.038669,0.063455,-0.90451,-0.32332,-0.4318,-0.1399,0,0,-0.61452,0.14103,0,-0.36375,0,0,0.99671,0.35559,0,1.0631,-0.29139,-0.93643,-0.4318,-77.146,-0.55321,0.58756,-0.008446,0.92,0.16,0
0.035845,0.038959,0.044655,-0.82893,-0.21346,-0.35737,-0.083977,0,0,-0.61302,0.18708,0,-0.21834,0,0,0.86606,0.28662,0,0.91329,-0.20221,-0.84018,-0.35737,-82.368,-0.46659,0.57627,-0.0074794,0.94,0.16,0
0.023731,0.039505,0.028812,-0.76958,-0.16485,-0.30914,-0.059943,0,0,-0.59857,0.18758,0,-0.15585,0,0,0.76136,0.17755,0,0.78095,-0.15897,-0.77546,-0.30914,-84.393,-0.41452,0.55681,-0.0067398,0.96,0.16,0
0.011903,0.039695,0.014201,-0.73118,-0.13756,-0.27482,-0.032496,0,0,-0.59327,0.17844,0,-0.084489,0,0,0.72031,0.084938,0,0.72444,-0.13578,-0.73296,-0.27482,-86.876,-0.38119,0.54122,-0.0063664,0.98,0.16,0
0,0.039711,0,-0.70021,-0.10784,-0.24241,0.00030833,0,0,-0.59513,0.17494,0,0.00080165,0,0,0.71003,2.0817e-17,0,0.70918,-0.10784,-0.70021,-0.24241,89.97,-0.35015,0.53786,-0.0063364,1,0.16,0
0,0.062627,1,-0.49112,-1.542,-1.6099,0.0018475,0,0,1.4545,0.088344,0,0.0048034,0,0,0.40389,3.296e-16,0,0.40308,-0.49112,-1.542,-1.6099,0.10073,-1.2143,1.0864,0.064992,0,0.18,0
0.029089,0.062723,0.99192,-0.47135,-1.5307,-1.5925,0.038869,0,0,1.4575,0.080371,0,0.10106,0,0,0.39656,-0.062502,0,0.40068,-0.46993,-1.5321,-1.5925,2.0985,-1.1982,1.0937,0.066496,0.02,0.18,0
0.058302,0.062945,0.98414,-0.44039,-1.5341,-1.5765,0.073065,0,0,1.4769,0.055059,0,0.18997,0,0,0.3724,-0.12647,0,0.39271,-0.43554,-1.539,-1.5765,3.8049,-1.1837,1.1227,0.072404,0.04,0.18,0
0.088166,0.062801,0.97703,-0.39884,-1.5558,-1.5634,0.091509,0,0,1.514,0.0098736,0,0.23792,0,0,0.32718,-0.19111,0,0.3792,-0.39165,-1.563,-1.5634,4.4944,-1.1727,1.1716,0.082592,0.06,0.18,0
0.11886,0.061416,0.97105,-0.35928,-1.5657,-1.5486,0.079524,0,0,1.546,-0.022303,0,0.20676,0,0,0.2591,-0.24365,0,0.35758,-0.35406,-1.5709,-1.5486,3.7551,-1.1578,1.2058,0.089945,0.08,0.18,0
0.15001,0.05812,0.96666,-0.28015,-0.86545,-0.87535,0.056724,0,0,0.72928,0.023383,0,0.67934,0,0,0.19485,-0.14784,0,0.26034,-0.253,-0.89261,-0.87535,25.619,-0.67365,0.63706,0.043791,0.1,0.18,0
0.14803,0.074925,0.93261,-0.2527,-0.26829,-0.24955,0.040895,0,0,-0.040834,-0.2435,0,1.0633,0,0,0.16544,-0.030066,0,0.16823,-0.21886,-0.30212,-0.24955,39.604,-0.25685,0.072932,-8.6939e-06,0.12,0.18,0
0.14838,0.086705,0.90049,-0.24131,-0.27162,-0.24393,0.030699,0,0,0.034027,-0.36,0,0.79816,0,0,0.1564,-0.029092,0,0.15913,-0.22223,-0.2907,-0.24393,31.863,-0.25229,0.060608,-6.6912e-06,0.14,0.18,0
0.14939,0.093995,0.87005,-0.23437,-0.26931,-0.23811,0.021949,0,0,0.048584,-0.40563,0,0.57068,0,0,0.14918,-0.025149,0,0.1513,-0.22379,-0.2799,-0.23811,25.742,-0.24727,0.050492,-4.8624e-06,0.16,0.18,0
0.15032,0.09805,0.84081,-0.23004,-0.26515,-0.23264,0.014977,0,0,0.033746,-0.42263,0,0.3894,0,0,0.14437,-0.020046,0,0.14575,-0.22452,-0.27067,-0.23264,20.236,-0.24261,0.042673,-3.5091e-06,0.18,0.18,0
0.15074,0.099761,0.8123,-0.22748,-0.26005,-0.22749,0.0090647,0,0,9.8933e-05,-0.42327,0,0.23568,0,0,0.14183,-0.014598,0,0.14256,-0.22513,-0.2624,-0.22749,14.552,-0.23834,0.036151,-2.3916e-06,0.2,0.18,0
0.15032,0.099653,0.78408,-0.22658,-0.25421,-0.22265,0.0037513,0,0,-0.051125,-0.41038,0,0.097533,0,0,0.14125,-0.0090354,0,0.14152,-0.22608,-0.25471,-0.22265,7.5945,-0.23448,0.030496,-1.3947e-06,0.22,0.18,0
0.1487,0.098019,0.7558,-0.22743,-0.24774,-0.21813,-0.0012535,0,0,-0.12094,-0.38487,0,-0.032591,0,0,0.14251,-0.0033896,0,0.14253,-0.22736,-0.24781,-0.21813,-3.5196,-0.2311,0.026312,-5.6266e-07,0.24,0.18,0
0.14549,0.094989,0.72708,-0.2301,-0.24054,-0.2139,-0.006181,0,0,-0.21061,-0.3463,0,-0.16071,0,0,0.14574,0.0023103,0,0.14575,-0.22723,-0.24341,-0.2139,-24.912,-0.22818,0.025595,-1.4322e-07,0.26,0.18,0
0.14027,0.090504,0.69751,-0.23472,-0.23248,-0.20991,-0.011308,0,0,-0.32256,-0.29339,0,-0.294,0,0,0.15128,0.0078474,0,0.1515,-0.22224,-0.24496,-0.20991,-47.833,-0.2257,0.030799,-7.3112e-07,0.28,0.18,0
0.13258,0.084241,0.66657,-0.24183,-0.22304,-0.20612,-0.017091,0,0,-0.46423,-0.22004,0,-0.44438,0,0,0.15934,0.012431,0,0.15989,-0.21294,-0.25194,-0.20612,-59.395,-0.22366,0.042821,-3.6906e-06,0.3,0.18,0
0.1217,0.075528,0.63377,-0.25288,-0.21007,-0.20226,-0.023351,0,0,-0.65799,-0.10154,0,-0.60713,0,0,0.16948,0.014241,0,0.17018,-0.1998,-0.26315,-0.20226,-66.253,-0.22174,0.062156,-1.2268e-05,0.32,0.18,0
0.10626,0.064062,0.59877,-0.2684,-0.51248,-0.56359,-0.031093,0,0,0.036327,0.1208,0,-0.38553,0,0,0.20437,0.065674,0,0.22139,-0.22851,-0.55237,-0.56359,-37.555,-0.44816,0.3453,0.0054398,0.34,0.18,0
0.12316,0.064257,0.5941,-0.34919,-0.96042,-0.98698,-0.042628,0,0,0.82913,0.03453,0,-0.11083,0,0,0.28278,0.093838,0,0.30175,-0.34623,-0.96338,-0.98698,-3.9703,-0.76553,0.62928,0.012738,0.36,0.18,0
0.13943,0.063326,0.58746,-0.39975,-0.97215,-0.99903,-0.047642,0,0,0.77907,0.034952,0,-0.12387,0,0,0.37055,0.037785,0,0.37356,-0.39581,-0.97608,-0.99903,-4.7256,-0.79031,0.59208,0.010606,0.38,0.18,0
0.15432,0.061547,0.57928,-0.46233,-0.95459,-1.0044,-0.027,0,0,0.70463,0.064694,0,-0.070199,0,0,0.4383,-0.034533,0,0.43942,-0.46085,-0.95606,-1.0044,-3.1301,-0.80709,0.52104,0.0070549,0.4,0.18,0
0.16761,0.059631,0.56993,-0.52826,-0.94408,-1.0116,0.011616,0,0,0.62839,0.087813,0,0.030203,0,0,0.48986,-0.11234,0,0.50191,-0.52793,-0.94441,-1.0116,1.5989,-0.82799,0.45384,0.0044479,0.42,0.18,0
0.17946,0.058109,0.55968,-0.59305,-0.94305,-1.0205,0.062956,0,0,0.5557,0.10071,0,0.16369,0,0,0.53382,-0.19874,0,0.56861,-0.58207,-0.95403,-1.0205,9.8932,-0.8522,0.40927,0.0032099,0.44,0.18,0
0.18984,0.057383,0.54858,-0.68136,-0.96809,-1.0434,0.12555,0,0,0.47067,0.097918,0,0.32644,0,0,0.58004,-0.30451,0,0.65342,-0.63415,-1.0153,-1.0434,20.605,-0.89762,0.39595,0.0031341,0.46,0.18,0
0.19828,0.05754,0.53648,-0.81099,-1.0428,-1.0926,0.24602,0,0,0.36611,0.06478,0,0.63965,0,0,0.70077,-0.45626,0,0.83008,-0.65494,-1.1988,-1.0926,32.388,-0.98213,0.49933,0.0054317,0.48,0.18,0
0.20449,0.063058,0.52055,-0.7248,-0.80851,-0.74629,0.29336,0,0,-0.12877,-0.33481,0,1.9397,0,0,0.58317,-0.40206,0,0.71974,-0.47021,-1.0631,-0.74629,41.615,-0.75987,0.51521,-0.00039607,0.5,0.18,0
0.19752,0.088895,0.49123,-0.64775,-0.28737,-0.55071,0.18025,0,0,-0.22936,0.011074,0,1.4308,0,0,0.72043,-0.10518,0,0.73325,-0.18985,-0.74526,-0.55071,55.11,-0.49527,0.49581,0.01015,0.52,0.18,0
0.19531,0.098967,0.46815,-0.524,-0.24848,-0.48923,0.076039,0,0,-0.082196,0.0041841,0,0.86194,0,0,0.62128,-0.074207,0,0.63073,-0.19878,-0.57371,-0.48923,57.513,-0.42057,0.35115,0.0049925,0.54,0.18,0
0.19423,0.10509,0.44605,-0.48181,-0.21887,-0.45553,0.050532,0,0,-0.062125,0.0015611,0,0.63912,0,0,0.60083,-0.054722,0,0.60684,-0.17937,-0.52131,-0.45553,57.478,-0.3854,0.3252,0.0043573,0.56,0.18,0
0.19283,0.10824,0.42446,-0.47533,-0.20981,-0.43899,0.034562,0,0,-0.085889,0.0013806,0,0.48312,0,0,0.59007,-0.042723,0,0.59404,-0.1776,-0.50754,-0.43899,57.426,-0.37471,0.31192,0.0040086,0.58,0.18,0
0.1908,0.10947,0.40313,-0.47609,-0.20227,-0.42523,0.024918,0,0,-0.12022,0.0026461,0,0.37379,0,0,0.58431,-0.034117,0,0.58699,-0.1753,-0.50306,-0.42523,57.102,-0.36786,0.30648,0.0038234,0.6,0.18,0
0.18802,0.10929,0.38196,-0.48009,-0.19587,-0.41287,0.018035,0,0,-0.15889,0.004443,0,0.29002,0,0,0.58099,-0.027507,0,0.58279,-0.17324,-0.50272,-0.41287,56.701,-0.36294,0.30463,0.0036386,0.62,0.18,0
0.18444,0.10806,0.36088,-0.48523,-0.18982,-0.401,0.012846,0,0,-0.19909,0.006195,0,0.22312,0,0,0.57907,-0.022149,0,0.58027,-0.17097,-0.50408,-0.401,56.24,-0.35868,0.3051,0.0034146,0.64,0.18,0
0.18005,0.10602,0.33985,-0.49074,-0.18399,-0.38933,0.0086958,0,0,-0.23968,0.0076145,0,0.16743,0,0,0.57804,-0.017602,0,0.57881,-0.16855,-0.50618,-0.38933,55.704,-0.35469,0.30711,0.003132,0.66,0.18,0
0.17486,0.10335,0.31884,-0.49623,-0.17831,-0.37772,0.0052013,0,0,-0.28011,0.0085698,0,0.11919,0,0,0.57762,-0.013567,0,0.57809,-0.166,-0.50854,-0.37772,55.014,-0.35076,0.31025,0.0027844,0.68,0.18,0
0.16885,0.10016,0.29784,-0.50156,-0.17275,-0.3661,0.0020908,0,0,-0.32017,0.0090436,0,0.075566,0,0,0.57768,-0.0098184,0,0.57793,-0.16339,-0.51092,-0.3661,-36.043,-0.3468,0.31433,0.0023705,0.7,0.18,0
0.16205,0.096557,0.27683,-0.50671,-0.16727,-0.35445,-0.00084599,0,0,-0.35989,0.0091028,0,0.034273,0,0,0.57813,-0.0061635,0,0.57823,-0.16071,-0.51328,-0.35445,-38.106,-0.34281,0.31927,0.0018913,0.72,0.18,0
0.15445,0.092612,0.25579,-0.51177,-0.16189,-0.34278,-0.0037891,0,0,-0.39943,0.0088873,0,-0.0067148,0,0,0.57898,-0.0024205,0,0.579,-0.15786,-0.5158,-0.34278,-43.718,-0.33881,0.3251,0.0013479,0.74,0.18,0
0.14607,0.088373,0.23472,-0.51693,-0.15658,-0.33115,-0.0069104,0,0,-0.43913,0.0086095,0,-0.049324,0,0,0.58028,0.0016023,0,0.58027,-0.154,-0.51951,-0.33115,-58.695,-0.33489,0.33198,0.00073892,0.76,0.18,0
0.13689,0.083872,0.21359,-0.5225,-0.15137,-0.31963,-0.010397,0,0,-0.47949,0.0085702,0,-0.095594,0,0,0.58214,0.0061308,0,0.58221,-0.14852,-0.52535,-0.31963,-68.09,-0.33117,0.34015,5.8444e-05,0.78,0.18,0
0.12689,0.079129,0.19238,-0.52893,-0.14629,-0.30838,-0.014486,0,0,-0.5213,0.009194,0,-0.14795,0,0,0.58482,0.011461,0,0.58508,-0.14254,-0.53269,-0.30838,-70.937,-0.32787,0.35002,-0.00070781,0.8,0.18,0
0.11604,0.074145,0.17106,-0.53699,-0.14146,-0.29762,-0.019551,0,0,-0.56579,0.011094,0,-0.2098,0,0,0.58876,0.018024,0,0.58942,-0.13642,-0.54203,-0.29762,-71.945,-0.32535,0.36226,-0.00159,0.82,0.18,0
0.10426,0.068902,0.14956,-0.54833,-0.13736,-0.28797,-0.026201,0,0,-0.6154,0.015212,0,-0.28624,0,0,0.59486,0.026546,0,0.59626,-0.13059,-0.55511,-0.28797,-72.261,-0.32455,0.37812,-0.0026604,0.84,0.18,0
0.091421,0.063355,0.12779,-0.56625,-0.13467,-0.28056,-0.036238,0,0,-0.67526,0.023002,0,-0.38834,0,0,0.6054,0.038367,0,0.60816,-0.12533,-0.57559,-0.28056,-72.144,-0.32716,0.40061,-0.0040886,0.86,0.18,0
0.077248,0.057318,0.10553,-0.60709,-0.14325,-0.28314,-0.051378,0,0,-0.76569,0.03641,0,-0.52648,0,0,0.6244,0.057351,0,0.62978,-0.13027,-0.62007,-0.28314,-72.018,-0.34449,0.43672,-0.0066554,0.88,0.18,0
0.060793,0.05091,0.082383,-0.69924,-0.16211,-0.30372,-0.09819,0,0,-0.93488,0.057886,0,-0.80108,0,0,0.71433,0.087365,0,0.72271,-0.13747,-0.72389,-0.30372,-70.512,-0.38836,0.52493,-0.013423,0.9,0.18,0
0.039853,0.041011,0.053581,-0.62419,-0.31141,-0.31015,-0.17581,0,0,-0.87941,-0.08611,0,-1.1602,0,0,0.57683,0.3581,0,0.6874,-0.23149,-0.7041,-0.31015,-63.156,-0.41525,0.43861,-0.0096594,0.92,0.18,0
0.028969,0.042295,0.037693,-0.73663,-0.26237,-0.33739,-0.1598,0,0,-0.51901,0.097531,0,-0.41549,0,0,0.71911,0.36537,0,0.79921,-0.21355,-0.78545,-0.33739,-73.012,-0.44546,0.52114,-0.0059083,0.94,0.18,0
0.019093,0.042689,0.024817,-0.65539,-0.20682,-0.28348,-0.10158,0,0,-0.48349,0.09966,0,-0.26412,0,0,0.63408,0.20867,0,0.66534,-0.18489,-0.67732,-0.28348,-77.817,-0.3819,0.45129,-0.0039716,0.96,0.18,0
0.0096297,0.042619,0.01233,-0.61711,-0.17492,-0.24994,-0.050732,0,0,-0.47732,0.097522,0,-0.1319,0,0,0.62043,0.096497,0,0.62646,-0.16917,-0.62285,-0.24994,-83.538,-0.34732,0.41917,-0.0033143,0.98,0.18,0
0,0.042563,0,-0.59265,-0.14827,-0.22228,-0.0010724,0,0,-0.48149,0.096204,0,-0.0027882,0,0,0.61648,-6.9389e-18,0,0.61523,-0.14827,-0.59266,-0.22228,-89.862,-0.32107,0.41239,-0.0032145,1,0.18,0
0,0.063702,1,-0.41567,-1.5741,-1.5969,-0.00090246,0,0,1.5356,0.02967,0,-0.0023464,0,0,0.34812,-2.4685e-15,0,0.34754,-0.41567,-1.5741,-1.5969,-0.044635,-1.1956,1.17,0.082157,0,0.2,0
0.030713,0.063655,0.99304,-0.39926,-1.5632,-1.5818,0.023577,0,0,1.5373,0.024171,0,0.061301,0,0,0.34095,-0.048864,0,0.34393,-0.39878,-1.5636,-1.5818,1.16,-1.1814,1.174,0.083046,0.02,0.2,0
0.06149,0.063429,0.98636,-0.37954,-1.5624,-1.569,0.041725,0,0,1.5462,0.0084585,0,0.10849,0,0,0.31898,-0.096599,0,0.33308,-0.37807,-1.5639,-1.569,2.0177,-1.1703,1.1884,0.086192,0.04,0.2,0
0.092563,0.062728,0.98028,-0.35358,-1.5611,-1.5547,0.047674,0,0,1.5614,-0.0083477,0,0.12395,0,0,0.28169,-0.13976,0,0.31489,-0.3517,-1.563,-1.5547,2.2574,-1.1565,1.2071,0.090332,0.06,0.2,0
0.12395,0.061195,0.97509,-0.32951,-1.5409,-1.5362,0.042275,0,0,1.5687,-0.006091,0,0.10991,0,0,0.23056,-0.1722,0,0.28909,-0.32804,-1.5424,-1.5362,1.9963,-1.1356,1.2113,0.091267,0.08,0.2,0
0.15531,0.058848,0.97106,-0.27324,-0.85759,-0.87333,0.035465,0,0,0.74433,0.037203,0,0.46757,0,0,0.18466,-0.10263,0,0.22221,-0.25416,-0.87667,-0.87333,25.435,-0.66806,0.62514,0.043651,0.1,0.2,0
0.15372,0.071163,0.93757,-0.2492,-0.25827,-0.246,0.029993,0,0,-0.041677,-0.15947,0,0.77982,0,0,0.16408,-0.0213,0,0.16549,-0.2234,-0.28407,-0.246,40.705,-0.25116,0.053105,-3.2666e-06,0.12,0.2,0
0.15364,0.080477,0.90543,-0.241,-0.26309,-0.24177,0.023623,0,0,0.010038,-0.2772,0,0.61419,0,0,0.15772,-0.021533,0,0.15921,-0.22597,-0.27812,-0.24177,32.468,-0.24862,0.046323,-3.1745e-06,0.14,0.2,0
0.15412,0.086689,0.87449,-0.23529,-0.26262,-0.23682,0.017354,0,0,0.019901,-0.3354,0,0.45121,0,0,0.15235,-0.019813,0,0.15365,-0.22687,-0.27105,-0.23682,25.891,-0.24491,0.040137,-2.645e-06,0.16,0.2,0
0.15444,0.090324,0.84448,-0.23179,-0.2596,-0.23186,0.012068,0,0,0.00099694,-0.36054,0,0.31377,0,0,0.14852,-0.016856,0,0.14947,-0.22728,-0.2641,-0.23186,20.477,-0.24108,0.034759,-2.031e-06,0.18,0.2,0
0.15416,0.091979,0.81508,-0.22987,-0.25518,-0.22702,0.0076738,0,0,-0.037011,-0.36606,0,0.19952,0,0,0.1464,-0.013274,0,0.14699,-0.22773,-0.25733,-0.22702,15.615,-0.23736,0.029959,-1.3784e-06,0.2,0.2,0
0.15296,0.092093,0.78592,-0.22932,-0.24979,-0.22232,0.0038779,0,0,-0.090959,-0.35699,0,0.10083,0,0,0.14598,-0.0094141,0,0.14627,-0.22861,-0.2505,-0.22232,10.378,-0.23381,0.025613,-6.9085e-07,0.22,0.2,0
0.15052,0.090941,0.75669,-0.23012,-0.24351,-0.21776,0.00044963,0,0,-0.16073,-0.33479,0,0.01169,0,0,0.14724,-0.0054736,0,0.14734,-0.23011,-0.24353,-0.21776,1.9211,-0.23047,0.022322,-4.1107e-08,0.24,0.2,0
0.14653,0.088651,0.72703,-0.23234,-0.23634,-0.21331,-0.0028039,0,0,-0.24745,-0.29945,0,-0.072901,0,0,0.15022,-0.0016528,0,0.15023,-0.2309,-0.23779,-0.21331,-27.251,-0.22733,0.021864,3.6266e-07,0.26,0.2,0
0.14063,0.085201,0.6966,-0.23616,-0.22807,-0.20893,-0.0060881,0,0,-0.354,-0.24881,0,-0.15829,0,0,0.15495,0.001696,0,0.15498,-0.2248,-0.23942,-0.20893,-61.802,-0.22438,0.026417,6.7466e-08,0.28,0.2,0
0.13237,0.080419,0.66505,-0.24202,-0.21803,-0.20452,-0.0094853,0,0,-0.48751,-0.17562,0,-0.24662,0,0,0.16129,0.0039355,0,0.16138,-0.21473,-0.24532,-0.20452,-70.833,-0.22152,0.036771,-1.9051e-06,0.3,0.2,0
0.12113,0.07411,0.63208,-0.25014,-0.20438,-0.19957,-0.012461,0,0,-0.65751,-0.062607,0,-0.32398,0,0,0.16877,0.0042794,0,0.16888,-0.20121,-0.25332,-0.19957,-75.714,-0.21803,0.052948,-7.5992e-06,0.32,0.2,0
0.10607,0.066434,0.59754,-0.26363,-0.51938,-0.56355,-0.0098047,0,0,0.051162,0.1044,0,-0.1742,0,0,0.194,0.011718,0,0.19636,-0.22944,-0.55357,-0.56355,-40.071,-0.44885,0.34385,0.0058165,0.34,0.2,0
0.12317,0.065009,0.59323,-0.32073,-0.94997,-0.97445,0.00016964,0,0,0.84983,0.031814,0,0.00044108,0,0,0.2515,0.0056904,0,0.25415,-0.32073,-0.94997,-0.97445,0.015447,-0.74838,0.64183,0.013513,0.36,0.2,0
0.14006,0.063712,0.58748,-0.35454,-0.98305,-0.98876,0.010697,0,0,0.82449,0.0074184,0,0.027813,0,0,0.31817,-0.031631,0,0.32069,-0.35436,-0.98323,-0.98876,0.9748,-0.77545,0.63166,0.012941,0.38,0.2,0
0.15615,0.06221,0.58051,-0.39718,-0.9877,-0.99597,0.029143,0,0,0.77843,0.010751,0,0.075771,0,0,0.37193,-0.08465,0,0.38138,-0.39575,-0.98914,-0.99597,2.8184,-0.79362,0.59684,0.010915,0.4,0.2,0
0.1712,0.060662,0.5726,-0.44061,-0.98541,-1.0004,0.061824,0,0,0.72774,0.019501,0,0.16074,0,0,0.41153,-0.14965,0,0.43721,-0.43369,-0.99234,-1.0004,6.3937,-0.80881,0.56273,0.0091459,0.42,0.2,0
0.18526,0.059324,0.56405,-0.47599,-0.99007,-1.0039,0.10773,0,0,0.68624,0.017933,0,0.28009,0,0,0.43667,-0.22794,0,0.49132,-0.45433,-1.0117,-1.0039,11.369,-0.82331,0.55351,0.0087039,0.44,0.2,0
0.19865,0.05827,0.55514,-0.48274,-1.0103,-1.003,0.17192,0,0,0.67638,-0.0093846,0,0.447,0,0,0.44518,-0.32866,0,0.55104,-0.43166,-1.0613,-1.003,16.549,-0.83201,0.60265,0.010887,0.46,0.2,0
0.21232,0.057805,0.54624,-0.33624,-1.0346,-0.95751,0.2106,0,0,0.80764,-0.10028,0,0.54756,0,0,0.35827,-0.47646,0,0.59218,-0.27765,-1.0932,-0.95751,15.547,-0.77613,0.7569,0.019879,0.48,0.2,0
0.23096,0.051772,0.54081,-0.27787,-0.79647,-0.61974,0.17728,0,0,0.25033,-0.41771,0,1.4196,0,0,0.21816,-0.42013,0,0.49394,-0.20302,-0.87132,-0.61974,29.518,-0.56469,0.59016,0.01547,0.5,0.2,0
0.22233,0.074171,0.50788,-0.21072,-0.23121,-0.18337,0.070489,0,0,-0.35556,-0.62197,0,1.8327,0,0,0.15067,-0.071125,0,0.16696,-0.14973,-0.29219,-0.18337,40.865,-0.20843,0.12898,-8.5446e-05,0.52,0.2,0
0.21673,0.085243,0.48054,-0.18967,-0.21721,-0.17012,0.051438,0,0,-0.25413,-0.61223,0,1.3374,0,0,0.13012,-0.057018,0,0.14205,-0.15019,-0.25669,-0.17012,37.505,-0.19233,0.098067,-4.1775e-05,0.54,0.2,0
0.21216,0.091489,0.45583,-0.17838,-0.20905,-0.16181,0.039995,0,0,-0.2154,-0.61406,0,1.0399,0,0,0.12048,-0.046239,0,0.12901,-0.15088,-0.23655,-0.16181,34.512,-0.18308,0.080758,-2.5388e-05,0.56,0.2,0
0.20812,0.095057,0.43235,-0.17053,-0.20148,-0.15484,0.031757,0,0,-0.20402,-0.60632,0,0.82569,0,0,0.11564,-0.037866,0,0.12166,-0.15068,-0.22133,-0.15484,32.012,-0.17561,0.068667,-1.6424e-05,0.58,0.2,0
0.204,0.096702,0.40957,-0.16562,-0.19483,-0.14909,0.025281,0,0,-0.21484,-0.59457,0,0.65731,0,0,0.11278,-0.031192,0,0.11699,-0.15102,-0.20942,-0.14909,29.992,-0.16984,0.059384,-1.0717e-05,0.6,0.2,0
0.19952,0.096952,0.38724,-0.16225,-0.18863,-0.14399,0.020081,0,0,-0.23739,-0.58035,0,0.52211,0,0,0.11098,-0.025712,0,0.11391,-0.15141,-0.19946,-0.14399,28.35,-0.16495,0.052162,-6.7941e-06,0.62,0.2,0
0.19451,0.096138,0.36518,-0.1598,-0.18272,-0.13928,0.015768,0,0,-0.26687,-0.56479,0,0.40997,0,0,0.10983,-0.021077,0,0.11182,-0.15177,-0.19075,-0.13928,26.997,-0.1606,0.046507,-3.9365e-06,0.64,0.2,0
0.18885,0.094498,0.34331,-0.15794,-0.17701,-0.13481,0.012089,0,0,-0.3006,-0.54851,0,0.31432,0,0,0.1091,-0.017032,0,0.11041,-0.15207,-0.18287,-0.13481,25.869,-0.15659,0.042163,-1.7898e-06,0.66,0.2,0
0.18248,0.092205,0.32154,-0.15646,-0.17143,-0.13052,0.0088524,0,0,-0.33722,-0.53183,0,0.23016,0,0,0.10869,-0.013376,0,0.1095,-0.15235,-0.17554,-0.13052,24.892,-0.15281,0.038992,-1.5847e-07,0.68,0.2,0
0.17536,0.089388,0.29983,-0.15528,-0.16596,-0.12636,0.0059036,0,0,-0.37605,-0.51488,0,0.15349,0,0,0.10854,-0.0099417,0,0.10899,-0.15266,-0.16858,-0.12636,23.936,-0.1492,0.036936,1.0628e-06,0.7,0.2,0
0.16744,0.086147,0.27812,-0.15436,-0.16057,-0.12229,0.0031129,0,0,-0.41688,-0.4976,0,0.080935,0,0,0.10862,-0.0065796,0,0.10882,-0.15307,-0.16186,-0.12229,22.539,-0.14574,0.035987,1.9205e-06,0.72,0.2,0
0.15869,0.082555,0.25638,-0.15368,-0.15522,-0.11831,0.00036473,0,0,-0.45988,-0.47983,0,0.0094829,0,0,0.10894,-0.0031446,0,0.10898,-0.1536,-0.1553,-0.11831,12.71,-0.1424,0.036173,2.4128e-06,0.74,0.2,0
0.14905,0.078669,0.23455,-0.1533,-0.1499,-0.11442,-0.0024492,0,0,-0.50555,-0.46127,0,-0.063679,0,0,0.10951,0.00051475,0,0.1095,-0.14862,-0.15458,-0.11442,-62.406,-0.1392,0.037543,2.4879e-06,0.76,0.2,0
0.13846,0.074531,0.21257,-0.1533,-0.14458,-0.11062,-0.0054362,0,0,-0.55485,-0.44143,0,-0.14134,0,0,0.1104,0.0045691,0,0.11048,-0.14197,-0.15591,-0.11062,-64.373,-0.13617,0.040175,2.0292e-06,0.78,0.2,0
0.12685,0.070173,0.19039,-0.15385,-0.13924,-0.10696,-0.0087114,0,0,-0.60947,-0.41955,0,-0.2265,0,0,0.11171,0.0092244,0,0.11207,-0.13517,-0.15791,-0.10696,-64.99,-0.13335,0.044205,8.1949e-07,0.8,0.2,0
0.11409,0.065616,0.16789,-0.15523,-0.13386,-0.10352,-0.012406,0,0,-0.67231,-0.39445,0,-0.32255,0,0,0.11364,0.014747,0,0.11457,-0.12817,-0.16092,-0.10352,-65.371,-0.13087,0.049878,-1.5376e-06,0.82,0.2,0
0.09996,0.060876,0.14493,-0.15803,-0.12846,-0.10044,-0.016691,0,0,-0.74862,-0.36431,0,-0.43397,0,0,0.11661,0.021503,0,0.11855,-0.12095,-0.16554,-0.10044,-65.764,-0.12898,0.057649,-5.8069e-06,0.84,0.2,0
0.08414,0.055948,0.12125,-0.1634,-0.12323,-0.098115,-0.02172,0,0,-0.84876,-0.32649,0,-0.56473,0,0,0.12149,0.030034,0,0.12512,-0.11373,-0.1729,-0.098115,-66.382,-0.12825,0.068331,-1.3545e-05,0.86,0.2,0
0.066009,0.050854,0.096334,-0.17279,-0.11817,-0.096919,-0.027847,0,0,-0.98626,-0.27622,0,-0.72402,0,0,0.13102,0.041127,0,0.1373,-0.10647,-0.18448,-0.096919,-67.221,-0.12929,0.083196,-2.8265e-05,0.88,0.2,0
0.04469,0.045301,0.068838,-0.19004,-0.11594,-0.098677,-0.036486,0,0,-1.1877,-0.22441,0,-0.94864,0,0,0.15154,0.05593,0,0.16185,-0.10099,-0.20499,-0.098677,-67.719,-0.13488,0.10517,-5.9653e-05,0.9,0.2,0
0.018502,0.037257,0.035716,-0.20949,-0.19429,-0.14078,-0.10686,0,0,-0.67855,-0.1265,0,-0.78428,0,0,0.2247,0.35084,0,0.43725,-0.083941,-0.31984,-0.14078,-54.086,-0.18152,0.2146,-0.00050226,0.92,0.2,0
0.017548,0.04286,0.03004,-0.29899,-0.23472,-0.19015,-0.12825,0,0,-0.14149,-0.057938,0,-0.33344,0,0,0.38127,0.3576,0,0.51895,-0.13465,-0.39907,-0.19015,-52.034,-0.24129,0.2415,-0.00059656,0.94,0.2,0
0.012842,0.043491,0.020465,-0.42502,-0.23148,-0.21741,-0.1047,0,0,-0.26989,-0.018281,0,-0.27222,0,0,0.49249,0.20557,0,0.53115,-0.18568,-0.47082,-0.21741,-66.373,-0.2913,0.27067,-0.00097145,0.96,0.2,0
0.0067522,0.043596,0.010341,-0.45983,-0.21526,-0.21287,-0.052168,0,0,-0.32105,-0.0031101,0,-0.13564,0,0,0.51164,0.095243,0,0.51877,-0.2046,-0.4705,-0.21287,-78.448,-0.29599,0.26186,-0.00091912,0.98,0.2,0
0,0.04356,0,-0.45389,-0.19341,-0.19419,-0.00070553,0,0,-0.33761,0.0010116,0,-0.0018344,0,0,0.51704,1.3878e-17,0,0.51559,-0.19341,-0.45389,-0.19419,-89.845,-0.2805,0.26009,-0.00090365,1,0.2,0
0,0.063814,1,-0.36386,-1.5944,-1.5875,-0.0023827,0,0,1.5907,-0.0090027,0,-0.006195,0,0,0.30616,-2.1129e-15,0,0.3058,-0.36386,-1.5944,-1.5875,-0.11094,-1.1819,1.2271,0.09489,0,0.22,0
0.031814,0.06369,0.99388,-0.3518,-1.5828,-1.5743,0.011966,0,0,1.5892,-0.011127,0,0.03111,0,0,0.29996,-0.035759,0,0.3018,-0.35168,-1.5829,-1.5743,0.55684,-1.1696,1.2269,0.094848,0.02,0.22,0
0.063568,0.063283,0.988,-0.34043,-1.5743,-1.5624,0.020355,0,0,1.5886,-0.015475,0,0.052923,0,0,0.28151,-0.069581,0,0.28995,-0.34009,-1.5747,-1.5624,0.94483,-1.1591,1.2285,0.095194,0.04,0.22,0
0.095358,0.062468,0.98262,-0.32598,-1.5602,-1.5485,0.022798,0,0,1.5892,-0.015231,0,0.059274,0,0,0.25158,-0.098752,0,0.27067,-0.32556,-1.5606,-1.5485,1.0579,-1.1449,1.229,0.095314,0.06,0.22,0
0.12714,0.061173,0.97794,-0.31191,-1.5311,-1.5309,0.021938,0,0,1.5846,-0.00036228,0,0.057038,0,0,0.21226,-0.11972,0,0.24462,-0.31151,-1.5315,-1.5309,1.0305,-1.1246,1.2197,0.093187,0.08,0.22,0
0.15874,0.059608,0.97413,-0.26879,-0.85993,-0.87438,0.02309,0,0,0.76145,0.034173,0,0.324,0,0,0.17781,-0.071058,0,0.19832,-0.25538,-0.87334,-0.87438,25.287,-0.6677,0.62147,0.044681,0.1,0.22,0
0.1576,0.068546,0.94113,-0.24645,-0.25283,-0.2439,0.021634,0,0,-0.03317,-0.11614,0,0.56247,0,0,0.16256,-0.015206,0,0.16329,-0.22777,-0.2715,-0.2439,40.805,-0.24772,0.038309,-1.2596e-06,0.12,0.22,0
0.15742,0.075617,0.9091,-0.24007,-0.25712,-0.24007,0.017787,0,0,-4.4037e-05,-0.22167,0,0.46247,0,0,0.15788,-0.016046,0,0.15871,-0.22887,-0.26832,-0.24007,32.198,-0.24575,0.035211,-1.5016e-06,0.14,0.22,0
0.15759,0.080578,0.87797,-0.23538,-0.2576,-0.23569,0.013555,0,0,0.0040738,-0.28486,0,0.35242,0,0,0.15386,-0.015593,0,0.15466,-0.22896,-0.26402,-0.23569,25.326,-0.24289,0.032223,-1.469e-06,0.16,0.22,0
0.15758,0.083629,0.84756,-0.23234,-0.2555,-0.23111,0.0097864,0,0,-0.016001,-0.31709,0,0.25445,0,0,0.15091,-0.014187,0,0.15157,-0.22875,-0.25908,-0.23111,20.101,-0.23965,0.029219,-1.2533e-06,0.18,0.22,0
0.15695,0.085118,0.81761,-0.2307,-0.25173,-0.22649,0.0066691,0,0,-0.054672,-0.32818,0,0.1734,0,0,0.14927,-0.012184,0,0.14977,-0.22876,-0.25367,-0.22649,16.187,-0.23631,0.02612,-8.9199e-07,0.2,0.22,0
0.15539,0.085373,0.78785,-0.23025,-0.24678,-0.22189,0.0041054,0,0,-0.10866,-0.32349,0,0.10674,0,0,0.14905,-0.0098736,0,0.14937,-0.22929,-0.24774,-0.22189,13.21,-0.23297,0.023057,-4.182e-07,0.22,0.22,0
0.15261,0.084628,0.75799,-0.23094,-0.24079,-0.21732,0.0019364,0,0,-0.1771,-0.30515,0,0.050346,0,0,0.15027,-0.0074841,0,0.15046,-0.23058,-0.24116,-0.21732,10.732,-0.22969,0.020689,8.7623e-08,0.24,0.22,0
0.14831,0.083011,0.72774,-0.23281,-0.23376,-0.21274,1.3357e-05,0,0,-0.26085,-0.27318,0,0.00034727,0,0,0.15291,-0.0052496,0,0.153,-0.23281,-0.23376,-0.21274,0.80656,-0.22644,0.020556,4.429e-07,0.26,0.22,0
0.14217,0.080551,0.69683,-0.236,-0.22545,-0.20812,-0.0017616,0,0,-0.36249,-0.22529,0,-0.045802,0,0,0.15687,-0.0034794,0,0.15692,-0.22516,-0.23629,-0.20812,-80.769,-0.22319,0.024575,2.7003e-07,0.28,0.22,0
0.13381,0.077217,0.66499,-0.24068,-0.21529,-0.20329,-0.0033029,0,0,-0.48611,-0.15595,0,-0.085876,0,0,0.16193,-0.0025747,0,0.16197,-0.21486,-0.24111,-0.20329,-82.71,-0.21975,0.033561,-1.1918e-06,0.3,0.22,0
0.12273,0.073024,0.63206,-0.24689,-0.20248,-0.19801,-0.0040661,0,0,-0.63532,-0.058035,0,-0.10572,0,0,0.16768,-0.0029565,0,0.16773,-0.20211,-0.24726,-0.19801,-84.811,-0.21579,0.047325,-5.3066e-06,0.32,0.22,0
0.1084,0.068237,0.59792,-0.25916,-0.53847,-0.56815,0.0032707,0,0,0.079192,0.070152,0,-0.027063,0,0,0.1866,-0.027017,0,0.19058,-0.22875,-0.56888,-0.56815,-43.123,-0.45526,0.35313,0.0068207,0.34,0.22,0
0.1259,0.06553,0.59387,-0.3003,-0.96106,-0.97228,0.02571,0,0,0.87357,0.014584,0,0.066845,0,0,0.22984,-0.060006,0,0.23909,-0.2993,-0.96206,-0.97228,2.2248,-0.74455,0.66793,0.015292,0.36,0.22,0
0.14334,0.063623,0.58873,-0.32017,-0.99639,-0.98369,0.046518,0,0,0.86259,-0.0165,0,0.12095,0,0,0.28021,-0.086053,0,0.29377,-0.31698,-0.99957,-0.98369,3.9169,-0.76675,0.67479,0.015752,0.38,0.22,0
0.1604,0.061977,0.58266,-0.34316,-1.0117,-0.98913,0.066926,0,0,0.83976,-0.029373,0,0.17401,0,0,0.32028,-0.12512,0,0.34379,-0.33652,-1.0184,-0.98913,5.6607,-0.78133,0.6677,0.01519,0.4,0.22,0
0.17693,0.060411,0.57592,-0.36242,-1.019,-0.99033,0.092869,0,0,0.81628,-0.037217,0,0.24146,0,0,0.34657,-0.17566,0,0.38797,-0.34954,-1.0318,-0.99033,7.8983,-0.79057,0.66253,0.014738,0.42,0.22,0
0.19305,0.058827,0.5688,-0.36618,-1.0296,-0.98753,0.12464,0,0,0.80776,-0.054679,0,0.32407,0,0,0.3548,-0.23822,0,0.4264,-0.34353,-1.0522,-0.98753,10.297,-0.79444,0.67867,0.015563,0.44,0.22,0
0.20924,0.057008,0.56173,-0.32925,-1.0516,-0.97599,0.14961,0,0,0.84076,-0.098324,0,0.389,0,0,0.33152,-0.31575,0,0.45677,-0.29949,-1.0814,-0.97599,11.25,-0.78562,0.73489,0.018978,0.46,0.22,0
0.22668,0.053529,0.55554,-0.30266,-1.1406,-0.98852,0.14265,0,0,0.89162,-0.19772,0,0.37089,0,0,0.26557,-0.41144,0,0.49097,-0.27904,-1.1642,-0.98852,9.4011,-0.8106,0.81173,0.02319,0.48,0.22,0
0.24491,0.04635,0.5511,-0.2385,-0.6659,-0.57443,0.082351,0,0,0.2669,-0.21621,0,0.8975,0,0,0.18948,-0.24798,0,0.33329,-0.19961,-0.70479,-0.57443,27.458,-0.49294,0.4612,0.011804,0.5,0.22,0
0.23736,0.064016,0.51968,-0.20065,-0.20897,-0.17485,0.052495,0,0,-0.33537,-0.44348,0,1.3649,0,0,0.15036,-0.050636,0,0.15885,-0.15215,-0.25747,-0.17485,42.736,-0.19482,0.096002,-3.7017e-05,0.52,0.22,0
0.23149,0.074479,0.49096,-0.18932,-0.20538,-0.1675,0.040752,0,0,-0.28358,-0.49232,0,1.0596,0,0,0.13785,-0.046602,0,0.1456,-0.15581,-0.23888,-0.1675,39.428,-0.1874,0.077886,-2.2433e-05,0.54,0.22,0
0.22601,0.080531,0.46454,-0.18195,-0.20016,-0.16109,0.03272,0,0,-0.27122,-0.50794,0,0.85073,0,0,0.12839,-0.040169,0,0.13455,-0.15709,-0.22502,-0.16109,37.225,-0.18107,0.06602,-1.4597e-05,0.56,0.22,0
0.22064,0.083984,0.4396,-0.17609,-0.19499,-0.15529,0.026637,0,0,-0.27049,-0.51619,0,0.69255,0,0,0.12233,-0.034055,0,0.12698,-0.15728,-0.21381,-0.15529,35.234,-0.17546,0.057549,-9.7495e-06,0.58,0.22,0
0.21519,0.085683,0.41561,-0.17136,-0.18967,-0.14987,0.021633,0,0,-0.2794,-0.51738,0,0.56246,0,0,0.11839,-0.028681,0,0.12181,-0.15703,-0.204,-0.14987,33.533,-0.1703,0.050935,-6.3378e-06,0.6,0.22,0
0.20947,0.086078,0.39225,-0.16775,-0.18438,-0.14486,0.017379,0,0,-0.29753,-0.51372,0,0.45185,0,0,0.11575,-0.024025,0,0.11821,-0.1568,-0.19533,-0.14486,32.215,-0.16567,0.045684,-3.7931e-06,0.62,0.22,0
0.20329,0.085473,0.36931,-0.16498,-0.17912,-0.14016,0.013712,0,0,-0.32262,-0.50645,0,0.35652,0,0,0.11396,-0.019958,0,0.11569,-0.15662,-0.18747,-0.14016,31.362,-0.16142,0.041603,-1.843e-06,0.64,0.22,0
0.19656,0.084084,0.34666,-0.16283,-0.17386,-0.13567,0.010498,0,0,-0.35307,-0.49644,0,0.27294,0,0,0.1128,-0.016335,0,0.11397,-0.15649,-0.18021,-0.13567,31.144,-0.15746,0.038593,-3.3219e-07,0.66,0.22,0
0.18917,0.082073,0.32419,-0.16119,-0.16861,-0.13136,0.0076214,0,0,-0.38782,-0.48424,0,0.19816,0,0,0.11211,-0.013019,0,0.11286,-0.15642,-0.17337,-0.13136,32.026,-0.15372,0.036612,8.2413e-07,0.68,0.22,0
0.18105,0.079563,0.30181,-0.15996,-0.16334,-0.12717,0.0049809,0,0,-0.42631,-0.47013,0,0.1295,0,0,0.11183,-0.0098827,0,0.11226,-0.15639,-0.16691,-0.12717,35.654,-0.15016,0.035661,1.6645e-06,0.7,0.22,0
0.17212,0.076653,0.27946,-0.15912,-0.15803,-0.12309,0.0024845,0,0,-0.46841,-0.45422,0,0.064596,0,0,0.11191,-0.0068047,0,0.11211,-0.15604,-0.16112,-0.12309,51.193,-0.14675,0.035758,2.1889e-06,0.72,0.22,0
0.16231,0.073418,0.25705,-0.15867,-0.15269,-0.11911,4.9623e-05,0,0,-0.51428,-0.43646,0,0.0012902,0,0,0.11236,-0.0036671,0,0.11242,-0.15269,-0.15867,-0.11911,89.525,-0.14349,0.036933,2.3599e-06,0.74,0.22,0
0.15155,0.069922,0.23451,-0.15865,-0.14728,-0.11523,-0.0023955,0,0,-0.56449,-0.41664,0,-0.062282,0,0,0.11322,-0.00034772,0,0.11321,-0.1468,-0.15914,-0.11523,-78.579,-0.14039,0.03922,2.0957e-06,0.76,0.22,0
0.13973,0.066215,0.21176,-0.15915,-0.14179,-0.11146,-0.0049101,0,0,-0.62002,-0.39432,0,-0.12766,0,0,0.11455,0.003285,0,0.11459,-0.1405,-0.16045,-0.11146,-75.253,-0.13747,0.042667,1.256e-06,0.78,0.22,0
0.12675,0.062347,0.18869,-0.16033,-0.1362,-0.10783,-0.0075355,0,0,-0.68252,-0.36884,0,-0.19592,0,0,0.11651,0.0073759,0,0.11673,-0.13404,-0.16249,-0.10783,-74.005,-0.13479,0.047351,-3.8607e-07,0.8,0.22,0
0.11243,0.058367,0.16516,-0.16242,-0.13047,-0.10438,-0.010286,0,0,-0.75445,-0.33916,0,-0.26743,0,0,0.11933,0.012082,0,0.11993,-0.12745,-0.16544,-0.10438,-73.61,-0.13242,0.053404,-3.1955e-06,0.82,0.22,0
0.096568,0.054329,0.14096,-0.16577,-0.12459,-0.1012,-0.01312,0,0,-0.83941,-0.30395,0,-0.34113,0,0,0.12344,0.017554,0,0.12468,-0.12076,-0.1696,-0.1012,-73.75,-0.13052,0.061014,-7.753e-06,0.84,0.22,0
0.078854,0.050296,0.11578,-0.1707,-0.11846,-0.098325,-0.015944,0,0,-0.94082,-0.26176,0,-0.41454,0,0,0.1297,0.023853,0,0.13189,-0.11398,-0.17518,-0.098325,-74.299,-0.12916,0.070345,-1.4937e-05,0.86,0.22,0
0.058935,0.046269,0.089082,-0.17735,-0.11225,-0.095786,-0.018697,0,0,-1.0603,-0.21402,0,-0.48612,0,0,0.13942,0.030646,0,0.14284,-0.10726,-0.18233,-0.095786,-75.062,-0.12846,0.081418,-2.5872e-05,0.88,0.22,0
0.036444,0.041933,0.060011,-0.18587,-0.10591,-0.093536,-0.022003,0,0,-1.2003,-0.16092,0,-0.57207,0,0,0.15254,0.035434,0,0.15683,-0.10026,-0.19153,-0.093536,-75.586,-0.12844,0.094805,-4.3023e-05,0.9,0.22,0
0.010922,0.035951,0.028066,-0.19474,-0.14162,-0.11634,-0.029322,0,0,-0.67617,-0.059742,0,-0.34332,0,0,0.19678,0.17053,0,0.27667,-0.12397,-0.21239,-0.11634,-63.506,-0.1509,0.092824,-4.1012e-05,0.92,0.22,0
0.0093976,0.039978,0.023389,-0.25541,-0.2966,-0.18899,-0.05835,0,0,-0.086347,-0.13989,0,-0.15171,0,0,0.28678,0.26997,0,0.39685,-0.21413,-0.33789,-0.18899,-35.28,-0.247,0.13805,-0.00012016,0.94,0.22,0
0.0074681,0.041958,0.016594,-0.28285,-0.26735,-0.18165,-0.059475,0,0,-0.13155,-0.11141,0,-0.15463,0,0,0.37173,0.1698,0,0.40761,-0.21512,-0.33508,-0.18165,-48.71,-0.24395,0.13973,-0.00011347,0.96,0.22,0
0.0041356,0.042495,0.0085198,-0.32615,-0.25389,-0.18253,-0.036207,0,0,-0.1867,-0.092763,0,-0.094139,0,0,0.41486,0.081399,0,0.42146,-0.23886,-0.34117,-0.18253,-67.469,-0.25419,0.13929,-6.6214e-05,0.98,0.22,0
0,0.042604,0,-0.32832,-0.23586,-0.16925,0.0020982,0,0,-0.20678,-0.08659,0,0.0054552,0,0,0.42599,3.4694e-18,0,0.42469,-0.23581,-0.32836,-0.16925,88.701,-0.24448,0.13841,-3.7905e-05,1,0.22,0
0,0.063342,1,-0.33138,-1.605,-1.5809,-0.0025367,0,0,1.6244,-0.031333,0,-0.0065953,0,0,0.2766,-1.9863e-16,0,0.27642,-0.33138,-1.605,-1.5809,-0.11411,-1.1724,1.2618,0.10305,0,0.24,0
0.032488,0.06321,0.99447,-0.32212,-1.5925,-1.5689,0.0049342,0,0,1.6207,-0.030732,0,0.012829,0,0,0.27137,-0.024224,0,0.27232,-0.3221,-1.5925,-1.5689,0.22254,-1.1612,1.2587,0.10231,0.02,0.24,0
0.06483,0.06281,0.98915,-0.31635,-1.5792,-1.5578,0.0083359,0,0,1.6139,-0.027813,0,0.021673,0,0,0.25599,-0.046804,0,0.26029,-0.3163,-1.5793,-1.5578,0.37818,-1.1511,1.2524,0.10079,0.04,0.24,0
0.097044,0.062119,0.98423,-0.30894,-1.5593,-1.5447,0.0095922,0,0,1.6065,-0.01896,0,0.02494,0,0,0.23155,-0.065882,0,0.2411,-0.30887,-1.5594,-1.5447,0.43952,-1.1376,1.2432,0.098643,0.06,0.24,0
0.12909,0.061181,0.97988,-0.30119,-1.5297,-1.5292,0.011173,0,0,1.5963,-0.00071077,0,0.02905,0,0,0.20011,-0.07947,0,0.216,-0.30109,-1.5298,-1.5292,0.52104,-1.12,1.2284,0.095198,0.08,0.24,0
0.1609,0.060215,0.97622,-0.26597,-0.86547,-0.87635,0.014895,0,0,0.77804,0.025729,0,0.2191,0,0,0.1729,-0.04725,0,0.18296,-0.25694,-0.87451,-0.87635,24.974,-0.66926,0.62045,0.045894,0.1,0.24,0
0.16021,0.066517,0.94366,-0.24403,-0.2498,-0.24251,0.015098,0,0,-0.019667,-0.094737,0,0.39255,0,0,0.16095,-0.010688,0,0.16132,-0.23154,-0.26229,-0.24251,39.587,-0.24545,0.026986,-4.7623e-07,0.12,0.24,0
0.16011,0.07161,0.91184,-0.23884,-0.25333,-0.23883,0.012845,0,0,-6.7459e-05,-0.1884,0,0.33398,0,0,0.15733,-0.011912,0,0.15779,-0.23134,-0.26083,-0.23883,30.29,-0.24367,0.026551,-7.0914e-07,0.14,0.24,0
0.16021,0.075295,0.88072,-0.23481,-0.25412,-0.23475,0.010213,0,0,-0.0008091,-0.25177,0,0.26553,0,0,0.15421,-0.012322,0,0.15471,-0.23042,-0.25852,-0.23475,23.308,-0.24123,0.026206,-8.396e-07,0.16,0.24,0
0.16008,0.07764,0.85016,-0.23207,-0.25264,-0.23043,0.0077904,0,0,-0.021355,-0.28877,0,0.20255,0,0,0.15193,-0.012077,0,0.15241,-0.22946,-0.25526,-0.23043,18.571,-0.23838,0.025332,-8.307e-07,0.18,0.24,0
0.15935,0.078851,0.81995,-0.23053,-0.24946,-0.22599,0.0058185,0,0,-0.058973,-0.30506,0,0.15128,0,0,0.15071,-0.011377,0,0.15114,-0.22888,-0.2511,-0.22599,15.791,-0.23532,0.023798,-6.5791e-07,0.2,0.24,0
0.15772,0.079154,0.78987,-0.23005,-0.24494,-0.22148,0.0043111,0,0,-0.11134,-0.30495,0,0.11209,0,0,0.15068,-0.010414,0,0.15104,-0.22889,-0.2461,-0.22148,15.034,-0.23216,0.021874,-3.3714e-07,0.22,0.24,0
0.1549,0.078735,0.75968,-0.23058,-0.23928,-0.21692,0.0031936,0,0,-0.17746,-0.29061,0,0.083033,0,0,0.15186,-0.0093682,0,0.15216,-0.22953,-0.24033,-0.21692,18.136,-0.22893,0.020286,5.7195e-08,0.24,0.24,0
0.15062,0.077724,0.72913,-0.23211,-0.23245,-0.21228,0.0023834,0,0,-0.25781,-0.26223,0,0.061969,0,0,0.15422,-0.008427,0,0.15446,-0.2299,-0.23467,-0.21228,42.96,-0.22562,0.020425,3.5818e-07,0.26,0.24,0
0.14459,0.07619,0.69799,-0.23473,-0.22428,-0.2075,0.0018514,0,0,-0.35396,-0.21813,0,0.048138,0,0,0.15762,-0.0078072,0,0.15783,-0.22396,-0.23505,-0.2075,80.243,-0.22217,0.024006,2.3469e-07,0.28,0.24,0
0.13646,0.074181,0.66608,-0.23846,-0.21443,-0.20247,0.0017154,0,0,-0.46779,-0.15543,0,0.044601,0,0,0.16181,-0.0077553,0,0.16201,-0.21431,-0.23858,-0.20247,85.937,-0.21846,0.03188,-9.2437e-07,0.3,0.24,0
0.12588,0.071789,0.63327,-0.24318,-0.20261,-0.19706,0.002334,0,0,-0.59951,-0.072125,0,0.060684,0,0,0.16643,-0.0085097,0,0.16667,-0.20248,-0.24332,-0.19706,86.718,-0.21429,0.043795,-4.0927e-06,0.32,0.24,0
0.11248,0.06924,0.59951,-0.25525,-0.56306,-0.57522,0.011745,0,0,0.1146,0.028748,0,0.078013,0,0,0.18116,-0.05635,0,0.19452,-0.22795,-0.59035,-0.57522,43.683,-0.46451,0.36731,0.0080971,0.34,0.24,0
0.13046,0.065592,0.59564,-0.28464,-0.98462,-0.97641,0.039485,0,0,0.8993,-0.010665,0,0.10266,0,0,0.21457,-0.11001,0,0.24204,-0.28242,-0.98684,-0.97641,3.2184,-0.74856,0.69926,0.017548,0.36,0.24,0
0.14846,0.063052,0.59092,-0.29372,-1.0145,-0.98339,0.06545,0,0,0.89657,-0.040454,0,0.17017,0,0,0.25306,-0.12778,0,0.2839,-0.28783,-1.0204,-0.98339,5.1466,-0.76387,0.71479,0.018587,0.38,0.24,0
0.16632,0.061035,0.58551,-0.30214,-1.0325,-0.9859,0.085952,0,0,0.88888,-0.06055,0,0.22348,0,0,0.28233,-0.15492,0,0.32201,-0.29217,-1.0425,-0.9859,6.6226,-0.77351,0.72367,0.019064,0.4,0.24,0
0.18401,0.059173,0.57963,-0.30549,-1.0438,-0.9844,0.10465,0,0,0.88259,-0.07716,0,0.27209,0,0,0.29843,-0.19062,0,0.35376,-0.29094,-1.0583,-0.9844,7.9142,-0.77789,0.73321,0.019553,0.42,0.24,0
0.20163,0.057137,0.57358,-0.29639,-1.0552,-0.97905,0.11865,0,0,0.88746,-0.098973,0,0.30848,0,0,0.29657,-0.23412,0,0.37739,-0.27827,-1.0733,-0.97905,8.6829,-0.77687,0.75235,0.020719,0.44,0.24,0
0.21951,0.054337,0.56777,-0.27916,-1.0783,-0.97499,0.11865,0,0,0.90459,-0.13426,0,0.30849,0,0,0.27196,-0.28336,0,0.39272,-0.26191,-1.0955,-0.97499,8.2696,-0.77747,0.78035,0.022456,0.46,0.24,0
0.23781,0.049896,0.5627,-0.25973,-1.0933,-0.96861,0.092137,0,0,0.92154,-0.1621,0,0.23955,0,0,0.22315,-0.32577,0,0.39583,-0.24967,-1.1034,-0.96861,6.2328,-0.77388,0.79493,0.02332,0.48,0.24,0
0.25637,0.043124,0.55884,-0.21364,-0.61511,-0.55599,0.059387,0,0,0.27463,-0.13974,0,0.69149,0,0,0.1732,-0.19075,0,0.27734,-0.18243,-0.64632,-0.55599,27.846,-0.46158,0.43346,0.011463,0.5,0.24,0
0.24879,0.056432,0.52813,-0.19745,-0.19642,-0.17097,0.041808,0,0,-0.34421,-0.33077,0,1.087,0,0,0.14915,-0.03748,0,0.15386,-0.15512,-0.23875,-0.17097,45.354,-0.18828,0.076931,-2.0079e-05,0.52,0.24,0
0.2426,0.065551,0.49918,-0.18904,-0.19708,-0.16575,0.033614,0,0,-0.30269,-0.40724,0,0.87397,0,0,0.14058,-0.036707,0,0.14536,-0.1592,-0.22691,-0.16575,41.589,-0.18396,0.064683,-1.342e-05,0.54,0.24,0
0.23669,0.071171,0.4719,-0.18331,-0.19393,-0.16036,0.027053,0,0,-0.29835,-0.43638,0,0.70337,0,0,0.13303,-0.033446,0,0.1372,-0.16105,-0.21619,-0.16036,39.449,-0.1792,0.055486,-8.769e-06,0.56,0.24,0
0.23067,0.074409,0.44597,-0.17881,-0.18985,-0.1552,0.022062,0,0,-0.307,-0.45053,0,0.57363,0,0,0.12713,-0.029416,0,0.1305,-0.16159,-0.20707,-0.1552,37.976,-0.17462,0.048995,-5.6956e-06,0.58,0.24,0
0.22441,0.076007,0.42105,-0.17494,-0.18542,-0.15021,0.017992,0,0,-0.32146,-0.45772,0,0.46778,0,0,0.12281,-0.025432,0,0.12542,-0.16144,-0.19892,-0.15021,36.88,-0.17019,0.044177,-3.4822e-06,0.6,0.24,0
0.21781,0.076403,0.39685,-0.17166,-0.18078,-0.14541,0.01451,0,0,-0.34113,-0.45971,0,0.37727,0,0,0.11971,-0.021748,0,0.12166,-0.16101,-0.19143,-0.14541,36.276,-0.16595,0.040532,-1.793e-06,0.62,0.24,0
0.21076,0.075881,0.37316,-0.16896,-0.176,-0.1408,0.011464,0,0,-0.36602,-0.45753,0,0.29807,0,0,0.11752,-0.018398,0,0.11894,-0.16049,-0.18447,-0.1408,36.466,-0.16192,0.037878,-4.7341e-07,0.64,0.24,0
0.20317,0.074641,0.34984,-0.16681,-0.17111,-0.13636,0.0087617,0,0,-0.3958,-0.45178,0,0.2278,0,0,0.11604,-0.015336,0,0.11704,-0.15994,-0.17798,-0.13636,38.096,-0.15809,0.036152,5.5268e-07,0.66,0.24,0
0.19493,0.072836,0.32675,-0.16515,-0.16612,-0.13206,0.0063278,0,0,-0.43018,-0.44287,0,0.16452,0,0,0.11514,-0.012486,0,0.11582,-0.15929,-0.17198,-0.13206,42.795,-0.15444,0.035332,1.3194e-06,0.68,0.24,0
0.18596,0.070583,0.30378,-0.16395,-0.16103,-0.12787,0.0040938,0,0,-0.46901,-0.43105,0,0.10644,0,0,0.11476,-0.0097657,0,0.11517,-0.15814,-0.16684,-0.12787,54.814,-0.15095,0.035426,1.8284e-06,0.7,0.24,0
0.17617,0.067978,0.28085,-0.1632,-0.15583,-0.12379,0.0019965,0,0,-0.5123,-0.41645,0,0.051908,0,0,0.11484,-0.0070882,0,0.11505,-0.15532,-0.16371,-0.12379,75.782,-0.14761,0.036452,2.0508e-06,0.72,0.24,0
0.16547,0.065096,0.25784,-0.16291,-0.15051,-0.11981,-1.907e-05,0,0,-0.56029,-0.39912,0,-0.00049581,0,0,0.1154,-0.0043682,0,0.11547,-0.15051,-0.16291,-0.11981,-89.912,-0.14441,0.038431,1.9252e-06,0.74,0.24,0
0.15376,0.062004,0.23469,-0.16311,-0.14508,-0.11593,-0.0019944,0,0,-0.61342,-0.37902,0,-0.051855,0,0,0.11646,-0.0015187,0,0.11647,-0.14486,-0.16333,-0.11593,-83.763,-0.14138,0.041386,1.3522e-06,0.76,0.24,0
0.14093,0.058758,0.21126,-0.16387,-0.13953,-0.11214,-0.0039513,0,0,-0.67238,-0.35601,0,-0.10273,0,0,0.11812,0.0015481,0,0.11813,-0.13891,-0.16449,-0.11214,-81.005,-0.13851,0.045338,1.8568e-07,0.78,0.24,0
0.12686,0.055419,0.18744,-0.16526,-0.13385,-0.10848,-0.0058827,0,0,-0.73816,-0.32986,0,-0.15295,0,0,0.1205,0.0049143,0,0.1206,-0.13278,-0.16632,-0.10848,-79.732,-0.13586,0.050309,-1.7798e-06,0.8,0.24,0
0.11141,0.05205,0.16306,-0.16739,-0.12803,-0.10493,-0.0077423,0,0,-0.81193,-0.3003,0,-0.2013,0,0,0.12382,0.0086377,0,0.12412,-0.12656,-0.16886,-0.10493,-79.262,-0.13345,0.056316,-4.8218e-06,0.82,0.24,0
0.094386,0.048718,0.13791,-0.17033,-0.12207,-0.10151,-0.0094464,0,0,-0.89467,-0.26723,0,-0.24561,0,0,0.12838,0.0127,0,0.12902,-0.12028,-0.17211,-0.10151,-79.311,-0.1313,0.063339,-9.2892e-06,0.84,0.24,0
0.075619,0.045478,0.11171,-0.17407,-0.11599,-0.098188,-0.010914,0,0,-0.98647,-0.23139,0,-0.28376,0,0,0.13459,0.016875,0,0.13567,-0.114,-0.17605,-0.098188,-79.702,-0.12942,0.071286,-1.5562e-05,0.86,0.24,0
0.054927,0.042293,0.084075,-0.17858,-0.10984,-0.094933,-0.012246,0,0,-1.0874,-0.19383,0,-0.31839,0,0,0.1426,0.020389,0,0.14412,-0.10773,-0.18069,-0.094933,-80.194,-0.12778,0.080132,-2.4172e-05,0.88,0.24,0
0.032125,0.038864,0.054665,-0.18451,-0.10331,-0.091811,-0.013525,0,0,-1.2051,-0.14944,0,-0.35165,0,0,0.1519,0.021526,0,0.15351,-0.10111,-0.1867,-0.091811,-80.788,-0.12654,0.090599,-3.684e-05,0.9,0.24,0
0.0067243,0.034867,0.023314,-0.18068,-0.13579,-0.10776,-0.013818,0,0,-0.6663,-0.066254,0,-0.19611,0,0,0.1802,0.10483,0,0.21943,-0.12709,-0.18938,-0.10776,-61.931,-0.14141,0.076666,-2.3329e-05,0.92,0.24,0
0.0054729,0.037265,0.019241,-0.21299,-0.26717,-0.16329,-0.01645,0,0,-0.064614,-0.13505,0,-0.042771,0,0,0.24102,0.16807,0,0.29597,-0.20839,-0.27178,-0.16329,-15.634,-0.21449,0.094395,-1.2396e-05,0.94,0.24,0
0.0041398,0.039035,0.013673,-0.22908,-0.28816,-0.16884,-0.022682,0,0,-0.078307,-0.15511,0,-0.058974,0,0,0.30391,0.12016,0,0.32706,-0.22138,-0.29586,-0.16884,-18.76,-0.2287,0.11055,-2.0397e-05,0.96,0.24,0
0.0023407,0.039886,0.0070848,-0.24426,-0.28095,-0.16465,-0.016517,0,0,-0.10349,-0.15119,0,-0.042944,0,0,0.34183,0.060415,0,0.34643,-0.23792,-0.28729,-0.16465,-20.999,-0.22995,0.10688,2.0684e-05,0.98,0.24,0
0,0.040096,0,-0.2433,-0.26762,-0.15328,0.0040427,0,0,-0.11703,-0.14865,0,0.010511,0,0,0.35424,2.0817e-17,0,0.35336,-0.24265,-0.26828,-0.15328,9.1954,-0.2214,0.10457,4.7045e-05,1,0.24,0
0,0.062561,1,-0.31282,-1.6093,-1.5766,-0.00192,0,0,1.643,-0.04245,0,-0.004992,0,0,0.25771,-2.6871e-15,0,0.25764,-0.31282,-1.6093,-1.5766,-0.084852,-1.1663,1.2805,0.10759,0,0.26,0
0.032859,0.062461,0.99485,-0.30522,-1.5964,-1.5653,0.0013283,0,0,1.6381,-0.040415,0,0.0034534,0,0,0.25315,-0.014217,0,0.25353,-0.30522,-1.5964,-1.5653,0.058939,-1.1557,1.2759,0.10648,0.02,0.26,0
0.065526,0.062171,0.98987,-0.30251,-1.581,-1.5549,0.002351,0,0,1.6281,-0.03391,0,0.0061125,0,0,0.23985,-0.027428,0,0.24152,-0.30251,-1.581,-1.5549,0.10536,-1.1462,1.2657,0.10398,0.04,0.26,0
0.097985,0.061709,0.98525,-0.29896,-1.5594,-1.5428,0.0031975,0,0,1.6169,-0.021637,0,0.0083135,0,0,0.21891,-0.038592,0,0.22261,-0.29896,-1.5594,-1.5428,0.14535,-1.1337,1.2522,0.10079,0.06,0.26,0
0.1302,0.061144,0.98112,-0.29467,-1.5316,-1.529,0.0053885,0,0,1.6046,-0.0033913,0,0.01401,0,0,0.19223,-0.046709,0,0.19837,-0.29464,-1.5316,-1.529,0.24959,-1.1184,1.2357,0.096902,0.08,0.26,0
0.16217,0.060637,0.97756,-0.26376,-0.87067,-0.87799,0.0090997,0,0,0.79246,0.017307,0,0.13767,0,0,0.16927,-0.02805,0,0.17321,-0.25823,-0.87619,-0.87799,24.427,-0.6708,0.61999,0.046954,0.1,0.26,0
0.1619,0.064757,0.9454,-0.24189,-0.24817,-0.24156,0.0097242,0,0,-0.0042899,-0.085957,0,0.25283,0,0,0.15924,-0.0070975,0,0.15941,-0.23481,-0.25525,-0.24156,36.05,-0.24387,0.018037,-1.654e-07,0.12,0.26,0
0.162,0.068081,0.91387,-0.23741,-0.25113,-0.23795,0.0085394,0,0,0.007058,-0.17141,0,0.22202,0,0,0.15625,-0.0086309,0,0.15649,-0.23331,-0.25522,-0.23795,25.604,-0.24216,0.020002,-3.3776e-07,0.14,0.26,0
0.16218,0.070508,0.8829,-0.23379,-0.25202,-0.23403,0.0071545,0,0,0.0031514,-0.23383,0,0.18602,0,0,0.15369,-0.0097152,0,0.154,-0.23132,-0.25449,-0.23403,19.065,-0.23995,0.021943,-5.1477e-07,0.16,0.26,0
0.16212,0.072078,0.85239,-0.23122,-0.25094,-0.22989,0.0059078,0,0,-0.017322,-0.2737,0,0.1536,0,0,0.15185,-0.010416,0,0.15221,-0.22959,-0.25257,-0.22989,15.464,-0.23735,0.02284,-6.1161e-07,0.18,0.26,0
0.16149,0.072916,0.82216,-0.22968,-0.2482,-0.22558,0.0049766,0,0,-0.053319,-0.29407,0,0.12939,0,0,0.15093,-0.010824,0,0.15132,-0.22843,-0.24946,-0.22558,14.128,-0.23449,0.022584,-5.6e-07,0.2,0.26,0
0.15999,0.073175,0.79202,-0.22911,-0.2441,-0.22116,0.004416,0,0,-0.10333,-0.29811,0,0.11482,0,0,0.15106,-0.011039,0,0.15146,-0.22791,-0.2453,-0.22116,15.259,-0.23146,0.02157,-3.507e-07,0.22,0.26,0
0.15736,0.073003,0.76174,-0.22945,-0.23877,-0.21664,0.0042191,0,0,-0.16648,-0.28773,0,0.1097,0,0,0.15226,-0.011161,0,0.15267,-0.22782,-0.2404,-0.21664,21.068,-0.22828,0.020588,-4.5531e-08,0.24,0.26,0
0.15333,0.072522,0.73111,-0.23067,-0.23223,-0.21198,0.0043644,0,0,-0.24293,-0.26326,0,0.11348,0,0,0.15447,-0.011298,0,0.15489,-0.22702,-0.23588,-0.21198,39.92,-0.22496,0.020929,2.0208e-07,0.26,0.26,0
0.14764,0.071826,0.69995,-0.23278,-0.22434,-0.20713,0.0048553,0,0,-0.33347,-0.22371,0,0.12624,0,0,0.15754,-0.011569,0,0.15797,-0.22213,-0.235,-0.20713,65.503,-0.22142,0.024154,9.5399e-08,0.28,0.26,0
0.13999,0.070999,0.6681,-0.23575,-0.21492,-0.20201,0.0057605,0,0,-0.43862,-0.16779,0,0.14977,0,0,0.16123,-0.012106,0,0.16169,-0.21343,-0.23724,-0.20201,75.528,-0.21756,0.031129,-8.7585e-07,0.3,0.26,0
0.1301,0.070139,0.63546,-0.23938,-0.20391,-0.19653,0.0072467,0,0,-0.55701,-0.095919,0,0.18841,0,0,0.16519,-0.013041,0,0.16572,-0.20249,-0.2408,-0.19653,78.887,-0.21327,0.041614,-3.447e-06,0.32,0.26,0
0.11771,0.069387,0.60202,-0.25161,-0.58848,-0.58314,0.016974,0,0,0.15236,-0.012627,0,0.1525,0,0,0.17732,-0.079679,0,0.2026,-0.22697,-0.61312,-0.58314,40.567,-0.47441,0.38334,0.0094506,0.34,0.26,0
0.13619,0.065103,0.59827,-0.27287,-1.0136,-0.98421,0.045462,0,0,0.92473,-0.038178,0,0.1182,0,0,0.20452,-0.14958,0,0.25396,-0.27009,-1.0164,-0.98421,3.4991,-0.75688,0.73072,0.019908,0.36,0.26,0
0.1547,0.062005,0.59384,-0.27495,-1.0356,-0.98699,0.072472,0,0,0.92566,-0.06314,0,0.18843,0,0,0.23529,-0.16017,0,0.28493,-0.26811,-1.0424,-0.98699,5.3945,-0.76584,0.74813,0.021109,0.38,0.26,0
0.17322,0.059555,0.58886,-0.2748,-1.0507,-0.98652,0.091745,0,0,0.92523,-0.083474,0,0.23854,0,0,0.25744,-0.17636,0,0.31208,-0.2641,-1.0614,-0.98652,6.6524,-0.77068,0.76264,0.022042,0.4,0.26,0
0.19171,0.057325,0.58354,-0.27104,-1.0597,-0.98276,0.10443,0,0,0.92525,-0.10003,0,0.27151,0,0,0.26737,-0.19765,0,0.33235,-0.25744,-1.0733,-0.98276,7.4162,-0.77117,0.77457,0.022772,0.42,0.26,0
0.21023,0.054868,0.57817,-0.26318,-1.0656,-0.97679,0.10794,0,0,0.92769,-0.11541,0,0.28065,0,0,0.26206,-0.22289,0,0.34392,-0.24891,-1.0798,-0.97679,7.5296,-0.76851,0.78449,0.02336,0.44,0.26,0
0.22882,0.051638,0.57306,-0.25239,-1.0665,-0.96872,0.0972,0,0,0.93123,-0.12708,0,0.25272,0,0,0.23987,-0.24882,0,0.34582,-0.24094,-1.0779,-0.96872,6.7152,-0.76253,0.78807,0.023518,0.46,0.26,0
0.24748,0.047045,0.56857,-0.24139,-1.0532,-0.95694,0.071908,0,0,0.93022,-0.1251,0,0.18696,0,0,0.2021,-0.26984,0,0.33784,-0.23507,-1.0595,-0.95694,5.0232,-0.7505,0.77823,0.022797,0.48,0.26,0
0.26603,0.04076,0.56498,-0.21007,-0.59476,-0.55219,0.045853,0,0,0.27335,-0.10062,0,0.55037,0,0,0.16563,-0.1536,0,0.24325,-0.18359,-0.62124,-0.55219,28.551,-0.45234,0.4151,0.010885,0.5,0.26,0
0.25841,0.050785,0.53467,-0.19619,-0.18777,-0.16866,0.033976,0,0,-0.35797,-0.24849,0,0.88337,0,0,0.14833,-0.029296,0,0.15124,-0.15774,-0.22622,-0.16866,48.532,-0.18421,0.063721,-1.1986e-05,0.52,0.26,0
0.25171,0.058189,0.50564,-0.18983,-0.19028,-0.1646,0.028001,0,0,-0.328,-0.33388,0,0.72803,0,0,0.14188,-0.028903,0,0.14483,-0.16205,-0.21805,-0.1646,44.768,-0.18157,0.054776,-8.3796e-06,0.54,0.26,0
0.24529,0.063076,0.47792,-0.1848,-0.18882,-0.15988,0.022601,0,0,-0.32398,-0.37624,0,0.58763,0,0,0.13569,-0.027125,0,0.1384,-0.16412,-0.2095,-0.15988,42.459,-0.17783,0.047643,-5.4062e-06,0.56,0.26,0
0.23875,0.065963,0.45137,-0.18083,-0.18572,-0.1551,0.01824,0,0,-0.33446,-0.39802,0,0.47424,0,0,0.13035,-0.02459,0,0.13266,-0.16487,-0.20168,-0.1551,41.183,-0.17388,0.042541,-3.262e-06,0.58,0.26,0
0.23191,0.067375,0.42578,-0.17745,-0.18193,-0.15039,0.014718,0,0,-0.35172,-0.41,0,0.38267,0,0,0.12606,-0.021829,0,0.12795,-0.1648,-0.19458,-0.15039,40.67,-0.16992,0.039029,-1.7101e-06,0.6,0.26,0
0.22468,0.067689,0.40094,-0.1745,-0.17778,-0.14578,0.01177,0,0,-0.37335,-0.41605,0,0.30603,0,0,0.12278,-0.019115,0,0.12427,-0.16426,-0.18802,-0.14578,41.029,-0.16602,0.036682,-5.4476e-07,0.62,0.26,0
0.21698,0.067172,0.37667,-0.17198,-0.17339,-0.14128,0.0092362,0,0,-0.39912,-0.41749,0,0.24014,0,0,0.12038,-0.016543,0,0.12151,-0.16342,-0.18195,-0.14128,42.813,-0.16222,0.035269,3.4552e-07,0.64,0.26,0
0.20872,0.066013,0.35279,-0.16992,-0.16881,-0.1369,0.007018,0,0,-0.42922,-0.4149,0,0.18247,0,0,0.11871,-0.014123,0,0.11955,-0.16232,-0.1764,-0.1369,47.244,-0.15854,0.03468,1.0139e-06,0.66,0.26,0
0.19981,0.064358,0.32918,-0.16831,-0.16406,-0.13263,0.0050465,0,0,-0.46386,-0.40856,0,0.13121,0,0,0.11768,-0.011825,0,0.11827,-0.16071,-0.17166,-0.13263,56.425,-0.155,0.034869,1.4752e-06,0.68,0.26,0
0.19016,0.062321,0.30572,-0.16717,-0.15913,-0.12846,0.003264,0,0,-0.5032,-0.39868,0,0.084863,0,0,0.11723,-0.0096052,0,0.11762,-0.15797,-0.16833,-0.12846,70.463,-0.15159,0.035828,1.7137e-06,0.7,0.26,0
0.17968,0.059995,0.28229,-0.1665,-0.15404,-0.12439,0.0016205,0,0,-0.54743,-0.38539,0,0.042133,0,0,0.11731,-0.0074136,0,0.11754,-0.15383,-0.16671,-0.12439,82.713,-0.14831,0.037571,1.6842e-06,0.72,0.26,0
0.16827,0.057454,0.2588,-0.16631,-0.14878,-0.12041,7.5871e-05,0,0,-0.59677,-0.36886,0,0.0019726,0,0,0.11793,-0.0051982,0,0.11804,-0.14878,-0.16631,-0.12041,89.752,-0.14517,0.040123,1.3118e-06,0.74,0.26,0
0.15581,0.054761,0.23512,-0.16663,-0.14338,-0.11651,-0.0013957,0,0,-0.65148,-0.34924,0,-0.036288,0,0,0.11914,-0.0029075,0,0.11917,-0.1433,-0.16671,-0.11651,-86.577,-0.14217,0.043504,4.898e-07,0.76,0.26,0
0.14221,0.051975,0.21114,-0.16746,-0.13784,-0.11271,-0.0027999,0,0,-0.71185,-0.32677,0,-0.072797,0,0,0.12099,-0.00049377,0,0.12099,-0.13758,-0.16773,-0.11271,-84.647,-0.13934,0.047722,-9.214e-07,0.78,0.26,0
0.12734,0.049153,0.18673,-0.16884,-0.13219,-0.10898,-0.0041164,0,0,-0.77817,-0.30172,0,-0.10703,0,0,0.1236,0.002077,0,0.12362,-0.13173,-0.1693,-0.10898,-83.67,-0.13667,0.052757,-3.0925e-06,0.8,0.26,0
0.11108,0.046355,0.1617,-0.17076,-0.12645,-0.10533,-0.0052997,0,0,-0.85054,-0.27454,0,-0.13779,0,0,0.12711,0.0048027,0,0.12721,-0.12583,-0.17139,-0.10533,-83.273,-0.13418,0.058559,-6.2172e-06,0.82,0.26,0
0.093315,0.04364,0.13588,-0.17318,-0.12066,-0.10174,-0.0062963,0,0,-0.92876,-0.24592,0,-0.1637,0,0,0.13168,0.0075965,0,0.13192,-0.11991,-0.17393,-0.10174,-83.259,-0.13186,0.065034,-1.0496e-05,0.84,0.26,0
0.07393,0.041041,0.10903,-0.17605,-0.11482,-0.098166,-0.0071,0,0,-1.0125,-0.21654,0,-0.1846,0,0,0.13739,0.010196,0,0.1378,-0.11401,-0.17687,-0.098166,-83.472,-0.12968,0.072096,-1.6157e-05,0.86,0.26,0
0.052814,0.038516,0.080926,-0.17944,-0.10885,-0.094578,-0.0077637,0,0,-1.1032,-0.18552,0,-0.20186,0,0,0.14408,0.012062,0,0.14462,-0.10801,-0.18028,-0.094578,-83.797,-0.12762,0.079839,-2.3665e-05,0.88,0.26,0
0.029804,0.035956,0.051401,-0.18326,-0.1019,-0.090688,-0.008232,0,0,-1.2034,-0.14577,0,-0.21403,0,0,0.15121,0.012522,0,0.15178,-0.10108,-0.18408,-0.090688,-84.28,-0.12528,0.088659,-3.4142e-05,0.9,0.26,0
0.0046769,0.033301,0.020441,-0.17962,-0.14636,-0.10904,-0.0060153,0,0,-0.65711,-0.088228,0,-0.1088,0,0,0.17178,0.060975,0,0.18796,-0.134,-0.19199,-0.10904,-47.29,-0.14501,0.07729,-1.876e-05,0.92,0.26,0
0.0035194,0.034576,0.016666,-0.19378,-0.25628,-0.15168,-0.0033519,0,0,-0.054723,-0.13597,0,-0.0087149,0,0,0.21633,0.099659,0,0.23979,-0.1936,-0.25646,-0.15168,-3.0611,-0.20058,0.091339,-1.3225e-05,0.94,0.26,0
0.0024879,0.035754,0.011788,-0.1988,-0.28592,-0.15721,-0.00491,0,0,-0.054073,-0.16734,0,-0.012766,0,0,0.26407,0.073465,0,0.27458,-0.19853,-0.2862,-0.15721,-3.2154,-0.21398,0.11409,-4.393e-05,0.96,0.26,0
0.0013564,0.036447,0.0061032,-0.20303,-0.2939,-0.15518,-0.0049782,0,0,-0.062198,-0.18033,0,-0.012943,0,0,0.2947,0.038492,0,0.29699,-0.20275,-0.29417,-0.15518,-3.1262,-0.21737,0.12235,-4.8399e-05,0.98,0.26,0
0,0.036658,0,-0.19685,-0.28542,-0.14468,0.0040542,0,0,-0.067822,-0.18296,0,0.010541,0,0,0.30516,8.6736e-18,0,0.30473,-0.19667,-0.2856,-0.14468,2.6155,-0.20898,0.12343,-4.2076e-05,1,0.26,0
0,0.061644,1,-0.30451,-1.61,-1.5744,-0.00097163,0,0,1.6508,-0.046367,0,-0.0025262,0,0,0.24817,-4.5249e-16,0,0.24815,-0.30451,-1.61,-1.5744,-0.042642,-1.163,1.288,0.10947,0,0.28,0
0.033016,0.061593,0.99504,-0.29762,-1.5973,-1.5635,-0.00045202,0,0,1.6457,-0.043893,0,-0.0011753,0,0,0.24394,-0.0051925,0,0.24402,-0.29762,-1.5973,-1.5635,-0.019928,-1.1528,1.2831,0.10824,0.02,0.28,0
0.065826,0.061454,0.99024,-0.2961,-1.5816,-1.5535,-0.00054938,0,0,1.6347,-0.036413,0,-0.0014284,0,0,0.23161,-0.010091,0,0.23197,-0.2961,-1.5816,-1.5535,-0.024487,-1.1437,1.2717,0.10545,0.04,0.28,0
0.098403,0.061253,0.98577,-0.29405,-1.5602,-1.542,6.3045e-05,0,0,1.6224,-0.023581,0,0.00016392,0,0,0.21227,-0.014418,0,0.21307,-0.29405,-1.5602,-1.542,0.002853,-1.1321,1.2572,0.10197,0.06,0.28,0
0.13072,0.061045,0.98175,-0.29109,-1.5342,-1.5293,0.0019475,0,0,1.6097,-0.0063474,0,0.0050634,0,0,0.1877,-0.017934,0,0.18906,-0.29109,-1.5342,-1.5293,0.089758,-1.1182,1.2407,0.098087,0.08,0.28,0
0.16279,0.060907,0.97826,-0.26198,-0.87416,-0.87889,0.0044704,0,0,0.80395,0.011181,0,0.068393,0,0,0.16661,-0.011257,0,0.16751,-0.25941,-0.87672,-0.87889,23.367,-0.67167,0.61883,0.047688,0.1,0.28,0
0.16288,0.063079,0.94649,-0.24001,-0.24741,-0.24088,0.0049898,0,0,0.011233,-0.084927,0,0.12973,0,0,0.15742,-0.0039951,0,0.15748,-0.2375,-0.24992,-0.24088,26.727,-0.24277,0.011125,-4.9372e-08,0.12,0.28,0
0.16324,0.064754,0.91529,-0.23585,-0.25017,-0.23733,0.0046037,0,0,0.019295,-0.16681,0,0.1197,0,0,0.15471,-0.0058162,0,0.15483,-0.2345,-0.25152,-0.23733,16.374,-0.24112,0.015795,-1.8057e-07,0.14,0.28,0
0.16365,0.065941,0.88461,-0.23242,-0.25113,-0.23353,0.0042596,0,0,0.014344,-0.22887,0,0.11075,0,0,0.15243,-0.0075001,0,0.15262,-0.2315,-0.25206,-0.23353,12.241,-0.23903,0.019622,-3.7409e-07,0.16,0.28,0
0.16381,0.066692,0.85432,-0.22992,-0.2503,-0.2295,0.00406,0,0,-0.0054925,-0.27044,0,0.10556,0,0,0.15082,-0.0090468,0,0.15109,-0.22914,-0.25108,-0.2295,10.862,-0.23658,0.021763,-5.2889e-07,0.18,0.28,0
0.16343,0.067088,0.82428,-0.22836,-0.24789,-0.2253,0.0040834,0,0,-0.039757,-0.2936,0,0.10617,0,0,0.15009,-0.010463,0,0.15045,-0.22754,-0.24871,-0.2253,11.348,-0.23385,0.022369,-5.5547e-07,0.2,0.28,0
0.16223,0.067229,0.79429,-0.22768,-0.24412,-0.22097,0.0043876,0,0,-0.087253,-0.30096,0,0.11408,0,0,0.15034,-0.011758,0,0.1508,-0.22658,-0.24522,-0.22097,14.046,-0.23092,0.021986,-4.282e-07,0.22,0.28,0
0.15994,0.067226,0.76414,-0.22783,-0.23914,-0.21651,0.005016,0,0,-0.14718,-0.29428,0,0.13042,0,0,0.1516,-0.012946,0,0.15216,-0.22592,-0.24105,-0.21651,20.779,-0.22782,0.021443,-1.973e-07,0.24,0.28,0
0.15634,0.067193,0.73365,-0.22877,-0.23295,-0.21188,0.0059995,0,0,-0.21955,-0.27387,0,0.15599,0,0,0.15382,-0.01404,0,0.15446,-0.2245,-0.23721,-0.21188,35.399,-0.22453,0.021937,-2.9942e-09,0.26,0.28,0
0.15116,0.067241,0.70262,-0.23048,-0.22541,-0.20703,0.007353,0,0,-0.30492,-0.23891,0,0.19118,0,0,0.15681,-0.015064,0,0.15754,-0.22017,-0.23572,-0.20703,54.523,-0.22097,0.02488,-1.1505e-07,0.28,0.28,0
0.14414,0.067469,0.67092,-0.23291,-0.21638,-0.20188,0.0090717,0,0,-0.40336,-0.18854,0,0.23586,0,0,0.16034,-0.016051,0,0.16115,-0.21237,-0.23691,-0.20188,66.164,-0.21706,0.031144,-9.7844e-07,0.3,0.28,0
0.13503,0.067952,0.63848,-0.23583,-0.20588,-0.19636,0.01113,0,0,-0.51306,-0.12372,0,0.28939,0,0,0.16405,-0.017049,0,0.16495,-0.20219,-0.23951,-0.19636,71.689,-0.21269,0.040549,-3.1867e-06,0.32,0.28,0
0.12362,0.068735,0.6053,-0.24848,-0.61187,-0.59102,0.020132,0,0,0.18865,-0.049278,0,0.20671,0,0,0.175,-0.099687,0,0.21277,-0.22598,-0.63436,-0.59102,37.67,-0.48379,0.399,0.010737,0.34,0.28,0
0.14257,0.064065,0.60162,-0.26484,-1.0434,-0.9941,0.046576,0,0,0.94804,-0.064123,0,0.1211,0,0,0.19927,-0.18321,0,0.27114,-0.26206,-1.0462,-0.9941,3.4113,-0.76745,0.75943,0.022138,0.36,0.28,0
0.16154,0.060526,0.59733,-0.26326,-1.0574,-0.99352,0.072364,0,0,0.94934,-0.083013,0,0.18815,0,0,0.22628,-0.18693,0,0.29375,-0.25672,-1.0639,-0.99352,5.1644,-0.77139,0.7744,0.023188,0.38,0.28,0
0.18055,0.057696,0.59257,-0.25921,-1.0666,-0.99032,0.090201,0,0,0.95044,-0.099205,0,0.23452,0,0,0.24486,-0.19258,0,0.31157,-0.24926,-1.0766,-0.99032,6.2974,-0.77206,0.78775,0.024094,0.4,0.28,0
0.19956,0.055172,0.58754,-0.25369,-1.0691,-0.98437,0.099769,0,0,0.94988,-0.11013,0,0.2594,0,0,0.2519,-0.20023,0,0.32176,-0.24166,-1.0811,-0.98437,6.8754,-0.76904,0.79551,0.024571,0.42,0.28,0
0.21854,0.05252,0.58249,-0.24727,-1.0637,-0.97578,0.099159,0,0,0.94706,-0.11428,0,0.25782,0,0,0.2454,-0.20944,0,0.32266,-0.2354,-1.0756,-0.97578,6.8268,-0.76224,0.79497,0.024439,0.44,0.28,0
0.23744,0.049253,0.57772,-0.24089,-1.0483,-0.96448,0.086482,0,0,0.94067,-0.10899,0,0.22485,0,0,0.22501,-0.21888,0,0.31418,-0.23173,-1.0575,-0.96448,6.0454,-0.75123,0.7834,0.023524,0.46,0.28,0
0.25617,0.044892,0.57349,-0.23433,-1.0201,-0.94981,0.062273,0,0,0.93012,-0.091333,0,0.16191,0,0,0.19271,-0.22631,0,0.29784,-0.22943,-1.025,-0.94981,4.5035,-0.73474,0.76075,0.02187,0.48,0.28,0
0.27464,0.039099,0.57001,-0.20924,-0.57677,-0.54931,0.038048,0,0,0.26336,-0.064904,0,0.4496,0,0,0.1624,-0.12621,0,0.22042,-0.18516,-0.60084,-0.54931,30.002,-0.4451,0.4002,0.010276,0.5,0.28,0
0.2667,0.046492,0.53985,-0.19695,-0.18208,-0.1677,0.027482,0,0,-0.38032,-0.18705,0,0.71452,0,0,0.14817,-0.023121,0,0.14999,-0.16105,-0.21799,-0.1677,52.568,-0.18224,0.053923,-7.6418e-06,0.52,0.28,0
0.25943,0.052195,0.51074,-0.19138,-0.18475,-0.16391,0.022955,0,0,-0.35705,-0.27091,0,0.59683,0,0,0.14275,-0.022599,0,0.14456,-0.16487,-0.21126,-0.16391,49.106,-0.18002,0.046873,-5.2817e-06,0.54,0.28,0
0.25242,0.056121,0.48275,-0.1867,-0.18437,-0.15959,0.018557,0,0,-0.35234,-0.32205,0,0.48248,0,0,0.13734,-0.021452,0,0.13903,-0.16694,-0.20413,-0.15959,46.796,-0.17689,0.041351,-3.2487e-06,0.56,0.28,0
0.24534,0.058488,0.45581,-0.18282,-0.18215,-0.15507,0.014793,0,0,-0.36077,-0.35198,0,0.38462,0,0,0.13243,-0.019889,0,0.13393,-0.16769,-0.19728,-0.15507,45.654,-0.17335,0.037528,-1.7164e-06,0.58,0.28,0
0.23799,0.059606,0.42978,-0.17954,-0.17898,-0.15054,0.011707,0,0,-0.37712,-0.36978,0,0.30438,0,0,0.12829,-0.018128,0,0.12957,-0.16755,-0.19097,-0.15054,45.691,-0.16969,0.035166,-6.0332e-07,0.6,0.28,0
0.23025,0.059761,0.40449,-0.17671,-0.1753,-0.14605,0.0091779,0,0,-0.39858,-0.38017,0,0.23863,0,0,0.12499,-0.016317,0,0.12606,-0.1668,-0.18521,-0.14605,47.206,-0.16602,0.033931,2.069e-07,0.62,0.28,0
0.22204,0.059181,0.37978,-0.17428,-0.17127,-0.14164,0.0070789,0,0,-0.42431,-0.38515,0,0.18405,0,0,0.12251,-0.014527,0,0.12337,-0.16554,-0.18002,-0.14164,51.007,-0.1624,0.033562,7.9605e-07,0.64,0.28,0
0.21328,0.058045,0.35549,-0.17228,-0.16698,-0.13733,0.0053116,0,0,-0.45438,-0.38548,0,0.1381,0,0,0.12076,-0.012783,0,0.12143,-0.16369,-0.17556,-0.13733,58.257,-0.15886,0.033899,1.205e-06,0.66,0.28,0
0.20387,0.056493,0.33148,-0.17072,-0.16244,-0.1331,0.0038012,0,0,-0.48907,-0.38152,0,0.098833,0,0,0.11966,-0.011084,0,0.12017,-0.16096,-0.1722,-0.1331,68.709,-0.15542,0.034869,1.4397e-06,0.68,0.28,0
0.19372,0.054636,0.30762,-0.16962,-0.15768,-0.12895,0.0024874,0,0,-0.52867,-0.37348,0,0.064672,0,0,0.11917,-0.0094161,0,0.11954,-0.15718,-0.17012,-0.12895,78.689,-0.15208,0.036461,1.4749e-06,0.7,0.28,0
0.18272,0.052562,0.28381,-0.169,-0.15271,-0.12489,0.0013211,0,0,-0.5734,-0.36156,0,0.03435,0,0,0.11925,-0.0077627,0,0.1195,-0.1526,-0.16911,-0.12489,85.395,-0.14887,0.038698,1.2558e-06,0.72,0.28,0
0.17078,0.050342,0.25992,-0.16887,-0.14753,-0.12091,0.00026498,0,0,-0.62343,-0.34605,0,0.0068895,0,0,0.1199,-0.0061045,0,0.12006,-0.14753,-0.16887,-0.12091,89.289,-0.14577,0.041618,6.9973e-07,0.74,0.28,0
0.15779,0.048034,0.23585,-0.16923,-0.14219,-0.11701,-0.00070523,0,0,-0.67884,-0.32731,0,-0.018336,0,0,0.12117,-0.0044226,0,0.12125,-0.14217,-0.16925,-0.11701,-88.507,-0.14281,0.045249,-3.0247e-07,0.76,0.28,0
0.14363,0.045688,0.21146,-0.17007,-0.1367,-0.11318,-0.0015977,0,0,-0.73961,-0.30584,0,-0.04154,0,0,0.12311,-0.0027021,0,0.12314,-0.13663,-0.17015,-0.11318,-87.265,-0.13998,0.049593,-1.8817e-06,0.78,0.28,0
0.1282,0.043351,0.18661,-0.17138,-0.13113,-0.10941,-0.0024033,0,0,-0.80554,-0.28233,0,-0.062487,0,0,0.1258,-0.00093867,0,0.12581,-0.13099,-0.17152,-0.10941,-86.595,-0.13731,0.054615,-4.1815e-06,0.8,0.28,0
0.11141,0.041068,0.16114,-0.1731,-0.12552,-0.1057,-0.0030998,0,0,-0.87623,-0.25762,0,-0.080594,0,0,0.12934,0.00084786,0,0.12935,-0.12532,-0.1733,-0.1057,-86.289,-0.13477,0.06024,-7.3452e-06,0.82,0.28,0
0.093153,0.038882,0.13487,-0.17518,-0.1199,-0.10201,-0.0036669,0,0,-0.9512,-0.23253,0,-0.09534,0,0,0.13377,0.0025873,0,0.13382,-0.11965,-0.17542,-0.10201,-86.222,-0.13236,0.066372,-1.1515e-05,0.84,0.28,0
0.073359,0.036816,0.10763,-0.17756,-0.11424,-0.098305,-0.0041054,0,0,-1.0304,-0.20718,0,-0.10674,0,0,0.13905,0.0041268,0,0.13914,-0.11398,-0.17783,-0.098305,-86.306,-0.13004,0.072962,-1.6888e-05,0.86,0.28,0
0.051937,0.034872,0.079251,-0.18021,-0.1083,-0.094477,-0.0044223,0,0,-1.1145,-0.17968,0,-0.11498,0,0,0.14493,0.0052288,0,0.14506,-0.10803,-0.18048,-0.094477,-86.494,-0.12766,0.080091,-2.386e-05,0.88,0.28,0
0.028778,0.033033,0.049656,-0.183,-0.10157,-0.090339,-0.0045117,0,0,-1.2046,-0.14606,0,-0.1173,0,0,0.15093,0.0056334,0,0.15106,-0.10132,-0.18325,-0.090339,-86.838,-0.12497,0.087936,-3.3094e-05,0.9,0.28,0
0.003752,0.031338,0.01888,-0.1793,-0.15411,-0.11041,-0.0030396,0,0,-0.65266,-0.1033,0,-0.059015,0,0,0.16756,0.028535,0,0.17208,-0.135,-0.19841,-0.11041,-44.876,-0.14794,0.080874,-1.9456e-05,0.92,0.28,0
0.0026721,0.031826,0.015255,-0.18528,-0.25365,-0.14693,-0.00062899,0,0,-0.049854,-0.13873,0,-0.0016354,0,0,0.20362,0.04702,0,0.21027,-0.18528,-0.25365,-0.14693,-0.5271,-0.19529,0.093632,-1.9588e-05,0.94,0.28,0
0.0017579,0.032341,0.010735,-0.18496,-0.28339,-0.15124,-0.00076733,0,0,-0.043839,-0.17179,0,-0.0019951,0,0,0.24275,0.035202,0,0.24582,-0.18495,-0.28339,-0.15124,-0.44665,-0.20653,0.11893,-6.357e-05,0.96,0.28,0
0.00091854,0.032672,0.0055451,-0.18367,-0.2974,-0.14986,-0.0011819,0,0,-0.043948,-0.19179,0,-0.003073,0,0,0.26837,0.018698,0,0.26906,-0.18366,-0.29741,-0.14986,-0.59538,-0.21031,0.13388,-9.7287e-05,0.98,0.28,0
0,0.032778,0,-0.17608,-0.29308,-0.14075,0.0020245,0,0,-0.045927,-0.19803,0,0.0052637,0,0,0.27726,0,0,0.27713,-0.17604,-0.29312,-0.14075,0.99097,-0.2033,0.13815,-0.00010619,1,0.28,0
0,0.060706,1,-0.30463,-1.6086,-1.574,-1.6727e-05,0,0,1.6501,-0.04498,0,-4.3491e-05,0,0,0.24733,5.2421e-16,0,0.24732,-0.30463,-1.6086,-1.574,-0.00073501,-1.1624,1.287,0.10921,0,0.3,0
0.033002,0.060705,0.99505,-0.29763,-1.5961,-1.5632,-0.0018318,0,0,1.6452,-0.04285,0,-0.0047627,0,0,0.24306,0.0035343,0,0.24312,-0.29763,-1.5961,-1.5632,-0.080826,-1.1523,1.2824,0.10806,0.02,0.3,0
0.065809,0.060714,0.99028,-0.29577,-1.5814,-1.5534,-0.0028097,0,0,1.6349,-0.036326,0,-0.0073052,0,0,0.23062,0.0066621,0,0.23087,-0.29577,-1.5814,-1.5534,-0.12522,-1.1435,1.2719,0.1055,0.04,0.3,0
0.0984,0.060766,0.98583,-0.29328,-1.5613,-1.5422,-0.0024383,0,0,1.6236,-0.024815,0,-0.0063395,0,0,0.21107,0.0089226,0,0.21158,-0.29328,-1.5613,-1.5422,-0.11017,-1.1322,1.2586,0.10231,0.06,0.3,0
0.13075,0.060891,0.98184,-0.28994,-1.5366,-1.5298,-0.0010519,0,0,1.6118,-0.0088107,0,-0.002735,0,0,0.18618,0.0098254,0,0.18696,-0.28994,-1.5366,-1.5298,-0.048348,-1.1188,1.2432,0.098686,0.08,0.3,0
0.16287,0.061084,0.97838,-0.26053,-0.8755,-0.87892,0.00010435,0,0,0.8123,0.008083,0,0.0021729,0,0,0.16479,0.004932,0,0.16523,-0.26051,-0.87551,-0.87892,5.4482,-0.67165,0.61676,0.048046,0.1,0.3,0
0.16325,0.06136,0.947,-0.23839,-0.24732,-0.24041,0.00043607,0,0,0.026322,-0.089841,0,0.011338,0,0,0.15547,-0.0010243,0,0.15548,-0.23837,-0.24735,-0.24041,2.7873,-0.24204,0.00815,-2.2008e-08,0.12,0.3,0
0.16392,0.061408,0.91619,-0.23421,-0.25026,-0.23696,0.00078942,0,0,0.035775,-0.17289,0,0.020525,0,0,0.15274,-0.0031423,0,0.15278,-0.23417,-0.2503,-0.23696,2.8089,-0.24047,0.01493,-1.51e-07,0.14,0.3,0
0.16468,0.061353,0.8859,-0.23078,-0.25136,-0.23323,0.0014261,0,0,0.031885,-0.23566,0,0.037078,0,0,0.15046,-0.0054244,0,0.15056,-0.23068,-0.25146,-0.23323,3.9451,-0.23846,0.019626,-3.6623e-07,0.16,0.3,0
0.1652,0.06126,0.85601,-0.22827,-0.25067,-0.22928,0.002216,0,0,0.01315,-0.278,0,0.057615,0,0,0.14889,-0.0078095,0,0.14909,-0.22805,-0.25088,-0.22928,5.5968,-0.23607,0.022241,-5.5926e-07,0.18,0.3,0
0.1652,0.061172,0.82634,-0.22667,-0.24844,-0.22517,0.0031327,0,0,-0.019562,-0.30251,0,0.08145,0,0,0.14822,-0.010223,0,0.14857,-0.22623,-0.24888,-0.22517,8.0295,-0.23343,0.023199,-6.3672e-07,0.2,0.3,0
0.16442,0.061137,0.79672,-0.2259,-0.24493,-0.22092,0.0042315,0,0,-0.064761,-0.31213,0,0.11002,0,0,0.14858,-0.012587,0,0.14911,-0.22501,-0.24583,-0.22092,11.989,-0.23059,0.023139,-5.7009e-07,0.22,0.3,0
0.16261,0.061232,0.76692,-0.2259,-0.24029,-0.21655,0.0056065,0,0,-0.12153,-0.30868,0,0.14577,0,0,0.14997,-0.014825,0,0.15071,-0.22397,-0.24222,-0.21655,18.957,-0.22758,0.022881,-4.0405e-07,0.24,0.3,0
0.15956,0.061567,0.73673,-0.22662,-0.23449,-0.21201,0.0073445,0,0,-0.18997,-0.29231,0,0.19096,0,0,0.15235,-0.016857,0,0.15328,-0.22222,-0.23889,-0.21201,30.906,-0.22437,0.023502,-2.6755e-07,0.26,0.3,0
0.15501,0.062269,0.70598,-0.22807,-0.22735,-0.20722,0.0094761,0,0,-0.27097,-0.26168,0,0.24638,0,0,0.15553,-0.018602,0,0.15665,-0.21823,-0.23719,-0.20722,46.08,-0.22088,0.026258,-4.0996e-07,0.28,0.3,0
0.14872,0.063458,0.67452,-0.23019,-0.21865,-0.2021,0.011923,0,0,-0.36516,-0.21507,0,0.30999,0,0,0.15924,-0.01999,0,0.1605,-0.21117,-0.23767,-0.2021,57.917,-0.21698,0.032007,-1.2393e-06,0.3,0.3,0
0.14041,0.06519,0.64228,-0.2328,-0.20828,-0.19655,0.014462,0,0,-0.47121,-0.15249,0,0.37602,0,0,0.16312,-0.020984,0,0.16447,-0.20158,-0.2395,-0.19655,65.143,-0.21255,0.040666,-3.2766e-06,0.32,0.3,0
0.12987,0.067416,0.60927,-0.246,-0.63145,-0.59834,0.022266,0,0,0.22095,-0.078283,0,0.25056,0,0,0.17428,-0.11883,0,0.22508,-0.22496,-0.6525,-0.59834,35.08,-0.49193,0.413,0.011865,0.34,0.3,0
0.14924,0.062538,0.6056,-0.2605,-1.0717,-1.0053,0.045413,0,0,0.9682,-0.086415,0,0.11807,0,0,0.19884,-0.21512,0,0.29335,-0.25797,-1.0743,-1.0053,3.194,-0.77918,0.78409,0.024113,0.36,0.3,0
0.1686,0.058684,0.60132,-0.25795,-1.0788,-1.0023,0.069144,0,0,0.96771,-0.099395,0,0.17977,0,0,0.22593,-0.21172,0,0.30985,-0.25217,-1.0846,-1.0023,4.7814,-0.7797,0.79449,0.024829,0.38,0.3,0
0.18795,0.055587,0.59656,-0.25313,-1.0808,-0.99673,0.085942,0,0,0.96668,-0.10923,0,0.22345,0,0,0.24413,-0.20666,0,0.31991,-0.2443,-1.0896,-0.99673,5.8663,-0.77687,0.80289,0.025388,0.4,0.3,0
0.20726,0.05292,0.59155,-0.2477,-1.0745,-0.98821,0.09436,0,0,0.96267,-0.11219,0,0.24534,0,0,0.25051,-0.20091,0,0.3211,-0.23706,-1.0851,-0.98821,6.4288,-0.77014,0.80401,0.02539,0.42,0.3,0
0.22646,0.050297,0.58654,-0.24262,-1.0583,-0.97681,0.093058,0,0,0.95444,-0.10589,0,0.24195,0,0,0.24342,-0.19539,0,0.3122,-0.23214,-1.0687,-0.97681,6.427,-0.75923,0.79463,0.024611,0.44,0.3,0
0.24544,0.047279,0.58181,-0.23833,-1.0301,-0.96234,0.080928,0,0,0.94121,-0.088068,0,0.21041,0,0,0.22301,-0.19078,0,0.29379,-0.23014,-1.0383,-0.96234,5.7768,-0.74358,0.77296,0.022949,0.46,0.3,0
0.26411,0.043392,0.57762,-0.23382,-0.99008,-0.94479,0.057478,0,0,0.92427,-0.058876,0,0.14944,0,0,0.19151,-0.18754,0,0.26868,-0.22948,-0.99443,-0.94479,4.3215,-0.7229,0.74138,0.020613,0.48,0.3,0
0.28241,0.038164,0.57415,-0.21032,-0.55691,-0.54595,0.032156,0,0,0.24468,-0.025893,0,0.36406,0,0,0.16229,-0.10222,0,0.20346,-0.18727,-0.57996,-0.54595,32.263,-0.43773,0.38495,0.0094559,0.5,0.3,0
0.27389,0.043303,0.54392,-0.19916,-0.1779,-0.16751,0.02158,0,0,-0.41146,-0.13509,0,0.56107,0,0,0.14868,-0.017743,0,0.14976,-0.16448,-0.21259,-0.16751,58.112,-0.18153,0.046668,-5.1458e-06,0.52,0.3,0
0.26595,0.047353,0.51468,-0.19372,-0.18046,-0.16372,0.017992,0,0,-0.38995,-0.21764,0,0.46778,0,0,0.14355,-0.016968,0,0.14457,-0.16792,-0.20627,-0.16372,55.111,-0.1793,0.040608,-3.3157e-06,0.54,0.3,0
0.2583,0.050194,0.4865,-0.18895,-0.1806,-0.15951,0.01446,0,0,-0.38259,-0.27417,0,0.37597,0,0,0.1384,-0.016187,0,0.13936,-0.16972,-0.19982,-0.15951,53.043,-0.17636,0.036298,-1.8168e-06,0.56,0.3,0
0.25065,0.051884,0.45932,-0.18489,-0.17905,-0.15512,0.011324,0,0,-0.38705,-0.31121,0,0.29443,0,0,0.13367,-0.015353,0,0.13457,-0.17028,-0.19367,-0.15512,52.222,-0.17302,0.033638,-7.0276e-07,0.58,0.3,0
0.24282,0.052583,0.43303,-0.18144,-0.17647,-0.15068,0.0087095,0,0,-0.39995,-0.33531,0,0.22645,0,0,0.12963,-0.01445,0,0.13045,-0.1699,-0.18801,-0.15068,52.965,-0.16953,0.032339,8.9172e-08,0.6,0.3,0
0.23465,0.052483,0.40747,-0.1785,-0.17326,-0.14627,0.0066038,0,0,-0.41897,-0.35077,0,0.1717,0,0,0.12638,-0.013481,0,0.12711,-0.16878,-0.18299,-0.14627,55.832,-0.16601,0.032061,6.4172e-07,0.62,0.3,0
0.22606,0.051766,0.38248,-0.17602,-0.16961,-0.14194,0.0049347,0,0,-0.44308,-0.35974,0,0.1283,0,0,0.12391,-0.012458,0,0.12454,-0.16693,-0.1787,-0.14194,61.504,-0.16252,0.032516,1.0178e-06,0.64,0.3,0
0.21693,0.050593,0.35791,-0.17399,-0.16561,-0.13767,0.0036175,0,0,-0.47212,-0.36323,0,0.094054,0,0,0.12215,-0.011396,0,0.12269,-0.16426,-0.17533,-0.13767,69.591,-0.15909,0.033528,1.2485e-06,0.66,0.3,0
0.20717,0.049097,0.33362,-0.17242,-0.1613,-0.13348,0.0025741,0,0,-0.50621,-0.36173,0,0.066928,0,0,0.12105,-0.010309,0,0.12149,-0.16073,-0.17298,-0.13348,77.573,-0.15573,0.035027,1.3318e-06,0.68,0.3,0
0.19668,0.047382,0.30949,-0.17133,-0.15671,-0.12936,0.0017393,0,0,-0.54555,-0.35557,0,0.045221,0,0,0.12055,-0.0092122,0,0.1209,-0.15651,-0.17153,-0.12936,83.305,-0.15246,0.03702,1.2345e-06,0.7,0.3,0
0.18535,0.045533,0.2854,-0.17072,-0.15186,-0.12531,0.0010603,0,0,-0.59027,-0.3451,0,0.027567,0,0,0.12062,-0.0081169,0,0.12089,-0.1518,-0.17078,-0.12531,86.792,-0.1493,0.039552,8.9416e-07,0.72,0.3,0
0.17307,0.043612,0.26124,-0.1706,-0.14678,-0.12134,0.00049632,0,0,-0.64044,-0.33071,0,0.012904,0,0,0.12127,-0.0070352,0,0.12148,-0.14677,-0.17061,-0.12134,88.807,-0.14624,0.042681,2.2211e-07,0.74,0.3,0
0.15973,0.041668,0.23689,-0.17097,-0.1415,-0.11743,1.7549e-05,0,0,-0.69604,-0.31291,0,0.00045629,0,0,0.12254,-0.0059789,0,0.12268,-0.1415,-0.17097,-0.11743,89.966,-0.1433,0.046447,-8.9355e-07,0.76,0.3,0
0.14523,0.039741,0.21222,-0.17181,-0.13608,-0.11359,-0.00039613,0,0,-0.75687,-0.29237,0,-0.010299,0,0,0.12447,-0.0049603,0,0.12457,-0.13608,-0.17181,-0.11359,-89.365,-0.14049,0.050858,-2.5813e-06,0.78,0.3,0
0.12946,0.037859,0.1871,-0.17308,-0.13057,-0.1098,-0.00075604,0,0,-0.82258,-0.26995,0,-0.019657,0,0,0.12715,-0.0039924,0,0.12722,-0.13056,-0.17309,-0.1098,-88.981,-0.13782,0.055881,-4.9755e-06,0.8,0.3,0
0.11232,0.03605,0.16136,-0.17473,-0.12504,-0.10607,-0.0010656,0,0,-0.89259,-0.24664,0,-0.027706,0,0,0.13064,-0.0030884,0,0.13069,-0.12501,-0.17475,-0.10607,-88.772,-0.13528,0.061441,-8.204e-06,0.82,0.3,0
0.093754,0.034339,0.13485,-0.17668,-0.11952,-0.10235,-0.0013209,0,0,-0.9664,-0.22326,0,-0.034344,0,0,0.13496,-0.0022612,0,0.135,-0.11949,-0.17671,-0.10235,-88.677,-0.13285,0.067451,-1.2395e-05,0.84,0.3,0
0.073669,0.032753,0.10738,-0.17889,-0.11396,-0.098593,-0.0015092,0,0,-1.0439,-0.19974,0,-0.03924,0,0,0.14003,-0.0015212,0,0.14006,-0.11392,-0.17893,-0.098593,-88.669,-0.13048,0.073872,-1.7737e-05,0.86,0.3,0
0.051998,0.031329,0.078835,-0.18129,-0.10811,-0.094704,-0.0016067,0,0,-1.1256,-0.17432,0,-0.041774,0,0,0.14558,-0.00087333,0,0.14561,-0.10808,-0.18132,-0.094704,-88.743,-0.12804,0.080768,-2.4578e-05,0.88,0.3,0
0.028645,0.030113,0.049148,-0.18373,-0.10158,-0.090508,-0.001576,0,0,-1.2119,-0.14399,0,-0.040977,0,0,0.15117,-0.00031454,0,0.1512,-0.10155,-0.18376,-0.090508,-88.901,-0.12527,0.088247,-3.3438e-05,0.9,0.3,0
0.0035238,0.02917,0.018366,-0.18002,-0.15656,-0.11107,-0.0016977,0,0,-0.65486,-0.10751,0,-0.024415,0,0,0.16647,0.00092274,0,0.16729,-0.13579,-0.20079,-0.11107,-45.609,-0.14922,0.082245,-2.006e-05,0.92,0.3,0
0.0024509,0.029027,0.014785,-0.18351,-0.25311,-0.14577,-0.0022675,0,0,-0.049059,-0.13955,0,-0.0058954,0,0,0.19965,0.0018584,0,0.20084,-0.18344,-0.25319,-0.14577,-1.8639,-0.19413,0.094398,-2.118e-05,0.94,0.3,0
0.0015614,0.028882,0.01038,-0.18147,-0.28281,-0.14966,-0.0022476,0,0,-0.041348,-0.17309,0,-0.0058436,0,0,0.23575,0.00155,0,0.23629,-0.18142,-0.28286,-0.14966,-1.2699,-0.20465,0.1205,-6.9256e-05,0.96,0.3,0
0.00079702,0.028776,0.0053553,-0.17861,-0.29882,-0.14859,-0.0013644,0,0,-0.039036,-0.19531,0,-0.0035475,0,0,0.2595,0.00087383,0,0.25962,-0.1786,-0.29884,-0.14859,-0.65022,-0.20867,0.13772,-0.00011298,0.98,0.3,0
0,0.028737,0,-0.17055,-0.29577,-0.13989,-0.00074955,0,0,-0.039851,-0.20263,0,-0.0019488,0,0,0.26777,1.7347e-18,0,0.26774,-0.17055,-0.29577,-0.13989,-0.34296,-0.20207,0.14304,-0.00012735,1,0.3,0
0,0.059845,1,-0.31314,-1.6047,-1.5753,0.00066722,0,0,1.6409,-0.038131,0,0.0017348,0,0,0.25524,-1.8535e-15,0,0.25518,-0.31314,-1.6047,-1.5753,0.0296,-1.1644,1.2771,0.1068,0,0.32,0
0.032817,0.059879,0.99489,-0.30522,-1.5929,-1.5643,-0.0040907,0,0,1.6368,-0.037089,0,-0.010636,0,0,0.2506,0.012638,0,0.25091,-0.30521,-1.5929,-1.5643,-0.18202,-1.1541,1.2736,0.10593,0.02,0.32,0
0.065473,0.06,0.98998,-0.30151,-1.5802,-1.5545,-0.0066181,0,0,1.6289,-0.033461,0,-0.017207,0,0,0.237,0.024258,0,0.23837,-0.30148,-1.5803,-1.5545,-0.29653,-1.1454,1.2661,0.10409,0.04,0.32,0
0.097973,0.060261,0.98542,-0.29666,-1.5627,-1.5432,-0.0066553,0,0,1.6205,-0.025317,0,-0.017304,0,0,0.21544,0.033645,0,0.21841,-0.29663,-1.5627,-1.5432,-0.30118,-1.1342,1.2565,0.10179,0.06,0.32,0
0.13029,0.060693,0.98136,-0.29123,-1.5389,-1.5304,-0.0053155,0,0,1.6109,-0.011044,0,-0.01382,0,0,0.18775,0.039433,0,0.19247,-0.2912,-1.5389,-1.5304,-0.2441,-1.1202,1.2435,0.098733,0.08,0.32,0
0.16241,0.06123,0.97791,-0.25939,-0.87494,-0.87815,-0.00483,0,0,0.81787,0.0075738,0,-0.069515,0,0,0.16383,0.022249,0,0.16657,-0.25734,-0.87699,-0.87815,-20.103,-0.67083,0.62051,0.048056,0.1,0.32,0
0.16301,0.059486,0.9469,-0.23699,-0.24798,-0.24018,-0.0043698,0,0,0.041497,-0.10139,0,-0.11362,0,0,0.15338,0.0021579,0,0.15341,-0.23546,-0.24951,-0.24018,-19.245,-0.24172,0.012377,-5.1865e-08,0.12,0.32,0
0.16407,0.057838,0.91655,-0.23245,-0.25145,-0.23683,-0.0031329,0,0,0.05685,-0.19011,0,-0.081455,0,0,0.15031,-0.00029382,0,0.15032,-0.23195,-0.25195,-0.23683,-9.127,-0.24024,0.018066,-2.3009e-07,0.14,0.32,0
0.16528,0.056515,0.88678,-0.22885,-0.25269,-0.23314,-0.0014248,0,0,0.05579,-0.25415,0,-0.037043,0,0,0.14776,-0.003242,0,0.1478,-0.22876,-0.25277,-0.23314,-3.4078,-0.23822,0.02215,-4.855e-07,0.16,0.32,0
0.1663,0.055573,0.85745,-0.22628,-0.25199,-0.22923,0.00037352,0,0,0.03826,-0.29591,0,0.0097115,0,0,0.14602,-0.0065448,0,0.14616,-0.22628,-0.25199,-0.22923,0.83232,-0.23583,0.024376,-7.0734e-07,0.18,0.32,0
0.16681,0.054988,0.82837,-0.22467,-0.2498,-0.22518,0.0021496,0,0,0.0066133,-0.32007,0,0.05589,0,0,0.14531,-0.010033,0,0.14565,-0.22448,-0.24998,-0.22518,4.8542,-0.23321,0.025156,-8.1553e-07,0.2,0.32,0
0.16656,0.054744,0.79932,-0.22386,-0.24646,-0.22103,0.0039833,0,0,-0.036768,-0.33066,0,0.10357,0,0,0.14574,-0.01354,0,0.14636,-0.22318,-0.24715,-0.22103,9.706,-0.23045,0.025112,-7.9333e-07,0.22,0.32,0
0.16534,0.054878,0.77007,-0.22375,-0.24215,-0.21678,0.0060378,0,0,-0.090673,-0.32982,0,0.15698,0,0,0.14733,-0.016908,0,0.1483,-0.22195,-0.24395,-0.21678,16.641,-0.22756,0.024995,-6.8774e-07,0.24,0.32,0
0.16294,0.055501,0.74039,-0.22434,-0.2368,-0.21238,0.0084768,0,0,-0.15548,-0.31744,0,0.2204,0,0,0.15004,-0.019962,0,0.15137,-0.22005,-0.24109,-0.21238,26.844,-0.22451,0.025746,-6.2135e-07,0.26,0.32,0
0.15912,0.056774,0.71006,-0.22567,-0.23014,-0.20775,0.011378,0,0,-0.23297,-0.2911,0,0.29584,0,0,0.15368,-0.022509,0,0.15533,-0.21631,-0.2395,-0.20775,39.441,-0.22119,0.028455,-8.3226e-07,0.28,0.32,0
0.15362,0.058866,0.67892,-0.22777,-0.22173,-0.20274,0.014616,0,0,-0.32539,-0.24685,0,0.38002,0,0,0.15796,-0.024345,0,0.15984,-0.20983,-0.23968,-0.20274,50.839,-0.21742,0.033951,-1.7187e-06,0.3,0.32,0
0.14611,0.061853,0.64688,-0.23051,-0.21117,-0.19719,0.017757,0,0,-0.43316,-0.18171,0,0.46168,0,0,0.16244,-0.025319,0,0.16442,-0.20062,-0.24106,-0.19719,59.288,-0.21296,0.042258,-3.7899e-06,0.32,0.32,0
0.13629,0.065604,0.61394,-0.24434,-0.64658,-0.60494,0.024451,0,0,0.24796,-0.098406,0,0.2945,0,0,0.17532,-0.13965,0,0.24079,-0.22386,-0.66705,-0.60494,32.849,-0.49862,0.42486,0.012792,0.34,0.32,0
0.15603,0.060609,0.61022,-0.26023,-1.0981,-1.0177,0.044476,0,0,0.98472,-0.10446,0,0.11564,0,0,0.20361,-0.24963,0,0.32262,-0.25788,-1.1004,-1.0177,3.0302,-0.792,0.80438,0.025781,0.36,0.32,0
0.17568,0.056551,0.6058,-0.2592,-1.0996,-1.0134,0.066412,0,0,0.98052,-0.11203,0,0.17267,0,0,0.23474,-0.23823,0,0.33468,-0.25398,-1.1048,-1.0134,4.4905,-0.79075,0.80904,0.026031,0.38,0.32,0
0.19525,0.053327,0.60083,-0.25602,-1.0933,-1.0056,0.082296,0,0,0.97447,-0.11392,0,0.21397,0,0,0.25566,-0.2214,0,0.3382,-0.24801,-1.1013,-1.0056,5.561,-0.78496,0.80968,0.025984,0.4,0.32,0
0.21466,0.050685,0.59557,-0.25188,-1.0776,-0.99442,0.089627,0,0,0.9653,-0.10816,0,0.23303,0,0,0.26317,-0.20128,0,0.3312,-0.24227,-1.0872,-0.99442,6.124,-0.77464,0.8026,0.02536,0.42,0.32,0
0.23386,0.048285,0.59031,-0.24736,-1.0518,-0.98006,0.087879,0,0,0.95251,-0.093274,0,0.22848,0,0,0.25552,-0.18031,0,0.31271,-0.23787,-1.0613,-0.98006,6.1622,-0.75974,0.78596,0.02404,0.44,0.32,0
0.25276,0.045731,0.58535,-0.24311,-1.0135,-0.96233,0.076606,0,0,0.93499,-0.066513,0,0.19917,0,0,0.23286,-0.16125,0,0.28356,-0.23556,-1.021,-0.96233,5.624,-0.73964,0.75783,0.021901,0.46,0.32,0
0.27126,0.042537,0.58099,-0.23827,-0.96125,-0.94085,0.053731,0,0,0.91336,-0.026522,0,0.1397,0,0,0.19765,-0.14716,0,0.24726,-0.23429,-0.96522,-0.94085,4.2272,-0.71345,0.71905,0.01902,0.48,0.32,0
0.2893,0.038063,0.57744,-0.21234,-0.53313,-0.54124,0.026586,0,0,0.2174,0.019159,0,0.27908,0,0,0.16493,-0.077347,0,0.19014,-0.18912,-0.55635,-0.54124,35.526,-0.4289,0.36863,0.0083934,0.5,0.32,0
0.27996,0.041089,0.54695,-0.20258,-0.1747,-0.16788,0.015548,0,0,-0.45107,-0.088702,0,0.40426,0,0,0.14979,-0.012303,0,0.15032,-0.16776,-0.20952,-0.16788,65.936,-0.18172,0.041701,-3.7245e-06,0.52,0.32,0
0.27125,0.04349,0.51753,-0.19666,-0.17721,-0.16391,0.01272,0,0,-0.42571,-0.17281,0,0.33073,0,0,0.14431,-0.011355,0,0.14478,-0.17092,-0.20295,-0.16391,63.702,-0.17926,0.036044,-2.1019e-06,0.54,0.32,0
0.26293,0.045155,0.48922,-0.19141,-0.17761,-0.15963,0.010006,0,0,-0.41318,-0.23374,0,0.26016,0,0,0.13895,-0.010984,0,0.13941,-0.17235,-0.19667,-0.15963,62.297,-0.17622,0.032594,-9.0824e-07,0.56,0.32,0
0.25473,0.04604,0.46195,-0.18691,-0.17651,-0.15522,0.0075509,0,0,-0.41197,-0.27677,0,0.19632,0,0,0.13416,-0.010892,0,0.13462,-0.17254,-0.19088,-0.15522,62.276,-0.17288,0.030885,-7.452e-08,0.58,0.32,0
0.24645,0.046194,0.43556,-0.1831,-0.17444,-0.15082,0.0054975,0,0,-0.41967,-0.30709,0,0.14293,0,0,0.13016,-0.010842,0,0.13062,-0.17177,-0.18577,-0.15082,64.113,-0.16945,0.030467,4.8896e-07,0.6,0.32,0
0.23794,0.04573,0.40988,-0.17989,-0.17169,-0.14646,0.003895,0,0,-0.43453,-0.32796,0,0.10127,0,0,0.12698,-0.0107,0,0.12744,-0.17013,-0.18144,-0.14646,68.23,-0.16601,0.030919,8.6202e-07,0.62,0.32,0
0.22907,0.044791,0.38476,-0.17722,-0.16842,-0.14217,0.002713,0,0,-0.45567,-0.34128,0,0.070537,0,0,0.12459,-0.010428,0,0.12503,-0.16765,-0.17799,-0.14217,74.17,-0.1626,0.031933,1.1005e-06,0.64,0.32,0
0.21971,0.043516,0.36005,-0.17508,-0.16472,-0.13794,0.0018822,0,0,-0.48272,-0.34812,0,0.048937,0,0,0.12291,-0.010032,0,0.12332,-0.16439,-0.17541,-0.13794,80.01,-0.15925,0.033349,1.2277e-06,0.66,0.32,0
0.20976,0.042024,0.3356,-0.17344,-0.16065,-0.13379,0.0013279,0,0,-0.51553,-0.34917,0,0.034526,0,0,0.12185,-0.0095453,0,0.12222,-0.16051,-0.17358,-0.13379,84.138,-0.15596,0.035131,1.2328e-06,0.68,0.32,0
0.19909,0.040413,0.31131,-0.17231,-0.15623,-0.12969,0.00098435,0,0,-0.55404,-0.34496,0,0.025593,0,0,0.12136,-0.0090064,0,0.12169,-0.15617,-0.17237,-0.12969,86.511,-0.15274,0.037316,1.0742e-06,0.7,0.32,0
0.1876,0.038758,0.28706,-0.17168,-0.15151,-0.12566,0.0007984,0,0,-0.59823,-0.33599,0,0.020758,0,0,0.12143,-0.0084575,0,0.12172,-0.15147,-0.17171,-0.12566,87.737,-0.14962,0.039977,6.8244e-07,0.72,0.32,0
0.17516,0.037114,0.26274,-0.17154,-0.14652,-0.12169,0.00072809,0,0,-0.64804,-0.32276,0,0.01893,0,0,0.12204,-0.0079407,0,0.1223,-0.1465,-0.17156,-0.12169,88.335,-0.14658,0.043189,-3.6973e-08,0.74,0.32,0
0.16168,0.035517,0.23824,-0.1719,-0.14131,-0.11779,0.00073916,0,0,-0.70342,-0.30585,0,0.019218,0,0,0.12324,-0.0074979,0,0.12347,-0.1413,-0.17192,-0.11779,88.616,-0.14367,0.04701,-1.2011e-06,0.76,0.32,0
0.14702,0.033993,0.21344,-0.17273,-0.13594,-0.11395,0.00080091,0,0,-0.76422,-0.28595,0,0.020824,0,0,0.12509,-0.0071681,0,0.1253,-0.13592,-0.17275,-0.11395,88.754,-0.14087,0.051464,-2.9453e-06,0.78,0.32,0
0.13111,0.032553,0.1882,-0.17403,-0.13047,-0.11017,0.00088305,0,0,-0.83015,-0.26388,0,0.022959,0,0,0.12767,-0.006982,0,0.12787,-0.13045,-0.17404,-0.11017,88.839,-0.13822,0.056533,-5.415e-06,0.8,0.32,0
0.11382,0.031203,0.16237,-0.17573,-0.12495,-0.10644,0.00095757,0,0,-0.90076,-0.24062,0,0.024897,0,0,0.13107,-0.0069471,0,0.13127,-0.12493,-0.17575,-0.10644,88.92,-0.13571,0.06216,-8.7546e-06,0.82,0.32,0
0.095076,0.029951,0.13578,-0.17779,-0.11945,-0.10275,0.0010127,0,0,-0.9755,-0.21709,0,0.02633,0,0,0.13534,-0.0070209,0,0.13554,-0.11943,-0.1778,-0.10275,89.006,-0.13333,0.068262,-1.3106e-05,0.84,0.32,0
0.074799,0.028827,0.10824,-0.18014,-0.11393,-0.099046,0.0010716,0,0,-1.0542,-0.19355,0,0.027861,0,0,0.14044,-0.0070742,0,0.14064,-0.11392,-0.18016,-0.099046,89.073,-0.13104,0.074794,-1.8658e-05,0.86,0.32,0
0.052907,0.027899,0.0796,-0.18274,-0.10819,-0.095238,0.0011849,0,0,-1.1375,-0.16836,0,0.030806,0,0,0.14614,-0.0068829,0,0.14633,-0.10817,-0.18276,-0.095238,89.09,-0.12872,0.081823,-2.5781e-05,0.88,0.32,0
0.029299,0.027274,0.049782,-0.18546,-0.10175,-0.091141,0.0013177,0,0,-1.2261,-0.13794,0,0.034259,0,0,0.15197,-0.0061827,0,0.15212,-0.10173,-0.18548,-0.091141,89.098,-0.12612,0.089514,-3.5105e-05,0.9,0.32,0
0.0038618,0.027038,0.018813,-0.18134,-0.15262,-0.11053,-0.0004491,0,0,-0.66438,-0.09948,0,0.0092861,0,0,0.16822,-0.026375,0,0.17219,-0.13619,-0.19777,-0.11053,43.155,-0.14816,0.080413,-1.9213e-05,0.92,0.32,0
0.0027238,0.026244,0.015181,-0.18729,-0.25267,-0.14717,-0.0040686,0,0,-0.052159,-0.13715,0,-0.010578,0,0,0.2035,-0.042792,0,0.20919,-0.18704,-0.25292,-0.14717,-3.5474,-0.19571,0.092502,-1.6695e-05,0.94,0.32,0
0.0017755,0.025418,0.010673,-0.18674,-0.28464,-0.15208,-0.0038491,0,0,-0.045046,-0.17232,0,-0.010008,0,0,0.24176,-0.031717,0,0.24436,-0.18658,-0.28479,-0.15208,-2.248,-0.20782,0.11926,-6.3161e-05,0.96,0.32,0
0.00092196,0.02486,0.0055102,-0.18523,-0.30003,-0.15109,-0.0015934,0,0,-0.044387,-0.19362,0,-0.0041428,0,0,0.26682,-0.016743,0,0.26739,-0.18521,-0.30005,-0.15109,-0.79507,-0.21211,0.13517,-0.00010011,0.98,0.32,0
0,0.024672,0,-0.17761,-0.29622,-0.14215,-0.0036112,0,0,-0.046098,-0.20029,0,-0.0093891,0,0,0.27551,6.0715e-18,0,0.2754,-0.1775,-0.29633,-0.14215,-1.7423,-0.20532,0.13989,-0.00011092,1,0.32,0
0,0.059181,1,-0.33158,-1.5969,-1.5785,0.00078501,0,0,1.6211,-0.023875,0,0.002041,0,0,0.2726,1.8961e-15,0,0.27244,-0.33158,-1.5969,-1.5785,0.035546,-1.169,1.2563,0.10175,0,0.34,0
0.032421,0.059221,0.99455,-0.32191,-1.5859,-1.5669,-0.0084111,0,0,1.6185,-0.024716,0,-0.021869,0,0,0.26732,0.02266,0,0.26817,-0.32185,-1.586,-1.5669,-0.38125,-1.1582,1.2547,0.10136,0.02,0.34,0
0.064739,0.059376,0.98931,-0.31458,-1.577,-1.5568,-0.014165,0,0,1.6149,-0.026277,0,-0.03683,0,0,0.25163,0.043989,0,0.25553,-0.31442,-1.5772,-1.5568,-0.64279,-1.1495,1.2527,0.10087,0.04,0.34,0
0.097016,0.059753,0.98448,-0.30514,-1.5644,-1.5454,-0.015249,0,0,1.6123,-0.024812,0,-0.039648,0,0,0.22625,0.062015,0,0.23501,-0.30495,-1.5646,-1.5454,-0.69368,-1.1383,1.2502,0.10027,0.06,0.34,0
0.12923,0.060449,0.98026,-0.29555,-1.5428,-1.5318,-0.012852,0,0,1.6071,-0.014331,0,-0.033417,0,0,0.19299,0.074054,0,0.20754,-0.29542,-1.5429,-1.5318,-0.59034,-1.1234,1.242,0.098361,0.08,0.34,0
0.1613,0.061387,0.97676,-0.25863,-0.87346,-0.87685,-0.011327,0,0,0.82155,0.0080053,0,-0.15625,0,0,0.16392,0.042671,0,0.17271,-0.25373,-0.87836,-0.87685,-21.171,-0.66965,0.62473,0.047839,0.1,0.34,0
0.16209,0.057304,0.94614,-0.23577,-0.24973,-0.24026,-0.0098745,0,0,0.058471,-0.12312,0,-0.25674,0,0,0.15113,0.0059455,0,0.15126,-0.23065,-0.25484,-0.24026,-27.364,-0.24192,0.021096,-1.6734e-07,0.12,0.34,0
0.16364,0.053804,0.91631,-0.23051,-0.254,-0.23698,-0.0073689,0,0,0.084182,-0.22119,0,-0.19159,0,0,0.14735,0.0030781,0,0.14738,-0.22839,-0.25612,-0.23698,-16.052,-0.24049,0.024587,-4.6075e-07,0.14,0.34,0
0.16546,0.051187,0.8872,-0.22656,-0.25521,-0.23325,-0.0043401,0,0,0.086966,-0.2855,0,-0.11284,0,0,0.14421,-0.00069908,0,0.14421,-0.22592,-0.25586,-0.23325,-8.4275,-0.23834,0.027027,-7.6796e-07,0.16,0.34,0
0.16712,0.049424,0.85862,-0.22392,-0.25426,-0.22931,-0.0014541,0,0,0.070166,-0.32423,0,-0.037806,0,0,0.1421,-0.0051003,0,0.14218,-0.22385,-0.25432,-0.22931,-2.7377,-0.23583,0.028145,-1.001e-06,0.18,0.34,0
0.16827,0.048369,0.83036,-0.22232,-0.25192,-0.22531,0.0011708,0,0,0.038844,-0.34596,0,0.030441,0,0,0.14123,-0.0098272,0,0.14155,-0.22227,-0.25197,-0.22531,2.2616,-0.23318,0.028298,-1.1188e-06,0.2,0.34,0
0.16867,0.04791,0.80213,-0.22152,-0.24866,-0.22127,0.0036978,0,0,-0.003313,-0.3561,0,0.096142,0,0,0.1417,-0.01463,0,0.14244,-0.22103,-0.24916,-0.22127,7.622,-0.23048,0.028008,-1.1281e-06,0.22,0.34,0
0.16813,0.048039,0.77368,-0.2214,-0.24466,-0.21718,0.0063863,0,0,-0.054821,-0.35712,0,0.16604,0,0,0.14355,-0.019291,0,0.14484,-0.21976,-0.24629,-0.21718,14.389,-0.22775,0.02791,-1.0845e-06,0.24,0.34,0
0.16648,0.048869,0.74471,-0.22196,-0.23983,-0.21301,0.009501,0,0,-0.11633,-0.34874,0,0.24702,0,0,0.14675,-0.023569,0,0.14863,-0.21785,-0.24394,-0.21301,23.373,-0.22493,0.028818,-1.1131e-06,0.26,0.34,0
0.16348,0.050625,0.71498,-0.22333,-0.23383,-0.20865,0.013225,0,0,-0.19091,-0.32741,0,0.34384,0,0,0.15115,-0.027139,0,0.15358,-0.21435,-0.24281,-0.20865,34.175,-0.22194,0.031698,-1.4587e-06,0.28,0.34,0
0.15884,0.053584,0.68425,-0.22571,-0.22586,-0.2039,0.017472,0,0,-0.28361,-0.28548,0,0.45427,0,0,0.15643,-0.029607,0,0.15923,-0.20831,-0.24326,-0.2039,44.882,-0.21849,0.037349,-2.5501e-06,0.3,0.34,0
0.15214,0.057922,0.65241,-0.22911,-0.21489,-0.19844,0.021586,0,0,-0.39867,-0.21385,0,0.56124,0,0,0.16207,-0.030613,0,0.16496,-0.19927,-0.24472,-0.19844,54.114,-0.21415,0.045874,-4.9529e-06,0.32,0.34,0
0.14289,0.06348,0.61943,-0.24371,-0.65775,-0.61112,0.028006,0,0,0.26968,-0.11021,0,0.35081,0,0,0.17848,-0.16507,0,0.2621,-0.22266,-0.6788,-0.61112,30.996,-0.50419,0.43511,0.013529,0.34,0.34,0
0.16292,0.05836,0.61559,-0.26517,-1.124,-1.0323,0.046753,0,0,0.9973,-0.11915,0,0.12156,0,0,0.21451,-0.29162,0,0.36267,-0.26264,-1.1265,-1.0323,3.1069,-0.80716,0.82085,0.02715,0.36,0.34,0
0.18279,0.054203,0.61085,-0.2688,-1.1201,-1.0275,0.068263,0,0,0.98634,-0.12039,0,0.17748,0,0,0.25416,-0.2703,0,0.37128,-0.26336,-1.1256,-1.0275,4.5554,-0.80548,0.81761,0.026715,0.38,0.34,0
0.20238,0.05103,0.60542,-0.27052,-1.103,-1.0175,0.082527,0,0,0.97106,-0.11122,0,0.21457,0,0,0.28108,-0.23942,0,0.3691,-0.26242,-1.1112,-1.0175,5.607,-0.79702,0.80599,0.025671,0.4,0.34,0
0.22163,0.048593,0.5996,-0.26912,-1.0765,-1.0033,0.086388,0,0,0.95441,-0.095158,0,0.22461,0,0,0.2916,-0.20265,0,0.35474,-0.25998,-1.0856,-1.0033,6.0396,-0.78296,0.78771,0.02418,0.42,0.34,0
0.24055,0.046566,0.59376,-0.26415,-1.0428,-0.98585,0.08112,0,0,0.93821,-0.074078,0,0.21091,0,0,0.28345,-0.16351,0,0.32697,-0.25579,-1.0512,-0.98585,5.8847,-0.76428,0.76483,0.022414,0.44,0.34,0
0.25916,0.044618,0.58827,-0.25691,-0.9982,-0.9648,0.069187,0,0,0.92025,-0.043421,0,0.17989,0,0,0.25616,-0.12672,0,0.28608,-0.25051,-1.0046,-0.9648,5.2867,-0.73997,0.735,0.020192,0.46,0.34,0
0.27736,0.042331,0.58351,-0.24879,-0.93473,-0.93856,0.047328,0,0,0.8967,0.0049885,0,0.12305,0,0,0.21213,-0.098592,0,0.2353,-0.24554,-0.93798,-0.93856,3.9285,-0.70736,0.69273,0.017073,0.48,0.34,0
0.29502,0.03893,0.57978,-0.21544,-0.5053,-0.5351,0.019806,0,0,0.18187,0.070437,0,0.18005,0,0,0.17058,-0.047251,0,0.18105,-0.19085,-0.5299,-0.5351,39.847,-0.41862,0.35134,0.0070798,0.5,0.34,0
0.28464,0.039755,0.54884,-0.207,-0.17244,-0.16872,0.0086405,0,0,-0.49768,-0.04841,0,0.22465,0,0,0.15139,-0.0059729,0,0.15154,-0.1704,-0.20904,-0.16872,76.717,-0.18272,0.039508,-3.1479e-06,0.52,0.34,0
0.27512,0.04044,0.51923,-0.19996,-0.175,-0.16441,0.0067268,0,0,-0.46213,-0.13769,0,0.17489,0,0,0.14487,-0.0051494,0,0.145,-0.1733,-0.20166,-0.16441,75.836,-0.17979,0.033691,-1.5124e-06,0.54,0.34,0
0.26615,0.040844,0.49089,-0.19381,-0.17543,-0.15986,0.0049193,0,0,-0.44132,-0.20242,0,0.1279,0,0,0.13886,-0.0055339,0,0.139,-0.1742,-0.19504,-0.15986,75.918,-0.17637,0.030642,-4.6366e-07,0.56,0.34,0
0.25746,0.040813,0.46368,-0.18865,-0.17466,-0.15536,0.0032653,0,0,-0.43279,-0.25088,0,0.084898,0,0,0.13381,-0.0064363,0,0.13398,-0.17394,-0.18938,-0.15536,77.49,-0.17289,0.0295,2.0924e-07,0.58,0.34,0
0.24884,0.0403,0.43737,-0.18432,-0.17301,-0.15094,0.0019149,0,0,-0.43397,-0.287,0,0.049788,0,0,0.12983,-0.0073529,0,0.13004,-0.1727,-0.18463,-0.15094,80.643,-0.16942,0.029593,6.385e-07,0.6,0.34,0
0.24011,0.039364,0.41175,-0.18073,-0.17068,-0.1466,0.00094916,0,0,-0.44374,-0.31303,0,0.024678,0,0,0.1268,-0.0080657,0,0.12706,-0.17059,-0.18082,-0.1466,84.654,-0.166,0.030426,9.1429e-07,0.62,0.34,0
0.23109,0.038115,0.38665,-0.17782,-0.16776,-0.14234,0.0003518,0,0,-0.46129,-0.33046,0,0.0091468,0,0,0.12458,-0.0085259,0,0.12487,-0.16775,-0.17784,-0.14234,88,-0.16264,0.03168,1.0922e-06,0.64,0.34,0
0.22165,0.036668,0.36192,-0.17553,-0.16434,-0.13816,6.6869e-05,0,0,-0.48592,-0.34044,0,0.0017386,0,0,0.12304,-0.0087621,0,0.12335,-0.16434,-0.17553,-0.13816,89.658,-0.15934,0.033228,1.189e-06,0.66,0.34,0
0.21166,0.03513,0.33743,-0.17381,-0.16048,-0.13403,3.073e-05,0,0,-0.51709,-0.34389,0,0.00079899,0,0,0.12208,-0.0088337,0,0.1224,-0.16048,-0.17381,-0.13403,89.868,-0.15611,0.035067,1.1857e-06,0.68,0.34,0
0.20097,0.033584,0.31309,-0.17261,-0.15623,-0.12996,0.00018776,0,0,-0.55439,-0.34155,0,0.0048817,0,0,0.12164,-0.0088108,0,0.12195,-0.15623,-0.17261,-0.12996,89.343,-0.15293,0.037264,1.0335e-06,0.7,0.34,0
0.18948,0.032093,0.28878,-0.17191,-0.15164,-0.12594,0.00049384,0,0,-0.59756,-0.33408,0,0.01284,0,0,0.12169,-0.0087658,0,0.122,-0.15163,-0.17192,-0.12594,88.605,-0.14983,0.03991,6.5788e-07,0.72,0.34,0
0.17707,0.030701,0.26442,-0.17171,-0.14676,-0.12198,0.00091464,0,0,-0.64646,-0.32208,0,0.023781,0,0,0.12223,-0.0087717,0,0.12255,-0.14672,-0.17174,-0.12198,87.903,-0.14682,0.043095,-3.972e-08,0.74,0.34,0
0.16362,0.029434,0.23989,-0.172,-0.14163,-0.11808,0.001421,0,0,-0.70105,-0.30612,0,0.036945,0,0,0.12331,-0.0089016,0,0.12363,-0.14156,-0.17207,-0.11808,87.328,-0.1439,0.046892,-1.1819e-06,0.76,0.34,0
0.14903,0.028303,0.21509,-0.17281,-0.13631,-0.11424,0.0019827,0,0,-0.76139,-0.2868,0,0.05155,0,0,0.12499,-0.0092263,0,0.12533,-0.1362,-0.17292,-0.11424,86.9,-0.14112,0.051349,-2.9172e-06,0.78,0.34,0
0.13317,0.027304,0.18989,-0.17415,-0.13085,-0.11049,0.0025624,0,0,-0.82757,-0.26471,0,0.066622,0,0,0.12737,-0.0098057,0,0.12775,-0.1307,-0.1743,-0.11049,86.625,-0.1385,0.056485,-5.4203e-06,0.8,0.34,0
0.11592,0.026425,0.16414,-0.17601,-0.12532,-0.10681,0.0031138,0,0,-0.89958,-0.24056,0,0.080959,0,0,0.1306,-0.010668,0,0.13105,-0.12513,-0.1762,-0.10681,86.498,-0.13605,0.062285,-8.8885e-06,0.82,0.34,0
0.097182,0.025655,0.13765,-0.17837,-0.11976,-0.10321,0.0035946,0,0,-0.97718,-0.2152,0,0.09346,0,0,0.13483,-0.011758,0,0.13536,-0.11954,-0.17859,-0.10321,86.504,-0.13378,0.068693,-1.3528e-05,0.84,0.34,0
0.076836,0.025011,0.11021,-0.18117,-0.11421,-0.099636,0.0040168,0,0,-1.06,-0.18947,0,0.10444,0,0,0.14017,-0.012849,0,0.14078,-0.11397,-0.18141,-0.099636,86.579,-0.13167,0.075635,-1.9559e-05,0.86,0.34,0
0.054783,0.024594,0.081588,-0.18446,-0.10862,-0.096083,0.0044593,0,0,-1.149,-0.16293,0,0.11594,0,0,0.14647,-0.013427,0,0.14713,-0.10836,-0.18473,-0.096083,86.647,-0.12972,0.083189,-2.7411e-05,0.88,0.34,0
0.030877,0.024596,0.051621,-0.18815,-0.10221,-0.092272,0.0049262,0,0,-1.2465,-0.12923,0,0.12808,0,0,0.15326,-0.012821,0,0.15384,-0.10193,-0.18843,-0.092272,86.73,-0.12755,0.091715,-3.8145e-05,0.9,0.34,0
0.0049251,0.02519,0.020284,-0.18364,-0.14306,-0.10917,0.0022716,0,0,-0.68073,-0.080122,0,0.056633,0,0,0.17302,-0.057833,0,0.18769,-0.13671,-0.18999,-0.10917,44.153,-0.14529,0.0768,-1.9403e-05,0.92,0.34,0
0.0036479,0.023541,0.016497,-0.19801,-0.25446,-0.15224,-0.0017326,0,0,-0.059504,-0.13289,0,-0.0045047,0,0,0.21589,-0.093834,0,0.23691,-0.19796,-0.25452,-0.15224,-1.7563,-0.20157,0.088741,-6.5438e-06,0.94,0.34,0
0.0025449,0.021989,0.011648,-0.20275,-0.28867,-0.15908,8.3718e-05,0,0,-0.056782,-0.16847,0,0.00021767,0,0,0.26179,-0.068767,0,0.27113,-0.20275,-0.28867,-0.15908,0.05583,-0.21683,0.1142,-4.0504e-05,0.96,0.34,0
0.0013766,0.021031,0.006025,-0.20674,-0.29917,-0.1578,0.0021887,0,0,-0.063623,-0.18378,0,0.0056906,0,0,0.29121,-0.03588,0,0.29323,-0.20669,-0.29922,-0.1578,1.3557,-0.22123,0.12441,-4.9904e-05,0.98,0.34,0
0,0.020725,0,-0.20059,-0.29155,-0.14764,-0.0058794,0,0,-0.068831,-0.18708,0,-0.015286,0,0,0.30125,5.2042e-18,0,0.30087,-0.20021,-0.29193,-0.14764,-3.6829,-0.21326,0.12648,-4.671e-05,1,0.34,0
0,0.058889,1,-0.36289,-1.5836,-1.5839,2.0396e-05,0,0,1.5874,0.00044767,0,5.3031e-05,0,0,0.30056,1.4242e-15,0,0.30023,-0.36289,-1.5836,-1.5839,0.00095733,-1.1768,1.2209,0.093466,0,0.36,0
0.031748,0.058891,0.99399,-0.35041,-1.5728,-1.571,-0.015425,0,0,1.5867,-0.0023875,0,-0.040106,0,0,0.29459,0.033709,0,0.29625,-0.35022,-1.573,-1.571,-0.72287,-1.1647,1.2217,0.093662,0.02,0.36,0
0.063468,0.058949,0.98822,-0.33778,-1.5689,-1.5602,-0.027567,0,0,1.5892,-0.011236,0,-0.071673,0,0,0.27636,0.066683,0,0.28425,-0.33716,-1.5695,-1.5602,-1.2821,-1.1556,1.2277,0.095021,0.04,0.36,0
0.095314,0.059268,0.98294,-0.32081,-1.5654,-1.5488,-0.031509,0,0,1.5964,-0.021591,0,-0.081924,0,0,0.2455,0.096305,0,0.26417,-0.32001,-1.5662,-1.5488,-1.4493,-1.145,1.2376,0.097288,0.06,0.36,0
0.12732,0.060119,0.9784,-0.30464,-1.5514,-1.5352,-0.026953,0,0,1.5998,-0.021076,0,-0.070077,0,0,0.20331,0.11775,0,0.23613,-0.30406,-1.552,-1.5352,-1.2378,-1.1304,1.2396,0.097779,0.08,0.36,0
0.1593,0.061551,0.9748,-0.25893,-0.87359,-0.8759,-0.020738,0,0,0.82497,0.0054555,0,-0.27028,0,0,0.16555,0.068884,0,0.18604,-0.25031,-0.88222,-0.8759,-21.686,-0.66947,0.6304,0.047619,0.1,0.36,0
0.16032,0.054561,0.94453,-0.23468,-0.25339,-0.24087,-0.016613,0,0,0.080482,-0.16267,0,-0.43193,0,0,0.1487,0.010887,0,0.14912,-0.22497,-0.2631,-0.24087,-30.312,-0.24298,0.033171,-5.2942e-07,0.12,0.36,0
0.16252,0.048991,0.91532,-0.22824,-0.25839,-0.23752,-0.012072,0,0,0.12067,-0.27134,0,-0.31387,0,0,0.14367,0.0074059,0,0.14387,-0.224,-0.26263,-0.23752,-19.342,-0.24139,0.033952,-9.893e-07,0.14,0.36,0
0.16515,0.045095,0.88706,-0.22377,-0.25904,-0.23355,-0.0073492,0,0,0.12709,-0.33135,0,-0.19108,0,0,0.13958,0.0024629,0,0.1396,-0.2223,-0.26051,-0.23355,-11.313,-0.23879,0.034006,-1.3003e-06,0.16,0.36,0
0.16761,0.042603,0.85949,-0.22105,-0.25746,-0.2295,-0.0032685,0,0,0.10988,-0.36349,0,-0.08498,0,0,0.13689,-0.0033586,0,0.13692,-0.22076,-0.25776,-0.2295,-5.0887,-0.23601,0.033491,-1.4951e-06,0.18,0.36,0
0.16954,0.041149,0.8323,-0.21949,-0.25479,-0.22551,0.00021342,0,0,0.078363,-0.38063,0,0.0055489,0,0,0.13578,-0.0095611,0,0.13609,-0.21949,-0.25479,-0.22551,0.34632,-0.23326,0.032715,-1.5943e-06,0.2,0.36,0
0.17074,0.0405,0.80518,-0.21875,-0.25152,-0.2216,0.0034366,0,0,0.037033,-0.389,0,0.089352,0,0,0.13627,-0.015851,0,0.13717,-0.2184,-0.25188,-0.2216,5.9225,-0.23062,0.032003,-1.6266e-06,0.22,0.36,0
0.17103,0.040594,0.77779,-0.21871,-0.24781,-0.21774,0.0067666,0,0,-0.01269,-0.39099,0,0.17593,0,0,0.1384,-0.022026,0,0.14012,-0.21722,-0.24931,-0.21774,12.471,-0.22809,0.031836,-1.6557e-06,0.24,0.36,0
0.17023,0.041551,0.74982,-0.21938,-0.2436,-0.21388,0.01057,0,0,-0.071591,-0.38639,0,0.27481,0,0,0.14219,-0.027843,0,0.14489,-0.21542,-0.24756,-0.21388,20.56,-0.22562,0.032943,-1.8226e-06,0.26,0.36,0
0.16816,0.043678,0.72091,-0.22097,-0.2385,-0.20993,0.015205,0,0,-0.14348,-0.37135,0,0.39533,0,0,0.14764,-0.032873,0,0.15128,-0.21218,-0.24728,-0.20993,30.02,-0.22313,0.036278,-2.4204e-06,0.28,0.36,0
0.16449,0.047447,0.69076,-0.22398,-0.23147,-0.20571,0.020799,0,0,-0.23751,-0.33489,0,0.54076,0,0,0.15448,-0.036404,0,0.15876,-0.2066,-0.24886,-0.20571,39.896,-0.22039,0.042714,-3.9968e-06,0.3,0.36,0
0.15866,0.053299,0.65912,-0.22868,-0.22024,-0.20059,0.026644,0,0,-0.36516,-0.25548,0,0.69274,0,0,0.16203,-0.037653,0,0.1664,-0.19748,-0.25143,-0.20059,49.498,-0.2165,0.052468,-7.3307e-06,0.32,0.36,0
0.14989,0.061195,0.62595,-0.24499,-0.66768,-0.61807,0.034697,0,0,0.2876,-0.11725,0,0.43504,0,0,0.18443,-0.19895,0,0.29246,-0.22191,-0.69075,-0.61807,29.5,-0.51024,0.44546,0.014155,0.34,0.36,0
0.17017,0.055843,0.62189,-0.27786,-1.1538,-1.0514,0.056934,0,0,1.0056,-0.13316,0,0.14803,0,0,0.23343,-0.34711,0,0.41929,-0.27417,-1.1575,-1.0514,3.7032,-0.82769,0.83535,0.028316,0.36,0.36,0
0.19011,0.051735,0.61661,-0.29049,-1.14,-1.0458,0.080195,0,0,0.98185,-0.12251,0,0.20851,0,0,0.28693,-0.31189,0,0.42408,-0.28299,-1.1475,-1.0458,5.3459,-0.82542,0.8184,0.026691,0.38,0.36,0
0.20944,0.048878,0.61041,-0.30258,-1.1071,-1.0333,0.091017,0,0,0.94995,-0.095911,0,0.23664,0,0,0.32332,-0.26312,0,0.4165,-0.29241,-1.1173,-1.0333,6.3748,-0.81433,0.78624,0.024006,0.4,0.36,0
0.22811,0.046879,0.60368,-0.30774,-1.0668,-1.016,0.086157,0,0,0.9208,-0.066004,0,0.22401,0,0,0.33909,-0.20653,0,0.3963,-0.29808,-1.0765,-1.016,6.3948,-0.79687,0.75,0.021194,0.42,0.36,0
0.24627,0.045322,0.59685,-0.30023,-1.024,-0.99411,0.070791,0,0,0.90206,-0.03885,0,0.18406,0,0,0.33146,-0.14563,0,0.36124,-0.29337,-1.0309,-0.99411,5.5341,-0.77278,0.71982,0.018988,0.44,0.36,0
0.26419,0.043994,0.59042,-0.28593,-0.98101,-0.9705,0.051722,0,0,0.88994,-0.013657,0,0.13448,0,0,0.29777,-0.083694,0,0.30935,-0.2821,-0.98483,-0.9705,4.2324,-0.74581,0.69567,0.017267,0.46,0.36,0
0.28187,0.042737,0.58494,-0.26947,-0.91498,-0.94027,0.032679,0,0,0.87204,0.032876,0,0.084966,0,0,0.23846,-0.033589,0,0.24328,-0.26782,-0.91663,-0.94027,2.8908,-0.70824,0.66095,0.014766,0.48,0.36,0
0.29907,0.040881,0.58088,-0.21908,-0.47447,-0.52755,0.0084365,0,0,0.13906,0.12546,0,0.042501,0,0,0.18023,-0.0053832,0,0.18275,-0.19164,-0.50192,-0.52755,44.841,-0.40704,0.33504,0.0056158,0.5,0.36,0
0.28743,0.039152,0.54934,-0.21234,-0.17188,-0.1702,2.4511e-05,0,0,-0.54785,-0.021802,0,0.00063729,0,0,0.15323,0.0023427,0,0.15332,-0.17188,-0.21234,-0.1702,89.965,-0.1848,0.041329,-3.6056e-06,0.52,0.36,0
0.27716,0.037983,0.51959,-0.20307,-0.17395,-0.16507,-0.00051554,0,0,-0.49405,-0.11554,0,-0.013404,0,0,0.14475,0.0023149,0,0.14483,-0.17394,-0.20308,-0.16507,-88.986,-0.1807,0.034443,-1.6378e-06,0.54,0.36,0
0.26767,0.037058,0.49144,-0.19573,-0.17434,-0.16017,-0.0010643,0,0,-0.46235,-0.18431,0,-0.027672,0,0,0.13767,0.00029681,0,0.1377,-0.17429,-0.19578,-0.16017,-87.158,-0.17675,0.031065,-5.375e-07,0.56,0.36,0
0.25867,0.036005,0.46452,-0.18966,-0.17373,-0.15547,-0.0016628,0,0,-0.44452,-0.23735,0,-0.043233,0,0,0.13234,-0.0020655,0,0.13237,-0.17356,-0.18984,-0.15547,-84.106,-0.17295,0.029775,1.2326e-07,0.58,0.36,0
0.24989,0.034714,0.4385,-0.18474,-0.17238,-0.15099,-0.0020718,0,0,-0.43887,-0.27807,0,-0.053866,0,0,0.12853,-0.0041166,0,0.1286,-0.17204,-0.18508,-0.15099,-80.74,-0.16937,0.029799,5.3461e-07,0.6,0.36,0
0.24111,0.033209,0.41311,-0.18081,-0.17034,-0.14666,-0.0022283,0,0,-0.44401,-0.30786,0,-0.057937,0,0,0.12581,-0.0057045,0,0.12595,-0.16988,-0.18126,-0.14666,-78.474,-0.16593,0.030552,8.0911e-07,0.62,0.36,0
0.23213,0.031573,0.38817,-0.17772,-0.16769,-0.14244,-0.0021338,0,0,-0.45862,-0.32823,0,-0.05548,0,0,0.1239,-0.0068559,0,0.12409,-0.16725,-0.17815,-0.14244,-78.475,-0.16261,0.031702,1.0081e-06,0.64,0.36,0
0.22277,0.029898,0.36355,-0.17533,-0.16449,-0.1383,-0.0018208,0,0,-0.48133,-0.3405,0,-0.047341,0,0,0.1226,-0.0076586,0,0.12284,-0.1642,-0.17563,-0.1383,-80.71,-0.15937,0.033122,1.1448e-06,0.66,0.36,0
0.21288,0.028269,0.33914,-0.17353,-0.16082,-0.13422,-0.0013249,0,0,-0.51107,-0.34577,0,-0.034448,0,0,0.1218,-0.0082171,0,0.12207,-0.16068,-0.17367,-0.13422,-84.114,-0.15619,0.034822,1.1958e-06,0.68,0.36,0
0.20232,0.026751,0.31483,-0.17225,-0.15671,-0.13017,-0.00067713,0,0,-0.54706,-0.34501,0,-0.017605,0,0,0.12143,-0.0086373,0,0.12174,-0.15668,-0.17228,-0.13017,-87.51,-0.15305,0.036875,1.1095e-06,0.7,0.36,0
0.19099,0.025395,0.29056,-0.17146,-0.15224,-0.12617,0.00010017,0,0,-0.58879,-0.33901,0,0.0026044,0,0,0.12146,-0.0090232,0,0.1218,-0.15224,-0.17146,-0.12617,89.701,-0.14996,0.039374,8.1123e-07,0.72,0.36,0
0.17877,0.02423,0.26625,-0.17113,-0.14747,-0.1222,0.00099214,0,0,-0.63605,-0.32842,0,0.025796,0,0,0.1219,-0.0094785,0,0.12227,-0.14743,-0.17117,-0.1222,87.603,-0.14693,0.042414,2.0425e-07,0.74,0.36,0
0.16555,0.023272,0.2418,-0.17128,-0.14243,-0.1183,0.0019885,0,0,-0.68886,-0.31379,0,0.0517,0,0,0.12279,-0.010108,0,0.1232,-0.1423,-0.17142,-0.1183,86.076,-0.144,0.046079,-8.3452e-07,0.76,0.36,0
0.15122,0.022521,0.21713,-0.17197,-0.1372,-0.11446,0.0030782,0,0,-0.74755,-0.29556,0,0.080033,0,0,0.12419,-0.011022,0,0.12468,-0.13693,-0.17224,-0.11446,84.979,-0.14121,0.050444,-2.4636e-06,0.78,0.36,0
0.13565,0.021964,0.19213,-0.17325,-0.13181,-0.11073,0.0042428,0,0,-0.81277,-0.27401,0,0.11031,0,0,0.12623,-0.012325,0,0.12683,-0.13138,-0.17368,-0.11073,84.214,-0.1386,0.055582,-4.8933e-06,0.8,0.36,0
0.11871,0.02158,0.16664,-0.17525,-0.12631,-0.10713,0.0054449,0,0,-0.88552,-0.24931,0,0.14157,0,0,0.12912,-0.014108,0,0.12989,-0.12571,-0.17585,-0.10713,83.728,-0.13623,0.061565,-8.4078e-06,0.82,0.36,0
0.10023,0.021343,0.14048,-0.17804,-0.12072,-0.10368,0.0066251,0,0,-0.96673,-0.22159,0,0.17225,0,0,0.13316,-0.016394,0,0.13418,-0.11997,-0.1788,-0.10368,83.492,-0.13415,0.068444,-1.3376e-05,0.84,0.36,0
0.080037,0.021248,0.11338,-0.18165,-0.1151,-0.10036,0.0077238,0,0,-1.0567,-0.19161,0,0.20082,0,0,0.13877,-0.019006,0,0.1401,-0.11422,-0.18253,-0.10036,83.466,-0.13237,0.076193,-2.021e-05,0.86,0.36,0
0.05796,0.021382,0.084971,-0.18602,-0.10949,-0.097148,0.008847,0,0,-1.1553,-0.16043,0,0.23002,0,0,0.14616,-0.021229,0,0.14776,-0.10848,-0.18702,-0.097148,83.49,-0.13088,0.08478,-2.9421e-05,0.88,0.36,0
0.033827,0.022104,0.05491,-0.19178,-0.10369,-0.094134,0.010077,0,0,-1.2694,-0.12427,0,0.26199,0,0,0.15488,-0.021369,0,0.15642,-0.10255,-0.19292,-0.094134,83.557,-0.12987,0.094858,-4.2674e-05,0.9,0.36,0
0.007182,0.023833,0.023019,-0.18649,-0.13001,-0.10761,0.0097908,0,0,-0.70205,-0.052946,0,0.14105,0,0,0.18184,-0.09993,0,0.21791,-0.1271,-0.18941,-0.10761,73.88,-0.14137,0.077175,-2.5919e-05,0.92,0.36,0
0.0057447,0.020928,0.018934,-0.22001,-0.26514,-0.16448,0.011086,0,0,-0.072192,-0.13086,0,0.028824,0,0,0.23988,-0.15936,0,0.28997,-0.21744,-0.26772,-0.16448,13.083,-0.21654,0.089416,1.6471e-06,0.94,0.36,0
0.0042944,0.018679,0.013423,-0.23622,-0.29291,-0.17216,0.018131,0,0,-0.083275,-0.15697,0,0.047142,0,0,0.29972,-0.11324,0,0.32062,-0.23092,-0.29821,-0.17216,16.303,-0.23376,0.10925,-7.8376e-06,0.96,0.36,0
0.0024137,0.017509,0.0069454,-0.25156,-0.28855,-0.16898,0.014127,0,0,-0.10736,-0.15544,0,0.036729,0,0,0.33559,-0.056574,0,0.33968,-0.24678,-0.29332,-0.16898,18.689,-0.23636,0.10882,2.7735e-05,0.98,0.36,0
0,0.017189,0,-0.25099,-0.2762,-0.15816,-0.0061485,0,0,-0.12069,-0.15345,0,-0.015986,0,0,0.34727,0,0,0.34648,-0.24957,-0.27762,-0.15816,-13.003,-0.22845,0.1082,5.062e-05,1,0.36,0
0,0.059199,1,-0.40898,-1.5642,-1.5919,-0.0013959,0,0,1.5379,0.036108,0,-0.0036292,0,0,0.34002,-8.7083e-16,0,0.33952,-0.40897,-1.5642,-1.5919,-0.069232,-1.1884,1.1693,0.081961,0,0.38,0
0.030757,0.059126,0.9932,-0.39475,-1.5524,-1.5773,-0.024055,0,0,1.5374,0.032448,0,-0.062544,0,0,0.334,0.045006,0,0.33655,-0.39425,-1.5529,-1.5773,-1.1899,-1.1748,1.171,0.082359,0.02,0.38,0
0.061495,0.058926,0.98664,-0.37529,-1.5491,-1.564,-0.04651,0,0,1.5453,0.019277,0,-0.12093,0,0,0.31423,0.091336,0,0.32691,-0.37345,-1.551,-1.564,-2.2654,-1.1628,1.1841,0.08523,0.04,0.38,0
0.092568,0.05889,0.98063,-0.34846,-1.5604,-1.5533,-0.060172,0,0,1.5663,-0.0092308,0,-0.15645,0,0,0.27732,0.13845,0,0.31032,-0.34548,-1.5634,-1.5533,-2.8354,-1.154,1.2129,0.091616,0.06,0.38,0
0.12415,0.059606,0.97555,-0.32206,-1.5687,-1.5428,-0.052745,0,0,1.5869,-0.033707,0,-0.13714,0,0,0.22193,0.17616,0,0.28502,-0.31984,-1.5709,-1.5428,-2.4184,-1.1445,1.2373,0.097107,0.08,0.38,0
0.15605,0.061605,0.97175,-0.26075,-0.88029,-0.87678,-0.036665,0,0,0.83074,-0.0083025,0,-0.43529,0,0,0.16978,0.10572,0,0.21129,-0.2468,-0.89424,-0.87678,-22.114,-0.67261,0.64158,0.048076,0.1,0.38,0
0.15737,0.050798,0.94178,-0.23393,-0.26077,-0.24259,-0.025139,0,0,0.11256,-0.23638,0,-0.65361,0,0,0.14602,0.017881,0,0.14716,-0.21885,-0.27585,-0.24259,-30.952,-0.24576,0.049587,-1.7821e-06,0.12,0.38,0
0.16055,0.042951,0.91335,-0.22533,-0.2651,-0.23846,-0.017392,0,0,0.17072,-0.34623,0,-0.45219,0,0,0.13892,0.013285,0,0.13957,-0.2188,-0.27163,-0.23846,-20.588,-0.24296,0.046249,-2.1615e-06,0.14,0.38,0
0.1642,0.037933,0.88621,-0.22032,-0.26427,-0.234,-0.010512,0,0,0.17785,-0.39356,0,-0.27332,0,0,0.13345,0.0064063,0,0.13358,-0.21793,-0.26666,-0.234,-12.781,-0.23953,0.043005,-2.2469e-06,0.16,0.38,0
0.16766,0.034884,0.85997,-0.21744,-0.26165,-0.22973,-0.0051531,0,0,0.1597,-0.41507,0,-0.13398,0,0,0.13007,-0.0013141,0,0.13005,-0.21685,-0.26225,-0.22973,-6.5607,-0.23627,0.040525,-2.2907e-06,0.18,0.38,0
0.17059,0.033144,0.83418,-0.21583,-0.25847,-0.22571,-0.00074913,0,0,0.12843,-0.42593,0,-0.019477,0,0,0.12873,-0.0092362,0,0.12903,-0.21582,-0.25849,-0.22571,-1.0061,-0.23334,0.038684,-2.3306e-06,0.2,0.38,0
0.1728,0.03235,0.80847,-0.21513,-0.2551,-0.22192,0.0032478,0,0,0.088195,-0.4314,0,0.084443,0,0,0.12924,-0.017172,0,0.13033,-0.21487,-0.25537,-0.22192,4.6155,-0.23072,0.03747,-2.383e-06,0.22,0.38,0
0.17412,0.0324,0.78249,-0.2153,-0.25171,-0.21835,0.0073193,0,0,0.039628,-0.43364,0,0.1903,0,0,0.13156,-0.025061,0,0.1339,-0.21389,-0.25313,-0.21835,10.953,-0.22846,0.037207,-2.5176e-06,0.24,0.38,0
0.17438,0.033413,0.75585,-0.21633,-0.2482,-0.21494,0.011928,0,0,-0.018043,-0.43229,0,0.31014,0,0,0.1359,-0.032791,0,0.13979,-0.21236,-0.25217,-0.21494,18.411,-0.22649,0.03858,-2.9046e-06,0.26,0.38,0
0.1734,0.035771,0.72813,-0.21841,-0.24427,-0.21162,0.0176,0,0,-0.088367,-0.42443,0,0.45759,0,0,0.14258,-0.039993,0,0.14811,-0.2095,-0.25317,-0.21162,26.853,-0.22476,0.042655,-3.9529e-06,0.28,0.38,0
0.17085,0.040189,0.69882,-0.22229,-0.23893,-0.20825,0.024962,0,0,-0.18252,-0.39888,0,0.649,0,0,0.15165,-0.045636,0,0.15845,-0.2043,-0.25692,-0.20825,35.781,-0.22315,0.050764,-6.5819e-06,0.3,0.38,0
0.1661,0.047703,0.66747,-0.2295,-0.22904,-0.20431,0.033664,0,0,-0.32747,-0.32149,0,0.87526,0,0,0.1623,-0.047719,0,0.16927,-0.1956,-0.26293,-0.20431,45.196,-0.22095,0.063427,-1.2277e-05,0.32,0.38,0
0.15775,0.05879,0.6339,-0.24867,-0.68212,-0.62788,0.048747,0,0,0.30519,-0.12821,0,0.57496,0,0,0.19458,-0.24783,0,0.33816,-0.2212,-0.70959,-0.62788,28.442,-0.51956,0.46129,0.015012,0.34,0.38,0
0.1783,0.053033,0.62947,-0.30283,-1.1942,-1.0786,0.082147,0,0,1.0085,-0.15032,0,0.21358,0,0,0.26435,-0.424,0,0.50122,-0.29532,-1.2017,-1.0786,5.2215,-0.85854,0.85154,0.029489,0.36,0.38,0
0.19809,0.049302,0.62332,-0.33089,-1.1555,-1.0693,0.11041,0,0,0.95986,-0.11216,0,0.28705,0,0,0.33815,-0.3666,0,0.49895,-0.31637,-1.1701,-1.0693,7.4951,-0.85189,0.80801,0.025678,0.38,0.38,0
0.2167,0.047193,0.61594,-0.36025,-1.0986,-1.0536,0.11149,0,0,0.90136,-0.058522,0,0.28987,0,0,0.38645,-0.29296,0,0.48423,-0.34378,-1.1151,-1.0536,8.4017,-0.83749,0.74248,0.020537,0.4,0.38,0
0.23414,0.045953,0.60786,-0.37965,-1.0456,-1.0354,0.0924,0,0,0.85254,-0.013254,0,0.24024,0,0,0.40908,-0.21457,0,0.46076,-0.36707,-1.0582,-1.0354,7.7541,-0.82025,0.68006,0.016092,0.42,0.38,0
0.2508,0.045012,0.59958,-0.3754,-0.99114,-1.0095,0.058676,0,0,0.82439,0.023921,0,0.15256,0,0,0.40629,-0.13034,0,0.42514,-0.36986,-0.99669,-1.0095,5.3952,-0.79203,0.63335,0.01303,0.44,0.38,0
0.26712,0.044072,0.59161,-0.33765,-0.93598,-0.9737,0.020684,0,0,0.82687,0.049033,0,0.053778,0,0,0.36821,-0.037068,0,0.36841,-0.33694,-0.9367,-0.9737,1.9775,-0.74911,0.61909,0.01204,0.46,0.38,0
0.28388,0.043646,0.58485,-0.31342,-0.90929,-0.95166,-0.0091288,0,0,0.82972,0.055086,0,-0.023735,0,0,0.28604,0.065895,0,0.29826,-0.31328,-0.90943,-0.95166,-0.8775,-0.72479,0.61835,0.011952,0.48,0.38,0
0.30031,0.043949,0.58017,-0.23639,-0.45964,-0.5279,-0.010724,0,0,0.092163,0.16134,0,-0.16051,0,0,0.1977,0.058938,0,0.21346,-0.20455,-0.49147,-0.5279,-40.507,-0.40798,0.31995,0.0042531,0.5,0.38,0
0.28756,0.038883,0.5479,-0.21763,-0.17366,-0.17218,-0.01207,0,0,-0.59084,-0.019284,0,-0.31382,0,0,0.15468,0.015164,0,0.15562,-0.17056,-0.22072,-0.17218,-75.615,-0.18782,0.049371,-6.1585e-06,0.52,0.38,0
0.27668,0.035819,0.5183,-0.20555,-0.1752,-0.16606,-0.009573,0,0,-0.51344,-0.1189,0,-0.2489,0,0,0.14282,0.011238,0,0.14333,-0.17244,-0.20832,-0.16606,-73.877,-0.18227,0.039462,-2.8801e-06,0.54,0.38,0
0.26702,0.033471,0.49078,-0.19612,-0.17482,-0.16036,-0.0081303,0,0,-0.46492,-0.18795,0,-0.21139,0,0,0.13448,0.0061333,0,0.13463,-0.17207,-0.19887,-0.16036,-71.324,-0.1771,0.034195,-1.2712e-06,0.56,0.38,0
0.25808,0.031319,0.46451,-0.18915,-0.17407,-0.15542,-0.0071081,0,0,-0.43854,-0.24251,0,-0.18481,0,0,0.1294,0.0018732,0,0.12942,-0.17125,-0.19197,-0.15542,-68.344,-0.17288,0.031753,-3.7698e-07,0.58,0.38,0
0.24948,0.029177,0.43902,-0.18384,-0.17269,-0.15086,-0.0062723,0,0,-0.42874,-0.2838,0,-0.16308,0,0,0.12619,-0.0013876,0,0.12619,-0.16987,-0.18666,-0.15086,-65.815,-0.16913,0.031021,1.6506e-07,0.6,0.38,0
0.24093,0.02705,0.41403,-0.17985,-0.17075,-0.14658,-0.0054639,0,0,-0.43247,-0.31414,0,-0.14206,0,0,0.12406,-0.0037939,0,0.12412,-0.16819,-0.18241,-0.14658,-64.896,-0.16573,0.031246,5.4497e-07,0.62,0.38,0
0.23218,0.024985,0.38939,-0.1768,-0.16823,-0.14245,-0.0046219,0,0,-0.4466,-0.33512,0,-0.12017,0,0,0.12262,-0.0055376,0,0.12275,-0.16621,-0.17882,-0.14245,-66.426,-0.16249,0.031988,8.4354e-07,0.64,0.38,0
0.22307,0.023049,0.36498,-0.17446,-0.16516,-0.13839,-0.0037103,0,0,-0.46899,-0.3481,0,-0.096469,0,0,0.12168,-0.0067989,0,0.12187,-0.16386,-0.17576,-0.13839,-70.706,-0.15934,0.033072,1.0801e-06,0.66,0.38,0
0.21342,0.021299,0.34072,-0.17267,-0.16161,-0.13436,-0.0027146,0,0,-0.49813,-0.35426,0,-0.070579,0,0,0.1211,-0.0077378,0,0.12134,-0.16098,-0.1733,-0.13436,-76.934,-0.15621,0.034479,1.2341e-06,0.68,0.38,0
0.20314,0.019783,0.31654,-0.17134,-0.15762,-0.13034,-0.0016262,0,0,-0.53299,-0.35461,0,-0.042282,0,0,0.12083,-0.0084977,0,0.12113,-0.15743,-0.17153,-0.13034,-83.333,-0.1531,0.036257,1.2589e-06,0.7,0.38,0
0.1921,0.018533,0.29239,-0.17042,-0.15327,-0.12634,-0.00043588,0,0,-0.57293,-0.35,0,-0.011333,0,0,0.12084,-0.0092122,0,0.1212,-0.15326,-0.17043,-0.12634,-88.545,-0.15001,0.038486,1.0879e-06,0.72,0.38,0
0.18022,0.017565,0.26821,-0.16988,-0.14861,-0.12237,0.00087038,0,0,-0.61765,-0.34115,0,0.02263,0,0,0.12115,-0.010012,0,0.12156,-0.14857,-0.16991,-0.12237,87.661,-0.14695,0.041249,6.3487e-07,0.74,0.38,0
0.1674,0.016883,0.24393,-0.16975,-0.14371,-0.11843,0.0023125,0,0,-0.66718,-0.32858,0,0.060125,0,0,0.12177,-0.011033,0,0.12226,-0.1435,-0.16996,-0.11843,84.966,-0.14396,0.044628,-2.1199e-07,0.76,0.38,0
0.15354,0.016481,0.2195,-0.17011,-0.13862,-0.11457,0.0039173,0,0,-0.722,-0.31266,0,0.10185,0,0,0.12277,-0.012423,0,0.1234,-0.13814,-0.17058,-0.11457,83.014,-0.1411,0.048716,-1.6049e-06,0.78,0.38,0
0.13852,0.016344,0.19482,-0.17107,-0.1334,-0.11082,0.005718,0,0,-0.7832,-0.29351,0,0.14867,0,0,0.12428,-0.014349,0,0.12511,-0.13255,-0.17192,-0.11082,81.556,-0.13843,0.053639,-3.7686e-06,0.8,0.38,0
0.12221,0.016453,0.16979,-0.17288,-0.1281,-0.10727,0.0077503,0,0,-0.85285,-0.27081,0,0.20151,0,0,0.12653,-0.016998,0,0.12767,-0.1268,-0.17418,-0.10727,80.452,-0.13609,0.059594,-7.0656e-06,0.82,0.38,0
0.1044,0.016792,0.14421,-0.17591,-0.12277,-0.10402,0.010025,0,0,-0.93445,-0.24372,0,0.26064,0,0,0.12993,-0.020569,0,0.13156,-0.12094,-0.17773,-0.10402,79.663,-0.13423,0.066875,-1.2109e-05,0.84,0.38,0
0.084829,0.017347,0.11781,-0.18052,-0.11735,-0.10114,0.012509,0,0,-1.0319,-0.21067,0,0.32523,0,0,0.13533,-0.025192,0,0.13767,-0.11496,-0.18291,-0.10114,79.198,-0.133,0.075807,-1.9892e-05,0.86,0.38,0
0.063128,0.018177,0.09008,-0.18701,-0.11194,-0.098693,0.01515,0,0,-1.1481,-0.17226,0,0.39391,0,0,0.14411,-0.030634,0,0.1474,-0.109,-0.18995,-0.098693,79.009,-0.13255,0.086564,-3.1728e-05,0.88,0.38,0
0.038906,0.019625,0.060168,-0.19534,-0.10635,-0.096523,0.018498,0,0,-1.2846,-0.12773,0,0.48095,0,0,0.15632,-0.034536,0,0.16029,-0.10266,-0.19903,-0.096523,78.713,-0.13274,0.099583,-5.0072e-05,0.9,0.38,0
0.011743,0.023072,0.027552,-0.20227,-0.1327,-0.11564,0.025161,0,0,-0.72378,-0.040309,0,0.28694,0,0,0.19855,-0.1629,0,0.27276,-0.12212,-0.21286,-0.11564,70.138,-0.15021,0.094387,-4.4683e-05,0.92,0.38,0
0.009955,0.018307,0.022871,-0.26668,-0.29644,-0.19181,0.053937,0,0,-0.097334,-0.13603,0,0.14024,0,0,0.28434,-0.25678,0,0.3859,-0.22561,-0.33751,-0.19181,37.288,-0.25164,0.13209,-9.2748e-05,0.94,0.38,0
0.00785,0.01571,0.016178,-0.29493,-0.27401,-0.18686,0.056688,0,0,-0.14049,-0.11329,0,0.14739,0,0,0.36458,-0.15924,0,0.39675,-0.22682,-0.34211,-0.18686,50.227,-0.25193,0.13963,-0.00010216,0.96,0.38,0
0.0043354,0.014813,0.008288,-0.34013,-0.26281,-0.18917,0.035141,0,0,-0.19625,-0.095731,0,0.091367,0,0,0.40445,-0.075471,0,0.41023,-0.24923,-0.35372,-0.18917,68.865,-0.26404,0.14422,-6.8954e-05,0.98,0.38,0
0,0.014587,0,-0.3435,-0.24567,-0.17675,-0.0043527,0,0,-0.21677,-0.089595,0,-0.011317,0,0,0.4144,-1.3878e-17,0,0.41325,-0.24548,-0.34369,-0.17675,-87.457,-0.25531,0.14533,-4.732e-05,1,0.38,0
0,0.060334,1,-0.46722,-1.5412,-1.6025,-0.002795,0,0,1.4759,0.07971,0,-0.007267,0,0,0.39057,2.0643e-15,0,0.38993,-0.46721,-1.5412,-1.6025,-0.14911,-1.2037,1.1059,0.068754,0,0.4,0
0.029518,0.060188,0.99219,-0.45427,-1.5262,-1.5863,-0.029691,0,0,1.4717,0.078161,0,-0.077195,0,0,0.38593,0.05459,0,0.3891,-0.45345,-1.527,-1.5863,-1.5854,-1.1889,1.1044,0.068516,0.02,0.4,0
0.058867,0.05972,0.98456,-0.4407,-1.5194,-1.5726,-0.064591,0,0,1.4715,0.069162,0,-0.16794,0,0,0.36979,0.11373,0,0.38614,-0.43685,-1.5232,-1.5726,-3.4146,-1.1776,1.1119,0.070132,0.04,0.4,0
0.088376,0.058899,0.9774,-0.39272,-1.5209,-1.5515,-0.097951,0,0,1.5064,0.039785,0,-0.25467,0,0,0.33032,0.18221,0,0.37664,-0.38428,-1.5293,-1.5515,-4.9256,-1.155,1.1563,0.079298,0.06,0.4,0
0.11912,0.058771,0.97135,-0.35783,-1.5922,-1.5563,-0.10752,0,0,1.5581,-0.046584,0,-0.27954,0,0,0.25709,0.26338,0,0.37046,-0.34853,-1.6015,-1.5563,-4.9411,-1.1688,1.231,0.095375,0.08,0.4,0
0.1507,0.061218,0.96711,-0.28146,-0.92159,-0.89283,-0.062445,0,0,0.84277,-0.067985,0,-0.67483,0,0,0.18027,0.16154,0,0.25772,-0.26008,-0.94298,-0.89283,-22.144,-0.69863,0.66309,0.04973,0.1,0.4,0
0.15283,0.045106,0.93737,-0.23316,-0.27389,-0.24585,-0.036666,0,0,0.16501,-0.36452,0,-0.95331,0,0,0.14277,0.029287,0,0.14589,-0.21158,-0.29547,-0.24585,-30.475,-0.25097,0.073051,-6.2167e-06,0.12,0.4,0
0.1573,0.035141,0.91001,-0.22182,-0.27482,-0.23999,-0.02356,0,0,0.23625,-0.45273,0,-0.61256,0,0,0.1322,0.021066,0,0.13388,-0.21286,-0.28378,-0.23999,-20.82,-0.24554,0.061977,-4.8094e-06,0.14,0.4,0
0.16228,0.029353,0.8845,-0.21579,-0.2711,-0.23452,-0.014116,0,0,0.2434,-0.47554,0,-0.36701,0,0,0.12498,0.010882,0,0.12541,-0.2124,-0.27449,-0.23452,-13.522,-0.24047,0.05451,-3.9414e-06,0.16,0.4,0
0.16704,0.026,0.86001,-0.21254,-0.26706,-0.22988,-0.0072205,0,0,0.22541,-0.48333,0,-0.18773,0,0,0.12125,0.00082107,0,0.12119,-0.2116,-0.268,-0.22988,-7.418,-0.2365,0.04984,-3.5963e-06,0.18,0.4,0
0.1713,0.024112,0.836,-0.21065,-0.26301,-0.2257,-0.0017511,0,0,0.19566,-0.48511,0,-0.04553,0,0,0.11992,-0.0089292,0,0.12019,-0.21059,-0.26307,-0.2257,-1.9131,-0.23312,0.046796,-3.4728e-06,0.2,0.4,0
0.17486,0.023244,0.81205,-0.20996,-0.25946,-0.22203,0.0031402,0,0,0.15689,-0.48655,0,0.081646,0,0,0.12045,-0.018525,0,0.1218,-0.20976,-0.25966,-0.22203,3.6158,-0.23048,0.04503,-3.5426e-06,0.22,0.4,0
0.17758,0.023248,0.78782,-0.21036,-0.25647,-0.21883,0.0081151,0,0,0.11012,-0.48931,0,0.21099,0,0,0.12278,-0.028188,0,0.12592,-0.20897,-0.25786,-0.21883,9.6958,-0.22855,0.044776,-3.8679e-06,0.24,0.4,0
0.17927,0.02426,0.76293,-0.21203,-0.254,-0.2161,0.013804,0,0,0.05289,-0.49262,0,0.35891,0,0,0.12726,-0.038096,0,0.1328,-0.2079,-0.25813,-0.2161,16.671,-0.22738,0.046673,-4.6827e-06,0.26,0.4,0
0.17969,0.026701,0.73691,-0.21514,-0.25158,-0.21371,0.020943,0,0,-0.018616,-0.49233,0,0.54451,0,0,0.1348,-0.048247,0,0.14318,-0.2056,-0.26112,-0.21371,24.489,-0.22681,0.051941,-6.6098e-06,0.28,0.4,0
0.17852,0.031492,0.70901,-0.22066,-0.24893,-0.21178,0.030578,0,0,-0.11549,-0.48298,0,0.79503,0,0,0.14676,-0.058052,0,0.15794,-0.20111,-0.26848,-0.21178,32.596,-0.22713,0.062723,-1.1448e-05,0.3,0.4,0
0.17507,0.040439,0.67821,-0.23109,-0.24284,-0.21,0.044133,0,0,-0.27417,-0.42689,0,1.1475,0,0,0.16261,-0.06415,0,0.17508,-0.19244,-0.28148,-0.21,41.209,-0.22797,0.081692,-2.3699e-05,0.32,0.4,0
0.16756,0.056067,0.64397,-0.27333,-0.7321,-0.65582,0.074031,0,0,0.32814,-0.18031,0,0.7972,0,0,0.21369,-0.32241,0,0.41071,-0.23853,-0.7669,-0.65582,27.488,-0.55375,0.49017,0.016248,0.34,0.4,0
0.1882,0.04983,0.63885,-0.35183,-1.2477,-1.1187,0.14334,0,0,0.99695,-0.16771,0,0.37269,0,0,0.31744,-0.54068,0,0.62923,-0.32945,-1.2701,-1.1187,8.8723,-0.90609,0.87483,0.030945,0.36,0.4,0
0.20743,0.047249,0.63127,-0.39559,-1.1385,-1.0915,0.15961,0,0,0.90467,-0.06106,0,0.41498,0,0,0.41797,-0.4272,0,0.59704,-0.36275,-1.1713,-1.0915,11.627,-0.87518,0.77175,0.022758,0.38,0.4,0
0.22438,0.046537,0.62213,-0.4596,-1.0799,-1.084,0.14219,0,0,0.81168,0.0053344,0,0.36969,0,0,0.47534,-0.32581,0,0.57511,-0.42856,-1.1109,-1.084,12.315,-0.87448,0.66928,0.015314,0.4,0.4,0
0.2399,0.046349,0.61226,-0.4893,-1.0157,-1.0638,0.10767,0,0,0.7468,0.062471,0,0.27993,0,0,0.50171,-0.22796,0,0.54959,-0.46813,-1.0369,-1.0638,11.124,-0.85626,0.58265,0.010086,0.42,0.4,0
0.25426,0.046278,0.60206,-0.50162,-0.94613,-1.0364,0.059053,0,0,0.6952,0.11733,0,0.15354,0,0,0.50896,-0.12424,0,0.52187,-0.4939,-0.95384,-1.0364,7.4397,-0.82804,0.50628,0.0060721,0.44,0.4,0
0.26771,0.045955,0.5919,-0.48435,-0.87429,-0.99949,-0.01188,0,0,0.66969,0.16276,0,-0.030888,0,0,0.49401,-0.0030151,0,0.49077,-0.48399,-0.87465,-0.99949,-1.7434,-0.78604,0.46581,0.0039611,0.46,0.4,0
0.28104,0.04494,0.5823,-0.35391,-0.78911,-0.92521,-0.074533,0,0,0.74268,0.17692,0,-0.19379,0,0,0.38268,0.15807,0,0.40696,-0.3415,-0.80152,-0.92521,-9.4539,-0.68941,0.53274,0.0063769,0.48,0.4,0
0.29742,0.047334,0.57659,-0.25529,-0.4958,-0.54245,-0.096075,0,0,0.049139,0.11027,0,-0.68628,0,0,0.22595,0.236,0,0.34799,-0.19429,-0.5568,-0.54245,-40.047,-0.43118,0.36905,0.0069261,0.5,0.4,0
0.28301,0.038381,0.54327,-0.22553,-0.18616,-0.17783,-0.030004,0,0,-0.62003,-0.10826,0,-0.78011,0,0,0.15375,0.033006,0,0.15743,-0.16996,-0.24173,-0.17783,-61.633,-0.19651,0.068174,-1.5544e-05,0.52,0.4,0
0.27261,0.033226,0.51509,-0.20367,-0.17985,-0.16656,-0.020759,0,0,-0.48237,-0.17267,0,-0.53972,0,0,0.13572,0.019768,0,0.13711,-0.16782,-0.21569,-0.16656,-59.924,-0.18336,0.048509,-5.8494e-06,0.54,0.4,0
0.26371,0.02954,0.48898,-0.19283,-0.17767,-0.16005,-0.015519,0,0,-0.42619,-0.22908,0,-0.40349,0,0,0.1283,0.01088,0,0.12874,-0.16798,-0.20252,-0.16005,-58.018,-0.17685,0.039116,-2.653e-06,0.56,0.4,0
0.25557,0.026304,0.46377,-0.18575,-0.17576,-0.15483,-0.012366,0,0,-0.40196,-0.27205,0,-0.32152,0,0,0.12482,0.0047613,0,0.1249,-0.16742,-0.19409,-0.15483,-56.001,-0.17211,0.034723,-1.2369e-06,0.58,0.4,0
0.24763,0.023362,0.43905,-0.18109,-0.17396,-0.15042,-0.010127,0,0,-0.39869,-0.30603,0,-0.2633,0,0,0.12286,0.00048429,0,0.12286,-0.16679,-0.18826,-0.15042,-54.693,-0.16849,0.03287,-4.2129e-07,0.6,0.4,0
0.23962,0.020643,0.41463,-0.1777,-0.17186,-0.14633,-0.0083912,0,0,-0.40781,-0.33189,0,-0.21817,0,0,0.12166,-0.002539,0,0.12169,-0.1659,-0.18367,-0.14633,-54.593,-0.1653,0.032345,1.446e-07,0.62,0.4,0
0.23132,0.018168,0.39039,-0.17511,-0.16931,-0.14236,-0.0068865,0,0,-0.42566,-0.35032,0,-0.17905,0,0,0.12089,-0.0046943,0,0.12098,-0.16474,-0.17968,-0.14236,-56.41,-0.16226,0.03253,5.9531e-07,0.64,0.4,0
0.22259,0.015974,0.36627,-0.17305,-0.16628,-0.13842,-0.0054785,0,0,-0.45013,-0.36207,0,-0.14244,0,0,0.1204,-0.0062559,0,0.12056,-0.16322,-0.17611,-0.13842,-60.864,-0.15925,0.033171,9.6659e-07,0.66,0.4,0
0.21332,0.014098,0.34223,-0.17139,-0.16278,-0.13447,-0.0040895,0,0,-0.47989,-0.36797,0,-0.10633,0,0,0.1201,-0.007434,0,0.12033,-0.16115,-0.17302,-0.13447,-68.233,-0.15621,0.034193,1.2497e-06,0.68,0.4,0
0.2034,0.012567,0.31823,-0.17003,-0.15887,-0.13049,-0.0026689,0,0,-0.51398,-0.36891,0,-0.06939,0,0,0.11996,-0.0084026,0,0.12025,-0.15827,-0.17064,-0.13049,-77.219,-0.15313,0.035607,1.4106e-06,0.7,0.4,0
0.19276,0.011395,0.29425,-0.16894,-0.15462,-0.12649,-0.0011745,0,0,-0.55179,-0.36567,0,-0.030538,0,0,0.11995,-0.0093173,0,0.12031,-0.15452,-0.16903,-0.12649,-85.341,-0.15002,0.037457,1.3982e-06,0.72,0.4,0
0.18133,0.010585,0.27025,-0.16809,-0.15009,-0.12248,0.00043641,0,0,-0.59297,-0.35895,0,0.011347,0,0,0.12008,-0.010329,0,0.12053,-0.15008,-0.16811,-0.12248,88.612,-0.14689,0.0398,1.1464e-06,0.74,0.4,0
0.16904,0.010129,0.24621,-0.16752,-0.14536,-0.11848,0.002215,0,0,-0.63742,-0.34938,0,0.05759,0,0,0.12038,-0.011595,0,0.12093,-0.14514,-0.16774,-0.11848,84.347,-0.14379,0.042701,5.6875e-07,0.76,0.4,0
0.15583,0.010015,0.2221,-0.16726,-0.14049,-0.11454,0.0042298,0,0,-0.6854,-0.33745,0,0.10998,0,0,0.12087,-0.013297,0,0.1216,-0.13984,-0.16791,-0.11454,81.23,-0.14076,0.046246,-4.5512e-07,0.78,0.4,0
0.14162,0.010224,0.19787,-0.16745,-0.13558,-0.1107,0.0065836,0,0,-0.73777,-0.32352,0,0.17117,0,0,0.12165,-0.015655,0,0.12265,-0.13428,-0.16875,-0.1107,78.774,-0.13791,0.050575,-2.1144e-06,0.8,0.4,0
0.12632,0.010748,0.17344,-0.16834,-0.13073,-0.10707,0.0094353,0,0,-0.79659,-0.30765,0,0.24532,0,0,0.1229,-0.018961,0,0.12434,-0.1285,-0.17058,-0.10707,76.678,-0.13538,0.055962,-4.7558e-06,0.82,0.4,0
0.10976,0.011594,0.14871,-0.17049,-0.12608,-0.10384,0.01304,0,0,-0.86645,-0.28908,0,0.33904,0,0,0.12497,-0.023625,0,0.12716,-0.12253,-0.17404,-0.10384,74.789,-0.13347,0.062966,-9.1153e-06,0.84,0.4,0
0.091661,0.012821,0.12345,-0.17515,-0.12187,-0.10145,0.017694,0,0,-0.95804,-0.2655,0,0.46004,0,0,0.12871,-0.030265,0,0.13219,-0.11653,-0.18049,-0.10145,73.202,-0.13282,0.072679,-1.6891e-05,0.86,0.4,0
0.071438,0.014492,0.097224,-0.18399,-0.11811,-0.10035,0.023903,0,0,-1.0873,-0.23081,0,0.62148,0,0,0.13682,-0.039811,0,0.14246,-0.11035,-0.19175,-0.10035,72.017,-0.13415,0.086831,-3.2127e-05,0.88,0.4,0
0.048169,0.016995,0.068725,-0.20142,-0.11719,-0.10246,0.032958,0,0,-1.2865,-0.1916,0,0.85691,0,0,0.1559,-0.053667,0,0.16512,-0.10583,-0.21278,-0.10246,70.976,-0.14036,0.10868,-6.5709e-05,0.9,0.4,0
0.019978,0.022221,0.034866,-0.21751,-0.18199,-0.13902,0.10548,0,0,-0.73632,-0.10155,0,0.74322,0,0,0.22616,-0.33984,0,0.42937,-0.081829,-0.31766,-0.13902,56.627,-0.1795,0.2147,-0.00047453,0.92,0.4,0
0.018716,0.015487,0.029205,-0.31581,-0.23602,-0.19476,0.1274,0,0,-0.15737,-0.053645,0,0.33125,0,0,0.37683,-0.33774,0,0.5017,-0.14241,-0.40942,-0.19476,53.694,-0.24886,0.24507,-0.0006412,0.94,0.4,0
0.013683,0.014147,0.019793,-0.4473,-0.23898,-0.22567,0.10574,0,0,-0.28811,-0.017292,0,0.27492,0,0,0.48103,-0.18894,0,0.51434,-0.19471,-0.49156,-0.22567,67.285,-0.30398,0.28264,-0.0011129,0.96,0.4,0
0.0071918,0.01368,0.0099642,-0.48615,-0.22401,-0.22301,0.053314,0,0,-0.34208,-0.0012978,0,0.13862,0,0,0.49482,-0.085781,0,0.50074,-0.21358,-0.49658,-0.22301,78.933,-0.31106,0.2784,-0.001104,0.98,0.4,0
0,0.013605,0,-0.48203,-0.2027,-0.20542,-0.001429,0,0,-0.35959,0.0035346,0,-0.0037153,0,0,0.49821,1.0408e-17,0,0.49699,-0.20269,-0.48203,-0.20542,-89.707,-0.29671,0.27799,-0.001103,1,0.4,0
0,0.062387,1,-0.52602,-1.5201,-1.6138,-0.0025873,0,0,1.4141,0.12189,0,-0.0067269,0,0,0.4492,-1.2143e-16,0,0.44854,-0.52602,-1.5201,-1.6138,-0.14913,-1.22,1.0441,0.056871,0,0.42,0
0.028283,0.062252,0.99102,-0.5185,-1.5005,-1.5967,-0.026961,0,0,1.4017,0.12512,0,-0.070098,0,0,0.44774,0.059811,0,0.45098,-0.51776,-1.5012,-1.5967,-1.5716,-1.2052,1.0345,0.05523,0.02,0.42,0
0.056066,0.061693,0.98209,-0.52694,-1.4846,-1.5856,-0.063813,0,0,1.3762,0.13123,0,-0.16591,0,0,0.44185,0.12684,0,0.45867,-0.5227,-1.4888,-1.5856,-3.7955,-1.199,1.0179,0.052529,0.04,0.42,0
0.083331,0.060481,0.97334,-0.52399,-1.4768,-1.5736,-0.12518,0,0,1.3644,0.12586,0,-0.32546,0,0,0.42697,0.21162,0,0.47471,-0.50782,-1.4929,-1.5736,-7.3614,-1.1914,1.0278,0.054607,0.06,0.42,0
0.11064,0.057742,0.96501,-0.37491,-1.4649,-1.517,-0.17474,0,0,1.4847,0.067624,0,-0.45433,0,0,0.33342,0.33621,0,0.47052,-0.34759,-1.4923,-1.517,-8.8884,-1.1189,1.1572,0.079474,0.08,0.42,0
0.14272,0.058886,0.96,-0.31416,-1.0457,-0.93597,-0.1555,0,0,0.86688,-0.2594,0,-1.2222,0,0,0.20001,0.31708,0,0.39379,-0.26617,-1.0937,-0.93597,-24.125,-0.76528,0.7659,0.064749,0.1,0.42,0
0.14532,0.036217,0.93007,-0.23692,-0.30101,-0.25439,-0.053942,0,0,0.22702,-0.60611,0,-1.4025,0,0,0.13771,0.046576,0,0.14556,-0.20622,-0.33171,-0.25439,-29.644,-0.26411,0.10965,-2.6371e-05,0.12,0.42,0
0.1518,0.024841,0.90492,-0.21614,-0.28823,-0.2418,-0.031534,0,0,0.33363,-0.60359,0,-0.81988,0,0,0.12051,0.029245,0,0.12389,-0.20429,-0.30008,-0.2418,-20.59,-0.24873,0.083601,-1.0951e-05,0.14,0.42,0
0.15867,0.018911,0.88186,-0.2089,-0.28062,-0.23504,-0.018073,0,0,0.33986,-0.59248,0,-0.46989,0,0,0.1132,0.014967,0,0.11407,-0.2046,-0.28491,-0.23504,-13.374,-0.24152,0.070228,-7.195e-06,0.16,0.42,0
0.16539,0.015551,0.85964,-0.20474,-0.27363,-0.22948,-0.0092847,0,0,0.32156,-0.57404,0,-0.2414,0,0,0.11026,0.0025788,0,0.11019,-0.20351,-0.27486,-0.22948,-7.5426,-0.23595,0.06255,-5.6658e-06,0.18,0.42,0
0.17153,0.01374,0.83775,-0.20298,-0.26831,-0.22516,-0.0026416,0,0,0.28841,-0.56096,0,-0.068682,0,0,0.10939,-0.0087861,0,0.10965,-0.20287,-0.26842,-0.22516,-2.3115,-0.23215,0.057727,-5.1459e-06,0.2,0.42,0
0.17693,0.012888,0.81588,-0.20238,-0.26446,-0.22164,0.0030629,0,0,0.25041,-0.55668,0,0.079636,0,0,0.10998,-0.0198,0,0.11166,-0.20223,-0.26461,-0.22164,2.8176,-0.22949,0.055297,-5.214e-06,0.22,0.42,0
0.18154,0.012827,0.79376,-0.20274,-0.26206,-0.21882,0.0089084,0,0,0.20896,-0.56215,0,0.23162,0,0,0.11199,-0.031029,0,0.11612,-0.20143,-0.26337,-0.21882,8.3593,-0.22787,0.05533,-5.8927e-06,0.24,0.42,0
0.18529,0.013709,0.77109,-0.20447,-0.26111,-0.21678,0.015943,0,0,0.16006,-0.57626,0,0.41452,0,0,0.11584,-0.043028,0,0.12349,-0.20029,-0.26529,-0.21678,14.689,-0.22745,0.058523,-7.6047e-06,0.26,0.42,0
0.18795,0.016078,0.74743,-0.20901,-0.26179,-0.21599,0.025275,0,0,0.090617,-0.59551,0,0.65714,0,0,0.12263,-0.056429,0,0.13491,-0.19886,-0.27194,-0.21599,21.882,-0.22893,0.066202,-1.1609e-05,0.28,0.42,0
0.18891,0.020869,0.72204,-0.21738,-0.26317,-0.21637,0.039046,0,0,-0.013148,-0.60842,0,1.0152,0,0,0.13575,-0.071954,0,0.15363,-0.19501,-0.28554,-0.21637,29.807,-0.23231,0.081962,-2.1938e-05,0.3,0.42,0
0.18742,0.030627,0.69313,-0.23831,-0.26948,-0.22165,0.061653,0,0,-0.2166,-0.62178,0,1.603,0,0,0.16173,-0.090285,0,0.18577,-0.1903,-0.31749,-0.22165,37.907,-0.24315,0.11477,-5.8553e-05,0.32,0.42,0
0.18025,0.051577,0.65734,-0.30956,-0.86749,-0.71465,0.17488,0,0,0.36526,-0.36124,0,1.3627,0,0,0.24563,-0.52731,0,0.60335,-0.23938,-0.93766,-0.71465,28.983,-0.63057,0.62406,0.024324,0.34,0.42,0
0.20203,0.046325,0.6511,-0.38835,-1.1546,-1.114,0.22764,0,0,0.94334,-0.05284,0,0.59188,0,0,0.42335,-0.6373,0,0.76265,-0.32582,-1.2172,-1.114,15.358,-0.88566,0.8445,0.029382,0.36,0.42,0
0.21798,0.04686,0.64041,-0.56011,-1.1181,-1.1439,0.20862,0,0,0.75891,0.033465,0,0.5424,0,0,0.55302,-0.4748,0,0.72683,-0.49075,-1.1875,-1.1439,18.392,-0.94072,0.67601,0.015644,0.38,0.42,0
0.23239,0.047407,0.62898,-0.59402,-1.0599,-1.1252,0.16634,0,0,0.69047,0.084821,0,0.43247,0,0,0.58569,-0.35547,0,0.68368,-0.54073,-1.1132,-1.1252,17.765,-0.92636,0.57854,0.0099312,0.4,0.42,0
0.2456,0.048452,0.61698,-0.61894,-0.98691,-1.0987,0.13279,0,0,0.62373,0.14538,0,0.34524,0,0,0.61065,-0.24696,0,0.65723,-0.57603,-1.0298,-1.0987,17.91,-0.90153,0.49188,0.0057099,0.42,0.42,0
0.25734,0.049705,0.60455,-0.65473,-0.89855,-1.0705,0.08528,0,0,0.54055,0.22357,0,0.22173,0,0,0.63123,-0.13334,0,0.64326,-0.62786,-0.92542,-1.0705,17.487,-0.87461,0.39087,0.0017033,0.44,0.42,0
0.26722,0.050582,0.59173,-0.71627,-0.81482,-1.0511,0.013517,0,0,0.43523,0.30711,0,0.035144,0,0,0.65052,-0.00067723,0,0.64751,-0.71445,-0.81664,-1.0511,7.67,-0.86072,0.29892,-0.00085084,0.46,0.42,0
0.27475,0.050723,0.57853,-0.81764,-0.7611,-1.0521,-0.10405,0,0,0.30486,0.37837,0,-0.27054,0,0,0.71814,0.17758,0,0.73108,-0.68154,-0.89719,-1.0521,-52.601,-0.87696,0.32239,0.00048024,0.48,0.42,0
0.27942,0.048359,0.56301,-0.68606,-0.51965,-0.67137,-0.18407,0,0,-0.22051,0.22029,0,-1.1942,0,0,0.56534,0.27115,0,0.63111,-0.40058,-0.80513,-0.67137,-55.76,-0.62569,0.36055,0.003974,0.5,0.42,0
0.27047,0.034552,0.5347,-0.7516,-0.22734,-0.58777,-0.096497,0,0,-0.38724,0.38241,0,-0.75188,0,0,0.72347,0.051245,0,0.72601,-0.19867,-0.78026,-0.58777,-65.942,-0.52223,0.51795,0.014368,0.52,0.42,0
0.26393,0.028912,0.51039,-0.68078,-0.20646,-0.54689,-0.03503,0,0,-0.31647,0.34548,0,-0.40179,0,0,0.66383,0.027959,0,0.66508,-0.19397,-0.69326,-0.54689,-68.255,-0.47804,0.45,0.011407,0.54,0.42,0
0.25781,0.024308,0.48642,-0.65335,-0.19085,-0.52079,-0.022877,0,0,-0.31332,0.31122,0,-0.28772,0,0,0.65709,0.014063,0,0.65745,-0.18167,-0.66253,-0.52079,-68.141,-0.455,0.43453,0.01052,0.56,0.42,0
0.25139,0.020437,0.4626,-0.64327,-0.18765,-0.50371,-0.015882,0,0,-0.32988,0.27886,0,-0.21811,0,0,0.65452,0.0062169,0,0.65459,-0.18061,-0.65031,-0.50371,-68.302,-0.44488,0.42397,0.0093637,0.58,0.42,0
0.24461,0.016936,0.43882,-0.63541,-0.18456,-0.48734,-0.01195,0,0,-0.34997,0.24902,0,-0.17405,0,0,0.65387,0.0011751,0,0.65387,-0.1789,-0.64107,-0.48734,-68.416,-0.43577,0.41666,0.0082941,0.6,0.42,0
0.2374,0.013774,0.41505,-0.62931,-0.18144,-0.4715,-0.0089654,0,0,-0.37301,0.22252,0,-0.14044,0,0,0.65384,-0.0021956,0,0.65385,-0.17694,-0.63382,-0.4715,-68.865,-0.42742,0.41142,0.0072686,0.62,0.42,0
0.22969,0.010972,0.39127,-0.62481,-0.17791,-0.45601,-0.0064804,0,0,-0.39897,0.19964,0,-0.11214,0,0,0.65399,-0.0045114,0,0.65403,-0.1745,-0.62821,-0.45601,-69.966,-0.41958,0.40817,0.0062825,0.64,0.42,0
0.22144,0.008566,0.36749,-0.62188,-0.17399,-0.44088,-0.0042745,0,0,-0.42782,0.18027,0,-0.086552,0,0,0.65415,-0.0061441,0,0.65423,-0.17168,-0.62418,-0.44088,-72.159,-0.41225,0.4068,0.0053121,0.66,0.42,0
0.21258,0.00658,0.3437,-0.62036,-0.16974,-0.42606,-0.0022435,0,0,-0.45924,0.16406,0,-0.062271,0,0,0.65423,-0.0073502,0,0.65435,-0.16845,-0.62165,-0.42606,14.089,-0.40539,0.40714,0.0043349,0.68,0.42,0
0.20307,0.0050269,0.3199,-0.62002,-0.16523,-0.41152,-0.00030622,0,0,-0.49282,0.15053,0,-0.038324,0,0,0.6542,-0.0083268,0,0.65436,-0.16471,-0.62055,-0.41152,8.8567,-0.39892,0.40903,0.0033313,0.7,0.42,0
0.19287,0.003906,0.29612,-0.62065,-0.1605,-0.39721,0.0016114,0,0,-0.52814,0.13922,0,-0.01387,0,0,0.65406,-0.0092423,0,0.65426,-0.16039,-0.62077,-0.39721,3.5082,-0.39279,0.41228,0.0022863,0.72,0.42,0
0.18194,0.0032063,0.27234,-0.62206,-0.15562,-0.38309,0.0035823,0,0,-0.56483,0.1297,0,0.011926,0,0,0.65378,-0.010258,0,0.65403,-0.15559,-0.62208,-0.38309,89.359,-0.38692,0.41676,0.0011888,0.74,0.42,0
0.17027,0.0029076,0.24857,-0.62405,-0.15064,-0.36912,0.0056821,0,0,-0.60257,0.12154,0,0.040003,0,0,0.65339,-0.011546,0,0.65371,-0.15047,-0.62422,-0.36912,86.448,-0.38127,0.42231,3.1143e-05,0.76,0.42,0
0.15784,0.0029829,0.22482,-0.62646,-0.1456,-0.35527,0.008004,0,0,-0.64099,0.11435,0,0.071595,0,0,0.6529,-0.01331,0,0.65332,-0.14512,-0.62694,-0.35527,84.319,-0.37578,0.4288,-0.0011908,0.78,0.42,0
0.14463,0.0034031,0.20109,-0.62908,-0.1406,-0.3415,0.010698,0,0,-0.67973,0.1077,0,0.10863,0,0,0.6524,-0.015823,0,0.65299,-0.13963,-0.63005,-0.3415,82.58,-0.37039,0.43605,-0.0024774,0.8,0.42,0
0.13065,0.0041473,0.17737,-0.63181,-0.1358,-0.32784,0.014098,0,0,-0.71848,0.10113,0,0.15464,0,0,0.65208,-0.01949,0,0.65296,-0.13409,-0.63352,-0.32784,80.957,-0.36515,0.44395,-0.0038276,0.82,0.42,0
0.11589,0.0052286,0.15366,-0.63533,-0.13188,-0.31468,0.018911,0,0,-0.75791,0.094412,0,0.2162,0,0,0.65247,-0.024999,0,0.65387,-0.12898,-0.63823,-0.31468,79.264,-0.36063,0.45281,-0.00527,0.84,0.42,0
0.10033,0.0067272,0.12992,-0.6425,-0.12993,-0.30318,0.027324,0,0,-0.80202,0.088115,0,0.30797,0,0,0.65529,-0.033665,0,0.65766,-0.12497,-0.64746,-0.30318,77.345,-0.35854,0.46497,-0.0069407,0.86,0.42,0
0.083813,0.0089447,0.106,-0.67045,-0.1403,-0.30152,0.041887,0,0,-0.872,0.084789,0,0.44622,0,0,0.6639,-0.049406,0,0.66828,-0.13185,-0.6789,-0.30152,75.561,-0.37076,0.48817,-0.0097369,0.88,0.42,0
0.065453,0.011961,0.081635,-0.75072,-0.16242,-0.31884,0.089639,0,0,-1.0208,0.090079,0,0.7352,0,0,0.73888,-0.076464,0,0.74567,-0.14295,-0.77019,-0.31884,72.715,-0.41066,0.56213,-0.017045,0.9,0.42,0
0.04298,0.019011,0.052267,-0.65422,-0.30635,-0.31692,0.17399,0,0,-0.94413,-0.058487,0,1.1285,0,0,0.58293,-0.34337,0,0.68551,-0.23335,-0.72722,-0.31692,64.906,-0.42583,0.45788,-0.011093,0.92,0.42,0
0.031278,0.016161,0.036381,-0.78043,-0.26856,-0.35108,0.16112,0,0,-0.55815,0.10727,0,0.41891,0,0,0.71329,-0.3339,0,0.7803,-0.22207,-0.82692,-0.35108,73.904,-0.46669,0.55178,-0.0070637,0.94,0.42,0
0.020654,0.015019,0.023736,-0.69951,-0.2161,-0.29842,0.10582,0,0,-0.52141,0.10701,0,0.27512,0,0,0.61654,-0.18164,0,0.64083,-0.19395,-0.72165,-0.29842,78.178,-0.40467,0.484,-0.004921,0.96,0.42,0
0.010422,0.014761,0.011719,-0.66228,-0.18227,-0.26508,0.053796,0,0,-0.51636,0.10766,0,0.13987,0,0,0.59339,-0.080967,0,0.59778,-0.17631,-0.66824,-0.26508,83.683,-0.36988,0.45409,-0.0041962,0.98,0.42,0
0,0.014728,0,-0.63919,-0.1553,-0.23835,-0.00063557,0,0,-0.52109,0.10796,0,-0.0016525,0,0,0.58596,6.9389e-18,0,0.58503,-0.1553,-0.63919,-0.23835,-89.925,-0.34428,0.44817,-0.0040935,1,0.42,0
0,0.06521,1,-0.56856,-1.5072,-1.6227,-0.00030954,0,0,1.3704,0.15018,0,-0.0008048,0,0,0.51019,-9.09e-16,0,0.50963,-0.56856,-1.5072,-1.6227,-0.018894,-1.2328,1.0014,0.049273,0,0.44,0
0.027408,0.065194,0.9898,-0.5655,-1.4818,-1.604,-0.013429,0,0,1.35,0.15881,0,-0.034915,0,0,0.51276,0.058621,0,0.51548,-0.5653,-1.482,-1.604,-0.83943,-1.2171,0.9834,0.046322,0.02,0.44,0
0.054002,0.06497,0.97949,-0.59671,-1.4543,-1.5948,-0.038591,0,0,1.2975,0.18268,0,-0.10034,0,0,0.5216,0.12471,0,0.53545,-0.59498,-1.456,-1.5948,-2.5715,-1.2152,0.93814,0.039296,0.04,0.44,0
0.079308,0.063933,0.96893,-0.66594,-1.4358,-1.5994,-0.084358,0,0,1.2135,0.21279,0,-0.21933,0,0,0.5397,0.20938,0,0.57736,-0.6568,-1.4449,-1.5994,-6.1809,-1.2337,0.87565,0.030894,0.06,0.44,0
0.10254,0.061476,0.9579,-0.78076,-1.4512,-1.6275,-0.21669,0,0,1.1008,0.22913,0,-0.56339,0,0,0.62198,0.3365,0,0.7013,-0.71683,-1.5152,-1.6275,-16.438,-1.2865,0.86004,0.030801,0.08,0.44,0
0.12334,0.050842,0.94405,-0.69034,-0.97534,-1.0189,-0.28448,0,0,0.59454,-0.12431,0,-1.8502,0,0,0.505,0.31783,0,0.60482,-0.51391,-1.1518,-1.0189,-33.572,-0.89487,0.58839,0.023672,0.1,0.44,0
0.13078,0.020862,0.91874,-0.59546,-0.35628,-0.79083,-0.1614,0,0,0.46178,0.21942,0,-1.1951,0,0,0.62898,0.072085,0,0.63525,-0.24289,-0.70885,-0.79083,-48.162,-0.58086,0.53319,0.015127,0.12,0.44,0
0.14181,0.010998,0.89831,-0.51237,-0.32425,-0.74506,-0.041861,0,0,0.54999,0.23558,0,-0.50467,0,0,0.55322,0.04102,0,0.55627,-0.26849,-0.56813,-0.74506,-50.84,-0.52723,0.44084,0.0015012,0.14,0.44,0
0.15278,0.0056533,0.87851,-0.50415,-0.29701,-0.72353,-0.017479,0,0,0.51853,0.25617,0,-0.26745,0,0,0.54074,0.019507,0,0.54146,-0.24942,-0.55174,-0.72353,-49.761,-0.50823,0.43534,0.0025409,0.16,0.44,0
0.16255,0.0030389,0.85898,-0.52101,-0.2909,-0.71601,-0.0043902,0,0,0.46092,0.27113,0,-0.12012,0,0,0.53624,0.0038151,0,0.53619,-0.2486,-0.56331,-0.71601,41.839,-0.50931,0.42907,0.0043875,0.18,0.44,0
0.17121,0.0016736,0.83951,-0.53424,-0.28597,-0.70779,0.0021581,0,0,0.41022,0.27688,0,-0.024626,0,0,0.53649,-0.0097959,0,0.53665,-0.2469,-0.57331,-0.70779,43.708,-0.50933,0.42489,0.0058749,0.2,0.44,0
0.17896,0.00097659,0.81997,-0.5416,-0.28242,-0.69819,0.0069782,0,0,0.37011,0.27248,0,0.053582,0,0,0.54013,-0.022909,0,0.54128,-0.24512,-0.57891,-0.69819,45.638,-0.5074,0.4203,0.0067674,0.22,0.44,0
0.18602,0.00076189,0.80023,-0.54257,-0.27972,-0.68681,0.012172,0,0,0.34093,0.25775,0,0.13496,0,0,0.54752,-0.03673,0,0.55043,-0.24267,-0.57962,-0.68681,47.675,-0.50304,0.415,0.0070973,0.24,0.44,0
0.1926,0.0012093,0.78014,-0.53908,-0.27872,-0.67442,0.019928,0,0,0.3199,0.23317,0,0.24011,0,0,0.56023,-0.052588,0,0.56582,-0.24021,-0.57759,-0.67442,49.827,-0.49741,0.40921,0.007003,0.26,0.44,0
0.19881,0.0028806,0.75948,-0.53554,-0.2797,-0.66229,0.035101,0,0,0.29959,0.20041,0,0.40271,0,0,0.58229,-0.07248,0,0.59183,-0.23689,-0.57835,-0.66229,51.834,-0.49251,0.40625,0.0069077,0.28,0.44,0
0.20458,0.0071551,0.7378,-0.56317,-0.30226,-0.66542,0.062521,0,0,0.24167,0.16353,0,0.65783,0,0,0.62095,-0.10157,0,0.63653,-0.25109,-0.61434,-0.66542,53.575,-0.51028,0.40827,0.0076751,0.3,0.44,0
0.20848,0.015568,0.71432,-0.67776,-0.33472,-0.69662,0.17818,0,0,0.044592,0.13164,0,1.3249,0,0,0.76279,-0.14474,0,0.78364,-0.23205,-0.78043,-0.69662,52.569,-0.5697,0.52463,0.018923,0.32,0.44,0
0.20636,0.041617,0.68232,-0.75039,-0.87809,-0.86382,0.30491,0,0,0.09983,-0.24266,0,1.9665,0,0,0.64638,-0.50572,0,0.83314,-0.50262,-1.1259,-0.86382,39.746,-0.83077,0.54463,0.0075995,0.34,0.44,0
0.21659,0.047716,0.66434,-0.8611,-1.1847,-1.2781,0.28197,0,0,0.54209,0.12137,0,0.73311,0,0,0.80139,-0.64269,0,1.0211,-0.69781,-1.348,-1.2781,30.075,-1.108,0.61821,0.011613,0.36,0.44,0
0.22805,0.048587,0.65027,-0.7601,-1.1125,-1.212,0.19148,0,0,0.58752,0.12943,0,0.49784,0,0,0.69981,-0.49096,0,0.8531,-0.67608,-1.1965,-1.212,23.69,-1.0282,0.52836,0.0075533,0.38,0.44,0
0.24009,0.04993,0.63635,-0.71918,-1.0546,-1.1685,0.17459,0,0,0.58411,0.14801,0,0.45394,0,0,0.70318,-0.37825,0,0.79724,-0.6448,-1.129,-1.1685,23.074,-0.98077,0.50511,0.0064828,0.4,0.44,0
0.25141,0.052164,0.62214,-0.73101,-0.97191,-1.133,0.16447,0,0,0.52261,0.20944,0,0.42761,0,0,0.72384,-0.2718,0,0.77201,-0.6476,-1.0553,-1.133,26.891,-0.94531,0.4516,0.0042622,0.42,0.44,0
0.26099,0.055221,0.60739,-0.77477,-0.85264,-1.0956,0.13865,0,0,0.4171,0.31587,0,0.36049,0,0,0.75524,-0.15877,0,0.77039,-0.66969,-0.95772,-1.0956,37.157,-0.90768,0.37642,0.0015519,0.44,0.44,0
0.2681,0.058239,0.59193,-0.84306,-0.72804,-1.0633,0.082295,0,0,0.28626,0.43579,0,0.21397,0,0,0.80492,-0.033264,0,0.80403,-0.68515,-0.88595,-1.0633,62.474,-0.87812,0.32766,0.00019395,0.46,0.44,0
0.27244,0.060075,0.5752,-0.94289,-0.64451,-1.0514,4.002e-05,0,0,0.14108,0.52898,0,0.00010405,0,0,0.90897,0.11157,0,0.91549,-0.64451,-0.94289,-1.0514,89.992,-0.87961,0.36496,0.0017725,0.48,0.44,0
0.27374,0.059527,0.55557,-1.0433,-0.57834,-1.0421,-0.11391,0,0,-0.0016069,0.60284,0,-0.29616,0,0,1.0422,0.23323,0,1.0739,-0.55194,-1.0697,-1.0421,-76.948,-0.8879,0.50452,0.0065288,0.5,0.44,0
0.27238,0.053677,0.53351,-1.0638,-0.25813,-0.93008,-0.10292,0,0,-0.17381,0.87354,0,-0.26759,0,0,1.1457,0.070712,0,1.1461,-0.24519,-1.0767,-0.93008,-82.834,-0.75067,0.76877,0.020503,0.52,0.44,0
0.26679,0.047046,0.50974,-1.1535,-0.24223,-0.92845,-0.068298,0,0,-0.29252,0.89209,0,-0.17758,0,0,1.1848,0.032172,0,1.1852,-0.23714,-1.1585,-0.92845,-85.737,-0.77472,0.83062,0.021995,0.54,0.44,0
0.26068,0.041988,0.48612,-1.1334,-0.21823,-0.8916,-0.040576,0,0,-0.31431,0.87538,0,-0.1055,0,0,1.1818,0.014925,0,1.1819,-0.21644,-1.1352,-0.8916,-87.466,-0.74773,0.82439,0.020533,0.56,0.44,0
0.25422,0.037459,0.46247,-1.1164,-0.20794,-0.85976,-0.028906,0,0,-0.33359,0.84738,0,-0.075156,0,0,1.183,0.0057738,0,1.183,-0.20702,-1.1173,-0.85976,-88.179,-0.72802,0.81271,0.018526,0.58,0.44,0
0.24734,0.033323,0.4388,-1.1049,-0.20202,-0.83088,-0.021408,0,0,-0.35624,0.81751,0,-0.055661,0,0,1.1844,0.00036814,0,1.1844,-0.20151,-1.1054,-0.83088,-88.642,-0.7126,0.80265,0.016464,0.6,0.44,0
0.23997,0.029544,0.41509,-1.0977,-0.19741,-0.80362,-0.015842,0,0,-0.38227,0.78807,0,-0.04119,0,0,1.1859,-0.0029965,0,1.1859,-0.19713,-1.0979,-0.80362,-88.992,-0.69957,0.79559,0.014441,0.62,0.44,0
0.23205,0.026154,0.39136,-1.0934,-0.19287,-0.77726,-0.011223,0,0,-0.41104,0.7597,0,-0.029181,0,0,1.1871,-0.0051501,0,1.1871,-0.19273,-1.0936,-0.77726,-89.286,-0.68786,0.7916,0.012452,0.64,0.44,0
0.22352,0.023185,0.36761,-1.0915,-0.18808,-0.75147,-0.0072822,0,0,-0.44198,0.73241,0,-0.018934,0,0,1.188,-0.0065592,0,1.188,-0.18802,-1.0915,-0.75147,-89.538,-0.677,0.79038,0.010466,0.66,0.44,0
0.21437,0.02066,0.34384,-1.0912,-0.18301,-0.72611,-0.00387,0,0,-0.47462,0.70602,0,-0.010062,0,0,1.1885,-0.0075199,0,1.1885,-0.18299,-1.0912,-0.72611,-89.756,-0.66677,0.79156,0.0084475,0.68,0.44,0
0.20454,0.018588,0.32007,-1.0922,-0.17771,-0.70106,-0.00085701,0,0,-0.50855,0.68035,0,-0.0022282,0,0,1.1886,-0.008243,0,1.1886,-0.17771,-1.0922,-0.70106,-89.946,-0.65701,0.79476,0.0063718,0.7,0.44,0
0.19402,0.016964,0.2963,-1.0943,-0.17225,-0.67626,0.0018893,0,0,-0.54343,0.65521,0,0.0049121,0,0,1.1883,-0.0088991,0,1.1883,-0.17225,-1.0943,-0.67626,89.883,-0.6476,0.79967,0.0042197,0.72,0.44,0
0.1828,0.015772,0.27254,-1.0971,-0.16668,-0.65166,0.004494,0,0,-0.57902,0.63047,0,0.011684,0,0,1.1876,-0.0096475,0,1.1877,-0.16666,-1.0971,-0.65166,89.723,-0.63847,0.80601,0.0019793,0.74,0.44,0
0.17086,0.014991,0.2488,-1.1004,-0.16107,-0.62723,0.0070688,0,0,-0.6151,0.60601,0,0.018379,0,0,1.1865,-0.010662,0,1.1866,-0.16102,-1.1004,-0.62723,89.569,-0.62956,0.81357,-0.00035646,0.76,0.44,0
0.1582,0.014589,0.22508,-1.1041,-0.15551,-0.60296,0.009725,0,0,-0.65148,0.58168,0,0.025285,0,0,1.185,-0.01216,0,1.185,-0.15541,-1.1042,-0.60296,89.413,-0.62086,0.82211,-0.0027914,0.78,0.44,0
0.1448,0.014532,0.2014,-1.1081,-0.15026,-0.57891,0.012649,0,0,-0.68798,0.55725,0,0.032886,0,0,1.183,-0.014458,0,1.1831,-0.15009,-1.1083,-0.57891,89.244,-0.61243,0.83135,-0.0053284,0.8,0.44,0
0.13068,0.014793,0.17776,-1.1125,-0.14592,-0.55529,0.016308,0,0,-0.7244,0.53218,0,0.042401,0,0,1.1808,-0.01807,0,1.1809,-0.14564,-1.1128,-0.55529,89.034,-0.60457,0.84084,-0.0079706,0.82,0.44,0
0.11583,0.015371,0.15417,-1.1175,-0.14399,-0.53262,0.022101,0,0,-0.76037,0.50522,0,0.057462,0,0,1.1785,-0.023958,0,1.1787,-0.14349,-1.118,-0.53262,88.7,-0.59805,0.84966,-0.010722,0.84,0.44,0
0.10026,0.016346,0.13062,-1.1227,-0.14735,-0.51163,0.033028,0,0,-0.79438,0.47357,0,0.085872,0,0,1.1766,-0.034229,0,1.1771,-0.14623,-1.1238,-0.51163,88.063,-0.59389,0.85555,-0.01353,0.86,0.44,0
0.084053,0.017883,0.1071,-1.1221,-0.16179,-0.49228,0.05873,0,0,-0.81882,0.42964,0,0.1527,0,0,1.1804,-0.054592,0,1.1816,-0.15821,-1.1257,-0.49228,86.513,-0.59207,0.85115,-0.016019,0.88,0.44,0
0.067511,0.020598,0.083403,-1.031,-0.16537,-0.44233,0.08973,0,0,-0.76533,0.36005,0,0.2333,0,0,1.1386,-0.10324,0,1.1407,-0.15616,-1.0402,-0.44233,84.144,-0.54624,0.78134,-0.013885,0.9,0.44,0
0.053439,0.021921,0.061559,-1.0014,-0.33352,-0.46203,0.12289,0,0,-0.70117,0.16707,0,0.31952,0,0,1.021,-0.31084,0,1.0745,-0.31162,-1.0233,-0.46203,79.898,-0.59898,0.64965,-0.011578,0.92,0.44,0
0.039464,0.019778,0.042562,-0.91119,-0.23093,-0.3852,0.078523,0,0,-0.68379,0.20055,0,0.20416,0,0,0.86251,-0.23439,0,0.89586,-0.22199,-0.92014,-0.3852,83.5,-0.50911,0.63254,-0.010139,0.94,0.44,0
0.026088,0.018427,0.027058,-0.84,-0.1783,-0.33255,0.062326,0,0,-0.65969,0.20052,0,0.16205,0,0,0.73396,-0.13246,0,0.74563,-0.17248,-0.84582,-0.33255,84.666,-0.45028,0.60928,-0.0089698,0.96,0.44,0
0.013077,0.017986,0.013203,-0.79691,-0.14315,-0.29522,0.035734,0,0,-0.65219,0.19769,0,0.092907,0,0,0.67646,-0.058916,0,0.67862,-0.1412,-0.79885,-0.29522,86.881,-0.41176,0.59576,-0.0084626,0.98,0.44,0
0,0.017924,0,-0.76628,-0.11145,-0.26332,-0.0012012,0,0,-0.65385,0.19743,0,-0.0031232,0,0,0.66015,-5.2042e-18,0,0.65968,-0.11145,-0.76628,-0.26332,-89.895,-0.38035,0.59366,-0.0084211,1,0.44,0
0,0.068394,1,-0.58451,-1.5082,-1.6278,0.0040539,0,0,1.3563,0.15546,0,0.01054,0,0,0.56644,-5.0307e-17,0,0.56606,-0.58449,-1.5083,-1.6278,0.25145,-1.2402,0.98899,0.047242,0,0.46,0
0.027126,0.068605,0.98867,-0.58032,-1.476,-1.6056,0.0055446,0,0,1.3328,0.16843,0,0.014416,0,0,0.57245,0.050794,0,0.5743,-0.58028,-1.476,-1.6056,0.35466,-1.2206,0.96705,0.043652,0.02,0.46,0
0.053313,0.069,0.9771,-0.61041,-1.4317,-1.5897,0.0014105,0,0,1.2731,0.20544,0,0.0036673,0,0,0.59261,0.10682,0,0.60175,-0.61041,-1.4317,-1.5897,0.0984,-1.2106,0.91066,0.034883,0.04,0.46,0
0.078051,0.068993,0.96497,-0.65016,-1.3701,-1.5711,-0.026124,0,0,1.1972,0.26119,0,-0.067923,0,0,0.63876,0.1738,0,0.66166,-0.64922,-1.3711,-1.5711,-2.0753,-1.1971,0.83991,0.024714,0.06,0.46,0
0.1012,0.066907,0.95155,-0.72971,-1.3274,-1.5687,-0.1002,0,0,1.0907,0.31367,0,-0.26053,0,0,0.74038,0.25852,0,0.78569,-0.71336,-1.3438,-1.5687,-9.2682,-1.2086,0.76797,0.016711,0.08,0.46,0
0.12168,0.059471,0.93535,-0.84056,-1.1615,-1.536,-0.22548,0,0,0.90403,0.48683,0,-0.58625,0,0,0.86398,0.30967,0,0.92253,-0.72428,-1.2778,-1.536,-27.281,-1.1793,0.71828,0.011076,0.1,0.46,0
0.13736,0.044994,0.91699,-0.83027,-0.49235,-1.3138,-0.17676,0,0,0.62856,1.0679,0,-0.45958,0,0,0.95056,0.10994,0,0.95444,-0.41678,-0.90584,-1.3138,-66.854,-0.8788,0.77788,0.0037675,0.12,0.46,0
0.14682,0.034264,0.89733,-0.95423,-0.42552,-1.3113,-0.079273,0,0,0.46413,1.1515,0,-0.20611,0,0,0.97321,0.054209,0,0.97455,-0.41389,-0.96586,-1.3113,-81.654,-0.897,0.78398,0.0095554,0.14,0.46,0
0.15593,0.029158,0.87806,-0.92111,-0.36007,-1.2624,-0.019228,0,0,0.4437,1.173,0,-0.049993,0,0,0.96085,0.024483,0,0.96111,-0.35941,-0.92177,-1.2624,-88.039,-0.84786,0.78984,0.010376,0.16,0.46,0
0.16457,0.026396,0.85889,-0.91019,-0.32991,-1.2309,0.00070249,0,0,0.41696,1.1713,0,0.0018265,0,0,0.95845,0.0041338,0,0.95843,-0.32991,-0.91019,-1.2309,89.931,-0.82367,0.79102,0.012062,0.18,0.46,0
0.1726,0.024815,0.83973,-0.91102,-0.31486,-1.2075,0.0081802,0,0,0.38541,1.1604,0,0.021268,0,0,0.96056,-0.012866,0,0.96062,-0.31475,-0.91114,-1.2075,89.214,-0.81112,0.78756,0.013643,0.2,0.46,0
0.17998,0.023788,0.82047,-0.91677,-0.30837,-1.188,0.011218,0,0,0.35262,1.1435,0,0.029166,0,0,0.9669,-0.029444,0,0.96733,-0.30816,-0.91697,-1.188,88.944,-0.80438,0.78046,0.014861,0.22,0.46,0
0.18671,0.023137,0.80105,-0.92531,-0.30873,-1.1713,0.015003,0,0,0.31973,1.1213,0,0.039007,0,0,0.97825,-0.047802,0,0.9794,-0.30837,-0.92568,-1.1713,88.607,-0.80177,0.77006,0.015663,0.24,0.46,0
0.19277,0.023035,0.78134,-0.9394,-0.31816,-1.1586,0.024951,0,0,0.28498,1.0926,0,0.064871,0,0,0.99683,-0.070512,0,0.99931,-0.31716,-0.9404,-1.1586,87.704,-0.80539,0.75633,0.016143,0.26,0.46,0
0.19811,0.024095,0.76118,-0.96607,-0.34285,-1.1539,0.049478,0,0,0.24411,1.0543,0,0.12864,0,0,1.0265,-0.10182,0,1.0315,-0.33894,-0.96998,-1.1539,85.489,-0.82092,0.7403,0.016584,0.28,0.46,0
0.20254,0.027411,0.74028,-1.0133,-0.39965,-1.1642,0.11458,0,0,0.1961,0.99389,0,0.29791,0,0,1.0796,-0.1511,0,1.09,-0.37895,-1.034,-1.1642,79.762,-0.85906,0.72892,0.017773,0.3,0.46,0
0.20595,0.035893,0.71799,-0.90621,-0.45103,-1.1252,0.21304,0,0,0.28464,0.87638,0,0.5539,0,0,1.0964,-0.2444,0,1.1197,-0.36688,-0.99037,-1.1252,68.446,-0.82747,0.70068,0.015487,0.32,0.46,0
0.21392,0.046978,0.69643,-0.93497,-1.0417,-1.2894,0.27507,0,0,0.46081,0.32201,0,0.71517,0,0,1.0297,-0.56326,0,1.1753,-0.70816,-1.2686,-1.2894,39.508,-1.0887,0.57113,0.009525,0.34,0.46,0
0.22439,0.05118,0.6768,-0.84076,-1.1005,-1.2592,0.18224,0,0,0.54395,0.20629,0,0.47384,0,0,0.90953,-0.55901,0,1.069,-0.74684,-1.1944,-1.2592,27.263,-1.0668,0.48322,0.0054457,0.36,0.46,0
0.23568,0.052037,0.66005,-0.78784,-1.0858,-1.2221,0.15375,0,0,0.56457,0.17727,0,0.39974,0,0,0.81746,-0.48031,0,0.94749,-0.72273,-1.1509,-1.2221,22.953,-1.0319,0.46786,0.0048512,0.38,0.46,0
0.24697,0.053327,0.64411,-0.78402,-1.0755,-1.202,0.17316,0,0,0.54331,0.16444,0,0.45021,0,0,0.80484,-0.39982,0,0.89801,-0.70342,-1.1561,-1.202,24.959,-1.0205,0.47723,0.0054086,0.4,0.46,0
0.25741,0.05683,0.62785,-0.80589,-0.98705,-1.1657,0.20622,0,0,0.4678,0.23229,0,0.53616,0,0,0.83013,-0.3059,0,0.88392,-0.67124,-1.1217,-1.1657,33.143,-0.98623,0.47402,0.0053114,0.42,0.46,0
0.26568,0.062339,0.6109,-0.84944,-0.81197,-1.1093,0.20519,0,0,0.33785,0.38656,0,0.53351,0,0,0.86977,-0.19591,0,0.89064,-0.62466,-1.0368,-1.1093,47.609,-0.92358,0.45276,0.004357,0.44,0.46,0
0.27093,0.068014,0.59306,-0.90914,-0.64329,-1.0588,0.15543,0,0,0.19455,0.54015,0,0.4041,0,0,0.92086,-0.082344,0,0.92387,-0.5717,-0.98073,-1.0588,65.269,-0.87041,0.45313,0.0043044,0.46,0.46,0
0.27346,0.071882,0.57407,-0.96516,-0.5334,-1.0236,0.072508,0,0,0.076019,0.6373,0,0.18852,0,0,0.98463,0.015789,0,0.9851,-0.52155,-0.97701,-1.0236,80.717,-0.84073,0.48047,0.0055163,0.48,0.46,0
0.27397,0.072473,0.55368,-1.0275,-0.47387,-1.0041,-0.010036,0,0,-0.030455,0.68929,0,-0.026094,0,0,1.0548,0.05661,0,1.057,-0.47369,-1.0277,-1.0041,-88.962,-0.83517,0.5426,0.0081521,0.5,0.46,0
0.27224,0.069494,0.53187,-1.0578,-0.34559,-0.95289,-0.065891,0,0,-0.13637,0.78948,0,-0.17132,0,0,1.1143,0.054276,0,1.1159,-0.33955,-1.0638,-0.95289,-84.758,-0.78542,0.67568,0.014414,0.52,0.46,0
0.26851,0.064596,0.50911,-1.0851,-0.25361,-0.91073,-0.06432,0,0,-0.22674,0.85426,0,-0.16723,0,0,1.1512,0.025149,0,1.1514,-0.24866,-1.0901,-0.91073,-85.603,-0.74983,0.76763,0.019025,0.54,0.46,0
0.26317,0.059323,0.48583,-1.1072,-0.22941,-0.88681,-0.049359,0,0,-0.2865,0.85462,0,-0.12833,0,0,1.1683,0.010594,0,1.1684,-0.22664,-1.11,-0.88681,-86.792,-0.74113,0.79557,0.019166,0.56,0.46,0
0.25705,0.054332,0.46237,-1.1069,-0.2163,-0.85934,-0.035245,0,0,-0.32186,0.83595,0,-0.091636,0,0,1.1755,0.0024442,0,1.1755,-0.21491,-1.1083,-0.85934,-87.737,-0.72752,0.79858,0.017841,0.58,0.46,0
0.2503,0.049636,0.43881,-1.1047,-0.20879,-0.83285,-0.025087,0,0,-0.3534,0.81129,0,-0.065226,0,0,1.1801,-0.0022485,0,1.1801,-0.20808,-1.1054,-0.83285,-88.397,-0.71545,0.7968,0.016106,0.6,0.46,0
0.24292,0.045297,0.41517,-1.1036,-0.2029,-0.80711,-0.017149,0,0,-0.38541,0.78548,0,-0.044586,0,0,1.1833,-0.0049881,0,1.1833,-0.20257,-1.1039,-0.80711,-88.91,-0.70453,0.7956,0.014259,0.62,0.46,0
0.23488,0.041361,0.39148,-1.1039,-0.19737,-0.78185,-0.010788,0,0,-0.41862,0.75982,0,-0.02805,0,0,1.1855,-0.0065708,0,1.1855,-0.19724,-1.104,-0.78185,-89.318,-0.69436,0.79616,0.012353,0.64,0.46,0
0.22617,0.037862,0.36775,-1.1051,-0.1918,-0.75682,-0.0056019,0,0,-0.45276,0.73452,0,-0.014565,0,0,1.187,-0.0074566,0,1.187,-0.19177,-1.1051,-0.75682,-89.649,-0.68457,0.79839,0.010382,0.66,0.46,0
0.21677,0.034821,0.344,-1.1069,-0.18615,-0.7319,-0.0013261,0,0,-0.48745,0.70947,0,-0.0034479,0,0,1.1878,-0.0079313,0,1.1879,-0.18615,-1.1069,-0.7319,-89.918,-0.67497,0.80192,0.0083333,0.68,0.46,0
0.20667,0.032241,0.32023,-1.1088,-0.18046,-0.70703,0.0022683,0,0,-0.52237,0.68454,0,0.0058976,0,0,1.1881,-0.0081896,0,1.1881,-0.18045,-1.1088,-0.70703,89.86,-0.66544,0.80644,0.0062003,0.7,0.46,0
0.19588,0.030114,0.29647,-1.1109,-0.17476,-0.68216,0.0053882,0,0,-0.55732,0.65963,0,0.014009,0,0,1.1878,-0.0083821,0,1.1878,-0.17473,-1.1109,-0.68216,89.67,-0.65593,0.81171,0.003982,0.72,0.46,0
0.18438,0.028425,0.27272,-1.1128,-0.16909,-0.65729,0.0082161,0,0,-0.59217,0.63466,0,0.021362,0,0,1.1869,-0.0086459,0,1.187,-0.16902,-1.1129,-0.65729,89.501,-0.6464,0.81757,0.0016823,0.74,0.46,0
0.17219,0.027148,0.249,-1.1146,-0.1635,-0.63243,0.010908,0,0,-0.62682,0.6096,0,0.02836,0,0,1.1855,-0.0091323,0,1.1855,-0.16338,-1.1147,-0.63243,89.343,-0.63684,0.82391,-0.00069275,0.76,0.46,0
0.15931,0.02625,0.22531,-1.1162,-0.15808,-0.60759,0.013601,0,0,-0.66119,0.58436,0,0.035363,0,0,1.1833,-0.01004,0,1.1833,-0.15789,-1.1164,-0.60759,89.187,-0.62729,0.83061,-0.003136,0.78,0.46,0
0.14574,0.025693,0.20166,-1.1175,-0.15307,-0.58283,0.016456,0,0,-0.69505,0.55869,0,0.042785,0,0,1.1803,-0.011667,0,1.1803,-0.15279,-1.1178,-0.58283,89.023,-0.6178,0.83734,-0.0056364,0.8,0.46,0
0.13151,0.025435,0.17809,-1.1179,-0.14919,-0.55823,0.019782,0,0,-0.72761,0.53175,0,0.051434,0,0,1.1761,-0.014509,0,1.1762,-0.14879,-1.1183,-0.55823,88.831,-0.60845,0.84302,-0.0081611,0.82,0.46,0
0.11664,0.025437,0.15462,-1.1155,-0.1481,-0.53368,0.024184,0,0,-0.75629,0.50126,0,0.062878,0,0,1.1702,-0.019469,0,1.1703,-0.1475,-1.116,-0.53368,88.569,-0.59908,0.84451,-0.010585,0.84,0.46,0
0.10126,0.02567,0.13129,-1.1043,-0.15373,-0.5087,0.031048,0,0,-0.77429,0.46146,0,0.080724,0,0,1.1608,-0.02837,0,1.1611,-0.15271,-1.1053,-0.5087,88.131,-0.58891,0.8337,-0.012528,0.86,0.46,0
0.085668,0.02613,0.10819,-1.066,-0.17097,-0.47927,0.038373,0,0,-0.76271,0.40079,0,0.099769,0,0,1.1381,-0.045152,0,1.1389,-0.16933,-1.0676,-0.47927,87.549,-0.57207,0.79029,-0.012841,0.88,0.46,0
0.070747,0.026363,0.085765,-1.0244,-0.23984,-0.46503,0.039921,0,0,-0.72714,0.29274,0,0.10379,0,0,1.0872,-0.081555,0,1.0907,-0.23781,-1.0264,-0.46503,87.094,-0.57641,0.70307,-0.011767,0.9,0.46,0
0.056582,0.025693,0.064701,-0.9791,-0.28628,-0.44431,0.019711,0,0,-0.69522,0.20545,0,0.051249,0,0,1.0002,-0.10084,0,1.0068,-0.28571,-0.97966,-0.44431,88.372,-0.56989,0.6298,-0.010139,0.92,0.46,0
0.042939,0.024183,0.045756,-0.9209,-0.22356,-0.38909,0.014824,0,0,-0.69135,0.2152,0,0.038543,0,0,0.89167,-0.093624,0,0.8989,-0.22324,-0.92121,-0.38909,88.783,-0.51118,0.6316,-0.0099945,0.94,0.46,0
0.028928,0.02304,0.029034,-0.8885,-0.16251,-0.34434,0.019686,0,0,-0.70742,0.23638,0,0.051184,0,0,0.79202,-0.054537,0,0.79494,-0.16198,-0.88904,-0.34434,88.448,-0.46512,0.6552,-0.010762,0.96,0.46,0
0.014642,0.022669,0.014076,-0.86457,-0.11605,-0.30826,0.014611,0,0,-0.7232,0.24987,0,0.037988,0,0,0.72586,-0.021727,0,0.72637,-0.11577,-0.86486,-0.30826,88.882,-0.42963,0.67379,-0.011495,0.98,0.46,0
0,0.022626,0,-0.83976,-0.082254,-0.2766,-0.00083395,0,0,-0.7321,0.25266,0,-0.0021683,0,0,0.70379,6.966e-18,0,0.70368,-0.082254,-0.83976,-0.2766,-89.937,-0.39954,0.68145,-0.011906,1,0.46,0
0,0.071428,1,-0.57861,-1.5269,-1.6317,0.0096686,0,0,1.369,0.13617,0,0.025138,0,0,0.61178,-1.0304e-15,0,0.61158,-0.57851,-1.527,-1.6317,0.58408,-1.2457,1.0049,0.050221,0,0.48,0
0.027379,0.071931,0.98776,-0.57199,-1.4883,-1.6058,0.024714,0,0,1.344,0.15282,0,0.064256,0,0,0.61958,0.037935,0,0.62057,-0.57132,-1.489,-1.6058,1.5438,-1.222,0.98132,0.046221,0.02,0.48,0
0.053761,0.073187,0.97522,-0.595,-1.4264,-1.5816,0.037688,0,0,1.2826,0.20186,0,0.097989,0,0,0.64461,0.078266,0,0.64931,-0.5933,-1.4281,-1.5816,2.5904,-1.201,0.92119,0.036416,0.04,0.48,0
0.078684,0.074381,0.96198,-0.6336,-1.3413,-1.5544,0.025621,0,0,1.1971,0.27712,0,0.066614,0,0,0.69139,0.12106,0,0.70228,-0.63268,-1.3422,-1.5544,2.0708,-1.1764,0.8361,0.023623,0.06,0.48,0
0.10164,0.074023,0.94756,-0.69461,-1.2263,-1.5238,-0.026121,0,0,1.078,0.3868,0,-0.067916,0,0,0.75785,0.15516,0,0.77474,-0.69333,-1.2276,-1.5238,-2.8059,-1.1482,0.72901,0.0093979,0.08,0.48,0
0.1218,0.070315,0.93167,-0.78353,-1.0276,-1.475,-0.097074,0,0,0.89892,0.58162,0,-0.25239,0,0,0.83038,0.14623,0,0.84393,-0.74963,-1.0615,-1.475,-19.25,-1.0954,0.63025,-0.0030829,0.1,0.48,0
0.1376,0.063576,0.91435,-0.83824,-0.67721,-1.369,-0.12248,0,0,0.68996,0.8993,0,-0.31844,0,0,0.88813,0.10788,0,0.89477,-0.61115,-0.9043,-1.369,-61.66,-0.96148,0.66188,-0.0056598,0.12,0.48,0
0.1494,0.057056,0.89614,-0.89891,-0.45934,-1.3036,-0.072011,0,0,0.52612,1.0976,0,-0.18723,0,0,0.9204,0.05557,0,0.92189,-0.44785,-0.9104,-1.3036,-80.929,-0.88729,0.74193,0.002932,0.14,0.48,0
0.15865,0.052575,0.87753,-0.93508,-0.38279,-1.2729,-0.025698,0,0,0.43915,1.1571,0,-0.066814,0,0,0.9331,0.024608,0,0.93336,-0.3816,-0.93627,-1.2729,-87.342,-0.86359,0.77955,0.0099426,0.16,0.48,0
0.16697,0.049892,0.85882,-0.93278,-0.34115,-1.241,0.00058898,0,0,0.40068,1.1698,0,0.0015313,0,0,0.93764,0.0021961,0,0.9376,-0.34115,-0.93278,-1.241,89.943,-0.83831,0.79207,0.013114,0.18,0.48,0
0.17467,0.04809,0.84002,-0.93007,-0.32118,-1.2154,0.012065,0,0,0.37092,1.1625,0,0.031369,0,0,0.94186,-0.017026,0,0.94198,-0.32094,-0.93031,-1.2154,88.865,-0.82222,0.79141,0.014772,0.2,0.48,0
0.1818,0.046718,0.82114,-0.93217,-0.31343,-1.1948,0.018179,0,0,0.34145,1.1458,0,0.047264,0,0,0.94713,-0.036356,0,0.94779,-0.3129,-0.9327,-1.1948,88.319,-0.81347,0.78443,0.015781,0.22,0.48,0
0.18833,0.045614,0.80214,-0.93985,-0.31599,-1.1789,0.024959,0,0,0.31076,1.1218,0,0.064893,0,0,0.95442,-0.058558,0,0.95617,-0.31499,-0.94084,-1.1789,87.713,-0.81158,0.77287,0.016348,0.24,0.48,0
0.19423,0.044913,0.78297,-0.95169,-0.33214,-1.1681,0.038852,0,0,0.28135,1.0868,0,0.10101,0,0,0.96458,-0.086953,0,0.96841,-0.32971,-0.95412,-1.1681,86.426,-0.81731,0.75452,0.016225,0.26,0.48,0
0.19959,0.045053,0.76356,-0.96248,-0.3714,-1.1637,0.070001,0,0,0.26162,1.03,0,0.182,0,0,0.97811,-0.12673,0,0.9861,-0.36323,-0.97065,-1.1637,83.337,-0.83253,0.72354,0.014885,0.28,0.48,0
0.2047,0.046911,0.74384,-0.94268,-0.42952,-1.1555,0.10803,0,0,0.27666,0.94378,0,0.28088,0,0,0.9862,-0.18408,0,1.0026,-0.4077,-0.9645,-1.1555,78.584,-0.84257,0.67294,0.011505,0.3,0.48,0
0.21107,0.050623,0.7241,-0.86803,-0.62022,-1.1706,0.17985,0,0,0.39331,0.71546,0,0.4676,0,0,0.97061,-0.29526,0,1.0136,-0.52573,-0.96252,-1.1706,62.282,-0.88628,0.57004,0.0054188,0.32,0.48,0
0.21968,0.054498,0.70485,-0.87359,-0.93326,-1.2469,0.17596,0,0,0.48531,0.40774,0,0.45749,0,0,0.93498,-0.38978,0,1.0128,-0.72496,-1.0819,-1.2469,40.188,-1.0179,0.4621,0.0029758,0.34,0.48,0
0.23048,0.055968,0.6867,-0.81964,-1.047,-1.2467,0.13992,0,0,0.55516,0.25963,0,0.3638,0,0,0.88433,-0.45901,0,0.99667,-0.75303,-1.1136,-1.2467,25.456,-1.0378,0.44238,0.0031269,0.36,0.48,0
0.24189,0.055678,0.66948,-0.79962,-1.0972,-1.2385,0.13408,0,0,0.57056,0.18377,0,0.34862,0,0,0.85899,-0.4689,0,0.97851,-0.74811,-1.1487,-1.2385,21.014,-1.0451,0.45222,0.0041247,0.38,0.48,0
0.25331,0.056508,0.65234,-0.81276,-1.1294,-1.235,0.18366,0,0,0.54889,0.13729,0,0.47752,0,0,0.8776,-0.44388,0,0.98354,-0.72859,-1.2135,-1.235,24.62,-1.059,0.49601,0.0062282,0.4,0.48,0
0.26385,0.061456,0.63438,-0.87386,-1.0683,-1.217,0.26234,0,0,0.44611,0.19334,0,0.6821,0,0,0.92775,-0.35859,0,0.99427,-0.6913,-1.2509,-1.217,34.833,-1.0531,0.54343,0.0081348,0.42,0.48,0
0.27115,0.070684,0.61523,-0.90237,-0.75167,-1.1114,0.28637,0,0,0.2718,0.4677,0,0.74455,0,0,0.97879,-0.24015,0,1.0069,-0.53091,-1.1231,-1.1114,52.371,-0.92183,0.58647,0.010346,0.44,0.48,0
0.27472,0.079846,0.59522,-0.95644,-0.52814,-1.0406,0.20051,0,0,0.10941,0.66619,0,0.52132,0,0,1.0166,-0.11649,0,1.0225,-0.44893,-1.0356,-1.0406,68.442,-0.84172,0.58922,0.010504,0.46,0.48,0
0.27553,0.085567,0.57457,-1.0048,-0.45276,-1.0118,0.10235,0,0,0.0091534,0.72679,0,0.26611,0,0,1.0479,-0.041514,0,1.0486,-0.43439,-1.0232,-1.0118,79.827,-0.82312,0.58318,0.010174,0.48,0.48,0
0.27509,0.087099,0.55331,-1.0178,-0.39439,-0.97695,0.021943,0,0,-0.05305,0.75733,0,0.057052,0,0,1.0807,-0.0014837,0,1.0808,-0.39362,-1.0185,-0.97695,87.986,-0.79637,0.60519,0.011203,0.5,0.48,0
0.2734,0.085257,0.53134,-1.0326,-0.32961,-0.94001,-0.025951,0,0,-0.12039,0.79351,0,-0.067472,0,0,1.1142,0.010301,0,1.1144,-0.32866,-1.0336,-0.94001,-87.889,-0.76741,0.6631,0.013975,0.52,0.48,0
0.27027,0.081216,0.50874,-1.0529,-0.27415,-0.90685,-0.043575,0,0,-0.18987,0.82252,0,-0.11329,0,0,1.1411,0.0075208,0,1.1412,-0.27171,-1.0553,-0.90685,-86.807,-0.74464,0.72094,0.016527,0.54,0.48,0
0.26581,0.076173,0.48569,-1.0727,-0.24093,-0.87978,-0.039935,0,0,-0.2508,0.83051,0,-0.10383,0,0,1.1591,0.00069075,0,1.1591,-0.23901,-1.0746,-0.87978,-87.258,-0.73114,0.75723,0.017422,0.56,0.48,0
0.26024,0.070897,0.46237,-1.0884,-0.22597,-0.85667,-0.030167,0,0,-0.30119,0.81991,0,-0.078435,0,0,1.1701,-0.0039207,0,1.1701,-0.22491,-1.0894,-0.85667,-87.999,-0.72367,0.7748,0.016823,0.58,0.48,0
0.25376,0.065775,0.43889,-1.0983,-0.21648,-0.83332,-0.020381,0,0,-0.34447,0.8019,0,-0.052991,0,0,1.177,-0.0066286,0,1.177,-0.21601,-1.0988,-0.83332,-88.677,-0.71603,0.78448,0.015563,0.6,0.48,0
0.24646,0.060963,0.41529,-1.1061,-0.20907,-0.80984,-0.012356,0,0,-0.38511,0.781,0,-0.032127,0,0,1.1816,-0.0080405,0,1.1816,-0.2089,-1.1062,-0.80984,-89.211,-0.70833,0.7919,0.013987,0.62,0.48,0
0.23836,0.056546,0.39163,-1.1126,-0.20229,-0.78608,-0.0060363,0,0,-0.42442,0.75893,0,-0.015694,0,0,1.1846,-0.0086378,0,1.1847,-0.20225,-1.1126,-0.78608,-89.62,-0.70031,0.79882,0.012212,0.64,0.48,0
0.22948,0.052566,0.36791,-1.1179,-0.19574,-0.76201,-0.0011154,0,0,-0.46271,0.73615,0,-0.0029,0,0,1.1866,-0.0087381,0,1.1866,-0.19574,-1.1179,-0.76201,-89.931,-0.6919,0.80555,0.010276,0.66,0.48,0
0.21985,0.049039,0.34416,-1.1222,-0.18936,-0.73764,0.0027489,0,0,-0.49999,0.71277,0,0.0071472,0,0,1.1877,-0.0085458,0,1.1878,-0.18935,-1.1222,-0.73764,89.831,-0.68308,0.81205,0.0082028,0.68,0.48,0
0.20948,0.04597,0.3204,-1.1255,-0.18314,-0.71298,0.0058496,0,0,-0.53624,0.6888,0,0.015209,0,0,1.1881,-0.0081982,0,1.1882,-0.1831,-1.1255,-0.71298,89.644,-0.67386,0.81825,0.0060118,0.7,0.48,0
0.1984,0.043349,0.29663,-1.1277,-0.1771,-0.68806,0.0084282,0,0,-0.57147,0.66425,0,0.021913,0,0,1.1878,-0.0077978,0,1.1879,-0.17702,-1.1277,-0.68806,89.492,-0.66427,0.8241,0.003725,0.72,0.48,0
0.18662,0.041159,0.27288,-1.1288,-0.17125,-0.6629,0.010685,0,0,-0.60569,0.63915,0,0.027781,0,0,1.1869,-0.0074354,0,1.1869,-0.17113,-1.1289,-0.6629,89.361,-0.65432,0.82959,0.0013646,0.74,0.48,0
0.17417,0.039375,0.24916,-1.129,-0.1656,-0.63754,0.012788,0,0,-0.63889,0.61352,0,0.033248,0,0,1.1851,-0.007211,0,1.1851,-0.16543,-1.1292,-0.63754,89.24,-0.64405,0.83467,-0.0010473,0.76,0.48,0
0.16107,0.037963,0.22548,-1.1282,-0.16023,-0.61201,0.014868,0,0,-0.67104,0.58731,0,0.038658,0,0,1.1825,-0.0072575,0,1.1825,-0.16,-1.1284,-0.61201,89.12,-0.63347,0.83929,-0.0034883,0.78,0.48,0
0.14733,0.03688,0.20186,-1.1263,-0.15536,-0.58635,0.016984,0,0,-0.70188,0.56029,0,0.044159,0,0,1.1786,-0.0077732,0,1.1786,-0.15506,-1.1265,-0.58635,88.998,-0.62265,0.8431,-0.0059313,0.8,0.48,0
0.13299,0.036063,0.17834,-1.1226,-0.15166,-0.56061,0.018975,0,0,-0.73058,0.53165,0,0.049334,0,0,1.173,-0.0090686,0,1.173,-0.15129,-1.123,-0.56061,88.881,-0.61162,0.84497,-0.0083252,0.82,0.48,0
0.11811,0.035421,0.15494,-1.1155,-0.1509,-0.53486,0.020132,0,0,-0.7548,0.49915,0,0.052342,0,0,1.1646,-0.011611,0,1.1647,-0.15048,-1.1159,-0.53486,88.805,-0.60041,0.84184,-0.010542,0.84,0.48,0
0.1028,0.034804,0.13175,-1.1003,-0.15649,-0.50878,0.017966,0,0,-0.76894,0.45798,0,0.046712,0,0,1.1509,-0.015939,0,1.151,-0.15615,-1.1006,-0.50878,88.91,-0.58852,0.82663,-0.012241,0.86,0.48,0
0.08735,0.033915,0.10891,-1.0753,-0.17793,-0.48486,0.0070215,0,0,-0.7675,0.39901,0,0.018256,0,0,1.1272,-0.02201,0,1.1275,-0.17788,-1.0753,-0.48486,89.552,-0.57935,0.79001,-0.013044,0.88,0.48,0
0.0721,0.032308,0.086665,-1.029,-0.20958,-0.45825,-0.016629,0,0,-0.74201,0.32326,0,-0.043235,0,0,1.0829,-0.02128,0,1.0833,-0.20925,-1.0294,-0.45825,-88.838,-0.56562,0.72827,-0.012304,0.9,0.48,0
0.05767,0.030139,0.065592,-0.98665,-0.26046,-0.43973,-0.03885,0,0,-0.711,0.23304,0,-0.10101,0,0,1.009,0.005513,0,1.0101,-0.25839,-0.98872,-0.43973,-86.946,-0.56228,0.65866,-0.011012,0.92,0.48,0
0.04366,0.028386,0.046307,-0.94266,-0.24901,-0.40381,-0.025072,0,0,-0.70051,0.20123,0,-0.065186,0,0,0.9273,0.012656,0,0.92901,-0.24811,-0.94357,-0.40381,-87.933,-0.53183,0.63216,-0.010369,0.94,0.48,0
0.029649,0.027883,0.02924,-0.90497,-0.16422,-0.35,-0.0037365,0,0,-0.72146,0.24151,0,-0.0097148,0,0,0.79004,0.02713,0,0.79225,-0.1642,-0.90499,-0.35,-89.711,-0.47306,0.66757,-0.011383,0.96,0.48,0
0.01501,0.027981,0.014072,-0.88264,-0.11202,-0.31247,-0.0057263,0,0,-0.74122,0.26058,0,-0.014889,0,0,0.73099,0.026263,0,0.73178,-0.11198,-0.88268,-0.31247,-89.574,-0.43571,0.69258,-0.012365,0.98,0.48,0
0,0.02803,0,-0.85841,-0.078533,-0.28108,0.00093874,0,0,-0.75053,0.26332,0,0.0024407,0,0,0.7036,0,0,0.70344,-0.078532,-0.85841,-0.28108,89.931,-0.40601,0.70091,-0.012833,1,0.48,0
0,0.073841,1,-0.56393,-1.5642,-1.6384,0.016868,0,0,1.3969,0.096499,0,0.043856,0,0,0.64231,1.8822e-15,0,0.64224,-0.56365,-1.5645,-1.6384,0.96581,-1.2555,1.0398,0.056756,0,0.5,0
0.027937,0.074718,0.98715,-0.55657,-1.5199,-1.6101,0.042482,0,0,1.3696,0.11728,0,0.11045,0,0,0.65071,0.022118,0,0.65107,-0.5547,-1.5217,-1.6101,2.5203,-1.2288,1.0141,0.052194,0.02,0.5,0
0.054783,0.077074,0.97397,-0.58254,-1.4424,-1.5814,0.072436,0,0,1.2986,0.18082,0,0.18833,0,0,0.67573,0.04548,0,0.67739,-0.57648,-1.4484,-1.5814,4.7821,-1.2021,0.94549,0.040528,0.04,0.5,0
0.07988,0.080077,0.96013,-0.6262,-1.3226,-1.5448,0.075679,0,0,1.1942,0.28878,0,0.19676,0,0,0.71565,0.068123,0,0.71927,-0.61807,-1.3308,-1.5448,6.1307,-1.1645,0.84039,0.023949,0.06,0.5,0
0.10255,0.082379,0.94534,-0.68945,-1.1594,-1.5,0.04452,0,0,1.0537,0.44275,0,0.11575,0,0,0.76555,0.082295,0,0.77047,-0.68527,-1.1636,-1.5,5.3639,-1.1163,0.70914,0.0054257,0.08,0.5,0
0.12203,0.082736,0.9295,-0.72569,-0.93741,-1.4284,-0.00066812,0,0,0.91356,0.63833,0,-0.0017371,0,0,0.80851,0.090424,0,0.81389,-0.72569,-0.93741,-1.4284,-0.18081,-1.0305,0.62441,-0.0078299,0.1,0.5,0
0.13788,0.080966,0.91268,-0.86499,-0.71759,-1.3875,-0.042628,0,0,0.6792,0.87082,0,-0.11083,0,0,0.86611,0.071016,0,0.86915,-0.70615,-0.87643,-1.3875,-74.978,-0.99001,0.61413,-0.0088845,0.12,0.5,0
0.15033,0.078166,0.89511,-0.87923,-0.51247,-1.3126,-0.040136,0,0,0.56341,1.0402,0,-0.10435,0,0,0.88993,0.041086,0,0.89089,-0.50813,-0.88357,-1.3126,-83.827,-0.90144,0.69722,-0.0020038,0.14,0.5,0
0.16042,0.075443,0.87708,-0.91058,-0.40513,-1.2718,-0.020803,0,0,0.46958,1.1267,0,-0.054088,0,0,0.90748,0.017543,0,0.90761,-0.40427,-0.91143,-1.2718,-87.647,-0.8625,0.75487,0.0063634,0.16,0.5,0
0.16911,0.073188,0.85881,-0.92233,-0.35444,-1.2418,-0.0018188,0,0,0.41536,1.1536,0,-0.0047288,0,0,0.91681,-0.0023544,0,0.91679,-0.35443,-0.92234,-1.2418,-89.817,-0.83954,0.77849,0.011204,0.18,0.5,0
0.17703,0.071315,0.84041,-0.92326,-0.32966,-1.2163,0.012435,0,0,0.38093,1.1526,0,0.03233,0,0,0.922,-0.020952,0,0.92221,-0.3294,-0.92352,-1.2163,88.8,-0.82307,0.7827,0.01352,0.2,0.5,0
0.18435,0.06962,0.82193,-0.92484,-0.32064,-1.1956,0.023454,0,0,0.35195,1.1374,0,0.060981,0,0,0.92537,-0.040565,0,0.92622,-0.31973,-0.92575,-1.1956,87.78,-0.81368,0.77691,0.014658,0.22,0.5,0
0.19111,0.068008,0.80339,-0.92913,-0.32483,-1.1796,0.034503,0,0,0.32558,1.1112,0,0.089709,0,0,0.92765,-0.063636,0,0.92977,-0.32287,-0.9311,-1.1796,86.743,-0.81118,0.76343,0.014957,0.24,0.5,0
0.19737,0.066506,0.78482,-0.9327,-0.3474,-1.1688,0.049516,0,0,0.307,1.0679,0,0.12874,0,0,0.92866,-0.093193,0,0.93321,-0.34324,-0.93686,-1.1688,85.198,-0.81632,0.7375,0.013939,0.26,0.5,0
0.20339,0.065295,0.76625,-0.92478,-0.40022,-1.1638,0.07224,0,0,0.31066,0.99258,0,0.18782,0,0,0.92625,-0.13338,0,0.93559,-0.39046,-0.93454,-1.1638,82.3,-0.82958,0.68795,0.010679,0.28,0.5,0
0.2098,0.064537,0.74777,-0.91951,-0.52684,-1.1817,0.10651,0,0,0.34082,0.85128,0,0.27694,0,0,0.91863,-0.18741,0,0.93727,-0.49981,-0.94654,-1.1817,75.76,-0.87601,0.59992,0.0056236,0.3,0.5,0
0.21743,0.064089,0.7296,-0.85039,-0.68592,-1.1905,0.12837,0,0,0.44214,0.65595,0,0.33376,0,0,0.88889,-0.25507,0,0.92443,-0.61571,-0.92061,-1.1905,61.322,-0.90894,0.49809,0.00066803,0.32,0.5,0
0.22688,0.063288,0.71202,-0.8406,-0.89106,-1.2315,0.13026,0,0,0.50819,0.4426,0,0.33868,0,0,0.86095,-0.33641,0,0.92411,-0.73315,-0.99851,-1.2315,39.519,-0.98773,0.4319,0.0004641,0.34,0.5,0
0.23776,0.061565,0.69517,-0.82815,-1.0387,-1.2552,0.12796,0,0,0.55519,0.28149,0,0.3327,0,0,0.83041,-0.4058,0,0.92399,-0.76772,-1.0991,-1.2552,25.279,-1.0407,0.43119,0.0023725,0.36,0.5,0
0.24909,0.059388,0.6788,-0.83311,-1.1258,-1.2665,0.14877,0,0,0.56338,0.18288,0,0.3868,0,0,0.83259,-0.46862,0,0.95492,-0.77077,-1.1881,-1.2665,22.735,-1.0751,0.46155,0.0045634,0.38,0.5,0
0.26029,0.058819,0.66186,-0.88205,-1.226,-1.2943,0.22365,0,0,0.53588,0.088797,0,0.5815,0,0,0.91515,-0.53473,0,1.0611,-0.77189,-1.3361,-1.2943,26.223,-1.1341,0.54451,0.0081267,0.4,0.5,0
0.27052,0.064563,0.6422,-0.98652,-1.2369,-1.3092,0.37474,0,0,0.41951,0.094035,0,0.97432,0,0,1.0339,-0.53416,0,1.1657,-0.71661,-1.5068,-1.3092,35.764,-1.1775,0.71225,0.013856,0.42,0.5,0
0.27707,0.081047,0.62051,-0.93083,-0.51229,-1.0534,0.31926,0,0,0.1594,0.70349,0,0.83007,0,0,1.1119,-0.21417,0,1.1283,-0.33983,-1.1033,-1.0534,61.622,-0.83219,0.7398,0.020477,0.44,0.5,0
0.2769,0.094661,0.59772,-1.0629,-0.47094,-1.0579,0.22873,0,0,-0.0065383,0.76302,0,0.59469,0,0,1.1261,-0.11743,0,1.1316,-0.39286,-1.141,-1.0579,71.152,-0.86391,0.71023,0.017553,0.46,0.5,0
0.27685,0.10095,0.57573,-1.0031,-0.39455,-0.99501,0.080647,0,0,-0.010474,0.7806,0,0.20968,0,0,1.0996,-0.059324,0,1.101,-0.38405,-1.0136,-0.99501,82.577,-0.79755,0.62046,0.012231,0.48,0.5,0
0.27656,0.10277,0.55374,-0.9691,-0.34201,-0.94707,0.044767,0,0,-0.028633,0.78658,0,0.11639,0,0,1.1043,-0.027601,0,1.1046,-0.33883,-0.97228,-0.94707,85.937,-0.75273,0.62122,0.012245,0.5,0.5,0
0.27543,0.10123,0.53146,-0.99993,-0.31136,-0.92485,-0.0095868,0,0,-0.097604,0.79754,0,-0.024926,0,0,1.1265,-0.013242,0,1.1266,-0.31122,-1.0001,-0.92485,-89.203,-0.74538,0.65448,0.013759,0.52,0.5,0
0.27307,0.097496,0.5088,-0.99455,-0.26359,-0.88625,-0.014487,0,0,-0.1408,0.80945,0,-0.037665,0,0,1.1387,-0.0092915,0,1.1387,-0.2633,-0.99484,-0.88625,-88.865,-0.7148,0.68374,0.015031,0.54,0.5,0
0.26934,0.092544,0.4858,-1.0543,-0.25186,-0.87763,-0.022001,0,0,-0.22961,0.8135,0,-0.057202,0,0,1.1591,-0.009624,0,1.1591,-0.25126,-1.0549,-0.87763,-88.431,-0.72792,0.73127,0.016177,0.56,0.5,0
0.26432,0.087129,0.46253,-1.0548,-0.22498,-0.84647,-0.015706,0,0,-0.27087,0.80794,0,-0.040835,0,0,1.1666,-0.010716,0,1.1667,-0.22468,-1.0551,-0.84647,-88.916,-0.70876,0.74827,0.01601,0.58,0.5,0
0.25811,0.081712,0.43907,-1.1035,-0.22632,-0.83801,-0.0086997,0,0,-0.3451,0.7952,0,-0.022619,0,0,1.177,-0.011227,0,1.1771,-0.22623,-1.1036,-0.83801,-89.432,-0.7226,0.77926,0.015132,0.6,0.5,0
0.25086,0.076537,0.41549,-1.0991,-0.20902,-0.80793,-0.0050851,0,0,-0.37855,0.77859,0,-0.013221,0,0,1.1806,-0.01117,0,1.1806,-0.20899,-1.0992,-0.80793,-89.673,-0.70536,0.78611,0.013902,0.62,0.5,0
0.24265,0.071718,0.39182,-1.1333,-0.21076,-0.79505,0.001668,0,0,-0.43976,0.75958,0,0.0043368,0,0,1.1853,-0.010716,0,1.1853,-0.21076,-1.1333,-0.79505,89.896,-0.71305,0.80839,0.012003,0.64,0.5,0
0.23356,0.067308,0.3681,-1.1328,-0.19849,-0.7675,0.0063995,0,0,-0.47496,0.73972,0,0.016639,0,0,1.1871,-0.010291,0,1.1871,-0.19844,-1.1329,-0.7675,89.608,-0.69961,0.81564,0.010221,0.66,0.5,0
0.22365,0.063332,0.34434,-1.1396,-0.19149,-0.74368,0.0084435,0,0,-0.51475,0.71784,0,0.021953,0,0,1.1884,-0.0093049,0,1.1884,-0.19142,-1.1397,-0.74368,89.49,-0.6916,0.82496,0.008093,0.68,0.5,0
0.21297,0.059793,0.32056,-1.144,-0.18482,-0.71921,0.0099405,0,0,-0.55222,0.6947,0,0.025845,0,0,1.1888,-0.0082562,0,1.1889,-0.18472,-1.1441,-0.71921,89.406,-0.68268,0.83265,0.0058202,0.7,0.5,0
0.20156,0.056684,0.29679,-1.1462,-0.17847,-0.6942,0.011053,0,0,-0.58766,0.67045,0,0.028739,0,0,1.1885,-0.0071782,0,1.1886,-0.17834,-1.1464,-0.6942,89.346,-0.67297,0.83895,0.0034466,0.72,0.5,0
0.18947,0.053991,0.27302,-1.1466,-0.17241,-0.66871,0.011909,0,0,-0.62121,0.6452,0,0.030964,0,0,1.1875,-0.0060968,0,1.1875,-0.17226,-1.1467,-0.66871,89.3,-0.66257,0.84395,0.0010122,0.74,0.5,0
0.17672,0.051689,0.24928,-1.145,-0.16665,-0.64279,0.012611,0,0,-0.65291,0.61898,0,0.032788,0,0,1.1857,-0.0050391,0,1.1857,-0.16649,-1.1452,-0.64279,89.262,-0.65149,0.84768,-0.0014445,0.76,0.5,0
0.16335,0.049743,0.22559,-1.1416,-0.16123,-0.61643,0.013223,0,0,-0.68267,0.59177,0,0.034381,0,0,1.1827,-0.0040413,0,1.1827,-0.16105,-1.1418,-0.61643,89.227,-0.63974,0.85003,-0.0038838,0.78,0.5,0
0.14941,0.048105,0.20197,-1.1361,-0.15633,-0.5897,0.013702,0,0,-0.7103,0.56338,0,0.035624,0,0,1.1785,-0.0031557,0,1.1785,-0.15614,-1.1363,-0.5897,89.199,-0.62737,0.8507,-0.0062637,0.8,0.5,0
0.13494,0.0467,0.17846,-1.1285,-0.1525,-0.56275,0.013666,0,0,-0.73545,0.53333,0,0.035532,0,0,1.1723,-0.002446,0,1.1723,-0.1523,-1.1287,-0.56275,89.198,-0.61458,0.84913,-0.0085399,0.82,0.5,0
0.11999,0.045403,0.15508,-1.1189,-0.15099,-0.53606,0.011864,0,0,-0.75772,0.50058,0,0.030846,0,0,1.1633,-0.0019171,0,1.1633,-0.15085,-1.1191,-0.53606,89.298,-0.60199,0.84431,-0.010664,0.84,0.5,0
0.10463,0.043989,0.13192,-1.1091,-0.15461,-0.51103,0.0052693,0,0,-0.77745,0.46334,0,0.0137,0,0,1.1504,-0.0011686,0,1.1504,-0.15458,-1.1091,-0.51103,89.684,-0.59157,0.83542,-0.012629,0.86,0.5,0
0.088894,0.042091,0.10907,-1.1011,-0.16482,-0.48884,-0.011215,0,0,-0.79592,0.42123,0,-0.029159,0,0,1.1327,0.0021839,0,1.1328,-0.16469,-1.1012,-0.48884,-89.314,-0.58492,0.82377,-0.014453,0.88,0.5,0
0.072793,0.039294,0.086616,-1.0921,-0.1807,-0.46846,-0.045894,0,0,-0.81074,0.37409,0,-0.11933,0,0,1.1147,0.015202,0,1.1148,-0.17839,-1.0944,-0.46846,-87.125,-0.58042,0.81088,-0.016042,0.9,0.5,0
0.056464,0.035015,0.06448,-1.0036,-0.17313,-0.4175,-0.084068,0,0,-0.76193,0.31768,0,-0.21858,0,0,1.0542,0.056416,0,1.0536,-0.16471,-1.012,-0.4175,-84.277,-0.53141,0.75343,-0.01392,0.92,0.5,0
0.042316,0.032053,0.044447,-0.96944,-0.30004,-0.42529,-0.15111,0,0,-0.70739,0.16283,0,-0.39289,0,0,1.0017,0.23705,0,1.0345,-0.26751,-1.002,-0.42529,-77.851,-0.56492,0.66966,-0.012585,0.94,0.5,0
0.027931,0.032687,0.027201,-0.88855,-0.18369,-0.34887,-0.06666,0,0,-0.70158,0.21474,0,-0.17332,0,0,0.70877,0.16605,0,0.72943,-0.17744,-0.8948,-0.34887,-84.645,-0.4737,0.64885,-0.010798,0.96,0.5,0
0.013899,0.033092,0.013025,-0.84,-0.12331,-0.30202,-0.028229,0,0,-0.69937,0.23232,0,-0.073396,0,0,0.6896,0.067097,0,0.69225,-0.12219,-0.84111,-0.30202,-87.748,-0.42177,0.64799,-0.010431,0.98,0.5,0
0,0.033158,0,-0.78759,-0.055764,-0.25301,0.0012679,0,0,-0.69496,0.25642,0,0.0032966,0,0,0.65127,1.3878e-17,0,0.65092,-0.055761,-0.78759,-0.25301,89.901,-0.36545,0.65585,-0.010193,1,0.5,0
0,0.075288,1,-0.55224,-1.6173,-1.6509,0.025657,0,0,1.4282,0.04364,0,0.066708,0,0,0.65602,-1.3401e-16,0,0.656,-0.55162,-1.6179,-1.6509,1.3792,-1.2735,1.0831,0.06506,0,0.52,0
0.028564,0.076622,0.98688,-0.52738,-1.552,-1.6107,0.052283,0,0,1.4083,0.076304,0,0.13594,0,0,0.66205,0.0073273,0,0.66213,-0.52472,-1.5547,-1.6107,2.9135,-1.23,1.0591,0.060434,0.02,0.52,0
0.055934,0.08042,0.9734,-0.59554,-1.4782,-1.5955,0.11596,0,0,1.3,0.1525,0,0.3015,0,0,0.69612,0.016982,0,0.69651,-0.58056,-1.4932,-1.5955,7.3607,-1.2231,0.96787,0.044816,0.04,0.52,0
0.081249,0.085932,0.95925,-0.62666,-1.3212,-1.5436,0.13425,0,0,1.192,0.28913,0,0.34905,0,0,0.72821,0.021079,0,0.72884,-0.60162,-1.3463,-1.5436,10.568,-1.1638,0.86047,0.027008,0.06,0.52,0
0.10362,0.091733,0.94427,-0.68971,-1.108,-1.4836,0.11893,0,0,1.032,0.48828,0,0.30922,0,0,0.77128,0.030522,0,0.77223,-0.65825,-1.1394,-1.4836,14.813,-1.0938,0.71803,0.0053765,0.08,0.52,0
0.12253,0.096195,0.9284,-0.71327,-0.84899,-1.3971,0.078382,0,0,0.88896,0.71252,0,0.20379,0,0,0.80635,0.02787,0,0.80707,-0.67745,-0.8848,-1.3971,24.558,-0.98644,0.6416,-0.0089421,0.1,0.52,0
0.13804,0.098435,0.91175,-0.84365,-0.67849,-1.3684,0.014912,0,0,0.68217,0.89687,0,0.03877,0,0,0.85272,0.025825,0,0.85322,-0.67716,-0.84498,-1.3684,84.882,-0.96351,0.62448,-0.0095284,0.12,0.52,0
0.15075,0.098664,0.8945,-0.85683,-0.51899,-1.3072,-0.0055512,0,0,0.58554,1.0247,0,-0.014433,0,0,0.87313,0.02056,0,0.87342,-0.5189,-0.85692,-1.3072,-89.059,-0.89435,0.68503,-0.0040234,0.14,0.52,0
0.16146,0.097642,0.87683,-0.87984,-0.42235,-1.2675,-0.010551,0,0,0.50394,1.0987,0,-0.027431,0,0,0.88965,0.0068079,0,0.88968,-0.42211,-0.88008,-1.2675,-88.68,-0.85656,0.73297,0.0029122,0.16,0.52,0
0.17091,0.096036,0.85891,-0.88855,-0.36881,-1.2361,-0.0015428,0,0,0.45184,1.1275,0,-0.0040114,0,0,0.89914,-0.0081292,0,0.89916,-0.36881,-0.88856,-1.2361,-89.83,-0.83116,0.75603,0.0074513,0.18,0.52,0
0.17953,0.094195,0.84086,-0.89079,-0.3425,-1.2108,0.012479,0,0,0.41607,1.1289,0,0.032444,0,0,0.90365,-0.023883,0,0.90394,-0.34221,-0.89108,-1.2108,88.697,-0.81471,0.76093,0.0099106,0.2,0.52,0
0.18755,0.092215,0.82276,-0.89208,-0.33249,-1.1901,0.027298,0,0,0.38747,1.1149,0,0.070975,0,0,0.90444,-0.0415,0,0.90536,-0.33116,-0.89341,-1.1901,87.214,-0.8049,0.75565,0.011199,0.22,0.52,0
0.19503,0.090061,0.80468,-0.89422,-0.33675,-1.174,0.041226,0,0,0.36368,1.0884,0,0.10719,0,0,0.90179,-0.062611,0,0.90391,-0.33372,-0.89725,-1.174,85.793,-0.80165,0.74168,0.011549,0.24,0.52,0
0.2021,0.087628,0.78669,-0.89286,-0.3606,-1.1627,0.053322,0,0,0.35084,1.0428,0,0.13864,0,0,0.89484,-0.089356,0,0.89921,-0.35531,-0.89815,-1.1627,84.335,-0.8054,0.71295,0.010343,0.26,0.52,0
0.20907,0.084756,0.76889,-0.88149,-0.41966,-1.1592,0.062755,0,0,0.36107,0.96145,0,0.16316,0,0,0.88162,-0.12432,0,0.89023,-0.41129,-0.88987,-1.1592,82.398,-0.82013,0.65614,0.0067036,0.28,0.52,0
0.21654,0.081263,0.75143,-0.85599,-0.53237,-1.1679,0.069638,0,0,0.40553,0.82624,0,0.18106,0,0,0.8597,-0.16962,0,0.87612,-0.51802,-0.87034,-1.1679,78.357,-0.8521,0.56351,0.0013344,0.3,0.52,0
0.22529,0.077035,0.7345,-0.82266,-0.70296,-1.1922,0.077736,0,0,0.48038,0.636,0,0.20211,0,0,0.828,-0.22588,0,0.8581,-0.6647,-0.86092,-1.1922,63.797,-0.90594,0.46178,-0.0021554,0.32,0.52,0
0.23576,0.072201,0.71831,-0.79553,-0.89799,-1.2264,0.094988,0,0,0.56009,0.42689,0,0.24697,0,0,0.78927,-0.29202,0,0.84135,-0.73884,-0.95468,-1.2264,30.831,-0.97329,0.42313,-0.00076576,0.34,0.52,0
0.24769,0.067227,0.70293,-0.79201,-1.066,-1.2604,0.13242,0,0,0.60884,0.25259,0,0.34429,0,0,0.75212,-0.36846,0,0.837,-0.73847,-1.1196,-1.2604,22.011,-1.0395,0.46766,0.0036928,0.36,0.52,0
0.26011,0.062993,0.68822,-0.84985,-1.208,-1.3056,0.19445,0,0,0.59245,0.12684,0,0.50557,0,0,0.73006,-0.46322,0,0.86323,-0.76458,-1.2933,-1.3056,23.678,-1.1212,0.53496,0.0078488,0.38,0.52,0
0.27139,0.06006,0.67373,-0.98773,-1.3718,-1.3816,0.34344,0,0,0.51202,0.012724,0,0.89294,0,0,0.81207,-0.60497,0,1.0062,-0.78629,-1.5733,-1.3816,30.394,-1.247,0.71078,0.014022,0.4,0.52,0
0.28059,0.065217,0.65574,-0.89043,-1.0927,-0.95559,0.39423,0,0,-0.057837,-0.571,0,2.6268,0,0,0.64587,-0.4844,0,0.81892,-0.58419,-1.3989,-0.95559,38.902,-0.97957,0.7079,-0.0029666,0.42,0.52,0
0.27426,0.098824,0.6238,-0.74172,-0.37941,-0.67943,0.24909,0,0,-0.14724,-0.0994,0,1.9808,0,0,0.76962,-0.13173,0,0.78704,-0.22401,-0.89712,-0.67943,52.108,-0.60019,0.60638,0.01945,0.44,0.52,0
0.2747,0.11081,0.59977,-0.60153,-0.34093,-0.61261,0.13389,0,0,0.043761,-0.10185,0,1.2784,0,0,0.65926,-0.087473,0,0.67152,-0.24846,-0.694,-0.61261,52.639,-0.51836,0.4268,0.0084411,0.46,0.52,0
0.27687,0.11702,0.57696,-0.52864,-0.29269,-0.56373,0.045823,0,0,0.088354,-0.090642,0,0.82667,0,0,0.61737,-0.058958,0,0.62472,-0.23439,-0.58695,-0.56373,57.28,-0.46169,0.36146,0.0050782,0.48,0.52,0
0.2785,0.11863,0.55453,-0.50196,-0.26589,-0.53535,0.057101,0,0,0.066226,-0.065654,0,0.68639,0,0,0.61702,-0.041959,0,0.62152,-0.21329,-0.55457,-0.53535,54.199,-0.4344,0.35057,0.0051771,0.5,0.52,0
0.27889,0.11713,0.53201,-0.57042,-0.27255,-0.5455,0.016139,0,0,-0.04207,-0.028685,0,0.45614,0,0,0.62613,-0.031565,0,0.62903,-0.23273,-0.61025,-0.5455,-32.882,-0.46283,0.36305,0.0064909,0.52,0.52,0
0.27764,0.1135,0.50923,-0.54097,-0.23469,-0.51277,0.023065,0,0,-0.084628,0.013641,0,0.38696,0,0,0.62681,-0.025397,0,0.62877,-0.20266,-0.573,-0.51277,56.085,-0.42948,0.35788,0.0066491,0.54,0.52,0
0.27463,0.10861,0.48617,-0.62704,-0.24753,-0.52976,0.0097754,0,0,-0.21291,0.053554,0,0.29514,0,0,0.64056,-0.021635,0,0.64195,-0.22276,-0.6518,-0.52976,-32.392,-0.46811,0.39361,0.0077829,0.56,0.52,0
0.26996,0.10314,0.46286,-0.59911,-0.21507,-0.49883,0.011629,0,0,-0.25197,0.086051,0,0.2643,0,0,0.64108,-0.019029,0,0.64211,-0.19603,-0.61815,-0.49883,58.743,-0.43767,0.38859,0.0077058,0.58,0.52,0
0.26382,0.097549,0.43938,-0.66365,-0.226,-0.50855,0.011573,0,0,-0.35377,0.10985,0,0.24185,0,0,0.64911,-0.016917,0,0.64989,-0.21137,-0.67827,-0.50855,60.727,-0.46607,0.42003,0.0073798,0.6,0.52,0
0.25643,0.092105,0.41577,-0.63769,-0.20122,-0.48034,0.009616,0,0,-0.38297,0.12584,0,0.22168,0,0,0.64938,-0.015026,0,0.64997,-0.18994,-0.64897,-0.48034,63.274,-0.43975,0.41371,0.0069842,0.62,0.52,0
0.24796,0.08695,0.39207,-0.68094,-0.20838,-0.48243,0.012829,0,0,-0.45941,0.13556,0,0.21839,0,0,0.65312,-0.01326,0,0.65356,-0.19955,-0.68977,-0.48243,65.71,-0.45725,0.43724,0.0057677,0.64,0.52,0
0.23853,0.082155,0.36832,-0.67058,-0.1943,-0.46204,0.01103,0,0,-0.49292,0.14032,0,0.20343,0,0,0.65366,-0.011574,0,0.65399,-0.18738,-0.6775,-0.46204,68.436,-0.44231,0.43675,0.0049812,0.66,0.52,0
0.22824,0.077753,0.34453,-0.67394,-0.18746,-0.44791,0.010791,0,0,-0.53425,0.14107,0,0.19274,0,0,0.65438,-0.0099366,0,0.65461,-0.18199,-0.67941,-0.44791,70.927,-0.43644,0.44228,0.0038622,0.68,0.52,0
0.21716,0.073758,0.32073,-0.67546,-0.18097,-0.43333,0.01039,0,0,-0.57231,0.1385,0,0.18112,0,0,0.65464,-0.0083205,0,0.6548,-0.17665,-0.67978,-0.43333,73.227,-0.42992,0.44677,0.0026712,0.7,0.52,0
0.20535,0.070167,0.29692,-0.67546,-0.1748,-0.41839,0.0098307,0,0,-0.60763,0.13307,0,0.16799,0,0,0.6545,-0.0066981,0,0.6546,-0.17141,-0.67885,-0.41839,75.343,-0.42288,0.45034,0.001436,0.72,0.52,0
0.19286,0.066967,0.27313,-0.67408,-0.16893,-0.40312,0.0091085,0,0,-0.64045,0.12509,0,0.15278,0,0,0.65395,-0.005039,0,0.654,-0.16634,-0.67667,-0.40312,77.325,-0.41538,0.45304,0.00018162,0.74,0.52,0
0.17973,0.064134,0.24936,-0.67133,-0.16332,-0.38754,0.0082061,0,0,-0.67077,0.11475,0,0.13479,0,0,0.65294,-0.0033079,0,0.65296,-0.16143,-0.67322,-0.38754,79.256,-0.4074,0.4548,-0.0010667,0.76,0.52,0
0.16603,0.061634,0.22564,-0.66707,-0.15794,-0.37161,0.0070795,0,0,-0.69837,0.10214,0,0.11295,0,0,0.65138,-0.001459,0,0.65138,-0.15668,-0.66833,-0.37161,81.253,-0.39887,0.45549,-0.0022807,0.78,0.52,0
0.1518,0.059415,0.20199,-0.66103,-0.15278,-0.35524,0.0056171,0,0,-0.72279,0.087253,0,0.085446,0,0,0.64909,0.00057364,0,0.64909,-0.15208,-0.66173,-0.35524,83.505,-0.38968,0.45487,-0.0034275,0.8,0.52,0
0.13711,0.057396,0.17844,-0.65303,-0.1479,-0.33842,0.0035341,0,0,-0.74362,0.070128,0,0.048969,0,0,0.64581,0.0029028,0,0.64586,-0.14768,-0.65325,-0.33842,86.341,-0.37978,0.45269,-0.0044748,0.82,0.52,0
0.12205,0.055444,0.15502,-0.64355,-0.1437,-0.32144,0.000181,0,0,-0.76136,0.051264,0,-0.002491,0,0,0.64124,0.0057573,0,0.64138,-0.1437,-0.64356,-0.32144,0.24238,-0.36957,0.44915,-0.005417,0.84,0.52,0
0.10666,0.053338,0.1318,-0.63499,-0.14094,-0.30527,-0.005701,0,0,-0.77935,0.032743,0,-0.078422,0,0,0.63526,0.0097345,0,0.63563,-0.14043,-0.63551,-0.30527,-84.689,-0.3604,0.44602,-0.0063324,0.86,0.52,0
0.090879,0.050764,0.10882,-0.633,-0.14019,-0.29181,-0.016511,0,0,-0.80645,0.019513,0,-0.19354,0,0,0.62897,0.016268,0,0.62985,-0.1377,-0.6355,-0.29181,-79.62,-0.355,0.44869,-0.0074784,0.88,0.52,0
0.074403,0.047272,0.086057,-0.65613,-0.14936,-0.28898,-0.034095,0,0,-0.86781,0.019931,0,-0.35782,0,0,0.62543,0.029422,0,0.62756,-0.143,-0.66249,-0.28898,-76.271,-0.36482,0.46845,-0.0098355,0.9,0.52,0
0.056167,0.042846,0.063336,-0.73322,-0.1656,-0.30448,-0.081325,0,0,-1.0134,0.043374,0,-0.65558,0,0,0.67694,0.053647,0,0.68078,-0.14876,-0.75006,-0.30448,-73.17,-0.4011,0.54268,-0.01667,0.92,0.52,0
0.033867,0.034899,0.036825,-0.7079,-0.34319,-0.33558,-0.19542,0,0,-0.98574,-0.078099,0,-1.1413,0,0,0.5755,0.31354,0,0.66683,-0.25784,-0.79325,-0.33558,-64.654,-0.46222,0.50109,-0.016009,0.94,0.52,0
0.021906,0.036472,0.022598,-0.77278,-0.27099,-0.33573,-0.15191,0,0,-0.56817,0.084161,0,-0.39498,0,0,0.62062,0.25771,0,0.66286,-0.22858,-0.81519,-0.33573,-74.403,-0.45983,0.54105,-0.0070711,0.96,0.52,0
0.010842,0.036809,0.011093,-0.71435,-0.22089,-0.29167,-0.069701,0,0,-0.54949,0.092009,0,-0.18122,0,0,0.56838,0.1103,0,0.57651,-0.21123,-0.72401,-0.29167,-82.113,-0.40897,0.47767,-0.0050667,0.98,0.52,0
0,0.036761,0,-0.69882,-0.24063,-0.28184,-0.00092959,0,0,-0.54208,0.053565,0,-0.0024169,0,0,0.55464,0,0,0.55261,-0.24063,-0.69882,-0.28184,-89.884,-0.40709,0.43904,-0.0042177,1,0.52,0
0,0.075586,1,-0.55485,-1.6793,-1.6703,0.034719,0,0,1.45,-0.01182,0,0.090268,0,0,0.65059,-1.0079e-15,0,0.65053,-0.55378,-1.6804,-1.6703,1.7668,-1.3015,1.1216,0.072446,0,0.54,0
0.029001,0.077392,0.98699,-0.54203,-1.6457,-1.6433,0.059757,0,0,1.4317,-0.0031047,0,0.15537,0,0,0.65809,-0.021914,0,0.6585,-0.5388,-1.6489,-1.6433,3.0902,-1.277,1.1073,0.069728,0.02,0.54,0
0.056899,0.082878,0.97353,-0.61491,-1.5725,-1.6298,0.15671,0,0,1.3193,0.074391,0,0.40746,0,0,0.6992,-0.034942,0,0.70035,-0.58991,-1.5975,-1.6298,9.0616,-1.2724,1.0241,0.054981,0.04,0.54,0
0.082529,0.091643,0.95928,-0.63551,-1.3465,-1.5539,0.20329,0,0,1.1939,0.26959,0,0.52856,0,0,0.73505,-0.026328,0,0.73594,-0.58149,-1.4005,-1.5539,14.881,-1.1786,0.90552,0.034476,0.06,0.54,0
0.10465,0.10191,0.94412,-0.69562,-1.0582,-1.4703,0.198,0,0,1.0071,0.53566,0,0.51481,0,0,0.77911,-0.014766,0,0.77954,-0.60846,-1.1454,-1.4703,23.76,-1.0747,0.75386,0.0090393,0.08,0.54,0
0.12281,0.11084,0.92812,-0.75794,-0.79791,-1.3949,0.13694,0,0,0.82801,0.77605,0,0.35605,0,0,0.8171,-0.0024206,0,0.81726,-0.63953,-0.91632,-1.3949,40.849,-0.98357,0.66188,-0.0065988,0.1,0.54,0
0.13778,0.11661,0.91144,-0.80439,-0.61674,-1.3378,0.062685,0,0,0.69341,0.93736,0,0.16298,0,0,0.84583,0.0042188,0,0.84591,-0.59772,-0.8234,-1.3378,73.126,-0.91963,0.65696,-0.0089814,0.12,0.54,0
0.15055,0.11916,0.89428,-0.82842,-0.50164,-1.2933,0.014049,0,0,0.60434,1.0292,0,0.036527,0,0,0.86583,0.0028436,0,0.86587,-0.50104,-0.82903,-1.2933,87.543,-0.87445,0.6895,-0.0049266,0.14,0.54,0
0.16195,0.11939,0.87681,-0.83516,-0.42689,-1.2554,-0.004241,0,0,0.54634,1.0771,0,-0.011027,0,0,0.87879,-0.0037312,0,0.8788,-0.42685,-0.8352,-1.2554,-89.405,-0.83916,0.71759,-0.00047053,0.16,0.54,0
0.1724,0.11829,0.85913,-0.83625,-0.38257,-1.2248,-0.0012915,0,0,0.50509,1.0949,0,-0.0033579,0,0,0.88612,-0.013355,0,0.88621,-0.38257,-0.83626,-1.2248,-89.837,-0.81454,0.7301,0.0026689,0.18,0.54,0
0.18215,0.11647,0.84136,-0.83577,-0.35864,-1.1997,0.012485,0,0,0.47309,1.0934,0,0.032461,0,0,0.88863,-0.025108,0,0.88897,-0.35831,-0.83609,-1.1997,88.502,-0.79803,0.73088,0.0046612,0.2,0.54,0
0.19132,0.11422,0.82359,-0.83604,-0.34858,-1.179,0.02983,0,0,0.44582,1.0795,0,0.077558,0,0,0.88664,-0.039103,0,0.88748,-0.34677,-0.83786,-1.179,86.511,-0.78787,0.7246,0.0059797,0.22,0.54,0
0.19998,0.11154,0.8059,-0.83736,-0.35086,-1.1624,0.045631,0,0,0.42251,1.055,0,0.11864,0,0,0.8798,-0.056139,0,0.88156,-0.34662,-0.8416,-1.1624,84.688,-0.78353,0.7118,0.0066644,0.24,0.54,0
0.20822,0.10822,0.78839,-0.83728,-0.37037,-1.1507,0.054655,0,0,0.40744,1.0144,0,0.1421,0,0,0.86695,-0.077396,0,0.87037,-0.36406,-0.84359,-1.1507,83.412,-0.78611,0.68668,0.0061321,0.26,0.54,0
0.21628,0.10375,0.77122,-0.82652,-0.41806,-1.1446,0.051517,0,0,0.4135,0.94449,0,0.13394,0,0,0.84599,-0.10417,0,0.85237,-0.41167,-0.83291,-1.1446,82.921,-0.79639,0.63709,0.0033925,0.28,0.54,0
0.22476,0.097587,0.75456,-0.79878,-0.5212,-1.1505,0.035756,0,0,0.4573,0.81816,0,0.092966,0,0,0.81452,-0.13778,0,0.82614,-0.51666,-0.80331,-1.1505,82.777,-0.82351,0.5498,-0.0014054,0.3,0.54,0
0.23457,0.08953,0.73864,-0.75699,-0.70164,-1.1762,0.026342,0,0,0.545,0.61697,0,0.06849,0,0,0.77136,-0.18162,0,0.79257,-0.6911,-0.76752,-1.1762,68.208,-0.87828,0.45179,-0.0042829,0.32,0.54,0
0.24657,0.080363,0.7237,-0.71488,-0.93274,-1.218,0.050921,0,0,0.65404,0.37082,0,0.13239,0,0,0.71837,-0.2398,0,0.7574,-0.70357,-0.94406,-1.218,12.527,-0.9552,0.44582,-0.0005111,0.34,0.54,0
0.26074,0.071669,0.7099,-0.67647,-1.1295,-1.2517,0.11996,0,0,0.7478,0.15884,0,0.3119,0,0,0.65921,-0.31807,0,0.7316,-0.64667,-1.1593,-1.2517,13.953,-1.0192,0.56454,0.0084127,0.36,0.54,0
0.27648,0.064461,0.69733,-0.63165,-1.268,-1.2672,0.22312,0,0,0.82624,-0.00096935,0,0.58013,0,0,0.59608,-0.42375,0,0.73005,-0.56121,-1.3384,-1.2672,17.521,-1.0556,0.74416,0.020514,0.38,0.54,0
0.29379,0.059327,0.68606,-0.41858,-1.3627,-1.2204,0.28647,0,0,1.0424,-0.1849,0,0.74482,0,0,0.44283,-0.58135,0,0.72937,-0.33846,-1.4428,-1.2204,15.626,-1.0006,1.0116,0.044638,0.4,0.54,0
0.31817,0.04776,0.67962,-0.35069,-1.0878,-0.80534,0.23966,0,0,0.42309,-0.66762,0,1.9691,0,0,0.25109,-0.4941,0,0.57617,-0.25541,-1.1831,-0.80534,27.758,-0.74794,0.81332,0.031977,0.42,0.54,0
0.31071,0.077072,0.64359,-0.25279,-0.30339,-0.23121,0.099469,0,0,-0.28054,-0.93825,0,2.5862,0,0,0.1633,-0.083863,0,0.18408,-0.17545,-0.38072,-0.23121,37.866,-0.26246,0.18385,-0.00022296,0.44,0.54,0
0.30695,0.090587,0.6143,-0.22735,-0.2853,-0.21523,0.073186,0,0,-0.15764,-0.91101,0,1.9028,0,0,0.13851,-0.066707,0,0.15371,-0.17762,-0.33504,-0.21523,34.2,-0.24263,0.1424,-0.00011415,0.46,0.54,0
0.3044,0.097328,0.58818,-0.21401,-0.2738,-0.20516,0.057062,0,0,-0.11504,-0.89233,0,1.4836,0,0,0.12728,-0.053338,0,0.13795,-0.17949,-0.30833,-0.20516,31.175,-0.23099,0.11811,-7.1333e-05,0.48,0.54,0
0.30235,0.10014,0.56339,-0.2052,-0.26189,-0.19647,0.045153,0,0,-0.11352,-0.85055,0,1.174,0,0,0.12256,-0.043116,0,0.12988,-0.18023,-0.28686,-0.19647,28.94,-0.22119,0.09951,-4.61e-05,0.5,0.54,0
0.29986,0.10009,0.53916,-0.2005,-0.25018,-0.18912,0.035945,0,0,-0.14793,-0.7938,0,0.93457,0,0,0.12061,-0.035384,0,0.12566,-0.18165,-0.26904,-0.18912,27.676,-0.21327,0.083901,-2.9523e-05,0.52,0.54,0
0.29643,0.098042,0.51514,-0.19797,-0.23852,-0.18246,0.029128,0,0,-0.2016,-0.72874,0,0.75733,0,0,0.12,-0.029543,0,0.12357,-0.18275,-0.25373,-0.18246,27.58,-0.20631,0.071126,-1.8479e-05,0.54,0.54,0
0.2918,0.094686,0.49116,-0.19654,-0.22729,-0.17627,0.024289,0,0,-0.26357,-0.66333,0,0.6315,0,0,0.11998,-0.025077,0,0.12256,-0.18317,-0.24066,-0.17627,28.833,-0.20003,0.061237,-1.129e-05,0.56,0.54,0
0.28589,0.090571,0.46715,-0.19552,-0.21685,-0.17043,0.02097,0,0,-0.32622,-0.60355,0,0.54522,0,0,0.12016,-0.021563,0,0.12207,-0.18266,-0.22972,-0.17043,31.52,-0.19427,0.054216,-6.8008e-06,0.58,0.54,0
0.27875,0.086106,0.44309,-0.19452,-0.20735,-0.16487,0.018692,0,0,-0.38543,-0.55226,0,0.48599,0,0,0.12037,-0.018688,0,0.12181,-0.18117,-0.2207,-0.16487,35.527,-0.18891,0.049723,-4.1017e-06,0.6,0.54,0
0.27047,0.081571,0.419,-0.19336,-0.19874,-0.15953,0.017058,0,0,-0.43977,-0.50974,0,0.44351,0,0,0.12055,-0.016233,0,0.12164,-0.17878,-0.21332,-0.15953,40.517,-0.18388,0.047205,-2.5326e-06,0.62,0.54,0
0.26116,0.07714,0.39487,-0.192,-0.1909,-0.15436,0.015786,0,0,-0.48937,-0.47506,0,0.41044,0,0,0.12068,-0.014057,0,0.1215,-0.17566,-0.20725,-0.15436,45.999,-0.17909,0.046091,-1.6567e-06,0.64,0.54,0
0.2509,0.072921,0.37073,-0.19048,-0.18372,-0.14933,0.014696,0,0,-0.53496,-0.44699,0,0.3821,0,0,0.12077,-0.012062,0,0.12137,-0.17202,-0.20218,-0.14933,51.483,-0.17451,0.04592,-1.2036e-06,0.66,0.54,0
0.23976,0.068975,0.34657,-0.18885,-0.17709,-0.14444,0.013675,0,0,-0.57732,-0.42446,0,0.35554,0,0,0.12082,-0.010178,0,0.12125,-0.16808,-0.19785,-0.14444,56.633,-0.17012,0.04636,-1.0083e-06,0.68,0.54,0
0.22781,0.065333,0.3224,-0.18713,-0.17094,-0.13966,0.012644,0,0,-0.61711,-0.40661,0,0.32875,0,0,0.12084,-0.0083491,0,0.12113,-0.16402,-0.19405,-0.13966,61.315,-0.16591,0.047187,-9.6771e-07,0.7,0.54,0
0.21508,0.062007,0.29823,-0.18537,-0.16521,-0.135,0.011545,0,0,-0.65483,-0.3928,0,0.30017,0,0,0.12084,-0.0065247,0,0.12101,-0.15996,-0.19062,-0.135,65.559,-0.16186,0.048251,-1.0143e-06,0.72,0.54,0
0.20161,0.058995,0.27406,-0.18358,-0.15987,-0.13044,0.010321,0,0,-0.69087,-0.3825,0,0.26835,0,0,0.12081,-0.0046537,0,0.1209,-0.156,-0.18745,-0.13044,69.484,-0.15796,0.049456,-1.1034e-06,0.74,0.54,0
0.18744,0.056279,0.2499,-0.1818,-0.15486,-0.12599,0.0089112,0,0,-0.72559,-0.37531,0,0.23169,0,0,0.12077,-0.0026784,0,0.1208,-0.15218,-0.18449,-0.12599,73.259,-0.15422,0.050751,-1.2077e-06,0.76,0.54,0
0.17259,0.053828,0.22575,-0.18006,-0.15017,-0.12165,0.0072351,0,0,-0.7594,-0.37084,0,0.18811,0,0,0.12072,-0.00052607,0,0.12072,-0.14851,-0.18172,-0.12165,77.084,-0.15063,0.052123,-1.3207e-06,0.78,0.54,0
0.15707,0.051595,0.20161,-0.17842,-0.14577,-0.11742,0.0051777,0,0,-0.793,-0.36861,0,0.13462,0,0,0.12067,0.0019042,0,0.12068,-0.14497,-0.17922,-0.11742,81.2,-0.1472,0.053626,-1.4757e-06,0.8,0.54,0
0.14087,0.049506,0.17748,-0.17703,-0.14164,-0.11335,0.0025685,0,0,-0.82787,-0.36773,0,0.06678,0,0,0.12067,0.0047637,0,0.12076,-0.14145,-0.17722,-0.11335,85.871,-0.144,0.055443,-1.8035e-06,0.82,0.54,0
0.12395,0.047454,0.15335,-0.17622,-0.13768,-0.10951,-0.00082935,0,0,-0.86735,-0.36624,0,-0.021563,0,0,0.12081,0.0082941,0,0.12109,-0.13766,-0.17624,-0.10951,-88.768,-0.14114,0.058031,-2.6765e-06,0.84,0.54,0
0.10617,0.045299,0.12916,-0.17667,-0.13372,-0.10604,-0.0053045,0,0,-0.91831,-0.35994,0,-0.13792,0,0,0.1214,0.012891,0,0.12207,-0.13308,-0.17732,-0.10604,-83.063,-0.13881,0.06233,-5.0173e-06,0.86,0.54,0
0.087218,0.042871,0.10479,-0.17976,-0.12954,-0.10327,-0.011049,0,0,-0.9944,-0.34153,0,-0.28728,0,0,0.1232,0.019198,0,0.12465,-0.12722,-0.18208,-0.10327,-78.124,-0.13752,0.069986,-1.0908e-05,0.88,0.54,0
0.066398,0.040091,0.07988,-0.18737,-0.12463,-0.10159,-0.018232,0,0,-1.1151,-0.29959,0,-0.47402,0,0,0.12865,0.028197,0,0.13164,-0.11972,-0.19228,-0.10159,-74.916,-0.13786,0.083123,-2.4832e-05,0.9,0.54,0
0.042614,0.03675,0.053326,-0.20434,-0.12102,-0.10294,-0.027208,0,0,-1.3181,-0.23506,0,-0.70741,0,0,0.14401,0.041353,0,0.14997,-0.11292,-0.21244,-0.10294,-73.425,-0.14277,0.10486,-5.7411e-05,0.92,0.54,0
0.013672,0.031868,0.022274,-0.21897,-0.17388,-0.13011,-0.092495,0,0,-0.76671,-0.10347,0,-0.64422,0,0,0.20528,0.27722,0,0.36423,-0.090043,-0.30281,-0.13011,-58.44,-0.17432,0.19698,-0.00042059,0.94,0.54,0
0.011945,0.037104,0.017168,-0.31363,-0.22257,-0.17803,-0.10002,0,0,-0.17628,-0.057908,0,-0.26006,0,0,0.3381,0.25302,0,0.41735,-0.15821,-0.378,-0.17803,-57.237,-0.23808,0.21058,-0.00046533,0.96,0.54,0
0.0066207,0.037711,0.0087501,-0.4363,-0.22315,-0.20659,-0.064851,0,0,-0.29863,-0.021535,0,-0.16861,0,0,0.4292,0.1107,0,0.44035,-0.20497,-0.45448,-0.20659,-74.34,-0.28868,0.24871,-0.00079001,0.98,0.54,0
0,0.037832,0,-0.45218,-0.20628,-0.19754,0.0023305,0,0,-0.33104,-0.011368,0,0.0060593,0,0,0.4375,2.7756e-17,0,0.43521,-0.20626,-0.45221,-0.19754,89.457,-0.28534,0.25042,-0.00080323,1,0.54,0
0,0.074815,1,-0.58715,-1.7412,-1.6985,0.040356,0,0,1.4447,-0.055469,0,0.10493,0,0,0.62043,-1.3323e-15,0,0.62011,-0.58574,-1.7426,-1.6985,2.0004,-1.3423,1.1354,0.074799,0,0.56,0
0.028895,0.076914,0.98759,-0.57546,-1.7131,-1.6742,0.077939,0,0,1.4283,-0.050632,0,0.20264,0,0,0.63724,-0.046165,0,0.63884,-0.57015,-1.7184,-1.6742,3.901,-1.3209,1.1268,0.073097,0.02,0.56,0
0.057133,0.083881,0.97451,-0.60365,-1.6514,-1.651,0.18134,0,0,1.3616,-0.00049574,0,0.47149,0,0,0.68208,-0.083614,0,0.68793,-0.57315,-1.6819,-1.651,9.5468,-1.302,1.0936,0.067002,0.04,0.56,0
0.083359,0.096715,0.96031,-0.66966,-1.4306,-1.5904,0.2809,0,0,1.1969,0.20776,0,0.73035,0,0,0.74126,-0.084984,0,0.74684,-0.57719,-1.523,-1.5904,18.22,-1.2302,0.98124,0.047753,0.06,0.56,0
0.10501,0.11316,0.94486,-0.69983,-0.96524,-1.4444,0.28403,0,0,0.96792,0.62288,0,0.73847,0,0,0.79519,-0.062172,0,0.79792,-0.51904,-1.146,-1.4444,32.478,-1.0365,0.81805,0.016032,0.08,0.56,0
0.12208,0.12724,0.9285,-0.75663,-0.67266,-1.3573,0.1715,0,0,0.78086,0.89001,0,0.44591,0,0,0.83188,-0.028463,0,0.83233,-0.53808,-0.89121,-1.3573,51.877,-0.92886,0.7117,-0.0043702,0.1,0.56,0
0.13624,0.13593,0.91158,-0.78889,-0.55546,-1.3149,0.071668,0,0,0.6838,0.98726,0,0.18634,0,0,0.85293,-0.014256,0,0.85307,-0.53521,-0.80914,-1.3149,74.224,-0.88641,0.6851,-0.0080628,0.12,0.56,0
0.14943,0.13983,0.89438,-0.77738,-0.47641,-1.2705,0.01526,0,0,0.64108,1.0323,0,0.039676,0,0,0.86518,-0.010065,0,0.86526,-0.47564,-0.77815,-1.2705,87.105,-0.84144,0.6949,-0.0068872,0.14,0.56,0
0.16189,0.14073,0.87698,-0.76874,-0.42606,-1.2354,-0.004029,0,0,0.60668,1.0522,0,-0.010475,0,0,0.87346,-0.011697,0,0.87354,-0.42601,-0.76879,-1.2354,-89.326,-0.81007,0.7037,-0.0046761,0.16,0.56,0
0.17369,0.13983,0.85945,-0.7645,-0.39439,-1.2071,-0.0016133,0,0,0.5754,1.0565,0,-0.0041945,0,0,0.87777,-0.016815,0,0.87792,-0.39439,-0.76451,-1.2071,-89.75,-0.78867,0.70478,-0.0027639,0.18,0.56,0
0.1849,0.13793,0.84187,-0.76249,-0.37568,-1.1833,0.012254,0,0,0.54708,1.0499,0,0.031859,0,0,0.8779,-0.024287,0,0.87823,-0.37529,-0.76288,-1.1833,88.187,-0.77383,0.69996,-0.0012392,0.2,0.56,0
0.19558,0.13539,0.82433,-0.76108,-0.36631,-1.1625,0.030343,0,0,0.52191,1.0351,0,0.078892,0,0,0.87341,-0.033791,0,0.87406,-0.364,-0.76339,-1.1625,85.63,-0.76331,0.69157,9.1454e-06,0.22,0.56,0
0.20578,0.13226,0.80693,-0.76019,-0.36574,-1.1447,0.046929,0,0,0.49987,1.0127,0,0.12202,0,0,0.8635,-0.045507,0,0.8647,-0.36023,-0.7657,-1.1447,83.308,-0.75688,0.67951,0.00094082,0.24,0.56,0
0.21557,0.1282,0.78979,-0.76034,-0.37707,-1.131,0.055559,0,0,0.48187,0.98013,0,0.14445,0,0,0.84681,-0.059848,0,0.84895,-0.36918,-0.76824,-1.131,81.916,-0.75614,0.66002,0.0012163,0.26,0.56,0
0.22506,0.12254,0.77306,-0.76022,-0.40917,-1.1239,0.045557,0,0,0.47275,0.92912,0,0.11845,0,0,0.82124,-0.077212,0,0.82495,-0.40335,-0.76603,-1.1239,82.725,-0.76442,0.62399,0.0001452,0.28,0.56,0
0.23448,0.11399,0.75694,-0.72887,-0.47224,-1.1173,0.0088598,0,0,0.50492,0.83854,0,0.023036,0,0,0.78226,-0.097858,0,0.78858,-0.47193,-0.72918,-1.1173,88.025,-0.77279,0.5627,-0.0031344,0.3,0.56,0
0.24525,0.10171,0.74177,-0.67222,-0.66194,-1.142,-0.040668,0,0,0.61074,0.6241,0,-0.10574,0,0,0.72598,-0.12157,0,0.73674,-0.62609,-0.70807,-1.142,-48.601,-0.82539,0.48021,-0.0051332,0.32,0.56,0
0.25891,0.087034,0.7279,-0.62363,-1.0043,-1.2163,-0.019606,0,0,0.77045,0.27555,0,-0.050974,0,0,0.65281,-0.16841,0,0.67499,-0.62262,-1.0053,-1.2163,-2.9404,-0.94808,0.52125,0.0034649,0.34,0.56,0
0.27607,0.073581,0.71566,-0.54174,-1.2339,-1.2484,0.074862,0,0,0.9186,0.018748,0,0.19464,0,0,0.56817,-0.24239,0,0.61826,-0.53374,-1.2419,-1.2484,6.1026,-1.008,0.71143,0.018489,0.36,0.56,0
0.29566,0.062955,0.70517,-0.43795,-1.3517,-1.2421,0.16834,0,0,1.0453,-0.14249,0,0.43767,0,0,0.46678,-0.34653,0,0.58172,-0.40793,-1.3817,-1.2421,10.114,-1.0106,0.91201,0.0359,0.38,0.56,0
0.31788,0.052664,0.69698,-0.38062,-1.5105,-1.2643,0.19196,0,0,1.1488,-0.32005,0,0.49909,0,0,0.33746,-0.46503,0,0.57829,-0.3489,-1.5422,-1.2643,9.3833,-1.0518,1.0815,0.050793,0.4,0.56,0
0.34161,0.038512,0.69168,-0.29573,-0.89967,-0.73904,0.11863,0,0,0.42482,-0.37966,0,1.3163,0,0,0.21855,-0.28238,0,0.37924,-0.24414,-0.95125,-0.73904,25.746,-0.64481,0.63556,0.026834,0.42,0.56,0
0.33488,0.061294,0.65734,-0.24158,-0.27372,-0.22032,0.076852,0,0,-0.27629,-0.69414,0,1.9981,0,0,0.16306,-0.058432,0,0.17349,-0.17913,-0.33616,-0.22032,39.094,-0.24521,0.14102,-0.00010368,0.44,0.56,0
0.33056,0.074371,0.62645,-0.22729,-0.26883,-0.21148,0.060241,0,0,-0.20549,-0.74556,0,1.5663,0,0,0.14761,-0.054229,0,0.15737,-0.18434,-0.31178,-0.21148,35.488,-0.23587,0.11627,-6.6141e-05,0.46,0.56,0
0.32666,0.081324,0.5983,-0.21891,-0.261,-0.2038,0.048718,0,0,-0.19642,-0.74354,0,1.2667,0,0,0.13669,-0.046914,0,0.14453,-0.18689,-0.29302,-0.2038,33.319,-0.2279,0.098771,-4.4636e-05,0.48,0.56,0
0.3227,0.084604,0.57178,-0.21262,-0.25243,-0.19669,0.039974,0,0,-0.20706,-0.72457,0,1.0393,0,0,0.13034,-0.039915,0,0.13631,-0.18787,-0.27718,-0.19669,31.765,-0.22058,0.085241,-3.0665e-05,0.5,0.56,0
0.31837,0.08538,0.54616,-0.2079,-0.24301,-0.18989,0.032954,0,0,-0.23415,-0.69058,0,0.85679,0,0,0.12683,-0.033905,0,0.13127,-0.18812,-0.2628,-0.18989,30.977,-0.2136,0.073806,-2.0609e-05,0.52,0.56,0
0.31333,0.084354,0.52105,-0.20468,-0.2333,-0.1835,0.02738,0,0,-0.27532,-0.64743,0,0.71189,0,0,0.12492,-0.028939,0,0.12821,-0.18809,-0.24988,-0.1835,31.202,-0.20716,0.064212,-1.3363e-05,0.54,0.56,0
0.30736,0.082079,0.4962,-0.20242,-0.22363,-0.17743,0.023114,0,0,-0.32476,-0.60058,0,0.60096,0,0,0.1239,-0.024876,0,0.12636,-0.18759,-0.23846,-0.17743,32.673,-0.20116,0.05663,-8.3249e-06,0.56,0.56,0
0.30034,0.078999,0.47149,-0.20069,-0.21432,-0.17165,0.019935,0,0,-0.37752,-0.55467,0,0.51831,0,0,0.12336,-0.021523,0,0.12521,-0.18644,-0.22857,-0.17165,35.566,-0.19555,0.051156,-4.9883e-06,0.58,0.56,0
0.29226,0.075459,0.44685,-0.1992,-0.20554,-0.16611,0.017586,0,0,-0.43016,-0.51264,0,0.45724,0,0,0.12306,-0.018698,0,0.12447,-0.1845,-0.22024,-0.16611,39.887,-0.19028,0.047675,-2.9037e-06,0.6,0.56,0
0.28314,0.071715,0.42226,-0.19774,-0.19736,-0.16076,0.015815,0,0,-0.48083,-0.47582,0,0.41119,0,0,0.1229,-0.016252,0,0.12396,-0.18174,-0.21337,-0.16076,45.349,-0.18529,0.045872,-1.6961e-06,0.62,0.56,0
0.27303,0.067947,0.3977,-0.19626,-0.18976,-0.15557,0.014413,0,0,-0.52887,-0.44439,0,0.37475,0,0,0.12279,-0.01407,0,0.12359,-0.17823,-0.20778,-0.15557,51.352,-0.18053,0.045345,-1.0834e-06,0.64,0.56,0
0.26198,0.064275,0.37314,-0.19471,-0.18269,-0.15054,0.013226,0,0,-0.57434,-0.41798,0,0.34389,0,0,0.12273,-0.012069,0,0.12332,-0.17417,-0.20323,-0.15054,57.225,-0.17598,0.045716,-8.6898e-07,0.66,0.56,0
0.25005,0.060775,0.3486,-0.19313,-0.17609,-0.14563,0.012143,0,0,-0.61755,-0.39602,0,0.31571,0,0,0.12269,-0.010182,0,0.12311,-0.16978,-0.19944,-0.14563,62.529,-0.17161,0.046689,-9.2238e-07,0.68,0.56,0
0.23728,0.057494,0.32407,-0.19153,-0.16991,-0.14084,0.011081,0,0,-0.65896,-0.37793,0,0.28811,0,0,0.12268,-0.0083523,0,0.12296,-0.16524,-0.1962,-0.14084,67.144,-0.16742,0.048055,-1.1595e-06,0.7,0.56,0
0.2237,0.054455,0.29953,-0.18993,-0.1641,-0.13616,0.009978,0,0,-0.69901,-0.36319,0,0.25943,0,0,0.12269,-0.0065316,0,0.12287,-0.1607,-0.19334,-0.13616,71.157,-0.1634,0.049681,-1.5286e-06,0.72,0.56,0
0.20932,0.051667,0.27499,-0.18839,-0.15862,-0.1316,0.0087778,0,0,-0.73821,-0.35125,0,0.22822,0,0,0.12275,-0.0046698,0,0.12283,-0.15622,-0.19078,-0.1316,74.734,-0.15954,0.051492,-2.004e-06,0.74,0.56,0
0.19417,0.049121,0.25043,-0.18693,-0.15342,-0.12715,0.007425,0,0,-0.77711,-0.34158,0,0.19305,0,0,0.12284,-0.0027124,0,0.12287,-0.15185,-0.1885,-0.12715,78.047,-0.15583,0.053465,-2.5862e-06,0.76,0.56,0
0.17824,0.0468,0.22585,-0.18562,-0.14847,-0.12281,0.0058575,0,0,-0.81653,-0.33354,0,0.1523,0,0,0.12302,-0.00059461,0,0.12301,-0.14757,-0.18652,-0.12281,81.249,-0.1523,0.055631,-3.3122e-06,0.78,0.56,0
0.16151,0.044671,0.20123,-0.18459,-0.1437,-0.11861,0.0040029,0,0,-0.8577,-0.32623,0,0.10408,0,0,0.12331,0.0017668,0,0.12331,-0.14332,-0.18498,-0.11861,84.46,-0.14897,0.058095,-4.2828e-06,0.8,0.56,0
0.14393,0.042687,0.17653,-0.18401,-0.13905,-0.11457,0.0017814,0,0,-0.90271,-0.31821,0,0.046315,0,0,0.12381,0.0044832,0,0.12389,-0.13898,-0.18408,-0.11457,87.735,-0.14588,0.06108,-5.7204e-06,0.82,0.56,0
0.1254,0.040795,0.1517,-0.18421,-0.13437,-0.11074,-0.00087281,0,0,-0.95503,-0.30714,0,-0.022693,0,0,0.12472,0.007704,0,0.12495,-0.13435,-0.18422,-0.11074,-88.997,-0.14311,0.064975,-8.075e-06,0.84,0.56,0
0.10573,0.03894,0.12664,-0.18567,-0.12947,-0.10721,-0.0039445,0,0,-1.02,-0.28943,0,-0.10256,0,0,0.1264,0.011614,0,0.12693,-0.1292,-0.18595,-0.10721,-86.005,-0.14078,0.070372,-1.2184e-05,0.86,0.56,0
0.084596,0.037103,0.10114,-0.18893,-0.12403,-0.104,-0.0072634,0,0,-1.1041,-0.26032,0,-0.18885,0,0,0.12966,0.016373,0,0.13069,-0.12322,-0.18973,-0.104,-83.692,-0.13899,0.077921,-1.9405e-05,0.88,0.56,0
0.061563,0.035288,0.074778,-0.19446,-0.1179,-0.10119,-0.01042,0,0,-1.2126,-0.21732,0,-0.27093,0,0,0.13587,0.021842,0,0.13764,-0.11651,-0.19585,-0.10119,-82.386,-0.13785,0.088011,-3.1465e-05,0.9,0.56,0
0.036093,0.033444,0.046794,-0.20195,-0.11063,-0.098451,-0.013336,0,0,-1.3455,-0.15825,0,-0.34675,0,0,0.14529,0.026021,0,0.14773,-0.10872,-0.20386,-0.098451,-81.859,-0.13701,0.10067,-5.056e-05,0.92,0.56,0
0.0077442,0.03076,0.016663,-0.20763,-0.1386,-0.11303,-0.015403,0,0,-0.76083,-0.060421,0,-0.19716,0,0,0.17999,0.12241,0,0.23008,-0.13407,-0.21216,-0.11303,-74.919,-0.15309,0.092614,-3.5492e-05,0.94,0.56,0
0.00566,0.034156,0.012477,-0.26306,-0.29177,-0.17893,-0.03218,0,0,-0.10938,-0.1467,0,-0.083667,0,0,0.24996,0.18508,0,0.31302,-0.24218,-0.31266,-0.17893,-32.979,-0.24459,0.11587,-7.4574e-06,0.96,0.56,0
0.0033692,0.035948,0.0066648,-0.27943,-0.26696,-0.17058,-0.025643,0,0,-0.1415,-0.12529,0,-0.066671,0,0,0.31192,0.089791,0,0.32271,-0.2468,-0.29958,-0.17058,-51.831,-0.23899,0.11233,2.246e-05,0.98,0.56,0
0,0.036306,0,-0.29353,-0.25296,-0.16395,0.0068908,0,0,-0.16846,-0.11571,0,0.017916,0,0,0.33324,1.0408e-17,0,0.33123,-0.25182,-0.29467,-0.16395,80.62,-0.23681,0.11543,4.3869e-05,1,0.56,0
0,0.073367,1,-0.66647,-1.8167,-1.745,0.03844,0,0,1.402,-0.093313,0,0.099943,0,0,0.55826,-2.2413e-15,0,0.55736,-0.66519,-1.818,-1.745,1.9119,-1.4094,1.1181,0.070758,0,0.58,0
0.028041,0.075366,0.98884,-0.64242,-1.7898,-1.7185,0.080962,0,0,1.3989,-0.092715,0,0.2105,0,0,0.57822,-0.076521,0,0.58242,-0.63673,-1.7955,-1.7185,4.0163,-1.3836,1.1223,0.071443,0.02,0.58,0
0.055957,0.082858,0.97687,-0.67211,-1.8007,-1.7187,0.2091,0,0,1.3606,-0.10656,0,0.54365,0,0,0.65385,-0.16358,0,0.67457,-0.63461,-1.8382,-1.7187,10.166,-1.3972,1.1485,0.074974,0.04,0.58,0
0.082464,0.099953,0.96268,-0.75158,-1.6034,-1.6692,0.38153,0,0,1.1929,0.085505,0,0.99198,0,0,0.75649,-0.22573,0,0.79395,-0.60568,-1.7493,-1.6692,20.927,-1.3414,1.1057,0.068207,0.06,0.58,0
0.10367,0.12683,0.94661,-0.67118,-0.68081,-1.3522,0.30883,0,0,0.88534,0.87281,0,0.80295,0,0,0.83563,-0.075864,0,0.8373,-0.36713,-0.98486,-1.3522,44.553,-0.9014,0.86224,0.013938,0.08,0.58,0
0.11788,0.14644,0.92926,-0.78697,-0.59534,-1.3439,0.1516,0,0,0.72407,0.97319,0,0.39415,0,0,0.86501,-0.038822,0,0.8658,-0.51182,-0.87049,-1.3439,61.148,-0.90875,0.72293,-0.0045828,0.1,0.58,0
0.13264,0.1561,0.91201,-0.70931,-0.50353,-1.2759,0.049994,0,0,0.73652,1.004,0,0.12998,0,0,0.86422,-0.023624,0,0.86454,-0.49203,-0.72081,-1.2759,77.042,-0.82957,0.69815,-0.01136,0.12,0.58,0
0.14734,0.16045,0.89469,-0.67906,-0.45438,-1.2347,0.011449,0,0,0.72236,1.0144,0,0.029767,0,0,0.86839,-0.017714,0,0.86857,-0.4538,-0.67964,-1.2347,87.09,-0.78939,0.69604,-0.011372,0.14,0.58,0
0.16153,0.16148,0.87728,-0.6739,-0.42325,-1.2064,-0.00056885,0,0,0.69228,1.0181,0,-0.001479,0,0,0.87204,-0.016561,0,0.8722,-0.42325,-0.6739,-1.2064,-89.87,-0.76785,0.69273,-0.0098457,0.16,0.58,0
0.17503,0.16055,0.85981,-0.67743,-0.40271,-1.1839,0.0025196,0,0,0.65834,1.0155,0,0.0065509,0,0,0.87353,-0.018182,0,0.87372,-0.40269,-0.67745,-1.1839,89.475,-0.75467,0.68634,-0.008087,0.18,0.58,0
0.18786,0.15847,0.84233,-0.67993,-0.38906,-1.163,0.013272,0,0,0.62803,1.0062,0,0.034508,0,0,0.87166,-0.021596,0,0.87192,-0.38845,-0.68053,-1.163,87.393,-0.744,0.67753,-0.0065569,0.2,0.58,0
0.20015,0.15562,0.82494,-0.67693,-0.38056,-1.1422,0.027025,0,0,0.60483,0.99011,0,0.070266,0,0,0.86542,-0.026343,0,0.86583,-0.37811,-0.67937,-1.1422,84.832,-0.73323,0.66662,-0.0054224,0.22,0.58,0
0.21206,0.15205,0.80772,-0.66782,-0.37709,-1.1212,0.039971,0,0,0.58938,0.96733,0,0.10393,0,0,0.85374,-0.032244,0,0.85437,-0.3717,-0.67322,-1.1212,82.313,-0.72204,0.6532,-0.0047333,0.24,0.58,0
0.22373,0.14742,0.79079,-0.65611,-0.38084,-1.1019,0.047256,0,0,0.57949,0.93734,0,0.12287,0,0,0.83524,-0.039192,0,0.83622,-0.37296,-0.664,-1.1019,80.525,-0.71294,0.63552,-0.0044875,0.26,0.58,0
0.23524,0.14092,0.77431,-0.65065,-0.39757,-1.0888,0.041262,0,0,0.56956,0.89856,0,0.10728,0,0,0.80798,-0.04692,0,0.80948,-0.39101,-0.65721,-1.0888,80.97,-0.71233,0.60991,-0.004623,0.28,0.58,0
0.24651,0.13113,0.75847,-0.6686,-0.4462,-1.0929,-0.0037575,0,0,0.5516,0.84073,0,-0.0097694,0,0,0.77016,-0.05453,0,0.7724,-0.44613,-0.66867,-1.0929,-89.032,-0.7359,0.56913,-0.0048227,0.3,0.58,0
0.2573,0.11449,0.7435,-0.55682,-0.49722,-1.0597,-0.089866,0,0,0.65376,0.73124,0,-0.23365,0,0,0.70081,-0.059066,0,0.70352,-0.43234,-0.6217,-1.0597,-54.173,-0.70458,0.55736,-0.0055563,0.32,0.58,0
0.27266,0.091385,0.73044,-0.55828,-1.1308,-1.2371,-0.12199,0,0,0.88253,0.1383,0,-0.31718,0,0,0.59754,-0.033472,0,0.60423,-0.53337,-1.1557,-1.2371,-11.541,-0.9754,0.66679,0.014463,0.34,0.58,0
0.2926,0.072419,0.7196,-0.45758,-1.3769,-1.2699,0.0094404,0,0,1.0561,-0.13901,0,0.024545,0,0,0.48109,-0.1513,0,0.50434,-0.45748,-1.377,-1.2699,0.5883,-1.0348,0.87091,0.032206,0.36,0.58,0
0.3149,0.058762,0.71119,-0.37577,-1.4286,-1.2525,0.10284,0,0,1.1398,-0.22894,0,0.26739,0,0,0.37344,-0.25777,0,0.45437,-0.36582,-1.4386,-1.2525,5.527,-1.019,0.99289,0.044379,0.38,0.58,0
0.33819,0.046526,0.70466,-0.33921,-1.4742,-1.2487,0.11409,0,0,1.1823,-0.29317,0,0.29663,0,0,0.27594,-0.33257,0,0.43448,-0.32786,-1.4855,-1.2487,5.6836,-1.0207,1.0593,0.050912,0.4,0.58,0
0.36219,0.032574,0.70016,-0.26396,-0.82335,-0.71128,0.084442,0,0,0.41459,-0.26489,0,1.0268,0,0,0.19561,-0.20158,0,0.30054,-0.22297,-0.86434,-0.71128,25.859,-0.59953,0.5883,0.026002,0.42,0.58,0
0.35478,0.049306,0.66696,-0.23982,-0.25635,-0.21555,0.062858,0,0,-0.31554,-0.53043,0,1.6343,0,0,0.16042,-0.042156,0,0.16596,-0.18468,-0.31148,-0.21555,41.255,-0.23724,0.11453,-5.8683e-05,0.44,0.58,0
0.34957,0.060765,0.63599,-0.22844,-0.25733,-0.20933,0.051565,0,0,-0.24845,-0.62399,0,1.3407,0,0,0.15002,-0.042674,0,0.15605,-0.18934,-0.29644,-0.20933,37.176,-0.2317,0.098634,-4.2538e-05,0.46,0.58,0
0.34484,0.067586,0.60695,-0.22143,-0.25214,-0.20277,0.042337,0,0,-0.24266,-0.64183,0,1.1008,0,0,0.1416,-0.039747,0,0.1471,-0.19175,-0.28182,-0.20277,35.034,-0.22545,0.085098,-2.987e-05,0.48,0.58,0
0.33987,0.071157,0.57935,-0.21653,-0.24511,-0.19642,0.035267,0,0,-0.26131,-0.63286,0,0.91694,0,0,0.13557,-0.035585,0,0.14017,-0.19276,-0.26887,-0.19642,33.971,-0.21935,0.074342,-2.0929e-05,0.5,0.58,0
0.33438,0.072464,0.55272,-0.21264,-0.23719,-0.19022,0.029607,0,0,-0.29143,-0.61061,0,0.76979,0,0,0.13159,-0.031334,0,0.13526,-0.19286,-0.25697,-0.19022,33.74,-0.21335,0.065464,-1.433e-05,0.52,0.58,0
0.32821,0.072145,0.52672,-0.20954,-0.22878,-0.18417,0.025014,0,0,-0.32983,-0.57994,0,0.65036,0,0,0.12903,-0.027423,0,0.13191,-0.19236,-0.24596,-0.18417,34.483,-0.20749,0.05813,-9.4164e-06,0.54,0.58,0
0.32119,0.070663,0.50111,-0.20708,-0.22022,-0.1783,0.021335,0,0,-0.37416,-0.54494,0,0.55471,0,0,0.1274,-0.023973,0,0.12963,-0.19133,-0.23597,-0.1783,36.444,-0.20187,0.052389,-5.8738e-06,0.56,0.58,0
0.31324,0.068384,0.47576,-0.20507,-0.21178,-0.17263,0.018445,0,0,-0.42171,-0.50894,0,0.47957,0,0,0.12634,-0.020969,0,0.12806,-0.18968,-0.22717,-0.17263,39.846,-0.19649,0.048328,-3.4599e-06,0.58,0.58,0
0.30432,0.0656,0.45057,-0.20332,-0.20363,-0.16714,0.016195,0,0,-0.47026,-0.47437,0,0.42107,0,0,0.12565,-0.018342,0,0.12697,-0.18728,-0.21967,-0.16714,44.721,-0.19136,0.045901,-1.942e-06,0.6,0.58,0
0.29443,0.062538,0.4255,-0.20169,-0.19587,-0.16182,0.014428,0,0,-0.51833,-0.44269,0,0.37514,0,0,0.12518,-0.016014,0,0.1262,-0.18406,-0.2135,-0.16182,50.7,-0.18646,0.044902,-1.1078e-06,0.62,0.58,0
0.28359,0.059365,0.4005,-0.20012,-0.18853,-0.15665,0.012999,0,0,-0.56515,-0.41453,0,0.33798,0,0,0.12487,-0.01391,0,0.12564,-0.18009,-0.20856,-0.15665,57.01,-0.18177,0.045027,-7.8018e-07,0.64,0.58,0
0.27183,0.056202,0.37555,-0.19857,-0.18161,-0.15161,0.011787,0,0,-0.61048,-0.38998,0,0.30646,0,0,0.12466,-0.011967,0,0.12523,-0.17557,-0.20461,-0.15161,62.867,-0.17726,0.04597,-8.2417e-07,0.66,0.58,0
0.25917,0.053134,0.35064,-0.19703,-0.17507,-0.14669,0.010695,0,0,-0.65442,-0.36886,0,0.27808,0,0,0.12454,-0.010129,0,0.12495,-0.17072,-0.20138,-0.14669,67.88,-0.17293,0.047476,-1.1445e-06,0.68,0.58,0
0.24565,0.050215,0.32574,-0.19553,-0.16889,-0.1419,0.0096505,0,0,-0.69725,-0.35081,0,0.25091,0,0,0.12449,-0.0083471,0,0.12477,-0.16576,-0.19866,-0.1419,72.043,-0.16877,0.049365,-1.6794e-06,0.7,0.58,0
0.23128,0.04748,0.30084,-0.19409,-0.16302,-0.13722,0.0085937,0,0,-0.73937,-0.33544,0,0.22344,0,0,0.12452,-0.0065782,0,0.12469,-0.1608,-0.19631,-0.13722,75.525,-0.16478,0.051522,-2.395e-06,0.72,0.58,0
0.21607,0.044945,0.27593,-0.19274,-0.15744,-0.13265,0.0074764,0,0,-0.78126,-0.32226,0,0.19439,0,0,0.12463,-0.004778,0,0.12472,-0.15592,-0.19426,-0.13265,78.524,-0.16094,0.05389,-3.2844e-06,0.74,0.58,0
0.20003,0.042616,0.25099,-0.19154,-0.15209,-0.12819,0.0062564,0,0,-0.82359,-0.31072,0,0.16267,0,0,0.12485,-0.0029011,0,0.12488,-0.15112,-0.19251,-0.12819,81.201,-0.15727,0.056463,-4.3713e-06,0.76,0.58,0
0.18313,0.040487,0.22599,-0.19055,-0.14693,-0.12384,0.0048964,0,0,-0.86721,-0.30014,0,0.12731,0,0,0.1252,-0.0008976,0,0.1252,-0.14639,-0.1911,-0.12384,83.674,-0.15378,0.059286,-5.7215e-06,0.78,0.58,0
0.16534,0.038546,0.20091,-0.18989,-0.1419,-0.11963,0.0033675,0,0,-0.91336,-0.28959,0,0.087556,0,0,0.12575,0.0012876,0,0.12576,-0.14167,-0.19012,-0.11963,86.005,-0.15047,0.062462,-7.4656e-06,0.8,0.58,0
0.1466,0.036777,0.17569,-0.18969,-0.13692,-0.11555,0.001661,0,0,-0.96379,-0.2778,0,0.043187,0,0,0.12661,0.0037137,0,0.12666,-0.13687,-0.18974,-0.11555,88.199,-0.14739,0.06616,-9.8345e-06,0.82,0.58,0
0.12679,0.035168,0.15027,-0.19016,-0.13188,-0.11164,-0.00018662,0,0,-1.0208,-0.2631,0,-0.004852,0,0,0.12795,0.0064312,0,0.1281,-0.13188,-0.19016,-0.11164,-89.817,-0.14456,0.070615,-1.3202e-05,0.84,0.58,0
0.10576,0.033722,0.12451,-0.19149,-0.12663,-0.10789,-0.0020612,0,0,-1.0868,-0.24363,0,-0.053592,0,0,0.13007,0.0094413,0,0.13042,-0.12656,-0.19155,-0.10789,-88.182,-0.142,0.07607,-1.8096e-05,0.86,0.58,0
0.083316,0.032458,0.098236,-0.19379,-0.12108,-0.10428,-0.0037499,0,0,-1.1636,-0.21828,0,-0.097497,0,0,0.13342,0.012582,0,0.13402,-0.12088,-0.19398,-0.10428,-87.056,-0.13972,0.082662,-2.5112e-05,0.88,0.58,0
0.05922,0.031398,0.071143,-0.19701,-0.11517,-0.10077,-0.005068,0,0,-1.2511,-0.18721,0,-0.13177,0,0,0.1383,0.015214,0,0.13916,-0.11485,-0.19732,-0.10077,-86.47,-0.13765,0.090335,-3.4777e-05,0.9,0.58,0
0.033272,0.03042,0.042917,-0.20158,-0.10896,-0.097453,-0.0057148,0,0,-1.3537,-0.14957,0,-0.14858,0,0,0.14443,0.015796,0,0.14533,-0.10861,-0.20193,-0.097453,-86.483,-0.136,0.099372,-4.8264e-05,0.92,0.58,0
0.0050737,0.029451,0.013371,-0.19586,-0.14515,-0.10966,-0.0025062,0,0,-0.74653,-0.083886,0,-0.068184,0,0,0.16403,0.072061,0,0.18636,-0.14467,-0.19633,-0.10966,-33.033,-0.15022,0.085008,-2.3232e-05,0.94,0.58,0
0.0034109,0.031236,0.0097648,-0.21965,-0.27034,-0.15676,0.0027771,0,0,-0.081757,-0.14765,0,0.0072204,0,0,0.20533,0.10874,0,0.23334,-0.2195,-0.27049,-0.15676,3.1267,-0.21559,0.098668,8.7692e-06,0.96,0.58,0
0.0018034,0.032699,0.0051584,-0.22544,-0.29018,-0.15984,-0.00048555,0,0,-0.085274,-0.16944,0,-0.0012624,0,0,0.24412,0.060782,0,0.25097,-0.22543,-0.29018,-0.15984,-0.42969,-0.22515,0.11288,8.2912e-07,0.98,0.58,0
0,0.033204,0,-0.21914,-0.28011,-0.14977,0.0096975,0,0,-0.090172,-0.16944,0,0.025214,0,0,0.25792,3.4694e-18,0,0.25669,-0.21763,-0.28162,-0.14977,8.8225,-0.21634,0.1142,3.8895e-06,1,0.58,0
0,0.071083,1,-0.71669,-1.9062,-1.7869,0.040816,0,0,1.3912,-0.15509,0,0.10612,0,0,0.46739,-6.3144e-16,0,0.46574,-0.71529,-1.9076,-1.7869,1.963,-1.4699,1.1367,0.072579,0,0.6,0
0.027824,0.073205,0.99065,-0.74393,-1.9139,-1.788,0.10087,0,0,1.3573,-0.16369,0,0.26226,0,0,0.47367,-0.096906,0,0.48141,-0.7353,-1.9225,-1.788,4.8916,-1.482,1.126,0.069811,0.02,0.6,0
0.054292,0.079618,0.98105,-0.84472,-1.9858,-1.8302,0.30284,0,0,1.2812,-0.20229,0,0.78738,0,0,0.53287,-0.2219,0,0.57119,-0.76933,-2.0612,-1.8302,13.979,-1.5536,1.1933,0.07636,0.04,0.6,0
0.07907,0.10014,0.96934,-0.74624,-1.3444,-1.1603,0.38726,0,0,0.79861,-0.74255,0,2.5053,0,0,0.42756,-0.24371,0,0.4977,-0.55456,-1.5361,-1.1603,28.375,-1.0837,0.8612,0.040177,0.06,0.6,0
0.090639,0.14807,0.9479,-0.49871,-0.46588,-0.81072,0.23903,0,0,0.73748,-0.29755,0,1.7188,0,0,0.54015,-0.055099,0,0.54493,-0.21452,-0.75006,-0.81072,38.382,-0.59177,0.6074,0.017464,0.08,0.6,0
0.10857,0.16617,0.93005,-0.35977,-0.43167,-0.74896,0.0706,0,0,0.91991,-0.31295,0,0.77782,0,0,0.48626,-0.036153,0,0.48952,-0.29384,-0.4976,-0.74896,33.321,-0.51347,0.47151,-0.0086967,0.1,0.6,0
0.12744,0.17609,0.91253,-0.33418,-0.3996,-0.72203,0.034548,0,0,0.91672,-0.30697,0,0.4656,0,0,0.48072,-0.025655,0,0.48269,-0.29123,-0.44255,-0.72203,37.263,-0.48527,0.46071,-0.0099414,0.12,0.6,0
0.14524,0.18041,0.89509,-0.3537,-0.39333,-0.71641,0.016326,0,0,0.85731,-0.29065,0,0.29407,0,0,0.47974,-0.020761,0,0.48113,-0.29783,-0.4492,-0.71641,45.32,-0.48781,0.44439,-0.0088858,0.14,0.6,0
0.16173,0.18145,0.87764,-0.37583,-0.38661,-0.71143,0.010417,0,0,0.79324,-0.27123,0,0.22128,0,0,0.48014,-0.018613,0,0.48126,-0.29601,-0.46643,-0.71143,46.851,-0.49129,0.43171,-0.0074642,0.16,0.6,0
0.17697,0.18045,0.86017,-0.39333,-0.38027,-0.70517,0.010473,0,0,0.73708,-0.25389,0,0.20463,0,0,0.48,-0.018118,0,0.481,-0.29337,-0.48023,-0.70517,46.661,-0.49293,0.42121,-0.0061237,0.18,0.6,0
0.19121,0.17818,0.84273,-0.40163,-0.37354,-0.69605,0.013855,0,0,0.6959,-0.242,0,0.21992,0,0,0.47835,-0.01864,0,0.47933,-0.2892,-0.48597,-0.69605,46.136,-0.49041,0.41247,-0.0051183,0.2,0.6,0
0.2048,0.175,0.82538,-0.39868,-0.36633,-0.68346,0.018502,0,0,0.67313,-0.23728,0,0.24683,0,0,0.47452,-0.019764,0,0.47552,-0.28317,-0.48184,-0.68346,45.451,-0.48282,0.40476,-0.004568,0.22,0.6,0
0.21814,0.17095,0.80822,-0.38347,-0.35844,-0.66709,0.022614,0,0,0.67039,-0.24034,0,0.26622,0,0,0.46786,-0.021159,0,0.4689,-0.2751,-0.46681,-0.66709,44.453,-0.46967,0.39768,-0.0044936,0.24,0.6,0
0.23162,0.1657,0.79136,-0.35718,-0.35053,-0.64756,0.02516,0,0,0.68086,-0.25072,0,0.2814,0,0,0.45822,-0.022455,0,0.45927,-0.26629,-0.44142,-0.64756,43.207,-0.45176,0.39106,-0.0048218,0.26,0.6,0
0.24564,0.15848,0.77494,-0.31667,-0.33972,-0.62313,0.017097,0,0,0.73313,-0.26675,0,0.13777,0,0,0.44249,-0.023086,0,0.44347,-0.25388,-0.40251,-0.62313,40.459,-0.42651,0.38619,-0.0054228,0.28,0.6,0
0.26052,0.14762,0.75912,-0.29061,-0.34441,-0.60802,0.002359,0,0,0.75024,-0.28312,0,0.0050421,0,0,0.42356,-0.02169,0,0.42426,-0.26186,-0.37316,-0.60802,42.592,-0.41435,0.37623,-0.0056262,0.3,0.6,0
0.27565,0.13096,0.74413,-0.31171,-0.34262,-0.60557,-0.10407,0,0,0.69458,-0.28734,0,-0.64099,0,0,0.41087,-0.016644,0,0.41086,-0.19226,-0.46206,-0.60557,-31.791,-0.41996,0.40843,-0.00062338,0.32,0.6,0
0.2883,0.092566,0.72924,-0.42895,-0.92885,-0.80842,-0.19461,0,0,0.77795,-0.5226,0,-1.2486,0,0,0.28685,0.056152,0,0.29118,-0.36125,-0.99655,-0.80842,-21.256,-0.72208,0.56846,0.018164,0.34,0.6,0
0.30967,0.06802,0.72171,-0.47295,-1.5149,-1.3181,-0.090613,0,0,1.0986,-0.25589,0,-0.23559,0,0,0.34386,-0.08685,0,0.34966,-0.46513,-1.5227,-1.3181,-4.9334,-1.102,0.97157,0.040147,0.36,0.6,0
0.33225,0.053797,0.71549,-0.38953,-1.4894,-1.2792,0.042933,0,0,1.1565,-0.27329,0,0.11163,0,0,0.28551,-0.18845,0,0.34134,-0.38785,-1.4911,-1.2792,2.232,-1.0527,1.014,0.045764,0.38,0.6,0
0.35594,0.040937,0.71029,-0.33054,-1.4585,-1.247,0.064839,0,0,1.1914,-0.27494,0,0.16858,0,0,0.22873,-0.24905,0,0.33909,-0.32683,-1.4622,-1.247,3.2792,-1.012,1.0445,0.050259,0.4,0.6,0
0.3799,0.027916,0.70634,-0.26091,-0.79974,-0.70668,0.059991,0,0,0.40301,-0.21997,0,0.79866,0,0,0.17911,-0.15058,0,0.25055,-0.228,-0.83265,-0.70668,25.919,-0.58911,0.56092,0.024857,0.42,0.6,0
0.37206,0.040076,0.67421,-0.23989,-0.24528,-0.21297,0.051606,0,0,-0.34991,-0.42005,0,1.3418,0,0,0.15704,-0.032409,0,0.16038,-0.19091,-0.29426,-0.21297,43.504,-0.23271,0.094278,-3.5221e-05,0.44,0.6,0
0.3659,0.049411,0.64352,-0.2306,-0.24817,-0.20798,0.044331,0,0,-0.29404,-0.52243,0,1.1526,0,0,0.15002,-0.034132,0,0.15389,-0.19419,-0.28458,-0.20798,39.396,-0.22892,0.084341,-2.8057e-05,0.46,0.6,0
0.36029,0.05565,0.6142,-0.2241,-0.24508,-0.20217,0.037235,0,0,-0.28509,-0.55773,0,0.96812,0,0,0.14378,-0.033373,0,0.14762,-0.19591,-0.27327,-0.20217,37.136,-0.22379,0.074432,-2.0673e-05,0.48,0.6,0
0.3545,0.059289,0.58601,-0.21958,-0.23934,-0.19628,0.031308,0,0,-0.30295,-0.5598,0,0.814,0,0,0.13875,-0.031157,0,0.14222,-0.19663,-0.26229,-0.19628,36.244,-0.2184,0.065836,-1.4655e-05,0.5,0.6,0
0.34818,0.060955,0.5587,-0.2161,-0.23242,-0.19043,0.026489,0,0,-0.33379,-0.54591,0,0.68871,0,0,0.13499,-0.028337,0,0.13794,-0.19654,-0.25198,-0.19043,36.44,-0.21298,0.058732,-1.0026e-05,0.52,0.6,0
0.34115,0.061156,0.53202,-0.21324,-0.22492,-0.18465,0.022547,0,0,-0.37168,-0.52349,0,0.58623,0,0,0.13228,-0.025409,0,0.1347,-0.19579,-0.24237,-0.18465,37.741,-0.2076,0.053036,-6.5372e-06,0.54,0.6,0
0.33331,0.060282,0.50579,-0.21082,-0.21716,-0.17897,0.019331,0,0,-0.41401,-0.49646,0,0.5026,0,0,0.13035,-0.022612,0,0.1323,-0.1944,-0.23358,-0.17897,40.342,-0.20232,0.048759,-4.006e-06,0.56,0.6,0
0.32459,0.058641,0.47987,-0.20873,-0.20939,-0.17342,0.01673,0,0,-0.45902,-0.46756,0,0.43497,0,0,0.12899,-0.020034,0,0.13053,-0.19233,-0.22579,-0.17342,44.437,-0.19718,0.045935,-2.2876e-06,0.58,0.6,0
0.31495,0.056484,0.45419,-0.20688,-0.20176,-0.16801,0.014639,0,0,-0.50525,-0.43878,0,0.38061,0,0,0.12802,-0.01769,0,0.12923,-0.18946,-0.21918,-0.16801,49.954,-0.19222,0.044506,-1.2478e-06,0.6,0.6,0
0.30438,0.054008,0.42867,-0.20517,-0.19438,-0.16273,0.012951,0,0,-0.55169,-0.41143,0,0.33672,0,0,0.12733,-0.015556,0,0.12827,-0.18574,-0.2138,-0.16273,56.307,-0.18743,0.044302,-7.5953e-07,0.62,0.6,0
0.29288,0.051366,0.40326,-0.20356,-0.18729,-0.15758,0.011562,0,0,-0.59768,-0.38627,0,0.30061,0,0,0.12684,-0.013593,0,0.12756,-0.18129,-0.20956,-0.15758,62.559,-0.18281,0.045073,-7.1134e-07,0.64,0.6,0
0.28047,0.048676,0.37793,-0.20201,-0.18052,-0.15255,0.010379,0,0,-0.64296,-0.36361,0,0.26987,0,0,0.12651,-0.011761,0,0.12705,-0.17633,-0.20621,-0.15255,67.995,-0.17836,0.046565,-1.0135e-06,0.66,0.6,0
0.26716,0.046021,0.35265,-0.20053,-0.17407,-0.14764,0.0093257,0,0,-0.68751,-0.34349,0,0.24247,0,0,0.12631,-0.01002,0,0.12671,-0.17111,-0.20349,-0.14764,72.412,-0.17408,0.048565,-1.6006e-06,0.68,0.6,0
0.25297,0.043461,0.32741,-0.19912,-0.16791,-0.14285,0.0083376,0,0,-0.73151,-0.32576,0,0.21678,0,0,0.12623,-0.0083298,0,0.1265,-0.16582,-0.20121,-0.14285,75.943,-0.16996,0.050919,-2.4311e-06,0.7,0.6,0
0.2379,0.041038,0.30216,-0.1978,-0.16202,-0.13816,0.0073654,0,0,-0.77529,-0.31012,0,0.1915,0,0,0.12626,-0.0066555,0,0.12644,-0.16056,-0.19925,-0.13816,78.812,-0.16599,0.053533,-3.487e-06,0.72,0.6,0
0.22196,0.038776,0.2769,-0.1966,-0.15637,-0.13358,0.0063704,0,0,-0.81927,-0.29621,0,0.16563,0,0,0.12642,-0.0049616,0,0.12652,-0.15538,-0.19759,-0.13358,81.215,-0.16218,0.056362,-4.7752e-06,0.74,0.6,0
0.20513,0.036693,0.2516,-0.19557,-0.15092,-0.12911,0.0053239,0,0,-0.86405,-0.28357,0,0.13842,0,0,0.12673,-0.003214,0,0.12676,-0.15029,-0.1962,-0.12911,83.294,-0.15853,0.059403,-6.3316e-06,0.76,0.6,0
0.1874,0.034795,0.22621,-0.19477,-0.14564,-0.12474,0.0042092,0,0,-0.91035,-0.27162,0,0.10944,0,0,0.1272,-0.0013803,0,0.12721,-0.14528,-0.19513,-0.12474,85.139,-0.15505,0.062693,-8.2293e-06,0.78,0.6,0
0.16872,0.033087,0.20071,-0.19427,-0.14047,-0.12049,0.0030256,0,0,-0.95913,-0.25965,0,0.078665,0,0,0.12792,0.00056722,0,0.12792,-0.1403,-0.19444,-0.12049,86.792,-0.15174,0.066303,-1.0591e-05,0.8,0.6,0
0.14903,0.031575,0.17505,-0.19416,-0.13534,-0.11636,0.001798,0,0,-1.0115,-0.24684,0,0.046748,0,0,0.12895,0.0026428,0,0.12898,-0.13529,-0.19422,-0.11636,88.251,-0.14862,0.070332,-1.3599e-05,0.82,0.6,0
0.12826,0.030271,0.14913,-0.19453,-0.13021,-0.11233,0.00058797,0,0,-1.0685,-0.23236,0,0.015287,0,0,0.13044,0.004827,0,0.13053,-0.1302,-0.19453,-0.11233,89.476,-0.14569,0.07488,-1.7494e-05,0.84,0.6,0
0.10629,0.029195,0.12287,-0.19541,-0.125,-0.10841,-0.0005014,0,0,-1.131,-0.21571,0,-0.013036,0,0,0.13256,0.0070234,0,0.13274,-0.125,-0.19541,-0.10841,-89.592,-0.14294,0.080008,-2.254e-05,0.86,0.6,0
0.083019,0.028371,0.096109,-0.1968,-0.11971,-0.10457,-0.0013543,0,0,-1.199,-0.19694,0,-0.035212,0,0,0.13544,0.0089761,0,0.13574,-0.11969,-0.19682,-0.10457,-88.994,-0.14036,0.085703,-2.8965e-05,0.88,0.6,0
0.058331,0.0278,0.068692,-0.19872,-0.11435,-0.10079,-0.0018525,0,0,-1.2731,-0.17632,0,-0.048166,0,0,0.13908,0.010172,0,0.13947,-0.11431,-0.19876,-0.10079,-88.743,-0.13795,0.091956,-3.7041e-05,0.9,0.6,0
0.032097,0.027461,0.040476,-0.20097,-0.10845,-0.096875,-0.0018047,0,0,-1.3533,-0.15052,0,-0.046924,0,0,0.14317,0.0099541,0,0.14354,-0.10842,-0.20101,-0.096875,-88.883,-0.13543,0.098867,-4.736e-05,0.92,0.6,0
0.0042004,0.027405,0.011423,-0.19685,-0.16339,-0.11435,0.0025224,0,0,-0.73491,-0.11591,0,-0.006512,0,0,0.15502,0.042937,0,0.16429,-0.14707,-0.21317,-0.11435,-39.328,-0.1582,0.091094,-2.2152e-05,0.94,0.6,0
0.0027005,0.02825,0.0081272,-0.20371,-0.26561,-0.14893,0.0094506,0,0,-0.071223,-0.1517,0,0.024572,0,0,0.17972,0.065542,0,0.19177,-0.2023,-0.26703,-0.14893,8.4898,-0.20608,0.10243,-9.1349e-06,0.96,0.6,0
0.0013515,0.02917,0.0042335,-0.20297,-0.28637,-0.15104,0.0075295,0,0,-0.067513,-0.17594,0,0.019577,0,0,0.20318,0.037093,0,0.20628,-0.2023,-0.28705,-0.15104,5.1173,-0.21346,0.11897,-3.5561e-05,0.98,0.6,0
0,0.029529,0,-0.19673,-0.28575,-0.14474,0.0068881,0,0,-0.067575,-0.18331,0,0.017909,0,0,0.21168,5.2042e-18,0,0.21111,-0.1962,-0.28628,-0.14474,4.398,-0.20907,0.12409,-4.4354e-05,1,0.6,0
0,0.067164,1,-0.63525,-1.9945,-1.7889,0.031829,0,0,1.4998,-0.26726,0,0.082754,0,0,0.36445,-2.949e-16,0,0.36238,-0.6345,-1.9952,-1.7889,1.3407,-1.4729,1.2702,0.095964,0,0.62,0
0.029996,0.068819,0.99271,-0.61377,-2.0027,-1.7776,0.12595,0,0,1.513,-0.29254,0,0.32746,0,0,0.35632,-0.096115,0,0.36652,-0.60244,-2.014,-1.7776,5.1397,-1.4647,1.3095,0.10277,0.02,0.62,0
0.060521,0.074766,0.98575,-0.41815,-2.0319,-1.7208,0.2217,0,0,1.6934,-0.4045,0,0.57642,0,0,0.27796,-0.21713,0,0.34885,-0.38825,-2.0618,-1.7208,7.6817,-1.3903,1.5318,0.1542,0.04,0.62,0
0.097732,0.077768,0.98159,-0.36179,-1.4854,-1.094,0.20269,0,0,1.1469,-0.92506,0,1.6568,0,0,0.16509,-0.23456,0,0.30196,-0.31121,-1.536,-1.094,19.416,-0.98041,1.0778,0.10213,0.06,0.62,0
0.1064,0.11492,0.9571,-0.24588,-0.40367,-0.29058,0.076476,0,0,0.581,-1.4702,0,1.9884,0,0,0.11264,-0.038145,0,0.11912,-0.2149,-0.43465,-0.29058,22.054,-0.31338,0.19336,-0.0001888,0.08,0.62,0
0.12097,0.13392,0.93654,-0.21909,-0.3953,-0.27797,0.046323,0,0,0.76546,-1.5253,0,1.2044,0,0,0.098752,-0.0295,0,0.10306,-0.20765,-0.40674,-0.27797,13.867,-0.29745,0.17487,-0.00013257,0.1,0.62,0
0.13701,0.14382,0.9176,-0.20884,-0.3915,-0.27186,0.029978,0,0,0.81924,-1.5553,0,0.77942,0,0,0.092982,-0.023943,0,0.096007,-0.20405,-0.39629,-0.27186,9.0862,-0.29073,0.16887,-0.00011973,0.12,0.62,0
0.15374,0.14882,0.89934,-0.20227,-0.38579,-0.26635,0.021153,0,0,0.83307,-1.5527,0,0.54998,0,0,0.090406,-0.020505,0,0.092698,-0.19987,-0.3882,-0.26635,6.4906,-0.28481,0.16543,-0.00011237,0.14,0.62,0
0.17034,0.15063,0.88144,-0.19871,-0.37977,-0.26169,0.016663,0,0,0.8187,-1.5351,0,0.43322,0,0,0.088991,-0.01852,0,0.090897,-0.19719,-0.38129,-0.26169,5.2144,-0.28006,0.1618,-0.00010684,0.16,0.62,0
0.18649,0.15039,0.86375,-0.19614,-0.37342,-0.25724,0.015082,0,0,0.7943,-1.5103,0,0.39212,0,0,0.088049,-0.0175,0,0.089772,-0.19487,-0.37469,-0.25724,4.8282,-0.2756,0.15815,-0.00010183,0.18,0.62,0
0.20211,0.14879,0.84622,-0.19363,-0.36691,-0.25278,0.015148,0,0,0.76897,-1.4836,0,0.39386,0,0,0.087248,-0.017068,0,0.088903,-0.19232,-0.36822,-0.25278,4.9588,-0.27111,0.1548,-9.7215e-05,0.2,0.62,0
0.21725,0.14613,0.82885,-0.19071,-0.36035,-0.2482,0.01578,0,0,0.7474,-1.4579,0,0.41029,0,0,0.086414,-0.016895,0,0.088052,-0.18925,-0.3618,-0.2482,5.2696,-0.26642,0.15191,-9.2971e-05,0.22,0.62,0
0.23201,0.14244,0.81165,-0.18728,-0.35376,-0.24348,0.015901,0,0,0.73061,-1.4337,0,0.41343,0,0,0.085462,-0.01665,0,0.08707,-0.18577,-0.35527,-0.24348,5.4072,-0.26151,0.14926,-8.8766e-05,0.24,0.62,0
0.24647,0.13739,0.79466,-0.18315,-0.34668,-0.23842,0.014086,0,0,0.71845,-1.4075,0,0.36622,0,0,0.084583,-0.015748,0,0.086037,-0.18195,-0.34789,-0.23842,4.8871,-0.25608,0.14613,-8.3371e-05,0.26,0.62,0
0.26065,0.13025,0.77789,-0.18075,-0.33909,-0.23374,0.007543,0,0,0.68885,-1.3695,0,0.19612,0,0,0.083297,-0.014064,0,0.084469,-0.1804,-0.33945,-0.23374,2.7213,-0.2512,0.14021,-7.5615e-05,0.28,0.62,0
0.27422,0.1198,0.76129,-0.17935,-0.33181,-0.22948,-0.0015239,0,0,0.65163,-1.3303,0,-0.039621,0,0,0.083507,-0.010732,0,0.084162,-0.17933,-0.33182,-0.22948,-0.57264,-0.24688,0.13461,-6.9223e-05,0.3,0.62,0
0.28671,0.103,0.74449,-0.19221,-0.32512,-0.22965,-0.02144,0,0,0.48663,-1.2411,0,-0.55744,0,0,0.088474,-0.0039147,0,0.088485,-0.18884,-0.32849,-0.22965,-8.9411,-0.24899,0.12437,-6.4138e-05,0.32,0.62,0
0.29369,0.076298,0.7259,-0.25638,-1.1234,-0.81319,-0.083175,0,0,0.88086,-0.73328,0,-0.65067,0,0,0.11714,0.028948,0,0.13345,-0.24428,-1.1355,-0.81319,-12.658,-0.73099,0.78411,0.041693,0.34,0.62,0
0.32195,0.062183,0.72307,-0.25778,-1.5732,-1.2724,-0.067595,0,0,1.319,-0.39112,0,-0.17575,0,0,0.17918,-0.075828,0,0.18717,-0.25432,-1.5767,-1.2724,-2.9339,-1.0345,1.1995,0.069782,0.36,0.62,0
0.34645,0.04783,0.71873,-0.33857,-1.5269,-1.2784,-0.011187,0,0,1.2217,-0.32306,0,-0.029087,0,0,0.21124,-0.15406,0,0.26015,-0.33847,-1.527,-1.2784,-0.53935,-1.0479,1.0858,0.054301,0.38,0.62,0
0.37082,0.035528,0.71462,-0.31329,-1.4612,-1.247,0.029027,0,0,1.2138,-0.2785,0,0.07547,0,0,0.19061,-0.2002,0,0.27649,-0.31256,-1.4619,-1.247,1.4476,-1.0071,1.0584,0.052526,0.4,0.62,0
0.395,0.023775,0.71111,-0.25718,-0.79512,-0.7068,0.04191,0,0,0.40337,-0.20876,0,0.61707,0,0,0.16585,-0.12048,0,0.21924,-0.23068,-0.82163,-0.7068,25.993,-0.58637,0.55114,0.025126,0.42,0.62,0
0.38695,0.032504,0.67992,-0.24061,-0.23927,-0.21196,0.042009,0,0,-0.37244,-0.35513,0,1.0922,0,0,0.15366,-0.0262,0,0.15589,-0.19792,-0.28195,-0.21196,45.454,-0.23061,0.077966,-2.1708e-05,0.44,0.62,0
0.3801,0.039868,0.64964,-0.23269,-0.24137,-0.20718,0.03771,0,0,-0.33165,-0.44439,0,0.98045,0,0,0.14906,-0.028178,0,0.15172,-0.19907,-0.27499,-0.20718,41.72,-0.22708,0.072204,-1.8513e-05,0.46,0.62,0
0.37368,0.045277,0.6203,-0.2268,-0.23922,-0.20184,0.032562,0,0,-0.32455,-0.48598,0,0.84662,0,0,0.14457,-0.028316,0,0.14733,-0.19986,-0.26616,-0.20184,39.603,-0.22262,0.065333,-1.4279e-05,0.48,0.62,0
0.36712,0.048765,0.59181,-0.22245,-0.23448,-0.19626,0.027739,0,0,-0.34045,-0.49684,0,0.72122,0,0,0.14061,-0.027198,0,0.14322,-0.20008,-0.25685,-0.19626,38.883,-0.21773,0.058771,-1.0277e-05,0.5,0.62,0
0.36007,0.050627,0.56406,-0.21909,-0.22837,-0.19064,0.023595,0,0,-0.36974,-0.4905,0,0.61348,0,0,0.13734,-0.025366,0,0.13967,-0.19968,-0.24778,-0.19064,39.432,-0.2127,0.053194,-6.9843e-06,0.52,0.62,0
0.35233,0.051205,0.53688,-0.21632,-0.22157,-0.18506,0.020134,0,0,-0.40641,-0.47474,0,0.52348,0,0,0.13476,-0.023221,0,0.13674,-0.19864,-0.23925,-0.18506,41.281,-0.20765,0.04884,-4.4593e-06,0.54,0.62,0
0.34381,0.050804,0.51015,-0.21394,-0.21444,-0.17953,0.017271,0,0,-0.44732,-0.45385,0,0.44906,0,0,0.13277,-0.021007,0,0.13442,-0.19692,-0.23146,-0.17953,44.583,-0.20264,0.045787,-2.6416e-06,0.56,0.62,0
0.33444,0.049682,0.48377,-0.21184,-0.2072,-0.17409,0.014922,0,0,-0.49073,-0.43044,0,0.38796,0,0,0.13126,-0.018857,0,0.13261,-0.19442,-0.22462,-0.17409,49.416,-0.19771,0.044038,-1.4503e-06,0.58,0.62,0
0.32418,0.048049,0.45765,-0.20994,-0.2,-0.16875,0.013,0,0,-0.53551,-0.40629,0,0.33801,0,0,0.13012,-0.016825,0,0.13121,-0.19105,-0.21889,-0.16875,55.461,-0.1929,0.043512,-8.0238e-07,0.6,0.62,0
0.31302,0.046081,0.43172,-0.2082,-0.19295,-0.16351,0.011426,0,0,-0.58087,-0.3826,0,0.29707,0,0,0.12928,-0.014925,0,0.13014,-0.18684,-0.21431,-0.16351,61.86,-0.18822,0.044037,-6.1869e-07,0.62,0.62,0
0.30095,0.043914,0.40594,-0.20657,-0.1861,-0.1584,0.010118,0,0,-0.6263,-0.36014,0,0.26306,0,0,0.12866,-0.013146,0,0.12933,-0.18194,-0.21073,-0.1584,67.668,-0.18369,0.045398,-8.2827e-07,0.64,0.62,0
0.28797,0.041658,0.38026,-0.20504,-0.17949,-0.15338,0.0090044,0,0,-0.67156,-0.33932,0,0.23411,0,0,0.12823,-0.011466,0,0.12874,-0.17663,-0.2079,-0.15338,72.414,-0.1793,0.047379,-1.373e-06,0.66,0.62,0
0.27408,0.039394,0.35465,-0.2036,-0.17312,-0.14848,0.0080226,0,0,-0.71657,-0.32033,0,0.20859,0,0,0.12797,-0.0098594,0,0.12835,-0.17114,-0.20559,-0.14848,76.119,-0.17507,0.049803,-2.2105e-06,0.68,0.62,0
0.2593,0.037185,0.32907,-0.20226,-0.167,-0.14369,0.0071207,0,0,-0.76147,-0.30313,0,0.18514,0,0,0.12785,-0.0082973,0,0.12812,-0.16562,-0.20364,-0.14369,79.002,-0.17098,0.052545,-3.3155e-06,0.7,0.62,0
0.24363,0.035075,0.3035,-0.20103,-0.16112,-0.13899,0.006258,0,0,-0.80647,-0.28759,0,0.16271,0,0,0.12789,-0.0067525,0,0.12807,-0.16016,-0.20199,-0.13899,81.295,-0.16705,0.055524,-4.6818e-06,0.72,0.62,0
0.22704,0.033097,0.27792,-0.19994,-0.15544,-0.1344,0.0054048,0,0,-0.85192,-0.27346,0,0.14053,0,0,0.12807,-0.0051992,0,0.12818,-0.15479,-0.20058,-0.1344,83.173,-0.16326,0.058703,-6.3232e-06,0.74,0.62,0
0.20955,0.031273,0.25227,-0.19901,-0.14995,-0.12992,0.0045429,0,0,-0.89826,-0.26041,0,0.11812,0,0,0.12843,-0.0036143,0,0.12848,-0.14953,-0.19943,-0.12992,84.754,-0.15962,0.062076,-8.2773e-06,0.76,0.62,0
0.19111,0.029622,0.22654,-0.1983,-0.14461,-0.12552,0.0036672,0,0,-0.94602,-0.24806,0,0.095348,0,0,0.12898,-0.0019802,0,0.129,-0.14436,-0.19855,-0.12552,86.111,-0.15614,0.065662,-1.0609e-05,0.78,0.62,0
0.17171,0.02816,0.20068,-0.19783,-0.13939,-0.12123,0.0027887,0,0,-0.99579,-0.23598,0,0.072505,0,0,0.12978,-0.0002902,0,0.12977,-0.13925,-0.19797,-0.12123,87.275,-0.15282,0.069497,-1.3411e-05,0.8,0.62,0
0.15128,0.026904,0.17463,-0.19766,-0.13425,-0.11704,0.0019375,0,0,-1.0481,-0.22376,0,0.050375,0,0,0.13087,0.0014419,0,0.13087,-0.13419,-0.19772,-0.11704,88.252,-0.14965,0.073624,-1.6806e-05,0.82,0.62,0
0.12978,0.025874,0.14833,-0.19781,-0.12917,-0.11293,0.0011643,0,0,-1.1035,-0.21112,0,0.030271,0,0,0.13233,0.0031639,0,0.13237,-0.12915,-0.19783,-0.11293,89.029,-0.14663,0.078068,-2.0925e-05,0.84,0.62,0
0.10714,0.025093,0.1217,-0.19827,-0.12412,-0.10889,0.00053148,0,0,-1.162,-0.19806,0,0.013818,0,0,0.13422,0.0047576,0,0.13431,-0.12412,-0.19828,-0.10889,89.589,-0.14376,0.082827,-2.5889e-05,0.86,0.62,0
0.083303,0.024581,0.094645,-0.19902,-0.11912,-0.10491,0.00010271,0,0,-1.2235,-0.18477,0,0.0026705,0,0,0.13657,0.0060083,0,0.13671,-0.11912,-0.19902,-0.10491,89.926,-0.14102,0.087873,-3.1798e-05,0.88,0.62,0
0.058203,0.024345,0.067074,-0.19999,-0.11407,-0.10093,-5.1402e-05,0,0,-1.2878,-0.17089,0,-0.0013365,0,0,0.13927,0.0066094,0,0.13944,-0.11407,-0.19999,-0.10093,-89.966,-0.13833,0.093188,-3.8789e-05,0.9,0.62,0
0.03179,0.024399,0.038936,-0.20103,-0.10879,-0.096838,0.0002327,0,0,-1.3545,-0.15535,0,0.0060503,0,0,0.14206,0.0062365,0,0.14221,-0.10879,-0.20103,-0.096838,89.856,-0.13555,0.098759,-4.7038e-05,0.92,0.62,0
0.0040248,0.024815,0.010249,-0.19829,-0.17638,-0.11804,0.0032981,0,0,-0.72905,-0.13789,0,0.016855,0,0,0.14936,0.025827,0,0.15305,-0.14987,-0.2248,-0.11804,47.959,-0.16423,0.097168,-2.6386e-05,0.94,0.62,0
0.0026282,0.025168,0.0071431,-0.19919,-0.26678,-0.14693,0.0085701,0,0,-0.067932,-0.1558,0,0.022282,0,0,0.16435,0.039338,0,0.16919,-0.19812,-0.26785,-0.14693,7.1146,-0.2043,0.10513,-1.5627e-05,0.96,0.62,0
0.0013076,0.025662,0.0036747,-0.19741,-0.27989,-0.14686,0.0070764,0,0,-0.065704,-0.17294,0,0.018399,0,0,0.17858,0.022335,0,0.17986,-0.1968,-0.28049,-0.14686,4.868,-0.20805,0.11695,-3.4578e-05,0.98,0.62,0
0,0.025871,0,-0.19142,-0.279,-0.14112,0.0040249,0,0,-0.065378,-0.17924,0,0.010465,0,0,0.18373,4.3368e-18,0,0.18349,-0.19123,-0.27918,-0.14112,2.6256,-0.20384,0.12105,-4.1331e-05,1,0.62,0
0,0.060392,1,-0.49029,-2.0825,-1.7718,0.021368,0,0,1.666,-0.40385,0,0.055556,0,0,0.27516,-2.616e-15,0,0.27341,-0.49001,-2.0828,-1.7718,0.76874,-1.4482,1.4623,0.13644,0,0.64,0
0.03332,0.061504,0.9945,-0.4372,-2.0897,-1.7526,0.086343,0,0,1.71,-0.4383,0,0.22449,0,0,0.25653,-0.076181,0,0.26602,-0.4327,-2.0942,-1.7526,2.9828,-1.4265,1.5198,0.15003,0.02,0.64,0
0.0684,0.063438,0.98974,-0.3896,-2.2166,-1.7716,0.13099,0,0,1.7966,-0.57848,0,0.34058,0,0,0.20252,-0.15679,0,0.25796,-0.38026,-2.2259,-1.7716,4.0802,-1.4593,1.6656,0.17914,0.04,0.64,0
0.10518,0.063133,0.9864,-0.30085,-1.3082,-1.0252,0.08634,0,0,1.1405,-0.66876,0,0.94889,0,0,0.14167,-0.10444,0,0.18633,-0.28143,-1.3276,-1.0252,15.488,-0.87808,0.93575,0.095728,0.06,0.64,0
0.11402,0.089264,0.96315,-0.2329,-0.36768,-0.27649,0.052193,0,0,0.56667,-1.1855,0,1.357,0,0,0.11136,-0.024308,0,0.11412,-0.21505,-0.38552,-0.27649,18.879,-0.29235,0.14954,-7.9235e-05,0.08,0.64,0
0.12785,0.10515,0.94185,-0.21518,-0.37848,-0.27228,0.034414,0,0,0.74235,-1.3805,0,0.89477,0,0,0.10261,-0.022974,0,0.10521,-0.20822,-0.38543,-0.27228,11.427,-0.28865,0.15542,-8.8318e-05,0.1,0.64,0
0.14371,0.11388,0.92211,-0.2055,-0.38097,-0.26815,0.023303,0,0,0.81445,-1.4666,0,0.60586,0,0,0.096399,-0.020438,0,0.098559,-0.20246,-0.38401,-0.26815,7.4373,-0.28487,0.15922,-9.4733e-05,0.12,0.64,0
0.16043,0.1183,0.90329,-0.19935,-0.38055,-0.2643,0.017016,0,0,0.84434,-1.5112,0,0.44242,0,0,0.092648,-0.01845,0,0.094473,-0.19776,-0.38213,-0.2643,5.3186,-0.2814,0.16171,-9.9887e-05,0.14,0.64,0
0.17749,0.12005,0.88505,-0.1947,-0.37767,-0.26022,0.013832,0,0,0.85166,-1.5269,0,0.35962,0,0,0.090303,-0.017183,0,0.091927,-0.19367,-0.37871,-0.26022,4.2988,-0.27753,0.16234,-0.00010186,0.16,0.64,0
0.1945,0.12004,0.86717,-0.19072,-0.37285,-0.25579,0.01354,0,0,0.84586,-1.5218,0,0.35203,0,0,0.088942,-0.016714,0,0.090501,-0.18972,-0.37385,-0.25579,4.2285,-0.27312,0.16157,-0.00010096,0.18,0.64,0
0.21123,0.11883,0.84956,-0.1875,-0.36631,-0.2511,0.014311,0,0,0.82676,-1.4977,0,0.37208,0,0,0.087579,-0.016694,0,0.089156,-0.18637,-0.36745,-0.2511,4.547,-0.26831,0.15893,-9.691e-05,0.2,0.64,0
0.22756,0.11668,0.83214,-0.18467,-0.35982,-0.24656,0.014812,0,0,0.80454,-1.4723,0,0.38512,0,0,0.086695,-0.016464,0,0.088244,-0.18343,-0.36106,-0.24656,4.8002,-0.26368,0.15596,-9.278e-05,0.22,0.64,0
0.24341,0.1136,0.81488,-0.18316,-0.3537,-0.24255,0.013034,0,0,0.77204,-1.445,0,0.33889,0,0,0.08592,-0.015928,0,0.087384,-0.18217,-0.35469,-0.24255,4.3453,-0.2598,0.15164,-8.8145e-05,0.24,0.64,0
0.25865,0.10932,0.79773,-0.18036,-0.34489,-0.23735,0.011234,0,0,0.7408,-1.398,0,0.29208,0,0,0.085616,-0.015186,0,0.086952,-0.1796,-0.34565,-0.23735,3.8882,-0.2542,0.14601,-7.971e-05,0.26,0.64,0
0.27304,0.10328,0.78063,-0.17911,-0.33418,-0.23205,0.007326,0,0,0.68824,-1.3277,0,0.19048,0,0,0.085802,-0.013844,0,0.086908,-0.17876,-0.33452,-0.23205,2.6988,-0.24844,0.13712,-6.8186e-05,0.28,0.64,0
0.28618,0.094407,0.76341,-0.18116,-0.3209,-0.22696,-0.00013719,0,0,0.59535,-1.2212,0,-0.0035669,0,0,0.087342,-0.011539,0,0.088098,-0.18116,-0.3209,-0.22696,-0.056252,-0.24301,0.12339,-5.36e-05,0.3,0.64,0
0.29686,0.08132,0.7457,-0.18824,-0.29905,-0.22076,-0.011373,0,0,0.42276,-1.0178,0,-0.29571,0,0,0.090699,-0.0086974,0,0.091148,-0.18708,-0.30021,-0.22076,-5.7999,-0.23602,0.10061,-3.3233e-05,0.32,0.64,0
0.30309,0.063235,0.72713,-0.2422,-1.0684,-0.79311,-0.022721,0,0,0.85641,-0.63998,0,-0.26211,0,0,0.10624,-0.035324,0,0.11383,-0.23997,-1.0707,-0.79311,-6.9284,-0.70124,0.73487,0.040952,0.34,0.64,0
0.33111,0.052376,0.72474,-0.25565,-1.6838,-1.3066,-0.038712,0,0,1.3662,-0.49038,0,-0.10065,0,0,0.13718,-0.083374,0,0.15989,-0.2546,-1.6848,-1.3066,-1.5516,-1.082,1.2836,0.077664,0.36,0.64,0
0.35774,0.040875,0.72165,-0.28341,-1.5536,-1.2728,-0.010352,0,0,1.2861,-0.36511,0,-0.026915,0,0,0.1633,-0.1474,0,0.21927,-0.28332,-1.5537,-1.2728,-0.46691,-1.0366,1.1558,0.063782,0.38,0.64,0
0.38301,0.029797,0.7183,-0.28856,-1.4758,-1.2476,0.0098248,0,0,1.2468,-0.29664,0,0.025545,0,0,0.16373,-0.178,0,0.2417,-0.28848,-1.4759,-1.2476,0.47411,-1.004,1.0913,0.057031,0.4,0.64,0
0.40761,0.019566,0.7151,-0.25222,-0.80327,-0.70995,0.030076,0,0,0.41609,-0.22058,0,0.48044,0,0,0.15596,-0.10502,0,0.20114,-0.23099,-0.8245,-0.70995,25.963,-0.58848,0.55373,0.026472,0.42,0.64,0
0.39965,0.025871,0.68468,-0.24093,-0.23614,-0.21159,0.034147,0,0,-0.38144,-0.31919,0,0.88783,0,0,0.15076,-0.022398,0,0.15242,-0.20431,-0.27277,-0.21159,47.005,-0.22956,0.065127,-1.3591e-05,0.44,0.64,0
0.39235,0.031636,0.65479,-0.23452,-0.23672,-0.20685,0.03175,0,0,-0.35975,-0.38824,0,0.82551,0,0,0.1479,-0.024106,0,0.14986,-0.20385,-0.26739,-0.20685,44.012,-0.22603,0.062093,-1.2199e-05,0.46,0.64,0
0.38526,0.036211,0.62552,-0.2293,-0.23454,-0.20171,0.028119,0,0,-0.35875,-0.42689,0,0.73109,0,0,0.14476,-0.024489,0,0.14682,-0.20368,-0.26016,-0.20171,42.337,-0.22185,0.057495,-9.7226e-06,0.48,0.64,0
0.378,0.039416,0.59689,-0.22516,-0.23034,-0.19634,0.024295,0,0,-0.37468,-0.44203,0,0.63167,0,0,0.1417,-0.023891,0,0.14371,-0.20332,-0.25218,-0.19634,41.957,-0.21728,0.052702,-7.0757e-06,0.5,0.64,0
0.37028,0.041335,0.56884,-0.22183,-0.22486,-0.19089,0.020782,0,0,-0.40222,-0.44156,0,0.54032,0,0,0.13897,-0.022654,0,0.14081,-0.20251,-0.24418,-0.19089,42.918,-0.21253,0.048536,-4.7576e-06,0.52,0.64,0
0.36191,0.042166,0.5413,-0.21905,-0.21863,-0.18543,0.017743,0,0,-0.43701,-0.43155,0,0.46132,0,0,0.13664,-0.021062,0,0.13825,-0.2011,-0.23659,-0.18543,45.339,-0.20771,0.045394,-2.9473e-06,0.54,0.64,0
0.3528,0.042128,0.51419,-0.21665,-0.21201,-0.18002,0.015187,0,0,-0.47622,-0.41591,0,0.39487,0,0,0.13472,-0.019317,0,0.13609,-0.19897,-0.22969,-0.18002,49.342,-0.20289,0.043422,-1.6688e-06,0.56,0.64,0
0.34286,0.041424,0.48742,-0.21451,-0.20521,-0.17466,0.013066,0,0,-0.51811,-0.39715,0,0.33972,0,0,0.13317,-0.017548,0,0.13432,-0.19599,-0.22373,-0.17466,54.8,-0.19813,0.042619,-8.8985e-07,0.58,0.64,0
0.33207,0.040232,0.46092,-0.21258,-0.19838,-0.16938,0.011318,0,0,-0.56164,-0.37695,0,0.29426,0,0,0.13195,-0.015822,0,0.13289,-0.19212,-0.21884,-0.16938,61.057,-0.19345,0.042882,-5.6314e-07,0.6,0.64,0
0.3204,0.038704,0.43464,-0.21081,-0.19161,-0.16419,0.0098749,0,0,-0.60609,-0.35646,0,0.25675,0,0,0.13101,-0.01417,0,0.13177,-0.18744,-0.21499,-0.16419,67.097,-0.18887,0.044042,-6.4016e-07,0.62,0.64,0
0.30783,0.036961,0.40852,-0.20918,-0.18498,-0.1591,0.0086743,0,0,-0.65103,-0.33646,0,0.22553,0,0,0.1303,-0.012599,0,0.1309,-0.18219,-0.21197,-0.1591,72.181,-0.18442,0.045906,-1.077e-06,0.64,0.64,0
0.29436,0.035103,0.38252,-0.20766,-0.17852,-0.15411,0.0076571,0,0,-0.69619,-0.31742,0,0.19908,0,0,0.12979,-0.011098,0,0.13027,-0.17663,-0.20955,-0.15411,76.137,-0.1801,0.048295,-1.8378e-06,0.66,0.64,0
0.27998,0.033208,0.3566,-0.20625,-0.17226,-0.14921,0.0067718,0,0,-0.7415,-0.29962,0,0.17607,0,0,0.12948,-0.0096545,0,0.12984,-0.17096,-0.20755,-0.14921,79.138,-0.17591,0.051064,-2.8974e-06,0.68,0.64,0
0.2647,0.031336,0.33073,-0.20496,-0.1662,-0.14442,0.0059759,0,0,-0.787,-0.28316,0,0.15537,0,0,0.12934,-0.0082479,0,0.1296,-0.1653,-0.20586,-0.14442,81.431,-0.17186,0.054109,-4.2426e-06,0.7,0.64,0
0.2485,0.029534,0.30486,-0.20379,-0.16034,-0.13973,0.0052363,0,0,-0.83283,-0.26801,0,0.13614,0,0,0.12936,-0.0068591,0,0.12954,-0.15972,-0.20441,-0.13973,83.224,-0.16795,0.057364,-5.8744e-06,0.72,0.64,0
0.23138,0.027838,0.27898,-0.20276,-0.15467,-0.13513,0.0045302,0,0,-0.87921,-0.25406,0,0.11778,0,0,0.12956,-0.0054701,0,0.12968,-0.15425,-0.20318,-0.13513,84.665,-0.16418,0.060793,-7.8086e-06,0.74,0.64,0
0.21333,0.026276,0.25304,-0.20189,-0.14917,-0.13062,0.0038451,0,0,-0.92645,-0.24113,0,0.099972,0,0,0.12994,-0.0040668,0,0.13001,-0.14889,-0.20217,-0.13062,85.85,-0.16056,0.064384,-1.0078e-05,0.76,0.64,0
0.19432,0.024872,0.227,-0.2012,-0.14382,-0.12621,0.0031804,0,0,-0.97487,-0.22903,0,0.082691,0,0,0.13053,-0.0026421,0,0.13055,-0.14365,-0.20137,-0.12621,86.837,-0.15708,0.06814,-1.273e-05,0.78,0.64,0
0.17434,0.023648,0.20083,-0.20071,-0.13861,-0.12188,0.0025478,0,0,-1.0248,-0.21755,0,0.066242,0,0,0.13134,-0.0012012,0,0.13134,-0.13851,-0.20081,-0.12188,87.654,-0.15373,0.072072,-1.5831e-05,0.8,0.64,0
0.15333,0.022625,0.17447,-0.20044,-0.13352,-0.11763,0.0019707,0,0,-1.0764,-0.20655,0,0.051237,0,0,0.13241,0.00023034,0,0.13241,-0.13346,-0.20049,-0.11763,88.314,-0.15053,0.076187,-1.9449e-05,0.82,0.64,0
0.13128,0.021826,0.14787,-0.20037,-0.12854,-0.11346,0.0014809,0,0,-1.1299,-0.196,0,0.038505,0,0,0.13376,0.0015953,0,0.13377,-0.12851,-0.2004,-0.11346,88.82,-0.14746,0.080483,-2.3652e-05,0.84,0.64,0
0.10814,0.021272,0.12096,-0.20051,-0.12365,-0.10934,0.0011132,0,0,-1.1851,-0.186,0,0.028944,0,0,0.1354,0.0027928,0,0.13543,-0.12364,-0.20053,-0.10934,89.17,-0.1445,0.084941,-2.8495e-05,0.86,0.64,0
0.083874,0.02098,0.093706,-0.20081,-0.11885,-0.10527,0.00090171,0,0,-1.242,-0.17659,0,0.023444,0,0,0.13729,0.0036742,0,0.13734,-0.11884,-0.20081,-0.10527,89.37,-0.14164,0.089535,-3.4025e-05,0.88,0.64,0
0.058459,0.020964,0.066048,-0.2012,-0.11408,-0.10119,0.0008961,0,0,-1.3001,-0.16759,0,0.023299,0,0,0.13931,0.0040608,0,0.13937,-0.11407,-0.20121,-0.10119,89.411,-0.13882,0.09424,-4.0292e-05,0.9,0.64,0
0.031869,0.021247,0.037981,-0.20157,-0.10925,-0.097046,0.001185,0,0,-1.3588,-0.1587,0,0.03081,0,0,0.14126,0.0037933,0,0.14131,-0.10924,-0.20159,-0.097046,89.265,-0.13596,0.09901,-4.731e-05,0.92,0.64,0
0.0041052,0.021889,0.0095442,-0.20013,-0.18429,-0.12057,0.0030153,0,0,-0.72811,-0.15059,0,0.024754,0,0,0.14586,0.015398,0,0.14725,-0.15235,-0.23206,-0.12057,46.619,-0.16833,0.10115,-3.0439e-05,0.94,0.64,0
0.0027447,0.022018,0.0065537,-0.19932,-0.26886,-0.14701,0.0059709,0,0,-0.068007,-0.1584,0,0.015524,0,0,0.1551,0.023418,0,0.15694,-0.19881,-0.26937,-0.14701,4.8723,-0.20506,0.10638,-1.6178e-05,0.96,0.64,0
0.0013849,0.022253,0.0033401,-0.19775,-0.27433,-0.14496,0.0048769,0,0,-0.068618,-0.16817,0,0.01268,0,0,0.16384,0.013293,0,0.16434,-0.19744,-0.27464,-0.14496,3.6292,-0.20568,0.11298,-2.3926e-05,0.98,0.64,0
0,0.022359,0,-0.19256,-0.27174,-0.13929,0.0020418,0,0,-0.069247,-0.17219,0,0.0053086,0,0,0.167,3.4694e-18,0,0.16691,-0.1925,-0.2718,-0.13929,1.476,-0.2012,0.11549,-2.6341e-05,1,0.64,0
0,0.05101,1,-0.37807,-2.1552,-1.76,0.0053254,0,0,1.7965,-0.51375,0,0.013846,0,0,0.21209,6.3664e-16,0,0.21107,-0.37806,-2.1552,-1.76,0.1717,-1.4311,1.6162,0.17389,0,0.66,0
0.035929,0.051287,0.99576,-0.36124,-2.1721,-1.7558,0.043499,0,0,1.8129,-0.54125,0,0.1131,0,0,0.19953,-0.049812,0,0.20522,-0.3602,-2.1732,-1.7558,1.3753,-1.4297,1.6445,0.17976,0.02,0.66,0
0.072515,0.051627,0.99202,-0.33387,-2.2116,-1.7556,0.057337,0,0,1.8483,-0.5927,0,0.14908,0,0,0.16425,-0.089597,0,0.1882,-0.33212,-2.2133,-1.7556,1.7474,-1.4337,1.6992,0.19171,0.04,0.66,0
0.10986,0.051017,0.98919,-0.26278,-1.2501,-0.99791,0.047235,0,0,1.1536,-0.59601,0,0.57302,0,0,0.12668,-0.060036,0,0.14628,-0.25418,-1.2587,-0.99791,11.847,-0.83692,0.90559,0.098793,0.06,0.66,0
0.11866,0.067505,0.96683,-0.22644,-0.34894,-0.2693,0.033799,0,0,0.55709,-1.0353,0,0.87878,0,0,0.10866,-0.014941,0,0.10972,-0.21774,-0.35764,-0.2693,14.446,-0.28156,0.12255,-4.1287e-05,0.08,0.66,0
0.13215,0.078702,0.94573,-0.21139,-0.36675,-0.26802,0.023728,0,0,0.73614,-1.2836,0,0.61692,0,0,0.10262,-0.016357,0,0.10396,-0.20785,-0.3703,-0.26802,8.4925,-0.28205,0.14225,-6.3734e-05,0.1,0.66,0
0.1481,0.085154,0.92578,-0.20169,-0.37437,-0.2654,0.01628,0,0,0.82816,-1.4167,0,0.42327,0,0,0.097506,-0.016159,0,0.09886,-0.20017,-0.37589,-0.2654,5.339,-0.28049,0.15385,-8.0172e-05,0.12,0.66,0
0.16527,0.088374,0.90672,-0.19524,-0.3769,-0.26231,0.012063,0,0,0.87198,-1.4896,0,0.31363,0,0,0.093661,-0.015614,0,0.094965,-0.19444,-0.3777,-0.26231,3.7824,-0.27815,0.16047,-9.1501e-05,0.14,0.66,0
0.18298,0.089553,0.88831,-0.19046,-0.37623,-0.25884,0.010095,0,0,0.88893,-1.5261,0,0.26246,0,0,0.090932,-0.015239,0,0.092206,-0.18991,-0.37678,-0.25884,3.1012,-0.27518,0.16368,-9.8136e-05,0.16,0.66,0
0.20083,0.08944,0.87035,-0.18659,-0.37341,-0.25503,0.0092945,0,0,0.88976,-1.5388,0,0.24166,0,0,0.089278,-0.014874,0,0.090511,-0.18613,-0.37387,-0.25503,2.8413,-0.27168,0.16449,-0.00010088,0.18,0.66,0
0.21852,0.088466,0.85271,-0.18399,-0.36951,-0.25132,0.0080604,0,0,0.87526,-1.5365,0,0.20957,0,0,0.087682,-0.014685,0,0.088903,-0.18365,-0.36986,-0.25132,2.4832,-0.26828,0.16326,-0.00010106,0.2,0.66,0
0.23584,0.086838,0.83528,-0.1813,-0.36293,-0.2468,0.0083867,0,0,0.85141,-1.5097,0,0.21805,0,0,0.086806,-0.015019,0,0.088096,-0.18092,-0.36331,-0.2468,2.6382,-0.26368,0.15998,-9.6505e-05,0.22,0.66,0
0.25258,0.084568,0.81798,-0.17973,-0.35416,-0.24197,0.009512,0,0,0.80909,-1.4586,0,0.24731,0,0,0.086311,-0.015334,0,0.087663,-0.17921,-0.35468,-0.24197,3.1121,-0.25862,0.154,-8.8076e-05,0.24,0.66,0
0.26848,0.081473,0.80074,-0.17742,-0.34323,-0.23627,0.0096945,0,0,0.76507,-1.3905,0,0.25206,0,0,0.086382,-0.015125,0,0.087696,-0.17685,-0.3438,-0.23627,3.3347,-0.25231,0.14657,-7.6761e-05,0.26,0.66,0
0.28318,0.077141,0.78343,-0.17772,-0.3302,-0.23072,0.0073631,0,0,0.68895,-1.2932,0,0.19144,0,0,0.087082,-0.014472,0,0.088277,-0.17737,-0.33055,-0.23072,2.7583,-0.24621,0.13468,-6.238e-05,0.28,0.66,0
0.29604,0.070955,0.7659,-0.18062,-0.31277,-0.2246,0.0029903,0,0,0.57186,-1.1461,0,0.077748,0,0,0.088654,-0.013511,0,0.089683,-0.18055,-0.31283,-0.2246,1.2956,-0.23933,0.11667,-4.4109e-05,0.3,0.66,0
0.30606,0.062286,0.74797,-0.18701,-0.28814,-0.21734,-0.0024717,0,0,0.39434,-0.92042,0,-0.064264,0,0,0.091086,-0.012896,0,0.092007,-0.18695,-0.2882,-0.21734,-1.3992,-0.23083,0.089994,-2.3548e-05,0.32,0.66,0
0.31181,0.051225,0.72947,-0.21888,-1.0238,-0.77401,-0.011719,0,0,0.85121,-0.59253,0,-0.090415,0,0,0.10034,-0.081473,0,0.13905,-0.21858,-1.0241,-0.77401,-2.4848,-0.67222,0.71672,0.042769,0.34,0.66,0
0.3401,0.042203,0.72731,-0.24746,-1.7037,-1.3127,-0.018966,0,0,1.3848,-0.50836,0,-0.049311,0,0,0.12022,-0.15427,0,0.19578,-0.24721,-1.704,-1.3127,-0.74604,-1.0879,1.3058,0.080694,0.36,0.66,0
0.3672,0.032878,0.72466,-0.2752,-1.6021,-1.2878,-0.0091515,0,0,1.3164,-0.40848,0,-0.023794,0,0,0.14137,-0.1597,0,0.21335,-0.27513,-1.6021,-1.2878,-0.39515,-1.055,1.2011,0.068874,0.38,0.66,0
0.39315,0.023662,0.72174,-0.27131,-1.4927,-1.251,0.0087004,0,0,1.2735,-0.31428,0,0.022621,0,0,0.1479,-0.17321,0,0.2277,-0.27125,-1.4928,-1.251,0.40811,-1.005,1.1203,0.061036,0.4,0.66,0
0.41814,0.014952,0.71875,-0.24913,-0.81635,-0.71496,0.023952,0,0,0.43117,-0.23966,0,0.38926,0,0,0.14959,-0.099443,0,0.19261,-0.23185,-0.83363,-0.71496,25.875,-0.59348,0.5606,0.028,0.42,0.66,0
0.41039,0.019737,0.68888,-0.24116,-0.23461,-0.21162,0.02804,0,0,-0.38402,-0.29885,0,0.72905,0,0,0.14865,-0.020238,0,0.15002,-0.20965,-0.26611,-0.21162,48.332,-0.22913,0.055505,-8.7453e-06,0.44,0.66,0
0.40278,0.024338,0.65929,-0.23616,-0.23354,-0.20684,0.02658,0,0,-0.38113,-0.34716,0,0.69107,0,0,0.14697,-0.021384,0,0.14852,-0.20824,-0.26146,-0.20684,46.407,-0.22551,0.053937,-8.0407e-06,0.46,0.66,0
0.39515,0.028202,0.63009,-0.23161,-0.23091,-0.20177,0.023928,0,0,-0.388,-0.37887,0,0.62213,0,0,0.14479,-0.021642,0,0.1464,-0.20733,-0.25519,-0.20177,45.42,-0.22143,0.050873,-6.4899e-06,0.48,0.66,0
0.38726,0.031084,0.60137,-0.2277,-0.22688,-0.19651,0.020888,0,0,-0.40549,-0.39477,0,0.54309,0,0,0.14244,-0.0212,0,0.14402,-0.2064,-0.24818,-0.19651,45.565,-0.21703,0.047506,-4.7125e-06,0.5,0.66,0
0.37893,0.032965,0.57312,-0.22438,-0.2218,-0.19117,0.01794,0,0,-0.43178,-0.39827,0,0.46644,0,0,0.14017,-0.020267,0,0.14163,-0.20511,-0.24108,-0.19117,47.055,-0.21245,0.044607,-3.1029e-06,0.52,0.66,0
0.36999,0.033943,0.54531,-0.22153,-0.21603,-0.1858,0.015305,0,0,-0.46453,-0.39303,0,0.39793,0,0,0.13809,-0.019029,0,0.1394,-0.20323,-0.23433,-0.1858,50.093,-0.20779,0.042583,-1.8438e-06,0.54,0.66,0
0.36035,0.034168,0.51788,-0.21905,-0.20984,-0.18046,0.013048,0,0,-0.50172,-0.38201,0,0.33925,0,0,0.13628,-0.017633,0,0.13742,-0.20061,-0.22828,-0.18046,54.718,-0.20311,0.041589,-9.9111e-07,0.56,0.66,0
0.34992,0.033796,0.49079,-0.21684,-0.20342,-0.17516,0.011158,0,0,-0.54191,-0.3674,0,0.2901,0,0,0.13476,-0.016182,0,0.13573,-0.19711,-0.22315,-0.17516,60.514,-0.19847,0.041614,-5.4383e-07,0.58,0.66,0
0.33867,0.032971,0.46398,-0.21486,-0.19691,-0.16993,0.009592,0,0,-0.58408,-0.35074,0,0.24939,0,0,0.1335,-0.014737,0,0.13431,-0.19274,-0.21902,-0.16993,66.548,-0.1939,0.042549,-4.8061e-07,0.6,0.66,0
0.32656,0.031822,0.43739,-0.21305,-0.1904,-0.16477,0.0082993,0,0,-0.62757,-0.33315,0,0.21578,0,0,0.1325,-0.013331,0,0.13317,-0.18768,-0.21576,-0.16477,71.881,-0.18941,0.044235,-7.755e-07,0.62,0.66,0
0.31357,0.030456,0.41098,-0.21139,-0.18397,-0.15971,0.0072273,0,0,-0.67193,-0.31543,0,0.18791,0,0,0.13173,-0.011977,0,0.13228,-0.18218,-0.21318,-0.15971,76.103,-0.18502,0.046506,-1.4043e-06,0.64,0.66,0
0.29968,0.028961,0.3847,-0.20988,-0.17766,-0.15473,0.0063273,0,0,-0.71688,-0.29812,0,0.16451,0,0,0.13118,-0.010673,0,0.13161,-0.17647,-0.21107,-0.15473,79.276,-0.18076,0.049217,-2.3478e-06,0.66,0.66,0
0.28489,0.027409,0.35851,-0.20849,-0.17151,-0.14985,0.0055569,0,0,-0.76228,-0.28157,0,0.14448,0,0,0.13082,-0.0094122,0,0.13116,-0.17069,-0.2093,-0.14985,81.636,-0.17661,0.05225,-3.5934e-06,0.68,0.66,0
0.26919,0.025859,0.33237,-0.20722,-0.16552,-0.14506,0.0048805,0,0,-0.80812,-0.26597,0,0.12689,0,0,0.13065,-0.0081811,0,0.1309,-0.16495,-0.20778,-0.14506,83.413,-0.1726,0.05552,-5.1367e-06,0.7,0.66,0
0.25257,0.024355,0.30625,-0.20609,-0.1597,-0.14036,0.0042707,0,0,-0.85444,-0.25141,0,0.11104,0,0,0.13067,-0.0069669,0,0.13085,-0.15931,-0.20648,-0.14036,84.783,-0.16872,0.058971,-6.983e-06,0.72,0.66,0
0.23501,0.022934,0.2801,-0.20509,-0.15405,-0.13575,0.0037089,0,0,-0.90138,-0.2379,0,0.096431,0,0,0.13087,-0.0057574,0,0.13099,-0.15379,-0.20536,-0.13575,85.865,-0.16497,0.062569,-9.1473e-06,0.74,0.66,0
0.21651,0.021628,0.2539,-0.20424,-0.14857,-0.13123,0.0031852,0,0,-0.94909,-0.22541,0,0.082815,0,0,0.13126,-0.0045445,0,0.13134,-0.14839,-0.20442,-0.13123,86.736,-0.16135,0.066296,-1.1654e-05,0.76,0.66,0
0.19705,0.020461,0.2276,-0.20355,-0.14325,-0.1268,0.002699,0,0,-0.99772,-0.21387,0,0.070173,0,0,0.13185,-0.0033266,0,0.13189,-0.14313,-0.20367,-0.1268,87.442,-0.15787,0.070144,-1.4538e-05,0.78,0.66,0
0.1766,0.019458,0.20116,-0.20302,-0.13808,-0.12244,0.0022581,0,0,-1.0474,-0.20326,0,0.058711,0,0,0.13265,-0.0021131,0,0.13266,-0.138,-0.20309,-0.12244,88.011,-0.15451,0.074106,-1.7836e-05,0.8,0.66,0
0.15515,0.018642,0.17454,-0.20264,-0.13305,-0.11816,0.0018772,0,0,-1.0982,-0.19356,0,0.048807,0,0,0.13366,-0.00092967,0,0.13367,-0.133,-0.20269,-0.11816,88.456,-0.15129,0.078175,-2.1587e-05,0.82,0.66,0
0.13267,0.018034,0.1477,-0.20242,-0.12816,-0.11394,0.0015742,0,0,-1.1502,-0.18483,0,0.040928,0,0,0.13489,0.00017577,0,0.13489,-0.12813,-0.20245,-0.11394,88.786,-0.14818,0.082338,-2.5826e-05,0.84,0.66,0
0.10915,0.017653,0.12059,-0.20233,-0.1234,-0.10978,0.0013672,0,0,-1.2031,-0.17712,0,0.035546,0,0,0.1363,0.0011299,0,0.13631,-0.12338,-0.20235,-0.10978,89.008,-0.14517,0.086577,-3.0576e-05,0.86,0.66,0
0.084549,0.017517,0.093176,-0.20233,-0.11875,-0.10564,0.0012759,0,0,-1.2569,-0.17045,0,0.033172,0,0,0.13784,0.0018374,0,0.13785,-0.11873,-0.20235,-0.10564,89.126,-0.14224,0.090871,-3.5857e-05,0.88,0.66,0
0.058868,0.017642,0.06545,-0.20238,-0.11418,-0.10152,0.001329,0,0,-1.3113,-0.1647,0,0.034554,0,0,0.13939,0.002197,0,0.13941,-0.11417,-0.2024,-0.10152,89.137,-0.13936,0.095196,-4.1682e-05,0.9,0.66,0
0.032098,0.018051,0.037419,-0.20241,-0.10967,-0.097365,0.0015747,0,0,-1.3656,-0.15992,0,0.040943,0,0,0.1408,0.0021303,0,0.14082,-0.10964,-0.20244,-0.097365,89.028,-0.13648,0.099505,-4.8014e-05,0.92,0.66,0
0.0042445,0.018791,0.009129,-0.20176,-0.18836,-0.12206,0.0025292,0,0,-0.73031,-0.15672,0,0.02625,0,0,0.14379,0.0088913,0,0.14427,-0.15413,-0.236,-0.12206,45.906,-0.17073,0.10328,-3.2656e-05,0.94,0.66,0
0.0028852,0.018832,0.0062064,-0.2008,-0.2702,-0.14751,0.0038315,0,0,-0.069282,-0.1595,0,0.009962,0,0,0.14965,0.013552,0,0.1503,-0.20059,-0.27041,-0.14751,3.1505,-0.20617,0.10677,-1.458e-05,0.96,0.66,0
0.0014732,0.018935,0.003143,-0.19974,-0.27063,-0.14425,0.0029662,0,0,-0.07213,-0.16429,0,0.0077122,0,0,0.15516,0.0077014,0,0.15534,-0.19961,-0.27075,-0.14425,2.3918,-0.20487,0.10984,-1.4562e-05,0.98,0.66,0
0,0.018984,0,-0.19516,-0.26651,-0.1385,0.00093689,0,0,-0.073661,-0.16641,0,0.0024359,0,0,0.15715,-4.9873e-18,0,0.15711,-0.19515,-0.26652,-0.1385,0.75223,-0.20006,0.11111,-1.3917e-05,1,0.66,0
0,0.039843,1,-0.32716,-2.2027,-1.759,0.00021106,0,0,1.8613,-0.57686,0,0.00054876,0,0,0.17554,2.7157e-15,0,0.17515,-0.32716,-2.2027,-1.759,0.0064477,-1.4296,1.6977,0.19463,0,0.68,0
0.037227,0.039854,0.99649,-0.31688,-2.2019,-1.7521,0.01632,0,0,1.8658,-0.58469,0,0.042432,0,0,0.16694,-0.027276,0,0.16908,-0.31674,-2.202,-1.7521,0.496,-1.4236,1.7054,0.19624,0.02,0.68,0
0.074632,0.039731,0.99332,-0.30337,-2.2044,-1.7457,0.022983,0,0,1.875,-0.59641,0,0.059755,0,0,0.14318,-0.048647,0,0.15194,-0.30309,-2.2047,-1.7457,0.69253,-1.4178,1.7187,0.19939,0.04,0.68,0
0.11223,0.039293,0.99076,-0.25214,-1.2412,-0.99291,0.021769,0,0,1.1713,-0.58677,0,0.28691,0,0,0.11809,-0.032463,0,0.12518,-0.24972,-1.2436,-0.99291,6.8582,-0.82874,0.89757,0.10033,0.06,0.68,0
0.12148,0.047851,0.96913,-0.22152,-0.33904,-0.26508,0.017961,0,0,0.56632,-0.96146,0,0.46698,0,0,0.10591,-0.0090988,0,0.10633,-0.21883,-0.34172,-0.26508,8.4981,-0.27521,0.10751,-2.6342e-05,0.08,0.68,0
0.13488,0.053809,0.9484,-0.20848,-0.35932,-0.26518,0.013029,0,0,0.73715,-1.2239,0,0.33875,0,0,0.1014,-0.010982,0,0.10201,-0.20736,-0.36044,-0.26518,4.9002,-0.27766,0.13389,-5.0359e-05,0.1,0.68,0
0.15097,0.057214,0.92857,-0.19873,-0.37019,-0.26353,0.009049,0,0,0.84238,-1.3865,0,0.23527,0,0,0.097142,-0.011954,0,0.097894,-0.19826,-0.37066,-0.26353,3.0128,-0.27748,0.15077,-7.1409e-05,0.12,0.68,0
0.16857,0.058715,0.90954,-0.19187,-0.37495,-0.261,0.0068167,0,0,0.89866,-1.4813,0,0.17723,0,0,0.093568,-0.012504,0,0.094412,-0.19162,-0.3752,-0.261,2.1294,-0.27594,0.16056,-8.6701e-05,0.14,0.68,0
0.18692,0.059002,0.89114,-0.18684,-0.37569,-0.25787,0.0060572,0,0,0.92343,-1.5316,0,0.15749,0,0,0.090789,-0.012987,0,0.09172,-0.18665,-0.37589,-0.25787,1.8352,-0.27347,0.16555,-9.6148e-05,0.16,0.68,0
0.20551,0.058575,0.87322,-0.18293,-0.37355,-0.25427,0.0062647,0,0,0.92741,-1.5507,0,0.16288,0,0,0.088751,-0.013536,0,0.08978,-0.18272,-0.37376,-0.25427,1.8803,-0.27025,0.16717,-0.0001004,0.18,0.68,0
0.22401,0.057737,0.85564,-0.17977,-0.36912,-0.25023,0.007025,0,0,0.91596,-1.5455,0,0.18265,0,0,0.087355,-0.014145,0,0.088494,-0.17951,-0.36938,-0.25023,2.1219,-0.26638,0.1662,-0.00010015,0.2,0.68,0
0.24215,0.056644,0.83828,-0.17728,-0.36262,-0.2458,0.0079909,0,0,0.89074,-1.5187,0,0.20776,0,0,0.086528,-0.014741,0,0.087775,-0.17694,-0.36297,-0.2458,2.4642,-0.2619,0.16291,-9.5866e-05,0.22,0.68,0
0.25964,0.055329,0.82103,-0.17556,-0.35396,-0.24096,0.0088254,0,0,0.85021,-1.469,0,0.22946,0,0,0.086244,-0.015226,0,0.087577,-0.17512,-0.3544,-0.24096,2.8251,-0.25683,0.15707,-8.7706e-05,0.24,0.68,0
0.27616,0.053701,0.80378,-0.17497,-0.34273,-0.23569,0.0091713,0,0,0.78938,-1.3916,0,0.23845,0,0,0.086525,-0.015509,0,0.087904,-0.17447,-0.34323,-0.23569,3.1198,-0.25113,0.14798,-7.5593e-05,0.26,0.68,0
0.29122,0.051548,0.78642,-0.17607,-0.3281,-0.22989,0.0086813,0,0,0.69965,-1.2766,0,0.22571,0,0,0.087417,-0.01556,0,0.088793,-0.17558,-0.32859,-0.22989,3.2578,-0.24469,0.13436,-5.9478e-05,0.28,0.68,0
0.30414,0.048563,0.76882,-0.17955,-0.30881,-0.22339,0.0072632,0,0,0.56995,-1.1105,0,0.18884,0,0,0.088918,-0.015498,0,0.090263,-0.17914,-0.30922,-0.22339,3.2059,-0.23725,0.11455,-4.019e-05,0.3,0.68,0
0.31402,0.044503,0.75086,-0.18551,-0.28345,-0.21577,0.0054094,0,0,0.39347,-0.87984,0,0.14064,0,0,0.090887,-0.01558,0,0.09222,-0.18521,-0.28375,-0.21577,3.1515,-0.22825,0.087366,-2.0655e-05,0.32,0.68,0
0.31988,0.039428,0.73246,-0.21846,-1.0255,-0.77605,0.0045595,0,0,0.85685,-0.58966,0,0.068934,0,0,0.09775,-0.088531,0,0.14242,-0.21828,-1.0257,-0.77605,2.1223,-0.67334,0.71858,0.043297,0.34,0.68,0
0.34829,0.032036,0.73039,-0.24281,-1.7058,-1.315,0.0068683,0,0,1.3938,-0.50804,0,0.017857,0,0,0.11294,-0.16425,0,0.19955,-0.24278,-1.7058,-1.315,0.26898,-1.0878,1.312,0.082235,0.36,0.68,0
0.37563,0.024622,0.72795,-0.25625,-1.6041,-1.2861,0.010611,0,0,1.3388,-0.41349,0,0.027587,0,0,0.12922,-0.17106,0,0.21447,-0.25616,-1.6042,-1.2861,0.45099,-1.0488,1.2205,0.072418,0.38,0.68,0
0.40184,0.017226,0.72522,-0.26709,-1.505,-1.2569,0.015924,0,0,1.2867,-0.32263,0,0.041404,0,0,0.14039,-0.17781,0,0.22657,-0.26689,-1.5052,-1.2569,0.73686,-1.0097,1.1347,0.063092,0.4,0.68,0
0.4271,0.0099791,0.72233,-0.24855,-0.82585,-0.7196,0.022179,0,0,0.4397,-0.25114,0,0.33363,0,0,0.14621,-0.099743,0,0.19042,-0.23375,-0.84065,-0.7196,26.06,-0.598,0.56512,0.029034,0.42,0.68,0
0.41943,0.013917,0.69278,-0.2419,-0.23367,-0.21195,0.023384,0,0,-0.38938,-0.28236,0,0.60797,0,0,0.14746,-0.019131,0,0.1487,-0.21404,-0.26153,-0.21195,49.992,-0.22917,0.048566,-5.8466e-06,0.44,0.68,0
0.41153,0.01775,0.66335,-0.23788,-0.23121,-0.20706,0.022129,0,0,-0.40064,-0.31396,0,0.57535,0,0,0.1465,-0.019574,0,0.1478,-0.21217,-0.25693,-0.20706,49.284,-0.22539,0.047516,-5.2961e-06,0.46,0.68,0
0.4034,0.021056,0.63418,-0.23384,-0.22804,-0.20198,0.019976,0,0,-0.41418,-0.33875,0,0.51938,0,0,0.14494,-0.019498,0,0.14625,-0.21076,-0.25113,-0.20198,49.132,-0.22129,0.045398,-4.207e-06,0.48,0.68,0
0.39496,0.023625,0.60537,-0.23009,-0.224,-0.19676,0.017479,0,0,-0.43321,-0.3541,0,0.45446,0,0,0.14308,-0.018991,0,0.14434,-0.2093,-0.24479,-0.19676,49.937,-0.21695,0.043143,-2.98e-06,0.5,0.68,0
0.38607,0.025405,0.57695,-0.22673,-0.21919,-0.19147,0.015008,0,0,-0.4584,-0.36034,0,0.3902,0,0,0.14114,-0.018168,0,0.14231,-0.20749,-0.23844,-0.19147,52.053,-0.21246,0.041352,-1.8818e-06,0.52,0.68,0
0.37662,0.026445,0.54892,-0.22378,-0.21377,-0.18616,0.01276,0,0,-0.48904,-0.35904,0,0.33175,0,0,0.13927,-0.017138,0,0.14032,-0.20507,-0.23248,-0.18616,55.699,-0.2079,0.040341,-1.0493e-06,0.54,0.68,0
0.36651,0.026847,0.52124,-0.22117,-0.20794,-0.18086,0.010812,0,0,-0.52404,-0.35209,0,0.2811,0,0,0.13756,-0.015992,0,0.13849,-0.20188,-0.22723,-0.18086,60.727,-0.20332,0.040217,-5.3679e-07,0.56,0.68,0
0.35566,0.026728,0.49389,-0.21885,-0.20184,-0.1756,0.0091701,0,0,-0.56232,-0.3412,0,0.23842,0,0,0.13607,-0.0148,0,0.13687,-0.19784,-0.22285,-0.1756,66.422,-0.19876,0.040949,-3.5729e-07,0.58,0.68,0
0.34402,0.026203,0.46681,-0.21678,-0.19561,-0.1704,0.0078086,0,0,-0.60299,-0.32774,0,0.20302,0,0,0.1348,-0.013606,0,0.13549,-0.19304,-0.21935,-0.1704,71.793,-0.19426,0.042433,-5.0734e-07,0.6,0.68,0
0.33154,0.025378,0.43997,-0.21492,-0.18934,-0.16527,0.0066877,0,0,-0.64538,-0.31282,0,0.17388,0,0,0.13377,-0.012436,0,0.13434,-0.18769,-0.21656,-0.16527,76.199,-0.18984,0.044533,-9.7825e-07,0.62,0.68,0
0.31821,0.024344,0.41331,-0.21323,-0.18309,-0.16023,0.0057654,0,0,-0.68903,-0.29723,0,0.1499,0,0,0.13295,-0.011302,0,0.13343,-0.18202,-0.21429,-0.16023,79.532,-0.18552,0.047116,-1.7612e-06,0.64,0.68,0
0.30398,0.023178,0.38679,-0.2117,-0.17692,-0.15526,0.0050019,0,0,-0.73361,-0.28158,0,0.13005,0,0,0.13236,-0.010205,0,0.13275,-0.17622,-0.2124,-0.15526,81.975,-0.1813,0.050064,-2.8497e-06,0.66,0.68,0
0.28886,0.021945,0.36036,-0.21031,-0.17087,-0.15039,0.0043618,0,0,-0.77892,-0.26627,0,0.11341,0,0,0.13197,-0.0091396,0,0.13229,-0.1704,-0.21078,-0.15039,83.763,-0.17719,0.053286,-4.2411e-06,0.68,0.68,0
0.27283,0.020697,0.334,-0.20906,-0.16496,-0.1456,0.0038153,0,0,-0.82488,-0.2516,0,0.099197,0,0,0.13178,-0.008098,0,0.13203,-0.16463,-0.20938,-0.1456,85.091,-0.17321,0.056713,-5.9377e-06,0.7,0.68,0
0.25587,0.019478,0.30765,-0.20794,-0.15919,-0.14091,0.0033391,0,0,-0.87147,-0.23775,0,0.086817,0,0,0.13179,-0.007071,0,0.13198,-0.15897,-0.20817,-0.14091,86.1,-0.16935,0.060297,-7.9475e-06,0.72,0.68,0
0.23797,0.018322,0.28128,-0.20696,-0.15359,-0.13629,0.0029168,0,0,-0.91871,-0.22481,0,0.075838,0,0,0.13198,-0.0060503,0,0.13212,-0.15343,-0.20712,-0.13629,86.881,-0.16562,0.064005,-1.0284e-05,0.74,0.68,0
0.21912,0.01726,0.25486,-0.20612,-0.14814,-0.13176,0.0025392,0,0,-0.96665,-0.21289,0,0.066019,0,0,0.13237,-0.0050307,0,0.13247,-0.14803,-0.20623,-0.13176,87.497,-0.16201,0.067815,-1.2964e-05,0.76,0.68,0
0.1993,0.016317,0.22833,-0.20542,-0.14285,-0.12732,0.0022037,0,0,-1.0153,-0.20201,0,0.057296,0,0,0.13296,-0.004012,0,0.13302,-0.14278,-0.20549,-0.12732,87.985,-0.15853,0.07171,-1.6011e-05,0.78,0.68,0
0.1785,0.015517,0.20167,-0.20484,-0.13773,-0.12294,0.0019139,0,0,-1.0648,-0.19226,0,0.049763,0,0,0.13374,-0.0030023,0,0.13377,-0.13767,-0.2049,-0.12294,88.368,-0.15517,0.075676,-1.9445e-05,0.8,0.68,0
0.15671,0.014883,0.17484,-0.2044,-0.13276,-0.11863,0.0016776,0,0,-1.115,-0.18368,0,0.043619,0,0,0.1347,-0.002021,0,0.13471,-0.13272,-0.20444,-0.11863,88.659,-0.15193,0.0797,-2.3286e-05,0.82,0.68,0
0.1339,0.014433,0.1478,-0.20406,-0.12795,-0.11438,0.0015043,0,0,-1.1658,-0.17636,0,0.039111,0,0,0.13582,-0.0011013,0,0.13582,-0.12792,-0.20409,-0.11438,88.868,-0.1488,0.083766,-2.7549e-05,0.84,0.68,0
0.11008,0.014187,0.12051,-0.20382,-0.12328,-0.11018,0.0014037,0,0,-1.2173,-0.1703,0,0.036496,0,0,0.13706,-0.00029028,0,0.13706,-0.12326,-0.20385,-0.11018,89.002,-0.14576,0.087859,-3.2246e-05,0.86,0.68,0
0.085213,0.014163,0.092971,-0.20365,-0.11875,-0.10602,0.0013869,0,0,-1.2692,-0.1655,0,0.03606,0,0,0.13836,0.00035526,0,0.13836,-0.11872,-0.20367,-0.10602,89.064,-0.1428,0.091963,-3.7386e-05,0.88,0.68,0
0.059307,0.014376,0.06517,-0.20351,-0.11432,-0.10187,0.0014701,0,0,-1.3214,-0.16189,0,0.038224,0,0,0.13961,0.0007798,0,0.13961,-0.11429,-0.20353,-0.10187,89.056,-0.1399,0.09606,-4.2966e-05,0.9,0.68,0
0.032357,0.01485,0.037129,-0.20336,-0.10999,-0.097719,0.0016772,0,0,-1.3733,-0.15958,0,0.043608,0,0,0.14068,0.00094539,0,0.14068,-0.10996,-0.20339,-0.097719,88.971,-0.13702,0.10011,-4.8943e-05,0.92,0.68,0
0.0043739,0.01562,0.0088976,-0.20313,-0.19017,-0.12288,0.0021281,0,0,-0.73395,-0.15905,0,0.025453,0,0,0.14273,0.004673,0,0.14287,-0.15537,-0.23793,-0.12288,45.54,-0.17206,0.10424,-3.3329e-05,0.94,0.68,0
0.0029995,0.015637,0.0060116,-0.20241,-0.27073,-0.14795,0.0024746,0,0,-0.070792,-0.15961,0,0.006434,0,0,0.14664,0.0072198,0,0.14683,-0.20232,-0.27082,-0.14795,2.0716,-0.20703,0.10664,-1.2313e-05,0.96,0.68,0
0.0015422,0.015682,0.003032,-0.20175,-0.26836,-0.14406,0.001746,0,0,-0.074987,-0.16158,0,0.0045396,0,0,0.15029,0.004128,0,0.15034,-0.2017,-0.2684,-0.14406,1.5004,-0.20472,0.10778,-8.0942e-06,0.98,0.68,0
0,0.015703,0,-0.19758,-0.26329,-0.13826,0.00041021,0,0,-0.077111,-0.16254,0,0.0010666,0,0,0.1516,-1.8431e-18,0,0.15159,-0.19757,-0.26329,-0.13826,0.35766,-0.19971,0.10833,-5.7815e-06,1,0.68,0
0,0.027935,1,-0.30592,-2.2188,-1.7574,-0.00069255,0,0,1.8869,-0.59977,0,-0.0018006,0,0,0.15754,3.6819e-15,0,0.15745,-0.30592,-2.2188,-1.7574,-0.020744,-1.4274,1.729,0.2031,0,0.7,0
0.037739,0.027899,0.99685,-0.29892,-2.2122,-1.7502,0.0031064,0,0,1.8866,-0.60062,0,0.0080768,0,0,0.15088,-0.010771,0,0.15136,-0.29891,-2.2122,-1.7502,0.093026,-1.4204,1.7292,0.20303,0.02,0.7,0
0.075466,0.027771,0.99396,-0.28997,-2.2018,-1.7415,0.0042733,0,0,1.887,-0.59842,0,0.011111,0,0,0.13251,-0.01938,0,0.13448,-0.28996,-2.2018,-1.7415,0.12807,-1.4111,1.7283,0.20309,0.04,0.7,0
0.11322,0.027547,0.99155,-0.24719,-1.2405,-0.99166,0.0043378,0,0,1.1839,-0.58819,0,0.055781,0,0,0.1131,-0.01329,0,0.11476,-0.2471,-1.2406,-0.99166,1.3955,-0.82646,0.89749,0.10153,0.06,0.7,0
0.12282,0.029047,0.97047,-0.21881,-0.33523,-0.26326,0.003458,0,0,0.57785,-0.93563,0,0.089908,0,0,0.10358,-0.0047148,0,0.1037,-0.2187,-0.33533,-0.26326,1.6998,-0.27243,0.10193,-2.1495e-05,0.08,0.7,0
0.13633,0.029746,0.95012,-0.20646,-0.35598,-0.26375,0.0022459,0,0,0.74468,-1.1991,0,0.058393,0,0,0.099768,-0.0065621,0,0.1,-0.20643,-0.35602,-0.26375,0.86036,-0.2754,0.13072,-4.4917e-05,0.1,0.7,0
0.15261,0.029694,0.93056,-0.19677,-0.36843,-0.26261,0.0014271,0,0,0.85602,-1.3756,0,0.037105,0,0,0.095983,-0.0080671,0,0.096338,-0.19675,-0.36844,-0.26261,0.47629,-0.27594,0.15002,-6.7658e-05,0.12,0.7,0
0.17057,0.029121,0.91173,-0.18961,-0.37449,-0.2604,0.0013119,0,0,0.92033,-1.4832,0,0.034109,0,0,0.092627,-0.0093832,0,0.093112,-0.1896,-0.3745,-0.2604,0.40652,-0.27483,0.16159,-8.5004e-05,0.14,0.7,0
0.18942,0.028288,0.89351,-0.18433,-0.3761,-0.25748,0.0018526,0,0,0.95092,-1.5421,0,0.048169,0,0,0.089901,-0.01063,0,0.090533,-0.18432,-0.37612,-0.25748,0.55345,-0.27264,0.16766,-9.6059e-05,0.16,0.7,0
0.20861,0.027411,0.87577,-0.1803,-0.37452,-0.25402,0.0028933,0,0,0.95842,-1.5665,0,0.075227,0,0,0.087857,-0.011864,0,0.088657,-0.18026,-0.37457,-0.25402,0.85327,-0.26962,0.1699,-0.00010139,0.18,0.7,0
0.22776,0.026644,0.85836,-0.17712,-0.37042,-0.2501,0.0042798,0,0,0.94871,-1.5642,0,0.11127,0,0,0.086476,-0.013081,0,0.08746,-0.17703,-0.37051,-0.2501,1.2677,-0.26588,0.16923,-0.00010173,0.2,0.7,0
0.24656,0.02609,0.84118,-0.17469,-0.36403,-0.24573,0.0058793,0,0,0.92352,-1.5378,0,0.15286,0,0,0.085725,-0.014242,0,0.086899,-0.17451,-0.36421,-0.24573,1.7769,-0.26149,0.16597,-9.7573e-05,0.22,0.7,0
0.2647,0.025806,0.82407,-0.17315,-0.35524,-0.24093,0.0075677,0,0,0.88106,-1.4861,0,0.19676,0,0,0.085584,-0.01529,0,0.086938,-0.17284,-0.35556,-0.24093,2.3758,-0.25644,0.15994,-8.9134e-05,0.24,0.7,0
0.2818,0.02581,0.80694,-0.17285,-0.34361,-0.23563,0.0092194,0,0,0.8162,-1.4037,0,0.23971,0,0,0.086048,-0.016169,0,0.087554,-0.17235,-0.34411,-0.23563,3.0814,-0.2507,0.15045,-7.6443e-05,0.26,0.7,0
0.29735,0.026076,0.78965,-0.17429,-0.32832,-0.22975,0.010717,0,0,0.72092,-1.2814,0,0.27863,0,0,0.087093,-0.016848,0,0.08871,-0.17355,-0.32906,-0.22975,3.9611,-0.24412,0.13639,-5.9725e-05,0.28,0.7,0
0.31064,0.026536,0.7721,-0.17794,-0.30828,-0.22308,0.011969,0,0,0.58673,-1.1076,0,0.31119,0,0,0.088634,-0.017351,0,0.090321,-0.17685,-0.30937,-0.22308,5.2036,-0.23643,0.1165,-4.024e-05,0.3,0.7,0
0.32082,0.027092,0.7542,-0.18387,-0.28276,-0.21541,0.012967,0,0,0.41002,-0.87557,0,0.33715,0,0,0.090487,-0.017765,0,0.09222,-0.1822,-0.28443,-0.21541,7.3475,-0.22735,0.090331,-2.1333e-05,0.32,0.7,0
0.32704,0.027639,0.73591,-0.21729,-1.0301,-0.77897,0.01558,0,0,0.87018,-0.59363,0,0.20258,0,0,0.09654,-0.10012,0,0.1509,-0.21586,-1.0315,-0.77897,5.7455,-0.67546,0.72575,0.044133,0.34,0.7,0
0.35562,0.021881,0.73388,-0.24116,-1.7112,-1.3196,0.02335,0,0,1.402,-0.50914,0,0.06071,0,0,0.11012,-0.18308,0,0.21382,-0.24079,-1.7116,-1.3196,0.90975,-1.0907,1.3192,0.083767,0.36,0.7,0
0.38312,0.016339,0.7315,-0.25544,-1.6078,-1.2905,0.027839,0,0,1.3455,-0.41251,0,0.07238,0,0,0.12552,-0.18487,0,0.22356,-0.25487,-1.6083,-1.2905,1.1788,-1.0512,1.2259,0.073597,0.38,0.7,0
0.40945,0.010757,0.72886,-0.2668,-1.5059,-1.2607,0.026408,0,0,1.292,-0.31881,0,0.068659,0,0,0.13761,-0.18654,0,0.23186,-0.26624,-1.5065,-1.2607,1.2203,-1.0111,1.1374,0.063842,0.4,0.7,0
0.4348,0.0049065,0.726,-0.2498,-0.82667,-0.72224,0.022295,0,0,0.43741,-0.24683,0,0.29739,0,0,0.14506,-0.10296,0,0.19198,-0.23613,-0.84034,-0.72224,26.929,-0.59957,0.56382,0.029284,0.42,0.7,0
0.42694,0.0084422,0.69654,-0.24353,-0.23261,-0.2125,0.019626,0,0,-0.40348,-0.26147,0,0.51027,0,0,0.14721,-0.018611,0,0.14838,-0.2177,-0.25844,-0.2125,52.776,-0.22955,0.043579,-4.047e-06,0.44,0.7,0
0.41866,0.01178,0.66712,-0.23995,-0.22923,-0.20747,0.018121,0,0,-0.42234,-0.2829,0,0.47115,0,0,0.1466,-0.018302,0,0.14774,-0.21569,-0.25349,-0.20747,53.243,-0.22555,0.042511,-3.4529e-06,0.46,0.7,0
0.41005,0.014652,0.63789,-0.2361,-0.22567,-0.20232,0.016137,0,0,-0.43914,-0.30353,0,0.41956,0,0,0.14537,-0.017789,0,0.14646,-0.21393,-0.24784,-0.20232,53.956,-0.22136,0.040972,-2.6004e-06,0.48,0.7,0
0.40109,0.01692,0.60897,-0.23234,-0.22162,-0.19708,0.013999,0,0,-0.45829,-0.31897,0,0.36397,0,0,0.14377,-0.017098,0,0.14479,-0.21199,-0.24197,-0.19708,55.473,-0.21701,0.039595,-1.7326e-06,0.5,0.7,0
0.39172,0.018551,0.58039,-0.22886,-0.217,-0.1918,0.011933,0,0,-0.48183,-0.32765,0,0.31025,0,0,0.14202,-0.01627,0,0.14295,-0.20961,-0.23626,-0.1918,58.213,-0.21255,0.038755,-1.0053e-06,0.52,0.7,0
0.38182,0.019582,0.55216,-0.22574,-0.21187,-0.1865,0.010064,0,0,-0.51018,-0.32977,0,0.26166,0,0,0.14027,-0.015353,0,0.14111,-0.20658,-0.23103,-0.1865,62.293,-0.20804,0.038626,-4.9971e-07,0.54,0.7,0
0.37131,0.020085,0.52428,-0.22298,-0.20633,-0.18122,0.0084441,0,0,-0.54289,-0.32639,0,0.21955,0,0,0.13862,-0.014389,0,0.13937,-0.2028,-0.22651,-0.18122,67.3,-0.20351,0.039239,-2.5403e-07,0.56,0.7,0
0.3601,0.020148,0.49671,-0.22053,-0.2005,-0.17598,0.0070789,0,0,-0.57917,-0.31879,0,0.18405,0,0,0.13714,-0.013413,0,0.1378,-0.19826,-0.22278,-0.17598,72.373,-0.19901,0.040546,-2.8525e-07,0.58,0.7,0
0.34814,0.019862,0.46942,-0.21836,-0.19451,-0.1708,0.0059491,0,0,-0.61825,-0.30821,0,0.15468,0,0,0.13587,-0.012446,0,0.13644,-0.19311,-0.21976,-0.1708,76.743,-0.19456,0.042455,-6.0135e-07,0.6,0.7,0
0.33537,0.019309,0.44237,-0.21642,-0.18844,-0.1657,0.0050254,0,0,-0.65945,-0.29568,0,0.13066,0,0,0.13481,-0.011503,0,0.13529,-0.18757,-0.2173,-0.1657,80.121,-0.19019,0.044861,-1.2066e-06,0.62,0.7,0
0.32176,0.018566,0.4155,-0.21468,-0.18236,-0.16066,0.0042753,0,0,-0.70227,-0.28206,0,0.11116,0,0,0.13396,-0.010589,0,0.13438,-0.1818,-0.21524,-0.16066,82.592,-0.1859,0.047663,-2.1042e-06,0.64,0.7,0
0.30728,0.017698,0.38878,-0.21312,-0.17632,-0.15571,0.0036671,0,0,-0.74635,-0.26796,0,0.095346,0,0,0.13334,-0.0097036,0,0.13369,-0.17596,-0.21349,-0.15571,84.364,-0.18172,0.050773,-3.2981e-06,0.66,0.7,0
0.29191,0.016758,0.36216,-0.21172,-0.17037,-0.15085,0.0031722,0,0,-0.79142,-0.25386,0,0.082478,0,0,0.13293,-0.0088428,0,0.13322,-0.17013,-0.21197,-0.15085,85.639,-0.17765,0.054119,-4.7936e-06,0.68,0.7,0
0.27563,0.015794,0.33561,-0.21047,-0.16453,-0.14606,0.0027657,0,0,-0.83735,-0.24011,0,0.071907,0,0,0.13272,-0.0080005,0,0.13296,-0.16437,-0.21064,-0.14606,86.567,-0.17369,0.057647,-6.5986e-06,0.7,0.7,0
0.25842,0.014845,0.30908,-0.20937,-0.15883,-0.14137,0.0024271,0,0,-0.88403,-0.22698,0,0.063106,0,0,0.13271,-0.0071697,0,0.13291,-0.15871,-0.20949,-0.14137,87.257,-0.16985,0.061315,-8.7235e-06,0.72,0.7,0
0.24027,0.013942,0.28252,-0.2084,-0.15326,-0.13675,0.0021415,0,0,-0.93144,-0.21464,0,0.05568,0,0,0.13291,-0.006344,0,0.13306,-0.15318,-0.20848,-0.13675,87.779,-0.16614,0.065092,-1.1181e-05,0.74,0.7,0
0.22116,0.013112,0.25591,-0.20756,-0.14785,-0.13222,0.001899,0,0,-0.97952,-0.20327,0,0.049375,0,0,0.1333,-0.0055186,0,0.13341,-0.14779,-0.20762,-0.13222,88.18,-0.16254,0.068952,-1.3984e-05,0.76,0.7,0
0.20108,0.01238,0.2292,-0.20685,-0.1426,-0.12776,0.0016951,0,0,-1.0282,-0.19299,0,0.044072,0,0,0.13388,-0.0046921,0,0.13396,-0.14256,-0.2069,-0.12776,88.49,-0.15907,0.072876,-1.7147e-05,0.78,0.7,0
0.18003,0.011768,0.20236,-0.20626,-0.13752,-0.12337,0.0015297,0,0,-1.0776,-0.18394,0,0.039772,0,0,0.13464,-0.003868,0,0.13469,-0.13748,-0.20629,-0.12337,88.726,-0.15571,0.076843,-2.0679e-05,0.8,0.7,0
0.15798,0.011294,0.17535,-0.20577,-0.1326,-0.11904,0.0014062,0,0,-1.1274,-0.17622,0,0.036562,0,0,0.13556,-0.0030559,0,0.1356,-0.13257,-0.20579,-0.11904,88.899,-0.15247,0.080838,-2.4589e-05,0.82,0.7,0
0.13493,0.010979,0.14814,-0.20537,-0.12785,-0.11478,0.0013301,0,0,-1.1777,-0.16991,0,0.034583,0,0,0.13662,-0.0022736,0,0.13664,-0.12782,-0.20539,-0.11478,89.017,-0.14933,0.084844,-2.8883e-05,0.84,0.7,0
0.11088,0.010841,0.1207,-0.20504,-0.12325,-0.11056,0.0013074,0,0,-1.2283,-0.16501,0,0.033994,0,0,0.13776,-0.0015454,0,0.13777,-0.12323,-0.20506,-0.11056,89.084,-0.14628,0.088849,-3.3566e-05,0.86,0.7,0
0.085803,0.010897,0.093034,-0.20477,-0.11879,-0.10637,0.0013451,0,0,-1.2792,-0.16148,0,0.034974,0,0,0.13891,-0.00090039,0,0.13891,-0.11877,-0.20479,-0.10637,89.104,-0.14331,0.092841,-3.864e-05,0.88,0.7,0
0.05971,0.011166,0.065138,-0.20453,-0.11446,-0.10221,0.0014517,0,0,-1.3301,-0.15926,0,0.037744,0,0,0.13998,-0.00036609,0,0.13998,-0.11444,-0.20455,-0.10221,89.077,-0.1404,0.096808,-4.4101e-05,0.9,0.7,0
0.032598,0.011668,0.03704,-0.20429,-0.11026,-0.098067,0.0016374,0,0,-1.3809,-0.15846,0,0.042573,0,0,0.14087,3.9483e-05,0,0.14087,-0.11023,-0.20431,-0.098067,89.003,-0.13754,0.10072,-4.9908e-05,0.92,0.7,0
0.0044754,0.012429,0.0087891,-0.20424,-0.19081,-0.12335,0.0018332,0,0,-0.73791,-0.15945,0,0.023856,0,0,0.14242,0.00174,0,0.14244,-0.15625,-0.2388,-0.12335,45.356,-0.1728,0.10459,-3.3196e-05,0.94,0.7,0
0.0030813,0.012448,0.0059176,-0.20375,-0.2707,-0.14825,0.0017136,0,0,-0.072149,-0.15918,0,0.0044554,0,0,0.14528,0.0028656,0,0.14532,-0.20371,-0.27075,-0.14825,1.4653,-0.20757,0.10624,-1.003e-05,0.96,0.7,0
0.0015895,0.012471,0.0029778,-0.20332,-0.26698,-0.14407,0.0010698,0,0,-0.077032,-0.15978,0,0.0027814,0,0,0.14794,0.0016847,0,0.14795,-0.20331,-0.267,-0.14407,0.96254,-0.20479,0.10648,-3.8878e-06,0.98,0.7,0
0,0.012482,0,-0.19937,-0.26141,-0.13823,0.00020305,0,0,-0.079475,-0.16013,0,0.00052793,0,0,0.14889,6.5052e-19,0,0.14889,-0.19937,-0.26141,-0.13823,0.18751,-0.19967,0.10668,-7.9781e-07,1,0.7,0
0,0.015852,1,-0.30639,-2.2167,-1.7569,-0.00044835,0,0,1.8857,-0.59774,0,-0.0011657,0,0,0.154,2.4937e-16,0,0.15396,-0.30639,-2.2167,-1.7569,-0.013447,-1.4267,1.727,0.20267,0,0.72,0
0.037714,0.015828,0.99692,-0.29935,-2.2106,-1.7499,-0.0063071,0,0,1.8857,-0.59894,0,-0.016398,0,0,0.14756,0.0034547,0,0.14774,-0.29933,-2.2107,-1.7499,-0.18907,-1.42,1.7277,0.20271,0.02,0.72,0
0.075429,0.015794,0.9941,-0.29013,-2.201,-1.7414,-0.0098703,0,0,1.8867,-0.59739,0,-0.025663,0,0,0.12978,0.0056786,0,0.13048,-0.29008,-2.201,-1.7414,-0.29595,-1.4108,1.7276,0.20299,0.04,0.72,0
0.11318,0.015765,0.99173,-0.24684,-1.24,-0.9915,-0.011342,0,0,1.1863,-0.58732,0,-0.16225,0,0,0.11101,0.0031401,0,0.11153,-0.24604,-1.2408,-0.9915,-4.0163,-0.82611,0.8986,0.10153,0.06,0.72,0
0.12288,0.010426,0.97101,-0.21825,-0.33549,-0.26322,-0.010671,0,0,0.58464,-0.93944,0,-0.27745,0,0,0.10177,-0.00083203,0,0.10179,-0.21729,-0.33645,-0.26322,-5.1587,-0.27232,0.1041,-2.2262e-05,0.08,0.72,0
0.13657,0.0058456,0.95102,-0.2057,-0.35655,-0.26378,-0.0086692,0,0,0.75499,-1.2061,0,-0.2254,0,0,0.098044,-0.002496,0,0.098093,-0.20521,-0.35705,-0.26378,-3.2783,-0.27535,0.13264,-4.5958e-05,0.1,0.72,0
0.15308,0.0021908,0.9318,-0.19582,-0.36926,-0.26271,-0.0064594,0,0,0.86945,-1.3852,0,-0.16794,0,0,0.09432,-0.0043528,0,0.094435,-0.19558,-0.3695,-0.26271,-2.13,-0.27593,0.15191,-6.8934e-05,0.12,0.72,0
0.17134,-0.00061168,0.91329,-0.18849,-0.37559,-0.26055,-0.0044247,0,0,0.93683,-1.4955,0,-0.11504,0,0,0.091004,-0.0063034,0,0.091232,-0.18838,-0.37569,-0.26055,-1.354,-0.27488,0.16363,-8.6601e-05,0.14,0.72,0
0.19055,-0.0026808,0.8954,-0.18305,-0.37748,-0.2577,-0.0025197,0,0,0.97047,-1.5572,0,-0.065514,0,0,0.088308,-0.0082673,0,0.088699,-0.18301,-0.37751,-0.2577,-0.74236,-0.27274,0.16995,-9.8055e-05,0.16,0.72,0
0.21016,-0.0040857,0.87797,-0.17886,-0.37617,-0.25431,-0.00059005,0,0,0.98079,-1.5842,0,-0.015341,0,0,0.086301,-0.010197,0,0.086901,-0.17886,-0.37617,-0.25431,-0.17134,-0.26978,0.17245,-0.00010377,0.18,0.72,0
0.22979,-0.0048302,0.86087,-0.17556,-0.3723,-0.25045,0.0014872,0,0,0.97347,-1.5841,0,0.038666,0,0,0.084977,-0.012066,0,0.085827,-0.17555,-0.37231,-0.25045,0.43308,-0.2661,0.17201,-0.0001044,0.2,0.72,0
0.2491,-0.0048684,0.84398,-0.17306,-0.36611,-0.24615,0.0037926,0,0,0.95018,-1.5595,0,0.098607,0,0,0.084318,-0.013854,0,0.085446,-0.17298,-0.36618,-0.24615,1.125,-0.26177,0.16895,-0.00010042,0.22,0.72,0
0.26779,-0.0041155,0.82715,-0.17145,-0.3575,-0.2414,0.0064029,0,0,0.90935,-1.5093,0,0.16648,0,0,0.084316,-0.015531,0,0.085733,-0.17123,-0.35772,-0.2414,1.9688,-0.25678,0.16314,-9.21e-05,0.24,0.72,0
0.28548,-0.0024482,0.81025,-0.17107,-0.34603,-0.23616,0.0094156,0,0,0.84613,-1.4284,0,0.2448,0,0,0.084967,-0.017049,0,0.086661,-0.17056,-0.34654,-0.23616,3.0715,-0.25109,0.15404,-7.9568e-05,0.26,0.72,0
0.30164,0.00029257,0.79316,-0.17244,-0.3309,-0.23032,0.012905,0,0,0.75246,-1.3076,0,0.33554,0,0,0.086235,-0.018337,0,0.088165,-0.17139,-0.33195,-0.23032,4.6254,-0.24455,0.14067,-6.3105e-05,0.28,0.72,0
0.31557,0.0042589,0.77576,-0.17605,-0.31091,-0.22366,0.016769,0,0,0.61902,-1.1342,0,0.43598,0,0,0.088001,-0.019309,0,0.090099,-0.17399,-0.31297,-0.22366,6.9823,-0.23687,0.12197,-4.3827e-05,0.3,0.72,0
0.3264,0.0094807,0.75796,-0.18203,-0.28506,-0.21592,0.020462,0,0,0.44056,-0.89872,0,0.53202,0,0,0.090034,-0.019909,0,0.092216,-0.17812,-0.28897,-0.21592,10.832,-0.22767,0.097605,-2.4742e-05,0.32,0.72,0
0.3332,0.015683,0.73974,-0.21678,-1.0407,-0.78412,0.026677,0,0,0.89049,-0.60656,0,0.33504,0,0,0.09627,-0.11093,0,0.15956,-0.21323,-1.0443,-0.78412,8.5461,-0.68054,0.73868,0.045227,0.34,0.72,0
0.36202,0.01167,0.73772,-0.2409,-1.7221,-1.3266,0.040216,0,0,1.4114,-0.51413,0,0.10456,0,0,0.11011,-0.20092,0,0.22927,-0.23981,-1.7232,-1.3266,1.5541,-1.0965,1.3302,0.085645,0.36,0.72,0
0.38965,0.0081217,0.73534,-0.25619,-1.6082,-1.2947,0.046292,0,0,1.35,-0.40761,0,0.12036,0,0,0.12576,-0.19883,0,0.23536,-0.25461,-1.6098,-1.2947,1.9587,-1.053,1.2283,0.074479,0.38,0.72,0
0.41602,0.0044732,0.73269,-0.26859,-1.4959,-1.262,0.038134,0,0,1.2915,-0.304,0,0.099147,0,0,0.13805,-0.19645,0,0.24016,-0.26741,-1.497,-1.262,1.778,-1.0088,1.1306,0.063547,0.4,0.72,0
0.44131,0.00010574,0.72982,-0.25124,-0.8161,-0.7216,0.023124,0,0,0.42367,-0.22336,0,0.26723,0,0,0.14565,-0.1071,0,0.19552,-0.23755,-0.82979,-0.7216,28.927,-0.59631,0.55584,0.028744,0.42,0.72,0
0.43297,0.0034588,0.70022,-0.24615,-0.23102,-0.21317,0.016105,0,0,-0.42871,-0.23198,0,0.41872,0,0,0.14788,-0.018305,0,0.14901,-0.22079,-0.25638,-0.21317,57.583,-0.23011,0.039945,-2.8762e-06,0.44,0.72,0
0.42416,0.0064335,0.67067,-0.24245,-0.22728,-0.20799,0.014154,0,0,-0.44801,-0.25086,0,0.368,0,0,0.14732,-0.017244,0,0.14833,-0.21881,-0.25092,-0.20799,59.09,-0.22591,0.038678,-2.206e-06,0.46,0.72,0
0.41505,0.008915,0.6413,-0.2384,-0.22363,-0.20274,0.012193,0,0,-0.4636,-0.27158,0,0.31703,0,0,0.14614,-0.016264,0,0.14705,-0.21676,-0.24527,-0.20274,60.602,-0.22159,0.03754,-1.4951e-06,0.48,0.72,0
0.40562,0.010866,0.61221,-0.23441,-0.21967,-0.19745,0.010341,0,0,-0.48059,-0.28889,0,0.26887,0,0,0.1446,-0.015341,0,0.14541,-0.21434,-0.23974,-0.19745,62.744,-0.21718,0.036875,-8.7531e-07,0.5,0.72,0
0.39582,0.012299,0.58346,-0.23071,-0.21524,-0.19213,0.0086618,0,0,-0.50156,-0.30038,0,0.22521,0,0,0.14288,-0.014459,0,0.14362,-0.21136,-0.23459,-0.19213,65.888,-0.21269,0.036825,-4.1623e-07,0.52,0.72,0
0.38556,0.013254,0.55506,-0.22739,-0.21033,-0.18682,0.0071871,0,0,-0.52735,-0.30565,0,0.18687,0,0,0.14115,-0.013612,0,0.14181,-0.20771,-0.23001,-0.18682,69.936,-0.20818,0.03741,-1.5268e-07,0.54,0.72,0
0.37473,0.013792,0.527,-0.22445,-0.20503,-0.18154,0.0059252,0,0,-0.55774,-0.30535,0,0.15405,0,0,0.1395,-0.012796,0,0.14009,-0.20337,-0.22611,-0.18154,74.3,-0.20367,0.0386,-1.058e-07,0.56,0.72,0
0.36325,0.013976,0.49925,-0.22185,-0.19943,-0.17631,0.0048686,0,0,-0.59206,-0.30057,0,0.12658,0,0,0.13801,-0.012012,0,0.13853,-0.19842,-0.22287,-0.17631,78.263,-0.1992,0.040335,-2.9245e-07,0.58,0.72,0
0.35105,0.013875,0.47179,-0.21957,-0.19364,-0.17114,0.0040009,0,0,-0.62957,-0.29246,0,0.10402,0,0,0.13671,-0.01126,0,0.13717,-0.19304,-0.22017,-0.17114,81.426,-0.19478,0.042544,-7.2766e-07,0.6,0.72,0
0.33807,0.01355,0.44457,-0.21755,-0.18774,-0.16604,0.0033009,0,0,-0.66957,-0.28203,0,0.085823,0,0,0.13562,-0.010539,0,0.13603,-0.18738,-0.21791,-0.16604,83.757,-0.19044,0.045153,-1.425e-06,0.62,0.72,0
0.32426,0.013061,0.41754,-0.21575,-0.1818,-0.16102,0.0027456,0,0,-0.71152,-0.27014,0,0.071386,0,0,0.13476,-0.0098457,0,0.13511,-0.18158,-0.21597,-0.16102,85.406,-0.18619,0.048091,-2.3969e-06,0.64,0.72,0
0.30961,0.01246,0.39067,-0.21415,-0.17588,-0.15608,0.0023118,0,0,-0.755,-0.25744,0,0.060107,0,0,0.13411,-0.0091769,0,0.13442,-0.17574,-0.21429,-0.15608,86.556,-0.18204,0.051293,-3.6554e-06,0.66,0.72,0
0.29406,0.011791,0.3639,-0.21273,-0.17002,-0.15122,0.0019773,0,0,-0.79973,-0.24446,0,0.051409,0,0,0.13367,-0.0085274,0,0.13395,-0.16993,-0.21283,-0.15122,87.355,-0.17799,0.054708,-5.2129e-06,0.68,0.72,0
0.27762,0.011093,0.3372,-0.21148,-0.16425,-0.14644,0.0017217,0,0,-0.84551,-0.23157,0,0.044763,0,0,0.13345,-0.0078917,0,0.13369,-0.16419,-0.21154,-0.14644,87.915,-0.17406,0.058291,-7.0825e-06,0.7,0.72,0
0.26024,0.010399,0.31052,-0.21038,-0.1586,-0.14174,0.0015272,0,0,-0.89221,-0.2191,0,0.039707,0,0,0.13344,-0.0072639,0,0.13364,-0.15855,-0.21042,-0.14174,88.312,-0.17024,0.062005,-9.2777e-06,0.72,0.72,0
0.24193,0.0097364,0.28382,-0.20942,-0.15307,-0.13713,0.0013794,0,0,-0.93973,-0.20729,0,0.035865,0,0,0.13364,-0.0066383,0,0.1338,-0.15304,-0.20945,-0.13713,88.598,-0.16654,0.065823,-1.1812e-05,0.74,0.72,0
0.22265,0.0091292,0.25706,-0.20859,-0.1477,-0.13259,0.0012676,0,0,-0.98796,-0.19636,0,0.032956,0,0,0.13403,-0.0060092,0,0.13416,-0.14767,-0.20862,-0.13259,88.808,-0.16296,0.069718,-1.4697e-05,0.76,0.72,0
0.20241,0.0085974,0.23021,-0.20788,-0.14248,-0.12813,0.0011849,0,0,-1.0368,-0.18652,0,0.030808,0,0,0.13461,-0.0053722,0,0.13472,-0.14246,-0.20791,-0.12813,88.963,-0.1595,0.073665,-1.7942e-05,0.78,0.72,0
0.18118,0.0081597,0.20322,-0.20729,-0.13742,-0.12374,0.0011289,0,0,-1.0862,-0.17794,0,0.029352,0,0,0.13537,-0.0047241,0,0.13546,-0.13741,-0.20731,-0.12374,89.075,-0.15615,0.077644,-2.155e-05,0.8,0.72,0
0.15896,0.0078336,0.17606,-0.20679,-0.13254,-0.1194,0.0011004,0,0,-1.136,-0.17078,0,0.02861,0,0,0.13629,-0.004064,0,0.13635,-0.13253,-0.2068,-0.1194,89.151,-0.15291,0.081633,-2.5524e-05,0.82,0.72,0
0.13574,0.0076367,0.14871,-0.20636,-0.12783,-0.11513,0.0011031,0,0,-1.1861,-0.16512,0,0.028681,0,0,0.13733,-0.0033935,0,0.13737,-0.12782,-0.20638,-0.11513,89.195,-0.14977,0.085616,-2.986e-05,0.84,0.72,0
0.11152,0.0075871,0.12113,-0.206,-0.12328,-0.1109,0.0011424,0,0,-1.2364,-0.16097,0,0.029704,0,0,0.13844,-0.0027172,0,0.13846,-0.12327,-0.20602,-0.1109,89.209,-0.14673,0.08958,-3.456e-05,0.86,0.72,0
0.086287,0.0077036,0.093331,-0.20569,-0.11888,-0.1067,0.001224,0,0,-1.2868,-0.15829,0,0.031824,0,0,0.13954,-0.0020422,0,0.13955,-0.11886,-0.20571,-0.1067,89.192,-0.14376,0.093518,-3.9622e-05,0.88,0.72,0
0.060046,0.0080054,0.065316,-0.2054,-0.11461,-0.10254,0.0013522,0,0,-1.3373,-0.15699,0,0.035156,0,0,0.14054,-0.001377,0,0.14055,-0.11459,-0.20542,-0.10254,89.147,-0.14085,0.097419,-4.5042e-05,0.9,0.72,0
0.032797,0.008512,0.037113,-0.20511,-0.11048,-0.098388,0.0015283,0,0,-1.3875,-0.15713,0,0.039735,0,0,0.14136,-0.00072907,0,0.14136,-0.11045,-0.20514,-0.098388,89.075,-0.13799,0.10126,-5.0785e-05,0.92,0.72,0
0.0045483,0.0092421,0.008771,-0.20513,-0.19091,-0.12363,0.0016,0,0,-0.74154,-0.15901,0,0.021921,0,0,0.14271,-0.00056754,0,0.14272,-0.15689,-0.23915,-0.12363,45.257,-0.17322,0.10465,-3.2769e-05,0.94,0.72,0
0.0031354,0.0092702,0.0058969,-0.20475,-0.27035,-0.14843,0.0012764,0,0,-0.073225,-0.15849,0,0.0033185,0,0,0.14516,-0.00052653,0,0.14517,-0.20473,-0.27037,-0.14843,1.1143,-0.20784,0.10571,-8.0193e-06,0.96,0.72,0
0.0016193,0.0092902,0.0029647,-0.20442,-0.26611,-0.14412,0.00069636,0,0,-0.078386,-0.15858,0,0.0018105,0,0,0.14742,-0.0002092,0,0.14743,-0.20441,-0.26612,-0.14412,0.64666,-0.20488,0.10565,-1.2171e-06,0.98,0.72,0
0,0.0092976,0,-0.20054,-0.26033,-0.13826,0.00014281,0,0,-0.080963,-0.15869,0,0.00037132,0,0,0.14823,-4.2284e-18,0,0.14823,-0.20054,-0.26033,-0.13826,0.13686,-0.19971,0.10572,2.1428e-06,1,0.72,0
0,0.0040256,1,-0.329,-2.196,-1.7575,-0.0016163,0,0,1.857,-0.57001,0,-0.0042024,0,0,0.16445,-2.4945e-15,0,0.16423,-0.329,-2.196,-1.7575,-0.049604,-1.4275,1.6909,0.19315,0,0.74,0
0.037141,0.0039416,0.99671,-0.31857,-2.1968,-1.7513,-0.020421,0,0,1.8626,-0.5791,0,-0.053094,0,0,0.15656,0.018955,0,0.15776,-0.31834,-2.197,-1.7513,-0.62285,-1.4222,1.7002,0.19515,0.02,0.74,0
0.074503,0.0038752,0.99374,-0.30413,-2.202,-1.7456,-0.029684,0,0,1.8739,-0.59336,0,-0.077179,0,0,0.13476,0.033155,0,0.13952,-0.30366,-2.2025,-1.7456,-0.89585,-1.4172,1.7166,0.19907,0.04,0.74,0
0.1121,0.0040539,0.99132,-0.25127,-1.2399,-0.99258,-0.029428,0,0,1.1785,-0.58459,0,-0.40019,0,0,0.11173,0.021157,0,0.11533,-0.24677,-1.2444,-0.99258,-8.9991,-0.82792,0.90096,0.10035,0.06,0.74,0
0.12164,-0.008531,0.9708,-0.2199,-0.33986,-0.26501,-0.025573,0,0,0.58638,-0.97308,0,-0.6649,0,0,0.10051,0.0033454,0,0.10059,-0.21468,-0.34509,-0.26501,-11.546,-0.27492,0.11391,-2.906e-05,0.08,0.74,0
0.13555,-0.018496,0.95112,-0.20624,-0.36102,-0.26529,-0.019811,0,0,0.76763,-1.2445,0,-0.5151,0,0,0.096247,0.0017698,0,0.096286,-0.20375,-0.36352,-0.26529,-7.1795,-0.27752,0.13958,-5.3791e-05,0.1,0.74,0
0.15235,-0.025714,0.9323,-0.19593,-0.37264,-0.2638,-0.014465,0,0,0.88229,-1.4149,0,-0.37609,0,0,0.092176,-0.00055453,0,0.092193,-0.19476,-0.37382,-0.2638,-4.6488,-0.27746,0.15642,-7.5464e-05,0.12,0.74,0
0.17084,-0.030697,0.91425,-0.18851,-0.37823,-0.26145,-0.010335,0,0,0.94818,-1.5182,0,-0.2687,0,0,0.088712,-0.0032255,0,0.088777,-0.18795,-0.3788,-0.26145,-3.1088,-0.27607,0.16673,-9.1738e-05,0.14,0.74,0
0.19027,-0.033999,0.89681,-0.18294,-0.37985,-0.25852,-0.0070994,0,0,0.98257,-1.5774,0,-0.18458,0,0,0.086007,-0.005946,0,0.086213,-0.18268,-0.38011,-0.25852,-2.0621,-0.27377,0.1725,-0.00010243,0.16,0.74,0
0.21015,-0.035958,0.87984,-0.17855,-0.37854,-0.25511,-0.004255,0,0,0.99532,-1.6046,0,-0.11063,0,0,0.084059,-0.0085901,0,0.084493,-0.17846,-0.37863,-0.25511,-1.2183,-0.27074,0.17493,-0.00010785,0.18,0.74,0
0.23009,-0.036719,0.86319,-0.17505,-0.37483,-0.25128,-0.0014445,0,0,0.99106,-1.6061,0,-0.037558,0,0,0.082819,-0.011129,0,0.083558,-0.17504,-0.37484,-0.25128,-0.41425,-0.26705,0.17464,-0.00010845,0.2,0.74,0
0.24979,-0.03629,0.84672,-0.17234,-0.36892,-0.24705,0.0015904,0,0,0.97126,-1.5843,0,0.04135,0,0,0.08226,-0.013571,0,0.083366,-0.17232,-0.36893,-0.24705,0.46349,-0.26277,0.17189,-0.00010466,0.22,0.74,0
0.26894,-0.034564,0.83029,-0.17048,-0.36074,-0.2424,0.0050989,0,0,0.93492,-1.5385,0,0.13257,0,0,0.082388,-0.015922,0,0.083908,-0.17034,-0.36088,-0.2424,1.534,-0.25787,0.16664,-9.6758e-05,0.24,0.74,0
0.28719,-0.031326,0.81376,-0.16974,-0.34996,-0.23729,0.0093838,0,0,0.87808,-1.4647,0,0.24398,0,0,0.083242,-0.018151,0,0.085195,-0.16925,-0.35045,-0.23729,2.9726,-0.25233,0.15853,-8.5016e-05,0.26,0.74,0
0.30406,-0.026228,0.79699,-0.17067,-0.33579,-0.23164,0.014786,0,0,0.7926,-1.354,0,0.38444,0,0,0.084833,-0.020148,0,0.087196,-0.16935,-0.3371,-0.23164,5.0768,-0.24603,0.14687,-6.9698e-05,0.28,0.74,0
0.31889,-0.018834,0.77983,-0.17405,-0.31676,-0.22523,0.021358,0,0,0.66529,-1.19,0,0.5553,0,0,0.087062,-0.021671,0,0.089727,-0.17092,-0.31989,-0.22523,8.3316,-0.23868,0.13058,-5.1326e-05,0.3,0.74,0
0.33067,-0.0088562,0.76216,-0.18022,-0.29058,-0.21746,0.028196,0,0,0.48404,-0.95061,0,0.73309,0,0,0.089627,-0.022445,0,0.092405,-0.17344,-0.29737,-0.21746,13.533,-0.22942,0.10882,-3.1553e-05,0.32,0.74,0
0.33825,0.0033761,0.74398,-0.21744,-1.0584,-0.79195,0.038796,0,0,0.91735,-0.62989,0,0.47574,0,0,0.097061,-0.12297,0,0.16997,-0.21104,-1.0649,-0.79195,10.7,-0.68928,0.75759,0.046572,0.34,0.74,0
0.36737,0.0013161,0.74191,-0.24254,-1.7389,-1.3363,0.059352,0,0,1.422,-0.52332,0,0.15432,0,0,0.11299,-0.22027,0,0.24775,-0.24019,-1.7412,-1.3363,2.2678,-1.1059,1.3451,0.087873,0.36,0.74,0
0.39513,3.4309e-05,0.73946,-0.2589,-1.6046,-1.2985,0.066322,0,0,1.3515,-0.39795,0,0.17244,0,0,0.12998,-0.21297,0,0.24959,-0.25564,-1.6079,-1.2985,2.8146,-1.054,1.2272,0.074965,0.38,0.74,0
0.42143,-0.0014031,0.73671,-0.27287,-1.4742,-1.2608,0.050257,0,0,1.2843,-0.27734,0,0.13067,0,0,0.14171,-0.20552,0,0.24966,-0.27077,-1.4763,-1.2608,2.3914,-1.0026,1.1135,0.062058,0.4,0.74,0
0.4465,-0.0040278,0.73379,-0.25289,-0.79355,-0.71752,0.023554,0,0,0.39839,-0.17972,0,0.2303,0,0,0.14795,-0.11054,0,0.19978,-0.23809,-0.80835,-0.71752,32.454,-0.58798,0.54078,0.02731,0.42,0.74,0
0.43736,-0.00083681,0.70386,-0.24966,-0.22881,-0.21393,0.012136,0,0,-0.46448,-0.19354,0,0.31552,0,0,0.14944,-0.017888,0,0.1505,-0.22324,-0.25523,-0.21393,65.327,-0.2308,0.037525,-2.1607e-06,0.44,0.74,0
0.42792,0.0017457,0.67401,-0.24524,-0.22533,-0.20857,0.0097785,0,0,-0.47665,-0.21784,0,0.25424,0,0,0.14864,-0.016107,0,0.14951,-0.22133,-0.24924,-0.20857,67.755,-0.22638,0.036022,-1.4253e-06,0.46,0.74,0
0.4183,0.0037884,0.6444,-0.24062,-0.2219,-0.2032,0.0079041,0,0,-0.48646,-0.24321,0,0.20551,0,0,0.14727,-0.014686,0,0.148,-0.21901,-0.24351,-0.2032,69.904,-0.2219,0.03518,-8.1074e-07,0.48,0.74,0
0.40846,0.0053642,0.6151,-0.2362,-0.21815,-0.19782,0.0063942,0,0,-0.499,-0.26437,0,0.16625,0,0,0.14558,-0.013546,0,0.14621,-0.21612,-0.23824,-0.19782,72.34,-0.21739,0.035057,-3.6021e-07,0.5,0.74,0
0.39834,0.0065358,0.58617,-0.23219,-0.21392,-0.19245,0.0051525,0,0,-0.51657,-0.27915,0,0.13397,0,0,0.14375,-0.012616,0,0.1443,-0.21257,-0.23354,-0.19245,75.283,-0.21285,0.035587,-8.2953e-08,0.52,0.74,0
0.3878,0.0073556,0.5576,-0.22862,-0.20921,-0.18711,0.0041168,0,0,-0.53968,-0.28728,0,0.10704,0,0,0.14193,-0.011839,0,0.14243,-0.20837,-0.22946,-0.18711,78.51,-0.20832,0.036677,1.7894e-08,0.54,0.74,0
0.37675,0.0078704,0.5294,-0.2255,-0.20409,-0.18182,0.0032518,0,0,-0.56792,-0.28952,0,0.084546,0,0,0.14022,-0.01117,0,0.14067,-0.2036,-0.22599,-0.18182,81.554,-0.2038,0.038253,-6.6914e-08,0.56,0.74,0
0.36508,0.008125,0.50152,-0.22277,-0.19866,-0.17658,0.0025374,0,0,-0.6005,-0.28699,0,0.065972,0,0,0.13868,-0.010579,0,0.13908,-0.19839,-0.22304,-0.17658,84.058,-0.19934,0.040258,-3.5312e-07,0.58,0.74,0
0.35273,0.0081633,0.47392,-0.22038,-0.19301,-0.17141,0.0019603,0,0,-0.6366,-0.28085,0,0.050966,0,0,0.13734,-0.010042,0,0.13771,-0.19287,-0.22052,-0.17141,85.923,-0.19493,0.042641,-8.5961e-07,0.6,0.74,0
0.33962,0.0080282,0.44658,-0.21827,-0.18725,-0.16631,0.0015084,0,0,-0.67547,-0.27215,0,0.039219,0,0,0.13622,-0.0095458,0,0.13655,-0.18718,-0.21835,-0.16631,87.223,-0.19061,0.045355,-1.6058e-06,0.62,0.74,0
0.32571,0.007761,0.41944,-0.21642,-0.18143,-0.1613,0.0011691,0,0,-0.71655,-0.26172,0,0.030397,0,0,0.13533,-0.0090779,0,0.13563,-0.18139,-0.21646,-0.1613,88.088,-0.18638,0.048352,-2.6105e-06,0.64,0.74,0
0.31096,0.0074,0.39245,-0.21478,-0.17561,-0.15636,0.00092789,0,0,-0.75941,-0.25023,0,0.024125,0,0,0.13466,-0.0086306,0,0.13493,-0.17559,-0.2148,-0.15636,88.644,-0.18225,0.051586,-3.8922e-06,0.66,0.74,0
0.29533,0.00698,0.36557,-0.21333,-0.16983,-0.15151,0.00076927,0,0,-0.80374,-0.23821,0,0.020001,0,0,0.13421,-0.0081981,0,0.13446,-0.16982,-0.21335,-0.15151,88.987,-0.17822,0.055019,-5.4694e-06,0.68,0.74,0
0.27881,0.0065316,0.33877,-0.21207,-0.16412,-0.14673,0.00067733,0,0,-0.84932,-0.22608,0,0.017611,0,0,0.13398,-0.007775,0,0.13421,-0.16412,-0.21208,-0.14673,89.191,-0.17431,0.058617,-7.3604e-06,0.7,0.74,0
0.26136,0.006081,0.31198,-0.21097,-0.15852,-0.14204,0.00063659,0,0,-0.89599,-0.21416,0,0.016551,0,0,0.13397,-0.0073562,0,0.13417,-0.15851,-0.21097,-0.14204,89.305,-0.17051,0.06235,-9.5833e-06,0.72,0.74,0
0.24297,0.0056502,0.28518,-0.21002,-0.15303,-0.13743,0.00063289,0,0,-0.94362,-0.20274,0,0.016455,0,0,0.13416,-0.0069362,0,0.13434,-0.15302,-0.21002,-0.13743,89.364,-0.16683,0.06619,-1.2155e-05,0.74,0.74,0
0.22362,0.0052578,0.25832,-0.20921,-0.14767,-0.1329,0.00065425,0,0,-0.99207,-0.19209,0,0.01701,0,0,0.13456,-0.0065083,0,0.13472,-0.14767,-0.20922,-0.1329,89.391,-0.16326,0.070112,-1.5087e-05,0.76,0.74,0
0.20329,0.0049195,0.23135,-0.20853,-0.14247,-0.12843,0.00069168,0,0,-1.0412,-0.18246,0,0.017984,0,0,0.13516,-0.006064,0,0.1353,-0.14246,-0.20854,-0.12843,89.4,-0.15981,0.07409,-1.8389e-05,0.78,0.74,0
0.18197,0.0046499,0.20425,-0.20796,-0.13743,-0.12404,0.00073999,0,0,-1.0909,-0.17407,0,0.01924,0,0,0.13595,-0.0055933,0,0.13606,-0.13742,-0.20797,-0.12404,89.399,-0.15648,0.078097,-2.2062e-05,0.8,0.74,0
0.15965,0.0044631,0.17697,-0.20748,-0.13257,-0.11971,0.00079825,0,0,-1.141,-0.16713,0,0.020754,0,0,0.13689,-0.0050834,0,0.13699,-0.13256,-0.20749,-0.11971,89.39,-0.15325,0.08211,-2.6101e-05,0.82,0.74,0
0.13633,0.0043746,0.14949,-0.20708,-0.12788,-0.11544,0.00086971,0,0,-1.1913,-0.16177,0,0.022613,0,0,0.13797,-0.00452,0,0.13804,-0.12787,-0.20708,-0.11544,89.371,-0.15013,0.086108,-3.0498e-05,0.84,0.74,0
0.112,0.0044021,0.12179,-0.20672,-0.12336,-0.1112,0.0009605,0,0,-1.2418,-0.15803,0,0.024973,0,0,0.13911,-0.0038881,0,0.13917,-0.12335,-0.20674,-0.1112,89.34,-0.1471,0.090075,-3.5245e-05,0.86,0.74,0
0.086657,0.0045656,0.093851,-0.20641,-0.119,-0.10701,0.001077,0,0,-1.2922,-0.15585,0,0.028001,0,0,0.14025,-0.0031742,0,0.14029,-0.11898,-0.20642,-0.10701,89.294,-0.14414,0.094003,-4.0339e-05,0.88,0.74,0
0.060307,0.0048861,0.065689,-0.20612,-0.11477,-0.10283,0.0012217,0,0,-1.3427,-0.15513,0,0.031765,0,0,0.1413,-0.0023695,0,0.14132,-0.11475,-0.20613,-0.10283,89.234,-0.14124,0.097886,-4.5773e-05,0.9,0.74,0
0.03295,0.0053829,0.037332,-0.20582,-0.11066,-0.098679,0.0013897,0,0,-1.3928,-0.15582,0,0.036131,0,0,0.14215,-0.0014739,0,0.14215,-0.11064,-0.20584,-0.098679,89.163,-0.13839,0.10171,-5.1523e-05,0.92,0.74,0
0.0045941,0.006069,0.0088304,-0.20582,-0.19073,-0.12382,0.0013736,0,0,-0.74461,-0.15815,0,0.019728,0,0,0.14355,-0.0027433,0,0.1436,-0.15734,-0.2392,-0.12382,45.178,-0.17346,0.10455,-3.2268e-05,0.94,0.74,0
0.0031659,0.006108,0.0059386,-0.20541,-0.26979,-0.1485,0.00091973,0,0,-0.073988,-0.15767,0,0.0023913,0,0,0.1461,-0.0037127,0,0.14616,-0.2054,-0.2698,-0.1485,0.81838,-0.2079,0.10512,-6.3732e-06,0.96,0.74,0
0.0016346,0.0061282,0.0029862,-0.20506,-0.26558,-0.14418,0.00040173,0,0,-0.079148,-0.15782,0,0.0010445,0,0,0.14847,-0.0019846,0,0.14848,-0.20506,-0.26558,-0.14418,0.38033,-0.20494,0.10514,3.0612e-07,0.98,0.74,0
0,0.0061344,0,-0.20114,-0.25978,-0.13828,0.00011903,0,0,-0.081727,-0.15795,0,0.00030947,0,0,0.14931,2.8189e-18,0,0.14931,-0.20114,-0.25978,-0.13828,0.11631,-0.19973,0.10525,3.6084e-06,1,0.74,0
0,-0.0069486,1,-0.38258,-2.1415,-1.7572,-0.0074367,0,0,1.7871,-0.49958,0,-0.019335,0,0,0.1919,2.4251e-15,0,0.19119,-0.38255,-2.1416,-1.7572,-0.24224,-1.4271,1.6018,0.17082,0,0.76,0
0.035741,-0.0073353,0.99616,-0.36535,-2.1621,-1.7544,-0.049706,0,0,1.8057,-0.53,0,-0.12923,0,0,0.18071,0.03929,0,0.18472,-0.36398,-2.1635,-1.7544,-1.5834,-1.4273,1.6338,0.17754,0.02,0.76,0
0.07223,-0.0079407,0.99277,-0.33603,-2.2081,-1.756,-0.066598,0,0,1.846,-0.58772,0,-0.17316,0,0,0.1493,0.070059,0,0.16602,-0.33366,-2.2105,-1.756,-2.0348,-1.4334,1.6959,0.19117,0.04,0.76,0
0.10958,-0.0076183,0.99019,-0.26192,-1.2494,-0.99799,-0.056362,0,0,1.1651,-0.59417,0,-0.70011,0,0,0.11582,0.045996,0,0.12916,-0.24993,-1.2614,-0.99799,-13.321,-0.83643,0.91169,0.09893,0.06,0.76,0
0.11884,-0.028497,0.96968,-0.22398,-0.35046,-0.2693,-0.042195,0,0,0.58915,-1.0551,0,-1.0971,0,0,0.099692,0.0087174,0,0.10012,-0.21119,-0.36324,-0.2693,-16.856,-0.28124,0.13289,-4.7577e-05,0.08,0.76,0
0.13315,-0.043935,0.95031,-0.20783,-0.36946,-0.26822,-0.031261,0,0,0.78506,-1.3162,0,-0.81279,0,0,0.094144,0.0068233,0,0.094425,-0.202,-0.3753,-0.26822,-10.574,-0.28184,0.15147,-7.0462e-05,0.1,0.76,0
0.15024,-0.054406,0.93202,-0.19712,-0.37835,-0.26584,-0.022557,0,0,0.89339,-1.4626,0,-0.58648,0,0,0.089325,0.0035075,0,0.089407,-0.19435,-0.38111,-0.26584,-6.9893,-0.28044,0.16321,-8.77e-05,0.12,0.76,0
0.16888,-0.06134,0.91458,-0.18962,-0.38241,-0.26306,-0.016485,0,0,0.95482,-1.5514,0,-0.42862,0,0,0.085613,-0.00015918,0,0.085614,-0.18822,-0.38381,-0.26306,-4.8524,-0.27836,0.17093,-0.00010082,0.14,0.76,0
0.18843,-0.065775,0.89777,-0.1838,-0.38331,-0.25991,-0.011952,0,0,0.98944,-1.6042,0,-0.31074,0,0,0.082944,-0.0037286,0,0.083022,-0.18309,-0.38403,-0.25991,-3.416,-0.27567,0.17562,-0.00010965,0.16,0.76,0
0.20846,-0.06827,0.88141,-0.17911,-0.38171,-0.25639,-0.0081531,0,0,1.0046,-1.6292,0,-0.21198,0,0,0.081117,-0.0070976,0,0.081419,-0.17878,-0.38204,-0.25639,-2.3007,-0.2724,0.17766,-0.00011399,0.18,0.76,0
0.22862,-0.069075,0.86533,-0.17536,-0.37804,-0.25255,-0.0045702,0,0,1.0036,-1.6314,0,-0.11882,0,0,0.079996,-0.01029,0,0.080645,-0.17525,-0.37814,-0.25255,-1.291,-0.26865,0.17736,-0.00011414,0.2,0.76,0
0.2486,-0.068241,0.84941,-0.17241,-0.37246,-0.2484,-0.00080841,0,0,0.98793,-1.6128,0,-0.021019,0,0,0.079526,-0.013371,0,0.080632,-0.1724,-0.37246,-0.2484,-0.23152,-0.26442,0.17492,-0.00011045,0.22,0.76,0
0.26813,-0.065657,0.83352,-0.17027,-0.36495,-0.24392,0.0035243,0,0,0.95745,-1.5734,0,0.091632,0,0,0.079737,-0.016408,0,0.081398,-0.1702,-0.36501,-0.24392,1.0368,-0.25971,0.17037,-0.00010322,0.24,0.76,0
0.2869,-0.061038,0.81751,-0.16905,-0.35522,-0.23903,0.0089146,0,0,0.90977,-1.5104,0,0.23178,0,0,0.080741,-0.019436,0,0.083041,-0.16862,-0.35564,-0.23903,2.7353,-0.25443,0.1636,-9.2739e-05,0.26,0.76,0
0.30452,-0.053867,0.80122,-0.16927,-0.34274,-0.23373,0.015999,0,0,0.83788,-1.4172,0,0.41597,0,0,0.082715,-0.022378,0,0.08569,-0.16781,-0.3442,-0.23373,5.2257,-0.24858,0.15438,-7.9545e-05,0.28,0.76,0
0.32042,-0.043339,0.78443,-0.17213,-0.32598,-0.22788,0.025434,0,0,0.72474,-1.2754,0,0.66127,0,0,0.085704,-0.024852,0,0.089249,-0.16803,-0.33008,-0.22788,9.1473,-0.24199,0.14193,-6.3783e-05,0.3,0.76,0
0.33351,-0.028544,0.76694,-0.17907,-0.3009,-0.22069,0.0364,0,0,0.54099,-1.0428,0,0.94641,0,0,0.089348,-0.025988,0,0.093074,-0.16903,-0.31095,-0.22069,15.43,-0.23355,0.12442,-4.4558e-05,0.32,0.76,0
0.34205,-0.0095128,0.74869,-0.22057,-1.0865,-0.80389,0.054628,0,0,0.9505,-0.66794,0,0.64239,0,0,0.099659,-0.13918,0,0.18497,-0.21028,-1.0968,-0.80389,12.513,-0.70365,0.78453,0.048166,0.34,0.76,0
0.37153,-0.0092626,0.74653,-0.24903,-1.7604,-1.3494,0.083405,0,0,1.4304,-0.53434,0,0.21685,0,0,0.12071,-0.24408,0,0.27253,-0.24444,-1.765,-1.3494,3.1492,-1.1196,1.3612,0.089978,0.36,0.76,0
0.39927,-0.0077964,0.74386,-0.26716,-1.591,-1.3013,0.088472,0,0,1.3444,-0.37656,0,0.23003,0,0,0.14052,-0.22705,0,0.26702,-0.26128,-1.5968,-1.3013,3.8067,-1.0531,1.2151,0.07408,0.38,0.76,0
0.42531,-0.0066205,0.74091,-0.28249,-1.4386,-1.2572,0.05963,0,0,1.2672,-0.23582,0,0.15504,0,0,0.15005,-0.21068,0,0.2586,-0.27942,-1.4417,-1.2572,2.9447,-0.99279,1.0819,0.058721,0.4,0.76,0
0.44996,-0.0070832,0.73786,-0.25682,-0.76162,-0.71135,0.02199,0,0,0.36264,-0.11882,0,0.1707,0,0,0.1524,-0.11134,0,0.20354,-0.23988,-0.77857,-0.71135,37.693,-0.5766,0.51892,0.02484,0.42,0.76,0
0.43981,-0.0042828,0.70738,-0.25366,-0.22626,-0.21471,0.0070235,0,0,-0.50624,-0.15015,0,0.18261,0,0,0.15187,-0.017026,0,0.15282,-0.22457,-0.25535,-0.21471,76.425,-0.23155,0.036716,-1.9382e-06,0.44,0.76,0
0.42971,-0.0022799,0.67711,-0.24794,-0.22355,-0.20916,0.0046069,0,0,-0.50415,-0.18713,0,0.11978,0,0,0.15052,-0.014608,0,0.15123,-0.22271,-0.24878,-0.20916,79.651,-0.22688,0.03488,-1.1227e-06,0.46,0.76,0
0.41965,-0.00081323,0.64717,-0.24246,-0.22062,-0.20364,0.0030825,0,0,-0.50465,-0.22071,0,0.080144,0,0,0.14871,-0.012832,0,0.14926,-0.22019,-0.24289,-0.20364,82.119,-0.22224,0.034127,-5.4532e-07,0.48,0.76,0
0.40952,0.00029138,0.61763,-0.2375,-0.21716,-0.19816,0.0020915,0,0,-0.51145,-0.24699,0,0.054379,0,0,0.14667,-0.011547,0,0.14713,-0.21695,-0.23772,-0.19816,84.19,-0.21761,0.03427,-1.7916e-07,0.5,0.76,0
0.39919,0.0011328,0.5885,-0.23315,-0.21312,-0.19273,0.0013966,0,0,-0.52545,-0.26502,0,0.036311,0,0,0.14459,-0.010626,0,0.14499,-0.21302,-0.23325,-0.19273,86.031,-0.213,0.035088,5.8694e-09,0.52,0.76,0
0.3885,0.0017631,0.55979,-0.22937,-0.20853,-0.18735,0.00086634,0,0,-0.54622,-0.27541,0,0.022525,0,0,0.1426,-0.0099606,0,0.14295,-0.2085,-0.2294,-0.18735,87.623,-0.20842,0.036419,2.5156e-08,0.54,0.76,0
0.37734,0.002211,0.53146,-0.22609,-0.20353,-0.18203,0.00044017,0,0,-0.57276,-0.27943,0,0.011444,0,0,0.14076,-0.0094697,0,0.14108,-0.20352,-0.2261,-0.18203,88.883,-0.20388,0.038167,-1.2286e-07,0.56,0.76,0
0.36559,0.0024968,0.50349,-0.22324,-0.1982,-0.17678,9.7018e-05,0,0,-0.60399,-0.27845,0,0.0025225,0,0,0.13914,-0.0090926,0,0.13944,-0.1982,-0.22324,-0.17678,89.778,-0.19941,0.040277,-4.5159e-07,0.58,0.76,0
0.35318,0.0026406,0.47581,-0.22076,-0.19266,-0.17161,-0.00016693,0,0,-0.63894,-0.27373,0,-0.0043402,0,0,0.13774,-0.0087871,0,0.13802,-0.19266,-0.22076,-0.17161,-89.66,-0.19501,0.042711,-9.8041e-07,0.6,0.76,0
0.34004,0.0026645,0.44839,-0.21858,-0.187,-0.16651,-0.00035118,0,0,-0.67686,-0.26632,0,-0.0091306,0,0,0.13659,-0.0085254,0,0.13685,-0.18699,-0.21858,-0.16651,-89.363,-0.1907,0.045434,-1.731e-06,0.62,0.76,0
0.32611,0.0025928,0.42118,-0.21666,-0.18127,-0.1615,-0.00045695,0,0,-0.71715,-0.25703,0,-0.011881,0,0,0.13567,-0.0082899,0,0.13592,-0.18126,-0.21667,-0.1615,-89.26,-0.18648,0.048415,-2.726e-06,0.64,0.76,0
0.31135,0.0024505,0.39412,-0.21498,-0.17553,-0.15656,-0.00048919,0,0,-0.75939,-0.24653,0,-0.012719,0,0,0.13499,-0.00807,0,0.13523,-0.17552,-0.21499,-0.15656,-89.29,-0.18236,0.051622,-3.9883e-06,0.66,0.76,0
0.29573,0.002262,0.36718,-0.21351,-0.16982,-0.15171,-0.00045654,0,0,-0.80329,-0.23531,0,-0.01187,0,0,0.13453,-0.0078593,0,0.13476,-0.16981,-0.21351,-0.15171,-89.401,-0.17835,0.055027,-5.5417e-06,0.68,0.76,0
0.27922,0.0020494,0.34031,-0.21223,-0.16416,-0.14695,-0.0003705,0,0,-0.84864,-0.22379,0,-0.009633,0,0,0.1343,-0.0076537,0,0.13451,-0.16416,-0.21223,-0.14695,-89.558,-0.17445,0.058604,-7.4105e-06,0.7,0.76,0
0.26179,0.0018323,0.31346,-0.21113,-0.15859,-0.14226,-0.00024439,0,0,-0.89526,-0.21228,0,-0.0063541,0,0,0.13428,-0.0074494,0,0.13449,-0.15859,-0.21113,-0.14226,-89.734,-0.17066,0.062329,-9.6183e-06,0.72,0.76,0
0.24341,0.0016266,0.2866,-0.2102,-0.15313,-0.13766,-9.2237e-05,0,0,-0.94303,-0.2011,0,-0.0023981,0,0,0.13448,-0.0072416,0,0.13468,-0.15313,-0.2102,-0.13766,-89.907,-0.16699,0.066177,-1.2187e-05,0.74,0.76,0
0.22406,0.0014453,0.25967,-0.20942,-0.14778,-0.13313,7.2349e-05,0,0,-0.99181,-0.19052,0,0.0018811,0,0,0.1349,-0.0070228,0,0.13508,-0.14778,-0.20942,-0.13313,89.933,-0.16345,0.070124,-1.5135e-05,0.76,0.76,0
0.20374,0.001299,0.23264,-0.20878,-0.14258,-0.12868,0.00023752,0,0,-1.0414,-0.18083,0,0.0061756,0,0,0.13553,-0.0067817,0,0.1357,-0.14258,-0.20879,-0.12868,89.794,-0.16001,0.074142,-1.8474e-05,0.78,0.76,0
0.18241,0.0011967,0.20546,-0.20827,-0.13754,-0.12429,0.00039476,0,0,-1.0917,-0.1723,0,0.010264,0,0,0.13635,-0.0065008,0,0.13651,-0.13754,-0.20827,-0.12429,89.68,-0.1567,0.078202,-2.2204e-05,0.8,0.76,0
0.16007,0.0011483,0.1781,-0.20785,-0.13267,-0.11997,0.00054049,0,0,-1.1425,-0.1652,0,0.014053,0,0,0.13736,-0.0061559,0,0.1375,-0.13267,-0.20786,-0.11997,89.588,-0.1535,0.082275,-2.6319e-05,0.82,0.76,0
0.13671,0.0011658,0.15051,-0.20751,-0.12799,-0.1157,0.00067702,0,0,-1.1935,-0.15974,0,0.017603,0,0,0.13853,-0.0057155,0,0.13864,-0.12798,-0.20751,-0.1157,89.512,-0.1504,0.08633,-3.0803e-05,0.84,0.76,0
0.11233,0.0012658,0.12269,-0.20722,-0.12348,-0.11148,0.00081162,0,0,-1.2446,-0.15603,0,0.021102,0,0,0.13978,-0.0051427,0,0.13988,-0.12347,-0.20722,-0.11148,89.445,-0.14739,0.090349,-3.5638e-05,0.86,0.76,0
0.086923,0.0014694,0.094601,-0.20695,-0.11913,-0.10729,0.00095257,0,0,-1.2957,-0.15401,0,0.024767,0,0,0.14105,-0.0043998,0,0.14112,-0.11912,-0.20696,-0.10729,89.379,-0.14446,0.094318,-4.0814e-05,0.88,0.76,0
0.060499,0.0018003,0.066264,-0.20669,-0.11492,-0.10311,0.0011025,0,0,-1.3466,-0.15352,0,0.028666,0,0,0.14225,-0.0034571,0,0.14229,-0.11491,-0.20671,-0.10311,89.312,-0.14158,0.098232,-4.6325e-05,0.9,0.76,0
0.033059,0.0022792,0.037703,-0.20642,-0.11082,-0.098942,0.0012514,0,0,-1.3972,-0.15444,0,0.032537,0,0,0.14323,-0.0023028,0,0.14325,-0.11081,-0.20643,-0.098942,89.25,-0.13873,0.10208,-5.215e-05,0.92,0.76,0
0.0046122,0.002916,0.0089705,-0.20631,-0.19026,-0.12391,0.0010961,0,0,-0.74719,-0.15684,0,0.017243,0,0,0.14496,-0.0052434,0,0.14512,-0.15762,-0.23895,-0.12391,45.06,-0.1735,0.10427,-3.1683e-05,0.94,0.76,0
0.0031718,0.0029633,0.0060454,-0.20573,-0.26901,-0.14847,0.00041015,0,0,-0.074439,-0.15671,0,0.0010664,0,0,0.14816,-0.0073901,0,0.14836,-0.20572,-0.26901,-0.14847,0.37133,-0.20774,0.10444,-5.0615e-06,0.96,0.76,0
0.0016347,0.0029775,0.003044,-0.20523,-0.26541,-0.14424,-3.1191e-05,0,0,-0.079296,-0.15752,0,-8.1097e-05,0,0,0.15114,-0.0040384,0,0.15119,-0.20523,-0.26541,-0.14424,-0.029698,-0.20496,0.10494,6.9692e-07,0.98,0.76,0
0,0.0029795,0,-0.20116,-0.25981,-0.13829,3.8391e-05,0,0,-0.081733,-0.15797,0,9.9816e-05,0,0,0.1522,3.4694e-18,0,0.15219,-0.20116,-0.25981,-0.13829,0.037509,-0.19975,0.10526,3.6073e-06,1,0.76,0
0,-0.015957,1,-0.50009,-2.0596,-1.7679,-0.025015,0,0,1.6482,-0.37922,0,-0.06504,0,0,0.24302,7.9797e-17,0,0.24166,-0.49969,-2.06,-1.7679,-0.91872,-1.4425,1.4367,0.13134,0,0.78,0
0.032963,-0.017258,0.99514,-0.44515,-2.0715,-1.7501,-0.09574,0,0,1.6965,-0.41779,0,-0.24892,0,0,0.22662,0.062887,0,0.23398,-0.43953,-2.0771,-1.7501,-3.3574,-1.4223,1.5011,0.1463,0.02,0.78,0
0.06786,-0.019634,0.99094,-0.39431,-2.2121,-1.7729,-0.14515,0,0,1.7921,-0.57105,0,-0.37739,0,0,0.1791,0.12926,0,0.2227,-0.38279,-2.2237,-1.7729,-4.5367,-1.4598,1.662,0.1786,0.04,0.78,0
0.10465,-0.019713,0.98798,-0.30192,-1.3119,-1.0275,-0.097854,0,0,1.1554,-0.67216,0,-1.0955,0,0,0.12566,0.085152,0,0.16034,-0.27783,-1.336,-1.0275,-16.461,-0.88046,0.94587,0.096083,0.06,0.78,0
0.11408,-0.050733,0.96731,-0.22993,-0.36984,-0.27666,-0.061712,0,0,0.6075,-1.2113,0,-1.6045,0,0,0.098969,0.01712,0,0.10057,-0.2066,-0.39317,-0.27666,-20.709,-0.29214,0.16323,-9.2762e-05,0.08,0.78,0
0.12895,-0.071144,0.94839,-0.2106,-0.38178,-0.27255,-0.043275,0,0,0.80541,-1.42,0,-1.1252,0,0,0.091037,0.012989,0,0.091998,-0.20028,-0.3921,-0.27255,-13.41,-0.28831,0.16779,-9.9831e-05,0.1,0.78,0
0.14629,-0.084217,0.9309,-0.19935,-0.38639,-0.26881,-0.031153,0,0,0.90296,-1.5285,0,-0.80997,0,0,0.085194,0.007692,0,0.085539,-0.1943,-0.39144,-0.26881,-9.2121,-0.28485,0.17241,-0.00010733,0.12,0.78,0
0.16507,-0.092754,0.91431,-0.19135,-0.38839,-0.26535,-0.023028,0,0,0.96204,-1.5995,0,-0.59872,0,0,0.081476,0.0027252,0,0.08151,-0.1887,-0.39105,-0.26535,-6.578,-0.2817,0.17695,-0.00011525,0.14,0.78,0
0.18477,-0.098167,0.89831,-0.18497,-0.38794,-0.2617,-0.017057,0,0,0.99749,-1.641,0,-0.44349,0,0,0.079069,-0.0017434,0,0.079074,-0.18355,-0.38936,-0.2617,-4.7707,-0.2782,0.17995,-0.00012038,0.16,0.78,0
0.20497,-0.10113,0.88268,-0.18005,-0.3857,-0.25799,-0.012216,0,0,1.0133,-1.6602,0,-0.31761,0,0,0.077498,-0.0057922,0,0.0777,-0.17933,-0.38643,-0.25799,-3.3875,-0.27458,0.18107,-0.00012253,0.18,0.78,0
0.22531,-0.10197,0.86731,-0.17614,-0.3819,-0.25414,-0.0078602,0,0,1.0141,-1.6609,0,-0.20436,0,0,0.076546,-0.0095611,0,0.077127,-0.17584,-0.3822,-0.25414,-2.1844,-0.27073,0.18044,-0.00012164,0.2,0.78,0
0.24553,-0.1008,0.85206,-0.173,-0.37667,-0.25011,-0.0034301,0,0,1.0024,-1.6453,0,-0.089182,0,0,0.076141,-0.013204,0,0.077263,-0.17295,-0.37672,-0.25011,-0.96461,-0.26659,0.1782,-0.00011788,0.22,0.78,0
0.2654,-0.097501,0.83685,-0.1706,-0.37,-0.24587,0.0016371,0,0,0.97842,-1.6138,0,0.042565,0,0,0.076322,-0.016878,0,0.078151,-0.17059,-0.37001,-0.24587,0.47038,-0.26216,0.17443,-0.00011155,0.24,0.78,0
0.28467,-0.091742,0.82154,-0.16911,-0.36179,-0.24142,0.0079816,0,0,0.94003,-1.5647,0,0.20752,0,0,0.077273,-0.020734,0,0.079992,-0.16878,-0.36212,-0.24142,2.3681,-0.25744,0.16915,-0.00010306,0.26,0.78,0
0.303,-0.082916,0.80594,-0.16863,-0.35143,-0.23661,0.016552,0,0,0.88375,-1.4926,0,0.43035,0,0,0.079418,-0.024872,0,0.083212,-0.16715,-0.35292,-0.23661,5.1324,-0.25223,0.16258,-9.2739e-05,0.28,0.78,0
0.32002,-0.06985,0.78977,-0.17086,-0.33863,-0.23182,0.02873,0,0,0.79254,-1.3885,0,0.74698,0,0,0.083452,-0.029156,0,0.088418,-0.16608,-0.34342,-0.23182,9.4529,-0.2471,0.15528,-8.2684e-05,0.3,0.78,0
0.3347,-0.050569,0.77256,-0.17904,-0.31824,-0.22644,0.045651,0,0,0.61622,-1.1934,0,1.1869,0,0,0.089173,-0.032161,0,0.09487,-0.1654,-0.33188,-0.22644,16.63,-0.24124,0.14587,-7.0534e-05,0.32,0.78,0
0.34466,-0.023341,0.7541,-0.24252,-1.1485,-0.83206,0.076905,0,0,0.99055,-0.74794,0,0.85331,0,0,0.10672,-0.16476,0,0.21015,-0.2269,-1.1641,-0.83206,13.969,-0.74102,0.82507,0.048143,0.34,0.78,0
0.37433,-0.020057,0.75168,-0.2673,-1.7734,-1.3639,0.12395,0,0,1.4256,-0.53236,0,0.32228,0,0,0.13899,-0.28077,0,0.31351,-0.25717,-1.7835,-1.3639,4.6736,-1.1349,1.3658,0.090408,0.36,0.78,0
0.40169,-0.015028,0.74854,-0.28623,-1.5439,-1.2976,0.10539,0,0,1.3148,-0.32025,0,0.27402,0,0,0.16338,-0.23535,0,0.2861,-0.27746,-1.5527,-1.2976,4.7569,-1.0426,1.1688,0.06901,0.38,0.78,0
0.42691,-0.010836,0.74514,-0.30871,-1.3971,-1.2569,0.058879,0,0,1.2326,-0.18227,0,0.15308,0,0,0.16633,-0.2068,0,0.26527,-0.30554,-1.4003,-1.2569,3.0876,-0.98756,1.0305,0.052561,0.4,0.78,0
0.45099,-0.0087806,0.74189,-0.26366,-0.72711,-0.70527,0.015197,0,0,0.32371,-0.05163,0,0.069438,0,0,0.15942,-0.10688,0,0.20538,-0.24376,-0.74701,-0.70527,43.949,-0.56535,0.49446,0.021723,0.42,0.78,0
0.43986,-0.0068428,0.71067,-0.25725,-0.22396,-0.21543,0.0002725,0,0,-0.5437,-0.11089,0,0.007085,0,0,0.15507,-0.015362,0,0.15583,-0.22396,-0.25726,-0.21543,89.531,-0.23222,0.03828,-2.4061e-06,0.44,0.78,0
0.42924,-0.0057395,0.67986,-0.24992,-0.22234,-0.20966,-0.0015588,0,0,-0.52332,-0.16481,0,-0.040528,0,0,0.15284,-0.012472,0,0.15335,-0.22225,-0.25001,-0.20966,-86.775,-0.22731,0.035751,-1.4036e-06,0.46,0.78,0
0.41893,-0.00504,0.64953,-0.24354,-0.22,-0.20402,-0.0023142,0,0,-0.51377,-0.20785,0,-0.060168,0,0,0.15033,-0.010492,0,0.1507,-0.21978,-0.24376,-0.20402,-84.437,-0.22252,0.034666,-7.4681e-07,0.48,0.78,0
0.40869,-0.0045153,0.61972,-0.23809,-0.21682,-0.19845,-0.0025424,0,0,-0.51534,-0.23891,0,-0.066101,0,0,0.14778,-0.0091939,0,0.14807,-0.21652,-0.23839,-0.19845,-83.276,-0.21779,0.034642,-3.486e-07,0.5,0.78,0
0.39832,-0.0040649,0.59042,-0.23347,-0.21289,-0.19295,-0.0025594,0,0,-0.52673,-0.2592,0,-0.066544,0,0,0.14534,-0.0083868,0,0.14558,-0.21257,-0.23378,-0.19295,-83.016,-0.2131,0.03537,-1.5224e-07,0.52,0.78,0
0.38762,-0.0036609,0.56159,-0.22953,-0.20835,-0.18752,-0.0025191,0,0,-0.5461,-0.27074,0,-0.065495,0,0,0.14309,-0.0079159,0,0.14331,-0.20805,-0.22983,-0.18752,-83.31,-0.20847,0.036641,-1.2846e-07,0.54,0.78,0
0.37647,-0.0033068,0.53318,-0.22615,-0.20337,-0.18218,-0.0024747,0,0,-0.57171,-0.27552,0,-0.064341,0,0,0.14109,-0.007662,0,0.1413,-0.2031,-0.22642,-0.18218,-83.872,-0.2039,0.038334,-2.6984e-07,0.56,0.78,0
0.36476,-0.0030131,0.50515,-0.22323,-0.19808,-0.17691,-0.0024292,0,0,-0.60214,-0.27528,0,-0.06316,0,0,0.13936,-0.0075396,0,0.13957,-0.19785,-0.22346,-0.17691,-84.532,-0.19941,0.040382,-5.8343e-07,0.58,0.78,0
0.35239,-0.002786,0.47744,-0.22067,-0.1926,-0.17172,-0.0023674,0,0,-0.63631,-0.27135,0,-0.061552,0,0,0.13791,-0.0074913,0,0.13811,-0.1924,-0.22087,-0.17172,-85.213,-0.195,0.042739,-1.0848e-06,0.6,0.78,0
0.3393,-0.0026244,0.44999,-0.21843,-0.18699,-0.16663,-0.0022721,0,0,-0.67347,-0.26477,0,-0.059076,0,0,0.13672,-0.0074809,0,0.13692,-0.18683,-0.2186,-0.16663,-85.888,-0.19068,0.045376,-1.7943e-06,0.62,0.78,0
0.32545,-0.0025203,0.42275,-0.21646,-0.18133,-0.16161,-0.0021317,0,0,-0.71307,-0.2563,0,-0.055425,0,0,0.13578,-0.0074876,0,0.13599,-0.1812,-0.21659,-0.16161,-86.541,-0.18647,0.048266,-2.7354e-06,0.64,0.78,0
0.31078,-0.0024612,0.39568,-0.21474,-0.17565,-0.15668,-0.0019415,0,0,-0.75472,-0.24654,0,-0.050479,0,0,0.13509,-0.0075007,0,0.1353,-0.17555,-0.21484,-0.15668,-87.164,-0.18236,0.051385,-3.9342e-06,0.66,0.78,0
0.29526,-0.0024325,0.36872,-0.21324,-0.16999,-0.15184,-0.0017033,0,0,-0.79818,-0.23595,0,-0.044285,0,0,0.13463,-0.0075156,0,0.13484,-0.16992,-0.21331,-0.15184,-87.748,-0.17836,0.054713,-5.4188e-06,0.68,0.78,0
0.27885,-0.0024198,0.34183,-0.21195,-0.16438,-0.14708,-0.0014241,0,0,-0.84326,-0.22489,0,-0.037026,0,0,0.13439,-0.0075308,0,0.1346,-0.16434,-0.21199,-0.14708,-88.287,-0.17447,0.058231,-7.2191e-06,0.7,0.78,0
0.26153,-0.0024104,0.31496,-0.21085,-0.15884,-0.1424,-0.001115,0,0,-0.88983,-0.21366,0,-0.02899,0,0,0.13438,-0.0075452,0,0.13459,-0.15882,-0.21088,-0.1424,-88.772,-0.1707,0.06192,-9.3662e-06,0.72,0.78,0
0.24326,-0.0023939,0.28808,-0.20994,-0.15339,-0.13781,-0.00078989,0,0,-0.93776,-0.20256,0,-0.020537,0,0,0.13459,-0.0075565,0,0.1348,-0.15338,-0.20995,-0.13781,-89.2,-0.16705,0.065759,-1.189e-05,0.74,0.78,0
0.22402,-0.0023632,0.26113,-0.20921,-0.14805,-0.13329,-0.00046428,0,0,-0.98696,-0.19184,0,-0.012071,0,0,0.13502,-0.0075579,0,0.13523,-0.14804,-0.20921,-0.13329,-89.565,-0.16351,0.069727,-1.4818e-05,0.76,0.78,0
0.20378,-0.0023136,0.23407,-0.20864,-0.14283,-0.12885,-0.0001537,0,0,-1.0373,-0.1818,0,-0.0039962,0,0,0.13568,-0.0075366,0,0.13589,-0.14283,-0.20864,-0.12885,-89.866,-0.1601,0.073798,-1.8169e-05,0.78,0.78,0
0.18253,-0.0022421,0.20685,-0.20821,-0.13776,-0.12448,0.00012831,0,0,-1.0885,-0.17276,0,0.0033362,0,0,0.13657,-0.0074697,0,0.13678,-0.13776,-0.20821,-0.12448,89.896,-0.15682,0.077939,-2.1952e-05,0.8,0.78,0
0.16024,-0.002145,0.17944,-0.20789,-0.13287,-0.12017,0.00037314,0,0,-1.1403,-0.16506,0,0.0097015,0,0,0.13768,-0.0073218,0,0.13787,-0.13287,-0.20789,-0.12017,89.715,-0.15364,0.082113,-2.6159e-05,0.82,0.78,0
0.13691,-0.0020152,0.15178,-0.20766,-0.12815,-0.11592,0.00057972,0,0,-1.1926,-0.159,0,0.015073,0,0,0.13898,-0.0070429,0,0.13916,-0.12815,-0.20767,-0.11592,89.582,-0.15058,0.086283,-3.077e-05,0.84,0.78,0
0.11254,-0.001839,0.12385,-0.20749,-0.12363,-0.11172,0.00075507,0,0,-1.245,-0.15481,0,0.019632,0,0,0.14042,-0.0065694,0,0.14058,-0.12362,-0.2075,-0.11172,89.484,-0.14761,0.090416,-3.5756e-05,0.86,0.78,0
0.087113,-0.0015946,0.095611,-0.20734,-0.11928,-0.10755,0.00090971,0,0,-1.2973,-0.15248,0,0.023652,0,0,0.14194,-0.0058313,0,0.14206,-0.11927,-0.20735,-0.10755,89.408,-0.14472,0.094492,-4.1093e-05,0.88,0.78,0
0.060644,-0.0012548,0.067072,-0.20718,-0.11506,-0.10338,0.0010472,0,0,-1.3494,-0.1518,0,0.027226,0,0,0.14339,-0.0047662,0,0.14347,-0.11504,-0.20719,-0.10338,89.349,-0.14187,0.098502,-4.6772e-05,0.9,0.78,0
0.033136,-0.00079466,0.038253,-0.20697,-0.11093,-0.099195,0.0011523,0,0,-1.4011,-0.1525,0,0.02996,0,0,0.14465,-0.0033393,0,0.14469,-0.11091,-0.20699,-0.099195,89.313,-0.13903,0.10244,-5.278e-05,0.92,0.78,0
0.0045997,-0.00020479,0.0092117,-0.20661,-0.18918,-0.1238,0.00069948,0,0,-0.74972,-0.15452,0,0.014461,0,0,0.14704,-0.0086045,0,0.14747,-0.15767,-0.23812,-0.1238,44.829,-0.1732,0.10367,-3.0809e-05,0.94,0.78,0
0.0031472,-0.00016023,0.0062343,-0.2057,-0.26786,-0.1483,-0.00052925,0,0,-0.074614,-0.15543,0,-0.0013761,0,0,0.1516,-0.012381,0,0.15212,-0.20569,-0.26787,-0.1483,-0.48775,-0.20729,0.10357,-3.9496e-06,0.96,0.78,0
0.0016151,-0.0001727,0.0031477,-0.20489,-0.26585,-0.14437,-0.0008553,0,0,-0.078679,-0.15792,0,-0.0022238,0,0,0.15586,-0.0068389,0,0.15599,-0.20488,-0.26586,-0.14437,-0.80372,-0.20504,0.10522,-4.0113e-07,0.98,0.78,0
0,-0.00018437,0,-0.2005,-0.26078,-0.13839,-0.00022437,0,0,-0.080756,-0.15911,0,-0.00058336,0,0,0.15739,-3.9031e-18,0,0.15736,-0.2005,-0.26078,-0.13839,-0.21328,-0.19989,0.106,1.5958e-06,1,0.78,0
0,-0.022118,1,-0.65035,-1.9611,-1.7834,-0.037101,0,0,1.473,-0.23095,0,-0.096462,0,0,0.31768,6.8001e-16,0,0.31598,-0.6493,-1.9621,-1.7834,-1.62,-1.4649,1.2332,0.089547,0,0.8,0
0.02946,-0.024047,0.99365,-0.62894,-1.9752,-1.7749,-0.13807,0,0,1.4897,-0.26039,0,-0.35897,0,0,0.30998,0.0813,0,0.3184,-0.61493,-1.9892,-1.7749,-5.7957,-1.4597,1.2806,0.097764,0.02,0.8,0
0.059589,-0.030783,0.9876,-0.42414,-2.0182,-1.7203,-0.2413,0,0,1.685,-0.3873,0,-0.62738,0,0,0.24123,0.18318,0,0.29979,-0.38841,-2.054,-1.7203,-8.4217,-1.3876,1.5263,0.15362,0.04,0.8,0
0.096861,-0.034505,0.984,-0.36714,-1.501,-1.1017,-0.21977,0,0,1.1624,-0.94402,0,-1.831,0,0,0.14302,0.19742,0,0.25696,-0.30901,-1.5592,-1.1017,-20.106,-0.98995,1.099,0.10313,0.06,0.8,0
0.10609,-0.076948,0.96283,-0.24328,-0.40544,-0.2909,-0.087996,0,0,0.61907,-1.4891,0,-2.2879,0,0,0.097199,0.029462,0,0.10172,-0.2047,-0.44402,-0.2909,-23.671,-0.31321,0.20994,-0.00021953,0.08,0.8,0
0.12162,-0.10074,0.94512,-0.21438,-0.39906,-0.27854,-0.057578,0,0,0.8341,-1.5667,0,-1.497,0,0,0.084716,0.019229,0,0.086833,-0.1979,-0.41554,-0.27854,-15.973,-0.29733,0.19057,-0.00015307,0.1,0.8,0
0.13945,-0.11554,0.92894,-0.20109,-0.3984,-0.27274,-0.040482,0,0,0.93147,-1.6336,0,-1.0525,0,0,0.079061,0.011359,0,0.079836,-0.19311,-0.40638,-0.27274,-11.155,-0.29074,0.18667,-0.00014094,0.12,0.8,0
0.15888,-0.12532,0.91349,-0.19148,-0.39624,-0.26767,-0.029649,0,0,0.99035,-1.6714,0,-0.77087,0,0,0.076177,0.0050626,0,0.076315,-0.18728,-0.40044,-0.26767,-8.0757,-0.28513,0.18646,-0.00013663,0.14,0.8,0
0.17906,-0.13142,0.89847,-0.18532,-0.39368,-0.26355,-0.021943,0,0,1.017,-1.6918,0,-0.57053,0,0,0.074427,-0.00018873,0,0.074402,-0.18303,-0.39597,-0.26355,-5.947,-0.28085,0.18623,-0.00013509,0.16,0.8,0
0.19956,-0.13468,0.88372,-0.18076,-0.39035,-0.25971,-0.016123,0,0,1.0263,-1.6984,0,-0.41919,0,0,0.073299,-0.0047688,0,0.073434,-0.17953,-0.39159,-0.25971,-4.3732,-0.27694,0.18546,-0.00013345,0.18,0.8,0
0.22012,-0.13551,0.86915,-0.17705,-0.38622,-0.25589,-0.011178,0,0,1.025,-1.6942,0,-0.29063,0,0,0.072584,-0.0089597,0,0.073116,-0.17645,-0.38681,-0.25589,-3.0503,-0.27305,0.18398,-0.00013074,0.2,0.8,0
0.24056,-0.13405,0.85469,-0.17381,-0.3813,-0.252,-0.0063111,0,0,1.0166,-1.6809,0,-0.16409,0,0,0.072209,-0.013007,0,0.073352,-0.17361,-0.38149,-0.252,-1.7405,-0.26904,0.18183,-0.00012675,0.22,0.8,0
0.26078,-0.13021,0.84027,-0.17101,-0.37568,-0.24804,-0.0007379,0,0,1.0013,-1.6595,0,-0.019185,0,0,0.072206,-0.017159,0,0.074196,-0.17101,-0.37569,-0.24804,-0.20656,-0.26491,0.17906,-0.00012171,0.24,0.8,0
0.28062,-0.12363,0.82581,-0.16897,-0.36942,-0.2441,0.0064916,0,0,0.97672,-1.6293,0,0.16878,0,0,0.072747,-0.021707,0,0.075891,-0.16876,-0.36963,-0.2441,1.8529,-0.26083,0.17577,-0.00011622,0.26,0.8,0
0.29984,-0.11357,0.81117,-0.16877,-0.36273,-0.24057,0.016524,0,0,0.93332,-1.5881,0,0.42962,0,0,0.074294,-0.027038,0,0.079028,-0.16737,-0.36412,-0.24057,4.8349,-0.25736,0.17224,-0.00011183,0.28,0.8,0
0.31795,-0.098879,0.79609,-0.17045,-0.35437,-0.23705,0.032099,0,0,0.86591,-1.5251,0,0.83457,0,0,0.078415,-0.033674,0,0.085304,-0.165,-0.35981,-0.23705,9.6206,-0.25396,0.1706,-0.00011035,0.3,0.8,0
0.33448,-0.07628,0.7798,-0.18486,-0.34915,-0.23818,0.057923,0,0,0.69319,-1.4425,0,1.506,0,0,0.088547,-0.042286,0,0.098258,-0.16649,-0.36752,-0.23818,17.595,-0.2574,0.17646,-0.00013336,0.32,0.8,0
0.34568,-0.03943,0.76067,-0.28163,-1.2853,-0.88845,0.14733,0,0,1.0407,-0.93805,0,1.2687,0,0,0.12066,-0.25337,0,0.29305,-0.25036,-1.3166,-0.88845,16.44,-0.81847,0.93116,0.048612,0.34,0.8,0
0.37611,-0.030557,0.75776,-0.26584,-1.6415,-1.33,0.16183,0,0,1.3834,-0.40504,0,0.42075,0,0,0.18492,-0.30029,0,0.34998,-0.24706,-1.6603,-1.33,6.6194,-1.0791,1.2805,0.084113,0.36,0.8,0
0.40101,-0.020606,0.75327,-0.37066,-1.4997,-1.3144,0.10063,0,0,1.2268,-0.2409,0,0.26164,0,0,0.21449,-0.22609,0,0.31092,-0.36176,-1.5086,-1.3144,5.0538,-1.0616,1.0631,0.054832,0.38,0.8,0
0.42518,-0.013911,0.74918,-0.34053,-1.3571,-1.2585,0.036224,0,0,1.1933,-0.12823,0,0.094182,0,0,0.19107,-0.18707,0,0.26752,-0.33924,-1.3584,-1.2585,2.0382,-0.98537,0.97305,0.045639,0.4,0.8,0
0.44874,-0.0091484,0.74563,-0.27139,-0.70151,-0.70197,0.0021153,0,0,0.29679,0.0010697,0,-0.078624,0,0,0.16893,-0.094247,0,0.20411,-0.24824,-0.72466,-0.70197,-40.211,-0.55829,0.4763,0.01909,0.42,0.8,0
0.43706,-0.0087184,0.71352,-0.25903,-0.2226,-0.21584,-0.008109,0,0,-0.56146,-0.087844,0,-0.21083,0,0,0.15883,-0.012538,0,0.15933,-0.22087,-0.26075,-0.21584,-78.002,-0.23249,0.042619,-3.7895e-06,0.44,0.8,0
0.42629,-0.0088724,0.6821,-0.25044,-0.22214,-0.20999,-0.0085759,0,0,-0.52598,-0.158,0,-0.22297,0,0,0.15539,-0.0094404,0,0.15568,-0.21974,-0.25284,-0.20999,-74.393,-0.22752,0.038905,-2.395e-06,0.46,0.8,0
0.41602,-0.009127,0.65137,-0.24346,-0.22031,-0.20427,-0.0081322,0,0,-0.50953,-0.20856,0,-0.21144,0,0,0.15198,-0.0074815,0,0.15218,-0.21774,-0.24604,-0.20427,-72.456,-0.22268,0.036922,-1.473e-06,0.48,0.8,0
0.4059,-0.0092651,0.6213,-0.23776,-0.21726,-0.19864,-0.007373,0,0,-0.50858,-0.24214,0,-0.1917,0,0,0.14877,-0.0063612,0,0.14892,-0.21489,-0.24013,-0.19864,-72.133,-0.21789,0.036219,-8.9085e-07,0.5,0.8,0
0.39567,-0.0092354,0.59186,-0.23304,-0.21329,-0.19308,-0.0066128,0,0,-0.51942,-0.26263,0,-0.17193,0,0,0.14587,-0.0058244,0,0.14599,-0.21128,-0.23505,-0.19308,-73.098,-0.21313,0.036449,-5.6656e-07,0.52,0.8,0
0.38513,-0.0090663,0.56296,-0.22906,-0.20867,-0.18762,-0.0059676,0,0,-0.53885,-0.27366,0,-0.15516,0,0,0.14332,-0.0056656,0,0.14344,-0.20705,-0.23068,-0.18762,-74.834,-0.20845,0.037357,-4.4973e-07,0.54,0.8,0
0.37412,-0.0088099,0.53453,-0.22566,-0.20362,-0.18224,-0.0054457,0,0,-0.56449,-0.27801,0,-0.14159,0,0,0.14114,-0.0057322,0,0.14126,-0.20235,-0.22693,-0.18224,-76.85,-0.20384,0.038771,-5.1517e-07,0.56,0.8,0
0.36255,-0.0085144,0.5065,-0.2227,-0.19831,-0.17695,-0.0050121,0,0,-0.59472,-0.27763,0,-0.13032,0,0,0.13931,-0.0059197,0,0.13944,-0.19732,-0.22369,-0.17695,-78.829,-0.19932,0.040587,-7.5646e-07,0.58,0.8,0
0.35033,-0.0082136,0.47881,-0.22011,-0.19283,-0.17176,-0.0046241,0,0,-0.62848,-0.27387,0,-0.12023,0,0,0.1378,-0.0061624,0,0.13794,-0.19207,-0.22087,-0.17176,-80.636,-0.1949,0.04274,-1.1803e-06,0.6,0.8,0
0.33741,-0.0079263,0.45138,-0.21782,-0.18725,-0.16666,-0.0042458,0,0,-0.6651,-0.26767,0,-0.11039,0,0,0.13659,-0.0064225,0,0.13674,-0.18667,-0.2184,-0.16666,-82.238,-0.19058,0.04519,-1.8021e-06,0.62,0.8,0
0.32373,-0.0076593,0.42417,-0.21581,-0.18162,-0.16165,-0.0038523,0,0,-0.7041,-0.2597,0,-0.10016,0,0,0.13565,-0.0066809,0,0.13581,-0.18119,-0.21624,-0.16165,-83.649,-0.18636,0.047907,-2.6441e-06,0.64,0.8,0
0.30924,-0.0074113,0.39712,-0.21405,-0.17599,-0.15672,-0.0034299,0,0,-0.7452,-0.25046,0,-0.089178,0,0,0.13496,-0.0069307,0,0.13514,-0.17568,-0.21435,-0.15672,-84.891,-0.18225,0.050873,-3.7335e-06,0.66,0.8,0
0.29392,-0.0071761,0.37019,-0.21252,-0.17037,-0.15188,-0.0029739,0,0,-0.7882,-0.24032,0,-0.077321,0,0,0.1345,-0.0071719,0,0.13469,-0.17016,-0.21272,-0.15188,-85.984,-0.17826,0.054069,-5.1016e-06,0.68,0.8,0
0.27772,-0.0069462,0.34332,-0.21121,-0.16479,-0.14713,-0.0024867,0,0,-0.83296,-0.2296,0,-0.064654,0,0,0.13427,-0.007408,0,0.13447,-0.16466,-0.21134,-0.14713,-86.942,-0.17438,0.057483,-6.7841e-06,0.7,0.8,0
0.2606,-0.0067143,0.31648,-0.21011,-0.15927,-0.14246,-0.0019768,0,0,-0.8794,-0.21855,0,-0.051397,0,0,0.13426,-0.007643,0,0.13447,-0.1592,-0.21019,-0.14246,-87.776,-0.17062,0.061099,-8.8193e-06,0.72,0.8,0
0.24254,-0.0064756,0.28962,-0.20922,-0.15383,-0.13788,-0.0014573,0,0,-0.92748,-0.20739,0,-0.03789,0,0,0.13447,-0.0078789,0,0.1347,-0.15379,-0.20926,-0.13788,-88.494,-0.16698,0.064905,-1.1248e-05,0.74,0.8,0
0.2235,-0.0062281,0.26269,-0.20854,-0.14848,-0.13337,-0.00094514,0,0,-0.97712,-0.19636,0,-0.024574,0,0,0.13492,-0.0081127,0,0.13516,-0.14846,-0.20855,-0.13337,-89.099,-0.16346,0.068884,-1.4109e-05,0.76,0.8,0
0.20345,-0.0059729,0.23565,-0.20805,-0.14324,-0.12895,-0.00046013,0,0,-1.0282,-0.18573,0,-0.011963,0,0,0.13561,-0.0083328,0,0.13587,-0.14323,-0.20805,-0.12895,-89.593,-0.16008,0.073012,-1.7439e-05,0.78,0.8,0
0.18237,-0.0057136,0.20845,-0.20773,-0.13812,-0.1246,-2.2775e-05,0,0,-1.0807,-0.1758,0,-0.00059216,0,0,0.13657,-0.0085144,0,0.13683,-0.13812,-0.20773,-0.1246,-89.981,-0.15682,0.077261,-2.1261e-05,0.8,0.8,0
0.16023,-0.0054539,0.18102,-0.20757,-0.13317,-0.12032,0.0003493,0,0,-1.1342,-0.16697,0,0.0090819,0,0,0.13779,-0.0086136,0,0.13806,-0.13317,-0.20757,-0.12032,89.731,-0.15369,0.081587,-2.5579e-05,0.82,0.8,0
0.137,-0.0051943,0.15333,-0.20752,-0.12839,-0.11611,0.00064653,0,0,-1.1884,-0.15968,0,0.01681,0,0,0.13928,-0.0085616,0,0.13954,-0.12839,-0.20753,-0.11611,89.532,-0.15067,0.085943,-3.0372e-05,0.84,0.8,0
0.11269,-0.0049265,0.12531,-0.20755,-0.12381,-0.11194,0.00087137,0,0,-1.243,-0.15431,0,0.022656,0,0,0.14099,-0.0082623,0,0.14124,-0.1238,-0.20756,-0.11194,89.404,-0.14777,0.090279,-3.5601e-05,0.86,0.8,0
0.087285,-0.0046297,0.096933,-0.20761,-0.11942,-0.1078,0.0010348,0,0,-1.2976,-0.15097,0,0.026904,0,0,0.14286,-0.0075989,0,0.14306,-0.1194,-0.20763,-0.1078,89.328,-0.14494,0.094559,-4.1229e-05,0.88,0.8,0
0.060789,-0.0042719,0.06817,-0.20765,-0.11515,-0.10366,0.0011411,0,0,-1.3519,-0.14942,0,0.029669,0,0,0.14474,-0.0064542,0,0.14488,-0.11514,-0.20767,-0.10366,89.293,-0.14215,0.09877,-4.7242e-05,0.9,0.8,0
0.033208,-0.0038208,0.039038,-0.20761,-0.11094,-0.099467,0.0011652,0,0,-1.4058,-0.14912,0,0.030296,0,0,0.14644,-0.0047464,0,0.14651,-0.11092,-0.20762,-0.099467,89.309,-0.13934,0.1029,-5.3634e-05,0.92,0.8,0
0.0045562,-0.0032646,0.0095963,-0.2067,-0.18671,-0.1233,0.00011414,0,0,-0.75308,-0.14988,0,0.011698,0,0,0.15,-0.013584,0,0.15104,-0.15736,-0.23606,-0.1233,44.353,-0.17224,0.10239,-2.9279e-05,0.94,0.8,0
0.0030847,-0.0032538,0.0065407,-0.20541,-0.26605,-0.14798,-0.0022387,0,0,-0.074659,-0.1535,0,-0.0058206,0,0,0.15697,-0.01985,0,0.15826,-0.20533,-0.26614,-0.14798,-2.1112,-0.20648,0.10234,-2.7928e-06,0.96,0.8,0
0.0015699,-0.0033395,0.0033176,-0.20408,-0.26739,-0.14476,-0.0023686,0,0,-0.077117,-0.15942,0,-0.0061584,0,0,0.16352,-0.011052,0,0.16386,-0.20399,-0.26748,-0.14476,-2.1395,-0.20541,0.1063,-3.7037e-06,0.98,0.8,0
0,-0.003385,0,-0.19915,-0.26342,-0.13877,-0.00087624,0,0,-0.078493,-0.16204,0,-0.0022782,0,0,0.16588,2.6021e-18,0,0.16581,-0.19914,-0.26343,-0.13877,-0.781,-0.20044,0.10798,-3.5221e-06,1,0.8,0
0,-0.025195,1,-0.72799,-1.8614,-1.7768,-0.047665,0,0,1.3635,-0.10995,0,-0.12393,0,0,0.40562,-1.2629e-15,0,0.4042,-0.72599,-1.8634,-1.7768,-2.4039,-1.4554,1.0967,0.066321,0,0.82,0
0.027269,-0.027674,0.99189,-0.75939,-1.8773,-1.7829,-0.11201,0,0,1.3305,-0.1227,0,-0.29122,0,0,0.4098,0.084015,0,0.41654,-0.74828,-1.8884,-1.7829,-5.6657,-1.4732,1.0912,0.064632,0.02,0.82,0
0.053222,-0.035126,0.98361,-0.86732,-1.9698,-1.8348,-0.32511,0,0,1.2577,-0.1756,0,-0.8453,0,0,0.45674,0.19105,0,0.48997,-0.77859,-2.0586,-1.8348,-15.265,-1.5573,1.184,0.075091,0.04,0.82,0
0.077576,-0.057474,0.97362,-0.77322,-1.3715,-1.1789,-0.41187,0,0,0.77975,-0.7672,0,-2.6933,0,0,0.3625,0.20823,0,0.42241,-0.56178,-1.583,-1.1789,-29.194,-1.1079,0.89404,0.040555,0.06,0.82,0
0.088791,-0.1103,0.95553,-0.49875,-0.47277,-0.81699,-0.26636,0,0,0.75222,-0.30281,0,-1.9405,0,0,0.45267,0.047111,0,0.45631,-0.1938,-0.77772,-0.81699,-38.627,-0.59617,0.64197,0.022672,0.08,0.82,0
0.10766,-0.13381,0.9407,-0.32284,-0.43843,-0.74576,-0.097023,0,0,0.99964,-0.34467,0,-1.0081,0,0,0.40114,0.028356,0,0.40309,-0.25517,-0.5061,-0.74576,-29.091,-0.50234,0.49952,-0.0081971,0.1,0.82,0
0.12878,-0.14956,0.92635,-0.26162,-0.40837,-0.71049,-0.060192,0,0,1.061,-0.37259,0,-0.68691,0,0,0.39065,0.016114,0,0.39132,-0.2346,-0.43539,-0.71049,-21.185,-0.46016,0.49554,-0.010753,0.12,0.82,0
0.1501,-0.15961,0.91229,-0.24793,-0.40563,-0.69783,-0.038771,0,0,1.0634,-0.3917,0,-0.48146,0,0,0.3846,0.008077,0,0.38475,-0.23698,-0.41658,-0.69783,-14.612,-0.45046,0.48558,-0.010847,0.14,0.82,0
0.17131,-0.16584,0.89838,-0.24081,-0.4023,-0.68704,-0.027394,0,0,1.0547,-0.40432,0,-0.35198,0,0,0.38081,0.001933,0,0.38079,-0.23545,-0.40767,-0.68704,-10.508,-0.44339,0.47782,-0.010503,0.16,0.82,0
0.19229,-0.16906,0.88459,-0.23522,-0.39878,-0.67672,-0.020129,0,0,1.0436,-0.41233,0,-0.25981,0,0,0.378,-0.0031468,0,0.37805,-0.23235,-0.40165,-0.67672,-7.7337,-0.43691,0.47071,-0.010053,0.18,0.82,0
0.21305,-0.16974,0.87089,-0.22811,-0.39419,-0.66568,-0.014932,0,0,1.0343,-0.41726,0,-0.18615,0,0,0.3757,-0.0076504,0,0.37597,-0.22652,-0.39577,-0.66568,-5.6848,-0.42933,0.46459,-0.0095969,0.2,0.82,0
0.23366,-0.16804,0.85727,-0.21829,-0.38857,-0.65356,-0.01025,0,0,1.0288,-0.4202,0,-0.11593,0,0,0.37368,-0.011938,0,0.37432,-0.21752,-0.38934,-0.65356,-3.825,-0.42014,0.45959,-0.0091493,0.22,0.82,0
0.25421,-0.16388,0.84371,-0.20526,-0.3819,-0.64019,-0.0046264,0,0,1.028,-0.42185,0,-0.034684,0,0,0.37192,-0.016371,0,0.37308,-0.20506,-0.38209,-0.64019,-1.7096,-0.40912,0.45591,-0.0087079,0.24,0.82,0
0.27478,-0.15691,0.83022,-0.18992,-0.37477,-0.62603,0.0037036,0,0,1.0308,-0.4223,0,0.074626,0,0,0.37066,-0.021449,0,0.37256,-0.18984,-0.37486,-0.62603,1.0936,-0.39691,0.45347,-0.0082338,0.26,0.82,0
0.29544,-0.14644,0.81676,-0.17443,-0.36651,-0.6115,0.019489,0,0,1.0331,-0.42099,0,0.24467,0,0,0.37098,-0.028038,0,0.37402,-0.17238,-0.36855,-0.6115,5.8138,-0.38415,0.45269,-0.0076998,0.28,0.82,0
0.31611,-0.13085,0.80324,-0.1877,-0.37757,-0.61136,0.046954,0,0,1.0014,-0.41552,0,0.51003,0,0,0.37512,-0.038576,0,0.38008,-0.17572,-0.38955,-0.61136,13.101,-0.39221,0.44491,-0.0062984,0.3,0.82,0
0.33549,-0.10827,0.78948,-0.27868,-0.38696,-0.6339,0.17936,0,0,0.83962,-0.39878,0,1.2765,0,0,0.42229,-0.055531,0,0.4292,-0.1296,-0.53605,-0.6339,30.892,-0.43318,0.50536,0.0057044,0.32,0.82,0
0.34969,-0.060864,0.77253,-0.49826,-1.1082,-0.90682,0.28313,0,0,0.85055,-0.74401,0,1.8931,0,0,0.33091,-0.22912,0,0.41073,-0.38545,-1.221,-0.90682,24.021,-0.83775,0.73361,0.025818,0.34,0.82,0
0.37233,-0.036259,0.76369,-0.51787,-1.5996,-1.3989,0.1948,0,0,1.1454,-0.26091,0,0.50648,0,0,0.37357,-0.26505,0,0.45595,-0.48386,-1.6337,-1.3989,9.9032,-1.1722,1.0522,0.049949,0.36,0.82,0
0.39551,-0.024664,0.75758,-0.41589,-1.4511,-1.3177,0.041508,0,0,1.1723,-0.17348,0,0.10792,0,0,0.2766,-0.1874,0,0.33439,-0.41423,-1.4528,-1.3177,2.2924,-1.0616,0.97804,0.044975,0.38,0.82,0
0.41922,-0.015965,0.75262,-0.34811,-1.3258,-1.2548,-0.00012569,0,0,1.1787,-0.092289,0,-0.0003268,0,0,0.22106,-0.14599,0,0.26595,-0.34811,-1.3258,-1.2548,-0.0073662,-0.97623,0.94418,0.042408,0.4,0.82,0
0.44265,-0.0087378,0.74874,-0.27303,-0.69257,-0.70149,-0.015508,0,0,0.29825,0.021075,0,-0.25425,0,0,0.17973,-0.071096,0,0.2,-0.24682,-0.71879,-0.70149,-35.768,-0.5557,0.47425,0.018289,0.42,0.82,0
0.43115,-0.010357,0.71568,-0.25793,-0.22275,-0.21577,-0.017368,0,0,-0.54801,-0.090707,0,-0.45158,0,0,0.16277,-0.0082477,0,0.16299,-0.21562,-0.26505,-0.21577,-67.68,-0.23215,0.049361,-6.177e-06,0.44,0.82,0
0.42073,-0.01206,0.68363,-0.24911,-0.22333,-0.2101,-0.015974,0,0,-0.50721,-0.17205,0,-0.41532,0,0,0.1579,-0.0052838,0,0.158,-0.21569,-0.25675,-0.2101,-64.452,-0.22751,0.04412,-4.1723e-06,0.46,0.82,0
0.41087,-0.013382,0.65253,-0.2421,-0.22175,-0.20441,-0.014051,0,0,-0.49,-0.22543,0,-0.36532,0,0,0.15341,-0.0036457,0,0.15347,-0.21457,-0.24927,-0.20441,-62.957,-0.22275,0.040744,-2.758e-06,0.48,0.82,0
0.40113,-0.014201,0.62227,-0.23647,-0.21855,-0.19873,-0.01219,0,0,-0.49062,-0.25761,0,-0.31694,0,0,0.14944,-0.0029624,0,0.14948,-0.21238,-0.24264,-0.19873,-63.162,-0.21792,0.038922,-1.8211e-06,0.5,0.82,0
0.39124,-0.01457,0.59275,-0.23186,-0.21432,-0.19313,-0.010634,0,0,-0.50354,-0.27548,0,-0.27647,0,0,0.14603,-0.0029026,0,0.14607,-0.20931,-0.23688,-0.19313,-64.76,-0.2131,0.038311,-1.2501e-06,0.52,0.82,0
0.38099,-0.014607,0.56385,-0.22797,-0.20948,-0.18762,-0.0094021,0,0,-0.52458,-0.28415,0,-0.24446,0,0,0.14318,-0.0032066,0,0.14322,-0.20554,-0.23191,-0.18762,-67.263,-0.20836,0.038591,-9.5492e-07,0.54,0.82,0
0.37026,-0.014427,0.53548,-0.22461,-0.20428,-0.18221,-0.0084271,0,0,-0.55114,-0.28684,0,-0.2191,0,0,0.14083,-0.0036942,0,0.14089,-0.20124,-0.22765,-0.18221,-70.171,-0.2037,0.03952,-8.7791e-07,0.56,0.82,0
0.35895,-0.014118,0.50752,-0.22165,-0.19887,-0.17691,-0.0076237,0,0,-0.58168,-0.28551,0,-0.19822,0,0,0.13893,-0.0042537,0,0.139,-0.19656,-0.22397,-0.17691,-73.103,-0.19915,0.04094,-9.9095e-07,0.58,0.82,0
0.34699,-0.013741,0.4799,-0.21904,-0.19335,-0.17171,-0.0069199,0,0,-0.61533,-0.28134,0,-0.17992,0,0,0.1374,-0.0048223,0,0.13749,-0.1916,-0.22079,-0.17171,-75.845,-0.1947,0.042756,-1.2873e-06,0.6,0.82,0
0.33433,-0.013331,0.45256,-0.21672,-0.18776,-0.1666,-0.0062622,0,0,-0.65158,-0.27511,0,-0.16282,0,0,0.1362,-0.0053695,0,0.1363,-0.18647,-0.21802,-0.1666,-78.306,-0.19036,0.04491,-1.7748e-06,0.62,0.82,0
0.32093,-0.012908,0.42542,-0.21468,-0.18216,-0.16159,-0.0056144,0,0,-0.69008,-0.26733,0,-0.14597,0,0,0.13527,-0.005885,0,0.1354,-0.18121,-0.21562,-0.16159,-80.475,-0.18614,0.047367,-2.4719e-06,0.64,0.82,0
0.30673,-0.012479,0.39845,-0.21288,-0.17655,-0.15667,-0.0049548,0,0,-0.73064,-0.2584,0,-0.12882,0,0,0.1346,-0.0063703,0,0.13475,-0.17589,-0.21354,-0.15667,-82.371,-0.18203,0.050104,-3.4052e-06,0.66,0.82,0
0.2917,-0.012045,0.37159,-0.21131,-0.17097,-0.15184,-0.0042724,0,0,-0.77312,-0.2486,0,-0.11108,0,0,0.13415,-0.0068335,0,0.13432,-0.17052,-0.21176,-0.15184,-84.021,-0.17804,0.053104,-4.6077e-06,0.68,0.82,0
0.27581,-0.011604,0.34479,-0.20998,-0.16542,-0.1471,-0.003565,0,0,-0.81747,-0.23814,0,-0.09269,0,0,0.13392,-0.0072857,0,0.13412,-0.16513,-0.21026,-0.1471,-85.455,-0.17416,0.056356,-6.119e-06,0.7,0.82,0
0.259,-0.011152,0.31802,-0.20888,-0.15992,-0.14244,-0.0028371,0,0,-0.86367,-0.22721,0,-0.073765,0,0,0.13391,-0.0077384,0,0.13413,-0.15975,-0.20904,-0.14244,-86.695,-0.17041,0.059852,-7.9843e-06,0.72,0.82,0
0.24126,-0.01069,0.29123,-0.208,-0.15448,-0.13787,-0.0020996,0,0,-0.91175,-0.21597,0,-0.054589,0,0,0.13412,-0.0082007,0,0.13437,-0.1544,-0.20808,-0.13787,-87.757,-0.16678,0.063584,-1.0255e-05,0.74,0.82,0
0.22253,-0.010218,0.26437,-0.20736,-0.14912,-0.13338,-0.0013692,0,0,-0.96174,-0.20457,0,-0.035598,0,0,0.13457,-0.0086768,0,0.13485,-0.14908,-0.20739,-0.13338,-88.654,-0.16329,0.067543,-1.2988e-05,0.76,0.82,0
0.20279,-0.0097427,0.2374,-0.20695,-0.14384,-0.12898,-0.00066868,0,0,-1.0137,-0.19319,0,-0.017386,0,0,0.13528,-0.0091612,0,0.13559,-0.14383,-0.20696,-0.12898,-89.393,-0.15992,0.071719,-1.6241e-05,0.78,0.82,0
0.18199,-0.0092741,0.21026,-0.20678,-0.13866,-0.12466,-2.6467e-05,0,0,-1.0675,-0.18208,0,-0.00068813,0,0,0.13629,-0.0096331,0,0.13663,-0.13866,-0.20678,-0.12466,-89.978,-0.1567,0.076089,-2.0065e-05,0.8,0.82,0
0.16009,-0.0088239,0.18288,-0.20682,-0.13362,-0.12042,0.00052657,0,0,-1.1232,-0.1716,0,0.013691,0,0,0.13763,-0.010047,0,0.138,-0.13362,-0.20682,-0.12042,89.588,-0.15362,0.080617,-2.4496e-05,0.82,0.82,0
0.13706,-0.0084025,0.15521,-0.20703,-0.12873,-0.11625,0.00096404,0,0,-1.1802,-0.16229,0,0.025065,0,0,0.13933,-0.010319,0,0.13972,-0.12872,-0.20705,-0.11625,89.295,-0.15067,0.085246,-2.9534e-05,0.84,0.82,0
0.11288,-0.0080112,0.12715,-0.20738,-0.12405,-0.11214,0.0012739,0,0,-1.2381,-0.15474,0,0.033122,0,0,0.14139,-0.010317,0,0.14177,-0.12403,-0.2074,-0.11214,89.124,-0.14786,0.089908,-3.5137e-05,0.86,0.82,0
0.087535,-0.0076336,0.09865,-0.2078,-0.11956,-0.10807,0.0014629,0,0,-1.2964,-0.14932,0,0.038036,0,0,0.14374,-0.0098584,0,0.14409,-0.11953,-0.20782,-0.10807,89.05,-0.14514,0.094542,-4.1257e-05,0.88,0.82,0
0.061022,-0.0072315,0.069653,-0.20821,-0.1152,-0.10399,0.0015335,0,0,-1.3549,-0.14576,0,0.03987,0,0,0.14625,-0.0087319,0,0.14651,-0.11517,-0.20823,-0.10399,89.056,-0.14247,0.099127,-4.7885e-05,0.9,0.82,0
0.033341,-0.0067595,0.040152,-0.20851,-0.11082,-0.099812,0.0014421,0,0,-1.413,-0.14305,0,0.037495,0,0,0.14863,-0.0067612,0,0.14879,-0.1108,-0.20853,-0.099812,89.154,-0.13971,0.10366,-5.5053e-05,0.92,0.82,0
0.0045006,-0.0062001,0.0102,-0.20658,-0.18156,-0.12205,-0.00066962,0,0,-0.75878,-0.14066,0,0.010323,0,0,0.15416,-0.021362,0,0.15663,-0.15647,-0.23168,-0.12205,43.353,-0.17006,0.099912,-2.685e-05,0.94,0.82,0
0.0029892,-0.0063001,0.0070282,-0.20531,-0.26328,-0.1476,-0.0049939,0,0,-0.075017,-0.15038,0,-0.012984,0,0,0.16525,-0.031625,0,0.16834,-0.20488,-0.26371,-0.1476,-4.8879,-0.2054,0.10055,-1.2036e-06,0.96,0.82,0
0.0015,-0.0065496,0.0035898,-0.20328,-0.27074,-0.1458,-0.0047885,0,0,-0.074731,-0.16243,0,-0.01245,0,0,0.17571,-0.017721,0,0.17652,-0.20294,-0.27108,-0.1458,-4.0401,-0.20661,0.10864,-9.9577e-06,0.98,0.82,0
0,-0.006666,0,-0.19753,-0.2686,-0.13984,-0.0022367,0,0,-0.074998,-0.16739,0,-0.0058155,0,0,0.17949,-1.7347e-18,0,0.17934,-0.19746,-0.26867,-0.13984,-1.8008,-0.20199,0.11178,-1.3019e-05,1,0.82,0
0,-0.026516,1,-0.65809,-1.7588,-1.7251,-0.046906,0,0,1.3871,-0.043891,0,-0.12195,0,0,0.48571,-2.897e-15,0,0.48487,-0.6561,-1.7608,-1.7251,-2.4356,-1.3807,1.0873,0.065779,0,0.84,0
0.027742,-0.028955,0.99029,-0.63314,-1.739,-1.7019,-0.092433,0,0,1.3894,-0.048187,0,-0.24033,0,0,0.50103,0.069568,0,0.50501,-0.62547,-1.7467,-1.7019,-4.7452,-1.358,1.0995,0.067888,0.02,0.84,0
0.055577,-0.037806,0.97996,-0.65179,-1.7672,-1.7057,-0.23393,0,0,1.37,-0.079972,0,-0.60823,0,0,0.56038,0.14702,0,0.57958,-0.60472,-1.8142,-1.7057,-11.378,-1.3749,1.159,0.077608,0.04,0.84,0
0.082542,-0.057567,0.96787,-0.71834,-1.6056,-1.665,-0.4262,0,0,1.2307,0.077327,0,-1.1081,0,0,0.63968,0.20124,0,0.67373,-0.54677,-1.7771,-1.665,-21.927,-1.3296,1.1783,0.081466,0.06,0.84,0
0.1048,-0.089061,0.95437,-0.60668,-0.67177,-1.3379,-0.36821,0,0,0.95059,0.86598,0,-0.95733,0,0,0.69665,0.073495,0,0.69908,-0.26959,-1.0089,-1.3379,-42.474,-0.87212,0.94766,0.02661,0.08,0.84,0
0.12057,-0.11452,0.94,-0.69268,-0.59633,-1.3267,-0.21767,0,0,0.82424,0.94949,0,-0.56595,0,0,0.71013,0.039806,0,0.71117,-0.42157,-0.86744,-1.3267,-51.239,-0.87191,0.7839,-0.00063377,0.1,0.84,0
0.13778,-0.13045,0.92597,-0.57305,-0.51567,-1.2526,-0.11575,0,0,0.8834,0.95798,0,-0.30095,0,0,0.69803,0.023015,0,0.69839,-0.42511,-0.66361,-1.2526,-51.96,-0.78043,0.73773,-0.013589,0.12,0.84,0
0.1559,-0.14099,0.91208,-0.50082,-0.47845,-1.2059,-0.071097,0,0,0.91656,0.94564,0,-0.18485,0,0,0.69135,0.012748,0,0.69146,-0.41766,-0.5616,-1.2059,-49.471,-0.72837,0.727,-0.017156,0.14,0.84,0
0.17444,-0.14759,0.89831,-0.45825,-0.45762,-1.1731,-0.04736,0,0,0.92927,0.93009,0,-0.12314,0,0,0.68634,0.0055085,0,0.68636,-0.41057,-0.5053,-1.1731,-45.189,-0.69631,0.71983,-0.018043,0.16,0.84,0
0.19307,-0.15117,0.88463,-0.43216,-0.44467,-1.1477,-0.034628,0,0,0.93018,0.91391,0,-0.090032,0,0,0.68226,-0.0001151,0,0.68225,-0.40322,-0.4736,-1.1477,-39.88,-0.67483,0.71188,-0.017919,0.18,0.84,0
0.21164,-0.1522,0.87102,-0.41496,-0.436,-1.1263,-0.027076,0,0,0.92475,0.8974,0,-0.070399,0,0,0.67857,-0.0048519,0,0.67858,-0.39643,-0.45453,-1.1263,-34.385,-0.65909,0.70263,-0.017406,0.2,0.84,0
0.23006,-0.15086,0.85749,-0.40351,-0.43063,-1.1077,-0.021174,0,0,0.91549,0.88022,0,-0.055051,0,0,0.67497,-0.0091965,0,0.67503,-0.39193,-0.44222,-1.1077,-28.679,-0.64729,0.69203,-0.016719,0.22,0.84,0
0.24826,-0.14708,0.84402,-0.398,-0.42916,-1.0922,-0.013604,0,0,0.90242,0.86192,0,-0.035369,0,0,0.6713,-0.013639,0,0.67143,-0.3929,-0.43426,-1.0922,-20.564,-0.63978,0.67954,-0.015915,0.24,0.84,0
0.26616,-0.14052,0.83064,-0.40268,-0.43434,-1.0817,0.00056047,0,0,0.88278,0.84162,0,0.0014572,0,0,0.66762,-0.01891,0,0.66788,-0.40267,-0.43435,-1.0817,1.0138,-0.63959,0.6638,-0.014907,0.26,0.84,0
0.28358,-0.13041,0.81732,-0.42706,-0.45295,-1.0813,0.029438,0,0,0.85054,0.81688,0,0.076538,0,0,0.66422,-0.026497,0,0.66474,-0.40785,-0.47217,-1.0813,33.132,-0.65378,0.64373,-0.01324,0.28,0.84,0
0.30018,-0.1155,0.80407,-0.48753,-0.50715,-1.1025,0.10241,0,0,0.79942,0.77392,0,0.26627,0,0,0.66476,-0.040252,0,0.6659,-0.39446,-0.60022,-1.1025,42.264,-0.69905,0.63082,-0.0084202,0.3,0.84,0
0.31555,-0.092231,0.79073,-0.39002,-0.55942,-1.0756,0.21598,0,0,0.8912,0.67098,0,0.56156,0,0,0.63747,-0.071835,0,0.63969,-0.24272,-0.70672,-1.0756,34.293,-0.675,0.72283,0.003808,0.32,0.84,0
0.33583,-0.062638,0.77857,-0.4461,-1.3058,-1.3041,0.25261,0,0,1.1155,-0.00219,0,0.65679,0,0,0.55925,-0.20591,0,0.60094,-0.37737,-1.3746,-1.3041,15.22,-1.0187,0.96391,0.045171,0.34,0.84,0
0.36017,-0.040994,0.76836,-0.36718,-1.4497,-1.3134,0.10087,0,0,1.2301,-0.17711,0,0.26227,0,0,0.44495,-0.17408,0,0.48108,-0.35786,-1.459,-1.3134,5.2788,-1.0434,1.036,0.053331,0.36,0.84,0
0.38503,-0.027546,0.76077,-0.32822,-1.3758,-1.272,0.00010953,0,0,1.2269,-0.13494,0,0.00028477,0,0,0.33355,-0.11853,0,0.35589,-0.32822,-1.3758,-1.272,0.0059906,-0.99199,0.99969,0.049452,0.38,0.84,0
0.40925,-0.017603,0.75502,-0.32056,-1.3038,-1.2423,-0.032546,0,0,1.1983,-0.079924,0,-0.084621,0,0,0.2492,-0.082075,0,0.26486,-0.31949,-1.3049,-1.2423,-1.8938,-0.95556,0.95566,0.044179,0.4,0.84,0
0.43296,-0.0083053,0.7508,-0.26736,-0.6996,-0.70303,-0.031044,0,0,0.32674,0.0081004,0,-0.41959,0,0,0.19033,-0.036355,0,0.19682,-0.23853,-0.72843,-0.70303,-32.464,-0.55667,0.48799,0.019408,0.42,0.84,0
0.42231,-0.012347,0.71682,-0.25443,-0.22482,-0.21546,-0.026544,0,0,-0.50667,-0.12171,0,-0.69015,0,0,0.16647,-0.0022484,0,0.16652,-0.20923,-0.27002,-0.21546,-59.576,-0.23157,0.057927,-9.5956e-06,0.44,0.84,0
0.4127,-0.015754,0.68421,-0.24625,-0.22619,-0.21015,-0.023188,0,0,-0.46924,-0.20847,0,-0.60289,0,0,0.15999,0.00020127,0,0.16002,-0.21095,-0.26148,-0.21015,-56.695,-0.22753,0.050934,-6.7808e-06,0.46,0.84,0
0.40354,-0.018144,0.65283,-0.23966,-0.22439,-0.2045,-0.019722,0,0,-0.45711,-0.25858,0,-0.51278,0,0,0.1543,0.0011301,0,0.15433,-0.21087,-0.25317,-0.2045,-55.582,-0.22285,0.04582,-4.6198e-06,0.48,0.84,0
0.39441,-0.019569,0.62249,-0.23439,-0.22066,-0.19876,-0.016797,0,0,-0.4631,-0.28467,0,-0.43673,0,0,0.14952,0.0010322,0,0.14954,-0.20938,-0.24567,-0.19876,-56.111,-0.21794,0.042602,-3.1552e-06,0.5,0.84,0
0.38502,-0.020254,0.59302,-0.23004,-0.21595,-0.1931,-0.01452,0,0,-0.4802,-0.29709,0,-0.37753,0,0,0.14563,0.00035361,0,0.14563,-0.20686,-0.23913,-0.1931,-57.937,-0.21303,0.040928,-2.2268e-06,0.52,0.84,0
0.37521,-0.020432,0.56424,-0.2263,-0.21075,-0.18754,-0.01277,0,0,-0.50387,-0.30177,0,-0.33202,0,0,0.14253,-0.00058684,0,0.14254,-0.20358,-0.23347,-0.18754,-60.665,-0.2082,0.040381,-1.6731e-06,0.54,0.84,0
0.36487,-0.020284,0.53601,-0.22301,-0.20531,-0.1821,-0.011387,0,0,-0.53184,-0.30181,0,-0.29606,0,0,0.14009,-0.0016003,0,0.14011,-0.19974,-0.22858,-0.1821,-63.923,-0.20347,0.040643,-1.3889e-06,0.56,0.84,0
0.35393,-0.019935,0.5082,-0.22008,-0.19976,-0.17677,-0.010241,0,0,-0.56299,-0.29883,0,-0.26628,0,0,0.13818,-0.0025889,0,0.13821,-0.19549,-0.22434,-0.17677,-67.386,-0.19887,0.04151,-1.3182e-06,0.58,0.84,0
0.34235,-0.019467,0.48074,-0.21746,-0.19415,-0.17156,-0.0092379,0,0,-0.59674,-0.29375,0,-0.24019,0,0,0.13669,-0.0035098,0,0.13673,-0.19094,-0.22068,-0.17156,-70.798,-0.19439,0.042854,-1.4377e-06,0.6,0.84,0
0.33006,-0.01893,0.45353,-0.21513,-0.18854,-0.16645,-0.0083098,0,0,-0.63277,-0.28711,0,-0.21605,0,0,0.13553,-0.004352,0,0.1356,-0.18615,-0.21751,-0.16645,-73.996,-0.19004,0.0446,-1.7452e-06,0.62,0.84,0
0.31704,-0.018353,0.42652,-0.21305,-0.18293,-0.16145,-0.007412,0,0,-0.67086,-0.27927,0,-0.19271,0,0,0.13465,-0.0051213,0,0.13475,-0.1812,-0.21478,-0.16145,-76.899,-0.18581,0.046699,-2.2534e-06,0.64,0.84,0
0.30323,-0.017747,0.39967,-0.21122,-0.17734,-0.15653,-0.0065159,0,0,-0.7109,-0.27046,0,-0.16941,0,0,0.13401,-0.0058328,0,0.13414,-0.17613,-0.21243,-0.15653,-79.481,-0.1817,0.049121,-2.9856e-06,0.66,0.84,0
0.2886,-0.01712,0.37292,-0.20962,-0.17178,-0.15171,-0.0056046,0,0,-0.75282,-0.26088,0,-0.14572,0,0,0.13358,-0.0065061,0,0.13374,-0.17097,-0.21043,-0.15171,-81.75,-0.17771,0.051849,-3.974e-06,0.68,0.84,0
0.27311,-0.016472,0.34624,-0.20826,-0.16626,-0.14698,-0.0046703,0,0,-0.79661,-0.25066,0,-0.12143,0,0,0.13336,-0.0071623,0,0.13355,-0.16575,-0.20877,-0.14698,-83.73,-0.17383,0.05487,-5.2592e-06,0.7,0.84,0
0.25673,-0.015803,0.31957,-0.20713,-0.16078,-0.14233,-0.003712,0,0,-0.84234,-0.2399,0,-0.096511,0,0,0.13334,-0.0078226,0,0.13357,-0.16049,-0.20742,-0.14233,-85.449,-0.17008,0.058177,-6.8911e-06,0.72,0.84,0
0.23942,-0.015114,0.2929,-0.205,-0.15456,-0.13716,-0.0025598,0,0,-0.88198,-0.2262,0,-0.066555,0,0,0.13348,-0.0084573,0,0.13375,-0.15443,-0.20513,-0.13716,-87.102,-0.16557,0.061195,-8.6859e-06,0.74,0.84,0
0.22113,-0.014411,0.26616,-0.20663,-0.15016,-0.13365,-0.0016124,0,0,-0.94867,-0.21457,0,-0.041923,0,0,0.13405,-0.0091381,0,0.13436,-0.15011,-0.20667,-0.13365,-88.366,-0.16348,0.06634,-1.1941e-05,0.76,0.84,0
0.20182,-0.013701,0.23932,-0.20394,-0.14385,-0.12827,-0.0006928,0,0,-0.98366,-0.20262,0,-0.018013,0,0,0.13452,-0.0098566,0,0.13488,-0.14385,-0.20394,-0.12827,-89.339,-0.15869,0.069213,-1.4164e-05,0.78,0.84,0
0.18143,-0.012997,0.2123,-0.20638,-0.13971,-0.12506,0.00016293,0,0,-1.0572,-0.19046,0,0.0042362,0,0,0.13588,-0.010602,0,0.1363,-0.13971,-0.20638,-0.12506,89.86,-0.15705,0.07508,-1.8977e-05,0.8,0.84,0
0.1599,-0.012318,0.18504,-0.20407,-0.13349,-0.11977,0.00095378,0,0,-1.0959,-0.17834,0,0.024798,0,0,0.13683,-0.011336,0,0.1373,-0.13348,-0.20409,-0.11977,89.226,-0.15245,0.078363,-2.2188e-05,0.82,0.84,0
0.13719,-0.011686,0.15746,-0.20739,-0.1297,-0.11687,0.0015393,0,0,-1.1767,-0.16673,0,0.040021,0,0,0.13937,-0.011974,0,0.13988,-0.12967,-0.20742,-0.11687,88.865,-0.15132,0.084877,-2.9014e-05,0.84,0.84,0
0.11325,-0.011116,0.12944,-0.20542,-0.12372,-0.11169,0.002013,0,0,-1.2186,-0.15639,0,0.052338,0,0,0.141,-0.01236,0,0.14154,-0.12367,-0.20547,-0.11169,88.59,-0.14694,0.088407,-3.3301e-05,0.86,0.84,0
0.088027,-0.010603,0.10088,-0.20933,-0.1204,-0.10901,0.002236,0,0,-1.3042,-0.14808,0,0.058137,0,0,0.14498,-0.012239,0,0.14551,-0.12034,-0.20939,-0.10901,88.561,-0.14625,0.095223,-4.2235e-05,0.88,0.84,0
0.061509,-0.010102,0.071663,-0.20752,-0.11473,-0.10384,0.0022887,0,0,-1.3478,-0.14155,0,0.059505,0,0,0.14724,-0.011279,0,0.14769,-0.11467,-0.20757,-0.10384,88.588,-0.14203,0.098763,-4.7477e-05,0.9,0.84,0
0.033676,-0.0095429,0.041743,-0.21155,-0.11148,-0.10108,0.0021549,0,0,-1.4361,-0.13512,0,0.056027,0,0,0.15184,-0.0091517,0,0.15212,-0.11143,-0.2116,-0.10108,88.767,-0.14137,0.10572,-5.8735e-05,0.92,0.84,0
0.0045098,-0.008891,0.01115,-0.20954,-0.17927,-0.12277,-0.00277,0,0,-0.76904,-0.129,0,0.010937,0,0,0.16009,-0.026837,0,0.16344,-0.1576,-0.23121,-0.12277,39.92,-0.17053,0.099378,-2.6358e-05,0.94,0.84,0
0.0029149,-0.0092689,0.0078057,-0.20606,-0.26038,-0.14774,-0.0097998,0,0,-0.075822,-0.14643,0,-0.025479,0,0,0.18171,-0.046756,0,0.18771,-0.20435,-0.26209,-0.14774,-9.9209,-0.20473,0.099035,-8.5586e-07,0.96,0.84,0
0.0014377,-0.0098366,0.0040264,-0.20434,-0.27567,-0.14803,-0.0091945,0,0,-0.073202,-0.16593,0,-0.023906,0,0,0.19308,-0.026307,0,0.19477,-0.20317,-0.27683,-0.14803,-7.228,-0.20934,0.11193,-1.7713e-05,0.98,0.84,0
0,-0.010081,0,-0.19527,-0.27131,-0.13997,-0.0046941,0,0,-0.071884,-0.17074,0,-0.012205,0,0,0.20132,3.4694e-18,0,0.20113,-0.19498,-0.2716,-0.13997,-3.5191,-0.20218,0.1145,-2.157e-05,1,0.84,0
0,-0.026951,1,-0.55314,-1.6685,-1.6665,-0.05097,0,0,1.4474,-0.0026189,0,-0.13252,0,0,0.54476,8.0318e-16,0,0.54439,-0.55082,-1.6708,-1.6665,-2.611,-1.296,1.1179,0.071739,0,0.86,0
0.028947,-0.029601,0.98911,-0.54045,-1.6586,-1.6488,-0.072107,0,0,1.4409,-0.012698,0,-0.18748,0,0,0.5528,0.051504,0,0.5549,-0.53582,-1.6632,-1.6488,-3.6747,-1.2826,1.1203,0.072168,0.02,0.86,0
0.057505,-0.038324,0.97773,-0.58524,-1.6346,-1.6437,-0.23578,0,0,1.376,0.01182,0,-0.61304,0,0,0.59493,0.095006,0,0.60283,-0.5347,-1.6851,-1.6437,-12.1,-1.2878,1.1303,0.073825,0.04,0.86,0
0.084505,-0.054381,0.96557,-0.5738,-1.4086,-1.5603,-0.31943,0,0,1.2825,0.19717,0,-0.83053,0,0,0.62167,0.10013,0,0.62996,-0.4656,-1.5168,-1.5603,-18.713,-1.1809,1.0736,0.063209,0.06,0.86,0
0.10745,-0.075656,0.95259,-0.64974,-0.94213,-1.4302,-0.36067,0,0,1.0145,0.63443,0,-0.93773,0,0,0.66577,0.079664,0,0.67055,-0.40677,-1.1851,-1.4302,-33.968,-1.0073,0.92552,0.031298,0.08,0.86,0
0.12641,-0.095831,0.9391,-0.60759,-0.6256,-1.3091,-0.27506,0,0,0.91192,0.8885,0,-0.71517,0,0,0.67727,0.044621,0,0.67864,-0.34138,-0.8918,-1.3091,-44.062,-0.84742,0.84067,0.0071898,0.1,0.86,0
0.1432,-0.11124,0.92543,-0.64508,-0.56056,-1.2871,-0.15135,0,0,0.83466,0.94454,0,-0.3935,0,0,0.68308,0.027215,0,0.6836,-0.44568,-0.75995,-1.2871,-52.801,-0.83092,0.73644,-0.0086477,0.12,0.86,0
0.15985,-0.12179,0.91178,-0.6055,-0.51238,-1.2471,-0.11249,0,0,0.83413,0.95519,0,-0.29246,0,0,0.68178,0.016511,0,0.68197,-0.4372,-0.68068,-1.2471,-56.243,-0.78834,0.71978,-0.012026,0.14,0.86,0
0.17657,-0.12863,0.89816,-0.5692,-0.47867,-1.2125,-0.074745,0,0,0.83632,0.95401,0,-0.19434,0,0,0.67951,0.008849,0,0.67956,-0.43655,-0.61131,-1.2125,-60.599,-0.75346,0.70502,-0.014339,0.16,0.86,0
0.1933,-0.13251,0.8846,-0.54354,-0.45789,-1.185,-0.052489,0,0,0.83393,0.94527,0,-0.13647,0,0,0.67691,0.0030685,0,0.67691,-0.43297,-0.56846,-1.185,-64.605,-0.72882,0.6943,-0.015007,0.18,0.86,0
0.20993,-0.13384,0.87108,-0.52767,-0.44547,-1.163,-0.038506,0,0,0.82597,0.93282,0,-0.10011,0,0,0.674,-0.0015901,0,0.674,-0.43025,-0.54289,-1.163,-68.432,-0.71205,0.68345,-0.014906,0.2,0.86,0
0.22634,-0.13283,0.85764,-0.52023,-0.43989,-1.1457,-0.027259,0,0,0.81307,0.91752,0,-0.070873,0,0,0.67063,-0.0056376,0,0.67066,-0.43151,-0.52861,-1.1457,-72.921,-0.70193,0.6709,-0.01442,0.22,0.86,0
0.24245,-0.1294,0.84426,-0.52098,-0.44196,-1.1331,-0.013482,0,0,0.79582,0.89853,0,-0.035053,0,0,0.66651,-0.0095609,0,0.66658,-0.43973,-0.52321,-1.1331,-80.579,-0.69869,0.65567,-0.013689,0.24,0.86,0
0.25817,-0.12325,0.83098,-0.52968,-0.45523,-1.1264,0.0092697,0,0,0.7758,0.87259,0,0.024101,0,0,0.66107,-0.014066,0,0.66122,-0.45409,-0.53082,-1.1264,83.009,-0.70378,0.63747,-0.012657,0.26,0.86,0
0.27348,-0.11376,0.81782,-0.54264,-0.48893,-1.1273,0.051565,0,0,0.76004,0.82987,0,0.13407,0,0,0.65317,-0.020545,0,0.65349,-0.45764,-0.57392,-1.1273,58.756,-0.71962,0.61974,-0.010789,0.28,0.86,0
0.28858,-0.099898,0.80485,-0.51886,-0.55427,-1.1268,0.11875,0,0,0.7903,0.74428,0,0.30875,0,0,0.6367,-0.032042,0,0.63748,-0.4165,-0.65663,-1.1268,40.761,-0.73331,0.62579,-0.0066274,0.3,0.86,0
0.30509,-0.081432,0.79235,-0.46749,-0.76694,-1.1627,0.18915,0,0,0.90374,0.51446,0,0.49179,0,0,0.60215,-0.057219,0,0.60524,-0.37598,-0.85845,-1.1627,25.818,-0.79904,0.6871,0.0063374,0.32,0.86,0
0.32472,-0.060951,0.78076,-0.43157,-1.1375,-1.2515,0.16374,0,0,1.0659,0.14816,0,0.42573,0,0,0.54242,-0.071984,0,0.54844,-0.39544,-1.1737,-1.2515,12.443,-0.9402,0.8199,0.02745,0.34,0.86,0
0.34773,-0.043344,0.77065,-0.36187,-1.3141,-1.2735,0.061945,0,0,1.1851,-0.052903,0,0.16106,0,0,0.46095,-0.065505,0,0.46804,-0.35786,-1.3182,-1.2735,3.7062,-0.98316,0.93875,0.042164,0.36,0.86,0
0.37213,-0.030062,0.76232,-0.31863,-1.335,-1.2584,-0.022115,0,0,1.2217,-0.099589,0,-0.057498,0,0,0.36861,-0.030842,0,0.37264,-0.31815,-1.3355,-1.2584,-1.2458,-0.97069,0.98109,0.047493,0.38,0.86,0
0.3966,-0.019162,0.75591,-0.30401,-1.2978,-1.2365,-0.050261,0,0,1.2122,-0.079799,0,-0.13068,0,0,0.27349,0.0027158,0,0.27748,-0.30148,-1.3004,-1.2365,-2.8878,-0.94611,0.96853,0.045977,0.4,0.86,0
0.42062,-0.0084138,0.75138,-0.26411,-0.71653,-0.70745,-0.043296,0,0,0.35996,-0.021456,0,-0.56384,0,0,0.20006,0.01034,0,0.20293,-0.23284,-0.7478,-0.70745,-30.112,-0.5627,0.50586,0.021004,0.42,0.86,0
0.411,-0.015225,0.71658,-0.25116,-0.22829,-0.21549,-0.035167,0,0,-0.46361,-0.16641,0,-0.91434,0,0,0.17106,0.0042406,0,0.17116,-0.20275,-0.2767,-0.21549,-54.003,-0.23165,0.068479,-1.4585e-05,0.44,0.86,0
0.40242,-0.020398,0.68355,-0.24091,-0.22642,-0.20855,-0.027947,0,0,-0.42068,-0.2322,0,-0.72663,0,0,0.16127,0.0033006,0,0.16131,-0.20479,-0.26254,-0.20855,-52.271,-0.22529,0.055958,-8.8626e-06,0.46,0.86,0
0.39417,-0.023726,0.65207,-0.23512,-0.22459,-0.20312,-0.023019,0,0,-0.41602,-0.27907,0,-0.59849,0,0,0.15424,0.0037647,0,0.15429,-0.20624,-0.25347,-0.20312,-51.444,-0.22094,0.048863,-5.9093e-06,0.48,0.86,0
0.38577,-0.025587,0.62186,-0.2306,-0.22073,-0.19758,-0.019236,0,0,-0.42918,-0.30091,0,-0.50014,0,0,0.14866,0.0031779,0,0.1487,-0.20581,-0.24552,-0.19758,-52.192,-0.2163,0.044403,-3.9817e-06,0.5,0.86,0
0.377,-0.026454,0.59261,-0.22673,-0.21589,-0.19204,-0.016469,0,0,-0.45085,-0.30995,0,-0.42819,0,0,0.14441,0.0020577,0,0.14443,-0.20397,-0.23864,-0.19204,-54.107,-0.21155,0.041929,-2.7789e-06,0.52,0.86,0
0.36774,-0.026678,0.56409,-0.22443,-0.2121,-0.18737,-0.015378,0,0,-0.4818,-0.32154,0,-0.39982,0,0,0.14077,0.0016358,0,0.14079,-0.2017,-0.23483,-0.18737,-55.921,-0.20797,0.042167,-2.405e-06,0.54,0.86,0
0.35792,-0.026499,0.53612,-0.21992,-0.20587,-0.18135,-0.013878,0,0,-0.50141,-0.31877,0,-0.36083,0,0,0.13918,0.0001184,0,0.13918,-0.19734,-0.22845,-0.18135,-58.424,-0.20238,0.041484,-1.9157e-06,0.56,0.86,0
0.34748,-0.026071,0.50856,-0.21733,-0.19951,-0.17591,-0.01144,0,0,-0.53848,-0.30683,0,-0.29743,0,0,0.13702,-0.0017644,0,0.13703,-0.19392,-0.22292,-0.17591,-63.956,-0.19758,0.041082,-1.3946e-06,0.58,0.86,0
0.33638,-0.025491,0.48131,-0.21594,-0.19513,-0.17145,-0.011097,0,0,-0.5784,-0.30776,0,-0.28853,0,0,0.13544,-0.0024763,0,0.13546,-0.19032,-0.22075,-0.17145,-66.584,-0.19417,0.043084,-1.6138e-06,0.6,0.86,0
0.32458,-0.024816,0.4543,-0.21302,-0.18956,-0.1662,-0.010372,0,0,-0.60857,-0.30364,0,-0.26966,0,0,0.13459,-0.0034099,0,0.13463,-0.18563,-0.21694,-0.1662,-69.256,-0.18959,0.044343,-1.7572e-06,0.62,0.86,0
0.31204,-0.024079,0.42747,-0.21093,-0.18393,-0.16121,-0.0092347,0,0,-0.6464,-0.29545,0,-0.2401,0,0,0.13379,-0.0044166,0,0.13386,-0.18108,-0.21379,-0.16121,-72.811,-0.18536,0.045985,-2.0373e-06,0.64,0.86,0
0.29872,-0.023298,0.40078,-0.20907,-0.17835,-0.1563,-0.0081109,0,0,-0.68596,-0.2866,0,-0.21088,0,0,0.13321,-0.0053341,0,0.13332,-0.17634,-0.21108,-0.1563,-76.082,-0.18124,0.048004,-2.5289e-06,0.66,0.86,0
0.2846,-0.022481,0.37419,-0.20744,-0.17281,-0.15149,-0.0069774,0,0,-0.72725,-0.27716,0,-0.18141,0,0,0.13282,-0.0061957,0,0.13296,-0.17146,-0.20879,-0.15149,-79.024,-0.17725,0.050373,-3.2597e-06,0.68,0.86,0
0.26963,-0.02163,0.34765,-0.20602,-0.16732,-0.14677,-0.0058194,0,0,-0.7703,-0.2672,0,-0.1513,0,0,0.1326,-0.0070344,0,0.13279,-0.16647,-0.20688,-0.14677,-81.631,-0.17337,0.053077,-4.2675e-06,0.7,0.86,0
0.25378,-0.020748,0.32115,-0.20484,-0.16188,-0.14213,-0.0046283,0,0,-0.81523,-0.25675,0,-0.12034,0,0,0.13256,-0.0078823,0,0.1328,-0.16139,-0.20533,-0.14213,-83.92,-0.16962,0.05611,-5.6016e-06,0.72,0.86,0
0.23702,-0.019836,0.29463,-0.20301,-0.15646,-0.13731,-0.0035976,0,0,-0.85421,-0.24903,0,-0.093538,0,0,0.13267,-0.0088102,0,0.13296,-0.15619,-0.20329,-0.13731,-85.607,-0.16559,0.058861,-6.9564e-06,0.74,0.86,0
0.2193,-0.018899,0.26806,-0.20458,-0.15208,-0.1338,-0.0022791,0,0,-0.92009,-0.23755,0,-0.059256,0,0,0.13316,-0.0098064,0,0.13352,-0.15198,-0.20468,-0.1338,-87.519,-0.16349,0.063761,-9.7566e-06,0.76,0.86,0
0.20056,-0.017942,0.2414,-0.2019,-0.14577,-0.12844,-0.00095439,0,0,-0.95495,-0.22532,0,-0.024814,0,0,0.13358,-0.010907,0,0.13403,-0.14576,-0.20192,-0.12844,-89.026,-0.15871,0.066528,-1.1739e-05,0.78,0.86,0
0.18074,-0.016979,0.21458,-0.20444,-0.14158,-0.12526,0.00038014,0,0,-1.0293,-0.21208,0,0.0098837,0,0,0.13487,-0.012133,0,0.13542,-0.14158,-0.20444,-0.12526,89.653,-0.15709,0.072416,-1.6217e-05,0.8,0.86,0
0.15977,-0.01603,0.18752,-0.20222,-0.13517,-0.11997,0.0016925,0,0,-1.0693,-0.19759,0,0.044006,0,0,0.13582,-0.013486,0,0.13649,-0.13513,-0.20226,-0.11997,88.555,-0.15245,0.07586,-1.9439e-05,0.82,0.86,0
0.13755,-0.015123,0.16014,-0.20605,-0.13115,-0.11718,0.0028307,0,0,-1.1554,-0.18173,0,0.073598,0,0,0.13851,-0.014924,0,0.13932,-0.13105,-0.20616,-0.11718,87.839,-0.15146,0.082921,-2.6541e-05,0.84,0.86,0
0.114,-0.01429,0.13228,-0.20433,-0.12459,-0.1119,0.0038349,0,0,-1.2015,-0.16494,0,0.099708,0,0,0.14038,-0.016308,0,0.14133,-0.12441,-0.20451,-0.1119,87.253,-0.14694,0.087032,-3.1515e-05,0.86,0.86,0
0.089018,-0.013549,0.10377,-0.20935,-0.12086,-0.10944,0.0044303,0,0,-1.2988,-0.14847,0,0.11519,0,0,0.14537,-0.017302,0,0.14641,-0.12064,-0.20957,-0.10944,87.141,-0.14655,0.095025,-4.2012e-05,0.88,0.86,0
0.062545,-0.012854,0.074411,-0.20803,-0.1145,-0.1042,0.0047074,0,0,-1.3498,-0.13387,0,0.12239,0,0,0.14845,-0.017229,0,0.14947,-0.11426,-0.20827,-0.1042,87.126,-0.14224,0.099418,-4.873e-05,0.9,0.86,0
0.034503,-0.012083,0.044052,-0.21389,-0.11076,-0.1018,0.0046728,0,0,-1.4572,-0.11647,0,0.12149,0,0,0.15523,-0.015237,0,0.15599,-0.11055,-0.2141,-0.1018,87.411,-0.14215,0.10819,-6.3612e-05,0.92,0.86,0
0.0048094,-0.011138,0.012663,-0.20156,-0.14385,-0.11059,0.0027789,0,0,-0.78638,-0.085845,0,0.044277,0,0,0.16865,-0.066053,0,0.18748,-0.14349,-0.20192,-0.11059,81.815,-0.152,0.087466,-2.8288e-05,0.94,0.86,0
0.003048,-0.012117,0.0090562,-0.21052,-0.25407,-0.14843,-0.0085375,0,0,-0.080711,-0.13733,0,-0.022197,0,0,0.20427,-0.088623,0,0.2233,-0.2089,-0.25568,-0.14843,-10.704,-0.20434,0.093134,9.0836e-06,0.96,0.86,0
0.0015074,-0.013219,0.0047316,-0.21263,-0.28427,-0.1538,-0.0096235,0,0,-0.076478,-0.16961,0,-0.025021,0,0,0.22301,-0.049869,0,0.22801,-0.21136,-0.28554,-0.1538,-7.519,-0.2169,0.11439,-1.664e-05,0.98,0.86,0
0,-0.013652,0,-0.2052,-0.28554,-0.14722,-0.0083248,0,0,-0.075368,-0.17982,0,-0.021645,0,0,0.23658,-2.0817e-17,0,0.23545,-0.20434,-0.2864,-0.14722,-5.8538,-0.21265,0.12117,-2.78e-05,1,0.86,0
0,-0.02662,1,-0.49931,-1.5896,-1.6267,-0.047109,0,0,1.4656,0.048188,0,-0.12248,0,0,0.58117,1.6705e-15,0,0.58104,-0.49728,-1.5916,-1.6267,-2.4695,-1.2385,1.1123,0.070441,0,0.88,0
0.029312,-0.02907,0.98838,-0.47447,-1.531,-1.59,-0.081014,0,0,1.4502,0.076726,0,-0.21063,0,0,0.58556,0.026451,0,0.5861,-0.4683,-1.5372,-1.59,-4.3594,-1.1985,1.0962,0.067134,0.02,0.88,0
0.057701,-0.036579,0.97649,-0.53179,-1.4584,-1.5736,-0.21534,0,0,1.3543,0.14966,0,-0.55989,0,0,0.60895,0.045498,0,0.61073,-0.48419,-1.506,-1.5736,-12.464,-1.1879,1.0572,0.059856,0.04,0.88,0
0.084135,-0.048924,0.96417,-0.51936,-1.2566,-1.497,-0.27577,0,0,1.2709,0.31244,0,-0.717,0,0,0.62395,0.052705,0,0.6263,-0.42762,-1.3483,-1.497,-18.4,-1.091,1.0033,0.048059,0.06,0.88,0
0.10752,-0.0644,0.95138,-0.64069,-1.0364,-1.4545,-0.31337,0,0,1.058,0.54351,0,-0.81477,0,0,0.65146,0.048048,0,0.65328,-0.46794,-1.2092,-1.4545,-28.865,-1.0439,0.88965,0.027106,0.08,0.88,0
0.12757,-0.079903,0.93823,-0.61952,-0.78651,-1.36,-0.28379,0,0,0.96268,0.74558,0,-0.73786,0,0,0.66098,0.037408,0,0.66204,-0.40719,-0.99883,-1.36,-36.803,-0.92202,0.83319,0.01201,0.1,0.88,0
0.14523,-0.092984,0.92487,-0.67973,-0.65669,-1.3258,-0.1978,0,0,0.83988,0.86984,0,-0.51427,0,0,0.67084,0.026153,0,0.67134,-0.47008,-0.86634,-1.3258,-46.667,-0.8874,0.74175,-0.0026718,0.12,0.88,0
0.1616,-0.10278,0.91142,-0.65716,-0.55627,-1.2754,-0.14073,0,0,0.80378,0.93494,0,-0.3659,0,0,0.67275,0.017394,0,0.67297,-0.45722,-0.75621,-1.2754,-54.86,-0.82962,0.71712,-0.0084515,0.14,0.88,0
0.17738,-0.10943,0.89796,-0.64211,-0.50684,-1.2426,-0.096897,0,0,0.78069,0.95655,0,-0.25193,0,0,0.6729,0.010477,0,0.67297,-0.45631,-0.69264,-1.2426,-62.458,-0.7972,0.69881,-0.011008,0.16,0.88,0
0.19282,-0.11336,0.88451,-0.62772,-0.47643,-1.2158,-0.067425,0,0,0.76444,0.96112,0,-0.1753,0,0,0.67182,0.0052004,0,0.67183,-0.45075,-0.65341,-1.2158,-69.144,-0.7733,0.68649,-0.011864,0.18,0.88,0
0.20796,-0.11489,0.87109,-0.61805,-0.4591,-1.1942,-0.046631,0,0,0.74904,0.95567,0,-0.12124,0,0,0.66986,0.0010705,0,0.66986,-0.44643,-0.63072,-1.1942,-74.799,-0.75713,0.6748,-0.011903,0.2,0.88,0
0.22279,-0.11416,0.85771,-0.61398,-0.45292,-1.1778,-0.029099,0,0,0.73294,0.94232,0,-0.075657,0,0,0.667,-0.0022587,0,0.667,-0.44783,-0.61908,-1.1778,-80.066,-0.74823,0.66118,-0.011555,0.22,0.88,0
0.23728,-0.11114,0.84441,-0.61452,-0.45887,-1.1664,-0.0095092,0,0,0.71748,0.91982,0,-0.024724,0,0,0.66287,-0.0050746,0,0.66289,-0.45829,-0.61509,-1.1664,-86.517,-0.7466,0.6442,-0.011037,0.24,0.88,0
0.25149,-0.10562,0.8312,-0.61609,-0.48152,-1.1605,0.017629,0,0,0.70771,0.88265,0,0.045836,0,0,0.65663,-0.0077046,0,0.65668,-0.47925,-0.61836,-1.1605,82.659,-0.7527,0.62343,-0.010386,0.26,0.88,0
0.26559,-0.097218,0.81814,-0.60705,-0.53002,-1.1593,0.055601,0,0,0.71787,0.81801,0,0.14456,0,0,0.64625,-0.010601,0,0.64636,-0.5009,-0.63618,-1.1593,62.355,-0.76545,0.60223,-0.0093381,0.28,0.88,0
0.2802,-0.085729,0.80535,-0.57873,-0.63306,-1.1689,0.098859,0,0,0.7672,0.69657,0,0.25703,0,0,0.62809,-0.014286,0,0.62833,-0.50337,-0.70842,-1.1689,37.318,-0.79356,0.59033,-0.0064295,0.3,0.88,0
0.29628,-0.071652,0.79302,-0.5318,-0.81354,-1.1966,0.11887,0,0,0.86426,0.49801,0,0.30906,0,0,0.59753,-0.015098,0,0.59799,-0.48835,-0.85699,-1.1966,20.079,-0.84732,0.61355,0.00084073,0.32,0.88,0
0.31477,-0.056711,0.78145,-0.47665,-1.036,-1.2352,0.087367,0,0,0.98617,0.25902,0,0.22715,0,0,0.55096,-0.00635,0,0.55163,-0.46332,-1.0493,-1.2352,8.6741,-0.91596,0.69779,0.013363,0.34,0.88,0
0.33572,-0.04311,0.77098,-0.41233,-1.1986,-1.2543,0.012702,0,0,1.0945,0.07231,0,0.033024,0,0,0.48609,0.020121,0,0.48764,-0.41213,-1.1989,-1.2543,0.92519,-0.95509,0.81585,0.027457,0.36,0.88,0
0.35855,-0.03153,0.762,-0.35767,-1.2847,-1.2547,-0.054482,0,0,1.1662,-0.039009,0,-0.14165,0,0,0.40177,0.063527,0,0.40915,-0.35447,-1.2879,-1.2547,-3.3518,-0.96571,0.91729,0.039467,0.38,0.88,0
0.38237,-0.020795,0.75491,-0.32335,-1.3101,-1.245,-0.072729,0,0,1.1981,-0.084723,0,-0.1891,0,0,0.29884,0.10708,0,0.3223,-0.31802,-1.3155,-1.245,-4.1928,-0.95947,0.96412,0.045198,0.4,0.88,0
0.40647,-0.0091636,0.75005,-0.26746,-0.73704,-0.71388,-0.05811,0,0,0.37993,-0.054752,0,-0.72307,0,0,0.21029,0.071421,0,0.22958,-0.23205,-0.77245,-0.71388,-28.748,-0.57279,0.52332,0.022244,0.42,0.88,0
0.39757,-0.019453,0.71452,-0.2515,-0.24049,-0.21905,-0.046191,0,0,-0.42184,-0.27871,0,-1.201,0,0,0.17377,0.018453,0,0.17485,-0.19947,-0.29251,-0.21905,-48.398,-0.23701,0.084957,-2.5946e-05,0.44,0.88,0
0.39007,-0.026388,0.68132,-0.24219,-0.24307,-0.21371,-0.038699,0,0,-0.37024,-0.3817,0,-1.0062,0,0,0.16114,0.021211,0,0.16253,-0.20393,-0.28133,-0.21371,-44.674,-0.23299,0.073007,-1.8781e-05,0.46,0.88,0
0.38276,-0.030367,0.65006,-0.23546,-0.23716,-0.20679,-0.03227,0,0,-0.37274,-0.39471,0,-0.83902,0,0,0.15262,0.017089,0,0.15356,-0.20403,-0.26859,-0.20679,-44.25,-0.22647,0.063226,-1.2897e-05,0.48,0.88,0
0.37516,-0.03243,0.62027,-0.23033,-0.23044,-0.20026,-0.027494,0,0,-0.39092,-0.39236,0,-0.71484,0,0,0.14644,0.012736,0,0.14698,-0.20289,-0.25788,-0.20026,-44.943,-0.22034,0.05635,-9.1224e-06,0.5,0.88,0
0.36712,-0.033316,0.59149,-0.22599,-0.22365,-0.19404,-0.023839,0,0,-0.41533,-0.38492,0,-0.61981,0,0,0.14215,0.0089347,0,0.14242,-0.20095,-0.24869,-0.19404,-46.405,-0.21456,0.051539,-6.607e-06,0.52,0.88,0
0.35855,-0.033479,0.56341,-0.22219,-0.21565,-0.18769,-0.019706,0,0,-0.4485,-0.36339,0,-0.51235,0,0,0.13874,0.0049838,0,0.13883,-0.19894,-0.23889,-0.18769,-49.715,-0.20851,0.046607,-4.1959e-06,0.54,0.88,0
0.34938,-0.033194,0.53583,-0.21759,-0.20879,-0.1815,-0.017764,0,0,-0.46919,-0.35483,0,-0.46185,0,0,0.13731,0.0026072,0,0.13734,-0.19489,-0.23149,-0.1815,-51.954,-0.20262,0.044823,-3.271e-06,0.56,0.88,0
0.33957,-0.032636,0.5086,-0.21597,-0.20422,-0.17692,-0.0168,0,0,-0.5077,-0.35494,0,-0.43681,0,0,0.13545,0.0010544,0,0.13545,-0.1923,-0.2279,-0.17692,-54.638,-0.19904,0.04529,-2.9823e-06,0.58,0.88,0
0.32907,-0.031909,0.48165,-0.2137,-0.19745,-0.17151,-0.014237,0,0,-0.5485,-0.33722,0,-0.37016,0,0,0.13411,-0.0010435,0,0.13411,-0.18918,-0.22197,-0.17151,-59.858,-0.19422,0.044347,-2.201e-06,0.6,0.88,0
0.31786,-0.031076,0.45489,-0.21038,-0.19081,-0.16585,-0.01242,0,0,-0.57893,-0.32453,0,-0.32292,0,0,0.13339,-0.0025904,0,0.13342,-0.18478,-0.21641,-0.16585,-64.116,-0.18901,0.044243,-1.8605e-06,0.62,0.88,0
0.30591,-0.030171,0.42829,-0.20831,-0.18515,-0.16087,-0.011065,0,0,-0.61674,-0.3157,0,-0.28768,0,0,0.13273,-0.0038011,0,0.13278,-0.18072,-0.21275,-0.16087,-68.15,-0.18478,0.045339,-1.8829e-06,0.64,0.88,0
0.29319,-0.029211,0.4018,-0.20644,-0.17957,-0.15598,-0.0097337,0,0,-0.65596,-0.30662,0,-0.25308,0,0,0.13223,-0.0048911,0,0.13232,-0.17641,-0.2096,-0.15598,-72.04,-0.18066,0.046867,-2.1047e-06,0.66,0.88,0
0.27968,-0.028206,0.3754,-0.20477,-0.17405,-0.15119,-0.0083975,0,0,-0.69659,-0.29726,0,-0.21833,0,0,0.13188,-0.0059081,0,0.13202,-0.17191,-0.20692,-0.15119,-75.666,-0.17667,0.048789,-2.5454e-06,0.68,0.88,0
0.26533,-0.02716,0.34905,-0.2033,-0.1686,-0.14647,-0.0070335,0,0,-0.73869,-0.28764,0,-0.18287,0,0,0.13167,-0.006897,0,0.13185,-0.16723,-0.20467,-0.14647,-78.965,-0.17279,0.051083,-3.2351e-06,0.7,0.88,0
0.25013,-0.026073,0.32273,-0.20203,-0.1632,-0.14184,-0.0056239,0,0,-0.78239,-0.27772,0,-0.14622,0,0,0.1316,-0.0079011,0,0.13184,-0.16241,-0.20283,-0.14184,-81.921,-0.16903,0.053737,-4.2158e-06,0.72,0.88,0
0.23403,-0.024946,0.29641,-0.20099,-0.15787,-0.1373,-0.0041532,0,0,-0.82795,-0.26743,0,-0.10798,0,0,0.13168,-0.0089644,0,0.13199,-0.15747,-0.20138,-0.1373,-84.548,-0.16538,0.056754,-5.5462e-06,0.74,0.88,0
0.21701,-0.023781,0.27005,-0.20021,-0.15259,-0.13284,-0.0026086,0,0,-0.87578,-0.25664,0,-0.067823,0,0,0.13195,-0.010132,0,0.13233,-0.15244,-0.20036,-0.13284,-86.874,-0.16188,0.060155,-7.3099e-06,0.76,0.88,0
0.199,-0.022581,0.24363,-0.19977,-0.14735,-0.1285,-0.00098143,0,0,-0.92654,-0.24506,0,-0.025517,0,0,0.13244,-0.011453,0,0.13293,-0.14733,-0.19979,-0.1285,-88.928,-0.15854,0.063988,-9.6306e-06,0.78,0.88,0
0.17995,-0.02135,0.21708,-0.19976,-0.14214,-0.12428,0.00072676,0,0,-0.98125,-0.23224,0,0.018896,0,0,0.13325,-0.012976,0,0.13388,-0.14213,-0.19977,-0.12428,89.277,-0.15539,0.068335,-1.2694e-05,0.8,0.88,0
0.15975,-0.020102,0.19033,-0.20031,-0.13694,-0.12021,0.0024923,0,0,-1.0413,-0.21751,0,0.0648,0,0,0.13451,-0.014747,0,0.13531,-0.13684,-0.20041,-0.12021,87.751,-0.15249,0.073312,-1.6779e-05,0.82,0.88,0
0.1383,-0.018856,0.16327,-0.20159,-0.1317,-0.11632,0.0042473,0,0,-1.1086,-0.20006,0,0.11043,0,0,0.13645,-0.01679,0,0.13748,-0.13145,-0.20185,-0.11632,86.535,-0.14987,0.079059,-2.2278e-05,0.84,0.88,0
0.11541,-0.017651,0.13575,-0.20374,-0.1264,-0.11262,0.005858,0,0,-1.1846,-0.17921,0,0.15231,0,0,0.13941,-0.019057,0,0.14071,-0.12596,-0.20418,-0.11262,85.693,-0.14759,0.085674,-2.9674e-05,0.86,0.88,0
0.090912,-0.01653,0.10751,-0.20678,-0.12106,-0.10911,0.0071272,0,0,-1.2698,-0.15546,0,0.18531,0,0,0.14386,-0.021302,0,0.14545,-0.12048,-0.20737,-0.10911,85.279,-0.14565,0.093104,-3.9374e-05,0.88,0.88,0
0.064618,-0.015494,0.078206,-0.21055,-0.1158,-0.10572,0.0079747,0,0,-1.3627,-0.13098,0,0.20734,0,0,0.15011,-0.02272,0,0.15186,-0.11513,-0.21121,-0.10572,85.222,-0.14402,0.10111,-5.1547e-05,0.9,0.88,0
0.036404,-0.014307,0.047468,-0.21553,-0.11077,-0.10264,0.0083173,0,0,-1.4676,-0.10574,0,0.21625,0,0,0.15774,-0.021493,0,0.15926,-0.11012,-0.21619,-0.10264,85.489,-0.14298,0.11,-6.7301e-05,0.92,0.88,0
0.0059129,-0.012678,0.015108,-0.20765,-0.13273,-0.11042,0.0037739,0,0,-0.81244,-0.052736,0,0.094824,0,0,0.18135,-0.08932,0,0.21131,-0.1325,-0.20788,-0.11042,87.951,-0.15027,0.091424,-3.9258e-05,0.94,0.88,0
0.0039065,-0.014813,0.01109,-0.23405,-0.26087,-0.15956,-0.004227,0,0,-0.096831,-0.13169,0,-0.01099,0,0,0.23082,-0.13381,0,0.26799,-0.2334,-0.26152,-0.15956,-8.7491,-0.21816,0.091204,2.6844e-05,0.96,0.88,0
0.0020397,-0.016616,0.0058751,-0.23961,-0.2891,-0.16449,-0.00077958,0,0,-0.097662,-0.162,0,-0.0020269,0,0,0.27724,-0.074573,0,0.28627,-0.2396,-0.28911,-0.16449,-0.90229,-0.23107,0.10868,2.2866e-05,0.98,0.88,0
0,-0.017248,0,-0.23187,-0.27953,-0.15342,-0.012151,0,0,-0.10198,-0.16395,0,-0.031593,0,0,0.29375,-6.9389e-18,0,0.29213,-0.22895,-0.28245,-0.15342,-13.508,-0.22161,0.11229,2.1122e-05,1,0.88,0
0,-0.025023,1,-0.4804,-1.5074,-1.5963,-0.038665,0,0,1.4507,0.11562,0,-0.10053,0,0,0.60264,-5.794e-16,0,0.6026,-0.47894,-1.5089,-1.5963,-2.153,-1.1947,1.0763,0.062616,0,0.9,0
0.029014,-0.027034,0.98795,-0.47471,-1.4623,-1.5691,-0.084573,0,0,1.4226,0.13875,0,-0.21989,0,0,0.60641,0.017263,0,0.60664,-0.46753,-1.4695,-1.5691,-4.8593,-1.1687,1.0553,0.058552,0.02,0.9,0
0.056906,-0.032962,0.97574,-0.5017,-1.3719,-1.5378,-0.16502,0,0,1.347,0.2157,0,-0.42904,0,0,0.61654,0.030214,0,0.61731,-0.47146,-1.4021,-1.5378,-10.385,-1.1371,1.0054,0.049009,0.04,0.9,0
0.082893,-0.042279,0.96328,-0.54265,-1.2205,-1.4922,-0.2265,0,0,1.2344,0.3533,0,-0.5889,0,0,0.63008,0.036165,0,0.63117,-0.47393,-1.2892,-1.4922,-16.878,-1.0851,0.93348,0.035205,0.06,0.9,0
0.10628,-0.053723,0.95054,-0.58898,-1.0267,-1.4352,-0.25108,0,0,1.1001,0.53114,0,-0.6528,0,0,0.64355,0.035241,0,0.64455,-0.47476,-1.1409,-1.4352,-24.462,-1.017,0.85232,0.019487,0.08,0.9,0
0.1269,-0.065499,0.93754,-0.63277,-0.84134,-1.3798,-0.23453,0,0,0.97111,0.69997,0,-0.60979,0,0,0.65437,0.029726,0,0.65505,-0.48038,-0.99373,-1.3798,-33.014,-0.95129,0.7815,0.0059367,0.1,0.9,0
0.14513,-0.076018,0.92437,-0.66518,-0.69907,-1.3336,-0.19303,0,0,0.869,0.82494,0,-0.50188,0,0,0.66159,0.022662,0,0.66198,-0.48836,-0.8759,-1.3336,-42.492,-0.8993,0.73288,-0.002896,0.12,0.9,0
0.16166,-0.084388,0.91108,-0.68204,-0.60228,-1.2964,-0.14602,0,0,0.79864,0.90233,0,-0.37966,0,0,0.6656,0.016013,0,0.66579,-0.49079,-0.79353,-1.2964,-52.638,-0.86023,0.7048,-0.0074519,0.14,0.9,0
0.17707,-0.090372,0.89774,-0.68705,-0.53955,-1.2657,-0.10563,0,0,0.75227,0.94403,0,-0.27465,0,0,0.66732,0.010544,0,0.6674,-0.48446,-0.74213,-1.2657,-62.461,-0.83077,0.68953,-0.0092575,0.16,0.9,0
0.19175,-0.094062,0.88439,-0.68622,-0.49962,-1.2401,-0.074318,0,0,0.72009,0.96267,0,-0.19323,0,0,0.6675,0.0062344,0,0.66753,-0.47364,-0.7122,-1.2401,-70.731,-0.80866,0.67939,-0.0096678,0.18,0.9,0
0.20588,-0.095618,0.87104,-0.68461,-0.47713,-1.2196,-0.049951,0,0,0.69544,0.96516,0,-0.12987,0,0,0.66654,0.0029504,0,0.66655,-0.46573,-0.69601,-1.2196,-77.144,-0.79377,0.6691,-0.0094676,0.2,0.9,0
0.21957,-0.095136,0.85772,-0.6839,-0.47001,-1.2039,-0.028797,0,0,0.676,0.95405,0,-0.074872,0,0,0.66449,0.00059669,0,0.66449,-0.4662,-0.68771,-1.2039,-82.465,-0.78594,0.65563,-0.0091017,0.22,0.9,0
0.23292,-0.09261,0.84446,-0.68324,-0.47929,-1.1932,-0.0070315,0,0,0.66297,0.92812,0,-0.018282,0,0,0.66106,-0.00082386,0,0.66107,-0.47904,-0.68349,-1.1932,-88.028,-0.78525,0.63705,-0.0088145,0.24,0.9,0
0.24608,-0.087941,0.83128,-0.67876,-0.50911,-1.1877,0.017956,0,0,0.66155,0.88209,0,0.046685,0,0,0.65555,-0.0011417,0,0.65555,-0.50723,-0.68064,-1.1877,84.024,-0.79184,0.61241,-0.0086853,0.26,0.9,0
0.25938,-0.081043,0.81824,-0.66532,-0.56892,-1.1885,0.045155,0,0,0.68015,0.80547,0,0.1174,0,0,0.64659,0.00017582,0,0.6466,-0.55107,-0.68317,-1.1885,68.435,-0.80758,0.58273,-0.0084292,0.28,0.9,0
0.27329,-0.072035,0.80542,-0.63916,-0.66946,-1.198,0.065702,0,0,0.7265,0.68711,0,0.17083,0,0,0.63221,0.0048043,0,0.63227,-0.58688,-0.72173,-1.198,38.507,-0.83554,0.5561,-0.007112,0.3,0.9,0
0.28844,-0.061511,0.79295,-0.60211,-0.81154,-1.217,0.064105,0,0,0.79942,0.52716,0,0.16667,0,0,0.61008,0.016236,0,0.61039,-0.58405,-0.8296,-1.217,15.737,-0.8769,0.55277,-0.0032666,0.32,0.9,0
0.30527,-0.05059,0.78102,-0.55815,-0.97011,-1.2395,0.027322,0,0,0.88575,0.3502,0,0.071037,0,0,0.57764,0.040059,0,0.57915,-0.55634,-0.97191,-1.2395,3.7779,-0.92258,0.59624,0.00397,0.34,0.9,0
0.32387,-0.040451,0.76985,-0.50568,-1.106,-1.2533,-0.040064,0,0,0.97195,0.19159,0,-0.10417,0,0,0.53083,0.082591,0,0.53734,-0.50302,-1.1086,-1.2533,-3.8016,-0.955,0.68945,0.014364,0.36,0.9,0
0.34415,-0.031622,0.75978,-0.42567,-1.2042,-1.2488,-0.10774,0,0,1.07,0.057876,0,-0.28013,0,0,0.45557,0.14947,0,0.47988,-0.41104,-1.2189,-1.2488,-7.7353,-0.95955,0.82318,0.028522,0.38,0.9,0
0.36667,-0.022551,0.75162,-0.37667,-1.3353,-1.2652,-0.1326,0,0,1.1551,-0.091083,0,-0.34475,0,0,0.33982,0.24257,0,0.42315,-0.35866,-1.3533,-1.2652,-7.732,-0.99238,0.95363,0.043263,0.4,0.9,0
0.39035,-0.010604,0.74619,-0.29643,-0.78818,-0.73579,-0.083421,0,0,0.38352,-0.12384,0,-0.94752,0,0,0.22627,0.15432,0,0.28916,-0.2537,-0.83091,-0.73579,-27.99,-0.6068,0.54534,0.023114,0.42,0.9,0
0.38201,-0.0257,0.71001,-0.24984,-0.25047,-0.22109,-0.056063,0,0,-0.37364,-0.38192,0,-1.4576,0,0,0.17279,0.032161,0,0.17601,-0.19409,-0.30622,-0.22109,-44.837,-0.24047,0.10136,-4.096e-05,0.44,0.9,0
0.3754,-0.034022,0.67707,-0.23803,-0.24631,-0.21301,-0.043801,0,0,-0.32531,-0.43287,0,-1.1388,0,0,0.15843,0.027058,0,0.1608,-0.19817,-0.28617,-0.21301,-42.302,-0.23245,0.081593,-2.4818e-05,0.46,0.9,0
0.369,-0.038261,0.64665,-0.23072,-0.23905,-0.20559,-0.035529,0,0,-0.32662,-0.43489,0,-0.92375,0,0,0.14838,0.020461,0,0.1498,-0.19911,-0.27066,-0.20559,-41.657,-0.22512,0.068533,-1.6034e-05,0.48,0.9,0
0.36234,-0.040277,0.61772,-0.22528,-0.2316,-0.19884,-0.029742,0,0,-0.34373,-0.42596,0,-0.77329,0,0,0.14236,0.014803,0,0.14313,-0.19853,-0.25835,-0.19884,-41.965,-0.21857,0.059667,-1.0909e-05,0.5,0.9,0
0.35525,-0.041014,0.5897,-0.22088,-0.22415,-0.19248,-0.025519,0,0,-0.36922,-0.4117,0,-0.66348,0,0,0.13867,0.010266,0,0.13905,-0.19694,-0.24808,-0.19248,-43.168,-0.2125,0.053514,-7.6864e-06,0.52,0.9,0
0.34757,-0.04098,0.56225,-0.21737,-0.21709,-0.18657,-0.022334,0,0,-0.40048,-0.39688,0,-0.58068,0,0,0.13628,0.0066767,0,0.13644,-0.1949,-0.23957,-0.18657,-45.178,-0.20701,0.049365,-5.5897e-06,0.54,0.9,0
0.33923,-0.040491,0.53519,-0.2144,-0.21044,-0.18097,-0.019849,0,0,-0.43457,-0.38314,0,-0.51606,0,0,0.13465,0.0038229,0,0.1347,-0.19248,-0.23237,-0.18097,-47.846,-0.20194,0.04672,-4.1865e-06,0.56,0.9,0
0.33019,-0.039734,0.50839,-0.21178,-0.20414,-0.17562,-0.017805,0,0,-0.47013,-0.37085,0,-0.46293,0,0,0.1335,0.001524,0,0.1335,-0.18975,-0.22617,-0.17562,-51.053,-0.19718,0.045178,-3.2197e-06,0.58,0.9,0
0.32042,-0.038817,0.48179,-0.20941,-0.1981,-0.17043,-0.01603,0,0,-0.50665,-0.35974,0,-0.41677,0,0,0.13264,-0.00036116,0,0.13264,-0.18676,-0.22075,-0.17043,-54.709,-0.19265,0.044464,-2.5492e-06,0.6,0.9,0
0.30992,-0.037797,0.45534,-0.20722,-0.19226,-0.16538,-0.01441,0,0,-0.544,-0.34944,0,-0.37467,0,0,0.13199,-0.001942,0,0.13201,-0.18351,-0.21598,-0.16538,-58.721,-0.18829,0.044405,-2.1038e-06,0.62,0.9,0
0.29866,-0.036707,0.42899,-0.20522,-0.18656,-0.16043,-0.012874,0,0,-0.5822,-0.33963,0,-0.33472,0,0,0.13149,-0.0033047,0,0.13153,-0.17999,-0.21179,-0.16043,-62.965,-0.18407,0.044893,-1.8537e-06,0.64,0.9,0
0.28663,-0.035562,0.40274,-0.20336,-0.18097,-0.15557,-0.011372,0,0,-0.62128,-0.33011,0,-0.29568,0,0,0.1311,-0.00452,0,0.13118,-0.17621,-0.20813,-0.15557,-67.28,-0.17997,0.045861,-1.7923e-06,0.66,0.9,0
0.27381,-0.034371,0.37655,-0.20166,-0.17547,-0.1508,-0.0098692,0,0,-0.66128,-0.32077,0,-0.2566,0,0,0.13081,-0.0056482,0,0.13093,-0.17217,-0.20497,-0.1508,-71.499,-0.17598,0.047259,-1.9275e-06,0.68,0.9,0
0.26018,-0.033136,0.35041,-0.20011,-0.17006,-0.14609,-0.0083354,0,0,-0.70224,-0.31155,0,-0.21672,0,0,0.13061,-0.0067443,0,0.13079,-0.1679,-0.20227,-0.14609,-75.491,-0.17209,0.049053,-2.2772e-06,0.7,0.9,0
0.24572,-0.031857,0.32431,-0.19872,-0.16473,-0.14146,-0.0067435,0,0,-0.74429,-0.30242,0,-0.17533,0,0,0.1305,-0.0078615,0,0.13073,-0.16344,-0.20001,-0.14146,-79.179,-0.1683,0.051221,-2.8701e-06,0.72,0.9,0
0.23041,-0.030534,0.29822,-0.1975,-0.15948,-0.13692,-0.0050649,0,0,-0.78763,-0.29329,0,-0.13169,0,0,0.13048,-0.0090545,0,0.1308,-0.15881,-0.19817,-0.13692,-82.542,-0.16463,0.053757,-3.7493e-06,0.74,0.9,0
0.21422,-0.029164,0.27211,-0.1965,-0.1543,-0.13245,-0.0032671,0,0,-0.83266,-0.28405,0,-0.084945,0,0,0.13059,-0.010384,0,0.131,-0.15405,-0.19676,-0.13245,-85.599,-0.16109,0.056678,-4.9818e-06,0.76,0.9,0
0.19711,-0.027744,0.24598,-0.19579,-0.1492,-0.1281,-0.0013123,0,0,-0.88004,-0.2744,0,-0.034119,0,0,0.13087,-0.011921,0,0.13141,-0.14917,-0.19583,-0.1281,-88.388,-0.1577,0.060038,-6.6761e-06,0.78,0.9,0
0.17902,-0.026269,0.21977,-0.19548,-0.14416,-0.12387,0.000843,0,0,-0.93096,-0.26381,0,0.021918,0,0,0.13139,-0.013753,0,0.1321,-0.14415,-0.1955,-0.12387,89.059,-0.15451,0.063946,-9.017e-06,0.8,0.9,0
0.15987,-0.02473,0.19342,-0.19577,-0.13915,-0.11982,0.0032404,0,0,-0.98738,-0.25131,0,0.084251,0,0,0.13229,-0.015988,0,0.13325,-0.13897,-0.19596,-0.11982,86.735,-0.15158,0.068598,-1.2328e-05,0.82,0.9,0
0.13952,-0.023125,0.16685,-0.19697,-0.13411,-0.11601,0.0059002,0,0,-1.0525,-0.23531,0,0.15341,0,0,0.13381,-0.018763,0,0.13511,-0.13356,-0.19752,-0.11601,84.684,-0.14903,0.074307,-1.7174e-05,0.84,0.9,0
0.11777,-0.021458,0.1399,-0.19956,-0.12897,-0.11255,0.008764,0,0,-1.1312,-0.21343,0,0.22786,0,0,0.13641,-0.022226,0,0.13821,-0.1279,-0.20064,-0.11255,83.028,-0.14703,0.081505,-2.4518e-05,0.86,0.9,0
0.094273,-0.019767,0.11229,-0.20402,-0.12356,-0.1095,0.01164,0,0,-1.2288,-0.18272,0,0.30264,0,0,0.141,-0.026469,0,0.14348,-0.12191,-0.20567,-0.1095,81.932,-0.14569,0.090605,-3.5799e-05,0.88,0.9,0
0.068616,-0.018093,0.083499,-0.21066,-0.11796,-0.10693,0.01417,0,0,-1.3484,-0.14329,0,0.36842,0,0,0.1491,-0.031218,0,0.15239,-0.11584,-0.21277,-0.10693,81.5,-0.14518,0.10168,-5.2599e-05,0.9,0.9,0
0.040337,-0.016313,0.052649,-0.21902,-0.11204,-0.10458,0.016564,0,0,-1.4877,-0.096958,0,0.43066,0,0,0.16085,-0.034019,0,0.16459,-0.10954,-0.22153,-0.10458,81.397,-0.14522,0.11455,-7.6709e-05,0.92,0.9,0
0.0091081,-0.013248,0.01916,-0.22326,-0.1214,-0.11394,0.017332,0,0,-0.84478,-0.017642,0,0.22926,0,0,0.20249,-0.1495,0,0.26657,-0.11836,-0.2263,-0.11394,80.286,-0.15287,0.11032,-7.0713e-05,0.94,0.9,0
0.0065461,-0.017385,0.014409,-0.2868,-0.28484,-0.1859,0.034102,0,0,-0.13117,-0.12862,0,0.088665,0,0,0.28613,-0.2249,0,0.36625,-0.2517,-0.31994,-0.1859,45.826,-0.25251,0.11608,-2.5214e-06,0.96,0.9,0
0.0038611,-0.019698,0.0077145,-0.30415,-0.26435,-0.17826,0.027181,0,0,-0.16365,-0.11191,0,0.07067,0,0,0.36022,-0.10955,0,0.37414,-0.25056,-0.31794,-0.17826,63.106,-0.24892,0.12098,5.5457e-06,0.98,0.9,0
0,-0.020209,0,-0.31934,-0.2501,-0.17083,-0.0098262,0,0,-0.19306,-0.10305,0,-0.025548,0,0,0.38573,-1.3878e-17,0,0.38315,-0.24873,-0.3207,-0.17083,-82.077,-0.24676,0.12983,7.6954e-06,1,0.9,0
0,-0.021996,1,-0.47883,-1.432,-1.5732,-0.029317,0,0,1.4227,0.18365,0,-0.076225,0,0,0.61569,-5.3603e-16,0,0.61568,-0.47793,-1.4329,-1.5732,-1.7601,-1.1614,1.0323,0.052995,0,0.92,0
0.028455,-0.02352,0.98769,-0.47247,-1.3861,-1.5453,-0.06816,0,0,1.3946,0.20693,0,-0.17722,0,0,0.61797,0.010547,0,0.61805,-0.46741,-1.3911,-1.5453,-4.2433,-1.1346,1.0096,0.048733,0.02,0.92,0
0.055785,-0.027951,0.97528,-0.49852,-1.3023,-1.5155,-0.1297,0,0,1.3221,0.27715,0,-0.33723,0,0,0.6242,0.018805,0,0.62449,-0.47811,-1.3228,-1.5155,-8.9428,-1.1055,0.95574,0.038759,0.04,0.92,0
0.08134,-0.034792,0.96272,-0.53781,-1.1768,-1.4771,-0.1753,0,0,1.2211,0.39038,0,-0.45578,0,0,0.63284,0.023324,0,0.63328,-0.49288,-1.2217,-1.4771,-14.376,-1.0639,0.88464,0.025822,0.06,0.92,0
0.10463,-0.043155,0.94997,-0.58399,-1.0249,-1.4326,-0.19611,0,0,1.1033,0.53003,0,-0.50988,0,0,0.642,0.023925,0,0.64246,-0.50939,-1.0995,-1.4326,-20.827,-1.0138,0.80982,0.012549,0.08,0.92,0
0.12547,-0.051904,0.93704,-0.62978,-0.87288,-1.3878,-0.19054,0,0,0.98547,0.66944,0,-0.49541,0,0,0.65014,0.021553,0,0.6505,-0.52532,-0.97734,-1.3878,-28.733,-0.9635,0.74725,0.0017847,0.1,0.92,0
0.14405,-0.059987,0.92396,-0.66855,-0.74257,-1.3473,-0.16573,0,0,0.88238,0.78614,0,-0.43091,0,0,0.6564,0.017611,0,0.65664,-0.53575,-0.87538,-1.3473,-38.705,-0.91947,0.70593,-0.0050194,0.12,0.92,0
0.16076,-0.066687,0.91078,-0.69672,-0.64265,-1.3126,-0.13273,0,0,0.80064,0.87092,0,-0.34511,0,0,0.66063,0.013329,0,0.66077,-0.53423,-0.80514,-1.3126,-50.756,-0.88399,0.68438,-0.0081952,0.14,0.92,0
0.17607,-0.071668,0.89754,-0.71459,-0.57148,-1.2834,-0.10009,0,0,0.7394,0.92544,0,-0.26023,0,0,0.66312,0.0094384,0,0.66319,-0.52,-0.76607,-1.2834,-62.781,-0.85648,0.67485,-0.0090035,0.16,0.92,0
0.19034,-0.074853,0.88426,-0.72504,-0.52432,-1.2591,-0.071777,0,0,0.69424,0.95517,0,-0.18662,0,0,0.66422,0.0062638,0,0.66425,-0.50129,-0.74806,-1.2591,-72.214,-0.83614,0.66941,-0.0086484,0.18,0.92,0
0.20384,-0.076281,0.87097,-0.73095,-0.49731,-1.2394,-0.047934,0,0,0.66104,0.96478,0,-0.12463,0,0,0.66422,0.0039313,0,0.66423,-0.48786,-0.7404,-1.2394,-78.845,-0.82257,0.66246,-0.0079493,0.2,0.92,0
0.21678,-0.075997,0.85769,-0.73393,-0.48891,-1.2245,-0.026858,0,0,0.6378,0.95632,0,-0.069831,0,0,0.66322,0.0025646,0,0.66323,-0.486,-0.73684,-1.2245,-83.817,-0.81579,0.65047,-0.0073796,0.22,0.92,0
0.22935,-0.074015,0.84444,-0.73365,-0.4998,-1.2145,-0.0066428,0,0,0.62507,0.92907,0,-0.017271,0,0,0.66113,0.002414,0,0.66113,-0.49962,-0.73384,-1.2145,-88.374,-0.81598,0.63123,-0.0071797,0.24,0.92,0
0.24178,-0.070331,0.83124,-0.72845,-0.53304,-1.2097,0.013281,0,0,0.62561,0.87965,0,0.03453,0,0,0.65763,0.0040136,0,0.65765,-0.53214,-0.72935,-1.2097,86.13,-0.82372,0.60361,-0.0073645,0.26,0.92,0
0.25438,-0.064999,0.81813,-0.7164,-0.59295,-1.2109,0.030384,0,0,0.6429,0.80338,0,0.078997,0,0,0.6522,0.008467,0,0.65225,-0.58588,-0.72347,-1.2109,76.896,-0.8401,0.56888,-0.0076233,0.28,0.92,0
0.2675,-0.058245,0.80516,-0.69751,-0.68215,-1.219,0.038163,0,0,0.678,0.69798,0,0.099224,0,0,0.64414,0.017855,0,0.64438,-0.6509,-0.72876,-1.219,50.691,-0.86624,0.5335,-0.0072421,0.3,0.92,0
0.2815,-0.050566,0.79237,-0.67485,-0.79561,-1.2335,0.027533,0,0,0.72625,0.56927,0,0.071586,0,0,0.63279,0.035686,0,0.63374,-0.66887,-0.80159,-1.2335,12.257,-0.90132,0.51136,-0.0053396,0.32,0.92,0
0.29655,-0.042703,0.77984,-0.65338,-0.91799,-1.2512,-0.0084736,0,0,0.77724,0.43324,0,-0.022031,0,0,0.61732,0.067216,0,0.62077,-0.65311,-0.91826,-1.2512,-1.8323,-0.94087,0.51912,-0.0014004,0.34,0.92,0
0.31259,-0.035446,0.76767,-0.63493,-1.0312,-1.2675,-0.069981,0,0,0.82235,0.30723,0,-0.18195,0,0,0.59551,0.12007,0,0.60691,-0.62293,-1.0432,-1.2675,-9.727,-0.97787,0.56675,0.0046549,0.36,0.92,0
0.32944,-0.029214,0.75602,-0.60291,-1.1286,-1.2755,-0.15779,0,0,0.87434,0.19094,0,-0.41026,0,0,0.56176,0.20661,0,0.5969,-0.55918,-1.1723,-1.2755,-15.489,-1.0023,0.67069,0.014267,0.38,0.92,0
0.34756,-0.024438,0.74521,-0.41565,-1.196,-1.2287,-0.21696,0,0,1.0569,0.042555,0,-0.56409,0,0,0.42994,0.35322,0,0.55294,-0.35939,-1.2522,-1.2287,-14.539,-0.94676,0.8813,0.035071,0.4,0.92,0
0.37172,-0.014117,0.73883,-0.33817,-0.9254,-0.78543,-0.19186,0,0,0.37796,-0.33085,0,-1.5397,0,0,0.2524,0.35763,0,0.46121,-0.25663,-1.0069,-0.78543,-29.869,-0.683,0.67557,0.033053,0.42,0.92,0
0.36268,-0.03473,0.70166,-0.25869,-0.27584,-0.23053,-0.075102,0,0,-0.36612,-0.58914,0,-1.9526,0,0,0.17083,0.054025,0,0.17945,-0.19168,-0.34286,-0.23053,-41.742,-0.25502,0.13598,-9.4491e-05,0.44,0.92,0
0.35708,-0.043703,0.67049,-0.23603,-0.25916,-0.21561,-0.053942,0,0,-0.26545,-0.56626,0,-1.4025,0,0,0.14944,0.03752,0,0.15403,-0.19243,-0.30276,-0.21561,-38.947,-0.23693,0.10077,-4.3323e-05,0.46,0.92,0
0.35206,-0.047762,0.64188,-0.22567,-0.2479,-0.20626,-0.041731,0,0,-0.25237,-0.5413,0,-1.085,0,0,0.14036,0.026114,0,0.14273,-0.1936,-0.27997,-0.20626,-37.544,-0.22661,0.080788,-2.4854e-05,0.48,0.92,0
0.34698,-0.049468,0.61435,-0.21903,-0.23721,-0.19831,-0.033947,0,0,-0.26944,-0.5057,0,-0.88263,0,0,0.13624,0.018096,0,0.13741,-0.19298,-0.26326,-0.19831,-37.507,-0.21818,0.067778,-1.5658e-05,0.5,0.92,0
0.34129,-0.049784,0.58738,-0.2151,-0.228,-0.19167,-0.028643,0,0,-0.30462,-0.47233,0,-0.7447,0,0,0.13402,0.012322,0,0.13458,-0.19219,-0.25091,-0.19167,-38.654,-0.21159,0.058983,-1.0536e-05,0.52,0.92,0
0.3348,-0.049354,0.56074,-0.21225,-0.21991,-0.18572,-0.024943,0,0,-0.34482,-0.44448,0,-0.64853,0,0,0.13271,0.0080448,0,0.13295,-0.19084,-0.24132,-0.18572,-40.632,-0.20596,0.053218,-7.4999e-06,0.54,0.92,0
0.32749,-0.048519,0.5343,-0.20985,-0.21267,-0.18019,-0.022179,0,0,-0.38561,-0.42233,0,-0.57666,0,0,0.13186,0.0047862,0,0.13194,-0.18904,-0.23348,-0.18019,-43.178,-0.2009,0.049471,-5.5535e-06,0.56,0.92,0
0.31937,-0.047469,0.50799,-0.20765,-0.20603,-0.17491,-0.019954,0,0,-0.42571,-0.40467,0,-0.51881,0,0,0.13126,0.0022364,0,0.13128,-0.18687,-0.22681,-0.17491,-46.161,-0.1962,0.04708,-4.2147e-06,0.58,0.92,0
0.31046,-0.046299,0.48179,-0.20558,-0.1998,-0.16979,-0.018034,0,0,-0.46517,-0.39014,0,-0.46887,0,0,0.13081,0.00018746,0,0.13081,-0.18443,-0.22095,-0.16979,-49.546,-0.19172,0.045638,-3.2434e-06,0.6,0.92,0
0.30077,-0.045054,0.45567,-0.20359,-0.19385,-0.1648,-0.016284,0,0,-0.50431,-0.37768,0,-0.42338,0,0,0.13045,-0.0015065,0,0.13046,-0.18173,-0.21572,-0.1648,-53.326,-0.18742,0.044915,-2.5248e-06,0.62,0.92,0
0.29029,-0.043756,0.42961,-0.2017,-0.1881,-0.1599,-0.014626,0,0,-0.54341,-0.36657,0,-0.38027,0,0,0.13015,-0.0029526,0,0.13018,-0.17877,-0.21103,-0.1599,-57.47,-0.18324,0.044782,-2.0071e-06,0.64,0.92,0
0.27903,-0.042416,0.40361,-0.1999,-0.1825,-0.15508,-0.013008,0,0,-0.58264,-0.35642,0,-0.33821,0,0,0.12989,-0.0042341,0,0.12995,-0.17555,-0.20685,-0.15508,-61.889,-0.17916,0.045158,-1.6691e-06,0.66,0.92,0
0.26698,-0.041037,0.37766,-0.19818,-0.17702,-0.15032,-0.011393,0,0,-0.62209,-0.34701,0,-0.29621,0,0,0.12966,-0.0054198,0,0.12977,-0.17205,-0.20314,-0.15032,-66.441,-0.17517,0.045983,-1.5052e-06,0.68,0.92,0
0.25415,-0.039622,0.35175,-0.19654,-0.17165,-0.14563,-0.0097453,0,0,-0.6618,-0.33825,0,-0.25338,0,0,0.12946,-0.0065713,0,0.12963,-0.16829,-0.1999,-0.14563,-70.967,-0.17128,0.047212,-1.5191e-06,0.7,0.92,0
0.24051,-0.03817,0.32587,-0.19499,-0.1664,-0.141,-0.0080314,0,0,-0.70183,-0.33012,0,-0.20882,0,0,0.12929,-0.0077477,0,0.12953,-0.1643,-0.19709,-0.141,-75.337,-0.16746,0.048806,-1.7219e-06,0.72,0.92,0
0.22607,-0.036678,0.30003,-0.19354,-0.16126,-0.13644,-0.0062124,0,0,-0.74225,-0.3226,0,-0.16152,0,0,0.12916,-0.0090114,0,0.12948,-0.1601,-0.19469,-0.13644,-79.474,-0.16375,0.050742,-2.1342e-06,0.74,0.92,0
0.21082,-0.035143,0.27421,-0.1922,-0.15624,-0.13195,-0.0042394,0,0,-0.78328,-0.31568,0,-0.11022,0,0,0.12908,-0.010434,0,0.1295,-0.15574,-0.1927,-0.13195,-83.368,-0.16013,0.053017,-2.7921e-06,0.76,0.92,0
0.19474,-0.033557,0.2484,-0.19104,-0.15135,-0.12755,-0.0020464,0,0,-0.82528,-0.30927,0,-0.053206,0,0,0.12907,-0.012103,0,0.12964,-0.15124,-0.19114,-0.12755,-87.056,-0.15665,0.055663,-3.7617e-06,0.78,0.92,0
0.17781,-0.031903,0.22258,-0.19012,-0.14659,-0.12327,0.00046026,0,0,-0.86907,-0.30313,0,0.011967,0,0,0.12918,-0.014136,0,0.12995,-0.14658,-0.19013,-0.12327,89.394,-0.15333,0.058777,-5.172e-06,0.8,0.92,0
0.15998,-0.030154,0.19673,-0.18964,-0.14197,-0.11915,0.003414,0,0,-0.9163,-0.29658,0,0.088764,0,0,0.1295,-0.0167,0,0.13057,-0.14173,-0.18988,-0.11915,85.924,-0.15025,0.062574,-7.2883e-06,0.82,0.92,0
0.14116,-0.028269,0.17078,-0.18994,-0.13746,-0.1153,0.0069937,0,0,-0.97032,-0.28814,0,0.18183,0,0,0.13021,-0.020043,0,0.13173,-0.13655,-0.19085,-0.1153,82.537,-0.14757,0.067489,-1.0673e-05,0.84,0.92,0
0.12117,-0.026188,0.14464,-0.1917,-0.13302,-0.11188,0.011426,0,0,-1.0377,-0.27483,0,0.29708,0,0,0.1317,-0.02455,0,0.13395,-0.13088,-0.19385,-0.11188,79.361,-0.14554,0.074315,-1.6527e-05,0.86,0.92,0
0.099652,-0.023839,0.1181,-0.19638,-0.12868,-0.10933,0.016875,0,0,-1.1317,-0.25155,0,0.43874,0,0,0.13487,-0.030835,0,0.13833,-0.1247,-0.20035,-0.10933,76.752,-0.14479,0.084393,-2.7448e-05,0.88,0.92,0
0.075901,-0.021226,0.090693,-0.20596,-0.12427,-0.10814,0.023548,0,0,-1.2717,-0.20973,0,0.61225,0,0,0.14256,-0.039848,0,0.14799,-0.11797,-0.21226,-0.10814,75.017,-0.14612,0.099571,-4.9039e-05,0.9,0.92,0
0.048785,-0.018186,0.061076,-0.22527,-0.1223,-0.11038,0.032154,0,0,-1.4936,-0.15495,0,0.83601,0,0,0.16178,-0.053056,0,0.1705,-0.11308,-0.23449,-0.11038,74.007,-0.15265,0.12278,-9.4908e-05,0.92,0.92,0
0.016155,-0.013384,0.025981,-0.23847,-0.1553,-0.13242,0.10433,0,0,-0.87204,-0.054076,0,0.72587,0,0,0.23511,-0.33217,0,0.42866,-0.075214,-0.31855,-0.13242,61.228,-0.17539,0.22207,-0.00049865,0.94,0.92,0
0.013904,-0.019958,0.020086,-0.3504,-0.20805,-0.18762,0.11108,0,0,-0.21161,-0.026556,0,0.2888,0,0,0.39309,-0.30725,0,0.49329,-0.1473,-0.41115,-0.18762,61.326,-0.24869,0.24618,-0.00069745,0.96,0.92,0
0.0076909,-0.021092,0.010257,-0.48898,-0.21549,-0.2216,0.072168,0,0,-0.3476,0.0079454,0,0.18764,0,0,0.50214,-0.13586,0,0.51658,-0.19761,-0.50686,-0.2216,76.089,-0.30869,0.29798,-0.0013292,0.98,0.92,0
0,-0.02137,0,-0.50751,-0.19817,-0.2117,-0.0053375,0,0,-0.38455,0.017593,0,-0.013877,0,0,0.51286,0,0,0.50992,-0.19808,-0.5076,-0.2117,-89.012,-0.30579,0.30294,-0.0014181,1,0.92,0
0,-0.017677,1,-0.48425,-1.3712,-1.5566,-0.020758,0,0,1.3941,0.24112,0,-0.053969,0,0,0.62374,3.5887e-16,0,0.62373,-0.48377,-1.3716,-1.5566,-1.34,-1.1373,0.99336,0.044516,0,0.94,0
0.027882,-0.018757,0.98752,-0.47712,-1.3272,-1.5288,-0.050341,0,0,1.3672,0.26208,0,-0.13089,0,0,0.62521,0.0064405,0,0.62524,-0.47415,-1.3302,-1.5288,-3.3771,-1.1111,0.97073,0.04043,0.02,0.94,0
0.054689,-0.021876,0.97499,-0.50148,-1.2524,-1.5012,-0.094979,0,0,1.2996,0.32337,0,-0.24694,0,0,0.62932,0.011657,0,0.62943,-0.48965,-1.2642,-1.5012,-7.0979,-1.085,0.91631,0.030788,0.04,0.94,0
0.079865,-0.026664,0.96235,-0.53858,-1.1457,-1.4676,-0.12784,0,0,1.2078,0.41853,0,-0.33239,0,0,0.6352,0.014827,0,0.63539,-0.51276,-1.1715,-1.4676,-11.419,-1.0506,0.84659,0.018798,0.06,0.94,0
0.103,-0.032522,0.94958,-0.58314,-1.019,-1.4302,-0.1443,0,0,1.1012,0.53456,0,-0.37518,0,0,0.64178,0.015755,0,0.64198,-0.5397,-1.0625,-1.4302,-16.754,-1.0108,0.77511,0.0070794,0.08,0.94,0
0.12391,-0.038722,0.93668,-0.62915,-0.88902,-1.3921,-0.14352,0,0,0.99188,0.65404,0,-0.37315,0,0,0.64805,0.014813,0,0.64823,-0.56549,-0.95269,-1.3921,-23.922,-0.9701,0.71637,-0.0020621,0.1,0.94,0
0.14267,-0.044572,0.92366,-0.6712,-0.77065,-1.3562,-0.12916,0,0,0.89052,0.76123,0,-0.33582,0,0,0.65337,0.012692,0,0.65349,-0.58252,-0.85933,-1.3562,-34.471,-0.93269,0.67901,-0.0075436,0.12,0.94,0
0.15954,-0.049551,0.91055,-0.70576,-0.67287,-1.3241,-0.10726,0,0,0.80389,0.84664,0,-0.27888,0,0,0.65743,0.010098,0,0.65751,-0.5808,-0.79783,-1.3241,-49.358,-0.90092,0.66206,-0.0096841,0.14,0.94,0
0.17483,-0.053355,0.89736,-0.73179,-0.5985,-1.2965,-0.083395,0,0,0.73406,0.90733,0,-0.21683,0,0,0.66025,0.0075703,0,0.6603,-0.55839,-0.7719,-1.2965,-64.314,-0.87558,0.65782,-0.009597,0.16,0.94,0
0.1889,-0.055855,0.88414,-0.75003,-0.54688,-1.2732,-0.060912,0,0,0.68014,0.94423,0,-0.15837,0,0,0.66199,0.0054555,0,0.66202,-0.53002,-0.76689,-1.2732,-74.525,-0.85671,0.65757,-0.0084734,0.18,0.94,0
0.20204,-0.057027,0.87088,-0.76193,-0.51653,-1.2544,-0.040883,0,0,0.64024,0.95926,0,-0.1063,0,0,0.66284,0.0039863,0,0.66285,-0.5099,-0.76856,-1.2544,-80.786,-0.84429,0.65471,-0.0072017,0.2,0.94,0
0.21451,-0.056883,0.85762,-0.76855,-0.50662,-1.2402,-0.022975,0,0,0.61311,0.95362,0,-0.059735,0,0,0.66297,0.003399,0,0.66298,-0.50462,-0.77055,-1.2402,-85.025,-0.83845,0.6451,-0.0063135,0.22,0.94,0
0.22656,-0.055447,0.84437,-0.77022,-0.51747,-1.2307,-0.0066388,0,0,0.59859,0.92717,0,-0.017261,0,0,0.66251,0.0040627,0,0.66252,-0.51729,-0.77039,-1.2307,-88.496,-0.83945,0.62643,-0.006035,0.24,0.94,0
0.23845,-0.052755,0.83112,-0.76677,-0.55028,-1.2262,0.0077279,0,0,0.59731,0.87874,0,0.020092,0,0,0.6616,0.0066407,0,0.66163,-0.55001,-0.76705,-1.2262,87.958,-0.84776,0.59802,-0.006307,0.26,0.94,0
0.25045,-0.048907,0.8179,-0.7585,-0.60611,-1.2273,0.01792,0,0,0.60942,0.80753,0,0.046591,0,0,0.66043,0.012314,0,0.66053,-0.60403,-0.76058,-1.2273,83.383,-0.86397,0.56159,-0.0067696,0.28,0.94,0
0.26283,-0.044116,0.80471,-0.7473,-0.68371,-1.234,0.01982,0,0,0.63272,0.71538,0,0.051533,0,0,0.65943,0.023074,0,0.6598,-0.67804,-0.75297,-1.234,74.029,-0.88834,0.52255,-0.006823,0.3,0.94,0
0.27576,-0.038741,0.79152,-0.73757,-0.77741,-1.246,0.0086242,0,0,0.66098,0.60919,0,0.022423,0,0,0.65945,0.042081,0,0.6607,-0.73578,-0.77919,-1.246,11.705,-0.92033,0.48997,-0.0058818,0.32,0.94,0
0.28927,-0.03326,0.77833,-0.73676,-0.87729,-1.2625,-0.019011,0,0,0.68352,0.50083,0,-0.04943,0,0,0.66202,0.074159,0,0.66593,-0.73423,-0.87982,-1.2625,-7.5699,-0.95886,0.47264,-0.0037388,0.34,0.94,0
0.3031,-0.028162,0.76504,-0.75595,-0.97407,-1.284,-0.065204,0,0,0.68652,0.40298,0,-0.16953,0,0,0.67022,0.12685,0,0.68151,-0.73795,-0.99207,-1.284,-15.437,-1.0047,0.47332,-0.00065191,0.36,0.94,0
0.31673,-0.023984,0.75152,-0.82236,-1.0745,-1.3206,-0.12938,0,0,0.64767,0.31993,0,-0.33639,0,0,0.68872,0.2136,0,0.71949,-0.76778,-1.1291,-1.3206,-22.873,-1.0725,0.48619,0.0029657,0.38,0.94,0
0.32901,-0.020849,0.7375,-0.95452,-1.2001,-1.3839,-0.26297,0,0,0.55818,0.23888,0,-0.68372,0,0,0.78345,0.36448,0,0.85655,-0.7871,-1.3676,-1.3839,-32.484,-1.1795,0.5888,0.010457,0.4,0.94,0
0.33905,-0.023838,0.72018,-0.84691,-0.93054,-0.92934,-0.32192,0,0,-0.018061,-0.22028,0,-2.1442,0,0,0.6328,0.37005,0,0.74225,-0.56399,-1.2135,-0.92934,-41.955,-0.90226,0.56685,0.0072656,0.42,0.94,0
0.33349,-0.049266,0.68841,-0.7898,-0.34394,-0.71875,-0.18671,0,0,-0.16795,0.16018,0,-1.5116,0,0,0.79908,0.07941,0,0.80549,-0.24783,-0.88591,-0.71875,-56.198,-0.6175,0.58369,0.022394,0.44,0.94,0
0.33234,-0.056672,0.66207,-0.67989,-0.29765,-0.6574,-0.067829,0,0,-0.053168,0.17586,0,-0.85282,0,0,0.71783,0.047693,0,0.72155,-0.2514,-0.72614,-0.6574,-59.38,-0.54498,0.45654,0.013063,0.46,0.94,0
0.33136,-0.059913,0.6362,-0.66138,-0.26117,-0.62667,-0.04161,0,0,-0.082023,0.20177,0,-0.61703,0,0,0.70925,0.029254,0,0.71091,-0.22615,-0.6964,-0.62667,-59.919,-0.51641,0.45062,0.013542,0.48,0.94,0
0.32906,-0.060505,0.61048,-0.67728,-0.24896,-0.61364,-0.028369,0,0,-0.15043,0.22576,0,-0.47707,0,0,0.70712,0.019093,0,0.70789,-0.22207,-0.70416,-0.61364,-60.75,-0.51329,0.45368,0.014053,0.5,0.94,0
0.32535,-0.059908,0.58477,-0.69345,-0.23954,-0.60152,-0.022866,0,0,-0.21728,0.2428,0,-0.39843,0,0,0.7074,0.012606,0,0.70775,-0.21832,-0.71467,-0.60152,-61.738,-0.5115,0.45988,0.014222,0.52,0.94,0
0.32037,-0.058759,0.55904,-0.70589,-0.232,-0.58884,-0.019992,0,0,-0.27668,0.25226,0,-0.34836,0,0,0.70809,0.0081469,0,0.70824,-0.21496,-0.72293,-0.58884,-62.969,-0.50891,0.46513,0.01389,0.54,0.94,0
0.31428,-0.057385,0.53328,-0.71415,-0.22504,-0.57506,-0.018114,0,0,-0.32876,0.25556,0,-0.31245,0,0,0.70865,0.0048938,0,0.7087,-0.21119,-0.72799,-0.57506,-64.36,-0.50475,0.46907,0.013194,0.56,0.94,0
0.30722,-0.055921,0.5075,-0.71935,-0.21834,-0.56043,-0.016517,0,0,-0.37564,0.25456,0,-0.28321,0,0,0.70894,0.0024135,0,0.70895,-0.20705,-0.73064,-0.56043,-65.888,-0.49937,0.47207,0.012252,0.58,0.94,0
0.29925,-0.054422,0.48172,-0.72266,-0.21178,-0.54528,-0.014982,0,0,-0.41927,0.25076,0,-0.25723,0,0,0.70894,0.00045185,0,0.70894,-0.20264,-0.7318,-0.54528,-67.569,-0.49324,0.47463,0.011143,0.6,0.94,0
0.29044,-0.052904,0.45594,-0.72485,-0.20536,-0.52983,-0.013455,0,0,-0.46095,0.24518,0,-0.23292,0,0,0.70869,-0.0011534,0,0.70869,-0.19807,-0.73214,-0.52983,-69.434,-0.48668,0.4771,0.0099116,0.62,0.94,0
0.28081,-0.05137,0.43017,-0.72638,-0.19907,-0.51423,-0.011931,0,0,-0.50144,0.2384,0,-0.20951,0,0,0.7082,-0.0025147,0,0.70822,-0.19338,-0.73207,-0.51423,-71.497,-0.47989,0.47973,0.0085815,0.64,0.94,0
0.27039,-0.049819,0.40443,-0.7275,-0.19291,-0.49856,-0.010406,0,0,-0.54113,0.23077,0,-0.18648,0,0,0.70751,-0.0037161,0,0.70754,-0.18861,-0.7318,-0.49856,-73.745,-0.47299,0.4826,0.0071664,0.66,0.94,0
0.25917,-0.048252,0.37872,-0.7283,-0.18688,-0.48285,-0.0088676,0,0,-0.58017,0.22245,0,-0.16341,0,0,0.70662,-0.0048254,0,0.70668,-0.18375,-0.73143,-0.48285,-76.128,-0.46601,0.48575,0.0056762,0.68,0.94,0
0.24718,-0.046666,0.35304,-0.72883,-0.18097,-0.46711,-0.007297,0,0,-0.6186,0.2135,0,-0.13986,0,0,0.70556,-0.0059023,0,0.70564,-0.17881,-0.73099,-0.46711,-78.576,-0.45897,0.48915,0.0041196,0.7,0.94,0
0.23443,-0.045062,0.32741,-0.72906,-0.17519,-0.45135,-0.0056675,0,0,-0.6564,0.20393,0,-0.11537,0,0,0.70431,-0.0070044,0,0.70444,-0.17381,-0.73044,-0.45135,-81.016,-0.45187,0.49275,0.0025057,0.72,0.94,0
0.22092,-0.043438,0.30182,-0.72894,-0.16955,-0.43555,-0.0039451,0,0,-0.69348,0.19371,0,-0.089356,0,0,0.70288,-0.0081928,0,0.70305,-0.16876,-0.72973,-0.43555,-83.393,-0.44468,0.49648,0.00084449,0.74,0.94,0
0.20669,-0.041791,0.27629,-0.72841,-0.16403,-0.41969,-0.0020822,0,0,-0.7297,0.18277,0,-0.061082,0,0,0.70125,-0.0095396,0,0.70148,-0.16367,-0.72877,-0.41969,4.3083,-0.43738,0.50025,-0.00085156,0.76,0.94,0
0.19174,-0.040115,0.25082,-0.72736,-0.15867,-0.40376,-7.1505e-07,0,0,-0.76487,0.17105,0,-0.029449,0,0,0.69941,-0.011138,0,0.69972,-0.15857,-0.72745,-0.40376,2.0641,-0.42993,0.50395,-0.0025676,0.78,0.94,0
0.17609,-0.038394,0.22542,-0.72571,-0.1535,-0.38774,0.0024428,0,0,-0.79882,0.15847,0,0.0072909,0,0,0.69735,-0.01312,0,0.69777,-0.15349,-0.72572,-0.38774,89.813,-0.42231,0.50748,-0.0042876,0.8,0.94,0
0.15978,-0.036594,0.2001,-0.72354,-0.14862,-0.37171,0.0055243,0,0,-0.83162,0.14513,0,0.052025,0,0,0.69509,-0.015694,0,0.69569,-0.14846,-0.7237,-0.37171,87.467,-0.41462,0.51089,-0.0060018,0.82,0.94,0
0.14283,-0.034651,0.17487,-0.72148,-0.14427,-0.3559,0.0097853,0,0,-0.86409,0.13152,0,0.10958,0,0,0.69277,-0.019222,0,0.69366,-0.1436,-0.72215,-0.3559,84.947,-0.40722,0.51466,-0.0077283,0.84,0.94,0
0.12522,-0.032452,0.14972,-0.72159,-0.14112,-0.34116,0.016166,0,0,-0.8992,0.11912,0,0.18744,0,0,0.69092,-0.024404,0,0.69228,-0.13934,-0.72337,-0.34116,82.271,-0.40129,0.52035,-0.0095788,0.86,0.94,0
0.10686,-0.029829,0.12462,-0.72854,-0.13995,-0.32909,0.026863,0,0,-0.94416,0.11109,0,0.29918,0,0,0.69137,-0.032676,0,0.69363,-0.13603,-0.73247,-0.32909,79.552,-0.3992,0.53221,-0.011879,0.88,0.94,0
0.087453,-0.026482,0.099438,-0.76093,-0.15036,-0.32808,0.043833,0,0,-1.0231,0.11277,0,0.45622,0,0,0.69782,-0.048172,0,0.70192,-0.14283,-0.76845,-0.32808,77.313,-0.41312,0.55985,-0.016019,0.9,0.94,0
0.065936,-0.022511,0.073871,-0.84975,-0.17131,-0.34695,0.091441,0,0,-1.1884,0.131,0,0.74819,0,0,0.77166,-0.075274,0,0.77796,-0.1538,-0.86726,-0.34695,74.586,-0.456,0.64092,-0.02668,0.92,0.94,0
0.039915,-0.015411,0.043317,-0.72726,-0.29179,-0.32954,0.17877,0,0,-1.1025,0.0034796,0,1.1592,0,0,0.60797,-0.34335,0,0.70629,-0.22673,-0.79232,-0.32954,67.604,-0.44953,0.5219,-0.016341,0.94,0.94,0
0.025806,-0.018447,0.026699,-0.88196,-0.22941,-0.36011,0.15053,0,0,-0.67841,0.16991,0,0.39137,0,0,0.7542,-0.31045,0,0.80711,-0.19636,-0.91501,-0.36011,77.617,-0.4905,0.65237,-0.011288,0.96,0.94,0
0.012779,-0.019381,0.013149,-0.80363,-0.17705,-0.30735,0.076347,0,0,-0.64516,0.1694,0,0.1985,0,0,0.66747,-0.13476,0,0.67808,-0.16788,-0.8128,-0.30735,83.152,-0.42934,0.58773,-0.0084803,0.98,0.94,0
0,-0.019506,0,-0.76247,-0.14078,-0.27097,-0.0024052,0,0,-0.63894,0.16925,0,-0.0062536,0,0,0.65746,6.9389e-18,0,0.65518,-0.14077,-0.76248,-0.27097,-89.778,-0.39141,0.56791,-0.0077662,1,0.94,0
0,-0.012351,1,-0.49113,-1.3277,-1.5457,-0.013196,0,0,1.3709,0.28329,0,-0.034308,0,0,0.62858,-8.0708e-16,0,0.62857,-0.49092,-1.3279,-1.5457,-0.9034,-1.1215,0.96449,0.038284,0,0.96,0
0.027418,-0.013037,0.98743,-0.48331,-1.2859,-1.5182,-0.032928,0,0,1.3454,0.30196,0,-0.085612,0,0,0.62963,0.0037177,0,0.62964,-0.48196,-1.2873,-1.5182,-2.3453,-1.0958,0.94224,0.03442,0.02,0.96,0
0.053814,-0.015017,0.97481,-0.50617,-1.2184,-1.4922,-0.061965,0,0,1.2818,0.35595,0,-0.16111,0,0,0.63258,0.006798,0,0.63262,-0.50082,-1.2237,-1.4922,-4.9356,-1.0722,0.8881,0.025203,0.04,0.96,0
0.07869,-0.018051,0.96213,-0.54129,-1.1242,-1.4618,-0.083439,0,0,1.1966,0.43888,0,-0.21694,0,0,0.63693,0.0087943,0,0.637,-0.52958,-1.1359,-1.4618,-7.9883,-1.0424,0.81937,0.013937,0.06,0.96,0
0.10168,-0.021772,0.94934,-0.5842,-1.013,-1.4285,-0.094826,0,0,1.0976,0.54012,0,-0.24655,0,0,0.64199,0.0095604,0,0.64206,-0.56416,-1.0331,-1.4285,-11.929,-1.0086,0.74944,0.0031679,0.08,0.96,0
0.12259,-0.025742,0.93645,-0.62978,-0.89704,-1.3945,-0.095697,0,0,0.99413,0.64669,0,-0.24881,0,0,0.64708,0.0092413,0,0.64715,-0.59905,-0.92777,-1.3945,-17.804,-0.97377,0.69232,-0.0050282,0.1,0.96,0
0.14144,-0.029538,0.92346,-0.67333,-0.78768,-1.3618,-0.087894,0,0,0.89496,0.7463,0,-0.22853,0,0,0.65168,0.0081683,0,0.65174,-0.62565,-0.83536,-1.3618,-28.478,-0.94092,0.65686,-0.0097112,0.12,0.96,0
0.15839,-0.032821,0.91038,-0.7114,-0.69328,-1.3318,-0.074651,0,0,0.80649,0.83006,0,-0.19409,0,0,0.65551,0.0067251,0,0.65555,-0.62714,-0.77754,-1.3318,-48.461,-0.91216,0.64278,-0.011163,0.14,0.96,0
0.1737,-0.035375,0.89723,-0.74222,-0.61835,-1.3054,-0.059214,0,0,0.73214,0.89317,0,-0.15396,0,0,0.65848,0.0052498,0,0.6585,-0.5946,-0.76597,-1.3054,-68.143,-0.88866,0.6425,-0.010425,0.16,0.96,0
0.18768,-0.037084,0.88404,-0.76543,-0.56454,-1.283,-0.043868,0,0,0.67288,0.93403,0,-0.11406,0,0,0.66064,0.0040038,0,0.66065,-0.55538,-0.77459,-1.283,-78.204,-0.871,0.64654,-0.0086932,0.18,0.96,0
0.20062,-0.037911,0.87081,-0.78151,-0.53205,-1.2649,-0.029688,0,0,0.62837,0.95268,0,-0.077189,0,0,0.66217,0.0032005,0,0.66217,-0.52856,-0.785,-1.2649,-83.306,-0.85948,0.64738,-0.006928,0.2,0.96,0
0.21281,-0.037852,0.85755,-0.79119,-0.52072,-1.2511,-0.016918,0,0,0.59792,0.94953,0,-0.043986,0,0,0.6633,0.0030721,0,0.6633,-0.51966,-0.79224,-1.2511,-86.435,-0.85434,0.64028,-0.0057179,0.22,0.96,0
0.22454,-0.036928,0.84428,-0.79511,-0.53054,-1.242,-0.0056324,0,0,0.58092,0.92486,0,-0.014644,0,0,0.66437,0.0039606,0,0.66438,-0.53042,-0.79523,-1.242,-88.781,-0.85587,0.6229,-0.0052836,0.24,0.96,0
0.23605,-0.035181,0.83098,-0.79402,-0.56147,-1.2376,0.0036012,0,0,0.57668,0.879,0,0.0093632,0,0,0.66588,0.006437,0,0.66591,-0.56141,-0.79408,-1.2376,89.113,-0.86437,0.59503,-0.0055115,0.26,0.96,0
0.2476,-0.032698,0.81764,-0.78925,-0.61267,-1.2382,0.0093385,0,0,0.58366,0.81321,0,0.02428,0,0,0.66863,0.011457,0,0.66872,-0.61218,-0.78975,-1.2382,86.981,-0.88005,0.55883,-0.0060072,0.28,0.96,0
0.2594,-0.029629,0.80423,-0.78333,-0.68143,-1.2437,0.0094269,0,0,0.59843,0.7309,0,0.02451,0,0,0.67391,0.020567,0,0.67421,-0.68057,-0.78419,-1.2437,84.759,-0.90281,0.5191,-0.0062299,0.3,0.96,0
0.27154,-0.026198,0.79068,-0.78047,-0.76239,-1.2535,0.0018642,0,0,0.61499,0.6385,0,0.004847,0,0,0.68387,0.03617,0,0.6848,-0.7622,-0.78066,-1.2535,84.175,-0.93213,0.48238,-0.0057364,0.32,0.96,0
0.284,-0.02267,0.77688,-0.78667,-0.84794,-1.2673,-0.014209,0,0,0.62477,0.54512,0,-0.036942,0,0,0.70209,0.061919,0,0.70475,-0.78354,-0.85108,-1.2673,-12.441,-0.96729,0.45374,-0.0044416,0.34,0.96,0
0.29653,-0.019327,0.7626,-0.81036,-0.93091,-1.285,-0.037622,0,0,0.61701,0.46029,0,-0.097816,0,0,0.73495,0.10328,0,0.74207,-0.79958,-0.94169,-1.285,-15.985,-1.0088,0.43224,-0.0026867,0.36,0.96,0
0.30868,-0.016417,0.74748,-0.85024,-1.001,-1.3029,-0.071568,0,0,0.5884,0.3924,0,-0.18608,0,0,0.79939,0.16796,0,0.81679,-0.82168,-1.0296,-1.3029,-21.757,-1.0514,0.41799,-0.0008731,0.38,0.96,0
0.32007,-0.014883,0.73063,-0.93312,-1.0823,-1.3353,-0.13484,0,0,0.52277,0.32883,0,-0.3506,0,0,0.93457,0.26632,0,0.97389,-0.85361,-1.1618,-1.3353,-30.525,-1.1169,0.42252,0.0017906,0.4,0.96,0
0.32959,-0.017614,0.7101,-1.0625,-1.0727,-1.3507,-0.25538,0,0,0.37459,0.36134,0,-0.664,0,0,1.1018,0.33968,0,1.1604,-0.81219,-1.3231,-1.3507,-44.428,-1.162,0.52522,0.0073721,0.42,0.96,0
0.33505,-0.028323,0.68655,-1.0656,-0.4559,-1.143,-0.19989,0,0,0.10064,0.89323,0,-0.5197,0,0,1.2274,0.10813,0,1.2293,-0.39621,-1.1253,-1.143,-73.374,-0.88816,0.73809,0.020611,0.44,0.96,0
0.33361,-0.036668,0.661,-1.2167,-0.38963,-1.1429,-0.10121,0,0,-0.095911,0.97924,0,-0.26315,0,0,1.2739,0.051355,0,1.2748,-0.37742,-1.2289,-1.1429,-83.124,-0.91639,0.81188,0.026449,0.46,0.96,0
0.33121,-0.039692,0.6356,-1.2008,-0.31668,-1.0908,-0.038041,0,0,-0.14293,1.0064,0,-0.098905,0,0,1.2723,0.027754,0,1.2726,-0.31504,-1.2024,-1.0908,-87.541,-0.86943,0.83718,0.028339,0.48,0.96,0
0.3279,-0.040438,0.61011,-1.2004,-0.2793,-1.054,-0.018097,0,0,-0.19029,1.0071,0,-0.047052,0,0,1.2767,0.016524,0,1.2768,-0.27894,-1.2007,-1.054,-88.875,-0.84457,0.8579,0.029257,0.5,0.96,0
0.3236,-0.040072,0.58453,-1.2085,-0.25896,-1.0248,-0.012528,0,0,-0.23885,0.99555,0,-0.032574,0,0,1.2807,0.010374,0,1.2807,-0.25879,-1.2087,-1.0248,-89.244,-0.83074,0.87258,0.029079,0.52,0.96,0
0.31834,-0.039263,0.55888,-1.2187,-0.24689,-0.99855,-0.012094,0,0,-0.28616,0.97716,0,-0.031446,0,0,1.2837,0.0065484,0,1.2837,-0.24674,-1.2188,-0.99855,-89.287,-0.82137,0.88281,0.028057,0.54,0.96,0
0.31216,-0.038297,0.53318,-1.228,-0.23817,-0.97303,-0.012575,0,0,-0.33144,0.95532,0,-0.032695,0,0,1.2857,0.0039232,0,1.2857,-0.23801,-1.2282,-0.97303,-89.272,-0.81306,0.89042,0.026475,0.56,0.96,0
0.30508,-0.037287,0.50745,-1.2359,-0.23071,-0.94742,-0.01274,0,0,-0.37497,0.93172,0,-0.033125,0,0,1.2869,0.0019905,0,1.2869,-0.23055,-1.236,-0.94742,-89.274,-0.80466,0.89671,0.024513,0.58,0.96,0
0.29716,-0.036268,0.48171,-1.2424,-0.22367,-0.92153,-0.012403,0,0,-0.41713,0.90721,0,-0.032247,0,0,1.2873,0.00049234,0,1.2873,-0.22352,-1.2426,-0.92153,-89.303,-0.79587,0.90241,0.022275,0.6,0.96,0
0.2884,-0.035247,0.45596,-1.2479,-0.21679,-0.89536,-0.011691,0,0,-0.45828,0.88214,0,-0.030398,0,0,1.2872,-0.00071945,0,1.2872,-0.21665,-1.248,-0.89536,-89.35,-0.78668,0.90794,0.019817,0.62,0.96,0
0.27883,-0.03422,0.43022,-1.2525,-0.20999,-0.86898,-0.010762,0,0,-0.49862,0.85668,0,-0.027981,0,0,1.2865,-0.00174,0,1.2865,-0.20988,-1.2526,-0.86898,-89.409,-0.77716,0.91349,0.01717,0.64,0.96,0
0.26845,-0.033185,0.4045,-1.2565,-0.2033,-0.84243,-0.0097214,0,0,-0.53826,0.83087,0,-0.025276,0,0,1.2853,-0.0026369,0,1.2853,-0.20321,-1.2566,-0.84243,-89.471,-0.7674,0.91915,0.014357,0.66,0.96,0
0.25729,-0.032139,0.37881,-1.2598,-0.19673,-0.81577,-0.0086246,0,0,-0.57726,0.80476,0,-0.022424,0,0,1.2838,-0.0034634,0,1.2838,-0.19665,-1.2599,-0.81577,-89.535,-0.75744,0.92493,0.011396,0.68,0.96,0
0.24536,-0.031082,0.35315,-1.2626,-0.19029,-0.789,-0.0074925,0,0,-0.61563,0.77833,0,-0.019481,0,0,1.2818,-0.0042656,0,1.2818,-0.19023,-1.2626,-0.789,-89.6,-0.74728,0.93081,0.0083039,0.7,0.96,0
0.23267,-0.030012,0.32753,-1.2647,-0.18399,-0.76214,-0.0063271,0,0,-0.65333,0.7516,0,-0.016451,0,0,1.2795,-0.0050879,0,1.2795,-0.18396,-1.2648,-0.76214,-89.665,-0.73695,0.93676,0.0050989,0.72,0.96,0
0.21923,-0.02893,0.30197,-1.2662,-0.17786,-0.73519,-0.005119,0,0,-0.69033,0.72453,0,-0.013309,0,0,1.2768,-0.0059782,0,1.2768,-0.17784,-1.2662,-0.73519,-89.731,-0.72643,0.94268,0.0018003,0.74,0.96,0
0.20506,-0.027832,0.27646,-1.267,-0.17195,-0.70816,-0.0038412,0,0,-0.72655,0.69708,0,-0.0099872,0,0,1.2736,-0.0069945,0,1.2737,-0.17193,-1.2671,-0.70816,-89.799,-0.71571,0.94847,-0.001571,0.76,0.96,0
0.19017,-0.026715,0.25102,-1.2671,-0.16634,-0.68106,-0.0024198,0,0,-0.76188,0.66914,0,-0.0062915,0,0,1.27,-0.0082163,0,1.27,-0.16633,-1.2671,-0.68106,-89.874,-0.70484,0.95399,-0.0049924,0.78,0.96,0
0.17458,-0.025564,0.22566,-1.2665,-0.16125,-0.65398,-0.00065718,0,0,-0.79623,0.64054,0,-0.0017087,0,0,1.2657,-0.0097664,0,1.2658,-0.16125,-1.2665,-0.65398,-89.966,-0.6939,0.95901,-0.0084413,0.8,0.96,0
0.15832,-0.024349,0.20039,-1.2652,-0.15716,-0.6271,0.0019337,0,0,-0.82953,0.61092,0,0.0050276,0,0,1.2608,-0.011862,0,1.2609,-0.15716,-1.2652,-0.6271,89.9,-0.68315,0.96327,-0.011899,0.82,0.96,0
0.1414,-0.023008,0.17523,-1.2638,-0.15493,-0.60086,0.0064241,0,0,-0.86188,0.57972,0,0.016703,0,0,1.2551,-0.014941,0,1.2552,-0.15489,-1.2639,-0.60086,89.668,-0.67321,0.96653,-0.015359,0.84,0.96,0
0.12384,-0.021423,0.15019,-1.2636,-0.15607,-0.57609,0.015049,0,0,-0.89377,0.54603,0,0.039128,0,0,1.2488,-0.019988,0,1.249,-0.15586,-1.2638,-0.57609,89.222,-0.66526,0.96879,-0.01885,0.86,0.96,0
0.10565,-0.019395,0.12528,-1.2653,-0.1622,-0.55353,0.031299,0,0,-0.92531,0.50873,0,0.081378,0,0,1.2424,-0.029461,0,1.2428,-0.16131,-1.2662,-0.55353,88.376,-0.66034,0.97018,-0.022392,0.88,0.96,0
0.086831,-0.016715,0.10049,-1.2627,-0.17489,-0.53177,0.063261,0,0,-0.9502,0.46394,0,0.16448,0,0,1.2418,-0.049919,0,1.2428,-0.17122,-1.2664,-0.53177,86.683,-0.65645,0.96668,-0.025585,0.9,0.96,0
0.067641,-0.012945,0.075603,-1.1703,-0.16782,-0.47704,0.096194,0,0,-0.90124,0.40198,0,0.2501,0,0,1.196,-0.10018,0,1.1977,-0.15867,-1.1794,-0.47704,84.568,-0.60505,0.90463,-0.022758,0.92,0.96,0
0.050782,-0.011149,0.05265,-1.1427,-0.30411,-0.48669,0.12846,0,0,-0.85281,0.23736,0,0.33401,0,0,1.0775,-0.31058,0,1.1283,-0.28487,-1.1619,-0.48669,81.483,-0.6445,0.7956,-0.020361,0.94,0.96,0
0.033529,-0.013161,0.032504,-1.0581,-0.17512,-0.40246,0.071975,0,0,-0.8523,0.29555,0,0.18714,0,0,0.92505,-0.22213,0,0.95244,-0.16929,-1.0639,-0.40246,85.37,-0.54522,0.80381,-0.0193,0.96,0.96,0
0.016689,-0.014316,0.015647,-0.99533,-0.12098,-0.35054,0.041489,0,0,-0.83822,0.29843,0,0.10787,0,0,0.81259,-0.10235,0,0.81796,-0.11901,-0.99729,-0.35054,87.289,-0.48895,0.78844,-0.018047,0.98,0.96,0
0,-0.0146,0,-0.95298,-0.083927,-0.31107,-0.0054464,0,0,-0.83448,0.29529,0,-0.014161,0,0,0.78237,6.9389e-18,0,0.78121,-0.083893,-0.95301,-0.31107,-89.641,-0.44932,0.78073,-0.017644,1,0.96,0
0,-0.0063456,1,-0.4963,-1.302,-1.5395,-0.0063997,0,0,1.3561,0.30878,0,-0.016639,0,0,0.63117,-3.6256e-16,0,0.63117,-0.49625,-1.302,-1.5395,-0.45509,-1.1126,0.94709,0.034557,0,0.98,0
0.027123,-0.0066784,0.98738,-0.48805,-1.2615,-1.5123,-0.016235,0,0,1.3315,0.32593,0,-0.042211,0,0,0.63201,0.0017069,0,0.63201,-0.48771,-1.2619,-1.5123,-1.2019,-1.0873,0.92512,0.030846,0.02,0.98,0
0.053259,-0.0076379,0.97472,-0.50992,-1.1985,-1.4872,-0.030539,0,0,1.2705,0.37541,0,-0.0794,0,0,0.6344,0.0031398,0,0.63441,-0.50856,-1.1998,-1.4872,-2.5346,-1.0652,0.87126,0.021924,0.04,0.98,0
0.077943,-0.0091091,0.962,-0.54373,-1.1114,-1.4585,-0.04117,0,0,1.1892,0.45128,0,-0.10704,0,0,0.63797,0.0041011,0,0.63798,-0.54076,-1.1144,-1.4585,-4.1266,-1.0379,0.80306,0.011089,0.06,0.98,0
0.10083,-0.010917,0.9492,-0.58549,-1.0088,-1.4275,-0.046992,0,0,1.0946,0.54431,0,-0.12218,0,0,0.64223,0.0045164,0,0.64225,-0.58033,-1.0139,-1.4275,-6.2591,-1.0072,0.73372,0.00083186,0.08,0.98,0
0.12173,-0.012854,0.93631,-0.63061,-0.90065,-1.3957,-0.047805,0,0,0.9946,0.64355,0,-0.12429,0,0,0.64666,0.0044346,0,0.64668,-0.62239,-0.90886,-1.3957,-9.7485,-0.97565,0.67714,-0.0068712,0.1,0.98,0
0.14061,-0.01472,0.92333,-0.67476,-0.79676,-1.3648,-0.044393,0,0,0.89704,0.73844,0,-0.11542,0,0,0.65085,0.0039901,0,0.65087,-0.66032,-0.81121,-1.3648,-18.023,-0.94544,0.64246,-0.011128,0.12,0.98,0
0.15761,-0.016349,0.91028,-0.71455,-0.70495,-1.3361,-0.038166,0,0,0.80805,0.82053,0,-0.099233,0,0,0.65451,0.0033517,0,0.65452,-0.67128,-0.74821,-1.3361,-48.585,-0.91854,0.62991,-0.012194,0.14,0.98,0
0.17294,-0.017628,0.89715,-0.74786,-0.63033,-1.3106,-0.030618,0,0,0.73158,0.88436,0,-0.079608,0,0,0.65753,0.0026805,0,0.65754,-0.62283,-0.75535,-1.3106,-76.239,-0.89626,0.63202,-0.011069,0.16,0.98,0
0.18687,-0.018494,0.88398,-0.77378,-0.57564,-1.2888,-0.022882,0,0,0.66953,0.92711,0,-0.059493,0,0,0.65994,0.0021135,0,0.65995,-0.57304,-0.77639,-1.2888,-83.497,-0.87941,0.63884,-0.0089592,0.18,0.98,0
0.19972,-0.01892,0.87076,-0.79233,-0.542,-1.2711,-0.015588,0,0,0.62234,0.94777,0,-0.040529,0,0,0.66191,0.0017737,0,0.66191,-0.54104,-0.7933,-1.2711,-86.45,-0.86846,0.64219,-0.0068701,0.2,0.98,0
0.21177,-0.018902,0.8575,-0.804,-0.52967,-1.2576,-0.0089922,0,0,0.58968,0.94631,0,-0.02338,0,0,0.66373,0.0018001,0,0.66373,-0.52938,-0.80429,-1.2576,-88.125,-0.86376,0.63694,-0.0054297,0.22,0.98,0
0.2233,-0.018452,0.84421,-0.80959,-0.53847,-1.2486,-0.0032594,0,0,0.57074,0.9232,0,-0.0084744,0,0,0.66588,0.0023937,0,0.66588,-0.53843,-0.80963,-1.2486,-89.311,-0.86556,0.62074,-0.0048597,0.24,0.98,0
0.23459,-0.017595,0.83086,-0.81024,-0.56767,-1.2442,0.0012556,0,0,0.5642,0.87953,0,0.0032647,0,0,0.66909,0.0038795,0,0.66911,-0.56767,-0.81024,-1.2442,89.703,-0.87405,0.59369,-0.0050178,0.26,0.98,0
0.24587,-0.016379,0.81744,-0.80761,-0.6156,-1.2444,0.003879,0,0,0.56784,0.81744,0,0.010085,0,0,0.67456,0.0067874,0,0.6746,-0.61552,-0.80769,-1.2444,88.843,-0.88921,0.55819,-0.0054946,0.28,0.98,0
0.25731,-0.01488,0.80388,-0.80412,-0.67904,-1.2488,0.0037676,0,0,0.57812,0.74073,0,0.0097958,0,0,0.68414,0.011959,0,0.68426,-0.67892,-0.80424,-1.2488,88.276,-0.91066,0.51873,-0.0057829,0.3,0.98,0
0.269,-0.013201,0.79008,-0.80279,-0.753,-1.2568,0.00035491,0,0,0.59023,0.65496,0,0.00092276,0,0,0.7008,0.02069,0,0.70115,-0.753,-0.8028,-1.2568,89.592,-0.93754,0.48086,-0.0055045,0.32,0.98,0
0.28092,-0.011456,0.77585,-0.80698,-0.83139,-1.2674,-0.0060228,0,0,0.5985,0.56676,0,-0.015659,0,0,0.72913,0.034909,0,0.73011,-0.80557,-0.8328,-1.2674,-13.129,-0.96858,0.4488,-0.0045851,0.34,0.98,0
0.29294,-0.0097505,0.76091,-0.81844,-0.90682,-1.2785,-0.014705,0,0,0.59807,0.48317,0,-0.038233,0,0,0.77626,0.057212,0,0.77874,-0.81606,-0.9092,-1.2785,-9.203,-1.0012,0.42361,-0.0032768,0.36,0.98,0
0.30484,-0.008288,0.7448,-0.84293,-0.97423,-1.2899,-0.027984,0,0,0.58112,0.41043,0,-0.072759,0,0,0.85176,0.089632,0,0.85748,-0.83722,-0.97995,-1.2899,-11.543,-1.0357,0.4009,-0.0019509,0.38,0.98,0
0.31618,-0.0076952,0.72684,-0.89254,-1.012,-1.2982,-0.058596,0,0,0.52736,0.37206,0,-0.15235,0,0,0.95517,0.12229,0,0.96521,-0.8686,-1.0359,-1.2982,-22.225,-1.0676,0.37506,-0.0010067,0.4,0.98,0
0.32593,-0.0093843,0.70659,-0.98827,-0.94907,-1.2878,-0.10413,0,0,0.38939,0.44034,0,-0.27073,0,0,1.069,0.1147,0,1.0768,-0.86272,-1.0746,-1.2878,-50.329,-1.075,0.36813,-1.3165e-05,0.42,0.98,0
0.33176,-0.013537,0.68408,-1.0579,-0.65254,-1.1972,-0.11953,0,0,0.18113,0.70806,0,-0.31078,0,0,1.1646,0.081204,0,1.168,-0.61992,-1.0905,-1.1972,-74.734,-0.9692,0.53202,0.0066972,0.44,0.98,0
0.33318,-0.017503,0.66001,-1.1407,-0.42437,-1.1295,-0.068478,0,0,-0.014506,0.91671,0,-0.17804,0,0,1.2248,0.035762,0,1.2252,-0.41788,-1.1472,-1.1295,-84.588,-0.89819,0.72063,0.019182,0.46,0.98,0
0.33118,-0.019657,0.63509,-1.2046,-0.33309,-1.0964,-0.027097,0,0,-0.14064,0.99229,0,-0.070451,0,0,1.2547,0.017646,0,1.2548,-0.33225,-1.2054,-1.0964,-88.221,-0.87801,0.82408,0.027054,0.48,0.98,0
0.32755,-0.02022,0.60982,-1.2209,-0.2835,-1.0611,-0.0081743,0,0,-0.20769,1.0109,0,-0.021253,0,0,1.2683,0.0097689,0,1.2683,-0.28342,-1.221,-1.0611,-89.5,-0.85518,0.86874,0.029867,0.5,0.98,0
0.32287,-0.020086,0.58436,-1.227,-0.25975,-1.0304,-0.0036733,0,0,-0.25556,1.0018,0,-0.0095505,0,0,1.2762,0.0058527,0,1.2762,-0.25974,-1.227,-1.0304,-89.782,-0.83903,0.88546,0.029815,0.52,0.98,0
0.31733,-0.019673,0.55877,-1.2302,-0.24683,-1.0019,-0.0038076,0,0,-0.29684,0.98158,0,-0.0098998,0,0,1.281,0.0036057,0,1.281,-0.24682,-1.2302,-1.0019,-89.778,-0.82632,0.89146,0.028496,0.54,0.98,0
0.311,-0.019172,0.53312,-1.2338,-0.23825,-0.97473,-0.004851,0,0,-0.33678,0.95743,0,-0.012613,0,0,1.2839,0.0021471,0,1.2839,-0.23822,-1.2338,-0.97473,-89.721,-0.81559,0.89464,0.026644,0.56,0.98,0
0.30386,-0.018652,0.50742,-1.238,-0.23108,-0.94814,-0.0055828,0,0,-0.3768,0.93218,0,-0.014515,0,0,1.2855,0.0011092,0,1.2855,-0.23105,-1.238,-0.94814,-89.682,-0.80573,0.89784,0.024529,0.58,0.98,0
0.29592,-0.018134,0.4817,-1.2425,-0.22426,-0.92173,-0.0058214,0,0,-0.41702,0.90671,0,-0.015136,0,0,1.2863,0.00032024,0,1.2863,-0.22423,-1.2426,-0.92173,-89.672,-0.79617,0.90178,0.022226,0.6,0.98,0
0.28718,-0.017618,0.45597,-1.247,-0.21751,-0.89533,-0.005684,0,0,-0.45721,0.88117,0,-0.014778,0,0,1.2863,-0.00031066,0,1.2863,-0.21748,-1.2471,-0.89533,-89.684,-0.78663,0.90644,0.019752,0.62,0.98,0
0.27764,-0.017103,0.43024,-1.2513,-0.21078,-0.86886,-0.0053212,0,0,-0.49713,0.8555,0,-0.013835,0,0,1.2857,-0.00083844,0,1.2857,-0.21075,-1.2513,-0.86886,-89.707,-0.77697,0.91161,0.017111,0.64,0.98,0
0.2673,-0.016584,0.40454,-1.2551,-0.20412,-0.84229,-0.0048412,0,0,-0.5366,0.82962,0,-0.012587,0,0,1.2847,-0.0013005,0,1.2847,-0.2041,-1.2551,-0.84229,-89.736,-0.76716,0.91713,0.014312,0.66,0.98,0
0.25617,-0.016061,0.37886,-1.2584,-0.19757,-0.81563,-0.0043056,0,0,-0.57553,0.80349,0,-0.011194,0,0,1.2831,-0.0017256,0,1.2831,-0.19755,-1.2584,-0.81563,-89.767,-0.75718,0.92287,0.011367,0.68,0.98,0
0.24427,-0.015532,0.35321,-1.2611,-0.19115,-0.78888,-0.0037446,0,0,-0.61386,0.77705,0,-0.0097358,0,0,1.2812,-0.002138,0,1.2812,-0.19114,-1.2611,-0.78888,-89.799,-0.74704,0.92873,0.008291,0.7,0.98,0
0.23162,-0.014998,0.32761,-1.2632,-0.18489,-0.76205,-0.0031708,0,0,-0.65156,0.75031,0,-0.0082442,0,0,1.2789,-0.0025614,0,1.2789,-0.18488,-1.2633,-0.76205,-89.832,-0.73673,0.93468,0.0051015,0.72,0.98,0
0.21821,-0.014457,0.30206,-1.2648,-0.17881,-0.73515,-0.0025872,0,0,-0.68858,0.72325,0,-0.0067268,0,0,1.2761,-0.0030216,0,1.2761,-0.1788,-1.2648,-0.73515,-89.864,-0.72626,0.94063,0.0018169,0.74,0.98,0
0.20407,-0.013908,0.27657,-1.2658,-0.17296,-0.7082,-0.0019817,0,0,-0.72489,0.69581,0,-0.0051524,0,0,1.2728,-0.0035507,0,1.2728,-0.17296,-1.2658,-0.7082,-89.896,-0.71565,0.9465,-0.0015436,0.76,0.98,0
0.18922,-0.01335,0.25115,-1.2661,-0.16748,-0.68123,-0.0013018,0,0,-0.76035,0.66787,0,-0.0033847,0,0,1.2689,-0.0041948,0,1.2689,-0.16748,-1.2661,-0.68123,-89.932,-0.70494,0.95211,-0.0049592,0.78,0.98,0
0.17366,-0.012772,0.22581,-1.2656,-0.16269,-0.6543,-0.00038646,0,0,-0.79469,0.63909,0,-0.0010048,0,0,1.2643,-0.0050306,0,1.2643,-0.16269,-1.2656,-0.6543,-89.98,-0.69419,0.95702,-0.0084013,0.8,0.98,0
0.15743,-0.012157,0.20058,-1.2638,-0.15924,-0.62749,0.001177,0,0,-0.82721,0.60873,0,0.0030601,0,0,1.2586,-0.0062048,0,1.2586,-0.15924,-1.2638,-0.62749,89.939,-0.68351,0.96027,-0.011817,0.82,0.98,0
0.14057,-0.011462,0.17547,-1.2597,-0.15845,-0.60091,0.0043258,0,0,-0.85641,0.57519,0,0.011247,0,0,1.2515,-0.0080387,0,1.2515,-0.15843,-1.2597,-0.60091,89.775,-0.67301,0.95984,-0.015093,0.84,0.98,0
0.12317,-0.01061,0.15052,-1.2507,-0.16248,-0.57447,0.010844,0,0,-0.87908,0.53558,0,0.028194,0,0,1.2417,-0.011314,0,1.2417,-0.16238,-1.2508,-0.57447,89.429,-0.66255,0.95181,-0.017968,0.86,0.98,0
0.10541,-0.0094803,0.1258,-1.2325,-0.17509,-0.54807,0.023674,0,0,-0.88974,0.48488,0,0.061553,0,0,1.2271,-0.018087,0,1.2273,-0.17456,-1.233,-0.54807,88.718,-0.65189,0.92979,-0.019966,0.88,0.98,0
0.087582,-0.0079246,0.10143,-1.1915,-0.19635,-0.51779,0.04102,0,0,-0.87583,0.41788,0,0.10665,0,0,1.198,-0.03401,0,1.1985,-0.19466,-1.1932,-0.51779,87.644,-0.63522,0.88251,-0.020014,0.9,0.98,0
0.070374,-0.0064316,0.077878,-1.1553,-0.25073,-0.49968,0.052225,0,0,-0.85227,0.32364,0,0.13579,0,0,1.1424,-0.07443,0,1.1453,-0.24772,-1.1583,-0.49968,86.707,-0.63522,0.81435,-0.019049,0.92,0.98,0
0.053491,-0.0059162,0.055741,-1.1199,-0.25331,-0.4677,0.032335,0,0,-0.84785,0.27871,0,0.084072,0,0,1.0574,-0.10074,0,1.0635,-0.2521,-1.1211,-0.4677,87.866,-0.61363,0.78376,-0.018564,0.94,0.98,0
0.03646,-0.0066254,0.035584,-1.0756,-0.15025,-0.40336,0.019705,0,0,-0.87399,0.32903,0,0.051232,0,0,0.96244,-0.098587,0,0.96892,-0.14983,-1.0761,-0.40336,88.781,-0.54309,0.82908,-0.020307,0.96,0.98,0
0.018532,-0.0074435,0.017243,-1.0636,-0.087166,-0.36248,0.011952,0,0,-0.91149,0.35791,0,0.031075,0,0,0.8896,-0.052884,0,0.89128,-0.08702,-1.0638,-0.36248,89.299,-0.50443,0.87228,-0.022978,0.98,0.98,0
0,-0.0076942,0,-1.0368,-0.043243,-0.324,-0.0048214,0,0,-0.9266,0.36499,0,-0.012536,0,0,0.86216,-8.6736e-18,0,0.86182,-0.04322,-1.0368,-0.324,-89.722,-0.46801,0.88716,-0.024124,1,0.98,0
0,0,1,-0.49819,-1.2934,-1.5375,-5.5511e-17,0,0,1.3511,0.31728,0,-1.4919e-16,0,0,0.63199,-1.7737e-16,0,0.63199,-0.49819,-1.2934,-1.5375,-3.9995e-15,-1.1097,0.9413,0.033324,0,1,0
0.027022,0,0.98736,-0.48979,-1.2535,-1.5103,-0.0019399,0,0,1.3267,0.33392,0,-0.0050437,0,0,0.63277,0.00081838,0,0.63277,-0.48978,-1.2535,-1.5103,-0.14554,-1.0845,0.91945,0.029666,0.02,1,0
0.053069,0,0.97469,-0.51131,-1.1919,-1.4856,-0.0036485,0,0,1.2666,0.38189,0,-0.0094861,0,0,0.63498,0.0015096,0,0.63498,-0.51129,-1.1919,-1.4856,-0.30715,-1.063,0.8657,0.02085,0.04,1,0
0.077687,0,0.96196,-0.54467,-1.1072,-1.4575,-0.0049154,0,0,1.1867,0.45545,0,-0.01278,0,0,0.63831,0.001981,0,0.63831,-0.54463,-1.1072,-1.4575,-0.50063,-1.0365,0.79767,0.01016,0.06,1,0
0.10054,0,0.94916,-0.58603,-1.0073,-1.4271,-0.00562,0,0,1.0935,0.54583,0,-0.014612,0,0,0.64232,0.0021952,0,0.64233,-0.58595,-1.0073,-1.4271,-0.76423,-1.0068,0.7285,6.538e-05,0.08,1,0
0.12143,0,0.93627,-0.63096,-0.90167,-1.3961,-0.0057902,0,0,0.99462,0.64271,0,-0.015055,0,0,0.64655,0.0021716,0,0.64655,-0.63084,-0.90179,-1.3961,-1.2248,-0.97623,0.67204,-0.007484,0.1,1,0
0.14032,0,0.92329,-0.67527,-0.79961,-1.3658,-0.0056052,0,0,0.89764,0.73599,0,-0.014574,0,0,0.6506,0.0019709,0,0.6506,-0.67502,-0.79986,-1.3658,-2.5759,-0.94688,0.63755,-0.011608,0.12,1,0
0.15733,0,0.91024,-0.71557,-0.70874,-1.3375,-0.0053304,0,0,0.80856,0.81744,0,-0.013859,0,0,0.6542,0.001672,0,0.65421,-0.70582,-0.71848,-1.3375,-61.325,-0.92061,0.62548,-0.012551,0.14,1,0
0.17266,0,0.89713,-0.74964,-0.63432,-1.3123,-0.0052136,0,0,0.73148,0.88139,0,-0.013555,0,0,0.65724,0.0013534,0,0.65724,-0.63409,-0.74987,-1.3123,-87.417,-0.89876,0.62839,-0.011299,0.16,1,0
0.18659,0,0.88396,-0.77643,-0.57942,-1.2907,-0.0054089,0,0,0.66856,0.92468,0,-0.014063,0,0,0.65973,0.001085,0,0.65973,-0.57927,-0.77658,-1.2907,-88.428,-0.88219,0.63616,-0.0090612,0.18,1,0
0.19941,0,0.87074,-0.79579,-0.54542,-1.2731,-0.0059573,0,0,0.6205,0.94598,0,-0.015489,0,0,0.66185,0.000932,0,0.66185,-0.54528,-0.79593,-1.2731,-88.638,-0.87144,0.64041,-0.0068585,0.2,1,0
0.21141,0,0.85748,-0.80815,-0.53273,-1.2597,-0.0068235,0,0,0.58708,0.94512,0,-0.017741,0,0,0.66392,0.00096967,0,0.66392,-0.53256,-0.80832,-1.2597,-88.582,-0.86687,0.63585,-0.0053327,0.22,1,0
0.22289,0,0.84418,-0.81434,-0.54111,-1.2508,-0.0079621,0,0,0.56742,0.92261,0,-0.020701,0,0,0.66645,0.0013062,0,0.66645,-0.54088,-0.81457,-1.2508,-88.332,-0.86876,0.62017,-0.0047063,0.24,1,0
0.23411,0,0.83082,-0.8156,-0.56966,-1.2464,-0.0093803,0,0,0.56004,0.87977,0,-0.024389,0,0,0.67028,0.0021143,0,0.67028,-0.5693,-0.81596,-1.2464,-87.819,-0.87722,0.59354,-0.0048286,0.26,1,0
0.24529,0,0.81737,-0.81366,-0.61643,-1.2464,-0.011165,0,0,0.56256,0.81896,0,-0.02903,0,0,0.67671,0.003672,0,0.67672,-0.6158,-0.81429,-1.2464,-86.77,-0.89216,0.55847,-0.0052857,0.28,1,0
0.25661,0,0.80375,-0.81077,-0.6781,-1.2504,-0.013442,0,0,0.57154,0.74401,0,-0.034951,0,0,0.68781,0.0064178,0,0.68784,-0.67675,-0.81212,-1.2504,-84.272,-0.91309,0.51938,-0.0055818,0.3,1,0
0.26815,0,0.78986,-0.80939,-0.74993,-1.2576,-0.016226,0,0,0.58274,0.66004,0,-0.042187,0,0,0.70682,0.011024,0,0.7069,-0.74579,-0.81353,-1.2576,-75.688,-0.93899,0.48158,-0.0053556,0.32,1,0
0.27992,0,0.77548,-0.81129,-0.82608,-1.2667,-0.019204,0,0,0.59202,0.57279,0,-0.04993,0,0,0.73861,0.018462,0,0.73883,-0.79811,-0.83927,-1.2667,-34.469,-0.96802,0.44942,-0.0045306,0.34,1,0
0.29183,0,0.76031,-0.81884,-0.90135,-1.2764,-0.021209,0,0,0.59479,0.48753,0,-0.055143,0,0,0.78967,0.029975,0,0.79022,-0.81371,-0.90648,-1.2764,-13.604,-0.99886,0.42396,-0.0032908,0.36,1,0
0.30371,0,0.74389,-0.8387,-0.96676,-1.2855,-0.021727,0,0,0.58088,0.4144,0,-0.056489,0,0,0.86446,0.045291,0,0.86563,-0.83512,-0.97035,-1.2855,-9.3712,-1.0303,0.40032,-0.002072,0.38,1,0
0.31507,0,0.72573,-0.88937,-0.99511,-1.2911,-0.021392,0,0,0.52222,0.38476,0,-0.055618,0,0,0.95964,0.055372,0,0.96124,-0.88521,-0.99927,-1.2911,-11.015,-1.0585,0.36256,-0.0016557,0.4,1,0
0.3246,0,0.70551,-0.96577,-0.90615,-1.2671,-0.025683,0,0,0.39171,0.46921,0,-0.066775,0,0,1.0607,0.054231,0,1.0621,-0.89661,-0.9753,-1.2671,-69.626,-1.0463,0.33807,-0.0016277,0.42,1,0
0.33074,0,0.68331,-1.0482,-0.68159,-1.2022,-0.019602,0,0,0.20029,0.67683,0,-0.050967,0,0,1.1485,0.038704,0,1.1491,-0.68055,-1.0492,-1.2022,-86.948,-0.97733,0.46448,0.0033266,0.44,1,0
0.33261,0,0.65957,-1.1314,-0.46545,-1.1386,-0.010946,0,0,0.009382,0.87513,0,-0.02846,0,0,1.2104,0.022062,0,1.2106,-0.46527,-1.1316,-1.1386,-89.059,-0.91183,0.66987,0.015432,0.46,1,0
0.33111,0,0.63489,-1.1931,-0.33827,-1.0943,-0.001227,0,0,-0.12841,0.98283,0,-0.0031903,0,0,1.2464,0.0098938,0,1.2464,-0.33827,-1.1931,-1.0943,-89.918,-0.87521,0.80994,0.025926,0.48,1,0
0.32747,0,0.60972,-1.225,-0.28507,-1.0628,-0.0015417,0,0,-0.21098,1.011,0,-0.0040084,0,0,1.2649,0.005352,0,1.2649,-0.28507,-1.225,-1.0628,-89.906,-0.85762,0.87026,0.02992,0.5,1,0
0.32267,0,0.5843,-1.2328,-0.25944,-1.032,-0.0037583,0,0,-0.26106,1.0043,0,-0.0097717,0,0,1.2745,0.0031206,0,1.2745,-0.25943,-1.2328,-1.032,-89.779,-0.84139,0.89011,0.030097,0.52,1,0
0.31703,0,0.55874,-1.2346,-0.2464,-1.003,-0.005772,0,0,-0.30107,0.98365,0,-0.015007,0,0,1.28,0.0018966,0,1.28,-0.24636,-1.2347,-1.003,-89.665,-0.82803,0.89526,0.028704,0.54,1,0
0.31063,0,0.5331,-1.2363,-0.238,-0.97538,-0.0070161,0,0,-0.33918,0.9586,0,-0.018242,0,0,1.2832,0.0011242,0,1.2832,-0.23795,-1.2363,-0.97538,-89.597,-0.81655,0.89685,0.026748,0.56,1,0
0.30346,0,0.50741,-1.2391,-0.23105,-0.94844,-0.0076165,0,0,-0.37783,0.93262,0,-0.019803,0,0,1.2851,0.00058493,0,1.2851,-0.23099,-1.2391,-0.94844,-89.567,-0.80619,0.89878,0.024563,0.58,1,0
0.29552,0,0.48169,-1.2428,-0.22439,-0.92185,-0.0078047,0,0,-0.41722,0.90669,0,-0.020292,0,0,1.2859,0.00017952,0,1.2859,-0.22433,-1.2428,-0.92185,-89.561,-0.79634,0.90192,0.022225,0.6,1,0
0.28678,0,0.45597,-1.2469,-0.21772,-0.89535,-0.0077672,0,0,-0.45698,0.88091,0,-0.020195,0,0,1.286,-0.00014261,0,1.286,-0.21766,-1.2469,-0.89535,-89.568,-0.78665,0.90616,0.019739,0.62,1,0
0.27724,0,0.43025,-1.2509,-0.21104,-0.86883,-0.0076198,0,0,-0.49668,0.85514,0,-0.019811,0,0,1.2855,-0.0004111,0,1.2855,-0.21098,-1.251,-0.86883,-89.58,-0.77692,0.91113,0.017096,0.64,1,0
0.26691,0,0.40455,-1.2546,-0.20439,-0.84225,-0.007424,0,0,-0.53607,0.82922,0,-0.019302,0,0,1.2844,-0.00064568,0,1.2844,-0.20434,-1.2547,-0.84225,-89.595,-0.76709,0.91657,0.0143,0.66,1,0
0.2558,0,0.37888,-1.2579,-0.19785,-0.81559,-0.0072084,0,0,-0.57496,0.80306,0,-0.018742,0,0,1.2829,-0.00086122,0,1.2829,-0.1978,-1.2579,-0.81559,-89.61,-0.7571,0.92227,0.011359,0.68,1,0
0.24391,0,0.35324,-1.2606,-0.19144,-0.78885,-0.0069852,0,0,-0.61328,0.77663,0,-0.018162,0,0,1.281,-0.0010704,0,1.281,-0.1914,-1.2606,-0.78885,-89.626,-0.74696,0.92812,0.0082879,0.7,1,0
0.23126,0,0.32764,-1.2628,-0.18519,-0.76202,-0.0067602,0,0,-0.65098,0.74989,0,-0.017576,0,0,1.2786,-0.0012852,0,1.2786,-0.18514,-1.2628,-0.76202,-89.641,-0.73666,0.93407,0.005103,0.72,1,0
0.21787,0,0.30209,-1.2644,-0.17911,-0.73514,-0.0065393,0,0,-0.68802,0.72283,0,-0.017002,0,0,1.2758,-0.0015193,0,1.2758,-0.17908,-1.2644,-0.73514,-89.655,-0.72622,0.94004,0.0018224,0.74,1,0
0.20374,0,0.2766,-1.2654,-0.17328,-0.70822,-0.0063308,0,0,-0.72437,0.69541,0,-0.01646,0,0,1.2725,-0.0017894,0,1.2725,-0.17325,-1.2655,-0.70822,-89.668,-0.71564,0.94595,-0.0015353,0.76,1,0
0.1889,0,0.25119,-1.2658,-0.16784,-0.68128,-0.0061413,0,0,-0.75987,0.66747,0,-0.015967,0,0,1.2685,-0.0021207,0,1.2685,-0.16781,-1.2658,-0.68128,-89.68,-0.70497,0.95158,-0.004949,0.78,1,0
0.17335,0,0.22586,-1.2652,-0.16314,-0.65438,-0.0059592,0,0,-0.79412,0.63861,0,-0.015494,0,0,1.2637,-0.0025559,0,1.2637,-0.16311,-1.2653,-0.65438,-89.69,-0.69425,0.95637,-0.0083856,0.8,1,0
0.15713,0,0.20064,-1.263,-0.15996,-0.62753,-0.0057038,0,0,-0.82612,0.60784,0,-0.01483,0,0,1.2578,-0.0031806,0,1.2578,-0.15994,-1.263,-0.62753,-89.704,-0.6835,0.959,-0.011775,0.82,1,0
0.1403,0,0.17555,-1.2572,-0.15981,-0.60067,-0.0051166,0,0,-0.85356,0.57312,0,-0.013303,0,0,1.25,-0.0041865,0,1.25,-0.15979,-1.2573,-0.60067,-89.733,-0.67258,0.95656,-0.014949,0.84,1,0
0.12299,0,0.15064,-1.2443,-0.16549,-0.57358,-0.0035112,0,0,-0.87195,0.53052,0,-0.0091292,0,0,1.2388,-0.0060697,0,1.2388,-0.16548,-1.2443,-0.57358,-89.814,-0.66113,0.94349,-0.017546,0.86,1,0
0.10543,0,0.126,-1.2174,-0.18086,-0.54548,0.00036743,0,0,-0.87352,0.47402,0,0.00095531,0,0,1.2197,-0.0099953,0,1.2198,-0.18086,-1.2174,-0.54548,89.98,-0.64792,0.91075,-0.018892,0.88,1,0
0.088048,0,0.10185,-1.1824,-0.21684,-0.52163,0.0089676,0,0,-0.85903,0.39623,0,0.023316,0,0,1.1855,-0.020799,0,1.1857,-0.21676,-1.1825,-0.52163,89.468,-0.6403,0.8551,-0.018896,0.9,1,0
0.071065,0,0.07858,-1.1454,-0.24976,-0.49713,0.013287,0,0,-0.84276,0.32158,0,0.034547,0,0,1.1293,-0.035063,0,1.1298,-0.24956,-1.1456,-0.49713,89.15,-0.63076,0.80147,-0.018185,0.92,1,0
0.054338,0,0.056679,-1.1139,-0.23328,-0.46083,0.016282,0,0,-0.84898,0.29581,0,0.042334,0,0,1.0533,-0.04693,0,1.0543,-0.23298,-1.1142,-0.46083,88.941,-0.60267,0.79225,-0.018597,0.94,1,0
0.037106,0,0.036447,-1.0892,-0.15484,-0.40967,0.012421,0,0,-0.88342,0.33127,0,0.032294,0,0,0.97291,-0.043151,0,0.97386,-0.15468,-1.0894,-0.40967,89.239,-0.55124,0.83687,-0.020949,0.96,1,0
0.019001,0,0.017763,-1.0784,-0.07858,-0.36487,0.0090258,0,0,-0.92764,0.37217,0,0.023467,0,0,0.91118,-0.025979,0,0.91151,-0.078499,-1.0785,-0.36487,89.483,-0.5073,0.892,-0.024189,0.98,1,0
0,0,0,-1.057,-0.030238,-0.32617,-6.9389e-18,0,0,-0.95007,0.38471,0,-1.7347e-17,0,0,0.88814,0,0,0.88807,-0.030238,-1.057,-0.32617,-90,-0.47113,0.91539,-0.025962,1,1,0
