"Displacements:0","Displacements:1","Displacements:2","Stress/Strain:0","Stress/Strain:1","Stress/Strain:2","Stress/Strain:3","Stress/Strain:4","Stress/Strain:5","Stress/Strain:6","Stress/Strain:7","Stress/Strain:8","Stress/Strain:9","Stress/Strain:10","Stress/Strain:11","Stress/Strain:12","Stress/Strain:13","Stress/Strain:14","Stress/Strain:15","Principal Stress:0","Principal Stress:1","Principal Stress:2","Principal Stress:3","Principal Stress:4","Principal Stress:5","Principal Stress:6","nodes:0","nodes:1","nodes:2"
0,0,1,-0.97631,-1.5723,-1.7646,-1.2577e-17,0,0,1.0248,0.24994,0,-2.7756e-17,0,0,0.8973,2.0526e-15,0,0.8973,-0.97631,-1.5723,-1.7646,-1.209e-15,-1.4378,0.7119,0.014074,0,0,0
0.020495,0,0.98205,-0.95675,-1.5319,-1.7286,0.00059484,0,0,1.0035,0.25579,0,0.0015466,0,0,0.90119,-0.0039994,0,0.90119,-0.95675,-1.5319,-1.7286,0.059259,-1.4058,0.69474,0.012679,0.02,0,0
0.040139,0,0.96395,-0.96581,-1.4895,-1.7005,0.0014015,0,0,0.95515,0.27438,0,0.003644,0,0,0.91251,-0.0076704,0,0.91254,-0.96581,-1.4895,-1.7005,0.15334,-1.3853,0.65521,0.0095548,0.04,0,0
0.058701,0,0.94555,-0.98207,-1.4337,-1.6703,0.0024613,0,0,0.89468,0.30757,0,0.0063994,0,0,0.93021,-0.010631,0,0.93027,-0.98205,-1.4337,-1.6703,0.31224,-1.362,0.60565,0.0058223,0.06,0,0
0.075926,0,0.92674,-1.0054,-1.3631,-1.6373,0.0036276,0,0,0.82151,0.35641,0,0.0094316,0,0,0.95252,-0.012494,0,0.9526,-1.0053,-1.3632,-1.6373,0.58087,-1.3353,0.5489,0.001928,0.08,0,0
0.091562,0,0.90745,-1.0342,-1.2794,-1.6015,0.0044941,0,0,0.73756,0.41878,0,0.011685,0,0,0.97715,-0.013015,0,0.97724,-1.0341,-1.2795,-1.6015,1.0496,-1.305,0.49291,-0.0014236,0.1,0,0
0.10543,0,0.88766,-1.0655,-1.1886,-1.5639,0.0047035,0,0,0.64789,0.48788,0,0.012229,0,0,1.0016,-0.012233,0,1.0017,-1.0653,-1.1888,-1.5639,2.1852,-1.2727,0.44973,-0.0035121,0.12,0,0
0.11748,0,0.86739,-1.0957,-1.1001,-1.5261,0.0041695,0,0,0.55956,0.55383,0,0.010841,0,0,1.0238,-0.010471,0,1.0239,-1.0932,-1.1026,-1.5261,31.061,-1.2407,0.4283,-0.0040287,0.14,0,0
0.12781,0,0.84671,-1.1212,-1.0224,-1.4898,0.0032473,0,0,0.47914,0.60759,0,0.0084429,0,0,1.0423,-0.0081857,0,1.0423,-1.0223,-1.1213,-1.4898,88.12,-1.2112,0.42668,-0.0032767,0.16,0,0
0.13664,0,0.8257,-1.1397,-0.96027,-1.4557,0.002341,0,0,0.41076,0.64406,0,0.0060867,0,0,1.0562,-0.0057613,0,1.0562,-0.96024,-1.1398,-1.4557,89.253,-1.1852,0.43447,-0.0019187,0.18,0,0
0.14424,0,0.80446,-1.1503,-0.91461,-1.4239,0.001701,0,0,0.35575,0.66211,0,0.0044227,0,0,1.0654,-0.0033999,0,1.0654,-0.9146,-1.1503,-1.4239,89.587,-1.1629,0.4415,-0.0005685,0.2,0,0
0.15087,0,0.78308,-1.153,-0.88439,-1.3943,0.001279,0,0,0.31364,0.6629,0,0.0033253,0,0,1.07,-0.0011241,0,1.07,-0.88438,-1.1531,-1.3943,89.727,-1.1439,0.44183,0.00041189,0.22,0,0
0.15679,0,0.76166,-1.1487,-0.86819,-1.3667,0.00088924,0,0,0.28344,0.64809,0,0.002312,0,0,1.0699,0.0011388,0,1.0699,-0.86819,-1.1487,-1.3667,89.818,-1.1279,0.43287,0.00089559,0.24,0,0
0.16221,0,0.74028,-1.1378,-0.86487,-1.3411,0.00035643,0,0,0.26425,0.61909,0,0.00092671,0,0,1.0653,0.0034595,0,1.0653,-0.86487,-1.1378,-1.3411,89.925,-1.1146,0.41389,0.00091084,0.26,0,0
0.16736,0,0.71905,-1.1212,-0.87321,-1.3174,-0.00036047,0,0,0.255,0.57742,0,-0.00093721,0,0,1.0561,0.0058107,0,1.0561,-0.87321,-1.1212,-1.3174,-89.917,-1.1039,0.38553,0.00059035,0.28,0,0
0.17241,0,0.69804,-1.1002,-0.8909,-1.2954,-0.001075,0,0,0.2537,0.52582,0,-0.0027949,0,0,1.0425,0.0079913,0,1.0426,-0.89089,-1.1002,-1.2954,-89.706,-1.0955,0.35037,0.00013414,0.3,0,0
0.1775,0,0.67734,-1.0768,-0.91368,-1.2745,-0.001525,0,0,0.25698,0.46906,0,-0.0039649,0,0,1.0254,0.0096331,0,1.0254,-0.91367,-1.0768,-1.2745,-89.465,-1.0883,0.31296,-0.00025919,0.32,0,0
0.18269,0,0.65702,-1.0535,-0.93576,-1.2538,-0.0014908,0,0,0.26043,0.41344,0,-0.0038761,0,0,1.0062,0.010321,0,1.0062,-0.93574,-1.0535,-1.2538,-89.274,-1.081,0.27852,-0.00047901,0.34,0,0
0.18792,0,0.6371,-1.0325,-0.95179,-1.2324,-0.0010462,0,0,0.25988,0.36476,0,-0.0027202,0,0,0.98682,0.0098035,0,0.98687,-0.95177,-1.0325,-1.2324,-89.257,-1.0722,0.25021,-0.00053139,0.36,0,0
0.19309,0,0.61755,-1.0156,-0.95893,-1.2099,-0.00037402,0,0,0.25263,0.32626,0,-0.00097245,0,0,0.96954,0.0081319,0,0.96957,-0.95893,-1.0156,-1.2099,-89.622,-1.0615,0.22799,-0.00048436,0.38,0,0
0.19803,0,0.59832,-1.0036,-0.95698,-1.1865,0.00032707,0,0,0.23776,0.29836,0,0.00085039,0,0,0.95613,0.005654,0,0.95614,-0.95698,-1.0036,-1.1865,89.598,-1.049,0.21012,-0.00039852,0.4,0,0
0.20259,0,0.57931,-0.99659,-0.947,-1.1624,0.0010112,0,0,0.21553,0.27999,0,0.0026291,0,0,0.94769,0.0028514,0,0.9477,-0.94698,-0.99662,-1.1624,88.832,-1.0353,0.19537,-0.0003013,0.42,0,0
0.20665,0,0.56041,-0.99417,-0.93013,-1.1377,0.0016745,0,0,0.18659,0.26983,0,0.0043536,0,0,0.9445,0.00016459,0,0.9445,-0.93009,-0.99421,-1.1377,88.503,-1.0207,0.18412,-0.00019446,0.44,0,0
0.21006,0,0.54153,-0.9958,-0.90717,-1.1124,0.0023222,0,0,0.1516,0.26682,0,0.0060378,0,0,0.94612,-0.0021074,0,0.94612,-0.90711,-0.99587,-1.1124,88.5,-1.0051,0.17835,-6.7563e-05,0.46,0,0
0.21271,0,0.52256,-1.001,-0.87875,-1.0865,0.0029152,0,0,0.11118,0.27004,0,0.0075795,0,0,0.95165,-0.0038132,0,0.95165,-0.87869,-1.001,-1.0865,88.634,-0.98873,0.1809,9.1684e-05,0.48,0,0
0.21451,0,0.50346,-1.0089,-0.84572,-1.0599,0.0033917,0,0,0.066191,0.27838,0,0.0088185,0,0,0.95999,-0.004916,0,0.96,-0.84565,-1.009,-1.0599,88.81,-0.97151,0.19385,0.00028918,0.5,0,0
0.21536,0,0.48417,-1.0189,-0.80928,-1.0326,0.003692,0,0,0.017799,0.29035,0,0.0095991,0,0,0.97002,-0.0054581,0,0.97003,-0.80922,-1.019,-1.0326,88.992,-0.95362,0.21692,0.00051728,0.52,0,0
0.21522,0,0.46466,-1.03,-0.77103,-1.005,0.0037873,0,0,-0.032521,0.30411,0,0.009847,0,0,0.98074,-0.0055334,0,0.98076,-0.77097,-1.03,-1.005,89.162,-0.93532,0.24748,0.00075158,0.54,0,0
0.21406,0,0.44494,-1.0411,-0.73264,-0.97704,0.0036925,0,0,-0.083206,0.31772,0,0.0096005,0,0,0.99134,-0.0052619,0,0.99136,-0.7326,-1.0411,-0.97704,89.314,-0.91691,0.28198,0.00095426,0.56,0,0
0.21189,0,0.42501,-1.0513,-0.69562,-0.94908,0.0034585,0,0,-0.13286,0.32949,0,0.008992,0,0,1.0012,-0.0047646,0,1.0013,-0.69559,-1.0513,-0.94908,89.443,-0.89866,0.31721,0.0010836,0.58,0,0
0.20875,0,0.40489,-1.06,-0.66103,-0.9212,0.0031495,0,0,-0.18046,0.33822,0,0.0081887,0,0,1.0101,-0.0041449,0,1.0101,-0.661,-1.06,-0.9212,89.548,-0.88075,0.35086,0.001105,0.6,0,0
0.20467,0,0.3846,-1.0669,-0.62943,-0.89349,0.0028215,0,0,-0.22539,0.34328,0,0.0073359,0,0,1.0177,-0.0034778,0,1.0177,-0.62941,-1.0669,-0.89349,89.63,-0.86326,0.38157,0.00099803,0.62,0,0
0.19973,0,0.36418,-1.0717,-0.60097,-0.86599,0.0025091,0,0,-0.26747,0.34453,0,0.0065237,0,0,1.024,-0.0028091,0,1.024,-0.60095,-1.0717,-0.86599,89.695,-0.84623,0.40879,0.00075778,0.64,0,0
0.19397,0,0.34364,-1.0746,-0.5755,-0.83868,0.002225,0,0,-0.30675,0.34214,0,0.0057851,0,0,1.029,-0.0021605,0,1.029,-0.57549,-1.0747,-0.83868,89.745,-0.82961,0.4325,0.00039179,0.66,0,0
0.18746,0,0.32302,-1.0758,-0.55272,-0.81156,0.0019655,0,0,-0.34346,0.33649,0,0.0051104,0,0,1.0327,-0.0015364,0,1.0327,-0.55272,-1.0758,-0.81156,89.785,-0.81335,0.45299,-8.4731e-05,0.68,0,0
0.18024,0,0.30233,-1.0753,-0.53225,-0.78459,0.0017186,0,0,-0.3779,0.32804,0,0.0044684,0,0,1.0352,-0.00093116,0,1.0352,-0.53224,-1.0753,-0.78459,89.819,-0.79737,0.47068,-0.00065304,0.7,0,0
0.17234,0,0.28161,-1.0734,-0.51368,-0.75773,0.0014701,0,0,-0.41035,0.31727,0,0.0038223,0,0,1.0364,-0.00033326,0,1.0364,-0.51367,-1.0734,-0.75773,89.85,-0.7816,0.48605,-0.0012938,0.72,0,0
0.16382,0,0.26088,-1.0702,-0.49661,-0.73093,0.0012087,0,0,-0.44111,0.30462,0,0.0031426,0,0,1.0365,0.00027039,0,1.0365,-0.49661,-1.0702,-0.73093,89.879,-0.76593,0.49955,-0.0019888,0.74,0,0
0.1547,0,0.24015,-1.066,-0.48064,-0.70415,0.00092874,0,0,-0.47044,0.29057,0,0.0024147,0,0,1.0353,0.00089162,0,1.0353,-0.48063,-1.066,-0.70415,89.909,-0.75027,0.51167,-0.0027227,0.76,0,0
0.145,0,0.21946,-1.0609,-0.46533,-0.67734,0.00063307,0,0,-0.49866,0.27561,0,0.001646,0,0,1.0329,0.0015375,0,1.0329,-0.46533,-1.0609,-0.67734,89.939,-0.73453,0.52288,-0.0034842,0.78,0,0
0.13475,0,0.19884,-1.0551,-0.45021,-0.65043,0.00033445,0,0,-0.5261,0.26029,0,0.00086956,0,0,1.0291,0.0022056,0,1.0291,-0.45021,-1.0551,-0.65043,89.968,-0.71859,0.53375,-0.0042681,0.8,0,0
0.12396,0,0.1783,-1.0489,-0.43473,-0.62339,5.5392e-05,0,0,-0.55319,0.24527,0,0.00014402,0,0,1.024,0.0028786,0,1.0241,-0.43473,-1.0489,-0.62339,89.995,-0.70235,0.54494,-0.0050777,0.82,0,0
0.11263,0,0.15787,-1.0427,-0.41827,-0.59615,-0.00017583,0,0,-0.58046,0.23125,0,-0.00045715,0,0,1.0177,0.0035183,0,1.0177,-0.41827,-1.0427,-0.59615,-89.984,-0.6857,0.55717,-0.0059268,0.84,0,0
0.10074,0,0.13759,-1.0367,-0.40019,-0.56866,-0.00033319,0,0,-0.60846,0.21901,0,-0.0008663,0,0,1.0102,0.0040629,0,1.0102,-0.40019,-1.0367,-0.56866,-89.97,-0.66852,0.57122,-0.0068404,0.86,0,0
0.088286,0,0.11746,-1.0314,-0.37996,-0.54087,-0.00040387,0,0,-0.63768,0.20919,0,-0.0010501,0,0,1.0019,0.0044301,0,1.0019,-0.37996,-1.0314,-0.54087,-89.965,-0.65074,0.58774,-0.0078523,0.88,0,0
0.075233,0,0.097515,-1.027,-0.35728,-0.5128,-0.00039498,0,0,-0.66846,0.20217,0,-0.0010269,0,0,0.9931,0.0045308,0,0.99311,-0.35728,-1.027,-0.5128,-89.966,-0.63236,0.60709,-0.0089992,0.9,0,0
0.061548,0,0.077741,-1.0236,-0.33223,-0.48449,-0.00033216,0,0,-0.70083,0.19793,0,-0.00086361,0,0,0.98452,0.0042898,0,0.98453,-0.33223,-1.0236,-0.48449,-89.972,-0.61344,0.6292,-0.010312,0.92,0,0
0.0472,0,0.058133,-1.0211,-0.30533,-0.45606,-0.00024684,0,0,-0.73454,0.19595,0,-0.00064179,0,0,0.97681,0.0036694,0,0.97682,-0.30533,-1.0211,-0.45606,-89.98,-0.59416,0.65357,-0.011808,0.94,0,0
0.032166,0,0.038668,-1.0193,-0.27733,-0.42766,-0.00016196,0,0,-0.76914,0.19543,0,-0.0004211,0,0,0.97067,0.0026875,0,0.97067,-0.27733,-1.0193,-0.42766,-89.987,-0.57476,0.67941,-0.013487,0.96,0,0
0.016434,0,0.019307,-1.018,-0.24902,-0.39941,-8.2896e-05,0,0,-0.80415,0.19551,0,-0.00021553,0,0,0.96671,0.0014217,0,0.96671,-0.24902,-1.018,-0.39941,-89.994,-0.55547,0.7059,-0.015337,0.98,0,0
0,0,0,-0.99331,-0.21078,-0.36123,7.3319e-18,0,0,-0.82171,0.19558,0,1.9082e-17,0,0,0.96534,-2.6238e-17,0,0.96534,-0.21078,-0.99331,-0.36123,90,-0.52177,0.71921,-0.016324,1,0,0
0,0.0049987,1,-0.97572,-1.5749,-1.7652,0.0022508,0,0,1.0263,0.24736,0,0.0058521,0,0,0.8933,1.285e-15,0,0.89329,-0.97571,-1.5749,-1.7652,0.21522,-1.4386,0.71363,0.014289,0,0.02,0
0.020526,0.0051158,0.98213,-0.95613,-1.5349,-1.7294,0.005854,0,0,1.0053,0.25294,0,0.01522,0,0,0.89735,-0.0081466,0,0.89739,-0.95608,-1.5349,-1.7294,0.57949,-1.4068,0.69677,0.012917,0.02,0.02,0
0.040211,0.0054876,0.96411,-0.96497,-1.4932,-1.7016,0.012674,0,0,0.95757,0.27085,0,0.032952,0,0,0.90919,-0.015685,0,0.90936,-0.96466,-1.4935,-1.7016,1.3736,-1.3866,0.65802,0.0098538,0.04,0.02,0
0.058829,0.0061513,0.94577,-0.98109,-1.4381,-1.6715,0.020609,0,0,0.89757,0.30344,0,0.053584,0,0,0.9278,-0.021835,0,0.92812,-0.98016,-1.439,-1.6715,2.5767,-1.3636,0.60935,0.0061782,0.06,0.02,0
0.076114,0.0071283,0.92699,-1.0046,-1.3673,-1.6386,0.028578,0,0,0.82415,0.35265,0,0.074302,0,0,0.95133,-0.025716,0,0.95177,-1.0024,-1.3695,-1.6386,4.4776,-1.3368,0.55315,0.0022892,0.08,0.02,0
0.091795,0.0083756,0.90771,-1.0339,-1.2815,-1.6023,0.034282,0,0,0.73896,0.41706,0,0.089134,0,0,0.97728,-0.026743,0,0.97774,-1.0293,-1.2862,-1.6023,7.7387,-1.3059,0.49719,-0.0011226,0.1,0.02,0
0.10567,0.0097576,0.8879,-1.0659,-1.1875,-1.5639,0.035314,0,0,0.64747,0.4893,0,0.091816,0,0,1.0029,-0.02498,0,1.0033,-1.0564,-1.197,-1.5639,15.068,-1.2724,0.45388,-0.0032928,0.12,0.02,0
0.11769,0.011076,0.8676,-1.0965,-1.0964,-1.5255,0.031182,0,0,0.55767,0.55776,0,0.081073,0,0,1.0259,-0.021187,0,1.0261,-1.0653,-1.1276,-1.5255,45.035,-1.2395,0.4324,-0.0038626,0.14,0.02,0
0.12798,0.012152,0.84687,-1.1221,-1.0178,-1.4888,0.02355,0,0,0.47676,0.61238,0,0.061229,0,0,1.0446,-0.0164,0,1.0448,-1.0127,-1.1272,-1.4888,77.851,-1.2095,0.43047,-0.0031412,0.16,0.02,0
0.13676,0.012881,0.82581,-1.1402,-0.95596,-1.4547,0.014924,0,0,0.40875,0.64833,0,0.038802,0,0,1.0586,-0.011459,0,1.0587,-0.95476,-1.1415,-1.4547,85.4,-1.1836,0.43754,-0.0018141,0.18,0.02,0
0.14433,0.013242,0.80453,-1.1504,-0.91104,-1.4229,0.0069191,0,0,0.35436,0.66547,0,0.01799,0,0,1.0677,-0.006741,0,1.0677,-0.91084,-1.1506,-1.4229,88.345,-1.1615,0.44379,-0.00049491,0.2,0.02,0
0.15094,0.013258,0.7831,-1.1529,-0.88134,-1.3934,-6.449e-05,0,0,0.31258,0.66566,0,-0.00016767,0,0,1.0722,-0.0022423,0,1.0722,-0.88134,-1.1529,-1.3934,-89.986,-1.1426,0.44372,0.00047167,0.22,0.02,0
0.15683,0.012962,0.76163,-1.1487,-0.86522,-1.3658,-0.0064216,0,0,0.28224,0.65077,0,-0.016696,0,0,1.0722,0.0022322,0,1.0722,-0.86507,-1.1488,-1.3658,-88.703,-1.1266,0.43494,0.000966,0.24,0.02,0
0.16223,0.012382,0.74021,-1.1382,-0.86177,-1.3402,-0.012579,0,0,0.26263,0.62196,0,-0.032704,0,0,1.0676,0.0068718,0,1.0677,-0.86119,-1.1387,-1.3402,-87.4,-1.1134,0.41657,0.001006,0.26,0.02,0
0.16734,0.011548,0.71893,-1.1218,-0.87023,-1.3166,-0.018367,0,0,0.25313,0.58021,0,-0.047755,0,0,1.0583,0.011668,0,1.0584,-0.86889,-1.1232,-1.3166,-85.847,-1.1029,0.38887,0.00070348,0.28,0.02,0
0.17235,0.010516,0.69788,-1.1008,-0.88889,-1.2948,-0.022846,0,0,0.25218,0.52767,0,-0.059401,0,0,1.0444,0.016239,0,1.0446,-0.88645,-1.1032,-1.2948,-83.916,-1.0948,0.35385,0.00024294,0.3,0.02,0
0.17742,0.0093812,0.67715,-1.0771,-0.91352,-1.2743,-0.024641,0,0,0.25644,0.46905,0,-0.064066,0,0,1.0266,0.019771,0,1.0268,-0.90989,-1.0807,-1.2743,-81.616,-1.0883,0.31582,-0.00017497,0.32,0.02,0
0.18261,0.0082688,0.65682,-1.0532,-0.93753,-1.2541,-0.023115,0,0,0.26105,0.41147,0,-0.060098,0,0,1.0062,0.021311,0,1.0065,-0.93309,-1.0577,-1.2541,-79.111,-1.0816,0.28027,-0.00042477,0.34,0.02,0
0.18787,0.0072952,0.6369,-1.0318,-0.95459,-1.2328,-0.01891,0,0,0.26134,0.36169,0,-0.049167,0,0,0.98572,0.020242,0,0.98599,-0.95021,-1.0362,-1.2328,-76.95,-1.0731,0.25093,-0.00050206,0.36,0.02,0
0.19306,0.0065251,0.61739,-1.0146,-0.96178,-1.2103,-0.01358,0,0,0.25442,0.32307,0,-0.035308,0,0,0.96746,0.016691,0,0.96764,-0.9585,-1.0179,-1.2103,-76.392,-1.0622,0.22799,-0.00047228,0.38,0.02,0
0.19804,0.0059673,0.5982,-1.0025,-0.95951,-1.1868,-0.0082957,0,0,0.23956,0.2955,0,-0.021569,0,0,0.95349,0.011455,0,0.95357,-0.95797,-1.0041,-1.1868,-79.457,-1.0496,0.20963,-0.00039706,0.4,0.02,0
0.20265,0.0055999,0.57925,-0.99554,-0.94924,-1.1627,-0.0035223,0,0,0.21728,0.27748,0,-0.0091579,0,0,0.94495,0.0056157,0,0.94497,-0.94897,-0.99581,-1.1627,-85.675,-1.0358,0.19457,-0.00030566,0.42,0.02,0
0.20674,0.0053967,0.56041,-0.99317,-0.9322,-1.138,0.00078063,0,0,0.1883,0.26757,0,0.0020296,0,0,0.94202,9.516e-05,0,0.94202,-0.93219,-0.99318,-1.138,89.267,-1.0211,0.18312,-0.00020145,0.44,0.02,0
0.21018,0.0053364,0.54157,-0.9949,-0.90906,-1.1128,0.004678,0,0,0.15321,0.26481,0,0.012163,0,0,0.94413,-0.004516,0,0.94414,-0.90881,-0.99516,-1.1128,86.89,-1.0056,0.17732,-7.4911e-05,0.46,0.02,0
0.21286,0.0054008,0.52264,-1.0002,-0.88036,-1.0868,0.0080786,0,0,0.11257,0.26839,0,0.021004,0,0,0.95024,-0.0079405,0,0.95028,-0.87982,-1.0008,-1.0868,86.161,-0.98913,0.18011,8.611e-05,0.48,0.02,0
0.21468,0.0055676,0.50356,-1.0085,-0.84686,-1.0601,0.010736,0,0,0.067201,0.27728,0,0.027914,0,0,0.95917,-0.010121,0,0.95923,-0.84615,-1.0092,-1.0601,86.216,-0.97183,0.19361,0.00028745,0.5,0.02,0
0.21555,0.0058071,0.48428,-1.0188,-0.80982,-1.0329,0.012382,0,0,0.018313,0.28993,0,0.032194,0,0,0.96971,-0.011154,0,0.96979,-0.80909,-1.0195,-1.0329,86.62,-0.95381,0.21739,0.00052092,0.52,0.02,0
0.21541,0.0060822,0.46477,-1.0301,-0.77094,-1.0051,0.012874,0,0,-0.03252,0.30438,0,0.033473,0,0,0.98084,-0.01124,0,0.98092,-0.77031,-1.0307,-1.0051,87.163,-0.93537,0.2486,0.00076081,0.54,0.02,0
0.21425,0.0063544,0.44504,-1.0414,-0.73204,-0.97708,0.01228,0,0,-0.083634,0.31854,0,0.031929,0,0,0.99173,-0.010633,0,0.9918,-0.73156,-1.0419,-0.97708,87.73,-0.91684,0.28354,0.0009677,0.56,0.02,0
0.21207,0.0065897,0.4251,-1.0518,-0.69469,-0.94905,0.010854,0,0,-0.13357,0.33066,0,0.02822,0,0,1.0018,-0.0095851,0,1.0019,-0.69436,-1.0521,-0.94905,88.261,-0.89851,0.31896,0.0010988,0.58,0.02,0
0.20891,0.0067644,0.40497,-1.0606,-0.65995,-0.92113,0.0089347,0,0,-0.18129,0.33953,0,0.02323,0,0,1.0108,-0.0083083,0,1.0108,-0.65975,-1.0608,-0.92113,88.723,-0.88055,0.35259,0.0011195,0.6,0.02,0
0.20482,0.0068657,0.38467,-1.0674,-0.62835,-0.89341,0.0068379,0,0,-0.22623,0.34456,0,0.017778,0,0,1.0184,-0.0069523,0,1.0184,-0.62825,-1.0675,-0.89341,89.108,-0.86306,0.38314,0.0010101,0.62,0.02,0
0.19986,0.0068905,0.36423,-1.0722,-0.59998,-0.8659,0.0047886,0,0,-0.26824,0.3457,0,0.01245,0,0,1.0247,-0.0056055,0,1.0247,-0.59993,-1.0723,-0.8659,89.419,-0.84604,0.41016,0.00076674,0.64,0.02,0
0.19409,0.0068427,0.34368,-1.0751,-0.57463,-0.8386,0.0029088,0,0,-0.30745,0.34317,0,0.0075629,0,0,1.0296,-0.004307,0,1.0296,-0.57461,-1.0751,-0.8386,89.667,-0.82945,0.43368,0.00039755,0.66,0.02,0
0.18756,0.0067298,0.32305,-1.0762,-0.55196,-0.8115,0.0012388,0,0,-0.34412,0.3374,0,0.0032208,0,0,1.0333,-0.0030627,0,1.0333,-0.55195,-1.0762,-0.8115,89.865,-0.81322,0.45402,-8.2067e-05,0.68,0.02,0
0.18032,0.0065609,0.30235,-1.0757,-0.53158,-0.78454,-0.00022999,0,0,-0.37854,0.32886,0,-0.00059797,0,0,1.0358,-0.0018583,0,1.0358,-0.53158,-1.0757,-0.78454,-89.976,-0.79728,0.47164,-0.00065352,0.7,0.02,0
0.17242,0.0063453,0.28162,-1.0739,-0.51308,-0.7577,-0.001525,0,0,-0.41101,0.31801,0,-0.0039649,0,0,1.037,-0.0006696,0,1.037,-0.51307,-1.0739,-0.7577,-89.844,-0.78155,0.48698,-0.0012977,0.72,0.02,0
0.16388,0.0060924,0.26087,-1.0708,-0.49607,-0.73093,-0.0026709,0,0,-0.44181,0.30531,0,-0.0069443,0,0,1.0371,0.00053126,0,1.0371,-0.49606,-1.0708,-0.73093,-89.734,-0.76593,0.5005,-0.0019966,0.74,0.02,0
0.15475,0.0058114,0.24013,-1.0666,-0.48016,-0.70417,-0.0036745,0,0,-0.47119,0.29121,0,-0.0095537,0,0,1.036,0.0017695,0,1.036,-0.48014,-1.0667,-0.70417,-89.641,-0.75032,0.51263,-0.0027348,0.76,0.02,0
0.14504,0.0055122,0.21943,-1.0615,-0.46494,-0.67738,-0.0045145,0,0,-0.49943,0.27618,0,-0.011738,0,0,1.0335,0.0030613,0,1.0335,-0.4649,-1.0616,-0.67738,-89.567,-0.73462,0.52383,-0.0035004,0.78,0.02,0
0.13477,0.0052059,0.19879,-1.0558,-0.44993,-0.6505,-0.005138,0,0,-0.52685,0.26074,0,-0.013359,0,0,1.0298,0.0044051,0,1.0298,-0.44989,-1.0558,-0.6505,-89.514,-0.71874,0.53463,-0.0042873,0.8,0.02,0
0.12396,0.0049053,0.17824,-1.0495,-0.43462,-0.62348,-0.0054664,0,0,-0.55386,0.24552,0,-0.014212,0,0,1.0247,0.0057694,0,1.0247,-0.43457,-1.0496,-0.62348,-89.491,-0.70254,0.54565,-0.0050977,0.82,0.02,0
0.11262,0.004625,0.1578,-1.0432,-0.41837,-0.59626,-0.0054186,0,0,-0.58097,0.23126,0,-0.014088,0,0,1.0183,0.0070803,0,1.0183,-0.41832,-1.0432,-0.59626,-89.503,-0.68593,0.55763,-0.0059444,0.84,0.02,0
0.10072,0.0043801,0.13751,-1.0371,-0.40052,-0.56878,-0.0049514,0,0,-0.60876,0.21874,0,-0.012874,0,0,1.0107,0.0082126,0,1.0107,-0.40049,-1.0371,-0.56878,-89.554,-0.66879,0.57136,-0.006852,0.86,0.02,0
0.088265,0.0041837,0.11738,-1.0316,-0.38048,-0.541,-0.0041046,0,0,-0.63776,0.20867,0,-0.010672,0,0,1.0021,0.0089956,0,1.0022,-0.38045,-1.0316,-0.541,-89.639,-0.65102,0.58757,-0.0078556,0.88,0.02,0
0.075213,0.0040435,0.097424,-1.027,-0.35788,-0.51289,-0.0030233,0,0,-0.66836,0.20152,0,-0.0078605,0,0,0.99303,0.0092391,0,0.99309,-0.35787,-1.027,-0.51289,-89.741,-0.6326,0.6067,-0.0089941,0.9,0.02,0
0.061531,0.0039586,0.077655,-1.0235,-0.33278,-0.48454,-0.0019273,0,0,-0.70064,0.19728,0,-0.005011,0,0,0.98409,0.0087792,0,0.98414,-0.33278,-1.0235,-0.48454,-89.84,-0.6136,0.62872,-0.010301,0.92,0.02,0
0.047187,0.003919,0.05806,-1.0209,-0.30572,-0.45605,-0.0010311,0,0,-0.73432,0.19543,0,-0.002681,0,0,0.97601,0.0075305,0,0.97605,-0.30572,-1.0209,-0.45605,-89.917,-0.59423,0.65314,-0.011794,0.94,0.02,0
0.032158,0.0039086,0.038615,-1.0191,-0.27753,-0.4276,-0.0004512,0,0,-0.76893,0.19509,0,-0.0011731,0,0,0.96955,0.0055259,0,0.96957,-0.27753,-1.0191,-0.4276,-89.965,-0.57474,0.67907,-0.013473,0.96,0.02,0
0.01643,0.0039102,0.019278,-1.0177,-0.2491,-0.39933,-0.00015952,0,0,-0.80394,0.19531,0,-0.00041476,0,0,0.96536,0.0029265,0,0.96537,-0.2491,-1.0177,-0.39933,-89.988,-0.55539,0.70564,-0.015324,0.98,0.02,0
0,0.0039117,0,-0.9931,-0.21085,-0.36119,2.8183e-05,0,0,-0.82149,0.19543,0,7.3275e-05,0,0,0.96392,4.3368e-19,0,0.96391,-0.21085,-0.9931,-0.36119,89.998,-0.52172,0.71897,-0.01631,1,0.02,0
0,0.0098942,1,-0.97406,-1.5825,-1.767,0.0042994,0,0,1.0308,0.23985,0,0.011178,0,0,0.881,-1.1094e-15,0,0.88098,-0.97403,-1.5825,-1.767,0.40487,-1.4412,0.71867,0.014913,0,0.04,0
0.020615,0.010118,0.98238,-0.95447,-1.5436,-1.7318,0.01125,0,0,1.0105,0.24466,0,0.02925,0,0,0.8855,-0.0168,0,0.88565,-0.95426,-1.5438,-1.7318,1.0936,-1.41,0.70267,0.013612,0.02,0.04,0
0.040421,0.010834,0.96458,-0.96251,-1.5042,-1.7046,0.024614,0,0,0.96471,0.2605,0,0.063997,0,0,0.89882,-0.032687,0,0.89944,-0.96139,-1.5053,-1.7046,2.5963,-1.3904,0.66631,0.010737,0.04,0.04,0
0.059204,0.012138,0.94643,-0.97827,-1.4518,-1.6754,0.040745,0,0,0.90631,0.29078,0,0.10594,0,0,0.92018,-0.046014,0,0.92141,-0.97479,-1.4552,-1.6754,4.8827,-1.3685,0.62057,0.0072686,0.06,0.04,0
0.076674,0.014106,0.92777,-1.0025,-1.3807,-1.6427,0.057906,0,0,0.83234,0.34059,0,0.15055,0,0,0.94761,-0.054577,0,0.94931,-0.99381,-1.3894,-1.6427,8.5113,-1.342,0.56647,0.0034433,0.08,0.04,0
0.092498,0.016682,0.90852,-1.0335,-1.2887,-1.6052,0.070515,0,0,0.74316,0.41145,0,0.18334,0,0,0.97789,-0.05656,0,0.97965,-1.0153,-1.3069,-1.6052,14.465,-1.3091,0.51084,-0.00013601,0.1,0.04,0
0.1064,0.019572,0.88866,-1.0672,-1.1836,-1.5639,0.072601,0,0,0.64572,0.4944,0,0.18876,0,0,1.0072,-0.05211,0,1.0086,-1.0323,-1.2184,-1.5639,25.642,-1.2715,0.46719,-0.0025757,0.12,0.04,0
0.11833,0.022311,0.86823,-1.099,-1.084,-1.5232,0.062688,0,0,0.55138,0.57085,0,0.16299,0,0,1.0324,-0.043238,0,1.0334,-1.0284,-1.1546,-1.5232,48.406,-1.2354,0.44526,-0.0033348,0.14,0.04,0
0.12846,0.024495,0.84736,-1.1246,-1.0033,-1.4857,0.04595,0,0,0.46946,0.62718,0,0.11947,0,0,1.052,-0.032765,0,1.0525,-0.98784,-1.14,-1.4857,71.428,-1.2045,0.4419,-0.0027248,0.16,0.04,0
0.13711,0.025933,0.82615,-1.1414,-0.9433,-1.4516,0.028242,0,0,0.40321,0.66074,0,0.073428,0,0,1.0659,-0.02255,0,1.0661,-0.93936,-1.1454,-1.4516,82.043,-1.1788,0.44641,-0.0015128,0.18,0.04,0
0.14458,0.026619,0.80473,-1.15,-0.90101,-1.42,0.012884,0,0,0.35104,0.67472,0,0.033499,0,0,1.0746,-0.013214,0,1.0747,-0.90035,-1.1507,-1.42,87.046,-1.157,0.45016,-0.00029732,0.2,0.04,0
0.15115,0.026626,0.78317,-1.1519,-0.87276,-1.3906,-6.0079e-05,0,0,0.31028,0.67314,0,-0.00015621,0,0,1.0789,-0.0044626,0,1.0789,-0.87276,-1.1519,-1.3906,-89.988,-1.1384,0.44888,0.00062609,0.22,0.04,0
0.15699,0.026031,0.76157,-1.1483,-0.85678,-1.3631,-0.01187,0,0,0.27923,0.6582,0,-0.030862,0,0,1.0791,0.0042473,0,1.0791,-0.8563,-1.1488,-1.3631,-87.672,-1.1227,0.44063,0.0011569,0.24,0.04,0
0.16232,0.024878,0.74001,-1.1391,-0.85249,-1.3375,-0.023785,0,0,0.25792,0.63049,0,-0.061841,0,0,1.0747,0.013444,0,1.0748,-0.85053,-1.141,-1.3375,-85.288,-1.1097,0.42433,0.0012835,0.26,0.04,0
0.16731,0.023209,0.71858,-1.1239,-0.86078,-1.314,-0.035891,0,0,0.24714,0.58915,0,-0.093316,0,0,1.0655,0.023383,0,1.0657,-0.85597,-1.1287,-1.314,-82.369,-1.0995,0.39904,0.001055,0.28,0.04,0
0.1722,0.021107,0.69739,-1.1028,-0.88186,-1.2928,-0.046006,0,0,0.24695,0.53422,0,-0.11962,0,0,1.0506,0.033408,0,1.0512,-0.87267,-1.112,-1.2928,-78.697,-1.0925,0.36502,0.00059641,0.3,0.04,0
0.17719,0.018762,0.67655,-1.0782,-0.91256,-1.2738,-0.05076,0,0,0.25425,0.46959,0,-0.13198,0,0,1.0305,0.041681,0,1.0314,-0.89825,-1.0925,-1.2738,-74.249,-1.0882,0.32529,0.00010611,0.32,0.04,0
0.18237,0.016459,0.65617,-1.053,-0.9433,-1.255,-0.04767,0,0,0.26273,0.40527,0,-0.12394,0,0,1.0066,0.045533,0,1.0077,-0.92547,-1.0708,-1.255,-69.496,-1.0838,0.28608,-0.00024418,0.34,0.04,0
0.1877,0.014468,0.63629,-1.0299,-0.96347,-1.2343,-0.038634,0,0,0.26573,0.35208,0,-0.10045,0,0,0.9822,0.043263,0,0.98323,-0.94573,-1.0476,-1.2343,-65.343,-1.0759,0.25347,-0.00040397,0.36,0.04,0
0.193,0.012923,0.61688,-1.0117,-0.97052,-1.2116,-0.027334,0,0,0.25977,0.31335,0,-0.071067,0,0,0.96075,0.035139,0,0.96143,-0.9569,-1.0254,-1.2116,-63.506,-1.0646,0.22827,-0.00043072,0.38,0.04,0
0.19809,0.01182,0.59786,-0.99932,-0.96702,-1.1878,-0.016633,0,0,0.24498,0.28696,0,-0.043246,0,0,0.94505,0.023428,0,0.94535,-0.95999,-1.0064,-1.1878,-67.076,-1.0514,0.2085,-0.00038901,0.4,0.04,0
0.2028,0.011099,0.57908,-0.99237,-0.95597,-1.1636,-0.0070603,0,0,0.22258,0.26989,0,-0.018357,0,0,0.93633,0.010769,0,0.93638,-0.95465,-0.99369,-1.1636,-79.397,-1.0373,0.19241,-0.00031567,0.42,0.04,0
0.20699,0.010703,0.56041,-0.99008,-0.93846,-1.139,0.0016148,0,0,0.19355,0.26066,0,0.0041985,0,0,0.93437,-0.00082116,0,0.93436,-0.93841,-0.99014,-1.139,88.21,-1.0225,0.18035,-0.00021981,0.44,0.04,0
0.21054,0.010592,0.54171,-0.9921,-0.91486,-1.1138,0.0095929,0,0,0.15821,0.25861,0,0.024942,0,0,0.93808,-0.010286,0,0.93814,-0.91369,-0.99327,-1.1138,83.025,-1.0069,0.1745,-9.4284e-05,0.46,0.04,0
0.21332,0.010736,0.52288,-0.99796,-0.88531,-1.0879,0.016629,0,0,0.11688,0.26332,0,0.043236,0,0,0.94604,-0.017175,0,0.94621,-0.8829,-1.0004,-1.0879,81.776,-0.99037,0.17813,7.2531e-05,0.48,0.04,0
0.21522,0.011091,0.50387,-1.007,-0.85037,-1.0611,0.022142,0,0,0.070294,0.27392,0,0.05757,0,0,0.95677,-0.021426,0,0.95703,-0.8473,-1.0101,-1.0611,82.106,-0.97282,0.19339,0.00028617,0.5,0.04,0
0.21613,0.011597,0.48461,-1.0183,-0.81143,-1.0335,0.025499,0,0,0.019835,0.28872,0,0.066296,0,0,0.9689,-0.023273,0,0.9692,-0.80833,-1.0214,-1.0335,83.075,-0.9544,0.21936,0.0005365,0.52,0.04,0
0.21601,0.012175,0.46511,-1.0305,-0.77058,-1.0054,0.026377,0,0,-0.032607,0.30532,0,0.068581,0,0,0.98126,-0.023172,0,0.98155,-0.76793,-1.0332,-1.0054,84.264,-0.93551,0.25252,0.00079347,0.54,0.04,0
0.21483,0.012742,0.44536,-1.0426,-0.73009,-0.97716,0.02496,0,0,-0.085028,0.32119,0,0.064897,0,0,0.993,-0.02169,0,0.99325,-0.72811,-1.0445,-0.97716,85.462,-0.9166,0.2887,0.0010126,0.56,0.04,0
0.21261,0.013226,0.42539,-1.0534,-0.69177,-0.94893,0.021857,0,0,-0.13577,0.33431,0,0.056828,0,0,1.0036,-0.019376,0,1.0038,-0.69045,-1.0547,-0.94893,86.553,-0.89802,0.32455,0.0011478,0.58,0.04,0
0.2094,0.013581,0.40522,-1.0623,-0.65667,-0.9209,0.01783,0,0,-0.1838,0.34351,0,0.046358,0,0,1.0127,-0.016674,0,1.0129,-0.65588,-1.0631,-0.9209,87.488,-0.87995,0.35795,0.001165,0.6,0.04,0
0.20526,0.013783,0.38488,-1.0691,-0.62513,-0.89314,0.013546,0,0,-0.2287,0.34841,0,0.03522,0,0,1.0204,-0.013879,0,1.0205,-0.62472,-1.0695,-0.89314,88.254,-0.86244,0.38791,0.0010474,0.62,0.04,0
0.20025,0.013828,0.3644,-1.0737,-0.59704,-0.86563,0.0094435,0,0,-0.27051,0.34917,0,0.024553,0,0,1.0267,-0.011152,0,1.0267,-0.59685,-1.0739,-0.86563,88.865,-0.84546,0.41424,0.00079413,0.64,0.04,0
0.19444,0.013727,0.34381,-1.0764,-0.57204,-0.83835,0.0057341,0,0,-0.3095,0.34621,0,0.014909,0,0,1.0315,-0.0085537,0,1.0316,-0.57198,-1.0765,-0.83835,89.349,-0.82894,0.43716,0.00041514,0.66,0.04,0
0.18787,0.013496,0.32314,-1.0775,-0.5497,-0.81129,0.0024665,0,0,-0.34603,0.34006,0,0.006413,0,0,1.0352,-0.0060824,0,1.0352,-0.54969,-1.0775,-0.81129,89.732,-0.81282,0.45708,-7.3798e-05,0.68,0.04,0
0.1806,0.013154,0.30241,-1.077,-0.52959,-0.78439,-0.00039906,0,0,-0.38042,0.33124,0,-0.0010376,0,0,1.0376,-0.0037001,0,1.0376,-0.52959,-1.077,-0.78439,-89.958,-0.797,0.47446,-0.00065467,0.7,0.04,0
0.17265,0.01272,0.28164,-1.0753,-0.51131,-0.75761,-0.0029323,0,0,-0.41296,0.3202,0,-0.0076241,0,0,1.0388,-0.001352,0,1.0388,-0.51129,-1.0753,-0.75761,-89.702,-0.7814,0.48974,-0.0013092,0.72,0.04,0
0.16408,0.012212,0.26085,-1.0724,-0.49447,-0.73091,-0.0051928,0,0,-0.44391,0.30736,0,-0.013501,0,0,1.0389,0.0010225,0,1.0389,-0.49443,-1.0724,-0.73091,-89.485,-0.76592,0.5033,-0.00202,0.74,0.04,0
0.1549,0.011648,0.24008,-1.0684,-0.47874,-0.70422,-0.007203,0,0,-0.47345,0.29314,0,-0.018728,0,0,1.0378,0.0034798,0,1.0379,-0.47865,-1.0685,-0.70422,-89.3,-0.75046,0.51552,-0.0027712,0.76,0.04,0
0.14514,0.011047,0.21934,-1.0635,-0.46373,-0.67751,-0.0089286,0,0,-0.50179,0.27792,0,-0.023214,0,0,1.0355,0.006061,0,1.0355,-0.46359,-1.0636,-0.67751,-89.147,-0.73491,0.52674,-0.0035499,0.78,0.04,0
0.13483,0.01043,0.19866,-1.0578,-0.44905,-0.6507,-0.010268,0,0,-0.52919,0.26215,0,-0.026696,0,0,1.0318,0.008775,0,1.0319,-0.44888,-1.0579,-0.6507,-89.034,-0.71917,0.53738,-0.0043472,0.8,0.04,0
0.12397,0.009821,0.17807,-1.0514,-0.43421,-0.62375,-0.011055,0,0,-0.55597,0.24641,0,-0.028744,0,0,1.0267,0.011574,0,1.0268,-0.43401,-1.0516,-0.62375,-88.974,-0.70313,0.54796,-0.0051614,0.82,0.04,0
0.11259,0.0092504,0.15759,-1.0448,-0.4186,-0.5966,-0.011102,0,0,-0.58261,0.2314,0,-0.028864,0,0,1.0201,0.014321,0,1.0203,-0.4184,-1.045,-0.5966,-88.985,-0.68665,0.55918,-0.0060016,0.84,0.04,0
0.10067,0.0087494,0.13726,-1.0382,-0.40147,-0.56916,-0.010273,0,0,-0.60976,0.218,0,-0.026711,0,0,1.0121,0.016765,0,1.0123,-0.4013,-1.0384,-0.56916,-89.076,-0.66961,0.57193,-0.0068912,0.86,0.04,0
0.088196,0.0083468,0.11711,-1.0322,-0.38204,-0.54138,-0.0086092,0,0,-0.63807,0.20714,0,-0.022384,0,0,1.0029,0.018538,0,1.0031,-0.38193,-1.0323,-0.54138,-89.242,-0.65188,0.58713,-0.0078682,0.88,0.04,0
0.075144,0.0080608,0.097145,-1.0271,-0.35974,-0.51321,-0.0063888,0,0,-0.6681,0.19951,0,-0.016611,0,0,0.99289,0.01921,0,0.99309,-0.35968,-1.0272,-0.51321,-89.452,-0.63336,0.60553,-0.0089794,0.9,0.04,0
0.061472,0.0078911,0.07739,-1.0232,-0.3345,-0.48469,-0.00409,0,0,-0.70003,0.19525,0,-0.010634,0,0,0.98281,0.01839,0,0.983,-0.33448,-1.0232,-0.48469,-89.66,-0.61412,0.62726,-0.010266,0.92,0.04,0
0.047143,0.0078172,0.057832,-1.0203,-0.30694,-0.45601,-0.0021942,0,0,-0.73359,0.19379,0,-0.0057048,0,0,0.97356,0.015864,0,0.9737,-0.30694,-1.0203,-0.45601,-89.824,-0.59442,0.65176,-0.011751,0.94,0.04,0
0.032128,0.0078034,0.038447,-1.0183,-0.27818,-0.4274,-0.00096749,0,0,-0.7682,0.19398,0,-0.0025155,0,0,0.96607,0.011685,0,0.96614,-0.27818,-1.0183,-0.4274,-89.925,-0.57464,0.67797,-0.013428,0.96,0.04,0
0.016414,0.0078123,0.01919,-1.0169,-0.24935,-0.39907,-0.00034714,0,0,-0.8032,0.19463,0,-0.00090257,0,0,0.96118,0.0062011,0,0.9612,-0.24935,-1.0169,-0.39907,-89.974,-0.55511,0.70474,-0.015277,0.98,0.04,0
0,0.0078173,0,-0.99237,-0.21111,-0.36104,9.6644e-05,0,0,-0.82073,0.19492,0,0.00025128,0,0,0.95948,5.6378e-18,0,0.95948,-0.21111,-0.99237,-0.36104,89.993,-0.52151,0.71813,-0.016261,1,0.04,0
0,0.014593,1,-0.97155,-1.5947,-1.7699,0.0059527,0,0,1.0378,0.22772,0,0.015477,0,0,0.8597,-9.7318e-16,0,0.85963,-0.97149,-1.5948,-1.7699,0.54724,-1.4454,0.72683,0.015928,0,0.06,0
0.020757,0.014902,0.98281,-0.95199,-1.5576,-1.7357,0.016029,0,0,1.0188,0.23154,0,0.041676,0,0,0.86467,-0.026096,0,0.86501,-0.95156,-1.558,-1.7357,1.5151,-1.4151,0.71209,0.014725,0.02,0.06,0
0.040752,0.015907,0.96541,-0.95898,-1.522,-1.7097,0.03526,0,0,0.97596,0.24399,0,0.091675,0,0,0.87998,-0.051787,0,0.8815,-0.95678,-1.5242,-1.7097,3.5694,-1.3969,0.67945,0.012154,0.04,0.06,0
0.059795,0.017783,0.94761,-0.97372,-1.4749,-1.6822,0.05994,0,0,0.921,0.26951,0,0.15584,0,0,0.90591,-0.075133,0,0.90912,-0.96665,-1.4819,-1.6822,6.7265,-1.3769,0.63937,0.0091187,0.06,0.06,0
0.077592,0.020752,0.92918,-1,-1.4071,-1.6513,0.08841,0,0,0.84669,0.31749,0,0.22987,0,0,0.94078,-0.090694,0,0.94535,-0.98163,-1.4255,-1.6513,11.739,-1.3528,0.59011,0.0055818,0.08,0.06,0
0.093663,0.024834,0.90997,-1.0343,-1.3034,-1.6113,0.11166,0,0,0.75009,0.40025,0,0.29031,0,0,0.97975,-0.093921,0,0.98446,-0.994,-1.3437,-1.6113,19.843,-1.3163,0.53616,0.0018042,0.1,0.06,0
0.10759,0.029534,0.88999,-1.0701,-1.173,-1.5629,0.11376,0,0,0.64071,0.50684,0,0.29577,0,0,1.0162,-0.083742,0,1.0198,-0.99669,-1.2464,-1.5629,32.824,-1.2687,0.49151,-0.0012349,0.12,0.06,0
0.11929,0.033911,0.86933,-1.1038,-1.0586,-1.518,0.094123,0,0,0.53852,0.59728,0,0.24472,0,0,1.0452,-0.066513,0,1.0474,-0.9844,-1.178,-1.518,51.752,-1.2268,0.46792,-0.0023896,0.14,0.06,0
0.12914,0.037239,0.84818,-1.1283,-0.9777,-1.48,0.064531,0,0,0.45718,0.65296,0,0.16778,0,0,1.0653,-0.048206,0,1.0664,-0.95383,-1.1522,-1.48,69.702,-1.1953,0.46023,-0.002057,0.16,0.06,0
0.13758,0.039311,0.82671,-1.1419,-0.92417,-1.4465,0.03795,0,0,0.39601,0.67908,0,0.09867,0,0,1.0781,-0.032565,0,1.0786,-0.91775,-1.1483,-1.4465,80.391,-1.1709,0.45919,-0.0010902,0.18,0.06,0
0.14498,0.040231,0.80505,-1.1468,-0.88624,-1.415,0.017066,0,0,0.34857,0.68736,0,0.044373,0,0,1.0858,-0.01905,0,1.086,-0.88512,-1.148,-1.415,86.269,-1.1494,0.45887,-6.7916e-05,0.2,0.06,0
0.15152,0.040184,0.78328,-1.1478,-0.8602,-1.3857,0.00032491,0,0,0.30925,0.68313,0,0.00084476,0,0,1.0897,-0.0066455,0,1.0897,-0.8602,-1.1478,-1.3857,89.935,-1.1312,0.45576,0.00079233,0.22,0.06,0
0.15735,0.03929,0.76146,-1.1458,-0.84416,-1.3585,-0.015061,0,0,0.27642,0.66859,0,-0.039158,0,0,1.0901,0.0057128,0,1.0901,-0.84341,-1.1466,-1.3585,-87.149,-1.1162,0.44838,0.0013945,0.24,0.06,0
0.16258,0.037601,0.73968,-1.1403,-0.83805,-1.3332,-0.03161,0,0,0.25077,0.64366,0,-0.082187,0,0,1.0868,0.019068,0,1.0869,-0.83478,-1.1435,-1.3332,-84.093,-1.1038,0.43571,0.0016991,0.26,0.06,0
0.16738,0.035114,0.71799,-1.1278,-0.84317,-1.3093,-0.050441,0,0,0.23597,0.60593,0,-0.13115,0,0,1.0783,0.034365,0,1.0789,-0.8345,-1.1364,-1.3093,-80.241,-1.0934,0.41621,0.0016677,0.28,0.06,0
0.17202,0.031885,0.69654,-1.1077,-0.86648,-1.2888,-0.069459,0,0,0.23543,0.54901,0,-0.18059,0,0,1.0627,0.052001,0,1.064,-0.84791,-1.1263,-1.2888,-75.031,-1.0877,0.38619,0.001291,0.3,0.06,0
0.17679,0.028165,0.67549,-1.0814,-0.90841,-1.2724,-0.079916,0,0,0.24831,0.47323,0,-0.20778,0,0,1.0387,0.068154,0,1.041,-0.87715,-1.1127,-1.2724,-68.635,-1.0874,0.34442,0.0006816,0.32,0.06,0
0.18195,0.02448,0.655,-1.0539,-0.95475,-1.2576,-0.076141,0,0,0.26478,0.3937,0,-0.19797,0,0,1.0078,0.077028,0,1.0109,-0.91347,-1.0952,-1.2576,-61.536,-1.0888,0.29818,0.00013218,0.34,0.06,0
0.18738,0.021378,0.63517,-1.0275,-0.98039,-1.2375,-0.05996,0,0,0.27304,0.3343,0,-0.1559,0,0,0.97533,0.072815,0,0.97818,-0.93953,-1.0684,-1.2375,-55.725,-1.0818,0.25888,-0.00020652,0.36,0.06,0
0.19287,0.019059,0.61598,-1.0068,-0.98511,-1.2135,-0.041748,0,0,0.26882,0.29696,0,-0.10855,0,0,0.94763,0.057342,0,0.94941,-0.95281,-1.0391,-1.2135,-52.269,-1.0685,0.23007,-0.00034213,0.38,0.06,0
0.19814,0.017446,0.59727,-0.99398,-0.97971,-1.1894,-0.025187,0,0,0.25402,0.27256,0,-0.065485,0,0,0.92912,0.035876,0,0.92979,-0.96067,-1.013,-1.1894,-52.904,-1.0543,0.20754,-0.00036252,0.4,0.06,0
0.20303,0.016396,0.57882,-0.98671,-0.96731,-1.165,-0.010731,0,0,0.23181,0.25703,0,-0.0279,0,0,0.9207,0.014535,0,0.92078,-0.96254,-0.99147,-1.165,-66.056,-1.0397,0.18968,-0.00032316,0.42,0.06,0
0.20741,0.015823,0.56044,-0.98454,-0.94922,-1.1406,0.0025873,0,0,0.20283,0.24875,0,0.0067271,0,0,0.92097,-0.0040331,0,0.92095,-0.94903,-0.98473,-1.1406,85.832,-1.0248,0.17642,-0.00024353,0.44,0.06,0
0.21114,0.015681,0.54198,-0.98704,-0.92495,-1.1156,0.015054,0,0,0.16709,0.24781,0,0.03914,0,0,0.92777,-0.018749,0,0.92796,-0.9215,-0.9905,-1.1156,77.066,-1.0092,0.1704,-0.0001209,0.46,0.06,0
0.21409,0.015934,0.52333,-0.99396,-0.89401,-1.0897,0.026234,0,0,0.12448,0.25442,0,0.068208,0,0,0.9391,-0.02915,0,0.93957,-0.88755,-1.0004,-1.0897,76.152,-0.99257,0.17549,5.5639e-05,0.48,0.06,0
0.21612,0.016524,0.50441,-1.0045,-0.85651,-1.0627,0.035019,0,0,0.075641,0.26809,0,0.091049,0,0,0.95307,-0.035214,0,0.95375,-0.84864,-1.0124,-1.0627,77.341,-0.97459,0.19389,0.00029108,0.5,0.06,0
0.21712,0.017356,0.4852,-1.0176,-0.81401,-1.0347,0.040199,0,0,0.022257,0.28686,0,0.10452,0,0,0.96796,-0.037378,0,0.96871,-0.80636,-1.0252,-1.0347,79.223,-0.95542,0.22373,0.00057169,0.52,0.06,0
0.21701,0.018295,0.4657,-1.0315,-0.76953,-1.006,0.041174,0,0,-0.033102,0.3074,0,0.10705,0,0,0.98242,-0.036477,0,0.98312,-0.76321,-1.0378,-1.006,81.274,-0.93566,0.26013,0.00085875,0.54,0.06,0
0.2158,0.019202,0.44591,-1.0447,-0.72628,-0.97721,0.038391,0,0,-0.087759,0.32621,0,0.099816,0,0,0.99552,-0.033533,0,0.99611,-0.72172,-1.0493,-0.97721,83.222,-0.91607,0.29813,0.0010975,0.56,0.06,0
0.2135,0.019962,0.42588,-1.0561,-0.68647,-0.94866,0.033055,0,0,-0.13973,0.34085,0,0.085944,0,0,1.0068,-0.029501,0,1.0073,-0.68354,-1.0591,-0.94866,84.93,-0.89709,0.3343,0.0012369,0.58,0.06,0
0.21021,0.020505,0.40564,-1.0652,-0.65099,-0.92048,0.02655,0,0,-0.18808,0.35034,0,0.069029,0,0,1.0163,-0.025085,0,1.0166,-0.64929,-1.0669,-0.92048,86.347,-0.87887,0.36696,0.001245,0.6,0.06,0
0.20598,0.020802,0.38523,-1.0717,-0.61974,-0.89265,0.019934,0,0,-0.23273,0.35478,0,0.051827,0,0,1.0239,-0.020705,0,1.0241,-0.61887,-1.0726,-0.89265,87.479,-0.86136,0.3957,0.0011113,0.62,0.06,0
0.2009,0.020857,0.36468,-1.076,-0.59224,-0.86515,0.01381,0,0,-0.27409,0.35478,0,0.035905,0,0,1.03,-0.01655,0,1.0301,-0.59184,-1.0764,-0.86515,88.366,-0.84446,0.42076,0.00084045,0.64,0.06,0
0.19502,0.020691,0.34403,-1.0784,-0.56787,-0.83792,0.0083984,0,0,-0.31267,0.35106,0,0.021836,0,0,1.0347,-0.012663,0,1.0348,-0.56773,-1.0786,-0.83792,89.058,-0.82807,0.44265,0.00044512,0.66,0.06,0
0.18839,0.020332,0.32329,-1.0794,-0.54608,-0.81092,0.0036923,0,0,-0.34897,0.3443,0,0.0096001,0,0,1.0382,-0.0090077,0,1.0382,-0.54605,-1.0794,-0.81092,89.603,-0.81212,0.46188,-5.9046e-05,0.68,0.06,0
0.18106,0.01981,0.3025,-1.079,-0.5264,-0.78412,-0.00042012,0,0,-0.38334,0.33503,0,-0.0010923,0,0,1.0405,-0.0055061,0,1.0405,-0.5264,-1.079,-0.78412,-89.956,-0.79651,0.47893,-0.00065537,0.7,0.06,0
0.17306,0.019153,0.28167,-1.0775,-0.50844,-0.75745,-0.0040738,0,0,-0.41607,0.32372,0,-0.010592,0,0,1.0418,-0.0020621,0,1.0418,-0.50841,-1.0775,-0.75745,-89.59,-0.78113,0.49416,-0.0013272,0.72,0.06,0
0.16442,0.018387,0.26083,-1.075,-0.49185,-0.73088,-0.0073789,0,0,-0.44733,0.31073,0,-0.019185,0,0,1.0419,0.0014263,0,1.0419,-0.49175,-1.0751,-0.73088,-89.275,-0.7659,0.50789,-0.0020583,0.74,0.06,0
0.15516,0.017537,0.23999,-1.0714,-0.47634,-0.70432,-0.010389,0,0,-0.47724,0.29638,0,-0.027012,0,0,1.041,0.0050566,0,1.041,-0.47615,-1.0716,-0.70432,-89,-0.7507,0.52035,-0.0028328,0.76,0.06,0
0.14533,0.016629,0.21919,-1.0669,-0.46161,-0.67774,-0.013077,0,0,-0.50588,0.28096,0,-0.034,0,0,1.0388,0.00891,0,1.0389,-0.46133,-1.0672,-0.67774,-88.763,-0.73541,0.53174,-0.0036359,0.78,0.06,0
0.13493,0.015692,0.19844,-1.0613,-0.44738,-0.65106,-0.015307,0,0,-0.53337,0.26478,0,-0.039799,0,0,1.0353,0.013031,0,1.0354,-0.447,-1.0617,-0.65106,-88.573,-0.71992,0.54229,-0.0044544,0.8,0.06,0
0.12399,0.014762,0.17778,-1.0549,-0.43325,-0.62422,-0.016826,0,0,-0.55989,0.24826,0,-0.043749,0,0,1.0303,0.017389,0,1.0304,-0.43279,-1.0554,-0.62422,-88.451,-0.70413,0.55232,-0.0052798,0.82,0.06,0
0.11253,0.013881,0.15723,-1.0478,-0.41868,-0.59718,-0.017288,0,0,-0.58583,0.23205,0,-0.044948,0,0,1.0235,0.021821,0,1.0237,-0.4182,-1.0483,-0.59718,-88.427,-0.68789,0.56238,-0.0061131,0.84,0.06,0
0.10056,0.0131,0.13684,-1.0405,-0.40284,-0.56984,-0.016373,0,0,-0.61185,0.21709,0,-0.042571,0,0,1.0149,0.025959,0,1.0152,-0.40242,-1.0409,-0.56984,-88.53,-0.67106,0.57341,-0.006973,0.86,0.06,0
0.088058,0.012469,0.11664,-1.0335,-0.38464,-0.54208,-0.014001,0,0,-0.63886,0.20468,0,-0.036402,0,0,1.0045,0.029193,0,1.005,-0.38433,-1.0338,-0.54208,-88.764,-0.65341,0.58673,-0.0079011,0.88,0.06,0
0.075004,0.012024,0.096656,-1.0274,-0.36301,-0.51379,-0.01055,0,0,-0.66774,0.19601,0,-0.027431,0,0,0.99289,0.030732,0,0.99338,-0.36284,-1.0276,-0.51379,-89.091,-0.63475,0.60361,-0.0089586,0.9,0.06,0
0.061349,0.011769,0.076919,-1.0226,-0.33758,-0.48498,-0.0068246,0,0,-0.69893,0.19162,0,-0.017744,0,0,0.98075,0.029809,0,0.98122,-0.33752,-1.0227,-0.48498,-89.429,-0.61506,0.62463,-0.010204,0.92,0.06,0
0.047047,0.011671,0.057426,-1.0191,-0.30914,-0.4559,-0.003716,0,0,-0.73217,0.19079,0,-0.0096615,0,0,0.9693,0.025959,0,0.96967,-0.30912,-1.0191,-0.4559,-89.7,-0.59471,0.64919,-0.011666,0.94,0.06,0
0.032062,0.011668,0.038147,-1.0167,-0.27935,-0.42696,-0.0016961,0,0,-0.76667,0.1919,0,-0.0044098,0,0,0.95988,0.019234,0,0.96008,-0.27935,-1.0167,-0.42696,-89.868,-0.57434,0.67576,-0.013335,0.96,0.06,0
0.01638,0.011695,0.01903,-1.0151,-0.24987,-0.39852,-0.00064585,0,0,-0.80155,0.19325,0,-0.0016792,0,0,0.95368,0.010238,0,0.95373,-0.24987,-1.0151,-0.39852,-89.952,-0.55449,0.70279,-0.015174,0.98,0.06,0
0,0.011708,0,-0.9907,-0.21166,-0.36071,0.00024457,0,0,-0.81899,0.19376,0,0.00063588,0,0,0.95151,-1.1276e-17,0,0.9515,-0.21166,-0.9907,-0.36071,89.982,-0.52102,0.71625,-0.016151,1,0.06,0
0,0.019003,1,-0.96721,-1.6116,-1.7736,0.0072378,0,0,1.0484,0.21063,0,0.018818,0,0,0.82881,-3.4868e-16,0,0.82868,-0.96713,-1.6117,-1.7736,0.64341,-1.4508,0.73898,0.017418,0,0.08,0
0.020968,0.019379,0.98342,-0.94861,-1.5769,-1.7411,0.020612,0,0,1.0302,0.21347,0,0.053592,0,0,0.83371,-0.035422,0,0.83435,-0.94793,-1.5775,-1.7411,1.8771,-1.4222,0.72532,0.01629,0.02,0.08,0
0.041208,0.020594,0.96665,-0.95457,-1.5453,-1.7166,0.045211,0,0,0.99064,0.22275,0,0.11755,0,0,0.84979,-0.072072,0,0.85276,-0.95113,-1.5487,-1.7166,4.3516,-1.4055,0.69686,0.014037,0.04,0.08,0
0.060593,0.022918,0.94943,-0.9695,-1.5083,-1.6928,0.077643,0,0,0.94024,0.23986,0,0.20187,0,0,0.88127,-0.11007,0,0.88819,-0.95853,-1.5192,-1.6928,8.0393,-1.3902,0.66467,0.011687,0.06,0.08,0
0.078817,0.026805,0.9314,-0.99762,-1.4497,-1.6656,0.12173,0,0,0.86838,0.28065,0,0.3165,0,0,0.92883,-0.14316,0,0.94028,-0.96693,-1.4804,-1.6656,14.151,-1.371,0.62694,0.0090325,0.08,0.08,0
0.095328,0.032692,0.91228,-1.0425,-1.3362,-1.6259,0.16042,0,0,0.75841,0.37657,0,0.41709,0,0,0.98484,-0.14611,0,0.99608,-0.97188,-1.4069,-1.6259,23.763,-1.3349,0.5766,0.0052724,0.1,0.08,0
0.10915,0.039846,0.89201,-1.0747,-1.142,-1.557,0.16302,0,0,0.62704,0.53949,0,0.42384,0,0,1.0346,-0.12441,0,1.0422,-0.94189,-1.2748,-1.557,39.165,-1.2579,0.53332,0.0011077,0.12,0.08,0
0.12041,0.046202,0.87089,-1.1105,-1.0095,-1.5069,0.11896,0,0,0.51531,0.64663,0,0.3093,0,0,1.068,-0.087071,0,1.0714,-0.93075,-1.1892,-1.5069,56.502,-1.209,0.49983,-0.0011337,0.14,0.08,0
0.12977,0.050614,0.84929,-1.1341,-0.94666,-1.4735,0.074861,0,0,0.44124,0.68491,0,0.19464,0,0,1.0859,-0.060563,0,1.0876,-0.92044,-1.1603,-1.4735,70.691,-1.1848,0.48038,-0.001293,0.16,0.08,0
0.13806,0.053096,0.82746,-1.1366,-0.90153,-1.4389,0.042174,0,0,0.39299,0.69857,0,0.10965,0,0,1.095,-0.040388,0,1.0957,-0.89419,-1.1439,-1.4389,80.13,-1.159,0.47227,-0.00077457,0.18,0.08,0
0.14549,0.054113,0.80549,-1.1369,-0.86922,-1.4073,0.019523,0,0,0.35154,0.69954,0,0.05076,0,0,1.1005,-0.023784,0,1.1008,-0.8678,-1.1383,-1.4073,85.851,-1.1378,0.46724,2.5643e-05,0.2,0.08,0
0.15212,0.053951,0.78343,-1.1375,-0.84562,-1.3784,0.0018318,0,0,0.31314,0.69258,0,0.0047628,0,0,1.1037,-0.0087889,0,1.1037,-0.8456,-1.1375,-1.3784,89.64,-1.1205,0.46209,0.000836,0.22,0.08,0
0.15801,0.052775,0.76134,-1.1386,-0.82928,-1.3517,-0.014663,0,0,0.27707,0.67914,0,-0.038123,0,0,1.1048,0.0061755,0,1.1048,-0.82859,-1.1393,-1.3517,-87.292,-1.1065,0.45568,0.001547,0.24,0.08,0
0.1632,0.050625,0.73925,-1.1392,-0.82021,-1.3271,-0.033349,0,0,0.24427,0.6589,0,-0.086709,0,0,1.1034,0.022665,0,1.1036,-0.81676,-1.1426,-1.3271,-84.094,-1.0955,0.44755,0.0021093,0.26,0.08,0
0.16778,0.047446,0.7172,-1.1365,-0.82044,-1.3043,-0.057925,0,0,0.21808,0.62902,0,-0.1506,0,0,1.0984,0.042555,0,1.0992,-0.81016,-1.1468,-1.3043,-79.936,-1.0871,0.43722,0.0024912,0.28,0.08,0
0.17193,0.043067,0.69531,-1.1165,-0.83239,-1.28,-0.088519,0,0,0.21255,0.58185,0,-0.23015,0,0,1.0844,0.068396,0,1.0865,-0.80706,-1.1418,-1.28,-74.034,-1.0763,0.42117,0.002491,0.3,0.08,0
0.17628,0.037691,0.67383,-1.0891,-0.89205,-1.2682,-0.11666,0,0,0.23279,0.48896,0,-0.30331,0,0,1.0555,0.10407,0,1.0608,-0.83788,-1.1433,-1.2682,-65.092,-1.0831,0.38342,0.0018932,0.32,0.08,0
0.18124,0.032207,0.65309,-1.0615,-0.97924,-1.2653,-0.11111,0,0,0.26498,0.37189,0,-0.28889,0,0,1.0113,0.12311,0,1.0191,-0.90188,-1.1388,-1.2653,-55.154,-1.102,0.31954,0.00083441,0.34,0.08,0
0.18688,0.02784,0.63338,-1.0241,-1.0059,-1.2424,-0.086065,0,0,0.28381,0.30737,0,-0.22377,0,0,0.96251,0.1176,0,0.97001,-0.92846,-1.1015,-1.2424,-48.005,-1.0908,0.27234,0.00018338,0.36,0.08,0
0.19259,0.024802,0.61459,-1.0008,-1.0078,-1.2172,-0.057574,0,0,0.28126,0.27219,0,-0.14969,0,0,0.92381,0.0835,0,0.92756,-0.94663,-1.062,-1.2172,-43.266,-1.0753,0.23514,-0.00016804,0.38,0.08,0
0.19813,0.022722,0.59642,-0.98525,-0.99769,-1.1913,-0.034557,0,0,0.26787,0.25171,0,-0.089848,0,0,0.90225,0.047115,0,0.90338,-0.95636,-1.0266,-1.1913,-39.901,-1.0581,0.20888,-0.00029599,0.4,0.08,0
0.20331,0.02138,0.5785,-0.97767,-0.98386,-1.167,-0.014492,0,0,0.24607,0.23803,0,-0.03768,0,0,0.89642,0.01518,0,0.89647,-0.96595,-0.99559,-1.167,-38.972,-1.0428,0.18795,-0.00031262,0.42,0.08,0
0.20798,0.020653,0.56057,-0.97557,-0.96487,-1.1427,0.0039865,0,0,0.21726,0.23118,0,0.010365,0,0,0.90109,-0.011235,0,0.90111,-0.96355,-0.97689,-1.1427,71.659,-1.0277,0.17286,-0.00025998,0.44,0.08,0
0.212,0.020505,0.54246,-0.97915,-0.9399,-1.1182,0.021597,0,0,0.18073,0.23175,0,0.056152,0,0,0.91296,-0.031658,0,0.91352,-0.93035,-0.9887,-1.1182,66.128,-1.0124,0.1665,-0.00014264,0.46,0.08,0
0.21521,0.020913,0.52405,-0.98801,-0.90723,-1.0926,0.037693,0,0,0.13599,0.24101,0,0.098002,0,0,0.92958,-0.04563,0,0.93073,-0.89238,-1.0029,-1.0926,68.489,-0.99596,0.17373,4.7986e-05,0.48,0.08,0
0.21744,0.021815,0.50527,-1.0012,-0.86576,-1.0654,0.050462,0,0,0.083426,0.25948,0,0.1312,0,0,0.94854,-0.05306,0,0.95008,-0.84902,-1.0179,-1.0654,71.653,-0.97743,0.19695,0.00031692,0.5,0.08,0
0.21854,0.023072,0.48611,-1.017,-0.8173,-1.0364,0.057563,0,0,0.025236,0.28481,0,0.14966,0,0,0.96764,-0.054619,0,0.96922,-0.8019,-1.0324,-1.0364,75.017,-0.95689,0.23252,0.00064499,0.52,0.08,0
0.21845,0.024471,0.46657,-1.0333,-0.76689,-1.0066,0.057986,0,0,-0.034726,0.31168,0,0.15076,0,0,0.98511,-0.051787,0,0.9865,-0.75482,-1.0454,-1.0066,78.24,-0.93563,0.27329,0.00097748,0.54,0.08,0
0.21715,0.02579,0.4467,-1.0483,-0.71963,-0.97707,0.052745,0,0,-0.092553,0.33468,0,0.13714,0,0,0.99997,-0.046363,0,1.0011,-0.71137,-1.0565,-0.97707,81.102,-0.91499,0.31308,0.0012405,0.56,0.08,0
0.21474,0.02686,0.42657,-1.0603,-0.67818,-0.94812,0.044245,0,0,-0.14587,0.35092,0,0.11504,0,0,1.012,-0.039902,0,1.0128,-0.67313,-1.0654,-0.94812,83.481,-0.89555,0.34874,0.0013771,0.58,0.08,0
0.21132,0.027595,0.40622,-1.0691,-0.64271,-0.91977,0.034748,0,0,-0.19415,0.36018,0,0.090345,0,0,1.0215,-0.033383,0,1.0221,-0.6399,-1.0719,-0.91977,85.372,-0.8772,0.37956,0.001364,0.6,0.08,0
0.20698,0.027974,0.38571,-1.075,-0.61228,-0.8919,0.025706,0,0,-0.23806,0.3635,0,0.066837,0,0,1.029,-0.027261,0,1.0293,-0.61086,-1.0764,-0.8919,86.83,-0.85973,0.40609,0.0012028,0.62,0.08,0
0.2018,0.028019,0.36506,-1.0787,-0.58578,-0.86441,0.017713,0,0,-0.27858,0.36222,0,0.046054,0,0,1.0347,-0.021655,0,1.0349,-0.58514,-1.0793,-0.86441,87.945,-0.84296,0.42919,0.00090615,0.64,0.08,0
0.19583,0.027769,0.34432,-1.0808,-0.56234,-0.83725,0.010852,0,0,-0.31656,0.35738,0,0.028215,0,0,1.0391,-0.016529,0,1.0392,-0.56211,-1.081,-0.83725,88.801,-0.82678,0.44963,0.00048826,0.66,0.08,0
0.18913,0.027268,0.3235,-1.0816,-0.54131,-0.81037,0.004971,0,0,-0.35259,0.34978,0,0.012925,0,0,1.0423,-0.011774,0,1.0424,-0.54126,-1.0816,-0.81037,89.473,-0.81109,0.46798,-3.6413e-05,0.68,0.08,0
0.18173,0.026556,0.30263,-1.0814,-0.52218,-0.78371,-0.00015514,0,0,-0.38704,0.33999,0,-0.00040337,0,0,1.0445,-0.007253,0,1.0445,-0.52218,-1.0814,-0.78371,-89.984,-0.79578,0.48467,-0.00065375,0.7,0.08,0
0.17365,0.025669,0.28172,-1.0804,-0.5046,-0.75722,-0.0047461,0,0,-0.42013,0.32841,0,-0.01234,0,0,1.0458,-0.0028176,0,1.0458,-0.50456,-1.0804,-0.75722,-89.528,-0.78074,0.49997,-0.0013497,0.72,0.08,0
0.16493,0.024642,0.2608,-1.0785,-0.48827,-0.73082,-0.0089758,0,0,-0.45196,0.31532,0,-0.023337,0,0,1.0461,0.0016835,0,1.0461,-0.48813,-1.0786,-0.73082,-89.129,-0.76586,0.51407,-0.0021101,0.74,0.08,0
0.15557,0.023504,0.23988,-1.0757,-0.47296,-0.70446,-0.012948,0,0,-0.48255,0.30095,0,-0.033664,0,0,1.0453,0.0063995,0,1.0454,-0.47269,-1.0759,-0.70446,-88.77,-0.75103,0.52708,-0.0029198,0.76,0.08,0
0.14562,0.022285,0.21898,-1.0718,-0.45849,-0.67807,-0.016668,0,0,-0.51185,0.28546,0,-0.043337,0,0,1.0435,0.01147,0,1.0435,-0.45804,-1.0723,-0.67807,-88.444,-0.73612,0.53901,-0.0037624,0.78,0.08,0
0.1351,0.021021,0.19814,-1.0668,-0.44468,-0.65158,-0.020012,0,0,-0.53978,0.26897,0,-0.052031,0,0,1.0403,0.017008,0,1.0405,-0.44404,-1.0674,-0.65158,-88.159,-0.72102,0.54984,-0.0046197,0.8,0.08,0
0.12403,0.019752,0.17737,-1.0605,-0.43131,-0.62491,-0.02267,0,0,-0.56626,0.25168,0,-0.058943,0,0,1.0355,0.023059,0,1.0358,-0.4305,-1.0613,-0.62491,-87.939,-0.70557,0.55954,-0.0054727,0.82,0.08,0
0.11245,0.018532,0.15672,-1.053,-0.41807,-0.59803,-0.024121,0,0,-0.59142,0.23395,0,-0.062716,0,0,1.0287,0.029521,0,1.0291,-0.41715,-1.0539,-0.59803,-87.827,-0.68968,0.5683,-0.0063079,0.84,0.08,0
0.10038,0.017433,0.13622,-1.0446,-0.40415,-0.57084,-0.023694,0,0,-0.61584,0.21669,0,-0.061604,0,0,1.0195,0.035978,0,1.0201,-0.40328,-1.0454,-0.57084,-87.884,-0.67318,0.57692,-0.0071298,0.86,0.08,0
0.087816,0.016534,0.11594,-1.036,-0.38812,-0.54319,-0.020964,0,0,-0.64071,0.20158,0,-0.054506,0,0,1.0077,0.041538,0,1.0085,-0.38745,-1.0367,-0.54319,-88.149,-0.65579,0.58711,-0.0079804,0.88,0.08,0
0.074747,0.015901,0.095916,-1.0283,-0.36795,-0.51478,-0.016207,0,0,-0.66752,0.19088,0,-0.042138,0,0,0.9935,0.044825,0,0.99454,-0.36755,-1.0287,-0.51478,-88.595,-0.63699,0.60117,-0.0089427,0.9,0.08,0
0.061115,0.015556,0.076197,-1.0218,-0.34241,-0.48546,-0.010725,0,0,-0.69726,0.18598,0,-0.027885,0,0,0.97804,0.044354,0,0.97908,-0.34224,-1.022,-0.48546,-89.096,-0.61656,0.62066,-0.01011,0.92,0.08,0
0.046857,0.015449,0.056794,-1.017,-0.31252,-0.45564,-0.006048,0,0,-0.72972,0.18605,0,-0.015725,0,0,0.96298,0.039138,0,0.9638,-0.31247,-1.017,-0.45564,-89.508,-0.59504,0.64499,-0.011525,0.94,0.08,0
0.031927,0.015479,0.037678,-1.0136,-0.28117,-0.42611,-0.0030193,0,0,-0.76375,0.18842,0,-0.0078501,0,0,0.95034,0.0292,0,0.9508,-0.28116,-1.0136,-0.42611,-89.764,-0.57363,0.67182,-0.013162,0.96,0.08,0
0.016307,0.015542,0.01878,-1.0115,-0.25091,-0.39749,-0.0012904,0,0,-0.79817,0.19056,0,-0.0033551,0,0,0.94195,0.015583,0,0.94206,-0.25091,-1.0115,-0.39749,-89.903,-0.55329,0.69889,-0.014966,0.98,0.08,0
0,0.015568,0,-0.98721,-0.21286,-0.36002,0.00049492,0,0,-0.81535,0.19131,0,0.0012868,0,0,0.93901,5.2042e-18,0,0.93899,-0.21286,-0.98722,-0.36002,89.963,-0.52003,0.71227,-0.015921,1,0.08,0
0,0.023018,1,-0.95782,-1.6335,-1.7774,0.0081365,0,0,1.0655,0.18703,0,0.021155,0,0,0.78885,-1.0894e-15,0,0.78865,-0.95772,-1.6336,-1.7774,0.68978,-1.4563,0.7581,0.019692,0,0.1,0
0.021309,0.023441,0.98422,-0.94093,-1.6016,-1.747,0.026027,0,0,1.0479,0.18899,0,0.067672,0,0,0.79259,-0.043306,0,0.79357,-0.93991,-1.6026,-1.747,2.2525,-1.4298,0.74546,0.018616,0.02,0.1,0
0.041915,0.024817,0.9683,-0.95038,-1.5763,-1.7263,0.056076,0,0,1.0087,0.19495,0,0.1458,0,0,0.80534,-0.090115,0,0.81013,-0.94539,-1.5813,-1.7263,5.0787,-1.4177,0.71947,0.01654,0.04,0.1,0
0.061658,0.027377,0.95201,-0.96343,-1.5466,-1.705,0.097271,0,0,0.96406,0.20596,0,0.2529,0,0,0.83482,-0.14465,0,0.84701,-0.94763,-1.5624,-1.705,9.2244,-1.405,0.6971,0.014972,0.06,0.1,0
0.080477,0.031978,0.9349,-1.0112,-1.5282,-1.6967,0.15959,0,0,0.89119,0.21911,0,0.41493,0,0,0.90474,-0.21293,0,0.92973,-0.96588,-1.5735,-1.6967,15.845,-1.412,0.67766,0.014217,0.08,0.1,0
0.097306,0.039896,0.91582,-1.0678,-1.398,-1.6556,0.23782,0,0,0.76405,0.33488,0,0.61833,0,0,0.9985,-0.27178,0,1.0377,-0.94339,-1.5224,-1.6556,27.618,-1.3738,0.65579,0.012495,0.1,0.1,0
0.11104,0.051113,0.89496,-1.069,-1.0232,-1.5226,0.19885,0,0,0.58974,0.64921,0,0.51702,0,0,1.0753,-0.14829,0,1.0844,-0.84595,-1.2463,-1.5226,48.281,-1.205,0.58929,0.0032679,0.12,0.1,0
0.1209,0.059776,0.87281,-1.14,-0.96777,-1.5051,0.12632,0,0,0.4747,0.69857,0,0.32842,0,0,1.1091,-0.097837,0,1.1132,-0.901,-1.2067,-1.5051,62.141,-1.2043,0.52321,0.00015517,0.14,0.1,0
0.13003,0.064635,0.8506,-1.1244,-0.91443,-1.4622,0.072875,0,0,0.43923,0.71215,0,0.18947,0,0,1.112,-0.067012,0,1.114,-0.89162,-1.1472,-1.4622,72.615,-1.167,0.49507,-0.0011178,0.16,0.1,0
0.13847,0.067254,0.82833,-1.117,-0.87885,-1.4271,0.042833,0,0,0.4031,0.7127,0,0.11136,0,0,1.1149,-0.044908,0,1.1158,-0.87138,-1.1245,-1.4271,80.108,-1.141,0.48189,-0.00088281,0.18,0.1,0
0.14615,0.068213,0.806,-1.1158,-0.85189,-1.3963,0.022037,0,0,0.36464,0.70776,0,0.057297,0,0,1.1174,-0.027019,0,1.1177,-0.85006,-1.1177,-1.3963,85.26,-1.1213,0.47311,-0.000191,0.2,0.1,0
0.15305,0.067887,0.78363,-1.1184,-0.83056,-1.3683,0.0056387,0,0,0.32491,0.69908,0,0.014661,0,0,1.1197,-0.010908,0,1.1197,-0.83045,-1.1185,-1.3683,88.878,-1.1058,0.4662,0.00063854,0.22,0.1,0
0.15915,0.066455,0.76122,-1.1233,-0.81372,-1.3423,-0.0099897,0,0,0.28469,0.6872,0,-0.025973,0,0,1.1216,0.0052071,0,1.1216,-0.8134,-1.1237,-1.3423,-88.154,-1.0931,0.46036,0.0014758,0.24,0.1,0
0.16444,0.063957,0.73877,-1.1307,-0.80152,-1.3184,-0.028133,0,0,0.24406,0.67199,0,-0.073146,0,0,1.1232,0.023093,0,1.1234,-0.79913,-1.1331,-1.3184,-85.15,-1.0836,0.45582,0.0022943,0.26,0.1,0
0.16891,0.060275,0.71629,-1.1409,-0.79543,-1.2972,-0.052597,0,0,0.20317,0.6523,0,-0.13675,0,0,1.124,0.045142,0,1.1249,-0.7876,-1.1487,-1.2972,-81.533,-1.0778,0.45396,0.0031296,0.28,0.1,0
0.17256,0.055159,0.69381,-1.1527,-0.80083,-1.2799,-0.093373,0,0,0.16529,0.62276,0,-0.24277,0,0,1.1242,0.075707,0,1.1267,-0.77759,-1.176,-1.2799,-76.023,-1.0778,0.45924,0.0041288,0.3,0.1,0
0.17552,0.047723,0.67132,-1.0924,-0.80349,-1.2401,-0.14517,0,0,0.192,0.56758,0,-0.37744,0,0,1.0934,0.12518,0,1.0996,-0.74314,-1.1527,-1.2401,-67.429,-1.0453,0.45954,0.0043831,0.32,0.1,0
0.18024,0.039355,0.65007,-1.0841,-1.0241,-1.2826,-0.17848,0,0,0.25795,0.33594,0,-0.46405,0,0,1.0214,0.24298,0,1.0525,-0.87315,-1.2351,-1.2826,-49.77,-1.1303,0.38787,0.0028464,0.34,0.1,0
0.18584,0.033673,0.63047,-1.0326,-1.0612,-1.2586,-0.12115,0,0,0.29387,0.25658,0,-0.315,0,0,0.93572,0.17708,0,0.95229,-0.92489,-1.1689,-1.2586,-41.624,-1.1175,0.29912,0.00096916,0.36,0.1,0
0.192,0.029947,0.61264,-0.98673,-1.0375,-1.2199,-0.077211,0,0,0.30313,0.23715,0,-0.20075,0,0,0.87714,0.10695,0,0.8833,-0.93083,-1.0934,-1.2199,-35.902,-1.0814,0.25099,0.00017364,0.38,0.1,0
0.19797,0.027514,0.59538,-0.97067,-1.0235,-1.1936,-0.044199,0,0,0.28984,0.2212,0,-0.11492,0,0,0.8608,0.053229,0,0.86221,-0.94559,-1.0486,-1.1936,-29.574,-1.0626,0.21584,-0.00014918,0.4,0.1,0
0.20359,0.025917,0.57821,-0.96222,-1.006,-1.1687,-0.017522,0,0,0.26838,0.21149,0,-0.045558,0,0,0.86235,0.010313,0,0.86227,-0.95607,-1.0121,-1.1687,-19.344,-1.0456,0.19085,-0.00025588,0.42,0.1,0
0.2087,0.02507,0.56089,-0.96166,-0.9856,-1.1451,0.0068576,0,0,0.23843,0.2073,0,0.01783,0,0,0.87413,-0.024357,0,0.87441,-0.95984,-0.98743,-1.1451,14.903,-1.0308,0.17309,-0.00024369,0.44,0.1,0
0.21313,0.024951,0.54324,-0.96776,-0.96032,-1.1217,0.030113,0,0,0.20008,0.20975,0,0.078294,0,0,0.89338,-0.051115,0,0.89487,-0.9337,-0.99438,-1.1217,48.52,-1.0166,0.16616,-0.00013408,0.46,0.1,0
0.2167,0.025574,0.52515,-0.98006,-0.92615,-1.097,0.052202,0,0,0.15205,0.22213,0,0.13572,0,0,0.9177,-0.068993,0,0.92038,-0.89435,-1.0118,-1.097,58.655,-1.0011,0.17625,7.6521e-05,0.48,0.1,0
0.21921,0.026903,0.50654,-0.99746,-0.87909,-1.0695,0.070001,0,0,0.093654,0.24754,0,0.182,0,0,0.94408,-0.077106,0,0.94732,-0.84661,-1.0299,-1.0695,65.107,-0.98202,0.20599,0.00039366,0.5,0.1,0
0.22045,0.028748,0.48739,-1.0173,-0.82051,-1.0387,0.079148,0,0,0.027851,0.2837,0,0.20578,0,0,0.96924,-0.076387,0,0.97232,-0.79263,-1.0452,-1.0387,70.595,-0.95885,0.2494,0.00079494,0.52,0.1,0
0.22033,0.030762,0.46777,-1.037,-0.76063,-1.0071,0.077411,0,0,-0.038954,0.32036,0,0.20127,0,0,0.99068,-0.069541,0,0.99315,-0.74043,-1.0572,-1.0071,75.372,-0.93491,0.29494,0.0011902,0.54,0.1,0
0.21889,0.032589,0.44776,-1.0539,-0.70851,-0.97649,0.067756,0,0,-0.10065,0.34837,0,0.17617,0,0,1.0074,-0.059996,0,1.0092,-0.6957,-1.0667,-0.97649,79.289,-0.91297,0.33515,0.0014713,0.56,0.1,0
0.2163,0.033999,0.42747,-1.0661,-0.66618,-0.94716,0.054686,0,0,-0.15463,0.36527,0,0.14218,0,0,1.0198,-0.050166,0,1.0211,-0.65883,-1.0735,-0.94716,82.352,-0.89315,0.36809,0.0015821,0.58,0.1,0
0.21271,0.034912,0.40697,-1.0739,-0.6319,-0.91872,0.041792,0,0,-0.20177,0.37287,0,0.10866,0,0,1.0289,-0.041188,0,1.0297,-0.62798,-1.0778,-0.91872,84.646,-0.87485,0.39511,0.0015244,0.6,0.1,0
0.20823,0.035342,0.38632,-1.0785,-0.60303,-0.89079,0.030489,0,0,-0.24407,0.37408,0,0.079272,0,0,1.0356,-0.033256,0,1.0362,-0.60109,-1.0805,-0.89079,86.346,-0.85745,0.41817,0.0013215,0.62,0.1,0
0.20294,0.035346,0.36555,-1.0813,-0.57802,-0.86333,0.021017,0,0,-0.28332,0.37091,0,0.054644,0,0,1.0407,-0.026263,0,1.0411,-0.57715,-1.0821,-0.86333,87.613,-0.84088,0.43864,0.00099082,0.64,0.1,0
0.1969,0.034986,0.34469,-1.0829,-0.5558,-0.83629,0.013122,0,0,-0.32057,0.36464,0,0.034116,0,0,1.0446,-0.020017,0,1.0448,-0.55547,-1.0832,-0.83629,88.575,-0.82499,0.45735,0.00054531,0.66,0.1,0
0.19012,0.034324,0.32376,-1.0837,-0.53567,-0.80958,0.0064366,0,0,-0.3564,0.35609,0,0.016735,0,0,1.0474,-0.014304,0,1.0475,-0.53559,-1.0838,-0.80958,89.327,-0.80966,0.47477,-4.1244e-06,0.68,0.1,0
0.18264,0.03341,0.30279,-1.084,-0.51717,-0.78314,0.0006041,0,0,-0.39111,0.34576,0,0.0015707,0,0,1.0495,-0.0089135,0,1.0495,-0.51717,-1.084,-0.78314,89.939,-0.79477,0.49119,-0.00064732,0.7,0.1,0
0.17448,0.032289,0.28178,-1.0837,-0.49997,-0.75688,-0.0046806,0,0,-0.42483,0.33397,0,-0.01217,0,0,1.0507,-0.003639,0,1.0507,-0.49994,-1.0837,-0.75688,-89.541,-0.78017,0.50677,-0.001374,0.72,0.1,0
0.16565,0.031,0.26076,-1.0827,-0.48386,-0.73074,-0.009656,0,0,-0.45759,0.32094,0,-0.025106,0,0,1.0512,0.0017235,0,1.0512,-0.4837,-1.0829,-0.73074,-89.076,-0.76577,0.52156,-0.002173,0.74,0.1,0
0.15617,0.029575,0.23974,-1.081,-0.46866,-0.70465,-0.014486,0,0,-0.4893,0.30678,0,-0.037664,0,0,1.0508,0.0073809,0,1.0508,-0.46832,-1.0814,-0.70465,-88.646,-0.75145,0.53555,-0.0030313,0.76,0.1,0
0.14608,0.028047,0.21873,-1.0784,-0.4543,-0.67854,-0.019245,0,0,-0.51982,0.29152,0,-0.050038,0,0,1.0494,0.013545,0,1.0495,-0.4537,-1.079,-0.67854,-88.235,-0.73708,0.54859,-0.0039326,0.78,0.1,0
0.13538,0.026451,0.19776,-1.0745,-0.44071,-0.65232,-0.023881,0,0,-0.54883,0.2751,0,-0.062092,0,0,1.0469,0.02043,0,1.0471,-0.43981,-1.0754,-0.65232,-87.845,-0.72251,0.56042,-0.0048551,0.8,0.1,0
0.12412,0.024829,0.17685,-1.069,-0.42789,-0.6259,-0.028143,0,0,-0.57595,0.25742,0,-0.073171,0,0,1.0428,0.028229,0,1.0432,-0.42665,-1.0702,-0.6259,-87.491,-0.70758,0.57062,-0.0057686,0.82,0.1,0
0.11234,0.023239,0.15605,-1.0613,-0.4158,-0.59917,-0.031418,0,0,-0.60073,0.23838,0,-0.081688,0,0,1.0364,0.037045,0,1.0371,-0.41427,-1.0628,-0.59917,-87.22,-0.69208,0.57867,-0.0066345,0.84,0.1,0
0.10009,0.021768,0.1354,-1.0517,-0.40437,-0.57221,-0.03264,0,0,-0.6233,0.2182,0,-0.084865,0,0,1.0269,0.046689,0,1.028,-0.40272,-1.0533,-0.57221,-87.121,-0.67608,0.58457,-0.0074268,0.86,0.1,0
0.08741,0.020532,0.11497,-1.0409,-0.39187,-0.5448,-0.030422,0,0,-0.64491,0.19881,0,-0.079097,0,0,1.0134,0.056056,0,1.015,-0.39044,-1.0423,-0.5448,-87.322,-0.65918,0.59002,-0.0081656,0.88,0.1,0
0.074296,0.019659,0.094863,-1.0304,-0.37487,-0.51643,-0.024614,0,0,-0.66811,0.18403,0,-0.063996,0,0,0.9957,0.062872,0,0.99774,-0.37394,-1.0313,-0.51643,-87.853,-0.64055,0.59894,-0.0089652,0.9,0.1,0
0.060686,0.019208,0.075145,-1.021,-0.34961,-0.48632,-0.01682,0,0,-0.69506,0.17773,0,-0.043733,0,0,0.97506,0.064043,0,0.97723,-0.34919,-1.0214,-0.48632,-88.566,-0.61897,0.61522,-0.0099856,0.92,0.1,0
0.046494,0.019113,0.05586,-1.0133,-0.31727,-0.45504,-0.010189,0,0,-0.72578,0.1791,0,-0.026491,0,0,0.95415,0.057455,0,0.95593,-0.31712,-1.0135,-0.45504,-89.162,-0.59521,0.63867,-0.011305,0.94,0.1,0
0.031655,0.019205,0.036979,-1.0079,-0.28388,-0.42452,-0.0058131,0,0,-0.75842,0.18283,0,-0.015114,0,0,0.93633,0.043049,0,0.93732,-0.28383,-1.008,-0.42452,-89.54,-0.5721,0.66504,-0.012857,0.96,0.1,0
0.016157,0.019318,0.018407,-1.0044,-0.25312,-0.39567,-0.0029088,0,0,-0.79137,0.18531,0,-0.0075628,0,0,0.92448,0.022946,0,0.92473,-0.25311,-1.0044,-0.39567,-89.778,-0.55107,0.69115,-0.014555,0.98,0.1,0
0,0.019361,0,-0.98025,-0.21581,-0.35882,0.00082249,0,0,-0.80786,0.18591,0,0.0021385,0,0,0.92035,1.5612e-17,0,0.9203,-0.21581,-0.98025,-0.35882,89.938,-0.51829,0.70392,-0.015451,1,0.1,0
0,0.026484,1,-0.93812,-1.6601,-1.7795,0.0087443,0,0,1.0938,0.15518,0,0.022735,0,0,0.7422,-7.7369e-16,0,0.74194,-0.93802,-1.6602,-1.7795,0.69381,-1.4592,0.78861,0.023259,0,0.12,0
0.021875,0.026939,0.98516,-0.92248,-1.6317,-1.7514,0.03169,0,0,1.0776,0.15566,0,0.082393,0,0,0.7436,-0.047929,0,0.74486,-0.92107,-1.6331,-1.7514,2.5535,-1.4352,0.77795,0.022307,0.02,0.12,0
0.043104,0.028392,0.97026,-0.93275,-1.6136,-1.7342,0.069297,0,0,1.0418,0.1567,0,0.18017,0,0,0.74844,-0.10091,0,0.75482,-0.92577,-1.6206,-1.7342,5.7527,-1.4268,0.75803,0.020688,0.04,0.12,0
0.063549,0.031156,0.95522,-0.95908,-1.6045,-1.7243,0.11755,0,0,0.99478,0.15571,0,0.30564,0,0,0.75845,-0.16656,0,0.77585,-0.93834,-1.6253,-1.7243,10.007,-1.4293,0.74142,0.019679,0.06,0.12,0
0.082895,0.03557,0.93992,-1.0078,-1.6145,-1.7266,0.22038,0,0,0.93443,0.14578,0,0.57298,0,0,0.8017,-0.2614,0,0.84083,-0.9362,-1.6861,-1.7266,18,-1.4496,0.77093,0.023313,0.08,0.12,0
0.10093,0.046088,0.92315,-0.9191,-1.2495,-1.266,0.29424,0,0,0.60149,-0.060332,0,1.2944,0,0,0.69966,-0.30648,0,0.76579,-0.74607,-1.4226,-1.266,31.062,-1.1449,0.6209,0.015383,0.1,0.12,0
0.10995,0.065814,0.89794,-0.90364,-0.92927,-1.1485,0.19922,0,0,0.47747,0.11996,0,0.90666,0,0,0.8057,-0.14007,0,0.81971,-0.68516,-1.1478,-1.1485,40.467,-0.99381,0.49754,0.0051124,0.12,0.12,0
0.12003,0.074145,0.87481,-0.84942,-0.88889,-1.1047,0.10098,0,0,0.4978,0.1232,0,0.49901,0,0,0.76615,-0.095652,0,0.77351,-0.72226,-1.016,-1.1047,40.896,-0.94767,0.39677,-0.00049958,0.14,0.12,0
0.12987,0.0791,0.85197,-0.83207,-0.85645,-1.0745,0.065294,0,0,0.4728,0.12732,0,0.33082,0,0,0.75925,-0.066898,0,0.76299,-0.7173,-0.97123,-1.0745,42.923,-0.92102,0.36926,-0.0010102,0.16,0.12,0
0.13894,0.081604,0.82925,-0.83114,-0.83488,-1.0526,0.040934,0,0,0.43193,0.13174,0,0.21257,0,0,0.75667,-0.045873,0,0.75845,-0.71403,-0.95199,-1.0526,44.82,-0.90622,0.3478,-0.00082356,0.18,0.12,0
0.14714,0.082424,0.80657,-0.83317,-0.81527,-1.0322,0.023314,0,0,0.3882,0.13563,0,0.12445,0,0,0.75636,-0.028507,0,0.75705,-0.70681,-0.94164,-1.0322,45.733,-0.89356,0.33215,-0.00040706,0.2,0.12,0
0.15446,0.081915,0.78387,-0.83625,-0.79725,-1.0126,0.0084403,0,0,0.34395,0.1386,0,0.049136,0,0,0.75728,-0.012676,0,0.7574,-0.69842,-0.93508,-1.0126,45.847,-0.88204,0.31962,6.7854e-05,0.22,0.12,0
0.1609,0.080263,0.76113,-0.83966,-0.78035,-0.99342,-0.0059613,0,0,0.29985,0.14062,0,-0.023953,0,0,0.75918,0.0031926,0,0.75914,-0.6893,-0.9307,-0.99342,-44.686,-0.87114,0.30981,0.00054711,0.24,0.12,0
0.16646,0.077504,0.73832,-0.84394,-0.7647,-0.97481,-0.022057,0,0,0.25518,0.14207,0,-0.10496,0,0,0.76222,0.020679,0,0.76251,-0.67955,-0.92909,-0.97481,-45.848,-0.86115,0.30323,0.0010264,0.26,0.12,0
0.17111,0.073538,0.7154,-0.85074,-0.75039,-0.95727,-0.043178,0,0,0.20774,0.14369,0,-0.20858,0,0,0.76733,0.04192,0,0.76868,-0.66785,-0.93329,-0.95727,-47.656,-0.8528,0.30305,0.0015638,0.28,0.12,0
0.17477,0.067978,0.69228,-0.87038,-0.74381,-0.94578,-0.073022,0,0,0.14703,0.14676,0,-0.35117,0,0,0.7763,0.070998,0,0.78012,-0.65889,-0.95529,-0.94578,-50.132,-0.85332,0.31307,0.0022606,0.3,0.12,0
0.17699,0.060395,0.66882,-0.91957,-0.7431,-0.94468,-0.1476,0,0,0.048967,0.1526,0,-0.6664,0,0,0.81517,0.11597,0,0.82428,-0.62578,-1.0369,-0.94468,-51.584,-0.86912,0.3896,0.0045971,0.32,0.12,0
0.17673,0.045644,0.64337,-0.8825,-0.91584,-0.96842,-0.22971,0,0,0.10729,0.031886,0,-1.0102,0,0,0.70879,0.27651,0,0.76183,-0.66886,-1.1295,-0.96842,-42.891,-0.92225,0.41029,0.00305,0.34,0.12,0
0.18369,0.038103,0.62629,-0.99119,-1.1222,-1.2603,-0.17128,0,0,0.34985,0.17956,0,-0.44533,0,0,0.82648,0.21223,0,0.85076,-0.87331,-1.2401,-1.2603,-34.537,-1.1246,0.37728,0.0027314,0.36,0.12,0
0.19072,0.034287,0.61031,-0.95461,-1.0825,-1.2214,-0.093156,0,0,0.34689,0.18062,0,-0.24221,0,0,0.79997,0.11547,0,0.80756,-0.90557,-1.1316,-1.2214,-27.766,-1.0862,0.2819,0.00076844,0.38,0.12,0
0.19757,0.03157,0.5943,-0.9385,-1.0554,-1.1925,-0.050924,0,0,0.33016,0.17816,0,-0.1324,0,0,0.80561,0.049364,0,0.80678,-0.91943,-1.0745,-1.1925,-20.529,-1.0621,0.23719,0.00015944,0.4,0.12,0
0.20393,0.02984,0.57809,-0.9366,-1.0334,-1.1691,-0.016529,0,0,0.30222,0.17643,0,-0.042977,0,0,0.81884,-0.0020631,0,0.81865,-0.93386,-1.0361,-1.1691,-9.4316,-1.0463,0.20428,-9.8008e-05,0.42,0.12,0
0.20966,0.028945,0.56154,-0.94168,-1.0112,-1.1474,0.013297,0,0,0.26744,0.17708,0,0.034573,0,0,0.83966,-0.044728,0,0.84078,-0.93922,-1.0136,-1.1474,10.468,-1.0334,0.18271,-0.00014723,0.44,0.12,0
0.21463,0.028895,0.5445,-0.95244,-0.98598,-1.126,0.042207,0,0,0.22566,0.18206,0,0.10974,0,0,0.86833,-0.079551,0,0.87204,-0.92379,-1.0146,-1.126,34.166,-1.0215,0.17544,-4.8546e-05,0.46,0.12,0
0.21868,0.029798,0.52681,-0.97098,-0.95299,-1.104,0.071092,0,0,0.17293,0.19631,0,0.18484,0,0,0.90359,-0.10277,0,0.9096,-0.89033,-1.0336,-1.104,48.605,-1.0093,0.18861,0.00018998,0.48,0.12,0
0.22154,0.031716,0.50836,-0.99504,-0.8986,-1.0764,0.096414,0,0,0.10584,0.2312,0,0.25068,0,0,0.94115,-0.11105,0,0.94789,-0.83902,-1.0546,-1.0764,58.285,-0.99003,0.2273,0.00058442,0.5,0.12,0
0.22292,0.03442,0.48916,-1.0201,-0.821,-1.0415,0.10679,0,0,0.027849,0.28662,0,0.27765,0,0,0.9752,-0.10433,0,0.98088,-0.77455,-1.0665,-1.0415,66.492,-0.96085,0.28028,0.0011005,0.52,0.12,0
0.22266,0.037286,0.46935,-1.0441,-0.74666,-1.0066,0.099718,0,0,-0.048806,0.3379,0,0.25927,0,0,1.0015,-0.089598,0,1.0055,-0.71633,-1.0745,-1.0066,73.08,-0.93246,0.32948,0.0015774,0.54,0.12,0
0.22096,0.039725,0.4491,-1.0624,-0.69047,-0.97497,0.0817,0,0,-0.1137,0.36986,0,0.21242,0,0,1.0193,-0.073246,0,1.022,-0.67331,-1.0796,-0.97497,78.142,-0.90929,0.36538,0.0018301,0.56,0.12,0
0.21811,0.041471,0.42857,-1.0736,-0.65074,-0.94587,0.062893,0,0,-0.16603,0.38367,0,0.16352,0,0,1.0308,-0.059368,0,1.0325,-0.64158,-1.0827,-0.94587,81.717,-0.89007,0.39112,0.0018525,0.58,0.12,0
0.21432,0.042509,0.40787,-1.0786,-0.61908,-0.91717,0.046839,0,0,-0.20983,0.38751,0,0.12178,0,0,1.0385,-0.04788,0,1.0395,-0.61436,-1.0833,-0.91717,84.238,-0.87161,0.41183,0.0017202,0.6,0.12,0
0.20972,0.042937,0.38704,-1.0812,-0.59261,-0.88918,0.034009,0,0,-0.24961,0.38553,0,0.088423,0,0,1.0439,-0.038292,0,1.0446,-0.59026,-1.0835,-0.88918,86.037,-0.85432,0.43038,0.0014627,0.62,0.12,0
0.20434,0.042855,0.36611,-1.0829,-0.56949,-0.86181,0.023748,0,0,-0.28734,0.38003,0,0.061745,0,0,1.0479,-0.030122,0,1.0484,-0.56839,-1.0839,-0.86181,87.357,-0.83805,0.4479,0.0010926,0.64,0.12,0
0.19822,0.042355,0.34512,-1.0842,-0.54866,-0.83497,0.015383,0,0,-0.32395,0.3722,0,0.039996,0,0,1.051,-0.022973,0,1.0513,-0.54822,-1.0846,-0.83497,88.356,-0.8226,0.46489,0.00061657,0.66,0.12,0
0.19138,0.041511,0.32407,-1.0853,-0.52951,-0.80852,0.0083341,0,0,-0.35982,0.36271,0,0.021669,0,0,1.0534,-0.016514,0,1.0535,-0.52939,-1.0854,-0.80852,89.141,-0.80778,0.48155,3.9611e-05,0.68,0.12,0
0.18383,0.040386,0.30298,-1.0863,-0.51164,-0.78236,0.0021417,0,0,-0.3951,0.35194,0,0.0055685,0,0,1.0552,-0.010459,0,1.0552,-0.51163,-1.0863,-0.78236,89.787,-0.79343,0.49795,-0.00063327,0.7,0.12,0
0.17558,0.039028,0.28186,-1.087,-0.49479,-0.75641,-0.0035554,0,0,-0.4298,0.34011,0,-0.009244,0,0,1.0564,-0.0045476,0,1.0564,-0.49477,-1.0871,-0.75641,-89.656,-0.77941,0.51409,-0.0013964,0.72,0.12,0
0.16664,0.037479,0.26073,-1.0874,-0.4788,-0.7306,-0.0090413,0,0,-0.46389,0.32734,0,-0.023507,0,0,1.0571,0.0014711,0,1.0571,-0.47866,-1.0876,-0.7306,-89.149,-0.76561,0.52994,-0.0022428,0.74,0.12,0
0.15702,0.035775,0.23958,-1.0874,-0.46357,-0.70486,-0.014536,0,0,-0.49725,0.31368,0,-0.037795,0,0,1.0572,0.0078576,0,1.0572,-0.46323,-1.0877,-0.70486,-88.666,-0.75193,0.54539,-0.0031636,0.76,0.12,0
0.14675,0.033946,0.21844,-1.0865,-0.44908,-0.67913,-0.020201,0,0,-0.52965,0.29906,0,-0.052523,0,0,1.0565,0.014897,0,1.0566,-0.44844,-1.0872,-0.67913,-88.187,-0.73826,0.56024,-0.0041456,0.78,0.12,0
0.13584,0.032025,0.19732,-1.0846,-0.43538,-0.65333,-0.026122,0,0,-0.56071,0.28333,0,-0.067917,0,0,1.055,0.022918,0,1.0552,-0.43433,-1.0857,-0.65333,-87.7,-0.72445,0.5741,-0.0051683,0.8,0.12,0
0.12432,0.030048,0.17624,-1.081,-0.42259,-0.62731,-0.032246,0,0,-0.58977,0.26614,0,-0.083839,0,0,1.0521,0.032311,0,1.0526,-0.42102,-1.0826,-0.62731,-87.203,-0.7103,0.58628,-0.0061961,0.82,0.12,0
0.11224,0.028068,0.15524,-1.0746,-0.41101,-0.60091,-0.038237,0,0,-0.61575,0.24686,0,-0.099416,0,0,1.0472,0.043537,0,1.0481,-0.40882,-1.0768,-0.60091,-86.713,-0.69549,0.5956,-0.0071682,0.84,0.12,0
0.099687,0.026161,0.13436,-1.0638,-0.40095,-0.57379,-0.042877,0,0,-0.63706,0.22469,0,-0.11148,0,0,1.0385,0.057037,0,1.0401,-0.39819,-1.0666,-0.57379,-86.314,-0.67953,0.6002,-0.0079837,0.86,0.12,0
0.086761,0.024486,0.1137,-1.0504,-0.39401,-0.54701,-0.043798,0,0,-0.65438,0.19891,0,-0.11388,0,0,1.0238,0.072799,0,1.0265,-0.3911,-1.0533,-0.54701,-86.199,-0.6638,0.59964,-0.008601,0.88,0.12,0
0.073512,0.023263,0.093401,-1.0355,-0.38367,-0.51914,-0.037683,0,0,-0.67122,0.17611,0,-0.097975,0,0,1.0015,0.086712,0,1.0053,-0.3815,-1.0376,-0.51914,-86.702,-0.64609,0.59929,-0.0091192,0.9,0.12,0
0.059912,0.022665,0.073636,-1.021,-0.36035,-0.48803,-0.027531,0,0,-0.69281,0.16598,0,-0.071581,0,0,0.97262,0.092651,0,0.97717,-0.35921,-1.0221,-0.48803,-87.618,-0.62311,0.60879,-0.0098621,0.92,0.12,0
0.0458,0.022613,0.054496,-1.0076,-0.32351,-0.45382,-0.017937,0,0,-0.71989,0.16941,0,-0.046635,0,0,0.94199,0.084335,0,0.94587,-0.32304,-1.008,-0.45382,-88.499,-0.59497,0.62989,-0.010993,0.94,0.12,0
0.031117,0.022793,0.035956,-0.99742,-0.28751,-0.42143,-0.012267,0,0,-0.74878,0.17411,0,-0.031893,0,0,0.91583,0.062871,0,0.918,-0.2873,-0.99763,-0.42143,-89.01,-0.56879,0.65367,-0.012333,0.96,0.12,0
0.015849,0.022954,0.017862,-0.99116,-0.25849,-0.39276,-0.0068064,0,0,-0.77792,0.17455,0,-0.017697,0,0,0.8989,0.032862,0,0.89942,-0.25842,-0.99122,-0.39276,-89.468,-0.54747,0.67572,-0.013759,0.98,0.12,0
0,0.023004,0,-0.96626,-0.22271,-0.35669,0.00095839,0,0,-0.79244,0.17418,0,0.0024918,0,0,0.89312,-1.7347e-17,0,0.89301,-0.22271,-0.96626,-0.35669,89.926,-0.51522,0.68644,-0.014502,1,0.12,0
0,0.029225,1,-0.9057,-1.6899,-1.7787,0.0085079,0,0,1.1349,0.11544,0,0.022121,0,0,0.693,1.0061e-15,0,0.69272,-0.90561,-1.69,-1.7787,0.62154,-1.4581,0.83226,0.028477,0,0.14,0
0.022697,0.029667,0.98614,-0.88859,-1.6647,-1.7521,0.03521,0,0,1.1226,0.11366,0,0.091546,0,0,0.69169,-0.048111,0,0.69305,-0.88699,-1.6663,-1.7521,2.5923,-1.4351,0.82557,0.027848,0.02,0.14,0
0.044904,0.031085,0.97233,-0.88819,-1.6524,-1.7345,0.075681,0,0,1.1002,0.10674,0,0.19677,0,0,0.6867,-0.101,0,0.69368,-0.88077,-1.6598,-1.7345,5.6016,-1.425,0.81896,0.027421,0.04,0.14,0
0.066706,0.033605,0.95867,-0.88012,-1.6504,-1.7178,0.13003,0,0,1.089,0.087645,0,0.33807,0,0,0.67432,-0.16558,0,0.69366,-0.85876,-1.6718,-1.7178,9.3273,-1.4161,0.83699,0.029808,0.06,0.14,0
0.088465,0.037809,0.94536,-0.78648,-1.6492,-1.6761,0.18271,0,0,1.1564,0.034948,0,0.47503,0,0,0.61159,-0.25594,0,0.66084,-0.74939,-1.6863,-1.6761,11.478,-1.3706,0.93182,0.041538,0.08,0.14,0
0.11296,0.041182,0.93421,-0.73531,-1.3444,-1.2467,0.19577,0,0,0.76958,-0.19049,0,0.90546,0,0,0.51533,-0.27603,0,0.59679,-0.65975,-1.42,-1.2467,22.678,-1.1088,0.69567,0.030989,0.1,0.14,0
0.11925,0.055912,0.90582,-0.66917,-0.86703,-0.7628,0.12495,0,0,0.36515,-0.40648,0,0.97461,0,0,0.44934,-0.11347,0,0.4636,-0.60873,-0.92747,-0.7628,25.815,-0.76633,0.27609,-6.221e-05,0.12,0.14,0
0.12757,0.064703,0.88029,-0.62968,-0.84484,-0.73579,0.085233,0,0,0.41381,-0.42531,0,0.66482,0,0,0.41607,-0.0842,0,0.42442,-0.60001,-0.87451,-0.73579,19.195,-0.73677,0.23773,-1.2838e-05,0.14,0.14,0
0.1358,0.069728,0.85589,-0.61556,-0.82878,-0.7186,0.058486,0,0,0.40184,-0.42968,0,0.45619,0,0,0.40253,-0.061953,0,0.40719,-0.60057,-0.84376,-0.7186,14.375,-0.72098,0.21064,-2.4395e-05,0.16,0.14,0
0.14364,0.072523,0.83198,-0.60633,-0.81126,-0.70261,0.03956,0,0,0.37546,-0.42375,0,0.30857,0,0,0.39664,-0.043935,0,0.39901,-0.59896,-0.81863,-0.70261,10.556,-0.70673,0.19034,-3.4505e-05,0.18,0.14,0
0.15082,0.073638,0.8083,-0.60125,-0.79399,-0.688,0.024273,0,0,0.33834,-0.41334,0,0.18933,0,0,0.39425,-0.02832,0,0.39522,-0.59824,-0.797,-0.688,7.0688,-0.69441,0.1724,-4.3848e-05,0.2,0.14,0
0.15718,0.073431,0.78468,-0.59869,-0.77681,-0.67421,0.010917,0,0,0.29452,-0.40014,0,0.085153,0,0,0.39407,-0.01377,0,0.39427,-0.59802,-0.77748,-0.67421,3.4943,-0.68324,0.156,-5.0265e-05,0.22,0.14,0
0.1626,0.07208,0.76101,-0.59833,-0.75967,-0.66107,-0.0020183,0,0,0.2447,-0.38456,0,-0.015743,0,0,0.39577,0.00083641,0,0.39572,-0.5983,-0.7597,-0.66107,-0.71656,-0.67302,0.14092,-5.3681e-05,0.24,0.14,0
0.16697,0.06964,0.73718,-0.60061,-0.74245,-0.64864,-0.015948,0,0,0.18734,-0.36583,0,-0.12439,0,0,0.39966,0.01663,0,0.39996,-0.59884,-0.74422,-0.64864,-6.3368,-0.6639,0.12797,-5.5275e-05,0.26,0.14,0
0.17009,0.066023,0.71305,-0.60728,-0.72507,-0.63739,-0.032316,0,0,0.11741,-0.34196,0,-0.25206,0,0,0.40703,0.034994,0,0.40847,-0.599,-0.73335,-0.63739,-14.377,-0.65658,0.11986,-5.8826e-05,0.28,0.14,0
0.17166,0.06103,0.68834,-0.62037,-0.70634,-0.62746,-0.054161,0,0,0.02764,-0.30764,0,-0.42245,0,0,0.422,0.057866,0,0.42586,-0.59421,-0.7325,-0.62746,-25.781,-0.65139,0.12503,-7.6956e-05,0.3,0.14,0
0.1712,0.053827,0.66241,-0.6574,-0.69196,-0.62561,-0.084253,0,0,-0.12398,-0.25876,0,-0.65717,0,0,0.45715,0.088352,0,0.46575,-0.58867,-0.76068,-0.62561,-39.205,-0.65832,0.15684,-0.00016171,0.32,0.14,0
0.1667,0.043456,0.63348,-0.70874,-0.96281,-0.92379,-0.14238,0,0,0.2046,-0.076095,0,-0.65241,0,0,0.52861,0.23249,0,0.58872,-0.61815,-1.0534,-0.92379,-33.198,-0.86511,0.39863,0.0048797,0.34,0.14,0
0.17938,0.040856,0.62198,-0.77004,-1.1428,-1.1958,-0.13258,0,0,0.55354,0.06891,0,-0.34471,0,0,0.63643,0.19197,0,0.66268,-0.72769,-1.1852,-1.1958,-17.712,-1.0362,0.46291,0.0050854,0.36,0.14,0
0.18884,0.037172,0.60802,-0.86102,-1.119,-1.202,-0.091263,0,0,0.44332,0.10792,0,-0.23728,0,0,0.71428,0.099884,0,0.72063,-0.832,-1.148,-1.202,-17.639,-1.0607,0.34621,0.0019577,0.38,0.14,0
0.19712,0.03464,0.59341,-0.88474,-1.09,-1.1858,-0.044613,0,0,0.3914,0.12461,0,-0.11599,0,0,0.74326,0.033104,0,0.74366,-0.87546,-1.0992,-1.1858,-11.749,-1.0535,0.27739,0.00074699,0.4,0.14,0
0.2045,0.032974,0.57829,-0.90023,-1.0647,-1.1678,-0.0073149,0,0,0.34781,0.13398,0,-0.019019,0,0,0.76826,-0.021978,0,0.76836,-0.8999,-1.065,-1.1678,-2.5413,-1.0442,0.23407,0.00025717,0.42,0.14,0
0.21103,0.032153,0.56268,-0.9156,-1.0408,-1.1496,0.026462,0,0,0.30419,0.14146,0,0.068803,0,0,0.79664,-0.071452,0,0.79973,-0.91023,-1.0461,-1.1496,11.46,-1.0353,0.20792,0.00010719,0.44,0.14,0
0.21667,0.032233,0.54643,-0.93537,-1.018,-1.1324,0.059949,0,0,0.25618,0.14879,0,0.15587,0,0,0.83534,-0.11762,0,0.84366,-0.90388,-1.0495,-1.1324,27.717,-1.0286,0.2004,0.0001875,0.46,0.14,0
0.22128,0.033426,0.52926,-0.961,-0.98774,-1.1139,0.097802,0,0,0.19875,0.16399,0,0.25428,0,0,0.8862,-0.15537,0,0.90023,-0.87566,-1.0731,-1.1139,41.108,-1.0209,0.22067,0.00048891,0.48,0.14,0
0.22462,0.036151,0.51098,-1.0003,-0.93263,-1.0908,0.13253,0,0,0.11778,0.20567,0,0.34457,0,0,0.94251,-0.16134,0,0.95668,-0.82967,-1.1032,-1.0908,52.155,-1.0079,0.26758,0.00097683,0.5,0.14,0
0.22599,0.040213,0.49156,-1.0277,-0.80898,-1.0426,0.14524,0,0,0.019366,0.30365,0,0.37763,0,0,0.99069,-0.14212,0,1.001,-0.73652,-1.1001,-1.0426,63.486,-0.95973,0.33851,0.0017995,0.52,0.14,0
0.22539,0.044278,0.47135,-1.0559,-0.71424,-1.0024,0.12031,0,0,-0.069592,0.37461,0,0.31281,0,0,1.0218,-0.10753,0,1.0273,-0.67613,-1.094,-1.0024,72.423,-0.9242,0.38047,0.0022849,0.54,0.14,0
0.2232,0.047383,0.45069,-1.0768,-0.66818,-0.97418,0.090795,0,0,-0.13338,0.3978,0,0.23607,0,0,1.0376,-0.083634,0,1.041,-0.64891,-1.096,-0.97418,78.019,-0.90638,0.40036,0.0022957,0.56,0.14,0
0.22006,0.049346,0.42985,-1.0802,-0.63315,-0.94386,0.066838,0,0,-0.17728,0.40392,0,0.17378,0,0,1.0452,-0.066132,0,1.0473,-0.62337,-1.09,-0.94386,81.677,-0.88574,0.41341,0.0021595,0.58,0.14,0
0.21611,0.050412,0.40889,-1.0809,-0.60545,-0.91478,0.04948,0,0,-0.21591,0.40213,0,0.12865,0,0,1.05,-0.052701,0,1.0513,-0.60035,-1.0859,-0.91478,84.121,-0.86703,0.4266,0.0019329,0.6,0.14,0
0.21142,0.050763,0.38785,-1.0814,-0.58183,-0.8868,0.036422,0,0,-0.25292,0.39647,0,0.094698,0,0,1.0534,-0.041939,0,1.0542,-0.57919,-1.084,-0.8868,85.852,-0.85,0.44065,0.0016172,0.62,0.14,0
0.206,0.050547,0.36675,-1.0824,-0.56076,-0.8597,0.026267,0,0,-0.28951,0.38862,0,0.068294,0,0,1.056,-0.032984,0,1.0566,-0.55944,-1.0837,-0.8597,87.125,-0.83428,0.45563,0.0012079,0.64,0.14,0
0.19984,0.049874,0.34561,-1.0839,-0.54137,-0.8332,0.018025,0,0,-0.32597,0.37938,0,0.046865,0,0,1.0582,-0.025255,0,1.0585,-0.54077,-1.0845,-0.8332,88.099,-0.8195,0.47137,0.00070152,0.66,0.14,0
0.19296,0.048832,0.32442,-1.0858,-0.52317,-0.80713,0.01103,0,0,-0.36234,0.36915,0,0.028678,0,0,1.06,-0.018327,0,1.0601,-0.52295,-1.0861,-0.80713,88.877,-0.80538,0.48768,9.5977e-05,0.68,0.14,0
0.18535,0.047488,0.30321,-1.088,-0.50587,-0.78136,0.0047992,0,0,-0.39859,0.35814,0,0.012478,0,0,1.0614,-0.011862,0,1.0615,-0.50582,-1.088,-0.78136,89.528,-0.79173,0.50442,-0.00060915,0.7,0.14,0
0.17701,0.045894,0.28197,-1.0901,-0.48928,-0.75579,-0.001033,0,0,-0.43465,0.34646,0,-0.0026858,0,0,1.0626,-0.0055612,0,1.0626,-0.48928,-1.0901,-0.75579,-89.901,-0.77841,0.52146,-0.0014131,0.72,0.14,0
0.16796,0.044093,0.2607,-1.0923,-0.47332,-0.73038,-0.006761,0,0,-0.47046,0.33418,0,-0.017579,0,0,1.0636,0.00085879,0,1.0636,-0.47325,-1.0923,-0.73038,-89.374,-0.76532,0.53871,-0.0023142,0.74,0.14,0
0.1582,0.042122,0.23942,-1.0942,-0.45792,-0.70507,-0.012636,0,0,-0.50591,0.32129,0,-0.032854,0,0,1.0642,0.0076956,0,1.0642,-0.45767,-1.0945,-0.70507,-88.863,-0.7524,0.55605,-0.0033092,0.76,0.14,0
0.14772,0.04001,0.21813,-1.0958,-0.44309,-0.67982,-0.018891,0,0,-0.54085,0.30774,0,-0.049116,0,0,1.0645,0.015289,0,1.0646,-0.44255,-1.0964,-0.67982,-88.344,-0.73959,0.57331,-0.0043924,0.78,0.14,0
0.13656,0.037784,0.19684,-1.0969,-0.42891,-0.65458,-0.025755,0,0,-0.57497,0.29336,0,-0.066964,0,0,1.0643,0.024061,0,1.0646,-0.42792,-1.0978,-0.65458,-87.795,-0.72678,0.5902,-0.0055523,0.8,0.14,0
0.12473,0.035474,0.17556,-1.0967,-0.41557,-0.62924,-0.033476,0,0,-0.6077,0.27778,0,-0.087039,0,0,1.0634,0.034582,0,1.0639,-0.41393,-1.0983,-0.62924,-87.193,-0.71384,0.60616,-0.0067641,0.82,0.14,0
0.11225,0.033113,0.15431,-1.0942,-0.4034,-0.60358,-0.042233,0,0,-0.63777,0.26023,0,-0.10981,0,0,1.0611,0.047691,0,1.0622,-0.40083,-1.0967,-0.60358,-86.514,-0.70038,0.61992,-0.0079692,0.84,0.14,0
0.099215,0.030755,0.13312,-1.0867,-0.39315,-0.57706,-0.052056,0,0,-0.66249,0.23908,0,-0.13535,0,0,1.0562,0.06471,0,1.0581,-0.38927,-1.0905,-0.57706,-85.731,-0.68563,0.62878,-0.0090332,0.86,0.14,0
0.085754,0.028489,0.11206,-1.0674,-0.38521,-0.54784,-0.060203,0,0,-0.67541,0.21142,0,-0.15653,0,0,1.0431,0.087768,0,1.0467,-0.37994,-1.0727,-0.54784,-84.995,-0.66681,0.62589,-0.0096039,0.88,0.14,0
0.072199,0.026704,0.091394,-1.0483,-0.39259,-0.52366,-0.061355,0,0,-0.68204,0.17039,0,-0.15952,0,0,1.0155,0.12054,0,1.0228,-0.3869,-1.054,-0.52366,-84.7,-0.65485,0.61032,-0.0097286,0.9,0.14,0
0.058472,0.025847,0.071439,-1.0253,-0.37864,-0.49261,-0.04611,0,0,-0.69245,0.14816,0,-0.11989,0,0,0.97268,0.13696,0,0.98264,-0.37537,-1.0285,-0.49261,-85.942,-0.63217,0.60315,-0.0098496,0.92,0.14,0
0.044501,0.025889,0.052487,-0.9966,-0.32769,-0.44977,-0.035324,0,0,-0.71087,0.1587,0,-0.091841,0,0,0.92437,0.12828,0,0.93356,-0.32583,-0.99845,-0.44977,-86.986,-0.59135,0.62001,-0.010611,0.94,0.14,0
0.030038,0.026169,0.034464,-0.98024,-0.29651,-0.41749,-0.026168,0,0,-0.73157,0.15727,0,-0.068038,0,0,0.88486,0.089363,0,0.8893,-0.29551,-0.98124,-0.41749,-87.811,-0.56475,0.6336,-0.011449,0.96,0.14,0
0.015238,0.0263,0.017092,-0.96545,-0.27027,-0.38781,-0.014825,0,0,-0.75094,0.1528,0,-0.038544,0,0,0.86161,0.044671,0,0.86259,-0.26995,-0.96577,-0.38781,-88.779,-0.54118,0.64501,-0.012246,0.98,0.14,0
0,0.026328,0,-0.93869,-0.23672,-0.35263,0.00053569,0,0,-0.76189,0.15067,0,0.0013928,0,0,0.85462,-1.0408e-17,0,0.85442,-0.23672,-0.93869,-0.35263,89.956,-0.50935,0.65179,-0.012719,1,0.14,0
0,0.031102,1,-0.86503,-1.7205,-1.7757,0.0073741,0,0,1.1838,0.071707,0,0.019173,0,0,0.64598,-8.2573e-16,0,0.64573,-0.86496,-1.7206,-1.7757,0.49384,-1.4537,0.88443,0.035067,0,0.16,0
0.023676,0.031485,0.98708,-0.84565,-1.6981,-1.7502,0.033676,0,0,1.1759,0.067744,0,0.087558,0,0,0.6426,-0.044049,0,0.64385,-0.84433,-1.6994,-1.7502,2.2588,-1.4313,0.88159,0.034796,0.02,0.16,0
0.047037,0.032661,0.9743,-0.83419,-1.6905,-1.7317,0.070446,0,0,1.1668,0.053518,0,0.18316,0,0,0.63097,-0.091006,0,0.63721,-0.82844,-1.6963,-1.7317,4.6715,-1.4188,0.88611,0.035542,0.04,0.16,0
0.070348,0.034662,0.96184,-0.80072,-1.6932,-1.71,0.10708,0,0,1.1821,0.021883,0,0.2784,0,0,0.60352,-0.14384,0,0.62014,-0.78806,-1.7059,-1.71,6.7469,-1.4013,0.91988,0.039975,0.06,0.16,0
0.09432,0.036968,0.95015,-0.76602,-1.7416,-1.7024,0.13134,0,0,1.2173,-0.050904,0,0.34148,0,0,0.55324,-0.20397,0,0.59036,-0.74865,-1.759,-1.7024,7.5348,-1.4034,0.98328,0.048282,0.08,0.16,0
0.11904,0.038468,0.93971,-0.70658,-1.2814,-1.2229,0.11734,0,0,0.77746,-0.11416,0,0.57746,0,0,0.49572,-0.15492,0,0.52429,-0.66705,-1.3209,-1.2229,19.032,-1.0703,0.61487,0.026603,0.1,0.16,0
0.12542,0.049555,0.91156,-0.65863,-0.81797,-0.74683,0.093417,0,0,0.34398,-0.27743,0,0.72865,0,0,0.45666,-0.080586,0,0.46394,-0.61552,-0.86107,-0.74683,24.771,-0.74114,0.21282,5.9419e-05,0.12,0.16,0
0.1328,0.057133,0.88491,-0.63636,-0.8195,-0.73173,0.068872,0,0,0.37192,-0.3423,0,0.5372,0,0,0.4346,-0.06844,0,0.44,-0.61335,-0.84251,-0.73173,18.474,-0.7292,0.19849,2.3047e-05,0.14,0.16,0
0.1403,0.061912,0.8594,-0.6226,-0.80915,-0.71599,0.0494,0,0,0.36423,-0.36332,0,0.38532,0,0,0.41989,-0.053788,0,0.42331,-0.61033,-0.82143,-0.71599,13.953,-0.71591,0.18282,6.0548e-07,0.16,0.16,0
0.14737,0.064655,0.83453,-0.61491,-0.79633,-0.70155,0.034065,0,0,0.33787,-0.36964,0,0.26571,0,0,0.41197,-0.039927,0,0.41387,-0.60873,-0.80251,-0.70155,10.292,-0.70426,0.16787,-1.7668e-05,0.18,0.16,0
0.15381,0.06589,0.80997,-0.61018,-0.78144,-0.68747,0.021401,0,0,0.30146,-0.36646,0,0.16693,0,0,0.40835,-0.026994,0,0.4092,-0.60754,-0.78407,-0.68747,7.016,-0.69303,0.1531,-2.9981e-05,0.2,0.16,0
0.15943,0.065909,0.78552,-0.60815,-0.76531,-0.67388,0.010138,0,0,0.25634,-0.35657,0,0.079077,0,0,0.4078,-0.014561,0,0.40803,-0.6075,-0.76596,-0.67388,3.6758,-0.68244,0.13783,-3.7178e-05,0.22,0.16,0
0.16406,0.06488,0.76103,-0.6087,-0.74804,-0.6607,-0.0006247,0,0,0.2028,-0.34064,0,-0.0048726,0,0,0.40999,-0.0020704,0,0.40996,-0.6087,-0.74805,-0.6607,-0.25686,-0.67248,0.12197,-3.9371e-05,0.24,0.16,0
0.16754,0.062871,0.73633,-0.61224,-0.72952,-0.64797,-0.011696,0,0,0.13934,-0.31803,0,-0.091226,0,0,0.41527,0.011042,0,0.41539,-0.61108,-0.73067,-0.64797,-5.6399,-0.66324,0.10607,-3.7242e-05,0.26,0.16,0
0.16964,0.059859,0.7112,-0.61943,-0.70907,-0.63562,-0.023949,0,0,0.063127,-0.28646,0,-0.1868,0,0,0.4249,0.025238,0,0.42564,-0.61343,-0.71506,-0.63562,-14.059,-0.6547,0.092556,-3.2971e-05,0.28,0.16,0
0.17006,0.055672,0.68534,-0.63296,-0.68636,-0.62424,-0.038013,0,0,-0.034001,-0.24227,0,-0.2965,0,0,0.44151,0.040455,0,0.44342,-0.61321,-0.70612,-0.62424,-27.457,-0.64786,0.08791,-3.3047e-05,0.3,0.16,0
0.16828,0.050044,0.65822,-0.65317,-0.6546,-0.61174,-0.054184,0,0,-0.16159,-0.16717,0,-0.42263,0,0,0.46597,0.053574,0,0.4693,-0.5997,-0.70807,-0.61174,-44.622,-0.63984,0.10289,-5.3362e-05,0.32,0.16,0
0.1636,0.0426,0.62942,-0.69134,-0.92129,-0.9034,-0.067435,0,0,0.19777,-0.034885,0,-0.33428,0,0,0.51014,0.10306,0,0.52339,-0.64026,-0.97237,-0.9034,-32.185,-0.83868,0.31696,0.0033945,0.34,0.16,0
0.17619,0.040859,0.61862,-0.74979,-1.2158,-1.2083,-0.076598,0,0,0.59607,-0.009796,0,-0.19916,0,0,0.57763,0.12618,0,0.59238,-0.73752,-1.2281,-1.2083,-9.0982,-1.058,0.48099,0.0056824,0.36,0.16,0
0.18745,0.038604,0.60632,-0.78692,-1.1572,-1.1896,-0.056178,0,0,0.52343,0.042035,0,-0.14606,0,0,0.6411,0.063911,0,0.64415,-0.77858,-1.1656,-1.1896,-8.4393,-1.0446,0.39952,0.0032353,0.38,0.16,0
0.19712,0.036555,0.59297,-0.82934,-1.1258,-1.1795,-0.023648,0,0,0.45522,0.069838,0,-0.061485,0,0,0.68375,0.0068408,0,0.68357,-0.82747,-1.1277,-1.1795,-4.5324,-1.0449,0.3292,0.0016801,0.4,0.16,0
0.20565,0.035199,0.57897,-0.85773,-1.0986,-1.1659,0.012015,0,0,0.40058,0.087433,0,0.031239,0,0,0.71428,-0.046605,0,0.71558,-0.85713,-1.0992,-1.1659,2.8484,-1.0407,0.28139,0.00093149,0.42,0.16,0
0.21315,0.034603,0.5644,-0.88451,-1.0757,-1.1524,0.047603,0,0,0.34833,0.099812,0,0.12377,0,0,0.74401,-0.10028,0,0.75053,-0.87331,-1.0869,-1.1524,13.237,-1.0375,0.25282,0.00064546,0.44,0.16,0
0.21959,0.034846,0.54921,-0.91279,-1.0548,-1.1395,0.087108,0,0,0.29468,0.11013,0,0.22648,0,0,0.78441,-0.15879,0,0.80012,-0.87141,-1.0961,-1.1395,25.412,-1.0357,0.24924,0.00071485,0.46,0.16,0
0.22494,0.036357,0.53302,-0.9649,-1.0485,-1.137,0.13705,0,0,0.22378,0.11511,0,0.35633,0,0,0.85986,-0.22801,0,0.89,-0.86342,-1.15,-1.137,36.519,-1.0501,0.28032,0.0011232,0.48,0.16,0
0.22854,0.039943,0.51481,-1.0227,-0.98816,-1.1181,0.20307,0,0,0.12397,0.16888,0,0.52799,0,0,0.95441,-0.28386,0,0.99853,-0.80163,-1.2092,-1.1181,47.431,-1.043,0.37054,0.0020892,0.5,0.16,0
0.22989,0.046566,0.49485,-1.0324,-0.72487,-1.022,0.17814,0,0,-0.013491,0.38631,0,0.46317,0,0,1.029,-0.16324,0,1.0409,-0.64331,-1.114,-1.022,65.4,-0.92644,0.43209,0.0035192,0.52,0.16,0
0.228,0.05227,0.47365,-1.0954,-0.68504,-1.0078,0.12896,0,0,-0.11391,0.41957,0,0.3353,0,0,1.06,-0.11597,0,1.0662,-0.64788,-1.1326,-1.0078,73.925,-0.92941,0.4359,0.0031081,0.54,0.16,0
0.22534,0.055637,0.45245,-1.0866,-0.64461,-0.9718,0.089664,0,0,-0.14921,0.42535,0,0.23313,0,0,1.0608,-0.088101,0,1.0644,-0.62711,-1.1041,-0.9718,78.958,-0.90099,0.4265,0.0027307,0.56,0.16,0
0.22203,0.057628,0.43122,-1.0801,-0.61576,-0.93999,0.066636,0,0,-0.18218,0.42149,0,0.17325,0,0,1.0618,-0.069125,0,1.064,-0.60639,-1.0895,-0.93999,81.993,-0.87862,0.42839,0.0024424,0.58,0.16,0
0.21805,0.058595,0.40998,-1.0774,-0.59217,-0.91086,0.050554,0,0,-0.21655,0.41429,0,0.13144,0,0,1.0626,-0.055005,0,1.064,-0.58696,-1.0826,-0.91086,84.115,-0.86016,0.43596,0.0021369,0.6,0.16,0
0.21337,0.058796,0.38871,-1.0775,-0.57143,-0.88338,0.038684,0,0,-0.2523,0.40554,0,0.10058,0,0,1.0636,-0.043864,0,1.0645,-0.56849,-1.0804,-0.88338,85.654,-0.84409,0.44723,0.0017742,0.62,0.16,0
0.20796,0.0584,0.36743,-1.0791,-0.55232,-0.85687,0.02935,0,0,-0.28895,0.39592,0,0.076309,0,0,1.0646,-0.034666,0,1.0652,-0.55069,-1.0808,-0.85687,86.821,-0.82944,0.4609,0.0013323,0.64,0.16,0
0.20181,0.05753,0.34613,-1.0818,-0.53424,-0.83095,0.021644,0,0,-0.32613,0.38572,0,0.056274,0,0,1.0657,-0.02676,0,1.066,-0.53339,-1.0827,-0.83095,87.74,-0.81567,0.47624,0.00079846,0.66,0.16,0
0.19491,0.056278,0.32481,-1.0851,-0.51689,-0.80541,0.014974,0,0,-0.36362,0.37508,0,0.038933,0,0,1.0668,-0.019692,0,1.067,-0.51649,-1.0855,-0.80541,88.492,-0.80247,0.4928,0.00016483,0.68,0.16,0
0.18727,0.054711,0.30346,-1.0888,-0.50007,-0.78012,0.0089253,0,0,-0.40128,0.36406,0,0.023206,0,0,1.0679,-0.013104,0,1.068,-0.49994,-1.0889,-0.78012,89.132,-0.78966,0.51028,-0.00057373,0.7,0.16,0
0.17886,0.052887,0.28209,-1.0927,-0.48369,-0.75501,0.003178,0,0,-0.43902,0.35272,0,0.0082629,0,0,1.0691,-0.0066901,0,1.0691,-0.48368,-1.0927,-0.75501,89.701,-0.77714,0.52851,-0.0014211,0.72,0.16,0
0.1697,0.050847,0.26069,-1.0968,-0.46769,-0.73005,-0.0025335,0,0,-0.47681,0.34107,0,-0.006587,0,0,1.0703,-0.00015723,0,1.0703,-0.46768,-1.0968,-0.73005,-89.769,-0.76485,0.54737,-0.002381,0.74,0.16,0
0.15979,0.048626,0.23927,-1.1011,-0.45203,-0.7052,-0.0084531,0,0,-0.51464,0.32914,0,-0.021978,0,0,1.0716,0.0068024,0,1.0716,-0.45191,-1.1012,-0.7052,-89.254,-0.75277,0.5668,-0.003457,0.76,0.16,0
0.14912,0.046256,0.21783,-1.1055,-0.43672,-0.68049,-0.014833,0,0,-0.55248,0.3169,0,-0.038565,0,0,1.0729,0.014546,0,1.073,-0.43639,-1.1058,-0.68049,-88.73,-0.74089,0.58676,-0.0046538,0.78,0.16,0
0.13769,0.043759,0.19636,-1.11,-0.42184,-0.65591,-0.021974,0,0,-0.59031,0.30429,0,-0.057131,0,0,1.0743,0.023532,0,1.0745,-0.42113,-1.1107,-0.65591,-88.173,-0.72924,0.60722,-0.0059762,0.8,0.16,0
0.12551,0.04116,0.17486,-1.1146,-0.40752,-0.63149,-0.030289,0,0,-0.62801,0.29115,0,-0.078751,0,0,1.0758,0.034409,0,1.0763,-0.40623,-1.1159,-0.63149,-87.552,-0.71786,0.62808,-0.0074281,0.82,0.16,0
0.11257,0.038477,0.15333,-1.1189,-0.39412,-0.60725,-0.040476,0,0,-0.66521,0.27707,0,-0.10524,0,0,1.0773,0.0482,0,1.0784,-0.39186,-1.1212,-0.60725,-86.814,-0.70677,0.64903,-0.0090057,0.84,0.16,0
0.098898,0.035724,0.13177,-1.1218,-0.38213,-0.58293,-0.053503,0,0,-0.70047,0.26104,0,-0.13911,0,0,1.0786,0.066739,0,1.0806,-0.37828,-1.1256,-0.58293,-85.884,-0.69561,0.6689,-0.01066,0.86,0.16,0
0.084552,0.032943,0.11018,-1.1172,-0.37241,-0.55705,-0.072331,0,0,-0.72813,0.24003,0,-0.18806,0,0,1.0797,0.093911,0,1.0837,-0.36545,-1.1241,-0.55705,-84.504,-0.68221,0.68331,-0.012146,0.88,0.16,0
0.069773,0.030078,0.088579,-1.0652,-0.35554,-0.5148,-0.089461,0,0,-0.71552,0.20703,0,-0.2326,0,0,1.0507,0.13969,0,1.059,-0.34444,-1.0763,-0.5148,-82.925,-0.64518,0.6633,-0.011721,0.9,0.16,0
0.055931,0.028591,0.068157,-1.0399,-0.40636,-0.50204,-0.1051,0,0,-0.69923,0.12438,0,-0.27326,0,0,0.98036,0.25387,0,1.0153,-0.38938,-1.0569,-0.50204,-80.823,-0.64943,0.61892,-0.010829,0.92,0.16,0
0.041804,0.028961,0.049364,-0.98894,-0.35151,-0.4515,-0.071189,0,0,-0.69867,0.12998,0,-0.18509,0,0,0.89439,0.18962,0,0.91432,-0.34366,-0.99679,-0.4515,-83.704,-0.59732,0.60645,-0.010245,0.94,0.16,0
0.027985,0.029084,0.032381,-0.94167,-0.3165,-0.40983,-0.050651,0,0,-0.69139,0.12133,0,-0.13169,0,0,0.83222,0.11661,0,0.83998,-0.31242,-0.94575,-0.40983,-85.398,-0.556,0.59068,-0.0096213,0.96,0.16,0
0.014148,0.029066,0.016075,-0.91667,-0.29142,-0.3785,-0.026413,0,0,-0.69961,0.11321,0,-0.068673,0,0,0.80954,0.055656,0,0.81111,-0.29031,-0.91778,-0.3785,-87.585,-0.52886,0.58835,-0.0096726,0.98,0.16,0
0,0.029031,0,-0.88858,-0.25945,-0.34441,-0.00067941,0,0,-0.70742,0.11045,0,-0.0017665,0,0,0.80378,2.0817e-17,0,0.80345,-0.25945,-0.88858,-0.34441,-89.938,-0.49748,0.59125,-0.0098802,1,0.16,0
0,0.032093,1,-0.8243,-1.749,-1.772,0.0054595,0,0,1.232,0.029895,0,0.014195,0,0,0.6049,-3.629e-15,0,0.6047,-0.82427,-1.749,-1.772,0.33827,-1.4484,0.93645,0.042092,0,0.18,0
0.02464,0.032377,0.9879,-0.80454,-1.7287,-1.7479,0.027968,0,0,1.2263,0.024931,0,0.072718,0,0,0.60068,-0.037184,0,0.60164,-0.8037,-1.7295,-1.7479,1.7319,-1.427,0.93515,0.041947,0.02,0.18,0
0.049053,0.033226,0.97597,-0.78938,-1.723,-1.7297,0.055324,0,0,1.2224,0.0086956,0,0.14384,0,0,0.58691,-0.075097,0,0.59156,-0.78612,-1.7263,-1.7297,3.3794,-1.414,0.94186,0.042911,0.04,0.18,0
0.073536,0.034481,0.96443,-0.76631,-1.7313,-1.7137,0.07778,0,0,1.2316,-0.022877,0,0.20223,0,0,0.56136,-0.1132,0,0.5727,-0.76008,-1.7375,-1.7137,4.5787,-1.4038,0.96576,0.046169,0.06,0.18,0
0.098318,0.035773,0.95352,-0.73909,-1.7474,-1.6995,0.086637,0,0,1.2485,-0.062305,0,0.22526,0,0,0.52304,-0.14491,0,0.54313,-0.7317,-1.7548,-1.6995,4.8754,-1.3953,0.99657,0.050306,0.08,0.18,0
0.12348,0.036616,0.9435,-0.6891,-1.2575,-1.213,0.082795,0,0,0.78529,-0.086786,0,0.41486,0,0,0.48379,-0.10793,0,0.49846,-0.66478,-1.2818,-1.213,16.508,-1.0532,0.5884,0.026373,0.1,0.18,0
0.12973,0.044815,0.91549,-0.65546,-0.79478,-0.74024,0.070279,0,0,0.33062,-0.21272,0,0.54818,0,0,0.45836,-0.05656,0,0.46192,-0.62617,-0.82408,-0.74024,22.627,-0.73016,0.17206,6.8236e-05,0.12,0.18,0
0.1367,0.051012,0.8885,-0.63793,-0.7996,-0.72742,0.055285,0,0,0.34904,-0.28147,0,0.43122,0,0,0.44287,-0.052572,0,0.44603,-0.62083,-0.81669,-0.72742,17.184,-0.72165,0.16984,3.8369e-05,0.14,0.18,0
0.14369,0.055196,0.86235,-0.62661,-0.79439,-0.71375,0.040956,0,0,0.33984,-0.31451,0,0.31946,0,0,0.43104,-0.044394,0,0.43333,-0.61715,-0.80386,-0.71375,13.011,-0.71159,0.16173,1.308e-05,0.16,0.18,0
0.15029,0.057738,0.83678,-0.61956,-0.78406,-0.70001,0.028985,0,0,0.31376,-0.3278,0,0.22608,0,0,0.42344,-0.034887,0,0.42486,-0.6146,-0.78902,-0.70001,9.7062,-0.70121,0.15106,-6.3272e-06,0.18,0.18,0
0.15624,0.058979,0.81154,-0.61561,-0.77097,-0.68649,0.018861,0,0,0.27641,-0.32949,0,0.14711,0,0,0.41961,-0.025146,0,0.42035,-0.61336,-0.77323,-0.68649,6.8237,-0.69102,0.13862,-2.0083e-05,0.2,0.18,0
0.16135,0.059168,0.78642,-0.61411,-0.75573,-0.67309,0.009929,0,0,0.23003,-0.32229,0,0.077446,0,0,0.41899,-0.015405,0,0.41926,-0.61342,-0.75643,-0.67309,3.991,-0.68098,0.12441,-2.787e-05,0.22,0.18,0
0.16544,0.058455,0.76126,-0.61508,-0.73863,-0.65986,0.0016032,0,0,0.17467,-0.30718,0,0.012505,0,0,0.42137,-0.0056146,0,0.42139,-0.61506,-0.73865,-0.65986,0.74329,-0.67119,0.10837,-2.9735e-05,0.24,0.18,0
0.16834,0.056918,0.73586,-0.61868,-0.71952,-0.64675,-0.0066007,0,0,0.10945,-0.28381,0,-0.051486,0,0,0.42697,0.0042784,0,0.42699,-0.61825,-0.71995,-0.64675,-3.7294,-0.66165,0.090863,-2.6142e-05,0.26,0.18,0
0.16982,0.054564,0.71002,-0.62555,-0.69805,-0.63375,-0.015036,0,0,0.031993,-0.25077,0,-0.11728,0,0,0.43645,0.014046,0,0.43669,-0.62256,-0.70105,-0.63375,-11.264,-0.65245,0.073535,-1.8836e-05,0.28,0.18,0
0.16962,0.051339,0.68349,-0.63627,-0.67274,-0.62053,-0.023869,0,0,-0.061373,-0.20363,0,-0.18618,0,0,0.45033,0.022593,0,0.45096,-0.62447,-0.68454,-0.62053,-26.309,-0.64318,0.062138,-1.2156e-05,0.3,0.18,0
0.16737,0.047141,0.65598,-0.65226,-0.64136,-0.60675,-0.031827,0,0,-0.17751,-0.13499,0,-0.24825,0,0,0.46823,0.026978,0,0.46911,-0.61452,-0.6791,-0.60675,-49.859,-0.63345,0.068798,-1.6007e-05,0.32,0.18,0
0.16252,0.042061,0.6273,-0.67792,-0.91095,-0.89486,-0.035786,0,0,0.2012,-0.031377,0,-0.1831,0,0,0.49816,0.049153,0,0.50161,-0.6411,-0.94776,-0.89486,-34.021,-0.82791,0.2982,0.0034118,0.34,0.18,0
0.17541,0.040464,0.61693,-0.72374,-1.2214,-1.2005,-0.031614,0,0,0.61974,-0.027173,0,-0.082196,0,0,0.54576,0.055752,0,0.54922,-0.72174,-1.2234,-1.2005,-3.6206,-1.0485,0.49057,0.0060191,0.36,0.18,0
0.18731,0.038853,0.60547,-0.7533,-1.1913,-1.1888,-0.018866,0,0,0.5662,-0.0031684,0,-0.049052,0,0,0.59494,0.020844,0,0.59548,-0.75249,-1.1921,-1.1888,-2.462,-1.0445,0.43798,0.0043144,0.38,0.18,0
0.19806,0.037434,0.59313,-0.78349,-1.1584,-1.1757,0.0051726,0,0,0.50989,0.022461,0,0.013449,0,0,0.63274,-0.02328,0,0.63307,-0.78342,-1.1585,-1.1757,0.79024,-1.0392,0.38398,0.0028879,0.4,0.18,0
0.2077,0.036471,0.58016,-0.81232,-1.1327,-1.1637,0.036237,0,0,0.45677,0.04021,0,0.094217,0,0,0.66113,-0.071154,0,0.66473,-0.80827,-1.1368,-1.1637,6.3724,-1.0362,0.34276,0.0020253,0.42,0.18,0
0.21633,0.036146,0.56669,-0.83948,-1.1129,-1.1524,0.073279,0,0,0.40679,0.051371,0,0.19052,0,0,0.68446,-0.12463,0,0.69536,-0.82108,-1.1313,-1.1524,14.097,-1.0349,0.32128,0.0016785,0.44,0.18,0
0.22397,0.036638,0.55278,-0.87558,-1.1043,-1.1467,0.11748,0,0,0.35249,0.055208,0,0.30545,0,0,0.70761,-0.19005,0,0.73206,-0.82599,-1.1539,-1.1467,22.888,-1.0422,0.32437,0.00175,0.46,0.18,0
0.23043,0.038031,0.53839,-0.92989,-1.1159,-1.1521,0.19681,0,0,0.28889,0.047099,0,0.51171,0,0,0.76113,-0.28287,0,0.80973,-0.80521,-1.2406,-1.1521,32.354,-1.066,0.39856,0.0027196,0.48,0.18,0
0.23553,0.042907,0.52233,-0.85219,-0.9027,-0.87469,0.25434,0,0,-0.026446,-0.12221,0,1.1248,0,0,0.67152,-0.31611,0,0.74467,-0.62177,-1.1331,-0.87469,42.391,-0.87653,0.44625,0.00085093,0.5,0.18,0
0.23219,0.055665,0.49809,-0.86838,-0.67167,-0.79408,0.17904,0,0,-0.14489,0.022394,0,0.82803,0,0,0.77239,-0.1531,0,0.79008,-0.53933,-1.0007,-0.79408,53.208,-0.77804,0.41095,0.002412,0.52,0.18,0
0.22973,0.061061,0.47599,-0.81719,-0.63465,-0.75288,0.1077,0,0,-0.12541,0.021573,0,0.53503,0,0,0.73127,-0.11203,0,0.7419,-0.55043,-0.90141,-0.75288,55.533,-0.73491,0.31834,0.0014976,0.54,0.18,0
0.22717,0.064397,0.45422,-0.79687,-0.60625,-0.72375,0.080634,0,0,-0.14259,0.020208,0,0.40871,0,0,0.72299,-0.086222,0,0.72954,-0.54052,-0.86261,-0.72375,56.526,-0.70896,0.29448,0.001358,0.56,0.18,0
0.22403,0.066206,0.43261,-0.79117,-0.58691,-0.70183,0.062019,0,0,-0.1742,0.019314,0,0.31913,0,0,0.71885,-0.068362,0,0.72304,-0.53545,-0.84263,-0.70183,57.553,-0.6933,0.2821,0.0012198,0.58,0.18,0
0.2202,0.066984,0.41109,-0.78911,-0.56913,-0.68153,0.048826,0,0,-0.20977,0.018871,0,0.2538,0,0,0.71682,-0.054857,0,0.71955,-0.5289,-0.82934,-0.68153,58.568,-0.67992,0.27749,0.0010838,0.6,0.18,0
0.21564,0.066985,0.3896,-0.78887,-0.55229,-0.66208,0.038561,0,0,-0.24723,0.018725,0,0.20228,0,0,0.71582,-0.04409,0,0.7176,-0.52169,-0.81947,-0.66208,59.823,-0.66775,0.27743,0.00091432,0.62,0.18,0
0.21031,0.066383,0.36814,-0.78951,-0.53589,-0.64304,0.030201,0,0,-0.28561,0.018738,0,0.15991,0,0,0.71543,-0.035138,0,0.71657,-0.51382,-0.81159,-0.64304,61.597,-0.65615,0.2808,0.00070071,0.64,0.18,0
0.20421,0.065303,0.34668,-0.79066,-0.51977,-0.62425,0.02309,0,0,-0.32451,0.018825,0,0.12363,0,0,0.71544,-0.02741,0,0.71613,-0.5053,-0.80514,-0.62425,64.393,-0.64489,0.2869,0.00043564,0.66,0.18,0
0.19733,0.063835,0.32521,-0.79211,-0.50384,-0.60559,0.016798,0,0,-0.3637,0.018936,0,0.0914,0,0,0.71574,-0.02048,0,0.71613,-0.49586,-0.80009,-0.60559,69.085,-0.63385,0.29528,0.00011446,0.68,0.18,0
0.18967,0.06205,0.30373,-0.79376,-0.48807,-0.58703,0.011008,0,0,-0.40311,0.019051,0,0.061664,0,0,0.71629,-0.014013,0,0.71647,-0.48482,-0.79701,-0.58703,76.262,-0.62295,0.3056,-0.00026659,0.7,0.18,0
0.18121,0.060002,0.28223,-0.79558,-0.47241,-0.56855,0.0054656,0,0,-0.44271,0.019169,0,0.033177,0,0,0.71705,-0.0077168,0,0.71711,-0.47161,-0.79638,-0.56855,83.723,-0.61218,0.31758,-0.00071115,0.72,0.18,0
0.17196,0.057736,0.26071,-0.79761,-0.45687,-0.55015,-4.7735e-05,0,0,-0.48254,0.019314,0,0.0048553,0,0,0.71804,-0.0013131,0,0.71803,-0.45682,-0.79765,-0.55015,-1.1176,-0.60154,0.33099,-0.0012235,0.74,0.18,0
0.16191,0.055287,0.23915,-0.79988,-0.44142,-0.53183,-0.0057392,0,0,-0.52272,0.019531,0,-0.02433,0,0,0.71927,0.0054915,0,0.71929,-0.44126,-0.80004,-0.53183,-87.899,-0.59104,0.34572,-0.0018092,0.76,0.18,0
0.15105,0.052685,0.21755,-0.80253,-0.42608,-0.51362,-0.011827,0,0,-0.56337,0.019893,0,-0.055456,0,0,0.72082,0.013036,0,0.72096,-0.42532,-0.80329,-0.51362,-85.719,-0.58074,0.36173,-0.0024763,0.78,0.18,0
0.13937,0.049956,0.1959,-0.80572,-0.41088,-0.49558,-0.018575,0,0,-0.60477,0.020518,0,-0.089801,0,0,0.72278,0.021752,0,0.72319,-0.40913,-0.80747,-0.49558,-84.055,-0.57073,0.37911,-0.0032372,0.8,0.18,0
0.12686,0.047121,0.17419,-0.80977,-0.39585,-0.47781,-0.026356,0,0,-0.64732,0.02159,0,-0.12914,0,0,0.72537,0.03224,0,0.72626,-0.39269,-0.81293,-0.47781,-82.629,-0.56115,0.39815,-0.0041119,0.82,0.18,0
0.11348,0.044196,0.15238,-0.81535,-0.38123,-0.46056,-0.035744,0,0,-0.69184,0.023413,0,-0.17613,0,0,0.72897,0.045435,0,0.73074,-0.37608,-0.8205,-0.46056,-81.284,-0.55238,0.41946,-0.0051389,0.84,0.18,0
0.099184,0.041197,0.13045,-0.82384,-0.36739,-0.44433,-0.048027,0,0,-0.74004,0.026466,0,-0.23626,0,0,0.73458,0.062974,0,0.73793,-0.35928,-0.83195,-0.44433,-79.867,-0.54519,0.44454,-0.0064018,0.86,0.18,0
0.083877,0.03809,0.1083,-0.84153,-0.35802,-0.43207,-0.064726,0,0,-0.79845,0.031438,0,-0.31583,0,0,0.74401,0.088461,0,0.7504,-0.34551,-0.85404,-0.43207,-78.403,-0.54387,0.47682,-0.0081727,0.88,0.18,0
0.067246,0.034985,0.085806,-0.87855,-0.35421,-0.42703,-0.098253,0,0,-0.88045,0.038662,0,-0.45832,0,0,0.78367,0.12931,0,0.79582,-0.33186,-0.9009,-0.42703,-76.048,-0.55326,0.53136,-0.011389,0.9,0.18,0
0.048659,0.030822,0.061284,-0.78514,-0.38636,-0.39231,-0.15168,0,0,-0.82047,-0.021711,0,-0.67198,0,0,0.68174,0.28549,0,0.74058,-0.3343,-0.8372,-0.39231,-70.309,-0.52127,0.47674,-0.0075119,0.92,0.18,0
0.036605,0.031088,0.044902,-0.8865,-0.38072,-0.42507,-0.11532,0,0,-0.59987,0.057656,0,-0.29984,0,0,0.78712,0.23071,0,0.81772,-0.35567,-0.91156,-0.42507,-77.743,-0.5641,0.52465,-0.0069812,0.94,0.18,0
0.024664,0.031023,0.0298,-0.85163,-0.34539,-0.38891,-0.072448,0,0,-0.60154,0.056575,0,-0.18837,0,0,0.7509,0.13289,0,0.76179,-0.33522,-0.86179,-0.38891,-82.014,-0.52864,0.50189,-0.0062432,0.96,0.18,0
0.012543,0.030828,0.014866,-0.83558,-0.31908,-0.36126,-0.035811,0,0,-0.61661,0.054843,0,-0.093107,0,0,0.74499,0.06171,0,0.74706,-0.31661,-0.83805,-0.36126,-86.053,-0.50531,0.50061,-0.006271,0.98,0.18,0
0,0.030745,0,-0.81307,-0.28905,-0.33064,-0.0015876,0,0,-0.62716,0.054057,0,-0.0041277,0,0,0.74331,2.0817e-17,0,0.74288,-0.28905,-0.81307,-0.33064,-89.826,-0.47758,0.50452,-0.0064446,1,0.18,0
0,0.032297,1,-0.78986,-1.7728,-1.7688,0.003556,0,0,1.2726,-0.0051892,0,0.0092457,0,0,0.57161,-1.2091e-15,0,0.57148,-0.78985,-1.7728,-1.7688,0.20728,-1.4438,0.98095,0.048478,0,0.2,0
0.025452,0.032482,0.98857,-0.77119,-1.7534,-1.7459,0.020549,0,0,1.2672,-0.0096677,0,0.053428,0,0,0.56751,-0.029319,0,0.56815,-0.77076,-1.7538,-1.7459,1.1981,-1.4235,0.97913,0.048201,0.02,0.2,0
0.050687,0.033009,0.9773,-0.75936,-1.7474,-1.7293,0.039337,0,0,1.261,-0.023468,0,0.10228,0,0,0.55496,-0.057997,0,0.55793,-0.75779,-1.7489,-1.7293,2.2764,-1.412,0.98148,0.048494,0.04,0.2,0
0.07589,0.033747,0.96637,-0.74189,-1.7475,-1.7132,0.052905,0,0,1.2627,-0.044646,0,0.13755,0,0,0.53371,-0.084186,0,0.54038,-0.73911,-1.7503,-1.7132,3.0031,-1.4009,0.99317,0.050077,0.06,0.2,0
0.10119,0.034475,0.95595,-0.72203,-1.7485,-1.6971,0.059111,0,0,1.2676,-0.066781,0,0.15369,0,0,0.50453,-0.10458,0,0.5155,-0.71863,-1.7519,-1.6971,3.2851,-1.3892,1.007,0.051918,0.08,0.2,0
0.12659,0.034997,0.94619,-0.6815,-1.2515,-1.2107,0.058671,0,0,0.79385,-0.079535,0,0.29791,0,0,0.47613,-0.076792,0,0.48381,-0.66734,-1.2656,-1.2107,13.604,-1.0479,0.57449,0.026482,0.1,0.2,0
0.13295,0.041046,0.91834,-0.65234,-0.78111,-0.73615,0.052773,0,0,0.32687,-0.17536,0,0.41163,0,0,0.45805,-0.041139,0,0.45994,-0.63347,-0.79998,-0.73615,19.669,-0.7232,0.1455,6.1854e-05,0.12,0.2,0
0.13967,0.045874,0.89122,-0.63859,-0.78607,-0.72447,0.043389,0,0,0.33495,-0.24025,0,0.33843,0,0,0.44676,-0.039919,0,0.44857,-0.62677,-0.79789,-0.72447,15.236,-0.71638,0.14869,4.0994e-05,0.14,0.2,0
0.14635,0.049332,0.86473,-0.62861,-0.78289,-0.71169,0.033418,0,0,0.32403,-0.27768,0,0.26066,0,0,0.43758,-0.035748,0,0.43905,-0.62168,-0.78982,-0.71169,11.711,-0.70773,0.14573,1.9402e-05,0.16,0.2,0
0.15263,0.051543,0.83871,-0.62221,-0.77456,-0.6986,0.024446,0,0,0.29792,-0.29624,0,0.19068,0,0,0.43122,-0.029869,0,0.43225,-0.61838,-0.77839,-0.6986,8.8962,-0.69846,0.13856,6.3979e-07,0.18,0.2,0
0.15826,0.052711,0.81298,-0.6186,-0.76276,-0.68541,0.016753,0,0,0.26053,-0.3017,0,0.13067,0,0,0.42783,-0.023227,0,0.42845,-0.61668,-0.76468,-0.68541,6.542,-0.68892,0.12828,-1.3353e-05,0.2,0.2,0
0.16305,0.053017,0.78737,-0.61737,-0.74835,-0.67218,0.010068,0,0,0.21373,-0.2971,0,0.078533,0,0,0.42733,-0.0163,0,0.42763,-0.6166,-0.74913,-0.67218,4.37,-0.6793,0.11526,-2.1628e-05,0.22,0.2,0
0.16681,0.052593,0.7617,-0.61839,-0.73162,-0.6589,0.0040578,0,0,0.15801,-0.28358,0,0.03165,0,0,0.42967,-0.009331,0,0.42977,-0.61824,-0.73176,-0.6589,2.0498,-0.66964,0.09962,-2.3761e-05,0.24,0.2,0
0.16937,0.051519,0.73581,-0.62177,-0.71254,-0.64557,-0.0015588,0,0,0.092804,-0.26122,0,-0.012159,0,0,0.43493,-0.0025698,0,0.43494,-0.62174,-0.71257,-0.64557,-0.9835,-0.65996,0.08157,-2.0068e-05,0.26,0.2,0
0.17053,0.049829,0.70951,-0.62776,-0.69075,-0.63206,-0.0069388,0,0,0.01677,-0.2289,0,-0.054122,0,0,0.44322,0.0034868,0,0.44325,-0.627,-0.69151,-0.63206,-6.2119,-0.65019,0.062131,-1.2044e-05,0.28,0.2,0
0.17004,0.047527,0.68263,-0.63682,-0.66548,-0.61823,-0.011858,0,0,-0.072508,-0.18425,0,-0.092491,0,0,0.45444,0.0078395,0,0.45455,-0.63255,-0.66975,-0.61823,-19.807,-0.64018,0.046056,-3.4304e-06,0.3,0.2,0
0.16762,0.044645,0.65498,-0.64897,-0.63507,-0.60354,-0.01536,0,0,-0.17718,-0.12298,0,-0.11981,0,0,0.46795,0.0091283,0,0.4681,-0.62516,-0.65888,-0.60354,-57.171,-0.6292,0.048307,-2.129e-06,0.32,0.2,0
0.16295,0.041345,0.62647,-0.67059,-0.9159,-0.8936,-0.013644,0,0,0.21207,-0.043494,0,-0.074789,0,0,0.48977,0.012264,0,0.49023,-0.64394,-0.94255,-0.8936,-37.689,-0.82669,0.29245,0.0036342,0.34,0.2,0
0.17611,0.039772,0.61638,-0.70543,-1.2297,-1.1969,-0.0040872,0,0,0.63895,-0.04262,0,-0.010627,0,0,0.52475,0.0062917,0,0.52515,-0.7054,-1.2297,-1.1969,-0.44663,-1.044,0.50873,0.0066674,0.36,0.2,0
0.18851,0.038477,0.60548,-0.72596,-1.2101,-1.1863,0.010397,0,0,0.59843,-0.030912,0,0.027033,0,0,0.56207,-0.017913,0,0.56249,-0.72574,-1.2103,-1.1863,1.2298,-1.0408,0.47301,0.0053883,0.38,0.2,0
0.20005,0.037453,0.5939,-0.74686,-1.1859,-1.1737,0.030426,0,0,0.55494,-0.015835,0,0.079108,0,0,0.59175,-0.051025,0,0.59389,-0.74476,-1.188,-1.1737,3.9454,-1.0355,0.43629,0.0042498,0.4,0.2,0
0.21071,0.036808,0.58181,-0.76512,-1.1637,-1.1604,0.057267,0,0,0.51393,-0.0041865,0,0.14889,0,0,0.61293,-0.091137,0,0.61946,-0.75705,-1.1717,-1.1604,8.0167,-1.0297,0.40916,0.0035089,0.42,0.2,0
0.2206,0.036658,0.56939,-0.77738,-1.1473,-1.1468,0.090618,0,0,0.48025,-0.00070178,0,0.23561,0,0,0.62512,-0.1391,0,0.64003,-0.75637,-1.1683,-1.1468,13.05,-1.0238,0.40163,0.0032951,0.44,0.2,0
0.22992,0.037055,0.55681,-0.77485,-1.14,-1.1313,0.13423,0,0,0.46334,-0.01137,0,0.34899,0,0,0.62617,-0.19996,0,0.65662,-0.73082,-1.184,-1.1313,18.161,-1.0154,0.42928,0.0038566,0.46,0.2,0
0.23914,0.038241,0.54434,-0.69595,-1.1338,-1.0933,0.17182,0,0,0.51651,-0.0527,0,0.44673,0,0,0.57574,-0.28674,0,0.64108,-0.63657,-1.1932,-1.0933,19.063,-0.97434,0.51398,0.006095,0.48,0.2,0
0.25058,0.037759,0.53378,-0.65002,-0.94198,-0.83345,0.17842,0,0,0.14315,-0.21163,0,0.82314,0,0,0.48943,-0.29426,0,0.58358,-0.54054,-1.0515,-0.83345,32.474,-0.80849,0.45402,0.0041015,0.5,0.2,0
0.24486,0.047461,0.50673,-0.59977,-0.62463,-0.53623,0.11872,0,0,-0.24782,-0.34476,0,0.92598,0,0,0.42803,-0.12631,0,0.44647,-0.49284,-0.73157,-0.53623,42.011,-0.58688,0.22026,-0.00047783,0.52,0.2,0
0.24067,0.053133,0.48241,-0.56419,-0.60264,-0.51085,0.090565,0,0,-0.208,-0.35796,0,0.70641,0,0,0.39559,-0.099742,0,0.40792,-0.49083,-0.676,-0.51085,39.007,-0.55922,0.17601,-0.00026788,0.54,0.2,0
0.23654,0.056445,0.45926,-0.54772,-0.58698,-0.4935,0.071473,0,0,-0.21148,-0.3646,0,0.55749,0,0,0.38143,-0.080013,0,0.38968,-0.49323,-0.64147,-0.4935,37.321,-0.54274,0.14811,-0.00016686,0.56,0.2,0
0.23221,0.058401,0.43664,-0.53616,-0.57106,-0.47771,0.057721,0,0,-0.22794,-0.36405,0,0.45023,0,0,0.37429,-0.064834,0,0.37983,-0.49331,-0.61391,-0.47771,36.59,-0.52831,0.12911,-0.00010511,0.58,0.2,0
0.22742,0.059349,0.41434,-0.52834,-0.55558,-0.46329,0.046801,0,0,-0.25371,-0.35992,0,0.36505,0,0,0.37009,-0.052768,0,0.37381,-0.49322,-0.5907,-0.46329,36.889,-0.51574,0.1154,-6.1387e-05,0.6,0.2,0
0.22206,0.059545,0.39223,-0.52258,-0.54022,-0.44958,0.037895,0,0,-0.28467,-0.3535,0,0.29558,0,0,0.36749,-0.042867,0,0.36997,-0.49249,-0.57031,-0.44958,38.446,-0.50413,0.106,-2.9126e-05,0.62,0.2,0
0.21604,0.05915,0.37024,-0.51808,-0.52491,-0.43631,0.030373,0,0,-0.3189,-0.34554,0,0.23691,0,0,0.36587,-0.034494,0,0.36748,-0.49093,-0.55206,-0.43631,41.792,-0.4931,0.10029,-5.037e-06,0.64,0.2,0
0.2093,0.058283,0.34833,-0.51444,-0.5096,-0.42332,0.023827,0,0,-0.35536,-0.33649,0,0.18585,0,0,0.36491,-0.027188,0,0.36591,-0.48807,-0.53597,-0.42332,47.898,-0.48245,0.09792,1.2324e-05,0.66,0.2,0
0.20182,0.057035,0.32645,-0.51142,-0.49428,-0.41053,0.017951,0,0,-0.39348,-0.32662,0,0.14001,0,0,0.36446,-0.020596,0,0.36503,-0.48296,-0.52274,-0.41053,57.763,-0.47207,0.098541,2.3528e-05,0.68,0.2,0
0.19356,0.055474,0.30459,-0.5089,-0.47892,-0.39788,0.012502,0,0,-0.43299,-0.31608,0,0.097517,0,0,0.36442,-0.014425,0,0.3647,-0.47439,-0.51343,-0.39788,70.084,-0.4619,0.10181,2.8577e-05,0.7,0.2,0
0.1845,0.053653,0.28272,-0.50683,-0.46354,-0.38535,0.0072817,0,0,-0.47377,-0.30493,0,0.056798,0,0,0.36477,-0.0084139,0,0.36486,-0.46235,-0.50802,-0.38535,80.704,-0.45191,0.10738,2.7033e-05,0.72,0.2,0
0.17461,0.051619,0.26082,-0.50522,-0.44811,-0.37294,0.0021132,0,0,-0.51589,-0.29318,0,0.016483,0,0,0.3655,-0.0023127,0,0.3655,-0.44804,-0.5053,-0.37294,87.884,-0.44209,0.11497,1.8017e-05,0.74,0.2,0
0.16387,0.049408,0.23886,-0.50412,-0.43265,-0.36065,-0.0031661,0,0,-0.55954,-0.28078,0,-0.024696,0,0,0.36666,0.0041413,0,0.36668,-0.4325,-0.50426,-0.36065,-87.469,-0.43247,0.12437,1.1757e-07,0.76,0.2,0
0.15223,0.047051,0.21682,-0.50366,-0.41712,-0.34851,-0.0087169,0,0,-0.6051,-0.26758,0,-0.067992,0,0,0.36834,0.011245,0,0.3685,-0.41625,-0.50453,-0.34851,-84.305,-0.42309,0.13551,-2.8839e-05,0.78,0.2,0
0.13966,0.04458,0.19466,-0.50407,-0.40151,-0.33656,-0.014711,0,0,-0.65329,-0.2533,0,-0.11474,0,0,0.37071,0.019361,0,0.3712,-0.39944,-0.50614,-0.33656,-81.997,-0.41405,0.14848,-7.2266e-05,0.8,0.2,0
0.1261,0.042023,0.17233,-0.50579,-0.38581,-0.32492,-0.021343,0,0,-0.70537,-0.23745,0,-0.16647,0,0,0.37408,0.028962,0,0.37517,-0.38213,-0.50947,-0.32492,-80.208,-0.40551,0.16362,-0.00013581,0.82,0.2,0
0.11145,0.039413,0.14977,-0.50963,-0.37002,-0.31382,-0.028867,0,0,-0.76367,-0.21918,0,-0.22516,0,0,0.37906,0.040711,0,0.38121,-0.36429,-0.51536,-0.31382,-78.767,-0.39782,0.18165,-0.0002296,0.84,0.2,0
0.095554,0.036783,0.12685,-0.51737,-0.35431,-0.30379,-0.037508,0,0,-0.83296,-0.19705,0,-0.29257,0,0,0.38703,0.055607,0,0.39096,-0.3461,-0.52558,-0.30379,-77.647,-0.39182,0.20396,-0.00037332,0.86,0.2,0
0.078131,0.034201,0.10333,-0.53182,-0.33881,-0.29563,-0.047845,0,0,-0.92114,-0.16839,0,-0.37319,0,0,0.40201,0.075197,0,0.40893,-0.3276,-0.54303,-0.29563,-76.815,-0.38875,0.23306,-0.00060917,0.88,0.2,0
0.058709,0.031625,0.078607,-0.56199,-0.32728,-0.29298,-0.059929,0,0,-1.0491,-0.13376,0,-0.46745,0,0,0.43584,0.10207,0,0.44781,-0.31286,-0.57641,-0.29298,-76.474,-0.39409,0.27403,-0.0010381,0.9,0.2,0
0.036166,0.029056,0.051028,-0.58757,-0.3557,-0.317,-0.097696,0,0,-0.72746,-0.075465,0,-0.44078,0,0,0.50212,0.25038,0,0.57245,-0.3167,-0.62658,-0.317,-70.025,-0.42009,0.30973,-0.0015265,0.92,0.2,0
0.02961,0.031267,0.040136,-0.64445,-0.3792,-0.34723,-0.091924,0,0,-0.38638,-0.041557,0,-0.239,0,0,0.59905,0.22033,0,0.6361,-0.35045,-0.67319,-0.34723,-72.637,-0.45696,0.32436,-0.0017521,0.94,0.2,0
0.02071,0.031346,0.027066,-0.71575,-0.36775,-0.35212,-0.069314,0,0,-0.47273,-0.020326,0,-0.18022,0,0,0.66322,0.12855,0,0.67481,-0.35446,-0.72905,-0.35212,-79.14,-0.47854,0.37577,-0.0027248,0.96,0.2,0
0.010701,0.03126,0.013607,-0.73758,-0.34809,-0.33931,-0.034561,0,0,-0.51776,-0.011413,0,-0.089858,0,0,0.67664,0.059971,0,0.67879,-0.34504,-0.74062,-0.33931,-84.968,-0.47499,0.39848,-0.0032474,0.98,0.2,0
0,0.031193,0,-0.7254,-0.32068,-0.31383,-0.0012839,0,0,-0.53505,-0.0089099,0,-0.0033383,0,0,0.68036,-6.9389e-18,0,0.67992,-0.32067,-0.72541,-0.31383,-89.818,-0.4533,0.4082,-0.0034901,1,0.2,0
0,0.031886,1,-0.76377,-1.7905,-1.7663,0.0020145,0,0,1.3033,-0.031484,0,0.0052378,0,0,0.54626,-3.8858e-16,0,0.54618,-0.76377,-1.7905,-1.7663,0.11242,-1.4402,1.0148,0.053578,0,0.22,0
0.026065,0.03199,0.98908,-0.74683,-1.7713,-1.7445,0.013828,0,0,1.297,-0.034827,0,0.035952,0,0,0.54268,-0.021773,0,0.54306,-0.74665,-1.7715,-1.7445,0.77316,-1.4209,1.0116,0.053045,0.02,0.22,0
0.05188,0.032287,0.97829,-0.73793,-1.7626,-1.7284,0.026107,0,0,1.2877,-0.044343,0,0.067877,0,0,0.53204,-0.0425,0,0.53373,-0.73727,-1.7632,-1.7284,1.4586,-1.4096,1.009,0.052549,0.04,0.22,0
0.077572,0.032695,0.96779,-0.72513,-1.7568,-1.7124,0.035004,0,0,1.2834,-0.057747,0,0.091011,0,0,0.51478,-0.060719,0,0.51841,-0.72394,-1.758,-1.7124,1.9411,-1.3981,1.012,0.052867,0.06,0.22,0
0.10322,0.033102,0.9577,-0.71029,-1.7503,-1.6959,0.039863,0,0,1.2812,-0.070701,0,0.10364,0,0,0.49204,-0.074501,0,0.49779,-0.70876,-1.7518,-1.6959,2.1919,-1.3855,1.0162,0.053348,0.08,0.22,0
0.12882,0.033434,0.94811,-0.67586,-1.2503,-1.2099,0.041397,0,0,0.80255,-0.078711,0,0.21187,0,0,0.47044,-0.054678,0,0.47443,-0.66813,-1.258,-1.2099,10.611,-1.0454,0.56841,0.02687,0.1,0.22,0
0.13532,0.0378,0.92043,-0.6496,-0.77358,-0.73376,0.038622,0,0,0.32824,-0.15528,0,0.30125,0,0,0.45684,-0.030044,0,0.45785,-0.63855,-0.78463,-0.73376,15.962,-0.71898,0.12843,5.4116e-05,0.12,0.22,0
0.14195,0.041402,0.89329,-0.63813,-0.77701,-0.7223,0.032989,0,0,0.32827,-0.21333,0,0.25732,0,0,0.44826,-0.030318,0,0.4493,-0.6307,-0.78444,-0.7223,12.706,-0.71248,0.13396,4.009e-05,0.14,0.22,0
0.14845,0.044089,0.86664,-0.62936,-0.77461,-0.71007,0.026437,0,0,0.31477,-0.25171,0,0.20621,0,0,0.44109,-0.028576,0,0.44202,-0.6247,-0.77927,-0.71007,10.001,-0.70468,0.13411,2.2298e-05,0.16,0.22,0
0.15454,0.045888,0.84036,-0.62337,-0.76749,-0.69738,0.020244,0,0,0.28862,-0.27343,0,0.1579,0,0,0.43595,-0.025449,0,0.4367,-0.62058,-0.77028,-0.69738,7.8459,-0.69608,0.12965,5.0435e-06,0.18,0.22,0
0.15999,0.046911,0.81432,-0.61991,-0.75677,-0.68444,0.014866,0,0,0.25167,-0.28206,0,0.11596,0,0,0.43318,-0.021524,0,0.43372,-0.61832,-0.75836,-0.68444,6.1287,-0.68704,0.12135,-8.8252e-06,0.2,0.22,0
0.16461,0.047284,0.78838,-0.61869,-0.74313,-0.67134,0.010313,0,0,0.20533,-0.27998,0,0.080446,0,0,0.43289,-0.017237,0,0.43323,-0.61784,-0.74398,-0.67134,4.7059,-0.67772,0.10966,-1.7551e-05,0.22,0.22,0
0.16821,0.047111,0.76238,-0.61956,-0.7269,-0.65807,0.0064317,0,0,0.15016,-0.26846,0,0.050167,0,0,0.4351,-0.012913,0,0.43529,-0.61918,-0.72729,-0.65807,3.4169,-0.66818,0.094843,-2.0305e-05,0.24,0.22,0
0.17061,0.046469,0.73617,-0.62254,-0.70813,-0.64459,0.0030738,0,0,0.086001,-0.2478,0,0.023975,0,0,0.43979,-0.008886,0,0.43989,-0.62243,-0.70824,-0.64459,2.0541,-0.65842,0.077156,-1.7194e-05,0.26,0.22,0
0.17165,0.045408,0.7096,-0.62772,-0.68661,-0.63083,0.00021862,0,0,0.012148,-0.21754,0,0.0017053,0,0,0.44686,-0.0056241,0,0.44691,-0.62772,-0.68661,-0.63083,0.21269,-0.64839,0.057401,-9.6173e-06,0.28,0.22,0
0.1711,0.043969,0.68254,-0.63517,-0.66187,-0.61663,-0.0018832,0,0,-0.072307,-0.17646,0,-0.014689,0,0,0.45597,-0.0037823,0,0.45602,-0.63504,-0.66201,-0.61663,-4.0137,-0.63789,0.039532,-1.0148e-06,0.3,0.22,0
0.16875,0.042222,0.65488,-0.64471,-0.63343,-0.60174,-0.0024727,0,0,-0.1676,-0.1236,0,-0.019287,0,0,0.46652,-0.0041097,0,0.46657,-0.63291,-0.64523,-0.60174,-78.165,-0.62662,0.038827,2.0176e-06,0.32,0.22,0
0.1644,0.040321,0.62656,-0.66336,-0.92516,-0.89426,0.0018179,0,0,0.22754,-0.060243,0,0.0028579,0,0,0.48306,-0.014403,0,0.48348,-0.64312,-0.94539,-0.89426,-44.27,-0.82759,0.29619,0.0039945,0.34,0.22,0
0.17786,0.038759,0.61668,-0.69041,-1.2418,-1.1964,0.014374,0,0,0.65772,-0.059116,0,0.037372,0,0,0.50945,-0.03068,0,0.51059,-0.69004,-1.2422,-1.1964,1.4922,-1.0429,0.53073,0.0074848,0.36,0.22,0
0.19071,0.037616,0.60618,-0.7036,-1.2262,-1.1851,0.029717,0,0,0.62597,-0.053389,0,0.077264,0,0,0.53763,-0.048191,0,0.53987,-0.70192,-1.2279,-1.1851,3.2442,-1.0383,0.50594,0.0064915,0.38,0.22,0
0.2029,0.0368,0.59518,-0.71536,-1.2074,-1.172,0.047499,0,0,0.59365,-0.046064,0,0.1235,0,0,0.55952,-0.073015,0,0.56422,-0.71082,-1.212,-1.172,5.4633,-1.0316,0.48243,0.0056334,0.4,0.22,0
0.21445,0.036304,0.5838,-0.72265,-1.1898,-1.1575,0.068982,0,0,0.56535,-0.041918,0,0.17935,0,0,0.57305,-0.10436,0,0.58232,-0.71267,-1.1998,-1.1575,8.2271,-1.0233,0.4674,0.0051002,0.42,0.22,0
0.22551,0.036118,0.57225,-0.72043,-1.1772,-1.1415,0.093997,0,0,0.54744,-0.046333,0,0.24439,0,0,0.57564,-0.14253,0,0.59276,-0.70184,-1.1958,-1.1415,11.186,-1.0131,0.46916,0.0050657,0.44,0.22,0
0.23635,0.036184,0.56078,-0.69679,-1.1725,-1.1216,0.11736,0,0,0.55219,-0.066186,0,0.30513,0,0,0.55997,-0.18901,0,0.5907,-0.66941,-1.1998,-1.1216,13.132,-0.99694,0.49595,0.0057423,0.46,0.22,0
0.2476,0.035923,0.54985,-0.67193,-1.2019,-1.112,0.1281,0,0,0.57212,-0.11691,0,0.33307,0,0,0.5197,-0.24472,0,0.57493,-0.64259,-1.2313,-1.112,12.899,-0.9953,0.53905,0.0067361,0.48,0.22,0
0.25923,0.034441,0.53999,-0.62498,-0.88925,-0.81426,0.10957,0,0,0.15636,-0.14622,0,0.53875,0,0,0.46945,-0.18118,0,0.5095,-0.55504,-0.95919,-0.81426,30.655,-0.77616,0.367,0.0033706,0.5,0.22,0
0.25385,0.041875,0.51325,-0.59068,-0.58942,-0.52511,0.090261,0,0,-0.25571,-0.2508,0,0.70404,0,0,0.43358,-0.094318,0,0.44394,-0.49979,-0.68032,-0.52511,45.2,-0.56841,0.16929,-0.0002305,0.52,0.22,0
0.24901,0.046742,0.48796,-0.57112,-0.58426,-0.50927,0.073307,0,0,-0.24123,-0.29247,0,0.5718,0,0,0.41193,-0.083556,0,0.42038,-0.50409,-0.65129,-0.50927,42.44,-0.55488,0.14468,-0.00015488,0.54,0.22,0
0.2442,0.049813,0.46382,-0.55672,-0.57273,-0.49344,0.060076,0,0,-0.24679,-0.30922,0,0.4686,0,0,0.3964,-0.07061,0,0.40265,-0.50411,-0.62533,-0.49344,41.206,-0.54096,0.12689,-0.00010243,0.56,0.22,0
0.23913,0.051644,0.44039,-0.54635,-0.56024,-0.47878,0.049451,0,0,-0.26355,-0.31772,0,0.38572,0,0,0.38667,-0.058944,0,0.39113,-0.50336,-0.60323,-0.47878,41.003,-0.52846,0.11417,-6.4643e-05,0.58,0.22,0
0.23366,0.052587,0.41742,-0.53817,-0.54679,-0.46463,0.040661,0,0,-0.28682,-0.32043,0,0.31715,0,0,0.38038,-0.048909,0,0.38349,-0.50159,-0.58337,-0.46463,41.975,-0.51653,0.10525,-3.593e-05,0.6,0.22,0
0.22766,0.052845,0.39475,-0.53181,-0.53284,-0.45098,0.033154,0,0,-0.31524,-0.31928,0,0.2586,0,0,0.37618,-0.040308,0,0.37833,-0.49917,-0.56548,-0.45098,44.552,-0.50521,0.099579,-1.3695e-05,0.62,0.22,0
0.22105,0.052562,0.37228,-0.52678,-0.51853,-0.43768,0.02663,0,0,-0.34747,-0.31529,0,0.20772,0,0,0.37339,-0.032842,0,0.37483,-0.49571,-0.5496,-0.43768,49.404,-0.49433,0.096945,2.985e-06,0.64,0.22,0
0.21376,0.051843,0.34994,-0.52278,-0.50392,-0.42466,0.020839,0,0,-0.38269,-0.30912,0,0.16254,0,0,0.37162,-0.026222,0,0.37253,-0.49048,-0.53622,-0.42466,57.176,-0.48379,0.097141,1.4385e-05,0.66,0.22,0
0.20574,0.05077,0.32768,-0.51962,-0.48907,-0.41183,0.015579,0,0,-0.42036,-0.30122,0,0.12151,0,0,0.37064,-0.02019,0,0.37118,-0.48253,-0.52616,-0.41183,67.218,-0.47351,0.099931,2.0307e-05,0.68,0.22,0
0.19695,0.049407,0.30546,-0.51718,-0.47401,-0.39918,0.010679,0,0,-0.46021,-0.29184,0,0.083294,0,0,0.37033,-0.014514,0,0.3706,-0.47151,-0.51968,-0.39918,76.839,-0.46346,0.10505,2.0186e-05,0.7,0.22,0
0.18734,0.047805,0.28324,-0.51542,-0.45876,-0.38667,0.0059914,0,0,-0.50213,-0.28115,0,0.046733,0,0,0.37064,-0.0089816,0,0.37074,-0.45813,-0.51604,-0.38667,84.03,-0.45361,0.11225,1.3085e-05,0.72,0.22,0
0.17686,0.046009,0.26099,-0.51435,-0.44332,-0.3743,0.0013878,0,0,-0.5462,-0.2692,0,0.010825,0,0,0.37157,-0.0033826,0,0.37158,-0.4433,-0.51438,-0.3743,88.881,-0.44399,0.12132,-2.3584e-06,0.74,0.22,0
0.16549,0.044056,0.23865,-0.51404,-0.42772,-0.36208,-0.0032424,0,0,-0.59264,-0.25599,0,-0.025291,0,0,0.37319,0.0024982,0,0.3732,-0.42759,-0.51416,-0.36208,-87.852,-0.43461,0.13213,-2.8069e-05,0.76,0.22,0
0.15316,0.041982,0.2162,-0.51463,-0.41193,-0.35003,-0.0079886,0,0,-0.64192,-0.24139,0,-0.062311,0,0,0.37563,0.0088956,0,0.37573,-0.41131,-0.51525,-0.35003,-85.579,-0.42553,0.14466,-6.678e-05,0.78,0.22,0
0.13981,0.039824,0.19358,-0.51637,-0.39595,-0.33822,-0.01291,0,0,-0.69478,-0.22514,0,-0.1007,0,0,0.37911,0.016075,0,0.37944,-0.39458,-0.51774,-0.33822,-83.949,-0.41685,0.15901,-0.00012247,0.8,0.22,0
0.12537,0.037622,0.17071,-0.51966,-0.37975,-0.32672,-0.018018,0,0,-0.75244,-0.20679,0,-0.14054,0,0,0.38404,0.024337,0,0.3848,-0.37746,-0.52194,-0.32672,-82.778,-0.40871,0.17544,-0.00020112,0.82,0.22,0
0.10971,0.035429,0.14749,-0.52512,-0.3633,-0.31569,-0.023217,0,0,-0.81678,-0.18567,0,-0.1811,0,0,0.39113,0.034004,0,0.3926,-0.36003,-0.52839,-0.31569,-81.995,-0.40137,0.19436,-0.00031192,0.84,0.22,0
0.092695,0.033315,0.12377,-0.53349,-0.3465,-0.30526,-0.028272,0,0,-0.89013,-0.16085,0,-0.22052,0,0,0.40178,0.045312,0,0.40433,-0.34232,-0.53767,-0.30526,-81.588,-0.39508,0.21628,-0.0004686,0.86,0.22,0
0.074108,0.031354,0.099281,-0.54569,-0.3296,-0.29568,-0.032561,0,0,-0.97503,-0.13228,0,-0.25398,0,0,0.41847,0.057993,0,0.42254,-0.3248,-0.55049,-0.29568,-81.615,-0.39032,0.24157,-0.00068868,0.88,0.22,0
0.053693,0.029635,0.073558,-0.55968,-0.31131,-0.28581,-0.036145,0,0,-1.0681,-0.099427,0,-0.28193,0,0,0.44183,0.068757,0,0.44739,-0.30616,-0.56483,-0.28581,-81.886,-0.3856,0.26942,-0.00098514,0.9,0.22,0
0.031385,0.027803,0.046262,-0.57542,-0.33807,-0.30489,-0.038361,0,0,-0.72349,-0.064707,0,-0.19278,0,0,0.48179,0.1299,0,0.50292,-0.3318,-0.58168,-0.30489,-80.845,-0.40613,0.26479,-0.00092956,0.92,0.22,0
0.024754,0.029426,0.036089,-0.61362,-0.41904,-0.34589,-0.047417,0,0,-0.34806,-0.095094,0,-0.12328,0,0,0.5401,0.16615,0,0.56585,-0.4081,-0.62456,-0.34589,-77.009,-0.45952,0.25337,-0.00066862,0.94,0.22,0
0.017463,0.030209,0.024658,-0.63384,-0.39345,-0.33285,-0.041624,0,0,-0.3913,-0.078787,0,-0.10822,0,0,0.59054,0.10568,0,0.59961,-0.38645,-0.64085,-0.33285,-80.449,-0.45338,0.28501,-0.0010486,0.96,0.22,0
0.0091019,0.030371,0.012467,-0.65817,-0.37475,-0.32234,-0.024116,0,0,-0.43657,-0.06813,0,-0.062701,0,0,0.61645,0.050937,0,0.6182,-0.37272,-0.66021,-0.32234,-85.171,-0.45176,0.31571,-0.0014784,0.98,0.22,0
0,0.030389,0,-0.64986,-0.34944,-0.29979,0.00033777,0,0,-0.45509,-0.064545,0,0.0008782,0,0,0.62337,-3.4694e-18,0,0.62302,-0.34944,-0.64987,-0.29979,89.936,-0.43303,0.32808,-0.0016745,1,0.22,0
0,0.031038,1,-0.74559,-1.8024,-1.7644,0.00098434,0,0,1.3244,-0.049365,0,0.0025593,0,0,0.52807,8.8297e-16,0,0.52803,-0.74559,-1.8024,-1.7644,0.053369,-1.4374,1.0383,0.057231,0,0.24,0
0.026489,0.031089,0.98944,-0.72989,-1.783,-1.7433,0.0085163,0,0,1.3174,-0.051592,0,0.022142,0,0,0.52501,-0.015079,0,0.5252,-0.72982,-1.7831,-1.7433,0.4633,-1.4187,1.0339,0.056485,0.02,0.24,0
0.052698,0.031235,0.979,-0.7232,-1.7721,-1.7276,0.016141,0,0,1.3057,-0.05784,0,0.041966,0,0,0.51601,-0.029289,0,0.51685,-0.72295,-1.7723,-1.7276,0.88144,-1.4076,1.0277,0.055396,0.04,0.24,0
0.078716,0.031437,0.9688,-0.71351,-1.7627,-1.7117,0.021921,0,0,1.2976,-0.066353,0,0.056995,0,0,0.50171,-0.041641,0,0.50349,-0.71306,-1.7632,-1.7117,1.1964,-1.396,1.0253,0.054891,0.06,0.24,0
0.1046,0.031647,0.95893,-0.70204,-1.7528,-1.6954,0.0258,0,0,1.2913,-0.074615,0,0.067081,0,0,0.48324,-0.05106,0,0.48603,-0.70141,-1.7534,-1.6954,1.4058,-1.3834,1.0242,0.054585,0.08,0.24,0
0.13037,0.031848,0.94947,-0.67151,-1.2511,-1.2098,0.027924,0,0,0.81075,-0.080607,0,0.14372,0,0,0.46591,-0.037749,0,0.46787,-0.66781,-1.2548,-1.2098,7.5947,-1.0441,0.56651,0.027307,0.1,0.24,0
0.13703,0.034834,0.92195,-0.64695,-0.76943,-0.73223,0.026864,0,0,0.33258,-0.14508,0,0.20954,0,0,0.45508,-0.021566,0,0.4556,-0.64132,-0.77507,-0.73223,11.843,-0.71621,0.11829,4.8977e-05,0.12,0.24,0
0.14367,0.03734,0.89486,-0.63699,-0.77147,-0.72083,0.023729,0,0,0.32694,-0.19751,0,0.18509,0,0,0.44823,-0.022797,0,0.44882,-0.63293,-0.77553,-0.72083,9.7194,-0.70976,0.12461,3.876e-05,0.14,0.24,0
0.15011,0.039264,0.86816,-0.62904,-0.76916,-0.70885,0.019896,0,0,0.31124,-0.23523,0,0.15519,0,0,0.44245,-0.022753,0,0.44304,-0.62627,-0.77193,-0.70885,7.9267,-0.70235,0.12652,2.3847e-05,0.16,0.24,0
0.15612,0.040605,0.84177,-0.62338,-0.76278,-0.69644,0.016185,0,0,0.28493,-0.25874,0,0.12624,0,0,0.43827,-0.021754,0,0.43881,-0.62152,-0.76463,-0.69644,6.5363,-0.6942,0.12398,7.9455e-06,0.18,0.24,0
0.16151,0.041429,0.81557,-0.61994,-0.75287,-0.6837,0.013012,0,0,0.24865,-0.26976,0,0.10149,0,0,0.43604,-0.02014,0,0.4365,-0.61868,-0.75413,-0.6837,5.5384,-0.68551,0.11733,-5.7387e-06,0.2,0.24,0
0.16607,0.041818,0.78944,-0.61861,-0.73993,-0.67071,0.010484,0,0,0.2032,-0.26998,0,0.081776,0,0,0.43594,-0.018215,0,0.43632,-0.61771,-0.74083,-0.67071,4.9026,-0.67642,0.10697,-1.4965e-05,0.22,0.24,0
0.16963,0.041855,0.76326,-0.61923,-0.72426,-0.65746,0.0085691,0,0,0.14912,-0.2605,0,0.066839,0,0,0.43802,-0.016249,0,0.43833,-0.61853,-0.72495,-0.65746,4.6338,-0.66698,0.093261,-1.8538e-05,0.24,0.24,0
0.17203,0.041606,0.73688,-0.62176,-0.70594,-0.64394,0.0072136,0,0,0.086498,-0.24183,0,0.056266,0,0,0.44222,-0.01452,0,0.44246,-0.62114,-0.70656,-0.64394,4.8623,-0.65721,0.076603,-1.6383e-05,0.26,0.24,0
0.17309,0.041127,0.71019,-0.62615,-0.68491,-0.63005,0.0064403,0,0,0.015191,-0.21395,0,0.050235,0,0,0.44832,-0.013367,0,0.44853,-0.62545,-0.68561,-0.63005,6.1825,-0.64704,0.057991,-9.8045e-06,0.28,0.24,0
0.17264,0.040468,0.68308,-0.63231,-0.66101,-0.61569,0.0064484,0,0,-0.064824,-0.17675,0,0.050297,0,0,0.45595,-0.013193,0,0.45616,-0.63093,-0.66239,-0.61569,12.099,-0.63634,0.041251,-2.0172e-06,0.3,0.24,0
0.1705,0.039701,0.65547,-0.6399,-0.63425,-0.60074,0.0076766,0,0,-0.15274,-0.13071,0,0.059877,0,0,0.46453,-0.014419,0,0.46478,-0.6289,-0.64526,-0.60074,55.1,-0.62496,0.039003,1.3407e-06,0.32,0.24,0
0.16653,0.038936,0.62734,-0.65656,-0.93612,-0.89603,0.013126,0,0,0.24515,-0.078184,0,0.060728,0,0,0.4776,-0.034763,0,0.47925,-0.63938,-0.95331,-0.89603,37.388,-0.82957,0.30541,0.0044027,0.34,0.24,0
0.18031,0.037408,0.61761,-0.67797,-1.2559,-1.1978,0.026408,0,0,0.67575,-0.075594,0,0.068661,0,0,0.49816,-0.058935,0,0.50177,-0.67677,-1.2571,-1.1978,2.6107,-1.0439,0.55309,0.0083531,0.36,0.24,0
0.19356,0.036342,0.60741,-0.6856,-1.2411,-1.1854,0.041335,0,0,0.64976,-0.072367,0,0.10747,0,0,0.51973,-0.071336,0,0.52466,-0.68254,-1.2441,-1.1854,4.2325,-1.0374,0.53466,0.0075314,0.38,0.24,0
0.2063,0.035611,0.59682,-0.69063,-1.2249,-1.1715,0.056329,0,0,0.62513,-0.069492,0,0.14646,0,0,0.53559,-0.088919,0,0.54289,-0.68476,-1.2308,-1.1715,5.9531,-1.029,0.51895,0.0068628,0.4,0.24,0
0.21857,0.035131,0.58599,-0.69079,-1.2099,-1.1562,0.071968,0,0,0.60501,-0.069781,0,0.18712,0,0,0.54341,-0.11124,0,0.55459,-0.681,-1.2196,-1.1562,7.7492,-1.0189,0.50989,0.0064542,0.42,0.24,0
0.2305,0.034805,0.57509,-0.68259,-1.1985,-1.1394,0.086511,0,0,0.59385,-0.076767,0,0.22493,0,0,0.54046,-0.13788,0,0.55766,-0.66847,-1.2126,-1.1394,9.2709,-1.0068,0.51145,0.0063998,0.44,0.24,0
0.24232,0.034407,0.56437,-0.66756,-1.1958,-1.1234,0.095631,0,0,0.59257,-0.094167,0,0.24864,0,0,0.52398,-0.16756,0,0.55012,-0.65078,-1.2126,-1.1234,9.9517,-0.99559,0.52295,0.0066302,0.46,0.24,0
0.2542,0.033565,0.55413,-0.64807,-1.1944,-1.1069,0.092686,0,0,0.59644,-0.1138,0,0.24098,0,0,0.49298,-0.19359,0,0.52993,-0.63278,-1.2097,-1.1069,9.371,-0.98312,0.533,0.0068115,0.48,0.24,0
0.26618,0.03191,0.54465,-0.61119,-0.86699,-0.80655,0.082442,0,0,0.16304,-0.11786,0,0.41121,0,0,0.45866,-0.13851,0,0.4834,-0.55509,-0.92309,-0.80655,30.656,-0.76158,0.33969,0.0033591,0.5,0.24,0
0.26072,0.037429,0.51804,-0.58922,-0.57324,-0.52142,0.070532,0,0,-0.26443,-0.20209,0,0.55015,0,0,0.43507,-0.070988,0,0.44091,-0.51025,-0.65221,-0.52142,48.232,-0.56129,0.13672,-0.00012831,0.52,0.24,0
0.2556,0.041434,0.49244,-0.57369,-0.57055,-0.50742,0.059576,0,0,-0.25846,-0.2462,0,0.4647,0,0,0.41929,-0.066978,0,0.42467,-0.51252,-0.63172,-0.50742,45.756,-0.55055,0.12183,-9.2314e-05,0.54,0.24,0
0.25038,0.044076,0.46773,-0.56205,-0.56232,-0.49322,0.049591,0,0,-0.26844,-0.26948,0,0.38681,0,0,0.40604,-0.059491,0,0.4104,-0.51259,-0.61178,-0.49322,44.923,-0.5392,0.11015,-6.1551e-05,0.56,0.24,0
0.24486,0.045692,0.44372,-0.55274,-0.55151,-0.47918,0.041276,0,0,-0.28688,-0.28208,0,0.32195,0,0,0.39599,-0.051323,0,0.39931,-0.51084,-0.5934,-0.47918,45.427,-0.52781,0.10214,-3.7525e-05,0.58,0.24,0
0.23891,0.046532,0.42021,-0.54516,-0.53946,-0.46546,0.034195,0,0,-0.31085,-0.28861,0,0.26672,0,0,0.38873,-0.043605,0,0.39117,-0.50799,-0.57662,-0.46546,47.384,-0.51669,0.097154,-1.8515e-05,0.6,0.24,0
0.23243,0.046773,0.39707,-0.53892,-0.52653,-0.45199,0.028041,0,0,-0.33903,-0.29069,0,0.21872,0,0,0.38356,-0.036622,0,0.3853,-0.50401,-0.56144,-0.45199,51.231,-0.50581,0.094826,-3.7497e-06,0.62,0.24,0
0.22535,0.046538,0.37418,-0.53385,-0.51297,-0.43878,0.022593,0,0,-0.3708,-0.28937,0,0.17622,0,0,0.37995,-0.030356,0,0.38116,-0.49852,-0.5483,-0.43878,57.401,-0.4952,0.094983,6.9058e-06,0.64,0.24,0
0.2176,0.045918,0.35147,-0.5298,-0.49893,-0.42578,0.017697,0,0,-0.4057,-0.28529,0,0.13804,0,0,0.37756,-0.024678,0,0.37836,-0.49088,-0.53785,-0.42578,65.549,-0.48484,0.09748,1.3125e-05,0.66,0.24,0
0.20912,0.044986,0.32888,-0.52666,-0.48448,-0.41297,0.013221,0,0,-0.4434,-0.2789,0,0.10312,0,0,0.37616,-0.019433,0,0.37666,-0.48068,-0.53046,-0.41297,73.958,-0.4747,0.10215,1.4264e-05,0.68,0.24,0
0.19986,0.0438,0.30633,-0.52436,-0.46968,-0.40032,0.0090498,0,0,-0.48373,-0.2705,0,0.070589,0,0,0.37563,-0.014464,0,0.3759,-0.46822,-0.52582,-0.40032,80.842,-0.46479,0.1088,9.371e-06,0.7,0.24,0
0.18977,0.042408,0.2838,-0.52287,-0.45457,-0.38783,0.0050822,0,0,-0.52664,-0.26029,0,0.039641,0,0,0.3759,-0.009613,0,0.37602,-0.4542,-0.52324,-0.38783,85.767,-0.45509,0.11728,-2.8433e-06,0.72,0.24,0
0.1788,0.040851,0.26123,-0.52221,-0.43918,-0.37549,0.0012343,0,0,-0.57219,-0.24839,0,0.0096275,0,0,0.37698,-0.0047277,0,0.37701,-0.43916,-0.52223,-0.37549,89.148,-0.44563,0.12745,-2.4079e-05,0.74,0.24,0
0.16688,0.039168,0.23856,-0.52244,-0.42353,-0.36331,-0.0025554,0,0,-0.62059,-0.23486,0,-0.019932,0,0,0.37894,0.0003489,0,0.37894,-0.42347,-0.5225,-0.36331,-88.521,-0.43643,0.13923,-5.6555e-05,0.76,0.24,0
0.15397,0.037396,0.21575,-0.52367,-0.40765,-0.35131,-0.0063147,0,0,-0.67218,-0.21972,0,-0.049255,0,0,0.38192,0.0057775,0,0.38196,-0.40731,-0.52401,-0.35131,-86.894,-0.42754,0.15261,-0.00010318,0.78,0.24,0
0.14,0.035575,0.19273,-0.52605,-0.39155,-0.33952,-0.010021,0,0,-0.72745,-0.2029,0,-0.078162,0,0,0.38615,0.011718,0,0.38633,-0.39081,-0.52679,-0.33952,-85.762,-0.41904,0.16762,-0.00016773,0.8,0.24,0
0.12487,0.033752,0.16942,-0.5298,-0.37525,-0.32799,-0.013571,0,0,-0.78706,-0.18434,0,-0.10585,0,0,0.392,0.018303,0,0.39243,-0.37407,-0.53098,-0.32799,-85.02,-0.41101,0.18432,-0.00025513,0.82,0.24,0
0.10851,0.031987,0.14569,-0.5351,-0.35879,-0.31673,-0.016757,0,0,-0.85165,-0.16402,0,-0.13071,0,0,0.40004,0.025565,0,0.40087,-0.35721,-0.53668,-0.31673,-84.619,-0.40354,0.20277,-0.0003713,0.84,0.24,0
0.090808,0.030349,0.12141,-0.54206,-0.34227,-0.30577,-0.019243,0,0,-0.92154,-0.14235,0,-0.15009,0,0,0.41102,0.033232,0,0.41239,-0.34043,-0.5439,-0.30577,-84.548,-0.3967,0.22283,-0.00052218,0.86,0.24,0
0.071652,0.028909,0.096369,-0.55021,-0.32576,-0.29491,-0.020805,0,0,-0.99565,-0.12029,0,-0.16228,0,0,0.42545,0.040191,0,0.42742,-0.32384,-0.55212,-0.29491,-84.749,-0.39029,0.24403,-0.00071112,0.88,0.24,0
0.050982,0.027648,0.070356,-0.56011,-0.31019,-0.28454,-0.021284,0,0,-1.0747,-0.10003,0,-0.16602,0,0,0.4428,0.043573,0,0.44504,-0.30839,-0.56191,-0.28454,-85.167,-0.38495,0.26625,-0.00094314,0.9,0.24,0
0.028663,0.026467,0.043234,-0.56576,-0.33749,-0.29979,-0.020644,0,0,-0.71773,-0.073501,0,-0.10773,0,0,0.46961,0.081786,0,0.47854,-0.33559,-0.56766,-0.29979,-84.734,-0.40101,0.25265,-0.00079245,0.92,0.24,0
0.022273,0.027464,0.03349,-0.58709,-0.41033,-0.33272,-0.019757,0,0,-0.33068,-0.1009,0,-0.051367,0,0,0.50987,0.10619,0,0.52125,-0.40815,-0.58927,-0.33272,-83.699,-0.44338,0.22838,-0.00039434,0.94,0.24,0
0.015436,0.028195,0.022839,-0.5995,-0.40864,-0.32528,-0.019315,0,0,-0.35649,-0.10836,0,-0.05022,0,0,0.54801,0.075363,0,0.5532,-0.4067,-0.60144,-0.32528,-84.279,-0.44447,0.24578,-0.00048996,0.96,0.24,0
0.0080134,0.028535,0.01157,-0.60919,-0.3934,-0.31234,-0.012315,0,0,-0.38589,-0.10537,0,-0.032019,0,0,0.57096,0.03794,0,0.57205,-0.3927,-0.60989,-0.31234,-86.744,-0.43831,0.26661,-0.00068354,0.98,0.24,0
0,0.028612,0,-0.5992,-0.37078,-0.291,0.0014742,0,0,-0.40067,-0.10372,0,0.0038328,0,0,0.57848,1.3878e-17,0,0.57827,-0.37077,-0.59921,-0.291,89.63,-0.42033,0.27708,-0.00079491,1,0.24,0
0,0.029911,1,-0.73399,-1.8092,-1.763,0.00030217,0,0,1.3377,-0.060152,0,0.00078564,0,0,0.5161,-9.5713e-16,0,0.51609,-0.73399,-1.8092,-1.763,0.016101,-1.4354,1.0529,0.059556,0,0.26,0
0.026753,0.029927,0.98968,-0.71906,-1.7898,-1.7423,0.0044187,0,0,1.3303,-0.061701,0,0.011489,0,0,0.51339,-0.0091897,0,0.51347,-0.71905,-1.7898,-1.7423,0.23644,-1.4171,1.0478,0.05868,0.02,0.26,0
0.05321,0.029974,0.97946,-0.71369,-1.7777,-1.7269,0.0085105,0,0,1.3171,-0.066052,0,0.022127,0,0,0.50548,-0.017877,0,0.50582,-0.71362,-1.7777,-1.7269,0.45825,-1.4061,1.0396,0.057245,0.04,0.26,0
0.079439,0.030041,0.96946,-0.70584,-1.7666,-1.7112,0.011912,0,0,1.307,-0.072024,0,0.030971,0,0,0.49301,-0.025535,0,0.49372,-0.70571,-1.7667,-1.7112,0.6433,-1.3945,1.0344,0.056287,0.06,0.26,0
0.10549,0.030117,0.95974,-0.69631,-1.7553,-1.6952,0.014703,0,0,1.2986,-0.078112,0,0.038227,0,0,0.47705,-0.031647,0,0.47818,-0.69611,-1.7555,-1.6952,0.79527,-1.3823,1.0306,0.055571,0.08,0.26,0
0.13138,0.03021,0.95038,-0.668,-1.2525,-1.2097,0.016722,0,0,0.81799,-0.083372,0,0.086394,0,0,0.46218,-0.023863,0,0.463,-0.66664,-1.2538,-1.2097,4.6747,-1.0434,0.56693,0.027711,0.1,0.26,0
0.13821,0.031997,0.92302,-0.64441,-0.7674,-0.73121,0.016609,0,0,0.33854,-0.14112,0,0.12955,0,0,0.45292,-0.014634,0,0.45316,-0.64221,-0.7696,-0.73121,7.5571,-0.71434,0.1132,4.6639e-05,0.12,0.26,0
0.14492,0.033501,0.89603,-0.63534,-0.76857,-0.71985,0.015289,0,0,0.32959,-0.19001,0,0.11925,0,0,0.44707,-0.016595,0,0.44739,-0.6336,-0.7703,-0.71985,6.4631,-0.70792,0.11973,3.8346e-05,0.14,0.26,0
0.15139,0.034679,0.86937,-0.62789,-0.76625,-0.70803,0.013669,0,0,0.31254,-0.22704,0,0.10662,0,0,0.44213,-0.017888,0,0.4425,-0.62655,-0.76758,-0.70803,5.5887,-0.70072,0.12263,2.5127e-05,0.16,0.26,0
0.15743,0.035538,0.84297,-0.62241,-0.76031,-0.69581,0.012183,0,0,0.28624,-0.25156,0,0.095024,0,0,0.43857,-0.018652,0,0.43897,-0.62134,-0.76138,-0.69581,5.0101,-0.69284,0.12135,1.0071e-05,0.18,0.26,0
0.16284,0.036121,0.81674,-0.61896,-0.751,-0.68324,0.011085,0,0,0.25067,-0.26428,0,0.086467,0,0,0.43672,-0.019049,0,0.43714,-0.61804,-0.75192,-0.68324,4.7659,-0.6844,0.11596,-3.6158e-06,0.2,0.26,0
0.16745,0.036485,0.79056,-0.61747,-0.73865,-0.67036,0.010487,0,0,0.20628,-0.26636,0,0.081801,0,0,0.43678,-0.019237,0,0.4372,-0.61657,-0.73955,-0.67036,4.9096,-0.67549,0.10679,-1.344e-05,0.22,0.26,0
0.17109,0.036692,0.76433,-0.61782,-0.72352,-0.65718,0.010412,0,0,0.15349,-0.25873,0,0.081214,0,0,0.43879,-0.019371,0,0.43922,-0.6168,-0.72453,-0.65718,5.5727,-0.66617,0.094267,-1.7968e-05,0.24,0.26,0
0.17359,0.036797,0.73791,-0.61992,-0.7057,-0.64366,0.01086,0,0,0.092562,-0.24197,0,0.084706,0,0,0.44267,-0.019611,0,0.44311,-0.61857,-0.70705,-0.64366,7.1045,-0.65643,0.078988,-1.697e-05,0.26,0.26,0
0.1748,0.03685,0.7112,-0.62367,-0.68522,-0.62973,0.011853,0,0,0.023651,-0.21638,0,0.092456,0,0,0.44818,-0.020143,0,0.44865,-0.62147,-0.68742,-0.62973,10.533,-0.64621,0.062232,-1.1645e-05,0.28,0.26,0
0.17454,0.036899,0.68413,-0.62886,-0.66207,-0.61532,0.013478,0,0,-0.05279,-0.18233,0,0.10513,0,0,0.45492,-0.021176,0,0.45543,-0.62408,-0.66685,-0.61532,19.53,-0.63542,0.047761,-4.9677e-06,0.3,0.26,0
0.17268,0.036993,0.65661,-0.63509,-0.6365,-0.60035,0.015901,0,0,-0.1355,-0.14099,0,0.12403,0,0,0.46233,-0.022926,0,0.46291,-0.61988,-0.65172,-0.60035,43.731,-0.62398,0.044907,-1.8636e-06,0.32,0.26,0
0.16912,0.037194,0.62865,-0.65049,-0.94708,-0.89837,0.021602,0,0,0.26285,-0.094982,0,0.10498,0,0,0.4733,-0.051161,0,0.47677,-0.63387,-0.96369,-0.89837,31.038,-0.83198,0.31711,0.0048097,0.34,0.26,0
0.1832,0.035735,0.61904,-0.6682,-1.2702,-1.2006,0.034182,0,0,0.69205,-0.090501,0,0.088872,0,0,0.49026,-0.081468,0,0.49708,-0.66626,-1.2721,-1.2006,3.2396,-1.0463,0.57342,0.0091772,0.36,0.26,0
0.1968,0.034722,0.60904,-0.67231,-1.2545,-1.1871,0.047535,0,0,0.66919,-0.087633,0,0.12359,0,0,0.50764,-0.089318,0,0.51549,-0.66846,-1.2583,-1.1871,4.6373,-1.038,0.55768,0.0084194,0.38,0.26,0
0.20997,0.034021,0.59873,-0.6735,-1.2386,-1.1724,0.059435,0,0,0.64853,-0.086122,0,0.15453,0,0,0.51961,-0.10016,0,0.52917,-0.66731,-1.2448,-1.1724,5.9394,-1.0282,0.54489,0.0078162,0.4,0.26,0
0.22274,0.033512,0.58825,-0.67057,-1.2234,-1.1564,0.069677,0,0,0.63164,-0.087061,0,0.18116,0,0,0.52409,-0.11373,0,0.53626,-0.66193,-1.2321,-1.1564,7.0738,-1.0168,0.53634,0.007396,0.42,0.26,0
0.23523,0.033047,0.57777,-0.66302,-1.2104,-1.1398,0.076744,0,0,0.61981,-0.091801,0,0.19953,0,0,0.51932,-0.12935,0,0.53516,-0.65246,-1.221,-1.1398,7.8317,-1.0044,0.53258,0.0071547,0.44,0.26,0
0.24754,0.032417,0.56748,-0.65128,-1.1988,-1.1225,0.078009,0,0,0.61259,-0.09918,0,0.20282,0,0,0.50426,-0.14522,0,0.52481,-0.64038,-1.2097,-1.1225,7.9526,-0.99086,0.53111,0.0070006,0.46,0.26,0
0.25973,0.031371,0.5576,-0.63706,-1.1844,-1.104,0.072453,0,0,0.60707,-0.10448,0,0.18838,0,0,0.4795,-0.1582,0,0.50513,-0.62763,-1.1938,-1.104,7.4142,-0.97517,0.52707,0.0067904,0.48,0.26,0
0.27182,0.029727,0.5483,-0.6079,-0.85741,-0.80513,0.063593,0,0,0.16498,-0.10195,0,0.31935,0,0,0.45354,-0.10967,0,0.46953,-0.56107,-0.90425,-0.80513,31.123,-0.75681,0.32081,0.0032725,0.5,0.26,0
0.26633,0.033791,0.52177,-0.58907,-0.56245,-0.51938,0.055693,0,0,-0.27179,-0.16798,0,0.43441,0,0,0.43586,-0.055393,0,0.43941,-0.5185,-0.63302,-0.51938,51.72,-0.55697,0.11409,-7.6247e-05,0.52,0.26,0
0.26095,0.036894,0.496,-0.57652,-0.56086,-0.50655,0.047914,0,0,-0.27291,-0.21182,0,0.37373,0,0,0.42343,-0.05298,0,0.42677,-0.52014,-0.61724,-0.50655,49.642,-0.54798,0.10456,-5.5384e-05,0.54,0.26,0
0.25542,0.039034,0.47096,-0.56605,-0.55412,-0.49304,0.040322,0,0,-0.28474,-0.23824,0,0.31451,0,0,0.41206,-0.048491,0,0.41493,-0.51933,-0.60085,-0.49304,49.205,-0.53774,0.097364,-3.601e-05,0.56,0.26,0
0.24956,0.04036,0.44655,-0.5575,-0.54463,-0.47949,0.033658,0,0,-0.30423,-0.25407,0,0.26254,0,0,0.40255,-0.043047,0,0.40486,-0.5168,-0.58533,-0.47949,50.408,-0.52721,0.092983,-2.0017e-05,0.58,0.26,0
0.24325,0.041043,0.42265,-0.55035,-0.53351,-0.46604,0.027932,0,0,-0.32881,-0.26312,0,0.21787,0,0,0.39508,-0.037489,0,0.39686,-0.51276,-0.57111,-0.46604,53.389,-0.51663,0.091173,-7.4092e-06,0.6,0.26,0
0.2364,0.041217,0.39914,-0.54438,-0.52133,-0.45276,0.022941,0,0,-0.35732,-0.26742,0,0.17894,0,0,0.38943,-0.032197,0,0.39076,-0.50718,-0.55853,-0.45276,58.338,-0.50616,0.091611,1.9854e-06,0.62,0.26,0
0.22895,0.040987,0.37592,-0.53944,-0.50836,-0.43965,0.018524,0,0,-0.38921,-0.26797,0,0.14449,0,0,0.38534,-0.027275,0,0.3863,-0.49972,-0.54808,-0.43965,65,-0.49582,0.09409,7.9442e-06,0.64,0.26,0
0.22084,0.040432,0.3529,-0.53548,-0.49477,-0.42671,0.014558,0,0,-0.42421,-0.26543,0,0.11355,0,0,0.38254,-0.022701,0,0.38321,-0.4901,-0.54015,-0.42671,72.215,-0.48565,0.098469,9.9013e-06,0.66,0.26,0
0.21199,0.039614,0.33001,-0.53243,-0.48065,-0.41393,0.010945,0,0,-0.46214,-0.26023,0,0.085374,0,0,0.38085,-0.018404,0,0.38129,-0.47843,-0.53465,-0.41393,78.54,-0.47567,0.10463,6.9806e-06,0.68,0.26,0
0.20235,0.038587,0.3072,-0.53027,-0.4661,-0.40131,0.0076051,0,0,-0.50294,-0.25267,0,0.05932,0,0,0.38015,-0.014294,0,0.38041,-0.46521,-0.53116,-0.40131,83.333,-0.46589,0.11245,-1.9963e-06,0.7,0.26,0
0.19187,0.037394,0.2844,-0.52898,-0.45114,-0.38884,0.0044686,0,0,-0.54657,-0.24299,0,0.034855,0,0,0.38038,-0.010278,0,0.38051,-0.45089,-0.52924,-0.38884,86.725,-0.45632,0.12187,-1.8539e-05,0.72,0.26,0
0.18049,0.036074,0.26155,-0.5286,-0.43584,-0.37652,0.0014835,0,0,-0.59311,-0.23138,0,0.011571,0,0,0.38154,-0.0062619,0,0.38159,-0.43582,-0.52862,-0.37652,89.084,-0.44699,0.13279,-4.4536e-05,0.74,0.26,0
0.16814,0.034662,0.23861,-0.52914,-0.42025,-0.36435,-0.0013801,0,0,-0.64268,-0.21798,0,-0.010765,0,0,0.3837,-0.0021511,0,0.3837,-0.42023,-0.52916,-0.36435,-89.274,-0.43791,0.14517,-8.2306e-05,0.76,0.26,0
0.15478,0.033194,0.21551,-0.53067,-0.4044,-0.35236,-0.0041187,0,0,-0.69542,-0.20297,0,-0.032126,0,0,0.387,0.0021431,0,0.387,-0.40427,-0.53081,-0.35236,-88.134,-0.42914,0.15898,-0.00013464,0.78,0.26,0
0.14033,0.031708,0.19217,-0.53324,-0.38838,-0.34054,-0.0066807,0,0,-0.75151,-0.18657,0,-0.05211,0,0,0.39163,0.0066927,0,0.3917,-0.38808,-0.53355,-0.34054,-87.365,-0.42072,0.17417,-0.00020477,0.8,0.26,0
0.12472,0.030249,0.16851,-0.53687,-0.37228,-0.32891,-0.0089538,0,0,-0.81102,-0.16911,0,-0.069839,0,0,0.39788,0.011519,0,0.39806,-0.37179,-0.53735,-0.32891,-86.895,-0.41269,0.19065,-0.00029613,0.82,0.26,0
0.10789,0.028868,0.14443,-0.54151,-0.35622,-0.31746,-0.010764,0,0,-0.87379,-0.15117,0,-0.083961,0,0,0.40606,0.016515,0,0.40642,-0.3556,-0.54213,-0.31746,-86.686,-0.40507,0.20824,-0.00041183,0.84,0.26,0
0.089768,0.027621,0.11979,-0.54696,-0.34039,-0.30614,-0.011946,0,0,-0.93923,-0.1336,0,-0.093176,0,0,0.4164,0.021295,0,0.41698,-0.3397,-0.54765,-0.30614,-86.701,-0.39783,0.22661,-0.00055368,0.86,0.26,0
0.070318,0.026543,0.094458,-0.5531,-0.32508,-0.29494,-0.012416,0,0,-1.0068,-0.11753,0,-0.096843,0,0,0.42881,0.024984,0,0.42959,-0.3244,-0.55378,-0.29494,-86.893,-0.39104,0.24544,-0.00072259,0.88,0.26,0
0.049495,0.025633,0.068329,-0.55962,-0.30982,-0.28361,-0.012234,0,0,-1.0764,-0.10222,0,-0.095423,0,0,0.44253,0.02638,0,0.44338,-0.30922,-0.56022,-0.28361,-87.203,-0.38435,0.26473,-0.00092288,0.9,0.26,0
0.02726,0.024863,0.041355,-0.56274,-0.34292,-0.29927,-0.01045,0,0,-0.71308,-0.085116,0,-0.056961,0,0,0.46262,0.048868,0,0.46599,-0.34241,-0.56324,-0.29927,-87.229,-0.40164,0.24641,-0.00071251,0.92,0.26,0
0.020971,0.02539,0.031841,-0.57412,-0.40798,-0.32647,-0.0083262,0,0,-0.32194,-0.10596,0,-0.021648,0,0,0.49278,0.064463,0,0.49727,-0.40756,-0.57453,-0.32647,-87.138,-0.43619,0.21908,-0.00030126,0.94,0.26,0
0.014383,0.025875,0.021643,-0.57966,-0.41073,-0.31876,-0.0073017,0,0,-0.33917,-0.11956,0,-0.018984,0,0,0.52229,0.047017,0,0.52449,-0.41042,-0.57998,-0.31876,-87.53,-0.43639,0.22955,-0.0003041,0.96,0.26,0
0.0074044,0.026157,0.01095,-0.58353,-0.4031,-0.30694,-0.0049817,0,0,-0.35957,-0.12501,0,-0.012952,0,0,0.54109,0.024526,0,0.54159,-0.40296,-0.58367,-0.30694,-88.42,-0.43119,0.24337,-0.0003708,0.98,0.26,0
0,0.02624,0,-0.57106,-0.38318,-0.28627,0.0016026,0,0,-0.37022,-0.12598,0,0.0041668,0,0,0.54749,-8.6736e-19,0,0.54739,-0.38316,-0.57107,-0.28627,89.511,-0.4135,0.25081,-0.0004217,1,0.26,0
0,0.028632,1,-0.72795,-1.8121,-1.762,-0.00020695,0,0,1.3443,-0.065074,0,-0.00053807,0,0,0.50969,1.2758e-15,0,0.50968,-0.72795,-1.8121,-1.762,-0.010937,-1.434,1.06,0.060705,0,0.28,0
0.026885,0.028621,0.98981,-0.71338,-1.7927,-1.7416,0.0010118,0,0,1.3367,-0.066383,0,0.0026308,0,0,0.50713,-0.0037876,0,0.50715,-0.71338,-1.7927,-1.7416,0.053715,-1.4159,1.0547,0.059782,0.02,0.28,0
0.053469,0.028593,0.97972,-0.70854,-1.7803,-1.7264,0.0021462,0,0,1.3232,-0.070097,0,0.00558,0,0,0.49967,-0.0074853,0,0.49975,-0.70853,-1.7803,-1.7264,0.11473,-1.4051,1.0458,0.058224,0.04,0.28,0
0.079812,0.028556,0.96982,-0.70142,-1.7688,-1.7109,0.0034589,0,0,1.3123,-0.075296,0,0.0089932,0,0,0.48794,-0.011007,0,0.48811,-0.7014,-1.7688,-1.7109,0.18567,-1.3937,1.0397,0.057112,0.06,0.28,0
0.10596,0.028523,0.9602,-0.69265,-1.7574,-1.6952,0.005074,0,0,1.3033,-0.080854,0,0.013192,0,0,0.47298,-0.014277,0,0.47327,-0.69263,-1.7574,-1.6952,0.27303,-1.3818,1.0351,0.056267,0.08,0.28,0
0.13195,0.028513,0.9509,-0.66524,-1.2538,-1.2097,0.0066462,0,0,0.82402,-0.086159,0,0.034491,0,0,0.45907,-0.011491,0,0.45929,-0.66502,-1.2541,-1.2097,1.8718,-1.0429,0.56856,0.028035,0.1,0.28,0
0.13892,0.02919,0.9237,-0.64199,-0.76684,-0.73055,0.0071414,0,0,0.34539,-0.14154,0,0.055703,0,0,0.45041,-0.008477,0,0.4505,-0.64158,-0.76725,-0.73055,3.263,-0.71313,0.11193,4.6778e-05,0.12,0.28,0
0.14576,0.02974,0.89685,-0.63328,-0.7678,-0.71927,0.0073041,0,0,0.33537,-0.18924,0,0.056972,0,0,0.44497,-0.011082,0,0.44512,-0.63289,-0.76819,-0.71927,3.0989,-0.70678,0.11867,3.9299e-05,0.14,0.28,0
0.15234,0.030182,0.87031,-0.62604,-0.76558,-0.70759,0.0076267,0,0,0.31803,-0.22617,0,0.059488,0,0,0.44039,-0.013559,0,0.4406,-0.62563,-0.766,-0.70759,3.1192,-0.69974,0.12213,2.6732e-05,0.16,0.28,0
0.15848,0.030543,0.844,-0.62063,-0.75996,-0.69551,0.0081899,0,0,0.29204,-0.25136,0,0.063881,0,0,0.43711,-0.015915,0,0.4374,-0.62015,-0.76044,-0.69551,3.3524,-0.69204,0.12161,1.1856e-05,0.18,0.28,0
0.16402,0.030857,0.81785,-0.61713,-0.75108,-0.68308,0.0090629,0,0,0.2572,-0.26518,0,0.070691,0,0,0.43545,-0.018162,0,0.43583,-0.61652,-0.75169,-0.68308,3.8534,-0.68376,0.11706,-2.162e-06,0.2,0.28,0
0.16877,0.031164,0.79175,-0.6155,-0.73919,-0.67032,0.010305,0,0,0.21382,-0.26859,0,0.080382,0,0,0.43562,-0.020316,0,0.43609,-0.61464,-0.74005,-0.67032,4.73,-0.675,0.10883,-1.2742e-05,0.22,0.28,0
0.17257,0.031506,0.76558,-0.61562,-0.72454,-0.65724,0.011967,0,0,0.16233,-0.26246,0,0.093342,0,0,0.43765,-0.022396,0,0.43822,-0.61432,-0.72584,-0.65724,6.1966,-0.6658,0.097427,-1.8341e-05,0.24,0.28,0
0.17526,0.031928,0.73923,-0.61739,-0.70721,-0.64379,0.014079,0,0,0.10297,-0.24733,0,0.10982,0,0,0.44145,-0.024421,0,0.44213,-0.61523,-0.70936,-0.64379,8.703,-0.65613,0.083595,-1.8626e-05,0.26,0.28,0
0.17669,0.032472,0.71261,-0.62067,-0.68722,-0.6299,0.016644,0,0,0.035992,-0.22353,0,0.12983,0,0,0.44676,-0.02642,0,0.44755,-0.61674,-0.69115,-0.6299,13.288,-0.64593,0.068778,-1.4669e-05,0.28,0.28,0
0.1767,0.033175,0.68562,-0.62526,-0.66461,-0.6155,0.019621,0,0,-0.038063,-0.19152,0,0.15304,0,0,0.45317,-0.028431,0,0.45407,-0.61715,-0.67272,-0.6155,22.462,-0.63512,0.056413,-9.1941e-06,0.3,0.28,0
0.17517,0.034061,0.65823,-0.63073,-0.63962,-0.60052,0.022921,0,0,-0.11785,-0.15252,0,0.17878,0,0,0.46013,-0.030508,0,0.46115,-0.61183,-0.65853,-0.60052,39.513,-0.62362,0.053262,-6.5952e-06,0.32,0.28,0
0.17199,0.035136,0.63041,-0.64555,-0.95702,-0.90104,0.028404,0,0,0.27916,-0.10916,0,0.14108,0,0,0.47022,-0.065443,0,0.47585,-0.6283,-0.97428,-0.90104,27.357,-0.83454,0.32904,0.0051798,0.34,0.28,0
0.18633,0.033787,0.62087,-0.66136,-1.2833,-1.2043,0.039471,0,0,0.70578,-0.10272,0,0.10262,0,0,0.48558,-0.10083,0,0.49602,-0.65886,-1.2858,-1.2043,3.617,-1.0496,0.59039,0.0098933,0.36,0.28,0
0.20022,0.032836,0.61098,-0.66386,-1.2659,-1.1899,0.050676,0,0,0.68385,-0.09876,0,0.13176,0,0,0.50104,-0.10428,0,0.51182,-0.65962,-1.2701,-1.1899,4.7783,-1.0399,0.57459,0.0091066,0.38,0.28,0
0.21369,0.032166,0.60083,-0.66354,-1.2485,-1.1744,0.059562,0,0,0.66417,-0.096279,0,0.15486,0,0,0.51118,-0.10862,0,0.5226,-0.65754,-1.2545,-1.1744,5.7553,-1.0288,0.56124,0.0084598,0.4,0.28,0
0.22679,0.031649,0.59054,-0.66013,-1.2312,-1.158,0.065642,0,0,0.64716,-0.095289,0,0.17067,0,0,0.51422,-0.11388,0,0.52667,-0.65268,-1.2387,-1.158,6.4729,-1.0164,0.5501,0.0079323,0.42,0.28,0
0.23958,0.031133,0.58026,-0.65355,-1.214,-1.1405,0.067947,0,0,0.63308,-0.095557,0,0.17666,0,0,0.50897,-0.11977,0,0.52289,-0.64543,-1.2222,-1.1405,6.8143,-1.0027,0.54056,0.0074928,0.44,0.28,0
0.25211,0.03044,0.57018,-0.64433,-1.1958,-1.1222,0.065528,0,0,0.62126,-0.095696,0,0.17037,0,0,0.49513,-0.12554,0,0.51088,-0.63665,-1.2035,-1.1222,6.6837,-0.98747,0.53091,0.007082,0.46,0.28,0
0.26443,0.029386,0.56046,-0.63309,-1.1745,-1.1027,0.058289,0,0,0.61054,-0.093314,0,0.15155,0,0,0.4737,-0.12989,0,0.49135,-0.62689,-1.1807,-1.1027,6.0756,-0.97011,0.51926,0.0066471,0.48,0.28,0
0.27653,0.027832,0.55123,-0.60776,-0.84954,-0.80468,0.049605,0,0,0.16266,-0.08749,0,0.24886,0,0,0.45179,-0.087669,0,0.46219,-0.56665,-0.89065,-0.80468,32.357,-0.75399,0.30656,0.0031682,0.5,0.28,0
0.27093,0.03071,0.52469,-0.59068,-0.55542,-0.51873,0.043108,0,0,-0.28061,-0.14311,0,0.33624,0,0,0.43692,-0.043117,0,0.43908,-0.52648,-0.61962,-0.51873,56.121,-0.55494,0.097252,-4.6231e-05,0.52,0.28,0
0.26531,0.032961,0.4988,-0.57946,-0.55354,-0.50617,0.03742,0,0,-0.28585,-0.18476,0,0.29187,0,0,0.4262,-0.04116,0,0.42822,-0.5269,-0.6061,-0.50617,54.551,-0.54639,0.09135,-3.2454e-05,0.54,0.28,0
0.2595,0.034547,0.47355,-0.56969,-0.54773,-0.49307,0.031647,0,0,-0.29879,-0.21316,0,0.24685,0,0,0.41597,-0.038222,0,0.41775,-0.52521,-0.59221,-0.49307,54.565,-0.53683,0.087601,-1.9519e-05,0.56,0.28,0
0.25336,0.035529,0.44888,-0.56141,-0.53915,-0.4798,0.026426,0,0,-0.31828,-0.2315,0,0.20613,0,0,0.40699,-0.034723,0,0.40849,-0.52161,-0.57895,-0.4798,56.416,-0.52678,0.086224,-8.8014e-06,0.58,0.28,0
0.24677,0.036007,0.42471,-0.55444,-0.52879,-0.46654,0.021885,0,0,-0.34283,-0.24277,0,0.17071,0,0,0.39958,-0.03103,0,0.40079,-0.51625,-0.56698,-0.46654,60.189,-0.51659,0.086989,-5.9958e-07,0.6,0.28,0
0.23964,0.036077,0.40093,-0.5486,-0.51719,-0.45338,0.017953,0,0,-0.37134,-0.24887,0,0.14003,0,0,0.39377,-0.027368,0,0.39473,-0.50904,-0.55674,-0.45338,65.586,-0.50639,0.089604,4.9119e-06,0.62,0.28,0
0.23191,0.035819,0.37746,-0.54376,-0.5047,-0.44035,0.014517,0,0,-0.40327,-0.25094,0,0.11323,0,0,0.38945,-0.023832,0,0.39018,-0.49989,-0.54856,-0.44035,71.688,-0.49627,0.093867,7.3461e-06,0.64,0.28,0
0.22351,0.035301,0.3542,-0.53987,-0.49149,-0.42747,0.011479,0,0,-0.43834,-0.24965,0,0.089537,0,0,0.38643,-0.020443,0,0.38697,-0.4889,-0.54245,-0.42747,77.308,-0.48628,0.099654,6.012e-06,0.66,0.28,0
0.21438,0.034577,0.33108,-0.5369,-0.47767,-0.41473,0.0087619,0,0,-0.47645,-0.24546,0,0.068343,0,0,0.38457,-0.017186,0,0.38495,-0.4764,-0.53817,-0.41473,81.759,-0.47643,0.1069,-8.3837e-08,0.68,0.28,0
0.20445,0.033693,0.30805,-0.53484,-0.46334,-0.40214,0.0063023,0,0,-0.51753,-0.2387,0,0.049158,0,0,0.38376,-0.014031,0,0.38401,-0.46279,-0.53539,-0.40214,85.001,-0.46677,0.11555,-1.2243e-05,0.7,0.28,0
0.19368,0.032688,0.28503,-0.53368,-0.44856,-0.38969,0.0040512,0,0,-0.56159,-0.22963,0,0.0316,0,0,0.38393,-0.010944,0,0.38409,-0.44837,-0.53387,-0.38969,87.281,-0.45731,0.12559,-3.2091e-05,0.72,0.28,0
0.18199,0.031596,0.26198,-0.53344,-0.4334,-0.37738,0.0019739,0,0,-0.60865,-0.21848,0,0.015396,0,0,0.38511,-0.007891,0,0.38519,-0.43336,-0.53348,-0.37738,88.87,-0.44807,0.13698,-6.1596e-05,0.74,0.28,0
0.16933,0.030449,0.23882,-0.53413,-0.41791,-0.36522,5.3135e-05,0,0,-0.65875,-0.2055,0,0.00041446,0,0,0.38735,-0.0048384,0,0.38738,-0.41791,-0.53413,-0.36522,89.974,-0.43909,0.14969,-0.00010307,0.76,0.28,0
0.15564,0.029277,0.2155,-0.53575,-0.40219,-0.35322,-0.0017052,0,0,-0.7119,-0.19101,0,-0.0133,0,0,0.39076,-0.0017595,0,0.39077,-0.40217,-0.53578,-0.35322,-89.269,-0.43039,0.16367,-0.00015912,0.78,0.28,0
0.14086,0.028112,0.19193,-0.53829,-0.38634,-0.34137,-0.0032666,0,0,-0.76802,-0.17541,0,-0.02548,0,0,0.39553,0.0013567,0,0.39554,-0.38627,-0.53836,-0.34137,-88.769,-0.422,0.17882,-0.00023244,0.8,0.28,0
0.12492,0.026987,0.16803,-0.54168,-0.37052,-0.32967,-0.0045654,0,0,-0.82683,-0.15932,0,-0.03561,0,0,0.40183,0.0044841,0,0.40187,-0.3704,-0.5418,-0.32967,-88.473,-0.41396,0.19498,-0.00032543,0.82,0.28,0
0.10778,0.02594,0.14371,-0.54575,-0.3549,-0.3181,-0.0055192,0,0,-0.88785,-0.14354,0,-0.04305,0,0,0.40981,0.0075165,0,0.40991,-0.35474,-0.54591,-0.3181,-88.345,-0.40625,0.21188,-0.00043968,0.84,0.28,0
0.089406,0.025005,0.11886,-0.55033,-0.3397,-0.30662,-0.0060628,0,0,-0.95043,-0.12898,0,-0.04729,0,0,0.41949,0.010207,0,0.41964,-0.33952,-0.5505,-0.30662,-88.353,-0.39888,0.2292,-0.00057572,0.86,0.28,0
0.069765,0.024208,0.093371,-0.55515,-0.3249,-0.29514,-0.006191,0,0,-1.014,-0.11607,0,-0.04829,0,0,0.43054,0.012148,0,0.43075,-0.32474,-0.55532,-0.29514,-88.461,-0.39173,0.24672,-0.00073401,0.88,0.28,0
0.048844,0.023559,0.06719,-0.55997,-0.31019,-0.28344,-0.0058684,0,0,-1.0784,-0.10431,0,-0.045774,0,0,0.44225,0.012851,0,0.44248,-0.31005,-0.5601,-0.28344,-88.655,-0.38453,0.26436,-0.00091657,0.9,0.28,0
0.026628,0.023062,0.040301,-0.56169,-0.34683,-0.29942,-0.0046787,0,0,-0.71122,-0.092442,0,-0.026482,0,0,0.45882,0.023929,0,0.45975,-0.34673,-0.56179,-0.29942,-88.742,-0.40265,0.24363,-0.00067396,0.92,0.28,0
0.020396,0.023225,0.030912,-0.56841,-0.40798,-0.32383,-0.0031368,0,0,-0.31796,-0.1094,0,-0.0081558,0,0,0.48359,0.031772,0,0.48485,-0.40792,-0.56847,-0.32383,-88.88,-0.43341,0.21529,-0.00026156,0.94,0.28,0
0.01391,0.023412,0.020958,-0.57063,-0.41125,-0.31552,-0.0024607,0,0,-0.33164,-0.12445,0,-0.0063977,0,0,0.50807,0.023486,0,0.50871,-0.41122,-0.57067,-0.31552,-89.116,-0.43247,0.22325,-0.00023815,0.96,0.28,0
0.00713,0.023535,0.010589,-0.57152,-0.4066,-0.30402,-0.0016555,0,0,-0.34774,-0.13335,0,-0.0043042,0,0,0.52395,0.012401,0,0.5241,-0.40659,-0.57153,-0.30402,-89.425,-0.42738,0.23376,-0.00025638,0.98,0.28,0
0,0.023572,0,-0.55841,-0.38885,-0.28418,0.00072838,0,0,-0.3565,-0.13608,0,0.0018938,0,0,0.52943,-1.301e-18,0,0.5294,-0.38885,-0.55841,-0.28418,89.754,-0.41048,0.2397,-0.00028022,1,0.28,0
0,0.027308,1,-0.72695,-1.8113,-1.7615,-0.00070429,0,0,1.3449,-0.064741,0,-0.0018311,0,0,0.50853,1.6276e-15,0,0.50852,-0.72695,-1.8113,-1.7615,-0.037215,-1.4332,1.0603,0.060766,0,0.3,0
0.026897,0.027272,0.98983,-0.71235,-1.7921,-1.7412,-0.0022519,0,0,1.3375,-0.066212,0,-0.005855,0,0,0.50591,0.0015236,0,0.50592,-0.71234,-1.7921,-1.7412,-0.1195,-1.4152,1.0552,0.059871,0.02,0.3,0
0.053498,0.02717,0.97976,-0.70731,-1.7802,-1.726,-0.0039757,0,0,1.3243,-0.070403,0,-0.010337,0,0,0.49826,0.0027274,0,0.4983,-0.7073,-1.7802,-1.726,-0.21232,-1.4045,1.0468,0.058389,0.04,0.3,0
0.079869,0.027029,0.9699,-0.69992,-1.7694,-1.7107,-0.004722,0,0,1.314,-0.07633,0,-0.012277,0,0,0.48622,0.0032633,0,0.48628,-0.6999,-1.7694,-1.7107,-0.25296,-1.3934,1.0414,0.057386,0.06,0.3,0
0.10606,0.026883,0.96032,-0.69086,-1.7589,-1.6952,-0.0043153,0,0,1.3057,-0.082704,0,-0.01122,0,0,0.47082,0.0027738,0,0.47091,-0.69085,-1.7589,-1.6952,-0.2315,-1.3817,1.0377,0.056657,0.08,0.3,0
0.1321,0.026764,0.95107,-0.66316,-1.255,-1.2095,-0.0032419,0,0,0.82877,-0.08868,0,-0.016505,0,0,0.45649,0.00064492,0,0.45654,-0.66311,-1.255,-1.2095,-0.87069,-1.0425,0.57091,0.028265,0.1,0.3,0
0.13921,0.026335,0.92403,-0.63971,-0.76755,-0.73019,-0.0021832,0,0,0.35288,-0.14572,0,-0.017029,0,0,0.44758,-0.0024507,0,0.4476,-0.63967,-0.76759,-0.73019,-0.97805,-0.71248,0.11392,4.926e-05,0.12,0.3,0
0.14621,0.025932,0.89736,-0.63087,-0.76896,-0.71907,-0.00058381,0,0,0.34395,-0.19456,0,-0.0045537,0,0,0.44199,-0.005701,0,0.44203,-0.63087,-0.76896,-0.71907,-0.24224,-0.7063,0.12111,4.1842e-05,0.14,0.3,0
0.15297,0.025632,0.87099,-0.62357,-0.76704,-0.70752,0.0016307,0,0,0.32738,-0.23216,0,0.012719,0,0,0.4373,-0.0093529,0,0.4374,-0.62355,-0.76706,-0.70752,0.6511,-0.69938,0.12488,2.8962e-05,0.16,0.3,0
0.15931,0.025484,0.84488,-0.61812,-0.76166,-0.69556,0.0041882,0,0,0.30201,-0.25778,0,0.032668,0,0,0.43397,-0.013286,0,0.43417,-0.618,-0.76178,-0.69556,1.6699,-0.69178,0.12465,1.3537e-05,0.18,0.3,0
0.16505,0.025514,0.81892,-0.61458,-0.75303,-0.68325,0.0069658,0,0,0.26783,-0.27211,0,0.054333,0,0,0.43232,-0.017368,0,0.43267,-0.61423,-0.75338,-0.68325,2.8731,-0.68362,0.12051,-1.2267e-06,0.2,0.3,0
0.17002,0.025741,0.793,-0.61285,-0.74147,-0.67063,0.0099725,0,0,0.22534,-0.27627,0,0.077785,0,0,0.43255,-0.021471,0,0.43308,-0.61208,-0.74224,-0.67063,4.4073,-0.67498,0.11291,-1.2768e-05,0.22,0.3,0
0.17406,0.026193,0.76701,-0.61281,-0.72722,-0.65768,0.013287,0,0,0.17498,-0.2712,0,0.10364,0,0,0.43469,-0.025477,0,0.43544,-0.61129,-0.72874,-0.65768,6.5386,-0.6659,0.10246,-1.9567e-05,0.24,0.3,0
0.17702,0.026903,0.74084,-0.61437,-0.71035,-0.64436,0.016984,0,0,0.11696,-0.25734,0,0.13247,0,0,0.43865,-0.029262,0,0.43963,-0.61146,-0.71326,-0.64436,9.745,-0.65636,0.089985,-2.1256e-05,0.26,0.3,0
0.17874,0.027909,0.71438,-0.61743,-0.69078,-0.63059,0.021051,0,0,0.051316,-0.23475,0,0.1642,0,0,0.44417,-0.032691,0,0.44538,-0.61182,-0.69639,-0.63059,14.928,-0.64627,0.076927,-1.8771e-05,0.28,0.3,0
0.17907,0.029238,0.68754,-0.62181,-0.66843,-0.61625,0.025327,0,0,-0.021672,-0.2035,0,0.19755,0,0,0.45083,-0.035627,0,0.45225,-0.6107,-0.67954,-0.61625,23.686,-0.6355,0.066242,-1.4576e-05,0.3,0.3,0
0.17787,0.030893,0.66028,-0.62713,-0.64341,-0.60125,0.029459,0,0,-0.1009,-0.16442,0,0.22978,0,0,0.45804,-0.037959,0,0.45962,-0.60471,-0.66583,-0.60125,37.275,-0.62393,0.062925,-1.2667e-05,0.32,0.3,0
0.17504,0.032827,0.63257,-0.64204,-0.96547,-0.90397,0.034618,0,0,0.29321,-0.11993,0,0.1742,0,0,0.46843,-0.079284,0,0.47666,-0.62335,-0.98417,-0.90397,25.353,-0.83716,0.34023,0.0054931,0.34,0.3,0
0.1896,0.031627,0.62307,-0.65767,-1.2947,-1.2088,0.043935,0,0,0.71644,-0.11166,0,0.11423,0,0,0.48415,-0.11941,0,0.49875,-0.65465,-1.2977,-1.2088,3.927,-1.0537,0.60351,0.010468,0.36,0.3,0
0.20369,0.030771,0.61321,-0.66019,-1.275,-1.1938,0.052865,0,0,0.69363,-0.10556,0,0.13745,0,0,0.49985,-0.11832,0,0.51371,-0.65568,-1.2795,-1.1938,4.8793,-1.043,0.58565,0.009576,0.38,0.3,0
0.21735,0.030169,0.60308,-0.66008,-1.2549,-1.1776,0.058961,0,0,0.67272,-0.1005,0,0.1533,0,0,0.51001,-0.11608,0,0.52307,-0.65429,-1.2607,-1.1776,5.607,-1.0308,0.56938,0.0088036,0.4,0.3,0
0.2306,0.029701,0.59281,-0.65723,-1.2343,-1.1603,0.06167,0,0,0.65395,-0.096263,0,0.16034,0,0,0.51294,-0.11319,0,0.52528,-0.65071,-1.2408,-1.1603,6.032,-1.0173,0.55425,0.0081252,0.42,0.3,0
0.2435,0.029225,0.58256,-0.6517,-1.2131,-1.142,0.060655,0,0,0.63737,-0.092393,0,0.1577,0,0,0.50766,-0.1101,0,0.51948,-0.64522,-1.2195,-1.142,6.0971,-1.0023,0.53973,0.0075164,0.44,0.3,0
0.2561,0.028589,0.5725,-0.64385,-1.1901,-1.1227,0.055763,0,0,0.62248,-0.087609,0,0.14498,0,0,0.49413,-0.10717,0,0.5057,-0.63821,-1.1957,-1.1227,5.7699,-0.98553,0.5248,0.0069414,0.46,0.3,0
0.2684,0.027638,0.56279,-0.634,-1.1643,-1.1023,0.047096,0,0,0.60877,-0.080631,0,0.12245,0,0,0.47353,-0.10458,0,0.48509,-0.62985,-1.1685,-1.1023,5.0358,-0.96686,0.50876,0.0063793,0.48,0.3,0
0.28045,0.026228,0.55356,-0.61001,-0.84144,-0.80448,0.037559,0,0,0.15622,-0.072075,0,0.1871,0,0,0.45265,-0.068276,0,0.45903,-0.57232,-0.87913,-0.80448,34.492,-0.75197,0.29398,0.003011,0.5,0.3,0
0.27465,0.028067,0.52694,-0.59361,-0.55038,-0.51884,0.031595,0,0,-0.29159,-0.12298,0,0.24644,0,0,0.43853,-0.032229,0,0.43974,-0.53371,-0.61028,-0.51884,62.19,-0.55428,0.084979,-2.8294e-05,0.52,0.3,0
0.26878,0.029503,0.50094,-0.58276,-0.54825,-0.50628,0.027327,0,0,-0.29825,-0.16368,0,0.21315,0,0,0.42832,-0.030367,0,0.42943,-0.53319,-0.59782,-0.50628,61.133,-0.54576,0.08149,-1.7923e-05,0.54,0.3,0
0.26272,0.030507,0.47554,-0.57306,-0.54288,-0.4933,0.023106,0,0,-0.31107,-0.19339,0,0.18022,0,0,0.4185,-0.028482,0,0.41949,-0.53038,-0.58557,-0.4933,61.571,-0.53641,0.080419,-8.8711e-06,0.56,0.3,0
0.25634,0.0311,0.45072,-0.56472,-0.53495,-0.48014,0.019252,0,0,-0.32986,-0.21377,0,0.15016,0,0,0.40975,-0.026528,0,0.41062,-0.5255,-0.57417,-0.48014,63.854,-0.52661,0.08145,-1.6887e-06,0.58,0.3,0
0.24953,0.031332,0.42637,-0.55767,-0.52518,-0.46698,0.015886,0,0,-0.3537,-0.22697,0,0.12391,0,0,0.40243,-0.024495,0,0.40319,-0.5187,-0.56415,-0.46698,67.822,-0.51661,0.084209,3.4217e-06,0.6,0.3,0
0.24219,0.031263,0.40242,-0.55178,-0.51408,-0.4539,0.013004,0,0,-0.38172,-0.23472,0,0.10143,0,0,0.39663,-0.02239,0,0.39727,-0.51003,-0.55583,-0.4539,72.697,-0.50659,0.088423,6.1979e-06,0.62,0.3,0
0.23426,0.03095,0.37878,-0.54692,-0.50199,-0.44093,0.010546,0,0,-0.41335,-0.23813,0,0.08226,0,0,0.39226,-0.020234,0,0.39279,-0.49964,-0.54927,-0.44093,77.425,-0.49662,0.093935,6.15e-06,0.64,0.3,0
0.22566,0.030445,0.35535,-0.54304,-0.48911,-0.4281,0.0084437,0,0,-0.44828,-0.23796,0,0.065861,0,0,0.38919,-0.018051,0,0.3896,-0.48782,-0.54433,-0.4281,81.306,-0.48675,0.10068,2.5099e-06,0.66,0.3,0
0.21633,0.029796,0.33208,-0.5401,-0.47557,-0.41539,0.0066361,0,0,-0.48634,-0.2347,0,0.051761,0,0,0.38726,-0.015865,0,0.38759,-0.4749,-0.54077,-0.41539,84.188,-0.47702,0.10863,-5.7841e-06,0.68,0.3,0
0.20621,0.029039,0.30888,-0.53807,-0.46147,-0.40282,0.0050754,0,0,-0.52746,-0.22872,0,0.039588,0,0,0.38639,-0.0137,0,0.38663,-0.46113,-0.5384,-0.40282,86.226,-0.46745,0.1178,-2.0093e-05,0.7,0.3,0
0.19523,0.028209,0.28571,-0.53695,-0.44687,-0.39038,0.0037263,0,0,-0.5716,-0.22032,0,0.029065,0,0,0.38651,-0.011577,0,0.38669,-0.44672,-0.5371,-0.39038,87.635,-0.45807,0.1282,-4.2088e-05,0.72,0.3,0
0.18334,0.027334,0.2625,-0.53674,-0.43187,-0.37808,0.0025645,0,0,-0.61875,-0.20977,0,0.020003,0,0,0.38764,-0.009521,0,0.38776,-0.43181,-0.5368,-0.37808,88.6,-0.44889,0.13982,-7.3756e-05,0.74,0.3,0
0.17048,0.026441,0.23919,-0.53744,-0.41653,-0.36592,0.0015749,0,0,-0.66892,-0.19738,0,0.012284,0,0,0.38983,-0.0075559,0,0.38991,-0.41651,-0.53746,-0.36592,89.254,-0.43997,0.15266,-0.00011739,0.76,0.3,0
0.15659,0.025553,0.21572,-0.53905,-0.40097,-0.35391,0.00074961,0,0,-0.72204,-0.18352,0,0.005847,0,0,0.39319,-0.0057097,0,0.39324,-0.40096,-0.53906,-0.35391,89.689,-0.43131,0.16668,-0.00017547,0.78,0.3,0
0.1416,0.024692,0.19201,-0.54153,-0.3853,-0.34205,8.5477e-05,0,0,-0.77795,-0.16867,0,0.00066672,0,0,0.39788,-0.0040136,0,0.39791,-0.3853,-0.54153,-0.34205,89.969,-0.42296,0.18175,-0.00025049,0.8,0.3,0
0.12547,0.023876,0.16798,-0.54476,-0.36969,-0.33033,-0.00041842,0,0,-0.83628,-0.15352,0,-0.0032637,0,0,0.40404,-0.0025021,0,0.40406,-0.36969,-0.54476,-0.33033,-89.863,-0.41492,0.19771,-0.00034449,0.82,0.3,0
0.10815,0.023127,0.14353,-0.54859,-0.35435,-0.31872,-0.00076232,0,0,-0.89646,-0.13895,0,-0.0059461,0,0,0.41178,-0.0012112,0,0.4118,-0.35435,-0.54859,-0.31872,-89.775,-0.40722,0.21429,-0.00045863,0.84,0.3,0
0.089608,0.022462,0.11856,-0.5528,-0.33944,-0.30719,-0.00094535,0,0,-0.95787,-0.12577,0,-0.0073738,0,0,0.42103,-0.00017477,0,0.42106,-0.33944,-0.5528,-0.30719,-89.746,-0.39981,0.23118,-0.00059318,0.86,0.3,0
0.069833,0.0219,0.093001,-0.55717,-0.32494,-0.29563,-0.00096325,0,0,-1.02,-0.11431,0,-0.0075133,0,0,0.43145,0.00058291,0,0.43149,-0.32494,-0.55717,-0.29563,-89.762,-0.39258,0.24819,-0.00074837,0.88,0.3,0
0.048809,0.021461,0.066787,-0.56139,-0.31053,-0.28384,-0.00080555,0,0,-1.0824,-0.10411,0,-0.0062833,0,0,0.44235,0.0010548,0,0.44238,-0.31053,-0.56139,-0.28384,-89.816,-0.38525,0.26522,-0.0009255,0.9,0.3,0
0.026535,0.021166,0.039919,-0.56269,-0.3483,-0.29991,-0.00060751,0,0,-0.71285,-0.094362,0,-0.0041617,0,0,0.45761,0.0025167,0,0.45776,-0.3483,-0.56269,-0.29991,-89.853,-0.40363,0.24373,-0.00067103,0.92,0.3,0
0.020295,0.021014,0.030571,-0.568,-0.40821,-0.32343,-0.00062379,0,0,-0.31793,-0.11021,0,-0.0016218,0,0,0.48037,0.0035311,0,0.48057,-0.40821,-0.568,-0.32343,-89.776,-0.43321,0.2151,-0.00025653,0.94,0.3,0
0.013817,0.020897,0.020704,-0.56918,-0.41146,-0.31489,-0.00056009,0,0,-0.33057,-0.12553,0,-0.0014562,0,0,0.50292,0.0027094,0,0.50302,-0.41145,-0.56918,-0.31489,-89.796,-0.43184,0.22233,-0.00022705,0.96,0.3,0
0.0070723,0.020823,0.010454,-0.56925,-0.40767,-0.30353,-0.00032887,0,0,-0.34544,-0.13538,0,-0.00085505,0,0,0.5176,0.0014657,0,0.51762,-0.40767,-0.56925,-0.30353,-89.883,-0.42681,0.23191,-0.00023314,0.98,0.3,0
0,0.020797,0,-0.55596,-0.39053,-0.28395,-0.0004919,0,0,-0.35361,-0.13856,0,-0.0012789,0,0,0.52269,-8.6736e-18,0,0.52268,-0.39053,-0.55596,-0.28395,-89.83,-0.41015,0.2374,-0.00025026,1,0.3,0
0,0.026042,1,-0.73096,-1.8068,-1.7613,-0.0013385,0,0,1.3395,-0.059094,0,-0.00348,0,0,0.51273,-8.8081e-16,0,0.51272,-0.73096,-1.8068,-1.7613,-0.071284,-1.433,1.0538,0.059731,0,0.32,0
0.026789,0.025973,0.98974,-0.71593,-1.7879,-1.7409,-0.0058826,0,0,1.3324,-0.061098,0,-0.015295,0,0,0.50986,0.0071382,0,0.50991,-0.7159,-1.7879,-1.7409,-0.31441,-1.4149,1.0493,0.058935,0.02,0.32,0
0.053298,0.025777,0.97961,-0.71002,-1.7772,-1.7258,-0.010812,0,0,1.3205,-0.066846,0,-0.028112,0,0,0.50141,0.013596,0,0.50162,-0.70991,-1.7773,-1.7258,-0.58042,-1.4043,1.0426,0.057724,0.04,0.32,0
0.079608,0.025503,0.96969,-0.70137,-1.7683,-1.7106,-0.013841,0,0,1.312,-0.075045,0,-0.035986,0,0,0.48798,0.018578,0,0.4884,-0.70119,-1.7685,-1.7106,-0.74309,-1.3934,1.0396,0.057098,0.06,0.32,0
0.10578,0.025215,0.96009,-0.69096,-1.7597,-1.6953,-0.014634,0,0,1.3056,-0.083714,0,-0.03805,0,0,0.47068,0.021201,0,0.47126,-0.69076,-1.7599,-1.6953,-0.78439,-1.382,1.0383,0.056744,0.08,0.32,0
0.13183,0.024966,0.95086,-0.66175,-1.2559,-1.2092,-0.013847,0,0,0.83237,-0.091118,0,-0.070961,0,0,0.45448,0.013801,0,0.45481,-0.66088,-1.2568,-1.2092,-3.6387,-1.0423,0.57409,0.028406,0.1,0.32,0
0.13907,0.023361,0.924,-0.63753,-0.76964,-0.73015,-0.011988,0,0,0.36123,-0.15402,0,-0.093508,0,0,0.44439,0.0040792,0,0.44442,-0.63645,-0.77072,-0.73015,-5.1431,-0.71244,0.11928,5.4385e-05,0.12,0.32,0
0.14628,0.021957,0.89753,-0.62809,-0.77215,-0.71925,-0.0087132,0,0,0.35552,-0.2063,0,-0.067963,0,0,0.43807,9.7438e-05,0,0.43808,-0.62757,-0.77267,-0.71925,-3.4488,-0.7065,0.12711,4.6189e-05,0.14,0.32,0
0.15329,0.020896,0.87143,-0.62047,-0.77066,-0.70782,-0.0044319,0,0,0.34065,-0.24511,0,-0.034569,0,0,0.4328,-0.0048626,0,0.43283,-0.62034,-0.7708,-0.70782,-1.6887,-0.69965,0.13087,3.195e-05,0.16,0.32,0
0.15991,0.020232,0.8456,-0.61492,-0.76537,-0.69595,0.00018721,0,0,0.31604,-0.27073,0,0.0014602,0,0,0.42909,-0.010515,0,0.42922,-0.61492,-0.76537,-0.69595,0.071293,-0.69208,0.13043,1.5186e-05,0.18,0.32,0
0.16593,0.019973,0.81994,-0.61136,-0.75678,-0.68376,0.0048472,0,0,0.28235,-0.28481,0,0.037808,0,0,0.42727,-0.016557,0,0.42758,-0.6112,-0.75694,-0.68376,1.9069,-0.68397,0.12622,-7.7394e-07,0.2,0.32,0
0.1712,0.020113,0.79433,-0.60961,-0.7454,-0.67128,0.0095523,0,0,0.24051,-0.28907,0,0.074508,0,0,0.42751,-0.022722,0,0.42811,-0.60894,-0.74606,-0.67128,4.0043,-0.67543,0.11892,-1.3514e-05,0.22,0.32,0
0.17555,0.020658,0.76864,-0.6095,-0.73148,-0.65851,0.014453,0,0,0.19112,-0.2846,0,0.11273,0,0,0.42986,-0.028772,0,0.43082,-0.60782,-0.73317,-0.65851,6.6658,-0.6665,0.10922,-2.1677e-05,0.24,0.32,0
0.17885,0.021634,0.74274,-0.61099,-0.71507,-0.6454,0.019704,0,0,0.1342,-0.27172,0,0.15369,0,0,0.43423,-0.034454,0,0.4356,-0.60738,-0.71868,-0.6454,10.369,-0.65715,0.097981,-2.4954e-05,0.26,0.32,0
0.18092,0.023082,0.71653,-0.61405,-0.69592,-0.63183,0.025329,0,0,0.06936,-0.24994,0,0.19757,0,0,0.44039,-0.039463,0,0.44217,-0.60685,-0.70312,-0.63183,15.874,-0.64727,0.086532,-2.4161e-05,0.28,0.32,0
0.18162,0.025035,0.6899,-0.61863,-0.67365,-0.61765,0.031067,0,0,-0.0038313,-0.2184,0,0.24232,0,0,0.4479,-0.043451,0,0.45002,-0.60464,-0.68764,-0.61765,24.238,-0.63664,0.077314,-2.1489e-05,0.3,0.32,0
0.18077,0.027484,0.66278,-0.62444,-0.648,-0.60266,0.036274,0,0,-0.084948,-0.17683,0,0.28294,0,0,0.45611,-0.046094,0,0.45845,-0.59808,-0.67436,-0.60266,36.004,-0.62503,0.074095,-2.0624e-05,0.32,0.32,0
0.17822,0.030339,0.63516,-0.64016,-0.97243,-0.90722,0.041363,0,0,0.30473,-0.12716,0,0.20973,0,0,0.46805,-0.094392,0,0.47964,-0.61908,-0.99351,-0.90722,24.37,-0.83994,0.35075,0.0057444,0.34,0.32,0
0.19296,0.029321,0.62565,-0.65741,-1.3043,-1.2142,0.049226,0,0,0.7238,-0.11722,0,0.12799,0,0,0.48619,-0.13964,0,0.50596,-0.65368,-1.3081,-1.2142,4.3265,-1.0586,0.61286,0.010893,0.36,0.32,0
0.20717,0.028614,0.61572,-0.66152,-1.2816,-1.1987,0.056046,0,0,0.69829,-0.10788,0,0.14572,0,0,0.50437,-0.13354,0,0.5218,-0.6565,-1.2867,-1.1987,5.1229,-1.0473,0.59111,0.0098198,0.38,0.32,0
0.22089,0.028146,0.60547,-0.66302,-1.2577,-1.1817,0.059327,0,0,0.67426,-0.098799,0,0.15425,0,0,0.51631,-0.12417,0,0.53103,-0.65716,-1.2635,-1.1817,5.6421,-1.0341,0.56988,0.0088478,0.4,0.32,0
0.23414,0.027798,0.59506,-0.66147,-1.2332,-1.1635,0.058556,0,0,0.6526,-0.090671,0,0.15225,0,0,0.5202,-0.11265,0,0.53223,-0.65553,-1.2391,-1.1635,5.788,-1.0194,0.5497,0.0079885,0.42,0.32,0
0.24699,0.027437,0.58466,-0.65667,-1.2084,-1.1442,0.054172,0,0,0.63377,-0.083496,0,0.14085,0,0,0.51499,-0.10023,0,0.52465,-0.6514,-1.2137,-1.1442,5.5548,-1.0031,0.53096,0.0072457,0.44,0.32,0
0.2595,0.026936,0.57446,-0.64906,-1.1823,-1.1239,0.046786,0,0,0.61725,-0.075942,0,0.12165,0,0,0.50065,-0.088401,0,0.50847,-0.64498,-1.1864,-1.1239,4.9766,-0.98507,0.51299,0.0065879,0.46,0.32,0
0.27169,0.02616,0.56464,-0.63904,-1.1533,-1.1023,0.036519,0,0,0.60227,-0.066202,0,0.09495,0,0,0.47845,-0.078815,0,0.48507,-0.63646,-1.1558,-1.1023,4.0421,-0.96487,0.49479,0.0059769,0.48,0.32,0
0.28359,0.024949,0.55532,-0.61415,-0.83215,-0.80411,0.025766,0,0,0.14572,-0.054689,0,0.12616,0,0,0.45587,-0.048612,0,0.45917,-0.57776,-0.86854,-0.80411,37.771,-0.75014,0.28238,0.002796,0.5,0.32,0
0.27751,0.025791,0.52856,-0.59767,-0.54672,-0.5195,0.020034,0,0,-0.30485,-0.10614,0,0.15626,0,0,0.44069,-0.021298,0,0.44124,-0.53978,-0.6046,-0.5195,70.91,-0.55463,0.07699,-1.807e-05,0.52,0.32,0
0.27139,0.026414,0.50244,-0.58628,-0.54468,-0.50677,0.017014,0,0,-0.31008,-0.14785,0,0.13271,0,0,0.42995,-0.01961,0,0.43043,-0.53861,-0.59235,-0.50677,70.358,-0.54591,0.074921,-9.202e-06,0.54,0.32,0
0.26511,0.026811,0.47697,-0.5761,-0.5396,-0.4937,0.014298,0,0,-0.32138,-0.179,0,0.11153,0,0,0.41981,-0.01882,0,0.42026,-0.53466,-0.58104,-0.4937,70.964,-0.53647,0.075686,-2.383e-06,0.56,0.32,0
0.25854,0.026978,0.45206,-0.56737,-0.53206,-0.48052,0.01186,0,0,-0.33873,-0.20102,0,0.092506,0,0,0.41098,-0.018422,0,0.41141,-0.52845,-0.57098,-0.48052,73.054,-0.52665,0.078393,2.5491e-06,0.58,0.32,0
0.25156,0.026928,0.42765,-0.56003,-0.52272,-0.46737,0.0097496,0,0,-0.36137,-0.21583,0,0.076047,0,0,0.40372,-0.018035,0,0.40413,-0.52032,-0.56243,-0.46737,76.206,-0.51671,0.082497,5.6528e-06,0.6,0.32,0
0.24408,0.026688,0.40362,-0.55394,-0.51201,-0.45433,0.0079849,0,0,-0.38851,-0.22497,0,0.062282,0,0,0.39804,-0.017464,0,0.39843,-0.51054,-0.55541,-0.45433,79.575,-0.50676,0.087727,6.6899e-06,0.62,0.32,0
0.23602,0.026294,0.37988,-0.54898,-0.50026,-0.4414,0.0065486,0,0,-0.41956,-0.22956,0,0.051079,0,0,0.39379,-0.016662,0,0.39415,-0.4994,-0.54984,-0.4414,82.476,-0.49688,0.093991,5.1266e-06,0.64,0.32,0
0.2273,0.025783,0.35636,-0.54504,-0.48766,-0.4286,0.0054034,0,0,-0.45411,-0.23036,0,0.042146,0,0,0.3908,-0.015661,0,0.39112,-0.48716,-0.54554,-0.4286,84.666,-0.4871,0.10128,1.4352e-07,0.66,0.32,0
0.21786,0.025189,0.33299,-0.54205,-0.47437,-0.41592,0.0045123,0,0,-0.4919,-0.22794,0,0.035196,0,0,0.38892,-0.014523,0,0.38919,-0.47407,-0.54235,-0.41592,86.203,-0.47745,0.10961,-9.3552e-06,0.68,0.32,0
0.20763,0.024544,0.30969,-0.53998,-0.46047,-0.40337,0.0038472,0,0,-0.53278,-0.22272,0,0.030008,0,0,0.38804,-0.013325,0,0.38827,-0.46029,-0.54016,-0.40337,87.236,-0.46794,0.11902,-2.4743e-05,0.7,0.32,0
0.19654,0.023875,0.28642,-0.5388,-0.44607,-0.39094,0.0033898,0,0,-0.57666,-0.21504,0,0.02644,0,0,0.38811,-0.012144,0,0.3883,-0.44595,-0.53892,-0.39094,87.909,-0.4586,0.12956,-4.768e-05,0.72,0.32,0
0.18456,0.023205,0.26312,-0.53851,-0.43125,-0.37864,0.0031287,0,0,-0.62352,-0.20521,0,0.024404,0,0,0.38913,-0.011061,0,0.38929,-0.43116,-0.53861,-0.37864,88.331,-0.44947,0.14123,-8.0131e-05,0.74,0.32,0
0.1716,0.022554,0.23973,-0.53913,-0.4161,-0.36648,0.0030532,0,0,-0.67334,-0.19352,0,0.023815,0,0,0.39116,-0.010156,0,0.39129,-0.41602,-0.5392,-0.36648,88.579,-0.44057,0.15405,-0.00012437,0.76,0.32,0
0.15762,0.021936,0.21618,-0.54065,-0.4007,-0.35446,0.0031442,0,0,-0.72611,-0.18032,0,0.024525,0,0,0.39431,-0.0095112,0,0.39443,-0.40063,-0.54072,-0.35446,88.714,-0.43194,0.168,-0.00018295,0.78,0.32,0
0.14256,0.021365,0.19241,-0.54305,-0.38517,-0.3426,0.0033637,0,0,-0.78175,-0.16602,0,0.026237,0,0,0.39874,-0.0092002,0,0.39885,-0.3851,-0.54313,-0.3426,88.78,-0.42361,0.18301,-0.0002585,0.8,0.32,0
0.12635,0.020846,0.16833,-0.54629,-0.36968,-0.3309,0.0036469,0,0,-0.84001,-0.15123,0,0.028446,0,0,0.40463,-0.0092671,0,0.40475,-0.3696,-0.54636,-0.3309,88.817,-0.41562,0.19895,-0.00035342,0.82,0.32,0
0.10896,0.020382,0.14386,-0.5502,-0.35439,-0.31933,0.0039123,0,0,-0.90041,-0.13673,0,0.030516,0,0,0.41214,-0.0096818,0,0.41228,-0.35431,-0.55028,-0.31933,88.856,-0.40797,0.2156,-0.00046936,0.84,0.32,0
0.090338,0.019974,0.11888,-0.55462,-0.33951,-0.30786,0.0040947,0,0,-0.96235,-0.12341,0,0.031939,0,0,0.42128,-0.010272,0,0.42144,-0.33943,-0.5547,-0.30786,88.91,-0.40066,0.23266,-0.0006069,0.86,0.32,0
0.070466,0.019636,0.093301,-0.5593,-0.32504,-0.2964,0.0041939,0,0,-1.0253,-0.1117,0,0.032712,0,0,0.43177,-0.010687,0,0.43194,-0.32497,-0.55937,-0.2964,88.975,-0.39358,0.24991,-0.00076645,0.88,0.32,0
0.049327,0.019395,0.067063,-0.56397,-0.31069,-0.28475,0.0041915,0,0,-1.089,-0.10117,0,0.032694,0,0,0.44292,-0.010463,0,0.44308,-0.31062,-0.56404,-0.28475,89.052,-0.38647,0.26729,-0.00094988,0.9,0.32,0
0.026908,0.019288,0.04015,-0.56555,-0.34697,-0.30052,0.0034112,0,0,-0.71819,-0.090563,0,0.017865,0,0,0.45878,-0.018431,0,0.45939,-0.34691,-0.56561,-0.30052,89.068,-0.40435,0.24654,-0.00070323,0.92,0.32,0
0.020599,0.018817,0.03077,-0.57225,-0.40798,-0.32484,0.0018704,0,0,-0.32163,-0.10808,0,0.0048629,0,0,0.48252,-0.02411,0,0.48333,-0.40796,-0.57227,-0.32484,89.348,-0.43502,0.21809,-0.00028378,0.94,0.32,0
0.014043,0.018391,0.020849,-0.57444,-0.41164,-0.31667,0.0013577,0,0,-0.3351,-0.12345,0,0.00353,0,0,0.50601,-0.01763,0,0.50641,-0.41163,-0.57446,-0.31667,89.522,-0.43425,0.22581,-0.00025859,0.96,0.32,0
0.0071955,0.018119,0.01053,-0.57534,-0.40719,-0.30529,0.0010196,0,0,-0.35107,-0.13247,0,0.0026511,0,0,0.52124,-0.0092395,0,0.52133,-0.40718,-0.57535,-0.30529,89.653,-0.42927,0.23622,-0.00027741,0.98,0.32,0
0,0.01803,0,-0.56232,-0.38958,-0.28557,-0.001719,0,0,-0.35978,-0.13521,0,-0.0044693,0,0,0.5265,4.3368e-19,0,0.52648,-0.38956,-0.56234,-0.28557,-89.43,-0.41249,0.24214,-0.00030235,1,0.32,0
0,0.024944,1,-0.74037,-1.7981,-1.7615,-0.002246,0,0,1.3275,-0.047545,0,-0.0058395,0,0,0.5228,7.1124e-17,0,0.52277,-0.74036,-1.7981,-1.7615,-0.12166,-1.4333,1.0399,0.057524,0,0.34,0
0.026551,0.024828,0.98954,-0.72454,-1.7795,-1.7408,-0.010293,0,0,1.3211,-0.050387,0,-0.026763,0,0,0.5195,0.013375,0,0.51966,-0.72444,-1.7796,-1.7408,-0.55896,-1.4149,1.0363,0.056887,0.02,0.34,0
0.052844,0.024496,0.97922,-0.71705,-1.7707,-1.7255,-0.019234,0,0,1.311,-0.058689,0,-0.050008,0,0,0.5097,0.025884,0,0.51038,-0.71669,-1.771,-1.7255,-1.0454,-1.4044,1.0324,0.056137,0.04,0.34,0
0.078992,0.024027,0.96916,-0.70611,-1.7651,-1.7105,-0.025179,0,0,1.3057,-0.071001,0,-0.065466,0,0,0.49382,0.03628,0,0.49523,-0.70551,-1.7657,-1.7105,-1.3612,-1.3939,1.0337,0.05619,0.06,0.34,0
0.10507,0.023534,0.95947,-0.69316,-1.7601,-1.6954,-0.027194,0,0,1.303,-0.084082,0,-0.070705,0,0,0.47295,0.042897,0,0.47504,-0.69247,-1.7608,-1.6954,-1.459,-1.3829,1.0372,0.056544,0.08,0.34,0
0.13111,0.023119,0.95024,-0.66102,-1.2573,-1.209,-0.02621,0,0,0.83511,-0.09415,0,-0.13383,0,0,0.45317,0.029429,0,0.45445,-0.6581,-1.2602,-1.209,-6.4933,-1.0424,0.57883,0.02849,0.1,0.34,0
0.13848,0.020175,0.92354,-0.63539,-0.77364,-0.73056,-0.022928,0,0,0.37116,-0.16803,0,-0.17884,0,0,0.44078,0.011839,0,0.44095,-0.63168,-0.77735,-0.73056,-9.1746,-0.7132,0.12881,6.2946e-05,0.12,0.34,0
0.14596,0.01768,0.89734,-0.62482,-0.7778,-0.7199,-0.017391,0,0,0.37081,-0.2258,0,-0.13565,0,0,0.43305,0.0069109,0,0.43311,-0.62287,-0.77975,-0.7199,-6.4047,-0.70751,0.13713,5.2546e-05,0.14,0.34,0
0.15331,0.015828,0.87158,-0.61665,-0.77664,-0.70851,-0.010619,0,0,0.35825,-0.26568,0,-0.082831,0,0,0.42669,0.00031755,0,0.42669,-0.61595,-0.77734,-0.70851,-3.7811,-0.7006,0.14027,3.5634e-05,0.16,0.34,0
0.16029,0.014655,0.84614,-0.61097,-0.7711,-0.69667,-0.0037719,0,0,0.33422,-0.29028,0,-0.02942,0,0,0.42227,-0.007372,0,0.42233,-0.61088,-0.77119,-0.69667,-1.3486,-0.69291,0.13894,1.6723e-05,0.18,0.34,0
0.16668,0.014121,0.82091,-0.60746,-0.76228,-0.68456,0.0027748,0,0,0.30068,-0.30312,0,0.021643,0,0,0.42011,-0.015636,0,0.42039,-0.60741,-0.76233,-0.68456,1.0265,-0.68476,0.13416,-8.6683e-07,0.2,0.34,0
0.17231,0.014179,0.79573,-0.60577,-0.7509,-0.67224,0.009117,0,0,0.25925,-0.30675,0,0.071113,0,0,0.42033,-0.024084,0,0.42101,-0.6052,-0.75147,-0.67224,3.5805,-0.6763,0.12682,-1.5045e-05,0.22,0.34,0
0.17705,0.014809,0.77047,-0.60569,-0.73728,-0.65972,0.015549,0,0,0.21069,-0.30252,0,0.12129,0,0,0.42296,-0.032414,0,0.42419,-0.60388,-0.7391,-0.65972,6.6483,-0.66756,0.11769,-2.4791e-05,0.24,0.34,0
0.18074,0.016034,0.74497,-0.60721,-0.7214,-0.64691,0.022371,0,0,0.15481,-0.29051,0,0.17449,0,0,0.42796,-0.040295,0,0.42985,-0.60299,-0.72562,-0.64691,10.698,-0.65851,0.10762,-2.9966e-05,0.26,0.34,0
0.18324,0.017911,0.71911,-0.61049,-0.70282,-0.6337,0.029715,0,0,0.090498,-0.26957,0,0.23178,0,0,0.43517,-0.047257,0,0.43775,-0.60175,-0.71155,-0.6337,16.385,-0.649,0.097821,-3.1363e-05,0.28,0.34,0
0.18436,0.020502,0.69275,-0.61569,-0.68066,-0.61982,0.037317,0,0,0.016113,-0.23726,0,0.29107,0,0,0.4442,-0.052667,0,0.44734,-0.5987,-0.69765,-0.61982,24.48,-0.63872,0.090261,-3.0909e-05,0.3,0.34,0
0.18389,0.023819,0.66581,-0.62271,-0.65393,-0.60493,0.044183,0,0,-0.069361,-0.19111,0,0.34462,0,0,0.45429,-0.05585,0,0.45775,-0.59146,-0.68518,-0.60493,35.272,-0.62719,0.087763,-3.198e-05,0.32,0.34,0
0.18159,0.027741,0.63824,-0.64004,-0.97847,-0.91105,0.049942,0,0,0.314,-0.13148,0,0.25383,0,0,0.46927,-0.11271,0,0.48559,-0.61523,-1.0033,-0.91105,24.068,-0.84319,0.36158,0.0059455,0.34,0.34,0
0.19645,0.026938,0.62866,-0.66108,-1.3129,-1.2209,0.057226,0,0,0.72772,-0.1197,0,0.14879,0,0,0.4922,-0.16419,0,0.51903,-0.65609,-1.3179,-1.2209,4.9792,-1.065,0.61904,0.01118,0.36,0.34,0
0.2107,0.026456,0.61855,-0.66863,-1.2859,-1.2049,0.06233,0,0,0.69716,-0.1053,0,0.16206,0,0,0.51532,-0.15208,0,0.53736,-0.6624,-1.2921,-1.2049,5.7087,-1.0532,0.59097,0.0098264,0.38,0.34,0
0.22433,0.026218,0.60804,-0.67345,-1.2564,-1.187,0.062258,0,0,0.6676,-0.090186,0,0.16187,0,0,0.5309,-0.13442,0,0.54763,-0.66688,-1.2629,-1.187,6.0289,-1.0389,0.56195,0.0085554,0.4,0.34,0
0.2374,0.026074,0.59731,-0.67398,-1.227,-1.1676,0.056806,0,0,0.64171,-0.077192,0,0.1477,0,0,0.53688,-0.11309,0,0.54858,-0.66821,-1.2328,-1.1676,5.8049,-1.0229,0.53495,0.007471,0.42,0.34,0
0.25,0.025885,0.58657,-0.66956,-1.1993,-1.1472,0.04748,0,0,0.62097,-0.067686,0,0.12345,0,0,0.5319,-0.089899,0,0.53939,-0.66533,-1.2035,-1.1472,5.0815,-1.0053,0.51236,0.0066275,0.44,0.34,0
0.26224,0.025551,0.57604,-0.66066,-1.1719,-1.1258,0.036499,0,0,0.6047,-0.059947,0,0.094897,0,0,0.51555,-0.067385,0,0.51999,-0.65807,-1.1745,-1.1258,4.0628,-0.98613,0.4939,0.0059855,0.46,0.34,0
0.27419,0.02499,0.56595,-0.64865,-1.1414,-1.103,0.024208,0,0,0.59061,-0.049985,0,0.06294,0,0,0.48901,-0.049029,0,0.4917,-0.64746,-1.1426,-1.103,2.8057,-0.96435,0.47656,0.0054292,0.48,0.34,0
0.28586,0.02404,0.55648,-0.62022,-0.82164,-0.80354,0.012549,0,0,0.13122,-0.035287,0,0.058085,0,0,0.46155,-0.02575,0,0.46263,-0.58266,-0.85919,-0.80354,42.182,-0.74847,0.27201,0.0025211,0.5,0.34,0
0.27944,0.023821,0.5295,-0.60264,-0.54451,-0.52065,0.0072688,0,0,-0.31979,-0.093071,0,0.056696,0,0,0.44323,-0.0089154,0,0.44337,-0.54361,-0.60354,-0.52065,82.98,-0.55593,0.074127,-1.4347e-05,0.52,0.34,0
0.27307,0.023589,0.50329,-0.58975,-0.54297,-0.50758,0.0058366,0,0,-0.32046,-0.13804,0,0.045525,0,0,0.4308,-0.0079405,0,0.43092,-0.54226,-0.59047,-0.50758,82.994,-0.54677,0.0721,-5.3554e-06,0.54,0.34,0
0.26662,0.023347,0.4778,-0.57849,-0.53798,-0.49421,0.0048587,0,0,-0.32869,-0.17072,0,0.037898,0,0,0.41968,-0.0088269,0,0.41981,-0.53741,-0.57906,-0.49421,83.255,-0.53689,0.07349,6.4179e-07,0.56,0.34,0
0.25993,0.02306,0.45293,-0.5691,-0.53064,-0.4809,0.004051,0,0,-0.34398,-0.194,0,0.031598,0,0,0.41053,-0.010383,0,0.41068,-0.53022,-0.56952,-0.4809,84.052,-0.52688,0.076912,4.541e-06,0.58,0.34,0
0.25286,0.022699,0.42854,-0.56132,-0.52151,-0.4677,0.0033613,0,0,-0.36514,-0.20988,0,0.026218,0,0,0.40339,-0.011806,0,0.40357,-0.52123,-0.5616,-0.4677,85.207,-0.51684,0.081592,6.6901e-06,0.6,0.34,0
0.24532,0.022264,0.40452,-0.55498,-0.51105,-0.45465,0.0028355,0,0,-0.3913,-0.21995,0,0.022117,0,0,0.398,-0.01279,0,0.39821,-0.51087,-0.55517,-0.45465,86.323,-0.50689,0.087254,6.9449e-06,0.62,0.34,0
0.23721,0.021767,0.38078,-0.54988,-0.49952,-0.44175,0.0024893,0,0,-0.42172,-0.22532,0,0.019417,0,0,0.39407,-0.013298,0,0.39429,-0.4994,-0.55,-0.44175,87.177,-0.49705,0.093819,4.7706e-06,0.64,0.34,0
0.22845,0.021231,0.35723,-0.54586,-0.48713,-0.42898,0.0023256,0,0,-0.45584,-0.22682,0,0.018139,0,0,0.39132,-0.013409,0,0.39156,-0.48704,-0.54595,-0.42898,87.736,-0.48732,0.1013,-6.6334e-07,0.66,0.34,0
0.21898,0.020678,0.33382,-0.5428,-0.47403,-0.41632,0.0023423,0,0,-0.49326,-0.22507,0,0.01827,0,0,0.3896,-0.013243,0,0.38982,-0.47395,-0.54288,-0.41632,88.051,-0.47772,0.10975,-1.0442e-05,0.68,0.34,0
0.20872,0.02013,0.31048,-0.54063,-0.46033,-0.40378,0.0025429,0,0,-0.5337,-0.22056,0,0.019835,0,0,0.38877,-0.012934,0,0.38898,-0.46026,-0.54071,-0.40378,88.188,-0.46825,0.11919,-2.589e-05,0.7,0.34,0
0.19763,0.019607,0.28717,-0.53931,-0.44614,-0.39136,0.002937,0,0,-0.57701,-0.21365,0,0.022909,0,0,0.38878,-0.012615,0,0.38898,-0.44604,-0.5394,-0.39136,88.196,-0.45893,0.12966,-4.8593e-05,0.72,0.34,0
0.18564,0.019126,0.26383,-0.53883,-0.43152,-0.37905,0.0035372,0,0,-0.62314,-0.20466,0,0.02759,0,0,0.38963,-0.012422,0,0.38983,-0.43141,-0.53894,-0.37905,88.114,-0.4498,0.14119,-8.0431e-05,0.74,0.34,0
0.1727,0.018701,0.24041,-0.53922,-0.41658,-0.36688,0.0043512,0,0,-0.67213,-0.19384,0,0.03394,0,0,0.39138,-0.012494,0,0.39158,-0.41642,-0.53937,-0.36688,87.971,-0.44089,0.15383,-0.00012365,0.76,0.34,0
0.15876,0.018341,0.21686,-0.54052,-0.40138,-0.35486,0.005369,0,0,-0.72408,-0.18144,0,0.041878,0,0,0.39415,-0.012972,0,0.39437,-0.40117,-0.54073,-0.35486,87.793,-0.43225,0.16758,-0.00018091,0.78,0.34,0
0.14374,0.018051,0.19311,-0.5428,-0.38601,-0.34302,0.0065441,0,0,-0.77916,-0.1677,0,0.051044,0,0,0.39812,-0.013988,0,0.39837,-0.38574,-0.54307,-0.34302,87.614,-0.42394,0.18248,-0.00025536,0.8,0.34,0
0.12759,0.017827,0.16909,-0.5461,-0.37058,-0.33137,0.0077747,0,0,-0.83746,-0.15293,0,0.060642,0,0,0.40356,-0.015638,0,0.40387,-0.37023,-0.54644,-0.33137,87.469,-0.41601,0.19852,-0.00035044,0.82,0.34,0
0.11024,0.017657,0.14469,-0.55039,-0.3552,-0.31991,0.0088946,0,0,-0.8989,-0.13764,0,0.069378,0,0,0.41078,-0.017902,0,0.41119,-0.3548,-0.5508,-0.31991,87.396,-0.4085,0.21558,-0.00046944,0.84,0.34,0
0.091632,0.017525,0.11979,-0.55551,-0.34003,-0.30859,0.0097347,0,0,-0.96298,-0.12261,0,0.075931,0,0,0.42003,-0.020488,0,0.42056,-0.33959,-0.55595,-0.30859,87.418,-0.40138,0.23341,-0.0006144,0.86,0.34,0
0.071721,0.017432,0.094283,-0.56134,-0.32538,-0.29745,0.010202,0,0,-1.0292,-0.10896,0,0.079579,0,0,0.43126,-0.022613,0,0.4319,-0.32494,-0.56178,-0.29745,87.529,-0.39472,0.25172,-0.00078626,0.88,0.34,0
0.050465,0.017414,0.068043,-0.56757,-0.31084,-0.2862,0.010364,0,0,-1.0973,-0.096067,0,0.080836,0,0,0.44382,-0.023125,0,0.44447,-0.31042,-0.56799,-0.2862,87.692,-0.3882,0.27049,-0.00098905,0.9,0.34,0
0.027827,0.017543,0.041025,-0.57042,-0.34323,-0.30144,0.0090349,0,0,-0.72696,-0.08148,0,0.047504,0,0,0.4624,-0.04192,0,0.46492,-0.34286,-0.57079,-0.30144,87.656,-0.40503,0.25222,-0.00077227,0.92,0.34,0
0.021386,0.016691,0.031535,-0.58181,-0.40811,-0.32851,0.0070365,0,0,-0.32929,-0.10348,0,0.018295,0,0,0.49039,-0.054934,0,0.49371,-0.40783,-0.58209,-0.32851,87.684,-0.43948,0.22468,-0.00034729,0.94,0.34,0
0.014656,0.015959,0.021409,-0.58737,-0.41156,-0.32109,0.0062954,0,0,-0.34617,-0.11761,0,0.016368,0,0,0.51779,-0.039807,0,0.5194,-0.41134,-0.5876,-0.32109,87.952,-0.44001,0.23478,-0.00034891,0.96,0.34,0
0.0075396,0.015524,0.010823,-0.59132,-0.4042,-0.30948,0.0044472,0,0,-0.3664,-0.12314,0,0.011563,0,0,0.53523,-0.020655,0,0.53559,-0.40409,-0.59143,-0.30948,88.639,-0.435,0.24854,-0.00042076,0.98,0.34,0
0,0.015389,0,-0.57905,-0.38451,-0.28907,-0.0026026,0,0,-0.37698,-0.12408,0,-0.0067668,0,0,0.54117,1.7347e-18,0,0.54109,-0.38448,-0.57909,-0.28907,-89.234,-0.41755,0.25601,-0.00047584,1,0.34,0
0,0.02414,1,-0.75579,-1.7849,-1.7622,-0.0035246,0,0,1.3083,-0.029532,0,-0.009164,0,0,0.53948,3.7644e-16,0,0.53942,-0.75578,-1.785,-1.7622,-0.19622,-1.4343,1.018,0.054091,0,0.36,0
0.026167,0.023957,0.98921,-0.7388,-1.7661,-1.7407,-0.015534,0,0,1.3025,-0.033067,0,-0.040387,0,0,0.53574,0.020301,0,0.53607,-0.73857,-1.7664,-1.7407,-0.86607,-1.4152,1.0152,0.053622,0.02,0.36,0
0.052098,0.02343,0.97857,-0.72929,-1.7593,-1.7251,-0.029852,0,0,1.2946,-0.044383,0,-0.077616,0,0,0.52431,0.040079,0,0.52584,-0.72842,-1.7602,-1.7251,-1.6587,-1.4046,1.0147,0.053439,0.04,0.36,0
0.077952,0.022663,0.96824,-0.71492,-1.7586,-1.7103,-0.04007,0,0,1.294,-0.062813,0,-0.10418,0,0,0.505,0.05772,0,0.50838,-0.71338,-1.7602,-1.7103,-2.1954,-1.3946,1.0228,0.054506,0.06,0.36,0
0.10386,0.021851,0.95837,-0.69815,-1.7606,-1.696,-0.043852,0,0,1.2972,-0.083971,0,-0.11402,0,0,0.47854,0.070289,0,0.48391,-0.69634,-1.7624,-1.696,-2.3595,-1.3849,1.0345,0.056063,0.08,0.36,0
0.12984,0.0212,0.9491,-0.66129,-1.26,-1.2091,-0.041682,0,0,0.83751,-0.099289,0,-0.21143,0,0,0.45286,0.049507,0,0.45633,-0.65453,-1.2668,-1.2091,-9.4235,-1.0435,0.58657,0.028573,0.1,0.36,0
0.13736,0.01664,0.92258,-0.63322,-0.7807,-0.7317,-0.035792,0,0,0.38408,-0.1911,0,-0.27918,0,0,0.43659,0.021816,0,0.43716,-0.62499,-0.78893,-0.7317,-12.945,-0.71521,0.14411,7.6059e-05,0.12,0.36,0
0.1452,0.012925,0.89671,-0.62089,-0.78674,-0.72119,-0.026834,0,0,0.39117,-0.25565,0,-0.2093,0,0,0.42655,0.015441,0,0.42684,-0.61666,-0.79098,-0.72119,-8.9656,-0.70961,0.15196,6.074e-05,0.14,0.36,0
0.15301,0.010268,0.87139,-0.61194,-0.78521,-0.70961,-0.016925,0,0,0.3809,-0.29485,0,-0.13201,0,0,0.41852,0.0065595,0,0.41857,-0.61031,-0.78685,-0.70961,-5.5271,-0.70226,0.15329,3.9666e-05,0.16,0.36,0
0.16044,0.0086207,0.84648,-0.60619,-0.77886,-0.69768,-0.0076279,0,0,0.35681,-0.31662,0,-0.059498,0,0,0.41314,-0.0037193,0,0.41314,-0.60585,-0.7792,-0.69768,-2.5245,-0.69424,0.15021,1.7883e-05,0.18,0.36,0
0.16728,0.007848,0.82181,-0.60278,-0.76945,-0.68561,0.00079403,0,0,0.32301,-0.32697,0,0.0061934,0,0,0.41056,-0.014564,0,0.41079,-0.60278,-0.76945,-0.68561,0.27297,-0.68595,0.14434,-1.629e-06,0.2,0.36,0
0.17336,0.0078426,0.79722,-0.60121,-0.75792,-0.67348,0.0087193,0,0,0.28185,-0.32932,0,0.068011,0,0,0.41073,-0.025554,0,0.4115,-0.60073,-0.7584,-0.67348,3.1749,-0.67754,0.13669,-1.7477e-05,0.22,0.36,0
0.17855,0.0085571,0.77253,-0.60122,-0.7446,-0.66125,0.016657,0,0,0.23414,-0.32505,0,0.12993,0,0,0.41365,-0.036452,0,0.41523,-0.59931,-0.74651,-0.66125,6.5403,-0.66902,0.12801,-2.9101e-05,0.24,0.36,0
0.18272,0.010014,0.74758,-0.60288,-0.72941,-0.64888,0.0251,0,0,0.17939,-0.31406,0,0.19578,0,0,0.41939,-0.046977,0,0.42201,-0.59809,-0.73421,-0.64888,10.82,-0.66039,0.11914,-3.6706e-05,0.26,0.36,0
0.18573,0.012299,0.7222,-0.60652,-0.71173,-0.63621,0.03442,0,0,0.11579,-0.29454,0,0.26848,0,0,0.42802,-0.05657,0,0.43176,-0.59626,-0.72199,-0.63621,16.598,-0.65149,0.11127,-4.1247e-05,0.28,0.36,0
0.18736,0.015545,0.69622,-0.61278,-0.69023,-0.62298,0.044502,0,0,0.039748,-0.26229,0,0.34712,0,0,0.43931,-0.064179,0,0.44401,-0.59252,-0.7105,-0.62298,24.486,-0.642,0.10608,-4.47e-05,0.3,0.36,0
0.18732,0.01984,0.66948,-0.62187,-0.66233,-0.60842,0.054157,0,0,-0.052442,-0.21025,0,0.42242,0,0,0.45242,-0.068472,0,0.45763,-0.58429,-0.69991,-0.60842,34.758,-0.63087,0.10565,-5.0068e-05,0.32,0.36,0
0.18526,0.02508,0.64193,-0.64204,-0.98512,-0.9161,0.061998,0,0,0.32197,-0.1346,0,0.31413,0,0,0.47243,-0.13677,0,0.49593,-0.61149,-1.0157,-0.9161,24.233,-0.84776,0.37461,0.0061276,0.34,0.36,0
0.2002,0.024533,0.63221,-0.66964,-1.3217,-1.2296,0.070549,0,0,0.72798,-0.11973,0,0.18343,0,0,0.50318,-0.1963,0,0.54039,-0.66209,-1.3293,-1.2296,6.1047,-1.0737,0.62336,0.011376,0.36,0.36,0
0.21438,0.024402,0.6218,-0.68296,-1.2871,-1.2128,0.074249,0,0,0.68881,-0.096569,0,0.19305,0,0,0.53414,-0.17613,0,0.5625,-0.67397,-1.2961,-1.2128,6.9048,-1.061,0.58495,0.0095809,0.38,0.36,0
0.22775,0.024539,0.61085,-0.69361,-1.2495,-1.1938,0.069672,0,0,0.65021,-0.072404,0,0.18115,0,0,0.5553,-0.14824,0,0.57466,-0.68501,-1.2581,-1.1938,7.0365,-1.0456,0.54377,0.0078699,0.4,0.36,0
0.24039,0.02471,0.59959,-0.698,-1.2139,-1.1731,0.057197,0,0,0.61769,-0.052942,0,0.14871,0,0,0.56472,-0.11549,0,0.57624,-0.69174,-1.2201,-1.1731,6.2515,-1.0283,0.50655,0.0064821,0.42,0.36,0
0.25245,0.02473,0.58826,-0.69318,-1.1823,-1.1509,0.039982,0,0,0.59504,-0.040796,0,0.10395,0,0,0.56069,-0.079599,0,0.56613,-0.68993,-1.1855,-1.1509,4.6426,-1.0088,0.47922,0.0055529,0.44,0.36,0
0.26419,0.024538,0.57716,-0.68132,-1.1568,-1.1286,0.021876,0,0,0.58146,-0.036669,0,0.056879,0,0,0.54152,-0.042351,0,0.54316,-0.68032,-1.1578,-1.1286,2.6287,-0.98891,0.46358,0.0050482,0.46,0.36,0
0.27571,0.024161,0.5666,-0.66448,-1.1292,-1.1047,0.0070742,0,0,0.5723,-0.031869,0,0.018393,0,0,0.50721,-0.010754,0,0.50769,-0.66438,-1.1293,-1.1047,0.87188,-0.96614,0.45315,0.0047316,0.48,0.36,0
0.28708,0.023537,0.55687,-0.62816,-0.81046,-0.80283,-0.0049223,0,0,0.11296,-0.014878,0,-0.029764,0,0,0.47023,0.004676,0,0.47064,-0.58591,-0.85271,-0.80283,-43.003,-0.74715,0.26484,0.0022109,0.5,0.36,0
0.28023,0.022068,0.52963,-0.60837,-0.54492,-0.52253,-0.0079823,0,0,-0.33477,-0.087323,0,-0.062262,0,0,0.44563,0.0067435,0,0.44577,-0.54393,-0.60936,-0.52253,-82.938,-0.55861,0.078351,-1.863e-05,0.52,0.36,0
0.27369,0.020893,0.5034,-0.59242,-0.54356,-0.50859,-0.0070037,0,0,-0.32691,-0.13639,0,-0.054629,0,0,0.43003,0.0056244,0,0.43013,-0.54258,-0.5934,-0.50859,-82,-0.54819,0.073926,-6.9654e-06,0.54,0.36,0
0.26716,0.019983,0.47802,-0.57967,-0.53857,-0.49481,-0.0054782,0,0,-0.33095,-0.17064,0,-0.04273,0,0,0.41737,0.0015777,0,0.4174,-0.53785,-0.58039,-0.49481,-82.538,-0.53768,0.074112,2.0951e-07,0.56,0.36,0
0.26045,0.019218,0.45331,-0.56932,-0.53093,-0.48118,-0.0042436,0,0,-0.34375,-0.19403,0,-0.0331,0,0,0.408,-0.0026415,0,0.40802,-0.53046,-0.56978,-0.48118,-83.767,-0.52714,0.076895,4.5163e-06,0.58,0.36,0
0.25341,0.018533,0.42906,-0.56116,-0.52173,-0.46789,-0.0032374,0,0,-0.36377,-0.20997,0,-0.025251,0,0,0.40131,-0.0060929,0,0.40137,-0.52146,-0.56143,-0.46789,-85.338,-0.51693,0.081292,6.8657e-06,0.6,0.36,0
0.2459,0.01789,0.40515,-0.55468,-0.51126,-0.45483,-0.002382,0,0,-0.3894,-0.22007,0,-0.018579,0,0,0.39654,-0.0086228,0,0.39664,-0.51113,-0.55481,-0.45483,-86.869,-0.50693,0.086811,7.2767e-06,0.62,0.36,0
0.23783,0.017281,0.38148,-0.54955,-0.49979,-0.44196,-0.0015809,0,0,-0.4196,-0.22554,0,-0.012331,0,0,0.39317,-0.010341,0,0.39331,-0.49974,-0.5496,-0.44196,-88.182,-0.4971,0.093302,5.3001e-06,0.64,0.36,0
0.22912,0.01671,0.35797,-0.54553,-0.4875,-0.42923,-0.00076975,0,0,-0.45354,-0.22725,0,-0.0060041,0,0,0.39086,-0.011435,0,0.39102,-0.48749,-0.54554,-0.42923,-89.24,-0.48742,0.10072,1.6721e-07,0.66,0.36,0
0.21969,0.016186,0.33458,-0.54242,-0.47453,-0.41661,0.0001069,0,0,-0.49066,-0.22587,0,0.0008338,0,0,0.3894,-0.012107,0,0.38959,-0.47453,-0.54242,-0.41661,89.91,-0.47785,0.10907,-9.1192e-06,0.68,0.36,0
0.20949,0.015722,0.31124,-0.54012,-0.46099,-0.40408,0.0011002,0,0,-0.53056,-0.22193,0,0.0085812,0,0,0.38867,-0.012552,0,0.38887,-0.46097,-0.54014,-0.40408,89.204,-0.4684,0.11835,-2.3755e-05,0.7,0.36,0
0.19847,0.015329,0.28794,-0.53858,-0.44698,-0.39165,0.0022612,0,0,-0.57302,-0.21582,0,0.017637,0,0,0.38862,-0.012961,0,0.38884,-0.44693,-0.53863,-0.39165,88.587,-0.45907,0.12859,-4.5153e-05,0.72,0.36,0
0.18657,0.015019,0.26461,-0.53777,-0.43261,-0.37932,0.003641,0,0,-0.61796,-0.20783,0,0.0284,0,0,0.38925,-0.013521,0,0.38949,-0.43248,-0.53789,-0.37932,88.019,-0.4499,0.1398,-7.5001e-05,0.74,0.36,0
0.17375,0.0148,0.24123,-0.53774,-0.41793,-0.36711,0.0052855,0,0,-0.66547,-0.19819,0,0.041227,0,0,0.39061,-0.014427,0,0.39088,-0.4177,-0.53798,-0.36711,87.479,-0.44093,0.15202,-0.0001154,0.76,0.36,0
0.15995,0.014679,0.21774,-0.5386,-0.40301,-0.35506,0.0072252,0,0,-0.71579,-0.18701,0,0.056357,0,0,0.39281,-0.015884,0,0.39314,-0.40263,-0.53898,-0.35506,86.958,-0.43223,0.16535,-0.00016904,0.78,0.36,0
0.14512,0.014657,0.19409,-0.5405,-0.38792,-0.34322,0.0094558,0,0,-0.7694,-0.1743,0,0.073755,0,0,0.39607,-0.018113,0,0.39648,-0.38733,-0.54109,-0.34322,86.467,-0.42388,0.17991,-0.00023957,0.8,0.36,0
0.12917,0.014729,0.17021,-0.54369,-0.37266,-0.33164,0.011904,0,0,-0.82698,-0.15999,0,0.09285,0,0,0.40072,-0.021319,0,0.40129,-0.37184,-0.54451,-0.33164,86.037,-0.416,0.19589,-0.00033192,0.82,0.36,0
0.11204,0.014876,0.146,-0.54839,-0.35727,-0.32037,0.01439,0,0,-0.88931,-0.14392,0,0.11224,0,0,0.40729,-0.025634,0,0.40811,-0.35619,-0.54947,-0.32037,85.718,-0.40868,0.21346,-0.00045246,0.84,0.36,0
0.093602,0.01507,0.12133,-0.55478,-0.34181,-0.30942,0.01658,0,0,-0.95691,-0.12631,0,0.12932,0,0,0.41657,-0.030914,0,0.41774,-0.34053,-0.55607,-0.30942,85.575,-0.40201,0.23266,-0.000608,0.86,0.36,0
0.07376,0.015277,0.096015,-0.56242,-0.3263,-0.29862,0.018219,0,0,-1.0288,-0.10794,0,0.14211,0,0,0.42913,-0.036198,0,0.43071,-0.3249,-0.56381,-0.29862,85.614,-0.39578,0.25308,-0.00080234,0.88,0.36,0
0.052449,0.015552,0.069839,-0.5719,-0.31177,-0.28838,0.019101,0,0,-1.1057,-0.091222,0,0.14899,0,0,0.44457,-0.038754,0,0.44634,-0.31037,-0.57329,-0.28838,85.823,-0.39068,0.27458,-0.0010402,0.9,0.36,0
0.029532,0.016029,0.042666,-0.57714,-0.33808,-0.30301,0.019036,0,0,-0.73833,-0.068383,0,0.097096,0,0,0.46889,-0.072223,0,0.47594,-0.33652,-0.5787,-0.30301,85.343,-0.40608,0.26118,-0.0008841,0.92,0.36,0
0.022916,0.014677,0.032968,-0.59869,-0.41095,-0.33586,0.018538,0,0,-0.34168,-0.097614,0,0.048199,0,0,0.5056,-0.093321,0,0.51451,-0.40913,-0.6005,-0.33586,84.414,-0.4485,0.23667,-0.00046732,0.94,0.36,0
0.015864,0.013687,0.022442,-0.6113,-0.41003,-0.32884,0.018647,0,0,-0.3672,-0.10555,0,0.048483,0,0,0.54029,-0.065745,0,0.54431,-0.40832,-0.61301,-0.32884,84.751,-0.45006,0.25394,-0.00057165,0.96,0.36,0
0.0082281,0.013194,0.011356,-0.62125,-0.39479,-0.31617,0.012063,0,0,-0.39661,-0.10221,0,0.031363,0,0,0.56104,-0.032819,0,0.56187,-0.39415,-0.62189,-0.31617,86.96,-0.44407,0.27515,-0.00078726,0.98,0.36,0
0,0.013067,0,-0.61171,-0.37243,-0.29524,-0.002443,0,0,-0.4114,-0.10035,0,-0.0063518,0,0,0.56781,6.9389e-18,0,0.56764,-0.37241,-0.61173,-0.29524,-89.415,-0.42646,0.28583,-0.00091112,1,0.36,0
0,0.023763,1,-0.77698,-1.7676,-1.7634,-0.0049648,0,0,1.2823,-0.005457,0,-0.012908,0,0,0.5634,-7.4246e-16,0,0.56329,-0.77695,-1.7676,-1.7634,-0.28716,-1.436,0.98853,0.049609,0,0.38,0
0.025646,0.023505,0.98873,-0.75952,-1.7478,-1.7409,-0.020807,0,0,1.2758,-0.0089146,0,-0.054097,0,0,0.55958,0.027456,0,0.56015,-0.75908,-1.7482,-1.7409,-1.2056,-1.4161,0.98551,0.049151,0.02,0.38,0
0.051033,0.022721,0.97762,-0.74795,-1.7402,-1.7241,-0.041871,0,0,1.2689,-0.020944,0,-0.10887,0,0,0.54712,0.055615,0,0.54987,-0.74619,-1.7419,-1.7241,-2.4122,-1.4041,0.98692,0.049317,0.04,0.38,0
0.076403,0.021515,0.96685,-0.72969,-1.7453,-1.7094,-0.060022,0,0,1.2736,-0.046784,0,-0.15606,0,0,0.52403,0.084003,0,0.53081,-0.72615,-1.7489,-1.7094,-3.3703,-1.3948,1.0035,0.051637,0.06,0.38,0
0.10198,0.020175,0.95666,-0.70727,-1.7604,-1.6969,-0.067113,0,0,1.2866,-0.082455,0,-0.17449,0,0,0.48949,0.10671,0,0.50137,-0.703,-1.7646,-1.6969,-3.6318,-1.3882,1.0295,0.055217,0.08,0.38,0
0.12787,0.019147,0.94727,-0.663,-1.2666,-1.2104,-0.06296,0,0,0.84025,-0.10958,0,-0.3154,0,0,0.45421,0.077532,0,0.46248,-0.64953,-1.28,-1.2104,-12.424,-1.0467,0.60031,0.02883,0.1,0.38,0
0.13559,0.01253,0.92093,-0.63123,-0.79342,-0.73437,-0.051408,0,0,0.40226,-0.2303,0,-0.40098,0,0,0.43146,0.035543,0,0.43299,-0.6163,-0.80834,-0.73437,-16.185,-0.71967,0.16776,9.3403e-05,0.12,0.38,0
0.14396,0.007454,0.89549,-0.61589,-0.79995,-0.72325,-0.037221,0,0,0.41872,-0.29915,0,-0.29032,0,0,0.41779,0.026558,0,0.41866,-0.60864,-0.8072,-0.72325,-11.01,-0.71303,0.17263,6.9652e-05,0.14,0.38,0
0.15233,0.0040343,0.87079,-0.60618,-0.79671,-0.71113,-0.023246,0,0,0.40929,-0.33374,0,-0.18132,0,0,0.40753,0.013985,0,0.40775,-0.60339,-0.7995,-0.71113,-6.8569,-0.70467,0.17011,4.3e-05,0.16,0.38,0
0.16033,0.0019902,0.84659,-0.60034,-0.78858,-0.69887,-0.011379,0,0,0.38427,-0.34985,0,-0.088757,0,0,0.40115,0.00035523,0,0.40111,-0.59966,-0.78926,-0.69887,-3.4469,-0.69593,0.16426,1.8327e-05,0.18,0.38,0
0.1677,0.0010424,0.82265,-0.59708,-0.77824,-0.68681,-0.0011131,0,0,0.34995,-0.35655,0,-0.0086821,0,0,0.39828,-0.0134,0,0.39846,-0.59708,-0.77824,-0.68681,-0.35203,-0.68738,0.1569,-3.2088e-06,0.2,0.38,0
0.17433,0.0010056,0.7988,-0.59557,-0.76643,-0.67487,0.0083559,0,0,0.30925,-0.35711,0,0.065176,0,0,0.39844,-0.0271,0,0.39932,-0.59516,-0.76684,-0.67487,2.7931,-0.67896,0.1488,-2.0885e-05,0.22,0.38,0
0.18008,0.0018072,0.77484,-0.59569,-0.75349,-0.66304,0.017823,0,0,0.26263,-0.35277,0,0.13902,0,0,0.40153,-0.040779,0,0.40357,-0.59371,-0.75548,-0.66304,6.3647,-0.67074,0.14057,-3.4869e-05,0.24,0.38,0
0.18483,0.0034718,0.75061,-0.59755,-0.73923,-0.65124,0.028018,0,0,0.20937,-0.34317,0,0.21854,0,0,0.40784,-0.054415,0,0.41144,-0.59222,-0.74457,-0.65124,10.79,-0.66268,0.13305,-4.5753e-05,0.26,0.38,0
0.18845,0.0061296,0.7259,-0.60178,-0.72313,-0.63944,0.039607,0,0,0.14687,-0.32638,0,0.30893,0,0,0.41797,-0.067638,0,0.42342,-0.59,-0.73491,-0.63944,16.568,-0.65478,0.12759,-5.5223e-05,0.28,0.38,0
0.19071,0.010011,0.70045,-0.6093,-0.7032,-0.62723,0.053096,0,0,0.069946,-0.29626,0,0.41415,0,0,0.4323,-0.079131,0,0.43955,-0.58537,-0.72712,-0.62723,24.258,-0.64658,0.12614,-6.6117e-05,0.3,0.38,0
0.19125,0.015409,0.67402,-0.62193,-0.67563,-0.61394,0.067216,0,0,-0.031152,-0.24057,0,0.52429,0,0,0.45009,-0.085847,0,0.45831,-0.5764,-0.72116,-0.61394,34.113,-0.63716,0.13012,-8.219e-05,0.32,0.38,0
0.18946,0.022357,0.64644,-0.64648,-0.99531,-0.9235,0.080554,0,0,0.33033,-0.14003,0,0.40361,0,0,0.47822,-0.17072,0,0.51356,-0.60688,-1.0349,-0.9235,24.8,-0.8551,0.39407,0.0063907,0.34,0.38,0
0.20446,0.022148,0.63651,-0.68471,-1.3319,-1.2415,0.092728,0,0,0.72382,-0.11754,0,0.24109,0,0,0.52123,-0.2401,0,0.57433,-0.67169,-1.3449,-1.2415,7.9949,-1.086,0.62795,0.011563,0.36,0.38,0
0.21841,0.022593,0.6256,-0.70701,-1.2829,-1.2226,0.095122,0,0,0.67023,-0.078451,0,0.24732,0,0,0.56339,-0.2076,0,0.60049,-0.6917,-1.2982,-1.2226,9.1401,-1.0708,0.57246,0.0090702,0.38,0.38,0
0.23127,0.023321,0.61397,-0.72625,-1.2342,-1.2021,0.082912,0,0,0.61862,-0.041727,0,0.21557,0,0,0.59154,-0.16609,0,0.61424,-0.71305,-1.2474,-1.2021,9.0397,-1.0542,0.5132,0.00676,0.4,0.38,0
0.24316,0.023956,0.60193,-0.73761,-1.1929,-1.1811,0.061337,0,0,0.57653,-0.015379,0,0.15948,0,0,0.60551,-0.12099,0,0.61719,-0.72949,-1.201,-1.1811,7.5396,-1.0372,0.4619,0.0050295,0.42,0.38,0
0.25433,0.024253,0.58975,-0.73563,-1.1561,-1.1573,0.032944,0,0,0.54813,0.0015379,0,0.085655,0,0,0.60504,-0.07157,0,0.60888,-0.73306,-1.1586,-1.1573,4.4531,-1.0163,0.4249,0.0039396,0.44,0.38,0
0.26508,0.024084,0.57773,-0.71394,-1.1243,-1.1292,0.0021994,0,0,0.53984,0.0063851,0,0.0057185,0,0,0.5844,-0.016024,0,0.58423,-0.71392,-1.1243,-1.1292,0.30709,-0.98914,0.41285,0.0036123,0.46,0.38,0
0.27593,0.023715,0.56638,-0.69192,-1.1165,-1.1089,-0.023954,0,0,0.54207,-0.0098771,0,-0.062281,0,0,0.53838,0.04545,0,0.541,-0.69058,-1.1179,-1.1089,-3.2189,-0.97244,0.42287,0.0038779,0.48,0.38,0
0.28677,0.023445,0.5562,-0.64311,-0.80624,-0.8056,-0.029903,0,0,0.091672,-0.0012444,0,-0.1522,0,0,0.48373,0.049948,0,0.48764,-0.59203,-0.85733,-0.8056,-39.121,-0.75165,0.26263,0.001886,0.5,0.38,0
0.27959,0.020328,0.52869,-0.61354,-0.54942,-0.52512,-0.02864,0,0,-0.34484,-0.094785,0,-0.22339,0,0,0.44651,0.029715,0,0.44771,-0.53849,-0.62447,-0.52512,-69.112,-0.56269,0.093385,-3.895e-05,0.52,0.38,0
0.27297,0.018134,0.50262,-0.59373,-0.54897,-0.51035,-0.02203,0,0,-0.32519,-0.15063,0,-0.17183,0,0,0.42563,0.021027,0,0.42621,-0.53995,-0.60276,-0.51035,-67.725,-0.55102,0.081729,-1.6148e-05,0.54,0.38,0
0.26659,0.016522,0.47761,-0.57797,-0.54178,-0.49513,-0.016735,0,0,-0.32306,-0.18195,0,-0.13053,0,0,0.41142,0.011615,0,0.41159,-0.53523,-0.58452,-0.49513,-68.615,-0.53829,0.07755,-4.2371e-06,0.56,0.38,0
0.26005,0.015299,0.45325,-0.56716,-0.53331,-0.48122,-0.012706,0,0,-0.33515,-0.20315,0,-0.099106,0,0,0.40286,0.0041475,0,0.40288,-0.52907,-0.5714,-0.48122,-71.55,-0.52723,0.078142,2.5956e-06,0.58,0.38,0
0.25318,0.0143,0.42927,-0.559,-0.52348,-0.46783,-0.0097382,0,0,-0.35555,-0.21702,0,-0.075958,0,0,0.39741,-0.0013625,0,0.39741,-0.52098,-0.56149,-0.46783,-75.632,-0.51677,0.081358,6.3938e-06,0.6,0.38,0
0.24583,0.013461,0.40555,-0.5528,-0.51267,-0.45482,-0.0074116,0,0,-0.38208,-0.2256,0,-0.057811,0,0,0.39376,-0.0052837,0,0.39379,-0.51135,-0.55412,-0.45482,-79.862,-0.50676,0.086266,7.8145e-06,0.62,0.38,0
0.2379,0.012746,0.38202,-0.54795,-0.50103,-0.44203,-0.0054909,0,0,-0.41308,-0.23008,0,-0.042829,0,0,0.39125,-0.008008,0,0.39134,-0.50039,-0.54859,-0.44203,-83.414,-0.497,0.092417,6.663e-06,0.64,0.38,0
0.22931,0.012141,0.35861,-0.54412,-0.48868,-0.42937,-0.0037904,0,0,-0.44749,-0.23128,0,-0.029565,0,0,0.38956,-0.0098797,0,0.38968,-0.48842,-0.54437,-0.42937,-86.107,-0.48739,0.099605,2.3623e-06,0.66,0.38,0
0.22,0.011643,0.33527,-0.54106,-0.47573,-0.41679,-0.0021729,0,0,-0.48462,-0.22986,0,-0.016949,0,0,0.38848,-0.011193,0,0.38864,-0.47566,-0.54113,-0.41679,-88.097,-0.47786,0.10773,-5.8937e-06,0.68,0.38,0
0.20992,0.011253,0.31199,-0.53864,-0.46231,-0.40428,-0.00052518,0,0,-0.52401,-0.2263,0,-0.0040964,0,0,0.38791,-0.012207,0,0.3881,-0.4623,-0.53864,-0.40428,-89.606,-0.46841,0.11672,-1.9069e-05,0.7,0.38,0
0.19904,0.010974,0.28872,-0.5368,-0.44849,-0.39183,0.0012549,0,0,-0.56538,-0.22099,0,0.0097884,0,0,0.38781,-0.013159,0,0.38803,-0.44847,-0.53681,-0.39183,89.186,-0.45904,0.12656,-3.8288e-05,0.72,0.38,0
0.1873,0.010813,0.26545,-0.53551,-0.43438,-0.37945,0.003266,0,0,-0.60863,-0.21422,0,0.025475,0,0,0.38817,-0.014279,0,0.38843,-0.43427,-0.53561,-0.37945,88.152,-0.44978,0.13723,-6.49e-05,0.74,0.38,0
0.17469,0.010773,0.24214,-0.53482,-0.42004,-0.36717,0.0056069,0,0,-0.65384,-0.20619,0,0.043734,0,0,0.38902,-0.015812,0,0.38934,-0.41977,-0.5351,-0.36717,87.21,-0.44068,0.14877,-0.00010063,0.76,0.38,0
0.16115,0.010861,0.21877,-0.53487,-0.40554,-0.35505,0.0083771,0,0,-0.70131,-0.19694,0,0.065341,0,0,0.39046,-0.018028,0,0.39088,-0.405,-0.53541,-0.35505,86.309,-0.43182,0.16129,-0.00014787,0.78,0.38,0
0.14664,0.011079,0.19529,-0.53588,-0.39092,-0.34314,0.01167,0,0,-0.7517,-0.18636,0,0.091026,0,0,0.39269,-0.021243,0,0.39326,-0.38999,-0.53681,-0.34314,85.427,-0.42331,0.17502,-0.00021028,0.8,0.38,0
0.13108,0.011428,0.17165,-0.53828,-0.37617,-0.33155,0.015554,0,0,-0.80624,-0.17403,0,0.12132,0,0,0.39604,-0.025827,0,0.39688,-0.3747,-0.53976,-0.33155,84.569,-0.41534,0.19034,-0.00029375,0.82,0.38,0
0.11439,0.011901,0.14776,-0.54277,-0.36128,-0.32047,0.020004,0,0,-0.86698,-0.15915,0,0.15603,0,0,0.40118,-0.032209,0,0.40247,-0.3591,-0.54495,-0.32047,83.784,-0.40817,0.20788,-0.00040818,0.84,0.38,0
0.096404,0.012473,0.1235,-0.55021,-0.34605,-0.31005,0.024834,0,0,-0.93663,-0.14042,0,0.19371,0,0,0.40946,-0.040779,0,0.41149,-0.34307,-0.55318,-0.31005,83.163,-0.4021,0.22842,-0.00056922,0.86,0.38,0
0.076923,0.013114,0.098627,-0.56166,-0.33063,-0.30056,0.029387,0,0,-1.0183,-0.11725,0,0.22922,0,0,0.42342,-0.05149,0,0.42659,-0.32695,-0.56534,-0.30056,82.864,-0.39762,0.25262,-0.00079765,0.88,0.38,0
0.055672,0.013765,0.072693,-0.57501,-0.31354,-0.2908,0.033595,0,0,-1.1084,-0.088705,0,0.26204,0,0,0.44391,-0.061419,0,0.44833,-0.3093,-0.57926,-0.2908,82.794,-0.39312,0.27967,-0.001107,0.9,0.38,0
0.032586,0.014808,0.045358,-0.59034,-0.33918,-0.3091,0.036576,0,0,-0.7504,-0.058671,0,0.18095,0,0,0.48005,-0.11623,0,0.49723,-0.33374,-0.59578,-0.3091,81.711,-0.41287,0.2755,-0.0010539,0.92,0.38,0
0.025656,0.012786,0.035268,-0.62934,-0.42095,-0.35036,0.046697,0,0,-0.36268,-0.091778,0,0.12141,0,0,0.53298,-0.14808,0,0.55383,-0.41097,-0.63932,-0.35036,77.929,-0.46688,0.26393,-0.00077902,0.94,0.38,0
0.018079,0.011737,0.024039,-0.64998,-0.3953,-0.33762,0.041776,0,0,-0.40607,-0.074979,0,0.10862,0,0,0.57829,-0.092444,0,0.58535,-0.38862,-0.65666,-0.33762,80.918,-0.46097,0.29684,-0.0012108,0.96,0.38,0
0.0094138,0.011436,0.012136,-0.67514,-0.37599,-0.32747,0.024441,0,0,-0.45196,-0.063069,0,0.063545,0,0,0.60097,-0.043898,0,0.60229,-0.374,-0.67712,-0.32747,85.36,-0.45953,0.32886,-0.001704,0.98,0.38,0
0,0.011375,0,-0.66762,-0.35088,-0.30555,-0.0011734,0,0,-0.47069,-0.058929,0,-0.0030509,0,0,0.6068,6.9389e-18,0,0.60654,-0.35088,-0.66763,-0.30555,-89.788,-0.44135,0.34167,-0.0019276,1,0.38,0
0,0.023922,1,-0.80151,-1.7478,-1.7648,-0.0061843,0,0,1.2523,0.022091,0,-0.016079,0,0,0.59439,-1.9984e-15,0,0.59423,-0.80146,-1.7478,-1.7648,-0.37443,-1.438,0.95496,0.044681,0,0.4,0
0.025045,0.023601,0.98811,-0.78489,-1.7258,-1.7413,-0.023878,0,0,1.2433,0.020204,0,-0.062084,0,0,0.59135,0.033652,0,0.59214,-0.78428,-1.7264,-1.7413,-1.4528,-1.4173,0.94965,0.043949,0.02,0.4,0
0.049734,0.022592,0.97635,-0.77788,-1.715,-1.7242,-0.051775,0,0,1.2302,0.011969,0,-0.13462,0,0,0.58086,0.069998,0,0.58488,-0.77503,-1.7179,-1.7242,-3.1527,-1.4057,0.94602,0.043477,0.04,0.4,0
0.074255,0.020792,0.96488,-0.75202,-1.7123,-1.7042,-0.082122,0,0,1.2378,-0.010539,0,-0.21352,0,0,0.55609,0.11171,0,0.56704,-0.74505,-1.7192,-1.7042,-4.853,-1.3895,0.96674,0.046367,0.06,0.4,0
0.099245,0.018553,0.9541,-0.72404,-1.7535,-1.6974,-0.10442,0,0,1.2653,-0.073013,0,-0.27148,0,0,0.51084,0.1599,0,0.53599,-0.71356,-1.764,-1.6974,-5.7334,-1.3917,1.0188,0.053525,0.08,0.4,0
0.12487,0.016817,0.94444,-0.67296,-1.288,-1.2179,-0.093182,0,0,0.84417,-0.13663,0,-0.45908,0,0,0.45922,0.11968,0,0.47809,-0.64865,-1.3123,-1.2179,-15.198,-1.0596,0.62431,0.029233,0.1,0.4,0
0.13301,0.0074274,0.91831,-0.62909,-0.81544,-0.73946,-0.071747,0,0,0.43044,-0.29629,0,-0.55963,0,0,0.42438,0.056812,0,0.42834,-0.60467,-0.83986,-0.73946,-18.799,-0.728,0.2044,0.00010967,0.12,0.4,0
0.14209,0.00095923,0.89352,-0.60995,-0.81937,-0.72664,-0.048343,0,0,0.45509,-0.36168,0,-0.37707,0,0,0.40499,0.040358,0,0.407,-0.59933,-0.82999,-0.72664,-12.391,-0.71865,0.20012,7.3546e-05,0.14,0.4,0
0.15122,-0.0030812,0.86971,-0.59871,-0.81086,-0.71277,-0.029636,0,0,0.44486,-0.38253,0,-0.23116,0,0,0.39232,0.021951,0,0.39288,-0.59465,-0.81492,-0.71277,-7.8049,-0.70745,0.19093,4.4778e-05,0.16,0.4,0
0.15988,-0.0053733,0.84644,-0.59316,-0.80036,-0.7002,-0.015065,0,0,0.41747,-0.39061,0,-0.1175,0,0,0.38575,0.004375,0,0.38572,-0.59207,-0.80145,-0.7002,-4.1368,-0.69791,0.18136,1.7443e-05,0.18,0.4,0
0.16791,-0.0064139,0.82342,-0.58976,-0.78856,-0.68797,-0.0030436,0,0,0.38303,-0.39229,0,-0.02374,0,0,0.3831,-0.012345,0,0.38324,-0.58971,-0.7886,-0.68797,-0.87691,-0.68876,0.17225,-5.4319e-06,0.2,0.4,0
0.1752,-0.0064418,0.80047,-0.58817,-0.77638,-0.67619,0.0079341,0,0,0.34327,-0.39076,0,0.061886,0,0,0.38335,-0.02865,0,0.38437,-0.58784,-0.77672,-0.67619,2.4096,-0.68025,0.16369,-2.5087e-05,0.22,0.4,0
0.18165,-0.0055537,0.77742,-0.58826,-0.76399,-0.66482,0.01898,0,0,0.29856,-0.38679,0,0.14804,0,0,0.38633,-0.045056,0,0.3889,-0.58624,-0.76602,-0.66482,6.0946,-0.67236,0.15611,-4.2175e-05,0.24,0.4,0
0.18714,-0.0037128,0.75411,-0.5904,-0.75124,-0.65386,0.031117,0,0,0.24749,-0.37977,0,0.24271,0,0,0.39253,-0.062027,0,0.39735,-0.58459,-0.75705,-0.65386,10.577,-0.66517,0.15031,-5.8039e-05,0.26,0.4,0
0.19154,-0.00075589,0.73032,-0.5951,-0.73732,-0.64316,0.045529,0,0,0.18746,-0.36722,0,0.35513,0,0,0.4033,-0.079822,0,0.41111,-0.58177,-0.75065,-0.64316,16.314,-0.65853,0.14806,-7.5324e-05,0.28,0.4,0
0.19464,0.0036943,0.70571,-0.60508,-0.72167,-0.63326,0.063415,0,0,0.10993,-0.34481,0,0.49464,0,0,0.4211,-0.097981,0,0.43242,-0.57724,-0.74952,-0.63326,23.703,-0.65334,0.15221,-0.00010188,0.3,0.4,0
0.19594,0.010217,0.67978,-0.62201,-0.69652,-0.62215,0.085667,0,0,0.00054946,-0.29002,0,0.6682,0,0,0.44619,-0.11254,0,0.46043,-0.56585,-0.75268,-0.62215,33.249,-0.64689,0.166,-0.00014707,0.32,0.4,0
0.19466,0.019479,0.65217,-0.66023,-1.0216,-0.93932,0.10902,0,0,0.34151,-0.16038,0,0.53654,0,0,0.48889,-0.22146,0,0.54484,-0.60721,-1.0746,-0.93932,25.46,-0.8737,0.42528,0.0067509,0.34,0.4,0
0.2096,0.019831,0.64182,-0.71042,-1.3409,-1.2572,0.13295,0,0,0.71083,-0.10878,0,0.34567,0,0,0.55165,-0.30422,0,0.63079,-0.68353,-1.3678,-1.2572,11.434,-1.1028,0.63621,0.01189,0.36,0.4,0
0.2231,0.021264,0.6301,-0.74261,-1.261,-1.2312,0.12434,0,0,0.63513,-0.038718,0,0.32329,0,0,0.60815,-0.24316,0,0.65476,-0.71432,-1.2892,-1.2312,12.815,-1.0782,0.54819,0.0081418,0.38,0.4,0
0.23501,0.02287,0.61749,-0.77706,-1.2123,-1.2143,0.10087,0,0,0.56841,0.0026174,0,0.26226,0,0,0.64191,-0.18657,0,0.66816,-0.75482,-1.2345,-1.2143,12.434,-1.0679,0.46992,0.0052963,0.4,0.4,0
0.24583,0.024095,0.60443,-0.79317,-1.1658,-1.1921,0.070357,0,0,0.51864,0.03419,0,0.18293,0,0,0.65924,-0.13055,0,0.67164,-0.78033,-1.1787,-1.1921,10.343,-1.0504,0.40523,0.0034051,0.42,0.4,0
0.25575,0.024791,0.59112,-0.79988,-1.1217,-1.1676,0.033291,0,0,0.47802,0.059691,0,0.086557,0,0,0.66566,-0.069834,0,0.66875,-0.79648,-1.1251,-1.1676,5.8451,-1.0297,0.35179,0.0021264,0.44,0.4,0
0.26495,0.024793,0.5778,-0.79157,-1.0818,-1.1398,-0.016009,0,0,0.45272,0.075402,0,-0.041624,0,0,0.65854,0.0022771,0,0.65765,-0.79068,-1.0827,-1.1398,-3.1475,-1.0044,0.32436,0.0015711,0.46,0.4,0
0.27386,0.023766,0.56478,-0.71833,-1.0386,-1.0919,-0.065478,0,0,0.4856,0.069205,0,-0.17024,0,0,0.59816,0.098187,0,0.60355,-0.70546,-1.0515,-1.0919,-11.119,-0.94961,0.36789,0.0024538,0.48,0.4,0
0.28438,0.023488,0.55387,-0.66214,-0.8222,-0.81455,-0.095719,0,0,0.068629,-0.014921,0,-0.43496,0,0,0.50445,0.16689,0,0.54013,-0.57909,-0.90525,-0.81455,-38.437,-0.7663,0.30886,0.0023366,0.5,0.4,0
0.27661,0.018277,0.52606,-0.62272,-0.57457,-0.53454,-0.056772,0,0,-0.34391,-0.15611,0,-0.44282,0,0,0.44168,0.058683,0,0.44562,-0.53698,-0.66031,-0.53454,-56.491,-0.57728,0.12457,-9.9154e-05,0.52,0.4,0
0.27062,0.014867,0.50087,-0.58648,-0.55899,-0.5106,-0.039084,0,0,-0.29595,-0.18872,0,-0.30485,0,0,0.41193,0.034888,0,0.41336,-0.53131,-0.61417,-0.5106,-54.689,-0.55202,0.094924,-3.6981e-05,0.54,0.4,0
0.26477,0.012705,0.47663,-0.57119,-0.54862,-0.49482,-0.027485,0,0,-0.29785,-0.20982,0,-0.21438,0,0,0.40049,0.019369,0,0.40093,-0.53019,-0.58962,-0.49482,-56.162,-0.53821,0.082972,-1.2398e-05,0.56,0.4,0
0.25871,0.011093,0.45281,-0.56113,-0.53772,-0.48059,-0.020374,0,0,-0.3141,-0.22279,0,-0.15892,0,0,0.39502,0.0089254,0,0.39511,-0.52593,-0.57292,-0.48059,-59.94,-0.52648,0.079965,-8.1732e-07,0.58,0.4,0
0.25221,0.0098526,0.42923,-0.55434,-0.52665,-0.46737,-0.015402,0,0,-0.33916,-0.23118,0,-0.12014,0,0,0.39188,0.0017896,0,0.39188,-0.51978,-0.5612,-0.46737,-65.975,-0.51612,0.081446,5.5837e-06,0.6,0.4,0
0.24514,0.0088661,0.40579,-0.54924,-0.51511,-0.45457,-0.011782,0,0,-0.36923,-0.23612,0,-0.091898,0,0,0.3899,-0.0031217,0,0.38991,-0.51144,-0.55292,-0.45457,-72.69,-0.50631,0.085518,8.5801e-06,0.62,0.4,0
0.23744,0.008078,0.38244,-0.5452,-0.50305,-0.44195,-0.0089513,0,0,-0.40264,-0.23828,0,-0.06982,0,0,0.38857,-0.0065107,0,0.38863,-0.50123,-0.54702,-0.44195,-78.493,-0.49673,0.091238,8.5846e-06,0.64,0.4,0
0.22903,0.0074583,0.35916,-0.54184,-0.49049,-0.42942,-0.0065813,0,0,-0.43844,-0.23817,0,-0.051334,0,0,0.38767,-0.0088702,0,0.38777,-0.48966,-0.54267,-0.42942,-82.812,-0.48725,0.098145,5.3518e-06,0.66,0.4,0
0.2199,0.0069916,0.33592,-0.53897,-0.47748,-0.41691,-0.0044422,0,0,-0.47604,-0.23622,0,-0.034649,0,0,0.38707,-0.010573,0,0.38721,-0.47716,-0.53929,-0.41691,-85.889,-0.47778,0.10599,-1.6267e-06,0.68,0.4,0
0.20999,0.0066699,0.31271,-0.53647,-0.46411,-0.40441,-0.0023596,0,0,-0.51502,-0.23283,0,-0.018405,0,0,0.38671,-0.011923,0,0.38689,-0.46403,-0.53654,-0.40441,-88.134,-0.46833,0.11461,-1.2989e-05,0.7,0.4,0
0.1993,0.0064895,0.28952,-0.53427,-0.45047,-0.39193,-0.00018392,0,0,-0.55513,-0.22832,0,-0.0014346,0,0,0.38655,-0.01319,0,0.38678,-0.45047,-0.53427,-0.39193,-89.874,-0.45889,0.12392,-2.9464e-05,0.72,0.4,0
0.18779,0.0064499,0.26632,-0.53235,-0.43665,-0.37947,0.002227,0,0,-0.59622,-0.22297,0,0.017371,0,0,0.3866,-0.014634,0,0.38688,-0.43659,-0.5324,-0.37947,88.668,-0.44949,0.13384,-5.1908e-05,0.74,0.4,0
0.17545,0.0065525,0.24312,-0.53074,-0.42272,-0.36708,0.0050224,0,0,-0.63828,-0.217,0,0.039174,0,0,0.38686,-0.016529,0,0.38721,-0.42249,-0.53097,-0.36708,87.344,-0.44018,0.1444,-8.142e-05,0.76,0.4,0
0.16226,0.0068014,0.2199,-0.52953,-0.40877,-0.35479,0.0083733,0,0,-0.68148,-0.21053,0,0.065312,0,0,0.38738,-0.019194,0,0.38786,-0.40819,-0.53011,-0.35479,86.052,-0.43103,0.15565,-0.0001196,0.78,0.4,0
0.14819,0.007203,0.19664,-0.52892,-0.39487,-0.34268,0.012495,0,0,-0.72632,-0.20353,0,0.097462,0,0,0.38827,-0.023024,0,0.38895,-0.39371,-0.53007,-0.34268,84.72,-0.42216,0.1678,-0.00016914,0.8,0.4,0
0.1332,0.0077678,0.17331,-0.52933,-0.38106,-0.33089,0.017669,0,0,-0.77393,-0.19568,0,0.13782,0,0,0.38975,-0.02855,0,0.39078,-0.37898,-0.53141,-0.33089,83.297,-0.41376,0.18132,-0.00023508,0.82,0.4,0
0.11723,0.0085103,0.14987,-0.53164,-0.36738,-0.31966,0.024281,0,0,-0.8267,-0.18611,0,0.18939,0,0,0.39234,-0.036529,0,0.39402,-0.36387,-0.53515,-0.31966,81.765,-0.40623,0.19714,-0.00032778,0.84,0.4,0
0.10014,0.009453,0.12623,-0.53777,-0.35395,-0.30959,0.03271,0,0,-0.88989,-0.173,0,0.25514,0,0,0.39729,-0.048119,0,0.40016,-0.3483,-0.54342,-0.30959,80.205,-0.40044,0.21707,-0.00046951,0.86,0.4,0
0.081637,0.010587,0.10219,-0.5509,-0.3407,-0.30154,0.043631,0,0,-0.97249,-0.15269,0,0.34032,0,0,0.40849,-0.065135,0,0.41359,-0.332,-0.5596,-0.30154,78.728,-0.39771,0.24425,-0.00070935,0.88,0.4,0
0.061237,0.012004,0.077209,-0.58057,-0.33109,-0.29923,0.056893,0,0,-1.0972,-0.12425,0,0.44376,0,0,0.43795,-0.090603,0,0.4473,-0.31873,-0.59293,-0.29923,77.741,-0.40363,0.28445,-0.0011633,0.9,0.4,0
0.037749,0.013682,0.049639,-0.60541,-0.35779,-0.32205,0.096873,0,0,-0.75983,-0.069692,0,0.43223,0,0,0.49846,-0.2299,0,0.55946,-0.32104,-0.64216,-0.32205,71.085,-0.42842,0.32062,-0.0016932,0.92,0.4,0
0.030843,0.011006,0.038891,-0.66409,-0.38215,-0.35276,0.092387,0,0,-0.40472,-0.038206,0,0.24021,0,0,0.58749,-0.19551,0,0.61694,-0.35457,-0.69166,-0.35276,73.38,-0.46633,0.338,-0.001983,0.94,0.4,0
0.02156,0.010688,0.026139,-0.73735,-0.36979,-0.35828,0.070787,0,0,-0.49279,-0.014964,0,0.18405,0,0,0.64447,-0.11011,0,0.65314,-0.35663,-0.75052,-0.35828,79.467,-0.48848,0.39306,-0.0031187,0.96,0.4,0
0.011132,0.010671,0.013112,-0.76043,-0.34861,-0.34582,0.035655,0,0,-0.53899,-0.0036187,0,0.092703,0,0,0.65349,-0.050065,0,0.65502,-0.34554,-0.7635,-0.34582,85.088,-0.48496,0.41781,-0.0037461,0.98,0.4,0
0,0.01071,0,-0.74933,-0.32127,-0.32118,0.00074132,0,0,-0.5566,-0.00011645,0,0.0019274,0,0,0.6556,3.4694e-18,0,0.65529,-0.32127,-0.74933,-0.32118,89.901,-0.46393,0.42811,-0.0040298,1,0.4,0
0,0.024647,1,-0.82358,-1.7285,-1.7656,-0.006416,0,0,1.2247,0.048286,0,-0.016682,0,0,0.63071,4.2327e-16,0,0.63053,-0.82353,-1.7285,-1.7656,-0.40622,-1.4392,0.92409,0.040309,0,0.42,0
0.024493,0.024313,0.98739,-0.80933,-1.7034,-1.7412,-0.022689,0,0,1.2114,0.049146,0,-0.05899,0,0,0.62958,0.037227,0,0.63048,-0.80876,-1.704,-1.7412,-1.4527,-1.418,0.9144,0.039048,0.02,0.42,0
0.048457,0.0232,0.97482,-0.81283,-1.6862,-1.7245,-0.051636,0,0,1.1852,0.049826,0,-0.13425,0,0,0.62518,0.078922,0,0.62985,-0.80979,-1.6892,-1.7245,-3.3718,-1.4079,0.89761,0.036951,0.04,0.42,0
0.071901,0.021093,0.96238,-0.81206,-1.6762,-1.7089,-0.09662,0,0,1.1658,0.042436,0,-0.25121,0,0,0.61393,0.13139,0,0.62731,-0.80139,-1.6869,-1.7089,-6.3024,-1.399,0.89669,0.036955,0.06,0.42,0
0.095091,0.017255,0.95026,-0.73283,-1.666,-1.6699,-0.14555,0,0,1.2182,0.0050591,0,-0.37843,0,0,0.55729,0.20717,0,0.59273,-0.71066,-1.6882,-1.6699,-8.6625,-1.3563,0.96853,0.046606,0.08,0.42,0
0.12063,0.013682,0.94009,-0.69175,-1.3422,-1.2369,-0.16163,0,0,0.84919,-0.2053,0,-0.74825,0,0,0.4708,0.22826,0,0.53363,-0.64058,-1.3934,-1.2369,-19.145,-1.0903,0.69184,0.033004,0.1,0.42,0
0.12906,0.00067877,0.91411,-0.63349,-0.86317,-0.7537,-0.098356,0,0,0.46883,-0.42693,0,-0.76718,0,0,0.41198,0.085493,0,0.4208,-0.59712,-0.89953,-0.7537,-20.289,-0.75012,0.26195,5.6762e-05,0.12,0.42,0
0.13938,-0.0070131,0.89065,-0.59895,-0.84302,-0.72947,-0.060667,0,0,0.50905,-0.44284,0,-0.4732,0,0,0.38293,0.05381,0,0.38656,-0.5847,-0.85727,-0.72947,-13.216,-0.72381,0.2362,7.2853e-05,0.14,0.42,0
0.14942,-0.011267,0.86816,-0.58933,-0.82883,-0.71483,-0.03569,0,0,0.48946,-0.44458,0,-0.27838,0,0,0.37154,0.02871,0,0.37254,-0.58413,-0.83404,-0.71483,-8.2981,-0.711,0.2165,4.1514e-05,0.16,0.42,0
0.15896,-0.013634,0.84606,-0.58318,-0.81391,-0.70115,-0.018646,0,0,0.46009,-0.43978,0,-0.14544,0,0,0.36685,0.0074569,0,0.36684,-0.58168,-0.81541,-0.70115,-4.5906,-0.69941,0.20243,1.6437e-05,0.18,0.42,0
0.16782,-0.014649,0.82413,-0.57987,-0.80016,-0.68872,-0.0049722,0,0,0.42452,-0.43461,0,-0.038783,0,0,0.36525,-0.011713,0,0.36536,-0.57976,-0.80027,-0.68872,-1.2924,-0.68958,0.19098,-7.2707e-06,0.2,0.42,0
0.17594,-0.014625,0.80223,-0.5781,-0.78752,-0.6771,0.0072634,0,0,0.3861,-0.43065,0,0.056655,0,0,0.36573,-0.030086,0,0.36689,-0.57784,-0.78777,-0.6771,1.984,-0.6809,0.18189,-2.9078e-05,0.22,0.42,0
0.18327,-0.013664,0.78025,-0.57773,-0.77598,-0.66619,0.019713,0,0,0.34502,-0.42816,0,0.15377,0,0,0.36816,-0.048724,0,0.37129,-0.57579,-0.77792,-0.66619,5.6239,-0.6733,0.17538,-5.0268e-05,0.24,0.42,0
0.18974,-0.011719,0.75805,-0.57932,-0.76544,-0.65611,0.033941,0,0,0.2995,-0.42638,0,0.26474,0,0,0.37307,-0.068667,0,0.37925,-0.57332,-0.77144,-0.65611,10.019,-0.66696,0.17234,-7.3561e-05,0.26,0.42,0
0.19525,-0.0085591,0.73548,-0.58464,-0.75586,-0.64731,0.051599,0,0,0.24441,-0.42334,0,0.40247,0,0,0.38202,-0.091118,0,0.39264,-0.57029,-0.7702,-0.64731,15.539,-0.6626,0.17464,-0.00010532,0.28,0.42,0
0.19952,-0.0037815,0.71221,-0.59512,-0.74563,-0.63963,0.07624,0,0,0.17359,-0.41341,0,0.59467,0,0,0.39959,-0.1176,0,0.41645,-0.56325,-0.7775,-0.63963,22.686,-0.66013,0.18808,-0.0001616,0.3,0.42,0
0.20219,0.0038088,0.68753,-0.62843,-0.74064,-0.6399,0.1121,0,0,0.044715,-0.39289,0,0.87441,0,0,0.43734,-0.15016,0,0.46268,-0.55918,-0.80989,-0.6399,31.707,-0.66966,0.22167,-0.00031968,0.32,0.42,0
0.20131,0.015942,0.65973,-0.68272,-1.0821,-0.96926,0.17992,0,0,0.35778,-0.22001,0,0.83015,0,0,0.50799,-0.34697,0,0.62937,-0.59352,-1.1713,-0.96926,27.786,-0.91136,0.51552,0.0087603,0.34,0.42,0
0.2165,0.017797,0.64868,-0.73214,-1.2768,-1.2513,0.18353,0,0,0.67498,-0.033045,0,0.47719,0,0,0.61027,-0.36114,0,0.70747,-0.67606,-1.3328,-1.2513,16.989,-1.0868,0.62006,0.011534,0.36,0.42,0
0.22831,0.021045,0.63532,-0.82141,-1.2366,-1.2527,0.15275,0,0,0.56069,0.021004,0,0.39714,0,0,0.68105,-0.27307,0,0.73317,-0.77127,-1.2867,-1.2527,18.174,-1.1036,0.4993,0.0062934,0.38,0.42,0
0.23893,0.023426,0.62144,-0.84066,-1.188,-1.23,0.11633,0,0,0.50617,0.054691,0,0.30245,0,0,0.70415,-0.20648,0,0.7334,-0.80529,-1.2233,-1.23,16.909,-1.0862,0.42141,0.0038403,0.4,0.42,0
0.24855,0.025324,0.60716,-0.85574,-1.1374,-1.2051,0.084995,0,0,0.45415,0.088048,0,0.22099,0,0,0.72225,-0.1446,0,0.73616,-0.83208,-1.161,-1.2051,15.558,-1.0661,0.35304,0.0021417,0.42,0.42,0
0.2571,0.026641,0.59255,-0.87456,-1.0841,-1.1801,0.046735,0,0,0.39725,0.12488,0,0.12151,0,0,0.73786,-0.078263,0,0.74144,-0.86461,-1.094,-1.1801,12.021,-1.0463,0.2825,0.00080552,0.44,0.42,0
0.26444,0.027101,0.57764,-0.90304,-1.0358,-1.1593,-0.0042623,0,0,0.33314,0.16053,0,-0.011082,0,0,0.75242,0.0010506,0,0.75147,-0.9029,-1.0359,-1.1593,-1.8368,-1.0327,0.2221,3.685e-05,0.46,0.42,0
0.27042,0.026483,0.56245,-0.94704,-1.0025,-1.1473,-0.089619,0,0,0.26034,0.18828,0,-0.23301,0,0,0.78643,0.10922,0,0.79112,-0.88095,-1.0686,-1.1473,-36.407,-1.0323,0.237,0.00043801,0.48,0.42,0
0.27486,0.022848,0.54618,-0.84886,-0.77026,-0.84986,-0.16814,0,0,-0.071324,0.092815,0,-0.74192,0,0,0.68003,0.21219,0,0.71255,-0.63684,-0.98227,-0.84986,-51.382,-0.82299,0.30833,0.0011857,0.5,0.42,0
0.2705,0.014084,0.52165,-0.91249,-0.6064,-0.80343,-0.1025,0,0,-0.21267,0.18626,0,-0.47048,0,0,0.79592,0.076295,0,0.79988,-0.55479,-0.9641,-0.80343,-61.95,-0.77411,0.36835,0.0034487,0.52,0.42,0
0.26635,0.010585,0.49843,-0.88386,-0.58228,-0.77213,-0.049881,0,0,-0.21788,0.17543,0,-0.2505,0,0,0.77264,0.04194,0,0.77401,-0.55695,-0.90919,-0.77213,-65.139,-0.74609,0.32194,0.0028005,0.54,0.42,0
0.26178,0.008129,0.47529,-0.87344,-0.56281,-0.74774,-0.033122,0,0,-0.24513,0.16414,0,-0.17085,0,0,0.77091,0.02246,0,0.77131,-0.54662,-0.88964,-0.74774,-66.864,-0.728,0.3169,0.0026174,0.56,0.42,0
0.25655,0.0063868,0.45217,-0.87099,-0.54952,-0.7276,-0.022838,0,0,-0.27961,0.15308,0,-0.12105,0,0,0.77056,0.010546,0,0.77065,-0.53978,-0.88073,-0.7276,-69.874,-0.71604,0.31792,0.0023044,0.58,0.42,0
0.2506,0.0050526,0.42906,-0.86976,-0.53675,-0.70799,-0.016445,0,0,-0.31546,0.14262,0,-0.08927,0,0,0.77072,0.0027628,0,0.77072,-0.53124,-0.87527,-0.70799,-73.937,-0.70483,0.32294,0.0019428,0.6,0.42,0
0.24393,0.004016,0.40593,-0.86924,-0.52407,-0.68861,-0.011919,0,0,-0.35223,0.13308,0,-0.066544,0,0,0.77091,-0.0024608,0,0.77091,-0.52121,-0.8721,-0.68861,-78.513,-0.69397,0.3302,0.001525,0.62,0.42,0
0.23651,0.0032146,0.3828,-0.86914,-0.51113,-0.66928,-0.0085041,0,0,-0.38973,0.12454,0,-0.049213,0,0,0.77101,-0.006017,0,0.77104,-0.50975,-0.87052,-0.66928,-82.467,-0.68318,0.33913,0.0010526,0.64,0.42,0
0.22834,0.0026145,0.35967,-0.86934,-0.49789,-0.64995,-0.0057418,0,0,-0.42781,0.11694,0,-0.035056,0,0,0.77099,-0.0084765,0,0.77105,-0.49727,-0.86996,-0.64995,-85.341,-0.67239,0.34934,0.00052233,0.66,0.42,0
0.2194,0.0021943,0.33654,-0.86971,-0.48437,-0.63059,-0.0033451,0,0,-0.4663,0.11012,0,-0.022652,0,0,0.77085,-0.010245,0,0.77094,-0.48412,-0.86996,-0.63059,-87.328,-0.66156,0.36057,-6.8971e-05,0.68,0.42,0
0.20969,0.0019399,0.31342,-0.87016,-0.47063,-0.61118,-0.0010982,0,0,-0.505,0.10388,0,-0.010925,0,0,0.77059,-0.01164,0,0.77071,-0.47056,-0.87023,-0.61118,1.2524,-0.65066,0.37257,-0.00072355,0.7,0.42,0
0.1992,0.0018418,0.2903,-0.87057,-0.45676,-0.59173,0.0011795,0,0,-0.54373,0.09801,0,0.0010309,0,0,0.7702,-0.012936,0,0.77035,-0.45674,-0.87058,-0.59173,0.16059,-0.63969,0.38516,-0.0014423,0.72,0.42,0
0.18794,0.0018938,0.26721,-0.87087,-0.44282,-0.57224,0.0036569,0,0,-0.58231,0.092312,0,0.014071,0,0,0.76965,-0.014395,0,0.76984,-0.44279,-0.8709,-0.57224,89.239,-0.62865,0.39815,-0.0022247,0.74,0.42,0
0.17591,0.002093,0.24413,-0.87097,-0.42893,-0.55272,0.0065102,0,0,-0.62058,0.086599,0,0.029094,0,0,0.76892,-0.016294,0,0.76915,-0.42878,-0.87112,-0.55272,88.383,-0.61754,0.41141,-0.0030686,0.76,0.42,0
0.16311,0.0024393,0.22107,-0.87082,-0.41519,-0.53318,0.0099512,0,0,-0.65839,0.080695,0,0.047179,0,0,0.76794,-0.018963,0,0.76826,-0.4148,-0.8712,-0.53318,87.515,-0.6064,0.4248,-0.0039704,0.78,0.42,0
0.14957,0.0029377,0.19805,-0.87039,-0.40171,-0.51367,0.014274,0,0,-0.69562,0.074451,0,0.069802,0,0,0.76666,-0.022825,0,0.76713,-0.40092,-0.87118,-0.51367,86.565,-0.59526,0.43827,-0.0049263,0.8,0.42,0
0.13529,0.0036005,0.17507,-0.86978,-0.38868,-0.49425,0.019949,0,0,-0.73228,0.067788,0,0.099257,0,0,0.76507,-0.02849,0,0.76579,-0.38719,-0.87128,-0.49425,85.455,-0.58424,0.45191,-0.0059354,0.82,0.42,0
0.12028,0.0044561,0.15215,-0.86953,-0.37645,-0.47523,0.027763,0,0,-0.7689,0.060834,0,0.13923,0,0,0.76323,-0.036932,0,0.76443,-0.37371,-0.87228,-0.47523,84.099,-0.57374,0.46621,-0.0070144,0.84,0.42,0
0.10453,0.0055528,0.12928,-0.87123,-0.36554,-0.45722,0.039359,0,0,-0.80733,0.05418,0,0.19686,0,0,0.76172,-0.049883,0,0.76389,-0.36048,-0.87628,-0.45722,82.372,-0.56466,0.4829,-0.0082366,0.86,0.42,0
0.087986,0.0070062,0.10644,-0.88193,-0.35954,-0.4434,0.056722,0,0,-0.85512,0.049341,0,0.28031,0,0,0.76187,-0.07117,0,0.76613,-0.35035,-0.89111,-0.4434,80.335,-0.56162,0.50651,-0.0099127,0.88,0.42,0
0.070328,0.0087954,0.083566,-0.91319,-0.35904,-0.43738,0.09247,0,0,-0.92783,0.04837,0,0.43373,0,0,0.78818,-0.10868,0,0.79695,-0.33996,-0.93227,-0.43738,77.321,-0.56987,0.55371,-0.013093,0.9,0.42,0
0.050872,0.01202,0.059152,-0.81135,-0.39123,-0.40021,0.15035,0,0,-0.85874,-0.01603,0,0.66339,0,0,0.67462,-0.26054,0,0.7247,-0.34215,-0.86043,-0.40021,71.2,-0.53426,0.49205,-0.0083413,0.92,0.42,0
0.038259,0.011258,0.043088,-0.91664,-0.38642,-0.43401,0.11605,0,0,-0.62742,0.061859,0,0.30173,0,0,0.76772,-0.19679,0,0.7902,-0.36213,-0.94093,-0.43401,78.179,-0.57902,0.54641,-0.0078924,0.94,0.42,0
0.025775,0.011138,0.028443,-0.88101,-0.34809,-0.39718,0.074563,0,0,-0.62899,0.063805,0,0.19387,0,0,0.72374,-0.10669,0,0.73096,-0.33786,-0.89125,-0.39718,82.183,-0.54209,0.52624,-0.0071652,0.96,0.42,0
0.0131,0.011291,0.014139,-0.86484,-0.31856,-0.36916,0.037362,0,0,-0.64439,0.065777,0,0.097142,0,0,0.71108,-0.047379,0,0.71233,-0.31602,-0.86738,-0.36916,86.106,-0.51752,0.52681,-0.007252,0.98,0.42,0
0,0.01137,0,-0.84335,-0.28836,-0.33951,0.0015206,0,0,-0.65499,0.066495,0,0.0039536,0,0,0.70693,1.7347e-18,0,0.70667,-0.28836,-0.84335,-0.33951,89.843,-0.49041,0.53127,-0.007461,1,0.42,0
0,0.025854,1,-0.83664,-1.7128,-1.7648,-0.0055232,0,0,1.2067,0.067649,0,-0.01436,0,0,0.66885,-1.8908e-16,0,0.66868,-0.83661,-1.7128,-1.7648,-0.36117,-1.4381,0.90335,0.037438,0,0.44,0
0.024133,0.025566,0.98662,-0.8239,-1.6839,-1.739,-0.016611,0,0,1.1896,0.071545,0,-0.043189,0,0,0.67028,0.036785,0,0.67109,-0.82358,-1.6843,-1.739,-1.1061,-1.4156,0.8893,0.035661,0.02,0.44,0
0.047584,0.024585,0.97319,-0.83684,-1.6585,-1.7218,-0.040673,0,0,1.1504,0.082259,0,-0.10575,0,0,0.67503,0.078457,0,0.6793,-0.83483,-1.6605,-1.7218,-2.8269,-1.4057,0.85798,0.03188,0.04,0.44,0
0.070151,0.022489,0.95962,-0.86523,-1.6365,-1.7101,-0.078533,0,0,1.0984,0.095744,0,-0.20419,0,0,0.68434,0.13215,0,0.69645,-0.85732,-1.6444,-1.7101,-5.7554,-1.404,0.82193,0.027904,0.06,0.44,0
0.091519,0.018756,0.94581,-0.91283,-1.6287,-1.7083,-0.17577,0,0,1.0341,0.10342,0,-0.45699,0,0,0.72183,0.21285,0,0.7505,-0.87201,-1.6696,-1.7083,-13.076,-1.4166,0.81761,0.027859,0.08,0.44,0
0.11151,0.008605,0.93075,-0.83639,-1.2295,-1.2403,-0.25308,0,0,0.71679,-0.070583,0,-1.1142,0,0,0.62938,0.25829,0,0.68176,-0.71149,-1.3544,-1.2403,-26.965,-1.102,0.60142,0.015599,0.1,0.44,0
0.12302,-0.0096499,0.90805,-0.82697,-0.91977,-1.1294,-0.16221,0,0,0.58972,0.10036,0,-0.73371,0,0,0.72812,0.10714,0,0.73696,-0.67538,-1.0714,-1.1294,-35.929,-0.95871,0.47128,0.0019478,0.12,0.44,0
0.1351,-0.016754,0.88706,-0.78986,-0.88377,-1.0935,-0.069429,0,0,0.59203,0.11025,0,-0.3453,0,0,0.69642,0.062689,0,0.69978,-0.71694,-0.9567,-1.0935,-36.274,-0.92237,0.39313,-0.0022487,0.14,0.44,0
0.1467,-0.020865,0.86627,-0.78212,-0.85467,-1.0686,-0.038439,0,0,0.55854,0.11808,0,-0.19702,0,0,0.69193,0.03226,0,0.69279,-0.71309,-0.9237,-1.0686,-40.633,-0.90178,0.37284,-0.0023879,0.16,0.44,0
0.15745,-0.022964,0.84555,-0.78555,-0.83653,-1.0503,-0.018068,0,0,0.51631,0.12243,0,-0.096698,0,0,0.69066,0.0085875,0,0.69066,-0.70885,-0.91322,-1.0503,-43.963,-0.8908,0.35573,-0.0020337,0.18,0.44,0
0.16735,-0.023798,0.82483,-0.7888,-0.82115,-1.0329,-0.0035159,0,0,0.47593,0.12276,0,-0.022845,0,0,0.69112,-0.012076,0,0.69119,-0.70142,-0.90853,-1.0329,-45.342,-0.88094,0.34273,-0.0015867,0.2,0.44,0
0.17648,-0.023668,0.80408,-0.79097,-0.80819,-1.0158,0.0092095,0,0,0.43842,0.11917,0,0.042265,0,0,0.69268,-0.031742,0,0.69356,-0.69358,-0.90559,-1.0158,44.21,-0.87166,0.33205,-0.0011512,0.22,0.44,0
0.18489,-0.02268,0.78327,-0.79196,-0.7973,-0.99895,0.022359,0,0,0.40364,0.11189,0,0.10933,0,0,0.6955,-0.051947,0,0.69793,-0.68539,-0.90386,-0.99895,44.172,-0.86274,0.32361,-0.00074795,0.24,0.44,0
0.19263,-0.020768,0.76235,-0.79274,-0.78877,-0.98269,0.038171,0,0,0.37039,0.10128,0,0.18892,0,0,0.70027,-0.07427,0,0.70521,-0.67667,-0.90485,-0.98269,44.295,-0.85473,0.31804,-0.00035327,0.26,0.44,0
0.19971,-0.01769,0.74125,-0.79547,-0.78294,-0.96769,0.060369,0,0,0.33582,0.088,0,0.29731,0,0,0.70874,-0.10087,0,0.71764,-0.66559,-0.91283,-0.96769,44.414,-0.8487,0.31853,0.00013064,0.28,0.44,0
0.20606,-0.012842,0.71982,-0.81251,-0.78724,-0.95981,0.093274,0,0,0.28723,0.07333,0,0.45313,0,0,0.72412,-0.13592,0,0.73948,-0.65752,-0.94224,-0.95981,44.798,-0.85319,0.3283,0.00092122,0.3,0.44,0
0.21119,-0.0054985,0.6978,-0.86409,-0.79977,-0.96436,0.17884,0,0,0.19552,0.058843,0,0.81104,0,0,0.78061,-0.18725,0,0.80616,-0.61828,-1.0456,-0.96436,45.273,-0.87608,0.41505,0.0041405,0.32,0.44,0
0.21388,0.010679,0.67299,-0.85498,-1.029,-1.0138,0.26676,0,0,0.2513,-0.1074,0,1.1727,0,0,0.69232,-0.37104,0,0.78828,-0.66125,-1.2227,-1.0138,36.283,-0.96594,0.49632,0.0048322,0.34,0.44,0
0.22359,0.01851,0.65626,-0.9459,-1.2677,-1.3204,0.22019,0,0,0.48679,0.068398,0,0.5725,0,0,0.79905,-0.37251,0,0.87948,-0.8341,-1.3796,-1.3204,26.92,-1.178,0.5184,0.0068416,0.36,0.44,0
0.23335,0.022104,0.64102,-0.90827,-1.2159,-1.2783,0.15153,0,0,0.48099,0.081122,0,0.39397,0,0,0.76281,-0.28692,0,0.81441,-0.84617,-1.278,-1.2783,22.287,-1.1341,0.43195,0.0041393,0.38,0.44,0
0.24283,0.025057,0.62575,-0.89757,-1.169,-1.2457,0.12647,0,0,0.45262,0.099702,0,0.32882,0,0,0.77038,-0.22353,0,0.80179,-0.84778,-1.2188,-1.2457,21.488,-1.1041,0.38521,0.0028874,0.4,0.44,0
0.25146,0.027617,0.61021,-0.90904,-1.1134,-1.2169,0.10433,0,0,0.40026,0.13463,0,0.27126,0,0,0.78746,-0.16344,0,0.8039,-0.86518,-1.1572,-1.2169,22.8,-1.0798,0.32603,0.0015806,0.42,0.44,0
0.25884,0.029786,0.59425,-0.93436,-1.0461,-1.1884,0.074711,0,0,0.33025,0.18495,0,0.19425,0,0,0.81131,-0.098134,0,0.81681,-0.89695,-1.0836,-1.1884,26.602,-1.0563,0.25569,0.0003977,0.44,0.44,0
0.26467,0.031214,0.57776,-0.97098,-0.97805,-1.1625,0.029579,0,0,0.24893,0.23974,0,0.076906,0,0,0.84602,-0.022871,0,0.84581,-0.94473,-1.0043,-1.1625,41.591,-1.0372,0.19491,-0.00026391,0.46,0.44,0
0.2688,0.031297,0.56041,-1.0373,-0.92921,-1.1504,-0.029285,0,0,0.14697,0.28751,0,-0.076142,0,0,0.91538,0.067824,0,0.91762,-0.92179,-1.0447,-1.1504,-75.776,-1.039,0.19815,5.2284e-05,0.48,0.44,0
0.27055,0.029696,0.54114,-1.0993,-0.84172,-1.1234,-0.099608,0,0,0.031422,0.36623,0,-0.25898,0,0,1.0086,0.15867,0,1.0241,-0.80769,-1.1333,-1.1234,-71.139,-1.0215,0.32079,0.00169,0.5,0.44,0
0.27005,0.025727,0.52007,-1.1269,-0.64004,-1.0501,-0.086741,0,0,-0.099751,0.53313,0,-0.22553,0,0,1.0894,0.070958,0,1.0912,-0.62505,-1.1419,-1.0501,-80.193,-0.93902,0.47761,0.004907,0.52,0.44,0
0.26656,0.021885,0.49756,-1.1915,-0.61403,-1.0392,-0.058225,0,0,-0.19795,0.55275,0,-0.15138,0,0,1.1307,0.037511,0,1.1313,-0.60822,-1.1973,-1.0392,-84.299,-0.94825,0.5281,0.0053418,0.54,0.44,0
0.26213,0.01927,0.47484,-1.1938,-0.58632,-1.0089,-0.035732,0,0,-0.24036,0.54931,0,-0.092904,0,0,1.14,0.019356,0,1.1402,-0.58422,-1.1959,-1.0089,-86.645,-0.92965,0.54285,0.0050505,0.56,0.44,0
0.25694,0.017216,0.45197,-1.1944,-0.56701,-0.98038,-0.024196,0,0,-0.2782,0.53739,0,-0.062909,0,0,1.1459,0.0083279,0,1.1459,-0.56607,-1.1953,-0.98038,-87.795,-0.91392,0.55398,0.0045103,0.58,0.44,0
0.251,0.015557,0.429,-1.1958,-0.55086,-0.95299,-0.016674,0,0,-0.31561,0.52277,0,-0.043352,0,0,1.1496,0.0012294,0,1.1496,-0.55043,-1.1962,-0.95299,-88.52,-0.89987,0.5649,0.0038137,0.6,0.44,0
0.24432,0.014189,0.40598,-1.1981,-0.53602,-0.9262,-0.011477,0,0,-0.35341,0.50724,0,-0.029841,0,0,1.152,-0.0034603,0,1.152,-0.53582,-1.1983,-0.9262,-89.007,-0.88676,0.57673,0.0029897,0.62,0.44,0
0.23687,0.01306,0.38292,-1.2009,-0.5216,-0.89967,-0.0076231,0,0,-0.3916,0.49149,0,-0.01982,0,0,1.1536,-0.0065933,0,1.1536,-0.52151,-1.201,-0.89967,-89.357,-0.87406,0.58969,0.0020469,0.64,0.44,0
0.22865,0.012136,0.35984,-1.2041,-0.50728,-0.87324,-0.0046265,0,0,-0.43006,0.47574,0,-0.012029,0,0,1.1544,-0.0087073,0,1.1545,-0.50725,-1.2041,-0.87324,-89.62,-0.86152,0.60373,0.0009857,0.66,0.44,0
0.21967,0.011397,0.33674,-1.2073,-0.49297,-0.84682,-0.0021654,0,0,-0.4686,0.46,0,-0.00563,0,0,1.1548,-0.010178,0,1.1548,-0.49296,-1.2073,-0.84682,-89.826,-0.84902,0.61863,-0.00019499,0.68,0.44,0
0.20991,0.010825,0.31365,-1.2104,-0.47866,-0.82037,8.6768e-07,0,0,-0.50705,0.44422,0,2.256e-06,0,0,1.1546,-0.011293,0,1.1547,-0.47866,-1.2104,-0.82037,90,-0.83648,0.63417,-0.0014946,0.7,0.44,0
0.19939,0.01041,0.29056,-1.2133,-0.46441,-0.79386,0.0020721,0,0,-0.54523,0.42829,0,0.0053874,0,0,1.154,-0.012298,0,1.1541,-0.4644,-1.2133,-0.79386,89.841,-0.82385,0.6501,-0.0029101,0.72,0.44,0
0.1881,0.010142,0.26749,-1.2157,-0.45027,-0.76728,0.0042265,0,0,-0.58295,0.41211,0,0.010989,0,0,1.1529,-0.013422,0,1.153,-0.45025,-1.2157,-0.76728,89.684,-0.81108,0.66617,-0.0044346,0.74,0.44,0
0.17607,0.010016,0.24444,-1.2175,-0.43637,-0.74062,0.0066398,0,0,-0.62001,0.39553,0,0.017264,0,0,1.1512,-0.014908,0,1.1513,-0.43631,-1.2176,-0.74062,89.513,-0.79818,0.68211,-0.0060573,0.76,0.44,0
0.1633,0.010029,0.22144,-1.2186,-0.42283,-0.71387,0.0095139,0,0,-0.65617,0.37836,0,0.024736,0,0,1.1488,-0.017045,0,1.1489,-0.42271,-1.2187,-0.71387,89.315,-0.78511,0.6976,-0.0077612,0.78,0.44,0
0.14982,0.010181,0.19849,-1.2187,-0.40989,-0.68706,0.013136,0,0,-0.69109,0.36032,0,0.034155,0,0,1.1454,-0.020212,0,1.1456,-0.40968,-1.2189,-0.68706,89.07,-0.77187,0.71224,-0.0095209,0.8,0.44,0
0.13566,0.010479,0.17562,-1.2173,-0.39794,-0.66021,0.01799,0,0,-0.72428,0.34095,0,0.046774,0,0,1.1407,-0.024969,0,1.141,-0.39754,-1.2177,-0.66021,88.743,-0.7585,0.72545,-0.011297,0.82,0.44,0
0.12085,0.010944,0.15286,-1.2141,-0.38764,-0.63338,0.025023,0,0,-0.75489,0.31945,0,0.065059,0,0,1.1342,-0.032244,0,1.1346,-0.38688,-1.2148,-0.63338,88.267,-0.74503,0.73631,-0.013025,0.84,0.44,0
0.10546,0.01162,0.13026,-1.2072,-0.37993,-0.6064,0.035803,0,0,-0.78106,0.29441,0,0.093088,0,0,1.1248,-0.043786,0,1.1256,-0.37838,-1.2088,-0.6064,87.527,-0.73118,0.74309,-0.014578,0.86,0.44,0
0.089607,0.012561,0.10787,-1.1913,-0.37606,-0.5781,0.054313,0,0,-0.79722,0.26264,0,0.14121,0,0,1.1116,-0.063502,0,1.1133,-0.37246,-1.1949,-0.5781,86.205,-0.71517,0.74138,-0.015627,0.88,0.44,0
0.073572,0.013938,0.085794,-1.1271,-0.36532,-0.53352,0.074114,0,0,-0.77165,0.21866,0,0.1927,0,0,1.065,-0.10178,0,1.0691,-0.35817,-1.1342,-0.53352,84.495,-0.67531,0.70495,-0.014309,0.9,0.44,0
0.058741,0.014382,0.065272,-1.0909,-0.41918,-0.51831,0.095779,0,0,-0.74442,0.12886,0,0.24903,0,0,0.97578,-0.20686,0,1.0011,-0.40579,-1.1043,-0.51831,82.042,-0.67614,0.64963,-0.012668,0.92,0.44,0
0.043795,0.013481,0.046763,-1.0315,-0.36263,-0.46501,0.067668,0,0,-0.73648,0.1331,0,0.17594,0,0,0.87161,-0.14151,0,0.8835,-0.35585,-1.0383,-0.46501,84.281,-0.61972,0.63495,-0.011848,0.94,0.44,0
0.029281,0.01324,0.030407,-0.97797,-0.321,-0.4201,0.050888,0,0,-0.72523,0.12882,0,0.13231,0,0,0.79388,-0.077994,0,0.79763,-0.31708,-0.98189,-0.4201,85.597,-0.57302,0.61975,-0.011096,0.96,0.44,0
0.014786,0.013302,0.015007,-0.95028,-0.29028,-0.38717,0.027323,0,0,-0.73203,0.12597,0,0.071039,0,0,0.76018,-0.034176,0,0.76082,-0.28914,-0.9514,-0.38717,87.633,-0.54257,0.61909,-0.011164,0.98,0.44,0
0,0.01337,0,-0.92288,-0.25779,-0.3542,0.0012941,0,0,-0.73929,0.12534,0,0.0033648,0,0,0.75036,1.7347e-18,0,0.75022,-0.25778,-0.92289,-0.3542,89.888,-0.51162,0.62252,-0.011395,1,0.44,0
0,0.027353,1,-0.83812,-1.7036,-1.7625,-0.0034195,0,0,1.2017,0.076612,0,-0.0088906,0,0,0.70428,-2.7374e-15,0,0.70416,-0.83811,-1.7036,-1.7625,-0.22637,-1.4347,0.8964,0.036455,0,0.46,0
0.024034,0.027175,0.98591,-0.82476,-1.6704,-1.7345,-0.0081034,0,0,1.1826,0.083265,0,-0.021069,0,0,0.70804,0.03197,0,0.70863,-0.82468,-1.6705,-1.7345,-0.54896,-1.4099,0.87955,0.034323,0.02,0.46,0
0.047305,0.02649,0.97168,-0.8378,-1.6345,-1.7134,-0.022775,0,0,1.1382,0.10257,0,-0.059215,0,0,0.72055,0.067705,0,0.72358,-0.83715,-1.6351,-1.7134,-1.6362,-1.3952,0.83982,0.029533,0.04,0.46,0
0.069563,0.024923,0.95709,-0.85547,-1.5872,-1.6899,-0.053722,0,0,1.0848,0.13347,0,-0.13968,0,0,0.74832,0.1115,0,0.75643,-0.85154,-1.5912,-1.6899,-4.1765,-1.3775,0.79361,0.024336,0.06,0.46,0
0.090695,0.021392,0.94175,-0.9096,-1.5468,-1.6787,-0.11152,0,0,0.99979,0.17142,0,-0.28996,0,0,0.81258,0.1692,0,0.83029,-0.89065,-1.5658,-1.6787,-9.6461,-1.3784,0.73808,0.019032,0.08,0.46,0
0.10955,0.014524,0.92459,-0.96968,-1.3841,-1.6307,-0.18612,0,0,0.85935,0.32062,0,-0.4839,0,0,0.89899,0.22153,0,0.92864,-0.89836,-1.4554,-1.6307,-20.965,-1.3282,0.66234,0.011473,0.1,0.46,0
0.12507,0.0046932,0.90579,-0.97927,-1.0113,-1.5029,-0.15091,0,0,0.68078,0.63919,0,-0.39236,0,0,0.97099,0.11054,0,0.97636,-0.84351,-1.147,-1.5029,-41.974,-1.1645,0.57169,-0.0013162,0.12,0.46,0
0.13679,-0.0026033,0.88575,-1.0516,-0.95514,-1.4878,-0.085781,0,0,0.56702,0.69242,0,-0.22303,0,0,1.0045,0.062347,0,1.0063,-0.90496,-1.1018,-1.4878,-59.674,-1.1648,0.51352,-0.0036691,0.14,0.46,0
0.14775,-0.0065436,0.86561,-1.0408,-0.90471,-1.4492,-0.041029,0,0,0.53103,0.7079,0,-0.10668,0,0,1.0094,0.031061,0,1.0098,-0.8933,-1.0522,-1.4492,-74.452,-1.1316,0.49598,-0.0041671,0.16,0.46,0
0.15803,-0.0087372,0.84537,-1.0366,-0.874,-1.4185,-0.017991,0,0,0.49659,0.7079,0,-0.046777,0,0,1.0132,0.0070296,0,1.0132,-0.87203,-1.0385,-1.4185,-83.759,-1.1097,0.48518,-0.0036226,0.18,0.46,0
0.16761,-0.0097391,0.82508,-1.0364,-0.853,-1.3919,-0.002326,0,0,0.46219,0.70056,0,-0.0060476,0,0,1.016,-0.013842,0,1.0161,-0.85297,-1.0364,-1.3919,-89.273,-1.0938,0.47458,-0.002855,0.2,0.46,0
0.17651,-0.0098579,0.80473,-1.0384,-0.83841,-1.3678,0.010607,0,0,0.4282,0.68817,0,0.027577,0,0,1.0186,-0.033861,0,1.0191,-0.83784,-1.039,-1.3678,86.972,-1.0815,0.46335,-0.002059,0.22,0.46,0
0.18474,-0.0091887,0.78434,-1.0419,-0.8292,-1.3457,0.024143,0,0,0.39485,0.67143,0,0.062772,0,0,1.0211,-0.054831,0,1.0226,-0.8265,-1.0447,-1.3457,83.606,-1.0723,0.45153,-0.001287,0.24,0.46,0
0.19231,-0.0076682,0.76389,-1.0478,-0.82621,-1.3261,0.041622,0,0,0.36181,0.64983,0,0.10822,0,0,1.0244,-0.078704,0,1.0274,-0.81865,-1.0553,-1.3261,79.704,-1.0667,0.43978,-0.00050679,0.26,0.46,0
0.19921,-0.0050391,0.74336,-1.0574,-0.83199,-1.3102,0.067567,0,0,0.32862,0.62164,0,0.17567,0,0,1.0291,-0.10829,0,1.0347,-0.81329,-1.0761,-1.3102,74.528,-1.0665,0.43056,0.00040965,0.28,0.46,0
0.20545,-0.00084835,0.72272,-1.0714,-0.85368,-1.3003,0.11432,0,0,0.29746,0.58055,0,0.29724,0,0,1.0373,-0.14884,0,1.0477,-0.80468,-1.1204,-1.3003,66.802,-1.0751,0.43453,0.0019127,0.3,0.46,0
0.21111,0.0061626,0.70187,-1.0084,-0.87619,-1.2672,0.17771,0,0,0.33651,0.50836,0,0.46205,0,0,1.0182,-0.21291,0,1.0389,-0.75269,-1.1319,-1.2672,55.201,-1.0506,0.462,0.0036376,0.32,0.46,0
0.21891,0.014761,0.68199,-1.007,-1.1575,-1.3314,0.21992,0,0,0.4216,0.22602,0,0.57178,0,0,0.95725,-0.36321,0,1.0257,-0.84984,-1.3147,-1.3314,35.558,-1.1653,0.4734,0.0054263,0.34,0.46,0
0.22798,0.020533,0.66358,-0.95776,-1.2154,-1.3155,0.16991,0,0,0.46511,0.13013,0,0.44177,0,0,0.87991,-0.33385,0,0.94139,-0.87336,-1.2998,-1.3155,26.414,-1.1629,0.43454,0.0041955,0.36,0.46,0
0.23752,0.024289,0.6468,-0.92322,-1.1901,-1.2808,0.14211,0,0,0.46484,0.11792,0,0.36949,0,0,0.83003,-0.28491,0,0.87732,-0.86171,-1.2516,-1.2808,23.403,-1.1314,0.40526,0.0033586,0.38,0.46,0
0.24657,0.027414,0.63038,-0.92722,-1.162,-1.2572,0.13422,0,0,0.42892,0.12365,0,0.34897,0,0,0.82764,-0.23987,0,0.8615,-0.8663,-1.223,-1.2572,24.411,-1.1155,0.37493,0.002631,0.4,0.46,0
0.25467,0.030709,0.61369,-0.94477,-1.101,-1.2274,0.13076,0,0,0.36745,0.16434,0,0.33999,0,0,0.84764,-0.18898,0,0.86828,-0.87057,-1.1752,-1.2274,29.573,-1.0911,0.33383,0.0017541,0.42,0.46,0
0.26127,0.034039,0.59647,-0.97367,-1.0102,-1.1916,0.11141,0,0,0.28336,0.23586,0,0.28968,0,0,0.87843,-0.12766,0,0.88743,-0.87903,-1.1048,-1.1916,40.344,-1.0585,0.2795,0.00076762,0.44,0.46,0
0.26601,0.03669,0.57856,-1.013,-0.92392,-1.1596,0.072249,0,0,0.19063,0.30642,0,0.18785,0,0,0.91838,-0.06031,0,0.92019,-0.88358,-1.0533,-1.1596,60.824,-1.0322,0.24116,0.00027768,0.46,0.46,0
0.26889,0.037984,0.55974,-1.0532,-0.85177,-1.1312,0.020707,0,0,0.10147,0.36328,0,0.053839,0,0,0.96797,0.003304,0,0.96823,-0.84967,-1.0553,-1.1312,84.19,-1.012,0.2523,0.00057987,0.48,0.46,0
0.27007,0.037497,0.53984,-1.0987,-0.78946,-1.1063,-0.02371,0,0,0.0098995,0.41185,0,-0.061645,0,0,1.0232,0.035249,0,1.0242,-0.78766,-1.1005,-1.1063,-85.64,-0.99813,0.31575,0.001615,0.5,0.46,0
0.26929,0.035409,0.51881,-1.1307,-0.69634,-1.0669,-0.048872,0,0,-0.082895,0.48175,0,-0.12707,0,0,1.0727,0.038947,0,1.0737,-0.6909,-1.1361,-1.0669,-83.659,-0.96464,0.41496,0.0033283,0.52,0.46,0
0.26675,0.032695,0.49693,-1.159,-0.62774,-1.0329,-0.042566,0,0,-0.16383,0.52676,0,-0.11067,0,0,1.1074,0.021863,0,1.1076,-0.62435,-1.1623,-1.0329,-85.448,-0.93988,0.48638,0.0045293,0.54,0.46,0
0.26274,0.030101,0.47452,-1.1815,-0.59744,-1.0082,-0.030199,0,0,-0.22526,0.53397,0,-0.078517,0,0,1.1272,0.010267,0,1.1272,-0.59588,-1.183,-1.0082,-87.048,-0.92903,0.52215,0.004644,0.56,0.46,0
0.25774,0.027882,0.45184,-1.1897,-0.57475,-0.98119,-0.019531,0,0,-0.27111,0.52837,0,-0.050781,0,0,1.1377,0.0025256,0,1.1377,-0.57413,-1.1904,-0.98119,-88.183,-0.91522,0.54276,0.0042921,0.58,0.46,0
0.25189,0.025963,0.42901,-1.1951,-0.55651,-0.95448,-0.012084,0,0,-0.31277,0.51737,0,-0.031418,0,0,1.1443,-0.0025996,0,1.1443,-0.55628,-1.1953,-0.95448,-88.916,-0.90202,0.55898,0.0036883,0.6,0.46,0
0.24523,0.024306,0.40607,-1.1995,-0.54017,-0.92798,-0.0067034,0,0,-0.35303,0.50416,0,-0.017429,0,0,1.1485,-0.0059696,0,1.1486,-0.5401,-1.1996,-0.92798,-89.418,-0.88923,0.57411,0.0029116,0.62,0.46,0
0.23777,0.022874,0.38306,-1.2037,-0.52472,-0.9016,-0.0027836,0,0,-0.39278,0.48995,0,-0.0072374,0,0,1.1513,-0.0081517,0,1.1513,-0.5247,-1.2038,-0.9016,-89.765,-0.87669,0.58926,0.0019888,0.64,0.46,0
0.22952,0.021644,0.36002,-1.2077,-0.5097,-0.87523,0.00013132,0,0,-0.43217,0.47519,0,0.00034142,0,0,1.1529,-0.0095354,0,1.1529,-0.5097,-1.2077,-0.87523,89.989,-0.8642,0.60469,0.00093108,0.66,0.46,0
0.22048,0.020594,0.33695,-1.2112,-0.49495,-0.84881,0.0023647,0,0,-0.47118,0.46002,0,0.0061481,0,0,1.1537,-0.010403,0,1.1537,-0.49494,-1.2113,-0.84881,89.811,-0.85167,0.62036,-0.00025453,0.68,0.46,0
0.21067,0.019709,0.31387,-1.2144,-0.48041,-0.8223,0.0041692,0,0,-0.50969,0.44446,0,0.01084,0,0,1.1538,-0.010974,0,1.1538,-0.48039,-1.2144,-0.8223,89.674,-0.83903,0.63616,-0.0015611,0.7,0.46,0
0.2001,0.018974,0.2908,-1.2169,-0.4661,-0.7957,0.0057479,0,0,-0.54757,0.42848,0,0.014944,0,0,1.1532,-0.011431,0,1.1532,-0.46606,-1.2169,-0.7957,89.561,-0.82624,0.65191,-0.0029796,0.72,0.46,0
0.18877,0.018378,0.26774,-1.2187,-0.45206,-0.76898,0.0072682,0,0,-0.58468,0.41199,0,0.018897,0,0,1.1519,-0.011945,0,1.1519,-0.45199,-1.2188,-0.76898,89.457,-0.81326,0.66739,-0.0044979,0.74,0.46,0
0.17671,0.017914,0.24472,-1.2197,-0.43839,-0.74214,0.0088745,0,0,-0.62079,0.39487,0,0.023074,0,0,1.1498,-0.012692,0,1.1498,-0.43829,-1.2198,-0.74214,89.349,-0.80007,0.68233,-0.0060985,0.76,0.46,0
0.16394,0.017574,0.22175,-1.2195,-0.42524,-0.71516,0.010703,0,0,-0.65558,0.3769,0,0.027829,0,0,1.1466,-0.013876,0,1.1467,-0.4251,-1.2196,-0.71516,89.228,-0.78662,0.69636,-0.0077557,0.78,0.46,0
0.15049,0.017351,0.19886,-1.2177,-0.41288,-0.68802,0.012908,0,0,-0.68854,0.35768,0,0.033561,0,0,1.1421,-0.015755,0,1.1422,-0.41267,-1.2179,-0.68802,89.081,-0.77285,0.70884,-0.0094281,0.8,0.46,0
0.1364,0.017239,0.17607,-1.2134,-0.40178,-0.66063,0.015707,0,0,-0.71865,0.33652,0,0.040838,0,0,1.1356,-0.018699,0,1.1357,-0.40147,-1.2137,-0.66063,88.892,-0.75862,0.71864,-0.011043,0.82,0.46,0
0.12174,0.017234,0.15344,-1.205,-0.39274,-0.63277,0.01939,0,0,-0.74394,0.31203,0,0.050413,0,0,1.126,-0.023279,0,1.1263,-0.39228,-1.2055,-0.63277,88.633,-0.74352,0.72359,-0.01246,0.84,0.46,0
0.10664,0.017329,0.13103,-1.189,-0.38727,-0.60391,0.024403,0,0,-0.76061,0.28163,0,0.063448,0,0,1.1113,-0.030467,0,1.1118,-0.38653,-1.1897,-0.60391,88.258,-0.72672,0.71958,-0.013413,0.86,0.46,0
0.091316,0.017512,0.10898,-1.1572,-0.38661,-0.57214,0.029242,0,0,-0.76062,0.24118,0,0.07603,0,0,1.0848,-0.04199,0,1.0857,-0.38551,-1.1583,-0.57214,87.83,-0.70533,0.69847,-0.01338,0.88,0.46,0
0.076214,0.017542,0.087637,-1.1239,-0.4057,-0.54653,0.030816,0,0,-0.75062,0.18307,0,0.080122,0,0,1.0389,-0.061324,0,1.0412,-0.40438,-1.1252,-0.54653,87.548,-0.69205,0.66135,-0.012574,0.9,0.46,0
0.061291,0.017175,0.067426,-1.0859,-0.40043,-0.51334,0.022481,0,0,-0.74438,0.14678,0,0.05845,0,0,0.9722,-0.066816,0,0.97534,-0.3997,-1.0867,-0.51334,88.124,-0.66657,0.6378,-0.011912,0.92,0.46,0
0.046439,0.016582,0.048749,-1.0439,-0.34739,-0.46615,0.02174,0,0,-0.75113,0.15438,0,0.056525,0,0,0.89658,-0.056067,0,0.89932,-0.34671,-1.0446,-0.46615,88.214,-0.61916,0.64651,-0.012298,0.94,0.46,0
0.031246,0.016291,0.031563,-1.0171,-0.30462,-0.42807,0.020636,0,0,-0.76569,0.16048,0,0.053654,0,0,0.83107,-0.030041,0,0.83201,-0.30403,-1.0177,-0.42807,88.342,-0.58325,0.66041,-0.013051,0.96,0.46,0
0.015811,0.01633,0.015506,-0.99629,-0.27004,-0.39541,0.012518,0,0,-0.78115,0.16298,0,0.032548,0,0,0.78908,-0.011297,0,0.78923,-0.26982,-0.99651,-0.39541,89.013,-0.55391,0.67274,-0.013819,0.98,0.46,0
0,0.016384,0,-0.97056,-0.23753,-0.36243,0.0010377,0,0,-0.79057,0.16237,0,0.0026981,0,0,0.77528,-9.541e-18,0,0.77525,-0.23753,-0.97056,-0.36243,89.919,-0.52351,0.67925,-0.014279,1,0.46,0
0,0.028918,1,-0.83139,-1.7031,-1.7604,-0.00040538,0,0,1.2076,0.074421,0,-0.001054,0,0,0.73279,-2.5474e-15,0,0.73272,-0.83139,-1.7031,-1.7604,-0.026645,-1.4316,0.9017,0.037142,0,0.48,0
0.024153,0.028897,0.98534,-0.81752,-1.6659,-1.7304,0.0013638,0,0,1.1867,0.083857,0,0.0035459,0,0,0.73798,0.023561,0,0.7383,-0.81752,-1.6659,-1.7304,0.092111,-1.4046,0.88235,0.034647,0.02,0.48,0
0.047467,0.028688,0.97048,-0.82997,-1.6189,-1.7051,-0.0047898,0,0,1.1377,0.11209,0,-0.012453,0,0,0.75456,0.049256,0,0.75616,-0.82994,-1.6189,-1.7051,-0.34783,-1.3847,0.83545,0.028877,0.04,0.48,0
0.069662,0.027828,0.95516,-0.85469,-1.5573,-1.6788,-0.025444,0,0,1.0713,0.15788,0,-0.066154,0,0,0.78583,0.077955,0,0.78982,-0.85377,-1.5582,-1.6788,-2.0712,-1.3636,0.77182,0.021685,0.06,0.48,0
0.090319,0.025612,0.93905,-0.89396,-1.4682,-1.6477,-0.065055,0,0,0.97986,0.23333,0,-0.16914,0,0,0.83186,0.10446,0,0.8389,-0.88668,-1.4755,-1.6477,-6.383,-1.3366,0.6912,0.013477,0.08,0.48,0
0.10886,0.02143,0.92189,-0.94676,-1.3242,-1.6032,-0.10403,0,0,0.85336,0.36262,0,-0.27048,0,0,0.88542,0.10568,0,0.89217,-0.91999,-1.351,-1.6032,-14.431,-1.2914,0.59839,0.004787,0.1,0.48,0
0.12445,0.015918,0.90363,-0.98548,-1.1183,-1.5348,-0.11041,0,0,0.71406,0.54143,0,-0.28707,0,0,0.933,0.085343,0,0.93708,-0.92304,-1.1807,-1.5348,-29.49,-1.2128,0.53195,-0.0020778,0.12,0.48,0
0.13742,0.010943,0.88457,-1.0242,-0.98698,-1.4879,-0.075336,0,0,0.60287,0.65121,0,-0.19587,0,0,0.96514,0.050449,0,0.96641,-0.92797,-1.0832,-1.4879,-51.931,-1.1663,0.50071,-0.004421,0.14,0.48,0
0.14857,0.0074513,0.86503,-1.0473,-0.92881,-1.4579,-0.041408,0,0,0.53376,0.68775,0,-0.10766,0,0,0.98257,0.024223,0,0.98284,-0.91577,-1.0603,-1.4579,-72.52,-1.1446,0.4862,-0.0041917,0.16,0.48,0
0.15877,0.0053517,0.84527,-1.0491,-0.8909,-1.4273,-0.017237,0,0,0.49161,0.69728,0,-0.044818,0,0,0.99109,0.0027134,0,0.99106,-0.88904,-1.051,-1.4273,-83.853,-1.1224,0.47828,-0.0035251,0.18,0.48,0
0.16823,0.0042239,0.82538,-1.0488,-0.8667,-1.4,-0.00048224,0,0,0.45664,0.69331,0,-0.0012538,0,0,0.99579,-0.016597,0,0.99589,-0.8667,-1.0488,-1.4,-89.848,-1.1052,0.46955,-0.0027497,0.2,0.48,0
0.17703,0.0038591,0.80543,-1.049,-0.85138,-1.3756,0.013553,0,0,0.42448,0.68143,0,0.035238,0,0,0.99804,-0.035568,0,0.99864,-0.85046,-1.05,-1.3756,86.096,-1.092,0.4591,-0.001996,0.22,0.48,0
0.18521,0.0041768,0.78546,-1.0504,-0.84377,-1.3537,0.028048,0,0,0.3943,0.66293,0,0.072925,0,0,0.99841,-0.055857,0,0.99993,-0.84003,-1.0541,-1.3537,82.406,-1.0826,0.44691,-0.0012988,0.24,0.48,0
0.19281,0.0052251,0.7655,-1.0519,-0.8451,-1.3346,0.046281,0,0,0.36754,0.63633,0,0.12033,0,0,0.99695,-0.079358,0,1,-0.83521,-1.0617,-1.3346,77.942,-1.0772,0.43309,-0.00066645,0.26,0.48,0
0.19991,0.0071762,0.74558,-1.0504,-0.85947,-1.3186,0.072902,0,0,0.34855,0.59681,0,0.18954,0,0,0.99298,-0.1087,0,0.99881,-0.83482,-1.0751,-1.3186,71.32,-1.0762,0.41893,-4.3168e-05,0.28,0.48,0
0.20675,0.01038,0.72578,-1.0301,-0.88137,-1.2992,0.10202,0,0,0.34984,0.54321,0,0.26525,0,0,0.98445,-0.14949,0,0.99553,-0.82949,-1.082,-1.2992,63.046,-1.0702,0.40718,0.00044949,0.3,0.48,0
0.21407,0.014836,0.70632,-0.98584,-0.96933,-1.2929,0.14952,0,0,0.39914,0.4206,0,0.38874,0,0,0.9511,-0.21002,0,0.97388,-0.82784,-1.1273,-1.2929,46.58,-1.0827,0.40826,0.0016582,0.32,0.48,0
0.22238,0.019719,0.68752,-0.97529,-1.116,-1.3149,0.15471,0,0,0.44151,0.25853,0,0.40224,0,0,0.91753,-0.25067,0,0.95136,-0.87571,-1.2156,-1.3149,32.769,-1.1354,0.39895,0.0025928,0.34,0.48,0
0.23173,0.023715,0.66962,-0.94138,-1.1741,-1.3042,0.14209,0,0,0.47173,0.16924,0,0.36943,0,0,0.87735,-0.27824,0,0.92065,-0.87408,-1.2414,-1.3042,25.345,-1.1399,0.40243,0.0030736,0.36,0.48,0
0.24125,0.026821,0.65242,-0.92965,-1.1891,-1.2881,0.1359,0,0,0.46593,0.12858,0,0.35335,0,0,0.8568,-0.27781,0,0.90067,-0.87151,-1.2473,-1.2881,23.163,-1.1356,0.39774,0.0031175,0.38,0.48,0
0.25037,0.030003,0.63535,-0.93871,-1.1738,-1.2691,0.14976,0,0,0.42952,0.12386,0,0.38938,0,0,0.8663,-0.26654,0,0.90645,-0.86588,-1.2467,-1.2691,25.934,-1.1272,0.39249,0.0030711,0.4,0.48,0
0.25843,0.034191,0.61777,-0.9729,-1.1132,-1.2436,0.16693,0,0,0.35192,0.16949,0,0.43402,0,0,0.89967,-0.22679,0,0.92785,-0.86199,-1.2241,-1.2436,33.601,-1.1099,0.37227,0.0026253,0.42,0.48,0
0.26444,0.039221,0.59936,-1.0017,-0.96802,-1.1903,0.15839,0,0,0.2451,0.28895,0,0.4118,0,0,0.93998,-0.1659,0,0.95437,-0.8256,-1.1442,-1.1903,48.039,-1.0534,0.34395,0.0019637,0.44,0.48,0
0.26824,0.043471,0.58017,-1.0404,-0.85902,-1.15,0.10752,0,0,0.14245,0.37828,0,0.27954,0,0,0.97699,-0.094849,0,0.98136,-0.80905,-1.0904,-1.15,65.076,-1.0165,0.31539,0.0014192,0.46,0.48,0
0.27014,0.045828,0.56028,-1.078,-0.80289,-1.1246,0.054027,0,0,0.060464,0.41818,0,0.14047,0,0,1.0109,-0.044199,0,1.0119,-0.79266,-1.0883,-1.1246,79.28,-1.0018,0.31533,0.0015387,0.48,0.48,0
0.27065,0.04617,0.53973,-1.1023,-0.74912,-1.0952,0.01132,0,0,-0.0092439,0.44983,0,0.029433,0,0,1.0443,-0.013084,0,1.0445,-0.74876,-1.1026,-1.0952,88.166,-0.98218,0.35018,0.0022021,0.5,0.48,0
0.26977,0.044997,0.51851,-1.1256,-0.69177,-1.0637,-0.012726,0,0,-0.080448,0.48354,0,-0.033087,0,0,1.076,-0.0004312,0,1.0761,-0.6914,-1.126,-1.0637,-88.321,-0.96037,0.40704,0.0031922,0.52,0.48,0
0.26744,0.042955,0.49669,-1.1486,-0.64206,-1.0339,-0.020116,0,0,-0.14915,0.50938,0,-0.052301,0,0,1.1021,0.00083657,0,1.1021,-0.64127,-1.1494,-1.0339,-87.73,-0.94153,0.46137,0.0039978,0.54,0.48,0
0.26381,0.040629,0.47443,-1.168,-0.60618,-1.0067,-0.016536,0,0,-0.20972,0.52066,0,-0.042993,0,0,1.1207,-0.0025382,0,1.1207,-0.60569,-1.1685,-1.0067,-88.316,-0.92696,0.50186,0.0042895,0.56,0.48,0
0.25905,0.03835,0.45186,-1.1827,-0.58167,-0.98118,-0.010249,0,0,-0.262,0.51936,0,-0.026647,0,0,1.133,-0.0057438,0,1.133,-0.5815,-1.1829,-0.98118,-89.023,-0.91519,0.53015,0.0040873,0.58,0.48,0
0.25333,0.036252,0.42911,-1.1927,-0.56162,-0.9554,-0.0044459,0,0,-0.30848,0.51192,0,-0.01156,0,0,1.1411,-0.0080939,0,1.1411,-0.56159,-1.1927,-0.9554,-89.596,-0.90324,0.55215,0.0035771,0.6,0.48,0
0.24671,0.034356,0.40622,-1.2004,-0.54392,-0.9295,1.3026e-05,0,0,-0.35211,0.50126,0,3.3868e-05,0,0,1.1465,-0.0096123,0,1.1465,-0.54392,-1.2004,-0.9295,89.999,-0.89126,0.57138,0.0028469,0.62,0.48,0
0.23924,0.032658,0.38325,-1.2066,-0.52744,-0.90345,0.0032552,0,0,-0.39406,0.48881,0,0.0084634,0,0,1.15,-0.010475,0,1.1501,-0.52742,-1.2066,-0.90345,89.725,-0.87915,0.5893,0.0019402,0.64,0.48,0
0.23095,0.031144,0.36022,-1.2117,-0.51169,-0.87724,0.0055374,0,0,-0.43482,0.47522,0,0.014397,0,0,1.1522,-0.01086,0,1.1522,-0.51164,-1.2118,-0.87724,89.547,-0.86688,0.60652,0.00087998,0.66,0.48,0
0.22185,0.029797,0.33716,-1.2159,-0.49644,-0.85087,0.0071247,0,0,-0.47458,0.46076,0,0.018524,0,0,1.1533,-0.010915,0,1.1534,-0.49637,-1.216,-0.85087,89.433,-0.85441,0.62324,-0.00031793,0.68,0.48,0
0.21196,0.028604,0.31409,-1.2192,-0.48159,-0.82434,0.0082369,0,0,-0.51338,0.44557,0,0.021416,0,0,1.1536,-0.010763,0,1.1536,-0.4815,-1.2193,-0.82434,89.36,-0.84172,0.63952,-0.0016399,0.7,0.48,0
0.20131,0.027549,0.29102,-1.2217,-0.46712,-0.79765,0.0090458,0,0,-0.55121,0.42969,0,0.023519,0,0,1.153,-0.010509,0,1.1531,-0.46701,-1.2218,-0.79765,89.313,-0.82881,0.65531,-0.0030716,0.72,0.48,0
0.18992,0.026622,0.26797,-1.2231,-0.45304,-0.7708,0.0096784,0,0,-0.58797,0.41309,0,0.025164,0,0,1.1516,-0.010244,0,1.1517,-0.45292,-1.2232,-0.7708,89.28,-0.81564,0.67047,-0.0045962,0.74,0.48,0
0.17779,0.025811,0.24495,-1.2234,-0.43942,-0.74379,0.010219,0,0,-0.62347,0.39569,0,0.026569,0,0,1.1493,-0.010058,0,1.1493,-0.43929,-1.2235,-0.74379,89.253,-0.8022,0.68479,-0.0061921,0.76,0.48,0
0.16498,0.025105,0.22199,-1.2223,-0.42639,-0.7166,0.0107,0,0,-0.65741,0.37728,0,0.027821,0,0,1.1457,-0.010042,0,1.1458,-0.42625,-1.2225,-0.7166,89.23,-0.78843,0.6979,-0.0078289,0.78,0.48,0
0.1515,0.024488,0.19912,-1.2194,-0.41419,-0.6892,0.011079,0,0,-0.68926,0.35752,0,0.028806,0,0,1.1406,-0.010292,0,1.1406,-0.41403,-1.2196,-0.6892,89.212,-0.77426,0.70917,-0.0094608,0.8,0.48,0
0.13741,0.02394,0.17637,-1.2139,-0.40325,-0.66151,0.011156,0,0,-0.71807,0.33573,0,0.029005,0,0,1.1332,-0.010906,0,1.1333,-0.4031,-1.214,-0.66151,89.212,-0.75954,0.71751,-0.011012,0.82,0.48,0
0.12277,0.023425,0.15379,-1.2043,-0.3944,-0.63339,0.010424,0,0,-0.74213,0.31069,0,0.027101,0,0,1.1224,-0.011937,0,1.1225,-0.39426,-1.2044,-0.63339,89.263,-0.74402,0.72095,-0.012351,0.84,0.48,0
0.10772,0.022885,0.13148,-1.188,-0.38877,-0.60449,0.0075774,0,0,-0.7585,0.28044,0,0.019701,0,0,1.106,-0.013223,0,1.1062,-0.3887,-1.188,-0.60449,89.457,-0.72707,0.71624,-0.013256,0.86,0.48,0
0.092435,0.022208,0.10955,-1.1642,-0.3893,-0.57561,0.00039573,0,0,-0.76518,0.2422,0,0.0010289,0,0,1.0807,-0.013776,0,1.0809,-0.3893,-1.1642,-0.57561,89.971,-0.70971,0.70059,-0.01354,0.88,0.48,0
0.077114,0.021261,0.088247,-1.1283,-0.39015,-0.5438,-0.011555,0,0,-0.75992,0.19974,0,-0.030044,0,0,1.0402,-0.0080677,0,1.0405,-0.38997,-1.1285,-0.5438,-89.103,-0.68743,0.67493,-0.013067,0.9,0.48,0
0.062039,0.020253,0.067944,-1.0945,-0.39315,-0.51424,-0.020253,0,0,-0.75435,0.15743,0,-0.052659,0,0,0.98104,0.012191,0,0.98182,-0.39256,-1.0951,-0.51424,-88.347,-0.6673,0.65029,-0.012473,0.92,0.48,0
0.04694,0.019656,0.049005,-1.0558,-0.35762,-0.47304,-0.0095544,0,0,-0.75763,0.15005,0,-0.024841,0,0,0.92124,0.014975,0,0.92216,-0.35748,-1.056,-0.47304,-89.216,-0.62883,0.64846,-0.012519,0.94,0.48,0
0.03168,0.019659,0.031609,-1.0281,-0.30081,-0.43028,-0.0017408,0,0,-0.77715,0.16831,0,-0.0045261,0,0,0.82826,0.021644,0,0.82921,-0.30081,-1.0281,-0.43028,-89.863,-0.58639,0.67197,-0.013654,0.96,0.48,0
0.015995,0.019821,0.015459,-1.0069,-0.26716,-0.39768,-0.0044278,0,0,-0.792,0.16968,0,-0.011512,0,0,0.79022,0.018223,0,0.79053,-0.26713,-1.0069,-0.39768,-89.657,-0.55725,0.68394,-0.014434,0.98,0.48,0
0,0.019864,0,-0.97958,-0.235,-0.36437,0.00082357,0,0,-0.79976,0.16818,0,0.0021413,0,0,0.77296,-1.6914e-17,0,0.77289,-0.235,-0.97958,-0.36437,89.937,-0.52632,0.68906,-0.014826,1,0.48,0
0,0.030329,1,-0.82167,-1.7129,-1.7604,0.0038388,0,0,1.2203,0.061682,0,0.0099808,0,0,0.7514,-7.1037e-16,0,0.75138,-0.82166,-1.7129,-1.7604,0.24677,-1.4317,0.91593,0.039108,0,0.5,0
0.024406,0.030529,0.98497,-0.8083,-1.6718,-1.729,0.011831,0,0,1.1969,0.074407,0,0.030762,0,0,0.7573,0.012718,0,0.7574,-0.80814,-1.6719,-1.729,0.7849,-1.403,0.89368,0.036154,0.02,0.5,0
0.047876,0.030974,0.96971,-0.82496,-1.6147,-1.7016,0.01612,0,0,1.1396,0.11296,0,0.041912,0,0,0.77494,0.026838,0,0.77547,-0.82464,-1.6151,-1.7016,1.1688,-1.3804,0.83706,0.029039,0.04,0.5,0
0.069992,0.031238,0.95397,-0.85332,-1.5325,-1.6697,0.0062709,0,0,1.0613,0.17843,0,0.016304,0,0,0.80353,0.041796,0,0.80479,-0.85326,-1.5325,-1.6697,0.52899,-1.3518,0.75722,0.019855,0.06,0.5,0
0.090328,0.030725,0.93757,-0.89358,-1.4238,-1.6328,-0.01815,0,0,0.96095,0.27172,0,-0.04719,0,0,0.84031,0.052883,0,0.84223,-0.89296,-1.4244,-1.6328,-1.9584,-1.3167,0.66074,0.0099987,0.08,0.5,0
0.10843,0.029029,0.92036,-0.91367,-1.2798,-1.5784,-0.044541,0,0,0.86414,0.38821,0,-0.11581,0,0,0.87333,0.062205,0,0.87575,-0.90833,-1.2851,-1.5784,-6.8378,-1.2573,0.58179,0.0021626,0.1,0.5,0
0.12407,0.02635,0.90237,-1.0061,-1.1487,-1.5488,-0.060522,0,0,0.7055,0.52017,0,-0.15736,0,0,0.92118,0.051848,0,0.92275,-0.98389,-1.1709,-1.5488,-20.166,-1.2345,0.49846,-0.0034752,0.12,0.5,0
0.13742,0.023445,0.88373,-1.0152,-1.0231,-1.4952,-0.052171,0,0,0.62402,0.61379,0,-0.13564,0,0,0.94335,0.03072,0,0.94389,-0.96681,-1.0714,-1.4952,-42.844,-1.1778,0.48463,-0.0049397,0.14,0.5,0
0.14904,0.020966,0.86464,-1.0368,-0.95007,-1.4607,-0.034045,0,0,0.55112,0.6638,0,-0.088518,0,0,0.96164,0.013046,0,0.96172,-0.9383,-1.0485,-1.4607,-70.924,-1.1492,0.47692,-0.0045841,0.16,0.5,0
0.15946,0.019154,0.84527,-1.0464,-0.90751,-1.4314,-0.015668,0,0,0.50054,0.68111,0,-0.040736,0,0,0.97236,-0.0035817,0,0.97235,-0.90576,-1.0482,-1.4314,-83.644,-1.1285,0.47091,-0.0037565,0.18,0.5,0
0.16906,0.017993,0.82574,-1.0486,-0.88067,-1.4045,0.0004988,0,0,0.46274,0.681,0,0.0012969,0,0,0.97776,-0.019633,0,0.97794,-0.88067,-1.0486,-1.4045,89.83,-1.1113,0.46331,-0.002939,0.2,0.5,0
0.17797,0.017399,0.80616,-1.0487,-0.86468,-1.3802,0.015102,0,0,0.43091,0.67013,0,0.039264,0,0,0.97928,-0.03603,0,0.97992,-0.86345,-1.0499,-1.3802,85.339,-1.0978,0.45323,-0.0021988,0.22,0.5,0
0.18629,0.017328,0.78657,-1.0477,-0.85813,-1.3583,0.02975,0,0,0.40378,0.65026,0,0.07735,0,0,0.97734,-0.053892,0,0.97879,-0.85357,-1.0523,-1.3583,81.289,-1.0881,0.44041,-0.001572,0.24,0.5,0
0.19412,0.017785,0.76706,-1.044,-0.86301,-1.3392,0.046319,0,0,0.3837,0.61901,0,0.12043,0,0,0.97157,-0.074611,0,0.9744,-0.85184,-1.0552,-1.3392,76.448,-1.0821,0.42396,-0.0011034,0.26,0.5,0
0.20164,0.018833,0.74771,-1.0326,-0.88406,-1.3227,0.066429,0,0,0.37718,0.57022,0,0.17272,0,0,0.96059,-0.099977,0,0.96573,-0.85869,-1.0579,-1.3227,69.09,-1.0798,0.40318,-0.00081314,0.28,0.5,0
0.20921,0.020516,0.72864,-1.0197,-0.94144,-1.317,0.089548,0,0,0.38645,0.48821,0,0.23283,0,0,0.94604,-0.12825,0,0.95465,-0.88285,-1.0783,-1.317,56.804,-1.0927,0.37659,-0.00047018,0.3,0.5,0
0.21726,0.022725,0.71002,-0.9763,-1.013,-1.3068,0.11028,0,0,0.42967,0.38192,0,0.28673,0,0,0.91024,-0.16321,0,0.92479,-0.88286,-1.1065,-1.3068,40.273,-1.0987,0.36734,0.00024137,0.32,0.5,0
0.22612,0.025102,0.69202,-0.95657,-1.1043,-1.3103,0.11886,0,0,0.45982,0.26777,0,0.30904,0,0,0.88277,-0.20589,0,0.90655,-0.8905,-1.1704,-1.3103,29.07,-1.1237,0.37022,0.0014077,0.34,0.5,0
0.23565,0.027303,0.67471,-0.93666,-1.1698,-1.3067,0.12365,0,0,0.48098,0.17789,0,0.32149,0,0,0.85277,-0.23888,0,0.88562,-0.8833,-1.2232,-1.3067,23.344,-1.1377,0.3884,0.002547,0.36,0.5,0
0.24536,0.029433,0.65791,-0.92896,-1.2004,-1.2967,0.13895,0,0,0.47809,0.12519,0,0.36128,0,0,0.84172,-0.27065,0,0.88401,-0.87045,-1.2589,-1.2967,22.836,-1.142,0.40869,0.0034052,0.38,0.5,0
0.25478,0.032368,0.64104,-0.96079,-1.2239,-1.2965,0.17611,0,0,0.43636,0.094304,0,0.45788,0,0,0.87865,-0.30955,0,0.93167,-0.87252,-1.3122,-1.2965,26.62,-1.1604,0.432,0.0041222,0.4,0.5,0
0.26282,0.037489,0.62276,-1.0106,-1.1593,-1.2737,0.2353,0,0,0.34211,0.14874,0,0.61179,0,0,0.94829,-0.3338,0,1.0071,-0.83816,-1.3317,-1.2737,36.23,-1.1479,0.46726,0.0049688,0.42,0.5,0
0.26846,0.045597,0.60311,-1.0146,-0.85488,-1.164,0.19507,0,0,0.19412,0.40181,0,0.50718,0,0,1.0104,-0.18204,0,1.0252,-0.72397,-1.1456,-1.164,56.134,-1.0112,0.43108,0.004089,0.44,0.5,0
0.27058,0.051821,0.58235,-1.082,-0.8175,-1.1522,0.13863,0,0,0.091269,0.4351,0,0.36044,0,0,1.0393,-0.11147,0,1.045,-0.75816,-1.1413,-1.1522,66.825,-1.0172,0.38873,0.0030089,0.46,0.5,0
0.27181,0.054711,0.5615,-1.1014,-0.77329,-1.1239,0.06211,0,0,0.029254,0.45581,0,0.16149,0,0,1.0522,-0.066567,0,1.0543,-0.76192,-1.1128,-1.1239,79.632,-0.99954,0.35655,0.0023204,0.48,0.5,0
0.27208,0.055491,0.54036,-1.0866,-0.7184,-1.0819,0.03767,0,0,-0.0061673,0.4725,0,0.097942,0,0,1.0637,-0.038389,0,1.0644,-0.71458,-1.0904,-1.0819,84.218,-0.96229,0.37163,0.0026314,0.5,0.5,0
0.27118,0.054751,0.51883,-1.1309,-0.68708,-1.0642,0.0077923,0,0,-0.086684,0.49028,0,0.02026,0,0,1.09,-0.022858,0,1.0902,-0.68694,-1.131,-1.0642,88.995,-0.96073,0.41474,0.0033457,0.52,0.5,0
0.26903,0.05307,0.49689,-1.1236,-0.63587,-1.0247,0.0024998,0,0,-0.12856,0.50554,0,0.0064995,0,0,1.1024,-0.016049,0,1.1025,-0.63585,-1.1237,-1.0247,89.706,-0.92808,0.44663,0.0038303,0.54,0.5,0
0.26562,0.050928,0.47462,-1.1717,-0.61573,-1.0108,-0.0012387,0,0,-0.20907,0.51363,0,-0.0032205,0,0,1.1228,-0.013859,0,1.1229,-0.61573,-1.1717,-1.0108,-89.872,-0.93274,0.4955,0.004101,0.56,0.5,0
0.26105,0.048657,0.45207,-1.1648,-0.58005,-0.97554,0.0010986,0,0,-0.24609,0.51414,0,0.0028563,0,0,1.1305,-0.013445,0,1.1306,-0.58004,-1.1648,-0.97554,89.892,-0.90681,0.51684,0.004018,0.58,0.5,0
0.25543,0.04644,0.42933,-1.2021,-0.56933,-0.96076,0.0046401,0,0,-0.31374,0.50886,0,0.012064,0,0,1.1416,-0.013347,0,1.1416,-0.56929,-1.2021,-0.96076,89.58,-0.91072,0.55316,0.0034514,0.6,0.5,0
0.24883,0.044356,0.40645,-1.1921,-0.54205,-0.9267,0.006281,0,0,-0.34502,0.50004,0,0.016331,0,0,1.1454,-0.013156,0,1.1455,-0.54199,-1.1922,-0.9267,89.447,-0.88695,0.56621,0.0029016,0.62,0.5,0
0.24132,0.042427,0.38348,-1.2204,-0.53359,-0.90968,0.0091208,0,0,-0.40394,0.48892,0,0.023714,0,0,1.1505,-0.012776,0,1.1506,-0.53346,-1.2205,-0.90968,89.239,-0.88789,0.59591,0.0017812,0.64,0.5,0
0.23296,0.040653,0.36045,-1.217,-0.51279,-0.8794,0.011736,0,0,-0.43892,0.47659,0,0.030514,0,0,1.1525,-0.012504,0,1.1525,-0.5126,-1.2172,-0.8794,89.046,-0.86974,0.6104,0.00083116,0.66,0.5,0
0.22376,0.039025,0.33738,-1.2219,-0.4971,-0.85308,0.012231,0,0,-0.47946,0.46278,0,0.0318,0,0,1.1538,-0.011627,0,1.1539,-0.49689,-1.2221,-0.85308,89.034,-0.85736,0.62809,-0.00038993,0.68,0.5,0
0.21378,0.037532,0.3143,-1.2255,-0.48193,-0.82653,0.012334,0,0,-0.51865,0.44797,0,0.032067,0,0,1.1542,-0.010652,0,1.1542,-0.48173,-1.2257,-0.82653,89.05,-0.84465,0.64487,-0.0017377,0.7,0.5,0
0.20302,0.036161,0.29122,-1.2279,-0.46724,-0.79976,0.012134,0,0,-0.55658,0.43228,0,0.031547,0,0,1.1537,-0.0095954,0,1.1537,-0.46705,-1.2281,-0.79976,89.086,-0.83163,0.66082,-0.0031944,0.72,0.5,0
0.19151,0.034902,0.26815,-1.2291,-0.453,-0.77279,0.011681,0,0,-0.59324,0.41573,0,0.030371,0,0,1.1523,-0.0084643,0,1.1523,-0.45282,-1.2293,-0.77279,89.138,-0.8183,0.67591,-0.0047404,0.74,0.5,0
0.17929,0.033742,0.24513,-1.2291,-0.43924,-0.74562,0.010981,0,0,-0.6285,0.3983,0,0.028552,0,0,1.15,-0.0072554,0,1.15,-0.43909,-1.2292,-0.74562,89.204,-0.80465,0.68999,-0.0063523,0.76,0.5,0
0.16637,0.032665,0.22215,-1.2276,-0.42604,-0.71824,0.0099693,0,0,-0.66215,0.37987,0,0.02592,0,0,1.1464,-0.0059432,0,1.1464,-0.42591,-1.2277,-0.71824,89.287,-0.79062,0.70281,-0.008,0.78,0.5,0
0.1528,0.031651,0.19927,-1.2244,-0.41356,-0.69065,0.0084561,0,0,-0.69384,0.36022,0,0.021986,0,0,1.1412,-0.0044618,0,1.1412,-0.41347,-1.2245,-0.69065,89.403,-0.77619,0.71396,-0.009644,0.8,0.5,0
0.13862,0.030668,0.17651,-1.2191,-0.4021,-0.66287,0.0060142,0,0,-0.72311,0.339,0,0.015637,0,0,1.1339,-0.0026569,0,1.1339,-0.40205,-1.2192,-0.66287,89.578,-0.76136,0.72289,-0.011233,0.82,0.5,0
0.12388,0.029662,0.15391,-1.2114,-0.39213,-0.63499,0.0017548,0,0,-0.74941,0.31572,0,0.0045625,0,0,1.1237,-0.00016634,0,1.1237,-0.39212,-1.2115,-0.63499,89.877,-0.74619,0.72891,-0.012702,0.84,0.5,0
0.10864,0.028547,0.13156,-1.2015,-0.38439,-0.60733,-0.0059369,0,0,-0.77244,0.28982,0,-0.015436,0,0,1.1095,0.0039044,0,1.1095,-0.38434,-1.2015,-0.60733,-89.584,-0.73108,0.73166,-0.013997,0.86,0.5,0
0.092981,0.0272,0.10953,-1.1888,-0.37824,-0.57966,-0.0192,0,0,-0.79193,0.26184,0,-0.04992,0,0,1.09,0.011926,0,1.0901,-0.37779,-1.1893,-0.57966,-88.644,-0.71558,0.73175,-0.01508,0.88,0.5,0
0.076967,0.025532,0.087959,-1.1692,-0.37135,-0.55012,-0.040592,0,0,-0.80478,0.2324,0,-0.10554,0,0,1.0649,0.029035,0,1.0653,-0.36929,-1.1712,-0.55012,-87.095,-0.69689,0.72857,-0.015813,0.9,0.5,0
0.06079,0.023472,0.066939,-1.1067,-0.35089,-0.5042,-0.061082,0,0,-0.7832,0.19931,0,-0.15881,0,0,1.0091,0.066212,0,1.0107,-0.34598,-1.1116,-0.5042,-85.409,-0.65392,0.70002,-0.014629,0.92,0.5,0
0.045639,0.022511,0.047594,-1.0623,-0.37764,-0.47957,-0.094352,0,0,-0.75753,0.13251,0,-0.24532,0,0,0.96725,0.16568,0,0.98443,-0.36488,-1.0751,-0.47957,-82.295,-0.63983,0.66034,-0.013297,0.94,0.5,0
0.030213,0.023022,0.030219,-1.0067,-0.31644,-0.42715,-0.052238,0,0,-0.75337,0.14392,0,-0.13582,0,0,0.77209,0.10625,0,0.77978,-0.3125,-1.0106,-0.42715,-85.696,-0.58342,0.64841,-0.012539,0.96,0.5,0
0.015146,0.023117,0.014777,-0.96753,-0.27326,-0.38701,-0.022534,0,0,-0.75467,0.14788,0,-0.058588,0,0,0.76101,0.042882,0,0.76198,-0.27253,-0.96826,-0.38701,-88.143,-0.5426,0.64614,-0.012402,0.98,0.5,0
0,0.023111,0,-0.92576,-0.21837,-0.34324,-0.00011408,0,0,-0.75728,0.16233,0,-0.00029662,0,0,0.73884,-1.3878e-17,0,0.73871,-0.21837,-0.92576,-0.34324,-89.991,-0.49579,0.65396,-0.012617,1,0.5,0
0,0.031385,1,-0.81226,-1.7336,-1.7638,0.0093827,0,0,1.237,0.039171,0,0.024395,0,0,0.75822,-2.5674e-16,0,0.75822,-0.81217,-1.7337,-1.7638,0.58338,-1.4366,0.93695,0.042098,0,0.52,0
0.024739,0.031873,0.98484,-0.78637,-1.6792,-1.7245,0.02134,0,0,1.2196,0.058926,0,0.055484,0,0,0.76262,0.0022222,0,0.76265,-0.78586,-1.6797,-1.7245,1.3685,-1.3967,0.91705,0.039291,0.02,0.52,0
0.048435,0.033206,0.96941,-0.83732,-1.6263,-1.7085,0.04261,0,0,1.1325,0.10681,0,0.11079,0,0,0.78771,0.0064604,0,0.78783,-0.83502,-1.6286,-1.7085,3.0822,-1.3907,0.83641,0.029131,0.04,0.52,0
0.070563,0.034965,0.95349,-0.8541,-1.5201,-1.6657,0.044664,0,0,1.0551,0.18937,0,0.11613,0,0,0.81188,0.0073326,0,0.81208,-0.85111,-1.5231,-1.6657,3.8198,-1.3466,0.75349,0.019342,0.06,0.52,0
0.09064,0.036481,0.93693,-0.89514,-1.3913,-1.6229,0.02961,0,0,0.94604,0.30104,0,0.076986,0,0,0.84523,0.013473,0,0.84553,-0.89338,-1.393,-1.6229,3.4033,-1.3031,0.646,0.0081713,0.08,0.52,0
0.10841,0.037123,0.91968,-0.91008,-1.2376,-1.564,0.0078614,0,0,0.85008,0.4243,0,0.02044,0,0,0.87342,0.011568,0,0.87364,-0.90989,-1.2378,-1.564,1.3742,-1.2372,0.56646,4.2187e-05,0.1,0.52,0
0.12388,0.036695,0.90178,-0.99802,-1.1377,-1.5425,-0.020403,0,0,0.70782,0.52622,0,-0.053049,0,0,0.91303,0.011467,0,0.91319,-0.9951,-1.1406,-1.5425,-8.1421,-1.2261,0.49108,-0.0043299,0.12,0.52,0
0.13738,0.035494,0.88334,-1.0061,-1.0338,-1.4953,-0.02685,0,0,0.63595,0.59995,0,-0.06981,0,0,0.93188,0.0098843,0,0.93198,-0.98977,-1.0502,-1.4953,-31.359,-1.1784,0.47822,-0.0053159,0.14,0.52,0
0.14932,0.034003,0.8645,-1.0246,-0.96635,-1.4618,-0.02281,0,0,0.56838,0.64405,0,-0.059305,0,0,0.94827,0.00048303,0,0.94828,-0.95848,-1.0324,-1.4618,-70.956,-1.1509,0.4707,-0.0049134,0.16,0.52,0
0.16011,0.032596,0.84541,-1.0338,-0.92245,-1.4323,-0.011633,0,0,0.51801,0.66279,0,-0.030246,0,0,0.95841,-0.010524,0,0.95846,-0.92125,-1.035,-1.4323,-84.1,-1.1295,0.46472,-0.0041317,0.18,0.52,0
0.17004,0.031464,0.82617,-1.0374,-0.89479,-1.4058,0.0019871,0,0,0.47894,0.66435,0,0.0051666,0,0,0.96334,-0.022365,0,0.96359,-0.89477,-1.0374,-1.4058,89.202,-1.1127,0.45676,-0.0033325,0.2,0.52,0
0.17927,0.030665,0.80687,-1.0378,-0.87827,-1.3817,0.015925,0,0,0.44702,0.65447,0,0.041406,0,0,0.96378,-0.035111,0,0.9644,-0.8767,-1.0394,-1.3817,84.356,-1.0993,0.44647,-0.0026089,0.22,0.52,0
0.18792,0.030187,0.78762,-1.0359,-0.87178,-1.3599,0.029366,0,0,0.42122,0.63458,0,0.076352,0,0,0.95983,-0.049216,0,0.96107,-0.86669,-1.041,-1.3599,80.156,-1.0892,0.43323,-0.0020131,0.24,0.52,0
0.19612,0.029985,0.76848,-1.0296,-0.87736,-1.3406,0.041916,0,0,0.40428,0.60216,0,0.10898,0,0,0.95086,-0.065381,0,0.95309,-0.86658,-1.0404,-1.3406,75.578,-1.0825,0.41532,-0.0016282,0.26,0.52,0
0.20409,0.029985,0.74958,-1.016,-0.90133,-1.3248,0.053232,0,0,0.40145,0.55047,0,0.1384,0,0,0.93564,-0.084503,0,0.93945,-0.88043,-1.0369,-1.3248,68.558,-1.0807,0.39039,-0.0014851,0.28,0.52,0
0.21218,0.030094,0.73106,-0.99322,-0.95076,-1.3142,0.063266,0,0,0.41734,0.47254,0,0.16449,0,0,0.9129,-0.10743,0,0.91924,-0.90526,-1.0387,-1.3142,54.276,-1.0861,0.36125,-0.0013546,0.3,0.52,0
0.22079,0.030238,0.71306,-0.96438,-1.0265,-1.3103,0.073347,0,0,0.44974,0.36896,0,0.1907,0,0,0.88261,-0.13473,0,0.89293,-0.91579,-1.0751,-1.3103,33.522,-1.1004,0.34379,-0.00068005,0.32,0.52,0
0.23017,0.03043,0.69575,-0.93595,-1.113,-1.3104,0.086773,0,0,0.48681,0.25671,0,0.22561,0,0,0.84729,-0.16684,0,0.86366,-0.9005,-1.1484,-1.3104,22.218,-1.1198,0.35758,0.00082951,0.34,0.52,0
0.24026,0.03083,0.67917,-0.91606,-1.1858,-1.3097,0.10904,0,0,0.51177,0.16112,0,0.28351,0,0,0.81258,-0.20534,0,0.83811,-0.87749,-1.2244,-1.3097,19.478,-1.1372,0.3965,0.002708,0.36,0.52,0
0.25064,0.031829,0.66325,-0.91936,-1.24,-1.3111,0.14426,0,0,0.50921,0.092368,0,0.37507,0,0,0.78613,-0.2556,0,0.82628,-0.86401,-1.2954,-1.3111,20.99,-1.1568,0.4394,0.0043385,0.38,0.52,0
0.26063,0.033775,0.64773,-0.95516,-1.29,-1.3213,0.22567,0,0,0.47596,0.040627,0,0.58673,0,0,0.80316,-0.33326,0,0.86748,-0.8416,-1.4036,-1.3213,26.713,-1.1888,0.5257,0.006849,0.4,0.52,0
0.26968,0.040141,0.63112,-0.86929,-1.0434,-0.99457,0.282,0,0,0.17489,-0.17128,0,1.246,0,0,0.68478,-0.34126,0,0.76718,-0.66085,-1.2519,-0.99457,36.901,-0.9691,0.51754,0.003564,0.42,0.52,0
0.2704,0.055293,0.60664,-0.86509,-0.77742,-0.89718,0.19575,0,0,0.062572,-0.017734,0,0.90289,0,0,0.77403,-0.16339,0,0.79357,-0.5919,-1.0506,-0.89718,46.958,-0.84657,0.42135,0.0034643,0.44,0.52,0
0.27218,0.061227,0.58468,-0.80853,-0.73686,-0.8534,0.12271,0,0,0.085926,-0.015753,0,0.58069,0,0,0.73068,-0.11192,0,0.74125,-0.60693,-0.93846,-0.8534,47.17,-0.7996,0.3203,0.0016641,0.46,0.52,0
0.27371,0.064294,0.56305,-0.81588,-0.71248,-0.83387,0.063519,0,0,0.041002,-0.0057177,0,0.35547,0,0,0.72134,-0.078613,0,0.72701,-0.62302,-0.90533,-0.83387,52.284,-0.78741,0.27683,0.0011647,0.48,0.52,0
0.27429,0.0652,0.54141,-0.78724,-0.67084,-0.79836,0.056561,0,0,0.014197,0.011902,0,0.28513,0,0,0.72224,-0.056456,0,0.72532,-0.59658,-0.8615,-0.79836,50.767,-0.75215,0.26358,0.0012933,0.5,0.52,0
0.27368,0.064661,0.51956,-0.84349,-0.66215,-0.79807,0.029212,0,0,-0.080318,0.03459,0,0.17752,0,0,0.73602,-0.04179,0,0.73779,-0.60814,-0.8975,-0.79807,53.798,-0.7679,0.27359,0.001713,0.52,0.52,0
0.27174,0.063172,0.49745,-0.81509,-0.61675,-0.76118,0.026649,0,0,-0.11339,0.058219,0,0.14672,0,0,0.73825,-0.032397,0,0.73934,-0.57728,-0.85456,-0.76118,54.029,-0.73101,0.26723,0.0018428,0.54,0.52,0
0.26848,0.061148,0.47507,-0.87355,-0.61075,-0.762,0.017885,0,0,-0.20973,0.078855,0,0.10939,0,0,0.75258,-0.026464,0,0.7533,-0.58461,-0.8997,-0.762,56.877,-0.74877,0.29607,0.0019991,0.56,0.52,0
0.26397,0.058892,0.45246,-0.84609,-0.57149,-0.72692,0.016946,0,0,-0.23946,0.094382,0,0.098932,0,0,0.75425,-0.022571,0,0.75476,-0.55545,-0.86213,-0.72692,61.14,-0.71483,0.29381,0.0020178,0.58,0.52,0
0.25833,0.056595,0.42968,-0.89172,-0.56707,-0.72409,0.016189,0,0,-0.32045,0.10463,0,0.092657,0,0,0.76307,-0.019791,0,0.76345,-0.55778,-0.901,-0.72409,67.788,-0.72762,0.32473,0.001623,0.6,0.52,0
0.25167,0.054358,0.40678,-0.86495,-0.53446,-0.69101,0.015042,0,0,-0.34508,0.11043,0,0.087094,0,0,0.76398,-0.017594,0,0.76427,-0.52885,-0.87056,-0.69101,74.065,-0.69681,0.32425,0.0015242,0.62,0.52,0
0.24406,0.052224,0.38378,-0.89978,-0.53037,-0.6849,0.01578,0,0,-0.41351,0.11282,0,0.086991,0,0,0.76835,-0.015705,0,0.76858,-0.52658,-0.90357,-0.6849,78.206,-0.70501,0.35298,0.0007223,0.64,0.52,0
0.23557,0.050207,0.36072,-0.88745,-0.50763,-0.659,0.01475,0,0,-0.44546,0.11264,0,0.082249,0,0,0.76921,-0.013971,0,0.76939,-0.50491,-0.89016,-0.659,80.916,-0.68469,0.35947,0.00036158,0.66,0.52,0
0.22624,0.048309,0.33763,-0.88878,-0.49195,-0.6393,0.014081,0,0,-0.48648,0.11049,0,0.078116,0,0,0.77011,-0.012298,0,0.77025,-0.48992,-0.8908,-0.6393,82.746,-0.67334,0.37261,-0.00027076,0.68,0.52,0
0.21611,0.046523,0.31451,-0.88919,-0.47684,-0.61948,0.013185,0,0,-0.52593,0.10678,0,0.072899,0,0,0.77041,-0.010621,0,0.7705,-0.47532,-0.89071,-0.61948,84.115,-0.66184,0.38529,-0.00096824,0.7,0.52,0
0.2052,0.04484,0.2914,-0.88881,-0.46222,-0.59958,0.012042,0,0,-0.56401,0.10174,0,0.06642,0,0,0.77014,-0.0088846,0,0.77021,-0.46111,-0.88993,-0.59958,85.224,-0.6502,0.39752,-0.0017216,0.72,0.52,0
0.19355,0.043251,0.2683,-0.88768,-0.44805,-0.57959,0.010616,0,0,-0.60078,0.095532,0,0.058429,0,0,0.76931,-0.0070292,0,0.76935,-0.44727,-0.88846,-0.57959,86.188,-0.63844,0.40924,-0.002521,0.74,0.52,0
0.18117,0.041743,0.24524,-0.88574,-0.4343,-0.55951,0.0088381,0,0,-0.63615,0.088209,0,0.048523,0,0,0.76787,-0.0049784,0,0.76788,-0.43381,-0.88623,-0.55951,87.087,-0.62652,0.42036,-0.0033547,0.76,0.52,0
0.1681,0.0403,0.22223,-0.8829,-0.42097,-0.53932,0.0065827,0,0,-0.66998,0.079793,0,0.036012,0,0,0.76568,-0.0026209,0,0.76568,-0.42072,-0.88315,-0.53932,87.987,-0.6144,0.43075,-0.0042085,0.78,0.52,0
0.15437,0.038897,0.1993,-0.87905,-0.40808,-0.51901,0.0036259,0,0,-0.70208,0.070304,0,0.019739,0,0,0.76258,0.00021927,0,0.76258,-0.40801,-0.87912,-0.51901,88.964,-0.60205,0.44028,-0.0050665,0.8,0.52,0
0.14002,0.0375,0.17648,-0.8742,-0.39567,-0.49861,-0.00042436,0,0,-0.73239,0.05986,0,-0.0022286,0,0,0.75832,0.0038392,0,0.75834,-0.39567,-0.8742,-0.49861,-89.891,-0.58949,0.44894,-0.0059143,0.82,0.52,0
0.12508,0.036054,0.1538,-0.86876,-0.38383,-0.47831,-0.0062221,0,0,-0.76137,0.048894,0,-0.032968,0,0,0.75265,0.0087716,0,0.75274,-0.38366,-0.86893,-0.47831,-88.46,-0.57696,0.45711,-0.0067526,0.84,0.52,0
0.10957,0.034478,0.13132,-0.86394,-0.37254,-0.45849,-0.01475,0,0,-0.79063,0.038628,0,-0.076814,0,0,0.74543,0.016041,0,0.74572,-0.37167,-0.86481,-0.45849,-86.642,-0.56499,0.46614,-0.0076237,0.86,0.52,0
0.093454,0.032681,0.10908,-0.86222,-0.3615,-0.43983,-0.027475,0,0,-0.82365,0.031407,0,-0.13988,0,0,0.73723,0.027613,0,0.73801,-0.35887,-0.86485,-0.43983,-84.396,-0.55452,0.47911,-0.0086561,0.88,0.52,0
0.07662,0.030557,0.087085,-0.87052,-0.35278,-0.42505,-0.045562,0,0,-0.86867,0.030566,0,-0.22662,0,0,0.72967,0.04756,0,0.73178,-0.34665,-0.87666,-0.42505,-81.971,-0.54945,0.50143,-0.010201,0.9,0.52,0
0.058707,0.028226,0.065296,-0.89866,-0.34617,-0.41698,-0.07886,0,0,-0.93928,0.038476,0,-0.37092,0,0,0.74512,0.083605,0,0.75063,-0.33203,-0.91281,-0.41698,-78.923,-0.55394,0.54699,-0.013211,0.92,0.52,0
0.039049,0.024956,0.042378,-0.83957,-0.39833,-0.39962,-0.1469,0,0,-0.89957,-0.021426,0,-0.62616,0,0,0.66519,0.23677,0,0.70823,-0.35349,-0.88441,-0.39962,-72.403,-0.54584,0.50954,-0.010099,0.94,0.52,0
0.026058,0.025416,0.027359,-0.91016,-0.37377,-0.41254,-0.098244,0,0,-0.6469,0.050397,0,-0.25544,0,0,0.71,0.15782,0,0.7247,-0.35634,-0.92758,-0.41254,-79.941,-0.56549,0.54532,-0.0080313,0.96,0.52,0
0.013146,0.025399,0.013569,-0.8767,-0.33507,-0.3771,-0.045835,0,0,-0.64948,0.054638,0,-0.11917,0,0,0.68582,0.067764,0,0.68836,-0.33122,-0.88056,-0.3771,-85.197,-0.52963,0.52789,-0.0073633,0.98,0.52,0
0,0.025311,0,-0.86751,-0.33881,-0.36189,-0.0016989,0,0,-0.6573,0.030015,0,-0.0044172,0,0,0.67843,3.4694e-17,0,0.6778,-0.3388,-0.86751,-0.36189,-89.816,-0.52273,0.51755,-0.0070723,1,0.52,0
0,0.031896,1,-0.80603,-1.7646,-1.7712,0.01585,0,0,1.2547,0.0085676,0,0.041209,0,0,0.75124,2.2525e-15,0,0.75121,-0.80577,-1.7649,-1.7712,0.94702,-1.4473,0.96227,0.045757,0,0.54,0
0.025094,0.03272,0.98498,-0.78661,-1.7234,-1.738,0.031836,0,0,1.2368,0.018948,0,0.082774,0,0,0.75672,-0.01878,0,0.75696,-0.78553,-1.7245,-1.738,1.9442,-1.416,0.94578,0.04342,0.02,0.54,0
0.049113,0.03515,0.96962,-0.84304,-1.6631,-1.7215,0.075151,0,0,1.142,0.075859,0,0.19539,0,0,0.78724,-0.031786,0,0.78802,-0.83621,-1.6699,-1.7215,5.1929,-1.4092,0.86065,0.032347,0.04,0.54,0
0.071362,0.038813,0.95368,-0.85678,-1.5213,-1.6671,0.090321,0,0,1.0534,0.18957,0,0.23484,0,0,0.81484,-0.028932,0,0.81558,-0.84472,-1.5333,-1.6671,7.6042,-1.3484,0.76432,0.020585,0.06,0.54,0
0.091249,0.042766,0.93703,-0.89857,-1.3604,-1.6147,0.079869,0,0,0.93101,0.33058,0,0.20766,0,0,0.85017,-0.023045,0,0.85067,-0.88515,-1.3739,-1.6147,9.539,-1.2913,0.64388,0.007525,0.08,0.54,0
0.1086,0.045805,0.91967,-0.94084,-1.2163,-1.5668,0.047004,0,0,0.81378,0.45565,0,0.12221,0,0,0.88242,-0.014613,0,0.88266,-0.93304,-1.2241,-1.5668,9.4211,-1.2413,0.54948,-0.0011972,0.1,0.54,0
0.1238,0.047309,0.90173,-0.97424,-1.1081,-1.5264,0.012463,0,0,0.71785,0.54385,0,0.032403,0,0,0.90845,-0.0086583,0,0.90855,-0.97309,-1.1092,-1.5264,5.2745,-1.2029,0.49939,-0.0048296,0.12,0.54,0
0.13732,0.047443,0.88334,-0.99586,-1.0305,-1.4912,-0.0076203,0,0,0.644,0.59896,0,-0.019813,0,0,0.92781,-0.0078265,0,0.92788,-0.99425,-1.0321,-1.4912,-11.871,-1.1725,0.47919,-0.0055324,0.14,0.54,0
0.14956,0.046728,0.86462,-1.0077,-0.97399,-1.4591,-0.012359,0,0,0.58686,0.63067,0,-0.032132,0,0,0.94123,-0.011019,0,0.9413,-0.96994,-1.0117,-1.4591,-71.871,-1.1469,0.46968,-0.0051796,0.16,0.54,0
0.16079,0.045666,0.84569,-1.0144,-0.93466,-1.4304,-0.00668,0,0,0.54085,0.64445,0,-0.017368,0,0,0.94951,-0.016834,0,0.94966,-0.93411,-1.0149,-1.4304,-85.241,-1.1265,0.46122,-0.0045223,0.18,0.54,0
0.1712,0.044567,0.82664,-1.0175,-0.90813,-1.4043,0.0042116,0,0,0.50283,0.64508,0,0.01095,0,0,0.95317,-0.024293,0,0.95348,-0.90797,-1.0177,-1.4043,87.799,-1.11,0.45162,-0.0038055,0.2,0.54,0
0.1809,0.043578,0.80756,-1.0184,-0.89143,-1.3805,0.016678,0,0,0.47078,0.63579,0,0.043363,0,0,0.95243,-0.032912,0,0.953,-0.88927,-1.0205,-1.3805,82.638,-1.0968,0.44052,-0.0031123,0.22,0.54,0
0.19003,0.042712,0.78854,-1.0168,-0.88376,-1.3587,0.028183,0,0,0.44449,0.61743,0,0.073275,0,0,0.94707,-0.042553,0,0.94802,-0.87803,-1.0225,-1.3587,78.519,-1.0864,0.42717,-0.0025141,0.24,0.54,0
0.19868,0.041872,0.76968,-1.0115,-0.8871,-1.3393,0.036308,0,0,0.42606,0.58781,0,0.094401,0,0,0.93629,-0.05324,0,0.93781,-0.87728,-1.0213,-1.3393,74.866,-1.0793,0.40943,-0.0021103,0.26,0.54,0
0.20707,0.040852,0.75109,-0.99823,-0.90585,-1.3223,0.038803,0,0,0.42131,0.54141,0,0.10089,0,0,0.91855,-0.065059,0,0.92089,-0.89171,-1.0124,-1.3223,69.984,-1.0755,0.38473,-0.0019844,0.28,0.54,0
0.21554,0.039417,0.73294,-0.97442,-0.95123,-1.3106,0.035661,0,0,0.43707,0.46722,0,0.092718,0,0,0.89206,-0.078385,0,0.89561,-0.92533,-1.0003,-1.3106,54.005,-1.0788,0.35382,-0.0019348,0.3,0.54,0
0.22455,0.037484,0.71541,-0.94121,-1.0308,-1.307,0.035318,0,0,0.47552,0.35911,0,0.091827,0,0,0.85602,-0.096156,0,0.86161,-0.92895,-1.043,-1.307,19.133,-1.093,0.33587,-0.0012165,0.32,0.54,0
0.23456,0.03537,0.69869,-0.90544,-1.1326,-1.3101,0.049606,0,0,0.52607,0.23076,0,0.12898,0,0,0.81215,-0.12252,0,0.82159,-0.89508,-1.143,-1.3101,11.797,-1.116,0.36168,0.00080012,0.34,0.54,0
0.24559,0.033747,0.68292,-0.87029,-1.22,-1.31,0.084754,0,0,0.57162,0.11703,0,0.22036,0,0,0.76401,-0.16257,0,0.78124,-0.85083,-1.2394,-1.31,12.931,-1.1334,0.42827,0.0036679,0.36,0.54,0
0.25742,0.033127,0.66813,-0.83418,-1.2795,-1.3022,0.13826,0,0,0.60849,0.029521,0,0.35948,0,0,0.7138,-0.2198,0,0.7467,-0.79475,-1.319,-1.3022,15.918,-1.1387,0.51607,0.007034,0.38,0.54,0
0.26993,0.033994,0.65437,-0.73168,-1.3126,-1.2677,0.18642,0,0,0.69677,-0.058443,0,0.4847,0,0,0.62237,-0.30479,0,0.69167,-0.677,-1.3673,-1.2677,16.346,-1.104,0.64626,0.012759,0.4,0.54,0
0.28529,0.033676,0.64324,-0.6791,-1.1012,-0.96291,0.19519,0,0,0.3389,-0.2696,0,0.90536,0,0,0.5082,-0.30668,0,0.60679,-0.5806,-1.1997,-0.96291,28.049,-0.91439,0.54935,0.0091167,0.42,0.54,0
0.28349,0.044888,0.61564,-0.61969,-0.72096,-0.60741,0.1294,0,0,-0.047913,-0.44283,0,1.0094,0,0,0.43434,-0.12976,0,0.45356,-0.53137,-0.80928,-0.60741,34.316,-0.64935,0.24877,-0.00054876,0.44,0.54,0
0.28338,0.051191,0.59112,-0.5842,-0.6989,-0.58197,0.095057,0,0,-0.0087118,-0.45601,0,0.74145,0,0,0.39834,-0.099495,0,0.41049,-0.53053,-0.75256,-0.58197,29.449,-0.62169,0.2013,-0.00032856,0.46,0.54,0
0.28314,0.054482,0.56784,-0.57108,-0.68058,-0.56478,0.071285,0,0,-0.024579,-0.45161,0,0.55602,0,0,0.38403,-0.076756,0,0.39155,-0.53595,-0.71571,-0.56478,26.238,-0.60548,0.16722,-0.0002163,0.48,0.54,0
0.28239,0.055967,0.54504,-0.5637,-0.65937,-0.5486,0.054313,0,0,-0.058895,-0.43201,0,0.42364,0,0,0.37899,-0.059711,0,0.38362,-0.53916,-0.68391,-0.5486,24.314,-0.59056,0.14027,-0.00013959,0.5,0.54,0
0.28079,0.056134,0.52236,-0.56071,-0.63708,-0.53346,0.041712,0,0,-0.10627,-0.40413,0,0.32536,0,0,0.37804,-0.047102,0,0.38094,-0.54234,-0.65545,-0.53346,23.763,-0.57708,0.1178,-8.2346e-05,0.52,0.54,0
0.27814,0.055399,0.49967,-0.5598,-0.61442,-0.51882,0.03284,0,0,-0.15981,-0.37284,0,0.25615,0,0,0.379,-0.037901,0,0.38088,-0.5444,-0.62983,-0.51882,25.125,-0.56435,0.10068,-4.1234e-05,0.54,0.54,0
0.27439,0.054082,0.47689,-0.55971,-0.59235,-0.50458,0.026914,0,0,-0.215,-0.34231,0,0.20993,0,0,0.38066,-0.031219,0,0.38194,-0.54455,-0.60751,-0.50458,29.382,-0.55221,0.089875,-1.3988e-05,0.56,0.54,0
0.26954,0.052432,0.45399,-0.55961,-0.57148,-0.49066,0.023131,0,0,-0.26893,-0.3152,0,0.18043,0,0,0.38241,-0.026299,0,0.38331,-0.54166,-0.58942,-0.49066,37.808,-0.54058,0.085551,1.8304e-06,0.58,0.54,0
0.26364,0.050625,0.431,-0.5591,-0.552,-0.477,0.020722,0,0,-0.32021,-0.29252,0,0.16163,0,0,0.38393,-0.022554,0,0.38459,-0.53453,-0.57657,-0.477,49.86,-0.52937,0.086585,8.8472e-06,0.6,0.54,0
0.25673,0.048773,0.40792,-0.55803,-0.53382,-0.46353,0.019083,0,0,-0.36857,-0.27415,0,0.14885,0,0,0.38515,-0.019562,0,0.38564,-0.52333,-0.56853,-0.46353,61.194,-0.51846,0.091223,9.2831e-06,0.62,0.54,0
0.24889,0.04694,0.38478,-0.55646,-0.51674,-0.45022,0.017804,0,0,-0.41432,-0.25944,0,0.13887,0,0,0.38604,-0.017039,0,0.38642,-0.50993,-0.56327,-0.45022,69.06,-0.5078,0.097956,4.7035e-06,0.64,0.54,0
0.24016,0.045159,0.36159,-0.55446,-0.50054,-0.43703,0.016636,0,0,-0.45798,-0.24768,0,0.12976,0,0,0.38666,-0.014795,0,0.38694,-0.49582,-0.55918,-0.43703,74.162,-0.49734,0.10581,-3.9416e-06,0.66,0.54,0
0.23057,0.043445,0.33838,-0.55215,-0.48504,-0.42395,0.015433,0,0,-0.49998,-0.23826,0,0.12037,0,0,0.38703,-0.012698,0,0.38723,-0.48166,-0.55553,-0.42395,77.65,-0.48705,0.11424,-1.6132e-05,0.68,0.54,0
0.22016,0.041803,0.31515,-0.54961,-0.47013,-0.41097,0.0141,0,0,-0.54069,-0.23071,0,0.10998,0,0,0.38718,-0.010647,0,0.38733,-0.4677,-0.55204,-0.41097,80.233,-0.4769,0.12294,-3.1606e-05,0.7,0.54,0
0.20895,0.040231,0.29192,-0.54689,-0.4557,-0.39808,0.012565,0,0,-0.58034,-0.2247,0,0.098008,0,0,0.38714,-0.0085522,0,0.38723,-0.454,-0.54859,-0.39808,82.296,-0.46689,0.13177,-5.0243e-05,0.72,0.54,0
0.19695,0.038723,0.26869,-0.54403,-0.44169,-0.38528,0.010755,0,0,-0.61912,-0.21999,0,0.083889,0,0,0.38691,-0.0063242,0,0.38696,-0.44057,-0.54515,-0.38528,84.065,-0.457,0.14063,-7.2014e-05,0.74,0.54,0
0.18418,0.03727,0.24549,-0.54107,-0.42805,-0.37257,0.0085772,0,0,-0.65719,-0.21638,0,0.066902,0,0,0.38649,-0.003856,0,0.38651,-0.4274,-0.54172,-0.37257,85.685,-0.44723,0.14948,-9.7001e-05,0.76,0.54,0
0.17066,0.035857,0.22231,-0.53808,-0.41473,-0.35995,0.0059033,0,0,-0.69473,-0.21364,0,0.046046,0,0,0.38588,-0.0010061,0,0.38588,-0.41444,-0.53836,-0.35995,87.266,-0.43759,0.15837,-0.00012554,0.78,0.54,0
0.15639,0.034463,0.19918,-0.53518,-0.40167,-0.34745,0.0025498,0,0,-0.73215,-0.21146,0,0.019888,0,0,0.38509,0.0024291,0,0.38509,-0.40162,-0.53523,-0.34745,88.906,-0.4281,0.1674,-0.00015863,0.8,0.54,0
0.14138,0.033062,0.1761,-0.53262,-0.38877,-0.33512,-0.0017392,0,0,-0.77027,-0.20924,0,-0.013565,0,0,0.38416,0.0067582,0,0.38421,-0.38875,-0.53265,-0.33512,-89.307,-0.41884,0.17691,-0.00019877,0.82,0.54,0
0.12558,0.031618,0.15308,-0.53096,-0.37585,-0.32307,-0.0072859,0,0,-0.81076,-0.20583,0,-0.05683,0,0,0.38326,0.012465,0,0.38345,-0.3755,-0.5313,-0.32307,-87.317,-0.40996,0.18759,-0.00025185,0.84,0.54,0
0.10894,0.030092,0.13011,-0.53121,-0.36256,-0.3115,-0.014441,0,0,-0.85686,-0.19913,0,-0.11264,0,0,0.38289,0.020317,0,0.3834,-0.36133,-0.53244,-0.3115,-85.141,-0.40176,0.20072,-0.00033059,0.86,0.54,0
0.091308,0.028456,0.10714,-0.53544,-0.34856,-0.30091,-0.023371,0,0,-0.91465,-0.18583,0,-0.18229,0,0,0.38427,0.031525,0,0.38552,-0.34568,-0.53831,-0.30091,-82.979,-0.39497,0.21849,-0.00046076,0.88,0.54,0
0.072359,0.026754,0.084,-0.54697,-0.33351,-0.29214,-0.034258,0,0,-0.99384,-0.16131,0,-0.26721,0,0,0.39121,0.047948,0,0.39406,-0.32814,-0.55234,-0.29214,-81.103,-0.39087,0.24419,-0.00069338,0.9,0.54,0
0.051554,0.025011,0.060191,-0.57543,-0.32078,-0.28893,-0.045952,0,0,-1.1174,-0.12423,0,-0.35842,0,0,0.41548,0.072575,0,0.42176,-0.31274,-0.58347,-0.28893,-80.078,-0.39505,0.28338,-0.001141,0.92,0.54,0
0.027664,0.02357,0.034142,-0.59772,-0.33367,-0.30218,-0.080318,0,0,-0.78237,-0.061413,0,-0.35826,0,0,0.46927,0.19445,0,0.51704,-0.30892,-0.62247,-0.30218,-74.36,-0.41119,0.31698,-0.0016332,0.94,0.54,0
0.020259,0.025731,0.024054,-0.65387,-0.35369,-0.32632,-0.068267,0,0,-0.42581,-0.03558,0,-0.1775,0,0,0.55006,0.15244,0,0.56854,-0.3389,-0.66867,-0.32632,-77.771,-0.44463,0.33623,-0.0019431,0.96,0.54,0
0.010632,0.025897,0.01214,-0.7209,-0.34295,-0.3313,-0.040613,0,0,-0.50648,-0.015157,0,-0.10559,0,0,0.60136,0.067353,0,0.60432,-0.33864,-0.72521,-0.3313,-83.935,-0.46505,0.3903,-0.00305,0.98,0.54,0
0,0.025911,0,-0.72085,-0.31896,-0.31194,0.00026713,0,0,-0.53158,-0.0091174,0,0.00069455,0,0,0.60699,1.0408e-17,0,0.60636,-0.31896,-0.72085,-0.31194,89.962,-0.45058,0.40545,-0.0034198,1,0.54,0
0,0.031728,1,-0.80698,-1.801,-1.7824,0.02187,0,0,1.268,-0.024207,0,0.056863,0,0,0.72656,3.0132e-15,0,0.72641,-0.8065,-1.8015,-1.7824,1.2598,-1.4635,0.98559,0.049109,0,0.56,0
0.025361,0.032865,0.98547,-0.79728,-1.7651,-1.7542,0.047767,0,0,1.2439,-0.014145,0,0.12419,0,0,0.7383,-0.03546,0,0.73909,-0.79493,-1.7674,-1.7542,2.8188,-1.4388,0.96592,0.046257,0.02,0.56,0
0.049758,0.036454,0.97047,-0.82339,-1.6979,-1.7268,0.10306,0,0,1.1745,0.037682,0,0.26796,0,0,0.77054,-0.066751,0,0.77374,-0.81141,-1.7098,-1.7268,6.6316,-1.416,0.90705,0.038283,0.04,0.56,0
0.07234,0.042548,0.95465,-0.86685,-1.5454,-1.6783,0.14382,0,0,1.0549,0.1728,0,0.37394,0,0,0.81535,-0.074599,0,0.81917,-0.83763,-1.5746,-1.6783,11.486,-1.3635,0.79395,0.024232,0.06,0.56,0
0.091955,0.049704,0.93785,-0.90087,-1.3098,-1.6011,0.13477,0,0,0.91025,0.37861,0,0.35039,0,0,0.85955,-0.063511,0,0.86214,-0.86046,-1.3502,-1.6011,16.694,-1.2706,0.65242,0.007486,0.08,0.56,0
0.10875,0.055349,0.92026,-0.94291,-1.1572,-1.5503,0.077963,0,0,0.7896,0.51104,0,0.2027,0,0,0.89323,-0.040701,0,0.89419,-0.91755,-1.1825,-1.5503,18.021,-1.2168,0.55038,-0.0023697,0.1,0.56,0
0.12354,0.058449,0.90212,-0.97076,-1.0795,-1.5172,0.030131,0,0,0.71039,0.56899,0,0.078341,0,0,0.91534,-0.027681,0,0.91578,-0.96297,-1.0873,-1.5172,14.494,-1.1892,0.50371,-0.00524,0.12,0.56,0
0.13717,0.059453,0.88365,-0.97789,-1.0204,-1.4831,0.0038558,0,0,0.6568,0.6016,0,0.010025,0,0,0.92952,-0.021544,0,0.92979,-0.97755,-1.0207,-1.4831,5.1469,-1.1605,0.48544,-0.0057191,0.14,0.56,0
0.14981,0.05923,0.86494,-0.98338,-0.97637,-1.4529,-0.0042644,0,0,0.61033,0.61945,0,-0.011088,0,0,0.93927,-0.020099,0,0.93949,-0.97435,-0.9854,-1.4529,-64.725,-1.1375,0.47309,-0.0054282,0.16,0.56,0
0.16158,0.058374,0.84608,-0.98799,-0.94361,-1.4256,-0.0014566,0,0,0.56884,0.62654,0,-0.0037872,0,0,0.94514,-0.021691,0,0.94539,-0.94356,-0.98803,-1.4256,-88.122,-1.1191,0.46137,-0.0048863,0.18,0.56,0
0.17256,0.057267,0.82714,-0.99114,-0.9197,-1.4004,0.0071305,0,0,0.53203,0.6249,0,0.018539,0,0,0.94726,-0.025164,0,0.94759,-0.919,-0.99184,-1.4004,84.355,-1.1037,0.44942,-0.0042521,0.2,0.56,0
0.18286,0.056096,0.80819,-0.99234,-0.90308,-1.3768,0.017652,0,0,0.49982,0.61585,0,0.045894,0,0,0.94552,-0.029739,0,0.94599,-0.89972,-0.9957,-1.3768,79.21,-1.0908,0.43708,-0.0036013,0.22,0.56,0
0.19256,0.054884,0.78932,-0.99144,-0.89348,-1.3548,0.026984,0,0,0.47236,0.5997,0,0.070158,0,0,0.9395,-0.034853,0,0.94015,-0.88654,-0.99838,-1.3548,75.574,-1.0799,0.42356,-0.0030046,0.24,0.56,0
0.20175,0.053498,0.77061,-0.9881,-0.89222,-1.3347,0.031858,0,0,0.45059,0.57523,0,0.082831,0,0,0.92835,-0.039968,0,0.92924,-0.8826,-0.99772,-1.3347,73.197,-1.0717,0.40695,-0.0025502,0.26,0.56,0
0.21058,0.051641,0.75218,-0.98084,-0.90311,-1.3174,0.027463,0,0,0.43749,0.53854,0,0.071403,0,0,0.9105,-0.044384,0,0.91163,-0.89438,-0.98956,-1.3174,72.377,-1.0671,0.38434,-0.002324,0.28,0.56,0
0.21925,0.048783,0.73419,-0.95507,-0.93015,-1.2998,0.0108,0,0,0.4481,0.48049,0,0.02808,0,0,0.8818,-0.047189,0,0.88319,-0.92612,-0.9591,-1.2998,69.539,-1.0617,0.35829,-0.0022949,0.3,0.56,0
0.22851,0.044603,0.71691,-0.91522,-1.0155,-1.2961,-0.011422,0,0,0.49519,0.36478,0,-0.029698,0,0,0.83848,-0.047634,0,0.84026,-0.91394,-1.0168,-1.2961,-6.4146,-1.0756,0.34255,-0.0014539,0.32,0.56,0
0.23906,0.039661,0.70065,-0.87376,-1.1654,-1.3124,-0.00092185,0,0,0.57024,0.19109,0,-0.0023968,0,0,0.78088,-0.06453,0,0.78416,-0.87376,-1.1654,-1.3124,-0.1811,-1.1172,0.38671,0.001589,0.34,0.56,0
0.25131,0.035512,0.68568,-0.81909,-1.2736,-1.3135,0.044364,0,0,0.64272,0.05183,0,0.11535,0,0,0.71531,-0.10238,0,0.72316,-0.8148,-1.2779,-1.3135,5.5228,-1.1354,0.48189,0.0056416,0.36,0.56,0
0.26477,0.03301,0.67204,-0.75733,-1.3315,-1.2987,0.098703,0,0,0.70376,-0.042654,0,0.25663,0,0,0.64392,-0.16353,0,0.66461,-0.74084,-1.348,-1.2987,9.4869,-1.1292,0.58407,0.0099876,0.38,0.56,0
0.27947,0.031438,0.65992,-0.71082,-1.3964,-1.2921,0.13097,0,0,0.75564,-0.13559,0,0.34053,0,0,0.56293,-0.23089,0,0.60981,-0.68665,-1.4205,-1.2921,10.456,-1.1331,0.67884,0.014147,0.4,0.56,0
0.295,0.029357,0.64952,-0.65431,-1.0417,-0.94183,0.12056,0,0,0.34479,-0.19484,0,0.59899,0,0,0.48752,-0.17553,0,0.5241,-0.59468,-1.1014,-0.94183,25.547,-0.8793,0.45829,0.0077209,0.42,0.56,0
0.29326,0.03758,0.62221,-0.61284,-0.67976,-0.59518,0.10024,0,0,-0.068854,-0.32985,0,0.78188,0,0,0.44086,-0.092946,0,0.45083,-0.54062,-0.75198,-0.59518,35.77,-0.62926,0.19004,-0.00025701,0.44,0.56,0
0.29224,0.042986,0.59662,-0.59306,-0.67641,-0.57972,0.079886,0,0,-0.052062,-0.37711,0,0.62311,0,0,0.41626,-0.082208,0,0.42437,-0.54464,-0.72484,-0.57972,31.225,-0.6164,0.16548,-0.00019792,0.46,0.56,0
0.29117,0.04623,0.57226,-0.58088,-0.6628,-0.56386,0.063486,0,0,-0.066405,-0.38586,0,0.49519,0,0,0.40037,-0.068709,0,0.40622,-0.54629,-0.69739,-0.56386,28.587,-0.60251,0.14313,-0.00014297,0.48,0.56,0
0.28959,0.047919,0.54857,-0.57404,-0.64624,-0.54894,0.050493,0,0,-0.097871,-0.37947,0,0.39384,0,0,0.39204,-0.056602,0,0.39609,-0.54807,-0.67221,-0.54894,27.218,-0.58974,0.12371,-9.722e-05,0.5,0.56,0
0.28726,0.048496,0.52522,-0.56981,-0.62746,-0.53425,0.040353,0,0,-0.13867,-0.36352,0,0.31475,0,0,0.38814,-0.046594,0,0.39091,-0.54904,-0.64823,-0.53425,27.23,-0.57717,0.10735,-5.9484e-05,0.52,0.56,0
0.28404,0.048258,0.502,-0.56742,-0.60776,-0.51989,0.032624,0,0,-0.18538,-0.34269,0,0.25447,0,0,0.38667,-0.038623,0,0.38858,-0.54923,-0.62594,-0.51989,29.138,-0.56502,0.094852,-3.0099e-05,0.54,0.56,0
0.27984,0.047455,0.47882,-0.56599,-0.58794,-0.50578,0.026972,0,0,-0.2348,-0.32041,0,0.21038,0,0,0.38648,-0.032378,0,0.38783,-0.54784,-0.60608,-0.50578,33.929,-0.55324,0.087238,-9.3776e-06,0.56,0.56,0
0.27465,0.046284,0.45562,-0.5649,-0.5686,-0.49193,0.022955,0,0,-0.28462,-0.29904,0,0.17905,0,0,0.38688,-0.02748,0,0.38785,-0.54373,-0.58978,-0.49193,42.697,-0.54181,0.084796,3.175e-06,0.58,0.56,0
0.26846,0.044894,0.43239,-0.56378,-0.55005,-0.47828,0.02011,0,0,-0.33347,-0.2799,0,0.15686,0,0,0.38747,-0.023574,0,0.38819,-0.53567,-0.57817,-0.47828,54.428,-0.5307,0.086824,8.5597e-06,0.6,0.56,0
0.26131,0.043392,0.40912,-0.56244,-0.53236,-0.46481,0.018022,0,0,-0.38073,-0.26343,0,0.14057,0,0,0.38807,-0.020365,0,0.3886,-0.52392,-0.57087,-0.46481,64.923,-0.51987,0.09205,7.8955e-06,0.62,0.56,0
0.25323,0.041846,0.38582,-0.56081,-0.51548,-0.45149,0.016365,0,0,-0.42633,-0.24955,0,0.12764,0,0,0.38857,-0.017626,0,0.38897,-0.51019,-0.5661,-0.45149,72.085,-0.50926,0.099261,2.1143e-06,0.64,0.56,0
0.24425,0.0403,0.3625,-0.55893,-0.49932,-0.43831,0.014908,0,0,-0.47042,-0.23795,0,0.11628,0,0,0.38895,-0.015188,0,0.38924,-0.4958,-0.56245,-0.43831,76.713,-0.49885,0.10761,-8.1504e-06,0.66,0.56,0
0.23441,0.038778,0.33915,-0.55684,-0.48375,-0.42523,0.013493,0,0,-0.51329,-0.22825,0,0.10525,0,0,0.38921,-0.012919,0,0.38942,-0.48134,-0.55925,-0.42523,79.867,-0.48861,0.11658,-2.2554e-05,0.68,0.56,0
0.22372,0.037294,0.31579,-0.55462,-0.4687,-0.41226,0.012012,0,0,-0.5552,-0.22011,0,0.093692,0,0,0.38935,-0.010715,0,0.3895,-0.46705,-0.55627,-0.41226,82.189,-0.47852,0.1259,-4.0987e-05,0.7,0.56,0
0.2122,0.035852,0.29243,-0.55232,-0.45406,-0.39939,0.010378,0,0,-0.59642,-0.21322,0,0.080948,0,0,0.38939,-0.0084802,0,0.38949,-0.45298,-0.5534,-0.39939,84.036,-0.46859,0.13542,-6.3533e-05,0.72,0.56,0
0.19987,0.034452,0.26906,-0.55001,-0.43977,-0.38662,0.0085156,0,0,-0.63721,-0.20729,0,0.066422,0,0,0.38935,-0.006121,0,0.3894,-0.43912,-0.55066,-0.38662,85.609,-0.4588,0.1451,-9.0482e-05,0.74,0.56,0
0.18672,0.033088,0.2457,-0.54777,-0.42577,-0.37396,0.0063449,0,0,-0.67786,-0.20203,0,0.04949,0,0,0.38925,-0.00353,0,0.38927,-0.42544,-0.5481,-0.37396,87.031,-0.44917,0.15495,-0.00012242,0.76,0.56,0
0.17275,0.031754,0.22235,-0.54574,-0.41196,-0.36143,0.0037742,0,0,-0.71881,-0.19709,0,0.029439,0,0,0.38912,-0.00057466,0,0.38912,-0.41186,-0.54584,-0.36143,88.385,-0.43971,0.16508,-0.00016045,0.78,0.56,0
0.15796,0.030439,0.19901,-0.5441,-0.39826,-0.34905,0.00069993,0,0,-0.76072,-0.19195,0,0.0054595,0,0,0.38905,0.0029196,0,0.38906,-0.39826,-0.54411,-0.34905,89.725,-0.43047,0.1757,-0.00020665,0.8,0.56,0
0.14232,0.029131,0.17567,-0.54321,-0.38452,-0.33687,-0.0029792,0,0,-0.80471,-0.18581,0,-0.023238,0,0,0.3892,0.0071897,0,0.38926,-0.38446,-0.54326,-0.33687,-88.925,-0.42153,0.18719,-0.0002649,0.82,0.56,0
0.12578,0.027821,0.15231,-0.5436,-0.3705,-0.325,-0.0073175,0,0,-0.85254,-0.17746,0,-0.057077,0,0,0.38988,0.012554,0,0.39008,-0.37019,-0.54391,-0.325,-87.584,-0.41303,0.20017,-0.00034222,0.84,0.56,0
0.10822,0.026513,0.12888,-0.54611,-0.35593,-0.31357,-0.012209,0,0,-0.90691,-0.16518,0,-0.095233,0,0,0.39178,0.019414,0,0.39225,-0.35515,-0.54689,-0.31357,-86.342,-0.4052,0.21556,-0.00045062,0.86,0.56,0
0.089499,0.025248,0.10529,-0.55175,-0.34041,-0.30274,-0.017268,0,0,-0.97114,-0.14687,0,-0.13469,0,0,0.39624,0.028168,0,0.39723,-0.339,-0.55316,-0.30274,-85.36,-0.3983,0.23439,-0.0006084,0.88,0.56,0
0.069377,0.024105,0.081332,-0.56169,-0.32397,-0.29281,-0.021439,0,0,-1.0486,-0.12154,0,-0.16722,0,0,0.40588,0.038819,0,0.40775,-0.32206,-0.56361,-0.29281,-84.888,-0.39282,0.25742,-0.00083813,0.9,0.56,0
0.047554,0.023256,0.056587,-0.57335,-0.30532,-0.28246,-0.024078,0,0,-1.1345,-0.089143,0,-0.18781,0,0,0.42184,0.048703,0,0.42478,-0.30318,-0.5755,-0.28246,-84.907,-0.38705,0.28325,-0.0011461,0.92,0.56,0
0.023998,0.0225,0.030711,-0.58625,-0.32406,-0.29357,-0.023153,0,0,-0.77309,-0.059463,0,-0.11841,0,0,0.45187,0.091863,0,0.46347,-0.322,-0.58831,-0.29357,-84.936,-0.4013,0.28197,-0.0011137,0.94,0.56,0
0.016631,0.023993,0.021261,-0.61926,-0.39611,-0.32587,-0.027058,0,0,-0.3814,-0.091312,0,-0.07035,0,0,0.49591,0.11171,0,0.50875,-0.39288,-0.62249,-0.32587,-83.184,-0.44708,0.26944,-0.00079904,0.96,0.56,0
0.0087421,0.024793,0.010874,-0.6319,-0.37213,-0.31208,-0.018266,0,0,-0.41576,-0.078057,0,-0.047491,0,0,0.53154,0.054641,0,0.53389,-0.37085,-0.63318,-0.31208,-85.998,-0.4387,0.29612,-0.0011585,0.98,0.56,0
0,0.024946,0,-0.63021,-0.3497,-0.29397,0.0029466,0,0,-0.43711,-0.072446,0,0.0076613,0,0,0.54372,-2.0817e-17,0,0.54326,-0.34967,-0.63024,-0.29397,89.398,-0.42463,0.31217,-0.0013962,1,0.56,0
0,0.030928,1,-0.82808,-1.8471,-1.8025,0.02359,0,0,1.2668,-0.057872,0,0.061334,0,0,0.68032,1.9776e-16,0,0.67994,-0.82754,-1.8476,-1.8025,1.3255,-1.4926,0.9983,0.050748,0,0.58,0
0.025336,0.032155,0.98639,-0.80844,-1.813,-1.7728,0.055297,0,0,1.2537,-0.052258,0,0.14377,0,0,0.69271,-0.055393,0,0.69453,-0.80541,-1.8161,-1.7728,3.1412,-1.4648,0.98975,0.049477,0.02,0.58,0
0.050148,0.036657,0.97229,-0.84506,-1.7907,-1.763,0.13244,0,0,1.1933,-0.035966,0,0.34433,0,0,0.74321,-0.11919,0,0.75268,-0.82686,-1.8089,-1.763,7.8239,-1.4663,0.95991,0.045077,0.04,0.58,0
0.07307,0.045725,0.95666,-0.89153,-1.6039,-1.7053,0.21596,0,0,1.0579,0.1318,0,0.5615,0,0,0.81808,-0.17809,0,0.83974,-0.83118,-1.6643,-1.7053,15.614,-1.4002,0.85435,0.031779,0.06,0.58,0
0.092464,0.057911,0.93957,-0.88679,-1.1743,-1.5579,0.17108,0,0,0.87242,0.49872,0,0.44481,0,0,0.88407,-0.090755,0,0.88808,-0.80708,-1.254,-1.5579,24.983,-1.2063,0.65413,0.0046378,0.08,0.58,0
0.10797,0.066246,0.9213,-0.95839,-1.1118,-1.5424,0.088455,0,0,0.75915,0.55975,0,0.22998,0,0,0.91825,-0.057353,0,0.91999,-0.91801,-1.1522,-1.5424,24.537,-1.2042,0.5463,-0.0034902,0.1,0.58,0
0.12283,0.070069,0.90284,-0.94416,-1.0506,-1.5013,0.034794,0,0,0.72425,0.58583,0,0.090464,0,0,0.92761,-0.039989,0,0.92846,-0.9338,-1.061,-1.5013,16.583,-1.1654,0.51578,-0.0056285,0.12,0.58,0
0.13694,0.071507,0.8842,-0.94354,-1.0085,-1.4698,0.012224,0,0,0.68414,0.59974,0,0.031781,0,0,0.93539,-0.030764,0,0.9359,-0.94131,-1.0107,-1.4698,10.318,-1.1406,0.49744,-0.0059096,0.14,0.58,0
0.1502,0.071506,0.86542,-0.94929,-0.97553,-1.4429,0.004411,0,0,0.64165,0.60754,0,0.011469,0,0,0.94108,-0.026315,0,0.94145,-0.94857,-0.97625,-1.4429,9.2913,-1.1226,0.48106,-0.0056538,0.16,0.58,0
0.1626,0.070727,0.84655,-0.95632,-0.94922,-1.4182,0.0055103,0,0,0.60047,0.6097,0,0.014327,0,0,0.94444,-0.024799,0,0.94477,-0.94621,-0.95932,-1.4182,61.399,-1.1079,0.46559,-0.0051697,0.18,0.58,0
0.17421,0.069563,0.82764,-0.96145,-0.92817,-1.3945,0.011254,0,0,0.563,0.60627,0,0.029259,0,0,0.94512,-0.025007,0,0.94546,-0.92472,-0.9649,-1.3945,72.968,-1.0947,0.45106,-0.0045876,0.2,0.58,0
0.18512,0.068212,0.80875,-0.96325,-0.91173,-1.3712,0.018582,0,0,0.53039,0.59737,0,0.048313,0,0,0.94275,-0.026037,0,0.94311,-0.90573,-0.96925,-1.3712,72.098,-1.0821,0.43723,-0.0039891,0.22,0.58,0
0.19543,0.0667,0.78994,-0.96146,-0.89988,-1.3483,0.024834,0,0,0.50294,0.583,0,0.064569,0,0,0.93684,-0.027096,0,0.93724,-0.89111,-0.97023,-1.3483,70.556,-1.0699,0.42325,-0.00344,0.24,0.58,0
0.20524,0.064881,0.77128,-0.95703,-0.89355,-1.3264,0.026896,0,0,0.48024,0.56278,0,0.06993,0,0,0.92676,-0.027282,0,0.92718,-0.88368,-0.9669,-1.3264,69.864,-1.059,0.40758,-0.0029947,0.26,0.58,0
0.21464,0.062394,0.75287,-0.95204,-0.89505,-1.307,0.020562,0,0,0.46144,0.53552,0,0.053462,0,0,0.91133,-0.025278,0,0.91172,-0.88841,-0.95869,-1.307,72.093,-1.0514,0.38825,-0.0026767,0.28,0.58,0
0.2237,0.058637,0.73482,-0.95039,-0.91214,-1.2936,-0.006362,0,0,0.44615,0.49587,0,-0.016541,0,0,0.88881,-0.018675,0,0.88909,-0.91111,-0.95142,-1.2936,-80.799,-1.052,0.364,-0.0023748,0.3,0.58,0
0.23249,0.052075,0.71731,-0.87831,-0.9311,-1.2601,-0.053728,0,0,0.49637,0.42775,0,-0.13969,0,0,0.83868,-0.0019408,0,0.83854,-0.84485,-0.96457,-1.2601,-31.92,-1.0232,0.37024,-0.0017175,0.32,0.58,0
0.24355,0.043014,0.70128,-0.85421,-1.2179,-1.3229,-0.078842,0,0,0.60932,0.13649,0,-0.20499,0,0,0.7574,0.048328,0,0.76228,-0.83785,-1.2343,-1.3229,-11.719,-1.1317,0.44738,0.0039972,0.34,0.58,0
0.25686,0.035821,0.68702,-0.78985,-1.3612,-1.3323,-0.0069437,0,0,0.70522,-0.037517,0,-0.018054,0,0,0.66501,-0.031358,0,0.66588,-0.78976,-1.3613,-1.3323,-0.6962,-1.1611,0.5576,0.0088233,0.36,0.58,0
0.27176,0.031421,0.67468,-0.72281,-1.3831,-1.3065,0.05485,0,0,0.75874,-0.099671,0,0.14261,0,0,0.5853,-0.10309,0,0.59447,-0.71829,-1.3877,-1.3065,4.7163,-1.1375,0.63269,0.012288,0.38,0.58,0
0.28721,0.02857,0.66361,-0.69024,-1.4081,-1.2931,0.083532,0,0,0.78372,-0.14947,0,0.21718,0,0,0.5226,-0.15337,0,0.54528,-0.68064,-1.4177,-1.2931,6.5507,-1.1305,0.68331,0.014567,0.4,0.58,0
0.30311,0.025883,0.65377,-0.64155,-1.0213,-0.93469,0.087776,0,0,0.34817,-0.16881,0,0.44856,0,0,0.47061,-0.11948,0,0.48888,-0.59795,-1.0649,-0.93469,24.428,-0.86583,0.42758,0.0076951,0.42,0.58,0
0.30113,0.031694,0.6268,-0.61355,-0.66126,-0.59138,0.079428,0,0,-0.086486,-0.27255,0,0.61954,0,0,0.43989,-0.066324,0,0.44498,-0.55447,-0.72034,-0.59138,36.642,-0.62206,0.15084,-0.00014133,0.44,0.58,0
0.29965,0.036107,0.60098,-0.59761,-0.66001,-0.57761,0.067622,0,0,-0.07797,-0.32136,0,0.52745,0,0,0.42258,-0.064939,0,0.4276,-0.55434,-0.70328,-0.57761,32.615,-0.61174,0.13878,-0.00012436,0.46,0.58,0
0.29802,0.039048,0.57609,-0.58746,-0.65009,-0.56329,0.055926,0,0,-0.094241,-0.33849,0,0.43622,0,0,0.40964,-0.058741,0,0.41385,-0.55467,-0.68287,-0.56329,30.377,-0.60028,0.12411,-9.6586e-05,0.48,0.58,0
0.29588,0.040788,0.55183,-0.58086,-0.63579,-0.54894,0.045988,0,0,-0.1245,-0.33872,0,0.3587,0,0,0.4011,-0.05122,0,0.40436,-0.55476,-0.66189,-0.54894,29.577,-0.58853,0.11016,-6.8005e-05,0.5,0.58,0
0.29304,0.041594,0.52796,-0.57653,-0.61932,-0.53474,0.037785,0,0,-0.16299,-0.32985,0,0.29472,0,0,0.39602,-0.043985,0,0.39845,-0.55451,-0.64135,-0.53474,30.241,-0.57686,0.098226,-4.2109e-05,0.52,0.58,0
0.28936,0.041691,0.50431,-0.57357,-0.60163,-0.52066,0.031202,0,0,-0.20634,-0.31577,0,0.24338,0,0,0.39321,-0.037606,0,0.395,-0.55339,-0.62181,-0.52066,32.895,-0.56529,0.089397,-2.081e-05,0.54,0.58,0
0.28478,0.041265,0.48077,-0.57146,-0.58349,-0.50674,0.026063,0,0,-0.2524,-0.29931,0,0.20329,0,0,0.39181,-0.032201,0,0.39313,-0.55072,-0.60422,-0.50674,38.503,-0.55389,0.084554,-5.2174e-06,0.56,0.58,0
0.27926,0.04047,0.45729,-0.56978,-0.56541,-0.49298,0.022141,0,0,-0.29949,-0.28245,0,0.1727,0,0,0.39121,-0.027692,0,0.39219,-0.54534,-0.58984,-0.49298,47.818,-0.54272,0.083972,4.2576e-06,0.58,0.58,0
0.2728,0.039429,0.43383,-0.56824,-0.54771,-0.47939,0.019163,0,0,-0.3465,-0.26643,0,0.14947,0,0,0.39105,-0.02392,0,0.39178,-0.53623,-0.57971,-0.47939,59.088,-0.53178,0.087136,7.7555e-06,0.6,0.58,0
0.26541,0.038236,0.41036,-0.56667,-0.53054,-0.46595,0.016856,0,0,-0.3928,-0.25191,0,0.13148,0,0,0.39109,-0.020717,0,0.39164,-0.5239,-0.57331,-0.46595,68.489,-0.52105,0.093075,5.6823e-06,0.62,0.58,0
0.25709,0.036958,0.38689,-0.56499,-0.51395,-0.45265,0.014981,0,0,-0.43813,-0.23909,0,0.11685,0,0,0.39122,-0.017927,0,0.39163,-0.50988,-0.56906,-0.45265,74.792,-0.51053,0.10082,-1.528e-06,0.64,0.58,0
0.24788,0.035641,0.36342,-0.56319,-0.4979,-0.43946,0.013347,0,0,-0.48252,-0.22789,0,0.10411,0,0,0.39136,-0.015419,0,0.39167,-0.49528,-0.56581,-0.43946,78.881,-0.50018,0.10967,-1.3561e-05,0.66,0.58,0
0.23779,0.034315,0.33993,-0.5613,-0.48234,-0.4264,0.011811,0,0,-0.5261,-0.21815,0,0.092128,0,0,0.3915,-0.013079,0,0.39172,-0.48061,-0.56302,-0.4264,81.672,-0.49001,0.11916,-3.0285e-05,0.68,0.58,0
0.22684,0.032998,0.31644,-0.55936,-0.46719,-0.41344,0.010266,0,0,-0.56907,-0.20961,0,0.080073,0,0,0.39162,-0.010812,0,0.39177,-0.46606,-0.56049,-0.41344,83.721,-0.48,0.12905,-5.1768e-05,0.7,0.58,0
0.21503,0.031702,0.29294,-0.55743,-0.45239,-0.40059,0.008629,0,0,-0.61168,-0.20202,0,0.067306,0,0,0.39173,-0.0085292,0,0.39183,-0.45169,-0.55814,-0.40059,85.335,-0.47014,0.13922,-7.8295e-05,0.72,0.58,0
0.20237,0.030432,0.26943,-0.5556,-0.43788,-0.38785,0.0068347,0,0,-0.65421,-0.19511,0,0.053311,0,0,0.39186,-0.0061416,0,0.39191,-0.43749,-0.556,-0.38785,86.688,-0.46045,0.14963,-0.00011042,0.74,0.58,0
0.18886,0.029188,0.24591,-0.55396,-0.42358,-0.37523,0.004827,0,0,-0.69703,-0.18857,0,0.037651,0,0,0.39204,-0.0035549,0,0.39205,-0.4234,-0.55414,-0.37523,87.882,-0.45093,0.16034,-0.00014907,0.76,0.58,0
0.17449,0.027973,0.22238,-0.55264,-0.40941,-0.36274,0.0025602,0,0,-0.7406,-0.18201,0,0.01997,0,0,0.39233,-0.00066173,0,0.39233,-0.40937,-0.55269,-0.36274,88.976,-0.4416,0.17145,-0.00019577,0.78,0.58,0
0.15923,0.026785,0.19883,-0.55185,-0.39527,-0.35041,9.2857e-06,0,0,-0.7856,-0.17495,0,7.2429e-05,0,0,0.39285,0.0026628,0,0.39286,-0.39527,-0.55185,-0.35041,89.997,-0.43251,0.18317,-0.00025298,0.8,0.58,0
0.14306,0.02563,0.17524,-0.55186,-0.38103,-0.33828,-0.0028054,0,0,-0.83297,-0.16671,0,-0.021882,0,0,0.39379,0.0065599,0,0.39384,-0.38098,-0.55191,-0.33828,-89.059,-0.42372,0.1958,-0.00032458,0.82,0.58,0
0.12592,0.024519,0.15158,-0.55303,-0.36651,-0.32639,-0.0057691,0,0,-0.8839,-0.15649,0,-0.044999,0,0,0.39549,0.011169,0,0.39564,-0.36634,-0.55321,-0.32639,-88.23,-0.41531,0.20972,-0.0004164,0.84,0.58,0
0.10771,0.023485,0.12778,-0.55573,-0.35157,-0.31478,-0.0086111,0,0,-0.93969,-0.14346,0,-0.067167,0,0,0.3985,0.01656,0,0.39884,-0.3512,-0.55609,-0.31478,-87.589,-0.40736,0.22531,-0.0005361,0.86,0.58,0
0.088329,0.022581,0.10376,-0.5602,-0.33616,-0.30349,-0.010827,0,0,-1.0011,-0.12739,0,-0.084449,0,0,0.40368,0.022555,0,0.40431,-0.33564,-0.56072,-0.30349,-87.24,-0.39995,0.24276,-0.00069152,0.88,0.58,0
0.067661,0.021893,0.079341,-0.56593,-0.32034,-0.29233,-0.0119,0,0,-1.0671,-0.10924,0,-0.092824,0,0,0.41175,0.028206,0,0.41274,-0.31977,-0.56651,-0.29233,-87.232,-0.39287,0.26154,-0.00088487,0.9,0.58,0
0.045646,0.021445,0.054347,-0.57327,-0.30565,-0.28179,-0.011378,0,0,-1.1367,-0.093053,0,-0.088747,0,0,0.42259,0.030869,0,0.42376,-0.30517,-0.57375,-0.28179,-87.57,-0.3869,0.281,-0.001113,0.92,0.58,0
0.022191,0.021191,0.02863,-0.57634,-0.3288,-0.29063,-0.008736,0,0,-0.76235,-0.074425,0,-0.048329,0,0,0.44042,0.056102,0,0.44497,-0.32849,-0.57665,-0.29063,-87.979,-0.39859,0.2698,-0.0009521,0.94,0.58,0
0.015152,0.022078,0.019586,-0.5913,-0.39053,-0.31413,-0.0048254,0,0,-0.36031,-0.099311,0,-0.012546,0,0,0.46691,0.068055,0,0.472,-0.39041,-0.59141,-0.31413,-88.624,-0.43199,0.2481,-0.00054162,0.96,0.58,0
0.0077787,0.022775,0.0099541,-0.59682,-0.38808,-0.30543,-0.0037231,0,0,-0.37881,-0.10746,0,-0.00968,0,0,0.48965,0.037574,0,0.49095,-0.38802,-0.59689,-0.30543,-88.978,-0.43011,0.26019,-0.00060688,0.98,0.58,0
0,0.023013,0,-0.5852,-0.36818,-0.28601,0.0045834,0,0,-0.38894,-0.10682,0,0.011917,0,0,0.4977,0,0,0.49746,-0.36808,-0.58529,-0.28601,88.791,-0.41313,0.26785,-0.00068352,1,0.58,0
0,0.029413,1,-0.84857,-1.9008,-1.8248,0.026189,0,0,1.2691,-0.098811,0,0.068092,0,0,0.61578,-1.9949e-15,0,0.61516,-0.84792,-1.9015,-1.8248,1.4248,-1.5247,1.0174,0.053053,0,0.6,0
0.025382,0.030775,0.98768,-0.84581,-1.8839,-1.8066,0.062109,0,0,1.249,-0.10052,0,0.16148,0,0,0.61911,-0.067729,0,0.62201,-0.8421,-1.8876,-1.8066,3.4117,-1.5121,1.0075,0.051374,0.02,0.6,0
0.049962,0.035015,0.97524,-0.8803,-1.8907,-1.8065,0.18446,0,0,1.2041,-0.10944,0,0.47961,0,0,0.64784,-0.15401,0,0.66367,-0.84767,-1.9233,-1.8065,10.029,-1.5259,1.0223,0.052464,0.04,0.6,0
0.073547,0.04782,0.96177,-0.80354,-1.4156,-1.3069,0.27364,0,0,0.9157,-0.31746,0,1.2016,0,0,0.56252,-0.21432,0,0.60291,-0.69789,-1.5212,-1.3069,21.8,-1.1753,0.74575,0.02651,0.06,0.6,0
0.089225,0.069653,0.94148,-0.75913,-1.0571,-1.1725,0.17636,0,0,0.80611,-0.13692,0,0.78961,0,0,0.65352,-0.091853,0,0.661,-0.66341,-1.1528,-1.1725,25.074,-0.99625,0.5549,0.0031181,0.08,0.6,0
0.10579,0.077739,0.92256,-0.7193,-1.0245,-1.1382,0.069581,0,0,0.81678,-0.13113,0,0.34575,0,0,0.62933,-0.061725,0,0.63317,-0.7012,-1.0426,-1.1382,13.944,-0.96064,0.47871,-0.002182,0.1,0.6,0
0.1219,0.081882,0.90372,-0.71544,-0.99476,-1.1155,0.037044,0,0,0.7802,-0.11961,0,0.19304,0,0,0.62795,-0.044855,0,0.63007,-0.70938,-1.0008,-1.1155,9.2641,-0.94191,0.45463,-0.0030156,0.12,0.6,0
0.137,0.083443,0.88488,-0.72627,-0.97407,-1.1,0.019822,0,0,0.72882,-0.10555,0,0.11022,0,0,0.6288,-0.035116,0,0.63012,-0.72423,-0.97611,-1.1,6.2789,-0.93345,0.43092,-0.0031572,0.14,0.6,0
0.15105,0.083532,0.866,-0.73745,-0.95423,-1.0848,0.012882,0,0,0.6774,-0.091912,0,0.074816,0,0,0.63015,-0.029412,0,0.63109,-0.73631,-0.95538,-1.0848,5.8688,-0.92551,0.41046,-0.0030589,0.16,0.6,0
0.16409,0.082762,0.84707,-0.74622,-0.93573,-1.0693,0.011684,0,0,0.63,-0.080809,0,0.066832,0,0,0.63096,-0.026156,0,0.63169,-0.74421,-0.93773,-1.0693,11.296,-0.91708,0.39261,-0.0028347,0.18,0.6,0
0.17625,0.081518,0.82814,-0.75084,-0.91849,-1.0529,0.01367,0,0,0.58901,-0.073599,0,0.074151,0,0,0.63068,-0.024272,0,0.63129,-0.74237,-0.92696,-1.0529,27.509,-0.90741,0.3775,-0.0025604,0.2,0.6,0
0.18766,0.079991,0.80923,-0.75054,-0.90261,-1.0354,0.016695,0,0,0.55555,-0.070925,0,0.086411,0,0,0.62895,-0.022891,0,0.62948,-0.73311,-0.92004,-1.0354,33.256,-0.89619,0.36483,-0.0022869,0.22,0.6,0
0.19847,0.078204,0.7904,-0.74505,-0.88809,-1.0169,0.018759,0,0,0.53006,-0.072932,0,0.093794,0,0,0.6255,-0.02117,0,0.62594,-0.72258,-0.91056,-1.0169,34.211,-0.88334,0.35405,-0.00205,0.24,0.6,0
0.20886,0.076009,0.7717,-0.7331,-0.87439,-0.99671,0.018884,0,0,0.51581,-0.079355,0,0.094954,0,0,0.62091,-0.018101,0,0.62121,-0.71096,-0.89653,-0.99671,34.12,-0.86807,0.34526,-0.0018643,0.26,0.6,0
0.21896,0.073062,0.75319,-0.72093,-0.8637,-0.97752,0.0073461,0,0,0.49935,-0.08952,0,0.025891,0,0,0.61169,-0.012209,0,0.61179,-0.70612,-0.87852,-0.97752,34.145,-0.85405,0.3346,-0.0017442,0.28,0.6,0
0.22891,0.068618,0.73494,-0.70926,-0.85835,-0.96024,-0.0092752,0,0,0.48942,-0.10167,0,-0.049293,0,0,0.60343,-0.00067861,0,0.60339,-0.70245,-0.86516,-0.96024,-29.075,-0.84262,0.32356,-0.0015504,0.3,0.6,0
0.23854,0.061713,0.71699,-0.71551,-0.85422,-0.94891,-0.083423,0,0,0.45514,-0.11259,0,-0.36598,0,0,0.60365,0.022219,0,0.60392,-0.65004,-0.91968,-0.94891,-29.104,-0.83954,0.34303,-0.00038379,0.32,0.6,0
0.24712,0.04512,0.69872,-0.69299,-1.0747,-0.99612,-0.16004,0,0,0.53701,-0.23941,0,-0.70645,0,0,0.50098,0.1161,0,0.51406,-0.63415,-1.1335,-0.99612,-20.82,-0.92127,0.45255,0.0058186,0.34,0.6,0
0.26218,0.034011,0.68693,-0.75814,-1.4413,-1.3468,-0.071942,0,0,0.76523,-0.12294,0,-0.18705,0,0,0.56388,0.018083,0,0.56218,-0.75065,-1.4488,-1.3468,-5.9464,-1.1821,0.65317,0.013142,0.36,0.6,0
0.27773,0.029023,0.67616,-0.71369,-1.4311,-1.3196,0.019488,0,0,0.78766,-0.14491,0,0.050669,0,0,0.52191,-0.057883,0,0.52475,-0.71317,-1.4316,-1.3196,1.555,-1.1548,0.66949,0.013969,0.38,0.6,0
0.29369,0.025459,0.66605,-0.67982,-1.4231,-1.2969,0.050917,0,0,0.80223,-0.164,0,0.13239,0,0,0.48681,-0.10343,0,0.49783,-0.67635,-1.4265,-1.2969,3.9008,-1.1333,0.69452,0.015205,0.4,0.6,0
0.30982,0.022604,0.65669,-0.63826,-1.0208,-0.9355,0.064081,0,0,0.35307,-0.16627,0,0.33653,0,0,0.45508,-0.083726,0,0.46452,-0.60693,-1.0521,-0.9355,23.033,-0.86484,0.41032,0.0077661,0.42,0.6,0
0.30781,0.026678,0.63017,-0.61422,-0.65117,-0.58968,0.063584,0,0,-0.095733,-0.23984,0,0.49596,0,0,0.43566,-0.049617,0,0.43852,-0.56648,-0.69891,-0.58968,36.899,-0.61836,0.12249,-8.3099e-05,0.44,0.6,0
0.30599,0.030132,0.60441,-0.60154,-0.64929,-0.57672,0.057047,0,0,-0.096791,-0.28304,0,0.44497,0,0,0.42384,-0.051518,0,0.427,-0.56357,-0.68726,-0.57672,33.644,-0.60918,0.11766,-8.0157e-05,0.46,0.6,0
0.30394,0.03269,0.57931,-0.59244,-0.64043,-0.56297,0.049082,0,0,-0.11493,-0.30214,0,0.38284,0,0,0.41409,-0.049451,0,0.41705,-0.5618,-0.67107,-0.56297,31.971,-0.59861,0.10869,-6.5927e-05,0.48,0.6,0
0.30139,0.03437,0.55472,-0.58622,-0.62762,-0.54906,0.041462,0,0,-0.14493,-0.30638,0,0.32341,0,0,0.4068,-0.04528,0,0.40932,-0.56058,-0.65326,-0.54906,31.736,-0.58763,0.098946,-4.7487e-05,0.5,0.6,0
0.29814,0.035301,0.5305,-0.58185,-0.61253,-0.53514,0.034793,0,0,-0.18214,-0.3018,0,0.27138,0,0,0.40175,-0.040395,0,0.40377,-0.55916,-0.63521,-0.53514,33.103,-0.57651,0.090482,-2.92e-05,0.52,0.6,0
0.2941,0.035627,0.50651,-0.57866,-0.5962,-0.52129,0.029177,0,0,-0.22371,-0.29214,0,0.22758,0,0,0.39845,-0.035558,0,0.40003,-0.55696,-0.6179,-0.52129,36.632,-0.56539,0.084609,-1.3521e-05,0.54,0.6,0
0.2892,0.035483,0.48268,-0.5762,-0.57927,-0.50753,0.024582,0,0,-0.26778,-0.27977,0,0.19174,0,0,0.3964,-0.031111,0,0.39761,-0.5531,-0.60236,-0.50753,43.211,-0.55433,0.082145,-1.9165e-06,0.56,0.6,0
0.28339,0.034986,0.45894,-0.57417,-0.56217,-0.49388,0.020894,0,0,-0.31311,-0.26634,0,0.16297,0,0,0.39516,-0.027164,0,0.39609,-0.54643,-0.58991,-0.49388,53.006,-0.54341,0.083283,4.8307e-06,0.58,0.6,0
0.27667,0.034237,0.43526,-0.57236,-0.54521,-0.48036,0.017956,0,0,-0.3588,-0.25293,0,0.14006,0,0,0.39445,-0.023705,0,0.39516,-0.53628,-0.58129,-0.48036,63.542,-0.53264,0.087582,6.4086e-06,0.6,0.6,0
0.26904,0.033315,0.41161,-0.57063,-0.52855,-0.46696,0.015592,0,0,-0.40432,-0.24021,0,0.12162,0,0,0.39406,-0.020664,0,0.3946,-0.5234,-0.57578,-0.46696,71.73,-0.52204,0.094262,2.7849e-06,0.62,0.6,0
0.2605,0.032282,0.38797,-0.56891,-0.51226,-0.45368,0.01363,0,0,-0.4494,-0.22849,0,0.10632,0,0,0.39387,-0.017955,0,0.39427,-0.50916,-0.57202,-0.45368,77.15,-0.51162,0.10255,-5.9714e-06,0.64,0.6,0
0.25106,0.031184,0.36434,-0.56717,-0.49637,-0.44051,0.011923,0,0,-0.49397,-0.21786,0,0.093,0,0,0.3938,-0.015485,0,0.3941,-0.49442,-0.56913,-0.44051,80.693,-0.50135,0.11187,-1.9822e-05,0.66,0.6,0
0.24074,0.030052,0.34072,-0.56543,-0.48086,-0.42746,0.010351,0,0,-0.5381,-0.20825,0,0.080734,0,0,0.39381,-0.013169,0,0.39403,-0.47961,-0.56668,-0.42746,83.123,-0.49125,0.12183,-3.884e-05,0.68,0.6,0
0.22954,0.02891,0.31709,-0.56373,-0.46568,-0.41452,0.0088189,0,0,-0.58192,-0.19952,0,0.068787,0,0,0.3939,-0.010926,0,0.39405,-0.46489,-0.56451,-0.41452,84.901,-0.48131,0.13222,-6.3264e-05,0.7,0.6,0
0.21746,0.027771,0.29345,-0.56211,-0.45078,-0.40168,0.0072576,0,0,-0.62566,-0.19148,0,0.056609,0,0,0.39406,-0.0086805,0,0.39416,-0.45031,-0.56258,-0.40168,86.286,-0.47153,0.14293,-9.3541e-05,0.72,0.6,0
0.20451,0.026647,0.2698,-0.56065,-0.43612,-0.38896,0.0056158,0,0,-0.66956,-0.18391,0,0.043803,0,0,0.39433,-0.0063569,0,0.39438,-0.43587,-0.5609,-0.38896,87.423,-0.46191,0.15394,-0.00013038,0.74,0.6,0
0.19068,0.025546,0.24613,-0.55943,-0.42163,-0.37636,0.0038615,0,0,-0.71396,-0.17655,0,0.03012,0,0,0.39473,-0.00388,0,0.39475,-0.42152,-0.55954,-0.37636,88.396,-0.45247,0.16529,-0.00017487,0.76,0.6,0
0.17595,0.024474,0.22243,-0.55858,-0.40725,-0.36389,0.0019863,0,0,-0.75927,-0.16909,0,0.015493,0,0,0.39534,-0.0011733,0,0.39534,-0.40722,-0.5586,-0.36389,89.248,-0.44324,0.17707,-0.0002286,0.78,0.6,0
0.16031,0.023441,0.19869,-0.55823,-0.39289,-0.35157,1.5919e-05,0,0,-0.806,-0.16115,0,0.00012417,0,0,0.39627,0.0018366,0,0.39628,-0.39289,-0.55823,-0.35157,89.995,-0.43423,0.18942,-0.00029382,0.8,0.6,0
0.14371,0.022462,0.17488,-0.55856,-0.37847,-0.3394,-0.0019698,0,0,-0.85473,-0.15236,0,-0.015365,0,0,0.3977,0.0052062,0,0.39773,-0.37845,-0.55858,-0.3394,-89.373,-0.42548,0.2025,-0.00037361,0.82,0.6,0
0.12612,0.021561,0.15097,-0.55973,-0.36392,-0.32742,-0.0038142,0,0,-0.90602,-0.14237,0,-0.029751,0,0,0.39988,0.0089415,0,0.39998,-0.36385,-0.55981,-0.32742,-88.885,-0.41702,0.21648,-0.00047171,0.84,0.6,0
0.10747,0.020775,0.12689,-0.56182,-0.34925,-0.31562,-0.005268,0,0,-0.96019,-0.13116,0,-0.04109,0,0,0.40316,0.012923,0,0.40337,-0.34912,-0.56195,-0.31562,-88.581,-0.4089,0.23141,-0.00059173,0.86,0.6,0
0.087713,0.020152,0.10259,-0.5647,-0.33456,-0.30397,-0.0060478,0,0,-1.0169,-0.11927,0,-0.047172,0,0,0.40789,0.01676,0,0.40824,-0.3344,-0.56486,-0.30397,-88.496,-0.40108,0.24708,-0.0007353,0.88,0.6,0
0.0668,0.019735,0.077947,-0.56823,-0.3203,-0.29254,-0.0059379,0,0,-1.0752,-0.10825,0,-0.046316,0,0,0.4142,0.019587,0,0.41468,-0.32015,-0.56837,-0.29254,-88.629,-0.39369,0.26312,-0.00090089,0.9,0.6,0
0.044706,0.019534,0.052883,-0.57198,-0.30647,-0.28116,-0.0049627,0,0,-1.1342,-0.098701,0,-0.038709,0,0,0.42168,0.020191,0,0.42219,-0.30638,-0.57208,-0.28116,-88.93,-0.38654,0.27916,-0.0010867,0.92,0.6,0
0.021432,0.019523,0.027345,-0.57298,-0.33745,-0.29136,-0.0019737,0,0,-0.75401,-0.089872,0,-0.014054,0,0,0.43295,0.034919,0,0.43476,-0.33742,-0.573,-0.29136,-89.568,-0.40059,0.26278,-0.0008479,0.94,0.6,0
0.014545,0.02002,0.018539,-0.5787,-0.39032,-0.30924,0.0016056,0,0,-0.35029,-0.10539,0,0.0041744,0,0,0.44933,0.042509,0,0.4514,-0.3903,-0.57871,-0.30924,89.512,-0.42609,0.23946,-0.00044246,0.96,0.6,0
0.0074202,0.020494,0.0093715,-0.57969,-0.38899,-0.29998,0.0017667,0,0,-0.36363,-0.11571,0,0.0045934,0,0,0.46348,0.02368,0,0.46403,-0.38897,-0.57971,-0.29998,89.469,-0.42289,0.24754,-0.00045327,0.98,0.6,0
0,0.020673,0,-0.56799,-0.37401,-0.2826,0.0034378,0,0,-0.37101,-0.11883,0,0.0089383,0,0,0.46857,-6.0715e-18,0,0.46847,-0.37395,-0.56805,-0.2826,88.985,-0.4082,0.25249,-0.00047679,1,0.6,0
0,0.026976,1,-0.82733,-1.9552,-1.8348,0.022275,0,0,1.3097,-0.15657,0,0.057915,0,0,0.54487,-1.9637e-15,0,0.5442,-0.82689,-1.9556,-1.8348,1.131,-1.5391,1.0734,0.060817,0,0.62,0
0.026193,0.028134,0.9891,-0.81003,-1.9448,-1.8156,0.071577,0,0,1.3072,-0.16806,0,0.1861,0,0,0.5387,-0.065967,0,0.5419,-0.80553,-1.9493,-1.8156,3.5949,-1.5235,1.0831,0.061919,0.02,0.62,0
0.052288,0.03228,0.97845,-0.7233,-1.9471,-1.7796,0.14208,0,0,1.3732,-0.2178,0,0.3694,0,0,0.48946,-0.14727,0,0.50906,-0.70702,-1.9634,-1.7796,6.5359,-1.4833,1.1753,0.07655,0.04,0.62,0
0.08112,0.037248,0.96952,-0.68361,-1.5668,-1.3215,0.16789,0,0,1.046,-0.47836,0,0.78249,0,0,0.41291,-0.18467,0,0.46089,-0.64401,-1.6064,-1.3215,14.487,-1.1906,0.85918,0.049101,0.06,0.62,0
0.09413,0.052434,0.94676,-0.61721,-0.99604,-0.79956,0.10275,0,0,0.71118,-0.76627,0,0.80144,0,0,0.36107,-0.074774,0,0.36884,-0.59113,-1.0221,-0.79956,14.239,-0.80427,0.37331,-0.00015158,0.08,0.62,0
0.10957,0.061001,0.92619,-0.58072,-0.9823,-0.77764,0.061235,0,0,0.76797,-0.79817,0,0.47764,0,0,0.33592,-0.055627,0,0.34046,-0.57159,-0.99143,-0.77764,8.4802,-0.78022,0.36361,-7.8881e-05,0.1,0.62,0
0.12485,0.065284,0.90645,-0.57218,-0.97169,-0.76531,0.036658,0,0,0.75322,-0.80489,0,0.28593,0,0,0.32626,-0.043081,0,0.32908,-0.56884,-0.97503,-0.76531,5.1994,-0.76973,0.35183,-0.0001263,0.12,0.62,0
0.1397,0.067285,0.88704,-0.56684,-0.95712,-0.75287,0.023679,0,0,0.72552,-0.79659,0,0.1847,0,0,0.32204,-0.034842,0,0.32391,-0.56541,-0.95856,-0.75287,3.4593,-0.75894,0.3406,-0.00016271,0.14,0.62,0
0.15387,0.06783,0.86781,-0.56406,-0.94152,-0.74094,0.017129,0,0,0.68984,-0.78226,0,0.13361,0,0,0.31988,-0.029476,0,0.32124,-0.56329,-0.9423,-0.74094,2.593,-0.74884,0.32845,-0.00019661,0.16,0.62,0
0.16729,0.067495,0.84866,-0.56191,-0.9255,-0.72911,0.01482,0,0,0.65207,-0.76593,0,0.11559,0,0,0.31862,-0.025955,0,0.31968,-0.56131,-0.92611,-0.72911,2.3302,-0.73884,0.31626,-0.00022433,0.18,0.62,0
0.17995,0.066619,0.82957,-0.55954,-0.90956,-0.71725,0.014856,0,0,0.61508,-0.75,0,0.11588,0,0,0.31771,-0.023462,0,0.31857,-0.55891,-0.91019,-0.71725,2.4261,-0.72878,0.30471,-0.00024638,0.2,0.62,0
0.19189,0.065375,0.81053,-0.55652,-0.89393,-0.70531,0.015628,0,0,0.58029,-0.73561,0,0.1219,0,0,0.31689,-0.021265,0,0.31761,-0.5558,-0.89465,-0.70531,2.6463,-0.71859,0.29413,-0.00026381,0.22,0.62,0
0.20316,0.063783,0.79154,-0.55284,-0.87865,-0.69329,0.015552,0,0,0.54778,-0.7229,0,0.12131,0,0,0.31613,-0.018614,0,0.31667,-0.5521,-0.87939,-0.69329,2.7267,-0.70826,0.28434,-0.00027733,0.24,0.62,0
0.2138,0.061707,0.7726,-0.54625,-0.8619,-0.67998,0.012726,0,0,0.52155,-0.70951,0,0.099261,0,0,0.31566,-0.014535,0,0.31598,-0.54574,-0.86242,-0.67998,2.3049,-0.69604,0.27531,-0.00027856,0.26,0.62,0
0.22381,0.058813,0.75367,-0.54779,-0.84718,-0.66972,0.003011,0,0,0.47551,-0.69213,0,0.023486,0,0,0.31621,-0.0082179,0,0.31629,-0.54776,-0.84722,-0.66972,0.57616,-0.68823,0.26082,-0.00028669,0.28,0.62,0
0.23308,0.05457,0.73467,-0.54535,-0.83072,-0.65771,-0.011217,0,0,0.43822,-0.67474,0,-0.08749,0,0,0.31982,0.0025897,0,0.31977,-0.54491,-0.83116,-0.65771,-2.2474,-0.67793,0.24975,-0.0002857,0.3,0.62,0
0.24134,0.047571,0.71529,-0.56932,-0.81597,-0.65402,-0.039733,0,0,0.33033,-0.63161,0,-0.30992,0,0,0.33637,0.020615,0,0.33693,-0.56307,-0.82221,-0.65402,-8.929,-0.67977,0.22772,-0.00029678,0.32,0.62,0
0.24629,0.036885,0.69431,-0.60644,-1.2076,-1.0071,-0.082806,0,0,0.60324,-0.39101,0,-0.38176,0,0,0.37528,0.085837,0,0.38993,-0.59048,-1.2236,-1.0071,-12.278,-0.94038,0.56158,0.013832,0.34,0.62,0
0.26547,0.030903,0.68629,-0.62795,-1.4886,-1.3213,-0.054816,0,0,0.90129,-0.21754,0,-0.14252,0,0,0.43297,0.023967,0,0.43166,-0.62448,-1.4921,-1.3213,-3.6297,-1.1459,0.79605,0.021941,0.36,0.62,0
0.28234,0.025625,0.67699,-0.67745,-1.4682,-1.3207,-0.0071152,0,0,0.83622,-0.19179,0,-0.0185,0,0,0.46379,-0.0382,0,0.46488,-0.67739,-1.4683,-1.3207,-0.51548,-1.1555,0.72841,0.017135,0.38,0.62,0
0.29892,0.02201,0.66774,-0.66499,-1.442,-1.2998,0.029039,0,0,0.8253,-0.18478,0,0.075502,0,0,0.4549,-0.075674,0,0.46107,-0.6639,-1.443,-1.2998,2.1374,-1.1356,0.71833,0.016515,0.4,0.62,0
0.31535,0.019232,0.6588,-0.63398,-1.0277,-0.93771,0.04705,0,0,0.36306,-0.17553,0,0.25408,0,0,0.4407,-0.062929,0,0.44622,-0.61204,-1.0497,-0.93771,21.248,-0.86647,0.40457,0.0081371,0.42,0.62,0
0.31344,0.0221,0.63275,-0.61438,-0.64685,-0.58928,0.051024,0,0,-0.09787,-0.22449,0,0.39798,0,0,0.43024,-0.038991,0,0.43202,-0.57707,-0.68416,-0.58928,36.176,-0.61684,0.10153,-5.1142e-05,0.44,0.62,0
0.31144,0.024785,0.60717,-0.60427,-0.64231,-0.57636,0.048003,0,0,-0.10884,-0.2572,0,0.37443,0,0,0.42274,-0.042096,0,0.42485,-0.57166,-0.67493,-0.57636,34.192,-0.60765,0.101,-5.2525e-05,0.46,0.62,0
0.30909,0.026963,0.58202,-0.59647,-0.63329,-0.56294,0.042787,0,0,-0.13078,-0.27439,0,0.33374,0,0,0.41587,-0.041981,0,0.418,-0.5683,-0.66146,-0.56294,33.359,-0.59757,0.095956,-4.4899e-05,0.48,0.62,0
0.30621,0.028533,0.55726,-0.59067,-0.62108,-0.54928,0.037063,0,0,-0.16143,-0.28001,0,0.28909,0,0,0.41016,-0.039834,0,0.4121,-0.56581,-0.64593,-0.54928,33.849,-0.58701,0.089539,-3.2671e-05,0.5,0.62,0
0.30263,0.029522,0.5328,-0.58635,-0.60686,-0.53557,0.031641,0,0,-0.19808,-0.27805,0,0.2468,0,0,0.40574,-0.036631,0,0.4074,-0.56335,-0.62987,-0.53557,36.023,-0.57626,0.083934,-1.9533e-05,0.52,0.62,0
0.29828,0.030005,0.50857,-0.58303,-0.59145,-0.52187,0.026846,0,0,-0.23853,-0.27137,0,0.2094,0,0,0.4025,-0.03305,0,0.40385,-0.56007,-0.61442,-0.52187,40.543,-0.56545,0.080553,-7.9648e-06,0.54,0.62,0
0.29309,0.030074,0.4845,-0.58036,-0.5754,-0.50823,0.02276,0,0,-0.28131,-0.26196,0,0.17753,0,0,0.4002,-0.029486,0,0.40129,-0.55498,-0.60077,-0.50823,48.111,-0.55466,0.080148,4.7763e-07,0.56,0.62,0
0.28703,0.029817,0.46055,-0.57811,-0.55907,-0.49467,0.019359,0,0,-0.32541,-0.25115,0,0.151,0,0,0.39862,-0.026133,0,0.39947,-0.54701,-0.59016,-0.49467,58.094,-0.54395,0.082827,4.8413e-06,0.58,0.62,0
0.28008,0.029312,0.43667,-0.57611,-0.54271,-0.4812,0.016558,0,0,-0.37014,-0.23989,0,0.12915,0,0,0.39755,-0.023065,0,0.39822,-0.5359,-0.58293,-0.4812,67.621,-0.53334,0.088179,4.5778e-06,0.6,0.62,0
0.27222,0.028628,0.41284,-0.57426,-0.5265,-0.46785,0.014243,0,0,-0.41504,-0.22877,0,0.1111,0,0,0.39684,-0.020281,0,0.39736,-0.52258,-0.57819,-0.46785,74.593,-0.52287,0.095562,-6.1623e-07,0.62,0.62,0
0.26348,0.027818,0.38905,-0.57251,-0.51053,-0.45459,0.012296,0,0,-0.45986,-0.21814,0,0.095906,0,0,0.3964,-0.017745,0,0.3968,-0.50818,-0.57486,-0.45459,79.179,-0.51254,0.10436,-1.093e-05,0.64,0.62,0
0.25383,0.026926,0.36527,-0.57081,-0.49482,-0.44145,0.010602,0,0,-0.50452,-0.20815,0,0.082695,0,0,0.39615,-0.0154,0,0.39645,-0.49337,-0.57227,-0.44145,82.205,-0.50236,0.11409,-2.6546e-05,0.66,0.62,0
0.24329,0.025985,0.34151,-0.56919,-0.47939,-0.42841,0.0090662,0,0,-0.54903,-0.19883,0,0.070717,0,0,0.39606,-0.013187,0,0.39628,-0.47849,-0.5701,-0.42841,84.292,-0.49233,0.12445,-4.7714e-05,0.68,0.62,0
0.23187,0.025017,0.31775,-0.56766,-0.46423,-0.41548,0.0076117,0,0,-0.59349,-0.19011,0,0.059372,0,0,0.39611,-0.011044,0,0.39626,-0.46367,-0.56822,-0.41548,85.814,-0.48246,0.13524,-7.4812e-05,0.7,0.62,0
0.21955,0.024043,0.29398,-0.56626,-0.4493,-0.40266,0.0061816,0,0,-0.63805,-0.18188,0,0.048216,0,0,0.3963,-0.0089093,0,0.3964,-0.44897,-0.56659,-0.40266,86.983,-0.47274,0.14638,-0.00010839,0.72,0.62,0
0.20635,0.023075,0.27019,-0.56506,-0.43456,-0.38995,0.0047394,0,0,-0.68293,-0.17399,0,0.036967,0,0,0.39666,-0.0067247,0,0.39672,-0.43439,-0.56523,-0.38995,87.923,-0.46319,0.15782,-0.00014924,0.74,0.62,0
0.19224,0.022126,0.24638,-0.56411,-0.41998,-0.37735,0.0032708,0,0,-0.72836,-0.16624,0,0.025512,0,0,0.39722,-0.0044349,0,0.39725,-0.41991,-0.56419,-0.37735,88.701,-0.45382,0.16961,-0.00019842,0.76,0.62,0
0.17721,0.02121,0.22252,-0.56351,-0.40551,-0.36488,0.0017882,0,0,-0.77464,-0.15846,0,0.013948,0,0,0.39805,-0.0019917,0,0.39805,-0.40549,-0.56353,-0.36488,89.352,-0.44463,0.18178,-0.00025734,0.78,0.62,0
0.16125,0.020339,0.19861,-0.56332,-0.39111,-0.35253,0.00033753,0,0,-0.82208,-0.15044,0,0.0026327,0,0,0.39923,0.00063753,0,0.39923,-0.39111,-0.56332,-0.35253,89.888,-0.43566,0.1944,-0.00032778,0.8,0.62,0
0.14433,0.019536,0.17462,-0.56364,-0.37674,-0.34032,-0.00099414,0,0,-0.87096,-0.14205,0,-0.0077543,0,0,0.4009,0.0034528,0,0.40091,-0.37674,-0.56365,-0.34032,-89.695,-0.4269,0.20753,-0.00041181,0.82,0.62,0
0.12641,0.018824,0.1505,-0.5645,-0.36242,-0.32825,-0.0020763,0,0,-0.92141,-0.13329,0,-0.016195,0,0,0.4032,0.0063903,0,0.40325,-0.3624,-0.56453,-0.32825,-89.411,-0.41839,0.22119,-0.0005114,0.84,0.62,0
0.10747,0.018238,0.12623,-0.56586,-0.34821,-0.3163,-0.002756,0,0,-0.97328,-0.12446,0,-0.021497,0,0,0.40632,0.0092706,0,0.40643,-0.34818,-0.56589,-0.3163,-89.275,-0.41012,0.23528,-0.00062774,0.86,0.62,0
0.087482,0.01781,0.10175,-0.56759,-0.33428,-0.30448,-0.0029054,0,0,-1.0261,-0.11624,0,-0.022662,0,0,0.41034,0.011736,0,0.41051,-0.33424,-0.56763,-0.30448,-89.287,-0.40212,0.2496,-0.00076049,0.88,0.62,0
0.066427,0.017563,0.076991,-0.56949,-0.32079,-0.29275,-0.002494,0,0,-1.0793,-0.10936,0,-0.019453,0,0,0.41518,0.013238,0,0.4154,-0.32076,-0.56951,-0.29275,-89.425,-0.39434,0.26388,-0.00090791,0.9,0.62,0
0.04431,0.017497,0.051924,-0.5713,-0.30773,-0.28102,-0.0015352,0,0,-1.1321,-0.10418,0,-0.011975,0,0,0.42046,0.013142,0,0.42068,-0.30772,-0.57131,-0.28102,-89.666,-0.38668,0.2779,-0.0010681,0.92,0.62,0
0.021143,0.017597,0.026535,-0.57139,-0.34366,-0.2922,0.00058319,0,0,-0.74905,-0.10034,0,0.00019086,0,0,0.42782,0.021955,0,0.42855,-0.34365,-0.57139,-0.2922,-0.20687,-0.40242,0.25881,-0.0007856,0.94,0.62,0
0.014348,0.017862,0.017885,-0.57333,-0.39139,-0.3073,0.0030851,0,0,-0.34584,-0.10932,0,0.0080211,0,0,0.43821,0.026527,0,0.43904,-0.39134,-0.57339,-0.3073,89.029,-0.42401,0.23559,-0.00039489,0.96,0.62,0
0.0073095,0.018146,0.0090069,-0.57301,-0.38725,-0.29708,0.0026349,0,0,-0.3587,-0.11722,0,0.0068506,0,0,0.44714,0.014775,0,0.44736,-0.38722,-0.57304,-0.29708,89.188,-0.41912,0.24373,-0.00041545,0.98,0.62,0
0,0.01826,0,-0.56125,-0.37247,-0.28012,0.0021823,0,0,-0.36547,-0.12006,0,0.0056741,0,0,0.45034,4.3368e-18,0,0.4503,-0.37245,-0.56128,-0.28012,89.338,-0.40461,0.24823,-0.00043499,1,0.62,0
0,0.02315,1,-0.77685,-2.0078,-1.8354,0.017358,0,0,1.3761,-0.22414,0,0.04513,0,0,0.48384,3.8858e-16,0,0.48336,-0.77661,-2.0081,-1.8354,0.80771,-1.54,1.1548,0.073178,0,0.64,0
0.027522,0.024053,0.99032,-0.74342,-1.9991,-1.8131,0.054454,0,0,1.3906,-0.24186,0,0.14158,0,0,0.47185,-0.052166,0,0.47427,-0.74106,-2.0015,-1.8131,2.4784,-1.5186,1.1776,0.076683,0.02,0.64,0
0.055623,0.026303,0.98113,-0.71174,-2.0551,-1.8112,0.096006,0,0,1.4293,-0.31709,0,0.24962,0,0,0.43681,-0.10656,0,0.45006,-0.70491,-2.0619,-1.8112,4.0673,-1.526,1.2506,0.087007,0.04,0.64,0
0.084693,0.028685,0.97285,-0.65691,-1.5087,-1.2982,0.0945,0,0,1.0477,-0.41031,0,0.46773,0,0,0.3935,-0.088812,0,0.40585,-0.64081,-1.5248,-1.2982,10.14,-1.1546,0.79761,0.047163,0.06,0.64,0
0.09753,0.039002,0.95046,-0.60617,-0.94281,-0.78151,0.072988,0,0,0.68383,-0.62906,0,0.5693,0,0,0.36347,-0.050032,0,0.36707,-0.59103,-0.95796,-0.78151,11.721,-0.77683,0.31785,0.00010924,0.08,0.64,0
0.11205,0.045812,0.92924,-0.58294,-0.95847,-0.77217,0.048136,0,0,0.738,-0.72659,0,0.37546,0,0,0.34636,-0.044005,0,0.34919,-0.57686,-0.96454,-0.77217,7.1893,-0.77119,0.33574,2.5415e-05,0.1,0.64,0
0.12705,0.049686,0.90889,-0.56985,-0.95643,-0.76085,0.030686,0,0,0.74489,-0.76276,0,0.23935,0,0,0.33476,-0.036932,0,0.3368,-0.56743,-0.95885,-0.76085,4.5104,-0.76238,0.33898,-4.0575e-05,0.12,0.64,0
0.14184,0.051579,0.88906,-0.56341,-0.94929,-0.75016,0.020274,0,0,0.72835,-0.77659,0,0.15814,0,0,0.328,-0.031371,0,0.3295,-0.56234,-0.95035,-0.75016,2.9993,-0.75429,0.33608,-0.00010759,0.14,0.64,0
0.15618,0.052241,0.86953,-0.55898,-0.93832,-0.73903,0.014949,0,0,0.70221,-0.7772,0,0.1166,0,0,0.32396,-0.027396,0,0.32512,-0.55839,-0.9389,-0.73903,2.2532,-0.74544,0.32967,-0.00016083,0.16,0.64,0
0.16993,0.052125,0.85019,-0.55312,-0.92383,-0.72648,0.013962,0,0,0.6761,-0.76965,0,0.1089,0,0,0.32181,-0.024919,0,0.32277,-0.5526,-0.92435,-0.72648,2.1538,-0.73448,0.32217,-0.00019146,0.18,0.64,0
0.183,0.051518,0.83095,-0.5523,-0.90897,-0.71536,0.014572,0,0,0.63595,-0.75504,0,0.11366,0,0,0.32003,-0.023071,0,0.32086,-0.55171,-0.90956,-0.71536,2.3358,-0.72554,0.31029,-0.00022576,0.2,0.64,0
0.19537,0.050566,0.81178,-0.54978,-0.89341,-0.70355,0.01513,0,0,0.5997,-0.74045,0,0.11801,0,0,0.31933,-0.020862,0,0.32,-0.54912,-0.89407,-0.70355,2.5162,-0.71558,0.29929,-0.00024782,0.22,0.64,0
0.20699,0.049288,0.79263,-0.55096,-0.87928,-0.69329,0.012891,0,0,0.55505,-0.72538,0,0.10055,0,0,0.31947,-0.018322,0,0.31999,-0.55046,-0.87979,-0.69329,2.2451,-0.70784,0.28604,-0.00027316,0.24,0.64,0
0.21783,0.047573,0.77346,-0.54648,-0.85998,-0.67976,0.010183,0,0,0.51979,-0.70288,0,0.079428,0,0,0.32053,-0.015081,0,0.32088,-0.54615,-0.86031,-0.67976,1.8584,-0.69541,0.27309,-0.00026706,0.26,0.64,0
0.22778,0.045174,0.75417,-0.54644,-0.83921,-0.66708,0.0041332,0,0,0.47053,-0.67129,0,0.032239,0,0,0.32359,-0.010151,0,0.32374,-0.54638,-0.83927,-0.66708,0.80865,-0.68424,0.25495,-0.00025428,0.28,0.64,0
0.23665,0.041628,0.73463,-0.55213,-0.81489,-0.65498,-0.0069028,0,0,0.40112,-0.62364,0,-0.053842,0,0,0.33048,-0.0031667,0,0.3305,-0.55195,-0.81507,-0.65498,-1.5038,-0.674,0.22965,-0.00022705,0.3,0.64,0
0.24383,0.036449,0.71452,-0.56428,-0.77621,-0.64032,-0.022538,0,0,0.29654,-0.52996,0,-0.1758,0,0,0.34215,0.0045369,0,0.34228,-0.56191,-0.77858,-0.64032,-6.004,-0.66027,0.19001,-0.00016097,0.32,0.64,0
0.24852,0.02948,0.69357,-0.59808,-1.187,-0.99789,-0.033616,0,0,0.59786,-0.36718,0,-0.165,0,0,0.36447,0.020468,0,0.36539,-0.5946,-1.1905,-0.99789,-6.3577,-0.92765,0.53081,0.013531,0.34,0.64,0
0.26774,0.025309,0.68597,-0.61885,-1.5525,-1.3374,-0.03452,0,0,0.93409,-0.27968,0,-0.089753,0,0,0.39693,0.016067,0,0.39694,-0.61757,-1.5538,-1.3374,-2.1145,-1.1696,0.84896,0.024675,0.36,0.64,0
0.28588,0.021351,0.67769,-0.64536,-1.4942,-1.3196,-0.0028804,0,0,0.87645,-0.22702,0,-0.0074891,0,0,0.42501,-0.038438,0,0.42651,-0.64536,-1.4942,-1.3196,-0.19443,-1.153,0.7764,0.019998,0.38,0.64,0
0.3031,0.018068,0.66908,-0.64825,-1.4624,-1.3023,0.018117,0,0,0.85024,-0.20819,0,0.047105,0,0,0.43062,-0.065896,0,0.43555,-0.64785,-1.4628,-1.3023,1.2741,-1.1377,0.74775,0.018181,0.4,0.64,0
0.31989,0.015583,0.66047,-0.6286,-1.0384,-0.94042,0.036173,0,0,0.37688,-0.1911,0,0.19858,0,0,0.42883,-0.05324,0,0.4329,-0.61352,-1.0535,-0.94042,19.004,-0.86915,0.40696,0.0086947,0.42,0.64,0
0.31818,0.017698,0.63485,-0.61366,-0.64555,-0.58938,0.041606,0,0,-0.094703,-0.21905,0,0.32453,0,0,0.42503,-0.032862,0,0.4263,-0.58505,-0.67416,-0.58938,34.517,-0.6162,0.087028,-3.3571e-05,0.44,0.64,0
0.3161,0.019844,0.60946,-0.60613,-0.63807,-0.57641,0.040524,0,0,-0.11588,-0.24047,0,0.31609,0,0,0.42085,-0.035892,0,0.42238,-0.57854,-0.66566,-0.57641,34.244,-0.60687,0.0882,-3.517e-05,0.46,0.64,0
0.31354,0.021714,0.58435,-0.59969,-0.62804,-0.5631,0.037143,0,0,-0.14269,-0.25327,0,0.28972,0,0,0.41635,-0.036459,0,0.41795,-0.57411,-0.65362,-0.5631,34.554,-0.59694,0.08555,-3.037e-05,0.48,0.64,0
0.31039,0.02317,0.5595,-0.59447,-0.61585,-0.54959,0.032835,0,0,-0.175,-0.25839,0,0.25611,0,0,0.41215,-0.035321,0,0.41366,-0.57063,-0.63969,-0.54959,35.983,-0.58664,0.081636,-2.1815e-05,0.5,0.64,0
0.30654,0.024179,0.53489,-0.59028,-0.60208,-0.53601,0.028424,0,0,-0.21168,-0.2577,0,0.22171,0,0,0.40853,-0.03315,0,0.40988,-0.56715,-0.62521,-0.53601,39.137,-0.57612,0.078419,-1.225e-05,0.52,0.64,0
0.30192,0.024772,0.51048,-0.58689,-0.5873,-0.52241,0.024326,0,0,-0.25146,-0.25304,0,0.18974,0,0,0.4056,-0.030462,0,0.40674,-0.56277,-0.61142,-0.52241,44.761,-0.56553,0.077193,-3.7963e-06,0.54,0.64,0
0.29649,0.025005,0.48622,-0.58406,-0.57189,-0.50886,0.020712,0,0,-0.2933,-0.24582,0,0.16155,0,0,0.40331,-0.027609,0,0.40426,-0.55639,-0.59957,-0.50886,53.19,-0.55494,0.078584,2.0696e-06,0.56,0.64,0
0.29019,0.02494,0.46208,-0.58164,-0.55616,-0.49537,0.017618,0,0,-0.33647,-0.23709,0,0.13742,0,0,0.40158,-0.024797,0,0.40235,-0.54716,-0.59064,-0.49537,62.936,-0.54439,0.082615,4.3537e-06,0.58,0.64,0
0.28303,0.024642,0.43803,-0.57949,-0.54032,-0.48195,0.015011,0,0,-0.3804,-0.22762,0,0.11709,0,0,0.4003,-0.022131,0,0.40091,-0.53523,-0.58458,-0.48195,71.267,-0.53392,0.088902,2.3839e-06,0.6,0.64,0
0.27498,0.024164,0.41404,-0.57754,-0.52451,-0.46863,0.012821,0,0,-0.42476,-0.21792,0,0.1,0,0,0.39938,-0.019647,0,0.39986,-0.52157,-0.58048,-0.46863,77.099,-0.52356,0.096911,-4.3123e-06,0.62,0.64,0
0.26604,0.023557,0.3901,-0.57574,-0.50882,-0.4554,0.010962,0,0,-0.46932,-0.20833,0,0.085501,0,0,0.39875,-0.01734,0,0.39912,-0.50707,-0.57749,-0.4554,80.93,-0.51332,0.10615,-1.6106e-05,0.64,0.64,0
0.2562,0.022858,0.36619,-0.57407,-0.49331,-0.44228,0.0093502,0,0,-0.51397,-0.19904,0,0.072931,0,0,0.39835,-0.015184,0,0.39864,-0.49224,-0.57514,-0.44228,83.481,-0.50322,0.11623,-3.3349e-05,0.66,0.64,0
0.24548,0.022099,0.3423,-0.57252,-0.478,-0.42926,0.0079104,0,0,-0.55871,-0.19012,0,0.061701,0,0,0.39817,-0.013136,0,0.39838,-0.47735,-0.57317,-0.42926,85.249,-0.49326,0.1269,-5.643e-05,0.68,0.64,0
0.23386,0.021305,0.31841,-0.5711,-0.4629,-0.41634,0.0065808,0,0,-0.60359,-0.18158,0,0.05133,0,0,0.39818,-0.011153,0,0.39833,-0.4625,-0.5715,-0.41634,86.532,-0.48345,0.138,-8.5832e-05,0.7,0.64,0
0.22133,0.020496,0.29452,-0.56986,-0.44798,-0.40352,0.0053166,0,0,-0.6487,-0.17337,0,0.041469,0,0,0.39838,-0.0091889,0,0.39849,-0.44775,-0.57009,-0.40352,87.507,-0.47379,0.14944,-0.00012217,0.72,0.64,0
0.20791,0.019688,0.27061,-0.56881,-0.43323,-0.39082,0.004092,0,0,-0.69419,-0.16542,0,0.031918,0,0,0.3988,-0.0071996,0,0.39887,-0.43311,-0.56894,-0.39082,88.273,-0.46429,0.16119,-0.00016621,0.74,0.64,0
0.19357,0.018896,0.24666,-0.56802,-0.41864,-0.37822,0.0029021,0,0,-0.74021,-0.15765,0,0.022637,0,0,0.39946,-0.0051475,0,0.3995,-0.41858,-0.56807,-0.37822,88.887,-0.45496,0.17324,-0.00021892,0.76,0.64,0
0.1783,0.018135,0.22267,-0.56751,-0.40418,-0.36573,0.0017656,0,0,-0.78694,-0.14996,0,0.013772,0,0,0.40042,-0.0030054,0,0.40042,-0.40416,-0.56753,-0.36573,89.381,-0.44581,0.18559,-0.00028144,0.78,0.64,0
0.16209,0.017423,0.19861,-0.56733,-0.38985,-0.35336,0.00072691,0,0,-0.8345,-0.14231,0,0.0056699,0,0,0.40172,-0.00076658,0,0.40172,-0.38985,-0.56734,-0.35336,89.765,-0.43685,0.19827,-0.00035503,0.8,0.64,0
0.14492,0.01678,0.17447,-0.5675,-0.37565,-0.3411,-0.00014473,0,0,-0.88297,-0.13473,0,-0.0011289,0,0,0.40346,0.0015416,0,0.40346,-0.37565,-0.5675,-0.3411,-89.957,-0.42808,0.21126,-0.00044091,0.82,0.64,0
0.12677,0.01623,0.1502,-0.568,-0.36162,-0.32895,-0.0007649,0,0,-0.93228,-0.12739,0,-0.0059662,0,0,0.4057,0.0038356,0,0.40572,-0.36161,-0.568,-0.32895,-89.788,-0.41952,0.22451,-0.00053995,0.84,0.64,0
0.10763,0.015797,0.12578,-0.56875,-0.34783,-0.3169,-0.0010561,0,0,-0.9822,-0.12064,0,-0.0082372,0,0,0.40851,0.005951,0,0.40855,-0.34783,-0.56875,-0.3169,-89.726,-0.41116,0.2379,-0.00065229,0.86,0.64,0
0.087483,0.015503,0.10118,-0.56964,-0.33441,-0.30494,-0.00098074,0,0,-1.0323,-0.11492,0,-0.0076498,0,0,0.41186,0.0076281,0,0.41193,-0.3344,-0.56964,-0.30494,-89.761,-0.403,0.25127,-0.00077716,0.88,0.64,0
0.066335,0.01536,0.076358,-0.57053,-0.32141,-0.29303,-0.00055468,0,0,-1.0822,-0.11066,0,-0.0043265,0,0,0.4156,0.008532,0,0.41569,-0.32141,-0.57053,-0.29303,-89.872,-0.39499,0.26446,-0.00091315,0.9,0.64,0
0.044193,0.015367,0.051306,-0.57124,-0.30878,-0.28111,0.00016971,0,0,-1.1315,-0.10791,0,0.0013238,0,0,0.41942,0.0083311,0,0.41951,-0.30878,-0.57124,-0.28111,89.963,-0.38704,0.27733,-0.0010589,0.92,0.64,0
0.021074,0.015509,0.026028,-0.57111,-0.34758,-0.29296,0.001493,0,0,-0.74691,-0.10651,0,0.0058777,0,0,0.42438,0.013636,0,0.42467,-0.34757,-0.57112,-0.29296,89.561,-0.40388,0.25696,-0.00075306,0.94,0.64,0
0.014316,0.015648,0.017478,-0.57159,-0.39232,-0.30665,0.0028427,0,0,-0.34442,-0.11137,0,0.007391,0,0,0.43118,0.016383,0,0.4315,-0.39228,-0.57164,-0.30665,89.092,-0.42352,0.23422,-0.00037501,0.96,0.64,0
0.0072971,0.015806,0.0087805,-0.57088,-0.38506,-0.29556,0.0022246,0,0,-0.35791,-0.11635,0,0.005784,0,0,0.43696,0.0091027,0,0.43704,-0.38503,-0.57091,-0.29556,89.314,-0.41717,0.24328,-0.00041655,0.98,0.64,0
0,0.015871,0,-0.5594,-0.36975,-0.27875,0.0012506,0,0,-0.36486,-0.1183,0,0.0032514,0,0,0.43902,6.5052e-18,0,0.43901,-0.36974,-0.55941,-0.27875,89.622,-0.40263,0.24802,-0.00044298,1,0.64,0
0,0.01801,1,-0.73069,-2.0516,-1.8347,0.0086432,0,0,1.4352,-0.28194,0,0.022472,0,0,0.44053,2.2395e-15,0,0.44029,-0.73064,-2.0516,-1.8347,0.3749,-1.539,1.227,0.08496,0,0.66,0
0.028703,0.018459,0.99119,-0.71105,-2.05,-1.8195,0.033126,0,0,1.441,-0.29966,0,0.086127,0,0,0.43213,-0.034502,0,0.4334,-0.71024,-2.0508,-1.8195,1.4163,-1.5269,1.2412,0.086824,0.02,0.66,0
0.05764,0.019596,0.98272,-0.68884,-2.0768,-1.8124,0.053566,0,0,1.4607,-0.34375,0,0.13927,0,0,0.40841,-0.063034,0,0.41346,-0.68677,-2.0789,-1.8124,2.2068,-1.526,1.2799,0.092137,0.04,0.66,0
0.08713,0.020836,0.97485,-0.64019,-1.488,-1.2884,0.057091,0,0,1.0534,-0.38935,0,0.2876,0,0,0.38062,-0.052879,0,0.38532,-0.63366,-1.4946,-1.2884,6.7659,-1.1389,0.78059,0.048203,0.06,0.66,0
0.099775,0.027271,0.95276,-0.60222,-0.9186,-0.77384,0.047397,0,0,0.66929,-0.56459,0,0.3697,0,0,0.36147,-0.031286,0,0.36289,-0.59528,-0.92555,-0.77384,8.3397,-0.76489,0.28634,0.00016908,0.08,0.66,0
0.1139,0.031938,0.93148,-0.58177,-0.93958,-0.76689,0.033978,0,0,0.722,-0.67345,0,0.26503,0,0,0.34902,-0.031388,0,0.35047,-0.57857,-0.94277,-0.76689,5.3768,-0.76275,0.31547,9.5381e-05,0.1,0.66,0
0.12865,0.034774,0.91088,-0.56832,-0.94574,-0.75785,0.022479,0,0,0.73914,-0.73278,0,0.17533,0,0,0.3389,-0.028922,0,0.34015,-0.56699,-0.94707,-0.75785,3.3965,-0.7573,0.32916,1.3598e-05,0.12,0.66,0
0.14347,0.036221,0.89081,-0.55985,-0.94329,-0.74788,0.015216,0,0,0.7333,-0.7621,0,0.11869,0,0,0.33158,-0.026224,0,0.33262,-0.55925,-0.94389,-0.74788,2.269,-0.75034,0.33313,-6.3134e-05,0.14,0.66,0
0.15799,0.036742,0.87109,-0.55439,-0.93585,-0.73744,0.011499,0,0,0.71388,-0.77383,0,0.089696,0,0,0.32663,-0.024091,0,0.32752,-0.55404,-0.9362,-0.73744,1.7251,-0.74256,0.33105,-0.00012967,0.16,0.66,0
0.17202,0.036686,0.85161,-0.54831,-0.92419,-0.72562,0.010063,0,0,0.69151,-0.77441,0,0.078491,0,0,0.32386,-0.022195,0,0.32462,-0.54804,-0.92445,-0.72562,1.5325,-0.7327,0.32616,-0.00017396,0.18,0.66,0
0.18544,0.036274,0.83228,-0.5482,-0.91281,-0.71573,0.0085503,0,0,0.65336,-0.76861,0,0.066692,0,0,0.32166,-0.020907,0,0.32234,-0.548,-0.91301,-0.71573,1.3426,-0.72558,0.31645,-0.00022733,0.2,0.66,0
0.19816,0.035624,0.81301,-0.54602,-0.89707,-0.70393,0.0089987,0,0,0.61586,-0.75325,0,0.07019,0,0,0.32108,-0.020431,0,0.32173,-0.54579,-0.8973,-0.70393,1.4674,-0.71567,0.30493,-0.00025123,0.22,0.66,0
0.21008,0.034754,0.79375,-0.54759,-0.8795,-0.69271,0.010139,0,0,0.56597,-0.72849,0,0.079083,0,0,0.32193,-0.01933,0,0.32251,-0.54728,-0.87981,-0.69271,1.748,-0.7066,0.28873,-0.00026579,0.24,0.66,0
0.2211,0.033592,0.77441,-0.54414,-0.85732,-0.67857,0.0098885,0,0,0.5243,-0.69712,0,0.07713,0,0,0.32383,-0.017183,0,0.32429,-0.54382,-0.85763,-0.67857,1.8067,-0.69334,0.27267,-0.00025157,0.26,0.66,0
0.23105,0.031961,0.75489,-0.54664,-0.83312,-0.66556,0.006334,0,0,0.46377,-0.65349,0,0.049405,0,0,0.32793,-0.014412,0,0.32826,-0.5465,-0.83326,-0.66556,1.266,-0.68177,0.24953,-0.00023039,0.28,0.66,0
0.23965,0.029624,0.73506,-0.55283,-0.80252,-0.65162,8.8479e-05,0,0,0.38529,-0.58849,0,0.00069013,0,0,0.3345,-0.011176,0,0.33471,-0.55283,-0.80252,-0.65162,0.020303,-0.66899,0.2178,-0.00018678,0.3,0.66,0
0.24646,0.026373,0.71475,-0.5638,-0.76213,-0.63603,-0.0069714,0,0,0.28169,-0.49179,0,-0.054377,0,0,0.34341,-0.00919,0,0.34358,-0.56355,-0.76237,-0.63603,-2.0107,-0.65398,0.17428,-0.00012203,0.32,0.66,0
0.25091,0.022319,0.69385,-0.58919,-1.1755,-0.99196,-0.010629,0,0,0.59783,-0.35786,0,-0.054236,0,0,0.35837,-0.028656,0,0.35996,-0.58878,-1.1759,-0.99196,-2.2651,-0.91887,0.52452,0.01397,0.34,0.66,0
0.27037,0.019231,0.68648,-0.61922,-1.5902,-1.3493,-0.0076835,0,0,0.9491,-0.31313,0,-0.019977,0,0,0.38122,-0.052457,0,0.3848,-0.61916,-1.5902,-1.3493,-0.45337,-1.1862,0.87582,0.025903,0.36,0.66,0
0.28888,0.016277,0.6786,-0.63974,-1.5341,-1.3308,0.0032943,0,0,0.8983,-0.26434,0,0.0085652,0,0,0.40533,-0.056414,0,0.40929,-0.63973,-1.5341,-1.3308,0.21104,-1.1682,0.81202,0.021794,0.38,0.66,0
0.30657,0.013683,0.67038,-0.63634,-1.4801,-1.3053,0.017599,0,0,0.86965,-0.22719,0,0.045757,0,0,0.41518,-0.068211,0,0.42073,-0.63597,-1.4804,-1.3053,1.1944,-1.1406,0.77193,0.019588,0.4,0.66,0
0.32366,0.011588,0.66199,-0.62445,-1.0494,-0.94347,0.0305,0,0,0.38975,-0.2065,0,0.16702,0,0,0.42049,-0.051373,0,0.42438,-0.61357,-1.0602,-0.94347,16.815,-0.87243,0.41277,0.0092252,0.42,0.66,0
0.32216,0.013338,0.6367,-0.61283,-0.64559,-0.58976,0.035084,0,0,-0.089979,-0.21776,0,0.27366,0,0,0.42097,-0.029982,0,0.42203,-0.59049,-0.66793,-0.58976,32.485,-0.61606,0.07781,-2.4188e-05,0.44,0.66,0
0.32006,0.015167,0.61147,-0.60755,-0.63542,-0.57672,0.034639,0,0,-0.12026,-0.22894,0,0.27018,0,0,0.41914,-0.032159,0,0.42038,-0.58415,-0.65882,-0.57672,34.044,-0.60656,0.078653,-2.4239e-05,0.46,0.66,0
0.31735,0.016832,0.5864,-0.6024,-0.62414,-0.56343,0.03222,0,0,-0.15199,-0.23678,0,0.25132,0,0,0.41644,-0.032607,0,0.41772,-0.57927,-0.64727,-0.56343,35.679,-0.59666,0.077156,-2.028e-05,0.48,0.66,0
0.31399,0.018197,0.5615,-0.59777,-0.61162,-0.54998,0.028834,0,0,-0.18637,-0.24038,0,0.22491,0,0,0.41347,-0.031782,0,0.41469,-0.57504,-0.63435,-0.54998,38.248,-0.58646,0.075044,-1.3828e-05,0.5,0.66,0
0.3099,0.019214,0.53678,-0.59377,-0.59804,-0.53647,0.025179,0,0,-0.22346,-0.24013,0,0.1964,0,0,0.4106,-0.030124,0,0.41171,-0.57063,-0.62117,-0.53647,42.574,-0.57609,0.073812,-6.7603e-06,0.52,0.66,0
0.30505,0.019884,0.51223,-0.59033,-0.58366,-0.52294,0.021661,0,0,-0.26282,-0.23682,0,0.16896,0,0,0.40804,-0.027993,0,0.409,-0.56508,-0.60891,-0.52294,49.373,-0.56564,0.074459,-7.224e-07,0.54,0.66,0
0.29939,0.020242,0.48782,-0.58737,-0.56874,-0.50944,0.018479,0,0,-0.30392,-0.23129,0,0.14414,0,0,0.40587,-0.025657,0,0.40668,-0.55736,-0.59875,-0.50944,58.371,-0.55518,0.077413,3.0122e-06,0.56,0.66,0
0.29289,0.020333,0.46352,-0.58478,-0.5535,-0.49599,0.015704,0,0,-0.34628,-0.22427,0,0.12249,0,0,0.4041,-0.023293,0,0.40477,-0.54697,-0.5913,-0.49599,67.444,-0.54476,0.08261,3.4899e-06,0.58,0.66,0
0.28554,0.020207,0.43933,-0.58249,-0.53808,-0.48261,0.013332,0,0,-0.38952,-0.21633,0,0.10399,0,0,0.4027,-0.021001,0,0.40325,-0.53439,-0.58619,-0.48261,74.509,-0.5344,0.089696,-1.4551e-08,0.6,0.66,0
0.27731,0.019911,0.4152,-0.58044,-0.52263,-0.46932,0.01132,0,0,-0.43336,-0.20791,0,0.088299,0,0,0.40163,-0.018827,0,0.40207,-0.52049,-0.58258,-0.46932,79.306,-0.52413,0.098234,-8.0799e-06,0.62,0.66,0
0.2682,0.019485,0.39113,-0.57858,-0.50722,-0.45612,0.0096094,0,0,-0.47761,-0.1993,0,0.074953,0,0,0.40086,-0.016783,0,0.40121,-0.50595,-0.57985,-0.45612,82.463,-0.51397,0.10783,-2.1206e-05,0.64,0.66,0
0.25821,0.018965,0.3671,-0.5769,-0.49191,-0.44301,0.0081348,0,0,-0.52217,-0.19072,0,0.063451,0,0,0.40035,-0.014856,0,0.40063,-0.49114,-0.57767,-0.44301,84.581,-0.50394,0.11819,-3.9868e-05,0.66,0.66,0
0.24732,0.01838,0.34309,-0.57538,-0.47674,-0.43,0.0068371,0,0,-0.567,-0.18229,0,0.053329,0,0,0.40009,-0.013021,0,0.4003,-0.47627,-0.57585,-0.43,86.054,-0.49404,0.1291,-6.4566e-05,0.68,0.66,0
0.23553,0.017754,0.31909,-0.57404,-0.46171,-0.41709,0.005667,0,0,-0.6121,-0.17405,0,0.044203,0,0,0.40006,-0.011245,0,0.40021,-0.46143,-0.57432,-0.41709,87.119,-0.48428,0.14042,-9.5854e-05,0.7,0.66,0
0.22283,0.017108,0.29508,-0.57288,-0.44685,-0.40428,0.0045888,0,0,-0.65754,-0.16603,0,0.035793,0,0,0.40026,-0.0094953,0,0.40037,-0.44668,-0.57305,-0.40428,87.918,-0.47467,0.15207,-0.00013437,0.72,0.66,0
0.20922,0.016458,0.27105,-0.57193,-0.43214,-0.39157,0.0035824,0,0,-0.70338,-0.15823,0,0.027943,0,0,0.4007,-0.0077407,0,0.40078,-0.43205,-0.57202,-0.39157,88.533,-0.46521,0.164,-0.00018085,0.74,0.66,0
0.1947,0.015821,0.24699,-0.5712,-0.41759,-0.37897,0.0026454,0,0,-0.74969,-0.15063,0,0.020634,0,0,0.40142,-0.0059559,0,0.40146,-0.41755,-0.57124,-0.37897,89.014,-0.45592,0.17618,-0.00023611,0.76,0.66,0
0.17924,0.015211,0.22288,-0.57071,-0.4032,-0.36647,0.0017935,0,0,-0.79655,-0.14326,0,0.01399,0,0,0.40243,-0.0041267,0,0.40245,-0.40318,-0.57073,-0.36647,89.387,-0.44679,0.1886,-0.00030103,0.78,0.66,0
0.16283,0.014647,0.1987,-0.57047,-0.38898,-0.35407,0.00106,0,0,-0.84396,-0.13616,0,0.0082681,0,0,0.40378,-0.0022578,0,0.40379,-0.38898,-0.57048,-0.35407,89.665,-0.43784,0.20124,-0.00037644,0.8,0.66,0
0.14548,0.014146,0.17443,-0.57046,-0.37497,-0.34177,0.0004902,0,0,-0.89188,-0.12946,0,0.0038235,0,0,0.4055,-0.00038289,0,0.4055,-0.37497,-0.57046,-0.34177,89.856,-0.42907,0.21403,-0.000463,0.82,0.66,0
0.12716,0.013729,0.15004,-0.57064,-0.3612,-0.32957,0.00013091,0,0,-0.94019,-0.12336,0,0.0010211,0,0,0.40761,0.0014237,0,0.40762,-0.3612,-0.57064,-0.32957,89.964,-0.42047,0.22692,-0.000561,0.84,0.66,0
0.10787,0.013413,0.12552,-0.57095,-0.34774,-0.31744,1.3655e-05,0,0,-0.98865,-0.11815,0,0.00010651,0,0,0.41011,0.0030375,0,0.41012,-0.34774,-0.57095,-0.31744,89.996,-0.41204,0.23979,-0.00067021,0.86,0.66,0
0.087612,0.013213,0.10083,-0.57128,-0.33464,-0.30539,0.00013945,0,0,-1.037,-0.11409,0,0.0010877,0,0,0.41292,0.0042863,0,0.41295,-0.33464,-0.57128,-0.30539,89.966,-0.40377,0.25254,-0.00078993,0.88,0.66,0
0.06639,0.013137,0.075967,-0.57156,-0.32193,-0.29337,0.00047482,0,0,-1.085,-0.11137,0,0.0037036,0,0,0.41589,0.0049725,0,0.41592,-0.32192,-0.57156,-0.29337,89.891,-0.39562,0.26507,-0.00091922,0.9,0.66,0
0.044214,0.01318,0.050924,-0.57167,-0.30953,-0.28134,0.0009705,0,0,-1.1323,-0.10995,0,0.0075699,0,0,0.41875,0.0049219,0,0.41878,-0.30952,-0.57168,-0.28134,89.788,-0.38751,0.27732,-0.0010574,0.92,0.66,0
0.021097,0.013336,0.025717,-0.57152,-0.34975,-0.29352,0.0017085,0,0,-0.74667,-0.10964,0,0.0077088,0,0,0.42224,0.0080941,0,0.42234,-0.34973,-0.57153,-0.29352,89.513,-0.40493,0.25639,-0.00073983,0.94,0.66,0
0.014347,0.013408,0.01723,-0.57149,-0.39274,-0.3065,0.0022701,0,0,-0.34449,-0.11211,0,0.0059022,0,0,0.42686,0.0097298,0,0.42698,-0.39271,-0.57152,-0.3065,89.272,-0.42358,0.23414,-0.00037071,0.96,0.66,0
0.0073177,0.013492,0.0086428,-0.57076,-0.38327,-0.29485,0.0016249,0,0,-0.35868,-0.11494,0,0.0042248,0,0,0.43075,0.0054061,0,0.43079,-0.38326,-0.57078,-0.29485,89.504,-0.4163,0.24404,-0.00042977,0.98,0.66,0
0,0.013527,0,-0.55952,-0.36738,-0.27807,0.00067857,0,0,-0.36589,-0.1161,0,0.0017643,0,0,0.43214,-8.6736e-19,0,0.43213,-0.36738,-0.55953,-0.27807,89.798,-0.40166,0.24911,-0.00046372,1,0.66,0
0,0.011872,1,-0.70658,-2.0821,-1.8366,0.0037306,0,0,1.469,-0.31917,0,0.0096995,0,0,0.41484,9.3675e-16,0,0.41476,-0.70657,-2.0821,-1.8366,0.15539,-1.5418,1.2707,0.092262,0,0.68,0
0.029381,0.012067,0.9917,-0.69002,-2.0747,-1.8211,0.015887,0,0,1.4704,-0.32967,0,0.041306,0,0,0.40881,-0.019245,0,0.40924,-0.68984,-2.0749,-1.8211,0.65725,-1.5286,1.2772,0.092929,0.02,0.68,0
0.058817,0.012553,0.98365,-0.67441,-2.0859,-1.8117,0.026259,0,0,1.4785,-0.35641,0,0.068274,0,0,0.39199,-0.035009,0,0.39369,-0.67392,-2.0864,-1.8117,1.0654,-1.524,1.2971,0.095374,0.04,0.68,0
0.088522,0.013111,0.97602,-0.63313,-1.4837,-1.2857,0.02888,0,0,1.06,-0.38611,0,0.14699,0,0,0.37237,-0.029503,0,0.37393,-0.63136,-1.4855,-1.2857,3.5818,-1.1342,0.77563,0.048894,0.06,0.68,0
0.10122,0.016419,0.95421,-0.59907,-0.90645,-0.76972,0.02526,0,0,0.66556,-0.53321,0,0.19702,0,0,0.35852,-0.018798,0,0.35905,-0.59701,-0.90851,-0.76972,4.6667,-0.75841,0.2703,0.00019001,0.08,0.68,0
0.11514,0.018874,0.933,-0.58065,-0.92853,-0.76375,0.018719,0,0,0.71409,-0.64261,0,0.14601,0,0,0.34872,-0.020464,0,0.34936,-0.57965,-0.92953,-0.76375,3.0713,-0.75765,0.30314,0.0001296,0.1,0.68,0
0.12978,0.020375,0.91236,-0.56675,-0.93852,-0.7557,0.012734,0,0,0.73692,-0.71299,0,0.099323,0,0,0.33992,-0.020661,0,0.34057,-0.56631,-0.93896,-0.7557,1.9594,-0.75366,0.32273,4.9229e-05,0.12,0.68,0
0.14462,0.021095,0.89221,-0.55718,-0.93967,-0.74646,0.0088703,0,0,0.73819,-0.75353,0,0.069189,0,0,0.33283,-0.020333,0,0.33347,-0.55697,-0.93988,-0.74646,1.3278,-0.74777,0.33161,-3.3326e-05,0.14,0.68,0
0.15931,0.021288,0.87243,-0.55071,-0.93467,-0.73642,0.0072246,0,0,0.72428,-0.77316,0,0.056352,0,0,0.32761,-0.020089,0,0.32823,-0.55057,-0.9348,-0.73642,1.0776,-0.7406,0.33282,-0.0001069,0.16,0.68,0
0.17359,0.021173,0.8529,-0.54629,-0.92531,-0.72578,0.0072322,0,0,0.7,-0.77816,0,0.056412,0,0,0.32411,-0.020104,0,0.32473,-0.54615,-0.92544,-0.72578,1.0928,-0.73246,0.32863,-0.00016653,0.18,0.68,0
0.18731,0.020902,0.83353,-0.54327,-0.91259,-0.7146,0.0082491,0,0,0.66819,-0.77214,0,0.064343,0,0,0.32216,-0.020311,0,0.3228,-0.54309,-0.91277,-0.7146,1.2789,-0.72349,0.32043,-0.00021036,0.2,0.68,0
0.20032,0.020559,0.81424,-0.54141,-0.89697,-0.70293,0.0096575,0,0,0.62992,-0.75677,0,0.075328,0,0,0.32167,-0.020532,0,0.32232,-0.54115,-0.89723,-0.70293,1.5547,-0.71377,0.30881,-0.00023808,0.22,0.68,0
0.2125,0.020166,0.79493,-0.54082,-0.87842,-0.69075,0.010864,0,0,0.58473,-0.73192,0,0.084736,0,0,0.32266,-0.020559,0,0.32331,-0.54047,-0.87877,-0.69075,1.8412,-0.70333,0.29359,-0.00024924,0.24,0.68,0
0.22371,0.019688,0.77552,-0.54198,-0.85642,-0.67803,0.0113,0,0,0.53057,-0.69573,0,0.088142,0,0,0.32525,-0.020223,0,0.32588,-0.54158,-0.85682,-0.67803,2.0556,-0.69214,0.27383,-0.00024268,0.26,0.68,0
0.23373,0.019034,0.7559,-0.54562,-0.8298,-0.66459,0.010513,0,0,0.46399,-0.6443,0,0.081999,0,0,0.32959,-0.019521,0,0.33018,-0.54524,-0.83019,-0.66459,2.1157,-0.68,0.24786,-0.00021628,0.28,0.68,0
0.24227,0.018089,0.73597,-0.55254,-0.79698,-0.65018,0.0085435,0,0,0.38079,-0.57253,0,0.066639,0,0,0.3357,-0.018798,0,0.33624,-0.55224,-0.79728,-0.65018,1.9993,-0.66657,0.21363,-0.00016981,0.3,0.68,0
0.24896,0.016777,0.71562,-0.56271,-0.75633,-0.63425,0.0062511,0,0,0.27901,-0.47612,0,0.048759,0,0,0.34317,-0.018707,0,0.3437,-0.56251,-0.75654,-0.63425,1.8472,-0.6511,0.16992,-0.00010911,0.32,0.68,0
0.25343,0.015163,0.69479,-0.58725,-1.176,-0.99218,0.0057578,0,0,0.60091,-0.35852,0,0.029725,0,0,0.35511,-0.039827,0,0.35795,-0.58713,-1.1762,-0.99218,1.2499,-0.91849,0.52636,0.014196,0.34,0.68,0
0.27299,0.012968,0.68753,-0.61246,-1.591,-1.3486,0.0089181,0,0,0.95693,-0.31515,0,0.023187,0,0,0.3738,-0.063684,0,0.37934,-0.61238,-1.5911,-1.3486,0.52213,-1.184,0.88278,0.026549,0.36,0.68,0
0.29171,0.010884,0.67984,-0.62426,-1.5385,-1.3287,0.014754,0,0,0.91572,-0.27276,0,0.03836,0,0,0.39294,-0.070414,0,0.39928,-0.62402,-1.5387,-1.3287,0.92433,-1.1638,0.82985,0.023133,0.38,0.68,0
0.30962,0.00898,0.67181,-0.63211,-1.4924,-1.3092,0.021973,0,0,0.88017,-0.2382,0,0.057131,0,0,0.40719,-0.077148,0,0.41446,-0.63155,-1.4929,-1.3092,1.4622,-1.1445,0.7858,0.020399,0.4,0.68,0
0.32691,0.0073228,0.66355,-0.62257,-1.0572,-0.94629,0.028679,0,0,0.39806,-0.21624,0,0.15338,0,0,0.41569,-0.05436,0,0.42012,-0.61373,-1.066,-0.94629,15.424,-0.87535,0.4176,0.00959,0.42,0.68,0
0.32555,0.0089882,0.63845,-0.61282,-0.64574,-0.59038,0.030858,0,0,-0.087494,-0.21589,0,0.24069,0,0,0.41856,-0.029283,0,0.41958,-0.5943,-0.66425,-0.59038,30.961,-0.61631,0.071989,-1.897e-05,0.44,0.68,0
0.32341,0.010686,0.61332,-0.60913,-0.63342,-0.5772,0.030117,0,0,-0.1245,-0.21923,0,0.23491,0,0,0.41823,-0.030174,0,0.41931,-0.5888,-0.65375,-0.5772,34.019,-0.60659,0.071454,-1.7086e-05,0.46,0.68,0
0.32057,0.012243,0.58826,-0.60494,-0.62101,-0.56387,0.027953,0,0,-0.16017,-0.22285,0,0.21804,0,0,0.41673,-0.030015,0,0.41781,-0.58389,-0.64206,-0.56387,36.98,-0.59661,0.07035,-1.3121e-05,0.48,0.68,0
0.31701,0.013554,0.56332,-0.60077,-0.60811,-0.55044,0.025046,0,0,-0.19632,-0.22492,0,0.19536,0,0,0.41463,-0.02905,0,0.41565,-0.57913,-0.62975,-0.55044,40.835,-0.58644,0.069561,-7.9052e-06,0.5,0.68,0
0.31271,0.014574,0.53851,-0.59689,-0.59459,-0.53695,0.021905,0,0,-0.23379,-0.2248,0,0.17086,0,0,0.41232,-0.027535,0,0.41324,-0.5738,-0.61767,-0.53695,46.505,-0.57614,0.070001,-2.6379e-06,0.52,0.68,0
0.30766,0.0153,0.51384,-0.59339,-0.5805,-0.52345,0.018855,0,0,-0.27279,-0.22251,0,0.14707,0,0,0.41007,-0.025696,0,0.41087,-0.56702,-0.60687,-0.52345,54.437,-0.56578,0.072273,1.4953e-06,0.54,0.68,0
0.3018,0.015753,0.4893,-0.59028,-0.56596,-0.50997,0.016071,0,0,-0.31321,-0.21836,0,0.12536,0,0,0.40801,-0.023709,0,0.4087,-0.55797,-0.59828,-0.50997,63.556,-0.55541,0.076569,3.4621e-06,0.56,0.68,0
0.29513,0.01597,0.46487,-0.58753,-0.55111,-0.49655,0.013624,0,0,-0.35482,-0.21279,0,0.10627,0,0,0.40624,-0.021699,0,0.40682,-0.54658,-0.59206,-0.49655,71.599,-0.54507,0.082748,2.3949e-06,0.58,0.68,0
0.28761,0.015988,0.44055,-0.58509,-0.53607,-0.4832,0.01152,0,0,-0.39739,-0.20619,0,0.089858,0,0,0.40476,-0.01974,0,0.40525,-0.53349,-0.58766,-0.4832,77.414,-0.53479,0.090492,-2.4422e-06,0.6,0.68,0
0.27923,0.015848,0.4163,-0.58293,-0.52093,-0.46992,0.0097332,0,0,-0.44071,-0.19892,0,0.075919,0,0,0.4036,-0.017872,0,0.40399,-0.51943,-0.58442,-0.46992,81.284,-0.52459,0.099456,-1.1693e-05,0.62,0.68,0
0.26998,0.015585,0.39212,-0.58099,-0.50577,-0.45674,0.008218,0,0,-0.48461,-0.19124,0,0.064101,0,0,0.40272,-0.016106,0,0.40304,-0.50489,-0.58188,-0.45674,83.837,-0.5145,0.10933,-2.5949e-05,0.64,0.68,0
0.25985,0.015229,0.36798,-0.57928,-0.49066,-0.44364,0.0069249,0,0,-0.52898,-0.18338,0,0.054014,0,0,0.40212,-0.014436,0,0.40237,-0.49012,-0.57981,-0.44364,85.559,-0.50453,0.11989,-4.5778e-05,0.66,0.68,0
0.24882,0.014808,0.34386,-0.57776,-0.47563,-0.43064,0.0058064,0,0,-0.57378,-0.17547,0,0.04529,0,0,0.40178,-0.012845,0,0.40198,-0.4753,-0.57809,-0.43064,86.757,-0.49468,0.13096,-7.1762e-05,0.68,0.68,0
0.2369,0.014343,0.31976,-0.57645,-0.46071,-0.41774,0.004822,0,0,-0.61898,-0.16761,0,0.037611,0,0,0.4017,-0.011311,0,0.40186,-0.46051,-0.57665,-0.41774,87.618,-0.48497,0.14243,-0.00010451,0.7,0.68,0
0.22406,0.013855,0.29566,-0.57533,-0.44592,-0.40493,0.0039414,0,0,-0.66458,-0.15988,0,0.030743,0,0,0.40189,-0.0098084,0,0.40201,-0.4458,-0.57545,-0.40493,88.257,-0.4754,0.15421,-0.00014467,0.72,0.68,0
0.21031,0.013359,0.27154,-0.57442,-0.43128,-0.39222,0.0031469,0,0,-0.71059,-0.15232,0,0.024546,0,0,0.40234,-0.0083157,0,0.40243,-0.43121,-0.57449,-0.39222,88.741,-0.46598,0.16624,-0.00019292,0.74,0.68,0
0.19564,0.012871,0.24738,-0.57372,-0.4168,-0.37961,0.0024339,0,0,-0.75701,-0.14501,0,0.018985,0,0,0.40308,-0.0068147,0,0.40314,-0.41676,-0.57376,-0.37961,89.112,-0.45671,0.17849,-0.00024997,0.76,0.68,0
0.18003,0.012405,0.22317,-0.57322,-0.40249,-0.3671,0.0018111,0,0,-0.80385,-0.13802,0,0.014126,0,0,0.40411,-0.005297,0,0.40415,-0.40247,-0.57324,-0.3671,89.392,-0.4476,0.19092,-0.00031648,0.78,0.68,0
0.16348,0.011977,0.19888,-0.5729,-0.3884,-0.35468,0.001298,0,0,-0.85105,-0.13148,0,0.010125,0,0,0.40546,-0.0037687,0,0.40548,-0.38839,-0.57291,-0.35468,89.597,-0.43866,0.20348,-0.00039298,0.8,0.68,0
0.14599,0.011602,0.17451,-0.57274,-0.37455,-0.34236,0.00092027,0,0,-0.8985,-0.12554,0,0.0071781,0,0,0.40714,-0.0022567,0,0.40714,-0.37454,-0.57275,-0.34236,89.734,-0.42988,0.2161,-0.0004798,0.82,0.68,0
0.12754,0.011295,0.15003,-0.57269,-0.36098,-0.33011,0.00070038,0,0,-0.94607,-0.12039,0,0.005463,0,0,0.40912,-0.00081407,0,0.40912,-0.36098,-0.5727,-0.33011,89.811,-0.42126,0.22872,-0.00057696,0.84,0.68,0
0.10815,0.011071,0.12542,-0.5727,-0.34774,-0.31794,0.00064801,0,0,-0.99356,-0.11624,0,0.0050545,0,0,0.41137,0.00047727,0,0.41137,-0.34774,-0.5727,-0.31794,89.835,-0.41279,0.24124,-0.00068414,0.86,0.68,0
0.087802,0.010939,0.10066,-0.57269,-0.33485,-0.30582,0.0007522,0,0,-1.0408,-0.11324,0,0.0058671,0,0,0.41379,0.0015123,0,0.4138,-0.33485,-0.57269,-0.30582,89.819,-0.40445,0.25361,-0.00080083,0.88,0.68,0
0.066516,0.010905,0.075762,-0.57261,-0.3223,-0.29373,0.00098252,0,0,-1.0876,-0.11144,0,0.0076636,0,0,0.41624,0.0021794,0,0.41624,-0.3223,-0.57261,-0.29373,89.775,-0.39621,0.26576,-0.00092653,0.9,0.68,0
0.044297,0.010969,0.050715,-0.57241,-0.31002,-0.28163,0.0012998,0,0,-1.134,-0.11072,0,0.010138,0,0,0.4185,0.002389,0,0.41851,-0.31001,-0.57241,-0.28163,89.716,-0.38802,0.27768,-0.001061,0.92,0.68,0
0.021155,0.011124,0.025542,-0.57227,-0.35081,-0.29395,0.0016689,0,0,-0.74751,-0.11087,0,0.0079587,0,0,0.4211,0.0042128,0,0.42113,-0.35079,-0.57229,-0.29395,89.532,-0.40568,0.25655,-0.00073804,0.94,0.68,0
0.014396,0.011163,0.017089,-0.5721,-0.39275,-0.30654,0.0017599,0,0,-0.34522,-0.11206,0,0.0045757,0,0,0.42444,0.0051493,0,0.42448,-0.39273,-0.57212,-0.30654,89.438,-0.42379,0.23467,-0.00037461,0.96,0.68,0
0.0073463,0.011208,0.0085642,-0.57143,-0.38195,-0.29458,0.0011477,0,0,-0.35991,-0.11358,0,0.0029841,0,0,0.42723,0.0028836,0,0.42724,-0.38194,-0.57144,-0.29458,89.653,-0.41598,0.24515,-0.00044549,0.98,0.68,0
0,0.011227,0,-0.56036,-0.36567,-0.27781,0.00035819,0,0,-0.36731,-0.11422,0,0.00093129,0,0,0.42821,4.8789e-18,0,0.42821,-0.36567,-0.56036,-0.27781,89.895,-0.40128,0.25046,-0.00048494,1,0.68,0
0,0.0052429,1,-0.69564,-2.0943,-1.837,0.00056997,0,0,1.4838,-0.33454,0,0.0014819,0,0,0.40204,4.713e-16,0,0.40203,-0.69564,-2.0943,-1.837,0.023348,-1.5423,1.2894,0.095491,0,0.7,0
0.029675,0.0052726,0.99196,-0.6807,-2.0847,-1.8216,0.0035067,0,0,1.4831,-0.34207,0,0.0091176,0,0,0.39713,-0.0075147,0,0.39722,-0.68069,-2.0847,-1.8216,0.1431,-1.529,1.2927,0.095636,0.02,0.7,0
0.059326,0.0053399,0.98411,-0.66751,-2.0892,-1.8111,0.0055903,0,0,1.4867,-0.36153,0,0.014535,0,0,0.3834,-0.013904,0,0.38376,-0.66749,-2.0893,-1.8111,0.22529,-1.5226,1.3051,0.096931,0.04,0.7,0
0.089144,0.0053917,0.97662,-0.62957,-1.4826,-1.2847,0.0058868,0,0,1.0642,-0.3858,0,0.029198,0,0,0.36733,-0.012197,0,0.36768,-0.6295,-1.4826,-1.2847,0.71067,-1.1323,0.77512,0.049342,0.06,0.7,0
0.10189,0.0059426,0.95502,-0.59726,-0.90172,-0.76803,0.0047426,0,0,0.66603,-0.52139,0,0.036992,0,0,0.35576,-0.0089174,0,0.3559,-0.59718,-0.9018,-0.76803,0.89219,-0.75567,0.26445,0.00019852,0.08,0.7,0
0.11578,0.0062332,0.93393,-0.57949,-0.92371,-0.76227,0.0030992,0,0,0.71283,-0.6296,0,0.024174,0,0,0.34715,-0.011036,0,0.34736,-0.57947,-0.92374,-0.76227,0.51582,-0.75516,0.29834,0.00014607,0.1,0.7,0
0.13041,0.0062543,0.91336,-0.56539,-0.93552,-0.75473,0.0018529,0,0,0.7384,-0.70508,0,0.014453,0,0,0.33903,-0.012706,0,0.33929,-0.56538,-0.93553,-0.75473,0.28682,-0.75188,0.32058,6.7621e-05,0.12,0.7,0
0.14532,0.0060799,0.89325,-0.55512,-0.93861,-0.74587,0.001571,0,0,0.7439,-0.75168,0,0.012254,0,0,0.33215,-0.014215,0,0.33247,-0.55512,-0.93861,-0.74587,0.23472,-0.74653,0.33212,-1.6946e-05,0.14,0.7,0
0.16016,0.0058152,0.8735,-0.54801,-0.93513,-0.73611,0.0023211,0,0,0.73359,-0.77617,0,0.018104,0,0,0.32686,-0.015757,0,0.32725,-0.54799,-0.93514,-0.73611,0.34352,-0.73975,0.33532,-9.4548e-05,0.16,0.7,0
0.17466,0.0055592,0.85403,-0.54318,-0.92678,-0.72566,0.0039291,0,0,0.71169,-0.78436,0,0.030647,0,0,0.32323,-0.017403,0,0.32371,-0.54314,-0.92682,-0.72566,0.58678,-0.73187,0.33241,-0.00015844,0.18,0.7,0
0.18863,0.0053883,0.83471,-0.54002,-0.91463,-0.71463,0.0061345,0,0,0.681,-0.78,0,0.047849,0,0,0.32124,-0.019118,0,0.3218,-0.53992,-0.91473,-0.71463,0.93791,-0.72309,0.32485,-0.00020593,0.2,0.7,0
0.20191,0.0053526,0.81548,-0.53827,-0.89916,-0.70305,0.0086701,0,0,0.64266,-0.76482,0,0.067627,0,0,0.32083,-0.020816,0,0.3215,-0.53806,-0.89937,-0.70305,1.3754,-0.71349,0.31329,-0.00023605,0.22,0.7,0
0.21434,0.005477,0.79622,-0.53804,-0.88034,-0.69092,0.011278,0,0,0.59622,-0.73873,0,0.087966,0,0,0.32202,-0.022388,0,0.3228,-0.53767,-0.88071,-0.69092,1.885,-0.7031,0.29764,-0.00024814,0.24,0.7,0
0.22575,0.0057626,0.77683,-0.53975,-0.85761,-0.67815,0.013718,0,0,0.53978,-0.69989,0,0.107,0,0,0.32487,-0.023741,0,0.32574,-0.53916,-0.8582,-0.67815,2.4667,-0.69184,0.27706,-0.00024102,0.26,0.7,0
0.23593,0.0061893,0.75723,-0.54399,-0.82998,-0.6646,0.015813,0,0,0.47039,-0.64499,0,0.12334,0,0,0.32936,-0.024848,0,0.3303,-0.54312,-0.83085,-0.6646,3.1552,-0.67952,0.25019,-0.00021358,0.28,0.7,0
0.24457,0.0067232,0.73731,-0.55123,-0.7962,-0.65,0.017483,0,0,0.3852,-0.57018,0,0.13637,0,0,0.33532,-0.025788,0,0.33632,-0.54999,-0.79744,-0.65,4.0617,-0.66581,0.21561,-0.00016713,0.3,0.7,0
0.25134,0.0073281,0.71699,-0.56138,-0.7556,-0.63409,0.01883,0,0,0.28357,-0.47389,0,0.14688,0,0,0.3423,-0.026741,0,0.34336,-0.55957,-0.75741,-0.63409,5.4868,-0.65036,0.17306,-0.00010961,0.32,0.7,0
0.25591,0.0079786,0.69624,-0.58583,-1.1783,-0.9934,0.020548,0,0,0.60611,-0.36058,0,0.10519,0,0,0.35322,-0.055772,0,0.35866,-0.58432,-1.1798,-0.9934,4.277,-0.91918,0.53198,0.014443,0.34,0.7,0
0.27558,0.0066249,0.68903,-0.61075,-1.5955,-1.3509,0.024057,0,0,0.96221,-0.31801,0,0.062549,0,0,0.37055,-0.085297,0,0.38038,-0.61016,-1.5961,-1.3509,1.3986,-1.1857,0.88909,0.027053,0.36,0.7,0
0.2944,0.0053668,0.68141,-0.62287,-1.5436,-1.3313,0.027026,0,0,0.92102,-0.27589,0,0.070268,0,0,0.38905,-0.087346,0,0.39883,-0.62207,-1.5444,-1.3313,1.6799,-1.1659,0.83637,0.023605,0.38,0.7,0
0.31242,0.0041544,0.67346,-0.6313,-1.4968,-1.3119,0.028535,0,0,0.88476,-0.24034,0,0.07419,0,0,0.40406,-0.089105,0,0.41381,-0.63036,-1.4977,-1.3119,1.8863,-1.1466,0.79097,0.020765,0.4,0.7,0
0.32979,0.0029379,0.66525,-0.62315,-1.06,-0.94845,0.028891,0,0,0.40019,-0.21754,0,0.14994,0,0,0.414,-0.059921,0,0.41941,-0.61494,-1.0682,-0.94845,15.079,-0.8772,0.4187,0.0097322,0.42,0.7,0
0.32843,0.0047021,0.64021,-0.61415,-0.64508,-0.59117,0.028113,0,0,-0.089619,-0.21025,0,0.21928,0,0,0.41797,-0.029857,0,0.41904,-0.59753,-0.6617,-0.59117,30.592,-0.6168,0.067576,-1.5377e-05,0.44,0.7,0
0.32621,0.0063974,0.61509,-0.6113,-0.63137,-0.57783,0.026495,0,0,-0.13053,-0.20879,0,0.20666,0,0,0.41841,-0.029263,0,0.41944,-0.593,-0.64966,-0.57783,34.629,-0.60683,0.065577,-1.1912e-05,0.46,0.7,0
0.32321,0.0079177,0.59,-0.6076,-0.61821,-0.56441,0.024109,0,0,-0.16844,-0.20983,0,0.18805,0,0,0.41757,-0.028229,0,0.41852,-0.58822,-0.63759,-0.56441,38.794,-0.59674,0.064653,-7.8024e-06,0.48,0.7,0
0.31947,0.0092005,0.56499,-0.60362,-0.60505,-0.55093,0.021356,0,0,-0.20549,-0.21107,0,0.16658,0,0,0.41595,-0.026854,0,0.41682,-0.58297,-0.6257,-0.55093,44.039,-0.58653,0.064976,-3.4484e-06,0.5,0.7,0
0.31499,0.010221,0.54009,-0.59972,-0.5916,-0.53742,0.018547,0,0,-0.24295,-0.21128,0,0.14467,0,0,0.41396,-0.025252,0,0.41473,-0.57667,-0.61464,-0.53742,51.174,-0.57625,0.066878,4.3913e-07,0.52,0.7,0
0.30975,0.010984,0.51531,-0.59608,-0.57776,-0.52392,0.015884,0,0,-0.28143,-0.20995,0,0.1239,0,0,0.41186,-0.023527,0,0.41254,-0.56858,-0.60526,-0.52392,59.992,-0.56592,0.070552,3.0478e-06,0.54,0.7,0
0.30373,0.011507,0.49066,-0.5928,-0.56354,-0.51046,0.013477,0,0,-0.32113,-0.20704,0,0.10512,0,0,0.40987,-0.021769,0,0.41044,-0.55828,-0.59806,-0.51046,68.671,-0.5556,0.075974,3.565e-06,0.56,0.7,0
0.29691,0.011822,0.46613,-0.58986,-0.54903,-0.49705,0.011372,0,0,-0.362,-0.20275,0,0.088699,0,0,0.40807,-0.02004,0,0.40856,-0.54608,-0.59282,-0.49705,75.441,-0.54531,0.08295,1.2169e-06,0.58,0.7,0
0.28925,0.01196,0.44169,-0.58727,-0.53431,-0.4837,0.0095689,0,0,-0.4039,-0.19736,0,0.074638,0,0,0.40653,-0.01838,0,0.40694,-0.53263,-0.58894,-0.4837,80.066,-0.53509,0.091215,-4.7221e-06,0.6,0.7,0
0.28075,0.011954,0.41734,-0.58497,-0.51945,-0.47044,0.0080463,0,0,-0.44667,-0.19113,0,0.062761,0,0,0.40527,-0.016808,0,0.40562,-0.51848,-0.58595,-0.47044,83.101,-0.52495,0.1005,-1.4936e-05,0.62,0.7,0
0.27138,0.011835,0.39306,-0.58295,-0.50453,-0.45726,0.0067682,0,0,-0.49018,-0.18433,0,0.052792,0,0,0.4043,-0.015329,0,0.40459,-0.50395,-0.58353,-0.45726,85.103,-0.51492,0.11058,-3.0079e-05,0.64,0.7,0
0.26114,0.01163,0.36883,-0.58118,-0.4896,-0.44418,0.0056945,0,0,-0.53431,-0.17716,0,0.044417,0,0,0.40362,-0.013934,0,0.40386,-0.48925,-0.58154,-0.44418,86.456,-0.50499,0.12127,-5.0792e-05,0.66,0.7,0
0.25001,0.011361,0.34463,-0.57965,-0.47472,-0.43118,0.0047862,0,0,-0.579,-0.16978,0,0.037332,0,0,0.40321,-0.012612,0,0.40341,-0.4745,-0.57986,-0.43118,87.394,-0.49518,0.13245,-7.7718e-05,0.68,0.7,0
0.23798,0.01105,0.32044,-0.57833,-0.45991,-0.41829,0.0040089,0,0,-0.62418,-0.16233,0,0.031269,0,0,0.40309,-0.011345,0,0.40325,-0.45977,-0.57847,-0.41829,88.063,-0.48551,0.14399,-0.00011151,0.7,0.7,0
0.22504,0.010713,0.29626,-0.57723,-0.44521,-0.40548,0.0033355,0,0,-0.66982,-0.15491,0,0.026017,0,0,0.40325,-0.010114,0,0.40338,-0.44512,-0.57732,-0.40548,88.554,-0.47597,0.15584,-0.00015282,0.72,0.7,0
0.21119,0.010365,0.27205,-0.57634,-0.43063,-0.39278,0.0027477,0,0,-0.7159,-0.14764,0,0.021432,0,0,0.4037,-0.0089018,0,0.4038,-0.43058,-0.57639,-0.39278,88.92,-0.46658,0.16794,-0.00020231,0.74,0.7,0
0.19641,0.01002,0.24781,-0.57564,-0.41622,-0.38016,0.0022364,0,0,-0.76237,-0.14062,0,0.017444,0,0,0.40444,-0.0076948,0,0.40451,-0.41619,-0.57568,-0.38016,89.197,-0.45734,0.18022,-0.0002606,0.76,0.7,0
0.18069,0.0096902,0.22352,-0.57512,-0.402,-0.36764,0.001802,0,0,-0.80917,-0.13399,0,0.014056,0,0,0.40548,-0.0064848,0,0.40553,-0.40198,-0.57514,-0.36764,89.404,-0.44826,0.19264,-0.00032819,0.78,0.7,0
0.16404,0.0093877,0.19916,-0.57475,-0.388,-0.35521,0.0014522,0,0,-0.85621,-0.12789,0,0.011327,0,0,0.40682,-0.0052726,0,0.40685,-0.38799,-0.57476,-0.35521,89.555,-0.43932,0.20514,-0.00040545,0.8,0.7,0
0.14645,0.0091248,0.1747,-0.57449,-0.37428,-0.34287,0.0011981,0,0,-0.90336,-0.1225,0,0.0093449,0,0,0.40845,-0.0040715,0,0.40847,-0.37427,-0.5745,-0.34287,89.657,-0.43055,0.21764,-0.00049251,0.82,0.7,0
0.12791,0.0089132,0.15014,-0.5743,-0.36085,-0.33059,0.0010494,0,0,-0.95047,-0.11801,0,0.0081854,0,0,0.41035,-0.0029097,0,0.41036,-0.36085,-0.57431,-0.33059,89.718,-0.42192,0.23008,-0.00058927,0.84,0.7,0
0.10843,0.0087633,0.12546,-0.57413,-0.34776,-0.31839,0.0010084,0,0,-0.99739,-0.11456,0,0.0078654,0,0,0.41244,-0.0018303,0,0.41244,-0.34776,-0.57413,-0.31839,89.745,-0.41342,0.2424,-0.00069543,0.86,0.7,0
0.088012,0.0086836,0.10065,-0.57392,-0.335,-0.30623,0.0010659,0,0,-1.044,-0.11222,0,0.0083142,0,0,0.41462,-0.00088749,0,0.41463,-0.335,-0.57393,-0.30623,89.744,-0.40505,0.25454,-0.00081063,0.88,0.7,0
0.066667,0.0086791,0.075705,-0.57365,-0.32254,-0.29409,0.0012023,0,0,-1.0903,-0.11096,0,0.0093776,0,0,0.41676,-0.00013711,0,0.41676,-0.32254,-0.57366,-0.29409,89.726,-0.39676,0.26648,-0.00093466,0.9,0.7,0
0.044401,0.0087519,0.050638,-0.57328,-0.31033,-0.28196,0.0013925,0,0,-1.1361,-0.11062,0,0.010862,0,0,0.41868,0.00037793,0,0.41868,-0.31032,-0.57329,-0.28196,89.697,-0.38852,0.27824,-0.0010676,0.92,0.7,0
0.021221,0.0089012,0.025465,-0.57317,-0.35122,-0.29429,0.0015405,0,0,-0.74887,-0.11101,0,0.0075747,0,0,0.42078,0.0012873,0,0.42079,-0.35121,-0.57318,-0.29429,89.574,-0.40623,0.25707,-0.00074246,0.94,0.7,0
0.014446,0.0089251,0.017024,-0.57296,-0.3925,-0.30666,0.0013758,0,0,-0.34619,-0.11159,0,0.0035769,0,0,0.42343,0.0017533,0,0.42343,-0.39249,-0.57297,-0.30666,89.563,-0.42404,0.23544,-0.00038242,0.96,0.7,0
0.0073738,0.008949,0.0085274,-0.57235,-0.381,-0.29453,0.00081593,0,0,-0.36116,-0.11241,0,0.0021214,0,0,0.42561,0.0010301,0,0.42561,-0.38099,-0.57235,-0.29453,89.756,-0.41596,0.24625,-0.00046037,0.98,0.7,0
0,0.0089587,0,-0.56136,-0.3645,-0.27776,0.00018668,0,0,-0.36869,-0.11276,0,0.00048538,0,0,0.42637,1.3417e-17,0,0.42637,-0.3645,-0.56137,-0.27776,89.946,-0.40121,0.25171,-0.00050325,1,0.7,0
0,-0.0015092,1,-0.69615,-2.0921,-1.8365,-0.0020582,0,0,1.4824,-0.33233,0,-0.0053513,0,0,0.39981,-3.6473e-16,0,0.3998,-0.69615,-2.0921,-1.8365,-0.084476,-1.5416,1.2873,0.095169,0,0.72,0
0.029649,-0.0016163,0.992,-0.68119,-2.0827,-1.8212,-0.0075029,0,0,1.482,-0.34001,0,-0.019508,0,0,0.39491,0.0030378,0,0.39495,-0.68115,-2.0828,-1.8212,-0.30671,-1.5284,1.2909,0.095361,0.02,0.72,0
0.059279,-0.0019082,0.9842,-0.66776,-2.0876,-1.8108,-0.013118,0,0,1.486,-0.35983,0,-0.034106,0,0,0.38121,0.0050026,0,0.38136,-0.66764,-2.0877,-1.8108,-0.52929,-1.5221,1.3039,0.096766,0.04,0.72,0
0.089087,-0.0023209,0.97676,-0.62942,-1.4816,-1.2845,-0.015917,0,0,1.0644,-0.38444,0,-0.083367,0,0,0.36516,0.0033643,0,0.36528,-0.62884,-1.4822,-1.2845,-2.0666,-1.1319,0.77541,0.049297,0.06,0.72,0
0.10185,-0.0044368,0.95528,-0.59681,-0.90191,-0.76804,-0.015398,0,0,0.66781,-0.52208,0,-0.12011,0,0,0.35358,0.00018579,0,0.35361,-0.59603,-0.90269,-0.76804,-2.8819,-0.75559,0.26622,0.00020269,0.08,0.72,0
0.1158,-0.0063104,0.93432,-0.57868,-0.92445,-0.76238,-0.012854,0,0,0.71642,-0.63206,0,-0.10026,0,0,0.34493,-0.0020592,0,0.34497,-0.5782,-0.92492,-0.76238,-2.1261,-0.75517,0.30046,0.00015019,0.1,0.72,0
0.13051,-0.0078283,0.91389,-0.56422,-0.93678,-0.75493,-0.0096199,0,0,0.74377,-0.70922,0,-0.075036,0,0,0.33674,-0.0048703,0,0.3368,-0.56397,-0.93703,-0.75493,-1.4781,-0.75198,0.32311,7.1234e-05,0.12,0.72,0
0.14555,-0.0089724,0.89392,-0.5536,-0.94041,-0.74618,-0.0063051,0,0,0.75103,-0.7575,0,-0.04918,0,0,0.32978,-0.0080089,0,0.32989,-0.5535,-0.94051,-0.74618,-0.93363,-0.74673,0.33516,-1.4367e-05,0.14,0.72,0
0.16055,-0.0097588,0.87431,-0.54617,-0.93744,-0.73652,-0.0030042,0,0,0.74237,-0.78359,0,-0.023433,0,0,0.32442,-0.011291,0,0.32462,-0.54615,-0.93747,-0.73652,-0.43988,-0.74005,0.33893,-9.351e-05,0.16,0.72,0
0.17525,-0.010201,0.85499,-0.54109,-0.92955,-0.72619,0.00037718,0,0,0.7219,-0.79313,0,0.002942,0,0,0.32075,-0.014616,0,0.32108,-0.54109,-0.92955,-0.72619,0.055631,-0.73228,0.33655,-0.00015922,0.18,0.72,0
0.18943,-0.010298,0.83583,-0.53776,-0.91776,-0.71526,0.0039507,0,0,0.69228,-0.78974,0,0.030816,0,0,0.31875,-0.017937,0,0.31925,-0.53772,-0.9178,-0.71526,0.59559,-0.72359,0.3294,-0.0002085,0.2,0.72,0
0.20294,-0.010034,0.81674,-0.53593,-0.90253,-0.70379,0.0077909,0,0,0.65462,-0.77512,0,0.060769,0,0,0.3184,-0.021228,0,0.31911,-0.53577,-0.9027,-0.70379,1.2169,-0.71408,0.31815,-0.00024016,0.22,0.72,0
0.21561,-0.0093827,0.79762,-0.53571,-0.88385,-0.69174,0.01196,0,0,0.60852,-0.74922,0,0.093287,0,0,0.31973,-0.024454,0,0.32067,-0.5353,-0.88426,-0.69174,1.9652,-0.70376,0.30274,-0.00025354,0.24,0.72,0
0.22728,-0.0083078,0.77837,-0.53747,-0.86119,-0.67905,0.016528,0,0,0.55219,-0.71033,0,0.12892,0,0,0.32279,-0.027549,0,0.32397,-0.53663,-0.86203,-0.67905,2.9152,-0.69257,0.28254,-0.00024767,0.26,0.72,0
0.2377,-0.0067651,0.75888,-0.54181,-0.83357,-0.66557,0.021511,0,0,0.48268,-0.65518,0,0.16779,0,0,0.32755,-0.030385,0,0.32896,-0.54023,-0.83515,-0.66557,4.1941,-0.68032,0.25636,-0.00022171,0.28,0.72,0
0.24658,-0.0047185,0.73906,-0.54924,-0.79964,-0.65102,0.026711,0,0,0.39694,-0.57964,0,0.20835,0,0,0.3338,-0.032777,0,0.33543,-0.54642,-0.80246,-0.65102,6.0216,-0.66663,0.22297,-0.00017678,0.3,0.72,0
0.25358,-0.0021784,0.71883,-0.55973,-0.75851,-0.63508,0.031428,0,0,0.29388,-0.48138,0,0.24514,0,0,0.34107,-0.034524,0,0.34283,-0.55487,-0.76336,-0.63508,8.7734,-0.6511,0.18215,-0.00012003,0.32,0.72,0
0.25834,0.00074013,0.69813,-0.58485,-1.1822,-0.99555,0.035389,0,0,0.61327,-0.36403,0,0.18066,0,0,0.35232,-0.071066,0,0.36106,-0.58061,-1.1865,-0.99555,6.9658,-0.92087,0.54083,0.014712,0.34,0.72,0
0.27811,0.00024756,0.69094,-0.61069,-1.5992,-1.3539,0.039507,0,0,0.96619,-0.31891,0,0.10272,0,0,0.37011,-0.10633,0,0.38523,-0.60911,-1.6008,-1.3539,2.285,-1.1879,0.89419,0.027501,0.36,0.72,0
0.29699,-0.00015161,0.68333,-0.6238,-1.5439,-1.3336,0.040222,0,0,0.92279,-0.27332,0,0.10458,0,0,0.38914,-0.10461,0,0.40305,-0.62204,-1.5456,-1.3336,2.4984,-1.1671,0.83795,0.023823,0.38,0.72,0
0.31502,-0.00063349,0.67537,-0.63317,-1.4938,-1.3135,0.03617,0,0,0.88438,-0.23442,0,0.094041,0,0,0.40465,-0.10218,0,0.4174,-0.63165,-1.4953,-1.3135,2.4024,-1.1468,0.78862,0.020745,0.4,0.72,0
0.33236,-0.0013787,0.66714,-0.6256,-1.0567,-0.94946,0.030011,0,0,0.39594,-0.20917,0,0.15082,0,0,0.41502,-0.06648,0,0.42165,-0.61714,-1.0652,-0.94946,15.726,-0.87726,0.41497,0.0096585,0.42,0.72,0
0.33086,0.00057838,0.64203,-0.61705,-0.64311,-0.59206,0.025946,0,0,-0.097463,-0.1991,0,0.20238,0,0,0.41925,-0.030953,0,0.4204,-0.60104,-0.65911,-0.59206,31.667,-0.6174,0.063044,-1.1993e-05,0.44,0.72,0
0.32847,0.0023349,0.61683,-0.61426,-0.62883,-0.57854,0.023173,0,0,-0.13933,-0.19613,0,0.18075,0,0,0.41985,-0.028806,0,0.42084,-0.59726,-0.64584,-0.57854,36.277,-0.60721,0.060165,-7.6442e-06,0.46,0.72,0
0.32528,0.0038503,0.59165,-0.6105,-0.61544,-0.565,0.020327,0,0,-0.17746,-0.19672,0,0.15855,0,0,0.41914,-0.026788,0,0.42,-0.59249,-0.63345,-0.565,41.538,-0.59698,0.059659,-3.6278e-06,0.48,0.72,0
0.32137,0.0051114,0.56654,-0.60636,-0.60228,-0.55144,0.017573,0,0,-0.2142,-0.19829,0,0.13707,0,0,0.41761,-0.024884,0,0.41835,-0.58663,-0.62201,-0.55144,48.309,-0.58669,0.061119,-5.4388e-08,0.5,0.72,0
0.31672,0.006123,0.54153,-0.60225,-0.589,-0.53789,0.015012,0,0,-0.25102,-0.19934,0,0.11709,0,0,0.41565,-0.023083,0,0.41629,-0.57922,-0.61203,-0.53789,56.907,-0.57638,0.064353,2.6999e-06,0.52,0.72,0
0.31133,0.0069017,0.51666,-0.59839,-0.57542,-0.52436,0.012704,0,0,-0.2887,-0.19912,0,0.09909,0,0,0.41355,-0.021385,0,0.4141,-0.56978,-0.60403,-0.52436,66.058,-0.56605,0.06922,4.0846e-06,0.54,0.72,0
0.30517,0.0074714,0.49191,-0.59488,-0.5615,-0.51088,0.010678,0,0,-0.32758,-0.19742,0,0.08329,0,0,0.4115,-0.019792,0,0.41198,-0.55838,-0.598,-0.51088,73.692,-0.55575,0.075549,3.4491e-06,0.56,0.72,0
0.29822,0.0078594,0.46728,-0.59174,-0.54729,-0.49747,0.0089381,0,0,-0.36767,-0.1943,0,0.069718,0,0,0.40963,-0.018306,0,0.41004,-0.54556,-0.59347,-0.49747,79.046,-0.5455,0.083142,9.5303e-08,0.58,0.72,0
0.29046,0.0080941,0.44275,-0.58898,-0.53285,-0.48413,0.00747,0,0,-0.4089,-0.18998,0,0.058266,0,0,0.408,-0.016927,0,0.40835,-0.53187,-0.58996,-0.48413,82.548,-0.53532,0.091791,-6.6889e-06,0.6,0.72,0
0.28187,0.008203,0.41832,-0.58655,-0.51824,-0.47087,0.0062491,0,0,-0.45113,-0.1847,0,0.048743,0,0,0.40665,-0.015649,0,0.40695,-0.51767,-0.58712,-0.47087,84.816,-0.52522,0.1013,-1.7612e-05,0.62,0.72,0
0.27242,0.0082116,0.39396,-0.58443,-0.50352,-0.4577,0.0052447,0,0,-0.49422,-0.1787,0,0.040908,0,0,0.40559,-0.014464,0,0.40585,-0.50318,-0.58477,-0.4577,86.306,-0.51522,0.11151,-3.3373e-05,0.64,0.72,0
0.2621,0.0081429,0.36965,-0.58259,-0.48877,-0.44462,0.0044234,0,0,-0.53807,-0.17217,0,0.034503,0,0,0.40483,-0.01336,0,0.40505,-0.48856,-0.5828,-0.44462,87.306,-0.50533,0.12228,-5.4667e-05,0.66,0.72,0
0.25089,0.0080167,0.34538,-0.58101,-0.47402,-0.43164,0.0037528,0,0,-0.58257,-0.16531,0,0.029272,0,0,0.40437,-0.012324,0,0.40456,-0.47389,-0.58115,-0.43164,87.994,-0.49556,0.1335,-8.2186e-05,0.68,0.72,0
0.2388,0.0078503,0.32112,-0.57968,-0.45932,-0.41874,0.0032028,0,0,-0.62767,-0.15826,0,0.024982,0,0,0.4042,-0.011343,0,0.40436,-0.45924,-0.57977,-0.41874,88.477,-0.48592,0.14508,-0.00011662,0.7,0.72,0
0.22579,0.0076583,0.29687,-0.57858,-0.4447,-0.40594,0.0027476,0,0,-0.6733,-0.15116,0,0.021432,0,0,0.40433,-0.010401,0,0.40447,-0.44464,-0.57864,-0.40594,88.825,-0.47641,0.15697,-0.00015866,0.72,0.72,0
0.21186,0.0074531,0.2726,-0.5777,-0.4302,-0.39324,0.0023671,0,0,-0.7194,-0.14414,0,0.018464,0,0,0.40476,-0.0094848,0,0.40487,-0.43016,-0.57774,-0.39324,89.081,-0.46704,0.16909,-0.00020895,0.74,0.72,0
0.19701,0.0072456,0.2483,-0.57701,-0.41584,-0.38062,0.0020468,0,0,-0.7659,-0.13736,0,0.015965,0,0,0.40549,-0.008581,0,0.40558,-0.41582,-0.57703,-0.38062,89.272,-0.45782,0.18139,-0.00026806,0.76,0.72,0
0.18123,0.0070453,0.22395,-0.57649,-0.40168,-0.3681,0.0017786,0,0,-0.81271,-0.13097,0,0.013873,0,0,0.40653,-0.0076789,0,0.40661,-0.40166,-0.5765,-0.3681,89.417,-0.44876,0.19382,-0.00033644,0.78,0.72,0
0.1645,0.0068611,0.19952,-0.5761,-0.38775,-0.35566,0.0015599,0,0,-0.85971,-0.12516,0,0.012167,0,0,0.40788,-0.0067705,0,0.40793,-0.38774,-0.57611,-0.35566,89.525,-0.43984,0.20629,-0.00041436,0.8,0.72,0
0.14684,0.0067014,0.175,-0.5758,-0.3741,-0.3433,0.0013923,0,0,-0.90674,-0.12011,0,0.01086,0,0,0.4095,-0.0058526,0,0.40954,-0.37409,-0.57581,-0.3433,89.605,-0.43107,0.21874,-0.00050186,0.82,0.72,0
0.12823,0.0065745,0.15038,-0.57555,-0.36076,-0.33102,0.0012792,0,0,-0.95367,-0.11599,0,0.009978,0,0,0.41136,-0.0049272,0,0.41139,-0.36075,-0.57556,-0.33102,89.659,-0.42244,0.23111,-0.00059877,0.84,0.72,0
0.10869,0.0064884,0.12564,-0.5753,-0.34775,-0.31879,0.0012236,0,0,-1.0004,-0.11294,0,0.0095443,0,0,0.41339,-0.0040023,0,0.41341,-0.34775,-0.5753,-0.31879,89.692,-0.41395,0.24333,-0.00070477,0.86,0.72,0
0.088219,0.0064504,0.10077,-0.57501,-0.33507,-0.30661,0.001225,0,0,-1.0467,-0.11099,0,0.0095552,0,0,0.41549,-0.0030909,0,0.4155,-0.33507,-0.57501,-0.30661,89.707,-0.40556,0.25537,-0.00081959,0.88,0.72,0
0.066822,0.0064671,0.075778,-0.57465,-0.32268,-0.29446,0.0012783,0,0,-1.0928,-0.11006,0,0.0099703,0,0,0.4175,-0.0022083,0,0.41751,-0.32267,-0.57466,-0.29446,89.709,-0.39726,0.26721,-0.00094318,0.9,0.72,0
0.044509,0.0065436,0.05067,-0.57421,-0.3105,-0.2823,0.0013732,0,0,-1.1384,-0.10997,0,0.010711,0,0,0.41928,-0.0013688,0,0.41928,-0.3105,-0.57422,-0.2823,89.702,-0.389,0.27889,-0.0010758,0.92,0.72,0
0.021285,0.0066835,0.025465,-0.5741,-0.35126,-0.29458,0.0013807,0,0,-0.75044,-0.11052,0,0.0069333,0,0,0.42118,-0.0011614,0,0.42119,-0.35125,-0.57411,-0.29458,89.624,-0.40665,0.25775,-0.00075013,0.94,0.72,0
0.014492,0.0066996,0.017019,-0.57388,-0.39211,-0.30682,0.0010752,0,0,-0.34718,-0.11088,0,0.0027956,0,0,0.42354,-0.0010538,0,0.42355,-0.3921,-0.57389,-0.30682,89.661,-0.42427,0.23627,-0.00039191,0.96,0.72,0
0.0073976,0.0067116,0.008523,-0.57329,-0.38032,-0.29461,0.00057517,0,0,-0.36229,-0.11143,0,0.0014954,0,0,0.42547,-0.00049117,0,0.42547,-0.38032,-0.57329,-0.29461,89.829,-0.41607,0.24724,-0.00047341,0.98,0.72,0
0,0.0067161,0,-0.56233,-0.36371,-0.27781,8.7647e-05,0,0,-0.36988,-0.11167,0,0.00022788,0,0,0.42615,6.1799e-18,0,0.42615,-0.36371,-0.56233,-0.27781,89.975,-0.40129,0.25277,-0.00051809,1,0.72,0
0,-0.0080502,1,-0.70837,-2.0752,-1.8351,-0.0053408,0,0,1.4647,-0.31213,0,-0.013886,0,0,0.40812,-2.0626e-15,0,0.40807,-0.70835,-2.0752,-1.8351,-0.22388,-1.5395,1.264,0.091229,0,0.74,0
0.029294,-0.0083279,0.99184,-0.69171,-2.0685,-1.8199,-0.020372,0,0,1.4667,-0.32319,0,-0.052968,0,0,0.40213,0.014708,0,0.40241,-0.6914,-2.0688,-1.8199,-0.84755,-1.5267,1.2714,0.092055,0.02,0.74,0
0.058666,-0.0090534,0.98391,-0.67535,-2.081,-1.8108,-0.034538,0,0,1.4761,-0.35122,0,-0.089798,0,0,0.38541,0.026011,0,0.38644,-0.6745,-2.0818,-1.8108,-1.4067,-1.5224,1.2933,0.094863,0.04,0.74,0
0.088338,-0.0099859,0.97642,-0.6328,-1.481,-1.2851,-0.039679,0,0,1.0603,-0.38202,0,-0.20503,0,0,0.36588,0.020622,0,0.36673,-0.62937,-1.4844,-1.2851,-4.9743,-1.133,0.7767,0.048761,0.06,0.74,0
0.10108,-0.014941,0.955,-0.5978,-0.90702,-0.76978,-0.036644,0,0,0.67071,-0.53525,0,-0.28582,0,0,0.35202,0.010112,0,0.3522,-0.59352,-0.91131,-0.76978,-6.6668,-0.7582,0.27576,0.0002024,0.08,0.74,0
0.11517,-0.019049,0.93418,-0.57826,-0.93071,-0.76408,-0.029211,0,0,0.72471,-0.64983,0,-0.22784,0,0,0.3421,0.0074928,0,0.34221,-0.57586,-0.93311,-0.76408,-4.7059,-0.75768,0.30954,0.00014155,0.1,0.74,0
0.13007,-0.022114,0.91395,-0.56324,-0.94229,-0.75631,-0.02127,0,0,0.75296,-0.72532,0,-0.1659,0,0,0.33308,0.0032653,0,0.33312,-0.56205,-0.94348,-0.75631,-3.2017,-0.75394,0.33034,5.9561e-05,0.12,0.74,0
0.14528,-0.02422,0.89421,-0.55259,-0.9451,-0.74738,-0.014358,0,0,0.75968,-0.77113,0,-0.11199,0,0,0.32573,-0.0016957,0,0.32574,-0.55206,-0.94563,-0.74738,-2.0921,-0.74835,0.34084,-2.6273e-05,0.14,0.74,0
0.16045,-0.025529,0.87486,-0.54512,-0.94171,-0.73767,-0.008556,0,0,0.75093,-0.79576,0,-0.066737,0,0,0.32025,-0.0068011,0,0.32033,-0.54494,-0.94189,-0.73767,-1.2353,-0.7415,0.34382,-0.00010464,0.16,0.74,0
0.17532,-0.026166,0.85578,-0.53991,-0.93375,-0.72736,-0.0033914,0,0,0.73103,-0.80492,0,-0.026453,0,0,0.31659,-0.011836,0,0.31681,-0.53988,-0.93378,-0.72736,-0.49334,-0.73367,0.34125,-0.00016979,0.18,0.74,0
0.1897,-0.026201,0.83687,-0.53638,-0.9221,-0.7165,0.0015949,0,0,0.70247,-0.80185,0,0.01244,0,0,0.31462,-0.016782,0,0.31506,-0.53638,-0.92211,-0.7165,0.2369,-0.725,0.3343,-0.00021898,0.2,0.74,0
0.20342,-0.025652,0.81802,-0.53432,-0.90721,-0.70513,0.0067823,0,0,0.66616,-0.78809,0,0.052902,0,0,0.31431,-0.021696,0,0.31505,-0.5342,-0.90733,-0.70513,1.0417,-0.71555,0.32352,-0.00025129,0.22,0.74,0
0.21634,-0.024492,0.79915,-0.53379,-0.88904,-0.69323,0.012521,0,0,0.62181,-0.76364,0,0.097663,0,0,0.3157,-0.026633,0,0.31682,-0.53335,-0.88948,-0.69323,2.0161,-0.70535,0.30895,-0.00026618,0.24,0.74,0
0.22829,-0.022651,0.78014,-0.53519,-0.86716,-0.68075,0.019176,0,0,0.5677,-0.72701,0,0.14957,0,0,0.31894,-0.031583,0,0.3205,-0.53408,-0.86827,-0.68075,3.2949,-0.69437,0.29013,-0.00026315,0.26,0.74,0
0.23905,-0.020018,0.76088,-0.53918,-0.84053,-0.66754,0.027069,0,0,0.50059,-0.67467,0,0.21114,0,0,0.32413,-0.036356,0,0.32617,-0.53677,-0.84295,-0.66754,5.0923,-0.68242,0.26609,-0.00024119,0.28,0.74,0
0.24832,-0.016462,0.74124,-0.54669,-0.8074,-0.65331,0.036031,0,0,0.41581,-0.60095,0,0.28104,0,0,0.33118,-0.040442,0,0.33366,-0.5418,-0.81228,-0.65331,7.7256,-0.66913,0.23544,-0.00019999,0.3,0.74,0
0.25568,-0.011927,0.72114,-0.55788,-0.76534,-0.63735,0.044757,0,0,0.3099,-0.49917,0,0.34911,0,0,0.33954,-0.043134,0,0.3423,-0.54864,-0.77458,-0.63735,11.67,-0.65352,0.19717,-0.00014242,0.32,0.74,0
0.26071,-0.0065824,0.7005,-0.58455,-1.1884,-0.99888,0.051645,0,0,0.62245,-0.36955,0,0.26258,0,0,0.35248,-0.087785,0,0.36562,-0.57614,-1.1968,-0.99888,9.4166,-0.92395,0.55337,0.015017,0.34,0.74,0
0.28058,-0.0061313,0.69328,-0.61249,-1.6023,-1.3577,0.05696,0,0,0.96881,-0.31799,0,0.1481,0,0,0.37254,-0.12894,0,0.39439,-0.60922,-1.6056,-1.3577,3.2826,-1.1908,0.89846,0.027912,0.36,0.74,0
0.29946,-0.0055659,0.6856,-0.62724,-1.5391,-1.3355,0.054885,0,0,0.92073,-0.26466,0,0.1427,0,0,0.3932,-0.1225,0,0.41193,-0.62395,-1.5424,-1.3355,3.4322,-1.1673,0.83444,0.023771,0.38,0.74,0
0.31741,-0.0052226,0.67755,-0.63791,-1.483,-1.3138,0.04442,0,0,0.87868,-0.21992,0,0.11549,0,0,0.40895,-0.11516,0,0.42489,-0.63558,-1.4853,-1.3138,3.0006,-1.1449,0.77829,0.020306,0.4,0.74,0
0.33461,-0.005429,0.66924,-0.62998,-1.0469,-0.94923,0.030999,0,0,0.38501,-0.19051,0,0.15056,0,0,0.41874,-0.072762,0,0.42658,-0.62074,-1.0562,-0.94923,17.348,-0.87538,0.40559,0.0093468,0.42,0.74,0
0.33281,-0.0032618,0.64392,-0.6215,-0.63966,-0.59299,0.023445,0,0,-0.11119,-0.18201,0,0.18287,0,0,0.42241,-0.031896,0,0.42361,-0.60544,-0.65572,-0.59299,34.415,-0.61805,0.057527,-8.255e-06,0.44,0.74,0
0.33016,-0.0014479,0.61855,-0.61798,-0.62569,-0.57928,0.019492,0,0,-0.15092,-0.18097,0,0.15204,0,0,0.42258,-0.028219,0,0.42352,-0.60196,-0.6417,-0.57928,39.411,-0.60765,0.054725,-3.8082e-06,0.46,0.74,0
0.32677,4.9026e-05,0.59321,-0.61358,-0.61261,-0.56559,0.016205,0,0,-0.18714,-0.18335,0,0.1264,0,0,0.42149,-0.025239,0,0.42224,-0.59688,-0.62931,-0.56559,45.859,-0.59726,0.055179,-2.6688e-07,0.48,0.74,0
0.32268,0.0012688,0.56797,-0.60893,-0.59976,-0.55193,0.013473,0,0,-0.2223,-0.18654,0,0.10509,0,0,0.41966,-0.022812,0,0.42028,-0.59012,-0.61858,-0.55193,54.395,-0.58688,0.057922,2.4889e-06,0.5,0.74,0
0.31788,0.002248,0.54285,-0.60442,-0.58678,-0.53831,0.011187,0,0,-0.25782,-0.18903,0,0.087261,0,0,0.41745,-0.020812,0,0.41797,-0.58136,-0.60985,-0.53831,64.123,-0.57651,0.062376,4.2831e-06,0.52,0.74,0
0.31237,0.003019,0.51788,-0.60024,-0.5735,-0.52475,0.0092669,0,0,-0.29441,-0.19013,0,0.072282,0,0,0.41516,-0.019136,0,0.4156,-0.5706,-0.60313,-0.52475,72.637,-0.56616,0.068212,4.7134e-06,0.54,0.74,0
0.30611,0.0036106,0.49304,-0.59647,-0.55987,-0.51125,0.0076568,0,0,-0.33236,-0.18962,0,0.059723,0,0,0.41294,-0.017706,0,0.41332,-0.55833,-0.598,-0.51125,78.647,-0.55586,0.075226,3.2205e-06,0.56,0.74,0
0.29907,0.0040495,0.46832,-0.59312,-0.54592,-0.49782,0.0063182,0,0,-0.37167,-0.18759,0,0.049282,0,0,0.41093,-0.016465,0,0.41126,-0.54509,-0.59395,-0.49782,82.506,-0.54562,0.083256,-8.499e-07,0.58,0.74,0
0.29124,0.0043604,0.44372,-0.59018,-0.53172,-0.48448,0.0052205,0,0,-0.41224,-0.18423,0,0.04072,0,0,0.40918,-0.015371,0,0.40947,-0.53126,-0.59064,-0.48448,84.937,-0.53546,0.092158,-8.2007e-06,0.6,0.74,0
0.28258,0.004566,0.41922,-0.58761,-0.51732,-0.47122,0.004336,0,0,-0.45394,-0.17979,0,0.033821,0,0,0.40773,-0.014396,0,0.40798,-0.51705,-0.58788,-0.47122,86.484,-0.52538,0.1018,-1.9555e-05,0.62,0.74,0
0.27308,0.0046872,0.3948,-0.58539,-0.50279,-0.45805,0.0036374,0,0,-0.49661,-0.17448,0,0.028372,0,0,0.40659,-0.013516,0,0.40681,-0.50263,-0.58555,-0.45805,87.483,-0.51541,0.11207,-3.5645e-05,0.64,0.74,0
0.26272,0.0047428,0.37043,-0.58348,-0.48819,-0.44498,0.0030977,0,0,-0.54014,-0.16854,0,0.024162,0,0,0.40575,-0.012716,0,0.40595,-0.48809,-0.58358,-0.44498,88.14,-0.50555,0.12285,-5.7203e-05,0.66,0.74,0
0.25148,0.0047489,0.34611,-0.58185,-0.47357,-0.432,0.0026897,0,0,-0.58443,-0.16214,0,0.02098,0,0,0.40523,-0.011982,0,0.40541,-0.4735,-0.58192,-0.432,88.578,-0.4958,0.13408,-8.4966e-05,0.68,0.74,0
0.23934,0.0047197,0.3218,-0.58049,-0.45897,-0.41911,0.0023873,0,0,-0.62941,-0.15546,0,0.018621,0,0,0.40502,-0.011301,0,0.40517,-0.45892,-0.58054,-0.41911,88.875,-0.48619,0.14567,-0.00011967,0.7,0.74,0
0.2263,0.0046667,0.29751,-0.57938,-0.44442,-0.40631,0.0021653,0,0,-0.67499,-0.14863,0,0.01689,0,0,0.40511,-0.010663,0,0.40525,-0.44438,-0.57942,-0.40631,89.081,-0.4767,0.15756,-0.00016203,0.72,0.74,0
0.21234,0.0045995,0.27319,-0.5785,-0.42997,-0.3936,0.0020011,0,0,-0.7211,-0.14181,0,0.015609,0,0,0.40552,-0.010056,0,0.40564,-0.42994,-0.57853,-0.3936,89.228,-0.46736,0.1697,-0.00021272,0.74,0.74,0
0.19745,0.0045256,0.24884,-0.57783,-0.41565,-0.38099,0.0018745,0,0,-0.76767,-0.13518,0,0.014621,0,0,0.40624,-0.0094667,0,0.40635,-0.41563,-0.57785,-0.38099,89.338,-0.45816,0.18203,-0.00027235,0.76,0.74,0
0.18163,0.0044513,0.22444,-0.57733,-0.40152,-0.36847,0.0017689,0,0,-0.81457,-0.1289,0,0.013797,0,0,0.40729,-0.0088806,0,0.40738,-0.4015,-0.57735,-0.36847,89.424,-0.44911,0.19448,-0.00034134,0.78,0.74,0
0.16487,0.0043814,0.19997,-0.57697,-0.38762,-0.35603,0.001672,0,0,-0.86167,-0.12317,0,0.013042,0,0,0.40864,-0.0082798,0,0.40873,-0.3876,-0.57699,-0.35603,89.494,-0.44021,0.20699,-0.00041996,0.8,0.74,0
0.14717,0.0043206,0.1754,-0.57671,-0.37399,-0.34368,0.0015774,0,0,-0.90882,-0.11821,0,0.012304,0,0,0.4103,-0.0076432,0,0.41037,-0.37398,-0.57672,-0.34368,89.554,-0.43146,0.21947,-0.0005082,0.82,0.74,0
0.12852,0.0042735,0.15073,-0.57648,-0.36068,-0.33139,0.0014851,0,0,-0.95584,-0.11421,0,0.011584,0,0,0.4122,-0.0069461,0,0.41226,-0.36067,-0.57649,-0.33139,89.606,-0.42285,0.23185,-0.00060584,0.84,0.74,0
0.10893,0.0042457,0.12594,-0.57624,-0.3477,-0.31916,0.0014018,0,0,-1.0026,-0.1113,0,0.010934,0,0,0.41427,-0.006162,0,0.41432,-0.34769,-0.57625,-0.31916,89.649,-0.41437,0.24408,-0.00071251,0.86,0.74,0
0.088415,0.0042441,0.10102,-0.57596,-0.33506,-0.30698,0.0013387,0,0,-1.049,-0.10952,0,0.010442,0,0,0.41642,-0.005265,0,0.41645,-0.33505,-0.57597,-0.30698,89.682,-0.406,0.25611,-0.00082789,0.88,0.74,0
0.066973,0.0042769,0.07597,-0.5756,-0.32271,-0.29482,0.0013077,0,0,-1.0951,-0.10878,0,0.0102,0,0,0.41848,-0.0042344,0,0.41851,-0.3227,-0.57561,-0.29482,89.704,-0.39771,0.26794,-0.00095193,0.9,0.74,0
0.044613,0.0043529,0.050802,-0.57515,-0.31057,-0.28265,0.0013145,0,0,-1.1407,-0.10889,0,0.010253,0,0,0.4203,-0.0030607,0,0.42031,-0.31057,-0.57516,-0.28265,89.715,-0.38946,0.2796,-0.001085,0.92,0.74,0
0.021343,0.0044804,0.025534,-0.57502,-0.35105,-0.29484,0.0012046,0,0,-0.75208,-0.1096,0,0.0061749,0,0,0.42226,-0.0035018,0,0.42228,-0.35104,-0.57503,-0.29484,89.676,-0.40697,0.25851,-0.00075982,0.94,0.74,0
0.01453,0.0044898,0.017066,-0.5748,-0.39164,-0.307,0.00079214,0,0,-0.34814,-0.11003,0,0.0020596,0,0,0.42468,-0.0037243,0,0.4247,-0.39163,-0.5748,-0.307,89.752,-0.42448,0.2371,-0.00040215,0.96,0.74,0
0.007417,0.0044918,0.0085471,-0.57419,-0.37987,-0.29477,0.00035676,0,0,-0.36325,-0.11064,0,0.00092756,0,0,0.42666,-0.0019346,0,0.42666,-0.37987,-0.57419,-0.29477,89.895,-0.41628,0.24808,-0.00048438,0.98,0.74,0
0,0.0044921,0,-0.5632,-0.36323,-0.27793,5.2703e-06,0,0,-0.37085,-0.11089,0,1.3703e-05,0,0,0.42735,-1.3227e-17,0,0.42735,-0.36323,-0.5632,-0.27793,89.999,-0.40146,0.25362,-0.0005295,1,0.74,0
0,-0.013994,1,-0.73456,-2.0387,-1.832,-0.010568,0,0,1.4266,-0.26877,0,-0.027475,0,0,0.42923,1.6723e-15,0,0.42904,-0.73448,-2.0388,-1.832,-0.46422,-1.5351,1.2142,0.083019,0,0.76,0
0.028533,-0.014544,0.99142,-0.71466,-2.0388,-1.8175,-0.038742,0,0,1.4336,-0.28777,0,-0.10073,0,0,0.42092,0.029826,0,0.42191,-0.71352,-2.04,-1.8175,-1.6744,-1.5236,1.2304,0.085209,0.02,0.76,0
0.057346,-0.015957,0.98316,-0.69103,-2.0686,-1.811,-0.063517,0,0,1.456,-0.33477,0,-0.16514,0,0,0.39743,0.053786,0,0.4013,-0.6881,-2.0715,-1.811,-2.6344,-1.5235,1.2733,0.091251,0.04,0.76,0
0.086774,-0.017602,0.97552,-0.64009,-1.4837,-1.2875,-0.069508,0,0,1.0535,-0.38267,0,-0.35359,0,0,0.36988,0.043831,0,0.3733,-0.63027,-1.4935,-1.2875,-8.1996,-1.1371,0.78301,0.047998,0.06,0.76,0
0.099485,-0.025847,0.95407,-0.60038,-0.91959,-0.77401,-0.060255,0,0,0.67715,-0.56773,0,-0.46999,0,0,0.35076,0.022682,0,0.35157,-0.58939,-0.93058,-0.77401,-10.342,-0.76466,0.29581,0.00018858,0.08,0.76,0
0.11386,-0.032304,0.93343,-0.57793,-0.94303,-0.76743,-0.046011,0,0,0.73904,-0.68483,0,-0.35889,0,0,0.33809,0.018687,0,0.33865,-0.57222,-0.94874,-0.76743,-7.0734,-0.7628,0.32614,0.00011384,0.1,0.76,0
0.12905,-0.036841,0.9135,-0.56252,-0.95194,-0.75884,-0.032677,0,0,0.76563,-0.7531,0,-0.25488,0,0,0.32756,0.011939,0,0.32779,-0.5598,-0.95466,-0.75884,-4.7634,-0.75777,0.34197,2.8954e-05,0.12,0.76,0
0.14449,-0.039818,0.89412,-0.55208,-0.95248,-0.74941,-0.022323,0,0,0.76956,-0.79197,0,-0.17412,0,0,0.31972,0.0046376,0,0.31975,-0.55084,-0.95372,-0.74941,-3.1813,-0.75132,0.34891,-5.3876e-05,0.14,0.76,0
0.15983,-0.041589,0.87513,-0.54481,-0.94789,-0.73952,-0.014203,0,0,0.75938,-0.81265,0,-0.11079,0,0,0.31428,-0.002436,0,0.31428,-0.54431,-0.94839,-0.73952,-2.0156,-0.74407,0.35001,-0.00012885,0.16,0.76,0
0.17486,-0.042398,0.85641,-0.53949,-0.93937,-0.72913,-0.0073662,0,0,0.73958,-0.81994,0,-0.057456,0,0,0.31076,-0.0091627,0,0.31089,-0.53935,-0.9395,-0.72913,-1.055,-0.73599,0.34669,-0.00019058,0.18,0.76,0
0.18941,-0.042372,0.83784,-0.53572,-0.92768,-0.7183,-0.0010214,0,0,0.71208,-0.8166,0,-0.0079667,0,0,0.30889,-0.01566,0,0.30927,-0.53571,-0.92769,-0.7183,-0.1493,-0.72723,0.33972,-0.00023779,0.2,0.76,0
0.20334,-0.041557,0.81934,-0.5333,-0.91318,-0.70706,0.0054568,0,0,0.67766,-0.80388,0,0.042563,0,0,0.30855,-0.022122,0,0.30933,-0.53322,-0.91326,-0.70706,0.82279,-0.71784,0.32952,-0.00026987,0.22,0.76,0
0.21652,-0.039928,0.80081,-0.53229,-0.89587,-0.69539,0.012659,0,0,0.63608,-0.78189,0,0.098741,0,0,0.30984,-0.02875,0,0.31117,-0.53185,-0.89631,-0.69539,1.9917,-0.70785,0.31619,-0.00028662,0.24,0.76,0
0.22879,-0.037388,0.78216,-0.53296,-0.87536,-0.68322,0.021253,0,0,0.58598,-0.74936,0,0.16577,0,0,0.31306,-0.035684,0,0.31509,-0.53165,-0.87667,-0.68322,3.5383,-0.69718,0.29953,-0.00028766,0.26,0.76,0
0.23996,-0.033752,0.76325,-0.53627,-0.85089,-0.67056,0.031959,0,0,0.52374,-0.70326,0,0.24928,0,0,0.31869,-0.042853,0,0.32156,-0.53306,-0.8541,-0.67056,5.742,-0.68591,0.27898,-0.00027351,0.28,0.76,0
0.24974,-0.028757,0.74392,-0.54352,-0.81996,-0.65702,0.045269,0,0,0.44263,-0.63547,0,0.3531,0,0,0.32703,-0.049575,0,0.33079,-0.5363,-0.82718,-0.65702,9.0674,-0.6735,0.25312,-0.00024097,0.3,0.76,0
0.25766,-0.022145,0.724,-0.55633,-0.77809,-0.64166,0.059418,0,0,0.3328,-0.53209,0,0.46346,0,0,0.33762,-0.05393,0,0.34195,-0.54141,-0.79301,-0.64166,14.093,-0.65869,0.21938,-0.00018605,0.32,0.76,0
0.26305,-0.014042,0.7034,-0.58564,-1.1985,-1.0042,0.07166,0,0,0.63384,-0.37891,0,0.36115,0,0,0.3543,-0.1088,0,0.37403,-0.57102,-1.2131,-1.0042,11.788,-0.92943,0.57139,0.015389,0.34,0.76,0
0.28302,-0.012472,0.6961,-0.61745,-1.6037,-1.3624,0.078317,0,0,0.96848,-0.31362,0,0.20363,0,0,0.37929,-0.15556,0,0.41018,-0.61127,-1.6099,-1.3624,4.5122,-1.1945,0.90074,0.028204,0.36,0.76,0
0.30179,-0.010738,0.68823,-0.63489,-1.5262,-1.3366,0.07163,0,0,0.91217,-0.24654,0,0.18624,0,0,0.40292,-0.14108,0,0.42696,-0.62917,-1.5319,-1.3366,4.5655,-1.1659,0.82266,0.023249,0.38,0.76,0
0.3195,-0.0094302,0.67998,-0.64668,-1.4627,-1.3128,0.051771,0,0,0.86594,-0.19486,0,0.1346,0,0,0.41801,-0.12615,0,0.43662,-0.64341,-1.466,-1.3128,3.6158,-1.1407,0.75767,0.019297,0.4,0.76,0
0.33642,-0.0089992,0.67151,-0.63703,-1.0312,-0.94813,0.030516,0,0,0.36721,-0.1619,0,0.14234,0,0,0.42552,-0.077277,0,0.43417,-0.62684,-1.0413,-0.94813,20.133,-0.87211,0.38992,0.0087514,0.42,0.76,0
0.33419,-0.0067021,0.64586,-0.6272,-0.63495,-0.59393,0.01964,0,0,-0.12974,-0.15998,0,0.15319,0,0,0.42742,-0.031997,0,0.42861,-0.61106,-0.65109,-0.59393,39.416,-0.61869,0.050813,-4.2489e-06,0.44,0.76,0
0.33124,-0.0049037,0.62022,-0.6221,-0.62211,-0.58,0.014831,0,0,-0.16418,-0.16422,0,0.11568,0,0,0.42651,-0.026935,0,0.42736,-0.60728,-0.63694,-0.58,44.991,-0.60807,0.049321,-4.4771e-07,0.46,0.76,0
0.32762,-0.0034839,0.59468,-0.61656,-0.60985,-0.56615,0.011378,0,0,-0.19661,-0.17043,0,0.088752,0,0,0.42455,-0.023142,0,0.42518,-0.60134,-0.62507,-0.56615,53.22,-0.59752,0.051347,2.2902e-06,0.48,0.76,0
0.32337,-0.0023503,0.56927,-0.61113,-0.59758,-0.55237,0.0088676,0,0,-0.22918,-0.1763,0,0.069168,0,0,0.42203,-0.020323,0,0.42252,-0.59319,-0.61552,-0.55237,63.698,-0.58703,0.055463,4.2211e-06,0.5,0.76,0
0.31846,-0.0014383,0.54403,-0.60609,-0.58501,-0.53867,0.0069898,0,0,-0.26292,-0.18071,0,0.05452,0,0,0.41933,-0.018226,0,0.41972,-0.5829,-0.6082,-0.53867,73.224,-0.57659,0.060947,5.2445e-06,0.52,0.76,0
0.31285,-0.00070343,0.51896,-0.60153,-0.57204,-0.52506,0.0055442,0,0,-0.29825,-0.18324,0,0.043244,0,0,0.41665,-0.016649,0,0.41699,-0.57103,-0.60254,-0.52506,79.697,-0.56621,0.067491,5.0005e-06,0.54,0.76,0
0.30653,-0.00011361,0.49403,-0.59749,-0.55868,-0.51153,0.0044099,0,0,-0.33525,-0.18388,0,0.034397,0,0,0.41417,-0.015437,0,0.41446,-0.55818,-0.59798,-0.51153,83.599,-0.5559,0.074952,2.9562e-06,0.56,0.76,0
0.29944,0.00035566,0.46925,-0.59394,-0.54496,-0.49809,0.0035174,0,0,-0.37382,-0.1828,0,0.027435,0,0,0.41196,-0.01448,0,0.41222,-0.54471,-0.59419,-0.49809,85.913,-0.54566,0.083239,-1.5282e-06,0.58,0.76,0
0.29157,0.00072477,0.4446,-0.59084,-0.53095,-0.48474,0.0028257,0,0,-0.41379,-0.18025,0,0.02204,0,0,0.41007,-0.0137,0,0.4103,-0.53082,-0.59097,-0.48474,87.304,-0.53551,0.092268,-9.1525e-06,0.6,0.76,0
0.28289,0.0010116,0.42005,-0.58814,-0.51674,-0.47148,0.0023078,0,0,-0.45498,-0.1765,0,0.018001,0,0,0.4085,-0.013048,0,0.40871,-0.51666,-0.58821,-0.47148,88.151,-0.52545,0.10195,-2.0647e-05,0.62,0.76,0
0.27337,0.0012323,0.39558,-0.58581,-0.50236,-0.45831,0.0019421,0,0,-0.49725,-0.1718,0,0.015149,0,0,0.40727,-0.012491,0,0.40746,-0.50232,-0.58586,-0.45831,88.668,-0.5155,0.11221,-3.6762e-05,0.64,0.76,0
0.263,0.0014012,0.37117,-0.58382,-0.4879,-0.44524,0.0017084,0,0,-0.54046,-0.16636,0,0.013325,0,0,0.40637,-0.012008,0,0.40654,-0.48787,-0.58385,-0.44524,88.98,-0.50565,0.12297,-5.8257e-05,0.66,0.76,0
0.25176,0.0015309,0.34681,-0.58213,-0.47338,-0.43226,0.0015855,0,0,-0.58452,-0.16037,0,0.012367,0,0,0.40579,-0.011586,0,0.40595,-0.47336,-0.58216,-0.43226,89.165,-0.49593,0.13416,-8.5906e-05,0.68,0.76,0
0.23962,0.001632,0.32248,-0.58074,-0.45886,-0.41937,0.0015512,0,0,-0.62933,-0.154,0,0.012099,0,0,0.40552,-0.011217,0,0.40568,-0.45884,-0.58076,-0.41937,89.271,-0.48633,0.14572,-0.00012049,0.7,0.76,0
0.22658,0.0017131,0.29815,-0.57962,-0.44437,-0.40658,0.0015818,0,0,-0.67484,-0.14739,0,0.012338,0,0,0.40558,-0.010894,0,0.40572,-0.44435,-0.57964,-0.40658,89.33,-0.47686,0.1576,-0.00016277,0.72,0.76,0
0.21263,0.0017806,0.27381,-0.57875,-0.42996,-0.39388,0.001652,0,0,-0.72097,-0.1407,0,0.012886,0,0,0.40596,-0.010608,0,0.4061,-0.42994,-0.57876,-0.39388,89.364,-0.46753,0.16975,-0.0002135,0.74,0.76,0
0.19775,0.0018386,0.24944,-0.5781,-0.41566,-0.38127,0.0017359,0,0,-0.76763,-0.1341,0,0.01354,0,0,0.40667,-0.010348,0,0.4068,-0.41564,-0.57812,-0.38127,89.388,-0.45835,0.18211,-0.00027334,0.76,0.76,0
0.18192,0.0018895,0.22501,-0.57766,-0.40152,-0.36876,0.001808,0,0,-0.81473,-0.12777,0,0.014103,0,0,0.40772,-0.010096,0,0.40785,-0.4015,-0.57768,-0.36876,89.412,-0.44931,0.19463,-0.00034281,0.78,0.76,0
0.16516,0.0019342,0.20051,-0.57738,-0.38759,-0.35633,0.0018455,0,0,-0.86211,-0.12193,0,0.014395,0,0,0.40911,-0.0098238,0,0.40923,-0.38758,-0.5774,-0.35633,89.443,-0.44044,0.20722,-0.00042221,0.8,0.76,0
0.14744,0.0019729,0.17592,-0.57721,-0.37393,-0.34398,0.0018321,0,0,-0.9096,-0.1168,0,0.01429,0,0,0.41083,-0.0094933,0,0.41094,-0.37391,-0.57723,-0.34398,89.484,-0.43171,0.21981,-0.00051156,0.82,0.76,0
0.12877,0.0020061,0.15121,-0.5771,-0.36059,-0.33171,0.0017627,0,0,-0.95701,-0.11263,0,0.013749,0,0,0.41284,-0.0090521,0,0.41294,-0.36057,-0.57711,-0.33171,89.534,-0.42313,0.23232,-0.00061058,0.84,0.76,0
0.10916,0.0020364,0.12638,-0.57697,-0.3476,-0.3195,0.0016465,0,0,-1.0042,-0.10959,0,0.012842,0,0,0.41507,-0.0084362,0,0.41516,-0.34758,-0.57698,-0.3195,89.589,-0.41469,0.24466,-0.00071881,0.86,0.76,0
0.088606,0.0020696,0.1014,-0.57679,-0.33496,-0.30733,0.0015068,0,0,-1.0509,-0.10777,0,0.011753,0,0,0.41741,-0.0075762,0,0.41748,-0.33495,-0.5768,-0.30733,89.643,-0.40636,0.25678,-0.00083576,0.88,0.76,0
0.067122,0.0021158,0.076286,-0.57652,-0.32263,-0.29518,0.0013744,0,0,-1.0973,-0.10709,0,0.01072,0,0,0.41971,-0.0064093,0,0.41976,-0.32263,-0.57653,-0.29518,89.69,-0.39811,0.26868,-0.00096119,0.9,0.76,0
0.044716,0.0021879,0.051037,-0.57613,-0.31054,-0.28301,0.0012741,0,0,-1.1432,-0.10734,0,0.0099379,0,0,0.42176,-0.004896,0,0.42179,-0.31053,-0.57614,-0.28301,89.725,-0.38989,0.28038,-0.0010954,0.92,0.76,0
0.021395,0.0022996,0.025675,-0.57596,-0.35058,-0.29508,0.0010154,0,0,-0.75383,-0.10822,0,0.0053733,0,0,0.42402,-0.0060751,0,0.42408,-0.35058,-0.57597,-0.29508,89.733,-0.40721,0.25937,-0.00077177,0.94,0.76,0
0.014563,0.0022982,0.017168,-0.57572,-0.39108,-0.30721,0.00045493,0,0,-0.34907,-0.10903,0,0.0011828,0,0,0.42686,-0.0066743,0,0.42691,-0.39107,-0.57572,-0.30721,89.859,-0.42467,0.23794,-0.00041327,0.96,0.76,0
0.0074323,0.0022861,0.0086004,-0.57507,-0.37966,-0.29502,8.9633e-05,0,0,-0.36406,-0.11003,0,0.00023305,0,0,0.4292,-0.0035333,0,0.42921,-0.37966,-0.57507,-0.29502,89.974,-0.41658,0.24877,-0.00049323,0.98,0.76,0
0,0.0022804,0,-0.56398,-0.36308,-0.27812,-0.00011038,0,0,-0.37162,-0.11045,0,-0.000287,0,0,0.43002,-5.6378e-18,0,0.43002,-0.36308,-0.56398,-0.27812,-89.969,-0.40173,0.25426,-0.00053736,1,0.76,0
0,-0.018801,1,-0.78443,-1.9877,-1.8316,-0.019957,0,0,1.3614,-0.20286,0,-0.051888,0,0,0.46777,3.0635e-15,0,0.46736,-0.7841,-1.988,-1.8316,-0.94995,-1.5346,1.1338,0.070087,0,0.78,0
0.027227,-0.019839,0.99064,-0.75007,-1.9812,-1.81,-0.061901,0,0,1.378,-0.22256,0,-0.16094,0,0,0.45592,0.047443,0,0.45801,-0.74697,-1.9843,-1.81,-2.8711,-1.5138,1.1601,0.074119,0.02,0.78,0
0.055118,-0.022444,0.98176,-0.71611,-2.0431,-1.8095,-0.10898,0,0,1.4214,-0.30361,0,-0.28334,0,0,0.42133,0.096659,0,0.43278,-0.70722,-2.052,-1.8095,-4.6638,-1.5229,1.2414,0.08576,0.04,0.78,0
0.084084,-0.025293,0.97379,-0.65808,-1.5039,-1.2978,-0.10948,0,0,1.0466,-0.40195,0,-0.54583,0,0,0.3786,0.079309,0,0.389,-0.63647,-1.5255,-1.2978,-11.567,-1.1533,0.8024,0.046938,0.06,0.78,0
0.096982,-0.03765,0.95227,-0.60415,-0.94392,-0.78185,-0.088098,0,0,0.69303,-0.63209,0,-0.68716,0,0,0.34879,0.041463,0,0.35142,-0.58266,-0.9654,-0.78185,-13.705,-0.77664,0.33156,0.00013221,0.08,0.78,0
0.11181,-0.046442,0.93194,-0.57795,-0.96274,-0.77285,-0.062776,0,0,0.76012,-0.74056,0,-0.48965,0,0,0.33135,0.031822,0,0.33292,-0.56797,-0.97272,-0.77285,-9.0354,-0.77118,0.35054,4.7464e-05,0.1,0.78,0
0.12739,-0.052238,0.91251,-0.56184,-0.96506,-0.76224,-0.04372,0,0,0.78156,-0.791,0,-0.34102,0,0,0.31903,0.020721,0,0.3197,-0.55716,-0.96975,-0.76224,-6.1177,-0.76305,0.35732,-2.3821e-05,0.12,0.78,0
0.14307,-0.055899,0.89365,-0.55219,-0.96253,-0.7523,-0.030082,0,0,0.78044,-0.81989,0,-0.23464,0,0,0.31135,0.010583,0,0.31152,-0.54999,-0.96472,-0.7523,-4.1707,-0.75567,0.3592,-0.00010053,0.14,0.78,0
0.1586,-0.058035,0.87515,-0.5449,-0.95586,-0.74195,-0.019884,0,0,0.76848,-0.83428,0,-0.15509,0,0,0.30645,0.0015249,0,0.30644,-0.54394,-0.95682,-0.74195,-2.7635,-0.74757,0.35767,-0.00016616,0.16,0.78,0
0.17381,-0.058964,0.85688,-0.53949,-0.94632,-0.73137,-0.011515,0,0,0.74833,-0.83832,0,-0.089814,0,0,0.30336,-0.0067379,0,0.30342,-0.53917,-0.94665,-0.73137,-1.6199,-0.73906,0.35308,-0.00022129,0.18,0.78,0
0.18854,-0.058865,0.83875,-0.53546,-0.9344,-0.72054,-0.0039535,0,0,0.72181,-0.83404,0,-0.030838,0,0,0.30167,-0.014574,0,0.302,-0.53542,-0.93444,-0.72054,-0.56774,-0.73013,0.34586,-0.00026459,0.2,0.78,0
0.20268,-0.057807,0.82068,-0.53261,-0.92034,-0.70944,0.0036633,0,0,0.68965,-0.82249,0,0.028574,0,0,0.30122,-0.022368,0,0.30203,-0.53258,-0.92038,-0.70944,0.54127,-0.7208,0.33627,-0.00029572,0.22,0.78,0
0.21612,-0.055767,0.8026,-0.53098,-0.90419,-0.69808,0.012165,0,0,0.65171,-0.80381,0,0.094884,0,0,0.30214,-0.030512,0,0.30366,-0.53058,-0.90458,-0.69808,1.8649,-0.71108,0.32448,-0.00031482,0.24,0.78,0
0.22875,-0.052625,0.78442,-0.53091,-0.88574,-0.68647,0.02246,0,0,0.60668,-0.77715,0,0.17519,0,0,0.30484,-0.039405,0,0.30735,-0.52949,-0.88715,-0.68647,3.6075,-0.70104,0.31051,-0.00032255,0.26,0.78,0
0.24039,-0.048148,0.76602,-0.53285,-0.86411,-0.67443,0.035874,0,0,0.55216,-0.73977,0,0.27982,0,0,0.31024,-0.049381,0,0.31413,-0.52901,-0.86795,-0.67443,6.1105,-0.69046,0.29452,-0.00031861,0.28,0.78,0
0.25083,-0.041881,0.74719,-0.54022,-0.83877,-0.66276,0.053869,0,0,0.47792,-0.68644,0,0.42018,0,0,0.3201,-0.060395,0,0.32577,-0.53079,-0.84819,-0.66276,9.9214,-0.68058,0.27617,-0.00031023,0.3,0.78,0
0.25951,-0.033211,0.72761,-0.55517,-0.8,-0.64909,0.076926,0,0,0.36628,-0.58857,0,0.60003,0,0,0.33472,-0.07011,0,0.34211,-0.533,-0.82217,-0.64909,16.073,-0.66809,0.25204,-0.00027417,0.32,0.78,0
0.26549,-0.021739,0.70703,-0.59466,-1.2221,-1.0164,0.098126,0,0,0.64788,-0.4012,0,0.4878,0,0,0.35965,-0.13899,0,0.39044,-0.57092,-1.2459,-1.0164,14.036,-0.94439,0.59835,0.015556,0.34,0.78,0
0.28542,-0.018676,0.6995,-0.62882,-1.5963,-1.367,0.10973,0,0,0.95968,-0.29805,0,0.2853,0,0,0.39466,-0.19194,0,0.4392,-0.61654,-1.6086,-1.367,6.3902,-1.1974,0.89605,0.028096,0.36,0.78,0
0.30387,-0.015428,0.69124,-0.64883,-1.494,-1.3341,0.087129,0,0,0.89083,-0.20787,0,0.22653,0,0,0.42261,-0.15664,0,0.45056,-0.63994,-1.5029,-1.3341,5.8251,-1.159,0.79214,0.021673,0.38,0.78,0
0.32106,-0.013017,0.6826,-0.66438,-1.4355,-1.3126,0.05464,0,0,0.84262,-0.15981,0,0.14206,0,0,0.43411,-0.13172,0,0.45358,-0.66053,-1.4393,-1.3126,4.0331,-1.1375,0.72379,0.017477,0.4,0.78,0
0.33758,-0.011905,0.67388,-0.64633,-1.0113,-0.94653,0.026413,0,0,0.34468,-0.12623,0,0.11716,0,0,0.43562,-0.078018,0,0.44418,-0.63552,-1.0221,-0.94653,24.865,-0.86804,0.36922,0.0079163,0.42,0.78,0
0.33484,-0.0096612,0.64776,-0.63328,-0.62962,-0.59479,0.013702,0,0,-0.1501,-0.13584,0,0.10687,0,0,0.43411,-0.030506,0,0.43517,-0.61763,-0.64527,-0.59479,48.799,-0.61923,0.043785,-7.0747e-07,0.44,0.78,0
0.33157,-0.0080167,0.62178,-0.62594,-0.61855,-0.58061,0.0087385,0,0,-0.17681,-0.14796,0,0.068161,0,0,0.43143,-0.02439,0,0.43212,-0.61276,-0.63174,-0.58061,56.471,-0.60837,0.044764,1.9744e-06,0.46,0.78,0
0.32777,-0.006768,0.59599,-0.61899,-0.60744,-0.56659,0.0056244,0,0,-0.20434,-0.15931,0,0.04387,0,0,0.4281,-0.020087,0,0.42857,-0.60516,-0.62128,-0.56659,67.874,-0.59767,0.048668,3.8049e-06,0.48,0.78,0
0.3234,-0.0057832,0.57041,-0.61267,-0.5959,-0.55271,0.0036615,0,0,-0.23387,-0.16844,0,0.02856,0,0,0.42457,-0.01713,0,0.42492,-0.59514,-0.61344,-0.55271,78.208,-0.5871,0.053959,5.0504e-06,0.5,0.78,0
0.31842,-0.0049804,0.54504,-0.60707,-0.58379,-0.53894,0.0023936,0,0,-0.26572,-0.17491,0,0.01867,0,0,0.42113,-0.015137,0,0.4214,-0.58355,-0.60732,-0.53894,84.191,-0.5766,0.060125,5.5706e-06,0.52,0.78,0
0.31277,-0.0043107,0.51987,-0.60216,-0.57112,-0.52528,0.0015435,0,0,-0.29984,-0.1788,0,0.012039,0,0,0.41795,-0.01381,0,0.41818,-0.57105,-0.60224,-0.52528,87.16,-0.56619,0.067047,4.9699e-06,0.54,0.78,0
0.30642,-0.0037445,0.49489,-0.59788,-0.55797,-0.51172,0.0009571,0,0,-0.33601,-0.1804,0,0.0074653,0,0,0.41511,-0.012924,0,0.41532,-0.55795,-0.5979,-0.51172,88.627,-0.55586,0.0747,2.6971e-06,0.56,0.78,0
0.29933,-0.0032622,0.47006,-0.59415,-0.54443,-0.49826,0.0005556,0,0,-0.37395,-0.18007,0,0.0043336,0,0,0.41267,-0.012325,0,0.41285,-0.54443,-0.59415,-0.49826,89.36,-0.54561,0.083063,-1.8903e-06,0.58,0.78,0
0.29146,-0.0028495,0.44537,-0.5909,-0.53058,-0.4849,0.00030051,0,0,-0.41341,-0.17815,0,0.002344,0,0,0.41061,-0.011908,0,0.41079,-0.53058,-0.59091,-0.4849,89.715,-0.53546,0.092093,-9.4882e-06,0.6,0.78,0
0.28279,-0.002494,0.42079,-0.5881,-0.5165,-0.47164,0.00017252,0,0,-0.45417,-0.17496,0,0.0013457,0,0,0.40894,-0.01161,0,0.40911,-0.5165,-0.5881,-0.47164,89.862,-0.52541,0.10173,-2.0825e-05,0.62,0.78,0
0.2733,-0.0021848,0.3963,-0.58567,-0.50226,-0.45848,0.00015941,0,0,-0.49606,-0.17074,0,0.0012434,0,0,0.40763,-0.011394,0,0.40779,-0.50226,-0.58567,-0.45848,89.891,-0.51547,0.11192,-3.6654e-05,0.64,0.78,0
0.26295,-0.0019117,0.37187,-0.5836,-0.4879,-0.44541,0.00024986,0,0,-0.53895,-0.16572,0,0.0019489,0,0,0.40666,-0.011239,0,0.40681,-0.4879,-0.5836,-0.44541,89.85,-0.50563,0.1226,-5.7751e-05,0.66,0.78,0
0.25174,-0.001666,0.3475,-0.58185,-0.47347,-0.43243,0.00043047,0,0,-0.58275,-0.16007,0,0.0033577,0,0,0.40602,-0.011138,0,0.40617,-0.47347,-0.58186,-0.43243,89.772,-0.49592,0.13371,-8.4914e-05,0.68,0.78,0
0.23964,-0.0014402,0.32315,-0.58042,-0.45903,-0.41955,0.00068424,0,0,-0.62738,-0.15396,0,0.0053371,0,0,0.40571,-0.011087,0,0.40586,-0.45902,-0.58042,-0.41955,89.677,-0.48633,0.14521,-0.00011897,0.7,0.78,0
0.22664,-0.0012289,0.29881,-0.57927,-0.44459,-0.40676,0.00098976,0,0,-0.67278,-0.14752,0,0.0077201,0,0,0.40572,-0.011086,0,0.40587,-0.44458,-0.57928,-0.40676,89.579,-0.47687,0.15706,-0.00016075,0.72,0.78,0
0.21273,-0.0010286,0.27446,-0.5784,-0.43019,-0.39407,0.0013208,0,0,-0.71891,-0.1409,0,0.010302,0,0,0.40606,-0.011133,0,0.40622,-0.43018,-0.57842,-0.39407,89.49,-0.46755,0.16921,-0.00021111,0.74,0.78,0
0.19789,-0.00083833,0.25009,-0.5778,-0.41589,-0.38147,0.0016461,0,0,-0.7657,-0.13423,0,0.012839,0,0,0.40676,-0.011219,0,0.40691,-0.41587,-0.57782,-0.38147,89.418,-0.45839,0.18161,-0.00027081,0.76,0.78,0
0.1821,-0.0006595,0.22565,-0.57744,-0.40171,-0.36896,0.0019307,0,0,-0.81307,-0.1277,0,0.01506,0,0,0.40781,-0.011327,0,0.40797,-0.40169,-0.57746,-0.36896,89.371,-0.44937,0.19422,-0.00034054,0.78,0.78,0
0.16537,-0.00049565,0.20115,-0.57729,-0.38771,-0.35655,0.0021389,0,0,-0.86089,-0.12153,0,0.016684,0,0,0.40925,-0.011421,0,0.40941,-0.38769,-0.57731,-0.35655,89.354,-0.44052,0.20696,-0.00042075,0.8,0.78,0
0.14767,-0.00035159,0.17654,-0.57729,-0.37396,-0.34422,0.0022399,0,0,-0.90897,-0.11596,0,0.017472,0,0,0.41107,-0.01145,0,0.41123,-0.37393,-0.57731,-0.34422,89.369,-0.43182,0.21975,-0.00051159,0.82,0.78,0
0.12901,-0.00023178,0.15182,-0.57738,-0.36051,-0.33197,0.0022167,0,0,-0.95709,-0.1113,0,0.01729,0,0,0.41325,-0.01133,0,0.41341,-0.36049,-0.5774,-0.33197,89.414,-0.42329,0.23249,-0.00061278,0.84,0.78,0
0.10938,-0.00013797,0.12695,-0.57749,-0.34743,-0.31979,0.0020746,0,0,-1.005,-0.1078,0,0.016182,0,0,0.41575,-0.010956,0,0.4159,-0.34741,-0.57751,-0.31979,89.483,-0.41491,0.24507,-0.00072368,0.86,0.78,0
0.088806,-6.6548e-05,0.10193,-0.57753,-0.33475,-0.30766,0.0018455,0,0,-1.0525,-0.10564,0,0.014395,0,0,0.41844,-0.010202,0,0.41857,-0.33473,-0.57755,-0.30766,89.564,-0.40665,0.25742,-0.00084352,0.88,0.78,0
0.067283,-6.6839e-06,0.07674,-0.57746,-0.32242,-0.29554,0.0015796,0,0,-1.0995,-0.10481,0,0.012321,0,0,0.42116,-0.0089449,0,0.42126,-0.32241,-0.57747,-0.29554,89.645,-0.39848,0.2695,-0.00097171,0.9,0.78,0
0.044827,5.9171e-05,0.051389,-0.57722,-0.31035,-0.2834,0.0013254,0,0,-1.1459,-0.10511,0,0.010338,0,0,0.42368,-0.0070954,0,0.42373,-0.31035,-0.57723,-0.2834,89.715,-0.39033,0.28132,-0.0011082,0.92,0.78,0
0.021447,0.00015146,0.025899,-0.577,-0.34971,-0.29528,0.00082462,0,0,-0.7559,-0.10614,0,0.0046553,0,0,0.42656,-0.0092689,0,0.42668,-0.34971,-0.577,-0.29528,89.791,-0.40733,0.26047,-0.00078785,0.94,0.78,0
0.014591,0.0001286,0.017333,-0.57676,-0.39037,-0.30747,-1.0283e-05,0,0,-0.35007,-0.10776,0,-2.6735e-05,0,0,0.43026,-0.010379,0,0.43038,-0.39037,-0.57676,-0.30747,-89.997,-0.42487,0.23888,-0.00042653,0.96,0.78,0
0.0074442,9.0486e-05,0.0086884,-0.57602,-0.37976,-0.29542,-0.00030115,0,0,-0.36478,-0.10964,0,-0.00078298,0,0,0.43333,-0.0055544,0,0.43337,-0.37976,-0.57602,-0.29542,-89.912,-0.41707,0.24936,-0.00050014,0.98,0.78,0
0,7.3867e-05,0,-0.56476,-0.36338,-0.27844,-0.00031958,0,0,-0.37221,-0.11042,0,-0.00083091,0,0,0.43442,1.4311e-17,0,0.43441,-0.36338,-0.56476,-0.27844,-89.909,-0.40219,0.2547,-0.00054141,1,0.78,0
0,-0.022109,1,-0.83996,-1.9264,-1.8299,-0.025722,0,0,1.2869,-0.12545,0,-0.066878,0,0,0.52411,7.9797e-16,0,0.5235,-0.83935,-1.927,-1.8299,-1.3555,-1.5321,1.0425,0.056493,0,0.8,0
0.025739,-0.023446,0.98952,-0.82207,-1.9189,-1.8118,-0.081037,0,0,1.2867,-0.1392,0,-0.21069,0,0,0.51758,0.06174,0,0.52051,-0.81612,-1.9248,-1.8118,-4.2028,-1.5176,1.0568,0.058277,0.02,0.8,0
0.051466,-0.028101,0.9793,-0.73058,-1.928,-1.7769,-0.15887,0,0,1.3602,-0.19647,0,-0.41305,0,0,0.46896,0.13753,0,0.48683,-0.70986,-1.9487,-1.7769,-7.4304,-1.4785,1.1625,0.074777,0.04,0.8,0
0.080146,-0.03368,0.97076,-0.68789,-1.5641,-1.3228,-0.18729,0,0,1.042,-0.4706,0,-0.87882,0,0,0.39399,0.17216,0,0.43812,-0.6389,-1.6131,-1.3228,-15.841,-1.1916,0.86944,0.049169,0.06,0.8,0
0.093148,-0.051131,0.94909,-0.61581,-0.99593,-0.79989,-0.12151,0,0,0.71791,-0.76458,0,-0.94775,0,0,0.34293,0.066361,0,0.34939,-0.58029,-1.0314,-0.79989,-16.295,-0.80388,0.39077,-0.00014075,0.08,0.8,0
0.10886,-0.061926,0.92961,-0.57535,-0.98724,-0.77865,-0.080105,0,0,0.79286,-0.81351,0,-0.62482,0,0,0.31734,0.044501,0,0.3204,-0.56032,-1.0023,-0.77865,-10.627,-0.78041,0.38275,-5.977e-05,0.1,0.8,0
0.12486,-0.068481,0.91101,-0.56173,-0.98294,-0.76707,-0.054115,0,0,0.80084,-0.8419,0,-0.4221,0,0,0.30632,0.028222,0,0.30757,-0.55489,-0.98978,-0.76707,-7.2051,-0.77058,0.37667,-0.00011505,0.12,0.8,0
0.14089,-0.072613,0.89285,-0.55153,-0.97493,-0.75555,-0.037508,0,0,0.79569,-0.85556,0,-0.29256,0,0,0.30052,0.015376,0,0.30088,-0.54823,-0.97823,-0.75555,-5.0236,-0.76067,0.37246,-0.00016397,0.14,0.8,0
0.15669,-0.07496,0.87495,-0.54464,-0.96538,-0.74466,-0.025308,0,0,0.78007,-0.86084,0,-0.1974,0,0,0.29696,0.0046792,0,0.29697,-0.54312,-0.9669,-0.74466,-3.4299,-0.75156,0.36715,-0.00021485,0.16,0.8,0
0.1721,-0.075931,0.85721,-0.53943,-0.95434,-0.73387,-0.015683,0,0,0.75831,-0.85984,0,-0.12233,0,0,0.29467,-0.0047405,0,0.29468,-0.53884,-0.95493,-0.73387,-2.1616,-0.74255,0.36058,-0.00026032,0.18,0.8,0
0.18702,-0.075734,0.83959,-0.53528,-0.94197,-0.72304,-0.0072046,0,0,0.73225,-0.85384,0,-0.056196,0,0,0.29326,-0.013534,0,0.29355,-0.53515,-0.9421,-0.72304,-1.0146,-0.73343,0.35277,-0.00029811,0.2,0.8,0
0.20139,-0.074457,0.82202,-0.53191,-0.92839,-0.7121,0.0012335,0,0,0.70273,-0.84354,0,0.0096211,0,0,0.29261,-0.022269,0,0.29344,-0.53191,-0.9284,-0.7121,0.17825,-0.72413,0.34384,-0.00032765,0.22,0.8,0
0.21513,-0.072081,0.80448,-0.52937,-0.9137,-0.70108,0.010704,0,0,0.66966,-0.82922,0,0.083492,0,0,0.29281,-0.031522,0,0.29447,-0.52907,-0.914,-0.70108,1.5941,-0.71472,0.33398,-0.00034982,0.24,0.8,0
0.22817,-0.068474,0.78689,-0.52808,-0.89793,-0.6901,0.022508,0,0,0.63188,-0.81054,0,0.17556,0,0,0.2942,-0.041978,0,0.29714,-0.52671,-0.89929,-0.6901,3.4698,-0.70537,0.32348,-0.00036681,0.26,0.8,0
0.24041,-0.063343,0.76917,-0.52934,-0.88114,-0.67953,0.038244,0,0,0.58576,-0.78626,0,0.2983,0,0,0.2977,-0.05456,0,0.30261,-0.52523,-0.88525,-0.67953,6.1331,-0.69667,0.31284,-0.00038413,0.28,0.8,0
0.25161,-0.056214,0.75116,-0.5336,-0.86161,-0.66895,0.062013,0,0,0.52788,-0.75137,0,0.4837,0,0,0.3063,-0.0706,0,0.31426,-0.52226,-0.87294,-0.66895,10.356,-0.68805,0.30505,-0.00040599,0.3,0.8,0
0.26152,-0.045688,0.73242,-0.56089,-0.84581,-0.66615,0.098208,0,0,0.41051,-0.70068,0,0.76602,0,0,0.32852,-0.09215,0,0.34127,-0.53032,-0.87638,-0.66615,17.291,-0.69095,0.302,-0.0005122,0.32,0.8,0
0.26803,-0.03009,0.71174,-0.61226,-1.2738,-1.0403,0.15611,0,0,0.66488,-0.45535,0,0.73262,0,0,0.37145,-0.22067,0,0.44148,-0.56688,-1.3192,-1.0403,17.462,-0.97547,0.66256,0.016751,0.34,0.8,0
0.28812,-0.024394,0.70378,-0.63357,-1.5147,-1.3483,0.14179,0,0,0.9291,-0.21641,0,0.36866,0,0,0.43113,-0.21875,0,0.48192,-0.61132,-1.537,-1.3483,8.92,-1.1655,0.84722,0.026085,0.36,0.8,0
0.30519,-0.019053,0.6945,-0.69571,-1.4587,-1.3408,0.092837,0,0,0.83866,-0.1533,0,0.24138,0,0,0.46314,-0.1608,0,0.48988,-0.68458,-1.4699,-1.3408,6.838,-1.1651,0.7294,0.017846,0.38,0.8,0
0.32166,-0.015822,0.68525,-0.68605,-1.4042,-1.3123,0.046605,0,0,0.81414,-0.1194,0,0.12117,0,0,0.45762,-0.12713,0,0.47486,-0.68303,-1.4072,-1.3123,3.6978,-1.1342,0.68167,0.015212,0.4,0.8,0
0.33776,-0.014048,0.67619,-0.65575,-0.99107,-0.94484,0.017499,0,0,0.32287,-0.090153,0,0.069978,0,0,0.44872,-0.072692,0,0.45592,-0.64442,-1.0024,-0.94484,34.336,-0.86389,0.3484,0.0070294,0.42,0.8,0
0.33458,-0.012136,0.64952,-0.63817,-0.6245,-0.59531,0.0052472,0,0,-0.16717,-0.11385,0,0.040928,0,0,0.44204,-0.026672,0,0.44283,-0.62272,-0.63995,-0.59531,71.246,-0.61933,0.038997,1.165e-06,0.44,0.8,0
0.33107,-0.010822,0.62315,-0.62862,-0.61557,-0.58097,0.0011055,0,0,-0.18581,-0.13495,0,0.008623,0,0,0.43693,-0.020062,0,0.43739,-0.61548,-0.62871,-0.58097,85.189,-0.60839,0.042689,2.74e-06,0.46,0.8,0
0.32715,-0.0098564,0.59709,-0.62035,-0.60578,-0.56687,-0.0010665,0,0,-0.20858,-0.15175,0,-0.008319,0,0,0.43181,-0.015716,0,0.4321,-0.6057,-0.62043,-0.56687,-85.836,-0.59766,0.047924,3.9054e-06,0.48,0.8,0
0.32273,-0.009088,0.57133,-0.61326,-0.59497,-0.55291,-0.0021087,0,0,-0.23535,-0.16402,0,-0.016448,0,0,0.42698,-0.013001,0,0.42719,-0.59473,-0.6135,-0.55291,-83.507,-0.58705,0.05372,4.8097e-06,0.5,0.8,0
0.31773,-0.0084349,0.54585,-0.6072,-0.58326,-0.53909,-0.0025492,0,0,-0.26565,-0.17226,0,-0.019884,0,0,0.42265,-0.01141,0,0.4228,-0.58299,-0.60747,-0.53909,-83.99,-0.57651,0.060012,5.1999e-06,0.52,0.8,0
0.3121,-0.0078555,0.52061,-0.60202,-0.57081,-0.52539,-0.0026829,0,0,-0.29886,-0.17717,0,-0.020927,0,0,0.41887,-0.010551,0,0.41901,-0.57059,-0.60225,-0.52539,-85.121,-0.56607,0.066905,4.6048e-06,0.54,0.8,0
0.30578,-0.0073297,0.49558,-0.59756,-0.55781,-0.5118,-0.0026561,0,0,-0.33443,-0.17941,0,-0.020718,0,0,0.41566,-0.010143,0,0.41578,-0.55763,-0.59773,-0.5118,-86.194,-0.55572,0.074472,2.4408e-06,0.56,0.8,0
0.29872,-0.0068472,0.47073,-0.5937,-0.54438,-0.49833,-0.0025315,0,0,-0.37194,-0.17956,0,-0.019746,0,0,0.41298,-0.0099999,0,0.4131,-0.54424,-0.59383,-0.49833,-87.07,-0.54547,0.082724,-1.9369e-06,0.58,0.8,0
0.2909,-0.0064014,0.44603,-0.59036,-0.53062,-0.48497,-0.0023302,0,0,-0.41102,-0.17804,0,-0.018176,0,0,0.41078,-0.010006,0,0.4109,-0.53053,-0.59045,-0.48497,-87.769,-0.53532,0.09163,-9.2112e-06,0.6,0.8,0
0.28228,-0.0059866,0.42144,-0.58746,-0.51664,-0.47171,-0.0020558,0,0,-0.45143,-0.17522,0,-0.016035,0,0,0.40902,-0.010097,0,0.40914,-0.51658,-0.58752,-0.47171,-88.339,-0.52527,0.10114,-2.0094e-05,0.62,0.8,0
0.27284,-0.0055972,0.39695,-0.58496,-0.50248,-0.45855,-0.0017066,0,0,-0.493,-0.17135,0,-0.013312,0,0,0.40764,-0.010238,0,0.40777,-0.50245,-0.58499,-0.45855,-88.815,-0.51533,0.1112,-3.5327e-05,0.64,0.8,0
0.26256,-0.0052274,0.37252,-0.58281,-0.48821,-0.44548,-0.0012821,0,0,-0.53558,-0.16666,0,-0.010001,0,0,0.40662,-0.010419,0,0.40676,-0.4882,-0.58283,-0.44548,-89.224,-0.5055,0.12174,-5.5684e-05,0.66,0.8,0
0.25142,-0.004872,0.34815,-0.58099,-0.47387,-0.43251,-0.00078605,0,0,-0.57908,-0.1613,0,-0.0061312,0,0,0.40594,-0.010639,0,0.40608,-0.47386,-0.581,-0.43251,-89.58,-0.49579,0.13273,-8.1977e-05,0.68,0.8,0
0.2394,-0.0045264,0.32381,-0.57949,-0.45948,-0.41963,-0.00022799,0,0,-0.62347,-0.15542,0,-0.0017783,0,0,0.40557,-0.010906,0,0.40572,-0.45948,-0.57949,-0.41963,-89.891,-0.4862,0.14413,-0.00011507,0.7,0.8,0
0.22648,-0.0041878,0.29948,-0.57831,-0.44509,-0.40685,0.00037538,0,0,-0.66871,-0.14913,0,0.002928,0,0,0.40553,-0.01123,0,0.40569,-0.44508,-0.57831,-0.40685,89.839,-0.47675,0.1559,-0.00015586,0.72,0.8,0
0.21265,-0.0038553,0.27515,-0.57744,-0.43071,-0.39416,0.00099914,0,0,-0.71479,-0.14253,0,0.0077933,0,0,0.40582,-0.011616,0,0.40599,-0.4307,-0.57744,-0.39416,89.61,-0.46743,0.16802,-0.00020532,0.74,0.8,0
0.19789,-0.0035307,0.25078,-0.57687,-0.41638,-0.38157,0.0016091,0,0,-0.76168,-0.13575,0,0.012551,0,0,0.40648,-0.012064,0,0.40666,-0.41636,-0.57689,-0.38157,89.426,-0.45827,0.18046,-0.0002644,0.76,0.8,0
0.18218,-0.0032186,0.22637,-0.5766,-0.40213,-0.36908,0.0021614,0,0,-0.80936,-0.12891,0,0.016859,0,0,0.40752,-0.012563,0,0.40771,-0.40211,-0.57663,-0.36908,89.29,-0.44927,0.19317,-0.00033401,0.78,0.8,0
0.16551,-0.0029269,0.20188,-0.57661,-0.38802,-0.35668,0.002605,0,0,-0.85772,-0.12222,0,0.020319,0,0,0.40899,-0.013077,0,0.4092,-0.38799,-0.57665,-0.35668,89.209,-0.44044,0.20611,-0.00041492,0.8,0.8,0
0.14787,-0.0026657,0.17729,-0.57686,-0.37411,-0.34439,0.0028875,0,0,-0.90663,-0.11593,0,0.022522,0,0,0.41092,-0.013544,0,0.41115,-0.37407,-0.5769,-0.34439,89.184,-0.43179,0.21918,-0.00050752,0.82,0.8,0
0.12925,-0.0024458,0.15257,-0.57727,-0.36049,-0.33218,0.0029679,0,0,-0.95583,-0.11038,0,0.02315,0,0,0.41334,-0.013855,0,0.41357,-0.36045,-0.57731,-0.33218,89.216,-0.42331,0.23229,-0.00061172,0.84,0.8,0
0.10964,-0.0022755,0.12769,-0.57775,-0.34723,-0.32006,0.002834,0,0,-1.005,-0.10597,0,0.022105,0,0,0.4162,-0.013855,0,0.41643,-0.34719,-0.57778,-0.32006,89.296,-0.41501,0.24529,-0.00072676,0.86,0.8,0
0.08905,-0.0021558,0.10263,-0.57819,-0.33441,-0.30799,0.0025148,0,0,-1.0538,-0.10304,0,0.019615,0,0,0.41942,-0.013342,0,0.41964,-0.33438,-0.57822,-0.30799,89.409,-0.40686,0.25805,-0.00085145,0.88,0.8,0
0.067489,-0.0020768,0.077359,-0.5785,-0.32202,-0.29594,0.0020777,0,0,-1.102,-0.10171,0,0.016206,0,0,0.42281,-0.012097,0,0.42299,-0.322,-0.57852,-0.29594,89.536,-0.39882,0.27049,-0.00098464,0.9,0.8,0
0.044971,-0.0020164,0.051888,-0.57858,-0.30995,-0.28386,0.0015966,0,0,-1.1494,-0.10178,0,0.012454,0,0,0.42607,-0.0099417,0,0.42619,-0.30995,-0.57859,-0.28386,89.659,-0.3908,0.28259,-0.0011258,0.92,0.8,0
0.021512,-0.0019461,0.026231,-0.57828,-0.34813,-0.29541,0.00068486,0,0,-0.75871,-0.10281,0,0.0043788,0,0,0.43001,-0.013604,0,0.43028,-0.34813,-0.57828,-0.29541,89.839,-0.40727,0.26205,-0.00081199,0.94,0.8,0
0.014623,-0.0020123,0.017583,-0.57816,-0.38939,-0.30785,-0.00066014,0,0,-0.3514,-0.10601,0,-0.0017164,0,0,0.43521,-0.015485,0,0.43549,-0.38939,-0.57816,-0.30785,-89.8,-0.42513,0.24016,-0.00044478,0.96,0.8,0
0.0074557,-0.0020996,0.0088226,-0.57731,-0.38032,-0.29611,-0.00088151,0,0,-0.36556,-0.10947,0,-0.0022919,0,0,0.43958,-0.0083631,0,0.43965,-0.38031,-0.57732,-0.29611,-89.744,-0.41791,0.24998,-0.00050618,0.98,0.8,0
0,-0.0021364,0,-0.56579,-0.36431,-0.27903,-0.00070854,0,0,-0.37279,-0.11087,0,-0.0018422,0,0,0.44113,1.6046e-17,0,0.44111,-0.36431,-0.56579,-0.27903,-89.799,-0.40305,0.25505,-0.00054205,1,0.8,0
0,-0.023819,1,-0.86441,-1.8621,-1.818,-0.030534,0,0,1.2396,-0.057398,0,-0.079388,0,0,0.59125,-1.596e-15,0,0.59065,-0.86348,-1.863,-1.818,-1.7513,-1.5148,0.9778,0.04767,0,0.82,0
0.024792,-0.025406,0.98818,-0.86271,-1.8492,-1.8017,-0.072422,0,0,1.2207,-0.061659,0,-0.1883,0,0,0.59345,0.065108,0,0.59625,-0.85742,-1.8545,-1.8017,-4.1766,-1.5045,0.97175,0.046662,0.02,0.82,0
0.04883,-0.030303,0.97626,-0.8987,-1.8664,-1.8058,-0.20383,0,0,1.1792,-0.078766,0,-0.52997,0,0,0.61783,0.14718,0,0.63302,-0.85751,-1.9076,-1.8058,-11.423,-1.5236,1.003,0.050034,0.04,0.82,0
0.071961,-0.044117,0.96346,-0.82046,-1.4182,-1.3139,-0.29746,0,0,0.89743,-0.30952,0,-1.3117,0,0,0.53251,0.20327,0,0.57071,-0.69641,-1.5422,-1.3139,-23.321,-1.1842,0.76388,0.027222,0.06,0.82,0
0.087318,-0.068233,0.94431,-0.76278,-1.0575,-1.1756,-0.20469,0,0,0.80507,-0.13151,0,-0.9199,0,0,0.61443,0.085929,0,0.62113,-0.6438,-1.1765,-1.1756,-26.886,-0.99865,0.58289,0.0051603,0.08,0.82,0
0.10416,-0.078983,0.9266,-0.70376,-1.0305,-1.138,-0.098944,0,0,0.84679,-0.14452,0,-0.48291,0,0,0.58643,0.054025,0,0.58939,-0.67209,-1.0622,-1.138,-16.826,-0.95742,0.50599,-0.0010776,0.1,0.82,0
0.12119,-0.085914,0.90913,-0.68123,-1.0086,-1.113,-0.064749,0,0,0.84202,-0.1548,0,-0.32238,0,0,0.57981,0.0336,0,0.58097,-0.66686,-1.023,-1.113,-12.053,-0.93429,0.48914,-0.0020265,0.12,0.82,0
0.13784,-0.090121,0.89181,-0.67494,-0.99631,-1.0959,-0.042867,0,0,0.82089,-0.16231,0,-0.21693,0,0,0.57562,0.018935,0,0.57597,-0.66837,-1.0029,-1.0959,-8.5159,-0.92239,0.47305,-0.002285,0.14,0.82,0
0.15402,-0.092468,0.87459,-0.67148,-0.98408,-1.0797,-0.028528,0,0,0.79608,-0.16745,0,-0.14555,0,0,0.57267,0.0072401,0,0.5727,-0.66843,-0.98713,-1.0797,-6.0147,-0.91176,0.45914,-0.0023459,0.16,0.82,0
0.16969,-0.093357,0.85745,-0.66912,-0.97167,-1.0639,-0.017747,0,0,0.76976,-0.17058,0,-0.090916,0,0,0.5703,-0.0028158,0,0.5703,-0.66787,-0.97291,-1.0639,-3.9738,-0.90155,0.44583,-0.0023237,0.18,0.82,0
0.18482,-0.093019,0.84037,-0.66683,-0.95869,-1.0479,-0.0086597,0,0,0.74309,-0.1721,0,-0.044222,0,0,0.56827,-0.012087,0,0.56844,-0.66652,-0.95901,-1.0479,-2.0724,-0.89114,0.43291,-0.0022617,0.2,0.82,0
0.19941,-0.091549,0.82335,-0.66424,-0.9452,-1.0317,0.0002115,0,0,0.71661,-0.17237,0,0.0016087,0,0,0.56647,-0.021254,0,0.567,-0.66424,-0.9452,-1.0317,0.031802,-0.88039,0.42038,-0.0021718,0.22,0.82,0
0.21348,-0.088936,0.80638,-0.66123,-0.93132,-1.0154,0.010286,0,0,0.69054,-0.17169,0,0.053406,0,0,0.56486,-0.031014,0,0.566,-0.66074,-0.93182,-1.0154,2.7438,-0.8693,0.40845,-0.0020535,0.24,0.82,0
0.22703,-0.085046,0.78946,-0.65824,-0.91753,-0.99904,0.023256,0,0,0.66455,-0.17024,0,0.11924,0,0,0.56359,-0.042255,0,0.56569,-0.65553,-0.92024,-0.99904,6.5356,-0.85827,0.39753,-0.0018877,0.26,0.82,0
0.24006,-0.079599,0.77257,-0.65632,-0.90413,-0.98318,0.042523,0,0,0.63738,-0.16817,0,0.21407,0,0,0.56323,-0.056385,0,0.56693,-0.64683,-0.91362,-0.98318,12.062,-0.84788,0.3893,-0.0016247,0.28,0.82,0
0.25253,-0.071936,0.75567,-0.66602,-0.89881,-0.97323,0.072101,0,0,0.59905,-0.16529,0,0.35584,0,0,0.56502,-0.07633,0,0.57157,-0.63953,-0.9253,-0.97323,18.81,-0.84602,0.38356,-0.0010339,0.3,0.82,0
0.26402,-0.061238,0.73867,-0.70424,-0.89785,-0.97307,0.1597,0,0,0.52422,-0.16137,0,0.72346,0,0,0.58996,-0.10792,0,0.60167,-0.59738,-1.0047,-0.97307,29.453,-0.85839,0.43539,0.0018885,0.32,0.82,0
0.2735,-0.039953,0.72027,-0.72309,-1.1596,-1.045,0.24111,0,0,0.57633,-0.31338,0,1.0728,0,0,0.50691,-0.23273,0,0.5599,-0.61518,-1.2675,-1.045,24.744,-0.97589,0.57908,0.0091546,0.34,0.82,0
0.28913,-0.027332,0.70825,-0.78014,-1.4762,-1.3851,0.16507,0,0,0.7865,-0.11832,0,0.42919,0,0,0.56486,-0.20752,0,0.60032,-0.74297,-1.5133,-1.3851,12.688,-1.2138,0.71492,0.016752,0.36,0.82,0
0.30496,-0.021559,0.69767,-0.73178,-1.4182,-1.3427,0.069199,0,0,0.79417,-0.098231,0,0.17992,0,0,0.51423,-0.14449,0,0.53393,-0.72488,-1.4251,-1.3427,5.6993,-1.1642,0.6629,0.014183,0.38,0.82,0
0.3209,-0.017793,0.68768,-0.69894,-1.3728,-1.3092,0.029217,0,0,0.79335,-0.082701,0,0.075965,0,0,0.48587,-0.10824,0,0.49783,-0.69768,-1.3741,-1.3092,2.4779,-1.127,0.64642,0.013403,0.4,0.82,0
0.33669,-0.015511,0.67824,-0.66087,-0.97369,-0.94253,0.0040688,0,0,0.30888,-0.060773,0,0.0035471,0,0,0.46339,-0.059383,0,0.46809,-0.64642,-0.98815,-0.94253,-41.836,-0.85903,0.33565,0.0063712,0.42,0.82,0
0.33325,-0.014215,0.65096,-0.64045,-0.62043,-0.59525,-0.0053098,0,0,-0.17627,-0.098186,0,-0.041417,0,0,0.4504,-0.019859,0,0.45084,-0.61911,-0.64177,-0.59525,-76.029,-0.61871,0.040291,1.4888e-07,0.44,0.82,0
0.32964,-0.013414,0.62419,-0.62943,-0.61381,-0.58104,-0.0078064,0,0,-0.18875,-0.12781,0,-0.06089,0,0,0.44239,-0.013514,0,0.44261,-0.61058,-0.63267,-0.58104,-67.512,-0.60809,0.044867,1.1449e-06,0.46,0.82,0
0.3257,-0.012838,0.59788,-0.62027,-0.60524,-0.56695,-0.0084928,0,0,-0.20797,-0.14935,0,-0.066243,0,0,0.43516,-0.0097516,0,0.43528,-0.60142,-0.6241,-0.56695,-65.753,-0.59749,0.049843,2.2142e-06,0.48,0.82,0
0.32132,-0.012344,0.57197,-0.61268,-0.59501,-0.55296,-0.0082873,0,0,-0.23289,-0.16398,0,-0.064641,0,0,0.42888,-0.0077903,0,0.42896,-0.59173,-0.61596,-0.55296,-68.416,-0.58688,0.055037,3.314e-06,0.5,0.82,0
0.31639,-0.011871,0.54641,-0.60636,-0.58353,-0.5391,-0.0077201,0,0,-0.26229,-0.17327,0,-0.060217,0,0,0.42358,-0.0069889,0,0.42364,-0.58117,-0.60872,-0.5391,-72.963,-0.57633,0.060727,4.0423e-06,0.52,0.82,0
0.31083,-0.011397,0.52114,-0.60104,-0.57118,-0.52538,-0.0070455,0,0,-0.29507,-0.17861,0,-0.054955,0,0,0.41921,-0.0068713,0,0.41927,-0.5696,-0.60262,-0.52538,-77.369,-0.56586,0.067125,3.8519e-06,0.54,0.82,0
0.30458,-0.010921,0.49611,-0.5965,-0.5582,-0.51178,-0.0063629,0,0,-0.33041,-0.18105,0,-0.049631,0,0,0.41566,-0.0071198,0,0.41573,-0.55717,-0.59753,-0.51178,-80.809,-0.55549,0.074304,2.1401e-06,0.56,0.82,0
0.29761,-0.010445,0.47126,-0.59259,-0.5448,-0.4983,-0.0056952,0,0,-0.36772,-0.18132,0,-0.044422,0,0,0.4128,-0.0075417,0,0.41287,-0.54413,-0.59326,-0.4983,-83.297,-0.54523,0.08225,-1.7227e-06,0.58,0.82,0
0.28988,-0.0099712,0.44657,-0.58919,-0.53108,-0.48494,-0.0050333,0,0,-0.40659,-0.17995,0,-0.03926,0,0,0.41052,-0.0080313,0,0.4106,-0.53065,-0.58963,-0.48494,-85.086,-0.53507,0.090905,-8.389e-06,0.6,0.82,0
0.28135,-0.0095027,0.422,-0.58624,-0.51714,-0.47168,-0.0043579,0,0,-0.44677,-0.1773,0,-0.033992,0,0,0.40871,-0.0085383,0,0.4088,-0.51687,-0.58651,-0.47168,-86.405,-0.52502,0.10019,-1.8536e-05,0.62,0.82,0
0.27201,-0.0090388,0.39753,-0.58366,-0.50305,-0.45852,-0.0036493,0,0,-0.48805,-0.17365,0,-0.028464,0,0,0.40731,-0.0090466,0,0.40741,-0.50288,-0.58383,-0.45852,-87.413,-0.51508,0.11005,-3.2874e-05,0.64,0.82,0
0.26183,-0.008578,0.37312,-0.58144,-0.48884,-0.44546,-0.0028924,0,0,-0.53032,-0.1692,0,-0.02256,0,0,0.40626,-0.0095601,0,0.40637,-0.48875,-0.58153,-0.44546,-88.213,-0.50525,0.12041,-5.2154e-05,0.66,0.82,0
0.25079,-0.0081181,0.34877,-0.57954,-0.47457,-0.43249,-0.0020787,0,0,-0.5735,-0.1641,0,-0.016214,0,0,0.40553,-0.010094,0,0.40566,-0.47452,-0.57958,-0.43249,-88.866,-0.49553,0.13123,-7.7181e-05,0.68,0.82,0
0.23889,-0.0076571,0.32446,-0.57797,-0.46024,-0.41962,-0.0012078,0,0,-0.61757,-0.15844,0,-0.0094211,0,0,0.40512,-0.010669,0,0.40526,-0.46023,-0.57798,-0.41962,-89.412,-0.48594,0.14247,-0.00010883,0.7,0.82,0
0.22609,-0.0071941,0.30016,-0.57671,-0.44589,-0.40683,-0.00028823,0,0,-0.66253,-0.15231,0,-0.0022482,0,0,0.40501,-0.011309,0,0.40517,-0.44589,-0.57671,-0.40683,-89.874,-0.47648,0.15411,-0.00014807,0.72,0.82,0
0.21238,-0.00673,0.27586,-0.5758,-0.43153,-0.39415,0.00066069,0,0,-0.70843,-0.14577,0,0.0051534,0,0,0.40523,-0.012032,0,0.40541,-0.43153,-0.5758,-0.39415,89.738,-0.46716,0.16615,-0.00019598,0.74,0.82,0
0.19775,-0.0062683,0.25153,-0.57524,-0.41718,-0.38157,0.0016062,0,0,-0.75531,-0.13888,0,0.012528,0,0,0.40581,-0.012853,0,0.40601,-0.41717,-0.57525,-0.38157,89.418,-0.458,0.17857,-0.00025371,0.76,0.82,0
0.18217,-0.005816,0.22716,-0.57505,-0.40287,-0.36909,0.0024997,0,0,-0.80321,-0.13172,0,0.019498,0,0,0.4068,-0.013772,0,0.40703,-0.40283,-0.57508,-0.36909,89.168,-0.449,0.19136,-0.00032252,0.78,0.82,0
0.16562,-0.0053844,0.20272,-0.57523,-0.38863,-0.35673,0.0032755,0,0,-0.85215,-0.1244,0,0.025549,0,0,0.40827,-0.014767,0,0.40853,-0.38857,-0.57529,-0.35673,88.995,-0.4402,0.20451,-0.00040362,0.8,0.82,0
0.14809,-0.0049887,0.17817,-0.57577,-0.37451,-0.34447,0.0038537,0,0,-0.90207,-0.11714,0,0.030059,0,0,0.41029,-0.015775,0,0.41059,-0.37444,-0.57585,-0.34447,88.903,-0.43159,0.21794,-0.00049797,0.82,0.82,0
0.12954,-0.0046471,0.15348,-0.57662,-0.36061,-0.33233,0.0041534,0,0,-0.95273,-0.11029,0,0.032397,0,0,0.41294,-0.016674,0,0.41328,-0.36053,-0.5767,-0.33233,88.899,-0.42318,0.23156,-0.00060593,0.84,0.82,0
0.10998,-0.0043769,0.12862,-0.57765,-0.34705,-0.32028,0.0041184,0,0,-1.0037,-0.10438,0,0.032124,0,0,0.41626,-0.017258,0,0.41662,-0.34697,-0.57773,-0.32028,88.977,-0.41499,0.24519,-0.00072692,0.86,0.82,0
0.089392,-0.0041881,0.10353,-0.57874,-0.33396,-0.30832,0.0037519,0,0,-1.0546,-0.099987,0,0.029265,0,0,0.4202,-0.017222,0,0.42056,-0.3339,-0.5788,-0.30832,89.122,-0.40701,0.25864,-0.00085935,0.88,0.82,0
0.067792,-0.0040749,0.078191,-0.57971,-0.3214,-0.2964,0.0031232,0,0,-1.1049,-0.097496,0,0.024361,0,0,0.42456,-0.016197,0,0.42488,-0.32136,-0.57975,-0.2964,89.307,-0.39917,0.27174,-0.0010013,0.9,0.82,0
0.045194,-0.0040121,0.052582,-0.58041,-0.30924,-0.28442,0.0023339,0,0,-1.1543,-0.096791,0,0.018204,0,0,0.42897,-0.013832,0,0.4292,-0.30922,-0.58043,-0.28442,89.507,-0.39136,0.28442,-0.0011515,0.92,0.82,0
0.021618,-0.0039609,0.026715,-0.58007,-0.34533,-0.29543,0.00076041,0,0,-0.76296,-0.097306,0,0.0054917,0,0,0.43462,-0.01986,0,0.43519,-0.34532,-0.58007,-0.29543,89.835,-0.40694,0.26458,-0.00085101,0.94,0.82,0
0.014676,-0.0041118,0.017953,-0.58044,-0.388,-0.30848,-0.0014458,0,0,-0.35354,-0.10337,0,-0.0037592,0,0,0.4423,-0.022971,0,0.4429,-0.38799,-0.58045,-0.30848,-89.57,-0.42564,0.24221,-0.00047351,0.96,0.82,0
0.0074766,-0.0042882,0.0090229,-0.57956,-0.38146,-0.29733,-0.0016406,0,0,-0.3669,-0.10937,0,-0.0042655,0,0,0.44882,-0.012515,0,0.44898,-0.38145,-0.57957,-0.29733,-89.525,-0.41945,0.25099,-0.00051521,0.98,0.82,0
0,-0.0043608,0,-0.56769,-0.36607,-0.28013,-0.0013964,0,0,-0.37383,-0.11172,0,-0.0036306,0,0,0.45115,-1.7347e-18,0,0.45112,-0.36606,-0.5677,-0.28013,-89.603,-0.40463,0.25568,-0.00054297,1,0.82,0
0,-0.024405,1,-0.84185,-1.7965,-1.7915,-0.029,0,0,1.2346,-0.0065134,0,-0.0754,0,0,0.65433,-9.541e-16,0,0.65393,-0.84097,-1.7974,-1.7915,-1.7383,-1.4766,0.9535,0.044517,0,0.84,0
0.024691,-0.025913,0.98691,-0.82136,-1.7664,-1.7632,-0.066817,0,0,1.2244,-0.0040825,0,-0.17372,0,0,0.66476,0.055744,0,0.66667,-0.81666,-1.7711,-1.7632,-4.0244,-1.4503,0.95052,0.044097,0.02,0.84,0
0.048977,-0.031252,0.97341,-0.8516,-1.754,-1.7551,-0.15537,0,0,1.1745,0.0014116,0,-0.40395,0,0,0.70876,0.11867,0,0.71849,-0.8256,-1.78,-1.7551,-9.5002,-1.4536,0.9422,0.042857,0.04,0.84,0
0.071673,-0.041814,0.95856,-0.88999,-1.5892,-1.7023,-0.25164,0,0,1.056,0.14709,0,-0.65427,0,0,0.77354,0.17549,0,0.79522,-0.80884,-1.6703,-1.7023,-17.874,-1.3938,0.87791,0.034596,0.06,0.84,0
0.091218,-0.056391,0.94247,-0.86922,-1.1657,-1.553,-0.21653,0,0,0.88885,0.50339,0,-0.56297,0,0,0.82811,0.091921,0,0.83255,-0.75506,-1.2799,-1.553,-27.8,-1.196,0.70237,0.0091592,0.08,0.84,0
0.10723,-0.067707,0.92544,-0.92424,-1.1158,-1.5375,-0.13813,0,0,0.79719,0.54811,0,-0.35914,0,0,0.85144,0.057508,0,0.8533,-0.85194,-1.1881,-1.5375,-27.628,-1.1925,0.59372,-0.00035639,0.1,0.84,0
0.12311,-0.074673,0.90841,-0.88919,-1.0689,-1.4958,-0.082916,0,0,0.78864,0.55502,0,-0.21558,0,0,0.85104,0.036425,0,0.85179,-0.85678,-1.1013,-1.4958,-21.35,-1.1513,0.5585,-0.0035178,0.12,0.84,0
0.13877,-0.079106,0.8914,-0.86786,-1.0408,-1.464,-0.05379,0,0,0.77496,0.5502,0,-0.13985,0,0,0.84978,0.021392,0,0.85003,-0.85249,-1.0561,-1.464,-15.946,-1.1242,0.53932,-0.0043578,0.14,0.84,0
0.1541,-0.081658,0.87442,-0.85552,-1.0199,-1.437,-0.035031,0,0,0.756,0.54225,0,-0.091081,0,0,0.84788,0.0095317,0,0.84792,-0.84836,-1.0271,-1.437,-11.54,-1.1042,0.52277,-0.004551,0.16,0.84,0
0.16901,-0.082754,0.85748,-0.84867,-1.0028,-1.4129,-0.021953,0,0,0.73353,0.53317,0,-0.057078,0,0,0.84564,-0.00057394,0,0.84563,-0.8456,-1.0058,-1.4129,-7.9506,-1.0881,0.50657,-0.0044933,0.18,0.84,0
0.18344,-0.082618,0.84059,-0.8451,-0.98774,-1.3904,-0.011524,0,0,0.70895,0.52351,0,-0.029962,0,0,0.84309,-0.0098042,0,0.84314,-0.84418,-0.98867,-1.3904,-4.5893,-1.0744,0.49026,-0.0043269,0.2,0.84,0
0.19737,-0.081352,0.82376,-0.84385,-0.9744,-1.3692,-0.0016932,0,0,0.683,0.51328,0,-0.0044023,0,0,0.84015,-0.018846,0,0.84035,-0.84383,-0.97443,-1.3692,-0.7429,-1.0625,0.47381,-0.0040958,0.22,0.84,0
0.21077,-0.078948,0.80699,-0.84482,-0.96311,-1.3494,0.0094901,0,0,0.65591,0.50213,0,0.024674,0,0,0.83667,-0.028393,0,0.83715,-0.84406,-0.96387,-1.3494,4.5577,-1.0524,0.45733,-0.0037994,0.24,0.84,0
0.22361,-0.075284,0.79029,-0.84896,-0.9552,-1.3315,0.024667,0,0,0.62735,0.48925,0,0.064134,0,0,0.83242,-0.039357,0,0.83334,-0.84351,-0.96064,-1.3315,12.455,-1.0452,0.44128,-0.0033873,0.26,0.84,0
0.23586,-0.070069,0.77369,-0.85816,-0.95363,-1.3172,0.047743,0,0,0.59678,0.47268,0,0.12413,0,0,0.82686,-0.053254,0,0.82854,-0.83839,-0.97341,-1.3172,22.503,-1.043,0.42763,-0.0027078,0.28,0.84,0
0.24748,-0.062826,0.75722,-0.87501,-0.96751,-1.31,0.091462,0,0,0.56545,0.44521,0,0.2378,0,0,0.81978,-0.073238,0,0.82298,-0.81877,-1.0237,-1.31,31.589,-1.0508,0.42733,-0.0011292,0.3,0.84,0
0.25848,-0.052143,0.7409,-0.81326,-0.98273,-1.2797,0.15295,0,0,0.60637,0.38606,0,0.39768,0,0,0.78782,-0.1074,0,0.79439,-0.72314,-1.0729,-1.2797,30.507,-1.0252,0.48726,0.0025384,0.32,0.84,0
0.27173,-0.039029,0.72571,-0.81254,-1.2983,-1.359,0.18178,0,0,0.71035,0.078841,0,0.47264,0,0,0.7206,-0.19628,0,0.7496,-0.75204,-1.3588,-1.359,18.406,-1.1566,0.60684,0.011477,0.34,0.84,0
0.28689,-0.029127,0.71208,-0.75978,-1.3938,-1.3581,0.10614,0,0,0.77786,-0.046298,0,0.27596,0,0,0.63573,-0.15374,0,0.65481,-0.74248,-1.411,-1.3581,9.2561,-1.1705,0.64374,0.01339,0.36,0.84,0
0.30285,-0.022982,0.70028,-0.71334,-1.3663,-1.3242,0.044329,0,0,0.79408,-0.054775,0,0.11525,0,0,0.56241,-0.10599,0,0.57258,-0.71034,-1.3693,-1.3242,3.8661,-1.1346,0.63759,0.013088,0.38,0.84,0
0.31865,-0.019131,0.68958,-0.69614,-1.3432,-1.3014,0.007939,0,0,0.7868,-0.054322,0,0.020641,0,0,0.51304,-0.073733,0,0.51863,-0.69604,-1.3433,-1.3014,0.70289,-1.1136,0.62732,0.012489,0.4,0.84,0
0.33432,-0.016479,0.67975,-0.66066,-0.96048,-0.93951,-0.011038,0,0,0.30427,-0.040888,0,-0.070989,0,0,0.47772,-0.03713,0,0.47967,-0.64023,-0.98091,-0.93951,-34.395,-0.85355,0.33416,0.0060317,0.42,0.84,0
0.33082,-0.016063,0.6519,-0.64004,-0.61817,-0.59476,-0.017227,0,0,-0.17658,-0.091289,0,-0.13437,0,0,0.45821,-0.0096064,0,0.45834,-0.6087,-0.64951,-0.59476,-61.202,-0.61766,0.049279,-4.5289e-06,0.44,0.84,0
0.32726,-0.015935,0.62477,-0.62834,-0.61383,-0.58091,-0.017558,0,0,-0.18498,-0.12841,0,-0.13695,0,0,0.44704,-0.0044136,0,0.44709,-0.60209,-0.64008,-0.58091,-56.222,-0.60769,0.051932,-3.3714e-06,0.46,0.84,0
0.32343,-0.01583,0.59826,-0.61871,-0.6062,-0.56689,-0.016353,0,0,-0.20208,-0.1533,0,-0.12756,0,0,0.43753,-0.0020345,0,0.43756,-0.59494,-0.62996,-0.56689,-55.463,-0.59727,0.054731,-1.5981e-06,0.48,0.84,0
0.31917,-0.015647,0.57227,-0.61089,-0.59621,-0.55288,-0.014663,0,0,-0.22623,-0.16896,0,-0.11437,0,0,0.42975,-0.0014802,0,0.42976,-0.58715,-0.61995,-0.55288,-58.301,-0.58666,0.058084,3.8152e-07,0.5,0.84,0
0.31438,-0.015366,0.54669,-0.60452,-0.58471,-0.539,-0.012968,0,0,-0.25553,-0.17828,0,-0.10115,0,0,0.42357,-0.0019401,0,0.42358,-0.5783,-0.61093,-0.539,-63.684,-0.57608,0.062385,1.9907e-06,0.52,0.84,0
0.30895,-0.015,0.52144,-0.5992,-0.57225,-0.52525,-0.011435,0,0,-0.28842,-0.18331,0,-0.089195,0,0,0.41874,-0.0028677,0,0.41875,-0.56805,-0.6034,-0.52525,-69.841,-0.56557,0.067784,2.6289e-06,0.54,0.84,0
0.30284,-0.014572,0.49644,-0.59469,-0.55917,-0.51164,-0.010082,0,0,-0.3239,-0.18539,0,-0.078642,0,0,0.41499,-0.003951,0,0.41501,-0.55651,-0.59735,-0.51164,-75.207,-0.55517,0.074258,1.7113e-06,0.56,0.84,0
0.296,-0.0141,0.47164,-0.5908,-0.54569,-0.49816,-0.008876,0,0,-0.36129,-0.18538,0,-0.069233,0,0,0.41207,-0.0050334,0,0.4121,-0.54401,-0.59248,-0.49816,-79.258,-0.54488,0.081696,-1.3485e-06,0.58,0.84,0
0.28839,-0.013599,0.44699,-0.5874,-0.53194,-0.4848,-0.0077677,0,0,-0.40015,-0.18385,0,-0.060588,0,0,0.40978,-0.0060494,0,0.40983,-0.53087,-0.58847,-0.4848,-82.176,-0.53472,0.089967,-7.1476e-06,0.6,0.84,0
0.27999,-0.013079,0.42246,-0.58442,-0.518,-0.47155,-0.0067094,0,0,-0.44021,-0.18117,0,-0.052333,0,0,0.408,-0.006985,0,0.40806,-0.51733,-0.5851,-0.47155,-84.289,-0.52466,0.098946,-1.6306e-05,0.62,0.84,0
0.27078,-0.012543,0.39803,-0.5818,-0.50394,-0.4584,-0.0056598,0,0,-0.48127,-0.1776,0,-0.044146,0,0,0.40662,-0.0078535,0,0.4067,-0.50353,-0.58221,-0.4584,-85.864,-0.51471,0.10853,-2.9478e-05,0.64,0.84,0
0.26074,-0.011995,0.37367,-0.5795,-0.48978,-0.44534,-0.0045869,0,0,-0.52323,-0.17331,0,-0.035778,0,0,0.40558,-0.0086829,0,0.40567,-0.48955,-0.57974,-0.44534,-87.081,-0.50488,0.11864,-4.7365e-05,0.66,0.84,0
0.24985,-0.011436,0.34936,-0.57751,-0.47557,-0.43238,-0.0034677,0,0,-0.56603,-0.16843,0,-0.027048,0,0,0.40483,-0.0095081,0,0.40494,-0.47545,-0.57763,-0.43238,-88.054,-0.49515,0.12922,-7.0737e-05,0.68,0.84,0
0.2381,-0.010864,0.32509,-0.57583,-0.4613,-0.4195,-0.0022886,0,0,-0.60966,-0.16302,0,-0.017851,0,0,0.40436,-0.010368,0,0.40449,-0.46126,-0.57587,-0.4195,-88.856,-0.48555,0.14023,-0.00010045,0.7,0.84,0
0.22546,-0.01028,0.30084,-0.57446,-0.44701,-0.40672,-0.0010461,0,0,-0.65419,-0.15713,0,-0.0081592,0,0,0.40417,-0.011301,0,0.40433,-0.447,-0.57447,-0.40672,-89.53,-0.47607,0.15167,-0.0001375,0.72,0.84,0
0.21193,-0.0096863,0.27659,-0.56981,-0.43078,-0.39237,0.0004648,0,0,-0.69201,-0.14978,0,0.0036254,0,0,0.40424,-0.012304,0,0.40442,-0.43078,-0.56982,-0.39237,89.808,-0.46432,0.1617,-0.00017653,0.74,0.84,0
0.19748,-0.0090861,0.25233,-0.57615,-0.41942,-0.38278,0.0017432,0,0,-0.75415,-0.1429,0,0.013597,0,0,0.40484,-0.013433,0,0.40507,-0.4194,-0.57617,-0.38278,89.363,-0.45945,0.17793,-0.00024851,0.76,0.84,0
0.18208,-0.0084874,0.22802,-0.56881,-0.40201,-0.36725,0.0030112,0,0,-0.78607,-0.13554,0,0.023487,0,0,0.40542,-0.014717,0,0.40569,-0.40195,-0.56886,-0.36725,88.966,-0.44602,0.1867,-0.00029568,0.78,0.84,0
0.16571,-0.0079028,0.20365,-0.57652,-0.39084,-0.35809,0.0041171,0,0,-0.85185,-0.12773,0,0.032113,0,0,0.40727,-0.016153,0,0.40759,-0.39075,-0.57661,-0.35809,88.73,-0.44182,0.20415,-0.00039957,0.8,0.84,0
0.14834,-0.0073511,0.17918,-0.56978,-0.37332,-0.34266,0.0051709,0,0,-0.88578,-0.11959,0,0.040333,0,0,0.40862,-0.017698,0,0.409,-0.37319,-0.56992,-0.34266,88.493,-0.42859,0.21364,-0.00046651,0.82,0.84,0
0.12993,-0.0068574,0.15457,-0.57905,-0.36257,-0.33401,0.0056432,0,0,-0.95566,-0.11138,0,0.044017,0,0,0.4124,-0.019235,0,0.41285,-0.36242,-0.5792,-0.33401,88.508,-0.42521,0.23229,-0.00061139,0.84,0.84,0
0.11047,-0.0064507,0.12976,-0.57293,-0.34531,-0.31872,0.006028,0,0,-0.99138,-0.10369,0,0.047018,0,0,0.41493,-0.020532,0,0.41545,-0.34515,-0.57308,-0.31872,88.484,-0.41232,0.24223,-0.00070076,0.86,0.84,0
0.089918,-0.0061553,0.10469,-0.58318,-0.33544,-0.31049,0.0054423,0,0,-1.0635,-0.097342,0,0.04245,0,0,0.42138,-0.021187,0,0.42192,-0.33532,-0.5833,-0.31049,88.742,-0.4097,0.26128,-0.00088826,0.88,0.84,0
0.068287,-0.0059766,0.079303,-0.57731,-0.31928,-0.29541,0.0048691,0,0,-1.0994,-0.093074,0,0.037979,0,0,0.42519,-0.020637,0,0.4257,-0.31918,-0.5774,-0.29541,88.919,-0.39733,0.27089,-0.00099447,0.9,0.84,0
0.045585,-0.0058881,0.053548,-0.58719,-0.31047,-0.28715,0.0036063,0,0,-1.1702,-0.090952,0,0.02813,0,0,0.43337,-0.018274,0,0.43376,-0.31042,-0.58724,-0.28715,89.254,-0.39493,0.28916,-0.0012146,0.92,0.84,0
0.021831,-0.0058383,0.027422,-0.58439,-0.34432,-0.29689,0.00031621,0,0,-0.76964,-0.091083,0,0.0072593,0,0,0.44073,-0.025008,0,0.44155,-0.3443,-0.58441,-0.29689,0.014778,-0.40853,0.26824,-0.00089898,0.94,0.84,0
0.014799,-0.006147,0.018502,-0.58776,-0.38831,-0.31133,-0.0026219,0,0,-0.35937,-0.10008,0,-0.0068169,0,0,0.45464,-0.032089,0,0.45578,-0.38828,-0.5878,-0.31133,-89.247,-0.42913,0.24715,-0.0005295,0.96,0.84,0
0.0075342,-0.0064745,0.0093232,-0.58121,-0.38214,-0.29833,-0.0032379,0,0,-0.36774,-0.10895,0,-0.0084185,0,0,0.46135,-0.017599,0,0.46165,-0.38208,-0.58126,-0.29833,-89.068,-0.42056,0.25173,-0.00052398,0.98,0.84,0
0,-0.0066053,0,-0.57185,-0.3684,-0.28208,-0.0025138,0,0,-0.37671,-0.11222,0,-0.006536,0,0,0.46616,-1.0408e-17,0,0.46612,-0.36837,-0.57188,-0.28208,-89.292,-0.40744,0.25773,-0.00055853,1,0.84,0
0,-0.024079,1,-0.81626,-1.7367,-1.7659,-0.028664,0,0,1.2345,0.037922,0,-0.074526,0,0,0.70274,-3.6429e-16,0,0.70254,-0.81537,-1.7376,-1.7659,-1.7819,-1.4396,0.93671,0.042083,0,0.86,0
0.024691,-0.02557,0.98594,-0.8008,-1.7129,-1.7401,-0.051226,0,0,1.221,0.035257,0,-0.13319,0,0,0.70899,0.042786,0,0.71011,-0.79793,-1.7158,-1.7401,-3.2043,-1.4179,0.93025,0.04125,0.02,0.86,0
0.048572,-0.030247,0.97152,-0.84774,-1.6711,-1.7272,-0.14272,0,0,1.1433,0.072898,0,-0.37106,0,0,0.74293,0.081589,0,0.74756,-0.82371,-1.6951,-1.7272,-9.56,-1.4153,0.88787,0.03579,0.04,0.86,0
0.070929,-0.038233,0.95644,-0.83292,-1.5108,-1.6595,-0.18329,0,0,1.0746,0.19343,0,-0.47656,0,0,0.76589,0.092663,0,0.77167,-0.78653,-1.5571,-1.6595,-14.203,-1.3344,0.82658,0.02751,0.06,0.86,0
0.090693,-0.048098,0.94063,-0.89907,-1.2931,-1.5983,-0.19205,0,0,0.90896,0.39678,0,-0.49932,0,0,0.80809,0.081469,0,0.81227,-0.82095,-1.3712,-1.5983,-22.136,-1.2635,0.6923,0.011065,0.08,0.86,0
0.10808,-0.057058,0.9243,-0.87972,-1.1366,-1.5292,-0.15061,0,0,0.84433,0.51033,0,-0.39158,0,0,0.82175,0.054164,0,0.82348,-0.81023,-1.2061,-1.5292,-24.768,-1.1819,0.62371,0.0021728,0.1,0.86,0
0.12397,-0.063714,0.90767,-0.91717,-1.0985,-1.5124,-0.089133,0,0,0.77375,0.53805,0,-0.23174,0,0,0.83435,0.035864,0,0.8351,-0.88069,-1.135,-1.5124,-22.257,-1.176,0.5505,-0.0028269,0.12,0.86,0
0.13923,-0.068113,0.89095,-0.90258,-1.0634,-1.4808,-0.064908,0,0,0.75163,0.54252,0,-0.16876,0,0,0.83654,0.021804,0,0.83681,-0.87966,-1.0864,-1.4808,-19.453,-1.1489,0.52896,-0.0038762,0.14,0.86,0
0.15403,-0.070778,0.87421,-0.89269,-1.0361,-1.4528,-0.041924,0,0,0.72821,0.54174,0,-0.109,0,0,0.83704,0.010831,0,0.8371,-0.88133,-1.0475,-1.4528,-15.154,-1.1272,0.5092,-0.004427,0.16,0.86,0
0.16836,-0.07203,0.85747,-0.8857,-1.0151,-1.4277,-0.025644,0,0,0.70462,0.53637,0,-0.066674,0,0,0.83612,0.0013733,0,0.83611,-0.88081,-1.02,-1.4277,-10.808,-1.1095,0.4923,-0.0045158,0.18,0.86,0
0.18221,-0.072078,0.84076,-0.88169,-0.99839,-1.4048,-0.012912,0,0,0.68002,0.52832,0,-0.033572,0,0,0.83414,-0.0072418,0,0.83416,-0.88028,-0.9998,-1.4048,-6.2391,-1.095,0.47613,-0.0043883,0.2,0.86,0
0.19556,-0.071018,0.8241,-0.8802,-0.98522,-1.3837,-0.0012108,0,0,0.65459,0.51806,0,-0.0031481,0,0,0.83111,-0.015561,0,0.83125,-0.88019,-0.98524,-1.3837,-0.66046,-1.0831,0.4601,-0.0041369,0.22,0.86,0
0.2084,-0.068851,0.80752,-0.88085,-0.97606,-1.3646,0.011837,0,0,0.62886,0.50509,0,0.030775,0,0,0.82678,-0.024127,0,0.82713,-0.8794,-0.97751,-1.3646,6.9816,-1.0738,0.44433,-0.0037757,0.24,0.86,0
0.22072,-0.065477,0.79103,-0.88284,-0.97254,-1.3477,0.028946,0,0,0.60425,0.48763,0,0.075261,0,0,0.82053,-0.033611,0,0.82121,-0.87431,-0.98107,-1.3477,16.418,-1.0677,0.43001,-0.0032508,0.26,0.86,0
0.23257,-0.060692,0.7747,-0.88351,-0.97882,-1.3334,0.05424,0,0,0.58485,0.46095,0,0.14102,0,0,0.81097,-0.045031,0,0.81222,-0.85897,-1.0034,-1.3334,24.349,-1.0652,0.42122,-0.0023731,0.28,0.86,0
0.24411,-0.054128,0.75859,-0.86478,-0.99981,-1.318,0.089018,0,0,0.58915,0.41361,0,0.23145,0,0,0.79338,-0.060075,0,0.79566,-0.82057,-1.044,-1.318,26.411,-1.0609,0.4315,-0.00072107,0.3,0.86,0
0.25614,-0.045796,0.74296,-0.83183,-1.0844,-1.3178,0.12323,0,0,0.6318,0.30345,0,0.32039,0,0,0.7619,-0.081941,0,0.76654,-0.78167,-1.1346,-1.3178,22.148,-1.078,0.47201,0.0027863,0.32,0.86,0
0.26938,-0.036799,0.72812,-0.79975,-1.2331,-1.338,0.11393,0,0,0.69969,0.13634,0,0.29622,0,0,0.71403,-0.091395,0,0.72043,-0.77163,-1.2612,-1.338,13.868,-1.1236,0.53214,0.0071996,0.34,0.86,0
0.28412,-0.029184,0.7144,-0.75365,-1.3121,-1.3341,0.068116,0,0,0.75462,0.028627,0,0.1771,0,0,0.65515,-0.082339,0,0.66111,-0.74547,-1.3203,-1.3341,6.8546,-1.1333,0.58187,0.010099,0.36,0.86,0
0.29957,-0.02375,0.70191,-0.71811,-1.3294,-1.3162,0.019469,0,0,0.77748,-0.017218,0,0.05062,0,0,0.59423,-0.052806,0,0.59717,-0.71749,-1.33,-1.3162,1.8224,-1.1212,0.60573,0.011394,0.38,0.86,0
0.31522,-0.019966,0.69063,-0.69436,-1.3189,-1.2946,-0.011733,0,0,0.78034,-0.031597,0,-0.030505,0,0,0.53617,-0.025061,0,0.53739,-0.69414,-1.3191,-1.2946,-1.0758,-1.1026,0.61311,0.011773,0.4,0.86,0
0.33078,-0.017147,0.68047,-0.65997,-0.95164,-0.93713,-0.027146,0,0,0.30282,-0.028304,0,-0.15011,0,0,0.49038,-0.0056699,0,0.4908,-0.63241,-0.97921,-0.93713,-31.378,-0.84958,0.33906,0.0058258,0.42,0.86,0
0.32733,-0.017867,0.65212,-0.63834,-0.61809,-0.5943,-0.02916,0,0,-0.17174,-0.092789,0,-0.22745,0,0,0.46719,0.0018222,0,0.46725,-0.59735,-0.65908,-0.5943,-54.571,-0.61691,0.063312,-1.2933e-05,0.44,0.86,0
0.32393,-0.018551,0.62472,-0.62451,-0.61305,-0.57951,-0.02487,0,0,-0.1755,-0.13082,0,-0.19398,0,0,0.44996,0.00081046,0,0.44996,-0.59326,-0.6443,-0.57951,-51.486,-0.60569,0.059129,-8.7127e-06,0.46,0.86,0
0.32031,-0.01897,0.59812,-0.61441,-0.60564,-0.56539,-0.021714,0,0,-0.19118,-0.15699,0,-0.16937,0,0,0.4381,0.0022738,0,0.4381,-0.58788,-0.63218,-0.56539,-50.708,-0.59515,0.058861,-5.5575e-06,0.48,0.86,0
0.31628,-0.019102,0.57215,-0.6067,-0.59575,-0.55145,-0.018641,0,0,-0.21548,-0.17276,0,-0.1454,0,0,0.42897,0.0019421,0,0.42898,-0.5818,-0.62065,-0.55145,-53.186,-0.58464,0.060083,-2.3515e-06,0.5,0.86,0
0.31169,-0.019002,0.54665,-0.60059,-0.5843,-0.53768,-0.015995,0,0,-0.24534,-0.18182,0,-0.12476,0,0,0.42219,0.00072413,0,0.42219,-0.5745,-0.6104,-0.53768,-58.491,-0.57419,0.062973,2.8037e-07,0.52,0.86,0
0.30647,-0.01873,0.52148,-0.59881,-0.57445,-0.52581,-0.014958,0,0,-0.28472,-0.18971,0,-0.11667,0,0,0.4165,0.00056107,0,0.4165,-0.56734,-0.60592,-0.52581,-64.578,-0.56636,0.069397,1.0956e-06,0.54,0.86,0
0.30054,-0.018336,0.49658,-0.58909,-0.5589,-0.50992,-0.013222,0,0,-0.30874,-0.19101,0,-0.10313,0,0,0.41403,-0.001323,0,0.41403,-0.55393,-0.59406,-0.50992,-69.391,-0.55264,0.072889,1.5848e-06,0.56,0.86,0
0.29387,-0.01786,0.47187,-0.58763,-0.5454,-0.4972,-0.010381,0,0,-0.3527,-0.18797,0,-0.080972,0,0,0.41071,-0.0037801,0,0.41072,-0.54298,-0.59005,-0.4972,-76.912,-0.54341,0.080413,-6.3741e-07,0.58,0.86,0
0.28643,-0.017325,0.4473,-0.58776,-0.53395,-0.48561,-0.0099395,0,0,-0.39839,-0.18851,0,-0.077528,0,0,0.40825,-0.0044597,0,0.40828,-0.53217,-0.58954,-0.48561,-79.863,-0.53578,0.090167,-6.7371e-06,0.6,0.86,0
0.2782,-0.01675,0.42284,-0.58206,-0.51919,-0.47132,-0.0090799,0,0,-0.43187,-0.1867,0,-0.070823,0,0,0.40691,-0.0055028,0,0.40694,-0.51791,-0.58334,-0.47132,-81.944,-0.52419,0.09747,-1.3623e-05,0.62,0.86,0
0.26916,-0.016143,0.39847,-0.57941,-0.50512,-0.45818,-0.0077267,0,0,-0.47278,-0.18307,0,-0.060268,0,0,0.40561,-0.0067016,0,0.40566,-0.50433,-0.5802,-0.45818,-84.124,-0.51424,0.10671,-2.5407e-05,0.64,0.86,0
0.25929,-0.015511,0.37417,-0.57704,-0.491,-0.44513,-0.0063724,0,0,-0.51443,-0.17889,0,-0.049705,0,0,0.4046,-0.0078106,0,0.40468,-0.49053,-0.57751,-0.44513,-85.787,-0.50439,0.11651,-4.1635e-05,0.66,0.86,0
0.24858,-0.014855,0.34991,-0.57493,-0.47684,-0.43217,-0.0049783,0,0,-0.55677,-0.17422,0,-0.03883,0,0,0.40385,-0.0088882,0,0.40395,-0.47659,-0.57519,-0.43217,-87.102,-0.49465,0.12678,-6.3001e-05,0.68,0.86,0
0.23702,-0.014178,0.3257,-0.5731,-0.46266,-0.4193,-0.0035152,0,0,-0.59983,-0.16912,0,-0.027418,0,0,0.40332,-0.0099923,0,0.40345,-0.46255,-0.57321,-0.4193,-88.179,-0.48502,0.13749,-9.0303e-05,0.7,0.86,0
0.22459,-0.013479,0.30152,-0.57156,-0.44845,-0.40651,-0.0019634,0,0,-0.64368,-0.16359,0,-0.015315,0,0,0.40303,-0.011181,0,0.40319,-0.44842,-0.57159,-0.40651,-89.087,-0.47551,0.14862,-0.00012449,0.72,0.86,0
0.21127,-0.01276,0.27734,-0.56721,-0.43335,-0.39261,-0.0005792,0,0,-0.68091,-0.15888,0,-0.0045178,0,0,0.40298,-0.012525,0,0.40317,-0.43335,-0.56721,-0.39261,-89.752,-0.46439,0.15821,-0.00015884,0.74,0.86,0
0.19705,-0.012024,0.25316,-0.57328,-0.42206,-0.38299,0.0012525,0,0,-0.74213,-0.15239,0,0.0097693,0,0,0.40333,-0.014111,0,0.40358,-0.42205,-0.57329,-0.38299,89.525,-0.45944,0.17409,-0.00022566,0.76,0.86,0
0.1819,-0.011277,0.22895,-0.56589,-0.40473,-0.3675,0.0031272,0,0,-0.77371,-0.14519,0,0.024392,0,0,0.40377,-0.015969,0,0.40408,-0.40467,-0.56595,-0.3675,88.889,-0.44604,0.18272,-0.00027014,0.78,0.86,0
0.16578,-0.01053,0.20469,-0.57354,-0.39348,-0.35834,0.0050268,0,0,-0.83929,-0.13708,0,0.039209,0,0,0.40532,-0.018154,0,0.40572,-0.39335,-0.57368,-0.35834,88.402,-0.44179,0.20015,-0.00036967,0.8,0.86,0
0.14866,-0.0098014,0.18034,-0.56686,-0.37566,-0.34287,0.0069476,0,0,-0.87358,-0.12787,0,0.054191,0,0,0.40656,-0.020695,0,0.40709,-0.3754,-0.56712,-0.34287,87.922,-0.42846,0.20988,-0.00043661,0.82,0.86,0
0.13048,-0.0091198,0.15585,-0.57679,-0.36443,-0.33432,0.0084165,0,0,-0.94565,-0.11744,0,0.065649,0,0,0.41035,-0.023564,0,0.41102,-0.3641,-0.57713,-0.33432,87.734,-0.42518,0.22937,-0.00058472,0.84,0.86,0
0.1112,-0.0085245,0.13117,-0.57098,-0.346,-0.31882,0.0097709,0,0,-0.98345,-0.10602,0,0.076213,0,0,0.41312,-0.026586,0,0.41398,-0.34558,-0.57141,-0.31882,87.518,-0.41194,0.24033,-0.00068321,0.86,0.86,0
0.09076,-0.0080614,0.10618,-0.58305,-0.33505,-0.31083,0.0098284,0,0,-1.0617,-0.094492,0,0.076662,0,0,0.42088,-0.029282,0,0.42191,-0.33466,-0.58344,-0.31083,87.734,-0.40964,0.26151,-0.00089283,0.88,0.86,0
0.06913,-0.0077577,0.080794,-0.57789,-0.31724,-0.29547,0.0095936,0,0,-1.1014,-0.084915,0,0.07483,0,0,0.4259,-0.030605,0,0.42702,-0.31689,-0.57824,-0.29547,87.895,-0.39687,0.27269,-0.0010198,0.9,0.86,0
0.046303,-0.0075933,0.054906,-0.59059,-0.30776,-0.28781,0.0080706,0,0,-1.1808,-0.07782,0,0.06295,0,0,0.43754,-0.029102,0,0.43853,-0.30753,-0.59082,-0.28781,88.367,-0.39539,0.29365,-0.0012807,0.92,0.86,0
0.022291,-0.0074928,0.028472,-0.58475,-0.32755,-0.29267,0.0064436,0,0,-0.77991,-0.070118,0,0.030467,0,0,0.44885,-0.050644,0,0.45253,-0.32738,-0.58493,-0.29267,88.512,-0.40166,0.27702,-0.0010474,0.94,0.86,0
0.015107,-0.0080816,0.019329,-0.59484,-0.38341,-0.31281,0.00077668,0,0,-0.36665,-0.091791,0,0.0020194,0,0,0.47072,-0.05605,0,0.47409,-0.38341,-0.59484,-0.31281,89.79,-0.43035,0.2542,-0.00062933,0.96,0.86,0
0.0076997,-0.0086391,0.0097787,-0.59007,-0.38208,-0.30142,-0.0018281,0,0,-0.37524,-0.10486,0,-0.0047532,0,0,0.48132,-0.030919,0,0.48221,-0.38207,-0.59009,-0.30142,-89.496,-0.42453,0.25797,-0.0006,0.98,0.86,0
0,-0.0088493,0,-0.58001,-0.36622,-0.28387,-0.0040431,0,0,-0.38499,-0.10706,0,-0.010512,0,0,0.48893,0,0,0.48873,-0.36614,-0.58009,-0.28387,-88.917,-0.41003,0.26484,-0.00065289,1,0.86,0
0,-0.022888,1,-0.81203,-1.6843,-1.7489,-0.024081,0,0,1.2179,0.084019,0,-0.062612,0,0,0.73428,-5.6725e-16,0,0.7342,-0.81136,-1.6849,-1.7489,-1.5803,-1.415,0.90723,0.037709,0,0.88,0
0.024358,-0.02414,0.98531,-0.78419,-1.6277,-1.7089,-0.048209,0,0,1.2021,0.10551,0,-0.12534,0,0,0.73794,0.023452,0,0.73828,-0.78144,-1.6305,-1.7089,-3.2603,-1.3736,0.89084,0.035362,0.02,0.88,0
0.047769,-0.027884,0.97041,-0.83095,-1.5757,-1.6924,-0.1171,0,0,1.1199,0.1517,0,-0.30447,0,0,0.75791,0.0414,0,0.75909,-0.81297,-1.5937,-1.6924,-8.7283,-1.3664,0.83447,0.028441,0.04,0.88,0
0.06966,-0.033788,0.95512,-0.82097,-1.4538,-1.6376,-0.14591,0,0,1.0616,0.2389,0,-0.37935,0,0,0.77134,0.049978,0,0.77304,-0.78895,-1.4858,-1.6376,-12.378,-1.3041,0.78382,0.021642,0.06,0.88,0
0.08957,-0.040878,0.93941,-0.89779,-1.343,-1.6117,-0.1577,0,0,0.92802,0.34925,0,-0.41001,0,0,0.79788,0.048237,0,0.79938,-0.84759,-1.3932,-1.6117,-17.657,-1.2841,0.68161,0.01081,0.08,0.88,0
0.10746,-0.047736,0.92333,-0.88496,-1.2141,-1.5531,-0.14164,0,0,0.86852,0.44064,0,-0.36826,0,0,0.80824,0.039953,0,0.80924,-0.8324,-1.2667,-1.5531,-20.359,-1.2174,0.62847,0.0044162,0.1,0.88,0
0.1238,-0.05335,0.907,-0.92883,-1.1491,-1.5304,-0.098906,0,0,0.78201,0.49567,0,-0.25716,0,0,0.82136,0.029366,0,0.82188,-0.89094,-1.187,-1.5304,-20.963,-1.2028,0.55428,-0.0011177,0.12,0.88,0
0.13909,-0.057405,0.89053,-0.91821,-1.0885,-1.4925,-0.071022,0,0,0.74663,0.52525,0,-0.18466,0,0,0.82535,0.019903,0,0.82558,-0.89248,-1.1142,-1.4925,-19.916,-1.1664,0.52553,-0.0032324,0.14,0.88,0
0.15366,-0.059989,0.87399,-0.91581,-1.0543,-1.465,-0.047,0,0,0.71398,0.5339,0,-0.1222,0,0,0.82745,0.010701,0,0.82751,-0.90137,-1.0688,-1.465,-17.08,-1.1451,0.50137,-0.004124,0.16,0.88,0
0.16764,-0.061299,0.85743,-0.91243,-1.0292,-1.4399,-0.028858,0,0,0.68571,0.53397,0,-0.075032,0,0,0.82757,0.0025162,0,0.82757,-0.90569,-1.0359,-1.4399,-13.155,-1.1272,0.48247,-0.0043829,0.18,0.88,0
0.18109,-0.061485,0.84088,-0.90978,-1.0104,-1.4169,-0.014263,0,0,0.65929,0.52854,0,-0.037083,0,0,0.82616,-0.0049727,0,0.82617,-0.90779,-1.0123,-1.4169,-7.917,-1.1123,0.46574,-0.0043204,0.2,0.88,0
0.19402,-0.06063,0.82438,-0.90816,-0.99708,-1.396,-0.00099226,0,0,0.63413,0.51853,0,-0.0025799,0,0,0.82327,-0.012066,0,0.82335,-0.90815,-0.99709,-1.396,-0.63925,-1.1004,0.44998,-0.0040699,0.22,0.88,0
0.20645,-0.058744,0.80795,-0.90695,-0.98975,-1.377,0.013066,0,0,0.61102,0.50338,0,0.03397,0,0,0.81862,-0.019039,0,0.81884,-0.90494,-0.99176,-1.377,8.7578,-1.0912,0.43516,-0.0036707,0.24,0.88,0
0.21846,-0.055779,0.79164,-0.90432,-0.9903,-1.36,0.029932,0,0,0.59241,0.48064,0,0.077822,0,0,0.81151,-0.026143,0,0.81194,-0.89493,-0.9997,-1.36,17.424,-1.0849,0.42257,-0.003087,0.26,0.88,0
0.23015,-0.051631,0.77549,-0.89513,-1.0025,-1.3448,0.050456,0,0,0.58456,0.44493,0,0.13118,0,0,0.80039,-0.033546,0,0.80111,-0.87515,-1.0225,-1.3448,21.608,-1.0808,0.41602,-0.0021946,0.28,0.88,0
0.24184,-0.046281,0.75962,-0.8759,-1.0382,-1.3338,0.071692,0,0,0.59532,0.38438,0,0.1864,0,0,0.78287,-0.041023,0,0.78401,-0.84876,-1.0653,-1.3338,20.733,-1.0826,0.42089,-0.00070614,0.3,0.88,0
0.25396,-0.040005,0.74418,-0.84651,-1.1055,-1.3298,0.081201,0,0,0.62825,0.29155,0,0.21112,0,0,0.7565,-0.045167,0,0.758,-0.82316,-1.1289,-1.3298,16.044,-1.0939,0.44187,0.0015466,0.32,0.88,0
0.26697,-0.033576,0.72936,-0.81171,-1.1911,-1.3302,0.066973,0,0,0.67405,0.18081,0,0.17413,0,0,0.7202,-0.040944,0,0.72165,-0.80024,-1.2026,-1.3302,9.7222,-1.111,0.47909,0.0043259,0.34,0.88,0
0.28093,-0.027982,0.71537,-0.7719,-1.2552,-1.3235,0.030328,0,0,0.71709,0.088747,0,0.078853,0,0,0.67432,-0.023347,0,0.67512,-0.77001,-1.2571,-1.3235,3.5764,-1.1169,0.52349,0.0069701,0.36,0.88,0
0.29565,-0.023671,0.70239,-0.73458,-1.2897,-1.3097,-0.0095399,0,0,0.74761,0.025988,0,-0.024804,0,0,0.61969,0.0057908,0,0.6203,-0.73442,-1.2898,-1.3097,-0.98431,-1.1113,0.56559,0.0092541,0.38,0.88,0
0.31083,-0.020394,0.69058,-0.7046,-1.3012,-1.2923,-0.035811,0,0,0.76404,-0.011544,0,-0.093108,0,0,0.55734,0.035976,0,0.55941,-0.70246,-1.3033,-1.2923,-3.4228,-1.0994,0.59545,0.010831,0.4,0.88,0
0.32621,-0.017611,0.68009,-0.6621,-0.94666,-0.93602,-0.046807,0,0,0.29906,-0.020741,0,-0.24503,0,0,0.50163,0.036315,0,0.50387,-0.62511,-0.98365,-0.93602,-30.19,-0.84826,0.34861,0.0056573,0.42,0.88,0
0.32279,-0.019827,0.65136,-0.63924,-0.62569,-0.5966,-0.046934,0,0,-0.16632,-0.11345,0,-0.36609,0,0,0.47201,0.026942,0,0.47288,-0.58505,-0.67989,-0.5966,-49.109,-0.62051,0.089626,-3.4913e-05,0.44,0.88,0
0.31966,-0.021458,0.62387,-0.62501,-0.62766,-0.58376,-0.04242,0,0,-0.16088,-0.17122,0,-0.33087,0,0,0.44995,0.030908,0,0.451,-0.58389,-0.66877,-0.58376,-44.105,-0.61214,0.084949,-3.1484e-05,0.46,0.88,0
0.31636,-0.022404,0.59737,-0.61414,-0.61925,-0.56914,-0.035477,0,0,-0.17551,-0.19542,0,-0.27672,0,0,0.43576,0.023906,0,0.43641,-0.58113,-0.65226,-0.56914,-42.942,-0.60084,0.077826,-2.2286e-05,0.48,0.88,0
0.31264,-0.022823,0.57158,-0.60574,-0.60704,-0.55436,-0.029793,0,0,-0.2004,-0.20544,0,-0.23238,0,0,0.42581,0.017108,0,0.42615,-0.57659,-0.63619,-0.55436,-44.378,-0.58905,0.073289,-1.4123e-05,0.5,0.88,0
0.30834,-0.022866,0.54627,-0.59934,-0.5936,-0.53997,-0.025256,0,0,-0.23153,-0.20916,0,-0.19699,0,0,0.41907,0.011445,0,0.41922,-0.57105,-0.62189,-0.53997,-48.239,-0.57764,0.071626,-7.6099e-06,0.52,0.88,0
0.30338,-0.022653,0.52129,-0.59602,-0.57871,-0.52618,-0.02025,0,0,-0.27236,-0.20487,0,-0.15795,0,0,0.41379,0.0057174,0,0.41383,-0.56534,-0.60939,-0.52618,-56.569,-0.56697,0.072098,-1.9511e-06,0.54,0.88,0
0.29769,-0.022268,0.49654,-0.58629,-0.56236,-0.51011,-0.017858,0,0,-0.29711,-0.2038,0,-0.1393,0,0,0.4116,0.0024924,0,0.4116,-0.55283,-0.59582,-0.51011,-61.909,-0.55292,0.07423,-1.1328e-07,0.56,0.88,0
0.29124,-0.021766,0.47195,-0.58612,-0.55088,-0.49841,-0.016576,0,0,-0.34204,-0.20459,0,-0.12929,0,0,0.40872,0.00056506,0,0.40872,-0.54431,-0.59269,-0.49841,-68.376,-0.54514,0.081653,-1.2814e-06,0.58,0.88,0
0.28401,-0.021185,0.44749,-0.58531,-0.53664,-0.48575,-0.013552,0,0,-0.38829,-0.19848,0,-0.1057,0,0,0.40662,-0.0022095,0,0.40663,-0.53312,-0.58883,-0.48575,-75.444,-0.5359,0.089368,-5.1137e-06,0.6,0.88,0
0.27597,-0.020547,0.42312,-0.57918,-0.52066,-0.47099,-0.011431,0,0,-0.42192,-0.19369,0,-0.089165,0,0,0.40546,-0.0041693,0,0.40548,-0.5185,-0.58133,-0.47099,-79.33,-0.52361,0.095863,-1.0753e-05,0.62,0.88,0
0.26713,-0.019866,0.39884,-0.57654,-0.50656,-0.45787,-0.009834,0,0,-0.46278,-0.18987,0,-0.076705,0,0,0.40431,-0.0056394,0,0.40435,-0.5052,-0.57789,-0.45787,-82.151,-0.51366,0.10471,-2.1003e-05,0.64,0.88,0
0.25746,-0.019151,0.37461,-0.5741,-0.49246,-0.44484,-0.0082548,0,0,-0.50413,-0.18572,0,-0.064387,0,0,0.40339,-0.0069696,0,0.40345,-0.49163,-0.57493,-0.44484,-84.284,-0.5038,0.11413,-3.5382e-05,0.66,0.88,0
0.24696,-0.018405,0.35043,-0.57187,-0.47836,-0.43188,-0.0066387,0,0,-0.54595,-0.18129,0,-0.051782,0,0,0.40264,-0.0082417,0,0.40273,-0.47789,-0.57234,-0.43188,-85.959,-0.49404,0.12403,-5.4473e-05,0.68,0.88,0
0.23563,-0.017629,0.32629,-0.56984,-0.46427,-0.419,-0.0049408,0,0,-0.58828,-0.17658,0,-0.038538,0,0,0.40207,-0.0095326,0,0.40218,-0.46404,-0.57007,-0.419,-87.326,-0.48437,0.13434,-7.8955e-05,0.7,0.88,0
0.22343,-0.016824,0.30218,-0.56804,-0.45019,-0.40619,-0.0031231,0,0,-0.63119,-0.17158,0,-0.02436,0,0,0.40165,-0.010918,0,0.4018,-0.45011,-0.56812,-0.40619,-88.483,-0.47481,0.14504,-0.00010965,0.72,0.88,0
0.21038,-0.01599,0.27809,-0.56652,-0.4361,-0.39348,-0.0011529,0,0,-0.67484,-0.1662,0,-0.0089925,0,0,0.40142,-0.012477,0,0.40161,-0.43609,-0.56653,-0.39348,-89.494,-0.46536,0.15616,-0.00014762,0.74,0.88,0
0.19644,-0.015127,0.25401,-0.56536,-0.42198,-0.38087,0.00099607,0,0,-0.71949,-0.16033,0,0.0077693,0,0,0.40142,-0.014294,0,0.40167,-0.42197,-0.56536,-0.38087,89.602,-0.45607,0.16776,-0.0001943,0.76,0.88,0
0.1816,-0.014238,0.22992,-0.56468,-0.4078,-0.36839,0.003338,0,0,-0.76554,-0.15374,0,0.026036,0,0,0.40173,-0.016462,0,0.40206,-0.40773,-0.56475,-0.36839,88.782,-0.44696,0.17995,-0.0002517,0.78,0.88,0
0.16582,-0.013329,0.2058,-0.56467,-0.39352,-0.35606,0.0058626,0,0,-0.81358,-0.14611,0,0.045728,0,0,0.40249,-0.019085,0,0.40294,-0.39332,-0.56487,-0.35606,88.04,-0.43808,0.1929,-0.00032276,0.8,0.88,0
0.14905,-0.012412,0.18162,-0.56557,-0.37906,-0.34393,0.0085119,0,0,-0.8644,-0.13701,0,0.066392,0,0,0.40392,-0.022268,0,0.40453,-0.37868,-0.56596,-0.34393,87.392,-0.42952,0.20686,-0.00041171,0.82,0.88,0
0.13124,-0.011512,0.15733,-0.56772,-0.36436,-0.33207,0.011137,0,0,-0.91903,-0.12594,0,0.086868,0,0,0.4064,-0.026095,0,0.40724,-0.36375,-0.56832,-0.33207,86.875,-0.42138,0.22212,-0.00052441,0.84,0.88,0
0.11229,-0.010668,0.13286,-0.5714,-0.34936,-0.32051,0.01345,0,0,-0.97847,-0.1125,0,0.10491,0,0,0.41051,-0.030558,0,0.41165,-0.34855,-0.57222,-0.32051,86.546,-0.41376,0.23892,-0.00066806,0.86,0.88,0
0.092104,-0.0099431,0.10807,-0.57678,-0.33416,-0.30931,0.014966,0,0,-1.0432,-0.096941,0,0.11673,0,0,0.41711,-0.035363,0,0.41862,-0.33325,-0.5777,-0.30931,86.484,-0.40675,0.25726,-0.000849,0.88,0.88,0
0.070568,-0.0094146,0.082803,-0.58322,-0.31898,-0.29826,0.015269,0,0,-1.1113,-0.080812,0,0.1191,0,0,0.42688,-0.039398,0,0.42874,-0.3181,-0.5841,-0.29826,86.704,-0.40015,0.27645,-0.0010663,0.9,0.88,0
0.04765,-0.0090753,0.056846,-0.59107,-0.30549,-0.28792,0.014122,0,0,-1.1823,-0.068536,0,0.11015,0,0,0.43954,-0.039775,0,0.4414,-0.30479,-0.59176,-0.28792,87.176,-0.39482,0.29577,-0.0013143,0.92,0.88,0
0.023276,-0.0088111,0.030058,-0.59384,-0.32302,-0.2951,0.010742,0,0,-0.79461,-0.054443,0,0.058409,0,0,0.45976,-0.067747,0,0.46603,-0.32259,-0.59427,-0.2951,87.73,-0.40399,0.28675,-0.0011837,0.94,0.88,0
0.015866,-0.009868,0.020597,-0.60966,-0.38343,-0.31852,0.0056374,0,0,-0.37847,-0.084383,0,0.014657,0,0,0.48949,-0.080981,0,0.4963,-0.38329,-0.6098,-0.31852,88.573,-0.43721,0.26489,-0.00076567,0.96,0.88,0
0.008137,-0.010703,0.010478,-0.6152,-0.3835,-0.31009,0.0039982,0,0,-0.39664,-0.09544,0,0.010395,0,0,0.51492,-0.044415,0,0.51664,-0.38344,-0.61527,-0.31009,89.012,-0.43627,0.27592,-0.00082731,0.98,0.88,0
0,-0.010991,0,-0.6028,-0.36334,-0.28984,-0.0055379,0,0,-0.40685,-0.095548,0,-0.014399,0,0,0.52392,-1.3878e-17,0,0.5236,-0.36322,-0.60293,-0.28984,-88.676,-0.41866,0.28361,-0.00091261,1,0.88,0
0,-0.020719,1,-0.81666,-1.6348,-1.7354,-0.018676,0,0,1.1944,0.13083,0,-0.048559,0,0,0.75369,1.5274e-15,0,0.75366,-0.81624,-1.6352,-1.7354,-1.3071,-1.3956,0.87342,0.032707,0,0.9,0
0.023888,-0.02169,0.98493,-0.80359,-1.5928,-1.7038,-0.045514,0,0,1.1703,0.14437,0,-0.11833,0,0,0.757,0.015779,0,0.75715,-0.80097,-1.5954,-1.7038,-3.2898,-1.3667,0.85382,0.030238,0.02,0.9,0
0.046813,-0.024514,0.96972,-0.81979,-1.5314,-1.6751,-0.086543,0,0,1.1119,0.18676,0,-0.22501,0,0,0.76606,0.02814,0,0.76659,-0.80942,-1.5418,-1.6751,-6.8352,-1.3421,0.80732,0.02456,0.04,0.9,0
0.068363,-0.028844,0.95428,-0.84369,-1.4428,-1.6402,-0.11517,0,0,1.0355,0.25662,0,-0.29944,0,0,0.77858,0.034708,0,0.77939,-0.82232,-1.4642,-1.6402,-10.514,-1.3089,0.74567,0.01736,0.06,0.9,0
0.088234,-0.03401,0.93858,-0.87025,-1.3393,-1.6014,-0.12439,0,0,0.95054,0.3408,0,-0.32341,0,0,0.79171,0.035116,0,0.79252,-0.8393,-1.3702,-1.6014,-13.971,-1.2703,0.67683,0.009886,0.08,0.9,0
0.10638,-0.039178,0.92261,-0.89491,-1.2431,-1.564,-0.11421,0,0,0.86985,0.41716,0,-0.29695,0,0,0.80309,0.030783,0,0.80369,-0.8608,-1.2773,-1.564,-16.632,-1.234,0.61246,0.0036918,0.1,0.9,0
0.12303,-0.043662,0.90645,-0.91345,-1.1677,-1.5308,-0.09282,0,0,0.80256,0.47201,0,-0.24133,0,0,0.8115,0.024032,0,0.81185,-0.88318,-1.198,-1.5308,-18.066,-1.204,0.56094,-0.00043562,0.12,0.9,0
0.13849,-0.047103,0.89016,-0.92417,-1.1128,-1.5013,-0.068874,0,0,0.75022,0.50495,0,-0.17907,0,0,0.81685,0.016648,0,0.81702,-0.9017,-1.1353,-1.5013,-18.067,-1.1794,0.52343,-0.002734,0.14,0.9,0
0.15304,-0.049422,0.87378,-0.92878,-1.0733,-1.4744,-0.047499,0,0,0.70929,0.52148,0,-0.1235,0,0,0.81966,0.0095549,0,0.81971,-0.91456,-1.0875,-1.4744,-16.664,-1.1588,0.49649,-0.0038127,0.16,0.9,0
0.16686,-0.050672,0.85737,-0.92985,-1.0441,-1.4496,-0.029754,0,0,0.67564,0.52704,0,-0.077362,0,0,0.82045,0.002975,0,0.82045,-0.92257,-1.0514,-1.4496,-13.751,-1.1412,0.47584,-0.0041957,0.18,0.9,0
0.18006,-0.050937,0.84096,-0.92942,-1.0232,-1.4267,-0.014836,0,0,0.64654,0.52459,0,-0.038573,0,0,0.81956,-0.0030904,0,0.81956,-0.92713,-1.0255,-1.4267,-8.7761,-1.1265,0.45842,-0.0041898,0.2,0.9,0
0.19272,-0.050277,0.82459,-0.9281,-1.0095,-1.4059,-0.0013261,0,0,0.62111,0.51525,0,-0.0034478,0,0,0.81704,-0.0086868,0,0.81709,-0.92807,-1.0095,-1.4059,-0.93265,-1.1145,0.44272,-0.0039527,0.22,0.9,0
0.20491,-0.048716,0.80828,-0.92542,-1.0034,-1.3869,0.012147,0,0,0.59996,0.49858,0,0.031581,0,0,0.81271,-0.01381,0,0.81283,-0.92357,-1.0052,-1.3869,8.651,-1.1053,0.4284,-0.0035482,0.24,0.9,0
0.21672,-0.046251,0.79208,-0.91968,-1.0064,-1.3699,0.026335,0,0,0.58531,0.47252,0,0.06847,0,0,0.80602,-0.018306,0,0.80624,-0.91231,-1.0138,-1.3699,15.63,-1.0987,0.41624,-0.0029746,0.26,0.9,0
0.22832,-0.042894,0.77604,-0.90874,-1.0223,-1.3554,0.040392,0,0,0.58059,0.43298,0,0.10502,0,0,0.79609,-0.02167,0,0.7964,-0.89584,-1.0352,-1.3554,17.715,-1.0955,0.40809,-0.0021679,0.28,0.9,0
0.23994,-0.038753,0.76023,-0.89102,-1.0549,-1.344,0.0502,0,0,0.58888,0.37585,0,0.13052,0,0,0.78176,-0.02251,0,0.78213,-0.87687,-1.0691,-1.344,15.747,-1.0966,0.40667,-0.0010401,0.3,0.9,0
0.25187,-0.034133,0.74477,-0.86735,-1.1044,-1.3363,0.04899,0,0,0.60961,0.3015,0,0.12737,0,0,0.76197,-0.018242,0,0.76227,-0.85763,-1.1141,-1.3363,11.23,-1.1027,0.41488,0.0004533,0.32,0.9,0
0.26433,-0.029567,0.72976,-0.83946,-1.1606,-1.3298,0.030705,0,0,0.63743,0.21988,0,0.079834,0,0,0.73585,-0.0052101,0,0.73596,-0.83655,-1.1636,-1.3298,5.4121,-1.11,0.43465,0.0022333,0.34,0.9,0
0.27737,-0.025634,0.71533,-0.80726,-1.2084,-1.32,-0.0039427,0,0,0.66659,0.14516,0,-0.010251,0,0,0.70189,0.020091,0,0.70228,-0.80722,-1.2084,-1.32,-0.56313,-1.1119,0.4671,0.0042437,0.36,0.9,0
0.29099,-0.022711,0.70168,-0.76311,-1.2408,-1.3029,-0.044587,0,0,0.70166,0.080683,0,-0.11593,0,0,0.65355,0.060034,0,0.65646,-0.75898,-1.2449,-1.3029,-5.2871,-1.1022,0.51734,0.0068115,0.38,0.9,0
0.30544,-0.020428,0.68919,-0.72722,-1.2857,-1.2931,-0.075179,0,0,0.73561,0.0095501,0,-0.19547,0,0,0.58485,0.11378,0,0.59719,-0.71728,-1.2957,-1.2931,-7.5338,-1.102,0.5771,0.0098708,0.4,0.9,0
0.32042,-0.017976,0.67829,-0.67384,-0.95447,-0.94068,-0.074417,0,0,0.29185,-0.026888,0,-0.37429,0,0,0.51408,0.093403,0,0.52518,-0.62391,-1.0044,-0.94068,-29.796,-0.85633,0.36462,0.0055378,0.42,0.9,0
0.31711,-0.02225,0.64931,-0.63696,-0.63477,-0.59796,-0.064503,0,0,-0.15213,-0.14356,0,-0.50312,0,0,0.46895,0.050214,0,0.47189,-0.57135,-0.70038,-0.59796,-45.488,-0.62323,0.11799,-7.013e-05,0.44,0.9,0
0.31433,-0.024882,0.62201,-0.61868,-0.63266,-0.58274,-0.051328,0,0,-0.14017,-0.19469,0,-0.40036,0,0,0.44485,0.040061,0,0.44671,-0.57387,-0.67747,-0.58274,-41.123,-0.61136,0.099465,-4.9187e-05,0.46,0.9,0
0.3115,-0.026313,0.59593,-0.60603,-0.6214,-0.56687,-0.040939,0,0,-0.15271,-0.21264,0,-0.31933,0,0,0.42886,0.02911,0,0.42986,-0.57206,-0.65536,-0.56687,-39.685,-0.5981,0.086018,-3.2288e-05,0.48,0.9,0
0.30822,-0.026932,0.57055,-0.59824,-0.60835,-0.55216,-0.033197,0,0,-0.17971,-0.21915,0,-0.25893,0,0,0.41958,0.020243,0,0.42007,-0.56972,-0.63688,-0.55216,-40.67,-0.58625,0.077445,-1.9785e-05,0.5,0.9,0
0.30432,-0.027049,0.54558,-0.59256,-0.59419,-0.53788,-0.027574,0,0,-0.21323,-0.21959,0,-0.21507,0,0,0.41398,0.013437,0,0.4142,-0.56579,-0.62096,-0.53788,-44.153,-0.57488,0.073226,-1.0743e-05,0.52,0.9,0
0.29969,-0.026838,0.52087,-0.58823,-0.57974,-0.52401,-0.023398,0,0,-0.25045,-0.21732,0,-0.1825,0,0,0.4104,0.0082734,0,0.41048,-0.5602,-0.60776,-0.52401,-50.145,-0.56399,0.072752,-4.5986e-06,0.54,0.9,0
0.2943,-0.026416,0.49633,-0.58465,-0.56526,-0.51042,-0.020224,0,0,-0.28951,-0.21388,0,-0.15775,0,0,0.40795,0.004336,0,0.40797,-0.55252,-0.59738,-0.51042,-57.808,-0.55344,0.075327,-1.2016e-06,0.56,0.9,0
0.28811,-0.025858,0.47192,-0.58149,-0.55085,-0.49701,-0.017704,0,0,-0.32949,-0.20998,0,-0.13809,0,0,0.40619,0.0012928,0,0.40619,-0.54276,-0.58959,-0.49701,-65.436,-0.54312,0.080175,-5.3281e-07,0.58,0.9,0
0.28112,-0.025209,0.44759,-0.57859,-0.53654,-0.48374,-0.015592,0,0,-0.36994,-0.20593,0,-0.12162,0,0,0.40483,-0.0011093,0,0.40483,-0.53139,-0.58374,-0.48374,-71.721,-0.53296,0.08664,-2.7154e-06,0.6,0.9,0
0.27331,-0.024497,0.42334,-0.57587,-0.52232,-0.47057,-0.013717,0,0,-0.41067,-0.20183,0,-0.107,0,0,0.40373,-0.0030621,0,0.40375,-0.51901,-0.57918,-0.47057,-76.436,-0.52292,0.09424,-7.9821e-06,0.62,0.9,0
0.26469,-0.023738,0.39914,-0.57327,-0.50817,-0.45748,-0.011961,0,0,-0.45159,-0.19769,0,-0.093296,0,0,0.40281,-0.0047142,0,0.40283,-0.50604,-0.5754,-0.45748,-79.912,-0.51297,0.10265,-1.665e-05,0.64,0.9,0
0.25525,-0.02294,0.375,-0.57079,-0.49408,-0.44446,-0.010237,0,0,-0.49267,-0.19353,0,-0.079844,0,0,0.402,-0.0061851,0,0.40205,-0.49274,-0.57213,-0.44446,-82.528,-0.50311,0.11165,-2.9101e-05,0.66,0.9,0
0.24499,-0.022107,0.3509,-0.56841,-0.48006,-0.43151,-0.0084757,0,0,-0.53391,-0.18934,0,-0.066111,0,0,0.40129,-0.0075761,0,0.40136,-0.47925,-0.56921,-0.43151,-84.569,-0.49332,0.12111,-4.5773e-05,0.68,0.9,0
0.23389,-0.021241,0.32685,-0.56614,-0.46608,-0.41862,-0.0066205,0,0,-0.57534,-0.18512,0,-0.05164,0,0,0.40065,-0.0089791,0,0.40075,-0.46564,-0.56658,-0.41862,-86.231,-0.48361,0.13094,-6.7176e-05,0.7,0.9,0
0.22197,-0.020342,0.30283,-0.564,-0.45215,-0.40579,-0.004616,0,0,-0.61704,-0.18082,0,-0.036005,0,0,0.40009,-0.010484,0,0.40022,-0.45196,-0.5642,-0.40579,-87.641,-0.47398,0.1411,-9.3928e-05,0.72,0.9,0
0.20921,-0.019408,0.27884,-0.56205,-0.43826,-0.39304,-0.0024057,0,0,-0.65914,-0.17637,0,-0.018764,0,0,0.39962,-0.012187,0,0.3998,-0.43822,-0.5621,-0.39304,-88.887,-0.46445,0.1516,-0.00012684,0.74,0.9,0
0.19561,-0.018437,0.25487,-0.56034,-0.42439,-0.38038,7.1256e-05,0,0,-0.70187,-0.17165,0,0.0005558,0,0,0.39928,-0.014195,0,0.39953,-0.42439,-0.56034,-0.38038,89.97,-0.45504,0.16249,-0.00016706,0.76,0.9,0
0.18114,-0.017427,0.23092,-0.55901,-0.4105,-0.36783,0.0028808,0,0,-0.74562,-0.16643,0,0.022471,0,0,0.39912,-0.01664,0,0.39947,-0.41045,-0.55907,-0.36783,88.889,-0.44578,0.17389,-0.00021636,0.78,0.9,0
0.16578,-0.016374,0.20698,-0.55827,-0.39655,-0.35544,0.0060899,0,0,-0.79104,-0.16033,0,0.047501,0,0,0.39927,-0.019684,0,0.39975,-0.39632,-0.5585,-0.35544,87.847,-0.43675,0.18602,-0.00027754,0.8,0.9,0
0.1495,-0.015282,0.18301,-0.55844,-0.38242,-0.34326,0.0097497,0,0,-0.83918,-0.15273,0,0.076048,0,0,0.39993,-0.023538,0,0.40062,-0.38189,-0.55898,-0.34326,86.839,-0.42804,0.19923,-0.00035525,0.82,0.9,0
0.13221,-0.014158,0.15899,-0.56005,-0.36801,-0.33141,0.013859,0,0,-0.89168,-0.14272,0,0.1081,0,0,0.40149,-0.028467,0,0.40249,-0.36701,-0.56104,-0.33141,85.893,-0.41982,0.21406,-0.00045717,0.84,0.9,0
0.11383,-0.013024,0.13483,-0.5639,-0.35315,-0.32006,0.01827,0,0,-0.95099,-0.12905,0,0.14251,0,0,0.40468,-0.034789,0,0.40616,-0.35158,-0.56548,-0.32006,85.082,-0.41237,0.23127,-0.00059574,0.86,0.9,0
0.094175,-0.011939,0.11042,-0.57095,-0.33765,-0.30939,0.022586,0,0,-1.0201,-0.11023,0,0.17617,0,0,0.41092,-0.042778,0,0.41314,-0.33548,-0.57311,-0.30939,84.521,-0.40599,0.25169,-0.0007893,0.88,0.9,0
0.073026,-0.01099,0.085522,-0.58217,-0.32172,-0.29968,0.025806,0,0,-1.1017,-0.085985,0,0.20129,0,0,0.42288,-0.052263,0,0.42613,-0.31919,-0.58471,-0.29968,84.395,-0.40119,0.27579,-0.0010592,0.9,0.9,0
0.050106,-0.010335,0.059679,-0.59481,-0.30436,-0.28964,0.027543,0,0,-1.1902,-0.057397,0,0.21484,0,0,0.44155,-0.060196,0,0.44581,-0.30177,-0.5974,-0.28964,84.63,-0.39627,0.30187,-0.0014052,0.92,0.9,0
0.02542,-0.0096705,0.032536,-0.60804,-0.3167,-0.29911,0.025701,0,0,-0.81302,-0.034302,0,0.13087,0,0,0.47539,-0.10772,0,0.49037,-0.31443,-0.61031,-0.29911,84.971,-0.40795,0.30393,-0.0014321,0.94,0.9,0
0.017585,-0.011457,0.022568,-0.64352,-0.38899,-0.33232,0.028982,0,0,-0.40456,-0.073667,0,0.075353,0,0,0.52453,-0.12952,0,0.54071,-0.38573,-0.64678,-0.33232,83.585,-0.45494,0.29145,-0.0011289,0.96,0.9,0
0.0092379,-0.012457,0.011555,-0.65669,-0.36653,-0.31852,0.019416,0,0,-0.43962,-0.062411,0,0.050481,0,0,0.5642,-0.063567,0,0.56721,-0.36523,-0.65798,-0.31852,86.189,-0.44725,0.31868,-0.0015425,0.98,0.9,0
0,-0.012671,0,-0.65477,-0.34345,-0.29946,-0.0041266,0,0,-0.4619,-0.057178,0,-0.010729,0,0,0.57776,-6.9389e-18,0,0.57717,-0.34339,-0.65482,-0.29946,-89.241,-0.43256,0.33556,-0.0018289,1,0.9,0
0,-0.017655,1,-0.82473,-1.5937,-1.7255,-0.013664,0,0,1.171,0.17141,0,-0.035525,0,0,0.76584,4.0029e-16,0,0.76582,-0.82449,-1.5939,-1.7255,-1.0177,-1.3813,0.84297,0.028254,0,0.92,0
0.023421,-0.018365,0.98468,-0.81044,-1.5525,-1.6936,-0.034789,0,0,1.1481,0.1834,0,-0.090452,0,0,0.76792,0.0098886,0,0.76797,-0.80881,-1.5541,-1.6936,-2.6784,-1.3522,0.82392,0.025974,0.02,0.92,0
0.045922,-0.020413,0.96928,-0.82439,-1.4977,-1.6659,-0.065238,0,0,1.094,0.21871,0,-0.16962,0,0,0.77368,0.017856,0,0.77389,-0.81813,-1.5039,-1.6659,-5.4839,-1.3293,0.77951,0.02083,0.04,0.92,0
0.067179,-0.023523,0.95374,-0.84526,-1.4243,-1.6346,-0.086454,0,0,1.0261,0.27341,0,-0.22478,0,0,0.78187,0.022579,0,0.78221,-0.83262,-1.4369,-1.6346,-8.3133,-1.3014,0.72367,0.014679,0.06,0.92,0
0.086968,-0.027246,0.93801,-0.86938,-1.341,-1.6011,-0.094825,0,0,0.95126,0.33816,0,-0.24654,0,0,0.79088,0.023693,0,0.79125,-0.85103,-1.3594,-1.6011,-10.953,-1.2705,0.66313,0.0085435,0.08,0.92,0
0.10523,-0.031049,0.9221,-0.8929,-1.2598,-1.5679,-0.090499,0,0,0.8775,0.40056,0,-0.2353,0,0,0.79925,0.021756,0,0.79956,-0.87179,-1.2809,-1.5679,-13.13,-1.2402,0.60593,0.0034065,0.1,0.92,0
0.12207,-0.03447,0.90604,-0.91259,-1.1896,-1.5367,-0.077272,0,0,0.81135,0.4512,0,-0.20091,0,0,0.80604,0.017823,0,0.80624,-0.89249,-1.2097,-1.5367,-14.577,-1.213,0.55792,-0.00023375,0.12,0.92,0
0.13768,-0.037207,0.88986,-0.92681,-1.1336,-1.508,-0.060234,0,0,0.75553,0.48668,0,-0.15661,0,0,0.81087,0.012944,0,0.81098,-0.91055,-1.1499,-1.508,-15.111,-1.1895,0.5208,-0.0024387,0.14,0.92,0
0.15229,-0.039129,0.8736,-0.93571,-1.0907,-1.4815,-0.043141,0,0,0.70956,0.50808,0,-0.11217,0,0,0.81377,0.0078419,0,0.81381,-0.92451,-1.1019,-1.4815,-14.553,-1.1693,0.49288,-0.0035727,0.16,0.92,0
0.16607,-0.040218,0.85731,-0.94048,-1.0587,-1.4571,-0.027734,0,0,0.67155,0.51788,0,-0.072107,0,0,0.81493,0.0029108,0,0.81493,-0.93429,-1.0649,-1.4571,-12.569,-1.1521,0.47124,-0.004016,0.18,0.92,0
0.17915,-0.040502,0.84101,-0.94229,-1.0359,-1.4345,-0.014175,0,0,0.63982,0.51816,0,-0.036854,0,0,0.81449,-0.0016614,0,0.81449,-0.94019,-1.038,-1.4345,-8.4265,-1.1375,0.45335,-0.0040452,0.2,0.92,0
0.19166,-0.04002,0.82473,-0.94176,-1.0215,-1.4137,-0.0019147,0,0,0.61353,0.50988,0,-0.0049783,0,0,0.81254,-0.0057383,0,0.81256,-0.94171,-1.0215,-1.4137,-1.3749,-1.1257,0.43757,-0.0038249,0.22,0.92,0
0.20369,-0.038801,0.80851,-0.93873,-1.0156,-1.3948,0.0096112,0,0,0.59291,0.49293,0,0.024989,0,0,0.809,-0.0091162,0,0.80905,-0.93754,-1.0168,-1.3948,7.0165,-1.1164,0.42324,-0.0034379,0.24,0.92,0
0.21538,-0.036878,0.79237,-0.93252,-1.0193,-1.3779,0.020343,0,0,0.57902,0.46618,0,0.052892,0,0,0.80365,-0.011388,0,0.80374,-0.92799,-1.0238,-1.3779,12.557,-1.1099,0.41048,-0.0029097,0.26,0.92,0
0.22685,-0.034313,0.77636,-0.9224,-1.034,-1.3633,0.028886,0,0,0.57313,0.42809,0,0.075105,0,0,0.79619,-0.011739,0,0.79629,-0.91536,-1.041,-1.3633,13.688,-1.1065,0.40016,-0.0022305,0.28,0.92,0
0.2383,-0.031247,0.76052,-0.90843,-1.0602,-1.3511,0.032184,0,0,0.5755,0.37815,0,0.083678,0,0,0.7863,-0.0087064,0,0.78636,-0.90189,-1.0668,-1.3511,11.488,-1.1066,0.39361,-0.0013819,0.3,0.92,0
0.24987,-0.027945,0.74491,-0.89189,-1.0958,-1.3412,0.026031,0,0,0.58411,0.31907,0,0.067679,0,0,0.7738,1.4338e-05,0,0.7738,-0.88862,-1.099,-1.3412,7.1623,-1.1096,0.39227,-0.00037552,0.32,0.92,0
0.26166,-0.024781,0.72957,-0.87484,-1.1342,-1.3323,0.0068887,0,0,0.59466,0.25753,0,0.017911,0,0,0.75853,0.017608,0,0.75871,-0.87466,-1.1344,-1.3323,1.5205,-1.1138,0.39751,0.00074602,0.34,0.92,0
0.27366,-0.022175,0.71457,-0.85796,-1.1678,-1.3223,-0.026335,0,0,0.60365,0.20081,0,-0.06847,0,0,0.73957,0.048307,0,0.74101,-0.85573,-1.1701,-1.3223,-4.8232,-1.116,0.4121,0.0020112,0.36,0.92,0
0.28581,-0.020443,0.69999,-0.83531,-1.1938,-1.3087,-0.075686,0,0,0.61543,0.14939,0,-0.19678,0,0,0.71338,0.098486,0,0.71973,-0.81999,-1.2091,-1.3087,-11.446,-1.1126,0.44733,0.0038404,0.38,0.92,0
0.29828,-0.020012,0.68603,-0.74675,-1.2028,-1.2709,-0.12365,0,0,0.6814,0.088505,0,-0.32149,0,0,0.63741,0.18119,0,0.66069,-0.71538,-1.2342,-1.2709,-14.234,-1.0735,0.5381,0.0078768,0.4,0.92,0
0.31307,-0.018687,0.67449,-0.6929,-0.99129,-0.95492,-0.14362,0,0,0.28242,-0.07092,0,-0.66272,0,0,0.53147,0.22278,0,0.58722,-0.6071,-1.0771,-0.95492,-31.565,-0.8797,0.43389,0.0070859,0.42,0.92,0
0.30957,-0.02557,0.64533,-0.64292,-0.6686,-0.60857,-0.091121,0,0,-0.13398,-0.23412,0,-0.71075,0,0,0.46192,0.083602,0,0.46952,-0.56374,-0.74778,-0.60857,-40.99,-0.64003,0.16623,-0.00017932,0.44,0.92,0
0.30771,-0.029246,0.61906,-0.60878,-0.64845,-0.58352,-0.065196,0,0,-0.098508,-0.25321,0,-0.50853,0,0,0.42884,0.05588,0,0.4324,-0.56047,-0.69676,-0.58352,-36.54,-0.61358,0.12635,-9.2085e-05,0.46,0.92,0
0.30563,-0.03091,0.59387,-0.59681,-0.6325,-0.56675,-0.048407,0,0,-0.11724,-0.25642,0,-0.37758,0,0,0.41594,0.037522,0,0.41759,-0.56307,-0.66625,-0.56675,-34.883,-0.59869,0.10139,-5.3292e-05,0.48,0.92,0
0.30302,-0.031589,0.56915,-0.58968,-0.61557,-0.55129,-0.037985,0,0,-0.14973,-0.25067,0,-0.29629,0,0,0.41014,0.025055,0,0.41089,-0.56249,-0.64275,-0.55129,-35.593,-0.58551,0.086408,-3.1264e-05,0.5,0.92,0
0.29964,-0.031649,0.54466,-0.58549,-0.59916,-0.53695,-0.030963,0,0,-0.18932,-0.24263,0,-0.24151,0,0,0.4071,0.016399,0,0.40742,-0.56062,-0.62403,-0.53695,-38.776,-0.57386,0.077994,-1.7015e-05,0.52,0.92,0
0.29545,-0.031346,0.52029,-0.58241,-0.58331,-0.52315,-0.026158,0,0,-0.23114,-0.23462,0,-0.20403,0,0,0.40533,0.010242,0,0.40545,-0.5567,-0.60902,-0.52315,-44.51,-0.56296,0.074959,-7.9565e-06,0.54,0.92,0
0.2904,-0.030823,0.49602,-0.57976,-0.56798,-0.50966,-0.022687,0,0,-0.27339,-0.22744,0,-0.17696,0,0,0.40416,0.0057543,0,0.40419,-0.55043,-0.59731,-0.50966,-52.278,-0.55247,0.075967,-2.7102e-06,0.56,0.92,0
0.28451,-0.030166,0.4718,-0.57724,-0.55307,-0.49636,-0.020019,0,0,-0.31544,-0.22116,0,-0.15615,0,0,0.40327,0.0023985,0,0.40328,-0.54177,-0.58854,-0.49636,-60.562,-0.54222,0.079834,-6.6776e-07,0.58,0.92,0
0.27778,-0.029422,0.44762,-0.57475,-0.53846,-0.48317,-0.017821,0,0,-0.35715,-0.21563,0,-0.13901,0,0,0.40253,-0.0001853,0,0.40253,-0.53117,-0.58203,-0.48317,-67.756,-0.53212,0.085631,-1.6158e-06,0.6,0.92,0
0.27022,-0.02862,0.42349,-0.57225,-0.52408,-0.47006,-0.015887,0,0,-0.39852,-0.21067,0,-0.12392,0,0,0.40185,-0.0022463,0,0.40186,-0.51931,-0.57701,-0.47006,-73.294,-0.52213,0.09272,-5.5834e-06,0.62,0.92,0
0.26184,-0.027774,0.3994,-0.56974,-0.50987,-0.45702,-0.014083,0,0,-0.43961,-0.20613,0,-0.10985,0,0,0.40119,-0.0039645,0,0.40121,-0.50672,-0.57288,-0.45702,-77.402,-0.51221,0.10068,-1.2736e-05,0.64,0.92,0
0.25264,-0.026892,0.37535,-0.56721,-0.49579,-0.44402,-0.012315,0,0,-0.48046,-0.20192,0,-0.096058,0,0,0.40053,-0.0054776,0,0.40057,-0.49373,-0.56928,-0.44402,-80.486,-0.50234,0.10924,-2.3311e-05,0.66,0.92,0
0.24262,-0.025978,0.35134,-0.56468,-0.48184,-0.43107,-0.01051,0,0,-0.5211,-0.198,0,-0.081975,0,0,0.39985,-0.0068978,0,0.39991,-0.48052,-0.566,-0.43107,-82.882,-0.49253,0.11823,-3.7585e-05,0.68,0.92,0
0.2318,-0.025034,0.32737,-0.56215,-0.46799,-0.41816,-0.0086014,0,0,-0.56154,-0.19432,0,-0.067091,0,0,0.39916,-0.0083252,0,0.39924,-0.46721,-0.56293,-0.41816,-84.823,-0.48277,0.12752,-5.5863e-05,0.7,0.92,0
0.22016,-0.024056,0.30344,-0.55962,-0.45424,-0.40531,-0.0065246,0,0,-0.60182,-0.19086,0,-0.050892,0,0,0.39844,-0.0098571,0,0.39856,-0.45384,-0.56002,-0.40531,-86.47,-0.47306,0.13705,-7.8496e-05,0.72,0.92,0
0.20772,-0.023044,0.27955,-0.55712,-0.4406,-0.3925,-0.0042055,0,0,-0.642,-0.1876,0,-0.032802,0,0,0.3977,-0.011598,0,0.39787,-0.44045,-0.55727,-0.3925,-87.936,-0.46341,0.14679,-0.00010593,0.74,0.92,0
0.19448,-0.021993,0.25572,-0.55469,-0.42706,-0.37976,-0.001554,0,0,-0.6822,-0.18446,0,-0.012121,0,0,0.39696,-0.013672,0,0.3972,-0.42704,-0.55471,-0.37976,-89.302,-0.45384,0.15675,-0.00013882,0.76,0.92,0
0.18043,-0.020895,0.23192,-0.55241,-0.4136,-0.36711,0.0015452,0,0,-0.72266,-0.18131,0,0.012052,0,0,0.39624,-0.016233,0,0.39657,-0.41358,-0.55242,-0.36711,89.362,-0.44437,0.167,-0.00017823,0.78,0.92,0
0.16557,-0.019742,0.20817,-0.55043,-0.40018,-0.35457,0.0052427,0,0,-0.76384,-0.17787,0,0.040893,0,0,0.39559,-0.019494,0,0.39607,-0.4,-0.55061,-0.35457,88.004,-0.43506,0.17774,-0.00022611,0.8,0.92,0
0.14988,-0.018522,0.18445,-0.54904,-0.38674,-0.34222,0.0097345,0,0,-0.80662,-0.17363,0,0.075929,0,0,0.39514,-0.023753,0,0.39585,-0.38616,-0.54962,-0.34222,86.58,-0.426,0.1893,-0.00028613,0.82,0.92,0
0.13331,-0.017221,0.16075,-0.54878,-0.37316,-0.33017,0.015258,0,0,-0.85261,-0.16767,0,0.11901,0,0,0.39515,-0.029455,0,0.39623,-0.37184,-0.5501,-0.33017,85.072,-0.41737,0.20234,-0.00036538,0.84,0.92,0
0.11578,-0.01583,0.13703,-0.55066,-0.35928,-0.31866,0.022086,0,0,-0.90482,-0.1584,0,0.17227,0,0,0.3962,-0.037282,0,0.39793,-0.35676,-0.55318,-0.31866,83.502,-0.40953,0.21798,-0.00047765,0.86,0.92,0
0.097116,-0.014352,0.11321,-0.55673,-0.34503,-0.30826,0.030364,0,0,-0.96901,-0.1434,0,0.23684,0,0,0.39963,-0.048311,0,0.40251,-0.34076,-0.561,-0.30826,81.997,-0.40334,0.23815,-0.00065039,0.88,0.92,0
0.077015,-0.012854,0.089075,-0.57041,-0.33043,-0.29994,0.04034,0,0,-1.0548,-0.11891,0,0.31465,0,0,0.40947,-0.064258,0,0.41442,-0.32383,-0.577,-0.29994,80.709,-0.40026,0.26592,-0.00093958,0.9,0.92,0
0.054924,-0.011371,0.06407,-0.60117,-0.31911,-0.29744,0.051112,0,0,-1.1845,-0.084514,0,0.39868,0,0,0.43794,-0.088021,0,0.44678,-0.31014,-0.61015,-0.29744,80.039,-0.40591,0.30656,-0.0014711,0.92,0.92,0
0.029633,-0.010183,0.036521,-0.62474,-0.32546,-0.30941,0.086458,0,0,-0.83145,-0.031304,0,0.38493,0,0,0.49816,-0.22024,0,0.55482,-0.30036,-0.64983,-0.30941,75.114,-0.41987,0.34506,-0.0021063,0.94,0.92,0
0.021666,-0.012815,0.025778,-0.68605,-0.3442,-0.33485,0.073156,0,0,-0.45655,-0.012155,0,0.19021,0,0,0.5875,-0.17527,0,0.61056,-0.32921,-0.70105,-0.33485,78.414,-0.45504,0.36905,-0.0025795,0.96,0.92,0
0.011371,-0.013199,0.013021,-0.75742,-0.33506,-0.34077,0.043624,0,0,-0.54165,0.007415,0,0.11342,0,0,0.64444,-0.078346,0,0.64821,-0.3306,-0.76188,-0.34077,84.164,-0.47775,0.42629,-0.0039709,0.98,0.92,0
0,-0.013278,0,-0.75767,-0.31013,-0.32034,-0.0015127,0,0,-0.56853,0.013275,0,-0.0039331,0,0,0.65106,1.7347e-17,0,0.65027,-0.31012,-0.75767,-0.32034,-89.806,-0.46271,0.44253,-0.004443,1,0.92,0
0,-0.013862,1,-0.83285,-1.5624,-1.7186,-0.0094492,0,0,1.1514,0.20305,0,-0.024568,0,0,0.77346,-8.5045e-16,0,0.77346,-0.83273,-1.5625,-1.7186,-0.74196,-1.3713,0.81904,0.0248,0,0.94,0
0.023029,-0.014354,0.98453,-0.81767,-1.5227,-1.6866,-0.02484,0,0,1.1297,0.21312,0,-0.064584,0,0,0.77485,0.006136,0,0.77487,-0.8168,-1.5236,-1.6866,-2.0154,-1.3423,0.80086,0.022738,0.02,0.94,0
0.045186,-0.015766,0.96901,-0.82973,-1.4737,-1.66,-0.046427,0,0,1.0794,0.24223,0,-0.12071,0,0,0.77875,0.011198,0,0.77883,-0.8264,-1.477,-1.66,-4.1024,-1.3212,0.75887,0.018121,0.04,0.94,0
0.066205,-0.017907,0.95338,-0.8481,-1.4107,-1.631,-0.061625,0,0,1.0178,0.28644,0,-0.16023,0,0,0.78442,0.014416,0,0.78456,-0.84143,-1.4174,-1.631,-6.1786,-1.2966,0.70738,0.012744,0.06,0.94,0
0.085898,-0.020484,0.93763,-0.86993,-1.3398,-1.6006,-0.068451,0,0,0.94982,0.33894,0,-0.17797,0,0,0.79089,0.015508,0,0.79105,-0.86016,-1.3496,-1.6006,-8.1214,-1.2701,0.6522,0.0074668,0.08,0.94,0
0.1042,-0.023155,0.92175,-0.89211,-1.2688,-1.57,-0.06691,0,0,0.88129,0.39156,0,-0.17397,0,0,0.79722,0.014674,0,0.79736,-0.88058,-1.2804,-1.57,-9.7783,-1.2436,0.59961,0.0030154,0.1,0.94,0
0.12115,-0.025614,0.90574,-0.91201,-1.2041,-1.5406,-0.058982,0,0,0.81713,0.43743,0,-0.15335,0,0,0.80268,0.012419,0,0.80278,-0.90055,-1.2155,-1.5406,-10.996,-1.2189,0.5543,-0.00023714,0.12,0.94,0
0.13688,-0.027636,0.88964,-0.92795,-1.1492,-1.5128,-0.047522,0,0,0.76028,0.47267,0,-0.12356,0,0,0.80687,0.00933,0,0.80693,-0.91817,-1.159,-1.5128,-11.624,-1.1966,0.51804,-0.0022998,0.14,0.94,0
0.15156,-0.029099,0.87347,-0.93941,-1.1051,-1.4868,-0.035049,0,0,0.71162,0.49627,0,-0.091126,0,0,0.80962,0.005899,0,0.80964,-0.9323,-1.1122,-1.4868,-11.468,-1.1771,0.48999,-0.0034127,0.16,0.94,0
0.16535,-0.029956,0.85725,-0.94669,-1.0713,-1.4626,-0.02307,0,0,0.67073,0.50878,0,-0.059982,0,0,0.81094,0.0024738,0,0.81095,-0.94256,-1.0754,-1.4626,-10.162,-1.1602,0.46802,-0.0038701,0.18,0.94,0
0.17839,-0.03021,0.84103,-0.95037,-1.047,-1.4402,-0.012141,0,0,0.63684,0.51119,0,-0.031567,0,0,0.81091,-0.00070636,0,0.81091,-0.94886,-1.0485,-1.4402,-7.0512,-1.1459,0.44991,-0.0039147,0.2,0.94,0
0.19082,-0.029881,0.82482,-0.95088,-1.0318,-1.4196,-0.0022653,0,0,0.60936,0.50418,0,-0.0058898,0,0,0.80959,-0.0034285,0,0.8096,-0.95081,-1.0318,-1.4196,-1.6025,-1.1341,0.434,-0.0037097,0.22,0.94,0
0.20276,-0.028998,0.80864,-0.9484,-1.0255,-1.4008,0.0065958,0,0,0.58812,0.48794,0,0.017149,0,0,0.80706,-0.0054067,0,0.80708,-0.94784,-1.026,-1.4008,4.8571,-1.1249,0.41937,-0.0033487,0.24,0.94,0
0.21435,-0.027604,0.79253,-0.94296,-1.0282,-1.3839,0.014038,0,0,0.5732,0.46237,0,0.036498,0,0,0.8034,-0.0061643,0,0.80342,-0.94071,-1.0305,-1.3839,9.1138,-1.1183,0.40581,-0.0028745,0.26,0.94,0
0.22569,-0.02577,0.77651,-0.93481,-1.0401,-1.369,0.01886,0,0,0.56441,0.42757,0,0.049035,0,0,0.79877,-0.00489,0,0.79879,-0.93153,-1.0433,-1.369,9.8572,-1.1146,0.39363,-0.0023012,0.28,0.94,0
0.23692,-0.023627,0.76058,-0.92487,-1.0601,-1.3561,0.018999,0,0,0.56055,0.3848,0,0.049398,0,0,0.79352,-0.00027433,0,0.79351,-0.92225,-1.0627,-1.3561,7.8493,-1.1137,0.3834,-0.0016401,0.3,0.94,0
0.24812,-0.021371,0.74477,-0.91509,-1.0854,-1.3449,0.011966,0,0,0.55878,0.33736,0,0.03111,0,0,0.78829,0.0096596,0,0.78833,-0.91425,-1.0862,-1.3449,3.9989,-1.1151,0.37548,-0.00092462,0.32,0.94,0
0.25927,-0.019266,0.72905,-0.90853,-1.1116,-1.3351,-0.0043935,0,0,0.55452,0.29056,0,-0.011423,0,0,0.78414,0.027791,0,0.78457,-0.90843,-1.1117,-1.3351,-1.239,-1.1184,0.36963,-0.00021222,0.34,0.94,0
0.2703,-0.017602,0.7134,-0.90946,-1.134,-1.3264,-0.032184,0,0,0.54207,0.25018,0,-0.08368,0,0,0.78277,0.058452,0,0.78476,-0.90494,-1.1385,-1.3264,-7.9983,-1.1233,0.36574,0.00046804,0.36,0.94,0
0.28096,-0.016735,0.69774,-0.92711,-1.1533,-1.3218,-0.072824,0,0,0.51316,0.21917,0,-0.18934,0,0,0.78644,0.10921,0,0.79346,-0.90569,-1.1747,-1.3218,-16.391,-1.1341,0.36552,0.0012075,0.38,0.94,0
0.29082,-0.016888,0.68195,-0.96952,-1.1754,-1.3254,-0.15395,0,0,0.46268,0.195,0,-0.40026,0,0,0.82054,0.19683,0,0.84144,-0.88727,-1.2577,-1.3254,-28.113,-1.1568,0.40852,0.0031792,0.4,0.94,0
0.29946,-0.020813,0.66492,-0.87867,-0.93242,-0.98661,-0.22189,0,0,0.1366,0.035008,0,-0.98365,0,0,0.71106,0.26461,0,0.75983,-0.68192,-1.1292,-0.98661,-41.828,-0.93256,0.40268,0.0032233,0.42,0.94,0
0.29924,-0.031615,0.63928,-0.91749,-0.71444,-0.91577,-0.14191,0,0,-0.0033639,0.16097,0,-0.65951,0,0,0.82687,0.10513,0,0.83441,-0.60869,-1.0232,-0.91577,-53.896,-0.84924,0.38729,0.004375,0.44,0.94,0
0.29933,-0.035011,0.61531,-0.88648,-0.67994,-0.88013,-0.071809,0,0,-0.012386,0.16416,0,-0.36762,0,0,0.79753,0.063663,0,0.8007,-0.61769,-0.94873,-0.88013,-56.51,-0.81552,0.31829,0.0030625,0.46,0.94,0
0.29874,-0.036569,0.59143,-0.8828,-0.65071,-0.85434,-0.048593,0,0,-0.055497,0.17039,0,-0.25737,0,0,0.79607,0.040107,0,0.79739,-0.60494,-0.92857,-0.85434,-57.447,-0.79595,0.3094,0.0032582,0.48,0.94,0
0.29711,-0.036959,0.56754,-0.88984,-0.62996,-0.8343,-0.035252,0,0,-0.1083,0.17615,0,-0.19166,0,0,0.79692,0.025873,0,0.79748,-0.59698,-0.92283,-0.8343,-58.846,-0.7847,0.30838,0.0034141,0.5,0.94,0
0.29441,-0.036754,0.54361,-0.897,-0.61129,-0.8149,-0.027864,0,0,-0.1601,0.1796,0,-0.1535,0,0,0.79834,0.016648,0,0.79857,-0.58795,-0.92034,-0.8149,-60.979,-0.7744,0.31258,0.0034618,0.52,0.94,0
0.2907,-0.036222,0.51964,-0.90291,-0.5942,-0.79556,-0.023293,0,0,-0.20933,0.18049,0,-0.12922,0,0,0.7995,0.010391,0,0.79959,-0.57828,-0.91884,-0.79556,-64.201,-0.76423,0.31935,0.0033664,0.54,0.94,0
0.28604,-0.035514,0.49564,-0.90732,-0.57805,-0.77604,-0.020204,0,0,-0.256,0.17921,0,-0.11253,0,0,0.80022,0.0059792,0,0.80025,-0.56758,-0.9178,-0.77604,-68.44,-0.75381,0.32782,0.003145,0.56,0.94,0
0.28047,-0.034704,0.47163,-0.91053,-0.56252,-0.75633,-0.017878,0,0,-0.30067,0.1763,0,-0.099885,0,0,0.80049,0.0027567,0,0.8005,-0.55577,-0.91727,-0.75633,-73.034,-0.74313,0.33743,0.0028154,0.58,0.94,0
0.27401,-0.033835,0.44761,-0.91284,-0.5474,-0.73648,-0.015951,0,0,-0.34389,0.17226,0,-0.089432,0,0,0.80037,0.00031812,0,0.80037,-0.54303,-0.91721,-0.73648,-77.096,-0.73224,0.34784,0.0023918,0.6,0.94,0
0.26671,-0.032924,0.42361,-0.9145,-0.53257,-0.71653,-0.014232,0,0,-0.38605,0.16741,0,-0.080133,0,0,0.79991,-0.0016018,0,0.79991,-0.52968,-0.91739,-0.71653,-80.243,-0.7212,0.35885,0.0018833,0.62,0.94,0
0.25857,-0.031983,0.39962,-0.91568,-0.51795,-0.6965,-0.012607,0,0,-0.4274,0.16197,0,-0.071371,0,0,0.79915,-0.0031868,0,0.79916,-0.51602,-0.91761,-0.6965,-82.577,-0.71005,0.37031,0.0012959,0.64,0.94,0
0.24961,-0.031016,0.37566,-0.91647,-0.50351,-0.67643,-0.011,0,0,-0.46807,0.15606,0,-0.062723,0,0,0.79814,-0.0045725,0,0.79816,-0.50222,-0.91775,-0.67643,-84.327,-0.6988,0.38211,0.00063394,0.66,0.94,0
0.23985,-0.030027,0.35173,-0.91689,-0.48923,-0.65632,-0.0093506,0,0,-0.50811,0.14975,0,-0.05385,0,0,0.79688,-0.0058671,0,0.79691,-0.48839,-0.91773,-0.65632,-85.688,-0.68748,0.39413,-9.8693e-05,0.68,0.94,0
0.22929,-0.029014,0.32785,-0.91697,-0.4751,-0.63619,-0.0075992,0,0,-0.54752,0.14306,0,-0.044436,0,0,0.79538,-0.0071654,0,0.79542,-0.47458,-0.91748,-0.63619,-86.796,-0.67609,0.4063,-0.00089811,0.7,0.94,0
0.21795,-0.027977,0.30401,-0.91668,-0.46114,-0.61602,-0.0056829,0,0,-0.5863,0.13601,0,-0.034142,0,0,0.79363,-0.0085598,0,0.7937,-0.46085,-0.91697,-0.61602,-87.745,-0.66461,0.41852,-0.0017598,0.72,0.94,0
0.20584,-0.026912,0.28023,-0.91602,-0.44734,-0.59582,-0.0035254,0,0,-0.62437,0.12857,0,-0.022566,0,0,0.79161,-0.010151,0,0.7917,-0.44721,-0.91614,-0.59582,-88.602,-0.65306,0.43072,-0.0026786,0.74,0.94,0
0.19297,-0.025816,0.25651,-0.91493,-0.43372,-0.5756,-0.0010251,0,0,-0.66169,0.12073,0,-0.0091782,0,0,0.78928,-0.012058,0,0.78942,-0.43369,-0.91496,-0.5756,0.57897,-0.64142,0.4428,-0.0036483,0.76,0.94,0
0.17937,-0.024679,0.23287,-0.91342,-0.4203,-0.55536,0.0019624,0,0,-0.69821,0.11252,0,0.0067552,0,0,0.7866,-0.014441,0,0.78679,-0.42029,-0.91343,-0.55536,89.75,-0.6297,0.45474,-0.0046622,0.78,0.94,0
0.16504,-0.023489,0.20932,-0.9115,-0.40711,-0.53513,0.0056527,0,0,-0.73392,0.10397,0,0.026305,0,0,0.7835,-0.017524,0,0.78378,-0.40702,-0.9116,-0.53513,88.863,-0.61791,0.46653,-0.005715,0.8,0.94,0
0.15001,-0.022227,0.18586,-0.90933,-0.39418,-0.51496,0.010375,0,0,-0.76901,0.095255,0,0.051059,0,0,0.77994,-0.021648,0,0.78037,-0.39382,-0.90968,-0.51496,87.862,-0.60615,0.47835,-0.0068063,0.82,0.94,0
0.13428,-0.020864,0.16252,-0.90732,-0.38153,-0.495,0.016638,0,0,-0.80402,0.08679,0,0.083392,0,0,0.77592,-0.027365,0,0.77661,-0.38061,-0.90824,-0.495,86.688,-0.59462,0.49067,-0.0079507,0.84,0.94,0
0.11785,-0.019361,0.13931,-0.90652,-0.36926,-0.4756,0.02519,0,0,-0.84028,0.07941,0,0.12667,0,0,0.77164,-0.03563,0,0.77279,-0.36727,-0.90851,-0.4756,85.286,-0.58379,0.50459,-0.0091992,0.86,0.94,0
0.10067,-0.017675,0.11622,-0.90894,-0.35744,-0.45739,0.037382,0,0,-0.88051,0.074563,0,0.18659,0,0,0.76789,-0.048204,0,0.76995,-0.35343,-0.91294,-0.45739,83.602,-0.57459,0.52241,-0.010681,0.88,0.94,0
0.082631,-0.015747,0.093233,-0.92134,-0.349,-0.44326,0.054535,0,0,-0.93227,0.074327,0,0.2684,0,0,0.76634,-0.068905,0,0.77035,-0.34151,-0.92883,-0.44326,81.739,-0.5712,0.54863,-0.01278,0.9,0.94,0
0.063382,-0.013715,0.070241,-0.95391,-0.34447,-0.43634,0.086732,0,0,-1.0092,0.080359,0,0.40667,0,0,0.79137,-0.10545,0,0.79959,-0.32932,-0.96906,-0.43634,79.202,-0.57824,0.5967,-0.016583,0.92,0.94,0
0.042261,-0.010923,0.045751,-0.84175,-0.35929,-0.39081,0.14159,0,0,-0.93823,0.028658,0,0.62516,0,0,0.67771,-0.25361,0,0.72481,-0.32001,-0.88102,-0.39081,73.809,-0.53061,0.52947,-0.010422,0.94,0.94,0
0.028209,-0.011943,0.029579,-0.95844,-0.34139,-0.41953,0.098424,0,0,-0.70059,0.10158,0,0.2559,0,0,0.77654,-0.17996,0,0.7945,-0.32607,-0.97376,-0.41953,81.153,-0.57312,0.60639,-0.010541,0.96,0.94,0
0.014238,-0.01216,0.014689,-0.92703,-0.30585,-0.38455,0.04872,0,0,-0.70522,0.10232,0,0.12667,0,0,0.73948,-0.078449,0,0.74273,-0.30205,-0.93083,-0.38455,85.543,-0.53914,0.59185,-0.0099539,0.98,0.94,0
0,-0.01214,0,-0.89907,-0.2725,-0.35147,0.00038095,0,0,-0.71188,0.10266,0,0.00099047,0,0,0.73446,1.7347e-17,0,0.73376,-0.2725,-0.89907,-0.35147,89.965,-0.50768,0.59106,-0.0099698,1,0.94,0
0,-0.0095326,1,-0.83944,-1.5408,-1.7141,-0.0059163,0,0,1.137,0.22524,0,-0.015383,0,0,0.77811,-1.4958e-15,0,0.77811,-0.83939,-1.5409,-1.7141,-0.48326,-1.3648,0.80223,0.022406,0,0.96,0
0.022741,-0.0098403,0.98444,-0.82364,-1.5024,-1.6822,-0.015906,0,0,1.1162,0.23383,0,-0.041355,0,0,0.77911,0.0035747,0,0.77912,-0.82327,-1.5027,-1.6822,-1.3417,-1.3361,0.78478,0.020513,0.02,0.96,0
0.044647,-0.010724,0.96884,-0.83435,-1.4576,-1.6564,-0.029727,0,0,1.0687,0.25851,0,-0.07729,0,0,0.78196,0.0065714,0,0.78199,-0.83293,-1.459,-1.6564,-2.7247,-1.3161,0.74465,0.016288,0.04,0.96,0
0.065488,-0.012066,0.95316,-0.8509,-1.4012,-1.6288,-0.03959,0,0,1.0112,0.29589,0,-0.10293,0,0,0.78618,0.0085617,0,0.78623,-0.84807,-1.404,-1.6288,-4.0941,-1.2936,0.6961,0.01143,0.06,0.96,0
0.085097,-0.013688,0.93739,-0.87098,-1.338,-1.6001,-0.04437,0,0,0.94783,0.34071,0,-0.11536,0,0,0.79114,0.0093597,0,0.7912,-0.8668,-1.3422,-1.6001,-5.3793,-1.2697,0.64428,0.0066902,0.08,0.96,0
0.1034,-0.015387,0.92151,-0.89202,-1.2736,-1.5712,-0.044035,0,0,0.88294,0.38687,0,-0.11449,0,0,0.79616,0.0090273,0,0.79622,-0.88701,-1.2786,-1.5712,-6.4981,-1.2456,0.5946,0.0026727,0.1,0.96,0
0.12041,-0.016973,0.90554,-0.91173,-1.213,-1.543,-0.039587,0,0,0.82062,0.42891,0,-0.10293,0,0,0.8007,0.0078032,0,0.80074,-0.90661,-1.2182,-1.543,-7.3613,-1.2226,0.55114,-0.00031076,0.12,0.96,0
0.13623,-0.0183,0.88949,-0.92845,-1.1598,-1.5159,-0.03258,0,0,0.76375,0.46306,0,-0.084708,0,0,0.80435,0.0059986,0,0.80438,-0.92395,-1.1643,-1.5159,-7.8666,-1.2014,0.5157,-0.0022469,0.14,0.96,0
0.15096,-0.019279,0.87337,-0.94133,-1.1155,-1.4904,-0.02451,0,0,0.71381,0.48739,0,-0.063726,0,0,0.80692,0.0039107,0,0.80693,-0.93794,-1.1189,-1.4904,-7.8596,-1.1824,0.48785,-0.0033169,0.16,0.96,0
0.16478,-0.019866,0.85721,-0.95017,-1.0808,-1.4665,-0.016428,0,0,0.67123,0.50139,0,-0.042712,0,0,0.80832,0.0017828,0,0.80832,-0.94814,-1.0829,-1.4665,-7.0579,-1.1658,0.46586,-0.0037659,0.18,0.96,0
0.17781,-0.020054,0.84103,-0.95519,-1.0556,-1.4443,-0.008868,0,0,0.63582,0.50526,0,-0.023057,0,0,0.80859,-0.00018698,0,0.80859,-0.95441,-1.0564,-1.4443,-5.0076,-1.1517,0.44767,-0.0038141,0.2,0.96,0
0.19021,-0.019853,0.82487,-0.95669,-1.0396,-1.4238,-0.0020386,0,0,0.60718,0.49941,0,-0.0053005,0,0,0.80784,-0.0018031,0,0.80785,-0.95664,-1.0396,-1.4238,-1.4079,-1.14,0.43164,-0.0036209,0.22,0.96,0
0.2021,-0.019284,0.80872,-0.95505,-1.0325,-1.405,0.0038936,0,0,0.58489,0.48428,0,0.010123,0,0,0.80627,-0.0028089,0,0.80627,-0.95486,-1.0326,-1.405,2.8727,-1.1308,0.4167,-0.003284,0.24,0.96,0
0.21361,-0.018383,0.79261,-0.95073,-1.0338,-1.388,0.0085214,0,0,0.56842,0.46042,0,0.022156,0,0,0.80417,-0.0028063,0,0.80418,-0.94987,-1.0347,-1.388,5.7966,-1.1242,0.40247,-0.0028535,0.26,0.96,0
0.22484,-0.01721,0.77655,-0.9445,-1.0429,-1.3728,0.011024,0,0,0.55674,0.42887,0,0.028662,0,0,0.80208,-0.0011597,0,0.80208,-0.94328,-1.0441,-1.3728,6.3168,-1.12,0.389,-0.0023527,0.28,0.96,0
0.23588,-0.015855,0.76053,-0.93771,-1.058,-1.3592,0.010199,0,0,0.54798,0.39164,0,0.026518,0,0,0.80085,0.0031174,0,0.80085,-0.93685,-1.0588,-1.3592,4.8133,-1.1183,0.37652,-0.0018028,0.3,0.96,0
0.24676,-0.014451,0.74452,-0.93251,-1.0763,-1.3472,0.0047381,0,0,0.53905,0.35211,0,0.012319,0,0,0.80186,0.011509,0,0.80193,-0.93236,-1.0765,-1.3472,1.8851,-1.1187,0.36477,-0.0012456,0.32,0.96,0
0.25744,-0.013158,0.72846,-0.93188,-1.094,-1.3362,-0.0064988,0,0,0.52563,0.31492,0,-0.016897,0,0,0.80733,0.026219,0,0.80772,-0.93162,-1.0942,-1.3362,-2.2924,-1.1207,0.35263,-0.00074758,0.34,0.96,0
0.26778,-0.012168,0.71223,-0.94013,-1.107,-1.3264,-0.024166,0,0,0.5021,0.28519,0,-0.062831,0,0,0.82098,0.050557,0,0.82247,-0.93671,-1.1104,-1.3264,-8.0773,-1.1245,0.33811,-0.00037005,0.36,0.96,0
0.27752,-0.011677,0.69562,-0.95947,-1.1099,-1.3164,-0.051455,0,0,0.46406,0.26844,0,-0.13378,0,0,0.85175,0.08944,0,0.85632,-0.94356,-1.1259,-1.3164,-17.184,-1.1286,0.32295,-6.653e-05,0.38,0.96,0
0.28635,-0.012212,0.67816,-1.0155,-1.1126,-1.3166,-0.092834,0,0,0.39141,0.26516,0,-0.24137,0,0,0.92512,0.1504,0,0.93757,-0.95931,-1.1688,-1.3166,-31.194,-1.1483,0.31096,0.00045415,0.4,0.96,0
0.29318,-0.01446,0.65861,-1.0816,-1.0364,-1.294,-0.15089,0,0,0.27617,0.33491,0,-0.39231,0,0,1.0266,0.21479,0,1.0523,-0.90639,-1.2115,-1.294,-49.258,-1.1373,0.35366,0.0018621,0.42,0.96,0
0.29739,-0.019131,0.63709,-1.1101,-0.77284,-1.202,-0.12019,0,0,0.11944,0.55788,0,-0.3125,0,0,1.115,0.10065,0,1.1187,-0.73439,-1.1485,-1.202,-72.26,-1.0283,0.44329,0.0042557,0.44,0.96,0
0.29796,-0.022679,0.61401,-1.1919,-0.72774,-1.1899,-0.072829,0,0,-0.0026289,0.60083,0,-0.18935,0,0,1.1614,0.056917,0,1.1627,-0.71658,-1.2031,-1.1899,-81.29,-1.0365,0.48006,0.0056678,0.46,0.96,0
0.29729,-0.024094,0.59064,-1.2026,-0.68214,-1.1561,-0.04073,0,0,-0.060522,0.61611,0,-0.1059,0,0,1.1742,0.034239,0,1.1747,-0.67897,-1.2058,-1.1561,-85.552,-1.0136,0.5038,0.0063524,0.48,0.96,0
0.29553,-0.024543,0.56704,-1.213,-0.65054,-1.1261,-0.027078,0,0,-0.11295,0.61823,0,-0.070404,0,0,1.1836,0.021347,0,1.1838,-0.64924,-1.2143,-1.1261,-87.25,-0.99654,0.52652,0.0067932,0.5,0.96,0
0.29277,-0.024465,0.54329,-1.2231,-0.62636,-1.0981,-0.02057,0,0,-0.1625,0.61332,0,-0.053481,0,0,1.19,0.013471,0,1.19,-0.62565,-1.2239,-1.0981,-88.028,-0.98255,0.5463,0.0069025,0.52,0.96,0
0.28904,-0.024126,0.51945,-1.2324,-0.60641,-1.0711,-0.017367,0,0,-0.20972,0.60409,0,-0.045155,0,0,1.1942,0.0083537,0,1.1942,-0.60592,-1.2329,-1.0711,-88.412,-0.96997,0.56376,0.0067109,0.54,0.96,0
0.28438,-0.023655,0.49553,-1.2405,-0.58869,-1.0443,-0.01548,0,0,-0.25503,0.59226,0,-0.040247,0,0,1.1967,0.0048544,0,1.1967,-0.58832,-1.2408,-1.0443,-88.64,-0.9578,0.57977,0.0062692,0.56,0.96,0
0.27883,-0.023113,0.47158,-1.2474,-0.5722,-1.0174,-0.014105,0,0,-0.29891,0.57883,0,-0.036674,0,0,1.1981,0.0023532,0,1.1981,-0.5719,-1.2477,-1.0174,-88.804,-0.94568,0.59506,0.0056174,0.58,0.96,0
0.27242,-0.022532,0.4476,-1.2534,-0.55641,-0.99055,-0.012921,0,0,-0.3417,0.56438,0,-0.033593,0,0,1.1986,0.00048951,0,1.1986,-0.55617,-1.2536,-0.99055,-88.938,-0.93345,0.61007,0.0047823,0.6,0.96,0
0.26517,-0.021923,0.42363,-1.2586,-0.54105,-0.96354,-0.0118,0,0,-0.38363,0.54924,0,-0.030679,0,0,1.1983,-0.00096141,0,1.1983,-0.54085,-1.2588,-0.96354,-89.058,-0.92107,0.62504,0.0037811,0.62,0.96,0
0.25708,-0.021295,0.39967,-1.2632,-0.52599,-0.93644,-0.01069,0,0,-0.42481,0.53358,0,-0.027793,0,0,1.1974,-0.0021493,0,1.1974,-0.52584,-1.2634,-0.93644,-89.169,-0.90855,0.64009,0.0026259,0.64,0.96,0
0.24817,-0.02065,0.37574,-1.2672,-0.51117,-0.90924,-0.0095582,0,0,-0.46531,0.5175,0,-0.024851,0,0,1.196,-0.0031817,0,1.196,-0.51104,-1.2673,-0.90924,-89.276,-0.89586,0.65524,0.001326,0.66,0.96,0
0.23847,-0.019988,0.35184,-1.2706,-0.49655,-0.88196,-0.0083752,0,0,-0.50516,0.50104,0,-0.021775,0,0,1.1941,-0.0041426,0,1.1941,-0.49646,-1.2706,-0.88196,-89.38,-0.88302,0.67046,-0.00010976,0.68,0.96,0
0.22797,-0.019311,0.32797,-1.2733,-0.48215,-0.85461,-0.0071063,0,0,-0.54431,0.4842,0,-0.018476,0,0,1.1918,-0.0051049,0,1.1919,-0.48208,-1.2734,-0.85461,-89.485,-0.87002,0.68567,-0.0016722,0.7,0.96,0
0.21669,-0.018616,0.30416,-1.2754,-0.46796,-0.82718,-0.0057073,0,0,-0.58273,0.46699,0,-0.014839,0,0,1.1891,-0.0061393,0,1.1891,-0.46792,-1.2755,-0.82718,-89.595,-0.85686,0.70078,-0.0033504,0.72,0.96,0
0.20466,-0.017902,0.28041,-1.2769,-0.45402,-0.79967,-0.0041179,0,0,-0.62034,0.44935,0,-0.010707,0,0,1.1858,-0.0073234,0,1.1858,-0.454,-1.2769,-0.79967,-89.713,-0.84352,0.71566,-0.0051315,0.74,0.96,0
0.19188,-0.017163,0.25673,-1.2775,-0.44039,-0.77209,-0.0022483,0,0,-0.65702,0.43122,0,-0.0058456,0,0,1.182,-0.0087525,0,1.182,-0.44038,-1.2775,-0.77209,-89.846,-0.82999,0.73015,-0.0069993,0.76,0.96,0
0.17838,-0.016394,0.23313,-1.2772,-0.42713,-0.74444,4.4245e-05,0,0,-0.69263,0.41251,0,0.00011504,0,0,1.1774,-0.010556,0,1.1774,-0.42713,-1.2772,-0.74444,89.997,-0.81627,0.74406,-0.0089336,0.78,0.96,0
0.16417,-0.015583,0.20963,-1.276,-0.41438,-0.71674,0.0029977,0,0,-0.727,0.39307,0,0.0077941,0,0,1.1719,-0.012924,0,1.172,-0.41437,-1.276,-0.71674,89.801,-0.80236,0.75715,-0.010909,0.8,0.96,0
0.1493,-0.014711,0.18626,-1.2736,-0.40232,-0.68902,0.0070173,0,0,-0.7599,0.37271,0,0.018245,0,0,1.1652,-0.016164,0,1.1654,-0.40227,-1.2736,-0.68902,89.539,-0.7883,0.76916,-0.012896,0.82,0.96,0
0.13378,-0.013749,0.16303,-1.2699,-0.39122,-0.66136,0.012776,0,0,-0.79111,0.35119,0,0.033217,0,0,1.1571,-0.020806,0,1.1573,-0.39103,-1.2701,-0.66136,89.167,-0.77416,0.77986,-0.014861,0.84,0.96,0
0.11765,-0.012654,0.13997,-1.2649,-0.38137,-0.63384,0.021377,0,0,-0.82032,0.32821,0,0.055579,0,0,1.147,-0.027842,0,1.1474,-0.38086,-1.2654,-0.63384,88.615,-0.76002,0.78905,-0.016764,0.86,0.96,0
0.10096,-0.01137,0.11714,-1.2574,-0.37272,-0.60617,0.034179,0,0,-0.84656,0.30349,0,0.088866,0,0,1.1342,-0.039269,0,1.1349,-0.3714,-1.2587,-0.60617,87.791,-0.74542,0.7963,-0.018535,0.88,0.96,0
0.083791,-0.0098809,0.094603,-1.2418,-0.36444,-0.57649,0.053747,0,0,-0.86496,0.27567,0,0.13974,0,0,1.1186,-0.059377,0,1.1201,-0.36116,-1.2451,-0.57649,86.508,-0.72759,0.79839,-0.019868,0.9,0.96,0
0.066367,-0.0081568,0.072402,-1.1811,-0.3452,-0.53029,0.071416,0,0,-0.84604,0.24062,0,0.18568,0,0,1.0716,-0.098474,0,1.0754,-0.33914,-1.1871,-0.53029,85.152,-0.68553,0.77043,-0.018702,0.92,0.96,0
0.049949,-0.0077242,0.051738,-1.148,-0.37629,-0.50903,0.089503,0,0,-0.83068,0.17256,0,0.23271,0,0,0.98565,-0.20283,0,1.0097,-0.36604,-1.1583,-0.50903,83.47,-0.67778,0.73128,-0.017525,0.94,0.96,0
0.03314,-0.0087514,0.032976,-1.0954,-0.31047,-0.45474,0.055419,0,0,-0.83286,0.18755,0,0.14409,0,0,0.88947,-0.13326,0,0.89951,-0.30657,-1.0993,-0.45474,85.981,-0.6202,0.73,-0.017238,0.96,0.96,0
0.016635,-0.0091063,0.016159,-1.0495,-0.27065,-0.4122,0.031334,0,0,-0.82849,0.18402,0,0.081468,0,0,0.8244,-0.060749,0,0.82625,-0.26939,-1.0508,-0.4122,87.7,-0.57745,0.72066,-0.016706,0.98,0.96,0
0,-0.009171,0,-1.015,-0.23557,-0.37515,-0.0012444,0,0,-0.83173,0.18146,0,-0.0032355,0,0,0.80796,-1.0408e-17,0,0.80756,-0.23556,-1.015,-0.37515,-89.909,-0.54189,0.71981,-0.016753,1,0.96,0
0,-0.0048525,1,-0.84365,-1.5283,-1.7116,-0.0028448,0,0,1.1283,0.23831,0,-0.0073964,0,0,0.78061,1.4517e-15,0,0.78061,-0.84364,-1.5283,-1.7116,-0.23808,-1.3612,0.79235,0.021012,0,0.98,0
0.022566,-0.0050004,0.98439,-0.82749,-1.4906,-1.6798,-0.0077497,0,0,1.108,0.24601,0,-0.020149,0,0,0.78142,0.0016487,0,0.78143,-0.8274,-1.4907,-1.6798,-0.66952,-1.3326,0.77534,0.019221,0.02,0.98,0
0.04432,-0.0054255,0.96874,-0.83739,-1.4482,-1.6544,-0.014494,0,0,1.0621,0.2681,0,-0.037685,0,0,0.78374,0.0030436,0,0.78374,-0.83705,-1.4485,-1.6544,-1.3586,-1.3133,0.73634,0.015228,0.04,0.98,0
0.065051,-0.0060716,0.95304,-0.85286,-1.3955,-1.6276,-0.019353,0,0,1.0071,0.30165,0,-0.050317,0,0,0.78721,0.0039926,0,0.78722,-0.85217,-1.3962,-1.6276,-2.0399,-1.292,0.68946,0.010666,0.06,0.98,0
0.084604,-0.0068552,0.93725,-0.87187,-1.3365,-1.5998,-0.021807,0,0,0.94628,0.3422,0,-0.056699,0,0,0.79136,0.0044044,0,0.79137,-0.87085,-1.3376,-1.5998,-2.681,-1.2694,0.6395,0.0062239,0.08,0.98,0
0.1029,-0.0076806,0.92138,-0.89217,-1.2759,-1.5718,-0.021826,0,0,0.88353,0.38467,0,-0.056749,0,0,0.79566,0.0042939,0,0.79568,-0.89093,-1.2771,-1.5718,-3.2449,-1.2466,0.59143,0.0024474,0.1,0.98,0
0.11995,-0.0084574,0.90543,-0.91164,-1.2179,-1.5443,-0.019835,0,0,0.82244,0.42432,0,-0.051571,0,0,0.79965,0.0037562,0,0.79966,-0.91036,-1.2192,-1.5443,-3.6904,-1.2246,0.54906,-0.00037871,0.12,0.98,0
0.1358,-0.0091138,0.8894,-0.92866,-1.1658,-1.5177,-0.016517,0,0,0.7658,0.4575,0,-0.042945,0,0,0.80298,0.0029265,0,0.80298,-0.92752,-1.167,-1.5177,-3.965,-1.2041,0.51417,-0.0022322,0.14,0.98,0
0.15058,-0.0096029,0.87331,-0.94224,-1.1218,-1.4925,-0.012569,0,0,0.71536,0.48196,0,-0.03268,0,0,0.80541,0.0019437,0,0.80541,-0.94136,-1.1226,-1.4925,-3.9855,-1.1855,0.48653,-0.0032669,0.16,0.98,0
0.16441,-0.0099007,0.85718,-0.95193,-1.0867,-1.4688,-0.0085185,0,0,0.67191,0.49666,0,-0.022148,0,0,0.80685,0.00093097,0,0.80685,-0.95139,-1.0873,-1.4688,-3.6014,-1.1691,0.4646,-0.003704,0.18,0.98,0
0.17745,-0.01,0.84103,-0.95774,-1.061,-1.4467,-0.0046763,0,0,0.63559,0.50136,0,-0.012158,0,0,0.80732,-2.4161e-06,0,0.80732,-0.95752,-1.0612,-1.4467,-2.5877,-1.1551,0.44641,-0.0037514,0.2,0.98,0
0.18984,-0.0099051,0.82489,-0.95993,-1.0444,-1.4262,-0.0012057,0,0,0.60614,0.49632,0,-0.0031349,0,0,0.80697,-0.00074298,0,0.80697,-0.95991,-1.0444,-1.4262,-0.81754,-1.1435,0.43029,-0.0035655,0.22,0.98,0
0.2017,-0.0096273,0.80876,-0.95896,-1.0366,-1.4074,0.0017539,0,0,0.583,0.48209,0,0.0045601,0,0,0.80606,-0.0011423,0,0.80606,-0.95892,-1.0366,-1.4074,1.2938,-1.1343,0.41514,-0.0032449,0.24,0.98,0
0.21316,-0.0091869,0.79265,-0.9555,-1.0368,-1.3903,0.0039636,0,0,0.5653,0.45958,0,0.010305,0,0,0.80505,-0.00097728,0,0.80505,-0.95531,-1.037,-1.3903,2.7837,-1.1276,0.40048,-0.0028415,0.26,0.98,0
0.22431,-0.0086157,0.77655,-0.95056,-1.0439,-1.3749,0.0050194,0,0,0.55166,0.43024,0,0.01305,0,0,0.80469,9.9017e-05,0,0.80469,-0.95029,-1.0442,-1.3749,3.0675,-1.1231,0.38632,-0.0023812,0.28,0.98,0
0.23522,-0.007961,0.76046,-0.94559,-1.056,-1.361,0.0043861,0,0,0.53996,0.39638,0,0.011404,0,0,0.80618,0.002618,0,0.80619,-0.94542,-1.0562,-1.361,2.2706,-1.1209,0.3727,-0.0018881,0.3,0.98,0
0.24591,-0.0072862,0.74431,-0.94257,-1.0702,-1.3481,0.0015259,0,0,0.52726,0.36127,0,0.0039673,0,0,0.81139,0.0073782,0,0.81142,-0.94255,-1.0703,-1.3481,0.68458,-1.1203,0.3592,-0.0014057,0.32,0.98,0
0.25632,-0.006669,0.728,-0.944,-1.0831,-1.3361,-0.0039124,0,0,0.50977,0.32895,0,-0.010172,0,0,0.82319,0.015563,0,0.82335,-0.94389,-1.0832,-1.3361,-1.6099,-1.1211,0.34441,-0.0010006,0.34,0.98,0
0.2663,-0.0061942,0.71138,-0.95227,-1.0901,-1.3241,-0.012379,0,0,0.48336,0.3042,0,-0.032185,0,0,0.84599,0.02884,0,0.84655,-0.95117,-1.0912,-1.3241,-5.0921,-1.1221,0.32628,-0.00074115,0.36,0.98,0
0.27565,-0.0059975,0.69416,-0.97301,-1.0879,-1.3124,-0.024682,0,0,0.44125,0.29192,0,-0.064173,0,0,0.88628,0.048942,0,0.88789,-0.96793,-1.093,-1.3124,-11.627,-1.1244,0.30206,-0.00064222,0.38,0.98,0
0.28395,-0.0062813,0.67593,-1.0075,-1.0619,-1.2968,-0.043412,0,0,0.37602,0.30531,0,-0.11287,0,0,0.9459,0.072295,0,0.94943,-0.98347,-1.0859,-1.2968,-28.966,-1.122,0.27666,-0.00060633,0.4,0.98,0
0.29069,-0.0074168,0.65633,-1.0618,-0.9954,-1.2735,-0.06123,0,0,0.27522,0.36151,0,-0.1592,0,0,1.0168,0.074785,0,1.0203,-0.95894,-1.0982,-1.2735,-59.228,-1.1102,0.27299,-0.00020528,0.42,0.98,0
0.29496,-0.0093,0.63526,-1.1094,-0.85736,-1.2253,-0.064723,0,0,0.1507,0.47828,0,-0.16828,0,0,1.0824,0.060139,0,1.0845,-0.84171,-1.125,-1.2253,-76.405,-1.064,0.34455,0.0015164,0.44,0.98,0
0.29672,-0.010978,0.61303,-1.1579,-0.74895,-1.1851,-0.042507,0,0,0.035339,0.56698,0,-0.11052,0,0,1.1299,0.03397,0,1.1304,-0.74458,-1.1623,-1.1851,-84.128,-1.0307,0.42956,0.0040321,0.46,0.98,0
0.29637,-0.011925,0.59006,-1.1968,-0.69392,-1.1573,-0.023954,0,0,-0.051354,0.60235,0,-0.062281,0,0,1.1585,0.019814,0,1.1587,-0.69278,-1.1979,-1.1573,-87.279,-1.016,0.48608,0.0057599,0.48,0.98,0
0.29466,-0.01223,0.56669,-1.2147,-0.6559,-1.1279,-0.013983,0,0,-0.11289,0.61357,0,-0.036357,0,0,1.1746,0.012044,0,1.1747,-0.65555,-1.2151,-1.1279,-88.567,-0.99949,0.52142,0.0065998,0.5,0.98,0
0.29186,-0.012221,0.54307,-1.2261,-0.62918,-1.0997,-0.0099278,0,0,-0.16438,0.61162,0,-0.025812,0,0,1.1845,0.0074775,0,1.1845,-0.62902,-1.2263,-1.0997,-89.047,-0.98498,0.54509,0.0068294,0.52,0.98,0
0.28809,-0.012059,0.51931,-1.2343,-0.60806,-1.072,-0.0082242,0,0,-0.211,0.60315,0,-0.021383,0,0,1.1906,0.0046056,0,1.1906,-0.60796,-1.2345,-1.072,-89.248,-0.97148,0.56313,0.0066648,0.54,0.98,0
0.28342,-0.011824,0.49545,-1.2412,-0.58986,-1.0448,-0.0073975,0,0,-0.25534,0.59137,0,-0.019234,0,0,1.1943,0.0026886,0,1.1943,-0.58978,-1.2413,-1.0448,-89.349,-0.9586,0.57882,0.0062281,0.56,0.98,0
0.27787,-0.011551,0.47154,-1.2472,-0.57317,-1.0176,-0.0068391,0,0,-0.29845,0.57783,0,-0.017782,0,0,1.1964,0.0013421,0,1.1964,-0.5731,-1.2473,-1.0176,-89.419,-0.94602,0.59368,0.0055807,0.58,0.98,0
0.27148,-0.011259,0.4476,-1.2527,-0.55729,-0.99059,-0.0063381,0,0,-0.34073,0.56329,0,-0.016479,0,0,1.1972,0.0003513,0,1.1972,-0.55723,-1.2527,-0.99059,-89.478,-0.93352,0.60838,0.0047529,0.6,0.98,0
0.26425,-0.010954,0.42365,-1.2576,-0.54189,-0.9635,-0.0058305,0,0,-0.38234,0.54808,0,-0.015159,0,0,1.1972,-0.00041308,0,1.1972,-0.54185,-1.2576,-0.9635,-89.533,-0.921,0.62318,0.0037611,0.62,0.98,0
0.25619,-0.01064,0.39971,-1.262,-0.52683,-0.93635,-0.0053005,0,0,-0.42333,0.53238,0,-0.013781,0,0,1.1965,-0.0010347,0,1.1965,-0.52679,-1.262,-0.93635,-89.587,-0.90839,0.63811,0.0026163,0.64,0.98,0
0.24731,-0.010316,0.37579,-1.2658,-0.51203,-0.90914,-0.004742,0,0,-0.46368,0.51624,0,-0.012329,0,0,1.1952,-0.0015725,0,1.1952,-0.512,-1.2658,-0.90914,-89.64,-0.89566,0.65316,0.0013272,0.66,0.98,0
0.23764,-0.0099853,0.3519,-1.2691,-0.49746,-0.88185,-0.0041473,0,0,-0.50337,0.49971,0,-0.010783,0,0,1.1934,-0.0020716,0,1.1934,-0.49744,-1.2691,-0.88185,-89.692,-0.88279,0.66827,-9.6859e-05,0.68,0.98,0
0.22718,-0.0096458,0.32805,-1.2717,-0.48313,-0.8545,-0.0035026,0,0,-0.54235,0.48277,0,-0.0091068,0,0,1.1911,-0.0025708,0,1.1911,-0.48312,-1.2717,-0.8545,-89.746,-0.86977,0.68332,-0.001646,0.7,0.98,0
0.21594,-0.0092974,0.30425,-1.2736,-0.46906,-0.82706,-0.0027865,0,0,-0.58054,0.4654,0,-0.0072449,0,0,1.1882,-0.0031079,0,1.1882,-0.46905,-1.2736,-0.82706,-89.802,-0.85658,0.6982,-0.0033083,0.72,0.98,0
0.20396,-0.0089385,0.28052,-1.2748,-0.45528,-0.79954,-0.0019658,0,0,-0.61783,0.44754,0,-0.005111,0,0,1.1848,-0.0037244,0,1.1848,-0.45528,-1.2748,-0.79954,-89.863,-0.84321,0.71275,-0.0050688,0.74,0.98,0
0.19123,-0.008567,0.25686,-1.2751,-0.44188,-0.77195,-0.00098667,0,0,-0.65406,0.42908,0,-0.0025653,0,0,1.1807,-0.0044725,0,1.1807,-0.44188,-1.2751,-0.77195,-89.932,-0.82963,0.72673,-0.0069081,0.76,0.98,0
0.17779,-0.0081787,0.23329,-1.2742,-0.42898,-0.74425,0.00024251,0,0,-0.68896,0.40986,0,0.00063051,0,0,1.1757,-0.0054244,0,1.1757,-0.42898,-1.2742,-0.74425,89.984,-0.81582,0.73983,-0.0087991,0.78,0.98,0
0.16367,-0.0077665,0.20983,-1.2719,-0.41677,-0.71645,0.0018836,0,0,-0.72215,0.38958,0,0.0048974,0,0,1.1696,-0.0066903,0,1.1697,-0.41676,-1.2719,-0.71645,89.874,-0.80172,0.75157,-0.010703,0.8,0.98,0
0.14891,-0.0073189,0.18651,-1.2677,-0.40557,-0.68848,0.0042218,0,0,-0.75295,0.36779,0,0.010977,0,0,1.162,-0.0084541,0,1.1621,-0.40555,-1.2677,-0.68848,89.719,-0.78724,0.7612,-0.012558,0.82,0.98,0
0.13356,-0.0068168,0.16335,-1.2605,-0.39586,-0.66026,0.0077452,0,0,-0.78032,0.34373,0,0.020137,0,0,1.1522,-0.011049,0,1.1523,-0.39578,-1.2606,-0.66026,89.487,-0.77221,0.76753,-0.014269,0.84,0.98,0
0.11769,-0.0062322,0.14042,-1.2489,-0.38819,-0.63153,0.013175,0,0,-0.80253,0.31635,0,0.034254,0,0,1.139,-0.015125,0,1.1391,-0.38799,-1.2491,-0.63153,89.123,-0.7562,0.7688,-0.015686,0.86,0.98,0
0.10145,-0.0055355,0.11779,-1.2306,-0.3833,-0.60195,0.021337,0,0,-0.81719,0.28425,0,0.055475,0,0,1.1203,-0.022034,0,1.1205,-0.38276,-1.2311,-0.60195,88.558,-0.7386,0.76273,-0.016605,0.88,0.98,0
0.085008,-0.0047198,0.095608,-1.2004,-0.37959,-0.56961,0.030292,0,0,-0.82004,0.24702,0,0.078759,0,0,1.0903,-0.034655,0,1.0909,-0.37848,-1.2015,-0.56961,87.889,-0.71654,0.74608,-0.016703,0.9,0.98,0
0.068652,-0.0040906,0.07418,-1.1731,-0.38465,-0.54151,0.034562,0,0,-0.82109,0.20392,0,0.089862,0,0,1.0436,-0.058088,0,1.0456,-0.38314,-1.1746,-0.54151,87.495,-0.69976,0.72539,-0.016498,0.92,0.98,0
0.052164,-0.0040201,0.053864,-1.1439,-0.35497,-0.50351,0.024515,0,0,-0.83245,0.1931,0,0.063738,0,0,0.98177,-0.069367,0,0.9849,-0.35421,-1.1446,-0.50351,88.222,-0.66745,0.72734,-0.016989,0.94,0.98,0
0.035354,-0.0044412,0.03491,-1.1136,-0.28672,-0.45502,0.018987,0,0,-0.8562,0.21879,0,0.049366,0,0,0.91862,-0.062281,0,0.92131,-0.28628,-1.1141,-0.45502,88.685,-0.61846,0.75765,-0.018656,0.96,0.98,0
0.017916,-0.0047991,0.017119,-1.1013,-0.24626,-0.42138,0.011617,0,0,-0.88386,0.22766,0,0.030205,0,0,0.87274,-0.032037,0,0.87335,-0.2461,-1.1014,-0.42138,89.222,-0.58963,0.78255,-0.020512,0.98,0.98,0
0,-0.0048817,0,-1.0736,-0.20817,-0.38453,-0.0015886,0,0,-0.8958,0.22928,0,-0.0041303,0,0,0.85596,-5.2042e-18,0,0.85583,-0.20816,-1.0736,-0.38453,-89.895,-0.55544,0.79213,-0.021323,1,0.98,0
0,0,1,-0.84509,-1.5241,-1.7108,1.7347e-18,0,0,1.1254,0.24263,0,5.2042e-18,0,0,0.7814,4.5699e-15,0,0.7814,-0.84509,-1.5241,-1.7108,1.4637e-16,-1.36,0.78909,0.020555,0,1,0
0.022508,0,0.98437,-0.82881,-1.4867,-1.679,-0.0011227,0,0,1.1053,0.25002,0,-0.002919,0,0,0.78216,0.00079197,0,0.78216,-0.82881,-1.4867,-1.679,-0.097777,-1.3315,0.77223,0.018798,0.02,1,0
0.044211,0,0.96871,-0.83845,-1.4451,-1.6538,-0.0021031,0,0,1.0599,0.27127,0,-0.005468,0,0,0.7843,0.001465,0,0.78431,-0.83845,-1.4451,-1.6538,-0.19862,-1.3124,0.73361,0.014883,0.04,1,0
0.064905,0,0.953,-0.85356,-1.3936,-1.6272,-0.0028155,0,0,1.0057,0.30358,0,-0.0073203,0,0,0.78754,0.001928,0,0.78754,-0.85354,-1.3937,-1.6272,-0.29868,-1.2914,0.68728,0.010417,0.06,1,0
0.084438,0,0.93721,-0.87221,-1.336,-1.5997,-0.0031945,0,0,0.94571,0.34276,0,-0.0083058,0,0,0.79144,0.0021361,0,0.79144,-0.87219,-1.336,-1.5997,-0.39461,-1.2693,0.63793,0.0060709,0.08,1,0
0.10273,0,0.92134,-0.89225,-1.2766,-1.572,-0.0032563,0,0,0.88367,0.38403,0,-0.0084663,0,0,0.79551,0.0020931,0,0.79552,-0.89222,-1.2766,-1.572,-0.48539,-1.2469,0.59038,0.002372,0.1,1,0
0.11979,0,0.90539,-0.91162,-1.2194,-1.5447,-0.0030901,0,0,0.82301,0.42287,0,-0.0080344,0,0,0.79933,0.0018416,0,0.79933,-0.91159,-1.2194,-1.5447,-0.57515,-1.2252,0.54836,-0.00040277,0.12,1,0
0.13565,0,0.88937,-0.92873,-1.1678,-1.5183,-0.0028225,0,0,0.76648,0.45569,0,-0.0073384,0,0,0.80254,0.0014443,0,0.80254,-0.92869,-1.1678,-1.5183,-0.67632,-1.2049,0.51366,-0.0022282,0.14,1,0
0.15044,0,0.87329,-0.9425,-1.1239,-1.4932,-0.0025689,0,0,0.7159,0.48015,0,-0.006679,0,0,0.80492,0.00096828,0,0.80492,-0.94247,-1.1239,-1.4932,-0.81139,-1.1865,0.48611,-0.0032501,0.16,1,0
0.16429,0,0.85717,-0.95246,-1.0887,-1.4695,-0.0024032,0,0,0.67219,0.49504,0,-0.0062483,0,0,0.80637,0.00047537,0,0.80637,-0.95242,-1.0888,-1.4695,-1.01,-1.1702,0.4642,-0.0036824,0.18,1,0
0.17733,0,0.84103,-0.95853,-1.0628,-1.4474,-0.0023523,0,0,0.63558,0.50001,0,-0.0061159,0,0,0.80692,2.254e-05,0,0.80692,-0.95848,-1.0629,-1.4474,-1.2915,-1.1563,0.44602,-0.0037292,0.2,1,0
0.18971,0,0.8249,-0.96097,-1.046,-1.427,-0.0024141,0,0,0.60583,0.49525,0,-0.0062767,0,0,0.8067,-0.00032961,0,0.8067,-0.9609,-1.0461,-1.427,-1.6244,-1.1447,0.42987,-0.0035457,0.22,1,0
0.20156,0,0.80877,-0.96025,-1.0379,-1.4082,-0.0025872,0,0,0.58237,0.48136,0,-0.0067266,0,0,0.80603,-0.00050189,0,0.80603,-0.96017,-1.038,-1.4082,-1.9051,-1.1355,0.41465,-0.0032306,0.24,1,0
0.21301,0,0.79265,-0.95711,-1.0378,-1.3911,-0.0028984,0,0,0.56421,0.45935,0,-0.0075359,0,0,0.80541,-0.00037664,0,0.80541,-0.957,-1.0379,-1.3911,-2.0551,-1.1287,0.39986,-0.0028361,0.26,1,0
0.22413,0,0.77655,-0.9526,-1.0442,-1.3756,-0.0034187,0,0,0.54989,0.43079,0,-0.0088888,0,0,0.80567,0.00022709,0,0.80567,-0.95248,-1.0443,-1.3756,-2.134,-1.1241,0.38549,-0.0023881,0.28,1,0
0.235,0,0.76043,-0.9482,-1.0553,-1.3615,-0.0042545,0,0,0.53725,0.39805,0,-0.011062,0,0,0.80813,0.0015851,0,0.80813,-0.94803,-1.0554,-1.3615,-2.2718,-1.1217,0.37156,-0.0019112,0.3,1,0
0.24562,0,0.74423,-0.94579,-1.0682,-1.3484,-0.0055054,0,0,0.52341,0.36431,0,-0.014314,0,0,0.81481,0.0041119,0,0.81481,-0.94554,-1.0684,-1.3484,-2.5705,-1.1208,0.35763,-0.0014485,0.32,1,0
0.25594,0,0.72784,-0.94742,-1.0794,-1.3359,-0.0072153,0,0,0.50499,0.33345,0,-0.01876,0,0,0.82879,0.0084139,0,0.82883,-0.94702,-1.0798,-1.3359,-3.1206,-1.1209,0.34236,-0.0010657,0.34,1,0
0.26582,0,0.71107,-0.95612,-1.0852,-1.3235,-0.0091837,0,0,0.47758,0.30971,0,-0.023878,0,0,0.85436,0.015311,0,0.85449,-0.95547,-1.0859,-1.3235,-4.0479,-1.1216,0.32318,-0.00083071,0.36,1,0
0.27504,0,0.69366,-0.9747,-1.0791,-1.3098,-0.011666,0,0,0.43565,0.29988,0,-0.030333,0,0,0.89521,0.025168,0,0.89555,-0.97341,-1.0804,-1.3098,-6.2968,-1.1212,0.29769,-0.00078838,0.38,1,0
0.28325,0,0.67527,-1.0093,-1.0521,-1.2937,-0.013492,0,0,0.36967,0.31407,0,-0.03508,0,0,0.95096,0.033158,0,0.95154,-1.0054,-1.056,-1.2937,-16.123,-1.1184,0.2666,-0.00085633,0.4,1,0
0.28983,0,0.65562,-1.0559,-0.9816,-1.2669,-0.01655,0,0,0.2743,0.37084,0,-0.043029,0,0,1.0144,0.035292,0,1.0151,-0.97808,-1.0594,-1.2669,-77.988,-1.1014,0.25793,-0.0005951,0.42,1,0
0.29422,0,0.63469,-1.1054,-0.86944,-1.2271,-0.014203,0,0,0.15827,0.465,0,-0.036927,0,0,1.0742,0.028361,0,1.0746,-0.86859,-1.1062,-1.2271,-86.568,-1.0673,0.31595,0.00085699,0.44,1,0
0.29616,0,0.61265,-1.1535,-0.76642,-1.1886,-0.01072,0,0,0.045641,0.54888,0,-0.027873,0,0,1.121,0.018885,0,1.1212,-0.76612,-1.1538,-1.1886,-88.415,-1.0362,0.40623,0.0033579,0.46,1,0
0.29605,0,0.58985,-1.1906,-0.6977,-1.1563,-0.0062779,0,0,-0.044575,0.59624,0,-0.016323,0,0,1.1523,0.010636,0,1.1523,-0.69762,-1.1907,-1.1563,-89.27,-1.0149,0.47684,0.0054712,0.48,1,0
0.29438,0,0.56656,-1.2145,-0.6579,-1.1283,-0.0055061,0,0,-0.11203,0.61148,0,-0.014316,0,0,1.1713,0.0064093,0,1.1713,-0.65784,-1.2145,-1.1283,-89.433,-1.0002,0.51894,0.0065144,0.5,1,0
0.29157,0,0.543,-1.2269,-0.63003,-1.1001,-0.0056176,0,0,-0.16487,0.61106,0,-0.014606,0,0,1.1825,0.0039426,0,1.1825,-0.62998,-1.2269,-1.1001,-89.461,-0.98567,0.54473,0.0068079,0.52,1,0
0.28778,0,0.51926,-1.2351,-0.60854,-1.0723,-0.005887,0,0,-0.21156,0.60295,0,-0.015306,0,0,1.1894,0.0024187,0,1.1894,-0.60849,-1.2351,-1.0723,-89.462,-0.972,0.56319,0.0066561,0.54,1,0
0.2831,0,0.49542,-1.2416,-0.5902,-1.045,-0.006048,0,0,-0.25559,0.59118,0,-0.015725,0,0,1.1935,0.0014139,0,1.1935,-0.59014,-1.2416,-1.045,-89.468,-0.9589,0.57877,0.0062199,0.56,1,0
0.27756,0,0.47152,-1.2473,-0.57346,-1.0177,-0.0060783,0,0,-0.2984,0.57757,0,-0.015804,0,0,1.1958,0.00071467,0,1.1958,-0.5734,-1.2473,-1.0177,-89.483,-0.94616,0.59344,0.005572,0.58,1,0
0.27117,0,0.44759,-1.2525,-0.55756,-0.99061,-0.0060097,0,0,-0.34047,0.56297,0,-0.015625,0,0,1.1968,0.0002035,0,1.1968,-0.55751,-1.2526,-0.99061,-89.505,-0.93356,0.60799,0.0047452,0.6,1,0
0.26394,0,0.42365,-1.2573,-0.54217,-0.96349,-0.0058778,0,0,-0.38195,0.54772,0,-0.015282,0,0,1.1969,-0.00018895,0,1.1969,-0.54212,-1.2573,-0.96349,-89.529,-0.92098,0.62267,0.0037557,0.62,1,0
0.25589,0,0.39972,-1.2616,-0.52711,-0.93633,-0.0057066,0,0,-0.42285,0.53198,0,-0.014837,0,0,1.1962,-0.00050702,0,1.1962,-0.52706,-1.2616,-0.93633,-89.555,-0.90834,0.63754,0.0026136,0.64,1,0
0.24703,0,0.3758,-1.2654,-0.51232,-0.90911,-0.0055094,0,0,-0.46314,0.51583,0,-0.014325,0,0,1.1949,-0.00078147,0,1.1949,-0.51228,-1.2654,-0.90911,-89.581,-0.8956,0.65255,0.0013278,0.66,1,0
0.23736,0,0.35192,-1.2686,-0.49777,-0.88182,-0.0052909,0,0,-0.50277,0.49927,0,-0.013756,0,0,1.1931,-0.0010358,0,1.1931,-0.49773,-1.2686,-0.88182,-89.607,-0.88272,0.6676,-9.2646e-05,0.68,1,0
0.22692,0,0.32808,-1.2711,-0.48346,-0.85446,-0.0050503,0,0,-0.54169,0.48229,0,-0.013131,0,0,1.1908,-0.0012901,0,1.1908,-0.48343,-1.2712,-0.85446,-89.633,-0.86969,0.68259,-0.0016376,0.7,1,0
0.2157,0,0.30429,-1.273,-0.46943,-0.82702,-0.004783,0,0,-0.5798,0.46487,0,-0.012436,0,0,1.1879,-0.0015638,0,1.1879,-0.4694,-1.2731,-0.82702,-89.659,-0.85649,0.69738,-0.0032947,0.72,1,0
0.20372,0,0.28056,-1.2741,-0.45571,-0.7995,-0.0044799,0,0,-0.61698,0.44693,0,-0.011648,0,0,1.1845,-0.0018785,0,1.1845,-0.45569,-1.2741,-0.7995,-89.686,-0.8431,0.7118,-0.0050482,0.74,1,0
0.19102,0,0.25691,-1.2742,-0.44239,-0.77189,-0.0041259,0,0,-0.65303,0.42835,0,-0.010727,0,0,1.1803,-0.0022614,0,1.1803,-0.44237,-1.2743,-0.77189,-89.716,-0.8295,0.72559,-0.0068775,0.76,1,0
0.1776,0,0.23335,-1.2732,-0.42962,-0.74418,-0.0036936,0,0,-0.68767,0.40893,0,-0.0096033,0,0,1.1751,-0.0027507,0,1.1751,-0.4296,-1.2732,-0.74418,-89.749,-0.81565,0.73838,-0.0087527,0.78,1,0
0.16351,0,0.2099,-1.2705,-0.41761,-0.71632,-0.003131,0,0,-0.72038,0.38833,0,-0.0081407,0,0,1.1688,-0.0034059,0,1.1688,-0.4176,-1.2705,-0.71632,-89.79,-0.80147,0.74957,-0.010628,0.8,1,0
0.14879,0,0.1866,-1.2654,-0.40675,-0.68825,-0.0023364,0,0,-0.75033,0.36594,0,-0.0060746,0,0,1.1609,-0.0043278,0,1.1609,-0.40675,-1.2654,-0.68825,-89.844,-0.78681,0.7582,-0.012431,0.82,1,0
0.1335,0,0.16347,-1.2568,-0.3976,-0.65979,-0.0011153,0,0,-0.77612,0.34084,0,-0.0028998,0,0,1.1504,-0.0057023,0,1.1504,-0.3976,-1.2568,-0.65979,-89.926,-0.7714,0.76269,-0.014041,0.84,1,0
0.11774,0,0.14058,-1.2427,-0.39098,-0.63068,0.00089567,0,0,-0.79563,0.31161,0,0.0023287,0,0,1.136,-0.0079046,0,1.136,-0.39098,-1.2427,-0.63068,89.94,-0.75479,0.76074,-0.015275,0.86,1,0
0.10167,0,0.11803,-1.2206,-0.38757,-0.60047,0.0041905,0,0,-0.80614,0.27677,0,0.010895,0,0,1.1147,-0.011666,0,1.1148,-0.38755,-1.2206,-0.60047,89.712,-0.7362,0.74963,-0.015895,0.88,1,0
0.085496,0,0.095989,-1.1946,-0.38975,-0.57128,0.0093923,0,0,-0.81026,0.23599,0,0.02442,0,0,1.0825,-0.019062,0,1.0827,-0.38964,-1.1947,-0.57128,89.332,-0.71853,0.73133,-0.015988,0.9,1,0
0.069262,0,0.074726,-1.1675,-0.38236,-0.53969,0.011717,0,0,-0.81618,0.20453,0,0.030464,0,0,1.0369,-0.027273,0,1.0373,-0.38218,-1.1677,-0.53969,89.145,-0.69652,0.7198,-0.016105,0.92,1,0
0.052849,0,0.054513,-1.1433,-0.34697,-0.50159,0.013172,0,0,-0.83421,0.20101,0,0.034248,0,0,0.98146,-0.032431,0,0.982,-0.34675,-1.1435,-0.50159,89.053,-0.66395,0.73173,-0.017124,0.94,1,0
0.035893,0,0.035467,-1.1238,-0.28829,-0.4591,0.01036,0,0,-0.86414,0.22206,0,0.026937,0,0,0.9268,-0.027886,0,0.92721,-0.28816,-1.124,-0.4591,89.29,-0.62374,0.76479,-0.019162,0.96,1,0
0.018283,0,0.017441,-1.1131,-0.23827,-0.42285,0.0070654,0,0,-0.89733,0.23996,0,0.01837,0,0,0.88668,-0.016075,0,0.88681,-0.23822,-1.1132,-0.42285,89.537,-0.59141,0.7988,-0.021537,0.98,1,0
0,0,0,-1.0898,-0.19883,-0.38659,1.9082e-17,0,0,-0.91417,0.24409,0,4.8572e-17,0,0,0.87203,1.7347e-17,0,0.87201,-0.19883,-1.0898,-0.38659,90,-0.5584,0.8135,-0.022763,1,1,0
