"Displacements:0","Displacements:1","Displacements:2","Stress/Strain:0","Stress/Strain:1","Stress/Strain:2","Stress/Strain:3","Stress/Strain:4","Stress/Strain:5","Stress/Strain:6","Stress/Strain:7","Stress/Strain:8","Stress/Strain:9","Stress/Strain:10","Stress/Strain:11","Stress/Strain:12","Stress/Strain:13","Stress/Strain:14","Stress/Strain:15","Principal Stress:0","Principal Stress:1","Principal Stress:2","Principal Stress:3","Principal Stress:4","Principal Stress:5","Principal Stress:6","nodes:0","nodes:1","nodes:2"
0,0,1,-0.93173,-1.4925,-1.7273,2.125e-17,0,0,1.0342,0.30524,0,5.3776e-17,0,0,0.88893,4.3021e-16,0,0.88893,-0.93173,-1.4925,-1.7273,2.1714e-15,-1.3838,0.70796,0.011696,0,0,0
0.020684,0,0.98222,-0.9126,-1.452,-1.6916,0.0005147,0,0,1.0127,0.31147,0,0.0013382,0,0,0.89346,-0.0046739,0,0.89348,-0.9126,-1.452,-1.6916,0.054671,-1.3521,0.6911,0.01034,0.02,0,0
0.040508,0,0.96426,-0.92246,-1.4085,-1.6635,0.0013033,0,0,0.96341,0.33159,0,0.0033886,0,0,0.90664,-0.0089329,0,0.90668,-0.92245,-1.4085,-1.6635,0.15365,-1.3315,0.65211,0.0072499,0.04,0,0
0.05922,0,0.94596,-0.94048,-1.3495,-1.6329,0.0024492,0,0,0.90021,0.36848,0,0.0063679,0,0,0.92714,-0.012308,0,0.92722,-0.94047,-1.3495,-1.6329,0.34306,-1.3076,0.60299,0.003468,0.06,0,0
0.076517,0,0.92718,-0.96689,-1.2725,-1.599,0.0038068,0,0,0.82175,0.42441,0,0.0098978,0,0,0.95282,-0.014347,0,0.95293,-0.96684,-1.2726,-1.599,0.71348,-1.2795,0.54757,-0.00047751,0.08,0,0
0.09209,0,0.90784,-1.0002,-1.1785,-1.5615,0.0048795,0,0,0.72966,0.49778,0,0.012687,0,0,0.98092,-0.014789,0,0.98103,-1.0001,-1.1787,-1.5615,1.5658,-1.2467,0.4968,-0.0036631,0.1,0,0
0.1057,0,0.88794,-1.037,-1.0746,-1.5214,0.0051873,0,0,0.62975,0.58088,0,0.013487,0,0,1.0086,-0.013726,0,1.0087,-1.0363,-1.0753,-1.5214,7.7137,-1.211,0.46685,-0.005103,0.12,0,0
0.11728,0,0.8675,-1.0728,-0.97227,-1.481,0.004576,0,0,0.53069,0.66138,0,0.011898,0,0,1.0333,-0.011583,0,1.0334,-0.97206,-1.073,-1.481,87.399,-1.1754,0.46675,-0.0044101,0.14,0,0
0.12693,0,0.84661,-1.1032,-0.88273,-1.4424,0.0034742,0,0,0.44091,0.72757,0,0.009033,0,0,1.0536,-0.0089196,0,1.0537,-0.88267,-1.1033,-1.4424,89.098,-1.1428,0.48834,-0.0021342,0.16,0,0
0.13492,0,0.82535,-1.1252,-0.81236,-1.4066,0.0023989,0,0,0.36586,0.77253,0,0.0062372,0,0,1.0688,-0.0061838,0,1.0688,-0.81234,-1.1252,-1.4066,89.561,-1.1147,0.5149,0.00064161,0.18,0,0
0.14156,0,0.80385,-1.1374,-0.76271,-1.3739,0.0016787,0,0,0.30739,0.79455,0,0.0043646,0,0,1.0786,-0.0035886,0,1.0787,-0.7627,-1.1375,-1.3739,89.743,-1.0914,0.53381,0.0029682,0.2,0,0
0.14721,0,0.78221,-1.1402,-0.73252,-1.344,0.0012494,0,0,0.26501,0.79494,0,0.0032484,0,0,1.0834,-0.0011294,0,1.0834,-0.73252,-1.1402,-1.344,89.824,-1.0722,0.53929,0.0043489,0.22,0,0
0.15217,0,0.76052,-1.1341,-0.72002,-1.3168,0.00086134,0,0,0.23744,0.77576,0,0.0022395,0,0,1.0832,0.0013097,0,1.0832,-0.72002,-1.1341,-1.3168,89.881,-1.057,0.52959,0.0046824,0.24,0,0
0.15671,0,0.73888,-1.1201,-0.7237,-1.292,0.00027682,0,0,0.22351,0.73881,0,0.00071974,0,0,1.078,0.0038414,0,1.078,-0.7237,-1.1201,-1.292,89.96,-1.0453,0.5048,0.0041159,0.26,0,0
0.16111,0,0.7174,-1.0991,-0.74193,-1.2697,-0.00056163,0,0,0.22176,0.68613,0,-0.0014602,0,0,1.0677,0.0064643,0,1.0677,-0.74193,-1.0991,-1.2697,-89.91,-1.0369,0.46651,0.0029622,0.28,0,0
0.16558,0,0.69617,-1.073,-0.77147,-1.2495,-0.001412,0,0,0.2295,0.62144,0,-0.0036712,0,0,1.0525,0.0089672,0,1.0525,-0.77147,-1.073,-1.2495,-89.732,-1.0313,0.41868,0.0016377,0.3,0,0
0.17029,0,0.6753,-1.0442,-0.80657,-1.2305,-0.001942,0,0,0.24225,0.55114,0,-0.0050491,0,0,1.0331,0.010926,0,1.0332,-0.80655,-1.0442,-1.2305,-89.532,-1.0271,0.36806,0.00053196,0.32,0,0
0.17527,0,0.65485,-1.0158,-0.83956,-1.2114,-0.0018948,0,0,0.25438,0.48346,0,-0.0049265,0,0,1.0112,0.011839,0,1.0112,-0.83954,-1.0158,-1.2114,-89.384,-1.0223,0.32223,-0.00015498,0.34,0,0
0.18046,0,0.63485,-0.99054,-0.86377,-1.1911,-0.0013999,0,0,0.26079,0.42558,0,-0.0036398,0,0,0.98887,0.011374,0,0.98893,-0.86376,-0.99055,-1.1911,-89.367,-1.0151,0.28591,-0.00045445,0.36,0,0
0.1857,0,0.61529,-0.97039,-0.87623,-1.1693,-0.00070429,0,0,0.25855,0.38096,0,-0.0018311,0,0,0.96871,0.0095544,0,0.96876,-0.87622,-0.9704,-1.1693,-89.572,-1.0053,0.25914,-0.0005122,0.38,0,0
0.1908,0,0.5961,-0.95609,-0.87737,-1.1461,-2.9843e-05,0,0,0.24707,0.3494,0,-7.7592e-05,0,0,0.95285,0.0067654,0,0.95288,-0.87737,-0.95609,-1.1461,-89.978,-0.9932,0.23932,-0.00045583,0.4,0,0
0.19558,0,0.57718,-0.94747,-0.86907,-1.1221,0.00061834,0,0,0.22707,0.32899,0,0.0016077,0,0,0.94262,0.0035683,0,0.94262,-0.86906,-0.94748,-1.1221,89.548,-0.97956,0.22439,-0.00035045,0.42,0,0
0.19989,0,0.5584,-0.94399,-0.85285,-1.0975,0.0012817,0,0,0.19949,0.31798,0,0.0033326,0,0,0.93836,0.00048921,0,0.93836,-0.85283,-0.94401,-1.0975,89.195,-0.96476,0.21412,-0.0002137,0.44,0,0
0.20356,0,0.53964,-0.94511,-0.82956,-1.072,0.0019862,0,0,0.16501,0.31523,0,0.0051642,0,0,0.9396,-0.0021104,0,0.9396,-0.82952,-0.94515,-1.072,89.016,-0.9489,0.21011,-3.8301e-05,0.46,0,0
0.20649,0,0.52081,-0.9503,-0.79973,-1.0458,0.0026799,0,0,0.12418,0.31992,0,0.0069679,0,0,0.9453,-0.0040481,0,0.94531,-0.79969,-0.95035,-1.0458,88.981,-0.93195,0.21494,0.00019212,0.48,0,0
0.20853,0,0.50183,-0.95892,-0.7642,-1.0188,0.0032707,0,0,0.077805,0.33093,0,0.0085037,0,0,0.95419,-0.0052828,0,0.9542,-0.76415,-0.95897,-1.0188,89.038,-0.91396,0.23061,0.00049001,0.5,0,0
0.2096,0,0.48265,-0.97004,-0.72438,-0.99097,0.0036665,0,0,0.027214,0.34657,0,0.0095329,0,0,0.96495,-0.0058704,0,0.96496,-0.72432,-0.97009,-0.99097,89.145,-0.89513,0.25684,0.00085087,0.52,0,0
0.20962,0,0.46323,-0.98251,-0.68224,-0.96266,0.0038188,0,0,-0.025806,0.36454,0,0.0099289,0,0,0.97644,-0.0059281,0,0.97646,-0.68219,-0.98256,-0.96266,89.272,-0.8758,0.29092,0.0012447,0.54,0,0
0.20857,0,0.44359,-0.99511,-0.64,-0.93412,0.00374,0,0,-0.079287,0.38236,0,0.0097239,0,0,0.98776,-0.0056018,0,0.98778,-0.63996,-0.99515,-0.93412,89.397,-0.85641,0.32895,0.0016181,0.56,0,0
0.20645,0,0.42372,-1.0067,-0.5996,-0.90562,0.0034934,0,0,-0.13144,0.39783,0,0.0090827,0,0,0.99828,-0.0050351,0,0.99829,-0.59957,-1.0068,-0.90562,89.508,-0.83732,0.36722,0.0019079,0.58,0,0
0.20331,0,0.40366,-1.0166,-0.56245,-0.87736,0.0031622,0,0,-0.18095,0.40938,0,0.0082217,0,0,1.0076,-0.0043472,0,1.0076,-0.56243,-1.0166,-0.87736,89.601,-0.81878,0.40299,0.0020591,0.6,0,0
0.19921,0,0.38342,-1.0241,-0.5293,-0.84944,0.002819,0,0,-0.22706,0.41618,0,0.0073294,0,0,1.0156,-0.003622,0,1.0156,-0.52929,-1.0241,-0.84944,89.674,-0.80095,0.43466,0.0020384,0.62,0,0
0.19423,0,0.36303,-1.0292,-0.50033,-0.82191,0.0025076,0,0,-0.26954,0.41805,0,0.0065199,0,0,1.0221,-0.0029083,0,1.0221,-0.50032,-1.0292,-0.82191,89.728,-0.78382,0.46162,0.0018372,0.64,0,0
0.18843,0,0.34253,-1.0321,-0.47532,-0.79475,0.0022425,0,0,-0.30852,0.41526,0,0.0058305,0,0,1.0273,-0.002227,0,1.0273,-0.47531,-1.0321,-0.79475,89.769,-0.76738,0.48393,0.0014672,0.66,0,0
0.18188,0,0.32194,-1.0328,-0.45385,-0.76794,0.002016,0,0,-0.34433,0.40832,0,0.0052416,0,0,1.0311,-0.0015798,0,1.0311,-0.45384,-1.0328,-0.76794,89.8,-0.75153,0.50202,0.00095263,0.68,0,0
0.17466,0,0.30129,-1.0317,-0.43541,-0.74143,0.0018096,0,0,-0.37738,0.39782,0,0.0047049,0,0,1.0336,-0.00095722,0,1.0336,-0.43541,-1.0317,-0.74143,89.826,-0.73619,0.51649,0.00032309,0.7,0,0
0.16679,0,0.2806,-1.029,-0.4195,-0.71516,0.0016019,0,0,-0.40804,0.38436,0,0.0041649,0,0,1.035,-0.00034423,0,1.035,-0.4195,-1.029,-0.71516,89.849,-0.72123,0.52796,-0.00039107,0.72,0,0
0.15833,0,0.25989,-1.025,-0.40561,-0.68907,0.001375,0,0,-0.43667,0.36849,0,0.0035749,0,0,1.035,0.00027608,0,1.035,-0.40561,-1.025,-0.68907,89.873,-0.70655,0.53702,-0.0011615,0.74,0,0
0.14932,0,0.2392,-1.0197,-0.39325,-0.66308,0.001118,0,0,-0.4636,0.35078,0,0.0029068,0,0,1.0338,0.00091922,0,1.0338,-0.39325,-1.0197,-0.66308,89.898,-0.69201,0.54425,-0.0019636,0.76,0,0
0.13979,0,0.21854,-1.0134,-0.38192,-0.63714,0.00083069,0,0,-0.48916,0.33179,0,0.0021598,0,0,1.0312,0.0015957,0,1.0313,-0.38192,-1.0134,-0.63714,89.925,-0.67749,0.55023,-0.002778,0.78,0,0
0.12976,0,0.19795,-1.0064,-0.37106,-0.61117,0.00052546,0,0,-0.51374,0.31215,0,0.0013662,0,0,1.0273,0.002306,0,1.0273,-0.37106,-1.0064,-0.61117,89.953,-0.66286,0.55562,-0.0035923,0.8,0,0
0.11924,0,0.17745,-0.99881,-0.36002,-0.5851,0.00022779,0,0,-0.53783,0.2926,0,0.00059226,0,0,1.022,0.0030342,0,1.022,-0.36002,-0.99881,-0.5851,89.98,-0.64797,0.56119,-0.0044044,0.82,0,0
0.10824,0,0.15707,-0.99116,-0.34804,-0.55883,-2.789e-05,0,0,-0.56203,0.27403,0,-7.2515e-05,0,0,1.0153,0.0037404,0,1.0153,-0.34804,-0.99116,-0.55883,-89.998,-0.63267,0.56787,-0.0052246,0.84,0,0
0.096759,0,0.13684,-0.98384,-0.3343,-0.53228,-0.00020785,0,0,-0.58703,0.25738,0,-0.0005404,0,0,1.0072,0.0043567,0,1.0073,-0.3343,-0.98384,-0.53228,-89.982,-0.61681,0.57664,-0.0060771,0.86,0,0
0.084763,0,0.11678,-0.97729,-0.31804,-0.50538,-0.00029318,0,0,-0.61349,0.24354,0,-0.00076227,0,0,0.99826,0.0047899,0,0.99828,-0.31804,-0.97729,-0.50538,-89.975,-0.60024,0.58839,-0.0069983,0.88,0,0
0.07222,0,0.096906,-0.97184,-0.29878,-0.47809,-0.00028991,0,0,-0.64187,0.2331,0,-0.00075376,0,0,0.98876,0.0049359,0,0.98877,-0.29878,-0.97184,-0.47809,-89.975,-0.5829,0.60371,-0.0080307,0.9,0,0
0.059088,0,0.077227,-0.96762,-0.27646,-0.45045,-0.00022893,0,0,-0.67232,0.22619,0,-0.00059522,0,0,0.97939,0.004704,0,0.9794,-0.27646,-0.96762,-0.45045,-89.981,-0.56485,0.62267,-0.0092128,0.92,0,0
0.045327,0,0.057731,-0.96457,-0.25155,-0.42257,-0.00015068,0,0,-0.70461,0.22232,0,-0.00039176,0,0,0.97092,0.0040452,0,0.97093,-0.25155,-0.96457,-0.42257,-89.988,-0.54623,0.64476,-0.01057,0.94,0,0
0.030904,0,0.038391,-0.96246,-0.22489,-0.39459,-8.5666e-05,0,0,-0.73822,0.22062,0,-0.00022273,0,0,0.96415,0.0029742,0,0.96415,-0.22489,-0.96246,-0.39459,-89.993,-0.52731,0.66906,-0.01211,0.96,0,0
0.015798,0,0.019165,-0.96098,-0.19739,-0.36668,-4.063e-05,0,0,-0.77259,0.22007,0,-0.00010564,0,0,0.95976,0.0015772,0,0.95976,-0.19739,-0.96098,-0.36668,-89.997,-0.50835,0.69459,-0.013826,0.98,0,0
0,0,0,-0.93643,-0.15963,-0.32882,-2.1352e-17,0,0,-0.7899,0.21995,0,-5.5593e-17,0,0,0.95825,3.2092e-17,0,0.95825,-0.15963,-0.93643,-0.32882,-90,-0.47496,0.70755,-0.014745,1,0,0
0,0.0061048,1,-0.93137,-1.495,-1.7279,0.0023941,0,0,1.0355,0.30274,0,0.0062248,0,0,0.88426,6.8044e-16,0,0.88424,-0.93136,-1.4951,-1.7279,0.24335,-1.3848,0.7094,0.011897,0,0.02,0
0.02071,0.0062293,0.98232,-0.9122,-1.4551,-1.6925,0.0060697,0,0,1.0144,0.30861,0,0.015781,0,0,0.889,-0.0095374,0,0.88905,-0.91213,-1.4552,-1.6925,0.64045,-1.3533,0.6929,0.010574,0.02,0.02,0
0.040576,0.0066318,0.96444,-0.92172,-1.4126,-1.6647,0.013485,0,0,0.96592,0.32777,0,0.03506,0,0,0.90282,-0.018298,0,0.90305,-0.92135,-1.413,-1.6647,1.5723,-1.333,0.65487,0.0075705,0.04,0.02,0
0.059347,0.0073696,0.9462,-0.9395,-1.3547,-1.6345,0.022643,0,0,0.90347,0.36366,0,0.058871,0,0,0.92443,-0.02532,0,0.92487,-0.93827,-1.356,-1.6345,3.112,-1.3096,0.60694,0.003881,0.06,0.02,0
0.076715,0.0084882,0.92746,-0.96608,-1.2778,-1.6006,0.032386,0,0,0.82491,0.41968,0,0.084203,0,0,0.95158,-0.029564,0,0.95216,-0.96275,-1.2811,-1.6006,5.8692,-1.2815,0.55241,-2.6379e-05,0.08,0.02,0
0.092344,0.0099557,0.90814,-0.99993,-1.1816,-1.5626,0.039841,0,0,0.73146,0.49532,0,0.10359,0,0,0.98123,-0.030402,0,0.98183,-0.99158,-1.1899,-1.5626,11.843,-1.248,0.50213,-0.00325,0.1,0.02,0
0.10597,0.011617,0.88821,-1.0374,-1.0736,-1.5215,0.04173,0,0,0.62935,0.58228,0,0.1085,0,0,1.0102,-0.028015,0,1.0107,-1.01,-1.101,-1.5215,33.272,-1.2108,0.47263,-0.0047521,0.12,0.02,0
0.11752,0.013227,0.86773,-1.0737,-0.96788,-1.4802,0.037109,0,0,0.52846,0.66602,0,0.096483,0,0,1.0357,-0.023399,0,1.0361,-0.95616,-1.0854,-1.4802,72.478,-1.1739,0.47286,-0.0040933,0.14,0.02,0
0.12711,0.014551,0.84678,-1.1041,-0.877,-1.4411,0.027914,0,0,0.43808,0.73337,0,0.072577,0,0,1.0563,-0.017823,0,1.0565,-0.87362,-1.1075,-1.4411,83.096,-1.1408,0.494,-0.0018489,0.16,0.02,0
0.13504,0.015451,0.82548,-1.1257,-0.80707,-1.4053,0.017341,0,0,0.36352,0.7777,0,0.045087,0,0,1.0715,-0.012259,0,1.0715,-0.80613,-1.1266,-1.4053,86.894,-1.1127,0.51932,0.00086626,0.18,0.02,0
0.14165,0.015891,0.80393,-1.1373,-0.75836,-1.3726,0.0075125,0,0,0.3059,0.79855,0,0.019533,0,0,1.0812,-0.0070911,0,1.0812,-0.75821,-1.1375,-1.3726,88.865,-1.0894,0.53696,0.0031241,0.2,0.02,0
0.14728,0.015899,0.78223,-1.1398,-0.72884,-1.3428,-0.0010208,0,0,0.26395,0.79817,0,-0.002654,0,0,1.0859,-0.0022494,0,1.0859,-0.72884,-1.1398,-1.3428,-89.858,-1.0705,0.54179,0.004471,0.22,0.02,0
0.15221,0.015515,0.76049,-1.1339,-0.71642,-1.3156,-0.0087648,0,0,0.23618,0.77893,0,-0.022789,0,0,1.0857,0.0025542,0,1.0857,-0.71623,-1.1341,-1.3156,-88.798,-1.0553,0.53234,0.0048214,0.24,0.02,0
0.15672,0.014776,0.7388,-1.1204,-0.71992,-1.2909,-0.016269,0,0,0.22167,0.74227,0,-0.042298,0,0,1.0806,0.0075996,0,1.0806,-0.71926,-1.121,-1.2909,-87.677,-1.0437,0.50845,0.0042989,0.26,0.02,0
0.16108,0.013723,0.71727,-1.0998,-0.73831,-1.2687,-0.023287,0,0,0.21956,0.68951,0,-0.060546,0,0,1.0703,0.01294,0,1.0704,-0.73681,-1.1013,-1.2687,-86.329,-1.0356,0.47105,0.0031726,0.28,0.02,0
0.16551,0.012429,0.69599,-1.0737,-0.76916,-1.2489,-0.028566,0,0,0.2277,0.6236,0,-0.074272,0,0,1.0547,0.018186,0,1.0549,-0.7665,-1.0763,-1.2489,-84.687,-1.0306,0.42333,0.0018297,0.3,0.02,0
0.17019,0.011023,0.67508,-1.0446,-0.80665,-1.2305,-0.030356,0,0,0.24163,0.55094,0,-0.078925,0,0,1.0346,0.022405,0,1.0349,-0.80284,-1.0484,-1.2305,-82.843,-1.0272,0.37168,0.00066929,0.32,0.02,0
0.17517,0.0096691,0.65461,-1.0157,-0.842,-1.2119,-0.027996,0,0,0.25508,0.4809,0,-0.072789,0,0,1.0114,0.024444,0,1.0118,-0.8376,-1.0201,-1.2119,-81.067,-1.0232,0.32421,-7.5356e-05,0.34,0.02,0
0.18039,0.0085116,0.63462,-0.99001,-0.86726,-1.1918,-0.022551,0,0,0.26234,0.4219,0,-0.058633,0,0,0.98773,0.023497,0,0.98808,-0.86325,-0.99402,-1.1918,-79.912,-1.0164,0.2865,-0.00041607,0.36,0.02,0
0.18566,0.0076193,0.6151,-0.96957,-0.8795,-1.1698,-0.016138,0,0,0.26033,0.37742,0,-0.041958,0,0,0.96641,0.019626,0,0.96666,-0.8767,-0.97237,-1.1698,-80.142,-1.0063,0.2589,-0.00049852,0.38,0.02,0
0.1908,0.006988,0.59597,-0.95518,-0.88011,-1.1466,-0.010146,0,0,0.24879,0.34637,0,-0.026381,0,0,0.94986,0.013719,0,0.94998,-0.87877,-0.95653,-1.1466,-82.436,-0.99395,0.23861,-0.00045608,0.4,0.02,0
0.19562,0.0065799,0.57711,-0.94653,-0.87147,-1.1225,-0.0049145,0,0,0.22877,0.32635,0,-0.012778,0,0,0.93948,0.0070432,0,0.93951,-0.87115,-0.94685,-1.1225,-86.27,-0.98017,0.22335,-0.00035849,0.42,0.02,0
0.19995,0.0063597,0.55839,-0.94302,-0.85516,-1.0978,-0.00016258,0,0,0.20127,0.31549,0,-0.00042272,0,0,0.93552,0.00070611,0,0.93552,-0.85516,-0.94302,-1.0978,-89.894,-0.96534,0.21282,-0.00022595,0.44,0.02,0
0.20367,0.0063047,0.53969,-0.94413,-0.83179,-1.0725,0.0043087,0,0,0.16683,0.31287,0,0.011203,0,0,0.93733,-0.0045744,0,0.93734,-0.83163,-0.9443,-1.0725,87.807,-0.94946,0.20871,-5.1901e-05,0.46,0.02,0
0.20663,0.0063984,0.52089,-0.94944,-0.80172,-1.0462,0.0083891,0,0,0.12585,0.31788,0,0.021812,0,0,0.94372,-0.0084634,0,0.94377,-0.80125,-0.94991,-1.0462,86.76,-0.93247,0.21378,0.00018058,0.48,0.02,0
0.2087,0.0066187,0.50194,-0.95829,-0.76567,-1.0191,0.011708,0,0,0.079087,0.32949,0,0.03044,0,0,0.95327,-0.010899,0,0.95335,-0.76496,-0.959,-1.0191,86.534,-0.91436,0.23007,0.00048439,0.5,0.02,0
0.20979,0.0069314,0.48276,-0.96974,-0.72511,-0.99122,0.013846,0,0,0.027927,0.34594,0,0.035999,0,0,0.96462,-0.01201,0,0.96472,-0.72433,-0.97052,-0.99122,86.771,-0.89536,0.25716,0.0008544,0.52,0.02,0
0.20982,0.0072908,0.46335,-0.98255,-0.68219,-0.96277,0.014556,0,0,-0.025711,0.36476,0,0.037845,0,0,0.97657,-0.012047,0,0.97667,-0.68148,-0.98325,-0.96277,87.232,-0.87584,0.29207,0.0012584,0.54,0.02,0
0.20876,0.0076472,0.4437,-0.99543,-0.63927,-0.93411,0.01389,0,0,-0.07971,0.38329,0,0.036113,0,0,0.98821,-0.011319,0,0.98829,-0.63873,-0.99597,-0.93411,87.77,-0.85627,0.33067,0.0016401,0.56,0.02,0
0.20663,0.0079566,0.42382,-1.0072,-0.59845,-0.90552,0.012163,0,0,-0.13219,0.39919,0,0.031625,0,0,0.99891,-0.010124,0,0.99897,-0.59809,-1.0076,-0.90552,88.297,-0.83706,0.36919,0.0019341,0.58,0.02,0
0.20347,0.0081875,0.40374,-1.0171,-0.56114,-0.87721,0.0098203,0,0,-0.18182,0.41089,0,0.025533,0,0,1.0083,-0.0087067,0,1.0084,-0.56093,-1.0173,-0.87721,88.767,-0.81847,0.40492,0.0020852,0.6,0.02,0
0.19936,0.0083235,0.38349,-1.0246,-0.52801,-0.84927,0.0072753,0,0,-0.22791,0.41763,0,0.018916,0,0,1.0163,-0.0072335,0,1.0163,-0.5279,-1.0247,-0.84927,89.161,-0.80062,0.43637,0.0020612,0.62,0.02,0
0.19436,0.008361,0.36309,-1.0296,-0.49916,-0.82173,0.0048224,0,0,-0.27029,0.41935,0,0.012538,0,0,1.0228,-0.0057975,0,1.0228,-0.49912,-1.0297,-0.82173,89.479,-0.78351,0.46305,0.0018554,0.64,0.02,0
0.18854,0.0083053,0.34258,-1.0324,-0.47431,-0.79459,0.0026156,0,0,-0.30916,0.41637,0,0.0068007,0,0,1.0279,-0.0044352,0,1.0279,-0.47429,-1.0324,-0.79459,89.731,-0.7671,0.48511,0.0014808,0.66,0.02,0
0.18199,0.0081665,0.32198,-1.0331,-0.45298,-0.7678,0.00069839,0,0,-0.3449,0.40926,0,0.0018158,0,0,1.0317,-0.0031464,0,1.0317,-0.45298,-1.0331,-0.7678,89.931,-0.7513,0.50301,0.00096205,0.68,0.02,0
0.17475,0.0079564,0.30131,-1.032,-0.43467,-0.74132,-0.00095211,0,0,-0.37792,0.39864,0,-0.0024755,0,0,1.0343,-0.0019094,0,1.0343,-0.43467,-1.032,-0.74132,-89.909,-0.736,0.51739,0.00032866,0.7,0.02,0
0.16687,0.0076871,0.2806,-1.0294,-0.41885,-0.71508,-0.0023848,0,0,-0.4086,0.3851,0,-0.0062005,0,0,1.0356,-0.00069232,0,1.0356,-0.41884,-1.0294,-0.71508,-89.776,-0.7211,0.52884,-0.00038946,0.72,0.02,0
0.1584,0.0073698,0.25989,-1.0254,-0.40502,-0.68901,-0.0036458,0,0,-0.4373,0.36919,0,-0.009479,0,0,1.0356,0.00054001,0,1.0356,-0.405,-1.0254,-0.68901,-89.663,-0.70648,0.53794,-0.0011644,0.74,0.02,0
0.14938,0.0070156,0.23918,-1.0202,-0.39272,-0.66306,-0.0047581,0,0,-0.46431,0.35144,0,-0.012371,0,0,1.0345,0.0018202,0,1.0345,-0.39269,-1.0203,-0.66306,-89.566,-0.692,0.54522,-0.0019715,0.76,0.02,0
0.13983,0.0066358,0.21851,-1.014,-0.38147,-0.63716,-0.0057079,0,0,-0.48993,0.33239,0,-0.014841,0,0,1.0319,0.0031717,0,1.0319,-0.38142,-1.0141,-0.63716,-89.483,-0.67755,0.55124,-0.0027911,0.78,0.02,0
0.12978,0.0062429,0.1979,-1.007,-0.37073,-0.61122,-0.0064376,0,0,-0.51452,0.31264,0,-0.016738,0,0,1.028,0.0045991,0,1.0281,-0.37067,-1.0071,-0.61122,-89.42,-0.66299,0.55659,-0.0036101,0.8,0.02,0
0.11925,0.005852,0.17739,-0.99945,-0.35987,-0.58518,-0.0068498,0,0,-0.53855,0.29291,0,-0.017809,0,0,1.0227,0.0060743,0,1.0227,-0.35979,-0.99952,-0.58518,-89.386,-0.64817,0.56202,-0.0044248,0.82,0.02,0
0.10824,0.0054805,0.15699,-0.99171,-0.34813,-0.55895,-0.0068333,0,0,-0.5626,0.27406,0,-0.017767,0,0,1.0159,0.0075209,0,1.016,-0.34806,-0.99179,-0.55895,-89.392,-0.63293,0.56842,-0.0052441,0.84,0.02,0
0.096748,0.0051475,0.13675,-0.98426,-0.33468,-0.53243,-0.0063128,0,0,-0.58738,0.25708,0,-0.016413,0,0,1.0078,0.0088023,0,1.0078,-0.33461,-0.98432,-0.53243,-89.443,-0.61712,0.57683,-0.0060916,0.86,0.02,0
0.084748,0.0048707,0.11668,-0.97754,-0.31867,-0.50555,-0.0053099,0,0,-0.6136,0.24294,0,-0.013806,0,0,0.99855,0.0097253,0,0.99861,-0.31863,-0.97758,-0.50555,-89.538,-0.60059,0.58821,-0.0070047,0.88,0.02,0
0.072205,0.0046621,0.096808,-0.97193,-0.29953,-0.47825,-0.003982,0,0,-0.64179,0.23233,0,-0.010353,0,0,0.98872,0.010068,0,0.98878,-0.29951,-0.97195,-0.47825,-89.661,-0.58324,0.60327,-0.0080286,0.9,0.02,0
0.059076,0.0045237,0.077133,-0.96759,-0.27717,-0.45056,-0.0025949,0,0,-0.67214,0.22541,0,-0.0067468,0,0,0.97894,0.0096331,0,0.979,-0.27716,-0.9676,-0.45056,-89.785,-0.56511,0.62214,-0.0092048,0.92,0.02,0
0.045319,0.0044465,0.05765,-0.96448,-0.25207,-0.42262,-0.0014265,0,0,-0.70442,0.22171,0,-0.003709,0,0,0.97005,0.0083094,0,0.9701,-0.25207,-0.96448,-0.42262,-89.885,-0.54639,0.6443,-0.01056,0.94,0.02,0
0.030899,0.0044123,0.038331,-0.96234,-0.22517,-0.39459,-0.00064389,0,0,-0.73808,0.22023,0,-0.0016741,0,0,0.96291,0.0061225,0,0.96293,-0.22517,-0.96234,-0.39459,-89.95,-0.52737,0.66875,-0.012101,0.96,0.02,0
0.015796,0.0044014,0.019133,-0.96086,-0.1975,-0.36664,-0.00023112,0,0,-0.77248,0.21988,0,-0.0006009,0,0,0.95827,0.0032506,0,0.95828,-0.1975,-0.96086,-0.36664,-89.983,-0.50833,0.69441,-0.013819,0.98,0.02,0
0,0.0043989,0,-0.93636,-0.15973,-0.32883,-4.6825e-05,0,0,-0.78979,0.21983,0,-0.00012175,0,0,0.95667,8.8905e-18,0,0.95667,-0.15973,-0.93636,-0.32883,-89.996,-0.47497,0.70741,-0.014739,1,0.02,0
0,0.01211,1,-0.93037,-1.5027,-1.7299,0.0045177,0,0,1.0394,0.29542,0,0.011746,0,0,0.86985,-7.8583e-16,0,0.86981,-0.93034,-1.5027,-1.7299,0.45226,-1.3877,0.71363,0.012486,0,0.04,0
0.020788,0.012345,0.9826,-0.91116,-1.4642,-1.6952,0.011616,0,0,1.0193,0.30032,0,0.030203,0,0,0.87517,-0.019736,0,0.87537,-0.91092,-1.4644,-1.6952,1.2028,-1.3569,0.69812,0.011255,0.02,0.04,0
0.040771,0.013111,0.96499,-0.91962,-1.4247,-1.6683,0.026034,0,0,0.97326,0.31669,0,0.067689,0,0,0.89086,-0.038265,0,0.89171,-0.91828,-1.426,-1.6683,2.943,-1.3375,0.66294,0.0085078,0.04,0.04,0
0.059718,0.014546,0.94697,-0.93675,-1.3708,-1.6392,0.044508,0,0,0.91321,0.349,0,0.11572,0,0,0.91587,-0.05353,0,0.91755,-0.93224,-1.3753,-1.6392,5.7954,-1.3156,0.61878,0.0051354,0.06,0.04,0
0.077299,0.016787,0.92836,-0.96392,-1.2947,-1.6059,0.065409,0,0,0.83464,0.40459,0,0.17006,0,0,0.94773,-0.062899,0,0.94999,-0.95146,-1.3072,-1.6059,10.788,-1.2882,0.56753,0.0014091,0.08,0.04,0
0.093104,0.019813,0.90906,-0.99966,-1.1916,-1.5664,0.08189,0,0,0.73681,0.48728,0,0.21291,0,0,0.98247,-0.064364,0,0.98474,-0.96947,-1.2218,-1.5664,20.236,-1.2526,0.51905,-0.0018958,0.1,0.04,0
0.10677,0.023291,0.88906,-1.039,-1.0698,-1.5217,0.085832,0,0,0.62753,0.58749,0,0.22316,0,0,1.0156,-0.058377,0,1.0174,-0.96716,-1.1416,-1.5217,39.913,-1.2101,0.49112,-0.0035989,0.12,0.04,0
0.11821,0.026641,0.86844,-1.0765,-0.95298,-1.4773,0.074542,0,0,0.52098,0.6816,0,0.19381,0,0,1.0435,-0.047577,0,1.0447,-0.91795,-1.1116,-1.4773,64.825,-1.1689,0.49199,-0.0030783,0.14,0.04,0
0.12761,0.029335,0.84732,-1.1068,-0.85916,-1.4371,0.054254,0,0,0.42936,0.75134,0,0.14106,0,0,1.0648,-0.0354,0,1.0654,-0.8478,-1.1182,-1.4371,78.171,-1.1344,0.51094,-0.00097284,0.16,0.04,0
0.13538,0.031108,0.82584,-1.1265,-0.79151,-1.4012,0.032514,0,0,0.35719,0.79265,0,0.084536,0,0,1.0795,-0.023952,0,1.0798,-0.78838,-1.1296,-1.4012,84.507,-1.1064,0.53189,0.001508,0.18,0.04,0
0.1419,0.031942,0.80414,-1.1361,-0.74621,-1.3688,0.013742,0,0,0.30254,0.80941,0,0.03573,0,0,1.0886,-0.013805,0,1.0887,-0.74573,-1.1366,-1.3688,87.984,-1.0837,0.54542,0.0035329,0.2,0.04,0
0.14748,0.031927,0.7823,-1.1377,-0.71856,-1.3392,-0.0019316,0,0,0.26196,0.80679,0,-0.0050222,0,0,1.0931,-0.0044638,0,1.0931,-0.71855,-1.1377,-1.3392,-89.736,-1.0651,0.54837,0.0047769,0.22,0.04,0
0.15238,0.031157,0.76041,-1.1327,-0.70627,-1.3121,-0.016179,0,0,0.23322,0.78759,0,-0.042066,0,0,1.0931,0.0048101,0,1.0931,-0.70566,-1.1333,-1.3121,-87.83,-1.0504,0.53974,0.0051899,0.24,0.04,0
0.15681,0.029691,0.73858,-1.121,-0.70862,-1.2875,-0.030622,0,0,0.21637,0.7525,0,-0.079617,0,0,1.0884,0.014737,0,1.0885,-0.70636,-1.1233,-1.2875,-85.777,-1.039,0.51888,0.004828,0.26,0.04,0
0.16103,0.027581,0.71688,-1.1021,-0.72681,-1.2656,-0.045329,0,0,0.21246,0.70038,0,-0.11786,0,0,1.0783,0.025755,0,1.0786,-0.72141,-1.1075,-1.2656,-83.21,-1.0315,0.48485,0.003826,0.28,0.04,0
0.16531,0.024944,0.69544,-1.0763,-0.76093,-1.2466,-0.057371,0,0,0.22143,0.63138,0,-0.14916,0,0,1.062,0.037246,0,1.0626,-0.75081,-1.0864,-1.2466,-80.003,-1.0279,0.43823,0.002456,0.3,0.04,0
0.16989,0.022038,0.6744,-1.0463,-0.80635,-1.2302,-0.062384,0,0,0.23902,0.55102,0,-0.1622,0,0,1.0394,0.04714,0,1.0405,-0.7911,-1.0616,-1.2302,-76.266,-1.0276,0.38368,0.0011283,0.32,0.04,0
0.17487,0.019236,0.65387,-1.016,-0.84998,-1.2137,-0.057515,0,0,0.25692,0.4728,0,-0.14954,0,0,1.0123,0.052226,0,1.0137,-0.83201,-1.034,-1.2137,-72.645,-1.0266,0.33072,0.00018812,0.34,0.04,0
0.18016,0.016876,0.63391,-0.98865,-0.87825,-1.194,-0.045824,0,0,0.26693,0.41045,0,-0.11914,0,0,0.98405,0.050283,0,0.98544,-0.86171,-1.0052,-1.194,-70.151,-1.0203,0.28865,-0.00028845,0.36,0.04,0
0.18555,0.015097,0.61451,-0.96723,-0.8894,-1.1715,-0.032365,0,0,0.26554,0.36672,0,-0.084148,0,0,0.95894,0.041394,0,0.95989,-0.8777,-0.97893,-1.1715,-70.125,-1.0094,0.2585,-0.00045063,0.38,0.04,0
0.19079,0.013855,0.59555,-0.95244,-0.88813,-1.1477,-0.02044,0,0,0.25386,0.33748,0,-0.053144,0,0,0.94027,0.028115,0,0.9407,-0.88218,-0.95839,-1.1477,-73.78,-0.9961,0.23682,-0.0004516,0.4,0.04,0
0.1957,0.013054,0.5769,-0.94367,-0.87869,-1.1236,-0.01009,0,0,0.23392,0.31838,0,-0.026234,0,0,0.9296,0.013576,0,0.92969,-0.87716,-0.9452,-1.1236,-81.373,-0.98199,0.22045,-0.00037868,0.42,0.04,0
0.20014,0.012619,0.55837,-0.93994,-0.86222,-1.099,-0.00052863,0,0,0.2068,0.30784,0,-0.0013744,0,0,0.92674,0.00022895,0,0.92673,-0.86221,-0.93995,-1.099,-89.61,-0.96706,0.20907,-0.0002601,0.44,0.04,0
0.20397,0.012515,0.53983,-0.94104,-0.8387,-1.0737,0.00868,0,0,0.17252,0.30557,0,0.022568,0,0,0.93043,-0.010625,0,0.93049,-0.83797,-0.94178,-1.0737,85.186,-0.95116,0.20468,-9.0331e-05,0.46,0.04,0
0.20705,0.012715,0.52115,-0.94672,-0.80789,-1.0475,0.017197,0,0,0.13106,0.31154,0,0.044712,0,0,0.93898,-0.018442,0,0.93917,-0.80579,-0.94882,-1.0475,83.043,-0.93405,0.21053,0.00014909,0.48,0.04,0
0.20922,0.01318,0.50227,-0.95637,-0.77022,-1.0202,0.024143,0,0,0.083038,0.32503,0,0.062773,0,0,0.95064,-0.023166,0,0.95094,-0.76714,-0.95945,-1.0202,82.729,-0.91561,0.22885,0.00047219,0.5,0.04,0
0.21037,0.013838,0.48313,-0.96886,-0.72731,-0.99198,0.028543,0,0,0.030051,0.34407,0,0.074213,0,0,0.9638,-0.025114,0,0.96415,-0.72398,-0.97219,-0.99198,83.352,-0.89605,0.25867,0.00087138,0.52,0.04,0
0.21042,0.01459,0.46371,-0.98274,-0.68187,-0.9631,0.029852,0,0,-0.025533,0.3656,0,0.077615,0,0,0.97713,-0.024856,0,0.97747,-0.67894,-0.98567,-0.9631,84.388,-0.8759,0.29609,0.0013071,0.54,0.04,0
0.20935,0.015331,0.44404,-0.99645,-0.63691,-0.93405,0.028233,0,0,-0.081119,0.38628,0,0.073407,0,0,0.98969,-0.023082,0,0.98997,-0.63471,-0.99865,-0.93405,85.537,-0.8558,0.33633,0.0017135,0.56,0.04,0
0.20717,0.015967,0.42413,-1.0087,-0.59486,-0.90519,0.024461,0,0,-0.13455,0.40343,0,0.063598,0,0,1.0009,-0.020442,0,1.0011,-0.59342,-1.0101,-0.90519,86.629,-0.83625,0.37541,0.0020185,0.58,0.04,0
0.20396,0.016435,0.40401,-1.0187,-0.55712,-0.87674,0.019536,0,0,-0.18449,0.4155,0,0.050793,0,0,1.0105,-0.017444,0,1.0107,-0.55629,-1.0195,-0.87674,87.581,-0.8175,0.41085,0.0021668,0.6,0.04,0
0.19979,0.016705,0.38371,-1.026,-0.52412,-0.84874,0.014338,0,0,-0.23042,0.422,0,0.037279,0,0,1.0185,-0.014411,0,1.0186,-0.52371,-1.0264,-0.84874,88.365,-0.79962,0.44153,0.0021312,0.62,0.04,0
0.19475,0.016774,0.36327,-1.0308,-0.49569,-0.82121,0.009439,0,0,-0.27245,0.42318,0,0.024541,0,0,1.0249,-0.011509,0,1.025,-0.49552,-1.031,-0.82121,88.99,-0.78256,0.46731,0.0019106,0.64,0.04,0
0.1889,0.016655,0.34271,-1.0333,-0.47133,-0.7941,0.0051029,0,0,-0.31098,0.41961,0,0.013268,0,0,1.0299,-0.0087907,0,1.03,-0.47128,-1.0334,-0.7941,89.48,-0.76625,0.48857,0.0015217,0.66,0.04,0
0.18231,0.016371,0.32207,-1.0339,-0.45045,-0.76738,0.0013738,0,0,-0.34649,0.412,0,0.0035719,0,0,1.0336,-0.0062379,0,1.0336,-0.45045,-1.0339,-0.76738,89.865,-0.75058,0.50592,0.00099047,0.68,0.04,0
0.17504,0.015946,0.30137,-1.0329,-0.43249,-0.74097,-0.0018235,0,0,-0.37945,0.40103,0,-0.0047411,0,0,1.0361,-0.003798,0,1.0361,-0.43248,-1.0329,-0.74097,-89.826,-0.73544,0.52001,0.00034561,0.7,0.04,0
0.16713,0.015404,0.28063,-1.0304,-0.41692,-0.71482,-0.0046046,0,0,-0.41024,0.38727,0,-0.011972,0,0,1.0374,-0.0014006,0,1.0374,-0.41689,-1.0304,-0.71482,-89.57,-0.72071,0.53141,-0.00038432,0.72,0.04,0
0.15863,0.014767,0.25987,-1.0267,-0.40328,-0.68885,-0.0070733,0,0,-0.43915,0.37124,0,-0.018391,0,0,1.0375,0.0010294,0,1.0375,-0.4032,-1.0268,-0.68885,-89.35,-0.70627,0.54064,-0.0011726,0.74,0.04,0
0.14956,0.014058,0.23913,-1.0218,-0.39115,-0.66301,-0.009286,0,0,-0.46643,0.35342,0,-0.024144,0,0,1.0364,0.0035634,0,1.0364,-0.39101,-1.0219,-0.66301,-89.157,-0.69199,0.54813,-0.0019952,0.76,0.04,0
0.13997,0.013296,0.21841,-1.0159,-0.3801,-0.63721,-0.011226,0,0,-0.49228,0.33425,0,-0.029188,0,0,1.034,0.0062572,0,1.034,-0.3799,-1.0161,-0.63721,-88.989,-0.67773,0.5543,-0.0028314,0.78,0.04,0
0.12987,0.012506,0.19776,-1.009,-0.36967,-0.61138,-0.012785,0,0,-0.51697,0.31422,0,-0.033241,0,0,1.0302,0.009134,0,1.0303,-0.36942,-1.0093,-0.61138,-88.855,-0.66336,0.55961,-0.0036653,0.8,0.04,0
0.11929,0.011716,0.1772,-1.0015,-0.35932,-0.58544,-0.013762,0,0,-0.54084,0.29396,0,-0.035782,0,0,1.0249,0.012156,0,1.025,-0.35903,-1.0018,-0.58544,-88.773,-0.64875,0.56467,-0.0044891,0.82,0.04,0
0.10824,0.010962,0.15677,-0.99351,-0.34832,-0.55932,-0.013903,0,0,-0.56445,0.27429,0,-0.036149,0,0,1.018,0.015185,0,1.0181,-0.34802,-0.99381,-0.55932,-88.766,-0.63372,0.57029,-0.0053069,0.84,0.04,0
0.096713,0.010283,0.13648,-0.98562,-0.33575,-0.5329,-0.013,0,0,-0.58855,0.25629,0,-0.0338,0,0,1.0095,0.01795,0,1.0096,-0.33548,-0.98588,-0.5329,-88.855,-0.61809,0.57758,-0.0061397,0.86,0.04,0
0.084696,0.0097175,0.11639,-0.97837,-0.32055,-0.50606,-0.011039,0,0,-0.614,0.24117,0,-0.028702,0,0,0.99953,0.020037,0,0.99974,-0.32036,-0.97856,-0.50606,-89.039,-0.60166,0.58777,-0.0070274,0.88,0.04,0
0.072152,0.009293,0.096504,-0.97223,-0.30185,-0.47873,-0.0083163,0,0,-0.64156,0.22994,0,-0.021622,0,0,0.98867,0.020945,0,0.98891,-0.30175,-0.97234,-0.47873,-89.289,-0.58427,0.60194,-0.0080232,0.9,0.04,0
0.059034,0.0090163,0.076842,-0.96749,-0.27938,-0.4509,-0.0054076,0,0,-0.67156,0.22298,0,-0.01406,0,0,0.97763,0.020205,0,0.97785,-0.27934,-0.96753,-0.4509,-89.55,-0.56593,0.62047,-0.0091791,0.92,0.04,0
0.04529,0.0088682,0.057398,-0.96413,-0.25369,-0.42274,-0.0029409,0,0,-0.7038,0.21977,0,-0.0076463,0,0,0.96741,0.017538,0,0.96758,-0.25368,-0.96414,-0.42274,-89.763,-0.54685,0.64282,-0.010528,0.94,0.04,0
0.030882,0.0088093,0.038146,-0.96188,-0.22605,-0.39453,-0.0013023,0,0,-0.73757,0.21902,0,-0.003386,0,0,0.95909,0.012977,0,0.95918,-0.22605,-0.96189,-0.39453,-89.899,-0.52749,0.66773,-0.012072,0.96,0.04,0
0.015787,0.0087951,0.019035,-0.96039,-0.19785,-0.36651,-0.00045756,0,0,-0.77204,0.21925,0,-0.0011897,0,0,0.95364,0.0069058,0,0.95366,-0.19785,-0.96039,-0.36651,-89.966,-0.50825,0.69376,-0.013793,0.98,0.04,0
0,0.0087931,0,-0.93602,-0.16003,-0.32881,-3.8392e-05,0,0,-0.78937,0.21942,0,-9.9819e-05,0,0,0.95174,-1.7347e-18,0,0.95174,-0.16003,-0.93602,-0.32881,-89.997,-0.47495,0.70688,-0.014713,1,0.04,0
0,0.017922,1,-0.92866,-1.5152,-1.7332,0.006158,0,0,1.0459,0.2833,0,0.016011,0,0,0.84478,-1.3028e-15,0,0.84469,-0.92859,-1.5153,-1.7332,0.6014,-1.3924,0.72078,0.013474,0,0.06,0
0.020917,0.018242,0.9831,-0.90958,-1.4788,-1.6996,0.016619,0,0,1.0271,0.28707,0,0.043209,0,0,0.85073,-0.030814,0,0.85122,-0.90909,-1.4793,-1.6996,1.6709,-1.3627,0.7066,0.012357,0.02,0.06,0
0.041082,0.019299,0.96597,-0.91683,-1.4439,-1.6742,0.037169,0,0,0.98457,0.29937,0,0.09664,0,0,0.86903,-0.060972,0,0.87116,-0.91422,-1.4465,-1.6742,4.0141,-1.345,0.67554,0.0099836,0.04,0.06,0
0.0603,0.02133,0.94834,-0.9325,-1.3973,-1.6473,0.064955,0,0,0.92922,0.32498,0,0.16888,0,0,0.8998,-0.087915,0,0.90424,-0.92359,-1.4062,-1.6473,7.8078,-1.3257,0.63826,0.0072187,0.06,0.06,0
0.078251,0.024672,0.92998,-0.96192,-1.3276,-1.6168,0.099261,0,0,0.8514,0.37598,0,0.25808,0,0,0.94074,-0.10501,0,0.94688,-0.93671,-1.3528,-1.6168,14.247,-1.3021,0.5939,0.0040431,0.08,0.06,0
0.094356,0.029447,0.91071,-1.0013,-1.2123,-1.5748,0.12956,0,0,0.74552,0.47123,0,0.33685,0,0,0.98575,-0.10709,0,0.99184,-0.93975,-1.2739,-1.5748,25.422,-1.2628,0.55023,0.0007746,0.1,0.06,0
0.10807,0.035117,0.89055,-1.0426,-1.0586,-1.5209,0.13454,0,0,0.62176,0.60103,0,0.34981,0,0,1.027,-0.093553,0,1.0314,-0.91583,-1.1854,-1.5209,43.304,-1.2074,0.52506,-0.0013937,0.12,0.06,0
0.11923,0.040491,0.86964,-1.0821,-0.92191,-1.4708,0.11164,0,0,0.50538,0.7136,0,0.29027,0,0,1.0587,-0.072614,0,1.0613,-0.8646,-1.1394,-1.4708,62.826,-1.1583,0.52578,-0.0012019,0.14,0.06,0
0.12829,0.044605,0.8482,-1.1106,-0.82754,-1.4297,0.075373,0,0,0.41471,0.78275,0,0.19597,0,0,1.08,-0.051434,0,1.0812,-0.80872,-1.1295,-1.4297,75.983,-1.1226,0.53784,0.00045776,0.16,0.06,0
0.13581,0.047157,0.82644,-1.1259,-0.76826,-1.3947,0.042789,0,0,0.3494,0.81436,0,0.11125,0,0,1.093,-0.03414,0,1.0936,-0.76321,-1.131,-1.3947,83.272,-1.0963,0.54935,0.00239,0.18,0.06,0
0.14226,0.048267,0.80448,-1.1306,-0.72861,-1.3622,0.017561,0,0,0.30115,0.82371,0,0.045659,0,0,1.1007,-0.019665,0,1.1008,-0.72784,-1.1314,-1.3622,87.503,-1.0738,0.55614,0.003981,0.2,0.06,0
0.14786,0.04817,0.78241,-1.1309,-0.70379,-1.3328,-0.0023085,0,0,0.26253,0.81772,0,-0.0060021,0,0,1.1045,-0.006618,0,1.1045,-0.70377,-1.1309,-1.3328,-89.69,-1.0558,0.55627,0.0050746,0.22,0.06,0
0.15276,0.047019,0.7603,-1.1282,-0.69136,-1.3062,-0.020486,0,0,0.23137,0.79924,0,-0.053264,0,0,1.1049,0.0063532,0,1.1049,-0.6904,-1.1291,-1.3062,-87.321,-1.0419,0.54909,0.0056187,0.24,0.06,0
0.15712,0.044876,0.73821,-1.1216,-0.69124,-1.2821,-0.040287,0,0,0.20864,0.76806,0,-0.10475,0,0,1.1015,0.020569,0,1.1017,-0.6875,-1.1253,-1.2821,-84.697,-1.0316,0.53373,0.0055978,0.26,0.06,0
0.16111,0.041738,0.71624,-1.1066,-0.70522,-1.2598,-0.063141,0,0,0.19918,0.72092,0,-0.16417,0,0,1.0928,0.037314,0,1.0934,-0.69552,-1.1163,-1.2598,-81.267,-1.0238,0.50794,0.0049631,0.28,0.06,0
0.16508,0.037684,0.6945,-1.0824,-0.74241,-1.242,-0.086164,0,0,0.20739,0.64941,0,-0.22403,0,0,1.0761,0.057452,0,1.0777,-0.72182,-1.103,-1.242,-76.561,-1.0223,0.46645,0.0036955,0.3,0.06,0
0.16941,0.033064,0.67319,-1.0511,-0.8028,-1.2294,-0.097818,0,0,0.23171,0.55454,0,-0.25433,0,0,1.0495,0.076771,0,1.0525,-0.7689,-1.085,-1.2294,-70.885,-1.0278,0.40793,0.0020723,0.32,0.06,0
0.17435,0.028581,0.65252,-1.0188,-0.86595,-1.2179,-0.091298,0,0,0.25892,0.45758,0,-0.23738,0,0,1.0145,0.088394,0,1.0186,-0.8233,-1.0614,-1.2179,-64.963,-1.0342,0.34419,0.00073061,0.34,0.06,0
0.17976,0.02493,0.63261,-0.98765,-0.89894,-1.1986,-0.070464,0,0,0.27422,0.38955,0,-0.18321,0,0,0.97689,0.084872,0,0.98076,-0.86003,-1.0266,-1.1986,-61.095,-1.0284,0.29321,-3.6466e-05,0.36,0.06,0
0.18532,0.022288,0.61345,-0.96333,-0.90531,-1.174,-0.049242,0,0,0.27392,0.34935,0,-0.12803,0,0,0.94424,0.06781,0,0.94675,-0.87717,-0.99147,-1.174,-60.253,-1.0142,0.25935,-0.00034555,0.38,0.06,0
0.19072,0.020487,0.59484,-0.9481,-0.90138,-1.1497,-0.031363,0,0,0.26206,0.3228,0,-0.081544,0,0,0.92204,0.043229,0,0.92303,-0.88563,-0.96385,-1.1497,-63.341,-0.99972,0.23492,-0.00042558,0.4,0.06,0
0.1958,0.019315,0.57656,-0.9385,-0.89089,-1.1254,-0.015984,0,0,0.24295,0.30483,0,-0.04156,0,0,0.91159,0.018526,0,0.91173,-0.88602,-0.94337,-1.1254,-73.058,-0.98492,0.21646,-0.00040026,0.42,0.06,0
0.20044,0.018673,0.55838,-0.93422,-0.87446,-1.101,-0.0012635,0,0,0.21679,0.29448,0,-0.0032852,0,0,0.91132,-0.002958,0,0.91129,-0.87443,-0.93424,-1.101,-88.789,-0.96989,0.20335,-0.00030925,0.44,0.06,0
0.20447,0.018527,0.54011,-0.93532,-0.85084,-1.076,0.013289,0,0,0.18282,0.29266,0,0.034551,0,0,0.91866,-0.019862,0,0.91887,-0.84879,-0.93737,-1.076,81.269,-0.95404,0.19831,-0.00014834,0.46,0.06,0
0.20775,0.01886,0.52163,-0.94186,-0.81885,-1.0498,0.026998,0,0,0.14038,0.30029,0,0.070195,0,0,0.93118,-0.031637,0,0.93174,-0.81318,-0.94752,-1.0498,78.15,-0.93685,0.20558,0.00010341,0.48,0.06,0
0.21009,0.01962,0.50286,-0.95309,-0.77825,-1.0223,0.038212,0,0,0.089929,0.31722,0,0.09935,0,0,0.9466,-0.038305,0,0.94741,-0.77026,-0.96107,-1.0223,78.195,-0.91787,0.22766,0.00046165,0.5,0.06,0
0.21135,0.020694,0.48377,-0.96755,-0.73091,-0.99331,0.045101,0,0,0.033479,0.34112,0,0.11726,0,0,0.96293,-0.040462,0,0.96382,-0.7226,-0.97586,-0.99331,79.567,-0.89726,0.26241,0.00091425,0.52,0.06,0
0.21143,0.021915,0.46435,-0.98333,-0.6808,-0.96358,0.046676,0,0,-0.025667,0.36762,0,0.12136,0,0,0.97861,-0.039162,0,0.97942,-0.67376,-0.99036,-0.96358,81.426,-0.8759,0.3041,0.0014067,0.54,0.06,0
0.21032,0.023098,0.44462,-0.99843,-0.63227,-0.93383,0.043417,0,0,-0.083976,0.39204,0,0.11288,0,0,0.99262,-0.035652,0,0.99328,-0.62719,-1.0035,-0.93383,83.329,-0.85484,0.34677,0.0018536,0.56,0.06,0
0.20807,0.024094,0.42464,-1.0113,-0.58833,-0.90454,0.036887,0,0,-0.13883,0.41107,0,0.095906,0,0,1.0045,-0.031051,0,1.005,-0.58514,-1.0145,-0.90454,85.053,-0.83473,0.38632,0.002172,0.58,0.06,0
0.20477,0.024808,0.40444,-1.0212,-0.55017,-0.87587,0.028914,0,0,-0.189,0.42341,0,0.075177,0,0,1.0144,-0.026159,0,1.0147,-0.5484,-1.023,-0.87587,86.501,-0.81576,0.4208,0.0023093,0.6,0.06,0
0.20051,0.025204,0.38407,-1.0281,-0.51765,-0.84781,0.020899,0,0,-0.23445,0.42921,0,0.054337,0,0,1.0222,-0.02142,0,1.0225,-0.5168,-1.029,-0.84781,87.66,-0.79787,0.44987,0.0022495,0.62,0.06,0
0.19539,0.025288,0.36355,-1.0324,-0.49006,-0.82029,0.013621,0,0,-0.27575,0.42931,0,0.035416,0,0,1.0284,-0.017018,0,1.0286,-0.48971,-1.0328,-0.82029,88.562,-0.78092,0.47398,0.0020021,0.64,0.06,0
0.18948,0.02509,0.34293,-1.0345,-0.46656,-0.79326,0.0073464,0,0,-0.31366,0.42471,0,0.019101,0,0,1.0332,-0.012969,0,1.0333,-0.46647,-1.0346,-0.79326,89.259,-0.76479,0.49389,0.0015893,0.66,0.06,0
0.18284,0.024647,0.32222,-1.035,-0.44642,-0.76664,0.0020324,0,0,-0.34882,0.41628,0,0.0052842,0,0,1.0367,-0.0092118,0,1.0368,-0.44642,-1.035,-0.76664,89.802,-0.74934,0.51036,0.0010378,0.68,0.06,0
0.17553,0.023997,0.30146,-1.034,-0.42902,-0.74037,-0.0024993,0,0,-0.38174,0.40476,0,-0.0064983,0,0,1.0391,-0.0056425,0,1.0391,-0.42901,-1.034,-0.74037,-89.763,-0.73447,0.52404,0.0003745,0.7,0.06,0
0.16757,0.023178,0.28066,-1.0319,-0.41383,-0.71438,-0.0064579,0,0,-0.41277,0.39071,0,-0.016791,0,0,1.0404,-0.0021428,0,1.0404,-0.41377,-1.032,-0.71438,-89.401,-0.72003,0.53544,-0.00037465,0.72,0.06,0
0.15902,0.02222,0.25985,-1.0287,-0.40045,-0.68859,-0.010022,0,0,-0.44213,0.37458,0,-0.026056,0,0,1.0406,0.0014106,0,1.0406,-0.40029,-1.0289,-0.68859,-89.086,-0.70591,0.54497,-0.0011853,0.74,0.06,0
0.14989,0.021153,0.23904,-1.0244,-0.38851,-0.66292,-0.013298,0,0,-0.46996,0.35673,0,-0.034574,0,0,1.0397,0.005137,0,1.0397,-0.38824,-1.0247,-0.66292,-88.803,-0.69195,0.55292,-0.0020345,0.76,0.06,0
0.14022,0.020006,0.21826,-1.0191,-0.37771,-0.6373,-0.01629,0,0,-0.49634,0.33747,0,-0.042353,0,0,1.0375,0.009141,0,1.0376,-0.37729,-1.0195,-0.6373,-88.546,-0.67804,0.55952,-0.0029006,0.78,0.06,0
0.13003,0.018812,0.19754,-1.0127,-0.3677,-0.61165,-0.018863,0,0,-0.52133,0.31713,0,-0.049043,0,0,1.0339,0.013491,0,1.034,-0.36715,-1.0132,-0.61165,-88.326,-0.66401,0.565,-0.0037635,0.8,0.06,0
0.11936,0.01761,0.1769,-1.0052,-0.35809,-0.58589,-0.020718,0,0,-0.54511,0.29614,0,-0.053866,0,0,1.0288,0.018181,0,1.0289,-0.35743,-1.0059,-0.58589,-88.168,-0.64973,0.56967,-0.0046079,0.82,0.06,0
0.10823,0.016452,0.15639,-0.99693,-0.34827,-0.55994,-0.021407,0,0,-0.56808,0.27518,0,-0.055657,0,0,1.0217,0.023059,0,1.022,-0.34756,-0.99763,-0.55994,-88.112,-0.63505,0.57414,-0.005428,0.84,0.06,0
0.096641,0.015399,0.13603,-0.98832,-0.33726,-0.5337,-0.020471,0,0,-0.591,0.25538,0,-0.053225,0,0,1.0126,0.027736,0,1.013,-0.33661,-0.98896,-0.5337,-88.201,-0.61976,0.57951,-0.0062376,0.86,0.06,0
0.08459,0.014518,0.11588,-0.98008,-0.32364,-0.507,-0.017706,0,0,-0.61501,0.23836,0,-0.046037,0,0,1.0015,0.031534,0,1.0021,-0.32316,-0.98056,-0.507,-88.456,-0.60357,0.58746,-0.0070785,0.88,0.06,0
0.072041,0.01386,0.09597,-0.97292,-0.30593,-0.47962,-0.013484,0,0,-0.64128,0.2258,0,-0.03506,0,0,0.98888,0.033536,0,0.98948,-0.30566,-0.97319,-0.47962,-88.842,-0.58616,0.59978,-0.008019,0.9,0.06,0
0.058938,0.013443,0.076325,-0.9673,-0.28335,-0.45152,-0.0087687,0,0,-0.67052,0.21862,0,-0.022799,0,0,0.97554,0.03282,0,0.97611,-0.28324,-0.96742,-0.45152,-89.266,-0.56739,0.61748,-0.0091321,0.92,0.06,0
0.04522,0.013237,0.056948,-0.96334,-0.25659,-0.42293,-0.0047304,0,0,-0.70254,0.21624,0,-0.012299,0,0,0.96283,0.02879,0,0.96327,-0.25656,-0.96338,-0.42293,-89.617,-0.54762,0.64006,-0.010462,0.94,0.06,0
0.030837,0.013173,0.037812,-0.96078,-0.22759,-0.39432,-0.0020727,0,0,-0.73639,0.21675,0,-0.0053889,0,0,0.95228,0.021445,0,0.95252,-0.22759,-0.96079,-0.39432,-89.838,-0.52757,0.66568,-0.012006,0.96,0.06,0
0.015764,0.013171,0.018857,-0.95916,-0.19846,-0.36614,-0.00073059,0,0,-0.77092,0.21799,0,-0.0018995,0,0,0.9453,0.011452,0,0.94536,-0.19846,-0.95916,-0.36614,-89.945,-0.50792,0.69226,-0.013727,0.98,0.06,0
0,0.013176,0,-0.935,-0.16059,-0.32868,8.2907e-05,0,0,-0.78822,0.21851,0,0.00021556,0,0,0.94286,1.9082e-17,0,0.94284,-0.16059,-0.935,-0.32868,89.994,-0.47476,0.70555,-0.014645,1,0.06,0
0,0.023442,1,-0.92419,-1.5332,-1.7372,0.0074171,0,0,1.0569,0.26522,0,0.019284,0,0,0.80823,-9.3675e-16,0,0.80804,-0.9241,-1.5333,-1.7372,0.69766,-1.3982,0.73276,0.015055,0,0.08,0
0.021139,0.023828,0.98384,-0.90667,-1.4995,-1.7057,0.021946,0,0,1.0387,0.26808,0,0.057059,0,0,0.81419,-0.042079,0,0.81511,-0.90585,-1.5003,-1.7057,2.1173,-1.3706,0.71946,0.014001,0.02,0.08,0
0.041548,0.025086,0.96743,-0.91374,-1.469,-1.6823,0.048309,0,0,0.99907,0.27724,0,0.1256,0,0,0.83376,-0.085459,0,0.83802,-0.90957,-1.4732,-1.6823,4.9356,-1.355,0.69224,0.011943,0.04,0.08,0
0.061101,0.027546,0.95049,-0.92971,-1.4341,-1.6596,0.083999,0,0,0.94891,0.29315,0,0.2184,0,0,0.87184,-0.12998,0,0.8816,-0.91609,-1.4478,-1.6596,9.21,-1.3412,0.66349,0.010006,0.06,0.08,0
0.079505,0.031826,0.93256,-0.96084,-1.3791,-1.6345,0.13559,0,0,0.87579,0.33212,0,0.35253,0,0,0.92856,-0.16721,0,0.94419,-0.92073,-1.4192,-1.6345,16.48,-1.3248,0.63416,0.0081879,0.08,0.08,0
0.096133,0.038662,0.91334,-1.0142,-1.2588,-1.5952,0.18572,0,0,0.75536,0.43738,0,0.48288,0,0,0.99392,-0.16706,0,1.0085,-0.91413,-1.3589,-1.5952,28.317,-1.2894,0.599,0.0055276,0.1,0.08,0
0.10972,0.047332,0.8928,-1.0488,-1.0221,-1.514,0.19303,0,0,0.60488,0.63957,0,0.50188,0,0,1.0501,-0.13827,0,1.0593,-0.84192,-1.2289,-1.514,46.977,-1.195,0.5843,0.0026514,0.12,0.08,0
0.12033,0.055185,0.87134,-1.0898,-0.86061,-1.4565,0.13942,0,0,0.47663,0.77463,0,0.3625,0,0,1.0857,-0.093067,0,1.0895,-0.79474,-1.1557,-1.4565,64.711,-1.1356,0.57387,0.0015219,0.14,0.08,0
0.12878,0.060645,0.84937,-1.1167,-0.78983,-1.4213,0.085184,0,0,0.39598,0.82098,0,0.22148,0,0,1.1033,-0.063228,0,1.105,-0.76896,-1.1376,-1.4213,76.237,-1.1093,0.56657,0.0020841,0.16,0.08,0
0.13617,0.063683,0.82721,-1.1169,-0.74138,-1.3847,0.045613,0,0,0.34817,0.83629,0,0.11859,0,0,1.1113,-0.041497,0,1.112,-0.73591,-1.1223,-1.3847,83.172,-1.081,0.56526,0.0030043,0.18,0.08,0
0.14271,0.064891,0.80492,-1.1152,-0.70892,-1.3522,0.019042,0,0,0.30806,0.8362,0,0.049509,0,0,1.1162,-0.024137,0,1.1164,-0.70803,-1.1161,-1.3522,87.322,-1.0588,0.56442,0.0040899,0.2,0.08,0
0.14849,0.064636,0.78256,-1.115,-0.68717,-1.3232,-0.0011696,0,0,0.27073,0.82683,0,-0.003041,0,0,1.1191,-0.0087064,0,1.1191,-0.68717,-1.115,-1.3232,-89.843,-1.0418,0.56165,0.0050634,0.22,0.08,0
0.15354,0.063127,0.76016,-1.1164,-0.67429,-1.2974,-0.019921,0,0,0.23528,0.80999,0,-0.051795,0,0,1.1202,0.006669,0,1.1202,-0.67339,-1.1173,-1.2974,-87.425,-1.0293,0.55623,0.0058162,0.24,0.08,0
0.1579,0.060413,0.73775,-1.1182,-0.6703,-1.2743,-0.041618,0,0,0.20292,0.78521,0,-0.10821,0,0,1.1193,0.023829,0,1.1196,-0.66646,-1.122,-1.2743,-84.736,-1.0209,0.54782,0.0062964,0.26,0.08,0
0.16166,0.056417,0.71539,-1.1169,-0.67785,-1.2538,-0.071077,0,0,0.17801,0.74874,0,-0.1848,0,0,1.1152,0.045082,0,1.116,-0.66663,-1.1281,-1.2538,-81.029,-1.0162,0.5355,0.0064456,0.28,0.08,0
0.16502,0.05092,0.69315,-1.0935,-0.70017,-1.2313,-0.10835,0,0,0.17904,0.69042,0,-0.28171,0,0,1.1014,0.073841,0,1.1038,-0.6723,-1.1214,-1.2313,-75.575,-1.0083,0.51293,0.0058737,0.3,0.08,0
0.16882,0.044219,0.67133,-1.062,-0.78435,-1.2252,-0.14206,0,0,0.21217,0.57317,0,-0.36936,0,0,1.0703,0.11647,0,1.0768,-0.72455,-1.1218,-1.2252,-67.172,-1.0239,0.45784,0.004094,0.32,0.08,0
0.17351,0.037539,0.65033,-1.0317,-0.90053,-1.23,-0.13202,0,0,0.25779,0.42831,0,-0.34324,0,0,1.0204,0.1414,0,1.0306,-0.81871,-1.1135,-1.23,-58.209,-1.0541,0.36718,0.0017067,0.34,0.08,0
0.17913,0.032458,0.63052,-0.98657,-0.92846,-1.205,-0.099981,0,0,0.28399,0.35954,0,-0.25995,0,0,0.96347,0.13799,0,0.97378,-0.8534,-1.0616,-1.205,-53.102,-1.04,0.30624,0.00046148,0.36,0.08,0
0.18487,0.029071,0.61179,-0.95974,-0.9288,-1.1784,-0.068278,0,0,0.28421,0.32442,0,-0.17752,0,0,0.91729,0.099478,0,0.92266,-0.87426,-1.0143,-1.1784,-51.382,-1.0223,0.26363,-0.00012849,0.38,0.08,0
0.1905,0.026767,0.59382,-0.94092,-0.92022,-1.1522,-0.044227,0,0,0.27462,0.30153,0,-0.11499,0,0,0.89099,0.057119,0,0.89268,-0.88515,-0.97599,-1.1522,-51.587,-1.0044,0.23515,-0.00034754,0.4,0.08,0
0.19585,0.025247,0.57615,-0.92962,-0.90899,-1.1277,-0.022894,0,0,0.25755,0.28438,0,-0.059524,0,0,0.88342,0.019811,0,0.88353,-0.89419,-0.94442,-1.1277,-57.13,-0.98878,0.21292,-0.00040433,0.42,0.08,0
0.2008,0.024399,0.55849,-0.9244,-0.89248,-1.1036,-0.0021962,0,0,0.23289,0.2744,0,-0.0057102,0,0,0.88835,-0.010913,0,0.88837,-0.89233,-0.92456,-1.1036,-86.083,-0.97348,0.1971,-0.00035806,0.44,0.08,0
0.20517,0.024221,0.54062,-0.92609,-0.86901,-1.0792,0.018655,0,0,0.19898,0.27318,0,0.048503,0,0,0.90175,-0.034406,0,0.90241,-0.86345,-0.93164,-1.0792,73.414,-0.95808,0.19096,-0.00021002,0.46,0.08,0
0.20876,0.024727,0.52242,-0.93449,-0.83569,-1.0535,0.038673,0,0,0.15467,0.28312,0,0.10055,0,0,0.92054,-0.050147,0,0.92195,-0.82235,-0.94783,-1.0535,70.973,-0.94122,0.2004,6.1176e-05,0.48,0.08,0
0.21135,0.025868,0.5038,-0.94856,-0.79051,-1.0255,0.055208,0,0,0.10005,0.30551,0,0.14354,0,0,0.94181,-0.058139,0,0.94367,-0.77314,-0.96593,-1.0255,72.53,-0.92153,0.22849,0.00047508,0.5,0.08,0
0.21276,0.027482,0.48474,-0.96622,-0.73562,-0.9953,0.064825,0,0,0.037802,0.33758,0,0.16855,0,0,0.96294,-0.059334,0,0.96482,-0.71865,-0.98319,-0.9953,75.327,-0.89904,0.2708,0.0010131,0.52,0.08,0
0.21287,0.029295,0.46528,-0.98487,-0.67779,-0.96408,0.06588,0,0,-0.027025,0.37217,0,0.17129,0,0,0.98194,-0.055618,0,0.98355,-0.66425,-0.9984,-0.96408,78.388,-0.87558,0.31838,0.0015927,0.54,0.08,0
0.21168,0.031013,0.44547,-1.0018,-0.62406,-0.93324,0.059582,0,0,-0.089193,0.40194,0,0.15491,0,0,0.9978,-0.049178,0,0.99903,-0.61488,-1.011,-0.93324,81.247,-0.85305,0.36354,0.002092,0.56,0.08,0
0.2093,0.03241,0.42537,-1.0153,-0.57809,-0.9034,0.049101,0,0,-0.14552,0.4229,0,0.12766,0,0,1.0104,-0.041824,0,1.0113,-0.57264,-1.0208,-0.9034,83.671,-0.83227,0.4025,0.0024136,0.58,0.08,0
0.20586,0.033372,0.40505,-1.0248,-0.54008,-0.8745,0.03745,0,0,-0.19533,0.43475,0,0.097369,0,0,1.0201,-0.03463,0,1.0207,-0.5372,-1.0276,-0.8745,85.608,-0.81312,0.4346,0.0025194,0.6,0.08,0
0.20149,0.033874,0.38456,-1.0307,-0.50875,-0.8464,0.026543,0,0,-0.23959,0.43895,0,0.069012,0,0,1.0276,-0.028047,0,1.028,-0.5074,-1.032,-0.8464,87.096,-0.79528,0.46078,0.0024158,0.62,0.08,0
0.19628,0.033946,0.36395,-1.034,-0.48256,-0.81892,0.01713,0,0,-0.27964,0.43728,0,0.044539,0,0,1.0334,-0.022148,0,1.0336,-0.48202,-1.0346,-0.81892,88.222,-0.7785,0.48234,0.0021276,0.64,0.08,0
0.1903,0.033643,0.34323,-1.0356,-0.46033,-0.792,0.0092792,0,0,-0.31665,0.43117,0,0.024126,0,0,1.0377,-0.016847,0,1.0379,-0.46018,-1.0357,-0.792,89.076,-0.76264,0.50038,0.0016818,0.66,0.08,0
0.18361,0.033022,0.32244,-1.0359,-0.4412,-0.76556,0.0027473,0,0,-0.3514,0.42167,0,0.0071429,0,0,1.041,-0.011993,0,1.041,-0.44118,-1.0359,-0.76556,89.735,-0.74754,0.51573,0.0011035,0.68,0.08,0
0.17625,0.032136,0.30159,-1.0352,-0.4245,-0.7395,-0.0027979,0,0,-0.38439,0.40949,0,-0.0072745,0,0,1.0432,-0.0074164,0,1.0432,-0.42449,-1.0352,-0.7395,-89.737,-0.73306,0.52897,0.00041614,0.7,0.08,0
0.16823,0.031032,0.28071,-1.0336,-0.40977,-0.71374,-0.0076784,0,0,-0.41589,0.39516,0,-0.019964,0,0,1.0445,-0.0029396,0,1.0445,-0.40968,-1.0337,-0.71374,-89.295,-0.71905,0.54052,-0.00035881,0.72,0.08,0
0.15961,0.029751,0.25981,-1.0313,-0.39665,-0.6882,-0.012157,0,0,-0.44603,0.37902,0,-0.031609,0,0,1.0448,0.0016147,0,1.0448,-0.39641,-1.0315,-0.6882,-88.903,-0.70538,0.55063,-0.0012006,0.74,0.08,0
0.15039,0.028327,0.23892,-1.028,-0.38487,-0.6628,-0.01641,0,0,-0.47484,0.36131,0,-0.042665,0,0,1.0441,0.0064231,0,1.0442,-0.38445,-1.0285,-0.6628,-88.54,-0.6919,0.55945,-0.0020886,0.76,0.08,0
0.14062,0.026794,0.21805,-1.0238,-0.37422,-0.63744,-0.020493,0,0,-0.50221,0.34219,0,-0.053282,0,0,1.0424,0.011656,0,1.0425,-0.37358,-1.0244,-0.63744,-88.195,-0.67848,0.56699,-0.0030008,0.78,0.08,0
0.13031,0.025191,0.19722,-1.0182,-0.36455,-0.61206,-0.0243,0,0,-0.52801,0.32175,0,-0.06318,0,0,1.0393,0.017465,0,1.0394,-0.36365,-1.0191,-0.61206,-87.874,-0.66494,0.57317,-0.0039131,0.8,0.08,0
0.1195,0.023562,0.17648,-1.0112,-0.35568,-0.58654,-0.027485,0,0,-0.55207,0.30012,0,-0.071462,0,0,1.0345,0.02394,0,1.0348,-0.35453,-1.0124,-0.58654,-87.603,-0.65114,0.57788,-0.0047991,0.82,0.08,0
0.10822,0.021969,0.15585,-1.0027,-0.3473,-0.56085,-0.029404,0,0,-0.57443,0.27761,0,-0.076451,0,0,1.0275,0.031021,0,1.028,-0.34599,-1.004,-0.56085,-87.436,-0.63696,0.58121,-0.0056364,0.84,0.08,0
0.096518,0.020499,0.13537,-0.99312,-0.33859,-0.53489,-0.029154,0,0,-0.59571,0.25519,0,-0.0758,0,0,1.0179,0.038299,0,1.0187,-0.33729,-0.99442,-0.53489,-87.455,-0.6222,0.58397,-0.00642,0.86,0.08,0
0.084394,0.019252,0.11513,-0.98332,-0.32775,-0.50845,-0.026051,0,0,-0.61733,0.23491,0,-0.067732,0,0,1.0053,0.044806,0,1.0064,-0.32672,-0.98435,-0.50845,-87.728,-0.60651,0.58822,-0.0071877,0.88,0.08,0
0.071825,0.018325,0.095162,-0.97437,-0.31209,-0.4811,-0.020252,0,0,-0.64125,0.21972,0,-0.052656,0,0,0.98995,0.048961,0,0.9912,-0.31147,-0.97498,-0.4811,-88.25,-0.58918,0.59706,-0.0080296,0.9,0.08,0
0.058744,0.017761,0.075529,-0.96709,-0.28959,-0.45253,-0.013299,0,0,-0.66892,0.21182,0,-0.034578,0,0,0.97288,0.048982,0,0.97416,-0.28933,-0.96735,-0.45253,-88.876,-0.56974,0.61293,-0.0090604,0.92,0.08,0
0.045068,0.017518,0.056247,-0.9618,-0.26105,-0.4231,-0.0072209,0,0,-0.70031,0.21066,0,-0.018774,0,0,0.95603,0.043607,0,0.95706,-0.26098,-0.96188,-0.4231,-89.41,-0.54865,0.63554,-0.010348,0.94,0.08,0
0.030732,0.017479,0.037288,-0.95837,-0.2299,-0.39377,-0.0033024,0,0,-0.73399,0.21303,0,-0.0085863,0,0,0.94175,0.032745,0,0.94232,-0.22989,-0.95839,-0.39377,-89.74,-0.52735,0.66196,-0.011875,0.96,0.08,0
0.015709,0.017515,0.018577,-0.95634,-0.19953,-0.36534,-0.0012653,0,0,-0.7683,0.21554,0,-0.0032898,0,0,0.93219,0.017543,0,0.93234,-0.19953,-0.95634,-0.36534,-89.904,-0.50707,0.68903,-0.013578,0.98,0.08,0
0,0.017534,0,-0.93241,-0.16171,-0.32824,0.00036336,0,0,-0.78543,0.21648,0,0.00094474,0,0,0.92884,0,0,0.92881,-0.16171,-0.93241,-0.32824,89.973,-0.47412,0.7024,-0.014482,1,0.08,0
0,0.028531,1,-0.91167,-1.5575,-1.7407,0.0083537,0,0,1.0778,0.23827,0,0.021719,0,0,0.76062,2.4286e-16,0,0.76033,-0.91156,-1.5576,-1.7407,0.741,-1.4033,0.75445,0.017749,0,0.1,0
0.021556,0.028965,0.98479,-0.89675,-1.527,-1.7119,0.029076,0,0,1.0597,0.24041,0,0.075598,0,0,0.76527,-0.051754,0,0.76672,-0.89541,-1.5283,-1.7119,2.636,-1.3785,0.74193,0.016725,0.02,0.1,0
0.042388,0.030389,0.96939,-0.91008,-1.5038,-1.6935,0.062413,0,0,1.0185,0.24671,0,0.16227,0,0,0.78113,-0.10763,0,0.78818,-0.90359,-1.5103,-1.6935,5.937,-1.3691,0.71612,0.014778,0.04,0.1,0
0.062296,0.033056,0.95354,-0.92794,-1.4769,-1.675,0.10775,0,0,0.97118,0.25749,0,0.28014,0,0,0.81805,-0.17253,0,0.83571,-0.90755,-1.4973,-1.675,10.716,-1.36,0.69584,0.013575,0.06,0.1,0
0.081235,0.037956,0.93667,-0.98155,-1.4674,-1.6713,0.17888,0,0,0.89673,0.26515,0,0.46509,0,0,0.90366,-0.25309,0,0.93902,-0.9228,-1.5261,-1.6713,18.184,-1.3734,0.68755,0.014215,0.08,0.1,0
0.098165,0.046942,0.9174,-1.0523,-1.3453,-1.6367,0.27611,0,0,0.75972,0.37879,0,0.71788,0,0,1.0147,-0.31501,0,1.0662,-0.8862,-1.5113,-1.6367,31.024,-1.3447,0.69631,0.015463,0.1,0.1,0
0.11162,0.0607,0.89608,-1.0427,-0.87232,-1.4706,0.23068,0,0,0.55623,0.77776,0,0.59977,0,0,1.101,-0.15724,0,1.1106,-0.71161,-1.2034,-1.4706,55.136,-1.1285,0.66683,0.0074055,0.12,0.1,0
0.12041,0.071477,0.87336,-1.1279,-0.81181,-1.4553,0.14263,0,0,0.42561,0.83649,0,0.37084,0,0,1.1338,-0.10054,0,1.1381,-0.75696,-1.1827,-1.4553,68.966,-1.1317,0.60958,0.0042936,0.14,0.1,0
0.12865,0.077444,0.85073,-1.101,-0.75229,-1.4067,0.078249,0,0,0.39747,0.85074,0,0.20345,0,0,1.1316,-0.067654,0,1.1335,-0.73554,-1.1177,-1.4067,77.914,-1.0866,0.58311,0.0024203,0.16,0.1,0
0.13631,0.080608,0.8281,-1.0874,-0.71555,-1.369,0.043709,0,0,0.36604,0.84947,0,0.11364,0,0,1.1321,-0.044882,0,1.133,-0.71048,-1.0925,-1.369,83.386,-1.0573,0.57272,0.002636,0.18,0.1,0
0.14329,0.081715,0.80544,-1.0838,-0.68965,-1.3375,0.020684,0,0,0.32976,0.84219,0,0.053777,0,0,1.1335,-0.026836,0,1.1338,-0.68856,-1.0849,-1.3375,87.004,-1.037,0.56656,0.0034788,0.2,0.1,0
0.1495,0.081244,0.78276,-1.0863,-0.67067,-1.3098,0.0030346,0,0,0.29062,0.83093,0,0.0078899,0,0,1.1353,-0.01075,0,1.1353,-0.67065,-1.0863,-1.3098,89.582,-1.0223,0.56183,0.0044902,0.22,0.1,0
0.15491,0.079418,0.76003,-1.0928,-0.65712,-1.285,-0.013735,0,0,0.24985,0.81627,0,-0.03571,0,0,1.1374,0.0053322,0,1.1374,-0.65668,-1.0933,-1.285,-88.196,-1.0116,0.55775,0.0054904,0.24,0.1,0
0.1595,0.076285,0.73726,-1.1036,-0.64924,-1.2631,-0.033675,0,0,0.20738,0.79802,0,-0.087555,0,0,1.1399,0.023344,0,1.1401,-0.64676,-1.1061,-1.2631,-85.784,-1.0053,0.55475,0.0064573,0.26,0.1,0
0.16321,0.071687,0.71444,-1.1198,-0.64906,-1.2451,-0.061564,0,0,0.16289,0.77484,0,-0.16007,0,0,1.1428,0.045968,0,1.1437,-0.64114,-1.1277,-1.2451,-82.671,-1.0047,0.55465,0.0074578,0.28,0.1,0
0.16601,0.065301,0.69155,-1.1404,-0.66363,-1.2328,-0.11023,0,0,0.12004,0.73988,0,-0.2866,0,0,1.1475,0.078337,0,1.15,-0.63938,-1.1647,-1.2328,-77.593,-1.0123,0.56244,0.0086883,0.3,0.1,0
0.16801,0.05599,0.66853,-1.0688,-0.67368,-1.1913,-0.17233,0,0,0.15926,0.67286,0,-0.44805,0,0,1.1171,0.13334,0,1.1237,-0.60908,-1.1334,-1.1913,-69.45,-0.9779,0.55551,0.0084824,0.32,0.1,0
0.17238,0.045714,0.64687,-1.0671,-0.96327,-1.256,-0.21102,0,0,0.24552,0.38052,0,-0.54866,0,0,1.0361,0.2822,0,1.0773,-0.79788,-1.2325,-1.256,-51.912,-1.0955,0.44683,0.0045395,0.34,0.1,0
0.17783,0.039311,0.62709,-1.0024,-0.98764,-1.2241,-0.14163,0,0,0.28818,0.30742,0,-0.36823,0,0,0.93497,0.21119,0,0.95865,-0.85322,-1.1369,-1.2241,-46.495,-1.0714,0.33588,0.0015123,0.36,0.1,0
0.18391,0.035265,0.60947,-0.94966,-0.96058,-1.1825,-0.093978,0,0,0.30274,0.28854,0,-0.24434,0,0,0.86337,0.12856,0,0.87243,-0.86098,-1.0493,-1.1825,-43.337,-1.0309,0.27983,0.00032747,0.38,0.1,0
0.18994,0.032548,0.59256,-0.92658,-0.94835,-1.155,-0.059029,0,0,0.297,0.26869,0,-0.15348,0,0,0.84238,0.065057,0,0.84456,-0.87744,-0.99749,-1.155,-39.775,-1.01,0.24113,-0.00016662,0.4,0.1,0
0.19579,0.03069,0.57577,-0.91245,-0.93363,-1.1296,-0.029788,0,0,0.28229,0.25475,0,-0.077448,0,0,0.84356,0.014478,0,0.84349,-0.89143,-0.95466,-1.1296,-35.211,-0.99189,0.21369,-0.00035718,0.42,0.1,0
0.20123,0.029649,0.55881,-0.90824,-0.91653,-1.1062,-0.0019632,0,0,0.2574,0.24663,0,-0.0051043,0,0,0.8571,-0.026047,0,0.85742,-0.9078,-0.91697,-1.1062,-12.68,-0.97701,0.19402,-0.00037231,0.44,0.1,0
0.20609,0.029455,0.54149,-0.91244,-0.89396,-1.0834,0.025862,0,0,0.22226,0.24628,0,0.06724,0,0,0.87943,-0.05685,0,0.8813,-0.87574,-0.93066,-1.0834,54.828,-0.96327,0.18638,-0.00023775,0.46,0.1,0
0.21012,0.030185,0.52364,-0.92461,-0.86003,-1.059,0.053611,0,0,0.17474,0.25871,0,0.13939,0,0,0.90744,-0.076831,0,0.91081,-0.82973,-0.95491,-1.059,60.532,-0.94789,0.19886,6.3885e-05,0.48,0.1,0
0.21308,0.03184,0.50519,-0.94354,-0.80845,-1.0308,0.076974,0,0,0.11342,0.28903,0,0.20013,0,0,0.93742,-0.085151,0,0.9414,-0.77359,-0.9784,-1.0308,65.633,-0.92759,0.23542,0.00055986,0.5,0.1,0
0.21466,0.034197,0.48614,-0.96587,-0.74051,-0.99806,0.089618,0,0,0.041842,0.33481,0,0.23301,0,0,0.96545,-0.083244,0,0.96913,-0.70922,-0.99716,-0.99806,70.752,-0.90148,0.28839,0.0012319,0.52,0.1,0
0.21475,0.036802,0.46657,-0.98839,-0.67024,-0.96416,0.088124,0,0,-0.031495,0.38209,0,0.22912,0,0,0.98876,-0.074588,0,0.99161,-0.64746,-1.0112,-0.96416,75.507,-0.87426,0.34263,0.0019354,0.54,0.1,0
0.2134,0.039176,0.44659,-1.0075,-0.6102,-0.93191,0.076259,0,0,-0.098306,0.41823,0,0.19827,0,0,1.0064,-0.063327,0,1.0084,-0.59606,-1.0217,-0.93191,79.5,-0.84988,0.38858,0.0024799,0.56,0.1,0
0.21082,0.04101,0.42631,-1.0208,-0.56325,-0.90154,0.060047,0,0,-0.15508,0.43978,0,0.15612,0,0,1.0191,-0.052206,0,1.0204,-0.5555,-1.0286,-0.90154,82.647,-0.82854,0.42408,0.0027645,0.58,0.1,0
0.2072,0.042198,0.40583,-1.0287,-0.527,-0.87255,0.044278,0,0,-0.20304,0.44921,0,0.11512,0,0,1.0281,-0.042388,0,1.029,-0.52313,-1.0326,-0.87255,84.995,-0.80943,0.45127,0.0027965,0.6,0.1,0
0.2027,0.042762,0.38519,-1.0328,-0.49786,-0.84439,0.030781,0,0,-0.24493,0.45048,0,0.080032,0,0,1.0347,-0.033945,0,1.0353,-0.4961,-1.0346,-0.84439,86.718,-0.79168,0.47298,0.0026236,0.62,0.1,0
0.1974,0.042779,0.36444,-1.0348,-0.4737,-0.81699,0.019806,0,0,-0.28317,0.44628,0,0.051495,0,0,1.0396,-0.026664,0,1.04,-0.473,-1.0355,-0.81699,87.981,-0.77517,0.49117,0.0022813,0.64,0.1,0
0.19137,0.042337,0.3436,-1.0357,-0.4531,-0.79026,0.010956,0,0,-0.31914,0.43831,0,0.028487,0,0,1.0434,-0.020271,0,1.0436,-0.4529,-1.036,-0.79026,88.923,-0.7597,0.50702,0.0017957,0.66,0.1,0
0.18463,0.041513,0.32271,-1.0361,-0.43515,-0.76407,0.0037071,0,0,-0.35359,0.42759,0,0.0096384,0,0,1.0461,-0.014497,0,1.0462,-0.43513,-1.0361,-0.76407,89.647,-0.74509,0.52121,0.0011867,0.68,0.1,0
0.17722,0.040377,0.30176,-1.0359,-0.41925,-0.73831,-0.0024446,0,0,-0.38689,0.41478,0,-0.006356,0,0,1.0481,-0.0090902,0,1.0482,-0.41924,-1.0359,-0.73831,-89.773,-0.73116,0.53417,0.0004713,0.7,0.1,0
0.16916,0.038984,0.28078,-1.0353,-0.40497,-0.71287,-0.0079245,0,0,-0.41921,0.40027,0,-0.020604,0,0,1.0494,-0.003814,0,1.0494,-0.40487,-1.0354,-0.71287,-89.28,-0.71773,0.54613,-0.00033465,0.72,0.1,0
0.16046,0.03738,0.25978,-1.0343,-0.39205,-0.68768,-0.013072,0,0,-0.45057,0.38431,0,-0.033986,0,0,1.05,0.0015639,0,1.05,-0.39178,-1.0345,-0.68768,-88.834,-0.70466,0.55722,-0.0012157,0.74,0.1,0
0.15114,0.035605,0.23878,-1.0325,-0.3803,-0.66263,-0.018135,0,0,-0.48088,0.36703,0,-0.04715,0,0,1.0497,0.0072796,0,1.0497,-0.37979,-1.033,-0.66263,-88.409,-0.69182,0.56742,-0.002155,0.76,0.1,0
0.14122,0.033693,0.21779,-1.0299,-0.36962,-0.63765,-0.023257,0,0,-0.50994,0.34844,0,-0.060469,0,0,1.0486,0.013581,0,1.0487,-0.36881,-1.0307,-0.63765,-87.985,-0.67906,0.5766,-0.0031327,0.78,0.1,0
0.13074,0.031682,0.19684,-1.026,-0.36002,-0.61264,-0.028436,0,0,-0.53737,0.32842,0,-0.073934,0,0,1.0462,0.020733,0,1.0464,-0.3588,-1.0272,-0.61264,-87.559,-0.66622,0.58441,-0.0041226,0.8,0.1,0
0.11973,0.029615,0.17594,-1.0203,-0.35155,-0.58749,-0.033428,0,0,-0.56262,0.30672,0,-0.086912,0,0,1.0423,0.028998,0,1.0427,-0.34988,-1.0219,-0.58749,-87.145,-0.6531,0.59028,-0.0050881,0.82,0.1,0
0.10823,0.027557,0.15515,-1.0121,-0.34431,-0.56206,-0.037526,0,0,-0.58502,0.28308,0,-0.097569,0,0,1.0361,0.038575,0,1.0368,-0.3422,-1.0142,-0.56206,-86.794,-0.63948,0.59342,-0.0059793,0.84,0.1,0
0.096327,0.025607,0.1345,-1.0015,-0.33843,-0.53648,-0.039378,0,0,-0.60452,0.25746,0,-0.10238,0,0,1.0264,0.049379,0,1.0276,-0.3361,-1.0038,-0.53648,-86.613,-0.62547,0.59348,-0.0067555,0.86,0.1,0
0.084054,0.023914,0.11409,-0.98937,-0.33202,-0.5105,-0.037058,0,0,-0.62253,0.23203,0,-0.09635,0,0,1.0122,0.060283,0,1.014,-0.32993,-0.99146,-0.5105,-86.784,-0.61063,0.59225,-0.0074212,0.88,0.1,0
0.071426,0.022648,0.094011,-0.97755,-0.3207,-0.48349,-0.030035,0,0,-0.64229,0.21163,0,-0.078092,0,0,0.99306,0.068722,0,0.99549,-0.31933,-0.97892,-0.48349,-87.387,-0.59391,0.59476,-0.0080944,0.9,0.1,0
0.058362,0.021916,0.074366,-0.9672,-0.299,-0.45422,-0.020112,0,0,-0.66686,0.20179,0,-0.052291,0,0,0.97018,0.071002,0,0.97286,-0.2984,-0.9678,-0.45422,-88.278,-0.57347,0.60669,-0.0089687,0.92,0.1,0
0.044751,0.021664,0.055204,-0.95898,-0.26734,-0.4231,-0.011441,0,0,-0.69665,0.20249,0,-0.029746,0,0,0.94659,0.06442,0,0.94884,-0.26716,-0.95917,-0.4231,-89.053,-0.54981,0.62872,-0.010165,0.94,0.1,0
0.030497,0.021694,0.036502,-0.95351,-0.23315,-0.3925,-0.0058931,0,0,-0.72931,0.20716,0,-0.015322,0,0,0.92622,0.048651,0,0.9275,-0.2331,-0.95355,-0.3925,-89.531,-0.52638,0.65546,-0.01163,0.96,0.1,0
0.015579,0.021793,0.018155,-0.95018,-0.20165,-0.36371,-0.0027334,0,0,-0.76242,0.21067,0,-0.0071067,0,0,0.91255,0.026054,0,0.91288,-0.20164,-0.95019,-0.36371,-89.791,-0.50518,0.68211,-0.01325,0.98,0.1,0
0,0.021835,0,-0.92646,-0.16448,-0.32728,0.00080274,0,0,-0.77893,0.21165,0,0.0020871,0,0,0.90777,0,0,0.9077,-0.16447,-0.92646,-0.32728,89.94,-0.47274,0.69503,-0.014106,1,0.1,0
0,0.032973,1,-0.88356,-1.5878,-1.7414,0.009062,0,0,1.1152,0.19965,0,0.023561,0,0,0.70472,1.9707e-15,0,0.70433,-0.88344,-1.588,-1.7414,0.73706,-1.4043,0.79247,0.022364,0,0.12,0
0.022304,0.033444,0.98591,-0.87023,-1.5614,-1.7154,0.036967,0,0,1.0987,0.20018,0,0.096115,0,0,0.70656,-0.057578,0,0.70847,-0.86826,-1.5634,-1.7154,3.0528,-1.3823,0.78229,0.021492,0.02,0.12,0
0.043949,0.034954,0.97174,-0.88517,-1.5465,-1.7012,0.080744,0,0,1.0609,0.20119,0,0.20994,0,0,0.71298,-0.12128,0,0.72264,-0.87545,-1.5562,-1.7012,6.8615,-1.3776,0.76365,0.020119,0.04,0.12,0
0.06474,0.037845,0.95739,-0.92333,-1.5448,-1.6978,0.13644,0,0,1.0068,0.19894,0,0.35473,0,0,0.72638,-0.20041,0,0.75251,-0.8947,-1.5734,-1.6978,11.853,-1.3886,0.74872,0.019565,0.06,0.12,0
0.084222,0.042432,0.94268,-0.99342,-1.5709,-1.712,0.25499,0,0,0.93413,0.18339,0,0.66297,0,0,0.78608,-0.31517,0,0.84331,-0.89695,-1.6674,-1.712,20.724,-1.4254,0.79368,0.025405,0.08,0.12,0
0.10211,0.053814,0.92594,-0.8936,-1.1846,-1.2022,0.3271,0,0,0.53373,-0.095059,0,1.6156,0,0,0.67057,-0.34294,0,0.75711,-0.68034,-1.3979,-1.2022,33.883,-1.0935,0.64984,0.018639,0.1,0.12,0
0.10917,0.078443,0.89909,-0.84879,-0.76097,-1.0449,0.21719,0,0,0.40782,0.14552,0,1.1363,0,0,0.79033,-0.13833,0,0.80556,-0.54624,-1.0635,-1.0449,44.817,-0.88488,0.53908,0.010147,0.12,0.12,0
0.11842,0.088645,0.87536,-0.76933,-0.71723,-0.99307,0.10371,0,0,0.46537,0.14678,0,0.61965,0,0,0.73453,-0.093899,0,0.74285,-0.58066,-0.9059,-0.99307,46.069,-0.82654,0.41972,0.00088964,0.14,0.12,0
0.12779,0.094674,0.85208,-0.74415,-0.68329,-0.96078,0.065537,0,0,0.45061,0.15067,0,0.40781,0,0,0.72433,-0.06523,0,0.72858,-0.56992,-0.85752,-0.96078,47.028,-0.79607,0.39288,0.00015537,0.16,0.12,0
0.13644,0.097661,0.829,-0.74269,-0.66437,-0.94025,0.039879,0,0,0.41092,0.15559,0,0.25867,0,0,0.72006,-0.044642,0,0.72211,-0.56635,-0.84071,-0.94025,47.551,-0.78244,0.37285,0.00044545,0.18,0.12,0
0.14423,0.098578,0.806,-0.74548,-0.64767,-0.9217,0.021738,0,0,0.36652,0.16021,0,0.14785,0,0,0.71894,-0.027756,0,0.71974,-0.56005,-0.83311,-0.9217,47.268,-0.77162,0.35931,0.0010432,0.2,0.12,0
0.1511,0.097873,0.78299,-0.74976,-0.63278,-0.90413,0.00655,0,0,0.32109,0.16384,0,0.053173,0,0,0.71953,-0.012408,0,0.71967,-0.55318,-0.82937,-0.90413,46.386,-0.76223,0.34906,0.0016865,0.22,0.12,0
0.15707,0.095777,0.75995,-0.75452,-0.61911,-0.88706,-0.0081583,0,0,0.27568,0.16637,0,-0.038826,0,0,0.72146,0.0029894,0,0.72142,-0.54571,-0.82791,-0.88706,-45.074,-0.75356,0.3417,0.0023064,0.24,0.12,0
0.16213,0.092334,0.73682,-0.76056,-0.60689,-0.87075,-0.02474,0,0,0.22919,0.16836,0,-0.14103,0,0,0.72499,0.020026,0,0.72531,-0.53765,-0.8298,-0.87075,-47.175,-0.74607,0.33795,0.0029103,0.26,0.12,0
0.16624,0.087411,0.71355,-0.77032,-0.59631,-0.85596,-0.04695,0,0,0.17812,0.17091,0,-0.27218,0,0,0.73135,0.040867,0,0.73286,-0.52756,-0.83907,-0.85596,-49.854,-0.74086,0.34171,0.0036118,0.28,0.12,0
0.16925,0.080515,0.69001,-0.7989,-0.59666,-0.84993,-0.078803,0,0,0.10613,0.1759,0,-0.45235,0,0,0.74299,0.069864,0,0.74731,-0.52314,-0.87243,-0.84993,-52.881,-0.7485,0.35753,0.0045728,0.3,0.12,0
0.17048,0.071134,0.666,-0.87136,-0.60507,-0.85918,-0.16402,0,0,-0.025341,0.1856,0,-0.85036,0,0,0.79637,0.11477,0,0.80628,-0.49496,-0.98147,-0.85918,-54.056,-0.77854,0.45265,0.0083324,0.32,0.12,0
0.16824,0.05276,0.63904,-0.84988,-0.85027,-0.90945,-0.2584,0,0,0.035401,0.024839,0,-1.2753,0,0,0.67599,0.3098,0,0.7461,-0.59167,-1.1085,-0.90945,-44.848,-0.86987,0.45616,0.0041207,0.34,0.12,0
0.17485,0.044755,0.62207,-0.9684,-1.0588,-1.2302,-0.2057,0,0,0.34039,0.22282,0,-0.53482,0,0,0.80983,0.25664,0,0.84571,-0.80301,-1.2242,-1.2302,-38.801,-1.0858,0.42426,0.0039195,0.36,0.12,0
0.18186,0.040612,0.60665,-0.91334,-1.0118,-1.1842,-0.11851,0,0,0.35211,0.2241,0,-0.30812,0,0,0.77116,0.14006,0,0.78274,-0.83425,-1.0909,-1.1842,-33.719,-1.0365,0.31388,0.0011279,0.38,0.12,0
0.18893,0.037515,0.59122,-0.88729,-0.98404,-1.1526,-0.07097,0,0,0.34493,0.21915,0,-0.18452,0,0,0.7769,0.060984,0,0.77878,-0.84977,-1.0215,-1.1526,-27.86,-1.008,0.26306,0.00021531,0.4,0.12,0
0.19565,0.035437,0.57558,-0.8813,-0.96456,-1.1293,-0.031815,0,0,0.32244,0.21421,0,-0.08272,0,0,0.79231,-4.3453e-05,0,0.79204,-0.87053,-0.97533,-1.1293,-18.694,-0.99173,0.22547,-0.0001897,0.42,0.12,0
0.20183,0.034264,0.55953,-0.88422,-0.94605,-1.1086,0.0025845,0,0,0.2917,0.21133,0,0.0067198,0,0,0.81703,-0.050147,0,0.81848,-0.88412,-0.94615,-1.1086,2.3897,-0.97963,0.2008,-0.00028591,0.44,0.12,0
0.20732,0.034072,0.5429,-0.89405,-0.92503,-1.0886,0.03702,0,0,0.25294,0.21267,0,0.096251,0,0,0.85097,-0.090305,0,0.85586,-0.86941,-0.94967,-1.0886,33.648,-0.96923,0.1921,-0.00016166,0.46,0.12,0
0.21195,0.035075,0.52549,-0.91365,-0.8947,-1.068,0.073325,0,0,0.20065,0.22529,0,0.19064,0,0,0.89224,-0.116,0,0.90001,-0.83024,-0.97811,-1.068,48.683,-0.95878,0.20793,0.00018813,0.48,0.12,0
0.21535,0.03743,0.50721,-0.94042,-0.83513,-1.0399,0.10682,0,0,0.12928,0.26616,0,0.27774,0,0,0.9354,-0.12364,0,0.9438,-0.76868,-1.0069,-1.0399,58.118,-0.93847,0.25628,0.00081642,0.5,0.12,0
0.21712,0.040875,0.48807,-0.96852,-0.74228,-1.0013,0.12167,0,0,0.042639,0.33674,0,0.31633,0,0,0.9735,-0.11387,0,0.98027,-0.68927,-1.0215,-1.0013,66.457,-0.90404,0.32262,0.0017019,0.52,0.12,0
0.21705,0.044579,0.46826,-0.99589,-0.65275,-0.96286,0.11352,0,0,-0.042938,0.40314,0,0.29514,0,0,1.0019,-0.095616,0,1.0064,-0.6186,-1.03,-0.96286,73.255,-0.8705,0.3823,0.0025736,0.54,0.12,0
0.2154,0.047742,0.448,-1.0163,-0.58759,-0.92917,0.090995,0,0,-0.11327,0.44405,0,0.23659,0,0,1.0202,-0.076519,0,1.023,-0.56908,-1.0348,-0.92917,78.499,-0.84435,0.42293,0.0030832,0.56,0.12,0
0.21252,0.050001,0.42746,-1.0277,-0.54439,-0.8991,0.067711,0,0,-0.16725,0.46112,0,0.17605,0,0,1.0313,-0.061066,0,1.0331,-0.53509,-1.0371,-0.8991,82.174,-0.82375,0.44918,0.0032171,0.58,0.12,0
0.20871,0.05134,0.40675,-1.0316,-0.51178,-0.86977,0.048321,0,0,-0.21042,0.46539,0,0.12563,0,0,1.0384,-0.048713,0,1.0395,-0.50733,-1.0361,-0.86977,84.734,-0.80439,0.4683,0.00312,0.6,0.12,0
0.20411,0.051893,0.38592,-1.033,-0.48586,-0.84157,0.033322,0,0,-0.2488,0.46242,0,0.086637,0,0,1.0433,-0.038675,0,1.044,-0.48384,-1.035,-0.84157,86.527,-0.7868,0.48432,0.0028554,0.62,0.12,0
0.19876,0.051798,0.36501,-1.0336,-0.4642,-0.81435,0.021751,0,0,-0.285,0.45519,0,0.056553,0,0,1.047,-0.030299,0,1.0475,-0.46337,-1.0344,-0.81435,87.815,-0.77071,0.49885,0.0024522,0.64,0.12,0
0.19271,0.051175,0.34404,-1.0342,-0.44543,-0.78793,0.012662,0,0,-0.32014,0.44525,0,0.03292,0,0,1.0499,-0.023084,0,1.0501,-0.44516,-1.0345,-0.78793,88.769,-0.75585,0.51262,0.0019253,0.66,0.12,0
0.18596,0.050125,0.32302,-1.0349,-0.42873,-0.76212,0.0052621,0,0,-0.35466,0.4334,0,0.013681,0,0,1.0521,-0.016638,0,1.0523,-0.42869,-1.035,-0.76212,89.503,-0.74193,0.52593,0.0012851,0.68,0.12,0
0.17852,0.048727,0.30196,-1.0358,-0.4136,-0.73677,-0.0010637,0,0,-0.3887,0.42011,0,-0.0027657,0,0,1.0538,-0.010636,0,1.0539,-0.4136,-1.0358,-0.73677,-89.902,-0.72871,0.53894,0.00054039,0.7,0.12,0
0.17041,0.047043,0.28086,-1.0366,-0.39972,-0.71175,-0.0067968,0,0,-0.42227,0.40564,0,-0.017672,0,0,1.0551,-0.0047885,0,1.0551,-0.39965,-1.0367,-0.71175,-89.389,-0.71602,0.55169,-0.00029991,0.72,0.12,0
0.16163,0.045123,0.25975,-1.0372,-0.38689,-0.68699,-0.012317,0,0,-0.45532,0.39013,0,-0.032025,0,0,1.0559,0.0011798,0,1.0559,-0.38666,-1.0375,-0.68699,-88.915,-0.70371,0.56418,-0.0012265,0.74,0.12,0
0.15219,0.043008,0.23863,-1.0376,-0.37501,-0.6624,-0.017929,0,0,-0.48772,0.37361,0,-0.046616,0,0,1.0562,0.0075562,0,1.0562,-0.37452,-1.0381,-0.6624,-88.451,-0.69166,0.57631,-0.0022286,0.76,0.12,0
0.14212,0.040732,0.21751,-1.0373,-0.36405,-0.63792,-0.023873,0,0,-0.51923,0.35603,0,-0.06207,0,0,1.0558,0.014661,0,1.0559,-0.3632,-1.0382,-0.63792,-87.972,-0.67976,0.5879,-0.0032919,0.78,0.12,0
0.13143,0.038328,0.19639,-1.0361,-0.35409,-0.61344,-0.030315,0,0,-0.54941,0.33715,0,-0.07882,0,0,1.0547,0.022877,0,1.0549,-0.35275,-1.0374,-0.61344,-87.46,-0.66787,0.59852,-0.0043943,0.8,0.12,0
0.12014,0.035831,0.17532,-1.033,-0.34538,-0.58884,-0.03728,0,0,-0.57744,0.3165,0,-0.096927,0,0,1.0523,0.032683,0,1.0528,-0.34337,-1.035,-0.58884,-86.906,-0.65575,0.60736,-0.0054969,0.82,0.12,0
0.10833,0.033293,0.1543,-1.027,-0.33839,-0.5639,-0.044468,0,0,-0.60196,0.29317,0,-0.11562,0,0,1.0479,0.044688,0,1.0489,-0.33553,-1.0298,-0.5639,-86.32,-0.64308,0.61288,-0.0065296,0.84,0.12,0
0.096065,0.030797,0.1334,-1.0157,-0.33373,-0.53823,-0.050462,0,0,-0.62072,0.26585,0,-0.1312,0,0,1.0396,0.05959,0,1.0413,-0.33002,-1.0194,-0.53823,-85.791,-0.62923,0.61245,-0.0073659,0.86,0.12,0
0.083499,0.028533,0.11272,-1.001,-0.33399,-0.51322,-0.052204,0,0,-0.63416,0.23301,0,-0.13573,0,0,1.0247,0.077774,0,1.0276,-0.32993,-1.0051,-0.51322,-85.552,-0.61608,0.60473,-0.0079392,0.88,0.12,0
0.070699,0.02679,0.092413,-0.98461,-0.33158,-0.48727,-0.044979,0,0,-0.64655,0.2024,0,-0.11694,0,0,1.0007,0.09473,0,1.0052,-0.32849,-0.9877,-0.48727,-86.078,-0.60115,0.59589,-0.0083222,0.9,0.12,0
0.057637,0.025833,0.072689,-0.96884,-0.31323,-0.45731,-0.031923,0,0,-0.66498,0.1873,0,-0.082999,0,0,0.96858,0.10324,0,0.97425,-0.31168,-0.97039,-0.45731,-87.219,-0.57979,0.59931,-0.0088935,0.92,0.12,0
0.0441,0.025617,0.05367,-0.95436,-0.27565,-0.42267,-0.019305,0,0,-0.69119,0.19113,0,-0.050193,0,0,0.93368,0.09535,0,0.93869,-0.2751,-0.95491,-0.42267,-88.372,-0.5509,0.61935,-0.009906,0.94,0.12,0
0.029989,0.025766,0.035342,-0.94376,-0.23709,-0.3896,-0.012305,0,0,-0.72041,0.19826,0,-0.031994,0,0,0.90338,0.071779,0,0.90625,-0.23688,-0.94397,-0.3896,-89.003,-0.52348,0.64445,-0.011187,0.96,0.12,0
0.015283,0.025941,0.017535,-0.93761,-0.20692,-0.3609,-0.0066813,0,0,-0.74974,0.20017,0,-0.017371,0,0,0.88354,0.03771,0,0.88425,-0.20686,-0.93768,-0.3609,-89.476,-0.50181,0.66727,-0.012561,0.98,0.12,0
0,0.025999,0,-0.9132,-0.17139,-0.32538,0.0011161,0,0,-0.76417,0.20018,0,0.0029018,0,0,0.87673,1.3878e-17,0,0.87659,-0.17139,-0.9132,-0.32538,89.914,-0.46999,0.67806,-0.01327,1,0.12,0
0,0.036517,1,-0.83724,-1.6226,-1.738,0.0087612,0,0,1.1709,0.14994,0,0.022779,0,0,0.64547,2.1719e-15,0,0.64504,-0.83714,-1.6227,-1.738,0.63905,-1.3993,0.84908,0.029496,0,0.14,0
0.023419,0.036972,0.98709,-0.82152,-1.5999,-1.7135,0.041859,0,0,1.1596,0.14769,0,0.10883,0,0,0.64399,-0.058019,0,0.64612,-0.81927,-1.6022,-1.7135,3.0694,-1.3783,0.84409,0.029084,0.02,0.14,0
0.046384,0.038436,0.97424,-0.82123,-1.5911,-1.6979,0.089824,0,0,1.1397,0.13892,0,0.23354,0,0,0.6383,-0.12194,0,0.64919,-0.81089,-1.6014,-1.6979,6.5677,-1.3701,0.84294,0.029406,0.04,0.14,0
0.069007,0.041013,0.96156,-0.8098,-1.5947,-1.6829,0.15383,0,0,1.135,0.11467,0,0.39995,0,0,0.62416,-0.20039,0,0.65444,-0.78073,-1.6238,-1.6829,10.702,-1.3625,0.87411,0.033773,0.06,0.14,0
0.091786,0.045292,0.94927,-0.68769,-1.5991,-1.6353,0.20981,0,0,1.2319,0.047093,0,0.54551,0,0,0.5467,-0.31126,0,0.62611,-0.64171,-1.6451,-1.6353,12.361,-1.3074,0.99851,0.051114,0.08,0.14,0
0.11828,0.047526,0.93969,-0.62578,-1.2645,-1.1544,0.21149,0,0,0.76146,-0.22901,0,1.1312,0,0,0.4303,-0.31956,0,0.55443,-0.53911,-1.3512,-1.1544,24.805,-1.0149,0.74101,0.040164,0.1,0.14,0
0.12224,0.06652,0.90918,-0.54829,-0.69293,-0.59966,0.12241,0,0,0.26713,-0.485,0,1.273,0,0,0.35827,-0.10782,0,0.37439,-0.47843,-0.76278,-0.59966,29.712,-0.61362,0.24715,-0.00019527,0.12,0.14,0
0.12897,0.077348,0.88237,-0.50873,-0.67127,-0.57459,0.082876,0,0,0.34249,-0.50274,0,0.86191,0,0,0.32544,-0.080339,0,0.33512,-0.47392,-0.70608,-0.57459,22.78,-0.58486,0.20164,-9.5778e-05,0.14,0.14,0
0.13594,0.083471,0.85711,-0.4929,-0.6568,-0.55919,0.056814,0,0,0.34468,-0.50757,0,0.59086,0,0,0.31161,-0.059263,0,0.31712,-0.47513,-0.67456,-0.55919,17.367,-0.56963,0.17342,-7.1789e-05,0.16,0.14,0
0.14275,0.086832,0.83251,-0.48264,-0.64151,-0.54537,0.038146,0,0,0.3262,-0.49991,0,0.39672,0,0,0.30553,-0.042126,0,0.30836,-0.47396,-0.65019,-0.54537,12.826,-0.55651,0.15354,-5.9712e-05,0.18,0.14,0
0.14899,0.088124,0.80822,-0.47713,-0.62689,-0.53326,0.022977,0,0,0.29189,-0.48688,0,0.23896,0,0,0.30295,-0.027242,0,0.30412,-0.47369,-0.63034,-0.53326,8.5291,-0.54576,0.13696,-5.2835e-05,0.2,0.14,0
0.15443,0.087797,0.78404,-0.47452,-0.61264,-0.52216,0.0096725,0,0,0.24771,-0.4705,0,0.10059,0,0,0.3026,-0.013344,0,0.30284,-0.47385,-0.61331,-0.52216,3.9865,-0.53644,0.12267,-4.7646e-05,0.22,0.14,0
0.1589,0.086073,0.75981,-0.4744,-0.59863,-0.51186,-0.0032343,0,0,0.19479,-0.45121,0,-0.033636,0,0,0.30411,0.00062973,0,0.30406,-0.47432,-0.59872,-0.51186,-1.4903,-0.5283,0.11052,-4.3322e-05,0.24,0.14,0
0.16222,0.083019,0.73538,-0.47725,-0.58476,-0.50245,-0.017119,0,0,0.13102,-0.42801,0,-0.17803,0,0,0.30783,0.015755,0,0.30816,-0.47459,-0.58742,-0.50245,-8.8327,-0.52148,0.1018,-4.0811e-05,0.26,0.14,0
0.16414,0.078524,0.71055,-0.48495,-0.57105,-0.49444,-0.033361,0,0,0.049325,-0.39836,0,-0.34696,0,0,0.315,0.033342,0,0.31668,-0.47354,-0.58246,-0.49444,-18.888,-0.51681,0.10012,-4.4072e-05,0.28,0.14,0
0.1642,0.072337,0.68498,-0.49952,-0.55644,-0.48803,-0.054761,0,0,-0.05973,-0.35573,0,-0.56951,0,0,0.32981,0.055194,0,0.33431,-0.46627,-0.5897,-0.48803,-31.268,-0.51467,0.11412,-6.7059e-05,0.3,0.14,0
0.16175,0.063414,0.65778,-0.53635,-0.54681,-0.48939,-0.084867,0,0,-0.24416,-0.29857,0,-0.88262,0,0,0.36401,0.084098,0,0.37383,-0.45655,-0.62661,-0.48939,-43.236,-0.52419,0.15625,-0.0001671,0.32,0.14,0
0.15443,0.049982,0.62674,-0.59423,-0.87107,-0.8313,-0.15888,0,0,0.17088,-0.082715,0,-0.83605,0,0,0.44182,0.26971,0,0.53496,-0.49216,-0.97314,-0.8313,-34.662,-0.76553,0.44078,0.0070942,0.34,0.14,0
0.16859,0.048224,0.61683,-0.66963,-1.0703,-1.1388,-0.16089,0,0,0.60992,0.089096,0,-0.4183,0,0,0.57186,0.23432,0,0.61502,-0.61301,-1.1269,-1.1388,-19.385,-0.95956,0.51992,0.0072053,0.36,0.14,0
0.17883,0.044229,0.60386,-0.78652,-1.0498,-1.1548,-0.11886,0,0,0.47873,0.13641,0,-0.30905,0,0,0.66772,0.12207,0,0.67785,-0.74081,-1.0956,-1.1548,-21.038,-0.99705,0.38777,0.0027607,0.38,0.14,0
0.18774,0.041315,0.59012,-0.81688,-1.0227,-1.142,-0.065239,0,0,0.42266,0.15505,0,-0.16962,0,0,0.70227,0.041675,0,0.703,-0.79795,-1.0417,-1.142,-16.184,-0.99387,0.30646,0.0009618,0.4,0.14,0
0.19573,0.039259,0.57577,-0.8355,-1.0002,-1.1265,-0.022321,0,0,0.37827,0.16417,0,-0.058036,0,0,0.73243,-0.023983,0,0.73252,-0.83253,-1.0032,-1.1265,-7.583,-0.9874,0.25567,0.00023563,0.42,0.14,0
0.20287,0.038102,0.56082,-0.85319,-0.9799,-1.1107,0.016435,0,0,0.33483,0.1701,0,0.042732,0,0,0.76684,-0.082365,0,0.77111,-0.85109,-0.982,-1.1107,7.2715,-0.98128,0.22487,8.391e-06,0.44,0.14,0
0.20913,0.037961,0.5451,-0.87445,-0.9622,-1.0961,0.055339,0,0,0.28813,0.17406,0,0.14388,0,0,0.81357,-0.13606,0,0.82503,-0.84771,-0.98895,-1.0961,25.796,-0.97758,0.21579,0.00012128,0.46,0.14,0
0.21439,0.039196,0.52828,-0.90259,-0.93876,-1.0807,0.10162,0,0,0.23153,0.1845,0,0.26421,0,0,0.87411,-0.17814,0,0.89281,-0.81746,-1.0239,-1.0807,39.954,-0.97401,0.23992,0.00057758,0.48,0.14,0
0.21839,0.042487,0.51014,-0.94839,-0.88248,-1.0594,0.14788,0,0,0.1443,0.22999,0,0.38448,0,0,0.93955,-0.18105,0,0.95743,-0.76393,-1.0669,-1.0594,51.282,-0.96342,0.29931,0.0013742,0.5,0.14,0
0.22016,0.047667,0.4907,-0.97713,-0.72775,-1.0022,0.16654,0,0,0.032539,0.35673,0,0.433,0,0,0.99348,-0.15487,0,1.0056,-0.6444,-1.0605,-1.0022,63.411,-0.90235,0.39021,0.0028231,0.52,0.14,0
0.21969,0.052927,0.4704,-1.0089,-0.6116,-0.95654,0.13548,0,0,-0.068054,0.44843,0,0.35224,0,0,1.0261,-0.11276,0,1.0322,-0.5698,-1.0507,-0.95654,72.853,-0.85901,0.44141,0.0037488,0.54,0.14,0
0.21744,0.056938,0.44965,-1.0316,-0.56035,-0.92724,0.098651,0,0,-0.13566,0.47695,0,0.25649,0,0,1.041,-0.08575,0,1.0445,-0.54054,-1.0514,-0.92724,78.641,-0.83973,0.46149,0.0038428,0.56,0.14,0
0.21426,0.059455,0.42876,-1.0322,-0.52349,-0.89547,0.069526,0,0,-0.17777,0.48357,0,0.18077,0,0,1.0469,-0.066838,0,1.049,-0.51416,-1.0415,-0.89547,82.356,-0.81706,0.47163,0.0036968,0.58,0.14,0
0.21033,0.060813,0.40778,-1.0302,-0.49608,-0.86567,0.049231,0,0,-0.21394,0.48047,0,0.128,0,0,1.0505,-0.052788,0,1.0518,-0.49158,-1.0347,-0.86567,84.778,-0.79733,0.48143,0.0034395,0.6,0.14,0
0.2057,0.061258,0.38674,-1.029,-0.47386,-0.83758,0.034552,0,0,-0.24878,0.47284,0,0.089835,0,0,1.0531,-0.041795,0,1.0539,-0.47172,-1.0311,-0.83758,86.452,-0.78013,0.49204,0.0030831,0.62,0.14,0
0.20038,0.060987,0.36565,-1.029,-0.45482,-0.81079,0.023578,0,0,-0.28365,0.46276,0,0.061302,0,0,1.0552,-0.032807,0,1.0557,-0.45385,-1.0299,-0.81079,87.652,-0.76486,0.50365,0.0026254,0.64,0.14,0
0.19436,0.060146,0.34453,-1.0301,-0.43784,-0.78491,0.014994,0,0,-0.31874,0.45118,0,0.038985,0,0,1.057,-0.02515,0,1.0573,-0.43747,-1.0305,-0.78491,88.551,-0.75095,0.51608,0.0020633,0.66,0.14,0
0.18763,0.058849,0.32337,-1.032,-0.42232,-0.75966,0.0079384,0,0,-0.35402,0.43854,0,0.02064,0,0,1.0586,-0.018347,0,1.0588,-0.42222,-1.0321,-0.75966,89.254,-0.73799,0.52916,0.0013956,0.68,0.14,0
0.1802,0.057182,0.30218,-1.0344,-0.40788,-0.73485,0.0017973,0,0,-0.38935,0.42507,0,0.0046729,0,0,1.06,-0.012029,0,1.0601,-0.40787,-1.0344,-0.73485,89.836,-0.72569,0.54273,0.00062291,0.7,0.14,0
0.17206,0.05521,0.28097,-1.037,-0.3943,-0.71037,-0.0038874,0,0,-0.42465,0.41089,0,-0.010107,0,0,1.0612,-0.0058811,0,1.0613,-0.39428,-1.0371,-0.71037,-89.653,-0.7139,0.55668,-0.00025279,0.72,0.14,0
0.16321,0.052985,0.25973,-1.0398,-0.38146,-0.68612,-0.0094833,0,0,-0.45983,0.39606,0,-0.024657,0,0,1.0623,0.00039833,0,1.0623,-0.38132,-1.04,-0.68612,-89.175,-0.70247,0.57094,-0.0012288,0.74,0.14,0
0.15366,0.050549,0.23848,-1.0427,-0.36929,-0.66207,-0.015308,0,0,-0.49479,0.38061,0,-0.039801,0,0,1.0632,0.0071241,0,1.0632,-0.36894,-1.043,-0.66207,-88.698,-0.69134,0.58542,-0.0023016,0.76,0.14,0
0.14342,0.047934,0.21721,-1.0454,-0.35782,-0.63817,-0.021665,0,0,-0.52939,0.36446,0,-0.056328,0,0,1.0639,0.014661,0,1.064,-0.35713,-1.0461,-0.63817,-88.197,-0.68046,0.6,-0.0034663,0.78,0.14,0
0.13249,0.045168,0.19592,-1.0477,-0.34714,-0.61439,-0.028873,0,0,-0.56336,0.34742,0,-0.075069,0,0,1.0643,0.023477,0,1.0645,-0.34595,-1.0489,-0.61439,-87.644,-0.66976,0.61443,-0.0047136,0.8,0.14,0
0.12089,0.042275,0.17464,-1.0492,-0.33753,-0.59066,-0.037306,0,0,-0.5961,0.32906,0,-0.096996,0,0,1.0641,0.034221,0,1.0647,-0.33559,-1.0512,-0.59066,-87.007,-0.65913,0.62815,-0.0060218,0.82,0.14,0
0.10864,0.039283,0.15336,-1.0484,-0.3295,-0.56673,-0.04732,0,0,-0.62618,0.3084,0,-0.12303,0,0,1.063,0.047893,0,1.064,-0.3264,-1.0515,-0.56673,-86.25,-0.64822,0.63975,-0.0073327,0.84,0.14,0
0.095838,0.036241,0.13212,-1.0423,-0.32414,-0.54204,-0.059199,0,0,-0.6503,0.28327,0,-0.15392,0,0,1.0595,0.066167,0,1.0615,-0.31929,-1.0471,-0.54204,-85.319,-0.63615,0.64593,-0.0084971,0.86,0.14,0
0.082632,0.033234,0.11098,-1.0216,-0.3222,-0.51412,-0.069735,0,0,-0.65974,0.2495,0,-0.18131,0,0,1.0474,0.091962,0,1.0513,-0.31531,-1.0285,-0.51412,-84.361,-0.61931,0.63747,-0.0090724,0.88,0.14,0
0.069448,0.030744,0.090222,-1.0011,-0.34188,-0.49313,-0.071883,0,0,-0.66041,0.19662,0,-0.18689,0,0,1.0185,0.13135,0,1.0271,-0.33413,-1.0089,-0.49313,-83.849,-0.61205,0.61097,-0.0090937,0.9,0.14,0
0.056215,0.029408,0.070236,-0.97704,-0.33809,-0.46477,-0.052308,0,0,-0.66595,0.16469,0,-0.136,0,0,0.9708,0.1535,0,0.98332,-0.33383,-0.9813,-0.46477,-85.351,-0.5933,0.59293,-0.0089714,0.92,0.14,0
0.042811,0.029309,0.05139,-0.94456,-0.28122,-0.41912,-0.03762,0,0,-0.68306,0.17927,0,-0.097811,0,0,0.91513,0.14685,0,0.92731,-0.27909,-0.94668,-0.41912,-86.764,-0.5483,0.60976,-0.0096057,0.94,0.14,0
0.028893,0.029624,0.033631,-0.92722,-0.24623,-0.38567,-0.027263,0,0,-0.70401,0.18126,0,-0.070884,0,0,0.86858,0.10336,0,0.87465,-0.24514,-0.92831,-0.38567,-87.711,-0.5197,0.62487,-0.010426,0.96,0.14,0
0.01465,0.0298,0.016647,-0.91151,-0.21928,-0.35588,-0.015546,0,0,-0.72232,0.17759,0,-0.040419,0,0,0.84077,0.051838,0,0.84213,-0.21893,-0.91186,-0.35588,-88.714,-0.49556,0.63562,-0.011153,0.98,0.14,0
0,0.029842,0,-0.8848,-0.18635,-0.32134,0.00081306,0,0,-0.7325,0.1755,0,0.0021139,0,0,0.83235,3.4694e-18,0,0.83208,-0.18635,-0.8848,-0.32134,89.933,-0.46417,0.6417,-0.011572,1,0.14,0
0,0.03897,1,-0.78018,-1.6586,-1.7316,0.0073338,0,0,1.2369,0.094919,0,0.019068,0,0,0.58868,-1.2594e-15,0,0.58828,-0.78012,-1.6587,-1.7316,0.4783,-1.3901,0.91722,0.038788,0,0.16,0
0.024738,0.039351,0.98823,-0.76121,-1.6391,-1.7083,0.039744,0,0,1.2312,0.09001,0,0.10333,0,0,0.58462,-0.053235,0,0.58662,-0.75941,-1.6409,-1.7083,2.5869,-1.3695,0.91704,0.038886,0.02,0.16,0
0.049249,0.040511,0.97662,-0.74588,-1.6353,-1.6909,0.082667,0,0,1.2286,0.072414,0,0.21493,0,0,0.57061,-0.11012,0,0.58067,-0.73826,-1.6429,-1.6909,5.2655,-1.3574,0.92959,0.040884,0.04,0.16,0
0.073882,0.042432,0.9654,-0.70205,-1.6433,-1.669,0.12336,0,0,1.257,0.033458,0,0.32074,0,0,0.53706,-0.17446,0,0.56424,-0.68615,-1.6592,-1.669,7.3443,-1.3381,0.97796,0.048023,0.06,0.16,0
0.09953,0.044316,0.95513,-0.66095,-1.7074,-1.6656,0.14498,0,0,1.3061,-0.054254,0,0.37694,0,0,0.47518,-0.2485,0,0.53742,-0.64124,-1.7271,-1.6656,7.7439,-1.3446,1.0565,0.059868,0.08,0.16,0
0.12612,0.044653,0.94639,-0.589,-1.174,-1.1204,0.11857,0,0,0.76861,-0.11142,0,0.70402,0,0,0.40626,-0.17653,0,0.45219,-0.54314,-1.2198,-1.1204,21.734,-0.96111,0.63884,0.032648,0.1,0.16,0
0.13028,0.059043,0.91634,-0.53637,-0.64526,-0.58357,0.089835,0,0,0.24546,-0.32075,0,0.93428,0,0,0.36362,-0.075174,0,0.37156,-0.48577,-0.69586,-0.58357,29.391,-0.5884,0.18209,-3.6906e-05,0.12,0.16,0
0.13594,0.068535,0.88822,-0.51403,-0.64618,-0.57012,0.065547,0,0,0.29164,-0.3955,0,0.68168,0,0,0.34237,-0.064589,0,0.34847,-0.48703,-0.67317,-0.57012,22.386,-0.57678,0.16151,-3.9936e-05,0.14,0.16,0
0.14194,0.074371,0.86156,-0.50043,-0.63744,-0.55675,0.046834,0,0,0.29286,-0.41957,0,0.48707,0,0,0.32794,-0.051024,0,0.33188,-0.48595,-0.65192,-0.55675,17.18,-0.56488,0.14424,-3.8687e-05,0.16,0.16,0
0.14766,0.077665,0.83574,-0.49239,-0.6268,-0.54469,0.03213,0,0,0.272,-0.42698,0,0.33415,0,0,0.32005,-0.038005,0,0.32226,-0.4851,-0.63409,-0.54469,12.775,-0.55463,0.12989,-3.8055e-05,0.18,0.16,0
0.15282,0.079103,0.81036,-0.48739,-0.61451,-0.53316,0.019871,0,0,0.23799,-0.42301,0,0.20666,0,0,0.31636,-0.025774,0,0.31737,-0.48436,-0.61754,-0.53316,8.681,-0.54502,0.1167,-3.6178e-05,0.2,0.16,0
0.15718,0.079053,0.78513,-0.48532,-0.60126,-0.52226,0.0088946,0,0,0.19207,-0.41081,0,0.092504,0,0,0.31568,-0.013967,0,0.31595,-0.48464,-0.60194,-0.52226,4.3616,-0.53628,0.10374,-3.2963e-05,0.22,0.16,0
0.1605,0.077729,0.75985,-0.48604,-0.58711,-0.51191,-0.0016208,0,0,0.13452,-0.39107,0,-0.016856,0,0,0.31768,-0.0020803,0,0.31766,-0.48601,-0.58714,-0.51191,-0.91843,-0.52835,0.090986,-2.8381e-05,0.24,0.16,0
0.16256,0.075214,0.7343,-0.48993,-0.57195,-0.50214,-0.012408,0,0,0.063473,-0.363,0,-0.12904,0,0,0.32271,0.010402,0,0.32285,-0.4881,-0.57378,-0.50214,-8.4173,-0.52134,0.079599,-2.3209e-05,0.26,0.16,0
0.16304,0.071476,0.70821,-0.49755,-0.55516,-0.49287,-0.024256,0,0,-0.024358,-0.32393,0,-0.25226,0,0,0.33198,0.023879,0,0.33283,-0.4887,-0.56401,-0.49287,-20.05,-0.51519,0.073319,-2.0023e-05,0.28,0.16,0
0.16158,0.066286,0.68118,-0.51106,-0.53654,-0.48458,-0.037892,0,0,-0.13773,-0.27021,0,-0.39408,0,0,0.34795,0.038195,0,0.35012,-0.48382,-0.56378,-0.48458,-35.709,-0.51073,0.079579,-2.5876e-05,0.3,0.16,0
0.15753,0.059191,0.65254,-0.5315,-0.51059,-0.47576,-0.054119,0,0,-0.28985,-0.1811,0,-0.56284,0,0,0.37124,0.05004,0,0.37489,-0.46593,-0.57617,-0.47576,-50.468,-0.50595,0.10567,-5.8826e-05,0.32,0.16,0
0.14999,0.049452,0.62178,-0.57205,-0.80831,-0.80272,-0.07119,0,0,0.15844,-0.01162,0,-0.42525,0,0,0.41943,0.11752,0,0.44113,-0.51314,-0.86722,-0.80272,-34.074,-0.7277,0.34233,0.004358,0.34,0.16,0
0.16387,0.048319,0.6127,-0.64416,-1.154,-1.1521,-0.091124,0,0,0.66036,-0.0023687,0,-0.23692,0,0,0.50036,0.1545,0,0.52564,-0.62836,-1.1698,-1.1521,-9.8358,-0.98342,0.5328,0.0077393,0.36,0.16,0
0.1764,0.046069,0.60177,-0.68914,-1.0924,-1.1362,-0.073827,0,0,0.58123,0.05696,0,-0.19195,0,0,0.57852,0.07855,0,0.58363,-0.67605,-1.1055,-1.1362,-10.055,-0.9726,0.44562,0.0044722,0.38,0.16,0
0.18712,0.043717,0.58956,-0.74463,-1.0634,-1.132,-0.038564,0,0,0.50352,0.089162,0,-0.10027,0,0,0.63085,0.0098055,0,0.63061,-0.74003,-1.068,-1.132,-6.8015,-0.97999,0.36417,0.0022246,0.4,0.16,0
0.19654,0.042004,0.57654,-0.78213,-1.039,-1.1229,0.0019757,0,0,0.44296,0.10904,0,0.0051369,0,0,0.66827,-0.054043,0,0.67014,-0.78212,-1.039,-1.1229,0.44067,-0.98133,0.30753,0.0011277,0.42,0.16,0
0.20484,0.041068,0.56282,-0.81707,-1.0201,-1.114,0.042491,0,0,0.38596,0.12207,0,0.11048,0,0,0.70495,-0.11773,0,0.71442,-0.80853,-1.0286,-1.114,11.358,-0.9837,0.27295,0.00071036,0.44,0.16,0
0.21198,0.041035,0.54834,-0.85246,-1.0045,-1.1054,0.087202,0,0,0.32885,0.13121,0,0.22673,0,0,0.7552,-0.18662,0,0.77769,-0.81279,-1.0442,-1.1054,24.46,-0.98746,0.26732,0.00081004,0.46,0.16,0
0.21799,0.042455,0.53262,-0.91111,-1.0091,-1.1087,0.14583,0,0,0.25683,0.12948,0,0.37917,0,0,0.84725,-0.26717,0,0.88921,-0.80625,-1.1139,-1.1087,35.717,-1.0096,0.30509,0.001457,0.48,0.16,0
0.22226,0.046629,0.51445,-0.9813,-0.96,-1.0968,0.22886,0,0,0.1502,0.17788,0,0.59503,0,0,0.95866,-0.32425,0,1.0156,-0.74155,-1.1998,-1.0968,46.332,-1.0127,0.4164,0.0029584,0.5,0.16,0
0.224,0.055144,0.49427,-0.98254,-0.62038,-0.97514,0.20047,0,0,-0.0096138,0.4612,0,0.52122,0,0,1.0418,-0.17044,0,1.0541,-0.53131,-1.0716,-0.97514,66.046,-0.85935,0.4991,0.00559,0.52,0.16,0
0.22187,0.062516,0.47278,-1.0566,-0.57751,-0.963,0.14,0,0,-0.12163,0.50113,0,0.36401,0,0,1.071,-0.11735,0,1.0773,-0.5396,-1.0945,-0.963,74.847,-0.86569,0.50222,0.0050336,0.54,0.16,0
0.21913,0.06682,0.45143,-1.038,-0.53296,-0.92272,0.092535,0,0,-0.14986,0.50668,0,0.24059,0,0,1.0661,-0.087672,0,1.0696,-0.51654,-1.0544,-0.92272,79.937,-0.83122,0.48561,0.0044555,0.56,0.16,0
0.21588,0.069344,0.43013,-1.0256,-0.5038,-0.88895,0.066204,0,0,-0.17763,0.50069,0,0.17213,0,0,1.0643,-0.068181,0,1.0664,-0.49553,-1.0338,-0.88895,82.88,-0.80611,0.48247,0.0040625,0.58,0.16,0
0.21203,0.070559,0.40886,-1.0199,-0.48148,-0.85927,0.048561,0,0,-0.2088,0.49113,0,0.12626,0,0,1.0634,-0.054016,0,1.0648,-0.47713,-1.0242,-0.85927,84.887,-0.78688,0.48609,0.0036902,0.6,0.16,0
0.20753,0.070806,0.38759,-1.0187,-0.46277,-0.83202,0.036035,0,0,-0.24263,0.48003,0,0.09369,0,0,1.0633,-0.043019,0,1.0642,-0.46044,-1.021,-0.83202,86.306,-0.77115,0.49395,0.0032763,0.62,0.16,0
0.20233,0.070308,0.36633,-1.0201,-0.44609,-0.80618,0.026503,0,0,-0.27808,0.46811,0,0.068907,0,0,1.0637,-0.034044,0,1.0642,-0.44487,-1.0213,-0.80618,87.362,-0.75745,0.50453,0.0027865,0.64,0.16,0
0.1964,0.069223,0.34505,-1.0231,-0.43069,-0.78118,0.018853,0,0,-0.31448,0.45564,0,0.049019,0,0,1.0644,-0.026392,0,1.0647,-0.43009,-1.0237,-0.78118,88.179,-0.74498,0.51693,0.0022025,0.66,0.16,0
0.18975,0.067667,0.32375,-1.027,-0.41615,-0.75671,0.01238,0,0,-0.35141,0.44272,0,0.032189,0,0,1.0653,-0.019586,0,1.0654,-0.4159,-1.0273,-0.75671,88.839,-0.7333,0.53063,0.0015146,0.68,0.16,0
0.18235,0.06573,0.30244,-1.0315,-0.40227,-0.73259,0.0065992,0,0,-0.38866,0.4294,0,0.017158,0,0,1.0663,-0.013259,0,1.0664,-0.4022,-1.0316,-0.73259,89.399,-0.72214,0.54532,0.00071726,0.7,0.16,0
0.1742,0.063478,0.2811,-1.0365,-0.38891,-0.70871,0.0011426,0,0,-0.42608,0.41574,0,0.0029707,0,0,1.0675,-0.0071002,0,1.0675,-0.38891,-1.0365,-0.70871,89.899,-0.71137,0.56082,-0.00019275,0.72,0.16,0
0.1653,0.060966,0.25974,-1.0417,-0.376,-0.68504,-0.0042937,0,0,-0.46365,0.40176,0,-0.011164,0,0,1.0689,-0.00081427,0,1.0689,-0.37597,-1.0417,-0.68504,-89.63,-0.70091,0.57705,-0.0012185,0.74,0.16,0
0.15565,0.058232,0.23834,-1.0472,-0.36349,-0.66156,-0.0099896,0,0,-0.50136,0.38749,0,-0.025973,0,0,1.0704,0.0059105,0,1.0704,-0.36335,-1.0474,-0.66156,-89.163,-0.69076,0.594,-0.0023638,0.76,0.16,0
0.14525,0.05531,0.21692,-1.0531,-0.35141,-0.63828,-0.016238,0,0,-0.53929,0.37292,0,-0.042219,0,0,1.0722,0.01344,0,1.0723,-0.35103,-1.0535,-0.63828,-88.675,-0.68093,0.6117,-0.0036352,0.78,0.16,0
0.13408,0.052224,0.19546,-1.0595,-0.33984,-0.61525,-0.0234,0,0,-0.5775,0.35804,0,-0.06084,0,0,1.0742,0.022248,0,1.0745,-0.33908,-1.0602,-0.61525,-88.14,-0.67152,0.63023,-0.0050421,0.8,0.16,0
0.12215,0.048993,0.17395,-1.0665,-0.32899,-0.59258,-0.031987,0,0,-0.61604,0.34268,0,-0.083165,0,0,1.0767,0.033022,0,1.0772,-0.3276,-1.0678,-0.59258,-87.521,-0.66268,0.64964,-0.0065981,0.82,0.16,0
0.10944,0.045628,0.15239,-1.0741,-0.31933,-0.57041,-0.0429,0,0,-0.65477,0.3264,0,-0.11154,0,0,1.0799,0.04688,0,1.0809,-0.3169,-1.0765,-0.57041,-86.757,-0.6546,0.66985,-0.0083177,0.84,0.16,0
0.095958,0.042128,0.13075,-1.0813,-0.31168,-0.54864,-0.057464,0,0,-0.69243,0.30805,0,-0.14941,0,0,1.0837,0.065892,0,1.0857,-0.30741,-1.0856,-0.54864,-85.753,-0.6472,0.68991,-0.010179,0.86,0.16,0
0.081743,0.038513,0.10904,-1.0818,-0.30755,-0.52583,-0.079862,0,0,-0.72271,0.28376,0,-0.20764,0,0,1.0899,0.094658,0,1.0938,-0.2994,-1.0899,-0.52583,-84.171,-0.63838,0.70511,-0.011945,0.88,0.16,0
0.06705,0.034655,0.087159,-1.023,-0.29454,-0.48242,-0.10093,0,0,-0.70277,0.24426,0,-0.26241,0,0,1.0622,0.14553,0,1.0708,-0.28081,-1.0367,-0.48242,-82.256,-0.59999,0.67799,-0.011364,0.9,0.16,0
0.053632,0.03242,0.066549,-1.0001,-0.37601,-0.4794,-0.11887,0,0,-0.67697,0.1344,0,-0.30906,0,0,0.98407,0.28944,0,1.0291,-0.35414,-1.022,-0.4794,-79.574,-0.61852,0.61489,-0.01029,0.92,0.16,0
0.039971,0.032788,0.047796,-0.94056,-0.30651,-0.42192,-0.078075,0,0,-0.67424,0.15003,0,-0.20299,0,0,0.88354,0.22151,0,0.91113,-0.29703,-0.95004,-0.42192,-83.082,-0.55633,0.60038,-0.009514,0.94,0.16,0
0.026663,0.033016,0.031207,-0.88812,-0.26814,-0.37809,-0.055619,0,0,-0.66305,0.14293,0,-0.14461,0,0,0.80837,0.1366,0,0.81932,-0.26319,-0.89307,-0.37809,-84.914,-0.51145,0.58102,-0.0087608,0.96,0.16,0
0.013449,0.033045,0.015461,-0.85862,-0.24274,-0.34587,-0.029307,0,0,-0.66657,0.13407,0,-0.076199,0,0,0.78018,0.065255,0,0.78243,-0.24135,-0.86001,-0.34587,-87.282,-0.48241,0.57359,-0.0086175,0.98,0.16,0
0,0.033019,0,-0.82964,-0.21164,-0.31239,-0.00049443,0,0,-0.67244,0.13097,0,-0.0012855,0,0,0.77306,1.3878e-17,0,0.7726,-0.21164,-0.82964,-0.31239,-89.954,-0.45122,0.5743,-0.0087276,1,0.16,0
0,0.040313,1,-0.72446,-1.6919,-1.7249,0.0049855,0,0,1.3006,0.042943,0,0.012962,0,0,0.539,-4.094e-15,0,0.53868,-0.72444,-1.6919,-1.7249,0.29526,-1.3804,0.98437,0.048804,0,0.18,0
0.026011,0.040573,0.98922,-0.70503,-1.6746,-1.7031,0.032101,0,0,1.2975,0.037024,0,0.083463,0,0,0.53387,-0.044949,0,0.53546,-0.70396,-1.6757,-1.7031,1.8942,-1.3609,0.98573,0.049064,0.02,0.18,0
0.051901,0.041333,0.97864,-0.68564,-1.6723,-1.686,0.062665,0,0,1.3005,0.017811,0,0.16293,0,0,0.51707,-0.090853,0,0.52476,-0.68168,-1.6763,-1.686,3.6195,-1.348,0.99953,0.051271,0.04,0.18,0
0.078032,0.042352,0.96854,-0.6572,-1.6859,-1.6715,0.085631,0,0,1.3185,-0.018738,0,0.22264,0,0,0.48578,-0.13712,0,0.50483,-0.65012,-1.6929,-1.6715,4.7262,-1.3382,1.0322,0.056409,0.06,0.18,0
0.10464,0.043122,0.95921,-0.62562,-1.7037,-1.658,0.090343,0,0,1.3421,-0.059429,0,0.23489,0,0,0.43872,-0.17548,0,0.4732,-0.6181,-1.7112,-1.658,4.757,-1.3291,1.0675,0.06196,0.08,0.18,0
0.13172,0.043069,0.95099,-0.56656,-1.1407,-1.1065,0.081601,0,0,0.7773,-0.071004,0,0.49957,0,0,0.39179,-0.12224,0,0.41599,-0.5369,-1.1703,-1.1065,19.936,-0.93792,0.60843,0.032086,0.1,0.18,0
0.13573,0.05369,0.9212,-0.53234,-0.62173,-0.57652,0.067066,0,0,0.22975,-0.23508,0,0.69749,0,0,0.36429,-0.052204,0,0.36811,-0.49644,-0.65763,-0.57652,28.159,-0.57686,0.1396,-1.5393e-06,0.12,0.18,0
0.14091,0.061528,0.8927,-0.51508,-0.62721,-0.56586,0.052015,0,0,0.26407,-0.319,0,0.54096,0,0,0.34959,-0.04911,0,0.35308,-0.49467,-0.64762,-0.56586,21.427,-0.56938,0.13257,-1.4271e-05,0.14,0.18,0
0.1463,0.066688,0.86527,-0.50414,-0.62326,-0.55454,0.038168,0,0,0.26208,-0.35736,0,0.39694,0,0,0.3382,-0.041777,0,0.34078,-0.49296,-0.63444,-0.55454,16.326,-0.56064,0.12287,-2.1152e-05,0.16,0.18,0
0.15139,0.069753,0.83859,-0.4973,-0.61497,-0.54333,0.026789,0,0,0.23933,-0.37252,0,0.2786,0,0,0.33078,-0.032982,0,0.33241,-0.49149,-0.62078,-0.54333,12.241,-0.55187,0.1127,-2.463e-05,0.18,0.18,0
0.15587,0.071203,0.81234,-0.4934,-0.60436,-0.53242,0.017177,0,0,0.20287,-0.37412,0,0.17864,0,0,0.32699,-0.023855,0,0.32784,-0.4908,-0.60696,-0.53242,8.6016,-0.54339,0.10193,-2.5446e-05,0.2,0.18,0
0.15951,0.071364,0.78627,-0.49195,-0.59195,-0.52174,0.0086654,0,0,0.15488,-0.36509,0,0.090121,0,0,0.32629,-0.014667,0,0.3266,-0.49121,-0.59269,-0.52174,4.9164,-0.53521,0.090183,-2.3633e-05,0.22,0.18,0
0.16207,0.07043,0.76014,-0.49301,-0.57795,-0.51132,0.0007173,0,0,0.095221,-0.34645,0,0.00746,0,0,0.32848,-0.0054038,0,0.32851,-0.493,-0.57795,-0.51132,0.48382,-0.52743,0.077433,-1.9421e-05,0.24,0.18,0
0.16331,0.068499,0.73372,-0.49673,-0.56224,-0.50112,-0.0071031,0,0,0.022825,-0.31781,0,-0.073872,0,0,0.33378,0.0039528,0,0.3338,-0.49597,-0.563,-0.50112,-6.118,-0.52003,0.064608,-1.3555e-05,0.26,0.18,0
0.16298,0.065567,0.70673,-0.5036,-0.54451,-0.49111,-0.015161,0,0,-0.064905,-0.27764,0,-0.15767,0,0,0.34279,0.013142,0,0.34307,-0.49859,-0.54951,-0.49111,-18.273,-0.51307,0.055042,-8.0344e-06,0.28,0.18,0
0.16072,0.061528,0.67887,-0.51424,-0.52351,-0.48104,-0.023776,0,0,-0.17265,-0.22083,0,-0.24727,0,0,0.35597,0.021045,0,0.35667,-0.49466,-0.5431,-0.48104,-39.486,-0.50627,0.056495,-7.4798e-06,0.3,0.18,0
0.15607,0.05617,0.64978,-0.53031,-0.49678,-0.47057,-0.032005,0,0,-0.31065,-0.13629,0,-0.33285,0,0,0.37282,0.02482,0,0.37377,-0.47742,-0.54968,-0.47057,-58.824,-0.49922,0.075914,-2.1854e-05,0.32,0.18,0
0.14829,0.049517,0.61922,-0.55545,-0.7917,-0.79116,-0.037175,0,0,0.16051,-0.001123,0,-0.23362,0,0,0.40526,0.055183,0,0.41098,-0.50979,-0.83736,-0.79116,-36.222,-0.71277,0.3236,0.0042706,0.34,0.18,0
0.16249,0.048129,0.61065,-0.61143,-1.1513,-1.1395,-0.035812,0,0,0.68645,-0.015384,0,-0.093111,0,0,0.46239,0.067455,0,0.4684,-0.60906,-1.1537,-1.1395,-3.7786,-0.9674,0.53764,0.0079632,0.36,0.18,0
0.17575,0.046507,0.60072,-0.64748,-1.13,-1.134,-0.025629,0,0,0.63243,0.0051554,0,-0.066636,0,0,0.52303,0.025753,0,0.52397,-0.64612,-1.1314,-1.134,-3.0319,-0.97048,0.48654,0.0059149,0.38,0.18,0
0.18779,0.044881,0.58973,-0.68664,-1.1003,-1.1258,-0.00055872,0,0,0.57091,0.033168,0,-0.0014527,0,0,0.56968,-0.027173,0,0.57018,-0.68664,-1.1003,-1.1258,-0.07739,-0.97092,0.42698,0.0039499,0.4,0.18,0
0.19859,0.04362,0.57793,-0.72546,-1.0781,-1.119,0.034198,0,0,0.51162,0.05314,0,0.088914,0,0,0.6049,-0.084401,0,0.61043,-0.72218,-1.0814,-1.119,5.4876,-0.9742,0.37944,0.0027132,0.42,0.18,0
0.20825,0.042985,0.56553,-0.76289,-1.063,-1.1133,0.07666,0,0,0.45553,0.065387,0,0.19931,0,0,0.63427,-0.14818,0,0.65084,-0.74444,-1.0815,-1.1133,13.531,-0.97973,0.35401,0.0022165,0.44,0.18,0
0.21681,0.04321,0.55256,-0.81345,-1.0632,-1.1156,0.12753,0,0,0.39275,0.068047,0,0.33157,0,0,0.66413,-0.22617,0,0.70067,-0.75984,-1.1168,-1.1156,22.8,-0.99741,0.35635,0.0023241,0.46,0.18,0
0.22396,0.044375,0.53897,-0.88923,-1.0919,-1.1333,0.22027,0,0,0.31728,0.053865,0,0.57271,0,0,0.73647,-0.33712,0,0.80669,-0.74809,-1.233,-1.1333,32.65,-1.0381,0.44355,0.0037295,0.48,0.18,0
0.2295,0.049602,0.52311,-0.80776,-0.86796,-0.82966,0.27732,0,0,-0.053499,-0.17752,0,1.3809,0,0,0.63754,-0.34935,0,0.73162,-0.55882,-1.1169,-0.82966,42.217,-0.83512,0.48627,0.00094838,0.5,0.18,0
0.22513,0.066115,0.49751,-0.80152,-0.55622,-0.71827,0.19037,0,0,-0.17316,0.019799,0,1.019,0,0,0.75024,-0.14935,0,0.76921,-0.4242,-0.93354,-0.71827,53.724,-0.692,0.45352,0.0042372,0.52,0.18,0
0.22257,0.072972,0.47509,-0.72949,-0.51653,-0.67074,0.10715,0,0,-0.12221,0.017677,0,0.64604,0,0,0.69305,-0.10866,0,0.70491,-0.43493,-0.8111,-0.67074,55.932,-0.63892,0.3427,0.0024794,0.54,0.18,0
0.22024,0.077205,0.45316,-0.70209,-0.48721,-0.64002,0.078486,0,0,-0.12912,0.015682,0,0.48939,0,0,0.68134,-0.083168,0,0.68871,-0.42267,-0.76664,-0.64002,56.544,-0.60977,0.31594,0.0022292,0.56,0.18,0
0.21741,0.079482,0.43148,-0.69532,-0.47034,-0.61938,0.059184,0,0,-0.15796,0.014615,0,0.37882,0,0,0.67535,-0.065873,0,0.68012,-0.41874,-0.74692,-0.61938,57.148,-0.59501,0.30162,0.0020261,0.58,0.18,0
0.21392,0.080459,0.40994,-0.69345,-0.45531,-0.60084,0.045911,0,0,-0.19264,0.014291,0,0.29909,0,0,0.6723,-0.052912,0,0.67543,-0.41364,-0.73511,-0.60084,57.613,-0.5832,0.29542,0.001861,0.6,0.18,0
0.2097,0.080459,0.38846,-0.69397,-0.4414,-0.5834,0.035765,0,0,-0.22999,0.014393,0,0.23677,0,0,0.67068,-0.042642,0,0.67274,-0.4082,-0.72717,-0.5834,58.128,-0.57292,0.29362,0.0016703,0.62,0.18,0
0.20472,0.079711,0.36701,-0.69557,-0.42801,-0.56646,0.027631,0,0,-0.26856,0.014675,0,0.18597,0,0,0.66991,-0.034138,0,0.67124,-0.40233,-0.72126,-0.56646,58.816,-0.56335,0.29495,0.0014371,0.64,0.18,0
0.19896,0.078372,0.34558,-0.69775,-0.41496,-0.5498,0.020802,0,0,-0.30773,0.014996,0,0.14284,0,0,0.66968,-0.026815,0,0.6705,-0.39614,-0.71656,-0.5498,59.875,-0.55417,0.2987,0.0011512,0.66,0.18,0
0.19241,0.076558,0.32415,-0.70021,-0.40213,-0.5333,0.014826,0,0,-0.34718,0.015277,0,0.10482,0,0,0.66983,-0.020258,0,0.67031,-0.3897,-0.71264,-0.5333,61.727,-0.54521,0.30444,0.00080706,0.68,0.18,0
0.18507,0.074358,0.30271,-0.70285,-0.38947,-0.51689,0.0093685,0,0,-0.38679,0.015488,0,0.069942,0,0,0.67031,-0.01414,0,0.67054,-0.38289,-0.70943,-0.51689,65.579,-0.53641,0.31193,0.00040148,0.7,0.18,0
0.17694,0.071839,0.28125,-0.70563,-0.37696,-0.50056,0.0041668,0,0,-0.42654,0.01564,0,0.036658,0,0,0.67105,-0.0081792,0,0.67113,-0.37505,-0.70754,-0.50056,74.927,-0.52772,0.32099,-6.844e-05,0.72,0.18,0
0.16801,0.069056,0.25977,-0.70858,-0.36458,-0.4843,-0.0010074,0,0,-0.46649,0.015777,0,0.0035936,0,0,0.67207,-0.0021048,0,0.67207,-0.3645,-0.70866,-0.4843,-2.3567,-0.51915,0.3315,-0.00060612,0.74,0.18,0
0.15828,0.066049,0.23824,-0.71179,-0.35232,-0.46813,-0.0063695,0,0,-0.5068,0.015981,0,-0.030547,0,0,0.67341,0.0043673,0,0.67342,-0.35204,-0.71207,-0.46813,-86.083,-0.51075,0.34344,-0.0012167,0.76,0.18,0
0.14774,0.062851,0.21667,-0.71542,-0.34018,-0.4521,-0.012148,0,0,-0.54771,0.016378,0,-0.067128,0,0,0.67514,0.011567,0,0.67527,-0.33901,-0.71659,-0.4521,-83.143,-0.50257,0.35683,-0.0019084,0.78,0.18,0
0.13637,0.059489,0.19503,-0.71974,-0.32819,-0.43627,-0.018621,0,0,-0.58961,0.017161,0,-0.10777,0,0,0.6774,0.019914,0,0.67781,-0.32573,-0.7222,-0.43627,-81.324,-0.49473,0.37186,-0.0026952,0.8,0.18,0
0.12416,0.055982,0.17331,-0.72518,-0.31641,-0.4208,-0.026192,0,0,-0.63311,0.018622,0,-0.15471,0,0,0.68048,0.030001,0,0.68142,-0.31223,-0.72936,-0.4208,-79.922,-0.48746,0.38894,-0.0036017,0.82,0.18,0
0.11105,0.052339,0.15148,-0.73268,-0.30516,-0.40603,-0.035486,0,0,-0.67945,0.021226,0,-0.21135,0,0,0.68491,0.04276,0,0.68681,-0.29864,-0.7392,-0.40603,-78.667,-0.48129,0.40888,-0.0046784,0.84,0.18,0
0.096977,0.048563,0.12948,-0.74419,-0.2949,-0.39265,-0.047992,0,0,-0.7312,0.025697,0,-0.28473,0,0,0.69205,0.059841,0,0.6957,-0.28501,-0.75408,-0.39265,-77.371,-0.47725,0.43368,-0.0060374,0.86,0.18,0
0.081799,0.044585,0.10719,-0.76868,-0.29097,-0.38489,-0.065408,0,0,-0.79829,0.03305,0,-0.38261,0,0,0.70437,0.085074,0,0.71136,-0.27619,-0.78346,-0.38489,-76.122,-0.48151,0.46786,-0.0080875,0.88,0.18,0
0.065045,0.040515,0.084401,-0.82103,-0.29441,-0.38738,-0.10399,0,0,-0.90199,0.043987,0,-0.5636,0,0,0.75832,0.12551,0,0.77121,-0.26816,-0.84728,-0.38738,-73.899,-0.50094,0.53273,-0.012279,0.9,0.18,0
0.04572,0.034784,0.058658,-0.72847,-0.35816,-0.36265,-0.16513,0,0,-0.83792,-0.037298,0,-0.82307,0,0,0.64422,0.3147,0,0.7201,-0.29408,-0.79255,-0.36265,-67.638,-0.48309,0.46808,-0.0080164,0.92,0.18,0
0.034095,0.03531,0.04253,-0.83565,-0.3422,-0.39588,-0.13212,0,0,-0.57169,0.069793,0,-0.3435,0,0,0.76228,0.27373,0,0.80624,-0.30905,-0.86879,-0.39588,-75.916,-0.52457,0.52177,-0.0066198,0.94,0.18,0
0.022852,0.035342,0.028167,-0.78759,-0.30173,-0.35496,-0.083377,0,0,-0.56241,0.069202,0,-0.21678,0,0,0.71232,0.15729,0,0.72834,-0.28782,-0.8015,-0.35496,-80.528,-0.48143,0.48361,-0.0054337,0.96,0.18,0
0.011599,0.035163,0.014037,-0.76538,-0.27424,-0.32592,-0.041328,0,0,-0.57129,0.06719,0,-0.10745,0,0,0.70418,0.072951,0,0.70722,-0.27078,-0.76883,-0.32592,-85.224,-0.45518,0.4729,-0.0051834,0.98,0.18,0
0,0.035081,0,-0.74248,-0.24545,-0.29638,-0.0015743,0,0,-0.57993,0.06621,0,-0.0040931,0,0,0.70184,1.3878e-17,0,0.70121,-0.24544,-0.74249,-0.29638,-89.819,-0.42811,0.47364,-0.0052448,1,0.18,0
0,0.040688,1,-0.67864,-1.719,-1.7193,0.0027808,0,0,1.3528,0.0003883,0,0.0072301,0,0,0.49878,5.1868e-16,0,0.49857,-0.67863,-1.719,-1.7193,0.15315,-1.3723,1.0405,0.057858,0,0.2,0
0.027057,0.040833,0.99002,-0.66083,-1.7026,-1.699,0.022556,0,0,1.3497,-0.0045864,0,0.058646,0,0,0.49377,-0.035383,0,0.49485,-0.66034,-1.7031,-1.699,1.2398,-1.3541,1.0407,0.05789,0.02,0.2,0
0.053987,0.041223,0.98025,-0.64661,-1.6991,-1.684,0.042416,0,0,1.3485,-0.019659,0,0.11028,0,0,0.47844,-0.069999,0,0.48345,-0.6449,-1.7008,-1.684,2.3041,-1.3432,1.0476,0.058992,0.04,0.2,0
0.080999,0.041683,0.97089,-0.62625,-1.7007,-1.669,0.055126,0,0,1.3555,-0.041259,0,0.14333,0,0,0.45243,-0.10156,0,0.46382,-0.62343,-1.7035,-1.669,2.9294,-1.332,1.0633,0.061514,0.06,0.2,0
0.10821,0.041938,0.96215,-0.60428,-1.699,-1.6531,0.058915,0,0,1.3635,-0.059607,0,0.15318,0,0,0.41671,-0.12596,0,0.43575,-0.60111,-1.7021,-1.6531,3.0718,-1.3188,1.0774,0.063777,0.08,0.2,0
0.13554,0.041813,0.95422,-0.55807,-1.1331,-1.1037,0.056556,0,0,0.78767,-0.061044,0,0.35454,0,0,0.38285,-0.08639,0,0.39565,-0.53982,-1.1513,-1.1037,17.557,-0.93163,0.59196,0.032162,0.1,0.2,0
0.13972,0.049639,0.9247,-0.52854,-0.60763,-0.57203,0.050025,0,0,0.22612,-0.18516,0,0.52026,0,0,0.3634,-0.037687,0,0.3654,-0.50432,-0.63186,-0.57203,25.837,-0.5694,0.11052,7.3996e-06,0.12,0.2,0
0.14458,0.055775,0.89607,-0.51533,-0.61399,-0.56282,0.040586,0,0,0.24693,-0.26613,0,0.4221,0,0,0.3528,-0.03701,0,0.35477,-0.50078,-0.62855,-0.56282,19.722,-0.56405,0.11066,-3.4825e-06,0.14,0.2,0
0.14959,0.060077,0.86825,-0.50587,-0.61232,-0.55252,0.030857,0,0,0.24258,-0.31098,0,0.32092,0,0,0.34407,-0.033417,0,0.34571,-0.49757,-0.62062,-0.55252,15.051,-0.5569,0.10676,-1.1493e-05,0.16,0.2,0
0.15429,0.062764,0.84102,-0.49988,-0.60594,-0.542,0.022304,0,0,0.21905,-0.3325,0,0.23196,0,0,0.33797,-0.028079,0,0.33913,-0.49538,-0.61044,-0.542,11.405,-0.54927,0.10025,-1.6623e-05,0.18,0.2,0
0.15835,0.064138,0.81417,-0.49652,-0.59655,-0.53147,0.01506,0,0,0.1817,-0.33845,0,0.15662,0,0,0.33467,-0.021925,0,0.33538,-0.4943,-0.59877,-0.53147,8.3789,-0.54151,0.091717,-1.8832e-05,0.2,0.2,0
0.16156,0.064449,0.78748,-0.49543,-0.58491,-0.52097,0.0087952,0,0,0.13281,-0.3325,0,0.09147,0,0,0.33413,-0.015442,0,0.33448,-0.49458,-0.58577,-0.52097,5.5608,-0.53377,0.081277,-1.8089e-05,0.22,0.2,0
0.16367,0.063871,0.76071,-0.49651,-0.57127,-0.51051,0.0031707,0,0,0.072805,-0.31594,0,0.032975,0,0,0.3363,-0.0088909,0,0.33642,-0.49638,-0.5714,-0.51051,2.4242,-0.5261,0.069053,-1.4551e-05,0.24,0.2,0
0.16447,0.062501,0.73367,-0.49987,-0.55561,-0.50006,-0.0020934,0,0,0.00097019,-0.28883,0,-0.021771,0,0,0.34125,-0.0025377,0,0.34127,-0.49979,-0.55568,-0.50006,-2.1481,-0.51851,0.055756,-8.9017e-06,0.26,0.2,0
0.16371,0.060371,0.70611,-0.50576,-0.53756,-0.48952,-0.0071981,0,0,-0.084438,-0.24979,0,-0.07486,0,0,0.34907,0.0031132,0,0.34911,-0.50421,-0.53911,-0.48952,-12.179,-0.51095,0.044119,-2.8199e-06,0.28,0.2,0
0.16109,0.057453,0.67781,-0.51471,-0.51633,-0.47876,-0.01203,0,0,-0.1869,-0.19535,0,-0.12511,0,0,0.35963,0.0070848,0,0.35975,-0.50346,-0.52758,-0.47876,-43.068,-0.50327,0.042273,8.0051e-08,0.3,0.2,0
0.15623,0.05374,0.64857,-0.5268,-0.48997,-0.46718,-0.015703,0,0,-0.31008,-0.11853,0,-0.16331,0,0,0.37227,0.0080894,0,0.37242,-0.48418,-0.53259,-0.46718,-69.775,-0.49465,0.058787,-7.5652e-06,0.32,0.2,0
0.14869,0.049407,0.61825,-0.54804,-0.79738,-0.79004,-0.013727,0,0,0.17315,-0.015286,0,-0.096544,0,0,0.39585,0.012564,0,0.3966,-0.51145,-0.83397,-0.79004,-39.559,-0.71182,0.31947,0.0045612,0.34,0.2,0
0.16316,0.047703,0.61,-0.58964,-1.1566,-1.1339,-0.0032457,0,0,0.70751,-0.02957,0,-0.0084389,0,0,0.43782,0.0064805,0,0.43855,-0.58962,-1.1566,-1.1339,-0.32798,-0.96005,0.55599,0.0087773,0.36,0.2,0
0.17699,0.046275,0.60074,-0.6144,-1.1486,-1.1297,0.011656,0,0,0.66982,-0.024673,0,0.030305,0,0,0.48389,-0.022068,0,0.48465,-0.61414,-1.1489,-1.1297,1.2493,-0.96422,0.52538,0.0074146,0.38,0.2,0
0.18995,0.045043,0.59064,-0.64133,-1.1309,-1.1223,0.032924,0,0,0.62527,-0.011154,0,0.085602,0,0,0.5207,-0.061522,0,0.52425,-0.63913,-1.1331,-1.1223,3.8303,-0.96484,0.48866,0.0059832,0.4,0.2,0
0.202,0.04413,0.57991,-0.66624,-1.1134,-1.1138,0.06296,0,0,0.58181,0.00057449,0,0.1637,0,0,0.54727,-0.10946,0,0.55779,-0.65755,-1.122,-1.1138,7.8646,-0.96446,0.46042,0.0050076,0.42,0.2,0
0.21322,0.043684,0.56875,-0.68442,-1.1023,-1.1048,0.10131,0,0,0.54647,0.0031731,0,0.2634,0,0,0.56319,-0.16691,0,0.58682,-0.66116,-1.1256,-1.1048,12.933,-0.96384,0.45439,0.0047844,0.44,0.2,0
0.22386,0.043757,0.55738,-0.68387,-1.1023,-1.0932,0.15223,0,0,0.53218,-0.011799,0,0.39579,0,0,0.56626,-0.24011,0,0.61397,-0.63436,-1.1518,-1.0932,18.02,-0.95981,0.49081,0.0057818,0.46,0.2,0
0.23451,0.04461,0.5461,-0.58522,-1.1043,-1.053,0.19228,0,0,0.60806,-0.066738,0,0.49993,0,0,0.50545,-0.34549,0,0.60935,-0.52175,-1.1678,-1.053,18.267,-0.91415,0.59694,0.0095772,0.48,0.2,0
0.24818,0.04279,0.53717,-0.53385,-0.89405,-0.7641,0.18956,0,0,0.17205,-0.2703,0,1.013,0,0,0.40296,-0.33699,0,0.54369,-0.4264,-1.0015,-0.7641,31.667,-0.73066,0.50987,0.0068217,0.5,0.2,0
0.24139,0.055936,0.50843,-0.47676,-0.50358,-0.42121,0.1147,0,0,-0.28887,-0.42833,0,1.1929,0,0,0.33716,-0.11879,0,0.35777,-0.37469,-0.60566,-0.42121,41.666,-0.46719,0.21158,-0.00040828,0.52,0.2,0
0.23662,0.063223,0.48322,-0.44259,-0.48275,-0.39841,0.086426,0,0,-0.22974,-0.43858,0,0.89883,0,0,0.3055,-0.094319,0,0.31969,-0.37394,-0.55139,-0.39841,38.46,-0.44125,0.16658,-0.00022022,0.54,0.2,0
0.2322,0.067447,0.45955,-0.42588,-0.46899,-0.38335,0.067975,0,0,-0.22116,-0.44534,0,0.70694,0,0,0.29129,-0.07595,0,0.30098,-0.37613,-0.51875,-0.38335,36.203,-0.42608,0.13915,-0.00013712,0.56,0.2,0
0.22778,0.069929,0.43661,-0.41416,-0.45536,-0.37001,0.054675,0,0,-0.22959,-0.44383,0,0.56862,0,0,0.28413,-0.06176,0,0.29072,-0.37634,-0.49319,-0.37001,34.678,-0.41318,0.12014,-8.8231e-05,0.58,0.2,0
0.22302,0.07113,0.41409,-0.40643,-0.44247,-0.35819,0.044139,0,0,-0.25083,-0.43825,0,0.45904,0,0,0.27991,-0.050462,0,0.28439,-0.37678,-0.47213,-0.35819,33.895,-0.40237,0.10587,-5.4675e-05,0.6,0.2,0
0.21774,0.071382,0.39183,-0.40086,-0.42988,-0.34718,0.035582,0,0,-0.27914,-0.43004,0,0.37006,0,0,0.27728,-0.041185,0,0.2803,-0.37694,-0.4538,-0.34718,33.908,-0.39264,0.095288,-3.0258e-05,0.62,0.2,0
0.21185,0.070895,0.36973,-0.39662,-0.41744,-0.33665,0.028393,0,0,-0.31185,-0.42011,0,0.29529,0,0,0.27562,-0.033335,0,0.27762,-0.37679,-0.43727,-0.33665,34.933,-0.38357,0.087733,-1.1847e-05,0.64,0.2,0
0.20527,0.069823,0.34773,-0.39326,-0.40509,-0.32644,0.022173,0,0,-0.34746,-0.409,0,0.2306,0,0,0.27463,-0.026484,0,0.27589,-0.37622,-0.42212,-0.32644,37.529,-0.37493,0.08289,2.0567e-06,0.66,0.2,0
0.19795,0.068278,0.32579,-0.39051,-0.39279,-0.31644,0.016621,0,0,-0.38518,-0.39702,0,0.17286,0,0,0.27412,-0.020297,0,0.27486,-0.37499,-0.40831,-0.31644,43.041,-0.36658,0.080558,1.2203e-05,0.68,0.2,0
0.18986,0.066349,0.30387,-0.38825,-0.38051,-0.3066,0.011499,0,0,-0.42462,-0.38434,0,0.11959,0,0,0.27403,-0.014499,0,0.2744,-0.37225,-0.39652,-0.3066,54.307,-0.35845,0.080574,1.8878e-05,0.7,0.2,0
0.18097,0.064104,0.28194,-0.38643,-0.36824,-0.29689,0.0066088,0,0,-0.46564,-0.37102,0,0.068732,0,0,0.27431,-0.0088423,0,0.27444,-0.36609,-0.38858,-0.29689,72.001,-0.35052,0.082772,2.2039e-05,0.72,0.2,0
0.17124,0.061597,0.25998,-0.38505,-0.35596,-0.2873,0.0017752,0,0,-0.50829,-0.35705,0,0.018462,0,0,0.27495,-0.0030897,0,0.27496,-0.35585,-0.38515,-0.2873,86.52,-0.34277,0.086989,2.1332e-05,0.74,0.2,0
0.16064,0.058872,0.23795,-0.38415,-0.34366,-0.27783,-0.0031644,0,0,-0.55286,-0.34232,0,-0.03291,0,0,0.27601,0.0030078,0,0.27602,-0.34342,-0.3844,-0.27783,-85.558,-0.33521,0.093105,1.6048e-05,0.76,0.2,0
0.14912,0.055965,0.21582,-0.38388,-0.33132,-0.26851,-0.0083702,0,0,-0.59989,-0.3266,0,-0.08705,0,0,0.27758,0.0097314,0,0.27773,-0.33002,-0.38518,-0.26851,-81.166,-0.3279,0.10108,4.9908e-06,0.78,0.2,0
0.13664,0.052911,0.19354,-0.38446,-0.31891,-0.2594,-0.014014,0,0,-0.65032,-0.30949,0,-0.14574,0,0,0.27981,0.017423,0,0.28033,-0.31604,-0.38733,-0.2594,-78.424,-0.32092,0.11103,-1.3823e-05,0.8,0.2,0
0.12311,0.049738,0.17105,-0.38634,-0.30642,-0.25059,-0.02029,0,0,-0.70588,-0.29033,0,-0.21102,0,0,0.28302,0.026528,0,0.28423,-0.30157,-0.39119,-0.25059,-76.539,-0.31445,0.12329,-4.3776e-05,0.82,0.2,0
0.10841,0.046477,0.14826,-0.39033,-0.29386,-0.24232,-0.027454,0,0,-0.76967,-0.26798,0,-0.28553,0,0,0.28782,0.037667,0,0.29024,-0.28659,-0.3976,-0.24232,-75.177,-0.30884,0.13855,-9.1069e-05,0.84,0.2,0
0.092324,0.043156,0.125,-0.3982,-0.28141,-0.23513,-0.035733,0,0,-0.84796,-0.24063,0,-0.37162,0,0,0.29557,0.051764,0,0.30002,-0.27134,-0.40827,-0.23513,-74.269,-0.30491,0.15817,-0.00016788,0.86,0.2,0
0.074487,0.039835,0.10097,-0.41252,-0.26916,-0.22975,-0.045693,0,0,-0.95042,-0.20497,0,-0.47521,0,0,0.31029,0.070229,0,0.3181,-0.25584,-0.42585,-0.22975,-73.742,-0.30381,0.18444,-0.00030064,0.88,0.2,0
0.054307,0.036414,0.075351,-0.44117,-0.26089,-0.22946,-0.058071,0,0,-1.1009,-0.16348,0,-0.60394,0,0,0.34293,0.095311,0,0.3562,-0.24381,-0.45825,-0.22946,-73.604,-0.31051,0.22197,-0.00055379,0.9,0.2,0
0.030451,0.032483,0.046097,-0.4665,-0.30384,-0.25991,-0.10587,0,0,-0.71584,-0.091378,0,-0.54583,0,0,0.41409,0.28546,0,0.52003,-0.24524,-0.5251,-0.25991,-64.626,-0.34342,0.27297,-0.001046,0.92,0.2,0
0.025673,0.03558,0.036847,-0.53427,-0.33456,-0.2975,-0.10604,0,0,-0.30781,-0.048183,0,-0.2757,0,0,0.52953,0.26382,0,0.58854,-0.28876,-0.58007,-0.2975,-66.64,-0.38878,0.28704,-0.0012109,0.94,0.2,0
0.018139,0.035784,0.024916,-0.62203,-0.32595,-0.30931,-0.081642,0,0,-0.40654,-0.021629,0,-0.21227,0,0,0.60759,0.15317,0,0.62543,-0.30493,-0.64305,-0.30931,-75.562,-0.41909,0.33595,-0.0019463,0.96,0.2,0
0.0094113,0.035733,0.012543,-0.64807,-0.30758,-0.29924,-0.040694,0,0,-0.45348,-0.010848,0,-0.1058,0,0,0.62289,0.071296,0,0.62619,-0.30279,-0.65286,-0.29924,-83.278,-0.41829,0.35186,-0.0022367,0.98,0.2,0
0,0.035668,0,-0.63799,-0.28205,-0.27601,-0.0012486,0,0,-0.47057,-0.0078549,0,-0.0032463,0,0,0.62715,1.0408e-17,0,0.62648,-0.28205,-0.63799,-0.27601,-89.799,-0.39868,0.359,-0.002374,1,0.2,0
0,0.040329,1,-0.64495,-1.7384,-1.715,0.0011588,0,0,1.3911,-0.030449,0,0.0030129,0,0,0.46823,7.9971e-16,0,0.46811,-0.64495,-1.7384,-1.715,0.060718,-1.3661,1.082,0.06495,0,0.22,0
0.027822,0.040389,0.99064,-0.62954,-1.7221,-1.6961,0.014363,0,0,1.3865,-0.033725,0,0.037343,0,0,0.46387,-0.026184,0,0.46451,-0.62935,-1.7222,-1.6961,0.75305,-1.3492,1.0801,0.064583,0.02,0.22,0
0.055462,0.040547,0.98145,-0.61959,-1.7145,-1.6817,0.026598,0,0,1.3807,-0.042682,0,0.069154,0,0,0.45089,-0.051078,0,0.45376,-0.61894,-1.7151,-1.6817,1.3907,-1.3386,1.0799,0.064464,0.04,0.22,0
0.08305,0.040701,0.9726,-0.60567,-1.7082,-1.6668,0.034575,0,0,1.3794,-0.0539,0,0.089895,0,0,0.42982,-0.072867,0,0.43606,-0.60459,-1.7093,-1.6668,1.7944,-1.3269,1.0841,0.065095,0.06,0.22,0
0.11064,0.040738,0.96425,-0.59016,-1.698,-1.6507,0.038218,0,0,1.3787,-0.061473,0,0.099366,0,0,0.40205,-0.089156,0,0.41209,-0.58884,-1.6993,-1.6507,1.9735,-1.3129,1.087,0.065515,0.08,0.22,0
0.1382,0.040627,0.95652,-0.55195,-1.132,-1.103,0.039344,0,0,0.7986,-0.06032,0,0.25018,0,0,0.3764,-0.061046,0,0.38305,-0.54141,-1.1426,-1.103,14.72,-0.92899,0.58407,0.032701,0.1,0.22,0
0.14258,0.046284,0.92723,-0.52536,-0.59987,-0.56938,0.036436,0,0,0.22888,-0.15856,0,0.37893,0,0,0.36184,-0.027346,0,0.3629,-0.51051,-0.61473,-0.56938,22.182,-0.56487,0.090509,8.4709e-06,0.12,0.22,0
0.14735,0.050882,0.89862,-0.51455,-0.605,-0.56052,0.03075,0,0,0.23905,-0.2313,0,0.3198,0,0,0.35386,-0.027953,0,0.35498,-0.50509,-0.61447,-0.56052,17.106,-0.56003,0.094728,1.0297e-06,0.14,0.22,0
0.15215,0.054249,0.87062,-0.50638,-0.60435,-0.55088,0.024303,0,0,0.23138,-0.2781,0,0.25276,0,0,0.34713,-0.026588,0,0.34815,-0.50068,-0.61005,-0.55088,13.193,-0.55387,0.094824,-6.2056e-06,0.16,0.22,0
0.15661,0.056453,0.84308,-0.50088,-0.59925,-0.54081,0.018353,0,0,0.20763,-0.3039,0,0.19087,0,0,0.34227,-0.023834,0,0.3431,-0.49757,-0.60257,-0.54081,10.231,-0.54698,0.091399,-1.1752e-05,0.18,0.22,0
0.16045,0.057665,0.81585,-0.49777,-0.59092,-0.53057,0.013285,0,0,0.17056,-0.31381,0,0.13816,0,0,0.33963,-0.020256,0,0.34023,-0.49591,-0.59277,-0.53057,7.9602,-0.53975,0.085009,-1.4799e-05,0.2,0.22,0
0.16343,0.058065,0.78874,-0.49674,-0.58002,-0.52021,0.0090527,0,0,0.12207,-0.31099,0,0.094148,0,0,0.33932,-0.016286,0,0.33971,-0.49577,-0.58099,-0.52021,6.1327,-0.53232,0.07601,-1.494e-05,0.22,0.22,0
0.16533,0.057793,0.76156,-0.49767,-0.56687,-0.50975,0.0054742,0,0,0.062812,-0.29699,0,0.056932,0,0,0.34138,-0.012252,0,0.3416,-0.49724,-0.5673,-0.50975,4.4957,-0.52476,0.064713,-1.2184e-05,0.24,0.22,0
0.16594,0.056946,0.73412,-0.50059,-0.55148,-0.49915,0.0023788,0,0,-0.0074926,-0.2721,0,0.024739,0,0,0.34579,-0.008492,0,0.3459,-0.50048,-0.55159,-0.49915,2.6707,-0.51707,0.051785,-7.1167e-06,0.26,0.22,0
0.16503,0.055575,0.70624,-0.50564,-0.53362,-0.48834,-0.00029511,0,0,-0.089968,-0.23547,0,-0.0030691,0,0,0.35242,-0.0054705,0,0.35248,-0.50563,-0.53362,-0.48834,-0.60417,-0.5092,0.039582,-1.2589e-06,0.28,0.22,0
0.16234,0.053714,0.67773,-0.51293,-0.51271,-0.47712,-0.0023422,0,0,-0.18617,-0.18504,0,-0.024359,0,0,0.36095,-0.0038191,0,0.361,-0.51047,-0.51516,-0.47712,-46.331,-0.50092,0.035923,2.2448e-06,0.3,0.22,0
0.15759,0.051429,0.64848,-0.52235,-0.48805,-0.46524,-0.003005,0,0,-0.29696,-0.11862,0,-0.031252,0,0,0.37076,-0.0042415,0,0.37082,-0.48779,-0.52261,-0.46524,-85.03,-0.49188,0.050059,-2.321e-06,0.32,0.22,0
0.15047,0.048906,0.61841,-0.54075,-0.80938,-0.79155,0.0022295,0,0,0.19253,-0.03709,0,0.00081786,0,0,0.38858,-0.018183,0,0.38942,-0.51004,-0.84008,-0.79155,-44.13,-0.71389,0.32508,0.0050911,0.34,0.22,0
0.16529,0.046946,0.61039,-0.57227,-1.1696,-1.1329,0.017875,0,0,0.72889,-0.047663,0,0.046475,0,0,0.42022,-0.039087,0,0.42244,-0.57173,-1.1702,-1.1329,1.7125,-0.95828,0.58071,0.0099189,0.36,0.22,0
0.17962,0.04552,0.6016,-0.58771,-1.1655,-1.1276,0.035649,0,0,0.70181,-0.049306,0,0.092688,0,0,0.45502,-0.059511,0,0.45907,-0.58552,-1.1677,-1.1276,3.5174,-0.96025,0.56318,0.0090173,0.38,0.22,0
0.19336,0.044435,0.59219,-0.60257,-1.1546,-1.1193,0.055431,0,0,0.6718,-0.045833,0,0.14412,0,0,0.48228,-0.088941,0,0.49036,-0.59705,-1.1601,-1.1193,5.6778,-0.95883,0.54381,0.0081034,0.4,0.22,0
0.20649,0.043643,0.58231,-0.61279,-1.1429,-1.109,0.079519,0,0,0.6451,-0.044044,0,0.20675,0,0,0.49951,-0.12637,0,0.515,-0.60112,-1.1546,-1.109,8.3499,-0.9549,0.53214,0.0075484,0.42,0.22,0
0.21916,0.043112,0.57221,-0.61157,-1.1363,-1.0966,0.1078,0,0,0.63048,-0.051613,0,0.28027,0,0,0.50362,-0.1722,0,0.53183,-0.59029,-1.1575,-1.0966,11.169,-0.94813,0.53935,0.0077119,0.44,0.22,0
0.23171,0.042738,0.56217,-0.5833,-1.1387,-1.0788,0.13305,0,0,0.64413,-0.077958,0,0.34593,0,0,0.48554,-0.22837,0,0.53606,-0.55308,-1.169,-1.0788,12.799,-0.93361,0.57612,0.0090153,0.46,0.22,0
0.24493,0.041706,0.55278,-0.55618,-1.1847,-1.075,0.14033,0,0,0.67452,-0.14252,0,0.36486,0,0,0.4374,-0.29647,0,0.52913,-0.52627,-1.2146,-1.075,12.032,-0.93863,0.63023,0.010762,0.48,0.22,0
0.25869,0.03879,0.54467,-0.50233,-0.819,-0.73682,0.11066,0,0,0.18702,-0.17094,0,0.65694,0,0,0.37876,-0.20536,0,0.44231,-0.43589,-0.88544,-0.73682,29.812,-0.68605,0.40829,0.0054602,0.5,0.22,0
0.25241,0.048982,0.51652,-0.46572,-0.46908,-0.40957,0.086705,0,0,-0.29199,-0.30943,0,0.90173,0,0,0.34057,-0.087427,0,0.35186,-0.38068,-0.55412,-0.40957,44.446,-0.44812,0.16095,-0.0001911,0.52,0.22,0
0.24701,0.055429,0.49018,-0.44696,-0.46457,-0.396,0.069475,0,0,-0.26499,-0.35653,0,0.72254,0,0,0.32006,-0.078397,0,0.32961,-0.38573,-0.5258,-0.396,41.39,-0.43584,0.13522,-0.00012451,0.54,0.22,0
0.24181,0.059391,0.46531,-0.43362,-0.45504,-0.38293,0.056632,0,0,-0.26363,-0.37498,0,0.58897,0,0,0.30509,-0.066683,0,0.31231,-0.3867,-0.50196,-0.38293,39.647,-0.42386,0.1172,-8.2393e-05,0.56,0.22,0
0.23647,0.061729,0.44137,-0.42373,-0.4449,-0.37093,0.046511,0,0,-0.27455,-0.38464,0,0.48372,0,0,0.29563,-0.055949,0,0.30087,-0.38661,-0.48201,-0.37093,38.589,-0.41318,0.10413,-5.3586e-05,0.58,0.22,0
0.23083,0.062929,0.41801,-0.41586,-0.43402,-0.35947,0.038153,0,0,-0.29323,-0.3877,0,0.39679,0,0,0.28949,-0.046649,0,0.29322,-0.38572,-0.46416,-0.35947,38.304,-0.40312,0.094347,-3.2137e-05,0.6,0.22,0
0.22474,0.063258,0.39505,-0.40978,-0.42282,-0.34854,0.031022,0,0,-0.31842,-0.38627,0,0.32263,0,0,0.2854,-0.038646,0,0.28799,-0.3846,-0.448,-0.34854,39.062,-0.39371,0.087212,-1.5498e-05,0.62,0.22,0
0.21809,0.062907,0.37235,-0.40502,-0.41137,-0.338,0.024837,0,0,-0.34847,-0.38151,0,0.25831,0,0,0.28266,-0.031684,0,0.28442,-0.38316,-0.43323,-0.338,41.355,-0.3848,0.082509,-2.5811e-06,0.64,0.22,0
0.2108,0.062012,0.34982,-0.40128,-0.39972,-0.32775,0.019364,0,0,-0.38232,-0.37422,0,0.20138,0,0,0.28091,-0.025499,0,0.28205,-0.38112,-0.41988,-0.32775,46.152,-0.37625,0.080115,7.1422e-06,0.66,0.22,0
0.2028,0.060677,0.3274,-0.39835,-0.38789,-0.31772,0.014412,0,0,-0.41927,-0.36487,0,0.14988,0,0,0.27992,-0.019854,0,0.28061,-0.37779,-0.40845,-0.31772,54.973,-0.36799,0.079937,1.3823e-05,0.68,0.22,0
0.19403,0.058984,0.30503,-0.39612,-0.3759,-0.30787,0.0098162,0,0,-0.45894,-0.3538,0,0.10209,0,0,0.27958,-0.014533,0,0.27995,-0.37192,-0.40011,-0.30787,67.922,-0.35997,0.08187,1.7339e-05,0.7,0.22,0
0.18444,0.056998,0.28267,-0.39455,-0.36377,-0.29816,0.0054334,0,0,-0.50121,-0.34116,0,0.056507,0,0,0.27983,-0.0093356,0,0.27998,-0.36284,-0.39548,-0.29816,80.277,-0.35216,0.085788,1.7319e-05,0.72,0.22,0
0.17398,0.054774,0.26026,-0.39363,-0.35149,-0.2886,0.0011368,0,0,-0.54616,-0.32701,0,0.011822,0,0,0.28068,-0.0040646,0,0.2807,-0.35146,-0.39366,-0.2886,88.456,-0.34457,0.09157,1.3114e-05,0.74,0.22,0
0.16259,0.052356,0.23776,-0.39344,-0.33905,-0.27919,-0.0031826,0,0,-0.59411,-0.31131,0,-0.033099,0,0,0.28219,0.0014829,0,0.28218,-0.33887,-0.39363,-0.27919,-86.662,-0.33723,0.099136,3.7256e-06,0.76,0.22,0
0.15022,0.049787,0.21511,-0.39411,-0.32646,-0.26995,-0.0076136,0,0,-0.64564,-0.29385,0,-0.079182,0,0,0.28447,0.0075271,0,0.28456,-0.32561,-0.39496,-0.26995,-83.657,-0.33017,0.10848,-1.2335e-05,0.78,0.22,0
0.13677,0.04711,0.19224,-0.39588,-0.31368,-0.26093,-0.012216,0,0,-0.70176,-0.2743,0,-0.12705,0,0,0.28776,0.014315,0,0.2881,-0.3119,-0.39766,-0.26093,-81.724,-0.3235,0.11968,-3.7307e-05,0.8,0.22,0
0.12215,0.044369,0.16907,-0.39914,-0.30068,-0.25221,-0.017005,0,0,-0.76403,-0.25202,0,-0.17685,0,0,0.29244,0.022123,0,0.29326,-0.29782,-0.402,-0.25221,-80.472,-0.31734,0.13298,-7.4623e-05,0.82,0.22,0
0.10621,0.04162,0.14546,-0.40448,-0.28742,-0.24394,-0.021898,0,0,-0.83483,-0.22615,0,-0.22774,0,0,0.2992,0.031236,0,0.30082,-0.28346,-0.40844,-0.24394,-79.743,-0.31195,0.14874,-0.00012961,0.84,0.22,0
0.088754,0.038938,0.1212,-0.41253,-0.27381,-0.2362,-0.026694,0,0,-0.9169,-0.19556,0,-0.27761,0,0,0.30938,0.041837,0,0.31221,-0.26885,-0.41749,-0.2362,-79.475,-0.30751,0.16737,-0.00021024,0.86,0.22,0
0.069532,0.036386,0.095954,-0.42398,-0.26006,-0.2292,-0.030958,0,0,-1.0129,-0.16046,0,-0.32196,0,0,0.32529,0.053571,0,0.32977,-0.25441,-0.42963,-0.2292,-79.654,-0.30441,0.18909,-0.00032655,0.88,0.22,0
0.048239,0.033975,0.069151,-0.43759,-0.24527,-0.22214,-0.035039,0,0,-1.1203,-0.12025,0,-0.3644,0,0,0.34728,0.062991,0,0.35323,-0.23908,-0.44377,-0.22214,-79.989,-0.30167,0.21366,-0.00049035,0.9,0.22,0
0.02472,0.031129,0.040389,-0.45237,-0.2769,-0.24402,-0.039073,0,0,-0.71183,-0.068378,0,-0.23906,0,0,0.39006,0.14546,0,0.42356,-0.26793,-0.46133,-0.24402,-77.452,-0.32443,0.20706,-0.00044324,0.92,0.22,0
0.019766,0.033383,0.031977,-0.49811,-0.38181,-0.29595,-0.053175,0,0,-0.2628,-0.11161,0,-0.13825,0,0,0.45871,0.19931,0,0.50144,-0.36116,-0.51875,-0.29595,-68.779,-0.39195,0.1984,-0.00025992,0.94,0.22,0
0.014208,0.034477,0.02204,-0.52134,-0.35561,-0.28513,-0.048427,0,0,-0.30708,-0.091625,0,-0.12591,0,0,0.5198,0.12623,0,0.53441,-0.34249,-0.53446,-0.28513,-74.849,-0.38736,0.22617,-0.00046781,0.96,0.22,0
0.007483,0.034729,0.011185,-0.55145,-0.33864,-0.27821,-0.028421,0,0,-0.35521,-0.078553,0,-0.073895,0,0,0.55101,0.060722,0,0.55378,-0.33491,-0.55518,-0.27821,-82.523,-0.38943,0.25342,-0.00069695,0.98,0.22,0
0,0.034767,0,-0.54646,-0.31572,-0.25865,0.00072805,0,0,-0.37415,-0.074182,0,0.0018929,0,0,0.55925,-6.9389e-18,0,0.55869,-0.31571,-0.54646,-0.25865,89.819,-0.37361,0.26394,-0.00079765,1,0.22,0
0,0.03947,1,-0.62218,-1.7509,-1.7119,0.00026078,0,0,1.4166,-0.050621,0,0.00067802,0,0,0.44642,1.3704e-15,0,0.44635,-0.62218,-1.7509,-1.7119,0.013238,-1.3617,1.1097,0.069895,0,0.24,0
0.028333,0.039483,0.99107,-0.60842,-1.7341,-1.6938,0.0083373,0,0,1.411,-0.052348,0,0.021677,0,0,0.44269,-0.018031,0,0.44302,-0.60836,-1.7342,-1.6938,0.42433,-1.3455,1.1062,0.069208,0.02,0.24,0
0.056441,0.039516,0.98229,-0.60156,-1.7236,-1.6799,0.015547,0,0,1.4018,-0.056912,0,0.040423,0,0,0.43175,-0.03498,0,0.43318,-0.60135,-1.7238,-1.6799,0.79369,-1.335,1.1012,0.068207,0.04,0.24,0
0.084404,0.039527,0.9738,-0.59183,-1.7129,-1.6652,0.020641,0,0,1.3954,-0.062004,0,0.053666,0,0,0.41435,-0.049612,0,0.41741,-0.59145,-1.7133,-1.6652,1.0544,-1.3233,1.0986,0.06766,0.06,0.24,0
0.11226,0.03948,0.96572,-0.58058,-1.6995,-1.6497,0.024046,0,0,1.3899,-0.064652,0,0.062519,0,0,0.3919,-0.060588,0,0.39674,-0.58007,-1.7,-1.6497,1.2306,-1.3099,1.0957,0.067074,0.08,0.24,0
0.14,0.0394,0.95813,-0.5474,-1.1335,-1.1031,0.026344,0,0,0.809,-0.06325,0,0.16923,0,0,0.37141,-0.041726,0,0.37463,-0.54207,-1.1388,-1.1031,11.29,-0.928,0.5807,0.033319,0.1,0.24,0
0.14462,0.043297,0.92907,-0.52242,-0.59557,-0.56766,0.025317,0,0,0.23528,-0.1451,0,0.26329,0,0,0.35987,-0.019514,0,0.36041,-0.51451,-0.60347,-0.56766,17.345,-0.56188,0.077532,7.8967e-06,0.12,0.24,0
0.14941,0.046523,0.90055,-0.51318,-0.59944,-0.55892,0.022098,0,0,0.23787,-0.2107,0,0.22982,0,0,0.35356,-0.02094,0,0.35419,-0.50785,-0.60478,-0.55892,13.564,-0.55718,0.083981,2.8345e-06,0.14,0.24,0
0.15413,0.048953,0.8725,-0.50587,-0.59904,-0.5496,0.018262,0,0,0.22737,-0.25708,0,0.18993,0,0,0.34819,-0.021121,0,0.34884,-0.50242,-0.60249,-0.5496,10.704,-0.5515,0.086709,-3.3045e-06,0.16,0.24,0
0.15851,0.050608,0.84484,-0.50073,-0.59476,-0.53986,0.014637,0,0,0.20344,-0.28549,0,0.15222,0,0,0.3443,-0.020346,0,0.3449,-0.49851,-0.59698,-0.53986,8.6464,-0.54512,0.085648,-8.8165e-06,0.18,0.24,0
0.16227,0.051586,0.81741,-0.49768,-0.58726,-0.52984,0.011608,0,0,0.1672,-0.2986,0,0.12073,0,0,0.34222,-0.018938,0,0.34275,-0.4962,-0.58874,-0.52984,7.2652,-0.53826,0.081128,-1.2399e-05,0.2,0.24,0
0.16519,0.05201,0.79008,-0.49656,-0.57706,-0.51961,0.0092533,0,0,0.11984,-0.29876,0,0.096235,0,0,0.34214,-0.017196,0,0.34257,-0.49551,-0.57811,-0.51961,6.4737,-0.53107,0.073572,-1.3302e-05,0.22,0.24,0
0.16706,0.051991,0.76267,-0.49725,-0.56444,-0.50918,0.0075108,0,0,0.062026,-0.2874,0,0.078112,0,0,0.3441,-0.015386,0,0.34444,-0.49642,-0.56527,-0.50918,6.3005,-0.52362,0.063446,-1.135e-05,0.24,0.24,0
0.16767,0.051617,0.73503,-0.49971,-0.54948,-0.49851,0.006304,0,0,-0.0062225,-0.26502,0,0.065561,0,0,0.34803,-0.013786,0,0.34832,-0.49892,-0.55026,-0.49851,7.1078,-0.5159,0.051548,-7.0333e-06,0.26,0.24,0
0.16681,0.050952,0.70699,-0.50395,-0.53202,-0.48754,0.0056314,0,0,-0.085328,-0.23132,0,0.058567,0,0,0.35374,-0.012727,0,0.35399,-0.50286,-0.53311,-0.48754,10.93,-0.50783,0.040165,-1.7699e-06,0.28,0.24,0
0.16426,0.050051,0.67843,-0.5099,-0.51182,-0.47613,0.0056768,0,0,-0.17565,-0.18564,0,0.059038,0,0,0.36086,-0.0126,0,0.3611,-0.50511,-0.51662,-0.47613,40.196,-0.49928,0.036142,1.6209e-06,0.3,0.24,0
0.15979,0.048995,0.64925,-0.5173,-0.48876,-0.46413,0.0068943,0,0,-0.27648,-0.12809,0,0.0717,0,0,0.36881,-0.013801,0,0.36909,-0.48718,-0.51888,-0.46413,77.105,-0.49006,0.047609,-1.492e-06,0.32,0.24,0
0.1532,0.047923,0.61942,-0.53389,-0.824,-0.7945,0.013588,0,0,0.2153,-0.061358,0,0.072348,0,0,0.38282,-0.041597,0,0.38597,-0.50703,-0.85086,-0.7945,40.745,-0.71747,0.33545,0.005712,0.34,0.24,0
0.1684,0.045797,0.61156,-0.55805,-1.1869,-1.135,0.030943,0,0,0.75009,-0.067393,0,0.080451,0,0,0.4074,-0.073876,0,0.4143,-0.55653,-1.1884,-1.135,2.8103,-0.95999,0.60695,0.011185,0.36,0.24,0
0.18321,0.044303,0.60312,-0.56636,-1.1823,-1.1277,0.049411,0,0,0.72977,-0.070969,0,0.12847,0,0,0.43404,-0.088175,0,0.44302,-0.56243,-1.1863,-1.1277,4.5574,-0.9588,0.59672,0.010559,0.38,0.24,0
0.19759,0.04321,0.5942,-0.57228,-1.1742,-1.1181,0.066813,0,0,0.70961,-0.072857,0,0.17372,0,0,0.45384,-0.1089,0,0.46669,-0.56495,-1.1815,-1.1181,6.2585,-0.95487,0.58744,0.010004,0.4,0.24,0
0.21159,0.042368,0.58497,-0.57291,-1.1655,-1.1065,0.084361,0,0,0.69365,-0.076724,0,0.21934,0,0,0.46401,-0.13551,0,0.48324,-0.56114,-1.1773,-1.1065,7.9462,-0.94831,0.58398,0.0097236,0.42,0.24,0
0.22534,0.041619,0.57564,-0.56372,-1.16,-1.0928,0.099884,0,0,0.68774,-0.087392,0,0.2597,0,0,0.46119,-0.1675,0,0.49048,-0.54743,-1.1763,-1.0928,9.2615,-0.93881,0.59151,0.0099188,0.44,0.24,0
0.2391,0.040639,0.56652,-0.54695,-1.1643,-1.0799,0.10761,0,0,0.69282,-0.10972,0,0.27978,0,0,0.442,-0.2034,0,0.48655,-0.52873,-1.1825,-1.0799,9.6098,-0.93038,0.60899,0.010498,0.46,0.24,0
0.25305,0.038909,0.55796,-0.52606,-1.1676,-1.0661,0.099064,0,0,0.70202,-0.13204,0,0.25757,0,0,0.40524,-0.23485,0,0.46885,-0.51111,-1.1826,-1.0661,8.5806,-0.91992,0.62147,0.010881,0.48,0.24,0
0.26718,0.035953,0.55031,-0.48452,-0.78794,-0.72568,0.082678,0,0,0.19426,-0.12949,0,0.50237,0,0,0.36557,-0.15735,0,0.40645,-0.43111,-0.84135,-0.72568,29.932,-0.66605,0.37924,0.0053981,0.5,0.24,0
0.26082,0.043559,0.52242,-0.46313,-0.45194,-0.40513,0.068126,0,0,-0.30162,-0.24343,0,0.70851,0,0,0.34091,-0.06551,0,0.34724,-0.38918,-0.52589,-0.40513,47.348,-0.44007,0.12948,-0.0001058,0.52,0.24,0
0.25512,0.048962,0.49576,-0.44849,-0.45127,-0.39387,0.056668,0,0,-0.28403,-0.29849,0,0.58935,0,0,0.32625,-0.062515,0,0.33226,-0.3932,-0.50657,-0.39387,44.297,-0.43121,0.11303,-7.4168e-05,0.54,0.24,0
0.24946,0.052448,0.47022,-0.43781,-0.44499,-0.3824,0.046724,0,0,-0.28817,-0.32549,0,0.48593,0,0,0.31374,-0.055978,0,0.31872,-0.39454,-0.48827,-0.3824,42.803,-0.42174,0.10035,-4.9346e-05,0.56,0.24,0
0.24359,0.054543,0.44557,-0.42931,-0.43651,-0.37114,0.0387,0,0,-0.30248,-0.33996,0,0.40248,0,0,0.30416,-0.048594,0,0.30803,-0.39404,-0.47178,-0.37114,42.34,-0.41232,0.091368,-3.103e-05,0.58,0.24,0
0.23736,0.055623,0.42156,-0.42229,-0.42702,-0.36018,0.031963,0,0,-0.32295,-0.34757,0,0.33242,0,0,0.29721,-0.04152,0,0.3001,-0.3926,-0.45671,-0.36018,42.882,-0.40316,0.085079,-1.6849e-05,0.6,0.24,0
0.23067,0.055931,0.39801,-0.41646,-0.41681,-0.34948,0.026135,0,0,-0.34826,-0.35011,0,0.27181,0,0,0.29224,-0.035074,0,0.29434,-0.3905,-0.44277,-0.34948,44.805,-0.39425,0.080985,-5.6507e-06,0.62,0.24,0
0.22343,0.055635,0.3748,-0.41172,-0.40611,-0.33905,0.020991,0,0,-0.37789,-0.34873,0,0.21831,0,0,0.28877,-0.029263,0,0.29024,-0.38774,-0.43009,-0.33905,48.805,-0.38563,0.078911,3.0322e-06,0.64,0.24,0
0.21555,0.054854,0.35181,-0.40794,-0.39501,-0.32884,0.016382,0,0,-0.41134,-0.34411,0,0.17037,0,0,0.28646,-0.023982,0,0.28745,-0.38387,-0.41909,-0.32884,55.768,-0.37727,0.078784,9.2713e-06,0.66,0.24,0
0.20698,0.053683,0.32897,-0.40503,-0.38358,-0.31882,0.012182,0,0,-0.44825,-0.33675,0,0.12669,0,0,0.28509,-0.019092,0,0.28572,-0.37808,-0.41053,-0.31882,65.676,-0.36915,0.080545,1.2899e-05,0.68,0.24,0
0.19762,0.052197,0.30619,-0.40291,-0.37186,-0.30898,0.008281,0,0,-0.48843,-0.32698,0,0.086123,0,0,0.28455,-0.014446,0,0.28491,-0.36979,-0.40498,-0.30898,75.961,-0.36125,0.084119,1.3535e-05,0.7,0.24,0
0.18744,0.050458,0.28344,-0.40156,-0.35987,-0.29929,0.0045816,0,0,-0.53181,-0.31502,0,0.047648,0,0,0.28477,-0.0099,0,0.28494,-0.35937,-0.40206,-0.29929,83.802,-0.35357,0.089425,1.0583e-05,0.72,0.24,0
0.17635,0.048516,0.26063,-0.401,-0.34763,-0.28974,0.0010007,0,0,-0.57851,-0.301,0,0.010407,0,0,0.28577,-0.00531,0,0.28582,-0.34761,-0.40102,-0.28974,88.926,-0.34612,0.096388,3.1904e-06,0.74,0.24,0
0.1643,0.046419,0.23771,-0.40127,-0.33516,-0.28036,-0.0025226,0,0,-0.62876,-0.28496,0,-0.026235,0,0,0.28761,-0.00052962,0,0.2876,-0.33506,-0.40137,-0.28036,-87.818,-0.33893,0.10496,-9.8083e-06,0.76,0.24,0
0.1512,0.044211,0.21461,-0.40249,-0.32247,-0.27114,-0.0060171,0,0,-0.68302,-0.26689,0,-0.062577,0,0,0.29041,0.0045905,0,0.29044,-0.32202,-0.40294,-0.27114,-85.724,-0.33203,0.11513,-2.9987e-05,0.78,0.24,0
0.13698,0.041939,0.19125,-0.40479,-0.30956,-0.26212,-0.0094639,0,0,-0.74191,-0.2467,0,-0.098424,0,0,0.2944,0.010196,0,0.29458,-0.30863,-0.40573,-0.26212,-84.379,-0.32549,0.12691,-5.9447e-05,0.8,0.24,0
0.12153,0.039657,0.16751,-0.40837,-0.29645,-0.25333,-0.012772,0,0,-0.80626,-0.22426,0,-0.13283,0,0,0.29994,0.016402,0,0.30039,-0.29501,-0.40981,-0.25333,-83.572,-0.31938,0.14037,-0.00010094,0.82,0.24,0
0.10473,0.037432,0.14326,-0.4134,-0.28315,-0.24478,-0.015763,0,0,-0.87681,-0.19953,0,-0.16394,0,0,0.30754,0.023218,0,0.30843,-0.28127,-0.41528,-0.24478,-83.197,-0.31377,0.1555,-0.00015784,0.84,0.24,0
0.086453,0.035333,0.1183,-0.41991,-0.26974,-0.23647,-0.018176,0,0,-0.95391,-0.17298,0,-0.18903,0,0,0.3179,0.030349,0,0.31938,-0.26757,-0.42208,-0.23647,-83.196,-0.30871,0.17218,-0.00023361,0.86,0.24,0
0.066571,0.033417,0.092394,-0.42762,-0.25627,-0.22826,-0.019913,0,0,-1.0366,-0.14561,0,-0.20709,0,0,0.33145,0.036666,0,0.33355,-0.25398,-0.4299,-0.22826,-83.458,-0.30405,0.19009,-0.00033109,0.88,0.24,0
0.044988,0.031604,0.065272,-0.43721,-0.24318,-0.22043,-0.020902,0,0,-1.1272,-0.11826,0,-0.21738,0,0,0.34754,0.039419,0,0.34989,-0.24095,-0.43944,-0.22043,-83.921,-0.30027,0.2095,-0.00045702,0.9,0.24,0
0.021482,0.029748,0.036787,-0.44086,-0.2749,-0.23772,-0.020679,0,0,-0.70482,-0.077334,0,-0.13438,0,0,0.37586,0.090911,0,0.39037,-0.27217,-0.44358,-0.23772,-82.503,-0.31783,0.19247,-0.00034594,0.92,0.24,0
0.016795,0.031116,0.028874,-0.46618,-0.36811,-0.27916,-0.02057,0,0,-0.24313,-0.11564,0,-0.053481,0,0,0.42302,0.12646,0,0.44228,-0.36397,-0.47032,-0.27916,-78.621,-0.37115,0.1659,-4.5408e-05,0.94,0.24,0
0.011757,0.032119,0.019866,-0.4803,-0.37309,-0.27588,-0.021501,0,0,-0.26574,-0.12637,0,-0.055904,0,0,0.469,0.089874,0,0.4776,-0.36894,-0.48445,-0.27588,-79.072,-0.37642,0.18097,-5.6363e-05,0.96,0.24,0
0.0061653,0.032591,0.010114,-0.4919,-0.36042,-0.26581,-0.014138,0,0,-0.29391,-0.123,0,-0.036759,0,0,0.49666,0.045208,0,0.49843,-0.35892,-0.4934,-0.26581,-83.931,-0.37271,0.19818,-0.00012336,0.98,0.24,0
0,0.0327,0,-0.48481,-0.34081,-0.24768,0.0021131,0,0,-0.30826,-0.12106,0,0.0054942,0,0,0.50571,-1.5612e-17,0,0.50536,-0.34077,-0.48484,-0.24768,89.159,-0.35777,0.20696,-0.00016482,1,0.24,0
0,0.038304,1,-0.60809,-1.7577,-1.7097,-0.0001697,0,0,1.4321,-0.062316,0,-0.00044123,0,0,0.43217,3.9985e-16,0,0.43215,-0.60809,-1.7577,-1.7097,-0.0084581,-1.3585,1.1264,0.072947,0,0.26,0
0.028643,0.038295,0.99136,-0.59535,-1.7408,-1.6922,0.0040768,0,0,1.4259,-0.063145,0,0.0106,0,0,0.42889,-0.010882,0,0.42902,-0.59534,-1.7408,-1.6922,0.20393,-1.3428,1.1219,0.072074,0.02,0.26,0
0.057036,0.03827,0.98284,-0.59028,-1.7288,-1.6786,0.0077837,0,0,1.4148,-0.06528,0,0.020238,0,0,0.41931,-0.021125,0,0.41987,-0.59022,-1.7288,-1.6786,0.3917,-1.3325,1.1143,0.070577,0.04,0.26,0
0.085233,0.038221,0.97458,-0.58296,-1.7162,-1.6643,0.010809,0,0,1.4058,-0.067384,0,0.028103,0,0,0.40421,-0.030063,0,0.40541,-0.58286,-1.7163,-1.6643,0.54645,-1.3211,1.1083,0.069409,0.06,0.26,0
0.11327,0.038151,0.96668,-0.57414,-1.7018,-1.6495,0.013517,0,0,1.3979,-0.068042,0,0.035144,0,0,0.3849,-0.03704,0,0.38683,-0.57398,-1.702,-1.6495,0.68665,-1.3085,1.1027,0.068333,0.08,0.26,0
0.14115,0.038097,0.95919,-0.54379,-1.1356,-1.1033,0.015844,0,0,0.81815,-0.067088,0,0.10246,0,0,0.3674,-0.025957,0,0.36871,-0.54173,-1.1376,-1.1033,7.3701,-0.92754,0.58007,0.033882,0.1,0.26,0
0.14599,0.04048,0.93036,-0.51968,-0.59339,-0.56651,0.015753,0,0,0.24349,-0.13975,0,0.16383,0,0,0.35759,-0.013162,0,0.35784,-0.51646,-0.59661,-0.56651,11.573,-0.55986,0.070127,7.3549e-06,0.12,0.26,0
0.15089,0.042454,0.90197,-0.51137,-0.59644,-0.55784,0.014294,0,0,0.24162,-0.20075,0,0.14866,0,0,0.35225,-0.015221,0,0.35259,-0.50904,-0.59878,-0.55784,9.2878,-0.55522,0.077821,3.6546e-06,0.14,0.26,0
0.15566,0.043966,0.874,-0.5046,-0.5961,-0.54871,0.012564,0,0,0.22937,-0.24643,0,0.13067,0,0,0.34772,-0.016617,0,0.34812,-0.5029,-0.59779,-0.54871,7.6783,-0.5498,0.082192,-1.7065e-06,0.16,0.26,0
0.16006,0.045033,0.84634,-0.49966,-0.59233,-0.53918,0.011012,0,0,0.20551,-0.27637,0,0.11452,0,0,0.34446,-0.017473,0,0.3449,-0.49837,-0.59362,-0.53918,6.6842,-0.54373,0.082769,-7.1274e-06,0.18,0.26,0
0.16388,0.045721,0.81888,-0.4966,-0.58547,-0.52934,0.0098888,0,0,0.17025,-0.29185,0,0.10284,0,0,0.34278,-0.017941,0,0.34325,-0.49551,-0.58655,-0.52934,6.2736,-0.53714,0.079704,-1.1116e-05,0.2,0.26,0
0.16687,0.046114,0.79149,-0.49533,-0.57587,-0.51923,0.0092933,0,0,0.12431,-0.29452,0,0.096651,0,0,0.34288,-0.018177,0,0.34336,-0.49427,-0.57693,-0.51923,6.4972,-0.53014,0.073433,-1.2697e-05,0.22,0.26,0
0.16885,0.046297,0.76402,-0.49574,-0.56379,-0.50887,0.0092366,0,0,0.068264,-0.28563,0,0.096061,0,0,0.34479,-0.018332,0,0.34528,-0.49451,-0.56502,-0.50887,7.5933,-0.5228,0.064548,-1.1542e-05,0.24,0.26,0
0.16961,0.046345,0.73633,-0.49776,-0.54931,-0.4982,0.0097068,0,0,0.0023099,-0.26576,0,0.10095,0,0,0.34845,-0.018566,0,0.34895,-0.49599,-0.55108,-0.4982,10.318,-0.51509,0.054014,-8.0481e-06,0.26,0.26,0
0.16894,0.046323,0.70827,-0.50131,-0.53236,-0.48717,0.010717,0,0,-0.073547,-0.235,0,0.11146,0,0,0.3536,-0.019061,0,0.35413,-0.49798,-0.5357,-0.48717,17.31,-0.50695,0.044133,-3.5389e-06,0.28,0.26,0
0.16666,0.046289,0.67975,-0.50625,-0.51288,-0.47568,0.01235,0,0,-0.15899,-0.19345,0,0.12844,0,0,0.35987,-0.020023,0,0.36044,-0.49678,-0.52235,-0.47568,37.49,-0.49827,0.040484,-5.6234e-07,0.3,0.26,0
0.16258,0.046306,0.65069,-0.51221,-0.49099,-0.46363,0.014786,0,0,-0.25262,-0.14224,0,0.15378,0,0,0.36672,-0.021659,0,0.36738,-0.4834,-0.5198,-0.46363,62.836,-0.48895,0.04935,-3.003e-06,0.32,0.26,0
0.15656,0.046452,0.62108,-0.52769,-0.83878,-0.79811,0.021769,0,0,0.23859,-0.084579,0,0.12576,0,0,0.37842,-0.060375,0,0.38487,-0.5031,-0.86337,-0.79811,36.009,-0.72153,0.34778,0.0063426,0.34,0.26,0
0.17213,0.04425,0.61334,-0.54692,-1.2053,-1.139,0.038648,0,0,0.76973,-0.086219,0,0.10049,0,0,0.3986,-0.10155,0,0.41151,-0.54466,-1.2076,-1.139,3.3479,-0.96376,0.63145,0.012419,0.36,0.26,0
0.18735,0.042682,0.60513,-0.55069,-1.1985,-1.1299,0.055955,0,0,0.75294,-0.089163,0,0.14548,0,0,0.42,-0.11044,0,0.43436,-0.5459,-1.2033,-1.1299,4.9009,-0.95968,0.62392,0.011894,0.38,0.26,0
0.20224,0.041521,0.59654,-0.55145,-1.19,-1.119,0.070421,0,0,0.73777,-0.09229,0,0.18309,0,0,0.43494,-0.12309,0,0.45202,-0.54377,-1.1976,-1.119,6.2195,-0.95346,0.61829,0.01148,0.4,0.26,0
0.21686,0.040574,0.58773,-0.54789,-1.1807,-1.1063,0.082048,0,0,0.72594,-0.096678,0,0.21332,0,0,0.44091,-0.13918,0,0.4623,-0.53742,-1.1911,-1.1063,7.269,-0.94495,0.61569,0.011224,0.42,0.26,0
0.23128,0.039616,0.57891,-0.53949,-1.1725,-1.0925,0.088931,0,0,0.71891,-0.10397,0,0.23122,0,0,0.43574,-0.15792,0,0.46343,-0.52724,-1.1847,-1.0925,7.8474,-0.93482,0.61658,0.011136,0.44,0.26,0
0.24561,0.038349,0.5703,-0.52695,-1.1642,-1.0776,0.08768,0,0,0.71591,-0.11252,0,0.22797,0,0,0.41819,-0.17707,0,0.45424,-0.5151,-1.1761,-1.0776,7.6929,-0.92293,0.61765,0.011074,0.46,0.26,0
0.25992,0.036424,0.56218,-0.51239,-1.1501,-1.0609,0.077322,0,0,0.7131,-0.11593,0,0.20104,0,0,0.38903,-0.19278,0,0.43452,-0.50315,-1.1593,-1.0609,6.8155,-0.9078,0.61294,0.010807,0.48,0.26,0
0.27414,0.033611,0.55474,-0.48063,-0.77482,-0.72335,0.063856,0,0,0.19557,-0.10705,0,0.39235,0,0,0.35928,-0.12524,0,0.38658,-0.43582,-0.81963,-0.72335,30.478,-0.6596,0.35941,0.00522,0.5,0.26,0
0.26774,0.039245,0.527,-0.46238,-0.44036,-0.40257,0.054199,0,0,-0.311,-0.1965,0,0.56367,0,0,0.341,-0.051165,0,0.34487,-0.39607,-0.50668,-0.40257,50.741,-0.43511,0.10751,-6.3026e-05,0.52,0.26,0
0.2617,0.04349,0.50018,-0.45074,-0.44141,-0.39269,0.045999,0,0,-0.30185,-0.25334,0,0.47839,0,0,0.3296,-0.049397,0,0.33333,-0.39984,-0.49231,-0.39269,47.895,-0.42828,0.096243,-4.4935e-05,0.54,0.26,0
0.25567,0.046372,0.47427,-0.44117,-0.437,-0.38202,0.038246,0,0,-0.30762,-0.28588,0,0.39775,0,0,0.31901,-0.045566,0,0.32229,-0.40078,-0.47739,-0.38202,46.564,-0.42006,0.08751,-2.9155e-05,0.56,0.26,0
0.24939,0.048131,0.44914,-0.43345,-0.42989,-0.37129,0.03165,0,0,-0.32324,-0.30475,0,0.32916,0,0,0.31008,-0.040722,0,0.31277,-0.39997,-0.46337,-0.37129,46.608,-0.41154,0.081613,-1.6739e-05,0.58,0.26,0
0.24274,0.049026,0.42465,-0.42697,-0.42133,-0.36066,0.026103,0,0,-0.34484,-0.31553,0,0.27147,0,0,0.30301,-0.035684,0,0.30512,-0.3979,-0.45041,-0.36066,48.081,-0.40299,0.078101,-7.0824e-06,0.6,0.26,0
0.2356,0.049253,0.40066,-0.4215,-0.41187,-0.35018,0.02133,0,0,-0.37089,-0.32081,0,0.22184,0,0,0.29766,-0.030839,0,0.29925,-0.39482,-0.43855,-0.35018,51.36,-0.39452,0.076538,4.0974e-07,0.62,0.26,0
0.2279,0.048958,0.37703,-0.41695,-0.40174,-0.33986,0.017141,0,0,-0.40083,-0.32177,0,0.17826,0,0,0.29375,-0.026306,0,0.29493,-0.3906,-0.4281,-0.33986,56.959,-0.38619,0.076697,5.9356e-06,0.64,0.26,0
0.21957,0.048248,0.35366,-0.41328,-0.39109,-0.32973,0.013402,0,0,-0.43446,-0.31912,0,0.13938,0,0,0.29108,-0.022075,0,0.29191,-0.38479,-0.41958,-0.32973,64.805,-0.37803,0.078475,9.4036e-06,0.66,0.26,0
0.21052,0.047207,0.33046,-0.41045,-0.38,-0.31975,0.010016,0,0,-0.47166,-0.3133,0,0.10416,0,0,0.28946,-0.018086,0,0.29002,-0.377,-0.41345,-0.31975,73.332,-0.37007,0.081812,1.0495e-05,0.68,0.26,0
0.2007,0.045905,0.30734,-0.40846,-0.36852,-0.30993,0.0068994,0,0,-0.51236,-0.30465,0,0.071754,0,0,0.28877,-0.014259,0,0.28912,-0.36736,-0.40962,-0.30993,80.471,-0.3623,0.086666,8.6872e-06,0.7,0.26,0
0.19003,0.044398,0.28425,-0.40729,-0.35668,-0.30025,0.0039836,0,0,-0.5566,-0.29341,0,0.04143,0,0,0.28897,-0.010508,0,0.28915,-0.35637,-0.4076,-0.30025,85.527,-0.35474,0.092999,3.2471e-06,0.72,0.26,0
0.17844,0.042734,0.26111,-0.40697,-0.34453,-0.29073,0.0012143,0,0,-0.60444,-0.27978,0,0.012629,0,0,0.29005,-0.006744,0,0.29013,-0.34451,-0.40699,-0.29073,88.886,-0.34741,0.10078,-6.7912e-06,0.74,0.26,0
0.16585,0.040958,0.23785,-0.40751,-0.3321,-0.28135,-0.0014402,0,0,-0.65605,-0.26395,0,-0.014978,0,0,0.29209,-0.0028813,0,0.2921,-0.33208,-0.40753,-0.28135,-88.906,-0.34032,0.10998,-2.2654e-05,0.76,0.26,0
0.15219,0.039112,0.21438,-0.40897,-0.31944,-0.27212,-0.0039795,0,0,-0.71161,-0.2461,0,-0.041387,0,0,0.29519,0.0011625,0,0.2952,-0.31927,-0.40914,-0.27212,-87.46,-0.33351,0.12058,-4.5848e-05,0.78,0.26,0
0.13739,0.037242,0.19061,-0.41139,-0.30661,-0.26305,-0.0063588,0,0,-0.77133,-0.2265,0,-0.066132,0,0,0.29957,0.005451,0,0.29962,-0.30622,-0.41177,-0.26305,-86.54,-0.32702,0.13251,-7.8149e-05,0.8,0.26,0
0.12134,0.035398,0.16645,-0.41478,-0.29367,-0.25415,-0.0084805,0,0,-0.8353,-0.20551,0,-0.088198,0,0,0.30546,0.0099957,0,0.30563,-0.29307,-0.41537,-0.25415,-86.014,-0.32086,0.14571,-0.00012149,0.82,0.26,0
0.10397,0.033639,0.14174,-0.4191,-0.28072,-0.24538,-0.010203,0,0,-0.90335,-0.18376,0,-0.10611,0,0,0.31315,0.014681,0,0.31351,-0.27997,-0.41985,-0.24538,-85.806,-0.31507,0.16,-0.00017769,0.84,0.26,0
0.085208,0.032019,0.11634,-0.42419,-0.26788,-0.23671,-0.011413,0,0,-0.97492,-0.1621,0,-0.11869,0,0,0.32283,0.019119,0,0.32344,-0.26705,-0.42502,-0.23671,-85.846,-0.3096,0.17513,-0.00024816,0.86,0.26,0
0.064978,0.030561,0.090088,-0.43001,-0.25529,-0.22811,-0.012079,0,0,-1.0499,-0.14132,0,-0.12562,0,0,0.33436,0.022461,0,0.33518,-0.25446,-0.43084,-0.22811,-86.064,-0.30447,0.19092,-0.0003346,0.88,0.26,0
0.043213,0.029245,0.062844,-0.4363,-0.2422,-0.21926,-0.012207,0,0,-1.1286,-0.1193,0,-0.12695,0,0,0.34698,0.023579,0,0.34785,-0.24144,-0.43706,-0.21926,-86.415,-0.29925,0.2076,-0.0004419,0.9,0.26,0
0.019834,0.028035,0.03457,-0.43794,-0.28173,-0.23751,-0.010339,0,0,-0.69893,-0.091974,0,-0.071989,0,0,0.36801,0.053849,0,0.37351,-0.28101,-0.43866,-0.23751,-85.953,-0.31906,0.18585,-0.00029169,0.92,0.26,0
0.015256,0.028757,0.026918,-0.45086,-0.36377,-0.27131,-0.0079872,0,0,-0.23342,-0.1202,0,-0.020767,0,0,0.40313,0.076214,0,0.41078,-0.36304,-0.45158,-0.27131,-84.803,-0.36198,0.15613,5.9936e-06,0.94,0.26,0
0.010497,0.029422,0.018445,-0.45674,-0.37446,-0.26781,-0.0074214,0,0,-0.24562,-0.13865,0,-0.019296,0,0,0.43854,0.055735,0,0.44222,-0.37379,-0.45741,-0.26781,-84.888,-0.36634,0.16458,4.6399e-05,0.96,0.26,0
0.0054313,0.029809,0.0093766,-0.46103,-0.37157,-0.25915,-0.0053963,0,0,-0.26243,-0.14613,0,-0.01403,0,0,0.46113,0.029102,0,0.46197,-0.37124,-0.46135,-0.25915,-86.561,-0.36392,0.17545,5.1848e-05,0.98,0.26,0
0,0.029925,0,-0.45069,-0.35528,-0.24179,0.0022213,0,0,-0.27157,-0.14754,0,0.0057753,0,0,0.46883,6.9389e-18,0,0.46867,-0.35523,-0.45074,-0.24179,88.667,-0.34925,0.18118,4.5199e-05,1,0.26,0
0,0.036977,1,-0.60106,-1.7603,-1.7084,-0.00037747,0,0,1.4395,-0.067421,0,-0.00098142,0,0,0.42465,-1.738e-15,0,0.42465,-0.60106,-1.7603,-1.7084,-0.018657,-1.3566,1.1342,0.0744,0,0.28,0
0.028791,0.036958,0.99151,-0.58877,-1.7434,-1.6912,0.0007959,0,0,1.4331,-0.067946,0,0.0020694,0,0,0.42157,-0.004352,0,0.4216,-0.58877,-1.7434,-1.6912,0.039494,-1.3411,1.1294,0.073462,0.02,0.28,0
0.057325,0.036905,0.98314,-0.58441,-1.7311,-1.6778,0.0017652,0,0,1.4214,-0.069307,0,0.0045895,0,0,0.41257,-0.0085669,0,0.4127,-0.58441,-1.7311,-1.6778,0.088199,-1.3311,1.121,0.071798,0.04,0.28,0
0.085647,0.036831,0.975,-0.57804,-1.7182,-1.6639,0.0030204,0,0,1.4116,-0.070585,0,0.0078531,0,0,0.39844,-0.012514,0,0.39872,-0.57803,-1.7182,-1.6639,0.15179,-1.32,1.114,0.07043,0.06,0.28,0
0.11379,0.036758,0.9672,-0.57017,-1.704,-1.6495,0.0047721,0,0,1.4031,-0.070936,0,0.012407,0,0,0.38043,-0.016078,0,0.3809,-0.57015,-1.7041,-1.6495,0.24114,-1.3079,1.1076,0.069217,0.08,0.28,0
0.14177,0.036717,0.95979,-0.54098,-1.1373,-1.1034,0.006583,0,0,0.82566,-0.070613,0,0.042855,0,0,0.36414,-0.011983,0,0.36448,-0.54062,-1.1377,-1.1034,3.1671,-0.92721,0.58106,0.034318,0.1,0.28,0
0.14681,0.037707,0.93118,-0.51718,-0.59265,-0.56574,0.0070165,0,0,0.25254,-0.13991,0,0.072972,0,0,0.35503,-0.0075643,0,0.35512,-0.51653,-0.59329,-0.56574,5.2666,-0.55852,0.067357,7.3097e-06,0.12,0.28,0
0.15187,0.038493,0.90298,-0.50925,-0.59549,-0.55717,0.0069665,0,0,0.24915,-0.19926,0,0.072451,0,0,0.3501,-0.010188,0,0.35025,-0.5087,-0.59605,-0.55717,4.5891,-0.55397,0.075801,4.2243e-06,0.14,0.28,0
0.15678,0.039096,0.87516,-0.5027,-0.59527,-0.54818,0.007064,0,0,0.2365,-0.24487,0,0.073466,0,0,0.34594,-0.01266,0,0.34618,-0.50217,-0.59581,-0.54818,4.3388,-0.54872,0.081101,-8.1599e-07,0.16,0.28,0
0.16133,0.039553,0.84763,-0.49784,-0.59185,-0.53882,0.0074076,0,0,0.21307,-0.27579,0,0.077039,0,0,0.34297,-0.014984,0,0.3433,-0.49726,-0.59243,-0.53882,4.4777,-0.54284,0.082642,-6.3017e-06,0.18,0.28,0
0.1653,0.039912,0.82029,-0.49473,-0.58544,-0.52912,0.0080782,0,0,0.17882,-0.29284,0,0.084013,0,0,0.34152,-0.017173,0,0.34195,-0.49402,-0.58615,-0.52912,5.0498,-0.53643,0.080539,-1.0686e-05,0.2,0.28,0
0.16848,0.040229,0.79299,-0.49331,-0.57633,-0.51914,0.0091428,0,0,0.13431,-0.2974,0,0.095085,0,0,0.34175,-0.019241,0,0.34229,-0.49232,-0.57733,-0.51914,6.2106,-0.52959,0.075273,-1.2898e-05,0.22,0.28,0
0.17067,0.040566,0.7656,-0.49347,-0.56475,-0.50887,0.010656,0,0,0.08007,-0.2906,0,0.11082,0,0,0.34371,-0.021208,0,0.34436,-0.49191,-0.56631,-0.50887,8.3225,-0.52236,0.067538,-1.2523e-05,0.24,0.28,0
0.17169,0.040987,0.73799,-0.49513,-0.55077,-0.49827,0.012653,0,0,0.016339,-0.27302,0,0.13159,0,0,0.3473,-0.023095,0,0.34808,-0.49239,-0.55351,-0.49827,12.227,-0.51472,0.058411,-9.8861e-06,0.26,0.28,0
0.17133,0.041552,0.71004,-0.49818,-0.53434,-0.48727,0.015138,0,0,-0.056773,-0.24478,0,0.15744,0,0,0.35229,-0.024931,0,0.35318,-0.49268,-0.53984,-0.48727,19.972,-0.5066,0.050086,-6.1994e-06,0.28,0.28,0
0.16942,0.042313,0.68163,-0.50245,-0.5154,-0.47576,0.018075,0,0,-0.1388,-0.20609,0,0.18799,0,0,0.35826,-0.02676,0,0.35927,-0.48973,-0.52812,-0.47576,35.153,-0.49787,0.046963,-3.7769e-06,0.3,0.28,0
0.16578,0.043305,0.65271,-0.50757,-0.49412,-0.46368,0.021379,0,0,-0.2282,-0.15825,0,0.22234,0,0,0.36468,-0.028642,0,0.36582,-0.47843,-0.52325,-0.46368,53.732,-0.48846,0.053737,-5.9925e-06,0.32,0.28,0
0.16029,0.04454,0.62328,-0.52258,-0.85224,-0.80199,0.02802,0,0,0.26032,-0.10451,0,0.16796,0,0,0.37538,-0.076645,0,0.38569,-0.499,-0.87581,-0.80199,32.263,-0.7256,0.36018,0.0069235,0.34,0.28,0
0.17619,0.042348,0.61562,-0.53913,-1.223,-1.1443,0.043155,0,0,0.78668,-0.10237,0,0.1122,0,0,0.39357,-0.12523,0,0.41316,-0.53642,-1.2257,-1.1443,3.5965,-0.96881,0.65241,0.013515,0.36,0.28,0
0.19176,0.040736,0.60754,-0.54073,-1.213,-1.1337,0.058345,0,0,0.77082,-0.10317,0,0.1517,0,0,0.4125,-0.1289,0,0.43224,-0.5357,-1.2181,-1.1337,4.9233,-0.96247,0.64432,0.012947,0.38,0.28,0
0.20702,0.039518,0.59912,-0.53936,-1.202,-1.1215,0.069903,0,0,0.75682,-0.10459,0,0.18175,0,0,0.42509,-0.13376,0,0.44566,-0.53207,-1.2093,-1.1215,5.957,-0.95429,0.63788,0.012484,0.4,0.28,0
0.22203,0.038501,0.59053,-0.53503,-1.1895,-1.1079,0.077284,0,0,0.74472,-0.10609,0,0.20094,0,0,0.42918,-0.13987,0,0.45138,-0.52603,-1.1985,-1.1079,6.6441,-0.94414,0.63206,0.012075,0.42,0.28,0
0.23681,0.03746,0.58196,-0.52781,-1.1752,-1.0929,0.079219,0,0,0.73458,-0.10708,0,0.20597,0,0,0.4233,-0.1469,0,0.44809,-0.51826,-1.1848,-1.0929,6.8755,-0.93198,0.62566,0.011669,0.44,0.28,0
0.25141,0.036138,0.5736,-0.5184,-1.1578,-1.0764,0.074477,0,0,0.72546,-0.1057,0,0.19364,0,0,0.40713,-0.15391,0,0.43538,-0.50984,-1.1663,-1.0764,6.5573,-0.91753,0.61647,0.011176,0.46,0.28,0
0.26583,0.034272,0.56567,-0.50737,-1.1344,-1.0582,0.063099,0,0,0.71608,-0.099054,0,0.16406,0,0,0.38193,-0.15933,0,0.4141,-0.50108,-1.1407,-1.0582,5.6898,-0.89999,0.60261,0.010533,0.48,0.28,0
0.28005,0.03167,0.55832,-0.48025,-0.76401,-0.72223,0.050429,0,0,0.19146,-0.086894,0,0.30922,0,0,0.35689,-0.10096,0,0.37521,-0.44058,-0.80369,-0.72223,31.783,-0.6555,0.34423,0.0050202,0.5,0.28,0
0.27349,0.035699,0.53061,-0.4638,-0.43281,-0.40163,0.042422,0,0,-0.32325,-0.1621,0,0.44119,0,0,0.34161,-0.040006,0,0.34398,-0.40314,-0.49347,-0.40163,55.032,-0.43275,0.091089,-3.8781e-05,0.52,0.28,0
0.26712,0.038829,0.50367,-0.45343,-0.43378,-0.39208,0.036381,0,0,-0.31901,-0.21686,0,0.37836,0,0,0.33185,-0.038466,0,0.33411,-0.40592,-0.48129,-0.39208,52.554,-0.42643,0.083157,-2.6796e-05,0.54,0.28,0
0.26073,0.041013,0.47751,-0.4445,-0.43055,-0.38189,0.03037,0,0,-0.32558,-0.25299,0,0.31584,0,0,0.32241,-0.035967,0,0.32444,-0.40636,-0.46869,-0.38189,51.471,-0.41898,0.077511,-1.6127e-05,0.56,0.28,0
0.2541,0.042354,0.45208,-0.43701,-0.4245,-0.37147,0.025053,0,0,-0.34079,-0.27573,0,0.26055,0,0,0.31404,-0.032888,0,0.31578,-0.40493,-0.45658,-0.37147,52.011,-0.41099,0.07426,-7.5723e-06,0.58,0.28,0
0.2471,0.043001,0.42727,-0.43071,-0.41675,-0.36105,0.020529,0,0,-0.36221,-0.28961,0,0.2135,0,0,0.30709,-0.029578,0,0.30852,-0.40204,-0.44541,-0.36105,54.39,-0.40284,0.073066,-9.7661e-07,0.6,0.28,0
0.23961,0.043099,0.40295,-0.42539,-0.4079,-0.35072,0.016683,0,0,-0.38826,-0.29732,0,0.1735,0,0,0.30162,-0.026259,0,0.30277,-0.39781,-0.43548,-0.35072,58.831,-0.39467,0.073553,3.9018e-06,0.62,0.28,0
0.23157,0.042764,0.37901,-0.42096,-0.39826,-0.34052,0.013374,0,0,-0.41828,-0.30028,0,0.13909,0,0,0.29753,-0.023031,0,0.29843,-0.39207,-0.42715,-0.34052,65.155,-0.38658,0.075476,7.1164e-06,0.64,0.28,0
0.22288,0.042089,0.35534,-0.41738,-0.388,-0.33045,0.010488,0,0,-0.45202,-0.29929,0,0.10907,0,0,0.29467,-0.019921,0,0.29535,-0.38464,-0.42074,-0.33045,72.234,-0.37861,0.078713,8.488e-06,0.66,0.28,0
0.21349,0.041151,0.33186,-0.41464,-0.37721,-0.32052,0.0079343,0,0,-0.48941,-0.29481,0,0.082517,0,0,0.29291,-0.016918,0,0.29339,-0.3756,-0.41625,-0.32052,78.511,-0.37079,0.083218,7.6223e-06,0.68,0.28,0
0.20331,0.040011,0.30848,-0.41274,-0.36596,-0.31073,0.0056429,0,0,-0.53045,-0.28719,0,0.058686,0,0,0.29213,-0.013997,0,0.29246,-0.36529,-0.41341,-0.31073,83.218,-0.36314,0.088983,3.9188e-06,0.7,0.28,0
0.19227,0.038721,0.28512,-0.41168,-0.35429,-0.30107,0.0035575,0,0,-0.57518,-0.27674,0,0.036998,0,0,0.29229,-0.011128,0,0.2925,-0.35407,-0.4119,-0.30107,86.467,-0.35568,0.096013,-3.4299e-06,0.72,0.28,0
0.1803,0.037325,0.26171,-0.41148,-0.34226,-0.29155,0.0016375,0,0,-0.62364,-0.26371,0,0.017029,0,0,0.2934,-0.0082781,0,0.29351,-0.34223,-0.41152,-0.29155,88.646,-0.34843,0.10431,-1.5444e-05,0.74,0.28,0
0.16732,0.035861,0.23817,-0.41214,-0.32994,-0.28217,-0.00013928,0,0,-0.67588,-0.24841,0,-0.0014485,0,0,0.29551,-0.0054182,0,0.29556,-0.32994,-0.41214,-0.28217,-89.903,-0.34142,0.11387,-3.3351e-05,0.76,0.28,0
0.15326,0.034367,0.21443,-0.41367,-0.31739,-0.27292,-0.0017717,0,0,-0.73189,-0.23121,0,-0.018426,0,0,0.29874,-0.0025233,0,0.29875,-0.31736,-0.4137,-0.27292,-88.946,-0.33466,0.12465,-5.8556e-05,0.78,0.28,0
0.13805,0.032879,0.19038,-0.41604,-0.30471,-0.26382,-0.0032311,0,0,-0.79156,-0.21262,0,-0.033603,0,0,0.30324,0.00041533,0,0.30324,-0.30461,-0.41613,-0.26382,-88.339,-0.32819,0.13657,-9.254e-05,0.8,0.28,0
0.1216,0.031437,0.16591,-0.41918,-0.29201,-0.25483,-0.0044614,0,0,-0.85458,-0.19332,0,-0.046399,0,0,0.30917,0.0033695,0,0.3092,-0.29185,-0.41933,-0.25483,-87.993,-0.32201,0.14947,-0.00013668,0.82,0.28,0
0.10386,0.030081,0.14091,-0.42295,-0.27944,-0.24595,-0.0053968,0,0,-0.92044,-0.17419,0,-0.056127,0,0,0.31666,0.0062328,0,0.31674,-0.27924,-0.42316,-0.24595,-87.849,-0.31611,0.16313,-0.00019203,0.84,0.28,0
0.084783,0.028849,0.11525,-0.42722,-0.26711,-0.23711,-0.0059929,0,0,-0.98857,-0.156,0,-0.062326,0,0,0.32568,0.0087647,0,0.32583,-0.26689,-0.42745,-0.23711,-87.859,-0.31048,0.17733,-0.00025939,0.86,0.28,0
0.06432,0.027764,0.0888,-0.4318,-0.25488,-0.2282,-0.0062469,0,0,-1.0587,-0.13873,0,-0.064968,0,0,0.33591,0.010577,0,0.33612,-0.25466,-0.43202,-0.2282,-87.98,-0.30496,0.19196,-0.00034012,0.88,0.28,0
0.042436,0.026832,0.0615,-0.43645,-0.24229,-0.21899,-0.0060785,0,0,-1.1308,-0.12111,0,-0.063217,0,0,0.34662,0.011218,0,0.34685,-0.2421,-0.43664,-0.21899,-88.209,-0.29924,0.20706,-0.00043688,0.9,0.28,0
0.01909,0.026069,0.033341,-0.43694,-0.2867,-0.23793,-0.0047958,0,0,-0.69645,-0.10145,0,-0.034976,0,0,0.36387,0.025958,0,0.36537,-0.28655,-0.4371,-0.23793,-88.05,-0.32052,0.18315,-0.00026606,0.92,0.28,0
0.014578,0.026308,0.025826,-0.44411,-0.36322,-0.26802,-0.0029667,0,0,-0.22891,-0.12375,0,-0.0077135,0,0,0.3926,0.037023,0,0.39472,-0.36311,-0.44422,-0.26802,-87.902,-0.35845,0.15275,2.5058e-05,0.94,0.28,0
0.0099332,0.026573,0.017637,-0.446,-0.3744,-0.26376,-0.0023864,0,0,-0.23691,-0.14384,0,-0.0062047,0,0,0.42189,0.027469,0,0.42295,-0.37433,-0.44608,-0.26376,-88.093,-0.36139,0.15908,7.4174e-05,0.96,0.28,0
0.0051012,0.026745,0.0089501,-0.44655,-0.37538,-0.25553,-0.0017325,0,0,-0.24833,-0.1558,0,-0.0045046,0,0,0.44092,0.014528,0,0.44117,-0.37533,-0.44659,-0.25553,-88.606,-0.35915,0.16724,0.00010166,0.98,0.28,0
0,0.026799,0,-0.43537,-0.36185,-0.23916,0.0010325,0,0,-0.25506,-0.15949,0,0.0026845,0,0,0.44751,-6.9389e-18,0,0.44746,-0.36183,-0.43538,-0.23916,89.195,-0.34546,0.17169,0.00010851,1,0.28,0
0,0.035607,1,-0.60026,-1.7593,-1.7079,-0.00057323,0,0,1.4399,-0.06685,0,-0.0014904,0,0,0.42347,-1.2122e-15,0,0.42346,-0.60026,-1.7593,-1.7079,-0.028337,-1.3558,1.1342,0.074415,0,0.3,0
0.028798,0.035577,0.99153,-0.58792,-1.7427,-1.6907,-0.0022821,0,0,1.4336,-0.067592,0,-0.0059335,0,0,0.42033,0.0020394,0,0.42034,-0.58792,-1.7427,-1.6907,-0.11323,-1.3404,1.1297,0.07352,0.02,0.3,0
0.057346,0.035498,0.98319,-0.58332,-1.731,-1.6775,-0.0039148,0,0,1.4224,-0.069575,0,-0.010179,0,0,0.41115,0.0037189,0,0.41121,-0.5833,-1.731,-1.6775,-0.19544,-1.3306,1.1219,0.071969,0.04,0.3,0
0.085694,0.035398,0.97508,-0.57661,-1.719,-1.6638,-0.0044003,0,0,1.4133,-0.071764,0,-0.011441,0,0,0.3967,0.0046428,0,0.39682,-0.5766,-1.719,-1.6638,-0.2207,-1.3198,1.1158,0.070758,0.06,0.3,0
0.11388,0.035314,0.96732,-0.56841,-1.7058,-1.6496,-0.0036648,0,0,1.4055,-0.073064,0,-0.0095285,0,0,0.37825,0.0043997,0,0.37841,-0.5684,-1.7058,-1.6496,-0.18461,-1.3079,1.1103,0.069701,0.08,0.3,0
0.14192,0.035273,0.95996,-0.5389,-1.1385,-1.1032,-0.0024478,0,0,0.83145,-0.073417,0,-0.015401,0,0,0.36153,0.0016581,0,0.36162,-0.53885,-1.1385,-1.1032,-1.0955,-0.92686,0.58319,0.034602,0.1,0.3,0
0.14713,0.034884,0.93157,-0.51489,-0.59312,-0.56529,-0.0015478,0,0,0.26209,-0.14468,0,-0.016097,0,0,0.35219,-0.0021182,0,0.35221,-0.51486,-0.59315,-0.56529,-1.1331,-0.55777,0.068731,7.9219e-06,0.12,0.3,0
0.1524,0.034484,0.9036,-0.50687,-0.59636,-0.55687,-0.0002449,0,0,0.26001,-0.20536,0,-0.0025469,0,0,0.34715,-0.0053122,0,0.3472,-0.50687,-0.59637,-0.55687,-0.15678,-0.55337,0.077684,4.856e-06,0.14,0.3,0
0.15754,0.034171,0.87602,-0.50027,-0.59643,-0.54801,0.0016206,0,0,0.24829,-0.25176,0,0.016854,0,0,0.34292,-0.0088535,0,0.34304,-0.50024,-0.59646,-0.54801,0.96522,-0.54824,0.083328,-3.5692e-07,0.16,0.3,0
0.16233,0.034002,0.84874,-0.49537,-0.59324,-0.53877,0.003797,0,0,0.22565,-0.28326,0,0.039489,0,0,0.33994,-0.012633,0,0.34018,-0.49523,-0.59339,-0.53877,2.2185,-0.54246,0.085191,-6.1593e-06,0.18,0.3,0
0.16656,0.034008,0.82163,-0.49222,-0.5871,-0.5292,0.0061876,0,0,0.19233,-0.30105,0,0.064351,0,0,0.33852,-0.016525,0,0.33892,-0.49181,-0.5875,-0.5292,3.7155,-0.53617,0.083522,-1.1002e-05,0.2,0.3,0
0.17002,0.034218,0.79457,-0.49068,-0.57834,-0.51935,0.0088265,0,0,0.14907,-0.30675,0,0.091796,0,0,0.33884,-0.020409,0,0.33945,-0.4898,-0.57922,-0.51935,5.6931,-0.52946,0.078909,-1.383e-05,0.22,0.3,0
0.17252,0.034673,0.76742,-0.49066,-0.56721,-0.50922,0.011815,0,0,0.096483,-0.30157,0,0.12287,0,0,0.34094,-0.024167,0,0.3418,-0.48888,-0.56899,-0.50922,8.5771,-0.52236,0.072128,-1.4232e-05,0.24,0.3,0
0.17388,0.035424,0.74002,-0.49207,-0.55374,-0.49875,0.015244,0,0,0.034729,-0.28595,0,0.15854,0,0,0.34472,-0.027678,0,0.34584,-0.48851,-0.5573,-0.49875,13.153,-0.51485,0.064288,-1.2487e-05,0.26,0.3,0
0.17391,0.036532,0.71226,-0.49484,-0.53779,-0.48785,0.019121,0,0,-0.036335,-0.25965,0,0.19886,0,0,0.34994,-0.030815,0,0.3513,-0.48756,-0.54507,-0.48785,20.842,-0.50683,0.057359,-9.6914e-06,0.28,0.3,0
0.17243,0.038045,0.68403,-0.49884,-0.51917,-0.47641,0.023291,0,0,-0.11661,-0.22236,0,0.24222,0,0,0.35616,-0.033452,0,0.35774,-0.48359,-0.53442,-0.47641,33.207,-0.49814,0.054771,-7.952e-06,0.3,0.3,0
0.16925,0.039976,0.65528,-0.50371,-0.49792,-0.46431,0.027396,0,0,-0.20489,-0.17477,0,0.28492,0,0,0.36282,-0.035499,0,0.36457,-0.47326,-0.52836,-0.46431,48.017,-0.48864,0.060079,-1.0308e-05,0.32,0.3,0
0.16423,0.042271,0.62598,-0.51885,-0.86361,-0.80598,0.033505,0,0,0.27922,-0.11987,0,0.20555,0,0,0.3738,-0.092344,0,0.38863,-0.49519,-0.88727,-0.80598,29.592,-0.72948,0.37174,0.0074205,0.34,0.3,0
0.18042,0.040155,0.61835,-0.5349,-1.2389,-1.1505,0.046463,0,0,0.80028,-0.11494,0,0.1208,0,0,0.39233,-0.14786,0,0.41942,-0.53184,-1.242,-1.1505,3.7596,-0.97477,0.66909,0.01442,0.36,0.3,0
0.19625,0.038555,0.61029,-0.53631,-1.2255,-1.1388,0.059277,0,0,0.78328,-0.11269,0,0.15412,0,0,0.41146,-0.14613,0,0.43672,-0.53125,-1.2306,-1.1388,4.8801,-0.96689,0.65827,0.013695,0.38,0.3,0
0.21175,0.037337,0.60189,-0.53501,-1.2106,-1.1256,0.068214,0,0,0.76773,-0.11052,0,0.17736,0,0,0.42397,-0.1431,0,0.44748,-0.52819,-1.2174,-1.1256,5.7084,-0.95706,0.6482,0.013046,0.4,0.3,0
0.22695,0.036331,0.59333,-0.53122,-1.1934,-1.1107,0.072445,0,0,0.75334,-0.10749,0,0.18836,0,0,0.42778,-0.1394,0,0.44991,-0.52339,-1.2012,-1.1107,6.1711,-0.94511,0.63743,0.012402,0.42,0.3,0
0.24188,0.035333,0.58478,-0.52523,-1.1733,-1.0943,0.0714,0,0,0.73986,-0.10267,0,0.18564,0,0,0.4217,-0.13563,0,0.44301,-0.51745,-1.1811,-1.0943,6.213,-0.93097,0.6248,0.011717,0.44,0.3,0
0.25655,0.034121,0.57646,-0.51747,-1.149,-1.0764,0.064739,0,0,0.72661,-0.094362,0,0.16832,0,0,0.40577,-0.13221,0,0.42689,-0.5109,-1.1556,-1.0764,5.7933,-0.91428,0.60894,0.010939,0.46,0.3,0
0.27095,0.032462,0.56855,-0.50809,-1.1193,-1.0568,0.052482,0,0,0.7133,-0.081321,0,0.13645,0,0,0.38141,-0.12942,0,0.40302,-0.50362,-1.1238,-1.0568,4.872,-0.89473,0.58954,0.010066,0.48,0.3,0
0.28508,0.030135,0.5612,-0.48249,-0.75283,-0.72135,0.039072,0,0,0.18207,-0.065484,0,0.23682,0,0,0.35745,-0.079578,0,0.36907,-0.44573,-0.7896,-0.72135,33.964,-0.65223,0.33034,0.0047335,0.5,0.3,0
0.27823,0.03276,0.5334,-0.46681,-0.42738,-0.40161,0.031646,0,0,-0.33904,-0.13403,0,0.32912,0,0,0.34292,-0.030157,0,0.34427,-0.40981,-0.48438,-0.40161,60.959,-0.43193,0.078989,-2.4393e-05,0.52,0.3,0
0.27152,0.034815,0.50634,-0.45674,-0.42817,-0.39206,0.027069,0,0,-0.33636,-0.18776,0,0.28152,0,0,0.33364,-0.02855,0,0.33489,-0.41185,-0.47306,-0.39206,58.914,-0.42565,0.073147,-1.5251e-05,0.54,0.3,0
0.26478,0.036252,0.48002,-0.44782,-0.42549,-0.382,0.02256,0,0,-0.34228,-0.22616,0,0.23462,0,0,0.32459,-0.026924,0,0.32574,-0.41149,-0.46183,-0.382,58.166,-0.41844,0.069917,-7.6217e-06,0.56,0.3,0
0.25783,0.037102,0.4544,-0.44021,-0.42021,-0.37173,0.018492,0,0,-0.3561,-0.25212,0,0.19232,0,0,0.31647,-0.025226,0,0.3175,-0.40919,-0.45123,-0.37173,59.199,-0.41071,0.068891,-1.6736e-06,0.58,0.3,0
0.25053,0.037442,0.42939,-0.43377,-0.41314,-0.36142,0.015004,0,0,-0.37623,-0.26894,0,0.15604,0,0,0.30964,-0.023438,0,0.31054,-0.40525,-0.44166,-0.36142,62.257,-0.40278,0.069593,2.7541e-06,0.6,0.3,0
0.24278,0.037361,0.40486,-0.42838,-0.40485,-0.35118,0.012081,0,0,-0.40141,-0.27906,0,0.12565,0,0,0.3042,-0.021566,0,0.30497,-0.39975,-0.43348,-0.35118,67.119,-0.3948,0.071654,5.7864e-06,0.62,0.3,0
0.23447,0.036947,0.38071,-0.42392,-0.39566,-0.34105,0.0096481,0,0,-0.43089,-0.28397,0,0.10034,0,0,0.30009,-0.019631,0,0.30074,-0.39268,-0.4269,-0.34105,72.834,-0.38688,0.074852,7.3814e-06,0.64,0.3,0
0.22554,0.036276,0.35685,-0.42034,-0.38576,-0.33104,0.0076162,0,0,-0.46434,-0.28454,0,0.079209,0,0,0.29719,-0.017656,0,0.29772,-0.38416,-0.42194,-0.33104,78.112,-0.37905,0.079093,7.2972e-06,0.66,0.3,0
0.2159,0.035415,0.33316,-0.41762,-0.37525,-0.32115,0.005907,0,0,-0.50161,-0.28133,0,0.061432,0,0,0.29538,-0.015665,0,0.29579,-0.37444,-0.41842,-0.32115,82.209,-0.37134,0.084369,5.0873e-06,0.68,0.3,0
0.20548,0.034417,0.30958,-0.41575,-0.36422,-0.31139,0.0044566,0,0,-0.54267,-0.27475,0,0.046349,0,0,0.29456,-0.013682,0,0.29488,-0.36384,-0.41613,-0.31139,85.093,-0.36379,0.090709,1.0413e-07,0.7,0.3,0
0.1942,0.033328,0.28603,-0.41473,-0.35274,-0.30175,0.0032167,0,0,-0.58749,-0.26514,0,0.033454,0,0,0.29468,-0.011728,0,0.29492,-0.35257,-0.41489,-0.30175,87.038,-0.3564,0.098156,-8.499e-06,0.72,0.3,0
0.18198,0.032185,0.26243,-0.41456,-0.34086,-0.29223,0.0021521,0,0,-0.63609,-0.25284,0,0.022382,0,0,0.29576,-0.0098241,0,0.29592,-0.3408,-0.41462,-0.29223,88.329,-0.34922,0.10674,-2.1765e-05,0.74,0.3,0
0.16875,0.031021,0.23871,-0.41524,-0.32866,-0.28285,0.0012396,0,0,-0.68845,-0.23823,0,0.012892,0,0,0.29784,-0.0079942,0,0.29795,-0.32865,-0.41526,-0.28285,89.18,-0.34225,0.11647,-4.0916e-05,0.76,0.3,0
0.15444,0.029864,0.21478,-0.41676,-0.31624,-0.2736,0.00046588,0,0,-0.74447,-0.22176,0,0.0048451,0,0,0.30103,-0.0062632,0,0.3011,-0.31624,-0.41677,-0.2736,89.734,-0.33554,0.12732,-6.7305e-05,0.78,0.3,0
0.13897,0.028737,0.19055,-0.41907,-0.30371,-0.26447,-0.00017493,0,0,-0.80392,-0.20404,0,-0.0018193,0,0,0.30546,-0.0046587,0,0.30551,-0.30371,-0.41907,-0.26447,-89.913,-0.32908,0.13919,-0.0001023,0.8,0.3,0
0.12228,0.027665,0.16591,-0.42207,-0.2912,-0.25546,-0.0006828,0,0,-0.86639,-0.18587,0,-0.0071012,0,0,0.31127,-0.0032108,0,0.31131,-0.2912,-0.42207,-0.25546,-89.701,-0.32291,0.15193,-0.00014707,0.82,0.3,0
0.10432,0.026672,0.14074,-0.42563,-0.27887,-0.24654,-0.0010533,0,0,-0.93128,-0.16815,0,-0.010954,0,0,0.31854,-0.0019506,0,0.31857,-0.27887,-0.42564,-0.24654,-89.589,-0.31701,0.16532,-0.00020248,0.84,0.3,0
0.085032,0.025779,0.11494,-0.42957,-0.26679,-0.23764,-0.0012768,0,0,-0.99803,-0.15156,0,-0.013279,0,0,0.32717,-0.00090616,0,0.32721,-0.26678,-0.42958,-0.23764,-89.551,-0.31133,0.17916,-0.0002692,0.86,0.3,0
0.064396,0.025012,0.088395,-0.43372,-0.25482,-0.22866,-0.0013364,0,0,-1.0663,-0.13601,0,-0.013898,0,0,0.33682,-9.6423e-05,0,0.33686,-0.25481,-0.43373,-0.22866,-89.572,-0.30573,0.19333,-0.00034835,0.88,0.3,0
0.042379,0.024401,0.061049,-0.4378,-0.24253,-0.21936,-0.0012058,0,0,-1.1359,-0.12046,0,-0.01254,0,0,0.34679,0.00047569,0,0.34683,-0.24252,-0.43781,-0.21936,-89.646,-0.2999,0.20784,-0.00044188,0.9,0.3,0
0.01896,0.023977,0.032909,-0.43794,-0.28848,-0.2385,-0.0010559,0,0,-0.69839,-0.10397,0,-0.0081931,0,0,0.36267,0.002073,0,0.36291,-0.28848,-0.43795,-0.2385,-89.587,-0.32164,0.18325,-0.00026296,0.92,0.3,0
0.014443,0.023807,0.025437,-0.44338,-0.36334,-0.26745,-0.001168,0,0,-0.2287,-0.12465,0,-0.0030367,0,0,0.38906,0.00323,0,0.38941,-0.36332,-0.44339,-0.26745,-89.164,-0.35805,0.15257,2.8221e-05,0.94,0.3,0
0.0098117,0.023668,0.017347,-0.44401,-0.3745,-0.2629,-0.0010658,0,0,-0.23545,-0.14508,0,-0.0027712,0,0,0.41605,0.0025318,0,0.41622,-0.37449,-0.44403,-0.2629,-89.122,-0.36047,0.15826,7.9221e-05,0.96,0.3,0
0.0050256,0.023577,0.0087955,-0.44354,-0.37665,-0.25485,-0.00062649,0,0,-0.24529,-0.15834,0,-0.0016289,0,0,0.43366,0.0013845,0,0.43371,-0.37664,-0.44354,-0.25485,-89.463,-0.35835,0.1657,0.00011186,0.98,0.3,0
0,0.023545,0,-0.4321,-0.36392,-0.2388,-0.00061336,0,0,-0.25128,-0.16265,0,-0.0015947,0,0,0.43978,3.4694e-18,0,0.43977,-0.36391,-0.4321,-0.2388,-89.485,-0.34494,0.1698,0.00012169,1,0.3,0
0,0.034303,1,-0.60568,-1.7546,-1.7081,-0.00094799,0,0,1.4331,-0.060505,0,-0.0024648,0,0,0.42873,-1.7586e-15,0,0.42871,-0.60568,-1.7546,-1.7081,-0.047274,-1.3561,1.1264,0.07298,0,0.32,0
0.028663,0.034254,0.99143,-0.59277,-1.7385,-1.6908,-0.0058744,0,0,1.4274,-0.061953,0,-0.015274,0,0,0.42529,0.00877,0,0.42538,-0.59274,-1.7385,-1.6908,-0.29377,-1.3407,1.1226,0.072229,0.02,0.32,0
0.057097,0.034122,0.98299,-0.587,-1.7283,-1.6776,-0.010558,0,0,1.4178,-0.065935,0,-0.027452,0,0,0.41518,0.016745,0,0.41556,-0.5869,-1.7284,-1.6776,-0.52999,-1.331,1.117,0.07107,0.04,0.32,0
0.085373,0.033961,0.97482,-0.57869,-1.7185,-1.664,-0.013012,0,0,1.4109,-0.070851,0,-0.033832,0,0,0.39912,0.022987,0,0.39989,-0.57854,-1.7186,-1.664,-0.65401,-1.3204,1.1138,0.070381,0.06,0.32,0
0.11353,0.033835,0.96702,-0.56885,-1.7072,-1.6498,-0.013181,0,0,1.4053,-0.07454,0,-0.03427,0,0,0.37844,0.02645,0,0.37954,-0.5687,-1.7073,-1.6498,-0.66332,-1.3086,1.111,0.069794,0.08,0.32,0
0.14158,0.03378,0.95968,-0.53752,-1.1393,-1.1028,-0.012213,0,0,0.83569,-0.075761,0,-0.077879,0,0,0.35961,0.016393,0,0.36022,-0.53643,-1.1403,-1.1028,-5.2292,-0.92654,0.58656,0.034745,0.1,0.32,0
0.14696,0.03192,0.93151,-0.5128,-0.59491,-0.56519,-0.010568,0,0,0.27245,-0.15454,0,-0.10991,0,0,0.34905,0.0037653,0,0.34909,-0.51146,-0.59625,-0.56519,-7.2175,-0.55763,0.074301,9.3441e-06,0.12,0.32,0
0.15248,0.030278,0.90383,-0.50419,-0.59917,-0.55697,-0.0076766,0,0,0.27444,-0.21946,0,-0.079837,0,0,0.34336,-7.304e-05,0,0.34337,-0.50357,-0.59979,-0.55697,-4.5911,-0.55344,0.083491,5.6475e-06,0.14,0.32,0
0.15794,0.029026,0.87658,-0.49728,-0.59959,-0.54821,-0.0038789,0,0,0.26481,-0.2672,0,-0.040341,0,0,0.33862,-0.0048051,0,0.33865,-0.49713,-0.59974,-0.54821,-2.1682,-0.54836,0.088856,-2.7933e-07,0.16,0.32,0
0.16307,0.028223,0.84965,-0.49229,-0.59646,-0.53904,0.00018546,0,0,0.24309,-0.29858,0,0.0019288,0,0,0.3353,-0.010172,0,0.33545,-0.49229,-0.59646,-0.53904,0.10201,-0.54259,0.090371,-6.6833e-06,0.18,0.32,0
0.16766,0.02787,0.82293,-0.48911,-0.59036,-0.52957,0.0042644,0,0,0.21042,-0.3161,0,0.04435,0,0,0.33374,-0.01589,0,0.33411,-0.48893,-0.59054,-0.52957,2.4074,-0.53635,0.088584,-1.2071e-05,0.2,0.32,0
0.17149,0.027959,0.79625,-0.48754,-0.58181,-0.51987,0.0084041,0,0,0.16812,-0.32211,0,0.087403,0,0,0.33411,-0.021701,0,0.3348,-0.4868,-0.58256,-0.51987,5.0546,-0.52974,0.084242,-1.5524e-05,0.22,0.32,0
0.17439,0.028503,0.76947,-0.48742,-0.57108,-0.50992,0.012789,0,0,0.11697,-0.31802,0,0.13301,0,0,0.33644,-0.027366,0,0.33755,-0.48551,-0.57299,-0.50992,8.5012,-0.52281,0.078184,-1.6724e-05,0.24,0.32,0
0.17617,0.029549,0.74242,-0.48872,-0.55814,-0.49966,0.017607,0,0,0.056932,-0.30409,0,0.18311,0,0,0.34066,-0.032635,0,0.34222,-0.48451,-0.56235,-0.49966,13.447,-0.51551,0.071484,-1.5954e-05,0.26,0.32,0
0.17666,0.031166,0.71497,-0.49143,-0.54271,-0.48899,0.022911,0,0,-0.012724,-0.27938,0,0.23827,0,0,0.34651,-0.037209,0,0.34852,-0.48269,-0.55146,-0.48899,20.891,-0.50771,0.065848,-1.4212e-05,0.28,0.32,0
0.17566,0.033418,0.68698,-0.49556,-0.5243,-0.4777,0.028461,0,0,-0.092867,-0.24228,0,0.29599,0,0,0.35358,-0.04076,0,0.35594,-0.47805,-0.54181,-0.4777,31.608,-0.49919,0.063936,-1.3422e-05,0.3,0.32,0
0.17295,0.036314,0.65839,-0.50084,-0.50251,-0.4656,0.0336,0,0,-0.18325,-0.19189,0,0.34944,0,0,0.3612,-0.043,0,0.36377,-0.46807,-0.53529,-0.4656,44.292,-0.48965,0.068484,-1.6425e-05,0.32,0.32,0
0.16833,0.039745,0.62919,-0.51677,-0.87279,-0.81011,0.039434,0,0,0.29478,-0.13038,0,0.24543,0,0,0.37383,-0.10945,0,0.39434,-0.49177,-0.89779,-0.81011,27.84,-0.73322,0.38244,0.0078217,0.34,0.32,0
0.18474,0.03775,0.62154,-0.53456,-1.253,-1.1578,0.050556,0,0,0.8102,-0.12372,0,0.13145,0,0,0.39519,-0.17242,0,0.43135,-0.53102,-1.2565,-1.1578,4.0058,-0.98177,0.68151,0.015114,0.36,0.32,0
0.20074,0.036229,0.61338,-0.53771,-1.2359,-1.1455,0.061228,0,0,0.79006,-0.11753,0,0.15919,0,0,0.41726,-0.1647,0,0.44867,-0.53238,-1.2412,-1.1455,4.9743,-0.97301,0.66612,0.014129,0.38,0.32,0
0.21634,0.035097,0.60485,-0.53821,-1.2158,-1.131,0.06755,0,0,0.77068,-0.11015,0,0.17563,0,0,0.43182,-0.15307,0,0.45814,-0.53154,-1.2224,-1.131,5.6383,-0.96167,0.65004,0.013172,0.4,0.32,0
0.23157,0.034201,0.59611,-0.53587,-1.1932,-1.1148,0.068538,0,0,0.75264,-0.10187,0,0.1782,0,0,0.43665,-0.13895,0,0.45818,-0.5288,-1.2003,-1.1148,5.8899,-0.94796,0.63308,0.012235,0.42,0.32,0
0.24645,0.033353,0.58738,-0.53067,-1.1681,-1.097,0.064503,0,0,0.73623,-0.092377,0,0.16771,0,0,0.43049,-0.12394,0,0.44797,-0.52421,-1.1745,-1.097,5.721,-0.93191,0.61523,0.011322,0.44,0.32,0
0.26101,0.032363,0.57889,-0.52314,-1.1389,-1.0775,0.055951,0,0,0.72069,-0.079859,0,0.14547,0,0,0.41335,-0.10984,0,0.42782,-0.5181,-1.144,-1.0775,5.1496,-0.9132,0.59544,0.010389,0.46,0.32,0
0.27527,0.031019,0.57085,-0.51355,-1.104,-1.0561,0.042616,0,0,0.70534,-0.062277,0,0.1108,0,0,0.38682,-0.098747,0,0.39952,-0.51048,-1.1071,-1.0561,4.1067,-0.89123,0.57282,0.009396,0.48,0.32,0
0.28923,0.029051,0.56342,-0.48667,-0.74002,-0.72014,0.027984,0,0,0.16747,-0.041347,0,0.16522,0,0,0.36066,-0.057761,0,0.36691,-0.45083,-0.77587,-0.72014,37.246,-0.64894,0.31699,0.0043501,0.5,0.32,0
0.28197,0.030337,0.53543,-0.47115,-0.42343,-0.40223,0.020769,0,0,-0.35839,-0.11023,0,0.216,0,0,0.34489,-0.020247,0,0.34552,-0.41566,-0.47893,-0.40223,69.482,-0.43227,0.07094,-1.6145e-05,0.52,0.32,0
0.27489,0.031318,0.50823,-0.46049,-0.42425,-0.39248,0.017458,0,0,-0.35366,-0.1652,0,0.18156,0,0,0.33508,-0.018667,0,0.33564,-0.41721,-0.46754,-0.39248,68.035,-0.42574,0.066246,-8.224e-06,0.54,0.32,0
0.26783,0.031966,0.48182,-0.45103,-0.42189,-0.38233,0.014401,0,0,-0.35723,-0.20572,0,0.14977,0,0,0.32573,-0.017966,0,0.32626,-0.41598,-0.45695,-0.38233,67.665,-0.41842,0.064721,-2.3538e-06,0.56,0.32,0
0.2606,0.032269,0.45612,-0.44293,-0.41709,-0.37204,0.011644,0,0,-0.36867,-0.23426,0,0.1211,0,0,0.31753,-0.017663,0,0.31804,-0.41261,-0.4474,-0.37204,68.991,-0.41069,0.065337,1.8985e-06,0.58,0.32,0
0.25308,0.032244,0.43102,-0.43614,-0.41055,-0.36176,0.0092895,0,0,-0.38677,-0.25369,0,0.096611,0,0,0.31075,-0.017384,0,0.31125,-0.40753,-0.43915,-0.36176,72.01,-0.40281,0.067398,4.878e-06,0.6,0.32,0
0.24513,0.031936,0.4064,-0.43049,-0.40274,-0.35157,0.0073747,0,0,-0.41038,-0.26608,0,0.076697,0,0,0.30543,-0.016937,0,0.30591,-0.4009,-0.43232,-0.35157,76.005,-0.39493,0.070509,6.7101e-06,0.62,0.32,0
0.23666,0.031405,0.38215,-0.42587,-0.39395,-0.34148,0.0058741,0,0,-0.4388,-0.27283,0,0.061091,0,0,0.30144,-0.016269,0,0.30189,-0.3929,-0.42691,-0.34148,79.896,-0.3871,0.074496,7.3081e-06,0.64,0.32,0
0.22758,0.030707,0.35817,-0.4222,-0.38437,-0.33151,0.0047293,0,0,-0.47156,-0.27487,0,0.049184,0,0,0.29864,-0.015406,0,0.29904,-0.38379,-0.42278,-0.33151,82.98,-0.37936,0.079319,6.3807e-06,0.66,0.32,0
0.2178,0.029898,0.33437,-0.41943,-0.37413,-0.32166,0.003879,0,0,-0.50839,-0.27286,0,0.040342,0,0,0.29688,-0.014406,0,0.29723,-0.3738,-0.41976,-0.32166,85.14,-0.37174,0.085011,3.4405e-06,0.68,0.32,0
0.20725,0.029022,0.31067,-0.41752,-0.36332,-0.31192,0.0032729,0,0,-0.54912,-0.2673,0,0.034038,0,0,0.29606,-0.013339,0,0.29636,-0.36312,-0.41771,-0.31192,86.557,-0.36425,0.091638,-2.1881e-06,0.7,0.32,0
0.19584,0.028116,0.287,-0.41645,-0.35202,-0.30229,0.0028737,0,0,-0.59365,-0.25859,0,0.029886,0,0,0.29615,-0.012278,0,0.2964,-0.35189,-0.41658,-0.30229,87.451,-0.35692,0.099266,-1.1366e-05,0.72,0.32,0
0.1835,0.027211,0.26328,-0.41623,-0.34031,-0.29278,0.0026547,0,0,-0.64194,-0.24713,0,0.027609,0,0,0.29713,-0.011297,0,0.29735,-0.34021,-0.41633,-0.29278,88,-0.34977,0.10795,-2.5141e-05,0.74,0.32,0
0.17016,0.026332,0.23945,-0.41685,-0.32826,-0.2834,0.0025939,0,0,-0.69397,-0.23329,0,0.026977,0,0,0.29907,-0.010472,0,0.29926,-0.32819,-0.41693,-0.2834,88.324,-0.34284,0.11771,-4.4742e-05,0.76,0.32,0
0.15574,0.025497,0.21543,-0.41832,-0.31598,-0.27415,0.0026656,0,0,-0.7497,-0.21752,0,0.027722,0,0,0.30208,-0.0098775,0,0.30224,-0.31591,-0.41839,-0.27415,88.509,-0.33615,0.12855,-7.1558e-05,0.78,0.32,0
0.14017,0.024717,0.19112,-0.4206,-0.30356,-0.26503,0.0028321,0,0,-0.80897,-0.20035,0,0.029454,0,0,0.30629,-0.0095765,0,0.30645,-0.30349,-0.42067,-0.26503,88.615,-0.32973,0.14042,-0.00010705,0.8,0.32,0
0.12338,0.024002,0.16642,-0.42363,-0.29113,-0.25604,0.0030397,0,0,-0.8715,-0.18251,0,0.031613,0,0,0.31188,-0.0096028,0,0.31204,-0.29107,-0.4237,-0.25604,88.686,-0.3236,0.15319,-0.00015258,0.82,0.32,0
0.10531,0.023355,0.14122,-0.4273,-0.27885,-0.24715,0.0032324,0,0,-0.93677,-0.16484,0,0.033617,0,0,0.31896,-0.0099156,0,0.31914,-0.27878,-0.42737,-0.24715,88.753,-0.31777,0.16667,-0.00020922,0.84,0.32,0
0.085911,0.022787,0.11539,-0.43145,-0.26682,-0.23833,0.0033825,0,0,-1.0042,-0.14816,0,0.035178,0,0,0.32753,-0.010337,0,0.32773,-0.26675,-0.43152,-0.23833,88.823,-0.3122,0.18066,-0.00027776,0.86,0.32,0
0.065142,0.022323,0.088816,-0.43591,-0.25493,-0.22946,0.0035172,0,0,-1.0736,-0.13248,0,0.036579,0,0,0.33729,-0.010524,0,0.33749,-0.25487,-0.43598,-0.22946,88.887,-0.30677,0.19506,-0.00035948,0.88,0.32,0
0.042969,0.022014,0.061423,-0.44044,-0.24274,-0.22031,0.0036052,0,0,-1.1447,-0.11664,0,0.037494,0,0,0.34755,-0.01004,0,0.34773,-0.24267,-0.4405,-0.22031,88.956,-0.30116,0.20991,-0.00045687,0.9,0.32,0
0.019355,0.02191,0.033208,-0.44072,-0.28652,-0.23893,0.0026213,0,0,-0.70508,-0.098999,0,0.018175,0,0,0.36414,-0.021354,0,0.36522,-0.28648,-0.44077,-0.23893,88.934,-0.32206,0.18581,-0.00028196,0.92,0.32,0
0.014766,0.021322,0.025696,-0.44789,-0.36309,-0.26899,0.00058867,0,0,-0.23256,-0.12233,0,0.0015306,0,0,0.39181,-0.029928,0,0.39331,-0.36309,-0.44789,-0.26899,89.602,-0.35999,0.155,1.7192e-05,0.94,0.32,0
0.010053,0.02077,0.017536,-0.44972,-0.37511,-0.26499,0.00025582,0,0,-0.24016,-0.14316,0,0.00066512,0,0,0.42004,-0.021939,0,0.42078,-0.37511,-0.44972,-0.26499,89.804,-0.36327,0.16097,6.9725e-05,0.96,0.32,0
0.0051591,0.020412,0.0088947,-0.45025,-0.37654,-0.25693,0.00049644,0,0,-0.25132,-0.15549,0,0.0012908,0,0,0.43839,-0.011513,0,0.43856,-0.37654,-0.45026,-0.25693,89.614,-0.36124,0.16899,9.8458e-05,0.98,0.32,0
0,0.020293,0,-0.43914,-0.36323,-0.24071,-0.0022831,0,0,-0.25796,-0.15928,0,-0.005936,0,0,0.44474,-3.4694e-18,0,0.4447,-0.36316,-0.43921,-0.24071,-88.279,-0.34769,0.17346,0.00010501,1,0.32,0
0,0.033187,1,-0.61798,-1.7456,-1.7091,-0.0016868,0,0,1.4184,-0.047449,0,-0.0043856,0,0,0.44101,-8.3527e-16,0,0.44095,-0.61798,-1.7456,-1.7091,-0.08571,-1.3575,1.1098,0.069945,0,0.34,0
0.028368,0.033099,0.99118,-0.60401,-1.7298,-1.6913,-0.010595,0,0,1.4135,-0.050046,0,-0.027546,0,0,0.43707,0.016224,0,0.43734,-0.60391,-1.7299,-1.6913,-0.53912,-1.3417,1.1072,0.069431,0.02,0.34,0
0.056541,0.03286,0.98252,-0.59607,-1.7221,-1.678,-0.019395,0,0,1.4065,-0.05741,0,-0.050428,0,0,0.42537,0.031433,0,0.42656,-0.59573,-1.7225,-1.678,-0.98646,-1.3321,1.1052,0.068949,0.04,0.34,0
0.084628,0.032564,0.97416,-0.58477,-1.7164,-1.6645,-0.024507,0,0,1.4037,-0.067407,0,-0.063718,0,0,0.4064,0.044145,0,0.40893,-0.58424,-1.7169,-1.6645,-1.2401,-1.3219,1.1074,0.06922,0.06,0.34,0
0.11269,0.032332,0.96626,-0.57183,-1.7088,-1.6504,-0.025353,0,0,1.4022,-0.075824,0,-0.065917,0,0,0.38149,0.052363,0,0.38532,-0.57127,-1.7093,-1.6504,-1.2768,-1.3103,1.1098,0.069535,0.08,0.34,0
0.14072,0.032242,0.95891,-0.53689,-1.1402,-1.1025,-0.023829,0,0,0.83884,-0.078608,0,-0.15088,0,0,0.35852,0.033864,0,0.3608,-0.53316,-1.144,-1.1025,-9.0633,-0.92653,0.59195,0.0348,0.1,0.34,0
0.14624,0.028702,0.93096,-0.51083,-0.59857,-0.56556,-0.020701,0,0,0.28461,-0.17165,0,-0.21529,0,0,0.34556,0.010762,0,0.34575,-0.50619,-0.60321,-0.56556,-12.63,-0.55832,0.08472,1.1748e-05,0.12,0.34,0
0.1521,0.025706,0.90362,-0.5011,-0.60431,-0.55753,-0.015633,0,0,0.29343,-0.24329,0,-0.16258,0,0,0.33858,0.0060978,0,0.33865,-0.49878,-0.60663,-0.55753,-8.4261,-0.55431,0.093522,6.4743e-06,0.14,0.34,0
0.15798,0.023483,0.87679,-0.49366,-0.60492,-0.54877,-0.0094958,0,0,0.28659,-0.29199,0,-0.098757,0,0,0.33283,-0.00012012,0,0.33282,-0.49285,-0.60573,-0.54877,-4.8431,-0.54912,0.097754,-7.6376e-07,0.16,0.34,0
0.16356,0.022058,0.85036,-0.48853,-0.60149,-0.5396,-0.0033941,0,0,0.26554,-0.32185,0,-0.035298,0,0,0.32886,-0.0073749,0,0.32893,-0.48843,-0.6016,-0.5396,-1.7195,-0.54321,0.098153,-8.005e-06,0.18,0.34,0
0.1686,0.021364,0.82417,-0.48539,-0.59517,-0.53021,0.0023706,0,0,0.23306,-0.33779,0,0.024655,0,0,0.32699,-0.015173,0,0.32733,-0.48534,-0.59523,-0.53021,1.2365,-0.53693,0.095692,-1.3998e-05,0.2,0.34,0
0.17289,0.021334,0.79805,-0.48387,-0.58667,-0.52067,0.0079509,0,0,0.19138,-0.34318,0,0.082689,0,0,0.32736,-0.023132,0,0.32816,-0.48326,-0.58728,-0.52067,4.3966,-0.5304,0.091262,-1.8092e-05,0.22,0.34,0
0.17625,0.021952,0.7718,-0.48376,-0.57629,-0.51097,0.013677,0,0,0.14146,-0.3397,0,0.14224,0,0,0.33001,-0.030943,0,0.33144,-0.48178,-0.57827,-0.51097,8.234,-0.52367,0.08571,-2.0153e-05,0.24,0.34,0
0.17854,0.02326,0.74524,-0.48506,-0.56398,-0.50102,0.019882,0,0,0.083011,-0.32738,0,0.20677,0,0,0.33488,-0.038267,0,0.33706,-0.48033,-0.56871,-0.50102,13.37,-0.51669,0.080059,-2.0539e-05,0.26,0.34,0
0.17958,0.025356,0.71821,-0.48795,-0.54927,-0.49072,0.026749,0,0,0.014404,-0.30445,0,0.27819,0,0,0.34181,-0.044633,0,0.34473,-0.47792,-0.55929,-0.49072,20.552,-0.50931,0.075791,-2.0227e-05,0.28,0.34,0
0.17912,0.028354,0.69055,-0.49263,-0.53115,-0.47977,0.034061,0,0,-0.066872,-0.26715,0,0.35423,0,0,0.35037,-0.049432,0,0.35387,-0.47276,-0.55102,-0.47977,30.258,-0.50118,0.074997,-2.1028e-05,0.3,0.34,0
0.1769,0.0323,0.66216,-0.49907,-0.50843,-0.46779,0.040821,0,0,-0.16265,-0.21135,0,0.42454,0,0,0.3598,-0.052041,0,0.36358,-0.46266,-0.54484,-0.46779,41.728,-0.49177,0.079737,-2.5675e-05,0.32,0.34,0
0.17261,0.037056,0.63299,-0.51652,-0.88047,-0.81471,0.047227,0,0,0.30729,-0.13677,0,0.29554,0,0,0.37572,-0.13024,0,0.40401,-0.48864,-0.90834,-0.81471,26.811,-0.73723,0.3932,0.0081421,0.34,0.34,0
0.18919,0.035207,0.62525,-0.53883,-1.2661,-1.1667,0.057722,0,0,0.81627,-0.12919,0,0.15008,0,0,0.40276,-0.20222,0,0.45096,-0.53428,-1.2707,-1.1667,4.5098,-0.99056,0.69031,0.015612,0.36,0.34,0
0.20527,0.033854,0.61687,-0.546,-1.244,-1.1539,0.066914,0,0,0.79025,-0.1172,0,0.17398,0,0,0.43082,-0.18723,0,0.46985,-0.53965,-1.2504,-1.1539,5.4265,-0.98131,0.66775,0.014221,0.38,0.34,0
0.2208,0.032931,0.60802,-0.55049,-1.2168,-1.1382,0.070004,0,0,0.76402,-0.10216,0,0.18201,0,0,0.44971,-0.16553,0,0.47915,-0.54321,-1.2241,-1.1382,5.9334,-0.96849,0.64224,0.012789,0.4,0.34,0
0.23583,0.032256,0.59889,-0.5506,-1.1876,-1.1203,0.066181,0,0,0.74067,-0.08744,0,0.17207,0,0,0.45691,-0.13951,0,0.4776,-0.5438,-1.1944,-1.1203,5.8691,-0.95286,0.61693,0.011475,0.42,0.34,0
0.25043,0.031638,0.58974,-0.54566,-1.1584,-1.101,0.057112,0,0,0.72189,-0.074669,0,0.14849,0,0,0.45081,-0.11145,0,0.46429,-0.54038,-1.1637,-1.101,5.2798,-0.935,0.59442,0.010383,0.44,0.34,0
0.2647,0.030927,0.58085,-0.53639,-1.1271,-1.0799,0.04536,0,0,0.70656,-0.061331,0,0.11793,0,0,0.43095,-0.084475,0,0.43925,-0.53292,-1.1305,-1.0799,4.3657,-0.91445,0.57397,0.0094569,0.46,0.34,0
0.27869,0.029971,0.5725,-0.52435,-1.0888,-1.0564,0.030655,0,0,0.69172,-0.042039,0,0.079703,0,0,0.39883,-0.062896,0,0.40418,-0.52269,-1.0904,-1.0564,3.0997,-0.88986,0.55153,0.0085064,0.48,0.34,0
0.29237,0.028481,0.5649,-0.49285,-0.7255,-0.71857,0.015389,0,0,0.1478,-0.014426,0,0.084421,0,0,0.36664,-0.032117,0,0.36882,-0.45566,-0.76269,-0.71857,41.639,-0.64564,0.30438,0.0038669,0.5,0.34,0
0.2846,0.028351,0.53664,-0.47661,-0.42099,-0.40344,0.0086533,0,0,-0.38047,-0.091258,0,0.089994,0,0,0.34735,-0.0089346,0,0.34752,-0.41967,-0.47792,-0.40344,81.358,-0.43368,0.067838,-1.2991e-05,0.52,0.34,0
0.27715,0.028207,0.50932,-0.46439,-0.42216,-0.3933,0.0069193,0,0,-0.36968,-0.15009,0,0.071961,0,0,0.33592,-0.0078861,0,0.33606,-0.42105,-0.46549,-0.3933,80.928,-0.42661,0.063078,-4.9937e-06,0.54,0.34,0
0.26982,0.028023,0.4829,-0.45376,-0.41985,-0.38281,0.0055162,0,0,-0.36895,-0.19262,0,0.057369,0,0,0.3256,-0.0086674,0,0.32575,-0.41897,-0.45463,-0.38281,80.989,-0.4188,0.062205,1.5086e-07,0.56,0.34,0
0.26239,0.027731,0.45723,-0.44491,-0.41531,-0.37237,0.0042712,0,0,-0.37719,-0.22327,0,0.044421,0,0,0.31706,-0.010148,0,0.31724,-0.4147,-0.44551,-0.37237,81.951,-0.41086,0.063603,3.5525e-06,0.58,0.34,0
0.25473,0.027294,0.43217,-0.43757,-0.4091,-0.36204,0.0032309,0,0,-0.39272,-0.24472,0,0.033601,0,0,0.31037,-0.011546,0,0.3106,-0.40874,-0.43793,-0.36204,83.604,-0.40291,0.0663,5.7928e-06,0.6,0.34,0
0.24668,0.026718,0.40757,-0.43157,-0.40165,-0.35186,0.0024715,0,0,-0.41452,-0.2589,0,0.025703,0,0,0.30532,-0.01255,0,0.30558,-0.40144,-0.43178,-0.35186,85.311,-0.39503,0.069877,7.0591e-06,0.62,0.34,0
0.23815,0.026033,0.38332,-0.42675,-0.39317,-0.34181,0.0019982,0,0,-0.44171,-0.2671,0,0.020781,0,0,0.30162,-0.013111,0,0.30191,-0.39305,-0.42687,-0.34181,86.606,-0.38724,0.074181,7.2537e-06,0.64,0.34,0
0.22902,0.025281,0.35931,-0.42296,-0.38386,-0.33187,0.001786,0,0,-0.47366,-0.27032,0,0.018575,0,0,0.29906,-0.013296,0,0.29935,-0.38378,-0.42305,-0.33187,87.39,-0.37957,0.079208,6.0569e-06,0.66,0.34,0
0.2192,0.0245,0.33547,-0.42011,-0.37385,-0.32205,0.0018031,0,0,-0.50987,-0.26933,0,0.018752,0,0,0.29745,-0.013214,0,0.29774,-0.37378,-0.42018,-0.32205,87.771,-0.372,0.085019,2.9607e-06,0.68,0.34,0
0.20862,0.023725,0.31172,-0.4181,-0.36323,-0.31233,0.0020253,0,0,-0.55002,-0.2647,0,0.021063,0,0,0.29669,-0.012989,0,0.29697,-0.36316,-0.41818,-0.31233,87.889,-0.36456,0.09169,-2.7109e-06,0.7,0.34,0
0.1972,0.022985,0.288,-0.41692,-0.35212,-0.30271,0.002439,0,0,-0.59388,-0.25693,0,0.025365,0,0,0.29673,-0.012747,0,0.297,-0.35203,-0.41701,-0.30271,87.847,-0.35725,0.099296,-1.18e-05,0.72,0.34,0
0.18487,0.0223,0.26424,-0.41654,-0.34059,-0.2932,0.0030376,0,0,-0.64139,-0.24642,0,0.031591,0,0,0.29757,-0.012614,0,0.29783,-0.34047,-0.41667,-0.2932,87.713,-0.35011,0.1079,-2.5328e-05,0.74,0.34,0
0.17155,0.02169,0.24039,-0.417,-0.32872,-0.28381,0.0038144,0,0,-0.69256,-0.23351,0,0.03967,0,0,0.29926,-0.012719,0,0.29953,-0.32855,-0.41716,-0.28381,87.531,-0.34317,0.11755,-4.4527e-05,0.76,0.34,0
0.15716,0.021163,0.21636,-0.41831,-0.31659,-0.27456,0.0047505,0,0,-0.7475,-0.21855,0,0.049405,0,0,0.30192,-0.01319,0,0.30222,-0.31637,-0.41853,-0.27456,87.332,-0.33648,0.12828,-7.0872e-05,0.78,0.34,0
0.14164,0.020723,0.19208,-0.42053,-0.30429,-0.26547,0.0057996,0,0,-0.80634,-0.20187,0,0.060316,0,0,0.30574,-0.014146,0,0.30607,-0.304,-0.42082,-0.26547,87.151,-0.33009,0.14012,-0.0001061,0.8,0.34,0
0.12491,0.020365,0.16744,-0.42369,-0.2919,-0.25654,0.006875,0,0,-0.86921,-0.18388,0,0.0715,0,0,0.31094,-0.015663,0,0.31134,-0.29154,-0.42405,-0.25654,87.022,-0.32404,0.15304,-0.00015214,0.82,0.34,0
0.10688,0.020078,0.14233,-0.42777,-0.27954,-0.24777,0.0078499,0,0,-0.93597,-0.16517,0,0.08164,0,0,0.31781,-0.017701,0,0.31832,-0.27912,-0.42818,-0.24777,86.977,-0.31836,0.16696,-0.0002109,0.84,0.34,0
0.087471,0.019852,0.11659,-0.43261,-0.26732,-0.23913,0.0086237,0,0,-1.0061,-0.14659,0,0.089687,0,0,0.32656,-0.019953,0,0.32721,-0.26687,-0.43306,-0.23913,87.022,-0.31302,0.18166,-0.00028383,0.86,0.34,0
0.066632,0.019713,0.090079,-0.43818,-0.2554,-0.23059,0.0091787,0,0,-1.0795,-0.12898,0,0.095459,0,0,0.33711,-0.021647,0,0.33786,-0.25494,-0.43864,-0.23059,87.132,-0.30806,0.19701,-0.00037257,0.88,0.34,0
0.044292,0.019735,0.062656,-0.44423,-0.24311,-0.22187,0.0095579,0,0,-1.1563,-0.11045,0,0.099402,0,0,0.34877,-0.021691,0,0.3495,-0.24265,-0.44469,-0.22187,87.285,-0.30307,0.21319,-0.00048174,0.9,0.34,0
0.020379,0.020017,0.034276,-0.44548,-0.28135,-0.23947,0.0079932,0,0,-0.71618,-0.087104,0,0.054038,0,0,0.3684,-0.047813,0,0.3728,-0.28094,-0.44589,-0.23947,87.01,-0.3221,0.19128,-0.00032508,0.92,0.34,0
0.015645,0.018914,0.026634,-0.4585,-0.36368,-0.27329,0.0055377,0,0,-0.24077,-0.11751,0,0.014398,0,0,0.40129,-0.067136,0,0.40732,-0.36336,-0.45882,-0.27329,86.669,-0.36516,0.1607,-1.0727e-05,0.94,0.34,0
0.010748,0.017942,0.018224,-0.46437,-0.37596,-0.27032,0.0053682,0,0,-0.25227,-0.13732,0,0.013957,0,0,0.43446,-0.048757,0,0.43733,-0.37563,-0.4647,-0.27032,86.538,-0.37022,0.16853,3.5426e-05,0.96,0.34,0
0.0055542,0.017358,0.009256,-0.46871,-0.37382,-0.26201,0.0042696,0,0,-0.26871,-0.14534,0,0.011101,0,0,0.4556,-0.025325,0,0.45625,-0.37362,-0.4689,-0.26201,87.429,-0.36818,0.17936,4.0366e-05,0.98,0.34,0
0,0.017174,0,-0.45856,-0.35791,-0.24494,-0.003528,0,0,-0.27771,-0.14685,0,-0.0091728,0,0,0.4628,0,0,0.46268,-0.35778,-0.45869,-0.24494,-87.995,-0.3538,0.18521,3.1498e-05,1,0.34,0
0,0.032405,1,-0.63832,-1.7314,-1.7109,-0.0029452,0,0,1.3944,-0.026624,0,-0.0076575,0,0,0.46118,-1.0946e-15,0,0.46107,-0.63831,-1.7314,-1.7109,-0.15438,-1.3602,1.083,0.065159,0,0.36,0
0.027887,0.032252,0.99078,-0.62274,-1.7155,-1.6923,-0.016621,0,0,1.3904,-0.030275,0,-0.043215,0,0,0.45672,0.024479,0,0.45728,-0.62248,-1.7158,-1.6923,-0.87116,-1.3435,1.0817,0.064909,0.02,0.36,0
0.055615,0.031825,0.98173,-0.61189,-1.7107,-1.6785,-0.031411,0,0,1.3866,-0.041892,0,-0.081668,0,0,0.4431,0.048368,0,0.44572,-0.611,-1.7116,-1.6785,-1.636,-1.3337,1.0845,0.065299,0.04,0.36,0
0.083352,0.031265,0.97305,-0.59599,-1.7113,-1.6652,-0.040753,0,0,1.39,-0.059861,0,-0.10596,0,0,0.42005,0.069741,0,0.42596,-0.5945,-1.7128,-1.6652,-2.0899,-1.3242,1.0953,0.067054,0.06,0.36,0
0.11122,0.030803,0.96493,-0.5783,-1.7116,-1.6519,-0.042504,0,0,1.3957,-0.077581,0,-0.11051,0,0,0.38848,0.085072,0,0.39809,-0.57671,-1.7132,-1.6519,-2.1449,-1.3139,1.1071,0.06897,0.08,0.36,0
0.13918,0.030636,0.95751,-0.5374,-1.143,-1.1026,-0.038759,0,0,0.8417,-0.084147,0,-0.24247,0,0,0.35864,0.056312,0,0.36468,-0.52902,-1.1514,-1.1026,-12.445,-0.92767,0.60083,0.034859,0.1,0.36,0
0.14488,0.025054,0.92979,-0.50893,-0.60527,-0.56671,-0.032735,0,0,0.30045,-0.20051,0,-0.34044,0,0,0.34161,0.019796,0,0.34221,-0.49886,-0.61534,-0.56671,-17.099,-0.5603,0.10133,1.5021e-05,0.12,0.36,0
0.1512,0.020547,0.90286,-0.49743,-0.6126,-0.55872,-0.024331,0,0,0.31874,-0.28017,0,-0.25305,0,0,0.33248,0.01388,0,0.33279,-0.4925,-0.61753,-0.55872,-11.452,-0.55625,0.10834,6.6966e-06,0.14,0.36,0
0.15763,0.017346,0.8766,-0.4892,-0.61265,-0.5497,-0.015243,0,0,0.31462,-0.32732,0,-0.15852,0,0,0.32515,0.0055771,0,0.32519,-0.48735,-0.6145,-0.5497,-6.9356,-0.55052,0.11013,-2.2814e-06,0.16,0.36,0
0.16378,0.015348,0.85083,-0.48398,-0.60836,-0.54041,-0.0069064,0,0,0.29342,-0.35334,0,-0.071826,0,0,0.32025,-0.0040909,0,0.32026,-0.4836,-0.60874,-0.54041,-3.1685,-0.54425,0.10853,-1.0417e-05,0.18,0.36,0
0.16937,0.014358,0.82536,-0.48092,-0.60148,-0.53106,0.00054174,0,0,0.26071,-0.36618,0,0.0056341,0,0,0.31798,-0.014325,0,0.31828,-0.48092,-0.60148,-0.53106,0.25747,-0.53782,0.1049,-1.698e-05,0.2,0.36,0
0.17421,0.014231,0.79995,-0.4795,-0.59288,-0.5217,0.0075326,0,0,0.21944,-0.37011,0,0.078339,0,0,0.31834,-0.0247,0,0.31927,-0.479,-0.59338,-0.5217,3.7845,-0.53136,0.1001,-2.1744e-05,0.22,0.36,0
0.17815,0.014915,0.77442,-0.47949,-0.58285,-0.51231,0.01459,0,0,0.17064,-0.36681,0,0.15174,0,0,0.32131,-0.034956,0,0.32318,-0.47747,-0.58487,-0.51231,7.8829,-0.52488,0.094901,-2.4797e-05,0.24,0.36,0
0.18104,0.016454,0.74855,-0.48095,-0.57131,-0.50281,0.022226,0,0,0.1137,-0.35618,0,0.23115,0,0,0.32697,-0.044785,0,0.33002,-0.47578,-0.57648,-0.50281,13.097,-0.51836,0.090274,-2.6672e-05,0.26,0.36,0
0.1827,0.018988,0.72211,-0.48418,-0.55766,-0.49308,0.030872,0,0,0.046255,-0.3358,0,0.32106,0,0,0.33535,-0.053605,0,0.33963,-0.47293,-0.5689,-0.49308,20.021,-0.51164,0.087652,-2.8524e-05,0.28,0.36,0
0.18289,0.022732,0.69489,-0.4899,-0.54047,-0.48284,0.040524,0,0,-0.036744,-0.29972,0,0.42145,0,0,0.34617,-0.060374,0,0.35144,-0.46742,-0.56295,-0.48284,29.018,-0.5044,0.088834,-3.2381e-05,0.3,0.36,0
0.18123,0.02786,0.66672,-0.49837,-0.51687,-0.47125,0.050044,0,0,-0.14102,-0.2372,0,0.52046,0,0,0.35854,-0.06383,0,0.36423,-0.45673,-0.55851,-0.47125,39.765,-0.4955,0.095355,-4.1068e-05,0.32,0.36,0
0.17725,0.034274,0.63753,-0.51863,-0.8886,-0.82062,0.058697,0,0,0.31794,-0.14139,0,0.36576,0,0,0.37993,-0.15764,0,0.41973,-0.48579,-0.92144,-0.82062,26.32,-0.74262,0.40598,0.0084267,0.34,0.36,0
0.19394,0.032583,0.62963,-0.54909,-1.2804,-1.1785,0.071236,0,0,0.8182,-0.13252,0,0.18521,0,0,0.41634,-0.24128,0,0.48164,-0.54222,-1.2873,-1.1785,5.512,-1.0027,0.69707,0.015976,0.36,0.36,0
0.20997,0.031541,0.62087,-0.56323,-1.2495,-1.1647,0.079699,0,0,0.78188,-0.11022,0,0.20722,0,0,0.45394,-0.21641,0,0.50301,-0.5541,-1.2586,-1.1647,6.5384,-0.99246,0.66255,0.013931,0.38,0.36,0
0.22522,0.031011,0.61147,-0.57503,-1.2117,-1.1475,0.078157,0,0,0.7442,-0.083497,0,0.20321,0,0,0.47953,-0.18218,0,0.51283,-0.56558,-1.2212,-1.1475,6.8969,-0.97808,0.62204,0.011779,0.4,0.36,0
0.23974,0.030703,0.60169,-0.57995,-1.1743,-1.128,0.066365,0,0,0.7124,-0.060193,0,0.17255,0,0,0.49074,-0.14224,0,0.51064,-0.57263,-1.1816,-1.128,6.2948,-0.96072,0.58398,0.0099386,0.42,0.36,0
0.25372,0.030367,0.59184,-0.57414,-1.1398,-1.106,0.048287,0,0,0.69144,-0.043913,0,0.12555,0,0,0.48553,-0.098745,0,0.49516,-0.57005,-1.1439,-1.106,4.8443,-0.93999,0.55588,0.0086839,0.44,0.36,0
0.2674,0.02991,0.58227,-0.56079,-1.1107,-1.0837,0.028864,0,0,0.6798,-0.035085,0,0.075046,0,0,0.4619,-0.053876,0,0.46501,-0.55928,-1.1122,-1.0837,2.9964,-0.91841,0.53925,0.007978,0.46,0.36,0
0.28091,0.029337,0.57336,-0.54279,-1.0749,-1.0587,0.012719,0,0,0.67064,-0.021091,0,0.03307,0,0,0.4199,-0.016311,0,0.42089,-0.54249,-1.0752,-1.0587,1.3686,-0.89212,0.52464,0.0073919,0.48,0.36,0
0.29423,0.028474,0.56547,-0.5009,-0.71008,-0.71671,-0.0018729,0,0,0.12346,0.013795,0,-0.021653,0,0,0.37608,0.0024319,0,0.37675,-0.45918,-0.7518,-0.71671,-43.492,-0.64256,0.29462,0.0033271,0.5,0.36,0
0.28585,0.026687,0.53686,-0.48301,-0.42123,-0.40549,-0.0059635,0,0,-0.40313,-0.081847,0,-0.06202,0,0,0.34985,0.0055288,0,0.34999,-0.42066,-0.48358,-0.40549,-84.537,-0.43658,0.071725,-1.613e-05,0.52,0.36,0
0.2781,0.025315,0.5095,-0.46765,-0.42222,-0.39433,-0.0053329,0,0,-0.38123,-0.14499,0,-0.055462,0,0,0.33535,0.0047724,0,0.33545,-0.4216,-0.46826,-0.39433,-83.394,-0.42806,0.064757,-6.0804e-06,0.54,0.36,0
0.2706,0.024262,0.48321,-0.45545,-0.41983,-0.38339,-0.0044035,0,0,-0.37474,-0.18951,0,-0.045797,0,0,0.32347,0.0010923,0,0.32351,-0.4193,-0.45599,-0.38339,-83.056,-0.41956,0.062876,-2.3872e-07,0.56,0.36,0
0.26311,0.023338,0.45774,-0.44552,-0.41514,-0.37263,-0.0037398,0,0,-0.37899,-0.22106,0,-0.038894,0,0,0.31465,-0.0028741,0,0.31468,-0.41469,-0.44597,-0.37263,-83.082,-0.4111,0.063739,3.3417e-06,0.58,0.36,0
0.25544,0.022455,0.43286,-0.43764,-0.40902,-0.36222,-0.0031638,0,0,-0.39221,-0.24341,0,-0.032904,0,0,0.30835,-0.0061767,0,0.30842,-0.40868,-0.43798,-0.36222,-83.765,-0.40296,0.066177,5.6592e-06,0.6,0.36,0
0.24742,0.021581,0.40841,-0.43138,-0.40169,-0.35202,-0.0025852,0,0,-0.41265,-0.25828,0,-0.026885,0,0,0.30386,-0.0086368,0,0.30399,-0.40147,-0.4316,-0.35202,-85.06,-0.39503,0.069591,7.0203e-06,0.62,0.36,0
0.23893,0.020721,0.38425,-0.42645,-0.39337,-0.34201,-0.0019382,0,0,-0.43912,-0.26707,0,-0.020158,0,0,0.3007,-0.01034,0,0.30088,-0.39326,-0.42657,-0.34201,-86.659,-0.38728,0.073778,7.3725e-06,0.64,0.36,0
0.22986,0.019894,0.36029,-0.42262,-0.38421,-0.33212,-0.0011955,0,0,-0.4706,-0.27086,0,-0.012433,0,0,0.29854,-0.011454,0,0.29876,-0.38418,-0.42266,-0.33212,-88.219,-0.37965,0.0787,6.4089e-06,0.66,0.36,0
0.22011,0.019125,0.33648,-0.41971,-0.37436,-0.32234,-0.00033629,0,0,-0.50632,-0.27049,0,-0.0034974,0,0,0.29718,-0.012166,0,0.29743,-0.37435,-0.41971,-0.32234,-89.575,-0.37213,0.084393,3.6444e-06,0.68,0.36,0
0.2096,0.018433,0.31274,-0.4176,-0.36391,-0.31264,0.00065997,0,0,-0.54578,-0.26662,0,0.0068637,0,0,0.29653,-0.012658,0,0.2968,-0.3639,-0.4176,-0.31264,89.296,-0.36472,0.090911,-1.5502e-06,0.7,0.36,0
0.19828,0.017839,0.28903,-0.41622,-0.35298,-0.30302,0.0018189,0,0,-0.58865,-0.25979,0,0.018916,0,0,0.29652,-0.013109,0,0.29681,-0.35293,-0.41627,-0.30302,88.354,-0.35741,0.098311,-9.9441e-06,0.72,0.36,0
0.18606,0.017355,0.2653,-0.41557,-0.34165,-0.29349,0.0031701,0,0,-0.63482,-0.25041,0,0.032969,0,0,0.29716,-0.013694,0,0.29748,-0.34151,-0.41571,-0.29349,87.549,-0.35024,0.10665,-2.2475e-05,0.74,0.36,0
0.17288,0.016991,0.24149,-0.41568,-0.33,-0.28408,0.0047423,0,0,-0.68435,-0.23879,0,0.04932,0,0,0.2985,-0.014597,0,0.29885,-0.32974,-0.41594,-0.28408,86.842,-0.34325,0.11599,-4.0314e-05,0.76,0.36,0
0.15868,0.016754,0.21754,-0.41664,-0.3181,-0.27481,0.0065538,0,0,-0.73754,-0.22511,0,0.068159,0,0,0.30065,-0.016008,0,0.30108,-0.31766,-0.41707,-0.27481,86.212,-0.33652,0.12641,-6.4979e-05,0.78,0.36,0
0.14338,0.016643,0.19339,-0.4186,-0.30601,-0.26573,0.008596,0,0,-0.79492,-0.20945,0,0.089399,0,0,0.30382,-0.018124,0,0.30436,-0.30535,-0.41925,-0.26573,85.659,-0.33011,0.13804,-9.8511e-05,0.8,0.36,0
0.12689,0.016647,0.16893,-0.42176,-0.29376,-0.25689,0.010806,0,0,-0.85731,-0.19175,0,0.11238,0,0,0.30832,-0.021127,0,0.30905,-0.29286,-0.42266,-0.25689,85.208,-0.32414,0.15104,-0.00014369,0.82,0.36,0
0.10909,0.016748,0.14405,-0.42633,-0.28139,-0.24833,0.013038,0,0,-0.9256,-0.17192,0,0.1356,0,0,0.31467,-0.025113,0,0.31569,-0.28023,-0.42749,-0.24833,84.9,-0.31868,0.16553,-0.00020411,0.84,0.36,0
0.089863,0.016923,0.11858,-0.43243,-0.26896,-0.24006,0.015049,0,0,-1.0003,-0.15026,0,0.15651,0,0,0.32359,-0.029898,0,0.325,-0.26758,-0.4338,-0.24006,84.784,-0.31381,0.18155,-0.00028367,0.86,0.36,0
0.069078,0.017164,0.092279,-0.43973,-0.25648,-0.23194,0.016731,0,0,-1.0806,-0.12764,0,0.174,0,0,0.33555,-0.034488,0,0.33739,-0.25497,-0.44125,-0.23194,84.826,-0.30938,0.1988,-0.00038534,0.88,0.36,0
0.046641,0.017596,0.064894,-0.44899,-0.24453,-0.22428,0.017989,0,0,-1.1685,-0.1053,0,0.18709,0,0,0.35007,-0.036244,0,0.35203,-0.24296,-0.45056,-0.22428,85.01,-0.30593,0.21754,-0.00051563,0.9,0.36,0
0.022338,0.018426,0.036268,-0.45204,-0.27429,-0.24057,0.018141,0,0,-0.73059,-0.070149,0,0.11499,0,0,0.37607,-0.082287,0,0.38809,-0.27232,-0.45402,-0.24057,83.855,-0.3223,0.20062,-0.00039886,0.92,0.36,0
0.017417,0.016621,0.028382,-0.47789,-0.36852,-0.2823,0.018187,0,0,-0.25426,-0.11208,0,0.047286,0,0,0.41956,-0.11383,0,0.43538,-0.36557,-0.48084,-0.2823,80.802,-0.37624,0.17267,-7.2652e-05,0.94,0.36,0
0.012167,0.015277,0.019486,-0.49227,-0.37558,-0.27984,0.019873,0,0,-0.27615,-0.12446,0,0.051669,0,0,0.46185,-0.08031,0,0.46884,-0.37229,-0.49556,-0.27984,80.595,-0.38256,0.18745,-8.2674e-05,0.96,0.36,0
0.0063709,0.014598,0.0099077,-0.5042,-0.36347,-0.27021,0.013382,0,0,-0.30419,-0.12124,0,0.034794,0,0,0.48715,-0.040079,0,0.48857,-0.36221,-0.50546,-0.27021,84.616,-0.37929,0.20534,-0.00016302,0.98,0.36,0
0,0.014419,0,-0.49759,-0.34425,-0.25255,-0.0034457,0,0,-0.31855,-0.11921,0,-0.0089587,0,0,0.49539,1.0408e-17,0,0.49511,-0.34418,-0.49767,-0.25255,-88.713,-0.3648,0.21452,-0.00021324,1,0.36,0
0,0.032122,1,-0.66684,-1.7123,-1.7137,-0.0044953,0,0,1.361,0.0018859,0,-0.011688,0,0,0.48997,3.0184e-16,0,0.48978,-0.66682,-1.7123,-1.7137,-0.24636,-1.3643,1.0462,0.058812,0,0.38,0
0.027219,0.031888,0.9902,-0.65048,-1.6954,-1.694,-0.023026,0,0,1.3565,-0.0019062,0,-0.059869,0,0,0.48544,0.032971,0,0.48638,-0.64998,-1.696,-1.694,-1.2617,-1.3466,1.045,0.058608,0.02,0.38,0
0.054262,0.031185,0.98058,-0.6364,-1.6903,-1.6786,-0.045841,0,0,1.3548,-0.01517,0,-0.11919,0,0,0.47063,0.066839,0,0.47523,-0.63441,-1.6922,-1.6786,-2.4861,-1.3351,1.0511,0.059602,0.04,0.38,0
0.081412,0.030169,0.97138,-0.61498,-1.6992,-1.6656,-0.064064,0,0,1.3658,-0.043617,0,-0.16656,0,0,0.44311,0.10111,0,0.45464,-0.61121,-1.7029,-1.6656,-3.3699,-1.3266,1.0736,0.06329,0.06,0.38,0
0.1089,0.029229,0.96286,-0.5902,-1.7159,-1.6547,-0.067919,0,0,1.3838,-0.079536,0,-0.17659,0,0,0.40185,0.1286,0,0.42257,-0.58612,-1.7199,-1.6547,-3.4404,-1.3202,1.1026,0.068041,0.08,0.38,0
0.13676,0.028876,0.9553,-0.53961,-1.1507,-1.1042,-0.060098,0,0,0.84542,-0.096845,0,-0.36765,0,0,0.36082,0.087706,0,0.37483,-0.5236,-1.1667,-1.1042,-15.401,-0.9315,0.61654,0.035208,0.1,0.38,0
0.14271,0.020681,0.9278,-0.50732,-0.61765,-0.56944,-0.04749,0,0,0.32301,-0.25068,0,-0.4939,0,0,0.33692,0.032329,0,0.33854,-0.4897,-0.63528,-0.56944,-20.363,-0.56481,0.12627,1.7014e-05,0.12,0.38,0
0.14969,0.014499,0.90139,-0.49273,-0.62489,-0.56063,-0.033968,0,0,0.35308,-0.3341,0,-0.35327,0,0,0.32436,0.024148,0,0.32529,-0.48451,-0.63311,-0.56063,-13.604,-0.55942,0.1287,4.6558e-06,0.14,0.38,0
0.15684,0.010391,0.8759,-0.48373,-0.62302,-0.551,-0.021093,0,0,0.34982,-0.37452,0,-0.21937,0,0,0.31485,0.012451,0,0.31508,-0.4806,-0.62615,-0.551,-8.4246,-0.55258,0.12607,-5.8136e-06,0.16,0.38,0
0.16368,0.0079246,0.85102,-0.47836,-0.61703,-0.54137,-0.010403,0,0,0.32766,-0.39343,0,-0.1082,0,0,0.30896,-0.00037427,0,0.30892,-0.47758,-0.61781,-0.54137,-4.2667,-0.54559,0.1216,-1.4357e-05,0.18,0.38,0
0.16994,0.0067166,0.82647,-0.47535,-0.60929,-0.53201,-0.0012536,0,0,0.2946,-0.40184,0,-0.013038,0,0,0.30638,-0.013388,0,0.30663,-0.47534,-0.6093,-0.53201,-0.53623,-0.53888,0.11647,-2.1326e-05,0.2,0.38,0
0.17546,0.0065296,0.802,-0.47398,-0.60046,-0.52283,0.0071714,0,0,0.25401,-0.40365,0,0.074583,0,0,0.30673,-0.026371,0,0.30782,-0.47358,-0.60086,-0.52283,3.235,-0.53242,0.11117,-2.6786e-05,0.22,0.38,0
0.1801,0.0072794,0.77739,-0.47416,-0.59084,-0.51385,0.015637,0,0,0.20637,-0.40036,0,0.16263,0,0,0.30992,-0.039313,0,0.31237,-0.4721,-0.5929,-0.51385,7.5023,-0.52628,0.10626,-3.1121e-05,0.24,0.38,0
0.18372,0.0090131,0.75241,-0.47594,-0.58027,-0.50496,0.024855,0,0,0.15093,-0.39158,0,0.25849,0,0,0.31623,-0.05214,0,0.32048,-0.47032,-0.58589,-0.50496,12.738,-0.52039,0.10272,-3.5076e-05,0.26,0.38,0
0.18614,0.011924,0.72679,-0.47983,-0.56825,-0.49612,0.035535,0,0,0.084729,-0.37506,0,0.36956,0,0,0.32622,-0.064424,0,0.33254,-0.46731,-0.58076,-0.49612,19.395,-0.51473,0.10213,-4.04e-05,0.28,0.38,0
0.18711,0.016365,0.70021,-0.48681,-0.55299,-0.48699,0.048344,0,0,0.00094183,-0.34317,0,0.50278,0,0,0.34014,-0.074787,0,0.34835,-0.46132,-0.57848,-0.48699,27.806,-0.50893,0.10667,-5.0372e-05,0.3,0.38,0
0.18618,0.022812,0.67237,-0.4989,-0.53033,-0.47686,0.062302,0,0,-0.1146,-0.27804,0,0.64795,0,0,0.35712,-0.080242,0,0.36615,-0.45036,-0.57887,-0.47686,37.921,-0.50203,0.11752,-6.9287e-05,0.32,0.38,0
0.18252,0.0314,0.64307,-0.5236,-0.9011,-0.82933,0.077359,0,0,0.32893,-0.14927,0,0.47305,0,0,0.38744,-0.19654,0,0.44554,-0.48241,-0.94229,-0.82933,26.307,-0.75134,0.42556,0.0088332,0.34,0.38,0
0.19933,0.029906,0.6349,-0.56773,-1.2983,-1.1947,0.095676,0,0,0.81508,-0.13469,0,0.24876,0,0,0.43858,-0.29474,0,0.52915,-0.55541,-1.3107,-1.1947,7.3384,-1.0203,0.70447,0.016329,0.36,0.38,0
0.21513,0.029445,0.62553,-0.59293,-1.2493,-1.1782,0.10415,0,0,0.76084,-0.092415,0,0.27079,0,0,0.48992,-0.25458,0,0.55221,-0.5768,-1.2654,-1.1782,8.8038,-1.0068,0.64941,0.013215,0.38,0.38,0
0.22977,0.029591,0.6153,-0.61588,-1.1967,-1.1591,0.093918,0,0,0.70617,-0.048944,0,0.24419,0,0,0.52388,-0.2035,0,0.56171,-0.60107,-1.2115,-1.1591,8.96,-0.99057,0.58601,0.010057,0.4,0.38,0
0.24337,0.029848,0.60458,-0.62986,-1.1516,-1.139,0.071196,0,0,0.66191,-0.016396,0,0.18511,0,0,0.54034,-0.14844,0,0.55988,-0.62032,-1.1612,-1.139,7.6321,-0.97351,0.53013,0.0076067,0.42,0.38,0
0.25624,0.029881,0.59369,-0.62726,-1.1103,-1.115,0.039524,0,0,0.63401,0.0060632,0,0.10276,0,0,0.53917,-0.088517,0,0.54577,-0.62404,-1.1135,-1.115,4.647,-0.95083,0.49019,0.0060492,0.44,0.38,0
0.26873,0.029523,0.58301,-0.60043,-1.0734,-1.0852,0.0051297,0,0,0.63014,0.015289,0,0.013337,0,0,0.51339,-0.02145,0,0.51319,-0.60038,-1.0735,-1.0852,0.62133,-0.91966,0.47904,0.0056345,0.46,0.38,0
0.28145,0.029127,0.57315,-0.57622,-1.0636,-1.0651,-0.023051,0,0,0.63554,0.0019438,0,-0.059932,0,0,0.4566,0.052829,0,0.46096,-0.57514,-1.0647,-1.0651,-2.7018,-0.90165,0.48976,0.0060337,0.48,0.38,0
0.29415,0.029033,0.56475,-0.51812,-0.70462,-0.71979,-0.027314,0,0,0.0958,0.031552,0,-0.17154,0,0,0.3914,0.054299,0,0.39757,-0.46815,-0.75459,-0.71979,-39.414,-0.64751,0.28936,0.0027881,0.5,0.38,0
0.28528,0.025077,0.53576,-0.48904,-0.42546,-0.40829,-0.025896,0,0,-0.41991,-0.089278,0,-0.26932,0,0,0.35115,0.027057,0,0.35243,-0.41624,-0.49825,-0.40829,-70.417,-0.44093,0.086261,-3.2023e-05,0.52,0.38,0
0.27736,0.022408,0.50856,-0.46971,-0.42665,-0.39605,-0.019938,0,0,-0.38303,-0.15913,0,-0.20735,0,0,0.33148,0.019376,0,0.33211,-0.41883,-0.47752,-0.39605,-68.599,-0.4308,0.072806,-1.3472e-05,0.54,0.38,0
0.26996,0.020443,0.48272,-0.45448,-0.42238,-0.38374,-0.015479,0,0,-0.36784,-0.20094,0,-0.16098,0,0,0.31795,0.010613,0,0.31814,-0.41613,-0.46072,-0.38374,-68.018,-0.4202,0.066952,-4.1669e-06,0.56,0.38,0
0.26265,0.018889,0.45769,-0.44378,-0.41704,-0.37267,-0.012123,0,0,-0.36977,-0.23075,0,-0.12607,0,0,0.30979,0.0035529,0,0.30981,-0.41237,-0.44846,-0.37267,-68.898,-0.41116,0.065659,1.1963e-06,0.58,0.38,0
0.25517,0.017558,0.43316,-0.4357,-0.41046,-0.36214,-0.0095956,0,0,-0.38253,-0.25128,0,-0.099794,0,0,0.30461,-0.0017129,0,0.30461,-0.40723,-0.43893,-0.36214,-71.376,-0.40276,0.066843,4.5444e-06,0.6,0.38,0
0.24734,0.016386,0.40895,-0.4296,-0.40292,-0.35199,-0.0075365,0,0,-0.40355,-0.26481,0,-0.07838,0,0,0.30115,-0.0054987,0,0.3012,-0.40094,-0.43158,-0.35199,-75.268,-0.39484,0.06953,6.6581e-06,0.62,0.38,0
0.23903,0.01535,0.38497,-0.4249,-0.39452,-0.34207,-0.0057578,0,0,-0.43072,-0.27274,0,-0.059882,0,0,0.29881,-0.0081592,0,0.29892,-0.39346,-0.42595,-0.34207,-79.62,-0.38716,0.07326,7.6438e-06,0.64,0.38,0
0.23011,0.014447,0.36114,-0.42123,-0.38537,-0.33227,-0.0041166,0,0,-0.46263,-0.27613,0,-0.042813,0,0,0.29723,-0.010013,0,0.2974,-0.3849,-0.4217,-0.33227,-83.535,-0.37962,0.077855,7.2939e-06,0.66,0.38,0
0.22052,0.013681,0.33741,-0.41837,-0.37557,-0.32254,-0.0025118,0,0,-0.49832,-0.2758,0,-0.026122,0,0,0.29624,-0.011334,0,0.29646,-0.37543,-0.41851,-0.32254,-86.652,-0.37216,0.083263,5.2133e-06,0.68,0.38,0
0.21018,0.01306,0.31374,-0.41615,-0.36524,-0.31286,-0.00086008,0,0,-0.53716,-0.27242,0,-0.0089449,0,0,0.29574,-0.012367,0,0.296,-0.36523,-0.41617,-0.31286,-89.032,-0.36475,0.089475,8.8546e-07,0.7,0.38,0
0.19904,0.012593,0.29009,-0.41453,-0.35448,-0.30323,0.00091505,0,0,-0.57876,-0.26653,0,0.0095165,0,0,0.29569,-0.013337,0,0.29599,-0.35447,-0.41454,-0.30323,89.127,-0.35741,0.096501,-6.3162e-06,0.72,0.38,0
0.18703,0.012284,0.26643,-0.41346,-0.34338,-0.29366,0.0028905,0,0,-0.62296,-0.25854,0,0.030062,0,0,0.29608,-0.014462,0,0.29643,-0.34326,-0.41358,-0.29366,87.642,-0.35017,0.10437,-1.7158e-05,0.74,0.38,0
0.17412,0.012138,0.24272,-0.413,-0.33202,-0.28419,0.0051465,0,0,-0.66983,-0.24872,0,0.053524,0,0,0.29695,-0.015971,0,0.29738,-0.33169,-0.41332,-0.28419,86.378,-0.34307,0.11313,-3.263e-05,0.76,0.38,0
0.16024,0.012158,0.21892,-0.41326,-0.32046,-0.27485,0.0077667,0,0,-0.71973,-0.23721,0,0.080774,0,0,0.2984,-0.018119,0,0.29895,-0.31982,-0.4139,-0.27485,85.248,-0.33619,0.1229,-5.411e-05,0.78,0.38,0
0.14533,0.012345,0.19498,-0.41447,-0.30878,-0.26572,0.010834,0,0,-0.77349,-0.22391,0,0.11267,0,0,0.30062,-0.021196,0,0.30136,-0.30768,-0.41557,-0.26572,84.207,-0.32965,0.13389,-8.3692e-05,0.8,0.38,0
0.1293,0.012695,0.17082,-0.41702,-0.29698,-0.25691,0.014415,0,0,-0.8326,-0.20839,0,0.14992,0,0,0.30395,-0.025541,0,0.30501,-0.29528,-0.41873,-0.25691,83.248,-0.32364,0.14646,-0.00012478,0.82,0.38,0
0.11202,0.013201,0.14635,-0.42158,-0.28508,-0.24858,0.018502,0,0,-0.89959,-0.18975,0,0.19242,0,0,0.30904,-0.031532,0,0.31064,-0.28261,-0.42405,-0.24858,82.416,-0.31841,0.16116,-0.0001831,0.84,0.38,0
0.093316,0.013842,0.12138,-0.42889,-0.27291,-0.24088,0.022961,0,0,-0.97763,-0.16653,0,0.2388,0,0,0.31719,-0.03949,0,0.31965,-0.2696,-0.4322,-0.24088,81.798,-0.31423,0.1787,-0.00026774,0.86,0.38,0
0.072919,0.014607,0.095597,-0.43981,-0.26062,-0.23403,0.027339,0,0,-1.07,-0.1383,0,0.28433,0,0,0.33077,-0.049259,0,0.33448,-0.25655,-0.44388,-0.23403,81.515,-0.31149,0.19955,-0.00039066,0.88,0.38,0
0.050514,0.015523,0.068455,-0.45293,-0.24713,-0.22713,0.031882,0,0,-1.1741,-0.10398,0,0.33157,0,0,0.35035,-0.057722,0,0.3553,-0.2423,-0.45775,-0.22713,81.393,-0.30906,0.22342,-0.00056391,0.9,0.38,0
0.025954,0.017212,0.039542,-0.46709,-0.2762,-0.2477,0.036435,0,0,-0.74572,-0.059284,0,0.21861,0,0,0.38956,-0.13276,0,0.41797,-0.26895,-0.47435,-0.2477,79.145,-0.33033,0.21727,-0.00051764,0.92,0.38,0
0.020685,0.014431,0.031188,-0.51444,-0.38388,-0.30068,0.051559,0,0,-0.27788,-0.10815,0,0.13405,0,0,0.45264,-0.18111,0,0.48865,-0.36597,-0.53234,-0.30068,70.849,-0.39966,0.20689,-0.00030681,0.94,0.38,0
0.014838,0.012963,0.021437,-0.53832,-0.3589,-0.2906,0.047987,0,0,-0.32203,-0.088793,0,0.12477,0,0,0.50821,-0.11275,0,0.5201,-0.34688,-0.55034,-0.2906,75.928,-0.39594,0.23668,-0.00055332,0.96,0.38,0
0.0078042,0.012508,0.010859,-0.56966,-0.34183,-0.28431,0.028498,0,0,-0.37096,-0.074786,0,0.074094,0,0,0.53591,-0.053496,0,0.53811,-0.33832,-0.57317,-0.28431,82.977,-0.3986,0.266,-0.00083385,0.98,0.38,0
0,0.012405,0,-0.56562,-0.31924,-0.26546,-0.0019675,0,0,-0.39021,-0.069919,0,-0.0051155,0,0,0.54296,-1.3878e-17,0,0.54252,-0.31923,-0.56564,-0.26546,-89.543,-0.38344,0.27723,-0.00095706,1,0.38,0
0,0.032481,1,-0.70082,-1.6904,-1.7174,-0.0058622,0,0,1.3215,0.035079,0,-0.015242,0,0,0.52712,1.1519e-15,0,0.52686,-0.70079,-1.6904,-1.7174,-0.33941,-1.3695,1.0034,0.051755,0,0.4,0
0.02643,0.032176,0.98946,-0.68549,-1.671,-1.6964,-0.02688,0,0,1.3142,0.033065,0,-0.069888,0,0,0.52356,0.040267,0,0.52483,-0.68476,-1.6717,-1.6964,-1.5613,-1.351,0.99951,0.051179,0.02,0.4,0
0.052567,0.031219,0.97906,-0.67662,-1.6624,-1.6808,-0.058245,0,0,1.3054,0.023876,0,-0.15144,0,0,0.51124,0.083811,0,0.51776,-0.67319,-1.6658,-1.6808,-3.3697,-1.3399,1.0002,0.05135,0.04,0.4,0
0.078645,0.02952,0.96901,-0.64416,-1.6627,-1.6611,-0.091192,0,0,1.322,-0.0021009,0,-0.2371,0,0,0.48182,0.13396,0,0.49982,-0.63606,-1.6708,-1.6611,-5.0762,-1.3226,1.0299,0.056088,0.06,0.4,0
0.10544,0.027621,0.95978,-0.61263,-1.7158,-1.6583,-0.11169,0,0,1.3594,-0.074738,0,-0.29039,0,0,0.4277,0.19248,0,0.47016,-0.60144,-1.727,-1.6583,-5.7234,-1.3289,1.0928,0.066142,0.08,0.4,0
0.13302,0.026762,0.9519,-0.55317,-1.1792,-1.1146,-0.091312,0,0,0.85151,-0.13423,0,-0.543,0,0,0.36762,0.13502,0,0.39834,-0.52562,-1.2067,-1.1146,-17.699,-0.94899,0.64356,0.035883,0.1,0.4,0
0.13951,0.015026,0.92462,-0.50567,-0.63911,-0.57459,-0.066876,0,0,0.3584,-0.33551,0,-0.69551,0,0,0.33067,0.052039,0,0.33493,-0.47792,-0.66685,-0.57459,-22.533,-0.57312,0.16364,9.0775e-06,0.12,0.4,0
0.14736,0.0071826,0.89899,-0.48716,-0.64278,-0.56373,-0.044547,0,0,0.39818,-0.41105,0,-0.46329,0,0,0.3126,0.037155,0,0.31481,-0.47531,-0.65463,-0.56373,-14.896,-0.56455,0.1553,-4.6015e-06,0.14,0.4,0
0.15543,0.0023653,0.8746,-0.4766,-0.63597,-0.55242,-0.027255,0,0,0.39428,-0.43444,0,-0.28345,0,0,0.30062,0.019958,0,0.30123,-0.47207,-0.6405,-0.55242,-9.4411,-0.555,0.14592,-1.2658e-05,0.16,0.4,0
0.16313,-0.00038883,0.85089,-0.47118,-0.62771,-0.54239,-0.013986,0,0,0.37028,-0.44365,0,-0.14546,0,0,0.29441,0.0033552,0,0.29436,-0.46994,-0.62895,-0.54239,-5.0662,-0.54709,0.13788,-2.0596e-05,0.18,0.4,0
0.17024,-0.0017157,0.8275,-0.4679,-0.61857,-0.53282,-0.0031039,0,0,0.33757,-0.44593,0,-0.03228,0,0,0.29199,-0.012531,0,0.29219,-0.46784,-0.61864,-0.53282,-1.1796,-0.53976,0.13101,-2.7325e-05,0.2,0.4,0
0.17663,-0.0019147,0.80417,-0.46647,-0.60942,-0.52381,0.006812,0,0,0.29814,-0.44514,0,0.070845,0,0,0.29241,-0.028064,0,0.29369,-0.46615,-0.60974,-0.52381,2.7223,-0.53323,0.12515,-3.3531e-05,0.22,0.4,0
0.18217,-0.0010995,0.78071,-0.46676,-0.60037,-0.51532,0.016819,0,0,0.2525,-0.44227,0,0.17492,0,0,0.29554,-0.043688,0,0.29868,-0.46467,-0.60245,-0.51532,7.0657,-0.52748,0.12071,-3.9716e-05,0.24,0.4,0
0.18673,0.00079067,0.75689,-0.46908,-0.59131,-0.50734,0.0279,0,0,0.19893,-0.43663,0,0.29016,0,0,0.30185,-0.059797,0,0.30767,-0.46302,-0.59737,-0.50734,12.269,-0.52258,0.11858,-4.7067e-05,0.26,0.4,0
0.19013,0.0039854,0.73242,-0.47384,-0.58148,-0.4997,0.0412,0,0,0.13448,-0.42526,0,0.42848,0,0,0.3127,-0.076552,0,0.32192,-0.45988,-0.59544,-0.4997,18.717,-0.51834,0.12068,-5.8255e-05,0.28,0.4,0
0.19211,0.0090056,0.70686,-0.4833,-0.57041,-0.49282,0.058058,0,0,0.049548,-0.40342,0,0.6038,0,0,0.33035,-0.093353,0,0.34338,-0.45427,-0.59943,-0.49282,26.562,-0.51551,0.13023,-8.0829e-05,0.3,0.4,0
0.19211,0.016738,0.67956,-0.49985,-0.55137,-0.48526,0.079842,0,0,-0.075906,-0.34379,0,0.83036,0,0,0.35471,-0.10591,0,0.3705,-0.44172,-0.60951,-0.48526,36.06,-0.51216,0.15081,-0.00012792,0.32,0.4,0
0.18907,0.028303,0.6501,-0.54138,-0.93561,-0.84941,0.10703,0,0,0.34352,-0.17928,0,0.63534,0,0,0.40128,-0.25501,0,0.48976,-0.48755,-0.98944,-0.84941,26.429,-0.77547,0.45819,0.0093894,0.34,0.4,0
0.20585,0.027195,0.64142,-0.60071,-1.3179,-1.217,0.14333,0,0,0.80117,-0.13117,0,0.37267,0,0,0.47622,-0.37364,0,0.60651,-0.57313,-1.3455,-1.217,10.893,-1.0452,0.7168,0.016885,0.36,0.4,0
0.22112,0.027844,0.63106,-0.6379,-1.2268,-1.1905,0.13978,0,0,0.71835,-0.047275,0,0.36344,0,0,0.54519,-0.29732,0,0.62066,-0.6064,-1.2583,-1.1905,12.697,-1.0184,0.62079,0.011794,0.38,0.4,0
0.23458,0.029053,0.61961,-0.68119,-1.1738,-1.1761,0.11586,0,0,0.64338,0.0030097,0,0.30123,0,0,0.58567,-0.2276,0,0.62783,-0.6553,-1.1997,-1.1761,12.596,-1.0104,0.53298,0.0077246,0.4,0.4,0
0.24686,0.030048,0.60763,-0.70139,-1.1219,-1.1546,0.082141,0,0,0.58918,0.042567,0,0.21357,0,0,0.60571,-0.1592,0,0.62565,-0.68591,-1.1373,-1.1546,10.671,-0.99261,0.4603,0.0049853,0.42,0.4,0
0.25815,0.030609,0.59538,-0.70984,-1.0712,-1.1297,0.039852,0,0,0.54579,0.076081,0,0.10361,0,0,0.61252,-0.085599,0,0.6176,-0.7055,-1.0755,-1.1297,6.22,-0.97023,0.39985,0.0030811,0.44,0.4,0
0.26869,0.030522,0.58313,-0.69912,-1.024,-1.1001,-0.017529,0,0,0.52125,0.098839,0,-0.045577,0,0,0.60325,0.0014098,0,0.60183,-0.69817,-1.025,-1.1001,-3.0791,-0.94108,0.37012,0.002247,0.46,0.4,0
0.279,0.029415,0.57125,-0.60818,-0.97172,-1.0452,-0.072814,0,0,0.56815,0.095548,0,-0.18932,0,0,0.52823,0.11721,0,0.53703,-0.59414,-0.98576,-1.0452,-10.915,-0.87504,0.42449,0.0036699,0.48,0.4,0
0.29141,0.029736,0.562,-0.53966,-0.72835,-0.73165,-0.10188,0,0,0.067434,0.0068644,0,-0.52793,0,0,0.41546,0.19055,0,0.47108,-0.4565,-0.81151,-0.73165,-38.77,-0.66656,0.34012,0.0037137,0.5,0.4,0
0.2817,0.023116,0.53253,-0.49909,-0.44876,-0.41749,-0.053758,0,0,-0.42432,-0.16263,0,-0.55908,0,0,0.34751,0.05509,0,0.35196,-0.41457,-0.53328,-0.41749,-57.542,-0.45511,0.11728,-8.2676e-05,0.52,0.4,0
0.27444,0.018949,0.5064,-0.46398,-0.43591,-0.39657,-0.036997,0,0,-0.35054,-0.20459,0,-0.38477,0,0,0.3189,0.032776,0,0.32053,-0.41037,-0.48951,-0.39657,-55.387,-0.43215,0.08687,-3.082e-05,0.54,0.4,0
0.26768,0.016224,0.48151,-0.44828,-0.42858,-0.38344,-0.026405,0,0,-0.3372,-0.23474,0,-0.27461,0,0,0.30765,0.018082,0,0.30815,-0.41025,-0.46661,-0.38344,-55.23,-0.4201,0.073534,-1.1648e-05,0.56,0.4,0
0.26095,0.014108,0.45717,-0.43799,-0.421,-0.37199,-0.019886,0,0,-0.3432,-0.25485,0,-0.20682,0,0,0.30232,0.0081238,0,0.30242,-0.40787,-0.45112,-0.37199,-56.567,-0.41033,0.068628,-2.664e-06,0.58,0.4,0
0.25395,0.012404,0.43314,-0.43114,-0.41334,-0.36163,-0.015287,0,0,-0.36146,-0.26891,0,-0.15898,0,0,0.2993,0.0012762,0,0.29929,-0.40455,-0.43993,-0.36163,-60.103,-0.40204,0.067916,2.6705e-06,0.6,0.4,0
0.24649,0.010988,0.40929,-0.4261,-0.4052,-0.35171,-0.011879,0,0,-0.38682,-0.27815,0,-0.12354,0,0,0.29742,-0.0034694,0,0.29744,-0.39983,-0.43147,-0.35171,-65.668,-0.39434,0.069564,6.0287e-06,0.62,0.4,0
0.23848,0.009811,0.38555,-0.42218,-0.39648,-0.34198,-0.0091495,0,0,-0.41699,-0.28337,0,-0.095155,0,0,0.29618,-0.0067708,0,0.29626,-0.39355,-0.4251,-0.34198,-72.272,-0.38688,0.072674,7.9414e-06,0.64,0.4,0
0.22981,0.0088493,0.3619,-0.41899,-0.38717,-0.33232,-0.0068091,0,0,-0.45066,-0.28521,0,-0.070815,0,0,0.29536,-0.0090916,0,0.2955,-0.38577,-0.42038,-0.33232,-78.414,-0.37949,0.076844,8.4003e-06,0.66,0.4,0
0.22045,0.0080929,0.33829,-0.41632,-0.37734,-0.32267,-0.0046607,0,0,-0.48699,-0.28426,0,-0.048472,0,0,0.29483,-0.010785,0,0.29503,-0.37679,-0.41687,-0.32267,-83.276,-0.37211,0.081881,7.1767e-06,0.68,0.4,0
0.21033,0.0075366,0.31472,-0.41405,-0.36707,-0.31302,-0.0025572,0,0,-0.52539,-0.28106,0,-0.026595,0,0,0.29453,-0.012139,0,0.29478,-0.36693,-0.41419,-0.31302,-86.894,-0.36471,0.087683,3.931e-06,0.7,0.4,0
0.19943,0.0071773,0.29117,-0.41211,-0.35646,-0.30336,-0.00037195,0,0,-0.56549,-0.2761,0,-0.0038683,0,0,0.29443,-0.013412,0,0.29473,-0.35646,-0.41211,-0.30336,-89.617,-0.35731,0.09419,-1.7523e-06,0.72,0.4,0
0.18771,0.0070131,0.26761,-0.41048,-0.3456,-0.29373,0.0020171,0,0,-0.6071,-0.26976,0,0.020978,0,0,0.29453,-0.014852,0,0.2949,-0.34554,-0.41054,-0.29373,88.221,-0.34994,0.10138,-1.0379e-05,0.74,0.4,0
0.17515,0.0070427,0.24404,-0.40918,-0.3346,-0.28414,0.0047403,0,0,-0.65017,-0.26237,0,0.049299,0,0,0.29484,-0.01672,0,0.29531,-0.3343,-0.40948,-0.28414,86.378,-0.34264,0.10926,-2.2612e-05,0.76,0.4,0
0.16171,0.007266,0.22044,-0.4083,-0.32353,-0.27466,0.0079514,0,0,-0.69493,-0.25412,0,0.082694,0,0,0.29542,-0.019318,0,0.29605,-0.32279,-0.40904,-0.27466,84.688,-0.33549,0.11793,-3.942e-05,0.78,0.4,0
0.14735,0.0076861,0.19678,-0.40804,-0.31248,-0.26535,0.01185,0,0,-0.74201,-0.24506,0,0.12323,0,0,0.29639,-0.023017,0,0.29728,-0.31103,-0.40949,-0.26535,83.036,-0.32862,0.12759,-6.2421e-05,0.8,0.4,0
0.13203,0.0083113,0.17302,-0.40883,-0.30154,-0.25637,0.016705,0,0,-0.79283,-0.2349,0,0.17374,0,0,0.29798,-0.028312,0,0.29931,-0.299,-0.41137,-0.25637,81.352,-0.32225,0.1387,-9.4649e-05,0.82,0.4,0
0.11564,0.0091582,0.1491,-0.41152,-0.2908,-0.24797,0.022906,0,0,-0.85048,-0.2227,0,0.23822,0,0,0.30073,-0.035907,0,0.30284,-0.2866,-0.41573,-0.24797,79.61,-0.31677,0.15216,-0.00014239,0.84,0.4,0
0.098008,0.010262,0.1249,-0.41803,-0.28045,-0.24077,0.030852,0,0,-0.92174,-0.20635,0,0.32086,0,0,0.30586,-0.04687,0,0.30939,-0.27385,-0.42463,-0.24077,77.922,-0.31308,0.16975,-0.00021942,0.86,0.4,0
0.07877,0.011632,0.10016,-0.43127,-0.27044,-0.23555,0.041248,0,0,-1.0177,-0.1814,0,0.42898,0,0,0.31732,-0.062851,0,0.32342,-0.26048,-0.44123,-0.23555,76.423,-0.31242,0.19442,-0.00035661,0.88,0.4,0
0.0573,0.013437,0.07413,-0.45975,-0.26425,-0.23573,0.054651,0,0,-1.1649,-0.14831,0,0.56837,0,0,0.34623,-0.086513,0,0.35703,-0.25001,-0.47399,-0.23573,75.395,-0.31991,0.23145,-0.00062859,0.9,0.4,0
0.032174,0.016055,0.044765,-0.48401,-0.30353,-0.26424,0.10493,0,0,-0.7568,-0.081717,0,0.53216,0,0,0.41199,-0.26601,0,0.50678,-0.249,-0.53854,-0.26424,66.185,-0.35059,0.28241,-0.001156,0.92,0.4,0
0.027027,0.012295,0.035626,-0.55534,-0.33774,-0.30355,0.10639,0,0,-0.32733,-0.044446,0,0.27662,0,0,0.51922,-0.23833,0,0.56808,-0.29437,-0.59872,-0.30355,67.821,-0.39888,0.29986,-0.0013804,0.94,0.4,0
0.019081,0.011725,0.023996,-0.64627,-0.32957,-0.31675,0.083265,0,0,-0.42838,-0.016669,0,0.21649,0,0,0.58947,-0.13395,0,0.60342,-0.30901,-0.66683,-0.31675,76.132,-0.43086,0.35401,-0.002275,0.96,0.4,0
0.0098923,0.011607,0.012048,-0.67432,-0.3101,-0.30737,0.041944,0,0,-0.47703,-0.0035411,0,0.10905,0,0,0.5999,-0.060883,0,0.60236,-0.30533,-0.67909,-0.30737,83.515,-0.4306,0.37274,-0.0026595,0.98,0.4,0
0,0.011622,0,-0.66555,-0.2847,-0.28508,0.0002979,0,0,-0.49462,0.00048554,0,0.00077454,0,0,0.60238,-3.4694e-17,0,0.60187,-0.2847,-0.66555,-0.28508,89.955,-0.41178,0.38066,-0.002833,1,0.4,0
0,0.033525,1,-0.73265,-1.6692,-1.7206,-0.006044,0,0,1.2843,0.066732,0,-0.015714,0,0,0.5705,4.2327e-16,0,0.57021,-0.73261,-1.6693,-1.7206,-0.36973,-1.3741,0.96333,0.045476,0,0.42,0
0.025686,0.033211,0.98859,-0.72055,-1.6463,-1.6986,-0.025242,0,0,1.2715,0.068079,0,-0.06563,0,0,0.56925,0.044393,0,0.57066,-0.71986,-1.6469,-1.6986,-1.5608,-1.3552,0.95398,0.04415,0.02,0.42,0
0.05086,0.03214,0.97723,-0.72554,-1.6304,-1.684,-0.057903,0,0,1.246,0.069713,0,-0.15055,0,0,0.56432,0.094124,0,0.57166,-0.72185,-1.6341,-1.684,-3.6467,-1.3466,0.93819,0.042008,0.04,0.42,0
0.075526,0.030085,0.96602,-0.72443,-1.6226,-1.6701,-0.1094,0,0,1.2294,0.061744,0,-0.28445,0,0,0.55178,0.15682,0,0.5728,-0.7113,-1.6358,-1.6701,-6.8454,-1.3391,0.94213,0.042757,0.06,0.42,0
0.10004,0.02624,0.95516,-0.6247,-1.6144,-1.6269,-0.16138,0,0,1.3028,0.016265,0,-0.41958,0,0,0.48391,0.24791,0,0.5412,-0.59905,-1.64,-1.6269,-9.0312,-1.2887,1.0345,0.056824,0.08,0.42,0
0.12764,0.023507,0.94666,-0.57765,-1.2545,-1.1413,-0.16967,0,0,0.86084,-0.23543,0,-0.90851,0,0,0.3824,0.25941,0,0.4778,-0.52055,-1.3116,-1.1413,-21.153,-0.99115,0.72617,0.042038,0.1,0.42,0
0.13447,0.0072609,0.91947,-0.51064,-0.68448,-0.5884,-0.093365,0,0,0.40439,-0.49961,0,-0.971,0,0,0.32006,0.079664,0,0.32994,-0.46999,-0.72512,-0.5884,-23.523,-0.59451,0.22114,-6.8833e-05,0.12,0.42,0
0.14381,-0.0019434,0.89545,-0.47723,-0.66536,-0.56664,-0.056932,0,0,0.46494,-0.51334,0,-0.59209,0,0,0.29228,0.050162,0,0.2964,-0.46134,-0.68124,-0.56664,-15.592,-0.56974,0.1905,-2.6002e-05,0.14,0.42,0
0.15307,-0.0069871,0.8727,-0.46698,-0.65284,-0.55412,-0.033457,0,0,0.45314,-0.51334,0,-0.34795,0,0,0.28106,0.026485,0,0.28217,-0.46114,-0.65868,-0.55412,-9.9,-0.55798,0.17117,-2.6089e-05,0.16,0.42,0
0.16194,-0.0098216,0.85048,-0.46062,-0.64019,-0.54286,-0.017548,0,0,0.42769,-0.50612,0,-0.1825,0,0,0.27647,0.0062799,0,0.27643,-0.45892,-0.64189,-0.54286,-5.5292,-0.54789,0.15864,-2.9156e-05,0.18,0.42,0
0.17018,-0.011121,0.82847,-0.45742,-0.62915,-0.53309,-0.0049179,0,0,0.39348,-0.49951,0,-0.051146,0,0,0.27497,-0.012039,0,0.27513,-0.45728,-0.62929,-0.53309,-1.639,-0.53988,0.14931,-3.4804e-05,0.2,0.42,0
0.17768,-0.011276,0.80649,-0.4559,-0.61954,-0.52426,0.0063057,0,0,0.35543,-0.49548,0,0.065579,0,0,0.27558,-0.029649,0,0.27707,-0.45566,-0.61978,-0.52426,2.2035,-0.53323,0.14277,-4.1793e-05,0.22,0.42,0
0.18439,-0.010411,0.78438,-0.45588,-0.61135,-0.51626,0.017746,0,0,0.31398,-0.49444,0,0.18456,0,0,0.27819,-0.047531,0,0.28212,-0.45388,-0.61335,-0.51626,6.43,-0.52783,0.13919,-5.0722e-05,0.24,0.42,0
0.19024,-0.0084521,0.76198,-0.45792,-0.60451,-0.50922,0.030949,0,0,0.26676,-0.49548,0,0.32187,0,0,0.28337,-0.066642,0,0.291,-0.45166,-0.61077,-0.50922,11.446,-0.52389,0.13954,-6.3798e-05,0.26,0.42,0
0.19506,-0.0050862,0.73904,-0.46392,-0.59908,-0.50366,0.047545,0,0,0.20667,-0.49621,0,0.49447,0,0,0.29267,-0.088081,0,0.30553,-0.44887,-0.61413,-0.50366,17.563,-0.52222,0.14581,-8.6762e-05,0.28,0.42,0
0.19851,0.00022818,0.71515,-0.47526,-0.59358,-0.49944,0.070948,0,0,0.12575,-0.48955,0,0.73786,0,0,0.31078,-0.1132,0,0.33069,-0.44204,-0.6268,-0.49944,25.088,-0.52276,0.16378,-0.00013579,0.3,0.42,0
0.20009,0.0090604,0.68931,-0.50782,-0.59403,-0.50289,0.10622,0,0,-0.025662,-0.47398,0,1.1047,0,0,0.34847,-0.14363,0,0.37735,-0.43629,-0.66556,-0.50289,33.956,-0.53491,0.20428,-0.00028613,0.32,0.42,0
0.19748,0.024229,0.6594,-0.5702,-1.0187,-0.8888,0.189,0,0,0.36515,-0.27022,0,1.0073,0,0,0.42573,-0.40371,0,0.60704,-0.47813,-1.1108,-0.8888,28.416,-0.8259,0.56416,0.012656,0.34,0.42,0
0.2147,0.024659,0.64985,-0.62821,-1.2436,-1.2114,0.20459,0,0,0.75815,-0.041905,0,0.53193,0,0,0.54929,-0.4417,0,0.70272,-0.5664,-1.3054,-1.2114,16.809,-1.0277,0.69679,0.016313,0.36,0.42,0
0.22781,0.027554,0.63742,-0.74116,-1.2017,-1.2203,0.1744,0,0,0.62284,0.024197,0,0.45343,0,0,0.63596,-0.33234,0,0.71664,-0.68257,-1.2603,-1.2203,18.571,-1.0544,0.55876,0.0088055,0.38,0.42,0
0.23961,0.029711,0.62441,-0.76461,-1.1485,-1.1984,0.13409,0,0,0.56386,0.064765,0,0.34863,0,0,0.662,-0.25046,0,0.70715,-0.72242,-1.1907,-1.1984,17.468,-1.0372,0.47217,0.0054017,0.4,0.42,0
0.25036,0.031551,0.61094,-0.78268,-1.0911,-1.1731,0.099922,0,0,0.50753,0.10654,0,0.2598,0,0,0.68234,-0.17492,0,0.70375,-0.75314,-1.1207,-1.1731,16.469,-1.0156,0.39635,0.0030103,0.42,0.42,0
0.25992,0.032925,0.59711,-0.80644,-1.0288,-1.1477,0.056947,0,0,0.44361,0.15457,0,0.14806,0,0,0.69978,-0.094544,0,0.70527,-0.79271,-1.0425,-1.1477,13.562,-0.9943,0.31581,0.0010338,0.44,0.42,0
0.2681,0.033477,0.58295,-0.84435,-0.97235,-1.128,-0.0018771,0,0,0.3687,0.2023,0,-0.0048806,0,0,0.7162,0.00087252,0,0.71475,-0.84432,-0.97238,-1.128,-0.84002,-0.98155,0.24602,-0.00012785,0.46,0.42,0
0.27466,0.032949,0.56847,-0.90459,-0.93587,-1.1206,-0.099617,0,0,0.28082,0.24015,0,-0.259,0,0,0.76007,0.13048,0,0.76696,-0.81939,-1.0211,-1.1206,-40.538,-0.98702,0.26581,0.0005286,0.48,0.42,0
0.27934,0.029307,0.55255,-0.79457,-0.69203,-0.79132,-0.18189,0,0,-0.10981,0.12104,0,-0.90063,0,0,0.63869,0.23484,0,0.68153,-0.55422,-0.93238,-0.79132,-52.454,-0.75931,0.33694,0.0019072,0.5,0.42,0
0.2737,0.018572,0.52694,-0.85793,-0.48427,-0.732,-0.10821,0,0,-0.26194,0.23686,0,-0.57261,0,0,0.76927,0.074072,0,0.77348,-0.43546,-0.90674,-0.732,-62.905,-0.6914,0.4225,0.0059533,0.52,0.42,0
0.26886,0.014224,0.50332,-0.81666,-0.46081,-0.69781,-0.049968,0,0,-0.24719,0.21951,0,-0.30506,0,0,0.73618,0.040502,0,0.73769,-0.43676,-0.84071,-0.69781,-65.632,-0.65843,0.36696,0.0047715,0.54,0.42,0
0.26382,0.011053,0.47983,-0.80138,-0.44288,-0.67317,-0.033067,0,0,-0.26667,0.20241,0,-0.21016,0,0,0.73325,0.021333,0,0.73368,-0.42653,-0.81774,-0.67317,-66.481,-0.63914,0.35783,0.0044543,0.56,0.42,0
0.25819,0.0086952,0.45639,-0.79724,-0.43315,-0.65436,-0.02281,0,0,-0.29719,0.18609,0,-0.15091,0,0,0.73245,0.0097394,0,0.73254,-0.42227,-0.80811,-0.65436,-68.175,-0.62825,0.35477,0.0039676,0.58,0.42,0
0.25193,0.0068012,0.43295,-0.79483,-0.42389,-0.63621,-0.016517,0,0,-0.32993,0.17097,0,-0.11299,0,0,0.73253,0.0021745,0,0.73253,-0.41683,-0.80189,-0.63621,-70.642,-0.61831,0.35576,0.0034517,0.6,0.42,0
0.24499,0.0052602,0.40951,-0.79351,-0.41466,-0.61839,-0.012006,0,0,-0.36425,0.15746,0,-0.085431,0,0,0.73277,-0.0029064,0,0.73277,-0.41044,-0.79773,-0.61839,-74.186,-0.60885,0.35909,0.0028917,0.62,0.42,0
0.23736,0.0040155,0.38605,-0.79292,-0.40505,-0.60067,-0.0085378,0,0,-0.39987,0.14565,0,-0.063945,0,0,0.73296,-0.006375,0,0.733,-0.40279,-0.79518,-0.60067,-78.429,-0.59955,0.36426,0.0022887,0.64,0.42,0
0.229,0.0030384,0.3626,-0.79291,-0.39503,-0.583,-0.0056834,0,0,-0.4366,0.13541,0,-0.046018,0,0,0.73304,-0.0087846,0,0.73312,-0.39396,-0.79398,-0.583,-82.45,-0.59031,0.37095,0.0016359,0.66,0.42,0
0.2199,0.0023105,0.33914,-0.79331,-0.38463,-0.56534,-0.0031823,0,0,-0.47416,0.12651,0,-0.030083,0,0,0.73299,-0.010528,0,0.73311,-0.3842,-0.79374,-0.56534,-85.61,-0.5811,0.37886,0.00092689,0.68,0.42,0
0.21003,0.0018179,0.31569,-0.79396,-0.37393,-0.54767,-0.00083891,0,0,-0.51228,0.11864,0,-0.014962,0,0,0.73279,-0.011911,0,0.73295,-0.37381,-0.79409,-0.54767,2.0832,-0.57186,0.38777,0.00015701,0.7,0.42,0
0.1994,0.0015488,0.29224,-0.79474,-0.36302,-0.52998,0.0015121,0,0,-0.55071,0.11151,0,0.00034977,0,0,0.73244,-0.013199,0,0.73263,-0.363,-0.79476,-0.52998,0.3687,-0.56258,0.39746,-0.00067638,0.72,0.42,0
0.18801,0.0014934,0.26881,-0.79553,-0.35198,-0.51226,0.0040258,0,0,-0.5892,0.10486,0,0.016806,0,0,0.73192,-0.014645,0,0.73216,-0.35194,-0.79558,-0.51226,89.005,-0.55326,0.40775,-0.0015738,0.74,0.42,0
0.17584,0.0016436,0.2454,-0.79623,-0.34093,-0.49452,0.0068643,0,0,-0.62756,0.098443,0,0.03542,0,0,0.7312,-0.016518,0,0.7315,-0.34073,-0.79643,-0.49452,87.82,-0.54389,0.4185,-0.002534,0.76,0.42,0
0.1629,0.0019937,0.22201,-0.79678,-0.32995,-0.47678,0.010224,0,0,-0.6656,0.092018,0,0.057418,0,0,0.73025,-0.019135,0,0.73066,-0.32946,-0.79727,-0.47678,86.69,-0.5345,0.42957,-0.0035537,0.78,0.42,0
0.14921,0.0025426,0.19866,-0.79712,-0.3192,-0.45906,0.014384,0,0,-0.70317,0.085377,0,0.084515,0,0,0.72906,-0.022905,0,0.72963,-0.31821,-0.79812,-0.45906,85.517,-0.52513,0.4409,-0.004629,0.8,0.42,0
0.13478,0.0032989,0.17535,-0.79736,-0.30889,-0.44147,0.019818,0,0,-0.74025,0.07837,0,0.11948,0,0,0.72764,-0.028418,0,0.72852,-0.30705,-0.7992,-0.44147,84.203,-0.51591,0.45255,-0.0057591,0.82,0.42,0
0.1196,0.004293,0.15209,-0.79816,-0.29952,-0.42436,0.027356,0,0,-0.77751,0.071077,0,0.1669,0,0,0.7262,-0.036623,0,0.72765,-0.29622,-0.80146,-0.42436,82.648,-0.50735,0.46506,-0.0069657,0.84,0.42,0
0.10368,0.0055881,0.12888,-0.80159,-0.29182,-0.40857,0.038889,0,0,-0.81748,0.064141,0,0.23605,0,0,0.72562,-0.049235,0,0.72819,-0.28589,-0.80752,-0.40857,80.728,-0.50066,0.4805,-0.008345,0.86,0.42,0
0.086903,0.0073513,0.10565,-0.81752,-0.29122,-0.39866,0.056713,0,0,-0.87125,0.059407,0,0.33749,0,0,0.72781,-0.070259,0,0.73278,-0.28067,-0.82808,-0.39866,78.603,-0.50247,0.50458,-0.010361,0.88,0.42,0
0.068826,0.0095908,0.082296,-0.8628,-0.29841,-0.3998,0.097465,0,0,-0.96304,0.059694,0,0.53133,0,0,0.76697,-0.10721,0,0.77667,-0.27638,-0.88483,-0.3998,75.491,-0.52033,0.5604,-0.014636,0.9,0.42,0
0.048382,0.013943,0.056567,-0.75853,-0.36182,-0.37146,0.16399,0,0,-0.88652,-0.027071,0,0.81185,0,0,0.63932,-0.29096,0,0.70565,-0.30179,-0.81856,-0.37146,68.782,-0.49727,0.48585,-0.0090901,0.92,0.42,0
0.03608,0.012653,0.040721,-0.87239,-0.34885,-0.40709,0.13332,0,0,-0.60488,0.075713,0,0.34663,0,0,0.74431,-0.23816,0,0.778,-0.31686,-0.90438,-0.40709,76.505,-0.54278,0.54801,-0.0076856,0.94,0.42,0
0.024186,0.012296,0.026794,-0.82366,-0.30628,-0.36577,0.086253,0,0,-0.59525,0.077347,0,0.22426,0,0,0.68566,-0.12934,0,0.69684,-0.29228,-0.83766,-0.36577,80.78,-0.49857,0.5126,-0.0064407,0.96,0.42,0
0.01227,0.012366,0.013295,-0.80153,-0.2755,-0.3364,0.043393,0,0,-0.60466,0.079169,0,0.11282,0,0,0.66986,-0.057528,0,0.67182,-0.27195,-0.80508,-0.3364,85.316,-0.47115,0.50401,-0.0062145,0.98,0.42,0
0,0.012425,0,-0.77978,-0.24645,-0.30787,0.0011299,0,0,-0.61348,0.079844,0,0.0029378,0,0,0.66473,3.4694e-18,0,0.66431,-0.24645,-0.77978,-0.30787,89.879,-0.4447,0.50543,-0.0063024,1,0.42,0
0,0.03515,1,-0.75293,-1.653,-1.7218,-0.0048256,0,0,1.2595,0.089405,0,-0.012547,0,0,0.61591,-1.249e-15,0,0.61565,-0.7529,-1.653,-1.7218,-0.30717,-1.3759,0.9364,0.041405,0,0.44,0
0.02519,0.034899,0.98768,-0.74309,-1.6256,-1.6983,-0.017083,0,0,1.2418,0.094479,0,-0.044417,0,0,0.61768,0.043737,0,0.61894,-0.74276,-1.626,-1.6983,-1.1085,-1.3557,0.92149,0.039354,0.02,0.44,0
0.049671,0.034007,0.97529,-0.76106,-1.6003,-1.6837,-0.042971,0,0,1.1994,0.10841,0,-0.11172,0,0,0.62367,0.0932,0,0.63018,-0.75886,-1.6025,-1.6837,-2.9234,-1.3484,0.88703,0.034835,0.04,0.44,0
0.073168,0.03199,0.96274,-0.80069,-1.5803,-1.677,-0.084924,0,0,1.1392,0.12575,0,-0.2208,0,0,0.63561,0.1568,0,0.65388,-0.79155,-1.5895,-1.677,-6.1452,-1.3527,0.8451,0.02988,0.06,0.44,0
0.09524,0.028272,0.94987,-0.86701,-1.5806,-1.6842,-0.19577,0,0,1.0623,0.13462,0,-0.50899,0,0,0.68594,0.25231,0,0.72786,-0.81683,-1.6308,-1.6842,-14.376,-1.3773,0.8419,0.030233,0.08,0.44,0
0.11566,0.017345,0.9353,-0.7851,-1.147,-1.1642,-0.27422,0,0,0.6889,-0.093186,0,-1.3558,0,0,0.58443,0.2829,0,0.65234,-0.6364,-1.2957,-1.1642,-29.454,-1.0321,0.61205,0.018478,0.1,0.44,0
0.12612,-0.0049581,0.91187,-0.75061,-0.7436,-1.0182,-0.17232,0,0,0.55656,0.12785,0,-0.89246,0,0,0.69267,0.10378,0,0.70218,-0.53727,-0.95693,-1.0182,-40.692,-0.83746,0.4928,0.0042895,0.12,0.44,0
0.13792,-0.013351,0.89097,-0.69867,-0.7066,-0.97844,-0.067763,0,0,0.58191,0.13949,0,-0.41054,0,0,0.64856,0.060346,0,0.65232,-0.57583,-0.82944,-0.97844,-43.055,-0.79457,0.40575,-0.0022095,0.14,0.44,0
0.14939,-0.018168,0.87037,-0.68889,-0.67717,-0.9538,-0.036258,0,0,0.55101,0.14997,0,-0.23147,0,0,0.64186,0.030528,0,0.6428,-0.56474,-0.80132,-0.9538,-45.186,-0.77329,0.38904,-0.0021646,0.16,0.44,0
0.15996,-0.020634,0.84989,-0.69469,-0.66203,-0.93819,-0.016304,0,0,0.50649,0.15629,0,-0.11258,0,0,0.63972,0.007511,0,0.6397,-0.56015,-0.79657,-0.93819,-45.97,-0.76497,0.37471,-0.0015058,0.18,0.44,0
0.16965,-0.021696,0.82942,-0.69993,-0.64969,-0.92328,-0.0027468,0,0,0.46457,0.15737,0,-0.027273,0,0,0.64015,-0.012601,0,0.64025,-0.55411,-0.79551,-0.92328,-45.741,-0.75763,0.36434,-0.00081326,0.2,0.44,0
0.17854,-0.021734,0.80892,-0.7033,-0.6399,-0.90853,0.0088654,0,0,0.42689,0.15314,0,0.046935,0,0,0.6423,-0.031803,0,0.64339,-0.54825,-0.79494,-0.90853,44.887,-0.75058,0.35581,-0.00022519,0.22,0.44,0
0.18673,-0.020877,0.78832,-0.70461,-0.63221,-0.89375,0.020921,0,0,0.3934,0.14376,0,0.12354,0,0,0.64636,-0.051615,0,0.6493,-0.54229,-0.79454,-0.89375,45.708,-0.74352,0.34903,0.00024655,0.24,0.44,0
0.19428,-0.019028,0.76755,-0.70515,-0.62711,-0.8794,0.035821,0,0,0.36244,0.12967,0,0.21591,0,0,0.65326,-0.073624,0,0.65916,-0.53619,-0.79607,-0.8794,46.597,-0.73722,0.34456,0.00065069,0.26,0.44,0
0.20123,-0.015863,0.74651,-0.70779,-0.62502,-0.86641,0.057805,0,0,0.32993,0.11175,0,0.34507,0,0,0.66537,-0.10005,0,0.67584,-0.52834,-0.80447,-0.86641,47.332,-0.73307,0.34584,0.0011564,0.28,0.44,0
0.20748,-0.010576,0.72497,-0.73004,-0.6366,-0.8631,0.091658,0,0,0.27676,0.091857,0,0.53442,0,0,0.68701,-0.13544,0,0.70478,-0.52731,-0.83933,-0.8631,48.011,-0.74325,0.35598,0.0021236,0.3,0.44,0
0.2123,-0.0022208,0.70254,-0.80136,-0.65822,-0.87696,0.18934,0,0,0.15724,0.072845,0,0.98425,0,0,0.76604,-0.18748,0,0.79421,-0.49279,-0.96679,-0.87696,47.819,-0.77885,0.4571,0.0072577,0.32,0.44,0
0.21377,0.017494,0.67594,-0.81597,-0.97957,-0.96113,0.28948,0,0,0.21628,-0.15025,0,1.4277,0,0,0.66885,-0.41734,0,0.79352,-0.59679,-1.1987,-0.96113,37.538,-0.91889,0.52962,0.0060553,0.34,0.44,0
0.2238,0.025519,0.65908,-0.91285,-1.2432,-1.3059,0.24683,0,0,0.51096,0.081518,0,0.64175,0,0,0.78981,-0.45161,0,0.90665,-0.78102,-1.375,-1.3059,28.105,-1.154,0.56262,0.0086833,0.36,0.44,0
0.2342,0.028812,0.64435,-0.85795,-1.1829,-1.2566,0.16924,0,0,0.51826,0.095783,0,0.44003,0,0,0.73643,-0.34701,0,0.81322,-0.78582,-1.2551,-1.2566,23.083,-1.0992,0.47002,0.0053328,0.38,0.44,0
0.24453,0.031644,0.62963,-0.83945,-1.131,-1.2208,0.14422,0,0,0.49572,0.11666,0,0.37498,0,0,0.74309,-0.2694,0,0.78986,-0.78017,-1.1903,-1.2208,22.345,-1.0637,0.4262,0.0039077,0.4,0.44,0
0.25403,0.034309,0.61462,-0.85146,-1.0672,-1.1902,0.12298,0,0,0.44038,0.15996,0,0.31975,0,0,0.76163,-0.19591,0,0.78589,-0.79573,-1.1229,-1.1902,24.375,-1.0363,0.36549,0.0022235,0.42,0.44,0
0.26215,0.036792,0.59916,-0.88221,-0.98648,-1.1598,0.09208,0,0,0.36083,0.22528,0,0.23941,0,0,0.78831,-0.11665,0,0.79627,-0.82853,-1.0402,-1.1598,30.241,-1.0095,0.29053,0.00057838,0.44,0.44,0
0.26847,0.038614,0.58309,-0.92772,-0.90452,-1.1328,0.041714,0,0,0.26656,0.29671,0,0.10845,0,0,0.82826,-0.026357,0,0.82791,-0.87282,-0.95942,-1.1328,52.768,-0.98833,0.22926,-0.00033452,0.46,0.44,0
0.27281,0.039021,0.56603,-1.0046,-0.8481,-1.1219,-0.02597,0,0,0.15241,0.35586,0,-0.067523,0,0,0.90915,0.081036,0,0.91246,-0.84391,-1.0088,-1.1219,-80.82,-0.99152,0.2421,0.0002306,0.48,0.44,0
0.27456,0.037428,0.54673,-1.0791,-0.76378,-1.0996,-0.11073,0,0,0.026674,0.43654,0,-0.2879,0,0,1.0163,0.18296,0,1.0367,-0.72877,-1.1141,-1.0996,-72.457,-0.9808,0.37826,0.0027658,0.5,0.44,0
0.27388,0.03259,0.52538,-1.1056,-0.5204,-1.0132,-0.097578,0,0,-0.12015,0.64061,0,-0.2537,0,0,1.1065,0.074,0,1.1081,-0.50456,-1.1214,-1.0132,-80.779,-0.87973,0.57051,0.008391,0.52,0.44,0
0.26976,0.02773,0.50247,-1.1799,-0.4963,-1.0053,-0.065074,0,0,-0.22695,0.66173,0,-0.16919,0,0,1.1496,0.037685,0,1.1501,-0.49016,-1.186,-1.0053,-84.61,-0.89384,0.62542,0.0091177,0.54,0.44,0
0.2648,0.024321,0.4794,-1.1769,-0.46938,-0.97329,-0.039343,0,0,-0.26475,0.65509,0,-0.10229,0,0,1.1568,0.018814,0,1.1569,-0.4672,-1.1791,-0.97329,-86.827,-0.87321,0.63457,0.0086196,0.56,0.44,0
0.25917,0.021551,0.4562,-1.1737,-0.45277,-0.94412,-0.026681,0,0,-0.29838,0.63875,0,-0.06937,0,0,1.1621,0.0076566,0,1.1621,-0.45179,-1.1746,-0.94412,-87.883,-0.85685,0.63955,0.0077893,0.58,0.44,0
0.25286,0.019243,0.43291,-1.1725,-0.43989,-0.91663,-0.01847,0,0,-0.33263,0.61976,0,-0.048022,0,0,1.1657,0.00058982,0,1.1657,-0.43942,-1.173,-0.91663,-88.557,-0.843,0.64479,0.0067977,0.6,0.44,0
0.24586,0.017286,0.40957,-1.1732,-0.42837,-0.89004,-0.012741,0,0,-0.3681,0.60016,0,-0.033126,0,0,1.1682,-0.0040265,0,1.1682,-0.42816,-1.1734,-0.89004,-89.02,-0.83054,0.65155,0.0056921,0.62,0.44,0
0.23814,0.015637,0.38618,-1.1751,-0.4172,-0.86387,-0.0084154,0,0,-0.4046,0.58068,0,-0.02188,0,0,1.1699,-0.0070833,0,1.1699,-0.4171,-1.1752,-0.86387,-89.364,-0.81873,0.66001,0.0044817,0.64,0.44,0
0.22968,0.014266,0.36277,-1.1778,-0.406,-0.83791,-0.0050079,0,0,-0.44183,0.56148,0,-0.01302,0,0,1.1709,-0.0091302,0,1.1709,-0.40597,-1.1778,-0.83791,-89.628,-0.80723,0.67002,0.0031629,0.66,0.44,0
0.22047,0.013153,0.33935,-1.1809,-0.3947,-0.81202,-0.0022003,0,0,-0.47951,0.54252,0,-0.0057209,0,0,1.1713,-0.010545,0,1.1713,-0.3947,-1.1809,-0.81202,-89.84,-0.79587,0.68129,0.0017302,0.68,0.44,0
0.2105,0.012282,0.31592,-1.1841,-0.38331,-0.78615,0.00024787,0,0,-0.51736,0.52369,0,0.00064446,0,0,1.1712,-0.011614,0,1.1713,-0.38331,-1.1841,-0.78615,89.982,-0.78453,0.69352,0.00018053,0.7,0.44,0
0.19977,0.011638,0.2925,-1.1873,-0.37189,-0.76025,0.0025411,0,0,-0.55514,0.50487,0,0.0066068,0,0,1.1706,-0.012578,0,1.1707,-0.37189,-1.1873,-0.76025,89.821,-0.77314,0.70643,-0.0014852,0.72,0.44,0
0.18829,0.011208,0.2691,-1.1902,-0.36052,-0.73431,0.0048622,0,0,-0.59264,0.48592,0,0.012642,0,0,1.1695,-0.013664,0,1.1696,-0.3605,-1.1902,-0.73431,89.664,-0.76168,0.71973,-0.003262,0.74,0.44,0
0.17607,0.01098,0.24572,-1.1927,-0.34931,-0.70832,0.0073878,0,0,-0.62966,0.46671,0,0.019208,0,0,1.1678,-0.015113,0,1.1679,-0.34925,-1.1927,-0.70832,89.498,-0.7501,0.73317,-0.0051405,0.76,0.44,0
0.16311,0.010947,0.22238,-1.1946,-0.33841,-0.68227,0.010317,0,0,-0.66596,0.44703,0,0.026825,0,0,1.1653,-0.017213,0,1.1655,-0.33828,-1.1947,-0.68227,89.31,-0.73841,0.74642,-0.0071061,0.78,0.44,0
0.14943,0.011101,0.19911,-1.1956,-0.32808,-0.65622,0.013942,0,0,-0.70124,0.42658,0,0.036248,0,0,1.162,-0.020346,0,1.1622,-0.32785,-1.1959,-0.65622,89.08,-0.72664,0.7591,-0.0091368,0.8,0.44,0
0.13506,0.011446,0.17591,-1.1957,-0.31882,-0.63025,0.018783,0,0,-0.73504,0.40487,0,0.048836,0,0,1.1574,-0.025091,0,1.1577,-0.31841,-1.1961,-0.63025,88.773,-0.71491,0.77061,-0.011199,0.82,0.44,0
0.12003,0.012001,0.15281,-1.1942,-0.31155,-0.60455,0.025968,0,0,-0.7666,0.38089,0,0.067517,0,0,1.1513,-0.032423,0,1.1518,-0.31079,-1.195,-0.60455,88.316,-0.70345,0.77999,-0.013236,0.84,0.44,0
0.10439,0.012828,0.12985,-1.1899,-0.30777,-0.57916,0.037506,0,0,-0.79399,0.35281,0,0.097516,0,0,1.143,-0.044256,0,1.1438,-0.30618,-1.1915,-0.57916,87.57,-0.69228,0.78528,-0.015119,0.86,0.44,0
0.088266,0.014008,0.10709,-1.1767,-0.3098,-0.55305,0.058894,0,0,-0.81078,0.31622,0,0.15312,0,0,1.1327,-0.065087,0,1.1345,-0.30582,-1.1807,-0.55305,86.131,-0.67986,0.78118,-0.016471,0.88,0.44,0
0.071961,0.015825,0.084543,-1.1028,-0.30407,-0.5066,0.082526,0,0,-0.77506,0.2633,0,0.21457,0,0,1.0848,-0.10756,0,1.089,-0.29563,-1.1112,-0.5066,84.162,-0.63783,0.73325,-0.01474,0.9,0.44,0
0.057264,0.016542,0.063697,-1.0663,-0.38971,-0.5005,0.10772,0,0,-0.73556,0.14404,0,0.28006,0,0,0.98477,-0.24046,0,1.0185,-0.37297,-1.0831,-0.5005,81.169,-0.65218,0.65568,-0.012651,0.92,0.44,0
0.042539,0.015324,0.045153,-0.99634,-0.32009,-0.44008,0.07414,0,0,-0.72314,0.15599,0,0.19276,0,0,0.8632,-0.16981,0,0.88058,-0.31205,-1.0044,-0.44008,83.816,-0.5855,0.63802,-0.011549,0.94,0.44,0
0.028338,0.014819,0.02917,-0.93598,-0.27503,-0.39247,0.056492,0,0,-0.70656,0.15268,0,0.14688,0,0,0.7701,-0.094443,0,0.77576,-0.27023,-0.94077,-0.39247,85.15,-0.53449,0.61854,-0.010572,0.96,0.44,0
0.014277,0.014773,0.014349,-0.90317,-0.243,-0.3582,0.030868,0,0,-0.70846,0.14976,0,0.080256,0,0,0.72924,-0.041612,0,0.73023,-0.24156,-0.90461,-0.3582,87.329,-0.50146,0.61311,-0.010407,0.98,0.44,0
0,0.014816,0,-0.87485,-0.21097,-0.32575,0.00081707,0,0,-0.71383,0.14921,0,0.0021244,0,0,0.71744,-1.9082e-17,0,0.71722,-0.21097,-0.87485,-0.32575,89.93,-0.47052,0.61458,-0.010535,1,0.44,0
0,0.037101,1,-0.75722,-1.6453,-1.7208,-0.0021412,0,0,1.2526,0.098101,0,-0.005567,0,0,0.65797,-3.5735e-16,0,0.65779,-0.75721,-1.6453,-1.7208,-0.13814,-1.3744,0.92811,0.040147,0,0.46,0
0.025052,0.03699,0.98684,-0.74654,-1.6128,-1.6946,-0.0057345,0,0,1.2325,0.10641,0,-0.01491,0,0,0.66245,0.037967,0,0.66334,-0.7465,-1.6128,-1.6946,-0.37928,-1.3513,0.90999,0.037648,0.02,0.46,0
0.049301,0.036477,0.9735,-0.7641,-1.575,-1.6752,-0.019083,0,0,1.1845,0.13035,0,-0.049615,0,0,0.67739,0.08021,0,0.68191,-0.76365,-1.5754,-1.6752,-1.3474,-1.3381,0.86598,0.031864,0.04,0.46,0
0.07243,0.035115,0.95974,-0.78743,-1.5242,-1.6532,-0.05119,0,0,1.1255,0.16776,0,-0.13309,0,0,0.71088,0.13155,0,0.72274,-0.78389,-1.5277,-1.6532,-3.9556,-1.3216,0.81387,0.025482,0.06,0.46,0
0.094322,0.031624,0.94507,-0.84925,-1.4836,-1.6449,-0.11639,0,0,1.0344,0.20968,0,-0.30262,0,0,0.78697,0.19825,0,0.8121,-0.82856,-1.5043,-1.6449,-10.075,-1.3259,0.75594,0.019624,0.08,0.46,0
0.11381,0.024078,0.92827,-0.92403,-1.3148,-1.5999,-0.20764,0,0,0.87866,0.37064,0,-0.53986,0,0,0.8861,0.25223,0,0.92477,-0.8343,-1.4045,-1.5999,-23.37,-1.2796,0.68902,0.012358,0.1,0.46,0
0.12947,0.012375,0.90962,-0.92794,-0.85094,-1.4433,-0.16813,0,0,0.66995,0.77005,0,-0.43714,0,0,0.96482,0.11551,0,0.97037,-0.71696,-1.0619,-1.4433,-51.448,-1.0741,0.62928,-0.0011092,0.12,0.46,0
0.1406,0.0036363,0.88967,-1.0153,-0.78955,-1.4311,-0.091424,0,0,0.5406,0.83405,0,-0.2377,0,0,0.99731,0.063221,0,0.99915,-0.75716,-1.0477,-1.4311,-70.496,-1.0787,0.58551,-0.0024347,0.14,0.46,0
0.15109,-0.00098844,0.86973,-0.99758,-0.73384,-1.3892,-0.040046,0,0,0.50905,0.85191,0,-0.10412,0,0,0.99845,0.030734,0,0.99885,-0.7279,-1.0035,-1.3892,-81.554,-1.0402,0.5753,-0.0027706,0.16,0.46,0
0.16097,-0.0035699,0.84974,-0.99057,-0.70278,-1.3577,-0.015932,0,0,0.47733,0.85145,0,-0.041424,0,0,1.001,0.0063163,0,1.001,-0.7019,-0.99144,-1.3577,-86.841,-1.017,0.56927,-0.0019045,0.18,0.46,0
0.17019,-0.0048258,0.82969,-0.98993,-0.68347,-1.3317,-0.00084338,0,0,0.44432,0.84271,0,-0.0021928,0,0,1.0038,-0.014762,0,1.0039,-0.68346,-0.98993,-1.3317,-89.842,-1.0017,0.56167,-0.00085715,0.2,0.46,0
0.17874,-0.0051505,0.80958,-0.99265,-0.67164,-1.3089,0.010937,0,0,0.41109,0.8284,0,0.028438,0,0,1.0073,-0.035053,0,1.0079,-0.67127,-0.99302,-1.3089,88.051,-0.99105,0.55219,0.00013854,0.22,0.46,0
0.18663,-0.0046608,0.7894,-0.9977,-0.66607,-1.2885,0.023403,0,0,0.37808,0.8092,0,0.060847,0,0,1.012,-0.056525,0,1.0135,-0.66442,-0.99934,-1.2885,85.983,-0.9841,0.54097,0.0010286,0.24,0.46,0
0.19386,-0.0032655,0.7691,-1.0063,-0.66794,-1.2714,0.040596,0,0,0.34463,0.78445,0,0.10555,0,0,1.0189,-0.081353,0,1.022,-0.66314,-1.0111,-1.2714,83.253,-0.98186,0.52856,0.001869,0.26,0.46,0
0.20041,-0.00061627,0.74864,-1.0212,-0.68081,-1.2592,0.068213,0,0,0.30948,0.75196,0,0.17736,0,0,1.0293,-0.1128,0,1.0354,-0.66765,-1.0343,-1.2592,79.079,-0.98707,0.51722,0.0028491,0.28,0.46,0
0.20624,0.0039025,0.72793,-1.0444,-0.71437,-1.2556,0.12238,0,0,0.27447,0.70357,0,0.31818,0,0,1.0478,-0.15726,0,1.0592,-0.67395,-1.0849,-1.2556,71.721,-1.0048,0.51783,0.0046063,0.3,0.46,0
0.21139,0.011974,0.70673,-0.96872,-0.74809,-1.2218,0.19773,0,0,0.32897,0.61579,0,0.5141,0,0,1.0357,-0.2309,0,1.0591,-0.63199,-1.0848,-1.2218,59.579,-0.97953,0.53464,0.0061467,0.32,0.46,0
0.2194,0.021949,0.6865,-0.97559,-1.12,-1.3152,0.24595,0,0,0.44148,0.25372,0,0.63946,0,0,0.97056,-0.42508,0,1.0617,-0.79147,-1.3041,-1.3152,36.818,-1.1369,0.51827,0.007139,0.34,0.46,0
0.22905,0.02792,0.66791,-0.91365,-1.18,-1.296,0.18277,0,0,0.49705,0.15083,0,0.47521,0,0,0.87999,-0.40051,0,0.96739,-0.82068,-1.273,-1.296,26.962,-1.1299,0.46423,0.0050955,0.36,0.46,0
0.23928,0.031385,0.6513,-0.87428,-1.1551,-1.2601,0.15293,0,0,0.50158,0.13655,0,0.39761,0,0,0.81818,-0.34262,0,0.88668,-0.80707,-1.2223,-1.2601,23.723,-1.0965,0.43535,0.0041301,0.38,0.46,0
0.24912,0.034378,0.63518,-0.87703,-1.1291,-1.237,0.15033,0,0,0.46801,0.14026,0,0.39086,0,0,0.81311,-0.28744,0,0.86211,-0.8069,-1.1993,-1.237,25.01,-1.0811,0.41255,0.0035046,0.4,0.46,0
0.258,0.037949,0.61878,-0.89648,-1.0594,-1.2055,0.1541,0,0,0.40178,0.19001,0,0.40066,0,0,0.83509,-0.22448,0,0.86442,-0.80363,-1.1522,-1.2055,31.071,-1.0538,0.37809,0.0025908,0.42,0.46,0
0.26519,0.041936,0.60178,-0.93012,-0.9471,-1.1649,0.13719,0,0,0.30528,0.2832,0,0.3567,0,0,0.86933,-0.14938,0,0.88169,-0.80115,-1.0761,-1.1649,43.229,-1.014,0.3285,0.0013812,0.44,0.46,0
0.27021,0.045345,0.58401,-0.97585,-0.84062,-1.1289,0.09325,0,0,0.19902,0.37483,0,0.24245,0,0,0.91388,-0.068499,0,0.91618,-0.79305,-1.0234,-1.1289,62.974,-0.98181,0.29752,0.00080141,0.46,0.46,0
0.27315,0.047184,0.56522,-1.0218,-0.75893,-1.0994,0.031664,0,0,0.10097,0.44265,0,0.082328,0,0,0.96939,0.005835,0,0.96971,-0.75517,-1.0255,-1.0994,83.227,-0.96004,0.3139,0.0012966,0.48,0.46,0
0.27425,0.046769,0.54523,-1.0739,-0.69532,-1.076,-0.024226,0,0,0.0026888,0.4949,0,-0.062987,0,0,1.031,0.041216,0,1.0323,-0.69378,-1.0755,-1.076,-86.354,-0.94842,0.38197,0.0028623,0.5,0.46,0
0.27326,0.044197,0.52398,-1.1076,-0.58837,-1.0328,-0.057634,0,0,-0.097256,0.57772,0,-0.14985,0,0,1.0856,0.043628,0,1.0867,-0.58205,-1.1139,-1.0328,-83.742,-0.90958,0.49628,0.0057164,0.52,0.46,0
0.27036,0.040694,0.50181,-1.1378,-0.51094,-0.99643,-0.051236,0,0,-0.18377,0.63113,0,-0.13322,0,0,1.1227,0.022947,0,1.1229,-0.50678,-1.142,-0.99643,-85.358,-0.88172,0.57635,0.0077602,0.54,0.46,0
0.2659,0.037256,0.47908,-1.1619,-0.48165,-0.97212,-0.036748,0,0,-0.24664,0.63762,0,-0.095544,0,0,1.1432,0.010104,0,1.1432,-0.47967,-1.1638,-0.97212,-86.917,-0.87187,0.61128,0.0079593,0.56,0.46,0
0.2605,0.034245,0.45608,-1.1688,-0.46144,-0.94516,-0.024082,0,0,-0.29075,0.62883,0,-0.062615,0,0,1.1537,0.0019061,0,1.1537,-0.46062,-1.1696,-0.94516,-88.052,-0.85847,0.62764,0.0074408,0.58,0.46,0
0.25427,0.031592,0.43293,-1.1729,-0.44632,-0.9187,-0.015211,0,0,-0.33049,0.6141,0,-0.03955,0,0,1.1604,-0.0033404,0,1.1604,-0.446,-1.1732,-0.9187,-88.801,-0.84598,0.63919,0.0066001,0.6,0.46,0
0.24728,0.029267,0.40967,-1.1766,-0.43318,-0.89261,-0.0087279,0,0,-0.36922,0.59725,0,-0.022693,0,0,1.1647,-0.0066911,0,1.1648,-0.43308,-1.1767,-0.89261,-89.328,-0.83414,0.64996,0.0055703,0.62,0.46,0
0.23951,0.027243,0.38634,-1.1804,-0.42085,-0.86672,-0.0039385,0,0,-0.40782,0.57963,0,-0.01024,0,0,1.1676,-0.0087971,0,1.1677,-0.42083,-1.1804,-0.86672,-89.703,-0.82267,0.66116,0.0043915,0.64,0.46,0
0.23096,0.025497,0.36296,-1.1843,-0.40886,-0.84089,-0.00033597,0,0,-0.44636,0.56165,0,-0.00087353,0,0,1.1694,-0.010086,0,1.1695,-0.40886,-1.1843,-0.84089,-89.975,-0.81133,0.67297,0.0030763,0.66,0.46,0
0.22165,0.024011,0.33956,-1.1879,-0.39703,-0.81503,0.0024368,0,0,-0.48471,0.54341,0,0.0063357,0,0,1.1703,-0.010858,0,1.1704,-0.39702,-1.1879,-0.81503,89.823,-0.79998,0.68529,0.0016314,0.68,0.46,0
0.21158,0.022765,0.31615,-1.1912,-0.38533,-0.7891,0.0046643,0,0,-0.52269,0.5249,0,0.012127,0,0,1.1704,-0.011338,0,1.1705,-0.38531,-1.1912,-0.7891,89.668,-0.78854,0.69792,6.3701e-05,0.7,0.46,0
0.20074,0.021743,0.29274,-1.194,-0.3738,-0.76307,0.0065792,0,0,-0.56016,0.50605,0,0.017106,0,0,1.1699,-0.011712,0,1.1699,-0.37375,-1.194,-0.76307,89.54,-0.77695,0.71067,-0.0016175,0.72,0.46,0
0.18917,0.02093,0.26936,-1.1961,-0.36249,-0.73694,0.0083757,0,0,-0.59693,0.48678,0,0.021777,0,0,1.1685,-0.012154,0,1.1686,-0.36241,-1.1962,-0.73694,89.424,-0.76518,0.72333,-0.0033997,0.74,0.46,0
0.17687,0.020312,0.246,-1.1975,-0.35148,-0.71069,0.01022,0,0,-0.63283,0.46697,0,0.026572,0,0,1.1664,-0.012843,0,1.1664,-0.35136,-1.1976,-0.71069,89.308,-0.75322,0.73565,-0.0052659,0.76,0.46,0
0.16386,0.019875,0.2227,-1.1979,-0.34094,-0.68434,0.012268,0,0,-0.66757,0.44642,0,0.031896,0,0,1.1632,-0.013992,0,1.1633,-0.34076,-1.198,-0.68434,89.18,-0.74104,0.74727,-0.007192,0.78,0.46,0
0.15016,0.019606,0.19948,-1.1968,-0.33116,-0.65787,0.014694,0,0,-0.70064,0.42472,0,0.038204,0,0,1.1586,-0.015886,0,1.1587,-0.33091,-1.1971,-0.65787,89.028,-0.72862,0.75759,-0.0091392,0.8,0.46,0
0.13583,0.019494,0.17636,-1.1936,-0.32274,-0.63126,0.017764,0,0,-0.73104,0.40107,0,0.046186,0,0,1.1521,-0.01894,0,1.1523,-0.32238,-1.194,-0.63126,88.832,-0.71586,0.7654,-0.011036,0.82,0.46,0
0.12092,0.019529,0.15339,-1.1862,-0.31676,-0.60428,0.021868,0,0,-0.7565,0.37377,0,0.056856,0,0,1.1427,-0.023827,0,1.143,-0.31621,-1.1867,-0.60428,88.56,-0.70241,0.76814,-0.012727,0.84,0.46,0
0.10557,0.0197,0.13065,-1.1704,-0.31541,-0.57641,0.027693,0,0,-0.77226,0.3393,0,0.072001,0,0,1.1283,-0.031758,0,1.1288,-0.31451,-1.1713,-0.57641,88.147,-0.68742,0.7605,-0.013891,0.86,0.46,0
0.090031,0.02,0.10826,-1.1354,-0.32088,-0.54515,0.033506,0,0,-0.76737,0.29155,0,0.087114,0,0,1.1012,-0.045037,0,1.1021,-0.31951,-1.1368,-0.54515,87.648,-0.66716,0.73109,-0.013812,0.88,0.46,0
0.074875,0.020123,0.086599,-1.0984,-0.35458,-0.52248,0.03521,0,0,-0.74866,0.21828,0,0.091546,0,0,1.0518,-0.06913,0,1.0545,-0.35291,-1.1,-0.52248,87.296,-0.65848,0.67842,-0.012722,0.9,0.46,0
0.060085,0.019704,0.066186,-1.0567,-0.36285,-0.49205,0.023558,0,0,-0.73404,0.16796,0,0.061252,0,0,0.97714,-0.078005,0,0.98133,-0.36205,-1.0575,-0.49205,88.058,-0.6372,0.64042,-0.011639,0.92,0.46,0
0.045513,0.018893,0.047513,-1.0087,-0.30591,-0.44189,0.021601,0,0,-0.73683,0.17678,0,0.056163,0,0,0.89033,-0.067515,0,0.89425,-0.30524,-1.0093,-0.44189,88.241,-0.58549,0.6467,-0.011827,0.94,0.46,0
0.030612,0.018403,0.030572,-0.97914,-0.25776,-0.40164,0.021692,0,0,-0.75075,0.18705,0,0.056399,0,0,0.81386,-0.037256,0,0.81527,-0.25711,-0.97979,-0.40164,88.279,-0.54618,0.66235,-0.012562,0.96,0.46,0
0.015483,0.018357,0.014959,-0.95663,-0.21996,-0.36794,0.013755,0,0,-0.7653,0.19237,0,0.035763,0,0,0.76431,-0.014325,0,0.76454,-0.21971,-0.95688,-0.36794,88.931,-0.51484,0.67538,-0.013289,0.98,0.46,0
0,0.018393,0,-0.93106,-0.18743,-0.33555,0.00070484,0,0,-0.77416,0.19255,0,0.0018326,0,0,0.74795,2.2768e-18,0,0.7479,-0.18743,-0.93106,-0.33555,89.946,-0.48468,0.68174,-0.01372,1,0.46,0
0,0.039074,1,-0.74955,-1.6488,-1.7195,0.0015697,0,0,1.2609,0.091937,0,0.0040813,0,0,0.69184,2.1424e-16,0,0.69174,-0.74955,-1.6488,-1.7195,0.10002,-1.3726,0.9366,0.041387,0,0.48,0
0.025219,0.039156,0.98616,-0.73785,-1.6114,-1.6909,0.0063624,0,0,1.239,0.10338,0,0.016542,0,0,0.69789,0.028103,0,0.69838,-0.73781,-1.6115,-1.6909,0.41726,-1.3467,0.91599,0.038472,0.02,0.48,0
0.049561,0.039221,0.97208,-0.75315,-1.5605,-1.6662,0.0038054,0,0,1.1869,0.1374,0,0.0098941,0,0,0.71725,0.058486,0,0.71961,-0.75313,-1.5605,-1.6662,0.27006,-1.3266,0.86506,0.031581,0.04,0.48,0
0.072696,0.0387,0.95747,-0.78185,-1.4925,-1.6398,-0.016558,0,0,1.1153,0.1915,0,-0.043051,0,0,0.75364,0.091844,0,0.75941,-0.78147,-1.4928,-1.6398,-1.3341,-1.3047,0.79508,0.022871,0.06,0.48,0
0.094172,0.036659,0.94194,-0.82773,-1.3953,-1.6088,-0.061893,0,0,1.0154,0.27761,0,-0.16092,0,0,0.80662,0.12129,0,0.81638,-0.82106,-1.402,-1.6088,-6.1517,-1.2773,0.70741,0.013077,0.08,0.48,0
0.11331,0.03217,0.92521,-0.89127,-1.2328,-1.5624,-0.11137,0,0,0.87251,0.4285,0,-0.28957,0,0,0.86711,0.1201,0,0.87597,-0.85816,-1.2659,-1.5624,-16.556,-1.2288,0.61245,0.0031796,0.1,0.48,0
0.12907,0.025844,0.90725,-0.93514,-0.98233,-1.4825,-0.12294,0,0,0.71157,0.65021,0,-0.31965,0,0,0.91926,0.094504,0,0.9243,-0.83355,-1.0839,-1.4825,-39.568,-1.1333,0.56687,-0.0035852,0.12,0.48,0
0.14178,0.020011,0.88844,-0.98065,-0.82425,-1.4299,-0.082087,0,0,0.58404,0.78735,0,-0.21343,0,0,0.95292,0.053844,0,0.95436,-0.78908,-1.0158,-1.4299,-66.805,-1.0783,0.56282,-0.0044031,0.14,0.48,0
0.15243,0.015908,0.86914,-1.0076,-0.75952,-1.3993,-0.042775,0,0,0.50913,0.83169,0,-0.11122,0,0,0.97006,0.025182,0,0.97034,-0.75236,-1.0148,-1.3993,-80.488,-1.0555,0.56357,-0.002939,0.16,0.48,0
0.16214,0.013424,0.84964,-1.0082,-0.71983,-1.368,-0.016048,0,0,0.46778,0.84269,0,-0.041726,0,0,0.97806,0.0023387,0,0.97802,-0.71894,-1.0091,-1.368,-86.825,-1.032,0.5632,-0.0016721,0.18,0.48,0
0.17114,0.012013,0.83001,-1.007,-0.69671,-1.3411,0.0011472,0,0,0.43437,0.83774,0,0.0029826,0,0,0.98287,-0.017973,0,0.983,-0.69671,-1.007,-1.3411,89.788,-1.015,0.55821,-0.00057165,0.2,0.48,0
0.17952,0.011402,0.81032,-1.0076,-0.68398,-1.3178,0.014854,0,0,0.40329,0.82394,0,0.038621,0,0,0.98591,-0.038025,0,0.98661,-0.6833,-1.0082,-1.3178,87.377,-1.0031,0.54953,0.00035817,0.22,0.48,0
0.18728,0.011491,0.79058,-1.0105,-0.68025,-1.2978,0.029099,0,0,0.37352,0.80281,0,0.075657,0,0,0.98787,-0.059792,0,0.98963,-0.6777,-1.013,-1.2978,85.002,-0.99617,0.53761,0.0011218,0.24,0.48,0
0.19446,0.01235,0.77081,-1.0145,-0.68728,-1.2813,0.048077,0,0,0.34687,0.77229,0,0.125,0,0,0.98895,-0.085566,0,0.99257,-0.68036,-1.0214,-1.2813,81.813,-0.99438,0.52205,0.0016907,0.26,0.48,0
0.20115,0.014216,0.75102,-1.016,-0.71061,-1.269,0.077924,0,0,0.32892,0.7259,0,0.2026,0,0,0.98869,-0.11866,0,0.99565,-0.69188,-1.0347,-1.269,76.481,-0.99854,0.50274,0.0020812,0.28,0.48,0
0.20761,0.017566,0.73126,-0.99533,-0.74493,-1.2533,0.11109,0,0,0.33541,0.66093,0,0.28883,0,0,0.98345,-0.16507,0,0.99688,-0.70275,-1.0375,-1.2533,69.209,-0.99787,0.48051,0.0020724,0.3,0.48,0
0.21481,0.022411,0.71178,-0.94061,-0.86368,-1.2531,0.1671,0,0,0.40619,0.5062,0,0.43445,0,0,0.95243,-0.23958,0,0.98181,-0.73068,-1.0736,-1.2531,51.482,-1.0191,0.45972,0.0025497,0.32,0.48,0
0.2234,0.027643,0.69294,-0.93405,-1.0594,-1.291,0.17015,0,0,0.46399,0.30109,0,0.44238,0,0,0.91678,-0.29405,0,0.96296,-0.81539,-1.178,-1.291,34.892,-1.0948,0.43037,0.0031631,0.34,0.48,0
0.23337,0.031552,0.6751,-0.8939,-1.1337,-1.2834,0.15071,0,0,0.50631,0.19464,0,0.39184,0,0,0.87228,-0.3321,0,0.93365,-0.82121,-1.2063,-1.2834,25.75,-1.1036,0.42887,0.0036148,0.36,0.48,0
0.24365,0.034274,0.65805,-0.88004,-1.1566,-1.2691,0.14376,0,0,0.50573,0.14613,0,0.37377,0,0,0.8495,-0.33391,0,0.91271,-0.81886,-1.2178,-1.2691,23.053,-1.1019,0.4269,0.0038025,0.38,0.48,0
0.2536,0.037254,0.64112,-0.89102,-1.1503,-1.2535,0.16573,0,0,0.47127,0.13414,0,0.43089,0,0,0.86123,-0.31893,0,0.91846,-0.81026,-1.2311,-1.2535,25.98,-1.0983,0.4325,0.0041175,0.4,0.48,0
0.2625,0.041909,0.6236,-0.93282,-1.0861,-1.2293,0.19653,0,0,0.38542,0.18608,0,0.51099,0,0,0.89969,-0.26726,0,0.93853,-0.79853,-1.2204,-1.2293,34.344,-1.0828,0.42641,0.0039763,0.42,0.48,0
0.26902,0.04812,0.60514,-0.96346,-0.89854,-1.1637,0.19389,0,0,0.26036,0.34475,0,0.50412,0,0,0.9443,-0.19087,0,0.96309,-0.73441,-1.1276,-1.1637,49.752,-1.0086,0.41244,0.0035102,0.44,0.48,0
0.27292,0.053607,0.58583,-1.0078,-0.76158,-1.1166,0.13271,0,0,0.1415,0.46159,0,0.34506,0,0,0.98348,-0.105,0,0.98871,-0.70367,-1.0657,-1.1166,66.425,-0.96201,0.39002,0.0028726,0.46,0.48,0
0.27468,0.056727,0.5658,-1.0502,-0.69986,-1.0908,0.066447,0,0,0.05284,0.50822,0,0.17276,0,0,1.0189,-0.046601,0,1.0199,-0.68768,-1.0623,-1.0908,79.612,-0.94694,0.38967,0.0029842,0.48,0.48,0
0.27503,0.057223,0.54508,-1.0742,-0.6433,-1.0603,0.012861,0,0,-0.018026,0.54213,0,0.03344,0,0,1.0541,-0.01207,0,1.0543,-0.64291,-1.0746,-1.0603,88.292,-0.92594,0.42471,0.0039198,0.5,0.48,0
0.27396,0.055699,0.52363,-1.0979,-0.58154,-1.0275,-0.017808,0,0,-0.091542,0.57969,0,-0.0463,0,0,1.0882,0.00094535,0,1.0883,-0.58093,-1.0985,-1.0275,-88.027,-0.90229,0.48596,0.0054719,0.52,0.48,0
0.27137,0.052975,0.50155,-1.1224,-0.52833,-0.99677,-0.027471,0,0,-0.16332,0.60897,0,-0.071425,0,0,1.116,0.001346,0,1.1161,-0.52706,-1.1237,-0.99677,-87.358,-0.8825,0.54436,0.0067915,0.54,0.48,0
0.26743,0.049826,0.47899,-1.1436,-0.4921,-0.96969,-0.023064,0,0,-0.22604,0.62087,0,-0.059965,0,0,1.1357,-0.0029496,0,1.1358,-0.49128,-1.1444,-0.96969,-87.975,-0.86845,0.58563,0.0073053,0.56,0.48,0
0.26233,0.046705,0.45612,-1.1597,-0.46979,-0.94496,-0.015097,0,0,-0.27913,0.61772,0,-0.039252,0,0,1.1487,-0.0065761,0,1.1487,-0.46946,-1.16,-0.94496,-88.747,-0.85814,0.61205,0.0070628,0.58,0.48,0
0.25626,0.043807,0.43305,-1.1704,-0.45256,-0.91993,-0.0076847,0,0,-0.3256,0.60759,0,-0.01998,0,0,1.1571,-0.0090489,0,1.1571,-0.45248,-1.1705,-0.91993,-89.387,-0.84763,0.6312,0.0063956,0.6,0.48,0
0.2493,0.041177,0.40984,-1.1786,-0.43782,-0.89477,-0.0019421,0,0,-0.36903,0.59404,0,-0.0050495,0,0,1.1627,-0.010533,0,1.1628,-0.43782,-1.1786,-0.89477,-89.85,-0.83708,0.64739,0.0054555,0.62,0.48,0
0.2415,0.038822,0.38654,-1.1854,-0.42427,-0.86942,0.0022791,0,0,-0.41072,0.57871,0,0.0059256,0,0,1.1665,-0.011289,0,1.1665,-0.42426,-1.1854,-0.86942,89.828,-0.82635,0.6623,0.0043113,0.64,0.48,0
0.23287,0.036732,0.36318,-1.1909,-0.41137,-0.84387,0.0052945,0,0,-0.45119,0.56225,0,0.013766,0,0,1.1688,-0.011538,0,1.1688,-0.41134,-1.191,-0.84387,89.611,-0.81539,0.67654,0.0029964,0.66,0.48,0
0.22345,0.03489,0.33978,-1.1955,-0.39892,-0.81811,0.0074317,0,0,-0.4906,0.54495,0,0.019322,0,0,1.17,-0.011451,0,1.1701,-0.39885,-1.1956,-0.81811,89.466,-0.80417,0.69029,0.0015326,0.68,0.48,0
0.21325,0.033278,0.31638,-1.1991,-0.38683,-0.79215,0.0089649,0,0,-0.52901,0.52691,0,0.023309,0,0,1.1704,-0.011163,0,1.1704,-0.38673,-1.1992,-0.79215,89.368,-0.79268,0.7036,-6.149e-05,0.7,0.48,0
0.20229,0.03188,0.29297,-1.2017,-0.37508,-0.766,0.010112,0,0,-0.56639,0.50819,0,0.02629,0,0,1.1698,-0.010781,0,1.1699,-0.37496,-1.2018,-0.766,89.299,-0.78092,0.71642,-0.0017678,0.72,0.48,0
0.19059,0.030679,0.26958,-1.2033,-0.36369,-0.73967,0.011039,0,0,-0.60267,0.48877,0,0.028701,0,0,1.1684,-0.010405,0,1.1684,-0.36355,-1.2034,-0.73967,89.247,-0.76887,0.72865,-0.0035665,0.74,0.48,0
0.17819,0.029659,0.24623,-1.2037,-0.35273,-0.71316,0.011868,0,0,-0.63769,0.46856,0,0.030856,0,0,1.166,-0.010132,0,1.166,-0.35257,-1.2039,-0.71316,89.201,-0.75653,0.7401,-0.0054336,0.76,0.48,0
0.16509,0.028803,0.22295,-1.2028,-0.34232,-0.68647,0.012666,0,0,-0.67119,0.4474,0,0.032931,0,0,1.1623,-0.010068,0,1.1623,-0.34213,-1.203,-0.68647,89.157,-0.74386,0.75045,-0.007338,0.78,0.48,0
0.15134,0.02809,0.19974,-1.2001,-0.33274,-0.6596,0.013417,0,0,-0.70266,0.42491,0,0.034884,0,0,1.157,-0.010339,0,1.1571,-0.33253,-1.2003,-0.6596,89.114,-0.73081,0.75908,-0.0092336,0.8,0.48,0
0.13698,0.027489,0.17666,-1.1949,-0.32453,-0.63248,0.013922,0,0,-0.73109,0.40033,0,0.036198,0,0,1.1495,-0.0111,0,1.1496,-0.32431,-1.1951,-0.63248,89.084,-0.71729,0.76477,-0.011041,0.82,0.48,0
0.12209,0.026952,0.15376,-1.1854,-0.31882,-0.60503,0.013599,0,0,-0.7545,0.37208,0,0.035358,0,0,1.1385,-0.012504,0,1.1386,-0.31861,-1.1856,-0.60503,89.101,-0.70309,0.76514,-0.012614,0.84,0.48,0
0.1068,0.026399,0.13112,-1.1685,-0.31738,-0.57689,0.01079,0,0,-0.76912,0.33737,0,0.028055,0,0,1.1218,-0.014542,0,1.1219,-0.31724,-1.1687,-0.57689,89.274,-0.6876,0.75582,-0.013676,0.86,0.48,0
0.091329,0.02567,0.10889,-1.1432,-0.32478,-0.54927,0.0023943,0,0,-0.77205,0.29184,0,0.0062251,0,0,1.0954,-0.016389,0,1.0956,-0.32477,-1.1432,-0.54927,89.832,-0.67241,0.73242,-0.013972,0.88,0.48,0
0.075919,0.024556,0.087308,-1.103,-0.33484,-0.51865,-0.012874,0,0,-0.75962,0.23896,0,-0.033473,0,0,1.0519,-0.011572,0,1.0522,-0.33462,-1.1032,-0.51865,-89.04,-0.65216,0.69507,-0.013257,0.9,0.48,0
0.060944,0.023261,0.066818,-1.0653,-0.35069,-0.49162,-0.025165,0,0,-0.74582,0.18321,0,-0.065429,0,0,0.98638,0.011071,0,0.98732,-0.34981,-1.0662,-0.49162,-87.986,-0.63588,0.65708,-0.012313,0.92,0.48,0
0.046086,0.022395,0.047853,-1.0237,-0.3202,-0.45104,-0.013272,0,0,-0.74452,0.17008,0,-0.034508,0,0,0.9187,0.014968,0,0.91987,-0.31995,-1.024,-0.45104,-88.92,-0.59833,0.64851,-0.012101,0.94,0.48,0
0.031131,0.022301,0.03066,-0.99148,-0.25478,-0.40454,-0.0021355,0,0,-0.76303,0.19469,0,-0.0055524,0,0,0.81116,0.023773,0,0.81246,-0.25477,-0.99149,-0.40454,-89.834,-0.55027,0.67443,-0.013174,0.96,0.48,0
0.015717,0.022468,0.014922,-0.96937,-0.21656,-0.3707,-0.0048995,0,0,-0.77827,0.20038,0,-0.012739,0,0,0.76649,0.020868,0,0.76692,-0.21653,-0.9694,-0.3707,-89.627,-0.51888,0.68885,-0.013994,0.98,0.48,0
0,0.022518,0,-0.94264,-0.18443,-0.33812,0.0009567,0,0,-0.78588,0.1998,0,0.0024874,0,0,0.74608,3.361e-17,0,0.74599,-0.18443,-0.94264,-0.33812,89.928,-0.4884,0.69425,-0.014387,1,0.48,0
0,0.040779,1,-0.73739,-1.665,-1.7207,0.0066604,0,0,1.2783,0.072456,0,0.017317,0,0,0.71418,-5.1651e-16,0,0.71415,-0.73735,-1.665,-1.7207,0.41138,-1.3744,0.95674,0.044465,0,0.5,0
0.025566,0.041125,0.98572,-0.72594,-1.623,-1.6904,0.018936,0,0,1.2538,0.087591,0,0.049234,0,0,0.72094,0.015584,0,0.7211,-0.72554,-1.6234,-1.6904,1.2087,-1.3465,0.93318,0.041013,0.02,0.5,0
0.050152,0.041972,0.97116,-0.74544,-1.5601,-1.6628,0.028688,0,0,1.1926,0.13354,0,0.07459,0,0,0.74113,0.03258,0,0.74193,-0.74443,-1.5611,-1.6628,2.0143,-1.3228,0.872,0.032498,0.04,0.5,0
0.07327,0.042775,0.95607,-0.77853,-1.467,-1.6297,0.020522,0,0,1.1066,0.21151,0,0.053356,0,0,0.77369,0.050048,0,0.77554,-0.77792,-1.4676,-1.6297,1.7057,-1.2918,0.78346,0.021179,0.06,0.5,0
0.094415,0.042729,0.94022,-0.82593,-1.3423,-1.5907,-0.0076518,0,0,0.99418,0.3229,0,-0.019895,0,0,0.81523,0.062343,0,0.81795,-0.82582,-1.3424,-1.5907,-0.8488,-1.253,0.67584,0.0089458,0.08,0.5,0
0.11304,0.041218,0.92346,-0.85112,-1.1748,-1.5312,-0.040412,0,0,0.88415,0.46338,0,-0.10507,0,0,0.85209,0.071742,0,0.85536,-0.84615,-1.1798,-1.5312,-7.0105,-1.1857,0.59337,-0.00048466,0.1,0.5,0
0.12884,0.038384,0.90584,-0.95828,-1.0167,-1.4983,-0.063593,0,0,0.70208,0.62611,0,-0.16534,0,0,0.90441,0.058694,0,0.90645,-0.91751,-1.0575,-1.4983,-32.661,-1.1578,0.52503,-0.0056903,0.12,0.5,0
0.142,0.03513,0.88752,-0.9694,-0.86688,-1.4384,-0.055914,0,0,0.60971,0.74298,0,-0.14538,0,0,0.92798,0.034422,0,0.92866,-0.84229,-0.99399,-1.4384,-66.256,-1.0916,0.5366,-0.0058489,0.14,0.5,0
0.15323,0.032279,0.86872,-0.99443,-0.78293,-1.4019,-0.035883,0,0,0.52975,0.8047,0,-0.093296,0,0,0.94694,0.014436,0,0.94704,-0.77701,-1.0004,-1.4019,-80.629,-1.0598,0.54849,-0.0039854,0.16,0.5,0
0.16319,0.030138,0.84964,-1.0051,-0.73732,-1.3724,-0.015575,0,0,0.47743,0.82557,0,-0.040495,0,0,0.95785,-0.0038551,0,0.95783,-0.73642,-1.006,-1.3724,-86.683,-1.0383,0.55288,-0.0022548,0.18,0.5,0
0.17233,0.028684,0.83041,-1.0071,-0.71089,-1.3458,0.0018577,0,0,0.44031,0.82539,0,0.0048301,0,0,0.96346,-0.021368,0,0.96367,-0.71088,-1.0071,-1.3458,89.641,-1.0213,0.55027,-0.00098835,0.2,0.5,0
0.1808,0.027807,0.8111,-1.0076,-0.69731,-1.3226,0.017254,0,0,0.40951,0.81283,0,0.044859,0,0,0.9655,-0.039379,0,0.96627,-0.69635,-1.0085,-1.3226,86.827,-1.0091,0.54232,-4.2695e-05,0.22,0.5,0
0.18871,0.027452,0.79179,-1.0077,-0.69483,-1.3026,0.032679,0,0,0.3833,0.79004,0,0.084966,0,0,0.96445,-0.059349,0,0.96624,-0.69145,-1.0111,-1.3026,84.1,-1.0017,0.52941,0.00060746,0.24,0.5,0
0.19614,0.027626,0.77253,-1.0053,-0.70625,-1.286,0.050568,0,0,0.36485,0.75368,0,0.13148,0,0,0.95998,-0.083086,0,0.96351,-0.69794,-1.0137,-1.286,80.659,-0.9992,0.50975,0.00086661,0.26,0.5,0
0.2033,0.02842,0.75339,-0.9939,-0.73819,-1.273,0.073066,0,0,0.36285,0.69527,0,0.18997,0,0,0.95045,-0.11297,0,0.95705,-0.71878,-1.0133,-1.273,75.126,-1.0017,0.48029,0.00061749,0.28,0.5,0
0.21065,0.029894,0.73451,-0.98241,-0.81734,-1.2744,0.10038,0,0,0.37964,0.59421,0,0.26098,0,0,0.93678,-0.14827,0,0.94835,-0.76993,-1.0298,-1.2744,64.714,-1.0247,0.43698,0.00022483,0.3,0.5,0
0.21873,0.03191,0.71606,-0.92915,-0.91468,-1.2692,0.12273,0,0,0.44209,0.46089,0,0.31909,0,0,0.90066,-0.19204,0,0.92088,-0.79897,-1.0449,-1.2692,46.687,-1.0377,0.40738,0.00027483,0.32,0.5,0
0.22795,0.033992,0.69827,-0.91085,-1.0391,-1.2833,0.1299,0,0,0.48411,0.31741,0,0.33775,0,0,0.87175,-0.24519,0,0.90563,-0.8301,-1.1198,-1.2833,31.865,-1.0777,0.39748,0.0014857,0.34,0.5,0
0.2381,0.035706,0.68119,-0.89103,-1.1275,-1.2867,0.13275,0,0,0.51442,0.20707,0,0.34514,0,0,0.84013,-0.2877,0,0.88801,-0.83149,-1.187,-1.2867,24.157,-1.1017,0.41448,0.0029553,0.36,0.5,0
0.24853,0.03723,0.66466,-0.88536,-1.1722,-1.2819,0.14951,0,0,0.51552,0.14269,0,0.38873,0,0,0.83135,-0.32772,0,0.89337,-0.8216,-1.2359,-1.2819,23.098,-1.1132,0.43913,0.0041888,0.38,0.5,0
0.25872,0.039743,0.64794,-0.92201,-1.2124,-1.2883,0.19632,0,0,0.47614,0.098602,0,0.51044,0,0,0.87975,-0.37428,0,0.95635,-0.82303,-1.3114,-1.2883,26.756,-1.1409,0.47723,0.0055379,0.4,0.5,0
0.26758,0.045393,0.62947,-0.98601,-1.16,-1.2733,0.27722,0,0,0.37345,0.14725,0,0.72079,0,0,0.96315,-0.39373,0,1.0426,-0.78245,-1.3636,-1.2733,36.289,-1.1398,0.54164,0.0074026,0.42,0.5,0
0.27365,0.055726,0.60942,-0.97861,-0.75408,-1.1292,0.2324,0,0,0.19579,0.48769,0,0.60424,0,0,1.0316,-0.199,0,1.0485,-0.60825,-1.1244,-1.1292,57.892,-0.95397,0.5186,0.0071613,0.44,0.5,0
0.27541,0.063809,0.58821,-1.0631,-0.71391,-1.1213,0.16565,0,0,0.075687,0.52961,0,0.4307,0,0,1.0589,-0.11933,0,1.0652,-0.64783,-1.1292,-1.1213,68.252,-0.9661,0.47746,0.0055851,0.46,0.5,0
0.27644,0.067513,0.56709,-1.0684,-0.66191,-1.0862,0.069441,0,0,0.023097,0.55156,0,0.18055,0,0,1.0644,-0.069424,0,1.0666,-0.65037,-1.0799,-1.0862,80.569,-0.93884,0.43273,0.0041589,0.48,0.5,0
0.27662,0.068454,0.54571,-1.0505,-0.60582,-1.0426,0.040962,0,0,-0.010226,0.56781,0,0.1065,0,0,1.0753,-0.039151,0,1.076,-0.60208,-1.0542,-1.0426,84.78,-0.89963,0.44644,0.0045595,0.5,0.5,0
0.27565,0.067385,0.52395,-1.0953,-0.57367,-1.0246,0.0039196,0,0,-0.091887,0.58627,0,0.010191,0,0,1.1025,-0.023153,0,1.1028,-0.57364,-1.0954,-1.0246,89.57,-0.89788,0.4902,0.0056278,0.52,0.5,0
0.27338,0.065052,0.50175,-1.0895,-0.52139,-0.98502,-0.0015615,0,0,-0.13582,0.60273,0,-0.0040599,0,0,1.1157,-0.016637,0,1.1159,-0.52138,-1.0895,-0.98502,-89.843,-0.8653,0.52376,0.0064006,0.54,0.5,0
0.26978,0.062091,0.47919,-1.143,-0.50286,-0.97296,-0.005841,0,0,-0.22108,0.61113,0,-0.015187,0,0,1.1376,-0.014849,0,1.1378,-0.5028,-1.1431,-0.97296,-89.477,-0.87294,0.57443,0.0069335,0.56,0.5,0
0.26494,0.058954,0.45635,-1.1386,-0.46876,-0.93856,-0.002362,0,0,-0.26008,0.61074,0,-0.0061411,0,0,1.1459,-0.014662,0,1.146,-0.46876,-1.1386,-0.93856,-89.798,-0.84865,0.5956,0.0068676,0.58,0.5,0
0.259,0.055895,0.43329,-1.1799,-0.46126,-0.92563,0.0026218,0,0,-0.33051,0.60367,0,0.0068167,0,0,1.1576,-0.014583,0,1.1577,-0.46125,-1.1799,-0.92563,89.791,-0.85559,0.63115,0.0062104,0.6,0.5,0
0.25206,0.053028,0.41009,-1.1715,-0.43664,-0.89253,0.0048155,0,0,-0.36267,0.59266,0,0.01252,0,0,1.1617,-0.014289,0,1.1618,-0.43661,-1.1715,-0.89253,89.625,-0.83356,0.64259,0.0054859,0.62,0.5,0
0.24419,0.050391,0.38679,-1.2017,-0.43116,-0.87665,0.0088833,0,0,-0.42256,0.57913,0,0.023096,0,0,1.1672,-0.013746,0,1.1672,-0.43106,-1.2018,-0.87665,89.34,-0.8365,0.67019,0.0041225,0.64,0.5,0
0.23545,0.047987,0.36342,-1.1991,-0.41289,-0.84703,0.012065,0,0,-0.45774,0.56439,0,0.03137,0,0,1.1692,-0.013312,0,1.1693,-0.4127,-1.1993,-0.84703,89.121,-0.81969,0.68247,0.0029295,0.66,0.5,0
0.22588,0.045809,0.34002,-1.2046,-0.39989,-0.82138,0.012903,0,0,-0.49823,0.54793,0,0.033548,0,0,1.1707,-0.012238,0,1.1707,-0.39969,-1.2048,-0.82138,89.082,-0.80863,0.69754,0.0014316,0.68,0.5,0
0.21552,0.043842,0.3166,-1.2085,-0.38742,-0.79538,0.013265,0,0,-0.53709,0.53035,0,0.034488,0,0,1.1711,-0.011076,0,1.1712,-0.38721,-1.2087,-0.79538,89.075,-0.79711,0.71148,-0.00020231,0.7,0.5,0
0.20439,0.042071,0.29318,-1.211,-0.37541,-0.76911,0.013276,0,0,-0.5745,0.5118,0,0.034518,0,0,1.1706,-0.0098452,0,1.1707,-0.3752,-1.2112,-0.76911,89.09,-0.78518,0.72443,-0.0019469,0.72,0.5,0
0.19254,0.040481,0.26977,-1.2122,-0.36385,-0.74257,0.013021,0,0,-0.61046,0.49234,0,0.033855,0,0,1.1692,-0.0085583,0,1.1692,-0.36365,-1.2124,-0.74257,89.121,-0.77286,0.7364,-0.0037765,0.74,0.5,0
0.17998,0.039054,0.24641,-1.2119,-0.35275,-0.71579,0.012538,0,0,-0.64488,0.47195,0,0.032598,0,0,1.1667,-0.007219,0,1.1667,-0.35257,-1.212,-0.71579,89.164,-0.76013,0.74729,-0.0056627,0.76,0.5,0
0.16674,0.037771,0.2231,-1.21,-0.34222,-0.68876,0.011795,0,0,-0.67756,0.4505,0,0.030666,0,0,1.163,-0.0058167,0,1.163,-0.34206,-1.2101,-0.68876,89.221,-0.74698,0.75682,-0.0075705,0.78,0.5,0
0.15287,0.036603,0.19989,-1.2062,-0.33243,-0.66148,0.010628,0,0,-0.70816,0.42777,0,0.027633,0,0,1.1576,-0.0043124,0,1.1576,-0.3323,-1.2064,-0.66148,89.303,-0.73338,0.76459,-0.0094562,0.8,0.5,0
0.13842,0.035507,0.1768,-1.2003,-0.32378,-0.63404,0.008594,0,0,-0.73618,0.40333,0,0.022344,0,0,1.15,-0.0026001,0,1.15,-0.3237,-1.2004,-0.63404,89.438,-0.71938,0.76998,-0.011264,0.82,0.5,0
0.12343,0.034412,0.15389,-1.192,-0.317,-0.60659,0.0046564,0,0,-0.76104,0.37648,0,0.012107,0,0,1.1393,-0.00039167,0,1.1393,-0.31697,-1.192,-0.60659,89.695,-0.7052,0.77213,-0.012922,0.84,0.5,0
0.10797,0.033195,0.13123,-1.1817,-0.31334,-0.57974,-0.0032321,0,0,-0.78255,0.34632,0,-0.0084034,0,0,1.1244,0.003129,0,1.1245,-0.31333,-1.1817,-0.57974,-89.787,-0.69159,0.77053,-0.014378,0.86,0.5,0
0.092124,0.031674,0.10891,-1.1695,-0.31261,-0.55353,-0.018028,0,0,-0.80071,0.31321,0,-0.046874,0,0,1.1042,0.010441,0,1.1043,-0.31223,-1.1698,-0.55353,-88.795,-0.67853,0.76602,-0.015598,0.88,0.5,0
0.075946,0.029681,0.087062,-1.151,-0.3125,-0.52612,-0.043711,0,0,-0.81237,0.2777,0,-0.11365,0,0,1.0792,0.027359,0,1.0796,-0.31023,-1.1533,-0.52612,-87.024,-0.66321,0.75852,-0.016444,0.9,0.5,0
0.059629,0.027033,0.065743,-1.0793,-0.296,-0.47833,-0.069422,0,0,-0.78125,0.23703,0,-0.1805,0,0,1.0197,0.067109,0,1.0209,-0.28989,-1.0854,-0.47833,-84.974,-0.61787,0.72002,-0.014836,0.92,0.5,0
0.044695,0.025596,0.046276,-1.0361,-0.34869,-0.46171,-0.11198,0,0,-0.74668,0.14692,0,-0.29113,0,0,0.97335,0.18938,0,0.99547,-0.33091,-1.0539,-0.46171,-80.977,-0.61549,0.66723,-0.013302,0.94,0.5,0
0.02952,0.026187,0.029058,-0.96903,-0.27151,-0.40122,-0.058325,0,0,-0.73815,0.16862,0,-0.15164,0,0,0.7467,0.12493,0,0.75775,-0.26667,-0.97387,-0.40122,-85.253,-0.54725,0.65045,-0.01212,0.96,0.5,0
0.014757,0.026372,0.014124,-0.92737,-0.22434,-0.35964,-0.024979,0,0,-0.73805,0.17589,0,-0.064944,0,0,0.73321,0.050455,0,0.73461,-0.22345,-0.92826,-0.35964,-87.968,-0.50378,0.64754,-0.011893,0.98,0.5,0
0,0.026385,0,-0.88171,-0.16538,-0.31413,0.00025747,0,0,-0.73786,0.19337,0,0.00066942,0,0,0.70621,0,0,0.70603,-0.16538,-0.88171,-0.31413,89.979,-0.45374,0.65475,-0.011946,1,0.5,0
0,0.041972,1,-0.72619,-1.6937,-1.726,0.013212,0,0,1.2997,0.041919,0,0.034352,0,0,0.72301,1.7755e-15,0,0.723,-0.72601,-1.6939,-1.726,0.78222,-1.382,0.98433,0.048807,0,0.52,0
0.025995,0.042659,0.98554,-0.70091,-1.6362,-1.6867,0.029098,0,0,1.2815,0.065635,0,0.075654,0,0,0.72798,0.003601,0,0.72802,-0.70001,-1.6371,-1.6867,1.7803,-1.3413,0.96282,0.045432,0.02,0.52,0
0.050894,0.044563,0.97078,-0.75761,-1.5771,-1.6712,0.060144,0,0,1.1876,0.12236,0,0.15637,0,0,0.75631,0.0093676,0,0.75648,-0.75322,-1.5815,-1.6712,4.1754,-1.3353,0.87655,0.033371,0.04,0.52,0
0.074074,0.047161,0.95547,-0.7789,-1.4556,-1.6258,0.065261,0,0,1.101,0.22132,0,0.16968,0,0,0.78341,0.011074,0,0.78371,-0.77267,-1.4618,-1.6258,5.4589,-1.2868,0.78411,0.021155,0.06,0.52,0
0.094934,0.049575,0.93944,-0.82712,-1.3029,-1.5784,0.048459,0,0,0.97671,0.35826,0,0.12599,0,0,0.82053,0.018255,0,0.82098,-0.82224,-1.3077,-1.5784,5.7575,-1.2361,0.66364,0.0070338,0.08,0.52,0
0.11314,0.050925,0.92265,-0.84529,-1.119,-1.5119,0.020755,0,0,0.86665,0.51079,0,0.053962,0,0,0.85158,0.01603,0,0.85191,-0.84373,-1.1206,-1.5119,4.3112,-1.1588,0.58152,-0.0029438,0.1,0.52,0
0.12872,0.050871,0.90514,-0.94705,-0.99884,-1.4889,-0.017173,0,0,0.70442,0.63709,0,-0.04465,0,0,0.89454,0.01536,0,0.89477,-0.94187,-1.004,-1.4889,-16.775,-1.1449,0.51877,-0.0068247,0.12,0.52,0
0.14207,0.04973,0.88706,-0.95743,-0.87784,-1.4376,-0.026902,0,0,0.62428,0.72774,0,-0.069946,0,0,0.91461,0.012706,0,0.91475,-0.8696,-0.96567,-1.4376,-72.969,-1.091,0.52662,-0.0066673,0.14,0.52,0
0.15369,0.048096,0.86856,-0.97828,-0.80104,-1.4024,-0.024107,0,0,0.5513,0.78171,0,-0.062679,0,0,0.93179,0.0017115,0,0.9318,-0.79782,-0.9815,-1.4024,-82.391,-1.0606,0.53681,-0.0049226,0.16,0.52,0
0.16412,0.046447,0.84979,-0.98827,-0.75371,-1.3724,-0.012088,0,0,0.49934,0.80428,0,-0.031429,0,0,0.94225,-0.010866,0,0.94231,-0.75309,-0.98889,-1.3724,-87.058,-1.0381,0.54139,-0.003252,0.18,0.52,0
0.17367,0.045028,0.83087,-0.99201,-0.72625,-1.3463,0.0031337,0,0,0.46064,0.80613,0,0.0081477,0,0,0.94734,-0.024301,0,0.94764,-0.72621,-0.99205,-1.3463,89.325,-1.0215,0.53887,-0.0019612,0.2,0.52,0
0.18254,0.043915,0.8119,-0.99279,-0.71198,-1.3233,0.018791,0,0,0.42969,0.79476,0,0.048857,0,0,0.94793,-0.038884,0,0.94871,-0.71072,-0.99405,-1.3233,86.189,-1.0094,0.53103,-0.00099594,0.22,0.52,0
0.19086,0.043092,0.79295,-0.99167,-0.70953,-1.3033,0.033796,0,0,0.40513,0.77192,0,0.08787,0,0,0.94416,-0.055343,0,0.94576,-0.70554,-0.99567,-1.3033,83.264,-1.0015,0.51776,-0.00036172,0.24,0.52,0
0.19875,0.042497,0.77413,-0.98596,-0.72179,-1.2865,0.047584,0,0,0.39064,0.73407,0,0.12372,0,0,0.93533,-0.074717,0,0.93828,-0.71348,-0.99427,-1.2865,80.094,-0.99806,0.49624,-0.00021612,0.26,0.52,0
0.20648,0.042027,0.75554,-0.97179,-0.75746,-1.2743,0.059639,0,0,0.39328,0.67191,0,0.15506,0,0,0.91996,-0.098291,0,0.92517,-0.74198,-0.98726,-1.2743,75.452,-1.0012,0.46149,-0.00068339,0.28,0.52,0
0.21448,0.041557,0.73733,-0.94673,-0.82639,-1.2693,0.069868,0,0,0.4193,0.57574,0,0.18166,0,0,0.89644,-0.12721,0,0.90543,-0.79435,-0.97876,-1.2693,65.367,-1.0141,0.41469,-0.0013749,0.3,0.52,0
0.22325,0.040987,0.71968,-0.91474,-0.92993,-1.2731,0.080099,0,0,0.46584,0.4461,0,0.20826,0,0,0.86448,-0.16207,0,0.8796,-0.84188,-1.0028,-1.2731,42.293,-1.0393,0.37742,-0.0011667,0.32,0.52,0
0.23311,0.04034,0.70275,-0.8844,-1.0472,-1.2822,0.094782,0,0,0.51716,0.30559,0,0.24643,0,0,0.82672,-0.20306,0,0.85136,-0.84085,-1.0907,-1.2822,24.676,-1.0713,0.38334,0.00065516,0.34,0.52,0
0.24394,0.039835,0.68661,-0.86628,-1.1461,-1.2903,0.121,0,0,0.55124,0.18754,0,0.31459,0,0,0.78975,-0.2516,0,0.82876,-0.82121,-1.1911,-1.2903,20.429,-1.1009,0.42821,0.0033148,0.36,0.52,0
0.25516,0.039981,0.67116,-0.88058,-1.2225,-1.3021,0.16336,0,0,0.54793,0.10351,0,0.42473,0,0,0.76292,-0.31395,0,0.8244,-0.81507,-1.2879,-1.3021,21.851,-1.135,0.48009,0.0056667,0.38,0.52,0
0.26586,0.041198,0.6561,-0.93928,-1.2988,-1.3275,0.26263,0,0,0.50471,0.03734,0,0.68283,0,0,0.79522,-0.40933,0,0.89123,-0.80078,-1.4373,-1.3275,27.805,-1.1885,0.58934,0.0092954,0.4,0.52,0
0.27535,0.047799,0.63935,-0.84948,-1.0342,-0.9647,0.31991,0,0,0.13893,-0.25808,0,1.5931,0,0,0.66195,-0.38774,0,0.77137,-0.60843,-1.2752,-0.9647,37.588,-0.94946,0.58157,0.0041849,0.42,0.52,0
0.27477,0.067627,0.6131,-0.81243,-0.66037,-0.82502,0.21918,0,0,0.026203,-0.036381,0,1.1687,0,0,0.76151,-0.16569,0,0.78367,-0.47311,-0.99969,-0.82502,48.51,-0.76594,0.48143,0.0063794,0.44,0.52,0
0.2764,0.075181,0.59062,-0.73582,-0.61791,-0.77525,0.13383,0,0,0.083047,-0.034763,0,0.75081,0,0,0.70083,-0.11337,0,0.71356,-0.48997,-0.86376,-0.77525,48.703,-0.70966,0.36052,0.0030024,0.46,0.52,0
0.27816,0.079036,0.56867,-0.72736,-0.58846,-0.75017,0.064351,0,0,0.054222,-0.023369,0,0.46318,0,0,0.68403,-0.079623,0,0.69109,-0.50168,-0.81415,-0.75017,53.612,-0.68867,0.30988,0.0020002,0.48,0.52,0
0.27902,0.080061,0.54679,-0.69837,-0.54898,-0.71595,0.060746,0,0,0.027051,-0.0023111,0,0.37452,0,0,0.68446,-0.057593,0,0.68844,-0.47528,-0.77207,-0.71595,51.599,-0.65443,0.2973,0.0021777,0.5,0.52,0
0.27861,0.07919,0.52471,-0.76089,-0.54427,-0.71949,0.028574,0,0,-0.075181,0.025767,0,0.23488,0,0,0.69815,-0.043174,0,0.70052,-0.48988,-0.81529,-0.71949,54.539,-0.67488,0.30818,0.0028397,0.52,0.52,0
0.27674,0.077061,0.50234,-0.73175,-0.49938,-0.6833,0.027673,0,0,-0.11184,0.055742,0,0.19508,0,0,0.69996,-0.034,0,0.70147,-0.45823,-0.7729,-0.6833,54.345,-0.63814,0.30194,0.0030202,0.54,0.52,0
0.2734,0.074228,0.47968,-0.79923,-0.49811,-0.689,0.017622,0,0,-0.21892,0.082423,0,0.14614,0,0,0.71509,-0.028171,0,0.71611,-0.4692,-0.82814,-0.689,56.596,-0.66211,0.33287,0.0033811,0.56,0.52,0
0.26868,0.071099,0.45677,-0.77138,-0.45992,-0.65487,0.01703,0,0,-0.25159,0.10286,0,0.13187,0,0,0.71645,-0.024247,0,0.71719,-0.44039,-0.79092,-0.65487,59.503,-0.62873,0.32923,0.0033979,0.58,0.52,0
0.26272,0.067939,0.43367,-0.82244,-0.45948,-0.65562,0.016718,0,0,-0.33878,0.11668,0,0.12416,0,0,0.72569,-0.021328,0,0.72624,-0.44671,-0.8352,-0.65562,64.134,-0.64584,0.35981,0.0029743,0.6,0.52,0
0.25567,0.064885,0.41044,-0.7957,-0.42888,-0.6239,0.015183,0,0,-0.3647,0.12485,0,0.11602,0,0,0.72642,-0.01893,0,0.72684,-0.42048,-0.8041,-0.6239,69.429,-0.61616,0.35704,0.0028089,0.62,0.52,0
0.24764,0.062001,0.38711,-0.83258,-0.42789,-0.62008,0.016712,0,0,-0.43524,0.12865,0,0.11678,0,0,0.73095,-0.016813,0,0.73128,-0.42202,-0.83844,-0.62008,73.788,-0.62685,0.3836,0.0018596,0.64,0.52,0
0.23871,0.059307,0.36371,-0.82059,-0.4077,-0.5958,0.015415,0,0,-0.46755,0.12917,0,0.1102,0,0,0.73177,-0.014845,0,0.73201,-0.40345,-0.82483,-0.5958,77.17,-0.60803,0.38749,0.0013839,0.66,0.52,0
0.22894,0.056807,0.34027,-0.82227,-0.39468,-0.57776,0.014808,0,0,-0.50859,0.12715,0,0.10498,0,0,0.73267,-0.012946,0,0.73285,-0.3915,-0.82545,-0.57776,79.615,-0.59824,0.39785,0.0006081,0.68,0.52,0
0.21837,0.054492,0.31682,-0.82283,-0.38225,-0.55954,0.013963,0,0,-0.54765,0.12312,0,0.098448,0,0,0.73297,-0.011055,0,0.7331,-0.37985,-0.82523,-0.55954,81.493,-0.58821,0.40761,-0.00023578,0.7,0.52,0
0.20703,0.052352,0.29336,-0.82246,-0.37033,-0.54119,0.012871,0,0,-0.58504,0.1174,0,0.090394,0,0,0.7327,-0.00912,0,0.73279,-0.36855,-0.82425,-0.54119,83.022,-0.57799,0.41682,-0.0011341,0.72,0.52,0
0.19497,0.050373,0.26993,-0.82121,-0.35886,-0.52273,0.011506,0,0,-0.62085,0.1102,0,0.080542,0,0,0.73188,-0.0070852,0,0.73193,-0.35759,-0.82249,-0.52273,84.346,-0.5676,0.42546,-0.002073,0.74,0.52,0
0.1822,0.048537,0.24652,-0.81905,-0.34783,-0.50414,0.0098166,0,0,-0.65501,0.1016,0,0.06844,0,0,0.73043,-0.0048801,0,0.73045,-0.34698,-0.81989,-0.50414,85.567,-0.557,0.43342,-0.0030373,0.76,0.52,0
0.16877,0.046824,0.22318,-0.81584,-0.33721,-0.4854,0.0076923,0,0,-0.68732,0.091615,0,0.053312,0,0,0.72825,-0.002405,0,0.72826,-0.33674,-0.81632,-0.4854,86.776,-0.54615,0.44058,-0.0040081,0.78,0.52,0
0.15471,0.045201,0.19991,-0.81145,-0.32704,-0.46649,0.0049256,0,0,-0.71751,0.080254,0,0.033801,0,0,0.72515,0.00049509,0,0.72516,-0.32687,-0.81163,-0.46649,88.075,-0.535,0.44674,-0.004964,0.8,0.52,0
0.14007,0.043622,0.17677,-0.80582,-0.3174,-0.44745,0.0011231,0,0,-0.74542,0.067603,0,0.0075479,0,0,0.72088,0.0040816,0,0.72091,-0.31739,-0.80583,-0.44745,89.594,-0.52356,0.45182,-0.005885,0.82,0.52,0
0.12489,0.042011,0.15378,-0.79942,-0.30846,-0.42848,-0.0044207,0,0,-0.77157,0.054113,0,-0.029375,0,0,0.71516,0.0088316,0,0.71528,-0.30834,-0.79954,-0.42848,-88.5,-0.51212,0.4562,-0.0067693,0.84,0.52,0
0.1092,0.040252,0.131,-0.79382,-0.30043,-0.41015,-0.012838,0,0,-0.79804,0.041256,0,-0.082727,0,0,0.70787,0.015705,0,0.70823,-0.29956,-0.79469,-0.41015,-86.078,-0.50147,0.46143,-0.0076689,0.86,0.52,0
0.092968,0.038199,0.10847,-0.79237,-0.29318,-0.39346,-0.025926,0,0,-0.82972,0.032082,0,-0.16087,0,0,0.69974,0.026624,0,0.70068,-0.29023,-0.79532,-0.39346,-83.177,-0.493,0.47138,-0.0087517,0.88,0.52,0
0.076014,0.035664,0.086214,-0.805,-0.29012,-0.38242,-0.045127,0,0,-0.87897,0.031226,0,-0.26984,0,0,0.69283,0.04583,0,0.69528,-0.28302,-0.81211,-0.38242,-80.304,-0.49252,0.49332,-0.010533,0.9,0.52,0
0.057809,0.032742,0.064133,-0.8463,-0.29062,-0.38116,-0.083645,0,0,-0.9675,0.042607,0,-0.45619,0,0,0.71775,0.080718,0,0.72371,-0.27381,-0.86311,-0.38116,-76.976,-0.50602,0.54723,-0.014501,0.92,0.52,0
0.037314,0.028271,0.040278,-0.79266,-0.37588,-0.37574,-0.16539,0,0,-0.92629,-0.033811,0,-0.77743,0,0,0.62998,0.26426,0,0.68747,-0.31772,-0.85082,-0.37574,-69.696,-0.51476,0.50666,-0.011438,0.94,0.52,0
0.024696,0.029046,0.025663,-0.86361,-0.33929,-0.38653,-0.11589,0,0,-0.6202,0.061413,0,-0.3013,0,0,0.67595,0.18845,0,0.69766,-0.31482,-0.88808,-0.38653,-78.076,-0.52981,0.54098,-0.0076519,0.96,0.52,0
0.012399,0.029117,0.012692,-0.82327,-0.29776,-0.349,-0.053822,0,0,-0.61655,0.066613,0,-0.13994,0,0,0.64389,0.080855,0,0.64774,-0.29231,-0.82873,-0.349,-84.212,-0.49001,0.51044,-0.0065474,0.98,0.52,0
0,0.029037,0,-0.813,-0.30735,-0.33611,-0.0015546,0,0,-0.61996,0.037378,0,-0.0040419,0,0,0.63459,6.245e-17,0,0.63364,-0.30735,-0.81301,-0.33611,-89.824,-0.48549,0.49191,-0.0060429,1,0.52,0
0,0.042456,1,-0.72078,-1.7331,-1.7362,0.020645,0,0,1.32,0.0040173,0,0.053677,0,0,0.71616,-1.9559e-15,0,0.71611,-0.72036,-1.7335,-1.7362,1.1679,-1.3967,1.0145,0.05362,0,0.54,0
0.0264,0.043529,0.98568,-0.70359,-1.6934,-1.7048,0.039569,0,0,1.3016,0.014746,0,0.10288,0,0,0.72235,-0.020276,0,0.72266,-0.70201,-1.695,-1.7048,2.2855,-1.3673,0.99793,0.051025,0.02,0.54,0
0.051694,0.046724,0.97098,-0.76608,-1.6277,-1.6891,0.096368,0,0,1.2,0.079802,0,0.25056,0,0,0.7567,-0.033784,0,0.75763,-0.75543,-1.6384,-1.6891,6.3042,-1.361,0.90939,0.03822,0.04,0.54,0
0.075046,0.051628,0.95563,-0.7827,-1.4612,-1.6288,0.1186,0,0,1.0999,0.2179,0,0.30835,0,0,0.78743,-0.029393,0,0.78827,-0.76257,-1.4813,-1.6288,9.6346,-1.2909,0.80271,0.02357,0.06,0.54,0
0.09569,0.057059,0.93949,-0.83111,-1.2653,-1.5684,0.1079,0,0,0.9585,0.394,0,0.28055,0,0,0.82633,-0.021909,0,0.82685,-0.80578,-1.2907,-1.5684,13.214,-1.2216,0.66854,0.0069046,0.08,0.54,0
0.11339,0.061395,0.92258,-0.8805,-1.0896,-1.5136,0.066526,0,0,0.82303,0.55122,0,0.17297,0,0,0.86131,-0.012251,0,0.86153,-0.86113,-1.109,-1.5136,16.235,-1.1612,0.57047,-0.0038326,0.1,0.54,0
0.12861,0.06374,0.90503,-0.91912,-0.96074,-1.469,0.021272,0,0,0.71483,0.66073,0,0.055307,0,0,0.88909,-0.0059973,0,0.88918,-0.91017,-0.96968,-1.469,22.815,-1.1163,0.53157,-0.0073893,0.12,0.54,0
0.14198,0.06424,0.88701,-0.94308,-0.87163,-1.4314,-0.0059793,0,0,0.63485,0.72773,0,-0.015546,0,0,0.90945,-0.0058047,0,0.90951,-0.87114,-0.94357,-1.4314,-85.249,-1.082,0.52781,-0.0070748,0.14,0.54,0
0.15401,0.063548,0.86865,-0.95512,-0.80901,-1.3979,-0.013522,0,0,0.57561,0.76555,0,-0.035158,0,0,0.92337,-0.010103,0,0.92344,-0.80777,-0.95636,-1.3979,-84.757,-1.054,0.53164,-0.0057331,0.16,0.54,0
0.165,0.062309,0.85008,-0.96152,-0.76762,-1.3688,-0.0075534,0,0,0.52949,0.78156,0,-0.019639,0,0,0.93183,-0.017242,0,0.93199,-0.76733,-0.96181,-1.3688,-87.772,-1.0327,0.53163,-0.004381,0.18,0.54,0
0.17519,0.060929,0.83138,-0.96454,-0.74163,-1.3432,0.0052174,0,0,0.4923,0.78208,0,0.013565,0,0,0.93544,-0.026203,0,0.9358,-0.74151,-0.96466,-1.3432,88.66,-1.0165,0.52687,-0.0032272,0.2,0.54,0
0.18469,0.059597,0.81266,-0.96558,-0.72717,-1.3205,0.020085,0,0,0.46138,0.77131,0,0.05222,0,0,0.93446,-0.03661,0,0.93517,-0.72549,-0.96726,-1.3205,85.218,-1.0044,0.51828,-0.002271,0.22,0.54,0
0.19364,0.058328,0.794,-0.96468,-0.72323,-1.3004,0.033745,0,0,0.4364,0.75029,0,0.087736,0,0,0.92862,-0.04852,0,0.92988,-0.7186,-0.96931,-1.3004,82.192,-0.9961,0.50543,-0.0015683,0.24,0.54,0
0.20215,0.056989,0.77551,-0.96019,-0.73256,-1.2833,0.042977,0,0,0.42009,0.71602,0,0.11174,0,0,0.91704,-0.062201,0,0.91915,-0.72471,-0.96803,-1.2833,79.657,-0.99203,0.48512,-0.0012955,0.26,0.54,0
0.21044,0.055296,0.75732,-0.94643,-0.76121,-1.2696,0.044679,0,0,0.42014,0.66092,0,0.11616,0,0,0.89796,-0.077973,0,0.90138,-0.751,-0.95664,-1.2696,77.123,-0.99242,0.45233,-0.00166,0.28,0.54,0
0.21896,0.052924,0.7396,-0.91997,-0.82447,-1.2629,0.038726,0,0,0.44584,0.57,0,0.10069,0,0,0.86934,-0.096359,0,0.87478,-0.81074,-0.9337,-1.2629,70.48,-1.0025,0.40496,-0.0023806,0.3,0.54,0
0.22828,0.049754,0.72255,-0.88249,-0.93306,-1.2672,0.036333,0,0,0.50014,0.4344,0,0.094467,0,0,0.83018,-0.12051,0,0.8391,-0.86351,-0.95204,-1.2672,27.581,-1.0276,0.36752,-0.0020595,0.32,0.54,0
0.23896,0.046216,0.70639,-0.84278,-1.0708,-1.2805,0.053404,0,0,0.56898,0.27258,0,0.13885,0,0,0.78223,-0.15482,0,0.79766,-0.83089,-1.0827,-1.2805,12.551,-1.0647,0.39027,0.0006294,0.34,0.54,0
0.25104,0.043207,0.69126,-0.8045,-1.188,-1.289,0.097414,0,0,0.62984,0.13135,0,0.25328,0,0,0.72924,-0.20492,0,0.75757,-0.78117,-1.2113,-1.289,13.467,-1.0938,0.47377,0.0049701,0.36,0.54,0
0.26416,0.041371,0.67722,-0.76451,-1.2684,-1.2871,0.16402,0,0,0.67935,0.024303,0,0.42646,0,0,0.67362,-0.27544,0,0.72737,-0.71583,-1.3171,-1.2871,16.533,-1.1067,0.58684,0.010288,0.38,0.54,0
0.27821,0.041237,0.66431,-0.63499,-1.3168,-1.2498,0.21849,0,0,0.79932,-0.087034,0,0.56809,0,0,0.56429,-0.38059,0,0.67897,-0.57098,-1.3808,-1.2498,16.328,-1.0672,0.75294,0.019706,0.4,0.54,0
0.29613,0.038854,0.65465,-0.5767,-1.0805,-0.90633,0.21681,0,0,0.37023,-0.36238,0,1.1689,0,0,0.42772,-0.36219,0,0.57984,-0.47123,-1.186,-0.90633,28.151,-0.85453,0.63206,0.014284,0.42,0.54,0
0.29302,0.054271,0.62488,-0.506,-0.59666,-0.48702,0.132,0,0,-0.098696,-0.57015,0,1.3728,0,0,0.34707,-0.1265,0,0.36979,-0.41176,-0.6909,-0.48702,35.523,-0.52989,0.25015,-0.00056543,0.44,0.54,0
0.29218,0.062418,0.59912,-0.47062,-0.57452,-0.46332,0.096743,0,0,-0.037945,-0.57825,0,1.0061,0,0,0.31126,-0.098172,0,0.3263,-0.41276,-0.63238,-0.46332,30.882,-0.50282,0.19921,-0.00031956,0.46,0.54,0
0.2915,0.066578,0.57508,-0.45592,-0.55757,-0.44782,0.073154,0,0,-0.042147,-0.57073,0,0.7608,0,0,0.29633,-0.076628,0,0.306,-0.41767,-0.59583,-0.44782,27.605,-0.48711,0.16516,-0.00020563,0.48,0.54,0
0.2905,0.068362,0.5517,-0.44717,-0.53833,-0.43358,0.056144,0,0,-0.070678,-0.54474,0,0.58389,0,0,0.29071,-0.060377,0,0.29685,-0.42043,-0.56507,-0.43358,25.463,-0.47303,0.13853,-0.00013241,0.5,0.54,0
0.28868,0.068415,0.52856,-0.44323,-0.51833,-0.42061,0.043394,0,0,-0.11762,-0.50817,0,0.4513,0,0,0.28914,-0.048273,0,0.29311,-0.4234,-0.53817,-0.42061,24.564,-0.46072,0.11619,-8.0409e-05,0.52,0.54,0
0.28579,0.067282,0.50544,-0.44167,-0.49808,-0.40829,0.034338,0,0,-0.17362,-0.46691,0,0.35712,0,0,0.28949,-0.039348,0,0.29213,-0.42544,-0.51431,-0.40829,25.302,-0.44935,0.098573,-4.4211e-05,0.54,0.54,0
0.28173,0.065388,0.48224,-0.44114,-0.47844,-0.39644,0.028246,0,0,-0.23246,-0.42644,0,0.29375,0,0,0.2906,-0.03276,0,0.29243,-0.42594,-0.49364,-0.39644,28.28,-0.43867,0.08632,-2.0492e-05,0.56,0.54,0
0.27649,0.063069,0.45895,-0.44074,-0.46005,-0.38497,0.024338,0,0,-0.29001,-0.39038,0,0.25312,0,0,0.29185,-0.027804,0,0.29317,-0.42421,-0.47658,-0.38497,34.185,-0.42859,0.079602,-6.3484e-06,0.58,0.54,0
0.27013,0.060562,0.43555,-0.44003,-0.44309,-0.37382,0.021845,0,0,-0.34426,-0.36021,0,0.22719,0,0,0.29297,-0.023937,0,0.29395,-0.41966,-0.46346,-0.37382,42.992,-0.41898,0.077633,9.4754e-07,0.6,0.54,0
0.26272,0.058022,0.41207,-0.43882,-0.42749,-0.36291,0.020154,0,0,-0.39474,-0.33581,0,0.2096,0,0,0.29387,-0.020772,0,0.2946,-0.41222,-0.45409,-0.36291,52.851,-0.40974,0.079052,3.5712e-06,0.62,0.54,0
0.25434,0.055537,0.38853,-0.43716,-0.41303,-0.35219,0.018847,0,0,-0.44184,-0.31636,0,0.19601,0,0,0.29453,-0.018054,0,0.29509,-0.40271,-0.44747,-0.35219,61.313,-0.40079,0.082567,3.0258e-06,0.64,0.54,0
0.24505,0.053154,0.36494,-0.43512,-0.39948,-0.34162,0.017669,0,0,-0.48621,-0.30091,0,0.18376,0,0,0.29499,-0.015609,0,0.2954,-0.39221,-0.44239,-0.34162,67.62,-0.39207,0.087276,2.3766e-07,0.66,0.54,0
0.23489,0.050895,0.34133,-0.43281,-0.38669,-0.33118,0.01647,0,0,-0.52847,-0.28863,0,0.17129,0,0,0.29526,-0.013314,0,0.29556,-0.38141,-0.43809,-0.33118,72.233,-0.38356,0.092639,-4.2566e-06,0.68,0.54,0
0.22391,0.048767,0.3177,-0.43031,-0.37451,-0.32087,0.015155,0,0,-0.56908,-0.27892,0,0.15761,0,0,0.29537,-0.011074,0,0.29558,-0.37066,-0.43416,-0.32087,75.745,-0.37523,0.098351,-1.0153e-05,0.7,0.54,0
0.21213,0.046767,0.29407,-0.42768,-0.36285,-0.31068,0.013654,0,0,-0.6084,-0.27132,0,0.142,0,0,0.29534,-0.0088064,0,0.29547,-0.36009,-0.43044,-0.31068,78.578,-0.36707,0.10424,-1.728e-05,0.72,0.54,0
0.19957,0.044889,0.27045,-0.42495,-0.35165,-0.30059,0.011895,0,0,-0.64666,-0.2655,0,0.12371,0,0,0.29517,-0.0064255,0,0.29524,-0.34977,-0.42683,-0.30059,81.009,-0.35906,0.11021,-2.5542e-05,0.74,0.54,0
0.18626,0.043118,0.24684,-0.42217,-0.34085,-0.29062,0.0097944,0,0,-0.68408,-0.26121,0,0.10186,0,0,0.29487,-0.003832,0,0.29489,-0.33969,-0.42333,-0.29062,83.228,-0.35121,0.11623,-3.4925e-05,0.76,0.54,0
0.17221,0.041435,0.22327,-0.41939,-0.33041,-0.28076,0.0072298,0,0,-0.72089,-0.25819,0,0.07519,0,0,0.29444,-0.00089588,0,0.29443,-0.32982,-0.41997,-0.28076,85.385,-0.34352,0.1223,-4.556e-05,0.78,0.54,0
0.15743,0.039813,0.19973,-0.41672,-0.32028,-0.27104,0.0040248,0,0,-0.75758,-0.25608,0,0.041858,0,0,0.29388,0.0025674,0,0.29389,-0.32011,-0.41689,-0.27104,87.614,-0.33601,0.12855,-5.7934e-05,0.8,0.54,0
0.14191,0.038211,0.17625,-0.41442,-0.31039,-0.26151,-7.4605e-05,0,0,-0.79515,-0.25422,0,-0.00077589,0,0,0.29326,0.0068367,0,0.29333,-0.31039,-0.41442,-0.26151,-89.959,-0.32877,0.13527,-7.3419e-05,0.82,0.54,0
0.12562,0.036576,0.15281,-0.413,-0.30058,-0.25228,-0.0054016,0,0,-0.83575,-0.25119,0,-0.056177,0,0,0.29274,0.012351,0,0.29299,-0.30033,-0.41326,-0.25228,-87.255,-0.32195,0.14314,-9.5406e-05,0.84,0.54,0
0.10848,0.034845,0.12941,-0.41348,-0.29054,-0.24356,-0.012334,0,0,-0.88358,-0.24432,0,-0.12828,0,0,0.29279,0.019811,0,0.29344,-0.28932,-0.4147,-0.24356,-84.327,-0.31586,0.15347,-0.00013152,0.86,0.54,0
0.090277,0.032957,0.10597,-0.4179,-0.27992,-0.23584,-0.021081,0,0,-0.94672,-0.22924,0,-0.21924,0,0,0.29461,0.030333,0,0.29612,-0.27677,-0.42105,-0.23584,-81.504,-0.31122,0.16851,-0.00019773,0.88,0.54,0
0.070609,0.03093,0.082272,-0.4294,-0.26825,-0.22986,-0.03185,0,0,-1.0376,-0.19962,0,-0.33123,0,0,0.30194,0.045621,0,0.30527,-0.26219,-0.43546,-0.22986,-79.216,-0.30917,0.1915,-0.0003263,0.9,0.54,0
0.048774,0.028737,0.057657,-0.45671,-0.25874,-0.22905,-0.044056,0,0,-1.1838,-0.1544,0,-0.45818,0,0,0.32556,0.068347,0,0.33271,-0.24938,-0.46607,-0.22905,-78.004,-0.31483,0.22754,-0.00058877,0.92,0.54,0
0.023256,0.026478,0.030182,-0.47825,-0.28221,-0.247,-0.087768,0,0,-0.77909,-0.073231,0,-0.44372,0,0,0.3836,0.22215,0,0.4575,-0.24381,-0.51665,-0.247,-69.555,-0.33582,0.27129,-0.0010322,0.94,0.54,0
0.01761,0.029459,0.021707,-0.54666,-0.31172,-0.27922,-0.079505,0,0,-0.34766,-0.042255,0,-0.20671,0,0,0.48,0.18322,0,0.51043,-0.28735,-0.57103,-0.27922,-72.954,-0.3792,0.28783,-0.0012215,0.96,0.54,0
0.0093491,0.029743,0.010982,-0.63002,-0.30456,-0.29136,-0.048424,0,0,-0.44026,-0.017169,0,-0.1259,0,0,0.54267,0.080694,0,0.54738,-0.29751,-0.63707,-0.29136,-81.714,-0.40865,0.34268,-0.0020645,0.98,0.54,0
0,0.029784,0,-0.63497,-0.28299,-0.27539,0.00079267,0,0,-0.46745,-0.009884,0,0.002061,0,0,0.54912,1.0408e-17,0,0.54814,-0.28299,-0.63497,-0.27539,89.871,-0.39778,0.35584,-0.0023106,1,0.54,0
0,0.042133,1,-0.72788,-1.7769,-1.7514,0.026993,0,0,1.3306,-0.033138,0,0.070183,0,0,0.68917,-2.557e-15,0,0.68896,-0.72719,-1.7776,-1.7514,1.473,-1.4187,1.0376,0.05725,0,0.56,0
0.026613,0.043537,0.98622,-0.71866,-1.7426,-1.7246,0.056889,0,0,1.3077,-0.023432,0,0.14791,0,0,0.70262,-0.039505,0,0.70366,-0.71551,-1.7458,-1.7246,3.1702,-1.3953,1.0198,0.0544,0.02,0.56,0
0.052309,0.048037,0.97189,-0.74702,-1.6739,-1.6982,0.12541,0,0,1.2365,0.031576,0,0.32606,0,0,0.73924,-0.073502,0,0.74332,-0.73035,-1.6905,-1.6982,7.5711,-1.373,0.96403,0.046004,0.04,0.56,0
0.076072,0.055877,0.95665,-0.79792,-1.4986,-1.6456,0.18058,0,0,1.102,0.19111,0,0.46951,0,0,0.78935,-0.080055,0,0.79392,-0.75412,-1.5424,-1.6456,13.634,-1.314,0.84462,0.029395,0.06,0.56,0
0.096389,0.065335,0.94032,-0.83358,-1.2021,-1.551,0.17285,0,0,0.93269,0.45358,0,0.4494,0,0,0.83767,-0.065674,0,0.84052,-0.7652,-1.2705,-1.551,21.584,-1.1956,0.68977,0.0079474,0.08,0.56,0
0.11338,0.072974,0.92314,-0.88186,-1.0128,-1.4915,0.10062,0,0,0.79258,0.62236,0,0.26162,0,0,0.87342,-0.039401,0,0.87433,-0.82728,-1.0674,-1.4915,28.475,-1.1287,0.58258,-0.0046526,0.1,0.56,0
0.12809,0.0773,0.90538,-0.9129,-0.92346,-1.4563,0.038855,0,0,0.70641,0.69268,0,0.10102,0,0,0.89618,-0.025701,0,0.89657,-0.87897,-0.95739,-1.4563,41.13,-1.0976,0.54238,-0.0076203,0.12,0.56,0
0.14164,0.078839,0.88729,-0.9174,-0.85786,-1.4199,0.0047282,0,0,0.65321,0.73061,0,0.012293,0,0,0.91051,-0.019944,0,0.91074,-0.85749,-0.91778,-1.4199,85.488,-1.0651,0.5348,-0.0075201,0.14,0.56,0
0.15422,0.078718,0.86896,-0.92107,-0.81125,-1.3887,-0.0059903,0,0,0.60787,0.75064,0,-0.015575,0,0,0.92035,-0.019354,0,0.92056,-0.81092,-0.9214,-1.3887,-86.887,-1.0403,0.53119,-0.0065894,0.16,0.56,0
0.16595,0.07771,0.85048,-0.9248,-0.77823,-1.3614,-0.0026974,0,0,0.56757,0.7581,0,-0.0070133,0,0,0.92615,-0.022036,0,0.92642,-0.77818,-0.92485,-1.3614,-88.946,-1.0215,0.52546,-0.0055404,0.18,0.56,0
0.17692,0.076312,0.83192,-0.92763,-0.75563,-1.3369,0.0080084,0,0,0.53204,0.75565,0,0.020822,0,0,0.92797,-0.026786,0,0.92836,-0.75525,-0.928,-1.3369,87.34,-1.0067,0.51737,-0.0045315,0.2,0.56,0
0.18723,0.074767,0.81336,-0.92879,-0.74135,-1.3144,0.021258,0,0,0.5013,0.74497,0,0.055271,0,0,0.92561,-0.032896,0,0.9262,-0.73897,-0.93117,-1.3144,83.61,-0.99485,0.50741,-0.0036102,0.22,0.56,0
0.19698,0.073104,0.79489,-0.92814,-0.73508,-1.2939,0.033107,0,0,0.47544,0.72641,0,0.08608,0,0,0.91857,-0.039943,0,0.91945,-0.72956,-0.93366,-1.2939,80.534,-0.98569,0.49489,-0.0028478,0.24,0.56,0
0.20625,0.071138,0.77662,-0.92547,-0.7386,-1.2758,0.039337,0,0,0.45548,0.69841,0,0.10228,0,0,0.90588,-0.047569,0,0.90715,-0.73066,-0.93341,-1.2758,78.585,-0.97997,0.47728,-0.002381,0.26,0.56,0
0.21519,0.068463,0.75866,-0.91924,-0.75704,-1.2615,0.033534,0,0,0.44499,0.65585,0,0.087187,0,0,0.8858,-0.05525,0,0.88759,-0.75039,-0.9259,-1.2615,78.768,-0.97928,0.44986,-0.0023911,0.28,0.56,0
0.22405,0.064357,0.74118,-0.89042,-0.79596,-1.2471,0.011446,0,0,0.46369,0.58648,0,0.02976,0,0,0.8539,-0.062192,0,0.85633,-0.79459,-0.89179,-1.2471,83.188,-0.97783,0.41259,-0.0029435,0.3,0.56,0
0.23374,0.058363,0.7245,-0.84421,-0.91151,-1.2512,-0.018161,0,0,0.52911,0.44162,0,-0.047218,0,0,0.80602,-0.067374,0,0.80935,-0.83963,-0.9161,-1.2512,-14.179,-1.0023,0.37919,-0.0024207,0.32,0.56,0
0.24521,0.051243,0.70895,-0.79846,-1.1138,-1.2826,-0.0048789,0,0,0.62939,0.21952,0,-0.012685,0,0,0.74231,-0.091008,0,0.74862,-0.79839,-1.1138,-1.2826,-0.88636,-1.0649,0.42571,0.0019664,0.34,0.56,0
0.25892,0.045089,0.69481,-0.73438,-1.2551,-1.2916,0.053369,0,0,0.72444,0.04755,0,0.13876,0,0,0.66913,-0.13803,0,0.68389,-0.72897,-1.2605,-1.2916,5.7924,-1.0937,0.54776,0.0083489,0.36,0.56,0
0.27419,0.040953,0.68218,-0.66034,-1.3298,-1.2792,0.11911,0,0,0.80456,-0.065777,0,0.30969,0,0,0.58725,-0.21147,0,0.62448,-0.63978,-1.3504,-1.2792,9.7937,-1.0898,0.67784,0.015403,0.38,0.56,0
0.2911,0.037717,0.67132,-0.60852,-1.4183,-1.2794,0.15213,0,0,0.87209,-0.1806,0,0.39555,0,0,0.49116,-0.29364,0,0.57432,-0.58088,-1.4459,-1.2794,10.297,-1.102,0.79495,0.022032,0.4,0.56,0
0.30907,0.033304,0.66253,-0.5428,-0.99125,-0.8743,0.12895,0,0,0.37557,-0.24326,0,0.77536,0,0,0.40214,-0.20749,0,0.46362,-0.47912,-1.0549,-0.8743,25.904,-0.80278,0.51982,0.011949,0.42,0.56,0
0.30612,0.044821,0.63334,-0.4967,-0.55527,-0.47393,0.10209,0,0,-0.11844,-0.42299,0,1.0617,0,0,0.35131,-0.089796,0,0.36293,-0.41978,-0.63219,-0.47393,36.998,-0.50863,0.19118,-0.00026421,0.44,0.56,0
0.30434,0.052052,0.60632,-0.47682,-0.55171,-0.46014,0.0807,0,0,-0.086761,-0.47614,0,0.83928,0,0,0.32752,-0.080661,0,0.33741,-0.4253,-0.60323,-0.46014,32.556,-0.49622,0.16332,-0.00018986,0.46,0.56,0
0.30265,0.056207,0.58093,-0.46482,-0.53961,-0.44656,0.064248,0,0,-0.094955,-0.48385,0,0.66818,0,0,0.31171,-0.068182,0,0.31908,-0.42788,-0.57656,-0.44656,29.9,-0.48367,0.14027,-0.00013331,0.48,0.56,0
0.30054,0.058272,0.55645,-0.45748,-0.52508,-0.43388,0.051391,0,0,-0.12272,-0.47423,0,0.53446,0,0,0.30312,-0.056772,0,0.30837,-0.42977,-0.55279,-0.43388,28.334,-0.47215,0.12102,-9.0669e-05,0.5,0.56,0
0.29774,0.058863,0.53243,-0.45266,-0.50857,-0.42148,0.041305,0,0,-0.16213,-0.4529,0,0.42957,0,0,0.29884,-0.047231,0,0.30253,-0.43074,-0.53049,-0.42148,27.953,-0.4609,0.10469,-5.7385e-05,0.52,0.56,0
0.29405,0.058385,0.50864,-0.44975,-0.49127,-0.40947,0.033569,0,0,-0.20949,-0.4254,0,0.34912,0,0,0.29695,-0.039546,0,0.29956,-0.43104,-0.50998,-0.40947,29.133,-0.45016,0.091653,-3.2276e-05,0.54,0.56,0
0.28936,0.05717,0.48492,-0.44792,-0.47393,-0.39778,0.027884,0,0,-0.26071,-0.39595,0,0.29,0,0,0.29634,-0.033443,0,0.29822,-0.43016,-0.49169,-0.39778,32.499,-0.43988,0.082623,-1.4701e-05,0.56,0.56,0
0.28363,0.055484,0.46122,-0.44654,-0.45711,-0.3864,0.023836,0,0,-0.31273,-0.36768,0,0.2479,0,0,0.29635,-0.028577,0,0.29773,-0.42741,-0.47624,-0.3864,38.751,-0.43001,0.077901,-3.6438e-06,0.58,0.56,0
0.27685,0.05353,0.4375,-0.4452,-0.44111,-0.37527,0.020974,0,0,-0.36365,-0.34236,0,0.21813,0,0,0.29662,-0.024626,0,0.29763,-0.42208,-0.46423,-0.37527,47.788,-0.42052,0.077076,2.1317e-06,0.6,0.56,0
0.26908,0.051452,0.41376,-0.4437,-0.42601,-0.36435,0.018886,0,0,-0.4126,-0.32061,0,0.19641,0,0,0.29694,-0.02132,0,0.2977,-0.414,-0.45571,-0.36435,57.548,-0.41135,0.079216,3.825e-06,0.62,0.56,0
0.26035,0.049346,0.38999,-0.44197,-0.41177,-0.35362,0.017244,0,0,-0.45941,-0.30237,0,0.17934,0,0,0.29722,-0.018455,0,0.29779,-0.40395,-0.44979,-0.35362,65.603,-0.40245,0.083315,2.3967e-06,0.64,0.56,0
0.2507,0.047271,0.36621,-0.44002,-0.39828,-0.34304,0.015817,0,0,-0.50429,-0.28723,0,0.1645,0,0,0.29745,-0.015875,0,0.29787,-0.39296,-0.44534,-0.34304,71.422,-0.39378,0.088599,-1.4839e-06,0.66,0.56,0
0.24018,0.045262,0.3424,-0.43791,-0.38543,-0.3326,0.014445,0,0,-0.54759,-0.2747,0,0.15023,0,0,0.2976,-0.013462,0,0.29791,-0.38172,-0.44162,-0.3326,75.583,-0.38531,0.094568,-7.4043e-06,0.68,0.56,0
0.2288,0.043335,0.31859,-0.43569,-0.37312,-0.32229,0.013019,0,0,-0.58968,-0.26431,0,0.1354,0,0,0.29769,-0.011119,0,0.2979,-0.37052,-0.43829,-0.32229,78.703,-0.37704,0.10093,-1.5148e-05,0.7,0.56,0
0.21659,0.041499,0.29477,-0.43343,-0.36127,-0.3121,0.011456,0,0,-0.6309,-0.25567,0,0.11915,0,0,0.29773,-0.0087595,0,0.29786,-0.3595,-0.43521,-0.3121,81.192,-0.36894,0.10755,-2.465e-05,0.72,0.56,0
0.20356,0.039753,0.27095,-0.43119,-0.34981,-0.30204,0.0096821,0,0,-0.67159,-0.24841,0,0.10069,0,0,0.29773,-0.0062949,0,0.29779,-0.34867,-0.43233,-0.30204,83.308,-0.36101,0.11434,-3.5983e-05,0.74,0.56,0
0.18973,0.038089,0.24714,-0.42905,-0.33867,-0.2921,0.0076205,0,0,-0.71213,-0.24216,0,0.079253,0,0,0.2977,-0.0036281,0,0.29772,-0.33803,-0.42968,-0.2921,85.214,-0.35327,0.12133,-4.94e-05,0.76,0.56,0
0.17508,0.036496,0.22332,-0.42711,-0.32777,-0.2823,0.0051834,0,0,-0.75305,-0.23648,0,0.053907,0,0,0.2977,-0.00063926,0,0.2977,-0.3275,-0.42738,-0.2823,87.021,-0.34573,0.12859,-6.5451e-05,0.78,0.56,0
0.1596,0.034958,0.1995,-0.42558,-0.31704,-0.27266,0.0022677,0,0,-0.79519,-0.23075,0,0.023584,0,0,0.29779,0.0028281,0,0.2978,-0.31699,-0.42563,-0.27266,88.804,-0.33843,0.13632,-8.5244e-05,0.8,0.56,0
0.14327,0.033453,0.17567,-0.42477,-0.30633,-0.26325,-0.001233,0,0,-0.83993,-0.22401,0,-0.012823,0,0,0.29814,0.0069852,0,0.29821,-0.30632,-0.42479,-0.26325,-89.404,-0.33145,0.14489,-0.00011093,0.82,0.56,0
0.12601,0.031964,0.1518,-0.4252,-0.29543,-0.25414,-0.0053887,0,0,-0.8895,-0.21472,0,-0.056043,0,0,0.29904,0.012116,0,0.29927,-0.29521,-0.42542,-0.25414,-87.626,-0.32492,0.15488,-0.00014656,0.84,0.56,0
0.10769,0.030479,0.12783,-0.42765,-0.28406,-0.24547,-0.010124,0,0,-0.94735,-0.20066,0,-0.10529,0,0,0.30113,0.018574,0,0.30169,-0.28335,-0.42836,-0.24547,-85.987,-0.31906,0.1672,-0.00019917,0.86,0.56,0
0.088114,0.029029,0.10362,-0.43307,-0.2718,-0.23736,-0.015104,0,0,-1.0177,-0.17904,0,-0.15708,0,0,0.3057,0.026699,0,0.30686,-0.27039,-0.43447,-0.23736,-84.695,-0.31408,0.18284,-0.00027973,0.88,0.56,0
0.066985,0.027679,0.078915,-0.44244,-0.2586,-0.23004,-0.019434,0,0,-1.1045,-0.14849,0,-0.20212,0,0,0.31515,0.036416,0,0.31727,-0.25656,-0.44448,-0.23004,-84.031,-0.31036,0.20248,-0.0004018,0.9,0.56,0
0.043934,0.026566,0.053198,-0.45393,-0.24334,-0.22248,-0.02266,0,0,-1.2035,-0.10847,0,-0.23567,0,0,0.33034,0.044958,0,0.33354,-0.24093,-0.45634,-0.22248,-83.927,-0.30658,0.2252,-0.00057335,0.92,0.56,0
0.018843,0.025342,0.026061,-0.46572,-0.26614,-0.23585,-0.022824,0,0,-0.76928,-0.063018,0,-0.14351,0,0,0.36278,0.10309,0,0.38172,-0.26347,-0.4684,-0.23585,-83.381,-0.32257,0.22072,-0.00052547,0.94,0.56,0
0.013163,0.027356,0.018334,-0.5059,-0.36256,-0.27887,-0.029857,0,0,-0.29513,-0.1088,0,-0.077627,0,0,0.41492,0.13445,0,0.43688,-0.35659,-0.51187,-0.27887,-78.692,-0.38244,0.20547,-0.00024027,0.96,0.56,0
0.007038,0.028431,0.009464,-0.52031,-0.33875,-0.26718,-0.021001,0,0,-0.32907,-0.093036,0,-0.054603,0,0,0.45835,0.065553,0,0.46227,-0.33635,-0.52271,-0.26718,-83.487,-0.37541,0.22892,-0.00043179,0.98,0.56,0
0,0.028641,0,-0.52346,-0.31909,-0.25276,0.0040495,0,0,-0.3519,-0.086223,0,0.010529,0,0,0.4732,3.4694e-18,0,0.47243,-0.31901,-0.52354,-0.25276,88.865,-0.3651,0.24448,-0.00056885,1,0.56,0
0,0.04113,1,-0.76239,-1.8317,-1.7782,0.028111,0,0,1.3206,-0.069513,0,0.073089,0,0,0.63715,2.2066e-15,0,0.63662,-0.76165,-1.8324,-1.7782,1.5049,-1.4574,1.0447,0.058034,0,0.58,0
0.026412,0.042592,0.98726,-0.74204,-1.7993,-1.7497,0.06376,0,0,1.3099,-0.064549,0,0.16578,0,0,0.65195,-0.06286,0,0.65445,-0.73821,-1.8032,-1.7497,3.4387,-1.4303,1.0392,0.05713,0.02,0.58,0
0.052396,0.047987,0.97392,-0.77886,-1.7835,-1.7426,0.15601,0,0,1.2529,-0.053148,0,0.40563,0,0,0.71066,-0.13491,0,0.72345,-0.75519,-1.8072,-1.7426,8.6268,-1.435,1.0212,0.053968,0.04,0.58,0
0.076528,0.059272,0.95883,-0.83523,-1.5844,-1.6847,0.26256,0,0,1.1043,0.13045,0,0.68265,0,0,0.79526,-0.19653,0,0.82235,-0.75238,-1.6672,-1.6847,17.515,-1.3681,0.92371,0.040431,0.06,0.58,0
0.096569,0.075202,0.94211,-0.81503,-1.0278,-1.495,0.20978,0,0,0.88393,0.60727,0,0.54544,0,0,0.86698,-0.090674,0,0.87077,-0.68621,-1.1567,-1.495,31.552,-1.1126,0.70352,0.0049796,0.08,0.58,0
0.11188,0.08629,0.92415,-0.90038,-0.95745,-1.4815,0.1064,0,0,0.75546,0.68127,0,0.27665,0,0,0.90128,-0.055182,0,0.90291,-0.81875,-1.0391,-1.4815,37.493,-1.1131,0.5846,-0.0055663,0.1,0.58,0
0.12679,0.091447,0.90606,-0.87357,-0.88782,-1.4345,0.039353,0,0,0.72917,0.71066,0,0.10232,0,0,0.90855,-0.037819,0,0.90933,-0.8407,-0.92069,-1.4345,39.872,-1.0653,0.5581,-0.0083132,0.12,0.58,0
0.14105,0.093465,0.88781,-0.86798,-0.84316,-1.4011,0.012003,0,0,0.69312,0.72539,0,0.031207,0,0,0.9158,-0.029208,0,0.91627,-0.8383,-0.87284,-1.4011,67.981,-1.0374,0.5464,-0.0082656,0.14,0.58,0
0.15451,0.093573,0.86943,-0.87287,-0.81019,-1.3743,0.002933,0,0,0.65192,0.7334,0,0.0076257,0,0,0.92128,-0.025563,0,0.92163,-0.81005,-0.87301,-1.3743,87.327,-1.0191,0.5356,-0.0075248,0.16,0.58,0
0.16713,0.092633,0.85096,-0.88048,-0.78513,-1.3506,0.0047542,0,0,0.6112,0.73517,0,0.012361,0,0,0.9244,-0.02493,0,0.92474,-0.78489,-0.88072,-1.3506,87.153,-1.0054,0.52444,-0.0065823,0.18,0.58,0
0.17896,0.091155,0.83245,-0.88609,-0.76607,-1.3281,0.012225,0,0,0.57461,0.73064,0,0.031786,0,0,0.92458,-0.026107,0,0.92495,-0.76483,-0.88732,-1.3281,84.243,-0.99342,0.51311,-0.0056278,0.2,0.58,0
0.19011,0.089396,0.81398,-0.88754,-0.75211,-1.3059,0.021697,0,0,0.54383,0.71988,0,0.056412,0,0,0.9213,-0.028267,0,0.92174,-0.74872,-0.89093,-1.3059,81.117,-0.98184,0.5014,-0.0047614,0.22,0.58,0
0.20071,0.087385,0.7956,-0.88452,-0.74323,-1.2839,0.030029,0,0,0.51923,0.7029,0,0.078076,0,0,0.91395,-0.030733,0,0.91448,-0.73711,-0.89064,-1.2839,78.486,-0.97056,0.48849,-0.0040538,0.24,0.58,0
0.21088,0.084925,0.77742,-0.87861,-0.74068,-1.2632,0.033471,0,0,0.49997,0.67928,0,0.087025,0,0,0.90173,-0.032751,0,0.90235,-0.73299,-0.8863,-1.2632,77.055,-0.96083,0.47259,-0.0035601,0.26,0.58,0
0.22071,0.08153,0.75953,-0.87347,-0.74768,-1.2459,0.026757,0,0,0.48413,0.64765,0,0.069569,0,0,0.88334,-0.033179,0,0.88402,-0.74223,-0.87892,-1.2459,78.476,-0.95568,0.45111,-0.0032964,0.28,0.58,0
0.23025,0.076383,0.74208,-0.87594,-0.77477,-1.2373,-0.0060113,0,0,0.46976,0.60128,0,-0.015629,0,0,0.85722,-0.02978,0,0.85786,-0.77441,-0.8763,-1.2373,-86.612,-0.96267,0.42129,-0.0030962,0.3,0.58,0
0.2395,0.067419,0.72524,-0.79052,-0.80407,-1.2036,-0.064997,0,0,0.53703,0.51942,0,-0.16899,0,0,0.80136,-0.017108,0,0.80141,-0.73195,-0.86264,-1.2036,-42.026,-0.93274,0.42179,-0.0026434,0.32,0.58,0
0.25173,0.054997,0.71003,-0.77041,-1.1856,-1.2968,-0.093324,0,0,0.68435,0.14461,0,-0.24264,0,0,0.71157,0.032789,0,0.71659,-0.7504,-1.2056,-1.2968,-12.103,-1.0843,0.50701,0.00597,0.34,0.58,0
0.26688,0.045109,0.69678,-0.69352,-1.3589,-1.3125,-0.0044652,0,0,0.80468,-0.06032,0,-0.01161,0,0,0.60878,-0.058084,0,0.61174,-0.69349,-1.3589,-1.3125,-0.38447,-1.1217,0.64349,0.013445,0.36,0.58,0
0.28392,0.03874,0.68568,-0.619,-1.3899,-1.2883,0.06778,0,0,0.87014,-0.13199,0,0.17623,0,0,0.51801,-0.14128,0,0.53721,-0.61309,-1.3958,-1.2883,4.9868,-1.0991,0.73489,0.018923,0.38,0.58,0
0.30168,0.034013,0.67606,-0.58296,-1.4223,-1.2776,0.095351,0,0,0.90308,-0.18806,0,0.24791,0,0,0.44378,-0.1998,0,0.48774,-0.57226,-1.433,-1.2776,6.4003,-1.0943,0.79453,0.022476,0.4,0.58,0
0.32004,0.029123,0.66793,-0.52533,-0.95816,-0.8625,0.093599,0,0,0.37651,-0.19897,0,0.58613,0,0,0.38257,-0.14314,0,0.41553,-0.47733,-1.0062,-0.8625,25.219,-0.782,0.48422,0.011817,0.42,0.58,0
0.31674,0.037351,0.63925,-0.4965,-0.53489,-0.46923,0.081547,0,0,-0.14181,-0.34144,0,0.84809,0,0,0.3494,-0.064284,0,0.35539,-0.43192,-0.59947,-0.46923,38.377,-0.50021,0.15236,-0.0001456,0.44,0.58,0
0.31437,0.043373,0.61202,-0.4805,-0.53528,-0.45774,0.068457,0,0,-0.11834,-0.40322,0,0.71195,0,0,0.33288,-0.063621,0,0.33898,-0.43416,-0.58162,-0.45774,34.096,-0.49117,0.1372,-0.00011955,0.46,0.58,0
0.31201,0.047224,0.58598,-0.47046,-0.52691,-0.44571,0.056319,0,0,-0.12873,-0.42224,0,0.58572,0,0,0.32022,-0.058107,0,0.32548,-0.43569,-0.56168,-0.44571,31.692,-0.48103,0.12129,-8.9541e-05,0.48,0.58,0
0.30922,0.049393,0.56079,-0.46386,-0.51463,-0.43374,0.046341,0,0,-0.15659,-0.42063,0,0.48195,0,0,0.31166,-0.051114,0,0.31582,-0.4364,-0.54209,-0.43374,30.642,-0.47075,0.10704,-6.285e-05,0.5,0.58,0
0.30575,0.050299,0.53612,-0.4593,-0.50042,-0.42195,0.038203,0,0,-0.19423,-0.40808,0,0.39731,0,0,0.30637,-0.044265,0,0.30954,-0.43648,-0.52324,-0.42195,30.855,-0.46056,0.094872,-4.0412e-05,0.52,0.58,0
0.30145,0.050266,0.51177,-0.45604,-0.48513,-0.41029,0.031682,0,0,-0.23787,-0.38914,0,0.32949,0,0,0.30328,-0.038148,0,0.30566,-0.43572,-0.50544,-0.41029,32.67,-0.45048,0.085328,-2.2613e-05,0.54,0.58,0
0.29623,0.04955,0.4876,-0.45364,-0.46946,-0.39883,0.026589,0,0,-0.28502,-0.36728,0,0.27652,0,0,0.30156,-0.032899,0,0.30335,-0.43381,-0.48929,-0.39883,36.717,-0.44064,0.079009,-9.6378e-06,0.56,0.58,0
0.29005,0.048362,0.46352,-0.45172,-0.45391,-0.38757,0.022705,0,0,-0.33359,-0.34496,0,0.23614,0,0,0.30067,-0.028459,0,0.30201,-0.43008,-0.47554,-0.38757,43.621,-0.43106,0.076205,-1.3188e-06,0.58,0.58,0
0.28289,0.046868,0.43949,-0.44999,-0.43878,-0.3765,0.019767,0,0,-0.38213,-0.32383,0,0.20557,0,0,0.30023,-0.024691,0,0.30124,-0.42384,-0.46493,-0.3765,52.916,-0.42176,0.076644,2.8191e-06,0.6,0.58,0
0.27476,0.045198,0.41548,-0.44827,-0.42422,-0.36562,0.017505,0,0,-0.42979,-0.30474,0,0.18205,0,0,0.30004,-0.021445,0,0.30081,-0.41501,-0.45748,-0.36562,62.243,-0.4127,0.079633,3.3705e-06,0.62,0.58,0
0.2657,0.043442,0.39148,-0.44648,-0.41028,-0.3549,0.015684,0,0,-0.47624,-0.28796,0,0.16311,0,0,0.29998,-0.018582,0,0.30055,-0.40443,-0.45233,-0.3549,69.548,-0.40388,0.084384,8.9034e-07,0.64,0.58,0
0.25571,0.041665,0.36748,-0.44461,-0.39691,-0.34433,0.014113,0,0,-0.52146,-0.27344,0,0.14678,0,0,0.29998,-0.015982,0,0.3004,-0.39305,-0.44847,-0.34433,74.691,-0.39528,0.090253,-4.1981e-06,0.66,0.58,0
0.24484,0.039907,0.34348,-0.44266,-0.38407,-0.33389,0.01265,0,0,-0.56562,-0.26092,0,0.13156,0,0,0.30001,-0.013545,0,0.30032,-0.38145,-0.44528,-0.33389,78.323,-0.38688,0.096807,-1.1631e-05,0.68,0.58,0
0.23309,0.038194,0.31948,-0.4407,-0.37168,-0.32359,0.011188,0,0,-0.609,-0.25011,0,0.11636,0,0,0.30007,-0.011182,0,0.30028,-0.36991,-0.44247,-0.32359,81.018,-0.37866,0.10379,-2.1301e-05,0.7,0.58,0
0.22048,0.03654,0.29547,-0.43877,-0.35969,-0.31341,0.0096469,0,0,-0.65191,-0.24067,0,0.10033,0,0,0.30016,-0.0088138,0,0.30029,-0.35853,-0.43993,-0.31341,83.145,-0.37062,0.11107,-3.3254e-05,0.72,0.58,0
0.20701,0.034952,0.27146,-0.43695,-0.34802,-0.30335,0.0079612,0,0,-0.6947,-0.23225,0,0.082796,0,0,0.3003,-0.0063597,0,0.30037,-0.34731,-0.43766,-0.30335,84.925,-0.36278,0.1186,-4.7709e-05,0.74,0.58,0
0.19269,0.033432,0.24743,-0.43533,-0.3366,-0.29344,0.006076,0,0,-0.73784,-0.22447,0,0.06319,0,0,0.30053,-0.0037346,0,0.30055,-0.33623,-0.4357,-0.29344,86.491,-0.35512,0.12642,-6.5108e-05,0.76,0.58,0
0.1775,0.031976,0.22337,-0.43403,-0.32536,-0.28366,0.0039449,0,0,-0.7819,-0.21686,0,0.041027,0,0,0.30089,-0.00084322,0,0.30089,-0.32522,-0.43417,-0.28366,87.924,-0.34768,0.13463,-8.624e-05,0.78,0.58,0
0.16141,0.030583,0.19928,-0.43323,-0.3142,-0.27405,0.0015381,0,0,-0.82774,-0.20879,0,0.015996,0,0,0.30151,0.0024242,0,0.30151,-0.31418,-0.43325,-0.27405,89.26,-0.34049,0.14341,-0.00011244,0.8,0.58,0
0.14439,0.02925,0.17513,-0.4332,-0.303,-0.26464,-0.0011354,0,0,-0.8765,-0.19945,0,-0.011808,0,0,0.30255,0.0061897,0,0.30261,-0.30299,-0.43321,-0.26464,-89.5,-0.33361,0.15304,-0.00014587,0.82,0.58,0
0.12635,0.027987,0.15087,-0.43426,-0.29158,-0.25547,-0.0039828,0,0,-0.92971,-0.18778,0,-0.041421,0,0,0.30433,0.010569,0,0.30451,-0.29147,-0.43437,-0.25547,-88.402,-0.32711,0.16389,-0.00018985,0.84,0.58,0
0.1072,0.026819,0.12644,-0.43676,-0.27978,-0.24657,-0.0067715,0,0,-0.98896,-0.1727,0,-0.070423,0,0,0.30737,0.015609,0,0.30777,-0.27949,-0.43705,-0.24657,-87.534,-0.32104,0.17634,-0.00024884,0.86,0.58,0
0.086794,0.025795,0.10169,-0.4409,-0.26753,-0.23795,-0.0090664,0,0,-1.0553,-0.15379,0,-0.094291,0,0,0.31245,0.021107,0,0.31317,-0.26705,-0.44138,-0.23795,-87.015,-0.31546,0.19055,-0.00032756,0.88,0.58,0
0.064987,0.02499,0.076446,-0.44633,-0.25482,-0.22946,-0.010441,0,0,-1.1278,-0.13187,0,-0.10859,0,0,0.3202,0.02612,0,0.32129,-0.25425,-0.4469,-0.22946,-86.889,-0.3102,0.20617,-0.00042822,0.9,0.58,0
0.041684,0.024398,0.050463,-0.45349,-0.24268,-0.22147,-0.010451,0,0,-1.2065,-0.11031,0,-0.10869,0,0,0.33038,0.02814,0,0.33163,-0.24216,-0.45401,-0.22147,-87.169,-0.30588,0.22292,-0.0005524,0.92,0.58,0
0.016726,0.023957,0.023585,-0.45465,-0.27144,-0.23257,-0.0077489,0,0,-0.75669,-0.080851,0,-0.056099,0,0,0.34939,0.062309,0,0.35691,-0.27111,-0.45498,-0.23257,-87.562,-0.31955,0.20738,-0.00041652,0.94,0.58,0
0.011417,0.025107,0.016329,-0.47267,-0.3532,-0.26409,-0.0033829,0,0,-0.27115,-0.11585,0,-0.0087955,0,0,0.38061,0.081139,0,0.38945,-0.35311,-0.47276,-0.26409,-88.379,-0.36332,0.18136,-7.6899e-05,0.96,0.58,0
0.0058795,0.026021,0.0083603,-0.4787,-0.35725,-0.25914,-0.0032027,0,0,-0.28542,-0.12754,0,-0.0083272,0,0,0.40822,0.044925,0,0.41046,-0.35716,-0.47878,-0.25914,-88.49,-0.36503,0.19058,-6.5692e-05,0.98,0.58,0
0,0.026335,0,-0.46902,-0.34059,-0.24288,0.0060334,0,0,-0.29397,-0.12702,0,0.015687,0,0,0.41801,5.2042e-18,0,0.41759,-0.34031,-0.4693,-0.24288,87.316,-0.35083,0.19672,-9.3308e-05,1,0.58,0
0,0.039352,1,-0.79124,-1.8959,-1.8061,0.030811,0,0,1.3194,-0.11664,0,0.08011,0,0,0.56345,6.245e-16,0,0.56256,-0.79039,-1.8967,-1.8061,1.5965,-1.4977,1.0639,0.060344,0,0.6,0
0.026387,0.040955,0.98873,-0.79587,-1.8852,-1.7931,0.073526,0,0,1.2963,-0.11981,0,0.19117,0,0,0.56771,-0.077777,0,0.57189,-0.79093,-1.8902,-1.7931,3.844,-1.4914,1.054,0.058426,0.02,0.6,0
0.051854,0.045911,0.97729,-0.84605,-1.9072,-1.8033,0.21924,0,0,1.2444,-0.13514,0,0.57002,0,0,0.60557,-0.17719,0,0.62778,-0.80254,-1.9507,-1.8033,11.225,-1.5189,1.082,0.06101,0.04,0.6,0
0.076163,0.061095,0.96451,-0.76323,-1.3722,-1.2434,0.31209,0,0,0.90602,-0.42163,0,1.5372,0,0,0.51289,-0.22875,0,0.56366,-0.63023,-1.5052,-1.2434,24.111,-1.1263,0.78377,0.032014,0.06,0.6,0
0.091189,0.089626,0.94395,-0.67089,-0.88243,-1.056,0.2007,0,0,0.80095,-0.17939,0,1.0234,0,0,0.61188,-0.086315,0,0.61966,-0.52845,-1.0249,-1.056,29.75,-0.86976,0.56976,0.0047383,0.08,0.6,0
0.1082,0.10022,0.92535,-0.6092,-0.84865,-1.0157,0.07467,0,0,0.84552,-0.17647,0,0.44914,0,0,0.57892,-0.057925,0,0.58313,-0.58132,-0.87653,-1.0157,18.866,-0.82451,0.47732,-0.0041145,0.1,0.6,0
0.12501,0.10573,0.9069,-0.60147,-0.81846,-0.99279,0.039055,0,0,0.81394,-0.16442,0,0.25337,0,0,0.57634,-0.042173,0,0.57873,-0.59115,-0.82878,-0.99279,14.459,-0.80424,0.45628,-0.0049717,0.12,0.6,0
0.14076,0.10786,0.88846,-0.6156,-0.80128,-0.98035,0.020419,0,0,0.75868,-0.14808,0,0.14709,0,0,0.57673,-0.033435,0,0.57827,-0.61103,-0.80585,-0.98035,14.012,-0.79908,0.43467,-0.0048218,0.14,0.6,0
0.15536,0.10805,0.86999,-0.63054,-0.78478,-0.96834,0.013244,0,0,0.70262,-0.1316,0,0.10208,0,0,0.57789,-0.028566,0,0.57902,-0.6198,-0.79552,-0.96834,34.535,-0.79455,0.41675,-0.004392,0.16,0.6,0
0.16886,0.10712,0.85148,-0.64233,-0.7695,-0.95572,0.012321,0,0,0.65185,-0.1179,0,0.092451,0,0,0.57851,-0.026043,0,0.57942,-0.61339,-0.79843,-0.95572,41.875,-0.78918,0.40153,-0.0038673,0.18,0.6,0
0.18143,0.10554,0.83296,-0.6485,-0.75522,-0.94172,0.014878,0,0,0.60989,-0.1089,0,0.1027,0,0,0.5779,-0.024863,0,0.57871,-0.60501,-0.79872,-0.94172,42.17,-0.78181,0.38895,-0.0033621,0.2,0.6,0
0.19326,0.10356,0.81449,-0.64795,-0.74201,-0.92604,0.018616,0,0,0.57844,-0.10553,0,0.11958,0,0,0.57562,-0.024247,0,0.57635,-0.59567,-0.79429,-0.92604,41.605,-0.772,0.37854,-0.0029451,0.22,0.6,0
0.20457,0.10122,0.79612,-0.64025,-0.72983,-0.9086,0.021406,0,0,0.55817,-0.10802,0,0.13053,0,0,0.57131,-0.023454,0,0.57196,-0.58564,-0.78444,-0.9086,40.768,-0.75956,0.36965,-0.0026542,0.24,0.6,0
0.21559,0.098309,0.77793,-0.62543,-0.71874,-0.88945,0.022157,0,0,0.5498,-0.11603,0,0.13458,0,0,0.56544,-0.021605,0,0.56596,-0.57536,-0.76881,-0.88945,40.023,-0.74454,0.36185,-0.0024958,0.26,0.6,0
0.22652,0.094369,0.75999,-0.60508,-0.70865,-0.86911,0.010575,0,0,0.54982,-0.12856,0,0.045783,0,0,0.55444,-0.017399,0,0.55473,-0.56739,-0.74634,-0.86911,39.315,-0.72761,0.35348,-0.0024516,0.28,0.6,0
0.23754,0.088408,0.74238,-0.59093,-0.7076,-0.85354,-0.0069177,0,0,0.54623,-0.14296,0,-0.047456,0,0,0.54373,-0.008252,0,0.54374,-0.56921,-0.72932,-0.85354,-41.653,-0.71736,0.34216,-0.0023013,0.3,0.6,0
0.24837,0.07914,0.72519,-0.60192,-0.70625,-0.84569,-0.093017,0,0,0.50705,-0.15398,0,-0.45547,0,0,0.54286,0.010738,0,0.54276,-0.51401,-0.79417,-0.84569,-31.29,-0.71796,0.36773,-0.00032511,0.32,0.6,0
0.25782,0.057027,0.70763,-0.60929,-1.0226,-0.93185,-0.17718,0,0,0.59652,-0.31328,0,-0.87594,0,0,0.43099,0.10652,0,0.44385,-0.5429,-1.089,-0.93185,-21.515,-0.85459,0.49244,0.0085162,0.34,0.6,0
0.27471,0.042676,0.69713,-0.67178,-1.4564,-1.3356,-0.081825,0,0,0.86296,-0.15708,0,-0.21275,0,0,0.49506,-0.0017507,0,0.49223,-0.66333,-1.4649,-1.3356,-5.8905,-1.1546,0.74535,0.019128,0.36,0.6,0
0.29234,0.035674,0.68783,-0.61461,-1.4441,-1.3054,0.02427,0,0,0.89808,-0.18023,0,0.063101,0,0,0.44554,-0.087964,0,0.45365,-0.6139,-1.4448,-1.3054,1.6745,-1.1214,0.77072,0.020946,0.38,0.6,0
0.31063,0.030195,0.67931,-0.57239,-1.4331,-1.281,0.056654,0,0,0.92115,-0.19782,0,0.1473,0,0,0.40341,-0.13951,0,0.42716,-0.56868,-1.4368,-1.281,3.7496,-1.0955,0.80168,0.023126,0.4,0.6,0
0.32918,0.025345,0.6717,-0.52194,-0.95337,-0.8624,0.067941,0,0,0.3791,-0.18921,0,0.44264,0,0,0.36587,-0.10217,0,0.38414,-0.48613,-0.98918,-0.8624,24.337,-0.77924,0.464,0.011785,0.42,0.6,0
0.3258,0.031163,0.64362,-0.49693,-0.52315,-0.46693,0.065619,0,0,-0.15599,-0.29234,0,0.68244,0,0,0.34494,-0.048478,0,0.34838,-0.44312,-0.57695,-0.46693,39.351,-0.49567,0.12366,-8.5111e-05,0.44,0.6,0
0.32294,0.035923,0.6165,-0.4841,-0.52388,-0.45652,0.057991,0,0,-0.14341,-0.35027,0,0.60311,0,0,0.3337,-0.050593,0,0.33756,-0.44268,-0.56529,-0.45652,35.534,-0.48816,0.11632,-7.6979e-05,0.46,0.6,0
0.32006,0.039317,0.59023,-0.47502,-0.51714,-0.44521,0.04942,0,0,-0.15502,-0.37407,0,0.51397,0,0,0.32422,-0.04887,0,0.32791,-0.44236,-0.5498,-0.44521,33.459,-0.47912,0.10605,-6.1103e-05,0.48,0.6,0
0.31674,0.041447,0.56463,-0.46884,-0.50646,-0.43375,0.041583,0,0,-0.18247,-0.37812,0,0.43246,0,0,0.31696,-0.045042,0,0.32016,-0.44201,-0.53329,-0.43375,32.828,-0.46968,0.09568,-4.3858e-05,0.5,0.6,0
0.31276,0.04254,0.53952,-0.46442,-0.49367,-0.4223,0.034889,0,0,-0.21898,-0.37109,0,0.36285,0,0,0.3118,-0.040445,0,0.31442,-0.44121,-0.51687,-0.4223,33.628,-0.46013,0.086676,-2.8154e-05,0.52,0.6,0
0.30798,0.042819,0.51474,-0.46109,-0.47974,-0.41093,0.029323,0,0,-0.26082,-0.3578,0,0.30496,0,0,0.30832,-0.035826,0,0.31039,-0.43965,-0.50119,-0.41093,36.179,-0.45059,0.079865,-1.5223e-05,0.54,0.6,0
0.30233,0.042479,0.49018,-0.45847,-0.46528,-0.39967,0.024796,0,0,-0.30573,-0.34119,0,0.25788,0,0,0.30603,-0.031528,0,0.30765,-0.43684,-0.4869,-0.39967,41.086,-0.44114,0.07582,-5.6514e-06,0.56,0.6,0
0.29575,0.041686,0.46577,-0.45627,-0.45072,-0.38854,0.021181,0,0,-0.3522,-0.32333,0,0.22029,0,0,0.30456,-0.027666,0,0.30581,-0.43213,-0.47486,-0.38854,48.733,-0.43184,0.074754,3.7366e-07,0.58,0.6,0
0.28824,0.040577,0.44145,-0.45431,-0.43633,-0.37756,0.018318,0,0,-0.39913,-0.30563,0,0.19051,0,0,0.30363,-0.024241,0,0.30459,-0.42492,-0.46573,-0.37756,58.071,-0.42274,0.076429,2.9401e-06,0.6,0.6,0
0.27979,0.039263,0.41719,-0.45246,-0.42229,-0.36672,0.016031,0,0,-0.44584,-0.28893,0,0.16673,0,0,0.30304,-0.021195,0,0.30378,-0.41536,-0.45939,-0.36672,66.63,-0.41382,0.080283,2.2864e-06,0.62,0.6,0
0.27041,0.037828,0.39297,-0.45064,-0.40866,-0.35603,0.014152,0,0,-0.49196,-0.27366,0,0.14718,0,0,0.30269,-0.018452,0,0.30325,-0.40433,-0.45496,-0.35603,73.006,-0.40511,0.085685,-1.3165e-06,0.64,0.6,0
0.26011,0.036333,0.36876,-0.44882,-0.39546,-0.34547,0.012532,0,0,-0.53739,-0.25992,0,0.13034,0,0,0.30249,-0.01593,0,0.3029,-0.39266,-0.45162,-0.34547,77.42,-0.39659,0.09211,-7.6481e-06,0.66,0.6,0
0.24891,0.034825,0.34457,-0.44702,-0.38268,-0.33505,0.011054,0,0,-0.58223,-0.24765,0,0.11496,0,0,0.3024,-0.013554,0,0.30271,-0.38083,-0.44886,-0.33505,80.519,-0.38825,0.099191,-1.6586e-05,0.68,0.6,0
0.23682,0.033331,0.32038,-0.44526,-0.37027,-0.32475,0.0096231,0,0,-0.62665,-0.23666,0,0.10008,0,0,0.30242,-0.011251,0,0.30263,-0.36905,-0.44648,-0.32475,82.803,-0.38009,0.10671,-2.8129e-05,0.7,0.6,0
0.22384,0.031873,0.29618,-0.4436,-0.35818,-0.31458,0.0081706,0,0,-0.67092,-0.22673,0,0.084974,0,0,0.30255,-0.0089523,0,0.30268,-0.35741,-0.44438,-0.31458,84.585,-0.37212,0.11455,-4.2419e-05,0.72,0.6,0
0.20998,0.030463,0.27197,-0.4421,-0.34637,-0.30454,0.006645,0,0,-0.71536,-0.21755,0,0.069108,0,0,0.3028,-0.0065917,0,0.30288,-0.34591,-0.44256,-0.30454,86.048,-0.36434,0.12269,-5.9762e-05,0.74,0.6,0
0.19523,0.02911,0.24773,-0.44085,-0.33477,-0.29462,0.005013,0,0,-0.76039,-0.2088,0,0.052135,0,0,0.30322,-0.0041023,0,0.30325,-0.33454,-0.44109,-0.29462,87.3,-0.35675,0.13114,-8.0687e-05,0.76,0.6,0
0.17957,0.027822,0.22346,-0.43994,-0.32332,-0.28484,0.0032617,0,0,-0.80651,-0.2001,0,0.033922,0,0,0.30386,-0.0014177,0,0.30386,-0.32323,-0.44003,-0.28484,88.399,-0.34937,0.14,-0.00010602,0.78,0.6,0
0.16297,0.026606,0.19912,-0.43952,-0.31194,-0.27522,0.0014086,0,0,-0.85437,-0.19098,0,0.014649,0,0,0.30483,0.001524,0,0.30483,-0.31193,-0.43954,-0.27522,89.368,-0.34223,0.14938,-0.00013699,0.8,0.6,0
0.14539,0.025476,0.17468,-0.43974,-0.30055,-0.26576,-0.00048163,0,0,-0.9047,-0.18093,0,-0.0050089,0,0,0.30628,0.0047669,0,0.30632,-0.30055,-0.43974,-0.26576,-89.802,-0.33535,0.15946,-0.00017528,0.82,0.6,0
0.12678,0.024452,0.15011,-0.44074,-0.28907,-0.25647,-0.0022762,0,0,-0.9582,-0.16951,0,-0.023673,0,0,0.30846,0.0083043,0,0.30857,-0.28903,-0.44077,-0.25647,-89.14,-0.32876,0.17037,-0.00022304,0.84,0.6,0
0.10707,0.023571,0.12533,-0.4426,-0.27746,-0.24735,-0.003762,0,0,-1.0153,-0.15657,0,-0.039124,0,0,0.31167,0.012009,0,0.3119,-0.27737,-0.44269,-0.24735,-88.696,-0.32247,0.18219,-0.00028237,0.86,0.6,0
0.086171,0.022877,0.10024,-0.44523,-0.26579,-0.23837,-0.0046978,0,0,-1.0757,-0.1426,0,-0.048857,0,0,0.31622,0.015494,0,0.3166,-0.26567,-0.44536,-0.23837,-88.501,-0.31646,0.19478,-0.00035452,0.88,0.6,0
0.064038,0.022404,0.074736,-0.44855,-0.25436,-0.22956,-0.0048867,0,0,-1.1388,-0.12898,0,-0.050822,0,0,0.32218,0.017936,0,0.3227,-0.25424,-0.44868,-0.22956,-88.559,-0.31083,0.20788,-0.00043953,0.9,0.6,0
0.04062,0.022154,0.048695,-0.45219,-0.24293,-0.22071,-0.0042522,0,0,-1.2037,-0.11554,0,-0.044223,0,0,0.32914,0.018208,0,0.32967,-0.24284,-0.45227,-0.22071,-88.836,-0.30528,0.22133,-0.00053813,0.92,0.6,0
0.01589,0.022108,0.022073,-0.45202,-0.28268,-0.23421,-0.00091035,0,0,-0.74682,-0.10083,0,-0.013676,0,0,0.34101,0.038308,0,0.34398,-0.28266,-0.45204,-0.23421,0.1233,-0.32297,0.20071,-0.00034808,0.94,0.6,0
0.010747,0.022722,0.015088,-0.45848,-0.35196,-0.25822,0.0035527,0,0,-0.26034,-0.12186,0,0.0092369,0,0,0.36015,0.050186,0,0.36375,-0.35184,-0.4586,-0.25822,88.092,-0.35622,0.17366,-3.049e-05,0.96,0.6,0
0.0054768,0.023329,0.007667,-0.45925,-0.35713,-0.25258,0.0032043,0,0,-0.26867,-0.13591,0,0.0083312,0,0,0.37721,0.028071,0,0.37816,-0.35703,-0.45935,-0.25258,88.204,-0.35632,0.17907,5.2647e-06,0.98,0.6,0
0,0.02356,0,-0.4495,-0.34668,-0.23886,0.0044462,0,0,-0.27384,-0.14018,0,0.01156,0,0,0.38335,-1.7347e-18,0,0.38317,-0.34649,-0.4497,-0.23886,87.528,-0.34502,0.1826,1.1387e-05,1,0.6,0
0,0.036464,1,-0.75776,-1.9604,-1.8154,0.025675,0,0,1.375,-0.1884,0,0.066754,0,0,0.48159,-5.447e-16,0,0.48059,-0.75721,-1.9609,-1.8154,1.2225,-1.5112,1.138,0.07153,0,0.62,0
0.0275,0.037799,0.99037,-0.74032,-1.9555,-1.7991,0.086863,0,0,1.3764,-0.20331,0,0.22584,0,0,0.47476,-0.076294,0,0.47962,-0.73415,-1.9617,-1.7991,4.068,-1.4983,1.1549,0.073851,0.02,0.62,0
0.055057,0.042581,0.98101,-0.62734,-1.9654,-1.7588,0.16714,0,0,1.4709,-0.26855,0,0.43457,0,0,0.41657,-0.17096,0,0.44735,-0.60678,-1.986,-1.7588,7.0134,-1.4505,1.2808,0.096577,0.04,0.62,0
0.086337,0.047535,0.97371,-0.58295,-1.5297,-1.2424,0.18566,0,0,1.083,-0.59771,0,1.0054,0,0,0.32818,-0.20394,0,0.39911,-0.53561,-1.5771,-1.2424,16.303,-1.1183,0.92465,0.062899,0.06,0.62,0
0.098377,0.068027,0.95041,-0.50173,-0.818,-0.63352,0.10412,0,0,0.68532,-0.9593,0,1.0828,0,0,0.27421,-0.068141,0,0.28271,-0.47053,-0.8492,-0.63352,16.68,-0.65109,0.32899,-0.00043558,0.08,0.62,0
0.11375,0.079231,0.92983,-0.46503,-0.80566,-0.61367,0.062057,0,0,0.77288,-0.99836,0,0.6454,0,0,0.25071,-0.051285,0,0.25588,-0.45408,-0.81661,-0.61367,10.01,-0.62812,0.31471,-0.00032877,0.1,0.62,0
0.12929,0.084871,0.9103,-0.45488,-0.79732,-0.60324,0.037767,0,0,0.77144,-1.0092,0,0.39278,0,0,0.24143,-0.040261,0,0.24474,-0.45077,-0.80144,-0.60324,6.2195,-0.61848,0.30455,-0.00032433,0.12,0.62,0
0.14461,0.087541,0.8912,-0.44855,-0.78539,-0.59298,0.024863,0,0,0.75104,-1.0005,0,0.25858,0,0,0.23733,-0.033109,0,0.23962,-0.44673,-0.78721,-0.59298,4.1989,-0.60897,0.29584,-0.00032065,0.14,0.62,0
0.15933,0.088309,0.87233,-0.4453,-0.7726,-0.58345,0.018363,0,0,0.71841,-0.9836,0,0.19098,0,0,0.2352,-0.028563,0,0.23692,-0.44427,-0.77363,-0.58345,3.2011,-0.60045,0.28637,-0.0003188,0.16,0.62,0
0.17334,0.087917,0.85357,-0.44289,-0.75942,-0.57409,0.016117,0,0,0.68221,-0.96374,0,0.16762,0,0,0.2339,-0.025705,0,0.2353,-0.44207,-0.76024,-0.57409,2.9075,-0.59213,0.27687,-0.00031565,0.18,0.62,0
0.18662,0.086799,0.8349,-0.44033,-0.74628,-0.56471,0.016245,0,0,0.64675,-0.94416,0,0.16895,0,0,0.2329,-0.023809,0,0.23412,-0.43948,-0.74714,-0.56471,3.0309,-0.58378,0.26798,-0.00031162,0.2,0.62,0
0.19921,0.085175,0.81631,-0.43712,-0.7334,-0.55524,0.017133,0,0,0.61417,-0.92647,0,0.17819,0,0,0.23197,-0.022227,0,0.23303,-0.43614,-0.73439,-0.55524,3.2987,-0.57525,0.26003,-0.00030729,0.22,0.62,0
0.21119,0.083064,0.79779,-0.43322,-0.72083,-0.54566,0.017191,0,0,0.58471,-0.91088,0,0.17879,0,0,0.23103,-0.020297,0,0.23191,-0.43219,-0.72185,-0.54566,3.4085,-0.56657,0.25281,-0.00030251,0.24,0.62,0
0.2226,0.080284,0.77934,-0.42719,-0.70716,-0.53514,0.014473,0,0,0.56134,-0.89449,0,0.15052,0,0,0.23032,-0.017094,0,0.23095,-0.42645,-0.7079,-0.53514,2.9514,-0.5565,0.24585,-0.00029157,0.26,0.62,0
0.23346,0.076388,0.76095,-0.42699,-0.69446,-0.52668,0.0048346,0,0,0.51835,-0.87251,0,0.05028,0,0,0.23019,-0.012006,0,0.23048,-0.4269,-0.69455,-0.52668,1.0352,-0.54938,0.23428,-0.00027987,0.28,0.62,0
0.24358,0.070665,0.74252,-0.42514,-0.68105,-0.51749,-0.0091814,0,0,0.48023,-0.85055,0,-0.095487,0,0,0.23288,-0.0030939,0,0.23284,-0.42481,-0.68138,-0.51749,-2.052,-0.54123,0.22504,-0.00026856,0.3,0.62,0
0.25266,0.06126,0.72369,-0.44764,-0.66904,-0.51593,-0.038027,0,0,0.35509,-0.79617,0,-0.39548,0,0,0.24661,0.012275,0,0.24684,-0.44129,-0.67539,-0.51593,-9.4792,-0.5442,0.20712,-0.00026467,0.32,0.62,0
0.25778,0.046614,0.70307,-0.49226,-1.1722,-0.93874,-0.08896,0,0,0.67639,-0.4855,0,-0.47294,0,0,0.28434,0.077686,0,0.30188,-0.4752,-1.1892,-0.93874,-12.946,-0.86772,0.63182,0.020482,0.34,0.62,0
0.27972,0.038826,0.69685,-0.51158,-1.5079,-1.3027,-0.062905,0,0,1.0285,-0.26682,0,-0.16355,0,0,0.34676,0.006002,0,0.34369,-0.50762,-1.5119,-1.3027,-3.5983,-1.1074,0.91775,0.032852,0.36,0.62,0
0.29892,0.031531,0.6892,-0.57157,-1.4839,-1.3058,-0.010253,0,0,0.95456,-0.23152,0,-0.026659,0,0,0.38026,-0.063813,0,0.38486,-0.57145,-1.4841,-1.3058,-0.64379,-1.1204,0.83783,0.02566,0.38,0.62,0
0.3179,0.0261,0.68164,-0.55568,-1.451,-1.2837,0.030047,0,0,0.94637,-0.2176,0,0.078121,0,0,0.36827,-0.10548,0,0.38299,-0.55468,-1.4521,-1.2837,1.9199,-1.0968,0.82615,0.024953,0.4,0.62,0
0.33678,0.021555,0.67447,-0.51754,-0.95918,-0.86456,0.04926,0,0,0.38899,-0.19682,0,0.33465,0,0,0.35099,-0.078256,0,0.36238,-0.49133,-0.98539,-0.86456,23.173,-0.78043,0.45718,0.012282,0.42,0.62,0
0.33346,0.025658,0.647,-0.49714,-0.51763,-0.46618,0.052733,0,0,-0.16098,-0.26754,0,0.54843,0,0,0.33968,-0.038426,0,0.34186,-0.45366,-0.5611,-0.46618,39.502,-0.49365,0.10176,-5.1369e-05,0.44,0.62,0
0.33034,0.029362,0.62012,-0.48676,-0.51614,-0.4559,0.048881,0,0,-0.16048,-0.31324,0,0.50836,0,0,0.33249,-0.041473,0,0.33508,-0.45041,-0.55249,-0.4559,36.637,-0.48627,0.09945,-4.9998e-05,0.46,0.62,0
0.32704,0.032261,0.5938,-0.47889,-0.50967,-0.44502,0.043099,0,0,-0.17611,-0.33621,0,0.44823,0,0,0.32577,-0.041481,0,0.32842,-0.44851,-0.54005,-0.44502,35.172,-0.47786,0.093328,-4.1554e-05,0.48,0.62,0
0.32329,0.034268,0.56799,-0.47309,-0.49984,-0.43388,0.037081,0,0,-0.2039,-0.34301,0,0.38564,0,0,0.32008,-0.039527,0,0.32252,-0.44705,-0.52589,-0.43388,35.082,-0.46894,0.086181,-3.0304e-05,0.5,0.62,0
0.31889,0.035455,0.54259,-0.46876,-0.48801,-0.42268,0.031559,0,0,-0.23963,-0.33972,0,0.32822,0,0,0.31558,-0.036524,0,0.31769,-0.44539,-0.51138,-0.42268,36.521,-0.45982,0.079807,-1.9153e-05,0.52,0.62,0
0.31371,0.035954,0.5175,-0.46539,-0.47504,-0.41151,0.026771,0,0,-0.28021,-0.33039,0,0.27842,0,0,0.3122,-0.033116,0,0.31395,-0.44301,-0.49742,-0.41151,39.892,-0.45065,0.075278,-9.6869e-06,0.54,0.62,0
0.30768,0.035903,0.49264,-0.46264,-0.46148,-0.40039,0.022743,0,0,-0.32367,-0.31763,0,0.23652,0,0,0.30972,-0.029684,0,0.31114,-0.43931,-0.48481,-0.40039,45.731,-0.4415,0.073178,-2.7102e-06,0.56,0.62,0
0.30076,0.035428,0.46794,-0.46028,-0.44768,-0.38938,0.019421,0,0,-0.36872,-0.3032,0,0.20198,0,0,0.30795,-0.026423,0,0.30908,-0.43357,-0.4744,-0.38938,53.986,-0.43245,0.073653,1.4015e-06,0.58,0.62,0
0.29293,0.034643,0.44337,-0.45818,-0.43391,-0.37847,0.016709,0,0,-0.41451,-0.2883,0,0.17377,0,0,0.3067,-0.023407,0,0.30759,-0.4254,-0.4667,-0.37847,62.994,-0.42352,0.07646,2.5296e-06,0.6,0.62,0
0.28418,0.03364,0.41887,-0.45624,-0.42033,-0.36769,0.014489,0,0,-0.46047,-0.27372,0,0.15068,0,0,0.30583,-0.020643,0,0.30653,-0.41521,-0.46136,-0.36769,70.55,-0.41475,0.081122,6.9752e-07,0.62,0.62,0
0.27451,0.032496,0.39443,-0.45439,-0.40701,-0.35703,0.012639,0,0,-0.50629,-0.25989,0,0.13144,0,0,0.30524,-0.018101,0,0.30578,-0.40385,-0.45755,-0.35703,75.961,-0.40614,0.087124,-4.0178e-06,0.64,0.62,0
0.26393,0.031268,0.37003,-0.45262,-0.394,-0.34649,0.011047,0,0,-0.55184,-0.24704,0,0.11488,0,0,0.30488,-0.015735,0,0.30528,-0.39199,-0.45463,-0.34649,79.674,-0.3977,0.094041,-1.1553e-05,0.66,0.62,0
0.25244,0.030001,0.34565,-0.45092,-0.38131,-0.33608,0.0096164,0,0,-0.59716,-0.23519,0,0.10001,0,0,0.30469,-0.013492,0,0.30499,-0.38001,-0.45222,-0.33608,82.277,-0.38944,0.10157,-2.1905e-05,0.68,0.62,0
0.24004,0.028727,0.32128,-0.44932,-0.36892,-0.32579,0.0082714,0,0,-0.64235,-0.22427,0,0.086022,0,0,0.30467,-0.011315,0,0.30488,-0.36808,-0.45016,-0.32579,84.187,-0.38135,0.10953,-3.5163e-05,0.7,0.62,0
0.22674,0.027471,0.2969,-0.44786,-0.35681,-0.31563,0.0069542,0,0,-0.68761,-0.21414,0,0.072323,0,0,0.30482,-0.0091527,0,0.30496,-0.35628,-0.44839,-0.31563,85.658,-0.37343,0.11782,-5.1529e-05,0.72,0.62,0
0.21254,0.026251,0.27251,-0.44659,-0.34493,-0.30558,0.0056269,0,0,-0.73322,-0.2046,0,0.05852,0,0,0.30515,-0.0069521,0,0.30523,-0.34462,-0.4469,-0.30558,86.841,-0.3657,0.1264,-7.135e-05,0.74,0.62,0
0.19742,0.02508,0.24808,-0.44556,-0.33324,-0.29566,0.004272,0,0,-0.77948,-0.19542,0,0.044429,0,0,0.3057,-0.0046659,0,0.30573,-0.33308,-0.44572,-0.29566,87.825,-0.35815,0.13529,-9.5146e-05,0.76,0.62,0
0.18136,0.023972,0.2236,-0.44486,-0.3217,-0.28587,0.0028957,0,0,-0.82676,-0.18634,0,0.030115,0,0,0.30652,-0.0022535,0,0.30652,-0.32164,-0.44493,-0.28587,88.654,-0.35081,0.14453,-0.00012364,0.78,0.62,0
0.16434,0.022943,0.19904,-0.44456,-0.31027,-0.27621,0.001534,0,0,-0.87544,-0.17711,0,0.015954,0,0,0.30769,0.00030953,0,0.30769,-0.31025,-0.44458,-0.27621,89.346,-0.34368,0.15419,-0.00015779,0.8,0.62,0
0.14634,0.022013,0.17437,-0.44473,-0.2989,-0.26668,0.00025888,0,0,-0.92588,-0.16752,0,0.0026924,0,0,0.30933,0.0030161,0,0.30934,-0.2989,-0.44473,-0.26668,89.898,-0.33677,0.16433,-0.00019872,0.82,0.62,0
0.12731,0.021207,0.14955,-0.44542,-0.28758,-0.25728,-0.00081976,0,0,-0.97829,-0.15752,0,-0.0085255,0,0,0.31157,0.0057977,0,0.31162,-0.28757,-0.44542,-0.25728,-89.702,-0.33009,0.17497,-0.00024755,0.84,0.62,0
0.10721,0.020556,0.12452,-0.44658,-0.27635,-0.24801,-0.0015721,0,0,-1.0326,-0.14736,0,-0.01635,0,0,0.31456,0.0084769,0,0.31468,-0.27633,-0.44659,-0.24801,-89.471,-0.32364,0.18605,-0.00030506,0.86,0.62,0
0.086007,0.020091,0.099216,-0.44813,-0.26531,-0.23883,-0.0018848,0,0,-1.0883,-0.13767,0,-0.019602,0,0,0.31838,0.010711,0,0.31856,-0.26529,-0.44815,-0.23883,-89.409,-0.31742,0.19742,-0.00037135,0.88,0.62,0
0.063678,0.019831,0.073576,-0.44989,-0.25452,-0.22972,-0.0017053,0,0,-1.1449,-0.12898,0,-0.017735,0,0,0.32291,0.011985,0,0.32314,-0.25451,-0.44991,-0.22972,-89.5,-0.31138,0.2089,-0.00044605,0.9,0.62,0
0.040211,0.019776,0.04755,-0.45164,-0.24388,-0.22054,-0.0009621,0,0,-1.2017,-0.12137,0,-0.010006,0,0,0.32777,0.011721,0,0.32799,-0.24388,-0.45164,-0.22054,-89.735,-0.30535,0.22036,-0.00052883,0.92,0.62,0
0.01561,0.019924,0.021133,-0.45104,-0.29075,-0.23575,0.0014253,0,0,-0.74116,-0.11441,0,0.0035035,0,0,0.33539,0.023782,0,0.33658,-0.29071,-0.45108,-0.23575,-0.77646,-0.32585,0.19736,-0.00030821,0.94,0.62,0
0.010565,0.020233,0.014321,-0.45298,-0.35306,-0.25613,0.0046316,0,0,-0.2559,-0.126,0,0.012042,0,0,0.34739,0.030974,0,0.34882,-0.35285,-0.45319,-0.25613,87.352,-0.35406,0.17067,-8.162e-06,0.96,0.62,0
0.0053742,0.020585,0.0072374,-0.45238,-0.35418,-0.24921,0.0038526,0,0,-0.26413,-0.13647,0,0.010017,0,0,0.35804,0.017342,0,0.35842,-0.35403,-0.45253,-0.24921,87.757,-0.35192,0.17611,1.5096e-05,0.98,0.62,0
0,0.020728,0,-0.44264,-0.34383,-0.23594,0.0027547,0,0,-0.26871,-0.14026,0,0.0071622,0,0,0.36187,7.8063e-18,0,0.3618,-0.34376,-0.44272,-0.23594,88.404,-0.34081,0.17913,2.1862e-05,1,0.62,0
0,0.031817,1,-0.68559,-2.0233,-1.8127,0.01934,0,0,1.4652,-0.27385,0,0.050284,0,0,0.41086,7.2858e-16,0,0.4101,-0.68532,-2.0236,-1.8127,0.8281,-1.5072,1.2463,0.089897,0,0.64,0
0.029304,0.032822,0.99178,-0.6478,-2.0198,-1.7921,0.064466,0,0,1.4875,-0.29605,0,0.16761,0,0,0.39675,-0.060486,0,0.40062,-0.64478,-2.0228,-1.7921,2.6843,-1.4866,1.2784,0.095621,0.02,0.64,0
0.059501,0.035169,0.98413,-0.61073,-2.0953,-1.7959,0.10952,0,0,1.5408,-0.38917,0,0.28476,0,0,0.35557,-0.12393,0,0.37729,-0.60269,-2.1033,-1.7959,4.1966,-1.5007,1.373,0.1108,0.04,0.64,0
0.090935,0.037186,0.97756,-0.54617,-1.443,-1.2077,0.099259,0,0,1.0826,-0.48941,0,0.59369,0,0,0.30618,-0.096168,0,0.32543,-0.52672,-1.4625,-1.2077,11.912,-1.0656,0.84105,0.059864,0.06,0.64,0
0.10281,0.051254,0.95485,-0.4888,-0.76531,-0.61495,0.073063,0,0,0.65594,-0.78187,0,0.75985,0,0,0.27504,-0.044901,0,0.27887,-0.47069,-0.78343,-0.61495,13.928,-0.62302,0.27111,-0.00013677,0.08,0.64,0
0.11717,0.06029,0.93355,-0.46509,-0.78168,-0.60742,0.047949,0,0,0.74012,-0.90614,0,0.49867,0,0,0.25945,-0.040344,0,0.26263,-0.45798,-0.78878,-0.60742,8.426,-0.61806,0.28692,-0.00020165,0.1,0.64,0
0.13241,0.065356,0.91334,-0.45195,-0.78207,-0.59854,0.030904,0,0,0.76226,-0.95435,0,0.3214,0,0,0.24871,-0.034445,0,0.2511,-0.44909,-0.78494,-0.59854,5.3024,-0.61086,0.29144,-0.00024044,0.12,0.64,0
0.14766,0.067835,0.89376,-0.44499,-0.77764,-0.59023,0.020891,0,0,0.75524,-0.97455,0,0.21726,0,0,0.24239,-0.02979,0,0.24422,-0.44368,-0.77895,-0.59023,3.5795,-0.60429,0.29111,-0.00027343,0.14,0.64,0
0.16262,0.06871,0.87456,-0.44009,-0.76949,-0.58151,0.015801,0,0,0.73539,-0.97747,0,0.16434,0,0,0.23856,-0.026526,0,0.24003,-0.43934,-0.77024,-0.58151,2.7401,-0.59703,0.28752,-0.00029389,0.16,0.64,0
0.17708,0.068567,0.85559,-0.43466,-0.75814,-0.57174,0.014986,0,0,0.71281,-0.9693,0,0.15585,0,0,0.23647,-0.024636,0,0.23775,-0.43396,-0.75884,-0.57174,2.6467,-0.58818,0.28242,-0.00030002,0.18,0.64,0
0.19093,0.067771,0.83677,-0.43268,-0.74566,-0.56269,0.015756,0,0,0.67608,-0.95141,0,0.16386,0,0,0.23464,-0.023371,0,0.2358,-0.43189,-0.74645,-0.56269,2.8747,-0.58034,0.2737,-0.00030177,0.2,0.64,0
0.20412,0.066504,0.81805,-0.42987,-0.73286,-0.55333,0.016416,0,0,0.64201,-0.93355,0,0.17073,0,0,0.23376,-0.021758,0,0.23477,-0.42898,-0.73374,-0.55333,3.0923,-0.57202,0.26542,-0.00029976,0.22,0.64,0
0.21661,0.064785,0.79937,-0.43,-0.7212,-0.5452,0.01419,0,0,0.59905,-0.91518,0,0.14758,0,0,0.23352,-0.019782,0,0.23435,-0.42931,-0.72189,-0.5452,2.7833,-0.56547,0.2552,-0.00029925,0.24,0.64,0
0.22834,0.062462,0.78069,-0.42603,-0.70496,-0.53447,0.011563,0,0,0.56389,-0.88656,0,0.12026,0,0,0.23412,-0.017236,0,0.23475,-0.42555,-0.70544,-0.53447,2.3698,-0.55515,0.24437,-0.00027934,0.26,0.64,0
0.23917,0.059203,0.76191,-0.42561,-0.68681,-0.52421,0.0056346,0,0,0.51268,-0.84556,0,0.058599,0,0,0.23634,-0.013272,0,0.23671,-0.42549,-0.68693,-0.52421,1.2352,-0.54554,0.22867,-0.00025114,0.28,0.64,0
0.24885,0.054386,0.74287,-0.43062,-0.6651,-0.51443,-0.0053882,0,0,0.43583,-0.78348,0,-0.056038,0,0,0.2418,-0.0074985,0,0.24192,-0.4305,-0.66523,-0.51443,-1.3157,-0.53672,0.20601,-0.00021092,0.3,0.64,0
0.2566,0.047293,0.72322,-0.44239,-0.62972,-0.50244,-0.021398,0,0,0.31223,-0.66185,0,-0.22254,0,0,0.25131,-0.0010932,0,0.2514,-0.43998,-0.63213,-0.50244,-6.4346,-0.52485,0.16977,-0.00014148,0.32,0.64,0
0.26133,0.037607,0.70266,-0.4821,-1.1417,-0.92631,-0.03439,0,0,0.66624,-0.44466,0,-0.20372,0,0,0.27272,0.009197,0,0.27305,-0.47829,-1.1455,-0.92631,-7.0195,-0.85004,0.59332,0.019963,0.34,0.64,0
0.28325,0.032004,0.69689,-0.50331,-1.5861,-1.3237,-0.039767,0,0,1.0665,-0.3411,0,-0.10339,0,0,0.30695,-0.002157,0,0.30647,-0.50185,-1.5876,-1.3237,-2.1005,-1.1377,0.98078,0.036891,0.36,0.64,0
0.304,0.026413,0.69038,-0.53126,-1.5118,-1.3033,-0.0064236,0,0,1.0037,-0.27109,0,-0.016701,0,0,0.33691,-0.062683,0,0.34231,-0.53122,-1.5119,-1.3033,-0.37531,-1.1155,0.8948,0.030165,0.38,0.64,0
0.32373,0.02149,0.68353,-0.53577,-1.4727,-1.2861,0.016597,0,0,0.9754,-0.24263,0,0.043152,0,0,0.34201,-0.092569,0,0.3542,-0.53547,-1.473,-1.2861,1.0145,-1.0982,0.85945,0.027477,0.4,0.64,0
0.34301,0.017472,0.6767,-0.51186,-0.97091,-0.86777,0.037235,0,0,0.40483,-0.21453,0,0.26001,0,0,0.33902,-0.066869,0,0.34773,-0.49305,-0.98972,-0.86777,21.558,-0.78351,0.45976,0.013128,0.42,0.64,0
0.33993,0.020462,0.64977,-0.49651,-0.5155,-0.46604,0.042869,0,0,-0.15843,-0.25714,0,0.44584,0,0,0.33477,-0.032541,0,0.33635,-0.4621,-0.54991,-0.46604,38.758,-0.49268,0.085908,-3.2331e-05,0.44,0.64,0
0.33667,0.023393,0.62314,-0.48866,-0.51126,-0.45576,0.0412,0,0,-0.17107,-0.28859,0,0.42848,0,0,0.33065,-0.035408,0,0.33254,-0.45724,-0.54268,-0.45576,37.331,-0.48523,0.086191,-3.2853e-05,0.46,0.64,0
0.33308,0.025869,0.59687,-0.48208,-0.50406,-0.44506,0.037361,0,0,-0.19252,-0.30679,0,0.38855,0,0,0.32617,-0.035986,0,0.32815,-0.45412,-0.53201,-0.44506,36.806,-0.47706,0.082793,-2.7972e-05,0.48,0.64,0
0.32897,0.027726,0.57095,-0.47681,-0.49446,-0.43412,0.032768,0,0,-0.222,-0.31376,0,0.34079,0,0,0.32192,-0.034952,0,0.32382,-0.4517,-0.51957,-0.43412,37.465,-0.46846,0.078158,-2.0401e-05,0.5,0.64,0
0.3242,0.028951,0.54536,-0.47261,-0.4832,-0.42308,0.028225,0,0,-0.25754,-0.31262,0,0.29354,0,0,0.31822,-0.032918,0,0.31992,-0.44919,-0.50663,-0.42308,39.686,-0.45963,0.074025,-1.2436e-05,0.52,0.64,0
0.31867,0.029604,0.52004,-0.4692,-0.47092,-0.41204,0.0241,0,0,-0.29719,-0.30615,0,0.25064,0,0,0.31516,-0.030368,0,0.31662,-0.44594,-0.49417,-0.41204,43.976,-0.45072,0.071485,-5.5667e-06,0.54,0.64,0
0.31232,0.029774,0.49493,-0.46633,-0.45803,-0.40104,0.020522,0,0,-0.33948,-0.29636,0,0.21343,0,0,0.31273,-0.027633,0,0.31394,-0.44124,-0.48312,-0.40104,50.712,-0.4418,0.071084,-6.504e-07,0.56,0.64,0
0.30509,0.029558,0.47,-0.46384,-0.44486,-0.39011,0.017499,0,0,-0.3834,-0.28469,0,0.18199,0,0,0.31084,-0.024912,0,0.31184,-0.43444,-0.47426,-0.39011,59.237,-0.43294,0.072909,1.8472e-06,0.58,0.64,0
0.29698,0.029045,0.4452,-0.46162,-0.43161,-0.37927,0.014981,0,0,-0.42825,-0.27215,0,0.15581,0,0,0.30941,-0.022309,0,0.31021,-0.42541,-0.46782,-0.37927,67.527,-0.42417,0.076711,1.6882e-06,0.6,0.64,0
0.28796,0.028314,0.4205,-0.4596,-0.41842,-0.36853,0.012889,0,0,-0.47356,-0.25944,0,0.13404,0,0,0.30835,-0.019863,0,0.30899,-0.41472,-0.4633,-0.36853,73.977,-0.41552,0.082083,-1.2402e-06,0.62,0.64,0
0.27804,0.027432,0.39586,-0.45772,-0.4054,-0.3579,0.011133,0,0,-0.51906,-0.24699,0,0.11578,0,0,0.30759,-0.017574,0,0.30809,-0.40313,-0.45999,-0.3579,78.474,-0.40701,0.088604,-6.9957e-06,0.64,0.64,0
0.2672,0.026452,0.37128,-0.45597,-0.3926,-0.34739,0.0096278,0,0,-0.56462,-0.23507,0,0.10013,0,0,0.3071,-0.015418,0,0.30748,-0.39117,-0.4574,-0.34739,81.55,-0.39865,0.095933,-1.5634e-05,0.66,0.64,0
0.25545,0.025417,0.34673,-0.45434,-0.38003,-0.33699,0.0082965,0,0,-0.61022,-0.22378,0,0.086284,0,0,0.30682,-0.013362,0,0.30711,-0.37911,-0.45526,-0.33699,83.707,-0.39046,0.10382,-2.7245e-05,0.68,0.64,0
0.24279,0.02436,0.32219,-0.45285,-0.3677,-0.32671,0.007077,0,0,-0.65592,-0.21313,0,0.0736,0,0,0.30676,-0.011367,0,0.30697,-0.36712,-0.45344,-0.32671,85.281,-0.38242,0.11212,-4.1985e-05,0.7,0.64,0
0.22922,0.023307,0.29765,-0.45152,-0.3556,-0.31655,0.005923,0,0,-0.70186,-0.20307,0,0.0616,0,0,0.30692,-0.0093921,0,0.30706,-0.35524,-0.45189,-0.31655,86.48,-0.37456,0.12074,-6.0094e-05,0.72,0.64,0
0.21472,0.022279,0.27308,-0.45039,-0.34371,-0.3065,0.0048065,0,0,-0.74821,-0.19349,0,0.049987,0,0,0.30729,-0.0074004,0,0.30738,-0.34349,-0.4506,-0.3065,87.425,-0.36687,0.12963,-8.1915e-05,0.74,0.64,0
0.19929,0.021293,0.24848,-0.44949,-0.33201,-0.29657,0.0037183,0,0,-0.79518,-0.18428,0,0.03867,0,0,0.30792,-0.0053599,0,0.30796,-0.33189,-0.44961,-0.29657,88.189,-0.35935,0.13879,-0.00010791,0.76,0.64,0
0.18291,0.020368,0.22382,-0.44887,-0.32047,-0.28675,0.0026706,0,0,-0.84298,-0.17532,0,0.027774,0,0,0.30884,-0.0032493,0,0.30885,-0.32042,-0.44892,-0.28675,88.809,-0.35203,0.14823,-0.00013864,0.78,0.64,0
0.16557,0.019522,0.19907,-0.44855,-0.30908,-0.27706,0.0016984,0,0,-0.89179,-0.16652,0,0.017663,0,0,0.3101,-0.0010668,0,0.3101,-0.30906,-0.44858,-0.27706,89.302,-0.3449,0.15797,-0.00017477,0.8,0.64,0
0.14724,0.018775,0.1742,-0.44857,-0.29783,-0.26747,0.00085833,0,0,-0.94173,-0.15787,0,0.0089266,0,0,0.31177,0.0011566,0,0.31177,-0.29783,-0.44858,-0.26747,89.674,-0.33796,0.168,-0.00021696,0.82,0.64,0
0.1279,0.018152,0.14918,-0.44891,-0.28675,-0.25799,0.00022079,0,0,-0.99276,-0.14952,0,0.0022962,0,0,0.31392,0.003337,0,0.31394,-0.28674,-0.44891,-0.25799,89.922,-0.33121,0.17829,-0.00026572,0.84,0.64,0
0.10753,0.017677,0.12397,-0.4495,-0.27587,-0.2486,-0.00014757,0,0,-1.0447,-0.14176,0,-0.0015348,0,0,0.31658,0.0053157,0,0.31663,-0.27587,-0.4495,-0.2486,-89.951,-0.32466,0.18875,-0.00032122,0.86,0.64,0
0.086111,0.017371,0.09853,-0.45027,-0.26525,-0.23929,-0.00020693,0,0,-1.0971,-0.135,0,-0.0021521,0,0,0.31972,0.0068472,0,0.3198,-0.26525,-0.45027,-0.23929,-89.936,-0.31827,0.19927,-0.00038326,0.88,0.64,0
0.063644,0.017245,0.072818,-0.45108,-0.25491,-0.23,5.5557e-05,0,0,-1.1496,-0.12953,0,0.0005778,0,0,0.32319,0.0076224,0,0.32329,-0.25491,-0.45108,-0.23,89.984,-0.312,0.20974,-0.0004514,0.9,0.64,0
0.040127,0.017299,0.04682,-0.45177,-0.24477,-0.22067,0.00064897,0,0,-1.2017,-0.12534,0,0.0067493,0,0,0.32667,0.0073433,0,0.32676,-0.24477,-0.45177,-0.22067,89.82,-0.30574,0.22005,-0.00052516,0.92,0.64,0
0.015574,0.017532,0.020551,-0.45131,-0.2958,-0.23697,0.0021247,0,0,-0.73899,-0.12235,0,0.01008,0,0,0.33172,0.014594,0,0.33218,-0.29574,-0.45136,-0.23697,88.947,-0.32803,0.19606,-0.00028771,0.94,0.64,0
0.010567,0.017682,0.013849,-0.4516,-0.35423,-0.2556,0.0038644,0,0,-0.2548,-0.12822,0,0.010047,0,0,0.33944,0.018925,0,0.33998,-0.35408,-0.45176,-0.2556,87.731,-0.35381,0.16988,1.791e-06,0.96,0.64,0
0.0053822,0.017871,0.0069734,-0.45071,-0.35103,-0.2475,0.0030307,0,0,-0.26418,-0.1346,0,0.0078799,0,0,0.34623,0.010577,0,0.34638,-0.35094,-0.4508,-0.2475,88.26,-0.34975,0.17608,8.546e-06,0.98,0.64,0
0,0.01795,0,-0.44138,-0.33986,-0.23437,0.0015297,0,0,-0.26911,-0.13714,0,0.0039771,0,0,0.34867,-2.6021e-18,0,0.34864,-0.33984,-0.4414,-0.23437,89.137,-0.33854,0.1793,9.6592e-06,1,0.64,0
0,0.02551,1,-0.62305,-2.0757,-1.8096,0.0085979,0,0,1.5426,-0.34593,0,0.022355,0,0,0.36062,-4.3195e-16,0,0.36023,-0.623,-2.0758,-1.8096,0.3391,-1.5028,1.3397,0.10725,0,0.66,0
0.030851,0.025957,0.99279,-0.60422,-2.0803,-1.7981,0.037553,0,0,1.5521,-0.36681,0,0.097639,0,0,0.35083,-0.039953,0,0.35291,-0.60327,-2.0813,-1.7981,1.4564,-1.4942,1.3587,0.11021,0.02,0.66,0
0.062084,0.027014,0.98597,-0.57947,-2.1136,-1.7939,0.05811,0,0,1.5787,-0.4156,0,0.15109,0,0,0.32319,-0.072743,0,0.33164,-0.57727,-2.1158,-1.7939,2.1662,-1.4956,1.4055,0.11777,0.04,0.66,0
0.094,0.027958,0.97986,-0.52336,-1.4127,-1.1932,0.058863,0,0,1.0896,-0.45648,0,0.36262,0,0,0.29181,-0.056785,0,0.29929,-0.5153,-1.4207,-1.1932,8.2228,-1.0431,0.81847,0.061394,0.06,0.66,0
0.10567,0.036751,0.9576,-0.48346,-0.74023,-0.6065,0.047359,0,0,0.63985,-0.69536,0,0.49253,0,0,0.27234,-0.02794,0,0.27384,-0.475,-0.74869,-0.6065,10.124,-0.61006,0.23708,-4.6196e-05,0.08,0.66,0
0.11959,0.042985,0.93629,-0.4628,-0.76335,-0.60192,0.033579,0,0,0.72342,-0.83947,0,0.34923,0,0,0.26117,-0.028743,0,0.2628,-0.45909,-0.76706,-0.60192,6.2979,-0.60935,0.26694,-0.00012223,0.1,0.66,0
0.1346,0.046697,0.91581,-0.44937,-0.77172,-0.59528,0.022293,0,0,0.75875,-0.9175,0,0.23185,0,0,0.25198,-0.027037,0,0.25345,-0.44783,-0.77326,-0.59528,3.9374,-0.60545,0.28224,-0.00018663,0.12,0.66,0
0.14994,0.048559,0.89597,-0.44083,-0.77187,-0.5878,0.015382,0,0,0.76428,-0.95717,0,0.15997,0,0,0.24525,-0.02499,0,0.24654,-0.44011,-0.77258,-0.5878,2.6546,-0.60017,0.28853,-0.00023659,0.14,0.66,0
0.16517,0.049211,0.87657,-0.43512,-0.76717,-0.57983,0.011941,0,0,0.75249,-0.97417,0,0.12419,0,0,0.24065,-0.023388,0,0.24178,-0.43469,-0.7676,-0.57983,2.0569,-0.59404,0.28909,-0.00027249,0.16,0.66,0
0.18004,0.049109,0.85747,-0.42957,-0.75869,-0.57084,0.010634,0,0,0.73462,-0.97678,0,0.1106,0,0,0.23801,-0.021944,0,0.23902,-0.42923,-0.75903,-0.57084,1.8488,-0.58637,0.28656,-0.00029202,0.18,0.66,0
0.19438,0.048535,0.83855,-0.42836,-0.74982,-0.56309,0.0091411,0,0,0.70062,-0.971,0,0.095067,0,0,0.23579,-0.02099,0,0.23672,-0.4281,-0.75008,-0.56309,1.6275,-0.58042,0.28006,-0.00031058,0.2,0.66,0
0.20807,0.047637,0.81974,-0.42584,-0.73686,-0.55374,0.0096434,0,0,0.6651,-0.95219,0,0.10029,0,0,0.235,-0.020824,0,0.23592,-0.42554,-0.73716,-0.55374,1.7742,-0.57215,0.27127,-0.00030868,0.22,0.66,0
0.22099,0.046433,0.80095,-0.42621,-0.7216,-0.54458,0.010925,0,0,0.61555,-0.9205,0,0.11362,0,0,0.23537,-0.020218,0,0.23624,-0.4258,-0.722,-0.54458,2.1151,-0.56413,0.25819,-0.000296,0.24,0.66,0
0.23299,0.044822,0.7821,-0.42315,-0.70239,-0.53319,0.010821,0,0,0.5722,-0.87987,0,0.11254,0,0,0.23672,-0.018666,0,0.23745,-0.42273,-0.70281,-0.53319,2.2159,-0.55291,0.24435,-0.00026686,0.26,0.66,0
0.24388,0.042565,0.76308,-0.42519,-0.68081,-0.52257,0.0073218,0,0,0.50637,-0.82285,0,0.076147,0,0,0.23985,-0.016501,0,0.24042,-0.42498,-0.68102,-0.52257,1.6394,-0.54286,0.22381,-0.00022908,0.28,0.66,0
0.25325,0.039326,0.74372,-0.43094,-0.65285,-0.51107,0.00099242,0,0,0.41668,-0.73728,0,0.010321,0,0,0.24505,-0.013908,0,0.24547,-0.43093,-0.65286,-0.51107,0.25622,-0.53162,0.19465,-0.00017395,0.3,0.66,0
0.26054,0.034786,0.72387,-0.4416,-0.61487,-0.49791,-0.0064751,0,0,0.2928,-0.6082,0,-0.067341,0,0,0.25222,-0.012365,0,0.25255,-0.44136,-0.61511,-0.49791,-2.1372,-0.51813,0.1535,-0.00010437,0.32,0.66,0
0.26496,0.029053,0.70337,-0.46921,-1.1209,-0.91664,-0.011696,0,0,0.66451,-0.42534,0,-0.069616,0,0,0.26624,-0.042295,0,0.27095,-0.46873,-1.1214,-0.91664,-2.6187,-0.83559,0.58274,0.020639,0.34,0.66,0
0.28712,0.024702,0.69785,-0.50152,-1.6211,-1.3346,-0.010934,0,0,1.083,-0.37236,0,-0.028427,0,0,0.28998,-0.076688,0,0.29996,-0.50141,-1.6212,-1.3346,-0.55949,-1.1524,1.0075,0.038555,0.36,0.66,0
0.30828,0.020383,0.69177,-0.52462,-1.5565,-1.3161,-0.00015007,0,0,1.0289,-0.31251,0,-0.00039018,0,0,0.31551,-0.081025,0,0.32583,-0.52462,-1.5565,-1.3161,-0.0083327,-1.1324,0.93515,0.03283,0.38,0.66,0
0.32857,0.016395,0.68534,-0.5218,-1.4923,-1.2896,0.016023,0,0,0.99809,-0.26351,0,0.041659,0,0,0.32563,-0.093812,0,0.33884,-0.52153,-1.4925,-1.2896,0.94563,-1.1012,0.8871,0.029625,0.4,0.66,0
0.34821,0.012973,0.67875,-0.50764,-0.98378,-0.87164,0.030956,0,0,0.42015,-0.23325,0,0.21609,0,0,0.33078,-0.064238,0,0.33908,-0.49372,-0.9977,-0.87164,19.771,-0.78769,0.4661,0.013958,0.42,0.66,0
0.34538,0.015372,0.65221,-0.49578,-0.51498,-0.46628,0.035869,0,0,-0.1534,-0.25325,0,0.37304,0,0,0.33102,-0.029627,0,0.33234,-0.46825,-0.54251,-0.46628,37.507,-0.49235,0.075267,-2.185e-05,0.44,0.66,0
0.34207,0.017818,0.62578,-0.49018,-0.50813,-0.45594,0.035031,0,0,-0.17808,-0.27137,0,0.36432,0,0,0.32904,-0.031647,0,0.33056,-0.46299,-0.53532,-0.45594,37.818,-0.48475,0.076096,-2.1976e-05,0.46,0.66,0
0.33825,0.01999,0.59956,-0.48485,-0.49982,-0.44529,0.032274,0,0,-0.20568,-0.28357,0,0.33565,0,0,0.32623,-0.032079,0,0.32781,-0.4592,-0.52547,-0.44529,38.468,-0.47665,0.074203,-1.8522e-05,0.48,0.66,0
0.33384,0.021717,0.57359,-0.48013,-0.49006,-0.43445,0.028653,0,0,-0.23751,-0.28915,0,0.29799,0,0,0.32315,-0.031323,0,0.32467,-0.45601,-0.51417,-0.43445,40.084,-0.46821,0.071424,-1.3125e-05,0.5,0.66,0
0.32875,0.02295,0.54786,-0.47608,-0.4791,-0.42352,0.024871,0,0,-0.2733,-0.28904,0,0.25865,0,0,0.32017,-0.029773,0,0.32155,-0.45267,-0.50251,-0.42352,43.258,-0.45957,0.069182,-7.3977e-06,0.52,0.66,0
0.32291,0.023708,0.52236,-0.47261,-0.4673,-0.41256,0.021313,0,0,-0.31225,-0.28463,0,0.22165,0,0,0.31748,-0.027761,0,0.31869,-0.44848,-0.49143,-0.41256,48.551,-0.45082,0.068394,-2.5279e-06,0.54,0.66,0
0.31626,0.024048,0.49706,-0.46962,-0.45495,-0.40164,0.018152,0,0,-0.35352,-0.27722,0,0.18878,0,0,0.31518,-0.025535,0,0.31621,-0.4427,-0.48186,-0.40164,56.003,-0.44207,0.069484,7.1123e-07,0.56,0.66,0
0.30877,0.024041,0.47193,-0.46699,-0.44227,-0.39076,0.015436,0,0,-0.3964,-0.26786,0,0.16054,0,0,0.31328,-0.023264,0,0.31414,-0.43486,-0.47441,-0.39076,64.341,-0.43334,0.072475,1.838e-06,0.58,0.66,0
0.30041,0.023757,0.44694,-0.46465,-0.42946,-0.37997,0.013146,0,0,-0.44036,-0.25737,0,0.13671,0,0,0.31175,-0.021043,0,0.31246,-0.4251,-0.46902,-0.37997,71.618,-0.4247,0.077124,5.494e-07,0.6,0.66,0
0.29115,0.023263,0.42205,-0.46254,-0.41664,-0.36927,0.011228,0,0,-0.48503,-0.24635,0,0.11677,0,0,0.31057,-0.018921,0,0.31114,-0.41404,-0.46514,-0.36927,76.965,-0.41615,0.083089,-3.3568e-06,0.62,0.66,0
0.28101,0.022616,0.39725,-0.46062,-0.4039,-0.35867,0.0096169,0,0,-0.53015,-0.23521,0,0.10002,0,0,0.30969,-0.016909,0,0.31015,-0.40232,-0.46221,-0.35867,80.634,-0.40773,0.090034,-1.0035e-05,0.64,0.66,0
0.26995,0.021865,0.3725,-0.45887,-0.3913,-0.34817,0.0082458,0,0,-0.5756,-0.22425,0,0.085756,0,0,0.30909,-0.015,0,0.30945,-0.39031,-0.45986,-0.34817,83.142,-0.39945,0.097687,-1.9628e-05,0.66,0.66,0
0.25798,0.02105,0.34779,-0.45727,-0.37887,-0.33779,0.007053,0,0,-0.62131,-0.21361,0,0.073352,0,0,0.30874,-0.013172,0,0.30902,-0.37824,-0.4579,-0.33779,84.9,-0.39131,0.10585,-3.2301e-05,0.68,0.66,0
0.2451,0.020202,0.3231,-0.45584,-0.36663,-0.32752,0.0059879,0,0,-0.6673,-0.20337,0,0.062274,0,0,0.30865,-0.011398,0,0.30885,-0.36623,-0.45624,-0.32752,86.177,-0.38333,0.11439,-4.8256e-05,0.7,0.66,0
0.23129,0.019349,0.29841,-0.45459,-0.35458,-0.31735,0.0050126,0,0,-0.71364,-0.19357,0,0.052131,0,0,0.30879,-0.00965,0,0.30894,-0.35433,-0.45484,-0.31735,87.138,-0.37551,0.12323,-6.7752e-05,0.72,0.66,0
0.21655,0.018511,0.27369,-0.45353,-0.34272,-0.3073,0.0041045,0,0,-0.76041,-0.18419,0,0.042687,0,0,0.30919,-0.0079008,0,0.30929,-0.34257,-0.45369,-0.3073,87.882,-0.36785,0.13232,-9.1109e-05,0.74,0.66,0
0.20087,0.017708,0.24894,-0.45269,-0.33105,-0.29736,0.003257,0,0,-0.80774,-0.17521,0,0.033873,0,0,0.30985,-0.0061299,0,0.30991,-0.33096,-0.45278,-0.29736,88.467,-0.36037,0.14164,-0.00011871,0.76,0.66,0
0.18424,0.016959,0.22412,-0.45208,-0.31956,-0.28752,0.00248,0,0,-0.85569,-0.16662,0,0.025792,0,0,0.31081,-0.0043272,0,0.31084,-0.31952,-0.45212,-0.28752,88.928,-0.35306,0.15116,-0.00015097,0.78,0.66,0
0.16664,0.016283,0.19921,-0.4517,-0.30827,-0.27779,0.0017989,0,0,-0.90433,-0.15846,0,0.018709,0,0,0.3121,-0.0025007,0,0.31211,-0.30824,-0.45172,-0.27779,89.282,-0.34592,0.16088,-0.0001883,0.8,0.66,0
0.14807,0.015698,0.17418,-0.45155,-0.29717,-0.26816,0.0012504,0,0,-0.95363,-0.15083,0,0.013004,0,0,0.31373,-0.00068557,0,0.31373,-0.29716,-0.45156,-0.26816,89.536,-0.33896,0.17076,-0.00023107,0.82,0.66,0
0.1285,0.015226,0.14901,-0.4516,-0.28629,-0.25862,0.00087306,0,0,-1.0035,-0.1439,0,0.0090798,0,0,0.31573,0.0010453,0,0.31573,-0.28629,-0.4516,-0.25862,89.697,-0.33217,0.18074,-0.00027945,0.84,0.66,0
0.10793,0.014886,0.12367,-0.45178,-0.27568,-0.24915,0.0006956,0,0,-1.0537,-0.13792,0,0.0072343,0,0,0.31807,0.0025732,0,0.31809,-0.27568,-0.45179,-0.24915,89.774,-0.32554,0.19076,-0.0003334,0.86,0.66,0
0.086353,0.014691,0.09812,-0.45204,-0.26535,-0.23975,0.00072723,0,0,-1.1039,-0.13313,0,0.0075632,0,0,0.32068,0.0037372,0,0.32071,-0.26534,-0.45204,-0.23975,89.777,-0.31905,0.20072,-0.00039268,0.88,0.66,0
0.063773,0.01465,0.072357,-0.45228,-0.25529,-0.23036,0.00095928,0,0,-1.154,-0.12963,0,0.0099766,0,0,0.3234,0.0043567,0,0.32344,-0.25528,-0.45228,-0.23036,89.721,-0.31264,0.21057,-0.00045696,0.9,0.66,0
0.040194,0.014763,0.046375,-0.4524,-0.24544,-0.22095,0.0013831,0,0,-1.2036,-0.12737,0,0.014384,0,0,0.32598,0.0042778,0,0.32601,-0.24543,-0.45241,-0.22095,89.617,-0.30626,0.22024,-0.0005259,0.92,0.66,0
0.01563,0.01503,0.020199,-0.45211,-0.29852,-0.23781,0.0021906,0,0,-0.73916,-0.12628,0,0.012006,0,0,0.32947,0.0085822,0,0.32963,-0.29848,-0.45216,-0.23781,88.951,-0.32948,0.19587,-0.00027952,0.94,0.66,0
0.010628,0.015104,0.013565,-0.45192,-0.35481,-0.25559,0.0029091,0,0,-0.25524,-0.129,0,0.0075638,0,0,0.33462,0.011144,0,0.33481,-0.35473,-0.45201,-0.25559,88.286,-0.35411,0.17011,4.1396e-06,0.96,0.66,0
0.005421,0.015201,0.0068143,-0.45113,-0.34863,-0.24674,0.0021052,0,0,-0.2657,-0.13245,0,0.0054734,0,0,0.33911,0.0062316,0,0.33917,-0.34859,-0.45117,-0.24674,88.824,-0.34883,0.17704,-1.7831e-06,0.98,0.66,0
0,0.015243,0,-0.44213,-0.33663,-0.23363,0.0008015,0,0,-0.27105,-0.13391,0,0.0020839,0,0,0.34072,-1.7347e-18,0,0.34071,-0.33663,-0.44213,-0.23363,89.565,-0.33746,0.18058,-6.3018e-06,1,0.66,0
0,0.017979,1,-0.59157,-2.1118,-1.811,0.0032839,0,0,1.5853,-0.39104,0,0.0085381,0,0,0.33095,-2.1164e-15,0,0.33082,-0.59156,-2.1118,-1.811,0.12376,-1.5048,1.3944,0.1177,0,0.68,0
0.031706,0.01815,0.99338,-0.57674,-2.1078,-1.7987,0.017151,0,0,1.5886,-0.40177,0,0.044593,0,0,0.324,-0.022221,0,0.32474,-0.57655,-2.108,-1.7987,0.64172,-1.4944,1.4026,0.11883,0.02,0.68,0
0.063544,0.018546,0.98704,-0.56047,-2.12,-1.7912,0.027458,0,0,1.5999,-0.42748,0,0.071391,0,0,0.30467,-0.040239,0,0.30754,-0.55999,-2.1205,-1.7912,1.0084,-1.4906,1.4247,0.12219,0.04,0.68,0
0.095703,0.018927,0.98119,-0.51452,-1.4066,-1.1896,0.02926,0,0,1.0984,-0.45135,0,0.18369,0,0,0.28285,-0.031493,0,0.28536,-0.51235,-1.4087,-1.1896,4.4146,-1.0369,0.81168,0.062365,0.06,0.68,0
0.10748,0.023439,0.95932,-0.47927,-0.72742,-0.60184,0.025128,0,0,0.63735,-0.65303,0,0.26133,0,0,0.26901,-0.016858,0,0.26958,-0.47675,-0.72994,-0.60184,5.7245,-0.60284,0.21927,-1.1166e-05,0.08,0.68,0
0.1212,0.026711,0.93815,-0.46087,-0.75239,-0.59852,0.018402,0,0,0.71576,-0.80015,0,0.19138,0,0,0.26035,-0.018899,0,0.26108,-0.45971,-0.75355,-0.59852,3.5978,-0.60393,0.2546,-8.0933e-05,0.1,0.68,0
0.13611,0.028656,0.91766,-0.44708,-0.76485,-0.59299,0.012487,0,0,0.75878,-0.89366,0,0.12986,0,0,0.25247,-0.019516,0,0.25325,-0.44659,-0.76534,-0.59299,2.2467,-0.60164,0.27636,-0.00015216,0.12,0.68,0
0.15155,0.029548,0.89776,-0.43757,-0.7685,-0.58626,0.0088211,0,0,0.7732,-0.94766,0,0.09174,0,0,0.24604,-0.019571,0,0.24683,-0.43733,-0.76874,-0.58626,1.5258,-0.59744,0.28749,-0.00021266,0.14,0.68,0
0.16704,0.029744,0.8783,-0.43103,-0.76613,-0.57872,0.0073552,0,0,0.768,-0.97451,0,0.076494,0,0,0.24123,-0.019644,0,0.24203,-0.43087,-0.76629,-0.57872,1.2568,-0.59196,0.29116,-0.00025776,0.16,0.68,0
0.18227,0.029534,0.85916,-0.42641,-0.75948,-0.57056,0.0074753,0,0,0.74955,-0.9824,0,0.077743,0,0,0.23793,-0.019916,0,0.23876,-0.42625,-0.75965,-0.57056,1.2851,-0.58549,0.2896,-0.00028702,0.18,0.68,0
0.19702,0.029115,0.84023,-0.42311,-0.74952,-0.56185,0.0085491,0,0,0.72145,-0.97592,0,0.088911,0,0,0.23597,-0.020343,0,0.23685,-0.42288,-0.74975,-0.56185,1.4992,-0.57816,0.28413,-0.00030135,0.2,0.68,0
0.21113,0.028593,0.82141,-0.42089,-0.73668,-0.55262,0.0099903,0,0,0.68501,-0.9571,0,0.1039,0,0,0.23527,-0.020771,0,0.23619,-0.42057,-0.73699,-0.55262,1.8102,-0.57006,0.27527,-0.00030179,0.22,0.68,0
0.22442,0.027994,0.80259,-0.41989,-0.72088,-0.54288,0.011231,0,0,0.63952,-0.9256,0,0.11681,0,0,0.23583,-0.021017,0,0.23676,-0.41947,-0.7213,-0.54288,2.1341,-0.56122,0.26283,-0.0002885,0.24,0.68,0
0.23671,0.027267,0.78367,-0.42061,-0.70157,-0.53257,0.011712,0,0,0.5822,-0.87878,0,0.12181,0,0,0.23773,-0.020928,0,0.23865,-0.42012,-0.70206,-0.53257,2.383,-0.55158,0.24582,-0.00026075,0.26,0.68,0
0.24771,0.02629,0.76455,-0.4238,-0.67757,-0.52155,0.01095,0,0,0.50827,-0.81129,0,0.11388,0,0,0.2411,-0.020493,0,0.24198,-0.42333,-0.67804,-0.52155,2.4662,-0.54097,0.2225,-0.00021717,0.28,0.68,0
0.25704,0.024895,0.7451,-0.43035,-0.64719,-0.50954,0.0089148,0,0,0.41177,-0.7158,0,0.092714,0,0,0.24593,-0.020008,0,0.24676,-0.42998,-0.64756,-0.50954,2.3503,-0.52902,0.19068,-0.00015863,0.3,0.68,0
0.26418,0.022964,0.7252,-0.4403,-0.6086,-0.49597,0.0064113,0,0,0.28951,-0.5857,0,0.066678,0,0,0.25189,-0.020036,0,0.2527,-0.44005,-0.60885,-0.49597,2.1783,-0.51496,0.14893,-9.2585e-05,0.32,0.68,0
0.26862,0.020562,0.70479,-0.46757,-1.1214,-0.9172,0.0055099,0,0,0.66774,-0.42481,0,0.036486,0,0,0.26294,-0.052877,0,0.26999,-0.46742,-1.1216,-0.9172,1.4344,-0.8354,0.58422,0.020941,0.34,0.68,0
0.29089,0.017255,0.69938,-0.49491,-1.622,-1.3345,0.0082716,0,0,1.0914,-0.37383,0,0.021506,0,0,0.28218,-0.088587,0,0.29599,-0.49485,-1.6221,-1.3345,0.42045,-1.1505,1.0145,0.039446,0.36,0.68,0
0.31227,0.014023,0.69351,-0.50809,-1.561,-1.3142,0.013867,0,0,1.048,-0.3208,0,0.036055,0,0,0.30238,-0.095711,0,0.31728,-0.50791,-1.5612,-1.3142,0.75445,-1.1278,0.95408,0.034733,0.38,0.68,0
0.33281,0.01095,0.68728,-0.51728,-1.5061,-1.2943,0.021421,0,0,1.0101,-0.27531,0,0.055694,0,0,0.31734,-0.10281,0,0.33362,-0.51682,-1.5065,-1.2943,1.2405,-1.1059,0.9025,0.030831,0.4,0.68,0
0.35268,0.0081422,0.68081,-0.50596,-0.99304,-0.87521,0.028946,0,0,0.42986,-0.2451,0,0.19537,0,0,0.32612,-0.066988,0,0.33532,-0.49462,-1.0044,-0.87521,18.522,-0.79141,0.47117,0.014526,0.42,0.68,0
0.35,0.010332,0.65451,-0.49591,-0.51478,-0.46683,0.031168,0,0,-0.15122,-0.24929,0,0.32415,0,0,0.32882,-0.028685,0,0.33007,-0.47278,-0.53791,-0.46683,36.583,-0.49251,0.068295,-1.5943e-05,0.44,0.68,0
0.34663,0.012538,0.6282,-0.4919,-0.50579,-0.45636,0.030177,0,0,-0.18483,-0.25705,0,0.31384,0,0,0.32819,-0.029497,0,0.32952,-0.46788,-0.52981,-0.45636,38.52,-0.48468,0.068424,-1.4892e-05,0.46,0.68,0
0.34261,0.014526,0.602,-0.4875,-0.49645,-0.44568,0.027784,0,0,-0.21743,-0.26398,0,0.28895,0,0,0.32649,-0.029354,0,0.32781,-0.46383,-0.52011,-0.44568,40.424,-0.47654,0.067221,-1.1852e-05,0.48,0.68,0
0.33793,0.01616,0.57596,-0.48319,-0.48639,-0.43487,0.024707,0,0,-0.25129,-0.26794,0,0.25695,0,0,0.32423,-0.028466,0,0.32548,-0.46003,-0.50955,-0.43487,43.145,-0.46815,0.065815,-7.7549e-06,0.5,0.68,0
0.33256,0.017389,0.55012,-0.47923,-0.47559,-0.42397,0.021468,0,0,-0.28731,-0.26838,0,0.22327,0,0,0.32178,-0.02706,0,0.32292,-0.45586,-0.49895,-0.42397,47.423,-0.4596,0.065173,-3.63e-06,0.52,0.68,0
0.32644,0.018218,0.52448,-0.47568,-0.46414,-0.41307,0.018386,0,0,-0.3256,-0.26558,0,0.19121,0,0,0.3194,-0.025337,0,0.3204,-0.45064,-0.48918,-0.41307,53.712,-0.45096,0.065919,-3.2384e-07,0.54,0.68,0
0.31954,0.018685,0.49902,-0.47254,-0.45221,-0.40218,0.01562,0,0,-0.36586,-0.26016,0,0.16244,0,0,0.31722,-0.023461,0,0.31809,-0.44374,-0.48101,-0.40218,61.525,-0.44231,0.068302,1.5396e-06,0.56,0.68,0
0.31181,0.018843,0.47372,-0.46975,-0.43996,-0.39134,0.013224,0,0,-0.40771,-0.25281,0,0.13753,0,0,0.31533,-0.021548,0,0.31607,-0.43494,-0.47477,-0.39134,69.2,-0.43369,0.072276,1.5113e-06,0.58,0.68,0
0.30323,0.01875,0.44857,-0.46727,-0.42753,-0.38058,0.011193,0,0,-0.45078,-0.24414,0,0.11641,0,0,0.31375,-0.019668,0,0.31437,-0.4246,-0.47021,-0.38058,75.303,-0.42513,0.077621,-7.4142e-07,0.6,0.68,0
0.29377,0.01846,0.42352,-0.46506,-0.41503,-0.36991,0.0094916,0,0,-0.49477,-0.23466,0,0.098713,0,0,0.31248,-0.017861,0,0.31299,-0.41329,-0.4668,-0.36991,79.609,-0.41667,0.08406,-5.4803e-06,0.62,0.68,0
0.28343,0.018023,0.39857,-0.46307,-0.40255,-0.35933,0.0080688,0,0,-0.53944,-0.22477,0,0.083916,0,0,0.31151,-0.016139,0,0.31193,-0.40149,-0.46413,-0.35933,82.534,-0.40832,0.091331,-1.293e-05,0.64,0.68,0
0.2722,0.017482,0.37368,-0.46128,-0.39015,-0.34885,0.0068714,0,0,-0.58466,-0.21475,0,0.071463,0,0,0.31083,-0.014499,0,0.31117,-0.38949,-0.46194,-0.34885,84.533,-0.40009,0.099223,-2.3301e-05,0.66,0.68,0
0.26005,0.016873,0.34884,-0.45969,-0.37786,-0.33848,0.0058496,0,0,-0.63033,-0.20481,0,0.060836,0,0,0.31043,-0.012927,0,0.31069,-0.37745,-0.46011,-0.33848,85.932,-0.39201,0.10758,-3.6814e-05,0.68,0.68,0
0.24698,0.016225,0.32401,-0.45829,-0.36572,-0.32821,0.004961,0,0,-0.67643,-0.19508,0,0.051595,0,0,0.31029,-0.011405,0,0.3105,-0.36546,-0.45856,-0.32821,86.941,-0.38407,0.11629,-5.3709e-05,0.7,0.68,0
0.23299,0.015564,0.29919,-0.45708,-0.35375,-0.31805,0.0041735,0,0,-0.72297,-0.18565,0,0.043405,0,0,0.31041,-0.0099108,0,0.31057,-0.35358,-0.45725,-0.31805,87.691,-0.37629,0.12527,-7.4251e-05,0.72,0.68,0
0.21807,0.014911,0.27435,-0.45606,-0.34195,-0.30799,0.0034667,0,0,-0.76997,-0.17659,0,0.036053,0,0,0.31081,-0.0084264,0,0.31093,-0.34184,-0.45616,-0.30799,88.261,-0.36867,0.13448,-9.8737e-05,0.74,0.68,0
0.20219,0.014285,0.24946,-0.45524,-0.33034,-0.29804,0.0028324,0,0,-0.81744,-0.16795,0,0.029457,0,0,0.31149,-0.0069372,0,0.31157,-0.33027,-0.4553,-0.29804,88.702,-0.3612,0.14388,-0.00012748,0.76,0.68,0
0.18537,0.013704,0.22451,-0.45461,-0.31892,-0.28819,0.0022749,0,0,-0.8654,-0.15982,0,0.023659,0,0,0.31246,-0.0054378,0,0.31251,-0.31888,-0.45465,-0.28819,89.04,-0.35391,0.15343,-0.00016077,0.78,0.68,0
0.16758,0.013183,0.19947,-0.45416,-0.30772,-0.27843,0.0018085,0,0,-0.9138,-0.1523,0,0.018808,0,0,0.31374,-0.0039361,0,0.31376,-0.3077,-0.45419,-0.27843,89.293,-0.34677,0.1631,-0.00019887,0.8,0.68,0
0.14882,0.012742,0.17431,-0.45388,-0.29675,-0.26877,0.0014531,0,0,-0.96257,-0.14554,0,0.015112,0,0,0.31532,-0.0024597,0,0.31533,-0.29674,-0.45389,-0.26877,89.47,-0.3398,0.17284,-0.00024195,0.82,0.68,0
0.12907,0.012396,0.14902,-0.45371,-0.28605,-0.25918,0.0012277,0,0,-1.0116,-0.1397,0,0.012768,0,0,0.31718,-0.0010601,0,0.31718,-0.28604,-0.45372,-0.25918,89.581,-0.33298,0.1826,-0.00029002,0.84,0.68,0
0.10835,0.01216,0.12356,-0.45363,-0.27562,-0.24966,0.0011426,0,0,-1.0606,-0.13497,0,0.011883,0,0,0.31927,0.00018505,0,0.31927,-0.27561,-0.45364,-0.24966,89.632,-0.3263,0.19231,-0.00034299,0.86,0.68,0
0.08665,0.012046,0.097932,-0.45357,-0.26547,-0.24019,0.0011956,0,0,-1.1095,-0.13144,0,0.012434,0,0,0.32151,0.0011784,0,0.32151,-0.26547,-0.45358,-0.24019,89.636,-0.31975,0.20193,-0.00040068,0.88,0.68,0
0.063971,0.01206,0.072121,-0.45348,-0.25558,-0.23075,0.001374,0,0,-1.1582,-0.12914,0,0.01429,0,0,0.32373,0.0018188,0,0.32374,-0.25557,-0.45349,-0.23075,89.602,-0.31327,0.21142,-0.00046289,0.9,0.68,0
0.040322,0.012204,0.046135,-0.4533,-0.2459,-0.22129,0.0016641,0,0,-1.2064,-0.12795,0,0.017306,0,0,0.32575,0.0020283,0,0.32575,-0.24589,-0.45331,-0.22129,89.54,-0.30683,0.22075,-0.00052947,0.92,0.68,0
0.015714,0.012481,0.020002,-0.45314,-0.29982,-0.23839,0.0020611,0,0,-0.74059,-0.12777,0,0.012105,0,0,0.32829,0.0044575,0,0.32833,-0.29978,-0.45318,-0.23839,89.042,-0.33045,0.19623,-0.00027843,0.94,0.68,0
0.010699,0.012522,0.013404,-0.45287,-0.35487,-0.25573,0.0021739,0,0,-0.25628,-0.12889,0,0.0056523,0,0,0.33194,0.0058876,0,0.33199,-0.35483,-0.45291,-0.25573,88.73,-0.35449,0.17077,2.2736e-06,0.96,0.68,0
0.0054623,0.012572,0.0067241,-0.45221,-0.34694,-0.24647,0.0014302,0,0,-0.26747,-0.13061,0,0.0037185,0,0,0.33509,0.0033184,0,0.3351,-0.34692,-0.45223,-0.24647,89.222,-0.34854,0.17821,-1.1894e-05,0.98,0.68,0
0,0.012594,0,-0.44344,-0.3344,-0.23335,0.00041385,0,0,-0.27311,-0.13136,0,0.001076,0,0,0.33621,1.1492e-17,0,0.3362,-0.3344,-0.44344,-0.23335,89.782,-0.33706,0.18199,-2.0395e-05,1,0.68,0
0,0.0098686,1,-0.57756,-2.1257,-1.811,0.00034095,0,0,1.6034,-0.40912,0,0.00088648,0,0,0.31618,4.5439e-16,0,0.31615,-0.57756,-2.1257,-1.811,0.012619,-1.5047,1.4172,0.12225,0,0.7,0
0.032069,0.0098864,0.99368,-0.56479,-2.1186,-1.7987,0.0036778,0,0,1.6041,-0.41587,0,0.0095622,0,0,0.31059,-0.0087461,0,0.31074,-0.56478,-2.1186,-1.7987,0.13562,-1.494,1.4211,0.1226,0.02,0.7,0
0.064163,0.0099153,0.98758,-0.55156,-2.1223,-1.7897,0.0056709,0,0,1.6096,-0.43235,0,0.014744,0,0,0.29502,-0.016085,0,0.29564,-0.55154,-2.1223,-1.7897,0.20685,-1.4879,1.4337,0.12434,0.04,0.7,0
0.096454,0.0099039,0.98188,-0.51013,-1.4051,-1.1882,0.0058217,0,0,1.1043,-0.45108,0,0.035286,0,0,0.2774,-0.013077,0,0.27797,-0.51005,-1.4052,-1.1882,0.85252,-1.0345,0.81095,0.063017,0.06,0.7,0
0.10834,0.01063,0.96029,-0.47691,-0.72245,-0.59988,0.0045854,0,0,0.63946,-0.63737,0,0.047688,0,0,0.26604,-0.0082176,0,0.26619,-0.47682,-0.72254,-0.59988,1.0695,-0.59975,0.2128,1.4027e-06,0.08,0.7,0
0.12203,0.010979,0.93931,-0.45925,-0.74757,-0.59688,0.0029146,0,0,0.71563,-0.78363,0,0.030312,0,0,0.25851,-0.010521,0,0.25876,-0.45922,-0.7476,-0.59688,0.57911,-0.60123,0.24983,-6.2817e-05,0.1,0.7,0
0.13696,0.01095,0.91893,-0.44532,-0.76199,-0.59193,0.0016975,0,0,0.76235,-0.88434,0,0.017654,0,0,0.25131,-0.012361,0,0.25163,-0.44532,-0.762,-0.59193,0.30711,-0.59975,0.27451,-0.00013587,0.12,0.7,0
0.15253,0.010653,0.8991,-0.43519,-0.76757,-0.5856,0.0014643,0,0,0.78217,-0.94624,0,0.015228,0,0,0.24513,-0.014003,0,0.24554,-0.43518,-0.76758,-0.5856,0.2524,-0.59612,0.2883,-0.00020124,0.14,0.7,0
0.16825,0.01023,0.87971,-0.42808,-0.76665,-0.57835,0.0022432,0,0,0.78139,-0.97917,0,0.023329,0,0,0.2403,-0.015633,0,0.24082,-0.42806,-0.76666,-0.57835,0.37959,-0.59103,0.29385,-0.00025161,0.16,0.7,0
0.18378,0.0098127,0.86065,-0.42311,-0.76096,-0.57039,0.0038455,0,0,0.76582,-0.99101,0,0.039993,0,0,0.23692,-0.017325,0,0.23755,-0.42307,-0.76101,-0.57039,0.65204,-0.58482,0.29346,-0.00028523,0.18,0.7,0
0.19888,0.0094985,0.84181,-0.41969,-0.75155,-0.56183,0.0060207,0,0,0.73911,-0.98659,0,0.062615,0,0,0.23494,-0.019055,0,0.23571,-0.41958,-0.75166,-0.56183,1.039,-0.57769,0.28858,-0.00030258,0.2,0.7,0
0.21335,0.0093526,0.82306,-0.41758,-0.73886,-0.5527,0.0085218,0,0,0.70261,-0.96804,0,0.088626,0,0,0.23433,-0.020747,0,0.23524,-0.41735,-0.73908,-0.5527,1.5183,-0.56971,0.27979,-0.00030443,0.22,0.7,0
0.22698,0.0094086,0.80431,-0.41692,-0.7228,-0.543,0.011111,0,0,0.6556,-0.93501,0,0.11555,0,0,0.23509,-0.022301,0,0.23614,-0.41651,-0.72321,-0.543,2.0775,-0.5609,0.26696,-0.00029103,0.24,0.7,0
0.23957,0.0096703,0.78545,-0.41815,-0.70281,-0.53265,0.013561,0,0,0.59541,-0.88484,0,0.14104,0,0,0.23724,-0.023631,0,0.23842,-0.4175,-0.70345,-0.53265,2.7213,-0.5512,0.2492,-0.00026186,0.26,0.7,0
0.2508,0.010114,0.76636,-0.42193,-0.67779,-0.5215,0.015692,0,0,0.51781,-0.8127,0,0.16319,0,0,0.24077,-0.024706,0,0.24204,-0.42097,-0.67875,-0.5215,3.4964,-0.54041,0.22504,-0.00021658,0.28,0.7,0
0.26028,0.010694,0.74693,-0.4288,-0.64637,-0.50928,0.0174,0,0,0.41851,-0.71286,0,0.18096,0,0,0.24551,-0.025594,0,0.24686,-0.42742,-0.64775,-0.50928,4.5437,-0.52815,0.1929,-0.00015762,0.3,0.7,0
0.26754,0.011358,0.72707,-0.43875,-0.60771,-0.49571,0.018748,0,0,0.29617,-0.58241,0,0.19498,0,0,0.25107,-0.026457,0,0.25248,-0.43669,-0.60976,-0.49571,6.2564,-0.51405,0.15239,-9.4196e-05,0.32,0.7,0
0.27213,0.012061,0.70675,-0.46603,-1.1239,-0.9187,0.020624,0,0,0.67449,-0.42683,0,0.13101,0,0,0.26114,-0.068667,0,0.2728,-0.46431,-1.1256,-0.9187,4.8797,-0.83621,0.59044,0.02131,0.34,0.7,0
0.29452,0.009749,0.70139,-0.49312,-1.6267,-1.3373,0.024947,0,0,1.0975,-0.37619,0,0.064861,0,0,0.27888,-0.11142,0,0.30051,-0.49257,-1.6273,-1.3373,1.2601,-1.1524,1.0211,0.040181,0.36,0.7,0
0.31603,0.0075507,0.6956,-0.50677,-1.5661,-1.3175,0.028265,0,0,1.0539,-0.32325,0,0.073489,0,0,0.29834,-0.1135,0,0.31933,-0.50602,-1.5669,-1.3175,1.5273,-1.1301,0.96075,0.035408,0.38,0.7,0
0.33668,0.0053831,0.68946,-0.51658,-1.5104,-1.2975,0.029379,0,0,1.0152,-0.27666,0,0.076384,0,0,0.31416,-0.11531,0,0.33472,-0.51572,-1.5112,-1.2975,1.6919,-1.1082,0.90773,0.031355,0.4,0.7,0
0.35664,0.0031696,0.68303,-0.50685,-0.99603,-0.87776,0.029098,0,0,0.4317,-0.24601,0,0.18771,0,0,0.32451,-0.072543,0,0.33534,-0.49642,-1.0065,-0.87776,18.271,-0.79355,0.47188,0.014734,0.42,0.7,0
0.35395,0.0054003,0.6568,-0.49747,-0.51391,-0.46761,0.027937,0,0,-0.15524,-0.24075,0,0.29054,0,0,0.32832,-0.028881,0,0.32958,-0.47657,-0.53481,-0.46761,36.8,-0.493,0.063198,-1.2091e-05,0.44,0.7,0
0.35043,0.0075361,0.6305,-0.49426,-0.50353,-0.45696,0.026179,0,0,-0.19394,-0.24216,0,0.27226,0,0,0.32837,-0.028324,0,0.32959,-0.47231,-0.52548,-0.45696,39.978,-0.48492,0.06228,-9.9132e-06,0.46,0.7,0
0.34619,0.0094304,0.60426,-0.49029,-0.49348,-0.4462,0.023661,0,0,-0.2293,-0.24588,0,0.24608,0,0,0.32726,-0.027377,0,0.3284,-0.46817,-0.5156,-0.4462,43.073,-0.47666,0.061439,-6.9788e-06,0.48,0.7,0
0.34126,0.011,0.57814,-0.48613,-0.48324,-0.43534,0.020813,0,0,-0.26408,-0.24904,0,0.21645,0,0,0.32544,-0.026119,0,0.32649,-0.46382,-0.50555,-0.43534,46.988,-0.46824,0.061156,-3.7584e-06,0.5,0.7,0
0.33563,0.012215,0.55219,-0.48211,-0.47256,-0.42445,0.017953,0,0,-0.29984,-0.25018,0,0.18671,0,0,0.3233,-0.024646,0,0.32423,-0.45876,-0.49591,-0.42445,52.447,-0.4597,0.061906,-8.3933e-07,0.52,0.7,0
0.32926,0.013085,0.52641,-0.4784,-0.46141,-0.41354,0.015281,0,0,-0.33725,-0.24887,0,0.15892,0,0,0.32108,-0.02305,0,0.32191,-0.45242,-0.48739,-0.41354,59.541,-0.45112,0.06398,1.229e-06,0.54,0.7,0
0.32214,0.013642,0.50082,-0.47507,-0.44983,-0.40267,0.0129,0,0,-0.37644,-0.24524,0,0.13416,0,0,0.31897,-0.021411,0,0.31969,-0.44441,-0.48049,-0.40267,67.18,-0.44253,0.067453,1.9748e-06,0.56,0.7,0
0.31421,0.013928,0.47538,-0.47209,-0.43795,-0.39186,0.010845,0,0,-0.41723,-0.23967,0,0.11278,0,0,0.31707,-0.019786,0,0.31769,-0.43479,-0.47525,-0.39186,73.788,-0.43397,0.072228,9.9898e-07,0.58,0.7,0
0.30545,0.013991,0.45008,-0.46946,-0.42585,-0.38111,0.0091088,0,0,-0.45938,-0.23264,0,0.094732,0,0,0.31544,-0.018212,0,0.31596,-0.42403,-0.47128,-0.38111,78.663,-0.42547,0.078119,-2.0408e-06,0.6,0.7,0
0.29583,0.013876,0.42491,-0.46712,-0.41364,-0.37045,0.0076632,0,0,-0.50265,-0.22457,0,0.079697,0,0,0.3141,-0.01671,0,0.31454,-0.41257,-0.46819,-0.37045,82.004,-0.41707,0.084914,-7.4462e-06,0.62,0.7,0
0.28534,0.013625,0.39983,-0.46504,-0.4014,-0.35989,0.0064677,0,0,-0.54681,-0.21584,0,0.067264,0,0,0.31305,-0.015283,0,0.31343,-0.40075,-0.4657,-0.35989,84.256,-0.40878,0.092419,-1.5493e-05,0.64,0.7,0
0.27396,0.013275,0.37482,-0.46321,-0.38918,-0.34942,0.0054792,0,0,-0.5917,-0.20674,0,0.056984,0,0,0.3123,-0.013928,0,0.31261,-0.38878,-0.46361,-0.34942,85.79,-0.4006,0.10047,-2.6447e-05,0.66,0.7,0
0.26167,0.012857,0.34986,-0.4616,-0.37704,-0.33906,0.0046567,0,0,-0.63723,-0.19751,0,0.04843,0,0,0.31184,-0.012632,0,0.3121,-0.37678,-0.46186,-0.33906,86.857,-0.39256,0.10895,-4.057e-05,0.68,0.7,0
0.24847,0.012399,0.32493,-0.4602,-0.36501,-0.32879,0.0039641,0,0,-0.68331,-0.18832,0,0.041226,0,0,0.31166,-0.011383,0,0.31187,-0.36484,-0.46036,-0.32879,87.62,-0.38467,0.11776,-5.8133e-05,0.7,0.7,0
0.23434,0.011923,0.29999,-0.459,-0.35312,-0.31863,0.0033726,0,0,-0.72992,-0.1793,0,0.035075,0,0,0.31177,-0.010164,0,0.31193,-0.35301,-0.45911,-0.31863,88.178,-0.37692,0.12683,-7.9414e-05,0.72,0.7,0
0.21927,0.011447,0.27504,-0.458,-0.34138,-0.30858,0.0028617,0,0,-0.77701,-0.1706,0,0.029762,0,0,0.31216,-0.0089595,0,0.31229,-0.34131,-0.45807,-0.30858,88.595,-0.36932,0.13611,-0.00010469,0.74,0.7,0
0.20326,0.01099,0.25005,-0.45719,-0.32983,-0.29862,0.0024203,0,0,-0.82456,-0.16231,0,0.025171,0,0,0.31284,-0.0077593,0,0.31294,-0.32979,-0.45723,-0.29862,88.912,-0.36188,0.14555,-0.00013422,0.76,0.7,0
0.18629,0.010566,0.22499,-0.45654,-0.31849,-0.28875,0.0020456,0,0,-0.87249,-0.1546,0,0.021275,0,0,0.31381,-0.0065569,0,0.31388,-0.31845,-0.45657,-0.28875,89.151,-0.35459,0.15512,-0.00016824,0.78,0.7,0
0.16836,0.010191,0.19984,-0.45605,-0.30737,-0.27898,0.0017424,0,0,-0.92074,-0.14759,0,0.018121,0,0,0.31507,-0.0053547,0,0.31512,-0.30735,-0.45607,-0.27898,89.329,-0.34747,0.16475,-0.00020689,0.8,0.7,0
0.14946,0.0098768,0.17458,-0.45568,-0.2965,-0.2693,0.0015193,0,0,-0.96917,-0.14147,0,0.015801,0,0,0.31661,-0.0041664,0,0.31663,-0.29649,-0.45569,-0.2693,89.453,-0.34049,0.17439,-0.00025023,0.82,0.7,0
0.12959,0.0096382,0.14918,-0.45539,-0.28591,-0.25969,0.0013849,0,0,-1.0176,-0.13639,0,0.014403,0,0,0.31837,-0.0030191,0,0.31839,-0.2859,-0.4554,-0.25969,89.532,-0.33366,0.18401,-0.00029821,0.84,0.7,0
0.10876,0.0094871,0.12364,-0.45514,-0.27561,-0.25013,0.0013431,0,0,-1.066,-0.13247,0,0.013969,0,0,0.32031,-0.0019538,0,0.32032,-0.2756,-0.45515,-0.25013,89.571,-0.32696,0.19354,-0.00035073,0.86,0.7,0
0.086951,0.0094334,0.097932,-0.4549,-0.26558,-0.24063,0.0013913,0,0,-1.1142,-0.12976,0,0.014469,0,0,0.32232,-0.0010205,0,0.32232,-0.26557,-0.45491,-0.24063,89.579,-0.32037,0.20297,-0.00040765,0.88,0.7,0
0.064186,0.0094844,0.072066,-0.45464,-0.2558,-0.23115,0.0015204,0,0,-1.1621,-0.12818,0,0.015812,0,0,0.32425,-0.00026954,0,0.32426,-0.25578,-0.45465,-0.23115,89.562,-0.31386,0.21226,-0.0004689,0.9,0.7,0
0.040465,0.009645,0.046051,-0.45431,-0.24621,-0.22167,0.0017195,0,0,-1.2097,-0.12761,0,0.017883,0,0,0.32595,0.00026188,0,0.32595,-0.24619,-0.45432,-0.22167,89.527,-0.30739,0.22141,-0.00053448,0.92,0.7,0
0.015797,0.0099191,0.019914,-0.45421,-0.3003,-0.2388,0.0018823,0,0,-0.74258,-0.12792,0,0.011505,0,0,0.32798,0.0014117,0,0.32798,-0.30027,-0.45424,-0.2388,89.15,-0.3311,0.19683,-0.00028106,0.94,0.7,0
0.010762,0.0099482,0.013329,-0.45395,-0.3546,-0.25589,0.001675,0,0,-0.25748,-0.12831,0,0.004355,0,0,0.3308,0.002066,0,0.33081,-0.35457,-0.45398,-0.25589,89.034,-0.35482,0.17155,-1.6766e-06,0.96,0.7,0
0.0054977,0.0099767,0.0066816,-0.4534,-0.34576,-0.24643,0.00099558,0,0,-0.26906,-0.12913,0,0.0025885,0,0,0.33322,0.0012181,0,0.33323,-0.34575,-0.45341,-0.24643,89.47,-0.34853,0.1793,-2.0632e-05,0.98,0.7,0
0,0.0099883,0,-0.44475,-0.33292,-0.2333,0.00022341,0,0,-0.27488,-0.1295,0,0.00058087,0,0,0.33408,8.9718e-18,0,0.33408,-0.33292,-0.44475,-0.2333,89.885,-0.33699,0.18322,-3.1552e-05,1,0.7,0
0,0.0016144,1,-0.57805,-2.1233,-1.8104,-0.0019033,0,0,1.6021,-0.40678,0,-0.0049486,0,0,0.31346,1.9355e-15,0,0.31345,-0.57805,-2.1233,-1.8104,-0.070571,-1.5039,1.415,0.12187,0,0.72,0
0.032041,0.0015155,0.99373,-0.56525,-2.1165,-1.7983,-0.0078606,0,0,1.6029,-0.41373,0,-0.020438,0,0,0.30792,0.0032546,0,0.30799,-0.56522,-2.1166,-1.7983,-0.29032,-1.4933,1.4192,0.12229,0.02,0.72,0
0.064116,0.0012515,0.98768,-0.55177,-2.1207,-1.7894,-0.013506,0,0,1.6089,-0.43063,0,-0.035115,0,0,0.29249,0.0053217,0,0.29273,-0.55165,-2.1208,-1.7894,-0.49318,-1.4873,1.4325,0.12417,0.04,0.72,0
0.096399,0.00088395,0.98203,-0.50988,-1.4042,-1.188,-0.016215,0,0,1.1049,-0.44963,0,-0.10603,0,0,0.27502,0.00329,0,0.2752,-0.50914,-1.4049,-1.188,-2.6033,-1.034,0.81158,0.062973,0.06,0.72,0
0.10831,-0.0020555,0.96064,-0.47637,-0.72271,-0.59989,-0.015545,0,0,0.64226,-0.6387,0,-0.16167,0,0,0.26372,-0.00033511,0,0.26375,-0.4754,-0.72369,-0.59989,-3.5966,-0.59966,0.21503,2.4333e-06,0.08,0.72,0
0.12209,-0.004634,0.93983,-0.45837,-0.74835,-0.59698,-0.012874,0,0,0.72076,-0.78716,0,-0.13389,0,0,0.25621,-0.0026146,0,0.25625,-0.4578,-0.74892,-0.59698,-2.537,-0.60123,0.2522,-6.2524e-05,0.1,0.72,0
0.13714,-0.0067174,0.91964,-0.4441,-0.76325,-0.59212,-0.009632,0,0,0.76969,-0.88992,0,-0.10017,0,0,0.24899,-0.0053705,0,0.24907,-0.44381,-0.76354,-0.59212,-1.7271,-0.59982,0.27714,-0.00013649,0.12,0.72,0
0.15288,-0.0083018,0.9,-0.43363,-0.76933,-0.58589,-0.0064081,0,0,0.79172,-0.95388,0,-0.066644,0,0,0.24277,-0.0083966,0,0.24293,-0.43351,-0.76945,-0.58589,-1.0932,-0.59628,0.29135,-0.00020315,0.14,0.72,0
0.16881,-0.0094231,0.8808,-0.42622,-0.76889,-0.57873,-0.0032463,0,0,0.79306,-0.98882,0,-0.033761,0,0,0.23791,-0.01153,0,0.23819,-0.42619,-0.76892,-0.57873,-0.54273,-0.59128,0.29741,-0.00025517,0.16,0.72,0
0.1846,-0.010106,0.86193,-0.42101,-0.76365,-0.57088,-1.2888e-05,0,0,0.77933,-1.0024,0,-0.00013403,0,0,0.2345,-0.014679,0,0.23496,-0.42101,-0.76365,-0.57088,-0.002155,-0.58518,0.29751,-0.00029049,0.18,0.72,0
0.19998,-0.010349,0.84328,-0.41742,-0.7546,-0.56242,0.0034221,0,0,0.75404,-0.9993,0,0.03559,0,0,0.23255,-0.017798,0,0.23323,-0.41738,-0.75463,-0.56242,0.58142,-0.57815,0.29302,-0.00030929,0.2,0.72,0
0.21476,-0.010129,0.82473,-0.41522,-0.74216,-0.55339,0.0071431,0,0,0.7185,-0.98156,0,0.074288,0,0,0.23203,-0.020861,0,0.23296,-0.41507,-0.74231,-0.55339,1.251,-0.57026,0.28453,-0.00031219,0.22,0.72,0
0.22873,-0.0094068,0.80615,-0.41454,-0.72627,-0.54378,0.011225,0,0,0.67206,-0.94894,0,0.11674,0,0,0.23294,-0.023827,0,0.23416,-0.41413,-0.72667,-0.54378,2.0596,-0.56153,0.27197,-0.00029955,0.24,0.72,0
0.24164,-0.0081267,0.78745,-0.41579,-0.70639,-0.53352,0.01576,0,0,0.6122,-0.89895,0,0.1639,0,0,0.23532,-0.02663,0,0.23683,-0.41493,-0.70725,-0.53352,3.0951,-0.5519,0.25465,-0.00027117,0.26,0.72,0
0.25321,-0.0062184,0.7685,-0.41962,-0.68145,-0.52245,0.020795,0,0,0.53471,-0.82682,0,0.21627,0,0,0.23914,-0.029149,0,0.24092,-0.41797,-0.68309,-0.52245,4.5129,-0.54117,0.23131,-0.00022699,0.28,0.72,0
0.26303,-0.0036194,0.74919,-0.42662,-0.64994,-0.51027,0.026153,0,0,0.43497,-0.72632,0,0.27199,0,0,0.24418,-0.03122,0,0.24619,-0.4236,-0.65297,-0.51027,6.591,-0.52894,0.20061,-0.00016919,0.3,0.72,0
0.27061,-0.00033197,0.72943,-0.43685,-0.61074,-0.49664,0.031103,0,0,0.31088,-0.59335,0,0.32347,0,0,0.25001,-0.032683,0,0.25216,-0.43146,-0.61614,-0.49664,9.8417,-0.51475,0.16223,-0.00010603,0.32,0.72,0
0.27547,0.0034887,0.70919,-0.46495,-1.1292,-0.92149,0.035828,0,0,0.68454,-0.43205,0,0.22558,0,0,0.26038,-0.083741,0,0.27742,-0.46018,-1.134,-0.92149,7.8057,-0.83855,0.60103,0.021747,0.34,0.72,0
0.29799,0.0022072,0.70383,-0.49299,-1.6319,-1.3413,0.042023,0,0,1.1028,-0.37781,0,0.10926,0,0,0.27855,-0.13353,0,0.3091,-0.49144,-1.6335,-1.3413,2.1102,-1.1554,1.0276,0.040915,0.36,0.72,0
0.31958,0.0010925,0.69805,-0.50777,-1.5664,-1.3203,0.04377,0,0,1.0563,-0.31995,0,0.1138,0,0,0.2985,-0.13159,0,0.32634,-0.50597,-1.5682,-1.3203,2.3635,-1.1315,0.96255,0.035763,0.38,0.72,0
0.34025,-0.00011671,0.6919,-0.51867,-1.5058,-1.2992,0.038553,0,0,1.0148,-0.26855,0,0.10024,0,0,0.31477,-0.12902,0,0.34025,-0.51717,-1.5073,-1.2992,2.2332,-1.1079,0.90426,0.031302,0.4,0.72,0
0.36017,-0.0016981,0.68546,-0.50945,-0.99123,-0.87861,0.030182,0,0,0.42533,-0.23424,0,0.18528,0,0,0.3255,-0.079126,0,0.33828,-0.49879,-1.0019,-0.87861,19.173,-0.7931,0.46703,0.014592,0.42,0.72,0
0.35726,0.00070187,0.65913,-0.50064,-0.51184,-0.46853,0.025235,0,0,-0.16699,-0.22523,0,0.26245,0,0,0.32952,-0.029525,0,0.33083,-0.48039,-0.53209,-0.46853,38.744,-0.49367,0.058539,-8.8931e-06,0.44,0.72,0
0.35349,0.0028518,0.63274,-0.49744,-0.5009,-0.45769,0.022422,0,0,-0.20672,-0.22472,0,0.23319,0,0,0.3297,-0.027554,0,0.33085,-0.47668,-0.52166,-0.45769,42.793,-0.48534,0.056906,-6.0315e-06,0.46,0.72,0
0.34899,0.0046908,0.60638,-0.49335,-0.49064,-0.44679,0.019545,0,0,-0.2421,-0.22801,0,0.20327,0,0,0.32869,-0.025716,0,0.3297,-0.4724,-0.51159,-0.44679,46.982,-0.47693,0.056523,-3.2768e-06,0.48,0.72,0
0.34381,0.0061989,0.58014,-0.48897,-0.48044,-0.43586,0.016778,0,0,-0.2762,-0.2318,0,0.1745,0,0,0.32696,-0.023986,0,0.32784,-0.46739,-0.50202,-0.43586,52.138,-0.46842,0.057316,-7.8221e-07,0.5,0.72,0
0.33794,0.0073822,0.55407,-0.4847,-0.46996,-0.42492,0.014226,0,0,-0.31089,-0.23423,0,0.14795,0,0,0.32485,-0.022349,0,0.32562,-0.46131,-0.49335,-0.42492,58.696,-0.45986,0.059309,1.1762e-06,0.52,0.72,0
0.33137,0.0082634,0.52817,-0.48074,-0.45909,-0.41399,0.011947,0,0,-0.34709,-0.23453,0,0.12425,0,0,0.32263,-0.020799,0,0.3233,-0.4538,-0.48604,-0.41399,66.086,-0.45127,0.062508,2.2657e-06,0.54,0.72,0
0.32406,0.0088755,0.50245,-0.47716,-0.44784,-0.40311,0.0099664,0,0,-0.38506,-0.23259,0,0.10365,0,0,0.32049,-0.019339,0,0.32107,-0.44478,-0.48023,-0.40311,72.895,-0.44271,0.066857,2.1318e-06,0.56,0.72,0
0.31597,0.0092562,0.47689,-0.47398,-0.43627,-0.3923,0.0082828,0,0,-0.42476,-0.22865,0,0.086141,0,0,0.31853,-0.017966,0,0.31904,-0.43453,-0.47572,-0.3923,78.143,-0.43418,0.072249,4.1912e-07,0.58,0.72,0
0.30707,0.0094443,0.45148,-0.47117,-0.42446,-0.38156,0.0068793,0,0,-0.46598,-0.22309,0,0.071544,0,0,0.31683,-0.016681,0,0.31727,-0.42347,-0.47217,-0.38156,81.794,-0.42573,0.078539,-3.217e-06,0.6,0.72,0
0.29733,0.0094773,0.4262,-0.4687,-0.4125,-0.37091,0.0057281,0,0,-0.5085,-0.21629,0,0.059573,0,0,0.31541,-0.01548,0,0.31579,-0.41193,-0.46928,-0.37091,84.239,-0.41737,0.085579,-9.1054e-06,0.62,0.72,0
0.28673,0.0093897,0.40102,-0.46653,-0.40047,-0.36035,0.0047964,0,0,-0.55211,-0.20861,0,0.049882,0,0,0.3143,-0.014354,0,0.31462,-0.40013,-0.46687,-0.36035,85.869,-0.40912,0.093231,-1.7561e-05,0.64,0.72,0
0.27524,0.0092124,0.37591,-0.46463,-0.38843,-0.3499,0.0040491,0,0,-0.59662,-0.20037,0,0.042111,0,0,0.31348,-0.013295,0,0.31377,-0.38821,-0.46484,-0.3499,86.967,-0.40098,0.10138,-2.8888e-05,0.66,0.72,0
0.26286,0.0089724,0.35086,-0.46298,-0.37642,-0.33954,0.0034523,0,0,-0.64192,-0.19182,0,0.035904,0,0,0.31297,-0.012292,0,0.31321,-0.37629,-0.46312,-0.33954,87.72,-0.39298,0.10992,-4.3389e-05,0.68,0.72,0
0.24957,0.0086924,0.32583,-0.46157,-0.3645,-0.32928,0.0029749,0,0,-0.6879,-0.18314,0,0.030939,0,0,0.31276,-0.011331,0,0.31296,-0.36441,-0.46166,-0.32928,88.246,-0.38511,0.11878,-6.1363e-05,0.7,0.72,0
0.23535,0.008392,0.30082,-0.46037,-0.35269,-0.31912,0.0025901,0,0,-0.7345,-0.17453,0,0.026937,0,0,0.31284,-0.010402,0,0.31301,-0.35262,-0.46043,-0.31912,88.623,-0.37739,0.1279,-8.3104e-05,0.72,0.72,0
0.22019,0.0080875,0.27578,-0.45938,-0.34102,-0.30906,0.0022763,0,0,-0.78164,-0.16615,0,0.023674,0,0,0.31322,-0.0094906,0,0.31336,-0.34097,-0.45942,-0.30906,88.899,-0.36982,0.13722,-0.00010889,0.74,0.72,0
0.20408,0.0077926,0.2507,-0.45857,-0.32952,-0.2991,0.0020183,0,0,-0.82925,-0.15815,0,0.02099,0,0,0.31389,-0.0085864,0,0.31401,-0.32948,-0.4586,-0.2991,89.104,-0.3624,0.14669,-0.00013896,0.76,0.72,0
0.18702,0.0075196,0.22556,-0.45793,-0.31822,-0.28924,0.0018067,0,0,-0.87723,-0.15072,0,0.018789,0,0,0.31487,-0.0076798,0,0.31496,-0.3182,-0.45796,-0.28924,89.259,-0.35513,0.15627,-0.00017351,0.78,0.72,0
0.16899,0.0072796,0.20032,-0.45743,-0.30716,-0.27946,0.0016381,0,0,-0.92546,-0.14405,0,0.017036,0,0,0.31613,-0.0067642,0,0.3162,-0.30714,-0.45745,-0.27946,89.376,-0.34802,0.16589,-0.00021262,0.8,0.72,0
0.15,0.0070829,0.17498,-0.45703,-0.29636,-0.26976,0.0015138,0,0,-0.97379,-0.13832,0,0.015744,0,0,0.31765,-0.0058368,0,0.31771,-0.29635,-0.45704,-0.26976,89.46,-0.34105,0.1755,-0.0002563,0.82,0.72,0
0.13004,0.00694,0.1495,-0.45669,-0.28584,-0.26013,0.0014378,0,0,-1.0221,-0.13368,0,0.014953,0,0,0.31939,-0.0049001,0,0.31943,-0.28583,-0.4567,-0.26013,89.518,-0.33422,0.18506,-0.00030446,0.84,0.72,0
0.10912,0.0068609,0.12387,-0.45638,-0.27561,-0.25057,0.0014145,0,0,-1.0702,-0.13025,0,0.014711,0,0,0.32127,-0.0039614,0,0.3213,-0.2756,-0.45639,-0.25057,89.552,-0.32752,0.19451,-0.00035697,0.86,0.72,0
0.087231,0.0068553,0.098096,-0.45606,-0.26566,-0.24104,0.0014465,0,0,-1.1181,-0.12803,0,0.015043,0,0,0.32319,-0.0030328,0,0.32321,-0.26565,-0.45607,-0.24104,89.565,-0.32092,0.20384,-0.00041373,0.88,0.72,0
0.064392,0.0069322,0.072164,-0.45571,-0.25594,-0.23154,0.0015327,0,0,-1.1657,-0.12691,0,0.01594,0,0,0.32501,-0.0021286,0,0.32502,-0.25593,-0.45572,-0.23154,89.56,-0.3144,0.21304,-0.00047472,0.9,0.72,0
0.040603,0.0070996,0.046094,-0.45532,-0.24641,-0.22204,0.0016678,0,0,-1.213,-0.12673,0,0.017345,0,0,0.32658,-0.0012617,0,0.32658,-0.2464,-0.45533,-0.22204,89.543,-0.30792,0.22211,-0.00054004,0.92,0.72,0
0.015871,0.007364,0.019911,-0.45524,-0.30034,-0.23912,0.0016917,0,0,-0.74469,-0.12734,0,0.010624,0,0,0.3284,-0.0010995,0,0.3284,-0.30031,-0.45527,-0.23912,89.255,-0.33157,0.1975,-0.0002855,0.94,0.72,0
0.010815,0.0073893,0.013321,-0.455,-0.35413,-0.25606,0.0013177,0,0,-0.25862,-0.12749,0,0.0034259,0,0,0.3309,-0.0010464,0,0.3309,-0.35411,-0.45502,-0.25606,89.252,-0.35506,0.17231,-6.5244e-06,0.96,0.72,0
0.0055257,0.0074072,0.0066754,-0.45448,-0.34493,-0.2465,0.0007037,0,0,-0.27038,-0.12796,0,0.0018296,0,0,0.33302,-0.00048112,0,0.33302,-0.34492,-0.45449,-0.2465,89.632,-0.34864,0.18021,-2.7832e-05,0.98,0.72,0
0,0.0074138,0,-0.44587,-0.33194,-0.23334,0.00012728,0,0,-0.27629,-0.12818,0,0.00033092,0,0,0.33377,-3.4694e-18,0,0.33377,-0.33194,-0.44587,-0.23334,89.936,-0.33705,0.18421,-3.9979e-05,1,0.72,0
0,-0.0064027,1,-0.59337,-2.1043,-1.8093,-0.0049991,0,0,1.5807,-0.3835,0,-0.012998,0,0,0.32269,-2.7131e-15,0,0.32261,-0.59336,-2.1043,-1.8093,-0.18957,-1.5023,1.3872,0.11647,0,0.74,0
0.031614,-0.0066626,0.99355,-0.57842,-2.1013,-1.7974,-0.021946,0,0,1.5847,-0.39496,0,-0.057061,0,0,0.31591,0.01649,0,0.31635,-0.57811,-2.1016,-1.7974,-0.82548,-1.4924,1.3965,0.11782,0.02,0.74,0
0.06339,-0.0073097,0.98736,-0.56133,-2.1151,-1.7903,-0.036173,0,0,1.5976,-0.42222,0,-0.094048,0,0,0.29703,0.029056,0,0.2987,-0.56049,-2.1159,-1.7903,-1.3329,-1.4889,1.4209,0.12165,0.04,0.74,0
0.09552,-0.0080813,0.98167,-0.51392,-1.4038,-1.1889,-0.040452,0,0,1.0999,-0.4471,0,-0.25925,0,0,0.2757,0.021414,0,0.27702,-0.50961,-1.4081,-1.1889,-6.1372,-1.0355,0.81376,0.062234,0.06,0.74,0
0.10739,-0.014918,0.96035,-0.47775,-0.72822,-0.60188,-0.036784,0,0,0.64548,-0.65699,0,-0.38256,0,0,0.26211,0.0082424,0,0.26227,-0.47246,-0.73351,-0.60188,-8.1843,-0.60262,0.22608,-8.7183e-06,0.08,0.74,0
0.12134,-0.020507,0.93973,-0.45827,-0.75469,-0.59882,-0.029048,0,0,0.73088,-0.81054,0,-0.3021,0,0,0.25348,0.0057794,0,0.25358,-0.45545,-0.75751,-0.59882,-5.5443,-0.60393,0.26171,-8.0743e-05,0.1,0.74,0
0.13662,-0.024646,0.91979,-0.44342,-0.7686,-0.59355,-0.021144,0,0,0.78069,-0.91023,0,-0.2199,0,0,0.24552,0.001868,0,0.24555,-0.44205,-0.76997,-0.59355,-3.7048,-0.60186,0.28426,-0.00015467,0.12,0.74,0
0.15257,-0.027502,0.90044,-0.43289,-0.77379,-0.58711,-0.014488,0,0,0.80198,-0.97071,0,-0.15067,0,0,0.23897,-0.0027145,0,0.23899,-0.43227,-0.7744,-0.58711,-2.4292,-0.59793,0.29674,-0.00021923,0.14,0.74,0
0.1687,-0.029323,0.88156,-0.42539,-0.77294,-0.57989,-0.008991,0,0,0.80339,-1.0039,0,-0.093507,0,0,0.23402,-0.0074281,0,0.23414,-0.42516,-0.77317,-0.57989,-1.4809,-0.59274,0.30201,-0.00026943,0.16,0.74,0
0.1847,-0.030283,0.863,-0.42,-0.76765,-0.57205,-0.0041043,0,0,0.79064,-1.0172,0,-0.042684,0,0,0.23065,-0.012065,0,0.23096,-0.41995,-0.7677,-0.57205,-0.67629,-0.58657,0.30195,-0.00030385,0.18,0.74,0
0.20033,-0.030473,0.84465,-0.41618,-0.75877,-0.56365,0.00064578,0,0,0.76685,-1.0147,0,0.0067161,0,0,0.22875,-0.016596,0,0.22935,-0.41618,-0.75877,-0.56365,0.108,-0.57953,0.29765,-0.00032249,0.2,0.74,0
0.21538,-0.02991,0.8264,-0.41374,-0.74669,-0.55473,0.0056334,0,0,0.73314,-0.99818,0,0.058587,0,0,0.2283,-0.021061,0,0.22926,-0.41364,-0.74678,-0.55473,0.96906,-0.57172,0.28963,-0.00032599,0.22,0.74,0
0.22965,-0.028549,0.80813,-0.41275,-0.73135,-0.54526,0.011209,0,0,0.68905,-0.96765,0,0.11657,0,0,0.22932,-0.025499,0,0.23073,-0.41236,-0.73174,-0.54526,2.0125,-0.56312,0.27789,-0.00031479,0.24,0.74,0
0.24294,-0.026288,0.78971,-0.4136,-0.71231,-0.5352,0.017763,0,0,0.63231,-0.92096,0,0.18473,0,0,0.23192,-0.029886,0,0.23383,-0.41255,-0.71336,-0.5352,3.3912,-0.5537,0.26198,-0.00028912,0.26,0.74,0
0.25494,-0.022959,0.77102,-0.41701,-0.68849,-0.5244,0.02568,0,0,0.55845,-0.85323,0,0.26708,0,0,0.23618,-0.034036,0,0.23863,-0.4146,-0.69089,-0.5244,5.3566,-0.5433,0.24095,-0.00024887,0.28,0.74,0
0.26528,-0.018359,0.75192,-0.42397,-0.65799,-0.51257,0.034889,0,0,0.46069,-0.75617,0,0.36285,0,0,0.24198,-0.03749,0,0.24488,-0.41888,-0.66308,-0.51257,8.3019,-0.53151,0.21338,-0.0001946,0.3,0.74,0
0.27337,-0.012376,0.7323,-0.4348,-0.61803,-0.49893,0.044091,0,0,0.33343,-0.61935,0,0.45855,0,0,0.2488,-0.039645,0,0.25196,-0.42475,-0.62809,-0.49893,12.85,-0.51726,0.17823,-0.00013029,0.32,0.74,0
0.27861,-0.0052214,0.71211,-0.46466,-1.1381,-0.92591,0.052471,0,0,0.69789,-0.44144,0,0.32773,0,0,0.26078,-0.10024,0,0.28457,-0.45542,-1.1474,-0.92591,10.305,-0.84291,0.61634,0.022268,0.34,0.74,0
0.30129,-0.0053633,0.70673,-0.49484,-1.6381,-1.3466,0.061387,0,0,1.1073,-0.37891,0,0.15961,0,0,0.28127,-0.15728,0,0.32249,-0.49156,-1.6414,-1.3466,3.0648,-1.1598,1.0344,0.041671,0.36,0.74,0
0.3229,-0.0052472,0.70086,-0.51136,-1.5614,-1.3227,0.06099,0,0,1.0547,-0.31036,0,0.15857,0,0,0.30285,-0.15021,0,0.33818,-0.50783,-1.565,-1.3227,3.313,-1.1318,0.95923,0.035769,0.38,0.74,0
0.34348,-0.005359,0.69462,-0.52379,-1.4918,-1.2993,0.048416,0,0,1.0082,-0.25026,0,0.12588,0,0,0.31914,-0.14243,0,0.34953,-0.52138,-1.4942,-1.2993,2.8562,-1.105,0.8915,0.030608,0.4,0.74,0
0.36323,-0.0062,0.6881,-0.51381,-0.97808,-0.87763,0.031052,0,0,0.4104,-0.20894,0,0.18066,0,0,0.32906,-0.085296,0,0.34365,-0.50214,-0.98975,-0.87763,21.389,-0.78984,0.45577,0.014059,0.42,0.74,0
0.35989,-0.0036088,0.66152,-0.50541,-0.50841,-0.46953,0.022106,0,0,-0.18658,-0.20221,0,0.2299,0,0,0.33241,-0.030005,0,0.33376,-0.48475,-0.52907,-0.46953,43.056,-0.49445,0.053575,-5.7998e-06,0.44,0.74,0
0.35577,-0.0014528,0.63491,-0.50137,-0.49779,-0.45848,0.018229,0,0,-0.22305,-0.20443,0,0.18959,0,0,0.33218,-0.026654,0,0.33325,-0.48126,-0.5179,-0.45848,47.803,-0.48588,0.051924,-2.808e-06,0.46,0.74,0
0.35097,0.00030994,0.60837,-0.49656,-0.48785,-0.44742,0.015029,0,0,-0.25556,-0.21025,0,0.1563,0,0,0.33083,-0.023951,0,0.33169,-0.47656,-0.50785,-0.44742,53.082,-0.47728,0.052351,-4.5435e-07,0.48,0.74,0
0.34554,0.0017278,0.58198,-0.49163,-0.47796,-0.43637,0.012385,0,0,-0.28733,-0.21628,0,0.1288,0,0,0.32881,-0.021763,0,0.32953,-0.47065,-0.49894,-0.43637,59.442,-0.46865,0.054268,1.3538e-06,0.5,0.74,0
0.33948,0.0028459,0.55576,-0.48692,-0.4678,-0.42536,0.010182,0,0,-0.32013,-0.2207,0,0.1059,0,0,0.32648,-0.019965,0,0.32709,-0.46339,-0.49133,-0.42536,66.599,-0.46003,0.057355,2.5332e-06,0.52,0.74,0
0.33274,0.0037039,0.52974,-0.48261,-0.45723,-0.41439,0.0083391,0,0,-0.35476,-0.22279,0,0.086727,0,0,0.32409,-0.018461,0,0.32462,-0.45474,-0.48511,-0.41439,73.345,-0.45141,0.061447,2.8774e-06,0.54,0.74,0
0.32529,0.0043382,0.50391,-0.47876,-0.44627,-0.40349,0.006801,0,0,-0.39143,-0.22247,0,0.07073,0,0,0.3218,-0.017177,0,0.32226,-0.4449,-0.48013,-0.40349,78.643,-0.44284,0.066446,2.0995e-06,0.56,0.74,0
0.31708,0.0047822,0.47825,-0.47536,-0.43496,-0.39266,0.0055305,0,0,-0.43004,-0.21998,0,0.057517,0,0,0.31973,-0.016058,0,0.32013,-0.43422,-0.47611,-0.39266,82.344,-0.43433,0.072265,-1.3065e-07,0.58,0.74,0
0.30809,0.0050679,0.45275,-0.47238,-0.4234,-0.38192,0.0044986,0,0,-0.47037,-0.21569,0,0.046785,0,0,0.31793,-0.015066,0,0.31828,-0.42299,-0.47279,-0.38192,84.795,-0.4259,0.078813,-4.1593e-06,0.6,0.74,0
0.29827,0.0052249,0.42739,-0.46977,-0.41166,-0.37127,0.0036785,0,0,-0.51216,-0.21,0,0.038257,0,0,0.31642,-0.014172,0,0.31674,-0.41142,-0.47,-0.37127,86.392,-0.41757,0.085993,-1.0334e-05,0.62,0.74,0
0.2876,0.0052807,0.40213,-0.46749,-0.39981,-0.36072,0.0030438,0,0,-0.5552,-0.20326,0,0.031656,0,0,0.31524,-0.013358,0,0.31552,-0.39967,-0.46763,-0.36072,87.43,-0.40934,0.093712,-1.8995e-05,0.64,0.74,0
0.27606,0.00526,0.37695,-0.46552,-0.38792,-0.35027,0.0025672,0,0,-0.5993,-0.19579,0,0.026699,0,0,0.31436,-0.012607,0,0.31462,-0.38783,-0.4656,-0.35027,88.107,-0.40124,0.10189,-3.0482e-05,0.66,0.74,0
0.26363,0.0051847,0.35183,-0.46382,-0.37604,-0.33992,0.0022214,0,0,-0.64432,-0.18784,0,0.023103,0,0,0.3138,-0.011908,0,0.31403,-0.37598,-0.46388,-0.33992,88.551,-0.39326,0.11044,-4.5127e-05,0.68,0.74,0
0.25029,0.0050732,0.32674,-0.46238,-0.36421,-0.32966,0.0019796,0,0,-0.69015,-0.17964,0,0.020588,0,0,0.31355,-0.01125,0,0.31375,-0.36417,-0.46242,-0.32966,88.845,-0.38542,0.11931,-6.326e-05,0.7,0.74,0
0.23602,0.0049412,0.30166,-0.46118,-0.35247,-0.31951,0.0018166,0,0,-0.7367,-0.17137,0,0.018892,0,0,0.31361,-0.010622,0,0.31379,-0.35243,-0.46121,-0.31951,89.043,-0.37772,0.12845,-8.5203e-05,0.72,0.74,0
0.22082,0.0048014,0.27656,-0.4602,-0.34085,-0.30945,0.0017093,0,0,-0.78389,-0.16323,0,0.017776,0,0,0.31398,-0.010015,0,0.31413,-0.34082,-0.46023,-0.30945,89.18,-0.37017,0.13779,-0.00011125,0.74,0.74,0
0.20467,0.0046641,0.25142,-0.45942,-0.32938,-0.2995,0.0016378,0,0,-0.8316,-0.15541,0,0.017033,0,0,0.31465,-0.0094167,0,0.31479,-0.32936,-0.45944,-0.2995,89.278,-0.36277,0.1473,-0.00014166,0.76,0.74,0
0.18755,0.0045374,0.22622,-0.45881,-0.31811,-0.28963,0.0015862,0,0,-0.87973,-0.14811,0,0.016496,0,0,0.31563,-0.008813,0,0.31576,-0.3181,-0.45883,-0.28963,89.354,-0.35552,0.15691,-0.00017661,0.78,0.74,0
0.16948,0.0044286,0.20092,-0.45834,-0.30707,-0.27985,0.0015437,0,0,-0.92812,-0.14154,0,0.016054,0,0,0.31692,-0.008187,0,0.31702,-0.30706,-0.45835,-0.27985,89.415,-0.34842,0.16657,-0.00021619,0.8,0.74,0
0.15043,0.0043441,0.17551,-0.45797,-0.29629,-0.27016,0.0015054,0,0,-0.97662,-0.13592,0,0.015656,0,0,0.31847,-0.0075186,0,0.31856,-0.29628,-0.45798,-0.27016,89.467,-0.34147,0.17622,-0.00026035,0.82,0.74,0
0.13041,0.0042908,0.14996,-0.45765,-0.2858,-0.26053,0.0014729,0,0,-1.0251,-0.13143,0,0.015319,0,0,0.32025,-0.0067846,0,0.32032,-0.28579,-0.45767,-0.26053,89.509,-0.33466,0.1858,-0.00030899,0.84,0.74,0
0.10943,0.004277,0.12427,-0.45736,-0.27561,-0.25096,0.0014541,0,0,-1.0733,-0.1282,0,0.015123,0,0,0.32218,-0.0059598,0,0.32224,-0.2756,-0.45737,-0.25096,89.542,-0.32798,0.19526,-0.00036191,0.86,0.74,0
0.087482,0.0043124,0.098417,-0.45705,-0.2657,-0.24143,0.0014599,0,0,-1.1212,-0.12621,0,0.015183,0,0,0.32415,-0.0050204,0,0.32419,-0.26569,-0.45706,-0.24143,89.563,-0.32139,0.20458,-0.000419,0.88,0.74,0
0.064579,0.0044081,0.072406,-0.4567,-0.25603,-0.23192,0.0015,0,0,-1.1688,-0.12537,0,0.0156,0,0,0.32603,-0.0039484,0,0.32605,-0.25602,-0.45671,-0.23192,89.572,-0.31488,0.21376,-0.00048025,0.9,0.74,0
0.040727,0.004576,0.046253,-0.45629,-0.24654,-0.22241,0.0015763,0,0,-1.2162,-0.12546,0,0.016394,0,0,0.32764,-0.0027372,0,0.32765,-0.24653,-0.45631,-0.22241,89.569,-0.30842,0.22282,-0.00054577,0.92,0.74,0
0.015932,0.0048257,0.019984,-0.4562,-0.3001,-0.23938,0.0014884,0,0,-0.74678,-0.12629,0,0.009594,0,0,0.32951,-0.0034921,0,0.32954,-0.30008,-0.45622,-0.23938,89.363,-0.33189,0.19818,-0.00029095,0.94,0.74,0
0.010856,0.0048486,0.013371,-0.45594,-0.35354,-0.25622,0.00099199,0,0,-0.25964,-0.12652,0,0.0025792,0,0,0.33208,-0.0039982,0,0.33211,-0.35353,-0.45595,-0.25622,89.445,-0.35523,0.17299,-1.1761e-05,0.96,0.74,0
0.0055464,0.0048583,0.0067009,-0.45541,-0.34437,-0.24663,0.00044741,0,0,-0.27141,-0.12706,0,0.0011633,0,0,0.33427,-0.0020884,0,0.33428,-0.34437,-0.45541,-0.24663,89.769,-0.3488,0.18093,-3.3501e-05,0.98,0.74,0
0,0.0048611,0,-0.44676,-0.33136,-0.23344,5.3152e-05,0,0,-0.27732,-0.1273,0,0.0001382,0,0,0.33504,4.4452e-18,0,0.33504,-0.33136,-0.44676,-0.23344,89.974,-0.33719,0.18495,-4.5904e-05,1,0.74,0
0,-0.013726,1,-0.62719,-2.0616,-1.8067,-0.010721,0,0,1.5333,-0.33149,0,-0.027874,0,0,0.34644,-8.691e-16,0,0.34615,-0.62711,-2.0617,-1.8067,-0.42818,-1.4985,1.3256,0.10486,0,0.76,0
0.030666,-0.014283,0.99307,-0.60805,-2.0684,-1.796,-0.043787,0,0,1.5443,-0.35407,0,-0.11385,0,0,0.33698,0.033698,0,0.33856,-0.60674,-2.0697,-1.796,-1.7159,-1.4908,1.3471,0.10829,0.02,0.76,0
0.061773,-0.015637,0.98652,-0.58166,-2.1054,-1.7926,-0.068821,0,0,1.5743,-0.40659,0,-0.17894,0,0,0.31026,0.06059,0,0.31653,-0.57856,-2.1085,-1.7926,-2.5808,-1.4932,1.399,0.11683,0.04,0.76,0
0.093637,-0.017,0.98066,-0.52287,-1.4086,-1.1924,-0.071759,0,0,1.0916,-0.44984,0,-0.4481,0,0,0.2799,0.04598,0,0.2852,-0.51081,-1.4207,-1.1924,-9.8519,-1.0413,0.82268,0.06121,0.06,0.76,0
0.10544,-0.028335,0.95932,-0.48122,-0.74164,-0.60669,-0.060415,0,0,0.65243,-0.70177,0,-0.62832,0,0,0.26094,0.019169,0,0.26171,-0.46789,-0.75498,-0.60669,-12.445,-0.60985,0.24867,-4.5181e-05,0.08,0.76,0
0.11973,-0.037056,0.93891,-0.45864,-0.767,-0.60242,-0.045665,0,0,0.74764,-0.8558,0,-0.47491,0,0,0.24984,0.015666,0,0.25038,-0.45202,-0.77362,-0.60242,-8.2492,-0.60935,0.2787,-0.00012424,0.1,0.76,0
0.13534,-0.043126,0.91934,-0.44335,-0.77785,-0.5962,-0.032532,0,0,0.79481,-0.94461,0,-0.33833,0,0,0.24049,0.0096087,0,0.2407,-0.44021,-0.78099,-0.5962,-5.5036,-0.6058,0.29547,-0.00019314,0.12,0.76,0
0.15153,-0.04713,0.90043,-0.43292,-0.78079,-0.58922,-0.02262,0,0,0.81276,-0.99617,0,-0.23525,0,0,0.23347,0.0029857,0,0.23349,-0.43146,-0.78226,-0.58922,-3.7049,-0.60098,0.30431,-0.00025051,0.14,0.76,0
0.16785,-0.049578,0.88199,-0.42545,-0.77881,-0.58178,-0.014928,0,0,0.81291,-1.0246,0,-0.15525,0,0,0.22856,-0.0034531,0,0.22858,-0.42482,-0.77944,-0.58178,-2.4147,-0.59535,0.30779,-0.00029538,0.16,0.76,0
0.18404,-0.050792,0.86386,-0.41984,-0.77301,-0.57382,-0.0084426,0,0,0.80069,-1.0358,0,-0.087804,0,0,0.22534,-0.0095726,0,0.22553,-0.41964,-0.77322,-0.57382,-1.3686,-0.58889,0.30704,-0.00032599,0.18,0.76,0
0.19988,-0.050934,0.84593,-0.41575,-0.76412,-0.56544,-0.002391,0,0,0.77843,-1.0331,0,-0.024867,0,0,0.22356,-0.015459,0,0.22408,-0.41573,-0.76414,-0.56544,-0.39321,-0.58177,0.30273,-0.0003428,0.2,0.76,0
0.21518,-0.050056,0.82809,-0.41297,-0.75245,-0.55665,0.0038314,0,0,0.74715,-1.0182,0,0.039847,0,0,0.22312,-0.021272,0,0.22412,-0.41292,-0.7525,-0.55665,0.64653,-0.57402,0.29523,-0.00034636,0.22,0.76,0
0.22977,-0.048113,0.81024,-0.41154,-0.738,-0.54742,0.010804,0,0,0.70656,-0.991,0,0.11236,0,0,0.22412,-0.027178,0,0.22575,-0.41119,-0.73836,-0.54742,1.8935,-0.56566,0.28465,-0.00033726,0.24,0.76,0
0.24344,-0.044965,0.79224,-0.41171,-0.72037,-0.53768,0.019205,0,0,0.65504,-0.94995,0,0.19973,0,0,0.22679,-0.03328,0,0.22921,-0.41052,-0.72155,-0.53768,3.5468,-0.55659,0.27085,-0.00031584,0.26,0.76,0
0.25597,-0.040348,0.77395,-0.41435,-0.69879,-0.52743,0.029828,0,0,0.58801,-0.89109,0,0.31021,0,0,0.23153,-0.039487,0,0.23488,-0.41126,-0.70189,-0.52743,5.9224,-0.54686,0.25338,-0.00028318,0.28,0.76,0
0.26696,-0.033866,0.75519,-0.42091,-0.67089,-0.51634,0.043343,0,0,0.49622,-0.80367,0,0.45077,0,0,0.23857,-0.045147,0,0.24284,-0.41361,-0.67819,-0.51634,9.5627,-0.53605,0.23103,-0.00023782,0.3,0.76,0
0.27582,-0.025106,0.73578,-0.43322,-0.63167,-0.50341,0.058217,0,0,0.365,-0.66696,0,0.60546,0,0,0.24741,-0.048551,0,0.25217,-0.4174,-0.64749,-0.50341,15.2,-0.52277,0.20137,-0.00017637,0.32,0.76,0
0.28156,-0.014169,0.71561,-0.46611,-1.153,-0.93298,0.073107,0,0,0.71468,-0.45757,0,0.44988,0,0,0.26304,-0.12119,0,0.29638,-0.45045,-1.1686,-0.93298,12.574,-0.85068,0.63824,0.022909,0.34,0.76,0
0.3044,-0.012949,0.71013,-0.50048,-1.644,-1.3535,0.085263,0,0,1.1089,-0.37766,0,0.22168,0,0,0.28873,-0.18533,0,0.34339,-0.49415,-1.6503,-1.3535,4.2409,-1.166,1.04,0.042299,0.36,0.76,0
0.32592,-0.011322,0.70406,-0.51977,-1.5473,-1.3242,0.080621,0,0,1.0457,-0.2901,0,0.20961,0,0,0.31335,-0.16932,0,0.35624,-0.51348,-1.5536,-1.3242,4.459,-1.1304,0.94651,0.035075,0.38,0.76,0
0.34623,-0.010127,0.69759,-0.53355,-1.4663,-1.2975,0.057015,0,0,0.99318,-0.21935,0,0.14824,0,0,0.32851,-0.15321,0,0.36246,-0.53008,-1.4697,-1.2975,3.4851,-1.0991,0.8665,0.029015,0.4,0.76,0
0.36565,-0.010056,0.69092,-0.52098,-0.95748,-0.87536,0.03019,0,0,0.38684,-0.17082,0,0.16457,0,0,0.33557,-0.089362,0,0.35116,-0.50778,-0.97068,-0.87536,25.371,-0.78461,0.4376,0.013057,0.42,0.76,0
0.36171,-0.0073864,0.66393,-0.51139,-0.50389,-0.47057,0.017535,0,0,-0.21228,-0.17327,0,0.18237,0,0,0.33698,-0.029694,0,0.33828,-0.48971,-0.52557,-0.47057,51.036,-0.49528,0.048363,-2.8934e-06,0.44,0.76,0
0.35716,-0.0053256,0.637,-0.50564,-0.4944,-0.45926,0.01297,0,0,-0.24115,-0.18274,0,0.13489,0,0,0.33575,-0.025102,0,0.33669,-0.48589,-0.51415,-0.45926,56.708,-0.48643,0.047545,-2.8601e-07,0.46,0.76,0
0.35206,-0.0037194,0.61021,-0.49961,-0.48526,-0.44801,0.009756,0,0,-0.26832,-0.19367,0,0.10146,0,0,0.33359,-0.021681,0,0.33429,-0.48033,-0.50455,-0.44801,63.171,-0.47763,0.049126,1.4899e-06,0.48,0.76,0
0.34642,-0.0024521,0.58363,-0.49386,-0.47592,-0.43684,0.0074546,0,0,-0.2965,-0.20321,0,0.077528,0,0,0.33094,-0.019157,0,0.3315,-0.47322,-0.49655,-0.43684,70.135,-0.46887,0.052122,2.6761e-06,0.5,0.76,0
0.3402,-0.0014457,0.55726,-0.4886,-0.46614,-0.42574,0.0057471,0,0,-0.32688,-0.2101,0,0.05977,0,0,0.32815,-0.017296,0,0.32861,-0.46475,-0.48998,-0.42574,76.448,-0.46016,0.056064,3.2722e-06,0.52,0.76,0
0.33335,-0.00064813,0.53112,-0.48391,-0.45587,-0.41472,0.0044347,0,0,-0.3598,-0.21402,0,0.046121,0,0,0.32542,-0.015909,0,0.32581,-0.45519,-0.48459,-0.41472,81.222,-0.4515,0.060769,3.1144e-06,0.54,0.76,0
0.32581,-2.3194e-05,0.50519,-0.47978,-0.44516,-0.40378,0.0034038,0,0,-0.3952,-0.21516,0,0.0354,0,0,0.32289,-0.014854,0,0.32323,-0.44483,-0.48011,-0.40378,84.438,-0.44291,0.066169,1.9374e-06,0.56,0.76,0
0.31754,0.00045713,0.47946,-0.47617,-0.43407,-0.39294,0.0025938,0,0,-0.43281,-0.21389,0,0.026975,0,0,0.32064,-0.014027,0,0.32095,-0.43391,-0.47633,-0.39294,86.488,-0.43439,0.072224,-5.807e-07,0.58,0.76,0
0.3085,0.00081673,0.45389,-0.47302,-0.4227,-0.38219,0.0019711,0,0,-0.47232,-0.21066,0,0.0205,0,0,0.31871,-0.013354,0,0.31899,-0.42262,-0.4731,-0.38219,87.76,-0.42597,0.078889,-4.7877e-06,0.6,0.76,0
0.29865,0.0010774,0.42846,-0.47028,-0.41113,-0.37154,0.0015143,0,0,-0.51345,-0.20588,0,0.015749,0,0,0.31712,-0.012788,0,0.31738,-0.41109,-0.47032,-0.37154,88.534,-0.41765,0.086108,-1.104e-05,0.62,0.76,0
0.28796,0.0012593,0.40315,-0.4679,-0.39944,-0.36099,0.0012052,0,0,-0.55594,-0.19993,0,0.012534,0,0,0.31586,-0.012299,0,0.3161,-0.39942,-0.46792,-0.36099,88.992,-0.40945,0.09382,-1.9698e-05,0.64,0.76,0
0.27641,0.0013809,0.37793,-0.46585,-0.38768,-0.35054,0.0010251,0,0,-0.59962,-0.19312,0,0.010661,0,0,0.31493,-0.011868,0,0.31516,-0.38767,-0.46587,-0.35054,89.249,-0.40136,0.10197,-3.1121e-05,0.66,0.76,0
0.26397,0.0014587,0.35276,-0.46411,-0.37591,-0.34019,0.00095387,0,0,-0.64434,-0.1857,0,0.0099202,0,0,0.31433,-0.011483,0,0.31454,-0.37589,-0.46412,-0.34019,89.38,-0.3934,0.11049,-4.5672e-05,0.68,0.76,0
0.25063,0.0015069,0.32764,-0.46264,-0.36416,-0.32995,0.00096929,0,0,-0.68999,-0.17789,0,0.010081,0,0,0.31404,-0.011137,0,0.31424,-0.36415,-0.46265,-0.32995,89.436,-0.38558,0.11933,-6.3713e-05,0.7,0.76,0
0.23637,0.0015371,0.30252,-0.46143,-0.35247,-0.3198,0.0010479,0,0,-0.73647,-0.16991,0,0.010898,0,0,0.31407,-0.010822,0,0.31426,-0.35246,-0.46144,-0.3198,89.449,-0.3779,0.12846,-8.5603e-05,0.72,0.76,0
0.22118,0.0015581,0.27738,-0.46046,-0.34089,-0.30975,0.0011651,0,0,-0.7837,-0.16192,0,0.012117,0,0,0.31442,-0.01053,0,0.3146,-0.34088,-0.46047,-0.30975,89.442,-0.37037,0.13782,-0.00011168,0.74,0.76,0
0.20503,0.0015761,0.25221,-0.45972,-0.32944,-0.2998,0.0012965,0,0,-0.83157,-0.15413,0,0.013484,0,0,0.3151,-0.010252,0,0.31526,-0.32943,-0.45973,-0.2998,89.43,-0.36299,0.14737,-0.00014224,0.76,0.76,0
0.18791,0.0015952,0.22697,-0.45917,-0.31816,-0.28994,0.001419,0,0,-0.87997,-0.14676,0,0.014758,0,0,0.3161,-0.0099672,0,0.31626,-0.31815,-0.45918,-0.28994,89.424,-0.35576,0.15705,-0.00017749,0.78,0.76,0
0.16983,0.0016179,0.20163,-0.45878,-0.30711,-0.28017,0.0015131,0,0,-0.92874,-0.14005,0,0.015737,0,0,0.31742,-0.0096511,0,0.31757,-0.30709,-0.45879,-0.28017,89.428,-0.34869,0.1668,-0.00021756,0.8,0.76,0
0.15076,0.0016461,0.17618,-0.4585,-0.2963,-0.27049,0.0015665,0,0,-0.97768,-0.13425,0,0.016292,0,0,0.31905,-0.0092654,0,0.31919,-0.29629,-0.45852,-0.27049,89.447,-0.34176,0.17655,-0.0002624,0.82,0.76,0
0.13072,0.0016826,0.15058,-0.4583,-0.28579,-0.26087,0.0015772,0,0,-1.0266,-0.12958,0,0.016403,0,0,0.32095,-0.00876,0,0.32107,-0.28578,-0.45831,-0.26087,89.476,-0.33499,0.18624,-0.00031185,0.84,0.76,0
0.1097,0.0017331,0.12483,-0.45811,-0.27559,-0.25132,0.0015555,0,0,-1.0753,-0.12623,0,0.016177,0,0,0.32304,-0.0080745,0,0.32314,-0.27558,-0.45812,-0.25132,89.512,-0.32834,0.1958,-0.00036567,0.86,0.76,0
0.087708,0.0018069,0.098899,-0.45789,-0.26569,-0.2418,0.0015217,0,0,-1.1237,-0.12423,0,0.015825,0,0,0.3252,-0.0071444,0,0.32528,-0.26568,-0.4579,-0.2418,89.546,-0.32179,0.20521,-0.00042364,0.88,0.76,0
0.064752,0.0019176,0.072796,-0.45762,-0.25604,-0.2323,0.0014982,0,0,-1.1717,-0.12348,0,0.015581,0,0,0.3273,-0.0059133,0,0.32735,-0.25603,-0.45763,-0.2323,89.574,-0.31532,0.21445,-0.00048567,0.9,0.76,0
0.040841,0.0020812,0.046532,-0.45726,-0.24658,-0.22279,0.0014974,0,0,-1.2193,-0.12375,0,0.015573,0,0,0.32913,-0.004349,0,0.32916,-0.24657,-0.45727,-0.22279,89.593,-0.30888,0.22354,-0.00055187,0.92,0.76,0
0.015982,0.0023122,0.020135,-0.4571,-0.29957,-0.23959,0.0012601,0,0,-0.74889,-0.12476,0,0.0084637,0,0,0.33133,-0.0061507,0,0.33141,-0.29956,-0.45711,-0.23959,89.482,-0.33209,0.19888,-0.00029758,0.94,0.76,0
0.010886,0.0023284,0.013481,-0.45679,-0.35283,-0.25637,0.00058517,0,0,-0.26055,-0.1254,0,0.0015214,0,0,0.33439,-0.0072939,0,0.33448,-0.35283,-0.4568,-0.25637,89.677,-0.35533,0.17362,-1.7429e-05,0.96,0.76,0
0.0055597,0.002325,0.0067589,-0.45618,-0.3441,-0.24684,0.00011886,0,0,-0.27214,-0.12643,0,0.00030903,0,0,0.33702,-0.0038878,0,0.33704,-0.3441,-0.45618,-0.24684,89.939,-0.34904,0.18144,-3.7525e-05,0.98,0.76,0
0,0.0023217,0,-0.44742,-0.33119,-0.23358,-6.2638e-05,0,0,-0.27798,-0.12689,0,-0.00016286,0,0,0.33795,-8.6736e-18,0,0.33794,-0.33119,-0.44742,-0.23358,-89.969,-0.3374,0.18542,-4.9145e-05,1,0.76,0
0,-0.019662,1,-0.69419,-2.0008,-1.8085,-0.022369,0,0,1.4486,-0.25002,0,-0.058158,0,0,0.39009,7.0777e-16,0,0.38945,-0.69381,-2.0012,-1.8085,-0.98047,-1.5012,1.2225,0.086028,0,0.78,0
0.028972,-0.020826,0.9922,-0.65517,-2.0002,-1.7888,-0.073015,0,0,1.4737,-0.27481,0,-0.18984,0,0,0.3765,0.053687,0,0.37974,-0.65122,-2.0042,-1.7888,-3.0982,-1.4814,1.2591,0.092504,0.02,0.78,0
0.058949,-0.023573,0.98494,-0.6154,-2.0837,-1.7947,-0.12395,0,0,1.533,-0.37569,0,-0.32227,0,0,0.3369,0.10976,0,0.35515,-0.60501,-2.094,-1.7947,-4.7917,-1.4979,1.3642,0.10952,0.04,0.78,0
0.090293,-0.026075,0.97872,-0.54718,-1.4396,-1.2077,-0.11487,0,0,1.084,-0.48222,0,-0.69405,0,0,0.28945,0.083876,0,0.30523,-0.52139,-1.4653,-1.2077,-13.37,-1.0648,0.84841,0.059704,0.06,0.78,0
0.10231,-0.042988,0.95728,-0.4863,-0.7671,-0.61534,-0.088234,0,0,0.67101,-0.78914,0,-0.91763,0,0,0.25938,0.035731,0,0.26202,-0.46088,-0.79252,-0.61534,-16.074,-0.62291,0.28744,-0.0001443,0.08,0.78,0
0.11713,-0.054739,0.93722,-0.45973,-0.78614,-0.60807,-0.062506,0,0,0.77134,-0.92597,0,-0.65006,0,0,0.24392,0.027428,0,0.2455,-0.44817,-0.7977,-0.60807,-10.478,-0.61798,0.30306,-0.00020974,0.1,0.78,0
0.13316,-0.062431,0.91825,-0.44372,-0.79055,-0.59984,-0.043897,0,0,0.81186,-0.99167,0,-0.45653,0,0,0.23284,0.017504,0,0.2335,-0.43825,-0.79602,-0.59984,-7.1024,-0.61137,0.31032,-0.00025548,0.12,0.78,0
0.14961,-0.067349,0.89997,-0.43361,-0.79047,-0.59221,-0.030791,0,0,0.82476,-1.0309,0,-0.32023,0,0,0.2259,0.0083524,0,0.22604,-0.43097,-0.7931,-0.59221,-4.8955,-0.60543,0.31425,-0.00030001,0.14,0.78,0
0.16615,-0.070307,0.88211,-0.42587,-0.78646,-0.58423,-0.021006,0,0,0.82346,-1.0516,0,-0.21847,0,0,0.22146,0.00014789,0,0.22144,-0.42465,-0.78768,-0.58423,-3.3228,-0.59885,0.31516,-0.00033357,0.16,0.78,0
0.18255,-0.071715,0.86453,-0.42009,-0.77968,-0.57607,-0.012977,0,0,0.81106,-1.0588,0,-0.13497,0,0,0.21864,-0.0073312,0,0.21875,-0.41963,-0.78015,-0.57607,-2.0642,-0.59195,0.31313,-0.00035712,0.18,0.78,0
0.1986,-0.071799,0.84713,-0.41574,-0.77057,-0.56768,-0.0057159,0,0,0.79004,-1.0551,0,-0.059446,0,0,0.21706,-0.014396,0,0.21751,-0.41565,-0.77066,-0.56768,-0.92267,-0.58466,0.3085,-0.00037027,0.2,0.78,0
0.21415,-0.070637,0.8298,-0.41259,-0.75936,-0.55904,0.0016207,0,0,0.76151,-1.0417,0,0.016855,0,0,0.21658,-0.021378,0,0.21761,-0.41259,-0.75937,-0.55904,0.26778,-0.577,0.30153,-0.0003734,0.22,0.78,0
0.22906,-0.068189,0.81247,-0.41065,-0.74609,-0.55014,0.0098512,0,0,0.72535,-1.0189,0,0.10245,0,0,0.21731,-0.028612,0,0.21916,-0.41036,-0.74638,-0.55014,1.6807,-0.56896,0.29236,-0.00036715,0.24,0.78,0
0.24316,-0.064286,0.79503,-0.41023,-0.73055,-0.54099,0.019885,0,0,0.67995,-0.98569,0,0.2068,0,0,0.21961,-0.036434,0,0.22259,-0.409,-0.73178,-0.54099,3.5388,-0.56059,0.28107,-0.00035262,0.26,0.78,0
0.25626,-0.058603,0.77734,-0.41168,-0.71189,-0.53141,0.03306,0,0,0.62258,-0.93853,0,0.34383,0,0,0.22431,-0.045109,0,0.22879,-0.40808,-0.71549,-0.53141,6.2104,-0.55166,0.26795,-0.00033032,0.28,0.78,0
0.26806,-0.050506,0.75914,-0.41805,-0.68962,-0.52209,0.051039,0,0,0.54098,-0.87117,0,0.53081,0,0,0.23292,-0.054517,0,0.23924,-0.40878,-0.6989,-0.52209,10.3,-0.54326,0.25325,-0.00030717,0.3,0.78,0
0.27789,-0.039055,0.74007,-0.43242,-0.65485,-0.5112,0.07477,0,0,0.40967,-0.747,0,0.77761,0,0,0.24547,-0.062342,0,0.25339,-0.40962,-0.67765,-0.5112,16.956,-0.53282,0.23438,-0.00026753,0.32,0.78,0
0.28445,-0.023524,0.71987,-0.47861,-1.1873,-0.94969,0.10062,0,0,0.73537,-0.49421,0,0.60572,0,0,0.26942,-0.15173,0,0.31789,-0.45387,-1.212,-0.94969,14.579,-0.87186,0.67076,0.023143,0.34,0.78,0
0.30731,-0.02047,0.71414,-0.51425,-1.6409,-1.3607,0.12144,0,0,1.1004,-0.3643,0,0.31575,0,0,0.30585,-0.22436,0,0.37972,-0.50131,-1.6539,-1.3607,6.0828,-1.172,1.0375,0.042295,0.36,0.78,0
0.32847,-0.016851,0.70764,-0.53599,-1.5093,-1.3212,0.098219,0,0,1.0208,-0.24455,0,0.25537,0,0,0.33498,-0.18445,0,0.38218,-0.52617,-1.5192,-1.3212,5.7049,-1.1222,0.91031,0.032654,0.38,0.78,0
0.34814,-0.014133,0.70074,-0.55463,-1.4331,-1.2971,0.05964,0,0,0.96514,-0.17681,0,0.15507,0,0,0.34548,-0.1573,0,0.3795,-0.5506,-1.4371,-1.2971,3.8664,-1.0949,0.82542,0.026104,0.4,0.78,0
0.36707,-0.013033,0.69382,-0.53066,-0.93236,-0.87254,0.025007,0,0,0.35792,-0.12442,0,0.12492,0,0,0.34534,-0.089056,0,0.36031,-0.51559,-0.94742,-0.87254,32.115,-0.77852,0.41474,0.011675,0.42,0.78,0
0.36246,-0.01054,0.66627,-0.51758,-0.49898,-0.47153,0.010684,0,0,-0.23942,-0.1427,0,0.11111,0,0,0.34305,-0.027913,0,0.34418,-0.49411,-0.52244,-0.47153,65.519,-0.49603,0.044181,-8.6004e-07,0.44,0.78,0
0.3575,-0.0087621,0.63893,-0.50946,-0.49122,-0.45994,0.0062119,0,0,-0.25753,-0.16268,0,0.064604,0,0,0.3402,-0.022388,0,0.34093,-0.48931,-0.51138,-0.45994,72.871,-0.48687,0.044698,1.1135e-06,0.46,0.78,0
0.35216,-0.0074368,0.61184,-0.50199,-0.48317,-0.44851,0.0035329,0,0,-0.27809,-0.18026,0,0.036742,0,0,0.33677,-0.018528,0,0.33729,-0.48253,-0.50263,-0.44851,79.707,-0.47789,0.047383,2.3397e-06,0.48,0.78,0
0.34637,-0.0064006,0.58504,-0.49534,-0.47449,-0.43721,0.0019203,0,0,-0.30228,-0.19385,0,0.019971,0,0,0.3332,-0.015904,0,0.33358,-0.47431,-0.49552,-0.43721,84.782,-0.46901,0.051117,3.0976e-06,0.5,0.78,0
0.34007,-0.0055581,0.55853,-0.48953,-0.4651,-0.42602,0.0009154,0,0,-0.33026,-0.20321,0,0.0095202,0,0,0.32973,-0.014167,0,0.33004,-0.46507,-0.48957,-0.42602,87.857,-0.46022,0.05551,3.3734e-06,0.52,0.78,0
0.33316,-0.004857,0.53229,-0.4845,-0.45509,-0.41495,0.00025393,0,0,-0.36167,-0.20872,0,0.0026409,0,0,0.32653,-0.01304,0,0.32679,-0.45508,-0.4845,-0.41495,89.505,-0.45151,0.060473,2.9884e-06,0.54,0.78,0
0.3256,-0.0042682,0.50629,-0.48013,-0.44455,-0.40398,-0.00019923,0,0,-0.39602,-0.21099,0,-0.002072,0,0,0.32369,-0.012316,0,0.32392,-0.44455,-0.48014,-0.40398,-89.679,-0.44289,0.066002,1.6713e-06,0.56,0.78,0
0.31732,-0.0037734,0.4805,-0.47635,-0.43362,-0.39311,-0.000505,0,0,-0.43282,-0.21063,0,-0.005252,0,0,0.32123,-0.011848,0,0.32145,-0.43361,-0.47636,-0.39311,-89.323,-0.43436,0.072097,-8.9763e-07,0.58,0.78,0
0.30829,-0.0033585,0.45489,-0.47306,-0.42239,-0.38236,-0.00068761,0,0,-0.47166,-0.20818,0,-0.0071511,0,0,0.31916,-0.01154,0,0.31937,-0.42238,-0.47307,-0.38236,-89.223,-0.42594,0.078741,-5.0626e-06,0.6,0.78,0
0.29846,-0.0030105,0.42943,-0.47021,-0.41096,-0.37171,-0.00075669,0,0,-0.51221,-0.2041,0,-0.0078696,0,0,0.31748,-0.011331,0,0.31768,-0.41095,-0.47022,-0.37171,-89.269,-0.41763,0.085899,-1.1181e-05,0.62,0.78,0
0.2878,-0.0027167,0.40409,-0.46774,-0.39938,-0.36116,-0.00071863,0,0,-0.55421,-0.19876,0,-0.0074737,0,0,0.31616,-0.011185,0,0.31635,-0.39938,-0.46775,-0.36116,-89.398,-0.40943,0.09353,-1.9617e-05,0.64,0.78,0
0.27629,-0.0024647,0.37885,-0.46562,-0.38773,-0.35072,-0.00058168,0,0,-0.59748,-0.19248,0,-0.0060495,0,0,0.31518,-0.011084,0,0.31538,-0.38773,-0.46562,-0.35072,-89.572,-0.40135,0.10159,-3.0748e-05,0.66,0.78,0
0.2639,-0.0022433,0.35366,-0.46381,-0.37605,-0.34037,-0.00035792,0,0,-0.64188,-0.1855,0,-0.0037224,0,0,0.31453,-0.01102,0,0.31473,-0.37605,-0.46381,-0.34037,-89.766,-0.39341,0.11003,-4.4957e-05,0.68,0.78,0
0.25061,-0.0020426,0.32852,-0.46231,-0.36437,-0.33013,-6.3788e-05,0,0,-0.6873,-0.17803,0,-0.00066339,0,0,0.31421,-0.010991,0,0.3144,-0.36437,-0.46231,-0.33013,-89.963,-0.3856,0.11881,-6.2642e-05,0.7,0.78,0
0.23641,-0.001855,0.30339,-0.46108,-0.35273,-0.31999,0.00027988,0,0,-0.73368,-0.17024,0,0.0029108,0,0,0.31422,-0.010996,0,0.31441,-0.35273,-0.46109,-0.31999,89.852,-0.37794,0.12791,-8.4204e-05,0.72,0.78,0
0.22126,-0.0016753,0.27825,-0.46013,-0.34117,-0.30995,0.00064803,0,0,-0.78095,-0.16231,0,0.0067395,0,0,0.31455,-0.011031,0,0.31474,-0.34116,-0.46014,-0.30995,89.688,-0.37042,0.13727,-0.00011004,0.74,0.78,0
0.20517,-0.0015012,0.25306,-0.45944,-0.32971,-0.30001,0.0010119,0,0,-0.82903,-0.15444,0,0.010523,0,0,0.31521,-0.011089,0,0.31541,-0.3297,-0.45945,-0.30001,89.553,-0.36305,0.14686,-0.00014052,0.76,0.78,0
0.1881,-0.0013331,0.22781,-0.45898,-0.3184,-0.29017,0.0013403,0,0,-0.87782,-0.14682,0,0.01394,0,0,0.31623,-0.011149,0,0.31643,-0.31839,-0.45899,-0.29017,89.454,-0.35585,0.15663,-0.00017596,0.78,0.78,0
0.17006,-0.0011734,0.20247,-0.45871,-0.30728,-0.28042,0.0016031,0,0,-0.92716,-0.1397,0,0.016672,0,0,0.31762,-0.01118,0,0.31782,-0.30726,-0.45873,-0.28042,89.394,-0.3488,0.16652,-0.00021653,0.8,0.78,0
0.15102,-0.0010257,0.17699,-0.45861,-0.2964,-0.27075,0.0017759,0,0,-0.97685,-0.13338,0,0.018469,0,0,0.31936,-0.011128,0,0.31956,-0.29638,-0.45863,-0.27075,89.373,-0.34192,0.17646,-0.00026225,0.82,0.78,0
0.13098,-0.00089239,0.15137,-0.4586,-0.28581,-0.26116,0.0018473,0,0,-1.0267,-0.12816,0,0.019212,0,0,0.32144,-0.010914,0,0.32163,-0.28579,-0.45862,-0.26116,89.388,-0.33519,0.18636,-0.00031296,0.84,0.78,0
0.10995,-0.00077203,0.12556,-0.45862,-0.27554,-0.25164,0.0018255,0,0,-1.0763,-0.1243,0,0.018985,0,0,0.32379,-0.010436,0,0.32397,-0.27553,-0.45864,-0.25164,89.429,-0.3286,0.19615,-0.0003683,0.86,0.78,0
0.08793,-0.0006568,0.09956,-0.45861,-0.26561,-0.24216,0.0017377,0,0,-1.1256,-0.12195,0,0.018072,0,0,0.32631,-0.0095773,0,0.32646,-0.26559,-0.45863,-0.24216,89.484,-0.32213,0.20576,-0.00042789,0.88,0.78,0
0.064928,-0.00053121,0.073352,-0.45852,-0.25596,-0.23268,0.0016201,0,0,-1.1744,-0.12105,0,0.016849,0,0,0.32882,-0.0082254,0,0.32893,-0.25595,-0.45853,-0.23268,89.542,-0.31572,0.21516,-0.00049149,0.9,0.78,0
0.040956,-0.00037414,0.046948,-0.4583,-0.24651,-0.22318,0.0014984,0,0,-1.2226,-0.12132,0,0.015583,0,0,0.33109,-0.0063039,0,0.33115,-0.2465,-0.45831,-0.22318,89.595,-0.30933,0.22438,-0.00055912,0.92,0.78,0
0.016023,-0.00016488,0.020378,-0.45802,-0.29856,-0.23971,0.00099967,0,0,-0.75128,-0.1224,0,0.0073365,0,0,0.33395,-0.0095164,0,0.33413,-0.29855,-0.45803,-0.23971,89.62,-0.33209,0.19973,-0.0003066,0.94,0.78,0
0.010904,-0.00016747,0.013663,-0.45765,-0.35191,-0.25653,-2.6e-05,0,0,-0.26145,-0.124,0,-6.7601e-05,0,0,0.33803,-0.011515,0,0.33823,-0.35191,-0.45765,-0.25653,-89.986,-0.35536,0.17425,-2.4182e-05,0.96,0.78,0
0.0055654,-0.00019897,0.0068564,-0.45689,-0.34424,-0.2472,-0.00039997,0,0,-0.27261,-0.12615,0,-0.0010399,0,0,0.34157,-0.006207,0,0.34162,-0.34424,-0.4569,-0.2472,-89.797,-0.34944,0.18177,-3.9662e-05,0.98,0.78,0
0,-0.00021453,0,-0.44791,-0.33161,-0.23386,-0.00029923,0,0,-0.27827,-0.12708,0,-0.00077801,0,0,0.34282,-1.1709e-17,0,0.34281,-0.33161,-0.44791,-0.23386,-89.853,-0.33779,0.18561,-4.9068e-05,1,0.78,0
0,-0.023727,1,-0.77225,-1.928,-1.8101,-0.029789,0,0,1.3492,-0.15328,0,-0.077452,0,0,0.45382,-2.047e-15,0,0.45293,-0.77148,-1.9287,-1.8101,-1.4755,-1.5034,1.1027,0.066187,0,0.8,0
0.026983,-0.025276,0.99092,-0.75425,-1.9268,-1.7953,-0.097812,0,0,1.3533,-0.17105,0,-0.25431,0,0,0.44673,0.069665,0,0.45105,-0.74615,-1.9349,-1.7953,-4.7358,-1.4921,1.1255,0.069429,0.02,0.8,0
0.054132,-0.030665,0.98213,-0.635,-1.9455,-1.7563,-0.18615,0,0,1.4577,-0.24599,0,-0.48399,0,0,0.39078,0.15578,0,0.4181,-0.60907,-1.9714,-1.7563,-7.9296,-1.4456,1.2686,0.094757,0.04,0.8,0
0.08529,-0.036289,0.97529,-0.58769,-1.5307,-1.2451,-0.20637,0,0,1.0816,-0.59416,0,-1.1283,0,0,0.30653,0.18554,0,0.37012,-0.52997,-1.5884,-1.2451,-17.566,-1.1212,0.93919,0.063232,0.06,0.8,0
0.097395,-0.059901,0.9536,-0.49994,-0.81872,-0.634,-0.12282,0,0,0.6971,-0.96055,0,-1.2774,0,0,0.25482,0.058451,0,0.26158,-0.45811,-0.86055,-0.634,-18.809,-0.65089,0.34945,-0.00047329,0.08,0.8,0
0.11317,-0.074094,0.93452,-0.45942,-0.81077,-0.61469,-0.080751,0,0,0.80738,-1.0196,0,-0.83981,0,0,0.23161,0.038976,0,0.23481,-0.44176,-0.82844,-0.61469,-12.343,-0.6283,0.3355,-0.00035223,0.1,0.8,0
0.12969,-0.082793,0.91654,-0.44422,-0.8083,-0.60489,-0.055151,0,0,0.83548,-1.0577,0,-0.57357,0,0,0.22142,0.024318,0,0.2227,-0.43605,-0.81647,-0.60489,-8.4274,-0.61914,0.33015,-0.00035688,0.12,0.8,0
0.14659,-0.088367,0.8991,-0.43301,-0.80261,-0.59546,-0.038782,0,0,0.84473,-1.0772,0,-0.40333,0,0,0.21611,0.012698,0,0.21645,-0.42899,-0.80664,-0.59546,-5.926,-0.61036,0.32782,-0.0003678,0.14,0.8,0
0.16348,-0.091643,0.88196,-0.42562,-0.79569,-0.58689,-0.026825,0,0,0.83857,-1.0858,0,-0.27898,0,0,0.21287,0.0030099,0,0.21286,-0.42369,-0.79763,-0.58689,-4.1244,-0.60273,0.32471,-0.00038344,0.16,0.8,0
0.18014,-0.093145,0.86504,-0.42013,-0.7874,-0.57852,-0.017468,0,0,0.82361,-1.0862,0,-0.18167,0,0,0.21079,-0.0055057,0,0.21084,-0.4193,-0.78823,-0.57852,-2.7169,-0.59535,0.3205,-0.0003963,0.18,0.8,0
0.19642,-0.093136,0.84824,-0.41578,-0.77785,-0.57015,-0.0092795,0,0,0.80271,-1.08,0,-0.096507,0,0,0.20951,-0.013421,0,0.20991,-0.41554,-0.77808,-0.57015,-1.4672,-0.58792,0.3151,-0.00040405,0.2,0.8,0
0.21224,-0.091724,0.83152,-0.41221,-0.76712,-0.56168,-0.0011425,0,0,0.77722,-1.0683,0,-0.011882,0,0,0.20891,-0.021233,0,0.20996,-0.41221,-0.76712,-0.56168,-0.18444,-0.58034,0.30864,-0.00040627,0.22,0.8,0
0.22751,-0.08887,0.81481,-0.40947,-0.75532,-0.55314,0.0080318,0,0,0.74708,-1.0513,0,0.083531,0,0,0.20906,-0.02945,0,0.2111,-0.40929,-0.75551,-0.55314,1.3296,-0.57265,0.30126,-0.00040398,0.24,0.8,0
0.24213,-0.084392,0.79807,-0.408,-0.74251,-0.54467,0.019563,0,0,0.7107,-1.0288,0,0.20345,0,0,0.21029,-0.038669,0,0.21378,-0.40686,-0.74365,-0.54467,3.3356,-0.56506,0.29327,-0.00039945,0.26,0.8,0
0.25594,-0.077889,0.78117,-0.40921,-0.72884,-0.53671,0.035062,0,0,0.66299,-0.99911,0,0.36464,0,0,0.21345,-0.049691,0,0.2191,-0.40541,-0.73264,-0.53671,6.187,-0.55825,0.28523,-0.0003982,0.28,0.8,0
0.26865,-0.068713,0.76391,-0.41341,-0.71261,-0.52878,0.058583,0,0,0.59995,-0.9559,0,0.60926,0,0,0.22134,-0.063642,0,0.23024,-0.40235,-0.72367,-0.52878,10.692,-0.5516,0.28037,-0.00040631,0.3,0.8,0
0.27994,-0.054986,0.74575,-0.43907,-0.70048,-0.5283,0.095408,0,0,0.46399,-0.89531,0,0.99224,0,0,0.24123,-0.082168,0,0.25496,-0.40796,-0.7316,-0.5283,18.064,-0.55595,0.28333,-0.00049833,0.32,0.8,0
0.28721,-0.033938,0.72532,-0.5027,-1.2625,-0.98289,0.16537,0,0,0.76053,-0.58166,0,0.90741,0,0,0.28309,-0.23886,0,0.3836,-0.45606,-1.3092,-0.98289,17.678,-0.91604,0.74926,0.024744,0.34,0.8,0
0.31036,-0.027521,0.7191,-0.5187,-1.5434,-1.3377,0.1576,0,0,1.0647,-0.26736,0,0.40977,0,0,0.34704,-0.25102,0,0.42634,-0.49501,-1.5671,-1.3377,8.5493,-1.1333,0.97779,0.039252,0.36,0.8,0
0.3298,-0.021104,0.71143,-0.59493,-1.4691,-1.3306,0.10263,0,0,0.95643,-0.18,0,0.26684,0,0,0.38041,-0.18588,0,0.42288,-0.58304,-1.481,-1.3306,6.6071,-1.1316,0.83301,0.026458,0.38,0.8,0
0.34862,-0.017199,0.70388,-0.58052,-1.3962,-1.2969,0.048043,0,0,0.93131,-0.12913,0,0.12491,0,0,0.37047,-0.14918,0,0.39928,-0.5777,-1.3991,-1.2969,3.359,-1.0912,0.77535,0.022545,0.4,0.8,0
0.36705,-0.015033,0.69662,-0.54042,-0.90839,-0.87003,0.014203,0,0,0.33159,-0.079792,0,0.055656,0,0,0.35809,-0.08181,0,0.37028,-0.52255,-0.92625,-0.87003,41.972,-0.77294,0.39374,0.010268,0.42,0.8,0
0.36188,-0.013094,0.6684,-0.5222,-0.49458,-0.47213,0.0012481,0,0,-0.26033,-0.11674,0,0.012981,0,0,0.35021,-0.023987,0,0.35103,-0.49453,-0.52225,-0.47213,87.417,-0.4963,0.043486,-7.7278e-07,0.44,0.8,0
0.35664,-0.011833,0.64058,-0.51186,-0.48887,-0.46037,-0.0020783,0,0,-0.2678,-0.14821,0,-0.021614,0,0,0.34514,-0.018039,0,0.34561,-0.48868,-0.51205,-0.46037,-84.877,-0.48703,0.044829,7.6274e-07,0.46,0.8,0
0.35117,-0.01093,0.61318,-0.50313,-0.48199,-0.44883,-0.0035919,0,0,-0.28234,-0.17243,0,-0.037355,0,0,0.34007,-0.014164,0,0.34037,-0.48139,-0.50372,-0.44883,-80.614,-0.47798,0.047811,1.7761e-06,0.48,0.8,0
0.34534,-0.010206,0.58617,-0.49576,-0.4739,-0.43744,-0.0041413,0,0,-0.30327,-0.1896,0,-0.04307,0,0,0.33531,-0.01179,0,0.33552,-0.47315,-0.49652,-0.43744,-79.624,-0.46904,0.051534,2.4741e-06,0.5,0.8,0
0.33904,-0.009574,0.55953,-0.48955,-0.46481,-0.42619,-0.0042359,0,0,-0.32948,-0.20081,0,-0.044054,0,0,0.33102,-0.010452,0,0.33119,-0.4641,-0.49026,-0.42619,-80.55,-0.46018,0.055795,2.7783e-06,0.52,0.8,0
0.33216,-0.008997,0.53321,-0.48428,-0.45494,-0.41507,-0.0041373,0,0,-0.3599,-0.20733,0,-0.043028,0,0,0.32727,-0.009788,0,0.32742,-0.45437,-0.48485,-0.41507,-82.125,-0.45143,0.060595,2.4753e-06,0.54,0.8,0
0.32464,-0.0084628,0.50716,-0.47976,-0.44449,-0.40407,-0.0039566,0,0,-0.39359,-0.21022,0,-0.041149,0,0,0.32408,-0.0095371,0,0.32422,-0.44406,-0.4802,-0.40407,-83.676,-0.44277,0.065958,1.2886e-06,0.56,0.8,0
0.31642,-0.0079679,0.48135,-0.47586,-0.43364,-0.39319,-0.0037281,0,0,-0.42988,-0.21036,0,-0.038772,0,0,0.32142,-0.009523,0,0.32156,-0.43332,-0.47618,-0.39319,-84.992,-0.43423,0.071889,-1.0909e-06,0.58,0.8,0
0.30745,-0.0075103,0.45574,-0.47247,-0.4225,-0.38242,-0.0034524,0,0,-0.46824,-0.20837,0,-0.035905,0,0,0.31923,-0.0096366,0,0.31938,-0.42226,-0.47271,-0.38242,-86.067,-0.4258,0.078368,-4.9928e-06,0.6,0.8,0
0.29769,-0.0070865,0.43028,-0.46953,-0.41114,-0.37177,-0.0031202,0,0,-0.50834,-0.20474,0,-0.032451,0,0,0.31748,-0.0098154,0,0.31763,-0.41098,-0.4697,-0.37177,-86.95,-0.41748,0.085364,-1.0762e-05,0.62,0.8,0
0.28711,-0.0066914,0.40494,-0.46698,-0.39966,-0.36123,-0.0027227,0,0,-0.54991,-0.19985,0,-0.028316,0,0,0.31611,-0.010028,0,0.31627,-0.39955,-0.46709,-0.36123,-87.688,-0.40929,0.092836,-1.8759e-05,0.64,0.8,0
0.27569,-0.0063185,0.3797,-0.46478,-0.38809,-0.35079,-0.0022559,0,0,-0.59278,-0.19398,0,-0.023461,0,0,0.3151,-0.010264,0,0.31527,-0.38802,-0.46485,-0.35079,-88.317,-0.40122,0.10075,-2.9362e-05,0.66,0.8,0
0.2634,-0.0059614,0.35453,-0.46292,-0.37648,-0.34045,-0.001722,0,0,-0.63683,-0.18735,0,-0.017909,0,0,0.31442,-0.010523,0,0.3146,-0.37644,-0.46295,-0.34045,-88.859,-0.39328,0.10905,-4.2972e-05,0.68,0.8,0
0.25022,-0.0056141,0.32939,-0.46137,-0.36486,-0.33022,-0.0011303,0,0,-0.68198,-0.18014,0,-0.011755,0,0,0.31406,-0.010812,0,0.31425,-0.36485,-0.46138,-0.33022,-89.329,-0.38548,0.11773,-6.0013e-05,0.7,0.8,0
0.23612,-0.0052725,0.30428,-0.46012,-0.35326,-0.32008,-0.00049696,0,0,-0.7282,-0.17252,0,-0.0051684,0,0,0.31403,-0.011138,0,0.31423,-0.35326,-0.46013,-0.32008,-89.734,-0.37782,0.12675,-8.0936e-05,0.72,0.8,0
0.22109,-0.0049345,0.27915,-0.45918,-0.34171,-0.31005,0.0001543,0,0,-0.77546,-0.16461,0,0.0016048,0,0,0.31433,-0.011507,0,0.31454,-0.34171,-0.45918,-0.31005,89.925,-0.37031,0.13609,-0.00010621,0.74,0.8,0
0.20511,-0.0046014,0.25398,-0.45853,-0.33023,-0.30013,0.00079209,0,0,-0.82372,-0.15655,0,0.0082378,0,0,0.31498,-0.011917,0,0.31521,-0.33023,-0.45854,-0.30013,89.646,-0.36296,0.14571,-0.00013632,0.76,0.8,0
0.18814,-0.0042775,0.22875,-0.45817,-0.31887,-0.2903,0.0013776,0,0,-0.87295,-0.14854,0,0.014327,0,0,0.31601,-0.012355,0,0.31625,-0.31885,-0.45819,-0.2903,89.433,-0.35578,0.15559,-0.0001717,0.78,0.8,0
0.17019,-0.0039702,0.20342,-0.45808,-0.30765,-0.28057,0.001867,0,0,-0.92304,-0.14078,0,0.019417,0,0,0.31744,-0.012785,0,0.3177,-0.30762,-0.4581,-0.28057,89.289,-0.34877,0.16567,-0.0002127,0.8,0.8,0
0.15122,-0.0036892,0.17796,-0.45821,-0.29663,-0.27094,0.0022174,0,0,-0.9738,-0.13359,0,0.023061,0,0,0.31932,-0.013143,0,0.31959,-0.29661,-0.45824,-0.27094,89.214,-0.34193,0.17588,-0.00025949,0.82,0.8,0
0.13123,-0.0034437,0.15233,-0.45851,-0.28589,-0.2614,0.0023977,0,0,-1.025,-0.12734,0,0.024936,0,0,0.32164,-0.013324,0,0.32192,-0.28586,-0.45854,-0.2614,89.204,-0.33527,0.18612,-0.00031194,0.84,0.8,0
0.11022,-0.0032389,0.1265,-0.45888,-0.27548,-0.25193,0.0024021,0,0,-1.0761,-0.12245,0,0.024982,0,0,0.32437,-0.013178,0,0.32464,-0.27545,-0.45891,-0.25193,89.25,-0.32876,0.19628,-0.00036964,0.86,0.8,0
0.08819,-0.0030711,0.10043,-0.45924,-0.26544,-0.24251,0.0022568,0,0,-1.127,-0.11923,0,0.02347,0,0,0.32741,-0.012515,0,0.32766,-0.26542,-0.45927,-0.24251,89.333,-0.3224,0.20626,-0.000432,0.88,0.8,0
0.065143,-0.0029243,0.074112,-0.4595,-0.25574,-0.2331,0.0020101,0,0,-1.1773,-0.11772,0,0.020905,0,0,0.33057,-0.011132,0,0.33076,-0.25572,-0.45952,-0.2331,89.435,-0.31611,0.216,-0.00049852,0.9,0.8,0
0.041098,-0.0027715,0.04754,-0.45957,-0.24625,-0.22363,0.0017003,0,0,-1.2269,-0.11762,0,0.017683,0,0,0.33355,-0.0088691,0,0.33367,-0.24624,-0.45958,-0.22363,89.543,-0.30982,0.2255,-0.00056901,0.92,0.8,0
0.016068,-0.0025839,0.020744,-0.45908,-0.29664,-0.23968,0.00073487,0,0,-0.75453,-0.11847,0,0.0065862,0,0,0.33754,-0.01419,0,0.33795,-0.29664,-0.45909,-0.23968,89.77,-0.3318,0.20095,-0.00032067,0.94,0.8,0
0.010917,-0.0026315,0.013941,-0.45874,-0.35064,-0.25676,-0.00096167,0,0,-0.26259,-0.12205,0,-0.0025004,0,0,0.34341,-0.017461,0,0.34386,-0.35063,-0.45875,-0.25676,-89.49,-0.35538,0.17508,-3.3581e-05,0.96,0.8,0
0.0055651,-0.0027212,0.0070072,-0.45779,-0.345,-0.24785,-0.0012274,0,0,-0.27293,-0.12631,0,-0.0031912,0,0,0.34853,-0.0094988,0,0.34865,-0.34499,-0.4578,-0.24785,-89.377,-0.35021,0.182,-3.9877e-05,0.98,0.8,0
0,-0.0027615,0,-0.44847,-0.33294,-0.23442,-0.00077485,0,0,-0.27826,-0.12807,0,-0.0020146,0,0,0.35036,-2.1684e-18,0,0.35034,-0.33293,-0.44847,-0.23442,-89.616,-0.33861,0.18557,-4.5034e-05,1,0.8,0
0,-0.025794,1,-0.80825,-1.8524,-1.7982,-0.036034,0,0,1.2869,-0.070432,0,-0.093688,0,0,0.52941,-4.5103e-17,0,0.52858,-0.80701,-1.8536,-1.7982,-1.9742,-1.4863,1.02,0.053964,0,0.82,0
0.025738,-0.027667,0.98941,-0.81477,-1.8469,-1.7879,-0.084977,0,0,1.2651,-0.076677,0,-0.22094,0,0,0.53228,0.072932,0,0.53621,-0.80782,-1.8538,-1.7879,-4.6754,-1.4832,1.0147,0.052889,0.02,0.82,0
0.050603,-0.033413,0.97871,-0.86812,-1.8824,-1.8039,-0.24093,0,0,1.2165,-0.1021,0,-0.62642,0,0,0.5641,0.16516,0,0.58486,-0.8138,-1.9367,-1.8039,-12.706,-1.5181,1.0627,0.058411,0.04,0.82,0
0.074397,-0.049841,0.96685,-0.78508,-1.3812,-1.2542,-0.33798,0,0,0.88401,-0.41928,0,-1.6749,0,0,0.47358,0.21174,0,0.52043,-0.63094,-1.5354,-1.2542,-25.529,-1.1402,0.80759,0.032947,0.06,0.82,0
0.08902,-0.08141,0.94793,-0.67555,-0.88496,-1.0606,-0.23113,0,0,0.80092,-0.17497,0,-1.1863,0,0,0.56035,0.078691,0,0.56705,-0.50615,-1.0544,-1.0606,-31.112,-0.87371,0.60354,0.0078056,0.08,0.82,0
0.10643,-0.095525,0.93098,-0.58873,-0.85535,-1.0151,-0.10587,0,0,0.88682,-0.19416,0,-0.62034,0,0,0.52446,0.048917,0,0.52749,-0.545,-0.89908,-1.0151,-20.684,-0.81972,0.50774,-0.0028562,0.1,0.82,0
0.12449,-0.10474,0.91436,-0.5567,-0.83196,-0.98808,-0.068705,0,0,0.89726,-0.20855,0,-0.41587,0,0,0.51641,0.029815,0,0.51757,-0.53709,-0.85157,-0.98808,-15.033,-0.79224,0.49334,-0.0041161,0.12,0.82,0
0.14232,-0.11044,0.89794,-0.54849,-0.82253,-0.97251,-0.045432,0,0,0.88198,-0.21882,0,-0.28253,0,0,0.51149,0.01629,0,0.51181,-0.53958,-0.83144,-0.97251,-10.704,-0.78118,0.47878,-0.0043283,0.14,0.82,0
0.15977,-0.11374,0.88163,-0.54417,-0.81319,-0.95822,-0.030766,0,0,0.86124,-0.22576,0,-0.19381,0,0,0.50814,0.005579,0,0.50816,-0.5399,-0.81746,-0.95822,-7.6993,-0.77186,0.46676,-0.0042716,0.16,0.82,0
0.17677,-0.11516,0.86541,-0.5412,-0.80371,-0.94435,-0.020056,0,0,0.83857,-0.23,0,-0.12702,0,0,0.50553,-0.0035688,0,0.50554,-0.53929,-0.80561,-0.94435,-5.3152,-0.76309,0.45544,-0.0041185,0.18,0.82,0
0.19331,-0.115,0.84927,-0.53807,-0.79356,-0.93029,-0.011251,0,0,0.81581,-0.2322,0,-0.070721,0,0,0.50332,-0.011941,0,0.50355,-0.53743,-0.7942,-0.93029,-3.1714,-0.75397,0.44468,-0.0039299,0.2,0.82,0
0.20941,-0.11337,0.8332,-0.53423,-0.7828,-0.91586,-0.0027399,0,0,0.79379,-0.23287,0,-0.01575,0,0,0.50138,-0.020161,0,0.50203,-0.53419,-0.78285,-0.91586,-0.86167,-0.7443,0.43443,-0.0037224,0.22,0.82,0
0.22507,-0.11024,0.81719,-0.5295,-0.77154,-0.90105,0.0070223,0,0,0.77283,-0.23238,0,0.046753,0,0,0.49968,-0.028858,0,0.501,-0.52925,-0.77179,-0.90105,2.071,-0.73403,0.42487,-0.0034964,0.24,0.82,0
0.24032,-0.10544,0.80122,-0.5245,-0.76033,-0.88621,0.019884,0,0,0.75236,-0.23094,0,0.12725,0,0,0.49842,-0.038853,0,0.50078,-0.52233,-0.76249,-0.88621,6.1239,-0.72368,0.41627,-0.0032264,0.26,0.82,0
0.25516,-0.098567,0.78529,-0.5207,-0.74938,-0.87183,0.039786,0,0,0.73035,-0.22853,0,0.24534,0,0,0.49835,-0.051464,0,0.50239,-0.51172,-0.75836,-0.87183,12.073,-0.71397,0.4102,-0.0028443,0.28,0.82,0
0.26953,-0.088742,0.76933,-0.53348,-0.74968,-0.86578,0.071137,0,0,0.69118,-0.22461,0,0.42375,0,0,0.50109,-0.069593,0,0.50812,-0.50609,-0.77706,-0.86578,19.303,-0.71631,0.40479,-0.0019748,0.3,0.82,0
0.28281,-0.074867,0.75322,-0.58799,-0.75432,-0.87345,0.1742,0,0,0.59377,-0.2179,0,0.90001,0,0,0.53392,-0.098442,0,0.54588,-0.45861,-0.8837,-0.87345,30.889,-0.73859,0.4668,0.0030582,0.32,0.82,0
0.29328,-0.046791,0.73516,-0.65282,-1.1348,-0.99575,0.26489,0,0,0.64223,-0.42172,0,1.3291,0,0,0.44627,-0.24082,0,0.51092,-0.53437,-1.2532,-0.99575,25.084,-0.92778,0.63533,0.013097,0.34,0.82,0
0.31087,-0.031164,0.72418,-0.70242,-1.5029,-1.3858,0.18362,0,0,0.88838,-0.15227,0,0.47741,0,0,0.50215,-0.23316,0,0.55179,-0.66231,-1.543,-1.3858,12.322,-1.197,0.81357,0.024212,0.36,0.82,0
0.32882,-0.024051,0.71507,-0.63721,-1.4238,-1.3334,0.069471,0,0,0.90501,-0.11755,0,0.18062,0,0,0.43682,-0.1634,0,0.4662,-0.63112,-1.4299,-1.3334,5.0087,-1.1315,0.75515,0.020904,0.38,0.82,0
0.34707,-0.019298,0.70671,-0.59358,-1.3611,-1.2931,0.025026,0,0,0.90939,-0.08836,0,0.065068,0,0,0.40047,-0.12417,0,0.41945,-0.59276,-1.3619,-1.2931,1.8656,-1.0826,0.73715,0.01997,0.4,0.82,0
0.36519,-0.016224,0.69905,-0.54479,-0.89006,-0.86736,-0.0015561,0,0,0.31778,-0.047208,0,-0.037358,0,0,0.37236,-0.065524,0,0.38001,-0.52245,-0.9124,-0.86736,-39.372,-0.7674,0.38327,0.0093465,0.42,0.82,0
0.35978,-0.015209,0.67011,-0.52368,-0.49158,-0.47211,-0.010164,0,0,-0.26819,-0.10127,0,-0.10571,0,0,0.35774,-0.017349,0,0.35817,-0.48863,-0.52663,-0.47211,-73.827,-0.49579,0.048422,-3.6237e-06,0.44,0.82,0
0.35447,-0.014691,0.64181,-0.51212,-0.48796,-0.46048,-0.011515,0,0,-0.26854,-0.1429,0,-0.11975,0,0,0.35002,-0.011655,0,0.35023,-0.48335,-0.51673,-0.46048,-68.187,-0.48685,0.048997,-1.9132e-06,0.46,0.82,0
0.34904,-0.014334,0.61411,-0.50267,-0.48208,-0.44895,-0.011337,0,0,-0.27932,-0.17226,0,-0.11791,0,0,0.34302,-0.0083309,0,0.34314,-0.47706,-0.50768,-0.44895,-66.119,-0.4779,0.050881,-5.0175e-07,0.48,0.82,0
0.34329,-0.013985,0.58693,-0.49494,-0.47437,-0.43752,-0.010528,0,0,-0.29854,-0.19159,0,-0.10949,0,0,0.33691,-0.0066748,0,0.33699,-0.46993,-0.49937,-0.43752,-67.163,-0.46894,0.053581,6.5753e-07,0.5,0.82,0
0.33709,-0.013591,0.5602,-0.48855,-0.46536,-0.42622,-0.0095654,0,0,-0.3241,-0.2035,0,-0.09948,0,0,0.33173,-0.0060968,0,0.3318,-0.46192,-0.49199,-0.42622,-70.241,-0.46004,0.057022,1.4067e-06,0.52,0.82,0
0.33033,-0.01315,0.53385,-0.48319,-0.45548,-0.41506,-0.0086404,0,0,-0.35426,-0.21014,0,-0.08986,0,0,0.32744,-0.0061527,0,0.32751,-0.453,-0.48566,-0.41506,-74.028,-0.45124,0.061199,1.5192e-06,0.54,0.82,0
0.32292,-0.012677,0.50781,-0.47862,-0.44501,-0.40404,-0.0077992,0,0,-0.38779,-0.21303,0,-0.081112,0,0,0.32395,-0.0065432,0,0.32402,-0.44328,-0.48034,-0.40404,-77.551,-0.44255,0.066084,7.38e-07,0.56,0.82,0
0.31482,-0.012188,0.48202,-0.47466,-0.43414,-0.39315,-0.0070269,0,0,-0.42388,-0.21318,0,-0.07308,0,0,0.32113,-0.0070852,0,0.32121,-0.43296,-0.47585,-0.39315,-80.436,-0.43399,0.071637,-1.2148e-06,0.58,0.82,0
0.30597,-0.011693,0.45643,-0.47123,-0.42301,-0.38238,-0.0062905,0,0,-0.462,-0.2113,0,-0.065421,0,0,0.31887,-0.0076776,0,0.31896,-0.42221,-0.47203,-0.38238,-82.687,-0.42554,0.077803,-4.6375e-06,0.6,0.82,0
0.29634,-0.0112,0.431,-0.46823,-0.4117,-0.37173,-0.0055568,0,0,-0.50179,-0.20786,0,-0.057791,0,0,0.31709,-0.008272,0,0.3172,-0.41116,-0.46877,-0.37173,-84.438,-0.41722,0.084527,-9.8494e-06,0.62,0.82,0
0.2859,-0.010711,0.4057,-0.46561,-0.40027,-0.36119,-0.0047992,0,0,-0.543,-0.20322,0,-0.049912,0,0,0.31571,-0.0088527,0,0.31583,-0.39992,-0.46596,-0.36119,-85.822,-0.40902,0.091758,-1.7192e-05,0.64,0.82,0
0.27462,-0.010224,0.38049,-0.46335,-0.38876,-0.35075,-0.0039997,0,0,-0.58548,-0.19764,0,-0.041597,0,0,0.31468,-0.0094231,0,0.31483,-0.38855,-0.46356,-0.35075,-86.939,-0.40096,0.09945,-2.7035e-05,0.66,0.82,0
0.26248,-0.0097372,0.35535,-0.46141,-0.37721,-0.34042,-0.0031493,0,0,-0.62914,-0.1913,0,-0.032753,0,0,0.31399,-0.0099973,0,0.31415,-0.3771,-0.46153,-0.34042,-87.861,-0.39302,0.10757,-3.978e-05,0.68,0.82,0
0.24945,-0.0092484,0.33025,-0.4598,-0.36565,-0.3302,-0.0022477,0,0,-0.67394,-0.18434,0,-0.023376,0,0,0.3136,-0.010595,0,0.31378,-0.36559,-0.45986,-0.3302,-88.633,-0.38521,0.11608,-5.5868e-05,0.7,0.82,0
0.23552,-0.0087557,0.30517,-0.45851,-0.35409,-0.32007,-0.0013036,0,0,-0.71988,-0.17688,0,-0.013558,0,0,0.31352,-0.011235,0,0.31372,-0.35407,-0.45853,-0.32007,-89.285,-0.37756,0.12497,-7.5791e-05,0.72,0.82,0
0.22066,-0.0082595,0.28009,-0.45755,-0.34255,-0.31005,-0.00033578,0,0,-0.76698,-0.169,0,-0.0034921,0,0,0.31377,-0.011938,0,0.31399,-0.34255,-0.45755,-0.31005,-89.833,-0.37005,0.13423,-0.0001001,0.74,0.82,0
0.20484,-0.0077634,0.25497,-0.45693,-0.33106,-0.30014,0.00062573,0,0,-0.81531,-0.16078,0,0.0065075,0,0,0.31437,-0.012713,0,0.31462,-0.33105,-0.45693,-0.30014,89.715,-0.36271,0.14385,-0.00012939,0.76,0.82,0
0.18804,-0.0072746,0.22979,-0.45666,-0.31963,-0.29034,0.0015375,0,0,-0.86492,-0.15232,0,0.01599,0,0,0.31537,-0.013558,0,0.31566,-0.31961,-0.45668,-0.29034,89.357,-0.35554,0.15381,-0.00016431,0.78,0.82,0
0.17024,-0.0068047,0.20451,-0.45676,-0.30829,-0.28064,0.0023422,0,0,-0.91581,-0.14377,0,0.024359,0,0,0.31683,-0.014447,0,0.31716,-0.30825,-0.4568,-0.28064,89.096,-0.34856,0.1641,-0.00020547,0.8,0.82,0
0.15141,-0.0063693,0.1791,-0.45719,-0.2971,-0.27106,0.0029724,0,0,-0.96788,-0.13539,0,0.030913,0,0,0.31882,-0.015317,0,0.31919,-0.29704,-0.45725,-0.27106,88.937,-0.34178,0.17465,-0.00025332,0.82,0.82,0
0.13153,-0.0059862,0.1535,-0.45791,-0.28612,-0.26158,0.0033624,0,0,-1.0209,-0.12759,0,0.034969,0,0,0.3214,-0.016046,0,0.32181,-0.28605,-0.45797,-0.26158,88.879,-0.3352,0.18537,-0.000308,0.84,0.82,0
0.11058,-0.0056702,0.12767,-0.45881,-0.27546,-0.2522,0.0034703,0,0,-1.0744,-0.12096,0,0.036091,0,0,0.3246,-0.016432,0,0.32503,-0.27539,-0.45887,-0.2522,88.916,-0.32882,0.19611,-0.00036916,0.86,0.82,0
0.088554,-0.005426,0.10156,-0.45977,-0.2652,-0.24288,0.0033033,0,0,-1.1278,-0.11604,0,0.034355,0,0,0.32836,-0.016184,0,0.32876,-0.26514,-0.45983,-0.24288,89.028,-0.32262,0.20672,-0.00043599,0.88,0.82,0
0.065465,-0.0052399,0.075133,-0.46066,-0.25534,-0.23358,0.0029109,0,0,-1.1808,-0.11313,0,0.030274,0,0,0.33247,-0.014954,0,0.33281,-0.2553,-0.4607,-0.23358,89.188,-0.31653,0.21707,-0.00050767,0.9,0.82,0
0.041323,-0.005079,0.048368,-0.4613,-0.24572,-0.2242,0.0023413,0,0,-1.2329,-0.1119,0,0.024349,0,0,0.33655,-0.012424,0,0.33678,-0.24569,-0.46133,-0.2242,89.378,-0.31041,0.22715,-0.00058379,0.92,0.82,0
0.016147,-0.0049038,0.021286,-0.46053,-0.2931,-0.23939,0.00060314,0,0,-0.75953,-0.11171,0,0.0073191,0,0,0.34238,-0.021078,0,0.34328,-0.2931,-0.46054,-0.23939,-0.12422,-0.33101,0.20303,-0.00034455,0.94,0.82,0
0.010942,-0.0050493,0.014361,-0.46064,-0.3488,-0.25719,-0.0022353,0,0,-0.26448,-0.11909,0,-0.0058118,0,0,0.35124,-0.026351,0,0.35224,-0.34876,-0.46068,-0.25719,-88.855,-0.35554,0.17652,-4.8668e-05,0.96,0.82,0
0.0055678,-0.0052512,0.0072363,-0.4595,-0.34666,-0.24909,-0.002397,0,0,-0.27354,-0.12685,0,-0.0062321,0,0,0.35903,-0.014456,0,0.35929,-0.34661,-0.45955,-0.24909,-88.784,-0.35175,0.18243,-3.9429e-05,0.98,0.82,0
0,-0.0053375,0,-0.44971,-0.33552,-0.23557,-0.0016588,0,0,-0.27839,-0.12993,0,-0.004313,0,0,0.36182,-1.1276e-17,0,0.36177,-0.33549,-0.44974,-0.23557,-89.168,-0.34027,0.18561,-3.7943e-05,1,0.82,0
0,-0.026544,1,-0.77368,-1.7751,-1.7646,-0.034593,0,0,1.2882,-0.013602,0,-0.089941,0,0,0.59968,-1.6827e-15,0,0.59914,-0.77249,-1.7763,-1.7646,-1.9761,-1.4378,0.99802,0.051033,0,0.84,0
0.025765,-0.028343,0.98801,-0.75248,-1.7476,-1.738,-0.076183,0,0,1.2812,-0.012426,0,-0.19808,0,0,0.61189,0.061745,0,0.61445,-0.74668,-1.7534,-1.738,-4.3526,-1.4127,0.99911,0.051182,0.02,0.84,0
0.051248,-0.034749,0.97552,-0.78147,-1.7442,-1.7332,-0.18114,0,0,1.2373,-0.014218,0,-0.47097,0,0,0.66184,0.13111,0,0.67463,-0.74852,-1.7771,-1.7332,-10.311,-1.4196,1.0074,0.052166,0.04,0.84,0
0.075255,-0.047893,0.96153,-0.82821,-1.5723,-1.6817,-0.30309,0,0,1.1095,0.14223,0,-0.78803,0,0,0.73313,0.18917,0,0.75962,-0.72037,-1.6801,-1.6817,-19.585,-1.3607,0.96052,0.045513,0.06,0.84,0
0.095629,-0.066899,0.9462,-0.78739,-1.0188,-1.4881,-0.26212,0,0,0.91086,0.61004,0,-0.68152,0,0,0.7905,0.090484,0,0.79477,-0.61656,-1.1896,-1.4881,-33.092,-1.0981,0.76712,0.011918,0.08,0.84,0
0.11169,-0.081861,0.92991,-0.8519,-0.96103,-1.4738,-0.16403,0,0,0.80845,0.6666,0,-0.42648,0,0,0.81208,0.054773,0,0.81384,-0.7336,-1.0793,-1.4738,-35.801,-1.0956,0.64149,-0.0015418,0.1,0.84,0
0.12797,-0.091135,0.91372,-0.79788,-0.90583,-1.4248,-0.095656,0,0,0.81503,0.6747,0,-0.24871,0,0,0.80849,0.033916,0,0.80917,-0.74202,-0.96169,-1.4248,-30.283,-1.0429,0.60373,-0.0064662,0.12,0.84,0
0.14429,-0.09712,0.89757,-0.76506,-0.87572,-1.3898,-0.061357,0,0,0.81217,0.66832,0,-0.15953,0,0,0.80566,0.019499,0,0.80588,-0.73777,-0.90301,-1.3898,-23.98,-1.0102,0.58712,-0.0076858,0.14,0.84,0
0.16045,-0.10067,0.88149,-0.74602,-0.85537,-1.3619,-0.040286,0,0,0.80065,0.65849,0,-0.10475,0,0,0.80278,0.0083582,0,0.80282,-0.73278,-0.86861,-1.3619,-18.192,-0.98777,0.57341,-0.0078817,0.16,0.84,0
0.17632,-0.10235,0.86546,-0.73513,-0.83986,-1.338,-0.026374,0,0,0.78368,0.64752,0,-0.068573,0,0,0.79991,-0.00098273,0,0.7999,-0.72886,-0.84613,-1.338,-13.366,-0.97099,0.55975,-0.0076919,0.18,0.84,0
0.1918,-0.10243,0.84949,-0.72901,-0.8271,-1.3163,-0.015806,0,0,0.76351,0.63599,0,-0.041096,0,0,0.7969,-0.0093997,0,0.79695,-0.72652,-0.82958,-1.3163,-8.9313,-0.95748,0.54562,-0.0073493,0.2,0.84,0
0.20686,-0.10104,0.83359,-0.72621,-0.81654,-1.2964,-0.0060696,0,0,0.74126,0.62384,0,-0.015781,0,0,0.79364,-0.017558,0,0.79383,-0.7258,-0.81694,-1.2964,-3.827,-0.94638,0.53094,-0.0069296,0.22,0.84,0
0.22145,-0.098165,0.81775,-0.72672,-0.80859,-1.2783,0.0052219,0,0,0.71711,0.61067,0,0.013577,0,0,0.78999,-0.026127,0,0.79041,-0.72639,-0.80893,-1.2783,3.6346,-0.93788,0.51566,-0.0064384,0.24,0.84,0
0.23554,-0.09363,0.80199,-0.73224,-0.80501,-1.2632,0.021387,0,0,0.6902,0.59559,0,0.055606,0,0,0.78578,-0.036013,0,0.7866,-0.72642,-0.81083,-1.2632,15.223,-0.93347,0.49991,-0.0058046,0.26,0.84,0
0.24906,-0.08703,0.78632,-0.7463,-0.80979,-1.2531,0.047497,0,0,0.65889,0.57636,0,0.12349,0,0,0.78073,-0.048795,0,0.78223,-0.72092,-0.83517,-1.2531,28.122,-0.93641,0.48529,-0.004791,0.28,0.84,0
0.2619,-0.077698,0.77076,-0.7742,-0.83527,-1.2536,0.10061,0,0,0.62322,0.54383,0,0.26158,0,0,0.77567,-0.067963,0,0.77857,-0.6996,-0.90987,-1.2536,36.559,-0.95436,0.4844,-0.0023513,0.3,0.84,0
0.27399,-0.063702,0.75529,-0.70113,-0.8619,-1.2242,0.17721,0,0,0.67998,0.47099,0,0.46075,0,0,0.74406,-0.10296,0,0.75011,-0.58693,-0.97611,-1.2242,32.801,-0.92908,0.55638,0.0032926,0.32,0.84,0
0.2891,-0.046388,0.74099,-0.71285,-1.2913,-1.3422,0.20908,0,0,0.81822,0.0662,0,0.54362,0,0,0.67154,-0.20799,0,0.70648,-0.64519,-1.359,-1.3422,17.931,-1.1155,0.70557,0.018006,0.34,0.84,0
0.30672,-0.033612,0.72843,-0.65018,-1.4004,-1.3436,0.1123,0,0,0.90146,-0.073866,0,0.29198,0,0,0.57563,-0.16726,0,0.60075,-0.63373,-1.4169,-1.3436,8.3329,-1.1314,0.74921,0.020904,0.36,0.84,0
0.32516,-0.025806,0.71797,-0.60208,-1.3627,-1.3074,0.038232,0,0,0.91692,-0.071874,0,0.099403,0,0,0.4894,-0.11558,0,0.5034,-0.60016,-1.3646,-1.3074,2.8703,-1.0907,0.7375,0.020185,0.38,0.84,0
0.34339,-0.020734,0.70885,-0.58479,-1.3293,-1.2831,-0.0008128,0,0,0.90776,-0.060054,0,-0.0021133,0,0,0.42903,-0.08092,0,0.43723,-0.58479,-1.3293,-1.2831,-0.062554,-1.0657,0.72249,0.019102,0.4,0.84,0
0.36147,-0.016921,0.70081,-0.54254,-0.87871,-0.86438,-0.018261,0,0,0.31813,-0.029801,0,-0.13652,0,0,0.38628,-0.039191,0,0.38924,-0.51484,-0.90641,-0.86438,-34.299,-0.76188,0.38502,0.0090448,0.42,0.84,0
0.35612,-0.017145,0.67117,-0.52209,-0.49071,-0.47163,-0.022577,0,0,-0.26238,-0.099185,0,-0.2348,0,0,0.36477,-0.0075794,0,0.36488,-0.47891,-0.53389,-0.47163,-62.401,-0.49481,0.058962,-9.9902e-06,0.44,0.84,0
0.35097,-0.017549,0.64245,-0.51027,-0.48903,-0.4604,-0.021521,0,0,-0.25931,-0.14889,0,-0.22382,0,0,0.35415,-0.0029187,0,0.3542,-0.47565,-0.52365,-0.4604,-58.129,-0.48657,0.057168,-7.3427e-06,0.46,0.84,0
0.34575,-0.01782,0.61451,-0.50063,-0.48375,-0.44894,-0.019327,0,0,-0.26879,-0.181,0,-0.201,0,0,0.34505,-0.00087032,0,0.34508,-0.4711,-0.51328,-0.44894,-56.797,-0.47777,0.056611,-4.7374e-06,0.48,0.84,0
0.34022,-0.01787,0.58724,-0.49287,-0.47601,-0.43747,-0.016997,0,0,-0.28805,-0.2004,0,-0.17677,0,0,0.33754,-0.00053595,0,0.33756,-0.46547,-0.50341,-0.43747,-58.187,-0.46878,0.057321,-2.4934e-06,0.5,0.84,0
0.33422,-0.017714,0.5605,-0.48653,-0.46681,-0.42613,-0.014915,0,0,-0.3141,-0.21154,0,-0.15512,0,0,0.33154,-0.0011594,0,0.33155,-0.45879,-0.49455,-0.42613,-61.737,-0.45982,0.059276,-8.3828e-07,0.52,0.84,0
0.32765,-0.017403,0.53419,-0.48123,-0.45672,-0.41493,-0.013149,0,0,-0.34473,-0.2173,0,-0.13675,0,0,0.32682,-0.0022219,0,0.32684,-0.451,-0.48695,-0.41493,-66.49,-0.45096,0.062366,3.6227e-08,0.54,0.84,0
0.32044,-0.016984,0.50821,-0.47669,-0.44609,-0.40389,-0.011651,0,0,-0.37858,-0.21946,0,-0.12117,0,0,0.32315,-0.0034239,0,0.32317,-0.44216,-0.48062,-0.40389,-71.355,-0.44222,0.066454,-6.4376e-08,0.56,0.84,0
0.31251,-0.016495,0.48249,-0.47276,-0.43512,-0.39299,-0.010346,0,0,-0.41482,-0.21911,0,-0.1076,0,0,0.32028,-0.0046135,0,0.32032,-0.43247,-0.47542,-0.39299,-75.599,-0.43362,0.071406,-1.3611e-06,0.58,0.84,0
0.30384,-0.015962,0.45697,-0.46932,-0.42394,-0.38222,-0.0091626,0,0,-0.45292,-0.21695,0,-0.095291,0,0,0.31804,-0.0057266,0,0.3181,-0.42216,-0.4711,-0.38222,-79.005,-0.42516,0.077104,-4.1022e-06,0.6,0.84,0
0.2944,-0.015401,0.4316,-0.4663,-0.41262,-0.37157,-0.0080419,0,0,-0.49255,-0.21343,0,-0.083635,0,0,0.3163,-0.0067483,0,0.31637,-0.41144,-0.46747,-0.37157,-81.66,-0.41683,0.083444,-8.5645e-06,0.62,0.84,0
0.28414,-0.01482,0.40636,-0.46364,-0.40121,-0.36104,-0.0069374,0,0,-0.53349,-0.20886,0,-0.072149,0,0,0.31496,-0.0076906,0,0.31505,-0.40045,-0.4644,-0.36104,-83.735,-0.40863,0.090346,-1.5055e-05,0.64,0.84,0
0.27305,-0.014224,0.38121,-0.46131,-0.38975,-0.35062,-0.005816,0,0,-0.5756,-0.20346,0,-0.060486,0,0,0.31395,-0.0085797,0,0.31407,-0.38928,-0.46178,-0.35062,-85.384,-0.40056,0.097745,-2.3917e-05,0.66,0.84,0
0.26112,-0.013613,0.35613,-0.4593,-0.37825,-0.3403,-0.0046553,0,0,-0.61881,-0.19736,0,-0.048415,0,0,0.31325,-0.0094484,0,0.31339,-0.37798,-0.45957,-0.3403,-86.723,-0.39261,0.1056,-3.5535e-05,0.68,0.84,0
0.2483,-0.012988,0.33109,-0.4576,-0.36674,-0.33007,-0.0034433,0,0,-0.66313,-0.19067,0,-0.03581,0,0,0.31283,-0.010333,0,0.313,-0.36661,-0.45773,-0.33007,-87.833,-0.38481,0.11387,-5.0347e-05,0.7,0.84,0
0.23459,-0.012348,0.30607,-0.45622,-0.35523,-0.31995,-0.0021776,0,0,-0.70859,-0.18345,0,-0.022647,0,0,0.31269,-0.011269,0,0.31289,-0.35519,-0.45627,-0.31995,-88.765,-0.37714,0.12256,-6.8867e-05,0.72,0.84,0
0.21996,-0.011695,0.28106,-0.45234,-0.34215,-0.30861,-0.00065007,0,0,-0.7474,-0.17439,0,-0.0067607,0,0,0.3128,-0.012241,0,0.31304,-0.34214,-0.45235,-0.30861,-89.662,-0.3677,0.13025,-8.8627e-05,0.74,0.84,0
0.20438,-0.011033,0.25602,-0.45709,-0.33297,-0.30102,0.00063456,0,0,-0.81154,-0.16613,0,0.0065994,0,0,0.31347,-0.013319,0,0.31376,-0.33297,-0.45709,-0.30102,89.707,-0.36369,0.1428,-0.00012471,0.76,0.84,0
0.18782,-0.01037,0.23092,-0.45129,-0.31912,-0.28885,0.0018969,0,0,-0.84468,-0.15738,0,0.019727,0,0,0.31408,-0.01452,0,0.31442,-0.31909,-0.45132,-0.28885,89.178,-0.35309,0.14966,-0.00014874,0.78,0.84,0
0.17026,-0.009721,0.20573,-0.45733,-0.31019,-0.28169,0.0030224,0,0,-0.91335,-0.14819,0,0.031433,0,0,0.31597,-0.015836,0,0.31636,-0.31013,-0.4574,-0.28169,88.824,-0.34974,0.16336,-0.00020121,0.8,0.84,0
0.15164,-0.0091047,0.18041,-0.45213,-0.29631,-0.26963,0.0040789,0,0,-0.94897,-0.1387,0,0.04242,0,0,0.31732,-0.017218,0,0.31779,-0.2962,-0.45223,-0.26963,88.501,-0.33936,0.17087,-0.0002355,0.82,0.84,0
0.13193,-0.0085474,0.1549,-0.45962,-0.28781,-0.26295,0.0046554,0,0,-1.0227,-0.12926,0,0.048416,0,0,0.32106,-0.018548,0,0.3216,-0.28769,-0.45975,-0.26295,88.449,-0.3368,0.18567,-0.00030914,0.84,0.84,0
0.11111,-0.0080771,0.12913,-0.45497,-0.27421,-0.25104,0.0051145,0,0,-1.0605,-0.1205,0,0.05319,0,0,0.32354,-0.019595,0,0.32413,-0.27406,-0.45512,-0.25104,88.381,-0.32674,0.1936,-0.00035496,0.86,0.84,0
0.089134,-0.0077129,0.10302,-0.4634,-0.26652,-0.24473,0.0048229,0,0,-1.1371,-0.1133,0,0.050158,0,0,0.32975,-0.01997,0,0.33036,-0.2664,-0.46352,-0.24473,88.598,-0.32488,0.2088,-0.00045059,0.88,0.84,0
0.066007,-0.0074497,0.076505,-0.45899,-0.25378,-0.23296,0.0044481,0,0,-1.1754,-0.10826,0,0.04626,0,0,0.33337,-0.019134,0,0.33393,-0.25368,-0.45909,-0.23296,88.759,-0.31524,0.21652,-0.00050525,0.9,0.84,0
0.041736,-0.0072477,0.049528,-0.46723,-0.2468,-0.22659,0.0035583,0,0,-1.2513,-0.10507,0,0.037006,0,0,0.34103,-0.016529,0,0.34144,-0.24674,-0.46729,-0.22659,89.076,-0.31354,0.23128,-0.00061918,0.92,0.84,0
0.016332,-0.0070524,0.022093,-0.46483,-0.29174,-0.24078,-0.00027435,0,0,-0.7676,-0.10386,0,0.0089983,0,0,0.3489,-0.0265,0,0.35016,-0.29169,-0.46488,-0.24078,0.40072,-0.33245,0.20646,-0.00037325,0.94,0.84,0
0.011032,-0.0073951,0.014995,-0.46654,-0.3482,-0.25942,-0.0042828,0,0,-0.26926,-0.11542,0,-0.011135,0,0,0.36529,-0.037341,0,0.36721,-0.34805,-0.4667,-0.25942,-87.93,-0.35805,0.18013,-7.4343e-05,0.96,0.84,0
0.0056041,-0.0077953,0.0075855,-0.46165,-0.34848,-0.25063,-0.004701,0,0,-0.27433,-0.12722,0,-0.012223,0,0,0.37342,-0.020612,0,0.37395,-0.34829,-0.46185,-0.25063,-87.625,-0.35359,0.18309,-4.0944e-05,0.98,0.84,0
0,-0.0079587,0,-0.45281,-0.33809,-0.23727,-0.0031441,0,0,-0.2802,-0.13106,0,-0.0081747,0,0,0.37927,6.9389e-18,0,0.37921,-0.338,-0.45289,-0.23727,-88.431,-0.34272,0.18687,-3.8031e-05,1,0.84,0
0,-0.026338,1,-0.72972,-1.7053,-1.7305,-0.035129,0,0,1.301,0.03278,0,-0.091336,0,0,0.65291,-2.7062e-16,0,0.65265,-0.72846,-1.7066,-1.7305,-2.0596,-1.3885,0.99028,0.049779,0,0.86,0
0.02602,-0.028164,0.98694,-0.71584,-1.6854,-1.7073,-0.058762,0,0,1.2889,0.028446,0,-0.15278,0,0,0.6599,0.046844,0,0.66134,-0.7123,-1.689,-1.7073,-3.4555,-1.3695,0.98599,0.049175,0.02,0.86,0
0.051316,-0.033981,0.97346,-0.76434,-1.6461,-1.6966,-0.17097,0,0,1.2119,0.065614,0,-0.44453,0,0,0.69742,0.088404,0,0.70322,-0.73235,-1.6781,-1.6966,-10.598,-1.369,0.95515,0.044698,0.04,0.86,0
0.075026,-0.044152,0.95928,-0.75024,-1.4641,-1.6236,-0.2232,0,0,1.1354,0.2073,0,-0.58032,0,0,0.72231,0.09826,0,0.7292,-0.6862,-1.5282,-1.6236,-16.009,-1.2793,0.89351,0.035232,0.06,0.86,0
0.095727,-0.057009,0.94431,-0.82161,-1.1826,-1.5456,-0.23922,0,0,0.94114,0.4719,0,-0.62199,0,0,0.76669,0.084043,0,0.77136,-0.70242,-1.3017,-1.5456,-26.484,-1.1832,0.75151,0.014315,0.08,0.86,0
0.11361,-0.068861,0.92879,-0.79751,-0.98547,-1.4637,-0.18628,0,0,0.86603,0.62168,0,-0.48432,0,0,0.78029,0.053518,0,0.78206,-0.68285,-1.1001,-1.4637,-31.614,-1.0822,0.67676,0.0018919,0.1,0.86,0
0.1298,-0.077752,0.91301,-0.8365,-0.94038,-1.4461,-0.10807,0,0,0.79244,0.6574,0,-0.28099,0,0,0.79153,0.034658,0,0.79226,-0.76854,-1.0084,-1.4461,-32.165,-1.0743,0.59505,-0.0051997,0.12,0.86,0
0.14548,-0.083704,0.89716,-0.81661,-0.90227,-1.4128,-0.079221,0,0,0.77508,0.66371,0,-0.20597,0,0,0.79282,0.020888,0,0.79308,-0.76938,-0.9495,-1.4128,-30.8,-1.0439,0.57494,-0.0066289,0.14,0.86,0
0.16081,-0.087399,0.88129,-0.80095,-0.87369,-1.3837,-0.051612,0,0,0.75755,0.663,0,-0.13419,0,0,0.79255,0.010317,0,0.79261,-0.77418,-0.90046,-1.3837,-27.416,-1.0194,0.5572,-0.00737,0.16,0.86,0
0.17578,-0.089262,0.86545,-0.79002,-0.85326,-1.3584,-0.032917,0,0,0.73894,0.65673,0,-0.085584,0,0,0.79109,0.0014267,0,0.79108,-0.776,-0.86729,-1.3584,-23.075,-1.0006,0.54259,-0.0074273,0.18,0.86,0
0.19037,-0.089561,0.84965,-0.7837,-0.83828,-1.3362,-0.018942,0,0,0.71831,0.64735,0,-0.049248,0,0,0.78874,-0.0065092,0,0.78876,-0.77777,-0.84421,-1.3362,-17.382,-0.98608,0.5284,-0.0071748,0.2,0.86,0
0.20452,-0.088415,0.8339,-0.78135,-0.82785,-1.3167,-0.0063746,0,0,0.69591,0.63546,0,-0.016574,0,0,0.78548,-0.014054,0,0.7856,-0.78049,-0.82871,-1.3167,-7.6662,-0.97529,0.51376,-0.0067584,0.22,0.86,0
0.2182,-0.085816,0.81823,-0.78258,-0.82252,-1.2998,0.0079223,0,0,0.67234,0.62041,0,0.020598,0,0,0.78104,-0.021763,0,0.78134,-0.78107,-0.82403,-1.2998,10.82,-0.96829,0.4986,-0.0062071,0.24,0.86,0
0.23141,-0.081613,0.80266,-0.78661,-0.82444,-1.286,0.027619,0,0,0.64918,0.6,0,0.071809,0,0,0.7748,-0.030356,0,0.77539,-0.77205,-0.839,-1.286,27.796,-0.96568,0.48394,-0.0054472,0.26,0.86,0
0.24417,-0.075512,0.78724,-0.79029,-0.83912,-1.2761,0.058419,0,0,0.6315,0.56803,0,0.15189,0,0,0.7654,-0.041007,0,0.7665,-0.75139,-0.87802,-1.2761,33.66,-0.96849,0.47421,-0.0041887,0.28,0.86,0
0.25667,-0.066989,0.77205,-0.76945,-0.87314,-1.2648,0.10242,0,0,0.64399,0.50918,0,0.2663,0,0,0.74759,-0.055866,0,0.74967,-0.70649,-0.93609,-1.2648,31.575,-0.96914,0.48606,-0.0017793,0.3,0.86,0
0.26993,-0.056027,0.75734,-0.73064,-0.99259,-1.2743,0.14623,0,0,0.70677,0.36623,0,0.38019,0,0,0.71424,-0.079775,0,0.71898,-0.66531,-1.0579,-1.2743,24.074,-0.99918,0.53472,0.0037415,0.32,0.86,0
0.28494,-0.044143,0.74348,-0.69584,-1.1989,-1.3119,0.13225,0,0,0.80089,0.14687,0,0.34384,0,0,0.66154,-0.091441,0,0.66861,-0.66319,-1.2316,-1.3119,13.866,-1.0689,0.61251,0.011121,0.34,0.86,0
0.30196,-0.034119,0.73087,-0.64156,-1.3029,-1.3142,0.071149,0,0,0.87444,0.01472,0,0.18499,0,0,0.59456,-0.083148,0,0.60154,-0.63399,-1.3104,-1.3142,6.0717,-1.0862,0.67834,0.01603,0.36,0.86,0
0.31992,-0.026926,0.71969,-0.60201,-1.3219,-1.2969,0.01155,0,0,0.90333,-0.032576,0,0.030029,0,0,0.52317,-0.051406,0,0.52669,-0.60182,-1.3221,-1.2969,0.91886,-1.0736,0.70801,0.01815,0.38,0.86,0
0.3381,-0.0217,0.70995,-0.57848,-1.3056,-1.2752,-0.022017,0,0,0.90571,-0.039587,0,-0.057243,0,0,0.45334,-0.021167,0,0.45498,-0.57781,-1.3063,-1.2752,-1.7327,-1.0531,0.71344,0.018531,0.4,0.86,0
0.35614,-0.017416,0.70156,-0.5402,-0.87358,-0.86261,-0.034877,0,0,0.32292,-0.022821,0,-0.23575,0,0,0.39867,-0.0025559,0,0.39936,-0.50648,-0.90729,-0.86261,-31.592,-0.75879,0.39265,0.0089788,0.42,0.86,0
0.35101,-0.019177,0.67132,-0.51975,-0.49212,-0.47139,-0.034736,0,0,-0.25145,-0.10778,0,-0.36125,0,0,0.37298,0.0032066,0,0.37306,-0.46855,-0.54331,-0.47139,-55.844,-0.49442,0.073385,-2.0196e-05,0.44,0.86,0
0.34619,-0.020646,0.64228,-0.50534,-0.48851,-0.45873,-0.028748,0,0,-0.24241,-0.15487,0,-0.29898,0,0,0.35673,0.0020722,0,0.35673,-0.46697,-0.52688,-0.45873,-53.16,-0.48419,0.06443,-1.2982e-05,0.46,0.86,0
0.34132,-0.021574,0.61425,-0.49572,-0.48338,-0.44729,-0.02455,0,0,-0.25181,-0.18768,0,-0.25532,0,0,0.34541,0.0032799,0,0.34542,-0.46424,-0.51486,-0.44729,-52.05,-0.47546,0.060893,-8.64e-06,0.48,0.86,0
0.33612,-0.022,0.58701,-0.48833,-0.47568,-0.43596,-0.02087,0,0,-0.27236,-0.20654,0,-0.21705,0,0,0.33662,0.0027838,0,0.33663,-0.4602,-0.50381,-0.43596,-53.435,-0.46665,0.059559,-5.1088e-06,0.5,0.86,0
0.33042,-0.022052,0.56039,-0.48238,-0.46646,-0.42475,-0.017896,0,0,-0.29967,-0.21691,0,-0.18612,0,0,0.33004,0.0014395,0,0.33005,-0.45483,-0.49401,-0.42475,-56.988,-0.45786,0.06015,-2.5132e-06,0.52,0.86,0
0.32413,-0.021842,0.53421,-0.47993,-0.45871,-0.41514,-0.01674,0,0,-0.33689,-0.22653,0,-0.1741,0,0,0.32449,0.0011348,0,0.3245,-0.4495,-0.48914,-0.41514,-61.185,-0.45126,0.064136,-1.6707e-06,0.54,0.86,0
0.31717,-0.021456,0.50836,-0.47168,-0.44621,-0.40246,-0.014901,0,0,-0.35996,-0.22752,0,-0.15497,0,0,0.32208,-0.0008454,0,0.32208,-0.43934,-0.47855,-0.40246,-65.259,-0.44012,0.065906,-7.7455e-07,0.56,0.86,0
0.30949,-0.020952,0.48276,-0.46938,-0.4348,-0.39194,-0.011907,0,0,-0.40268,-0.22285,0,-0.12383,0,0,0.31883,-0.003382,0,0.31884,-0.4311,-0.47308,-0.39194,-72.724,-0.43204,0.070284,-1.0787e-06,0.58,0.86,0
0.30106,-0.020371,0.45735,-0.46872,-0.42566,-0.38265,-0.011453,0,0,-0.44756,-0.22364,0,-0.11911,0,0,0.31643,-0.0041708,0,0.31646,-0.4228,-0.47157,-0.38265,-75.995,-0.42567,0.077132,-3.9358e-06,0.6,0.86,0
0.29185,-0.019737,0.43208,-0.46375,-0.41387,-0.37131,-0.010544,0,0,-0.48071,-0.22135,0,-0.10966,0,0,0.31512,-0.0053079,0,0.31517,-0.41174,-0.46589,-0.37131,-78.541,-0.41631,0.082197,-7.0766e-06,0.62,0.86,0
0.28183,-0.019065,0.40693,-0.46108,-0.40246,-0.36079,-0.0091229,0,0,-0.52147,-0.21666,0,-0.094878,0,0,0.31388,-0.0065839,0,0.31395,-0.40107,-0.46246,-0.36079,-81.355,-0.40811,0.08868,-1.255e-05,0.64,0.86,0
0.27099,-0.018362,0.38186,-0.45869,-0.39102,-0.35038,-0.007707,0,0,-0.56323,-0.21133,0,-0.080153,0,0,0.31293,-0.0077575,0,0.31302,-0.39015,-0.45956,-0.35038,-83.584,-0.40003,0.095706,-2.0242e-05,0.66,0.86,0
0.25931,-0.017632,0.35686,-0.45659,-0.37957,-0.34006,-0.0062597,0,0,-0.60593,-0.20545,0,-0.065101,0,0,0.31223,-0.0088841,0,0.31236,-0.37907,-0.45709,-0.34006,-85.383,-0.39208,0.10321,-3.0498e-05,0.68,0.86,0
0.24676,-0.016875,0.3319,-0.45477,-0.36813,-0.32985,-0.0047549,0,0,-0.6496,-0.19909,0,-0.049451,0,0,0.31178,-0.010018,0,0.31194,-0.36787,-0.45503,-0.32985,-86.868,-0.38425,0.11116,-4.3725e-05,0.7,0.86,0
0.23332,-0.016094,0.30697,-0.45325,-0.3567,-0.31973,-0.0031754,0,0,-0.69432,-0.19224,0,-0.033024,0,0,0.31156,-0.011215,0,0.31176,-0.35659,-0.45335,-0.31973,-88.118,-0.37656,0.11954,-6.0418e-05,0.72,0.86,0
0.21898,-0.015288,0.28205,-0.44971,-0.34473,-0.30884,-0.0017755,0,0,-0.73248,-0.18661,0,-0.018465,0,0,0.31157,-0.012554,0,0.31183,-0.3447,-0.44973,-0.30884,-89.031,-0.36776,0.12682,-7.722e-05,0.74,0.86,0
0.20371,-0.014462,0.25712,-0.45425,-0.3356,-0.30123,5.1369e-05,0,0,-0.79567,-0.17871,0,0.00053423,0,0,0.31204,-0.014089,0,0.31236,-0.3356,-0.45425,-0.30123,89.975,-0.36369,0.13905,-0.00011017,0.76,0.86,0
0.18748,-0.013622,0.23214,-0.44843,-0.32181,-0.28911,0.0019085,0,0,-0.82848,-0.17004,0,0.019848,0,0,0.31253,-0.015857,0,0.31293,-0.32178,-0.44846,-0.28911,89.137,-0.35311,0.14579,-0.0001326,0.78,0.86,0
0.17024,-0.01278,0.20709,-0.45449,-0.3128,-0.28196,0.0037896,0,0,-0.89715,-0.16037,0,0.039412,0,0,0.31418,-0.017903,0,0.31469,-0.3127,-0.45459,-0.28196,88.469,-0.34975,0.1595,-0.00018258,0.8,0.86,0
0.15194,-0.011956,0.18191,-0.44936,-0.29862,-0.26987,0.0056713,0,0,-0.93335,-0.14947,0,0.058981,0,0,0.31547,-0.020249,0,0.31612,-0.2984,-0.44958,-0.26987,87.849,-0.33928,0.16727,-0.000217,0.82,0.86,0
0.13253,-0.01118,0.15655,-0.45755,-0.2897,-0.26332,0.0071748,0,0,-1.01,-0.13722,0,0.074618,0,0,0.31929,-0.022853,0,0.3201,-0.2894,-0.45786,-0.26332,87.557,-0.33686,0.1829,-0.00029284,0.84,0.86,0
0.11194,-0.010493,0.13092,-0.45324,-0.27504,-0.25122,0.0085311,0,0,-1.0506,-0.1239,0,0.088723,0,0,0.32204,-0.025531,0,0.32305,-0.27464,-0.45365,-0.25122,87.265,-0.3265,0.1918,-0.00034424,0.86,0.86,0
0.090094,-0.009937,0.1049,-0.46342,-0.26644,-0.24518,0.0088434,0,0,-1.1348,-0.11054,0,0.091971,0,0,0.32961,-0.027799,0,0.33079,-0.26604,-0.46382,-0.24518,87.435,-0.32502,0.20899,-0.00045309,0.88,0.86,0
0.066969,-0.0095255,0.078354,-0.45974,-0.25228,-0.23319,0.0087955,0,0,-1.178,-0.099249,0,0.091473,0,0,0.33443,-0.028636,0,0.33568,-0.25191,-0.46011,-0.23319,87.577,-0.31507,0.21816,-0.00052007,0.9,0.86,0
0.042537,-0.0092147,0.051174,-0.47075,-0.24464,-0.22741,0.0077797,0,0,-1.2654,-0.089585,0,0.080909,0,0,0.34544,-0.026664,0,0.34649,-0.24437,-0.47101,-0.22741,88.032,-0.31426,0.23558,-0.0006598,0.92,0.86,0
0.016792,-0.0089149,0.023311,-0.46346,-0.26987,-0.23457,0.0061461,0,0,-0.78028,-0.07671,0,0.036089,0,0,0.35774,-0.056519,0,0.36386,-0.26965,-0.46368,-0.23457,88.052,-0.32264,0.21475,-0.00047758,0.94,0.86,0
0.011326,-0.0096287,0.015967,-0.47359,-0.34263,-0.26083,-0.0010836,0,0,-0.27658,-0.10634,0,-0.0028174,0,0,0.38384,-0.066632,0,0.38968,-0.34262,-0.47359,-0.26083,-89.526,-0.35901,0.18589,-0.00012789,0.96,0.86,0
0.0057618,-0.01034,0.0081239,-0.47105,-0.35021,-0.2545,-0.0035751,0,0,-0.28151,-0.12443,0,-0.0092953,0,0,0.39684,-0.03694,0,0.39838,-0.35011,-0.47115,-0.2545,-88.307,-0.35859,0.18805,-6.8874e-05,0.98,0.86,0
0,-0.010612,0,-0.46193,-0.33915,-0.24033,-0.0052304,0,0,-0.28809,-0.12847,0,-0.013599,0,0,0.40619,-1.3878e-17,0,0.40584,-0.33893,-0.46216,-0.24033,-87.565,-0.34714,0.19251,-6.9924e-05,1,0.86,0
0,-0.025233,1,-0.71486,-1.644,-1.7077,-0.030413,0,0,1.2906,0.082756,0,-0.079074,0,0,0.68699,6.0195e-16,0,0.68689,-0.71386,-1.645,-1.7077,-1.8728,-1.3555,0.96399,0.045354,0,0.88,0
0.025813,-0.026814,0.98626,-0.68796,-1.5861,-1.6685,-0.058116,0,0,1.2747,0.10708,0,-0.1511,0,0,0.691,0.025169,0,0.69141,-0.68422,-1.5898,-1.6685,-3.6869,-1.3142,0.9474,0.042661,0.02,0.88,0
0.050668,-0.031579,0.97228,-0.73891,-1.5278,-1.6523,-0.14499,0,0,1.1874,0.16181,0,-0.37698,0,0,0.71269,0.044094,0,0.71411,-0.71311,-1.5536,-1.6523,-10.091,-1.3063,0.89395,0.035189,0.04,0.88,0
0.073862,-0.039197,0.95789,-0.72885,-1.3838,-1.5917,-0.18219,0,0,1.1217,0.27028,0,-0.47368,0,0,0.72707,0.052601,0,0.72907,-0.68158,-1.431,-1.5917,-14.545,-1.2348,0.84135,0.026869,0.06,0.88,0
0.094773,-0.048476,0.94305,-0.81883,-1.2447,-1.5621,-0.20006,0,0,0.96624,0.41267,0,-0.52017,0,0,0.75492,0.049958,0,0.75661,-0.73959,-1.3239,-1.5621,-21.609,-1.2085,0.73303,0.013264,0.08,0.88,0
0.11331,-0.057559,0.92782,-0.80459,-1.0848,-1.4946,-0.18021,0,0,0.89705,0.53281,0,-0.46855,0,0,0.76544,0.040658,0,0.76653,-0.71642,-1.1729,-1.4946,-26.07,-1.128,0.67731,0.0047022,0.1,0.88,0
0.13006,-0.065075,0.91234,-0.85384,-1.0036,-1.4696,-0.1258,0,0,0.80047,0.60574,0,-0.32708,0,0,0.77816,0.029419,0,0.77871,-0.78233,-1.0751,-1.4696,-29.616,-1.109,0.59735,-0.002767,0.12,0.88,0
0.1457,-0.070571,0.89674,-0.84078,-0.93293,-1.4288,-0.090082,0,0,0.76449,0.6447,0,-0.23421,0,0,0.78172,0.01971,0,0.78195,-0.78567,-0.98803,-1.4288,-31.456,-1.0675,0.56963,-0.0056125,0.14,0.88,0
0.16064,-0.074153,0.88108,-0.83587,-0.89525,-1.4004,-0.06032,0,0,0.73391,0.65671,0,-0.15683,0,0,0.78332,0.010707,0,0.78339,-0.79833,-0.93279,-1.4004,-31.896,-1.0438,0.54738,-0.0067408,0.16,0.88,0
0.17505,-0.076076,0.8654,-0.83027,-0.86928,-1.3753,-0.03851,0,0,0.7085,0.65779,0,-0.10013,0,0,0.78308,0.0029295,0,0.78308,-0.80661,-0.89294,-1.3753,-31.57,-1.0249,0.53079,-0.0070004,0.18,0.88,0
0.18898,-0.076531,0.84975,-0.82627,-0.85154,-1.3531,-0.02149,0,0,0.68487,0.65202,0,-0.055873,0,0,0.78142,-0.0040059,0,0.78143,-0.81398,-0.86384,-1.3531,-29.772,-1.0103,0.516,-0.0068346,0.2,0.88,0
0.20245,-0.07562,0.83415,-0.82432,-0.84094,-1.3337,-0.0062408,0,0,0.66222,0.64063,0,-0.016226,0,0,0.77839,-0.01043,0,0.77846,-0.82224,-0.84302,-1.3337,-18.46,-0.99966,0.50142,-0.0064373,0.22,0.88,0
0.21547,-0.073348,0.81862,-0.82365,-0.83801,-1.3171,0.01014,0,0,0.64151,0.62284,0,0.026364,0,0,0.77369,-0.01664,0,0.77387,-0.81841,-0.84325,-1.3171,27.349,-0.99292,0.48676,-0.0058714,0.24,0.88,0
0.22811,-0.06963,0.8032,-0.82191,-0.8454,-1.3034,0.030498,0,0,0.62593,0.59539,0,0.079295,0,0,0.76654,-0.02293,0,0.76689,-0.80097,-0.86633,-1.3034,34.468,-0.99023,0.47314,-0.0050916,0.26,0.88,0
0.24051,-0.064309,0.78796,-0.81221,-0.86825,-1.2921,0.056178,0,0,0.62385,0.551,0,0.14606,0,0,0.75522,-0.029573,0,0.75582,-0.77745,-0.90301,-1.2921,31.745,-0.99085,0.46476,-0.0039154,0.28,0.88,0
0.25306,-0.05733,0.77299,-0.78979,-0.92254,-1.2867,0.083384,0,0,0.64597,0.47339,0,0.2168,0,0,0.73691,-0.036557,0,0.73788,-0.74959,-0.96274,-1.2867,25.739,-0.99967,0.46843,-0.001838,0.3,0.88,0
0.26635,-0.049053,0.75848,-0.75478,-1.0199,-1.2909,0.095386,0,0,0.69694,0.35226,0,0.24801,0,0,0.70848,-0.040301,0,0.70982,-0.72403,-1.0507,-1.2909,17.868,-1.0219,0.49281,0.0016003,0.32,0.88,0
0.28094,-0.040513,0.74465,-0.71346,-1.1409,-1.301,0.076078,0,0,0.76375,0.20809,0,0.1978,0,0,0.66816,-0.035129,0,0.66947,-0.70032,-1.154,-1.301,9.7974,-1.0518,0.54231,0.0062092,0.34,0.88,0
0.2969,-0.033023,0.73175,-0.666,-1.2299,-1.3005,0.028553,0,0,0.82489,0.09179,0,0.074238,0,0,0.61566,-0.014973,0,0.61642,-0.66455,-1.2314,-1.3005,2.8912,-1.0655,0.60437,0.010839,0.36,0.88,0
0.31394,-0.027109,0.72003,-0.62273,-1.277,-1.2899,-0.020199,0,0,0.86737,0.016858,0,-0.052518,0,0,0.55138,0.018595,0,0.55264,-0.62211,-1.2776,-1.2899,-1.7667,-1.0632,0.66174,0.014866,0.38,0.88,0
0.33159,-0.022317,0.7097,-0.59007,-1.2916,-1.2742,-0.047511,0,0,0.88936,-0.0226,0,-0.12353,0,0,0.47634,0.053204,0,0.48091,-0.58687,-1.2948,-1.2742,-3.857,-1.0519,0.69785,0.017403,0.4,0.88,0
0.34951,-0.017834,0.70097,-0.54193,-0.87303,-0.8626,-0.05474,0,0,0.32361,-0.021705,0,-0.35117,0,0,0.41013,0.045976,0,0.41453,-0.4999,-0.91506,-0.8626,-30.294,-0.75919,0.40391,0.0089264,0.42,0.88,0
0.34454,-0.02158,0.67026,-0.52032,-0.50248,-0.47441,-0.052041,0,0,-0.23878,-0.14599,0,-0.54122,0,0,0.37748,0.02686,0,0.37856,-0.4586,-0.5642,-0.47441,-49.864,-0.49907,0.098652,-4.5075e-05,0.44,0.88,0
0.34016,-0.024238,0.64109,-0.5061,-0.50568,-0.46381,-0.04581,0,0,-0.21992,-0.21772,0,-0.47642,0,0,0.35665,0.030823,0,0.35797,-0.46008,-0.5517,-0.46381,-45.132,-0.49186,0.089814,-3.6994e-05,0.46,0.88,0
0.33574,-0.025778,0.61319,-0.49558,-0.49818,-0.45143,-0.03825,0,0,-0.2296,-0.24312,0,-0.3978,0,0,0.34306,0.024155,0,0.3439,-0.45861,-0.53515,-0.45143,-44.027,-0.48173,0.080376,-2.5952e-05,0.48,0.88,0
0.33098,-0.026517,0.5862,-0.48748,-0.48767,-0.4391,-0.032252,0,0,-0.25159,-0.25259,0,-0.33542,0,0,0.33344,0.017516,0,0.33389,-0.45532,-0.51983,-0.4391,-44.914,-0.47142,0.073965,-1.7458e-05,0.5,0.88,0
0.32568,-0.026714,0.55984,-0.48114,-0.47626,-0.42718,-0.027522,0,0,-0.2806,-0.25521,0,-0.28623,0,0,0.32688,0.011904,0,0.32709,-0.45107,-0.50633,-0.42718,-47.535,-0.46153,0.070318,-1.1158e-05,0.52,0.88,0
0.31975,-0.026556,0.5339,-0.47699,-0.46319,-0.41553,-0.022273,0,0,-0.3196,-0.24782,0,-0.23164,0,0,0.32171,0.0061837,0,0.32177,-0.44677,-0.49341,-0.41553,-53.609,-0.4519,0.067882,-5.3718e-06,0.54,0.88,0
0.31313,-0.026163,0.50827,-0.46871,-0.44987,-0.40264,-0.01977,0,0,-0.34356,-0.24558,0,-0.20561,0,0,0.31956,0.0028934,0,0.31958,-0.43739,-0.48119,-0.40264,-57.74,-0.4404,0.068175,-3.2221e-06,0.56,0.88,0
0.30576,-0.025618,0.48285,-0.46773,-0.44062,-0.39322,-0.018451,0,0,-0.38748,-0.24651,0,-0.19189,0,0,0.31675,0.00086645,0,0.31675,-0.43128,-0.47707,-0.39322,-63.151,-0.43386,0.072723,-3.1344e-06,0.58,0.88,0
0.29763,-0.024972,0.45759,-0.46605,-0.42852,-0.38277,-0.015265,0,0,-0.43307,-0.23791,0,-0.15875,0,0,0.31471,-0.0019838,0,0.31472,-0.42309,-0.47147,-0.38277,-70.437,-0.42578,0.076927,-3.6581e-06,0.6,0.88,0
0.2887,-0.024255,0.43245,-0.46063,-0.41542,-0.37093,-0.013022,0,0,-0.46643,-0.23138,0,-0.13542,0,0,0.31359,-0.0040256,0,0.31362,-0.41194,-0.46411,-0.37093,-75.026,-0.41566,0.08089,-5.5874e-06,0.62,0.88,0
0.27897,-0.023487,0.40741,-0.45797,-0.40397,-0.36043,-0.011335,0,0,-0.50717,-0.22639,0,-0.11789,0,0,0.31251,-0.0055793,0,0.31256,-0.40169,-0.46025,-0.36043,-78.612,-0.40746,0.086874,-9.9304e-06,0.64,0.88,0
0.26842,-0.022677,0.38245,-0.45554,-0.39255,-0.35004,-0.0096731,0,0,-0.54861,-0.22104,0,-0.1006,0,0,0.31165,-0.0069821,0,0.31173,-0.39109,-0.45699,-0.35004,-81.464,-0.39937,0.093453,-1.6319e-05,0.66,0.88,0
0.25703,-0.021832,0.35755,-0.45333,-0.38115,-0.33973,-0.0079846,0,0,-0.59073,-0.21538,0,-0.08304,0,0,0.31099,-0.0083119,0,0.3111,-0.38028,-0.45421,-0.33973,-83.762,-0.39141,0.10053,-2.5034e-05,0.68,0.88,0
0.24479,-0.020951,0.33269,-0.45136,-0.36979,-0.32952,-0.0062287,0,0,-0.63356,-0.20943,0,-0.064779,0,0,0.3105,-0.009642,0,0.31065,-0.36932,-0.45183,-0.32952,-85.658,-0.38355,0.10806,-3.6417e-05,0.7,0.88,0
0.23168,-0.020037,0.30787,-0.44963,-0.35846,-0.31939,-0.0043712,0,0,-0.67721,-0.20315,0,-0.04546,0,0,0.31018,-0.011044,0,0.31038,-0.35825,-0.44983,-0.31939,-87.261,-0.37583,0.116,-5.0898e-05,0.72,0.88,0
0.2177,-0.019089,0.28306,-0.44819,-0.34715,-0.30937,-0.0023825,0,0,-0.72187,-0.19647,0,-0.024778,0,0,0.31006,-0.012592,0,0.31031,-0.34709,-0.44824,-0.30937,-88.65,-0.36823,0.12438,-6.9042e-05,0.74,0.88,0
0.20281,-0.018109,0.25826,-0.44711,-0.33585,-0.29945,-0.00023874,0,0,-0.76784,-0.18925,0,-0.0024829,0,0,0.31018,-0.014364,0,0.31051,-0.33585,-0.44712,-0.29945,-89.877,-0.3608,0.13325,-9.1636e-05,0.76,0.88,0
0.18699,-0.017097,0.23343,-0.44652,-0.32453,-0.28967,0.0020742,0,0,-0.81561,-0.18124,0,0.021572,0,0,0.31062,-0.016445,0,0.31105,-0.32449,-0.44656,-0.28967,89.026,-0.35357,0.1427,-0.00011981,0.78,0.88,0
0.17018,-0.016062,0.20856,-0.44658,-0.31315,-0.28006,0.0045493,0,0,-0.8659,-0.17208,0,0.047313,0,0,0.31151,-0.018929,0,0.31209,-0.313,-0.44673,-0.28006,88.049,-0.34659,0.15289,-0.00015522,0.8,0.88,0
0.15235,-0.015015,0.18359,-0.44751,-0.30166,-0.27065,0.0071367,0,0,-0.9197,-0.16123,0,0.074221,0,0,0.31307,-0.021905,0,0.31384,-0.30131,-0.44786,-0.27065,87.206,-0.33994,0.16405,-0.00020031,0.82,0.88,0
0.1334,-0.01398,0.15847,-0.44963,-0.28998,-0.2615,0.0097047,0,0,-0.97828,-0.1481,0,0.10093,0,0,0.31566,-0.02544,0,0.31668,-0.28939,-0.45022,-0.2615,86.534,-0.3337,0.17643,-0.00025847,0.84,0.88,0
0.11322,-0.013002,0.13309,-0.45319,-0.27807,-0.25265,0.011997,0,0,-1.0428,-0.1322,0,0.12477,0,0,0.31983,-0.029504,0,0.32119,-0.27726,-0.45401,-0.25265,86.099,-0.32797,0.19026,-0.00033384,0.86,0.88,0
0.091683,-0.012141,0.10729,-0.45831,-0.26602,-0.24412,0.013597,0,0,-1.1138,-0.11384,0,0.14141,0,0,0.32638,-0.03378,0,0.32814,-0.26506,-0.45927,-0.24412,85.975,-0.32282,0.20548,-0.00043004,0.88,0.88,0
0.068666,-0.011465,0.080866,-0.46448,-0.254,-0.23576,0.014192,0,0,-1.1894,-0.09483,0,0.1476,0,0,0.3359,-0.037137,0,0.33799,-0.25305,-0.46544,-0.23576,86.16,-0.31808,0.22154,-0.000547,0.9,0.88,0
0.044109,-0.010919,0.053551,-0.47218,-0.24322,-0.22801,0.013591,0,0,-1.2697,-0.079086,0,0.14134,0,0,0.348,-0.036781,0,0.35001,-0.24241,-0.47299,-0.22801,86.615,-0.31447,0.2381,-0.00068475,0.92,0.88,0
0.017877,-0.01034,0.025185,-0.47265,-0.26371,-0.23665,0.0099806,0,0,-0.79865,-0.056286,0,0.070638,0,0,0.36991,-0.075766,0,0.38026,-0.26323,-0.47313,-0.23665,87.268,-0.32434,0.22499,-0.0005689,0.94,0.88,0
0.012163,-0.011702,0.01748,-0.49191,-0.34428,-0.26834,0.0039848,0,0,-0.29064,-0.098731,0,0.010361,0,0,0.40556,-0.097401,0,0.4174,-0.34418,-0.49201,-0.26834,88.455,-0.36818,0.19703,-0.00020574,0.96,0.88,0
0.0062516,-0.0128,0.0089629,-0.4979,-0.35222,-0.264,0.0032806,0,0,-0.30407,-0.11468,0,0.0085296,0,0,0.437,-0.053622,0,0.43997,-0.35214,-0.49797,-0.264,88.711,-0.37137,0.20467,-0.00018123,0.98,0.88,0
0,-0.013182,0,-0.48726,-0.33545,-0.24681,-0.0073282,0,0,-0.31258,-0.11523,0,-0.019053,0,0,0.44814,-6.9389e-18,0,0.44759,-0.3351,-0.48761,-0.24681,-87.243,-0.35651,0.21099,-0.00021348,1,0.88,0
0,-0.023027,1,-0.71495,-1.5846,-1.6899,-0.024024,0,0,1.2674,0.13686,0,-0.062462,0,0,0.7077,1.2507e-15,0,0.70767,-0.71429,-1.5852,-1.6899,-1.5812,-1.3298,0.9277,0.039253,0,0.9,0
0.025348,-0.024277,0.98585,-0.70417,-1.5417,-1.6596,-0.056553,0,0,1.2421,0.15328,0,-0.14704,0,0,0.71127,0.016781,0,0.71145,-0.70037,-1.5455,-1.6596,-3.8455,-1.3018,0.90758,0.036358,0.02,0.9,0
0.049683,-0.027926,0.97155,-0.72372,-1.4722,-1.6303,-0.10839,0,0,1.1786,0.20558,0,-0.2818,0,0,0.72097,0.029762,0,0.72161,-0.70834,-1.4876,-1.6303,-8.0761,-1.2754,0.85954,0.029606,0.04,0.9,0
0.072491,-0.033566,0.95701,-0.75275,-1.3667,-1.5929,-0.14565,0,0,1.0921,0.29397,0,-0.37868,0,0,0.73426,0.03639,0,0.7352,-0.71995,-1.3995,-1.5929,-12.691,-1.2374,0.79408,0.020668,0.06,0.9,0
0.093368,-0.040362,0.94218,-0.78519,-1.2397,-1.5496,-0.15862,0,0,0.99379,0.40294,0,-0.4124,0,0,0.74799,0.036416,0,0.7489,-0.73531,-1.2896,-1.5496,-17.457,-1.1915,0.72041,0.011109,0.08,0.9,0
0.11224,-0.047226,0.92709,-0.8155,-1.1208,-1.508,-0.14646,0,0,0.90022,0.50333,0,-0.38078,0,0,0.75964,0.03155,0,0.76031,-0.75661,-1.1797,-1.508,-21.907,-1.1481,0.65243,0.0030875,0.1,0.9,0
0.12938,-0.053241,0.91179,-0.83823,-1.0286,-1.4718,-0.1195,0,0,0.82369,0.57622,0,-0.3107,0,0,0.76803,0.024401,0,0.76842,-0.78064,-1.0862,-1.4718,-25.731,-1.1129,0.59994,-0.0022079,0.12,0.9,0
0.14519,-0.057916,0.89637,-0.85105,-0.96339,-1.4407,-0.089188,0,0,0.76654,0.6205,0,-0.23189,0,0,0.77319,0.016877,0,0.77337,-0.80182,-1.0126,-1.4407,-28.899,-1.0851,0.56385,-0.0050584,0.14,0.9,0
0.16004,-0.061131,0.88087,-0.85621,-0.91836,-1.4132,-0.062398,0,0,0.72413,0.64334,0,-0.16223,0,0,0.77577,0.009892,0,0.77583,-0.81758,-0.957,-1.4132,-31.764,-1.0626,0.53963,-0.0062911,0.16,0.9,0
0.17416,-0.06295,0.86534,-0.85713,-0.88711,-1.3886,-0.040547,0,0,0.69092,0.65195,0,-0.10542,0,0,0.77638,0.0036118,0,0.77638,-0.82889,-0.91535,-1.3886,-34.858,-1.0443,0.52189,-0.0066302,0.18,0.9,0
0.18768,-0.06348,0.84981,-0.85658,-0.86652,-1.3667,-0.022516,0,0,0.66321,0.65029,0,-0.058542,0,0,0.77538,-0.002003,0,0.77538,-0.83849,-0.88461,-1.3667,-38.779,-1.0299,0.50677,-0.0064979,0.2,0.9,0
0.20068,-0.06279,0.83432,-0.85542,-0.85538,-1.3476,-0.0063313,0,0,0.63978,0.63984,0,-0.016461,0,0,0.77284,-0.0070193,0,0.77287,-0.84907,-0.86173,-1.3476,-45.094,-1.0195,0.49228,-0.0061136,0.22,0.9,0
0.21327,-0.060903,0.8189,-0.85306,-0.85419,-1.3311,0.0099528,0,0,0.62142,0.61994,0,0.025877,0,0,0.76854,-0.011443,0,0.76862,-0.84365,-0.86359,-1.3311,43.366,-1.0128,0.47776,-0.005568,0.24,0.9,0
0.22554,-0.057798,0.80358,-0.84718,-0.86517,-1.3173,0.027482,0,0,0.61113,0.58775,0,0.071453,0,0,0.76187,-0.015121,0,0.76202,-0.82726,-0.88509,-1.3173,35.94,-1.0099,0.46382,-0.0048572,0.26,0.9,0
0.23771,-0.053472,0.78842,-0.83491,-0.89338,-1.3069,0.045258,0,0,0.6136,0.53759,0,0.11767,0,0,0.75178,-0.017541,0,0.752,-0.81027,-0.91802,-1.3069,28.571,-1.0117,0.45249,-0.0038639,0.28,0.9,0
0.25008,-0.048053,0.77351,-0.81413,-0.94433,-1.3011,0.057835,0,0,0.63299,0.46373,0,0.15037,0,0,0.73686,-0.017202,0,0.73711,-0.79215,-0.96631,-1.3011,20.809,-1.0198,0.44797,-0.0023763,0.3,0.9,0
0.26303,-0.041937,0.75895,-0.78597,-1.018,-1.3001,0.056161,0,0,0.66843,0.36674,0,0.14602,0,0,0.71567,-0.011198,0,0.71584,-0.7731,-1.0309,-1.3001,12.914,-1.0347,0.45648,-0.00018316,0.32,0.9,0
0.27682,-0.035819,0.74488,-0.75281,-1.1004,-1.3009,0.032401,0,0,0.71246,0.26053,0,0.084244,0,0,0.68687,0.0047623,0,0.687,-0.74982,-1.1035,-1.3009,5.2796,-1.0514,0.48357,0.0027163,0.34,0.9,0
0.29153,-0.030447,0.73147,-0.71432,-1.17,-1.2968,-0.011733,0,0,0.75721,0.16476,0,-0.030505,0,0,0.64828,0.035042,0,0.64936,-0.71401,-1.1704,-1.2968,-1.4738,-1.0604,0.53096,0.0062431,0.36,0.9,0
0.30711,-0.026252,0.71895,-0.66035,-1.2181,-1.2825,-0.061094,0,0,0.80877,0.083702,0,-0.15884,0,0,0.59134,0.082939,0,0.59735,-0.65374,-1.2247,-1.2825,-6.1784,-1.0536,0.60194,0.010855,0.38,0.9,0
0.32388,-0.022604,0.70782,-0.61967,-1.2821,-1.2784,-0.093265,0,0,0.85629,-0.0048949,0,-0.24249,0,0,0.50831,0.14827,0,0.5318,-0.60679,-1.295,-1.2784,-7.863,-1.06,0.68004,0.01612,0.4,0.9,0
0.34136,-0.018285,0.69862,-0.55754,-0.89002,-0.8709,-0.083397,0,0,0.31837,-0.039752,0,-0.50884,0,0,0.42412,0.11183,0,0.4439,-0.50351,-0.94405,-0.8709,-29.723,-0.77282,0.42138,0.0089033,0.42,0.9,0
0.33661,-0.024758,0.66757,-0.5175,-0.51285,-0.476,-0.068611,0,0,-0.21581,-0.19165,0,-0.71355,0,0,0.37493,0.048999,0,0.37842,-0.44652,-0.58382,-0.476,-45.97,-0.50211,0.12519,-8.226e-05,0.44,0.9,0
0.33273,-0.028593,0.63863,-0.49968,-0.5105,-0.46271,-0.054262,0,0,-0.19226,-0.24848,0,-0.56433,0,0,0.35192,0.039756,0,0.35424,-0.45056,-0.55962,-0.46271,-42.155,-0.49096,0.10352,-5.4342e-05,0.46,0.9,0
0.32893,-0.030641,0.61126,-0.4877,-0.50045,-0.44926,-0.0435,0,0,-0.19989,-0.2662,0,-0.4524,0,0,0.33641,0.029256,0,0.33769,-0.45011,-0.53804,-0.44926,-40.83,-0.47914,0.088358,-3.5419e-05,0.48,0.9,0
0.32473,-0.031568,0.5848,-0.47994,-0.48907,-0.4369,-0.035615,0,0,-0.2238,-0.27125,0,-0.37039,0,0,0.32732,0.020603,0,0.32796,-0.4486,-0.52041,-0.4369,-41.35,-0.46864,0.078316,-2.2827e-05,0.5,0.9,0
0.31997,-0.031818,0.55889,-0.47413,-0.47687,-0.42502,-0.029868,0,0,-0.25535,-0.2696,0,-0.31062,0,0,0.32181,0.013872,0,0.3221,-0.4456,-0.5054,-0.42502,-43.686,-0.45867,0.072317,-1.4253e-05,0.52,0.9,0
0.31452,-0.031633,0.53331,-0.46965,-0.46461,-0.41361,-0.025576,0,0,-0.29144,-0.26522,0,-0.26599,0,0,0.31827,0.0086992,0,0.31838,-0.44144,-0.49283,-0.41361,-47.814,-0.44929,0.069616,-8.4652e-06,0.54,0.9,0
0.30832,-0.031177,0.50797,-0.46595,-0.4525,-0.40253,-0.022288,0,0,-0.3298,-0.25986,0,-0.23179,0,0,0.31586,0.0047035,0,0.31589,-0.43594,-0.4825,-0.40253,-53.396,-0.44032,0.069574,-4.8431e-06,0.56,0.9,0
0.30133,-0.030548,0.48278,-0.4627,-0.44057,-0.39167,-0.01965,0,0,-0.36932,-0.25426,0,-0.20436,0,0,0.31413,0.001575,0,0.31413,-0.42908,-0.47419,-0.39167,-59.69,-0.43165,0.071559,-3.023e-06,0.58,0.9,0
0.29354,-0.029809,0.4577,-0.45973,-0.42881,-0.38099,-0.017418,0,0,-0.40947,-0.24868,0,-0.18114,0,0,0.31282,-0.00092439,0,0.31282,-0.42098,-0.46756,-0.38099,-65.796,-0.42318,0.075046,-2.8494e-06,0.6,0.9,0
0.28495,-0.028993,0.43273,-0.45698,-0.4172,-0.37043,-0.015421,0,0,-0.45002,-0.24317,0,-0.16038,0,0,0.31178,-0.0029765,0,0.31179,-0.41192,-0.46225,-0.37043,-71.106,-0.41487,0.079643,-4.3075e-06,0.62,0.9,0
0.27554,-0.028121,0.40782,-0.45438,-0.40569,-0.35997,-0.013546,0,0,-0.49091,-0.2377,0,-0.14088,0,0,0.31092,-0.0047229,0,0.31096,-0.40217,-0.4579,-0.35997,-75.454,-0.40668,0.085071,-7.4786e-06,0.64,0.9,0
0.26531,-0.027204,0.38298,-0.45193,-0.39427,-0.3496,-0.011711,0,0,-0.53209,-0.23225,0,-0.12179,0,0,0.31019,-0.006278,0,0.31026,-0.39198,-0.45422,-0.3496,-78.947,-0.3986,0.091141,-1.2508e-05,0.66,0.9,0
0.25426,-0.026247,0.35819,-0.44961,-0.38293,-0.33931,-0.0098508,0,0,-0.57359,-0.22681,0,-0.10245,0,0,0.30957,-0.007739,0,0.30967,-0.3815,-0.45104,-0.33931,-81.77,-0.39062,0.097722,-1.9591e-05,0.68,0.9,0
0.24237,-0.025252,0.33345,-0.44744,-0.37166,-0.32909,-0.0079135,0,0,-0.61542,-0.22136,0,-0.0823,0,0,0.30905,-0.0091942,0,0.30918,-0.37084,-0.44826,-0.32909,-84.102,-0.38273,0.10473,-2.8972e-05,0.7,0.9,0
0.22964,-0.024219,0.30874,-0.44543,-0.36046,-0.31895,-0.0058483,0,0,-0.65768,-0.21586,0,-0.060822,0,0,0.30861,-0.01073,0,0.3088,-0.36006,-0.44583,-0.31895,-86.081,-0.37495,0.11212,-4.0965e-05,0.72,0.9,0
0.21606,-0.023147,0.28407,-0.44362,-0.34933,-0.3089,-0.0036034,0,0,-0.70052,-0.21023,0,-0.037475,0,0,0.30828,-0.012436,0,0.30853,-0.34919,-0.44376,-0.3089,-87.815,-0.36728,0.1199,-5.5999e-05,0.74,0.9,0
0.20162,-0.022032,0.25942,-0.44207,-0.33825,-0.29895,-0.0011221,0,0,-0.74424,-0.20434,0,-0.01167,0,0,0.3081,-0.014414,0,0.30844,-0.33824,-0.44209,-0.29895,-89.381,-0.35976,0.12809,-7.4704e-05,0.76,0.9,0
0.18629,-0.020871,0.23477,-0.44092,-0.32719,-0.28913,0.0016587,0,0,-0.78932,-0.19793,0,0.01725,0,0,0.30812,-0.016785,0,0.30858,-0.32716,-0.44094,-0.28913,89.165,-0.35241,0.13682,-9.807e-05,0.78,0.9,0
0.17005,-0.019663,0.21012,-0.44034,-0.31611,-0.27947,0.0048052,0,0,-0.83656,-0.19056,0,0.049974,0,0,0.30847,-0.019699,0,0.3091,-0.31593,-0.44053,-0.27947,87.788,-0.3453,0.14628,-0.00012772,0.8,0.9,0
0.15283,-0.018405,0.18542,-0.44067,-0.30494,-0.27004,0.0083723,0,0,-0.88729,-0.18148,0,0.087072,0,0,0.30934,-0.023349,0,0.31022,-0.30442,-0.44118,-0.27004,86.484,-0.33855,0.15681,-0.00016637,0.82,0.9,0
0.13456,-0.017104,0.16062,-0.4424,-0.29355,-0.26094,0.012369,0,0,-0.94358,-0.16957,0,0.12864,0,0,0.31112,-0.027975,0,0.31237,-0.29253,-0.44342,-0.26094,85.282,-0.3323,0.16892,-0.00021863,0.84,0.9,0
0.11509,-0.015781,0.13564,-0.4463,-0.28181,-0.25234,0.016668,0,0,-1.0086,-0.15325,0,0.17335,0,0,0.3145,-0.033858,0,0.31632,-0.28014,-0.44797,-0.25234,84.272,-0.32682,0.18332,-0.00029201,0.86,0.9,0
0.094213,-0.014491,0.1103,-0.45323,-0.26952,-0.2444,0.020912,0,0,-1.0859,-0.13063,0,0.21748,0,0,0.32089,-0.041221,0,0.32353,-0.26717,-0.45558,-0.2444,83.587,-0.32238,0.20076,-0.00039763,0.88,0.9,0
0.071651,-0.013319,0.084296,-0.464,-0.25685,-0.23733,0.024261,0,0,-1.1787,-0.10151,0,0.25231,0,0,0.33276,-0.049809,0,0.33652,-0.25405,-0.4668,-0.23733,83.409,-0.31939,0.22159,-0.0005481,0.9,0.9,0
0.047066,-0.012378,0.057059,-0.47654,-0.24307,-0.23015,0.026567,0,0,-1.2812,-0.067204,0,0.2763,0,0,0.35085,-0.056396,0,0.35556,-0.24009,-0.47953,-0.23015,83.589,-0.31659,0.24456,-0.00074706,0.92,0.9,0
0.020401,-0.011166,0.02816,-0.48835,-0.25609,-0.24093,0.025653,0,0,-0.82161,-0.031519,0,0.16106,0,0,0.38804,-0.12217,0,0.41248,-0.25324,-0.4912,-0.24093,83.714,-0.32846,0.24448,-0.00074722,0.94,0.9,0
0.014201,-0.013578,0.019863,-0.53224,-0.35399,-0.28573,0.032052,0,0,-0.32046,-0.088732,0,0.083336,0,0,0.44728,-0.1578,0,0.47509,-0.3484,-0.53783,-0.28573,80.11,-0.39065,0.22734,-0.00045242,0.96,0.9,0
0.0075826,-0.014927,0.010269,-0.5473,-0.33247,-0.2742,0.022366,0,0,-0.35503,-0.075751,0,0.058152,0,0,0.49658,-0.077219,0,0.50161,-0.33017,-0.54961,-0.2742,84.119,-0.38466,0.25213,-0.00068839,0.98,0.9,0
0,-0.015221,0,-0.55043,-0.31221,-0.25879,-0.0056498,0,0,-0.37913,-0.06944,0,-0.014689,0,0,0.51344,-1.0408e-17,0,0.51246,-0.31207,-0.55056,-0.25879,-88.642,-0.37381,0.26912,-0.00087024,1,0.9,0
0,-0.019758,1,-0.72158,-1.5337,-1.6766,-0.017786,0,0,1.2415,0.18578,0,-0.046245,0,0,0.72055,1.1367e-15,0,0.72054,-0.72119,-1.5341,-1.6766,-1.2541,-1.3106,0.8927,0.03342,0,0.92,0
0.02483,-0.020683,0.98559,-0.70963,-1.4913,-1.6459,-0.043956,0,0,1.2171,0.20089,0,-0.11428,0,0,0.72277,0.010436,0,0.72283,-0.70717,-1.4938,-1.6459,-3.2082,-1.2823,0.87267,0.030669,0.02,0.92,0
0.048685,-0.023356,0.97109,-0.72706,-1.4288,-1.6179,-0.082805,0,0,1.158,0.24572,0,-0.21529,0,0,0.72888,0.018773,0,0.72913,-0.71742,-1.4385,-1.6179,-6.639,-1.2579,0.8255,0.024356,0.04,0.92,0
0.071152,-0.027438,0.95643,-0.75316,-1.3418,-1.5849,-0.11042,0,0,1.0813,0.31607,0,-0.28709,0,0,0.7375,0.023601,0,0.73789,-0.73312,-1.3618,-1.5849,-10.282,-1.2266,0.76504,0.016575,0.06,0.92,0
0.091937,-0.032358,0.94159,-0.78348,-1.2408,-1.5489,-0.12188,0,0,0.99502,0.40048,0,-0.31689,0,0,0.74689,0.02459,0,0.74731,-0.75303,-1.2713,-1.5489,-14.029,-1.1911,0.69965,0.008717,0.08,0.92,0
0.11095,-0.037426,0.92656,-0.81321,-1.1416,-1.513,-0.11699,0,0,0.90974,0.4828,0,-0.30416,0,0,0.7555,0.022425,0,0.75585,-0.7758,-1.179,-1.513,-17.734,-1.1559,0.63938,0.0021726,0.1,0.92,0
0.12833,-0.042026,0.91137,-0.8382,-1.0564,-1.4797,-0.10046,0,0,0.83402,0.55034,0,-0.26121,0,0,0.76239,0.018297,0,0.76261,-0.79899,-1.0956,-1.4797,-21.319,-1.1248,0.59118,-0.0023388,0.12,0.92,0
0.14431,-0.045751,0.89606,-0.85632,-0.98964,-1.4499,-0.078956,0,0,0.77159,0.59828,0,-0.20528,0,0,0.76721,0.013347,0,0.76732,-0.81965,-1.0263,-1.4499,-24.914,-1.0986,0.55644,-0.0049114,0.14,0.92,0
0.15919,-0.048419,0.88068,-0.86774,-0.94005,-1.423,-0.05744,0,0,0.72186,0.62786,0,-0.14935,0,0,0.77006,0.0083275,0,0.7701,-0.83603,-0.97177,-1.423,-28.906,-1.0769,0.53227,-0.0060797,0.16,0.92,0
0.17319,-0.049997,0.86526,-0.87407,-0.90484,-1.3989,-0.038231,0,0,0.68232,0.64232,0,-0.099401,0,0,0.77119,0.0036271,0,0.77119,-0.84825,-0.93067,-1.3989,-34.04,-1.0593,0.51445,-0.0063921,0.18,0.92,0
0.18648,-0.050519,0.84983,-0.8769,-0.88173,-1.3774,-0.021504,0,0,0.65068,0.6444,0,-0.05591,0,0,0.77079,-0.00057904,0,0.77079,-0.85768,-0.90096,-1.3774,-41.795,-1.0454,0.49951,-0.0062395,0.2,0.92,0
0.19922,-0.050027,0.83443,-0.87706,-0.86975,-1.3585,-0.0064516,0,0,0.62583,0.63534,0,-0.016774,0,0,0.76895,-0.0041587,0,0.76896,-0.86599,-0.88082,-1.3585,-59.776,-1.0351,0.48524,-0.0058494,0.22,0.92,0
0.21152,-0.048551,0.81907,-0.87435,-0.86912,-1.3421,0.0077781,0,0,0.60809,0.6149,0,0.020223,0,0,0.76558,-0.0068961,0,0.76562,-0.86353,-0.87994,-1.3421,54.301,-1.0285,0.4706,-0.0053307,0.24,0.92,0
0.22354,-0.04612,0.80381,-0.86783,-0.8813,-1.3285,0.021213,0,0,0.59893,0.58142,0,0.055153,0,0,0.76044,-0.0083462,0,0.76049,-0.85231,-0.89682,-1.3285,36.192,-1.0259,0.45561,-0.0047015,0.26,0.92,0
0.23547,-0.042805,0.78866,-0.85647,-0.90837,-1.3181,0.032084,0,0,0.60013,0.53266,0,0.083419,0,0,0.75314,-0.0076013,0,0.75318,-0.84116,-0.92369,-1.3181,25.517,-1.0276,0.44151,-0.0039048,0.28,0.92,0
0.24754,-0.038781,0.77368,-0.84036,-0.95134,-1.3112,0.036382,0,0,0.61208,0.46781,0,0.094593,0,0,0.74325,-0.0029972,0,0.74327,-0.8295,-0.9622,-1.3112,16.626,-1.0343,0.43095,-0.0028347,0.3,0.92,0
0.25996,-0.034383,0.75893,-0.82127,-1.007,-1.3074,0.028614,0,0,0.63197,0.39056,0,0.074396,0,0,0.73044,0.0081563,0,0.73049,-0.81696,-1.0113,-1.3074,8.5638,-1.0452,0.42777,-0.001408,0.32,0.92,0
0.27282,-0.030092,0.74446,-0.802,-1.0665,-1.305,0.0043643,0,0,0.65389,0.31011,0,0.011347,0,0,0.7144,0.029683,0,0.71496,-0.80193,-1.0665,-1.305,0.94522,-1.0578,0.43587,0.00038188,0.34,0.92,0
0.28611,-0.026433,0.73035,-0.78358,-1.1194,-1.3012,-0.037219,0,0,0.67297,0.2364,0,-0.096769,0,0,0.69384,0.066818,0,0.69683,-0.7795,-1.1235,-1.3012,-6.2491,-1.0681,0.45942,0.0025846,0.36,0.92,0
0.29974,-0.023761,0.71671,-0.75762,-1.1618,-1.2925,-0.097812,0,0,0.69539,0.16995,0,-0.25431,0,0,0.6646,0.12764,0,0.67607,-0.73519,-1.1842,-1.2925,-12.913,-1.0707,0.51186,0.0058616,0.38,0.92,0
0.31393,-0.022513,0.70377,-0.64503,-1.183,-1.2522,-0.15152,0,0,0.78929,0.089934,0,-0.39394,0,0,0.57234,0.22891,0,0.61353,-0.60529,-1.2227,-1.2522,-14.696,-1.0267,0.63268,0.012912,0.4,0.92,0
0.33131,-0.019424,0.69381,-0.58306,-0.94919,-0.89331,-0.16395,0,0,0.30943,-0.11624,0,-0.87572,0,0,0.44506,0.26398,0,0.53468,-0.49083,-1.0414,-0.89331,-31.421,-0.80852,0.50525,0.011912,0.42,0.92,0
0.32631,-0.029246,0.66242,-0.5249,-0.54705,-0.48719,-0.095271,0,0,-0.19611,-0.31128,0,-0.99082,0,0,0.36926,0.081843,0,0.37841,-0.44007,-0.63189,-0.48719,-41.685,-0.51972,0.17314,-0.00020149,0.44,0.92,0
0.32347,-0.034178,0.63473,-0.49158,-0.52698,-0.46425,-0.068287,0,0,-0.14209,-0.32621,0,-0.71018,0,0,0.33691,0.055367,0,0.34136,-0.43873,-0.57982,-0.46425,-37.733,-0.49427,0.13022,-9.8892e-05,0.46,0.92,0
0.32062,-0.036426,0.60851,-0.47886,-0.51198,-0.44938,-0.051357,0,0,-0.1533,-0.32553,0,-0.53411,0,0,0.32391,0.037593,0,0.32604,-0.44146,-0.54938,-0.44938,-36.064,-0.48007,0.10419,-5.6956e-05,0.48,0.92,0
0.31734,-0.037366,0.58291,-0.47113,-0.49651,-0.43602,-0.040727,0,0,-0.18258,-0.31456,0,-0.42357,0,0,0.31806,0.025393,0,0.31905,-0.44116,-0.52648,-0.43602,-36.347,-0.46789,0.088002,-3.46e-05,0.5,0.92,0
0.31332,-0.037498,0.55762,-0.46661,-0.482,-0.42399,-0.033527,0,0,-0.22164,-0.30167,0,-0.34868,0,0,0.31497,0.016829,0,0.31541,-0.43991,-0.50871,-0.42399,-38.537,-0.45754,0.077985,-2.0978e-05,0.52,0.92,0
0.30847,-0.037165,0.53251,-0.46334,-0.46832,-0.41263,-0.028566,0,0,-0.2637,-0.28963,0,-0.29709,0,0,0.31317,0.010661,0,0.31334,-0.43716,-0.49451,-0.41263,-42.505,-0.4481,0.072784,-1.2487e-05,0.54,0.92,0
0.30277,-0.036558,0.50751,-0.46055,-0.45536,-0.40165,-0.024946,0,0,-0.3063,-0.27927,0,-0.25944,0,0,0.31199,0.0061043,0,0.31205,-0.43288,-0.48304,-0.40165,-47.974,-0.43919,0.071115,-7.2052e-06,0.56,0.92,0
0.29622,-0.035789,0.48259,-0.45795,-0.44292,-0.39091,-0.022127,0,0,-0.34861,-0.27047,0,-0.23012,0,0,0.31112,0.0026485,0,0.31113,-0.42707,-0.4738,-0.39091,-54.377,-0.4306,0.071983,-4.1921e-06,0.58,0.92,0
0.28883,-0.034919,0.45773,-0.45541,-0.43087,-0.38032,-0.019774,0,0,-0.39048,-0.26288,0,-0.20565,0,0,0.31042,-4.8508e-05,0,0.31042,-0.41987,-0.46641,-0.38032,-60.91,-0.4222,0.074642,-2.991e-06,0.6,0.92,0
0.2806,-0.033981,0.43293,-0.45291,-0.4191,-0.36983,-0.017682,0,0,-0.43199,-0.25617,0,-0.1839,0,0,0.30979,-0.0022245,0,0.3098,-0.41154,-0.46047,-0.36983,-66.857,-0.41395,0.078574,-3.425e-06,0.62,0.92,0
0.27155,-0.032995,0.40817,-0.45043,-0.40752,-0.35943,-0.015724,0,0,-0.47322,-0.25009,0,-0.16353,0,0,0.30921,-0.0040525,0,0.30923,-0.40238,-0.45558,-0.35943,-71.881,-0.40579,0.083425,-5.4694e-06,0.64,0.92,0
0.26167,-0.031967,0.38345,-0.44798,-0.3961,-0.34909,-0.013811,0,0,-0.51424,-0.24448,0,-0.14363,0,0,0.30864,-0.005665,0,0.30869,-0.39265,-0.45143,-0.34909,-75.984,-0.39772,0.088954,-9.1792e-06,0.66,0.92,0
0.25098,-0.030904,0.35879,-0.44556,-0.38482,-0.33881,-0.011874,0,0,-0.55508,-0.23925,0,-0.12349,0,0,0.30807,-0.0071712,0,0.30815,-0.38258,-0.44779,-0.33881,-79.323,-0.38973,0.094991,-1.4652e-05,0.68,0.92,0
0.23947,-0.029806,0.33416,-0.44316,-0.37366,-0.32859,-0.0098519,0,0,-0.59579,-0.23438,0,-0.10246,0,0,0.3075,-0.0086676,0,0.30763,-0.37229,-0.44453,-0.32859,-82.086,-0.3818,0.10142,-2.2016e-05,0.7,0.92,0
0.22715,-0.028671,0.30958,-0.44081,-0.36262,-0.31843,-0.0076849,0,0,-0.63639,-0.22983,0,-0.079922,0,0,0.30694,-0.010248,0,0.30711,-0.36188,-0.44156,-0.31843,-84.439,-0.37395,0.10816,-3.1432e-05,0.72,0.92,0
0.21401,-0.027499,0.28505,-0.43851,-0.35171,-0.30833,-0.0053039,0,0,-0.67696,-0.22558,0,-0.055161,0,0,0.30638,-0.012014,0,0.30661,-0.35139,-0.43884,-0.30833,-86.516,-0.36619,0.11518,-4.3125e-05,0.74,0.92,0
0.20007,-0.026282,0.26056,-0.43632,-0.34092,-0.29831,-0.0026249,0,0,-0.71764,-0.22156,0,-0.027299,0,0,0.30583,-0.01408,0,0.30615,-0.34085,-0.43639,-0.29831,-88.425,-0.35852,0.12248,-5.7443e-05,0.76,0.92,0
0.18531,-0.025015,0.23612,-0.43431,-0.33025,-0.2884,0.00046225,0,0,-0.75874,-0.21763,0,0.0048074,0,0,0.30534,-0.016594,0,0.30578,-0.33025,-0.43431,-0.2884,89.746,-0.35098,0.13014,-7.499e-05,0.78,0.92,0
0.16972,-0.023684,0.21171,-0.43262,-0.31967,-0.27862,0.0041047,0,0,-0.80082,-0.2135,0,0.042688,0,0,0.30495,-0.019752,0,0.30558,-0.31952,-0.43277,-0.27862,87.921,-0.34364,0.13831,-9.6892e-05,0.8,0.92,0
0.15327,-0.022274,0.18733,-0.43154,-0.30915,-0.26904,0.0084986,0,0,-0.845,-0.20857,0,0.088386,0,0,0.3048,-0.023835,0,0.30572,-0.30856,-0.43212,-0.26904,86.047,-0.33657,0.14736,-0.00012534,0.82,0.92,0
0.13592,-0.020763,0.16294,-0.43159,-0.29858,-0.25979,0.013889,0,0,-0.89338,-0.20173,0,0.14445,0,0,0.30515,-0.029256,0,0.30654,-0.29715,-0.43303,-0.25979,84.102,-0.32999,0.15791,-0.0001647,0.84,0.92,0
0.11754,-0.019132,0.1385,-0.43379,-0.28784,-0.25112,0.020567,0,0,-0.94991,-0.19098,0,0.2139,0,0,0.30658,-0.036653,0,0.30874,-0.285,-0.43664,-0.25112,82.13,-0.32425,0.17111,-0.00022368,0.86,0.92,0
0.09792,-0.017366,0.11389,-0.4402,-0.2769,-0.2436,0.028705,0,0,-1.0223,-0.17316,0,0.29853,0,0,0.31043,-0.047035,0,0.31393,-0.272,-0.4451,-0.2436,80.315,-0.32023,0.1889,-0.00031999,0.88,0.92,0
0.076646,-0.015526,0.088835,-0.45406,-0.26569,-0.23813,0.038564,0,0,-1.1228,-0.14331,0,0.40107,0,0,0.32072,-0.061993,0,0.3266,-0.2581,-0.46165,-0.23813,78.866,-0.31929,0.21423,-0.00049018,0.9,0.92,0
0.053008,-0.013607,0.062574,-0.48398,-0.25782,-0.23818,0.049871,0,0,-1.2782,-0.1021,0,0.51866,0,0,0.34895,-0.084131,0,0.3591,-0.24731,-0.49449,-0.23818,78.101,-0.32666,0.25187,-0.000817,0.92,0.92,0
0.025519,-0.0116,0.033004,-0.50646,-0.27104,-0.25388,0.09569,0,0,-0.84378,-0.035693,0,0.48293,0,0,0.4151,-0.25536,0,0.5033,-0.23312,-0.54437,-0.25388,71.021,-0.34379,0.30162,-0.0013941,0.94,0.92,0
0.019258,-0.015251,0.023792,-0.58269,-0.29963,-0.28849,0.086018,0,0,-0.38246,-0.014486,0,0.22365,0,0,0.52381,-0.21372,0,0.56198,-0.27554,-0.60677,-0.28849,74.355,-0.39027,0.32495,-0.0017529,0.96,0.92,0
0.010221,-0.015831,0.012052,-0.6728,-0.29524,-0.30246,0.052506,0,0,-0.48144,0.0093875,0,0.13652,0,0,0.59481,-0.095203,0,0.60083,-0.28808,-0.67997,-0.30246,82.228,-0.4235,0.3849,-0.0029148,0.98,0.92,0
0,-0.015959,0,-0.67851,-0.27278,-0.28539,-0.0024735,0,0,-0.51106,0.016384,0,-0.0064311,0,0,0.60258,2.7756e-17,0,0.60133,-0.27277,-0.67852,-0.28539,-89.651,-0.41223,0.39959,-0.003266,1,0.92,0
0,-0.015596,1,-0.7297,-1.4942,-1.6672,-0.012399,0,0,1.2187,0.22484,0,-0.032236,0,0,0.72857,-8.2486e-16,0,0.72857,-0.7295,-1.4944,-1.6672,-0.92886,-1.297,0.86435,0.028751,0,0.94,0
0.024374,-0.016241,0.98543,-0.71684,-1.4536,-1.6366,-0.03173,0,0,1.1957,0.23782,0,-0.082497,0,0,0.73004,0.0064433,0,0.73006,-0.71547,-1.455,-1.6366,-2.4613,-1.269,0.84507,0.026237,0.02,0.94,0
0.047826,-0.018097,0.9708,-0.73229,-1.398,-1.6099,-0.059479,0,0,1.1409,0.27547,0,-0.15465,0,0,0.73414,0.011728,0,0.73424,-0.72702,-1.4033,-1.6099,-5.0658,-1.2467,0.79982,0.020485,0.04,0.94,0
0.070009,-0.020924,0.95606,-0.75579,-1.3237,-1.5799,-0.079299,0,0,1.0714,0.33307,0,-0.20618,0,0,0.74008,0.01504,0,0.74024,-0.74493,-1.3346,-1.5799,-7.8016,-1.2198,0.74333,0.013608,0.06,0.94,0
0.09068,-0.024343,0.9412,-0.7838,-1.2386,-1.5479,-0.088534,0,0,0.99336,0.40208,0,-0.23019,0,0,0.74681,0.016108,0,0.74699,-0.76717,-1.2552,-1.5479,-10.636,-1.1901,0.68317,0.0068348,0.08,0.94,0
0.10974,-0.027914,0.92619,-0.81241,-1.1527,-1.5157,-0.087015,0,0,0.91433,0.47189,0,-0.22624,0,0,0.75335,0.015186,0,0.7535,-0.79145,-1.1737,-1.5157,-13.541,-1.1603,0.62757,0.0012184,0.1,0.94,0
0.12725,-0.031227,0.91106,-0.83823,-1.0747,-1.4849,-0.077197,0,0,0.84071,0.53334,0,-0.20071,0,0,0.75895,0.012851,0,0.75906,-0.81526,-1.0976,-1.4849,-16.572,-1.1326,0.58232,-0.002711,0.12,0.94,0
0.14337,-0.033985,0.89583,-0.8591,-1.0093,-1.4564,-0.062772,0,0,0.77643,0.58116,0,-0.16321,0,0,0.76322,0.0097423,0,0.76329,-0.83632,-1.0321,-1.4564,-19.945,-1.1083,0.54898,-0.0049991,0.14,0.94,0
0.15831,-0.036016,0.88053,-0.87436,-0.95808,-1.4303,-0.047048,0,0,0.72268,0.61384,0,-0.12233,0,0,0.76605,0.0063851,0,0.76607,-0.85324,-0.97919,-1.4303,-24.17,-1.0876,0.52549,-0.0060341,0.16,0.94,0
0.17228,-0.037257,0.86519,-0.88438,-0.92044,-1.4066,-0.032012,0,0,0.67893,0.63206,0,-0.083232,0,0,0.76747,0.0031379,0,0.76747,-0.86567,-0.93915,-1.4066,-30.307,-1.0705,0.50823,-0.0062696,0.18,0.94,0
0.18547,-0.037704,0.84983,-0.88997,-0.89542,-1.3855,-0.01837,0,0,0.64413,0.63704,0,-0.047761,0,0,0.76759,0.00024449,0,0.76759,-0.87413,-0.91127,-1.3855,-40.777,-1.057,0.4938,-0.0060664,0.2,0.94,0
0.19804,-0.037377,0.83449,-0.8917,-0.8824,-1.3667,-0.0060681,0,0,0.61752,0.62961,0,-0.015777,0,0,0.76653,-0.0020727,0,0.76653,-0.87941,-0.8947,-1.3667,-63.736,-1.0469,0.47985,-0.0056552,0.22,0.94,0
0.21017,-0.036307,0.81917,-0.8898,-0.88132,-1.3505,0.0050146,0,0,0.59892,0.60994,0,0.013038,0,0,0.76435,-0.0035014,0,0.76436,-0.879,-0.89213,-1.3505,65.105,-1.0406,0.46509,-0.005153,0.24,0.94,0
0.222,-0.034541,0.80391,-0.88426,-0.89256,-1.337,0.014418,0,0,0.58851,0.57772,0,0.037487,0,0,0.76116,-0.0035064,0,0.76117,-0.8734,-0.90341,-1.337,36.97,-1.0379,0.4493,-0.0045884,0.26,0.94,0
0.23371,-0.032166,0.78873,-0.87535,-0.91627,-1.3262,0.020623,0,0,0.58612,0.53292,0,0.05362,0,0,0.75713,-0.0011598,0,0.75713,-0.86676,-0.92487,-1.3262,22.613,-1.0393,0.43333,-0.003927,0.28,0.94,0
0.24545,-0.029341,0.77363,-0.8643,-0.95131,-1.3183,0.020984,0,0,0.59021,0.47711,0,0.054559,0,0,0.75262,0.005063,0,0.75263,-0.8595,-0.9561,-1.3183,12.876,-1.0446,0.41894,-0.0031103,0.3,0.94,0
0.25732,-0.026315,0.75862,-0.85371,-0.99398,-1.3129,0.012372,0,0,0.59698,0.41463,0,0.032168,0,0,0.74835,0.017505,0,0.74852,-0.85263,-0.99506,-1.3129,5.0022,-1.0535,0.40817,-0.002113,0.32,0.94,0
0.26932,-0.023415,0.74369,-0.84775,-1.0382,-1.3095,-0.0077099,0,0,0.60027,0.35262,0,-0.020046,0,0,0.74553,0.039635,0,0.74648,-0.84744,-1.0386,-1.3095,-2.3138,-1.0652,0.40214,-0.00098124,0.34,0.94,0
0.28133,-0.020991,0.7288,-0.85236,-1.0782,-1.308,-0.041396,0,0,0.5923,0.29868,0,-0.10763,0,0,0.74624,0.07674,0,0.74989,-0.84501,-1.0856,-1.308,-10.066,-1.0795,0.40104,0.00022473,0.36,0.94,0
0.29302,-0.019454,0.71384,-0.88095,-1.1157,-1.3128,-0.089659,0,0,0.56144,0.25632,0,-0.23311,0,0,0.75344,0.1381,0,0.76521,-0.85062,-1.146,-1.3128,-18.69,-1.1031,0.40541,0.0015729,0.38,0.94,0
0.30379,-0.019007,0.69866,-0.94448,-1.1601,-1.33,-0.18561,0,0,0.50122,0.22092,0,-0.48258,0,0,0.80303,0.24432,0,0.83579,-0.83764,-1.2669,-1.33,-29.925,-1.1449,0.46407,0.0048145,0.4,0.94,0
0.31307,-0.022934,0.68172,-0.84727,-0.90359,-0.95133,-0.25456,0,0,0.11036,-0.0037495,0,-1.2716,0,0,0.67975,0.30064,0,0.74609,-0.61921,-1.1317,-0.95133,-42.19,-0.90073,0.45648,0.0048511,0.42,0.94,0
0.31174,-0.037209,0.65447,-0.86855,-0.60047,-0.84975,-0.16077,0,0,-0.039101,0.17475,0,-0.86654,0,0,0.81178,0.10579,0,0.82036,-0.49129,-0.97774,-0.84975,-54.744,-0.77292,0.4514,0.0077964,0.44,0.94,0
0.3115,-0.041641,0.62977,-0.82002,-0.5618,-0.80815,-0.07718,0,0,-0.024686,0.18032,0,-0.48552,0,0,0.76918,0.064196,0,0.773,-0.4993,-0.88251,-0.80815,-57.445,-0.72999,0.36779,0.005205,0.46,0.94,0
0.31075,-0.043662,0.60524,-0.81304,-0.53042,-0.78132,-0.051678,0,0,-0.065982,0.19049,0,-0.34299,0,0,0.76609,0.040476,0,0.76771,-0.48392,-0.85954,-0.78132,-58.224,-0.70826,0.35863,0.0054845,0.48,0.94,0
0.30886,-0.044151,0.58074,-0.82223,-0.51132,-0.76302,-0.037348,0,0,-0.12314,0.20001,0,-0.25806,0,0,0.76638,0.0263,0,0.76709,-0.47698,-0.85656,-0.76302,-59.381,-0.69886,0.35785,0.0057251,0.5,0.94,0
0.30582,-0.043884,0.5562,-0.83171,-0.49478,-0.74557,-0.029724,0,0,-0.17916,0.20627,0,-0.20905,0,0,0.76768,0.017091,0,0.76798,-0.46939,-0.8571,-0.74557,-61.016,-0.69069,0.36188,0.0058062,0.52,0.94,0
0.3017,-0.043218,0.53161,-0.83945,-0.48013,-0.72813,-0.025092,0,0,-0.23155,0.20888,0,-0.17785,0,0,0.76885,0.010794,0,0.76897,-0.46157,-0.85802,-0.72813,-63.335,-0.68257,0.3676,0.005669,0.54,0.94,0
0.29656,-0.042348,0.50699,-0.84513,-0.46652,-0.71036,-0.021958,0,0,-0.28031,0.20844,0,-0.15614,0,0,0.76962,0.0062987,0,0.76966,-0.45314,-0.8585,-0.71036,-66.304,-0.674,0.37423,0.0053503,0.56,0.94,0
0.29048,-0.041367,0.48235,-0.84916,-0.45355,-0.69228,-0.019547,0,0,-0.32631,0.20576,0,-0.13937,0,0,0.76995,0.0029685,0,0.76995,-0.44407,-0.85863,-0.69228,-69.737,-0.665,0.38146,0.0048861,0.58,0.94,0
0.28351,-0.040324,0.45771,-0.85205,-0.441,-0.67398,-0.017497,0,0,-0.37037,0.20154,0,-0.12523,0,0,0.76987,0.00041215,0,0.76987,-0.43438,-0.85866,-0.67398,-73.284,-0.65568,0.38921,0.0043034,0.6,0.94,0
0.27567,-0.039239,0.43308,-0.85414,-0.42874,-0.65554,-0.01563,0,0,-0.41308,0.19625,0,-0.11245,0,0,0.76944,-0.001626,0,0.76944,-0.42416,-0.85872,-0.65554,-76.578,-0.64614,0.39741,0.0036194,0.62,0.94,0
0.26699,-0.038124,0.40847,-0.85566,-0.41671,-0.637,-0.013848,0,0,-0.45481,0.19021,0,-0.10035,0,0,0.7687,-0.0033233,0,0.76871,-0.41356,-0.85881,-0.637,-79.402,-0.63646,0.40602,0.002845,0.64,0.94,0
0.25748,-0.036983,0.38388,-0.85674,-0.40486,-0.61841,-0.012086,0,0,-0.49574,0.18357,0,-0.088424,0,0,0.76769,-0.0048116,0,0.76772,-0.40272,-0.85888,-0.61841,-81.726,-0.62667,0.41496,0.0019878,0.66,0.94,0
0.24716,-0.035817,0.35934,-0.85745,-0.39318,-0.59977,-0.010292,0,0,-0.53596,0.17645,0,-0.076302,0,0,0.76643,-0.0061966,0,0.76647,-0.39177,-0.85886,-0.59977,-83.624,-0.6168,0.42416,0.0010541,0.68,0.94,0
0.23604,-0.034627,0.33483,-0.85778,-0.38166,-0.5811,-0.0084135,0,0,-0.57549,0.16886,0,-0.063616,0,0,0.76492,-0.0075707,0,0.76499,-0.38077,-0.85867,-0.5811,-85.2,-0.60685,0.43354,4.9982e-05,0.7,0.94,0
0.22414,-0.033413,0.31038,-0.85774,-0.37031,-0.5624,-0.0063931,0,0,-0.6143,0.16082,0,-0.049978,0,0,0.76316,-0.0090238,0,0.76326,-0.36981,-0.85825,-0.5624,-86.549,-0.59682,0.443,-0.0010179,0.72,0.94,0
0.21147,-0.03217,0.28599,-0.8573,-0.35914,-0.54368,-0.0041614,0,0,-0.65233,0.15231,0,-0.034923,0,0,0.76113,-0.010653,0,0.76126,-0.3589,-0.85753,-0.54368,-87.751,-0.5867,0.45246,-0.0021422,0.74,0.94,0
0.19804,-0.030894,0.26167,-0.85641,-0.34817,-0.52492,-0.0016243,0,0,-0.6895,0.1433,0,-0.017838,0,0,0.7588,-0.012572,0,0.75899,-0.3481,-0.85648,-0.52492,1.1234,-0.5765,0.46183,-0.0033142,0.76,0.94,0
0.18389,-0.029577,0.23743,-0.85505,-0.33742,-0.50613,0.0013559,0,0,-0.72574,0.13379,0,0.0021437,0,0,0.75613,-0.014933,0,0.75639,-0.33741,-0.85505,-0.50613,0.012555,-0.5662,0.47106,-0.0045245,0.78,0.94,0
0.16901,-0.028203,0.21328,-0.85323,-0.32693,-0.48734,0.0049928,0,0,-0.76103,0.12381,0,0.026318,0,0,0.75307,-0.017948,0,0.75344,-0.32685,-0.8533,-0.48734,88.851,-0.55583,0.48013,-0.0057645,0.8,0.94,0
0.15344,-0.026748,0.18923,-0.85111,-0.31677,-0.46863,0.0096282,0,0,-0.79555,0.11353,0,0.056665,0,0,0.7496,-0.021941,0,0.75015,-0.31641,-0.85147,-0.46863,87.569,-0.5455,0.4892,-0.0070321,0.82,0.94,0
0.13719,-0.025174,0.1653,-0.84922,-0.30704,-0.45019,0.01582,0,0,-0.82998,0.10341,0,0.096241,0,0,0.74575,-0.027442,0,0.7466,-0.30604,-0.85022,-0.45019,86.092,-0.53548,0.4988,-0.0083441,0.84,0.94,0
0.12025,-0.02342,0.1415,-0.8489,-0.29798,-0.4325,0.024419,0,0,-0.86611,0.094481,0,0.14949,0,0,0.74181,-0.035391,0,0.74321,-0.29573,-0.85115,-0.4325,84.368,-0.52646,0.51024,-0.0097681,0.86,0.94,0
0.10255,-0.021417,0.11783,-0.85292,-0.28986,-0.41647,0.037058,0,0,-0.9078,0.088656,0,0.22407,0,0,0.73887,-0.047555,0,0.7413,-0.28525,-0.85753,-0.41647,82.362,-0.51975,0.52648,-0.011485,0.88,0.94,0
0.083934,-0.019051,0.094215,-0.87102,-0.28718,-0.40634,0.055319,0,0,-0.96652,0.088811,0,0.32694,0,0,0.73917,-0.067993,0,0.74382,-0.27852,-0.87968,-0.40634,80.285,-0.52151,0.55353,-0.014099,0.9,0.94,0
0.063887,-0.016462,0.07052,-0.91841,-0.29046,-0.40674,0.092789,0,0,-1.0643,0.097628,0,0.50576,0,0,0.77675,-0.10416,0,0.78579,-0.27262,-0.93625,-0.40674,77.563,-0.53853,0.61079,-0.019409,0.92,0.94,0
0.041363,-0.012594,0.044503,-0.79892,-0.3315,-0.36694,0.1571,0,0,-0.9839,0.027441,0,0.77805,0,0,0.6476,-0.28444,0,0.71003,-0.28257,-0.84785,-0.36694,71.609,-0.49912,0.52841,-0.011723,0.94,0.94,0
0.027377,-0.014157,0.028412,-0.9286,-0.30205,-0.39761,0.11539,0,0,-0.69029,0.12422,0,0.30002,0,0,0.76065,-0.21796,0,0.78732,-0.28148,-0.94917,-0.39761,79.89,-0.54275,0.61787,-0.010687,0.96,0.94,0
0.013751,-0.014552,0.014077,-0.88465,-0.2623,-0.35816,0.057643,0,0,-0.68443,0.12462,0,0.14987,0,0,0.7103,-0.09492,0,0.71525,-0.25701,-0.88994,-0.35816,84.753,-0.5017,0.58891,-0.009455,0.98,0.94,0
0,-0.014566,0,-0.85352,-0.22859,-0.32464,-0.00026757,0,0,-0.68756,0.12485,0,-0.00069567,0,0,0.70385,0,0,0.70278,-0.22859,-0.85352,-0.32464,-89.975,-0.46892,0.58288,-0.0092468,1,0.94,0
0,-0.010765,1,-0.73679,-1.4667,-1.6611,-0.0078033,0,0,1.2015,0.25262,0,-0.020289,0,0,0.73344,1.3332e-15,0,0.73344,-0.73671,-1.4668,-1.6611,-0.61242,-1.2882,0.84416,0.025467,0,0.96,0
0.024031,-0.01117,0.98533,-0.72326,-1.4276,-1.6306,-0.020459,0,0,1.1795,0.26385,0,-0.053193,0,0,0.73449,0.0037424,0,0.7345,-0.72267,-1.4282,-1.6306,-1.6623,-1.2605,0.82557,0.02315,0.02,0.96,0
0.047182,-0.012338,0.97062,-0.73724,-1.3771,-1.6049,-0.038319,0,0,1.128,0.29618,0,-0.099629,0,0,0.73747,0.0068673,0,0.73751,-0.73495,-1.3794,-1.6049,-3.415,-1.2397,0.78198,0.017846,0.04,0.96,0
0.06915,-0.014115,0.95583,-0.75877,-1.3111,-1.5768,-0.05121,0,0,1.0634,0.34539,0,-0.13315,0,0,0.74188,0.0089239,0,0.74194,-0.75406,-1.3158,-1.5768,-5.2525,-1.2156,0.72821,0.011589,0.06,0.96,0
0.089719,-0.016275,0.94095,-0.78493,-1.2358,-1.5472,-0.057646,0,0,0.99092,0.40474,0,-0.14988,0,0,0.74704,0.0097294,0,0.74711,-0.77767,-1.2431,-1.5472,-7.1714,-1.1893,0.67127,0.0054926,0.08,0.96,0
0.10879,-0.018551,0.92595,-0.81246,-1.1585,-1.5172,-0.057512,0,0,0.91623,0.46632,0,-0.14953,0,0,0.75225,0.0093704,0,0.75231,-0.80315,-1.1679,-1.5172,-9.1923,-1.1627,0.61848,0.00045059,0.1,0.96,0
0.12637,-0.020692,0.91085,-0.8384,-1.0859,-1.4882,-0.052044,0,0,0.84467,0.52291,0,-0.13531,0,0,0.75694,0.0081198,0,0.75699,-0.82791,-1.0964,-1.4882,-11.404,-1.1375,0.5751,-0.003092,0.12,0.96,0
0.14257,-0.022505,0.89567,-0.86064,-1.0227,-1.4607,-0.043244,0,0,0.78003,0.56941,0,-0.11243,0,0,0.76074,0.0063202,0,0.76077,-0.84982,-1.0335,-1.4607,-14.047,-1.1146,0.54284,-0.0051576,0.14,0.96,0
0.15757,-0.023866,0.88043,-0.87806,-0.97122,-1.4352,-0.033065,0,0,0.7243,0.60319,0,-0.085969,0,0,0.76345,0.0042909,0,0.76347,-0.86751,-0.98176,-1.4352,-17.684,-1.0948,0.52007,-0.0060658,0.16,0.96,0
0.17155,-0.024715,0.86513,-0.89041,-0.93239,-1.412,-0.022881,0,0,0.67804,0.62346,0,-0.059491,0,0,0.76504,0.0022881,0,0.76505,-0.88035,-0.94245,-1.412,-23.734,-1.0783,0.50346,-0.0062191,0.18,0.96,0
0.18469,-0.025038,0.84982,-0.89795,-0.90612,-1.391,-0.013381,0,0,0.64102,0.63041,0,-0.03479,0,0,0.76558,0.00051929,0,0.76558,-0.88805,-0.91602,-1.391,-36.519,-1.065,0.48961,-0.0059617,0.2,0.96,0
0.19719,-0.024842,0.83451,-0.90113,-0.89211,-1.3725,-0.0048024,0,0,0.61276,0.62448,0,-0.012486,0,0,0.7652,-0.00080611,0,0.76521,-0.89003,-0.90321,-1.3725,-66.596,-1.0552,0.476,-0.0055249,0.22,0.96,0
0.2092,-0.024153,0.81922,-0.90038,-0.89009,-1.3564,0.0026777,0,0,0.59277,0.60614,0,0.0069619,0,0,0.76415,-0.0014037,0,0.76415,-0.88944,-0.90103,-1.3564,76.246,-1.0489,0.46123,-0.0050287,0.24,0.96,0
0.2209,-0.023011,0.80395,-0.89626,-0.89968,-1.3427,0.0085719,0,0,0.5804,0.57596,0,0.022287,0,0,0.76278,-0.00082098,0,0.76278,-0.88923,-0.90671,-1.3427,39.364,-1.0462,0.44501,-0.0045028,0.26,0.96,0
0.23242,-0.021488,0.7887,-0.88975,-0.91995,-1.3316,0.011856,0,0,0.57443,0.53516,0,0.030825,0,0,0.76171,0.0016779,0,0.76171,-0.88565,-0.92405,-1.3316,19.065,-1.0471,0.42806,-0.0039192,0.28,0.96,0
0.24387,-0.019697,0.77348,-0.88254,-0.94886,-1.3229,0.011038,0,0,0.57247,0.48625,0,0.028699,0,0,0.76191,0.0072529,0,0.76194,-0.88075,-0.95065,-1.3229,9.2052,-1.0514,0.41167,-0.0032378,0.3,0.96,0
0.25532,-0.017798,0.75823,-0.87738,-0.98279,-1.3163,0.0045807,0,0,0.57057,0.43353,0,0.01191,0,0,0.76502,0.01767,0,0.7652,-0.87718,-0.98299,-1.3163,2.4835,-1.0588,0.39692,-0.0024586,0.32,0.96,0
0.2667,-0.015987,0.74288,-0.87809,-1.0168,-1.3113,-0.0086452,0,0,0.56322,0.38293,0,-0.022477,0,0,0.77364,0.035575,0,0.77441,-0.87755,-1.0173,-1.3113,-3.5533,-1.0687,0.38351,-0.0016537,0.34,0.96,0
0.27785,-0.014486,0.72728,-0.89011,-1.0459,-1.3081,-0.028901,0,0,0.54337,0.34084,0,-0.075141,0,0,0.79231,0.064932,0,0.79487,-0.88492,-1.0511,-1.3081,-10.178,-1.0814,0.36928,-0.00093495,0.36,0.96,0
0.28843,-0.013508,0.71118,-0.91519,-1.0635,-1.3048,-0.059351,0,0,0.50649,0.31366,0,-0.15431,0,0,0.83218,0.11153,0,0.8395,-0.89436,-1.0843,-1.3048,-19.334,-1.0945,0.35577,-0.00029645,0.38,0.96,0
0.29811,-0.013676,0.694,-0.97993,-1.0826,-1.3127,-0.10738,0,0,0.43266,0.29923,0,-0.27918,0,0,0.92299,0.1839,0,0.94179,-0.91224,-1.1503,-1.3127,-32.227,-1.1251,0.3489,0.00069734,0.4,0.96,0
0.30574,-0.016138,0.67427,-1.0631,-1.018,-1.2986,-0.18084,0,0,0.30613,0.36475,0,-0.47017,0,0,1.0442,0.25334,0,1.0792,-0.85835,-1.2228,-1.2986,-48.553,-1.1266,0.40769,0.0030787,0.42,0.96,0
0.31035,-0.022256,0.65223,-1.0891,-0.67241,-1.1807,-0.14417,0,0,0.11903,0.66076,0,-0.37484,0,0,1.1456,0.10811,0,1.1494,-0.6274,-1.1341,-1.1807,-72.66,-0.98074,0.53155,0.0075144,0.44,0.96,0
0.3105,-0.026965,0.62844,-1.1897,-0.62104,-1.1717,-0.084121,0,0,-0.023471,0.71582,0,-0.21871,0,0,1.1946,0.059224,0,1.196,-0.60886,-1.2019,-1.1717,-81.76,-0.99415,0.57852,0.0098531,0.46,0.96,0
0.30941,-0.028807,0.60444,-1.1968,-0.56865,-1.1341,-0.043935,0,0,-0.081589,0.73507,0,-0.11423,0,0,1.2053,0.035102,0,1.2058,-0.56559,-1.1999,-1.1341,-86.019,-0.96653,0.6041,0.010871,0.48,0.96,0
0.30724,-0.029366,0.58023,-1.2063,-0.53531,-1.1027,-0.028031,0,0,-0.1347,0.73764,0,-0.072882,0,0,1.2143,0.021827,0,1.2145,-0.53414,-1.2075,-1.1027,-87.612,-0.94813,0.62757,0.011511,0.5,0.96,0
0.30402,-0.029247,0.55587,-1.2172,-0.51185,-1.0746,-0.021143,0,0,-0.18541,0.73156,0,-0.054973,0,0,1.2207,0.013838,0,1.2208,-0.51122,-1.2178,-1.0746,-88.285,-0.93455,0.647,0.011645,0.52,0.96,0
0.29982,-0.028809,0.5314,-1.2276,-0.49379,-1.0478,-0.01816,0,0,-0.23375,0.72025,0,-0.047216,0,0,1.225,0.0086555,0,1.225,-0.49334,-1.2281,-1.0478,-88.583,-0.92309,0.66325,0.011337,0.54,0.96,0
0.29467,-0.02822,0.50687,-1.2368,-0.47843,-1.0214,-0.016528,0,0,-0.27999,0.70592,0,-0.042972,0,0,1.2277,0.0050848,0,1.2277,-0.47807,-1.2372,-1.0214,-88.752,-0.91223,0.67751,0.010683,0.56,0.96,0
0.28862,-0.027558,0.48229,-1.2448,-0.46446,-0.99506,-0.0153,0,0,-0.3246,0.68978,0,-0.039781,0,0,1.2292,0.0025013,0,1.2292,-0.46415,-1.245,-0.99506,-88.877,-0.90142,0.69071,0.0097552,0.58,0.96,0
0.28169,-0.026857,0.4577,-1.2516,-0.45121,-0.96854,-0.014149,0,0,-0.36796,0.67253,0,-0.036788,0,0,1.2297,0.00054937,0,1.2297,-0.45096,-1.2518,-0.96854,-88.987,-0.89045,0.7034,0.0086001,0.6,0.96,0
0.2739,-0.026131,0.43311,-1.2575,-0.4384,-0.94188,-0.012985,0,0,-0.41034,0.65453,0,-0.033761,0,0,1.2294,-0.00098981,0,1.2294,-0.43819,-1.2577,-0.94188,-89.092,-0.87927,0.71593,0.0072474,0.62,0.96,0
0.26528,-0.025386,0.40853,-1.2627,-0.42587,-0.91509,-0.01179,0,0,-0.45188,0.63599,0,-0.030653,0,0,1.2285,-0.0022619,0,1.2285,-0.42571,-1.2629,-0.91509,-89.193,-0.86789,0.72844,0.0057167,0.64,0.96,0
0.25583,-0.024624,0.38397,-1.2672,-0.41358,-0.88819,-0.010557,0,0,-0.49266,0.61699,0,-0.027448,0,0,1.227,-0.0033715,0,1.227,-0.41345,-1.2673,-0.88819,-89.291,-0.85631,0.74099,0.0040233,0.66,0.96,0
0.24557,-0.023846,0.35945,-1.271,-0.4015,-0.86118,-0.0092731,0,0,-0.53271,0.5976,0,-0.02411,0,0,1.225,-0.0044009,0,1.225,-0.4014,-1.2711,-0.86118,-89.389,-0.84455,0.75357,0.0021802,0.68,0.96,0
0.23452,-0.023051,0.33497,-1.2741,-0.38962,-0.83409,-0.0079149,0,0,-0.57203,0.57781,0,-0.020579,0,0,1.2226,-0.0054212,0,1.2226,-0.38955,-1.2742,-0.83409,-89.487,-0.8326,0.76611,0.00020102,0.7,0.96,0
0.22269,-0.022239,0.31054,-1.2766,-0.37797,-0.8069,-0.0064471,0,0,-0.61055,0.55761,0,-0.016762,0,0,1.2196,-0.0065014,0,1.2197,-0.37792,-1.2766,-0.8069,-89.589,-0.82047,0.77854,-0.0018998,0.72,0.96,0
0.2101,-0.021406,0.28618,-1.2783,-0.36657,-0.77963,-0.004818,0,0,-0.6482,0.53697,0,-0.012527,0,0,1.2162,-0.0077164,0,1.2162,-0.36655,-1.2783,-0.77963,-89.697,-0.80815,0.79073,-0.0041055,0.74,0.96,0
0.19676,-0.02055,0.2619,-1.2791,-0.35549,-0.75228,-0.0029464,0,0,-0.68489,0.51582,0,-0.0076607,0,0,1.2121,-0.0091576,0,1.2122,-0.35548,-1.2791,-0.75228,-89.817,-0.79563,0.80254,-0.0063965,0.76,0.96,0
0.1827,-0.019663,0.2377,-1.2791,-0.34482,-0.72486,-0.00069467,0,0,-0.72046,0.49406,0,-0.0018061,0,0,1.2073,-0.010949,0,1.2074,-0.34482,-1.2791,-0.72486,-89.957,-0.78291,0.81376,-0.0087491,0.78,0.96,0
0.16794,-0.018732,0.2136,-1.278,-0.33472,-0.69742,0.0021852,0,0,-0.75475,0.47151,0,0.0056814,0,0,1.2016,-0.013273,0,1.2017,-0.33472,-1.278,-0.69742,89.867,-0.77005,0.82414,-0.011135,0.8,0.96,0
0.15251,-0.017733,0.18963,-1.2759,-0.32548,-0.67004,0.0061482,0,0,-0.78758,0.44792,0,0.015985,0,0,1.1948,-0.01643,0,1.1949,-0.32544,-1.2759,-0.67004,89.629,-0.75713,0.83342,-0.013523,0.82,0.96,0
0.13644,-0.016627,0.16581,-1.2727,-0.31752,-0.64287,0.012005,0,0,-0.81874,0.42295,0,0.031213,0,0,1.1866,-0.020952,0,1.1868,-0.31737,-1.2728,-0.64287,89.28,-0.74435,0.84133,-0.015878,0.84,0.96,0
0.11976,-0.015353,0.14217,-1.2685,-0.31143,-0.61616,0.021177,0,0,-0.8481,0.39615,0,0.055062,0,0,1.1766,-0.027873,0,1.177,-0.31096,-1.269,-0.61616,88.733,-0.73204,0.84771,-0.018168,0.86,0.96,0
0.10251,-0.01382,0.11875,-1.2628,-0.3075,-0.58982,0.03557,0,0,-0.87481,0.36702,0,0.092482,0,0,1.1645,-0.039387,0,1.1651,-0.30617,-1.2641,-0.58982,87.87,-0.72002,0.85224,-0.020326,0.88,0.96,0
0.084768,-0.011973,0.09559,-1.2491,-0.30528,-0.56189,0.059029,0,0,-0.89332,0.3336,0,0.15348,0,0,1.1511,-0.060497,0,1.1527,-0.3016,-1.2527,-0.56189,86.435,-0.70541,0.85138,-0.021993,0.9,0.96,0
0.066782,-0.0097018,0.0727,-1.1781,-0.28984,-0.51309,0.080986,0,0,-0.86455,0.29022,0,0.21056,0,0,1.102,-0.10389,0,1.1058,-0.28252,-1.1854,-0.51309,84.833,-0.66036,0.81256,-0.020258,0.92,0.96,0
0.050186,-0.0089604,0.051508,-1.1443,-0.34681,-0.49886,0.10285,0,0,-0.83914,0.19766,0,0.26741,0,0,1.0047,-0.2362,0,1.0366,-0.33376,-1.1574,-0.49886,82.769,-0.66334,0.75476,-0.01857,0.94,0.96,0
0.033216,-0.010282,0.032511,-1.0816,-0.26406,-0.43622,0.062049,0,0,-0.83904,0.22381,0,0.16133,0,0,0.89149,-0.15949,0,0.90595,-0.25938,-1.0863,-0.43622,85.684,-0.59398,0.75423,-0.018019,0.96,0.96,0
0.016625,-0.010846,0.015848,-1.0297,-0.22049,-0.39089,0.035302,0,0,-0.8304,0.22153,0,0.091785,0,0,0.81277,-0.07299,0,0.81549,-0.21895,-1.0312,-0.39089,87.507,-0.54701,0.74139,-0.017195,0.98,0.96,0
0,-0.010965,0,-0.99279,-0.18513,-0.35338,-0.0022916,0,0,-0.83123,0.21871,0,-0.0059582,0,0,0.79242,1.3878e-17,0,0.79184,-0.18513,-0.99279,-0.35338,-89.837,-0.51043,0.73807,-0.017087,1,0.96,0
0,-0.0054915,1,-0.74149,-1.4506,-1.6576,-0.0037631,0,0,1.191,0.26912,0,-0.0097841,0,0,0.73606,-4.4593e-16,0,0.73606,-0.74147,-1.4506,-1.6576,-0.30404,-1.2833,0.8322,0.023541,0,0.98,0
0.02382,-0.0056872,0.98528,-0.72756,-1.4125,-1.6273,-0.010007,0,0,1.1697,0.27926,0,-0.026019,0,0,0.73691,0.0017234,0,0.73691,-0.72741,-1.4126,-1.6273,-0.83691,-1.2558,0.81405,0.021347,0.02,0.98,0
0.046786,-0.0062501,0.97052,-0.74064,-1.3649,-1.6022,-0.01875,0,0,1.12,0.30844,0,-0.04875,0,0,0.73932,0.0031771,0,0.73933,-0.74008,-1.3655,-1.6022,-1.7188,-1.2359,0.7715,0.016316,0.04,0.98,0
0.068621,-0.0071081,0.95571,-0.76096,-1.3036,-1.5751,-0.025111,0,0,1.0584,0.35289,0,-0.065287,0,0,0.74294,0.0041599,0,0.74295,-0.7598,-1.3048,-1.5751,-2.6437,-1.2132,0.71929,0.010417,0.06,0.98,0
0.08912,-0.0081534,0.94081,-0.78596,-1.2337,-1.5467,-0.02841,0,0,0.98898,0.40687,0,-0.073865,0,0,0.74726,0.0045811,0,0.74728,-0.78417,-1.2355,-1.5467,-3.6159,-1.1888,0.6641,0.0046922,0.08,0.98,0
0.10818,-0.0092607,0.92582,-0.81274,-1.1613,-1.518,-0.028579,0,0,0.91687,0.46377,0,-0.074305,0,0,0.75174,0.0044653,0,0.75175,-0.81041,-1.1636,-1.518,-4.6566,-1.164,0.61281,-3.5406e-05,0.1,0.98,0
0.12579,-0.010311,0.91074,-0.8386,-1.092,-1.4899,-0.026144,0,0,0.84671,0.51731,0,-0.067975,0,0,0.7559,0.003922,0,0.75591,-0.83593,-1.0946,-1.4899,-5.8299,-1.1402,0.57046,-0.0033577,0.12,0.98,0
0.14205,-0.011208,0.89558,-0.86143,-1.0303,-1.4631,-0.021983,0,0,0.78217,0.56262,0,-0.057157,0,0,0.75939,0.0031004,0,0.7594,-0.85862,-1.0331,-1.4631,-7.296,-1.1183,0.53886,-0.0052864,0.14,0.98,0
0.15708,-0.011889,0.88036,-0.87993,-0.97913,-1.4381,-0.017002,0,0,0.72559,0.59664,0,-0.044206,0,0,0.76201,0.0021503,0,0.76202,-0.8771,-0.98196,-1.4381,-9.4612,-1.0991,0.51659,-0.0061088,0.16,0.98,0
0.17107,-0.012319,0.8651,-0.89354,-0.93982,-1.4151,-0.011888,0,0,0.67803,0.61788,0,-0.03091,0,0,0.7637,0.0012028,0,0.7637,-0.89067,-0.94269,-1.4151,-13.597,-1.0828,0.50046,-0.0062037,0.18,0.98,0
0.1842,-0.012488,0.84981,-0.90226,-0.91285,-1.3943,-0.0070428,0,0,0.63972,0.62594,0,-0.018311,0,0,0.7645,0.00037376,0,0.7645,-0.89874,-0.91637,-1.3943,-26.523,-1.0698,0.48703,-0.005907,0.2,0.98,0
0.19666,-0.012397,0.83452,-0.90641,-0.89816,-1.3759,-0.0026642,0,0,0.61032,0.62106,0,-0.0069269,0,0,0.7646,-0.00021394,0,0.7646,-0.89737,-0.9072,-1.3759,-73.583,-1.0601,0.47368,-0.0054507,0.22,0.98,0
0.20862,-0.012061,0.81923,-0.90657,-0.89531,-1.3598,0.001085,0,0,0.58919,0.60382,0,0.0028211,0,0,0.76433,-0.00039478,0,0.76433,-0.89521,-0.90667,-1.3598,84.542,-1.0539,0.45896,-0.0049549,0.24,0.98,0
0.22023,-0.011502,0.80395,-0.90355,-0.90355,-1.3461,0.0039159,0,0,0.57528,0.57528,0,0.010181,0,0,0.76424,8.653e-05,0,0.76424,-0.89963,-0.90747,-1.3461,45.007,-1.0511,0.44258,-0.0044477,0.26,0.98,0
0.23163,-0.01076,0.78866,-0.8986,-0.92144,-1.3347,0.0053318,0,0,0.56689,0.53721,0,0.013863,0,0,0.7652,0.0016338,0,0.7652,-0.89742,-0.92262,-1.3347,12.517,-1.0516,0.42521,-0.0039019,0.28,0.98,0
0.2429,-0.0098911,0.77334,-0.89351,-0.94658,-1.3254,0.0046914,0,0,0.56141,0.49242,0,0.012198,0,0,0.76861,0.0048742,0,0.76863,-0.8931,-0.94699,-1.3254,5.013,-1.0552,0.408,-0.0032839,0.3,0.98,0
0.25408,-0.0089733,0.75792,-0.89061,-0.97548,-1.3177,0.001415,0,0,0.55527,0.44494,0,0.003679,0,0,0.77667,0.010759,0,0.77675,-0.89059,-0.9755,-1.3177,0.95499,-1.0613,0.39166,-0.0026035,0.32,0.98,0
0.26511,-0.0080975,0.74227,-0.8928,-1.0038,-1.3113,-0.0047189,0,0,0.54399,0.39967,0,-0.012269,0,0,0.79279,0.020699,0,0.7931,-0.8926,-1.004,-1.3113,-2.4297,-1.0693,0.37555,-0.001935,0.34,0.98,0
0.27584,-0.0073577,0.7262,-0.90251,-1.0263,-1.3048,-0.013911,0,0,0.52302,0.36214,0,-0.036168,0,0,0.8222,0.036657,0,0.82315,-0.90096,-1.0278,-1.3048,-6.335,-1.0779,0.35773,-0.0013937,0.36,0.98,0
0.28603,-0.0069071,0.70938,-0.92557,-1.039,-1.2988,-0.027218,0,0,0.48513,0.3377,0,-0.070767,0,0,0.87241,0.060517,0,0.87493,-0.91938,-1.0452,-1.2988,-12.821,-1.0878,0.3347,-0.0010492,0.38,0.98,0
0.29525,-0.0070379,0.69131,-0.96549,-1.0256,-1.2887,-0.0493,0,0,0.4201,0.3419,0,-0.12818,0,0,0.94483,0.087108,0,0.94997,-0.93782,-1.0533,-1.2887,-29.306,-1.0933,0.30968,-0.00084112,0.4,0.98,0
0.30284,-0.0083442,0.67159,-1.0316,-0.95815,-1.2685,-0.073604,0,0,0.30802,0.40346,0,-0.19137,0,0,1.029,0.087568,0,1.0337,-0.91261,-1.0771,-1.2685,-58.252,-1.0861,0.30851,-0.00019677,0.42,0.98,0
0.30757,-0.010779,0.65015,-1.0868,-0.78312,-1.2111,-0.079752,0,0,0.16162,0.55641,0,-0.20735,0,0,1.1047,0.068079,0,1.1073,-0.76345,-1.1065,-1.2111,-76.145,-1.027,0.4056,0.0026734,0.44,0.98,0
0.3093,-0.013008,0.6274,-1.1456,-0.64644,-1.165,-0.050777,0,0,0.025287,0.67412,0,-0.13202,0,0,1.1577,0.036392,0,1.1583,-0.64133,-1.1507,-1.165,-84.249,-0.98566,0.51665,0.0070645,0.46,0.98,0
0.30858,-0.014259,0.60384,-1.1923,-0.5822,-1.1362,-0.026671,0,0,-0.072898,0.72017,0,-0.069345,0,0,1.1883,0.020616,0,1.1885,-0.58104,-1.1934,-1.1362,-87.501,-0.97021,0.58586,0.0099959,0.48,0.98,0
0.30639,-0.014645,0.57987,-1.2117,-0.5409,-1.1056,-0.014273,0,0,-0.13783,0.73415,0,-0.037111,0,0,1.2049,0.012383,0,1.205,-0.5406,-1.212,-1.1056,-88.781,-0.95273,0.62502,0.011326,0.5,0.98,0
0.30307,-0.014622,0.55564,-1.2233,-0.51455,-1.077,-0.0097838,0,0,-0.19018,0.73118,0,-0.025438,0,0,1.2151,0.0076828,0,1.2151,-0.51441,-1.2234,-1.077,-89.209,-0.93827,0.64831,0.011625,0.52,0.98,0
0.29878,-0.014408,0.53126,-1.2315,-0.49529,-1.0493,-0.008254,0,0,-0.2369,0.72023,0,-0.02146,0,0,1.2214,0.0047579,0,1.2214,-0.49519,-1.2316,-1.0493,-89.358,-0.92538,0.66431,0.011321,0.54,0.98,0
0.29359,-0.014111,0.50679,-1.2386,-0.47952,-1.0222,-0.0076848,0,0,-0.28128,0.70551,0,-0.019981,0,0,1.2252,0.0028018,0,1.2252,-0.47944,-1.2387,-1.0222,-89.42,-0.91344,0.67745,0.010646,0.56,0.98,0
0.28753,-0.013776,0.48225,-1.245,-0.46541,-0.99538,-0.0073048,0,0,-0.32452,0.68896,0,-0.018992,0,0,1.2274,0.0014148,0,1.2274,-0.46534,-1.2451,-0.99538,-89.463,-0.90194,0.68967,0.0097067,0.58,0.98,0
0.28061,-0.013423,0.45769,-1.251,-0.45213,-0.96862,-0.006888,0,0,-0.36705,0.67144,0,-0.017909,0,0,1.2283,0.00038116,0,1.2283,-0.45207,-1.251,-0.96862,-89.506,-0.89057,0.70175,0.0085534,0.6,0.98,0
0.27285,-0.013058,0.43312,-1.2564,-0.43931,-0.94184,-0.0063964,0,0,-0.40895,0.65329,0,-0.016631,0,0,1.2283,-0.00042631,0,1.2283,-0.43926,-1.2565,-0.94184,-89.552,-0.87919,0.71393,0.0072098,0.62,0.98,0
0.26425,-0.012685,0.40856,-1.2613,-0.42679,-0.915,-0.0058431,0,0,-0.45023,0.63466,0,-0.015192,0,0,1.2275,-0.0010893,0,1.2275,-0.42675,-1.2614,-0.915,-89.599,-0.8677,0.72627,0.0056917,0.64,0.98,0
0.25484,-0.012303,0.38402,-1.2656,-0.41452,-0.88807,-0.0052435,0,0,-0.49085,0.61561,0,-0.013633,0,0,1.2262,-0.0016652,0,1.2262,-0.41449,-1.2657,-0.88807,-89.647,-0.85608,0.73871,0.0040119,0.66,0.98,0
0.24462,-0.011913,0.35951,-1.2693,-0.40248,-0.86106,-0.0046037,0,0,-0.53077,0.59615,0,-0.01197,0,0,1.2242,-0.0021981,0,1.2242,-0.40246,-1.2694,-0.86106,-89.696,-0.84429,0.75119,0.0021832,0.68,0.98,0
0.23361,-0.011515,0.33505,-1.2724,-0.39067,-0.83396,-0.0039191,0,0,-0.56993,0.57628,0,-0.01019,0,0,1.2218,-0.0027258,0,1.2218,-0.39065,-1.2724,-0.83396,-89.745,-0.83233,0.76361,0.00021939,0.7,0.98,0
0.22182,-0.011108,0.31064,-1.2747,-0.37911,-0.80678,-0.0031752,0,0,-0.60827,0.55597,0,-0.0082554,0,0,1.2188,-0.0032851,0,1.2188,-0.3791,-1.2747,-0.80678,-89.797,-0.82019,0.77586,-0.0018643,0.72,0.98,0
0.20928,-0.010691,0.2863,-1.2762,-0.36786,-0.77952,-0.002345,0,0,-0.64569,0.53516,0,-0.006097,0,0,1.2151,-0.0039162,0,1.2152,-0.36785,-1.2762,-0.77952,-89.852,-0.80786,0.78781,-0.0040497,0.74,0.98,0
0.19599,-0.010261,0.26204,-1.2768,-0.35698,-0.75218,-0.0013804,0,0,-0.68204,0.51375,0,-0.003589,0,0,1.2108,-0.004669,0,1.2109,-0.35698,-1.2768,-0.75218,-89.914,-0.79533,0.79923,-0.0063147,0.76,0.98,0
0.182,-0.0098142,0.23786,-1.2764,-0.34663,-0.72476,-0.0001907,0,0,-0.71707,0.49157,0,-0.00049583,0,0,1.2057,-0.005613,0,1.2057,-0.34663,-1.2764,-0.72476,-89.988,-0.78258,0.80983,-0.00863,0.78,0.98,0
0.16731,-0.0093425,0.21381,-1.2745,-0.33705,-0.69727,0.0013993,0,0,-0.75038,0.46829,0,0.0036382,0,0,1.1994,-0.0068557,0,1.1995,-0.33705,-1.2745,-0.69727,89.915,-0.7696,0.81907,-0.010953,0.8,0.98,0
0.15198,-0.0088314,0.18989,-1.2707,-0.32867,-0.66969,0.0037252,0,0,-0.78126,0.44332,0,0.0096856,0,0,1.1917,-0.0085803,0,1.1917,-0.32866,-1.2707,-0.66969,89.773,-0.75634,0.8261,-0.013216,0.82,0.98,0
0.13606,-0.0082556,0.16614,-1.2639,-0.32221,-0.64196,0.0074071,0,0,-0.80846,0.41568,0,0.019259,0,0,1.1818,-0.011132,0,1.1818,-0.32215,-1.2639,-0.64196,89.549,-0.74268,0.82947,-0.015307,0.84,0.98,0
0.11964,-0.007574,0.14262,-1.2522,-0.31861,-0.61386,0.013439,0,0,-0.82983,0.38382,0,0.034942,0,0,1.1685,-0.01522,0,1.1686,-0.31842,-1.2524,-0.61386,89.175,-0.72822,0.82683,-0.017033,0.86,0.98,0
0.10287,-0.0067361,0.1194,-1.2329,-0.31927,-0.58505,0.023135,0,0,-0.84217,0.3455,0,0.060151,0,0,1.1496,-0.022415,0,1.1498,-0.31869,-1.2335,-0.58505,88.55,-0.7124,0.81492,-0.018114,0.88,0.98,0
0.085955,-0.0057071,0.096635,-1.1987,-0.32284,-0.55309,0.034432,0,0,-0.83927,0.29933,0,0.089524,0,0,1.1182,-0.036346,0,1.1188,-0.32149,-1.2,-0.55309,87.752,-0.69154,0.78868,-0.018063,0.9,0.98,0
0.069297,-0.0048531,0.074676,-1.1679,-0.34069,-0.52726,0.040355,0,0,-0.83288,0.24254,0,0.10492,0,0,1.0671,-0.064578,0,1.0696,-0.33873,-1.1699,-0.52726,87.214,-0.67863,0.75478,-0.017525,0.92,0.98,0
0.05264,-0.0046878,0.053951,-1.1358,-0.31767,-0.48998,0.027507,0,0,-0.83953,0.22401,0,0.071517,0,0,0.99711,-0.079686,0,1.0012,-0.31674,-1.1367,-0.48998,88.076,-0.64781,0.74852,-0.017712,0.94,0.98,0
0.035716,-0.0052051,0.034791,-1.1009,-0.23903,-0.43677,0.020097,0,0,-0.86337,0.25706,0,0.052252,0,0,0.92386,-0.073324,0,0.92758,-0.23856,-1.1014,-0.43677,88.665,-0.59223,0.78275,-0.01941,0.96,0.98,0
0.018105,-0.0056908,0.016997,-1.088,-0.19262,-0.40119,0.012299,0,0,-0.89289,0.27115,0,0.031977,0,0,0.86979,-0.038225,0,0.87067,-0.19245,-1.0882,-0.40119,89.213,-0.56061,0.81176,-0.021471,0.98,0.98,0
0,-0.0058174,0,-1.0605,-0.15325,-0.36411,-0.0024335,0,0,-0.90525,0.27412,0,-0.0063271,0,0,0.84982,-2.6021e-17,0,0.84964,-0.15324,-1.0605,-0.36411,-89.846,-0.52594,0.82232,-0.022353,1,0.98,0
0,0,1,-0.74312,-1.4453,-1.6565,7.8063e-18,0,0,1.1874,0.27458,0,2.0817e-17,0,0,0.73689,-2.8317e-15,0,0.73689,-0.74312,-1.4453,-1.6565,6.3695e-16,-1.2817,0.82825,0.022909,0,1,0
0.023749,0,0.98526,-0.72906,-1.4075,-1.6262,-0.0013662,0,0,1.1663,0.28436,0,-0.003552,0,0,0.73767,0.00082724,0,0.73767,-0.72906,-1.4075,-1.6262,-0.11538,-1.2543,0.81026,0.020756,0.02,1,0
0.046653,0,0.97049,-0.74184,-1.3609,-1.6013,-0.0025617,0,0,1.1173,0.3125,0,-0.0066604,0,0,0.73991,0.0015285,0,0.73991,-0.74183,-1.361,-1.6013,-0.23707,-1.2347,0.76806,0.015818,0.04,1,0
0.068442,0,0.95567,-0.76176,-1.3012,-1.5745,-0.0034351,0,0,1.0566,0.35541,0,-0.0089312,0,0,0.74329,0.0020085,0,0.74329,-0.76174,-1.3012,-1.5745,-0.36487,-1.2125,0.71637,0.010035,0.06,1,0
0.088917,0,0.94076,-0.78636,-1.233,-1.5466,-0.003905,0,0,0.98826,0.40767,0,-0.010153,0,0,0.74734,0.0022225,0,0.74735,-0.78633,-1.233,-1.5466,-0.50093,-1.1886,0.66174,0.0044303,0.08,1,0
0.10797,0,0.92577,-0.81288,-1.1621,-1.5183,-0.0039908,0,0,0.91699,0.46304,0,-0.010376,0,0,0.75159,0.0021788,0,0.75159,-0.81283,-1.1621,-1.5183,-0.65469,-1.1644,0.61093,-0.00019688,0.1,1,0
0.1256,0,0.9107,-0.83868,-1.0939,-1.4905,-0.0038058,0,0,0.84733,0.51555,0,-0.0098952,0,0,0.75558,0.0019262,0,0.75558,-0.83862,-1.094,-1.4905,-0.85415,-1.141,0.56891,-0.0034482,0.12,1,0
0.14186,0,0.89555,-0.86168,-1.0328,-1.4639,-0.0035127,0,0,0.78288,0.56041,0,-0.0091331,0,0,0.75897,0.0015344,0,0.75897,-0.86161,-1.0329,-1.4639,-1.1754,-1.1195,0.53752,-0.0053315,0.14,1,0
0.15691,0,0.88034,-0.88051,-0.98176,-1.439,-0.0032614,0,0,0.72606,0.59444,0,-0.0084796,0,0,0.76156,0.0010757,0,0.76156,-0.8804,-0.98186,-1.439,-1.843,-1.1004,0.51543,-0.0061244,0.16,1,0
0.17091,0,0.86509,-0.89451,-0.94233,-1.4161,-0.0031467,0,0,0.67811,0.61595,0,-0.0081814,0,0,0.76327,0.00061614,0,0.76327,-0.89431,-0.94254,-1.4161,-3.7489,-1.0843,0.49947,-0.0061987,0.18,1,0
0.18404,0,0.84981,-0.90362,-0.91515,-1.3954,-0.0032002,0,0,0.63937,0.62438,0,-0.0083205,0,0,0.76416,0.00021661,0,0.76416,-0.90279,-0.91598,-1.3954,-14.515,-1.0714,0.48619,-0.005888,0.2,1,0
0.19648,0,0.83452,-0.90812,-0.9002,-1.377,-0.0034137,0,0,0.60957,0.61986,0,-0.0088755,0,0,0.76444,-5.7038e-05,0,0.76444,-0.89893,-0.90938,-1.377,-69.611,-1.0618,0.47294,-0.0054242,0.22,1,0
0.20842,0,0.81923,-0.90861,-0.89704,-1.3609,-0.0037779,0,0,0.58802,0.60305,0,-0.0098225,0,0,0.76445,-0.00011616,0,0.76445,-0.89592,-0.90973,-1.3609,-73.42,-1.0555,0.45826,-0.0049274,0.24,1,0
0.22,0,0.80394,-0.90599,-0.90477,-1.3472,-0.0043199,0,0,0.57354,0.57512,0,-0.011232,0,0,0.76481,0.00017421,0,0.76481,-0.90102,-0.90974,-1.3472,-49.013,-1.0526,0.44185,-0.0044248,0.26,1,0
0.23136,0,0.78864,-0.90157,-0.92181,-1.3357,-0.0051214,0,0,0.56431,0.53799,0,-0.013316,0,0,0.76649,0.0010252,0,0.76649,-0.90035,-0.92304,-1.3357,-13.418,-1.053,0.42442,-0.0038887,0.28,1,0
0.24258,0,0.77328,-0.8971,-0.94569,-1.3261,-0.0063033,0,0,0.55773,0.49456,0,-0.016389,0,0,0.77104,0.0027628,0,0.77104,-0.8963,-0.9465,-1.3261,-7.272,-1.0563,0.40705,-0.003287,0.3,1,0
0.25367,0,0.7578,-0.89476,-0.973,-1.3181,-0.0079584,0,0,0.55038,0.44867,0,-0.020692,0,0,0.78084,0.0058804,0,0.78086,-0.89395,-0.9738,-1.3181,-5.7495,-1.062,0.39042,-0.0026307,0.32,1,0
0.26459,0,0.74205,-0.8967,-0.99945,-1.3109,-0.010064,0,0,0.53846,0.40487,0,-0.026167,0,0,0.79954,0.011098,0,0.79961,-0.89572,-1.0004,-1.3109,-5.5417,-1.069,0.37398,-0.0019933,0.34,1,0
0.27521,0,0.72582,-0.90598,-1.0209,-1.3039,-0.012215,0,0,0.51727,0.36789,0,-0.03176,0,0,0.83212,0.019371,0,0.83234,-0.90469,-1.0222,-1.3039,-6.0014,-1.0769,0.35532,-0.0014836,0.36,1,0
0.28528,0,0.70876,-0.92629,-1.03,-1.2956,-0.014493,0,0,0.48017,0.34535,0,-0.037683,0,0,0.88263,0.030938,0,0.88316,-0.9243,-1.032,-1.2956,-7.8085,-1.084,0.33092,-0.0012185,0.38,1,0
0.29441,0,0.69051,-0.96651,-1.014,-1.2847,-0.016033,0,0,0.41358,0.3519,0,-0.041686,0,0,0.95004,0.03981,0,0.95087,-0.9616,-1.0189,-1.2847,-17.024,-1.0884,0.29856,-0.0011991,0.4,1,0
0.30183,0,0.67076,-1.0221,-0.9378,-1.2587,-0.019509,0,0,0.30763,0.41721,0,-0.050723,0,0,1.0252,0.04135,0,1.026,-0.9335,-1.0264,-1.2587,-77.581,-1.0729,0.29016,-0.00083489,0.42,1,0
0.30672,0,0.6495,-1.0815,-0.7991,-1.2137,-0.016337,0,0,0.17185,0.53896,0,-0.042475,0,0,1.0944,0.032205,0,1.0949,-0.79815,-1.0824,-1.2137,-86.7,-1.0314,0.3679,0.0015037,0.44,1,0
0.3087,0,0.62699,-1.1399,-0.66949,-1.1698,-0.011638,0,0,0.03886,0.65042,0,-0.03026,0,0,1.1471,0.020682,0,1.1473,-0.6692,-1.1402,-1.1698,-88.584,-0.99307,0.48648,0.0058394,0.46,1,0
0.30827,0,0.60362,-1.1847,-0.58657,-1.135,-0.0058958,0,0,-0.064595,0.71295,0,-0.015329,0,0,1.1813,0.011148,0,1.1814,-0.58651,-1.1847,-1.135,-89.435,-0.96875,0.57497,0.0095164,0.48,1,0
0.30612,0,0.57974,-1.2122,-0.543,-1.1063,-0.0052516,0,0,-0.13764,0.73227,0,-0.013654,0,0,1.2014,0.0066162,0,1.2014,-0.54296,-1.2122,-1.1063,-89.55,-0.95382,0.62308,0.011223,0.5,1,0
0.30277,0,0.55556,-1.2251,-0.51526,-1.0777,-0.0057546,0,0,-0.19163,0.73111,0,-0.014962,0,0,1.2131,0.0040536,0,1.2131,-0.51522,-1.2251,-1.0777,-89.535,-0.93933,0.64886,0.011625,0.52,1,0
0.29845,0,0.53121,-1.233,-0.49565,-1.0498,-0.0063661,0,0,-0.23818,0.72042,0,-0.016552,0,0,1.2201,0.0024961,0,1.2201,-0.49559,-1.2331,-1.0498,-89.505,-0.92616,0.66508,0.01133,0.54,1,0
0.29324,0,0.50676,-1.2394,-0.47978,-1.0225,-0.0067415,0,0,-0.28195,0.70555,0,-0.017528,0,0,1.2244,0.0014702,0,1.2244,-0.47972,-1.2394,-1.0225,-89.492,-0.91389,0.67782,0.010645,0.56,1,0
0.28717,0,0.48224,-1.2453,-0.46567,-0.99552,-0.0068806,0,0,-0.32467,0.6888,0,-0.01789,0,0,1.2268,0.00075069,0,1.2268,-0.46561,-1.2453,-0.99552,-89.494,-0.90215,0.68962,0.0096982,0.58,1,0
0.28025,0,0.45769,-1.2509,-0.45241,-0.96866,-0.0068531,0,0,-0.36685,0.67114,0,-0.017818,0,0,1.2278,0.0002184,0,1.2278,-0.45235,-1.2509,-0.96866,-89.508,-0.89064,0.70141,0.0085423,0.6,1,0
0.2725,0,0.43312,-1.2561,-0.4396,-0.94184,-0.0067251,0,0,-0.40855,0.6529,0,-0.017485,0,0,1.2279,-0.00019535,0,1.2279,-0.43955,-1.2562,-0.94184,-89.528,-0.87918,0.71342,0.0071999,0.62,1,0
0.26391,0,0.40857,-1.2609,-0.4271,-0.91497,-0.0065402,0,0,-0.44971,0.63423,0,-0.017004,0,0,1.2272,-0.00053391,0,1.2272,-0.42705,-1.261,-0.91497,-89.551,-0.86765,0.72566,0.0056848,0.64,1,0
0.25451,0,0.38404,-1.2651,-0.41484,-0.88803,-0.0063225,0,0,-0.49025,0.61515,0,-0.016439,0,0,1.2259,-0.0008273,0,1.2259,-0.41479,-1.2652,-0.88803,-89.574,-0.85601,0.73804,0.0040089,0.66,1,0
0.2443,0,0.35953,-1.2688,-0.40281,-0.86102,-0.0060828,0,0,-0.53012,0.59567,0,-0.015815,0,0,1.224,-0.0010984,0,1.224,-0.40277,-1.2688,-0.86102,-89.598,-0.84421,0.75047,0.0021846,0.68,1,0
0.23331,0,0.33508,-1.2718,-0.39102,-0.83392,-0.0058239,0,0,-0.56923,0.57577,0,-0.015142,0,0,1.2215,-0.0013668,0,1.2215,-0.39099,-1.2718,-0.83392,-89.621,-0.83225,0.76284,0.00022547,0.7,1,0
0.22153,0,0.31067,-1.2741,-0.3795,-0.80674,-0.0055438,0,0,-0.60751,0.55541,0,-0.014414,0,0,1.2185,-0.0016514,0,1.2185,-0.37947,-1.2741,-0.80674,-89.645,-0.8201,0.77503,-0.0018527,0.72,1,0
0.209,0,0.28634,-1.2755,-0.36829,-0.77948,-0.0052371,0,0,-0.64485,0.53455,0,-0.013616,0,0,1.2148,-0.0019731,0,1.2148,-0.36826,-1.2755,-0.77948,-89.669,-0.80776,0.78688,-0.0040315,0.74,1,0
0.19574,0,0.26208,-1.276,-0.35749,-0.75214,-0.0048932,0,0,-0.68107,0.51305,0,-0.012722,0,0,1.2104,-0.002358,0,1.2104,-0.35746,-1.2761,-0.75214,-89.695,-0.79522,0.79815,-0.0062877,0.76,1,0
0.18176,0,0.23792,-1.2754,-0.34725,-0.72471,-0.0044907,0,0,-0.71589,0.49071,0,-0.011676,0,0,1.2051,-0.0028431,0,1.2051,-0.34722,-1.2754,-0.72471,-89.723,-0.78245,0.80849,-0.0085892,0.78,1,0
0.1671,0,0.21388,-1.2732,-0.33786,-0.69719,-0.003982,0,0,-0.74879,0.46713,0,-0.010353,0,0,1.1987,-0.0034865,0,1.1987,-0.33784,-1.2732,-0.69719,-89.756,-0.76941,0.81725,-0.010887,0.8,1,0
0.15181,0,0.18998,-1.2686,-0.32984,-0.66951,-0.0032615,0,0,-0.77882,0.44157,0,-0.00848,0,0,1.1905,-0.00439,0,1.1905,-0.32982,-1.2686,-0.66951,-89.801,-0.75598,0.82329,-0.013098,0.82,1,0
0.13595,0,0.16626,-1.2602,-0.32399,-0.64151,-0.0021052,0,0,-0.80429,0.41278,0,-0.0054736,0,0,1.18,-0.0057491,0,1.18,-0.32399,-1.2602,-0.64151,-89.871,-0.7419,0.82466,-0.015077,0.84,1,0
0.11964,0,0.14278,-1.2456,-0.32164,-0.61295,-5.4062e-05,0,0,-0.82244,0.3787,0,-0.00014056,0,0,1.1654,-0.0079831,0,1.1654,-0.32164,-1.2456,-0.61295,-89.997,-0.72673,0.81817,-0.016582,0.86,1,0
0.10305,0,0.11964,-1.2212,-0.32416,-0.58324,0.0035822,0,0,-0.82932,0.33681,0,0.0093136,0,0,1.1433,-0.011954,0,1.1434,-0.32415,-1.2212,-0.58324,89.771,-0.70953,0.79963,-0.017266,0.88,1,0
0.086466,0,0.097044,-1.1917,-0.3358,-0.5553,0.0098365,0,0,-0.82736,0.28536,0,0.025575,0,0,1.109,-0.020437,0,1.1092,-0.33569,-1.1919,-0.5553,89.342,-0.69428,0.77021,-0.017193,0.9,1,0
0.069959,0,0.075283,-1.161,-0.33849,-0.52514,0.012742,0,0,-0.82668,0.24265,0,0.033128,0,0,1.0587,-0.030356,0,1.0591,-0.33829,-1.1612,-0.52514,89.113,-0.67489,0.74726,-0.016998,0.92,1,0
0.053399,0,0.054695,-1.134,-0.30656,-0.48685,0.014605,0,0,-0.84125,0.23439,0,0.037972,0,0,0.99598,-0.03722,0,0.99667,-0.3063,-1.1342,-0.48685,88.989,-0.64246,0.75405,-0.017836,0.94,1,0
0.036309,0,0.035444,-1.1124,-0.24139,-0.44158,0.011413,0,0,-0.87208,0.26026,0,0.029675,0,0,0.93295,-0.03262,0,0.93351,-0.24124,-1.1126,-0.44158,89.249,-0.59846,0.79043,-0.019976,0.96,1,0
0.018516,0,0.017377,-1.1012,-0.1841,-0.40298,0.0079027,0,0,-0.90773,0.28454,0,0.020547,0,0,0.88609,-0.019048,0,0.88627,-0.18403,-1.1013,-0.40298,89.506,-0.56277,0.82975,-0.022598,0.98,1,0
0,0,0,-1.0785,-0.14256,-0.36631,-1.7347e-18,0,0,-0.9258,0.29087,0,-3.4694e-18,0,0,0.86887,-6.9389e-18,0,0.86884,-0.14256,-1.0785,-0.36631,-90,-0.52911,0.8465,-0.02397,1,1,0
